 "x_c",  "y_c",  "u_c",  "v_c",  "exx",  "eyy",  "exy",  "e1",  "e2",  "gamma",  "e_vonmises",  "sigma",  "x",  "y",  "u",  "v"
-700,715,0,0,0,0,0,0,0,0,0,-1,524,309,0,0
-693,715,0,0,0,0,0,0,0,0,0,-1,531,309,0,0
-686,715,0,0,0,0,0,0,0,0,0,-1,538,309,0,0
-679,715,0,0,0,0,0,0,0,0,0,-1,545,309,0,0
-672,715,0,0,0,0,0,0,0,0,0,-1,552,309,0,0
-665,715,0,0,0,0,0,0,0,0,0,-1,559,309,0,0
-658,715,0,0,0,0,0,0,0,0,0,-1,566,309,0,0
-651,715,0,0,0,0,0,0,0,0,0,-1,573,309,0,0
-644,715,0,0,0,0,0,0,0,0,0,-1,580,309,0,0
-637,715,0,0,0,0,0,0,0,0,0,-1,587,309,0,0
-630,715,0,0,0,0,0,0,0,0,0,-1,594,309,0,0
-623,715,0,0,0,0,0,0,0,0,0,-1,601,309,0,0
-616,715,0,0,0,0,0,0,0,0,0,-1,608,309,0,0
-609,715,0,0,0,0,0,0,0,0,0,-1,615,309,0,0
-602,715,0,0,0,0,0,0,0,0,0,-1,622,309,0,0
-595,715,0,0,0,0,0,0,0,0,0,-1,629,309,0,0
-588,715,0,0,0,0,0,0,0,0,0,-1,636,309,0,0
-581,715,0,0,0,0,0,0,0,0,0,-1,643,309,0,0
-574,715,0,0,0,0,0,0,0,0,0,-1,650,309,0,0
-567,715,0,0,0,0,0,0,0,0,0,-1,657,309,0,0
-560,715,0,0,0,0,0,0,0,0,0,-1,664,309,0,0
-553,715,0,0,0,0,0,0,0,0,0,-1,671,309,0,0
-546,715,0,0,0,0,0,0,0,0,0,-1,678,309,0,0
-539,715,0,0,0,0,0,0,0,0,0,-1,685,309,0,0
-532,715,0,0,0,0,0,0,0,0,0,-1,692,309,0,0
-525,715,0,0,0,0,0,0,0,0,0,-1,699,309,0,0
-518,715,0,0,0,0,0,0,0,0,0,-1,706,309,0,0
-511,715,0,0,0,0,0,0,0,0,0,-1,713,309,0,0
-504,715,0,0,0,0,0,0,0,0,0,-1,720,309,0,0
-497,715,0,0,0,0,0,0,0,0,0,-1,727,309,0,0
-490,715,0,0,0,0,0,0,0,0,0,-1,734,309,0,0
-483,715,0,0,0,0,0,0,0,0,0,-1,741,309,0,0
-476,715,0,0,0,0,0,0,0,0,0,-1,748,309,0,0
-469,715,0,0,0,0,0,0,0,0,0,-1,755,309,0,0
-462,715,0,0,0,0,0,0,0,0,0,-1,762,309,0,0
-455,715,0,0,0,0,0,0,0,0,0,-1,769,309,0,0
-448,715,0,0,0,0,0,0,0,0,0,-1,776,309,0,0
-441,715,0,0,0,0,0,0,0,0,0,-1,783,309,0,0
-434,715,0,0,0,0,0,0,0,0,0,-1,790,309,0,0
-427,715,0,0,0,0,0,0,0,0,0,-1,797,309,0,0
-420,715,0,0,0,0,0,0,0,0,0,-1,804,309,0,0
-413,715,0,0,0,0,0,0,0,0,0,-1,811,309,0,0
-406,715,0,0,0,0,0,0,0,0,0,-1,818,309,0,0
-399,715,0,0,0,0,0,0,0,0,0,-1,825,309,0,0
-392,715,0,0,0,0,0,0,0,0,0,-1,832,309,0,0
-385,715,0,0,0,0,0,0,0,0,0,-1,839,309,0,0
-378,715,0,0,0,0,0,0,0,0,0,-1,846,309,0,0
-371,715,0,0,0,0,0,0,0,0,0,-1,853,309,0,0
-364,715,0,0,0,0,0,0,0,0,0,-1,860,309,0,0
-357,715,0,0,0,0,0,0,0,0,0,-1,867,309,0,0
-350,715,0,0,0,0,0,0,0,0,0,-1,874,309,0,0
-343,715,0,0,0,0,0,0,0,0,0,-1,881,309,0,0
-336,715,0,0,0,0,0,0,0,0,0,-1,888,309,0,0
-329,715,0,0,0,0,0,0,0,0,0,-1,895,309,0,0
-322,715,0,0,0,0,0,0,0,0,0,-1,902,309,0,0
-315,715,0,0,0,0,0,0,0,0,0,-1,909,309,0,0
-308,715,0,0,0,0,0,0,0,0,0,-1,916,309,0,0
-301,715,0,0,0,0,0,0,0,0,0,-1,923,309,0,0
-294,715,0,0,0,0,0,0,0,0,0,-1,930,309,0,0
-287,715,0,0,0,0,0,0,0,0,0,-1,937,309,0,0
-280,715,0,0,0,0,0,0,0,0,0,-1,944,309,0,0
-273,715,0,0,0,0,0,0,0,0,0,-1,951,309,0,0
-266,715,0,0,0,0,0,0,0,0,0,-1,958,309,0,0
-259,715,0,0,0,0,0,0,0,0,0,-1,965,309,0,0
-252,715,0,0,0,0,0,0,0,0,0,-1,972,309,0,0
-245,715,0,0,0,0,0,0,0,0,0,-1,979,309,0,0
-238,715,0,0,0,0,0,0,0,0,0,-1,986,309,0,0
-231,715,0,0,0,0,0,0,0,0,0,-1,993,309,0,0
-224,715,0,0,0,0,0,0,0,0,0,-1,1000,309,0,0
-217,715,0,0,0,0,0,0,0,0,0,-1,1007,309,0,0
-210,715,0,0,0,0,0,0,0,0,0,-1,1014,309,0,0
-203,715,0,0,0,0,0,0,0,0,0,-1,1021,309,0,0
-196,715,0,0,0,0,0,0,0,0,0,-1,1028,309,0,0
-189,715,0,0,0,0,0,0,0,0,0,-1,1035,309,0,0
-182,715,0,0,0,0,0,0,0,0,0,-1,1042,309,0,0
-175,715,0,0,0,0,0,0,0,0,0,-1,1049,309,0,0
-168,715,0,0,0,0,0,0,0,0,0,-1,1056,309,0,0
-161,715,0,0,0,0,0,0,0,0,0,-1,1063,309,0,0
-154,715,0,0,0,0,0,0,0,0,0,-1,1070,309,0,0
-147,715,0,0,0,0,0,0,0,0,0,-1,1077,309,0,0
-140,715,0,0,0,0,0,0,0,0,0,-1,1084,309,0,0
-133,715,0,0,0,0,0,0,0,0,0,-1,1091,309,0,0
-126,715,0,0,0,0,0,0,0,0,0,-1,1098,309,0,0
-119,715,0,0,0,0,0,0,0,0,0,-1,1105,309,0,0
-112,715,0,0,0,0,0,0,0,0,0,-1,1112,309,0,0
-105,715,0,0,0,0,0,0,0,0,0,-1,1119,309,0,0
-98,715,0,0,0,0,0,0,0,0,0,-1,1126,309,0,0
-91,715,0,0,0,0,0,0,0,0,0,-1,1133,309,0,0
-84,715,0,0,0,0,0,0,0,0,0,-1,1140,309,0,0
-77,715,0,0,0,0,0,0,0,0,0,-1,1147,309,0,0
-70,715,0,0,0,0,0,0,0,0,0,-1,1154,309,0,0
-63,715,0,0,0,0,0,0,0,0,0,-1,1161,309,0,0
-56,715,0,0,0,0,0,0,0,0,0,-1,1168,309,0,0
-49,715,0,0,0,0,0,0,0,0,0,-1,1175,309,0,0
-42,715,0,0,0,0,0,0,0,0,0,-1,1182,309,0,0
-35,715,0,0,0,0,0,0,0,0,0,-1,1189,309,0,0
-28,715,0,0,0,0,0,0,0,0,0,-1,1196,309,0,0
-21,715,0,0,0,0,0,0,0,0,0,-1,1203,309,0,0
-14,715,0,0,0,0,0,0,0,0,0,-1,1210,309,0,0
-7,715,0,0,0,0,0,0,0,0,0,-1,1217,309,0,0
0,715,0,0,0,0,0,0,0,0,0,-1,1224,309,0,0
7,715,0,0,0,0,0,0,0,0,0,-1,1231,309,0,0
14,715,0,0,0,0,0,0,0,0,0,-1,1238,309,0,0
21,715,0,0,0,0,0,0,0,0,0,-1,1245,309,0,0
28,715,0,0,0,0,0,0,0,0,0,-1,1252,309,0,0
35,715,0,0,0,0,0,0,0,0,0,-1,1259,309,0,0
42,715,0,0,0,0,0,0,0,0,0,-1,1266,309,0,0
49,715,0,0,0,0,0,0,0,0,0,-1,1273,309,0,0
56,715,0,0,0,0,0,0,0,0,0,-1,1280,309,0,0
63,715,5.69299,-49.5733,0.0297506,-0.0232813,0.0423902,0.0532349,-0.0467656,0.505911,0.0577756,0.0477671,1287,309,5.69303,49.5733
70,715,5.03796,-48.9697,0.0205119,-0.0371777,0.0513811,0.0505912,-0.0672569,0.529626,0.068266,0.0466903,1294,309,5.03799,48.9697
77,715,0,0,0,0,0,0,0,0,0,-1,1301,309,0,0
84,715,0,0,0,0,0,0,0,0,0,-1,1308,309,0,0
91,715,0,0,0,0,0,0,0,0,0,-1,1315,309,0,0
98,715,0,0,0,0,0,0,0,0,0,-1,1322,309,0,0
105,715,0,0,0,0,0,0,0,0,0,-1,1329,309,0,0
112,715,0,0,0,0,0,0,0,0,0,-1,1336,309,0,0
119,715,0,0,0,0,0,0,0,0,0,-1,1343,309,0,0
126,715,0,0,0,0,0,0,0,0,0,-1,1350,309,0,0
133,715,0,0,0,0,0,0,0,0,0,-1,1357,309,0,0
140,715,0,0,0,0,0,0,0,0,0,-1,1364,309,0,0
147,715,0,0,0,0,0,0,0,0,0,-1,1371,309,0,0
154,715,0,0,0,0,0,0,0,0,0,-1,1378,309,0,0
161,715,0,0,0,0,0,0,0,0,0,-1,1385,309,0,0
168,715,0,0,0,0,0,0,0,0,0,-1,1392,309,0,0
175,715,0,0,0,0,0,0,0,0,0,-1,1399,309,0,0
182,715,0,0,0,0,0,0,0,0,0,-1,1406,309,0,0
189,715,0,0,0,0,0,0,0,0,0,-1,1413,309,0,0
196,715,0,0,0,0,0,0,0,0,0,-1,1420,309,0,0
203,715,0,0,0,0,0,0,0,0,0,-1,1427,309,0,0
210,715,0,0,0,0,0,0,0,0,0,-1,1434,309,0,0
217,715,0,0,0,0,0,0,0,0,0,-1,1441,309,0,0
224,715,0,0,0,0,0,0,0,0,0,-1,1448,309,0,0
231,715,0,0,0,0,0,0,0,0,0,-1,1455,309,0,0
238,715,0,0,0,0,0,0,0,0,0,-1,1462,309,0,0
245,715,0,0,0,0,0,0,0,0,0,-1,1469,309,0,0
252,715,0,0,0,0,0,0,0,0,0,-1,1476,309,0,0
259,715,0,0,0,0,0,0,0,0,0,-1,1483,309,0,0
266,715,0,0,0,0,0,0,0,0,0,-1,1490,309,0,0
273,715,0,0,0,0,0,0,0,0,0,-1,1497,309,0,0
280,715,0,0,0,0,0,0,0,0,0,-1,1504,309,0,0
287,715,0,0,0,0,0,0,0,0,0,-1,1511,309,0,0
294,715,0,0,0,0,0,0,0,0,0,-1,1518,309,0,0
301,715,0,0,0,0,0,0,0,0,0,-1,1525,309,0,0
308,715,0,0,0,0,0,0,0,0,0,-1,1532,309,0,0
315,715,0,0,0,0,0,0,0,0,0,-1,1539,309,0,0
322,715,0,0,0,0,0,0,0,0,0,-1,1546,309,0,0
329,715,0,0,0,0,0,0,0,0,0,-1,1553,309,0,0
336,715,0,0,0,0,0,0,0,0,0,-1,1560,309,0,0
343,715,0,0,0,0,0,0,0,0,0,-1,1567,309,0,0
350,715,0,0,0,0,0,0,0,0,0,-1,1574,309,0,0
357,715,0,0,0,0,0,0,0,0,0,-1,1581,309,0,0
364,715,0,0,0,0,0,0,0,0,0,-1,1588,309,0,0
371,715,0,0,0,0,0,0,0,0,0,-1,1595,309,0,0
378,715,0,0,0,0,0,0,0,0,0,-1,1602,309,0,0
385,715,0,0,0,0,0,0,0,0,0,-1,1609,309,0,0
392,715,0,0,0,0,0,0,0,0,0,-1,1616,309,0,0
399,715,0,0,0,0,0,0,0,0,0,-1,1623,309,0,0
406,715,0,0,0,0,0,0,0,0,0,-1,1630,309,0,0
413,715,0,0,0,0,0,0,0,0,0,-1,1637,309,0,0
420,715,0,0,0,0,0,0,0,0,0,-1,1644,309,0,0
427,715,0,0,0,0,0,0,0,0,0,-1,1651,309,0,0
434,715,0,0,0,0,0,0,0,0,0,-1,1658,309,0,0
441,715,0,0,0,0,0,0,0,0,0,-1,1665,309,0,0
448,715,0,0,0,0,0,0,0,0,0,-1,1672,309,0,0
455,715,0,0,0,0,0,0,0,0,0,-1,1679,309,0,0
462,715,0,0,0,0,0,0,0,0,0,-1,1686,309,0,0
469,715,0,0,0,0,0,0,0,0,0,-1,1693,309,0,0
476,715,0,0,0,0,0,0,0,0,0,-1,1700,309,0,0
483,715,0,0,0,0,0,0,0,0,0,-1,1707,309,0,0
490,715,0,0,0,0,0,0,0,0,0,-1,1714,309,0,0
497,715,0,0,0,0,0,0,0,0,0,-1,1721,309,0,0
504,715,0,0,0,0,0,0,0,0,0,-1,1728,309,0,0
511,715,0,0,0,0,0,0,0,0,0,-1,1735,309,0,0
518,715,0,0,0,0,0,0,0,0,0,-1,1742,309,0,0
525,715,0,0,0,0,0,0,0,0,0,-1,1749,309,0,0
532,715,0,0,0,0,0,0,0,0,0,-1,1756,309,0,0
539,715,0,0,0,0,0,0,0,0,0,-1,1763,309,0,0
546,715,0,0,0,0,0,0,0,0,0,-1,1770,309,0,0
553,715,0,0,0,0,0,0,0,0,0,-1,1777,309,0,0
560,715,0,0,0,0,0,0,0,0,0,-1,1784,309,0,0
567,715,0,0,0,0,0,0,0,0,0,-1,1791,309,0,0
574,715,0,0,0,0,0,0,0,0,0,-1,1798,309,0,0
581,715,0,0,0,0,0,0,0,0,0,-1,1805,309,0,0
588,715,0,0,0,0,0,0,0,0,0,-1,1812,309,0,0
595,715,0,0,0,0,0,0,0,0,0,-1,1819,309,0,0
602,715,0,0,0,0,0,0,0,0,0,-1,1826,309,0,0
609,715,0,0,0,0,0,0,0,0,0,-1,1833,309,0,0
616,715,0,0,0,0,0,0,0,0,0,-1,1840,309,0,0
623,715,0,0,0,0,0,0,0,0,0,-1,1847,309,0,0
630,715,0,0,0,0,0,0,0,0,0,-1,1854,309,0,0
637,715,0,0,0,0,0,0,0,0,0,-1,1861,309,0,0
644,715,0,0,0,0,0,0,0,0,0,-1,1868,309,0,0
651,715,0,0,0,0,0,0,0,0,0,-1,1875,309,0,0
658,715,0,0,0,0,0,0,0,0,0,-1,1882,309,0,0
665,715,0,0,0,0,0,0,0,0,0,-1,1889,309,0,0
672,715,0,0,0,0,0,0,0,0,0,-1,1896,309,0,0
679,715,0,0,0,0,0,0,0,0,0,-1,1903,309,0,0
686,715,0,0,0,0,0,0,0,0,0,-1,1910,309,0,0
693,715,0,0,0,0,0,0,0,0,0,-1,1917,309,0,0
700,715,0,0,0,0,0,0,0,0,0,-1,1924,309,0,0
707,715,0,0,0,0,0,0,0,0,0,-1,1931,309,0,0
714,715,0,0,0,0,0,0,0,0,0,-1,1938,309,0,0
721,715,0,0,0,0,0,0,0,0,0,-1,1945,309,0,0
728,715,0,0,0,0,0,0,0,0,0,-1,1952,309,0,0
735,715,0,0,0,0,0,0,0,0,0,-1,1959,309,0,0
742,715,0,0,0,0,0,0,0,0,0,-1,1966,309,0,0
749,715,0,0,0,0,0,0,0,0,0,-1,1973,309,0,0
756,715,0,0,0,0,0,0,0,0,0,-1,1980,309,0,0
763,715,0,0,0,0,0,0,0,0,0,-1,1987,309,0,0
770,715,0,0,0,0,0,0,0,0,0,-1,1994,309,0,0
777,715,0,0,0,0,0,0,0,0,0,-1,2001,309,0,0
784,715,0,0,0,0,0,0,0,0,0,-1,2008,309,0,0
791,715,0,0,0,0,0,0,0,0,0,-1,2015,309,0,0
798,715,0,0,0,0,0,0,0,0,0,-1,2022,309,0,0
805,715,0,0,0,0,0,0,0,0,0,-1,2029,309,0,0
812,715,0,0,0,0,0,0,0,0,0,-1,2036,309,0,0
-700,708,0,0,0,0,0,0,0,0,0,-1,524,316,0,0
-693,708,0,0,0,0,0,0,0,0,0,-1,531,316,0,0
-686,708,0,0,0,0,0,0,0,0,0,-1,538,316,0,0
-679,708,0,0,0,0,0,0,0,0,0,-1,545,316,0,0
-672,708,0,0,0,0,0,0,0,0,0,-1,552,316,0,0
-665,708,0,0,0,0,0,0,0,0,0,-1,559,316,0,0
-658,708,0,0,0,0,0,0,0,0,0,-1,566,316,0,0
-651,708,0,0,0,0,0,0,0,0,0,-1,573,316,0,0
-644,708,0,0,0,0,0,0,0,0,0,-1,580,316,0,0
-637,708,0,0,0,0,0,0,0,0,0,-1,587,316,0,0
-630,708,0,0,0,0,0,0,0,0,0,-1,594,316,0,0
-623,708,0,0,0,0,0,0,0,0,0,-1,601,316,0,0
-616,708,0,0,0,0,0,0,0,0,0,-1,608,316,0,0
-609,708,0,0,0,0,0,0,0,0,0,-1,615,316,0,0
-602,708,0,0,0,0,0,0,0,0,0,-1,622,316,0,0
-595,708,0,0,0,0,0,0,0,0,0,-1,629,316,0,0
-588,708,0,0,0,0,0,0,0,0,0,-1,636,316,0,0
-581,708,0,0,0,0,0,0,0,0,0,-1,643,316,0,0
-574,708,0,0,0,0,0,0,0,0,0,-1,650,316,0,0
-567,708,0,0,0,0,0,0,0,0,0,-1,657,316,0,0
-560,708,0,0,0,0,0,0,0,0,0,-1,664,316,0,0
-553,708,0,0,0,0,0,0,0,0,0,-1,671,316,0,0
-546,708,0,0,0,0,0,0,0,0,0,-1,678,316,0,0
-539,708,0,0,0,0,0,0,0,0,0,-1,685,316,0,0
-532,708,0,0,0,0,0,0,0,0,0,-1,692,316,0,0
-525,708,0,0,0,0,0,0,0,0,0,-1,699,316,0,0
-518,708,0,0,0,0,0,0,0,0,0,-1,706,316,0,0
-511,708,0,0,0,0,0,0,0,0,0,-1,713,316,0,0
-504,708,0,0,0,0,0,0,0,0,0,-1,720,316,0,0
-497,708,0,0,0,0,0,0,0,0,0,-1,727,316,0,0
-490,708,0,0,0,0,0,0,0,0,0,-1,734,316,0,0
-483,708,0,0,0,0,0,0,0,0,0,-1,741,316,0,0
-476,708,0,0,0,0,0,0,0,0,0,-1,748,316,0,0
-469,708,0,0,0,0,0,0,0,0,0,-1,755,316,0,0
-462,708,0,0,0,0,0,0,0,0,0,-1,762,316,0,0
-455,708,0,0,0,0,0,0,0,0,0,-1,769,316,0,0
-448,708,0,0,0,0,0,0,0,0,0,-1,776,316,0,0
-441,708,0,0,0,0,0,0,0,0,0,-1,783,316,0,0
-434,708,0,0,0,0,0,0,0,0,0,-1,790,316,0,0
-427,708,0,0,0,0,0,0,0,0,0,-1,797,316,0,0
-420,708,0,0,0,0,0,0,0,0,0,-1,804,316,0,0
-413,708,0,0,0,0,0,0,0,0,0,-1,811,316,0,0
-406,708,0,0,0,0,0,0,0,0,0,-1,818,316,0,0
-399,708,0,0,0,0,0,0,0,0,0,-1,825,316,0,0
-392,708,0,0,0,0,0,0,0,0,0,-1,832,316,0,0
-385,708,0,0,0,0,0,0,0,0,0,-1,839,316,0,0
-378,708,0,0,0,0,0,0,0,0,0,-1,846,316,0,0
-371,708,0,0,0,0,0,0,0,0,0,-1,853,316,0,0
-364,708,0,0,0,0,0,0,0,0,0,-1,860,316,0,0
-357,708,0,0,0,0,0,0,0,0,0,-1,867,316,0,0
-350,708,0,0,0,0,0,0,0,0,0,-1,874,316,0,0
-343,708,0,0,0,0,0,0,0,0,0,-1,881,316,0,0
-336,708,0,0,0,0,0,0,0,0,0,-1,888,316,0,0
-329,708,0,0,0,0,0,0,0,0,0,-1,895,316,0,0
-322,708,0,0,0,0,0,0,0,0,0,-1,902,316,0,0
-315,708,0,0,0,0,0,0,0,0,0,-1,909,316,0,0
-308,708,0,0,0,0,0,0,0,0,0,-1,916,316,0,0
-301,708,0,0,0,0,0,0,0,0,0,-1,923,316,0,0
-294,708,0,0,0,0,0,0,0,0,0,-1,930,316,0,0
-287,708,0,0,0,0,0,0,0,0,0,-1,937,316,0,0
-280,708,0,0,0,0,0,0,0,0,0,-1,944,316,0,0
-273,708,0,0,0,0,0,0,0,0,0,-1,951,316,0,0
-266,708,0,0,0,0,0,0,0,0,0,-1,958,316,0,0
-259,708,0,0,0,0,0,0,0,0,0,-1,965,316,0,0
-252,708,0,0,0,0,0,0,0,0,0,-1,972,316,0,0
-245,708,0,0,0,0,0,0,0,0,0,-1,979,316,0,0
-238,708,0,0,0,0,0,0,0,0,0,-1,986,316,0,0
-231,708,0,0,0,0,0,0,0,0,0,-1,993,316,0,0
-224,708,0,0,0,0,0,0,0,0,0,-1,1000,316,0,0
-217,708,0,0,0,0,0,0,0,0,0,-1,1007,316,0,0
-210,708,0,0,0,0,0,0,0,0,0,-1,1014,316,0,0
-203,708,0,0,0,0,0,0,0,0,0,-1,1021,316,0,0
-196,708,0,0,0,0,0,0,0,0,0,-1,1028,316,0,0
-189,708,0,0,0,0,0,0,0,0,0,-1,1035,316,0,0
-182,708,0,0,0,0,0,0,0,0,0,-1,1042,316,0,0
-175,708,0,0,0,0,0,0,0,0,0,-1,1049,316,0,0
-168,708,0,0,0,0,0,0,0,0,0,-1,1056,316,0,0
-161,708,0,0,0,0,0,0,0,0,0,-1,1063,316,0,0
-154,708,0,0,0,0,0,0,0,0,0,-1,1070,316,0,0
-147,708,0,0,0,0,0,0,0,0,0,-1,1077,316,0,0
-140,708,0,0,0,0,0,0,0,0,0,-1,1084,316,0,0
-133,708,0,0,0,0,0,0,0,0,0,-1,1091,316,0,0
-126,708,0,0,0,0,0,0,0,0,0,-1,1098,316,0,0
-119,708,0,0,0,0,0,0,0,0,0,-1,1105,316,0,0
-112,708,0,0,0,0,0,0,0,0,0,-1,1112,316,0,0
-105,708,0,0,0,0,0,0,0,0,0,-1,1119,316,0,0
-98,708,0,0,0,0,0,0,0,0,0,-1,1126,316,0,0
-91,708,0,0,0,0,0,0,0,0,0,-1,1133,316,0,0
-84,708,0,0,0,0,0,0,0,0,0,-1,1140,316,0,0
-77,708,0,0,0,0,0,0,0,0,0,-1,1147,316,0,0
-70,708,0,0,0,0,0,0,0,0,0,-1,1154,316,0,0
-63,708,0,0,0,0,0,0,0,0,0,-1,1161,316,0,0
-56,708,0,0,0,0,0,0,0,0,0,-1,1168,316,0,0
-49,708,0,0,0,0,0,0,0,0,0,-1,1175,316,0,0
-42,708,0,0,0,0,0,0,0,0,0,-1,1182,316,0,0
-35,708,-2.71204,-6.31558,0,0,0,0,0,0,0,-1,1189,316,-2.712,6.3156
-28,708,-2.92371,-5.53253,0,0,0,0,0,0,0,-1,1196,316,-2.92375,5.53254
-21,708,-0.417969,-24.5911,0,0,0,0,0,0,0,-1,1203,316,-0.418022,24.5911
-14,708,6.35413,-43.5679,0,0,0,0,0,0,0,-1,1210,316,6.35413,43.5679
-7,708,6.95667,-44.9442,0,0,0,0,0,0,0,-1,1217,316,6.95664,44.9441
0,708,6.3916,-44.0906,0,0,0,0,0,0,0,-1,1224,316,6.39159,44.0906
7,708,7.21814,-43.8015,0.0821191,0.148581,-0.00682674,0.149275,0.0814251,-1.46949,0.0863029,0.0441517,1231,316,7.21811,43.8015
14,708,7.84314,-43.6065,0.0726396,0.132934,0.000435697,0.132937,0.0726365,1.56357,0.0768612,0.0431092,1238,316,7.84313,43.6065
21,708,8.03711,-43.5021,0.0623023,0.11345,0.00467379,0.113874,0.0618788,1.48042,0.0658275,0.0434736,1245,316,8.03705,43.5021
28,708,8.41565,-43.6476,0,0,0,0,0,0,0,-1,1252,316,8.41564,43.6476
35,708,9.31299,-44.0544,0.05091,0.0723312,0.0136853,0.0789989,0.0442424,1.11743,0.0457195,0.045607,1259,316,9.31298,44.0543
42,708,10.3033,-44.619,0,0,0,0,0,0,0,-1,1266,316,10.3033,44.619
49,708,5.34631,-45.1786,0,0,0,0,0,0,0,-1,1273,316,5.34625,45.1785
56,708,5.74036,-49.9732,0,0,0,0,0,0,0,-1,1280,316,5.74035,49.9732
63,708,5.67615,-49.3524,0.0254906,0.0038334,0.0336084,0.0499718,-0.0206478,0.62955,0.0419275,0.0447949,1287,316,5.6762,49.3524
70,708,5.58704,-48.4402,0.0170607,-0.00733984,0.0426754,0.0492455,-0.0395246,0.646169,0.0513538,0.0458833,1294,316,5.58698,48.4402
77,708,5.90747,-47.8385,0.00624132,-0.0141243,0.0582875,0.0552288,-0.0631118,0.698921,0.0683745,0.0440332,1301,316,5.90742,47.8385
84,708,6.35999,-47.2345,-0.0069626,0.0189291,0.0748537,0.0819482,-0.0699816,0.871026,0.0878074,0.042632,1308,316,6.36002,47.2345
91,708,7.88818,-43.436,0,0,0,0,0,0,0,-1,1315,316,7.88823,43.436
98,708,5.87537,-36.9948,0,0,0,0,0,0,0,-1,1322,316,5.87535,36.9948
105,708,5.94812,-39.1461,0,0,0,0,0,0,0,-1,1329,316,5.94817,39.1461
112,708,11.157,-46.8029,0,0,0,0,0,0,0,-1,1336,316,11.157,46.8029
119,708,9.54956,-46.0794,-0.0804191,0.191658,0.13542,0.24757,-0.136331,1.17924,0.224726,0.044399,1343,316,9.5496,46.0794
126,708,8.24524,-44.8494,-0.0932561,0.235235,0.143138,0.288854,-0.146875,1.21238,0.255982,0.0465633,1350,316,8.24526,44.8494
133,708,-0.672241,-38.8632,-0.103668,0.274805,0.139452,0.320637,-0.1495,1.25326,0.277364,0.0475162,1357,316,-0.672264,38.8632
140,708,-1.24878,-37.7248,0,0,0,0,0,0,0,-1,1364,316,-1.24873,37.7248
147,708,-1.41577,-37.05,0,0,0,0,0,0,0,-1,1371,316,-1.41581,37.05
154,708,0,0,0,0,0,0,0,0,0,-1,1378,316,0,0
161,708,0,0,0,0,0,0,0,0,0,-1,1385,316,0,0
168,708,0,0,0,0,0,0,0,0,0,-1,1392,316,0,0
175,708,0,0,0,0,0,0,0,0,0,-1,1399,316,0,0
182,708,0,0,0,0,0,0,0,0,0,-1,1406,316,0,0
189,708,0,0,0,0,0,0,0,0,0,-1,1413,316,0,0
196,708,0,0,0,0,0,0,0,0,0,-1,1420,316,0,0
203,708,0,0,0,0,0,0,0,0,0,-1,1427,316,0,0
210,708,0,0,0,0,0,0,0,0,0,-1,1434,316,0,0
217,708,0,0,0,0,0,0,0,0,0,-1,1441,316,0,0
224,708,0,0,0,0,0,0,0,0,0,-1,1448,316,0,0
231,708,0,0,0,0,0,0,0,0,0,-1,1455,316,0,0
238,708,0,0,0,0,0,0,0,0,0,-1,1462,316,0,0
245,708,0,0,0,0,0,0,0,0,0,-1,1469,316,0,0
252,708,0,0,0,0,0,0,0,0,0,-1,1476,316,0,0
259,708,0,0,0,0,0,0,0,0,0,-1,1483,316,0,0
266,708,0,0,0,0,0,0,0,0,0,-1,1490,316,0,0
273,708,0,0,0,0,0,0,0,0,0,-1,1497,316,0,0
280,708,0,0,0,0,0,0,0,0,0,-1,1504,316,0,0
287,708,0,0,0,0,0,0,0,0,0,-1,1511,316,0,0
294,708,0,0,0,0,0,0,0,0,0,-1,1518,316,0,0
301,708,0,0,0,0,0,0,0,0,0,-1,1525,316,0,0
308,708,0,0,0,0,0,0,0,0,0,-1,1532,316,0,0
315,708,0,0,0,0,0,0,0,0,0,-1,1539,316,0,0
322,708,0,0,0,0,0,0,0,0,0,-1,1546,316,0,0
329,708,0,0,0,0,0,0,0,0,0,-1,1553,316,0,0
336,708,0,0,0,0,0,0,0,0,0,-1,1560,316,0,0
343,708,0,0,0,0,0,0,0,0,0,-1,1567,316,0,0
350,708,0,0,0,0,0,0,0,0,0,-1,1574,316,0,0
357,708,0,0,0,0,0,0,0,0,0,-1,1581,316,0,0
364,708,0,0,0,0,0,0,0,0,0,-1,1588,316,0,0
371,708,0,0,0,0,0,0,0,0,0,-1,1595,316,0,0
378,708,0,0,0,0,0,0,0,0,0,-1,1602,316,0,0
385,708,0,0,0,0,0,0,0,0,0,-1,1609,316,0,0
392,708,0,0,0,0,0,0,0,0,0,-1,1616,316,0,0
399,708,0,0,0,0,0,0,0,0,0,-1,1623,316,0,0
406,708,0,0,0,0,0,0,0,0,0,-1,1630,316,0,0
413,708,0,0,0,0,0,0,0,0,0,-1,1637,316,0,0
420,708,0,0,0,0,0,0,0,0,0,-1,1644,316,0,0
427,708,0,0,0,0,0,0,0,0,0,-1,1651,316,0,0
434,708,0,0,0,0,0,0,0,0,0,-1,1658,316,0,0
441,708,0,0,0,0,0,0,0,0,0,-1,1665,316,0,0
448,708,0,0,0,0,0,0,0,0,0,-1,1672,316,0,0
455,708,0,0,0,0,0,0,0,0,0,-1,1679,316,0,0
462,708,0,0,0,0,0,0,0,0,0,-1,1686,316,0,0
469,708,0,0,0,0,0,0,0,0,0,-1,1693,316,0,0
476,708,0,0,0,0,0,0,0,0,0,-1,1700,316,0,0
483,708,0,0,0,0,0,0,0,0,0,-1,1707,316,0,0
490,708,0,0,0,0,0,0,0,0,0,-1,1714,316,0,0
497,708,0,0,0,0,0,0,0,0,0,-1,1721,316,0,0
504,708,0,0,0,0,0,0,0,0,0,-1,1728,316,0,0
511,708,0,0,0,0,0,0,0,0,0,-1,1735,316,0,0
518,708,0,0,0,0,0,0,0,0,0,-1,1742,316,0,0
525,708,0,0,0,0,0,0,0,0,0,-1,1749,316,0,0
532,708,0,0,0,0,0,0,0,0,0,-1,1756,316,0,0
539,708,0,0,0,0,0,0,0,0,0,-1,1763,316,0,0
546,708,0,0,0,0,0,0,0,0,0,-1,1770,316,0,0
553,708,0,0,0,0,0,0,0,0,0,-1,1777,316,0,0
560,708,0,0,0,0,0,0,0,0,0,-1,1784,316,0,0
567,708,0,0,0,0,0,0,0,0,0,-1,1791,316,0,0
574,708,0,0,0,0,0,0,0,0,0,-1,1798,316,0,0
581,708,0,0,0,0,0,0,0,0,0,-1,1805,316,0,0
588,708,0,0,0,0,0,0,0,0,0,-1,1812,316,0,0
595,708,0,0,0,0,0,0,0,0,0,-1,1819,316,0,0
602,708,0,0,0,0,0,0,0,0,0,-1,1826,316,0,0
609,708,0,0,0,0,0,0,0,0,0,-1,1833,316,0,0
616,708,0,0,0,0,0,0,0,0,0,-1,1840,316,0,0
623,708,0,0,0,0,0,0,0,0,0,-1,1847,316,0,0
630,708,0,0,0,0,0,0,0,0,0,-1,1854,316,0,0
637,708,0,0,0,0,0,0,0,0,0,-1,1861,316,0,0
644,708,0,0,0,0,0,0,0,0,0,-1,1868,316,0,0
651,708,0,0,0,0,0,0,0,0,0,-1,1875,316,0,0
658,708,0,0,0,0,0,0,0,0,0,-1,1882,316,0,0
665,708,0,0,0,0,0,0,0,0,0,-1,1889,316,0,0
672,708,0,0,0,0,0,0,0,0,0,-1,1896,316,0,0
679,708,0,0,0,0,0,0,0,0,0,-1,1903,316,0,0
686,708,0,0,0,0,0,0,0,0,0,-1,1910,316,0,0
693,708,0,0,0,0,0,0,0,0,0,-1,1917,316,0,0
700,708,0,0,0,0,0,0,0,0,0,-1,1924,316,0,0
707,708,0,0,0,0,0,0,0,0,0,-1,1931,316,0,0
714,708,0,0,0,0,0,0,0,0,0,-1,1938,316,0,0
721,708,0,0,0,0,0,0,0,0,0,-1,1945,316,0,0
728,708,0,0,0,0,0,0,0,0,0,-1,1952,316,0,0
735,708,0,0,0,0,0,0,0,0,0,-1,1959,316,0,0
742,708,0,0,0,0,0,0,0,0,0,-1,1966,316,0,0
749,708,0,0,0,0,0,0,0,0,0,-1,1973,316,0,0
756,708,0,0,0,0,0,0,0,0,0,-1,1980,316,0,0
763,708,0,0,0,0,0,0,0,0,0,-1,1987,316,0,0
770,708,0,0,0,0,0,0,0,0,0,-1,1994,316,0,0
777,708,0,0,0,0,0,0,0,0,0,-1,2001,316,0,0
784,708,0,0,0,0,0,0,0,0,0,-1,2008,316,0,0
791,708,0,0,0,0,0,0,0,0,0,-1,2015,316,0,0
798,708,0,0,0,0,0,0,0,0,0,-1,2022,316,0,0
805,708,0,0,0,0,0,0,0,0,0,-1,2029,316,0,0
812,708,0,0,0,0,0,0,0,0,0,-1,2036,316,0,0
-700,701,0,0,0,0,0,0,0,0,0,-1,524,323,0,0
-693,701,0,0,0,0,0,0,0,0,0,-1,531,323,0,0
-686,701,0,0,0,0,0,0,0,0,0,-1,538,323,0,0
-679,701,0,0,0,0,0,0,0,0,0,-1,545,323,0,0
-672,701,0,0,0,0,0,0,0,0,0,-1,552,323,0,0
-665,701,0,0,0,0,0,0,0,0,0,-1,559,323,0,0
-658,701,0,0,0,0,0,0,0,0,0,-1,566,323,0,0
-651,701,0,0,0,0,0,0,0,0,0,-1,573,323,0,0
-644,701,0,0,0,0,0,0,0,0,0,-1,580,323,0,0
-637,701,0,0,0,0,0,0,0,0,0,-1,587,323,0,0
-630,701,0,0,0,0,0,0,0,0,0,-1,594,323,0,0
-623,701,0,0,0,0,0,0,0,0,0,-1,601,323,0,0
-616,701,0,0,0,0,0,0,0,0,0,-1,608,323,0,0
-609,701,0,0,0,0,0,0,0,0,0,-1,615,323,0,0
-602,701,0,0,0,0,0,0,0,0,0,-1,622,323,0,0
-595,701,0,0,0,0,0,0,0,0,0,-1,629,323,0,0
-588,701,0,0,0,0,0,0,0,0,0,-1,636,323,0,0
-581,701,0,0,0,0,0,0,0,0,0,-1,643,323,0,0
-574,701,0,0,0,0,0,0,0,0,0,-1,650,323,0,0
-567,701,0,0,0,0,0,0,0,0,0,-1,657,323,0,0
-560,701,0,0,0,0,0,0,0,0,0,-1,664,323,0,0
-553,701,0,0,0,0,0,0,0,0,0,-1,671,323,0,0
-546,701,0,0,0,0,0,0,0,0,0,-1,678,323,0,0
-539,701,0,0,0,0,0,0,0,0,0,-1,685,323,0,0
-532,701,0,0,0,0,0,0,0,0,0,-1,692,323,0,0
-525,701,0,0,0,0,0,0,0,0,0,-1,699,323,0,0
-518,701,0,0,0,0,0,0,0,0,0,-1,706,323,0,0
-511,701,0,0,0,0,0,0,0,0,0,-1,713,323,0,0
-504,701,0,0,0,0,0,0,0,0,0,-1,720,323,0,0
-497,701,0,0,0,0,0,0,0,0,0,-1,727,323,0,0
-490,701,0,0,0,0,0,0,0,0,0,-1,734,323,0,0
-483,701,0,0,0,0,0,0,0,0,0,-1,741,323,0,0
-476,701,0,0,0,0,0,0,0,0,0,-1,748,323,0,0
-469,701,0,0,0,0,0,0,0,0,0,-1,755,323,0,0
-462,701,0,0,0,0,0,0,0,0,0,-1,762,323,0,0
-455,701,0,0,0,0,0,0,0,0,0,-1,769,323,0,0
-448,701,0,0,0,0,0,0,0,0,0,-1,776,323,0,0
-441,701,0,0,0,0,0,0,0,0,0,-1,783,323,0,0
-434,701,0,0,0,0,0,0,0,0,0,-1,790,323,0,0
-427,701,0,0,0,0,0,0,0,0,0,-1,797,323,0,0
-420,701,0,0,0,0,0,0,0,0,0,-1,804,323,0,0
-413,701,0,0,0,0,0,0,0,0,0,-1,811,323,0,0
-406,701,0,0,0,0,0,0,0,0,0,-1,818,323,0,0
-399,701,0,0,0,0,0,0,0,0,0,-1,825,323,0,0
-392,701,0,0,0,0,0,0,0,0,0,-1,832,323,0,0
-385,701,0,0,0,0,0,0,0,0,0,-1,839,323,0,0
-378,701,0,0,0,0,0,0,0,0,0,-1,846,323,0,0
-371,701,0,0,0,0,0,0,0,0,0,-1,853,323,0,0
-364,701,0,0,0,0,0,0,0,0,0,-1,860,323,0,0
-357,701,0,0,0,0,0,0,0,0,0,-1,867,323,0,0
-350,701,0,0,0,0,0,0,0,0,0,-1,874,323,0,0
-343,701,0,0,0,0,0,0,0,0,0,-1,881,323,0,0
-336,701,0,0,0,0,0,0,0,0,0,-1,888,323,0,0
-329,701,0,0,0,0,0,0,0,0,0,-1,895,323,0,0
-322,701,0,0,0,0,0,0,0,0,0,-1,902,323,0,0
-315,701,0,0,0,0,0,0,0,0,0,-1,909,323,0,0
-308,701,0,0,0,0,0,0,0,0,0,-1,916,323,0,0
-301,701,0,0,0,0,0,0,0,0,0,-1,923,323,0,0
-294,701,0,0,0,0,0,0,0,0,0,-1,930,323,0,0
-287,701,0,0,0,0,0,0,0,0,0,-1,937,323,0,0
-280,701,0,0,0,0,0,0,0,0,0,-1,944,323,0,0
-273,701,0,0,0,0,0,0,0,0,0,-1,951,323,0,0
-266,701,0,0,0,0,0,0,0,0,0,-1,958,323,0,0
-259,701,0,0,0,0,0,0,0,0,0,-1,965,323,0,0
-252,701,0,0,0,0,0,0,0,0,0,-1,972,323,0,0
-245,701,0,0,0,0,0,0,0,0,0,-1,979,323,0,0
-238,701,0,0,0,0,0,0,0,0,0,-1,986,323,0,0
-231,701,0,0,0,0,0,0,0,0,0,-1,993,323,0,0
-224,701,0,0,0,0,0,0,0,0,0,-1,1000,323,0,0
-217,701,0,0,0,0,0,0,0,0,0,-1,1007,323,0,0
-210,701,0,0,0,0,0,0,0,0,0,-1,1014,323,0,0
-203,701,0,0,0,0,0,0,0,0,0,-1,1021,323,0,0
-196,701,0,0,0,0,0,0,0,0,0,-1,1028,323,0,0
-189,701,0,0,0,0,0,0,0,0,0,-1,1035,323,0,0
-182,701,0,0,0,0,0,0,0,0,0,-1,1042,323,0,0
-175,701,0,0,0,0,0,0,0,0,0,-1,1049,323,0,0
-168,701,0,0,0,0,0,0,0,0,0,-1,1056,323,0,0
-161,701,0,0,0,0,0,0,0,0,0,-1,1063,323,0,0
-154,701,0,0,0,0,0,0,0,0,0,-1,1070,323,0,0
-147,701,0,0,0,0,0,0,0,0,0,-1,1077,323,0,0
-140,701,0,0,0,0,0,0,0,0,0,-1,1084,323,0,0
-133,701,0,0,0,0,0,0,0,0,0,-1,1091,323,0,0
-126,701,0,0,0,0,0,0,0,0,0,-1,1098,323,0,0
-119,701,0,0,0,0,0,0,0,0,0,-1,1105,323,0,0
-112,701,0,0,0,0,0,0,0,0,0,-1,1112,323,0,0
-105,701,0,0,0,0,0,0,0,0,0,-1,1119,323,0,0
-98,701,0,0,0,0,0,0,0,0,0,-1,1126,323,0,0
-91,701,0,0,0,0,0,0,0,0,0,-1,1133,323,0,0
-84,701,0,0,0,0,0,0,0,0,0,-1,1140,323,0,0
-77,701,0,0,0,0,0,0,0,0,0,-1,1147,323,0,0
-70,701,-12.7566,-30.413,0,0,0,0,0,0,0,-1,1154,323,-12.7566,30.413
-63,701,-18.3169,-21.2322,0,0,0,0,0,0,0,-1,1161,323,-18.3169,21.2322
-56,701,-0.420166,-0.101776,0,0,0,0,0,0,0,-1,1168,323,-0.420119,0.101777
-49,701,-1.09021,-0.155762,0,0,0,0,0,0,0,-1,1175,323,-1.09024,0.155768
-42,701,-0.210327,-0.299133,0,0,0,0,0,0,0,-1,1182,323,-0.210379,0.29914
-35,701,-2.9635,-7.98676,0,0,0,0,0,0,0,-1,1189,323,-2.9635,7.98676
-28,701,-6.64417,-5.4917,0,0,0,0,0,0,0,-1,1196,323,-6.64411,5.4917
-21,701,6.06897,-43.6567,0,0,0,0,0,0,0,-1,1203,323,6.06893,43.6567
-14,701,6.62817,-44.4226,0.0617535,0.127991,-0.0415526,0.148009,0.041736,-1.12186,0.0881192,0.0475902,1210,323,6.62816,44.4226
-7,701,7.11902,-45.3136,0.0656011,0.129756,-0.026402,0.139224,0.0561331,-1.22647,0.0808819,0.0442756,1217,323,7.11899,45.3136
0,701,6.43933,-44.8657,0,0,0,0,0,0,0,-1,1224,323,6.43927,44.8657
7,701,7.052,-44.7036,0.0637397,0.13208,-0.00843163,0.133105,0.0627148,-1.44984,0.0768906,0.0446776,1231,323,7.05199,44.7036
14,701,7.66077,-44.544,0.0569162,0.121388,-0.00289988,0.121518,0.056786,-1.52594,0.0702084,0.0468323,1238,323,7.66082,44.544
21,701,8.20935,-44.3409,0.0492089,0.106861,0.000286204,0.106863,0.0492075,1.56583,0.0617613,0.0482546,1245,323,8.20933,44.3409
28,701,8.72668,-44.188,0,0,0,0,0,0,0,-1,1252,323,8.72673,44.188
35,701,8.49756,-43.9858,0,0,0,0,0,0,0,-1,1259,323,8.49757,43.9858
42,701,5.47949,-45.5084,0,0,0,0,0,0,0,-1,1266,323,5.47953,45.5084
49,701,5.23877,-45.8186,0,0,0,0,0,0,0,-1,1273,323,5.2388,45.8186
56,701,4.87048,-46.0699,0,0,0,0,0,0,0,-1,1280,323,4.87048,46.0699
63,701,5.66992,-49.1357,0.019898,0.0206493,0.0261782,0.0464545,-0.00590719,0.792572,0.0331148,0.0438535,1287,323,5.66993,49.1357
70,701,5.58386,-48.5453,0.0125343,0.0115724,0.0346242,0.0466809,-0.0225742,0.778454,0.0407839,0.0425367,1294,323,5.58391,48.5453
77,701,5.76746,-47.7456,0.00292665,0.00604723,0.0484204,0.0529325,-0.0439586,0.801504,0.0560201,0.0464661,1301,323,5.76748,47.7457
84,701,7.4751,-46.0946,-0.00798833,0.0314721,0.0614747,0.0763052,-0.0528214,0.94068,0.0749611,0.0458439,1308,323,7.47505,46.0946
91,701,7.06311,-44.5487,-0.0210572,0.0525236,0.0735984,0.0980148,-0.0665484,1.01717,0.0955878,0.0457691,1315,323,7.06309,44.5487
98,701,6.24048,-44.2701,0,0,0,0,0,0,0,-1,1322,323,6.24043,44.2701
105,701,10.6669,-47.7114,0,0,0,0,0,0,0,-1,1329,323,10.6669,47.7114
112,701,9.42957,-46.8867,0,0,0,0,0,0,0,-1,1336,323,9.42962,46.8867
119,701,8.10193,-45.8807,-0.0677485,0.169019,0.104626,0.208627,-0.107356,1.20891,0.18553,0.0440278,1343,323,8.10199,45.8807
126,701,6.82483,-44.6255,-0.0779841,0.204127,0.108683,0.241141,-0.114998,1.24255,0.209872,0.0464738,1350,323,6.82487,44.6255
133,701,5.58887,-43.2519,-0.0858913,0.235724,0.104584,0.266741,-0.116909,1.28248,0.227061,0.0473432,1357,323,5.58884,43.2518
140,701,-0.118164,-39.1594,0,0,0,0,0,0,0,-1,1364,323,-0.118172,39.1594
147,701,-0.643921,-38.5205,-0.0751373,0.284962,0.0829081,0.303133,-0.0933089,1.35503,0.239334,0.0450671,1371,323,-0.643865,38.5205
154,701,-0.774658,-38.0271,-0.0620495,0.298031,0.0686283,0.310668,-0.074686,1.38871,0.23598,0.0474656,1378,323,-0.774614,38.0271
161,701,-0.704102,-37.5125,0,0,0,0,0,0,0,-1,1385,323,-0.704147,37.5126
168,701,30.7272,1.76184,0,0,0,0,0,0,0,-1,1392,323,30.7272,-1.76184
175,701,31.5035,2.25711,0,0,0,0,0,0,0,-1,1399,323,31.5036,-2.25712
182,701,8.80652,5.42807,0,0,0,0,0,0,0,-1,1406,323,8.8065,-5.42808
189,701,8.58081,4.24493,0,0,0,0,0,0,0,-1,1413,323,8.58082,-4.24494
196,701,0,0,0,0,0,0,0,0,0,-1,1420,323,0,0
203,701,0,0,0,0,0,0,0,0,0,-1,1427,323,0,0
210,701,0,0,0,0,0,0,0,0,0,-1,1434,323,0,0
217,701,0,0,0,0,0,0,0,0,0,-1,1441,323,0,0
224,701,0,0,0,0,0,0,0,0,0,-1,1448,323,0,0
231,701,0,0,0,0,0,0,0,0,0,-1,1455,323,0,0
238,701,0,0,0,0,0,0,0,0,0,-1,1462,323,0,0
245,701,0,0,0,0,0,0,0,0,0,-1,1469,323,0,0
252,701,0,0,0,0,0,0,0,0,0,-1,1476,323,0,0
259,701,0,0,0,0,0,0,0,0,0,-1,1483,323,0,0
266,701,0,0,0,0,0,0,0,0,0,-1,1490,323,0,0
273,701,0,0,0,0,0,0,0,0,0,-1,1497,323,0,0
280,701,0,0,0,0,0,0,0,0,0,-1,1504,323,0,0
287,701,0,0,0,0,0,0,0,0,0,-1,1511,323,0,0
294,701,0,0,0,0,0,0,0,0,0,-1,1518,323,0,0
301,701,0,0,0,0,0,0,0,0,0,-1,1525,323,0,0
308,701,0,0,0,0,0,0,0,0,0,-1,1532,323,0,0
315,701,0,0,0,0,0,0,0,0,0,-1,1539,323,0,0
322,701,0,0,0,0,0,0,0,0,0,-1,1546,323,0,0
329,701,0,0,0,0,0,0,0,0,0,-1,1553,323,0,0
336,701,0,0,0,0,0,0,0,0,0,-1,1560,323,0,0
343,701,0,0,0,0,0,0,0,0,0,-1,1567,323,0,0
350,701,0,0,0,0,0,0,0,0,0,-1,1574,323,0,0
357,701,0,0,0,0,0,0,0,0,0,-1,1581,323,0,0
364,701,0,0,0,0,0,0,0,0,0,-1,1588,323,0,0
371,701,0,0,0,0,0,0,0,0,0,-1,1595,323,0,0
378,701,0,0,0,0,0,0,0,0,0,-1,1602,323,0,0
385,701,0,0,0,0,0,0,0,0,0,-1,1609,323,0,0
392,701,0,0,0,0,0,0,0,0,0,-1,1616,323,0,0
399,701,0,0,0,0,0,0,0,0,0,-1,1623,323,0,0
406,701,0,0,0,0,0,0,0,0,0,-1,1630,323,0,0
413,701,0,0,0,0,0,0,0,0,0,-1,1637,323,0,0
420,701,0,0,0,0,0,0,0,0,0,-1,1644,323,0,0
427,701,0,0,0,0,0,0,0,0,0,-1,1651,323,0,0
434,701,0,0,0,0,0,0,0,0,0,-1,1658,323,0,0
441,701,0,0,0,0,0,0,0,0,0,-1,1665,323,0,0
448,701,0,0,0,0,0,0,0,0,0,-1,1672,323,0,0
455,701,0,0,0,0,0,0,0,0,0,-1,1679,323,0,0
462,701,0,0,0,0,0,0,0,0,0,-1,1686,323,0,0
469,701,0,0,0,0,0,0,0,0,0,-1,1693,323,0,0
476,701,0,0,0,0,0,0,0,0,0,-1,1700,323,0,0
483,701,0,0,0,0,0,0,0,0,0,-1,1707,323,0,0
490,701,0,0,0,0,0,0,0,0,0,-1,1714,323,0,0
497,701,0,0,0,0,0,0,0,0,0,-1,1721,323,0,0
504,701,0,0,0,0,0,0,0,0,0,-1,1728,323,0,0
511,701,0,0,0,0,0,0,0,0,0,-1,1735,323,0,0
518,701,0,0,0,0,0,0,0,0,0,-1,1742,323,0,0
525,701,0,0,0,0,0,0,0,0,0,-1,1749,323,0,0
532,701,0,0,0,0,0,0,0,0,0,-1,1756,323,0,0
539,701,0,0,0,0,0,0,0,0,0,-1,1763,323,0,0
546,701,0,0,0,0,0,0,0,0,0,-1,1770,323,0,0
553,701,0,0,0,0,0,0,0,0,0,-1,1777,323,0,0
560,701,0,0,0,0,0,0,0,0,0,-1,1784,323,0,0
567,701,0,0,0,0,0,0,0,0,0,-1,1791,323,0,0
574,701,0,0,0,0,0,0,0,0,0,-1,1798,323,0,0
581,701,0,0,0,0,0,0,0,0,0,-1,1805,323,0,0
588,701,0,0,0,0,0,0,0,0,0,-1,1812,323,0,0
595,701,0,0,0,0,0,0,0,0,0,-1,1819,323,0,0
602,701,0,0,0,0,0,0,0,0,0,-1,1826,323,0,0
609,701,0,0,0,0,0,0,0,0,0,-1,1833,323,0,0
616,701,0,0,0,0,0,0,0,0,0,-1,1840,323,0,0
623,701,0,0,0,0,0,0,0,0,0,-1,1847,323,0,0
630,701,0,0,0,0,0,0,0,0,0,-1,1854,323,0,0
637,701,0,0,0,0,0,0,0,0,0,-1,1861,323,0,0
644,701,0,0,0,0,0,0,0,0,0,-1,1868,323,0,0
651,701,0,0,0,0,0,0,0,0,0,-1,1875,323,0,0
658,701,0,0,0,0,0,0,0,0,0,-1,1882,323,0,0
665,701,0,0,0,0,0,0,0,0,0,-1,1889,323,0,0
672,701,0,0,0,0,0,0,0,0,0,-1,1896,323,0,0
679,701,0,0,0,0,0,0,0,0,0,-1,1903,323,0,0
686,701,0,0,0,0,0,0,0,0,0,-1,1910,323,0,0
693,701,0,0,0,0,0,0,0,0,0,-1,1917,323,0,0
700,701,0,0,0,0,0,0,0,0,0,-1,1924,323,0,0
707,701,0,0,0,0,0,0,0,0,0,-1,1931,323,0,0
714,701,0,0,0,0,0,0,0,0,0,-1,1938,323,0,0
721,701,0,0,0,0,0,0,0,0,0,-1,1945,323,0,0
728,701,0,0,0,0,0,0,0,0,0,-1,1952,323,0,0
735,701,0,0,0,0,0,0,0,0,0,-1,1959,323,0,0
742,701,0,0,0,0,0,0,0,0,0,-1,1966,323,0,0
749,701,0,0,0,0,0,0,0,0,0,-1,1973,323,0,0
756,701,0,0,0,0,0,0,0,0,0,-1,1980,323,0,0
763,701,0,0,0,0,0,0,0,0,0,-1,1987,323,0,0
770,701,0,0,0,0,0,0,0,0,0,-1,1994,323,0,0
777,701,0,0,0,0,0,0,0,0,0,-1,2001,323,0,0
784,701,0,0,0,0,0,0,0,0,0,-1,2008,323,0,0
791,701,0,0,0,0,0,0,0,0,0,-1,2015,323,0,0
798,701,0,0,0,0,0,0,0,0,0,-1,2022,323,0,0
805,701,0,0,0,0,0,0,0,0,0,-1,2029,323,0,0
812,701,0,0,0,0,0,0,0,0,0,-1,2036,323,0,0
-700,694,0,0,0,0,0,0,0,0,0,-1,524,330,0,0
-693,694,0,0,0,0,0,0,0,0,0,-1,531,330,0,0
-686,694,0,0,0,0,0,0,0,0,0,-1,538,330,0,0
-679,694,0,0,0,0,0,0,0,0,0,-1,545,330,0,0
-672,694,0,0,0,0,0,0,0,0,0,-1,552,330,0,0
-665,694,0,0,0,0,0,0,0,0,0,-1,559,330,0,0
-658,694,0,0,0,0,0,0,0,0,0,-1,566,330,0,0
-651,694,0,0,0,0,0,0,0,0,0,-1,573,330,0,0
-644,694,0,0,0,0,0,0,0,0,0,-1,580,330,0,0
-637,694,0,0,0,0,0,0,0,0,0,-1,587,330,0,0
-630,694,0,0,0,0,0,0,0,0,0,-1,594,330,0,0
-623,694,0,0,0,0,0,0,0,0,0,-1,601,330,0,0
-616,694,0,0,0,0,0,0,0,0,0,-1,608,330,0,0
-609,694,0,0,0,0,0,0,0,0,0,-1,615,330,0,0
-602,694,0,0,0,0,0,0,0,0,0,-1,622,330,0,0
-595,694,0,0,0,0,0,0,0,0,0,-1,629,330,0,0
-588,694,0,0,0,0,0,0,0,0,0,-1,636,330,0,0
-581,694,0,0,0,0,0,0,0,0,0,-1,643,330,0,0
-574,694,0,0,0,0,0,0,0,0,0,-1,650,330,0,0
-567,694,0,0,0,0,0,0,0,0,0,-1,657,330,0,0
-560,694,0,0,0,0,0,0,0,0,0,-1,664,330,0,0
-553,694,0,0,0,0,0,0,0,0,0,-1,671,330,0,0
-546,694,0,0,0,0,0,0,0,0,0,-1,678,330,0,0
-539,694,0,0,0,0,0,0,0,0,0,-1,685,330,0,0
-532,694,0,0,0,0,0,0,0,0,0,-1,692,330,0,0
-525,694,0,0,0,0,0,0,0,0,0,-1,699,330,0,0
-518,694,0,0,0,0,0,0,0,0,0,-1,706,330,0,0
-511,694,0,0,0,0,0,0,0,0,0,-1,713,330,0,0
-504,694,0,0,0,0,0,0,0,0,0,-1,720,330,0,0
-497,694,0,0,0,0,0,0,0,0,0,-1,727,330,0,0
-490,694,0,0,0,0,0,0,0,0,0,-1,734,330,0,0
-483,694,0,0,0,0,0,0,0,0,0,-1,741,330,0,0
-476,694,0,0,0,0,0,0,0,0,0,-1,748,330,0,0
-469,694,0,0,0,0,0,0,0,0,0,-1,755,330,0,0
-462,694,0,0,0,0,0,0,0,0,0,-1,762,330,0,0
-455,694,0,0,0,0,0,0,0,0,0,-1,769,330,0,0
-448,694,0,0,0,0,0,0,0,0,0,-1,776,330,0,0
-441,694,0,0,0,0,0,0,0,0,0,-1,783,330,0,0
-434,694,0,0,0,0,0,0,0,0,0,-1,790,330,0,0
-427,694,0,0,0,0,0,0,0,0,0,-1,797,330,0,0
-420,694,0,0,0,0,0,0,0,0,0,-1,804,330,0,0
-413,694,0,0,0,0,0,0,0,0,0,-1,811,330,0,0
-406,694,0,0,0,0,0,0,0,0,0,-1,818,330,0,0
-399,694,0,0,0,0,0,0,0,0,0,-1,825,330,0,0
-392,694,0,0,0,0,0,0,0,0,0,-1,832,330,0,0
-385,694,0,0,0,0,0,0,0,0,0,-1,839,330,0,0
-378,694,0,0,0,0,0,0,0,0,0,-1,846,330,0,0
-371,694,0,0,0,0,0,0,0,0,0,-1,853,330,0,0
-364,694,0,0,0,0,0,0,0,0,0,-1,860,330,0,0
-357,694,0,0,0,0,0,0,0,0,0,-1,867,330,0,0
-350,694,0,0,0,0,0,0,0,0,0,-1,874,330,0,0
-343,694,0,0,0,0,0,0,0,0,0,-1,881,330,0,0
-336,694,0,0,0,0,0,0,0,0,0,-1,888,330,0,0
-329,694,0,0,0,0,0,0,0,0,0,-1,895,330,0,0
-322,694,0,0,0,0,0,0,0,0,0,-1,902,330,0,0
-315,694,0,0,0,0,0,0,0,0,0,-1,909,330,0,0
-308,694,0,0,0,0,0,0,0,0,0,-1,916,330,0,0
-301,694,0,0,0,0,0,0,0,0,0,-1,923,330,0,0
-294,694,0,0,0,0,0,0,0,0,0,-1,930,330,0,0
-287,694,0,0,0,0,0,0,0,0,0,-1,937,330,0,0
-280,694,0,0,0,0,0,0,0,0,0,-1,944,330,0,0
-273,694,0,0,0,0,0,0,0,0,0,-1,951,330,0,0
-266,694,0,0,0,0,0,0,0,0,0,-1,958,330,0,0
-259,694,0,0,0,0,0,0,0,0,0,-1,965,330,0,0
-252,694,0,0,0,0,0,0,0,0,0,-1,972,330,0,0
-245,694,0,0,0,0,0,0,0,0,0,-1,979,330,0,0
-238,694,0,0,0,0,0,0,0,0,0,-1,986,330,0,0
-231,694,0,0,0,0,0,0,0,0,0,-1,993,330,0,0
-224,694,0,0,0,0,0,0,0,0,0,-1,1000,330,0,0
-217,694,0,0,0,0,0,0,0,0,0,-1,1007,330,0,0
-210,694,0,0,0,0,0,0,0,0,0,-1,1014,330,0,0
-203,694,0,0,0,0,0,0,0,0,0,-1,1021,330,0,0
-196,694,0,0,0,0,0,0,0,0,0,-1,1028,330,0,0
-189,694,0,0,0,0,0,0,0,0,0,-1,1035,330,0,0
-182,694,0,0,0,0,0,0,0,0,0,-1,1042,330,0,0
-175,694,0,0,0,0,0,0,0,0,0,-1,1049,330,0,0
-168,694,0,0,0,0,0,0,0,0,0,-1,1056,330,0,0
-161,694,0,0,0,0,0,0,0,0,0,-1,1063,330,0,0
-154,694,0,0,0,0,0,0,0,0,0,-1,1070,330,0,0
-147,694,0,0,0,0,0,0,0,0,0,-1,1077,330,0,0
-140,694,0,0,0,0,0,0,0,0,0,-1,1084,330,0,0
-133,694,0,0,0,0,0,0,0,0,0,-1,1091,330,0,0
-126,694,0,0,0,0,0,0,0,0,0,-1,1098,330,0,0
-119,694,0,0,0,0,0,0,0,0,0,-1,1105,330,0,0
-112,694,0,0,0,0,0,0,0,0,0,-1,1112,330,0,0
-105,694,2.5188,-19.3963,0,0,0,0,0,0,0,-1,1119,330,2.51882,19.3963
-98,694,1.34875,-10.1051,0,0,0,0,0,0,0,-1,1126,330,1.34874,10.1051
-91,694,6.62366,-46.8039,0,0,0,0,0,0,0,-1,1133,330,6.62363,46.8039
-84,694,0.0577393,-40.8823,0,0,0,0,0,0,0,-1,1140,330,0.0577026,40.8823
-77,694,-5.51379,-31.2714,0,0,0,0,0,0,0,-1,1147,330,-5.51383,31.2714
-70,694,-11.9945,-25.5143,0,0,0,0,0,0,0,-1,1154,330,-11.9945,25.5143
-63,694,-18.4752,-19.7572,0,0,0,0,0,0,0,-1,1161,330,-18.4752,19.7572
-56,694,-6.50623,-0.649139,0,0,0,0,0,0,0,-1,1168,330,-6.5062,0.649126
-49,694,-1.11426,0.0341797,0,0,0,0,0,0,0,-1,1175,330,-1.11424,-0.0341846
-42,694,-0.346313,-0.709595,0,0,0,0,0,0,0,-1,1182,330,-0.346298,0.709581
-35,694,-0.459106,-1.24713,0,0,0,0,0,0,0,-1,1189,330,-0.459142,1.24714
-28,694,-6.48413,-3.95972,0,0,0,0,0,0,0,-1,1196,330,-6.48414,3.9597
-21,694,6.51563,-44.6041,0,0,0,0,0,0,0,-1,1203,330,6.51562,44.6041
-14,694,6.9281,-45.3658,0.0481145,0.109571,-0.0314317,0.1228,0.0348862,-1.17244,0.0730686,0.0498173,1210,330,6.92805,45.3658
-7,694,7.34473,-46.1265,0.0502755,0.111198,-0.0213767,0.117951,0.0435232,-1.26484,0.0688735,0.043912,1217,330,7.34475,46.1265
0,694,6.38721,-45.1446,0,0,0,0,0,0,0,-1,1224,330,6.38724,45.1446
7,694,6.89087,-45.5008,0.0482672,0.114011,-0.0086305,0.115125,0.0471531,-1.44242,0.0668289,0.0445765,1231,330,6.89085,45.5008
14,694,7.23645,-45.563,0.0433053,0.106793,-0.00454415,0.107116,0.0429817,-1.4997,0.0622442,0.0463413,1238,330,7.2364,45.5629
21,694,7.77466,-45.5041,0.0375758,0.0962292,-0.00222872,0.0963138,0.0374913,-1.53287,0.0560595,0.0472431,1245,330,7.7746,45.5041
28,694,8.01672,-45.5809,0.034278,0.0850016,0.000785066,0.0850137,0.0342658,1.55532,0.0493892,0.047251,1252,330,8.01671,45.5809
35,694,8.20129,-45.7547,0,0,0,0,0,0,0,-1,1259,330,8.20132,45.7547
42,694,5.62793,-45.9002,0.026203,0.0616803,0.00900368,0.0638345,0.0240488,1.33595,0.0372263,0.0475407,1266,330,5.62797,45.9002
49,694,5.30151,-46.2043,0.0220083,0.0508809,0.0128571,0.0557762,0.017113,1.207,0.0329939,0.048651,1273,330,5.30157,46.2043
56,694,4.9469,-46.5254,0.0186924,0.039575,0.0160123,0.0482495,0.0100179,1.07432,0.0294016,0.0463099,1280,330,4.9469,46.5254
63,694,5.14087,-46.2697,0.0143415,0.0300272,0.0199163,0.0435893,0.000779483,0.972969,0.0288032,0.041262,1287,330,5.14089,46.2697
70,694,5.57275,-48.3387,0.00812394,0.0226854,0.0273969,0.0437525,-0.0129431,0.915272,0.0343065,0.0397579,1294,330,5.57272,48.3387
77,694,5.76257,-47.6625,-3.77821e-05,0.0181422,0.0391488,0.0492425,-0.031138,0.899472,0.0467985,0.0468539,1301,330,5.76258,47.6625
84,694,6.90125,-46.3,-0.00873939,0.0374219,0.0492165,0.0687009,-0.0400184,1.00465,0.0634931,0.0439195,1308,330,6.90118,46.3
91,694,6.23901,-45.3885,-0.0191074,0.0549393,0.0580743,0.086788,-0.050956,1.06917,0.0804184,0.0468218,1315,330,6.23901,45.3885
98,694,5.85388,-44.9415,-0.0279657,0.073835,0.0649437,0.105448,-0.0595791,1.11778,0.0964977,0.047036,1322,330,5.85383,44.9415
105,694,5.60681,-44.5365,0,0,0,0,0,0,0,-1,1329,330,5.60679,44.5365
112,694,4.83655,-44.5147,0,0,0,0,0,0,0,-1,1336,330,4.83654,44.5147
119,694,4.82593,-44.5173,0,0,0,0,0,0,0,-1,1343,330,4.82597,44.5173
126,694,5.38953,-44.4091,-0.0641004,0.174221,0.0820678,0.199747,-0.089627,1.26924,0.171055,0.043407,1350,330,5.3895,44.4091
133,694,4.17029,-43.104,-0.0701946,0.199145,0.0783077,0.220257,-0.0913069,1.30745,0.184946,0.045911,1357,330,4.17035,43.104
140,694,3.02148,-41.7193,0,0,0,0,0,0,0,-1,1364,330,3.02146,41.7193
147,694,0.0270996,-39.8935,-0.0634858,0.235918,0.0631226,0.248681,-0.0762497,1.37128,0.196207,0.0452849,1371,330,0.027122,39.8935
154,694,-0.170532,-39.2833,-0.0556692,0.244849,0.0553774,0.254729,-0.0655489,1.39425,0.195369,0.0498237,1378,330,-0.170581,39.2833
161,694,0.0187988,-38.6779,0,0,0,0,0,0,0,-1,1385,330,0.0187579,38.6779
168,694,30.451,0.196686,0,0,0,0,0,0,0,-1,1392,330,30.4511,-0.196674
175,694,31.0701,0.869873,0,0,0,0,0,0,0,-1,1399,330,31.07,-0.869874
182,694,8.29028,5.75238,0,0,0,0,0,0,0,-1,1406,330,8.29034,-5.75237
189,694,7.9801,4.46118,0,0,0,0,0,0,0,-1,1413,330,7.9801,-4.46118
196,694,7.39331,3.32632,0,0,0,0,0,0,0,-1,1420,330,7.39329,-3.32633
203,694,7.04492,2.20529,0,0,0,0,0,0,0,-1,1427,330,7.04496,-2.20529
210,694,6.44714,0.646912,0,0,0,0,0,0,0,-1,1434,330,6.44717,-0.646903
217,694,7.12061,-0.644958,0,0,0,0,0,0,0,-1,1441,330,7.12059,0.644961
224,694,6.74011,-1.70544,0,0,0,0,0,0,0,-1,1448,330,6.74013,1.70546
231,694,0,0,0,0,0,0,0,0,0,-1,1455,330,0,0
238,694,0,0,0,0,0,0,0,0,0,-1,1462,330,0,0
245,694,0,0,0,0,0,0,0,0,0,-1,1469,330,0,0
252,694,0,0,0,0,0,0,0,0,0,-1,1476,330,0,0
259,694,0,0,0,0,0,0,0,0,0,-1,1483,330,0,0
266,694,0,0,0,0,0,0,0,0,0,-1,1490,330,0,0
273,694,0,0,0,0,0,0,0,0,0,-1,1497,330,0,0
280,694,0,0,0,0,0,0,0,0,0,-1,1504,330,0,0
287,694,0,0,0,0,0,0,0,0,0,-1,1511,330,0,0
294,694,0,0,0,0,0,0,0,0,0,-1,1518,330,0,0
301,694,0,0,0,0,0,0,0,0,0,-1,1525,330,0,0
308,694,0,0,0,0,0,0,0,0,0,-1,1532,330,0,0
315,694,0,0,0,0,0,0,0,0,0,-1,1539,330,0,0
322,694,0,0,0,0,0,0,0,0,0,-1,1546,330,0,0
329,694,0,0,0,0,0,0,0,0,0,-1,1553,330,0,0
336,694,0,0,0,0,0,0,0,0,0,-1,1560,330,0,0
343,694,0,0,0,0,0,0,0,0,0,-1,1567,330,0,0
350,694,0,0,0,0,0,0,0,0,0,-1,1574,330,0,0
357,694,0,0,0,0,0,0,0,0,0,-1,1581,330,0,0
364,694,0,0,0,0,0,0,0,0,0,-1,1588,330,0,0
371,694,0,0,0,0,0,0,0,0,0,-1,1595,330,0,0
378,694,0,0,0,0,0,0,0,0,0,-1,1602,330,0,0
385,694,0,0,0,0,0,0,0,0,0,-1,1609,330,0,0
392,694,0,0,0,0,0,0,0,0,0,-1,1616,330,0,0
399,694,0,0,0,0,0,0,0,0,0,-1,1623,330,0,0
406,694,0,0,0,0,0,0,0,0,0,-1,1630,330,0,0
413,694,0,0,0,0,0,0,0,0,0,-1,1637,330,0,0
420,694,0,0,0,0,0,0,0,0,0,-1,1644,330,0,0
427,694,0,0,0,0,0,0,0,0,0,-1,1651,330,0,0
434,694,0,0,0,0,0,0,0,0,0,-1,1658,330,0,0
441,694,0,0,0,0,0,0,0,0,0,-1,1665,330,0,0
448,694,0,0,0,0,0,0,0,0,0,-1,1672,330,0,0
455,694,0,0,0,0,0,0,0,0,0,-1,1679,330,0,0
462,694,0,0,0,0,0,0,0,0,0,-1,1686,330,0,0
469,694,0,0,0,0,0,0,0,0,0,-1,1693,330,0,0
476,694,0,0,0,0,0,0,0,0,0,-1,1700,330,0,0
483,694,0,0,0,0,0,0,0,0,0,-1,1707,330,0,0
490,694,0,0,0,0,0,0,0,0,0,-1,1714,330,0,0
497,694,0,0,0,0,0,0,0,0,0,-1,1721,330,0,0
504,694,0,0,0,0,0,0,0,0,0,-1,1728,330,0,0
511,694,0,0,0,0,0,0,0,0,0,-1,1735,330,0,0
518,694,0,0,0,0,0,0,0,0,0,-1,1742,330,0,0
525,694,0,0,0,0,0,0,0,0,0,-1,1749,330,0,0
532,694,0,0,0,0,0,0,0,0,0,-1,1756,330,0,0
539,694,0,0,0,0,0,0,0,0,0,-1,1763,330,0,0
546,694,0,0,0,0,0,0,0,0,0,-1,1770,330,0,0
553,694,0,0,0,0,0,0,0,0,0,-1,1777,330,0,0
560,694,0,0,0,0,0,0,0,0,0,-1,1784,330,0,0
567,694,0,0,0,0,0,0,0,0,0,-1,1791,330,0,0
574,694,0,0,0,0,0,0,0,0,0,-1,1798,330,0,0
581,694,0,0,0,0,0,0,0,0,0,-1,1805,330,0,0
588,694,0,0,0,0,0,0,0,0,0,-1,1812,330,0,0
595,694,0,0,0,0,0,0,0,0,0,-1,1819,330,0,0
602,694,0,0,0,0,0,0,0,0,0,-1,1826,330,0,0
609,694,0,0,0,0,0,0,0,0,0,-1,1833,330,0,0
616,694,0,0,0,0,0,0,0,0,0,-1,1840,330,0,0
623,694,0,0,0,0,0,0,0,0,0,-1,1847,330,0,0
630,694,0,0,0,0,0,0,0,0,0,-1,1854,330,0,0
637,694,0,0,0,0,0,0,0,0,0,-1,1861,330,0,0
644,694,0,0,0,0,0,0,0,0,0,-1,1868,330,0,0
651,694,0,0,0,0,0,0,0,0,0,-1,1875,330,0,0
658,694,0,0,0,0,0,0,0,0,0,-1,1882,330,0,0
665,694,0,0,0,0,0,0,0,0,0,-1,1889,330,0,0
672,694,0,0,0,0,0,0,0,0,0,-1,1896,330,0,0
679,694,0,0,0,0,0,0,0,0,0,-1,1903,330,0,0
686,694,0,0,0,0,0,0,0,0,0,-1,1910,330,0,0
693,694,0,0,0,0,0,0,0,0,0,-1,1917,330,0,0
700,694,0,0,0,0,0,0,0,0,0,-1,1924,330,0,0
707,694,0,0,0,0,0,0,0,0,0,-1,1931,330,0,0
714,694,0,0,0,0,0,0,0,0,0,-1,1938,330,0,0
721,694,0,0,0,0,0,0,0,0,0,-1,1945,330,0,0
728,694,0,0,0,0,0,0,0,0,0,-1,1952,330,0,0
735,694,0,0,0,0,0,0,0,0,0,-1,1959,330,0,0
742,694,0,0,0,0,0,0,0,0,0,-1,1966,330,0,0
749,694,0,0,0,0,0,0,0,0,0,-1,1973,330,0,0
756,694,0,0,0,0,0,0,0,0,0,-1,1980,330,0,0
763,694,0,0,0,0,0,0,0,0,0,-1,1987,330,0,0
770,694,0,0,0,0,0,0,0,0,0,-1,1994,330,0,0
777,694,0,0,0,0,0,0,0,0,0,-1,2001,330,0,0
784,694,0,0,0,0,0,0,0,0,0,-1,2008,330,0,0
791,694,0,0,0,0,0,0,0,0,0,-1,2015,330,0,0
798,694,0,0,0,0,0,0,0,0,0,-1,2022,330,0,0
805,694,0,0,0,0,0,0,0,0,0,-1,2029,330,0,0
812,694,0,0,0,0,0,0,0,0,0,-1,2036,330,0,0
-700,687,0,0,0,0,0,0,0,0,0,-1,524,337,0,0
-693,687,0,0,0,0,0,0,0,0,0,-1,531,337,0,0
-686,687,0,0,0,0,0,0,0,0,0,-1,538,337,0,0
-679,687,0,0,0,0,0,0,0,0,0,-1,545,337,0,0
-672,687,0,0,0,0,0,0,0,0,0,-1,552,337,0,0
-665,687,0,0,0,0,0,0,0,0,0,-1,559,337,0,0
-658,687,0,0,0,0,0,0,0,0,0,-1,566,337,0,0
-651,687,0,0,0,0,0,0,0,0,0,-1,573,337,0,0
-644,687,0,0,0,0,0,0,0,0,0,-1,580,337,0,0
-637,687,0,0,0,0,0,0,0,0,0,-1,587,337,0,0
-630,687,0,0,0,0,0,0,0,0,0,-1,594,337,0,0
-623,687,0,0,0,0,0,0,0,0,0,-1,601,337,0,0
-616,687,0,0,0,0,0,0,0,0,0,-1,608,337,0,0
-609,687,0,0,0,0,0,0,0,0,0,-1,615,337,0,0
-602,687,0,0,0,0,0,0,0,0,0,-1,622,337,0,0
-595,687,0,0,0,0,0,0,0,0,0,-1,629,337,0,0
-588,687,0,0,0,0,0,0,0,0,0,-1,636,337,0,0
-581,687,0,0,0,0,0,0,0,0,0,-1,643,337,0,0
-574,687,0,0,0,0,0,0,0,0,0,-1,650,337,0,0
-567,687,0,0,0,0,0,0,0,0,0,-1,657,337,0,0
-560,687,0,0,0,0,0,0,0,0,0,-1,664,337,0,0
-553,687,0,0,0,0,0,0,0,0,0,-1,671,337,0,0
-546,687,0,0,0,0,0,0,0,0,0,-1,678,337,0,0
-539,687,0,0,0,0,0,0,0,0,0,-1,685,337,0,0
-532,687,0,0,0,0,0,0,0,0,0,-1,692,337,0,0
-525,687,0,0,0,0,0,0,0,0,0,-1,699,337,0,0
-518,687,0,0,0,0,0,0,0,0,0,-1,706,337,0,0
-511,687,0,0,0,0,0,0,0,0,0,-1,713,337,0,0
-504,687,0,0,0,0,0,0,0,0,0,-1,720,337,0,0
-497,687,0,0,0,0,0,0,0,0,0,-1,727,337,0,0
-490,687,0,0,0,0,0,0,0,0,0,-1,734,337,0,0
-483,687,0,0,0,0,0,0,0,0,0,-1,741,337,0,0
-476,687,0,0,0,0,0,0,0,0,0,-1,748,337,0,0
-469,687,0,0,0,0,0,0,0,0,0,-1,755,337,0,0
-462,687,0,0,0,0,0,0,0,0,0,-1,762,337,0,0
-455,687,0,0,0,0,0,0,0,0,0,-1,769,337,0,0
-448,687,0,0,0,0,0,0,0,0,0,-1,776,337,0,0
-441,687,0,0,0,0,0,0,0,0,0,-1,783,337,0,0
-434,687,0,0,0,0,0,0,0,0,0,-1,790,337,0,0
-427,687,0,0,0,0,0,0,0,0,0,-1,797,337,0,0
-420,687,0,0,0,0,0,0,0,0,0,-1,804,337,0,0
-413,687,0,0,0,0,0,0,0,0,0,-1,811,337,0,0
-406,687,0,0,0,0,0,0,0,0,0,-1,818,337,0,0
-399,687,0,0,0,0,0,0,0,0,0,-1,825,337,0,0
-392,687,0,0,0,0,0,0,0,0,0,-1,832,337,0,0
-385,687,0,0,0,0,0,0,0,0,0,-1,839,337,0,0
-378,687,0,0,0,0,0,0,0,0,0,-1,846,337,0,0
-371,687,0,0,0,0,0,0,0,0,0,-1,853,337,0,0
-364,687,0,0,0,0,0,0,0,0,0,-1,860,337,0,0
-357,687,0,0,0,0,0,0,0,0,0,-1,867,337,0,0
-350,687,0,0,0,0,0,0,0,0,0,-1,874,337,0,0
-343,687,0,0,0,0,0,0,0,0,0,-1,881,337,0,0
-336,687,0,0,0,0,0,0,0,0,0,-1,888,337,0,0
-329,687,0,0,0,0,0,0,0,0,0,-1,895,337,0,0
-322,687,0,0,0,0,0,0,0,0,0,-1,902,337,0,0
-315,687,0,0,0,0,0,0,0,0,0,-1,909,337,0,0
-308,687,0,0,0,0,0,0,0,0,0,-1,916,337,0,0
-301,687,0,0,0,0,0,0,0,0,0,-1,923,337,0,0
-294,687,0,0,0,0,0,0,0,0,0,-1,930,337,0,0
-287,687,0,0,0,0,0,0,0,0,0,-1,937,337,0,0
-280,687,0,0,0,0,0,0,0,0,0,-1,944,337,0,0
-273,687,0,0,0,0,0,0,0,0,0,-1,951,337,0,0
-266,687,0,0,0,0,0,0,0,0,0,-1,958,337,0,0
-259,687,0,0,0,0,0,0,0,0,0,-1,965,337,0,0
-252,687,0,0,0,0,0,0,0,0,0,-1,972,337,0,0
-245,687,0,0,0,0,0,0,0,0,0,-1,979,337,0,0
-238,687,0,0,0,0,0,0,0,0,0,-1,986,337,0,0
-231,687,0,0,0,0,0,0,0,0,0,-1,993,337,0,0
-224,687,0,0,0,0,0,0,0,0,0,-1,1000,337,0,0
-217,687,0,0,0,0,0,0,0,0,0,-1,1007,337,0,0
-210,687,0,0,0,0,0,0,0,0,0,-1,1014,337,0,0
-203,687,0,0,0,0,0,0,0,0,0,-1,1021,337,0,0
-196,687,0,0,0,0,0,0,0,0,0,-1,1028,337,0,0
-189,687,0,0,0,0,0,0,0,0,0,-1,1035,337,0,0
-182,687,0,0,0,0,0,0,0,0,0,-1,1042,337,0,0
-175,687,0,0,0,0,0,0,0,0,0,-1,1049,337,0,0
-168,687,0,0,0,0,0,0,0,0,0,-1,1056,337,0,0
-161,687,0,0,0,0,0,0,0,0,0,-1,1063,337,0,0
-154,687,0,0,0,0,0,0,0,0,0,-1,1070,337,0,0
-147,687,0,0,0,0,0,0,0,0,0,-1,1077,337,0,0
-140,687,0,0,0,0,0,0,0,0,0,-1,1084,337,0,0
-133,687,7.93958,-37.548,0,0,0,0,0,0,0,-1,1091,337,7.93957,37.548
-126,687,0.688477,-38.7298,0,0,0,0,0,0,0,-1,1098,337,0.688509,38.7298
-119,687,7.70825,-33.9236,0,0,0,0,0,0,0,-1,1105,337,7.70826,33.9236
-112,687,7.99866,-32.2983,0,0,0,0,0,0,0,-1,1112,337,7.99866,32.2983
-105,687,1.3208,-29.8313,0,0,0,0,0,0,0,-1,1119,337,1.3208,29.8313
-98,687,13.7111,-47.5645,0,0,0,0,0,0,0,-1,1126,337,13.711,47.5645
-91,687,7.22083,-41.1667,0,0,0,0,0,0,0,-1,1133,337,7.22079,41.1666
-84,687,0.745117,-35.0345,0,0,0,0,0,0,0,-1,1140,337,0.745155,35.0345
-77,687,-5.74353,-28.9553,0,0,0,0,0,0,0,-1,1147,337,-5.74357,28.9553
-70,687,-11.6842,-19.8473,0,0,0,0,0,0,0,-1,1154,337,-11.6842,19.8473
-63,687,-17.6757,-14.8966,0,0,0,0,0,0,0,-1,1161,337,-17.6756,14.8966
-56,687,-18.104,7.81931,0,0,0,0,0,0,0,-1,1168,337,-18.104,-7.81931
-49,687,-15.6449,-9.94391,0,0,0,0,0,0,0,-1,1175,337,-15.6449,9.94392
-42,687,-4.2019,-0.405609,0,0,0,0,0,0,0,-1,1182,337,-4.20192,0.405614
-35,687,-4.42273,-0.688171,0,0,0,0,0,0,0,-1,1189,337,-4.42276,0.688178
-28,687,-1.14038,-1.39072,0,0,0,0,0,0,0,-1,1196,337,-1.14035,1.3907
-21,687,7.19775,-45.6529,0,0,0,0,0,0,0,-1,1203,337,7.19774,45.6529
-14,687,7.104,-46.2913,0.0361552,0.0917838,-0.0235821,0.100435,0.0275038,-1.21918,0.0599309,0.0487085,1210,337,7.10406,46.2913
-7,687,6.79614,-46.9417,0.0373173,0.0932793,-0.0169223,0.0979985,0.0325981,-1.29883,0.0576263,0.0485004,1217,337,6.79608,46.9418
0,687,5.68384,-45.3001,0,0,0,0,0,0,0,-1,1224,337,5.68387,45.3001
7,687,6.22571,-45.8335,0.0354318,0.0961312,-0.00806986,0.0971857,0.0343773,-1.44085,0.0569049,0.0441206,1231,337,6.22569,45.8335
14,687,6.87329,-46.2383,0.0318543,0.0913596,-0.00511943,0.0917969,0.0314171,-1.4856,0.0538711,0.0451648,1238,337,6.87329,46.2383
21,687,7.27075,-46.5685,0.0276568,0.0838733,-0.0034796,0.0840879,0.0274423,-1.50921,0.0495145,0.0474905,1245,337,7.27071,46.5685
28,687,7.60864,-46.7466,0.0251895,0.0755794,-0.00125567,0.0756107,0.0251582,-1.5459,0.0444607,0.045585,1252,337,7.60866,46.7466
35,687,5.84314,-46.1265,0,0,0,0,0,0,0,-1,1259,337,5.84315,46.1265
42,687,5.74707,-46.5032,0.0189475,0.0582825,0.0054706,0.0590292,0.0182009,1.43515,0.0349052,0.0487214,1266,337,5.74702,46.5032
49,687,5.58911,-46.8023,0.0156893,0.0501302,0.00869722,0.0522019,0.0136176,1.33696,0.0312667,0.047747,1273,337,5.58917,46.8023
56,687,5.43457,-47.1095,0.0131649,0.0415248,0.0113742,0.045523,0.00916671,1.23278,0.0278015,0.0438912,1280,337,5.43456,47.1095
63,687,5.47778,-47.2203,0.00946843,0.0342241,0.0148069,0.0411453,0.00254717,1.13354,0.0266218,0.042479,1287,337,5.4778,47.2203
70,687,5.47681,-47.3528,0.00437253,0.0283523,0.0211625,0.0406854,-0.00796064,1.04313,0.0301298,0.0417581,1294,337,5.47681,47.3528
77,687,5.78625,-47.6034,-0.00231276,0.0246348,0.0308524,0.0448272,-0.0225052,0.991275,0.0395801,0.0445364,1301,337,5.78621,47.6034
84,687,6.32971,-46.5074,-0.00902099,0.0390357,0.0384197,0.0603222,-0.0303075,1.06485,0.053273,0.0442697,1308,337,6.32972,46.5074
91,687,5.76746,-46.0229,-0.0170206,0.0533509,0.0447058,0.0750567,-0.0387264,1.1188,0.0667996,0.0474217,1315,337,5.76749,46.0229
98,687,5.44739,-45.6134,-0.0238878,0.0678578,0.0498645,0.0897403,-0.0457703,1.15726,0.0795981,0.0476113,1322,337,5.44734,45.6134
105,687,5.15234,-45.2191,0,0,0,0,0,0,0,-1,1329,337,5.1524,45.2191
112,687,4.73096,-45.0561,-0.038492,0.102541,0.0576463,0.123105,-0.059056,1.22814,0.107316,0.0457965,1336,337,4.73093,45.0561
119,687,4.37158,-44.8274,-0.0456943,0.124386,0.0601569,0.143512,-0.0648207,1.26296,0.123108,0.0456184,1343,337,4.37155,44.8274
126,687,3.78979,-44.039,-0.0517102,0.146355,0.0609508,0.163609,-0.0689637,1.29494,0.137932,0.0448543,1350,337,3.78984,44.039
133,687,1.48926,-42.6693,0,0,0,0,0,0,0,-1,1357,337,1.48926,42.6693
140,687,1.21887,-42.1597,-0.0566124,0.182577,0.0528877,0.193749,-0.0677847,1.36261,0.156726,0.0488152,1364,337,1.21893,42.1597
147,687,0.774536,-41.1287,-0.0521718,0.193076,0.0467689,0.201692,-0.0607879,1.38861,0.158655,0.0482016,1371,337,0.774481,41.1287
154,687,0.390259,-40.2087,0,0,0,0,0,0,0,-1,1378,337,0.390266,40.2087
161,687,29.3895,-1.90628,0,0,0,0,0,0,0,-1,1385,337,29.3895,1.90628
168,687,29.8564,-1.19434,0,0,0,0,0,0,0,-1,1392,337,29.8564,1.19434
175,687,30.3419,-0.453583,0,0,0,0,0,0,0,-1,1399,337,30.3419,0.45357
182,687,6.67249,0.289917,0,0,0,0,0,0,0,-1,1406,337,6.67247,-0.289916
189,687,7.76062,4.53635,0,0,0,0,0,0,0,-1,1413,337,7.76064,-4.53636
196,687,6.99048,3.2966,0,0,0,0,0,0,0,-1,1420,337,6.99046,-3.2966
203,687,6.36499,2.1445,0,0,0,0,0,0,0,-1,1427,337,6.36499,-2.14451
210,687,6.68066,0.674652,0,0,0,0,0,0,0,-1,1434,337,6.68062,-0.674655
217,687,5.99683,-0.630493,0,0,0,0,0,0,0,-1,1441,337,5.99684,0.630497
224,687,5.52917,0.524902,0,0,0,0,0,0,0,-1,1448,337,5.5292,-0.524915
231,687,5.85583,-1.73651,0,0,0,0,0,0,0,-1,1455,337,5.85577,1.73651
238,687,5.96582,-2.96774,0,0,0,0,0,0,0,-1,1462,337,5.96577,2.96773
245,687,1.28259,2.32211,0,0,0,0,0,0,0,-1,1469,337,1.28258,-2.32211
252,687,1.97278,3.88422,0,0,0,0,0,0,0,-1,1476,337,1.97281,-3.88421
259,687,0,0,0,0,0,0,0,0,0,-1,1483,337,0,0
266,687,0,0,0,0,0,0,0,0,0,-1,1490,337,0,0
273,687,0,0,0,0,0,0,0,0,0,-1,1497,337,0,0
280,687,0,0,0,0,0,0,0,0,0,-1,1504,337,0,0
287,687,0,0,0,0,0,0,0,0,0,-1,1511,337,0,0
294,687,0,0,0,0,0,0,0,0,0,-1,1518,337,0,0
301,687,0,0,0,0,0,0,0,0,0,-1,1525,337,0,0
308,687,0,0,0,0,0,0,0,0,0,-1,1532,337,0,0
315,687,0,0,0,0,0,0,0,0,0,-1,1539,337,0,0
322,687,0,0,0,0,0,0,0,0,0,-1,1546,337,0,0
329,687,0,0,0,0,0,0,0,0,0,-1,1553,337,0,0
336,687,0,0,0,0,0,0,0,0,0,-1,1560,337,0,0
343,687,0,0,0,0,0,0,0,0,0,-1,1567,337,0,0
350,687,0,0,0,0,0,0,0,0,0,-1,1574,337,0,0
357,687,0,0,0,0,0,0,0,0,0,-1,1581,337,0,0
364,687,0,0,0,0,0,0,0,0,0,-1,1588,337,0,0
371,687,0,0,0,0,0,0,0,0,0,-1,1595,337,0,0
378,687,0,0,0,0,0,0,0,0,0,-1,1602,337,0,0
385,687,0,0,0,0,0,0,0,0,0,-1,1609,337,0,0
392,687,0,0,0,0,0,0,0,0,0,-1,1616,337,0,0
399,687,0,0,0,0,0,0,0,0,0,-1,1623,337,0,0
406,687,0,0,0,0,0,0,0,0,0,-1,1630,337,0,0
413,687,0,0,0,0,0,0,0,0,0,-1,1637,337,0,0
420,687,0,0,0,0,0,0,0,0,0,-1,1644,337,0,0
427,687,0,0,0,0,0,0,0,0,0,-1,1651,337,0,0
434,687,0,0,0,0,0,0,0,0,0,-1,1658,337,0,0
441,687,0,0,0,0,0,0,0,0,0,-1,1665,337,0,0
448,687,0,0,0,0,0,0,0,0,0,-1,1672,337,0,0
455,687,0,0,0,0,0,0,0,0,0,-1,1679,337,0,0
462,687,0,0,0,0,0,0,0,0,0,-1,1686,337,0,0
469,687,0,0,0,0,0,0,0,0,0,-1,1693,337,0,0
476,687,0,0,0,0,0,0,0,0,0,-1,1700,337,0,0
483,687,0,0,0,0,0,0,0,0,0,-1,1707,337,0,0
490,687,0,0,0,0,0,0,0,0,0,-1,1714,337,0,0
497,687,0,0,0,0,0,0,0,0,0,-1,1721,337,0,0
504,687,0,0,0,0,0,0,0,0,0,-1,1728,337,0,0
511,687,0,0,0,0,0,0,0,0,0,-1,1735,337,0,0
518,687,0,0,0,0,0,0,0,0,0,-1,1742,337,0,0
525,687,0,0,0,0,0,0,0,0,0,-1,1749,337,0,0
532,687,0,0,0,0,0,0,0,0,0,-1,1756,337,0,0
539,687,0,0,0,0,0,0,0,0,0,-1,1763,337,0,0
546,687,0,0,0,0,0,0,0,0,0,-1,1770,337,0,0
553,687,0,0,0,0,0,0,0,0,0,-1,1777,337,0,0
560,687,0,0,0,0,0,0,0,0,0,-1,1784,337,0,0
567,687,0,0,0,0,0,0,0,0,0,-1,1791,337,0,0
574,687,0,0,0,0,0,0,0,0,0,-1,1798,337,0,0
581,687,0,0,0,0,0,0,0,0,0,-1,1805,337,0,0
588,687,0,0,0,0,0,0,0,0,0,-1,1812,337,0,0
595,687,0,0,0,0,0,0,0,0,0,-1,1819,337,0,0
602,687,0,0,0,0,0,0,0,0,0,-1,1826,337,0,0
609,687,0,0,0,0,0,0,0,0,0,-1,1833,337,0,0
616,687,0,0,0,0,0,0,0,0,0,-1,1840,337,0,0
623,687,0,0,0,0,0,0,0,0,0,-1,1847,337,0,0
630,687,0,0,0,0,0,0,0,0,0,-1,1854,337,0,0
637,687,0,0,0,0,0,0,0,0,0,-1,1861,337,0,0
644,687,0,0,0,0,0,0,0,0,0,-1,1868,337,0,0
651,687,0,0,0,0,0,0,0,0,0,-1,1875,337,0,0
658,687,0,0,0,0,0,0,0,0,0,-1,1882,337,0,0
665,687,0,0,0,0,0,0,0,0,0,-1,1889,337,0,0
672,687,0,0,0,0,0,0,0,0,0,-1,1896,337,0,0
679,687,0,0,0,0,0,0,0,0,0,-1,1903,337,0,0
686,687,0,0,0,0,0,0,0,0,0,-1,1910,337,0,0
693,687,0,0,0,0,0,0,0,0,0,-1,1917,337,0,0
700,687,0,0,0,0,0,0,0,0,0,-1,1924,337,0,0
707,687,0,0,0,0,0,0,0,0,0,-1,1931,337,0,0
714,687,0,0,0,0,0,0,0,0,0,-1,1938,337,0,0
721,687,0,0,0,0,0,0,0,0,0,-1,1945,337,0,0
728,687,0,0,0,0,0,0,0,0,0,-1,1952,337,0,0
735,687,0,0,0,0,0,0,0,0,0,-1,1959,337,0,0
742,687,0,0,0,0,0,0,0,0,0,-1,1966,337,0,0
749,687,0,0,0,0,0,0,0,0,0,-1,1973,337,0,0
756,687,0,0,0,0,0,0,0,0,0,-1,1980,337,0,0
763,687,0,0,0,0,0,0,0,0,0,-1,1987,337,0,0
770,687,0,0,0,0,0,0,0,0,0,-1,1994,337,0,0
777,687,0,0,0,0,0,0,0,0,0,-1,2001,337,0,0
784,687,0,0,0,0,0,0,0,0,0,-1,2008,337,0,0
791,687,0,0,0,0,0,0,0,0,0,-1,2015,337,0,0
798,687,0,0,0,0,0,0,0,0,0,-1,2022,337,0,0
805,687,0,0,0,0,0,0,0,0,0,-1,2029,337,0,0
812,687,0,0,0,0,0,0,0,0,0,-1,2036,337,0,0
-700,680,0,0,0,0,0,0,0,0,0,-1,524,344,0,0
-693,680,0,0,0,0,0,0,0,0,0,-1,531,344,0,0
-686,680,0,0,0,0,0,0,0,0,0,-1,538,344,0,0
-679,680,0,0,0,0,0,0,0,0,0,-1,545,344,0,0
-672,680,0,0,0,0,0,0,0,0,0,-1,552,344,0,0
-665,680,0,0,0,0,0,0,0,0,0,-1,559,344,0,0
-658,680,0,0,0,0,0,0,0,0,0,-1,566,344,0,0
-651,680,0,0,0,0,0,0,0,0,0,-1,573,344,0,0
-644,680,0,0,0,0,0,0,0,0,0,-1,580,344,0,0
-637,680,0,0,0,0,0,0,0,0,0,-1,587,344,0,0
-630,680,0,0,0,0,0,0,0,0,0,-1,594,344,0,0
-623,680,0,0,0,0,0,0,0,0,0,-1,601,344,0,0
-616,680,0,0,0,0,0,0,0,0,0,-1,608,344,0,0
-609,680,0,0,0,0,0,0,0,0,0,-1,615,344,0,0
-602,680,0,0,0,0,0,0,0,0,0,-1,622,344,0,0
-595,680,0,0,0,0,0,0,0,0,0,-1,629,344,0,0
-588,680,0,0,0,0,0,0,0,0,0,-1,636,344,0,0
-581,680,0,0,0,0,0,0,0,0,0,-1,643,344,0,0
-574,680,0,0,0,0,0,0,0,0,0,-1,650,344,0,0
-567,680,0,0,0,0,0,0,0,0,0,-1,657,344,0,0
-560,680,0,0,0,0,0,0,0,0,0,-1,664,344,0,0
-553,680,0,0,0,0,0,0,0,0,0,-1,671,344,0,0
-546,680,0,0,0,0,0,0,0,0,0,-1,678,344,0,0
-539,680,0,0,0,0,0,0,0,0,0,-1,685,344,0,0
-532,680,0,0,0,0,0,0,0,0,0,-1,692,344,0,0
-525,680,0,0,0,0,0,0,0,0,0,-1,699,344,0,0
-518,680,0,0,0,0,0,0,0,0,0,-1,706,344,0,0
-511,680,0,0,0,0,0,0,0,0,0,-1,713,344,0,0
-504,680,0,0,0,0,0,0,0,0,0,-1,720,344,0,0
-497,680,0,0,0,0,0,0,0,0,0,-1,727,344,0,0
-490,680,0,0,0,0,0,0,0,0,0,-1,734,344,0,0
-483,680,0,0,0,0,0,0,0,0,0,-1,741,344,0,0
-476,680,0,0,0,0,0,0,0,0,0,-1,748,344,0,0
-469,680,0,0,0,0,0,0,0,0,0,-1,755,344,0,0
-462,680,0,0,0,0,0,0,0,0,0,-1,762,344,0,0
-455,680,0,0,0,0,0,0,0,0,0,-1,769,344,0,0
-448,680,0,0,0,0,0,0,0,0,0,-1,776,344,0,0
-441,680,0,0,0,0,0,0,0,0,0,-1,783,344,0,0
-434,680,0,0,0,0,0,0,0,0,0,-1,790,344,0,0
-427,680,0,0,0,0,0,0,0,0,0,-1,797,344,0,0
-420,680,0,0,0,0,0,0,0,0,0,-1,804,344,0,0
-413,680,0,0,0,0,0,0,0,0,0,-1,811,344,0,0
-406,680,0,0,0,0,0,0,0,0,0,-1,818,344,0,0
-399,680,0,0,0,0,0,0,0,0,0,-1,825,344,0,0
-392,680,0,0,0,0,0,0,0,0,0,-1,832,344,0,0
-385,680,0,0,0,0,0,0,0,0,0,-1,839,344,0,0
-378,680,0,0,0,0,0,0,0,0,0,-1,846,344,0,0
-371,680,0,0,0,0,0,0,0,0,0,-1,853,344,0,0
-364,680,0,0,0,0,0,0,0,0,0,-1,860,344,0,0
-357,680,0,0,0,0,0,0,0,0,0,-1,867,344,0,0
-350,680,0,0,0,0,0,0,0,0,0,-1,874,344,0,0
-343,680,0,0,0,0,0,0,0,0,0,-1,881,344,0,0
-336,680,0,0,0,0,0,0,0,0,0,-1,888,344,0,0
-329,680,0,0,0,0,0,0,0,0,0,-1,895,344,0,0
-322,680,0,0,0,0,0,0,0,0,0,-1,902,344,0,0
-315,680,0,0,0,0,0,0,0,0,0,-1,909,344,0,0
-308,680,0,0,0,0,0,0,0,0,0,-1,916,344,0,0
-301,680,0,0,0,0,0,0,0,0,0,-1,923,344,0,0
-294,680,0,0,0,0,0,0,0,0,0,-1,930,344,0,0
-287,680,0,0,0,0,0,0,0,0,0,-1,937,344,0,0
-280,680,0,0,0,0,0,0,0,0,0,-1,944,344,0,0
-273,680,0,0,0,0,0,0,0,0,0,-1,951,344,0,0
-266,680,0,0,0,0,0,0,0,0,0,-1,958,344,0,0
-259,680,0,0,0,0,0,0,0,0,0,-1,965,344,0,0
-252,680,0,0,0,0,0,0,0,0,0,-1,972,344,0,0
-245,680,0,0,0,0,0,0,0,0,0,-1,979,344,0,0
-238,680,0,0,0,0,0,0,0,0,0,-1,986,344,0,0
-231,680,0,0,0,0,0,0,0,0,0,-1,993,344,0,0
-224,680,0,0,0,0,0,0,0,0,0,-1,1000,344,0,0
-217,680,0,0,0,0,0,0,0,0,0,-1,1007,344,0,0
-210,680,0,0,0,0,0,0,0,0,0,-1,1014,344,0,0
-203,680,0,0,0,0,0,0,0,0,0,-1,1021,344,0,0
-196,680,0,0,0,0,0,0,0,0,0,-1,1028,344,0,0
-189,680,0,0,0,0,0,0,0,0,0,-1,1035,344,0,0
-182,680,0,0,0,0,0,0,0,0,0,-1,1042,344,0,0
-175,680,0,0,0,0,0,0,0,0,0,-1,1049,344,0,0
-168,680,0,0,0,0,0,0,0,0,0,-1,1056,344,0,0
-161,680,0,0,0,0,0,0,0,0,0,-1,1063,344,0,0
-154,680,2.25244,-29.1442,0,0,0,0,0,0,0,-1,1070,344,2.25241,29.1442
-147,680,9.29614,-33.0369,0,0,0,0,0,0,0,-1,1077,344,9.29612,33.0369
-140,680,6.98022,-36.6899,0,0,0,0,0,0,0,-1,1084,344,6.98023,36.6899
-133,680,1.85693,-39.7233,0,0,0,0,0,0,0,-1,1091,344,1.85699,39.7233
-126,680,2.30017,-38.3751,0,0,0,0,0,0,0,-1,1098,344,2.30011,38.3751
-119,680,2.74329,-37.0269,0,0,0,0,0,0,0,-1,1105,344,2.74323,37.0269
-112,680,7.7467,-32.4407,0,0,0,0,0,0,0,-1,1112,344,7.74668,32.4407
-105,680,20.6371,-48.461,0,0,0,0,0,0,0,-1,1119,344,20.6371,48.461
-98,680,14.2684,-41.9997,0,0,0,0,0,0,0,-1,1126,344,14.2685,41.9997
-91,680,7.89648,-35.5147,0,0,0,0,0,0,0,-1,1133,344,7.8965,35.5147
-84,680,1.47168,-29.471,0,0,0,0,0,0,0,-1,1140,344,1.47163,29.471
-77,680,-4.95337,-23.3355,0,0,0,0,0,0,0,-1,1147,344,-4.9534,23.3356
-70,680,-11.5099,-17.4337,0,0,0,0,0,0,0,-1,1154,344,-11.5098,17.4338
-63,680,-17.2391,-1.43134,0,0,0,0,0,0,0,-1,1161,344,-17.2392,1.43133
-56,680,-6.96912,-8.83356,0,0,0,0,0,0,0,-1,1168,344,-6.96907,8.83354
-49,680,-6.7677,-2.24063,0,0,0,0,0,0,0,-1,1175,344,-6.76772,2.24063
-42,680,-1.02368,0.618805,0,0,0,0,0,0,0,-1,1182,344,-1.0237,-0.618797
-35,680,-0.947876,-0.942719,0,0,0,0,0,0,0,-1,1189,344,-0.947842,0.942731
-28,680,-1.46118,-1.10574,0,0,0,0,0,0,0,-1,1196,344,-1.4612,1.10575
-21,680,7.01477,-46.3277,0,0,0,0,0,0,0,-1,1203,344,7.01475,46.3277
-14,680,6.98682,-46.6756,0.0258918,0.0749439,-0.0174305,0.0805069,0.0203288,-1.26186,0.0483415,0.0449458,1210,344,6.98686,46.6756
-7,680,6.96594,-47.1394,0.0265368,0.0763878,-0.0130902,0.0796161,0.0233085,-1.329,0.0472642,0.0457047,1217,344,6.96593,47.1394
0,680,6.76733,-47.513,0,0,0,0,0,0,0,-1,1224,344,6.76728,47.513
7,680,5.97693,-46.6877,0.02499,0.0791233,-0.00710022,0.0800391,0.0240742,-1.44252,0.0474175,0.0439647,1231,344,5.97694,46.6877
14,680,6.67773,-46.8298,0.0224864,0.0761055,-0.00502172,0.0765718,0.0220202,-1.47821,0.0455192,0.0435613,1238,344,6.67772,46.8298
21,680,6.81677,-47.1342,0,0,0,0,0,0,0,-1,1245,344,6.81677,47.1342
28,680,7.32117,-47.813,0,0,0,0,0,0,0,-1,1252,344,7.32112,47.813
35,680,6.1322,-47.1744,0,0,0,0,0,0,0,-1,1259,344,6.13214,47.1744
42,680,6.03711,-47.2653,0.0129761,0.0525871,0.00306345,0.0528226,0.0127406,1.49407,0.0318298,0.0448656,1266,344,6.0371,47.2653
49,680,5.89746,-47.4822,0.0104895,0.0465976,0.00568001,0.04747,0.00961709,1.41839,0.0289779,0.0407462,1273,344,5.89749,47.4822
56,680,5.76868,-47.584,0.00861181,0.0402592,0.00786023,0.0421039,0.0067671,1.34028,0.0261075,0.0398545,1280,344,5.76872,47.5839
63,680,5.83813,-47.5048,0.00556166,0.0348044,0.0107411,0.0383257,0.00204037,1.254,0.0248982,0.041557,1287,344,5.83814,47.5048
70,680,6.10535,-47.1827,0.00150377,0.0302011,0.01594,0.0372993,-0.00559445,1.15185,0.0269255,0.0437237,1294,344,6.10538,47.1827
77,680,5.89404,-47.6136,-0.00378926,0.0272221,0.0236779,0.0400196,-0.0165867,1.07529,0.0336021,0.0415745,1301,344,5.89407,47.6136
84,680,5.76001,-47.0715,-0.00878781,0.0378083,0.0291958,0.0518626,-0.0228421,1.12216,0.0442022,0.0444996,1308,344,5.75998,47.0715
91,680,5.44385,-46.6293,-0.0147895,0.0492863,0.0335098,0.0636093,-0.0291125,1.16687,0.054754,0.0468228,1315,344,5.44391,46.6293
98,680,5.12524,-46.2103,0,0,0,0,0,0,0,-1,1322,344,5.12528,46.2103
105,680,4.95166,-45.9642,0,0,0,0,0,0,0,-1,1329,344,4.95167,45.9642
112,680,4.75208,-45.7596,-0.0309906,0.0870053,0.042758,0.10087,-0.0448556,1.25723,0.0861818,0.0462628,1336,344,4.75213,45.7596
119,680,3.89404,-45.0673,-0.0364185,0.103868,0.0441233,0.116591,-0.0491423,1.29004,0.0982922,0.0421721,1343,344,3.89405,45.0673
126,680,3.16943,-44.4711,-0.0407968,0.120782,0.0441362,0.132052,-0.0520668,1.32079,0.109594,0.0442438,1350,344,3.16947,44.4711
133,680,2.4563,-43.7049,-0.0442327,0.135563,0.0413787,0.144628,-0.0532986,1.35511,0.118259,0.0456708,1357,344,2.45632,43.7049
140,680,1.6969,-43.1151,-0.0445788,0.147973,0.0376312,0.155066,-0.051672,1.38449,0.124236,0.049305,1364,344,1.69687,43.1151
147,680,4.76147,-46.2469,0,0,0,0,0,0,0,-1,1371,344,4.76142,46.247
154,680,3.8551,-45.2597,0,0,0,0,0,0,0,-1,1378,344,3.85507,45.2597
161,680,5.01746,-44.5562,0,0,0,0,0,0,0,-1,1385,344,5.01747,44.5562
168,680,29.4142,-2.51651,0,0,0,0,0,0,0,-1,1392,344,29.4142,2.51652
175,680,6.66541,0.942078,0,0,0,0,0,0,0,-1,1399,344,6.66538,-0.942088
182,680,6.52917,0.532379,0,0,0,0,0,0,0,-1,1406,344,6.52922,-0.532385
189,680,7.55884,4.77695,0,0,0,0,0,0,0,-1,1413,344,7.55886,-4.77694
196,680,6.55627,3.35254,0,0,0,0,0,0,0,-1,1420,344,6.55622,-3.35255
203,680,5.7334,1.90753,0,0,0,0,0,0,0,-1,1427,344,5.73341,-1.90754
210,680,5.27515,0.493622,0,0,0,0,0,0,0,-1,1434,344,5.27514,-0.493632
217,680,6.56384,-0.374176,0,0,0,0,0,0,0,-1,1441,344,6.56379,0.374176
224,680,3.9491,-0.640228,0,0,0,0,0,0,0,-1,1448,344,3.94908,0.64024
231,680,4.24866,-1.96881,0,0,0,0,0,0,0,-1,1455,344,4.2486,1.96882
238,680,4.29333,-3.23984,0,0,0,0,0,0,0,-1,1462,344,4.29332,3.23984
245,680,2.44397,0.985382,0,0,0,0,0,0,0,-1,1469,344,2.44402,-0.985394
252,680,3.07349,2.18951,0,0,0,0,0,0,0,-1,1476,344,3.0735,-2.18952
259,680,2.82971,1.30682,0,0,0,0,0,0,0,-1,1483,344,2.82972,-1.30684
266,680,2.67554,1.44067,0,0,0,0,0,0,0,-1,1490,344,2.67551,-1.44066
273,680,2.46411,1.54666,0,0,0,0,0,0,0,-1,1497,344,2.46407,-1.54666
280,680,0,0,0,0,0,0,0,0,0,-1,1504,344,0,0
287,680,0,0,0,0,0,0,0,0,0,-1,1511,344,0,0
294,680,0,0,0,0,0,0,0,0,0,-1,1518,344,0,0
301,680,0,0,0,0,0,0,0,0,0,-1,1525,344,0,0
308,680,0,0,0,0,0,0,0,0,0,-1,1532,344,0,0
315,680,0,0,0,0,0,0,0,0,0,-1,1539,344,0,0
322,680,0,0,0,0,0,0,0,0,0,-1,1546,344,0,0
329,680,0,0,0,0,0,0,0,0,0,-1,1553,344,0,0
336,680,0,0,0,0,0,0,0,0,0,-1,1560,344,0,0
343,680,0,0,0,0,0,0,0,0,0,-1,1567,344,0,0
350,680,0,0,0,0,0,0,0,0,0,-1,1574,344,0,0
357,680,0,0,0,0,0,0,0,0,0,-1,1581,344,0,0
364,680,0,0,0,0,0,0,0,0,0,-1,1588,344,0,0
371,680,0,0,0,0,0,0,0,0,0,-1,1595,344,0,0
378,680,0,0,0,0,0,0,0,0,0,-1,1602,344,0,0
385,680,0,0,0,0,0,0,0,0,0,-1,1609,344,0,0
392,680,0,0,0,0,0,0,0,0,0,-1,1616,344,0,0
399,680,0,0,0,0,0,0,0,0,0,-1,1623,344,0,0
406,680,0,0,0,0,0,0,0,0,0,-1,1630,344,0,0
413,680,0,0,0,0,0,0,0,0,0,-1,1637,344,0,0
420,680,0,0,0,0,0,0,0,0,0,-1,1644,344,0,0
427,680,0,0,0,0,0,0,0,0,0,-1,1651,344,0,0
434,680,0,0,0,0,0,0,0,0,0,-1,1658,344,0,0
441,680,0,0,0,0,0,0,0,0,0,-1,1665,344,0,0
448,680,0,0,0,0,0,0,0,0,0,-1,1672,344,0,0
455,680,0,0,0,0,0,0,0,0,0,-1,1679,344,0,0
462,680,0,0,0,0,0,0,0,0,0,-1,1686,344,0,0
469,680,0,0,0,0,0,0,0,0,0,-1,1693,344,0,0
476,680,0,0,0,0,0,0,0,0,0,-1,1700,344,0,0
483,680,0,0,0,0,0,0,0,0,0,-1,1707,344,0,0
490,680,0,0,0,0,0,0,0,0,0,-1,1714,344,0,0
497,680,0,0,0,0,0,0,0,0,0,-1,1721,344,0,0
504,680,0,0,0,0,0,0,0,0,0,-1,1728,344,0,0
511,680,0,0,0,0,0,0,0,0,0,-1,1735,344,0,0
518,680,0,0,0,0,0,0,0,0,0,-1,1742,344,0,0
525,680,0,0,0,0,0,0,0,0,0,-1,1749,344,0,0
532,680,0,0,0,0,0,0,0,0,0,-1,1756,344,0,0
539,680,0,0,0,0,0,0,0,0,0,-1,1763,344,0,0
546,680,0,0,0,0,0,0,0,0,0,-1,1770,344,0,0
553,680,0,0,0,0,0,0,0,0,0,-1,1777,344,0,0
560,680,0,0,0,0,0,0,0,0,0,-1,1784,344,0,0
567,680,0,0,0,0,0,0,0,0,0,-1,1791,344,0,0
574,680,0,0,0,0,0,0,0,0,0,-1,1798,344,0,0
581,680,0,0,0,0,0,0,0,0,0,-1,1805,344,0,0
588,680,0,0,0,0,0,0,0,0,0,-1,1812,344,0,0
595,680,0,0,0,0,0,0,0,0,0,-1,1819,344,0,0
602,680,0,0,0,0,0,0,0,0,0,-1,1826,344,0,0
609,680,0,0,0,0,0,0,0,0,0,-1,1833,344,0,0
616,680,0,0,0,0,0,0,0,0,0,-1,1840,344,0,0
623,680,0,0,0,0,0,0,0,0,0,-1,1847,344,0,0
630,680,0,0,0,0,0,0,0,0,0,-1,1854,344,0,0
637,680,0,0,0,0,0,0,0,0,0,-1,1861,344,0,0
644,680,0,0,0,0,0,0,0,0,0,-1,1868,344,0,0
651,680,0,0,0,0,0,0,0,0,0,-1,1875,344,0,0
658,680,0,0,0,0,0,0,0,0,0,-1,1882,344,0,0
665,680,0,0,0,0,0,0,0,0,0,-1,1889,344,0,0
672,680,0,0,0,0,0,0,0,0,0,-1,1896,344,0,0
679,680,0,0,0,0,0,0,0,0,0,-1,1903,344,0,0
686,680,0,0,0,0,0,0,0,0,0,-1,1910,344,0,0
693,680,0,0,0,0,0,0,0,0,0,-1,1917,344,0,0
700,680,0,0,0,0,0,0,0,0,0,-1,1924,344,0,0
707,680,0,0,0,0,0,0,0,0,0,-1,1931,344,0,0
714,680,0,0,0,0,0,0,0,0,0,-1,1938,344,0,0
721,680,0,0,0,0,0,0,0,0,0,-1,1945,344,0,0
728,680,0,0,0,0,0,0,0,0,0,-1,1952,344,0,0
735,680,0,0,0,0,0,0,0,0,0,-1,1959,344,0,0
742,680,0,0,0,0,0,0,0,0,0,-1,1966,344,0,0
749,680,0,0,0,0,0,0,0,0,0,-1,1973,344,0,0
756,680,0,0,0,0,0,0,0,0,0,-1,1980,344,0,0
763,680,0,0,0,0,0,0,0,0,0,-1,1987,344,0,0
770,680,0,0,0,0,0,0,0,0,0,-1,1994,344,0,0
777,680,0,0,0,0,0,0,0,0,0,-1,2001,344,0,0
784,680,0,0,0,0,0,0,0,0,0,-1,2008,344,0,0
791,680,0,0,0,0,0,0,0,0,0,-1,2015,344,0,0
798,680,0,0,0,0,0,0,0,0,0,-1,2022,344,0,0
805,680,0,0,0,0,0,0,0,0,0,-1,2029,344,0,0
812,680,0,0,0,0,0,0,0,0,0,-1,2036,344,0,0
-700,673,0,0,0,0,0,0,0,0,0,-1,524,351,0,0
-693,673,0,0,0,0,0,0,0,0,0,-1,531,351,0,0
-686,673,0,0,0,0,0,0,0,0,0,-1,538,351,0,0
-679,673,0,0,0,0,0,0,0,0,0,-1,545,351,0,0
-672,673,0,0,0,0,0,0,0,0,0,-1,552,351,0,0
-665,673,0,0,0,0,0,0,0,0,0,-1,559,351,0,0
-658,673,0,0,0,0,0,0,0,0,0,-1,566,351,0,0
-651,673,0,0,0,0,0,0,0,0,0,-1,573,351,0,0
-644,673,0,0,0,0,0,0,0,0,0,-1,580,351,0,0
-637,673,0,0,0,0,0,0,0,0,0,-1,587,351,0,0
-630,673,0,0,0,0,0,0,0,0,0,-1,594,351,0,0
-623,673,0,0,0,0,0,0,0,0,0,-1,601,351,0,0
-616,673,0,0,0,0,0,0,0,0,0,-1,608,351,0,0
-609,673,0,0,0,0,0,0,0,0,0,-1,615,351,0,0
-602,673,0,0,0,0,0,0,0,0,0,-1,622,351,0,0
-595,673,0,0,0,0,0,0,0,0,0,-1,629,351,0,0
-588,673,0,0,0,0,0,0,0,0,0,-1,636,351,0,0
-581,673,0,0,0,0,0,0,0,0,0,-1,643,351,0,0
-574,673,0,0,0,0,0,0,0,0,0,-1,650,351,0,0
-567,673,0,0,0,0,0,0,0,0,0,-1,657,351,0,0
-560,673,0,0,0,0,0,0,0,0,0,-1,664,351,0,0
-553,673,0,0,0,0,0,0,0,0,0,-1,671,351,0,0
-546,673,0,0,0,0,0,0,0,0,0,-1,678,351,0,0
-539,673,0,0,0,0,0,0,0,0,0,-1,685,351,0,0
-532,673,0,0,0,0,0,0,0,0,0,-1,692,351,0,0
-525,673,0,0,0,0,0,0,0,0,0,-1,699,351,0,0
-518,673,0,0,0,0,0,0,0,0,0,-1,706,351,0,0
-511,673,0,0,0,0,0,0,0,0,0,-1,713,351,0,0
-504,673,0,0,0,0,0,0,0,0,0,-1,720,351,0,0
-497,673,0,0,0,0,0,0,0,0,0,-1,727,351,0,0
-490,673,0,0,0,0,0,0,0,0,0,-1,734,351,0,0
-483,673,0,0,0,0,0,0,0,0,0,-1,741,351,0,0
-476,673,0,0,0,0,0,0,0,0,0,-1,748,351,0,0
-469,673,0,0,0,0,0,0,0,0,0,-1,755,351,0,0
-462,673,0,0,0,0,0,0,0,0,0,-1,762,351,0,0
-455,673,0,0,0,0,0,0,0,0,0,-1,769,351,0,0
-448,673,0,0,0,0,0,0,0,0,0,-1,776,351,0,0
-441,673,0,0,0,0,0,0,0,0,0,-1,783,351,0,0
-434,673,0,0,0,0,0,0,0,0,0,-1,790,351,0,0
-427,673,0,0,0,0,0,0,0,0,0,-1,797,351,0,0
-420,673,0,0,0,0,0,0,0,0,0,-1,804,351,0,0
-413,673,0,0,0,0,0,0,0,0,0,-1,811,351,0,0
-406,673,0,0,0,0,0,0,0,0,0,-1,818,351,0,0
-399,673,0,0,0,0,0,0,0,0,0,-1,825,351,0,0
-392,673,0,0,0,0,0,0,0,0,0,-1,832,351,0,0
-385,673,0,0,0,0,0,0,0,0,0,-1,839,351,0,0
-378,673,0,0,0,0,0,0,0,0,0,-1,846,351,0,0
-371,673,0,0,0,0,0,0,0,0,0,-1,853,351,0,0
-364,673,0,0,0,0,0,0,0,0,0,-1,860,351,0,0
-357,673,0,0,0,0,0,0,0,0,0,-1,867,351,0,0
-350,673,0,0,0,0,0,0,0,0,0,-1,874,351,0,0
-343,673,0,0,0,0,0,0,0,0,0,-1,881,351,0,0
-336,673,0,0,0,0,0,0,0,0,0,-1,888,351,0,0
-329,673,0,0,0,0,0,0,0,0,0,-1,895,351,0,0
-322,673,0,0,0,0,0,0,0,0,0,-1,902,351,0,0
-315,673,0,0,0,0,0,0,0,0,0,-1,909,351,0,0
-308,673,0,0,0,0,0,0,0,0,0,-1,916,351,0,0
-301,673,0,0,0,0,0,0,0,0,0,-1,923,351,0,0
-294,673,0,0,0,0,0,0,0,0,0,-1,930,351,0,0
-287,673,0,0,0,0,0,0,0,0,0,-1,937,351,0,0
-280,673,0,0,0,0,0,0,0,0,0,-1,944,351,0,0
-273,673,0,0,0,0,0,0,0,0,0,-1,951,351,0,0
-266,673,0,0,0,0,0,0,0,0,0,-1,958,351,0,0
-259,673,0,0,0,0,0,0,0,0,0,-1,965,351,0,0
-252,673,0,0,0,0,0,0,0,0,0,-1,972,351,0,0
-245,673,0,0,0,0,0,0,0,0,0,-1,979,351,0,0
-238,673,0,0,0,0,0,0,0,0,0,-1,986,351,0,0
-231,673,0,0,0,0,0,0,0,0,0,-1,993,351,0,0
-224,673,0,0,0,0,0,0,0,0,0,-1,1000,351,0,0
-217,673,0,0,0,0,0,0,0,0,0,-1,1007,351,0,0
-210,673,0,0,0,0,0,0,0,0,0,-1,1014,351,0,0
-203,673,0,0,0,0,0,0,0,0,0,-1,1021,351,0,0
-196,673,0,0,0,0,0,0,0,0,0,-1,1028,351,0,0
-189,673,0,0,0,0,0,0,0,0,0,-1,1035,351,0,0
-182,673,0,0,0,0,0,0,0,0,0,-1,1042,351,0,0
-175,673,7.10449,-31.8279,0,0,0,0,0,0,0,-1,1049,351,7.10448,31.8279
-168,673,7.33081,-32.7122,0,0,0,0,0,0,0,-1,1056,351,7.33085,32.7122
-161,673,7.8938,-33.5352,0,0,0,0,0,0,0,-1,1063,351,7.89385,33.5352
-154,673,8.80566,-35.3518,0,0,0,0,0,0,0,-1,1070,351,8.80563,35.3518
-147,673,2.89221,-37.7351,0,0,0,0,0,0,0,-1,1077,351,2.89224,37.7351
-140,673,3.35046,-37.7151,0,0,0,0,0,0,0,-1,1084,351,3.35046,37.715
-133,673,3.35339,-39.0288,0,0,0,0,0,0,0,-1,1091,351,3.35342,39.0288
-126,673,3.7533,-38.0453,0,0,0,0,0,0,0,-1,1098,351,3.7533,38.0453
-119,673,4.1532,-37.0618,0,0,0,0,0,0,0,-1,1105,351,4.15318,37.0618
-112,673,7.27234,-32.5801,0,0,0,0,0,0,0,-1,1112,351,7.27231,32.5801
-105,673,21.1144,-43.3143,0,0,0,0,0,0,0,-1,1119,351,21.1143,43.3143
-98,673,14.8014,-36.7519,0,0,0,0,0,0,0,-1,1126,351,14.8014,36.7519
-91,673,8.54944,-29.9639,0,0,0,0,0,0,0,-1,1133,351,8.54949,29.9639
-84,673,2.17102,-24.3204,0,0,0,0,0,0,0,-1,1140,351,2.17107,24.3204
-77,673,-4.25378,-18.8346,0,0,0,0,0,0,0,-1,1147,351,-4.25381,18.8346
-70,673,-10.7933,-13.6681,0,0,0,0,0,0,0,-1,1154,351,-10.7934,13.6681
-63,673,-17.3896,-8.24469,0,0,0,0,0,0,0,-1,1161,351,-17.3896,8.2447
-56,673,-18.0282,2.79053,0,0,0,0,0,0,0,-1,1168,351,-18.0283,-2.79052
-49,673,-0.926758,-0.115448,0,0,0,0,0,0,0,-1,1175,351,-0.926732,0.115444
-42,673,-1.15015,0.289917,0,0,0,0,0,0,0,-1,1182,351,-1.15017,-0.289932
-35,673,-0.919556,-1.00711,0,0,0,0,0,0,0,-1,1189,351,-0.919514,1.00711
-28,673,5.28918,-39.2331,0,0,0,0,0,0,0,-1,1196,351,5.28924,39.2331
-21,673,7.00146,-46.7006,0,0,0,0,0,0,0,-1,1203,351,7.00146,46.7006
-14,673,6.84241,-46.9772,0.0174514,0.0594494,-0.0126465,0.0629635,0.0139373,-1.29976,0.0381873,0.0434503,1210,351,6.84242,46.9772
-7,673,6.86719,-47.5278,0.0178817,0.060882,-0.00988678,0.0630463,0.0157175,-1.35529,0.0378943,0.0431782,1217,351,6.86723,47.5278
0,673,6.67322,-47.6209,0.0176218,0.0623134,-0.0075783,0.0635635,0.0163717,-1.40731,0.0381092,0.0497704,1224,351,6.67326,47.6209
7,673,6.56287,-47.6477,0,0,0,0,0,0,0,-1,1231,351,6.56283,47.6477
14,673,6.61829,-47.3803,0.0151274,0.0616962,-0.0045282,0.0621325,0.0146912,-1.47476,0.0374965,0.0450424,1238,351,6.61827,47.3803
21,673,6.5481,-47.6823,0.0130856,0.0583646,-0.00375943,0.0586746,0.0127756,-1.48852,0.0356297,0.0340085,1245,351,6.54814,47.6824
28,673,6.57593,-47.8191,0.0118356,0.0543009,-0.00262114,0.0544621,0.0116744,-1.50938,0.0331099,0.0345081,1252,351,6.57594,47.8191
35,673,6.30676,-47.7932,0,0,0,0,0,0,0,-1,1259,351,6.30676,47.7932
42,673,6.21985,-47.9042,0.00836658,0.045626,0.00149989,0.0456862,0.00830629,1.53063,0.028101,0.0394103,1266,351,6.2198,47.9042
49,673,6.12512,-48.0315,0.00651203,0.0413672,0.0035551,0.0417261,0.00615311,1.47018,0.0260101,0.0246359,1273,351,6.1251,48.0315
56,673,6.08984,-48.0268,0.00515256,0.0368623,0.00526457,0.0377135,0.00430137,1.4105,0.0238383,0.0185977,1280,351,6.0899,48.0268
63,673,6.13391,-47.7885,0.00271226,0.0328923,0.0075799,0.0346891,0.000915496,1.33805,0.022827,0.0226062,1287,351,6.13392,47.7885
70,673,6.03577,-47.7085,-0.000430373,0.0293727,0.0116741,0.0334011,-0.00445872,1.23852,0.0238927,0.0356492,1294,351,6.03571,47.7085
77,673,5.93994,-47.6494,-0.0044839,0.027057,0.0176494,0.0349553,-0.0123822,1.15002,0.0283472,0.0398513,1301,351,5.93988,47.6494
84,673,5.83716,-47.5994,-0.00807866,0.0347008,0.0215325,0.0436619,-0.0170397,1.17643,0.0361521,0.0444987,1308,351,5.83718,47.5994
91,673,5.67224,-47.7897,0,0,0,0,0,0,0,-1,1315,351,5.6722,47.7897
98,673,5.6781,-48.0543,0,0,0,0,0,0,0,-1,1322,351,5.67814,48.0543
105,673,5.28101,-47.5043,0,0,0,0,0,0,0,-1,1329,351,5.28106,47.5043
112,673,4.71411,-46.5666,0,0,0,0,0,0,0,-1,1336,351,4.71414,46.5666
119,673,4.59082,-46.0279,0,0,0,0,0,0,0,-1,1343,351,4.59079,46.0279
126,673,4.07288,-45.5053,0,0,0,0,0,0,0,-1,1350,351,4.07284,45.5053
133,673,3.85583,-45.4952,-0.0337289,0.108609,0.0286052,0.114143,-0.0392625,1.37971,0.0920185,0.0477549,1357,351,3.85583,45.4952
140,673,4.96472,-46.7664,-0.0340014,0.117452,0.0256565,0.12168,-0.0382296,1.40746,0.0964235,0.0478031,1364,351,4.96472,46.7665
147,673,4.93604,-46.6307,-0.0318148,0.122558,0.0224283,0.125751,-0.0350073,1.4294,0.0976182,0.0487311,1371,351,4.93599,46.6307
154,673,4.85095,-46.2453,0,0,0,0,0,0,0,-1,1378,351,4.85092,46.2453
161,673,4.9585,-45.6998,0,0,0,0,0,0,0,-1,1385,351,4.95847,45.6998
168,673,6.87061,1.83954,0,0,0,0,0,0,0,-1,1392,351,6.87063,-1.83953
175,673,6.6228,1.1459,0,0,0,0,0,0,0,-1,1399,351,6.62276,-1.14591
182,673,6.37244,0.796112,0,0,0,0,0,0,0,-1,1406,351,6.3724,-0.796102
189,673,6.12097,0.265472,0,0,0,0,0,0,0,-1,1413,351,6.121,-0.265482
196,673,6.02173,3.12717,0,0,0,0,0,0,0,-1,1420,351,6.02176,-3.12717
203,673,5.04456,1.6351,0,0,0,0,0,0,0,-1,1427,351,5.04455,-1.63509
210,673,4.79224,0.447479,0,0,0,0,0,0,0,-1,1434,351,4.79229,-0.447469
217,673,2.01648,0.972687,0,0,0,0,0,0,0,-1,1441,351,2.01644,-0.972691
224,673,2.3689,-1.80539,0,0,0,0,0,0,0,-1,1448,351,2.36896,1.80539
231,673,2.65857,-2.18497,0,0,0,0,0,0,0,-1,1455,351,2.65852,2.18496
238,673,3.77844,-2.06088,0,0,0,0,0,0,0,-1,1462,351,3.77839,2.06088
245,673,3.5376,-0.190399,0,0,0,0,0,0,0,-1,1469,351,3.53759,0.1904
252,673,3.80518,0.55603,0,0,0,0,0,0,0,-1,1476,351,3.80519,-0.556022
259,673,3.88562,1.29617,0,0,0,0,0,0,0,-1,1483,351,3.88562,-1.29618
266,673,4.22424,2.04834,0,0,0,0,0,0,0,-1,1490,351,4.22429,-2.04834
273,673,6.07886,0.385895,0,0,0,0,0,0,0,-1,1497,351,6.0789,-0.385906
280,673,6.97534,-0.0820007,0,0,0,0,0,0,0,-1,1504,351,6.97536,0.0820122
287,673,7.66968,-0.348541,0,0,0,0,0,0,0,-1,1511,351,7.66969,0.348534
294,673,8.20996,0.28537,0,0,0,0,0,0,0,-1,1518,351,8.20993,-0.28536
301,673,0,0,0,0,0,0,0,0,0,-1,1525,351,0,0
308,673,0,0,0,0,0,0,0,0,0,-1,1532,351,0,0
315,673,0,0,0,0,0,0,0,0,0,-1,1539,351,0,0
322,673,0,0,0,0,0,0,0,0,0,-1,1546,351,0,0
329,673,0,0,0,0,0,0,0,0,0,-1,1553,351,0,0
336,673,0,0,0,0,0,0,0,0,0,-1,1560,351,0,0
343,673,0,0,0,0,0,0,0,0,0,-1,1567,351,0,0
350,673,0,0,0,0,0,0,0,0,0,-1,1574,351,0,0
357,673,0,0,0,0,0,0,0,0,0,-1,1581,351,0,0
364,673,0,0,0,0,0,0,0,0,0,-1,1588,351,0,0
371,673,0,0,0,0,0,0,0,0,0,-1,1595,351,0,0
378,673,0,0,0,0,0,0,0,0,0,-1,1602,351,0,0
385,673,0,0,0,0,0,0,0,0,0,-1,1609,351,0,0
392,673,0,0,0,0,0,0,0,0,0,-1,1616,351,0,0
399,673,0,0,0,0,0,0,0,0,0,-1,1623,351,0,0
406,673,0,0,0,0,0,0,0,0,0,-1,1630,351,0,0
413,673,0,0,0,0,0,0,0,0,0,-1,1637,351,0,0
420,673,0,0,0,0,0,0,0,0,0,-1,1644,351,0,0
427,673,0,0,0,0,0,0,0,0,0,-1,1651,351,0,0
434,673,0,0,0,0,0,0,0,0,0,-1,1658,351,0,0
441,673,0,0,0,0,0,0,0,0,0,-1,1665,351,0,0
448,673,0,0,0,0,0,0,0,0,0,-1,1672,351,0,0
455,673,0,0,0,0,0,0,0,0,0,-1,1679,351,0,0
462,673,0,0,0,0,0,0,0,0,0,-1,1686,351,0,0
469,673,0,0,0,0,0,0,0,0,0,-1,1693,351,0,0
476,673,0,0,0,0,0,0,0,0,0,-1,1700,351,0,0
483,673,0,0,0,0,0,0,0,0,0,-1,1707,351,0,0
490,673,0,0,0,0,0,0,0,0,0,-1,1714,351,0,0
497,673,0,0,0,0,0,0,0,0,0,-1,1721,351,0,0
504,673,0,0,0,0,0,0,0,0,0,-1,1728,351,0,0
511,673,0,0,0,0,0,0,0,0,0,-1,1735,351,0,0
518,673,0,0,0,0,0,0,0,0,0,-1,1742,351,0,0
525,673,0,0,0,0,0,0,0,0,0,-1,1749,351,0,0
532,673,0,0,0,0,0,0,0,0,0,-1,1756,351,0,0
539,673,0,0,0,0,0,0,0,0,0,-1,1763,351,0,0
546,673,0,0,0,0,0,0,0,0,0,-1,1770,351,0,0
553,673,0,0,0,0,0,0,0,0,0,-1,1777,351,0,0
560,673,0,0,0,0,0,0,0,0,0,-1,1784,351,0,0
567,673,0,0,0,0,0,0,0,0,0,-1,1791,351,0,0
574,673,0,0,0,0,0,0,0,0,0,-1,1798,351,0,0
581,673,0,0,0,0,0,0,0,0,0,-1,1805,351,0,0
588,673,0,0,0,0,0,0,0,0,0,-1,1812,351,0,0
595,673,0,0,0,0,0,0,0,0,0,-1,1819,351,0,0
602,673,0,0,0,0,0,0,0,0,0,-1,1826,351,0,0
609,673,0,0,0,0,0,0,0,0,0,-1,1833,351,0,0
616,673,0,0,0,0,0,0,0,0,0,-1,1840,351,0,0
623,673,0,0,0,0,0,0,0,0,0,-1,1847,351,0,0
630,673,0,0,0,0,0,0,0,0,0,-1,1854,351,0,0
637,673,0,0,0,0,0,0,0,0,0,-1,1861,351,0,0
644,673,0,0,0,0,0,0,0,0,0,-1,1868,351,0,0
651,673,0,0,0,0,0,0,0,0,0,-1,1875,351,0,0
658,673,0,0,0,0,0,0,0,0,0,-1,1882,351,0,0
665,673,0,0,0,0,0,0,0,0,0,-1,1889,351,0,0
672,673,0,0,0,0,0,0,0,0,0,-1,1896,351,0,0
679,673,0,0,0,0,0,0,0,0,0,-1,1903,351,0,0
686,673,0,0,0,0,0,0,0,0,0,-1,1910,351,0,0
693,673,0,0,0,0,0,0,0,0,0,-1,1917,351,0,0
700,673,0,0,0,0,0,0,0,0,0,-1,1924,351,0,0
707,673,0,0,0,0,0,0,0,0,0,-1,1931,351,0,0
714,673,0,0,0,0,0,0,0,0,0,-1,1938,351,0,0
721,673,0,0,0,0,0,0,0,0,0,-1,1945,351,0,0
728,673,0,0,0,0,0,0,0,0,0,-1,1952,351,0,0
735,673,0,0,0,0,0,0,0,0,0,-1,1959,351,0,0
742,673,0,0,0,0,0,0,0,0,0,-1,1966,351,0,0
749,673,0,0,0,0,0,0,0,0,0,-1,1973,351,0,0
756,673,0,0,0,0,0,0,0,0,0,-1,1980,351,0,0
763,673,0,0,0,0,0,0,0,0,0,-1,1987,351,0,0
770,673,0,0,0,0,0,0,0,0,0,-1,1994,351,0,0
777,673,0,0,0,0,0,0,0,0,0,-1,2001,351,0,0
784,673,0,0,0,0,0,0,0,0,0,-1,2008,351,0,0
791,673,0,0,0,0,0,0,0,0,0,-1,2015,351,0,0
798,673,0,0,0,0,0,0,0,0,0,-1,2022,351,0,0
805,673,0,0,0,0,0,0,0,0,0,-1,2029,351,0,0
812,673,0,0,0,0,0,0,0,0,0,-1,2036,351,0,0
-700,666,0,0,0,0,0,0,0,0,0,-1,524,358,0,0
-693,666,0,0,0,0,0,0,0,0,0,-1,531,358,0,0
-686,666,0,0,0,0,0,0,0,0,0,-1,538,358,0,0
-679,666,0,0,0,0,0,0,0,0,0,-1,545,358,0,0
-672,666,0,0,0,0,0,0,0,0,0,-1,552,358,0,0
-665,666,0,0,0,0,0,0,0,0,0,-1,559,358,0,0
-658,666,0,0,0,0,0,0,0,0,0,-1,566,358,0,0
-651,666,0,0,0,0,0,0,0,0,0,-1,573,358,0,0
-644,666,0,0,0,0,0,0,0,0,0,-1,580,358,0,0
-637,666,0,0,0,0,0,0,0,0,0,-1,587,358,0,0
-630,666,0,0,0,0,0,0,0,0,0,-1,594,358,0,0
-623,666,0,0,0,0,0,0,0,0,0,-1,601,358,0,0
-616,666,0,0,0,0,0,0,0,0,0,-1,608,358,0,0
-609,666,0,0,0,0,0,0,0,0,0,-1,615,358,0,0
-602,666,0,0,0,0,0,0,0,0,0,-1,622,358,0,0
-595,666,0,0,0,0,0,0,0,0,0,-1,629,358,0,0
-588,666,0,0,0,0,0,0,0,0,0,-1,636,358,0,0
-581,666,0,0,0,0,0,0,0,0,0,-1,643,358,0,0
-574,666,0,0,0,0,0,0,0,0,0,-1,650,358,0,0
-567,666,0,0,0,0,0,0,0,0,0,-1,657,358,0,0
-560,666,0,0,0,0,0,0,0,0,0,-1,664,358,0,0
-553,666,0,0,0,0,0,0,0,0,0,-1,671,358,0,0
-546,666,0,0,0,0,0,0,0,0,0,-1,678,358,0,0
-539,666,0,0,0,0,0,0,0,0,0,-1,685,358,0,0
-532,666,0,0,0,0,0,0,0,0,0,-1,692,358,0,0
-525,666,0,0,0,0,0,0,0,0,0,-1,699,358,0,0
-518,666,0,0,0,0,0,0,0,0,0,-1,706,358,0,0
-511,666,0,0,0,0,0,0,0,0,0,-1,713,358,0,0
-504,666,0,0,0,0,0,0,0,0,0,-1,720,358,0,0
-497,666,0,0,0,0,0,0,0,0,0,-1,727,358,0,0
-490,666,0,0,0,0,0,0,0,0,0,-1,734,358,0,0
-483,666,0,0,0,0,0,0,0,0,0,-1,741,358,0,0
-476,666,0,0,0,0,0,0,0,0,0,-1,748,358,0,0
-469,666,0,0,0,0,0,0,0,0,0,-1,755,358,0,0
-462,666,0,0,0,0,0,0,0,0,0,-1,762,358,0,0
-455,666,0,0,0,0,0,0,0,0,0,-1,769,358,0,0
-448,666,0,0,0,0,0,0,0,0,0,-1,776,358,0,0
-441,666,0,0,0,0,0,0,0,0,0,-1,783,358,0,0
-434,666,0,0,0,0,0,0,0,0,0,-1,790,358,0,0
-427,666,0,0,0,0,0,0,0,0,0,-1,797,358,0,0
-420,666,0,0,0,0,0,0,0,0,0,-1,804,358,0,0
-413,666,0,0,0,0,0,0,0,0,0,-1,811,358,0,0
-406,666,0,0,0,0,0,0,0,0,0,-1,818,358,0,0
-399,666,0,0,0,0,0,0,0,0,0,-1,825,358,0,0
-392,666,0,0,0,0,0,0,0,0,0,-1,832,358,0,0
-385,666,0,0,0,0,0,0,0,0,0,-1,839,358,0,0
-378,666,0,0,0,0,0,0,0,0,0,-1,846,358,0,0
-371,666,0,0,0,0,0,0,0,0,0,-1,853,358,0,0
-364,666,0,0,0,0,0,0,0,0,0,-1,860,358,0,0
-357,666,0,0,0,0,0,0,0,0,0,-1,867,358,0,0
-350,666,0,0,0,0,0,0,0,0,0,-1,874,358,0,0
-343,666,0,0,0,0,0,0,0,0,0,-1,881,358,0,0
-336,666,0,0,0,0,0,0,0,0,0,-1,888,358,0,0
-329,666,0,0,0,0,0,0,0,0,0,-1,895,358,0,0
-322,666,0,0,0,0,0,0,0,0,0,-1,902,358,0,0
-315,666,0,0,0,0,0,0,0,0,0,-1,909,358,0,0
-308,666,0,0,0,0,0,0,0,0,0,-1,916,358,0,0
-301,666,0,0,0,0,0,0,0,0,0,-1,923,358,0,0
-294,666,0,0,0,0,0,0,0,0,0,-1,930,358,0,0
-287,666,0,0,0,0,0,0,0,0,0,-1,937,358,0,0
-280,666,0,0,0,0,0,0,0,0,0,-1,944,358,0,0
-273,666,0,0,0,0,0,0,0,0,0,-1,951,358,0,0
-266,666,0,0,0,0,0,0,0,0,0,-1,958,358,0,0
-259,666,0,0,0,0,0,0,0,0,0,-1,965,358,0,0
-252,666,0,0,0,0,0,0,0,0,0,-1,972,358,0,0
-245,666,0,0,0,0,0,0,0,0,0,-1,979,358,0,0
-238,666,0,0,0,0,0,0,0,0,0,-1,986,358,0,0
-231,666,0,0,0,0,0,0,0,0,0,-1,993,358,0,0
-224,666,0,0,0,0,0,0,0,0,0,-1,1000,358,0,0
-217,666,0,0,0,0,0,0,0,0,0,-1,1007,358,0,0
-210,666,0,0,0,0,0,0,0,0,0,-1,1014,358,0,0
-203,666,0,0,0,0,0,0,0,0,0,-1,1021,358,0,0
-196,666,4.03418,-28.8724,0,0,0,0,0,0,0,-1,1028,358,4.03422,28.8724
-189,666,5.00366,-29.597,0,0,0,0,0,0,0,-1,1035,358,5.00363,29.597
-182,666,6.83252,-30.9843,0,0,0,0,0,0,0,-1,1042,358,6.83247,30.9844
-175,666,7.01611,-31.8763,0,0,0,0,0,0,0,-1,1049,358,7.01617,31.8762
-168,666,7.21545,-32.7414,0,0,0,0,0,0,0,-1,1056,358,7.2154,32.7414
-161,666,7.69116,-33.6269,0,0,0,0,0,0,0,-1,1063,358,7.69121,33.6269
-154,666,3.79041,-37.9204,0,0,0,0,0,0,0,-1,1070,358,3.79034,37.9204
-147,666,4.17908,-37.7466,0,0,0,0,0,0,0,-1,1077,358,4.17912,37.7466
-140,666,4.54309,-37.735,0,0,0,0,0,0,0,-1,1084,358,4.54304,37.735
-133,666,4.65723,-39.0643,0,0,0,0,0,0,0,-1,1091,358,4.65727,39.0643
-126,666,5.02368,-38.0699,0,0,0,0,0,0,0,-1,1098,358,5.02363,38.0698
-119,666,5.39001,-37.0754,0,0,0,0,0,0,0,-1,1105,358,5.38999,37.0754
-112,666,6.77014,-32.8165,0,0,0,0,0,0,0,-1,1112,358,6.77013,32.8165
-105,666,6.30908,-29.0855,0,0,0,0,0,0,0,-1,1119,358,6.30905,29.0855
-98,666,15.4427,-31.5168,0,0,0,0,0,0,0,-1,1126,358,15.4428,31.5168
-91,666,9.5127,-25.1347,0,0,0,0,0,0,0,-1,1133,358,9.51269,25.1347
-84,666,2.91589,-19.4071,0,0,0,0,0,0,0,-1,1140,358,2.91592,19.4071
-77,666,-3.48083,-14.0782,0,0,0,0,0,0,0,-1,1147,358,-3.48081,14.0782
-70,666,-9.99438,-8.90146,0,0,0,0,0,0,0,-1,1154,358,-9.99433,8.90146
-63,666,-11.7778,-0.975189,0,0,0,0,0,0,0,-1,1161,358,-11.7778,0.97519
-56,666,0.424683,-2.04132,0,0,0,0,0,0,0,-1,1168,358,0.424665,2.04132
-49,666,0.754395,-2.23169,0,0,0,0,0,0,0,-1,1175,358,0.754383,2.23169
-42,666,1.34473,-3.53897,0,0,0,0,0,0,0,-1,1182,358,1.34476,3.53896
-35,666,6.73035,-47.0414,0,0,0,0,0,0,0,-1,1189,358,6.73035,47.0414
-28,666,6.88025,-47.0815,0,0,0,0,0,0,0,-1,1196,358,6.88024,47.0816
-21,666,6.81006,-47.0674,0.00976898,0.0446275,-0.0107908,0.0476975,0.00669894,-1.29362,0.0298173,0.0362139,1203,358,6.81008,47.0674
-14,666,6.68274,-47.2976,0.0109012,0.0457024,-0.00896157,0.0478745,0.0087291,-1.333,0.0294412,0.0320878,1210,358,6.68274,47.2976
-7,666,6.63293,-47.4996,0.0112822,0.0470914,-0.00726897,0.0485107,0.00986295,-1.37797,0.0296056,0.0211355,1217,358,6.63288,47.4996
0,666,6.59863,-47.7076,0.0111775,0.0483817,-0.00581767,0.0492702,0.010289,-1.41924,0.0300109,0.0149412,1224,358,6.59868,47.7076
7,666,6.48047,-47.7899,0.0106946,0.049447,-0.00477997,0.0500278,0.0101137,-1.44986,0.030544,0.0206033,1231,358,6.48052,47.7899
14,666,6.41699,-47.8391,0.00966901,0.0485509,-0.00383456,0.0489254,0.00929445,-1.47343,0.0300026,0.0191994,1238,358,6.41697,47.8392
21,666,6.37598,-48.0514,0.00835414,0.0465179,-0.00332304,0.0468051,0.00806695,-1.48459,0.0288923,0.0156146,1245,358,6.37595,48.0514
28,666,6.31506,-48.1848,0.0075429,0.043867,-0.00253472,0.044043,0.00736688,-1.50146,0.0272405,0.0224367,1252,358,6.31506,48.1848
35,666,6.3053,-48.177,0.00666054,0.0408782,-0.00141887,0.040937,0.0066018,-1.52943,0.0253786,0.0207762,1259,358,6.30531,48.177
42,666,6.21179,-48.2801,0.00510063,0.0380708,0.000548515,0.0380799,0.00509151,1.55417,0.0238711,0.0170274,1266,358,6.21173,48.2801
49,666,6.11755,-48.337,0.00375539,0.0351469,0.00211046,0.0352881,0.00361414,1.50397,0.022418,0.0160135,1273,358,6.11758,48.337
56,666,6.09302,-48.3566,0.00279687,0.0320556,0.00340298,0.0324462,0.0024063,1.45652,0.020875,0.0166963,1280,358,6.09303,48.3566
63,666,6.05676,-48.4303,0.000908774,0.0292423,0.00518864,0.0301626,-1.15158e-05,1.39526,0.0201122,0.0187471,1287,358,6.05673,48.4303
70,666,5.94495,-48.5131,0,0,0,0,0,0,0,-1,1294,358,5.945,48.5131
77,666,5.91687,-48.2563,-0.00446406,0.0248908,0.0127412,0.0296495,-0.00922282,1.21335,0.0234531,0.0221083,1301,358,5.91692,48.2564
84,666,5.90576,-48.2932,-0.00695396,0.0303048,0.0153574,0.0358188,-0.012468,1.22609,0.0289446,0.0306092,1308,358,5.9057,48.2931
91,666,5.86975,-48.314,-0.0100424,0.03719,0.017144,0.0427567,-0.0156091,1.25683,0.0348914,0.0270656,1315,358,5.86981,48.314
98,666,5.6958,-48.2189,-0.0128187,0.0432506,0.0191347,0.0491583,-0.0187263,1.27134,0.0404846,0.0236372,1322,358,5.69585,48.2189
105,666,5.55188,-48.0661,-0.0156345,0.0504566,0.0205575,0.0563291,-0.0215071,1.29254,0.0464136,0.0271102,1329,358,5.55193,48.0661
112,666,5.56018,-47.9193,0,0,0,0,0,0,0,-1,1336,358,5.56017,47.9193
119,666,5.49316,-47.7406,0,0,0,0,0,0,0,-1,1343,358,5.49316,47.7406
126,666,5.30359,-47.331,-0.0231788,0.0769432,0.0207625,0.081078,-0.0273136,1.37422,0.0650955,0.0365364,1350,358,5.30362,47.331
133,666,5.24402,-47.2014,-0.0247826,0.0848158,0.0188834,0.0879781,-0.0279448,1.40487,0.0698557,0.032449,1357,358,5.24401,47.2014
140,666,5.18591,-47.1386,-0.0249139,0.0908319,0.0165921,0.0931634,-0.0272454,1.43119,0.0729079,0.0302325,1364,358,5.18597,47.1386
147,666,5.0531,-46.9502,-0.0233273,0.0940911,0.0142178,0.0957881,-0.0250243,1.452,0.0736316,0.0269107,1371,358,5.05315,46.9502
154,666,5.04285,-46.5204,-0.0217846,0.0952789,0.0128409,0.0966709,-0.0231766,1.46282,0.0734028,0.0248715,1378,358,5.04282,46.5204
161,666,5.07007,-46.2131,-0.0204014,0.0945922,0.0121726,0.0958666,-0.0216758,1.46648,0.0722287,0.0335772,1385,358,5.07011,46.2131
168,666,5.03735,-45.9063,0,0,0,0,0,0,0,-1,1392,358,5.03738,45.9063
175,666,5.10254,-46.1391,0,0,0,0,0,0,0,-1,1399,358,5.10251,46.1391
182,666,2.60876,-5.17068,0,0,0,0,0,0,0,-1,1406,358,2.6088,5.17068
189,666,2.46973,-5.49979,0,0,0,0,0,0,0,-1,1413,358,2.46975,5.49979
196,666,2.32458,-5.23651,0,0,0,0,0,0,0,-1,1420,358,2.32461,5.23653
203,666,2.28064,-3.88004,0,0,0,0,0,0,0,-1,1427,358,2.28059,3.88003
210,666,3.02576,-5.83548,0,0,0,0,0,0,0,-1,1434,358,3.02581,5.83547
217,666,2.30444,-5.36011,0,0,0,0,0,0,0,-1,1441,358,2.30447,5.3601
224,666,1.82324,-6.03101,0,0,0,0,0,0,0,-1,1448,358,1.82322,6.031
231,666,2.29797,-10.1093,0,0,0,0,0,0,0,-1,1455,358,2.29801,10.1093
238,666,2.52429,-6.10568,0,0,0,0,0,0,0,-1,1462,358,2.52423,6.10567
245,666,4.53345,-1.38205,0,0,0,0,0,0,0,-1,1469,358,4.53349,1.38204
252,666,4.77405,-0.246979,0,0,0,0,0,0,0,-1,1476,358,4.77405,0.246993
259,666,4.83655,1.14087,0,0,0,0,0,0,0,-1,1483,358,4.83652,-1.14087
266,666,6.14148,0.749512,0,0,0,0,0,0,0,-1,1490,358,6.14144,-0.749519
273,666,3.17737,-33.7881,0,0,0,0,0,0,0,-1,1497,358,3.17735,33.7881
280,666,3.37268,-35.2123,0,0,0,0,0,0,0,-1,1504,358,3.37266,35.2123
287,666,-7.06934,-20.3464,0,0,0,0,0,0,0,-1,1511,358,-7.06933,20.3464
294,666,-4.57495,-23.8762,0,0,0,0,0,0,0,-1,1518,358,-4.57492,23.8762
301,666,-6.6886,-23.5144,0,0,0,0,0,0,0,-1,1525,358,-6.68864,23.5144
308,666,-7.45471,-24.766,0,0,0,0,0,0,0,-1,1532,358,-7.45475,24.766
315,666,1.76294,-0.284027,0,0,0,0,0,0,0,-1,1539,358,1.76291,0.284016
322,666,0,0,0,0,0,0,0,0,0,-1,1546,358,0,0
329,666,0,0,0,0,0,0,0,0,0,-1,1553,358,0,0
336,666,0,0,0,0,0,0,0,0,0,-1,1560,358,0,0
343,666,0,0,0,0,0,0,0,0,0,-1,1567,358,0,0
350,666,0,0,0,0,0,0,0,0,0,-1,1574,358,0,0
357,666,0,0,0,0,0,0,0,0,0,-1,1581,358,0,0
364,666,0,0,0,0,0,0,0,0,0,-1,1588,358,0,0
371,666,0,0,0,0,0,0,0,0,0,-1,1595,358,0,0
378,666,0,0,0,0,0,0,0,0,0,-1,1602,358,0,0
385,666,0,0,0,0,0,0,0,0,0,-1,1609,358,0,0
392,666,0,0,0,0,0,0,0,0,0,-1,1616,358,0,0
399,666,0,0,0,0,0,0,0,0,0,-1,1623,358,0,0
406,666,0,0,0,0,0,0,0,0,0,-1,1630,358,0,0
413,666,0,0,0,0,0,0,0,0,0,-1,1637,358,0,0
420,666,0,0,0,0,0,0,0,0,0,-1,1644,358,0,0
427,666,0,0,0,0,0,0,0,0,0,-1,1651,358,0,0
434,666,0,0,0,0,0,0,0,0,0,-1,1658,358,0,0
441,666,0,0,0,0,0,0,0,0,0,-1,1665,358,0,0
448,666,0,0,0,0,0,0,0,0,0,-1,1672,358,0,0
455,666,0,0,0,0,0,0,0,0,0,-1,1679,358,0,0
462,666,0,0,0,0,0,0,0,0,0,-1,1686,358,0,0
469,666,0,0,0,0,0,0,0,0,0,-1,1693,358,0,0
476,666,0,0,0,0,0,0,0,0,0,-1,1700,358,0,0
483,666,0,0,0,0,0,0,0,0,0,-1,1707,358,0,0
490,666,0,0,0,0,0,0,0,0,0,-1,1714,358,0,0
497,666,0,0,0,0,0,0,0,0,0,-1,1721,358,0,0
504,666,0,0,0,0,0,0,0,0,0,-1,1728,358,0,0
511,666,0,0,0,0,0,0,0,0,0,-1,1735,358,0,0
518,666,0,0,0,0,0,0,0,0,0,-1,1742,358,0,0
525,666,0,0,0,0,0,0,0,0,0,-1,1749,358,0,0
532,666,0,0,0,0,0,0,0,0,0,-1,1756,358,0,0
539,666,0,0,0,0,0,0,0,0,0,-1,1763,358,0,0
546,666,0,0,0,0,0,0,0,0,0,-1,1770,358,0,0
553,666,0,0,0,0,0,0,0,0,0,-1,1777,358,0,0
560,666,0,0,0,0,0,0,0,0,0,-1,1784,358,0,0
567,666,0,0,0,0,0,0,0,0,0,-1,1791,358,0,0
574,666,0,0,0,0,0,0,0,0,0,-1,1798,358,0,0
581,666,0,0,0,0,0,0,0,0,0,-1,1805,358,0,0
588,666,0,0,0,0,0,0,0,0,0,-1,1812,358,0,0
595,666,0,0,0,0,0,0,0,0,0,-1,1819,358,0,0
602,666,0,0,0,0,0,0,0,0,0,-1,1826,358,0,0
609,666,0,0,0,0,0,0,0,0,0,-1,1833,358,0,0
616,666,0,0,0,0,0,0,0,0,0,-1,1840,358,0,0
623,666,0,0,0,0,0,0,0,0,0,-1,1847,358,0,0
630,666,0,0,0,0,0,0,0,0,0,-1,1854,358,0,0
637,666,0,0,0,0,0,0,0,0,0,-1,1861,358,0,0
644,666,0,0,0,0,0,0,0,0,0,-1,1868,358,0,0
651,666,0,0,0,0,0,0,0,0,0,-1,1875,358,0,0
658,666,0,0,0,0,0,0,0,0,0,-1,1882,358,0,0
665,666,0,0,0,0,0,0,0,0,0,-1,1889,358,0,0
672,666,0,0,0,0,0,0,0,0,0,-1,1896,358,0,0
679,666,0,0,0,0,0,0,0,0,0,-1,1903,358,0,0
686,666,0,0,0,0,0,0,0,0,0,-1,1910,358,0,0
693,666,0,0,0,0,0,0,0,0,0,-1,1917,358,0,0
700,666,0,0,0,0,0,0,0,0,0,-1,1924,358,0,0
707,666,0,0,0,0,0,0,0,0,0,-1,1931,358,0,0
714,666,0,0,0,0,0,0,0,0,0,-1,1938,358,0,0
721,666,0,0,0,0,0,0,0,0,0,-1,1945,358,0,0
728,666,0,0,0,0,0,0,0,0,0,-1,1952,358,0,0
735,666,0,0,0,0,0,0,0,0,0,-1,1959,358,0,0
742,666,0,0,0,0,0,0,0,0,0,-1,1966,358,0,0
749,666,0,0,0,0,0,0,0,0,0,-1,1973,358,0,0
756,666,0,0,0,0,0,0,0,0,0,-1,1980,358,0,0
763,666,0,0,0,0,0,0,0,0,0,-1,1987,358,0,0
770,666,0,0,0,0,0,0,0,0,0,-1,1994,358,0,0
777,666,0,0,0,0,0,0,0,0,0,-1,2001,358,0,0
784,666,0,0,0,0,0,0,0,0,0,-1,2008,358,0,0
791,666,0,0,0,0,0,0,0,0,0,-1,2015,358,0,0
798,666,0,0,0,0,0,0,0,0,0,-1,2022,358,0,0
805,666,0,0,0,0,0,0,0,0,0,-1,2029,358,0,0
812,666,0,0,0,0,0,0,0,0,0,-1,2036,358,0,0
-700,659,0,0,0,0,0,0,0,0,0,-1,524,365,0,0
-693,659,0,0,0,0,0,0,0,0,0,-1,531,365,0,0
-686,659,0,0,0,0,0,0,0,0,0,-1,538,365,0,0
-679,659,0,0,0,0,0,0,0,0,0,-1,545,365,0,0
-672,659,0,0,0,0,0,0,0,0,0,-1,552,365,0,0
-665,659,0,0,0,0,0,0,0,0,0,-1,559,365,0,0
-658,659,0,0,0,0,0,0,0,0,0,-1,566,365,0,0
-651,659,0,0,0,0,0,0,0,0,0,-1,573,365,0,0
-644,659,0,0,0,0,0,0,0,0,0,-1,580,365,0,0
-637,659,0,0,0,0,0,0,0,0,0,-1,587,365,0,0
-630,659,0,0,0,0,0,0,0,0,0,-1,594,365,0,0
-623,659,0,0,0,0,0,0,0,0,0,-1,601,365,0,0
-616,659,0,0,0,0,0,0,0,0,0,-1,608,365,0,0
-609,659,0,0,0,0,0,0,0,0,0,-1,615,365,0,0
-602,659,0,0,0,0,0,0,0,0,0,-1,622,365,0,0
-595,659,0,0,0,0,0,0,0,0,0,-1,629,365,0,0
-588,659,0,0,0,0,0,0,0,0,0,-1,636,365,0,0
-581,659,0,0,0,0,0,0,0,0,0,-1,643,365,0,0
-574,659,0,0,0,0,0,0,0,0,0,-1,650,365,0,0
-567,659,0,0,0,0,0,0,0,0,0,-1,657,365,0,0
-560,659,0,0,0,0,0,0,0,0,0,-1,664,365,0,0
-553,659,0,0,0,0,0,0,0,0,0,-1,671,365,0,0
-546,659,0,0,0,0,0,0,0,0,0,-1,678,365,0,0
-539,659,0,0,0,0,0,0,0,0,0,-1,685,365,0,0
-532,659,0,0,0,0,0,0,0,0,0,-1,692,365,0,0
-525,659,0,0,0,0,0,0,0,0,0,-1,699,365,0,0
-518,659,0,0,0,0,0,0,0,0,0,-1,706,365,0,0
-511,659,0,0,0,0,0,0,0,0,0,-1,713,365,0,0
-504,659,0,0,0,0,0,0,0,0,0,-1,720,365,0,0
-497,659,0,0,0,0,0,0,0,0,0,-1,727,365,0,0
-490,659,0,0,0,0,0,0,0,0,0,-1,734,365,0,0
-483,659,0,0,0,0,0,0,0,0,0,-1,741,365,0,0
-476,659,0,0,0,0,0,0,0,0,0,-1,748,365,0,0
-469,659,0,0,0,0,0,0,0,0,0,-1,755,365,0,0
-462,659,0,0,0,0,0,0,0,0,0,-1,762,365,0,0
-455,659,0,0,0,0,0,0,0,0,0,-1,769,365,0,0
-448,659,0,0,0,0,0,0,0,0,0,-1,776,365,0,0
-441,659,0,0,0,0,0,0,0,0,0,-1,783,365,0,0
-434,659,0,0,0,0,0,0,0,0,0,-1,790,365,0,0
-427,659,0,0,0,0,0,0,0,0,0,-1,797,365,0,0
-420,659,0,0,0,0,0,0,0,0,0,-1,804,365,0,0
-413,659,0,0,0,0,0,0,0,0,0,-1,811,365,0,0
-406,659,0,0,0,0,0,0,0,0,0,-1,818,365,0,0
-399,659,0,0,0,0,0,0,0,0,0,-1,825,365,0,0
-392,659,0,0,0,0,0,0,0,0,0,-1,832,365,0,0
-385,659,0,0,0,0,0,0,0,0,0,-1,839,365,0,0
-378,659,0,0,0,0,0,0,0,0,0,-1,846,365,0,0
-371,659,0,0,0,0,0,0,0,0,0,-1,853,365,0,0
-364,659,0,0,0,0,0,0,0,0,0,-1,860,365,0,0
-357,659,0,0,0,0,0,0,0,0,0,-1,867,365,0,0
-350,659,0,0,0,0,0,0,0,0,0,-1,874,365,0,0
-343,659,0,0,0,0,0,0,0,0,0,-1,881,365,0,0
-336,659,0,0,0,0,0,0,0,0,0,-1,888,365,0,0
-329,659,0,0,0,0,0,0,0,0,0,-1,895,365,0,0
-322,659,0,0,0,0,0,0,0,0,0,-1,902,365,0,0
-315,659,0,0,0,0,0,0,0,0,0,-1,909,365,0,0
-308,659,0,0,0,0,0,0,0,0,0,-1,916,365,0,0
-301,659,0,0,0,0,0,0,0,0,0,-1,923,365,0,0
-294,659,0,0,0,0,0,0,0,0,0,-1,930,365,0,0
-287,659,0,0,0,0,0,0,0,0,0,-1,937,365,0,0
-280,659,0,0,0,0,0,0,0,0,0,-1,944,365,0,0
-273,659,0,0,0,0,0,0,0,0,0,-1,951,365,0,0
-266,659,0,0,0,0,0,0,0,0,0,-1,958,365,0,0
-259,659,0,0,0,0,0,0,0,0,0,-1,965,365,0,0
-252,659,0,0,0,0,0,0,0,0,0,-1,972,365,0,0
-245,659,0,0,0,0,0,0,0,0,0,-1,979,365,0,0
-238,659,0,0,0,0,0,0,0,0,0,-1,986,365,0,0
-231,659,0,0,0,0,0,0,0,0,0,-1,993,365,0,0
-224,659,0,0,0,0,0,0,0,0,0,-1,1000,365,0,0
-217,659,10.1305,-25.2622,0,0,0,0,0,0,0,-1,1007,365,10.1305,25.2622
-210,659,9.65643,-25.515,0,0,0,0,0,0,0,-1,1014,365,9.65642,25.515
-203,659,8.58911,-25.7432,0,0,0,0,0,0,0,-1,1021,365,8.58916,25.7432
-196,659,2.68323,-27.8121,0,0,0,0,0,0,0,-1,1028,365,2.6832,27.8121
-189,659,6.88049,-28.9412,0,0,0,0,0,0,0,-1,1035,365,6.88045,28.9412
-182,659,6.94189,-30.6316,0,0,0,0,0,0,0,-1,1042,365,6.94189,30.6316
-175,659,6.948,-32.0092,0,0,0,0,0,0,0,-1,1049,365,6.94798,32.0093
-168,659,7.1416,-32.7405,0,0,0,0,0,0,0,-1,1056,365,7.14157,32.7405
-161,659,7.57361,-33.7099,0,0,0,0,0,0,0,-1,1063,365,7.57355,33.7099
-154,659,7.71448,-34.8995,0,0,0,0,0,0,0,-1,1070,365,7.7145,34.8995
-147,659,5.46606,-37.758,0,0,0,0,0,0,0,-1,1077,365,5.46601,37.758
-140,659,5.7356,-37.755,0,0,0,0,0,0,0,-1,1084,365,5.73562,37.755
-133,659,5.91455,-37.9017,0,0,0,0,0,0,0,-1,1091,365,5.9146,37.9017
-126,659,6.31226,-37.9904,0,0,0,0,0,0,0,-1,1098,365,6.3122,37.9904
-119,659,6.26941,-35.0837,0,0,0,0,0,0,0,-1,1105,365,6.26943,35.0837
-112,659,6.24353,-35.0562,0,0,0,0,0,0,0,-1,1112,365,6.24349,35.0562
-105,659,5.38696,-30.5854,0,0,0,0,0,0,0,-1,1119,365,5.387,30.5854
-98,659,4.68042,-26.2438,0,0,0,0,0,0,0,-1,1126,365,4.68041,26.2438
-91,659,4.20776,-20.8654,0,0,0,0,0,0,0,-1,1133,365,4.20777,20.8654
-84,659,2.8584,-17.8303,0,0,0,0,0,0,0,-1,1140,365,2.85836,17.8303
-77,659,2.80139,-15.3457,0,0,0,0,0,0,0,-1,1147,365,2.80139,15.3457
-70,659,2.9353,-12.7028,0,0,0,0,0,0,0,-1,1154,365,2.93533,12.7028
-63,659,2.11267,-9.7796,0,0,0,0,0,0,0,-1,1161,365,2.11266,9.7796
-56,659,2.11182,-9.91541,0,0,0,0,0,0,0,-1,1168,365,2.11178,9.91541
-49,659,6.82532,-46.4093,0,0,0,0,0,0,0,-1,1175,365,6.82533,46.4093
-42,659,6.81543,-46.6647,0,0,0,0,0,0,0,-1,1182,365,6.81539,46.6647
-35,659,6.71887,-46.9517,0.00294873,0.0292821,-0.0091387,0.0321428,8.8023e-05,-1.26743,0.0213993,0.042617,1189,365,6.71888,46.9517
-28,659,6.71375,-47.1048,0.00441389,0.0312703,-0.00825513,0.0336048,0.00207936,-1.2952,0.0217433,0.0166404,1196,365,6.71373,47.1048
-21,659,6.64526,-47.3464,0.0052285,0.0329287,-0.00730128,0.0347354,0.00342185,-1.32823,0.0221048,0.0131702,1203,365,6.64523,47.3464
-14,659,6.5564,-47.5705,0.00625115,0.0339477,-0.00617721,0.035263,0.00493589,-1.36101,0.0220483,0.0111582,1210,365,6.55634,47.5705
-7,659,6.50049,-47.7375,0.00666065,0.0351207,-0.00517271,0.0360317,0.00574966,-1.39647,0.0223525,0.0111896,1217,365,6.50044,47.7375
0,659,6.46216,-47.8879,0.00672054,0.0361419,-0.00429309,0.0367555,0.0061069,-1.42882,0.022743,0.0100735,1224,365,6.46221,47.8879
7,659,6.4165,-48.0106,0.00652413,0.0370072,-0.00365907,0.0374403,0.00609106,-1.45299,0.0231979,0.00964884,1231,365,6.41655,48.0106
14,659,6.35828,-48.0897,0.00604221,0.0367073,-0.00308754,0.0370151,0.00573443,-1.47144,0.0230047,0.0115245,1238,365,6.35823,48.0897
21,659,6.31165,-48.205,0.00535583,0.0356735,-0.00277313,0.0359251,0.00510426,-1.48033,0.022443,0.011962,1245,365,6.3117,48.205
28,659,6.2439,-48.3169,0.00494122,0.0340812,-0.00225338,0.0342544,0.00476799,-1.49407,0.0214246,0.011546,1252,365,6.24384,48.3169
35,659,6.20984,-48.4099,0.00445559,0.0322874,-0.0014523,0.032363,0.00438001,-1.5188,0.0202737,0.0126751,1259,365,6.20988,48.4099
42,659,6.16772,-48.4832,0.00342569,0.0305033,-2.36063e-05,0.0305033,0.00342567,-1.56992,0.0192953,0.0139587,1266,365,6.16776,48.4832
49,659,6.09302,-48.5306,0.00253197,0.0286547,0.00112719,0.0287033,0.00248343,1.52775,0.0183638,0.0146825,1273,365,6.09306,48.5306
56,659,6.04846,-48.5473,0.0019174,0.0266866,0.00207433,0.0268591,0.00174488,1.48782,0.0173537,0.0184138,1280,365,6.04845,48.5473
63,659,6.05481,-48.5962,0.000522444,0.0248184,0.00340041,0.0252854,5.55031e-05,1.43433,0.0168384,0.0179888,1287,365,6.05483,48.5962
70,659,5.98303,-48.5922,-0.00122941,0.0229651,0.00567665,0.0242308,-0.00249509,1.35142,0.0170465,0.018475,1294,365,5.98306,48.5922
77,659,5.85449,-48.5247,-0.00342615,0.0217227,0.00889744,0.0245522,-0.00625565,1.2629,0.0188034,0.0179162,1301,365,5.85446,48.5247
84,659,5.83813,-48.5089,-0.0051381,0.0254884,0.0105775,0.0287864,-0.0084361,1.26855,0.0225356,0.0127113,1308,365,5.83809,48.5088
91,659,5.78748,-48.4547,-0.0073229,0.0305732,0.0116258,0.0338555,-0.0106052,1.29563,0.0268138,0.0112286,1315,365,5.78742,48.4547
98,659,5.72498,-48.3593,-0.0093291,0.0348637,0.0129816,0.0383949,-0.0128603,1.30521,0.030792,0.00853532,1322,365,5.72499,48.3594
105,659,5.67627,-48.2151,-0.0113277,0.0400417,0.0138687,0.0435468,-0.0148328,1.32325,0.0350381,0.0106116,1329,365,5.6763,48.2151
112,659,5.64233,-48.0685,-0.0132904,0.0457225,0.0142526,0.0489844,-0.0165523,1.3458,0.0393517,0.0157032,1336,365,5.64228,48.0685
119,659,5.59119,-47.9154,-0.0151172,0.0522491,0.0140035,0.055044,-0.0179122,1.3738,0.0439022,0.0175916,1343,365,5.59122,47.9154
126,659,5.52234,-47.7144,-0.0163484,0.0585748,0.013184,0.060827,-0.0186006,1.4016,0.0479691,0.0158577,1350,365,5.5223,47.7144
133,659,5.43909,-47.5323,-0.0173375,0.064014,0.0117189,0.0656685,-0.018992,1.43054,0.0512954,0.0145348,1357,365,5.43908,47.5323
140,659,5.37488,-47.4029,-0.0173424,0.0679124,0.010014,0.0690729,-0.0185028,1.45543,0.0532977,0.011385,1364,365,5.37491,47.4029
147,659,5.33447,-47.2063,-0.0161986,0.0698642,0.00834008,0.070665,-0.0169993,1.47508,0.0536813,0.0101642,1371,365,5.33442,47.2063
154,659,5.26978,-46.9444,-0.0151253,0.0702391,0.00743264,0.0708815,-0.0157677,1.48459,0.0532935,0.0116248,1378,365,5.26982,46.9444
161,659,5.21729,-46.6676,-0.0141699,0.0691983,0.0070918,0.0697973,-0.0147689,1.48654,0.0521562,0.0134546,1385,365,5.21727,46.6676
168,659,5.18652,-46.3797,-0.0131838,0.0671114,0.00685109,0.0676918,-0.0137641,1.48629,0.050347,0.0193928,1392,365,5.18653,46.3797
175,659,5.16284,-46.1279,-0.01174,0.0656413,0.00574458,0.0660654,-0.0121641,1.4971,0.0486083,0.0424012,1399,365,5.16281,46.1279
182,659,5.02209,-45.9241,0,0,0,0,0,0,0,-1,1406,365,5.02209,45.9241
189,659,5.05139,-45.3593,0,0,0,0,0,0,0,-1,1413,365,5.05135,45.3593
196,659,2.41248,-13.4371,0,0,0,0,0,0,0,-1,1420,365,2.41243,13.4371
203,659,2.38623,-12.2163,0,0,0,0,0,0,0,-1,1427,365,2.38617,12.2163
210,659,2.20789,-13.9792,0,0,0,0,0,0,0,-1,1434,365,2.20794,13.9792
217,659,2.24121,-13.487,0,0,0,0,0,0,0,-1,1441,365,2.24116,13.487
224,659,2.3479,-15.2926,0,0,0,0,0,0,0,-1,1448,365,2.34793,15.2926
231,659,2.47974,-17.8629,0,0,0,0,0,0,0,-1,1455,365,2.47976,17.8628
238,659,3.57886,-21.1258,0,0,0,0,0,0,0,-1,1462,365,3.57889,21.1258
245,659,3.29883,-25.0283,0,0,0,0,0,0,0,-1,1469,365,3.29889,25.0283
252,659,2.81909,-24.1604,0,0,0,0,0,0,0,-1,1476,365,2.81905,24.1604
259,659,2.33069,-3.36703,0,0,0,0,0,0,0,-1,1483,365,2.33073,3.36702
266,659,3.40918,-35.2544,0,0,0,0,0,0,0,-1,1490,365,3.40913,35.2544
273,659,3.66003,-40.9905,0,0,0,0,0,0,0,-1,1497,365,3.66009,40.9905
280,659,4.23462,-40.0967,0,0,0,0,0,0,0,-1,1504,365,4.23456,40.0967
287,659,-1.06335,-22.7338,0,0,0,0,0,0,0,-1,1511,365,-1.06338,22.7338
294,659,-2.46082,-23.037,0,0,0,0,0,0,0,-1,1518,365,-2.46085,23.037
301,659,-3.96582,-23.0035,0,0,0,0,0,0,0,-1,1525,365,-3.9658,23.0035
308,659,-6.26318,-23.3052,0,0,0,0,0,0,0,-1,1532,365,-6.2632,23.3052
315,659,-8.19324,-23.4192,0,0,0,0,0,0,0,-1,1539,365,-8.19327,23.4192
322,659,-4.974,-25.1078,0,0,0,0,0,0,0,-1,1546,365,-4.97395,25.1078
329,659,-7.67749,-23.0449,0,0,0,0,0,0,0,-1,1553,365,-7.67745,23.0449
336,659,-7.71436,-22.4188,0,0,0,0,0,0,0,-1,1560,365,-7.71432,22.4188
343,659,0,0,0,0,0,0,0,0,0,-1,1567,365,0,0
350,659,0,0,0,0,0,0,0,0,0,-1,1574,365,0,0
357,659,0,0,0,0,0,0,0,0,0,-1,1581,365,0,0
364,659,0,0,0,0,0,0,0,0,0,-1,1588,365,0,0
371,659,0,0,0,0,0,0,0,0,0,-1,1595,365,0,0
378,659,0,0,0,0,0,0,0,0,0,-1,1602,365,0,0
385,659,0,0,0,0,0,0,0,0,0,-1,1609,365,0,0
392,659,0,0,0,0,0,0,0,0,0,-1,1616,365,0,0
399,659,0,0,0,0,0,0,0,0,0,-1,1623,365,0,0
406,659,0,0,0,0,0,0,0,0,0,-1,1630,365,0,0
413,659,0,0,0,0,0,0,0,0,0,-1,1637,365,0,0
420,659,0,0,0,0,0,0,0,0,0,-1,1644,365,0,0
427,659,0,0,0,0,0,0,0,0,0,-1,1651,365,0,0
434,659,0,0,0,0,0,0,0,0,0,-1,1658,365,0,0
441,659,0,0,0,0,0,0,0,0,0,-1,1665,365,0,0
448,659,0,0,0,0,0,0,0,0,0,-1,1672,365,0,0
455,659,0,0,0,0,0,0,0,0,0,-1,1679,365,0,0
462,659,0,0,0,0,0,0,0,0,0,-1,1686,365,0,0
469,659,0,0,0,0,0,0,0,0,0,-1,1693,365,0,0
476,659,0,0,0,0,0,0,0,0,0,-1,1700,365,0,0
483,659,0,0,0,0,0,0,0,0,0,-1,1707,365,0,0
490,659,0,0,0,0,0,0,0,0,0,-1,1714,365,0,0
497,659,0,0,0,0,0,0,0,0,0,-1,1721,365,0,0
504,659,0,0,0,0,0,0,0,0,0,-1,1728,365,0,0
511,659,0,0,0,0,0,0,0,0,0,-1,1735,365,0,0
518,659,0,0,0,0,0,0,0,0,0,-1,1742,365,0,0
525,659,0,0,0,0,0,0,0,0,0,-1,1749,365,0,0
532,659,0,0,0,0,0,0,0,0,0,-1,1756,365,0,0
539,659,0,0,0,0,0,0,0,0,0,-1,1763,365,0,0
546,659,0,0,0,0,0,0,0,0,0,-1,1770,365,0,0
553,659,0,0,0,0,0,0,0,0,0,-1,1777,365,0,0
560,659,0,0,0,0,0,0,0,0,0,-1,1784,365,0,0
567,659,0,0,0,0,0,0,0,0,0,-1,1791,365,0,0
574,659,0,0,0,0,0,0,0,0,0,-1,1798,365,0,0
581,659,0,0,0,0,0,0,0,0,0,-1,1805,365,0,0
588,659,0,0,0,0,0,0,0,0,0,-1,1812,365,0,0
595,659,0,0,0,0,0,0,0,0,0,-1,1819,365,0,0
602,659,0,0,0,0,0,0,0,0,0,-1,1826,365,0,0
609,659,0,0,0,0,0,0,0,0,0,-1,1833,365,0,0
616,659,0,0,0,0,0,0,0,0,0,-1,1840,365,0,0
623,659,0,0,0,0,0,0,0,0,0,-1,1847,365,0,0
630,659,0,0,0,0,0,0,0,0,0,-1,1854,365,0,0
637,659,0,0,0,0,0,0,0,0,0,-1,1861,365,0,0
644,659,0,0,0,0,0,0,0,0,0,-1,1868,365,0,0
651,659,0,0,0,0,0,0,0,0,0,-1,1875,365,0,0
658,659,0,0,0,0,0,0,0,0,0,-1,1882,365,0,0
665,659,0,0,0,0,0,0,0,0,0,-1,1889,365,0,0
672,659,0,0,0,0,0,0,0,0,0,-1,1896,365,0,0
679,659,0,0,0,0,0,0,0,0,0,-1,1903,365,0,0
686,659,0,0,0,0,0,0,0,0,0,-1,1910,365,0,0
693,659,0,0,0,0,0,0,0,0,0,-1,1917,365,0,0
700,659,0,0,0,0,0,0,0,0,0,-1,1924,365,0,0
707,659,0,0,0,0,0,0,0,0,0,-1,1931,365,0,0
714,659,0,0,0,0,0,0,0,0,0,-1,1938,365,0,0
721,659,0,0,0,0,0,0,0,0,0,-1,1945,365,0,0
728,659,0,0,0,0,0,0,0,0,0,-1,1952,365,0,0
735,659,0,0,0,0,0,0,0,0,0,-1,1959,365,0,0
742,659,0,0,0,0,0,0,0,0,0,-1,1966,365,0,0
749,659,0,0,0,0,0,0,0,0,0,-1,1973,365,0,0
756,659,0,0,0,0,0,0,0,0,0,-1,1980,365,0,0
763,659,0,0,0,0,0,0,0,0,0,-1,1987,365,0,0
770,659,0,0,0,0,0,0,0,0,0,-1,1994,365,0,0
777,659,0,0,0,0,0,0,0,0,0,-1,2001,365,0,0
784,659,0,0,0,0,0,0,0,0,0,-1,2008,365,0,0
791,659,0,0,0,0,0,0,0,0,0,-1,2015,365,0,0
798,659,0,0,0,0,0,0,0,0,0,-1,2022,365,0,0
805,659,0,0,0,0,0,0,0,0,0,-1,2029,365,0,0
812,659,0,0,0,0,0,0,0,0,0,-1,2036,365,0,0
-700,652,0,0,0,0,0,0,0,0,0,-1,524,372,0,0
-693,652,0,0,0,0,0,0,0,0,0,-1,531,372,0,0
-686,652,0,0,0,0,0,0,0,0,0,-1,538,372,0,0
-679,652,0,0,0,0,0,0,0,0,0,-1,545,372,0,0
-672,652,0,0,0,0,0,0,0,0,0,-1,552,372,0,0
-665,652,0,0,0,0,0,0,0,0,0,-1,559,372,0,0
-658,652,0,0,0,0,0,0,0,0,0,-1,566,372,0,0
-651,652,0,0,0,0,0,0,0,0,0,-1,573,372,0,0
-644,652,0,0,0,0,0,0,0,0,0,-1,580,372,0,0
-637,652,0,0,0,0,0,0,0,0,0,-1,587,372,0,0
-630,652,0,0,0,0,0,0,0,0,0,-1,594,372,0,0
-623,652,0,0,0,0,0,0,0,0,0,-1,601,372,0,0
-616,652,0,0,0,0,0,0,0,0,0,-1,608,372,0,0
-609,652,0,0,0,0,0,0,0,0,0,-1,615,372,0,0
-602,652,0,0,0,0,0,0,0,0,0,-1,622,372,0,0
-595,652,0,0,0,0,0,0,0,0,0,-1,629,372,0,0
-588,652,0,0,0,0,0,0,0,0,0,-1,636,372,0,0
-581,652,0,0,0,0,0,0,0,0,0,-1,643,372,0,0
-574,652,0,0,0,0,0,0,0,0,0,-1,650,372,0,0
-567,652,0,0,0,0,0,0,0,0,0,-1,657,372,0,0
-560,652,0,0,0,0,0,0,0,0,0,-1,664,372,0,0
-553,652,0,0,0,0,0,0,0,0,0,-1,671,372,0,0
-546,652,0,0,0,0,0,0,0,0,0,-1,678,372,0,0
-539,652,0,0,0,0,0,0,0,0,0,-1,685,372,0,0
-532,652,0,0,0,0,0,0,0,0,0,-1,692,372,0,0
-525,652,0,0,0,0,0,0,0,0,0,-1,699,372,0,0
-518,652,0,0,0,0,0,0,0,0,0,-1,706,372,0,0
-511,652,0,0,0,0,0,0,0,0,0,-1,713,372,0,0
-504,652,0,0,0,0,0,0,0,0,0,-1,720,372,0,0
-497,652,0,0,0,0,0,0,0,0,0,-1,727,372,0,0
-490,652,0,0,0,0,0,0,0,0,0,-1,734,372,0,0
-483,652,0,0,0,0,0,0,0,0,0,-1,741,372,0,0
-476,652,0,0,0,0,0,0,0,0,0,-1,748,372,0,0
-469,652,0,0,0,0,0,0,0,0,0,-1,755,372,0,0
-462,652,0,0,0,0,0,0,0,0,0,-1,762,372,0,0
-455,652,0,0,0,0,0,0,0,0,0,-1,769,372,0,0
-448,652,0,0,0,0,0,0,0,0,0,-1,776,372,0,0
-441,652,0,0,0,0,0,0,0,0,0,-1,783,372,0,0
-434,652,0,0,0,0,0,0,0,0,0,-1,790,372,0,0
-427,652,0,0,0,0,0,0,0,0,0,-1,797,372,0,0
-420,652,0,0,0,0,0,0,0,0,0,-1,804,372,0,0
-413,652,0,0,0,0,0,0,0,0,0,-1,811,372,0,0
-406,652,0,0,0,0,0,0,0,0,0,-1,818,372,0,0
-399,652,0,0,0,0,0,0,0,0,0,-1,825,372,0,0
-392,652,0,0,0,0,0,0,0,0,0,-1,832,372,0,0
-385,652,0,0,0,0,0,0,0,0,0,-1,839,372,0,0
-378,652,0,0,0,0,0,0,0,0,0,-1,846,372,0,0
-371,652,0,0,0,0,0,0,0,0,0,-1,853,372,0,0
-364,652,0,0,0,0,0,0,0,0,0,-1,860,372,0,0
-357,652,0,0,0,0,0,0,0,0,0,-1,867,372,0,0
-350,652,0,0,0,0,0,0,0,0,0,-1,874,372,0,0
-343,652,0,0,0,0,0,0,0,0,0,-1,881,372,0,0
-336,652,0,0,0,0,0,0,0,0,0,-1,888,372,0,0
-329,652,0,0,0,0,0,0,0,0,0,-1,895,372,0,0
-322,652,0,0,0,0,0,0,0,0,0,-1,902,372,0,0
-315,652,0,0,0,0,0,0,0,0,0,-1,909,372,0,0
-308,652,0,0,0,0,0,0,0,0,0,-1,916,372,0,0
-301,652,0,0,0,0,0,0,0,0,0,-1,923,372,0,0
-294,652,0,0,0,0,0,0,0,0,0,-1,930,372,0,0
-287,652,0,0,0,0,0,0,0,0,0,-1,937,372,0,0
-280,652,0,0,0,0,0,0,0,0,0,-1,944,372,0,0
-273,652,0,0,0,0,0,0,0,0,0,-1,951,372,0,0
-266,652,0,0,0,0,0,0,0,0,0,-1,958,372,0,0
-259,652,0,0,0,0,0,0,0,0,0,-1,965,372,0,0
-252,652,0,0,0,0,0,0,0,0,0,-1,972,372,0,0
-245,652,0,0,0,0,0,0,0,0,0,-1,979,372,0,0
-238,652,0,0,0,0,0,0,0,0,0,-1,986,372,0,0
-231,652,8.79358,-27.1656,0,0,0,0,0,0,0,-1,993,372,8.79357,27.1656
-224,652,8.84552,-27.675,0,0,0,0,0,0,0,-1,1000,372,8.84555,27.675
-217,652,9.03113,-27.7474,0,0,0,0,0,0,0,-1,1007,372,9.0311,27.7474
-210,652,9.72803,-30.4624,0,0,0,0,0,0,0,-1,1014,372,9.72805,30.4624
-203,652,7.2677,-26.0732,0,0,0,0,0,0,0,-1,1021,372,7.26775,26.0732
-196,652,5.90686,-26.957,0,0,0,0,0,0,0,-1,1028,372,5.9068,26.957
-189,652,6.21326,-28.3035,0,0,0,0,0,0,0,-1,1035,372,6.21331,28.3035
-182,652,6.45068,-29.9377,0,0,0,0,0,0,0,-1,1042,372,6.45074,29.9377
-175,652,6.72559,-31.6948,0,0,0,0,0,0,0,-1,1049,372,6.72563,31.6948
-168,652,7.08533,-32.8669,0,0,0,0,0,0,0,-1,1056,372,7.08532,32.8669
-161,652,7.85291,-37.3545,0,0,0,0,0,0,0,-1,1063,372,7.85294,37.3545
-154,652,7.54639,-37.9586,0,0,0,0,0,0,0,-1,1070,372,7.54642,37.9586
-147,652,7.27979,-38.7013,0,0,0,0,0,0,0,-1,1077,372,7.27981,38.7013
-140,652,5.6842,-33.9781,0,0,0,0,0,0,0,-1,1084,372,5.68421,33.9781
-133,652,6.3009,-35.2887,0,0,0,0,0,0,0,-1,1091,372,6.30093,35.2887
-126,652,5.86841,-37.0981,0,0,0,0,0,0,0,-1,1098,372,5.86845,37.0981
-119,652,7.25085,-42.442,0,0,0,0,0,0,0,-1,1105,372,7.2509,42.4419
-112,652,7.08337,-42.8657,0,0,0,0,0,0,0,-1,1112,372,7.08336,42.8657
-105,652,6.63855,-39.9965,0,0,0,0,0,0,0,-1,1119,372,6.63852,39.9965
-98,652,5.84302,-35.2455,0,0,0,0,0,0,0,-1,1126,372,5.84307,35.2455
-91,652,5.66296,-32.9003,0,0,0,0,0,0,0,-1,1133,372,5.66297,32.9003
-84,652,5.46057,-34.9186,0,0,0,0,0,0,0,-1,1140,372,5.46057,34.9186
-77,652,6.83594,-45.019,0,0,0,0,0,0,0,-1,1147,372,6.83592,45.019
-70,652,6.80933,-45.4994,0,0,0,0,0,0,0,-1,1154,372,6.80928,45.4994
-63,652,6.76306,-45.8008,0,0,0,0,0,0,0,-1,1161,372,6.76306,45.8008
-56,652,6.65955,-46.1396,0,0,0,0,0,0,0,-1,1168,372,6.65961,46.1397
-49,652,6.65344,-46.4441,-0.00357314,0.0161415,-0.00673393,0.0182221,-0.00565368,-1.27114,0.0144072,0.0379864,1175,372,6.65346,46.4441
-42,652,6.57275,-46.6492,-0.00152483,0.0181014,-0.00643224,0.0200216,-0.00344504,-1.28069,0.0146319,0.0126236,1182,372,6.57271,46.6492
-35,652,6.54504,-46.8993,9.9773e-05,0.0198734,-0.0060739,0.0215901,-0.00161692,-1.29535,0.0149615,0.0101046,1189,372,6.5451,46.8993
-28,652,6.49756,-47.1433,0.00127508,0.0213758,-0.00556362,0.022813,-0.000162101,-1.31801,0.015263,0.00811451,1196,372,6.49755,47.1433
-21,652,6.43262,-47.3957,0.00203381,0.0226905,-0.00497052,0.0238243,0.000900013,-1.34653,0.0155915,0.00826587,1203,372,6.43265,47.3957
-14,652,6.39673,-47.5983,0.00281814,0.0235606,-0.00431212,0.0244213,0.00195741,-1.37378,0.0156692,0.0106421,1210,372,6.39675,47.5983
-7,652,6.35034,-47.7783,0.00324948,0.0244587,-0.00372659,0.0250944,0.00261375,-1.40183,0.01593,0.0138215,1217,372,6.35037,47.7783
0,652,6.31458,-47.926,0.00342427,0.0252069,-0.00321438,0.0256713,0.00295984,-1.4273,0.0162179,0.0139645,1224,372,6.3146,47.926
7,652,6.29675,-48.0091,0.00340884,0.0258537,-0.00284467,0.0262086,0.00305392,-1.44667,0.0165486,0.0145459,1231,372,6.29672,48.0091
14,652,6.2688,-48.1559,0.00319547,0.0258108,-0.00252703,0.0260897,0.00291654,-1.46086,0.0165071,0.0117411,1238,372,6.26886,48.1559
21,652,6.21228,-48.2834,0.00279771,0.0252773,-0.00236235,0.0255229,0.00255213,-1.46722,0.0162316,0.0112617,1245,372,6.21228,48.2834
28,652,6.17651,-48.4138,0.00257375,0.0243912,-0.00206596,0.0245851,0.00237984,-1.47721,0.0156572,0.0107036,1252,372,6.17654,48.4138
35,652,6.14099,-48.4872,0.0022754,0.0235022,-0.00149133,0.0236064,0.00217114,-1.501,0.0150662,0.010651,1259,372,6.14096,48.4872
42,652,6.09045,-48.543,0.00155597,0.0224961,-0.000479174,0.0225071,0.00154501,-1.54793,0.0145172,0.0116403,1266,372,6.09048,48.543
49,652,6.08875,-48.586,0.000930251,0.0215046,0.000340457,0.0215102,0.000924619,1.55425,0.0140421,0.0142249,1273,372,6.08871,48.586
56,652,6.07825,-48.6027,0.000520321,0.0204619,0.00101016,0.0205129,0.00046928,1.52031,0.0135216,0.0163816,1280,372,6.07821,48.6027
63,652,6.03772,-48.6529,-0.000455153,0.0194764,0.00194923,0.0196653,-0.00064399,1.47422,0.01333,0.0209704,1287,372,6.03776,48.6529
70,652,5.97449,-48.621,-0.00159095,0.0184643,0.00344348,0.019039,-0.00216572,1.4054,0.0134728,0.01885,1294,372,5.97453,48.621
77,652,5.90186,-48.5721,-0.00296465,0.0178477,0.00545975,0.019193,-0.00430996,1.3292,0.0144479,0.0164986,1301,372,5.90188,48.572
84,652,5.88794,-48.5663,-0.00387221,0.0197741,0.00616007,0.0212826,-0.00538073,1.33064,0.0162811,0.0132947,1308,372,5.88791,48.5663
91,652,5.8418,-48.5525,-0.00507974,0.023101,0.00648044,0.0245198,-0.00649855,1.35526,0.0188891,0.0160998,1315,372,5.84179,48.5525
98,652,5.82019,-48.4355,-0.00629458,0.0256638,0.00713342,0.0271838,-0.00781454,1.36086,0.0212127,0.0133652,1322,372,5.82018,48.4355
105,652,5.77185,-48.2928,-0.0074553,0.0288284,0.00742265,0.0302882,-0.00891504,1.37661,0.0237288,0.0122592,1329,372,5.7718,48.2928
112,652,5.73181,-48.1522,-0.00856299,0.0323593,0.00730968,0.0336258,-0.00982948,1.39924,0.026313,0.010485,1336,372,5.73181,48.1522
119,652,5.71692,-47.9956,-0.00956666,0.0363665,0.00675545,0.0373394,-0.0105396,1.42776,0.0290506,0.0111173,1343,372,5.71697,47.9956
126,652,5.66785,-47.8102,-0.0101584,0.0402677,0.00584555,0.0409364,-0.0108272,1.45689,0.031526,0.0137974,1350,372,5.66784,47.8101
133,652,5.62195,-47.6495,-0.0106608,0.0435619,0.0046269,0.0439539,-0.0110528,1.48628,0.0335984,0.0138877,1357,372,5.62197,47.6496
140,652,5.57117,-47.4807,-0.010556,0.0456759,0.00331461,0.0458706,-0.0107507,1.51212,0.0347232,0.0103691,1364,372,5.57122,47.4807
147,652,5.53577,-47.2545,-0.00981014,0.0467661,0.00224262,0.0468548,-0.0098989,1.53124,0.0350059,0.00973385,1371,372,5.53582,47.2545
154,652,5.48828,-47.0187,-0.00915503,0.0467825,0.00184029,0.0468429,-0.00921551,1.53794,0.0347107,0.0099468,1378,372,5.48823,47.0187
161,652,5.43762,-46.7515,-0.00861198,0.0458709,0.00196174,0.0459415,-0.00868252,1.53485,0.0338946,0.0117368,1385,372,5.43766,46.7515
168,652,5.40771,-46.4721,-0.00800995,0.0440573,0.00214002,0.0441451,-0.00809776,1.52979,0.0324677,0.0129729,1392,372,5.40774,46.4721
175,652,5.36279,-46.1872,-0.00730854,0.042233,0.00201327,0.0423146,-0.00739022,1.53025,0.0309685,0.0127928,1399,372,5.36283,46.1872
182,652,5.30322,-45.9121,-0.00617893,0.0404286,0.00117355,0.0404581,-0.00620846,1.54564,0.0292619,0.0183918,1406,372,5.30328,45.9121
189,652,5.30249,-45.5901,-0.00582306,0.0331218,0.00302083,0.0333547,-0.00605598,1.49384,0.0245058,0.0310554,1413,372,5.30253,45.5901
196,652,5.25574,-45.2123,0,0,0,0,0,0,0,-1,1420,372,5.2557,45.2123
203,652,5.16907,-44.88,0,0,0,0,0,0,0,-1,1427,372,5.16901,44.88
210,652,5.21399,-44.3834,0,0,0,0,0,0,0,-1,1434,372,5.21401,44.3834
217,652,4.89636,-43.0341,0,0,0,0,0,0,0,-1,1441,372,4.89634,43.034
224,652,3.63794,-31.2791,0,0,0,0,0,0,0,-1,1448,372,3.63799,31.2791
231,652,3.83936,-30.4812,0,0,0,0,0,0,0,-1,1455,372,3.8393,30.4812
238,652,4.42358,-36.4103,0,0,0,0,0,0,0,-1,1462,372,4.4236,36.4103
245,652,4.53296,-41.8512,0,0,0,0,0,0,0,-1,1469,372,4.5329,41.8512
252,652,4.81091,-41.8311,0,0,0,0,0,0,0,-1,1476,372,4.81087,41.8311
259,652,3.44922,-31.2655,0,0,0,0,0,0,0,-1,1483,372,3.44921,31.2655
266,652,4.27625,-40.5056,0,0,0,0,0,0,0,-1,1490,372,4.2763,40.5056
273,652,4.31567,-40.6263,0.0268059,0.0224536,0.0105275,0.0353798,0.0138796,0.683478,0.0205839,0.0475895,1497,372,4.31562,40.6263
280,652,4.72083,-39.973,0.0295017,0.0250746,0.0123427,0.0398278,0.0147485,0.696673,0.023251,0.0473057,1504,372,4.72081,39.973
287,652,4.88867,-39.5259,0,0,0,0,0,0,0,-1,1511,372,4.88864,39.5259
294,652,0.238281,-22.1451,0,0,0,0,0,0,0,-1,1518,372,0.238231,22.145
301,652,-1.60193,-22.565,0,0,0,0,0,0,0,-1,1525,372,-1.60198,22.565
308,652,-3.44214,-22.9849,0,0,0,0,0,0,0,-1,1532,372,-3.44219,22.9849
315,652,-5.7417,-22.7347,0,0,0,0,0,0,0,-1,1539,372,-5.74165,22.7347
322,652,-7.62073,-22.8327,0,0,0,0,0,0,0,-1,1546,372,-7.62075,22.8327
329,652,-3.75989,-24.8717,0,0,0,0,0,0,0,-1,1553,372,-3.75992,24.8717
336,652,-3.56519,-22.3688,0,0,0,0,0,0,0,-1,1560,372,-3.56517,22.3688
343,652,-3.58069,-21.9185,0,0,0,0,0,0,0,-1,1567,372,-3.58069,21.9185
350,652,5.28394,-25.6715,0,0,0,0,0,0,0,-1,1574,372,5.28393,25.6715
357,652,0,0,0,0,0,0,0,0,0,-1,1581,372,0,0
364,652,0,0,0,0,0,0,0,0,0,-1,1588,372,0,0
371,652,0,0,0,0,0,0,0,0,0,-1,1595,372,0,0
378,652,0,0,0,0,0,0,0,0,0,-1,1602,372,0,0
385,652,0,0,0,0,0,0,0,0,0,-1,1609,372,0,0
392,652,0,0,0,0,0,0,0,0,0,-1,1616,372,0,0
399,652,0,0,0,0,0,0,0,0,0,-1,1623,372,0,0
406,652,0,0,0,0,0,0,0,0,0,-1,1630,372,0,0
413,652,0,0,0,0,0,0,0,0,0,-1,1637,372,0,0
420,652,0,0,0,0,0,0,0,0,0,-1,1644,372,0,0
427,652,0,0,0,0,0,0,0,0,0,-1,1651,372,0,0
434,652,0,0,0,0,0,0,0,0,0,-1,1658,372,0,0
441,652,0,0,0,0,0,0,0,0,0,-1,1665,372,0,0
448,652,0,0,0,0,0,0,0,0,0,-1,1672,372,0,0
455,652,0,0,0,0,0,0,0,0,0,-1,1679,372,0,0
462,652,0,0,0,0,0,0,0,0,0,-1,1686,372,0,0
469,652,0,0,0,0,0,0,0,0,0,-1,1693,372,0,0
476,652,0,0,0,0,0,0,0,0,0,-1,1700,372,0,0
483,652,0,0,0,0,0,0,0,0,0,-1,1707,372,0,0
490,652,0,0,0,0,0,0,0,0,0,-1,1714,372,0,0
497,652,0,0,0,0,0,0,0,0,0,-1,1721,372,0,0
504,652,0,0,0,0,0,0,0,0,0,-1,1728,372,0,0
511,652,0,0,0,0,0,0,0,0,0,-1,1735,372,0,0
518,652,0,0,0,0,0,0,0,0,0,-1,1742,372,0,0
525,652,0,0,0,0,0,0,0,0,0,-1,1749,372,0,0
532,652,0,0,0,0,0,0,0,0,0,-1,1756,372,0,0
539,652,0,0,0,0,0,0,0,0,0,-1,1763,372,0,0
546,652,0,0,0,0,0,0,0,0,0,-1,1770,372,0,0
553,652,0,0,0,0,0,0,0,0,0,-1,1777,372,0,0
560,652,0,0,0,0,0,0,0,0,0,-1,1784,372,0,0
567,652,0,0,0,0,0,0,0,0,0,-1,1791,372,0,0
574,652,0,0,0,0,0,0,0,0,0,-1,1798,372,0,0
581,652,0,0,0,0,0,0,0,0,0,-1,1805,372,0,0
588,652,0,0,0,0,0,0,0,0,0,-1,1812,372,0,0
595,652,0,0,0,0,0,0,0,0,0,-1,1819,372,0,0
602,652,0,0,0,0,0,0,0,0,0,-1,1826,372,0,0
609,652,0,0,0,0,0,0,0,0,0,-1,1833,372,0,0
616,652,0,0,0,0,0,0,0,0,0,-1,1840,372,0,0
623,652,0,0,0,0,0,0,0,0,0,-1,1847,372,0,0
630,652,0,0,0,0,0,0,0,0,0,-1,1854,372,0,0
637,652,0,0,0,0,0,0,0,0,0,-1,1861,372,0,0
644,652,0,0,0,0,0,0,0,0,0,-1,1868,372,0,0
651,652,0,0,0,0,0,0,0,0,0,-1,1875,372,0,0
658,652,0,0,0,0,0,0,0,0,0,-1,1882,372,0,0
665,652,0,0,0,0,0,0,0,0,0,-1,1889,372,0,0
672,652,0,0,0,0,0,0,0,0,0,-1,1896,372,0,0
679,652,0,0,0,0,0,0,0,0,0,-1,1903,372,0,0
686,652,0,0,0,0,0,0,0,0,0,-1,1910,372,0,0
693,652,0,0,0,0,0,0,0,0,0,-1,1917,372,0,0
700,652,0,0,0,0,0,0,0,0,0,-1,1924,372,0,0
707,652,0,0,0,0,0,0,0,0,0,-1,1931,372,0,0
714,652,0,0,0,0,0,0,0,0,0,-1,1938,372,0,0
721,652,0,0,0,0,0,0,0,0,0,-1,1945,372,0,0
728,652,0,0,0,0,0,0,0,0,0,-1,1952,372,0,0
735,652,0,0,0,0,0,0,0,0,0,-1,1959,372,0,0
742,652,0,0,0,0,0,0,0,0,0,-1,1966,372,0,0
749,652,0,0,0,0,0,0,0,0,0,-1,1973,372,0,0
756,652,0,0,0,0,0,0,0,0,0,-1,1980,372,0,0
763,652,0,0,0,0,0,0,0,0,0,-1,1987,372,0,0
770,652,0,0,0,0,0,0,0,0,0,-1,1994,372,0,0
777,652,0,0,0,0,0,0,0,0,0,-1,2001,372,0,0
784,652,0,0,0,0,0,0,0,0,0,-1,2008,372,0,0
791,652,0,0,0,0,0,0,0,0,0,-1,2015,372,0,0
798,652,0,0,0,0,0,0,0,0,0,-1,2022,372,0,0
805,652,0,0,0,0,0,0,0,0,0,-1,2029,372,0,0
812,652,0,0,0,0,0,0,0,0,0,-1,2036,372,0,0
-700,645,0,0,0,0,0,0,0,0,0,-1,524,379,0,0
-693,645,0,0,0,0,0,0,0,0,0,-1,531,379,0,0
-686,645,0,0,0,0,0,0,0,0,0,-1,538,379,0,0
-679,645,0,0,0,0,0,0,0,0,0,-1,545,379,0,0
-672,645,0,0,0,0,0,0,0,0,0,-1,552,379,0,0
-665,645,0,0,0,0,0,0,0,0,0,-1,559,379,0,0
-658,645,0,0,0,0,0,0,0,0,0,-1,566,379,0,0
-651,645,0,0,0,0,0,0,0,0,0,-1,573,379,0,0
-644,645,0,0,0,0,0,0,0,0,0,-1,580,379,0,0
-637,645,0,0,0,0,0,0,0,0,0,-1,587,379,0,0
-630,645,0,0,0,0,0,0,0,0,0,-1,594,379,0,0
-623,645,0,0,0,0,0,0,0,0,0,-1,601,379,0,0
-616,645,0,0,0,0,0,0,0,0,0,-1,608,379,0,0
-609,645,0,0,0,0,0,0,0,0,0,-1,615,379,0,0
-602,645,0,0,0,0,0,0,0,0,0,-1,622,379,0,0
-595,645,0,0,0,0,0,0,0,0,0,-1,629,379,0,0
-588,645,0,0,0,0,0,0,0,0,0,-1,636,379,0,0
-581,645,0,0,0,0,0,0,0,0,0,-1,643,379,0,0
-574,645,0,0,0,0,0,0,0,0,0,-1,650,379,0,0
-567,645,0,0,0,0,0,0,0,0,0,-1,657,379,0,0
-560,645,0,0,0,0,0,0,0,0,0,-1,664,379,0,0
-553,645,0,0,0,0,0,0,0,0,0,-1,671,379,0,0
-546,645,0,0,0,0,0,0,0,0,0,-1,678,379,0,0
-539,645,0,0,0,0,0,0,0,0,0,-1,685,379,0,0
-532,645,0,0,0,0,0,0,0,0,0,-1,692,379,0,0
-525,645,0,0,0,0,0,0,0,0,0,-1,699,379,0,0
-518,645,0,0,0,0,0,0,0,0,0,-1,706,379,0,0
-511,645,0,0,0,0,0,0,0,0,0,-1,713,379,0,0
-504,645,0,0,0,0,0,0,0,0,0,-1,720,379,0,0
-497,645,0,0,0,0,0,0,0,0,0,-1,727,379,0,0
-490,645,0,0,0,0,0,0,0,0,0,-1,734,379,0,0
-483,645,0,0,0,0,0,0,0,0,0,-1,741,379,0,0
-476,645,0,0,0,0,0,0,0,0,0,-1,748,379,0,0
-469,645,0,0,0,0,0,0,0,0,0,-1,755,379,0,0
-462,645,0,0,0,0,0,0,0,0,0,-1,762,379,0,0
-455,645,0,0,0,0,0,0,0,0,0,-1,769,379,0,0
-448,645,0,0,0,0,0,0,0,0,0,-1,776,379,0,0
-441,645,0,0,0,0,0,0,0,0,0,-1,783,379,0,0
-434,645,0,0,0,0,0,0,0,0,0,-1,790,379,0,0
-427,645,0,0,0,0,0,0,0,0,0,-1,797,379,0,0
-420,645,0,0,0,0,0,0,0,0,0,-1,804,379,0,0
-413,645,0,0,0,0,0,0,0,0,0,-1,811,379,0,0
-406,645,0,0,0,0,0,0,0,0,0,-1,818,379,0,0
-399,645,0,0,0,0,0,0,0,0,0,-1,825,379,0,0
-392,645,0,0,0,0,0,0,0,0,0,-1,832,379,0,0
-385,645,0,0,0,0,0,0,0,0,0,-1,839,379,0,0
-378,645,0,0,0,0,0,0,0,0,0,-1,846,379,0,0
-371,645,0,0,0,0,0,0,0,0,0,-1,853,379,0,0
-364,645,0,0,0,0,0,0,0,0,0,-1,860,379,0,0
-357,645,0,0,0,0,0,0,0,0,0,-1,867,379,0,0
-350,645,0,0,0,0,0,0,0,0,0,-1,874,379,0,0
-343,645,0,0,0,0,0,0,0,0,0,-1,881,379,0,0
-336,645,0,0,0,0,0,0,0,0,0,-1,888,379,0,0
-329,645,0,0,0,0,0,0,0,0,0,-1,895,379,0,0
-322,645,0,0,0,0,0,0,0,0,0,-1,902,379,0,0
-315,645,0,0,0,0,0,0,0,0,0,-1,909,379,0,0
-308,645,0,0,0,0,0,0,0,0,0,-1,916,379,0,0
-301,645,0,0,0,0,0,0,0,0,0,-1,923,379,0,0
-294,645,0,0,0,0,0,0,0,0,0,-1,930,379,0,0
-287,645,0,0,0,0,0,0,0,0,0,-1,937,379,0,0
-280,645,0,0,0,0,0,0,0,0,0,-1,944,379,0,0
-273,645,0,0,0,0,0,0,0,0,0,-1,951,379,0,0
-266,645,0,0,0,0,0,0,0,0,0,-1,958,379,0,0
-259,645,0,0,0,0,0,0,0,0,0,-1,965,379,0,0
-252,645,2.95691,-26.9133,0,0,0,0,0,0,0,-1,972,379,2.9569,26.9133
-245,645,2.73169,-27.0215,0,0,0,0,0,0,0,-1,979,379,2.73172,27.0215
-238,645,2.6665,-26.9464,0,0,0,0,0,0,0,-1,986,379,2.66649,26.9464
-231,645,7.26807,-29.1054,0,0,0,0,0,0,0,-1,993,379,7.26806,29.1054
-224,645,7.69073,-29.5737,0,0,0,0,0,0,0,-1,1000,379,7.69071,29.5737
-217,645,8.65485,-33.4136,0,0,0,0,0,0,0,-1,1007,379,8.65487,33.4136
-210,645,9.21594,-32.5157,0,0,0,0,0,0,0,-1,1014,379,9.21591,32.5156
-203,645,9.77698,-31.6176,0,0,0,0,0,0,0,-1,1021,379,9.77696,31.6177
-196,645,10.2664,-29.7741,0,0,0,0,0,0,0,-1,1028,379,10.2664,29.7741
-189,645,5.88062,-28.2191,0,0,0,0,0,0,0,-1,1035,379,5.88062,28.2191
-182,645,6.34167,-29.2525,0,0,0,0,0,0,0,-1,1042,379,6.3417,29.2525
-175,645,6.36462,-35.5586,0,0,0,0,0,0,0,-1,1049,379,6.3646,35.5586
-168,645,7.19116,-39.5785,0,0,0,0,0,0,0,-1,1056,379,7.19115,39.5785
-161,645,7.22083,-37.6093,0,0,0,0,0,0,0,-1,1063,379,7.22085,37.6094
-154,645,6.97266,-38.081,0,0,0,0,0,0,0,-1,1070,379,6.97264,38.081
-147,645,6.80933,-38.6204,0,0,0,0,0,0,0,-1,1077,379,6.80938,38.6204
-140,645,6.95142,-41.0752,0,0,0,0,0,0,0,-1,1084,379,6.95146,41.0752
-133,645,6.85425,-41.3365,0,0,0,0,0,0,0,-1,1091,379,6.85425,41.3365
-126,645,6.97205,-42.3062,0,0,0,0,0,0,0,-1,1098,379,6.97208,42.3062
-119,645,6.83545,-42.701,-0.00800797,0.0134252,-0.00410434,0.0141843,-0.00876704,-1.38792,0.0133734,0.0301371,1105,379,6.83542,42.701
-112,645,6.74011,-43.0908,-0.00775312,0.0124339,-0.00365997,0.013077,-0.0083962,-1.39687,0.0124954,0.0271935,1112,379,6.74015,43.0908
-105,645,6.67224,-43.4429,0,0,0,0,0,0,0,-1,1119,379,6.67229,43.4429
-98,645,6.62134,-44.0899,0,0,0,0,0,0,0,-1,1126,379,6.62129,44.0899
-91,645,6.54395,-44.493,0,0,0,0,0,0,0,-1,1133,379,6.54398,44.493
-84,645,6.50916,-44.8875,0,0,0,0,0,0,0,-1,1140,379,6.50919,44.8875
-77,645,6.58179,-45.2248,-0.00612244,0.00653129,-0.00174362,0.00676716,-0.0063583,-1.43634,0.00757921,0.042214,1147,379,6.5818,45.2248
-70,645,6.49902,-45.5498,-0.00587639,0.00633703,-0.00160516,0.00654447,-0.00608382,-1.44228,0.00729257,0.0151199,1154,379,6.499,45.5498
-63,645,6.4679,-45.8358,-0.00492042,0.0081221,-0.00277593,0.00868833,-0.00548666,-1.36958,0.00825323,0.0117908,1161,379,6.46788,45.8358
-56,645,6.42456,-46.1,-0.00417801,0.00911779,-0.00335121,0.0099147,-0.00497492,-1.33733,0.0087528,0.0135315,1168,379,6.42456,46.1
-49,645,6.3877,-46.3964,-0.00386023,0.00966644,-0.00340194,0.0104738,-0.00466762,-1.33777,0.0089536,0.0115629,1175,379,6.38771,46.3964
-42,645,6.33118,-46.6535,-0.00264583,0.0107716,-0.00325772,0.0115207,-0.00339497,-1.34477,0.00902748,0.010817,1182,379,6.33112,46.6535
-35,645,6.29858,-46.9359,-0.0015713,0.0118562,-0.00311256,0.0125426,-0.00225772,-1.35374,0.00920705,0.0103694,1189,379,6.29858,46.9359
-28,645,6.25879,-47.214,-0.0007577,0.0127243,-0.00286936,0.0133095,-0.00134298,-1.36958,0.00935288,0.0085451,1196,379,6.25881,47.214
-21,645,6.22034,-47.4244,-0.000131825,0.0135364,-0.00255432,0.0139982,-0.000593576,-1.39196,0.00953613,0.00989806,1203,379,6.22037,47.4244
-14,645,6.21521,-47.63,0.00050678,0.0139743,-0.00221876,0.0143304,0.000150658,-1.41165,0.00950377,0.010365,1210,379,6.21524,47.63
-7,645,6.20374,-47.8358,0.000971655,0.0144743,-0.00197743,0.0147579,0.000688024,-1.42833,0.00961749,0.0139777,1217,379,6.20379,47.8358
0,645,6.20801,-48.0055,0.0012835,0.0148815,-0.00178906,0.015113,0.00105206,-1.44215,0.00974359,0.02571,1224,379,6.20798,48.0055
7,645,6.15881,-48.1257,0.00146992,0.0152459,-0.00166888,0.0154451,0.00127063,-1.45194,0.00990044,0.0178696,1231,379,6.15886,48.1257
14,645,6.13208,-48.2193,0.00152587,0.015393,-0.00157902,0.0155706,0.00134834,-1.45884,0.00996139,0.0166687,1238,379,6.13213,48.2193
21,645,6.07996,-48.3333,0.00143543,0.0152532,-0.00155142,0.0154253,0.00126338,-1.46035,0.00988933,0.011616,1245,379,6.08001,48.3333
28,645,6.07263,-48.4572,0.00138519,0.0149564,-0.0014698,0.0151138,0.00122783,-1.46414,0.00969251,0.0102222,1252,379,6.0726,48.4572
35,645,6.05481,-48.5365,0.00124821,0.0147533,-0.00120233,0.0148595,0.001142,-1.48269,0.00954843,0.00942792,1259,379,6.05486,48.5365
42,645,6.03137,-48.6002,0.000852156,0.0144182,-0.000723054,0.0144566,0.000813727,-1.5177,0.00937829,0.00943988,1266,379,6.03142,48.6002
49,645,6.05273,-48.6354,0.000458155,0.0141425,-0.000295988,0.0141489,0.000451757,-1.54918,0.00928567,0.0127527,1273,379,6.05268,48.6354
56,645,6.0592,-48.6429,0.000155486,0.0138059,6.62661e-05,0.0138062,0.000155164,1.56594,0.00915283,0.0127962,1280,379,6.05921,48.6429
63,645,6.03625,-48.6779,-0.000513537,0.0134432,0.000581692,0.0134674,-0.000537739,1.52921,0.00916277,0.0126417,1287,379,6.03631,48.6779
70,645,5.99548,-48.6479,-0.00123096,0.0130258,0.00136167,0.0131547,-0.00135985,1.47642,0.00925643,0.0165194,1294,379,5.99549,48.6479
77,645,5.98389,-48.631,-0.00201477,0.0128449,0.00246417,0.0132429,-0.00241274,1.41067,0.00973302,0.0188723,1301,379,5.98393,48.631
84,645,5.96936,-48.5902,-0.00237855,0.0139454,0.00265444,0.0143662,-0.00279935,1.41358,0.0106341,0.0132804,1308,379,5.96931,48.5902
91,645,5.91626,-48.5461,-0.00297171,0.0160883,0.00260241,0.0164373,-0.00332065,1.43751,0.0122164,0.0151085,1315,379,5.91631,48.5461
98,645,5.89624,-48.4362,-0.00358526,0.0174884,0.00288659,0.0178767,-0.0039735,1.4371,0.0134395,0.0138322,1322,379,5.8962,48.4362
105,645,5.8728,-48.308,-0.00409494,0.0192723,0.00296222,0.019642,-0.0044646,1.44664,0.0148089,0.0110074,1329,379,5.87285,48.308
112,645,5.854,-48.1805,-0.00452525,0.0213737,0.00278017,0.0216688,-0.00482033,1.46505,0.0162921,0.00943244,1336,379,5.85396,48.1804
119,645,5.84644,-48.0314,-0.00487525,0.0235961,0.00235691,0.0237898,-0.00506904,1.48876,0.0177919,0.00933641,1343,379,5.84644,48.0314
126,645,5.80603,-47.854,-0.00500968,0.0258923,0.00176486,0.0259928,-0.00511014,1.51393,0.0192592,0.0121752,1350,379,5.80608,47.854
133,645,5.78857,-47.6885,-0.00514428,0.0278431,0.00109581,0.0278795,-0.00518064,1.53763,0.0205322,0.0129803,1357,379,5.78854,47.6885
140,645,5.77173,-47.52,-0.00501474,0.0289738,0.000424495,0.0289791,-0.00502004,1.55831,0.0211919,0.0122882,1364,379,5.77178,47.52
147,645,5.75403,-47.2948,-0.00464577,0.0295914,-4.56919e-06,0.0295914,-0.00464577,-1.57066,0.0214446,0.0131428,1371,379,5.75403,47.2948
154,645,5.729,-47.0609,-0.00438114,0.0295163,-6.85275e-05,0.0295164,-0.00438128,-1.56877,0.0212889,0.0130202,1378,379,5.72898,47.0609
161,645,5.6781,-46.8007,-0.00422662,0.0289045,0.000266298,0.0289067,-0.00422876,1.56276,0.0208243,0.0157957,1385,379,5.67814,46.8007
168,645,5.6571,-46.5379,-0.00403563,0.0276142,0.000634613,0.027627,-0.00404835,1.55076,0.0199051,0.0174758,1392,379,5.65712,46.5379
175,645,5.68127,-46.2668,-0.00392546,0.026191,0.000979206,0.0262228,-0.00395727,1.53833,0.0189393,0.0141668,1399,379,5.6813,46.2668
182,645,5.61768,-45.965,-0.00359619,0.0247192,0.000949625,0.024751,-0.003628,1.53731,0.0178335,0.0105231,1406,379,5.61765,45.965
189,645,5.5675,-45.6086,-0.00390922,0.0207344,0.00253213,0.0209919,-0.0041667,1.46946,0.0155704,0.0118655,1413,379,5.56748,45.6086
196,645,5.50037,-45.3122,-0.00396623,0.0152148,0.00422225,0.0161031,-0.00485452,1.36344,0.0126675,0.0120396,1420,379,5.50037,45.3122
203,645,5.42505,-44.9422,-0.00396506,0.0129729,0.00449596,0.0140923,-0.00508448,1.32678,0.0114716,0.0118376,1427,379,5.42501,44.9422
210,645,5.43835,-44.4628,-0.00408027,0.0113965,0.0047953,0.0127618,-0.00544559,1.29342,0.0107912,0.0215721,1434,379,5.43842,44.4628
217,645,5.4801,-43.9863,0,0,0,0,0,0,0,-1,1441,379,5.4801,43.9863
224,645,5.33289,-43.7915,0,0,0,0,0,0,0,-1,1448,379,5.3329,43.7915
231,645,5.24451,-43.3255,0,0,0,0,0,0,0,-1,1455,379,5.24454,43.3255
238,645,5.16272,-42.912,0,0,0,0,0,0,0,-1,1462,379,5.16269,42.912
245,645,5.15039,-42.4044,0,0,0,0,0,0,0,-1,1469,379,5.15044,42.4044
252,645,5.18262,-41.8869,0,0,0,0,0,0,0,-1,1476,379,5.18261,41.8869
259,645,4.84705,-41.2198,0,0,0,0,0,0,0,-1,1483,379,4.8471,41.2197
266,645,4.84766,-40.8235,0.0153972,0.0183751,0.00813465,0.0251559,0.00861633,0.875917,0.014762,0.0420468,1490,379,4.84766,40.8234
273,645,4.95129,-40.4562,0.0175567,0.0203941,0.0094984,0.0285792,0.00937165,0.859532,0.0168228,0.0280917,1497,379,4.95124,40.4562
280,645,5.15649,-39.9553,0.0193453,0.0226807,0.0109625,0.0321016,0.00992441,0.860883,0.0189786,0.045727,1504,379,5.15653,39.9552
287,645,5.59192,-38.9009,0,0,0,0,0,0,0,-1,1511,379,5.59192,38.9009
294,645,2.95605,-21.8084,0,0,0,0,0,0,0,-1,1518,379,2.956,21.8084
301,645,0.897827,-22.1275,0,0,0,0,0,0,0,-1,1525,379,0.897827,22.1275
308,645,-1.14624,-22.4595,0,0,0,0,0,0,0,-1,1532,379,-1.1463,22.4595
315,645,4.60754,-38.3252,0,0,0,0,0,0,0,-1,1539,379,4.60756,38.3252
322,645,-4.52686,-22.904,0,0,0,0,0,0,0,-1,1546,379,-4.52682,22.904
329,645,2.39136,-36.649,0,0,0,0,0,0,0,-1,1553,379,2.39135,36.649
336,645,3.36401,-31.6129,0,0,0,0,0,0,0,-1,1560,379,3.36405,31.6129
343,645,4.77185,-23.7191,0,0,0,0,0,0,0,-1,1567,379,4.77184,23.7191
350,645,4.76404,-22.1987,0,0,0,0,0,0,0,-1,1574,379,4.76399,22.1987
357,645,4.61316,-21.967,0,0,0,0,0,0,0,-1,1581,379,4.61316,21.967
364,645,-0.0794678,-3.22021,0,0,0,0,0,0,0,-1,1588,379,-0.0794987,3.22021
371,645,0,0,0,0,0,0,0,0,0,-1,1595,379,0,0
378,645,0,0,0,0,0,0,0,0,0,-1,1602,379,0,0
385,645,0,0,0,0,0,0,0,0,0,-1,1609,379,0,0
392,645,0,0,0,0,0,0,0,0,0,-1,1616,379,0,0
399,645,0,0,0,0,0,0,0,0,0,-1,1623,379,0,0
406,645,0,0,0,0,0,0,0,0,0,-1,1630,379,0,0
413,645,0,0,0,0,0,0,0,0,0,-1,1637,379,0,0
420,645,0,0,0,0,0,0,0,0,0,-1,1644,379,0,0
427,645,0,0,0,0,0,0,0,0,0,-1,1651,379,0,0
434,645,0,0,0,0,0,0,0,0,0,-1,1658,379,0,0
441,645,0,0,0,0,0,0,0,0,0,-1,1665,379,0,0
448,645,0,0,0,0,0,0,0,0,0,-1,1672,379,0,0
455,645,0,0,0,0,0,0,0,0,0,-1,1679,379,0,0
462,645,0,0,0,0,0,0,0,0,0,-1,1686,379,0,0
469,645,0,0,0,0,0,0,0,0,0,-1,1693,379,0,0
476,645,0,0,0,0,0,0,0,0,0,-1,1700,379,0,0
483,645,0,0,0,0,0,0,0,0,0,-1,1707,379,0,0
490,645,0,0,0,0,0,0,0,0,0,-1,1714,379,0,0
497,645,0,0,0,0,0,0,0,0,0,-1,1721,379,0,0
504,645,0,0,0,0,0,0,0,0,0,-1,1728,379,0,0
511,645,0,0,0,0,0,0,0,0,0,-1,1735,379,0,0
518,645,0,0,0,0,0,0,0,0,0,-1,1742,379,0,0
525,645,0,0,0,0,0,0,0,0,0,-1,1749,379,0,0
532,645,0,0,0,0,0,0,0,0,0,-1,1756,379,0,0
539,645,0,0,0,0,0,0,0,0,0,-1,1763,379,0,0
546,645,0,0,0,0,0,0,0,0,0,-1,1770,379,0,0
553,645,0,0,0,0,0,0,0,0,0,-1,1777,379,0,0
560,645,0,0,0,0,0,0,0,0,0,-1,1784,379,0,0
567,645,0,0,0,0,0,0,0,0,0,-1,1791,379,0,0
574,645,0,0,0,0,0,0,0,0,0,-1,1798,379,0,0
581,645,0,0,0,0,0,0,0,0,0,-1,1805,379,0,0
588,645,0,0,0,0,0,0,0,0,0,-1,1812,379,0,0
595,645,0,0,0,0,0,0,0,0,0,-1,1819,379,0,0
602,645,0,0,0,0,0,0,0,0,0,-1,1826,379,0,0
609,645,0,0,0,0,0,0,0,0,0,-1,1833,379,0,0
616,645,0,0,0,0,0,0,0,0,0,-1,1840,379,0,0
623,645,0,0,0,0,0,0,0,0,0,-1,1847,379,0,0
630,645,0,0,0,0,0,0,0,0,0,-1,1854,379,0,0
637,645,0,0,0,0,0,0,0,0,0,-1,1861,379,0,0
644,645,0,0,0,0,0,0,0,0,0,-1,1868,379,0,0
651,645,0,0,0,0,0,0,0,0,0,-1,1875,379,0,0
658,645,0,0,0,0,0,0,0,0,0,-1,1882,379,0,0
665,645,0,0,0,0,0,0,0,0,0,-1,1889,379,0,0
672,645,0,0,0,0,0,0,0,0,0,-1,1896,379,0,0
679,645,0,0,0,0,0,0,0,0,0,-1,1903,379,0,0
686,645,0,0,0,0,0,0,0,0,0,-1,1910,379,0,0
693,645,0,0,0,0,0,0,0,0,0,-1,1917,379,0,0
700,645,0,0,0,0,0,0,0,0,0,-1,1924,379,0,0
707,645,0,0,0,0,0,0,0,0,0,-1,1931,379,0,0
714,645,0,0,0,0,0,0,0,0,0,-1,1938,379,0,0
721,645,0,0,0,0,0,0,0,0,0,-1,1945,379,0,0
728,645,0,0,0,0,0,0,0,0,0,-1,1952,379,0,0
735,645,0,0,0,0,0,0,0,0,0,-1,1959,379,0,0
742,645,0,0,0,0,0,0,0,0,0,-1,1966,379,0,0
749,645,0,0,0,0,0,0,0,0,0,-1,1973,379,0,0
756,645,0,0,0,0,0,0,0,0,0,-1,1980,379,0,0
763,645,0,0,0,0,0,0,0,0,0,-1,1987,379,0,0
770,645,0,0,0,0,0,0,0,0,0,-1,1994,379,0,0
777,645,0,0,0,0,0,0,0,0,0,-1,2001,379,0,0
784,645,0,0,0,0,0,0,0,0,0,-1,2008,379,0,0
791,645,0,0,0,0,0,0,0,0,0,-1,2015,379,0,0
798,645,0,0,0,0,0,0,0,0,0,-1,2022,379,0,0
805,645,0,0,0,0,0,0,0,0,0,-1,2029,379,0,0
812,645,0,0,0,0,0,0,0,0,0,-1,2036,379,0,0
-700,638,0,0,0,0,0,0,0,0,0,-1,524,386,0,0
-693,638,0,0,0,0,0,0,0,0,0,-1,531,386,0,0
-686,638,0,0,0,0,0,0,0,0,0,-1,538,386,0,0
-679,638,0,0,0,0,0,0,0,0,0,-1,545,386,0,0
-672,638,0,0,0,0,0,0,0,0,0,-1,552,386,0,0
-665,638,0,0,0,0,0,0,0,0,0,-1,559,386,0,0
-658,638,0,0,0,0,0,0,0,0,0,-1,566,386,0,0
-651,638,0,0,0,0,0,0,0,0,0,-1,573,386,0,0
-644,638,0,0,0,0,0,0,0,0,0,-1,580,386,0,0
-637,638,0,0,0,0,0,0,0,0,0,-1,587,386,0,0
-630,638,0,0,0,0,0,0,0,0,0,-1,594,386,0,0
-623,638,0,0,0,0,0,0,0,0,0,-1,601,386,0,0
-616,638,0,0,0,0,0,0,0,0,0,-1,608,386,0,0
-609,638,0,0,0,0,0,0,0,0,0,-1,615,386,0,0
-602,638,0,0,0,0,0,0,0,0,0,-1,622,386,0,0
-595,638,0,0,0,0,0,0,0,0,0,-1,629,386,0,0
-588,638,0,0,0,0,0,0,0,0,0,-1,636,386,0,0
-581,638,0,0,0,0,0,0,0,0,0,-1,643,386,0,0
-574,638,0,0,0,0,0,0,0,0,0,-1,650,386,0,0
-567,638,0,0,0,0,0,0,0,0,0,-1,657,386,0,0
-560,638,0,0,0,0,0,0,0,0,0,-1,664,386,0,0
-553,638,0,0,0,0,0,0,0,0,0,-1,671,386,0,0
-546,638,0,0,0,0,0,0,0,0,0,-1,678,386,0,0
-539,638,0,0,0,0,0,0,0,0,0,-1,685,386,0,0
-532,638,0,0,0,0,0,0,0,0,0,-1,692,386,0,0
-525,638,0,0,0,0,0,0,0,0,0,-1,699,386,0,0
-518,638,0,0,0,0,0,0,0,0,0,-1,706,386,0,0
-511,638,0,0,0,0,0,0,0,0,0,-1,713,386,0,0
-504,638,0,0,0,0,0,0,0,0,0,-1,720,386,0,0
-497,638,0,0,0,0,0,0,0,0,0,-1,727,386,0,0
-490,638,0,0,0,0,0,0,0,0,0,-1,734,386,0,0
-483,638,0,0,0,0,0,0,0,0,0,-1,741,386,0,0
-476,638,0,0,0,0,0,0,0,0,0,-1,748,386,0,0
-469,638,0,0,0,0,0,0,0,0,0,-1,755,386,0,0
-462,638,0,0,0,0,0,0,0,0,0,-1,762,386,0,0
-455,638,0,0,0,0,0,0,0,0,0,-1,769,386,0,0
-448,638,0,0,0,0,0,0,0,0,0,-1,776,386,0,0
-441,638,0,0,0,0,0,0,0,0,0,-1,783,386,0,0
-434,638,0,0,0,0,0,0,0,0,0,-1,790,386,0,0
-427,638,0,0,0,0,0,0,0,0,0,-1,797,386,0,0
-420,638,0,0,0,0,0,0,0,0,0,-1,804,386,0,0
-413,638,0,0,0,0,0,0,0,0,0,-1,811,386,0,0
-406,638,0,0,0,0,0,0,0,0,0,-1,818,386,0,0
-399,638,0,0,0,0,0,0,0,0,0,-1,825,386,0,0
-392,638,0,0,0,0,0,0,0,0,0,-1,832,386,0,0
-385,638,0,0,0,0,0,0,0,0,0,-1,839,386,0,0
-378,638,0,0,0,0,0,0,0,0,0,-1,846,386,0,0
-371,638,0,0,0,0,0,0,0,0,0,-1,853,386,0,0
-364,638,0,0,0,0,0,0,0,0,0,-1,860,386,0,0
-357,638,0,0,0,0,0,0,0,0,0,-1,867,386,0,0
-350,638,0,0,0,0,0,0,0,0,0,-1,874,386,0,0
-343,638,0,0,0,0,0,0,0,0,0,-1,881,386,0,0
-336,638,0,0,0,0,0,0,0,0,0,-1,888,386,0,0
-329,638,0,0,0,0,0,0,0,0,0,-1,895,386,0,0
-322,638,0,0,0,0,0,0,0,0,0,-1,902,386,0,0
-315,638,0,0,0,0,0,0,0,0,0,-1,909,386,0,0
-308,638,0,0,0,0,0,0,0,0,0,-1,916,386,0,0
-301,638,0,0,0,0,0,0,0,0,0,-1,923,386,0,0
-294,638,0,0,0,0,0,0,0,0,0,-1,930,386,0,0
-287,638,0,0,0,0,0,0,0,0,0,-1,937,386,0,0
-280,638,0,0,0,0,0,0,0,0,0,-1,944,386,0,0
-273,638,0,0,0,0,0,0,0,0,0,-1,951,386,0,0
-266,638,10.1613,-36.3326,0,0,0,0,0,0,0,-1,958,386,10.1612,36.3326
-259,638,9.95282,-34.6103,0,0,0,0,0,0,0,-1,965,386,9.9528,34.6103
-252,638,9.95746,-33.6964,0,0,0,0,0,0,0,-1,972,386,9.95744,33.6965
-245,638,9.84143,-32.9009,0,0,0,0,0,0,0,-1,979,386,9.84145,32.9009
-238,638,2.93518,-26.3649,0,0,0,0,0,0,0,-1,986,386,2.93516,26.3649
-231,638,2.36829,-26.0088,0,0,0,0,0,0,0,-1,993,386,2.3683,26.0088
-224,638,6.3465,-30.9124,0,0,0,0,0,0,0,-1,1000,386,6.34648,30.9124
-217,638,7.41205,-32.7263,0,0,0,0,0,0,0,-1,1007,386,7.41204,32.7262
-210,638,8.7038,-34.5688,0,0,0,0,0,0,0,-1,1014,386,8.70378,34.5689
-203,638,4.32593,-27.5803,0,0,0,0,0,0,0,-1,1021,386,4.32594,27.5803
-196,638,6.0614,-28.4651,0,0,0,0,0,0,0,-1,1028,386,6.06143,28.4651
-189,638,11.4561,-30.1556,0,0,0,0,0,0,0,-1,1035,386,11.456,30.1556
-182,638,6.45471,-33.4271,0,0,0,0,0,0,0,-1,1042,386,6.45473,33.427
-175,638,6.49841,-38.5815,0,0,0,0,0,0,0,-1,1049,386,6.49845,38.5815
-168,638,6.76416,-39.7366,0,0,0,0,0,0,0,-1,1056,386,6.76411,39.7366
-161,638,6.73853,-40.3056,0,0,0,0,0,0,0,-1,1063,386,6.73852,40.3056
-154,638,6.67896,-40.7349,0,0,0,0,0,0,0,-1,1070,386,6.67896,40.7349
-147,638,6.66003,-41.1877,0,0,0,0,0,0,0,-1,1077,386,6.66003,41.1877
-140,638,6.62256,-41.2922,0,0,0,0,0,0,0,-1,1084,386,6.62257,41.2922
-133,638,6.48694,-41.8951,0,0,0,0,0,0,0,-1,1091,386,6.48694,41.8951
-126,638,6.51465,-42.4392,-0.00583529,0.0107706,-0.00378034,0.0115907,-0.00665538,-1.35717,0.0106621,0.0211536,1098,386,6.5146,42.4392
-119,638,6.45776,-42.8905,-0.0056896,0.0100201,-0.00341962,0.0107322,-0.00640169,-1.36549,0.00999701,0.0188801,1105,386,6.45775,42.8905
-112,638,6.40234,-43.3258,-0.00541293,0.00926591,-0.00304203,0.00987137,-0.00601839,-1.37433,0.00926342,0.0167298,1112,386,6.40231,43.3258
-105,638,6.33691,-43.7383,-0.00517787,0.00856395,-0.00274227,0.00909098,-0.00570489,-1.38093,0.00861664,0.0176406,1119,386,6.33689,43.7383
-98,638,6.30334,-44.1227,-0.00499051,0.00764107,-0.00238582,0.00807667,-0.00542612,-1.3902,0.00784574,0.0165168,1126,386,6.30333,44.1227
-91,638,6.24597,-44.494,-0.00471972,0.0067401,-0.00206475,0.00710076,-0.00508038,-1.39787,0.00706496,0.0126256,1133,386,6.24592,44.4941
-84,638,6.20361,-44.8643,-0.00429544,0.00570584,-0.00179036,0.00601668,-0.00460627,-1.39889,0.00615116,0.0145489,1140,386,6.20362,44.8643
-77,638,6.18176,-45.227,-0.00392434,0.00495037,-0.00151654,0.00520237,-0.00417633,-1.40614,0.00542559,0.0118497,1147,386,6.1817,45.227
-70,638,6.17566,-45.5675,-0.00368277,0.00464481,-0.00134281,0.00485598,-0.00389394,-1.41481,0.00506194,0.0112828,1154,386,6.17568,45.5675
-63,638,6.16089,-45.8783,-0.00328401,0.00497999,-0.00161437,0.00528416,-0.00358818,-1.38456,0.00515355,0.0115103,1161,386,6.16091,45.8783
-56,638,6.14709,-46.1635,-0.00293393,0.00506295,-0.00170549,0.00541149,-0.00328247,-1.36921,0.00506938,0.0146819,1168,386,6.14704,46.1635
-49,638,6.11206,-46.4303,-0.00266914,0.00517891,-0.0015979,0.00549177,-0.00298201,-1.37744,0.00496335,0.0127704,1175,386,6.11206,46.4303
-42,638,6.08569,-46.6791,-0.00197661,0.0055379,-0.0014228,0.00579828,-0.00223698,-1.3898,0.00478863,0.0121925,1182,386,6.08564,46.6791
-35,638,6.07166,-46.9643,-0.00129228,0.00591147,-0.00132835,0.0061486,-0.00152942,-1.39414,0.0046927,0.0111767,1189,386,6.07166,46.9643
-28,638,6.06384,-47.2311,-0.000666465,0.00613284,-0.00128355,0.00636707,-0.000900699,-1.39029,0.0045746,0.0105235,1196,386,6.06382,47.2311
-21,638,6.0282,-47.4286,-1.89782e-05,0.00634135,-0.00126838,0.00658496,-0.000262589,-1.38104,0.00448007,0.0115778,1203,386,6.02823,47.4286
-14,638,6.01501,-47.6459,0.000697637,0.00637863,-0.00126087,0.0066459,0.000430368,-1.36192,0.00429434,0.0113535,1210,386,6.015,47.6459
-7,638,6.02344,-47.8917,0.00142326,0.00655032,-0.00135272,0.00688533,0.00108825,-1.32802,0.0042739,0.016978,1217,386,6.02339,47.8917
0,638,6.06213,-48.0054,0.00204413,0.00673745,-0.00146415,0.00715675,0.00162483,-1.29188,0.00433234,0.0323577,1224,386,6.06213,48.0054
7,638,6.01855,-48.159,0.00248751,0.00694249,-0.00153392,0.00741956,0.00201045,-1.26927,0.00443096,0.0251164,1231,386,6.01851,48.159
14,638,5.97144,-48.2754,0.0027119,0.00718352,-0.00153325,0.00765874,0.00223668,-1.27024,0.00454748,0.0137053,1238,386,5.97148,48.2754
21,638,5.9635,-48.3761,0.00271777,0.00733552,-0.00146738,0.00776236,0.00229093,-1.28773,0.00460529,0.0119608,1245,386,5.96356,48.3761
28,638,5.96851,-48.4778,0.00267992,0.00741124,-0.00137589,0.00778226,0.0023089,-1.3074,0.00461525,0.00964514,1252,386,5.96852,48.4778
35,638,5.9668,-48.5634,0.00249198,0.00757385,-0.00114649,0.00782053,0.0022453,-1.35887,0.00464962,0.0113556,1259,386,5.96684,48.5634
42,638,5.9856,-48.6284,0.00208519,0.00762814,-0.000762356,0.00773108,0.00198225,-1.43658,0.00463676,0.0106873,1266,386,5.98562,48.6284
49,638,6.00366,-48.6599,0.00154904,0.00771458,-0.000416193,0.00774255,0.00152108,-1.5037,0.00473679,0.00935842,1273,386,6.00368,48.6598
56,638,5.99524,-48.6771,0.000999018,0.00768127,-9.69188e-05,0.00768267,0.000997613,-1.5563,0.00482376,0.0121269,1280,386,5.99523,48.6771
63,638,5.98828,-48.6945,0.000266036,0.00752824,0.00028311,0.00753926,0.000255016,1.53189,0.00494336,0.0145849,1287,386,5.98826,48.6945
70,638,5.9967,-48.6795,-0.000535788,0.00727405,0.000770421,0.00734932,-0.000611062,1.4734,0.00511542,0.0192681,1294,386,5.99672,48.6795
77,638,6.01599,-48.6356,-0.00128913,0.00724983,0.00133951,0.00745503,-0.00149432,1.41879,0.00553577,0.0188718,1301,386,6.01604,48.6356
84,638,6.02515,-48.5913,-0.00150403,0.00801695,0.00113663,0.00815076,-0.00163785,1.45361,0.0060541,0.0135069,1308,386,6.02514,48.5914
91,638,6.01575,-48.5215,-0.00183245,0.00926575,0.000803442,0.00932361,-0.00189031,1.4989,0.00693229,0.0147873,1315,386,6.01574,48.5215
98,638,5.98755,-48.4304,-0.0021757,0.00987927,0.000745869,0.00992524,-0.00222168,1.50924,0.00746836,0.0131961,1322,386,5.98749,48.4304
105,638,5.97314,-48.3337,-0.00232625,0.010763,0.000570525,0.0107878,-0.00235107,1.52732,0.00809026,0.0100699,1329,386,5.97316,48.3337
112,638,5.9801,-48.208,-0.00232195,0.0119637,0.000222663,0.0119671,-0.00232542,1.55521,0.0088556,0.00987774,1336,386,5.98009,48.208
119,638,5.99097,-48.0591,-0.00219907,0.0131425,-0.000226249,0.0131458,-0.00220241,-1.55605,0.00958277,0.0120828,1343,386,5.99101,48.0591
126,638,5.97156,-47.8758,-0.00198065,0.0144213,-0.000713113,0.0144522,-0.0020116,-1.52743,0.0103706,0.0156805,1350,386,5.97151,47.8758
133,638,5.96008,-47.7001,-0.00183929,0.01563,-0.00108295,0.0156969,-0.00190616,-1.50912,0.0111544,0.0165156,1357,386,5.96008,47.7001
140,638,5.9563,-47.5461,-0.00161526,0.0163183,-0.00135689,0.0164204,-0.00171734,-1.4957,0.0115619,0.0166092,1364,386,5.95629,47.5461
147,638,5.95422,-47.3358,-0.001343,0.0167304,-0.00146557,0.0168485,-0.00146107,-1.49041,0.0117497,0.0176324,1371,386,5.95423,47.3358
154,638,5.96643,-47.1069,-0.00113977,0.0167192,-0.00133071,0.0168178,-0.00123838,-1.49683,0.0116466,0.0164787,1378,386,5.96644,47.1069
161,638,5.90369,-46.8369,-0.0010831,0.0164812,-0.000949176,0.0165324,-0.00113425,-1.51697,0.0114185,0.0195869,1385,386,5.90374,46.8369
168,638,5.91895,-46.5276,-0.00110354,0.0158215,-0.000506793,0.0158366,-0.0011187,-1.54089,0.0109497,0.0234573,1392,386,5.91895,46.5276
175,638,5.94287,-46.2766,-0.00124084,0.0150975,-5.52613e-05,0.0150977,-0.00124103,-1.56741,0.0105033,0.0185641,1399,386,5.9429,46.2766
182,638,5.88281,-45.9894,-0.00145016,0.0142514,0.000363323,0.0142598,-0.00145856,1.54767,0.0100282,0.0131011,1406,386,5.88279,45.9894
189,638,5.83521,-45.6511,-0.00204844,0.0119621,0.00178472,0.0121858,-0.00227221,1.44607,0.00897765,0.0116156,1413,386,5.8352,45.6511
196,638,5.80493,-45.3315,-0.00226122,0.009118,0.00295424,0.00983925,-0.00298247,1.33134,0.00774744,0.0141715,1420,386,5.80497,45.3315
203,638,5.75525,-45.0022,-0.00245663,0.00867007,0.00324182,0.00954569,-0.00333224,1.30699,0.00771816,0.0202458,1427,386,5.75528,45.0022
210,638,5.72949,-44.6605,-0.00267924,0.00853192,0.00354054,0.00955642,-0.00370374,1.28913,0.00790042,0.0170306,1434,386,5.72948,44.6605
217,638,5.73169,-44.2548,-0.00252495,0.00908312,0.00340316,0.0100073,-0.00344909,1.30564,0.00807073,0.0130659,1441,386,5.73164,44.2548
224,638,5.69202,-43.8236,-0.00106968,0.00920179,0.00321519,0.0101252,-0.00199309,1.29112,0.00750326,0.0110876,1448,386,5.69199,43.8236
231,638,5.61877,-43.3888,0.00120054,0.00951917,0.00364514,0.0108904,-0.000170691,1.21099,0.00731783,0.0122768,1455,386,5.61873,43.3888
238,638,5.57031,-42.9799,0.00308473,0.0107865,0.00448288,0.0128454,0.00102583,1.14025,0.00824294,0.0137072,1462,386,5.57034,42.9799
245,638,5.5498,-42.5183,0.00479422,0.0118323,0.00491711,0.0143599,0.00226664,1.09598,0.0089143,0.016462,1469,386,5.54978,42.5183
252,638,5.55225,-42.0538,0.00666729,0.0130183,0.00554456,0.0162323,0.00345327,1.04546,0.00987383,0.0228904,1476,386,5.55225,42.0538
259,638,5.48706,-41.6674,0.00849377,0.0145357,0.00633476,0.018533,0.00449653,1.00789,0.0111626,0.0235682,1483,386,5.48701,41.6674
266,638,5.38843,-41.1578,0.0100902,0.0158105,0.00714401,0.0206456,0.00525508,0.975803,0.0123893,0.0144156,1490,386,5.38842,41.1578
273,638,5.36804,-40.6911,0.0114993,0.0175974,0.00826291,0.0233558,0.0057408,0.96215,0.0140534,0.012149,1497,386,5.36808,40.6911
280,638,5.45911,-40.0677,0.0126466,0.0195391,0.0094455,0.0261474,0.00603829,0.960323,0.015808,0.0253508,1504,386,5.45914,40.0677
287,638,5.72278,-39.1927,0.0134244,0.0217788,0.0107282,0.0291143,0.00608887,0.971052,0.0177319,0.0461688,1511,386,5.72283,39.1928
294,638,5.81384,-38.4716,0,0,0,0,0,0,0,-1,1518,386,5.8139,38.4716
301,638,5.10266,-38.2078,0,0,0,0,0,0,0,-1,1525,386,5.10265,38.2078
308,638,4.65283,-37.6445,0,0,0,0,0,0,0,-1,1532,386,4.65281,37.6445
315,638,5.03357,-37.929,0,0,0,0,0,0,0,-1,1539,386,5.03358,37.929
322,638,5.41431,-38.2136,0,0,0,0,0,0,0,-1,1546,386,5.41435,38.2136
329,638,3.63818,-36.7592,0,0,0,0,0,0,0,-1,1553,386,3.63816,36.7592
336,638,4.92761,-34.7068,0,0,0,0,0,0,0,-1,1560,386,4.92758,34.7068
343,638,4.3252,-31.0667,0,0,0,0,0,0,0,-1,1567,386,4.3252,31.0667
350,638,5.91162,-19.0222,0,0,0,0,0,0,0,-1,1574,386,5.91165,19.0222
357,638,0.387329,-3.01077,0,0,0,0,0,0,0,-1,1581,386,0.387332,3.01077
364,638,3.78149,-6.45215,0,0,0,0,0,0,0,-1,1588,386,3.78155,6.45216
371,638,4.18604,-6.71164,0,0,0,0,0,0,0,-1,1595,386,4.18598,6.71164
378,638,4.59045,-6.97113,0,0,0,0,0,0,0,-1,1602,386,4.5904,6.97112
385,638,0,0,0,0,0,0,0,0,0,-1,1609,386,0,0
392,638,0,0,0,0,0,0,0,0,0,-1,1616,386,0,0
399,638,0,0,0,0,0,0,0,0,0,-1,1623,386,0,0
406,638,0,0,0,0,0,0,0,0,0,-1,1630,386,0,0
413,638,0,0,0,0,0,0,0,0,0,-1,1637,386,0,0
420,638,0,0,0,0,0,0,0,0,0,-1,1644,386,0,0
427,638,0,0,0,0,0,0,0,0,0,-1,1651,386,0,0
434,638,0,0,0,0,0,0,0,0,0,-1,1658,386,0,0
441,638,0,0,0,0,0,0,0,0,0,-1,1665,386,0,0
448,638,0,0,0,0,0,0,0,0,0,-1,1672,386,0,0
455,638,0,0,0,0,0,0,0,0,0,-1,1679,386,0,0
462,638,0,0,0,0,0,0,0,0,0,-1,1686,386,0,0
469,638,0,0,0,0,0,0,0,0,0,-1,1693,386,0,0
476,638,0,0,0,0,0,0,0,0,0,-1,1700,386,0,0
483,638,0,0,0,0,0,0,0,0,0,-1,1707,386,0,0
490,638,0,0,0,0,0,0,0,0,0,-1,1714,386,0,0
497,638,0,0,0,0,0,0,0,0,0,-1,1721,386,0,0
504,638,0,0,0,0,0,0,0,0,0,-1,1728,386,0,0
511,638,0,0,0,0,0,0,0,0,0,-1,1735,386,0,0
518,638,0,0,0,0,0,0,0,0,0,-1,1742,386,0,0
525,638,0,0,0,0,0,0,0,0,0,-1,1749,386,0,0
532,638,0,0,0,0,0,0,0,0,0,-1,1756,386,0,0
539,638,0,0,0,0,0,0,0,0,0,-1,1763,386,0,0
546,638,0,0,0,0,0,0,0,0,0,-1,1770,386,0,0
553,638,0,0,0,0,0,0,0,0,0,-1,1777,386,0,0
560,638,0,0,0,0,0,0,0,0,0,-1,1784,386,0,0
567,638,0,0,0,0,0,0,0,0,0,-1,1791,386,0,0
574,638,0,0,0,0,0,0,0,0,0,-1,1798,386,0,0
581,638,0,0,0,0,0,0,0,0,0,-1,1805,386,0,0
588,638,0,0,0,0,0,0,0,0,0,-1,1812,386,0,0
595,638,0,0,0,0,0,0,0,0,0,-1,1819,386,0,0
602,638,0,0,0,0,0,0,0,0,0,-1,1826,386,0,0
609,638,0,0,0,0,0,0,0,0,0,-1,1833,386,0,0
616,638,0,0,0,0,0,0,0,0,0,-1,1840,386,0,0
623,638,0,0,0,0,0,0,0,0,0,-1,1847,386,0,0
630,638,0,0,0,0,0,0,0,0,0,-1,1854,386,0,0
637,638,0,0,0,0,0,0,0,0,0,-1,1861,386,0,0
644,638,0,0,0,0,0,0,0,0,0,-1,1868,386,0,0
651,638,0,0,0,0,0,0,0,0,0,-1,1875,386,0,0
658,638,0,0,0,0,0,0,0,0,0,-1,1882,386,0,0
665,638,0,0,0,0,0,0,0,0,0,-1,1889,386,0,0
672,638,0,0,0,0,0,0,0,0,0,-1,1896,386,0,0
679,638,0,0,0,0,0,0,0,0,0,-1,1903,386,0,0
686,638,0,0,0,0,0,0,0,0,0,-1,1910,386,0,0
693,638,0,0,0,0,0,0,0,0,0,-1,1917,386,0,0
700,638,0,0,0,0,0,0,0,0,0,-1,1924,386,0,0
707,638,0,0,0,0,0,0,0,0,0,-1,1931,386,0,0
714,638,0,0,0,0,0,0,0,0,0,-1,1938,386,0,0
721,638,0,0,0,0,0,0,0,0,0,-1,1945,386,0,0
728,638,0,0,0,0,0,0,0,0,0,-1,1952,386,0,0
735,638,0,0,0,0,0,0,0,0,0,-1,1959,386,0,0
742,638,0,0,0,0,0,0,0,0,0,-1,1966,386,0,0
749,638,0,0,0,0,0,0,0,0,0,-1,1973,386,0,0
756,638,0,0,0,0,0,0,0,0,0,-1,1980,386,0,0
763,638,0,0,0,0,0,0,0,0,0,-1,1987,386,0,0
770,638,0,0,0,0,0,0,0,0,0,-1,1994,386,0,0
777,638,0,0,0,0,0,0,0,0,0,-1,2001,386,0,0
784,638,0,0,0,0,0,0,0,0,0,-1,2008,386,0,0
791,638,0,0,0,0,0,0,0,0,0,-1,2015,386,0,0
798,638,0,0,0,0,0,0,0,0,0,-1,2022,386,0,0
805,638,0,0,0,0,0,0,0,0,0,-1,2029,386,0,0
812,638,0,0,0,0,0,0,0,0,0,-1,2036,386,0,0
-700,631,0,0,0,0,0,0,0,0,0,-1,524,393,0,0
-693,631,0,0,0,0,0,0,0,0,0,-1,531,393,0,0
-686,631,0,0,0,0,0,0,0,0,0,-1,538,393,0,0
-679,631,0,0,0,0,0,0,0,0,0,-1,545,393,0,0
-672,631,0,0,0,0,0,0,0,0,0,-1,552,393,0,0
-665,631,0,0,0,0,0,0,0,0,0,-1,559,393,0,0
-658,631,0,0,0,0,0,0,0,0,0,-1,566,393,0,0
-651,631,0,0,0,0,0,0,0,0,0,-1,573,393,0,0
-644,631,0,0,0,0,0,0,0,0,0,-1,580,393,0,0
-637,631,0,0,0,0,0,0,0,0,0,-1,587,393,0,0
-630,631,0,0,0,0,0,0,0,0,0,-1,594,393,0,0
-623,631,0,0,0,0,0,0,0,0,0,-1,601,393,0,0
-616,631,0,0,0,0,0,0,0,0,0,-1,608,393,0,0
-609,631,0,0,0,0,0,0,0,0,0,-1,615,393,0,0
-602,631,0,0,0,0,0,0,0,0,0,-1,622,393,0,0
-595,631,0,0,0,0,0,0,0,0,0,-1,629,393,0,0
-588,631,0,0,0,0,0,0,0,0,0,-1,636,393,0,0
-581,631,0,0,0,0,0,0,0,0,0,-1,643,393,0,0
-574,631,0,0,0,0,0,0,0,0,0,-1,650,393,0,0
-567,631,0,0,0,0,0,0,0,0,0,-1,657,393,0,0
-560,631,0,0,0,0,0,0,0,0,0,-1,664,393,0,0
-553,631,0,0,0,0,0,0,0,0,0,-1,671,393,0,0
-546,631,0,0,0,0,0,0,0,0,0,-1,678,393,0,0
-539,631,0,0,0,0,0,0,0,0,0,-1,685,393,0,0
-532,631,0,0,0,0,0,0,0,0,0,-1,692,393,0,0
-525,631,0,0,0,0,0,0,0,0,0,-1,699,393,0,0
-518,631,0,0,0,0,0,0,0,0,0,-1,706,393,0,0
-511,631,0,0,0,0,0,0,0,0,0,-1,713,393,0,0
-504,631,0,0,0,0,0,0,0,0,0,-1,720,393,0,0
-497,631,0,0,0,0,0,0,0,0,0,-1,727,393,0,0
-490,631,0,0,0,0,0,0,0,0,0,-1,734,393,0,0
-483,631,0,0,0,0,0,0,0,0,0,-1,741,393,0,0
-476,631,0,0,0,0,0,0,0,0,0,-1,748,393,0,0
-469,631,0,0,0,0,0,0,0,0,0,-1,755,393,0,0
-462,631,0,0,0,0,0,0,0,0,0,-1,762,393,0,0
-455,631,0,0,0,0,0,0,0,0,0,-1,769,393,0,0
-448,631,0,0,0,0,0,0,0,0,0,-1,776,393,0,0
-441,631,0,0,0,0,0,0,0,0,0,-1,783,393,0,0
-434,631,0,0,0,0,0,0,0,0,0,-1,790,393,0,0
-427,631,0,0,0,0,0,0,0,0,0,-1,797,393,0,0
-420,631,0,0,0,0,0,0,0,0,0,-1,804,393,0,0
-413,631,0,0,0,0,0,0,0,0,0,-1,811,393,0,0
-406,631,0,0,0,0,0,0,0,0,0,-1,818,393,0,0
-399,631,0,0,0,0,0,0,0,0,0,-1,825,393,0,0
-392,631,0,0,0,0,0,0,0,0,0,-1,832,393,0,0
-385,631,0,0,0,0,0,0,0,0,0,-1,839,393,0,0
-378,631,0,0,0,0,0,0,0,0,0,-1,846,393,0,0
-371,631,0,0,0,0,0,0,0,0,0,-1,853,393,0,0
-364,631,0,0,0,0,0,0,0,0,0,-1,860,393,0,0
-357,631,0,0,0,0,0,0,0,0,0,-1,867,393,0,0
-350,631,0,0,0,0,0,0,0,0,0,-1,874,393,0,0
-343,631,0,0,0,0,0,0,0,0,0,-1,881,393,0,0
-336,631,0,0,0,0,0,0,0,0,0,-1,888,393,0,0
-329,631,0,0,0,0,0,0,0,0,0,-1,895,393,0,0
-322,631,0,0,0,0,0,0,0,0,0,-1,902,393,0,0
-315,631,0,0,0,0,0,0,0,0,0,-1,909,393,0,0
-308,631,0,0,0,0,0,0,0,0,0,-1,916,393,0,0
-301,631,0,0,0,0,0,0,0,0,0,-1,923,393,0,0
-294,631,0,0,0,0,0,0,0,0,0,-1,930,393,0,0
-287,631,0,0,0,0,0,0,0,0,0,-1,937,393,0,0
-280,631,7.71283,-34.969,0,0,0,0,0,0,0,-1,944,393,7.71282,34.969
-273,631,8.04437,-34.934,0,0,0,0,0,0,0,-1,951,393,8.04436,34.9339
-266,631,8.40277,-34.7584,0,0,0,0,0,0,0,-1,958,393,8.40275,34.7584
-259,631,8.56659,-34.037,0,0,0,0,0,0,0,-1,965,393,8.56662,34.037
-252,631,8.44446,-33.2643,0,0,0,0,0,0,0,-1,972,393,8.44445,33.2644
-245,631,8.34705,-32.527,0,0,0,0,0,0,0,-1,979,393,8.34704,32.527
-238,631,8.41888,-31.8855,0,0,0,0,0,0,0,-1,986,393,8.41887,31.8855
-231,631,2.14966,-25.2306,0,0,0,0,0,0,0,-1,993,393,2.14968,25.2306
-224,631,6.83575,-19.7909,0,0,0,0,0,0,0,-1,1000,393,6.83575,19.7909
-217,631,5.05188,-18.3867,0,0,0,0,0,0,0,-1,1007,393,5.0519,18.3866
-210,631,3.37842,-26.3769,0,0,0,0,0,0,0,-1,1014,393,3.37839,26.3769
-203,631,5.05298,-26.4169,0,0,0,0,0,0,0,-1,1021,393,5.05302,26.4169
-196,631,6.37903,-32.8375,0,0,0,0,0,0,0,-1,1028,393,6.37901,32.8375
-189,631,6.42029,-37.383,0,0,0,0,0,0,0,-1,1035,393,6.42025,37.383
-182,631,6.29346,-38.1522,0,0,0,0,0,0,0,-1,1042,393,6.29341,38.1522
-175,631,6.52185,-38.9534,0,0,0,0,0,0,0,-1,1049,393,6.52182,38.9534
-168,631,6.34924,-39.6088,-0.00361035,0.0169467,-0.00754959,0.0194213,-0.00608505,-1.25404,0.0153825,0.0288215,1056,393,6.34921,39.6088
-161,631,6.28235,-40.1824,-0.00380652,0.0151669,-0.0065327,0.0171986,-0.00583822,-1.26927,0.0138289,0.0168208,1063,393,6.28231,40.1824
-154,631,6.25171,-40.7152,-0.00384736,0.0134052,-0.00573414,0.0151372,-0.00557931,-1.27747,0.0123777,0.0158191,1070,393,6.25168,40.7152
-147,631,6.21692,-41.1808,-0.00392991,0.0118842,-0.00497061,0.0133167,-0.00536247,-1.29019,0.0111056,0.0147106,1077,393,6.21697,41.1808
-140,631,6.18127,-41.6485,-0.00393743,0.0106457,-0.00430786,0.0118232,-0.0051149,-1.30398,0.0100316,0.0111601,1084,393,6.18133,41.6485
-133,631,6.11267,-42.0897,-0.00393521,0.00930468,-0.00372234,0.0102794,-0.00490997,-1.31468,0.00895039,0.00839706,1091,393,6.11265,42.0897
-126,631,6.08765,-42.5019,-0.00391133,0.00832063,-0.00316256,0.00908992,-0.00468063,-1.33218,0.00808514,0.012696,1098,393,6.08768,42.5019
-119,631,6.05408,-42.9117,-0.00369387,0.00763824,-0.00283194,0.00830655,-0.00436217,-1.33905,0.00743152,0.0161948,1105,393,6.05406,42.9116
-112,631,6.02295,-43.3401,-0.00338592,0.00696175,-0.00248951,0.00752954,-0.00395371,-1.34656,0.00673615,0.0148527,1112,393,6.02289,43.3402
-105,631,6.04724,-43.745,-0.00312679,0.00633085,-0.00222856,0.00682966,-0.00362561,-1.3506,0.00613011,0.0196834,1119,393,6.04729,43.745
-98,631,6.00085,-44.142,-0.00289244,0.00556701,-0.00195055,0.0059951,-0.00332053,-1.35475,0.00545177,0.0172559,1126,393,6.00087,44.142
-91,631,5.93298,-44.5214,-0.00258935,0.00483832,-0.00168357,0.0052021,-0.00295313,-1.35799,0.00476773,0.0178957,1133,393,5.933,44.5214
-84,631,5.89526,-44.8953,-0.00219221,0.00402628,-0.00143211,0.00434024,-0.00250617,-1.35498,0.00399977,0.0169741,1140,393,5.89527,44.8953
-77,631,5.87,-45.2423,-0.00184709,0.00337663,-0.001183,0.00363205,-0.00210251,-1.35815,0.00334988,0.0116729,1147,393,5.86996,45.2423
-70,631,5.8728,-45.5743,-0.0015772,0.00297777,-0.000987078,0.00318247,-0.00178191,-1.36631,0.00290396,0.0126705,1154,393,5.87286,45.5744
-63,631,5.86707,-45.9044,-0.00116325,0.00273769,-0.000915688,0.00294194,-0.0013675,-1.35133,0.00254281,0.0133234,1161,393,5.8671,45.9044
-56,631,5.83557,-46.2148,-0.000777939,0.00235927,-0.000771667,0.00253881,-0.000957474,-1.3422,0.00208626,0.0143018,1168,393,5.83558,46.2148
-49,631,5.83386,-46.4529,-0.000479747,0.00213071,-0.00056809,0.00224898,-0.000598017,-1.36554,0.00173339,0.0108938,1175,393,5.83391,46.453
-42,631,5.84436,-46.6978,6.07963e-05,0.00196168,-0.000453679,0.00206441,-4.19302e-05,-1.34812,0.00139046,0.0093839,1182,393,5.84439,46.6978
-35,631,5.84387,-46.9651,0.000697318,0.0018413,-0.000526373,0.00204664,0.000491978,-1.19885,0.00123358,0.0101628,1189,393,5.8439,46.9651
-28,631,5.84766,-47.2091,0.00150158,0.00158257,-0.000737017,0.0022802,0.000803946,-0.81284,0.00133541,0.0129072,1196,393,5.84761,47.2091
-21,631,5.82092,-47.4279,0.00241927,0.00130245,-0.00102461,0.00302776,0.000693963,-0.535903,0.00183155,0.0113358,1203,393,5.82095,47.4279
-14,631,5.81177,-47.638,0.00327941,0.00100877,-0.00130484,0.0038737,0.000414477,-0.427378,0.00245599,0.0136283,1210,393,5.8118,47.638
-7,631,5.83472,-47.8535,0.00419832,0.000934513,-0.0016924,0.00491744,0.000215387,-0.401798,0.00320891,0.0217364,1217,393,5.8347,47.8535
0,631,5.82202,-48.0257,0.00495063,0.000932214,-0.00204876,0.00581097,7.18713e-05,-0.397572,0.00385025,0.0245034,1224,393,5.82198,48.0257
7,631,5.82446,-48.1671,0.00541464,0.000995827,-0.0022418,0.00635279,5.76731e-05,-0.396338,0.0042161,0.0190975,1231,393,5.82443,48.1671
14,631,5.85669,-48.3,0.00557463,0.00116907,-0.00226944,0.00653454,0.000209162,-0.400152,0.00428834,0.0109867,1238,393,5.85672,48.3
21,631,5.87952,-48.4017,0.00545671,0.00142696,-0.00212626,0.00637112,0.000512553,-0.406144,0.00408729,0.0137051,1245,393,5.87953,48.4017
28,631,5.8728,-48.4771,0.0052103,0.00166008,-0.00191117,0.00604356,0.00082682,-0.411147,0.00378367,0.015962,1252,393,5.8728,48.4771
35,631,5.90991,-48.5421,0.00471884,0.00196252,-0.00155002,0.00541478,0.00126658,-0.422012,0.00327046,0.0154211,1259,393,5.90986,48.5421
42,631,5.96021,-48.6104,0.00404178,0.00221959,-0.00106161,0.00452965,0.00173172,-0.430774,0.00263923,0.0131252,1266,393,5.96018,48.6104
49,631,5.96497,-48.6729,0.00305824,0.00244382,-0.000601323,0.00342628,0.00207577,-0.549237,0.00199288,0.0115684,1273,393,5.96497,48.6729
56,631,5.98865,-48.719,0.00201596,0.00248985,-0.000145639,0.00253103,0.00197478,-1.29523,0.00153589,0.0138728,1280,393,5.98868,48.719
63,631,5.98596,-48.7541,0.000879558,0.00232011,0.00031911,0.00238764,0.000812034,1.36227,0.0014018,0.0166729,1287,393,5.98599,48.7541
70,631,5.98364,-48.6975,-0.000295976,0.00197065,0.000725011,0.00218272,-0.000508039,1.28624,0.00165076,0.0167934,1294,393,5.9836,48.6975
77,631,6.02039,-48.6446,-0.00146407,0.00187347,0.00108716,0.00219636,-0.00178697,1.28209,0.00230382,0.0161077,1301,393,6.02034,48.6446
84,631,6.06128,-48.6065,-0.00210685,0.00222322,0.000856754,0.00238657,-0.00227021,1.38239,0.00268888,0.0135654,1308,393,6.06127,48.6065
91,631,6.0791,-48.5405,-0.00257708,0.00276143,0.000423639,0.00279484,-0.00261048,1.4921,0.00312137,0.016116,1315,393,6.0791,48.5405
98,631,6.09094,-48.4631,-0.00299839,0.00271685,0.000202988,0.00272405,-0.00300559,1.53534,0.00330934,0.0130336,1322,393,6.09099,48.4631
105,631,6.08667,-48.362,-0.00310625,0.00297737,-9.0817e-05,0.00297873,-0.0031076,-1.55587,0.00351421,0.0109496,1329,393,6.08667,48.362
112,631,6.09802,-48.2279,-0.00294361,0.00353374,-0.00053461,0.00357757,-0.00298743,-1.489,0.00379541,0.0123444,1336,393,6.09797,48.2279
119,631,6.11682,-48.0961,-0.00258545,0.00408999,-0.000998,0.004236,-0.00273146,-1.42552,0.00405381,0.0134755,1343,393,6.11682,48.0961
126,631,6.12561,-47.9197,-0.00212107,0.00472523,-0.00142607,0.0050104,-0.00240624,-1.37343,0.0043691,0.0181464,1350,393,6.12561,47.9197
133,631,6.14197,-47.7144,-0.00162977,0.00549543,-0.00167037,0.00586758,-0.00200192,-1.35158,0.00472264,0.0198303,1357,393,6.14197,47.7143
140,631,6.15662,-47.5305,-0.00107715,0.00597171,-0.00176398,0.0063885,-0.00149394,-1.33877,0.00483454,0.0209207,1364,393,6.15666,47.5306
147,631,6.14392,-47.2974,-0.000554498,0.00630242,-0.00172675,0.00671271,-0.000964787,-1.33751,0.00482897,0.0228972,1371,393,6.1439,47.2974
154,631,6.16772,-47.0519,2.48876e-05,0.00644078,-0.00154392,0.00679297,-0.00032731,-1.34652,0.0046416,0.0208895,1378,393,6.16773,47.0519
161,631,6.18457,-46.791,0.000404208,0.00661339,-0.00125356,0.00685692,0.00016068,-1.37892,0.00451867,0.0231818,1385,393,6.18456,46.7911
168,631,6.18237,-46.5053,0.000506852,0.00661634,-0.000870857,0.00673805,0.000385144,-1.43194,0.00436931,0.0280685,1392,393,6.1824,46.5053
175,631,6.18982,-46.2823,0.000482665,0.00662258,-0.000461786,0.00665711,0.000448128,-1.49615,0.0042965,0.0207242,1399,393,6.18983,46.2823
182,631,6.15784,-45.9981,0.000270771,0.00658047,-6.84142e-05,0.00658121,0.000270029,-1.55996,0.00430029,0.0113247,1406,393,6.1578,45.9981
189,631,6.13342,-45.6598,-0.000250661,0.00594237,0.000801137,0.00604432,-0.000352618,1.44421,0.00415208,0.0108001,1413,393,6.13343,45.6598
196,631,6.10791,-45.3333,-0.000596347,0.00521087,0.00161369,0.00562914,-0.00101462,1.31717,0.0041327,0.012318,1420,393,6.10787,45.3333
203,631,6.10352,-45.0016,-0.000926595,0.00564714,0.00197213,0.00619339,-0.00147285,1.30059,0.00469748,0.0146391,1427,393,6.10354,45.0016
210,631,6.09375,-44.6622,-0.00120686,0.00586158,0.00228586,0.00653638,-0.00188167,1.28374,0.00510182,0.0164226,1434,393,6.09374,44.6622
217,631,6.07849,-44.3035,-0.00121731,0.00647641,0.0023304,0.00712723,-0.00186813,1.29846,0.00548136,0.017455,1441,393,6.07851,44.3035
224,631,6.04504,-43.8844,-0.000441206,0.00678108,0.00232702,0.00746591,-0.00112603,1.28458,0.00539195,0.0136319,1448,393,6.04509,43.8844
231,631,5.99805,-43.4633,0.000919156,0.00720198,0.00272836,0.00822139,-0.00010025,1.21322,0.00551465,0.0115299,1455,393,5.99808,43.4633
238,631,5.9762,-43.0194,0.00212845,0.00829591,0.00345308,0.00984177,0.000582587,1.14988,0.00637586,0.0184273,1462,393,5.97623,43.0194
245,631,5.95862,-42.5905,0.00320987,0.0092586,0.00389023,0.0111618,0.0013067,1.11581,0.00704612,0.0195706,1469,393,5.95863,42.5906
252,631,5.89368,-42.1652,0.00439871,0.0103959,0.00447515,0.0127842,0.00201043,1.08057,0.007938,0.0179731,1476,393,5.89373,42.1652
259,631,5.85803,-41.7002,0.00555245,0.0118168,0.00519541,0.0147512,0.00261809,1.05666,0.009088,0.0130521,1483,393,5.85801,41.7002
266,631,5.86914,-41.2201,0.00655804,0.0130037,0.00590568,0.0165087,0.00305304,1.03517,0.0101425,0.0113257,1490,393,5.8691,41.2201
273,631,5.83215,-40.7257,0.00745589,0.0145355,0.00681863,0.0186784,0.00331299,1.02482,0.011508,0.01353,1497,393,5.83221,40.7257
280,631,5.78247,-40.218,0.00817525,0.0161436,0.00777225,0.0208933,0.00342549,1.02224,0.0129391,0.0139392,1504,393,5.78253,40.218
287,631,5.7655,-39.6419,0.00861824,0.0179464,0.008798,0.0232401,0.00332448,1.02913,0.0145127,0.0174966,1511,393,5.76548,39.6419
294,631,5.69922,-39.0081,0.00871601,0.0196826,0.00969161,0.0253346,0.00306406,1.04284,0.0159667,0.0234294,1518,393,5.69924,39.0081
301,631,5.60437,-38.3959,0.00855288,0.021241,0.0104522,0.0271238,0.00267014,1.05816,0.0172614,0.0340218,1525,393,5.60436,38.3959
308,631,5.72974,-37.6887,0.00821122,0.0228393,0.0111723,0.0288787,0.00217177,1.07522,0.0185709,0.037683,1532,393,5.72976,37.6887
315,631,5.7583,-37.4429,0.00769788,0.0243255,0.0118518,0.0304887,0.00153463,1.09126,0.0198341,0.0459139,1539,393,5.75832,37.4429
322,631,5.67969,-37.0061,0,0,0,0,0,0,0,-1,1546,393,5.67971,37.0061
329,631,5.81348,-35.3645,0,0,0,0,0,0,0,-1,1553,393,5.81344,35.3645
336,631,5.64233,-35.1712,0,0,0,0,0,0,0,-1,1560,393,5.64236,35.1712
343,631,5.47131,-34.9778,0,0,0,0,0,0,0,-1,1567,393,5.47129,34.9778
350,631,2.1344,-9.23401,0,0,0,0,0,0,0,-1,1574,393,2.13439,9.23401
357,631,2.6449,-9.60303,0,0,0,0,0,0,0,-1,1581,393,2.64491,9.60304
364,631,3.39136,-5.7594,0,0,0,0,0,0,0,-1,1588,393,3.39137,5.75939
371,631,3.72839,-6.0574,0,0,0,0,0,0,0,-1,1595,393,3.72845,6.05742
378,631,4.06555,-6.35544,0,0,0,0,0,0,0,-1,1602,393,4.06553,6.35544
385,631,3.90442,-3.58298,0,0,0,0,0,0,0,-1,1609,393,3.90437,3.58299
392,631,0.352295,-2.21301,0,0,0,0,0,0,0,-1,1616,393,0.352345,2.213
399,631,0,0,0,0,0,0,0,0,0,-1,1623,393,0,0
406,631,0,0,0,0,0,0,0,0,0,-1,1630,393,0,0
413,631,0,0,0,0,0,0,0,0,0,-1,1637,393,0,0
420,631,0,0,0,0,0,0,0,0,0,-1,1644,393,0,0
427,631,0,0,0,0,0,0,0,0,0,-1,1651,393,0,0
434,631,0,0,0,0,0,0,0,0,0,-1,1658,393,0,0
441,631,0,0,0,0,0,0,0,0,0,-1,1665,393,0,0
448,631,0,0,0,0,0,0,0,0,0,-1,1672,393,0,0
455,631,0,0,0,0,0,0,0,0,0,-1,1679,393,0,0
462,631,0,0,0,0,0,0,0,0,0,-1,1686,393,0,0
469,631,0,0,0,0,0,0,0,0,0,-1,1693,393,0,0
476,631,0,0,0,0,0,0,0,0,0,-1,1700,393,0,0
483,631,0,0,0,0,0,0,0,0,0,-1,1707,393,0,0
490,631,0,0,0,0,0,0,0,0,0,-1,1714,393,0,0
497,631,0,0,0,0,0,0,0,0,0,-1,1721,393,0,0
504,631,0,0,0,0,0,0,0,0,0,-1,1728,393,0,0
511,631,0,0,0,0,0,0,0,0,0,-1,1735,393,0,0
518,631,0,0,0,0,0,0,0,0,0,-1,1742,393,0,0
525,631,0,0,0,0,0,0,0,0,0,-1,1749,393,0,0
532,631,0,0,0,0,0,0,0,0,0,-1,1756,393,0,0
539,631,0,0,0,0,0,0,0,0,0,-1,1763,393,0,0
546,631,0,0,0,0,0,0,0,0,0,-1,1770,393,0,0
553,631,0,0,0,0,0,0,0,0,0,-1,1777,393,0,0
560,631,0,0,0,0,0,0,0,0,0,-1,1784,393,0,0
567,631,0,0,0,0,0,0,0,0,0,-1,1791,393,0,0
574,631,0,0,0,0,0,0,0,0,0,-1,1798,393,0,0
581,631,0,0,0,0,0,0,0,0,0,-1,1805,393,0,0
588,631,0,0,0,0,0,0,0,0,0,-1,1812,393,0,0
595,631,0,0,0,0,0,0,0,0,0,-1,1819,393,0,0
602,631,0,0,0,0,0,0,0,0,0,-1,1826,393,0,0
609,631,0,0,0,0,0,0,0,0,0,-1,1833,393,0,0
616,631,0,0,0,0,0,0,0,0,0,-1,1840,393,0,0
623,631,0,0,0,0,0,0,0,0,0,-1,1847,393,0,0
630,631,0,0,0,0,0,0,0,0,0,-1,1854,393,0,0
637,631,0,0,0,0,0,0,0,0,0,-1,1861,393,0,0
644,631,0,0,0,0,0,0,0,0,0,-1,1868,393,0,0
651,631,0,0,0,0,0,0,0,0,0,-1,1875,393,0,0
658,631,0,0,0,0,0,0,0,0,0,-1,1882,393,0,0
665,631,0,0,0,0,0,0,0,0,0,-1,1889,393,0,0
672,631,0,0,0,0,0,0,0,0,0,-1,1896,393,0,0
679,631,0,0,0,0,0,0,0,0,0,-1,1903,393,0,0
686,631,0,0,0,0,0,0,0,0,0,-1,1910,393,0,0
693,631,0,0,0,0,0,0,0,0,0,-1,1917,393,0,0
700,631,0,0,0,0,0,0,0,0,0,-1,1924,393,0,0
707,631,0,0,0,0,0,0,0,0,0,-1,1931,393,0,0
714,631,0,0,0,0,0,0,0,0,0,-1,1938,393,0,0
721,631,0,0,0,0,0,0,0,0,0,-1,1945,393,0,0
728,631,0,0,0,0,0,0,0,0,0,-1,1952,393,0,0
735,631,0,0,0,0,0,0,0,0,0,-1,1959,393,0,0
742,631,0,0,0,0,0,0,0,0,0,-1,1966,393,0,0
749,631,0,0,0,0,0,0,0,0,0,-1,1973,393,0,0
756,631,0,0,0,0,0,0,0,0,0,-1,1980,393,0,0
763,631,0,0,0,0,0,0,0,0,0,-1,1987,393,0,0
770,631,0,0,0,0,0,0,0,0,0,-1,1994,393,0,0
777,631,0,0,0,0,0,0,0,0,0,-1,2001,393,0,0
784,631,0,0,0,0,0,0,0,0,0,-1,2008,393,0,0
791,631,0,0,0,0,0,0,0,0,0,-1,2015,393,0,0
798,631,0,0,0,0,0,0,0,0,0,-1,2022,393,0,0
805,631,0,0,0,0,0,0,0,0,0,-1,2029,393,0,0
812,631,0,0,0,0,0,0,0,0,0,-1,2036,393,0,0
-700,624,0,0,0,0,0,0,0,0,0,-1,524,400,0,0
-693,624,0,0,0,0,0,0,0,0,0,-1,531,400,0,0
-686,624,0,0,0,0,0,0,0,0,0,-1,538,400,0,0
-679,624,0,0,0,0,0,0,0,0,0,-1,545,400,0,0
-672,624,0,0,0,0,0,0,0,0,0,-1,552,400,0,0
-665,624,0,0,0,0,0,0,0,0,0,-1,559,400,0,0
-658,624,0,0,0,0,0,0,0,0,0,-1,566,400,0,0
-651,624,0,0,0,0,0,0,0,0,0,-1,573,400,0,0
-644,624,0,0,0,0,0,0,0,0,0,-1,580,400,0,0
-637,624,0,0,0,0,0,0,0,0,0,-1,587,400,0,0
-630,624,0,0,0,0,0,0,0,0,0,-1,594,400,0,0
-623,624,0,0,0,0,0,0,0,0,0,-1,601,400,0,0
-616,624,0,0,0,0,0,0,0,0,0,-1,608,400,0,0
-609,624,0,0,0,0,0,0,0,0,0,-1,615,400,0,0
-602,624,0,0,0,0,0,0,0,0,0,-1,622,400,0,0
-595,624,0,0,0,0,0,0,0,0,0,-1,629,400,0,0
-588,624,0,0,0,0,0,0,0,0,0,-1,636,400,0,0
-581,624,0,0,0,0,0,0,0,0,0,-1,643,400,0,0
-574,624,0,0,0,0,0,0,0,0,0,-1,650,400,0,0
-567,624,0,0,0,0,0,0,0,0,0,-1,657,400,0,0
-560,624,0,0,0,0,0,0,0,0,0,-1,664,400,0,0
-553,624,0,0,0,0,0,0,0,0,0,-1,671,400,0,0
-546,624,0,0,0,0,0,0,0,0,0,-1,678,400,0,0
-539,624,0,0,0,0,0,0,0,0,0,-1,685,400,0,0
-532,624,0,0,0,0,0,0,0,0,0,-1,692,400,0,0
-525,624,0,0,0,0,0,0,0,0,0,-1,699,400,0,0
-518,624,0,0,0,0,0,0,0,0,0,-1,706,400,0,0
-511,624,0,0,0,0,0,0,0,0,0,-1,713,400,0,0
-504,624,0,0,0,0,0,0,0,0,0,-1,720,400,0,0
-497,624,0,0,0,0,0,0,0,0,0,-1,727,400,0,0
-490,624,0,0,0,0,0,0,0,0,0,-1,734,400,0,0
-483,624,0,0,0,0,0,0,0,0,0,-1,741,400,0,0
-476,624,0,0,0,0,0,0,0,0,0,-1,748,400,0,0
-469,624,0,0,0,0,0,0,0,0,0,-1,755,400,0,0
-462,624,0,0,0,0,0,0,0,0,0,-1,762,400,0,0
-455,624,0,0,0,0,0,0,0,0,0,-1,769,400,0,0
-448,624,0,0,0,0,0,0,0,0,0,-1,776,400,0,0
-441,624,0,0,0,0,0,0,0,0,0,-1,783,400,0,0
-434,624,0,0,0,0,0,0,0,0,0,-1,790,400,0,0
-427,624,0,0,0,0,0,0,0,0,0,-1,797,400,0,0
-420,624,0,0,0,0,0,0,0,0,0,-1,804,400,0,0
-413,624,0,0,0,0,0,0,0,0,0,-1,811,400,0,0
-406,624,0,0,0,0,0,0,0,0,0,-1,818,400,0,0
-399,624,0,0,0,0,0,0,0,0,0,-1,825,400,0,0
-392,624,0,0,0,0,0,0,0,0,0,-1,832,400,0,0
-385,624,0,0,0,0,0,0,0,0,0,-1,839,400,0,0
-378,624,0,0,0,0,0,0,0,0,0,-1,846,400,0,0
-371,624,0,0,0,0,0,0,0,0,0,-1,853,400,0,0
-364,624,0,0,0,0,0,0,0,0,0,-1,860,400,0,0
-357,624,0,0,0,0,0,0,0,0,0,-1,867,400,0,0
-350,624,0,0,0,0,0,0,0,0,0,-1,874,400,0,0
-343,624,0,0,0,0,0,0,0,0,0,-1,881,400,0,0
-336,624,0,0,0,0,0,0,0,0,0,-1,888,400,0,0
-329,624,0,0,0,0,0,0,0,0,0,-1,895,400,0,0
-322,624,0,0,0,0,0,0,0,0,0,-1,902,400,0,0
-315,624,0,0,0,0,0,0,0,0,0,-1,909,400,0,0
-308,624,0,0,0,0,0,0,0,0,0,-1,916,400,0,0
-301,624,0,0,0,0,0,0,0,0,0,-1,923,400,0,0
-294,624,5.08527,-28.5311,0,0,0,0,0,0,0,-1,930,400,5.08525,28.5311
-287,624,6.70825,-33.8,0,0,0,0,0,0,0,-1,937,400,6.70827,33.8
-280,624,6.92474,-33.8738,0,0,0,0,0,0,0,-1,944,400,6.92477,33.8739
-273,624,7.09149,-33.6875,0,0,0,0,0,0,0,-1,951,400,7.09148,33.6875
-266,624,7.17694,-33.4507,0,0,0,0,0,0,0,-1,958,400,7.17693,33.4507
-259,624,7.33569,-33.1199,0,0,0,0,0,0,0,-1,965,400,7.33567,33.1199
-252,624,7.5528,-32.8158,0,0,0,0,0,0,0,-1,972,400,7.5528,32.8158
-245,624,6.8396,-32.02,0,0,0,0,0,0,0,-1,979,400,6.83963,32.02
-238,624,6.99402,-31.5278,0,0,0,0,0,0,0,-1,986,400,6.99404,31.5278
-231,624,3.86121,-29.6032,0,0,0,0,0,0,0,-1,993,400,3.86122,29.6032
-224,624,4.59351,-27.4048,0,0,0,0,0,0,0,-1,1000,400,4.59353,27.4048
-217,624,5.90167,-32.048,0,0,0,0,0,0,0,-1,1007,400,5.90167,32.048
-210,624,6.22577,-36.3669,0,0,0,0,0,0,0,-1,1014,400,6.22576,36.367
-203,624,6.12805,-36.8008,0,0,0,0,0,0,0,-1,1021,400,6.12809,36.8008
-196,624,6.04895,-37.3451,0,0,0,0,0,0,0,-1,1028,400,6.04895,37.3451
-189,624,5.94788,-37.7976,-0.00188978,0.0211511,-0.00950799,0.024568,-0.00530662,-1.2258,0.0184043,0.0475141,1035,400,5.94793,37.7976
-182,624,5.9231,-38.437,-0.002116,0.0181015,-0.0083448,0.0211009,-0.00511535,-1.22575,0.0160465,0.0413331,1042,400,5.92312,38.437
-175,624,5.99036,-39.1136,-0.00243727,0.015211,-0.00706402,0.0176902,-0.00491648,-1.23326,0.0137289,0.0275966,1049,400,5.9903,39.1136
-168,624,5.91248,-39.7045,-0.00267402,0.0133875,-0.00608028,0.0154296,-0.00471614,-1.24677,0.012167,0.0157276,1056,400,5.91244,39.7045
-161,624,5.83191,-40.2512,-0.00274181,0.0118649,-0.00526809,0.0135666,-0.00444356,-1.25835,0.0108337,0.0111517,1063,400,5.83195,40.2512
-154,624,5.8147,-40.7245,-0.00267947,0.010386,-0.00459877,0.0118423,-0.00413581,-1.26411,0.00957598,0.0102766,1070,400,5.81475,40.7245
-147,624,5.79785,-41.1931,-0.00264616,0.00905752,-0.00395283,0.0102675,-0.00385611,-1.27376,0.00842966,0.0111095,1077,400,5.79779,41.1931
-140,624,5.76599,-41.656,-0.00255065,0.00789228,-0.00337642,0.00888885,-0.00354721,-1.28379,0.00739745,0.00943439,1084,400,5.76603,41.656
-133,624,5.70691,-42.1047,-0.00245047,0.0066516,-0.00286028,0.00747579,-0.00327467,-1.29024,0.0063628,0.0105408,1091,400,5.70696,42.1047
-126,624,5.65942,-42.5236,-0.00233214,0.00570866,-0.0023696,0.00635502,-0.0029785,-1.3045,0.00550499,0.0130137,1098,400,5.65945,42.5236
-119,624,5.62097,-42.9292,-0.00204729,0.00502207,-0.00205044,0.00557374,-0.00259896,-1.30797,0.00482157,0.0148541,1105,400,5.62102,42.9292
-112,624,5.62549,-43.3244,-0.00170079,0.00437152,-0.00173305,0.00483132,-0.00216059,-1.31146,0.00413378,0.0170007,1112,400,5.62548,43.3244
-105,624,5.65967,-43.7362,-0.00139427,0.00378067,-0.00150333,0.00418569,-0.00179929,-1.30763,0.00354581,0.0128574,1119,400,5.6597,43.7362
-98,624,5.60791,-44.1393,-0.00109061,0.00313081,-0.00128638,0.00349191,-0.00145171,-1.29713,0.0029341,0.0133199,1126,400,5.60794,44.1393
-91,624,5.58923,-44.5361,-0.000723531,0.00256225,-0.0010751,0.00288276,-0.00104404,-1.28107,0.00234852,0.0208017,1133,400,5.58928,44.5361
-84,624,5.61035,-44.914,-0.000295867,0.00197306,-0.000859687,0.002262,-0.000584804,-1.24656,0.00173608,0.0196447,1140,400,5.6103,44.914
-77,624,5.58337,-45.2526,7.32947e-05,0.00145442,-0.000651965,0.00171356,-0.000185846,-1.19247,0.00120909,0.0141349,1147,400,5.58343,45.2526
-70,624,5.59167,-45.5617,0.000430846,0.00114084,-0.000496239,0.00139599,0.000175698,-1.09588,0.000877973,0.0151849,1154,400,5.59163,45.5617
-63,624,5.60486,-45.881,0.00088263,0.00086986,-0.000365986,0.00124229,0.000510203,-0.776676,0.000721038,0.0170489,1161,400,5.60481,45.881
-56,624,5.56409,-46.1825,0.00126489,0.00021878,-0.000130363,0.00128089,0.00020278,-0.122129,0.000794998,0.0142105,1168,400,5.56403,46.1825
-49,624,5.57312,-46.4761,0.00152691,-0.000248796,-9.4703e-06,0.00152696,-0.000248847,-0.00533305,0.00111026,0.0111419,1175,400,5.5731,46.4761
-42,624,5.58044,-46.7187,0.00219804,-0.00068327,-0.000308075,0.00223061,-0.000715842,-0.105335,0.00177449,0.00986828,1182,400,5.58041,46.7187
-35,624,5.5874,-46.9608,0.00300222,-0.00105506,-0.000792429,0.0031515,-0.00120433,-0.186198,0.00259725,0.015161,1189,400,5.5874,46.9607
-28,624,5.60193,-47.2422,0.00440637,-0.00157203,-0.00152101,0.00477109,-0.00193675,-0.235346,0.00398635,0.0196085,1196,400,5.60196,47.2421
-21,624,5.59277,-47.4543,0.00575414,-0.00212478,-0.00223437,0.00634367,-0.00271431,-0.257967,0.00536773,0.0138973,1203,400,5.59276,47.4543
-14,624,5.60742,-47.6414,0.00681631,-0.00264394,-0.00282189,0.0075941,-0.00342173,-0.268949,0.00651028,0.0153256,1210,400,5.60742,47.6414
-7,624,5.66101,-47.7942,0.00791709,-0.00273171,-0.00352134,0.00897619,-0.00379081,-0.292159,0.00757097,0.0206564,1217,400,5.66097,47.7942
0,624,5.69861,-47.9718,0.00873516,-0.00279542,-0.00405932,0.0100209,-0.00408114,-0.306735,0.00837908,0.0204711,1224,400,5.69855,47.9718
7,624,5.68811,-48.1448,0.00913746,-0.00277679,-0.0042856,0.0105188,-0.00415818,-0.311817,0.008735,0.015028,1231,400,5.68811,48.1448
14,624,5.74927,-48.3153,0.00911354,-0.00258659,-0.00422396,0.0104791,-0.00395214,-0.312682,0.00861124,0.0127924,1238,400,5.74932,48.3153
21,624,5.78845,-48.417,0.00874919,-0.00233238,-0.00388064,0.00997299,-0.00355618,-0.305489,0.00809864,0.0138471,1245,400,5.78842,48.417
28,624,5.7854,-48.4989,0.00815811,-0.00212801,-0.00337348,0.00916577,-0.00313567,-0.290266,0.0073812,0.0128188,1252,400,5.78543,48.4989
35,624,5.79602,-48.5507,0.00716426,-0.00186855,-0.00264944,0.00788402,-0.00258831,-0.265264,0.00629862,0.0160748,1259,400,5.79596,48.5507
42,624,5.87549,-48.6234,0.00593584,-0.0016357,-0.0018107,0.00634658,-0.00204644,-0.223065,0.00505327,0.0179095,1266,400,5.87547,48.6235
49,624,5.92249,-48.6502,0.00423186,-0.0015111,-0.00098825,0.00439716,-0.0016764,-0.165732,0.00362195,0.0193503,1273,400,5.92252,48.6502
56,624,5.96777,-48.7062,0.00242403,-0.00166555,-0.000166725,0.00243082,-0.00167233,-0.0406784,0.00238241,0.0199929,1280,400,5.96779,48.7062
63,624,6.00757,-48.7136,0.000643777,-0.0020662,0.000582031,0.000763494,-0.00218591,0.202858,0.00176762,0.016219,1287,400,6.00756,48.7136
70,624,6.01538,-48.7195,-0.00117656,-0.00269546,0.00109358,-0.00060459,-0.00326743,0.481896,0.00200734,0.0141544,1294,400,6.01533,48.7195
77,624,6.05371,-48.6818,-0.00317079,-0.00310562,0.00152843,-0.00160943,-0.00466698,0.796056,0.00273738,0.0144574,1301,400,6.05367,48.6818
84,624,6.10132,-48.6337,-0.00440594,-0.00332768,0.00140949,-0.00235773,-0.00537589,0.968062,0.00311157,0.0133542,1308,400,6.10131,48.6337
91,624,6.151,-48.5415,-0.00520791,-0.00343988,0.00097296,-0.00300931,-0.00563848,1.15417,0.00325784,0.0134491,1315,400,6.15096,48.5415
98,624,6.18188,-48.4669,-0.00589458,-0.00405582,0.000713034,-0.00381172,-0.00613868,1.24097,0.00357856,0.0128723,1322,400,6.18193,48.4669
105,624,6.21265,-48.399,-0.00610471,-0.00426351,0.000339291,-0.00420297,-0.00616524,1.39424,0.00363702,0.0141511,1329,400,6.21261,48.399
112,624,6.2395,-48.275,-0.00591663,-0.00414688,-0.00019596,-0.00412544,-0.00593807,-1.46183,0.00351396,0.0151355,1336,400,6.23947,48.275
119,624,6.26355,-48.1473,-0.0054292,-0.00398569,-0.000712238,-0.00369343,-0.00572146,-1.18142,0.00334961,0.0157562,1343,400,6.26358,48.1473
126,624,6.2666,-47.981,-0.00480103,-0.00357239,-0.00116779,-0.00286719,-0.00550622,-1.02753,0.00317993,0.0189282,1350,400,6.26662,47.981
133,624,6.32251,-47.7257,-0.00397125,-0.00287665,-0.00141545,-0.00190638,-0.00494152,-0.969875,0.00287769,0.0186734,1357,400,6.32254,47.7257
140,624,6.35608,-47.515,-0.00299473,-0.00236581,-0.00151235,-0.00113558,-0.00422496,-0.887901,0.00252473,0.0190194,1364,400,6.35608,47.515
147,624,6.35657,-47.2713,-0.00200979,-0.00193823,-0.00147261,-0.000500964,-0.00344706,-0.797546,0.00215059,0.0237742,1371,400,6.35656,47.2713
154,624,6.43506,-47.0678,-0.000833146,-0.00152238,-0.00136935,0.000234284,-0.00258981,-0.662126,0.0018097,0.0252418,1378,400,6.43504,47.0679
161,624,6.46252,-46.8573,0.000153625,-0.00091042,-0.0012247,0.000956866,-0.00171366,-0.58049,0.00156233,0.0237341,1385,400,6.46248,46.8573
168,624,6.47021,-46.5901,0.000700488,-0.000343428,-0.000982383,0.00129097,-0.000933907,-0.541205,0.00129003,0.024624,1392,400,6.47018,46.5902
175,624,6.49731,-46.3127,0.00120531,0.000302812,-0.000744529,0.00162467,-0.00011654,-0.512956,0.00112397,0.0190637,1399,400,6.49732,46.3127
182,624,6.48047,-46.0109,0.00148609,0.000894532,-0.000571548,0.00183386,0.000546764,-0.546621,0.00108716,0.0111395,1406,400,6.48052,46.0109
189,624,6.45117,-45.6756,0.00129119,0.00145776,-0.000185544,0.00157786,0.00117109,-0.99636,0.000945932,0.010655,1413,400,6.45111,45.6756
196,624,6.43237,-45.3342,0.00102778,0.00197565,0.000310883,0.00206851,0.000934913,1.28052,0.00119609,0.012214,1420,400,6.43232,45.3342
203,624,6.45874,-44.9817,0.000661738,0.00281657,0.000687064,0.003017,0.000461311,1.28696,0.00187656,0.0151755,1427,400,6.45874,44.9816
210,624,6.47119,-44.6405,0.00027,0.00338593,0.001043,0.00370282,-4.68965e-05,1.27583,0.00248433,0.0187181,1434,400,6.47121,44.6405
217,624,6.43274,-44.2703,4.41456e-05,0.00410809,0.00126329,0.00446877,-0.000316539,1.29268,0.00309011,0.0215975,1441,400,6.43272,44.2703
224,624,6.39868,-43.8735,0.000257236,0.00464102,0.00144109,0.00507231,-0.000174062,1.27999,0.00344103,0.016664,1448,400,6.39869,43.8736
231,624,6.3949,-43.4785,0.000886188,0.0051986,0.0018439,0.0058795,0.000205287,1.21706,0.00385306,0.0121633,1455,400,6.39495,43.4785
238,624,6.3811,-43.0778,0.00157244,0.00615861,0.00245839,0.00722736,0.00050369,1.16071,0.00465942,0.0191522,1462,400,6.38105,43.0778
245,624,6.37646,-42.672,0.00221821,0.00705087,0.00287804,0.00839243,0.00087664,1.1346,0.00532684,0.0199569,1469,400,6.37649,42.672
252,624,6.32214,-42.1956,0.00294156,0.00809909,0.00340572,0.0097922,0.00124845,1.10944,0.00615434,0.0139946,1476,400,6.32212,42.1956
259,624,6.30859,-41.7356,0.0036438,0.00935221,0.00404537,0.0114489,0.0015471,1.09262,0.00717275,0.00947546,1483,400,6.30857,41.7356
266,624,6.33167,-41.2384,0.00426763,0.0104041,0.00466357,0.0129182,0.00175349,1.07636,0.00809125,0.012731,1490,400,6.33165,41.2384
273,624,6.30249,-40.7492,0.0048359,0.0116981,0.00541383,0.0146765,0.00185747,1.06784,0.0092277,0.0152766,1497,400,6.30249,40.7492
280,624,6.23486,-40.2786,0.00528162,0.0130268,0.00619601,0.0164609,0.00184754,1.0647,0.0104129,0.0138552,1504,400,6.23488,40.2786
287,624,6.18408,-39.7956,0.00552843,0.0144815,0.00703045,0.0183396,0.00167031,1.06889,0.0117094,0.0110706,1511,400,6.18402,39.7956
294,624,6.14478,-39.268,0.00550715,0.0158287,0.00773908,0.0199699,0.00136594,1.07946,0.0128821,0.0103147,1518,400,6.14476,39.268
301,624,6.11108,-38.6879,0.00529762,0.016992,0.00833563,0.0213268,0.000962853,1.09125,0.013908,0.0126094,1525,400,6.11113,38.6879
308,624,6.08594,-38.1204,0.00496073,0.0181283,0.00890245,0.022617,0.000472024,1.10379,0.0149231,0.0172613,1532,400,6.0859,38.1204
315,624,6.06689,-37.5639,0.00448756,0.0191938,0.00942866,0.0237976,-0.000116245,1.11657,0.015904,0.0212603,1539,400,6.06691,37.5639
322,624,6.05945,-37.0148,0.00386084,0.0198295,0.00995138,0.0246037,-0.000913332,1.12348,0.0167152,0.0399945,1546,400,6.05948,37.0148
329,624,6.04199,-36.4845,0,0,0,0,0,0,0,-1,1553,400,6.04197,36.4845
336,624,6.0166,-35.4898,0,0,0,0,0,0,0,-1,1560,400,6.01665,35.4898
343,624,6.12463,-35.0139,0,0,0,0,0,0,0,-1,1567,400,6.12463,35.0139
350,624,1.99194,-7.29742,0,0,0,0,0,0,0,-1,1574,400,1.99198,7.29741
357,624,2.64075,-3.13092,0,0,0,0,0,0,0,-1,1581,400,2.64076,3.13091
364,624,3.16565,-4.9458,0,0,0,0,0,0,0,-1,1588,400,3.16564,4.94579
371,624,3.37561,-5.23529,0,0,0,0,0,0,0,-1,1595,400,3.37563,5.23529
378,624,1.50439,-5.22165,0,0,0,0,0,0,0,-1,1602,400,1.50438,5.22164
385,624,1.2301,-10.5866,0,0,0,0,0,0,0,-1,1609,400,1.2301,10.5866
392,624,4.26819,-5.14236,0,0,0,0,0,0,0,-1,1616,400,4.26818,5.14236
399,624,2.22168,-9.19293,0,0,0,0,0,0,0,-1,1623,400,2.22173,9.19294
406,624,2.68213,-9.91171,0,0,0,0,0,0,0,-1,1630,400,2.68213,9.91171
413,624,0,0,0,0,0,0,0,0,0,-1,1637,400,0,0
420,624,0,0,0,0,0,0,0,0,0,-1,1644,400,0,0
427,624,0,0,0,0,0,0,0,0,0,-1,1651,400,0,0
434,624,0,0,0,0,0,0,0,0,0,-1,1658,400,0,0
441,624,0,0,0,0,0,0,0,0,0,-1,1665,400,0,0
448,624,0,0,0,0,0,0,0,0,0,-1,1672,400,0,0
455,624,0,0,0,0,0,0,0,0,0,-1,1679,400,0,0
462,624,0,0,0,0,0,0,0,0,0,-1,1686,400,0,0
469,624,0,0,0,0,0,0,0,0,0,-1,1693,400,0,0
476,624,0,0,0,0,0,0,0,0,0,-1,1700,400,0,0
483,624,0,0,0,0,0,0,0,0,0,-1,1707,400,0,0
490,624,0,0,0,0,0,0,0,0,0,-1,1714,400,0,0
497,624,0,0,0,0,0,0,0,0,0,-1,1721,400,0,0
504,624,0,0,0,0,0,0,0,0,0,-1,1728,400,0,0
511,624,0,0,0,0,0,0,0,0,0,-1,1735,400,0,0
518,624,0,0,0,0,0,0,0,0,0,-1,1742,400,0,0
525,624,0,0,0,0,0,0,0,0,0,-1,1749,400,0,0
532,624,0,0,0,0,0,0,0,0,0,-1,1756,400,0,0
539,624,0,0,0,0,0,0,0,0,0,-1,1763,400,0,0
546,624,0,0,0,0,0,0,0,0,0,-1,1770,400,0,0
553,624,0,0,0,0,0,0,0,0,0,-1,1777,400,0,0
560,624,0,0,0,0,0,0,0,0,0,-1,1784,400,0,0
567,624,0,0,0,0,0,0,0,0,0,-1,1791,400,0,0
574,624,0,0,0,0,0,0,0,0,0,-1,1798,400,0,0
581,624,0,0,0,0,0,0,0,0,0,-1,1805,400,0,0
588,624,0,0,0,0,0,0,0,0,0,-1,1812,400,0,0
595,624,0,0,0,0,0,0,0,0,0,-1,1819,400,0,0
602,624,0,0,0,0,0,0,0,0,0,-1,1826,400,0,0
609,624,0,0,0,0,0,0,0,0,0,-1,1833,400,0,0
616,624,0,0,0,0,0,0,0,0,0,-1,1840,400,0,0
623,624,0,0,0,0,0,0,0,0,0,-1,1847,400,0,0
630,624,0,0,0,0,0,0,0,0,0,-1,1854,400,0,0
637,624,0,0,0,0,0,0,0,0,0,-1,1861,400,0,0
644,624,0,0,0,0,0,0,0,0,0,-1,1868,400,0,0
651,624,0,0,0,0,0,0,0,0,0,-1,1875,400,0,0
658,624,0,0,0,0,0,0,0,0,0,-1,1882,400,0,0
665,624,0,0,0,0,0,0,0,0,0,-1,1889,400,0,0
672,624,0,0,0,0,0,0,0,0,0,-1,1896,400,0,0
679,624,0,0,0,0,0,0,0,0,0,-1,1903,400,0,0
686,624,0,0,0,0,0,0,0,0,0,-1,1910,400,0,0
693,624,0,0,0,0,0,0,0,0,0,-1,1917,400,0,0
700,624,0,0,0,0,0,0,0,0,0,-1,1924,400,0,0
707,624,0,0,0,0,0,0,0,0,0,-1,1931,400,0,0
714,624,0,0,0,0,0,0,0,0,0,-1,1938,400,0,0
721,624,0,0,0,0,0,0,0,0,0,-1,1945,400,0,0
728,624,0,0,0,0,0,0,0,0,0,-1,1952,400,0,0
735,624,0,0,0,0,0,0,0,0,0,-1,1959,400,0,0
742,624,0,0,0,0,0,0,0,0,0,-1,1966,400,0,0
749,624,0,0,0,0,0,0,0,0,0,-1,1973,400,0,0
756,624,0,0,0,0,0,0,0,0,0,-1,1980,400,0,0
763,624,0,0,0,0,0,0,0,0,0,-1,1987,400,0,0
770,624,0,0,0,0,0,0,0,0,0,-1,1994,400,0,0
777,624,0,0,0,0,0,0,0,0,0,-1,2001,400,0,0
784,624,0,0,0,0,0,0,0,0,0,-1,2008,400,0,0
791,624,0,0,0,0,0,0,0,0,0,-1,2015,400,0,0
798,624,0,0,0,0,0,0,0,0,0,-1,2022,400,0,0
805,624,0,0,0,0,0,0,0,0,0,-1,2029,400,0,0
812,624,0,0,0,0,0,0,0,0,0,-1,2036,400,0,0
-700,617,0,0,0,0,0,0,0,0,0,-1,524,407,0,0
-693,617,0,0,0,0,0,0,0,0,0,-1,531,407,0,0
-686,617,0,0,0,0,0,0,0,0,0,-1,538,407,0,0
-679,617,0,0,0,0,0,0,0,0,0,-1,545,407,0,0
-672,617,0,0,0,0,0,0,0,0,0,-1,552,407,0,0
-665,617,0,0,0,0,0,0,0,0,0,-1,559,407,0,0
-658,617,0,0,0,0,0,0,0,0,0,-1,566,407,0,0
-651,617,0,0,0,0,0,0,0,0,0,-1,573,407,0,0
-644,617,0,0,0,0,0,0,0,0,0,-1,580,407,0,0
-637,617,0,0,0,0,0,0,0,0,0,-1,587,407,0,0
-630,617,0,0,0,0,0,0,0,0,0,-1,594,407,0,0
-623,617,0,0,0,0,0,0,0,0,0,-1,601,407,0,0
-616,617,0,0,0,0,0,0,0,0,0,-1,608,407,0,0
-609,617,0,0,0,0,0,0,0,0,0,-1,615,407,0,0
-602,617,0,0,0,0,0,0,0,0,0,-1,622,407,0,0
-595,617,0,0,0,0,0,0,0,0,0,-1,629,407,0,0
-588,617,0,0,0,0,0,0,0,0,0,-1,636,407,0,0
-581,617,0,0,0,0,0,0,0,0,0,-1,643,407,0,0
-574,617,0,0,0,0,0,0,0,0,0,-1,650,407,0,0
-567,617,0,0,0,0,0,0,0,0,0,-1,657,407,0,0
-560,617,0,0,0,0,0,0,0,0,0,-1,664,407,0,0
-553,617,0,0,0,0,0,0,0,0,0,-1,671,407,0,0
-546,617,0,0,0,0,0,0,0,0,0,-1,678,407,0,0
-539,617,0,0,0,0,0,0,0,0,0,-1,685,407,0,0
-532,617,0,0,0,0,0,0,0,0,0,-1,692,407,0,0
-525,617,0,0,0,0,0,0,0,0,0,-1,699,407,0,0
-518,617,0,0,0,0,0,0,0,0,0,-1,706,407,0,0
-511,617,0,0,0,0,0,0,0,0,0,-1,713,407,0,0
-504,617,0,0,0,0,0,0,0,0,0,-1,720,407,0,0
-497,617,0,0,0,0,0,0,0,0,0,-1,727,407,0,0
-490,617,0,0,0,0,0,0,0,0,0,-1,734,407,0,0
-483,617,0,0,0,0,0,0,0,0,0,-1,741,407,0,0
-476,617,0,0,0,0,0,0,0,0,0,-1,748,407,0,0
-469,617,0,0,0,0,0,0,0,0,0,-1,755,407,0,0
-462,617,0,0,0,0,0,0,0,0,0,-1,762,407,0,0
-455,617,0,0,0,0,0,0,0,0,0,-1,769,407,0,0
-448,617,0,0,0,0,0,0,0,0,0,-1,776,407,0,0
-441,617,0,0,0,0,0,0,0,0,0,-1,783,407,0,0
-434,617,0,0,0,0,0,0,0,0,0,-1,790,407,0,0
-427,617,0,0,0,0,0,0,0,0,0,-1,797,407,0,0
-420,617,0,0,0,0,0,0,0,0,0,-1,804,407,0,0
-413,617,0,0,0,0,0,0,0,0,0,-1,811,407,0,0
-406,617,0,0,0,0,0,0,0,0,0,-1,818,407,0,0
-399,617,0,0,0,0,0,0,0,0,0,-1,825,407,0,0
-392,617,0,0,0,0,0,0,0,0,0,-1,832,407,0,0
-385,617,0,0,0,0,0,0,0,0,0,-1,839,407,0,0
-378,617,0,0,0,0,0,0,0,0,0,-1,846,407,0,0
-371,617,0,0,0,0,0,0,0,0,0,-1,853,407,0,0
-364,617,0,0,0,0,0,0,0,0,0,-1,860,407,0,0
-357,617,0,0,0,0,0,0,0,0,0,-1,867,407,0,0
-350,617,0,0,0,0,0,0,0,0,0,-1,874,407,0,0
-343,617,0,0,0,0,0,0,0,0,0,-1,881,407,0,0
-336,617,0,0,0,0,0,0,0,0,0,-1,888,407,0,0
-329,617,0,0,0,0,0,0,0,0,0,-1,895,407,0,0
-322,617,0,0,0,0,0,0,0,0,0,-1,902,407,0,0
-315,617,0,0,0,0,0,0,0,0,0,-1,909,407,0,0
-308,617,0,0,0,0,0,0,0,0,0,-1,916,407,0,0
-301,617,6.81897,-24.525,0,0,0,0,0,0,0,-1,923,407,6.81899,24.525
-294,617,6.19263,-26.917,0,0,0,0,0,0,0,-1,930,407,6.19261,26.917
-287,617,7.00409,-31.9773,0,0,0,0,0,0,0,-1,937,407,7.00406,31.9773
-280,617,6.16754,-32.5725,0,0,0,0,0,0,0,-1,944,407,6.16755,32.5725
-273,617,6.38348,-32.4419,0,0,0,0,0,0,0,-1,951,407,6.38345,32.4419
-266,617,6.39923,-32.2529,0,0,0,0,0,0,0,-1,958,407,6.39925,32.2529
-259,617,7.28217,-33.4631,0,0,0,0,0,0,0,-1,965,407,7.28215,33.4631
-252,617,7.41333,-33.5027,0,0,0,0,0,0,0,-1,972,407,7.41333,33.5026
-245,617,7.26923,-33.8345,0,0,0,0,0,0,0,-1,979,407,7.2692,33.8345
-238,617,5.56641,-32.5898,0,0,0,0,0,0,0,-1,986,407,5.56641,32.5899
-231,617,5.43256,-33.9007,0,0,0,0,0,0,0,-1,993,407,5.43256,33.9007
-224,617,5.51184,-34.8151,0,0,0,0,0,0,0,-1,1000,407,5.51186,34.8151
-217,617,5.83167,-35.8159,0,0,0,0,0,0,0,-1,1007,407,5.83164,35.8159
-210,617,5.69141,-36.5102,-0.000752302,0.025568,-0.0108911,0.0294901,-0.00467444,-1.22513,0.0213892,0.0370871,1014,407,5.69139,36.5102
-203,617,5.62939,-37.0802,-0.00109625,0.0218031,-0.00944807,0.025198,-0.00449114,-1.22584,0.0184785,0.0254562,1021,407,5.62944,37.0802
-196,617,5.54114,-37.6083,-0.0013243,0.018908,-0.00828611,0.0218684,-0.0042847,-1.22766,0.0161972,0.0216686,1028,407,5.54113,37.6083
-189,617,5.48792,-38.1274,-0.00139509,0.0163292,-0.00745333,0.0190468,-0.00411266,-1.22116,0.0142677,0.0195535,1035,407,5.48789,38.1274
-182,617,5.51367,-38.6965,-0.00147977,0.0138919,-0.00651104,0.016279,-0.00386696,-1.21938,0.0123452,0.0210409,1042,407,5.51367,38.6965
-175,617,5.47266,-39.2017,-0.00165859,0.0114604,-0.00543296,0.0134182,-0.00361638,-1.22493,0.0103634,0.0179193,1049,407,5.47269,39.2017
-168,617,5.42786,-39.7607,-0.00178558,0.0097609,-0.00459098,0.0113638,-0.00338848,-1.23489,0.00892247,0.0123464,1056,407,5.42786,39.7607
-161,617,5.38599,-40.2979,-0.001772,0.00835487,-0.00389277,0.0096783,-0.00309543,-1.24308,0.00769443,0.011502,1063,407,5.38602,40.2979
-154,617,5.36902,-40.7632,-0.00164582,0.00699756,-0.00328391,0.00810367,-0.00275193,-1.2459,0.00651642,0.0120647,1070,407,5.36897,40.7632
-147,617,5.34436,-41.2169,-0.00153155,0.00575052,-0.00269563,0.00663978,-0.00242081,-1.25215,0.00541687,0.0160773,1077,407,5.34434,41.2169
-140,617,5.31604,-41.6877,-0.00136551,0.00460354,-0.00216245,0.00530461,-0.00206658,-1.25729,0.00439049,0.011802,1084,407,5.31601,41.6877
-133,617,5.29041,-42.1261,-0.00119076,0.00343526,-0.00169176,0.00398792,-0.00174343,-1.25505,0.00339252,0.0138236,1091,407,5.29046,42.1261
-126,617,5.26453,-42.5262,-0.000993138,0.00253526,-0.00125929,0.00293859,-0.00139647,-1.26083,0.00255509,0.0139078,1098,407,5.26451,42.5261
-119,617,5.22803,-42.9402,-0.000648824,0.00186368,-0.000959508,0.0021882,-0.000973339,-1.24466,0.00186969,0.0136662,1105,407,5.22804,42.9402
-112,617,5.22949,-43.337,-0.000259281,0.00127199,-0.000682724,0.00153217,-0.000519467,-1.20669,0.00123168,0.0154465,1112,407,5.22955,43.337
-105,617,5.23645,-43.7295,0.000105961,0.000767437,-0.000502409,0.0010382,-0.000164801,-1.07649,0.000753101,0.01495,1119,407,5.23646,43.7295
-98,617,5.20251,-44.142,0.000486028,0.000259456,-0.000358492,0.000748707,-3.22348e-06,-0.63236,0.000500216,0.0124274,1126,407,5.20251,44.142
-91,617,5.21509,-44.5268,0.000935309,-0.000100259,-0.000234355,0.000985876,-0.000150826,-0.212512,0.000712865,0.0197979,1133,407,5.21514,44.5268
-84,617,5.26965,-44.9044,0.00143105,-0.000416604,-9.90384e-05,0.00143635,-0.000421897,-0.0533982,0.00112489,0.0199163,1140,407,5.26969,44.9044
-77,617,5.25452,-45.239,0.0018581,-0.000755688,4.95473e-05,0.00185904,-0.000756627,0.018947,0.00155422,0.0148334,1147,407,5.25449,45.239
-70,617,5.28162,-45.5666,0.00234939,-0.000839691,0.000116296,0.00235362,-0.000843926,0.0364026,0.00191347,0.0162391,1154,407,5.28167,45.5666
-63,617,5.31531,-45.8841,0.00205052,-0.000545462,0.000840401,0.00229883,-0.000793775,0.287295,0.00185466,0.0193228,1161,407,5.31525,45.8841
-56,617,5.29028,-46.159,0.00173449,0.000137163,0.00136035,0.0025133,-0.000641644,0.519957,0.00192539,0.0144311,1168,407,5.29025,46.159
-49,617,5.30298,-46.4824,0.00147849,0.000196547,0.00135832,0.00233948,-0.00066444,0.564946,0.00182197,0.0111174,1175,407,5.30292,46.4824
-42,617,5.33008,-46.7741,0.00206278,0.000211393,0.000505885,0.00219199,8.21801e-05,0.250074,0.00143472,0.0119154,1182,407,5.33006,46.7741
-35,617,5.37488,-46.9993,0.00288344,0.000286335,-0.000380636,0.00293807,0.000231698,-0.142568,0.00188623,0.0175342,1189,407,5.37491,46.9993
-28,617,5.37427,-47.23,0.00483738,-3.93108e-05,-0.00159835,0.00531455,-0.000516482,-0.290118,0.00372714,0.0201875,1196,407,5.37432,47.23
-21,617,5.39612,-47.4376,0.00667245,-0.000610158,-0.00271493,0.00757316,-0.00151087,-0.320337,0.0056205,0.0141926,1203,407,5.39612,47.4376
-14,617,5.42444,-47.6301,0.00814652,-0.00135212,-0.00365213,0.00938837,-0.00259396,-0.327769,0.00727929,0.0158606,1210,407,5.4244,47.6301
-7,617,5.43372,-47.7739,0.00975948,-0.0016774,-0.00475356,0.0114772,-0.00339514,-0.346759,0.00899927,0.0192561,1217,407,5.43367,47.7739
0,617,5.50769,-47.9239,0.0110074,-0.00220538,-0.005591,0.0130557,-0.00425367,-0.351171,0.0104154,0.0162246,1224,407,5.5077,47.9239
7,617,5.58252,-48.1362,0.0117491,-0.00274918,-0.00599295,0.0139055,-0.00490565,-0.345409,0.0112674,0.0123198,1231,407,5.58246,48.1362
14,617,5.61511,-48.2815,0.0118983,-0.00304116,-0.00594278,0.0139739,-0.00511677,-0.33602,0.0114106,0.0146634,1238,407,5.61506,48.2815
21,617,5.68652,-48.3933,0.0115307,-0.0034339,-0.00545954,0.0133108,-0.00521396,-0.315177,0.0110306,0.0135071,1245,407,5.68648,48.3933
28,617,5.7356,-48.5215,0.0107264,-0.00395729,-0.00468244,0.0120925,-0.00532336,-0.283866,0.0103051,0.0118732,1252,407,5.73563,48.5215
35,617,5.71045,-48.6132,0.0093354,-0.00426378,-0.00359568,0.0102276,-0.00515596,-0.243214,0.00904115,0.015088,1259,407,5.71039,48.6132
42,617,5.84387,-48.6248,0.00767321,-0.00455482,-0.00246091,0.00814989,-0.0050315,-0.191331,0.00768094,0.0218434,1266,407,5.84383,48.6247
49,617,5.91638,-48.6416,0.00514854,-0.00515228,-0.00115282,0.00527598,-0.00527973,-0.110101,0.00609434,0.0217959,1273,407,5.91644,48.6416
56,617,5.91479,-48.6726,0.00235105,-0.0056835,0.000136082,0.00235335,-0.00568581,0.0169306,0.00477249,0.0162629,1280,407,5.91474,48.6726
63,617,5.98352,-48.6969,-0.000386072,-0.00643727,0.00128884,-0.000122999,-0.00670034,0.20135,0.00442647,0.0117823,1287,407,5.9835,48.6969
70,617,6.01794,-48.7198,-0.00315378,-0.00739542,0.00204255,-0.00233013,-0.00821907,0.3833,0.00489131,0.0156489,1294,407,6.018,48.7199
77,617,6.09607,-48.6841,-0.00618235,-0.00808834,0.00264892,-0.00432021,-0.00995048,0.612723,0.00576149,0.0134426,1301,407,6.0961,48.6841
84,617,6.16516,-48.6442,-0.00829867,-0.00869117,0.00272938,-0.00575849,-0.0112313,0.749509,0.00648512,0.011185,1308,407,6.16518,48.6442
91,617,6.22461,-48.5499,-0.00967274,-0.00914284,0.00231893,-0.00707378,-0.0117418,0.842279,0.0068264,0.011226,1315,407,6.22461,48.5499
98,617,6.26978,-48.4584,-0.0108528,-0.010038,0.00199073,-0.00841338,-0.0124774,0.886333,0.00734825,0.0121174,1322,407,6.26983,48.4584
105,617,6.32764,-48.3676,-0.0114326,-0.0104299,0.00153577,-0.00931572,-0.0125468,0.943163,0.00752246,0.0133984,1329,407,6.32763,48.3676
112,617,6.39673,-48.2564,-0.011431,-0.0104191,0.000851198,-0.00993481,-0.0119152,1.05354,0.00737255,0.0165093,1336,407,6.39672,48.2564
119,617,6.40466,-48.1208,-0.0109389,-0.0103296,0.000129176,-0.0103033,-0.0109651,1.37027,0.00709978,0.0189803,1343,407,6.40467,48.1209
126,617,6.40918,-47.9633,-0.0100986,-0.00965119,-0.000587615,-0.00924612,-0.0105036,-0.967263,0.00662316,0.0210995,1350,407,6.40912,47.9632
133,617,6.47742,-47.7298,-0.00881217,-0.00856067,-0.00109876,-0.00758049,-0.00979235,-0.842374,0.00593008,0.0187215,1357,407,6.47747,47.7298
140,617,6.56665,-47.5408,-0.00721702,-0.00777736,-0.00146671,-0.00600396,-0.00899042,-0.691025,0.00528718,0.0168794,1364,407,6.56662,47.5408
147,617,6.56885,-47.3047,-0.00548987,-0.00710511,-0.00171939,-0.00439787,-0.00819711,-0.565836,0.00473681,0.0202053,1371,407,6.56888,47.3047
154,617,6.60632,-47.0871,-0.00346378,-0.00634212,-0.00191343,-0.00250869,-0.0072972,-0.462963,0.00428103,0.0225951,1378,407,6.60626,47.0871
161,617,6.66809,-46.9088,-0.00159578,-0.00539946,-0.00201198,-0.00072903,-0.0062662,-0.406766,0.00395691,0.023553,1385,407,6.66806,46.9088
168,617,6.74829,-46.6984,-0.000268049,-0.00453983,-0.00196712,0.000499779,-0.00530766,-0.372144,0.00371625,0.0228675,1392,407,6.7483,46.6984
175,617,6.75842,-46.3843,0.00109572,-0.00356469,-0.00192182,0.00178599,-0.00425495,-0.344823,0.00358352,0.0194165,1399,407,6.75836,46.3843
182,617,6.78772,-46.0294,0.00225488,-0.00271179,-0.00190466,0.00290119,-0.0033581,-0.327139,0.00361701,0.0119946,1406,407,6.78776,46.0294
189,617,6.77368,-45.6833,0.00259657,-0.00180745,-0.00169907,0.00317586,-0.00238675,-0.328591,0.00322233,0.0114463,1413,407,6.77371,45.6833
196,617,6.7467,-45.3557,0.0026104,-0.00115495,-0.00112621,0.00292154,-0.00146609,-0.269547,0.00257924,0.0159072,1420,407,6.74672,45.3557
203,617,6.76575,-45.0243,0.00228789,0.000126082,-0.000625179,0.00245567,-4.16944e-05,-0.262187,0.00165119,0.0155902,1427,407,6.76575,45.0243
210,617,6.81152,-44.6365,0.0017495,0.0010491,-0.00020151,0.00180333,0.000995265,-0.261074,0.00104302,0.0155642,1434,407,6.81156,44.6365
217,617,6.79736,-44.2491,0.00128323,0.00190413,0.000181517,0.0019533,0.00123406,1.30625,0.00114072,0.0206328,1441,407,6.7974,44.2491
224,617,6.802,-43.8993,0.00103858,0.00268071,0.000527791,0.00283572,0.000883578,1.28514,0.0016755,0.0190985,1448,407,6.80196,43.8993
231,617,6.81104,-43.5137,0.00108477,0.00337308,0.000946099,0.00371358,0.000744277,1.22533,0.0022687,0.0146316,1455,407,6.81104,43.5137
238,617,6.8064,-43.1104,0.0013572,0.00421782,0.00145249,0.00482601,0.000749001,1.17425,0.00299901,0.0164176,1462,407,6.80637,43.1105
245,617,6.80115,-42.693,0.00169633,0.00502893,0.00183913,0.00584436,0.000880903,1.15347,0.00363833,0.013696,1469,407,6.80117,42.693
252,617,6.7605,-42.2022,0.00209495,0.00596152,0.00230627,0.00703763,0.00101883,1.13422,0.00439171,0.0143166,1476,407,6.76053,42.2022
259,617,6.74817,-41.738,0.00248536,0.00700689,0.00286678,0.00839708,0.00109516,1.11928,0.00527106,0.0113074,1483,407,6.74818,41.738
266,617,6.74231,-41.2552,0.00285901,0.00790301,0.00340464,0.009618,0.00114402,1.10418,0.00606672,0.0135576,1490,407,6.74229,41.2552
273,617,6.74939,-40.7623,0.003219,0.00898347,0.00402752,0.0110538,0.00114864,1.09597,0.00701774,0.0145168,1497,407,6.74936,40.7623
280,617,6.70642,-40.2919,0.00350151,0.0100858,0.00468408,0.0125189,0.00106837,1.09171,0.0080136,0.0132058,1504,407,6.70636,40.2919
287,617,6.66846,-39.7848,0.00365366,0.0112739,0.00538032,0.0140566,0.000870994,1.09349,0.00909463,0.0126534,1511,407,6.66848,39.7848
294,617,6.64209,-39.2704,0.00359954,0.0123586,0.00596781,0.0153814,0.000576706,1.10194,0.0100676,0.010067,1518,407,6.64212,39.2703
301,617,6.59985,-38.7495,0.00340147,0.0132831,0.00646453,0.0164788,0.000205844,1.11169,0.0109179,0.00806002,1525,407,6.59985,38.7495
308,617,6.54736,-38.2092,0.003115,0.0141516,0.00694234,0.0175017,-0.000235047,1.1212,0.0117469,0.0087937,1532,407,6.54735,38.2092
315,617,6.50354,-37.6693,0.00271076,0.0149905,0.00737595,0.0184476,-0.000746388,1.1325,0.0125546,0.0103918,1539,407,6.5035,37.6693
322,617,6.46606,-37.0958,0.00215561,0.0155068,0.00776453,0.0190709,-0.00140849,1.14046,0.0132085,0.0160428,1546,407,6.46601,37.0958
329,617,6.46716,-36.5112,0.00131835,0.0163135,0.00819604,0.0199239,-0.00229213,1.15586,0.0141089,0.0206806,1553,407,6.46722,36.5112
336,617,6.5094,-35.7966,0.000219966,0.0169705,0.00830751,0.0203918,-0.00320137,1.18013,0.0147777,0.0382568,1560,407,6.50946,35.7966
343,617,6.5177,-35.2451,0,0,0,0,0,0,0,-1,1567,407,6.51775,35.2452
350,617,6.28516,-34.7574,0,0,0,0,0,0,0,-1,1574,407,6.28516,34.7574
357,617,2.1748,-7.16504,0,0,0,0,0,0,0,-1,1581,407,2.1748,7.16505
364,617,2.30127,-7.60257,0,0,0,0,0,0,0,-1,1588,407,2.30125,7.60258
371,617,2.60266,-6.20667,0,0,0,0,0,0,0,-1,1595,407,2.60261,6.20668
378,617,1.56921,-10.3601,0,0,0,0,0,0,0,-1,1602,407,1.56918,10.3601
385,617,1.74146,-10.3561,0,0,0,0,0,0,0,-1,1609,407,1.7414,10.3561
392,617,1.96936,-5.10449,0,0,0,0,0,0,0,-1,1616,407,1.96931,5.10451
399,617,2.48889,-5.81256,0,0,0,0,0,0,0,-1,1623,407,2.48888,5.81255
406,617,3.01465,-6.51642,0,0,0,0,0,0,0,-1,1630,407,3.01461,6.51643
413,617,3.6427,-7.2074,0,0,0,0,0,0,0,-1,1637,407,3.64274,7.20739
420,617,3.42737,-4.47391,0,0,0,0,0,0,0,-1,1644,407,3.42737,4.47391
427,617,0,0,0,0,0,0,0,0,0,-1,1651,407,0,0
434,617,0,0,0,0,0,0,0,0,0,-1,1658,407,0,0
441,617,0,0,0,0,0,0,0,0,0,-1,1665,407,0,0
448,617,0,0,0,0,0,0,0,0,0,-1,1672,407,0,0
455,617,0,0,0,0,0,0,0,0,0,-1,1679,407,0,0
462,617,0,0,0,0,0,0,0,0,0,-1,1686,407,0,0
469,617,0,0,0,0,0,0,0,0,0,-1,1693,407,0,0
476,617,0,0,0,0,0,0,0,0,0,-1,1700,407,0,0
483,617,0,0,0,0,0,0,0,0,0,-1,1707,407,0,0
490,617,0,0,0,0,0,0,0,0,0,-1,1714,407,0,0
497,617,0,0,0,0,0,0,0,0,0,-1,1721,407,0,0
504,617,0,0,0,0,0,0,0,0,0,-1,1728,407,0,0
511,617,0,0,0,0,0,0,0,0,0,-1,1735,407,0,0
518,617,0,0,0,0,0,0,0,0,0,-1,1742,407,0,0
525,617,0,0,0,0,0,0,0,0,0,-1,1749,407,0,0
532,617,0,0,0,0,0,0,0,0,0,-1,1756,407,0,0
539,617,0,0,0,0,0,0,0,0,0,-1,1763,407,0,0
546,617,0,0,0,0,0,0,0,0,0,-1,1770,407,0,0
553,617,0,0,0,0,0,0,0,0,0,-1,1777,407,0,0
560,617,0,0,0,0,0,0,0,0,0,-1,1784,407,0,0
567,617,0,0,0,0,0,0,0,0,0,-1,1791,407,0,0
574,617,0,0,0,0,0,0,0,0,0,-1,1798,407,0,0
581,617,0,0,0,0,0,0,0,0,0,-1,1805,407,0,0
588,617,0,0,0,0,0,0,0,0,0,-1,1812,407,0,0
595,617,0,0,0,0,0,0,0,0,0,-1,1819,407,0,0
602,617,0,0,0,0,0,0,0,0,0,-1,1826,407,0,0
609,617,0,0,0,0,0,0,0,0,0,-1,1833,407,0,0
616,617,0,0,0,0,0,0,0,0,0,-1,1840,407,0,0
623,617,0,0,0,0,0,0,0,0,0,-1,1847,407,0,0
630,617,0,0,0,0,0,0,0,0,0,-1,1854,407,0,0
637,617,0,0,0,0,0,0,0,0,0,-1,1861,407,0,0
644,617,0,0,0,0,0,0,0,0,0,-1,1868,407,0,0
651,617,0,0,0,0,0,0,0,0,0,-1,1875,407,0,0
658,617,0,0,0,0,0,0,0,0,0,-1,1882,407,0,0
665,617,0,0,0,0,0,0,0,0,0,-1,1889,407,0,0
672,617,0,0,0,0,0,0,0,0,0,-1,1896,407,0,0
679,617,0,0,0,0,0,0,0,0,0,-1,1903,407,0,0
686,617,0,0,0,0,0,0,0,0,0,-1,1910,407,0,0
693,617,0,0,0,0,0,0,0,0,0,-1,1917,407,0,0
700,617,0,0,0,0,0,0,0,0,0,-1,1924,407,0,0
707,617,0,0,0,0,0,0,0,0,0,-1,1931,407,0,0
714,617,0,0,0,0,0,0,0,0,0,-1,1938,407,0,0
721,617,0,0,0,0,0,0,0,0,0,-1,1945,407,0,0
728,617,0,0,0,0,0,0,0,0,0,-1,1952,407,0,0
735,617,0,0,0,0,0,0,0,0,0,-1,1959,407,0,0
742,617,0,0,0,0,0,0,0,0,0,-1,1966,407,0,0
749,617,0,0,0,0,0,0,0,0,0,-1,1973,407,0,0
756,617,0,0,0,0,0,0,0,0,0,-1,1980,407,0,0
763,617,0,0,0,0,0,0,0,0,0,-1,1987,407,0,0
770,617,0,0,0,0,0,0,0,0,0,-1,1994,407,0,0
777,617,0,0,0,0,0,0,0,0,0,-1,2001,407,0,0
784,617,0,0,0,0,0,0,0,0,0,-1,2008,407,0,0
791,617,0,0,0,0,0,0,0,0,0,-1,2015,407,0,0
798,617,0,0,0,0,0,0,0,0,0,-1,2022,407,0,0
805,617,0,0,0,0,0,0,0,0,0,-1,2029,407,0,0
812,617,0,0,0,0,0,0,0,0,0,-1,2036,407,0,0
-700,610,0,0,0,0,0,0,0,0,0,-1,524,414,0,0
-693,610,0,0,0,0,0,0,0,0,0,-1,531,414,0,0
-686,610,0,0,0,0,0,0,0,0,0,-1,538,414,0,0
-679,610,0,0,0,0,0,0,0,0,0,-1,545,414,0,0
-672,610,0,0,0,0,0,0,0,0,0,-1,552,414,0,0
-665,610,0,0,0,0,0,0,0,0,0,-1,559,414,0,0
-658,610,0,0,0,0,0,0,0,0,0,-1,566,414,0,0
-651,610,0,0,0,0,0,0,0,0,0,-1,573,414,0,0
-644,610,0,0,0,0,0,0,0,0,0,-1,580,414,0,0
-637,610,0,0,0,0,0,0,0,0,0,-1,587,414,0,0
-630,610,0,0,0,0,0,0,0,0,0,-1,594,414,0,0
-623,610,0,0,0,0,0,0,0,0,0,-1,601,414,0,0
-616,610,0,0,0,0,0,0,0,0,0,-1,608,414,0,0
-609,610,0,0,0,0,0,0,0,0,0,-1,615,414,0,0
-602,610,0,0,0,0,0,0,0,0,0,-1,622,414,0,0
-595,610,0,0,0,0,0,0,0,0,0,-1,629,414,0,0
-588,610,0,0,0,0,0,0,0,0,0,-1,636,414,0,0
-581,610,0,0,0,0,0,0,0,0,0,-1,643,414,0,0
-574,610,0,0,0,0,0,0,0,0,0,-1,650,414,0,0
-567,610,0,0,0,0,0,0,0,0,0,-1,657,414,0,0
-560,610,0,0,0,0,0,0,0,0,0,-1,664,414,0,0
-553,610,0,0,0,0,0,0,0,0,0,-1,671,414,0,0
-546,610,0,0,0,0,0,0,0,0,0,-1,678,414,0,0
-539,610,0,0,0,0,0,0,0,0,0,-1,685,414,0,0
-532,610,0,0,0,0,0,0,0,0,0,-1,692,414,0,0
-525,610,0,0,0,0,0,0,0,0,0,-1,699,414,0,0
-518,610,0,0,0,0,0,0,0,0,0,-1,706,414,0,0
-511,610,0,0,0,0,0,0,0,0,0,-1,713,414,0,0
-504,610,0,0,0,0,0,0,0,0,0,-1,720,414,0,0
-497,610,0,0,0,0,0,0,0,0,0,-1,727,414,0,0
-490,610,0,0,0,0,0,0,0,0,0,-1,734,414,0,0
-483,610,0,0,0,0,0,0,0,0,0,-1,741,414,0,0
-476,610,0,0,0,0,0,0,0,0,0,-1,748,414,0,0
-469,610,0,0,0,0,0,0,0,0,0,-1,755,414,0,0
-462,610,0,0,0,0,0,0,0,0,0,-1,762,414,0,0
-455,610,0,0,0,0,0,0,0,0,0,-1,769,414,0,0
-448,610,0,0,0,0,0,0,0,0,0,-1,776,414,0,0
-441,610,0,0,0,0,0,0,0,0,0,-1,783,414,0,0
-434,610,0,0,0,0,0,0,0,0,0,-1,790,414,0,0
-427,610,0,0,0,0,0,0,0,0,0,-1,797,414,0,0
-420,610,0,0,0,0,0,0,0,0,0,-1,804,414,0,0
-413,610,0,0,0,0,0,0,0,0,0,-1,811,414,0,0
-406,610,0,0,0,0,0,0,0,0,0,-1,818,414,0,0
-399,610,0,0,0,0,0,0,0,0,0,-1,825,414,0,0
-392,610,0,0,0,0,0,0,0,0,0,-1,832,414,0,0
-385,610,0,0,0,0,0,0,0,0,0,-1,839,414,0,0
-378,610,0,0,0,0,0,0,0,0,0,-1,846,414,0,0
-371,610,0,0,0,0,0,0,0,0,0,-1,853,414,0,0
-364,610,0,0,0,0,0,0,0,0,0,-1,860,414,0,0
-357,610,0,0,0,0,0,0,0,0,0,-1,867,414,0,0
-350,610,0,0,0,0,0,0,0,0,0,-1,874,414,0,0
-343,610,0,0,0,0,0,0,0,0,0,-1,881,414,0,0
-336,610,0,0,0,0,0,0,0,0,0,-1,888,414,0,0
-329,610,0,0,0,0,0,0,0,0,0,-1,895,414,0,0
-322,610,0,0,0,0,0,0,0,0,0,-1,902,414,0,0
-315,610,7.68475,-21.5402,0,0,0,0,0,0,0,-1,909,414,7.68475,21.5402
-308,610,3.97211,-23.4133,0,0,0,0,0,0,0,-1,916,414,3.9721,23.4133
-301,610,7.38513,-22.4166,0,0,0,0,0,0,0,-1,923,414,7.38516,22.4166
-294,610,6.77832,-24.1945,0,0,0,0,0,0,0,-1,930,414,6.77829,24.1946
-287,610,3.39276,-28.5804,0,0,0,0,0,0,0,-1,937,414,3.39276,28.5803
-280,610,5.99969,-30.7691,0,0,0,0,0,0,0,-1,944,414,5.99967,30.7691
-273,610,5.56598,-30.9048,0,0,0,0,0,0,0,-1,951,414,5.56596,30.9047
-266,610,5.46808,-33.2672,0,0,0,0,0,0,0,-1,958,414,5.46807,33.2672
-259,610,5.49097,-33.3532,0,0,0,0,0,0,0,-1,965,414,5.49097,33.3532
-252,610,5.55463,-33.396,0,0,0,0,0,0,0,-1,972,414,5.55462,33.396
-245,610,5.7229,-33.6367,0,0,0,0,0,0,0,-1,979,414,5.72293,33.6367
-238,610,5.21686,-34.0765,0,0,0,0,0,0,0,-1,986,414,5.21686,34.0765
-231,610,5.05823,-34.3568,0.00055655,0.0302989,-0.0127165,0.0349946,-0.00413911,-1.21707,0.0248247,0.0434914,993,414,5.05826,34.3567
-224,610,5.11835,-35.1681,0.000137715,0.0267713,-0.0111971,0.0308531,-0.00394409,-1.22123,0.0220016,0.0298954,1000,414,5.11832,35.1681
-217,610,5.18835,-35.925,-0.000209194,0.023282,-0.00985815,0.0268707,-0.00379794,-1.22167,0.0193047,0.0196627,1007,414,5.18837,35.925
-210,610,5.15649,-36.5929,-0.000511727,0.0196682,-0.00847197,0.0227532,-0.00359681,-1.22157,0.016499,0.0141237,1014,414,5.15649,36.5929
-203,610,5.12427,-37.1613,-0.000695802,0.0166408,-0.00728534,0.0192958,-0.00335073,-1.22133,0.014114,0.0168642,1021,414,5.12432,37.1613
-196,610,5.09009,-37.7083,-0.000798071,0.0143099,-0.00632102,0.0166057,-0.00309386,-1.22241,0.0122329,0.0153812,1028,414,5.0901,37.7083
-189,610,5.06274,-38.2266,-0.000772505,0.0121818,-0.00562732,0.0142848,-0.00287558,-1.21314,0.0106124,0.0121581,1035,414,5.06279,38.2266
-182,610,5.03564,-38.733,-0.000752724,0.0101429,-0.00482733,0.0119739,-0.00258377,-1.20825,0.00896879,0.0134264,1042,414,5.03563,38.733
-175,610,5.00256,-39.242,-0.000823516,0.00800974,-0.00388426,0.00947478,-0.00228856,-1.21012,0.00720162,0.014869,1049,414,5.00254,39.242
-168,610,4.94373,-39.7738,-0.000875337,0.0063535,-0.00312369,0.00751627,-0.0020381,-1.21445,0.0058106,0.0128313,1056,414,4.94368,39.7738
-161,610,4.93774,-40.3181,-0.000812948,0.00500469,-0.00249192,0.00592613,-0.00173439,-1.21662,0.00463826,0.0115505,1063,414,4.93779,40.3181
-154,610,4.93506,-40.7743,-0.000651994,0.00369568,-0.00191069,0.00441603,-0.00137234,-1.21026,0.00349253,0.0145822,1070,414,4.93512,40.7743
-147,610,4.89441,-41.2032,-0.000485729,0.00247086,-0.00135133,0.00299542,-0.00101029,-1.20052,0.0024055,0.0165144,1077,414,4.89439,41.2032
-140,610,4.87085,-41.6758,-0.000276862,0.00129919,-0.000840305,0.00166316,-0.000640834,-1.16205,0.00137317,0.0125198,1084,414,4.8708,41.6758
-133,610,4.86267,-42.1038,-5.61709e-05,0.00016187,-0.000394924,0.000462545,-0.000356846,-0.920071,0.000474386,0.0135543,1091,414,4.86269,42.1038
-126,610,4.85547,-42.5156,0.000198117,-0.000736229,1.73635e-06,0.000198121,-0.000736232,0.00185835,0.000568488,0.0120204,1098,414,4.8555,42.5156
-119,610,4.85449,-42.9309,0.000587929,-0.00144468,0.000289765,0.000628431,-0.00148518,0.138874,0.00125326,0.010456,1105,414,4.85448,42.9309
-112,610,4.84692,-43.3385,0.00101281,-0.00203867,0.000532764,0.00110315,-0.00212901,0.167974,0.00189716,0.0187537,1112,414,4.84689,43.3385
-105,610,4.82422,-43.7457,0.00143683,-0.00251038,0.000673552,0.0015486,-0.00262215,0.164443,0.00243442,0.0174502,1119,414,4.82421,43.7457
-98,610,4.85364,-44.1174,0.00188179,-0.00291947,0.000754725,0.00199764,-0.00303531,0.152301,0.00292629,0.0129397,1126,414,4.85358,44.1174
-91,610,4.85107,-44.5049,0.00241004,-0.00309643,0.000790995,0.00252141,-0.0032078,0.139881,0.00331566,0.0154622,1133,414,4.85101,44.5048
-84,610,4.89478,-44.8727,0.00298551,-0.00316308,0.000843911,0.00309924,-0.0032768,0.133953,0.00368168,0.0160462,1140,414,4.89481,44.8727
-77,610,4.89526,-45.2441,0.00348858,-0.00332338,0.000935775,0.00361479,-0.00344959,0.134064,0.00407899,0.0125411,1147,414,4.89529,45.2441
-70,610,4.9447,-45.5736,0.00414985,-0.00302166,0.000868008,0.00425342,-0.00312522,0.118751,0.00427663,0.0149672,1154,414,4.94474,45.5736
-63,610,4.96838,-45.8734,0.00222266,-0.00113059,0.00267873,0.00370621,-0.00261413,0.505774,0.00366716,0.0145077,1161,414,4.96834,45.8734
-56,610,5.01025,-46.1446,0.00043077,0.00275795,0.00356529,0.00534472,-0.002156,0.943132,0.00445908,0.012513,1168,414,5.01027,46.1446
-49,610,5.02991,-46.4377,-0.000552064,0.00379623,0.00333015,0.00559913,-0.00235496,1.07459,0.0047179,0.0122647,1175,414,5.02989,46.4378
-42,610,5.05017,-46.7382,4.27027e-06,0.00442243,0.0017123,0.00500835,-0.000581646,1.2411,0.00354871,0.0157158,1182,414,5.05016,46.7382
-35,610,5.11682,-46.9836,0.000883102,0.00515772,0.000321188,0.00518172,0.000859103,1.49622,0.0032067,0.016632,1189,414,5.11679,46.9836
-28,610,5.15723,-47.2003,0.0035933,0.00494197,-0.0016023,0.00600605,0.00252922,-0.984575,0.00348195,0.0142763,1196,414,5.15728,47.2003
-21,610,5.19482,-47.3994,0.00609649,0.00428335,-0.00323783,0.00855227,0.00182756,-0.648897,0.00520049,0.0117888,1203,414,5.19488,47.3993
-14,610,5.23926,-47.5847,0.00819836,0.00306511,-0.00468103,0.0109702,0.000293231,-0.534629,0.00721773,0.0129536,1210,414,5.23926,47.5847
-7,610,5.28906,-47.7385,0.0105279,0.00215749,-0.00634559,0.0139442,-0.00125879,-0.49387,0.00974286,0.0150038,1217,414,5.28904,47.7385
0,610,5.3501,-47.9067,0.0124596,0.000781211,-0.00760642,0.0162097,-0.00296885,-0.458042,0.0119199,0.0115857,1224,414,5.3501,47.9067
7,610,5.42407,-48.0937,0.0137909,-0.000608409,-0.00834081,0.0176096,-0.00442711,-0.429349,0.0134603,0.0133726,1231,414,5.42413,48.0937
14,610,5.5697,-48.1842,0.0143521,-0.00163124,-0.00848885,0.0180192,-0.00529836,-0.407778,0.0141144,0.0182813,1238,414,5.56971,48.1842
21,610,5.63599,-48.2669,0.0141973,-0.0027647,-0.00803162,0.0173968,-0.00596421,-0.379096,0.0140155,0.0177553,1245,414,5.63595,48.2669
28,610,5.60059,-48.4132,0.0133625,-0.00402116,-0.0071263,0.0159105,-0.00656908,-0.343374,0.0133469,0.0179927,1252,414,5.60063,48.4132
35,610,5.7428,-48.5002,0.0115808,-0.00491663,-0.00570077,0.013359,-0.00669488,-0.302367,0.0117893,0.0215602,1259,414,5.74284,48.5002
42,610,5.82275,-48.5436,0.00945884,-0.00577265,-0.00424705,0.010563,-0.00687682,-0.254355,0.0101436,0.01973,1266,414,5.82274,48.5436
49,610,5.88403,-48.6519,0.00609702,-0.00712309,-0.0023979,0.00651852,-0.00754459,-0.174001,0.00812654,0.0187342,1273,414,5.88409,48.6518
56,610,5.94385,-48.6364,0.00226424,-0.0080408,-0.000543313,0.00229281,-0.00806936,-0.0525289,0.00628483,0.0175756,1280,414,5.9439,48.6364
63,610,5.91785,-48.5694,-0.00152414,-0.00928168,0.00114845,-0.00135769,-0.00944813,0.143931,0.00589851,0.0243317,1287,414,5.91788,48.5694
70,610,5.94434,-48.5389,-0.00532084,-0.0108308,0.00236325,-0.0044461,-0.0117055,0.354506,0.00682295,0.0324931,1294,414,5.94429,48.5389
77,610,6.08313,-48.5301,-0.00945067,-0.0120563,0.00339199,-0.0071199,-0.0143871,0.602041,0.00830653,0.0357912,1301,414,6.08308,48.5301
84,610,6.22681,-48.5081,-0.0124551,-0.0132337,0.00379224,-0.00903224,-0.0166566,0.734253,0.00962812,0.0351832,1308,414,6.22683,48.5081
91,610,6.37256,-48.4687,-0.0144555,-0.014061,0.00353615,-0.0107166,-0.0177999,0.813262,0.0103479,0.0303434,1315,414,6.3726,48.4687
98,610,6.479,-48.4416,-0.0162038,-0.0154029,0.00332182,-0.0124575,-0.0191492,0.845382,0.0112216,0.026909,1322,414,6.47902,48.4416
105,610,6.50012,-48.3039,-0.0172274,-0.0161015,0.00286854,-0.0137412,-0.0195877,0.882295,0.0116111,0.021002,1329,414,6.50009,48.3039
112,610,6.54333,-48.1717,-0.0174818,-0.0163257,0.00208901,-0.0147362,-0.0190713,0.920381,0.0115438,0.0142478,1336,414,6.54336,48.1717
119,610,6.56677,-48.0656,-0.0170673,-0.0163653,0.00119797,-0.015468,-0.0179647,0.927901,0.0112371,0.0202859,1343,414,6.56676,48.0656
126,610,6.62134,-47.9141,-0.0160154,-0.0154528,0.000173446,-0.0154036,-0.0160646,1.29453,0.0104963,0.0279247,1350,414,6.62137,47.9141
133,610,6.7251,-47.7189,-0.0143219,-0.0139275,-0.000679045,-0.0134176,-0.0148318,-0.926713,0.00945182,0.0224815,1357,414,6.72505,47.7189
140,610,6.82617,-47.5425,-0.0121649,-0.0127781,-0.00144504,-0.0109943,-0.0139487,-0.680871,0.00848749,0.0194336,1364,414,6.82614,47.5425
147,610,6.79211,-47.2975,-0.00980034,-0.0117315,-0.00205622,-0.00849428,-0.0130376,-0.565883,0.0076416,0.0198903,1371,414,6.79207,47.2975
154,610,6.79163,-47.0345,-0.00699238,-0.0105023,-0.00258572,-0.00562231,-0.0118724,-0.487251,0.00685772,0.023352,1378,414,6.79166,47.0345
161,610,6.90295,-46.8434,-0.0042948,-0.00909986,-0.00290937,-0.00292419,-0.0104705,-0.440264,0.00623837,0.0269332,1385,414,6.90293,46.8434
168,610,6.98633,-46.6112,-0.00208365,-0.00773511,-0.00313201,-0.000691058,-0.0091277,-0.41838,0.00586836,0.0267753,1392,414,6.98631,46.6112
175,610,7.02576,-46.3392,0.000397436,-0.00620551,-0.00340963,0.00184204,-0.00765012,-0.400756,0.00581222,0.0227204,1399,414,7.02581,46.3392
182,610,7.0802,-46.0194,0.00272295,-0.0051954,-0.00355526,0.00408495,-0.0065574,-0.365849,0.00619939,0.0159146,1406,414,7.08022,46.0194
189,610,7.09912,-45.6706,0.00380219,-0.00433952,-0.00344345,0.00506324,-0.00560057,-0.351048,0.00615936,0.014581,1413,414,7.09916,45.6706
196,610,7.10632,-45.3485,0.00421527,-0.00404744,-0.00264386,0.00498882,-0.00482099,-0.284639,0.00566397,0.0148545,1420,414,7.10635,45.3485
203,610,7.10461,-45.0165,0.00394236,-0.00234204,-0.00196005,0.00450357,-0.00290325,-0.278862,0.00430947,0.0141951,1427,414,7.10465,45.0165
210,610,7.12573,-44.6717,0.00320544,-0.00111167,-0.001445,0.00364446,-0.00155069,-0.294957,0.00307955,0.0111928,1434,414,7.12569,44.6716
217,610,7.18909,-44.2542,0.00246863,-0.000120123,-0.000912366,0.00275786,-0.000409357,-0.306993,0.00198912,0.0168657,1441,414,7.18903,44.2542
224,610,7.21838,-43.8942,0.00185088,0.000924604,-0.000405378,0.00200323,0.000772252,-0.359496,0.00116663,0.0187991,1448,414,7.21838,43.8942
231,610,7.22717,-43.5186,0.00143974,0.00175441,4.39981e-05,0.00176044,0.00143371,1.43445,0.0010813,0.0152508,1455,414,7.22718,43.5186
238,610,7.21204,-43.0805,0.00138931,0.00250525,0.000455047,0.00266728,0.00122728,1.22872,0.00154158,0.0116057,1462,414,7.21201,43.0805
245,610,7.23242,-42.6334,0.00151374,0.00322759,0.000804362,0.00354596,0.00119537,1.19391,0.00208316,0.0123683,1469,414,7.23248,42.6334
252,610,7.20215,-42.1835,0.00168107,0.00402609,0.0012145,0.00454172,0.00116544,1.1693,0.00272375,0.0140791,1476,414,7.2022,42.1835
259,610,7.19556,-41.7213,0.00184924,0.0048261,0.00170048,0.00559755,0.00107779,1.1449,0.00342937,0.0124646,1483,414,7.19556,41.7213
266,610,7.17688,-41.249,0.00204992,0.00554,0.00216643,0.00657679,0.00101313,1.12444,0.00408887,0.0123165,1490,414,7.17685,41.249
273,610,7.18555,-40.7698,0.0022709,0.00640617,0.00268574,0.00772798,0.000949093,1.11344,0.00486657,0.0106831,1497,414,7.18553,40.7698
280,610,7.15808,-40.2766,0.00245128,0.00729585,0.00324588,0.00892365,0.000823472,1.10595,0.00569449,0.0102145,1504,414,7.15806,40.2765
287,610,7.14063,-39.7545,0.00255708,0.0082443,0.00383649,0.0101761,0.000625253,1.10432,0.00658556,0.0131496,1511,414,7.14058,39.7546
294,610,7.12891,-39.2453,0.0025062,0.00912145,0.00434386,0.0112736,0.00035402,1.11079,0.00740057,0.0113187,1518,414,7.12893,39.2453
301,610,7.10864,-38.7671,0.00234188,0.00988029,0.0047838,0.0122014,2.07969e-05,1.11906,0.00812733,0.0104315,1525,414,7.1086,38.7671
308,610,7.06421,-38.2343,0.00212306,0.0105757,0.00521558,0.0130623,-0.000363602,1.1259,0.00883191,0.0123172,1532,414,7.06423,38.2343
315,610,6.99573,-37.6983,0.00179712,0.0112985,0.00560202,0.013893,-0.000797365,1.13707,0.00953891,0.0130225,1539,414,6.99568,37.6983
322,610,6.96301,-37.1177,0.00132747,0.0118033,0.00593246,0.0144793,-0.00134853,1.14705,0.0101323,0.0127767,1546,414,6.96296,37.1178
329,610,6.94312,-36.5492,0.000709331,0.0124038,0.00626819,0.0151287,-0.0020155,1.16073,0.0108204,0.0115371,1553,414,6.94311,36.5492
336,610,6.927,-35.9905,-4.06785e-05,0.0129136,0.00641922,0.0155556,-0.00268274,1.18034,0.0113707,0.0124906,1560,414,6.92698,35.9905
343,610,6.86963,-35.4128,-0.000574663,0.0131173,0.00639571,0.01564,-0.00309739,1.19509,0.0115978,0.0169149,1567,414,6.86965,35.4128
350,610,6.81702,-34.8282,-0.000754784,0.0141393,0.00695009,0.0168786,-0.00349412,1.19535,0.0125799,0.0359295,1574,414,6.81697,34.8282
357,610,6.86487,-34.0779,0,0,0,0,0,0,0,-1,1581,414,6.86481,34.0779
364,610,6.97827,-33.3795,0,0,0,0,0,0,0,-1,1588,414,6.97821,33.3795
371,610,6.75476,-32.7251,0,0,0,0,0,0,0,-1,1595,414,6.75474,32.7251
378,610,3.5752,-12.1958,0,0,0,0,0,0,0,-1,1602,414,3.57517,12.1958
385,610,2.57104,-10.3878,0,0,0,0,0,0,0,-1,1609,414,2.57109,10.3878
392,610,1.99744,-1.83582,0,0,0,0,0,0,0,-1,1616,414,1.99741,1.8358
399,610,2.77136,-2.60333,0,0,0,0,0,0,0,-1,1623,414,2.77133,2.60332
406,610,3.54529,-3.37085,0,0,0,0,0,0,0,-1,1630,414,3.54525,3.37084
413,610,3.01929,-3.20306,0,0,0,0,0,0,0,-1,1637,414,3.01929,3.20306
420,610,4.78149,-3.64041,0,0,0,0,0,0,0,-1,1644,414,4.78152,3.64042
427,610,8.85168,-23.3853,0,0,0,0,0,0,0,-1,1651,414,8.85174,23.3853
434,610,8.73706,-22.6227,0,0,0,0,0,0,0,-1,1658,414,8.73703,22.6227
441,610,0,0,0,0,0,0,0,0,0,-1,1665,414,0,0
448,610,0,0,0,0,0,0,0,0,0,-1,1672,414,0,0
455,610,0,0,0,0,0,0,0,0,0,-1,1679,414,0,0
462,610,0,0,0,0,0,0,0,0,0,-1,1686,414,0,0
469,610,0,0,0,0,0,0,0,0,0,-1,1693,414,0,0
476,610,0,0,0,0,0,0,0,0,0,-1,1700,414,0,0
483,610,0,0,0,0,0,0,0,0,0,-1,1707,414,0,0
490,610,0,0,0,0,0,0,0,0,0,-1,1714,414,0,0
497,610,0,0,0,0,0,0,0,0,0,-1,1721,414,0,0
504,610,0,0,0,0,0,0,0,0,0,-1,1728,414,0,0
511,610,0,0,0,0,0,0,0,0,0,-1,1735,414,0,0
518,610,0,0,0,0,0,0,0,0,0,-1,1742,414,0,0
525,610,0,0,0,0,0,0,0,0,0,-1,1749,414,0,0
532,610,0,0,0,0,0,0,0,0,0,-1,1756,414,0,0
539,610,0,0,0,0,0,0,0,0,0,-1,1763,414,0,0
546,610,0,0,0,0,0,0,0,0,0,-1,1770,414,0,0
553,610,0,0,0,0,0,0,0,0,0,-1,1777,414,0,0
560,610,0,0,0,0,0,0,0,0,0,-1,1784,414,0,0
567,610,0,0,0,0,0,0,0,0,0,-1,1791,414,0,0
574,610,0,0,0,0,0,0,0,0,0,-1,1798,414,0,0
581,610,0,0,0,0,0,0,0,0,0,-1,1805,414,0,0
588,610,0,0,0,0,0,0,0,0,0,-1,1812,414,0,0
595,610,0,0,0,0,0,0,0,0,0,-1,1819,414,0,0
602,610,0,0,0,0,0,0,0,0,0,-1,1826,414,0,0
609,610,0,0,0,0,0,0,0,0,0,-1,1833,414,0,0
616,610,0,0,0,0,0,0,0,0,0,-1,1840,414,0,0
623,610,0,0,0,0,0,0,0,0,0,-1,1847,414,0,0
630,610,0,0,0,0,0,0,0,0,0,-1,1854,414,0,0
637,610,0,0,0,0,0,0,0,0,0,-1,1861,414,0,0
644,610,0,0,0,0,0,0,0,0,0,-1,1868,414,0,0
651,610,0,0,0,0,0,0,0,0,0,-1,1875,414,0,0
658,610,0,0,0,0,0,0,0,0,0,-1,1882,414,0,0
665,610,0,0,0,0,0,0,0,0,0,-1,1889,414,0,0
672,610,0,0,0,0,0,0,0,0,0,-1,1896,414,0,0
679,610,0,0,0,0,0,0,0,0,0,-1,1903,414,0,0
686,610,0,0,0,0,0,0,0,0,0,-1,1910,414,0,0
693,610,0,0,0,0,0,0,0,0,0,-1,1917,414,0,0
700,610,0,0,0,0,0,0,0,0,0,-1,1924,414,0,0
707,610,0,0,0,0,0,0,0,0,0,-1,1931,414,0,0
714,610,0,0,0,0,0,0,0,0,0,-1,1938,414,0,0
721,610,0,0,0,0,0,0,0,0,0,-1,1945,414,0,0
728,610,0,0,0,0,0,0,0,0,0,-1,1952,414,0,0
735,610,0,0,0,0,0,0,0,0,0,-1,1959,414,0,0
742,610,0,0,0,0,0,0,0,0,0,-1,1966,414,0,0
749,610,0,0,0,0,0,0,0,0,0,-1,1973,414,0,0
756,610,0,0,0,0,0,0,0,0,0,-1,1980,414,0,0
763,610,0,0,0,0,0,0,0,0,0,-1,1987,414,0,0
770,610,0,0,0,0,0,0,0,0,0,-1,1994,414,0,0
777,610,0,0,0,0,0,0,0,0,0,-1,2001,414,0,0
784,610,0,0,0,0,0,0,0,0,0,-1,2008,414,0,0
791,610,0,0,0,0,0,0,0,0,0,-1,2015,414,0,0
798,610,0,0,0,0,0,0,0,0,0,-1,2022,414,0,0
805,610,0,0,0,0,0,0,0,0,0,-1,2029,414,0,0
812,610,0,0,0,0,0,0,0,0,0,-1,2036,414,0,0
-700,603,0,0,0,0,0,0,0,0,0,-1,524,421,0,0
-693,603,0,0,0,0,0,0,0,0,0,-1,531,421,0,0
-686,603,0,0,0,0,0,0,0,0,0,-1,538,421,0,0
-679,603,0,0,0,0,0,0,0,0,0,-1,545,421,0,0
-672,603,0,0,0,0,0,0,0,0,0,-1,552,421,0,0
-665,603,0,0,0,0,0,0,0,0,0,-1,559,421,0,0
-658,603,0,0,0,0,0,0,0,0,0,-1,566,421,0,0
-651,603,0,0,0,0,0,0,0,0,0,-1,573,421,0,0
-644,603,0,0,0,0,0,0,0,0,0,-1,580,421,0,0
-637,603,0,0,0,0,0,0,0,0,0,-1,587,421,0,0
-630,603,0,0,0,0,0,0,0,0,0,-1,594,421,0,0
-623,603,0,0,0,0,0,0,0,0,0,-1,601,421,0,0
-616,603,0,0,0,0,0,0,0,0,0,-1,608,421,0,0
-609,603,0,0,0,0,0,0,0,0,0,-1,615,421,0,0
-602,603,0,0,0,0,0,0,0,0,0,-1,622,421,0,0
-595,603,0,0,0,0,0,0,0,0,0,-1,629,421,0,0
-588,603,0,0,0,0,0,0,0,0,0,-1,636,421,0,0
-581,603,0,0,0,0,0,0,0,0,0,-1,643,421,0,0
-574,603,0,0,0,0,0,0,0,0,0,-1,650,421,0,0
-567,603,0,0,0,0,0,0,0,0,0,-1,657,421,0,0
-560,603,0,0,0,0,0,0,0,0,0,-1,664,421,0,0
-553,603,0,0,0,0,0,0,0,0,0,-1,671,421,0,0
-546,603,0,0,0,0,0,0,0,0,0,-1,678,421,0,0
-539,603,0,0,0,0,0,0,0,0,0,-1,685,421,0,0
-532,603,0,0,0,0,0,0,0,0,0,-1,692,421,0,0
-525,603,0,0,0,0,0,0,0,0,0,-1,699,421,0,0
-518,603,0,0,0,0,0,0,0,0,0,-1,706,421,0,0
-511,603,0,0,0,0,0,0,0,0,0,-1,713,421,0,0
-504,603,0,0,0,0,0,0,0,0,0,-1,720,421,0,0
-497,603,0,0,0,0,0,0,0,0,0,-1,727,421,0,0
-490,603,0,0,0,0,0,0,0,0,0,-1,734,421,0,0
-483,603,0,0,0,0,0,0,0,0,0,-1,741,421,0,0
-476,603,0,0,0,0,0,0,0,0,0,-1,748,421,0,0
-469,603,0,0,0,0,0,0,0,0,0,-1,755,421,0,0
-462,603,0,0,0,0,0,0,0,0,0,-1,762,421,0,0
-455,603,0,0,0,0,0,0,0,0,0,-1,769,421,0,0
-448,603,0,0,0,0,0,0,0,0,0,-1,776,421,0,0
-441,603,0,0,0,0,0,0,0,0,0,-1,783,421,0,0
-434,603,0,0,0,0,0,0,0,0,0,-1,790,421,0,0
-427,603,0,0,0,0,0,0,0,0,0,-1,797,421,0,0
-420,603,0,0,0,0,0,0,0,0,0,-1,804,421,0,0
-413,603,0,0,0,0,0,0,0,0,0,-1,811,421,0,0
-406,603,0,0,0,0,0,0,0,0,0,-1,818,421,0,0
-399,603,0,0,0,0,0,0,0,0,0,-1,825,421,0,0
-392,603,0,0,0,0,0,0,0,0,0,-1,832,421,0,0
-385,603,0,0,0,0,0,0,0,0,0,-1,839,421,0,0
-378,603,0,0,0,0,0,0,0,0,0,-1,846,421,0,0
-371,603,0,0,0,0,0,0,0,0,0,-1,853,421,0,0
-364,603,0,0,0,0,0,0,0,0,0,-1,860,421,0,0
-357,603,0,0,0,0,0,0,0,0,0,-1,867,421,0,0
-350,603,0,0,0,0,0,0,0,0,0,-1,874,421,0,0
-343,603,0,0,0,0,0,0,0,0,0,-1,881,421,0,0
-336,603,0,0,0,0,0,0,0,0,0,-1,888,421,0,0
-329,603,4.09686,-17.9702,0,0,0,0,0,0,0,-1,895,421,4.09687,17.9702
-322,603,8.83179,-28.7376,0,0,0,0,0,0,0,-1,902,421,8.83179,28.7376
-315,603,5.99744,-20.4501,0,0,0,0,0,0,0,-1,909,421,5.99745,20.4501
-308,603,5.92249,-20.778,0,0,0,0,0,0,0,-1,916,421,5.92248,20.778
-301,603,2.72424,-20.9059,0,0,0,0,0,0,0,-1,923,421,2.72424,20.9059
-294,603,2.41553,-20.6767,0,0,0,0,0,0,0,-1,930,421,2.41554,20.6767
-287,603,1.91766,-21.2242,0,0,0,0,0,0,0,-1,937,421,1.91767,21.2242
-280,603,2.36121,-27.3314,0,0,0,0,0,0,0,-1,944,421,2.36119,27.3314
-273,603,4.85809,-31.9352,0,0,0,0,0,0,0,-1,951,421,4.85811,31.9351
-266,603,4.59857,-30.8975,0,0,0,0,0,0,0,-1,958,421,4.59859,30.8975
-259,603,4.87585,-31.6629,0,0,0,0,0,0,0,-1,965,421,4.87587,31.6629
-252,603,4.98022,-33.1754,0,0,0,0,0,0,0,-1,972,421,4.98025,33.1754
-245,603,4.94531,-33.6162,0.00125843,0.0290114,-0.0127013,0.0339466,-0.00367675,-1.20019,0.0239509,0.0363444,979,421,4.94533,33.6162
-238,603,4.79681,-34.1687,0.000702222,0.0261199,-0.011304,0.0304198,-0.00359764,-1.20732,0.0215793,0.0244697,986,421,4.7968,34.1687
-231,603,4.71051,-34.8484,0.000286208,0.0233597,-0.0100034,0.0270927,-0.00344676,-1.21363,0.0193135,0.0146087,993,421,4.71052,34.8485
-224,603,4.68237,-35.4825,2.07188e-05,0.0205976,-0.00878219,0.0238361,-0.00321781,-1.21751,0.0170648,0.0142861,1000,421,4.68239,35.4825
-217,603,4.67651,-36.0409,-0.000148016,0.0177805,-0.00768277,0.0206223,-0.00298981,-1.21651,0.0148455,0.0134786,1007,421,4.67649,36.0409
-210,603,4.64929,-36.6047,-0.000287633,0.0147449,-0.00651022,0.0171723,-0.00271508,-1.2139,0.0124523,0.0118825,1014,421,4.64926,36.6047
-203,603,4.61633,-37.1959,-0.000327942,0.0121584,-0.00548055,0.0142227,-0.00239221,-1.21058,0.0103716,0.0182549,1021,421,4.61632,37.1959
-196,603,4.62427,-37.7727,-0.000304735,0.010139,-0.00462425,0.0118922,-0.00205794,-1.20841,0.00869565,0.0200049,1028,421,4.62427,37.7727
-189,603,4.59326,-38.2346,-0.000179352,0.00826326,-0.00398759,0.00984887,-0.00176496,-1.19233,0.00722644,0.0171455,1035,421,4.59332,38.2346
-182,603,4.55725,-38.7287,-5.1978e-05,0.00647049,-0.00326363,0.00782303,-0.00140452,-1.17791,0.00574108,0.0122422,1042,421,4.55731,38.7287
-175,603,4.52295,-39.233,-7.68412e-06,0.00453721,-0.00240103,0.00557066,-0.00104114,-1.16434,0.00410507,0.0122299,1049,421,4.52293,39.233
-168,603,4.47314,-39.7494,2.25922e-05,0.00287583,-0.00167241,0.00364743,-0.000749016,-1.13852,0.00271594,0.0148329,1056,421,4.4731,39.7494
-161,603,4.45081,-40.261,0.000137673,0.00155823,-0.00106714,0.00212985,-0.000433954,-1.07903,0.00158449,0.0144182,1063,421,4.45076,40.261
-154,603,4.45496,-40.7296,0.000330299,0.000264202,-0.000484006,0.000782384,-0.000187883,-0.75131,0.000594202,0.0130271,1070,421,4.45497,40.7296
-147,603,4.43579,-41.1758,0.000538701,-0.000961044,7.29996e-05,0.000542246,-0.000964589,0.0485218,0.000881288,0.014452,1077,421,4.43576,41.1758
-140,603,4.43933,-41.6387,0.000767349,-0.00218036,0.000581544,0.000877932,-0.00229095,0.187909,0.00188921,0.0124032,1084,421,4.43928,41.6387
-133,603,4.42175,-42.0795,0.000994658,-0.00332552,0.00103067,0.00122795,-0.00355881,0.222597,0.00287077,0.0126378,1091,421,4.42181,42.0795
-126,603,4.42554,-42.4881,0.00126225,-0.00424939,0.00142362,0.00160824,-0.00459538,0.238414,0.00371749,0.011444,1098,421,4.42559,42.4881
-119,603,4.46765,-42.8974,0.00167745,-0.00505982,0.00172159,0.00209188,-0.00547425,0.23623,0.00451145,0.0116146,1105,421,4.46759,42.8974
-112,603,4.45374,-43.3415,0.00212206,-0.00571708,0.00194715,0.00257906,-0.00617409,0.230532,0.00519377,0.0166748,1112,421,4.45371,43.3415
-105,603,4.46399,-43.7398,0.00259247,-0.0062041,0.0020632,0.00305234,-0.00666397,0.219308,0.00573744,0.0168794,1119,421,4.46403,43.7398
-98,603,4.47437,-44.0977,0.00308639,-0.00656028,0.00209755,0.00352273,-0.00699663,0.205102,0.00618277,0.0142601,1126,421,4.47435,44.0977
-91,603,4.50183,-44.4742,0.00368479,-0.00658578,0.00204763,0.00407797,-0.00697896,0.189708,0.00645655,0.01089,1133,421,4.50187,44.4742
-84,603,4.53601,-44.8697,0.00434444,-0.00644292,0.00201521,0.00470862,-0.00680709,0.178782,0.00668529,0.0123634,1140,421,4.536,44.8697
-77,603,4.55835,-45.2135,0.00494146,-0.00644362,0.00206353,0.00530393,-0.00680609,0.173882,0.00700963,0.0182508,1147,421,4.55837,45.2135
-70,603,4.55652,-45.536,0,0,0,0,0,0,0,-1,1154,421,4.55654,45.536
-63,603,4.58545,-45.808,0,0,0,0,0,0,0,-1,1161,421,4.5855,45.808
-56,603,4.69043,-46.1132,0,0,0,0,0,0,0,-1,1168,421,4.69039,46.1132
-49,603,4.75623,-46.3847,0,0,0,0,0,0,0,-1,1175,421,4.75623,46.3847
-42,603,4.77734,-46.6563,0,0,0,0,0,0,0,-1,1182,421,4.77736,46.6563
-35,603,4.79968,-46.8746,-0.00383658,0.0132975,0.00259712,0.0136825,-0.00422159,1.42362,0.0108073,0.043482,1189,421,4.79967,46.8746
-28,603,4.85352,-47.0523,-0.00052887,0.012973,-0.000152503,0.0129748,-0.000530593,-1.5595,0.00883202,0.0298466,1196,421,4.85353,47.0523
-21,603,4.91138,-47.285,0.0026367,0.0121016,-0.00235516,0.0126552,0.00208304,-1.33991,0.00783531,0.0250314,1203,421,4.91132,47.285
-14,603,5.04041,-47.4655,0.00563003,0.0101679,-0.0044529,0.0128966,0.00290134,-1.02103,0.00781233,0.0221231,1210,421,5.04038,47.4655
-7,603,5.10645,-47.6169,0.00892134,0.00832136,-0.00685967,0.0154876,0.00175512,-0.763546,0.00979258,0.0253707,1217,421,5.1064,47.6169
0,603,5.11267,-47.8379,0.0118671,0.00578544,-0.00878241,0.0181202,-0.000467687,-0.618738,0.012239,0.0324568,1224,421,5.11268,47.8379
7,603,5.19336,-47.8565,0.0141729,0.00331161,-0.0101161,0.0202239,-0.00273937,-0.53906,0.0144823,0.0438566,1231,421,5.19342,47.8565
14,603,5.47351,-47.703,0.0155112,0.00126948,-0.0106925,0.0212369,-0.00445628,-0.491639,0.0158535,0.0461948,1238,421,5.47354,47.703
21,603,5.51563,-47.7722,0.0158697,-0.000782306,-0.0104669,0.0209182,-0.00583082,-0.449414,0.0162418,0.0360553,1245,421,5.5156,47.7722
28,603,5.55237,-47.8532,0.0152455,-0.00291723,-0.00957375,0.0193599,-0.00703162,-0.405893,0.0157816,0.0390048,1252,421,5.55238,47.8532
35,603,5.62561,-47.8145,0.0132901,-0.00456829,-0.0078707,0.0162638,-0.00754197,-0.361238,0.0140484,0.046997,1259,421,5.62557,47.8145
42,603,5.78308,-48.2142,0.0108101,-0.00613046,-0.00609361,0.0127743,-0.00809463,-0.311817,0.0121492,0.0446897,1266,421,5.7831,48.2142
49,603,5.92725,-48.4657,0.00675516,-0.00833383,-0.00377074,0.00764499,-0.00922367,-0.231744,0.00975333,0.0233137,1273,421,5.92724,48.4657
56,603,5.87122,-48.3232,0.00195498,-0.0098099,-0.00133204,0.00210391,-0.00995883,-0.111344,0.00744035,0.0443708,1280,421,5.87123,48.3232
63,603,5.83826,-48.1691,0,0,0,0,0,0,0,-1,1287,421,5.83828,48.1691
70,603,5.7793,-48.3024,0,0,0,0,0,0,0,-1,1294,421,5.77928,48.3024
77,603,6.06482,-48.3657,0,0,0,0,0,0,0,-1,1301,421,6.06485,48.3657
84,603,6.28748,-48.3772,0,0,0,0,0,0,0,-1,1308,421,6.28742,48.3772
91,603,6.50867,-48.33,0,0,0,0,0,0,0,-1,1315,421,6.50864,48.33
98,603,6.72998,-48.4641,0,0,0,0,0,0,0,-1,1322,421,6.72995,48.4642
105,603,6.70544,-48.2693,0,0,0,0,0,0,0,-1,1329,421,6.70546,48.2693
112,603,6.8938,-47.8467,-0.0249346,-0.0219198,0.00301544,-0.020056,-0.0267984,1.01718,0.0160959,0.0440161,1336,421,6.89381,47.8467
119,603,7.00928,-47.7455,-0.0249368,-0.0219331,0.00182461,-0.0210718,-0.0257982,1.12973,0.0158598,0.0471987,1343,421,7.00934,47.7455
126,603,7.04846,-47.531,0,0,0,0,0,0,0,-1,1350,421,7.04849,47.531
133,603,7.03162,-47.3433,-0.0223119,-0.0185826,-0.000992012,-0.0183352,-0.0225593,-1.32633,0.0138479,0.0475553,1357,421,7.03158,47.3433
140,603,7.20032,-47.1112,-0.0201943,-0.0169347,-0.0023042,-0.0157421,-0.0213868,-1.09321,0.0127982,0.0363104,1364,421,7.20036,47.1112
147,603,7.099,-47.0003,-0.0178245,-0.0153696,-0.0034099,-0.012973,-0.0202212,-0.95816,0.0118296,0.0284968,1371,421,7.09895,47.0003
154,603,7.03125,-46.9149,-0.0149591,-0.0136091,-0.00440281,-0.00982985,-0.0187384,-0.861458,0.010823,0.0344948,1378,421,7.03128,46.9148
161,603,7.224,-46.7137,-0.0120144,-0.0117665,-0.00510527,-0.00678367,-0.0169972,-0.797534,0.00987973,0.0324316,1385,421,7.22404,46.7137
168,603,7.32361,-46.464,-0.00926646,-0.00961746,-0.00567388,-0.00376537,-0.0151186,-0.769937,0.00908776,0.035515,1392,421,7.32362,46.464
175,603,7.51855,-46.2018,-0.00582631,-0.00712758,-0.00625396,-0.000189229,-0.0127647,-0.733567,0.0084474,0.0409066,1399,421,7.51854,46.2018
182,603,7.58215,-45.9358,-0.00232861,-0.00611275,-0.00646126,0.00251192,-0.0109533,-0.642964,0.00826768,0.0458553,1406,421,7.58214,45.9358
189,603,7.52112,-45.5881,-4.17273e-06,-0.00558464,-0.00633958,0.00413204,-0.00972085,-0.578091,0.00821207,0.0391749,1413,421,7.52115,45.5881
196,603,7.46765,-45.2133,0.00154157,-0.00606494,-0.00514014,0.00413251,-0.00865588,-0.466891,0.00753576,0.0291218,1420,421,7.4676,45.2133
203,603,7.48987,-44.9558,0.00323513,-0.00444073,-0.0038475,0.00483162,-0.00603723,-0.393322,0.00628799,0.0169706,1427,421,7.48992,44.9558
210,603,7.52393,-44.7042,0.00373766,-0.0031464,-0.0028826,0.00478528,-0.00419401,-0.348587,0.00518794,0.0134861,1434,421,7.52389,44.7042
217,603,7.5448,-44.2746,0.00356636,-0.00193879,-0.00202083,0.00422852,-0.00260096,-0.316643,0.00398015,0.0138277,1441,421,7.54477,44.2746
224,603,7.61047,-43.8673,0.00264278,-0.000599832,-0.00135739,0.00313598,-0.00109304,-0.348515,0.00253481,0.0165074,1448,421,7.61053,43.8673
231,603,7.62573,-43.4771,0.00188281,0.000370594,-0.000863129,0.00227418,-2.07681e-05,-0.425697,0.00152309,0.0145704,1455,421,7.62574,43.4771
238,603,7.62927,-43.056,0.00159201,0.00105426,-0.000528257,0.00191589,0.000730391,-0.549993,0.00111649,0.0111721,1462,421,7.62933,43.056
245,603,7.6554,-42.6367,0.00158058,0.00168329,-0.000214044,0.00185205,0.00141181,-0.903136,0.00111725,0.0116842,1469,421,7.65538,42.6367
252,603,7.67542,-42.18,0.00159457,0.00233805,0.00014793,0.0023664,0.00156622,1.38143,0.0013899,0.0108303,1476,421,7.67536,42.18
259,603,7.65942,-41.7182,0.00161168,0.00287571,0.000569111,0.00309418,0.00139321,1.20426,0.00178937,0.0110021,1483,421,7.65947,41.7182
266,603,7.64111,-41.2544,0.00169493,0.00339304,0.000973676,0.00383586,0.00125211,1.14397,0.00225868,0.0119394,1490,421,7.64107,41.2544
273,603,7.64807,-40.7761,0.00183591,0.0040312,0.00141139,0.00472153,0.00114559,1.1159,0.00284381,0.0115974,1497,421,7.64811,40.7761
280,603,7.63245,-40.2681,0.0019587,0.00470323,0.00189451,0.00567025,0.000991675,1.09884,0.0034968,0.0128302,1504,421,7.6324,40.2681
287,603,7.63416,-39.7507,0.0020432,0.0054271,0.00239443,0.00666705,0.000803258,1.09297,0.00420261,0.01162,1511,421,7.63421,39.7507
294,603,7.61621,-39.2588,0.00200856,0.00613151,0.00284231,0.00758121,0.000558851,1.09914,0.00487854,0.00970092,1518,421,7.61619,39.2588
301,603,7.60559,-38.7822,0.00187791,0.00676589,0.00324804,0.00838673,0.000257076,1.10793,0.00550746,0.0120698,1525,421,7.60554,38.7822
308,603,7.56067,-38.2268,0.00171854,0.00733767,0.00365457,0.00913783,-8.16188e-05,1.1131,0.00611928,0.0169259,1532,421,7.56071,38.2268
315,603,7.51611,-37.6821,0.00145309,0.00799699,0.00401838,0.00990703,-0.000456947,1.12708,0.00676215,0.0149035,1539,421,7.51615,37.6821
322,603,7.4928,-37.1223,0.00104846,0.00852749,0.00434196,0.0105183,-0.000942347,1.14089,0.00734649,0.0143805,1546,421,7.49276,37.1223
329,603,7.46777,-36.5589,0.000558737,0.00905339,0.00465623,0.0111085,-0.00149634,1.15515,0.00795149,0.0109366,1553,421,7.46772,36.5589
336,603,7.44409,-36.0141,9.38673e-07,0.00954281,0.00487755,0.0115948,-0.00205105,1.17257,0.00849648,0.0101171,1560,421,7.44408,36.0141
343,603,7.41565,-35.4363,-0.000459111,0.00992269,0.00501135,0.011947,-0.00248341,1.1869,0.0089086,0.0115953,1567,421,7.41568,35.4363
350,603,7.3866,-34.848,-0.0006874,0.0109452,0.00554791,0.0131669,-0.00290905,1.1899,0.00989123,0.0171975,1574,421,7.38662,34.848
357,603,7.3739,-34.1971,-0.000948798,0.0118841,0.00615622,0.0143598,-0.00342447,1.18844,0.0108956,0.0232227,1581,421,7.37392,34.1971
364,603,7.34045,-33.5069,-0.00126989,0.0127835,0.0067583,0.0155061,-0.0039925,1.18783,0.0118937,0.0287519,1588,421,7.3404,33.5069
371,603,7.245,-32.9273,-0.00152301,0.0145467,0.00755516,0.0175409,-0.00451717,1.19348,0.0134548,0.0410096,1595,421,7.24502,32.9273
378,603,7.22546,-32.5435,0,0,0,0,0,0,0,-1,1602,421,7.22549,32.5436
385,603,7.16284,-31.7202,0,0,0,0,0,0,0,-1,1609,421,7.16283,31.7202
392,603,4.90527,-19.605,0,0,0,0,0,0,0,-1,1616,421,4.90526,19.605
399,603,2.94299,0.638214,0,0,0,0,0,0,0,-1,1623,421,2.94293,-0.638215
406,603,3.01917,-2.37219,0,0,0,0,0,0,0,-1,1630,421,3.01915,2.37219
413,603,2.38928,-2.41275,0,0,0,0,0,0,0,-1,1637,421,2.38926,2.41274
420,603,8.22217,-23.7068,0,0,0,0,0,0,0,-1,1644,421,8.22215,23.7068
427,603,8.20386,-23.1278,0,0,0,0,0,0,0,-1,1651,421,8.2039,23.1278
434,603,8.01489,-22.5655,0,0,0,0,0,0,0,-1,1658,421,8.01493,22.5655
441,603,8.00122,-22.3072,0,0,0,0,0,0,0,-1,1665,421,8.00116,22.3071
448,603,1.14355,-4.59842,0,0,0,0,0,0,0,-1,1672,421,1.14355,4.59841
455,603,0,0,0,0,0,0,0,0,0,-1,1679,421,0,0
462,603,0,0,0,0,0,0,0,0,0,-1,1686,421,0,0
469,603,0,0,0,0,0,0,0,0,0,-1,1693,421,0,0
476,603,0,0,0,0,0,0,0,0,0,-1,1700,421,0,0
483,603,0,0,0,0,0,0,0,0,0,-1,1707,421,0,0
490,603,0,0,0,0,0,0,0,0,0,-1,1714,421,0,0
497,603,0,0,0,0,0,0,0,0,0,-1,1721,421,0,0
504,603,0,0,0,0,0,0,0,0,0,-1,1728,421,0,0
511,603,0,0,0,0,0,0,0,0,0,-1,1735,421,0,0
518,603,0,0,0,0,0,0,0,0,0,-1,1742,421,0,0
525,603,0,0,0,0,0,0,0,0,0,-1,1749,421,0,0
532,603,0,0,0,0,0,0,0,0,0,-1,1756,421,0,0
539,603,0,0,0,0,0,0,0,0,0,-1,1763,421,0,0
546,603,0,0,0,0,0,0,0,0,0,-1,1770,421,0,0
553,603,0,0,0,0,0,0,0,0,0,-1,1777,421,0,0
560,603,0,0,0,0,0,0,0,0,0,-1,1784,421,0,0
567,603,0,0,0,0,0,0,0,0,0,-1,1791,421,0,0
574,603,0,0,0,0,0,0,0,0,0,-1,1798,421,0,0
581,603,0,0,0,0,0,0,0,0,0,-1,1805,421,0,0
588,603,0,0,0,0,0,0,0,0,0,-1,1812,421,0,0
595,603,0,0,0,0,0,0,0,0,0,-1,1819,421,0,0
602,603,0,0,0,0,0,0,0,0,0,-1,1826,421,0,0
609,603,0,0,0,0,0,0,0,0,0,-1,1833,421,0,0
616,603,0,0,0,0,0,0,0,0,0,-1,1840,421,0,0
623,603,0,0,0,0,0,0,0,0,0,-1,1847,421,0,0
630,603,0,0,0,0,0,0,0,0,0,-1,1854,421,0,0
637,603,0,0,0,0,0,0,0,0,0,-1,1861,421,0,0
644,603,0,0,0,0,0,0,0,0,0,-1,1868,421,0,0
651,603,0,0,0,0,0,0,0,0,0,-1,1875,421,0,0
658,603,0,0,0,0,0,0,0,0,0,-1,1882,421,0,0
665,603,0,0,0,0,0,0,0,0,0,-1,1889,421,0,0
672,603,0,0,0,0,0,0,0,0,0,-1,1896,421,0,0
679,603,0,0,0,0,0,0,0,0,0,-1,1903,421,0,0
686,603,0,0,0,0,0,0,0,0,0,-1,1910,421,0,0
693,603,0,0,0,0,0,0,0,0,0,-1,1917,421,0,0
700,603,0,0,0,0,0,0,0,0,0,-1,1924,421,0,0
707,603,0,0,0,0,0,0,0,0,0,-1,1931,421,0,0
714,603,0,0,0,0,0,0,0,0,0,-1,1938,421,0,0
721,603,0,0,0,0,0,0,0,0,0,-1,1945,421,0,0
728,603,0,0,0,0,0,0,0,0,0,-1,1952,421,0,0
735,603,0,0,0,0,0,0,0,0,0,-1,1959,421,0,0
742,603,0,0,0,0,0,0,0,0,0,-1,1966,421,0,0
749,603,0,0,0,0,0,0,0,0,0,-1,1973,421,0,0
756,603,0,0,0,0,0,0,0,0,0,-1,1980,421,0,0
763,603,0,0,0,0,0,0,0,0,0,-1,1987,421,0,0
770,603,0,0,0,0,0,0,0,0,0,-1,1994,421,0,0
777,603,0,0,0,0,0,0,0,0,0,-1,2001,421,0,0
784,603,0,0,0,0,0,0,0,0,0,-1,2008,421,0,0
791,603,0,0,0,0,0,0,0,0,0,-1,2015,421,0,0
798,603,0,0,0,0,0,0,0,0,0,-1,2022,421,0,0
805,603,0,0,0,0,0,0,0,0,0,-1,2029,421,0,0
812,603,0,0,0,0,0,0,0,0,0,-1,2036,421,0,0
-700,596,0,0,0,0,0,0,0,0,0,-1,524,428,0,0
-693,596,0,0,0,0,0,0,0,0,0,-1,531,428,0,0
-686,596,0,0,0,0,0,0,0,0,0,-1,538,428,0,0
-679,596,0,0,0,0,0,0,0,0,0,-1,545,428,0,0
-672,596,0,0,0,0,0,0,0,0,0,-1,552,428,0,0
-665,596,0,0,0,0,0,0,0,0,0,-1,559,428,0,0
-658,596,0,0,0,0,0,0,0,0,0,-1,566,428,0,0
-651,596,0,0,0,0,0,0,0,0,0,-1,573,428,0,0
-644,596,0,0,0,0,0,0,0,0,0,-1,580,428,0,0
-637,596,0,0,0,0,0,0,0,0,0,-1,587,428,0,0
-630,596,0,0,0,0,0,0,0,0,0,-1,594,428,0,0
-623,596,0,0,0,0,0,0,0,0,0,-1,601,428,0,0
-616,596,0,0,0,0,0,0,0,0,0,-1,608,428,0,0
-609,596,0,0,0,0,0,0,0,0,0,-1,615,428,0,0
-602,596,0,0,0,0,0,0,0,0,0,-1,622,428,0,0
-595,596,0,0,0,0,0,0,0,0,0,-1,629,428,0,0
-588,596,0,0,0,0,0,0,0,0,0,-1,636,428,0,0
-581,596,0,0,0,0,0,0,0,0,0,-1,643,428,0,0
-574,596,0,0,0,0,0,0,0,0,0,-1,650,428,0,0
-567,596,0,0,0,0,0,0,0,0,0,-1,657,428,0,0
-560,596,0,0,0,0,0,0,0,0,0,-1,664,428,0,0
-553,596,0,0,0,0,0,0,0,0,0,-1,671,428,0,0
-546,596,0,0,0,0,0,0,0,0,0,-1,678,428,0,0
-539,596,0,0,0,0,0,0,0,0,0,-1,685,428,0,0
-532,596,0,0,0,0,0,0,0,0,0,-1,692,428,0,0
-525,596,0,0,0,0,0,0,0,0,0,-1,699,428,0,0
-518,596,0,0,0,0,0,0,0,0,0,-1,706,428,0,0
-511,596,0,0,0,0,0,0,0,0,0,-1,713,428,0,0
-504,596,0,0,0,0,0,0,0,0,0,-1,720,428,0,0
-497,596,0,0,0,0,0,0,0,0,0,-1,727,428,0,0
-490,596,0,0,0,0,0,0,0,0,0,-1,734,428,0,0
-483,596,0,0,0,0,0,0,0,0,0,-1,741,428,0,0
-476,596,0,0,0,0,0,0,0,0,0,-1,748,428,0,0
-469,596,0,0,0,0,0,0,0,0,0,-1,755,428,0,0
-462,596,0,0,0,0,0,0,0,0,0,-1,762,428,0,0
-455,596,0,0,0,0,0,0,0,0,0,-1,769,428,0,0
-448,596,0,0,0,0,0,0,0,0,0,-1,776,428,0,0
-441,596,0,0,0,0,0,0,0,0,0,-1,783,428,0,0
-434,596,0,0,0,0,0,0,0,0,0,-1,790,428,0,0
-427,596,0,0,0,0,0,0,0,0,0,-1,797,428,0,0
-420,596,0,0,0,0,0,0,0,0,0,-1,804,428,0,0
-413,596,0,0,0,0,0,0,0,0,0,-1,811,428,0,0
-406,596,0,0,0,0,0,0,0,0,0,-1,818,428,0,0
-399,596,0,0,0,0,0,0,0,0,0,-1,825,428,0,0
-392,596,0,0,0,0,0,0,0,0,0,-1,832,428,0,0
-385,596,0,0,0,0,0,0,0,0,0,-1,839,428,0,0
-378,596,0,0,0,0,0,0,0,0,0,-1,846,428,0,0
-371,596,0,0,0,0,0,0,0,0,0,-1,853,428,0,0
-364,596,0,0,0,0,0,0,0,0,0,-1,860,428,0,0
-357,596,0,0,0,0,0,0,0,0,0,-1,867,428,0,0
-350,596,0,0,0,0,0,0,0,0,0,-1,874,428,0,0
-343,596,0,0,0,0,0,0,0,0,0,-1,881,428,0,0
-336,596,6.81445,-30.5258,0,0,0,0,0,0,0,-1,888,428,6.81446,30.5258
-329,596,6.84772,-28.9253,0,0,0,0,0,0,0,-1,895,428,6.84773,28.9253
-322,596,6.97449,-27.9047,0,0,0,0,0,0,0,-1,902,428,6.97451,27.9047
-315,596,7.10132,-26.8841,0,0,0,0,0,0,0,-1,909,428,7.10129,26.8841
-308,596,0.254761,-20.841,0,0,0,0,0,0,0,-1,916,428,0.254731,20.841
-301,596,3.43213,-26.756,0,0,0,0,0,0,0,-1,923,428,3.43214,26.756
-294,596,4.1767,-27.6454,0,0,0,0,0,0,0,-1,930,428,4.17667,27.6454
-287,596,4.36041,-27.6119,0,0,0,0,0,0,0,-1,937,428,4.3604,27.6119
-280,596,4.34296,-30.7726,0,0,0,0,0,0,0,-1,944,428,4.34293,30.7726
-273,596,4.40533,-31.2969,0,0,0,0,0,0,0,-1,951,428,4.40533,31.2969
-266,596,4.1731,-31.3456,0.0044093,0.0300646,-0.0146475,0.0367074,-0.0022335,-1.14503,0.025249,0.0495886,958,428,4.17309,31.3456
-259,596,4.27673,-32.0709,0.00293921,0.0272605,-0.0129374,0.0328554,-0.0026556,-1.16263,0.0228403,0.0450256,965,428,4.27672,32.0709
-252,596,4.27875,-33.0591,0.0016635,0.0244911,-0.0110824,0.0289862,-0.00283161,-1.18546,0.0203338,0.0236251,972,428,4.27877,33.059
-245,596,4.27643,-33.7393,0.00110294,0.0219987,-0.00991123,0.0259519,-0.00285024,-1.19127,0.0183254,0.0163592,979,428,4.27645,33.7393
-238,596,4.26111,-34.345,0.000790024,0.0196968,-0.00876611,0.0231357,-0.00264888,-1.19695,0.0163783,0.0135578,986,428,4.26111,34.345
-231,596,4.17981,-34.9392,0.000534941,0.0174065,-0.00767154,0.0203731,-0.00243169,-1.2018,0.014461,0.0134979,993,428,4.17981,34.9392
-224,596,4.17236,-35.5284,0.000367843,0.0150802,-0.00662821,0.0176258,-0.00217783,-1.2041,0.0125397,0.0138769,1000,428,4.17236,35.5284
-217,596,4.15247,-36.0865,0.000282703,0.0126486,-0.00566195,0.0148494,-0.00191805,-1.20008,0.010597,0.0148034,1007,428,4.15249,36.0865
-210,596,4.12823,-36.6349,0.000209727,0.00998107,-0.00462258,0.0118213,-0.00163053,-1.19193,0.00847682,0.0135596,1014,428,4.12826,36.6349
-203,596,4.11133,-37.179,0.000219099,0.00767964,-0.0036936,0.0091989,-0.00130016,-1.18057,0.00660876,0.0172547,1021,428,4.1113,37.1789
-196,596,4.10645,-37.7174,0.000279687,0.00585965,-0.00290489,0.00709737,-0.000958034,-1.16801,0.00508112,0.0171067,1028,428,4.10645,37.7174
-189,596,4.06921,-38.2343,0.00043026,0.00417048,-0.00229433,0.00526031,-0.000659573,-1.12734,0.00374614,0.0142249,1035,428,4.06926,38.2344
-182,596,4.04688,-38.7184,0.000605973,0.00259046,-0.00163089,0.00350723,-0.0003108,-1.05869,0.00244834,0.0124545,1042,428,4.04692,38.7184
-175,596,4.02844,-39.22,0.000725845,0.000854406,-0.000842639,0.00163521,-5.49616e-05,-0.823467,0.00110892,0.0136574,1049,428,4.02846,39.22
-168,596,4.0116,-39.7307,0.000813531,-0.000796023,-0.000141067,0.000825801,-0.000808293,-0.0867622,0.000943463,0.0161782,1056,428,4.01164,39.7307
-161,596,3.9978,-40.2229,0.000971642,-0.00205264,0.000442016,0.00103492,-0.00211592,0.142194,0.00185448,0.0154999,1063,428,3.99781,40.2229
-154,596,3.97974,-40.6915,0.00119704,-0.00332135,0.00103146,0.00142136,-0.00354567,0.214149,0.00295385,0.0129174,1070,428,3.97973,40.6915
-147,596,4.00159,-41.1417,0.00146463,-0.00455414,0.00159502,0.00186119,-0.00495071,0.243685,0.00406545,0.0135674,1077,428,4.0016,41.1417
-140,596,4.0022,-41.5938,0.00174076,-0.00583324,0.0021082,0.00228803,-0.00638051,0.253984,0.00518737,0.0155923,1084,428,4.00217,41.5937
-133,596,3.99438,-42.0561,0.00194535,-0.00706155,0.00260156,0.00264278,-0.00775898,0.261924,0.00624291,0.0162913,1091,428,3.99443,42.056
-126,596,4.02026,-42.4596,0.00219915,-0.00808983,0.00303382,0.00302709,-0.00891776,0.266414,0.00717045,0.0120144,1098,428,4.02032,42.4596
-119,596,4.06897,-42.8812,0.00261738,-0.00908619,0.00337013,0.00351846,-0.00998726,0.26126,0.00809018,0.0143008,1105,428,4.06891,42.8812
-112,596,4.04163,-43.3017,0.00306363,-0.00989423,0.00360168,0.00399743,-0.010828,0.253683,0.00885714,0.0159433,1112,428,4.04157,43.3017
-105,596,4.02783,-43.7354,0.00356595,-0.0104737,0.00371622,0.00448894,-0.0113967,0.243441,0.00945618,0.0201336,1119,428,4.02779,43.7353
-98,596,4.11133,-44.1248,0.00408712,-0.0108372,0.00372399,0.00496474,-0.0117148,0.231443,0.00988931,0.0247978,1126,428,4.11133,44.1248
-91,596,4.11328,-44.5031,0,0,0,0,0,0,0,-1,1133,428,4.11331,44.5031
-84,596,4.17102,-44.8762,0,0,0,0,0,0,0,-1,1140,428,4.17101,44.8762
-77,596,4.23474,-45.2032,0,0,0,0,0,0,0,-1,1147,428,4.2347,45.2032
-70,596,3.50696,-32.137,0,0,0,0,0,0,0,-1,1154,428,3.50696,32.137
-63,596,1.95569,-12.2758,0,0,0,0,0,0,0,-1,1161,428,1.95563,12.2759
-56,596,1.60107,-10.5827,0,0,0,0,0,0,0,-1,1168,428,1.60108,10.5827
-49,596,1.59473,-10.0393,0,0,0,0,0,0,0,-1,1175,428,1.59472,10.0393
-42,596,1.99585,-6.6246,0,0,0,0,0,0,0,-1,1182,428,1.99586,6.62459
-35,596,4.31934,-46.583,0,0,0,0,0,0,0,-1,1189,428,4.31934,46.583
-28,596,4.56323,-46.8644,0,0,0,0,0,0,0,-1,1196,428,4.56318,46.8644
-21,596,4.6095,-47.1196,0,0,0,0,0,0,0,-1,1203,428,4.60945,47.1196
-14,596,4.83508,-47.3007,0,0,0,0,0,0,0,-1,1210,428,4.83503,47.3006
-7,596,4.89868,-47.4183,0,0,0,0,0,0,0,-1,1217,428,4.89865,47.4183
0,596,4.84924,-47.7534,0,0,0,0,0,0,0,-1,1224,428,4.8492,47.7534
7,596,4.94568,-47.6261,0,0,0,0,0,0,0,-1,1231,428,4.94572,47.6261
14,596,5.41077,-47.111,0,0,0,0,0,0,0,-1,1238,428,5.41072,47.111
21,596,5.44299,-47.0338,0,0,0,0,0,0,0,-1,1245,428,5.443,47.0338
28,596,5.47058,-47.095,0,0,0,0,0,0,0,-1,1252,428,5.47058,47.095
35,596,6.37671,-48.1357,0,0,0,0,0,0,0,-1,1259,428,6.37672,48.1356
42,596,6.7301,-48.4668,0,0,0,0,0,0,0,-1,1266,428,6.73014,48.4668
49,596,6.31689,-48.4041,0,0,0,0,0,0,0,-1,1273,428,6.31687,48.4041
56,596,5.83423,-48.0755,0,0,0,0,0,0,0,-1,1280,428,5.83418,48.0755
63,596,6.38611,-48.1953,-0.00465202,-0.0138868,0.00123159,-0.0044906,-0.0140483,0.130329,0.00828476,0.0467275,1287,428,6.38612,48.1953
70,596,6.37537,-48.116,-0.010494,-0.0173056,0.00340788,-0.00908179,-0.0187178,0.392854,0.0108083,0.0488603,1294,428,6.37539,48.116
77,596,6.34937,-48.0574,0,0,0,0,0,0,0,-1,1301,428,6.34936,48.0574
84,596,6.45093,-48.6133,0,0,0,0,0,0,0,-1,1308,428,6.45088,48.6133
91,596,6.40259,-46.2867,0,0,0,0,0,0,0,-1,1315,428,6.40257,46.2867
98,596,3.65894,-48.2678,0,0,0,0,0,0,0,-1,1322,428,3.65896,48.2678
105,596,3.24683,-48.3073,0,0,0,0,0,0,0,-1,1329,428,3.2468,48.3073
112,596,7.24695,-47.4647,0,0,0,0,0,0,0,-1,1336,428,7.24698,47.4647
119,596,7.51428,-47.2178,0,0,0,0,0,0,0,-1,1343,428,7.51423,47.2178
126,596,1.24048,-47.2512,0,0,0,0,0,0,0,-1,1350,428,1.24046,47.2512
133,596,7.35864,-46.8355,0,0,0,0,0,0,0,-1,1357,428,7.3586,46.8355
140,596,7.62817,-46.4208,0,0,0,0,0,0,0,-1,1364,428,7.62818,46.4208
147,596,7.38733,-46.3063,0,0,0,0,0,0,0,-1,1371,428,7.38731,46.3063
154,596,7.10645,-46.496,0,0,0,0,0,0,0,-1,1378,428,7.10649,46.496
161,596,7.60889,-46.3546,0,0,0,0,0,0,0,-1,1385,428,7.60892,46.3546
168,596,7.75403,-46.0048,0,0,0,0,0,0,0,-1,1392,428,7.75404,46.0048
175,596,7.91895,-45.7697,0,0,0,0,0,0,0,-1,1399,428,7.91895,45.7697
182,596,8.04138,-45.7657,0,0,0,0,0,0,0,-1,1406,428,8.04142,45.7658
189,596,7.90369,-45.492,0,0,0,0,0,0,0,-1,1413,428,7.90366,45.492
196,596,7.87671,-44.9655,0,0,0,0,0,0,0,-1,1420,428,7.87666,44.9655
203,596,7.86487,-44.8833,0,0,0,0,0,0,0,-1,1427,428,7.86488,44.8833
210,596,7.88342,-44.7187,0,0,0,0,0,0,0,-1,1434,428,7.88341,44.7187
217,596,7.90906,-44.2873,0,0,0,0,0,0,0,-1,1441,428,7.90908,44.2873
224,596,7.99792,-43.8661,0,0,0,0,0,0,0,-1,1448,428,7.99796,43.8661
231,596,8.07434,-43.4844,0.00273843,-0.000911736,-0.00179869,0.00347581,-0.00164912,-0.389057,0.00302088,0.0254,1455,428,8.07429,43.4844
238,596,8.06897,-43.0397,0.00229742,-0.000278609,-0.00152,0.00300173,-0.000982923,-0.433913,0.00239694,0.0160289,1462,428,8.069,43.0397
245,596,8.09033,-42.6233,0.0021997,0.000257754,-0.00123388,0.00279884,-0.00034138,-0.452038,0.00198947,0.0130554,1469,428,8.09035,42.6233
252,596,8.12463,-42.1696,0.00206941,0.000782596,-0.000904725,0.00253619,0.000315824,-0.476308,0.00159597,0.0102309,1476,428,8.12465,42.1695
259,596,8.12549,-41.7045,0.00191022,0.00107262,-0.000531753,0.00216829,0.000814548,-0.451837,0.0012647,0.0087943,1483,428,8.12543,41.7045
266,596,8.11304,-41.2499,0.00182544,0.00141966,-0.000171155,0.00188799,0.00135711,-0.350381,0.00112429,0.00978382,1490,428,8.11307,41.2499
273,596,8.12341,-40.7765,0.00182682,0.00186889,0.000210494,0.0020594,0.00163631,0.835199,0.00125589,0.0127167,1497,428,8.12344,40.7765
280,596,8.12708,-40.2797,0.0018364,0.00236483,0.000640953,0.00279389,0.00140734,0.980897,0.00161307,0.013734,1504,428,8.12704,40.2797
287,596,8.12524,-39.7737,0.00184,0.00292134,0.00105693,0.00356786,0.00119348,1.02182,0.00209718,0.0115786,1511,428,8.12526,39.7737
294,596,8.09692,-39.2726,0.00176681,0.00351622,0.00145572,0.00433982,0.000943216,1.05593,0.00263568,0.00887496,1518,428,8.09689,39.2727
301,596,8.09265,-38.7814,0.00163055,0.00407601,0.00184021,0.00506268,0.000643888,1.07863,0.00318228,0.0106909,1525,428,8.09264,38.7814
308,596,8.08374,-38.2312,0.00151448,0.00454715,0.0022262,0.00572438,0.000337264,1.08437,0.00370894,0.0171589,1532,428,8.08373,38.2312
315,596,8.04126,-37.6707,0.00131007,0.00515681,0.00257406,0.00644671,2.01606e-05,1.10626,0.0042911,0.01662,1539,428,8.04131,37.6707
322,596,8.04626,-37.1216,0.000988959,0.00570476,0.00291095,0.00709297,-0.00039925,1.12581,0.00486719,0.013707,1546,428,8.04628,37.1217
329,596,8.00513,-36.5729,0.00065846,0.0061709,0.00321967,0.00765296,-0.000823599,1.1394,0.00539749,0.0104924,1553,428,8.00508,36.5729
336,596,7.96362,-36.0345,0.000298412,0.00666004,0.00350527,0.00821257,-0.00125411,1.15385,0.0059374,0.00958084,1560,428,7.96361,36.0345
343,596,7.95154,-35.461,-8.25132e-05,0.00715491,0.00374559,0.00874432,-0.00167192,1.16948,0.00645939,0.0120403,1567,428,7.95155,35.461
350,596,7.95093,-34.8482,-0.000308926,0.00816491,0.00427138,0.00994431,-0.00208833,1.17607,0.00742421,0.0124976,1574,428,7.95094,34.8482
357,596,7.90552,-34.2468,-0.000533567,0.00911691,0.00485928,0.0111397,-0.00255636,1.17634,0.00840912,0.0101002,1581,428,7.90553,34.2468
364,596,7.8562,-33.6267,-0.000784825,0.0100699,0.00543254,0.0123216,-0.00303658,1.17786,0.00939169,0.0113796,1588,428,7.85618,33.6267
371,596,7.82837,-33.0404,-0.000998004,0.0115707,0.00612054,0.0140587,-0.00348599,1.1847,0.010725,0.0132142,1595,428,7.82836,33.0404
378,596,7.77307,-32.4426,-0.00112028,0.0130152,0.00654078,0.0155773,-0.00368243,1.19745,0.0118054,0.0169584,1602,428,7.7731,32.4426
385,596,7.75317,-31.7316,-0.000745196,0.0143459,0.0066857,0.0168817,-0.00328101,1.20827,0.0124926,0.0406975,1609,428,7.75318,31.7316
392,596,7.70691,-30.7266,0,0,0,0,0,0,0,-1,1616,428,7.70693,30.7266
399,596,7.59644,-29.8061,0,0,0,0,0,0,0,-1,1623,428,7.59647,29.8061
406,596,3.60034,-10.1525,0,0,0,0,0,0,0,-1,1630,428,3.60028,10.1525
413,596,3.39124,-2.63528,0,0,0,0,0,0,0,-1,1637,428,3.39122,2.6353
420,596,2.6344,-3.06308,0,0,0,0,0,0,0,-1,1644,428,2.63439,3.06308
427,596,7.61975,-22.7222,0,0,0,0,0,0,0,-1,1651,428,7.61974,22.7222
434,596,5.09753,-22.5213,0,0,0,0,0,0,0,-1,1658,428,5.09755,22.5213
441,596,7.19043,-22.087,0,0,0,0,0,0,0,-1,1665,428,7.19046,22.087
448,596,1.0769,0.0083313,0,0,0,0,0,0,0,-1,1672,428,1.07684,-0.00832231
455,596,2.00769,-1.43329,0,0,0,0,0,0,0,-1,1679,428,2.00765,1.4333
462,596,0,0,0,0,0,0,0,0,0,-1,1686,428,0,0
469,596,0,0,0,0,0,0,0,0,0,-1,1693,428,0,0
476,596,0,0,0,0,0,0,0,0,0,-1,1700,428,0,0
483,596,0,0,0,0,0,0,0,0,0,-1,1707,428,0,0
490,596,0,0,0,0,0,0,0,0,0,-1,1714,428,0,0
497,596,0,0,0,0,0,0,0,0,0,-1,1721,428,0,0
504,596,0,0,0,0,0,0,0,0,0,-1,1728,428,0,0
511,596,0,0,0,0,0,0,0,0,0,-1,1735,428,0,0
518,596,0,0,0,0,0,0,0,0,0,-1,1742,428,0,0
525,596,0,0,0,0,0,0,0,0,0,-1,1749,428,0,0
532,596,0,0,0,0,0,0,0,0,0,-1,1756,428,0,0
539,596,0,0,0,0,0,0,0,0,0,-1,1763,428,0,0
546,596,0,0,0,0,0,0,0,0,0,-1,1770,428,0,0
553,596,0,0,0,0,0,0,0,0,0,-1,1777,428,0,0
560,596,0,0,0,0,0,0,0,0,0,-1,1784,428,0,0
567,596,0,0,0,0,0,0,0,0,0,-1,1791,428,0,0
574,596,0,0,0,0,0,0,0,0,0,-1,1798,428,0,0
581,596,0,0,0,0,0,0,0,0,0,-1,1805,428,0,0
588,596,0,0,0,0,0,0,0,0,0,-1,1812,428,0,0
595,596,0,0,0,0,0,0,0,0,0,-1,1819,428,0,0
602,596,0,0,0,0,0,0,0,0,0,-1,1826,428,0,0
609,596,0,0,0,0,0,0,0,0,0,-1,1833,428,0,0
616,596,0,0,0,0,0,0,0,0,0,-1,1840,428,0,0
623,596,0,0,0,0,0,0,0,0,0,-1,1847,428,0,0
630,596,0,0,0,0,0,0,0,0,0,-1,1854,428,0,0
637,596,0,0,0,0,0,0,0,0,0,-1,1861,428,0,0
644,596,0,0,0,0,0,0,0,0,0,-1,1868,428,0,0
651,596,0,0,0,0,0,0,0,0,0,-1,1875,428,0,0
658,596,0,0,0,0,0,0,0,0,0,-1,1882,428,0,0
665,596,0,0,0,0,0,0,0,0,0,-1,1889,428,0,0
672,596,0,0,0,0,0,0,0,0,0,-1,1896,428,0,0
679,596,0,0,0,0,0,0,0,0,0,-1,1903,428,0,0
686,596,0,0,0,0,0,0,0,0,0,-1,1910,428,0,0
693,596,0,0,0,0,0,0,0,0,0,-1,1917,428,0,0
700,596,0,0,0,0,0,0,0,0,0,-1,1924,428,0,0
707,596,0,0,0,0,0,0,0,0,0,-1,1931,428,0,0
714,596,0,0,0,0,0,0,0,0,0,-1,1938,428,0,0
721,596,0,0,0,0,0,0,0,0,0,-1,1945,428,0,0
728,596,0,0,0,0,0,0,0,0,0,-1,1952,428,0,0
735,596,0,0,0,0,0,0,0,0,0,-1,1959,428,0,0
742,596,0,0,0,0,0,0,0,0,0,-1,1966,428,0,0
749,596,0,0,0,0,0,0,0,0,0,-1,1973,428,0,0
756,596,0,0,0,0,0,0,0,0,0,-1,1980,428,0,0
763,596,0,0,0,0,0,0,0,0,0,-1,1987,428,0,0
770,596,0,0,0,0,0,0,0,0,0,-1,1994,428,0,0
777,596,0,0,0,0,0,0,0,0,0,-1,2001,428,0,0
784,596,0,0,0,0,0,0,0,0,0,-1,2008,428,0,0
791,596,0,0,0,0,0,0,0,0,0,-1,2015,428,0,0
798,596,0,0,0,0,0,0,0,0,0,-1,2022,428,0,0
805,596,0,0,0,0,0,0,0,0,0,-1,2029,428,0,0
812,596,0,0,0,0,0,0,0,0,0,-1,2036,428,0,0
-700,589,0,0,0,0,0,0,0,0,0,-1,524,435,0,0
-693,589,0,0,0,0,0,0,0,0,0,-1,531,435,0,0
-686,589,0,0,0,0,0,0,0,0,0,-1,538,435,0,0
-679,589,0,0,0,0,0,0,0,0,0,-1,545,435,0,0
-672,589,0,0,0,0,0,0,0,0,0,-1,552,435,0,0
-665,589,0,0,0,0,0,0,0,0,0,-1,559,435,0,0
-658,589,0,0,0,0,0,0,0,0,0,-1,566,435,0,0
-651,589,0,0,0,0,0,0,0,0,0,-1,573,435,0,0
-644,589,0,0,0,0,0,0,0,0,0,-1,580,435,0,0
-637,589,0,0,0,0,0,0,0,0,0,-1,587,435,0,0
-630,589,0,0,0,0,0,0,0,0,0,-1,594,435,0,0
-623,589,0,0,0,0,0,0,0,0,0,-1,601,435,0,0
-616,589,0,0,0,0,0,0,0,0,0,-1,608,435,0,0
-609,589,0,0,0,0,0,0,0,0,0,-1,615,435,0,0
-602,589,0,0,0,0,0,0,0,0,0,-1,622,435,0,0
-595,589,0,0,0,0,0,0,0,0,0,-1,629,435,0,0
-588,589,0,0,0,0,0,0,0,0,0,-1,636,435,0,0
-581,589,0,0,0,0,0,0,0,0,0,-1,643,435,0,0
-574,589,0,0,0,0,0,0,0,0,0,-1,650,435,0,0
-567,589,0,0,0,0,0,0,0,0,0,-1,657,435,0,0
-560,589,0,0,0,0,0,0,0,0,0,-1,664,435,0,0
-553,589,0,0,0,0,0,0,0,0,0,-1,671,435,0,0
-546,589,0,0,0,0,0,0,0,0,0,-1,678,435,0,0
-539,589,0,0,0,0,0,0,0,0,0,-1,685,435,0,0
-532,589,0,0,0,0,0,0,0,0,0,-1,692,435,0,0
-525,589,0,0,0,0,0,0,0,0,0,-1,699,435,0,0
-518,589,0,0,0,0,0,0,0,0,0,-1,706,435,0,0
-511,589,0,0,0,0,0,0,0,0,0,-1,713,435,0,0
-504,589,0,0,0,0,0,0,0,0,0,-1,720,435,0,0
-497,589,0,0,0,0,0,0,0,0,0,-1,727,435,0,0
-490,589,0,0,0,0,0,0,0,0,0,-1,734,435,0,0
-483,589,0,0,0,0,0,0,0,0,0,-1,741,435,0,0
-476,589,0,0,0,0,0,0,0,0,0,-1,748,435,0,0
-469,589,0,0,0,0,0,0,0,0,0,-1,755,435,0,0
-462,589,0,0,0,0,0,0,0,0,0,-1,762,435,0,0
-455,589,0,0,0,0,0,0,0,0,0,-1,769,435,0,0
-448,589,0,0,0,0,0,0,0,0,0,-1,776,435,0,0
-441,589,0,0,0,0,0,0,0,0,0,-1,783,435,0,0
-434,589,0,0,0,0,0,0,0,0,0,-1,790,435,0,0
-427,589,0,0,0,0,0,0,0,0,0,-1,797,435,0,0
-420,589,0,0,0,0,0,0,0,0,0,-1,804,435,0,0
-413,589,0,0,0,0,0,0,0,0,0,-1,811,435,0,0
-406,589,0,0,0,0,0,0,0,0,0,-1,818,435,0,0
-399,589,0,0,0,0,0,0,0,0,0,-1,825,435,0,0
-392,589,0,0,0,0,0,0,0,0,0,-1,832,435,0,0
-385,589,0,0,0,0,0,0,0,0,0,-1,839,435,0,0
-378,589,0,0,0,0,0,0,0,0,0,-1,846,435,0,0
-371,589,0,0,0,0,0,0,0,0,0,-1,853,435,0,0
-364,589,0,0,0,0,0,0,0,0,0,-1,860,435,0,0
-357,589,0,0,0,0,0,0,0,0,0,-1,867,435,0,0
-350,589,-0.799927,-20.664,0,0,0,0,0,0,0,-1,874,435,-0.799952,20.664
-343,589,5.15289,-30.4847,0,0,0,0,0,0,0,-1,881,435,5.15291,30.4847
-336,589,5.07684,-29.2368,0,0,0,0,0,0,0,-1,888,435,5.07687,29.2368
-329,589,4.9624,-28.1366,0,0,0,0,0,0,0,-1,895,435,4.96242,28.1366
-322,589,5.10156,-27.065,0,0,0,0,0,0,0,-1,902,435,5.10155,27.065
-315,589,4.22705,-27.9655,0,0,0,0,0,0,0,-1,909,435,4.22705,27.9655
-308,589,3.45428,-28.2218,0,0,0,0,0,0,0,-1,916,435,3.4543,28.2218
-301,589,3.62567,-28.895,0,0,0,0,0,0,0,-1,923,435,3.62565,28.895
-294,589,3.67065,-29.3318,0,0,0,0,0,0,0,-1,930,435,3.67067,29.3318
-287,589,3.8446,-29.8904,0,0,0,0,0,0,0,-1,937,435,3.84458,29.8904
-280,589,3.83777,-30.6235,0.00672846,0.0277311,-0.0134794,0.034317,0.000142591,-1.11632,0.0228306,0.0407031,944,435,3.83779,30.6235
-273,589,3.86414,-31.2369,0.00486847,0.0251345,-0.0124735,0.0310722,-0.00106916,-1.12652,0.0210802,0.0238205,951,435,3.86414,31.237
-266,589,3.8172,-31.8703,0.00327089,0.0226119,-0.0114027,0.0278927,-0.00200985,-1.13709,0.0193,0.0235535,958,435,3.81723,31.8703
-259,589,3.75336,-32.5332,0.00222332,0.020408,-0.010024,0.024849,-0.0022177,-1.15375,0.0173525,0.020382,965,435,3.75335,32.5332
-252,589,3.75116,-33.216,0.00129998,0.0181751,-0.00846278,0.0216879,-0.00221281,-1.17735,0.0152498,0.0113805,972,435,3.75114,33.216
-245,589,3.75903,-33.7986,0.000910391,0.0161173,-0.00745174,0.01916,-0.00213232,-1.18314,0.0135402,0.0106839,979,435,3.75904,33.7986
-238,589,3.71497,-34.3818,0.000764062,0.0141092,-0.00645319,0.0167192,-0.00184598,-1.18645,0.0118097,0.0146842,986,435,3.71499,34.3818
-231,589,3.65851,-34.9345,0.000631136,0.012029,-0.00548339,0.0142386,-0.0015785,-1.18773,0.01006,0.0152723,993,435,3.6585,34.9345
-224,589,3.63049,-35.5053,0.000541094,0.00991111,-0.00454668,0.0117546,-0.00130242,-1.18559,0.00830467,0.0148102,1000,435,3.63051,35.5053
-217,589,3.61816,-36.0856,0.000524802,0.00768704,-0.00366518,0.00923017,-0.00101833,-1.1723,0.00651946,0.0159208,1007,435,3.61813,36.0856
-210,589,3.59692,-36.6295,0.000520936,0.00527045,-0.00273218,0.00651568,-0.000724289,-1.14316,0.00460424,0.015826,1014,435,3.59694,36.6296
-203,589,3.57251,-37.1501,0.000596433,0.00317411,-0.00189332,0.00417564,-0.000405095,-1.08424,0.00292815,0.011898,1021,435,3.57256,37.1501
-196,589,3.54663,-37.6858,0.000717438,0.00149605,-0.00116951,0.00233935,-0.000125858,-0.94607,0.00160316,0.0136758,1028,435,3.54665,37.6858
-189,589,3.54358,-38.2263,0.000918138,-4.17603e-05,-0.000582203,0.00119272,-0.000316339,-0.440687,0.000918923,0.0176797,1035,435,3.54354,38.2263
-182,589,3.53625,-38.6911,0.00116241,-0.00142604,2.46212e-05,0.00116265,-0.00142628,0.00951078,0.0014973,0.0129652,1042,435,3.53626,38.6911
-175,589,3.53479,-39.1935,0.00137627,-0.00296525,0.000742511,0.00149974,-0.00308873,0.164788,0.00270159,0.015222,1049,435,3.53474,39.1935
-168,589,3.53955,-39.7359,0.00153863,-0.0046071,0.00141434,0.00184849,-0.00491696,0.215679,0.00403774,0.0128242,1056,435,3.53954,39.7359
-161,589,3.53003,-40.2199,0.0017459,-0.00580744,0.00198468,0.00223563,-0.00629717,0.241924,0.00510906,0.0121114,1063,435,3.53009,40.2199
-154,589,3.50916,-40.6762,0.0020189,-0.00706284,0.00260971,0.0027154,-0.00775935,0.260811,0.00627696,0.0122737,1070,435,3.50911,40.6763
-147,589,3.53723,-41.1176,0.00237525,-0.00834211,0.00320328,0.00325969,-0.00922654,0.269391,0.00747827,0.0126584,1077,435,3.53719,41.1176
-140,589,3.54797,-41.5602,0.00266672,-0.00973032,0.00375631,0.00371606,-0.0107797,0.27241,0.00869401,0.0148371,1084,435,3.548,41.5602
-133,589,3.54895,-42.013,0.00280102,-0.011108,0.00434389,0.00404618,-0.0123532,0.27916,0.00986478,0.0157834,1091,435,3.54892,42.013
-126,589,3.59509,-42.4402,0.00298529,-0.0122936,0.00487427,0.00440783,-0.0137162,0.28396,0.0109142,0.0120411,1098,435,3.59511,42.4403
-119,589,3.58215,-42.8522,0.00335832,-0.0135511,0.0053007,0.00488257,-0.0150754,0.280001,0.0120132,0.0174094,1105,435,3.58215,42.8522
-112,589,3.55737,-43.3181,0.0037471,-0.0145896,0.00559407,0.00531897,-0.0161615,0.273924,0.0129176,0.0227306,1112,435,3.55732,43.3181
-105,589,3.52197,-43.8004,0,0,0,0,0,0,0,-1,1119,435,3.522,43.8004
-98,589,3.68787,-44.339,0,0,0,0,0,0,0,-1,1126,435,3.68787,44.339
-91,589,3.39563,-37.8231,0,0,0,0,0,0,0,-1,1133,435,3.39565,37.8231
-84,589,2.76538,-22.6013,0,0,0,0,0,0,0,-1,1140,435,2.76539,22.6014
-77,589,2.18152,-14.8023,0,0,0,0,0,0,0,-1,1147,435,2.18155,14.8023
-70,589,1.48267,-9.90961,0,0,0,0,0,0,0,-1,1154,435,1.48264,9.9096
-63,589,0.880127,-5.50586,0,0,0,0,0,0,0,-1,1161,435,0.880186,5.50587
-56,589,-2.78052,-7.28082,0,0,0,0,0,0,0,-1,1168,435,-2.78053,7.28082
-49,589,-0.525757,-2.76703,0,0,0,0,0,0,0,-1,1175,435,-0.525771,2.76702
-42,589,-2.7738,-2.87921,0,0,0,0,0,0,0,-1,1182,435,-2.77383,2.87922
-35,589,-2.55225,-3.27551,0,0,0,0,0,0,0,-1,1189,435,-2.55223,3.27552
-28,589,-0.0632324,-3.42938,0,0,0,0,0,0,0,-1,1196,435,-0.063241,3.42938
-21,589,2.74548,-45.6115,0,0,0,0,0,0,0,-1,1203,435,2.74554,45.6115
-14,589,5.37219,-46.4198,0,0,0,0,0,0,0,-1,1210,435,5.37225,46.4198
-7,589,4.8407,-46.5946,0,0,0,0,0,0,0,-1,1217,435,4.84072,46.5946
0,589,3.27405,-46.2315,0,0,0,0,0,0,0,-1,1224,435,3.27405,46.2315
7,589,3.53333,-46.6042,0.0125195,0.0168863,-0.0141151,0.0289859,0.000419905,-0.862131,0.0191855,0.0465457,1231,435,3.53329,46.6042
14,589,3.98755,-46.8683,0.016432,0.0120437,-0.016061,0.030448,-0.00197228,-0.717511,0.020987,0.043566,1238,435,3.98751,46.8683
21,589,4.86536,-47.193,0.0184458,0.00744444,-0.0165333,0.0303694,-0.0044792,-0.624807,0.0218926,0.0436121,1245,435,4.86538,47.193
28,589,6.4364,-48.4544,0.0185587,0.0028475,-0.0156571,0.0282204,-0.00681421,-0.552884,0.0214489,0.043954,1252,435,6.43636,48.4544
35,589,6.24182,-48.127,0.0163191,-0.000956804,-0.0132349,0.0234855,-0.00812316,-0.496274,0.0189541,0.043833,1259,435,6.24181,48.127
42,589,6.40356,-47.9468,0.0131754,-0.00459254,-0.0107059,0.0182034,-0.00962047,-0.439067,0.0163169,0.0468865,1266,435,6.40358,47.9468
49,589,6.52234,-48.3073,0.00744116,-0.00928764,-0.00704202,0.0100108,-0.0118573,-0.349888,0.0126405,0.0466411,1273,435,6.52233,48.3073
56,589,6.47388,-48.3846,0.00038763,-0.0121632,-0.00281206,0.000988883,-0.0127644,-0.21064,0.00885766,0.0450531,1280,435,6.47384,48.3846
63,589,6.26904,-48.2953,-0.0067585,-0.0158268,0.0011784,-0.00660787,-0.0159774,0.127135,0.00927038,0.0454731,1287,435,6.269,48.2953
70,589,6.07056,-48.2086,-0.0137489,-0.02034,0.00398757,-0.0118713,-0.0222176,0.440066,0.0128374,0.0459414,1294,435,6.07055,48.2086
77,589,5.87903,-48.1557,0,0,0,0,0,0,0,-1,1301,435,5.87901,48.1557
84,589,5.91077,-48.3678,0,0,0,0,0,0,0,-1,1308,435,5.91083,48.3678
91,589,5.18286,-48.2167,0,0,0,0,0,0,0,-1,1315,435,5.18292,48.2167
98,589,3.77478,-47.7863,-0.0347306,-0.0317674,0.00811661,-0.0249983,-0.0414997,0.875675,0.0241267,0.0445461,1322,435,3.77483,47.7863
105,589,3.23572,-47.8064,-0.0374957,-0.0330467,0.00725806,-0.0276799,-0.0428625,0.934097,0.0250948,0.046561,1329,435,3.23573,47.8064
112,589,2.47021,-47.63,0,0,0,0,0,0,0,-1,1336,435,2.47019,47.63
119,589,1.82239,-47.38,-0.0396335,-0.0331034,0.00349659,-0.0315845,-0.0411525,1.16098,0.024867,0.0446197,1343,435,1.82239,47.38
126,589,1.28174,-47.1152,-0.03878,-0.0305318,0.000739955,-0.0304659,-0.0388458,1.48203,0.0236051,0.0484292,1350,435,1.2818,47.1152
133,589,0.709717,-46.8743,0,0,0,0,0,0,0,-1,1357,435,0.709671,46.8743
140,589,-0.288208,-45.9081,0,0,0,0,0,0,0,-1,1364,435,-0.288215,45.9081
147,589,-0.534058,-45.5984,0,0,0,0,0,0,0,-1,1371,435,-0.534,45.5985
154,589,-0.00280762,-45.3464,0,0,0,0,0,0,0,-1,1378,435,-0.00283554,45.3465
161,589,11.2345,-45.9742,0,0,0,0,0,0,0,-1,1385,435,11.2345,45.9742
168,589,12.3501,-45.6712,0,0,0,0,0,0,0,-1,1392,435,12.3501,45.6712
175,589,8.66992,-7.65527,0,0,0,0,0,0,0,-1,1399,435,8.66994,7.65528
182,589,3.8136,-2.45389,0,0,0,0,0,0,0,-1,1406,435,3.81363,2.4539
189,589,3.69983,-3.68149,0,0,0,0,0,0,0,-1,1413,435,3.69987,3.68147
196,589,3.31055,-5.31677,0,0,0,0,0,0,0,-1,1420,435,3.31059,5.31678
203,589,2.72559,-8.84338,0,0,0,0,0,0,0,-1,1427,435,2.72558,8.84338
210,589,3.62378,-14.4032,0,0,0,0,0,0,0,-1,1434,435,3.62378,14.4032
217,589,4.65601,-22.3745,0,0,0,0,0,0,0,-1,1441,435,4.65607,22.3745
224,589,6.79028,-33.9412,0,0,0,0,0,0,0,-1,1448,435,6.79028,33.9412
231,589,8.52661,-43.5401,0,0,0,0,0,0,0,-1,1455,435,8.52657,43.5401
238,589,8.5022,-43.0448,0,0,0,0,0,0,0,-1,1462,435,8.50225,43.0448
245,589,8.61401,-42.558,0,0,0,0,0,0,0,-1,1469,435,8.61406,42.558
252,589,8.57312,-42.1255,0.00282222,-0.000220998,-0.0020713,0.00387074,-0.00126952,-0.468607,0.0030918,0.0186726,1476,435,8.57317,42.1256
259,589,8.57837,-41.696,0.00257318,-0.000312859,-0.00170787,0.00336604,-0.00110571,-0.434628,0.00268946,0.00977239,1483,435,8.57834,41.696
266,589,8.5896,-41.2278,0.00239565,-0.000255697,-0.00134856,0.00296101,-0.000821059,-0.396978,0.00229713,0.00938635,1490,435,8.58958,41.2278
273,589,8.61096,-40.7747,0.0023262,-0.000102272,-0.000975776,0.00266969,-0.000445761,-0.33847,0.00194548,0.0120762,1497,435,8.61097,40.7747
280,589,8.61438,-40.2852,0.00227454,0.000139591,-0.000560226,0.00241262,1.51433e-06,-0.24165,0.00160791,0.0133946,1504,435,8.61434,40.2853
287,589,8.61707,-39.7891,0.00221448,0.000487192,-0.000198098,0.00223691,0.000464764,-0.112737,0.00136303,0.011378,1511,435,8.61708,39.7891
294,589,8.61145,-39.2564,0.00209836,0.000962624,0.0001761,0.00212504,0.000935946,0.150351,0.00122979,0.00988706,1518,435,8.61143,39.2564
301,589,8.6095,-38.7373,0.00192958,0.00145654,0.000552873,0.0022944,0.00109172,0.583276,0.00132519,0.0107357,1525,435,8.60949,38.7373
308,589,8.60327,-38.2036,0.00179601,0.00182778,0.000908474,0.00272051,0.000903283,0.794138,0.00159996,0.0112234,1532,435,8.60323,38.2036
315,589,8.58862,-37.6722,0.001583,0.00241867,0.00123321,0.00330291,0.000698768,0.948739,0.00200992,0.0112585,1539,435,8.58857,37.6722
322,589,8.59534,-37.1335,0.00128291,0.00303702,0.00157641,0.00396393,0.000355999,1.03926,0.00253231,0.0117906,1546,435,8.59531,37.1335
329,589,8.5647,-36.5853,0.000970182,0.00355715,0.00188856,0.00455272,-2.53867e-05,1.08566,0.00304365,0.0104236,1553,435,8.56468,36.5853
336,589,8.54651,-36.0404,0.000656102,0.00413531,0.00221546,0.00521253,-0.000421112,1.11823,0.00362356,0.00962368,1560,435,8.54651,36.0404
343,589,8.5249,-35.4768,0.000304323,0.00475316,0.00252291,0.00589224,-0.000834757,1.1467,0.00423393,0.0112845,1567,435,8.52496,35.4768
350,589,8.49255,-34.8782,5.93346e-05,0.00578471,0.00304053,0.00709812,-0.00125407,1.16304,0.00520075,0.0164274,1574,435,8.49261,34.8782
357,589,8.46143,-34.236,-0.000156134,0.0067839,0.00362207,0.0083299,-0.00170213,1.16738,0.00619903,0.0137914,1581,435,8.46142,34.236
364,589,8.45227,-33.6396,-0.000372634,0.00780125,0.00419462,0.00957075,-0.00214214,1.1716,0.00720154,0.0112599,1588,435,8.45223,33.6396
371,589,8.42151,-33.0496,-0.000561475,0.0091552,0.00483836,0.0111535,-0.00255975,1.17913,0.00841962,0.0111136,1595,435,8.42155,33.0496
378,589,8.37537,-32.4306,-0.00069315,0.0104111,0.00525356,0.0125026,-0.00278472,1.19191,0.00940182,0.0122479,1602,435,8.37533,32.4306
385,589,8.35217,-31.7873,-0.00041046,0.011527,0.00542561,0.0136245,-0.00250788,1.20191,0.0100241,0.0205419,1609,435,8.35212,31.7873
392,589,8.30029,-31.0142,0.000576545,0.0126499,0.0053001,0.0146465,-0.00141999,1.21054,0.0102704,0.028122,1616,435,8.30035,31.0142
399,589,8.28772,-30.1952,0.00155024,0.0137378,0.00539801,0.0157848,-0.000496778,1.20833,0.0106926,0.0395063,1623,435,8.28773,30.1952
406,589,8.32617,-29.4927,0,0,0,0,0,0,0,-1,1630,435,8.32617,29.4927
413,589,5.61377,-19.0606,0,0,0,0,0,0,0,-1,1637,435,5.61372,19.0606
420,589,2.79724,-5.79956,0,0,0,0,0,0,0,-1,1644,435,2.7973,5.79955
427,589,7.53809,-28.158,0,0,0,0,0,0,0,-1,1651,435,7.53812,28.158
434,589,7.60645,-27.3103,0,0,0,0,0,0,0,-1,1658,435,7.60642,27.3103
441,589,7.71021,-26.4272,0,0,0,0,0,0,0,-1,1665,435,7.71023,26.4272
448,589,0.453735,-3.2868,0,0,0,0,0,0,0,-1,1672,435,0.453701,3.28681
455,589,0.664307,-3.46848,0,0,0,0,0,0,0,-1,1679,435,0.66425,3.46846
462,589,3.46716,-4.41891,0,0,0,0,0,0,0,-1,1686,435,3.4672,4.41891
469,589,0.0238037,-3.81497,0,0,0,0,0,0,0,-1,1693,435,0.0237965,3.81498
476,589,0,0,0,0,0,0,0,0,0,-1,1700,435,0,0
483,589,0,0,0,0,0,0,0,0,0,-1,1707,435,0,0
490,589,0,0,0,0,0,0,0,0,0,-1,1714,435,0,0
497,589,0,0,0,0,0,0,0,0,0,-1,1721,435,0,0
504,589,0,0,0,0,0,0,0,0,0,-1,1728,435,0,0
511,589,0,0,0,0,0,0,0,0,0,-1,1735,435,0,0
518,589,0,0,0,0,0,0,0,0,0,-1,1742,435,0,0
525,589,0,0,0,0,0,0,0,0,0,-1,1749,435,0,0
532,589,0,0,0,0,0,0,0,0,0,-1,1756,435,0,0
539,589,0,0,0,0,0,0,0,0,0,-1,1763,435,0,0
546,589,0,0,0,0,0,0,0,0,0,-1,1770,435,0,0
553,589,0,0,0,0,0,0,0,0,0,-1,1777,435,0,0
560,589,0,0,0,0,0,0,0,0,0,-1,1784,435,0,0
567,589,0,0,0,0,0,0,0,0,0,-1,1791,435,0,0
574,589,0,0,0,0,0,0,0,0,0,-1,1798,435,0,0
581,589,0,0,0,0,0,0,0,0,0,-1,1805,435,0,0
588,589,0,0,0,0,0,0,0,0,0,-1,1812,435,0,0
595,589,0,0,0,0,0,0,0,0,0,-1,1819,435,0,0
602,589,0,0,0,0,0,0,0,0,0,-1,1826,435,0,0
609,589,0,0,0,0,0,0,0,0,0,-1,1833,435,0,0
616,589,0,0,0,0,0,0,0,0,0,-1,1840,435,0,0
623,589,0,0,0,0,0,0,0,0,0,-1,1847,435,0,0
630,589,0,0,0,0,0,0,0,0,0,-1,1854,435,0,0
637,589,0,0,0,0,0,0,0,0,0,-1,1861,435,0,0
644,589,0,0,0,0,0,0,0,0,0,-1,1868,435,0,0
651,589,0,0,0,0,0,0,0,0,0,-1,1875,435,0,0
658,589,0,0,0,0,0,0,0,0,0,-1,1882,435,0,0
665,589,0,0,0,0,0,0,0,0,0,-1,1889,435,0,0
672,589,0,0,0,0,0,0,0,0,0,-1,1896,435,0,0
679,589,0,0,0,0,0,0,0,0,0,-1,1903,435,0,0
686,589,0,0,0,0,0,0,0,0,0,-1,1910,435,0,0
693,589,0,0,0,0,0,0,0,0,0,-1,1917,435,0,0
700,589,0,0,0,0,0,0,0,0,0,-1,1924,435,0,0
707,589,0,0,0,0,0,0,0,0,0,-1,1931,435,0,0
714,589,0,0,0,0,0,0,0,0,0,-1,1938,435,0,0
721,589,0,0,0,0,0,0,0,0,0,-1,1945,435,0,0
728,589,0,0,0,0,0,0,0,0,0,-1,1952,435,0,0
735,589,0,0,0,0,0,0,0,0,0,-1,1959,435,0,0
742,589,0,0,0,0,0,0,0,0,0,-1,1966,435,0,0
749,589,0,0,0,0,0,0,0,0,0,-1,1973,435,0,0
756,589,0,0,0,0,0,0,0,0,0,-1,1980,435,0,0
763,589,0,0,0,0,0,0,0,0,0,-1,1987,435,0,0
770,589,0,0,0,0,0,0,0,0,0,-1,1994,435,0,0
777,589,0,0,0,0,0,0,0,0,0,-1,2001,435,0,0
784,589,0,0,0,0,0,0,0,0,0,-1,2008,435,0,0
791,589,0,0,0,0,0,0,0,0,0,-1,2015,435,0,0
798,589,0,0,0,0,0,0,0,0,0,-1,2022,435,0,0
805,589,0,0,0,0,0,0,0,0,0,-1,2029,435,0,0
812,589,0,0,0,0,0,0,0,0,0,-1,2036,435,0,0
-700,582,0,0,0,0,0,0,0,0,0,-1,524,442,0,0
-693,582,0,0,0,0,0,0,0,0,0,-1,531,442,0,0
-686,582,0,0,0,0,0,0,0,0,0,-1,538,442,0,0
-679,582,0,0,0,0,0,0,0,0,0,-1,545,442,0,0
-672,582,0,0,0,0,0,0,0,0,0,-1,552,442,0,0
-665,582,0,0,0,0,0,0,0,0,0,-1,559,442,0,0
-658,582,0,0,0,0,0,0,0,0,0,-1,566,442,0,0
-651,582,0,0,0,0,0,0,0,0,0,-1,573,442,0,0
-644,582,0,0,0,0,0,0,0,0,0,-1,580,442,0,0
-637,582,0,0,0,0,0,0,0,0,0,-1,587,442,0,0
-630,582,0,0,0,0,0,0,0,0,0,-1,594,442,0,0
-623,582,0,0,0,0,0,0,0,0,0,-1,601,442,0,0
-616,582,0,0,0,0,0,0,0,0,0,-1,608,442,0,0
-609,582,0,0,0,0,0,0,0,0,0,-1,615,442,0,0
-602,582,0,0,0,0,0,0,0,0,0,-1,622,442,0,0
-595,582,0,0,0,0,0,0,0,0,0,-1,629,442,0,0
-588,582,0,0,0,0,0,0,0,0,0,-1,636,442,0,0
-581,582,0,0,0,0,0,0,0,0,0,-1,643,442,0,0
-574,582,0,0,0,0,0,0,0,0,0,-1,650,442,0,0
-567,582,0,0,0,0,0,0,0,0,0,-1,657,442,0,0
-560,582,0,0,0,0,0,0,0,0,0,-1,664,442,0,0
-553,582,0,0,0,0,0,0,0,0,0,-1,671,442,0,0
-546,582,0,0,0,0,0,0,0,0,0,-1,678,442,0,0
-539,582,0,0,0,0,0,0,0,0,0,-1,685,442,0,0
-532,582,0,0,0,0,0,0,0,0,0,-1,692,442,0,0
-525,582,0,0,0,0,0,0,0,0,0,-1,699,442,0,0
-518,582,0,0,0,0,0,0,0,0,0,-1,706,442,0,0
-511,582,0,0,0,0,0,0,0,0,0,-1,713,442,0,0
-504,582,0,0,0,0,0,0,0,0,0,-1,720,442,0,0
-497,582,0,0,0,0,0,0,0,0,0,-1,727,442,0,0
-490,582,0,0,0,0,0,0,0,0,0,-1,734,442,0,0
-483,582,0,0,0,0,0,0,0,0,0,-1,741,442,0,0
-476,582,0,0,0,0,0,0,0,0,0,-1,748,442,0,0
-469,582,0,0,0,0,0,0,0,0,0,-1,755,442,0,0
-462,582,0,0,0,0,0,0,0,0,0,-1,762,442,0,0
-455,582,0,0,0,0,0,0,0,0,0,-1,769,442,0,0
-448,582,0,0,0,0,0,0,0,0,0,-1,776,442,0,0
-441,582,0,0,0,0,0,0,0,0,0,-1,783,442,0,0
-434,582,0,0,0,0,0,0,0,0,0,-1,790,442,0,0
-427,582,0,0,0,0,0,0,0,0,0,-1,797,442,0,0
-420,582,0,0,0,0,0,0,0,0,0,-1,804,442,0,0
-413,582,0,0,0,0,0,0,0,0,0,-1,811,442,0,0
-406,582,0,0,0,0,0,0,0,0,0,-1,818,442,0,0
-399,582,0,0,0,0,0,0,0,0,0,-1,825,442,0,0
-392,582,0,0,0,0,0,0,0,0,0,-1,832,442,0,0
-385,582,0,0,0,0,0,0,0,0,0,-1,839,442,0,0
-378,582,0,0,0,0,0,0,0,0,0,-1,846,442,0,0
-371,582,0,0,0,0,0,0,0,0,0,-1,853,442,0,0
-364,582,0,0,0,0,0,0,0,0,0,-1,860,442,0,0
-357,582,-1.4903,-21.5295,0,0,0,0,0,0,0,-1,867,442,-1.49031,21.5295
-350,582,-0.880859,-19.7966,0,0,0,0,0,0,0,-1,874,442,-0.880885,19.7966
-343,582,0.939941,-19.1705,0,0,0,0,0,0,0,-1,881,442,0.939935,19.1705
-336,582,3.33929,-27.9479,0,0,0,0,0,0,0,-1,888,442,3.33928,27.9479
-329,582,3.63544,-26.4736,0,0,0,0,0,0,0,-1,895,442,3.63546,26.4736
-322,582,3.67145,-27.1796,0,0,0,0,0,0,0,-1,902,442,3.67143,27.1796
-315,582,3.30585,-27.5681,0,0,0,0,0,0,0,-1,909,442,3.30582,27.5681
-308,582,3.31238,-27.8114,0,0,0,0,0,0,0,-1,916,442,3.31237,27.8114
-301,582,3.27771,-28.7086,0,0,0,0,0,0,0,-1,923,442,3.27769,28.7086
-294,582,3.18201,-29.3134,0,0,0,0,0,0,0,-1,930,442,3.18198,29.3134
-287,582,3.29376,-29.98,0.00656109,0.0232081,-0.0112581,0.0288856,0.000883667,-1.10372,0.0189693,0.0410966,937,442,3.29375,29.98
-280,582,3.34674,-30.6128,0.00499352,0.021107,-0.0104107,0.0262143,-0.000113816,-1.11471,0.0175143,0.0202122,944,442,3.34673,30.6128
-273,582,3.33179,-31.2996,0.00366045,0.0189218,-0.00961144,0.0235633,-0.000981088,-1.12091,0.0160459,0.0117103,951,442,3.33181,31.2996
-266,582,3.28259,-31.9634,0.00244591,0.0167336,-0.00873922,0.0208773,-0.00169778,-1.12804,0.0145173,0.0110131,958,442,3.28259,31.9634
-259,582,3.23798,-32.6012,0.00169048,0.0148282,-0.00759446,0.0183005,-0.00178186,-1.14195,0.0128356,0.00893786,965,442,3.23798,32.6012
-252,582,3.2132,-33.2146,0.00100725,0.0128821,-0.00623211,0.0155524,-0.001663,-1.16599,0.0109647,0.00764971,972,442,3.21321,33.2146
-245,582,3.20056,-33.7649,0.000760552,0.0110179,-0.00529727,0.0132624,-0.00148399,-1.17001,0.00937551,0.0116742,979,442,3.20059,33.7649
-238,582,3.14923,-34.3135,0.000768169,0.00912031,-0.00437475,0.0109922,-0.00110373,-1.16648,0.00772239,0.0165701,986,442,3.14924,34.3135
-231,582,3.12299,-34.8935,0.000774155,0.0070849,-0.00347259,0.00862158,-0.000762517,-1.15419,0.00601801,0.01343,993,442,3.12296,34.8935
-224,582,3.10608,-35.485,0.000790692,0.00501976,-0.00259119,0.0062497,-0.000439252,-1.12762,0.00432033,0.0112775,1000,442,3.10607,35.4851
-217,582,3.07831,-36.0564,0.000871003,0.00286911,-0.00175333,0.00388805,-0.000147932,-1.04436,0.00264272,0.0133953,1007,442,3.07831,36.0564
-210,582,3.06226,-36.5869,0.000960525,0.000600308,-0.00089487,0.00169323,-0.000132398,-0.686091,0.00117544,0.0135231,1014,442,3.06228,36.5869
-203,582,3.04761,-37.1206,0.00112428,-0.00137269,-0.000120968,0.00113013,-0.00137854,-0.048295,0.00145074,0.0102554,1021,442,3.04761,37.1206
-196,582,3.02002,-37.6823,0.00132181,-0.00297991,0.000557712,0.00139294,-0.00305104,0.126855,0.00262459,0.0153471,1028,442,3.02001,37.6824
-189,582,3.02673,-38.1959,0.00156536,-0.00442075,0.00113451,0.00177316,-0.00462855,0.181157,0.00381661,0.0230657,1035,442,3.0267,38.1959
-182,582,3.04468,-38.6788,0.00185634,-0.00563919,0.00169964,0.00222373,-0.00600658,0.212884,0.00491623,0.0161992,1042,442,3.04472,38.6788
-175,582,3.02148,-39.1678,0.00215626,-0.00698039,0.00236158,0.00273057,-0.00755469,0.238556,0.00615207,0.0134581,1049,442,3.02148,39.1679
-168,582,3.02734,-39.6955,0.00235244,-0.00860273,0.00301747,0.00312858,-0.00937887,0.251758,0.00751572,0.0113527,1056,442,3.02738,39.6955
-161,582,3.03333,-40.1781,0.0025349,-0.00974914,0.00359904,0.00351169,-0.0107259,0.26502,0.00856463,0.0126471,1063,442,3.03333,40.1781
-154,582,3.02991,-40.6431,0.00278889,-0.010997,0.00428886,0.00401426,-0.0122224,0.278295,0.00976535,0.0120425,1070,442,3.02995,40.6431
-147,582,3.05762,-41.1089,0.00322951,-0.0123485,0.0049353,0.00466145,-0.0137804,0.282388,0.0110728,0.0115611,1077,442,3.05757,41.1089
-140,582,3.05347,-41.5413,0.00353617,-0.0138877,0.00554988,0.00515376,-0.0155053,0.283606,0.0124166,0.0131563,1084,442,3.05342,41.5413
-133,582,3.1095,-41.9727,0.00355024,-0.0155333,0.00628892,0.00543632,-0.0174194,0.291371,0.013787,0.0178009,1091,442,3.1095,41.9727
-126,582,3.13611,-42.308,0.00360066,-0.0170302,0.0069932,0.0057477,-0.0191772,0.297882,0.0150706,0.0162359,1098,442,3.13615,42.3081
-119,582,3.0647,-42.6096,0.00388105,-0.0188043,0.00757873,0.00617998,-0.0211032,0.294519,0.0165187,0.0209438,1105,442,3.06464,42.6096
-112,582,2.97803,-42.9821,0,0,0,0,0,0,0,-1,1112,442,2.97806,42.9821
-105,582,2.87219,-43.073,0,0,0,0,0,0,0,-1,1119,442,2.87217,43.073
-98,582,2.61938,-32.8673,0,0,0,0,0,0,0,-1,1126,442,2.61944,32.8673
-91,582,2.16492,-24.1119,0,0,0,0,0,0,0,-1,1133,442,2.16496,24.1119
-84,582,2.10278,-16.7533,0,0,0,0,0,0,0,-1,1140,442,2.10279,16.7533
-77,582,2.30212,-11.4907,0,0,0,0,0,0,0,-1,1147,442,2.30207,11.4907
-70,582,1.49255,-6.36548,0,0,0,0,0,0,0,-1,1154,442,1.49251,6.36549
-63,582,-4.62915,-4.0347,0,0,0,0,0,0,0,-1,1161,442,-4.6292,4.03471
-56,582,-5.81714,-5.24149,0,0,0,0,0,0,0,-1,1168,442,-5.81718,5.24149
-49,582,-3.88672,-10.1064,0,0,0,0,0,0,0,-1,1175,442,-3.88678,10.1064
-42,582,-0.948975,1.13968,0,0,0,0,0,0,0,-1,1182,442,-0.949003,-1.13969
-35,582,-2.58435,-3.86911,0,0,0,0,0,0,0,-1,1189,442,-2.58437,3.86912
-28,582,-0.825317,-3.45941,0,0,0,0,0,0,0,-1,1196,442,-0.825377,3.45942
-21,582,6.03247,-45.9754,0,0,0,0,0,0,0,-1,1203,442,6.03252,45.9754
-14,582,5.70386,-45.7849,0,0,0,0,0,0,0,-1,1210,442,5.70386,45.785
-7,582,5.44336,-45.7159,0,0,0,0,0,0,0,-1,1217,442,5.4434,45.7159
0,582,4.06787,-46.3857,0,0,0,0,0,0,0,-1,1224,442,4.06781,46.3857
7,582,4.20581,-46.7218,0.00833336,0.0268881,-0.0148831,0.0351486,7.28369e-05,-1.0641,0.0234082,0.0465902,1231,442,4.20587,46.7218
14,582,4.90234,-47.1256,0.0142562,0.0200801,-0.0180706,0.0354718,-0.00113557,-0.865283,0.0240353,0.0452891,1238,442,4.90229,47.1256
21,582,5.01428,-47.2509,0.0176949,0.0137324,-0.0193296,0.0351446,-0.00371729,-0.734327,0.024762,0.0433855,1245,442,5.01427,47.2509
28,582,6.2323,-48.2848,0.01868,0.00748836,-0.0187997,0.032699,-0.00653065,-0.640746,0.0242709,0.0450276,1252,442,6.23228,48.2848
35,582,6.31738,-48.23,0.0167171,0.00220766,-0.0162424,0.0272514,-0.00832659,-0.575365,0.0214878,0.044444,1259,442,6.3174,48.23
42,582,6.43115,-48.2182,0.0136591,-0.00281787,-0.0135787,0.0213031,-0.0104618,-0.512724,0.0186921,0.0472973,1266,442,6.43112,48.2182
49,582,6.44189,-48.3659,0.00744035,-0.0091581,-0.0093538,0.011646,-0.0133637,-0.422533,0.0144507,0.0458076,1273,442,6.44196,48.3659
56,582,6.22571,-48.4014,-0.000559315,-0.0128579,-0.00417175,0.000722229,-0.0141394,-0.298045,0.00967602,0.0449181,1280,442,6.22569,48.4014
63,582,6.05359,-48.278,-0.00882496,-0.0175599,0.000820516,-0.00874856,-0.0176363,0.092853,0.0101824,0.0432013,1287,442,6.05354,48.278
70,582,5.89514,-48.1898,-0.0169442,-0.0233415,0.00437174,-0.0147259,-0.0255598,0.469568,0.0148139,0.0441526,1294,442,5.89509,48.1899
77,582,6.03174,-48.326,-0.0255195,-0.0276925,0.00770512,-0.0188247,-0.0343874,0.715355,0.0198833,0.0430326,1301,442,6.03179,48.326
84,582,5.59155,-48.1642,-0.0323869,-0.0317829,0.0096783,-0.0224019,-0.0417679,0.800997,0.0241359,0.0433265,1308,442,5.59149,48.1642
91,582,4.84521,-48.0356,0,0,0,0,0,0,0,-1,1315,442,4.84521,48.0356
98,582,4.02087,-47.3983,-0.0417646,-0.037646,0.010193,-0.0293063,-0.0501043,0.885072,0.0290664,0.04515,1322,442,4.02081,47.3983
105,582,3.14197,-47.2307,-0.0452072,-0.0390725,0.00915697,-0.0324828,-0.0517969,0.947011,0.0302254,0.0444472,1329,442,3.14192,47.2307
112,582,2.48071,-47.2421,-0.0473574,-0.0394887,0.0071236,-0.0352852,-0.0515609,1.0377,0.0304356,0.0435403,1336,442,2.48077,47.2421
119,582,1.92542,-47.045,-0.0481659,-0.0386975,0.00435203,-0.0370011,-0.0498623,1.19911,0.0298914,0.0436089,1343,442,1.92542,47.045
126,582,1.29968,-46.918,-0.0473237,-0.0352005,0.000683281,-0.0351621,-0.0473621,1.51467,0.0283955,0.0469278,1350,442,1.29968,46.918
133,582,0.636597,-46.6826,-0.0458448,-0.0306888,-0.00293442,-0.0301405,-0.0463931,-1.38607,0.0271822,0.048159,1357,442,0.636615,46.6826
140,582,-0.00769043,-46.117,-0.044389,-0.026588,-0.00636234,-0.0245479,-0.0464292,-1.26049,0.0268206,0.0464309,1364,442,-0.00774448,46.117
147,582,0.382813,-46.1585,0,0,0,0,0,0,0,-1,1371,442,0.382793,46.1585
154,582,0.262207,-45.9187,0,0,0,0,0,0,0,-1,1378,442,0.262154,45.9187
161,582,-0.00964355,-45.6487,0,0,0,0,0,0,0,-1,1385,442,-0.00965916,45.6487
168,582,0.081665,-40.4535,0,0,0,0,0,0,0,-1,1392,442,0.0816215,40.4535
175,582,6.50549,-2.00424,0,0,0,0,0,0,0,-1,1399,442,6.50546,2.00425
182,582,5.18958,-2.18652,0,0,0,0,0,0,0,-1,1406,442,5.1896,2.18652
189,582,6.19751,-0.880951,0,0,0,0,0,0,0,-1,1413,442,6.19754,0.88096
196,582,4.87354,-2.22327,0,0,0,0,0,0,0,-1,1420,442,4.87348,2.22325
203,582,3.11401,-4.48257,0,0,0,0,0,0,0,-1,1427,442,3.11404,4.48259
210,582,2.93115,-11.0731,0,0,0,0,0,0,0,-1,1434,442,2.93113,11.0731
217,582,4.94092,-16.5476,0,0,0,0,0,0,0,-1,1441,442,4.94087,16.5476
224,582,5.21008,-20.9908,0,0,0,0,0,0,0,-1,1448,442,5.21006,20.9908
231,582,5.70032,-25.622,0,0,0,0,0,0,0,-1,1455,442,5.70026,25.6221
238,582,6.44189,-30.7028,0,0,0,0,0,0,0,-1,1462,442,6.44195,30.7028
245,582,9.31006,-42.8763,0,0,0,0,0,0,0,-1,1469,442,9.31008,42.8763
252,582,9.15198,-42.2656,0.00374636,-0.000176886,-0.00255489,0.00500583,-0.00143636,-0.458003,0.00390508,0.0443245,1476,442,9.15198,42.2656
259,582,9.04114,-41.7174,0.00352706,-0.000844102,-0.00227935,0.00449936,-0.0018164,-0.403198,0.00375447,0.0223308,1483,442,9.04116,41.7174
266,582,9.06409,-41.2195,0.00332042,-0.0012376,-0.00202542,0.00409038,-0.00200756,-0.363276,0.00358845,0.01304,1490,442,9.06406,41.2195
273,582,9.10547,-40.7576,0.00322023,-0.00153241,-0.00176089,0.00380154,-0.00211373,-0.318863,0.00346122,0.011744,1497,442,9.10553,40.7576
280,582,9.11584,-40.284,0.00311723,-0.00167048,-0.00145704,0.00352579,-0.00207903,-0.273381,0.00327169,0.0117863,1504,442,9.11585,40.284
287,582,9.13538,-39.7806,0.00296103,-0.00161002,-0.00125044,0.00328074,-0.00192973,-0.250312,0.00304178,0.0112517,1511,442,9.13541,39.7806
294,582,9.14417,-39.2516,0.0027548,-0.00130214,-0.000976477,0.00297759,-0.00152494,-0.224323,0.00264425,0.00933645,1518,442,9.14415,39.2516
301,582,9.14563,-38.7234,0.00250458,-0.000908579,-0.000658675,0.00262729,-0.00103128,-0.184173,0.00217824,0.00994963,1525,442,9.1456,38.7235
308,582,9.14026,-38.191,0.00230792,-0.00066202,-0.000370715,0.00235349,-0.000707594,-0.122322,0.00185052,0.012751,1532,442,9.14025,38.191
315,582,9.12952,-37.6617,0.00203943,-0.000106104,-8.66187e-05,0.00204292,-0.000109595,-0.0402842,0.00139991,0.0137012,1539,442,9.12953,37.6618
322,582,9.12646,-37.1198,0.00171015,0.00055518,0.000272555,0.00177124,0.000494093,0.220486,0.00105541,0.0107526,1546,442,9.12645,37.1198
329,582,9.11267,-36.572,0.00138629,0.00115194,0.000609658,0.00188993,0.000648298,0.690456,0.00110893,0.0104789,1553,442,9.11263,36.572
336,582,9.10229,-36.0092,0.00108111,0.00182985,0.000979365,0.00250396,0.000407001,0.967959,0.00155154,0.0106032,1560,442,9.10229,36.0092
343,582,9.09094,-35.4153,0.000753267,0.00255758,0.00135129,0.00328019,3.06572e-05,1.07973,0.00217664,0.013095,1567,442,9.09089,35.4153
350,582,9.06885,-34.8356,0.000473566,0.00357095,0.00185011,0.00443501,-0.000390493,1.13387,0.00309506,0.0156955,1574,442,9.06883,34.8356
357,582,9.04028,-34.2151,0.000236946,0.00456321,0.00241183,0.00563984,-0.000839683,1.15094,0.00406877,0.0136383,1581,442,9.04023,34.2151
364,582,9.02124,-33.6347,1.22138e-05,0.00557493,0.00297005,0.00686262,-0.00127547,1.1617,0.00505417,0.0107376,1588,442,9.02123,33.6347
371,582,8.98865,-33.048,-0.000192476,0.00677697,0.00357106,0.00828181,-0.00169732,1.17198,0.00616536,0.0142824,1595,442,8.98869,33.048
378,582,8.95288,-32.4413,-0.000368488,0.00787913,0.00398267,0.00948833,-0.00197769,1.1868,0.0070775,0.0154492,1602,442,8.95286,32.4413
385,582,8.92065,-31.8343,-0.000198668,0.00884167,0.0041898,0.0104848,-0.0018418,1.19705,0.0076778,0.0114353,1609,442,8.92071,31.8343
392,582,8.87341,-31.202,0.000547657,0.0097752,0.00418744,0.0113921,-0.00106927,1.2023,0.0079751,0.0102631,1616,442,8.87337,31.202
399,582,8.83167,-30.5882,0.00126842,0.0106004,0.00433601,0.0123041,-0.000435237,1.19642,0.00835158,0.0197771,1623,442,8.83163,30.5882
406,582,8.82751,-29.7953,0.00208725,0.0114208,0.00429397,0.0130957,0.000412343,1.19889,0.0085963,0.0385493,1630,442,8.82756,29.7954
413,582,8.67517,-29.2621,0,0,0,0,0,0,0,-1,1637,442,8.67517,29.2621
420,582,8.61304,-28.5825,0,0,0,0,0,0,0,-1,1644,442,8.61303,28.5825
427,582,8.43311,-27.9565,0.00337336,0.0117877,0.0026795,0.0125685,0.00259254,1.28724,0.00766243,0.0469221,1651,442,8.43309,27.9565
434,582,8.38818,-27.3151,0.00343314,0.0117634,0.00186457,0.0121617,0.00303483,1.36034,0.00730931,0.0443146,1658,442,8.38817,27.3151
441,582,8.57483,-26.5754,0.00262323,0.0114052,0.00080621,0.0114786,0.00254984,1.48,0.00695992,0.0486904,1665,442,8.57486,26.5754
448,582,8.93579,-25.9024,0,0,0,0,0,0,0,-1,1672,442,8.93581,25.9024
455,582,6.4585,-19.4734,0,0,0,0,0,0,0,-1,1679,442,6.45854,19.4734
462,582,5.35022,-19.2616,0,0,0,0,0,0,0,-1,1686,442,5.35025,19.2616
469,582,6.28601,-21.5695,0,0,0,0,0,0,0,-1,1693,442,6.28597,21.5695
476,582,1.93579,-8.53891,0,0,0,0,0,0,0,-1,1700,442,1.93579,8.53892
483,582,0,0,0,0,0,0,0,0,0,-1,1707,442,0,0
490,582,0,0,0,0,0,0,0,0,0,-1,1714,442,0,0
497,582,0,0,0,0,0,0,0,0,0,-1,1721,442,0,0
504,582,0,0,0,0,0,0,0,0,0,-1,1728,442,0,0
511,582,0,0,0,0,0,0,0,0,0,-1,1735,442,0,0
518,582,0,0,0,0,0,0,0,0,0,-1,1742,442,0,0
525,582,0,0,0,0,0,0,0,0,0,-1,1749,442,0,0
532,582,0,0,0,0,0,0,0,0,0,-1,1756,442,0,0
539,582,0,0,0,0,0,0,0,0,0,-1,1763,442,0,0
546,582,0,0,0,0,0,0,0,0,0,-1,1770,442,0,0
553,582,0,0,0,0,0,0,0,0,0,-1,1777,442,0,0
560,582,0,0,0,0,0,0,0,0,0,-1,1784,442,0,0
567,582,0,0,0,0,0,0,0,0,0,-1,1791,442,0,0
574,582,0,0,0,0,0,0,0,0,0,-1,1798,442,0,0
581,582,0,0,0,0,0,0,0,0,0,-1,1805,442,0,0
588,582,0,0,0,0,0,0,0,0,0,-1,1812,442,0,0
595,582,0,0,0,0,0,0,0,0,0,-1,1819,442,0,0
602,582,0,0,0,0,0,0,0,0,0,-1,1826,442,0,0
609,582,0,0,0,0,0,0,0,0,0,-1,1833,442,0,0
616,582,0,0,0,0,0,0,0,0,0,-1,1840,442,0,0
623,582,0,0,0,0,0,0,0,0,0,-1,1847,442,0,0
630,582,0,0,0,0,0,0,0,0,0,-1,1854,442,0,0
637,582,0,0,0,0,0,0,0,0,0,-1,1861,442,0,0
644,582,0,0,0,0,0,0,0,0,0,-1,1868,442,0,0
651,582,0,0,0,0,0,0,0,0,0,-1,1875,442,0,0
658,582,0,0,0,0,0,0,0,0,0,-1,1882,442,0,0
665,582,0,0,0,0,0,0,0,0,0,-1,1889,442,0,0
672,582,0,0,0,0,0,0,0,0,0,-1,1896,442,0,0
679,582,0,0,0,0,0,0,0,0,0,-1,1903,442,0,0
686,582,0,0,0,0,0,0,0,0,0,-1,1910,442,0,0
693,582,0,0,0,0,0,0,0,0,0,-1,1917,442,0,0
700,582,0,0,0,0,0,0,0,0,0,-1,1924,442,0,0
707,582,0,0,0,0,0,0,0,0,0,-1,1931,442,0,0
714,582,0,0,0,0,0,0,0,0,0,-1,1938,442,0,0
721,582,0,0,0,0,0,0,0,0,0,-1,1945,442,0,0
728,582,0,0,0,0,0,0,0,0,0,-1,1952,442,0,0
735,582,0,0,0,0,0,0,0,0,0,-1,1959,442,0,0
742,582,0,0,0,0,0,0,0,0,0,-1,1966,442,0,0
749,582,0,0,0,0,0,0,0,0,0,-1,1973,442,0,0
756,582,0,0,0,0,0,0,0,0,0,-1,1980,442,0,0
763,582,0,0,0,0,0,0,0,0,0,-1,1987,442,0,0
770,582,0,0,0,0,0,0,0,0,0,-1,1994,442,0,0
777,582,0,0,0,0,0,0,0,0,0,-1,2001,442,0,0
784,582,0,0,0,0,0,0,0,0,0,-1,2008,442,0,0
791,582,0,0,0,0,0,0,0,0,0,-1,2015,442,0,0
798,582,0,0,0,0,0,0,0,0,0,-1,2022,442,0,0
805,582,0,0,0,0,0,0,0,0,0,-1,2029,442,0,0
812,582,0,0,0,0,0,0,0,0,0,-1,2036,442,0,0
-700,575,0,0,0,0,0,0,0,0,0,-1,524,449,0,0
-693,575,0,0,0,0,0,0,0,0,0,-1,531,449,0,0
-686,575,0,0,0,0,0,0,0,0,0,-1,538,449,0,0
-679,575,0,0,0,0,0,0,0,0,0,-1,545,449,0,0
-672,575,0,0,0,0,0,0,0,0,0,-1,552,449,0,0
-665,575,0,0,0,0,0,0,0,0,0,-1,559,449,0,0
-658,575,0,0,0,0,0,0,0,0,0,-1,566,449,0,0
-651,575,0,0,0,0,0,0,0,0,0,-1,573,449,0,0
-644,575,0,0,0,0,0,0,0,0,0,-1,580,449,0,0
-637,575,0,0,0,0,0,0,0,0,0,-1,587,449,0,0
-630,575,0,0,0,0,0,0,0,0,0,-1,594,449,0,0
-623,575,0,0,0,0,0,0,0,0,0,-1,601,449,0,0
-616,575,0,0,0,0,0,0,0,0,0,-1,608,449,0,0
-609,575,0,0,0,0,0,0,0,0,0,-1,615,449,0,0
-602,575,0,0,0,0,0,0,0,0,0,-1,622,449,0,0
-595,575,0,0,0,0,0,0,0,0,0,-1,629,449,0,0
-588,575,0,0,0,0,0,0,0,0,0,-1,636,449,0,0
-581,575,0,0,0,0,0,0,0,0,0,-1,643,449,0,0
-574,575,0,0,0,0,0,0,0,0,0,-1,650,449,0,0
-567,575,0,0,0,0,0,0,0,0,0,-1,657,449,0,0
-560,575,0,0,0,0,0,0,0,0,0,-1,664,449,0,0
-553,575,0,0,0,0,0,0,0,0,0,-1,671,449,0,0
-546,575,0,0,0,0,0,0,0,0,0,-1,678,449,0,0
-539,575,0,0,0,0,0,0,0,0,0,-1,685,449,0,0
-532,575,0,0,0,0,0,0,0,0,0,-1,692,449,0,0
-525,575,0,0,0,0,0,0,0,0,0,-1,699,449,0,0
-518,575,0,0,0,0,0,0,0,0,0,-1,706,449,0,0
-511,575,0,0,0,0,0,0,0,0,0,-1,713,449,0,0
-504,575,0,0,0,0,0,0,0,0,0,-1,720,449,0,0
-497,575,0,0,0,0,0,0,0,0,0,-1,727,449,0,0
-490,575,0,0,0,0,0,0,0,0,0,-1,734,449,0,0
-483,575,0,0,0,0,0,0,0,0,0,-1,741,449,0,0
-476,575,0,0,0,0,0,0,0,0,0,-1,748,449,0,0
-469,575,0,0,0,0,0,0,0,0,0,-1,755,449,0,0
-462,575,0,0,0,0,0,0,0,0,0,-1,762,449,0,0
-455,575,0,0,0,0,0,0,0,0,0,-1,769,449,0,0
-448,575,0,0,0,0,0,0,0,0,0,-1,776,449,0,0
-441,575,0,0,0,0,0,0,0,0,0,-1,783,449,0,0
-434,575,0,0,0,0,0,0,0,0,0,-1,790,449,0,0
-427,575,0,0,0,0,0,0,0,0,0,-1,797,449,0,0
-420,575,0,0,0,0,0,0,0,0,0,-1,804,449,0,0
-413,575,0,0,0,0,0,0,0,0,0,-1,811,449,0,0
-406,575,0,0,0,0,0,0,0,0,0,-1,818,449,0,0
-399,575,0,0,0,0,0,0,0,0,0,-1,825,449,0,0
-392,575,0,0,0,0,0,0,0,0,0,-1,832,449,0,0
-385,575,0,0,0,0,0,0,0,0,0,-1,839,449,0,0
-378,575,0,0,0,0,0,0,0,0,0,-1,846,449,0,0
-371,575,0.56897,-3.52304,0,0,0,0,0,0,0,-1,853,449,0.568955,3.52306
-364,575,1.49805,-4.67191,0,0,0,0,0,0,0,-1,860,449,1.49803,4.6719
-357,575,3.15521,-8.29892,0,0,0,0,0,0,0,-1,867,449,3.15521,8.29891
-350,575,-0.825928,-18.5347,0,0,0,0,0,0,0,-1,874,449,-0.825948,18.5347
-343,575,0.465393,-16.3569,0,0,0,0,0,0,0,-1,881,449,0.465397,16.3569
-336,575,3.1994,-17.5725,0,0,0,0,0,0,0,-1,888,449,3.19941,17.5725
-329,575,2.53143,-25.7687,0,0,0,0,0,0,0,-1,895,449,2.53141,25.7687
-322,575,2.7674,-26.0891,0,0,0,0,0,0,0,-1,902,449,2.76737,26.0891
-315,575,2.05084,-26.8077,0,0,0,0,0,0,0,-1,909,449,2.05084,26.8077
-308,575,2.45288,-27.7375,0.00977211,0.0282024,-0.0109148,0.033272,0.00470257,-1.13598,0.0207918,0.0478486,916,449,2.45288,27.7375
-301,575,2.89771,-28.6436,0.00810455,0.0240132,-0.0104121,0.0291617,0.00295607,-1.11158,0.0185345,0.0348539,923,449,2.89773,28.6436
-294,575,2.82086,-29.3596,0.00635264,0.0204875,-0.00953298,0.0252871,0.00155304,-1.10437,0.016365,0.0274062,930,449,2.82085,29.3596
-287,575,2.78217,-30.051,0.00477828,0.0177626,-0.00858662,0.0220351,0.000505758,-1.10909,0.0145244,0.0207878,937,449,2.78218,30.051
-280,575,2.78284,-30.7013,0.00373485,0.0158694,-0.00790068,0.0197637,-0.00015942,-1.11284,0.0132293,0.0157483,944,449,2.78287,30.7013
-273,575,2.77179,-31.3513,0.002821,0.0139172,-0.00722016,0.0174747,-0.000736512,-1.11299,0.0119029,0.0126292,951,449,2.77176,31.3513
-266,575,2.7309,-31.9767,0.00198186,0.0119277,-0.0064749,0.015119,-0.00120944,-1.11287,0.0105057,0.0139425,958,449,2.73091,31.9767
-259,575,2.68146,-32.5838,0.00150894,0.0101455,-0.00549561,0.0128164,-0.00116201,-1.1184,0.00895679,0.0128013,965,449,2.68147,32.5838
-252,575,2.61774,-33.1865,0.00101535,0.0083122,-0.00427282,0.0102823,-0.000954764,-1.13877,0.00719428,0.0107193,972,449,2.61777,33.1865
-245,575,2.5799,-33.7586,0.000864154,0.00648126,-0.00336478,0.00805559,-0.000710179,-1.13317,0.00562209,0.0145416,979,449,2.5799,33.7586
-238,575,2.57587,-34.3099,0.000967768,0.00456915,-0.00247154,0.0058264,-0.000289482,-1.10022,0.00398426,0.0152154,986,449,2.57589,34.3099
-231,575,2.57983,-34.8736,0.00106362,0.00246028,-0.00159445,0.00350262,2.12858e-05,-0.991803,0.00232802,0.0132886,993,449,2.57982,34.8736
-224,575,2.55878,-35.4439,0.00113565,0.000332082,-0.000725378,0.00156308,-9.53524e-05,-0.532484,0.00107525,0.0136318,1000,449,2.5588,35.4439
-217,575,2.53699,-36.0061,0.0012558,-0.00185067,0.000111672,0.00125981,-0.00185468,0.0358864,0.00180905,0.0118921,1007,449,2.537,36.0061
-210,575,2.54102,-36.5598,0.00138479,-0.00405958,0.000931874,0.00153988,-0.00421466,0.164911,0.00343994,0.00985633,1014,449,2.541,36.5598
-203,575,2.52368,-37.1021,0.00158987,-0.00598228,0.00167171,0.00194252,-0.00633492,0.207899,0.00499823,0.0124322,1021,449,2.52371,37.1021
-196,575,2.49829,-37.6577,0.00183577,-0.00756687,0.00232416,0.00237889,-0.00810998,0.229564,0.00634993,0.0172808,1028,449,2.49829,37.6577
-189,575,2.49365,-38.1694,0.002111,-0.00895083,0.00290755,0.00282867,-0.0096685,0.241994,0.0075669,0.0188849,1035,449,2.49364,38.1694
-182,575,2.4856,-38.6524,0.00244274,-0.0100449,0.00344404,0.00332961,-0.0109317,0.252033,0.00861491,0.0160481,1042,449,2.48563,38.6524
-175,575,2.51501,-39.1513,0.00281733,-0.0112423,0.00406638,0.00390871,-0.0123337,0.262211,0.00978902,0.0128861,1049,449,2.51497,39.1513
-168,575,2.50293,-39.6495,0.00304646,-0.012897,0.00471757,0.00433777,-0.0141883,0.26718,0.0111887,0.0115623,1056,449,2.50287,39.6495
-161,575,2.51965,-40.1327,0.00320684,-0.0140375,0.005326,0.00471917,-0.0155498,0.27667,0.0122466,0.0157642,1063,449,2.5197,40.1327
-154,575,2.54858,-40.6021,0.00345183,-0.0153442,0.00611303,0.00526505,-0.0171574,0.288349,0.0135389,0.0166563,1070,449,2.54852,40.6021
-147,575,2.59424,-41.029,0.00401937,-0.0168721,0.00685013,0.00606514,-0.0189179,0.290215,0.0150468,0.01453,1077,449,2.59423,41.029
-140,575,2.6106,-41.3822,0.0043552,-0.018705,0.00757608,0.00662148,-0.0209713,0.290665,0.0166333,0.0207214,1084,449,2.61063,41.3822
-133,575,2.49963,-41.6511,0,0,0,0,0,0,0,-1,1091,449,2.49962,41.6511
-126,575,2.54517,-41.7233,0.00400381,-0.0230612,0.00965263,0.00709364,-0.026151,0.309796,0.0202177,0.0380495,1098,449,2.54514,41.7233
-119,575,2.53149,-41.9077,0.00414062,-0.0258884,0.0105812,0.00749449,-0.0292423,0.306947,0.0224146,0.0472802,1105,449,2.53147,41.9077
-112,575,2.56213,-42.3847,0,0,0,0,0,0,0,-1,1112,449,2.56215,42.3847
-105,575,2.18347,-36.5414,0,0,0,0,0,0,0,-1,1119,449,2.18351,36.5414
-98,575,1.521,-25.6961,0,0,0,0,0,0,0,-1,1126,449,1.52105,25.6961
-91,575,1.60803,-16.4247,0,0,0,0,0,0,0,-1,1133,449,1.60802,16.4247
-84,575,1.16553,-11.9056,0,0,0,0,0,0,0,-1,1140,449,1.16558,11.9056
-77,575,0.205078,-11.2584,0,0,0,0,0,0,0,-1,1147,449,0.205117,11.2584
-70,575,-4.2467,-1.78738,0,0,0,0,0,0,0,-1,1154,449,-4.24674,1.78739
-63,575,-4.52209,-3.48798,0,0,0,0,0,0,0,-1,1161,449,-4.5221,3.48796
-56,575,-5.5968,-5.4928,0,0,0,0,0,0,0,-1,1168,449,-5.59683,5.49281
-49,575,-5.96863,-7.17612,0,0,0,0,0,0,0,-1,1175,449,-5.96868,7.1761
-42,575,-0.830322,0.773499,0,0,0,0,0,0,0,-1,1182,449,-0.83038,-0.77351
-35,575,-0.62085,0.205139,0,0,0,0,0,0,0,-1,1189,449,-0.620855,-0.205126
-28,575,0.49292,-3.87988,0,0,0,0,0,0,0,-1,1196,449,0.492941,3.87989
-21,575,6.64917,-45.0462,0,0,0,0,0,0,0,-1,1203,449,6.64919,45.0462
-14,575,7.91528,-48.0377,0,0,0,0,0,0,0,-1,1210,449,7.91527,48.0377
-7,575,5.11316,-45.8205,0,0,0,0,0,0,0,-1,1217,449,5.11314,45.8205
0,575,5.09375,-46.191,-0.00973775,0.0491487,-0.0072364,0.0500249,-0.010614,-1.4503,0.0373935,0.0484859,1224,449,5.09374,46.191
7,575,4.98291,-46.6693,0.0014008,0.0388097,-0.0142954,0.0436471,-0.00343652,-1.24451,0.0303086,0.046372,1231,449,4.98294,46.6693
14,575,5.28003,-46.9289,0,0,0,0,0,0,0,-1,1238,449,5.28001,46.9289
21,575,5.24109,-47.1644,0.0150144,0.0212316,-0.0215451,0.0398912,-0.00364521,-0.857046,0.0278887,0.0458163,1245,449,5.24112,47.1644
28,575,6.42615,-48.2398,0.0172687,0.013087,-0.0216921,0.0369705,-0.00661486,-0.737353,0.0271222,0.0437699,1252,449,6.42609,48.2398
35,575,6.40393,-48.3608,0.0159868,0.00609547,-0.0192707,0.0309364,-0.00885412,-0.659789,0.0241235,0.0423058,1259,449,6.40395,48.3608
42,575,6.84668,-48.8806,0.0134638,-0.000487259,-0.0167779,0.0246585,-0.0116819,-0.588391,0.0214224,0.0438066,1266,449,6.84673,48.8806
49,575,6.36609,-48.4973,0.00724933,-0.00868643,-0.0122364,0.0138834,-0.0153204,-0.496801,0.0168676,0.0455383,1273,449,6.36611,48.4974
56,575,6.35461,-48.8421,-0.00131014,-0.0132005,-0.00612086,0.00127756,-0.0157882,-0.399978,0.0109761,0.0451141,1280,449,6.35457,48.8421
63,575,5.86536,-48.3763,-0.0104787,-0.0190195,-1.95174e-05,-0.0104786,-0.0190195,-0.00228518,0.0109999,0.0455056,1287,449,5.86542,48.3763
70,575,5.82043,-48.2234,-0.0195932,-0.0262443,0.00438884,-0.0174123,-0.0284252,0.461186,0.0165494,0.0434908,1294,449,5.82045,48.2234
77,575,5.67969,-47.9709,-0.0291771,-0.0316412,0.00865465,-0.0216672,-0.039151,0.714695,0.0226468,0.0432001,1301,449,5.67974,47.9709
84,575,5.24585,-47.7624,-0.0371261,-0.0368209,0.0113559,-0.0256165,-0.0483305,0.792116,0.0279204,0.0461364,1308,449,5.24589,47.7624
91,575,4.49023,-47.3057,-0.0429672,-0.0406206,0.0124469,-0.0292918,-0.054296,0.832391,0.0313804,0.0480414,1315,449,4.4902,47.3057
98,575,3.91968,-46.9801,-0.0483063,-0.0439431,0.0125328,-0.0334034,-0.0588459,0.871571,0.0340782,0.0445288,1322,449,3.91965,46.9801
105,575,2.98169,-46.7928,-0.0525413,-0.0455121,0.0112975,-0.0371952,-0.0608583,0.9362,0.0354249,0.0425095,1329,449,2.98166,46.7928
112,575,2.42712,-46.9375,-0.0553499,-0.0458678,0.00878767,-0.0406238,-0.0605939,1.03278,0.0356549,0.042523,1336,449,2.42709,46.9375
119,575,2.20056,-46.5118,-0.0565863,-0.0445644,0.00520887,-0.0426215,-0.0585292,1.21378,0.0349454,0.0414361,1343,449,2.20058,46.5118
126,575,1.29797,-46.6411,-0.0559043,-0.0399482,0.000383745,-0.039939,-0.0559135,1.54676,0.0332553,0.045823,1350,449,1.29801,46.6411
133,575,0.65271,-46.5476,-0.0546799,-0.0343023,-0.00439541,-0.0333947,-0.0555876,-1.36716,0.03231,0.0457387,1357,449,0.652658,46.5476
140,575,0.251221,-46.4303,-0.0536541,-0.0289231,-0.00884691,-0.0260843,-0.056493,-1.26029,0.0326481,0.0471954,1364,449,0.2512,46.4303
147,575,0.319214,-46.7699,0,0,0,0,0,0,0,-1,1371,449,0.319245,46.7699
154,575,0.484985,-46.6545,0,0,0,0,0,0,0,-1,1378,449,0.485033,46.6545
161,575,0.333496,-46.5221,0,0,0,0,0,0,0,-1,1385,449,0.33351,46.5221
168,575,7.5509,-35.3165,0,0,0,0,0,0,0,-1,1392,449,7.5509,35.3165
175,575,4.32617,1.93634,0,0,0,0,0,0,0,-1,1399,449,4.32612,-1.93634
182,575,6.3147,-2.88345,0,0,0,0,0,0,0,-1,1406,449,6.31466,2.88346
189,575,6.10449,-1.30817,0,0,0,0,0,0,0,-1,1413,449,6.10455,1.30817
196,575,5.79895,0.818359,0,0,0,0,0,0,0,-1,1420,449,5.79895,-0.81837
203,575,3.29724,-1.46378,0,0,0,0,0,0,0,-1,1427,449,3.29722,1.46377
210,575,2.32739,-7.74503,0,0,0,0,0,0,0,-1,1434,449,2.32741,7.74502
217,575,3.33618,-11.5521,0,0,0,0,0,0,0,-1,1441,449,3.3362,11.5521
224,575,5.51709,-16.3903,0,0,0,0,0,0,0,-1,1448,449,5.51713,16.3903
231,575,5.48572,-20.4595,0,0,0,0,0,0,0,-1,1455,449,5.48571,20.4595
238,575,5.33484,-22.3575,0,0,0,0,0,0,0,-1,1462,449,5.33478,22.3575
245,575,5.59741,-23.513,0,0,0,0,0,0,0,-1,1469,449,5.5974,23.513
252,575,9.72986,-42.6026,0,0,0,0,0,0,0,-1,1476,449,9.72989,42.6026
259,575,9.59473,-41.5352,0,0,0,0,0,0,0,-1,1483,449,9.59467,41.5351
266,575,9.58569,-41.1537,0.0039943,-0.00114288,-0.00262691,0.00509971,-0.00224829,-0.398312,0.00434754,0.0382067,1490,449,9.5857,41.1537
273,575,9.57324,-40.7807,0.00403262,-0.00203813,-0.00242739,0.00488386,-0.00288937,-0.337279,0.00453685,0.0305176,1497,449,9.5733,40.7807
280,575,9.66309,-40.2148,0.00401764,-0.00269616,-0.00220376,0.00467638,-0.00335489,-0.29046,0.00465773,0.0275013,1504,449,9.66313,40.2148
287,575,9.60754,-39.7882,0.00384293,-0.00302351,-0.00215688,0.00446424,-0.00364481,-0.280463,0.00468972,0.0215921,1511,449,9.60755,39.7882
294,575,9.64929,-39.2685,0.00359054,-0.00296326,-0.00197554,0.00413997,-0.0035127,-0.271263,0.00442322,0.0129079,1518,449,9.64924,39.2685
301,575,9.68298,-38.7278,0.00327844,-0.00276081,-0.00171056,0.00372928,-0.00321165,-0.257704,0.00401106,0.0105469,1525,449,9.68295,38.7278
308,575,9.70264,-38.1856,0.00301007,-0.00275592,-0.00150685,0.00338012,-0.00312596,-0.240809,0.00375724,0.0109532,1532,449,9.70261,38.1856
315,575,9.68176,-37.6434,0.0026627,-0.00232437,-0.00127333,0.002969,-0.00263068,-0.236067,0.00323494,0.0106961,1539,449,9.68175,37.6434
322,575,9.68652,-37.1031,0.0022756,-0.00170224,-0.000908647,0.00247333,-0.00189997,-0.21427,0.00253215,0.00972763,1546,449,9.68658,37.1031
329,575,9.6698,-36.564,0.00189894,-0.00108608,-0.000565946,0.00200264,-0.00118978,-0.18122,0.00186295,0.0106035,1553,449,9.66979,36.564
336,575,9.64636,-35.9916,0.00154961,-0.0003464,-0.000186598,0.0015678,-0.000364589,-0.0971742,0.00118556,0.0120959,1560,449,9.6463,35.9916
343,575,9.66699,-35.383,0.00117277,0.000444472,0.000198556,0.00122339,0.000393858,0.249598,0.000721098,0.0122597,1567,449,9.66705,35.383
350,575,9.64941,-34.7968,0.000849724,0.00143918,0.000686499,0.00189154,0.000397359,0.988159,0.00115166,0.0117177,1574,449,9.64944,34.7968
357,575,9.6084,-34.2098,0.000598222,0.00243662,0.00123782,0.00305922,-2.43714e-05,1.10477,0.00204765,0.0118713,1581,449,9.60844,34.2098
364,575,9.58435,-33.6284,0.000380705,0.00346612,0.0017897,0.00428624,-0.000439415,1.14111,0.00301466,0.0111957,1588,449,9.58436,33.6283
371,575,9.59326,-33.0333,0.000187304,0.00455409,0.00235943,0.00558537,-0.000843972,1.15873,0.00403444,0.0187811,1595,449,9.59326,33.0333
378,575,9.55139,-32.4241,1.88438e-06,0.00556107,0.00278757,0.00671806,-0.00115511,1.17738,0.00490925,0.0175613,1602,449,9.55134,32.4241
385,575,9.50562,-31.8154,0.000101537,0.00644059,0.00305264,0.00767158,-0.00112945,1.18749,0.00552946,0.0115327,1609,449,9.50561,31.8154
392,575,9.45642,-31.2173,0.000670797,0.00724731,0.0031735,0.00852893,-0.000610819,1.18698,0.00590011,0.00979521,1616,449,9.45638,31.2173
399,575,9.42017,-30.6245,0.00122861,0.00792088,0.00338262,0.00933277,-0.000183273,1.17539,0.00628383,0.0105256,1623,449,9.42016,30.6245
406,575,9.38745,-29.9442,0.00182639,0.00861768,0.00343897,0.0100549,0.000389135,1.17493,0.00657742,0.0122866,1630,449,9.38745,29.9441
413,575,9.35571,-29.2524,0.00243789,0.00897718,0.00316123,0.0102555,0.00115957,1.18653,0.00648512,0.016151,1637,449,9.35566,29.2524
420,575,9.29358,-28.5922,0.00256104,0.00937571,0.00297761,0.0104934,0.00144333,1.2117,0.00656759,0.0164947,1644,449,9.29355,28.5922
427,575,9.23608,-27.8791,0.00242933,0.00919862,0.00261876,0.0100934,0.00153452,1.24154,0.00628025,0.0180896,1651,449,9.23611,27.8791
434,575,9.17188,-27.2775,0.00233316,0.00929622,0.00222564,0.00994683,0.00168256,1.2864,0.0061476,0.0267193,1658,449,9.17192,27.2775
441,575,9.38208,-26.7192,0.00156387,0.00920125,0.00171475,0.00956858,0.00119654,1.35977,0.00601998,0.047401,1665,449,9.38212,26.7192
448,575,9.70496,-26.0204,0,0,0,0,0,0,0,-1,1672,449,9.7049,26.0205
455,575,9.54468,-22.5141,0,0,0,0,0,0,0,-1,1679,449,9.54471,22.5141
462,575,7.12781,-21.7179,0,0,0,0,0,0,0,-1,1686,449,7.12778,21.7178
469,575,9.31421,-23.5566,0,0,0,0,0,0,0,-1,1693,449,9.31419,23.5566
476,575,8.60779,-23.3997,0,0,0,0,0,0,0,-1,1700,449,8.6078,23.3997
483,575,7.55847,-24.7774,0,0,0,0,0,0,0,-1,1707,449,7.55842,24.7774
490,575,7.62415,-24.9823,0,0,0,0,0,0,0,-1,1714,449,7.62419,24.9823
497,575,0,0,0,0,0,0,0,0,0,-1,1721,449,0,0
504,575,0,0,0,0,0,0,0,0,0,-1,1728,449,0,0
511,575,0,0,0,0,0,0,0,0,0,-1,1735,449,0,0
518,575,0,0,0,0,0,0,0,0,0,-1,1742,449,0,0
525,575,0,0,0,0,0,0,0,0,0,-1,1749,449,0,0
532,575,0,0,0,0,0,0,0,0,0,-1,1756,449,0,0
539,575,0,0,0,0,0,0,0,0,0,-1,1763,449,0,0
546,575,0,0,0,0,0,0,0,0,0,-1,1770,449,0,0
553,575,0,0,0,0,0,0,0,0,0,-1,1777,449,0,0
560,575,0,0,0,0,0,0,0,0,0,-1,1784,449,0,0
567,575,0,0,0,0,0,0,0,0,0,-1,1791,449,0,0
574,575,0,0,0,0,0,0,0,0,0,-1,1798,449,0,0
581,575,0,0,0,0,0,0,0,0,0,-1,1805,449,0,0
588,575,0,0,0,0,0,0,0,0,0,-1,1812,449,0,0
595,575,0,0,0,0,0,0,0,0,0,-1,1819,449,0,0
602,575,0,0,0,0,0,0,0,0,0,-1,1826,449,0,0
609,575,0,0,0,0,0,0,0,0,0,-1,1833,449,0,0
616,575,0,0,0,0,0,0,0,0,0,-1,1840,449,0,0
623,575,0,0,0,0,0,0,0,0,0,-1,1847,449,0,0
630,575,0,0,0,0,0,0,0,0,0,-1,1854,449,0,0
637,575,0,0,0,0,0,0,0,0,0,-1,1861,449,0,0
644,575,0,0,0,0,0,0,0,0,0,-1,1868,449,0,0
651,575,0,0,0,0,0,0,0,0,0,-1,1875,449,0,0
658,575,0,0,0,0,0,0,0,0,0,-1,1882,449,0,0
665,575,0,0,0,0,0,0,0,0,0,-1,1889,449,0,0
672,575,0,0,0,0,0,0,0,0,0,-1,1896,449,0,0
679,575,0,0,0,0,0,0,0,0,0,-1,1903,449,0,0
686,575,0,0,0,0,0,0,0,0,0,-1,1910,449,0,0
693,575,0,0,0,0,0,0,0,0,0,-1,1917,449,0,0
700,575,0,0,0,0,0,0,0,0,0,-1,1924,449,0,0
707,575,0,0,0,0,0,0,0,0,0,-1,1931,449,0,0
714,575,0,0,0,0,0,0,0,0,0,-1,1938,449,0,0
721,575,0,0,0,0,0,0,0,0,0,-1,1945,449,0,0
728,575,0,0,0,0,0,0,0,0,0,-1,1952,449,0,0
735,575,0,0,0,0,0,0,0,0,0,-1,1959,449,0,0
742,575,0,0,0,0,0,0,0,0,0,-1,1966,449,0,0
749,575,0,0,0,0,0,0,0,0,0,-1,1973,449,0,0
756,575,0,0,0,0,0,0,0,0,0,-1,1980,449,0,0
763,575,0,0,0,0,0,0,0,0,0,-1,1987,449,0,0
770,575,0,0,0,0,0,0,0,0,0,-1,1994,449,0,0
777,575,0,0,0,0,0,0,0,0,0,-1,2001,449,0,0
784,575,0,0,0,0,0,0,0,0,0,-1,2008,449,0,0
791,575,0,0,0,0,0,0,0,0,0,-1,2015,449,0,0
798,575,0,0,0,0,0,0,0,0,0,-1,2022,449,0,0
805,575,0,0,0,0,0,0,0,0,0,-1,2029,449,0,0
812,575,0,0,0,0,0,0,0,0,0,-1,2036,449,0,0
-700,568,0,0,0,0,0,0,0,0,0,-1,524,456,0,0
-693,568,0,0,0,0,0,0,0,0,0,-1,531,456,0,0
-686,568,0,0,0,0,0,0,0,0,0,-1,538,456,0,0
-679,568,0,0,0,0,0,0,0,0,0,-1,545,456,0,0
-672,568,0,0,0,0,0,0,0,0,0,-1,552,456,0,0
-665,568,0,0,0,0,0,0,0,0,0,-1,559,456,0,0
-658,568,0,0,0,0,0,0,0,0,0,-1,566,456,0,0
-651,568,0,0,0,0,0,0,0,0,0,-1,573,456,0,0
-644,568,0,0,0,0,0,0,0,0,0,-1,580,456,0,0
-637,568,0,0,0,0,0,0,0,0,0,-1,587,456,0,0
-630,568,0,0,0,0,0,0,0,0,0,-1,594,456,0,0
-623,568,0,0,0,0,0,0,0,0,0,-1,601,456,0,0
-616,568,0,0,0,0,0,0,0,0,0,-1,608,456,0,0
-609,568,0,0,0,0,0,0,0,0,0,-1,615,456,0,0
-602,568,0,0,0,0,0,0,0,0,0,-1,622,456,0,0
-595,568,0,0,0,0,0,0,0,0,0,-1,629,456,0,0
-588,568,0,0,0,0,0,0,0,0,0,-1,636,456,0,0
-581,568,0,0,0,0,0,0,0,0,0,-1,643,456,0,0
-574,568,0,0,0,0,0,0,0,0,0,-1,650,456,0,0
-567,568,0,0,0,0,0,0,0,0,0,-1,657,456,0,0
-560,568,0,0,0,0,0,0,0,0,0,-1,664,456,0,0
-553,568,0,0,0,0,0,0,0,0,0,-1,671,456,0,0
-546,568,0,0,0,0,0,0,0,0,0,-1,678,456,0,0
-539,568,0,0,0,0,0,0,0,0,0,-1,685,456,0,0
-532,568,0,0,0,0,0,0,0,0,0,-1,692,456,0,0
-525,568,0,0,0,0,0,0,0,0,0,-1,699,456,0,0
-518,568,0,0,0,0,0,0,0,0,0,-1,706,456,0,0
-511,568,0,0,0,0,0,0,0,0,0,-1,713,456,0,0
-504,568,0,0,0,0,0,0,0,0,0,-1,720,456,0,0
-497,568,0,0,0,0,0,0,0,0,0,-1,727,456,0,0
-490,568,0,0,0,0,0,0,0,0,0,-1,734,456,0,0
-483,568,0,0,0,0,0,0,0,0,0,-1,741,456,0,0
-476,568,0,0,0,0,0,0,0,0,0,-1,748,456,0,0
-469,568,0,0,0,0,0,0,0,0,0,-1,755,456,0,0
-462,568,0,0,0,0,0,0,0,0,0,-1,762,456,0,0
-455,568,0,0,0,0,0,0,0,0,0,-1,769,456,0,0
-448,568,0,0,0,0,0,0,0,0,0,-1,776,456,0,0
-441,568,0,0,0,0,0,0,0,0,0,-1,783,456,0,0
-434,568,0,0,0,0,0,0,0,0,0,-1,790,456,0,0
-427,568,0,0,0,0,0,0,0,0,0,-1,797,456,0,0
-420,568,0,0,0,0,0,0,0,0,0,-1,804,456,0,0
-413,568,0,0,0,0,0,0,0,0,0,-1,811,456,0,0
-406,568,0,0,0,0,0,0,0,0,0,-1,818,456,0,0
-399,568,0,0,0,0,0,0,0,0,0,-1,825,456,0,0
-392,568,0,0,0,0,0,0,0,0,0,-1,832,456,0,0
-385,568,0,0,0,0,0,0,0,0,0,-1,839,456,0,0
-378,568,0.321777,-7.29929,0,0,0,0,0,0,0,-1,846,456,0.321806,7.29927
-371,568,1.09595,-7.46707,0,0,0,0,0,0,0,-1,853,456,1.09597,7.46707
-364,568,1.87787,-7.61115,0,0,0,0,0,0,0,-1,860,456,1.87784,7.61116
-357,568,2.14166,-7.67645,0,0,0,0,0,0,0,-1,867,456,2.14167,7.67646
-350,568,2.7467,-11.2507,0,0,0,0,0,0,0,-1,874,456,2.7467,11.2507
-343,568,2.16516,-11.3762,0,0,0,0,0,0,0,-1,881,456,2.16514,11.3762
-336,568,1.98914,-25.2749,0,0,0,0,0,0,0,-1,888,456,1.98916,25.2749
-329,568,2.2049,-25.928,0.0109982,0.0354703,-0.0101381,0.0391246,0.00734392,-1.22484,0.0240124,0.0491909,895,456,2.20487,25.928
-322,568,2.38251,-26.3341,0.00939306,0.0297435,-0.0092794,0.0333394,0.00579721,-1.2011,0.020568,0.0444139,902,456,2.3825,26.3341
-315,568,2.36383,-27.1378,0,0,0,0,0,0,0,-1,909,456,2.36386,27.1378
-308,568,2.34937,-28.0984,0.00671946,0.0221114,-0.00838843,0.0257994,0.00303152,-1.15659,0.0162834,0.0347228,916,456,2.34934,28.0984
-301,568,2.32825,-28.7988,0.00563866,0.0186044,-0.00788401,0.0223287,0.00191442,-1.12949,0.0142904,0.0197439,923,456,2.32823,28.7988
-294,568,2.28046,-29.4233,0.00453537,0.0156594,-0.00716084,0.0191645,0.0010302,-1.11559,0.0124472,0.0138629,930,456,2.28044,29.4233
-287,568,2.23572,-30.0819,0.00351428,0.0133582,-0.00638199,0.0164957,0.000376743,-1.11387,0.0108737,0.011717,937,456,2.23574,30.0819
-280,568,2.21875,-30.7462,0.0028442,0.0116256,-0.0058002,0.0145096,-3.97516e-05,-1.10938,0.00968631,0.0115058,944,456,2.21875,30.7462
-273,568,2.19135,-31.3831,0.00225045,0.00982607,-0.00518083,0.0124561,-0.000379568,-1.10105,0.00843343,0.013425,951,456,2.19134,31.3831
-266,568,2.14203,-31.9789,0.00173166,0.00794716,-0.00450182,0.0103097,-0.000630924,-1.0875,0.00709283,0.01282,958,456,2.14203,31.9789
-259,568,2.09473,-32.5707,0.00150049,0.00616901,-0.00363555,0.00815517,-0.000485665,-1.07079,0.00560569,0.0127409,965,456,2.0947,32.5707
-252,568,2.04694,-33.1572,0.00116611,0.00432171,-0.00251774,0.00571518,-0.000227364,-1.0653,0.00388813,0.0126789,972,456,2.04691,33.1572
-245,568,2.02521,-33.7149,0.00108565,0.00239505,-0.0015985,0.00346773,1.29703e-05,-0.979763,0.00230751,0.015079,979,456,2.02522,33.7149
-238,568,2.026,-34.2881,0.00126087,0.00034208,-0.000694647,0.00163429,-3.13371e-05,-0.493245,0.00110012,0.0139901,986,456,2.02597,34.2881
-231,568,2.00714,-34.8616,0.0014293,-0.0019632,0.00019868,0.00144089,-0.00197479,0.0582988,0.00198006,0.0121687,993,456,2.00715,34.8616
-224,568,1.98401,-35.4203,0.00153821,-0.00427759,0.0010968,0.00173818,-0.00447756,0.180339,0.00370301,0.013655,1000,456,1.98398,35.4203
-217,568,1.98022,-35.9762,0.00167206,-0.00661344,0.00197262,0.00211773,-0.00705911,0.222198,0.00554838,0.0119538,1007,456,1.98025,35.9762
-210,568,1.98077,-36.524,0.00182037,-0.00885368,0.00278366,0.0025027,-0.00953601,0.240379,0.00733529,0.0114391,1014,456,1.98075,36.5239
-203,568,1.99402,-37.0704,0.00204866,-0.0108091,0.00351387,0.00294629,-0.0117068,0.250104,0.00894975,0.0107697,1021,456,1.99401,37.0704
-196,568,2.01111,-37.5867,0.00232841,-0.0124393,0.00415869,0.00341899,-0.0135299,0.256466,0.0103496,0.0155509,1028,456,2.0111,37.5867
-189,568,1.96521,-38.0956,0.00262467,-0.013817,0.00475872,0.00390265,-0.015095,0.262366,0.0115854,0.0159739,1035,456,1.96523,38.0956
-182,568,1.97095,-38.6259,0.0029879,-0.0148143,0.00527615,0.00443414,-0.0162605,0.267537,0.0125816,0.0173166,1042,456,1.971,38.6259
-175,568,2.01367,-39.1166,0.00344258,-0.0158573,0.0058645,0.00508483,-0.0174996,0.27304,0.01368,0.0163559,1049,456,2.0137,39.1166
-168,568,2.02246,-39.4905,0.00370261,-0.0175303,0.00650585,0.00553746,-0.0193652,0.274892,0.0150983,0.0213244,1056,456,2.02241,39.4905
-161,568,1.96533,-39.9534,0.0038092,-0.0186708,0.00715501,0.00589331,-0.0207549,0.283437,0.0161632,0.0303156,1063,456,1.96531,39.9534
-154,568,2.04028,-40.5521,0.00402403,-0.0200413,0.00809061,0.00649112,-0.0225084,0.295977,0.0175735,0.0345345,1070,456,2.04033,40.5521
-147,568,2.0874,-40.9208,0.00480666,-0.0218031,0.00896011,0.00754246,-0.0245389,0.296341,0.0193693,0.0369685,1077,456,2.0874,40.9208
-140,568,2.12317,-41.2568,0.0052067,-0.0240217,0.00984956,0.00821603,-0.027031,0.296521,0.0212944,0.0397781,1084,456,2.12322,41.2568
-133,568,2.20911,-41.3578,0,0,0,0,0,0,0,-1,1091,456,2.20905,41.3578
-126,568,2.12292,-41.4813,0,0,0,0,0,0,0,-1,1098,456,2.12288,41.4813
-119,568,1.90686,-41.0047,0,0,0,0,0,0,0,-1,1105,456,1.90682,41.0047
-112,568,1.98242,-35.0942,0,0,0,0,0,0,0,-1,1112,456,1.98247,35.0942
-105,568,2.02454,-25.038,0,0,0,0,0,0,0,-1,1119,456,2.02459,25.038
-98,568,1.58618,-14.7874,0,0,0,0,0,0,0,-1,1126,456,1.58617,14.7874
-91,568,1.11621,-11.1853,0,0,0,0,0,0,0,-1,1133,456,1.11626,11.1853
-84,568,0.461792,-9.7959,0,0,0,0,0,0,0,-1,1140,456,0.461793,9.7959
-77,568,-1.13806,-8.57822,0,0,0,0,0,0,0,-1,1147,456,-1.13807,8.57821
-70,568,-4.09766,-1.42911,0,0,0,0,0,0,0,-1,1154,456,-4.09767,1.4291
-63,568,-5.92273,-3.70752,0,0,0,0,0,0,0,-1,1161,456,-5.92272,3.70751
-56,568,-5.24158,-6.01385,0,0,0,0,0,0,0,-1,1168,456,-5.24161,6.01386
-49,568,-5.24365,-8.33557,0,0,0,0,0,0,0,-1,1175,456,-5.24371,8.33557
-42,568,-0.664795,0.521973,0,0,0,0,0,0,0,-1,1182,456,-0.664829,-0.521984
-35,568,-0.153076,-1.67731,0,0,0,0,0,0,0,-1,1189,456,-0.153068,1.67731
-28,568,1.25439,-4.48798,0,0,0,0,0,0,0,-1,1196,456,1.2544,4.48797
-21,568,8.2301,-49.0888,0,0,0,0,0,0,0,-1,1203,456,8.23009,49.0888
-14,568,7.77417,-48.56,-0.0578387,0.0935848,0.0225616,0.096875,-0.0611288,1.42599,0.0919984,0.0479458,1210,456,7.7742,48.56
-7,568,5.31409,-46.1605,-0.0401209,0.0798445,0.00945482,0.0805851,-0.0408615,1.49263,0.0713565,0.0453808,1217,456,5.31409,46.1605
0,568,5.64771,-46.2517,-0.0231944,0.065749,-0.00226684,0.0658067,-0.0232522,-1.54533,0.0533389,0.0496679,1224,456,5.64772,46.2517
7,568,5.59412,-46.5131,-0.00870914,0.052386,-0.011904,0.0546235,-0.0109466,-1.385,0.0405599,0.047014,1231,456,5.59409,46.5131
14,568,5.59314,-46.7987,0,0,0,0,0,0,0,-1,1238,456,5.59319,46.7987
21,568,5.59766,-47.0621,0,0,0,0,0,0,0,-1,1245,456,5.59771,47.0621
28,568,5.57434,-47.3556,0,0,0,0,0,0,0,-1,1252,456,5.57429,47.3556
35,568,5.70288,-47.7024,0,0,0,0,0,0,0,-1,1259,456,5.70286,47.7024
42,568,6.30078,-48.4662,0,0,0,0,0,0,0,-1,1266,456,6.30072,48.4662
49,568,6.25061,-48.627,0.0068946,-0.0079385,-0.0158277,0.0169572,-0.0180011,-0.566299,0.0201862,0.047732,1273,456,6.25057,48.627
56,568,6.20789,-48.7738,-0.00152974,-0.0131485,-0.00890827,0.00329603,-0.0179742,-0.496462,0.0132192,0.0460099,1280,456,6.20794,48.7738
63,568,6.32483,-48.6287,-0.0111473,-0.0201058,-0.00162951,-0.0108601,-0.020393,-0.174454,0.0117822,0.0449821,1287,456,6.32482,48.6287
70,568,5.91455,-47.1735,-0.0209003,-0.0289409,0.00373045,-0.0194361,-0.030405,0.374008,0.0177798,0.0448093,1294,456,5.91453,47.1735
77,568,5.6322,-46.4137,-0.0310985,-0.0354778,0.00917029,-0.0238601,-0.0427163,0.668204,0.0247186,0.042469,1301,456,5.63216,46.4137
84,568,4.97632,-47.4059,0,0,0,0,0,0,0,-1,1308,456,4.97628,47.4059
91,568,4.42371,-46.8733,-0.0468828,-0.0469745,0.0148054,-0.0321232,-0.0617342,0.78385,0.0356521,0.0468067,1315,456,4.42368,46.8733
98,568,3.77405,-46.6099,-0.0531959,-0.0506755,0.0151455,-0.0367379,-0.0671335,0.826905,0.0388172,0.0464687,1322,456,3.77403,46.6099
105,568,3.12915,-46.6714,-0.0584091,-0.0523975,0.0137175,-0.0413604,-0.0694462,0.893254,0.0403382,0.0472297,1329,456,3.12913,46.6714
112,568,2.42603,-46.7209,-0.0621466,-0.0527123,0.0106807,-0.0457534,-0.0691055,0.993342,0.0405908,0.0483035,1336,456,2.42601,46.7209
119,568,1.83704,-46.464,-0.0641173,-0.0508506,0.0061471,-0.0484403,-0.0665276,1.19711,0.03972,0.045955,1343,456,1.83702,46.464
126,568,1.25366,-46.3452,-0.0639638,-0.0449977,-8.59703e-05,-0.0449973,-0.0639642,-1.56626,0.0379354,0.0475503,1350,456,1.25363,46.3452
133,568,0.755859,-46.5782,-0.0634431,-0.0381039,-0.00624326,-0.0366492,-0.0648978,-1.34187,0.0375733,0.0496549,1357,456,0.755882,46.5782
140,568,0.993652,-46.5488,-0.0632655,-0.0311903,-0.0119164,-0.0272478,-0.0672081,-1.25128,0.0390333,0.0486943,1364,456,0.993653,46.5488
147,568,0.914429,-46.6173,-0.0635025,-0.0244047,-0.0166801,-0.0182556,-0.0696515,-1.21761,0.041703,0.0464995,1371,456,0.914431,46.6173
154,568,0.712769,-46.8471,0,0,0,0,0,0,0,-1,1378,456,0.712769,46.8471
161,568,0.471191,-46.9373,0,0,0,0,0,0,0,-1,1385,456,0.471233,46.9373
168,568,-1.74231,-39.2641,0,0,0,0,0,0,0,-1,1392,456,-1.74226,39.2641
175,568,10.5151,0.747498,0,0,0,0,0,0,0,-1,1399,456,10.5152,-0.747501
182,568,6.35095,-3.63361,0,0,0,0,0,0,0,-1,1406,456,6.35093,3.63359
189,568,6.17493,-1.70911,0,0,0,0,0,0,0,-1,1413,456,6.17497,1.70911
196,568,6.04724,0.200836,0,0,0,0,0,0,0,-1,1420,456,6.04724,-0.200835
203,568,5.9281,2.08649,0,0,0,0,0,0,0,-1,1427,456,5.92812,-2.08648
210,568,1.46216,-2.50446,0,0,0,0,0,0,0,-1,1434,456,1.46219,2.50446
217,568,2.62366,-7.86703,0,0,0,0,0,0,0,-1,1441,456,2.62365,7.86704
224,568,3.43494,-12.1555,0,0,0,0,0,0,0,-1,1448,456,3.43492,12.1555
231,568,4.38245,-9.3205,0,0,0,0,0,0,0,-1,1455,456,4.38244,9.32048
238,568,5.88879,-20.7448,0,0,0,0,0,0,0,-1,1462,456,5.88876,20.7449
245,568,3.34387,-10.6774,0,0,0,0,0,0,0,-1,1469,456,3.34389,10.6774
252,568,3.56946,-9.28928,0,0,0,0,0,0,0,-1,1476,456,3.56948,9.28928
259,568,3.38843,-8.73068,0,0,0,0,0,0,0,-1,1483,456,3.38842,8.73068
266,568,10.1071,-41.0997,0,0,0,0,0,0,0,-1,1490,456,10.107,41.0997
273,568,9.92529,-40.8668,0,0,0,0,0,0,0,-1,1497,456,9.92527,40.8668
280,568,9.99524,-40.5064,0,0,0,0,0,0,0,-1,1504,456,9.99523,40.5064
287,568,10.1222,-39.876,0,0,0,0,0,0,0,-1,1511,456,10.1222,39.876
294,568,10.1887,-39.1541,0.00439836,-0.00449781,-0.00292255,0.00527256,-0.00537201,-0.290652,0.00614573,0.0373383,1518,456,10.1887,39.1541
301,568,10.1956,-38.6612,0.00404925,-0.0044037,-0.00269339,0.00483451,-0.00518896,-0.283686,0.00578826,0.0207023,1525,456,10.1955,38.6612
308,568,10.24,-38.1349,0.00371375,-0.00461963,-0.00259157,0.00445395,-0.00535983,-0.27821,0.00567403,0.0138712,1532,456,10.2399,38.1349
315,568,10.233,-37.6241,0.00328742,-0.00428385,-0.00241955,0.00399459,-0.00499102,-0.284351,0.00519846,0.00851405,1539,456,10.2331,37.6241
322,568,10.224,-37.0858,0.00284801,-0.00368562,-0.00206304,0.0034449,-0.00428251,-0.281635,0.00447015,0.00926207,1546,456,10.224,37.0858
329,568,10.2251,-36.5274,0.00243395,-0.00304593,-0.00172409,0.00293126,-0.00354324,-0.280822,0.00374361,0.00994974,1553,456,10.2251,36.5274
336,568,10.2314,-35.9523,0.00204438,-0.00226595,-0.00135095,0.0024328,-0.00265437,-0.279961,0.00293801,0.0112077,1560,456,10.2314,35.9523
343,568,10.2538,-35.3567,0.00161768,-0.0014578,-0.000969535,0.00189781,-0.00173793,-0.28127,0.00209977,0.0115766,1567,456,10.2538,35.3567
350,568,10.231,-34.7964,0.00123462,-0.00054341,-0.00051202,0.00137152,-0.000680315,-0.261271,0.00120683,0.0106598,1574,456,10.231,34.7964
357,568,10.1927,-34.2072,0.000949098,0.000423914,2.65985e-05,0.000950442,0.00042257,0.0504739,0.00054986,0.0102914,1581,456,10.1927,34.2072
364,568,10.2019,-33.6202,0.000717241,0.00143574,0.000578698,0.00175763,0.000395351,1.06318,0.00106473,0.0125621,1588,456,10.2019,33.6202
371,568,10.1892,-33.006,0.000518843,0.00244584,0.00114645,0.0029799,-1.52157e-05,1.13485,0.00199169,0.0209374,1595,456,10.1892,33.006
378,568,10.157,-32.3824,0.000312998,0.00341262,0.00160718,0.00409551,-0.000369893,1.16901,0.00286162,0.0185092,1602,456,10.157,32.3824
385,568,10.0962,-31.7953,0.000330551,0.00427048,0.00194934,0.00507193,-0.000470893,1.18073,0.00354868,0.0103644,1609,456,10.0962,31.7953
392,568,10.041,-31.2157,0.000723732,0.00501048,0.00220102,0.00593933,-0.000205115,1.17146,0.00402967,0.0114431,1616,456,10.041,31.2157
399,568,9.98132,-30.6477,0.00113593,0.00562144,0.00248498,0.00672608,3.12903e-05,1.1525,0.00447366,0.0181822,1623,456,9.98127,30.6477
406,568,9.98523,-29.9695,0.00155578,0.00627338,0.00264725,0.00746026,0.000368901,1.14932,0.00485521,0.0160717,1630,456,9.9852,29.9695
413,568,9.96606,-29.2655,0.00195068,0.00669998,0.00257626,0.00782905,0.000821609,1.15775,0.00496819,0.0127907,1637,456,9.96602,29.2655
420,568,9.93604,-28.6127,0.00195529,0.00712349,0.00257987,0.00819087,0.000887906,1.17851,0.00518999,0.0113464,1644,456,9.93606,28.6127
427,568,9.89099,-27.9312,0.00177972,0.00710524,0.00246816,0.0080732,0.00081176,1.19705,0.00513299,0.0135326,1651,456,9.89094,27.9312
434,568,9.88806,-27.2193,0.00164146,0.00729845,0.00237656,0.00816433,0.000775582,1.2214,0.00520366,0.0193636,1658,456,9.88802,27.2193
441,568,9.8783,-26.6162,0.00101868,0.00739526,0.00224647,0.0081072,0.000306739,1.26389,0.00530551,0.0288575,1665,456,9.87826,26.6162
448,568,9.95459,-25.9383,-0.000284016,0.00738526,0.00217772,0.00796048,-0.000859244,1.31255,0.00561536,0.0483194,1672,456,9.95455,25.9383
455,568,9.9845,-24.8802,0,0,0,0,0,0,0,-1,1679,456,9.98451,24.8803
462,568,9.57141,-24.2781,0,0,0,0,0,0,0,-1,1686,456,9.57136,24.2781
469,568,9.7533,-23.7704,-0.00843065,0.00788382,0.00356831,0.00863014,-0.00917697,1.36462,0.0102826,0.0497314,1693,456,9.75327,23.7704
476,568,9.27734,-23.2998,-0.0125357,0.00820341,0.00485126,0.0092821,-0.0136144,1.352,0.0132979,0.0496428,1700,456,9.27731,23.2998
483,568,8.94849,-22.411,0,0,0,0,0,0,0,-1,1707,456,8.94853,22.4111
490,568,8.45361,-24.0446,0,0,0,0,0,0,0,-1,1714,456,8.4536,24.0445
497,568,8.05774,-23.8365,0,0,0,0,0,0,0,-1,1721,456,8.05774,23.8365
504,568,0,0,0,0,0,0,0,0,0,-1,1728,456,0,0
511,568,0,0,0,0,0,0,0,0,0,-1,1735,456,0,0
518,568,0,0,0,0,0,0,0,0,0,-1,1742,456,0,0
525,568,0,0,0,0,0,0,0,0,0,-1,1749,456,0,0
532,568,0,0,0,0,0,0,0,0,0,-1,1756,456,0,0
539,568,0,0,0,0,0,0,0,0,0,-1,1763,456,0,0
546,568,0,0,0,0,0,0,0,0,0,-1,1770,456,0,0
553,568,0,0,0,0,0,0,0,0,0,-1,1777,456,0,0
560,568,0,0,0,0,0,0,0,0,0,-1,1784,456,0,0
567,568,0,0,0,0,0,0,0,0,0,-1,1791,456,0,0
574,568,0,0,0,0,0,0,0,0,0,-1,1798,456,0,0
581,568,0,0,0,0,0,0,0,0,0,-1,1805,456,0,0
588,568,0,0,0,0,0,0,0,0,0,-1,1812,456,0,0
595,568,0,0,0,0,0,0,0,0,0,-1,1819,456,0,0
602,568,0,0,0,0,0,0,0,0,0,-1,1826,456,0,0
609,568,0,0,0,0,0,0,0,0,0,-1,1833,456,0,0
616,568,0,0,0,0,0,0,0,0,0,-1,1840,456,0,0
623,568,0,0,0,0,0,0,0,0,0,-1,1847,456,0,0
630,568,0,0,0,0,0,0,0,0,0,-1,1854,456,0,0
637,568,0,0,0,0,0,0,0,0,0,-1,1861,456,0,0
644,568,0,0,0,0,0,0,0,0,0,-1,1868,456,0,0
651,568,0,0,0,0,0,0,0,0,0,-1,1875,456,0,0
658,568,0,0,0,0,0,0,0,0,0,-1,1882,456,0,0
665,568,0,0,0,0,0,0,0,0,0,-1,1889,456,0,0
672,568,0,0,0,0,0,0,0,0,0,-1,1896,456,0,0
679,568,0,0,0,0,0,0,0,0,0,-1,1903,456,0,0
686,568,0,0,0,0,0,0,0,0,0,-1,1910,456,0,0
693,568,0,0,0,0,0,0,0,0,0,-1,1917,456,0,0
700,568,0,0,0,0,0,0,0,0,0,-1,1924,456,0,0
707,568,0,0,0,0,0,0,0,0,0,-1,1931,456,0,0
714,568,0,0,0,0,0,0,0,0,0,-1,1938,456,0,0
721,568,0,0,0,0,0,0,0,0,0,-1,1945,456,0,0
728,568,0,0,0,0,0,0,0,0,0,-1,1952,456,0,0
735,568,0,0,0,0,0,0,0,0,0,-1,1959,456,0,0
742,568,0,0,0,0,0,0,0,0,0,-1,1966,456,0,0
749,568,0,0,0,0,0,0,0,0,0,-1,1973,456,0,0
756,568,0,0,0,0,0,0,0,0,0,-1,1980,456,0,0
763,568,0,0,0,0,0,0,0,0,0,-1,1987,456,0,0
770,568,0,0,0,0,0,0,0,0,0,-1,1994,456,0,0
777,568,0,0,0,0,0,0,0,0,0,-1,2001,456,0,0
784,568,0,0,0,0,0,0,0,0,0,-1,2008,456,0,0
791,568,0,0,0,0,0,0,0,0,0,-1,2015,456,0,0
798,568,0,0,0,0,0,0,0,0,0,-1,2022,456,0,0
805,568,0,0,0,0,0,0,0,0,0,-1,2029,456,0,0
812,568,0,0,0,0,0,0,0,0,0,-1,2036,456,0,0
-700,561,0,0,0,0,0,0,0,0,0,-1,524,463,0,0
-693,561,0,0,0,0,0,0,0,0,0,-1,531,463,0,0
-686,561,0,0,0,0,0,0,0,0,0,-1,538,463,0,0
-679,561,0,0,0,0,0,0,0,0,0,-1,545,463,0,0
-672,561,0,0,0,0,0,0,0,0,0,-1,552,463,0,0
-665,561,0,0,0,0,0,0,0,0,0,-1,559,463,0,0
-658,561,0,0,0,0,0,0,0,0,0,-1,566,463,0,0
-651,561,0,0,0,0,0,0,0,0,0,-1,573,463,0,0
-644,561,0,0,0,0,0,0,0,0,0,-1,580,463,0,0
-637,561,0,0,0,0,0,0,0,0,0,-1,587,463,0,0
-630,561,0,0,0,0,0,0,0,0,0,-1,594,463,0,0
-623,561,0,0,0,0,0,0,0,0,0,-1,601,463,0,0
-616,561,0,0,0,0,0,0,0,0,0,-1,608,463,0,0
-609,561,0,0,0,0,0,0,0,0,0,-1,615,463,0,0
-602,561,0,0,0,0,0,0,0,0,0,-1,622,463,0,0
-595,561,0,0,0,0,0,0,0,0,0,-1,629,463,0,0
-588,561,0,0,0,0,0,0,0,0,0,-1,636,463,0,0
-581,561,0,0,0,0,0,0,0,0,0,-1,643,463,0,0
-574,561,0,0,0,0,0,0,0,0,0,-1,650,463,0,0
-567,561,0,0,0,0,0,0,0,0,0,-1,657,463,0,0
-560,561,0,0,0,0,0,0,0,0,0,-1,664,463,0,0
-553,561,0,0,0,0,0,0,0,0,0,-1,671,463,0,0
-546,561,0,0,0,0,0,0,0,0,0,-1,678,463,0,0
-539,561,0,0,0,0,0,0,0,0,0,-1,685,463,0,0
-532,561,0,0,0,0,0,0,0,0,0,-1,692,463,0,0
-525,561,0,0,0,0,0,0,0,0,0,-1,699,463,0,0
-518,561,0,0,0,0,0,0,0,0,0,-1,706,463,0,0
-511,561,0,0,0,0,0,0,0,0,0,-1,713,463,0,0
-504,561,0,0,0,0,0,0,0,0,0,-1,720,463,0,0
-497,561,0,0,0,0,0,0,0,0,0,-1,727,463,0,0
-490,561,0,0,0,0,0,0,0,0,0,-1,734,463,0,0
-483,561,0,0,0,0,0,0,0,0,0,-1,741,463,0,0
-476,561,0,0,0,0,0,0,0,0,0,-1,748,463,0,0
-469,561,0,0,0,0,0,0,0,0,0,-1,755,463,0,0
-462,561,0,0,0,0,0,0,0,0,0,-1,762,463,0,0
-455,561,0,0,0,0,0,0,0,0,0,-1,769,463,0,0
-448,561,0,0,0,0,0,0,0,0,0,-1,776,463,0,0
-441,561,0,0,0,0,0,0,0,0,0,-1,783,463,0,0
-434,561,0,0,0,0,0,0,0,0,0,-1,790,463,0,0
-427,561,0,0,0,0,0,0,0,0,0,-1,797,463,0,0
-420,561,0,0,0,0,0,0,0,0,0,-1,804,463,0,0
-413,561,0,0,0,0,0,0,0,0,0,-1,811,463,0,0
-406,561,0,0,0,0,0,0,0,0,0,-1,818,463,0,0
-399,561,0,0,0,0,0,0,0,0,0,-1,825,463,0,0
-392,561,4.92407,-2.54578,0,0,0,0,0,0,0,-1,832,463,4.92408,2.54576
-385,561,5.55634,-1.02338,0,0,0,0,0,0,0,-1,839,463,5.55634,1.02338
-378,561,0.160522,-4.51785,0,0,0,0,0,0,0,-1,846,463,0.160542,4.51785
-371,561,1.06299,-7.56818,0,0,0,0,0,0,0,-1,853,463,1.06297,7.56817
-364,561,1.45264,-7.57684,0,0,0,0,0,0,0,-1,860,463,1.45264,7.57684
-357,561,0.948242,-12.2803,0,0,0,0,0,0,0,-1,867,463,0.948262,12.2803
-350,561,1.33124,-11.9406,0,0,0,0,0,0,0,-1,874,463,1.33127,11.9406
-343,561,1.13214,-14.1837,0,0,0,0,0,0,0,-1,881,463,1.13217,14.1837
-336,561,2.12689,-25.4545,0,0,0,0,0,0,0,-1,888,463,2.1269,25.4545
-329,561,1.79211,-26.3337,0.00779265,0.0283683,-0.00881986,0.0316315,0.00452949,-1.21644,0.0197517,0.0475774,895,463,1.79209,26.3337
-322,561,1.70233,-26.748,0.00656569,0.0237422,-0.00771344,0.0266975,0.00361031,-1.2049,0.0167253,0.0394069,902,463,1.70236,26.748
-315,561,1.89453,-27.2067,0.00558172,0.0202427,-0.00702166,0.0230631,0.00276135,-1.18885,0.0145426,0.0267682,909,463,1.89452,27.2067
-308,561,1.78766,-28.0071,0.00466181,0.0172261,-0.00644005,0.0199406,0.00194731,-1.17189,0.0126945,0.0228205,916,463,1.78768,28.0071
-301,561,1.73108,-28.8279,0.00393997,0.0142278,-0.00589708,0.0169092,0.00125858,-1.14404,0.0108776,0.0145295,923,463,1.73111,28.8279
-294,561,1.67767,-29.4667,0.00325494,0.0117115,-0.00523386,0.0142116,0.000754796,-1.12516,0.00923311,0.0111282,930,463,1.67767,29.4667
-287,561,1.63898,-30.0872,0.00261288,0.0097132,-0.00453923,0.0119257,0.00040038,-1.11727,0.00782042,0.0100678,937,463,1.63897,30.0872
-280,561,1.60095,-30.7068,0.00219261,0.00807674,-0.00400235,0.010102,0.000167333,-1.10234,0.0066796,0.0128046,944,463,1.60094,30.7068
-273,561,1.55603,-31.3065,0.00184127,0.00635812,-0.00339028,0.00817333,2.60593e-05,-1.07922,0.00544022,0.0157651,951,463,1.55602,31.3066
-266,561,1.5307,-31.9196,0.0016092,0.00452354,-0.00272559,0.00615702,-2.42933e-05,-1.03088,0.0041128,0.0103372,958,463,1.53069,31.9196
-259,561,1.51086,-32.5333,0.00160416,0.00266855,-0.00193476,0.00414297,0.000129734,-0.919615,0.00271977,0.0108931,965,463,1.51085,32.5333
-252,561,1.49854,-33.1278,0.00141886,0.00072148,-0.00090102,0.00203631,0.000104033,-0.600775,0.00132423,0.0155985,972,463,1.49854,33.1278
-245,561,1.47595,-33.6961,0.00140453,-0.00139211,5.24963e-05,0.00140551,-0.0013931,0.0187624,0.00161578,0.0178644,979,463,1.47593,33.6961
-238,561,1.47321,-34.2736,0.00164747,-0.00363912,0.000983731,0.00182459,-0.00381623,0.17814,0.00332371,0.0140828,986,463,1.4732,34.2736
-231,561,1.43414,-34.863,0.00189816,-0.00620422,0.00190557,0.00232395,-0.00663001,0.219833,0.00536514,0.0114874,993,463,1.43417,34.863
-224,561,1.4187,-35.4281,0.00204041,-0.00878639,0.00285691,0.00274802,-0.009494,0.242799,0.00741702,0.0115152,1000,463,1.41868,35.4281
-217,561,1.43726,-35.9578,0.00217281,-0.0113656,0.00379971,0.00316633,-0.0123591,0.255748,0.0094729,0.0118019,1007,463,1.43723,35.9578
-210,561,1.43579,-36.4962,0.00231487,-0.0137443,0.00464001,0.00355911,-0.0149886,0.261992,0.011366,0.0122758,1014,463,1.43577,36.4962
-203,561,1.45526,-37.0311,0.00253351,-0.0158483,0.00540544,0.00400523,-0.0173201,0.265822,0.0130877,0.0148669,1021,463,1.45524,37.0311
-196,561,1.37256,-37.4958,0.00281458,-0.0176345,0.00608576,0.00448869,-0.0193086,0.268446,0.0146004,0.0173448,1028,463,1.37262,37.4958
-189,561,1.42786,-37.9709,0.00309422,-0.0191126,0.00674684,0.00498334,-0.0210017,0.273008,0.0159243,0.0224036,1035,463,1.42791,37.9709
-182,561,1.56238,-38.446,0.003444,-0.0201045,0.00729773,0.00552218,-0.0221827,0.277427,0.016932,0.0275309,1042,463,1.56235,38.446
-175,561,1.46521,-38.9119,0.00395289,-0.0210423,0.00790336,0.00624221,-0.0233317,0.281948,0.0179997,0.0396798,1049,463,1.46525,38.9119
-168,561,1.46179,-39.4242,0.00420702,-0.0227919,0.00857452,0.00669999,-0.0252849,0.282941,0.0194779,0.0484676,1056,463,1.46176,39.4242
-161,561,1.43726,-39.9038,0.00416675,-0.0240234,0.00932937,0.00697459,-0.0268312,0.292344,0.0206096,0.0499071,1063,463,1.4372,39.9038
-154,561,1.5625,-40.5653,0,0,0,0,0,0,0,-1,1070,463,1.56255,40.5653
-147,561,1.54541,-40.8239,0,0,0,0,0,0,0,-1,1077,463,1.54544,40.8239
-140,561,1.63037,-41.1338,0,0,0,0,0,0,0,-1,1084,463,1.63037,41.1338
-133,561,1.91846,-41.0645,0,0,0,0,0,0,0,-1,1091,463,1.91847,41.0645
-126,561,1.78528,-41.0697,0,0,0,0,0,0,0,-1,1098,463,1.78525,41.0697
-119,561,-0.336304,-35.422,0,0,0,0,0,0,0,-1,1105,463,-0.336245,35.422
-112,561,1.24365,-29.1982,0,0,0,0,0,0,0,-1,1112,463,1.2437,29.1981
-105,561,0.530518,-13.5379,0,0,0,0,0,0,0,-1,1119,463,0.530477,13.5379
-98,561,1.5387,-7.54352,0,0,0,0,0,0,0,-1,1126,463,1.53871,7.54351
-91,561,1.29553,-6.57968,0,0,0,0,0,0,0,-1,1133,463,1.29549,6.5797
-84,561,1.23364,-5.84555,0,0,0,0,0,0,0,-1,1140,463,1.23363,5.84556
-77,561,-2.36023,1.00204,0,0,0,0,0,0,0,-1,1147,463,-2.3602,-1.00205
-70,561,-3.90015,-1.41541,0,0,0,0,0,0,0,-1,1154,463,-3.90009,1.4154
-63,561,-6.95691,-4.02756,0,0,0,0,0,0,0,-1,1161,463,-6.95696,4.02756
-56,561,-5.37988,-6.66855,0,0,0,0,0,0,0,-1,1168,463,-5.37988,6.66854
-49,561,-5.7439,-9.11029,0,0,0,0,0,0,0,-1,1175,463,-5.74387,9.1103
-42,561,-1.72644,-5.63065,0,0,0,0,0,0,0,-1,1182,463,-1.72648,5.63064
-35,561,-1.65674,-4.87994,0,0,0,0,0,0,0,-1,1189,463,-1.6567,4.87993
-28,561,-1.91418,-3.86896,0,0,0,0,0,0,0,-1,1196,463,-1.91414,3.86895
-21,561,8.0686,-49.5935,0,0,0,0,0,0,0,-1,1203,463,8.06858,49.5935
-14,561,7.63892,-49.0807,-0.0854913,0.120319,0.0389484,0.127444,-0.0926155,1.38988,0.12758,0.0472496,1210,463,7.63892,49.0807
-7,561,6.97681,-48.3336,-0.0620483,0.101889,0.0210403,0.104546,-0.0647056,1.44517,0.0986159,0.0462232,1217,463,6.9768,48.3336
0,561,6.18579,-46.2974,0,0,0,0,0,0,0,-1,1224,463,6.18584,46.2974
7,561,5.729,-46.674,0,0,0,0,0,0,0,-1,1231,463,5.72899,46.6739
14,561,5.84827,-46.7135,0,0,0,0,0,0,0,-1,1238,463,5.84827,46.7135
21,561,5.8772,-46.9943,0.00151955,0.0382704,-0.0225171,0.0489583,-0.00916833,-1.12763,0.0360853,0.0460691,1245,463,5.87715,46.9943
28,561,5.8916,-47.2753,0.00773684,0.0256296,-0.0254229,0.0436343,-0.0102679,-0.954583,0.0330482,0.0491506,1252,463,5.89158,47.2753
35,561,6.00635,-47.5826,0.00949437,0.0147136,-0.0245511,0.0367933,-0.0125854,-0.838346,0.0296288,0.0418661,1259,463,6.00636,47.5826
42,561,6.08252,-47.8915,0.00998262,0.0048985,-0.0238672,0.0314427,-0.0165616,-0.732344,0.0281557,0.0449722,1266,463,6.08255,47.8915
49,561,6.29724,-48.3962,0.00645123,-0.00725708,-0.020307,0.0210296,-0.0218354,-0.622638,0.0247496,0.0473824,1273,463,6.29721,48.3962
56,561,6.56604,-48.7917,-0.000610337,-0.0128871,-0.0128956,0.00753334,-0.0210307,-0.563265,0.0170942,0.0433769,1280,463,6.56608,48.7917
63,561,6.83899,-49.4412,-0.0097609,-0.0209223,-0.00445648,-0.00819987,-0.0224833,-0.336929,0.0131382,0.0443121,1287,463,6.83901,49.4412
70,561,6.94299,-50.3655,0,0,0,0,0,0,0,-1,1294,463,6.94293,50.3655
77,561,5.52014,-47.8986,0,0,0,0,0,0,0,-1,1301,463,5.52017,47.8986
84,561,4.83801,-47.3351,-0.0386826,-0.0474652,0.0138857,-0.0285104,-0.0576374,0.632251,0.0332776,0.0453583,1308,463,4.83807,47.335
91,561,4.13879,-46.7193,-0.0465975,-0.0541076,0.0171809,-0.032766,-0.067939,0.67781,0.0392328,0.045266,1315,463,4.13879,46.7193
98,561,3.48804,-46.1695,-0.0540375,-0.0581028,0.017978,-0.0379777,-0.0741627,0.729105,0.042822,0.0489061,1322,463,3.48806,46.1695
105,561,2.86353,-45.6031,0,0,0,0,0,0,0,-1,1329,463,2.8635,45.6031
112,561,2.57336,-46.4351,-0.0657407,-0.0603112,0.0128946,-0.0498487,-0.0762032,0.889149,0.0446875,0.0490865,1336,463,2.57331,46.4351
119,561,2.09827,-46.0375,-0.0690742,-0.0579075,0.00734856,-0.0542618,-0.0727199,1.11027,0.0436482,0.044666,1343,463,2.09826,46.0375
126,561,1.19983,-46.2285,0,0,0,0,0,0,0,-1,1350,463,1.19989,46.2285
133,561,0.788208,-46.6404,0,0,0,0,0,0,0,-1,1357,463,0.78819,46.6404
140,561,1.71094,-46.4248,0,0,0,0,0,0,0,-1,1364,463,1.71095,46.4249
147,561,1.37109,-46.3724,0,0,0,0,0,0,0,-1,1371,463,1.3711,46.3724
154,561,1.26648,-46.6709,0,0,0,0,0,0,0,-1,1378,463,1.26643,46.6709
161,561,-0.481323,-46.843,0,0,0,0,0,0,0,-1,1385,463,-0.481316,46.8431
168,561,11.7057,-58.3809,0,0,0,0,0,0,0,-1,1392,463,11.7057,58.3809
175,561,10.4185,0.276398,0,0,0,0,0,0,0,-1,1399,463,10.4185,-0.276394
182,561,6.45703,-4.02127,0,0,0,0,0,0,0,-1,1406,463,6.45704,4.02127
189,561,6.50854,-2.08685,0,0,0,0,0,0,0,-1,1413,463,6.50851,2.08686
196,561,6.44775,-0.27182,0,0,0,0,0,0,0,-1,1420,463,6.44773,0.271814
203,561,6.18591,1.1301,0,0,0,0,0,0,0,-1,1427,463,6.18592,-1.13009
210,561,5.68713,2.68427,0,0,0,0,0,0,0,-1,1434,463,5.6871,-2.68425
217,561,3.61743,-7.33582,0,0,0,0,0,0,0,-1,1441,463,3.61738,7.33581
224,561,4.27466,-8.59171,0,0,0,0,0,0,0,-1,1448,463,4.27466,8.59171
231,561,4.93188,-9.8476,0,0,0,0,0,0,0,-1,1455,463,4.93193,9.84761
238,561,2.18018,-5.18359,0,0,0,0,0,0,0,-1,1462,463,2.18023,5.18359
245,561,3.07568,-3.50238,0,0,0,0,0,0,0,-1,1469,463,3.0757,3.50238
252,561,3.47412,-3.71109,0,0,0,0,0,0,0,-1,1476,463,3.47413,3.71109
259,561,3.42212,-3.2334,0,0,0,0,0,0,0,-1,1483,463,3.42214,3.2334
266,561,4.44373,-5.90027,0,0,0,0,0,0,0,-1,1490,463,4.44372,5.90026
273,561,2.59485,-3.65268,0,0,0,0,0,0,0,-1,1497,463,2.5948,3.65268
280,561,3.10767,-6.38235,0,0,0,0,0,0,0,-1,1504,463,3.10766,6.38235
287,561,4.91809,-14.429,0,0,0,0,0,0,0,-1,1511,463,4.9181,14.429
294,561,10.657,-38.9834,0,0,0,0,0,0,0,-1,1518,463,10.657,38.9834
301,561,10.7751,-38.4861,0,0,0,0,0,0,0,-1,1525,463,10.7752,38.4861
308,561,10.765,-38.0033,0.00444043,-0.00665728,-0.00365907,0.00553828,-0.00775512,-0.291487,0.00771044,0.031915,1532,463,10.765,38.0033
315,561,10.7646,-37.5257,0.00391162,-0.00630069,-0.00354284,0.00502033,-0.0074094,-0.303289,0.00722036,0.0175474,1539,463,10.7647,37.5257
322,561,10.7485,-37.0392,0.0034087,-0.00563846,-0.00319496,0.00442322,-0.00665299,-0.307468,0.0064379,0.0152218,1546,463,10.7485,37.0392
329,561,10.7864,-36.502,0.00296632,-0.00491809,-0.00285457,0.00389131,-0.00584308,-0.313361,0.00565768,0.0119909,1553,463,10.7863,36.502
336,561,10.8177,-35.918,0.00253572,-0.00408142,-0.00249383,0.00337031,-0.00491601,-0.322949,0.00481178,0.0116795,1560,463,10.8178,35.918
343,561,10.8162,-35.3537,0.00204174,-0.00324993,-0.00212192,0.00278751,-0.0039957,-0.337974,0.00393694,0.0106835,1567,463,10.8162,35.3537
350,561,10.8002,-34.7806,0.00159309,-0.00243125,-0.00169911,0.00221451,-0.00305267,-0.350621,0.00305381,0.0102945,1574,463,10.8002,34.7806
357,561,10.7872,-34.1862,0.00127179,-0.00150884,-0.00117589,0.00170238,-0.00193943,-0.351018,0.00210408,0.0107196,1581,463,10.7873,34.1862
364,561,10.7825,-33.6108,0.0010234,-0.000524254,-0.000626331,0.00124512,-0.000745966,-0.340221,0.00116153,0.0101704,1588,463,10.7825,33.6108
371,561,10.7371,-33.0098,0.000814696,0.000446943,-5.31052e-05,0.000822211,0.000439428,-0.140579,0.000475079,0.0165393,1595,463,10.7371,33.0098
378,561,10.7141,-32.3952,0.000581556,0.00142676,0.000450236,0.00162165,0.000386658,1.16227,0.000978034,0.0117492,1602,463,10.7141,32.3952
385,561,10.6958,-31.7784,0.000517926,0.00231137,0.000880306,0.00267125,0.000158045,1.18272,0.00173056,0.0110913,1609,463,10.6958,31.7783
392,561,10.6687,-31.1668,0.000746415,0.00304091,0.00126106,0.00359849,0.000188831,1.15449,0.00233859,0.0147296,1616,463,10.6687,31.1668
399,561,10.6405,-30.5713,0.00102243,0.00365036,0.00160558,0.0044111,0.000261693,1.12832,0.0028575,0.0200187,1623,463,10.6405,30.5713
406,561,10.6359,-29.9392,0.00129501,0.00430452,0.00184825,0.00518311,0.00041643,1.12705,0.0033253,0.0196654,1630,463,10.6359,29.9392
413,561,10.5962,-29.2428,0.00153609,0.0048226,0.00193719,0.00571961,0.000639073,1.13714,0.00361891,0.0182056,1637,463,10.5961,29.2428
420,561,10.5613,-28.6145,0.0014908,0.00527398,0.0020658,0.0061834,0.000581385,1.1561,0.00394278,0.0148482,1644,463,10.5612,28.6145
427,561,10.5391,-27.9461,0.0013307,0.00538796,0.00212804,0.00629938,0.000419277,1.16614,0.00406704,0.0114106,1651,463,10.5391,27.9461
434,561,10.5129,-27.2424,0.0012034,0.00564714,0.00223567,0.00657724,0.000273304,1.17655,0.00429663,0.0125756,1658,463,10.513,27.2424
441,561,10.4965,-26.5917,0.000746149,0.00586936,0.00235444,0.00678701,-0.000171502,1.19915,0.00458291,0.0166623,1665,463,10.4965,26.5917
448,561,10.4829,-25.8743,-0.000163589,0.00600621,0.00252134,0.0069055,-0.00106288,1.22819,0.00499579,0.026019,1672,463,10.4829,25.8743
455,561,10.5015,-25.1097,-0.001555,0.00595497,0.00270983,0.00683065,-0.00243069,1.25824,0.00554454,0.0467736,1679,463,10.5014,25.1098
462,561,10.2772,-24.5335,-0.00333896,0.00618946,0.00339469,0.00727518,-0.00442468,1.26125,0.00682141,0.0459188,1686,463,10.2772,24.5335
469,561,10.1973,-23.9835,-0.00547628,0.00684187,0.00456755,0.0083507,-0.00698511,1.25175,0.00886582,0.0273421,1693,463,10.1973,23.9835
476,561,10.0525,-23.1393,-0.00800458,0.00737316,0.0060239,0.00945189,-0.0100833,1.23851,0.0112806,0.040621,1700,463,10.0525,23.1393
483,561,9.87891,-22.0763,0,0,0,0,0,0,0,-1,1707,463,9.87887,22.0763
490,561,9.92883,-21.0071,0,0,0,0,0,0,0,-1,1714,463,9.92878,21.0071
497,561,5.98865,-17.2072,0,0,0,0,0,0,0,-1,1721,463,5.98864,17.2072
504,561,10.0769,-0.811401,0,0,0,0,0,0,0,-1,1728,463,10.0769,0.8114
511,561,0,0,0,0,0,0,0,0,0,-1,1735,463,0,0
518,561,0,0,0,0,0,0,0,0,0,-1,1742,463,0,0
525,561,0,0,0,0,0,0,0,0,0,-1,1749,463,0,0
532,561,0,0,0,0,0,0,0,0,0,-1,1756,463,0,0
539,561,0,0,0,0,0,0,0,0,0,-1,1763,463,0,0
546,561,0,0,0,0,0,0,0,0,0,-1,1770,463,0,0
553,561,0,0,0,0,0,0,0,0,0,-1,1777,463,0,0
560,561,0,0,0,0,0,0,0,0,0,-1,1784,463,0,0
567,561,0,0,0,0,0,0,0,0,0,-1,1791,463,0,0
574,561,0,0,0,0,0,0,0,0,0,-1,1798,463,0,0
581,561,0,0,0,0,0,0,0,0,0,-1,1805,463,0,0
588,561,0,0,0,0,0,0,0,0,0,-1,1812,463,0,0
595,561,0,0,0,0,0,0,0,0,0,-1,1819,463,0,0
602,561,0,0,0,0,0,0,0,0,0,-1,1826,463,0,0
609,561,0,0,0,0,0,0,0,0,0,-1,1833,463,0,0
616,561,0,0,0,0,0,0,0,0,0,-1,1840,463,0,0
623,561,0,0,0,0,0,0,0,0,0,-1,1847,463,0,0
630,561,0,0,0,0,0,0,0,0,0,-1,1854,463,0,0
637,561,0,0,0,0,0,0,0,0,0,-1,1861,463,0,0
644,561,0,0,0,0,0,0,0,0,0,-1,1868,463,0,0
651,561,0,0,0,0,0,0,0,0,0,-1,1875,463,0,0
658,561,0,0,0,0,0,0,0,0,0,-1,1882,463,0,0
665,561,0,0,0,0,0,0,0,0,0,-1,1889,463,0,0
672,561,0,0,0,0,0,0,0,0,0,-1,1896,463,0,0
679,561,0,0,0,0,0,0,0,0,0,-1,1903,463,0,0
686,561,0,0,0,0,0,0,0,0,0,-1,1910,463,0,0
693,561,0,0,0,0,0,0,0,0,0,-1,1917,463,0,0
700,561,0,0,0,0,0,0,0,0,0,-1,1924,463,0,0
707,561,0,0,0,0,0,0,0,0,0,-1,1931,463,0,0
714,561,0,0,0,0,0,0,0,0,0,-1,1938,463,0,0
721,561,0,0,0,0,0,0,0,0,0,-1,1945,463,0,0
728,561,0,0,0,0,0,0,0,0,0,-1,1952,463,0,0
735,561,0,0,0,0,0,0,0,0,0,-1,1959,463,0,0
742,561,0,0,0,0,0,0,0,0,0,-1,1966,463,0,0
749,561,0,0,0,0,0,0,0,0,0,-1,1973,463,0,0
756,561,0,0,0,0,0,0,0,0,0,-1,1980,463,0,0
763,561,0,0,0,0,0,0,0,0,0,-1,1987,463,0,0
770,561,0,0,0,0,0,0,0,0,0,-1,1994,463,0,0
777,561,0,0,0,0,0,0,0,0,0,-1,2001,463,0,0
784,561,0,0,0,0,0,0,0,0,0,-1,2008,463,0,0
791,561,0,0,0,0,0,0,0,0,0,-1,2015,463,0,0
798,561,0,0,0,0,0,0,0,0,0,-1,2022,463,0,0
805,561,0,0,0,0,0,0,0,0,0,-1,2029,463,0,0
812,561,0,0,0,0,0,0,0,0,0,-1,2036,463,0,0
-700,554,0,0,0,0,0,0,0,0,0,-1,524,470,0,0
-693,554,0,0,0,0,0,0,0,0,0,-1,531,470,0,0
-686,554,0,0,0,0,0,0,0,0,0,-1,538,470,0,0
-679,554,0,0,0,0,0,0,0,0,0,-1,545,470,0,0
-672,554,0,0,0,0,0,0,0,0,0,-1,552,470,0,0
-665,554,0,0,0,0,0,0,0,0,0,-1,559,470,0,0
-658,554,0,0,0,0,0,0,0,0,0,-1,566,470,0,0
-651,554,0,0,0,0,0,0,0,0,0,-1,573,470,0,0
-644,554,0,0,0,0,0,0,0,0,0,-1,580,470,0,0
-637,554,0,0,0,0,0,0,0,0,0,-1,587,470,0,0
-630,554,0,0,0,0,0,0,0,0,0,-1,594,470,0,0
-623,554,0,0,0,0,0,0,0,0,0,-1,601,470,0,0
-616,554,0,0,0,0,0,0,0,0,0,-1,608,470,0,0
-609,554,0,0,0,0,0,0,0,0,0,-1,615,470,0,0
-602,554,0,0,0,0,0,0,0,0,0,-1,622,470,0,0
-595,554,0,0,0,0,0,0,0,0,0,-1,629,470,0,0
-588,554,0,0,0,0,0,0,0,0,0,-1,636,470,0,0
-581,554,0,0,0,0,0,0,0,0,0,-1,643,470,0,0
-574,554,0,0,0,0,0,0,0,0,0,-1,650,470,0,0
-567,554,0,0,0,0,0,0,0,0,0,-1,657,470,0,0
-560,554,0,0,0,0,0,0,0,0,0,-1,664,470,0,0
-553,554,0,0,0,0,0,0,0,0,0,-1,671,470,0,0
-546,554,0,0,0,0,0,0,0,0,0,-1,678,470,0,0
-539,554,0,0,0,0,0,0,0,0,0,-1,685,470,0,0
-532,554,0,0,0,0,0,0,0,0,0,-1,692,470,0,0
-525,554,0,0,0,0,0,0,0,0,0,-1,699,470,0,0
-518,554,0,0,0,0,0,0,0,0,0,-1,706,470,0,0
-511,554,0,0,0,0,0,0,0,0,0,-1,713,470,0,0
-504,554,0,0,0,0,0,0,0,0,0,-1,720,470,0,0
-497,554,0,0,0,0,0,0,0,0,0,-1,727,470,0,0
-490,554,0,0,0,0,0,0,0,0,0,-1,734,470,0,0
-483,554,0,0,0,0,0,0,0,0,0,-1,741,470,0,0
-476,554,0,0,0,0,0,0,0,0,0,-1,748,470,0,0
-469,554,0,0,0,0,0,0,0,0,0,-1,755,470,0,0
-462,554,0,0,0,0,0,0,0,0,0,-1,762,470,0,0
-455,554,0,0,0,0,0,0,0,0,0,-1,769,470,0,0
-448,554,0,0,0,0,0,0,0,0,0,-1,776,470,0,0
-441,554,0,0,0,0,0,0,0,0,0,-1,783,470,0,0
-434,554,0,0,0,0,0,0,0,0,0,-1,790,470,0,0
-427,554,0,0,0,0,0,0,0,0,0,-1,797,470,0,0
-420,554,0,0,0,0,0,0,0,0,0,-1,804,470,0,0
-413,554,0,0,0,0,0,0,0,0,0,-1,811,470,0,0
-406,554,0,0,0,0,0,0,0,0,0,-1,818,470,0,0
-399,554,-1.32275,-3.95142,0,0,0,0,0,0,0,-1,825,470,-1.32275,3.95141
-392,554,-1.35632,-3.7406,0,0,0,0,0,0,0,-1,832,470,-1.35632,3.7406
-385,554,-0.849243,-4.14447,0,0,0,0,0,0,0,-1,839,470,-0.849262,4.14446
-378,554,-0.982666,-4.55084,0,0,0,0,0,0,0,-1,846,470,-0.982671,4.55084
-371,554,-1.74542,-4.63467,0,0,0,0,0,0,0,-1,853,470,-1.74541,4.63468
-364,554,1.04883,-7.68756,0,0,0,0,0,0,0,-1,860,470,1.0488,7.68757
-357,554,1.27698,-22.5379,0,0,0,0,0,0,0,-1,867,470,1.27701,22.5379
-350,554,1.17157,-18.1341,0,0,0,0,0,0,0,-1,874,470,1.17156,18.1341
-343,554,1.57965,-24.9794,0,0,0,0,0,0,0,-1,881,470,1.57964,24.9794
-336,554,1.44025,-25.5103,0.00667849,0.0266162,-0.0091516,0.0301798,0.0031148,-1.19945,0.0191662,0.042656,888,470,1.44023,25.5103
-329,554,1.25623,-26.2008,0.00560583,0.0224398,-0.00766495,0.0254069,0.00263873,-1.20146,0.0161304,0.0233795,895,470,1.25622,26.2009
-322,554,1.17065,-26.8664,0.00459377,0.0186266,-0.00639581,0.0211042,0.00211617,-1.20122,0.0134198,0.0151114,902,470,1.17064,26.8664
-315,554,1.14972,-27.5063,0.0038315,0.0156153,-0.00551241,0.0177919,0.00165487,-1.19473,0.0113499,0.0143329,909,470,1.14969,27.5063
-308,554,1.12549,-28.1587,0.00316616,0.0130273,-0.00481556,0.0149888,0.0012047,-1.184,0.00961615,0.0153305,916,470,1.12549,28.1587
-301,554,1.1145,-28.8197,0.00268475,0.0104556,-0.00422073,0.012307,0.000833352,-1.15743,0.00794144,0.0145381,923,470,1.11451,28.8197
-294,554,1.05219,-29.4582,0.00229679,0.00830588,-0.00356879,0.00996648,0.000636193,-1.13528,0.00644273,0.0117241,930,470,1.05218,29.4582
-287,554,1.01556,-30.0767,0.00194358,0.00656406,-0.00291717,0.00797498,0.000532658,-1.1203,0.0051483,0.0120119,937,470,1.01559,30.0767
-280,554,0.991211,-30.68,0.00170085,0.00497406,-0.0023798,0.00622569,0.000449221,-1.08661,0.00400912,0.0124277,944,470,0.991237,30.68
-273,554,0.950134,-31.2921,0.00154366,0.0032878,-0.00173545,0.00435797,0.000473497,-1.01822,0.00276105,0.0151125,951,470,0.950118,31.292
-266,554,0.928833,-31.9045,0.00158324,0.0014616,-0.00104838,0.00257256,0.000472274,-0.756425,0.0015813,0.0126939,958,470,0.928811,31.9045
-259,554,0.903564,-32.4655,0.00179672,-0.000517486,-0.000303102,0.00183576,-0.000556526,-0.128097,0.00144551,0.0132887,965,470,0.903561,32.4655
-252,554,0.865173,-33.0417,0.0017495,-0.00262209,0.000659767,0.0018469,-0.00271949,0.146574,0.0026524,0.016084,972,470,0.865145,33.0417
-245,554,0.845032,-33.6278,0.00180256,-0.00498884,0.00165261,0.00218335,-0.00536964,0.226466,0.0044882,0.0169549,979,470,0.845016,33.6278
-238,554,0.879456,-34.243,0.00212095,-0.00745337,0.00260187,0.00278234,-0.00811476,0.248924,0.00653771,0.0122771,986,470,0.879467,34.243
-231,554,0.870056,-34.8416,0.00245951,-0.010328,0.00356518,0.00338632,-0.0112548,0.25433,0.00885064,0.0104548,993,470,0.870032,34.8416
-224,554,0.87262,-35.3902,0.00264625,-0.0132567,0.00458401,0.00387296,-0.0144834,0.26148,0.0111726,0.010045,1000,470,0.872635,35.3902
-217,554,0.878967,-35.9139,0.00278837,-0.016178,0.00560924,0.0043231,-0.0177127,0.267071,0.0134825,0.0103744,1007,470,0.878939,35.9139
-210,554,0.882751,-36.4402,0.00293286,-0.0187988,0.00649185,0.00472445,-0.0205904,0.269274,0.0155429,0.0146176,1014,470,0.882765,36.4402
-203,554,0.854309,-36.9169,0.00314524,-0.0211668,0.0073063,0.00517198,-0.0231936,0.270593,0.0174439,0.0235309,1021,470,0.85429,36.9169
-196,554,0.816772,-37.3413,0.00343238,-0.0232324,0.00803226,0.00566501,-0.025465,0.271114,0.0191464,0.0307137,1028,470,0.816762,37.3413
-189,554,0.930298,-37.702,0.00368988,-0.0249513,0.00877201,0.00616297,-0.0274244,0.274797,0.0206462,0.0372295,1035,470,0.930301,37.702
-182,554,1.13989,-37.9996,0.00400504,-0.0260819,0.00938575,0.00669286,-0.0287697,0.278907,0.0217566,0.0493419,1042,470,1.13992,37.9996
-175,554,0.911011,-38.6457,0,0,0,0,0,0,0,-1,1049,470,0.911045,38.6457
-168,554,0.894043,-39.2544,0,0,0,0,0,0,0,-1,1056,470,0.894002,39.2544
-161,554,0.857178,-39.6744,0,0,0,0,0,0,0,-1,1063,470,0.857219,39.6744
-154,554,0.849609,-39.1918,0,0,0,0,0,0,0,-1,1070,470,0.849629,39.1918
-147,554,1.34558,-35.0622,0,0,0,0,0,0,0,-1,1077,470,1.3456,35.0622
-140,554,0.428101,-38.9893,0,0,0,0,0,0,0,-1,1084,470,0.428152,38.9893
-133,554,2.67163,-32.8187,0,0,0,0,0,0,0,-1,1091,470,2.67161,32.8187
-126,554,0.851929,-33.5393,0,0,0,0,0,0,0,-1,1098,470,0.851942,33.5393
-119,554,-1.03479,-32.1628,0,0,0,0,0,0,0,-1,1105,470,-1.03476,32.1628
-112,554,1.03162,-24.5784,0,0,0,0,0,0,0,-1,1112,470,1.03156,24.5784
-105,554,0.608765,-21.0475,0,0,0,0,0,0,0,-1,1119,470,0.608728,21.0475
-98,554,1.51929,-7.3624,0,0,0,0,0,0,0,-1,1126,470,1.51928,7.36241
-91,554,1.41089,-6.5864,0,0,0,0,0,0,0,-1,1133,470,1.41093,6.58638
-84,554,1.62305,-5.87186,0,0,0,0,0,0,0,-1,1140,470,1.62299,5.87186
-77,554,-2.56958,1.33258,0,0,0,0,0,0,0,-1,1147,470,-2.56959,-1.33257
-70,554,-3.68164,-1.18332,0,0,0,0,0,0,0,-1,1154,470,-3.68158,1.18331
-63,554,-4.86853,-3.88708,0,0,0,0,0,0,0,-1,1161,470,-4.86853,3.88708
-56,554,-5.69958,-6.45422,0,0,0,0,0,0,0,-1,1168,470,-5.69955,6.45422
-49,554,-6.23645,-8.8569,0,0,0,0,0,0,0,-1,1175,470,-6.23643,8.85689
-42,554,-6.62524,-11.5382,0,0,0,0,0,0,0,-1,1182,470,-6.62522,11.5382
-35,554,-2.40173,-4.59482,0,0,0,0,0,0,0,-1,1189,470,-2.40169,4.59481
-28,554,-0.760132,-1.65555,0,0,0,0,0,0,0,-1,1196,470,-0.760095,1.65556
-21,554,1.69373,-43.5319,0,0,0,0,0,0,0,-1,1203,470,1.69367,43.5319
-14,554,7.32019,-49.3672,0,0,0,0,0,0,0,-1,1210,470,7.32016,49.3673
-7,554,6.86548,-48.8275,-0.0892825,0.12275,0.0372749,0.129112,-0.0956445,1.40175,0.130242,0.0451202,1217,470,6.86546,48.8275
0,554,6.34497,-47.9337,-0.0635906,0.0996822,0.0176083,0.10156,-0.065468,1.46458,0.0971809,0.0494107,1224,470,6.34499,47.9337
7,554,5.82874,-47.2179,0,0,0,0,0,0,0,-1,1231,470,5.82879,47.2179
14,554,6.16052,-46.6571,0,0,0,0,0,0,0,-1,1238,470,6.16052,46.6571
21,554,6.15857,-46.9439,-0.0115999,0.043517,-0.0194427,0.0496852,-0.0177681,-1.26359,0.0403713,0.0456554,1245,470,6.15858,46.9439
28,554,5.80896,-47.5496,-0.00230495,0.0284112,-0.0248637,0.0422776,-0.0161714,-1.06206,0.0348495,0.0449406,1252,470,5.80902,47.5496
35,554,6.23315,-47.5579,0.00233201,0.0155629,-0.0258301,0.0356112,-0.0177163,-0.91076,0.0313612,0.0398772,1259,470,6.23311,47.5579
42,554,6.42529,-47.6398,0.00585637,0.00449356,-0.0272447,0.0324282,-0.0220783,-0.772895,0.0316579,0.0458285,1266,470,6.42534,47.6399
49,554,6.37573,-48.0945,0.00619511,-0.00921131,-0.0258324,0.0254484,-0.0284646,-0.640496,0.0311429,0.0484173,1273,470,6.37568,48.0945
56,554,6.71545,-48.7698,0.00280247,-0.0144786,-0.0186183,0.0146875,-0.0263637,-0.568144,0.0240183,0.0445903,1280,470,6.71543,48.7698
63,554,6.97424,-49.1526,-0.00395718,-0.0231537,-0.00930741,-0.000185522,-0.0269253,-0.385008,0.0178887,0.0463048,1287,470,6.97421,49.1526
70,554,7.21985,-49.5723,0,0,0,0,0,0,0,-1,1294,470,7.21988,49.5723
77,554,5.2218,-47.6669,0,0,0,0,0,0,0,-1,1301,470,5.2218,47.6669
84,554,4.53064,-47.1012,-0.0277001,-0.0543749,0.0134285,-0.022111,-0.059964,0.394401,0.0350156,0.0446331,1308,470,4.5306,47.1012
91,554,4.26514,-46.5573,-0.0364434,-0.0634766,0.0189316,-0.0266984,-0.0732216,0.475377,0.0427879,0.0423363,1315,470,4.2652,46.5573
98,554,3.70801,-46.0168,-0.0452044,-0.0675501,0.0205191,-0.0330135,-0.079741,0.536089,0.0462649,0.0464575,1322,470,3.70806,46.0168
105,554,3.15979,-45.5038,-0.0536348,-0.0695846,0.0190274,-0.0409786,-0.0822408,0.586956,0.0474818,0.0489295,1329,470,3.15982,45.5038
112,554,2.42725,-44.8704,-0.0612816,-0.0700885,0.0152193,-0.0498415,-0.0815286,0.644577,0.0474579,0.0451417,1336,470,2.42719,44.8704
119,554,1.33875,-44.3491,-0.0671751,-0.067351,0.00883197,-0.0584306,-0.0760954,0.780419,0.0459872,0.0415432,1343,470,1.33869,44.3491
126,554,0.313721,-43.8466,0,0,0,0,0,0,0,-1,1350,470,0.313718,43.8466
133,554,5.14075,-37.5568,0,0,0,0,0,0,0,-1,1357,470,5.1408,37.5568
140,554,2.59814,-46.0896,0,0,0,0,0,0,0,-1,1364,470,2.5981,46.0896
147,554,1.5426,-46.159,-0.0851605,-0.0266058,-0.0259023,-0.0167923,-0.094974,-1.20864,0.0585272,0.0451844,1371,470,1.54256,46.159
154,554,0.496216,-46.3195,-0.0906383,-0.0150004,-0.0324972,-0.00295608,-0.102683,-1.21587,0.0674912,0.0442408,1378,470,0.496188,46.3195
161,554,-0.181519,-46.6023,-0.0960747,-0.00541898,-0.037329,0.00797344,-0.109467,-1.22633,0.0757759,0.0457205,1385,470,-0.181526,46.6023
168,554,-0.723389,-46.7554,0,0,0,0,0,0,0,-1,1392,470,-0.723399,46.7555
175,554,10.663,0.286957,0,0,0,0,0,0,0,-1,1399,470,10.663,-0.286966
182,554,6.71106,-4.50217,0,0,0,0,0,0,0,-1,1406,470,6.71107,4.50215
189,554,6.90479,-2.50348,0,0,0,0,0,0,0,-1,1413,470,6.90477,2.50348
196,554,6.96216,-0.740906,0,0,0,0,0,0,0,-1,1420,470,6.96214,0.740912
203,554,6.43518,0.414154,0,0,0,0,0,0,0,-1,1427,470,6.43523,-0.414141
210,554,6.21167,1.96707,0,0,0,0,0,0,0,-1,1434,470,6.21165,-1.96706
217,554,5.64551,3.4989,0,0,0,0,0,0,0,-1,1441,470,5.64555,-3.49891
224,554,4.85144,-8.85172,0,0,0,0,0,0,0,-1,1448,470,4.85146,8.85173
231,554,3.25073,-5.29642,0,0,0,0,0,0,0,-1,1455,470,3.25078,5.29642
238,554,4.28625,-3.25253,0,0,0,0,0,0,0,-1,1462,470,4.28622,3.25252
245,554,4.0752,-2.90033,0,0,0,0,0,0,0,-1,1469,470,4.07515,2.90032
252,554,3.52112,-0.934998,0,0,0,0,0,0,0,-1,1476,470,3.52113,0.934996
259,554,3.96448,-2.16425,0,0,0,0,0,0,0,-1,1483,470,3.96446,2.16424
266,554,3.0592,-2.71716,0,0,0,0,0,0,0,-1,1490,470,3.05923,2.71718
273,554,2.58521,-3.06876,0,0,0,0,0,0,0,-1,1497,470,2.58524,3.06874
280,554,2.83301,-0.991699,0,0,0,0,0,0,0,-1,1504,470,2.83303,0.991704
287,554,3.54126,-4.12277,0,0,0,0,0,0,0,-1,1511,470,3.54123,4.12277
294,554,3.62036,-8.50146,0,0,0,0,0,0,0,-1,1518,470,3.62031,8.50145
301,554,9.31323,-32.2134,0,0,0,0,0,0,0,-1,1525,470,9.31327,32.2134
308,554,11.2798,-37.8465,0,0,0,0,0,0,0,-1,1532,470,11.2798,37.8465
315,554,11.3107,-37.4063,0,0,0,0,0,0,0,-1,1539,470,11.3107,37.4063
322,554,11.2935,-36.8617,0.00368191,-0.00785495,-0.00462036,0.00530418,-0.00947722,-0.337667,0.00864667,0.0427476,1546,470,11.2934,36.8617
329,554,11.3752,-36.3282,0.00329012,-0.00695259,-0.00419949,0.00479175,-0.00845422,-0.343407,0.0077444,0.0269542,1553,470,11.3752,36.3282
336,554,11.375,-35.8504,0.00288191,-0.00599126,-0.00378807,0.00427908,-0.00738844,-0.353355,0.00681551,0.016813,1560,470,11.375,35.8504
343,554,11.366,-35.3349,0.00235201,-0.00506985,-0.0033681,0.00365258,-0.00637041,-0.368503,0.00585726,0.011508,1567,470,11.366,35.3349
350,554,11.3759,-34.7471,0.0018647,-0.00432501,-0.00294384,0.00304118,-0.00550148,-0.380197,0.00499983,0.00959175,1574,470,11.3758,34.7471
357,554,11.3846,-34.1572,0.00153799,-0.0034097,-0.00240146,0.00251189,-0.00438359,-0.385275,0.0040297,0.011223,1581,470,11.3846,34.1572
364,554,11.3782,-33.5948,0.00129388,-0.00241515,-0.00182977,0.0020446,-0.00316587,-0.389341,0.0030314,0.00985341,1588,470,11.3782,33.5948
371,554,11.3478,-33.0007,0.00108478,-0.00144653,-0.0012319,0.00158533,-0.00194707,-0.385942,0.00204299,0.00927084,1595,470,11.3478,33.0007
378,554,11.317,-32.3795,0.000825706,-0.000378417,-0.000660479,0.00111735,-0.000670062,-0.415818,0.00104268,0.0100272,1602,470,11.317,32.3795
385,554,11.3182,-31.7697,0.000682714,0.000585645,-0.000121047,0.000764594,0.000503765,-0.594734,0.000448804,0.00961678,1609,470,11.3182,31.7697
392,554,11.3076,-31.1366,0.000755713,0.00134456,0.000385758,0.00153541,0.000564858,1.11136,0.000896727,0.0130696,1616,470,11.3076,31.1366
399,554,11.2844,-30.4983,0.000911994,0.00200384,0.000793453,0.00242104,0.000494797,1.08672,0.00147698,0.0177994,1623,470,11.2844,30.4983
406,554,11.2456,-29.8709,0.00106795,0.00269479,0.00110843,0.00325625,0.000506497,1.10194,0.00202324,0.0166967,1630,470,11.2457,29.8709
413,554,11.2159,-29.2273,0.00120666,0.00332719,0.0013364,0.00397284,0.000561012,1.12074,0.00248277,0.0159444,1637,470,11.2159,29.2273
420,554,11.1919,-28.6099,0.00115465,0.0038155,0.00155476,0.00453137,0.000438783,1.1393,0.00288579,0.0176161,1644,470,11.1919,28.6099
427,554,11.1753,-27.943,0.00103827,0.00404756,0.00174009,0.00484332,0.000242515,1.14188,0.00315116,0.0122874,1651,470,11.1753,27.943
434,554,11.1378,-27.2773,0.000945019,0.00435883,0.00197429,0.00526178,4.20688e-05,1.14184,0.00349392,0.0103984,1658,470,11.1378,27.2773
441,554,11.1284,-26.6086,0.000647978,0.00466475,0.00224765,0.00567059,-0.000357862,1.15002,0.00390515,0.0122191,1665,470,11.1284,26.6086
448,554,11.1028,-25.8842,6.21326e-05,0.00488101,0.00254995,0.0059798,-0.00103665,1.16394,0.00437323,0.0199126,1672,470,11.1028,25.8842
455,554,11.0436,-25.2326,-0.000830823,0.00497239,0.00288149,0.00616008,-0.00201851,1.17984,0.00491958,0.0225247,1679,470,11.0436,25.2326
462,554,10.9569,-24.6019,-0.00195201,0.00522062,0.00368501,0.00677639,-0.00350777,1.17131,0.0060367,0.0239063,1686,470,10.9569,24.6019
469,554,10.8804,-23.9689,-0.00326233,0.00591428,0.00493022,0.00806093,-0.00540898,1.16014,0.00782693,0.0249905,1693,470,10.8804,23.9689
476,554,10.9757,-23.0334,-0.00477638,0.00654412,0.00643717,0.00945566,-0.00768792,1.14603,0.00991538,0.0417662,1700,470,10.9758,23.0334
483,554,11.0663,-22.0911,0,0,0,0,0,0,0,-1,1707,470,11.0662,22.0911
490,554,8.41553,-15.3876,0,0,0,0,0,0,0,-1,1714,470,8.41556,15.3876
497,554,11.4208,1.03592,0,0,0,0,0,0,0,-1,1721,470,11.4208,-1.03593
504,554,2.13257,-3.81628,0,0,0,0,0,0,0,-1,1728,470,2.1326,3.8163
511,554,1.31396,-4.02713,0,0,0,0,0,0,0,-1,1735,470,1.31398,4.02712
518,554,5.04236,-5.9472,0,0,0,0,0,0,0,-1,1742,470,5.04231,5.94721
525,554,0,0,0,0,0,0,0,0,0,-1,1749,470,0,0
532,554,0,0,0,0,0,0,0,0,0,-1,1756,470,0,0
539,554,0,0,0,0,0,0,0,0,0,-1,1763,470,0,0
546,554,0,0,0,0,0,0,0,0,0,-1,1770,470,0,0
553,554,0,0,0,0,0,0,0,0,0,-1,1777,470,0,0
560,554,0,0,0,0,0,0,0,0,0,-1,1784,470,0,0
567,554,0,0,0,0,0,0,0,0,0,-1,1791,470,0,0
574,554,0,0,0,0,0,0,0,0,0,-1,1798,470,0,0
581,554,0,0,0,0,0,0,0,0,0,-1,1805,470,0,0
588,554,0,0,0,0,0,0,0,0,0,-1,1812,470,0,0
595,554,0,0,0,0,0,0,0,0,0,-1,1819,470,0,0
602,554,0,0,0,0,0,0,0,0,0,-1,1826,470,0,0
609,554,0,0,0,0,0,0,0,0,0,-1,1833,470,0,0
616,554,0,0,0,0,0,0,0,0,0,-1,1840,470,0,0
623,554,0,0,0,0,0,0,0,0,0,-1,1847,470,0,0
630,554,0,0,0,0,0,0,0,0,0,-1,1854,470,0,0
637,554,0,0,0,0,0,0,0,0,0,-1,1861,470,0,0
644,554,0,0,0,0,0,0,0,0,0,-1,1868,470,0,0
651,554,0,0,0,0,0,0,0,0,0,-1,1875,470,0,0
658,554,0,0,0,0,0,0,0,0,0,-1,1882,470,0,0
665,554,0,0,0,0,0,0,0,0,0,-1,1889,470,0,0
672,554,0,0,0,0,0,0,0,0,0,-1,1896,470,0,0
679,554,0,0,0,0,0,0,0,0,0,-1,1903,470,0,0
686,554,0,0,0,0,0,0,0,0,0,-1,1910,470,0,0
693,554,0,0,0,0,0,0,0,0,0,-1,1917,470,0,0
700,554,0,0,0,0,0,0,0,0,0,-1,1924,470,0,0
707,554,0,0,0,0,0,0,0,0,0,-1,1931,470,0,0
714,554,0,0,0,0,0,0,0,0,0,-1,1938,470,0,0
721,554,0,0,0,0,0,0,0,0,0,-1,1945,470,0,0
728,554,0,0,0,0,0,0,0,0,0,-1,1952,470,0,0
735,554,0,0,0,0,0,0,0,0,0,-1,1959,470,0,0
742,554,0,0,0,0,0,0,0,0,0,-1,1966,470,0,0
749,554,0,0,0,0,0,0,0,0,0,-1,1973,470,0,0
756,554,0,0,0,0,0,0,0,0,0,-1,1980,470,0,0
763,554,0,0,0,0,0,0,0,0,0,-1,1987,470,0,0
770,554,0,0,0,0,0,0,0,0,0,-1,1994,470,0,0
777,554,0,0,0,0,0,0,0,0,0,-1,2001,470,0,0
784,554,0,0,0,0,0,0,0,0,0,-1,2008,470,0,0
791,554,0,0,0,0,0,0,0,0,0,-1,2015,470,0,0
798,554,0,0,0,0,0,0,0,0,0,-1,2022,470,0,0
805,554,0,0,0,0,0,0,0,0,0,-1,2029,470,0,0
812,554,0,0,0,0,0,0,0,0,0,-1,2036,470,0,0
-700,547,0,0,0,0,0,0,0,0,0,-1,524,477,0,0
-693,547,0,0,0,0,0,0,0,0,0,-1,531,477,0,0
-686,547,0,0,0,0,0,0,0,0,0,-1,538,477,0,0
-679,547,0,0,0,0,0,0,0,0,0,-1,545,477,0,0
-672,547,0,0,0,0,0,0,0,0,0,-1,552,477,0,0
-665,547,0,0,0,0,0,0,0,0,0,-1,559,477,0,0
-658,547,0,0,0,0,0,0,0,0,0,-1,566,477,0,0
-651,547,0,0,0,0,0,0,0,0,0,-1,573,477,0,0
-644,547,0,0,0,0,0,0,0,0,0,-1,580,477,0,0
-637,547,0,0,0,0,0,0,0,0,0,-1,587,477,0,0
-630,547,0,0,0,0,0,0,0,0,0,-1,594,477,0,0
-623,547,0,0,0,0,0,0,0,0,0,-1,601,477,0,0
-616,547,0,0,0,0,0,0,0,0,0,-1,608,477,0,0
-609,547,0,0,0,0,0,0,0,0,0,-1,615,477,0,0
-602,547,0,0,0,0,0,0,0,0,0,-1,622,477,0,0
-595,547,0,0,0,0,0,0,0,0,0,-1,629,477,0,0
-588,547,0,0,0,0,0,0,0,0,0,-1,636,477,0,0
-581,547,0,0,0,0,0,0,0,0,0,-1,643,477,0,0
-574,547,0,0,0,0,0,0,0,0,0,-1,650,477,0,0
-567,547,0,0,0,0,0,0,0,0,0,-1,657,477,0,0
-560,547,0,0,0,0,0,0,0,0,0,-1,664,477,0,0
-553,547,0,0,0,0,0,0,0,0,0,-1,671,477,0,0
-546,547,0,0,0,0,0,0,0,0,0,-1,678,477,0,0
-539,547,0,0,0,0,0,0,0,0,0,-1,685,477,0,0
-532,547,0,0,0,0,0,0,0,0,0,-1,692,477,0,0
-525,547,0,0,0,0,0,0,0,0,0,-1,699,477,0,0
-518,547,0,0,0,0,0,0,0,0,0,-1,706,477,0,0
-511,547,0,0,0,0,0,0,0,0,0,-1,713,477,0,0
-504,547,0,0,0,0,0,0,0,0,0,-1,720,477,0,0
-497,547,0,0,0,0,0,0,0,0,0,-1,727,477,0,0
-490,547,0,0,0,0,0,0,0,0,0,-1,734,477,0,0
-483,547,0,0,0,0,0,0,0,0,0,-1,741,477,0,0
-476,547,0,0,0,0,0,0,0,0,0,-1,748,477,0,0
-469,547,0,0,0,0,0,0,0,0,0,-1,755,477,0,0
-462,547,0,0,0,0,0,0,0,0,0,-1,762,477,0,0
-455,547,0,0,0,0,0,0,0,0,0,-1,769,477,0,0
-448,547,0,0,0,0,0,0,0,0,0,-1,776,477,0,0
-441,547,0,0,0,0,0,0,0,0,0,-1,783,477,0,0
-434,547,0,0,0,0,0,0,0,0,0,-1,790,477,0,0
-427,547,0,0,0,0,0,0,0,0,0,-1,797,477,0,0
-420,547,0,0,0,0,0,0,0,0,0,-1,804,477,0,0
-413,547,0,0,0,0,0,0,0,0,0,-1,811,477,0,0
-406,547,0.144592,-11.0292,0,0,0,0,0,0,0,-1,818,477,0.144583,11.0292
-399,547,0.775513,-10.0294,0,0,0,0,0,0,0,-1,825,477,0.775482,10.0295
-392,547,-1.52271,-4.41675,0,0,0,0,0,0,0,-1,832,477,-1.52273,4.41674
-385,547,-1.73743,-4.6431,0,0,0,0,0,0,0,-1,839,477,-1.73743,4.64308
-378,547,-2.41339,-4.60071,0,0,0,0,0,0,0,-1,846,477,-2.41337,4.60071
-371,547,1.64569,-11.1445,0,0,0,0,0,0,0,-1,853,477,1.64569,11.1445
-364,547,0.820679,-21.7277,0,0,0,0,0,0,0,-1,860,477,0.820701,21.7277
-357,547,0.71521,-22.7256,0,0,0,0,0,0,0,-1,867,477,0.715188,22.7256
-350,547,0.682373,-23.8253,0,0,0,0,0,0,0,-1,874,477,0.682374,23.8253
-343,547,0.645081,-24.6493,0.00621015,0.024615,-0.00995167,0.0289669,0.00185822,-1.15855,0.0187226,0.0488729,881,477,0.645085,24.6493
-336,547,0.704895,-25.5039,0.00495606,0.0208785,-0.00798232,0.0241911,0.00164348,-1.17744,0.0156084,0.0187937,888,477,0.704879,25.5039
-329,547,0.607422,-26.1882,0.00403395,0.0174279,-0.00645093,0.0200295,0.00143233,-1.18745,0.0129021,0.0118072,895,477,0.607394,26.1882
-322,547,0.56665,-26.8599,0.00319079,0.0142342,-0.00512231,0.0162442,0.00118073,-1.19685,0.0104581,0.0113799,902,477,0.566681,26.8599
-315,547,0.512268,-27.538,0.00260037,0.0116371,-0.00414632,0.0132512,0.000986225,-1.19955,0.00852444,0.0100509,909,477,0.512287,27.538
-308,547,0.510071,-28.1602,0.00213846,0.00941985,-0.0034001,0.0107607,0.000797653,-1.19518,0.00692322,0.0122654,916,477,0.510072,28.1602
-301,547,0.489502,-28.7986,0.00184653,0.00722996,-0.00279336,0.00841744,0.00065905,-1.16883,0.00540535,0.0123579,923,477,0.489475,28.7986
-294,547,0.426697,-29.4456,0.00170136,0.00540983,-0.00216995,0.00640987,0.000701321,-1.13895,0.00405971,0.0100087,930,477,0.426711,29.4456
-287,547,0.389709,-30.0481,0.00158865,0.0038864,-0.00156251,0.00467695,0.000798108,-1.1024,0.00288892,0.0118758,937,477,0.389682,30.0481
-280,547,0.393555,-30.6501,0.0014881,0.0023629,-0.00103914,0.00305294,0.00079806,-0.984606,0.00182829,0.0138771,944,477,0.393561,30.6501
-273,547,0.36499,-31.2661,0.00150055,0.000710607,-0.000364847,0.00164327,0.000567883,-0.372886,0.000963709,0.0125117,951,477,0.364989,31.2662
-266,547,0.332153,-31.8759,0.00180018,-0.00110831,0.000361238,0.00184438,-0.0011525,0.121737,0.00174555,0.0122299,958,477,0.332148,31.8759
-259,547,0.295166,-32.4439,0.00221935,-0.00322068,0.00108914,0.0024293,-0.00343063,0.190433,0.00339966,0.0119494,965,477,0.295143,32.4439
-252,547,0.293701,-33.0318,0.00228392,-0.00552165,0.00200902,0.00277066,-0.00600838,0.237695,0.00518221,0.0116669,972,477,0.293719,33.0318
-245,547,0.293579,-33.6211,0.00237872,-0.00821452,0.00308069,0.00320949,-0.00904529,0.263403,0.00733784,0.0121314,979,477,0.293562,33.6211
-238,547,0.30249,-34.2233,0.00275907,-0.0109631,0.00407727,0.00387912,-0.0120832,0.268094,0.00961301,0.0086498,986,477,0.302467,34.2233
-231,547,0.29303,-34.795,0.00317658,-0.0142492,0.00512628,0.00457276,-0.0156453,0.265907,0.0122425,0.00809923,993,477,0.293037,34.795
-224,547,0.285583,-35.3224,0.00338559,-0.0176857,0.00627601,0.00511323,-0.0194133,0.268623,0.0149412,0.0103198,1000,477,0.28561,35.3225
-217,547,0.296997,-35.8161,0.00349958,-0.0211575,0.00746602,0.00558403,-0.023242,0.272259,0.0176529,0.0162543,1007,477,0.297017,35.8161
-210,547,0.296448,-36.2128,0.00359861,-0.0242367,0.00847806,0.00597755,-0.0266156,0.273564,0.0200357,0.0274124,1014,477,0.296438,36.2128
-203,547,0.269226,-36.4495,0.00373989,-0.0271014,0.00943891,0.00639932,-0.0297608,0.274633,0.0222821,0.0393226,1021,477,0.269229,36.4495
-196,547,-0.0510254,-36.8514,0.00397731,-0.0296679,0.0102936,0.00687673,-0.0325673,0.274559,0.0243299,0.0477891,1028,477,-0.0510261,36.8514
-189,547,-0.364746,-37.1489,0,0,0,0,0,0,0,-1,1035,477,-0.364767,37.1489
-182,547,0.687378,-37.456,0,0,0,0,0,0,0,-1,1042,477,0.687426,37.456
-175,547,0.326294,-37.6517,0,0,0,0,0,0,0,-1,1049,477,0.326275,37.6517
-168,547,0.761719,-32.9387,0,0,0,0,0,0,0,-1,1056,477,0.761738,32.9387
-161,547,0.0430908,-34.6016,0,0,0,0,0,0,0,-1,1063,477,0.0431231,34.6016
-154,547,-0.284424,-31.1176,0,0,0,0,0,0,0,-1,1070,477,-0.284395,31.1176
-147,547,3.69434,-26.413,0,0,0,0,0,0,0,-1,1077,477,3.69437,26.413
-140,547,1.55676,-22.5229,0,0,0,0,0,0,0,-1,1084,477,1.5568,22.5229
-133,547,2.31665,-17.9421,0,0,0,0,0,0,0,-1,1091,477,2.31667,17.9421
-126,547,-1.15271,-30.6984,0,0,0,0,0,0,0,-1,1098,477,-1.15267,30.6984
-119,547,0.967651,-24.9351,0,0,0,0,0,0,0,-1,1105,477,0.967657,24.9351
-112,547,1.15674,-22.2276,0,0,0,0,0,0,0,-1,1112,477,1.15677,22.2276
-105,547,0.966797,-20.5777,0,0,0,0,0,0,0,-1,1119,477,0.966804,20.5777
-98,547,0.70166,-18.9755,0,0,0,0,0,0,0,-1,1126,477,0.701713,18.9755
-91,547,1.37805,-7.12024,0,0,0,0,0,0,0,-1,1133,477,1.37804,7.12025
-84,547,1.94202,-6.66241,0,0,0,0,0,0,0,-1,1140,477,1.94201,6.66241
-77,547,-2.28357,1.8588,0,0,0,0,0,0,0,-1,1147,477,-2.28356,-1.85879
-70,547,-3.70178,-0.874908,0,0,0,0,0,0,0,-1,1154,477,-3.70182,0.874918
-63,547,-5.12012,-3.60861,0,0,0,0,0,0,0,-1,1161,477,-5.12009,3.60862
-56,547,-6.01917,-6.2399,0,0,0,0,0,0,0,-1,1168,477,-6.01921,6.23991
-49,547,-6.729,-8.60349,0,0,0,0,0,0,0,-1,1175,477,-6.72899,8.60348
-42,547,-2.41736,-5.53012,0,0,0,0,0,0,0,-1,1182,477,-2.41734,5.53011
-35,547,-2.96838,-4.45734,0,0,0,0,0,0,0,-1,1189,477,-2.96839,4.45734
-28,547,-0.869141,-1.29901,0,0,0,0,0,0,0,-1,1196,477,-0.869135,1.29901
-21,547,-7.68262,-30.8089,0,0,0,0,0,0,0,-1,1203,477,-7.68256,30.8089
-14,547,9.03625,-42.0883,0,0,0,0,0,0,0,-1,1210,477,9.03629,42.0883
-7,547,6.771,-49.3384,0,0,0,0,0,0,0,-1,1217,477,6.77096,49.3384
0,547,6.39636,-48.6164,0,0,0,0,0,0,0,-1,1224,477,6.39632,48.6164
7,547,5.9812,-47.7587,0,0,0,0,0,0,0,-1,1231,477,5.98119,47.7587
14,547,0,0,0,0,0,0,0,0,0,-1,1238,477,0,0
21,547,0,0,0,0,0,0,0,0,0,-1,1245,477,0,0
28,547,0,0,0,0,0,0,0,0,0,-1,1252,477,0,0
35,547,0,0,0,0,0,0,0,0,0,-1,1259,477,0,0
42,547,0,0,0,0,0,0,0,0,0,-1,1266,477,0,0
49,547,0,0,0,0,0,0,0,0,0,-1,1273,477,0,0
56,547,0,0,0,0,0,0,0,0,0,-1,1280,477,0,0
63,547,0,0,0,0,0,0,0,0,0,-1,1287,477,0,0
70,547,0,0,0,0,0,0,0,0,0,-1,1294,477,0,0
77,547,0,0,0,0,0,0,0,0,0,-1,1301,477,0,0
84,547,0,0,0,0,0,0,0,0,0,-1,1308,477,0,0
91,547,0,0,0,0,0,0,0,0,0,-1,1315,477,0,0
98,547,0,0,0,0,0,0,0,0,0,-1,1322,477,0,0
105,547,3.23218,-45.4836,-0.0385772,-0.0823306,0.0214313,-0.0298289,-0.0910789,0.387558,0.0536173,0.043592,1329,477,3.2322,45.4836
112,547,3.17566,-43.6656,-0.0476399,-0.0845381,0.0182225,-0.0401577,-0.0920203,0.38961,0.053271,0.0429222,1336,477,3.1756,43.6656
119,547,3.46167,-41.8453,-0.0554224,-0.0835891,0.0119543,-0.0510329,-0.0879786,0.351906,0.0510111,0.0410609,1343,477,3.46164,41.8453
126,547,3.75342,-40.0734,0,0,0,0,0,0,0,-1,1350,477,3.75345,40.0733
133,547,4.23413,-38.1531,0,0,0,0,0,0,0,-1,1357,477,4.23409,38.1531
140,547,4.41968,-36.3036,0,0,0,0,0,0,0,-1,1364,477,4.41972,36.3037
147,547,2.05725,-46.3158,-0.089001,-0.0392143,-0.0280488,-0.0266055,-0.10161,-1.14833,0.0608423,0.0406542,1371,477,2.05729,46.3158
154,547,0.973022,-46.3306,-0.100954,-0.0209328,-0.0372544,-0.00627412,-0.115613,-1.19593,0.0750715,0.0459089,1378,477,0.972989,46.3306
161,547,0.115479,-46.3642,-0.113687,0.00191695,-0.0453227,0.0175672,-0.129337,-1.23831,0.0926372,0.0499477,1385,477,0.115473,46.3642
168,547,-0.28186,-46.5668,0,0,0,0,0,0,0,-1,1392,477,-0.281851,46.5668
175,547,3.35034,-0.26532,0,0,0,0,0,0,0,-1,1399,477,3.3503,0.265306
182,547,4.26038,3.72672,0,0,0,0,0,0,0,-1,1406,477,4.26039,-3.7267
189,547,3.40454,1.28671,0,0,0,0,0,0,0,-1,1413,477,3.40457,-1.28673
196,547,3.53931,1.87793,0,0,0,0,0,0,0,-1,1420,477,3.53928,-1.87794
203,547,6.49414,-0.425842,0,0,0,0,0,0,0,-1,1427,477,6.4941,0.425844
210,547,4.82092,0.53595,0,0,0,0,0,0,0,-1,1434,477,4.82096,-0.535942
217,547,4.68579,0.480072,0,0,0,0,0,0,0,-1,1441,477,4.68577,-0.480069
224,547,4.55615,0.739807,0,0,0,0,0,0,0,-1,1448,477,4.55613,-0.73981
231,547,5.90869,-3.57721,0,0,0,0,0,0,0,-1,1455,477,5.90871,3.57722
238,547,5.50049,-3.15356,0,0,0,0,0,0,0,-1,1462,477,5.50045,3.15356
245,547,5.13708,-2.65213,0,0,0,0,0,0,0,-1,1469,477,5.13708,2.65212
252,547,3.73511,-0.645233,0,0,0,0,0,0,0,-1,1476,477,3.73515,0.645237
259,547,5.86816,-3.20816,0,0,0,0,0,0,0,-1,1483,477,5.86815,3.20816
266,547,5.40222,-2.45731,0,0,0,0,0,0,0,-1,1490,477,5.40221,2.45732
273,547,3.05737,0.495789,0,0,0,0,0,0,0,-1,1497,477,3.05742,-0.49578
280,547,2.0885,1.47797,0,0,0,0,0,0,0,-1,1504,477,2.08848,-1.47795
287,547,2.31177,-2.21716,0,0,0,0,0,0,0,-1,1511,477,2.31174,2.21717
294,547,2.4823,-3.03659,0,0,0,0,0,0,0,-1,1518,477,2.48229,3.0366
301,547,4.72119,-3.93454,0,0,0,0,0,0,0,-1,1525,477,4.72119,3.93453
308,547,4.07471,-5.42175,0,0,0,0,0,0,0,-1,1532,477,4.07468,5.42174
315,547,3.58496,-6.62112,0,0,0,0,0,0,0,-1,1539,477,3.58497,6.62113
322,547,11.8186,-36.6938,0,0,0,0,0,0,0,-1,1546,477,11.8186,36.6938
329,547,11.9238,-36.1994,0,0,0,0,0,0,0,-1,1553,477,11.9239,36.1994
336,547,12.1222,-35.8431,0.00305753,-0.00796368,-0.00526544,0.00516871,-0.0100749,-0.381325,0.00895153,0.0440747,1560,477,12.1222,35.8431
343,547,12.0718,-35.353,0.0024903,-0.00688387,-0.00474823,0.00447513,-0.00886871,-0.395939,0.00784204,0.0364785,1567,477,12.0718,35.353
350,547,11.9683,-34.7424,0.00196452,-0.00622112,-0.00430449,0.00381138,-0.00806798,-0.4053,0.00700378,0.0252384,1574,477,11.9683,34.7424
357,547,11.9652,-34.1507,0.00165516,-0.0052799,-0.00371345,0.00326833,-0.00689307,-0.409815,0.00598981,0.016026,1581,477,11.9653,34.1507
364,547,11.9624,-33.5662,0.00143953,-0.00424339,-0.00309561,0.00280005,-0.00560391,-0.41409,0.00494123,0.0114449,1588,477,11.9624,33.5662
371,547,11.9513,-32.9619,0.00124735,-0.00323638,-0.00244641,0.00232375,-0.00431278,-0.4145,0.00388854,0.0098691,1595,477,11.9513,32.9619
378,547,11.9392,-32.3603,0.000981626,-0.00205054,-0.00178912,0.00181064,-0.00287955,-0.43391,0.00273122,0.0100384,1602,477,11.9392,32.3603
385,547,11.9351,-31.7507,0.000813504,-0.000973977,-0.00110162,0.00133833,-0.00149881,-0.444602,0.0016389,0.0105632,1609,477,11.935,31.7507
392,547,11.9163,-31.1251,0.000788497,-0.000176439,-0.000457154,0.000970683,-0.000358625,-0.379232,0.000794131,0.0116292,1616,477,11.9163,31.1251
399,547,11.8738,-30.4913,0.000866669,0.000567251,2.45018e-05,0.00086866,0.000565259,0.0811123,0.00050906,0.0138536,1623,477,11.8738,30.4913
406,547,11.8585,-29.8576,0.000955484,0.00131674,0.000414209,0.00158799,0.000684233,0.991009,0.000919745,0.0132493,1630,477,11.8586,29.8576
413,547,11.8584,-29.2315,0.00104503,0.00207784,0.000773023,0.00249108,0.000631792,1.07987,0.00149529,0.0132665,1637,477,11.8584,29.2315
420,547,11.85,-28.6048,0.00101169,0.00261893,0.00106738,0.00315138,0.000479235,1.10807,0.0019608,0.0158403,1644,477,11.85,28.6048
427,547,11.8284,-27.9324,0.000935583,0.00296347,0.00134309,0.00363237,0.000266681,1.10872,0.00233776,0.0152804,1651,477,11.8284,27.9324
434,547,11.7682,-27.2903,0.000868402,0.00332271,0.0016596,0.00415958,3.15346e-05,1.10375,0.0027626,0.0105911,1658,477,11.7681,27.2903
441,547,11.7432,-26.636,0.000691971,0.00369284,0.00203046,0.0047171,-0.000332287,1.1036,0.00326114,0.0110758,1665,477,11.7432,26.636
448,547,11.7035,-25.943,0.000338694,0.00395952,0.00240954,0.00516299,-0.000864776,1.10758,0.00376352,0.0118918,1672,477,11.7034,25.943
455,547,11.6864,-25.2646,-0.000215573,0.00414946,0.00281837,0.00553157,-0.00159769,1.11486,0.00431991,0.0119676,1679,477,11.6864,25.2646
462,547,11.63,-24.5971,-0.000909773,0.00440913,0.00367082,0.00628262,-0.00278326,1.09888,0.00536259,0.0123029,1686,477,11.63,24.5971
469,547,11.5626,-23.9286,-0.0017121,0.00511473,0.00492101,0.00769029,-0.00428766,1.08862,0.00700786,0.0200439,1693,477,11.5626,23.9286
476,547,11.6188,-23.0974,-0.00262834,0.00578235,0.00638926,0.00922603,-0.00607202,1.07645,0.00889468,0.0352201,1700,477,11.6187,23.0974
483,547,11.7067,-22.2061,0,0,0,0,0,0,0,-1,1707,477,11.7067,22.2061
490,547,3.65271,-3.71707,0,0,0,0,0,0,0,-1,1714,477,3.65277,3.71708
497,547,2.55481,-3.81421,0,0,0,0,0,0,0,-1,1721,477,2.55476,3.8142
504,547,4.01953,-2.22714,0,0,0,0,0,0,0,-1,1728,477,4.0195,2.22713
511,547,5.2146,-6.9552,0,0,0,0,0,0,0,-1,1735,477,5.21464,6.95521
518,547,5.24243,-6.56122,0,0,0,0,0,0,0,-1,1742,477,5.24241,6.56121
525,547,5.89368,-5.49866,0,0,0,0,0,0,0,-1,1749,477,5.89372,5.49866
532,547,0,0,0,0,0,0,0,0,0,-1,1756,477,0,0
539,547,0,0,0,0,0,0,0,0,0,-1,1763,477,0,0
546,547,0,0,0,0,0,0,0,0,0,-1,1770,477,0,0
553,547,0,0,0,0,0,0,0,0,0,-1,1777,477,0,0
560,547,0,0,0,0,0,0,0,0,0,-1,1784,477,0,0
567,547,0,0,0,0,0,0,0,0,0,-1,1791,477,0,0
574,547,0,0,0,0,0,0,0,0,0,-1,1798,477,0,0
581,547,0,0,0,0,0,0,0,0,0,-1,1805,477,0,0
588,547,0,0,0,0,0,0,0,0,0,-1,1812,477,0,0
595,547,0,0,0,0,0,0,0,0,0,-1,1819,477,0,0
602,547,0,0,0,0,0,0,0,0,0,-1,1826,477,0,0
609,547,0,0,0,0,0,0,0,0,0,-1,1833,477,0,0
616,547,0,0,0,0,0,0,0,0,0,-1,1840,477,0,0
623,547,0,0,0,0,0,0,0,0,0,-1,1847,477,0,0
630,547,0,0,0,0,0,0,0,0,0,-1,1854,477,0,0
637,547,0,0,0,0,0,0,0,0,0,-1,1861,477,0,0
644,547,0,0,0,0,0,0,0,0,0,-1,1868,477,0,0
651,547,0,0,0,0,0,0,0,0,0,-1,1875,477,0,0
658,547,0,0,0,0,0,0,0,0,0,-1,1882,477,0,0
665,547,0,0,0,0,0,0,0,0,0,-1,1889,477,0,0
672,547,0,0,0,0,0,0,0,0,0,-1,1896,477,0,0
679,547,0,0,0,0,0,0,0,0,0,-1,1903,477,0,0
686,547,0,0,0,0,0,0,0,0,0,-1,1910,477,0,0
693,547,0,0,0,0,0,0,0,0,0,-1,1917,477,0,0
700,547,0,0,0,0,0,0,0,0,0,-1,1924,477,0,0
707,547,0,0,0,0,0,0,0,0,0,-1,1931,477,0,0
714,547,0,0,0,0,0,0,0,0,0,-1,1938,477,0,0
721,547,0,0,0,0,0,0,0,0,0,-1,1945,477,0,0
728,547,0,0,0,0,0,0,0,0,0,-1,1952,477,0,0
735,547,0,0,0,0,0,0,0,0,0,-1,1959,477,0,0
742,547,0,0,0,0,0,0,0,0,0,-1,1966,477,0,0
749,547,0,0,0,0,0,0,0,0,0,-1,1973,477,0,0
756,547,0,0,0,0,0,0,0,0,0,-1,1980,477,0,0
763,547,0,0,0,0,0,0,0,0,0,-1,1987,477,0,0
770,547,0,0,0,0,0,0,0,0,0,-1,1994,477,0,0
777,547,0,0,0,0,0,0,0,0,0,-1,2001,477,0,0
784,547,0,0,0,0,0,0,0,0,0,-1,2008,477,0,0
791,547,0,0,0,0,0,0,0,0,0,-1,2015,477,0,0
798,547,0,0,0,0,0,0,0,0,0,-1,2022,477,0,0
805,547,0,0,0,0,0,0,0,0,0,-1,2029,477,0,0
812,547,0,0,0,0,0,0,0,0,0,-1,2036,477,0,0
-700,540,0,0,0,0,0,0,0,0,0,-1,524,484,0,0
-693,540,0,0,0,0,0,0,0,0,0,-1,531,484,0,0
-686,540,0,0,0,0,0,0,0,0,0,-1,538,484,0,0
-679,540,0,0,0,0,0,0,0,0,0,-1,545,484,0,0
-672,540,0,0,0,0,0,0,0,0,0,-1,552,484,0,0
-665,540,0,0,0,0,0,0,0,0,0,-1,559,484,0,0
-658,540,0,0,0,0,0,0,0,0,0,-1,566,484,0,0
-651,540,0,0,0,0,0,0,0,0,0,-1,573,484,0,0
-644,540,0,0,0,0,0,0,0,0,0,-1,580,484,0,0
-637,540,0,0,0,0,0,0,0,0,0,-1,587,484,0,0
-630,540,0,0,0,0,0,0,0,0,0,-1,594,484,0,0
-623,540,0,0,0,0,0,0,0,0,0,-1,601,484,0,0
-616,540,0,0,0,0,0,0,0,0,0,-1,608,484,0,0
-609,540,0,0,0,0,0,0,0,0,0,-1,615,484,0,0
-602,540,0,0,0,0,0,0,0,0,0,-1,622,484,0,0
-595,540,0,0,0,0,0,0,0,0,0,-1,629,484,0,0
-588,540,0,0,0,0,0,0,0,0,0,-1,636,484,0,0
-581,540,0,0,0,0,0,0,0,0,0,-1,643,484,0,0
-574,540,0,0,0,0,0,0,0,0,0,-1,650,484,0,0
-567,540,0,0,0,0,0,0,0,0,0,-1,657,484,0,0
-560,540,0,0,0,0,0,0,0,0,0,-1,664,484,0,0
-553,540,0,0,0,0,0,0,0,0,0,-1,671,484,0,0
-546,540,0,0,0,0,0,0,0,0,0,-1,678,484,0,0
-539,540,0,0,0,0,0,0,0,0,0,-1,685,484,0,0
-532,540,0,0,0,0,0,0,0,0,0,-1,692,484,0,0
-525,540,0,0,0,0,0,0,0,0,0,-1,699,484,0,0
-518,540,0,0,0,0,0,0,0,0,0,-1,706,484,0,0
-511,540,0,0,0,0,0,0,0,0,0,-1,713,484,0,0
-504,540,0,0,0,0,0,0,0,0,0,-1,720,484,0,0
-497,540,0,0,0,0,0,0,0,0,0,-1,727,484,0,0
-490,540,0,0,0,0,0,0,0,0,0,-1,734,484,0,0
-483,540,0,0,0,0,0,0,0,0,0,-1,741,484,0,0
-476,540,0,0,0,0,0,0,0,0,0,-1,748,484,0,0
-469,540,0,0,0,0,0,0,0,0,0,-1,755,484,0,0
-462,540,0,0,0,0,0,0,0,0,0,-1,762,484,0,0
-455,540,0,0,0,0,0,0,0,0,0,-1,769,484,0,0
-448,540,0,0,0,0,0,0,0,0,0,-1,776,484,0,0
-441,540,0,0,0,0,0,0,0,0,0,-1,783,484,0,0
-434,540,0,0,0,0,0,0,0,0,0,-1,790,484,0,0
-427,540,0,0,0,0,0,0,0,0,0,-1,797,484,0,0
-420,540,0.227051,-10.0402,0,0,0,0,0,0,0,-1,804,484,0.227063,10.0402
-413,540,-0.0393677,-10.3862,0,0,0,0,0,0,0,-1,811,484,-0.0393683,10.3862
-406,540,-0.518372,-11.5288,0,0,0,0,0,0,0,-1,818,484,-0.518402,11.5288
-399,540,0.0863037,-11.3801,0,0,0,0,0,0,0,-1,825,484,0.0863201,11.3801
-392,540,-0.517395,-10.6735,0,0,0,0,0,0,0,-1,832,484,-0.517377,10.6735
-385,540,-2.29407,-5.03418,0,0,0,0,0,0,0,-1,839,484,-2.29408,5.03418
-378,540,1.06445,-10.5824,0,0,0,0,0,0,0,-1,846,484,1.06446,10.5824
-371,540,0.873779,-20.9321,0,0,0,0,0,0,0,-1,853,484,0.87379,20.9321
-364,540,0.255676,-21.9307,0,0,0,0,0,0,0,-1,860,484,0.255654,21.9307
-357,540,0.152893,-22.9372,0.00863574,0.0275259,-0.0140792,0.0350347,0.001127,-1.08085,0.02299,0.0472856,867,484,0.152864,22.9372
-350,540,0.121643,-23.7682,0.00659728,0.0231392,-0.0111258,0.0287316,0.00100486,-1.10503,0.0188284,0.0381885,874,484,0.12162,23.7682
-343,540,0.0599365,-24.7558,0.00499607,0.019467,-0.0087721,0.0236026,0.000860443,-1.13025,0.0154563,0.020012,881,484,0.0599451,24.7558
-336,540,-0.0170288,-25.5824,0.00387546,0.0162583,-0.00686227,0.0193094,0.00082434,-1.15242,0.0126071,0.0129068,888,484,-0.0170276,25.5824
-329,540,-0.0571899,-26.2123,0.00304779,0.0132966,-0.00532795,0.0155646,0.000779869,-1.16836,0.0101264,0.010341,895,484,-0.0572145,26.2123
-322,540,-0.0784912,-26.8673,0.00231109,0.0105305,-0.00397219,0.0121363,0.000705202,-1.1866,0.00786637,0.0138249,902,484,-0.0785018,26.8673
-315,540,-0.120911,-27.5158,0.00181425,0.00818917,-0.00291843,0.00932341,0.000680005,-1.20011,0.0060018,0.0128463,909,484,-0.120927,27.5158
-308,540,-0.12146,-28.147,0.00147847,0.00619974,-0.00211845,0.00701092,0.000667288,-1.20511,0.00446816,0.0129712,916,484,-0.121432,28.147
-301,540,-0.168335,-28.7386,0.00130321,0.00429405,-0.00148134,0.00490354,0.00069372,-1.18046,0.00306408,0.0137639,923,484,-0.168331,28.7386
-294,540,-0.203186,-29.3777,0.00130064,0.00273814,-0.000849293,0.003132,0.000906778,-1.13657,0.0018609,0.0118658,930,484,-0.203216,29.3777
-287,540,-0.200623,-30.0344,0.0013555,0.00140411,-0.000265763,0.00164668,0.00111293,-0.831,0.000970113,0.00832495,937,484,-0.200622,30.0344
-280,540,-0.220215,-30.6313,0.00134899,-2.86993e-05,0.000247112,0.00139198,-7.1682e-05,0.172217,0.000952777,0.00985548,944,484,-0.220236,30.6313
-273,540,-0.233582,-31.2448,0.00150507,-0.00160274,0.000939129,0.00176681,-0.00186448,0.271813,0.00209678,0.0118264,951,484,-0.233578,31.2448
-266,540,-0.240723,-31.8519,0.0020746,-0.00333866,0.00168632,0.00255694,-0.003821,0.278592,0.00370633,0.0128988,958,484,-0.240745,31.8519
-259,540,-0.27594,-32.4443,0.00273649,-0.00550135,0.00237994,0.00337463,-0.00613949,0.261971,0.00556976,0.0127489,965,484,-0.275942,32.4443
-252,540,-0.2771,-33.0106,0.00296921,-0.0079604,0.00322789,0.00385133,-0.00884251,0.266765,0.00751526,0.0117785,972,484,-0.27709,33.0106
-245,540,-0.275574,-33.5811,0.00317824,-0.0110042,0.0043534,0.00440792,-0.0122339,0.275294,0.009956,0.0124577,979,484,-0.27555,33.5811
-238,540,-0.301636,-34.1615,0.00368362,-0.0141031,0.00538556,0.00518719,-0.0156066,0.272253,0.0124976,0.0105524,986,484,-0.301605,34.1615
-231,540,-0.318176,-34.7079,0.00424287,-0.0179566,0.00654911,0.00603092,-0.0197447,0.266526,0.0155678,0.0144484,993,484,-0.318151,34.7079
-224,540,-0.342224,-35.1994,0.0045161,-0.0221484,0.0078875,0.00667455,-0.0243068,0.267114,0.018828,0.0242052,1000,484,-0.342197,35.1994
-217,540,-0.268921,-35.4736,0.00462016,-0.0264817,0.00932499,0.00720171,-0.0290633,0.270078,0.0221695,0.0340027,1007,484,-0.268942,35.4736
-210,540,-0.113464,-35.8304,0.00462746,-0.0304112,0.0105881,0.00757846,-0.0333622,0.271811,0.0251511,0.0425115,1014,484,-0.113446,35.8304
-203,540,-0.340332,-36.2457,0.0046292,-0.0341796,0.0118388,0.00795558,-0.037506,0.27391,0.0280347,0.0479987,1021,484,-0.340317,36.2457
-196,540,-0.485962,-36.4427,0,0,0,0,0,0,0,-1,1028,484,-0.485982,36.4427
-189,540,-0.726807,-22.826,0,0,0,0,0,0,0,-1,1035,484,-0.72684,22.8259
-182,540,0.109375,-15.2948,0,0,0,0,0,0,0,-1,1042,484,0.109331,15.2948
-175,540,1.73413,-10.728,0,0,0,0,0,0,0,-1,1049,484,1.73414,10.728
-168,540,1.18164,-7.65347,0,0,0,0,0,0,0,-1,1056,484,1.18163,7.65347
-161,540,-0.405884,-9.86481,0,0,0,0,0,0,0,-1,1063,484,-0.405886,9.8648
-154,540,1.96863,-22.0727,0,0,0,0,0,0,0,-1,1070,484,1.96859,22.0727
-147,540,1.32764,-21.9952,0,0,0,0,0,0,0,-1,1077,484,1.32762,21.9952
-140,540,1.40735,-15.6289,0,0,0,0,0,0,0,-1,1084,484,1.4073,15.6289
-133,540,2.28345,-17.6413,0,0,0,0,0,0,0,-1,1091,484,2.2835,17.6413
-126,540,1.25293,-23.9108,0,0,0,0,0,0,0,-1,1098,484,1.25288,23.9108
-119,540,1.55969,-23.0125,0,0,0,0,0,0,0,-1,1105,484,1.55968,23.0125
-112,540,1.4801,-21.6515,0,0,0,0,0,0,0,-1,1112,484,1.4801,21.6515
-105,540,1.30078,-19.8938,0,0,0,0,0,0,0,-1,1119,484,1.30077,19.8938
-98,540,1.08105,-18.1304,0,0,0,0,0,0,0,-1,1126,484,1.08101,18.1304
-91,540,1.56519,-7.48666,0,0,0,0,0,0,0,-1,1133,484,1.56514,7.48667
-84,540,-0.945923,4.43073,0,0,0,0,0,0,0,-1,1140,484,-0.945891,-4.43074
-77,540,-2.28894,2.14368,0,0,0,0,0,0,0,-1,1147,484,-2.28894,-2.14368
-70,540,-3.75244,-0.452576,0,0,0,0,0,0,0,-1,1154,484,-3.75244,0.452576
-63,540,-5.26257,-3.04767,0,0,0,0,0,0,0,-1,1161,484,-5.26262,3.04766
-56,540,-5.19055,-6.12595,0,0,0,0,0,0,0,-1,1168,484,-5.19057,6.12595
-49,540,-5.63867,-8.52298,0,0,0,0,0,0,0,-1,1175,484,-5.63871,8.52298
-42,540,0,0,0,0,0,0,0,0,0,-1,1182,484,0,0
-35,540,0,0,0,0,0,0,0,0,0,-1,1189,484,0,0
-28,540,0,0,0,0,0,0,0,0,0,-1,1196,484,0,0
-21,540,0,0,0,0,0,0,0,0,0,-1,1203,484,0,0
-14,540,0,0,0,0,0,0,0,0,0,-1,1210,484,0,0
-7,540,0,0,0,0,0,0,0,0,0,-1,1217,484,0,0
0,540,0,0,0,0,0,0,0,0,0,-1,1224,484,0,0
7,540,0,0,0,0,0,0,0,0,0,-1,1231,484,0,0
14,540,0,0,0,0,0,0,0,0,0,-1,1238,484,0,0
21,540,0,0,0,0,0,0,0,0,0,-1,1245,484,0,0
28,540,0,0,0,0,0,0,0,0,0,-1,1252,484,0,0
35,540,0,0,0,0,0,0,0,0,0,-1,1259,484,0,0
42,540,0,0,0,0,0,0,0,0,0,-1,1266,484,0,0
49,540,0,0,0,0,0,0,0,0,0,-1,1273,484,0,0
56,540,0,0,0,0,0,0,0,0,0,-1,1280,484,0,0
63,540,0,0,0,0,0,0,0,0,0,-1,1287,484,0,0
70,540,0,0,0,0,0,0,0,0,0,-1,1294,484,0,0
77,540,0,0,0,0,0,0,0,0,0,-1,1301,484,0,0
84,540,0,0,0,0,0,0,0,0,0,-1,1308,484,0,0
91,540,0,0,0,0,0,0,0,0,0,-1,1315,484,0,0
98,540,0,0,0,0,0,0,0,0,0,-1,1322,484,0,0
105,540,0,0,0,0,0,0,0,0,0,-1,1329,484,0,0
112,540,0,0,0,0,0,0,0,0,0,-1,1336,484,0,0
119,540,0,0,0,0,0,0,0,0,0,-1,1343,484,0,0
126,540,0,0,0,0,0,0,0,0,0,-1,1350,484,0,0
133,540,0,0,0,0,0,0,0,0,0,-1,1357,484,0,0
140,540,0,0,0,0,0,0,0,0,0,-1,1364,484,0,0
147,540,0,0,0,0,0,0,0,0,0,-1,1371,484,0,0
154,540,0,0,0,0,0,0,0,0,0,-1,1378,484,0,0
161,540,0,0,0,0,0,0,0,0,0,-1,1385,484,0,0
168,540,3.05078,-0.0010376,0,0,0,0,0,0,0,-1,1392,484,3.05084,0.00102554
175,540,3.37708,0.617035,0,0,0,0,0,0,0,-1,1399,484,3.37707,-0.617046
182,540,3.32678,1.23267,0,0,0,0,0,0,0,-1,1406,484,3.32678,-1.23266
189,540,3.5813,2.15619,0,0,0,0,0,0,0,-1,1413,484,3.58129,-2.1562
196,540,1.84448,-0.801483,0,0,0,0,0,0,0,-1,1420,484,1.84446,0.80148
203,540,4.14648,0.702087,0,0,0,0,0,0,0,-1,1427,484,4.14645,-0.702089
210,540,4.50671,-0.56076,0,0,0,0,0,0,0,-1,1434,484,4.50667,0.560771
217,540,5.00452,-0.278717,0,0,0,0,0,0,0,-1,1441,484,5.00452,0.278709
224,540,6.44458,-2.83527,0,0,0,0,0,0,0,-1,1448,484,6.44457,2.83525
231,540,6.9231,-3.10504,0,0,0,0,0,0,0,-1,1455,484,6.92307,3.10505
238,540,6.4823,-2.58365,0,0,0,0,0,0,0,-1,1462,484,6.48225,2.58363
245,540,6.02087,-1.97916,0,0,0,0,0,0,0,-1,1469,484,6.02088,1.97915
252,540,6.50647,-3.56006,0,0,0,0,0,0,0,-1,1476,484,6.50649,3.56006
259,540,6.01941,-2.798,0,0,0,0,0,0,0,-1,1483,484,6.01941,2.79801
266,540,5.5332,-2.02853,0,0,0,0,0,0,0,-1,1490,484,5.53323,2.02855
273,540,5.06787,-1.28137,0,0,0,0,0,0,0,-1,1497,484,5.06786,1.28136
280,540,1.62903,-2.14609,0,0,0,0,0,0,0,-1,1504,484,1.62906,2.1461
287,540,1.97156,-2.45053,0,0,0,0,0,0,0,-1,1511,484,1.97159,2.45053
294,540,2.44165,-2.6185,0,0,0,0,0,0,0,-1,1518,484,2.44167,2.6185
301,540,4.36169,-2.54272,0,0,0,0,0,0,0,-1,1525,484,4.36165,2.54272
308,540,4.2019,-4.30469,0,0,0,0,0,0,0,-1,1532,484,4.20193,4.3047
315,540,4.45923,-5.32101,0,0,0,0,0,0,0,-1,1539,484,4.45923,5.32103
322,540,4.71655,-6.33737,0,0,0,0,0,0,0,-1,1546,484,4.71653,6.33736
329,540,5.8949,-12.9383,0,0,0,0,0,0,0,-1,1553,484,5.89492,12.9383
336,540,12.913,-36.0112,0,0,0,0,0,0,0,-1,1560,484,12.913,36.0112
343,540,12.8102,-35.4595,0,0,0,0,0,0,0,-1,1567,484,12.8102,35.4595
350,540,12.5081,-34.7842,0,0,0,0,0,0,0,-1,1574,484,12.5081,34.7842
357,540,12.6134,-33.8597,0.00164545,-0.00727368,-0.0052201,0.00405154,-0.00967977,-0.431904,0.00814673,0.0444607,1581,484,12.6134,33.8597
364,540,12.5184,-33.4563,0.00147879,-0.00612338,-0.00449891,0.00356739,-0.00821198,-0.434638,0.00697482,0.0259281,1588,484,12.5184,33.4563
371,540,12.5313,-32.9224,0.00130711,-0.00498737,-0.00374132,0.0030489,-0.00672916,-0.435714,0.00577712,0.0175732,1595,484,12.5312,32.9224
378,540,12.5615,-32.326,0.0010406,-0.00358043,-0.00294593,0.00247401,-0.00501384,-0.452849,0.00440522,0.0129269,1602,484,12.5616,32.326
385,540,12.5618,-31.7151,0.00085806,-0.00233744,-0.00207798,0.00188153,-0.00336091,-0.457655,0.00306663,0.0137657,1609,484,12.5618,31.7151
392,540,12.5267,-31.0868,0.0007503,-0.00151343,-0.00132653,0.00136222,-0.00212535,-0.432209,0.00202956,0.0130428,1616,484,12.5267,31.0868
399,540,12.4764,-30.4688,0.000770826,-0.00065838,-0.000789035,0.00112076,-0.00100831,-0.417429,0.00122979,0.0178762,1623,484,12.4765,30.4687
406,540,12.4911,-29.841,0.000831422,0.000151438,-0.000339441,0.000971862,1.09979e-05,-0.392294,0.000644273,0.0183036,1630,484,12.491,29.841
413,540,12.4888,-29.1974,0.000918121,0.00102815,0.000128853,0.00111324,0.000833031,0.987168,0.000668626,0.0152856,1637,484,12.4888,29.1974
420,540,12.4854,-28.5513,0.000934076,0.00160421,0.000482063,0.00185622,0.00068207,1.0891,0.00108417,0.0135577,1644,484,12.4853,28.5513
427,540,12.4487,-27.899,0.000913724,0.0020247,0.000828703,0.00246687,0.000471557,1.08066,0.0015121,0.0135902,1651,484,12.4487,27.8989
434,540,12.4003,-27.2546,0.000875242,0.00241484,0.00120603,0.00307581,0.000214269,1.06945,0.00198298,0.0167551,1658,484,12.4003,27.2546
441,540,12.3801,-26.5986,0.000805223,0.00282823,0.00165344,0.00375503,-0.000121571,1.05991,0.00254484,0.0202515,1665,484,12.3801,26.5986
448,540,12.3633,-25.9409,0.00063934,0.00312361,0.00209466,0.00431673,-0.000553786,1.05303,0.00307906,0.0118878,1672,484,12.3633,25.941
455,540,12.3335,-25.2634,0.000336879,0.0033853,0.00257076,0.00484974,-0.00112756,1.05299,0.00366726,0.0104749,1679,484,12.3335,25.2634
462,540,12.2655,-24.5544,-6.35214e-05,0.00366034,0.00345191,0.00572046,-0.00212364,1.03273,0.00468481,0.0110648,1686,484,12.2655,24.5544
469,540,12.2047,-23.8759,-0.000530719,0.00436397,0.00468535,0.00720264,-0.00336939,1.02608,0.00623607,0.0146447,1693,484,12.2048,23.876
476,540,12.1892,-23.2222,-0.00105539,0.0050451,0.00609593,0.00881134,-0.00482163,1.01737,0.00798256,0.0208958,1700,484,12.1892,23.2222
483,540,12.2627,-22.4426,-0.00171372,0.00592223,0.00786909,0.0108507,-0.00664215,1.01126,0.0101964,0.03512,1707,484,12.2627,22.4426
490,540,12.4504,-21.5802,0,0,0,0,0,0,0,-1,1714,484,12.4504,21.5802
497,540,10.3452,-16.9359,0,0,0,0,0,0,0,-1,1721,484,10.3453,16.9359
504,540,12.519,-18.0764,0,0,0,0,0,0,0,-1,1728,484,12.519,18.0765
511,540,5.82471,-6.83521,0,0,0,0,0,0,0,-1,1735,484,5.82465,6.83522
518,540,9.98181,-12.4608,0,0,0,0,0,0,0,-1,1742,484,9.98187,12.4608
525,540,12.4843,-16.3481,0,0,0,0,0,0,0,-1,1749,484,12.4842,16.3481
532,540,2.84265,-1.07925,0,0,0,0,0,0,0,-1,1756,484,2.84269,1.07927
539,540,0,0,0,0,0,0,0,0,0,-1,1763,484,0,0
546,540,0,0,0,0,0,0,0,0,0,-1,1770,484,0,0
553,540,0,0,0,0,0,0,0,0,0,-1,1777,484,0,0
560,540,0,0,0,0,0,0,0,0,0,-1,1784,484,0,0
567,540,0,0,0,0,0,0,0,0,0,-1,1791,484,0,0
574,540,0,0,0,0,0,0,0,0,0,-1,1798,484,0,0
581,540,0,0,0,0,0,0,0,0,0,-1,1805,484,0,0
588,540,0,0,0,0,0,0,0,0,0,-1,1812,484,0,0
595,540,0,0,0,0,0,0,0,0,0,-1,1819,484,0,0
602,540,0,0,0,0,0,0,0,0,0,-1,1826,484,0,0
609,540,0,0,0,0,0,0,0,0,0,-1,1833,484,0,0
616,540,0,0,0,0,0,0,0,0,0,-1,1840,484,0,0
623,540,0,0,0,0,0,0,0,0,0,-1,1847,484,0,0
630,540,0,0,0,0,0,0,0,0,0,-1,1854,484,0,0
637,540,0,0,0,0,0,0,0,0,0,-1,1861,484,0,0
644,540,0,0,0,0,0,0,0,0,0,-1,1868,484,0,0
651,540,0,0,0,0,0,0,0,0,0,-1,1875,484,0,0
658,540,0,0,0,0,0,0,0,0,0,-1,1882,484,0,0
665,540,0,0,0,0,0,0,0,0,0,-1,1889,484,0,0
672,540,0,0,0,0,0,0,0,0,0,-1,1896,484,0,0
679,540,0,0,0,0,0,0,0,0,0,-1,1903,484,0,0
686,540,0,0,0,0,0,0,0,0,0,-1,1910,484,0,0
693,540,0,0,0,0,0,0,0,0,0,-1,1917,484,0,0
700,540,0,0,0,0,0,0,0,0,0,-1,1924,484,0,0
707,540,0,0,0,0,0,0,0,0,0,-1,1931,484,0,0
714,540,0,0,0,0,0,0,0,0,0,-1,1938,484,0,0
721,540,0,0,0,0,0,0,0,0,0,-1,1945,484,0,0
728,540,0,0,0,0,0,0,0,0,0,-1,1952,484,0,0
735,540,0,0,0,0,0,0,0,0,0,-1,1959,484,0,0
742,540,0,0,0,0,0,0,0,0,0,-1,1966,484,0,0
749,540,0,0,0,0,0,0,0,0,0,-1,1973,484,0,0
756,540,0,0,0,0,0,0,0,0,0,-1,1980,484,0,0
763,540,0,0,0,0,0,0,0,0,0,-1,1987,484,0,0
770,540,0,0,0,0,0,0,0,0,0,-1,1994,484,0,0
777,540,0,0,0,0,0,0,0,0,0,-1,2001,484,0,0
784,540,0,0,0,0,0,0,0,0,0,-1,2008,484,0,0
791,540,0,0,0,0,0,0,0,0,0,-1,2015,484,0,0
798,540,0,0,0,0,0,0,0,0,0,-1,2022,484,0,0
805,540,0,0,0,0,0,0,0,0,0,-1,2029,484,0,0
812,540,0,0,0,0,0,0,0,0,0,-1,2036,484,0,0
-700,533,0,0,0,0,0,0,0,0,0,-1,524,491,0,0
-693,533,0,0,0,0,0,0,0,0,0,-1,531,491,0,0
-686,533,0,0,0,0,0,0,0,0,0,-1,538,491,0,0
-679,533,0,0,0,0,0,0,0,0,0,-1,545,491,0,0
-672,533,0,0,0,0,0,0,0,0,0,-1,552,491,0,0
-665,533,0,0,0,0,0,0,0,0,0,-1,559,491,0,0
-658,533,0,0,0,0,0,0,0,0,0,-1,566,491,0,0
-651,533,0,0,0,0,0,0,0,0,0,-1,573,491,0,0
-644,533,0,0,0,0,0,0,0,0,0,-1,580,491,0,0
-637,533,0,0,0,0,0,0,0,0,0,-1,587,491,0,0
-630,533,0,0,0,0,0,0,0,0,0,-1,594,491,0,0
-623,533,0,0,0,0,0,0,0,0,0,-1,601,491,0,0
-616,533,0,0,0,0,0,0,0,0,0,-1,608,491,0,0
-609,533,0,0,0,0,0,0,0,0,0,-1,615,491,0,0
-602,533,0,0,0,0,0,0,0,0,0,-1,622,491,0,0
-595,533,0,0,0,0,0,0,0,0,0,-1,629,491,0,0
-588,533,0,0,0,0,0,0,0,0,0,-1,636,491,0,0
-581,533,0,0,0,0,0,0,0,0,0,-1,643,491,0,0
-574,533,0,0,0,0,0,0,0,0,0,-1,650,491,0,0
-567,533,0,0,0,0,0,0,0,0,0,-1,657,491,0,0
-560,533,0,0,0,0,0,0,0,0,0,-1,664,491,0,0
-553,533,0,0,0,0,0,0,0,0,0,-1,671,491,0,0
-546,533,0,0,0,0,0,0,0,0,0,-1,678,491,0,0
-539,533,0,0,0,0,0,0,0,0,0,-1,685,491,0,0
-532,533,0,0,0,0,0,0,0,0,0,-1,692,491,0,0
-525,533,0,0,0,0,0,0,0,0,0,-1,699,491,0,0
-518,533,0,0,0,0,0,0,0,0,0,-1,706,491,0,0
-511,533,0,0,0,0,0,0,0,0,0,-1,713,491,0,0
-504,533,0,0,0,0,0,0,0,0,0,-1,720,491,0,0
-497,533,0,0,0,0,0,0,0,0,0,-1,727,491,0,0
-490,533,0,0,0,0,0,0,0,0,0,-1,734,491,0,0
-483,533,0,0,0,0,0,0,0,0,0,-1,741,491,0,0
-476,533,0,0,0,0,0,0,0,0,0,-1,748,491,0,0
-469,533,0,0,0,0,0,0,0,0,0,-1,755,491,0,0
-462,533,0,0,0,0,0,0,0,0,0,-1,762,491,0,0
-455,533,0,0,0,0,0,0,0,0,0,-1,769,491,0,0
-448,533,0,0,0,0,0,0,0,0,0,-1,776,491,0,0
-441,533,0,0,0,0,0,0,0,0,0,-1,783,491,0,0
-434,533,0,0,0,0,0,0,0,0,0,-1,790,491,0,0
-427,533,0.559814,-4.40222,0,0,0,0,0,0,0,-1,797,491,0.559816,4.40222
-420,533,-1.11127,-10.9054,0,0,0,0,0,0,0,-1,804,491,-1.11124,10.9054
-413,533,-0.704773,-11.0942,0,0,0,0,0,0,0,-1,811,491,-0.704742,11.0942
-406,533,-0.670898,-12.0899,0,0,0,0,0,0,0,-1,818,491,-0.670908,12.0899
-399,533,-0.455017,-12.4423,0,0,0,0,0,0,0,-1,825,491,-0.455032,12.4423
-392,533,-1.89661,-10.3905,0,0,0,0,0,0,0,-1,832,491,-1.89661,10.3905
-385,533,0.797729,-17.0485,0,0,0,0,0,0,0,-1,839,491,0.797746,17.0485
-378,533,-0.92981,-19.994,0,0,0,0,0,0,0,-1,846,491,-0.929825,19.994
-371,533,-0.844482,-21.7365,0,0,0,0,0,0,0,-1,853,491,-0.84446,21.7364
-364,533,-0.658813,-22.4919,0.00915354,0.025784,-0.0149498,0.0345755,0.000362094,-1.0392,0.0229306,0.0446289,860,491,-0.658794,22.4919
-357,533,-0.505005,-23.3145,0.00723757,0.0219071,-0.0121592,0.0287725,0.000372179,-1.05679,0.0190588,0.0276091,867,491,-0.504989,23.3145
-350,533,-0.509094,-24.1266,0.0055008,0.0182501,-0.0095599,0.0233658,0.000385114,-1.07945,0.0154504,0.0158149,874,491,-0.509102,24.1266
-343,533,-0.570007,-24.8758,0.00412192,0.0150656,-0.00742471,0.018817,0.000370569,-1.10296,0.012423,0.0131731,881,491,-0.570007,24.8758
-336,533,-0.644104,-25.5617,0.00311285,0.0122814,-0.0056427,0.0149674,0.000426942,-1.12654,0.00983901,0.0157625,888,491,-0.644121,25.5617
-329,533,-0.681152,-26.1909,0.00235972,0.00972477,-0.00417136,0.0116065,0.000477968,-1.14702,0.00758338,0.0136604,895,491,-0.681168,26.1909
-322,533,-0.700256,-26.8418,0.00171629,0.00731937,-0.00285377,0.00851691,0.000518756,-1.17348,0.00551316,0.0118983,902,491,-0.70028,26.8418
-315,533,-0.738342,-27.483,0.00131735,0.00525025,-0.00180197,0.00595101,0.000616587,-1.19991,0.00377862,0.0132322,909,491,-0.73835,27.483
-308,533,-0.766296,-28.1151,0.00110386,0.0035046,-0.00100633,0.00387062,0.000737841,-1.22195,0.00237302,0.01294,916,491,-0.766322,28.115
-301,533,-0.823547,-28.7065,0.00103077,0.00188621,-0.000376359,0.00202822,0.000888763,-1.20999,0.00117397,0.0147274,923,491,-0.82355,28.7066
-294,533,-0.829163,-29.3325,0.00114535,0.000591441,0.000250551,0.00124186,0.000494926,0.367694,0.000721895,0.0130138,930,491,-0.82915,29.3325
-287,533,-0.812927,-29.992,0.00134379,-0.000564246,0.000807951,0.00163995,-0.000860402,0.351344,0.00146678,0.00916625,937,491,-0.812918,29.992
-280,533,-0.825195,-30.6162,0.00140831,-0.00193322,0.00132937,0.00187265,-0.00239755,0.336046,0.00247161,0.00838574,944,491,-0.825167,30.6162
-273,533,-0.841431,-31.2134,0.00168376,-0.00347659,0.00205692,0.00240332,-0.00419615,0.336517,0.00385679,0.0118385,951,491,-0.841436,31.2134
-266,533,-0.85083,-31.811,0.00251019,-0.00518063,0.00286035,0.00345736,-0.00612779,0.319772,0.00560512,0.0120414,958,491,-0.850844,31.8111
-259,533,-0.848083,-32.4095,0.00342312,-0.00746069,0.00356566,0.00448723,-0.0085248,0.290019,0.0076321,0.0131595,965,491,-0.84809,32.4095
-252,533,-0.873901,-33.0018,0.00383203,-0.0101897,0.00437832,0.00508688,-0.0114445,0.279122,0.00977687,0.0198552,972,491,-0.873901,33.0018
-245,533,-0.975708,-33.5624,0.00417395,-0.0137702,0.00560653,0.00578163,-0.0153779,0.279259,0.0126283,0.0329372,979,491,-0.975688,33.5624
-238,533,-0.772827,-34.0082,0.00485096,-0.0173668,0.00668761,0.00670863,-0.0192245,0.270947,0.0155428,0.0361097,986,491,-0.77285,34.0082
-231,533,-0.816956,-34.3253,0.00561563,-0.0220148,0.00801741,0.0077735,-0.0241726,0.262916,0.0192371,0.0455877,993,491,-0.816978,34.3253
-224,533,-1.02441,-34.7977,0.00596422,-0.0271981,0.00961374,0.00854967,-0.0297836,0.262716,0.023236,0.0498126,1000,491,-1.0244,34.7978
-217,533,-0.739929,-35.274,0.00606625,-0.0326878,0.0113759,0.00915875,-0.0357803,0.265433,0.0274211,0.0457601,1007,491,-0.739921,35.2741
-210,533,-0.453552,-35.5943,0.00602773,-0.0377681,0.0129638,0.0095774,-0.0413178,0.267263,0.0312311,0.0499787,1014,491,-0.453556,35.5943
-203,533,-0.823364,-36.062,0,0,0,0,0,0,0,-1,1021,491,-0.823357,36.062
-196,533,0.688354,-19.5743,0,0,0,0,0,0,0,-1,1028,491,0.688406,19.5743
-189,533,-0.169189,-15.0303,0,0,0,0,0,0,0,-1,1035,491,-0.169241,15.0303
-182,533,1.26123,-11.4969,0,0,0,0,0,0,0,-1,1042,491,1.26128,11.4969
-175,533,0.937744,-7.36966,0,0,0,0,0,0,0,-1,1049,491,0.937769,7.36965
-168,533,2.64807,-2.7543,0,0,0,0,0,0,0,-1,1056,491,2.64812,2.7543
-161,533,1.91833,-1.76553,0,0,0,0,0,0,0,-1,1063,491,1.91836,1.76554
-154,533,0.376709,-11.0633,0,0,0,0,0,0,0,-1,1070,491,0.376715,11.0632
-147,533,0.383789,-12.1586,0,0,0,0,0,0,0,-1,1077,491,0.383829,12.1586
-140,533,1.14001,-15.4608,0,0,0,0,0,0,0,-1,1084,491,1.14005,15.4608
-133,533,0.189941,-16.0795,0,0,0,0,0,0,0,-1,1091,491,0.18994,16.0795
-126,533,2.89612,-2.59003,0,0,0,0,0,0,0,-1,1098,491,2.89608,2.59003
-119,533,1.78284,-22.5394,0,0,0,0,0,0,0,-1,1105,491,1.78279,22.5394
-112,533,1.83862,-21.2401,0,0,0,0,0,0,0,-1,1112,491,1.83859,21.24
-105,533,1.67554,-19.4018,0,0,0,0,0,0,0,-1,1119,491,1.6755,19.4018
-98,533,-1.39392,-5.16367,0,0,0,0,0,0,0,-1,1126,491,-1.39394,5.16367
-91,533,0.367432,4.49753,0,0,0,0,0,0,0,-1,1133,491,0.367468,-4.49754
-84,533,-0.88623,3.03604,0,0,0,0,0,0,0,-1,1140,491,-0.886288,-3.03605
-77,533,0,0,0,0,0,0,0,0,0,-1,1147,491,0,0
-70,533,0,0,0,0,0,0,0,0,0,-1,1154,491,0,0
-63,533,0,0,0,0,0,0,0,0,0,-1,1161,491,0,0
-56,533,0,0,0,0,0,0,0,0,0,-1,1168,491,0,0
-49,533,0,0,0,0,0,0,0,0,0,-1,1175,491,0,0
-42,533,0,0,0,0,0,0,0,0,0,-1,1182,491,0,0
-35,533,0,0,0,0,0,0,0,0,0,-1,1189,491,0,0
-28,533,0,0,0,0,0,0,0,0,0,-1,1196,491,0,0
-21,533,0,0,0,0,0,0,0,0,0,-1,1203,491,0,0
-14,533,0,0,0,0,0,0,0,0,0,-1,1210,491,0,0
-7,533,0,0,0,0,0,0,0,0,0,-1,1217,491,0,0
0,533,0,0,0,0,0,0,0,0,0,-1,1224,491,0,0
7,533,0,0,0,0,0,0,0,0,0,-1,1231,491,0,0
14,533,0,0,0,0,0,0,0,0,0,-1,1238,491,0,0
21,533,0,0,0,0,0,0,0,0,0,-1,1245,491,0,0
28,533,0,0,0,0,0,0,0,0,0,-1,1252,491,0,0
35,533,0,0,0,0,0,0,0,0,0,-1,1259,491,0,0
42,533,0,0,0,0,0,0,0,0,0,-1,1266,491,0,0
49,533,0,0,0,0,0,0,0,0,0,-1,1273,491,0,0
56,533,0,0,0,0,0,0,0,0,0,-1,1280,491,0,0
63,533,0,0,0,0,0,0,0,0,0,-1,1287,491,0,0
70,533,0,0,0,0,0,0,0,0,0,-1,1294,491,0,0
77,533,0,0,0,0,0,0,0,0,0,-1,1301,491,0,0
84,533,0,0,0,0,0,0,0,0,0,-1,1308,491,0,0
91,533,0,0,0,0,0,0,0,0,0,-1,1315,491,0,0
98,533,0,0,0,0,0,0,0,0,0,-1,1322,491,0,0
105,533,0,0,0,0,0,0,0,0,0,-1,1329,491,0,0
112,533,0,0,0,0,0,0,0,0,0,-1,1336,491,0,0
119,533,0,0,0,0,0,0,0,0,0,-1,1343,491,0,0
126,533,0,0,0,0,0,0,0,0,0,-1,1350,491,0,0
133,533,0,0,0,0,0,0,0,0,0,-1,1357,491,0,0
140,533,0,0,0,0,0,0,0,0,0,-1,1364,491,0,0
147,533,0,0,0,0,0,0,0,0,0,-1,1371,491,0,0
154,533,0,0,0,0,0,0,0,0,0,-1,1378,491,0,0
161,533,0,0,0,0,0,0,0,0,0,-1,1385,491,0,0
168,533,0,0,0,0,0,0,0,0,0,-1,1392,491,0,0
175,533,0,0,0,0,0,0,0,0,0,-1,1399,491,0,0
182,533,0,0,0,0,0,0,0,0,0,-1,1406,491,0,0
189,533,0,0,0,0,0,0,0,0,0,-1,1413,491,0,0
196,533,0,0,0,0,0,0,0,0,0,-1,1420,491,0,0
203,533,3.7887,1.16193,0,0,0,0,0,0,0,-1,1427,491,3.78872,-1.16193
210,533,5.09558,-0.216034,0,0,0,0,0,0,0,-1,1434,491,5.09559,0.216028
217,533,6.91614,-2.46814,0,0,0,0,0,0,0,-1,1441,491,6.91618,2.46814
224,533,7.23621,-2.1857,0,0,0,0,0,0,0,-1,1448,491,7.23621,2.1857
231,533,7.23474,-1.92282,0,0,0,0,0,0,0,-1,1455,491,7.2347,1.92282
238,533,7.23535,-1.67258,0,0,0,0,0,0,0,-1,1462,491,7.23539,1.67258
245,533,6.86682,-1.2301,0,0,0,0,0,0,0,-1,1469,491,6.86686,1.23011
252,533,6.63354,-3.07825,0,0,0,0,0,0,0,-1,1476,491,6.6335,3.07824
259,533,6.16431,-2.35037,0,0,0,0,0,0,0,-1,1483,491,6.1643,2.35037
266,533,5.68884,-1.6214,0,0,0,0,0,0,0,-1,1490,491,5.68885,1.6214
273,533,5.21399,-0.864227,0,0,0,0,0,0,0,-1,1497,491,5.21403,0.864227
280,533,1.41089,-1.97946,0,0,0,0,0,0,0,-1,1504,491,1.41087,1.97946
287,533,1.6814,-2.44443,0,0,0,0,0,0,0,-1,1511,491,1.6814,2.44444
294,533,2.2384,-2.57626,0,0,0,0,0,0,0,-1,1518,491,2.23839,2.57625
301,533,3.39941,-4.0817,0,0,0,0,0,0,0,-1,1525,491,3.3994,4.08171
308,533,4.13733,-4.14752,0,0,0,0,0,0,0,-1,1532,491,4.13727,4.14752
315,533,4.80762,-5.29349,0,0,0,0,0,0,0,-1,1539,491,4.80762,5.29347
322,533,5.47803,-6.43942,0,0,0,0,0,0,0,-1,1546,491,5.47798,6.43943
329,533,3.88477,-3.86301,0,0,0,0,0,0,0,-1,1553,491,3.88475,3.86299
336,533,6.70923,-13.2003,0,0,0,0,0,0,0,-1,1560,491,6.70926,13.2004
343,533,7.06677,-17.1133,0,0,0,0,0,0,0,-1,1567,491,7.06673,17.1133
350,533,10.0876,-23.7254,0,0,0,0,0,0,0,-1,1574,491,10.0877,23.7254
357,533,13.1891,-33.602,0,0,0,0,0,0,0,-1,1581,491,13.1891,33.602
364,533,13.0214,-33.453,0,0,0,0,0,0,0,-1,1588,491,13.0213,33.453
371,533,13.1116,-32.9152,0,0,0,0,0,0,0,-1,1595,491,13.1116,32.9152
378,533,13.1127,-32.2714,0.00100659,-0.00454679,-0.00396081,0.00306705,-0.00660725,-0.479686,0.00570876,0.0404098,1602,491,13.1127,32.2714
385,533,13.2271,-31.6427,0.000851375,-0.00316378,-0.00289186,0.0023642,-0.00467661,-0.481981,0.00413744,0.0259537,1609,491,13.2271,31.6427
392,533,13.1794,-31.0544,0.000694957,-0.00239644,-0.00206758,0.00173075,-0.00343223,-0.46442,0.00303432,0.014735,1616,491,13.1794,31.0544
399,533,13.1454,-30.4538,0.000682007,-0.00151922,-0.00151288,0.00145227,-0.00228948,-0.470928,0.00217825,0.0139183,1623,491,13.1454,30.4538
406,533,13.1554,-29.8173,0.000746895,-0.000738581,-0.00103945,0.0012817,-0.00127338,-0.475185,0.00147518,0.0156839,1630,491,13.1554,29.8173
413,533,13.1167,-29.1509,0.000873357,0.000182755,-0.000487718,0.00112564,-6.95245e-05,-0.477363,0.000774639,0.0146952,1637,491,13.1167,29.1509
420,533,13.0974,-28.5143,0.000952406,0.000744145,-9.51514e-05,0.000989332,0.000707219,-0.370186,0.000588505,0.0137069,1644,491,13.0974,28.5143
427,533,13.0844,-27.8538,0.000977802,0.00119682,0.000298051,0.00140484,0.000769778,0.961451,0.000812329,0.013745,1651,491,13.0843,27.8538
434,533,13.0433,-27.2249,0.000954658,0.00160372,0.000704427,0.00205478,0.000503602,1.00126,0.00123665,0.0134172,1658,491,13.0433,27.2249
441,533,13.0309,-26.5547,0.000956967,0.00203921,0.00119013,0.00280546,0.000190716,0.998765,0.00181009,0.0154361,1665,491,13.0309,26.5547
448,533,13.0242,-25.9171,0.000922022,0.00235653,0.00166504,0.00345223,-0.000173681,0.988773,0.00236151,0.0164108,1672,491,13.0241,25.9171
455,533,12.9774,-25.2648,0.000783235,0.0026872,0.00217249,0.00410713,-0.000636696,0.991897,0.00297313,0.0158664,1679,491,12.9774,25.2648
462,533,12.9121,-24.5092,0.000556054,0.00296244,0.00301265,0.00500328,-0.00148478,0.975384,0.0039252,0.0151859,1686,491,12.9121,24.5092
469,533,12.889,-23.8687,0.000274372,0.00363175,0.00416219,0.00644102,-0.0025349,0.97708,0.00534332,0.0097881,1693,491,12.889,23.8686
476,533,12.8846,-23.181,-4.32931e-05,0.0042924,0.0054633,0.00800224,-0.00375313,0.974271,0.00693318,0.011798,1700,491,12.8847,23.181
483,533,12.9077,-22.4186,-0.000451667,0.00509167,0.00703653,0.00988273,-0.00524273,0.973015,0.0088686,0.0209522,1707,491,12.9078,22.4186
490,533,13.0094,-21.5068,0,0,0,0,0,0,0,-1,1714,491,13.0094,21.5069
497,533,12.6981,-20.4078,0,0,0,0,0,0,0,-1,1721,491,12.6982,20.4078
504,533,12.9669,-18.957,0,0,0,0,0,0,0,-1,1728,491,12.9669,18.957
511,533,13.6221,-19.2798,0,0,0,0,0,0,0,-1,1735,491,13.6221,19.2798
518,533,13.4424,-18.4934,0,0,0,0,0,0,0,-1,1742,491,13.4424,18.4934
525,533,13.3901,-17.583,0,0,0,0,0,0,0,-1,1749,491,13.3902,17.583
532,533,13.1414,-16.4303,0,0,0,0,0,0,0,-1,1756,491,13.1414,16.4303
539,533,12.3359,-16.2024,0,0,0,0,0,0,0,-1,1763,491,12.3359,16.2024
546,533,3.59607,1.65799,0,0,0,0,0,0,0,-1,1770,491,3.59605,-1.658
553,533,0,0,0,0,0,0,0,0,0,-1,1777,491,0,0
560,533,0,0,0,0,0,0,0,0,0,-1,1784,491,0,0
567,533,0,0,0,0,0,0,0,0,0,-1,1791,491,0,0
574,533,0,0,0,0,0,0,0,0,0,-1,1798,491,0,0
581,533,0,0,0,0,0,0,0,0,0,-1,1805,491,0,0
588,533,0,0,0,0,0,0,0,0,0,-1,1812,491,0,0
595,533,0,0,0,0,0,0,0,0,0,-1,1819,491,0,0
602,533,0,0,0,0,0,0,0,0,0,-1,1826,491,0,0
609,533,0,0,0,0,0,0,0,0,0,-1,1833,491,0,0
616,533,0,0,0,0,0,0,0,0,0,-1,1840,491,0,0
623,533,0,0,0,0,0,0,0,0,0,-1,1847,491,0,0
630,533,0,0,0,0,0,0,0,0,0,-1,1854,491,0,0
637,533,0,0,0,0,0,0,0,0,0,-1,1861,491,0,0
644,533,0,0,0,0,0,0,0,0,0,-1,1868,491,0,0
651,533,0,0,0,0,0,0,0,0,0,-1,1875,491,0,0
658,533,0,0,0,0,0,0,0,0,0,-1,1882,491,0,0
665,533,0,0,0,0,0,0,0,0,0,-1,1889,491,0,0
672,533,0,0,0,0,0,0,0,0,0,-1,1896,491,0,0
679,533,0,0,0,0,0,0,0,0,0,-1,1903,491,0,0
686,533,0,0,0,0,0,0,0,0,0,-1,1910,491,0,0
693,533,0,0,0,0,0,0,0,0,0,-1,1917,491,0,0
700,533,0,0,0,0,0,0,0,0,0,-1,1924,491,0,0
707,533,0,0,0,0,0,0,0,0,0,-1,1931,491,0,0
714,533,0,0,0,0,0,0,0,0,0,-1,1938,491,0,0
721,533,0,0,0,0,0,0,0,0,0,-1,1945,491,0,0
728,533,0,0,0,0,0,0,0,0,0,-1,1952,491,0,0
735,533,0,0,0,0,0,0,0,0,0,-1,1959,491,0,0
742,533,0,0,0,0,0,0,0,0,0,-1,1966,491,0,0
749,533,0,0,0,0,0,0,0,0,0,-1,1973,491,0,0
756,533,0,0,0,0,0,0,0,0,0,-1,1980,491,0,0
763,533,0,0,0,0,0,0,0,0,0,-1,1987,491,0,0
770,533,0,0,0,0,0,0,0,0,0,-1,1994,491,0,0
777,533,0,0,0,0,0,0,0,0,0,-1,2001,491,0,0
784,533,0,0,0,0,0,0,0,0,0,-1,2008,491,0,0
791,533,0,0,0,0,0,0,0,0,0,-1,2015,491,0,0
798,533,0,0,0,0,0,0,0,0,0,-1,2022,491,0,0
805,533,0,0,0,0,0,0,0,0,0,-1,2029,491,0,0
812,533,0,0,0,0,0,0,0,0,0,-1,2036,491,0,0
-700,526,0,0,0,0,0,0,0,0,0,-1,524,498,0,0
-693,526,0,0,0,0,0,0,0,0,0,-1,531,498,0,0
-686,526,0,0,0,0,0,0,0,0,0,-1,538,498,0,0
-679,526,0,0,0,0,0,0,0,0,0,-1,545,498,0,0
-672,526,0,0,0,0,0,0,0,0,0,-1,552,498,0,0
-665,526,0,0,0,0,0,0,0,0,0,-1,559,498,0,0
-658,526,0,0,0,0,0,0,0,0,0,-1,566,498,0,0
-651,526,0,0,0,0,0,0,0,0,0,-1,573,498,0,0
-644,526,0,0,0,0,0,0,0,0,0,-1,580,498,0,0
-637,526,0,0,0,0,0,0,0,0,0,-1,587,498,0,0
-630,526,0,0,0,0,0,0,0,0,0,-1,594,498,0,0
-623,526,0,0,0,0,0,0,0,0,0,-1,601,498,0,0
-616,526,0,0,0,0,0,0,0,0,0,-1,608,498,0,0
-609,526,0,0,0,0,0,0,0,0,0,-1,615,498,0,0
-602,526,0,0,0,0,0,0,0,0,0,-1,622,498,0,0
-595,526,0,0,0,0,0,0,0,0,0,-1,629,498,0,0
-588,526,0,0,0,0,0,0,0,0,0,-1,636,498,0,0
-581,526,0,0,0,0,0,0,0,0,0,-1,643,498,0,0
-574,526,0,0,0,0,0,0,0,0,0,-1,650,498,0,0
-567,526,0,0,0,0,0,0,0,0,0,-1,657,498,0,0
-560,526,0,0,0,0,0,0,0,0,0,-1,664,498,0,0
-553,526,0,0,0,0,0,0,0,0,0,-1,671,498,0,0
-546,526,0,0,0,0,0,0,0,0,0,-1,678,498,0,0
-539,526,0,0,0,0,0,0,0,0,0,-1,685,498,0,0
-532,526,0,0,0,0,0,0,0,0,0,-1,692,498,0,0
-525,526,0,0,0,0,0,0,0,0,0,-1,699,498,0,0
-518,526,0,0,0,0,0,0,0,0,0,-1,706,498,0,0
-511,526,0,0,0,0,0,0,0,0,0,-1,713,498,0,0
-504,526,0,0,0,0,0,0,0,0,0,-1,720,498,0,0
-497,526,0,0,0,0,0,0,0,0,0,-1,727,498,0,0
-490,526,0,0,0,0,0,0,0,0,0,-1,734,498,0,0
-483,526,0,0,0,0,0,0,0,0,0,-1,741,498,0,0
-476,526,0,0,0,0,0,0,0,0,0,-1,748,498,0,0
-469,526,0,0,0,0,0,0,0,0,0,-1,755,498,0,0
-462,526,0,0,0,0,0,0,0,0,0,-1,762,498,0,0
-455,526,0,0,0,0,0,0,0,0,0,-1,769,498,0,0
-448,526,0,0,0,0,0,0,0,0,0,-1,776,498,0,0
-441,526,0,0,0,0,0,0,0,0,0,-1,783,498,0,0
-434,526,-0.153564,-5.96649,0,0,0,0,0,0,0,-1,790,498,-0.153589,5.9665
-427,526,1.23206,-4.59808,0,0,0,0,0,0,0,-1,797,498,1.23208,4.59809
-420,526,-1.76373,-11.6241,0,0,0,0,0,0,0,-1,804,498,-1.76373,11.6241
-413,526,-1.38965,-11.7916,0,0,0,0,0,0,0,-1,811,498,-1.38963,11.7916
-406,526,-1.35187,-12.5182,0,0,0,0,0,0,0,-1,818,498,-1.35185,12.5181
-399,526,-1.32715,-13.2116,0,0,0,0,0,0,0,-1,825,498,-1.32713,13.2116
-392,526,0.197571,-15.303,0,0,0,0,0,0,0,-1,832,498,0.197598,15.303
-385,526,-1.63165,-19.6555,0,0,0,0,0,0,0,-1,839,498,-1.63167,19.6555
-378,526,-1.36523,-20.5896,0,0,0,0,0,0,0,-1,846,498,-1.36521,20.5896
-371,526,-1.30499,-21.6048,0.00922063,0.0235398,-0.0154365,0.0333962,-0.000635818,-1.00254,0.0224791,0.0408067,853,498,-1.30498,21.6048
-364,526,-1.22705,-22.6202,0.00738649,0.0202301,-0.0125019,0.0278631,-0.000246506,-1.02266,0.0186581,0.0221658,860,498,-1.22702,22.6202
-357,526,-1.1618,-23.4399,0.00589061,0.0170328,-0.0101244,0.0230177,-9.4262e-05,-1.03692,0.0153766,0.0140355,867,498,-1.16183,23.4399
-350,526,-1.18292,-24.1344,0.00451132,0.0140125,-0.00790581,0.0184852,3.85595e-05,-1.05594,0.0123106,0.0130667,874,498,-1.1829,24.1344
-343,526,-1.24725,-24.8248,0.0033983,0.0112538,-0.00601981,0.0145139,0.000138189,-1.07445,0.00963021,0.0175997,881,498,-1.24727,24.8248
-336,526,-1.27808,-25.4944,0.00253996,0.00883951,-0.00440292,0.0111033,0.000276165,-1.09589,0.00731188,0.0176523,888,498,-1.27807,25.4944
-329,526,-1.29059,-26.14,0.00190039,0.0066147,-0.00303769,0.00810251,0.000412581,-1.11536,0.00526953,0.0156565,895,498,-1.29059,26.1399
-322,526,-1.31689,-26.7928,0.00138147,0.00451985,-0.00180106,0.00533941,0.000561898,-1.14375,0.00338788,0.0102164,902,498,-1.31692,26.7928
-315,526,-1.3548,-27.4562,0.00108793,0.00270975,-0.000793255,0.00303323,0.000764457,-1.1836,0.00182161,0.0091719,909,498,-1.35482,27.4562
-308,526,-1.38403,-28.1015,0.00099266,0.00118945,-2.64175e-05,0.00119293,0.000989176,-1.43965,0.000736821,0.00891966,916,498,-1.38405,28.1015
-301,526,-1.42908,-28.694,0.00101109,-0.000161779,0.000587231,0.00125456,-0.000405252,0.393039,0.000999236,0.0107019,923,498,-1.42908,28.694
-294,526,-1.43262,-29.3068,0.00121079,-0.00122616,0.00120727,0.00170759,-0.00172296,0.390388,0.00198064,0.0103489,930,498,-1.43263,29.3068
-287,526,-1.43738,-29.9388,0.00151555,-0.00224974,0.00174773,0.00220175,-0.00293593,0.374126,0.00297632,0.0102732,937,498,-1.43737,29.9388
-280,526,-1.47437,-30.5582,0.00162018,-0.00362306,0.00231258,0.00249441,-0.00449729,0.361424,0.00409149,0.0123348,944,498,-1.47437,30.5581
-273,526,-1.46863,-31.1745,0.00200311,-0.00523162,0.00308629,0.0031408,-0.00636931,0.353171,0.00559513,0.010743,951,498,-1.4686,31.1745
-266,526,-1.47626,-31.7783,0.00309637,-0.00701142,0.00397416,0.00447176,-0.00838682,0.333183,0.00753774,0.0147398,958,498,-1.47624,31.7783
-259,526,-1.41382,-32.3511,0.00429487,-0.00951825,0.00473769,0.00576365,-0.010987,0.300623,0.00982649,0.0387528,965,498,-1.41381,32.3511
-252,526,-1.45013,-33.0121,0,0,0,0,0,0,0,-1,972,498,-1.45016,33.0121
-245,526,-1.55029,-33.6644,0,0,0,0,0,0,0,-1,979,498,-1.55027,33.6644
-238,526,-1.24603,-33.968,0,0,0,0,0,0,0,-1,986,498,-1.24603,33.9679
-231,526,-1.19342,-34.0001,0,0,0,0,0,0,0,-1,993,498,-1.19343,34.0001
-224,526,-1.58368,-34.5336,0,0,0,0,0,0,0,-1,1000,498,-1.5837,34.5336
-217,526,-1.16138,-35.1727,0,0,0,0,0,0,0,-1,1007,498,-1.16135,35.1727
-210,526,-0.922241,-35.3857,0,0,0,0,0,0,0,-1,1014,498,-0.922228,35.3858
-203,526,-0.659302,-18.8818,0,0,0,0,0,0,0,-1,1021,498,-0.659273,18.8818
-196,526,-0.328247,-12.179,0,0,0,0,0,0,0,-1,1028,498,-0.328238,12.179
-189,526,0.401245,-5.96826,0,0,0,0,0,0,0,-1,1035,498,0.401197,5.96826
-182,526,1.7323,-2.99405,0,0,0,0,0,0,0,-1,1042,498,1.73226,2.99404
-175,526,2.27637,-2.07983,0,0,0,0,0,0,0,-1,1049,498,2.27639,2.07984
-168,526,2.12036,-1.66049,0,0,0,0,0,0,0,-1,1056,498,2.12035,1.66048
-161,526,2.09082,-1.20572,0,0,0,0,0,0,0,-1,1063,498,2.09086,1.2057
-154,526,-1.3446,-5.37799,0,0,0,0,0,0,0,-1,1070,498,-1.34457,5.37799
-147,526,-0.472656,-6.64996,0,0,0,0,0,0,0,-1,1077,498,-0.472659,6.64997
-140,526,0.422852,-8.03339,0,0,0,0,0,0,0,-1,1084,498,0.422844,8.0334
-133,526,1.09583,-9.2215,0,0,0,0,0,0,0,-1,1091,498,1.09581,9.2215
-126,526,3.42529,-2.36053,0,0,0,0,0,0,0,-1,1098,498,3.42523,2.36052
-119,526,2.7771,-0.764099,0,0,0,0,0,0,0,-1,1105,498,2.7771,0.764107
-112,526,2.57715,-1.1893,0,0,0,0,0,0,0,-1,1112,498,2.57718,1.1893
-105,526,0,0,0,0,0,0,0,0,0,-1,1119,498,0,0
-98,526,0,0,0,0,0,0,0,0,0,-1,1126,498,0,0
-91,526,0,0,0,0,0,0,0,0,0,-1,1133,498,0,0
-84,526,0,0,0,0,0,0,0,0,0,-1,1140,498,0,0
-77,526,0,0,0,0,0,0,0,0,0,-1,1147,498,0,0
-70,526,0,0,0,0,0,0,0,0,0,-1,1154,498,0,0
-63,526,0,0,0,0,0,0,0,0,0,-1,1161,498,0,0
-56,526,0,0,0,0,0,0,0,0,0,-1,1168,498,0,0
-49,526,0,0,0,0,0,0,0,0,0,-1,1175,498,0,0
-42,526,0,0,0,0,0,0,0,0,0,-1,1182,498,0,0
-35,526,0,0,0,0,0,0,0,0,0,-1,1189,498,0,0
-28,526,0,0,0,0,0,0,0,0,0,-1,1196,498,0,0
-21,526,0,0,0,0,0,0,0,0,0,-1,1203,498,0,0
-14,526,0,0,0,0,0,0,0,0,0,-1,1210,498,0,0
-7,526,0,0,0,0,0,0,0,0,0,-1,1217,498,0,0
0,526,0,0,0,0,0,0,0,0,0,-1,1224,498,0,0
7,526,0,0,0,0,0,0,0,0,0,-1,1231,498,0,0
14,526,0,0,0,0,0,0,0,0,0,-1,1238,498,0,0
21,526,0,0,0,0,0,0,0,0,0,-1,1245,498,0,0
28,526,0,0,0,0,0,0,0,0,0,-1,1252,498,0,0
35,526,0,0,0,0,0,0,0,0,0,-1,1259,498,0,0
42,526,0,0,0,0,0,0,0,0,0,-1,1266,498,0,0
49,526,0,0,0,0,0,0,0,0,0,-1,1273,498,0,0
56,526,0,0,0,0,0,0,0,0,0,-1,1280,498,0,0
63,526,0,0,0,0,0,0,0,0,0,-1,1287,498,0,0
70,526,0,0,0,0,0,0,0,0,0,-1,1294,498,0,0
77,526,0,0,0,0,0,0,0,0,0,-1,1301,498,0,0
84,526,0,0,0,0,0,0,0,0,0,-1,1308,498,0,0
91,526,0,0,0,0,0,0,0,0,0,-1,1315,498,0,0
98,526,0,0,0,0,0,0,0,0,0,-1,1322,498,0,0
105,526,0,0,0,0,0,0,0,0,0,-1,1329,498,0,0
112,526,0,0,0,0,0,0,0,0,0,-1,1336,498,0,0
119,526,0,0,0,0,0,0,0,0,0,-1,1343,498,0,0
126,526,0,0,0,0,0,0,0,0,0,-1,1350,498,0,0
133,526,0,0,0,0,0,0,0,0,0,-1,1357,498,0,0
140,526,0,0,0,0,0,0,0,0,0,-1,1364,498,0,0
147,526,0,0,0,0,0,0,0,0,0,-1,1371,498,0,0
154,526,0,0,0,0,0,0,0,0,0,-1,1378,498,0,0
161,526,0,0,0,0,0,0,0,0,0,-1,1385,498,0,0
168,526,0,0,0,0,0,0,0,0,0,-1,1392,498,0,0
175,526,0,0,0,0,0,0,0,0,0,-1,1399,498,0,0
182,526,0,0,0,0,0,0,0,0,0,-1,1406,498,0,0
189,526,0,0,0,0,0,0,0,0,0,-1,1413,498,0,0
196,526,0,0,0,0,0,0,0,0,0,-1,1420,498,0,0
203,526,0,0,0,0,0,0,0,0,0,-1,1427,498,0,0
210,526,0,0,0,0,0,0,0,0,0,-1,1434,498,0,0
217,526,0,0,0,0,0,0,0,0,0,-1,1441,498,0,0
224,526,0,0,0,0,0,0,0,0,0,-1,1448,498,0,0
231,526,7.93237,-1.30618,0,0,0,0,0,0,0,-1,1455,498,7.93238,1.30618
238,526,7.97717,-1.08197,0,0,0,0,0,0,0,-1,1462,498,7.97723,1.08196
245,526,7.2793,-0.792938,0,0,0,0,0,0,0,-1,1469,498,7.27931,0.792926
252,526,6.73523,-2.23608,0,0,0,0,0,0,0,-1,1476,498,6.73525,2.23608
259,526,6.22949,-1.84967,0,0,0,0,0,0,0,-1,1483,498,6.22953,1.84968
266,526,5.72375,-1.46329,0,0,0,0,0,0,0,-1,1490,498,5.72381,1.46328
273,526,4.33984,0.49173,0,0,0,0,0,0,0,-1,1497,498,4.33979,-0.491727
280,526,1.4585,-1.59897,0,0,0,0,0,0,0,-1,1504,498,1.45846,1.59895
287,526,1.46411,-2.40134,0,0,0,0,0,0,0,-1,1511,498,1.46406,2.40133
294,526,5.57471,-4.59085,0,0,0,0,0,0,0,-1,1518,498,5.57466,4.59084
301,526,4.42786,-3.99677,0,0,0,0,0,0,0,-1,1525,498,4.42788,3.99676
308,526,5.79529,-4.19366,0,0,0,0,0,0,0,-1,1532,498,5.79528,4.19368
315,526,5.09851,-5.20068,0,0,0,0,0,0,0,-1,1539,498,5.09851,5.20068
322,526,5.50708,-4.72348,0,0,0,0,0,0,0,-1,1546,498,5.50713,4.72347
329,526,3.88672,-4.345,0,0,0,0,0,0,0,-1,1553,498,3.88674,4.34501
336,526,4.97876,-2.23828,0,0,0,0,0,0,0,-1,1560,498,4.97877,2.23828
343,526,3.31665,-2.69696,0,0,0,0,0,0,0,-1,1567,498,3.31667,2.69696
350,526,6.06287,-6.12015,0,0,0,0,0,0,0,-1,1574,498,6.06286,6.12014
357,526,12.9944,-29.1665,0,0,0,0,0,0,0,-1,1581,498,12.9943,29.1665
364,526,13.2582,-29.5416,0,0,0,0,0,0,0,-1,1588,498,13.2581,29.5416
371,526,12.4481,-29.0131,0,0,0,0,0,0,0,-1,1595,498,12.4481,29.0131
378,526,13.6134,-32.6213,0,0,0,0,0,0,0,-1,1602,498,13.6134,32.6213
385,526,13.8263,-31.6754,0,0,0,0,0,0,0,-1,1609,498,13.8263,31.6754
392,526,13.903,-31.0479,0.000715521,-0.00295437,-0.00290288,0.00231478,-0.00455362,-0.50355,0.00403509,0.0366467,1616,498,13.903,31.0478
399,526,13.7705,-30.4256,0.000709758,-0.00203863,-0.00230188,0.00201643,-0.0033453,-0.516297,0.00312713,0.020313,1623,498,13.7705,30.4256
406,526,13.7953,-29.7523,0.000816533,-0.00130114,-0.00177966,0.00182852,-0.00231313,-0.517044,0.00239663,0.0136642,1630,498,13.7952,29.7523
413,526,13.766,-29.1227,0.000996913,-0.00036415,-0.00112392,0.00163027,-0.000997511,-0.513171,0.00153174,0.0133758,1637,498,13.766,29.1227
420,526,13.744,-28.4901,0.00111073,0.00014974,-0.000670393,0.00145504,-0.000194568,-0.474462,0.00104096,0.0134924,1644,498,13.744,28.4901
427,526,13.7264,-27.8448,0.00113074,0.000590633,-0.000226273,0.001213,0.000508367,-0.348709,0.000703376,0.0146581,1651,498,13.7264,27.8448
434,526,13.6896,-27.1924,0.00106857,0.000979828,0.000203432,0.00123241,0.000815983,0.678027,0.000723891,0.0135232,1658,498,13.6895,27.1924
441,526,13.6605,-26.5128,0.00107559,0.00139349,0.00071314,0.00196518,0.000503902,0.895049,0.00117862,0.0116713,1665,498,13.6605,26.5127
448,526,13.6511,-25.876,0.00109707,0.00169567,0.00120556,0.00263853,0.000154217,0.90707,0.00170993,0.0109971,1672,498,13.6512,25.876
455,526,13.6161,-25.2335,0.0010399,0.00205747,0.00172312,0.00334535,-0.000247985,0.928954,0.00231732,0.0140587,1679,498,13.6161,25.2335
462,526,13.5918,-24.5252,0.000905555,0.00233882,0.00249583,0.00421886,-0.000974486,0.925203,0.00318745,0.0107604,1686,498,13.5918,24.5252
469,526,13.5853,-23.875,0.00072724,0.00295101,0.00353083,0.00554089,-0.00186263,0.937937,0.0044468,0.00784263,1693,498,13.5853,23.875
476,526,13.5361,-23.1959,0.000524334,0.00356654,0.00469825,0.00698379,-0.00289291,0.941953,0.0058631,0.00931419,1700,498,13.5362,23.1959
483,526,13.5154,-22.4221,0.000260438,0.00425668,0.00605033,0.00863029,-0.00411318,0.944885,0.00750994,0.0132329,1707,498,13.5153,22.4221
490,526,13.5905,-21.6092,-4.97317e-05,0.00512594,0.00784544,0.0107993,-0.00572312,0.944705,0.00968815,0.0311035,1714,498,13.5904,21.6092
497,526,13.6936,-20.9148,0,0,0,0,0,0,0,-1,1721,498,13.6936,20.9148
504,526,13.7578,-20.3668,0,0,0,0,0,0,0,-1,1728,498,13.7578,20.3668
511,526,13.8173,-19.5287,-0.00179048,0.00882914,0.0152424,0.0196602,-0.0126215,0.953003,0.0187849,0.0485048,1735,498,13.8172,19.5287
518,526,13.6525,-18.5331,-0.00258892,0.0107841,0.0187264,0.0239819,-0.0157867,0.956875,0.0231224,0.046845,1742,498,13.6524,18.5331
525,526,13.5309,-17.4991,0,0,0,0,0,0,0,-1,1749,498,13.5309,17.4992
532,526,13.2178,-16.2931,0,0,0,0,0,0,0,-1,1756,498,13.2177,16.2931
539,526,12.5284,-15.0934,0,0,0,0,0,0,0,-1,1763,498,12.5285,15.0934
546,526,12.3469,-15.8186,0,0,0,0,0,0,0,-1,1770,498,12.3469,15.8186
553,526,3.40796,1.37137,0,0,0,0,0,0,0,-1,1777,498,3.40792,-1.37138
560,526,0,0,0,0,0,0,0,0,0,-1,1784,498,0,0
567,526,0,0,0,0,0,0,0,0,0,-1,1791,498,0,0
574,526,0,0,0,0,0,0,0,0,0,-1,1798,498,0,0
581,526,0,0,0,0,0,0,0,0,0,-1,1805,498,0,0
588,526,0,0,0,0,0,0,0,0,0,-1,1812,498,0,0
595,526,0,0,0,0,0,0,0,0,0,-1,1819,498,0,0
602,526,0,0,0,0,0,0,0,0,0,-1,1826,498,0,0
609,526,0,0,0,0,0,0,0,0,0,-1,1833,498,0,0
616,526,0,0,0,0,0,0,0,0,0,-1,1840,498,0,0
623,526,0,0,0,0,0,0,0,0,0,-1,1847,498,0,0
630,526,0,0,0,0,0,0,0,0,0,-1,1854,498,0,0
637,526,0,0,0,0,0,0,0,0,0,-1,1861,498,0,0
644,526,0,0,0,0,0,0,0,0,0,-1,1868,498,0,0
651,526,0,0,0,0,0,0,0,0,0,-1,1875,498,0,0
658,526,0,0,0,0,0,0,0,0,0,-1,1882,498,0,0
665,526,0,0,0,0,0,0,0,0,0,-1,1889,498,0,0
672,526,0,0,0,0,0,0,0,0,0,-1,1896,498,0,0
679,526,0,0,0,0,0,0,0,0,0,-1,1903,498,0,0
686,526,0,0,0,0,0,0,0,0,0,-1,1910,498,0,0
693,526,0,0,0,0,0,0,0,0,0,-1,1917,498,0,0
700,526,0,0,0,0,0,0,0,0,0,-1,1924,498,0,0
707,526,0,0,0,0,0,0,0,0,0,-1,1931,498,0,0
714,526,0,0,0,0,0,0,0,0,0,-1,1938,498,0,0
721,526,0,0,0,0,0,0,0,0,0,-1,1945,498,0,0
728,526,0,0,0,0,0,0,0,0,0,-1,1952,498,0,0
735,526,0,0,0,0,0,0,0,0,0,-1,1959,498,0,0
742,526,0,0,0,0,0,0,0,0,0,-1,1966,498,0,0
749,526,0,0,0,0,0,0,0,0,0,-1,1973,498,0,0
756,526,0,0,0,0,0,0,0,0,0,-1,1980,498,0,0
763,526,0,0,0,0,0,0,0,0,0,-1,1987,498,0,0
770,526,0,0,0,0,0,0,0,0,0,-1,1994,498,0,0
777,526,0,0,0,0,0,0,0,0,0,-1,2001,498,0,0
784,526,0,0,0,0,0,0,0,0,0,-1,2008,498,0,0
791,526,0,0,0,0,0,0,0,0,0,-1,2015,498,0,0
798,526,0,0,0,0,0,0,0,0,0,-1,2022,498,0,0
805,526,0,0,0,0,0,0,0,0,0,-1,2029,498,0,0
812,526,0,0,0,0,0,0,0,0,0,-1,2036,498,0,0
-700,519,0,0,0,0,0,0,0,0,0,-1,524,505,0,0
-693,519,0,0,0,0,0,0,0,0,0,-1,531,505,0,0
-686,519,0,0,0,0,0,0,0,0,0,-1,538,505,0,0
-679,519,0,0,0,0,0,0,0,0,0,-1,545,505,0,0
-672,519,0,0,0,0,0,0,0,0,0,-1,552,505,0,0
-665,519,0,0,0,0,0,0,0,0,0,-1,559,505,0,0
-658,519,0,0,0,0,0,0,0,0,0,-1,566,505,0,0
-651,519,0,0,0,0,0,0,0,0,0,-1,573,505,0,0
-644,519,0,0,0,0,0,0,0,0,0,-1,580,505,0,0
-637,519,0,0,0,0,0,0,0,0,0,-1,587,505,0,0
-630,519,0,0,0,0,0,0,0,0,0,-1,594,505,0,0
-623,519,0,0,0,0,0,0,0,0,0,-1,601,505,0,0
-616,519,0,0,0,0,0,0,0,0,0,-1,608,505,0,0
-609,519,0,0,0,0,0,0,0,0,0,-1,615,505,0,0
-602,519,0,0,0,0,0,0,0,0,0,-1,622,505,0,0
-595,519,0,0,0,0,0,0,0,0,0,-1,629,505,0,0
-588,519,0,0,0,0,0,0,0,0,0,-1,636,505,0,0
-581,519,0,0,0,0,0,0,0,0,0,-1,643,505,0,0
-574,519,0,0,0,0,0,0,0,0,0,-1,650,505,0,0
-567,519,0,0,0,0,0,0,0,0,0,-1,657,505,0,0
-560,519,0,0,0,0,0,0,0,0,0,-1,664,505,0,0
-553,519,0,0,0,0,0,0,0,0,0,-1,671,505,0,0
-546,519,0,0,0,0,0,0,0,0,0,-1,678,505,0,0
-539,519,0,0,0,0,0,0,0,0,0,-1,685,505,0,0
-532,519,0,0,0,0,0,0,0,0,0,-1,692,505,0,0
-525,519,0,0,0,0,0,0,0,0,0,-1,699,505,0,0
-518,519,0,0,0,0,0,0,0,0,0,-1,706,505,0,0
-511,519,0,0,0,0,0,0,0,0,0,-1,713,505,0,0
-504,519,0,0,0,0,0,0,0,0,0,-1,720,505,0,0
-497,519,0,0,0,0,0,0,0,0,0,-1,727,505,0,0
-490,519,0,0,0,0,0,0,0,0,0,-1,734,505,0,0
-483,519,0,0,0,0,0,0,0,0,0,-1,741,505,0,0
-476,519,0,0,0,0,0,0,0,0,0,-1,748,505,0,0
-469,519,0,0,0,0,0,0,0,0,0,-1,755,505,0,0
-462,519,0,0,0,0,0,0,0,0,0,-1,762,505,0,0
-455,519,0,0,0,0,0,0,0,0,0,-1,769,505,0,0
-448,519,0,0,0,0,0,0,0,0,0,-1,776,505,0,0
-441,519,1.34839,-5.29346,0,0,0,0,0,0,0,-1,783,505,1.3484,5.29347
-434,519,0.949585,-5.77313,0,0,0,0,0,0,0,-1,790,505,0.949598,5.77315
-427,519,-0.0523682,-9.31567,0,0,0,0,0,0,0,-1,797,505,-0.0523854,9.31568
-420,519,-2.38867,-12.1938,0,0,0,0,0,0,0,-1,804,505,-2.38867,12.1938
-413,519,-2.2298,-12.4998,0,0,0,0,0,0,0,-1,811,505,-2.22979,12.4998
-406,519,-1.44373,-12.3475,0,0,0,0,0,0,0,-1,818,505,-1.44376,12.3475
-399,519,-1.60516,-15.0849,0,0,0,0,0,0,0,-1,825,505,-1.60518,15.0849
-392,519,-1.55835,-19.7324,0,0,0,0,0,0,0,-1,832,505,-1.55838,19.7324
-385,519,-2.44189,-20.0349,0,0,0,0,0,0,0,-1,839,505,-2.44187,20.0349
-378,519,-2.11761,-20.9128,0.00863968,0.0211288,-0.0151299,0.0312522,-0.00148367,-0.981115,0.0213465,0.0344047,846,505,-2.1176,20.9128
-371,519,-1.81543,-21.8258,0.00729515,0.0183046,-0.0125733,0.0265253,-0.00092561,-0.991734,0.018,0.018701,853,505,-1.81542,21.8258
-364,519,-1.78967,-22.7012,0.00594407,0.0155646,-0.0102086,0.0220395,-0.00053083,-1.00557,0.0148731,0.0112255,860,505,-1.78966,22.7012
-357,519,-1.80603,-23.4553,0.00470892,0.0128536,-0.00812879,0.017873,-0.000310567,-1.01761,0.0120202,0.0101878,867,505,-1.80601,23.4553
-350,519,-1.84222,-24.1211,0.00358319,0.0103239,-0.00621254,0.0140214,-0.00011435,-1.03393,0.00938595,0.0128662,874,505,-1.84224,24.1211
-343,519,-1.91058,-24.7607,0.00267611,0.00789698,-0.00452468,0.0105103,6.28363e-05,-1.04704,0.00698599,0.0173059,881,505,-1.91061,24.7607
-336,519,-1.96246,-25.4363,0.00195386,0.00577088,-0.00305585,0.00746524,0.000259511,-1.06453,0.00489262,0.0174818,888,505,-1.96245,25.4363
-329,519,-1.95068,-26.0976,0.00143475,0.00381396,-0.00180391,0.00478519,0.000463511,-1.0769,0.0030474,0.014133,895,505,-1.95069,26.0976
-322,519,-1.95789,-26.7517,0.00107469,0.00199981,-0.000685324,0.00236407,0.000710434,-1.08226,0.00140064,0.0110227,902,505,-1.95787,26.7517
-315,519,-1.99506,-27.408,0.000941467,0.000434024,0.000225141,0.00102695,0.000348536,0.362892,0.000603023,0.00884804,909,505,-1.99506,27.408
-308,519,-2.02002,-28.0789,0.00103969,-0.000868614,0.000899381,0.00139676,-0.00122568,0.377928,0.00151514,0.00779572,916,505,-2.02001,28.0789
-301,519,-2.06604,-28.7035,0.00124121,-0.00193737,0.00142907,0.00178923,-0.00248539,0.366182,0.00247883,0.0126049,923,505,-2.06604,28.7035
-294,519,-2.07831,-29.2836,0.0016097,-0.00275277,0.0019745,0.00237064,-0.00351372,0.367845,0.00341864,0.0163615,930,505,-2.07829,29.2836
-287,519,-2.09186,-29.9048,0.00211106,-0.00361505,0.00241669,0.00299466,-0.00449866,0.350529,0.00435522,0.0125569,937,505,-2.09185,29.9048
-280,519,-2.13281,-30.5385,0.00233461,-0.00498479,0.00296701,0.00338623,-0.00603641,0.340623,0.00551142,0.0210927,944,505,-2.13283,30.5384
-273,519,-2.08368,-31.1964,0.00287186,-0.00670113,0.00375736,0.00417045,-0.00799973,0.332761,0.00714145,0.0427025,951,505,-2.08367,31.1964
-266,519,-2.11395,-31.8424,0,0,0,0,0,0,0,-1,958,505,-2.11394,31.8424
-259,519,-1.93768,-32.4906,0,0,0,0,0,0,0,-1,965,505,-1.9377,32.4906
-252,519,-1.84009,-26.8372,0,0,0,0,0,0,0,-1,972,505,-1.8401,26.8372
-245,519,-1.23254,-23.2696,0,0,0,0,0,0,0,-1,979,505,-1.23256,23.2696
-238,519,-1.5415,-31.0349,0,0,0,0,0,0,0,-1,986,505,-1.5415,31.0348
-231,519,-0.726379,-33.2872,0,0,0,0,0,0,0,-1,993,505,-0.726352,33.2871
-224,519,-0.81958,-33.8002,0,0,0,0,0,0,0,-1,1000,505,-0.81959,33.8002
-217,519,-0.797974,-34.3293,0,0,0,0,0,0,0,-1,1007,505,-0.79796,34.3293
-210,519,-0.883362,-34.799,0,0,0,0,0,0,0,-1,1014,505,-0.883379,34.799
-203,519,-0.513611,-5.39017,0,0,0,0,0,0,0,-1,1021,505,-0.513585,5.39017
-196,519,-0.374023,-5.41635,0,0,0,0,0,0,0,-1,1028,505,-0.374047,5.41635
-189,519,-0.234497,-5.44254,0,0,0,0,0,0,0,-1,1035,505,-0.234508,5.44253
-182,519,2.76697,-1.19659,0,0,0,0,0,0,0,-1,1042,505,2.76696,1.19661
-175,519,2.31323,-0.960938,0,0,0,0,0,0,0,-1,1049,505,2.31319,0.960941
-168,519,2.01074,-0.721405,0,0,0,0,0,0,0,-1,1056,505,2.01072,0.721407
-161,519,2.32056,-0.522339,0,0,0,0,0,0,0,-1,1063,505,2.32057,0.522328
-154,519,2.55566,0.116669,0,0,0,0,0,0,0,-1,1070,505,2.55563,-0.116661
-147,519,-0.55127,-6.14001,0,0,0,0,0,0,0,-1,1077,505,-0.551252,6.14001
-140,519,0.240601,-7.53503,0,0,0,0,0,0,0,-1,1084,505,0.240653,7.53501
-133,519,2.70911,-4.4516,0,0,0,0,0,0,0,-1,1091,505,2.70915,4.45161
-126,519,0,0,0,0,0,0,0,0,0,-1,1098,505,0,0
-119,519,0,0,0,0,0,0,0,0,0,-1,1105,505,0,0
-112,519,0,0,0,0,0,0,0,0,0,-1,1112,505,0,0
-105,519,0,0,0,0,0,0,0,0,0,-1,1119,505,0,0
-98,519,0,0,0,0,0,0,0,0,0,-1,1126,505,0,0
-91,519,0,0,0,0,0,0,0,0,0,-1,1133,505,0,0
-84,519,0,0,0,0,0,0,0,0,0,-1,1140,505,0,0
-77,519,0,0,0,0,0,0,0,0,0,-1,1147,505,0,0
-70,519,0,0,0,0,0,0,0,0,0,-1,1154,505,0,0
-63,519,0,0,0,0,0,0,0,0,0,-1,1161,505,0,0
-56,519,0,0,0,0,0,0,0,0,0,-1,1168,505,0,0
-49,519,0,0,0,0,0,0,0,0,0,-1,1175,505,0,0
-42,519,0,0,0,0,0,0,0,0,0,-1,1182,505,0,0
-35,519,0,0,0,0,0,0,0,0,0,-1,1189,505,0,0
-28,519,0,0,0,0,0,0,0,0,0,-1,1196,505,0,0
-21,519,0,0,0,0,0,0,0,0,0,-1,1203,505,0,0
-14,519,0,0,0,0,0,0,0,0,0,-1,1210,505,0,0
-7,519,0,0,0,0,0,0,0,0,0,-1,1217,505,0,0
0,519,0,0,0,0,0,0,0,0,0,-1,1224,505,0,0
7,519,0,0,0,0,0,0,0,0,0,-1,1231,505,0,0
14,519,0,0,0,0,0,0,0,0,0,-1,1238,505,0,0
21,519,0,0,0,0,0,0,0,0,0,-1,1245,505,0,0
28,519,0,0,0,0,0,0,0,0,0,-1,1252,505,0,0
35,519,0,0,0,0,0,0,0,0,0,-1,1259,505,0,0
42,519,0,0,0,0,0,0,0,0,0,-1,1266,505,0,0
49,519,0,0,0,0,0,0,0,0,0,-1,1273,505,0,0
56,519,0,0,0,0,0,0,0,0,0,-1,1280,505,0,0
63,519,0,0,0,0,0,0,0,0,0,-1,1287,505,0,0
70,519,0,0,0,0,0,0,0,0,0,-1,1294,505,0,0
77,519,0,0,0,0,0,0,0,0,0,-1,1301,505,0,0
84,519,0,0,0,0,0,0,0,0,0,-1,1308,505,0,0
91,519,0,0,0,0,0,0,0,0,0,-1,1315,505,0,0
98,519,0,0,0,0,0,0,0,0,0,-1,1322,505,0,0
105,519,0,0,0,0,0,0,0,0,0,-1,1329,505,0,0
112,519,0,0,0,0,0,0,0,0,0,-1,1336,505,0,0
119,519,0,0,0,0,0,0,0,0,0,-1,1343,505,0,0
126,519,0,0,0,0,0,0,0,0,0,-1,1350,505,0,0
133,519,0,0,0,0,0,0,0,0,0,-1,1357,505,0,0
140,519,0,0,0,0,0,0,0,0,0,-1,1364,505,0,0
147,519,0,0,0,0,0,0,0,0,0,-1,1371,505,0,0
154,519,0,0,0,0,0,0,0,0,0,-1,1378,505,0,0
161,519,0,0,0,0,0,0,0,0,0,-1,1385,505,0,0
168,519,0,0,0,0,0,0,0,0,0,-1,1392,505,0,0
175,519,0,0,0,0,0,0,0,0,0,-1,1399,505,0,0
182,519,0,0,0,0,0,0,0,0,0,-1,1406,505,0,0
189,519,0,0,0,0,0,0,0,0,0,-1,1413,505,0,0
196,519,0,0,0,0,0,0,0,0,0,-1,1420,505,0,0
203,519,0,0,0,0,0,0,0,0,0,-1,1427,505,0,0
210,519,0,0,0,0,0,0,0,0,0,-1,1434,505,0,0
217,519,0,0,0,0,0,0,0,0,0,-1,1441,505,0,0
224,519,0,0,0,0,0,0,0,0,0,-1,1448,505,0,0
231,519,0,0,0,0,0,0,0,0,0,-1,1455,505,0,0
238,519,0,0,0,0,0,0,0,0,0,-1,1462,505,0,0
245,519,0,0,0,0,0,0,0,0,0,-1,1469,505,0,0
252,519,5.26208,0.0938416,0,0,0,0,0,0,0,-1,1476,505,5.26207,-0.0938493
259,519,6.14246,-1.36441,0,0,0,0,0,0,0,-1,1483,505,6.14241,1.36441
266,519,5.31909,-0.400787,0,0,0,0,0,0,0,-1,1490,505,5.31912,0.400773
273,519,4.02393,0.325531,0,0,0,0,0,0,0,-1,1497,505,4.0239,-0.325522
280,519,4.68848,0.53006,0,0,0,0,0,0,0,-1,1504,505,4.68842,-0.530073
287,519,7.9519,-3.80801,0,0,0,0,0,0,0,-1,1511,505,7.95193,3.808
294,519,6.92273,-3.38889,0,0,0,0,0,0,0,-1,1518,505,6.92268,3.38888
301,519,5.35669,-2.92661,0,0,0,0,0,0,0,-1,1525,505,5.35675,2.9266
308,519,7.37549,-5.64529,0,0,0,0,0,0,0,-1,1532,505,7.3755,5.64529
315,519,6.30029,-4.53754,0,0,0,0,0,0,0,-1,1539,505,6.30024,4.53753
322,519,5.84302,-5.45117,0,0,0,0,0,0,0,-1,1546,505,5.84303,5.45116
329,519,4.92407,0.62384,0,0,0,0,0,0,0,-1,1553,505,4.92403,-0.623832
336,519,3.10095,-0.329285,0,0,0,0,0,0,0,-1,1560,505,3.1009,0.329283
343,519,2.49146,-2.31119,0,0,0,0,0,0,0,-1,1567,505,2.49145,2.31119
350,519,3.47729,-2.22516,0,0,0,0,0,0,0,-1,1574,505,3.47726,2.22515
357,519,13.271,-29.6344,0,0,0,0,0,0,0,-1,1581,505,13.271,29.6344
364,519,12.8292,-28.3627,0,0,0,0,0,0,0,-1,1588,505,12.8292,28.3627
371,519,12.3875,-27.0911,0,0,0,0,0,0,0,-1,1595,505,12.3874,27.091
378,519,6.36597,-10.0967,0,0,0,0,0,0,0,-1,1602,505,6.36597,10.0967
385,519,6.24756,-9.72186,0,0,0,0,0,0,0,-1,1609,505,6.24752,9.72183
392,519,14.4211,-31.2208,0,0,0,0,0,0,0,-1,1616,505,14.4211,31.2208
399,519,14.514,-30.228,0.000724291,-0.00248257,-0.00324297,0.00273857,-0.00449686,-0.555806,0.00421829,0.0464367,1623,505,14.514,30.228
406,519,14.413,-29.7477,0.000969071,-0.00173607,-0.00263475,0.00257814,-0.00334515,-0.548259,0.00342936,0.0332616,1630,505,14.4129,29.7477
413,519,14.4657,-29.1077,0.00127066,-0.000758389,-0.00184533,0.00236196,-0.00184969,-0.534062,0.00243759,0.0162694,1637,505,14.4657,29.1077
420,519,14.4119,-28.4319,0.00144145,-0.000280879,-0.00131112,0.00214893,-0.000988356,-0.494822,0.00185216,0.015636,1644,505,14.4119,28.4319
427,519,14.3864,-27.8167,0.00144575,0.000132499,-0.000817659,0.0018378,-0.000259552,-0.447097,0.00132025,0.0146335,1651,505,14.3864,27.8167
434,519,14.3593,-27.1819,0.00131782,0.000498198,-0.000375265,0.00146368,0.00035234,-0.370711,0.000882116,0.0131948,1658,505,14.3592,27.1819
441,519,14.3152,-26.4816,0.00129293,0.000878504,0.00014163,0.00133671,0.000834727,0.299783,0.000779678,0.0120518,1665,505,14.3152,26.4816
448,519,14.2977,-25.8292,0.00132753,0.00115906,0.000641518,0.00189032,0.00059627,0.720118,0.00111589,0.00985215,1672,505,14.2977,25.8292
455,519,14.2737,-25.1855,0.00129341,0.00154118,0.00115692,0.00258082,0.000253763,0.838737,0.00164251,0.0114027,1679,505,14.2737,25.1855
462,519,14.2637,-24.4974,0.00118462,0.00182224,0.00183292,0.00336386,-0.000357008,0.871504,0.00237056,0.0108173,1686,505,14.2636,24.4974
469,519,14.2677,-23.8237,0.00104892,0.00236156,0.00274013,0.00452287,-0.00111239,0.902945,0.00344642,0.0110412,1693,505,14.2677,23.8237
476,519,14.2192,-23.1251,0.000896296,0.00292481,0.00377045,0.00581504,-0.00199393,0.916789,0.00468498,0.0128832,1700,505,14.2193,23.1251
483,519,14.1692,-22.4264,0.000701408,0.00351385,0.00491666,0.00722144,-0.00300618,0.924685,0.00606979,0.0144353,1707,505,14.1691,22.4264
490,519,14.1445,-21.6808,0.000474843,0.00426499,0.00639308,0.00903796,-0.00429813,0.929485,0.00786002,0.0129315,1714,505,14.1445,21.6808
497,519,14.1217,-21.0584,0.000134793,0.00507426,0.00808894,0.0110621,-0.00585305,0.933564,0.00991912,0.0231996,1721,505,14.1217,21.0584
504,519,14.0573,-20.3423,-0.000330267,0.00614757,0.0100545,0.013472,-0.00765466,0.941218,0.0123506,0.0237602,1728,505,14.0573,20.3423
511,519,14.1078,-19.5475,-0.00087432,0.00731418,0.0122663,0.0161515,-0.00971161,0.946475,0.0150856,0.0299541,1735,505,14.1078,19.5476
518,519,13.9994,-18.8322,-0.0015642,0.0087962,0.0147901,0.019287,-0.012055,0.953846,0.0182552,0.047492,1742,505,13.9994,18.8321
525,519,13.9935,-18.2836,0,0,0,0,0,0,0,-1,1749,505,13.9936,18.2837
532,519,13.2941,-16.1559,0,0,0,0,0,0,0,-1,1756,505,13.2941,16.156
539,519,13.3215,-16.303,0,0,0,0,0,0,0,-1,1763,505,13.3215,16.303
546,519,13.1958,-15.956,0,0,0,0,0,0,0,-1,1770,505,13.1958,15.956
553,519,4.14136,0.0667419,0,0,0,0,0,0,0,-1,1777,505,4.14141,-0.0667503
560,519,3.77856,0.279724,0,0,0,0,0,0,0,-1,1784,505,3.77861,-0.279731
567,519,0,0,0,0,0,0,0,0,0,-1,1791,505,0,0
574,519,0,0,0,0,0,0,0,0,0,-1,1798,505,0,0
581,519,0,0,0,0,0,0,0,0,0,-1,1805,505,0,0
588,519,0,0,0,0,0,0,0,0,0,-1,1812,505,0,0
595,519,0,0,0,0,0,0,0,0,0,-1,1819,505,0,0
602,519,0,0,0,0,0,0,0,0,0,-1,1826,505,0,0
609,519,0,0,0,0,0,0,0,0,0,-1,1833,505,0,0
616,519,0,0,0,0,0,0,0,0,0,-1,1840,505,0,0
623,519,0,0,0,0,0,0,0,0,0,-1,1847,505,0,0
630,519,0,0,0,0,0,0,0,0,0,-1,1854,505,0,0
637,519,0,0,0,0,0,0,0,0,0,-1,1861,505,0,0
644,519,0,0,0,0,0,0,0,0,0,-1,1868,505,0,0
651,519,0,0,0,0,0,0,0,0,0,-1,1875,505,0,0
658,519,0,0,0,0,0,0,0,0,0,-1,1882,505,0,0
665,519,0,0,0,0,0,0,0,0,0,-1,1889,505,0,0
672,519,0,0,0,0,0,0,0,0,0,-1,1896,505,0,0
679,519,0,0,0,0,0,0,0,0,0,-1,1903,505,0,0
686,519,0,0,0,0,0,0,0,0,0,-1,1910,505,0,0
693,519,0,0,0,0,0,0,0,0,0,-1,1917,505,0,0
700,519,0,0,0,0,0,0,0,0,0,-1,1924,505,0,0
707,519,0,0,0,0,0,0,0,0,0,-1,1931,505,0,0
714,519,0,0,0,0,0,0,0,0,0,-1,1938,505,0,0
721,519,0,0,0,0,0,0,0,0,0,-1,1945,505,0,0
728,519,0,0,0,0,0,0,0,0,0,-1,1952,505,0,0
735,519,0,0,0,0,0,0,0,0,0,-1,1959,505,0,0
742,519,0,0,0,0,0,0,0,0,0,-1,1966,505,0,0
749,519,0,0,0,0,0,0,0,0,0,-1,1973,505,0,0
756,519,0,0,0,0,0,0,0,0,0,-1,1980,505,0,0
763,519,0,0,0,0,0,0,0,0,0,-1,1987,505,0,0
770,519,0,0,0,0,0,0,0,0,0,-1,1994,505,0,0
777,519,0,0,0,0,0,0,0,0,0,-1,2001,505,0,0
784,519,0,0,0,0,0,0,0,0,0,-1,2008,505,0,0
791,519,0,0,0,0,0,0,0,0,0,-1,2015,505,0,0
798,519,0,0,0,0,0,0,0,0,0,-1,2022,505,0,0
805,519,0,0,0,0,0,0,0,0,0,-1,2029,505,0,0
812,519,0,0,0,0,0,0,0,0,0,-1,2036,505,0,0
-700,512,0,0,0,0,0,0,0,0,0,-1,524,512,0,0
-693,512,0,0,0,0,0,0,0,0,0,-1,531,512,0,0
-686,512,0,0,0,0,0,0,0,0,0,-1,538,512,0,0
-679,512,0,0,0,0,0,0,0,0,0,-1,545,512,0,0
-672,512,0,0,0,0,0,0,0,0,0,-1,552,512,0,0
-665,512,0,0,0,0,0,0,0,0,0,-1,559,512,0,0
-658,512,0,0,0,0,0,0,0,0,0,-1,566,512,0,0
-651,512,0,0,0,0,0,0,0,0,0,-1,573,512,0,0
-644,512,0,0,0,0,0,0,0,0,0,-1,580,512,0,0
-637,512,0,0,0,0,0,0,0,0,0,-1,587,512,0,0
-630,512,0,0,0,0,0,0,0,0,0,-1,594,512,0,0
-623,512,0,0,0,0,0,0,0,0,0,-1,601,512,0,0
-616,512,0,0,0,0,0,0,0,0,0,-1,608,512,0,0
-609,512,0,0,0,0,0,0,0,0,0,-1,615,512,0,0
-602,512,0,0,0,0,0,0,0,0,0,-1,622,512,0,0
-595,512,0,0,0,0,0,0,0,0,0,-1,629,512,0,0
-588,512,0,0,0,0,0,0,0,0,0,-1,636,512,0,0
-581,512,0,0,0,0,0,0,0,0,0,-1,643,512,0,0
-574,512,0,0,0,0,0,0,0,0,0,-1,650,512,0,0
-567,512,0,0,0,0,0,0,0,0,0,-1,657,512,0,0
-560,512,0,0,0,0,0,0,0,0,0,-1,664,512,0,0
-553,512,0,0,0,0,0,0,0,0,0,-1,671,512,0,0
-546,512,0,0,0,0,0,0,0,0,0,-1,678,512,0,0
-539,512,0,0,0,0,0,0,0,0,0,-1,685,512,0,0
-532,512,0,0,0,0,0,0,0,0,0,-1,692,512,0,0
-525,512,0,0,0,0,0,0,0,0,0,-1,699,512,0,0
-518,512,0,0,0,0,0,0,0,0,0,-1,706,512,0,0
-511,512,0,0,0,0,0,0,0,0,0,-1,713,512,0,0
-504,512,0,0,0,0,0,0,0,0,0,-1,720,512,0,0
-497,512,0,0,0,0,0,0,0,0,0,-1,727,512,0,0
-490,512,0,0,0,0,0,0,0,0,0,-1,734,512,0,0
-483,512,0,0,0,0,0,0,0,0,0,-1,741,512,0,0
-476,512,0,0,0,0,0,0,0,0,0,-1,748,512,0,0
-469,512,0,0,0,0,0,0,0,0,0,-1,755,512,0,0
-462,512,0,0,0,0,0,0,0,0,0,-1,762,512,0,0
-455,512,0,0,0,0,0,0,0,0,0,-1,769,512,0,0
-448,512,1.96283,-4.15674,0,0,0,0,0,0,0,-1,776,512,1.96285,4.15677
-441,512,1.78198,-4.88824,0,0,0,0,0,0,0,-1,783,512,1.78201,4.88826
-434,512,0.0726929,-9.85822,0,0,0,0,0,0,0,-1,790,512,0.0727008,9.85819
-427,512,-0.384583,-9.94824,0,0,0,0,0,0,0,-1,797,512,-0.384552,9.94823
-420,512,-2.93219,-12.4855,0,0,0,0,0,0,0,-1,804,512,-2.93219,12.4855
-413,512,-2.22711,-11.4485,0,0,0,0,0,0,0,-1,811,512,-2.22712,11.4485
-406,512,-2.38037,-13.5743,0,0,0,0,0,0,0,-1,818,512,-2.38034,13.5743
-399,512,-2.60657,-18.9376,0,0,0,0,0,0,0,-1,825,512,-2.60654,18.9376
-392,512,-2.40216,-19.7774,0.00786143,0.0210298,-0.0160719,0.0318139,-0.00292271,-0.979805,0.0222476,0.0441432,832,512,-2.40217,19.7774
-385,512,-2.39246,-20.5559,0.00719076,0.0185497,-0.0138794,0.0278667,-0.00212625,-0.979605,0.0193256,0.0221417,839,512,-2.39245,20.5559
-378,512,-2.42212,-21.2612,0.00636894,0.0160665,-0.0119215,0.0240876,-0.00165214,-0.978544,0.0166365,0.0173507,846,512,-2.42212,21.2613
-371,512,-2.42267,-22.0153,0.00547986,0.0136884,-0.00998055,0.0203756,-0.00120739,-0.980471,0.0140036,0.012874,853,512,-2.42264,22.0153
-364,512,-2.4353,-22.772,0.00455512,0.0113896,-0.00809854,0.0167624,-0.000817625,-0.985044,0.0114572,0.00992381,860,512,-2.43528,22.772
-357,512,-2.45471,-23.4407,0.00369104,0.00911249,-0.00636491,0.0133199,-0.00051634,-0.986709,0.00905693,0.0111628,867,512,-2.45468,23.4407
-350,512,-2.49725,-24.1052,0.00288859,0.00700738,-0.004757,0.0101316,-0.000235653,-0.989677,0.00683432,0.0119252,874,512,-2.49728,24.1051
-343,512,-2.5589,-24.7601,0.00222491,0.00488554,-0.0032742,0.00708936,2.10819e-05,-0.978362,0.00471923,0.0139399,881,512,-2.55891,24.7601
-336,512,-2.60321,-25.4376,0.00168738,0.00303848,-0.00195639,0.00443268,0.000293192,-0.951641,0.0028624,0.0149535,888,512,-2.60321,25.4376
-329,512,-2.58301,-26.0816,0.00133238,0.00136476,-0.000809251,0.00215798,0.000539156,-0.795399,0.00129685,0.0162032,895,512,-2.58299,26.0816
-322,512,-2.60541,-26.7213,0.00116885,-0.000126021,0.000199511,0.00119889,-0.000156064,0.149461,0.00085604,0.01321,902,512,-2.60539,26.7213
-315,512,-2.6441,-27.3876,0.0012133,-0.00139746,0.00103548,0.00157413,-0.00175829,0.335304,0.00192495,0.0109713,909,512,-2.64411,27.3876
-308,512,-2.677,-28.0391,0.00149544,-0.00244534,0.00166234,0.00210299,-0.00305289,0.3504,0.00299354,0.0106451,916,512,-2.67699,28.0391
-301,512,-2.71686,-28.6545,0.00182276,-0.00319019,0.00218312,0.0026402,-0.00400763,0.358278,0.0038651,0.0149698,923,512,-2.71685,28.6545
-294,512,-2.70685,-29.2376,0.00222601,-0.00375617,0.00276238,0.00330645,-0.00483662,0.372834,0.00472899,0.0168821,930,512,-2.70686,29.2376
-287,512,-2.78937,-29.7795,0.00281692,-0.00448667,0.00318178,0.0040086,-0.00567835,0.358363,0.0056204,0.0301644,937,512,-2.78939,29.7796
-280,512,-2.75867,-30.5914,0,0,0,0,0,0,0,-1,944,512,-2.7587,30.5914
-273,512,-2.5061,-31.297,0,0,0,0,0,0,0,-1,951,512,-2.5061,31.297
-266,512,-2.33594,-25.9839,0,0,0,0,0,0,0,-1,958,512,-2.33592,25.9839
-259,512,-0.525452,-14.0815,0,0,0,0,0,0,0,-1,965,512,-0.525475,14.0815
-252,512,1.45941,-3.43475,0,0,0,0,0,0,0,-1,972,512,1.45938,3.43475
-245,512,-1.6731,-22.8959,0,0,0,0,0,0,0,-1,979,512,-1.67312,22.8959
-238,512,0.227051,-8.92969,0,0,0,0,0,0,0,-1,986,512,0.227073,8.92968
-231,512,-0.907349,-32.3113,0,0,0,0,0,0,0,-1,993,512,-0.907339,32.3113
-224,512,-1.29974,-33.6304,0,0,0,0,0,0,0,-1,1000,512,-1.29974,33.6304
-217,512,-0.963196,-34.1697,0,0,0,0,0,0,0,-1,1007,512,-0.963226,34.1697
-210,512,-3.76642,-1.94702,0,0,0,0,0,0,0,-1,1014,512,-3.76641,1.94702
-203,512,-2.48328,-5.19061,0,0,0,0,0,0,0,-1,1021,512,-2.48328,5.19059
-196,512,-1.14929,-4.63202,0,0,0,0,0,0,0,-1,1028,512,-1.14934,4.632
-189,512,0.197998,4.55505,0,0,0,0,0,0,0,-1,1035,512,0.197996,-4.55506
-182,512,2.73938,0.0778503,0,0,0,0,0,0,0,-1,1042,512,2.73944,-0.077852
-175,512,2.29565,0.209808,0,0,0,0,0,0,0,-1,1049,512,2.29565,-0.209813
-168,512,2.09399,-0.302856,0,0,0,0,0,0,0,-1,1056,512,2.09403,0.302826
-161,512,2.76636,0.0921021,0,0,0,0,0,0,0,-1,1063,512,2.76633,-0.0921104
-154,512,3.41382,0.466187,0,0,0,0,0,0,0,-1,1070,512,3.41382,-0.466178
-147,512,0,0,0,0,0,0,0,0,0,-1,1077,512,0,0
-140,512,0,0,0,0,0,0,0,0,0,-1,1084,512,0,0
-133,512,0,0,0,0,0,0,0,0,0,-1,1091,512,0,0
-126,512,0,0,0,0,0,0,0,0,0,-1,1098,512,0,0
-119,512,0,0,0,0,0,0,0,0,0,-1,1105,512,0,0
-112,512,0,0,0,0,0,0,0,0,0,-1,1112,512,0,0
-105,512,0,0,0,0,0,0,0,0,0,-1,1119,512,0,0
-98,512,0,0,0,0,0,0,0,0,0,-1,1126,512,0,0
-91,512,0,0,0,0,0,0,0,0,0,-1,1133,512,0,0
-84,512,0,0,0,0,0,0,0,0,0,-1,1140,512,0,0
-77,512,0,0,0,0,0,0,0,0,0,-1,1147,512,0,0
-70,512,0,0,0,0,0,0,0,0,0,-1,1154,512,0,0
-63,512,0,0,0,0,0,0,0,0,0,-1,1161,512,0,0
-56,512,0,0,0,0,0,0,0,0,0,-1,1168,512,0,0
-49,512,0,0,0,0,0,0,0,0,0,-1,1175,512,0,0
-42,512,0,0,0,0,0,0,0,0,0,-1,1182,512,0,0
-35,512,0,0,0,0,0,0,0,0,0,-1,1189,512,0,0
-28,512,0,0,0,0,0,0,0,0,0,-1,1196,512,0,0
-21,512,0,0,0,0,0,0,0,0,0,-1,1203,512,0,0
-14,512,0,0,0,0,0,0,0,0,0,-1,1210,512,0,0
-7,512,0,0,0,0,0,0,0,0,0,-1,1217,512,0,0
0,512,0,0,0,0,0,0,0,0,0,-1,1224,512,0,0
7,512,0,0,0,0,0,0,0,0,0,-1,1231,512,0,0
14,512,0,0,0,0,0,0,0,0,0,-1,1238,512,0,0
21,512,0,0,0,0,0,0,0,0,0,-1,1245,512,0,0
28,512,0,0,0,0,0,0,0,0,0,-1,1252,512,0,0
35,512,0,0,0,0,0,0,0,0,0,-1,1259,512,0,0
42,512,0,0,0,0,0,0,0,0,0,-1,1266,512,0,0
49,512,0,0,0,0,0,0,0,0,0,-1,1273,512,0,0
56,512,0,0,0,0,0,0,0,0,0,-1,1280,512,0,0
63,512,0,0,0,0,0,0,0,0,0,-1,1287,512,0,0
70,512,0,0,0,0,0,0,0,0,0,-1,1294,512,0,0
77,512,0,0,0,0,0,0,0,0,0,-1,1301,512,0,0
84,512,0,0,0,0,0,0,0,0,0,-1,1308,512,0,0
91,512,0,0,0,0,0,0,0,0,0,-1,1315,512,0,0
98,512,0,0,0,0,0,0,0,0,0,-1,1322,512,0,0
105,512,0,0,0,0,0,0,0,0,0,-1,1329,512,0,0
112,512,0,0,0,0,0,0,0,0,0,-1,1336,512,0,0
119,512,0,0,0,0,0,0,0,0,0,-1,1343,512,0,0
126,512,0,0,0,0,0,0,0,0,0,-1,1350,512,0,0
133,512,0,0,0,0,0,0,0,0,0,-1,1357,512,0,0
140,512,0,0,0,0,0,0,0,0,0,-1,1364,512,0,0
147,512,0,0,0,0,0,0,0,0,0,-1,1371,512,0,0
154,512,0,0,0,0,0,0,0,0,0,-1,1378,512,0,0
161,512,0,0,0,0,0,0,0,0,0,-1,1385,512,0,0
168,512,0,0,0,0,0,0,0,0,0,-1,1392,512,0,0
175,512,0,0,0,0,0,0,0,0,0,-1,1399,512,0,0
182,512,0,0,0,0,0,0,0,0,0,-1,1406,512,0,0
189,512,0,0,0,0,0,0,0,0,0,-1,1413,512,0,0
196,512,0,0,0,0,0,0,0,0,0,-1,1420,512,0,0
203,512,0,0,0,0,0,0,0,0,0,-1,1427,512,0,0
210,512,0,0,0,0,0,0,0,0,0,-1,1434,512,0,0
217,512,0,0,0,0,0,0,0,0,0,-1,1441,512,0,0
224,512,0,0,0,0,0,0,0,0,0,-1,1448,512,0,0
231,512,0,0,0,0,0,0,0,0,0,-1,1455,512,0,0
238,512,0,0,0,0,0,0,0,0,0,-1,1462,512,0,0
245,512,0,0,0,0,0,0,0,0,0,-1,1469,512,0,0
252,512,0,0,0,0,0,0,0,0,0,-1,1476,512,0,0
259,512,0,0,0,0,0,0,0,0,0,-1,1483,512,0,0
266,512,0,0,0,0,0,0,0,0,0,-1,1490,512,0,0
273,512,4.00745,0.618622,0,0,0,0,0,0,0,-1,1497,512,4.00747,-0.618611
280,512,4.49609,0.649841,0,0,0,0,0,0,0,-1,1504,512,4.49612,-0.649834
287,512,4.77234,0.458069,0,0,0,0,0,0,0,-1,1511,512,4.77233,-0.458083
294,512,8.54956,-2.36273,0,0,0,0,0,0,0,-1,1518,512,8.54952,2.36274
301,512,6.302,-1.69092,0,0,0,0,0,0,0,-1,1525,512,6.30196,1.69093
308,512,8.2439,-6.22754,0,0,0,0,0,0,0,-1,1532,512,8.24394,6.22757
315,512,7.53687,-6.04211,0,0,0,0,0,0,0,-1,1539,512,7.53691,6.04211
322,512,6.82983,-5.85663,0,0,0,0,0,0,0,-1,1546,512,6.82988,5.85666
329,512,4.38147,-0.329651,0,0,0,0,0,0,0,-1,1553,512,4.38144,0.329662
336,512,4.41467,-0.741455,0,0,0,0,0,0,0,-1,1560,512,4.41467,0.741442
343,512,4.44727,-1.21667,0,0,0,0,0,0,0,-1,1567,512,4.44732,1.21666
350,512,4.55469,-1.65082,0,0,0,0,0,0,0,-1,1574,512,4.5547,1.65083
357,512,5.79993,-2.67456,0,0,0,0,0,0,0,-1,1581,512,5.79991,2.67454
364,512,13.118,-28.5485,0,0,0,0,0,0,0,-1,1588,512,13.1181,28.5485
371,512,5.28467,-7.69269,0,0,0,0,0,0,0,-1,1595,512,5.28464,7.69269
378,512,6.29407,-9.88055,0,0,0,0,0,0,0,-1,1602,512,6.29412,9.88057
385,512,6.45569,-9.32233,0,0,0,0,0,0,0,-1,1609,512,6.45565,9.3223
392,512,6.35522,-8.98425,0,0,0,0,0,0,0,-1,1616,512,6.35526,8.98422
399,512,15.2681,-29.8725,0,0,0,0,0,0,0,-1,1623,512,15.2681,29.8725
406,512,15.1155,-29.8383,0,0,0,0,0,0,0,-1,1630,512,15.1155,29.8382
413,512,15.165,-29.1286,0,0,0,0,0,0,0,-1,1637,512,15.1651,29.1286
420,512,15.095,-28.4619,0.00177157,-0.00066673,-0.00187065,0.00278528,-0.00168044,-0.496605,0.00260446,0.0261548,1644,512,15.095,28.4619
427,512,15.054,-27.7842,0.00164833,-0.000299907,-0.00141662,0.00239342,-0.00104501,-0.484208,0.00203543,0.015132,1651,512,15.0539,27.7842
434,512,15.0331,-27.1512,0.00145647,5.74909e-05,-0.00100954,0.00198517,-0.000471214,-0.482433,0.00150531,0.0114512,1658,512,15.0331,27.1512
441,512,15.0012,-26.4761,0.00141328,0.000420581,-0.000516545,0.0016333,0.000200564,-0.402666,0.00102855,0.0126928,1665,512,15.0012,26.4761
448,512,14.9668,-25.8367,0.00149839,0.000694112,-1.87441e-05,0.00149882,0.000693675,-0.0232888,0.000866143,0.00926472,1672,512,14.9668,25.8368
455,512,14.9371,-25.1674,0.00154022,0.00110224,0.00049806,0.00186531,0.000777154,0.578275,0.00108191,0.00913007,1679,512,14.9371,25.1674
462,512,14.9192,-24.4736,0.00151951,0.00137778,0.00108257,0.00253353,0.000363756,0.752715,0.00158177,0.00985965,1686,512,14.9192,24.4736
469,512,14.8962,-23.7947,0.00148705,0.00183703,0.00188515,0.00355529,-0.000231213,0.831679,0.0024509,0.011163,1693,512,14.8962,23.7947
476,512,14.8594,-23.1053,0.00144044,0.00234539,0.00281418,0.00474324,-0.000957406,0.865108,0.0035249,0.0140835,1700,512,14.8594,23.1053
483,512,14.8409,-22.3854,0.00135518,0.00284809,0.00381566,0.00598962,-0.00178635,0.881993,0.00470301,0.0135103,1707,512,14.841,22.3854
490,512,14.8329,-21.6785,0.00120384,0.00350204,0.00504773,0.00752981,-0.00282393,0.897314,0.00618012,0.0108173,1714,512,14.8328,21.6785
497,512,14.7892,-20.9849,0.000945041,0.00421501,0.0064515,0.00923547,-0.00407543,0.909499,0.00787518,0.0118301,1721,512,14.7891,20.9849
504,512,14.7242,-20.2621,0.000581085,0.0050725,0.00802667,0.0111617,-0.00550811,0.921801,0.00980708,0.0137057,1728,512,14.7242,20.2622
511,512,14.6647,-19.495,6.4404e-05,0.00604113,0.00971914,0.013221,-0.00711542,0.934547,0.0119163,0.0181501,1735,512,14.6646,19.495
518,512,14.7322,-18.7603,-0.000653126,0.00721649,0.0115127,0.0154482,-0.00888485,0.950065,0.014218,0.0227762,1742,512,14.7322,18.7603
525,512,14.7445,-17.9626,-0.00167264,0.00847497,0.0132089,0.017551,-0.0107487,0.968769,0.0164954,0.0429139,1749,512,14.7445,17.9627
532,512,14.9513,-16.9543,0,0,0,0,0,0,0,-1,1756,512,14.9513,16.9543
539,512,14.3973,-16.1461,0,0,0,0,0,0,0,-1,1763,512,14.3974,16.1461
546,512,2.77551,-0.66449,0,0,0,0,0,0,0,-1,1770,512,2.77548,0.664503
553,512,3.927,-0.448853,0,0,0,0,0,0,0,-1,1777,512,3.92704,0.448843
560,512,3.55762,-0.201233,0,0,0,0,0,0,0,-1,1784,512,3.55768,0.201259
567,512,3.09045,0.191193,0,0,0,0,0,0,0,-1,1791,512,3.09045,-0.191203
574,512,0,0,0,0,0,0,0,0,0,-1,1798,512,0,0
581,512,0,0,0,0,0,0,0,0,0,-1,1805,512,0,0
588,512,0,0,0,0,0,0,0,0,0,-1,1812,512,0,0
595,512,0,0,0,0,0,0,0,0,0,-1,1819,512,0,0
602,512,0,0,0,0,0,0,0,0,0,-1,1826,512,0,0
609,512,0,0,0,0,0,0,0,0,0,-1,1833,512,0,0
616,512,0,0,0,0,0,0,0,0,0,-1,1840,512,0,0
623,512,0,0,0,0,0,0,0,0,0,-1,1847,512,0,0
630,512,0,0,0,0,0,0,0,0,0,-1,1854,512,0,0
637,512,0,0,0,0,0,0,0,0,0,-1,1861,512,0,0
644,512,0,0,0,0,0,0,0,0,0,-1,1868,512,0,0
651,512,0,0,0,0,0,0,0,0,0,-1,1875,512,0,0
658,512,0,0,0,0,0,0,0,0,0,-1,1882,512,0,0
665,512,0,0,0,0,0,0,0,0,0,-1,1889,512,0,0
672,512,0,0,0,0,0,0,0,0,0,-1,1896,512,0,0
679,512,0,0,0,0,0,0,0,0,0,-1,1903,512,0,0
686,512,0,0,0,0,0,0,0,0,0,-1,1910,512,0,0
693,512,0,0,0,0,0,0,0,0,0,-1,1917,512,0,0
700,512,0,0,0,0,0,0,0,0,0,-1,1924,512,0,0
707,512,0,0,0,0,0,0,0,0,0,-1,1931,512,0,0
714,512,0,0,0,0,0,0,0,0,0,-1,1938,512,0,0
721,512,0,0,0,0,0,0,0,0,0,-1,1945,512,0,0
728,512,0,0,0,0,0,0,0,0,0,-1,1952,512,0,0
735,512,0,0,0,0,0,0,0,0,0,-1,1959,512,0,0
742,512,0,0,0,0,0,0,0,0,0,-1,1966,512,0,0
749,512,0,0,0,0,0,0,0,0,0,-1,1973,512,0,0
756,512,0,0,0,0,0,0,0,0,0,-1,1980,512,0,0
763,512,0,0,0,0,0,0,0,0,0,-1,1987,512,0,0
770,512,0,0,0,0,0,0,0,0,0,-1,1994,512,0,0
777,512,0,0,0,0,0,0,0,0,0,-1,2001,512,0,0
784,512,0,0,0,0,0,0,0,0,0,-1,2008,512,0,0
791,512,0,0,0,0,0,0,0,0,0,-1,2015,512,0,0
798,512,0,0,0,0,0,0,0,0,0,-1,2022,512,0,0
805,512,0,0,0,0,0,0,0,0,0,-1,2029,512,0,0
812,512,0,0,0,0,0,0,0,0,0,-1,2036,512,0,0
-700,505,0,0,0,0,0,0,0,0,0,-1,524,519,0,0
-693,505,0,0,0,0,0,0,0,0,0,-1,531,519,0,0
-686,505,0,0,0,0,0,0,0,0,0,-1,538,519,0,0
-679,505,0,0,0,0,0,0,0,0,0,-1,545,519,0,0
-672,505,0,0,0,0,0,0,0,0,0,-1,552,519,0,0
-665,505,0,0,0,0,0,0,0,0,0,-1,559,519,0,0
-658,505,0,0,0,0,0,0,0,0,0,-1,566,519,0,0
-651,505,0,0,0,0,0,0,0,0,0,-1,573,519,0,0
-644,505,0,0,0,0,0,0,0,0,0,-1,580,519,0,0
-637,505,0,0,0,0,0,0,0,0,0,-1,587,519,0,0
-630,505,0,0,0,0,0,0,0,0,0,-1,594,519,0,0
-623,505,0,0,0,0,0,0,0,0,0,-1,601,519,0,0
-616,505,0,0,0,0,0,0,0,0,0,-1,608,519,0,0
-609,505,0,0,0,0,0,0,0,0,0,-1,615,519,0,0
-602,505,0,0,0,0,0,0,0,0,0,-1,622,519,0,0
-595,505,0,0,0,0,0,0,0,0,0,-1,629,519,0,0
-588,505,0,0,0,0,0,0,0,0,0,-1,636,519,0,0
-581,505,0,0,0,0,0,0,0,0,0,-1,643,519,0,0
-574,505,0,0,0,0,0,0,0,0,0,-1,650,519,0,0
-567,505,0,0,0,0,0,0,0,0,0,-1,657,519,0,0
-560,505,0,0,0,0,0,0,0,0,0,-1,664,519,0,0
-553,505,0,0,0,0,0,0,0,0,0,-1,671,519,0,0
-546,505,0,0,0,0,0,0,0,0,0,-1,678,519,0,0
-539,505,0,0,0,0,0,0,0,0,0,-1,685,519,0,0
-532,505,0,0,0,0,0,0,0,0,0,-1,692,519,0,0
-525,505,0,0,0,0,0,0,0,0,0,-1,699,519,0,0
-518,505,0,0,0,0,0,0,0,0,0,-1,706,519,0,0
-511,505,0,0,0,0,0,0,0,0,0,-1,713,519,0,0
-504,505,0,0,0,0,0,0,0,0,0,-1,720,519,0,0
-497,505,0,0,0,0,0,0,0,0,0,-1,727,519,0,0
-490,505,0,0,0,0,0,0,0,0,0,-1,734,519,0,0
-483,505,0,0,0,0,0,0,0,0,0,-1,741,519,0,0
-476,505,0,0,0,0,0,0,0,0,0,-1,748,519,0,0
-469,505,0,0,0,0,0,0,0,0,0,-1,755,519,0,0
-462,505,0,0,0,0,0,0,0,0,0,-1,762,519,0,0
-455,505,2.72137,-3.26379,0,0,0,0,0,0,0,-1,769,519,2.72135,3.26377
-448,505,2.51111,-3.94989,0,0,0,0,0,0,0,-1,776,519,2.51112,3.94986
-441,505,2.80212,-6.8902,0,0,0,0,0,0,0,-1,783,519,2.80209,6.89019
-434,505,-0.155212,-10.6374,0,0,0,0,0,0,0,-1,790,519,-0.155194,10.6374
-427,505,-0.474426,-10.4702,0,0,0,0,0,0,0,-1,797,519,-0.474433,10.4702
-420,505,-0.922546,-10.1928,0,0,0,0,0,0,0,-1,804,519,-0.92257,10.1928
-413,505,-3.33948,-13.6183,0,0,0,0,0,0,0,-1,811,519,-3.33949,13.6184
-406,505,-2.86981,-15.8972,0,0,0,0,0,0,0,-1,818,519,-2.86981,15.8972
-399,505,-3.00568,-18.9348,0,0,0,0,0,0,0,-1,825,519,-3.00571,18.9347
-392,505,-2.99078,-19.8014,0.0054109,0.0159717,-0.0124383,0.024204,-0.00282148,-0.986132,0.017154,0.0260376,832,519,-2.9908,19.8014
-385,505,-3.02655,-20.6096,0.00512916,0.0139881,-0.0107383,0.0211746,-0.00205741,-0.981011,0.0148498,0.0107091,839,519,-3.02656,20.6096
-378,505,-3.0658,-21.3304,0.00472838,0.0119827,-0.00920537,0.0182497,-0.00153867,-0.97307,0.0127104,0.0115002,846,519,-3.0658,21.3305
-371,505,-3.09296,-22.0642,0.00418422,0.00998036,-0.00765825,0.0152706,-0.00110597,-0.966283,0.0105683,0.0137847,853,519,-3.09298,22.0642
-364,505,-3.13251,-22.7728,0.00357711,0.00799543,-0.00613571,0.0123076,-0.000735033,-0.958198,0.00846071,0.015496,860,519,-3.1325,22.7728
-357,505,-3.12268,-23.4312,0.00300424,0.0060584,-0.00468299,0.00945701,-0.000394366,-0.943007,0.00644015,0.0130353,867,519,-3.12267,23.4312
-350,505,-3.16931,-24.0701,0.0024637,0.00429714,-0.00332883,0.00683317,-7.23246e-05,-0.919762,0.00457975,0.0122295,874,519,-3.16928,24.0701
-343,505,-3.19952,-24.7501,0.00199128,0.00243078,-0.00202331,0.00424624,0.000175821,-0.839492,0.00277408,0.0110308,881,519,-3.19953,24.7501
-336,505,-3.22266,-25.42,0.00159924,0.000809887,-0.000843072,0.00213545,0.000273684,-0.566478,0.00134174,0.0135756,888,519,-3.22263,25.42
-329,505,-3.21899,-26.0366,0.00137105,-0.000632296,0.000208671,0.00139256,-0.0006538,0.102692,0.00120686,0.0183448,895,519,-3.21902,26.0366
-322,505,-3.23969,-26.7185,0.00137335,-0.00183449,0.00110407,0.00171661,-0.00217776,0.301434,0.00225366,0.0207504,902,519,-3.23971,26.7185
-315,505,-3.28705,-27.3981,0.00155943,-0.00284712,0.00186348,0.00224181,-0.00352949,0.351019,0.0033596,0.0153694,909,519,-3.28704,27.3981
-308,505,-3.33167,-28.0003,0.00198566,-0.00367897,0.00245531,0.00290175,-0.00459506,0.357109,0.00436493,0.0122137,916,519,-3.33165,28.0003
-301,505,-3.34662,-28.6025,0.00240763,-0.00412028,0.00300406,0.00357964,-0.00529229,0.371979,0.00515393,0.0177373,923,519,-3.3466,28.6025
-294,505,-3.38416,-28.9871,0.00279584,-0.00446402,0.00367016,0.00432793,-0.00599611,0.395454,0.00598647,0.0429406,930,519,-3.38413,28.9871
-287,505,-3.48114,-29.7312,0,0,0,0,0,0,0,-1,937,519,-3.48116,29.7312
-280,505,-2.79846,-27.7252,0,0,0,0,0,0,0,-1,944,519,-2.79845,27.7252
-273,505,-0.0680542,-9.44867,0,0,0,0,0,0,0,-1,951,519,-0.0680462,9.44866
-266,505,-0.036377,-9.07922,0,0,0,0,0,0,0,-1,958,519,-0.0364055,9.0792
-259,505,0.10321,-6.69824,0,0,0,0,0,0,0,-1,965,519,0.103235,6.69826
-252,505,6.82312,-15.6972,0,0,0,0,0,0,0,-1,972,519,6.82314,15.6972
-245,505,4.26727,-12.9861,0,0,0,0,0,0,0,-1,979,519,4.2673,12.9861
-238,505,1.67432,-11.2307,0,0,0,0,0,0,0,-1,986,519,1.67429,11.2307
-231,505,-0.958435,-8.3075,0,0,0,0,0,0,0,-1,993,519,-0.958421,8.30751
-224,505,-1.46399,-33.4399,0,0,0,0,0,0,0,-1,1000,519,-1.46397,33.4399
-217,505,-6.34302,-1.65533,0,0,0,0,0,0,0,-1,1007,519,-6.34299,1.65535
-210,505,-3.06128,-0.396301,0,0,0,0,0,0,0,-1,1014,519,-3.06129,0.396294
-203,505,-4.26465,2.03607,0,0,0,0,0,0,0,-1,1021,519,-4.26462,-2.03606
-196,505,-5.47595,4.27295,0,0,0,0,0,0,0,-1,1028,519,-5.47597,-4.27292
-189,505,1.51526,5.56207,0,0,0,0,0,0,0,-1,1035,519,1.51523,-5.56209
-182,505,2.97815,7.5097,0,0,0,0,0,0,0,-1,1042,519,2.97812,-7.5097
-175,505,-2.38416,-2.17548,0,0,0,0,0,0,0,-1,1049,519,-2.38411,2.1755
-168,505,0,0,0,0,0,0,0,0,0,-1,1056,519,0,0
-161,505,0,0,0,0,0,0,0,0,0,-1,1063,519,0,0
-154,505,0,0,0,0,0,0,0,0,0,-1,1070,519,0,0
-147,505,0,0,0,0,0,0,0,0,0,-1,1077,519,0,0
-140,505,0,0,0,0,0,0,0,0,0,-1,1084,519,0,0
-133,505,0,0,0,0,0,0,0,0,0,-1,1091,519,0,0
-126,505,0,0,0,0,0,0,0,0,0,-1,1098,519,0,0
-119,505,0,0,0,0,0,0,0,0,0,-1,1105,519,0,0
-112,505,0,0,0,0,0,0,0,0,0,-1,1112,519,0,0
-105,505,0,0,0,0,0,0,0,0,0,-1,1119,519,0,0
-98,505,0,0,0,0,0,0,0,0,0,-1,1126,519,0,0
-91,505,0,0,0,0,0,0,0,0,0,-1,1133,519,0,0
-84,505,0,0,0,0,0,0,0,0,0,-1,1140,519,0,0
-77,505,0,0,0,0,0,0,0,0,0,-1,1147,519,0,0
-70,505,0,0,0,0,0,0,0,0,0,-1,1154,519,0,0
-63,505,0,0,0,0,0,0,0,0,0,-1,1161,519,0,0
-56,505,0,0,0,0,0,0,0,0,0,-1,1168,519,0,0
-49,505,0,0,0,0,0,0,0,0,0,-1,1175,519,0,0
-42,505,0,0,0,0,0,0,0,0,0,-1,1182,519,0,0
-35,505,0,0,0,0,0,0,0,0,0,-1,1189,519,0,0
-28,505,0,0,0,0,0,0,0,0,0,-1,1196,519,0,0
-21,505,0,0,0,0,0,0,0,0,0,-1,1203,519,0,0
-14,505,0,0,0,0,0,0,0,0,0,-1,1210,519,0,0
-7,505,0,0,0,0,0,0,0,0,0,-1,1217,519,0,0
0,505,0,0,0,0,0,0,0,0,0,-1,1224,519,0,0
7,505,0,0,0,0,0,0,0,0,0,-1,1231,519,0,0
14,505,0,0,0,0,0,0,0,0,0,-1,1238,519,0,0
21,505,0,0,0,0,0,0,0,0,0,-1,1245,519,0,0
28,505,0,0,0,0,0,0,0,0,0,-1,1252,519,0,0
35,505,0,0,0,0,0,0,0,0,0,-1,1259,519,0,0
42,505,0,0,0,0,0,0,0,0,0,-1,1266,519,0,0
49,505,0,0,0,0,0,0,0,0,0,-1,1273,519,0,0
56,505,0,0,0,0,0,0,0,0,0,-1,1280,519,0,0
63,505,0,0,0,0,0,0,0,0,0,-1,1287,519,0,0
70,505,0,0,0,0,0,0,0,0,0,-1,1294,519,0,0
77,505,0,0,0,0,0,0,0,0,0,-1,1301,519,0,0
84,505,0,0,0,0,0,0,0,0,0,-1,1308,519,0,0
91,505,0,0,0,0,0,0,0,0,0,-1,1315,519,0,0
98,505,0,0,0,0,0,0,0,0,0,-1,1322,519,0,0
105,505,0,0,0,0,0,0,0,0,0,-1,1329,519,0,0
112,505,0,0,0,0,0,0,0,0,0,-1,1336,519,0,0
119,505,0,0,0,0,0,0,0,0,0,-1,1343,519,0,0
126,505,0,0,0,0,0,0,0,0,0,-1,1350,519,0,0
133,505,0,0,0,0,0,0,0,0,0,-1,1357,519,0,0
140,505,0,0,0,0,0,0,0,0,0,-1,1364,519,0,0
147,505,0,0,0,0,0,0,0,0,0,-1,1371,519,0,0
154,505,0,0,0,0,0,0,0,0,0,-1,1378,519,0,0
161,505,0,0,0,0,0,0,0,0,0,-1,1385,519,0,0
168,505,0,0,0,0,0,0,0,0,0,-1,1392,519,0,0
175,505,0,0,0,0,0,0,0,0,0,-1,1399,519,0,0
182,505,0,0,0,0,0,0,0,0,0,-1,1406,519,0,0
189,505,0,0,0,0,0,0,0,0,0,-1,1413,519,0,0
196,505,0,0,0,0,0,0,0,0,0,-1,1420,519,0,0
203,505,0,0,0,0,0,0,0,0,0,-1,1427,519,0,0
210,505,0,0,0,0,0,0,0,0,0,-1,1434,519,0,0
217,505,0,0,0,0,0,0,0,0,0,-1,1441,519,0,0
224,505,0,0,0,0,0,0,0,0,0,-1,1448,519,0,0
231,505,0,0,0,0,0,0,0,0,0,-1,1455,519,0,0
238,505,0,0,0,0,0,0,0,0,0,-1,1462,519,0,0
245,505,0,0,0,0,0,0,0,0,0,-1,1469,519,0,0
252,505,0,0,0,0,0,0,0,0,0,-1,1476,519,0,0
259,505,0,0,0,0,0,0,0,0,0,-1,1483,519,0,0
266,505,0,0,0,0,0,0,0,0,0,-1,1490,519,0,0
273,505,0,0,0,0,0,0,0,0,0,-1,1497,519,0,0
280,505,0,0,0,0,0,0,0,0,0,-1,1504,519,0,0
287,505,4.39478,0.499512,0,0,0,0,0,0,0,-1,1511,519,4.39476,-0.499506
294,505,4.88867,0.0822754,0,0,0,0,0,0,0,-1,1518,519,4.88871,-0.0822748
301,505,4.82153,-0.0704346,0,0,0,0,0,0,0,-1,1525,519,4.82156,0.0704312
308,505,4.67761,-0.29187,0,0,0,0,0,0,0,-1,1532,519,4.67762,0.291845
315,505,8.44055,-6.54352,0,0,0,0,0,0,0,-1,1539,519,8.44059,6.54349
322,505,4.78955,-0.594116,0,0,0,0,0,0,0,-1,1546,519,4.78957,0.594096
329,505,5.16321,0.434631,0,0,0,0,0,0,0,-1,1553,519,5.16316,-0.434614
336,505,4.94495,-0.920471,0,0,0,0,0,0,0,-1,1560,519,4.945,0.920495
343,505,5.01855,-1.4823,0,0,0,0,0,0,0,-1,1567,519,5.01851,1.48227
350,505,5.33154,-1.77838,0,0,0,0,0,0,0,-1,1574,519,5.33152,1.77838
357,505,5.56567,-1.9425,0,0,0,0,0,0,0,-1,1581,519,5.56562,1.94248
364,505,5.85205,-2.6579,0,0,0,0,0,0,0,-1,1588,519,5.85211,2.65788
371,505,5.88477,-7.00922,0,0,0,0,0,0,0,-1,1595,519,5.88473,7.00924
378,505,5.44104,-7.10162,0,0,0,0,0,0,0,-1,1602,519,5.44099,7.10162
385,505,6.64661,-8.65015,0,0,0,0,0,0,0,-1,1609,519,6.64662,8.65014
392,505,6.34558,-8.3429,0,0,0,0,0,0,0,-1,1616,519,6.34554,8.34288
399,505,7.45898,-9.70386,0,0,0,0,0,0,0,-1,1623,519,7.45899,9.70388
406,505,7.08679,-9.4928,0,0,0,0,0,0,0,-1,1630,519,7.08678,9.49278
413,505,8.4032,-14.0308,0,0,0,0,0,0,0,-1,1637,519,8.4032,14.0308
420,505,15.7791,-28.6754,0,0,0,0,0,0,0,-1,1644,519,15.779,28.6754
427,505,15.7227,-27.9014,0.00189531,-0.000566938,-0.00191589,0.00294153,-0.00161316,-0.499825,0.00266667,0.0314695,1651,519,15.7226,27.9014
434,505,15.6855,-27.1635,0.00160262,-0.000242759,-0.00157955,0.00250923,-0.00114937,-0.521058,0.00216038,0.013238,1658,519,15.6855,27.1634
441,505,15.6804,-26.4384,0.00148982,5.8705e-05,-0.00114944,0.00212824,-0.000579711,-0.506989,0.00164644,0.0107503,1665,519,15.6804,26.4384
448,505,15.6498,-25.7791,0.00156114,0.000302241,-0.000684812,0.00186184,1.54349e-06,-0.413749,0.00124071,0.0100657,1672,519,15.6498,25.7791
455,505,15.6187,-25.1105,0.00159865,0.00071129,-0.000198218,0.00164091,0.000669025,-0.210078,0.000952744,0.0106433,1679,519,15.6187,25.1105
462,505,15.5848,-24.4377,0.00156612,0.000957977,0.00024652,0.0016535,0.0008706,0.340625,0.000955095,0.0107303,1686,519,15.5848,24.4377
469,505,15.5619,-23.7628,0.00153279,0.00131525,0.000908935,0.00233944,0.0005086,0.725847,0.00142077,0.0104458,1693,519,15.5619,23.7628
476,505,15.5348,-23.0888,0.00148935,0.0017569,0.00171423,0.00334256,-9.63164e-05,0.824339,0.00226116,0.0111431,1700,519,15.5348,23.0888
483,505,15.5333,-22.383,0.00141117,0.00217769,0.00257133,0.00439416,-0.000805301,0.85938,0.0032315,0.0127126,1707,519,15.5333,22.383
490,505,15.5186,-21.6652,0.00123949,0.00275686,0.00358064,0.00565831,-0.00166196,0.889796,0.00443132,0.0120397,1714,519,15.5186,21.6651
497,505,15.4641,-20.9805,0.000986611,0.00341001,0.00474364,0.00709426,-0.00269765,0.910442,0.00584023,0.0119564,1721,519,15.4641,20.9805
504,505,15.3981,-20.2644,0.000665552,0.00409429,0.00601341,0.00863293,-0.00387309,0.92426,0.00739262,0.012705,1728,519,15.3981,20.2644
511,505,15.3583,-19.5383,0.000181514,0.0049037,0.00732414,0.0102379,-0.0051527,0.941324,0.00904601,0.0151375,1735,519,15.3583,19.5383
518,505,15.4275,-18.8141,-0.00049484,0.0058408,0.00860815,0.0118455,-0.00649955,0.961709,0.0107404,0.0261702,1742,519,15.4275,18.8142
525,505,15.3029,-18.0444,-0.00135871,0.00680761,0.00980225,0.0133431,-0.00789423,0.982745,0.0123952,0.034471,1749,519,15.3029,18.0443
532,505,15.4264,-17.0162,0,0,0,0,0,0,0,-1,1756,519,15.4264,17.0162
539,505,13.9879,-13.9018,0,0,0,0,0,0,0,-1,1763,519,13.988,13.9018
546,505,7.94946,-6.64539,0,0,0,0,0,0,0,-1,1770,519,7.94947,6.64539
553,505,2.82837,0.162659,0,0,0,0,0,0,0,-1,1777,519,2.82841,-0.162672
560,505,3.66223,-0.479797,0,0,0,0,0,0,0,-1,1784,519,3.66219,0.47982
567,505,4.65271,-0.950256,0,0,0,0,0,0,0,-1,1791,519,4.65274,0.95028
574,505,5.54443,-1.19977,0,0,0,0,0,0,0,-1,1798,519,5.54443,1.19974
581,505,0,0,0,0,0,0,0,0,0,-1,1805,519,0,0
588,505,0,0,0,0,0,0,0,0,0,-1,1812,519,0,0
595,505,0,0,0,0,0,0,0,0,0,-1,1819,519,0,0
602,505,0,0,0,0,0,0,0,0,0,-1,1826,519,0,0
609,505,0,0,0,0,0,0,0,0,0,-1,1833,519,0,0
616,505,0,0,0,0,0,0,0,0,0,-1,1840,519,0,0
623,505,0,0,0,0,0,0,0,0,0,-1,1847,519,0,0
630,505,0,0,0,0,0,0,0,0,0,-1,1854,519,0,0
637,505,0,0,0,0,0,0,0,0,0,-1,1861,519,0,0
644,505,0,0,0,0,0,0,0,0,0,-1,1868,519,0,0
651,505,0,0,0,0,0,0,0,0,0,-1,1875,519,0,0
658,505,0,0,0,0,0,0,0,0,0,-1,1882,519,0,0
665,505,0,0,0,0,0,0,0,0,0,-1,1889,519,0,0
672,505,0,0,0,0,0,0,0,0,0,-1,1896,519,0,0
679,505,0,0,0,0,0,0,0,0,0,-1,1903,519,0,0
686,505,0,0,0,0,0,0,0,0,0,-1,1910,519,0,0
693,505,0,0,0,0,0,0,0,0,0,-1,1917,519,0,0
700,505,0,0,0,0,0,0,0,0,0,-1,1924,519,0,0
707,505,0,0,0,0,0,0,0,0,0,-1,1931,519,0,0
714,505,0,0,0,0,0,0,0,0,0,-1,1938,519,0,0
721,505,0,0,0,0,0,0,0,0,0,-1,1945,519,0,0
728,505,0,0,0,0,0,0,0,0,0,-1,1952,519,0,0
735,505,0,0,0,0,0,0,0,0,0,-1,1959,519,0,0
742,505,0,0,0,0,0,0,0,0,0,-1,1966,519,0,0
749,505,0,0,0,0,0,0,0,0,0,-1,1973,519,0,0
756,505,0,0,0,0,0,0,0,0,0,-1,1980,519,0,0
763,505,0,0,0,0,0,0,0,0,0,-1,1987,519,0,0
770,505,0,0,0,0,0,0,0,0,0,-1,1994,519,0,0
777,505,0,0,0,0,0,0,0,0,0,-1,2001,519,0,0
784,505,0,0,0,0,0,0,0,0,0,-1,2008,519,0,0
791,505,0,0,0,0,0,0,0,0,0,-1,2015,519,0,0
798,505,0,0,0,0,0,0,0,0,0,-1,2022,519,0,0
805,505,0,0,0,0,0,0,0,0,0,-1,2029,519,0,0
812,505,0,0,0,0,0,0,0,0,0,-1,2036,519,0,0
-700,498,0,0,0,0,0,0,0,0,0,-1,524,526,0,0
-693,498,0,0,0,0,0,0,0,0,0,-1,531,526,0,0
-686,498,0,0,0,0,0,0,0,0,0,-1,538,526,0,0
-679,498,0,0,0,0,0,0,0,0,0,-1,545,526,0,0
-672,498,0,0,0,0,0,0,0,0,0,-1,552,526,0,0
-665,498,0,0,0,0,0,0,0,0,0,-1,559,526,0,0
-658,498,0,0,0,0,0,0,0,0,0,-1,566,526,0,0
-651,498,0,0,0,0,0,0,0,0,0,-1,573,526,0,0
-644,498,0,0,0,0,0,0,0,0,0,-1,580,526,0,0
-637,498,0,0,0,0,0,0,0,0,0,-1,587,526,0,0
-630,498,0,0,0,0,0,0,0,0,0,-1,594,526,0,0
-623,498,0,0,0,0,0,0,0,0,0,-1,601,526,0,0
-616,498,0,0,0,0,0,0,0,0,0,-1,608,526,0,0
-609,498,0,0,0,0,0,0,0,0,0,-1,615,526,0,0
-602,498,0,0,0,0,0,0,0,0,0,-1,622,526,0,0
-595,498,0,0,0,0,0,0,0,0,0,-1,629,526,0,0
-588,498,0,0,0,0,0,0,0,0,0,-1,636,526,0,0
-581,498,0,0,0,0,0,0,0,0,0,-1,643,526,0,0
-574,498,0,0,0,0,0,0,0,0,0,-1,650,526,0,0
-567,498,0,0,0,0,0,0,0,0,0,-1,657,526,0,0
-560,498,0,0,0,0,0,0,0,0,0,-1,664,526,0,0
-553,498,0,0,0,0,0,0,0,0,0,-1,671,526,0,0
-546,498,0,0,0,0,0,0,0,0,0,-1,678,526,0,0
-539,498,0,0,0,0,0,0,0,0,0,-1,685,526,0,0
-532,498,0,0,0,0,0,0,0,0,0,-1,692,526,0,0
-525,498,0,0,0,0,0,0,0,0,0,-1,699,526,0,0
-518,498,0,0,0,0,0,0,0,0,0,-1,706,526,0,0
-511,498,0,0,0,0,0,0,0,0,0,-1,713,526,0,0
-504,498,0,0,0,0,0,0,0,0,0,-1,720,526,0,0
-497,498,0,0,0,0,0,0,0,0,0,-1,727,526,0,0
-490,498,0,0,0,0,0,0,0,0,0,-1,734,526,0,0
-483,498,0,0,0,0,0,0,0,0,0,-1,741,526,0,0
-476,498,0,0,0,0,0,0,0,0,0,-1,748,526,0,0
-469,498,0,0,0,0,0,0,0,0,0,-1,755,526,0,0
-462,498,6.81024,1.15515,0,0,0,0,0,0,0,-1,762,526,6.81026,-1.15514
-455,498,3.25757,-3.0592,0,0,0,0,0,0,0,-1,769,526,3.25754,3.05921
-448,498,3.05939,-3.74298,0,0,0,0,0,0,0,-1,776,526,3.05939,3.74296
-441,498,2.77191,-6.08209,0,0,0,0,0,0,0,-1,783,526,2.77189,6.08207
-434,498,2.10681,-6.95929,0,0,0,0,0,0,0,-1,790,526,2.10682,6.9593
-427,498,-0.368042,-10.7726,0,0,0,0,0,0,0,-1,797,526,-0.36807,10.7726
-420,498,-1.05035,-10.5142,0,0,0,0,0,0,0,-1,804,526,-1.05034,10.5142
-413,498,-3.41736,-14.6664,0,0,0,0,0,0,0,-1,811,526,-3.41735,14.6664
-406,498,-3.64087,-18.0844,0,0,0,0,0,0,0,-1,818,526,-3.64085,18.0844
-399,498,-3.62579,-19.009,0.00361457,0.0133876,-0.0107181,0.0202806,-0.00327842,-0.999277,0.0147352,0.0297056,825,526,-3.62581,19.009
-392,498,-3.67041,-19.8814,0.00365594,0.0118433,-0.00941472,0.0180159,-0.00251659,-0.990477,0.0129313,0.0150503,832,526,-3.67041,19.8814
-385,498,-3.69104,-20.6048,0.00364108,0.0102671,-0.00810757,0.0157125,-0.00180425,-0.979361,0.0111253,0.00985875,839,526,-3.69107,20.6048
-378,498,-3.72247,-21.3055,0.00350983,0.00863783,-0.00687823,0.0134144,-0.00126675,-0.963805,0.00939371,0.0099817,846,526,-3.72249,21.3055
-371,498,-3.75964,-22.0092,0.00322156,0.0069578,-0.00561308,0.0110055,-0.000826102,-0.94604,0.00762727,0.0151123,853,526,-3.75966,22.0091
-364,498,-3.7887,-22.72,0.0028648,0.00524402,-0.00435993,0.00857372,-0.000464906,-0.918582,0.00587692,0.0164022,860,526,-3.78872,22.72
-357,498,-3.79053,-23.3933,0.0025153,0.00357489,-0.00313929,0.00622878,-0.000138591,-0.868992,0.00419948,0.0117658,867,526,-3.79052,23.3933
-350,498,-3.83411,-24.0331,0.00218266,0.00208143,-0.00200146,0.00413414,0.000129949,-0.772757,0.00271381,0.0117539,874,526,-3.83411,24.0331
-343,498,-3.85443,-24.7475,0.00185375,0.000415511,-0.000850108,0.0022481,2.11598e-05,-0.434339,0.00149173,0.0152042,881,526,-3.85445,24.7475
-336,498,-3.85999,-25.4274,0.00156483,-0.00105264,0.000204707,0.00158074,-0.00106856,0.0775793,0.00153907,0.0198189,888,526,-3.85997,25.4274
-329,498,-3.87909,-26.0002,0.00142106,-0.00235662,0.00116903,0.00175356,-0.00268912,0.277105,0.00258387,0.0240573,895,526,-3.87908,26.0002
-322,498,-3.92322,-26.6812,0.00155266,-0.00336113,0.00194388,0.00222866,-0.00403713,0.334675,0.00366744,0.0247361,902,526,-3.92321,26.6812
-315,498,-3.95532,-27.3565,0.00184327,-0.00422041,0.00261548,0.00281553,-0.00519267,0.355902,0.00469095,0.0190289,909,526,-3.9553,27.3565
-308,498,-3.97455,-27.9752,0.0023917,-0.00494319,0.0031596,0.00356504,-0.00611653,0.355574,0.00565399,0.0207031,916,526,-3.97456,27.9752
-301,498,-3.88678,-28.6471,0.0028789,-0.00517619,0.00375449,0.00435747,-0.00665476,0.375163,0.00640386,0.0414204,923,526,-3.88677,28.6471
-294,498,-3.79565,-29.3294,0,0,0,0,0,0,0,-1,930,526,-3.79563,29.3294
-287,498,-0.91394,-13.4327,0,0,0,0,0,0,0,-1,937,526,-0.913935,13.4327
-280,498,-0.341614,-8.66608,0,0,0,0,0,0,0,-1,944,526,-0.341589,8.66606
-273,498,-0.988892,-8.62921,0,0,0,0,0,0,0,-1,951,526,-0.988906,8.62922
-266,498,0.362488,-6.33545,0,0,0,0,0,0,0,-1,958,526,0.362478,6.33547
-259,498,10.9454,-17.3615,0,0,0,0,0,0,0,-1,965,526,10.9454,17.3614
-252,498,8.56586,-14.6886,0,0,0,0,0,0,0,-1,972,526,8.56584,14.6886
-245,498,5.97382,-11.928,0,0,0,0,0,0,0,-1,979,526,5.97381,11.928
-238,498,2.24841,-13.8145,0,0,0,0,0,0,0,-1,986,526,2.24838,13.8145
-231,498,0.665894,-10.4898,0,0,0,0,0,0,0,-1,993,526,0.665863,10.4898
-224,498,-2.11243,-4.76312,0,0,0,0,0,0,0,-1,1000,526,-2.11245,4.76314
-217,498,-3.82239,-1.42841,0,0,0,0,0,0,0,-1,1007,526,-3.82241,1.42843
-210,498,-1.80591,-0.358215,0,0,0,0,0,0,0,-1,1014,526,-1.8059,0.3582
-203,498,-3.17316,1.06641,0,0,0,0,0,0,0,-1,1021,526,-3.17313,-1.0664
-196,498,-0.103271,5.40527,0,0,0,0,0,0,0,-1,1028,526,-0.103285,-5.40528
-189,498,3.00256,6.47137,0,0,0,0,0,0,0,-1,1035,526,3.00256,-6.47139
-182,498,0,0,0,0,0,0,0,0,0,-1,1042,526,0,0
-175,498,0,0,0,0,0,0,0,0,0,-1,1049,526,0,0
-168,498,0,0,0,0,0,0,0,0,0,-1,1056,526,0,0
-161,498,0,0,0,0,0,0,0,0,0,-1,1063,526,0,0
-154,498,0,0,0,0,0,0,0,0,0,-1,1070,526,0,0
-147,498,0,0,0,0,0,0,0,0,0,-1,1077,526,0,0
-140,498,0,0,0,0,0,0,0,0,0,-1,1084,526,0,0
-133,498,0,0,0,0,0,0,0,0,0,-1,1091,526,0,0
-126,498,0,0,0,0,0,0,0,0,0,-1,1098,526,0,0
-119,498,0,0,0,0,0,0,0,0,0,-1,1105,526,0,0
-112,498,0,0,0,0,0,0,0,0,0,-1,1112,526,0,0
-105,498,0,0,0,0,0,0,0,0,0,-1,1119,526,0,0
-98,498,0,0,0,0,0,0,0,0,0,-1,1126,526,0,0
-91,498,0,0,0,0,0,0,0,0,0,-1,1133,526,0,0
-84,498,0,0,0,0,0,0,0,0,0,-1,1140,526,0,0
-77,498,0,0,0,0,0,0,0,0,0,-1,1147,526,0,0
-70,498,0,0,0,0,0,0,0,0,0,-1,1154,526,0,0
-63,498,0,0,0,0,0,0,0,0,0,-1,1161,526,0,0
-56,498,0,0,0,0,0,0,0,0,0,-1,1168,526,0,0
-49,498,0,0,0,0,0,0,0,0,0,-1,1175,526,0,0
-42,498,0,0,0,0,0,0,0,0,0,-1,1182,526,0,0
-35,498,0,0,0,0,0,0,0,0,0,-1,1189,526,0,0
-28,498,0,0,0,0,0,0,0,0,0,-1,1196,526,0,0
-21,498,0,0,0,0,0,0,0,0,0,-1,1203,526,0,0
-14,498,0,0,0,0,0,0,0,0,0,-1,1210,526,0,0
-7,498,0,0,0,0,0,0,0,0,0,-1,1217,526,0,0
0,498,0,0,0,0,0,0,0,0,0,-1,1224,526,0,0
7,498,0,0,0,0,0,0,0,0,0,-1,1231,526,0,0
14,498,0,0,0,0,0,0,0,0,0,-1,1238,526,0,0
21,498,0,0,0,0,0,0,0,0,0,-1,1245,526,0,0
28,498,0,0,0,0,0,0,0,0,0,-1,1252,526,0,0
35,498,0,0,0,0,0,0,0,0,0,-1,1259,526,0,0
42,498,0,0,0,0,0,0,0,0,0,-1,1266,526,0,0
49,498,0,0,0,0,0,0,0,0,0,-1,1273,526,0,0
56,498,0,0,0,0,0,0,0,0,0,-1,1280,526,0,0
63,498,0,0,0,0,0,0,0,0,0,-1,1287,526,0,0
70,498,0,0,0,0,0,0,0,0,0,-1,1294,526,0,0
77,498,0,0,0,0,0,0,0,0,0,-1,1301,526,0,0
84,498,0,0,0,0,0,0,0,0,0,-1,1308,526,0,0
91,498,0,0,0,0,0,0,0,0,0,-1,1315,526,0,0
98,498,0,0,0,0,0,0,0,0,0,-1,1322,526,0,0
105,498,0,0,0,0,0,0,0,0,0,-1,1329,526,0,0
112,498,0,0,0,0,0,0,0,0,0,-1,1336,526,0,0
119,498,0,0,0,0,0,0,0,0,0,-1,1343,526,0,0
126,498,0,0,0,0,0,0,0,0,0,-1,1350,526,0,0
133,498,0,0,0,0,0,0,0,0,0,-1,1357,526,0,0
140,498,0,0,0,0,0,0,0,0,0,-1,1364,526,0,0
147,498,0,0,0,0,0,0,0,0,0,-1,1371,526,0,0
154,498,0,0,0,0,0,0,0,0,0,-1,1378,526,0,0
161,498,0,0,0,0,0,0,0,0,0,-1,1385,526,0,0
168,498,0,0,0,0,0,0,0,0,0,-1,1392,526,0,0
175,498,0,0,0,0,0,0,0,0,0,-1,1399,526,0,0
182,498,0,0,0,0,0,0,0,0,0,-1,1406,526,0,0
189,498,0,0,0,0,0,0,0,0,0,-1,1413,526,0,0
196,498,0,0,0,0,0,0,0,0,0,-1,1420,526,0,0
203,498,0,0,0,0,0,0,0,0,0,-1,1427,526,0,0
210,498,0,0,0,0,0,0,0,0,0,-1,1434,526,0,0
217,498,0,0,0,0,0,0,0,0,0,-1,1441,526,0,0
224,498,0,0,0,0,0,0,0,0,0,-1,1448,526,0,0
231,498,0,0,0,0,0,0,0,0,0,-1,1455,526,0,0
238,498,0,0,0,0,0,0,0,0,0,-1,1462,526,0,0
245,498,0,0,0,0,0,0,0,0,0,-1,1469,526,0,0
252,498,0,0,0,0,0,0,0,0,0,-1,1476,526,0,0
259,498,0,0,0,0,0,0,0,0,0,-1,1483,526,0,0
266,498,0,0,0,0,0,0,0,0,0,-1,1490,526,0,0
273,498,0,0,0,0,0,0,0,0,0,-1,1497,526,0,0
280,498,0,0,0,0,0,0,0,0,0,-1,1504,526,0,0
287,498,0,0,0,0,0,0,0,0,0,-1,1511,526,0,0
294,498,0,0,0,0,0,0,0,0,0,-1,1518,526,0,0
301,498,0,0,0,0,0,0,0,0,0,-1,1525,526,0,0
308,498,4.77942,-0.293884,0,0,0,0,0,0,0,-1,1532,526,4.77939,0.293899
315,498,4.56091,-0.564148,0,0,0,0,0,0,0,-1,1539,526,4.56097,0.564142
322,498,4.52344,-0.447266,0,0,0,0,0,0,0,-1,1546,526,4.52341,0.447295
329,498,4.63232,-0.156982,0,0,0,0,0,0,0,-1,1553,526,4.63238,0.156991
336,498,5.22644,0.0925903,0,0,0,0,0,0,0,-1,1560,526,5.22648,-0.0926188
343,498,6.22607,-1.67615,0,0,0,0,0,0,0,-1,1567,526,6.22605,1.67617
350,498,6.19373,-1.59906,0,0,0,0,0,0,0,-1,1574,526,6.19367,1.59906
357,498,6.21472,-1.58929,0,0,0,0,0,0,0,-1,1581,526,6.21476,1.58927
364,498,5.73547,-1.2019,0,0,0,0,0,0,0,-1,1588,526,5.73547,1.20192
371,498,3.27087,-4.55334,0,0,0,0,0,0,0,-1,1595,526,3.27089,4.55332
378,498,8.42944,-4.70624,0,0,0,0,0,0,0,-1,1602,526,8.42942,4.70624
385,498,4.7793,-5.15314,0,0,0,0,0,0,0,-1,1609,526,4.77935,5.15311
392,498,9.12439,-8.57953,0,0,0,0,0,0,0,-1,1616,526,9.12443,8.57955
399,498,7.98938,-9.46021,0,0,0,0,0,0,0,-1,1623,526,7.98936,9.4602
406,498,7.58081,-9.26819,0,0,0,0,0,0,0,-1,1630,526,7.58085,9.26817
413,498,7.17236,-9.07611,0,0,0,0,0,0,0,-1,1637,526,7.17234,9.07614
420,498,11.4314,-16.1147,0,0,0,0,0,0,0,-1,1644,526,11.4313,16.1147
427,498,16.2651,-27.9822,0,0,0,0,0,0,0,-1,1651,526,16.2652,27.9822
434,498,16.2396,-27.156,0.00200295,-0.000431979,-0.00216655,0.00327068,-0.0016997,-0.529418,0.00291704,0.0376123,1658,526,16.2396,27.156
441,498,16.3315,-26.4278,0.00174915,-0.000198176,-0.00179663,0.00281899,-0.00126801,-0.537082,0.0024156,0.0127259,1665,526,16.3315,26.4278
448,498,16.3424,-25.7266,0.00174582,3.06188e-05,-0.00134971,0.00248734,-0.000710904,-0.502379,0.00193913,0.0101897,1672,526,16.3424,25.7265
455,498,16.313,-25.0535,0.0017094,0.000447798,-0.000885735,0.002166,-8.79995e-06,-0.475972,0.00144694,0.0140209,1679,526,16.313,25.0534
462,498,16.3064,-24.4018,0.0015926,0.000660084,-0.000580114,0.00187061,0.000382078,-0.44689,0.00114124,0.0167089,1686,526,16.3064,24.4018
469,498,16.2767,-23.748,0.00149509,0.000894147,-5.06727e-05,0.00149933,0.000889904,-0.0835364,0.000870673,0.0145505,1693,526,16.2767,23.7481
476,498,16.2429,-23.0637,0.00140597,0.00125314,0.000647208,0.00198126,0.000677852,0.726637,0.00116273,0.0103906,1700,526,16.243,23.0637
483,498,16.2024,-22.3741,0.00129733,0.00159053,0.00139451,0.00284613,4.17302e-05,0.837768,0.00188366,0.00886346,1707,526,16.2024,22.3741
490,498,16.1575,-21.6598,0.00108692,0.00209048,0.00222626,0.00387081,-0.000693409,0.896242,0.00284003,0.0111738,1714,526,16.1575,21.6598
497,498,16.1323,-20.9511,0.000845155,0.00269038,0.00321436,0.00511192,-0.00157638,0.925155,0.00403733,0.0131439,1721,526,16.1324,20.9511
504,498,16.1187,-20.2484,0.00058087,0.00322174,0.00425589,0.00635733,-0.00255472,0.93582,0.0052992,0.0149267,1728,526,16.1187,20.2484
511,498,16.0879,-19.5255,0.000175957,0.00387467,0.00529807,0.00763688,-0.00358626,0.953318,0.00661886,0.0158258,1735,526,16.0879,19.5255
518,498,16.1174,-18.7961,-0.000390997,0.00461665,0.00626441,0.00885908,-0.00463343,0.975518,0.00791622,0.0184862,1742,526,16.1174,18.7961
525,498,15.9938,-18.0847,-0.00103351,0.00537246,0.00715727,0.0100108,-0.0056718,0.995791,0.00916911,0.0277529,1749,526,15.9938,18.0847
532,498,15.8539,-17.3809,-0.00182054,0.00619408,0.00789986,0.0110449,-0.00667135,1.02012,0.0103318,0.0451283,1756,526,15.8538,17.3809
539,498,15.9108,-16.6671,0,0,0,0,0,0,0,-1,1763,526,15.9107,16.6671
546,498,10.2014,-8.47589,0,0,0,0,0,0,0,-1,1770,526,10.2014,8.47589
553,498,5.93958,-1.71448,0,0,0,0,0,0,0,-1,1777,526,5.93956,1.71447
560,498,3.69385,-0.615112,0,0,0,0,0,0,0,-1,1784,526,3.69381,0.615118
567,498,5.12695,-0.581604,0,0,0,0,0,0,0,-1,1791,526,5.12699,0.58159
574,498,3.88,0.0286255,0,0,0,0,0,0,0,-1,1798,526,3.87999,-0.0286535
581,498,10.8722,2.58551,0,0,0,0,0,0,0,-1,1805,526,10.8723,-2.58551
588,498,0,0,0,0,0,0,0,0,0,-1,1812,526,0,0
595,498,0,0,0,0,0,0,0,0,0,-1,1819,526,0,0
602,498,0,0,0,0,0,0,0,0,0,-1,1826,526,0,0
609,498,0,0,0,0,0,0,0,0,0,-1,1833,526,0,0
616,498,0,0,0,0,0,0,0,0,0,-1,1840,526,0,0
623,498,0,0,0,0,0,0,0,0,0,-1,1847,526,0,0
630,498,0,0,0,0,0,0,0,0,0,-1,1854,526,0,0
637,498,0,0,0,0,0,0,0,0,0,-1,1861,526,0,0
644,498,0,0,0,0,0,0,0,0,0,-1,1868,526,0,0
651,498,0,0,0,0,0,0,0,0,0,-1,1875,526,0,0
658,498,0,0,0,0,0,0,0,0,0,-1,1882,526,0,0
665,498,0,0,0,0,0,0,0,0,0,-1,1889,526,0,0
672,498,0,0,0,0,0,0,0,0,0,-1,1896,526,0,0
679,498,0,0,0,0,0,0,0,0,0,-1,1903,526,0,0
686,498,0,0,0,0,0,0,0,0,0,-1,1910,526,0,0
693,498,0,0,0,0,0,0,0,0,0,-1,1917,526,0,0
700,498,0,0,0,0,0,0,0,0,0,-1,1924,526,0,0
707,498,0,0,0,0,0,0,0,0,0,-1,1931,526,0,0
714,498,0,0,0,0,0,0,0,0,0,-1,1938,526,0,0
721,498,0,0,0,0,0,0,0,0,0,-1,1945,526,0,0
728,498,0,0,0,0,0,0,0,0,0,-1,1952,526,0,0
735,498,0,0,0,0,0,0,0,0,0,-1,1959,526,0,0
742,498,0,0,0,0,0,0,0,0,0,-1,1966,526,0,0
749,498,0,0,0,0,0,0,0,0,0,-1,1973,526,0,0
756,498,0,0,0,0,0,0,0,0,0,-1,1980,526,0,0
763,498,0,0,0,0,0,0,0,0,0,-1,1987,526,0,0
770,498,0,0,0,0,0,0,0,0,0,-1,1994,526,0,0
777,498,0,0,0,0,0,0,0,0,0,-1,2001,526,0,0
784,498,0,0,0,0,0,0,0,0,0,-1,2008,526,0,0
791,498,0,0,0,0,0,0,0,0,0,-1,2015,526,0,0
798,498,0,0,0,0,0,0,0,0,0,-1,2022,526,0,0
805,498,0,0,0,0,0,0,0,0,0,-1,2029,526,0,0
812,498,0,0,0,0,0,0,0,0,0,-1,2036,526,0,0
-700,491,0,0,0,0,0,0,0,0,0,-1,524,533,0,0
-693,491,0,0,0,0,0,0,0,0,0,-1,531,533,0,0
-686,491,0,0,0,0,0,0,0,0,0,-1,538,533,0,0
-679,491,0,0,0,0,0,0,0,0,0,-1,545,533,0,0
-672,491,0,0,0,0,0,0,0,0,0,-1,552,533,0,0
-665,491,0,0,0,0,0,0,0,0,0,-1,559,533,0,0
-658,491,0,0,0,0,0,0,0,0,0,-1,566,533,0,0
-651,491,0,0,0,0,0,0,0,0,0,-1,573,533,0,0
-644,491,0,0,0,0,0,0,0,0,0,-1,580,533,0,0
-637,491,0,0,0,0,0,0,0,0,0,-1,587,533,0,0
-630,491,0,0,0,0,0,0,0,0,0,-1,594,533,0,0
-623,491,0,0,0,0,0,0,0,0,0,-1,601,533,0,0
-616,491,0,0,0,0,0,0,0,0,0,-1,608,533,0,0
-609,491,0,0,0,0,0,0,0,0,0,-1,615,533,0,0
-602,491,0,0,0,0,0,0,0,0,0,-1,622,533,0,0
-595,491,0,0,0,0,0,0,0,0,0,-1,629,533,0,0
-588,491,0,0,0,0,0,0,0,0,0,-1,636,533,0,0
-581,491,0,0,0,0,0,0,0,0,0,-1,643,533,0,0
-574,491,0,0,0,0,0,0,0,0,0,-1,650,533,0,0
-567,491,0,0,0,0,0,0,0,0,0,-1,657,533,0,0
-560,491,0,0,0,0,0,0,0,0,0,-1,664,533,0,0
-553,491,0,0,0,0,0,0,0,0,0,-1,671,533,0,0
-546,491,0,0,0,0,0,0,0,0,0,-1,678,533,0,0
-539,491,0,0,0,0,0,0,0,0,0,-1,685,533,0,0
-532,491,0,0,0,0,0,0,0,0,0,-1,692,533,0,0
-525,491,0,0,0,0,0,0,0,0,0,-1,699,533,0,0
-518,491,0,0,0,0,0,0,0,0,0,-1,706,533,0,0
-511,491,0,0,0,0,0,0,0,0,0,-1,713,533,0,0
-504,491,0,0,0,0,0,0,0,0,0,-1,720,533,0,0
-497,491,0,0,0,0,0,0,0,0,0,-1,727,533,0,0
-490,491,0,0,0,0,0,0,0,0,0,-1,734,533,0,0
-483,491,0,0,0,0,0,0,0,0,0,-1,741,533,0,0
-476,491,0,0,0,0,0,0,0,0,0,-1,748,533,0,0
-469,491,-5.85913,4.55011,0,0,0,0,0,0,0,-1,755,533,-5.8591,-4.55009
-462,491,-9.93713,4.90381,0,0,0,0,0,0,0,-1,762,533,-9.93716,-4.9038
-455,491,1.9494,-0.27887,0,0,0,0,0,0,0,-1,769,533,1.94941,0.27885
-448,491,2.68909,-1.8999,0,0,0,0,0,0,0,-1,776,533,2.6891,1.89988
-441,491,3.46069,-3.51855,0,0,0,0,0,0,0,-1,783,533,3.46071,3.51854
-434,491,2.67145,-7.44061,0,0,0,0,0,0,0,-1,790,533,2.67146,7.44061
-427,491,2.27136,-8.34546,0,0,0,0,0,0,0,-1,797,533,2.27136,8.34546
-420,491,-4.51215,-16.0858,0,0,0,0,0,0,0,-1,804,533,-4.51213,16.0858
-413,491,-4.29828,-17.5093,0,0,0,0,0,0,0,-1,811,533,-4.29826,17.5093
-406,491,-4.26324,-18.4222,0.00231551,0.0111142,-0.00916811,0.0168838,-0.00345415,-1.0091,0.0125665,0.0255783,818,533,-4.26326,18.4222
-399,491,-4.27075,-19.2296,0.00235093,0.00987265,-0.00803368,0.0149822,-0.00275861,-1.00431,0.0110233,0.0133364,825,533,-4.27073,19.2296
-392,491,-4.3335,-19.9396,0.00245813,0.00853981,-0.00696113,0.0130953,-0.00209735,-0.991323,0.00950675,0.0109233,832,533,-4.33348,19.9396
-385,491,-4.36438,-20.6077,0.00255918,0.00723642,-0.00592367,0.0112664,-0.00147079,-0.973403,0.00804613,0.00943614,839,533,-4.36439,20.6077
-378,491,-4.39606,-21.2787,0.00256986,0.00586114,-0.00491042,0.00939433,-0.000963334,-0.947083,0.00660745,0.01314,846,533,-4.39609,21.2787
-371,491,-4.42603,-21.9614,0.00244865,0.0044157,-0.00385818,0.00741374,-0.000549396,-0.9102,0.00513543,0.0139274,853,533,-4.426,21.9614
-364,491,-4.44574,-22.6649,0.00227184,0.00291332,-0.00281159,0.00542241,-0.000237247,-0.842192,0.00369656,0.0134746,860,533,-4.44577,22.6648
-357,491,-4.4577,-23.3351,0.00209563,0.00145601,-0.00178295,0.00358722,-3.55827e-05,-0.696657,0.00240343,0.0118946,867,533,-4.45773,23.3351
-350,491,-4.48773,-23.9794,0.00194711,0.000171346,-0.000837151,0.00227954,-0.000161082,-0.377999,0.00157613,0.0151481,874,533,-4.48772,23.9794
-343,491,-4.49603,-24.6963,0.0017656,-0.00131712,0.000165376,0.00177445,-0.00132597,0.0534418,0.00179625,0.0274709,881,533,-4.49603,24.6963
-336,491,-4.57855,-25.4088,0.00161443,-0.00266414,0.00108883,0.00187559,-0.00292529,0.235399,0.00279379,0.0287032,888,533,-4.57857,25.4087
-329,491,-4.61505,-25.9981,0.00161137,-0.00387057,0.00196127,0.00224079,-0.00449999,0.31054,0.00396398,0.0273891,895,533,-4.61508,25.9981
-322,491,-4.63721,-26.6033,0.0019554,-0.00471509,0.00259921,0.0028486,-0.00560829,0.331,0.00496849,0.0234018,902,533,-4.63722,26.6034
-315,491,-4.61969,-27.2099,0.00245198,-0.00546241,0.00314771,0.00355122,-0.00656165,0.335977,0.00592427,0.0204643,909,533,-4.61969,27.2099
-308,491,-4.59277,-28.0267,0,0,0,0,0,0,0,-1,916,533,-4.59278,28.0267
-301,491,-4.5282,-28.9982,0,0,0,0,0,0,0,-1,923,533,-4.52822,28.9982
-294,491,-0.777283,-8.60913,0,0,0,0,0,0,0,-1,930,533,-0.777288,8.6091
-287,491,-0.26123,-8.69055,0,0,0,0,0,0,0,-1,937,533,-0.261204,8.69053
-280,491,0.2948,-5.99219,0,0,0,0,0,0,0,-1,944,533,0.294811,5.99221
-273,491,0.369995,-5.33691,0,0,0,0,0,0,0,-1,951,533,0.369985,5.33693
-266,491,1.1167,-5.0321,0,0,0,0,0,0,0,-1,958,533,1.11668,5.0321
-259,491,12.0862,-16.9615,0,0,0,0,0,0,0,-1,965,533,12.0862,16.9615
-252,491,9.72443,-13.8417,0,0,0,0,0,0,0,-1,972,533,9.72444,13.8418
-245,491,5.27258,-14.3619,0,0,0,0,0,0,0,-1,979,533,5.27255,14.3619
-238,491,3.65381,-11.1472,0,0,0,0,0,0,0,-1,986,533,3.6538,11.1472
-231,491,2.17719,-7.86835,0,0,0,0,0,0,0,-1,993,533,2.17719,7.86832
-224,491,0.554626,-4.61725,0,0,0,0,0,0,0,-1,1000,533,0.554608,4.61727
-217,491,-2.92743,-1.0766,0,0,0,0,0,0,0,-1,1007,533,-2.92743,1.07659
-210,491,-0.92395,0.374512,0,0,0,0,0,0,0,-1,1014,533,-0.923959,-0.374531
-203,491,0.417419,4.77161,0,0,0,0,0,0,0,-1,1021,533,0.417446,-4.77162
-196,491,0,0,0,0,0,0,0,0,0,-1,1028,533,0,0
-189,491,0,0,0,0,0,0,0,0,0,-1,1035,533,0,0
-182,491,0,0,0,0,0,0,0,0,0,-1,1042,533,0,0
-175,491,0,0,0,0,0,0,0,0,0,-1,1049,533,0,0
-168,491,0,0,0,0,0,0,0,0,0,-1,1056,533,0,0
-161,491,0,0,0,0,0,0,0,0,0,-1,1063,533,0,0
-154,491,0,0,0,0,0,0,0,0,0,-1,1070,533,0,0
-147,491,0,0,0,0,0,0,0,0,0,-1,1077,533,0,0
-140,491,0,0,0,0,0,0,0,0,0,-1,1084,533,0,0
-133,491,0,0,0,0,0,0,0,0,0,-1,1091,533,0,0
-126,491,0,0,0,0,0,0,0,0,0,-1,1098,533,0,0
-119,491,0,0,0,0,0,0,0,0,0,-1,1105,533,0,0
-112,491,0,0,0,0,0,0,0,0,0,-1,1112,533,0,0
-105,491,0,0,0,0,0,0,0,0,0,-1,1119,533,0,0
-98,491,0,0,0,0,0,0,0,0,0,-1,1126,533,0,0
-91,491,0,0,0,0,0,0,0,0,0,-1,1133,533,0,0
-84,491,0,0,0,0,0,0,0,0,0,-1,1140,533,0,0
-77,491,0,0,0,0,0,0,0,0,0,-1,1147,533,0,0
-70,491,0,0,0,0,0,0,0,0,0,-1,1154,533,0,0
-63,491,0,0,0,0,0,0,0,0,0,-1,1161,533,0,0
-56,491,0,0,0,0,0,0,0,0,0,-1,1168,533,0,0
-49,491,0,0,0,0,0,0,0,0,0,-1,1175,533,0,0
-42,491,0,0,0,0,0,0,0,0,0,-1,1182,533,0,0
-35,491,0,0,0,0,0,0,0,0,0,-1,1189,533,0,0
-28,491,0,0,0,0,0,0,0,0,0,-1,1196,533,0,0
-21,491,0,0,0,0,0,0,0,0,0,-1,1203,533,0,0
-14,491,0,0,0,0,0,0,0,0,0,-1,1210,533,0,0
-7,491,0,0,0,0,0,0,0,0,0,-1,1217,533,0,0
0,491,0,0,0,0,0,0,0,0,0,-1,1224,533,0,0
7,491,0,0,0,0,0,0,0,0,0,-1,1231,533,0,0
14,491,0,0,0,0,0,0,0,0,0,-1,1238,533,0,0
21,491,0,0,0,0,0,0,0,0,0,-1,1245,533,0,0
28,491,0,0,0,0,0,0,0,0,0,-1,1252,533,0,0
35,491,0,0,0,0,0,0,0,0,0,-1,1259,533,0,0
42,491,0,0,0,0,0,0,0,0,0,-1,1266,533,0,0
49,491,0,0,0,0,0,0,0,0,0,-1,1273,533,0,0
56,491,0,0,0,0,0,0,0,0,0,-1,1280,533,0,0
63,491,0,0,0,0,0,0,0,0,0,-1,1287,533,0,0
70,491,0,0,0,0,0,0,0,0,0,-1,1294,533,0,0
77,491,0,0,0,0,0,0,0,0,0,-1,1301,533,0,0
84,491,0,0,0,0,0,0,0,0,0,-1,1308,533,0,0
91,491,0,0,0,0,0,0,0,0,0,-1,1315,533,0,0
98,491,0,0,0,0,0,0,0,0,0,-1,1322,533,0,0
105,491,0,0,0,0,0,0,0,0,0,-1,1329,533,0,0
112,491,0,0,0,0,0,0,0,0,0,-1,1336,533,0,0
119,491,0,0,0,0,0,0,0,0,0,-1,1343,533,0,0
126,491,0,0,0,0,0,0,0,0,0,-1,1350,533,0,0
133,491,0,0,0,0,0,0,0,0,0,-1,1357,533,0,0
140,491,0,0,0,0,0,0,0,0,0,-1,1364,533,0,0
147,491,0,0,0,0,0,0,0,0,0,-1,1371,533,0,0
154,491,0,0,0,0,0,0,0,0,0,-1,1378,533,0,0
161,491,0,0,0,0,0,0,0,0,0,-1,1385,533,0,0
168,491,0,0,0,0,0,0,0,0,0,-1,1392,533,0,0
175,491,0,0,0,0,0,0,0,0,0,-1,1399,533,0,0
182,491,0,0,0,0,0,0,0,0,0,-1,1406,533,0,0
189,491,0,0,0,0,0,0,0,0,0,-1,1413,533,0,0
196,491,0,0,0,0,0,0,0,0,0,-1,1420,533,0,0
203,491,0,0,0,0,0,0,0,0,0,-1,1427,533,0,0
210,491,0,0,0,0,0,0,0,0,0,-1,1434,533,0,0
217,491,0,0,0,0,0,0,0,0,0,-1,1441,533,0,0
224,491,0,0,0,0,0,0,0,0,0,-1,1448,533,0,0
231,491,0,0,0,0,0,0,0,0,0,-1,1455,533,0,0
238,491,0,0,0,0,0,0,0,0,0,-1,1462,533,0,0
245,491,0,0,0,0,0,0,0,0,0,-1,1469,533,0,0
252,491,0,0,0,0,0,0,0,0,0,-1,1476,533,0,0
259,491,0,0,0,0,0,0,0,0,0,-1,1483,533,0,0
266,491,0,0,0,0,0,0,0,0,0,-1,1490,533,0,0
273,491,0,0,0,0,0,0,0,0,0,-1,1497,533,0,0
280,491,0,0,0,0,0,0,0,0,0,-1,1504,533,0,0
287,491,0,0,0,0,0,0,0,0,0,-1,1511,533,0,0
294,491,0,0,0,0,0,0,0,0,0,-1,1518,533,0,0
301,491,0,0,0,0,0,0,0,0,0,-1,1525,533,0,0
308,491,0,0,0,0,0,0,0,0,0,-1,1532,533,0,0
315,491,0,0,0,0,0,0,0,0,0,-1,1539,533,0,0
322,491,4.26331,-0.734314,0,0,0,0,0,0,0,-1,1546,533,4.26326,0.734324
329,491,4.25354,-0.783752,0,0,0,0,0,0,0,-1,1553,533,4.25359,0.783734
336,491,4.81604,-0.722107,0,0,0,0,0,0,0,-1,1560,533,4.81605,0.722115
343,491,6.14478,-1.44281,0,0,0,0,0,0,0,-1,1567,533,6.14474,1.44281
350,491,6.36353,-1.30792,0,0,0,0,0,0,0,-1,1574,533,6.36352,1.3079
357,491,6.69482,-1.06018,0,0,0,0,0,0,0,-1,1581,533,6.69489,1.06018
364,491,8.01086,-1.69604,0,0,0,0,0,0,0,-1,1588,533,8.01087,1.69607
371,491,8.2135,-0.539307,0,0,0,0,0,0,0,-1,1595,533,8.21348,0.53929
378,491,13.3589,2.17267,0,0,0,0,0,0,0,-1,1602,533,13.3589,-2.17264
385,491,8.08228,-4.95471,0,0,0,0,0,0,0,-1,1609,533,8.08227,4.95474
392,491,2.88721,-4.30988,0,0,0,0,0,0,0,-1,1616,533,2.88716,4.30986
399,491,8.95862,-8.55518,0,0,0,0,0,0,0,-1,1623,533,8.95864,8.55516
406,491,8.16541,-9.00806,0,0,0,0,0,0,0,-1,1630,533,8.16535,9.00807
413,491,5.31848,-3.7124,0,0,0,0,0,0,0,-1,1637,533,5.31849,3.7124
420,491,4.86389,-3.95892,0,0,0,0,0,0,0,-1,1644,533,4.86387,3.95893
427,491,11.5096,-15.2742,0,0,0,0,0,0,0,-1,1651,533,11.5096,15.2742
434,491,17.0455,-26.7328,0,0,0,0,0,0,0,-1,1658,533,17.0455,26.7329
441,491,17.0341,-26.1683,0.00209517,-0.000451481,-0.00240581,0.00354384,-0.00190015,-0.542004,0.00319049,0.0406752,1665,533,17.0341,26.1683
448,491,17.0125,-25.7477,0.00199628,-0.000168459,-0.00196594,0.00315812,-0.0013303,-0.533761,0.00266205,0.029365,1672,533,17.0124,25.7477
455,491,16.9999,-25.0471,0.00188497,0.000294388,-0.00151824,0.0028036,-0.000624243,-0.544135,0.00210818,0.018272,1679,533,16.9998,25.0471
462,491,17.0059,-24.3817,0.00168226,0.000479555,-0.0013541,0.00256253,-0.000400718,-0.576431,0.0018564,0.0166511,1686,533,17.0059,24.3817
469,491,16.9524,-23.7286,0.00152018,0.000579179,-0.000949046,0.00210895,-9.59414e-06,-0.555273,0.00140918,0.0157653,1693,533,16.9523,23.7287
476,491,16.9307,-23.0245,0.00140336,0.000837674,-0.000343726,0.00156566,0.000675379,-0.44113,0.000906767,0.0108194,1700,533,16.9307,23.0245
483,491,16.8877,-22.3122,0.00128233,0.00108604,0.00032811,0.00152666,0.000841713,0.640071,0.000882967,0.0117783,1707,533,16.8877,22.3122
490,491,16.8433,-21.6332,0.0010478,0.00149369,0.00102213,0.0023169,0.000224583,0.892776,0.00147545,0.0104028,1714,533,16.8433,21.6332
497,491,16.824,-20.9299,0.000826882,0.00203657,0.00189105,0.00341714,-0.000553695,0.940179,0.00248332,0.0122103,1721,533,16.824,20.9299
504,491,16.8258,-20.2242,0.000618497,0.00242299,0.00277388,0.00443767,-0.00139618,0.942634,0.00351745,0.01346,1728,533,16.8258,20.2243
511,491,16.7843,-19.5111,0.000287709,0.00293445,0.00363922,0.00548345,-0.00226129,0.959786,0.00459862,0.0120119,1735,533,16.7843,19.5111
518,491,16.7404,-18.7949,-0.000187022,0.00352322,0.00440962,0.00645206,-0.00311586,0.984509,0.00563487,0.00989798,1742,533,16.7403,18.7949
525,491,16.7156,-18.0624,-0.000668227,0.00413633,0.0051292,0.00739794,-0.00392984,1.0044,0.00664148,0.0105212,1749,533,16.7155,18.0624
532,491,16.6874,-17.3419,-0.00120778,0.00487686,0.00575468,0.00834392,-0.00467484,1.02856,0.00761524,0.0235755,1756,533,16.6874,17.3419
539,491,16.6974,-16.5374,0,0,0,0,0,0,0,-1,1763,533,16.6974,16.5374
546,491,16.02,-15.575,0,0,0,0,0,0,0,-1,1770,533,16.02,15.575
553,491,10.5021,-7.77869,0,0,0,0,0,0,0,-1,1777,533,10.502,7.77871
560,491,6.28455,-1.43585,0,0,0,0,0,0,0,-1,1784,533,6.28458,1.43586
567,491,5.67651,-1.3562,0,0,0,0,0,0,0,-1,1791,533,5.67649,1.3562
574,491,8.0719,1.58325,0,0,0,0,0,0,0,-1,1798,533,8.07195,-1.58326
581,491,9.44812,1.60931,0,0,0,0,0,0,0,-1,1805,533,9.44808,-1.60933
588,491,11.0497,1.54962,0,0,0,0,0,0,0,-1,1812,533,11.0496,-1.54963
595,491,0,0,0,0,0,0,0,0,0,-1,1819,533,0,0
602,491,0,0,0,0,0,0,0,0,0,-1,1826,533,0,0
609,491,0,0,0,0,0,0,0,0,0,-1,1833,533,0,0
616,491,0,0,0,0,0,0,0,0,0,-1,1840,533,0,0
623,491,0,0,0,0,0,0,0,0,0,-1,1847,533,0,0
630,491,0,0,0,0,0,0,0,0,0,-1,1854,533,0,0
637,491,0,0,0,0,0,0,0,0,0,-1,1861,533,0,0
644,491,0,0,0,0,0,0,0,0,0,-1,1868,533,0,0
651,491,0,0,0,0,0,0,0,0,0,-1,1875,533,0,0
658,491,0,0,0,0,0,0,0,0,0,-1,1882,533,0,0
665,491,0,0,0,0,0,0,0,0,0,-1,1889,533,0,0
672,491,0,0,0,0,0,0,0,0,0,-1,1896,533,0,0
679,491,0,0,0,0,0,0,0,0,0,-1,1903,533,0,0
686,491,0,0,0,0,0,0,0,0,0,-1,1910,533,0,0
693,491,0,0,0,0,0,0,0,0,0,-1,1917,533,0,0
700,491,0,0,0,0,0,0,0,0,0,-1,1924,533,0,0
707,491,0,0,0,0,0,0,0,0,0,-1,1931,533,0,0
714,491,0,0,0,0,0,0,0,0,0,-1,1938,533,0,0
721,491,0,0,0,0,0,0,0,0,0,-1,1945,533,0,0
728,491,0,0,0,0,0,0,0,0,0,-1,1952,533,0,0
735,491,0,0,0,0,0,0,0,0,0,-1,1959,533,0,0
742,491,0,0,0,0,0,0,0,0,0,-1,1966,533,0,0
749,491,0,0,0,0,0,0,0,0,0,-1,1973,533,0,0
756,491,0,0,0,0,0,0,0,0,0,-1,1980,533,0,0
763,491,0,0,0,0,0,0,0,0,0,-1,1987,533,0,0
770,491,0,0,0,0,0,0,0,0,0,-1,1994,533,0,0
777,491,0,0,0,0,0,0,0,0,0,-1,2001,533,0,0
784,491,0,0,0,0,0,0,0,0,0,-1,2008,533,0,0
791,491,0,0,0,0,0,0,0,0,0,-1,2015,533,0,0
798,491,0,0,0,0,0,0,0,0,0,-1,2022,533,0,0
805,491,0,0,0,0,0,0,0,0,0,-1,2029,533,0,0
812,491,0,0,0,0,0,0,0,0,0,-1,2036,533,0,0
-700,484,0,0,0,0,0,0,0,0,0,-1,524,540,0,0
-693,484,0,0,0,0,0,0,0,0,0,-1,531,540,0,0
-686,484,0,0,0,0,0,0,0,0,0,-1,538,540,0,0
-679,484,0,0,0,0,0,0,0,0,0,-1,545,540,0,0
-672,484,0,0,0,0,0,0,0,0,0,-1,552,540,0,0
-665,484,0,0,0,0,0,0,0,0,0,-1,559,540,0,0
-658,484,0,0,0,0,0,0,0,0,0,-1,566,540,0,0
-651,484,0,0,0,0,0,0,0,0,0,-1,573,540,0,0
-644,484,0,0,0,0,0,0,0,0,0,-1,580,540,0,0
-637,484,0,0,0,0,0,0,0,0,0,-1,587,540,0,0
-630,484,0,0,0,0,0,0,0,0,0,-1,594,540,0,0
-623,484,0,0,0,0,0,0,0,0,0,-1,601,540,0,0
-616,484,0,0,0,0,0,0,0,0,0,-1,608,540,0,0
-609,484,0,0,0,0,0,0,0,0,0,-1,615,540,0,0
-602,484,0,0,0,0,0,0,0,0,0,-1,622,540,0,0
-595,484,0,0,0,0,0,0,0,0,0,-1,629,540,0,0
-588,484,0,0,0,0,0,0,0,0,0,-1,636,540,0,0
-581,484,0,0,0,0,0,0,0,0,0,-1,643,540,0,0
-574,484,0,0,0,0,0,0,0,0,0,-1,650,540,0,0
-567,484,0,0,0,0,0,0,0,0,0,-1,657,540,0,0
-560,484,0,0,0,0,0,0,0,0,0,-1,664,540,0,0
-553,484,0,0,0,0,0,0,0,0,0,-1,671,540,0,0
-546,484,0,0,0,0,0,0,0,0,0,-1,678,540,0,0
-539,484,0,0,0,0,0,0,0,0,0,-1,685,540,0,0
-532,484,0,0,0,0,0,0,0,0,0,-1,692,540,0,0
-525,484,0,0,0,0,0,0,0,0,0,-1,699,540,0,0
-518,484,0,0,0,0,0,0,0,0,0,-1,706,540,0,0
-511,484,0,0,0,0,0,0,0,0,0,-1,713,540,0,0
-504,484,0,0,0,0,0,0,0,0,0,-1,720,540,0,0
-497,484,0,0,0,0,0,0,0,0,0,-1,727,540,0,0
-490,484,0,0,0,0,0,0,0,0,0,-1,734,540,0,0
-483,484,0,0,0,0,0,0,0,0,0,-1,741,540,0,0
-476,484,-8.46552,1.44702,0,0,0,0,0,0,0,-1,748,540,-8.46554,-1.44702
-469,484,-7.82343,1.70355,0,0,0,0,0,0,0,-1,755,540,-7.82345,-1.70355
-462,484,-8.36987,3.08612,0,0,0,0,0,0,0,-1,762,540,-8.36988,-3.0861
-455,484,-6.77197,2.07092,0,0,0,0,0,0,0,-1,769,540,-6.77197,-2.07094
-448,484,3.54895,-1.40106,0,0,0,0,0,0,0,-1,776,540,3.54897,1.40106
-441,484,4.28906,-3.05884,0,0,0,0,0,0,0,-1,783,540,4.28905,3.05883
-434,484,-2.17548,-5.07245,0,0,0,0,0,0,0,-1,790,540,-2.17546,5.07243
-427,484,-4.71765,-15.6866,0,0,0,0,0,0,0,-1,797,540,-4.71762,15.6866
-420,484,-4.67914,-16.6934,0,0,0,0,0,0,0,-1,804,540,-4.67915,16.6934
-413,484,-4.75366,-17.598,0.00132899,0.00905649,-0.0076147,0.0137316,-0.00334613,-1.02018,0.0104499,0.0298189,811,540,-4.75368,17.598
-406,484,-4.86902,-18.4559,0.00149576,0.00808234,-0.00680788,0.0123517,-0.00277355,-1.01068,0.00929789,0.0163152,818,540,-4.86903,18.4559
-399,484,-4.95642,-19.2047,0.00157073,0.00696701,-0.00587041,0.0107297,-0.00219191,-1.00081,0.00798467,0.0171674,825,540,-4.95641,19.2047
-392,484,-5.00781,-19.8905,0.00172964,0.00577892,-0.00496616,0.00911729,-0.00160873,-0.978956,0.00667933,0.0188212,832,540,-5.00784,19.8905
-385,484,-5.04309,-20.5875,0.0019116,0.0046572,-0.00412475,0.0076316,-0.0010628,-0.946042,0.00547648,0.0134408,839,540,-5.04311,20.5875
-378,484,-5.06873,-21.2557,0.00201823,0.0034696,-0.00327188,0.0060953,-0.000607474,-0.894529,0.00428042,0.0148111,846,540,-5.06871,21.2557
-371,484,-5.10687,-21.9288,0.00202372,0.00222278,-0.00238942,0.00451474,-0.000268243,-0.806213,0.00310311,0.0166764,853,540,-5.10685,21.9288
-364,484,-5.13715,-22.5921,0.00198447,0.000928085,-0.00151735,0.00306294,-0.00015038,-0.617907,0.00209388,0.011893,860,540,-5.13715,22.5921
-357,484,-5.14276,-23.2666,0.00193676,-0.000290601,-0.00066924,0.00212237,-0.000476215,-0.27055,0.00159749,0.011936,867,540,-5.14278,23.2666
-350,484,-5.1806,-23.9317,0.00192842,-0.00131997,7.58258e-05,0.00193019,-0.00132174,0.0233257,0.00188842,0.0152758,874,540,-5.18061,23.9317
-343,484,-5.18079,-24.6212,0.00185564,-0.00253248,0.000901199,0.00203351,-0.00271035,0.194868,0.00274814,0.0239445,881,540,-5.18077,24.6211
-336,484,-5.26239,-25.3077,0.00181471,-0.00365927,0.00165072,0.00227396,-0.00411853,0.271353,0.00374157,0.0267089,888,540,-5.26239,25.3077
-329,484,-5.31769,-25.9312,0.00193509,-0.0046787,0.00238506,0.00270546,-0.00544906,0.312419,0.00479602,0.0371557,895,540,-5.31767,25.9312
-322,484,-5.25989,-26.6807,0,0,0,0,0,0,0,-1,902,540,-5.25991,26.6807
-315,484,-5.09399,-27.1685,0,0,0,0,0,0,0,-1,909,540,-5.09401,27.1685
-308,484,-1.32623,-8.9317,0,0,0,0,0,0,0,-1,916,540,-1.32626,8.93173
-301,484,-1.33453,-6.52667,0,0,0,0,0,0,0,-1,923,540,-1.33454,6.5267
-294,484,-1.61224,-8.17059,0,0,0,0,0,0,0,-1,930,540,-1.61227,8.17058
-287,484,-0.715759,-5.62103,0,0,0,0,0,0,0,-1,937,540,-0.715772,5.62105
-280,484,2.66742,-1.6795,0,0,0,0,0,0,0,-1,944,540,2.6674,1.67949
-273,484,2.53125,-2.22296,0,0,0,0,0,0,0,-1,951,540,2.53128,2.22295
-266,484,2.6778,-2.72058,0,0,0,0,0,0,0,-1,958,540,2.6778,2.72061
-259,484,2.41718,-2.59894,0,0,0,0,0,0,0,-1,965,540,2.41717,2.59892
-252,484,10.6069,-11.696,0,0,0,0,0,0,0,-1,972,540,10.6069,11.696
-245,484,6.34106,-11.6107,0,0,0,0,0,0,0,-1,979,540,6.34104,11.6107
-238,484,4.89319,-8.54059,0,0,0,0,0,0,0,-1,986,540,4.89321,8.5406
-231,484,3.47675,-5.22064,0,0,0,0,0,0,0,-1,993,540,3.47676,5.22067
-224,484,1.71344,-2.03473,0,0,0,0,0,0,0,-1,1000,540,1.71342,2.03472
-217,484,-0.745056,1.17358,0,0,0,0,0,0,0,-1,1007,540,-0.745043,-1.17359
-210,484,0,0,0,0,0,0,0,0,0,-1,1014,540,0,0
-203,484,0,0,0,0,0,0,0,0,0,-1,1021,540,0,0
-196,484,0,0,0,0,0,0,0,0,0,-1,1028,540,0,0
-189,484,0,0,0,0,0,0,0,0,0,-1,1035,540,0,0
-182,484,0,0,0,0,0,0,0,0,0,-1,1042,540,0,0
-175,484,0,0,0,0,0,0,0,0,0,-1,1049,540,0,0
-168,484,0,0,0,0,0,0,0,0,0,-1,1056,540,0,0
-161,484,0,0,0,0,0,0,0,0,0,-1,1063,540,0,0
-154,484,0,0,0,0,0,0,0,0,0,-1,1070,540,0,0
-147,484,0,0,0,0,0,0,0,0,0,-1,1077,540,0,0
-140,484,0,0,0,0,0,0,0,0,0,-1,1084,540,0,0
-133,484,0,0,0,0,0,0,0,0,0,-1,1091,540,0,0
-126,484,0,0,0,0,0,0,0,0,0,-1,1098,540,0,0
-119,484,0,0,0,0,0,0,0,0,0,-1,1105,540,0,0
-112,484,0,0,0,0,0,0,0,0,0,-1,1112,540,0,0
-105,484,0,0,0,0,0,0,0,0,0,-1,1119,540,0,0
-98,484,0,0,0,0,0,0,0,0,0,-1,1126,540,0,0
-91,484,0,0,0,0,0,0,0,0,0,-1,1133,540,0,0
-84,484,0,0,0,0,0,0,0,0,0,-1,1140,540,0,0
-77,484,0,0,0,0,0,0,0,0,0,-1,1147,540,0,0
-70,484,0,0,0,0,0,0,0,0,0,-1,1154,540,0,0
-63,484,0,0,0,0,0,0,0,0,0,-1,1161,540,0,0
-56,484,0,0,0,0,0,0,0,0,0,-1,1168,540,0,0
-49,484,0,0,0,0,0,0,0,0,0,-1,1175,540,0,0
-42,484,0,0,0,0,0,0,0,0,0,-1,1182,540,0,0
-35,484,0,0,0,0,0,0,0,0,0,-1,1189,540,0,0
-28,484,0,0,0,0,0,0,0,0,0,-1,1196,540,0,0
-21,484,0,0,0,0,0,0,0,0,0,-1,1203,540,0,0
-14,484,0,0,0,0,0,0,0,0,0,-1,1210,540,0,0
-7,484,0,0,0,0,0,0,0,0,0,-1,1217,540,0,0
0,484,0,0,0,0,0,0,0,0,0,-1,1224,540,0,0
7,484,0,0,0,0,0,0,0,0,0,-1,1231,540,0,0
14,484,0,0,0,0,0,0,0,0,0,-1,1238,540,0,0
21,484,0,0,0,0,0,0,0,0,0,-1,1245,540,0,0
28,484,0,0,0,0,0,0,0,0,0,-1,1252,540,0,0
35,484,0,0,0,0,0,0,0,0,0,-1,1259,540,0,0
42,484,0,0,0,0,0,0,0,0,0,-1,1266,540,0,0
49,484,0,0,0,0,0,0,0,0,0,-1,1273,540,0,0
56,484,0,0,0,0,0,0,0,0,0,-1,1280,540,0,0
63,484,0,0,0,0,0,0,0,0,0,-1,1287,540,0,0
70,484,0,0,0,0,0,0,0,0,0,-1,1294,540,0,0
77,484,0,0,0,0,0,0,0,0,0,-1,1301,540,0,0
84,484,0,0,0,0,0,0,0,0,0,-1,1308,540,0,0
91,484,0,0,0,0,0,0,0,0,0,-1,1315,540,0,0
98,484,0,0,0,0,0,0,0,0,0,-1,1322,540,0,0
105,484,0,0,0,0,0,0,0,0,0,-1,1329,540,0,0
112,484,0,0,0,0,0,0,0,0,0,-1,1336,540,0,0
119,484,0,0,0,0,0,0,0,0,0,-1,1343,540,0,0
126,484,0,0,0,0,0,0,0,0,0,-1,1350,540,0,0
133,484,0,0,0,0,0,0,0,0,0,-1,1357,540,0,0
140,484,0,0,0,0,0,0,0,0,0,-1,1364,540,0,0
147,484,0,0,0,0,0,0,0,0,0,-1,1371,540,0,0
154,484,0,0,0,0,0,0,0,0,0,-1,1378,540,0,0
161,484,0,0,0,0,0,0,0,0,0,-1,1385,540,0,0
168,484,0,0,0,0,0,0,0,0,0,-1,1392,540,0,0
175,484,0,0,0,0,0,0,0,0,0,-1,1399,540,0,0
182,484,0,0,0,0,0,0,0,0,0,-1,1406,540,0,0
189,484,0,0,0,0,0,0,0,0,0,-1,1413,540,0,0
196,484,0,0,0,0,0,0,0,0,0,-1,1420,540,0,0
203,484,0,0,0,0,0,0,0,0,0,-1,1427,540,0,0
210,484,0,0,0,0,0,0,0,0,0,-1,1434,540,0,0
217,484,0,0,0,0,0,0,0,0,0,-1,1441,540,0,0
224,484,0,0,0,0,0,0,0,0,0,-1,1448,540,0,0
231,484,0,0,0,0,0,0,0,0,0,-1,1455,540,0,0
238,484,0,0,0,0,0,0,0,0,0,-1,1462,540,0,0
245,484,0,0,0,0,0,0,0,0,0,-1,1469,540,0,0
252,484,0,0,0,0,0,0,0,0,0,-1,1476,540,0,0
259,484,0,0,0,0,0,0,0,0,0,-1,1483,540,0,0
266,484,0,0,0,0,0,0,0,0,0,-1,1490,540,0,0
273,484,0,0,0,0,0,0,0,0,0,-1,1497,540,0,0
280,484,0,0,0,0,0,0,0,0,0,-1,1504,540,0,0
287,484,0,0,0,0,0,0,0,0,0,-1,1511,540,0,0
294,484,0,0,0,0,0,0,0,0,0,-1,1518,540,0,0
301,484,0,0,0,0,0,0,0,0,0,-1,1525,540,0,0
308,484,0,0,0,0,0,0,0,0,0,-1,1532,540,0,0
315,484,0,0,0,0,0,0,0,0,0,-1,1539,540,0,0
322,484,0,0,0,0,0,0,0,0,0,-1,1546,540,0,0
329,484,0,0,0,0,0,0,0,0,0,-1,1553,540,0,0
336,484,4.38708,-1.64136,0,0,0,0,0,0,0,-1,1560,540,4.38704,1.64138
343,484,7.57996,-1.05457,0,0,0,0,0,0,0,-1,1567,540,7.57995,1.05454
350,484,8.10425,-1.18878,0,0,0,0,0,0,0,-1,1574,540,8.1043,1.18877
357,484,7.74902,-3.80286,0,0,0,0,0,0,0,-1,1581,540,7.74901,3.80287
364,484,6.31262,-3.87213,0,0,0,0,0,0,0,-1,1588,540,6.31263,3.87215
371,484,7.21008,0.973511,0,0,0,0,0,0,0,-1,1595,540,7.21014,-0.973541
378,484,11.0563,1.5014,0,0,0,0,0,0,0,-1,1602,540,11.0563,-1.5014
385,484,14.3469,2.5545,0,0,0,0,0,0,0,-1,1609,540,14.3469,-2.55453
392,484,7.39453,-4.95026,0,0,0,0,0,0,0,-1,1616,540,7.39448,4.95023
399,484,7.14417,-2.5639,0,0,0,0,0,0,0,-1,1623,540,7.14417,2.56391
406,484,7.88953,-2.47321,0,0,0,0,0,0,0,-1,1630,540,7.88954,2.47323
413,484,4.4895,-1.08673,0,0,0,0,0,0,0,-1,1637,540,4.48952,1.08674
420,484,4.50012,-2.11255,0,0,0,0,0,0,0,-1,1644,540,4.50012,2.11256
427,484,5.28601,-3.54053,0,0,0,0,0,0,0,-1,1651,540,5.28599,3.54051
434,484,11.1488,-13.5359,0,0,0,0,0,0,0,-1,1658,540,11.1489,13.5359
441,484,17.6672,-25.8403,0,0,0,0,0,0,0,-1,1665,540,17.6672,25.8403
448,484,17.6543,-25.8232,0,0,0,0,0,0,0,-1,1672,540,17.6543,25.8233
455,484,17.6683,-25.0916,0,0,0,0,0,0,0,-1,1679,540,17.6684,25.0915
462,484,17.6544,-24.361,0.00187261,0.00030037,-0.00210209,0.00333076,-0.00115779,-0.606465,0.00269079,0.0305061,1686,540,17.6544,24.361
469,484,17.6589,-23.6761,0.00162707,0.000299686,-0.00175902,0.00284343,-0.000916683,-0.605002,0.00226392,0.0182955,1693,540,17.6589,23.6762
476,484,17.631,-22.9557,0.0014857,0.000488525,-0.00118148,0.00226949,-0.000295261,-0.585733,0.0016204,0.0163581,1700,540,17.6309,22.9557
483,484,17.5906,-22.2682,0.00135479,0.000675568,-0.000520308,0.00163651,0.000393846,-0.496258,0.000986297,0.0126047,1707,540,17.5905,22.2682
490,484,17.5562,-21.6165,0.00109265,0.00101425,9.30325e-05,0.0011544,0.000952494,0.586001,0.000711908,0.0121217,1714,540,17.5562,21.6165
497,484,17.522,-20.9092,0.000882289,0.001523,0.000897133,0.00215526,0.000250029,0.956886,0.00136117,0.0133688,1721,540,17.5219,20.9092
504,484,17.5118,-20.2062,0.000706229,0.0017892,0.00166792,0.00300133,-0.000505902,0.942354,0.00218909,0.0153432,1728,540,17.5119,20.2062
511,484,17.5088,-19.5135,0.000429676,0.00217935,0.00240504,0.00386372,-0.00125469,0.959835,0.00308043,0.0187004,1735,540,17.5088,19.5135
518,484,17.4567,-18.7978,2.97392e-05,0.00263893,0.00303446,0.00463735,-0.00196868,0.988416,0.00391636,0.0161646,1742,540,17.4567,18.7978
525,484,17.3954,-18.0609,-0.00033999,0.00313502,0.00361463,0.00540806,-0.00261303,1.00944,0.00472377,0.0137397,1749,540,17.3953,18.0609
532,484,17.3839,-17.3192,-0.000725584,0.00377656,0.00411817,0.00621874,-0.00316777,1.03552,0.0055139,0.0160137,1756,540,17.3839,17.3192
539,484,17.327,-16.5654,-0.00119693,0.00453084,0.00446442,0.006971,-0.00363709,1.07058,0.00622459,0.0391373,1763,540,17.327,16.5654
546,484,17.3528,-15.837,0,0,0,0,0,0,0,-1,1770,540,17.3527,15.837
553,484,12.4246,-8.96423,0,0,0,0,0,0,0,-1,1777,540,12.4246,8.96422
560,484,10.0549,-5.47931,0,0,0,0,0,0,0,-1,1784,540,10.055,5.47928
567,484,7.78223,-1.38312,0,0,0,0,0,0,0,-1,1791,540,7.78224,1.38311
574,484,5.74463,1.50922,0,0,0,0,0,0,0,-1,1798,540,5.74463,-1.50924
581,484,10.34,2.9491,0,0,0,0,0,0,0,-1,1805,540,10.34,-2.94912
588,484,10.6669,2.88568,0,0,0,0,0,0,0,-1,1812,540,10.6669,-2.88567
595,484,10.7233,1.04767,0,0,0,0,0,0,0,-1,1819,540,10.7233,-1.04766
602,484,0,0,0,0,0,0,0,0,0,-1,1826,540,0,0
609,484,0,0,0,0,0,0,0,0,0,-1,1833,540,0,0
616,484,0,0,0,0,0,0,0,0,0,-1,1840,540,0,0
623,484,0,0,0,0,0,0,0,0,0,-1,1847,540,0,0
630,484,0,0,0,0,0,0,0,0,0,-1,1854,540,0,0
637,484,0,0,0,0,0,0,0,0,0,-1,1861,540,0,0
644,484,0,0,0,0,0,0,0,0,0,-1,1868,540,0,0
651,484,0,0,0,0,0,0,0,0,0,-1,1875,540,0,0
658,484,0,0,0,0,0,0,0,0,0,-1,1882,540,0,0
665,484,0,0,0,0,0,0,0,0,0,-1,1889,540,0,0
672,484,0,0,0,0,0,0,0,0,0,-1,1896,540,0,0
679,484,0,0,0,0,0,0,0,0,0,-1,1903,540,0,0
686,484,0,0,0,0,0,0,0,0,0,-1,1910,540,0,0
693,484,0,0,0,0,0,0,0,0,0,-1,1917,540,0,0
700,484,0,0,0,0,0,0,0,0,0,-1,1924,540,0,0
707,484,0,0,0,0,0,0,0,0,0,-1,1931,540,0,0
714,484,0,0,0,0,0,0,0,0,0,-1,1938,540,0,0
721,484,0,0,0,0,0,0,0,0,0,-1,1945,540,0,0
728,484,0,0,0,0,0,0,0,0,0,-1,1952,540,0,0
735,484,0,0,0,0,0,0,0,0,0,-1,1959,540,0,0
742,484,0,0,0,0,0,0,0,0,0,-1,1966,540,0,0
749,484,0,0,0,0,0,0,0,0,0,-1,1973,540,0,0
756,484,0,0,0,0,0,0,0,0,0,-1,1980,540,0,0
763,484,0,0,0,0,0,0,0,0,0,-1,1987,540,0,0
770,484,0,0,0,0,0,0,0,0,0,-1,1994,540,0,0
777,484,0,0,0,0,0,0,0,0,0,-1,2001,540,0,0
784,484,0,0,0,0,0,0,0,0,0,-1,2008,540,0,0
791,484,0,0,0,0,0,0,0,0,0,-1,2015,540,0,0
798,484,0,0,0,0,0,0,0,0,0,-1,2022,540,0,0
805,484,0,0,0,0,0,0,0,0,0,-1,2029,540,0,0
812,484,0,0,0,0,0,0,0,0,0,-1,2036,540,0,0
-700,477,0,0,0,0,0,0,0,0,0,-1,524,547,0,0
-693,477,0,0,0,0,0,0,0,0,0,-1,531,547,0,0
-686,477,0,0,0,0,0,0,0,0,0,-1,538,547,0,0
-679,477,0,0,0,0,0,0,0,0,0,-1,545,547,0,0
-672,477,0,0,0,0,0,0,0,0,0,-1,552,547,0,0
-665,477,0,0,0,0,0,0,0,0,0,-1,559,547,0,0
-658,477,0,0,0,0,0,0,0,0,0,-1,566,547,0,0
-651,477,0,0,0,0,0,0,0,0,0,-1,573,547,0,0
-644,477,0,0,0,0,0,0,0,0,0,-1,580,547,0,0
-637,477,0,0,0,0,0,0,0,0,0,-1,587,547,0,0
-630,477,0,0,0,0,0,0,0,0,0,-1,594,547,0,0
-623,477,0,0,0,0,0,0,0,0,0,-1,601,547,0,0
-616,477,0,0,0,0,0,0,0,0,0,-1,608,547,0,0
-609,477,0,0,0,0,0,0,0,0,0,-1,615,547,0,0
-602,477,0,0,0,0,0,0,0,0,0,-1,622,547,0,0
-595,477,0,0,0,0,0,0,0,0,0,-1,629,547,0,0
-588,477,0,0,0,0,0,0,0,0,0,-1,636,547,0,0
-581,477,0,0,0,0,0,0,0,0,0,-1,643,547,0,0
-574,477,0,0,0,0,0,0,0,0,0,-1,650,547,0,0
-567,477,0,0,0,0,0,0,0,0,0,-1,657,547,0,0
-560,477,0,0,0,0,0,0,0,0,0,-1,664,547,0,0
-553,477,0,0,0,0,0,0,0,0,0,-1,671,547,0,0
-546,477,0,0,0,0,0,0,0,0,0,-1,678,547,0,0
-539,477,0,0,0,0,0,0,0,0,0,-1,685,547,0,0
-532,477,0,0,0,0,0,0,0,0,0,-1,692,547,0,0
-525,477,0,0,0,0,0,0,0,0,0,-1,699,547,0,0
-518,477,0,0,0,0,0,0,0,0,0,-1,706,547,0,0
-511,477,0,0,0,0,0,0,0,0,0,-1,713,547,0,0
-504,477,0,0,0,0,0,0,0,0,0,-1,720,547,0,0
-497,477,0,0,0,0,0,0,0,0,0,-1,727,547,0,0
-490,477,0,0,0,0,0,0,0,0,0,-1,734,547,0,0
-483,477,-7.73151,-0.224182,0,0,0,0,0,0,0,-1,741,547,-7.73152,0.224176
-476,477,-6.25806,-0.310547,0,0,0,0,0,0,0,-1,748,547,-6.25804,0.310549
-469,477,-7.26617,0.525085,0,0,0,0,0,0,0,-1,755,547,-7.2662,-0.525111
-462,477,-6.65143,1.06042,0,0,0,0,0,0,0,-1,762,547,-6.65143,-1.06043
-455,477,-5.31757,0.429016,0,0,0,0,0,0,0,-1,769,547,-5.31756,-0.42902
-448,477,-4.0697,0.273376,0,0,0,0,0,0,0,-1,776,547,-4.06971,-0.273363
-441,477,-2.47504,-4.76971,0,0,0,0,0,0,0,-1,783,547,-2.47505,4.76973
-434,477,-5.23425,-15.673,0,0,0,0,0,0,0,-1,790,547,-5.23428,15.673
-427,477,-5.43933,-16.0483,0,0,0,0,0,0,0,-1,797,547,-5.43934,16.0483
-420,477,-5.64441,-16.4236,0,0,0,0,0,0,0,-1,804,547,-5.6444,16.4236
-413,477,-5.51703,-17.6032,0.000796275,0.00668253,-0.00558952,0.0100564,-0.00257762,-1.02773,0.00770851,0.0207179,811,547,-5.51705,17.6032
-406,477,-5.6048,-18.4445,0.000946241,0.00574792,-0.00491018,0.00881279,-0.00211863,-1.01278,0.0066941,0.0118358,818,547,-5.6048,18.4445
-399,477,-5.66003,-19.1266,0.00106922,0.0047877,-0.00415093,0.00747675,-0.00161984,-0.995956,0.00560305,0.0187919,825,547,-5.66006,19.1266
-392,477,-5.71521,-19.8359,0.00126937,0.00375016,-0.00340853,0.00613698,-0.00111745,-0.959904,0.00451018,0.0181551,832,547,-5.7152,19.8359
-385,477,-5.7038,-20.5338,0.00151354,0.00279506,-0.00274125,0.00496944,-0.000660844,-0.900211,0.00355378,0.0151808,839,547,-5.7038,20.5337
-378,477,-5.73621,-21.2142,0.00170515,0.00177256,-0.00203222,0.00377135,-0.000293641,-0.793691,0.00261761,0.0134455,846,547,-5.73623,21.2142
-371,477,-5.776,-21.8828,0.00184143,0.000699955,-0.00130382,0.00269395,-0.00015257,-0.579091,0.00184893,0.013768,853,547,-5.77603,21.8828
-364,477,-5.79449,-22.5441,0.0019569,-0.000423481,-0.000588085,0.00209427,-0.000560843,-0.229462,0.0016159,0.0140325,860,547,-5.79447,22.5441
-357,477,-5.83704,-23.225,0.00206509,-0.00144952,9.68523e-05,0.00206776,-0.00145219,0.0275292,0.00204258,0.011775,867,547,-5.83702,23.225
-350,477,-5.87549,-23.8898,0.00223502,-0.00229711,0.000659763,0.00232911,-0.0023912,0.141659,0.00272535,0.011708,874,547,-5.8755,23.8898
-343,477,-5.81909,-24.5913,0.00231841,-0.00330647,0.00133161,0.00261772,-0.00360578,0.2211,0.0036082,0.0212695,881,547,-5.81907,24.5913
-336,477,-5.77979,-25.2775,0.00245369,-0.00430386,0.00193321,0.00296766,-0.00481783,0.259849,0.00453706,0.0454633,888,547,-5.77981,25.2775
-329,477,-5.64282,-25.9357,0,0,0,0,0,0,0,-1,895,547,-5.64285,25.9357
-322,477,-5.60535,-26.2963,0,0,0,0,0,0,0,-1,902,547,-5.60536,26.2962
-315,477,-1.67358,-9.15253,0,0,0,0,0,0,0,-1,909,547,-1.67356,9.15253
-308,477,-1.30127,-6.55188,0,0,0,0,0,0,0,-1,916,547,-1.30128,6.55185
-301,477,-1.21185,-6.28351,0,0,0,0,0,0,0,-1,923,547,-1.21184,6.28352
-294,477,-0.352905,3.27142,0,0,0,0,0,0,0,-1,930,547,-0.35292,-3.27144
-287,477,3.54364,2.15399,0,0,0,0,0,0,0,-1,937,547,3.54362,-2.15396
-280,477,1.97308,-0.954163,0,0,0,0,0,0,0,-1,944,547,1.9731,0.954178
-273,477,2.11621,-3.76709,0,0,0,0,0,0,0,-1,951,547,2.11619,3.76706
-266,477,2.04669,-3.42389,0,0,0,0,0,0,0,-1,958,547,2.04671,3.42391
-259,477,-1.33478,-3.41205,0,0,0,0,0,0,0,-1,965,547,-1.3348,3.41206
-252,477,0.597168,-5.32922,0,0,0,0,0,0,0,-1,972,547,0.597144,5.32924
-245,477,8.2309,-8.48492,0,0,0,0,0,0,0,-1,979,547,8.23091,8.48494
-238,477,6.60938,-5.64063,0,0,0,0,0,0,0,-1,986,547,6.60938,5.64063
-231,477,4.71716,-2.52484,0,0,0,0,0,0,0,-1,993,547,4.71716,2.52483
-224,477,0,0,0,0,0,0,0,0,0,-1,1000,547,0,0
-217,477,0,0,0,0,0,0,0,0,0,-1,1007,547,0,0
-210,477,0,0,0,0,0,0,0,0,0,-1,1014,547,0,0
-203,477,0,0,0,0,0,0,0,0,0,-1,1021,547,0,0
-196,477,0,0,0,0,0,0,0,0,0,-1,1028,547,0,0
-189,477,0,0,0,0,0,0,0,0,0,-1,1035,547,0,0
-182,477,0,0,0,0,0,0,0,0,0,-1,1042,547,0,0
-175,477,0,0,0,0,0,0,0,0,0,-1,1049,547,0,0
-168,477,0,0,0,0,0,0,0,0,0,-1,1056,547,0,0
-161,477,0,0,0,0,0,0,0,0,0,-1,1063,547,0,0
-154,477,0,0,0,0,0,0,0,0,0,-1,1070,547,0,0
-147,477,0,0,0,0,0,0,0,0,0,-1,1077,547,0,0
-140,477,0,0,0,0,0,0,0,0,0,-1,1084,547,0,0
-133,477,0,0,0,0,0,0,0,0,0,-1,1091,547,0,0
-126,477,0,0,0,0,0,0,0,0,0,-1,1098,547,0,0
-119,477,0,0,0,0,0,0,0,0,0,-1,1105,547,0,0
-112,477,0,0,0,0,0,0,0,0,0,-1,1112,547,0,0
-105,477,0,0,0,0,0,0,0,0,0,-1,1119,547,0,0
-98,477,0,0,0,0,0,0,0,0,0,-1,1126,547,0,0
-91,477,0,0,0,0,0,0,0,0,0,-1,1133,547,0,0
-84,477,0,0,0,0,0,0,0,0,0,-1,1140,547,0,0
-77,477,0,0,0,0,0,0,0,0,0,-1,1147,547,0,0
-70,477,0,0,0,0,0,0,0,0,0,-1,1154,547,0,0
-63,477,0,0,0,0,0,0,0,0,0,-1,1161,547,0,0
-56,477,0,0,0,0,0,0,0,0,0,-1,1168,547,0,0
-49,477,0,0,0,0,0,0,0,0,0,-1,1175,547,0,0
-42,477,0,0,0,0,0,0,0,0,0,-1,1182,547,0,0
-35,477,0,0,0,0,0,0,0,0,0,-1,1189,547,0,0
-28,477,0,0,0,0,0,0,0,0,0,-1,1196,547,0,0
-21,477,0,0,0,0,0,0,0,0,0,-1,1203,547,0,0
-14,477,0,0,0,0,0,0,0,0,0,-1,1210,547,0,0
-7,477,0,0,0,0,0,0,0,0,0,-1,1217,547,0,0
0,477,0,0,0,0,0,0,0,0,0,-1,1224,547,0,0
7,477,0,0,0,0,0,0,0,0,0,-1,1231,547,0,0
14,477,0,0,0,0,0,0,0,0,0,-1,1238,547,0,0
21,477,0,0,0,0,0,0,0,0,0,-1,1245,547,0,0
28,477,0,0,0,0,0,0,0,0,0,-1,1252,547,0,0
35,477,0,0,0,0,0,0,0,0,0,-1,1259,547,0,0
42,477,0,0,0,0,0,0,0,0,0,-1,1266,547,0,0
49,477,0,0,0,0,0,0,0,0,0,-1,1273,547,0,0
56,477,0,0,0,0,0,0,0,0,0,-1,1280,547,0,0
63,477,0,0,0,0,0,0,0,0,0,-1,1287,547,0,0
70,477,0,0,0,0,0,0,0,0,0,-1,1294,547,0,0
77,477,0,0,0,0,0,0,0,0,0,-1,1301,547,0,0
84,477,0,0,0,0,0,0,0,0,0,-1,1308,547,0,0
91,477,0,0,0,0,0,0,0,0,0,-1,1315,547,0,0
98,477,0,0,0,0,0,0,0,0,0,-1,1322,547,0,0
105,477,0,0,0,0,0,0,0,0,0,-1,1329,547,0,0
112,477,0,0,0,0,0,0,0,0,0,-1,1336,547,0,0
119,477,0,0,0,0,0,0,0,0,0,-1,1343,547,0,0
126,477,0,0,0,0,0,0,0,0,0,-1,1350,547,0,0
133,477,0,0,0,0,0,0,0,0,0,-1,1357,547,0,0
140,477,0,0,0,0,0,0,0,0,0,-1,1364,547,0,0
147,477,0,0,0,0,0,0,0,0,0,-1,1371,547,0,0
154,477,0,0,0,0,0,0,0,0,0,-1,1378,547,0,0
161,477,0,0,0,0,0,0,0,0,0,-1,1385,547,0,0
168,477,0,0,0,0,0,0,0,0,0,-1,1392,547,0,0
175,477,0,0,0,0,0,0,0,0,0,-1,1399,547,0,0
182,477,0,0,0,0,0,0,0,0,0,-1,1406,547,0,0
189,477,0,0,0,0,0,0,0,0,0,-1,1413,547,0,0
196,477,0,0,0,0,0,0,0,0,0,-1,1420,547,0,0
203,477,0,0,0,0,0,0,0,0,0,-1,1427,547,0,0
210,477,0,0,0,0,0,0,0,0,0,-1,1434,547,0,0
217,477,0,0,0,0,0,0,0,0,0,-1,1441,547,0,0
224,477,0,0,0,0,0,0,0,0,0,-1,1448,547,0,0
231,477,0,0,0,0,0,0,0,0,0,-1,1455,547,0,0
238,477,0,0,0,0,0,0,0,0,0,-1,1462,547,0,0
245,477,0,0,0,0,0,0,0,0,0,-1,1469,547,0,0
252,477,0,0,0,0,0,0,0,0,0,-1,1476,547,0,0
259,477,0,0,0,0,0,0,0,0,0,-1,1483,547,0,0
266,477,0,0,0,0,0,0,0,0,0,-1,1490,547,0,0
273,477,0,0,0,0,0,0,0,0,0,-1,1497,547,0,0
280,477,0,0,0,0,0,0,0,0,0,-1,1504,547,0,0
287,477,0,0,0,0,0,0,0,0,0,-1,1511,547,0,0
294,477,0,0,0,0,0,0,0,0,0,-1,1518,547,0,0
301,477,0,0,0,0,0,0,0,0,0,-1,1525,547,0,0
308,477,0,0,0,0,0,0,0,0,0,-1,1532,547,0,0
315,477,0,0,0,0,0,0,0,0,0,-1,1539,547,0,0
322,477,0,0,0,0,0,0,0,0,0,-1,1546,547,0,0
329,477,0,0,0,0,0,0,0,0,0,-1,1553,547,0,0
336,477,0,0,0,0,0,0,0,0,0,-1,1560,547,0,0
343,477,0,0,0,0,0,0,0,0,0,-1,1567,547,0,0
350,477,1.7699,-3.32275,0,0,0,0,0,0,0,-1,1574,547,1.7699,3.32272
357,477,3.073,-4.83313,0,0,0,0,0,0,0,-1,1581,547,3.07303,4.83316
364,477,4.30127,-4.22864,0,0,0,0,0,0,0,-1,1588,547,4.30125,4.22865
371,477,4.57703,0.283264,0,0,0,0,0,0,0,-1,1595,547,4.57706,-0.283262
378,477,8.57947,1.05969,0,0,0,0,0,0,0,-1,1602,547,8.5795,-1.05972
385,477,12.3726,2.02356,0,0,0,0,0,0,0,-1,1609,547,12.3725,-2.02355
392,477,16.4678,2.76843,0,0,0,0,0,0,0,-1,1616,547,16.4678,-2.76845
399,477,8.00037,-2.29523,0,0,0,0,0,0,0,-1,1623,547,8.00031,2.2952
406,477,4.82495,2.7475,0,0,0,0,0,0,0,-1,1630,547,4.825,-2.74752
413,477,4.88171,-0.336426,0,0,0,0,0,0,0,-1,1637,547,4.88169,0.336398
420,477,3.34875,0.102722,0,0,0,0,0,0,0,-1,1644,547,3.34871,-0.1027
427,477,1.66772,-0.373108,0,0,0,0,0,0,0,-1,1651,547,1.66768,0.373104
434,477,3.76978,-2.30798,0,0,0,0,0,0,0,-1,1658,547,3.76974,2.30801
441,477,4.05444,-2.80402,0,0,0,0,0,0,0,-1,1665,547,4.05444,2.804
448,477,10.4247,-11.7421,0,0,0,0,0,0,0,-1,1672,547,10.4247,11.7421
455,477,13.3054,-16.8109,0,0,0,0,0,0,0,-1,1679,547,13.3054,16.8109
462,477,18.2874,-24.4034,0,0,0,0,0,0,0,-1,1686,547,18.2873,24.4034
469,477,18.3629,-23.6314,0,0,0,0,0,0,0,-1,1693,547,18.3629,23.6314
476,477,18.3291,-22.9662,0.0016942,0.000187801,-0.00180779,0.00289942,-0.00101742,-0.588013,0.00234679,0.0265152,1700,547,18.3291,22.9662
483,477,18.3146,-22.2706,0.00159712,0.000344051,-0.00109378,0.0022311,-0.00028993,-0.525303,0.00159286,0.0131684,1707,547,18.3146,22.2706
490,477,18.2671,-21.601,0.0013283,0.000637995,-0.000523272,0.00161,0.000356294,-0.493851,0.000976479,0.0126629,1714,547,18.267,21.6009
497,477,18.228,-20.8692,0.00113312,0.00114284,0.000253538,0.00139156,0.000884392,0.79498,0.000813198,0.0132444,1721,547,18.2281,20.8692
504,477,18.2157,-20.17,0.000971621,0.00131554,0.000942956,0.00210209,0.000185073,0.875588,0.00134395,0.0177873,1728,547,18.2157,20.17
511,477,18.2217,-19.5264,0.000725404,0.00160039,0.00158032,0.00280266,-0.000476861,0.920436,0.002046,0.0237622,1735,547,18.2216,19.5264
518,477,18.163,-18.8192,0.000363995,0.00195483,0.00210119,0.00340611,-0.00108729,0.96634,0.00270697,0.0211444,1742,547,18.163,18.8192
525,477,18.1033,-18.0342,3.59259e-05,0.00235949,0.00256362,0.00401229,-0.00161688,0.998146,0.00334665,0.0171845,1749,547,18.1033,18.0343
532,477,18.0499,-17.3177,-0.000297589,0.00289695,0.00295805,0.00466143,-0.00206207,1.03295,0.00397734,0.0188526,1756,547,18.05,17.3177
539,477,18.0427,-16.5366,-0.000697258,0.00351943,0.00322541,0.00526444,-0.00244227,1.07487,0.00454783,0.0173348,1763,547,18.0427,16.5366
546,477,17.9535,-15.8901,-0.00114468,0.00444113,0.0034416,0.00608048,-0.00278403,1.12626,0.00523456,0.0432161,1770,547,17.9535,15.8901
553,477,18.0087,-14.9813,0,0,0,0,0,0,0,-1,1777,547,18.0087,14.9813
560,477,17.4967,-13.1639,0,0,0,0,0,0,0,-1,1784,547,17.4967,13.1639
567,477,13.9529,-8.70972,0,0,0,0,0,0,0,-1,1791,547,13.9529,8.7097
574,477,6.82593,-0.916992,0,0,0,0,0,0,0,-1,1798,547,6.82598,0.916977
581,477,9.29321,-0.557007,0,0,0,0,0,0,0,-1,1805,547,9.29324,0.55703
588,477,9.75195,0.422729,0,0,0,0,0,0,0,-1,1812,547,9.75198,-0.42273
595,477,9.89172,1.21326,0,0,0,0,0,0,0,-1,1819,547,9.89174,-1.21328
602,477,6.5271,-0.964417,0,0,0,0,0,0,0,-1,1826,547,6.52706,0.964427
609,477,0,0,0,0,0,0,0,0,0,-1,1833,547,0,0
616,477,0,0,0,0,0,0,0,0,0,-1,1840,547,0,0
623,477,0,0,0,0,0,0,0,0,0,-1,1847,547,0,0
630,477,0,0,0,0,0,0,0,0,0,-1,1854,547,0,0
637,477,0,0,0,0,0,0,0,0,0,-1,1861,547,0,0
644,477,0,0,0,0,0,0,0,0,0,-1,1868,547,0,0
651,477,0,0,0,0,0,0,0,0,0,-1,1875,547,0,0
658,477,0,0,0,0,0,0,0,0,0,-1,1882,547,0,0
665,477,0,0,0,0,0,0,0,0,0,-1,1889,547,0,0
672,477,0,0,0,0,0,0,0,0,0,-1,1896,547,0,0
679,477,0,0,0,0,0,0,0,0,0,-1,1903,547,0,0
686,477,0,0,0,0,0,0,0,0,0,-1,1910,547,0,0
693,477,0,0,0,0,0,0,0,0,0,-1,1917,547,0,0
700,477,0,0,0,0,0,0,0,0,0,-1,1924,547,0,0
707,477,0,0,0,0,0,0,0,0,0,-1,1931,547,0,0
714,477,0,0,0,0,0,0,0,0,0,-1,1938,547,0,0
721,477,0,0,0,0,0,0,0,0,0,-1,1945,547,0,0
728,477,0,0,0,0,0,0,0,0,0,-1,1952,547,0,0
735,477,0,0,0,0,0,0,0,0,0,-1,1959,547,0,0
742,477,0,0,0,0,0,0,0,0,0,-1,1966,547,0,0
749,477,0,0,0,0,0,0,0,0,0,-1,1973,547,0,0
756,477,0,0,0,0,0,0,0,0,0,-1,1980,547,0,0
763,477,0,0,0,0,0,0,0,0,0,-1,1987,547,0,0
770,477,0,0,0,0,0,0,0,0,0,-1,1994,547,0,0
777,477,0,0,0,0,0,0,0,0,0,-1,2001,547,0,0
784,477,0,0,0,0,0,0,0,0,0,-1,2008,547,0,0
791,477,0,0,0,0,0,0,0,0,0,-1,2015,547,0,0
798,477,0,0,0,0,0,0,0,0,0,-1,2022,547,0,0
805,477,0,0,0,0,0,0,0,0,0,-1,2029,547,0,0
812,477,0,0,0,0,0,0,0,0,0,-1,2036,547,0,0
-700,470,0,0,0,0,0,0,0,0,0,-1,524,554,0,0
-693,470,0,0,0,0,0,0,0,0,0,-1,531,554,0,0
-686,470,0,0,0,0,0,0,0,0,0,-1,538,554,0,0
-679,470,0,0,0,0,0,0,0,0,0,-1,545,554,0,0
-672,470,0,0,0,0,0,0,0,0,0,-1,552,554,0,0
-665,470,0,0,0,0,0,0,0,0,0,-1,559,554,0,0
-658,470,0,0,0,0,0,0,0,0,0,-1,566,554,0,0
-651,470,0,0,0,0,0,0,0,0,0,-1,573,554,0,0
-644,470,0,0,0,0,0,0,0,0,0,-1,580,554,0,0
-637,470,0,0,0,0,0,0,0,0,0,-1,587,554,0,0
-630,470,0,0,0,0,0,0,0,0,0,-1,594,554,0,0
-623,470,0,0,0,0,0,0,0,0,0,-1,601,554,0,0
-616,470,0,0,0,0,0,0,0,0,0,-1,608,554,0,0
-609,470,0,0,0,0,0,0,0,0,0,-1,615,554,0,0
-602,470,0,0,0,0,0,0,0,0,0,-1,622,554,0,0
-595,470,0,0,0,0,0,0,0,0,0,-1,629,554,0,0
-588,470,0,0,0,0,0,0,0,0,0,-1,636,554,0,0
-581,470,0,0,0,0,0,0,0,0,0,-1,643,554,0,0
-574,470,0,0,0,0,0,0,0,0,0,-1,650,554,0,0
-567,470,0,0,0,0,0,0,0,0,0,-1,657,554,0,0
-560,470,0,0,0,0,0,0,0,0,0,-1,664,554,0,0
-553,470,0,0,0,0,0,0,0,0,0,-1,671,554,0,0
-546,470,0,0,0,0,0,0,0,0,0,-1,678,554,0,0
-539,470,0,0,0,0,0,0,0,0,0,-1,685,554,0,0
-532,470,0,0,0,0,0,0,0,0,0,-1,692,554,0,0
-525,470,0,0,0,0,0,0,0,0,0,-1,699,554,0,0
-518,470,0,0,0,0,0,0,0,0,0,-1,706,554,0,0
-511,470,0,0,0,0,0,0,0,0,0,-1,713,554,0,0
-504,470,0,0,0,0,0,0,0,0,0,-1,720,554,0,0
-497,470,0,0,0,0,0,0,0,0,0,-1,727,554,0,0
-490,470,-9.13263,-1.03125,0,0,0,0,0,0,0,-1,734,554,-9.1326,1.03127
-483,470,-7.68677,-1.03955,0,0,0,0,0,0,0,-1,741,554,-7.68678,1.03958
-476,470,-6.17969,-1.03394,0,0,0,0,0,0,0,-1,748,554,-6.17971,1.03395
-469,470,-6.23016,-0.651855,0,0,0,0,0,0,0,-1,755,554,-6.23014,0.651829
-462,470,-4.87915,-1.03705,0,0,0,0,0,0,0,-1,762,554,-4.87914,1.03702
-455,470,-4.14777,-1.37079,0,0,0,0,0,0,0,-1,769,554,-4.14779,1.37078
-448,470,-2.9314,-5.74518,0,0,0,0,0,0,0,-1,776,554,-2.93137,5.74518
-441,470,-5.65857,-13.9761,0,0,0,0,0,0,0,-1,783,554,-5.65859,13.9761
-434,470,-6.20264,-15.4597,0,0,0,0,0,0,0,-1,790,554,-6.20266,15.4597
-427,470,-6.24139,-16.1744,9.18725e-05,0.00637698,-0.00479045,0.00896365,-0.00249481,-1.07569,0.00695809,0.0233972,797,554,-6.24137,16.1745
-420,470,-6.21796,-16.9083,0.000325793,0.00557403,-0.00440013,0.00807311,-0.00217329,-1.05427,0.00623408,0.0161842,804,554,-6.21793,16.9083
-413,470,-6.27313,-17.6688,0.000545529,0.00478845,-0.0039578,0.00715751,-0.00182353,-1.03142,0.00548158,0.0146003,811,554,-6.27313,17.6688
-406,470,-6.2934,-18.4001,0.000718041,0.00396501,-0.00337997,0.00609118,-0.00140813,-1.00929,0.00460253,0.0118026,818,554,-6.29342,18.4001
-399,470,-6.33508,-19.1014,0.00091435,0.00317936,-0.00277734,0.00504622,-0.000952512,-0.97899,0.0037225,0.0141215,825,554,-6.33511,19.1014
-392,470,-6.36646,-19.7988,0.00117399,0.00230676,-0.00217833,0.00399113,-0.000510389,-0.912586,0.00284618,0.0141022,832,554,-6.36647,19.7988
-385,470,-6.39154,-20.4822,0.00148795,0.00151381,-0.00167037,0.0031713,-0.000169541,-0.789269,0.00217292,0.0113181,839,554,-6.39154,20.4822
-378,470,-6.41254,-21.1778,0.00176942,0.000651781,-0.00110886,0.00245231,-3.11116e-05,-0.551994,0.00164534,0.0155982,846,554,-6.41252,21.1778
-371,470,-6.45398,-21.854,0.0020428,-0.000254642,-0.000551924,0.00216851,-0.000380354,-0.22395,0.00158772,0.0140688,853,554,-6.45397,21.854
-364,470,-6.48041,-22.5045,0.00231829,-0.00122786,-2.15154e-05,0.00231842,-0.00122799,-0.00606696,0.00207953,0.0154396,860,554,-6.48043,22.5045
-357,470,-6.52911,-23.1841,0.00258845,-0.00210238,0.000456239,0.00263242,-0.00214635,0.0960621,0.00276377,0.0155981,867,554,-6.52912,23.1841
-350,470,-6.5249,-23.8816,0.00294082,-0.00286481,0.000791868,0.00304689,-0.00297088,0.133157,0.00347445,0.0130415,874,554,-6.52488,23.8816
-343,470,-6.44208,-24.5669,0,0,0,0,0,0,0,-1,881,554,-6.44209,24.5669
-336,470,-6.2384,-25.2936,0,0,0,0,0,0,0,-1,888,554,-6.23842,25.2936
-329,470,-2.78516,-12.3594,0,0,0,0,0,0,0,-1,895,554,-2.78517,12.3594
-322,470,-2.30829,-11.4527,0,0,0,0,0,0,0,-1,902,554,-2.30827,11.4527
-315,470,-1.04797,-8.29529,0,0,0,0,0,0,0,-1,909,554,-1.04797,8.29526
-308,470,-1.39368,-6.68152,0,0,0,0,0,0,0,-1,916,554,-1.39369,6.68149
-301,470,-0.0340576,3.34888,0,0,0,0,0,0,0,-1,923,554,-0.0340496,-3.3489
-294,470,-1.18378,3.22266,0,0,0,0,0,0,0,-1,930,554,-1.18376,-3.22268
-287,470,-2.15454,3.2204,0,0,0,0,0,0,0,-1,937,554,-2.15452,-3.22037
-280,470,-3.00537,3.099,0,0,0,0,0,0,0,-1,944,554,-3.00536,-3.09898
-273,470,-12.3932,3.65009,0,0,0,0,0,0,0,-1,951,554,-12.3932,-3.65011
-266,470,-11.5706,1.16028,0,0,0,0,0,0,0,-1,958,554,-11.5706,-1.16031
-259,470,-7.50415,-2.77167,0,0,0,0,0,0,0,-1,965,554,-7.50413,2.7717
-252,470,-0.371155,-5.87823,0,0,0,0,0,0,0,-1,972,554,-0.37114,5.87821
-245,470,1.33221,-6.81122,0,0,0,0,0,0,0,-1,979,554,1.33223,6.8112
-238,470,0,0,0,0,0,0,0,0,0,-1,986,554,0,0
-231,470,0,0,0,0,0,0,0,0,0,-1,993,554,0,0
-224,470,0,0,0,0,0,0,0,0,0,-1,1000,554,0,0
-217,470,0,0,0,0,0,0,0,0,0,-1,1007,554,0,0
-210,470,0,0,0,0,0,0,0,0,0,-1,1014,554,0,0
-203,470,0,0,0,0,0,0,0,0,0,-1,1021,554,0,0
-196,470,0,0,0,0,0,0,0,0,0,-1,1028,554,0,0
-189,470,0,0,0,0,0,0,0,0,0,-1,1035,554,0,0
-182,470,0,0,0,0,0,0,0,0,0,-1,1042,554,0,0
-175,470,0,0,0,0,0,0,0,0,0,-1,1049,554,0,0
-168,470,0,0,0,0,0,0,0,0,0,-1,1056,554,0,0
-161,470,0,0,0,0,0,0,0,0,0,-1,1063,554,0,0
-154,470,0,0,0,0,0,0,0,0,0,-1,1070,554,0,0
-147,470,0,0,0,0,0,0,0,0,0,-1,1077,554,0,0
-140,470,0,0,0,0,0,0,0,0,0,-1,1084,554,0,0
-133,470,0,0,0,0,0,0,0,0,0,-1,1091,554,0,0
-126,470,0,0,0,0,0,0,0,0,0,-1,1098,554,0,0
-119,470,0,0,0,0,0,0,0,0,0,-1,1105,554,0,0
-112,470,0,0,0,0,0,0,0,0,0,-1,1112,554,0,0
-105,470,0,0,0,0,0,0,0,0,0,-1,1119,554,0,0
-98,470,0,0,0,0,0,0,0,0,0,-1,1126,554,0,0
-91,470,0,0,0,0,0,0,0,0,0,-1,1133,554,0,0
-84,470,0,0,0,0,0,0,0,0,0,-1,1140,554,0,0
-77,470,0,0,0,0,0,0,0,0,0,-1,1147,554,0,0
-70,470,0,0,0,0,0,0,0,0,0,-1,1154,554,0,0
-63,470,0,0,0,0,0,0,0,0,0,-1,1161,554,0,0
-56,470,0,0,0,0,0,0,0,0,0,-1,1168,554,0,0
-49,470,0,0,0,0,0,0,0,0,0,-1,1175,554,0,0
-42,470,0,0,0,0,0,0,0,0,0,-1,1182,554,0,0
-35,470,0,0,0,0,0,0,0,0,0,-1,1189,554,0,0
-28,470,0,0,0,0,0,0,0,0,0,-1,1196,554,0,0
-21,470,0,0,0,0,0,0,0,0,0,-1,1203,554,0,0
-14,470,0,0,0,0,0,0,0,0,0,-1,1210,554,0,0
-7,470,0,0,0,0,0,0,0,0,0,-1,1217,554,0,0
0,470,0,0,0,0,0,0,0,0,0,-1,1224,554,0,0
7,470,0,0,0,0,0,0,0,0,0,-1,1231,554,0,0
14,470,0,0,0,0,0,0,0,0,0,-1,1238,554,0,0
21,470,0,0,0,0,0,0,0,0,0,-1,1245,554,0,0
28,470,0,0,0,0,0,0,0,0,0,-1,1252,554,0,0
35,470,0,0,0,0,0,0,0,0,0,-1,1259,554,0,0
42,470,0,0,0,0,0,0,0,0,0,-1,1266,554,0,0
49,470,0,0,0,0,0,0,0,0,0,-1,1273,554,0,0
56,470,0,0,0,0,0,0,0,0,0,-1,1280,554,0,0
63,470,0,0,0,0,0,0,0,0,0,-1,1287,554,0,0
70,470,0,0,0,0,0,0,0,0,0,-1,1294,554,0,0
77,470,0,0,0,0,0,0,0,0,0,-1,1301,554,0,0
84,470,0,0,0,0,0,0,0,0,0,-1,1308,554,0,0
91,470,0,0,0,0,0,0,0,0,0,-1,1315,554,0,0
98,470,0,0,0,0,0,0,0,0,0,-1,1322,554,0,0
105,470,0,0,0,0,0,0,0,0,0,-1,1329,554,0,0
112,470,0,0,0,0,0,0,0,0,0,-1,1336,554,0,0
119,470,0,0,0,0,0,0,0,0,0,-1,1343,554,0,0
126,470,0,0,0,0,0,0,0,0,0,-1,1350,554,0,0
133,470,0,0,0,0,0,0,0,0,0,-1,1357,554,0,0
140,470,0,0,0,0,0,0,0,0,0,-1,1364,554,0,0
147,470,0,0,0,0,0,0,0,0,0,-1,1371,554,0,0
154,470,0,0,0,0,0,0,0,0,0,-1,1378,554,0,0
161,470,0,0,0,0,0,0,0,0,0,-1,1385,554,0,0
168,470,0,0,0,0,0,0,0,0,0,-1,1392,554,0,0
175,470,0,0,0,0,0,0,0,0,0,-1,1399,554,0,0
182,470,0,0,0,0,0,0,0,0,0,-1,1406,554,0,0
189,470,0,0,0,0,0,0,0,0,0,-1,1413,554,0,0
196,470,0,0,0,0,0,0,0,0,0,-1,1420,554,0,0
203,470,0,0,0,0,0,0,0,0,0,-1,1427,554,0,0
210,470,0,0,0,0,0,0,0,0,0,-1,1434,554,0,0
217,470,0,0,0,0,0,0,0,0,0,-1,1441,554,0,0
224,470,0,0,0,0,0,0,0,0,0,-1,1448,554,0,0
231,470,0,0,0,0,0,0,0,0,0,-1,1455,554,0,0
238,470,0,0,0,0,0,0,0,0,0,-1,1462,554,0,0
245,470,0,0,0,0,0,0,0,0,0,-1,1469,554,0,0
252,470,0,0,0,0,0,0,0,0,0,-1,1476,554,0,0
259,470,0,0,0,0,0,0,0,0,0,-1,1483,554,0,0
266,470,0,0,0,0,0,0,0,0,0,-1,1490,554,0,0
273,470,0,0,0,0,0,0,0,0,0,-1,1497,554,0,0
280,470,0,0,0,0,0,0,0,0,0,-1,1504,554,0,0
287,470,0,0,0,0,0,0,0,0,0,-1,1511,554,0,0
294,470,0,0,0,0,0,0,0,0,0,-1,1518,554,0,0
301,470,0,0,0,0,0,0,0,0,0,-1,1525,554,0,0
308,470,0,0,0,0,0,0,0,0,0,-1,1532,554,0,0
315,470,0,0,0,0,0,0,0,0,0,-1,1539,554,0,0
322,470,0,0,0,0,0,0,0,0,0,-1,1546,554,0,0
329,470,0,0,0,0,0,0,0,0,0,-1,1553,554,0,0
336,470,0,0,0,0,0,0,0,0,0,-1,1560,554,0,0
343,470,0,0,0,0,0,0,0,0,0,-1,1567,554,0,0
350,470,0,0,0,0,0,0,0,0,0,-1,1574,554,0,0
357,470,0,0,0,0,0,0,0,0,0,-1,1581,554,0,0
364,470,1.33423,0.293335,0,0,0,0,0,0,0,-1,1588,554,1.33422,-0.293348
371,470,2.22498,-0.0305176,0,0,0,0,0,0,0,-1,1595,554,2.22494,0.0305046
378,470,6.27051,0.710083,0,0,0,0,0,0,0,-1,1602,554,6.27054,-0.710093
385,470,10.3657,1.47296,0,0,0,0,0,0,0,-1,1609,554,10.3657,-1.47299
392,470,15.3881,3.01935,0,0,0,0,0,0,0,-1,1616,554,15.388,-3.01937
399,470,18.4479,2.93793,0,0,0,0,0,0,0,-1,1623,554,18.4479,-2.93792
406,470,15.1896,1.36676,0,0,0,0,0,0,0,-1,1630,554,15.1896,-1.36679
413,470,6.55383,1.99207,0,0,0,0,0,0,0,-1,1637,554,6.5538,-1.99208
420,470,4.47095,0.845703,0,0,0,0,0,0,0,-1,1644,554,4.47098,-0.845718
427,470,3.51038,1.19684,0,0,0,0,0,0,0,-1,1651,554,3.51039,-1.19684
434,470,3.31775,-1.37427,0,0,0,0,0,0,0,-1,1658,554,3.31781,1.37426
441,470,2.55457,-2.05902,0,0,0,0,0,0,0,-1,1665,554,2.55461,2.05904
448,470,3.27258,-2.64032,0,0,0,0,0,0,0,-1,1672,554,3.27257,2.64029
455,470,10.3658,-9.82233,0,0,0,0,0,0,0,-1,1679,554,10.3659,9.82233
462,470,11.0651,-11.9958,0,0,0,0,0,0,0,-1,1686,554,11.0651,11.9958
469,470,15.4242,-19.0521,0,0,0,0,0,0,0,-1,1693,554,15.4242,19.0521
476,470,18.9822,-23.0574,0,0,0,0,0,0,0,-1,1700,554,18.9822,23.0574
483,470,19.0237,-22.2582,0.00191379,0.000319285,-0.000903407,0.00232142,-8.83508e-05,-0.423869,0.00157789,0.0191026,1707,554,19.0236,22.2582
490,470,18.9712,-21.569,0.00164907,0.000542974,-0.00049323,0.00183706,0.000354983,-0.364145,0.0011252,0.0125503,1714,554,18.9712,21.5691
497,470,18.946,-20.8578,0.00146619,0.00101298,0.000135276,0.0015035,0.000975671,0.269093,0.000880786,0.0129281,1721,554,18.9461,20.8578
504,470,18.9434,-20.1866,0.00131121,0.00104604,0.000608009,0.00180092,0.00055633,0.678046,0.00106477,0.0197765,1728,554,18.9433,20.1866
511,470,18.9092,-19.537,0.00110492,0.00117141,0.00101922,0.00215793,0.000118397,0.801702,0.00140082,0.027234,1735,554,18.9092,19.537
518,470,18.8639,-18.8012,0.000798197,0.001378,0.00134002,0.00245911,-0.000282918,0.891927,0.00174139,0.0270724,1742,554,18.8639,18.8012
525,470,18.8258,-17.9954,0.00050932,0.00165872,0.0016186,0.00280162,-0.000633575,0.955987,0.00211087,0.0166812,1749,554,18.8259,17.9954
532,470,18.7825,-17.2155,0.000213956,0.00207165,0.00186645,0.0032276,-0.000941998,1.01628,0.002525,0.0138473,1756,554,18.7824,17.2155
539,470,18.7357,-16.4937,-0.000126549,0.00256984,0.00204082,0.00366757,-0.00122428,1.0773,0.00293939,0.0158042,1763,554,18.7357,16.4936
546,470,18.6997,-15.7878,-0.000491123,0.00334172,0.002205,0.00434672,-0.00149612,1.14314,0.00350464,0.0158654,1770,554,18.6997,15.7878
553,470,18.7217,-15.0173,-0.000809654,0.00429429,0.00240097,0.0052462,-0.00176157,1.19334,0.00420937,0.0269941,1777,554,18.7217,15.0173
560,470,18.7858,-14.0199,0,0,0,0,0,0,0,-1,1784,554,18.7858,14.0199
567,470,18.6599,-13.1869,0,0,0,0,0,0,0,-1,1791,554,18.6599,13.1869
574,470,14.2793,-8.07147,0,0,0,0,0,0,0,-1,1798,554,14.2793,8.07147
581,470,8.24646,-4.06317,0,0,0,0,0,0,0,-1,1805,554,8.24648,4.06318
588,470,11.1803,1.74927,0,0,0,0,0,0,0,-1,1812,554,11.1803,-1.74926
595,470,4.72192,3.44116,0,0,0,0,0,0,0,-1,1819,554,4.72191,-3.44116
602,470,14.4307,2.76141,0,0,0,0,0,0,0,-1,1826,554,14.4306,-2.76139
609,470,20.9181,4.41058,0,0,0,0,0,0,0,-1,1833,554,20.9181,-4.4106
616,470,0,0,0,0,0,0,0,0,0,-1,1840,554,0,0
623,470,0,0,0,0,0,0,0,0,0,-1,1847,554,0,0
630,470,0,0,0,0,0,0,0,0,0,-1,1854,554,0,0
637,470,0,0,0,0,0,0,0,0,0,-1,1861,554,0,0
644,470,0,0,0,0,0,0,0,0,0,-1,1868,554,0,0
651,470,0,0,0,0,0,0,0,0,0,-1,1875,554,0,0
658,470,0,0,0,0,0,0,0,0,0,-1,1882,554,0,0
665,470,0,0,0,0,0,0,0,0,0,-1,1889,554,0,0
672,470,0,0,0,0,0,0,0,0,0,-1,1896,554,0,0
679,470,0,0,0,0,0,0,0,0,0,-1,1903,554,0,0
686,470,0,0,0,0,0,0,0,0,0,-1,1910,554,0,0
693,470,0,0,0,0,0,0,0,0,0,-1,1917,554,0,0
700,470,0,0,0,0,0,0,0,0,0,-1,1924,554,0,0
707,470,0,0,0,0,0,0,0,0,0,-1,1931,554,0,0
714,470,0,0,0,0,0,0,0,0,0,-1,1938,554,0,0
721,470,0,0,0,0,0,0,0,0,0,-1,1945,554,0,0
728,470,0,0,0,0,0,0,0,0,0,-1,1952,554,0,0
735,470,0,0,0,0,0,0,0,0,0,-1,1959,554,0,0
742,470,0,0,0,0,0,0,0,0,0,-1,1966,554,0,0
749,470,0,0,0,0,0,0,0,0,0,-1,1973,554,0,0
756,470,0,0,0,0,0,0,0,0,0,-1,1980,554,0,0
763,470,0,0,0,0,0,0,0,0,0,-1,1987,554,0,0
770,470,0,0,0,0,0,0,0,0,0,-1,1994,554,0,0
777,470,0,0,0,0,0,0,0,0,0,-1,2001,554,0,0
784,470,0,0,0,0,0,0,0,0,0,-1,2008,554,0,0
791,470,0,0,0,0,0,0,0,0,0,-1,2015,554,0,0
798,470,0,0,0,0,0,0,0,0,0,-1,2022,554,0,0
805,470,0,0,0,0,0,0,0,0,0,-1,2029,554,0,0
812,470,0,0,0,0,0,0,0,0,0,-1,2036,554,0,0
-700,463,0,0,0,0,0,0,0,0,0,-1,524,561,0,0
-693,463,0,0,0,0,0,0,0,0,0,-1,531,561,0,0
-686,463,0,0,0,0,0,0,0,0,0,-1,538,561,0,0
-679,463,0,0,0,0,0,0,0,0,0,-1,545,561,0,0
-672,463,0,0,0,0,0,0,0,0,0,-1,552,561,0,0
-665,463,0,0,0,0,0,0,0,0,0,-1,559,561,0,0
-658,463,0,0,0,0,0,0,0,0,0,-1,566,561,0,0
-651,463,0,0,0,0,0,0,0,0,0,-1,573,561,0,0
-644,463,0,0,0,0,0,0,0,0,0,-1,580,561,0,0
-637,463,0,0,0,0,0,0,0,0,0,-1,587,561,0,0
-630,463,0,0,0,0,0,0,0,0,0,-1,594,561,0,0
-623,463,0,0,0,0,0,0,0,0,0,-1,601,561,0,0
-616,463,0,0,0,0,0,0,0,0,0,-1,608,561,0,0
-609,463,0,0,0,0,0,0,0,0,0,-1,615,561,0,0
-602,463,0,0,0,0,0,0,0,0,0,-1,622,561,0,0
-595,463,0,0,0,0,0,0,0,0,0,-1,629,561,0,0
-588,463,0,0,0,0,0,0,0,0,0,-1,636,561,0,0
-581,463,0,0,0,0,0,0,0,0,0,-1,643,561,0,0
-574,463,0,0,0,0,0,0,0,0,0,-1,650,561,0,0
-567,463,0,0,0,0,0,0,0,0,0,-1,657,561,0,0
-560,463,0,0,0,0,0,0,0,0,0,-1,664,561,0,0
-553,463,0,0,0,0,0,0,0,0,0,-1,671,561,0,0
-546,463,0,0,0,0,0,0,0,0,0,-1,678,561,0,0
-539,463,0,0,0,0,0,0,0,0,0,-1,685,561,0,0
-532,463,0,0,0,0,0,0,0,0,0,-1,692,561,0,0
-525,463,0,0,0,0,0,0,0,0,0,-1,699,561,0,0
-518,463,0,0,0,0,0,0,0,0,0,-1,706,561,0,0
-511,463,0,0,0,0,0,0,0,0,0,-1,713,561,0,0
-504,463,0,0,0,0,0,0,0,0,0,-1,720,561,0,0
-497,463,-9.81451,-1.67126,0,0,0,0,0,0,0,-1,727,561,-9.81452,1.67127
-490,463,-8.57043,-1.58942,0,0,0,0,0,0,0,-1,734,561,-8.57045,1.58944
-483,463,-7.29224,-1.7226,0,0,0,0,0,0,0,-1,741,561,-7.29226,1.72261
-476,463,-5.77704,-1.7312,0,0,0,0,0,0,0,-1,748,561,-5.77703,1.73121
-469,463,-5.14545,-2.138,0,0,0,0,0,0,0,-1,755,561,-5.14546,2.13799
-462,463,-3.13672,-3.07977,0,0,0,0,0,0,0,-1,762,561,-3.13672,3.07974
-455,463,-2.91406,-5.61798,0,0,0,0,0,0,0,-1,769,561,-2.91406,5.61801
-448,463,-4.00177,-8.54681,0,0,0,0,0,0,0,-1,776,561,-4.00175,8.54683
-441,463,-6.97736,-14.5733,0,0,0,0,0,0,0,-1,783,561,-6.97738,14.5733
-434,463,-6.86041,-15.5031,-0.000232826,0.00572129,-0.00377174,0.00754932,-0.00206086,-1.11949,0.00584228,0.0314078,790,561,-6.86044,15.5031
-427,463,-6.89569,-16.2157,1.41024e-05,0.00485648,-0.00341079,0.00661807,-0.00174749,-1.09405,0.00509542,0.0115159,797,561,-6.89571,16.2157
-420,463,-6.90594,-16.9177,0.000248382,0.00407955,-0.00309721,0.00580569,-0.00147776,-1.06235,0.00444568,0.0111452,804,561,-6.90594,16.9176
-413,463,-6.9458,-17.6436,0.000470762,0.00332308,-0.00272208,0.00496997,-0.00117613,-1.0267,0.00376706,0.0107158,811,561,-6.9458,17.6436
-406,463,-6.99249,-18.3569,0.000655565,0.00255415,-0.0022289,0.00402749,-0.000817777,-0.986715,0.00299504,0.0103386,818,561,-6.99246,18.3569
-399,463,-7.01172,-19.0622,0.000917653,0.00187963,-0.00176047,0.00322364,-0.000426354,-0.918752,0.00230439,0.0115041,825,561,-7.01171,19.0622
-392,463,-7.06952,-19.7557,0.00125206,0.0011439,-0.00129782,0.00249693,-0.000100973,-0.764575,0.00169928,0.0113722,832,561,-7.06951,19.7557
-385,463,-7.10266,-20.4656,0.00167334,0.000505492,-0.000947205,0.00220214,-2.33125e-05,-0.509177,0.00147593,0.0117456,839,561,-7.10263,20.4655
-378,463,-7.12427,-21.1518,0.00210335,-0.000171546,-0.000547237,0.00222814,-0.000296341,-0.224211,0.00159342,0.01244,846,561,-7.12425,21.1518
-371,463,-7.14532,-21.843,0.00259601,-0.000856632,-0.000189179,0.00260634,-0.000866967,-0.0545749,0.00208745,0.0126573,853,561,-7.1453,21.843
-364,463,-7.1626,-22.4708,0.00312891,-0.00160289,0.000120384,0.00313197,-0.00160595,0.0254195,0.00278233,0.0150274,860,561,-7.16259,22.4708
-357,463,-7.22522,-23.1092,0.00366765,-0.00222226,0.000342071,0.00368745,-0.00224206,0.0578184,0.00345714,0.0204605,867,561,-7.22524,23.1092
-350,463,-7.11273,-23.8632,0.00432513,-0.0027465,0.000382243,0.00434574,-0.00276711,0.0538438,0.00414018,0.0430452,874,561,-7.11276,23.8632
-343,463,-6.75153,-24.5967,0,0,0,0,0,0,0,-1,881,561,-6.75152,24.5967
-336,463,-2.94928,-12.2127,0,0,0,0,0,0,0,-1,888,561,-2.94925,12.2127
-329,463,-2.64307,-12.7037,0,0,0,0,0,0,0,-1,895,561,-2.64307,12.7038
-322,463,-1.82898,-9.11957,0,0,0,0,0,0,0,-1,902,561,-1.829,9.11957
-315,463,-0.944763,-5.96234,0,0,0,0,0,0,0,-1,909,561,-0.94479,5.96237
-308,463,-1.1535,-3.17889,0,0,0,0,0,0,0,-1,916,561,-1.15352,3.17889
-301,463,-1.50366,-3.15338,0,0,0,0,0,0,0,-1,923,561,-1.50364,3.15341
-294,463,-2.35889,-3.93463,0,0,0,0,0,0,0,-1,930,561,-2.35886,3.93465
-287,463,-2.80322,2.73999,0,0,0,0,0,0,0,-1,937,561,-2.80322,-2.74
-280,463,-12.864,5.25146,0,0,0,0,0,0,0,-1,944,561,-12.864,-5.25149
-273,463,-12.4598,3.39178,0,0,0,0,0,0,0,-1,951,561,-12.4598,-3.3918
-266,463,-8.78101,-3.7356,0,0,0,0,0,0,0,-1,958,561,-8.78098,3.73562
-259,463,-6.23285,-5.68842,0,0,0,0,0,0,0,-1,965,561,-6.23288,5.68843
-252,463,0,0,0,0,0,0,0,0,0,-1,972,561,0,0
-245,463,0,0,0,0,0,0,0,0,0,-1,979,561,0,0
-238,463,0,0,0,0,0,0,0,0,0,-1,986,561,0,0
-231,463,0,0,0,0,0,0,0,0,0,-1,993,561,0,0
-224,463,0,0,0,0,0,0,0,0,0,-1,1000,561,0,0
-217,463,0,0,0,0,0,0,0,0,0,-1,1007,561,0,0
-210,463,0,0,0,0,0,0,0,0,0,-1,1014,561,0,0
-203,463,0,0,0,0,0,0,0,0,0,-1,1021,561,0,0
-196,463,0,0,0,0,0,0,0,0,0,-1,1028,561,0,0
-189,463,0,0,0,0,0,0,0,0,0,-1,1035,561,0,0
-182,463,0,0,0,0,0,0,0,0,0,-1,1042,561,0,0
-175,463,0,0,0,0,0,0,0,0,0,-1,1049,561,0,0
-168,463,0,0,0,0,0,0,0,0,0,-1,1056,561,0,0
-161,463,0,0,0,0,0,0,0,0,0,-1,1063,561,0,0
-154,463,0,0,0,0,0,0,0,0,0,-1,1070,561,0,0
-147,463,0,0,0,0,0,0,0,0,0,-1,1077,561,0,0
-140,463,0,0,0,0,0,0,0,0,0,-1,1084,561,0,0
-133,463,0,0,0,0,0,0,0,0,0,-1,1091,561,0,0
-126,463,0,0,0,0,0,0,0,0,0,-1,1098,561,0,0
-119,463,0,0,0,0,0,0,0,0,0,-1,1105,561,0,0
-112,463,0,0,0,0,0,0,0,0,0,-1,1112,561,0,0
-105,463,0,0,0,0,0,0,0,0,0,-1,1119,561,0,0
-98,463,0,0,0,0,0,0,0,0,0,-1,1126,561,0,0
-91,463,0,0,0,0,0,0,0,0,0,-1,1133,561,0,0
-84,463,0,0,0,0,0,0,0,0,0,-1,1140,561,0,0
-77,463,0,0,0,0,0,0,0,0,0,-1,1147,561,0,0
-70,463,0,0,0,0,0,0,0,0,0,-1,1154,561,0,0
-63,463,0,0,0,0,0,0,0,0,0,-1,1161,561,0,0
-56,463,0,0,0,0,0,0,0,0,0,-1,1168,561,0,0
-49,463,0,0,0,0,0,0,0,0,0,-1,1175,561,0,0
-42,463,0,0,0,0,0,0,0,0,0,-1,1182,561,0,0
-35,463,0,0,0,0,0,0,0,0,0,-1,1189,561,0,0
-28,463,0,0,0,0,0,0,0,0,0,-1,1196,561,0,0
-21,463,0,0,0,0,0,0,0,0,0,-1,1203,561,0,0
-14,463,0,0,0,0,0,0,0,0,0,-1,1210,561,0,0
-7,463,0,0,0,0,0,0,0,0,0,-1,1217,561,0,0
0,463,0,0,0,0,0,0,0,0,0,-1,1224,561,0,0
7,463,0,0,0,0,0,0,0,0,0,-1,1231,561,0,0
14,463,0,0,0,0,0,0,0,0,0,-1,1238,561,0,0
21,463,0,0,0,0,0,0,0,0,0,-1,1245,561,0,0
28,463,0,0,0,0,0,0,0,0,0,-1,1252,561,0,0
35,463,0,0,0,0,0,0,0,0,0,-1,1259,561,0,0
42,463,0,0,0,0,0,0,0,0,0,-1,1266,561,0,0
49,463,0,0,0,0,0,0,0,0,0,-1,1273,561,0,0
56,463,0,0,0,0,0,0,0,0,0,-1,1280,561,0,0
63,463,0,0,0,0,0,0,0,0,0,-1,1287,561,0,0
70,463,0,0,0,0,0,0,0,0,0,-1,1294,561,0,0
77,463,0,0,0,0,0,0,0,0,0,-1,1301,561,0,0
84,463,0,0,0,0,0,0,0,0,0,-1,1308,561,0,0
91,463,0,0,0,0,0,0,0,0,0,-1,1315,561,0,0
98,463,0,0,0,0,0,0,0,0,0,-1,1322,561,0,0
105,463,0,0,0,0,0,0,0,0,0,-1,1329,561,0,0
112,463,0,0,0,0,0,0,0,0,0,-1,1336,561,0,0
119,463,0,0,0,0,0,0,0,0,0,-1,1343,561,0,0
126,463,0,0,0,0,0,0,0,0,0,-1,1350,561,0,0
133,463,0,0,0,0,0,0,0,0,0,-1,1357,561,0,0
140,463,0,0,0,0,0,0,0,0,0,-1,1364,561,0,0
147,463,0,0,0,0,0,0,0,0,0,-1,1371,561,0,0
154,463,0,0,0,0,0,0,0,0,0,-1,1378,561,0,0
161,463,0,0,0,0,0,0,0,0,0,-1,1385,561,0,0
168,463,0,0,0,0,0,0,0,0,0,-1,1392,561,0,0
175,463,0,0,0,0,0,0,0,0,0,-1,1399,561,0,0
182,463,0,0,0,0,0,0,0,0,0,-1,1406,561,0,0
189,463,0,0,0,0,0,0,0,0,0,-1,1413,561,0,0
196,463,0,0,0,0,0,0,0,0,0,-1,1420,561,0,0
203,463,0,0,0,0,0,0,0,0,0,-1,1427,561,0,0
210,463,0,0,0,0,0,0,0,0,0,-1,1434,561,0,0
217,463,0,0,0,0,0,0,0,0,0,-1,1441,561,0,0
224,463,0,0,0,0,0,0,0,0,0,-1,1448,561,0,0
231,463,0,0,0,0,0,0,0,0,0,-1,1455,561,0,0
238,463,0,0,0,0,0,0,0,0,0,-1,1462,561,0,0
245,463,0,0,0,0,0,0,0,0,0,-1,1469,561,0,0
252,463,0,0,0,0,0,0,0,0,0,-1,1476,561,0,0
259,463,0,0,0,0,0,0,0,0,0,-1,1483,561,0,0
266,463,0,0,0,0,0,0,0,0,0,-1,1490,561,0,0
273,463,0,0,0,0,0,0,0,0,0,-1,1497,561,0,0
280,463,0,0,0,0,0,0,0,0,0,-1,1504,561,0,0
287,463,0,0,0,0,0,0,0,0,0,-1,1511,561,0,0
294,463,0,0,0,0,0,0,0,0,0,-1,1518,561,0,0
301,463,0,0,0,0,0,0,0,0,0,-1,1525,561,0,0
308,463,0,0,0,0,0,0,0,0,0,-1,1532,561,0,0
315,463,0,0,0,0,0,0,0,0,0,-1,1539,561,0,0
322,463,0,0,0,0,0,0,0,0,0,-1,1546,561,0,0
329,463,0,0,0,0,0,0,0,0,0,-1,1553,561,0,0
336,463,0,0,0,0,0,0,0,0,0,-1,1560,561,0,0
343,463,0,0,0,0,0,0,0,0,0,-1,1567,561,0,0
350,463,0,0,0,0,0,0,0,0,0,-1,1574,561,0,0
357,463,0,0,0,0,0,0,0,0,0,-1,1581,561,0,0
364,463,0,0,0,0,0,0,0,0,0,-1,1588,561,0,0
371,463,1.75842,0.152588,0,0,0,0,0,0,0,-1,1595,561,1.75844,-0.152558
378,463,4.58813,-0.0444336,0,0,0,0,0,0,0,-1,1602,561,4.58809,0.0444505
385,463,8.88574,1.65057,0,0,0,0,0,0,0,-1,1609,561,8.88575,-1.65055
392,463,14.0912,2.50513,0,0,0,0,0,0,0,-1,1616,561,14.0912,-2.5051
399,463,21.4769,2.7002,0,0,0,0,0,0,0,-1,1623,561,21.477,-2.70017
406,463,26.2987,4.32318,0,0,0,0,0,0,0,-1,1630,561,26.2987,-4.3232
413,463,26.5011,2.65222,0,0,0,0,0,0,0,-1,1637,561,26.5011,-2.65224
420,463,8.849,2.26611,0,0,0,0,0,0,0,-1,1644,561,8.84899,-2.26613
427,463,5.12207,1.69183,0,0,0,0,0,0,0,-1,1651,561,5.12206,-1.69184
434,463,4.59814,1.81995,0,0,0,0,0,0,0,-1,1658,561,4.59812,-1.81994
441,463,1.76392,-5.99225,0,0,0,0,0,0,0,-1,1665,561,1.7639,5.99225
448,463,2.49939,-4.30536,0,0,0,0,0,0,0,-1,1672,561,2.49941,4.30536
455,463,4.40295,-3.02557,0,0,0,0,0,0,0,-1,1679,561,4.40299,3.02558
462,463,5.38293,-4.06445,0,0,0,0,0,0,0,-1,1686,561,5.38289,4.06444
469,463,5.94373,-4.50647,0,0,0,0,0,0,0,-1,1693,561,5.94368,4.50646
476,463,15.2559,-17.3189,0,0,0,0,0,0,0,-1,1700,561,15.2558,17.3189
483,463,19.6752,-22.3792,0,0,0,0,0,0,0,-1,1707,561,19.6752,22.3791
490,463,19.7119,-21.5895,0.00204864,0.000377471,-0.000346352,0.00211758,0.000308533,-0.196472,0.00132094,0.0284976,1714,561,19.7119,21.5895
497,463,19.6613,-20.8154,0.00189119,0.000926457,0.000233643,0.0019448,0.000872851,0.225532,0.00112479,0.0141985,1721,561,19.6612,20.8154
504,463,19.6525,-20.1251,0.00171367,0.000919172,0.000590915,0.00202845,0.000604391,0.489466,0.00120258,0.0169871,1728,561,19.6525,20.1251
511,463,19.6244,-19.4366,0.00151936,0.00095831,0.000883067,0.00216539,0.00031228,0.631605,0.00135158,0.023361,1735,561,19.6244,19.4366
518,463,19.6023,-18.6902,0.00124702,0.00107615,0.00111873,0.00228357,3.95984e-05,0.747289,0.00150935,0.0250812,1742,561,19.6023,18.6902
525,463,19.5514,-17.9594,0.000965247,0.00129281,0.00131559,0.00245478,-0.000196719,0.847326,0.00170588,0.0206932,1749,561,19.5514,17.9594
532,463,19.5424,-17.1893,0.000685062,0.00163358,0.00149986,0.00273237,-0.000413728,0.938526,0.001974,0.0171668,1756,561,19.5424,17.1893
539,463,19.478,-16.4205,0.000383446,0.00205198,0.00164708,0.00306403,-0.000628597,1.01982,0.00228127,0.0178744,1763,561,19.478,16.4205
546,463,19.4276,-15.7525,6.623e-05,0.00271091,0.00180127,0.00362311,-0.00084597,1.10203,0.00274126,0.014716,1770,561,19.4277,15.7525
553,463,19.432,-14.9999,-0.000233559,0.00352447,0.00199287,0.00438447,-0.00109356,1.1634,0.00334758,0.012112,1777,561,19.432,14.9999
560,463,19.4459,-14.127,-0.00045854,0.00452515,0.00225903,0.00539671,-0.0013301,1.20258,0.00411349,0.024115,1784,561,19.446,14.127
567,463,19.2609,-13.3902,-0.00068621,0.00564997,0.002614,0.00658916,-0.00162541,1.22587,0.00502302,0.0358541,1791,561,19.2608,13.3902
574,463,19.351,-12.6401,0,0,0,0,0,0,0,-1,1798,561,19.3509,12.6401
581,463,9.4939,-3.88245,0,0,0,0,0,0,0,-1,1805,561,9.49392,3.88245
588,463,1.97424,2.16016,0,0,0,0,0,0,0,-1,1812,561,1.97422,-2.16013
595,463,9.98657,2.99854,0,0,0,0,0,0,0,-1,1819,561,9.98662,-2.99856
602,463,17.2202,4.91302,0,0,0,0,0,0,0,-1,1826,561,17.2202,-4.91305
609,463,17.96,4.03131,0,0,0,0,0,0,0,-1,1833,561,17.96,-4.03132
616,463,20.8352,3.15131,0,0,0,0,0,0,0,-1,1840,561,20.8352,-3.1513
623,463,0,0,0,0,0,0,0,0,0,-1,1847,561,0,0
630,463,0,0,0,0,0,0,0,0,0,-1,1854,561,0,0
637,463,0,0,0,0,0,0,0,0,0,-1,1861,561,0,0
644,463,0,0,0,0,0,0,0,0,0,-1,1868,561,0,0
651,463,0,0,0,0,0,0,0,0,0,-1,1875,561,0,0
658,463,0,0,0,0,0,0,0,0,0,-1,1882,561,0,0
665,463,0,0,0,0,0,0,0,0,0,-1,1889,561,0,0
672,463,0,0,0,0,0,0,0,0,0,-1,1896,561,0,0
679,463,0,0,0,0,0,0,0,0,0,-1,1903,561,0,0
686,463,0,0,0,0,0,0,0,0,0,-1,1910,561,0,0
693,463,0,0,0,0,0,0,0,0,0,-1,1917,561,0,0
700,463,0,0,0,0,0,0,0,0,0,-1,1924,561,0,0
707,463,0,0,0,0,0,0,0,0,0,-1,1931,561,0,0
714,463,0,0,0,0,0,0,0,0,0,-1,1938,561,0,0
721,463,0,0,0,0,0,0,0,0,0,-1,1945,561,0,0
728,463,0,0,0,0,0,0,0,0,0,-1,1952,561,0,0
735,463,0,0,0,0,0,0,0,0,0,-1,1959,561,0,0
742,463,0,0,0,0,0,0,0,0,0,-1,1966,561,0,0
749,463,0,0,0,0,0,0,0,0,0,-1,1973,561,0,0
756,463,0,0,0,0,0,0,0,0,0,-1,1980,561,0,0
763,463,0,0,0,0,0,0,0,0,0,-1,1987,561,0,0
770,463,0,0,0,0,0,0,0,0,0,-1,1994,561,0,0
777,463,0,0,0,0,0,0,0,0,0,-1,2001,561,0,0
784,463,0,0,0,0,0,0,0,0,0,-1,2008,561,0,0
791,463,0,0,0,0,0,0,0,0,0,-1,2015,561,0,0
798,463,0,0,0,0,0,0,0,0,0,-1,2022,561,0,0
805,463,0,0,0,0,0,0,0,0,0,-1,2029,561,0,0
812,463,0,0,0,0,0,0,0,0,0,-1,2036,561,0,0
-700,456,0,0,0,0,0,0,0,0,0,-1,524,568,0,0
-693,456,0,0,0,0,0,0,0,0,0,-1,531,568,0,0
-686,456,0,0,0,0,0,0,0,0,0,-1,538,568,0,0
-679,456,0,0,0,0,0,0,0,0,0,-1,545,568,0,0
-672,456,0,0,0,0,0,0,0,0,0,-1,552,568,0,0
-665,456,0,0,0,0,0,0,0,0,0,-1,559,568,0,0
-658,456,0,0,0,0,0,0,0,0,0,-1,566,568,0,0
-651,456,0,0,0,0,0,0,0,0,0,-1,573,568,0,0
-644,456,0,0,0,0,0,0,0,0,0,-1,580,568,0,0
-637,456,0,0,0,0,0,0,0,0,0,-1,587,568,0,0
-630,456,0,0,0,0,0,0,0,0,0,-1,594,568,0,0
-623,456,0,0,0,0,0,0,0,0,0,-1,601,568,0,0
-616,456,0,0,0,0,0,0,0,0,0,-1,608,568,0,0
-609,456,0,0,0,0,0,0,0,0,0,-1,615,568,0,0
-602,456,0,0,0,0,0,0,0,0,0,-1,622,568,0,0
-595,456,0,0,0,0,0,0,0,0,0,-1,629,568,0,0
-588,456,0,0,0,0,0,0,0,0,0,-1,636,568,0,0
-581,456,0,0,0,0,0,0,0,0,0,-1,643,568,0,0
-574,456,0,0,0,0,0,0,0,0,0,-1,650,568,0,0
-567,456,0,0,0,0,0,0,0,0,0,-1,657,568,0,0
-560,456,0,0,0,0,0,0,0,0,0,-1,664,568,0,0
-553,456,0,0,0,0,0,0,0,0,0,-1,671,568,0,0
-546,456,0,0,0,0,0,0,0,0,0,-1,678,568,0,0
-539,456,0,0,0,0,0,0,0,0,0,-1,685,568,0,0
-532,456,0,0,0,0,0,0,0,0,0,-1,692,568,0,0
-525,456,0,0,0,0,0,0,0,0,0,-1,699,568,0,0
-518,456,0,0,0,0,0,0,0,0,0,-1,706,568,0,0
-511,456,0,0,0,0,0,0,0,0,0,-1,713,568,0,0
-504,456,-10.3994,-2.34839,0,0,0,0,0,0,0,-1,720,568,-10.3994,2.3484
-497,456,-9.21375,-2.38068,0,0,0,0,0,0,0,-1,727,568,-9.21372,2.38069
-490,456,-8.09058,-2.31824,0,0,0,0,0,0,0,-1,734,568,-8.09057,2.31821
-483,456,-6.66119,-2.24329,0,0,0,0,0,0,0,-1,741,568,-6.66121,2.24331
-476,456,-5.1499,-2.21185,0,0,0,0,0,0,0,-1,748,568,-5.14992,2.21184
-469,456,-2.81238,-3.51501,0,0,0,0,0,0,0,-1,755,568,-2.81237,3.51501
-462,456,-4.2431,-5.27478,0,0,0,0,0,0,0,-1,762,568,-4.24312,5.27476
-455,456,-5.98364,-8.72119,0,0,0,0,0,0,0,-1,769,568,-5.98364,8.72122
-448,456,-7.64728,-13.5364,0,0,0,0,0,0,0,-1,776,568,-7.64729,13.5364
-441,456,-7.66846,-14.6761,0,0,0,0,0,0,0,-1,783,568,-7.66844,14.6762
-434,456,-7.56952,-15.4903,-4.98038e-06,0.00473511,-0.00292582,0.00613037,-0.00140024,-1.12582,0.00462487,0.0192111,790,568,-7.56954,15.4903
-427,456,-7.58374,-16.1952,0.000236741,0.00379471,-0.00255262,0.0051271,-0.00109565,-1.08973,0.00383581,0.00975777,797,568,-7.58374,16.1952
-420,456,-7.61469,-16.8922,0.000483157,0.00298988,-0.0022393,0.00430272,-0.000829678,-1.04053,0.00318131,0.0102278,804,568,-7.61467,16.8922
-413,456,-7.65344,-17.6047,0.000694075,0.00220618,-0.00186851,0.00346581,-0.000565552,-0.977642,0.0025203,0.00964183,811,568,-7.65343,17.6047
-406,456,-7.71228,-18.3036,0.000876092,0.00143656,-0.00140667,0.00259064,-0.000277983,-0.88372,0.00182682,0.00961998,818,568,-7.7123,18.3036
-399,456,-7.72888,-18.9964,0.00117376,0.000818811,-0.00101959,0.00203121,-3.86339e-05,-0.699229,0.0013672,0.0117685,825,568,-7.72891,18.9964
-392,456,-7.74591,-19.6999,0.00155287,0.000184962,-0.000659831,0.00181927,-8.14366e-05,-0.383725,0.00124088,0.0116143,832,568,-7.74592,19.6999
-385,456,-7.78046,-20.398,0.00204307,-0.000339045,-0.000427354,0.00211741,-0.000413393,-0.172248,0.00156768,0.0109553,839,568,-7.78046,20.398
-378,456,-7.82837,-21.1166,0.00257136,-0.000852305,-0.000150432,0.00257796,-0.000858902,-0.0438263,0.00206535,0.0114574,846,568,-7.82839,21.1166
-371,456,-7.84326,-21.8064,0.00321966,-0.00131773,4.73681e-05,0.00322016,-0.00131822,0.010438,0.00269584,0.0124004,853,568,-7.84325,21.8064
-364,456,-7.82892,-22.4291,0.00393174,-0.00183123,0.000179391,0.00393732,-0.00183681,0.0310881,0.00340643,0.027869,860,568,-7.82892,22.4291
-357,456,-7.84424,-23.0997,0,0,0,0,0,0,0,-1,867,568,-7.84426,23.0998
-350,456,-7.60968,-24.0522,0,0,0,0,0,0,0,-1,874,568,-7.60969,24.0522
-343,456,-3.39081,-12.0217,0,0,0,0,0,0,0,-1,881,568,-3.39078,12.0217
-336,456,-3.04517,-12.4623,0,0,0,0,0,0,0,-1,888,568,-3.04519,12.4624
-329,456,-1.06183,-10.7184,0,0,0,0,0,0,0,-1,895,568,-1.06184,10.7184
-322,456,-0.662537,-7.66632,0,0,0,0,0,0,0,-1,902,568,-0.662564,7.66633
-315,456,-0.675476,-3.38397,0,0,0,0,0,0,0,-1,909,568,-0.675473,3.38399
-308,456,-1.1618,-3.15314,0,0,0,0,0,0,0,-1,916,568,-1.16178,3.15314
-301,456,-1.83551,-3.26447,0,0,0,0,0,0,0,-1,923,568,-1.8355,3.26449
-294,456,-2.93414,-3.35449,0,0,0,0,0,0,0,-1,930,568,-2.93413,3.35451
-287,456,-3.7569,-3.53101,0,0,0,0,0,0,0,-1,937,568,-3.75692,3.53101
-280,456,-13.072,4.52856,0,0,0,0,0,0,0,-1,944,568,-13.072,-4.52855
-273,456,-8.26538,-6.66748,0,0,0,0,0,0,0,-1,951,568,-8.26536,6.66745
-266,456,-5.71527,-9.36884,0,0,0,0,0,0,0,-1,958,568,-5.71529,9.36885
-259,456,0,0,0,0,0,0,0,0,0,-1,965,568,0,0
-252,456,0,0,0,0,0,0,0,0,0,-1,972,568,0,0
-245,456,0,0,0,0,0,0,0,0,0,-1,979,568,0,0
-238,456,0,0,0,0,0,0,0,0,0,-1,986,568,0,0
-231,456,0,0,0,0,0,0,0,0,0,-1,993,568,0,0
-224,456,0,0,0,0,0,0,0,0,0,-1,1000,568,0,0
-217,456,0,0,0,0,0,0,0,0,0,-1,1007,568,0,0
-210,456,0,0,0,0,0,0,0,0,0,-1,1014,568,0,0
-203,456,0,0,0,0,0,0,0,0,0,-1,1021,568,0,0
-196,456,0,0,0,0,0,0,0,0,0,-1,1028,568,0,0
-189,456,0,0,0,0,0,0,0,0,0,-1,1035,568,0,0
-182,456,0,0,0,0,0,0,0,0,0,-1,1042,568,0,0
-175,456,0,0,0,0,0,0,0,0,0,-1,1049,568,0,0
-168,456,0,0,0,0,0,0,0,0,0,-1,1056,568,0,0
-161,456,0,0,0,0,0,0,0,0,0,-1,1063,568,0,0
-154,456,0,0,0,0,0,0,0,0,0,-1,1070,568,0,0
-147,456,0,0,0,0,0,0,0,0,0,-1,1077,568,0,0
-140,456,0,0,0,0,0,0,0,0,0,-1,1084,568,0,0
-133,456,0,0,0,0,0,0,0,0,0,-1,1091,568,0,0
-126,456,0,0,0,0,0,0,0,0,0,-1,1098,568,0,0
-119,456,0,0,0,0,0,0,0,0,0,-1,1105,568,0,0
-112,456,0,0,0,0,0,0,0,0,0,-1,1112,568,0,0
-105,456,0,0,0,0,0,0,0,0,0,-1,1119,568,0,0
-98,456,0,0,0,0,0,0,0,0,0,-1,1126,568,0,0
-91,456,0,0,0,0,0,0,0,0,0,-1,1133,568,0,0
-84,456,0,0,0,0,0,0,0,0,0,-1,1140,568,0,0
-77,456,0,0,0,0,0,0,0,0,0,-1,1147,568,0,0
-70,456,0,0,0,0,0,0,0,0,0,-1,1154,568,0,0
-63,456,0,0,0,0,0,0,0,0,0,-1,1161,568,0,0
-56,456,0,0,0,0,0,0,0,0,0,-1,1168,568,0,0
-49,456,0,0,0,0,0,0,0,0,0,-1,1175,568,0,0
-42,456,0,0,0,0,0,0,0,0,0,-1,1182,568,0,0
-35,456,0,0,0,0,0,0,0,0,0,-1,1189,568,0,0
-28,456,0,0,0,0,0,0,0,0,0,-1,1196,568,0,0
-21,456,0,0,0,0,0,0,0,0,0,-1,1203,568,0,0
-14,456,0,0,0,0,0,0,0,0,0,-1,1210,568,0,0
-7,456,0,0,0,0,0,0,0,0,0,-1,1217,568,0,0
0,456,0,0,0,0,0,0,0,0,0,-1,1224,568,0,0
7,456,0,0,0,0,0,0,0,0,0,-1,1231,568,0,0
14,456,0,0,0,0,0,0,0,0,0,-1,1238,568,0,0
21,456,0,0,0,0,0,0,0,0,0,-1,1245,568,0,0
28,456,0,0,0,0,0,0,0,0,0,-1,1252,568,0,0
35,456,0,0,0,0,0,0,0,0,0,-1,1259,568,0,0
42,456,0,0,0,0,0,0,0,0,0,-1,1266,568,0,0
49,456,0,0,0,0,0,0,0,0,0,-1,1273,568,0,0
56,456,0,0,0,0,0,0,0,0,0,-1,1280,568,0,0
63,456,0,0,0,0,0,0,0,0,0,-1,1287,568,0,0
70,456,0,0,0,0,0,0,0,0,0,-1,1294,568,0,0
77,456,0,0,0,0,0,0,0,0,0,-1,1301,568,0,0
84,456,0,0,0,0,0,0,0,0,0,-1,1308,568,0,0
91,456,0,0,0,0,0,0,0,0,0,-1,1315,568,0,0
98,456,0,0,0,0,0,0,0,0,0,-1,1322,568,0,0
105,456,0,0,0,0,0,0,0,0,0,-1,1329,568,0,0
112,456,0,0,0,0,0,0,0,0,0,-1,1336,568,0,0
119,456,0,0,0,0,0,0,0,0,0,-1,1343,568,0,0
126,456,0,0,0,0,0,0,0,0,0,-1,1350,568,0,0
133,456,0,0,0,0,0,0,0,0,0,-1,1357,568,0,0
140,456,0,0,0,0,0,0,0,0,0,-1,1364,568,0,0
147,456,0,0,0,0,0,0,0,0,0,-1,1371,568,0,0
154,456,0,0,0,0,0,0,0,0,0,-1,1378,568,0,0
161,456,0,0,0,0,0,0,0,0,0,-1,1385,568,0,0
168,456,0,0,0,0,0,0,0,0,0,-1,1392,568,0,0
175,456,0,0,0,0,0,0,0,0,0,-1,1399,568,0,0
182,456,0,0,0,0,0,0,0,0,0,-1,1406,568,0,0
189,456,0,0,0,0,0,0,0,0,0,-1,1413,568,0,0
196,456,0,0,0,0,0,0,0,0,0,-1,1420,568,0,0
203,456,0,0,0,0,0,0,0,0,0,-1,1427,568,0,0
210,456,0,0,0,0,0,0,0,0,0,-1,1434,568,0,0
217,456,0,0,0,0,0,0,0,0,0,-1,1441,568,0,0
224,456,0,0,0,0,0,0,0,0,0,-1,1448,568,0,0
231,456,0,0,0,0,0,0,0,0,0,-1,1455,568,0,0
238,456,0,0,0,0,0,0,0,0,0,-1,1462,568,0,0
245,456,0,0,0,0,0,0,0,0,0,-1,1469,568,0,0
252,456,0,0,0,0,0,0,0,0,0,-1,1476,568,0,0
259,456,0,0,0,0,0,0,0,0,0,-1,1483,568,0,0
266,456,0,0,0,0,0,0,0,0,0,-1,1490,568,0,0
273,456,0,0,0,0,0,0,0,0,0,-1,1497,568,0,0
280,456,0,0,0,0,0,0,0,0,0,-1,1504,568,0,0
287,456,0,0,0,0,0,0,0,0,0,-1,1511,568,0,0
294,456,0,0,0,0,0,0,0,0,0,-1,1518,568,0,0
301,456,0,0,0,0,0,0,0,0,0,-1,1525,568,0,0
308,456,0,0,0,0,0,0,0,0,0,-1,1532,568,0,0
315,456,0,0,0,0,0,0,0,0,0,-1,1539,568,0,0
322,456,0,0,0,0,0,0,0,0,0,-1,1546,568,0,0
329,456,0,0,0,0,0,0,0,0,0,-1,1553,568,0,0
336,456,0,0,0,0,0,0,0,0,0,-1,1560,568,0,0
343,456,0,0,0,0,0,0,0,0,0,-1,1567,568,0,0
350,456,0,0,0,0,0,0,0,0,0,-1,1574,568,0,0
357,456,0,0,0,0,0,0,0,0,0,-1,1581,568,0,0
364,456,0,0,0,0,0,0,0,0,0,-1,1588,568,0,0
371,456,0,0,0,0,0,0,0,0,0,-1,1595,568,0,0
378,456,0,0,0,0,0,0,0,0,0,-1,1602,568,0,0
385,456,5.66284,0.660645,0,0,0,0,0,0,0,-1,1609,568,5.66285,-0.660615
392,456,17.5027,4.32971,0,0,0,0,0,0,0,-1,1616,568,17.5026,-4.32971
399,456,24.1917,5.99652,0,0,0,0,0,0,0,-1,1623,568,24.1916,-5.99651
406,456,24.446,4.53003,0,0,0,0,0,0,0,-1,1630,568,24.446,-4.53005
413,456,24.9418,2.90521,0,0,0,0,0,0,0,-1,1637,568,24.9418,-2.90524
420,456,25.3048,1.04712,0,0,0,0,0,0,0,-1,1644,568,25.3048,-1.04713
427,456,6.21375,2.02905,0,0,0,0,0,0,0,-1,1651,568,6.21372,-2.02904
434,456,3.0719,-4.86285,0,0,0,0,0,0,0,-1,1658,568,3.07184,4.86287
441,456,2.90344,-4.70459,0,0,0,0,0,0,0,-1,1665,568,2.90346,4.7046
448,456,3.06995,-4.93689,0,0,0,0,0,0,0,-1,1672,568,3.06991,4.93687
455,456,3.46582,-3.43701,0,0,0,0,0,0,0,-1,1679,568,3.46585,3.43698
462,456,4.68445,-4.45831,0,0,0,0,0,0,0,-1,1686,568,4.68439,4.45833
469,456,4.93201,-2.289,0,0,0,0,0,0,0,-1,1693,568,4.93197,2.28903
476,456,4.8363,-2.79364,0,0,0,0,0,0,0,-1,1700,568,4.83636,2.79363
483,456,12.8522,-13.692,0,0,0,0,0,0,0,-1,1707,568,12.8522,13.6919
490,456,20.327,-21.8089,0,0,0,0,0,0,0,-1,1714,568,20.3271,21.8089
497,456,20.3698,-20.7545,0,0,0,0,0,0,0,-1,1721,568,20.3697,20.7545
504,456,20.3206,-20.0867,0.00233747,0.00099348,0.00082112,0.00272652,0.000604431,0.442471,0.00165345,0.0155612,1728,568,20.3206,20.0867
511,456,20.3345,-19.3696,0.00207283,0.000894068,0.000980247,0.00262724,0.000339659,0.514727,0.00164997,0.0143059,1735,568,20.3344,19.3696
518,456,20.3224,-18.6526,0.00176896,0.00088643,0.00112617,0.00253723,0.000118158,0.598677,0.00165351,0.0174776,1742,568,20.3224,18.6526
525,456,20.2723,-17.9154,0.00142294,0.00102414,0.00122753,0.00246716,-2.00797e-05,0.704881,0.00165151,0.0175469,1749,568,20.2723,17.9154
532,456,20.2587,-17.1391,0.00110115,0.00128164,0.00132976,0.00252421,-0.000141421,0.819278,0.00173187,0.0167748,1756,568,20.2587,17.1391
539,456,20.2041,-16.3691,0.000799482,0.00161789,0.00142858,0.00269472,-0.000277349,0.924884,0.0018957,0.0213913,1763,568,20.2042,16.3692
546,456,20.1332,-15.6791,0.000506756,0.00216886,0.00154534,0.00309244,-0.000416818,1.03211,0.00221368,0.0242685,1770,568,20.1332,15.6791
553,456,20.1028,-14.9337,0.000222272,0.00286861,0.00171358,0.00371042,-0.000619539,1.11417,0.00270389,0.0150676,1777,568,20.1028,14.9337
560,456,20.1024,-14.2161,2.34074e-05,0.003725,0.00198214,0.00458609,-0.000837683,1.16097,0.00337149,0.0116306,1784,568,20.1024,14.2161
567,456,20.0677,-13.4532,-6.99439e-05,0.00474843,0.00239391,0.00573556,-0.00105707,1.17969,0.00422043,0.0209785,1791,568,20.0677,13.4532
574,456,20.0682,-12.7288,0,0,0,0,0,0,0,-1,1798,568,20.0683,12.7287
581,456,16.2228,-9.08563,0,0,0,0,0,0,0,-1,1805,568,16.2228,9.08562
588,456,5.23901,-0.0901489,0,0,0,0,0,0,0,-1,1812,568,5.23906,0.0901656
595,456,6.90063,3.14886,0,0,0,0,0,0,0,-1,1819,568,6.90066,-3.14887
602,456,16.894,4.10938,0,0,0,0,0,0,0,-1,1826,568,16.8941,-4.1094
609,456,14.9966,3.5708,0,0,0,0,0,0,0,-1,1833,568,14.9966,-3.57083
616,456,17.7407,2.6579,0,0,0,0,0,0,0,-1,1840,568,17.7408,-2.6579
623,456,20.6838,1.7121,0,0,0,0,0,0,0,-1,1847,568,20.6838,-1.71208
630,456,0,0,0,0,0,0,0,0,0,-1,1854,568,0,0
637,456,0,0,0,0,0,0,0,0,0,-1,1861,568,0,0
644,456,0,0,0,0,0,0,0,0,0,-1,1868,568,0,0
651,456,0,0,0,0,0,0,0,0,0,-1,1875,568,0,0
658,456,0,0,0,0,0,0,0,0,0,-1,1882,568,0,0
665,456,0,0,0,0,0,0,0,0,0,-1,1889,568,0,0
672,456,0,0,0,0,0,0,0,0,0,-1,1896,568,0,0
679,456,0,0,0,0,0,0,0,0,0,-1,1903,568,0,0
686,456,0,0,0,0,0,0,0,0,0,-1,1910,568,0,0
693,456,0,0,0,0,0,0,0,0,0,-1,1917,568,0,0
700,456,0,0,0,0,0,0,0,0,0,-1,1924,568,0,0
707,456,0,0,0,0,0,0,0,0,0,-1,1931,568,0,0
714,456,0,0,0,0,0,0,0,0,0,-1,1938,568,0,0
721,456,0,0,0,0,0,0,0,0,0,-1,1945,568,0,0
728,456,0,0,0,0,0,0,0,0,0,-1,1952,568,0,0
735,456,0,0,0,0,0,0,0,0,0,-1,1959,568,0,0
742,456,0,0,0,0,0,0,0,0,0,-1,1966,568,0,0
749,456,0,0,0,0,0,0,0,0,0,-1,1973,568,0,0
756,456,0,0,0,0,0,0,0,0,0,-1,1980,568,0,0
763,456,0,0,0,0,0,0,0,0,0,-1,1987,568,0,0
770,456,0,0,0,0,0,0,0,0,0,-1,1994,568,0,0
777,456,0,0,0,0,0,0,0,0,0,-1,2001,568,0,0
784,456,0,0,0,0,0,0,0,0,0,-1,2008,568,0,0
791,456,0,0,0,0,0,0,0,0,0,-1,2015,568,0,0
798,456,0,0,0,0,0,0,0,0,0,-1,2022,568,0,0
805,456,0,0,0,0,0,0,0,0,0,-1,2029,568,0,0
812,456,0,0,0,0,0,0,0,0,0,-1,2036,568,0,0
-700,449,0,0,0,0,0,0,0,0,0,-1,524,575,0,0
-693,449,0,0,0,0,0,0,0,0,0,-1,531,575,0,0
-686,449,0,0,0,0,0,0,0,0,0,-1,538,575,0,0
-679,449,0,0,0,0,0,0,0,0,0,-1,545,575,0,0
-672,449,0,0,0,0,0,0,0,0,0,-1,552,575,0,0
-665,449,0,0,0,0,0,0,0,0,0,-1,559,575,0,0
-658,449,0,0,0,0,0,0,0,0,0,-1,566,575,0,0
-651,449,0,0,0,0,0,0,0,0,0,-1,573,575,0,0
-644,449,0,0,0,0,0,0,0,0,0,-1,580,575,0,0
-637,449,0,0,0,0,0,0,0,0,0,-1,587,575,0,0
-630,449,0,0,0,0,0,0,0,0,0,-1,594,575,0,0
-623,449,0,0,0,0,0,0,0,0,0,-1,601,575,0,0
-616,449,0,0,0,0,0,0,0,0,0,-1,608,575,0,0
-609,449,0,0,0,0,0,0,0,0,0,-1,615,575,0,0
-602,449,0,0,0,0,0,0,0,0,0,-1,622,575,0,0
-595,449,0,0,0,0,0,0,0,0,0,-1,629,575,0,0
-588,449,0,0,0,0,0,0,0,0,0,-1,636,575,0,0
-581,449,0,0,0,0,0,0,0,0,0,-1,643,575,0,0
-574,449,0,0,0,0,0,0,0,0,0,-1,650,575,0,0
-567,449,0,0,0,0,0,0,0,0,0,-1,657,575,0,0
-560,449,0,0,0,0,0,0,0,0,0,-1,664,575,0,0
-553,449,0,0,0,0,0,0,0,0,0,-1,671,575,0,0
-546,449,0,0,0,0,0,0,0,0,0,-1,678,575,0,0
-539,449,0,0,0,0,0,0,0,0,0,-1,685,575,0,0
-532,449,0,0,0,0,0,0,0,0,0,-1,692,575,0,0
-525,449,0,0,0,0,0,0,0,0,0,-1,699,575,0,0
-518,449,0,0,0,0,0,0,0,0,0,-1,706,575,0,0
-511,449,-0.941345,-4.4519,0,0,0,0,0,0,0,-1,713,575,-0.941356,4.45191
-504,449,-14.1078,0.318237,0,0,0,0,0,0,0,-1,720,575,-14.1078,-0.318231
-497,449,-8.61292,-3.09009,0,0,0,0,0,0,0,-1,727,575,-8.61291,3.09011
-490,449,-7.50995,-2.96252,0,0,0,0,0,0,0,-1,734,575,-7.50995,2.96251
-483,449,-5.77789,-2.50061,0,0,0,0,0,0,0,-1,741,575,-5.77792,2.50059
-476,449,-4.1723,-2.07739,0,0,0,0,0,0,0,-1,748,575,-4.17228,2.0774
-469,449,-5.0976,-5.78448,0,0,0,0,0,0,0,-1,755,575,-5.09758,5.78451
-462,449,-6.54181,-9.54535,0,0,0,0,0,0,0,-1,762,575,-6.54178,9.54536
-455,449,-8.48785,-12.7852,0,0,0,0,0,0,0,-1,769,575,-8.48785,12.7852
-448,449,-8.1947,-13.8268,-0.000615239,0.00581261,-0.00266468,0.00677359,-0.00157622,-1.22468,0.00512262,0.0479772,776,575,-8.1947,13.8268
-441,449,-8.20093,-14.7968,-0.000125619,0.00465611,-0.0024534,0.00569094,-0.00116045,-1.17164,0.00423412,0.0220786,783,575,-8.20091,14.7967
-434,449,-8.29401,-15.4718,0.000231188,0.0036381,-0.00215394,0.00468077,-0.000811481,-1.11997,0.00342322,0.0146905,790,575,-8.29401,15.4718
-427,449,-8.30286,-16.1641,0.00046893,0.00275937,-0.0018137,0.00375915,-0.000530854,-1.067,0.0027005,0.0138347,797,575,-8.30283,16.1641
-420,449,-8.32892,-16.8695,0.000727743,0.00202372,-0.00153428,0.00304123,-0.000289772,-0.985206,0.00213066,0.0134872,804,575,-8.32892,16.8695
-413,449,-8.35291,-17.5765,0.000932765,0.00129606,-0.00119197,0.00232015,-9.1321e-05,-0.861013,0.00157809,0.0113199,811,575,-8.35291,17.5765
-406,449,-8.40344,-18.2845,0.0011167,0.000591348,-0.000781587,0.00167857,2.94787e-05,-0.623286,0.00110935,0.0102862,818,575,-8.40343,18.2845
-399,449,-8.44135,-18.9727,0.0014467,5.9862e-05,-0.000479973,0.00159661,-9.00481e-05,-0.30273,0.00109566,0.00952329,825,575,-8.44136,18.9727
-392,449,-8.44189,-19.6725,0.00186835,-0.000449097,-0.000232542,0.00189146,-0.000472201,-0.0990286,0.00144433,0.0106637,832,575,-8.44187,19.6725
-385,449,-8.46722,-20.3636,0.00241901,-0.000889462,-0.00010869,0.00242258,-0.000893029,-0.0328049,0.001981,0.011525,839,575,-8.4672,20.3636
-378,449,-8.52789,-21.0614,0.00304337,-0.00128286,6.40495e-05,0.00304431,-0.00128381,0.0148006,0.00256682,0.0107182,846,575,-8.5279,21.0614
-371,449,-8.52197,-21.7791,0.00384603,-0.00159075,0.000132823,0.00384927,-0.00159399,0.0244111,0.00323133,0.0209302,853,575,-8.52196,21.7791
-364,449,-8.48499,-22.4602,0,0,0,0,0,0,0,-1,860,575,-8.48496,22.4602
-357,449,-5.88049,-15.8704,0,0,0,0,0,0,0,-1,867,575,-5.88051,15.8704
-350,449,-2.8764,-9.90204,0,0,0,0,0,0,0,-1,874,575,-2.87638,9.90203
-343,449,-2.98492,-9.2254,0,0,0,0,0,0,0,-1,881,575,-2.98491,9.22541
-336,449,-1.29523,-9.54626,0,0,0,0,0,0,0,-1,888,575,-1.29525,9.54626
-329,449,-0.733398,-7.78937,0,0,0,0,0,0,0,-1,895,575,-0.733398,7.78937
-322,449,-0.628845,-3.16669,0,0,0,0,0,0,0,-1,902,575,-0.628861,3.16667
-315,449,-0.540344,-3.21918,0,0,0,0,0,0,0,-1,909,575,-0.540336,3.21917
-308,449,-1.04413,-2.99341,0,0,0,0,0,0,0,-1,916,575,-1.04415,2.99338
-301,449,-1.58691,-2.80725,0,0,0,0,0,0,0,-1,923,575,-1.58692,2.80728
-294,449,-3.71118,-2.76086,0,0,0,0,0,0,0,-1,930,575,-3.71119,2.76087
-287,449,-4.4082,-2.69525,0,0,0,0,0,0,0,-1,937,575,-4.40822,2.69526
-280,449,0.723999,-14.2697,0,0,0,0,0,0,0,-1,944,575,0.723977,14.2696
-273,449,0,0,0,0,0,0,0,0,0,-1,951,575,0,0
-266,449,0,0,0,0,0,0,0,0,0,-1,958,575,0,0
-259,449,0,0,0,0,0,0,0,0,0,-1,965,575,0,0
-252,449,0,0,0,0,0,0,0,0,0,-1,972,575,0,0
-245,449,0,0,0,0,0,0,0,0,0,-1,979,575,0,0
-238,449,0,0,0,0,0,0,0,0,0,-1,986,575,0,0
-231,449,0,0,0,0,0,0,0,0,0,-1,993,575,0,0
-224,449,0,0,0,0,0,0,0,0,0,-1,1000,575,0,0
-217,449,0,0,0,0,0,0,0,0,0,-1,1007,575,0,0
-210,449,0,0,0,0,0,0,0,0,0,-1,1014,575,0,0
-203,449,0,0,0,0,0,0,0,0,0,-1,1021,575,0,0
-196,449,0,0,0,0,0,0,0,0,0,-1,1028,575,0,0
-189,449,0,0,0,0,0,0,0,0,0,-1,1035,575,0,0
-182,449,0,0,0,0,0,0,0,0,0,-1,1042,575,0,0
-175,449,0,0,0,0,0,0,0,0,0,-1,1049,575,0,0
-168,449,0,0,0,0,0,0,0,0,0,-1,1056,575,0,0
-161,449,0,0,0,0,0,0,0,0,0,-1,1063,575,0,0
-154,449,0,0,0,0,0,0,0,0,0,-1,1070,575,0,0
-147,449,0,0,0,0,0,0,0,0,0,-1,1077,575,0,0
-140,449,0,0,0,0,0,0,0,0,0,-1,1084,575,0,0
-133,449,0,0,0,0,0,0,0,0,0,-1,1091,575,0,0
-126,449,0,0,0,0,0,0,0,0,0,-1,1098,575,0,0
-119,449,0,0,0,0,0,0,0,0,0,-1,1105,575,0,0
-112,449,0,0,0,0,0,0,0,0,0,-1,1112,575,0,0
-105,449,0,0,0,0,0,0,0,0,0,-1,1119,575,0,0
-98,449,0,0,0,0,0,0,0,0,0,-1,1126,575,0,0
-91,449,0,0,0,0,0,0,0,0,0,-1,1133,575,0,0
-84,449,0,0,0,0,0,0,0,0,0,-1,1140,575,0,0
-77,449,0,0,0,0,0,0,0,0,0,-1,1147,575,0,0
-70,449,0,0,0,0,0,0,0,0,0,-1,1154,575,0,0
-63,449,0,0,0,0,0,0,0,0,0,-1,1161,575,0,0
-56,449,0,0,0,0,0,0,0,0,0,-1,1168,575,0,0
-49,449,0,0,0,0,0,0,0,0,0,-1,1175,575,0,0
-42,449,0,0,0,0,0,0,0,0,0,-1,1182,575,0,0
-35,449,0,0,0,0,0,0,0,0,0,-1,1189,575,0,0
-28,449,0,0,0,0,0,0,0,0,0,-1,1196,575,0,0
-21,449,0,0,0,0,0,0,0,0,0,-1,1203,575,0,0
-14,449,0,0,0,0,0,0,0,0,0,-1,1210,575,0,0
-7,449,0,0,0,0,0,0,0,0,0,-1,1217,575,0,0
0,449,0,0,0,0,0,0,0,0,0,-1,1224,575,0,0
7,449,0,0,0,0,0,0,0,0,0,-1,1231,575,0,0
14,449,0,0,0,0,0,0,0,0,0,-1,1238,575,0,0
21,449,0,0,0,0,0,0,0,0,0,-1,1245,575,0,0
28,449,0,0,0,0,0,0,0,0,0,-1,1252,575,0,0
35,449,0,0,0,0,0,0,0,0,0,-1,1259,575,0,0
42,449,0,0,0,0,0,0,0,0,0,-1,1266,575,0,0
49,449,0,0,0,0,0,0,0,0,0,-1,1273,575,0,0
56,449,0,0,0,0,0,0,0,0,0,-1,1280,575,0,0
63,449,0,0,0,0,0,0,0,0,0,-1,1287,575,0,0
70,449,0,0,0,0,0,0,0,0,0,-1,1294,575,0,0
77,449,0,0,0,0,0,0,0,0,0,-1,1301,575,0,0
84,449,0,0,0,0,0,0,0,0,0,-1,1308,575,0,0
91,449,0,0,0,0,0,0,0,0,0,-1,1315,575,0,0
98,449,0,0,0,0,0,0,0,0,0,-1,1322,575,0,0
105,449,0,0,0,0,0,0,0,0,0,-1,1329,575,0,0
112,449,0,0,0,0,0,0,0,0,0,-1,1336,575,0,0
119,449,0,0,0,0,0,0,0,0,0,-1,1343,575,0,0
126,449,0,0,0,0,0,0,0,0,0,-1,1350,575,0,0
133,449,0,0,0,0,0,0,0,0,0,-1,1357,575,0,0
140,449,0,0,0,0,0,0,0,0,0,-1,1364,575,0,0
147,449,0,0,0,0,0,0,0,0,0,-1,1371,575,0,0
154,449,0,0,0,0,0,0,0,0,0,-1,1378,575,0,0
161,449,0,0,0,0,0,0,0,0,0,-1,1385,575,0,0
168,449,0,0,0,0,0,0,0,0,0,-1,1392,575,0,0
175,449,0,0,0,0,0,0,0,0,0,-1,1399,575,0,0
182,449,0,0,0,0,0,0,0,0,0,-1,1406,575,0,0
189,449,0,0,0,0,0,0,0,0,0,-1,1413,575,0,0
196,449,0,0,0,0,0,0,0,0,0,-1,1420,575,0,0
203,449,0,0,0,0,0,0,0,0,0,-1,1427,575,0,0
210,449,0,0,0,0,0,0,0,0,0,-1,1434,575,0,0
217,449,0,0,0,0,0,0,0,0,0,-1,1441,575,0,0
224,449,0,0,0,0,0,0,0,0,0,-1,1448,575,0,0
231,449,0,0,0,0,0,0,0,0,0,-1,1455,575,0,0
238,449,0,0,0,0,0,0,0,0,0,-1,1462,575,0,0
245,449,0,0,0,0,0,0,0,0,0,-1,1469,575,0,0
252,449,0,0,0,0,0,0,0,0,0,-1,1476,575,0,0
259,449,0,0,0,0,0,0,0,0,0,-1,1483,575,0,0
266,449,0,0,0,0,0,0,0,0,0,-1,1490,575,0,0
273,449,0,0,0,0,0,0,0,0,0,-1,1497,575,0,0
280,449,0,0,0,0,0,0,0,0,0,-1,1504,575,0,0
287,449,0,0,0,0,0,0,0,0,0,-1,1511,575,0,0
294,449,0,0,0,0,0,0,0,0,0,-1,1518,575,0,0
301,449,0,0,0,0,0,0,0,0,0,-1,1525,575,0,0
308,449,0,0,0,0,0,0,0,0,0,-1,1532,575,0,0
315,449,0,0,0,0,0,0,0,0,0,-1,1539,575,0,0
322,449,0,0,0,0,0,0,0,0,0,-1,1546,575,0,0
329,449,0,0,0,0,0,0,0,0,0,-1,1553,575,0,0
336,449,0,0,0,0,0,0,0,0,0,-1,1560,575,0,0
343,449,0,0,0,0,0,0,0,0,0,-1,1567,575,0,0
350,449,0,0,0,0,0,0,0,0,0,-1,1574,575,0,0
357,449,0,0,0,0,0,0,0,0,0,-1,1581,575,0,0
364,449,0,0,0,0,0,0,0,0,0,-1,1588,575,0,0
371,449,0,0,0,0,0,0,0,0,0,-1,1595,575,0,0
378,449,0,0,0,0,0,0,0,0,0,-1,1602,575,0,0
385,449,0,0,0,0,0,0,0,0,0,-1,1609,575,0,0
392,449,7.95471,3.66217,0,0,0,0,0,0,0,-1,1616,575,7.95471,-3.66218
399,449,19.9791,5.565,0,0,0,0,0,0,0,-1,1623,575,19.9791,-5.56499
406,449,24.9847,4.55969,0,0,0,0,0,0,0,-1,1630,575,24.9848,-4.55968
413,449,30.4159,3.15027,0,0,0,0,0,0,0,-1,1637,575,30.4159,-3.15028
420,449,23.9675,1.29718,0,0,0,0,0,0,0,-1,1644,575,23.9675,-1.29721
427,449,24.4276,-0.596558,0,0,0,0,0,0,0,-1,1651,575,24.4277,0.596569
434,449,25.61,-2.96594,0,0,0,0,0,0,0,-1,1658,575,25.61,2.96595
441,449,3.89856,-6.06458,0,0,0,0,0,0,0,-1,1665,575,3.89855,6.06459
448,449,4.03198,-5.18207,0,0,0,0,0,0,0,-1,1672,575,4.03197,5.18207
455,449,4.21948,-4.09467,0,0,0,0,0,0,0,-1,1679,575,4.21952,4.09465
462,449,4.23181,-2.96924,0,0,0,0,0,0,0,-1,1686,575,4.23185,2.96926
469,449,4.51672,-2.95135,0,0,0,0,0,0,0,-1,1693,575,4.51672,2.95135
476,449,4.71838,-1.86688,0,0,0,0,0,0,0,-1,1700,575,4.71842,1.86689
483,449,4.87878,-1.73126,0,0,0,0,0,0,0,-1,1707,575,4.87875,1.73128
490,449,5.73279,-2.74573,0,0,0,0,0,0,0,-1,1714,575,5.73282,2.74575
497,449,17.2095,-16.4381,0,0,0,0,0,0,0,-1,1721,575,17.2094,16.4381
504,449,20.9541,-20.1107,0,0,0,0,0,0,0,-1,1728,575,20.9541,20.1107
511,449,21.0223,-19.327,0.00273666,0.00106087,0.00128318,0.00343129,0.000366242,0.496164,0.00217575,0.0142111,1735,575,21.0224,19.3269
518,449,21.0172,-18.6133,0.00245989,0.000865564,0.00133241,0.0032154,0.000110053,0.51582,0.00210787,0.0137831,1742,575,21.0172,18.6133
525,449,20.9644,-17.8828,0.00207629,0.00089667,0.001326,0.00293774,3.52199e-05,0.576136,0.00194686,0.0135382,1749,575,20.9644,17.8827
532,449,20.9144,-17.1458,0.00171897,0.00104715,0.00133118,0.00275597,1.01542e-05,0.661808,0.00183394,0.0114222,1756,575,20.9145,17.1458
539,449,20.8651,-16.4181,0.00140409,0.00129626,0.00136554,0.00271678,-1.643e-05,0.765666,0.00181669,0.0151078,1763,575,20.8651,16.4181
546,449,20.8445,-15.6681,0.00109954,0.00172928,0.00142126,0.00287014,-4.13124e-05,0.894409,0.00192734,0.0264246,1770,575,20.8444,15.6681
553,449,20.8076,-14.961,0.000778538,0.00230639,0.00153293,0.00325519,-0.000170269,1.01656,0.00222905,0.0189398,1777,575,20.8076,14.961
560,449,20.8159,-14.2261,0.000522351,0.00301244,0.00174602,0.00391186,-0.000377068,1.09512,0.00274225,0.0148063,1784,575,20.816,14.2261
567,449,20.7694,-13.4786,0.000390938,0.00389569,0.00210751,0.0048842,-0.000597569,1.13222,0.0034725,0.0103155,1791,575,20.7694,13.4786
574,449,20.7661,-12.7009,0.000228228,0.00491375,0.00252863,0.00601809,-0.000876114,1.15903,0.00433372,0.0240391,1798,575,20.7661,12.7009
581,449,20.7778,-11.8433,0,0,0,0,0,0,0,-1,1805,575,20.7778,11.8433
588,449,12.3274,-4.5672,0,0,0,0,0,0,0,-1,1812,575,12.3274,4.5672
595,449,15.9352,-5.65479,0,0,0,0,0,0,0,-1,1819,575,15.9352,5.65478
602,449,9.46167,4.17444,0,0,0,0,0,0,0,-1,1826,575,9.46164,-4.17442
609,449,12.2028,3.18652,0,0,0,0,0,0,0,-1,1833,575,12.2027,-3.18655
616,449,14.9438,2.19867,0,0,0,0,0,0,0,-1,1840,575,14.9438,-2.19867
623,449,9.83789,-0.0820313,0,0,0,0,0,0,0,-1,1847,575,9.83794,0.0820443
630,449,8.90686,4.99329,0,0,0,0,0,0,0,-1,1854,575,8.90685,-4.99327
637,449,0,0,0,0,0,0,0,0,0,-1,1861,575,0,0
644,449,0,0,0,0,0,0,0,0,0,-1,1868,575,0,0
651,449,0,0,0,0,0,0,0,0,0,-1,1875,575,0,0
658,449,0,0,0,0,0,0,0,0,0,-1,1882,575,0,0
665,449,0,0,0,0,0,0,0,0,0,-1,1889,575,0,0
672,449,0,0,0,0,0,0,0,0,0,-1,1896,575,0,0
679,449,0,0,0,0,0,0,0,0,0,-1,1903,575,0,0
686,449,0,0,0,0,0,0,0,0,0,-1,1910,575,0,0
693,449,0,0,0,0,0,0,0,0,0,-1,1917,575,0,0
700,449,0,0,0,0,0,0,0,0,0,-1,1924,575,0,0
707,449,0,0,0,0,0,0,0,0,0,-1,1931,575,0,0
714,449,0,0,0,0,0,0,0,0,0,-1,1938,575,0,0
721,449,0,0,0,0,0,0,0,0,0,-1,1945,575,0,0
728,449,0,0,0,0,0,0,0,0,0,-1,1952,575,0,0
735,449,0,0,0,0,0,0,0,0,0,-1,1959,575,0,0
742,449,0,0,0,0,0,0,0,0,0,-1,1966,575,0,0
749,449,0,0,0,0,0,0,0,0,0,-1,1973,575,0,0
756,449,0,0,0,0,0,0,0,0,0,-1,1980,575,0,0
763,449,0,0,0,0,0,0,0,0,0,-1,1987,575,0,0
770,449,0,0,0,0,0,0,0,0,0,-1,1994,575,0,0
777,449,0,0,0,0,0,0,0,0,0,-1,2001,575,0,0
784,449,0,0,0,0,0,0,0,0,0,-1,2008,575,0,0
791,449,0,0,0,0,0,0,0,0,0,-1,2015,575,0,0
798,449,0,0,0,0,0,0,0,0,0,-1,2022,575,0,0
805,449,0,0,0,0,0,0,0,0,0,-1,2029,575,0,0
812,449,0,0,0,0,0,0,0,0,0,-1,2036,575,0,0
-700,442,0,0,0,0,0,0,0,0,0,-1,524,582,0,0
-693,442,0,0,0,0,0,0,0,0,0,-1,531,582,0,0
-686,442,0,0,0,0,0,0,0,0,0,-1,538,582,0,0
-679,442,0,0,0,0,0,0,0,0,0,-1,545,582,0,0
-672,442,0,0,0,0,0,0,0,0,0,-1,552,582,0,0
-665,442,0,0,0,0,0,0,0,0,0,-1,559,582,0,0
-658,442,0,0,0,0,0,0,0,0,0,-1,566,582,0,0
-651,442,0,0,0,0,0,0,0,0,0,-1,573,582,0,0
-644,442,0,0,0,0,0,0,0,0,0,-1,580,582,0,0
-637,442,0,0,0,0,0,0,0,0,0,-1,587,582,0,0
-630,442,0,0,0,0,0,0,0,0,0,-1,594,582,0,0
-623,442,0,0,0,0,0,0,0,0,0,-1,601,582,0,0
-616,442,0,0,0,0,0,0,0,0,0,-1,608,582,0,0
-609,442,0,0,0,0,0,0,0,0,0,-1,615,582,0,0
-602,442,0,0,0,0,0,0,0,0,0,-1,622,582,0,0
-595,442,0,0,0,0,0,0,0,0,0,-1,629,582,0,0
-588,442,0,0,0,0,0,0,0,0,0,-1,636,582,0,0
-581,442,0,0,0,0,0,0,0,0,0,-1,643,582,0,0
-574,442,0,0,0,0,0,0,0,0,0,-1,650,582,0,0
-567,442,0,0,0,0,0,0,0,0,0,-1,657,582,0,0
-560,442,0,0,0,0,0,0,0,0,0,-1,664,582,0,0
-553,442,0,0,0,0,0,0,0,0,0,-1,671,582,0,0
-546,442,0,0,0,0,0,0,0,0,0,-1,678,582,0,0
-539,442,0,0,0,0,0,0,0,0,0,-1,685,582,0,0
-532,442,0,0,0,0,0,0,0,0,0,-1,692,582,0,0
-525,442,0,0,0,0,0,0,0,0,0,-1,699,582,0,0
-518,442,-0.493774,-5.72943,0,0,0,0,0,0,0,-1,706,582,-0.493791,5.72946
-511,442,-1.33008,-6.18512,0,0,0,0,0,0,0,-1,713,582,-1.33006,6.18511
-504,442,-3.20807,-6.34082,0,0,0,0,0,0,0,-1,720,582,-3.2081,6.34083
-497,442,-13.6886,-0.250122,0,0,0,0,0,0,0,-1,727,582,-13.6886,0.250143
-490,442,-9.09039,-3.64862,0,0,0,0,0,0,0,-1,734,582,-9.09037,3.64861
-483,442,-7.36499,-1.01892,0,0,0,0,0,0,0,-1,741,582,-7.365,1.01895
-476,442,-4.84784,-4.44141,0,0,0,0,0,0,0,-1,748,582,-4.84787,4.44138
-469,442,-9.16437,-11.0434,0,0,0,0,0,0,0,-1,755,582,-9.16437,11.0434
-462,442,-8.59888,-11.8783,0,0,0,0,0,0,0,-1,762,582,-8.59888,11.8783
-455,442,-8.87909,-13.1357,0,0,0,0,0,0,0,-1,769,582,-8.87911,13.1357
-448,442,-8.88727,-13.9488,-0.000547474,0.00457483,-0.00189619,0.00520037,-0.00117302,-1.25214,0.00391691,0.0200729,776,582,-8.88725,13.9488
-441,442,-8.95038,-14.71,-1.71116e-05,0.00353206,-0.00172302,0.00423092,-0.000715975,-1.18547,0.00308707,0.0140356,783,582,-8.95041,14.71
-434,442,-8.98529,-15.4379,0.00036587,0.0025806,-0.00145643,0.00330284,-0.000356368,-1.11044,0.00232978,0.0142099,790,582,-8.9853,15.4379
-427,442,-9.00983,-16.1351,0.000645338,0.00176654,-0.00116687,0.00250049,-8.8608e-05,-1.00933,0.0016973,0.0138955,797,582,-9.00983,16.1351
-420,442,-9.04199,-16.8475,0.000948596,0.00109773,-0.000933421,0.00195956,8.67703e-05,-0.825257,0.00127843,0.0141416,804,582,-9.04199,16.8475
-413,442,-9.05426,-17.5536,0.0011784,0.000438659,-0.000630612,0.00153961,7.74522e-05,-0.52017,0.00100159,0.0116945,811,582,-9.05425,17.5536
-406,442,-9.09277,-18.2695,0.00139018,-0.000173576,-0.000287205,0.00144126,-0.000224657,-0.176014,0.00104382,0.00997543,818,582,-9.0928,18.2695
-399,442,-9.13947,-18.9713,0.00176825,-0.00060155,-8.08158e-05,0.001771,-0.000604302,-0.0340497,0.00142546,0.00887851,825,582,-9.13946,18.9713
-392,442,-9.13831,-19.6478,0.00224881,-0.000939417,3.1472e-05,0.00224912,-0.000939727,0.00987004,0.00189211,0.0109636,832,582,-9.13829,19.6478
-385,442,-9.17523,-20.3223,0.00286775,-0.00127137,2.34492e-05,0.00286788,-0.0012715,0.00566503,0.00244839,0.0131041,839,582,-9.17523,20.3223
-378,442,-9.19702,-21.0352,0.00360178,-0.00151723,6.22628e-05,0.00360253,-0.00151798,0.0121607,0.00303689,0.0180489,846,582,-9.197,21.0351
-371,442,-9.12799,-21.8421,0,0,0,0,0,0,0,-1,853,582,-9.12796,21.8421
-364,442,-6.89764,-17.5333,0,0,0,0,0,0,0,-1,860,582,-6.89765,17.5333
-357,442,-4.9115,-11.2649,0,0,0,0,0,0,0,-1,867,582,-4.91147,11.2649
-350,442,-1.75372,-6.27618,0,0,0,0,0,0,0,-1,874,582,-1.75371,6.27618
-343,442,-1.4599,-4.63605,0,0,0,0,0,0,0,-1,881,582,-1.4599,4.63607
-336,442,-1.4054,-2.64313,0,0,0,0,0,0,0,-1,888,582,-1.40539,2.64315
-329,442,-0.952576,-2.76923,0,0,0,0,0,0,0,-1,895,582,-0.952571,2.7692
-322,442,-0.972534,-2.63208,0,0,0,0,0,0,0,-1,902,582,-0.972512,2.6321
-315,442,-0.445557,-2.89764,0,0,0,0,0,0,0,-1,909,582,-0.445582,2.89765
-308,442,-0.654175,-3.07831,0,0,0,0,0,0,0,-1,916,582,-0.654145,3.07832
-301,442,-1.37427,-2.41455,0,0,0,0,0,0,0,-1,923,582,-1.37425,2.41453
-294,442,-2.99963,-2.07855,0,0,0,0,0,0,0,-1,930,582,-2.99964,2.07857
-287,442,3.91034,-10.1913,0,0,0,0,0,0,0,-1,937,582,3.91034,10.1913
-280,442,0,0,0,0,0,0,0,0,0,-1,944,582,0,0
-273,442,0,0,0,0,0,0,0,0,0,-1,951,582,0,0
-266,442,0,0,0,0,0,0,0,0,0,-1,958,582,0,0
-259,442,0,0,0,0,0,0,0,0,0,-1,965,582,0,0
-252,442,0,0,0,0,0,0,0,0,0,-1,972,582,0,0
-245,442,0,0,0,0,0,0,0,0,0,-1,979,582,0,0
-238,442,0,0,0,0,0,0,0,0,0,-1,986,582,0,0
-231,442,0,0,0,0,0,0,0,0,0,-1,993,582,0,0
-224,442,0,0,0,0,0,0,0,0,0,-1,1000,582,0,0
-217,442,0,0,0,0,0,0,0,0,0,-1,1007,582,0,0
-210,442,0,0,0,0,0,0,0,0,0,-1,1014,582,0,0
-203,442,0,0,0,0,0,0,0,0,0,-1,1021,582,0,0
-196,442,0,0,0,0,0,0,0,0,0,-1,1028,582,0,0
-189,442,0,0,0,0,0,0,0,0,0,-1,1035,582,0,0
-182,442,0,0,0,0,0,0,0,0,0,-1,1042,582,0,0
-175,442,0,0,0,0,0,0,0,0,0,-1,1049,582,0,0
-168,442,0,0,0,0,0,0,0,0,0,-1,1056,582,0,0
-161,442,0,0,0,0,0,0,0,0,0,-1,1063,582,0,0
-154,442,0,0,0,0,0,0,0,0,0,-1,1070,582,0,0
-147,442,0,0,0,0,0,0,0,0,0,-1,1077,582,0,0
-140,442,0,0,0,0,0,0,0,0,0,-1,1084,582,0,0
-133,442,0,0,0,0,0,0,0,0,0,-1,1091,582,0,0
-126,442,0,0,0,0,0,0,0,0,0,-1,1098,582,0,0
-119,442,0,0,0,0,0,0,0,0,0,-1,1105,582,0,0
-112,442,0,0,0,0,0,0,0,0,0,-1,1112,582,0,0
-105,442,0,0,0,0,0,0,0,0,0,-1,1119,582,0,0
-98,442,0,0,0,0,0,0,0,0,0,-1,1126,582,0,0
-91,442,0,0,0,0,0,0,0,0,0,-1,1133,582,0,0
-84,442,0,0,0,0,0,0,0,0,0,-1,1140,582,0,0
-77,442,0,0,0,0,0,0,0,0,0,-1,1147,582,0,0
-70,442,0,0,0,0,0,0,0,0,0,-1,1154,582,0,0
-63,442,0,0,0,0,0,0,0,0,0,-1,1161,582,0,0
-56,442,0,0,0,0,0,0,0,0,0,-1,1168,582,0,0
-49,442,0,0,0,0,0,0,0,0,0,-1,1175,582,0,0
-42,442,0,0,0,0,0,0,0,0,0,-1,1182,582,0,0
-35,442,0,0,0,0,0,0,0,0,0,-1,1189,582,0,0
-28,442,0,0,0,0,0,0,0,0,0,-1,1196,582,0,0
-21,442,0,0,0,0,0,0,0,0,0,-1,1203,582,0,0
-14,442,0,0,0,0,0,0,0,0,0,-1,1210,582,0,0
-7,442,0,0,0,0,0,0,0,0,0,-1,1217,582,0,0
0,442,0,0,0,0,0,0,0,0,0,-1,1224,582,0,0
7,442,0,0,0,0,0,0,0,0,0,-1,1231,582,0,0
14,442,0,0,0,0,0,0,0,0,0,-1,1238,582,0,0
21,442,0,0,0,0,0,0,0,0,0,-1,1245,582,0,0
28,442,0,0,0,0,0,0,0,0,0,-1,1252,582,0,0
35,442,0,0,0,0,0,0,0,0,0,-1,1259,582,0,0
42,442,0,0,0,0,0,0,0,0,0,-1,1266,582,0,0
49,442,0,0,0,0,0,0,0,0,0,-1,1273,582,0,0
56,442,0,0,0,0,0,0,0,0,0,-1,1280,582,0,0
63,442,0,0,0,0,0,0,0,0,0,-1,1287,582,0,0
70,442,0,0,0,0,0,0,0,0,0,-1,1294,582,0,0
77,442,0,0,0,0,0,0,0,0,0,-1,1301,582,0,0
84,442,0,0,0,0,0,0,0,0,0,-1,1308,582,0,0
91,442,0,0,0,0,0,0,0,0,0,-1,1315,582,0,0
98,442,0,0,0,0,0,0,0,0,0,-1,1322,582,0,0
105,442,0,0,0,0,0,0,0,0,0,-1,1329,582,0,0
112,442,0,0,0,0,0,0,0,0,0,-1,1336,582,0,0
119,442,0,0,0,0,0,0,0,0,0,-1,1343,582,0,0
126,442,0,0,0,0,0,0,0,0,0,-1,1350,582,0,0
133,442,0,0,0,0,0,0,0,0,0,-1,1357,582,0,0
140,442,0,0,0,0,0,0,0,0,0,-1,1364,582,0,0
147,442,0,0,0,0,0,0,0,0,0,-1,1371,582,0,0
154,442,0,0,0,0,0,0,0,0,0,-1,1378,582,0,0
161,442,0,0,0,0,0,0,0,0,0,-1,1385,582,0,0
168,442,0,0,0,0,0,0,0,0,0,-1,1392,582,0,0
175,442,0,0,0,0,0,0,0,0,0,-1,1399,582,0,0
182,442,0,0,0,0,0,0,0,0,0,-1,1406,582,0,0
189,442,0,0,0,0,0,0,0,0,0,-1,1413,582,0,0
196,442,0,0,0,0,0,0,0,0,0,-1,1420,582,0,0
203,442,0,0,0,0,0,0,0,0,0,-1,1427,582,0,0
210,442,0,0,0,0,0,0,0,0,0,-1,1434,582,0,0
217,442,0,0,0,0,0,0,0,0,0,-1,1441,582,0,0
224,442,0,0,0,0,0,0,0,0,0,-1,1448,582,0,0
231,442,0,0,0,0,0,0,0,0,0,-1,1455,582,0,0
238,442,0,0,0,0,0,0,0,0,0,-1,1462,582,0,0
245,442,0,0,0,0,0,0,0,0,0,-1,1469,582,0,0
252,442,0,0,0,0,0,0,0,0,0,-1,1476,582,0,0
259,442,0,0,0,0,0,0,0,0,0,-1,1483,582,0,0
266,442,0,0,0,0,0,0,0,0,0,-1,1490,582,0,0
273,442,0,0,0,0,0,0,0,0,0,-1,1497,582,0,0
280,442,0,0,0,0,0,0,0,0,0,-1,1504,582,0,0
287,442,0,0,0,0,0,0,0,0,0,-1,1511,582,0,0
294,442,0,0,0,0,0,0,0,0,0,-1,1518,582,0,0
301,442,0,0,0,0,0,0,0,0,0,-1,1525,582,0,0
308,442,0,0,0,0,0,0,0,0,0,-1,1532,582,0,0
315,442,0,0,0,0,0,0,0,0,0,-1,1539,582,0,0
322,442,0,0,0,0,0,0,0,0,0,-1,1546,582,0,0
329,442,0,0,0,0,0,0,0,0,0,-1,1553,582,0,0
336,442,0,0,0,0,0,0,0,0,0,-1,1560,582,0,0
343,442,0,0,0,0,0,0,0,0,0,-1,1567,582,0,0
350,442,0,0,0,0,0,0,0,0,0,-1,1574,582,0,0
357,442,0,0,0,0,0,0,0,0,0,-1,1581,582,0,0
364,442,0,0,0,0,0,0,0,0,0,-1,1588,582,0,0
371,442,0,0,0,0,0,0,0,0,0,-1,1595,582,0,0
378,442,0,0,0,0,0,0,0,0,0,-1,1602,582,0,0
385,442,0,0,0,0,0,0,0,0,0,-1,1609,582,0,0
392,442,0,0,0,0,0,0,0,0,0,-1,1616,582,0,0
399,442,0,0,0,0,0,0,0,0,0,-1,1623,582,0,0
406,442,17.6321,4.08295,0,0,0,0,0,0,0,-1,1630,582,17.6321,-4.08293
413,442,25.4768,2.74445,0,0,0,0,0,0,0,-1,1637,582,25.4768,-2.74444
420,442,22.7478,1.55011,0,0,0,0,0,0,0,-1,1644,582,22.7478,-1.55009
427,442,23.2969,-0.456787,0,0,0,0,0,0,0,-1,1651,582,23.2968,0.456769
434,442,23.9512,-2.49365,0,0,0,0,0,0,0,-1,1658,582,23.9512,2.49366
441,442,24.8251,-4.43958,0,0,0,0,0,0,0,-1,1665,582,24.8251,4.43956
448,442,4.7749,-5.88562,0,0,0,0,0,0,0,-1,1672,582,4.7749,5.8856
455,442,4.87024,-4.60687,0,0,0,0,0,0,0,-1,1679,582,4.87019,4.60686
462,442,5.02307,-3.72821,0,0,0,0,0,0,0,-1,1686,582,5.02311,3.7282
469,442,5.12976,-2.98834,0,0,0,0,0,0,0,-1,1693,582,5.12971,2.98834
476,442,5.4624,1.76947,0,0,0,0,0,0,0,-1,1700,582,5.46234,-1.76944
483,442,5.98486,1.87042,0,0,0,0,0,0,0,-1,1707,582,5.98492,-1.87045
490,442,5.04407,-2.35834,0,0,0,0,0,0,0,-1,1714,582,5.04411,2.35837
497,442,6.20984,-3.07831,0,0,0,0,0,0,0,-1,1721,582,6.2098,3.07833
504,442,20.9276,-19.7709,0,0,0,0,0,0,0,-1,1728,582,20.9276,19.771
511,442,21.7001,-19.2889,0,0,0,0,0,0,0,-1,1735,582,21.7001,19.289
518,442,21.7277,-18.5392,0.00311587,0.00103621,0.00160084,0.00398495,0.00016713,0.497367,0.00260271,0.0136817,1742,582,21.7276,18.5392
525,442,21.6759,-17.827,0.00269149,0.000954659,0.00150422,0.00355998,8.61732e-05,0.52361,0.00234512,0.0106548,1749,582,21.6759,17.827
532,442,21.6536,-17.0964,0.00228831,0.000989518,0.00142564,0.00320549,7.23365e-05,0.571685,0.00211329,0.0110864,1756,582,21.6536,17.0964
539,442,21.6146,-16.3625,0.0019591,0.00115803,0.0014049,0.00301945,9.7684e-05,0.646533,0.00198121,0.0130494,1763,582,21.6147,16.3625
546,442,21.5963,-15.6593,0.00164903,0.00146701,0.00140411,0.00296508,0.000150957,0.753034,0.00192837,0.0178358,1770,582,21.5964,15.6593
553,442,21.5542,-14.9406,0.00131372,0.00190939,0.00145747,0.00309915,0.000123963,0.886187,0.00202604,0.0187756,1777,582,21.5542,14.9405
560,442,21.5529,-14.1762,0.00103254,0.00245538,0.00160149,0.00349636,-8.43185e-06,0.994418,0.00233372,0.0149423,1784,582,21.5528,14.1762
567,442,21.4968,-13.4537,0.000895408,0.00317064,0.00189341,0.00424191,-0.000175857,1.05591,0.00288834,0.0104267,1791,582,21.4969,13.4537
574,442,21.4761,-12.7217,0.000784278,0.00400254,0.00225536,0.00516396,-0.000377144,1.09525,0.00357499,0.0124193,1798,582,21.4761,12.7217
581,442,21.5037,-11.8729,0.000833833,0.00505647,0.00287519,0.00651228,-0.000621974,1.10209,0.004563,0.0272626,1805,582,21.5037,11.8729
588,442,21.577,-10.9827,0,0,0,0,0,0,0,-1,1812,582,21.577,10.9826
595,442,16.27,-6.47083,0,0,0,0,0,0,0,-1,1819,582,16.27,6.47082
602,442,16.2213,-4.49225,0,0,0,0,0,0,0,-1,1826,582,16.2213,4.49223
609,442,12.761,2.97223,0,0,0,0,0,0,0,-1,1833,582,12.761,-2.97221
616,442,9.78345,-0.103394,0,0,0,0,0,0,0,-1,1840,582,9.78341,0.103424
623,442,9.23828,0.326721,0,0,0,0,0,0,0,-1,1847,582,9.23829,-0.326727
630,442,7.74304,2.3924,0,0,0,0,0,0,0,-1,1854,582,7.7431,-2.39238
637,442,5.87805,1.84027,0,0,0,0,0,0,0,-1,1861,582,5.87807,-1.84025
644,442,0,0,0,0,0,0,0,0,0,-1,1868,582,0,0
651,442,0,0,0,0,0,0,0,0,0,-1,1875,582,0,0
658,442,0,0,0,0,0,0,0,0,0,-1,1882,582,0,0
665,442,0,0,0,0,0,0,0,0,0,-1,1889,582,0,0
672,442,0,0,0,0,0,0,0,0,0,-1,1896,582,0,0
679,442,0,0,0,0,0,0,0,0,0,-1,1903,582,0,0
686,442,0,0,0,0,0,0,0,0,0,-1,1910,582,0,0
693,442,0,0,0,0,0,0,0,0,0,-1,1917,582,0,0
700,442,0,0,0,0,0,0,0,0,0,-1,1924,582,0,0
707,442,0,0,0,0,0,0,0,0,0,-1,1931,582,0,0
714,442,0,0,0,0,0,0,0,0,0,-1,1938,582,0,0
721,442,0,0,0,0,0,0,0,0,0,-1,1945,582,0,0
728,442,0,0,0,0,0,0,0,0,0,-1,1952,582,0,0
735,442,0,0,0,0,0,0,0,0,0,-1,1959,582,0,0
742,442,0,0,0,0,0,0,0,0,0,-1,1966,582,0,0
749,442,0,0,0,0,0,0,0,0,0,-1,1973,582,0,0
756,442,0,0,0,0,0,0,0,0,0,-1,1980,582,0,0
763,442,0,0,0,0,0,0,0,0,0,-1,1987,582,0,0
770,442,0,0,0,0,0,0,0,0,0,-1,1994,582,0,0
777,442,0,0,0,0,0,0,0,0,0,-1,2001,582,0,0
784,442,0,0,0,0,0,0,0,0,0,-1,2008,582,0,0
791,442,0,0,0,0,0,0,0,0,0,-1,2015,582,0,0
798,442,0,0,0,0,0,0,0,0,0,-1,2022,582,0,0
805,442,0,0,0,0,0,0,0,0,0,-1,2029,582,0,0
812,442,0,0,0,0,0,0,0,0,0,-1,2036,582,0,0
-700,435,0,0,0,0,0,0,0,0,0,-1,524,589,0,0
-693,435,0,0,0,0,0,0,0,0,0,-1,531,589,0,0
-686,435,0,0,0,0,0,0,0,0,0,-1,538,589,0,0
-679,435,0,0,0,0,0,0,0,0,0,-1,545,589,0,0
-672,435,0,0,0,0,0,0,0,0,0,-1,552,589,0,0
-665,435,0,0,0,0,0,0,0,0,0,-1,559,589,0,0
-658,435,0,0,0,0,0,0,0,0,0,-1,566,589,0,0
-651,435,0,0,0,0,0,0,0,0,0,-1,573,589,0,0
-644,435,0,0,0,0,0,0,0,0,0,-1,580,589,0,0
-637,435,0,0,0,0,0,0,0,0,0,-1,587,589,0,0
-630,435,0,0,0,0,0,0,0,0,0,-1,594,589,0,0
-623,435,0,0,0,0,0,0,0,0,0,-1,601,589,0,0
-616,435,0,0,0,0,0,0,0,0,0,-1,608,589,0,0
-609,435,0,0,0,0,0,0,0,0,0,-1,615,589,0,0
-602,435,0,0,0,0,0,0,0,0,0,-1,622,589,0,0
-595,435,0,0,0,0,0,0,0,0,0,-1,629,589,0,0
-588,435,0,0,0,0,0,0,0,0,0,-1,636,589,0,0
-581,435,0,0,0,0,0,0,0,0,0,-1,643,589,0,0
-574,435,0,0,0,0,0,0,0,0,0,-1,650,589,0,0
-567,435,0,0,0,0,0,0,0,0,0,-1,657,589,0,0
-560,435,0,0,0,0,0,0,0,0,0,-1,664,589,0,0
-553,435,0,0,0,0,0,0,0,0,0,-1,671,589,0,0
-546,435,0,0,0,0,0,0,0,0,0,-1,678,589,0,0
-539,435,0,0,0,0,0,0,0,0,0,-1,685,589,0,0
-532,435,0,0,0,0,0,0,0,0,0,-1,692,589,0,0
-525,435,-10.0776,10.0547,0,0,0,0,0,0,0,-1,699,589,-10.0776,-10.0547
-518,435,-1.83093,-5.82367,0,0,0,0,0,0,0,-1,706,589,-1.83093,5.8237
-511,435,-2.45154,-5.33118,0,0,0,0,0,0,0,-1,713,589,-2.45151,5.33115
-504,435,-3.07208,-4.83862,0,0,0,0,0,0,0,-1,720,589,-3.0721,4.8386
-497,435,-6.31012,-5.84698,0,0,0,0,0,0,0,-1,727,589,-6.31012,5.84697
-490,435,-5.81903,-0.458679,0,0,0,0,0,0,0,-1,734,589,-5.81902,0.458684
-483,435,-6.96503,-3.01624,0,0,0,0,0,0,0,-1,741,589,-6.96505,3.01623
-476,435,-10.0289,-10.5051,0,0,0,0,0,0,0,-1,748,589,-10.0289,10.505
-469,435,-9.64807,-11.3831,0,0,0,0,0,0,0,-1,755,589,-9.64806,11.3831
-462,435,-9.56134,-12.2192,0,0,0,0,0,0,0,-1,762,589,-9.56137,12.2192
-455,435,-9.62018,-13.1757,-0.000972102,0.00459133,-0.00138959,0.0049191,-0.00129987,-1.33915,0.00378778,0.0255393,769,589,-9.6202,13.1757
-448,435,-9.61652,-13.9525,-0.000362146,0.00352653,-0.00131385,0.00392882,-0.000764436,-1.27367,0.00290772,0.0134131,776,589,-9.61651,13.9524
-441,435,-9.65533,-14.6791,0.00014077,0.00258651,-0.00115214,0.00304377,-0.000316491,-1.19298,0.00214248,0.0110098,783,589,-9.65533,14.6791
-434,435,-9.68604,-15.3885,0.000521208,0.00170277,-0.000910574,0.00219742,2.65538e-05,-1.07316,0.00145618,0.0125109,790,589,-9.68606,15.3885
-427,435,-9.72028,-16.1081,0.000822589,0.000941708,-0.000662118,0.00154694,0.000217357,-0.830254,0.000967018,0.0107309,797,589,-9.72025,16.1081
-420,435,-9.73962,-16.8018,0.00114581,0.000309714,-0.00045993,0.00134929,0.000106233,-0.416532,0.000866293,0.0108241,804,589,-9.73963,16.8018
-413,435,-9.76257,-17.5207,0.00138427,-0.000310751,-0.000183199,0.00140384,-0.000330325,-0.106443,0.00106325,0.0115673,811,589,-9.76259,17.5207
-406,435,-9.7887,-18.2363,0.00161273,-0.000858429,0.000105067,0.00161718,-0.000862888,0.0424153,0.00145378,0.0120448,818,589,-9.7887,18.2363
-399,435,-9.8302,-18.9351,0.0020307,-0.00123466,0.000232658,0.0020472,-0.00125115,0.0707738,0.0019227,0.0101249,825,589,-9.83021,18.9351
-392,435,-9.85748,-19.6246,0.00258168,-0.00143582,0.000218971,0.00259358,-0.00144772,0.0542899,0.0023643,0.0108623,832,589,-9.8575,19.6246
-385,435,-9.86078,-20.3028,0.00327955,-0.00171731,0.000102079,0.00328164,-0.00171939,0.0204172,0.00293393,0.0219945,839,589,-9.86081,20.3028
-378,435,-9.82214,-21.084,0,0,0,0,0,0,0,-1,846,589,-9.82212,21.084
-371,435,-10.061,-21.3235,0,0,0,0,0,0,0,-1,853,589,-10.061,21.3235
-364,435,-5.62848,-11.5937,0,0,0,0,0,0,0,-1,860,589,-5.62847,11.5937
-357,435,-5.57343,-10.9666,0,0,0,0,0,0,0,-1,867,589,-5.57342,10.9666
-350,435,-0.86676,-3.69836,0,0,0,0,0,0,0,-1,874,589,-0.866784,3.69834
-343,435,-1.60706,-2.36835,0,0,0,0,0,0,0,-1,881,589,-1.60706,2.36838
-336,435,-2.07263,-1.94012,0,0,0,0,0,0,0,-1,888,589,-2.07265,1.94014
-329,435,-2.55963,-1.5517,0,0,0,0,0,0,0,-1,895,589,-2.5596,1.55168
-322,435,-3.08545,-1.55255,0,0,0,0,0,0,0,-1,902,589,-3.08544,1.55254
-315,435,-0.404297,-2.63763,0,0,0,0,0,0,0,-1,909,589,-0.404276,2.63761
-308,435,-1.70056,-1.90369,0,0,0,0,0,0,0,-1,916,589,-1.70056,1.90367
-301,435,-1.19391,-2.41632,0,0,0,0,0,0,0,-1,923,589,-1.1939,2.41635
-294,435,2.98132,-8.50562,0,0,0,0,0,0,0,-1,930,589,2.9813,8.50559
-287,435,0,0,0,0,0,0,0,0,0,-1,937,589,0,0
-280,435,0,0,0,0,0,0,0,0,0,-1,944,589,0,0
-273,435,0,0,0,0,0,0,0,0,0,-1,951,589,0,0
-266,435,0,0,0,0,0,0,0,0,0,-1,958,589,0,0
-259,435,0,0,0,0,0,0,0,0,0,-1,965,589,0,0
-252,435,0,0,0,0,0,0,0,0,0,-1,972,589,0,0
-245,435,0,0,0,0,0,0,0,0,0,-1,979,589,0,0
-238,435,0,0,0,0,0,0,0,0,0,-1,986,589,0,0
-231,435,0,0,0,0,0,0,0,0,0,-1,993,589,0,0
-224,435,0,0,0,0,0,0,0,0,0,-1,1000,589,0,0
-217,435,0,0,0,0,0,0,0,0,0,-1,1007,589,0,0
-210,435,0,0,0,0,0,0,0,0,0,-1,1014,589,0,0
-203,435,0,0,0,0,0,0,0,0,0,-1,1021,589,0,0
-196,435,0,0,0,0,0,0,0,0,0,-1,1028,589,0,0
-189,435,0,0,0,0,0,0,0,0,0,-1,1035,589,0,0
-182,435,0,0,0,0,0,0,0,0,0,-1,1042,589,0,0
-175,435,0,0,0,0,0,0,0,0,0,-1,1049,589,0,0
-168,435,0,0,0,0,0,0,0,0,0,-1,1056,589,0,0
-161,435,0,0,0,0,0,0,0,0,0,-1,1063,589,0,0
-154,435,0,0,0,0,0,0,0,0,0,-1,1070,589,0,0
-147,435,0,0,0,0,0,0,0,0,0,-1,1077,589,0,0
-140,435,0,0,0,0,0,0,0,0,0,-1,1084,589,0,0
-133,435,0,0,0,0,0,0,0,0,0,-1,1091,589,0,0
-126,435,0,0,0,0,0,0,0,0,0,-1,1098,589,0,0
-119,435,0,0,0,0,0,0,0,0,0,-1,1105,589,0,0
-112,435,0,0,0,0,0,0,0,0,0,-1,1112,589,0,0
-105,435,0,0,0,0,0,0,0,0,0,-1,1119,589,0,0
-98,435,0,0,0,0,0,0,0,0,0,-1,1126,589,0,0
-91,435,0,0,0,0,0,0,0,0,0,-1,1133,589,0,0
-84,435,0,0,0,0,0,0,0,0,0,-1,1140,589,0,0
-77,435,0,0,0,0,0,0,0,0,0,-1,1147,589,0,0
-70,435,0,0,0,0,0,0,0,0,0,-1,1154,589,0,0
-63,435,0,0,0,0,0,0,0,0,0,-1,1161,589,0,0
-56,435,0,0,0,0,0,0,0,0,0,-1,1168,589,0,0
-49,435,0,0,0,0,0,0,0,0,0,-1,1175,589,0,0
-42,435,0,0,0,0,0,0,0,0,0,-1,1182,589,0,0
-35,435,0,0,0,0,0,0,0,0,0,-1,1189,589,0,0
-28,435,0,0,0,0,0,0,0,0,0,-1,1196,589,0,0
-21,435,0,0,0,0,0,0,0,0,0,-1,1203,589,0,0
-14,435,0,0,0,0,0,0,0,0,0,-1,1210,589,0,0
-7,435,0,0,0,0,0,0,0,0,0,-1,1217,589,0,0
0,435,0,0,0,0,0,0,0,0,0,-1,1224,589,0,0
7,435,0,0,0,0,0,0,0,0,0,-1,1231,589,0,0
14,435,0,0,0,0,0,0,0,0,0,-1,1238,589,0,0
21,435,0,0,0,0,0,0,0,0,0,-1,1245,589,0,0
28,435,0,0,0,0,0,0,0,0,0,-1,1252,589,0,0
35,435,0,0,0,0,0,0,0,0,0,-1,1259,589,0,0
42,435,0,0,0,0,0,0,0,0,0,-1,1266,589,0,0
49,435,0,0,0,0,0,0,0,0,0,-1,1273,589,0,0
56,435,0,0,0,0,0,0,0,0,0,-1,1280,589,0,0
63,435,0,0,0,0,0,0,0,0,0,-1,1287,589,0,0
70,435,0,0,0,0,0,0,0,0,0,-1,1294,589,0,0
77,435,0,0,0,0,0,0,0,0,0,-1,1301,589,0,0
84,435,0,0,0,0,0,0,0,0,0,-1,1308,589,0,0
91,435,0,0,0,0,0,0,0,0,0,-1,1315,589,0,0
98,435,0,0,0,0,0,0,0,0,0,-1,1322,589,0,0
105,435,0,0,0,0,0,0,0,0,0,-1,1329,589,0,0
112,435,0,0,0,0,0,0,0,0,0,-1,1336,589,0,0
119,435,0,0,0,0,0,0,0,0,0,-1,1343,589,0,0
126,435,0,0,0,0,0,0,0,0,0,-1,1350,589,0,0
133,435,0,0,0,0,0,0,0,0,0,-1,1357,589,0,0
140,435,0,0,0,0,0,0,0,0,0,-1,1364,589,0,0
147,435,0,0,0,0,0,0,0,0,0,-1,1371,589,0,0
154,435,0,0,0,0,0,0,0,0,0,-1,1378,589,0,0
161,435,0,0,0,0,0,0,0,0,0,-1,1385,589,0,0
168,435,0,0,0,0,0,0,0,0,0,-1,1392,589,0,0
175,435,0,0,0,0,0,0,0,0,0,-1,1399,589,0,0
182,435,0,0,0,0,0,0,0,0,0,-1,1406,589,0,0
189,435,0,0,0,0,0,0,0,0,0,-1,1413,589,0,0
196,435,0,0,0,0,0,0,0,0,0,-1,1420,589,0,0
203,435,0,0,0,0,0,0,0,0,0,-1,1427,589,0,0
210,435,0,0,0,0,0,0,0,0,0,-1,1434,589,0,0
217,435,0,0,0,0,0,0,0,0,0,-1,1441,589,0,0
224,435,0,0,0,0,0,0,0,0,0,-1,1448,589,0,0
231,435,0,0,0,0,0,0,0,0,0,-1,1455,589,0,0
238,435,0,0,0,0,0,0,0,0,0,-1,1462,589,0,0
245,435,0,0,0,0,0,0,0,0,0,-1,1469,589,0,0
252,435,0,0,0,0,0,0,0,0,0,-1,1476,589,0,0
259,435,0,0,0,0,0,0,0,0,0,-1,1483,589,0,0
266,435,0,0,0,0,0,0,0,0,0,-1,1490,589,0,0
273,435,0,0,0,0,0,0,0,0,0,-1,1497,589,0,0
280,435,0,0,0,0,0,0,0,0,0,-1,1504,589,0,0
287,435,0,0,0,0,0,0,0,0,0,-1,1511,589,0,0
294,435,0,0,0,0,0,0,0,0,0,-1,1518,589,0,0
301,435,0,0,0,0,0,0,0,0,0,-1,1525,589,0,0
308,435,0,0,0,0,0,0,0,0,0,-1,1532,589,0,0
315,435,0,0,0,0,0,0,0,0,0,-1,1539,589,0,0
322,435,0,0,0,0,0,0,0,0,0,-1,1546,589,0,0
329,435,0,0,0,0,0,0,0,0,0,-1,1553,589,0,0
336,435,0,0,0,0,0,0,0,0,0,-1,1560,589,0,0
343,435,0,0,0,0,0,0,0,0,0,-1,1567,589,0,0
350,435,0,0,0,0,0,0,0,0,0,-1,1574,589,0,0
357,435,0,0,0,0,0,0,0,0,0,-1,1581,589,0,0
364,435,0,0,0,0,0,0,0,0,0,-1,1588,589,0,0
371,435,0,0,0,0,0,0,0,0,0,-1,1595,589,0,0
378,435,0,0,0,0,0,0,0,0,0,-1,1602,589,0,0
385,435,0,0,0,0,0,0,0,0,0,-1,1609,589,0,0
392,435,0,0,0,0,0,0,0,0,0,-1,1616,589,0,0
399,435,0,0,0,0,0,0,0,0,0,-1,1623,589,0,0
406,435,0,0,0,0,0,0,0,0,0,-1,1630,589,0,0
413,435,20.4565,3.49835,0,0,0,0,0,0,0,-1,1637,589,20.4565,-3.49836
420,435,21.4015,1.49609,0,0,0,0,0,0,0,-1,1644,589,21.4015,-1.49609
427,435,22.0464,-0.373962,0,0,0,0,0,0,0,-1,1651,589,22.0464,0.373972
434,435,22.1863,-1.54407,0,0,0,0,0,0,0,-1,1658,589,22.1862,1.54405
441,435,22.3992,-2.38287,0,0,0,0,0,0,0,-1,1665,589,22.3992,2.38289
448,435,7.4585,-0.00292969,0,0,0,0,0,0,0,-1,1672,589,7.45848,0.00294131
455,435,5.49915,-5.047,0,0,0,0,0,0,0,-1,1679,589,5.49914,5.04703
462,435,5.60669,-4.71466,0,0,0,0,0,0,0,-1,1686,589,5.60675,4.71469
469,435,5.87708,1.22351,0,0,0,0,0,0,0,-1,1693,589,5.87703,-1.22351
476,435,6.14136,1.37714,0,0,0,0,0,0,0,-1,1700,589,6.14138,-1.37712
483,435,6.49243,1.36169,0,0,0,0,0,0,0,-1,1707,589,6.49242,-1.36171
490,435,4.38391,-1.36218,0,0,0,0,0,0,0,-1,1714,589,4.38389,1.3622
497,435,7.23499,-3.64551,0,0,0,0,0,0,0,-1,1721,589,7.23495,3.64551
504,435,7.31189,-3.75909,0,0,0,0,0,0,0,-1,1728,589,7.31184,3.75911
511,435,22.3448,-19.3674,0,0,0,0,0,0,0,-1,1735,589,22.3449,19.3674
518,435,22.4681,-18.5364,0.00405332,0.00134465,0.00201695,0.00512845,0.000269516,0.489735,0.00333276,0.0302888,1742,589,22.4682,18.5364
525,435,22.4045,-17.7801,0.00345538,0.00109453,0.00177508,0.0044067,0.000143212,0.491976,0.00289124,0.0121744,1749,589,22.4045,17.7801
532,435,22.3937,-17.0304,0.00290591,0.000982746,0.00156015,0.003777,0.000111653,0.509224,0.00248162,0.0132875,1756,589,22.3936,17.0304
539,435,22.3688,-16.2917,0.00248362,0.001071,0.00144869,0.003389,0.000165615,0.558579,0.0022062,0.0155545,1763,589,22.3688,16.2917
546,435,22.3182,-15.6014,0.00210181,0.0012547,0.00136903,0.00311131,0.000245197,0.635377,0.0019975,0.0162109,1770,589,22.3182,15.6014
553,435,22.2948,-14.9129,0.00170924,0.00157633,0.0013549,0.00299931,0.000286256,0.760895,0.00191128,0.0114232,1777,589,22.2948,14.9129
560,435,22.2805,-14.1674,0.00137716,0.00199129,0.00143343,0.00315018,0.00021827,0.890912,0.00203128,0.00911623,1784,589,22.2806,14.1673
567,435,22.2491,-13.4092,0.0011994,0.00258226,0.00166693,0.00369548,8.61842e-05,0.981995,0.00243543,0.00864649,1791,589,22.2491,13.4093
574,435,22.1947,-12.6849,0.00110898,0.00328576,0.00198193,0.00445849,-6.37453e-05,1.0365,0.0029938,0.00986311,1798,589,22.1947,12.685
581,435,22.1648,-11.9435,0.00119852,0.00415783,0.00250915,0.00559112,-0.000234762,1.05181,0.00380808,0.016608,1805,589,22.1648,11.9436
588,435,22.1304,-11.2273,0.00154818,0.00526217,0.00324866,0.00714713,-0.000336779,1.04504,0.00488089,0.0450366,1812,589,22.1303,11.2273
595,435,22.1543,-10.1961,0,0,0,0,0,0,0,-1,1819,589,22.1543,10.1961
602,435,16.8671,-6.39026,0,0,0,0,0,0,0,-1,1826,589,16.867,6.39024
609,435,15.2611,-3.42242,0,0,0,0,0,0,0,-1,1833,589,15.2611,3.42242
616,435,5.05151,-2.75269,0,0,0,0,0,0,0,-1,1840,589,5.05157,2.7527
623,435,11.7588,3.9704,0,0,0,0,0,0,0,-1,1847,589,11.7587,-3.97043
630,435,4.72742,-0.87561,0,0,0,0,0,0,0,-1,1854,589,4.7274,0.875636
637,435,5.05286,1.48792,0,0,0,0,0,0,0,-1,1861,589,5.05291,-1.48792
644,435,0,0,0,0,0,0,0,0,0,-1,1868,589,0,0
651,435,0,0,0,0,0,0,0,0,0,-1,1875,589,0,0
658,435,0,0,0,0,0,0,0,0,0,-1,1882,589,0,0
665,435,0,0,0,0,0,0,0,0,0,-1,1889,589,0,0
672,435,0,0,0,0,0,0,0,0,0,-1,1896,589,0,0
679,435,0,0,0,0,0,0,0,0,0,-1,1903,589,0,0
686,435,0,0,0,0,0,0,0,0,0,-1,1910,589,0,0
693,435,0,0,0,0,0,0,0,0,0,-1,1917,589,0,0
700,435,0,0,0,0,0,0,0,0,0,-1,1924,589,0,0
707,435,0,0,0,0,0,0,0,0,0,-1,1931,589,0,0
714,435,0,0,0,0,0,0,0,0,0,-1,1938,589,0,0
721,435,0,0,0,0,0,0,0,0,0,-1,1945,589,0,0
728,435,0,0,0,0,0,0,0,0,0,-1,1952,589,0,0
735,435,0,0,0,0,0,0,0,0,0,-1,1959,589,0,0
742,435,0,0,0,0,0,0,0,0,0,-1,1966,589,0,0
749,435,0,0,0,0,0,0,0,0,0,-1,1973,589,0,0
756,435,0,0,0,0,0,0,0,0,0,-1,1980,589,0,0
763,435,0,0,0,0,0,0,0,0,0,-1,1987,589,0,0
770,435,0,0,0,0,0,0,0,0,0,-1,1994,589,0,0
777,435,0,0,0,0,0,0,0,0,0,-1,2001,589,0,0
784,435,0,0,0,0,0,0,0,0,0,-1,2008,589,0,0
791,435,0,0,0,0,0,0,0,0,0,-1,2015,589,0,0
798,435,0,0,0,0,0,0,0,0,0,-1,2022,589,0,0
805,435,0,0,0,0,0,0,0,0,0,-1,2029,589,0,0
812,435,0,0,0,0,0,0,0,0,0,-1,2036,589,0,0
-700,428,0,0,0,0,0,0,0,0,0,-1,524,596,0,0
-693,428,0,0,0,0,0,0,0,0,0,-1,531,596,0,0
-686,428,0,0,0,0,0,0,0,0,0,-1,538,596,0,0
-679,428,0,0,0,0,0,0,0,0,0,-1,545,596,0,0
-672,428,0,0,0,0,0,0,0,0,0,-1,552,596,0,0
-665,428,0,0,0,0,0,0,0,0,0,-1,559,596,0,0
-658,428,0,0,0,0,0,0,0,0,0,-1,566,596,0,0
-651,428,0,0,0,0,0,0,0,0,0,-1,573,596,0,0
-644,428,0,0,0,0,0,0,0,0,0,-1,580,596,0,0
-637,428,0,0,0,0,0,0,0,0,0,-1,587,596,0,0
-630,428,0,0,0,0,0,0,0,0,0,-1,594,596,0,0
-623,428,0,0,0,0,0,0,0,0,0,-1,601,596,0,0
-616,428,0,0,0,0,0,0,0,0,0,-1,608,596,0,0
-609,428,0,0,0,0,0,0,0,0,0,-1,615,596,0,0
-602,428,0,0,0,0,0,0,0,0,0,-1,622,596,0,0
-595,428,0,0,0,0,0,0,0,0,0,-1,629,596,0,0
-588,428,0,0,0,0,0,0,0,0,0,-1,636,596,0,0
-581,428,0,0,0,0,0,0,0,0,0,-1,643,596,0,0
-574,428,0,0,0,0,0,0,0,0,0,-1,650,596,0,0
-567,428,0,0,0,0,0,0,0,0,0,-1,657,596,0,0
-560,428,0,0,0,0,0,0,0,0,0,-1,664,596,0,0
-553,428,0,0,0,0,0,0,0,0,0,-1,671,596,0,0
-546,428,0,0,0,0,0,0,0,0,0,-1,678,596,0,0
-539,428,0,0,0,0,0,0,0,0,0,-1,685,596,0,0
-532,428,0,0,0,0,0,0,0,0,0,-1,692,596,0,0
-525,428,-9.59918,7.58618,0,0,0,0,0,0,0,-1,699,596,-9.59918,-7.5862
-518,428,-2.92285,-4.81854,0,0,0,0,0,0,0,-1,706,596,-2.92285,4.81856
-511,428,-3.68811,-4.79474,0,0,0,0,0,0,0,-1,713,596,-3.68811,4.79474
-504,428,-4.45337,-4.77094,0,0,0,0,0,0,0,-1,720,596,-4.45337,4.77092
-497,428,-2.98108,-3.77502,0,0,0,0,0,0,0,-1,727,596,-2.98106,3.77505
-490,428,-6.39044,-2.80481,0,0,0,0,0,0,0,-1,734,596,-6.39047,2.80483
-483,428,-10.8474,-9.11322,0,0,0,0,0,0,0,-1,741,596,-10.8473,9.11321
-476,428,-10.1815,-10.8765,0,0,0,0,0,0,0,-1,748,596,-10.1815,10.8765
-469,428,-10.113,-11.6345,-0.0028439,0.00500555,-0.000196578,0.00501047,-0.00284882,-1.54577,0.00459442,0.0304512,755,596,-10.113,11.6345
-462,428,-10.2361,-12.3042,-0.00157013,0.0042117,-0.000740293,0.00430499,-0.00166342,-1.44545,0.00355658,0.0314562,762,596,-10.2361,12.3042
-455,428,-10.325,-13.1229,-0.000698288,0.00353257,-0.000938099,0.00373124,-0.000896962,-1.3621,0.0028342,0.0161974,769,596,-10.325,13.1229
-448,428,-10.3375,-13.8806,-9.38756e-05,0.00259727,-0.000878121,0.00285845,-0.000355058,-1.2817,0.00203434,0.0113132,776,596,-10.3375,13.8805
-441,428,-10.3705,-14.6234,0.00038891,0.00172864,-0.000719627,0.00204193,7.56269e-05,-1.1602,0.00133679,0.0130694,783,596,-10.3705,14.6234
-434,428,-10.397,-15.3758,0.000753535,0.00089365,-0.000486009,0.00131462,0.00033256,-0.856979,0.000789273,0.0102014,790,596,-10.397,15.3758
-427,428,-10.425,-16.0935,0.0010514,0.000163927,-0.000257062,0.00112049,9.48447e-05,-0.262534,0.000717469,0.0112744,797,596,-10.425,16.0935
-420,428,-10.4422,-16.7781,0.00135242,-0.000467292,-5.75664e-05,0.00135424,-0.000469111,-0.0315928,0.00109328,0.0119692,804,596,-10.4422,16.7781
-413,428,-10.4688,-17.4568,0.00155251,-0.00108989,0.000219063,0.00157055,-0.00110793,0.0821559,0.00155409,0.0150988,811,596,-10.4687,17.4568
-406,428,-10.4987,-18.1589,0.00174576,-0.00161775,0.000471422,0.00181058,-0.00168258,0.136651,0.00201723,0.0176607,818,596,-10.4987,18.1589
-399,428,-10.5067,-18.8749,0.00214142,-0.0020176,0.000535693,0.00220931,-0.00208549,0.126062,0.00247995,0.0159033,825,596,-10.5067,18.8749
-392,428,-10.5009,-19.6213,0.00268956,-0.00216756,0.000403025,0.00272278,-0.00220078,0.0822266,0.00284793,0.0308509,832,596,-10.5009,19.6213
-385,428,-10.5257,-20.3064,0,0,0,0,0,0,0,-1,839,596,-10.5257,20.3064
-378,428,-10.6156,-20.514,0,0,0,0,0,0,0,-1,846,596,-10.6156,20.514
-371,428,-5.96155,-11.0703,0,0,0,0,0,0,0,-1,853,596,-5.96154,11.0702
-364,428,-6.33643,-10.7223,0,0,0,0,0,0,0,-1,860,596,-6.33645,10.7223
-357,428,-3.20996,-4.70966,0,0,0,0,0,0,0,-1,867,596,-3.20997,4.70965
-350,428,-1.62793,-3.94055,0,0,0,0,0,0,0,-1,874,596,-1.62794,3.94055
-343,428,-0.0567017,-4.80994,0,0,0,0,0,0,0,-1,881,596,-0.0567096,4.80996
-336,428,-3.29175,-1.39569,0,0,0,0,0,0,0,-1,888,596,-3.29172,1.39568
-329,428,-3.71564,-0.791321,0,0,0,0,0,0,0,-1,895,596,-3.71564,0.791299
-322,428,-5.52863,-3.59827,0,0,0,0,0,0,0,-1,902,596,-5.52865,3.59829
-315,428,-4.57172,-1.22052,0,0,0,0,0,0,0,-1,909,596,-4.57171,1.22052
-308,428,-5.60742,-3.40961,0,0,0,0,0,0,0,-1,916,596,-5.60744,3.40959
-301,428,0,0,0,0,0,0,0,0,0,-1,923,596,0,0
-294,428,0,0,0,0,0,0,0,0,0,-1,930,596,0,0
-287,428,0,0,0,0,0,0,0,0,0,-1,937,596,0,0
-280,428,0,0,0,0,0,0,0,0,0,-1,944,596,0,0
-273,428,0,0,0,0,0,0,0,0,0,-1,951,596,0,0
-266,428,0,0,0,0,0,0,0,0,0,-1,958,596,0,0
-259,428,0,0,0,0,0,0,0,0,0,-1,965,596,0,0
-252,428,0,0,0,0,0,0,0,0,0,-1,972,596,0,0
-245,428,0,0,0,0,0,0,0,0,0,-1,979,596,0,0
-238,428,0,0,0,0,0,0,0,0,0,-1,986,596,0,0
-231,428,0,0,0,0,0,0,0,0,0,-1,993,596,0,0
-224,428,0,0,0,0,0,0,0,0,0,-1,1000,596,0,0
-217,428,0,0,0,0,0,0,0,0,0,-1,1007,596,0,0
-210,428,0,0,0,0,0,0,0,0,0,-1,1014,596,0,0
-203,428,0,0,0,0,0,0,0,0,0,-1,1021,596,0,0
-196,428,0,0,0,0,0,0,0,0,0,-1,1028,596,0,0
-189,428,0,0,0,0,0,0,0,0,0,-1,1035,596,0,0
-182,428,0,0,0,0,0,0,0,0,0,-1,1042,596,0,0
-175,428,0,0,0,0,0,0,0,0,0,-1,1049,596,0,0
-168,428,0,0,0,0,0,0,0,0,0,-1,1056,596,0,0
-161,428,0,0,0,0,0,0,0,0,0,-1,1063,596,0,0
-154,428,0,0,0,0,0,0,0,0,0,-1,1070,596,0,0
-147,428,0,0,0,0,0,0,0,0,0,-1,1077,596,0,0
-140,428,0,0,0,0,0,0,0,0,0,-1,1084,596,0,0
-133,428,0,0,0,0,0,0,0,0,0,-1,1091,596,0,0
-126,428,0,0,0,0,0,0,0,0,0,-1,1098,596,0,0
-119,428,0,0,0,0,0,0,0,0,0,-1,1105,596,0,0
-112,428,0,0,0,0,0,0,0,0,0,-1,1112,596,0,0
-105,428,0,0,0,0,0,0,0,0,0,-1,1119,596,0,0
-98,428,0,0,0,0,0,0,0,0,0,-1,1126,596,0,0
-91,428,0,0,0,0,0,0,0,0,0,-1,1133,596,0,0
-84,428,0,0,0,0,0,0,0,0,0,-1,1140,596,0,0
-77,428,0,0,0,0,0,0,0,0,0,-1,1147,596,0,0
-70,428,0,0,0,0,0,0,0,0,0,-1,1154,596,0,0
-63,428,0,0,0,0,0,0,0,0,0,-1,1161,596,0,0
-56,428,0,0,0,0,0,0,0,0,0,-1,1168,596,0,0
-49,428,0,0,0,0,0,0,0,0,0,-1,1175,596,0,0
-42,428,0,0,0,0,0,0,0,0,0,-1,1182,596,0,0
-35,428,0,0,0,0,0,0,0,0,0,-1,1189,596,0,0
-28,428,0,0,0,0,0,0,0,0,0,-1,1196,596,0,0
-21,428,0,0,0,0,0,0,0,0,0,-1,1203,596,0,0
-14,428,0,0,0,0,0,0,0,0,0,-1,1210,596,0,0
-7,428,0,0,0,0,0,0,0,0,0,-1,1217,596,0,0
0,428,0,0,0,0,0,0,0,0,0,-1,1224,596,0,0
7,428,0,0,0,0,0,0,0,0,0,-1,1231,596,0,0
14,428,0,0,0,0,0,0,0,0,0,-1,1238,596,0,0
21,428,0,0,0,0,0,0,0,0,0,-1,1245,596,0,0
28,428,0,0,0,0,0,0,0,0,0,-1,1252,596,0,0
35,428,0,0,0,0,0,0,0,0,0,-1,1259,596,0,0
42,428,0,0,0,0,0,0,0,0,0,-1,1266,596,0,0
49,428,0,0,0,0,0,0,0,0,0,-1,1273,596,0,0
56,428,0,0,0,0,0,0,0,0,0,-1,1280,596,0,0
63,428,0,0,0,0,0,0,0,0,0,-1,1287,596,0,0
70,428,0,0,0,0,0,0,0,0,0,-1,1294,596,0,0
77,428,0,0,0,0,0,0,0,0,0,-1,1301,596,0,0
84,428,0,0,0,0,0,0,0,0,0,-1,1308,596,0,0
91,428,0,0,0,0,0,0,0,0,0,-1,1315,596,0,0
98,428,0,0,0,0,0,0,0,0,0,-1,1322,596,0,0
105,428,0,0,0,0,0,0,0,0,0,-1,1329,596,0,0
112,428,0,0,0,0,0,0,0,0,0,-1,1336,596,0,0
119,428,0,0,0,0,0,0,0,0,0,-1,1343,596,0,0
126,428,0,0,0,0,0,0,0,0,0,-1,1350,596,0,0
133,428,0,0,0,0,0,0,0,0,0,-1,1357,596,0,0
140,428,0,0,0,0,0,0,0,0,0,-1,1364,596,0,0
147,428,0,0,0,0,0,0,0,0,0,-1,1371,596,0,0
154,428,0,0,0,0,0,0,0,0,0,-1,1378,596,0,0
161,428,0,0,0,0,0,0,0,0,0,-1,1385,596,0,0
168,428,0,0,0,0,0,0,0,0,0,-1,1392,596,0,0
175,428,0,0,0,0,0,0,0,0,0,-1,1399,596,0,0
182,428,0,0,0,0,0,0,0,0,0,-1,1406,596,0,0
189,428,0,0,0,0,0,0,0,0,0,-1,1413,596,0,0
196,428,0,0,0,0,0,0,0,0,0,-1,1420,596,0,0
203,428,0,0,0,0,0,0,0,0,0,-1,1427,596,0,0
210,428,0,0,0,0,0,0,0,0,0,-1,1434,596,0,0
217,428,0,0,0,0,0,0,0,0,0,-1,1441,596,0,0
224,428,0,0,0,0,0,0,0,0,0,-1,1448,596,0,0
231,428,0,0,0,0,0,0,0,0,0,-1,1455,596,0,0
238,428,0,0,0,0,0,0,0,0,0,-1,1462,596,0,0
245,428,0,0,0,0,0,0,0,0,0,-1,1469,596,0,0
252,428,0,0,0,0,0,0,0,0,0,-1,1476,596,0,0
259,428,0,0,0,0,0,0,0,0,0,-1,1483,596,0,0
266,428,0,0,0,0,0,0,0,0,0,-1,1490,596,0,0
273,428,0,0,0,0,0,0,0,0,0,-1,1497,596,0,0
280,428,0,0,0,0,0,0,0,0,0,-1,1504,596,0,0
287,428,0,0,0,0,0,0,0,0,0,-1,1511,596,0,0
294,428,0,0,0,0,0,0,0,0,0,-1,1518,596,0,0
301,428,0,0,0,0,0,0,0,0,0,-1,1525,596,0,0
308,428,0,0,0,0,0,0,0,0,0,-1,1532,596,0,0
315,428,0,0,0,0,0,0,0,0,0,-1,1539,596,0,0
322,428,0,0,0,0,0,0,0,0,0,-1,1546,596,0,0
329,428,0,0,0,0,0,0,0,0,0,-1,1553,596,0,0
336,428,0,0,0,0,0,0,0,0,0,-1,1560,596,0,0
343,428,0,0,0,0,0,0,0,0,0,-1,1567,596,0,0
350,428,0,0,0,0,0,0,0,0,0,-1,1574,596,0,0
357,428,0,0,0,0,0,0,0,0,0,-1,1581,596,0,0
364,428,0,0,0,0,0,0,0,0,0,-1,1588,596,0,0
371,428,0,0,0,0,0,0,0,0,0,-1,1595,596,0,0
378,428,0,0,0,0,0,0,0,0,0,-1,1602,596,0,0
385,428,0,0,0,0,0,0,0,0,0,-1,1609,596,0,0
392,428,0,0,0,0,0,0,0,0,0,-1,1616,596,0,0
399,428,0,0,0,0,0,0,0,0,0,-1,1623,596,0,0
406,428,0,0,0,0,0,0,0,0,0,-1,1630,596,0,0
413,428,0,0,0,0,0,0,0,0,0,-1,1637,596,0,0
420,428,19.8469,1.3399,0,0,0,0,0,0,0,-1,1644,596,19.8469,-1.33992
427,428,20.7299,-0.225281,0,0,0,0,0,0,0,-1,1651,596,20.7299,0.225262
434,428,19.8915,-0.583069,0,0,0,0,0,0,0,-1,1658,596,19.8915,0.583075
441,428,8.17993,0.607483,0,0,0,0,0,0,0,-1,1665,596,8.17997,-0.607513
448,428,7.84338,-0.385986,0,0,0,0,0,0,0,-1,1672,596,7.84336,0.385978
455,428,6.64038,2.1123,0,0,0,0,0,0,0,-1,1679,596,6.64037,-2.11229
462,428,4.84106,4.12341,0,0,0,0,0,0,0,-1,1686,596,4.84107,-4.12339
469,428,7.83789,3.10083,0,0,0,0,0,0,0,-1,1693,596,7.83785,-3.10086
476,428,7.61255,1.73956,0,0,0,0,0,0,0,-1,1700,596,7.61252,-1.73958
483,428,7.22766,1.05121,0,0,0,0,0,0,0,-1,1707,596,7.2277,-1.05121
490,428,5.4071,-3.2793,0,0,0,0,0,0,0,-1,1714,596,5.40707,3.27929
497,428,7.84106,-3.65491,0,0,0,0,0,0,0,-1,1721,596,7.84107,3.65491
504,428,6.92139,-2.83356,0,0,0,0,0,0,0,-1,1728,596,6.92137,2.83353
511,428,7.88501,-3.78723,0,0,0,0,0,0,0,-1,1735,596,7.88502,3.78722
518,428,23.0905,-18.6127,0,0,0,0,0,0,0,-1,1742,596,23.0905,18.6127
525,428,23.036,-17.831,0.0043274,0.00134672,0.00221655,0.00550806,0.000166066,0.489429,0.00361796,0.0459765,1749,596,23.0361,17.831
532,428,23.105,-16.9706,0.00359141,0.00105526,0.00178396,0.00451206,0.000134611,0.476422,0.00296419,0.0200838,1756,596,23.105,16.9706
539,428,23.1056,-16.243,0.00304661,0.00105881,0.00153464,0.00388109,0.000224335,0.49804,0.00251595,0.0215518,1763,596,23.1056,16.243
546,428,23.0535,-15.5751,0.0025683,0.00110319,0.00134892,0.00337075,0.000300743,0.536646,0.00215393,0.0171839,1770,596,23.0535,15.5751
553,428,23.016,-14.8895,0.00210345,0.00130494,0.00125176,0.00301808,0.000390306,0.63102,0.00189539,0.011291,1777,596,23.0159,14.8894
560,428,23.0187,-14.1264,0.00170438,0.00159422,0.00125793,0.00290844,0.000390161,0.763518,0.00182288,0.0118289,1784,596,23.0187,14.1264
567,428,22.9731,-13.3843,0.00146448,0.00206277,0.00143233,0.00322686,0.000300385,0.888345,0.00205843,0.0116971,1791,596,22.9731,13.3843
574,428,22.9241,-12.6768,0.00135014,0.00264448,0.00170752,0.00382336,0.000171263,0.96654,0.00249378,0.0140128,1798,596,22.9241,12.6768
581,428,22.8947,-11.9337,0.00140064,0.00335889,0.00216596,0.00475675,2.7786e-06,0.997677,0.00317024,0.0121726,1805,596,22.8947,11.9336
588,428,22.8762,-11.1357,0.00168605,0.00434464,0.00284205,0.00615291,-0.000122215,1.00415,0.00414328,0.0186667,1812,596,22.8763,11.1357
595,428,22.7965,-10.3291,0.00210481,0.00551446,0.00359912,0.0077921,-0.000172836,1.00658,0.0052533,0.031123,1819,596,22.7965,10.3291
602,428,22.9032,-9.46185,0,0,0,0,0,0,0,-1,1826,596,22.9032,9.46184
609,428,17.2073,-4.82446,0,0,0,0,0,0,0,-1,1833,596,17.2073,4.82447
616,428,15.7817,-3.09558,0,0,0,0,0,0,0,-1,1840,596,15.7817,3.09556
623,428,9.53577,1.12518,0,0,0,0,0,0,0,-1,1847,596,9.5358,-1.1252
630,428,7.07996,6.88562,0,0,0,0,0,0,0,-1,1854,596,7.0799,-6.88565
637,428,3.95435,1.90857,0,0,0,0,0,0,0,-1,1861,596,3.95439,-1.90858
644,428,5.75476,0.888977,0,0,0,0,0,0,0,-1,1868,596,5.75472,-0.888955
651,428,0,0,0,0,0,0,0,0,0,-1,1875,596,0,0
658,428,0,0,0,0,0,0,0,0,0,-1,1882,596,0,0
665,428,0,0,0,0,0,0,0,0,0,-1,1889,596,0,0
672,428,0,0,0,0,0,0,0,0,0,-1,1896,596,0,0
679,428,0,0,0,0,0,0,0,0,0,-1,1903,596,0,0
686,428,0,0,0,0,0,0,0,0,0,-1,1910,596,0,0
693,428,0,0,0,0,0,0,0,0,0,-1,1917,596,0,0
700,428,0,0,0,0,0,0,0,0,0,-1,1924,596,0,0
707,428,0,0,0,0,0,0,0,0,0,-1,1931,596,0,0
714,428,0,0,0,0,0,0,0,0,0,-1,1938,596,0,0
721,428,0,0,0,0,0,0,0,0,0,-1,1945,596,0,0
728,428,0,0,0,0,0,0,0,0,0,-1,1952,596,0,0
735,428,0,0,0,0,0,0,0,0,0,-1,1959,596,0,0
742,428,0,0,0,0,0,0,0,0,0,-1,1966,596,0,0
749,428,0,0,0,0,0,0,0,0,0,-1,1973,596,0,0
756,428,0,0,0,0,0,0,0,0,0,-1,1980,596,0,0
763,428,0,0,0,0,0,0,0,0,0,-1,1987,596,0,0
770,428,0,0,0,0,0,0,0,0,0,-1,1994,596,0,0
777,428,0,0,0,0,0,0,0,0,0,-1,2001,596,0,0
784,428,0,0,0,0,0,0,0,0,0,-1,2008,596,0,0
791,428,0,0,0,0,0,0,0,0,0,-1,2015,596,0,0
798,428,0,0,0,0,0,0,0,0,0,-1,2022,596,0,0
805,428,0,0,0,0,0,0,0,0,0,-1,2029,596,0,0
812,428,0,0,0,0,0,0,0,0,0,-1,2036,596,0,0
-700,421,0,0,0,0,0,0,0,0,0,-1,524,603,0,0
-693,421,0,0,0,0,0,0,0,0,0,-1,531,603,0,0
-686,421,0,0,0,0,0,0,0,0,0,-1,538,603,0,0
-679,421,0,0,0,0,0,0,0,0,0,-1,545,603,0,0
-672,421,0,0,0,0,0,0,0,0,0,-1,552,603,0,0
-665,421,0,0,0,0,0,0,0,0,0,-1,559,603,0,0
-658,421,0,0,0,0,0,0,0,0,0,-1,566,603,0,0
-651,421,0,0,0,0,0,0,0,0,0,-1,573,603,0,0
-644,421,0,0,0,0,0,0,0,0,0,-1,580,603,0,0
-637,421,0,0,0,0,0,0,0,0,0,-1,587,603,0,0
-630,421,0,0,0,0,0,0,0,0,0,-1,594,603,0,0
-623,421,0,0,0,0,0,0,0,0,0,-1,601,603,0,0
-616,421,0,0,0,0,0,0,0,0,0,-1,608,603,0,0
-609,421,0,0,0,0,0,0,0,0,0,-1,615,603,0,0
-602,421,0,0,0,0,0,0,0,0,0,-1,622,603,0,0
-595,421,0,0,0,0,0,0,0,0,0,-1,629,603,0,0
-588,421,0,0,0,0,0,0,0,0,0,-1,636,603,0,0
-581,421,0,0,0,0,0,0,0,0,0,-1,643,603,0,0
-574,421,0,0,0,0,0,0,0,0,0,-1,650,603,0,0
-567,421,0,0,0,0,0,0,0,0,0,-1,657,603,0,0
-560,421,0,0,0,0,0,0,0,0,0,-1,664,603,0,0
-553,421,0,0,0,0,0,0,0,0,0,-1,671,603,0,0
-546,421,0,0,0,0,0,0,0,0,0,-1,678,603,0,0
-539,421,0,0,0,0,0,0,0,0,0,-1,685,603,0,0
-532,421,-8.97382,6.95636,0,0,0,0,0,0,0,-1,692,603,-8.97384,-6.95634
-525,421,-2.11481,-8.04272,0,0,0,0,0,0,0,-1,699,603,-2.11483,8.0427
-518,421,-3.05908,-5.07233,0,0,0,0,0,0,0,-1,706,603,-3.0591,5.07235
-511,421,-4.63525,-4.08447,0,0,0,0,0,0,0,-1,713,603,-4.63524,4.08449
-504,421,-5.17029,-4.94458,0,0,0,0,0,0,0,-1,720,603,-5.17029,4.9446
-497,421,-6.63141,-2.32501,0,0,0,0,0,0,0,-1,727,603,-6.6314,2.32498
-490,421,-6.7616,-4.14783,0,0,0,0,0,0,0,-1,734,603,-6.76159,4.1478
-483,421,-10.6843,-10.3744,0,0,0,0,0,0,0,-1,741,603,-10.6843,10.3744
-476,421,-10.8058,-11.0254,-0.00297587,0.00485469,0.000199201,0.00485975,-0.00298094,1.54538,0.00456994,0.0364564,748,603,-10.8058,11.0254
-469,421,-10.9771,-11.6014,-0.002056,0.00397607,-0.000199201,0.00398264,-0.00206257,-1.53782,0.0035484,0.0297066,755,603,-10.9771,11.6014
-462,421,-11.0212,-12.4105,-0.0010846,0.00324067,-0.000548767,0.00330921,-0.00115314,-1.44654,0.0026747,0.0220466,762,603,-11.0212,12.4104
-455,421,-11.0458,-13.1331,-0.00038096,0.00257282,-0.000655237,0.00271165,-0.000519787,-1.36201,0.00200363,0.0203509,769,603,-11.0458,13.133
-448,421,-11.0638,-13.8398,0.000167331,0.00174433,-0.000584737,0.00193749,-2.5825e-05,-1.25175,0.00130035,0.0189338,776,603,-11.0638,13.8399
-441,421,-11.0865,-14.5907,0.000598685,0.00093233,-0.000408535,0.00120679,0.000324225,-0.979237,0.00072117,0.0144654,783,603,-11.0865,14.5907
-434,421,-11.1277,-15.3433,0.000929797,0.000130178,-0.00016532,0.000962628,9.73461e-05,-0.196043,0.00061189,0.0107774,790,603,-11.1277,15.3433
-427,421,-11.1401,-16.0525,0.0012069,-0.000592442,6.89684e-05,0.00120954,-0.000595082,0.038255,0.00106184,0.0104598,797,603,-11.1401,16.0525
-420,421,-11.1577,-16.7398,0.00145946,-0.00126294,0.000305958,0.00149342,-0.0012969,0.110548,0.00161233,0.011775,804,603,-11.1577,16.7398
-413,421,-11.1868,-17.4023,0.0016024,-0.00192931,0.00062229,0.00170884,-0.00203575,0.169406,0.00216469,0.0149486,811,603,-11.1868,17.4023
-406,421,-11.2407,-18.1324,0.00175535,-0.00247473,0.00087071,0.00192757,-0.00264694,0.195265,0.00265196,0.0206737,818,603,-11.2407,18.1324
-399,421,-11.1533,-18.9332,0.00212506,-0.0029591,0.000908315,0.00228246,-0.00311651,0.171587,0.00312947,0.0358748,825,603,-11.1532,18.9332
-392,421,-11.0972,-19.7467,0,0,0,0,0,0,0,-1,832,603,-11.0971,19.7467
-385,421,-11.5825,-18.8583,0,0,0,0,0,0,0,-1,839,603,-11.5825,18.8583
-378,421,-4.94733,-8.87909,0,0,0,0,0,0,0,-1,846,603,-4.94731,8.87906
-371,421,-5.65082,-7.01849,0,0,0,0,0,0,0,-1,853,603,-5.65082,7.0185
-364,421,-5.94189,-7.09875,0,0,0,0,0,0,0,-1,860,603,-5.94192,7.09878
-357,421,-7.62531,-8.26337,0,0,0,0,0,0,0,-1,867,603,-7.62532,8.26337
-350,421,-5.38019,-3.75024,0,0,0,0,0,0,0,-1,874,603,-5.38017,3.75026
-343,421,-6.22797,-2.57123,0,0,0,0,0,0,0,-1,881,603,-6.22798,2.57121
-336,421,-6.22882,-2.59369,0,0,0,0,0,0,0,-1,888,603,-6.22883,2.5937
-329,421,-4.50134,-1.49469,0,0,0,0,0,0,0,-1,895,603,-4.50137,1.49468
-322,421,-7.55817,1.13263,0,0,0,0,0,0,0,-1,902,603,-7.55818,-1.13263
-315,421,-4.47821,-1.26733,0,0,0,0,0,0,0,-1,909,603,-4.47824,1.26732
-308,421,0,0,0,0,0,0,0,0,0,-1,916,603,0,0
-301,421,0,0,0,0,0,0,0,0,0,-1,923,603,0,0
-294,421,0,0,0,0,0,0,0,0,0,-1,930,603,0,0
-287,421,0,0,0,0,0,0,0,0,0,-1,937,603,0,0
-280,421,0,0,0,0,0,0,0,0,0,-1,944,603,0,0
-273,421,0,0,0,0,0,0,0,0,0,-1,951,603,0,0
-266,421,0,0,0,0,0,0,0,0,0,-1,958,603,0,0
-259,421,0,0,0,0,0,0,0,0,0,-1,965,603,0,0
-252,421,0,0,0,0,0,0,0,0,0,-1,972,603,0,0
-245,421,0,0,0,0,0,0,0,0,0,-1,979,603,0,0
-238,421,0,0,0,0,0,0,0,0,0,-1,986,603,0,0
-231,421,0,0,0,0,0,0,0,0,0,-1,993,603,0,0
-224,421,0,0,0,0,0,0,0,0,0,-1,1000,603,0,0
-217,421,0,0,0,0,0,0,0,0,0,-1,1007,603,0,0
-210,421,0,0,0,0,0,0,0,0,0,-1,1014,603,0,0
-203,421,0,0,0,0,0,0,0,0,0,-1,1021,603,0,0
-196,421,0,0,0,0,0,0,0,0,0,-1,1028,603,0,0
-189,421,0,0,0,0,0,0,0,0,0,-1,1035,603,0,0
-182,421,0,0,0,0,0,0,0,0,0,-1,1042,603,0,0
-175,421,0,0,0,0,0,0,0,0,0,-1,1049,603,0,0
-168,421,0,0,0,0,0,0,0,0,0,-1,1056,603,0,0
-161,421,0,0,0,0,0,0,0,0,0,-1,1063,603,0,0
-154,421,0,0,0,0,0,0,0,0,0,-1,1070,603,0,0
-147,421,0,0,0,0,0,0,0,0,0,-1,1077,603,0,0
-140,421,0,0,0,0,0,0,0,0,0,-1,1084,603,0,0
-133,421,0,0,0,0,0,0,0,0,0,-1,1091,603,0,0
-126,421,0,0,0,0,0,0,0,0,0,-1,1098,603,0,0
-119,421,0,0,0,0,0,0,0,0,0,-1,1105,603,0,0
-112,421,0,0,0,0,0,0,0,0,0,-1,1112,603,0,0
-105,421,0,0,0,0,0,0,0,0,0,-1,1119,603,0,0
-98,421,0,0,0,0,0,0,0,0,0,-1,1126,603,0,0
-91,421,0,0,0,0,0,0,0,0,0,-1,1133,603,0,0
-84,421,0,0,0,0,0,0,0,0,0,-1,1140,603,0,0
-77,421,0,0,0,0,0,0,0,0,0,-1,1147,603,0,0
-70,421,0,0,0,0,0,0,0,0,0,-1,1154,603,0,0
-63,421,0,0,0,0,0,0,0,0,0,-1,1161,603,0,0
-56,421,0,0,0,0,0,0,0,0,0,-1,1168,603,0,0
-49,421,0,0,0,0,0,0,0,0,0,-1,1175,603,0,0
-42,421,0,0,0,0,0,0,0,0,0,-1,1182,603,0,0
-35,421,0,0,0,0,0,0,0,0,0,-1,1189,603,0,0
-28,421,0,0,0,0,0,0,0,0,0,-1,1196,603,0,0
-21,421,0,0,0,0,0,0,0,0,0,-1,1203,603,0,0
-14,421,0,0,0,0,0,0,0,0,0,-1,1210,603,0,0
-7,421,0,0,0,0,0,0,0,0,0,-1,1217,603,0,0
0,421,0,0,0,0,0,0,0,0,0,-1,1224,603,0,0
7,421,0,0,0,0,0,0,0,0,0,-1,1231,603,0,0
14,421,0,0,0,0,0,0,0,0,0,-1,1238,603,0,0
21,421,0,0,0,0,0,0,0,0,0,-1,1245,603,0,0
28,421,0,0,0,0,0,0,0,0,0,-1,1252,603,0,0
35,421,0,0,0,0,0,0,0,0,0,-1,1259,603,0,0
42,421,0,0,0,0,0,0,0,0,0,-1,1266,603,0,0
49,421,0,0,0,0,0,0,0,0,0,-1,1273,603,0,0
56,421,0,0,0,0,0,0,0,0,0,-1,1280,603,0,0
63,421,0,0,0,0,0,0,0,0,0,-1,1287,603,0,0
70,421,0,0,0,0,0,0,0,0,0,-1,1294,603,0,0
77,421,0,0,0,0,0,0,0,0,0,-1,1301,603,0,0
84,421,0,0,0,0,0,0,0,0,0,-1,1308,603,0,0
91,421,0,0,0,0,0,0,0,0,0,-1,1315,603,0,0
98,421,0,0,0,0,0,0,0,0,0,-1,1322,603,0,0
105,421,0,0,0,0,0,0,0,0,0,-1,1329,603,0,0
112,421,0,0,0,0,0,0,0,0,0,-1,1336,603,0,0
119,421,0,0,0,0,0,0,0,0,0,-1,1343,603,0,0
126,421,0,0,0,0,0,0,0,0,0,-1,1350,603,0,0
133,421,0,0,0,0,0,0,0,0,0,-1,1357,603,0,0
140,421,0,0,0,0,0,0,0,0,0,-1,1364,603,0,0
147,421,0,0,0,0,0,0,0,0,0,-1,1371,603,0,0
154,421,0,0,0,0,0,0,0,0,0,-1,1378,603,0,0
161,421,0,0,0,0,0,0,0,0,0,-1,1385,603,0,0
168,421,0,0,0,0,0,0,0,0,0,-1,1392,603,0,0
175,421,0,0,0,0,0,0,0,0,0,-1,1399,603,0,0
182,421,0,0,0,0,0,0,0,0,0,-1,1406,603,0,0
189,421,0,0,0,0,0,0,0,0,0,-1,1413,603,0,0
196,421,0,0,0,0,0,0,0,0,0,-1,1420,603,0,0
203,421,0,0,0,0,0,0,0,0,0,-1,1427,603,0,0
210,421,0,0,0,0,0,0,0,0,0,-1,1434,603,0,0
217,421,0,0,0,0,0,0,0,0,0,-1,1441,603,0,0
224,421,0,0,0,0,0,0,0,0,0,-1,1448,603,0,0
231,421,0,0,0,0,0,0,0,0,0,-1,1455,603,0,0
238,421,0,0,0,0,0,0,0,0,0,-1,1462,603,0,0
245,421,0,0,0,0,0,0,0,0,0,-1,1469,603,0,0
252,421,0,0,0,0,0,0,0,0,0,-1,1476,603,0,0
259,421,0,0,0,0,0,0,0,0,0,-1,1483,603,0,0
266,421,0,0,0,0,0,0,0,0,0,-1,1490,603,0,0
273,421,0,0,0,0,0,0,0,0,0,-1,1497,603,0,0
280,421,0,0,0,0,0,0,0,0,0,-1,1504,603,0,0
287,421,0,0,0,0,0,0,0,0,0,-1,1511,603,0,0
294,421,0,0,0,0,0,0,0,0,0,-1,1518,603,0,0
301,421,0,0,0,0,0,0,0,0,0,-1,1525,603,0,0
308,421,0,0,0,0,0,0,0,0,0,-1,1532,603,0,0
315,421,0,0,0,0,0,0,0,0,0,-1,1539,603,0,0
322,421,0,0,0,0,0,0,0,0,0,-1,1546,603,0,0
329,421,0,0,0,0,0,0,0,0,0,-1,1553,603,0,0
336,421,0,0,0,0,0,0,0,0,0,-1,1560,603,0,0
343,421,0,0,0,0,0,0,0,0,0,-1,1567,603,0,0
350,421,0,0,0,0,0,0,0,0,0,-1,1574,603,0,0
357,421,0,0,0,0,0,0,0,0,0,-1,1581,603,0,0
364,421,0,0,0,0,0,0,0,0,0,-1,1588,603,0,0
371,421,0,0,0,0,0,0,0,0,0,-1,1595,603,0,0
378,421,0,0,0,0,0,0,0,0,0,-1,1602,603,0,0
385,421,0,0,0,0,0,0,0,0,0,-1,1609,603,0,0
392,421,0,0,0,0,0,0,0,0,0,-1,1616,603,0,0
399,421,0,0,0,0,0,0,0,0,0,-1,1623,603,0,0
406,421,0,0,0,0,0,0,0,0,0,-1,1630,603,0,0
413,421,0,0,0,0,0,0,0,0,0,-1,1637,603,0,0
420,421,0,0,0,0,0,0,0,0,0,-1,1644,603,0,0
427,421,0,0,0,0,0,0,0,0,0,-1,1651,603,0,0
434,421,3.68176,-0.0327759,0,0,0,0,0,0,0,-1,1658,603,3.6818,0.0328037
441,421,8.06689,0.527832,0,0,0,0,0,0,0,-1,1665,603,8.06693,-0.527851
448,421,6.93921,0.802246,0,0,0,0,0,0,0,-1,1672,603,6.93923,-0.802251
455,421,7.29456,2.14825,0,0,0,0,0,0,0,-1,1679,603,7.29461,-2.14827
462,421,7.86902,3.53174,0,0,0,0,0,0,0,-1,1686,603,7.869,-3.53173
469,421,8.06604,2.81213,0,0,0,0,0,0,0,-1,1693,603,8.06606,-2.81212
476,421,8.26306,2.09253,0,0,0,0,0,0,0,-1,1700,603,8.26312,-2.09251
483,421,8.05322,0.798096,0,0,0,0,0,0,0,-1,1707,603,8.05323,-0.7981
490,421,7.51233,0.213074,0,0,0,0,0,0,0,-1,1714,603,7.51235,-0.213043
497,421,7.49634,-2.86688,0,0,0,0,0,0,0,-1,1721,603,7.4963,2.86688
504,421,6.90491,-2.18671,0,0,0,0,0,0,0,-1,1728,603,6.90491,2.18669
511,421,6.31348,-1.50653,0,0,0,0,0,0,0,-1,1735,603,6.31353,1.5065
518,421,6.27588,-2.49878,0,0,0,0,0,0,0,-1,1742,603,6.2759,2.4988
525,421,23.6798,-18.0173,0,0,0,0,0,0,0,-1,1749,603,23.6798,18.0174
532,421,23.7405,-17.0081,0.00424773,0.00107933,0.00195221,0.00517766,0.00014941,0.444544,0.00340306,0.0452357,1756,603,23.7405,17.0081
539,421,23.8246,-16.2209,0.0035489,0.00106851,0.00156643,0.00430665,0.000310762,0.450559,0.00277332,0.0238976,1763,603,23.8246,16.2209
546,421,23.782,-15.5512,0.00296221,0.0010022,0.00128387,0.00359736,0.000367048,0.459411,0.00228574,0.0139272,1770,603,23.782,15.5512
553,421,23.7469,-14.8239,0.00243218,0.00111374,0.00111968,0.00307228,0.000473636,0.519342,0.00190999,0.0125265,1777,603,23.747,14.8239
560,421,23.7333,-14.0594,0.00196882,0.00129636,0.00107017,0.00275433,0.000510848,0.63319,0.00169184,0.0145492,1784,603,23.7333,14.0594
567,421,23.6952,-13.3539,0.00166653,0.00164139,0.00119671,0.00285073,0.000457186,0.780146,0.00176791,0.0171245,1791,603,23.6951,13.3539
574,421,23.6555,-12.6565,0.00153019,0.00211117,0.00145105,0.00330052,0.000340838,0.884188,0.00209599,0.0205029,1798,603,23.6555,12.6565
581,421,23.6388,-11.8782,0.00154901,0.00268938,0.00186137,0.00406594,0.000172446,0.934023,0.00265501,0.0209114,1805,603,23.6388,11.8782
588,421,23.6007,-11.1733,0.00178187,0.00355213,0.00248016,0.00530037,3.36312e-05,0.956796,0.00352243,0.0143923,1812,603,23.6006,11.1733
595,421,23.6174,-10.3983,0.00219533,0.00460536,0.00323822,0.00685551,-5.48151e-05,0.963521,0.00458872,0.021393,1819,603,23.6175,10.3983
602,421,23.6199,-9.57617,0,0,0,0,0,0,0,-1,1826,603,23.6198,9.57617
609,421,22.8762,-8.37524,0,0,0,0,0,0,0,-1,1833,603,22.8762,8.37525
616,421,17.7633,-4.72491,0,0,0,0,0,0,0,-1,1840,603,17.7633,4.7249
623,421,6.19885,0.376648,0,0,0,0,0,0,0,-1,1847,603,6.19881,-0.376624
630,421,6.54993,0.778748,0,0,0,0,0,0,0,-1,1854,603,6.54991,-0.778744
637,421,3.74512,1.65405,0,0,0,0,0,0,0,-1,1861,603,3.74517,-1.65407
644,421,3.58081,0.354675,0,0,0,0,0,0,0,-1,1868,603,3.58082,-0.354704
651,421,3.28687,3.66351,0,0,0,0,0,0,0,-1,1875,603,3.28688,-3.66353
658,421,0,0,0,0,0,0,0,0,0,-1,1882,603,0,0
665,421,0,0,0,0,0,0,0,0,0,-1,1889,603,0,0
672,421,0,0,0,0,0,0,0,0,0,-1,1896,603,0,0
679,421,0,0,0,0,0,0,0,0,0,-1,1903,603,0,0
686,421,0,0,0,0,0,0,0,0,0,-1,1910,603,0,0
693,421,0,0,0,0,0,0,0,0,0,-1,1917,603,0,0
700,421,0,0,0,0,0,0,0,0,0,-1,1924,603,0,0
707,421,0,0,0,0,0,0,0,0,0,-1,1931,603,0,0
714,421,0,0,0,0,0,0,0,0,0,-1,1938,603,0,0
721,421,0,0,0,0,0,0,0,0,0,-1,1945,603,0,0
728,421,0,0,0,0,0,0,0,0,0,-1,1952,603,0,0
735,421,0,0,0,0,0,0,0,0,0,-1,1959,603,0,0
742,421,0,0,0,0,0,0,0,0,0,-1,1966,603,0,0
749,421,0,0,0,0,0,0,0,0,0,-1,1973,603,0,0
756,421,0,0,0,0,0,0,0,0,0,-1,1980,603,0,0
763,421,0,0,0,0,0,0,0,0,0,-1,1987,603,0,0
770,421,0,0,0,0,0,0,0,0,0,-1,1994,603,0,0
777,421,0,0,0,0,0,0,0,0,0,-1,2001,603,0,0
784,421,0,0,0,0,0,0,0,0,0,-1,2008,603,0,0
791,421,0,0,0,0,0,0,0,0,0,-1,2015,603,0,0
798,421,0,0,0,0,0,0,0,0,0,-1,2022,603,0,0
805,421,0,0,0,0,0,0,0,0,0,-1,2029,603,0,0
812,421,0,0,0,0,0,0,0,0,0,-1,2036,603,0,0
-700,414,0,0,0,0,0,0,0,0,0,-1,524,610,0,0
-693,414,0,0,0,0,0,0,0,0,0,-1,531,610,0,0
-686,414,0,0,0,0,0,0,0,0,0,-1,538,610,0,0
-679,414,0,0,0,0,0,0,0,0,0,-1,545,610,0,0
-672,414,0,0,0,0,0,0,0,0,0,-1,552,610,0,0
-665,414,0,0,0,0,0,0,0,0,0,-1,559,610,0,0
-658,414,0,0,0,0,0,0,0,0,0,-1,566,610,0,0
-651,414,0,0,0,0,0,0,0,0,0,-1,573,610,0,0
-644,414,0,0,0,0,0,0,0,0,0,-1,580,610,0,0
-637,414,0,0,0,0,0,0,0,0,0,-1,587,610,0,0
-630,414,0,0,0,0,0,0,0,0,0,-1,594,610,0,0
-623,414,0,0,0,0,0,0,0,0,0,-1,601,610,0,0
-616,414,0,0,0,0,0,0,0,0,0,-1,608,610,0,0
-609,414,0,0,0,0,0,0,0,0,0,-1,615,610,0,0
-602,414,0,0,0,0,0,0,0,0,0,-1,622,610,0,0
-595,414,0,0,0,0,0,0,0,0,0,-1,629,610,0,0
-588,414,0,0,0,0,0,0,0,0,0,-1,636,610,0,0
-581,414,0,0,0,0,0,0,0,0,0,-1,643,610,0,0
-574,414,0,0,0,0,0,0,0,0,0,-1,650,610,0,0
-567,414,0,0,0,0,0,0,0,0,0,-1,657,610,0,0
-560,414,0,0,0,0,0,0,0,0,0,-1,664,610,0,0
-553,414,0,0,0,0,0,0,0,0,0,-1,671,610,0,0
-546,414,0,0,0,0,0,0,0,0,0,-1,678,610,0,0
-539,414,-7.50146,5.65619,0,0,0,0,0,0,0,-1,685,610,-7.50149,-5.65617
-532,414,-8.15204,4.01605,0,0,0,0,0,0,0,-1,692,610,-8.15206,-4.01606
-525,414,-3.47137,-3.27924,0,0,0,0,0,0,0,-1,699,610,-3.47136,3.27922
-518,414,-4.12909,-4.36908,0,0,0,0,0,0,0,-1,706,610,-4.12909,4.36909
-511,414,-3.92542,-4.97021,0,0,0,0,0,0,0,-1,713,610,-3.92542,4.97023
-504,414,-9.35394,-5.49896,0,0,0,0,0,0,0,-1,720,610,-9.35394,5.49898
-497,414,-9.67627,-6.54761,0,0,0,0,0,0,0,-1,727,610,-9.6763,6.5476
-490,414,-10.9006,-8.3277,0,0,0,0,0,0,0,-1,734,610,-10.9006,8.3277
-483,414,-11.4829,-10.254,0,0,0,0,0,0,0,-1,741,610,-11.4829,10.254
-476,414,-11.6451,-10.9633,-0.00208561,0.00371498,3.23802e-05,0.00371517,-0.00208579,1.56521,0.00339294,0.0235143,748,610,-11.6451,10.9633
-469,414,-11.7174,-11.6336,-0.00140254,0.0029967,-0.000210158,0.00300672,-0.00141256,-1.52317,0.00260622,0.015544,755,610,-11.7174,11.6336
-462,414,-11.7336,-12.3693,-0.000649622,0.00236439,-0.000431671,0.00242499,-0.000710228,-1.43131,0.00189822,0.0250103,762,610,-11.7337,12.3694
-455,414,-11.7651,-13.1248,-6.81184e-05,0.001731,-0.000482243,0.00185211,-0.000189228,-1.32475,0.00130241,0.0260579,769,610,-11.7651,13.1247
-448,414,-11.7714,-13.8417,0.000454556,0.00101301,-0.000420551,0.00123859,0.000228974,-1.07846,0.000760971,0.0243092,776,610,-11.7714,13.8417
-441,414,-11.7919,-14.5844,0.000867788,0.000265952,-0.000246952,0.000956148,0.000177593,-0.343606,0.000587254,0.0172497,783,610,-11.7919,14.5844
-434,414,-11.8535,-15.2947,0.00119339,-0.000498786,-8.38516e-06,0.00119343,-0.000498828,-0.0049551,0.00100408,0.0100463,790,610,-11.8535,15.2948
-427,414,-11.8685,-15.9988,0.00146126,-0.00122533,0.000231575,0.00148108,-0.00124514,0.0853576,0.00157595,0.010969,797,610,-11.8685,15.9988
-420,414,-11.8814,-16.6902,0.00165831,-0.0019715,0.000533293,0.00173504,-0.00204823,0.142898,0.00218677,0.0105568,804,610,-11.8814,16.6902
-413,414,-11.917,-17.3834,0.00174045,-0.00272527,0.000922298,0.00192343,-0.00290825,0.195856,0.00280882,0.0111319,811,610,-11.917,17.3834
-406,414,-11.9229,-18.2156,0.00184972,-0.00333126,0.001197,0.00211291,-0.00359445,0.216425,0.00333194,0.0293059,818,610,-11.9229,18.2156
-399,414,-11.7584,-18.9546,0,0,0,0,0,0,0,-1,825,610,-11.7584,18.9546
-392,414,-9.43781,-14.5624,0,0,0,0,0,0,0,-1,832,610,-9.43779,14.5624
-385,414,-8.14691,-13.0653,0,0,0,0,0,0,0,-1,839,610,-8.14692,13.0653
-378,414,-8.04907,-11.3331,0,0,0,0,0,0,0,-1,846,610,-8.04905,11.3331
-371,414,-5.20886,-8.05151,0,0,0,0,0,0,0,-1,853,610,-5.20887,8.05153
-364,414,-6.76282,-6.58759,0,0,0,0,0,0,0,-1,860,610,-6.7628,6.58756
-357,414,-9.08685,-8.86188,0,0,0,0,0,0,0,-1,867,610,-9.08688,8.86187
-350,414,-6.4502,-2.41821,0,0,0,0,0,0,0,-1,874,610,-6.45021,2.41822
-343,414,-6.80249,-2.32117,0,0,0,0,0,0,0,-1,881,610,-6.80252,2.32116
-336,414,-7.11017,-2.52026,0,0,0,0,0,0,0,-1,888,610,-7.11016,2.52026
-329,414,-7.59747,-2.70313,0,0,0,0,0,0,0,-1,895,610,-7.59747,2.70315
-322,414,-4.42236,-1.29163,0,0,0,0,0,0,0,-1,902,610,-4.42238,1.2916
-315,414,0,0,0,0,0,0,0,0,0,-1,909,610,0,0
-308,414,0,0,0,0,0,0,0,0,0,-1,916,610,0,0
-301,414,0,0,0,0,0,0,0,0,0,-1,923,610,0,0
-294,414,0,0,0,0,0,0,0,0,0,-1,930,610,0,0
-287,414,0,0,0,0,0,0,0,0,0,-1,937,610,0,0
-280,414,0,0,0,0,0,0,0,0,0,-1,944,610,0,0
-273,414,0,0,0,0,0,0,0,0,0,-1,951,610,0,0
-266,414,0,0,0,0,0,0,0,0,0,-1,958,610,0,0
-259,414,0,0,0,0,0,0,0,0,0,-1,965,610,0,0
-252,414,0,0,0,0,0,0,0,0,0,-1,972,610,0,0
-245,414,0,0,0,0,0,0,0,0,0,-1,979,610,0,0
-238,414,0,0,0,0,0,0,0,0,0,-1,986,610,0,0
-231,414,0,0,0,0,0,0,0,0,0,-1,993,610,0,0
-224,414,0,0,0,0,0,0,0,0,0,-1,1000,610,0,0
-217,414,0,0,0,0,0,0,0,0,0,-1,1007,610,0,0
-210,414,0,0,0,0,0,0,0,0,0,-1,1014,610,0,0
-203,414,0,0,0,0,0,0,0,0,0,-1,1021,610,0,0
-196,414,0,0,0,0,0,0,0,0,0,-1,1028,610,0,0
-189,414,0,0,0,0,0,0,0,0,0,-1,1035,610,0,0
-182,414,0,0,0,0,0,0,0,0,0,-1,1042,610,0,0
-175,414,0,0,0,0,0,0,0,0,0,-1,1049,610,0,0
-168,414,0,0,0,0,0,0,0,0,0,-1,1056,610,0,0
-161,414,0,0,0,0,0,0,0,0,0,-1,1063,610,0,0
-154,414,0,0,0,0,0,0,0,0,0,-1,1070,610,0,0
-147,414,0,0,0,0,0,0,0,0,0,-1,1077,610,0,0
-140,414,0,0,0,0,0,0,0,0,0,-1,1084,610,0,0
-133,414,0,0,0,0,0,0,0,0,0,-1,1091,610,0,0
-126,414,0,0,0,0,0,0,0,0,0,-1,1098,610,0,0
-119,414,0,0,0,0,0,0,0,0,0,-1,1105,610,0,0
-112,414,0,0,0,0,0,0,0,0,0,-1,1112,610,0,0
-105,414,0,0,0,0,0,0,0,0,0,-1,1119,610,0,0
-98,414,0,0,0,0,0,0,0,0,0,-1,1126,610,0,0
-91,414,0,0,0,0,0,0,0,0,0,-1,1133,610,0,0
-84,414,0,0,0,0,0,0,0,0,0,-1,1140,610,0,0
-77,414,0,0,0,0,0,0,0,0,0,-1,1147,610,0,0
-70,414,0,0,0,0,0,0,0,0,0,-1,1154,610,0,0
-63,414,0,0,0,0,0,0,0,0,0,-1,1161,610,0,0
-56,414,0,0,0,0,0,0,0,0,0,-1,1168,610,0,0
-49,414,0,0,0,0,0,0,0,0,0,-1,1175,610,0,0
-42,414,0,0,0,0,0,0,0,0,0,-1,1182,610,0,0
-35,414,0,0,0,0,0,0,0,0,0,-1,1189,610,0,0
-28,414,0,0,0,0,0,0,0,0,0,-1,1196,610,0,0
-21,414,0,0,0,0,0,0,0,0,0,-1,1203,610,0,0
-14,414,0,0,0,0,0,0,0,0,0,-1,1210,610,0,0
-7,414,0,0,0,0,0,0,0,0,0,-1,1217,610,0,0
0,414,0,0,0,0,0,0,0,0,0,-1,1224,610,0,0
7,414,0,0,0,0,0,0,0,0,0,-1,1231,610,0,0
14,414,0,0,0,0,0,0,0,0,0,-1,1238,610,0,0
21,414,0,0,0,0,0,0,0,0,0,-1,1245,610,0,0
28,414,0,0,0,0,0,0,0,0,0,-1,1252,610,0,0
35,414,0,0,0,0,0,0,0,0,0,-1,1259,610,0,0
42,414,0,0,0,0,0,0,0,0,0,-1,1266,610,0,0
49,414,0,0,0,0,0,0,0,0,0,-1,1273,610,0,0
56,414,0,0,0,0,0,0,0,0,0,-1,1280,610,0,0
63,414,0,0,0,0,0,0,0,0,0,-1,1287,610,0,0
70,414,0,0,0,0,0,0,0,0,0,-1,1294,610,0,0
77,414,0,0,0,0,0,0,0,0,0,-1,1301,610,0,0
84,414,0,0,0,0,0,0,0,0,0,-1,1308,610,0,0
91,414,0,0,0,0,0,0,0,0,0,-1,1315,610,0,0
98,414,0,0,0,0,0,0,0,0,0,-1,1322,610,0,0
105,414,0,0,0,0,0,0,0,0,0,-1,1329,610,0,0
112,414,0,0,0,0,0,0,0,0,0,-1,1336,610,0,0
119,414,0,0,0,0,0,0,0,0,0,-1,1343,610,0,0
126,414,0,0,0,0,0,0,0,0,0,-1,1350,610,0,0
133,414,0,0,0,0,0,0,0,0,0,-1,1357,610,0,0
140,414,0,0,0,0,0,0,0,0,0,-1,1364,610,0,0
147,414,0,0,0,0,0,0,0,0,0,-1,1371,610,0,0
154,414,0,0,0,0,0,0,0,0,0,-1,1378,610,0,0
161,414,0,0,0,0,0,0,0,0,0,-1,1385,610,0,0
168,414,0,0,0,0,0,0,0,0,0,-1,1392,610,0,0
175,414,0,0,0,0,0,0,0,0,0,-1,1399,610,0,0
182,414,0,0,0,0,0,0,0,0,0,-1,1406,610,0,0
189,414,0,0,0,0,0,0,0,0,0,-1,1413,610,0,0
196,414,0,0,0,0,0,0,0,0,0,-1,1420,610,0,0
203,414,0,0,0,0,0,0,0,0,0,-1,1427,610,0,0
210,414,0,0,0,0,0,0,0,0,0,-1,1434,610,0,0
217,414,0,0,0,0,0,0,0,0,0,-1,1441,610,0,0
224,414,0,0,0,0,0,0,0,0,0,-1,1448,610,0,0
231,414,0,0,0,0,0,0,0,0,0,-1,1455,610,0,0
238,414,0,0,0,0,0,0,0,0,0,-1,1462,610,0,0
245,414,0,0,0,0,0,0,0,0,0,-1,1469,610,0,0
252,414,0,0,0,0,0,0,0,0,0,-1,1476,610,0,0
259,414,0,0,0,0,0,0,0,0,0,-1,1483,610,0,0
266,414,0,0,0,0,0,0,0,0,0,-1,1490,610,0,0
273,414,0,0,0,0,0,0,0,0,0,-1,1497,610,0,0
280,414,0,0,0,0,0,0,0,0,0,-1,1504,610,0,0
287,414,0,0,0,0,0,0,0,0,0,-1,1511,610,0,0
294,414,0,0,0,0,0,0,0,0,0,-1,1518,610,0,0
301,414,0,0,0,0,0,0,0,0,0,-1,1525,610,0,0
308,414,0,0,0,0,0,0,0,0,0,-1,1532,610,0,0
315,414,0,0,0,0,0,0,0,0,0,-1,1539,610,0,0
322,414,0,0,0,0,0,0,0,0,0,-1,1546,610,0,0
329,414,0,0,0,0,0,0,0,0,0,-1,1553,610,0,0
336,414,0,0,0,0,0,0,0,0,0,-1,1560,610,0,0
343,414,0,0,0,0,0,0,0,0,0,-1,1567,610,0,0
350,414,0,0,0,0,0,0,0,0,0,-1,1574,610,0,0
357,414,0,0,0,0,0,0,0,0,0,-1,1581,610,0,0
364,414,0,0,0,0,0,0,0,0,0,-1,1588,610,0,0
371,414,0,0,0,0,0,0,0,0,0,-1,1595,610,0,0
378,414,0,0,0,0,0,0,0,0,0,-1,1602,610,0,0
385,414,0,0,0,0,0,0,0,0,0,-1,1609,610,0,0
392,414,0,0,0,0,0,0,0,0,0,-1,1616,610,0,0
399,414,0,0,0,0,0,0,0,0,0,-1,1623,610,0,0
406,414,0,0,0,0,0,0,0,0,0,-1,1630,610,0,0
413,414,0,0,0,0,0,0,0,0,0,-1,1637,610,0,0
420,414,0,0,0,0,0,0,0,0,0,-1,1644,610,0,0
427,414,0,0,0,0,0,0,0,0,0,-1,1651,610,0,0
434,414,0,0,0,0,0,0,0,0,0,-1,1658,610,0,0
441,414,7.84375,0.584412,0,0,0,0,0,0,0,-1,1665,610,7.84379,-0.584394
448,414,7.40808,1.25446,0,0,0,0,0,0,0,-1,1672,610,7.40807,-1.25446
455,414,6.3512,1.73846,0,0,0,0,0,0,0,-1,1679,610,6.3512,-1.73847
462,414,8.18103,3.22113,0,0,0,0,0,0,0,-1,1686,610,8.18108,-3.22112
469,414,8.38513,2.49579,0,0,0,0,0,0,0,-1,1693,610,8.38516,-2.49576
476,414,8.64099,1.71161,0,0,0,0,0,0,0,-1,1700,610,8.64097,-1.71164
483,414,8.62744,0.687622,0,0,0,0,0,0,0,-1,1707,610,8.62749,-0.687615
490,414,8.38831,-0.0302734,0,0,0,0,0,0,0,-1,1714,610,8.38835,0.0302913
497,414,4.71094,-0.110046,0,0,0,0,0,0,0,-1,1721,610,4.71089,0.110024
504,414,7.19568,-1.43835,0,0,0,0,0,0,0,-1,1728,610,7.19563,1.43836
511,414,5.94153,-1.28772,0,0,0,0,0,0,0,-1,1735,610,5.94151,1.28769
518,414,4.53381,-0.0996704,0,0,0,0,0,0,0,-1,1742,610,4.53378,0.0996819
525,414,6.18811,-1.64056,0,0,0,0,0,0,0,-1,1749,610,6.18814,1.64055
532,414,24.4674,-17.244,0,0,0,0,0,0,0,-1,1756,610,24.4674,17.244
539,414,24.5586,-16.2393,0,0,0,0,0,0,0,-1,1763,610,24.5586,16.2393
546,414,24.5013,-15.5141,0.0034279,0.00107468,0.00133747,0.00403264,0.000469934,0.424647,0.00254628,0.016329,1770,610,24.5013,15.5141
553,414,24.5018,-14.7873,0.00277914,0.00107394,0.00109002,0.0033104,0.00054268,0.453506,0.00205012,0.0132148,1777,610,24.5019,14.7873
560,414,24.4779,-14.0548,0.0022117,0.00112673,0.000966213,0.0027773,0.00056113,0.529602,0.00169573,0.0148007,1784,610,24.4779,14.0548
567,414,24.4254,-13.3212,0.00181217,0.00131397,0.00101137,0.00260467,0.000521471,0.664653,0.00159136,0.0230022,1791,610,24.4254,13.3212
574,414,24.3818,-12.5899,0.00161962,0.00165486,0.00120756,0.00284493,0.000429545,0.792693,0.00177089,0.0218322,1798,610,24.3818,12.5899
581,414,24.3556,-11.8398,0.00157608,0.00210581,0.00153658,0.00340019,0.000281699,0.870745,0.00217897,0.019948,1805,610,24.3555,11.8398
588,414,24.353,-11.121,0.00173342,0.00284339,0.00205617,0.00441816,0.000158652,0.917213,0.00289401,0.0191436,1812,610,24.3531,11.1209
595,414,24.3114,-10.306,0.00211587,0.00378406,0.00274213,0.00581614,8.37899e-05,0.933041,0.0038498,0.0217041,1819,610,24.3114,10.306
602,414,24.2512,-9.57794,0.00269403,0.00503215,0.00357211,0.00762164,0.000104541,0.943542,0.00504661,0.026716,1826,610,24.2512,9.57792
609,414,24.2401,-8.7265,0,0,0,0,0,0,0,-1,1833,610,24.2401,8.72648
616,414,24.4808,-7.77008,0,0,0,0,0,0,0,-1,1840,610,24.4808,7.77008
623,414,9.6969,0.0378418,0,0,0,0,0,0,0,-1,1847,610,9.69685,-0.0378644
630,414,5.47144,0.499329,0,0,0,0,0,0,0,-1,1854,610,5.47142,-0.499303
637,414,8.36707,4.16278,0,0,0,0,0,0,0,-1,1861,610,8.36709,-4.16278
644,414,5.87073,1.51422,0,0,0,0,0,0,0,-1,1868,610,5.87076,-1.51424
651,414,3.6377,0.820557,0,0,0,0,0,0,0,-1,1875,610,3.6377,-0.820543
658,414,2.29761,3.87323,0,0,0,0,0,0,0,-1,1882,610,2.29758,-3.87325
665,414,0,0,0,0,0,0,0,0,0,-1,1889,610,0,0
672,414,0,0,0,0,0,0,0,0,0,-1,1896,610,0,0
679,414,0,0,0,0,0,0,0,0,0,-1,1903,610,0,0
686,414,0,0,0,0,0,0,0,0,0,-1,1910,610,0,0
693,414,0,0,0,0,0,0,0,0,0,-1,1917,610,0,0
700,414,0,0,0,0,0,0,0,0,0,-1,1924,610,0,0
707,414,0,0,0,0,0,0,0,0,0,-1,1931,610,0,0
714,414,0,0,0,0,0,0,0,0,0,-1,1938,610,0,0
721,414,0,0,0,0,0,0,0,0,0,-1,1945,610,0,0
728,414,0,0,0,0,0,0,0,0,0,-1,1952,610,0,0
735,414,0,0,0,0,0,0,0,0,0,-1,1959,610,0,0
742,414,0,0,0,0,0,0,0,0,0,-1,1966,610,0,0
749,414,0,0,0,0,0,0,0,0,0,-1,1973,610,0,0
756,414,0,0,0,0,0,0,0,0,0,-1,1980,610,0,0
763,414,0,0,0,0,0,0,0,0,0,-1,1987,610,0,0
770,414,0,0,0,0,0,0,0,0,0,-1,1994,610,0,0
777,414,0,0,0,0,0,0,0,0,0,-1,2001,610,0,0
784,414,0,0,0,0,0,0,0,0,0,-1,2008,610,0,0
791,414,0,0,0,0,0,0,0,0,0,-1,2015,610,0,0
798,414,0,0,0,0,0,0,0,0,0,-1,2022,610,0,0
805,414,0,0,0,0,0,0,0,0,0,-1,2029,610,0,0
812,414,0,0,0,0,0,0,0,0,0,-1,2036,610,0,0
-700,407,0,0,0,0,0,0,0,0,0,-1,524,617,0,0
-693,407,0,0,0,0,0,0,0,0,0,-1,531,617,0,0
-686,407,0,0,0,0,0,0,0,0,0,-1,538,617,0,0
-679,407,0,0,0,0,0,0,0,0,0,-1,545,617,0,0
-672,407,0,0,0,0,0,0,0,0,0,-1,552,617,0,0
-665,407,0,0,0,0,0,0,0,0,0,-1,559,617,0,0
-658,407,0,0,0,0,0,0,0,0,0,-1,566,617,0,0
-651,407,0,0,0,0,0,0,0,0,0,-1,573,617,0,0
-644,407,0,0,0,0,0,0,0,0,0,-1,580,617,0,0
-637,407,0,0,0,0,0,0,0,0,0,-1,587,617,0,0
-630,407,0,0,0,0,0,0,0,0,0,-1,594,617,0,0
-623,407,0,0,0,0,0,0,0,0,0,-1,601,617,0,0
-616,407,0,0,0,0,0,0,0,0,0,-1,608,617,0,0
-609,407,0,0,0,0,0,0,0,0,0,-1,615,617,0,0
-602,407,0,0,0,0,0,0,0,0,0,-1,622,617,0,0
-595,407,0,0,0,0,0,0,0,0,0,-1,629,617,0,0
-588,407,0,0,0,0,0,0,0,0,0,-1,636,617,0,0
-581,407,0,0,0,0,0,0,0,0,0,-1,643,617,0,0
-574,407,0,0,0,0,0,0,0,0,0,-1,650,617,0,0
-567,407,0,0,0,0,0,0,0,0,0,-1,657,617,0,0
-560,407,0,0,0,0,0,0,0,0,0,-1,664,617,0,0
-553,407,0,0,0,0,0,0,0,0,0,-1,671,617,0,0
-546,407,-8.54517,-0.658142,0,0,0,0,0,0,0,-1,678,617,-8.54515,0.658112
-539,407,-6.09442,-1.01154,0,0,0,0,0,0,0,-1,685,617,-6.09441,1.01155
-532,407,-7.75665,1.62152,0,0,0,0,0,0,0,-1,692,617,-7.75667,-1.62154
-525,407,-3.78247,-2.67639,0,0,0,0,0,0,0,-1,699,617,-3.78246,2.67638
-518,407,-5.013,-5.87323,0,0,0,0,0,0,0,-1,706,617,-5.013,5.87324
-511,407,-9.42743,-4.94189,0,0,0,0,0,0,0,-1,713,617,-9.42745,4.94191
-504,407,-10.8291,-8.05927,0,0,0,0,0,0,0,-1,720,617,-10.8291,8.05927
-497,407,-9.84467,-6.81641,0,0,0,0,0,0,0,-1,727,617,-9.84468,6.8164
-490,407,-12.6012,-9.40668,0,0,0,0,0,0,0,-1,734,617,-12.6012,9.40667
-483,407,-12.2601,-10.1116,0,0,0,0,0,0,0,-1,741,617,-12.2601,10.1116
-476,407,-12.3309,-10.8547,-0.00113386,0.00287423,-0.000251019,0.00288989,-0.00114952,-1.50849,0.00240323,0.0164123,748,617,-12.3309,10.8547
-469,407,-12.3956,-11.5529,-0.000663258,0.00225479,-0.000364604,0.00229966,-0.000708124,-1.44836,0.00181577,0.0141267,755,617,-12.3956,11.5529
-462,407,-12.4534,-12.2997,-0.000123517,0.00168632,-0.00045984,0.00179645,-0.00023365,-1.33572,0.00128263,0.0221628,762,617,-12.4534,12.2997
-455,407,-12.4905,-13.0944,0.000323803,0.00105476,-0.000438161,0.00125986,0.000118703,-1.133,0.000803268,0.0230226,769,617,-12.4905,13.0944
-448,407,-12.4529,-13.8425,0.000787015,0.000408566,-0.000360117,0.0010046,0.000190986,-0.543497,0.000616017,0.0197037,776,617,-12.4529,13.8425
-441,407,-12.5046,-14.5064,0.0011572,-0.000300358,-0.000168754,0.00117648,-0.000319641,-0.113773,0.000909782,0.0148158,783,617,-12.5046,14.5064
-434,407,-12.5898,-15.2017,0.00145835,-0.00104502,8.38122e-05,0.00146115,-0.00104783,0.0334298,0.0014551,0.0111311,790,617,-12.5898,15.2016
-427,407,-12.5984,-15.9198,0.00169055,-0.00180465,0.000354724,0.00172618,-0.00184028,0.100129,0.00205945,0.0120084,797,617,-12.5985,15.9198
-420,407,-12.5858,-16.6294,0.00178284,-0.0026834,0.000764649,0.00191013,-0.00281069,0.16495,0.00274205,0.0115049,804,617,-12.5857,16.6294
-413,407,-12.596,-17.3182,0.00175231,-0.00359649,0.00127875,0.0020423,-0.00388648,0.223006,0.00347774,0.0155853,811,617,-12.596,17.3182
-406,407,-12.7275,-17.829,0.00174519,-0.0043643,0.00164036,0.00215776,-0.00477687,0.246399,0.00409779,0.0474366,818,617,-12.7275,17.829
-399,407,-12.5709,-18.3724,0,0,0,0,0,0,0,-1,825,617,-12.5709,18.3724
-392,407,-8.33612,-12.195,0,0,0,0,0,0,0,-1,832,617,-8.33611,12.195
-385,407,-7.65765,-10.7744,0,0,0,0,0,0,0,-1,839,617,-7.65767,10.7744
-378,407,-6.08655,-7.42291,0,0,0,0,0,0,0,-1,846,617,-6.08652,7.42292
-371,407,-7.4007,-5.79449,0,0,0,0,0,0,0,-1,853,617,-7.40072,5.79447
-364,407,-10.0638,-6.6228,0,0,0,0,0,0,0,-1,860,617,-10.0639,6.62279
-357,407,-6.64447,-1.83337,0,0,0,0,0,0,0,-1,867,617,-6.64446,1.8334
-350,407,-7.03351,-1.77551,0,0,0,0,0,0,0,-1,874,617,-7.03349,1.77551
-343,407,-7.40967,-1.95026,0,0,0,0,0,0,0,-1,881,617,-7.40969,1.95026
-336,407,-8.10229,-2.40662,0,0,0,0,0,0,0,-1,888,617,-8.10229,2.40664
-329,407,-8.81232,-2.76331,0,0,0,0,0,0,0,-1,895,617,-8.81235,2.76331
-322,407,0,0,0,0,0,0,0,0,0,-1,902,617,0,0
-315,407,0,0,0,0,0,0,0,0,0,-1,909,617,0,0
-308,407,0,0,0,0,0,0,0,0,0,-1,916,617,0,0
-301,407,0,0,0,0,0,0,0,0,0,-1,923,617,0,0
-294,407,0,0,0,0,0,0,0,0,0,-1,930,617,0,0
-287,407,0,0,0,0,0,0,0,0,0,-1,937,617,0,0
-280,407,0,0,0,0,0,0,0,0,0,-1,944,617,0,0
-273,407,0,0,0,0,0,0,0,0,0,-1,951,617,0,0
-266,407,0,0,0,0,0,0,0,0,0,-1,958,617,0,0
-259,407,0,0,0,0,0,0,0,0,0,-1,965,617,0,0
-252,407,0,0,0,0,0,0,0,0,0,-1,972,617,0,0
-245,407,0,0,0,0,0,0,0,0,0,-1,979,617,0,0
-238,407,0,0,0,0,0,0,0,0,0,-1,986,617,0,0
-231,407,0,0,0,0,0,0,0,0,0,-1,993,617,0,0
-224,407,0,0,0,0,0,0,0,0,0,-1,1000,617,0,0
-217,407,0,0,0,0,0,0,0,0,0,-1,1007,617,0,0
-210,407,0,0,0,0,0,0,0,0,0,-1,1014,617,0,0
-203,407,0,0,0,0,0,0,0,0,0,-1,1021,617,0,0
-196,407,0,0,0,0,0,0,0,0,0,-1,1028,617,0,0
-189,407,0,0,0,0,0,0,0,0,0,-1,1035,617,0,0
-182,407,0,0,0,0,0,0,0,0,0,-1,1042,617,0,0
-175,407,0,0,0,0,0,0,0,0,0,-1,1049,617,0,0
-168,407,0,0,0,0,0,0,0,0,0,-1,1056,617,0,0
-161,407,0,0,0,0,0,0,0,0,0,-1,1063,617,0,0
-154,407,0,0,0,0,0,0,0,0,0,-1,1070,617,0,0
-147,407,0,0,0,0,0,0,0,0,0,-1,1077,617,0,0
-140,407,0,0,0,0,0,0,0,0,0,-1,1084,617,0,0
-133,407,0,0,0,0,0,0,0,0,0,-1,1091,617,0,0
-126,407,0,0,0,0,0,0,0,0,0,-1,1098,617,0,0
-119,407,0,0,0,0,0,0,0,0,0,-1,1105,617,0,0
-112,407,0,0,0,0,0,0,0,0,0,-1,1112,617,0,0
-105,407,0,0,0,0,0,0,0,0,0,-1,1119,617,0,0
-98,407,0,0,0,0,0,0,0,0,0,-1,1126,617,0,0
-91,407,0,0,0,0,0,0,0,0,0,-1,1133,617,0,0
-84,407,0,0,0,0,0,0,0,0,0,-1,1140,617,0,0
-77,407,0,0,0,0,0,0,0,0,0,-1,1147,617,0,0
-70,407,0,0,0,0,0,0,0,0,0,-1,1154,617,0,0
-63,407,0,0,0,0,0,0,0,0,0,-1,1161,617,0,0
-56,407,0,0,0,0,0,0,0,0,0,-1,1168,617,0,0
-49,407,0,0,0,0,0,0,0,0,0,-1,1175,617,0,0
-42,407,0,0,0,0,0,0,0,0,0,-1,1182,617,0,0
-35,407,0,0,0,0,0,0,0,0,0,-1,1189,617,0,0
-28,407,0,0,0,0,0,0,0,0,0,-1,1196,617,0,0
-21,407,0,0,0,0,0,0,0,0,0,-1,1203,617,0,0
-14,407,0,0,0,0,0,0,0,0,0,-1,1210,617,0,0
-7,407,0,0,0,0,0,0,0,0,0,-1,1217,617,0,0
0,407,0,0,0,0,0,0,0,0,0,-1,1224,617,0,0
7,407,0,0,0,0,0,0,0,0,0,-1,1231,617,0,0
14,407,0,0,0,0,0,0,0,0,0,-1,1238,617,0,0
21,407,0,0,0,0,0,0,0,0,0,-1,1245,617,0,0
28,407,0,0,0,0,0,0,0,0,0,-1,1252,617,0,0
35,407,0,0,0,0,0,0,0,0,0,-1,1259,617,0,0
42,407,0,0,0,0,0,0,0,0,0,-1,1266,617,0,0
49,407,0,0,0,0,0,0,0,0,0,-1,1273,617,0,0
56,407,0,0,0,0,0,0,0,0,0,-1,1280,617,0,0
63,407,0,0,0,0,0,0,0,0,0,-1,1287,617,0,0
70,407,0,0,0,0,0,0,0,0,0,-1,1294,617,0,0
77,407,0,0,0,0,0,0,0,0,0,-1,1301,617,0,0
84,407,0,0,0,0,0,0,0,0,0,-1,1308,617,0,0
91,407,0,0,0,0,0,0,0,0,0,-1,1315,617,0,0
98,407,0,0,0,0,0,0,0,0,0,-1,1322,617,0,0
105,407,0,0,0,0,0,0,0,0,0,-1,1329,617,0,0
112,407,0,0,0,0,0,0,0,0,0,-1,1336,617,0,0
119,407,0,0,0,0,0,0,0,0,0,-1,1343,617,0,0
126,407,0,0,0,0,0,0,0,0,0,-1,1350,617,0,0
133,407,0,0,0,0,0,0,0,0,0,-1,1357,617,0,0
140,407,0,0,0,0,0,0,0,0,0,-1,1364,617,0,0
147,407,0,0,0,0,0,0,0,0,0,-1,1371,617,0,0
154,407,0,0,0,0,0,0,0,0,0,-1,1378,617,0,0
161,407,0,0,0,0,0,0,0,0,0,-1,1385,617,0,0
168,407,0,0,0,0,0,0,0,0,0,-1,1392,617,0,0
175,407,0,0,0,0,0,0,0,0,0,-1,1399,617,0,0
182,407,0,0,0,0,0,0,0,0,0,-1,1406,617,0,0
189,407,0,0,0,0,0,0,0,0,0,-1,1413,617,0,0
196,407,0,0,0,0,0,0,0,0,0,-1,1420,617,0,0
203,407,0,0,0,0,0,0,0,0,0,-1,1427,617,0,0
210,407,0,0,0,0,0,0,0,0,0,-1,1434,617,0,0
217,407,0,0,0,0,0,0,0,0,0,-1,1441,617,0,0
224,407,0,0,0,0,0,0,0,0,0,-1,1448,617,0,0
231,407,0,0,0,0,0,0,0,0,0,-1,1455,617,0,0
238,407,0,0,0,0,0,0,0,0,0,-1,1462,617,0,0
245,407,0,0,0,0,0,0,0,0,0,-1,1469,617,0,0
252,407,0,0,0,0,0,0,0,0,0,-1,1476,617,0,0
259,407,0,0,0,0,0,0,0,0,0,-1,1483,617,0,0
266,407,0,0,0,0,0,0,0,0,0,-1,1490,617,0,0
273,407,0,0,0,0,0,0,0,0,0,-1,1497,617,0,0
280,407,0,0,0,0,0,0,0,0,0,-1,1504,617,0,0
287,407,0,0,0,0,0,0,0,0,0,-1,1511,617,0,0
294,407,0,0,0,0,0,0,0,0,0,-1,1518,617,0,0
301,407,0,0,0,0,0,0,0,0,0,-1,1525,617,0,0
308,407,0,0,0,0,0,0,0,0,0,-1,1532,617,0,0
315,407,0,0,0,0,0,0,0,0,0,-1,1539,617,0,0
322,407,0,0,0,0,0,0,0,0,0,-1,1546,617,0,0
329,407,0,0,0,0,0,0,0,0,0,-1,1553,617,0,0
336,407,0,0,0,0,0,0,0,0,0,-1,1560,617,0,0
343,407,0,0,0,0,0,0,0,0,0,-1,1567,617,0,0
350,407,0,0,0,0,0,0,0,0,0,-1,1574,617,0,0
357,407,0,0,0,0,0,0,0,0,0,-1,1581,617,0,0
364,407,0,0,0,0,0,0,0,0,0,-1,1588,617,0,0
371,407,0,0,0,0,0,0,0,0,0,-1,1595,617,0,0
378,407,0,0,0,0,0,0,0,0,0,-1,1602,617,0,0
385,407,0,0,0,0,0,0,0,0,0,-1,1609,617,0,0
392,407,0,0,0,0,0,0,0,0,0,-1,1616,617,0,0
399,407,0,0,0,0,0,0,0,0,0,-1,1623,617,0,0
406,407,0,0,0,0,0,0,0,0,0,-1,1630,617,0,0
413,407,0,0,0,0,0,0,0,0,0,-1,1637,617,0,0
420,407,0,0,0,0,0,0,0,0,0,-1,1644,617,0,0
427,407,0,0,0,0,0,0,0,0,0,-1,1651,617,0,0
434,407,0,0,0,0,0,0,0,0,0,-1,1658,617,0,0
441,407,0,0,0,0,0,0,0,0,0,-1,1665,617,0,0
448,407,7.02893,2.13843,0,0,0,0,0,0,0,-1,1672,617,7.02899,-2.13844
455,407,7.55237,2.29242,0,0,0,0,0,0,0,-1,1679,617,7.55236,-2.29244
462,407,8.2926,2.46173,0,0,0,0,0,0,0,-1,1686,617,8.29261,-2.46174
469,407,8.71509,2.22681,0,0,0,0,0,0,0,-1,1693,617,8.71511,-2.22681
476,407,8.89917,1.47766,0,0,0,0,0,0,0,-1,1700,617,8.89914,-1.47768
483,407,9.02612,0.682983,0,0,0,0,0,0,0,-1,1707,617,9.02608,-0.683004
490,407,9.12659,0.000671387,0,0,0,0,0,0,0,-1,1714,617,9.12653,-0.000675931
497,407,7.76819,0.855835,0,0,0,0,0,0,0,-1,1721,617,7.7682,-0.855865
504,407,4.69336,0.160706,0,0,0,0,0,0,0,-1,1728,617,4.69337,-0.1607
511,407,4.07104,-0.00140381,0,0,0,0,0,0,0,-1,1735,617,4.07109,0.00141425
518,407,6.09534,1.9411,0,0,0,0,0,0,0,-1,1742,617,6.09532,-1.94113
525,407,5.72534,-1.35986,0,0,0,0,0,0,0,-1,1749,617,5.72529,1.35988
532,407,18.5767,-10.6388,0,0,0,0,0,0,0,-1,1756,617,18.5766,10.6388
539,407,25.1776,-16.2772,0,0,0,0,0,0,0,-1,1763,617,25.1776,16.2772
546,407,25.2507,-15.4769,0.00367366,0.0014309,0.00145929,0.00439267,0.000711894,0.457798,0.00272236,0.0248535,1770,617,25.2507,15.4769
553,407,25.2097,-14.7697,0.0029654,0.00123683,0.0011068,0.00350539,0.000696835,0.45391,0.00214276,0.0163623,1777,617,25.2097,14.7696
560,407,25.2034,-14.0211,0.00235644,0.00109711,0.000885106,0.002813,0.000640549,0.476231,0.00170247,0.017884,1784,617,25.2034,14.0211
567,407,25.1516,-13.2661,0.00191081,0.00107179,0.000824043,0.00241598,0.000566619,0.549952,0.00145893,0.0305835,1791,617,25.1516,13.2661
574,407,25.1132,-12.5294,0.00170028,0.00126113,0.000951867,0.00245757,0.000503839,0.672043,0.00149893,0.0254343,1798,617,25.1132,12.5294
581,407,25.0662,-11.778,0.00162892,0.0015927,0.00120771,0.00281865,0.000402964,0.777901,0.00176022,0.0180968,1805,617,25.0662,11.778
588,407,25.0482,-11.0444,0.00174945,0.00221334,0.00164898,0.00364661,0.000316177,0.855269,0.00233283,0.013265,1812,617,25.0482,11.0445
595,407,25.061,-10.2927,0.0021368,0.003041,0.00228388,0.0049171,0.000260702,0.883112,0.00319471,0.025159,1819,617,25.061,10.2927
602,407,25.0175,-9.51831,0.00277346,0.00415301,0.00310144,0.00664046,0.00028601,0.89482,0.00433478,0.020193,1826,617,25.0175,9.51833
609,407,24.9049,-8.7417,0.00373549,0.00559891,0.00416973,0.00893976,0.00039465,0.895316,0.00583274,0.018824,1833,617,24.9049,8.74173
616,407,24.9575,-7.8476,0.00502697,0.00761229,0.00550875,0.011978,0.000661243,0.900641,0.00777431,0.0333798,1840,617,24.9575,7.84757
623,407,25.2498,-6.82965,0,0,0,0,0,0,0,-1,1847,617,25.2498,6.82967
630,407,7.06177,0.814575,0,0,0,0,0,0,0,-1,1854,617,7.06178,-0.814579
637,407,9.76819,-0.110657,0,0,0,0,0,0,0,-1,1861,617,9.76814,0.11064
644,407,5.09766,2.27747,0,0,0,0,0,0,0,-1,1868,617,5.09764,-2.27746
651,407,7.37524,0.0513916,0,0,0,0,0,0,0,-1,1875,617,7.3752,-0.0513923
658,407,3.76685,0.594177,0,0,0,0,0,0,0,-1,1882,617,3.76683,-0.594184
665,407,5.76123,0.375061,0,0,0,0,0,0,0,-1,1889,617,5.76118,-0.37509
672,407,0,0,0,0,0,0,0,0,0,-1,1896,617,0,0
679,407,0,0,0,0,0,0,0,0,0,-1,1903,617,0,0
686,407,0,0,0,0,0,0,0,0,0,-1,1910,617,0,0
693,407,0,0,0,0,0,0,0,0,0,-1,1917,617,0,0
700,407,0,0,0,0,0,0,0,0,0,-1,1924,617,0,0
707,407,0,0,0,0,0,0,0,0,0,-1,1931,617,0,0
714,407,0,0,0,0,0,0,0,0,0,-1,1938,617,0,0
721,407,0,0,0,0,0,0,0,0,0,-1,1945,617,0,0
728,407,0,0,0,0,0,0,0,0,0,-1,1952,617,0,0
735,407,0,0,0,0,0,0,0,0,0,-1,1959,617,0,0
742,407,0,0,0,0,0,0,0,0,0,-1,1966,617,0,0
749,407,0,0,0,0,0,0,0,0,0,-1,1973,617,0,0
756,407,0,0,0,0,0,0,0,0,0,-1,1980,617,0,0
763,407,0,0,0,0,0,0,0,0,0,-1,1987,617,0,0
770,407,0,0,0,0,0,0,0,0,0,-1,1994,617,0,0
777,407,0,0,0,0,0,0,0,0,0,-1,2001,617,0,0
784,407,0,0,0,0,0,0,0,0,0,-1,2008,617,0,0
791,407,0,0,0,0,0,0,0,0,0,-1,2015,617,0,0
798,407,0,0,0,0,0,0,0,0,0,-1,2022,617,0,0
805,407,0,0,0,0,0,0,0,0,0,-1,2029,617,0,0
812,407,0,0,0,0,0,0,0,0,0,-1,2036,617,0,0
-700,400,0,0,0,0,0,0,0,0,0,-1,524,624,0,0
-693,400,0,0,0,0,0,0,0,0,0,-1,531,624,0,0
-686,400,0,0,0,0,0,0,0,0,0,-1,538,624,0,0
-679,400,0,0,0,0,0,0,0,0,0,-1,545,624,0,0
-672,400,0,0,0,0,0,0,0,0,0,-1,552,624,0,0
-665,400,0,0,0,0,0,0,0,0,0,-1,559,624,0,0
-658,400,0,0,0,0,0,0,0,0,0,-1,566,624,0,0
-651,400,0,0,0,0,0,0,0,0,0,-1,573,624,0,0
-644,400,0,0,0,0,0,0,0,0,0,-1,580,624,0,0
-637,400,0,0,0,0,0,0,0,0,0,-1,587,624,0,0
-630,400,0,0,0,0,0,0,0,0,0,-1,594,624,0,0
-623,400,0,0,0,0,0,0,0,0,0,-1,601,624,0,0
-616,400,0,0,0,0,0,0,0,0,0,-1,608,624,0,0
-609,400,0,0,0,0,0,0,0,0,0,-1,615,624,0,0
-602,400,0,0,0,0,0,0,0,0,0,-1,622,624,0,0
-595,400,0,0,0,0,0,0,0,0,0,-1,629,624,0,0
-588,400,0,0,0,0,0,0,0,0,0,-1,636,624,0,0
-581,400,0,0,0,0,0,0,0,0,0,-1,643,624,0,0
-574,400,0,0,0,0,0,0,0,0,0,-1,650,624,0,0
-567,400,0,0,0,0,0,0,0,0,0,-1,657,624,0,0
-560,400,0,0,0,0,0,0,0,0,0,-1,664,624,0,0
-553,400,0,0,0,0,0,0,0,0,0,-1,671,624,0,0
-546,400,-8.41174,-1.4599,0,0,0,0,0,0,0,-1,678,624,-8.41173,1.45989
-539,400,-5.69104,-1.7337,0,0,0,0,0,0,0,-1,685,624,-5.69103,1.7337
-532,400,-3.03632,-2.03912,0,0,0,0,0,0,0,-1,692,624,-3.03632,2.03909
-525,400,-6.20813,-7.04071,0,0,0,0,0,0,0,-1,699,624,-6.20814,7.04071
-518,400,-5.26544,-1.58661,0,0,0,0,0,0,0,-1,706,624,-5.26544,1.58658
-511,400,-10.6307,-6.7121,0,0,0,0,0,0,0,-1,713,624,-10.6307,6.71209
-504,400,-10.2663,-6.55109,0,0,0,0,0,0,0,-1,720,624,-10.2663,6.55106
-497,400,-13.2248,-8.34595,0,0,0,0,0,0,0,-1,727,624,-13.2248,8.34595
-490,400,-13.0029,-9.23688,-0.000396689,0.00331198,-0.000523532,0.00338447,-0.000469176,-1.43321,0.00242786,0.0389633,734,624,-13.0029,9.23685
-483,400,-13.0363,-10.0988,-0.00046493,0.00266337,-0.000471183,0.0027328,-0.000534358,-1.4245,0.00202364,0.0173016,741,624,-13.0363,10.0988
-476,400,-13.0665,-10.8159,-0.000358389,0.00214354,-0.000466051,0.00222754,-0.000442383,-1.39248,0.00165235,0.0144049,748,624,-13.0665,10.8159
-469,400,-13.1077,-11.5486,-1.8772e-05,0.0016434,-0.000524098,0.00179486,-0.000170225,-1.28948,0.00125716,0.015613,755,624,-13.1077,11.5486
-462,400,-13.1441,-12.3094,0.000371558,0.00115234,-0.000551028,0.00143725,8.6643e-05,-1.09359,0.000930633,0.0209033,762,624,-13.1441,12.3094
-455,400,-13.1747,-13.0504,0.0007349,0.000544302,-0.000494343,0.00114305,0.000136156,-0.690176,0.000720944,0.0213938,769,624,-13.1747,13.0504
-448,400,-13.179,-13.7888,0.00116287,-3.35776e-05,-0.00041685,0.00129378,-0.000164488,-0.304292,0.00092225,0.0161288,776,624,-13.179,13.7888
-441,400,-13.2242,-14.4346,0.00151269,-0.000702874,-0.000226927,0.00153569,-0.000725877,-0.101026,0.00133333,0.0153095,783,624,-13.2242,14.4347
-434,400,-13.2911,-15.1255,0.00180952,-0.00142156,2.69296e-05,0.00180974,-0.00142179,0.00833379,0.0018702,0.0128886,790,624,-13.2911,15.1255
-427,400,-13.3246,-15.8387,0.00201591,-0.00222101,0.000337219,0.00204258,-0.00224769,0.0789283,0.00247793,0.011347,797,624,-13.3247,15.8387
-420,400,-13.2705,-16.6044,0.00198142,-0.00326707,0.00089357,0.00212938,-0.00341503,0.164096,0.00322963,0.017909,804,624,-13.2705,16.6044
-413,400,-13.4034,-17.1934,0.00177395,-0.00440141,0.00159474,0.00216146,-0.00478892,0.238374,0.00410727,0.0450027,811,624,-13.4034,17.1933
-406,400,-13.5764,-17.7208,0,0,0,0,0,0,0,-1,818,624,-13.5764,17.7208
-399,400,-11.0176,-13.2944,0,0,0,0,0,0,0,-1,825,624,-11.0176,13.2944
-392,400,-4.92285,-6.63354,0,0,0,0,0,0,0,-1,832,624,-4.92285,6.63354
-385,400,-3.68738,-5.04205,0,0,0,0,0,0,0,-1,839,624,-3.68736,5.04207
-378,400,-6.84064,-1.28662,0,0,0,0,0,0,0,-1,846,624,-6.84062,1.28662
-371,400,-6.98865,-1.2572,0,0,0,0,0,0,0,-1,853,624,-6.98865,1.25721
-364,400,-6.97247,-1.24133,0,0,0,0,0,0,0,-1,860,624,-6.97249,1.24135
-357,400,-7.18329,-1.23218,0,0,0,0,0,0,0,-1,867,624,-7.18327,1.2322
-350,400,-7.40186,-1.19409,0,0,0,0,0,0,0,-1,874,624,-7.40187,1.19407
-343,400,-8.09357,-1.51147,0,0,0,0,0,0,0,-1,881,624,-8.09355,1.51148
-336,400,0,0,0,0,0,0,0,0,0,-1,888,624,0,0
-329,400,0,0,0,0,0,0,0,0,0,-1,895,624,0,0
-322,400,0,0,0,0,0,0,0,0,0,-1,902,624,0,0
-315,400,0,0,0,0,0,0,0,0,0,-1,909,624,0,0
-308,400,0,0,0,0,0,0,0,0,0,-1,916,624,0,0
-301,400,0,0,0,0,0,0,0,0,0,-1,923,624,0,0
-294,400,0,0,0,0,0,0,0,0,0,-1,930,624,0,0
-287,400,0,0,0,0,0,0,0,0,0,-1,937,624,0,0
-280,400,0,0,0,0,0,0,0,0,0,-1,944,624,0,0
-273,400,0,0,0,0,0,0,0,0,0,-1,951,624,0,0
-266,400,0,0,0,0,0,0,0,0,0,-1,958,624,0,0
-259,400,0,0,0,0,0,0,0,0,0,-1,965,624,0,0
-252,400,0,0,0,0,0,0,0,0,0,-1,972,624,0,0
-245,400,0,0,0,0,0,0,0,0,0,-1,979,624,0,0
-238,400,0,0,0,0,0,0,0,0,0,-1,986,624,0,0
-231,400,0,0,0,0,0,0,0,0,0,-1,993,624,0,0
-224,400,0,0,0,0,0,0,0,0,0,-1,1000,624,0,0
-217,400,0,0,0,0,0,0,0,0,0,-1,1007,624,0,0
-210,400,0,0,0,0,0,0,0,0,0,-1,1014,624,0,0
-203,400,0,0,0,0,0,0,0,0,0,-1,1021,624,0,0
-196,400,0,0,0,0,0,0,0,0,0,-1,1028,624,0,0
-189,400,0,0,0,0,0,0,0,0,0,-1,1035,624,0,0
-182,400,0,0,0,0,0,0,0,0,0,-1,1042,624,0,0
-175,400,0,0,0,0,0,0,0,0,0,-1,1049,624,0,0
-168,400,0,0,0,0,0,0,0,0,0,-1,1056,624,0,0
-161,400,0,0,0,0,0,0,0,0,0,-1,1063,624,0,0
-154,400,0,0,0,0,0,0,0,0,0,-1,1070,624,0,0
-147,400,0,0,0,0,0,0,0,0,0,-1,1077,624,0,0
-140,400,0,0,0,0,0,0,0,0,0,-1,1084,624,0,0
-133,400,0,0,0,0,0,0,0,0,0,-1,1091,624,0,0
-126,400,0,0,0,0,0,0,0,0,0,-1,1098,624,0,0
-119,400,0,0,0,0,0,0,0,0,0,-1,1105,624,0,0
-112,400,0,0,0,0,0,0,0,0,0,-1,1112,624,0,0
-105,400,0,0,0,0,0,0,0,0,0,-1,1119,624,0,0
-98,400,0,0,0,0,0,0,0,0,0,-1,1126,624,0,0
-91,400,0,0,0,0,0,0,0,0,0,-1,1133,624,0,0
-84,400,0,0,0,0,0,0,0,0,0,-1,1140,624,0,0
-77,400,0,0,0,0,0,0,0,0,0,-1,1147,624,0,0
-70,400,0,0,0,0,0,0,0,0,0,-1,1154,624,0,0
-63,400,0,0,0,0,0,0,0,0,0,-1,1161,624,0,0
-56,400,0,0,0,0,0,0,0,0,0,-1,1168,624,0,0
-49,400,0,0,0,0,0,0,0,0,0,-1,1175,624,0,0
-42,400,0,0,0,0,0,0,0,0,0,-1,1182,624,0,0
-35,400,0,0,0,0,0,0,0,0,0,-1,1189,624,0,0
-28,400,0,0,0,0,0,0,0,0,0,-1,1196,624,0,0
-21,400,0,0,0,0,0,0,0,0,0,-1,1203,624,0,0
-14,400,0,0,0,0,0,0,0,0,0,-1,1210,624,0,0
-7,400,0,0,0,0,0,0,0,0,0,-1,1217,624,0,0
0,400,0,0,0,0,0,0,0,0,0,-1,1224,624,0,0
7,400,0,0,0,0,0,0,0,0,0,-1,1231,624,0,0
14,400,0,0,0,0,0,0,0,0,0,-1,1238,624,0,0
21,400,0,0,0,0,0,0,0,0,0,-1,1245,624,0,0
28,400,0,0,0,0,0,0,0,0,0,-1,1252,624,0,0
35,400,0,0,0,0,0,0,0,0,0,-1,1259,624,0,0
42,400,0,0,0,0,0,0,0,0,0,-1,1266,624,0,0
49,400,0,0,0,0,0,0,0,0,0,-1,1273,624,0,0
56,400,0,0,0,0,0,0,0,0,0,-1,1280,624,0,0
63,400,0,0,0,0,0,0,0,0,0,-1,1287,624,0,0
70,400,0,0,0,0,0,0,0,0,0,-1,1294,624,0,0
77,400,0,0,0,0,0,0,0,0,0,-1,1301,624,0,0
84,400,0,0,0,0,0,0,0,0,0,-1,1308,624,0,0
91,400,0,0,0,0,0,0,0,0,0,-1,1315,624,0,0
98,400,0,0,0,0,0,0,0,0,0,-1,1322,624,0,0
105,400,0,0,0,0,0,0,0,0,0,-1,1329,624,0,0
112,400,0,0,0,0,0,0,0,0,0,-1,1336,624,0,0
119,400,0,0,0,0,0,0,0,0,0,-1,1343,624,0,0
126,400,0,0,0,0,0,0,0,0,0,-1,1350,624,0,0
133,400,0,0,0,0,0,0,0,0,0,-1,1357,624,0,0
140,400,0,0,0,0,0,0,0,0,0,-1,1364,624,0,0
147,400,0,0,0,0,0,0,0,0,0,-1,1371,624,0,0
154,400,0,0,0,0,0,0,0,0,0,-1,1378,624,0,0
161,400,0,0,0,0,0,0,0,0,0,-1,1385,624,0,0
168,400,0,0,0,0,0,0,0,0,0,-1,1392,624,0,0
175,400,0,0,0,0,0,0,0,0,0,-1,1399,624,0,0
182,400,0,0,0,0,0,0,0,0,0,-1,1406,624,0,0
189,400,0,0,0,0,0,0,0,0,0,-1,1413,624,0,0
196,400,0,0,0,0,0,0,0,0,0,-1,1420,624,0,0
203,400,0,0,0,0,0,0,0,0,0,-1,1427,624,0,0
210,400,0,0,0,0,0,0,0,0,0,-1,1434,624,0,0
217,400,0,0,0,0,0,0,0,0,0,-1,1441,624,0,0
224,400,0,0,0,0,0,0,0,0,0,-1,1448,624,0,0
231,400,0,0,0,0,0,0,0,0,0,-1,1455,624,0,0
238,400,0,0,0,0,0,0,0,0,0,-1,1462,624,0,0
245,400,0,0,0,0,0,0,0,0,0,-1,1469,624,0,0
252,400,0,0,0,0,0,0,0,0,0,-1,1476,624,0,0
259,400,0,0,0,0,0,0,0,0,0,-1,1483,624,0,0
266,400,0,0,0,0,0,0,0,0,0,-1,1490,624,0,0
273,400,0,0,0,0,0,0,0,0,0,-1,1497,624,0,0
280,400,0,0,0,0,0,0,0,0,0,-1,1504,624,0,0
287,400,0,0,0,0,0,0,0,0,0,-1,1511,624,0,0
294,400,0,0,0,0,0,0,0,0,0,-1,1518,624,0,0
301,400,0,0,0,0,0,0,0,0,0,-1,1525,624,0,0
308,400,0,0,0,0,0,0,0,0,0,-1,1532,624,0,0
315,400,0,0,0,0,0,0,0,0,0,-1,1539,624,0,0
322,400,0,0,0,0,0,0,0,0,0,-1,1546,624,0,0
329,400,0,0,0,0,0,0,0,0,0,-1,1553,624,0,0
336,400,0,0,0,0,0,0,0,0,0,-1,1560,624,0,0
343,400,0,0,0,0,0,0,0,0,0,-1,1567,624,0,0
350,400,0,0,0,0,0,0,0,0,0,-1,1574,624,0,0
357,400,0,0,0,0,0,0,0,0,0,-1,1581,624,0,0
364,400,0,0,0,0,0,0,0,0,0,-1,1588,624,0,0
371,400,0,0,0,0,0,0,0,0,0,-1,1595,624,0,0
378,400,0,0,0,0,0,0,0,0,0,-1,1602,624,0,0
385,400,0,0,0,0,0,0,0,0,0,-1,1609,624,0,0
392,400,0,0,0,0,0,0,0,0,0,-1,1616,624,0,0
399,400,0,0,0,0,0,0,0,0,0,-1,1623,624,0,0
406,400,0,0,0,0,0,0,0,0,0,-1,1630,624,0,0
413,400,0,0,0,0,0,0,0,0,0,-1,1637,624,0,0
420,400,0,0,0,0,0,0,0,0,0,-1,1644,624,0,0
427,400,0,0,0,0,0,0,0,0,0,-1,1651,624,0,0
434,400,0,0,0,0,0,0,0,0,0,-1,1658,624,0,0
441,400,0,0,0,0,0,0,0,0,0,-1,1665,624,0,0
448,400,0,0,0,0,0,0,0,0,0,-1,1672,624,0,0
455,400,8.91309,2.75885,0,0,0,0,0,0,0,-1,1679,624,8.91312,-2.75885
462,400,8.90356,2.37878,0,0,0,0,0,0,0,-1,1686,624,8.90353,-2.37878
469,400,9.14429,1.76849,0,0,0,0,0,0,0,-1,1693,624,9.14432,-1.76847
476,400,9.23254,1.25995,0,0,0,0,0,0,0,-1,1700,624,9.23252,-1.25994
483,400,9.59766,0.562439,0,0,0,0,0,0,0,-1,1707,624,9.59771,-0.56242
490,400,9.92578,-0.213745,0,0,0,0,0,0,0,-1,1714,624,9.92579,0.21376
497,400,9.19141,0.175232,0,0,0,0,0,0,0,-1,1721,624,9.19138,-0.175209
504,400,9.23438,0.00823975,0,0,0,0,0,0,0,-1,1728,624,9.23436,-0.00823766
511,400,6.16687,3.3501,0,0,0,0,0,0,0,-1,1735,624,6.16682,-3.35007
518,400,6.55237,1.74994,0,0,0,0,0,0,0,-1,1742,624,6.55236,-1.74993
525,400,6.99731,1.08783,0,0,0,0,0,0,0,-1,1749,624,6.99736,-1.08785
532,400,6.96582,-1.74982,0,0,0,0,0,0,0,-1,1756,624,6.96585,1.74983
539,400,21.2305,-10.5841,0,0,0,0,0,0,0,-1,1763,624,21.2304,10.5841
546,400,26.0116,-15.4611,0,0,0,0,0,0,0,-1,1770,624,26.0115,15.4611
553,400,25.87,-14.756,0.00322107,0.00152281,0.00106289,0.00373237,0.00101151,0.448367,0.00222894,0.0423577,1777,624,25.8699,14.756
560,400,25.9258,-13.9515,0.00253212,0.00118945,0.00075492,0.00287103,0.000850542,0.421968,0.00170285,0.0165688,1784,624,25.9257,13.9515
567,400,25.9248,-13.2355,0.00198138,0.000946984,0.000585041,0.00224506,0.000683306,0.423435,0.00132885,0.0186949,1791,624,25.9248,13.2355
574,400,25.8854,-12.521,0.00169091,0.00098984,0.000650604,0.0020794,0.000601348,0.538302,0.0012356,0.0204741,1798,624,25.8854,12.521
581,400,25.8065,-11.7547,0.00154249,0.00121933,0.000851161,0.00224727,0.000514548,0.691595,0.00135952,0.0209894,1805,624,25.8065,11.7547
588,400,25.745,-10.9506,0.0016,0.00172637,0.00124009,0.00290489,0.000421486,0.810852,0.00181251,0.0171622,1812,624,25.745,10.9506
595,400,25.7673,-10.2382,0.00194955,0.00244023,0.00183387,0.0040451,0.00034468,0.851895,0.0025895,0.0163828,1819,624,25.7673,10.2382
602,400,25.7548,-9.50146,0.00255055,0.00340855,0.00262498,0.00563936,0.00031975,0.866397,0.00365765,0.0155171,1826,624,25.7548,9.50144
609,400,25.6506,-8.73022,0.00339153,0.00462411,0.00358773,0.00764811,0.000367542,0.870456,0.00498075,0.0144141,1833,624,25.6507,8.73025
616,400,25.6039,-7.96417,0.00454942,0.00627526,0.00480357,0.0102928,0.000531882,0.874271,0.00669162,0.0182607,1840,624,25.6038,7.9642
623,400,25.6553,-7.17493,0,0,0,0,0,0,0,-1,1847,624,25.6552,7.17491
630,400,11.9432,0.09021,0,0,0,0,0,0,0,-1,1854,624,11.9432,-0.0902007
637,400,6.92896,1.01917,0,0,0,0,0,0,0,-1,1861,624,6.92899,-1.01918
644,400,8.65381,1.4599,0,0,0,0,0,0,0,-1,1868,624,8.65379,-1.45991
651,400,7.90601,0.424072,0,0,0,0,0,0,0,-1,1875,624,7.90598,-0.424097
658,400,8.69031,1.0484,0,0,0,0,0,0,0,-1,1882,624,8.6903,-1.0484
665,400,5.98438,0.522522,0,0,0,0,0,0,0,-1,1889,624,5.98442,-0.522552
672,400,0,0,0,0,0,0,0,0,0,-1,1896,624,0,0
679,400,0,0,0,0,0,0,0,0,0,-1,1903,624,0,0
686,400,0,0,0,0,0,0,0,0,0,-1,1910,624,0,0
693,400,0,0,0,0,0,0,0,0,0,-1,1917,624,0,0
700,400,0,0,0,0,0,0,0,0,0,-1,1924,624,0,0
707,400,0,0,0,0,0,0,0,0,0,-1,1931,624,0,0
714,400,0,0,0,0,0,0,0,0,0,-1,1938,624,0,0
721,400,0,0,0,0,0,0,0,0,0,-1,1945,624,0,0
728,400,0,0,0,0,0,0,0,0,0,-1,1952,624,0,0
735,400,0,0,0,0,0,0,0,0,0,-1,1959,624,0,0
742,400,0,0,0,0,0,0,0,0,0,-1,1966,624,0,0
749,400,0,0,0,0,0,0,0,0,0,-1,1973,624,0,0
756,400,0,0,0,0,0,0,0,0,0,-1,1980,624,0,0
763,400,0,0,0,0,0,0,0,0,0,-1,1987,624,0,0
770,400,0,0,0,0,0,0,0,0,0,-1,1994,624,0,0
777,400,0,0,0,0,0,0,0,0,0,-1,2001,624,0,0
784,400,0,0,0,0,0,0,0,0,0,-1,2008,624,0,0
791,400,0,0,0,0,0,0,0,0,0,-1,2015,624,0,0
798,400,0,0,0,0,0,0,0,0,0,-1,2022,624,0,0
805,400,0,0,0,0,0,0,0,0,0,-1,2029,624,0,0
812,400,0,0,0,0,0,0,0,0,0,-1,2036,624,0,0
-700,393,0,0,0,0,0,0,0,0,0,-1,524,631,0,0
-693,393,0,0,0,0,0,0,0,0,0,-1,531,631,0,0
-686,393,0,0,0,0,0,0,0,0,0,-1,538,631,0,0
-679,393,0,0,0,0,0,0,0,0,0,-1,545,631,0,0
-672,393,0,0,0,0,0,0,0,0,0,-1,552,631,0,0
-665,393,0,0,0,0,0,0,0,0,0,-1,559,631,0,0
-658,393,0,0,0,0,0,0,0,0,0,-1,566,631,0,0
-651,393,0,0,0,0,0,0,0,0,0,-1,573,631,0,0
-644,393,0,0,0,0,0,0,0,0,0,-1,580,631,0,0
-637,393,0,0,0,0,0,0,0,0,0,-1,587,631,0,0
-630,393,0,0,0,0,0,0,0,0,0,-1,594,631,0,0
-623,393,0,0,0,0,0,0,0,0,0,-1,601,631,0,0
-616,393,0,0,0,0,0,0,0,0,0,-1,608,631,0,0
-609,393,0,0,0,0,0,0,0,0,0,-1,615,631,0,0
-602,393,0,0,0,0,0,0,0,0,0,-1,622,631,0,0
-595,393,0,0,0,0,0,0,0,0,0,-1,629,631,0,0
-588,393,0,0,0,0,0,0,0,0,0,-1,636,631,0,0
-581,393,0,0,0,0,0,0,0,0,0,-1,643,631,0,0
-574,393,0,0,0,0,0,0,0,0,0,-1,650,631,0,0
-567,393,0,0,0,0,0,0,0,0,0,-1,657,631,0,0
-560,393,0,0,0,0,0,0,0,0,0,-1,664,631,0,0
-553,393,-2.35107,3.92633,0,0,0,0,0,0,0,-1,671,631,-2.35108,-3.92634
-546,393,-1.78778,2.4856,0,0,0,0,0,0,0,-1,678,631,-1.78778,-2.48557
-539,393,-5.2113,-2.20245,0,0,0,0,0,0,0,-1,685,631,-5.21128,2.20247
-532,393,-2.83643,-2.01624,0,0,0,0,0,0,0,-1,692,631,-2.83642,2.01626
-525,393,-5.9505,-0.952698,0,0,0,0,0,0,0,-1,699,631,-5.95053,0.95268
-518,393,-5.80219,-1.57739,0,0,0,0,0,0,0,-1,706,631,-5.80219,1.57738
-511,393,-6.15527,-2.09906,0,0,0,0,0,0,0,-1,713,631,-6.15526,2.09903
-504,393,-13.6063,-6.95947,0,0,0,0,0,0,0,-1,720,631,-13.6063,6.95946
-497,393,-13.8032,-8.4444,0,0,0,0,0,0,0,-1,727,631,-13.8032,8.44437
-490,393,-13.7463,-9.29926,0.000307847,0.00238572,-0.000633004,0.00256337,0.000130196,-1.29719,0.00166721,0.0230652,734,631,-13.7463,9.29926
-483,393,-13.7634,-10.0971,0.000175705,0.00192137,-0.000562906,0.00208714,9.93267e-06,-1.2844,0.00138813,0.0195076,741,631,-13.7633,10.0971
-476,393,-13.7864,-10.7954,0.000243721,0.00153217,-0.000553854,0.00173752,3.83688e-05,-1.21574,0.00114577,0.0175199,748,631,-13.7864,10.7954
-469,393,-13.8193,-11.5215,0.000517032,0.00116003,-0.000606873,0.0015253,0.000151759,-1.02899,0.000970247,0.0135957,755,631,-13.8193,11.5215
-462,393,-13.8568,-12.2953,0.000823134,0.000762678,-0.000621043,0.00141468,0.000171128,-0.761081,0.000891572,0.0148877,762,631,-13.8568,12.2953
-455,393,-13.8972,-13.0276,0.00115005,0.000206623,-0.00057902,0.00142518,-6.85099e-05,-0.443586,0.00097376,0.0146679,769,631,-13.8971,13.0276
-448,393,-13.9459,-13.7471,0.00157498,-0.000289052,-0.000544662,0.00172246,-0.000436531,-0.264432,0.00131813,0.0140156,776,631,-13.9459,13.7472
-441,393,-13.985,-14.4193,0.00194477,-0.000889254,-0.000419324,0.00200552,-0.000949995,-0.143855,0.00174226,0.0127735,783,631,-13.985,14.4193
-434,393,-14.0065,-15.0862,0.00227666,-0.00154598,-0.000240972,0.00229179,-0.00156111,-0.0627074,0.00223776,0.013082,790,631,-14.0065,15.0862
-427,393,-13.9701,-15.8226,0.00248355,-0.00236864,4.40004e-05,0.00248395,-0.00236904,0.00906716,0.00280213,0.0214975,797,631,-13.9701,15.8227
-420,393,-13.8921,-16.6438,0,0,0,0,0,0,0,-1,804,631,-13.8921,16.6438
-413,393,-14.2466,-17.2397,0,0,0,0,0,0,0,-1,811,631,-14.2466,17.2397
-406,393,-11.826,-12.7987,0,0,0,0,0,0,0,-1,818,631,-11.8261,12.7987
-399,393,-5.07343,-5.92365,0,0,0,0,0,0,0,-1,825,631,-5.07344,5.92364
-392,393,-2.08063,-3.02386,0,0,0,0,0,0,0,-1,832,631,-2.08063,3.02384
-385,393,-3.16931,-0.624756,0,0,0,0,0,0,0,-1,839,631,-3.16928,0.624764
-378,393,-7.33081,-0.872314,0,0,0,0,0,0,0,-1,846,631,-7.33081,0.872325
-371,393,-7.47858,-0.811096,0,0,0,0,0,0,0,-1,853,631,-7.47859,0.811075
-364,393,-7.64917,-0.662415,0,0,0,0,0,0,0,-1,860,631,-7.64917,0.662406
-357,393,-8.09686,-0.726013,0,0,0,0,0,0,0,-1,867,631,-8.09689,0.726029
-350,393,-8.38788,-0.511841,0,0,0,0,0,0,0,-1,874,631,-8.38785,0.511811
-343,393,0,0,0,0,0,0,0,0,0,-1,881,631,0,0
-336,393,0,0,0,0,0,0,0,0,0,-1,888,631,0,0
-329,393,0,0,0,0,0,0,0,0,0,-1,895,631,0,0
-322,393,0,0,0,0,0,0,0,0,0,-1,902,631,0,0
-315,393,0,0,0,0,0,0,0,0,0,-1,909,631,0,0
-308,393,0,0,0,0,0,0,0,0,0,-1,916,631,0,0
-301,393,0,0,0,0,0,0,0,0,0,-1,923,631,0,0
-294,393,0,0,0,0,0,0,0,0,0,-1,930,631,0,0
-287,393,0,0,0,0,0,0,0,0,0,-1,937,631,0,0
-280,393,0,0,0,0,0,0,0,0,0,-1,944,631,0,0
-273,393,0,0,0,0,0,0,0,0,0,-1,951,631,0,0
-266,393,0,0,0,0,0,0,0,0,0,-1,958,631,0,0
-259,393,0,0,0,0,0,0,0,0,0,-1,965,631,0,0
-252,393,0,0,0,0,0,0,0,0,0,-1,972,631,0,0
-245,393,0,0,0,0,0,0,0,0,0,-1,979,631,0,0
-238,393,0,0,0,0,0,0,0,0,0,-1,986,631,0,0
-231,393,0,0,0,0,0,0,0,0,0,-1,993,631,0,0
-224,393,0,0,0,0,0,0,0,0,0,-1,1000,631,0,0
-217,393,0,0,0,0,0,0,0,0,0,-1,1007,631,0,0
-210,393,0,0,0,0,0,0,0,0,0,-1,1014,631,0,0
-203,393,0,0,0,0,0,0,0,0,0,-1,1021,631,0,0
-196,393,0,0,0,0,0,0,0,0,0,-1,1028,631,0,0
-189,393,0,0,0,0,0,0,0,0,0,-1,1035,631,0,0
-182,393,0,0,0,0,0,0,0,0,0,-1,1042,631,0,0
-175,393,0,0,0,0,0,0,0,0,0,-1,1049,631,0,0
-168,393,0,0,0,0,0,0,0,0,0,-1,1056,631,0,0
-161,393,0,0,0,0,0,0,0,0,0,-1,1063,631,0,0
-154,393,0,0,0,0,0,0,0,0,0,-1,1070,631,0,0
-147,393,0,0,0,0,0,0,0,0,0,-1,1077,631,0,0
-140,393,0,0,0,0,0,0,0,0,0,-1,1084,631,0,0
-133,393,0,0,0,0,0,0,0,0,0,-1,1091,631,0,0
-126,393,0,0,0,0,0,0,0,0,0,-1,1098,631,0,0
-119,393,0,0,0,0,0,0,0,0,0,-1,1105,631,0,0
-112,393,0,0,0,0,0,0,0,0,0,-1,1112,631,0,0
-105,393,0,0,0,0,0,0,0,0,0,-1,1119,631,0,0
-98,393,0,0,0,0,0,0,0,0,0,-1,1126,631,0,0
-91,393,0,0,0,0,0,0,0,0,0,-1,1133,631,0,0
-84,393,0,0,0,0,0,0,0,0,0,-1,1140,631,0,0
-77,393,0,0,0,0,0,0,0,0,0,-1,1147,631,0,0
-70,393,0,0,0,0,0,0,0,0,0,-1,1154,631,0,0
-63,393,0,0,0,0,0,0,0,0,0,-1,1161,631,0,0
-56,393,0,0,0,0,0,0,0,0,0,-1,1168,631,0,0
-49,393,0,0,0,0,0,0,0,0,0,-1,1175,631,0,0
-42,393,0,0,0,0,0,0,0,0,0,-1,1182,631,0,0
-35,393,0,0,0,0,0,0,0,0,0,-1,1189,631,0,0
-28,393,0,0,0,0,0,0,0,0,0,-1,1196,631,0,0
-21,393,0,0,0,0,0,0,0,0,0,-1,1203,631,0,0
-14,393,0,0,0,0,0,0,0,0,0,-1,1210,631,0,0
-7,393,0,0,0,0,0,0,0,0,0,-1,1217,631,0,0
0,393,0,0,0,0,0,0,0,0,0,-1,1224,631,0,0
7,393,0,0,0,0,0,0,0,0,0,-1,1231,631,0,0
14,393,0,0,0,0,0,0,0,0,0,-1,1238,631,0,0
21,393,0,0,0,0,0,0,0,0,0,-1,1245,631,0,0
28,393,0,0,0,0,0,0,0,0,0,-1,1252,631,0,0
35,393,0,0,0,0,0,0,0,0,0,-1,1259,631,0,0
42,393,0,0,0,0,0,0,0,0,0,-1,1266,631,0,0
49,393,0,0,0,0,0,0,0,0,0,-1,1273,631,0,0
56,393,0,0,0,0,0,0,0,0,0,-1,1280,631,0,0
63,393,0,0,0,0,0,0,0,0,0,-1,1287,631,0,0
70,393,0,0,0,0,0,0,0,0,0,-1,1294,631,0,0
77,393,0,0,0,0,0,0,0,0,0,-1,1301,631,0,0
84,393,0,0,0,0,0,0,0,0,0,-1,1308,631,0,0
91,393,0,0,0,0,0,0,0,0,0,-1,1315,631,0,0
98,393,0,0,0,0,0,0,0,0,0,-1,1322,631,0,0
105,393,0,0,0,0,0,0,0,0,0,-1,1329,631,0,0
112,393,0,0,0,0,0,0,0,0,0,-1,1336,631,0,0
119,393,0,0,0,0,0,0,0,0,0,-1,1343,631,0,0
126,393,0,0,0,0,0,0,0,0,0,-1,1350,631,0,0
133,393,0,0,0,0,0,0,0,0,0,-1,1357,631,0,0
140,393,0,0,0,0,0,0,0,0,0,-1,1364,631,0,0
147,393,0,0,0,0,0,0,0,0,0,-1,1371,631,0,0
154,393,0,0,0,0,0,0,0,0,0,-1,1378,631,0,0
161,393,0,0,0,0,0,0,0,0,0,-1,1385,631,0,0
168,393,0,0,0,0,0,0,0,0,0,-1,1392,631,0,0
175,393,0,0,0,0,0,0,0,0,0,-1,1399,631,0,0
182,393,0,0,0,0,0,0,0,0,0,-1,1406,631,0,0
189,393,0,0,0,0,0,0,0,0,0,-1,1413,631,0,0
196,393,0,0,0,0,0,0,0,0,0,-1,1420,631,0,0
203,393,0,0,0,0,0,0,0,0,0,-1,1427,631,0,0
210,393,0,0,0,0,0,0,0,0,0,-1,1434,631,0,0
217,393,0,0,0,0,0,0,0,0,0,-1,1441,631,0,0
224,393,0,0,0,0,0,0,0,0,0,-1,1448,631,0,0
231,393,0,0,0,0,0,0,0,0,0,-1,1455,631,0,0
238,393,0,0,0,0,0,0,0,0,0,-1,1462,631,0,0
245,393,0,0,0,0,0,0,0,0,0,-1,1469,631,0,0
252,393,0,0,0,0,0,0,0,0,0,-1,1476,631,0,0
259,393,0,0,0,0,0,0,0,0,0,-1,1483,631,0,0
266,393,0,0,0,0,0,0,0,0,0,-1,1490,631,0,0
273,393,0,0,0,0,0,0,0,0,0,-1,1497,631,0,0
280,393,0,0,0,0,0,0,0,0,0,-1,1504,631,0,0
287,393,0,0,0,0,0,0,0,0,0,-1,1511,631,0,0
294,393,0,0,0,0,0,0,0,0,0,-1,1518,631,0,0
301,393,0,0,0,0,0,0,0,0,0,-1,1525,631,0,0
308,393,0,0,0,0,0,0,0,0,0,-1,1532,631,0,0
315,393,0,0,0,0,0,0,0,0,0,-1,1539,631,0,0
322,393,0,0,0,0,0,0,0,0,0,-1,1546,631,0,0
329,393,0,0,0,0,0,0,0,0,0,-1,1553,631,0,0
336,393,0,0,0,0,0,0,0,0,0,-1,1560,631,0,0
343,393,0,0,0,0,0,0,0,0,0,-1,1567,631,0,0
350,393,0,0,0,0,0,0,0,0,0,-1,1574,631,0,0
357,393,0,0,0,0,0,0,0,0,0,-1,1581,631,0,0
364,393,0,0,0,0,0,0,0,0,0,-1,1588,631,0,0
371,393,0,0,0,0,0,0,0,0,0,-1,1595,631,0,0
378,393,0,0,0,0,0,0,0,0,0,-1,1602,631,0,0
385,393,0,0,0,0,0,0,0,0,0,-1,1609,631,0,0
392,393,0,0,0,0,0,0,0,0,0,-1,1616,631,0,0
399,393,0,0,0,0,0,0,0,0,0,-1,1623,631,0,0
406,393,0,0,0,0,0,0,0,0,0,-1,1630,631,0,0
413,393,0,0,0,0,0,0,0,0,0,-1,1637,631,0,0
420,393,0,0,0,0,0,0,0,0,0,-1,1644,631,0,0
427,393,0,0,0,0,0,0,0,0,0,-1,1651,631,0,0
434,393,0,0,0,0,0,0,0,0,0,-1,1658,631,0,0
441,393,0,0,0,0,0,0,0,0,0,-1,1665,631,0,0
448,393,0,0,0,0,0,0,0,0,0,-1,1672,631,0,0
455,393,0,0,0,0,0,0,0,0,0,-1,1679,631,0,0
462,393,8.51099,1.89502,0,0,0,0,0,0,0,-1,1686,631,8.51103,-1.89504
469,393,9.39465,1.51703,0,0,0,0,0,0,0,-1,1693,631,9.39465,-1.51703
476,393,9.95569,1.185,0,0,0,0,0,0,0,-1,1700,631,9.95575,-1.18497
483,393,10.5267,0.887329,0,0,0,0,0,0,0,-1,1707,631,10.5267,-0.887321
490,393,10.9303,0.761414,0,0,0,0,0,0,0,-1,1714,631,10.9303,-0.761386
497,393,8.32153,1.88104,0,0,0,0,0,0,0,-1,1721,631,8.32148,-1.88103
504,393,9.46985,1.78711,0,0,0,0,0,0,0,-1,1728,631,9.46986,-1.78713
511,393,9.66565,-0.375977,0,0,0,0,0,0,0,-1,1735,631,9.66571,0.375949
518,393,7.01599,1.62482,0,0,0,0,0,0,0,-1,1742,631,7.01597,-1.62483
525,393,7.88245,-1.13422,0,0,0,0,0,0,0,-1,1749,631,7.88246,1.13423
532,393,7.06335,-1.18103,0,0,0,0,0,0,0,-1,1756,631,7.06332,1.18101
539,393,9.91626,-2.46301,0,0,0,0,0,0,0,-1,1763,631,9.91625,2.46302
546,393,16.4094,-8.04651,0,0,0,0,0,0,0,-1,1770,631,16.4094,8.04649
553,393,26.4653,-14.7885,0,0,0,0,0,0,0,-1,1777,631,26.4654,14.7885
560,393,26.7007,-14.0321,0.00266291,0.00133469,0.000594198,0.00288993,0.00110767,0.364948,0.00168358,0.0470398,1784,631,26.7007,14.0321
567,393,26.6377,-13.2028,0.00195551,0.000846091,0.000303138,0.00203294,0.000768665,0.250068,0.00118529,0.0162294,1791,631,26.6377,13.2028
574,393,26.6638,-12.4951,0.00154696,0.000728766,0.000301264,0.00164592,0.000629807,0.317374,0.000958957,0.0158198,1798,631,26.6639,12.4951
581,393,26.5593,-11.689,0.0013084,0.000865537,0.000446107,0.00158501,0.000588929,0.555032,0.000925113,0.0173494,1805,631,26.5593,11.689
588,393,26.4949,-10.8755,0.00132257,0.00126554,0.00078651,0.00208108,0.000507027,0.767276,0.00125305,0.0191777,1812,631,26.4948,10.8755
595,393,26.4993,-10.1901,0.00166032,0.00188307,0.00133485,0.00311119,0.000432202,0.827021,0.00194612,0.0162818,1819,631,26.4992,10.1901
602,393,26.4772,-9.46588,0.00226364,0.00273293,0.00208454,0.00459599,0.000400586,0.841444,0.00293957,0.0177586,1826,631,26.4772,9.46589
609,393,26.4215,-8.71991,0.00304968,0.00378302,0.00294726,0.00638633,0.000446372,0.847285,0.00411683,0.0157968,1833,631,26.4216,8.7199
616,393,26.3718,-7.95557,0.00409047,0.00515928,0.00399482,0.00865528,0.000594466,0.851891,0.00558259,0.0151411,1840,631,26.3719,7.95554
623,393,26.3892,-7.07416,0.00542296,0.00668513,0.00524777,0.0113396,0.000768462,0.845239,0.00731706,0.0340622,1847,631,26.3892,7.07415
630,393,26.4614,-6.08844,0,0,0,0,0,0,0,-1,1854,631,26.4614,6.08842
637,393,11.4626,0.608887,0,0,0,0,0,0,0,-1,1861,631,11.4627,-0.608904
644,393,8.97583,1.30585,0,0,0,0,0,0,0,-1,1868,631,8.97586,-1.30584
651,393,11.348,0.53302,0,0,0,0,0,0,0,-1,1875,631,11.348,-0.53305
658,393,9.21338,1.50836,0,0,0,0,0,0,0,-1,1882,631,9.21338,-1.50834
665,393,6.1001,2.32129,0,0,0,0,0,0,0,-1,1889,631,6.10012,-2.3213
672,393,7.14575,2.43225,0,0,0,0,0,0,0,-1,1896,631,7.14572,-2.43222
679,393,0,0,0,0,0,0,0,0,0,-1,1903,631,0,0
686,393,0,0,0,0,0,0,0,0,0,-1,1910,631,0,0
693,393,0,0,0,0,0,0,0,0,0,-1,1917,631,0,0
700,393,0,0,0,0,0,0,0,0,0,-1,1924,631,0,0
707,393,0,0,0,0,0,0,0,0,0,-1,1931,631,0,0
714,393,0,0,0,0,0,0,0,0,0,-1,1938,631,0,0
721,393,0,0,0,0,0,0,0,0,0,-1,1945,631,0,0
728,393,0,0,0,0,0,0,0,0,0,-1,1952,631,0,0
735,393,0,0,0,0,0,0,0,0,0,-1,1959,631,0,0
742,393,0,0,0,0,0,0,0,0,0,-1,1966,631,0,0
749,393,0,0,0,0,0,0,0,0,0,-1,1973,631,0,0
756,393,0,0,0,0,0,0,0,0,0,-1,1980,631,0,0
763,393,0,0,0,0,0,0,0,0,0,-1,1987,631,0,0
770,393,0,0,0,0,0,0,0,0,0,-1,1994,631,0,0
777,393,0,0,0,0,0,0,0,0,0,-1,2001,631,0,0
784,393,0,0,0,0,0,0,0,0,0,-1,2008,631,0,0
791,393,0,0,0,0,0,0,0,0,0,-1,2015,631,0,0
798,393,0,0,0,0,0,0,0,0,0,-1,2022,631,0,0
805,393,0,0,0,0,0,0,0,0,0,-1,2029,631,0,0
812,393,0,0,0,0,0,0,0,0,0,-1,2036,631,0,0
-700,386,0,0,0,0,0,0,0,0,0,-1,524,638,0,0
-693,386,0,0,0,0,0,0,0,0,0,-1,531,638,0,0
-686,386,0,0,0,0,0,0,0,0,0,-1,538,638,0,0
-679,386,0,0,0,0,0,0,0,0,0,-1,545,638,0,0
-672,386,0,0,0,0,0,0,0,0,0,-1,552,638,0,0
-665,386,0,0,0,0,0,0,0,0,0,-1,559,638,0,0
-658,386,0,0,0,0,0,0,0,0,0,-1,566,638,0,0
-651,386,0,0,0,0,0,0,0,0,0,-1,573,638,0,0
-644,386,0,0,0,0,0,0,0,0,0,-1,580,638,0,0
-637,386,0,0,0,0,0,0,0,0,0,-1,587,638,0,0
-630,386,0,0,0,0,0,0,0,0,0,-1,594,638,0,0
-623,386,0,0,0,0,0,0,0,0,0,-1,601,638,0,0
-616,386,0,0,0,0,0,0,0,0,0,-1,608,638,0,0
-609,386,0,0,0,0,0,0,0,0,0,-1,615,638,0,0
-602,386,0,0,0,0,0,0,0,0,0,-1,622,638,0,0
-595,386,0,0,0,0,0,0,0,0,0,-1,629,638,0,0
-588,386,0,0,0,0,0,0,0,0,0,-1,636,638,0,0
-581,386,0,0,0,0,0,0,0,0,0,-1,643,638,0,0
-574,386,0,0,0,0,0,0,0,0,0,-1,650,638,0,0
-567,386,0,0,0,0,0,0,0,0,0,-1,657,638,0,0
-560,386,-3.97229,-5.13898,0,0,0,0,0,0,0,-1,664,638,-3.97232,5.13897
-553,386,-4.94244,-5.54309,0,0,0,0,0,0,0,-1,671,638,-4.94242,5.5431
-546,386,-1.78668,1.72827,0,0,0,0,0,0,0,-1,678,638,-1.78668,-1.72829
-539,386,-0.879456,-2.90009,0,0,0,0,0,0,0,-1,685,638,-0.879442,2.90008
-532,386,-5.4884,1.73328,0,0,0,0,0,0,0,-1,692,638,-5.4884,-1.73325
-525,386,-6.64148,-1.50604,0,0,0,0,0,0,0,-1,699,638,-6.64149,1.50603
-518,386,-11.1217,-4.10382,0,0,0,0,0,0,0,-1,706,638,-11.1217,4.1038
-511,386,-13.0612,-5.05151,0,0,0,0,0,0,0,-1,713,638,-13.0612,5.05149
-504,386,-14.5128,-7.65314,0,0,0,0,0,0,0,-1,720,638,-14.5128,7.65316
-497,386,-14.4967,-8.51447,0.00120115,0.00202402,-0.000838469,0.00254656,0.000678612,-1.01349,0.00152277,0.0231155,727,638,-14.4967,8.51446
-490,386,-14.4469,-9.34583,0.000892029,0.00170574,-0.000732617,0.00213689,0.000460874,-1.03887,0.00129852,0.0130527,734,638,-14.4469,9.3458
-483,386,-14.4654,-10.1208,0.000734297,0.0013784,-0.000679256,0.00180809,0.000304615,-1.00677,0.00111778,0.0168541,741,638,-14.4654,10.1208
-476,386,-14.5016,-10.8364,0.000788994,0.00109684,-0.000696571,0.00165629,0.000229542,-0.894137,0.00103619,0.0160317,748,638,-14.5016,10.8364
-469,386,-14.5571,-11.5025,0.00101895,0.000836896,-0.000767726,0.00170103,0.000154821,-0.726389,0.0010861,0.0124493,755,638,-14.5571,11.5025
-462,386,-14.5886,-12.2424,0.00127258,0.000536809,-0.000793923,0.00177971,2.96787e-05,-0.568436,0.00117671,0.011782,762,638,-14.5886,12.2424
-455,386,-14.603,-12.9885,0.00158258,4.74956e-05,-0.000777644,0.00190768,-0.000277597,-0.395967,0.0013737,0.0134277,769,638,-14.603,12.9885
-448,386,-14.652,-13.7016,0.00200832,-0.00036249,-0.000782551,0.00224333,-0.000597497,-0.291741,0.00172947,0.0132422,776,638,-14.6521,13.7016
-441,386,-14.6982,-14.3935,0.00241469,-0.000866759,-0.000731026,0.00257017,-0.00102225,-0.209574,0.0021373,0.013418,783,638,-14.6982,14.3935
-434,386,-14.6845,-15.1292,0.00279601,-0.00142514,-0.000638439,0.00289046,-0.00151959,-0.146872,0.00258683,0.0323142,790,638,-14.6845,15.1292
-427,386,-14.5884,-15.9533,0,0,0,0,0,0,0,-1,797,638,-14.5884,15.9533
-420,386,-14.5338,-16.0451,0,0,0,0,0,0,0,-1,804,638,-14.5338,16.0451
-413,386,-5.45691,-5.35785,0,0,0,0,0,0,0,-1,811,638,-5.45691,5.35783
-406,386,-4.51135,-4.10999,0,0,0,0,0,0,0,-1,818,638,-4.51135,4.10996
-399,386,-3.57117,-3.42126,0,0,0,0,0,0,0,-1,825,638,-3.57116,3.42129
-392,386,-4.00977,0.403625,0,0,0,0,0,0,0,-1,832,638,-4.0098,-0.403616
-385,386,-3.2406,-0.118469,0,0,0,0,0,0,0,-1,839,638,-3.24058,0.118485
-378,386,-2.55243,-1.22748,0,0,0,0,0,0,0,-1,846,638,-2.55243,1.22748
-371,386,-7.95807,-0.330261,0,0,0,0,0,0,0,-1,853,638,-7.95806,0.330284
-364,386,-8.90637,-0.665955,0,0,0,0,0,0,0,-1,860,638,-8.90635,0.665951
-357,386,-9.10364,-0.388733,0,0,0,0,0,0,0,-1,867,638,-9.10364,0.388744
-350,386,0,0,0,0,0,0,0,0,0,-1,874,638,0,0
-343,386,0,0,0,0,0,0,0,0,0,-1,881,638,0,0
-336,386,0,0,0,0,0,0,0,0,0,-1,888,638,0,0
-329,386,0,0,0,0,0,0,0,0,0,-1,895,638,0,0
-322,386,0,0,0,0,0,0,0,0,0,-1,902,638,0,0
-315,386,0,0,0,0,0,0,0,0,0,-1,909,638,0,0
-308,386,0,0,0,0,0,0,0,0,0,-1,916,638,0,0
-301,386,0,0,0,0,0,0,0,0,0,-1,923,638,0,0
-294,386,0,0,0,0,0,0,0,0,0,-1,930,638,0,0
-287,386,0,0,0,0,0,0,0,0,0,-1,937,638,0,0
-280,386,0,0,0,0,0,0,0,0,0,-1,944,638,0,0
-273,386,0,0,0,0,0,0,0,0,0,-1,951,638,0,0
-266,386,0,0,0,0,0,0,0,0,0,-1,958,638,0,0
-259,386,0,0,0,0,0,0,0,0,0,-1,965,638,0,0
-252,386,0,0,0,0,0,0,0,0,0,-1,972,638,0,0
-245,386,0,0,0,0,0,0,0,0,0,-1,979,638,0,0
-238,386,0,0,0,0,0,0,0,0,0,-1,986,638,0,0
-231,386,0,0,0,0,0,0,0,0,0,-1,993,638,0,0
-224,386,0,0,0,0,0,0,0,0,0,-1,1000,638,0,0
-217,386,0,0,0,0,0,0,0,0,0,-1,1007,638,0,0
-210,386,0,0,0,0,0,0,0,0,0,-1,1014,638,0,0
-203,386,0,0,0,0,0,0,0,0,0,-1,1021,638,0,0
-196,386,0,0,0,0,0,0,0,0,0,-1,1028,638,0,0
-189,386,0,0,0,0,0,0,0,0,0,-1,1035,638,0,0
-182,386,0,0,0,0,0,0,0,0,0,-1,1042,638,0,0
-175,386,0,0,0,0,0,0,0,0,0,-1,1049,638,0,0
-168,386,0,0,0,0,0,0,0,0,0,-1,1056,638,0,0
-161,386,0,0,0,0,0,0,0,0,0,-1,1063,638,0,0
-154,386,0,0,0,0,0,0,0,0,0,-1,1070,638,0,0
-147,386,0,0,0,0,0,0,0,0,0,-1,1077,638,0,0
-140,386,0,0,0,0,0,0,0,0,0,-1,1084,638,0,0
-133,386,0,0,0,0,0,0,0,0,0,-1,1091,638,0,0
-126,386,0,0,0,0,0,0,0,0,0,-1,1098,638,0,0
-119,386,0,0,0,0,0,0,0,0,0,-1,1105,638,0,0
-112,386,0,0,0,0,0,0,0,0,0,-1,1112,638,0,0
-105,386,0,0,0,0,0,0,0,0,0,-1,1119,638,0,0
-98,386,0,0,0,0,0,0,0,0,0,-1,1126,638,0,0
-91,386,0,0,0,0,0,0,0,0,0,-1,1133,638,0,0
-84,386,0,0,0,0,0,0,0,0,0,-1,1140,638,0,0
-77,386,0,0,0,0,0,0,0,0,0,-1,1147,638,0,0
-70,386,0,0,0,0,0,0,0,0,0,-1,1154,638,0,0
-63,386,0,0,0,0,0,0,0,0,0,-1,1161,638,0,0
-56,386,0,0,0,0,0,0,0,0,0,-1,1168,638,0,0
-49,386,0,0,0,0,0,0,0,0,0,-1,1175,638,0,0
-42,386,0,0,0,0,0,0,0,0,0,-1,1182,638,0,0
-35,386,0,0,0,0,0,0,0,0,0,-1,1189,638,0,0
-28,386,0,0,0,0,0,0,0,0,0,-1,1196,638,0,0
-21,386,0,0,0,0,0,0,0,0,0,-1,1203,638,0,0
-14,386,0,0,0,0,0,0,0,0,0,-1,1210,638,0,0
-7,386,0,0,0,0,0,0,0,0,0,-1,1217,638,0,0
0,386,0,0,0,0,0,0,0,0,0,-1,1224,638,0,0
7,386,0,0,0,0,0,0,0,0,0,-1,1231,638,0,0
14,386,0,0,0,0,0,0,0,0,0,-1,1238,638,0,0
21,386,0,0,0,0,0,0,0,0,0,-1,1245,638,0,0
28,386,0,0,0,0,0,0,0,0,0,-1,1252,638,0,0
35,386,0,0,0,0,0,0,0,0,0,-1,1259,638,0,0
42,386,0,0,0,0,0,0,0,0,0,-1,1266,638,0,0
49,386,0,0,0,0,0,0,0,0,0,-1,1273,638,0,0
56,386,0,0,0,0,0,0,0,0,0,-1,1280,638,0,0
63,386,0,0,0,0,0,0,0,0,0,-1,1287,638,0,0
70,386,0,0,0,0,0,0,0,0,0,-1,1294,638,0,0
77,386,0,0,0,0,0,0,0,0,0,-1,1301,638,0,0
84,386,0,0,0,0,0,0,0,0,0,-1,1308,638,0,0
91,386,0,0,0,0,0,0,0,0,0,-1,1315,638,0,0
98,386,0,0,0,0,0,0,0,0,0,-1,1322,638,0,0
105,386,0,0,0,0,0,0,0,0,0,-1,1329,638,0,0
112,386,0,0,0,0,0,0,0,0,0,-1,1336,638,0,0
119,386,0,0,0,0,0,0,0,0,0,-1,1343,638,0,0
126,386,0,0,0,0,0,0,0,0,0,-1,1350,638,0,0
133,386,0,0,0,0,0,0,0,0,0,-1,1357,638,0,0
140,386,0,0,0,0,0,0,0,0,0,-1,1364,638,0,0
147,386,0,0,0,0,0,0,0,0,0,-1,1371,638,0,0
154,386,0,0,0,0,0,0,0,0,0,-1,1378,638,0,0
161,386,0,0,0,0,0,0,0,0,0,-1,1385,638,0,0
168,386,0,0,0,0,0,0,0,0,0,-1,1392,638,0,0
175,386,0,0,0,0,0,0,0,0,0,-1,1399,638,0,0
182,386,0,0,0,0,0,0,0,0,0,-1,1406,638,0,0
189,386,0,0,0,0,0,0,0,0,0,-1,1413,638,0,0
196,386,0,0,0,0,0,0,0,0,0,-1,1420,638,0,0
203,386,0,0,0,0,0,0,0,0,0,-1,1427,638,0,0
210,386,0,0,0,0,0,0,0,0,0,-1,1434,638,0,0
217,386,0,0,0,0,0,0,0,0,0,-1,1441,638,0,0
224,386,0,0,0,0,0,0,0,0,0,-1,1448,638,0,0
231,386,0,0,0,0,0,0,0,0,0,-1,1455,638,0,0
238,386,0,0,0,0,0,0,0,0,0,-1,1462,638,0,0
245,386,0,0,0,0,0,0,0,0,0,-1,1469,638,0,0
252,386,0,0,0,0,0,0,0,0,0,-1,1476,638,0,0
259,386,0,0,0,0,0,0,0,0,0,-1,1483,638,0,0
266,386,0,0,0,0,0,0,0,0,0,-1,1490,638,0,0
273,386,0,0,0,0,0,0,0,0,0,-1,1497,638,0,0
280,386,0,0,0,0,0,0,0,0,0,-1,1504,638,0,0
287,386,0,0,0,0,0,0,0,0,0,-1,1511,638,0,0
294,386,0,0,0,0,0,0,0,0,0,-1,1518,638,0,0
301,386,0,0,0,0,0,0,0,0,0,-1,1525,638,0,0
308,386,0,0,0,0,0,0,0,0,0,-1,1532,638,0,0
315,386,0,0,0,0,0,0,0,0,0,-1,1539,638,0,0
322,386,0,0,0,0,0,0,0,0,0,-1,1546,638,0,0
329,386,0,0,0,0,0,0,0,0,0,-1,1553,638,0,0
336,386,0,0,0,0,0,0,0,0,0,-1,1560,638,0,0
343,386,0,0,0,0,0,0,0,0,0,-1,1567,638,0,0
350,386,0,0,0,0,0,0,0,0,0,-1,1574,638,0,0
357,386,0,0,0,0,0,0,0,0,0,-1,1581,638,0,0
364,386,0,0,0,0,0,0,0,0,0,-1,1588,638,0,0
371,386,0,0,0,0,0,0,0,0,0,-1,1595,638,0,0
378,386,0,0,0,0,0,0,0,0,0,-1,1602,638,0,0
385,386,0,0,0,0,0,0,0,0,0,-1,1609,638,0,0
392,386,0,0,0,0,0,0,0,0,0,-1,1616,638,0,0
399,386,0,0,0,0,0,0,0,0,0,-1,1623,638,0,0
406,386,0,0,0,0,0,0,0,0,0,-1,1630,638,0,0
413,386,0,0,0,0,0,0,0,0,0,-1,1637,638,0,0
420,386,0,0,0,0,0,0,0,0,0,-1,1644,638,0,0
427,386,0,0,0,0,0,0,0,0,0,-1,1651,638,0,0
434,386,0,0,0,0,0,0,0,0,0,-1,1658,638,0,0
441,386,0,0,0,0,0,0,0,0,0,-1,1665,638,0,0
448,386,0,0,0,0,0,0,0,0,0,-1,1672,638,0,0
455,386,0,0,0,0,0,0,0,0,0,-1,1679,638,0,0
462,386,0,0,0,0,0,0,0,0,0,-1,1686,638,0,0
469,386,9.84692,1.55804,0,0,0,0,0,0,0,-1,1693,638,9.84691,-1.55807
476,386,10.6145,0.986511,0,0,0,0,0,0,0,-1,1700,638,10.6145,-0.986529
483,386,11.4113,0.732971,0,0,0,0,0,0,0,-1,1707,638,11.4112,-0.732958
490,386,7.79785,1.79572,0,0,0,0,0,0,0,-1,1714,638,7.79788,-1.7957
497,386,8.96362,1.77081,0,0,0,0,0,0,0,-1,1721,638,8.96357,-1.77081
504,386,10.0555,1.69427,0,0,0,0,0,0,0,-1,1728,638,10.0555,-1.69426
511,386,11.2172,1.534,0,0,0,0,0,0,0,-1,1735,638,11.2172,-1.53398
518,386,7.41553,1.75238,0,0,0,0,0,0,0,-1,1742,638,7.41547,-1.75238
525,386,8.82422,-1.1449,0,0,0,0,0,0,0,-1,1749,638,8.82426,1.14492
532,386,10.6432,0.617371,0,0,0,0,0,0,0,-1,1756,638,10.6432,-0.617359
539,386,9.62061,-0.393616,0,0,0,0,0,0,0,-1,1763,638,9.62059,0.393634
546,386,10.7963,-2.854,0,0,0,0,0,0,0,-1,1770,638,10.7962,2.854
553,386,16.9939,-7.27942,0,0,0,0,0,0,0,-1,1777,638,16.9939,7.27944
560,386,27.3794,-14.3659,0,0,0,0,0,0,0,-1,1784,638,27.3793,14.3659
567,386,27.3164,-13.1617,0,0,0,0,0,0,0,-1,1791,638,27.3163,13.1617
574,386,27.3518,-12.4059,0.00142613,0.000553026,-1.9709e-05,0.00142657,0.000552581,-0.0225583,0.000830571,0.0149371,1798,638,27.3518,12.406
581,386,27.2926,-11.6852,0.00107348,0.000582297,4.08595e-05,0.00107686,0.000578921,0.0824302,0.000622311,0.0156538,1805,638,27.2926,11.6852
588,386,27.2889,-10.9164,0.00102951,0.000847824,0.000312982,0.00126457,0.000612767,0.644156,0.000730213,0.0139284,1812,638,27.2889,10.9164
595,386,27.2526,-10.1659,0.00132167,0.00135393,0.000794027,0.00213199,0.000543609,0.795552,0.00127922,0.0150022,1819,638,27.2526,10.1659
602,386,27.1906,-9.44165,0.00188258,0.00207457,0.00147609,0.00345779,0.000499363,0.817869,0.00215808,0.0163968,1826,638,27.1905,9.44167
609,386,27.1798,-8.71521,0.00259478,0.00296488,0.00224004,0.0050275,0.000532154,0.82661,0.00318912,0.0146377,1833,638,27.1798,8.71518
616,386,27.1572,-7.95062,0.00353553,0.00409488,0.00315168,0.00697927,0.000651139,0.829652,0.0044517,0.0119535,1840,638,27.1572,7.95061
623,386,27.1063,-7.18982,0.00473827,0.00538492,0.00425814,0.00933199,0.000791193,0.823291,0.00597508,0.0107937,1847,638,27.1063,7.18984
630,386,27.2081,-6.39069,0.00616992,0.00671238,0.00546345,0.0119113,0.000970977,0.8102,0.00763783,0.0379102,1854,638,27.2081,6.39066
637,386,27.3812,-5.56445,0,0,0,0,0,0,0,-1,1861,638,27.3812,5.56444
644,386,11.6521,0.723328,0,0,0,0,0,0,0,-1,1868,638,11.6521,-0.723355
651,386,9.3866,1.31097,0,0,0,0,0,0,0,-1,1875,638,9.3866,-1.31095
658,386,12.0731,-0.00415039,0,0,0,0,0,0,0,-1,1882,638,12.0731,0.00412803
665,386,6.33167,1.78601,0,0,0,0,0,0,0,-1,1889,638,6.33171,-1.78601
672,386,7.23352,2.14435,0,0,0,0,0,0,0,-1,1896,638,7.23353,-2.14433
679,386,8.07764,2.57104,0,0,0,0,0,0,0,-1,1903,638,8.07758,-2.57103
686,386,0,0,0,0,0,0,0,0,0,-1,1910,638,0,0
693,386,0,0,0,0,0,0,0,0,0,-1,1917,638,0,0
700,386,0,0,0,0,0,0,0,0,0,-1,1924,638,0,0
707,386,0,0,0,0,0,0,0,0,0,-1,1931,638,0,0
714,386,0,0,0,0,0,0,0,0,0,-1,1938,638,0,0
721,386,0,0,0,0,0,0,0,0,0,-1,1945,638,0,0
728,386,0,0,0,0,0,0,0,0,0,-1,1952,638,0,0
735,386,0,0,0,0,0,0,0,0,0,-1,1959,638,0,0
742,386,0,0,0,0,0,0,0,0,0,-1,1966,638,0,0
749,386,0,0,0,0,0,0,0,0,0,-1,1973,638,0,0
756,386,0,0,0,0,0,0,0,0,0,-1,1980,638,0,0
763,386,0,0,0,0,0,0,0,0,0,-1,1987,638,0,0
770,386,0,0,0,0,0,0,0,0,0,-1,1994,638,0,0
777,386,0,0,0,0,0,0,0,0,0,-1,2001,638,0,0
784,386,0,0,0,0,0,0,0,0,0,-1,2008,638,0,0
791,386,0,0,0,0,0,0,0,0,0,-1,2015,638,0,0
798,386,0,0,0,0,0,0,0,0,0,-1,2022,638,0,0
805,386,0,0,0,0,0,0,0,0,0,-1,2029,638,0,0
812,386,0,0,0,0,0,0,0,0,0,-1,2036,638,0,0
-700,379,0,0,0,0,0,0,0,0,0,-1,524,645,0,0
-693,379,0,0,0,0,0,0,0,0,0,-1,531,645,0,0
-686,379,0,0,0,0,0,0,0,0,0,-1,538,645,0,0
-679,379,0,0,0,0,0,0,0,0,0,-1,545,645,0,0
-672,379,0,0,0,0,0,0,0,0,0,-1,552,645,0,0
-665,379,0,0,0,0,0,0,0,0,0,-1,559,645,0,0
-658,379,0,0,0,0,0,0,0,0,0,-1,566,645,0,0
-651,379,0,0,0,0,0,0,0,0,0,-1,573,645,0,0
-644,379,0,0,0,0,0,0,0,0,0,-1,580,645,0,0
-637,379,0,0,0,0,0,0,0,0,0,-1,587,645,0,0
-630,379,0,0,0,0,0,0,0,0,0,-1,594,645,0,0
-623,379,0,0,0,0,0,0,0,0,0,-1,601,645,0,0
-616,379,0,0,0,0,0,0,0,0,0,-1,608,645,0,0
-609,379,0,0,0,0,0,0,0,0,0,-1,615,645,0,0
-602,379,0,0,0,0,0,0,0,0,0,-1,622,645,0,0
-595,379,0,0,0,0,0,0,0,0,0,-1,629,645,0,0
-588,379,0,0,0,0,0,0,0,0,0,-1,636,645,0,0
-581,379,0,0,0,0,0,0,0,0,0,-1,643,645,0,0
-574,379,0,0,0,0,0,0,0,0,0,-1,650,645,0,0
-567,379,-8.78058,0.59668,0,0,0,0,0,0,0,-1,657,645,-8.7806,-0.596692
-560,379,-9.53485,-0.211304,0,0,0,0,0,0,0,-1,664,645,-9.53487,0.211282
-553,379,-5.17108,-4.53119,0,0,0,0,0,0,0,-1,671,645,-5.17106,4.53117
-546,379,-6.23053,-4.92102,0,0,0,0,0,0,0,-1,678,645,-6.23054,4.92105
-539,379,-0.71698,-2.19427,0,0,0,0,0,0,0,-1,685,645,-0.716959,2.19427
-532,379,-7.69611,0.217224,0,0,0,0,0,0,0,-1,692,645,-7.69614,-0.217204
-525,379,-7.09833,-1.13043,0,0,0,0,0,0,0,-1,699,645,-7.0983,1.13041
-518,379,-13.126,-5.33893,0,0,0,0,0,0,0,-1,706,645,-13.126,5.33895
-511,379,-15.0386,-7.19739,0,0,0,0,0,0,0,-1,713,645,-15.0387,7.19741
-504,379,-15.0805,-7.84662,0.00223611,0.00184152,-0.00116652,0.0032219,0.00085573,-0.701624,0.0019271,0.0326605,720,645,-15.0805,7.84664
-497,379,-15.1614,-8.54498,0.00156391,0.00144803,-0.000837121,0.00234509,0.000666843,-0.750847,0.00139528,0.0147666,727,645,-15.1614,8.54498
-490,379,-15.1669,-9.29523,0.00126111,0.00120364,-0.000745251,0.00197818,0.00048657,-0.76613,0.00119022,0.0113537,734,645,-15.1669,9.29522
-483,379,-15.1896,-10.0407,0.00111629,0.000974891,-0.000723717,0.00177275,0.000318427,-0.736709,0.00109129,0.0130198,741,645,-15.1896,10.0407
-476,379,-15.218,-10.7614,0.0011821,0.000779528,-0.000781367,0.00178769,0.000173939,-0.659334,0.00113825,0.0131485,748,645,-15.218,10.7614
-469,379,-15.2633,-11.4518,0.00140975,0.000617983,-0.000901988,0.0019989,2.88234e-05,-0.578606,0.0013231,0.0126051,755,645,-15.2633,11.4518
-462,379,-15.3047,-12.1877,0.00166645,0.000415766,-0.000979308,0.00220305,-0.000120828,-0.501254,0.00151059,0.0102421,762,645,-15.3048,12.1877
-455,379,-15.3417,-12.9237,0.00201475,6.1602e-06,-0.0010265,0.00244653,-0.000425616,-0.398165,0.00178984,0.0105666,769,645,-15.3417,12.9237
-448,379,-15.3522,-13.6238,0.00249472,-0.000311533,-0.00110645,0.00287849,-0.000695299,-0.333863,0.0021879,0.0126957,776,645,-15.3522,13.6238
-441,379,-15.3652,-14.378,0.00301024,-0.000694296,-0.00118213,0.00335531,-0.00103937,-0.284019,0.00265211,0.022637,783,645,-15.3652,14.378
-434,379,-15.2812,-15.2004,0,0,0,0,0,0,0,-1,790,645,-15.2812,15.2005
-427,379,-4.16113,-4.13452,0,0,0,0,0,0,0,-1,797,645,-4.16116,4.1345
-420,379,-4.63953,-3.46869,0,0,0,0,0,0,0,-1,804,645,-4.63953,3.46872
-413,379,-4.62543,-3.7912,0,0,0,0,0,0,0,-1,811,645,-4.62541,3.79123
-406,379,-4.64063,-4.38489,0,0,0,0,0,0,0,-1,818,645,-4.64065,4.3849
-399,379,-2.93536,-1.40118,0,0,0,0,0,0,0,-1,825,645,-2.93534,1.40119
-392,379,-4.16711,-0.466003,0,0,0,0,0,0,0,-1,832,645,-4.16714,0.465992
-385,379,-3.51862,0.441101,0,0,0,0,0,0,0,-1,839,645,-3.51859,-0.441072
-378,379,-5.3504,0.212219,0,0,0,0,0,0,0,-1,846,645,-5.35038,-0.212241
-371,379,-4.32092,-0.186707,0,0,0,0,0,0,0,-1,853,645,-4.3209,0.186707
-364,379,-3.40887,-0.549805,0,0,0,0,0,0,0,-1,860,645,-3.4089,0.549802
-357,379,0,0,0,0,0,0,0,0,0,-1,867,645,0,0
-350,379,0,0,0,0,0,0,0,0,0,-1,874,645,0,0
-343,379,0,0,0,0,0,0,0,0,0,-1,881,645,0,0
-336,379,0,0,0,0,0,0,0,0,0,-1,888,645,0,0
-329,379,0,0,0,0,0,0,0,0,0,-1,895,645,0,0
-322,379,0,0,0,0,0,0,0,0,0,-1,902,645,0,0
-315,379,0,0,0,0,0,0,0,0,0,-1,909,645,0,0
-308,379,0,0,0,0,0,0,0,0,0,-1,916,645,0,0
-301,379,0,0,0,0,0,0,0,0,0,-1,923,645,0,0
-294,379,0,0,0,0,0,0,0,0,0,-1,930,645,0,0
-287,379,0,0,0,0,0,0,0,0,0,-1,937,645,0,0
-280,379,0,0,0,0,0,0,0,0,0,-1,944,645,0,0
-273,379,0,0,0,0,0,0,0,0,0,-1,951,645,0,0
-266,379,0,0,0,0,0,0,0,0,0,-1,958,645,0,0
-259,379,0,0,0,0,0,0,0,0,0,-1,965,645,0,0
-252,379,0,0,0,0,0,0,0,0,0,-1,972,645,0,0
-245,379,0,0,0,0,0,0,0,0,0,-1,979,645,0,0
-238,379,0,0,0,0,0,0,0,0,0,-1,986,645,0,0
-231,379,0,0,0,0,0,0,0,0,0,-1,993,645,0,0
-224,379,0,0,0,0,0,0,0,0,0,-1,1000,645,0,0
-217,379,0,0,0,0,0,0,0,0,0,-1,1007,645,0,0
-210,379,0,0,0,0,0,0,0,0,0,-1,1014,645,0,0
-203,379,0,0,0,0,0,0,0,0,0,-1,1021,645,0,0
-196,379,0,0,0,0,0,0,0,0,0,-1,1028,645,0,0
-189,379,0,0,0,0,0,0,0,0,0,-1,1035,645,0,0
-182,379,0,0,0,0,0,0,0,0,0,-1,1042,645,0,0
-175,379,0,0,0,0,0,0,0,0,0,-1,1049,645,0,0
-168,379,0,0,0,0,0,0,0,0,0,-1,1056,645,0,0
-161,379,0,0,0,0,0,0,0,0,0,-1,1063,645,0,0
-154,379,0,0,0,0,0,0,0,0,0,-1,1070,645,0,0
-147,379,0,0,0,0,0,0,0,0,0,-1,1077,645,0,0
-140,379,0,0,0,0,0,0,0,0,0,-1,1084,645,0,0
-133,379,0,0,0,0,0,0,0,0,0,-1,1091,645,0,0
-126,379,0,0,0,0,0,0,0,0,0,-1,1098,645,0,0
-119,379,0,0,0,0,0,0,0,0,0,-1,1105,645,0,0
-112,379,0,0,0,0,0,0,0,0,0,-1,1112,645,0,0
-105,379,0,0,0,0,0,0,0,0,0,-1,1119,645,0,0
-98,379,0,0,0,0,0,0,0,0,0,-1,1126,645,0,0
-91,379,0,0,0,0,0,0,0,0,0,-1,1133,645,0,0
-84,379,0,0,0,0,0,0,0,0,0,-1,1140,645,0,0
-77,379,0,0,0,0,0,0,0,0,0,-1,1147,645,0,0
-70,379,0,0,0,0,0,0,0,0,0,-1,1154,645,0,0
-63,379,0,0,0,0,0,0,0,0,0,-1,1161,645,0,0
-56,379,0,0,0,0,0,0,0,0,0,-1,1168,645,0,0
-49,379,0,0,0,0,0,0,0,0,0,-1,1175,645,0,0
-42,379,0,0,0,0,0,0,0,0,0,-1,1182,645,0,0
-35,379,0,0,0,0,0,0,0,0,0,-1,1189,645,0,0
-28,379,0,0,0,0,0,0,0,0,0,-1,1196,645,0,0
-21,379,0,0,0,0,0,0,0,0,0,-1,1203,645,0,0
-14,379,0,0,0,0,0,0,0,0,0,-1,1210,645,0,0
-7,379,0,0,0,0,0,0,0,0,0,-1,1217,645,0,0
0,379,0,0,0,0,0,0,0,0,0,-1,1224,645,0,0
7,379,0,0,0,0,0,0,0,0,0,-1,1231,645,0,0
14,379,0,0,0,0,0,0,0,0,0,-1,1238,645,0,0
21,379,0,0,0,0,0,0,0,0,0,-1,1245,645,0,0
28,379,0,0,0,0,0,0,0,0,0,-1,1252,645,0,0
35,379,0,0,0,0,0,0,0,0,0,-1,1259,645,0,0
42,379,0,0,0,0,0,0,0,0,0,-1,1266,645,0,0
49,379,0,0,0,0,0,0,0,0,0,-1,1273,645,0,0
56,379,0,0,0,0,0,0,0,0,0,-1,1280,645,0,0
63,379,0,0,0,0,0,0,0,0,0,-1,1287,645,0,0
70,379,0,0,0,0,0,0,0,0,0,-1,1294,645,0,0
77,379,0,0,0,0,0,0,0,0,0,-1,1301,645,0,0
84,379,0,0,0,0,0,0,0,0,0,-1,1308,645,0,0
91,379,0,0,0,0,0,0,0,0,0,-1,1315,645,0,0
98,379,0,0,0,0,0,0,0,0,0,-1,1322,645,0,0
105,379,0,0,0,0,0,0,0,0,0,-1,1329,645,0,0
112,379,0,0,0,0,0,0,0,0,0,-1,1336,645,0,0
119,379,0,0,0,0,0,0,0,0,0,-1,1343,645,0,0
126,379,0,0,0,0,0,0,0,0,0,-1,1350,645,0,0
133,379,0,0,0,0,0,0,0,0,0,-1,1357,645,0,0
140,379,0,0,0,0,0,0,0,0,0,-1,1364,645,0,0
147,379,0,0,0,0,0,0,0,0,0,-1,1371,645,0,0
154,379,0,0,0,0,0,0,0,0,0,-1,1378,645,0,0
161,379,0,0,0,0,0,0,0,0,0,-1,1385,645,0,0
168,379,0,0,0,0,0,0,0,0,0,-1,1392,645,0,0
175,379,0,0,0,0,0,0,0,0,0,-1,1399,645,0,0
182,379,0,0,0,0,0,0,0,0,0,-1,1406,645,0,0
189,379,0,0,0,0,0,0,0,0,0,-1,1413,645,0,0
196,379,0,0,0,0,0,0,0,0,0,-1,1420,645,0,0
203,379,0,0,0,0,0,0,0,0,0,-1,1427,645,0,0
210,379,0,0,0,0,0,0,0,0,0,-1,1434,645,0,0
217,379,0,0,0,0,0,0,0,0,0,-1,1441,645,0,0
224,379,0,0,0,0,0,0,0,0,0,-1,1448,645,0,0
231,379,0,0,0,0,0,0,0,0,0,-1,1455,645,0,0
238,379,0,0,0,0,0,0,0,0,0,-1,1462,645,0,0
245,379,0,0,0,0,0,0,0,0,0,-1,1469,645,0,0
252,379,0,0,0,0,0,0,0,0,0,-1,1476,645,0,0
259,379,0,0,0,0,0,0,0,0,0,-1,1483,645,0,0
266,379,0,0,0,0,0,0,0,0,0,-1,1490,645,0,0
273,379,0,0,0,0,0,0,0,0,0,-1,1497,645,0,0
280,379,0,0,0,0,0,0,0,0,0,-1,1504,645,0,0
287,379,0,0,0,0,0,0,0,0,0,-1,1511,645,0,0
294,379,0,0,0,0,0,0,0,0,0,-1,1518,645,0,0
301,379,0,0,0,0,0,0,0,0,0,-1,1525,645,0,0
308,379,0,0,0,0,0,0,0,0,0,-1,1532,645,0,0
315,379,0,0,0,0,0,0,0,0,0,-1,1539,645,0,0
322,379,0,0,0,0,0,0,0,0,0,-1,1546,645,0,0
329,379,0,0,0,0,0,0,0,0,0,-1,1553,645,0,0
336,379,0,0,0,0,0,0,0,0,0,-1,1560,645,0,0
343,379,0,0,0,0,0,0,0,0,0,-1,1567,645,0,0
350,379,0,0,0,0,0,0,0,0,0,-1,1574,645,0,0
357,379,0,0,0,0,0,0,0,0,0,-1,1581,645,0,0
364,379,0,0,0,0,0,0,0,0,0,-1,1588,645,0,0
371,379,0,0,0,0,0,0,0,0,0,-1,1595,645,0,0
378,379,0,0,0,0,0,0,0,0,0,-1,1602,645,0,0
385,379,0,0,0,0,0,0,0,0,0,-1,1609,645,0,0
392,379,0,0,0,0,0,0,0,0,0,-1,1616,645,0,0
399,379,0,0,0,0,0,0,0,0,0,-1,1623,645,0,0
406,379,0,0,0,0,0,0,0,0,0,-1,1630,645,0,0
413,379,0,0,0,0,0,0,0,0,0,-1,1637,645,0,0
420,379,0,0,0,0,0,0,0,0,0,-1,1644,645,0,0
427,379,0,0,0,0,0,0,0,0,0,-1,1651,645,0,0
434,379,0,0,0,0,0,0,0,0,0,-1,1658,645,0,0
441,379,0,0,0,0,0,0,0,0,0,-1,1665,645,0,0
448,379,0,0,0,0,0,0,0,0,0,-1,1672,645,0,0
455,379,0,0,0,0,0,0,0,0,0,-1,1679,645,0,0
462,379,0,0,0,0,0,0,0,0,0,-1,1686,645,0,0
469,379,0,0,0,0,0,0,0,0,0,-1,1693,645,0,0
476,379,11.1787,0.830383,0,0,0,0,0,0,0,-1,1700,645,11.1787,-0.830365
483,379,7.4231,1.54321,0,0,0,0,0,0,0,-1,1707,645,7.42314,-1.54324
490,379,8.52881,1.56677,0,0,0,0,0,0,0,-1,1714,645,8.52878,-1.56677
497,379,9.63599,1.49573,0,0,0,0,0,0,0,-1,1721,645,9.63604,-1.4957
504,379,10.0833,1.35229,0,0,0,0,0,0,0,-1,1728,645,10.0832,-1.35227
511,379,8.14343,1.59912,0,0,0,0,0,0,0,-1,1735,645,8.14347,-1.59912
518,379,12.7955,-0.324097,0,0,0,0,0,0,0,-1,1742,645,12.7955,0.324101
525,379,6.03711,1.10352,0,0,0,0,0,0,0,-1,1749,645,6.03711,-1.10351
532,379,8.70947,0.887817,0,0,0,0,0,0,0,-1,1756,645,8.70953,-0.887808
539,379,9.87097,0.111389,0,0,0,0,0,0,0,-1,1763,645,9.87095,-0.111395
546,379,8.42383,-0.730652,0,0,0,0,0,0,0,-1,1770,645,8.42378,0.730638
553,379,19.2905,-7.67834,0,0,0,0,0,0,0,-1,1777,645,19.2905,7.67837
560,379,22.5734,-10.4749,0,0,0,0,0,0,0,-1,1784,645,22.5734,10.4749
567,379,28.0844,-13.1392,0,0,0,0,0,0,0,-1,1791,645,28.0843,13.1392
574,379,28.072,-12.3544,0.00128321,0.000301937,-0.000430504,0.00144531,0.000139843,-0.360104,0.000920472,0.0170585,1798,645,28.0721,12.3545
581,379,28.0559,-11.6373,0.000861863,0.000284226,-0.000383603,0.00105322,9.28703e-05,-0.462717,0.000673327,0.0163057,1805,645,28.0559,11.6373
588,379,28.0371,-10.8737,0.000789755,0.000442212,-0.000129853,0.000832913,0.000399054,-0.320874,0.000481022,0.0182854,1812,645,28.0371,10.8737
595,379,27.9967,-10.1318,0.00103652,0.000872845,0.000311254,0.00127652,0.000632852,0.656841,0.000737007,0.0151664,1819,645,27.9966,10.1318
602,379,27.9529,-9.4187,0.00153825,0.00148719,0.000929227,0.0024423,0.000583145,0.771664,0.00147282,0.015639,1826,645,27.9529,9.41869
609,379,27.9108,-8.70898,0.00216055,0.00223695,0.00160959,0.00380879,0.000588711,0.797261,0.00236748,0.0167676,1833,645,27.9107,8.70897
616,379,27.8749,-7.95825,0.00297335,0.00315017,0.00240499,0.00546837,0.000655152,0.80377,0.00344801,0.0134705,1840,645,27.8749,7.95826
623,379,27.8511,-7.15686,0.00401471,0.00419411,0.00336869,0.00747429,0.000734524,0.798709,0.00475696,0.0120149,1847,645,27.8511,7.15687
630,379,27.8319,-6.39532,0.0052014,0.00526707,0.00440398,0.00963834,0.000830133,0.789126,0.0061675,0.0137987,1854,645,27.8319,6.39533
637,379,27.8397,-5.54498,0.00645718,0.00651397,0.0055438,0.0120294,0.00094171,0.787959,0.00772488,0.0475756,1861,645,27.8397,5.54497
644,379,28.0433,-4.58252,0,0,0,0,0,0,0,-1,1868,645,28.0433,4.58251
651,379,12.9515,0.220825,0,0,0,0,0,0,0,-1,1875,645,12.9515,-0.220814
658,379,13.7498,0.37439,0,0,0,0,0,0,0,-1,1882,645,13.7498,-0.374371
665,379,11.9719,0.353333,0,0,0,0,0,0,0,-1,1889,645,11.9719,-0.353321
672,379,7.57605,2.15326,0,0,0,0,0,0,0,-1,1896,645,7.57599,-2.15326
679,379,8.55078,2.50409,0,0,0,0,0,0,0,-1,1903,645,8.55073,-2.50406
686,379,0,0,0,0,0,0,0,0,0,-1,1910,645,0,0
693,379,0,0,0,0,0,0,0,0,0,-1,1917,645,0,0
700,379,0,0,0,0,0,0,0,0,0,-1,1924,645,0,0
707,379,0,0,0,0,0,0,0,0,0,-1,1931,645,0,0
714,379,0,0,0,0,0,0,0,0,0,-1,1938,645,0,0
721,379,0,0,0,0,0,0,0,0,0,-1,1945,645,0,0
728,379,0,0,0,0,0,0,0,0,0,-1,1952,645,0,0
735,379,0,0,0,0,0,0,0,0,0,-1,1959,645,0,0
742,379,0,0,0,0,0,0,0,0,0,-1,1966,645,0,0
749,379,0,0,0,0,0,0,0,0,0,-1,1973,645,0,0
756,379,0,0,0,0,0,0,0,0,0,-1,1980,645,0,0
763,379,0,0,0,0,0,0,0,0,0,-1,1987,645,0,0
770,379,0,0,0,0,0,0,0,0,0,-1,1994,645,0,0
777,379,0,0,0,0,0,0,0,0,0,-1,2001,645,0,0
784,379,0,0,0,0,0,0,0,0,0,-1,2008,645,0,0
791,379,0,0,0,0,0,0,0,0,0,-1,2015,645,0,0
798,379,0,0,0,0,0,0,0,0,0,-1,2022,645,0,0
805,379,0,0,0,0,0,0,0,0,0,-1,2029,645,0,0
812,379,0,0,0,0,0,0,0,0,0,-1,2036,645,0,0
-700,372,0,0,0,0,0,0,0,0,0,-1,524,652,0,0
-693,372,0,0,0,0,0,0,0,0,0,-1,531,652,0,0
-686,372,0,0,0,0,0,0,0,0,0,-1,538,652,0,0
-679,372,0,0,0,0,0,0,0,0,0,-1,545,652,0,0
-672,372,0,0,0,0,0,0,0,0,0,-1,552,652,0,0
-665,372,0,0,0,0,0,0,0,0,0,-1,559,652,0,0
-658,372,0,0,0,0,0,0,0,0,0,-1,566,652,0,0
-651,372,0,0,0,0,0,0,0,0,0,-1,573,652,0,0
-644,372,0,0,0,0,0,0,0,0,0,-1,580,652,0,0
-637,372,0,0,0,0,0,0,0,0,0,-1,587,652,0,0
-630,372,0,0,0,0,0,0,0,0,0,-1,594,652,0,0
-623,372,0,0,0,0,0,0,0,0,0,-1,601,652,0,0
-616,372,0,0,0,0,0,0,0,0,0,-1,608,652,0,0
-609,372,0,0,0,0,0,0,0,0,0,-1,615,652,0,0
-602,372,0,0,0,0,0,0,0,0,0,-1,622,652,0,0
-595,372,0,0,0,0,0,0,0,0,0,-1,629,652,0,0
-588,372,0,0,0,0,0,0,0,0,0,-1,636,652,0,0
-581,372,0,0,0,0,0,0,0,0,0,-1,643,652,0,0
-574,372,0,0,0,0,0,0,0,0,0,-1,650,652,0,0
-567,372,-7.93744,0.73407,0,0,0,0,0,0,0,-1,657,652,-7.93741,-0.734076
-560,372,-8.78552,-0.158203,0,0,0,0,0,0,0,-1,664,652,-8.78552,0.158216
-553,372,-7.95551,1.61694,0,0,0,0,0,0,0,-1,671,652,-7.95552,-1.61697
-546,372,-4.2403,-3.75372,0,0,0,0,0,0,0,-1,678,652,-4.24028,3.75369
-539,372,-7.92285,-0.0650024,0,0,0,0,0,0,0,-1,685,652,-7.92287,0.0649772
-532,372,-8.59589,-0.419556,0,0,0,0,0,0,0,-1,692,652,-8.59591,0.419539
-525,372,-8.03674,-1.36804,0,0,0,0,0,0,0,-1,699,652,-8.03676,1.36806
-518,372,-15.8414,-6.23096,0,0,0,0,0,0,0,-1,706,652,-15.8414,6.23093
-511,372,-15.812,-7.10431,0.00299946,0.00142173,-0.00120582,0.00365153,0.000769654,-0.49573,0.00222267,0.0393524,713,652,-15.8119,7.10433
-504,372,-15.8529,-7.7782,0.00236214,0.00127426,-0.0010184,0.00297276,0.000663637,-0.540116,0.00180184,0.0177653,720,652,-15.8529,7.7782
-497,372,-15.8474,-8.54474,0.00183614,0.000940779,-0.000793955,0.00229993,0.000476987,-0.528687,0.00140161,0.012036,727,652,-15.8474,8.54471
-490,372,-15.8812,-9.25336,0.00157351,0.00075351,-0.000761747,0.00202859,0.000298434,-0.538514,0.00126471,0.0130448,734,652,-15.8812,9.25337
-483,372,-15.9023,-9.95813,0.00146237,0.000595357,-0.000767142,0.00191002,0.000147709,-0.528219,0.00122708,0.0130009,741,652,-15.9023,9.95812
-476,372,-15.933,-10.6591,0.00154322,0.000493244,-0.000855312,0.00202181,1.46518e-05,-0.510148,0.00134301,0.0136729,748,652,-15.9331,10.6591
-469,372,-15.9854,-11.3668,0.00176193,0.000451768,-0.00102083,0.00231979,-0.000106093,-0.500135,0.00158308,0.0112243,755,652,-15.9854,11.3668
-462,372,-16.0197,-12.115,0.0020153,0.00039325,-0.00115453,0.0026152,-0.00020665,-0.479207,0.00181627,0.0103588,762,652,-16.0197,12.115
-455,372,-16.0679,-12.8438,0.00238804,0.000130101,-0.00127273,0.00296037,-0.000442227,-0.422593,0.0021363,0.0107167,769,652,-16.0679,12.8438
-448,372,-16.0794,-13.5724,0.00288883,-2.84457e-05,-0.00143158,0.00347398,-0.000613592,-0.388019,0.00254529,0.0140205,776,652,-16.0794,13.5724
-441,372,-16.0413,-14.3927,0,0,0,0,0,0,0,-1,783,652,-16.0413,14.3927
-434,372,-9.86865,-9.68494,0,0,0,0,0,0,0,-1,790,652,-9.86863,9.68492
-427,372,-4.54248,-3.56268,0,0,0,0,0,0,0,-1,797,652,-4.54247,3.56266
-420,372,-4.66168,-2.93597,0,0,0,0,0,0,0,-1,804,652,-4.66166,2.93599
-413,372,-4.74762,-3.29541,0,0,0,0,0,0,0,-1,811,652,-4.74763,3.29542
-406,372,-0.885437,-0.583923,0,0,0,0,0,0,0,-1,818,652,-0.885437,0.5839
-399,372,-3.97357,-0.825012,0,0,0,0,0,0,0,-1,825,652,-3.97359,0.825037
-392,372,-7.64337,0.173035,0,0,0,0,0,0,0,-1,832,652,-7.64337,-0.173019
-385,372,-6.48871,-0.0271606,0,0,0,0,0,0,0,-1,839,652,-6.48874,0.0271353
-378,372,-5.33044,-0.242432,0,0,0,0,0,0,0,-1,846,652,-5.33042,0.242457
-371,372,-4.40802,-0.495667,0,0,0,0,0,0,0,-1,853,652,-4.40802,0.495661
-364,372,0,0,0,0,0,0,0,0,0,-1,860,652,0,0
-357,372,0,0,0,0,0,0,0,0,0,-1,867,652,0,0
-350,372,0,0,0,0,0,0,0,0,0,-1,874,652,0,0
-343,372,0,0,0,0,0,0,0,0,0,-1,881,652,0,0
-336,372,0,0,0,0,0,0,0,0,0,-1,888,652,0,0
-329,372,0,0,0,0,0,0,0,0,0,-1,895,652,0,0
-322,372,0,0,0,0,0,0,0,0,0,-1,902,652,0,0
-315,372,0,0,0,0,0,0,0,0,0,-1,909,652,0,0
-308,372,0,0,0,0,0,0,0,0,0,-1,916,652,0,0
-301,372,0,0,0,0,0,0,0,0,0,-1,923,652,0,0
-294,372,0,0,0,0,0,0,0,0,0,-1,930,652,0,0
-287,372,0,0,0,0,0,0,0,0,0,-1,937,652,0,0
-280,372,0,0,0,0,0,0,0,0,0,-1,944,652,0,0
-273,372,0,0,0,0,0,0,0,0,0,-1,951,652,0,0
-266,372,0,0,0,0,0,0,0,0,0,-1,958,652,0,0
-259,372,0,0,0,0,0,0,0,0,0,-1,965,652,0,0
-252,372,0,0,0,0,0,0,0,0,0,-1,972,652,0,0
-245,372,0,0,0,0,0,0,0,0,0,-1,979,652,0,0
-238,372,0,0,0,0,0,0,0,0,0,-1,986,652,0,0
-231,372,0,0,0,0,0,0,0,0,0,-1,993,652,0,0
-224,372,0,0,0,0,0,0,0,0,0,-1,1000,652,0,0
-217,372,0,0,0,0,0,0,0,0,0,-1,1007,652,0,0
-210,372,0,0,0,0,0,0,0,0,0,-1,1014,652,0,0
-203,372,0,0,0,0,0,0,0,0,0,-1,1021,652,0,0
-196,372,0,0,0,0,0,0,0,0,0,-1,1028,652,0,0
-189,372,0,0,0,0,0,0,0,0,0,-1,1035,652,0,0
-182,372,0,0,0,0,0,0,0,0,0,-1,1042,652,0,0
-175,372,0,0,0,0,0,0,0,0,0,-1,1049,652,0,0
-168,372,0,0,0,0,0,0,0,0,0,-1,1056,652,0,0
-161,372,0,0,0,0,0,0,0,0,0,-1,1063,652,0,0
-154,372,0,0,0,0,0,0,0,0,0,-1,1070,652,0,0
-147,372,0,0,0,0,0,0,0,0,0,-1,1077,652,0,0
-140,372,0,0,0,0,0,0,0,0,0,-1,1084,652,0,0
-133,372,0,0,0,0,0,0,0,0,0,-1,1091,652,0,0
-126,372,0,0,0,0,0,0,0,0,0,-1,1098,652,0,0
-119,372,0,0,0,0,0,0,0,0,0,-1,1105,652,0,0
-112,372,0,0,0,0,0,0,0,0,0,-1,1112,652,0,0
-105,372,0,0,0,0,0,0,0,0,0,-1,1119,652,0,0
-98,372,0,0,0,0,0,0,0,0,0,-1,1126,652,0,0
-91,372,0,0,0,0,0,0,0,0,0,-1,1133,652,0,0
-84,372,0,0,0,0,0,0,0,0,0,-1,1140,652,0,0
-77,372,0,0,0,0,0,0,0,0,0,-1,1147,652,0,0
-70,372,0,0,0,0,0,0,0,0,0,-1,1154,652,0,0
-63,372,0,0,0,0,0,0,0,0,0,-1,1161,652,0,0
-56,372,0,0,0,0,0,0,0,0,0,-1,1168,652,0,0
-49,372,0,0,0,0,0,0,0,0,0,-1,1175,652,0,0
-42,372,0,0,0,0,0,0,0,0,0,-1,1182,652,0,0
-35,372,0,0,0,0,0,0,0,0,0,-1,1189,652,0,0
-28,372,0,0,0,0,0,0,0,0,0,-1,1196,652,0,0
-21,372,0,0,0,0,0,0,0,0,0,-1,1203,652,0,0
-14,372,0,0,0,0,0,0,0,0,0,-1,1210,652,0,0
-7,372,0,0,0,0,0,0,0,0,0,-1,1217,652,0,0
0,372,0,0,0,0,0,0,0,0,0,-1,1224,652,0,0
7,372,0,0,0,0,0,0,0,0,0,-1,1231,652,0,0
14,372,0,0,0,0,0,0,0,0,0,-1,1238,652,0,0
21,372,0,0,0,0,0,0,0,0,0,-1,1245,652,0,0
28,372,0,0,0,0,0,0,0,0,0,-1,1252,652,0,0
35,372,0,0,0,0,0,0,0,0,0,-1,1259,652,0,0
42,372,0,0,0,0,0,0,0,0,0,-1,1266,652,0,0
49,372,0,0,0,0,0,0,0,0,0,-1,1273,652,0,0
56,372,0,0,0,0,0,0,0,0,0,-1,1280,652,0,0
63,372,0,0,0,0,0,0,0,0,0,-1,1287,652,0,0
70,372,0,0,0,0,0,0,0,0,0,-1,1294,652,0,0
77,372,0,0,0,0,0,0,0,0,0,-1,1301,652,0,0
84,372,0,0,0,0,0,0,0,0,0,-1,1308,652,0,0
91,372,0,0,0,0,0,0,0,0,0,-1,1315,652,0,0
98,372,0,0,0,0,0,0,0,0,0,-1,1322,652,0,0
105,372,0,0,0,0,0,0,0,0,0,-1,1329,652,0,0
112,372,0,0,0,0,0,0,0,0,0,-1,1336,652,0,0
119,372,0,0,0,0,0,0,0,0,0,-1,1343,652,0,0
126,372,0,0,0,0,0,0,0,0,0,-1,1350,652,0,0
133,372,0,0,0,0,0,0,0,0,0,-1,1357,652,0,0
140,372,0,0,0,0,0,0,0,0,0,-1,1364,652,0,0
147,372,0,0,0,0,0,0,0,0,0,-1,1371,652,0,0
154,372,0,0,0,0,0,0,0,0,0,-1,1378,652,0,0
161,372,0,0,0,0,0,0,0,0,0,-1,1385,652,0,0
168,372,0,0,0,0,0,0,0,0,0,-1,1392,652,0,0
175,372,0,0,0,0,0,0,0,0,0,-1,1399,652,0,0
182,372,0,0,0,0,0,0,0,0,0,-1,1406,652,0,0
189,372,0,0,0,0,0,0,0,0,0,-1,1413,652,0,0
196,372,0,0,0,0,0,0,0,0,0,-1,1420,652,0,0
203,372,0,0,0,0,0,0,0,0,0,-1,1427,652,0,0
210,372,0,0,0,0,0,0,0,0,0,-1,1434,652,0,0
217,372,0,0,0,0,0,0,0,0,0,-1,1441,652,0,0
224,372,0,0,0,0,0,0,0,0,0,-1,1448,652,0,0
231,372,0,0,0,0,0,0,0,0,0,-1,1455,652,0,0
238,372,0,0,0,0,0,0,0,0,0,-1,1462,652,0,0
245,372,0,0,0,0,0,0,0,0,0,-1,1469,652,0,0
252,372,0,0,0,0,0,0,0,0,0,-1,1476,652,0,0
259,372,0,0,0,0,0,0,0,0,0,-1,1483,652,0,0
266,372,0,0,0,0,0,0,0,0,0,-1,1490,652,0,0
273,372,0,0,0,0,0,0,0,0,0,-1,1497,652,0,0
280,372,0,0,0,0,0,0,0,0,0,-1,1504,652,0,0
287,372,0,0,0,0,0,0,0,0,0,-1,1511,652,0,0
294,372,0,0,0,0,0,0,0,0,0,-1,1518,652,0,0
301,372,0,0,0,0,0,0,0,0,0,-1,1525,652,0,0
308,372,0,0,0,0,0,0,0,0,0,-1,1532,652,0,0
315,372,0,0,0,0,0,0,0,0,0,-1,1539,652,0,0
322,372,0,0,0,0,0,0,0,0,0,-1,1546,652,0,0
329,372,0,0,0,0,0,0,0,0,0,-1,1553,652,0,0
336,372,0,0,0,0,0,0,0,0,0,-1,1560,652,0,0
343,372,0,0,0,0,0,0,0,0,0,-1,1567,652,0,0
350,372,0,0,0,0,0,0,0,0,0,-1,1574,652,0,0
357,372,0,0,0,0,0,0,0,0,0,-1,1581,652,0,0
364,372,0,0,0,0,0,0,0,0,0,-1,1588,652,0,0
371,372,0,0,0,0,0,0,0,0,0,-1,1595,652,0,0
378,372,0,0,0,0,0,0,0,0,0,-1,1602,652,0,0
385,372,0,0,0,0,0,0,0,0,0,-1,1609,652,0,0
392,372,0,0,0,0,0,0,0,0,0,-1,1616,652,0,0
399,372,0,0,0,0,0,0,0,0,0,-1,1623,652,0,0
406,372,0,0,0,0,0,0,0,0,0,-1,1630,652,0,0
413,372,0,0,0,0,0,0,0,0,0,-1,1637,652,0,0
420,372,0,0,0,0,0,0,0,0,0,-1,1644,652,0,0
427,372,0,0,0,0,0,0,0,0,0,-1,1651,652,0,0
434,372,0,0,0,0,0,0,0,0,0,-1,1658,652,0,0
441,372,0,0,0,0,0,0,0,0,0,-1,1665,652,0,0
448,372,0,0,0,0,0,0,0,0,0,-1,1672,652,0,0
455,372,0,0,0,0,0,0,0,0,0,-1,1679,652,0,0
462,372,0,0,0,0,0,0,0,0,0,-1,1686,652,0,0
469,372,0,0,0,0,0,0,0,0,0,-1,1693,652,0,0
476,372,0,0,0,0,0,0,0,0,0,-1,1700,652,0,0
483,372,8.74182,1.53125,0,0,0,0,0,0,0,-1,1707,652,8.74186,-1.53126
490,372,9.78455,1.67096,0,0,0,0,0,0,0,-1,1714,652,9.7846,-1.67093
497,372,9.97644,1.46069,0,0,0,0,0,0,0,-1,1721,652,9.97647,-1.46071
504,372,10.1216,1.28375,0,0,0,0,0,0,0,-1,1728,652,10.1216,-1.28376
511,372,11.7367,-0.0272217,0,0,0,0,0,0,0,-1,1735,652,11.7367,0.0272326
518,372,12.0657,-0.0995483,0,0,0,0,0,0,0,-1,1742,652,12.0657,0.0995285
525,372,12.3947,-0.171814,0,0,0,0,0,0,0,-1,1749,652,12.3946,0.171824
532,372,9.36597,1.72034,0,0,0,0,0,0,0,-1,1756,652,9.36597,-1.72036
539,372,7.82886,-0.0865479,0,0,0,0,0,0,0,-1,1763,652,7.82882,0.0865771
546,372,10.953,-0.187195,0,0,0,0,0,0,0,-1,1770,652,10.953,0.187181
553,372,14.1201,-4.83234,0,0,0,0,0,0,0,-1,1777,652,14.1201,4.83235
560,372,20.1057,-8.06934,0,0,0,0,0,0,0,-1,1784,652,20.1058,8.06936
567,372,28.8912,-13.2118,0,0,0,0,0,0,0,-1,1791,652,28.8912,13.2118
574,372,28.8567,-12.238,0.00122985,7.59865e-05,-0.000840754,0.00167258,-0.000366748,-0.484694,0.00125529,0.0439101,1798,652,28.8567,12.238
581,372,28.8318,-11.6013,0.000827226,1.84137e-05,-0.000753108,0.00127764,-0.000431999,-0.539001,0.00102652,0.0226708,1805,652,28.8317,11.6012
588,372,28.7695,-10.8588,0.000743902,4.90399e-05,-0.0005032,0.00100796,-0.000215018,-0.483256,0.000753936,0.0171377,1812,652,28.7695,10.8587
595,372,28.7181,-10.112,0.000919884,0.000394704,-0.000113065,0.000943191,0.000371397,-0.203292,0.000548633,0.0146162,1819,652,28.7181,10.112
602,372,28.7362,-9.39557,0.00132113,0.000891043,0.000419137,0.00157717,0.000635004,0.548374,0.000916319,0.0157448,1826,652,28.7362,9.39556
609,372,28.6494,-8.65863,0.00182669,0.00150614,0.00102008,0.00269901,0.000633818,0.707474,0.00162968,0.0165173,1833,652,28.6494,8.65864
616,372,28.5996,-7.89362,0.00247584,0.00223226,0.00170698,0.00406537,0.000642734,0.749785,0.00252343,0.0154877,1840,652,28.5996,7.89359
623,372,28.5942,-7.10687,0.00330922,0.00307779,0.00253713,0.00573328,0.000653732,0.76261,0.00362398,0.0133248,1847,652,28.5943,7.10688
630,372,28.5869,-6.35114,0.00421872,0.00396013,0.00341965,0.00751152,0.000667329,0.766503,0.00480072,0.0174154,1854,652,28.587,6.35111
637,372,28.5841,-5.63916,0.00516877,0.00492435,0.00435778,0.00940605,0.000687065,0.77138,0.00605469,0.0284592,1861,652,28.5841,5.63919
644,372,28.7277,-4.88281,0,0,0,0,0,0,0,-1,1868,652,28.7277,4.8828
651,372,21.3998,-0.888,0,0,0,0,0,0,0,-1,1875,652,21.3998,0.887992
658,372,14.157,0.280273,0,0,0,0,0,0,0,-1,1882,652,14.157,-0.280264
665,372,15.2286,0.463867,0,0,0,0,0,0,0,-1,1889,652,15.2287,-0.463854
672,372,9.34106,1.48444,0,0,0,0,0,0,0,-1,1896,652,9.34109,-1.48444
679,372,10.7308,2.32391,0,0,0,0,0,0,0,-1,1903,652,10.7309,-2.3239
686,372,11.6295,2.52997,0,0,0,0,0,0,0,-1,1910,652,11.6296,-2.52996
693,372,0,0,0,0,0,0,0,0,0,-1,1917,652,0,0
700,372,0,0,0,0,0,0,0,0,0,-1,1924,652,0,0
707,372,0,0,0,0,0,0,0,0,0,-1,1931,652,0,0
714,372,0,0,0,0,0,0,0,0,0,-1,1938,652,0,0
721,372,0,0,0,0,0,0,0,0,0,-1,1945,652,0,0
728,372,0,0,0,0,0,0,0,0,0,-1,1952,652,0,0
735,372,0,0,0,0,0,0,0,0,0,-1,1959,652,0,0
742,372,0,0,0,0,0,0,0,0,0,-1,1966,652,0,0
749,372,0,0,0,0,0,0,0,0,0,-1,1973,652,0,0
756,372,0,0,0,0,0,0,0,0,0,-1,1980,652,0,0
763,372,0,0,0,0,0,0,0,0,0,-1,1987,652,0,0
770,372,0,0,0,0,0,0,0,0,0,-1,1994,652,0,0
777,372,0,0,0,0,0,0,0,0,0,-1,2001,652,0,0
784,372,0,0,0,0,0,0,0,0,0,-1,2008,652,0,0
791,372,0,0,0,0,0,0,0,0,0,-1,2015,652,0,0
798,372,0,0,0,0,0,0,0,0,0,-1,2022,652,0,0
805,372,0,0,0,0,0,0,0,0,0,-1,2029,652,0,0
812,372,0,0,0,0,0,0,0,0,0,-1,2036,652,0,0
-700,365,0,0,0,0,0,0,0,0,0,-1,524,659,0,0
-693,365,0,0,0,0,0,0,0,0,0,-1,531,659,0,0
-686,365,0,0,0,0,0,0,0,0,0,-1,538,659,0,0
-679,365,0,0,0,0,0,0,0,0,0,-1,545,659,0,0
-672,365,0,0,0,0,0,0,0,0,0,-1,552,659,0,0
-665,365,0,0,0,0,0,0,0,0,0,-1,559,659,0,0
-658,365,0,0,0,0,0,0,0,0,0,-1,566,659,0,0
-651,365,0,0,0,0,0,0,0,0,0,-1,573,659,0,0
-644,365,0,0,0,0,0,0,0,0,0,-1,580,659,0,0
-637,365,0,0,0,0,0,0,0,0,0,-1,587,659,0,0
-630,365,0,0,0,0,0,0,0,0,0,-1,594,659,0,0
-623,365,0,0,0,0,0,0,0,0,0,-1,601,659,0,0
-616,365,0,0,0,0,0,0,0,0,0,-1,608,659,0,0
-609,365,0,0,0,0,0,0,0,0,0,-1,615,659,0,0
-602,365,0,0,0,0,0,0,0,0,0,-1,622,659,0,0
-595,365,0,0,0,0,0,0,0,0,0,-1,629,659,0,0
-588,365,0,0,0,0,0,0,0,0,0,-1,636,659,0,0
-581,365,0,0,0,0,0,0,0,0,0,-1,643,659,0,0
-574,365,-7.69281,1.59015,0,0,0,0,0,0,0,-1,650,659,-7.69282,-1.59018
-567,365,-8.2583,1.72638,0,0,0,0,0,0,0,-1,657,659,-8.25827,-1.72637
-560,365,-7.17767,0.275757,0,0,0,0,0,0,0,-1,664,659,-7.17768,-0.27577
-553,365,-10.0349,-0.169617,0,0,0,0,0,0,0,-1,671,659,-10.0349,0.169593
-546,365,-10.6303,-1.51642,0,0,0,0,0,0,0,-1,678,659,-10.6303,1.5164
-539,365,-8.38599,1.52936,0,0,0,0,0,0,0,-1,685,659,-8.38598,-1.52935
-532,365,-8.52863,0.166504,0,0,0,0,0,0,0,-1,692,659,-8.52863,-0.166501
-525,365,-9.28229,-2.62726,0,0,0,0,0,0,0,-1,699,659,-9.28227,2.62724
-518,365,-16.5314,-6.20093,0,0,0,0,0,0,0,-1,706,659,-16.5315,6.20096
-511,365,-16.5513,-7.02472,0.00319987,0.00106634,-0.00105544,0.00363375,0.000632459,-0.390031,0.00224162,0.0383508,713,659,-16.5513,7.02472
-504,365,-16.5289,-7.74884,0.00258236,0.000866198,-0.000921696,0.00298357,0.000464983,-0.410563,0.0018536,0.0129787,720,659,-16.5289,7.74885
-497,365,-16.55,-8.49121,0.00210645,0.000592269,-0.000772671,0.00243112,0.000267598,-0.397792,0.00153932,0.0127935,727,659,-16.55,8.49121
-490,365,-16.6031,-9.21863,0.00182012,0.000454034,-0.000771762,0.00216769,0.000106463,-0.423153,0.00141098,0.0144769,734,659,-16.6031,9.21863
-483,365,-16.6494,-9.9184,0.00171682,0.000364219,-0.00080046,0.00208843,-7.39284e-06,-0.434639,0.00139476,0.0138411,741,659,-16.6493,9.91839
-476,365,-16.63,-10.6318,0.00179949,0.000354989,-0.000917574,0.00224496,-9.04883e-05,-0.451977,0.0015277,0.0176458,748,659,-16.63,10.6319
-469,365,-16.6877,-11.3619,0.00200717,0.000435137,-0.0011253,0.00259379,-0.000151478,-0.48054,0.00178183,0.0180469,755,659,-16.6877,11.3619
-462,365,-16.7491,-12.0775,0.00227281,0.000534227,-0.00131797,0.00298235,-0.000175314,-0.493862,0.00204917,0.0149451,762,659,-16.7491,12.0775
-455,365,-16.779,-12.7965,0.00268382,0.000427721,-0.00150098,0.00343339,-0.000321848,-0.463155,0.0024034,0.017154,769,659,-16.779,12.7965
-448,365,-16.6863,-13.6631,0.00318828,0.000432456,-0.00171955,0.00401389,-0.000393149,-0.447625,0.00281614,0.0467294,776,659,-16.6864,13.6632
-441,365,-16.3874,-14.6569,0,0,0,0,0,0,0,-1,783,659,-16.3874,14.6569
-434,365,-5.45056,-3.98041,0,0,0,0,0,0,0,-1,790,659,-5.45055,3.98042
-427,365,-5.05377,-4.74689,0,0,0,0,0,0,0,-1,797,659,-5.05376,4.7469
-420,365,-4.58813,-3.16376,0,0,0,0,0,0,0,-1,804,659,-4.58816,3.16374
-413,365,0.141357,0.672729,0,0,0,0,0,0,0,-1,811,659,0.141365,-0.672714
-406,365,-1.75067,-0.934448,0,0,0,0,0,0,0,-1,818,659,-1.7507,0.934424
-399,365,-4.10242,-1.25439,0,0,0,0,0,0,0,-1,825,659,-4.10244,1.25438
-392,365,-7.46545,-0.779724,0,0,0,0,0,0,0,-1,832,659,-7.46543,0.779744
-385,365,-6.27875,-0.887573,0,0,0,0,0,0,0,-1,839,659,-6.27874,0.887545
-378,365,-5.34503,-0.263306,0,0,0,0,0,0,0,-1,846,659,-5.34504,0.263275
-371,365,0,0,0,0,0,0,0,0,0,-1,853,659,0,0
-364,365,0,0,0,0,0,0,0,0,0,-1,860,659,0,0
-357,365,0,0,0,0,0,0,0,0,0,-1,867,659,0,0
-350,365,0,0,0,0,0,0,0,0,0,-1,874,659,0,0
-343,365,0,0,0,0,0,0,0,0,0,-1,881,659,0,0
-336,365,0,0,0,0,0,0,0,0,0,-1,888,659,0,0
-329,365,0,0,0,0,0,0,0,0,0,-1,895,659,0,0
-322,365,0,0,0,0,0,0,0,0,0,-1,902,659,0,0
-315,365,0,0,0,0,0,0,0,0,0,-1,909,659,0,0
-308,365,0,0,0,0,0,0,0,0,0,-1,916,659,0,0
-301,365,0,0,0,0,0,0,0,0,0,-1,923,659,0,0
-294,365,0,0,0,0,0,0,0,0,0,-1,930,659,0,0
-287,365,0,0,0,0,0,0,0,0,0,-1,937,659,0,0
-280,365,0,0,0,0,0,0,0,0,0,-1,944,659,0,0
-273,365,0,0,0,0,0,0,0,0,0,-1,951,659,0,0
-266,365,0,0,0,0,0,0,0,0,0,-1,958,659,0,0
-259,365,0,0,0,0,0,0,0,0,0,-1,965,659,0,0
-252,365,0,0,0,0,0,0,0,0,0,-1,972,659,0,0
-245,365,0,0,0,0,0,0,0,0,0,-1,979,659,0,0
-238,365,0,0,0,0,0,0,0,0,0,-1,986,659,0,0
-231,365,0,0,0,0,0,0,0,0,0,-1,993,659,0,0
-224,365,0,0,0,0,0,0,0,0,0,-1,1000,659,0,0
-217,365,0,0,0,0,0,0,0,0,0,-1,1007,659,0,0
-210,365,0,0,0,0,0,0,0,0,0,-1,1014,659,0,0
-203,365,0,0,0,0,0,0,0,0,0,-1,1021,659,0,0
-196,365,0,0,0,0,0,0,0,0,0,-1,1028,659,0,0
-189,365,0,0,0,0,0,0,0,0,0,-1,1035,659,0,0
-182,365,0,0,0,0,0,0,0,0,0,-1,1042,659,0,0
-175,365,0,0,0,0,0,0,0,0,0,-1,1049,659,0,0
-168,365,0,0,0,0,0,0,0,0,0,-1,1056,659,0,0
-161,365,0,0,0,0,0,0,0,0,0,-1,1063,659,0,0
-154,365,0,0,0,0,0,0,0,0,0,-1,1070,659,0,0
-147,365,0,0,0,0,0,0,0,0,0,-1,1077,659,0,0
-140,365,0,0,0,0,0,0,0,0,0,-1,1084,659,0,0
-133,365,0,0,0,0,0,0,0,0,0,-1,1091,659,0,0
-126,365,0,0,0,0,0,0,0,0,0,-1,1098,659,0,0
-119,365,0,0,0,0,0,0,0,0,0,-1,1105,659,0,0
-112,365,0,0,0,0,0,0,0,0,0,-1,1112,659,0,0
-105,365,0,0,0,0,0,0,0,0,0,-1,1119,659,0,0
-98,365,0,0,0,0,0,0,0,0,0,-1,1126,659,0,0
-91,365,0,0,0,0,0,0,0,0,0,-1,1133,659,0,0
-84,365,0,0,0,0,0,0,0,0,0,-1,1140,659,0,0
-77,365,0,0,0,0,0,0,0,0,0,-1,1147,659,0,0
-70,365,0,0,0,0,0,0,0,0,0,-1,1154,659,0,0
-63,365,0,0,0,0,0,0,0,0,0,-1,1161,659,0,0
-56,365,0,0,0,0,0,0,0,0,0,-1,1168,659,0,0
-49,365,0,0,0,0,0,0,0,0,0,-1,1175,659,0,0
-42,365,0,0,0,0,0,0,0,0,0,-1,1182,659,0,0
-35,365,0,0,0,0,0,0,0,0,0,-1,1189,659,0,0
-28,365,0,0,0,0,0,0,0,0,0,-1,1196,659,0,0
-21,365,0,0,0,0,0,0,0,0,0,-1,1203,659,0,0
-14,365,0,0,0,0,0,0,0,0,0,-1,1210,659,0,0
-7,365,0,0,0,0,0,0,0,0,0,-1,1217,659,0,0
0,365,0,0,0,0,0,0,0,0,0,-1,1224,659,0,0
7,365,0,0,0,0,0,0,0,0,0,-1,1231,659,0,0
14,365,0,0,0,0,0,0,0,0,0,-1,1238,659,0,0
21,365,0,0,0,0,0,0,0,0,0,-1,1245,659,0,0
28,365,0,0,0,0,0,0,0,0,0,-1,1252,659,0,0
35,365,0,0,0,0,0,0,0,0,0,-1,1259,659,0,0
42,365,0,0,0,0,0,0,0,0,0,-1,1266,659,0,0
49,365,0,0,0,0,0,0,0,0,0,-1,1273,659,0,0
56,365,0,0,0,0,0,0,0,0,0,-1,1280,659,0,0
63,365,0,0,0,0,0,0,0,0,0,-1,1287,659,0,0
70,365,0,0,0,0,0,0,0,0,0,-1,1294,659,0,0
77,365,0,0,0,0,0,0,0,0,0,-1,1301,659,0,0
84,365,0,0,0,0,0,0,0,0,0,-1,1308,659,0,0
91,365,0,0,0,0,0,0,0,0,0,-1,1315,659,0,0
98,365,0,0,0,0,0,0,0,0,0,-1,1322,659,0,0
105,365,0,0,0,0,0,0,0,0,0,-1,1329,659,0,0
112,365,0,0,0,0,0,0,0,0,0,-1,1336,659,0,0
119,365,0,0,0,0,0,0,0,0,0,-1,1343,659,0,0
126,365,0,0,0,0,0,0,0,0,0,-1,1350,659,0,0
133,365,0,0,0,0,0,0,0,0,0,-1,1357,659,0,0
140,365,0,0,0,0,0,0,0,0,0,-1,1364,659,0,0
147,365,0,0,0,0,0,0,0,0,0,-1,1371,659,0,0
154,365,0,0,0,0,0,0,0,0,0,-1,1378,659,0,0
161,365,0,0,0,0,0,0,0,0,0,-1,1385,659,0,0
168,365,0,0,0,0,0,0,0,0,0,-1,1392,659,0,0
175,365,0,0,0,0,0,0,0,0,0,-1,1399,659,0,0
182,365,0,0,0,0,0,0,0,0,0,-1,1406,659,0,0
189,365,0,0,0,0,0,0,0,0,0,-1,1413,659,0,0
196,365,0,0,0,0,0,0,0,0,0,-1,1420,659,0,0
203,365,0,0,0,0,0,0,0,0,0,-1,1427,659,0,0
210,365,0,0,0,0,0,0,0,0,0,-1,1434,659,0,0
217,365,0,0,0,0,0,0,0,0,0,-1,1441,659,0,0
224,365,0,0,0,0,0,0,0,0,0,-1,1448,659,0,0
231,365,0,0,0,0,0,0,0,0,0,-1,1455,659,0,0
238,365,0,0,0,0,0,0,0,0,0,-1,1462,659,0,0
245,365,0,0,0,0,0,0,0,0,0,-1,1469,659,0,0
252,365,0,0,0,0,0,0,0,0,0,-1,1476,659,0,0
259,365,0,0,0,0,0,0,0,0,0,-1,1483,659,0,0
266,365,0,0,0,0,0,0,0,0,0,-1,1490,659,0,0
273,365,0,0,0,0,0,0,0,0,0,-1,1497,659,0,0
280,365,0,0,0,0,0,0,0,0,0,-1,1504,659,0,0
287,365,0,0,0,0,0,0,0,0,0,-1,1511,659,0,0
294,365,0,0,0,0,0,0,0,0,0,-1,1518,659,0,0
301,365,0,0,0,0,0,0,0,0,0,-1,1525,659,0,0
308,365,0,0,0,0,0,0,0,0,0,-1,1532,659,0,0
315,365,0,0,0,0,0,0,0,0,0,-1,1539,659,0,0
322,365,0,0,0,0,0,0,0,0,0,-1,1546,659,0,0
329,365,0,0,0,0,0,0,0,0,0,-1,1553,659,0,0
336,365,0,0,0,0,0,0,0,0,0,-1,1560,659,0,0
343,365,0,0,0,0,0,0,0,0,0,-1,1567,659,0,0
350,365,0,0,0,0,0,0,0,0,0,-1,1574,659,0,0
357,365,0,0,0,0,0,0,0,0,0,-1,1581,659,0,0
364,365,0,0,0,0,0,0,0,0,0,-1,1588,659,0,0
371,365,0,0,0,0,0,0,0,0,0,-1,1595,659,0,0
378,365,0,0,0,0,0,0,0,0,0,-1,1602,659,0,0
385,365,0,0,0,0,0,0,0,0,0,-1,1609,659,0,0
392,365,0,0,0,0,0,0,0,0,0,-1,1616,659,0,0
399,365,0,0,0,0,0,0,0,0,0,-1,1623,659,0,0
406,365,0,0,0,0,0,0,0,0,0,-1,1630,659,0,0
413,365,0,0,0,0,0,0,0,0,0,-1,1637,659,0,0
420,365,0,0,0,0,0,0,0,0,0,-1,1644,659,0,0
427,365,0,0,0,0,0,0,0,0,0,-1,1651,659,0,0
434,365,0,0,0,0,0,0,0,0,0,-1,1658,659,0,0
441,365,0,0,0,0,0,0,0,0,0,-1,1665,659,0,0
448,365,0,0,0,0,0,0,0,0,0,-1,1672,659,0,0
455,365,0,0,0,0,0,0,0,0,0,-1,1679,659,0,0
462,365,0,0,0,0,0,0,0,0,0,-1,1686,659,0,0
469,365,0,0,0,0,0,0,0,0,0,-1,1693,659,0,0
476,365,0,0,0,0,0,0,0,0,0,-1,1700,659,0,0
483,365,0,0,0,0,0,0,0,0,0,-1,1707,659,0,0
490,365,8.39551,0.471252,0,0,0,0,0,0,0,-1,1714,659,8.39551,-0.471241
497,365,9.89233,1.35394,0,0,0,0,0,0,0,-1,1721,659,9.89237,-1.35396
504,365,10.1414,1.18005,0,0,0,0,0,0,0,-1,1728,659,10.1413,-1.18004
511,365,10.5151,0.993896,0,0,0,0,0,0,0,-1,1735,659,10.5152,-0.993894
518,365,11.2029,0.398132,0,0,0,0,0,0,0,-1,1742,659,11.2029,-0.398136
525,365,15.5748,3.85303,0,0,0,0,0,0,0,-1,1749,659,15.5748,-3.85303
532,365,11.2446,1.00629,0,0,0,0,0,0,0,-1,1756,659,11.2446,-1.00631
539,365,12.6301,1.03204,0,0,0,0,0,0,0,-1,1763,659,12.6302,-1.03204
546,365,11.647,0.84198,0,0,0,0,0,0,0,-1,1770,659,11.6469,-0.841955
553,365,12.028,-0.558899,0,0,0,0,0,0,0,-1,1777,659,12.028,0.558873
560,365,14.5372,-4.55548,0,0,0,0,0,0,0,-1,1784,659,14.5373,4.55547
567,365,20.5676,-7.53888,0,0,0,0,0,0,0,-1,1791,659,20.5676,7.53887
574,365,29.8699,-12.1203,0,0,0,0,0,0,0,-1,1798,659,29.8699,12.1203
581,365,29.4696,-11.718,0,0,0,0,0,0,0,-1,1805,659,29.4696,11.718
588,365,29.4834,-10.9018,0.000645296,-0.000330692,-0.000866571,0.00115183,-0.000837225,-0.528964,0.00115316,0.0254208,1812,659,29.4834,10.9018
595,365,29.4856,-10.0756,0.000727607,-1.35065e-05,-0.000506156,0.000984351,-0.00027025,-0.469425,0.000762453,0.013587,1819,659,29.4856,10.0756
602,365,29.45,-9.30005,0.00101639,0.000393078,-5.87382e-05,0.00102187,0.000387591,-0.0931436,0.000595682,0.0161632,1826,659,29.4499,9.30002
609,365,29.3546,-8.55487,0.00144333,0.000908309,0.000490037,0.00173412,0.000617521,0.535553,0.00101492,0.0171537,1833,659,29.3547,8.55487
616,365,29.3555,-7.80475,0.0019859,0.00149174,0.00110048,0.0028667,0.000610942,0.67497,0.00174354,0.0177956,1840,659,29.3554,7.80477
623,365,29.3623,-7.06824,0.0026803,0.00217923,0.00182071,0.00426763,0.000591903,0.717025,0.00266975,0.0121165,1847,659,29.3623,7.06827
630,365,29.302,-6.33563,0.00341781,0.00290579,0.00258493,0.00575938,0.000564217,0.736039,0.00366602,0.0160648,1854,659,29.302,6.33561
637,365,29.2637,-5.62537,0.00418278,0.00365236,0.0033652,0.0072932,0.000541938,0.746074,0.00469193,0.0229518,1861,659,29.2636,5.62534
644,365,29.2799,-4.87122,0.00497374,0.00453839,0.00423369,0.00899534,0.000516786,0.759713,0.00583227,0.0274087,1868,659,29.2799,4.87124
651,365,29.3535,-4.06818,0,0,0,0,0,0,0,-1,1875,659,29.3535,4.06817
658,365,24.745,-2.13275,0,0,0,0,0,0,0,-1,1882,659,24.745,2.13277
665,365,14.0961,0.769043,0,0,0,0,0,0,0,-1,1889,659,14.0961,-0.769063
672,365,10.0579,2.15088,0,0,0,0,0,0,0,-1,1896,659,10.0579,-2.15088
679,365,10.9718,2.19208,0,0,0,0,0,0,0,-1,1903,659,10.9718,-2.19211
686,365,12.2134,2.17108,0,0,0,0,0,0,0,-1,1910,659,12.2134,-2.17109
693,365,13.7141,1.98279,0,0,0,0,0,0,0,-1,1917,659,13.7141,-1.98278
700,365,0,0,0,0,0,0,0,0,0,-1,1924,659,0,0
707,365,0,0,0,0,0,0,0,0,0,-1,1931,659,0,0
714,365,0,0,0,0,0,0,0,0,0,-1,1938,659,0,0
721,365,0,0,0,0,0,0,0,0,0,-1,1945,659,0,0
728,365,0,0,0,0,0,0,0,0,0,-1,1952,659,0,0
735,365,0,0,0,0,0,0,0,0,0,-1,1959,659,0,0
742,365,0,0,0,0,0,0,0,0,0,-1,1966,659,0,0
749,365,0,0,0,0,0,0,0,0,0,-1,1973,659,0,0
756,365,0,0,0,0,0,0,0,0,0,-1,1980,659,0,0
763,365,0,0,0,0,0,0,0,0,0,-1,1987,659,0,0
770,365,0,0,0,0,0,0,0,0,0,-1,1994,659,0,0
777,365,0,0,0,0,0,0,0,0,0,-1,2001,659,0,0
784,365,0,0,0,0,0,0,0,0,0,-1,2008,659,0,0
791,365,0,0,0,0,0,0,0,0,0,-1,2015,659,0,0
798,365,0,0,0,0,0,0,0,0,0,-1,2022,659,0,0
805,365,0,0,0,0,0,0,0,0,0,-1,2029,659,0,0
812,365,0,0,0,0,0,0,0,0,0,-1,2036,659,0,0
-700,358,0,0,0,0,0,0,0,0,0,-1,524,666,0,0
-693,358,0,0,0,0,0,0,0,0,0,-1,531,666,0,0
-686,358,0,0,0,0,0,0,0,0,0,-1,538,666,0,0
-679,358,0,0,0,0,0,0,0,0,0,-1,545,666,0,0
-672,358,0,0,0,0,0,0,0,0,0,-1,552,666,0,0
-665,358,0,0,0,0,0,0,0,0,0,-1,559,666,0,0
-658,358,0,0,0,0,0,0,0,0,0,-1,566,666,0,0
-651,358,0,0,0,0,0,0,0,0,0,-1,573,666,0,0
-644,358,0,0,0,0,0,0,0,0,0,-1,580,666,0,0
-637,358,0,0,0,0,0,0,0,0,0,-1,587,666,0,0
-630,358,0,0,0,0,0,0,0,0,0,-1,594,666,0,0
-623,358,0,0,0,0,0,0,0,0,0,-1,601,666,0,0
-616,358,0,0,0,0,0,0,0,0,0,-1,608,666,0,0
-609,358,0,0,0,0,0,0,0,0,0,-1,615,666,0,0
-602,358,0,0,0,0,0,0,0,0,0,-1,622,666,0,0
-595,358,0,0,0,0,0,0,0,0,0,-1,629,666,0,0
-588,358,0,0,0,0,0,0,0,0,0,-1,636,666,0,0
-581,358,-8.31616,1.61993,0,0,0,0,0,0,0,-1,643,666,-8.31614,-1.61993
-574,358,-8.22406,1.75385,0,0,0,0,0,0,0,-1,650,666,-8.22408,-1.75383
-567,358,-8.14215,1.91577,0,0,0,0,0,0,0,-1,657,666,-8.14214,-1.91579
-560,358,-10.6086,2.18872,0,0,0,0,0,0,0,-1,664,666,-10.6086,-2.18873
-553,358,-13.4767,1.09552,0,0,0,0,0,0,0,-1,671,666,-13.4767,-1.09551
-546,358,-13.3743,-0.185059,0,0,0,0,0,0,0,-1,678,666,-13.3743,0.185037
-539,358,-9.43884,-2.04785,0,0,0,0,0,0,0,-1,685,666,-9.43884,2.04785
-532,358,-12.4141,-2.36572,0,0,0,0,0,0,0,-1,692,666,-12.4141,2.3657
-525,358,-12.731,-3.88031,0,0,0,0,0,0,0,-1,699,666,-12.731,3.88029
-518,358,-17.2255,-6.25116,0,0,0,0,0,0,0,-1,706,666,-17.2255,6.25118
-511,358,-17.239,-6.9837,0.00320937,0.000862905,-0.000872669,0.00349834,0.000573939,-0.319765,0.00216641,0.0180249,713,666,-17.2389,6.98373
-504,358,-17.2552,-7.70532,0.00259622,0.000626269,-0.000741412,0.00284407,0.000378415,-0.32262,0.00178334,0.0133171,720,666,-17.2552,7.70531
-497,358,-17.2717,-8.4455,0.00216509,0.000400004,-0.00063858,0.00237189,0.000193205,-0.313184,0.00152096,0.0121558,727,666,-17.2717,8.44547
-490,358,-17.3151,-9.16644,0.00187986,0.00029425,-0.000657704,0.00211716,5.69515e-05,-0.346263,0.00139284,0.0116785,734,666,-17.3151,9.16643
-483,358,-17.3808,-9.87872,0.00181255,0.000263542,-0.000728093,0.00210105,-2.49583e-05,-0.377261,0.00140909,0.0107805,741,666,-17.3808,9.87871
-476,358,-17.3583,-10.5781,0.00193756,0.000330381,-0.00090695,0.00234571,-7.7769e-05,-0.422875,0.00159037,0.0141477,748,666,-17.3584,10.5781
-469,358,-17.4157,-11.3029,0.00219581,0.000507967,-0.0012028,0.00282122,-0.00011744,-0.479488,0.00192116,0.0182677,755,666,-17.4157,11.3029
-462,358,-17.4908,-12.0496,0.00254691,0.000748203,-0.00150935,0.00340454,-0.000109423,-0.516715,0.00230703,0.0182759,762,666,-17.4909,12.0496
-455,358,-17.486,-12.816,0,0,0,0,0,0,0,-1,769,666,-17.486,12.816
-448,358,-17.2148,-13.9404,0,0,0,0,0,0,0,-1,776,666,-17.2149,13.9404
-441,358,-5.56293,-3.98041,0,0,0,0,0,0,0,-1,783,666,-5.56291,3.98043
-434,358,-5.21558,-4.43127,0,0,0,0,0,0,0,-1,790,666,-5.21559,4.43125
-427,358,-3.56189,-3.15729,0,0,0,0,0,0,0,-1,797,666,-3.56192,3.15729
-420,358,0.200195,1.08234,0,0,0,0,0,0,0,-1,804,666,0.200174,-1.08231
-413,358,0.0325317,0.161072,0,0,0,0,0,0,0,-1,811,666,0.0325501,-0.161098
-406,358,-3.85846,0.753113,0,0,0,0,0,0,0,-1,818,666,-3.85846,-0.753129
-399,358,-1.31213,0.190735,0,0,0,0,0,0,0,-1,825,666,-1.31215,-0.190763
-392,358,-3.73914,-0.832214,0,0,0,0,0,0,0,-1,832,666,-3.73915,0.832202
-385,358,-5.95178,-1.69141,0,0,0,0,0,0,0,-1,839,666,-5.9518,1.69143
-378,358,0,0,0,0,0,0,0,0,0,-1,846,666,0,0
-371,358,0,0,0,0,0,0,0,0,0,-1,853,666,0,0
-364,358,0,0,0,0,0,0,0,0,0,-1,860,666,0,0
-357,358,0,0,0,0,0,0,0,0,0,-1,867,666,0,0
-350,358,0,0,0,0,0,0,0,0,0,-1,874,666,0,0
-343,358,0,0,0,0,0,0,0,0,0,-1,881,666,0,0
-336,358,0,0,0,0,0,0,0,0,0,-1,888,666,0,0
-329,358,0,0,0,0,0,0,0,0,0,-1,895,666,0,0
-322,358,0,0,0,0,0,0,0,0,0,-1,902,666,0,0
-315,358,0,0,0,0,0,0,0,0,0,-1,909,666,0,0
-308,358,0,0,0,0,0,0,0,0,0,-1,916,666,0,0
-301,358,0,0,0,0,0,0,0,0,0,-1,923,666,0,0
-294,358,0,0,0,0,0,0,0,0,0,-1,930,666,0,0
-287,358,0,0,0,0,0,0,0,0,0,-1,937,666,0,0
-280,358,0,0,0,0,0,0,0,0,0,-1,944,666,0,0
-273,358,0,0,0,0,0,0,0,0,0,-1,951,666,0,0
-266,358,0,0,0,0,0,0,0,0,0,-1,958,666,0,0
-259,358,0,0,0,0,0,0,0,0,0,-1,965,666,0,0
-252,358,0,0,0,0,0,0,0,0,0,-1,972,666,0,0
-245,358,0,0,0,0,0,0,0,0,0,-1,979,666,0,0
-238,358,0,0,0,0,0,0,0,0,0,-1,986,666,0,0
-231,358,0,0,0,0,0,0,0,0,0,-1,993,666,0,0
-224,358,0,0,0,0,0,0,0,0,0,-1,1000,666,0,0
-217,358,0,0,0,0,0,0,0,0,0,-1,1007,666,0,0
-210,358,0,0,0,0,0,0,0,0,0,-1,1014,666,0,0
-203,358,0,0,0,0,0,0,0,0,0,-1,1021,666,0,0
-196,358,0,0,0,0,0,0,0,0,0,-1,1028,666,0,0
-189,358,0,0,0,0,0,0,0,0,0,-1,1035,666,0,0
-182,358,0,0,0,0,0,0,0,0,0,-1,1042,666,0,0
-175,358,0,0,0,0,0,0,0,0,0,-1,1049,666,0,0
-168,358,0,0,0,0,0,0,0,0,0,-1,1056,666,0,0
-161,358,0,0,0,0,0,0,0,0,0,-1,1063,666,0,0
-154,358,0,0,0,0,0,0,0,0,0,-1,1070,666,0,0
-147,358,0,0,0,0,0,0,0,0,0,-1,1077,666,0,0
-140,358,0,0,0,0,0,0,0,0,0,-1,1084,666,0,0
-133,358,0,0,0,0,0,0,0,0,0,-1,1091,666,0,0
-126,358,0,0,0,0,0,0,0,0,0,-1,1098,666,0,0
-119,358,0,0,0,0,0,0,0,0,0,-1,1105,666,0,0
-112,358,0,0,0,0,0,0,0,0,0,-1,1112,666,0,0
-105,358,0,0,0,0,0,0,0,0,0,-1,1119,666,0,0
-98,358,0,0,0,0,0,0,0,0,0,-1,1126,666,0,0
-91,358,0,0,0,0,0,0,0,0,0,-1,1133,666,0,0
-84,358,0,0,0,0,0,0,0,0,0,-1,1140,666,0,0
-77,358,0,0,0,0,0,0,0,0,0,-1,1147,666,0,0
-70,358,0,0,0,0,0,0,0,0,0,-1,1154,666,0,0
-63,358,0,0,0,0,0,0,0,0,0,-1,1161,666,0,0
-56,358,0,0,0,0,0,0,0,0,0,-1,1168,666,0,0
-49,358,0,0,0,0,0,0,0,0,0,-1,1175,666,0,0
-42,358,0,0,0,0,0,0,0,0,0,-1,1182,666,0,0
-35,358,0,0,0,0,0,0,0,0,0,-1,1189,666,0,0
-28,358,0,0,0,0,0,0,0,0,0,-1,1196,666,0,0
-21,358,0,0,0,0,0,0,0,0,0,-1,1203,666,0,0
-14,358,0,0,0,0,0,0,0,0,0,-1,1210,666,0,0
-7,358,0,0,0,0,0,0,0,0,0,-1,1217,666,0,0
0,358,0,0,0,0,0,0,0,0,0,-1,1224,666,0,0
7,358,0,0,0,0,0,0,0,0,0,-1,1231,666,0,0
14,358,0,0,0,0,0,0,0,0,0,-1,1238,666,0,0
21,358,0,0,0,0,0,0,0,0,0,-1,1245,666,0,0
28,358,0,0,0,0,0,0,0,0,0,-1,1252,666,0,0
35,358,0,0,0,0,0,0,0,0,0,-1,1259,666,0,0
42,358,0,0,0,0,0,0,0,0,0,-1,1266,666,0,0
49,358,0,0,0,0,0,0,0,0,0,-1,1273,666,0,0
56,358,0,0,0,0,0,0,0,0,0,-1,1280,666,0,0
63,358,0,0,0,0,0,0,0,0,0,-1,1287,666,0,0
70,358,0,0,0,0,0,0,0,0,0,-1,1294,666,0,0
77,358,0,0,0,0,0,0,0,0,0,-1,1301,666,0,0
84,358,0,0,0,0,0,0,0,0,0,-1,1308,666,0,0
91,358,0,0,0,0,0,0,0,0,0,-1,1315,666,0,0
98,358,0,0,0,0,0,0,0,0,0,-1,1322,666,0,0
105,358,0,0,0,0,0,0,0,0,0,-1,1329,666,0,0
112,358,0,0,0,0,0,0,0,0,0,-1,1336,666,0,0
119,358,0,0,0,0,0,0,0,0,0,-1,1343,666,0,0
126,358,0,0,0,0,0,0,0,0,0,-1,1350,666,0,0
133,358,0,0,0,0,0,0,0,0,0,-1,1357,666,0,0
140,358,0,0,0,0,0,0,0,0,0,-1,1364,666,0,0
147,358,0,0,0,0,0,0,0,0,0,-1,1371,666,0,0
154,358,0,0,0,0,0,0,0,0,0,-1,1378,666,0,0
161,358,0,0,0,0,0,0,0,0,0,-1,1385,666,0,0
168,358,0,0,0,0,0,0,0,0,0,-1,1392,666,0,0
175,358,0,0,0,0,0,0,0,0,0,-1,1399,666,0,0
182,358,0,0,0,0,0,0,0,0,0,-1,1406,666,0,0
189,358,0,0,0,0,0,0,0,0,0,-1,1413,666,0,0
196,358,0,0,0,0,0,0,0,0,0,-1,1420,666,0,0
203,358,0,0,0,0,0,0,0,0,0,-1,1427,666,0,0
210,358,0,0,0,0,0,0,0,0,0,-1,1434,666,0,0
217,358,0,0,0,0,0,0,0,0,0,-1,1441,666,0,0
224,358,0,0,0,0,0,0,0,0,0,-1,1448,666,0,0
231,358,0,0,0,0,0,0,0,0,0,-1,1455,666,0,0
238,358,0,0,0,0,0,0,0,0,0,-1,1462,666,0,0
245,358,0,0,0,0,0,0,0,0,0,-1,1469,666,0,0
252,358,0,0,0,0,0,0,0,0,0,-1,1476,666,0,0
259,358,0,0,0,0,0,0,0,0,0,-1,1483,666,0,0
266,358,0,0,0,0,0,0,0,0,0,-1,1490,666,0,0
273,358,0,0,0,0,0,0,0,0,0,-1,1497,666,0,0
280,358,0,0,0,0,0,0,0,0,0,-1,1504,666,0,0
287,358,0,0,0,0,0,0,0,0,0,-1,1511,666,0,0
294,358,0,0,0,0,0,0,0,0,0,-1,1518,666,0,0
301,358,0,0,0,0,0,0,0,0,0,-1,1525,666,0,0
308,358,0,0,0,0,0,0,0,0,0,-1,1532,666,0,0
315,358,0,0,0,0,0,0,0,0,0,-1,1539,666,0,0
322,358,0,0,0,0,0,0,0,0,0,-1,1546,666,0,0
329,358,0,0,0,0,0,0,0,0,0,-1,1553,666,0,0
336,358,0,0,0,0,0,0,0,0,0,-1,1560,666,0,0
343,358,0,0,0,0,0,0,0,0,0,-1,1567,666,0,0
350,358,0,0,0,0,0,0,0,0,0,-1,1574,666,0,0
357,358,0,0,0,0,0,0,0,0,0,-1,1581,666,0,0
364,358,0,0,0,0,0,0,0,0,0,-1,1588,666,0,0
371,358,0,0,0,0,0,0,0,0,0,-1,1595,666,0,0
378,358,0,0,0,0,0,0,0,0,0,-1,1602,666,0,0
385,358,0,0,0,0,0,0,0,0,0,-1,1609,666,0,0
392,358,0,0,0,0,0,0,0,0,0,-1,1616,666,0,0
399,358,0,0,0,0,0,0,0,0,0,-1,1623,666,0,0
406,358,0,0,0,0,0,0,0,0,0,-1,1630,666,0,0
413,358,0,0,0,0,0,0,0,0,0,-1,1637,666,0,0
420,358,0,0,0,0,0,0,0,0,0,-1,1644,666,0,0
427,358,0,0,0,0,0,0,0,0,0,-1,1651,666,0,0
434,358,0,0,0,0,0,0,0,0,0,-1,1658,666,0,0
441,358,0,0,0,0,0,0,0,0,0,-1,1665,666,0,0
448,358,0,0,0,0,0,0,0,0,0,-1,1672,666,0,0
455,358,0,0,0,0,0,0,0,0,0,-1,1679,666,0,0
462,358,0,0,0,0,0,0,0,0,0,-1,1686,666,0,0
469,358,0,0,0,0,0,0,0,0,0,-1,1693,666,0,0
476,358,0,0,0,0,0,0,0,0,0,-1,1700,666,0,0
483,358,0,0,0,0,0,0,0,0,0,-1,1707,666,0,0
490,358,0,0,0,0,0,0,0,0,0,-1,1714,666,0,0
497,358,8.57239,1.1322,0,0,0,0,0,0,0,-1,1721,666,8.57234,-1.13219
504,358,10.5972,0.832947,0,0,0,0,0,0,0,-1,1728,666,10.5972,-0.832968
511,358,10.6873,0.868469,0,0,0,0,0,0,0,-1,1735,666,10.6872,-0.868484
518,358,16.5884,2.34894,0,0,0,0,0,0,0,-1,1742,666,16.5884,-2.34894
525,358,15.7626,3.65344,0,0,0,0,0,0,0,-1,1749,666,15.7626,-3.65342
532,358,14.9368,4.95789,0,0,0,0,0,0,0,-1,1756,666,14.9367,-4.9579
539,358,15.1597,3.42694,0,0,0,0,0,0,0,-1,1763,666,15.1597,-3.42692
546,358,12.3792,1.53558,0,0,0,0,0,0,0,-1,1770,666,12.3792,-1.5356
553,358,11.6584,1.26172,0,0,0,0,0,0,0,-1,1777,666,11.6585,-1.26175
560,358,10.8234,1.43042,0,0,0,0,0,0,0,-1,1784,666,10.8233,-1.43041
567,358,10.1333,-0.955139,0,0,0,0,0,0,0,-1,1791,666,10.1333,0.955132
574,358,14.7886,-2.69293,0,0,0,0,0,0,0,-1,1798,666,14.7885,2.6929
581,358,20.1738,-6.76135,0,0,0,0,0,0,0,-1,1805,666,20.1738,6.76137
588,358,30.1615,-10.9514,0,0,0,0,0,0,0,-1,1812,666,30.1615,10.9514
595,358,30.2148,-10.0435,0.000537937,-0.000386277,-0.000868295,0.00105944,-0.000907776,-0.540861,0.00113689,0.0177429,1819,666,30.2148,10.0435
602,358,30.1552,-9.22015,0.000751295,-2.82443e-05,-0.000512853,0.00100568,-0.000282632,-0.460462,0.000781883,0.0138168,1826,666,30.1552,9.22015
609,358,30.0785,-8.50085,0.00114766,0.000429107,3.98005e-06,0.00114768,0.000429085,0.00553875,0.000669606,0.0183422,1833,666,30.0785,8.50083
616,358,30.0807,-7.76276,0.00161753,0.000913316,0.000569402,0.0019349,0.000595946,0.508487,0.00114424,0.0167509,1840,666,30.0807,7.76275
623,358,30.1128,-7.03387,0.00219307,0.00147961,0.00121056,0.00309836,0.000574307,0.642113,0.00190325,0.013716,1847,666,30.1128,7.03389
630,358,30.0491,-6.32678,0.00279729,0.00209628,0.00189821,0.00437709,0.000516484,0.694101,0.00276204,0.0172432,1854,666,30.049,6.32677
637,358,29.9769,-5.62115,0.00342155,0.00269294,0.00257637,0.00565925,0.000455242,0.715162,0.00363061,0.0272724,1861,666,29.9769,5.62118
644,358,29.9785,-4.87677,0.00405326,0.00336888,0.00329191,0.00702072,0.000401419,0.733609,0.00455258,0.023187,1868,666,29.9785,4.87676
651,358,30.1155,-3.93872,0.00467776,0.00405025,0.00402634,0.00840256,0.000325455,0.746514,0.00549643,0.0480821,1875,666,30.1155,3.93874
658,358,30.1116,-2.80597,0,0,0,0,0,0,0,-1,1882,666,30.1115,2.80594
665,358,28.0272,-2.07764,0,0,0,0,0,0,0,-1,1889,666,28.0272,2.07764
672,358,12.4299,1.47272,0,0,0,0,0,0,0,-1,1896,666,12.4299,-1.4727
679,358,12.1294,2.19702,0,0,0,0,0,0,0,-1,1903,666,12.1294,-2.19703
686,358,11.9557,2.2002,0,0,0,0,0,0,0,-1,1910,666,11.9557,-2.20021
693,358,13.188,2.52203,0,0,0,0,0,0,0,-1,1917,666,13.188,-2.52202
700,358,0,0,0,0,0,0,0,0,0,-1,1924,666,0,0
707,358,0,0,0,0,0,0,0,0,0,-1,1931,666,0,0
714,358,0,0,0,0,0,0,0,0,0,-1,1938,666,0,0
721,358,0,0,0,0,0,0,0,0,0,-1,1945,666,0,0
728,358,0,0,0,0,0,0,0,0,0,-1,1952,666,0,0
735,358,0,0,0,0,0,0,0,0,0,-1,1959,666,0,0
742,358,0,0,0,0,0,0,0,0,0,-1,1966,666,0,0
749,358,0,0,0,0,0,0,0,0,0,-1,1973,666,0,0
756,358,0,0,0,0,0,0,0,0,0,-1,1980,666,0,0
763,358,0,0,0,0,0,0,0,0,0,-1,1987,666,0,0
770,358,0,0,0,0,0,0,0,0,0,-1,1994,666,0,0
777,358,0,0,0,0,0,0,0,0,0,-1,2001,666,0,0
784,358,0,0,0,0,0,0,0,0,0,-1,2008,666,0,0
791,358,0,0,0,0,0,0,0,0,0,-1,2015,666,0,0
798,358,0,0,0,0,0,0,0,0,0,-1,2022,666,0,0
805,358,0,0,0,0,0,0,0,0,0,-1,2029,666,0,0
812,358,0,0,0,0,0,0,0,0,0,-1,2036,666,0,0
-700,351,0,0,0,0,0,0,0,0,0,-1,524,673,0,0
-693,351,0,0,0,0,0,0,0,0,0,-1,531,673,0,0
-686,351,0,0,0,0,0,0,0,0,0,-1,538,673,0,0
-679,351,0,0,0,0,0,0,0,0,0,-1,545,673,0,0
-672,351,0,0,0,0,0,0,0,0,0,-1,552,673,0,0
-665,351,0,0,0,0,0,0,0,0,0,-1,559,673,0,0
-658,351,0,0,0,0,0,0,0,0,0,-1,566,673,0,0
-651,351,0,0,0,0,0,0,0,0,0,-1,573,673,0,0
-644,351,0,0,0,0,0,0,0,0,0,-1,580,673,0,0
-637,351,0,0,0,0,0,0,0,0,0,-1,587,673,0,0
-630,351,0,0,0,0,0,0,0,0,0,-1,594,673,0,0
-623,351,0,0,0,0,0,0,0,0,0,-1,601,673,0,0
-616,351,0,0,0,0,0,0,0,0,0,-1,608,673,0,0
-609,351,0,0,0,0,0,0,0,0,0,-1,615,673,0,0
-602,351,0,0,0,0,0,0,0,0,0,-1,622,673,0,0
-595,351,0,0,0,0,0,0,0,0,0,-1,629,673,0,0
-588,351,0,0,0,0,0,0,0,0,0,-1,636,673,0,0
-581,351,-9.0647,1.71906,0,0,0,0,0,0,0,-1,643,673,-9.06472,-1.71908
-574,351,-8.23584,2.64764,0,0,0,0,0,0,0,-1,650,673,-8.23584,-2.64764
-567,351,-10.8027,4.56836,0,0,0,0,0,0,0,-1,657,673,-10.8027,-4.56839
-560,351,-14.2001,2.17084,0,0,0,0,0,0,0,-1,664,673,-14.2002,-2.17086
-553,351,-13.4979,0.779541,0,0,0,0,0,0,0,-1,671,673,-13.4978,-0.779519
-546,351,-14.0065,0.73645,0,0,0,0,0,0,0,-1,678,673,-14.0065,-0.736473
-539,351,-12.8123,-1.46393,0,0,0,0,0,0,0,-1,685,673,-12.8123,1.46395
-532,351,-16.0198,-4.03937,0,0,0,0,0,0,0,-1,692,673,-16.0198,4.03936
-525,351,-18.0445,-5.48138,0,0,0,0,0,0,0,-1,699,673,-18.0445,5.4814
-518,351,-17.9496,-6.15509,0.00389409,0.00122895,-0.000960415,0.00420412,0.000918922,-0.31225,0.00255219,0.0225013,706,673,-17.9496,6.15509
-511,351,-17.9389,-6.92029,0.00313506,0.000783935,-0.000731753,0.0033442,0.000574792,-0.27839,0.00206471,0.0125345,713,673,-17.9389,6.9203
-504,351,-17.9952,-7.66321,0.00253626,0.000461068,-0.000574437,0.00268466,0.000312669,-0.25281,0.00169519,0.0118539,720,673,-17.9952,7.6632
-497,351,-18.0222,-8.40161,0.00214385,0.000217104,-0.000482941,0.00225812,0.000102831,-0.232345,0.00147233,0.011588,727,673,-18.0221,8.40163
-490,351,-18.0554,-9.12115,0.00187789,0.000123509,-0.00051953,0.00202019,-1.87973e-05,-0.267357,0.00135311,0.0112888,734,673,-18.0554,9.12118
-483,351,-18.0944,-9.82568,0.00184509,0.000144519,-0.000634966,0.00205602,-6.64053e-05,-0.320714,0.00139334,0.0129284,741,673,-18.0944,9.8257
-476,351,-18.1404,-10.5395,0.00200087,0.000288136,-0.00088974,0.00237942,-9.04057e-05,-0.402254,0.00161726,0.0118076,748,673,-18.1404,10.5395
-469,351,-18.16,-11.2439,0.00230445,0.000571378,-0.00129916,0.00299955,-0.000123722,-0.491283,0.00204219,0.0138411,755,673,-18.16,11.2439
-462,351,-18.1797,-12.0356,0.00277455,0.000996198,-0.00180014,0.00389314,-0.000122395,-0.556001,0.00263717,0.0340618,762,673,-18.1797,12.0357
-455,351,-18.1207,-12.8376,0,0,0,0,0,0,0,-1,769,673,-18.1207,12.8376
-448,351,-6.61456,-4.38654,0,0,0,0,0,0,0,-1,776,673,-6.61456,4.38654
-441,351,-4.31567,-2.3009,0,0,0,0,0,0,0,-1,783,673,-4.31565,2.30089
-434,351,-3.81708,-2.28003,0,0,0,0,0,0,0,-1,790,673,-3.81706,2.28006
-427,351,-2.05157,-2.7785,0,0,0,0,0,0,0,-1,797,673,-2.05157,2.77848
-420,351,-1.06989,-2.43665,0,0,0,0,0,0,0,-1,804,673,-1.06991,2.43663
-413,351,-0.392334,-2.06671,0,0,0,0,0,0,0,-1,811,673,-0.392363,2.06672
-406,351,-1.86316,-2.58105,0,0,0,0,0,0,0,-1,818,673,-1.86313,2.58106
-399,351,1.00952,-1.53455,0,0,0,0,0,0,0,-1,825,673,1.00954,1.53457
-392,351,-1.02197,0.877136,0,0,0,0,0,0,0,-1,832,673,-1.02195,-0.877143
-385,351,-1.47205,1.04437,0,0,0,0,0,0,0,-1,839,673,-1.47207,-1.04435
-378,351,0,0,0,0,0,0,0,0,0,-1,846,673,0,0
-371,351,0,0,0,0,0,0,0,0,0,-1,853,673,0,0
-364,351,0,0,0,0,0,0,0,0,0,-1,860,673,0,0
-357,351,0,0,0,0,0,0,0,0,0,-1,867,673,0,0
-350,351,0,0,0,0,0,0,0,0,0,-1,874,673,0,0
-343,351,0,0,0,0,0,0,0,0,0,-1,881,673,0,0
-336,351,0,0,0,0,0,0,0,0,0,-1,888,673,0,0
-329,351,0,0,0,0,0,0,0,0,0,-1,895,673,0,0
-322,351,0,0,0,0,0,0,0,0,0,-1,902,673,0,0
-315,351,0,0,0,0,0,0,0,0,0,-1,909,673,0,0
-308,351,0,0,0,0,0,0,0,0,0,-1,916,673,0,0
-301,351,0,0,0,0,0,0,0,0,0,-1,923,673,0,0
-294,351,0,0,0,0,0,0,0,0,0,-1,930,673,0,0
-287,351,0,0,0,0,0,0,0,0,0,-1,937,673,0,0
-280,351,0,0,0,0,0,0,0,0,0,-1,944,673,0,0
-273,351,0,0,0,0,0,0,0,0,0,-1,951,673,0,0
-266,351,0,0,0,0,0,0,0,0,0,-1,958,673,0,0
-259,351,0,0,0,0,0,0,0,0,0,-1,965,673,0,0
-252,351,0,0,0,0,0,0,0,0,0,-1,972,673,0,0
-245,351,0,0,0,0,0,0,0,0,0,-1,979,673,0,0
-238,351,0,0,0,0,0,0,0,0,0,-1,986,673,0,0
-231,351,0,0,0,0,0,0,0,0,0,-1,993,673,0,0
-224,351,0,0,0,0,0,0,0,0,0,-1,1000,673,0,0
-217,351,0,0,0,0,0,0,0,0,0,-1,1007,673,0,0
-210,351,0,0,0,0,0,0,0,0,0,-1,1014,673,0,0
-203,351,0,0,0,0,0,0,0,0,0,-1,1021,673,0,0
-196,351,0,0,0,0,0,0,0,0,0,-1,1028,673,0,0
-189,351,0,0,0,0,0,0,0,0,0,-1,1035,673,0,0
-182,351,0,0,0,0,0,0,0,0,0,-1,1042,673,0,0
-175,351,0,0,0,0,0,0,0,0,0,-1,1049,673,0,0
-168,351,0,0,0,0,0,0,0,0,0,-1,1056,673,0,0
-161,351,0,0,0,0,0,0,0,0,0,-1,1063,673,0,0
-154,351,0,0,0,0,0,0,0,0,0,-1,1070,673,0,0
-147,351,0,0,0,0,0,0,0,0,0,-1,1077,673,0,0
-140,351,0,0,0,0,0,0,0,0,0,-1,1084,673,0,0
-133,351,0,0,0,0,0,0,0,0,0,-1,1091,673,0,0
-126,351,0,0,0,0,0,0,0,0,0,-1,1098,673,0,0
-119,351,0,0,0,0,0,0,0,0,0,-1,1105,673,0,0
-112,351,0,0,0,0,0,0,0,0,0,-1,1112,673,0,0
-105,351,0,0,0,0,0,0,0,0,0,-1,1119,673,0,0
-98,351,0,0,0,0,0,0,0,0,0,-1,1126,673,0,0
-91,351,0,0,0,0,0,0,0,0,0,-1,1133,673,0,0
-84,351,0,0,0,0,0,0,0,0,0,-1,1140,673,0,0
-77,351,0,0,0,0,0,0,0,0,0,-1,1147,673,0,0
-70,351,0,0,0,0,0,0,0,0,0,-1,1154,673,0,0
-63,351,0,0,0,0,0,0,0,0,0,-1,1161,673,0,0
-56,351,0,0,0,0,0,0,0,0,0,-1,1168,673,0,0
-49,351,0,0,0,0,0,0,0,0,0,-1,1175,673,0,0
-42,351,0,0,0,0,0,0,0,0,0,-1,1182,673,0,0
-35,351,0,0,0,0,0,0,0,0,0,-1,1189,673,0,0
-28,351,0,0,0,0,0,0,0,0,0,-1,1196,673,0,0
-21,351,0,0,0,0,0,0,0,0,0,-1,1203,673,0,0
-14,351,0,0,0,0,0,0,0,0,0,-1,1210,673,0,0
-7,351,0,0,0,0,0,0,0,0,0,-1,1217,673,0,0
0,351,0,0,0,0,0,0,0,0,0,-1,1224,673,0,0
7,351,0,0,0,0,0,0,0,0,0,-1,1231,673,0,0
14,351,0,0,0,0,0,0,0,0,0,-1,1238,673,0,0
21,351,0,0,0,0,0,0,0,0,0,-1,1245,673,0,0
28,351,0,0,0,0,0,0,0,0,0,-1,1252,673,0,0
35,351,0,0,0,0,0,0,0,0,0,-1,1259,673,0,0
42,351,0,0,0,0,0,0,0,0,0,-1,1266,673,0,0
49,351,0,0,0,0,0,0,0,0,0,-1,1273,673,0,0
56,351,0,0,0,0,0,0,0,0,0,-1,1280,673,0,0
63,351,0,0,0,0,0,0,0,0,0,-1,1287,673,0,0
70,351,0,0,0,0,0,0,0,0,0,-1,1294,673,0,0
77,351,0,0,0,0,0,0,0,0,0,-1,1301,673,0,0
84,351,0,0,0,0,0,0,0,0,0,-1,1308,673,0,0
91,351,0,0,0,0,0,0,0,0,0,-1,1315,673,0,0
98,351,0,0,0,0,0,0,0,0,0,-1,1322,673,0,0
105,351,0,0,0,0,0,0,0,0,0,-1,1329,673,0,0
112,351,0,0,0,0,0,0,0,0,0,-1,1336,673,0,0
119,351,0,0,0,0,0,0,0,0,0,-1,1343,673,0,0
126,351,0,0,0,0,0,0,0,0,0,-1,1350,673,0,0
133,351,0,0,0,0,0,0,0,0,0,-1,1357,673,0,0
140,351,0,0,0,0,0,0,0,0,0,-1,1364,673,0,0
147,351,0,0,0,0,0,0,0,0,0,-1,1371,673,0,0
154,351,0,0,0,0,0,0,0,0,0,-1,1378,673,0,0
161,351,0,0,0,0,0,0,0,0,0,-1,1385,673,0,0
168,351,0,0,0,0,0,0,0,0,0,-1,1392,673,0,0
175,351,0,0,0,0,0,0,0,0,0,-1,1399,673,0,0
182,351,0,0,0,0,0,0,0,0,0,-1,1406,673,0,0
189,351,0,0,0,0,0,0,0,0,0,-1,1413,673,0,0
196,351,0,0,0,0,0,0,0,0,0,-1,1420,673,0,0
203,351,0,0,0,0,0,0,0,0,0,-1,1427,673,0,0
210,351,0,0,0,0,0,0,0,0,0,-1,1434,673,0,0
217,351,0,0,0,0,0,0,0,0,0,-1,1441,673,0,0
224,351,0,0,0,0,0,0,0,0,0,-1,1448,673,0,0
231,351,0,0,0,0,0,0,0,0,0,-1,1455,673,0,0
238,351,0,0,0,0,0,0,0,0,0,-1,1462,673,0,0
245,351,0,0,0,0,0,0,0,0,0,-1,1469,673,0,0
252,351,0,0,0,0,0,0,0,0,0,-1,1476,673,0,0
259,351,0,0,0,0,0,0,0,0,0,-1,1483,673,0,0
266,351,0,0,0,0,0,0,0,0,0,-1,1490,673,0,0
273,351,0,0,0,0,0,0,0,0,0,-1,1497,673,0,0
280,351,0,0,0,0,0,0,0,0,0,-1,1504,673,0,0
287,351,0,0,0,0,0,0,0,0,0,-1,1511,673,0,0
294,351,0,0,0,0,0,0,0,0,0,-1,1518,673,0,0
301,351,0,0,0,0,0,0,0,0,0,-1,1525,673,0,0
308,351,0,0,0,0,0,0,0,0,0,-1,1532,673,0,0
315,351,0,0,0,0,0,0,0,0,0,-1,1539,673,0,0
322,351,0,0,0,0,0,0,0,0,0,-1,1546,673,0,0
329,351,0,0,0,0,0,0,0,0,0,-1,1553,673,0,0
336,351,0,0,0,0,0,0,0,0,0,-1,1560,673,0,0
343,351,0,0,0,0,0,0,0,0,0,-1,1567,673,0,0
350,351,0,0,0,0,0,0,0,0,0,-1,1574,673,0,0
357,351,0,0,0,0,0,0,0,0,0,-1,1581,673,0,0
364,351,0,0,0,0,0,0,0,0,0,-1,1588,673,0,0
371,351,0,0,0,0,0,0,0,0,0,-1,1595,673,0,0
378,351,0,0,0,0,0,0,0,0,0,-1,1602,673,0,0
385,351,0,0,0,0,0,0,0,0,0,-1,1609,673,0,0
392,351,0,0,0,0,0,0,0,0,0,-1,1616,673,0,0
399,351,0,0,0,0,0,0,0,0,0,-1,1623,673,0,0
406,351,0,0,0,0,0,0,0,0,0,-1,1630,673,0,0
413,351,0,0,0,0,0,0,0,0,0,-1,1637,673,0,0
420,351,0,0,0,0,0,0,0,0,0,-1,1644,673,0,0
427,351,0,0,0,0,0,0,0,0,0,-1,1651,673,0,0
434,351,0,0,0,0,0,0,0,0,0,-1,1658,673,0,0
441,351,0,0,0,0,0,0,0,0,0,-1,1665,673,0,0
448,351,0,0,0,0,0,0,0,0,0,-1,1672,673,0,0
455,351,0,0,0,0,0,0,0,0,0,-1,1679,673,0,0
462,351,0,0,0,0,0,0,0,0,0,-1,1686,673,0,0
469,351,0,0,0,0,0,0,0,0,0,-1,1693,673,0,0
476,351,0,0,0,0,0,0,0,0,0,-1,1700,673,0,0
483,351,0,0,0,0,0,0,0,0,0,-1,1707,673,0,0
490,351,0,0,0,0,0,0,0,0,0,-1,1714,673,0,0
497,351,0,0,0,0,0,0,0,0,0,-1,1721,673,0,0
504,351,10.8842,1.61615,0,0,0,0,0,0,0,-1,1728,673,10.8842,-1.61618
511,351,15.4548,0.0236816,0,0,0,0,0,0,0,-1,1735,673,15.4549,-0.0236664
518,351,16.7448,2.49268,0,0,0,0,0,0,0,-1,1742,673,16.7448,-2.49269
525,351,16.0701,3.43225,0,0,0,0,0,0,0,-1,1749,673,16.07,-3.43227
532,351,32.3822,3.03021,0,0,0,0,0,0,0,-1,1756,673,32.3822,-3.03019
539,351,15.3387,3.54486,0,0,0,0,0,0,0,-1,1763,673,15.3387,-3.54485
546,351,13.9387,4.59357,0,0,0,0,0,0,0,-1,1770,673,13.9388,-4.59359
553,351,12.0682,2.02832,0,0,0,0,0,0,0,-1,1777,673,12.0683,-2.02831
560,351,12.0173,0.55304,0,0,0,0,0,0,0,-1,1784,673,12.0174,-0.553028
567,351,10.7827,0.130188,0,0,0,0,0,0,0,-1,1791,673,10.7827,-0.130183
574,351,13.405,-1.09204,0,0,0,0,0,0,0,-1,1798,673,13.405,1.09207
581,351,15.2351,-3.06049,0,0,0,0,0,0,0,-1,1805,673,15.2351,3.06046
588,351,29.9419,-10.5057,0,0,0,0,0,0,0,-1,1812,673,29.9419,10.5057
595,351,30.9178,-10.0334,0,0,0,0,0,0,0,-1,1819,673,30.9179,10.0334
602,351,30.9205,-9.25854,0.000570825,-0.000315525,-0.000854639,0.00109036,-0.000835061,-0.546209,0.0011149,0.0187828,1826,673,30.9205,9.25855
609,351,30.9071,-8.51563,0.000916811,4.02866e-05,-0.000400587,0.0010723,-0.000115205,-0.370257,0.000756201,0.0183974,1833,673,30.9071,8.51563
616,351,30.8607,-7.75281,0.00130019,0.000400051,0.000106689,0.00131266,0.000387578,0.116377,0.000778754,0.0151961,1840,673,30.8608,7.75278
623,351,30.8644,-7.01282,0.00174508,0.000847555,0.000656453,0.0020915,0.000501132,0.485575,0.00126093,0.0151496,1847,673,30.8644,7.01281
630,351,30.7787,-6.32092,0.00222777,0.00136247,0.00126339,0.00313053,0.000459703,0.620431,0.00195191,0.023954,1854,673,30.7787,6.32092
637,351,30.7059,-5.5531,0.00274098,0.00186216,0.00185871,0.00421152,0.000391622,0.669326,0.00268667,0.0289038,1861,673,30.7059,5.5531
644,351,30.694,-4.78546,0.00326486,0.00241022,0.00246747,0.00534174,0.000333344,0.699657,0.00345541,0.0222942,1868,673,30.694,4.78546
651,351,30.6964,-3.9953,0.00380652,0.00301005,0.00309475,0.00652855,0.000288017,0.721409,0.00425961,0.0180204,1875,673,30.6964,3.99532
658,351,30.6249,-3.18262,0.00427563,0.00364167,0.00359466,0.00756725,0.000350043,0.741421,0.0049323,0.0409226,1882,673,30.6248,3.18264
665,351,30.327,-2.28021,0,0,0,0,0,0,0,-1,1889,673,30.3271,2.28024
672,351,27.876,-1.51941,0,0,0,0,0,0,0,-1,1896,673,27.8759,1.51941
679,351,14.1252,1.85681,0,0,0,0,0,0,0,-1,1903,673,14.1253,-1.85682
686,351,13.0294,2.1189,0,0,0,0,0,0,0,-1,1910,673,13.0294,-2.11892
693,351,13.5187,2.34595,0,0,0,0,0,0,0,-1,1917,673,13.5187,-2.34596
700,351,14.5629,-2.40173,0,0,0,0,0,0,0,-1,1924,673,14.5629,2.40172
707,351,0,0,0,0,0,0,0,0,0,-1,1931,673,0,0
714,351,0,0,0,0,0,0,0,0,0,-1,1938,673,0,0
721,351,0,0,0,0,0,0,0,0,0,-1,1945,673,0,0
728,351,0,0,0,0,0,0,0,0,0,-1,1952,673,0,0
735,351,0,0,0,0,0,0,0,0,0,-1,1959,673,0,0
742,351,0,0,0,0,0,0,0,0,0,-1,1966,673,0,0
749,351,0,0,0,0,0,0,0,0,0,-1,1973,673,0,0
756,351,0,0,0,0,0,0,0,0,0,-1,1980,673,0,0
763,351,0,0,0,0,0,0,0,0,0,-1,1987,673,0,0
770,351,0,0,0,0,0,0,0,0,0,-1,1994,673,0,0
777,351,0,0,0,0,0,0,0,0,0,-1,2001,673,0,0
784,351,0,0,0,0,0,0,0,0,0,-1,2008,673,0,0
791,351,0,0,0,0,0,0,0,0,0,-1,2015,673,0,0
798,351,0,0,0,0,0,0,0,0,0,-1,2022,673,0,0
805,351,0,0,0,0,0,0,0,0,0,-1,2029,673,0,0
812,351,0,0,0,0,0,0,0,0,0,-1,2036,673,0,0
-700,344,0,0,0,0,0,0,0,0,0,-1,524,680,0,0
-693,344,0,0,0,0,0,0,0,0,0,-1,531,680,0,0
-686,344,0,0,0,0,0,0,0,0,0,-1,538,680,0,0
-679,344,0,0,0,0,0,0,0,0,0,-1,545,680,0,0
-672,344,0,0,0,0,0,0,0,0,0,-1,552,680,0,0
-665,344,0,0,0,0,0,0,0,0,0,-1,559,680,0,0
-658,344,0,0,0,0,0,0,0,0,0,-1,566,680,0,0
-651,344,0,0,0,0,0,0,0,0,0,-1,573,680,0,0
-644,344,0,0,0,0,0,0,0,0,0,-1,580,680,0,0
-637,344,0,0,0,0,0,0,0,0,0,-1,587,680,0,0
-630,344,0,0,0,0,0,0,0,0,0,-1,594,680,0,0
-623,344,0,0,0,0,0,0,0,0,0,-1,601,680,0,0
-616,344,0,0,0,0,0,0,0,0,0,-1,608,680,0,0
-609,344,0,0,0,0,0,0,0,0,0,-1,615,680,0,0
-602,344,0,0,0,0,0,0,0,0,0,-1,622,680,0,0
-595,344,0,0,0,0,0,0,0,0,0,-1,629,680,0,0
-588,344,-9.27826,1.47302,0,0,0,0,0,0,0,-1,636,680,-9.27829,-1.473
-581,344,-10.0098,1.71753,0,0,0,0,0,0,0,-1,643,680,-10.0098,-1.7175
-574,344,-10.2208,3.04871,0,0,0,0,0,0,0,-1,650,680,-10.2208,-3.04869
-567,344,-14.3779,2.29016,0,0,0,0,0,0,0,-1,657,680,-14.3779,-2.29014
-560,344,-14.1238,1.8374,0,0,0,0,0,0,0,-1,664,680,-14.1238,-1.83743
-553,344,-14.7884,2.00116,0,0,0,0,0,0,0,-1,671,680,-14.7884,-2.00115
-546,344,-17.4192,0.157654,0,0,0,0,0,0,0,-1,678,680,-17.4192,-0.157635
-539,344,-17.2671,-2.75714,0,0,0,0,0,0,0,-1,685,680,-17.2671,2.75712
-532,344,-18.4417,-4.38605,0,0,0,0,0,0,0,-1,692,680,-18.4417,4.38603
-525,344,-18.7052,-5.44562,0,0,0,0,0,0,0,-1,699,680,-18.7052,5.44563
-518,344,-18.6869,-6.15167,0.00369398,0.00116839,-0.000791141,0.00392134,0.000941034,-0.279839,0.00236383,0.0213282,706,680,-18.6869,6.15166
-511,344,-18.6962,-6.87775,0.00295259,0.000601217,-0.000549279,0.00307457,0.000479234,-0.218532,0.00191012,0.017397,713,680,-18.6962,6.87774
-504,344,-18.725,-7.63007,0.00238528,0.000162639,-0.000372113,0.00244592,0.000101994,-0.161553,0.0015977,0.0182545,720,680,-18.7249,7.63008
-497,344,-18.7773,-8.39856,0.00203418,-0.000103566,-0.000300016,0.00207548,-0.000144873,-0.136822,0.00143439,0.0168258,727,680,-18.7773,8.39857
-490,344,-18.8011,-9.12616,0.00180248,-0.000197279,-0.000358945,0.00186495,-0.000259756,-0.17233,0.00133832,0.015595,734,680,-18.8011,9.12618
-483,344,-18.8131,-9.8064,0.00180899,-0.0001194,-0.000528719,0.00194444,-0.000254848,-0.250788,0.00138906,0.0153575,741,680,-18.8131,9.80643
-476,344,-18.8424,-10.5184,0.00199937,0.00012363,-0.000880844,0.00234816,-0.000225157,-0.377027,0.00164563,0.0148208,748,680,-18.8424,10.5184
-469,344,-18.8507,-11.2723,0.00238738,0.000570755,-0.00144651,0.00318711,-0.000228976,-0.505045,0.00220503,0.0207892,755,680,-18.8507,11.2724
-462,344,-18.8513,-12.0283,0,0,0,0,0,0,0,-1,762,680,-18.8512,12.0282
-455,344,-12.1653,-7.99176,0,0,0,0,0,0,0,-1,769,680,-12.1653,7.99174
-448,344,-5.67657,-2.72864,0,0,0,0,0,0,0,-1,776,680,-5.6766,2.72863
-441,344,-5.09229,-2.34167,0,0,0,0,0,0,0,-1,783,680,-5.09229,2.34168
-434,344,-4.28778,-2.08807,0,0,0,0,0,0,0,-1,790,680,-4.28778,2.08809
-427,344,-3.06506,-1.45404,0,0,0,0,0,0,0,-1,797,680,-3.06505,1.45402
-420,344,-1.96582,-1.57574,0,0,0,0,0,0,0,-1,804,680,-1.96579,1.57574
-413,344,-0.817993,-1.4751,0,0,0,0,0,0,0,-1,811,680,-0.818017,1.47511
-406,344,-0.00714111,-1.25189,0,0,0,0,0,0,0,-1,818,680,-0.00714956,1.25191
-399,344,0.240051,-1.75769,0,0,0,0,0,0,0,-1,825,680,0.240079,1.75767
-392,344,1.11353,-2.05615,0,0,0,0,0,0,0,-1,832,680,1.11351,2.05616
-385,344,0,0,0,0,0,0,0,0,0,-1,839,680,0,0
-378,344,0,0,0,0,0,0,0,0,0,-1,846,680,0,0
-371,344,0,0,0,0,0,0,0,0,0,-1,853,680,0,0
-364,344,0,0,0,0,0,0,0,0,0,-1,860,680,0,0
-357,344,0,0,0,0,0,0,0,0,0,-1,867,680,0,0
-350,344,0,0,0,0,0,0,0,0,0,-1,874,680,0,0
-343,344,0,0,0,0,0,0,0,0,0,-1,881,680,0,0
-336,344,0,0,0,0,0,0,0,0,0,-1,888,680,0,0
-329,344,0,0,0,0,0,0,0,0,0,-1,895,680,0,0
-322,344,0,0,0,0,0,0,0,0,0,-1,902,680,0,0
-315,344,0,0,0,0,0,0,0,0,0,-1,909,680,0,0
-308,344,0,0,0,0,0,0,0,0,0,-1,916,680,0,0
-301,344,0,0,0,0,0,0,0,0,0,-1,923,680,0,0
-294,344,0,0,0,0,0,0,0,0,0,-1,930,680,0,0
-287,344,0,0,0,0,0,0,0,0,0,-1,937,680,0,0
-280,344,0,0,0,0,0,0,0,0,0,-1,944,680,0,0
-273,344,0,0,0,0,0,0,0,0,0,-1,951,680,0,0
-266,344,0,0,0,0,0,0,0,0,0,-1,958,680,0,0
-259,344,0,0,0,0,0,0,0,0,0,-1,965,680,0,0
-252,344,0,0,0,0,0,0,0,0,0,-1,972,680,0,0
-245,344,0,0,0,0,0,0,0,0,0,-1,979,680,0,0
-238,344,0,0,0,0,0,0,0,0,0,-1,986,680,0,0
-231,344,0,0,0,0,0,0,0,0,0,-1,993,680,0,0
-224,344,0,0,0,0,0,0,0,0,0,-1,1000,680,0,0
-217,344,0,0,0,0,0,0,0,0,0,-1,1007,680,0,0
-210,344,0,0,0,0,0,0,0,0,0,-1,1014,680,0,0
-203,344,0,0,0,0,0,0,0,0,0,-1,1021,680,0,0
-196,344,0,0,0,0,0,0,0,0,0,-1,1028,680,0,0
-189,344,0,0,0,0,0,0,0,0,0,-1,1035,680,0,0
-182,344,0,0,0,0,0,0,0,0,0,-1,1042,680,0,0
-175,344,0,0,0,0,0,0,0,0,0,-1,1049,680,0,0
-168,344,0,0,0,0,0,0,0,0,0,-1,1056,680,0,0
-161,344,0,0,0,0,0,0,0,0,0,-1,1063,680,0,0
-154,344,0,0,0,0,0,0,0,0,0,-1,1070,680,0,0
-147,344,0,0,0,0,0,0,0,0,0,-1,1077,680,0,0
-140,344,0,0,0,0,0,0,0,0,0,-1,1084,680,0,0
-133,344,0,0,0,0,0,0,0,0,0,-1,1091,680,0,0
-126,344,0,0,0,0,0,0,0,0,0,-1,1098,680,0,0
-119,344,0,0,0,0,0,0,0,0,0,-1,1105,680,0,0
-112,344,0,0,0,0,0,0,0,0,0,-1,1112,680,0,0
-105,344,0,0,0,0,0,0,0,0,0,-1,1119,680,0,0
-98,344,0,0,0,0,0,0,0,0,0,-1,1126,680,0,0
-91,344,0,0,0,0,0,0,0,0,0,-1,1133,680,0,0
-84,344,0,0,0,0,0,0,0,0,0,-1,1140,680,0,0
-77,344,0,0,0,0,0,0,0,0,0,-1,1147,680,0,0
-70,344,0,0,0,0,0,0,0,0,0,-1,1154,680,0,0
-63,344,0,0,0,0,0,0,0,0,0,-1,1161,680,0,0
-56,344,0,0,0,0,0,0,0,0,0,-1,1168,680,0,0
-49,344,0,0,0,0,0,0,0,0,0,-1,1175,680,0,0
-42,344,0,0,0,0,0,0,0,0,0,-1,1182,680,0,0
-35,344,0,0,0,0,0,0,0,0,0,-1,1189,680,0,0
-28,344,0,0,0,0,0,0,0,0,0,-1,1196,680,0,0
-21,344,0,0,0,0,0,0,0,0,0,-1,1203,680,0,0
-14,344,0,0,0,0,0,0,0,0,0,-1,1210,680,0,0
-7,344,0,0,0,0,0,0,0,0,0,-1,1217,680,0,0
0,344,0,0,0,0,0,0,0,0,0,-1,1224,680,0,0
7,344,0,0,0,0,0,0,0,0,0,-1,1231,680,0,0
14,344,0,0,0,0,0,0,0,0,0,-1,1238,680,0,0
21,344,0,0,0,0,0,0,0,0,0,-1,1245,680,0,0
28,344,0,0,0,0,0,0,0,0,0,-1,1252,680,0,0
35,344,0,0,0,0,0,0,0,0,0,-1,1259,680,0,0
42,344,0,0,0,0,0,0,0,0,0,-1,1266,680,0,0
49,344,0,0,0,0,0,0,0,0,0,-1,1273,680,0,0
56,344,0,0,0,0,0,0,0,0,0,-1,1280,680,0,0
63,344,0,0,0,0,0,0,0,0,0,-1,1287,680,0,0
70,344,0,0,0,0,0,0,0,0,0,-1,1294,680,0,0
77,344,0,0,0,0,0,0,0,0,0,-1,1301,680,0,0
84,344,0,0,0,0,0,0,0,0,0,-1,1308,680,0,0
91,344,0,0,0,0,0,0,0,0,0,-1,1315,680,0,0
98,344,0,0,0,0,0,0,0,0,0,-1,1322,680,0,0
105,344,0,0,0,0,0,0,0,0,0,-1,1329,680,0,0
112,344,0,0,0,0,0,0,0,0,0,-1,1336,680,0,0
119,344,0,0,0,0,0,0,0,0,0,-1,1343,680,0,0
126,344,0,0,0,0,0,0,0,0,0,-1,1350,680,0,0
133,344,0,0,0,0,0,0,0,0,0,-1,1357,680,0,0
140,344,0,0,0,0,0,0,0,0,0,-1,1364,680,0,0
147,344,0,0,0,0,0,0,0,0,0,-1,1371,680,0,0
154,344,0,0,0,0,0,0,0,0,0,-1,1378,680,0,0
161,344,0,0,0,0,0,0,0,0,0,-1,1385,680,0,0
168,344,0,0,0,0,0,0,0,0,0,-1,1392,680,0,0
175,344,0,0,0,0,0,0,0,0,0,-1,1399,680,0,0
182,344,0,0,0,0,0,0,0,0,0,-1,1406,680,0,0
189,344,0,0,0,0,0,0,0,0,0,-1,1413,680,0,0
196,344,0,0,0,0,0,0,0,0,0,-1,1420,680,0,0
203,344,0,0,0,0,0,0,0,0,0,-1,1427,680,0,0
210,344,0,0,0,0,0,0,0,0,0,-1,1434,680,0,0
217,344,0,0,0,0,0,0,0,0,0,-1,1441,680,0,0
224,344,0,0,0,0,0,0,0,0,0,-1,1448,680,0,0
231,344,0,0,0,0,0,0,0,0,0,-1,1455,680,0,0
238,344,0,0,0,0,0,0,0,0,0,-1,1462,680,0,0
245,344,0,0,0,0,0,0,0,0,0,-1,1469,680,0,0
252,344,0,0,0,0,0,0,0,0,0,-1,1476,680,0,0
259,344,0,0,0,0,0,0,0,0,0,-1,1483,680,0,0
266,344,0,0,0,0,0,0,0,0,0,-1,1490,680,0,0
273,344,0,0,0,0,0,0,0,0,0,-1,1497,680,0,0
280,344,0,0,0,0,0,0,0,0,0,-1,1504,680,0,0
287,344,0,0,0,0,0,0,0,0,0,-1,1511,680,0,0
294,344,0,0,0,0,0,0,0,0,0,-1,1518,680,0,0
301,344,0,0,0,0,0,0,0,0,0,-1,1525,680,0,0
308,344,0,0,0,0,0,0,0,0,0,-1,1532,680,0,0
315,344,0,0,0,0,0,0,0,0,0,-1,1539,680,0,0
322,344,0,0,0,0,0,0,0,0,0,-1,1546,680,0,0
329,344,0,0,0,0,0,0,0,0,0,-1,1553,680,0,0
336,344,0,0,0,0,0,0,0,0,0,-1,1560,680,0,0
343,344,0,0,0,0,0,0,0,0,0,-1,1567,680,0,0
350,344,0,0,0,0,0,0,0,0,0,-1,1574,680,0,0
357,344,0,0,0,0,0,0,0,0,0,-1,1581,680,0,0
364,344,0,0,0,0,0,0,0,0,0,-1,1588,680,0,0
371,344,0,0,0,0,0,0,0,0,0,-1,1595,680,0,0
378,344,0,0,0,0,0,0,0,0,0,-1,1602,680,0,0
385,344,0,0,0,0,0,0,0,0,0,-1,1609,680,0,0
392,344,0,0,0,0,0,0,0,0,0,-1,1616,680,0,0
399,344,0,0,0,0,0,0,0,0,0,-1,1623,680,0,0
406,344,0,0,0,0,0,0,0,0,0,-1,1630,680,0,0
413,344,0,0,0,0,0,0,0,0,0,-1,1637,680,0,0
420,344,0,0,0,0,0,0,0,0,0,-1,1644,680,0,0
427,344,0,0,0,0,0,0,0,0,0,-1,1651,680,0,0
434,344,0,0,0,0,0,0,0,0,0,-1,1658,680,0,0
441,344,0,0,0,0,0,0,0,0,0,-1,1665,680,0,0
448,344,0,0,0,0,0,0,0,0,0,-1,1672,680,0,0
455,344,0,0,0,0,0,0,0,0,0,-1,1679,680,0,0
462,344,0,0,0,0,0,0,0,0,0,-1,1686,680,0,0
469,344,0,0,0,0,0,0,0,0,0,-1,1693,680,0,0
476,344,0,0,0,0,0,0,0,0,0,-1,1700,680,0,0
483,344,0,0,0,0,0,0,0,0,0,-1,1707,680,0,0
490,344,0,0,0,0,0,0,0,0,0,-1,1714,680,0,0
497,344,0,0,0,0,0,0,0,0,0,-1,1721,680,0,0
504,344,0,0,0,0,0,0,0,0,0,-1,1728,680,0,0
511,344,15.4819,0.452637,0,0,0,0,0,0,0,-1,1735,680,15.4819,-0.452656
518,344,17.1357,2.31207,0,0,0,0,0,0,0,-1,1742,680,17.1358,-2.31207
525,344,31.5201,2.6217,0,0,0,0,0,0,0,-1,1749,680,31.5201,-2.62168
532,344,31.9766,2.61047,0,0,0,0,0,0,0,-1,1756,680,31.9765,-2.6105
539,344,32.4379,2.65314,0,0,0,0,0,0,0,-1,1763,680,32.4378,-2.65316
546,344,14.6722,4.30243,0,0,0,0,0,0,0,-1,1770,680,14.6722,-4.30241
553,344,14.8136,4.35681,0,0,0,0,0,0,0,-1,1777,680,14.8136,-4.35679
560,344,11.9363,2.14185,0,0,0,0,0,0,0,-1,1784,680,11.9362,-2.14182
567,344,11.397,0.925842,0,0,0,0,0,0,0,-1,1791,680,11.397,-0.92583
574,344,10.0004,0.504639,0,0,0,0,0,0,0,-1,1798,680,10.0004,-0.504645
581,344,13.6709,-0.969604,0,0,0,0,0,0,0,-1,1805,680,13.6709,0.969629
588,344,16.1447,-3.15948,0,0,0,0,0,0,0,-1,1812,680,16.1447,3.15946
595,344,31.636,-10.0922,0,0,0,0,0,0,0,-1,1819,680,31.636,10.0923
602,344,31.7802,-9.19,0.000380808,-0.000510311,-0.00110929,0.00113067,-0.00126018,-0.594429,0.00138103,0.0389007,1826,680,31.7801,9.18997
609,344,31.6661,-8.46179,0.000775431,-0.000232889,-0.000653991,0.00109703,-0.00055449,-0.457027,0.000970506,0.0158914,1833,680,31.6662,8.46179
616,344,31.6229,-7.71771,0.00111449,3.543e-05,-0.000167596,0.00113992,9.99891e-06,-0.150592,0.000756638,0.0222816,1840,680,31.6229,7.71773
623,344,31.5692,-6.97552,0.00144506,0.000391157,0.000309101,0.00152903,0.00030719,0.265247,0.000933949,0.0198275,1847,680,31.5692,6.97554
630,344,31.4928,-6.27856,0.00182753,0.00081923,0.000840565,0.00230354,0.000343217,0.515272,0.00143503,0.0250022,1854,680,31.4928,6.27859
637,344,31.467,-5.50061,0.00225134,0.00124477,0.00135589,0.00319434,0.000301773,0.607687,0.00203643,0.0239724,1861,680,31.4671,5.50063
644,344,31.4816,-4.7113,0.00269455,0.00170565,0.00186435,0.00412891,0.000271298,0.655776,0.00266678,0.0168463,1868,680,31.4816,4.71129
651,344,31.4485,-3.96136,0.00318075,0.00224673,0.00238442,0.00514347,0.000284014,0.688692,0.00333834,0.0118209,1875,680,31.4485,3.96138
658,344,31.4329,-3.11603,0.00365728,0.00284434,0.00282572,0.00610561,0.000396012,0.713965,0.00394504,0.025624,1882,680,31.4329,3.11604
665,344,31.2716,-2.40479,0.00444717,0.00352078,0.00333757,0.00735353,0.00061442,0.716448,0.00471092,0.0418127,1889,680,31.2717,2.40476
672,344,31.2803,-1.7132,0,0,0,0,0,0,0,-1,1896,680,31.2802,1.71321
679,344,28.2183,-0.882141,0,0,0,0,0,0,0,-1,1903,680,28.2183,0.88215
686,344,15.024,1.82709,0,0,0,0,0,0,0,-1,1910,680,15.024,-1.82706
693,344,12.4362,-1.42346,0,0,0,0,0,0,0,-1,1917,680,12.4361,1.42348
700,344,17.5396,2.61206,0,0,0,0,0,0,0,-1,1924,680,17.5396,-2.61204
707,344,18.5829,3.29352,0,0,0,0,0,0,0,-1,1931,680,18.5828,-3.2935
714,344,0,0,0,0,0,0,0,0,0,-1,1938,680,0,0
721,344,0,0,0,0,0,0,0,0,0,-1,1945,680,0,0
728,344,0,0,0,0,0,0,0,0,0,-1,1952,680,0,0
735,344,0,0,0,0,0,0,0,0,0,-1,1959,680,0,0
742,344,0,0,0,0,0,0,0,0,0,-1,1966,680,0,0
749,344,0,0,0,0,0,0,0,0,0,-1,1973,680,0,0
756,344,0,0,0,0,0,0,0,0,0,-1,1980,680,0,0
763,344,0,0,0,0,0,0,0,0,0,-1,1987,680,0,0
770,344,0,0,0,0,0,0,0,0,0,-1,1994,680,0,0
777,344,0,0,0,0,0,0,0,0,0,-1,2001,680,0,0
784,344,0,0,0,0,0,0,0,0,0,-1,2008,680,0,0
791,344,0,0,0,0,0,0,0,0,0,-1,2015,680,0,0
798,344,0,0,0,0,0,0,0,0,0,-1,2022,680,0,0
805,344,0,0,0,0,0,0,0,0,0,-1,2029,680,0,0
812,344,0,0,0,0,0,0,0,0,0,-1,2036,680,0,0
-700,337,0,0,0,0,0,0,0,0,0,-1,524,687,0,0
-693,337,0,0,0,0,0,0,0,0,0,-1,531,687,0,0
-686,337,0,0,0,0,0,0,0,0,0,-1,538,687,0,0
-679,337,0,0,0,0,0,0,0,0,0,-1,545,687,0,0
-672,337,0,0,0,0,0,0,0,0,0,-1,552,687,0,0
-665,337,0,0,0,0,0,0,0,0,0,-1,559,687,0,0
-658,337,0,0,0,0,0,0,0,0,0,-1,566,687,0,0
-651,337,0,0,0,0,0,0,0,0,0,-1,573,687,0,0
-644,337,0,0,0,0,0,0,0,0,0,-1,580,687,0,0
-637,337,0,0,0,0,0,0,0,0,0,-1,587,687,0,0
-630,337,0,0,0,0,0,0,0,0,0,-1,594,687,0,0
-623,337,0,0,0,0,0,0,0,0,0,-1,601,687,0,0
-616,337,0,0,0,0,0,0,0,0,0,-1,608,687,0,0
-609,337,0,0,0,0,0,0,0,0,0,-1,615,687,0,0
-602,337,0,0,0,0,0,0,0,0,0,-1,622,687,0,0
-595,337,0,0,0,0,0,0,0,0,0,-1,629,687,0,0
-588,337,-10.8413,1.27863,0,0,0,0,0,0,0,-1,636,687,-10.8413,-1.27861
-581,337,-11.2157,1.31567,0,0,0,0,0,0,0,-1,643,687,-11.2157,-1.3157
-574,337,-6.03339,2.0321,0,0,0,0,0,0,0,-1,650,687,-6.03337,-2.03213
-567,337,-13.8102,1.56787,0,0,0,0,0,0,0,-1,657,687,-13.8102,-1.56789
-560,337,-15.5435,2.34247,0,0,0,0,0,0,0,-1,664,687,-15.5435,-2.34247
-553,337,-18.0128,1.12927,0,0,0,0,0,0,0,-1,671,687,-18.0128,-1.12926
-546,337,-18.0244,-2.03845,0,0,0,0,0,0,0,-1,678,687,-18.0244,2.03846
-539,337,-19.2426,-3.53815,0,0,0,0,0,0,0,-1,685,687,-19.2426,3.53813
-532,337,-19.4419,-4.64178,0,0,0,0,0,0,0,-1,692,687,-19.4419,4.64177
-525,337,-19.4437,-5.39111,0.00404045,0.00164972,-0.000925979,0.00435715,0.00133302,-0.329543,0.00257799,0.0178261,699,687,-19.4437,5.39109
-518,337,-19.4348,-6.14868,0.00326919,0.000897702,-0.000632388,0.00342729,0.000739607,-0.244976,0.00208257,0.024054,706,687,-19.4347,6.14867
-511,337,-19.4526,-6.86926,0.00268514,0.000324468,-0.00038092,0.00274508,0.000264525,-0.156085,0.00174856,0.0250163,713,687,-19.4527,6.86929
-504,337,-19.4619,-7.60699,0.00218836,-0.000128133,-0.000160029,0.00219936,-0.000139136,-0.068648,0.00151475,0.0248473,720,687,-19.4619,7.60699
-497,337,-19.4976,-8.35614,0.00188427,-0.000367356,-6.73205e-05,0.00188628,-0.000369367,-0.029863,0.00139702,0.0184892,727,687,-19.4976,8.35614
-490,337,-19.5264,-9.09027,0.0017187,-0.000437178,-9.61141e-05,0.00172298,-0.000441455,-0.0444647,0.00132063,0.0163955,734,687,-19.5264,9.09028
-483,337,-19.5291,-9.79779,0.00177511,-0.00029831,-0.00027172,0.00181012,-0.000333327,-0.128166,0.00133183,0.0164446,741,687,-19.5291,9.79776
-476,337,-19.5526,-10.5375,0.00199209,3.07917e-05,-0.000689298,0.00221011,-0.000187227,-0.306335,0.00153961,0.0178941,748,687,-19.5526,10.5375
-469,337,-19.5797,-11.2954,0,0,0,0,0,0,0,-1,755,687,-19.5797,11.2954
-462,337,-14.186,-8.89264,0,0,0,0,0,0,0,-1,762,687,-14.186,8.89266
-455,337,-6.00574,-3.12933,0,0,0,0,0,0,0,-1,769,687,-6.00576,3.12934
-448,337,-5.30627,-2.07202,0,0,0,0,0,0,0,-1,776,687,-5.30628,2.07205
-441,337,-4.24762,-1.49597,0,0,0,0,0,0,0,-1,783,687,-4.24762,1.49598
-434,337,-6.86908,1.37531,0,0,0,0,0,0,0,-1,790,687,-6.86908,-1.3753
-427,337,-9.92004,2.487,0,0,0,0,0,0,0,-1,797,687,-9.92002,-2.48701
-420,337,-2.95996,-1.76697,0,0,0,0,0,0,0,-1,804,687,-2.95998,1.76696
-413,337,-1.29169,-1.99487,0,0,0,0,0,0,0,-1,811,687,-1.29171,1.9949
-406,337,-1.02356,-1.89563,0,0,0,0,0,0,0,-1,818,687,-1.02357,1.89564
-399,337,-0.472839,-2.21338,0,0,0,0,0,0,0,-1,825,687,-0.472837,2.2134
-392,337,0,0,0,0,0,0,0,0,0,-1,832,687,0,0
-385,337,0,0,0,0,0,0,0,0,0,-1,839,687,0,0
-378,337,0,0,0,0,0,0,0,0,0,-1,846,687,0,0
-371,337,0,0,0,0,0,0,0,0,0,-1,853,687,0,0
-364,337,0,0,0,0,0,0,0,0,0,-1,860,687,0,0
-357,337,0,0,0,0,0,0,0,0,0,-1,867,687,0,0
-350,337,0,0,0,0,0,0,0,0,0,-1,874,687,0,0
-343,337,0,0,0,0,0,0,0,0,0,-1,881,687,0,0
-336,337,0,0,0,0,0,0,0,0,0,-1,888,687,0,0
-329,337,0,0,0,0,0,0,0,0,0,-1,895,687,0,0
-322,337,0,0,0,0,0,0,0,0,0,-1,902,687,0,0
-315,337,0,0,0,0,0,0,0,0,0,-1,909,687,0,0
-308,337,0,0,0,0,0,0,0,0,0,-1,916,687,0,0
-301,337,0,0,0,0,0,0,0,0,0,-1,923,687,0,0
-294,337,0,0,0,0,0,0,0,0,0,-1,930,687,0,0
-287,337,0,0,0,0,0,0,0,0,0,-1,937,687,0,0
-280,337,0,0,0,0,0,0,0,0,0,-1,944,687,0,0
-273,337,0,0,0,0,0,0,0,0,0,-1,951,687,0,0
-266,337,0,0,0,0,0,0,0,0,0,-1,958,687,0,0
-259,337,0,0,0,0,0,0,0,0,0,-1,965,687,0,0
-252,337,0,0,0,0,0,0,0,0,0,-1,972,687,0,0
-245,337,0,0,0,0,0,0,0,0,0,-1,979,687,0,0
-238,337,0,0,0,0,0,0,0,0,0,-1,986,687,0,0
-231,337,0,0,0,0,0,0,0,0,0,-1,993,687,0,0
-224,337,0,0,0,0,0,0,0,0,0,-1,1000,687,0,0
-217,337,0,0,0,0,0,0,0,0,0,-1,1007,687,0,0
-210,337,0,0,0,0,0,0,0,0,0,-1,1014,687,0,0
-203,337,0,0,0,0,0,0,0,0,0,-1,1021,687,0,0
-196,337,0,0,0,0,0,0,0,0,0,-1,1028,687,0,0
-189,337,0,0,0,0,0,0,0,0,0,-1,1035,687,0,0
-182,337,0,0,0,0,0,0,0,0,0,-1,1042,687,0,0
-175,337,0,0,0,0,0,0,0,0,0,-1,1049,687,0,0
-168,337,0,0,0,0,0,0,0,0,0,-1,1056,687,0,0
-161,337,0,0,0,0,0,0,0,0,0,-1,1063,687,0,0
-154,337,0,0,0,0,0,0,0,0,0,-1,1070,687,0,0
-147,337,0,0,0,0,0,0,0,0,0,-1,1077,687,0,0
-140,337,0,0,0,0,0,0,0,0,0,-1,1084,687,0,0
-133,337,0,0,0,0,0,0,0,0,0,-1,1091,687,0,0
-126,337,0,0,0,0,0,0,0,0,0,-1,1098,687,0,0
-119,337,0,0,0,0,0,0,0,0,0,-1,1105,687,0,0
-112,337,0,0,0,0,0,0,0,0,0,-1,1112,687,0,0
-105,337,0,0,0,0,0,0,0,0,0,-1,1119,687,0,0
-98,337,0,0,0,0,0,0,0,0,0,-1,1126,687,0,0
-91,337,0,0,0,0,0,0,0,0,0,-1,1133,687,0,0
-84,337,0,0,0,0,0,0,0,0,0,-1,1140,687,0,0
-77,337,0,0,0,0,0,0,0,0,0,-1,1147,687,0,0
-70,337,0,0,0,0,0,0,0,0,0,-1,1154,687,0,0
-63,337,0,0,0,0,0,0,0,0,0,-1,1161,687,0,0
-56,337,0,0,0,0,0,0,0,0,0,-1,1168,687,0,0
-49,337,0,0,0,0,0,0,0,0,0,-1,1175,687,0,0
-42,337,0,0,0,0,0,0,0,0,0,-1,1182,687,0,0
-35,337,0,0,0,0,0,0,0,0,0,-1,1189,687,0,0
-28,337,0,0,0,0,0,0,0,0,0,-1,1196,687,0,0
-21,337,0,0,0,0,0,0,0,0,0,-1,1203,687,0,0
-14,337,0,0,0,0,0,0,0,0,0,-1,1210,687,0,0
-7,337,0,0,0,0,0,0,0,0,0,-1,1217,687,0,0
0,337,0,0,0,0,0,0,0,0,0,-1,1224,687,0,0
7,337,0,0,0,0,0,0,0,0,0,-1,1231,687,0,0
14,337,0,0,0,0,0,0,0,0,0,-1,1238,687,0,0
21,337,0,0,0,0,0,0,0,0,0,-1,1245,687,0,0
28,337,0,0,0,0,0,0,0,0,0,-1,1252,687,0,0
35,337,0,0,0,0,0,0,0,0,0,-1,1259,687,0,0
42,337,0,0,0,0,0,0,0,0,0,-1,1266,687,0,0
49,337,0,0,0,0,0,0,0,0,0,-1,1273,687,0,0
56,337,0,0,0,0,0,0,0,0,0,-1,1280,687,0,0
63,337,0,0,0,0,0,0,0,0,0,-1,1287,687,0,0
70,337,0,0,0,0,0,0,0,0,0,-1,1294,687,0,0
77,337,0,0,0,0,0,0,0,0,0,-1,1301,687,0,0
84,337,0,0,0,0,0,0,0,0,0,-1,1308,687,0,0
91,337,0,0,0,0,0,0,0,0,0,-1,1315,687,0,0
98,337,0,0,0,0,0,0,0,0,0,-1,1322,687,0,0
105,337,0,0,0,0,0,0,0,0,0,-1,1329,687,0,0
112,337,0,0,0,0,0,0,0,0,0,-1,1336,687,0,0
119,337,0,0,0,0,0,0,0,0,0,-1,1343,687,0,0
126,337,0,0,0,0,0,0,0,0,0,-1,1350,687,0,0
133,337,0,0,0,0,0,0,0,0,0,-1,1357,687,0,0
140,337,0,0,0,0,0,0,0,0,0,-1,1364,687,0,0
147,337,0,0,0,0,0,0,0,0,0,-1,1371,687,0,0
154,337,0,0,0,0,0,0,0,0,0,-1,1378,687,0,0
161,337,0,0,0,0,0,0,0,0,0,-1,1385,687,0,0
168,337,0,0,0,0,0,0,0,0,0,-1,1392,687,0,0
175,337,0,0,0,0,0,0,0,0,0,-1,1399,687,0,0
182,337,0,0,0,0,0,0,0,0,0,-1,1406,687,0,0
189,337,0,0,0,0,0,0,0,0,0,-1,1413,687,0,0
196,337,0,0,0,0,0,0,0,0,0,-1,1420,687,0,0
203,337,0,0,0,0,0,0,0,0,0,-1,1427,687,0,0
210,337,0,0,0,0,0,0,0,0,0,-1,1434,687,0,0
217,337,0,0,0,0,0,0,0,0,0,-1,1441,687,0,0
224,337,0,0,0,0,0,0,0,0,0,-1,1448,687,0,0
231,337,0,0,0,0,0,0,0,0,0,-1,1455,687,0,0
238,337,0,0,0,0,0,0,0,0,0,-1,1462,687,0,0
245,337,0,0,0,0,0,0,0,0,0,-1,1469,687,0,0
252,337,0,0,0,0,0,0,0,0,0,-1,1476,687,0,0
259,337,0,0,0,0,0,0,0,0,0,-1,1483,687,0,0
266,337,0,0,0,0,0,0,0,0,0,-1,1490,687,0,0
273,337,0,0,0,0,0,0,0,0,0,-1,1497,687,0,0
280,337,0,0,0,0,0,0,0,0,0,-1,1504,687,0,0
287,337,0,0,0,0,0,0,0,0,0,-1,1511,687,0,0
294,337,0,0,0,0,0,0,0,0,0,-1,1518,687,0,0
301,337,0,0,0,0,0,0,0,0,0,-1,1525,687,0,0
308,337,0,0,0,0,0,0,0,0,0,-1,1532,687,0,0
315,337,0,0,0,0,0,0,0,0,0,-1,1539,687,0,0
322,337,0,0,0,0,0,0,0,0,0,-1,1546,687,0,0
329,337,0,0,0,0,0,0,0,0,0,-1,1553,687,0,0
336,337,0,0,0,0,0,0,0,0,0,-1,1560,687,0,0
343,337,0,0,0,0,0,0,0,0,0,-1,1567,687,0,0
350,337,0,0,0,0,0,0,0,0,0,-1,1574,687,0,0
357,337,0,0,0,0,0,0,0,0,0,-1,1581,687,0,0
364,337,0,0,0,0,0,0,0,0,0,-1,1588,687,0,0
371,337,0,0,0,0,0,0,0,0,0,-1,1595,687,0,0
378,337,0,0,0,0,0,0,0,0,0,-1,1602,687,0,0
385,337,0,0,0,0,0,0,0,0,0,-1,1609,687,0,0
392,337,0,0,0,0,0,0,0,0,0,-1,1616,687,0,0
399,337,0,0,0,0,0,0,0,0,0,-1,1623,687,0,0
406,337,0,0,0,0,0,0,0,0,0,-1,1630,687,0,0
413,337,0,0,0,0,0,0,0,0,0,-1,1637,687,0,0
420,337,0,0,0,0,0,0,0,0,0,-1,1644,687,0,0
427,337,0,0,0,0,0,0,0,0,0,-1,1651,687,0,0
434,337,0,0,0,0,0,0,0,0,0,-1,1658,687,0,0
441,337,0,0,0,0,0,0,0,0,0,-1,1665,687,0,0
448,337,0,0,0,0,0,0,0,0,0,-1,1672,687,0,0
455,337,0,0,0,0,0,0,0,0,0,-1,1679,687,0,0
462,337,0,0,0,0,0,0,0,0,0,-1,1686,687,0,0
469,337,0,0,0,0,0,0,0,0,0,-1,1693,687,0,0
476,337,0,0,0,0,0,0,0,0,0,-1,1700,687,0,0
483,337,0,0,0,0,0,0,0,0,0,-1,1707,687,0,0
490,337,0,0,0,0,0,0,0,0,0,-1,1714,687,0,0
497,337,0,0,0,0,0,0,0,0,0,-1,1721,687,0,0
504,337,0,0,0,0,0,0,0,0,0,-1,1728,687,0,0
511,337,0,0,0,0,0,0,0,0,0,-1,1735,687,0,0
518,337,18.0369,1.64581,0,0,0,0,0,0,0,-1,1742,687,18.0368,-1.64581
525,337,31.0717,2.13745,0,0,0,0,0,0,0,-1,1749,687,31.0717,-2.13747
532,337,31.5126,2.13904,0,0,0,0,0,0,0,-1,1756,687,31.5125,-2.13905
539,337,31.9684,2.15594,0,0,0,0,0,0,0,-1,1763,687,31.9684,-2.15596
546,337,32.3584,1.43719,0,0,0,0,0,0,0,-1,1770,687,32.3585,-1.43722
553,337,32.1809,1.36395,0,0,0,0,0,0,0,-1,1777,687,32.181,-1.36396
560,337,18.4053,3.62793,0,0,0,0,0,0,0,-1,1784,687,18.4052,-3.6279
567,337,11.9288,1.38776,0,0,0,0,0,0,0,-1,1791,687,11.9288,-1.38777
574,337,10.704,1.19476,0,0,0,0,0,0,0,-1,1798,687,10.704,-1.19478
581,337,8.50427,0.561768,0,0,0,0,0,0,0,-1,1805,687,8.5043,-0.561754
588,337,8.5885,-0.0536499,0,0,0,0,0,0,0,-1,1812,687,8.58844,0.0536788
595,337,13.8816,-1.70703,0,0,0,0,0,0,0,-1,1819,687,13.8816,1.70702
602,337,32.4434,-9.1803,0,0,0,0,0,0,0,-1,1826,687,32.4433,9.18031
609,337,32.4067,-8.37183,0.000848589,-0.000482563,-0.000850722,0.00126316,-0.000897136,-0.45345,0.0012532,0.0240491,1833,687,32.4067,8.37185
616,337,32.3636,-7.659,0.00106074,-0.000277779,-0.000358041,0.0011505,-0.000367533,-0.245619,0.000914468,0.0171606,1840,687,32.3636,7.65898
623,337,32.3319,-6.94287,0.00123625,5.46197e-06,5.60798e-05,0.0012388,2.91201e-06,0.0454385,0.000824901,0.0151503,1847,687,32.3319,6.94288
630,337,32.2717,-6.20154,0.00150009,0.000362831,0.00051648,0.00169963,0.000163286,0.368689,0.00108277,0.0196498,1854,687,32.2717,6.20151
637,337,32.2733,-5.45001,0.00182242,0.000747437,0.00096617,0.00239054,0.000179314,0.531561,0.00153741,0.0180729,1861,687,32.2733,5.44999
644,337,32.2522,-4.66541,0.00219438,0.00119063,0.00141226,0.00319129,0.000193717,0.614672,0.00206598,0.012213,1868,687,32.2522,4.66541
651,337,32.1996,-3.90442,0.00263186,0.001724,0.00187076,0.00410298,0.000252886,0.666377,0.00265504,0.0104121,1875,687,32.1996,3.90444
658,337,32.1787,-3.14844,0.00311517,0.00233935,0.00230312,0.00506281,0.000391703,0.701966,0.00325251,0.0117464,1882,687,32.1787,3.14842
665,337,32.1671,-2.40906,0.00387829,0.00306846,0.0028045,0.00630696,0.000639794,0.713703,0.00400843,0.0157027,1889,687,32.1671,2.40904
672,337,32.182,-1.62775,0,0,0,0,0,0,0,-1,1896,687,32.182,1.62775
679,337,31.7838,-0.84668,0,0,0,0,0,0,0,-1,1903,687,31.7839,0.846682
686,337,18.5614,1.68597,0,0,0,0,0,0,0,-1,1910,687,18.5614,-1.68598
693,337,16.5415,2.21411,0,0,0,0,0,0,0,-1,1917,687,16.5415,-2.2141
700,337,17.2661,2.44379,0,0,0,0,0,0,0,-1,1924,687,17.2661,-2.44378
707,337,17.3544,5.61853,0,0,0,0,0,0,0,-1,1931,687,17.3543,-5.61851
714,337,0,0,0,0,0,0,0,0,0,-1,1938,687,0,0
721,337,0,0,0,0,0,0,0,0,0,-1,1945,687,0,0
728,337,0,0,0,0,0,0,0,0,0,-1,1952,687,0,0
735,337,0,0,0,0,0,0,0,0,0,-1,1959,687,0,0
742,337,0,0,0,0,0,0,0,0,0,-1,1966,687,0,0
749,337,0,0,0,0,0,0,0,0,0,-1,1973,687,0,0
756,337,0,0,0,0,0,0,0,0,0,-1,1980,687,0,0
763,337,0,0,0,0,0,0,0,0,0,-1,1987,687,0,0
770,337,0,0,0,0,0,0,0,0,0,-1,1994,687,0,0
777,337,0,0,0,0,0,0,0,0,0,-1,2001,687,0,0
784,337,0,0,0,0,0,0,0,0,0,-1,2008,687,0,0
791,337,0,0,0,0,0,0,0,0,0,-1,2015,687,0,0
798,337,0,0,0,0,0,0,0,0,0,-1,2022,687,0,0
805,337,0,0,0,0,0,0,0,0,0,-1,2029,687,0,0
812,337,0,0,0,0,0,0,0,0,0,-1,2036,687,0,0
-700,330,0,0,0,0,0,0,0,0,0,-1,524,694,0,0
-693,330,0,0,0,0,0,0,0,0,0,-1,531,694,0,0
-686,330,0,0,0,0,0,0,0,0,0,-1,538,694,0,0
-679,330,0,0,0,0,0,0,0,0,0,-1,545,694,0,0
-672,330,0,0,0,0,0,0,0,0,0,-1,552,694,0,0
-665,330,0,0,0,0,0,0,0,0,0,-1,559,694,0,0
-658,330,0,0,0,0,0,0,0,0,0,-1,566,694,0,0
-651,330,0,0,0,0,0,0,0,0,0,-1,573,694,0,0
-644,330,0,0,0,0,0,0,0,0,0,-1,580,694,0,0
-637,330,0,0,0,0,0,0,0,0,0,-1,587,694,0,0
-630,330,0,0,0,0,0,0,0,0,0,-1,594,694,0,0
-623,330,0,0,0,0,0,0,0,0,0,-1,601,694,0,0
-616,330,0,0,0,0,0,0,0,0,0,-1,608,694,0,0
-609,330,0,0,0,0,0,0,0,0,0,-1,615,694,0,0
-602,330,0,0,0,0,0,0,0,0,0,-1,622,694,0,0
-595,330,-4.67883,1.65515,0,0,0,0,0,0,0,-1,629,694,-4.67881,-1.65515
-588,330,-8.5047,2.67346,0,0,0,0,0,0,0,-1,636,694,-8.50469,-2.67348
-581,330,-12.4227,0.947083,0,0,0,0,0,0,0,-1,643,694,-12.4227,-0.947109
-574,330,-9.02118,1.87952,0,0,0,0,0,0,0,-1,650,694,-9.02115,-1.87953
-567,330,-8.35577,0.909973,0,0,0,0,0,0,0,-1,657,694,-8.35575,-0.909945
-560,330,-13.1036,-0.584656,0,0,0,0,0,0,0,-1,664,694,-13.1035,0.584658
-553,330,-17.5484,-1.21545,0,0,0,0,0,0,0,-1,671,694,-17.5484,1.21547
-546,330,-19.9052,-2.93494,0,0,0,0,0,0,0,-1,678,694,-19.9052,2.93491
-539,330,-20.1618,-3.81842,0,0,0,0,0,0,0,-1,685,694,-20.1618,3.81842
-532,330,-20.1296,-4.61737,0.00392882,0.00204362,-0.000827751,0.00424068,0.00173176,-0.360308,0.00246202,0.0205619,692,694,-20.1296,4.61737
-525,330,-20.12,-5.39563,0.0033249,0.00122931,-0.000600817,0.00348493,0.00106927,-0.26032,0.00206147,0.0108073,699,694,-20.12,5.39563
-518,330,-20.1359,-6.10541,0.00281165,0.000596511,-0.000353655,0.00286674,0.000541419,-0.154537,0.00175869,0.015231,706,694,-20.1359,6.10538
-511,330,-20.1921,-6.82861,0.00240124,0.000114711,-0.00014178,0.00241,0.000105953,-0.0616917,0.00157254,0.021081,713,694,-20.1921,6.82864
-504,330,-20.2134,-7.55493,0.00203722,-0.000247641,6.90817e-05,0.0020393,-0.000249728,0.0301978,0.00144997,0.0195533,720,694,-20.2134,7.55495
-497,330,-20.2387,-8.2597,0.00185665,-0.000384748,0.000141083,0.00186549,-0.000393593,0.062615,0.00139351,0.0145627,727,694,-20.2387,8.25969
-490,330,-20.2308,-9.01294,0.00185845,-0.000365831,0.000116218,0.0018645,-0.000371887,0.052061,0.00138372,0.0148497,734,694,-20.2307,9.01293
-483,330,-20.2454,-9.76288,0.00205817,-0.000117037,-7.74274e-05,0.00206093,-0.00011979,-0.0355354,0.00141557,0.0149174,741,694,-20.2454,9.7629
-476,330,-20.3269,-10.5108,0,0,0,0,0,0,0,-1,748,694,-20.3269,10.5108
-469,330,-16.1478,-9.23303,0,0,0,0,0,0,0,-1,755,694,-16.1478,9.23301
-462,330,-7.26733,-3.84833,0,0,0,0,0,0,0,-1,762,694,-7.26731,3.84832
-455,330,-5.04254,-1.79303,0,0,0,0,0,0,0,-1,769,694,-5.04252,1.79305
-448,330,-4.89886,-1.66156,0,0,0,0,0,0,0,-1,776,694,-4.89886,1.66157
-441,330,-5.30676,-2.34045,0,0,0,0,0,0,0,-1,783,694,-5.30679,2.34048
-434,330,-7.20428,1.00024,0,0,0,0,0,0,0,-1,790,694,-7.20431,-1.00027
-427,330,-16.0428,2.89258,0,0,0,0,0,0,0,-1,797,694,-16.0428,-2.89259
-420,330,-29.0331,0.271606,0,0,0,0,0,0,0,-1,804,694,-29.0331,-0.27158
-413,330,-29.0896,0.56366,0,0,0,0,0,0,0,-1,811,694,-29.0896,-0.563671
-406,330,-1.65375,-1.74371,0,0,0,0,0,0,0,-1,818,694,-1.65375,1.74371
-399,330,0,0,0,0,0,0,0,0,0,-1,825,694,0,0
-392,330,0,0,0,0,0,0,0,0,0,-1,832,694,0,0
-385,330,0,0,0,0,0,0,0,0,0,-1,839,694,0,0
-378,330,0,0,0,0,0,0,0,0,0,-1,846,694,0,0
-371,330,0,0,0,0,0,0,0,0,0,-1,853,694,0,0
-364,330,0,0,0,0,0,0,0,0,0,-1,860,694,0,0
-357,330,0,0,0,0,0,0,0,0,0,-1,867,694,0,0
-350,330,0,0,0,0,0,0,0,0,0,-1,874,694,0,0
-343,330,0,0,0,0,0,0,0,0,0,-1,881,694,0,0
-336,330,0,0,0,0,0,0,0,0,0,-1,888,694,0,0
-329,330,0,0,0,0,0,0,0,0,0,-1,895,694,0,0
-322,330,0,0,0,0,0,0,0,0,0,-1,902,694,0,0
-315,330,0,0,0,0,0,0,0,0,0,-1,909,694,0,0
-308,330,0,0,0,0,0,0,0,0,0,-1,916,694,0,0
-301,330,0,0,0,0,0,0,0,0,0,-1,923,694,0,0
-294,330,0,0,0,0,0,0,0,0,0,-1,930,694,0,0
-287,330,0,0,0,0,0,0,0,0,0,-1,937,694,0,0
-280,330,0,0,0,0,0,0,0,0,0,-1,944,694,0,0
-273,330,0,0,0,0,0,0,0,0,0,-1,951,694,0,0
-266,330,0,0,0,0,0,0,0,0,0,-1,958,694,0,0
-259,330,0,0,0,0,0,0,0,0,0,-1,965,694,0,0
-252,330,0,0,0,0,0,0,0,0,0,-1,972,694,0,0
-245,330,0,0,0,0,0,0,0,0,0,-1,979,694,0,0
-238,330,0,0,0,0,0,0,0,0,0,-1,986,694,0,0
-231,330,0,0,0,0,0,0,0,0,0,-1,993,694,0,0
-224,330,0,0,0,0,0,0,0,0,0,-1,1000,694,0,0
-217,330,0,0,0,0,0,0,0,0,0,-1,1007,694,0,0
-210,330,0,0,0,0,0,0,0,0,0,-1,1014,694,0,0
-203,330,0,0,0,0,0,0,0,0,0,-1,1021,694,0,0
-196,330,0,0,0,0,0,0,0,0,0,-1,1028,694,0,0
-189,330,0,0,0,0,0,0,0,0,0,-1,1035,694,0,0
-182,330,0,0,0,0,0,0,0,0,0,-1,1042,694,0,0
-175,330,0,0,0,0,0,0,0,0,0,-1,1049,694,0,0
-168,330,0,0,0,0,0,0,0,0,0,-1,1056,694,0,0
-161,330,0,0,0,0,0,0,0,0,0,-1,1063,694,0,0
-154,330,0,0,0,0,0,0,0,0,0,-1,1070,694,0,0
-147,330,0,0,0,0,0,0,0,0,0,-1,1077,694,0,0
-140,330,0,0,0,0,0,0,0,0,0,-1,1084,694,0,0
-133,330,0,0,0,0,0,0,0,0,0,-1,1091,694,0,0
-126,330,0,0,0,0,0,0,0,0,0,-1,1098,694,0,0
-119,330,0,0,0,0,0,0,0,0,0,-1,1105,694,0,0
-112,330,0,0,0,0,0,0,0,0,0,-1,1112,694,0,0
-105,330,0,0,0,0,0,0,0,0,0,-1,1119,694,0,0
-98,330,0,0,0,0,0,0,0,0,0,-1,1126,694,0,0
-91,330,0,0,0,0,0,0,0,0,0,-1,1133,694,0,0
-84,330,0,0,0,0,0,0,0,0,0,-1,1140,694,0,0
-77,330,0,0,0,0,0,0,0,0,0,-1,1147,694,0,0
-70,330,0,0,0,0,0,0,0,0,0,-1,1154,694,0,0
-63,330,0,0,0,0,0,0,0,0,0,-1,1161,694,0,0
-56,330,0,0,0,0,0,0,0,0,0,-1,1168,694,0,0
-49,330,0,0,0,0,0,0,0,0,0,-1,1175,694,0,0
-42,330,0,0,0,0,0,0,0,0,0,-1,1182,694,0,0
-35,330,0,0,0,0,0,0,0,0,0,-1,1189,694,0,0
-28,330,0,0,0,0,0,0,0,0,0,-1,1196,694,0,0
-21,330,0,0,0,0,0,0,0,0,0,-1,1203,694,0,0
-14,330,0,0,0,0,0,0,0,0,0,-1,1210,694,0,0
-7,330,0,0,0,0,0,0,0,0,0,-1,1217,694,0,0
0,330,0,0,0,0,0,0,0,0,0,-1,1224,694,0,0
7,330,0,0,0,0,0,0,0,0,0,-1,1231,694,0,0
14,330,0,0,0,0,0,0,0,0,0,-1,1238,694,0,0
21,330,0,0,0,0,0,0,0,0,0,-1,1245,694,0,0
28,330,0,0,0,0,0,0,0,0,0,-1,1252,694,0,0
35,330,0,0,0,0,0,0,0,0,0,-1,1259,694,0,0
42,330,0,0,0,0,0,0,0,0,0,-1,1266,694,0,0
49,330,0,0,0,0,0,0,0,0,0,-1,1273,694,0,0
56,330,0,0,0,0,0,0,0,0,0,-1,1280,694,0,0
63,330,0,0,0,0,0,0,0,0,0,-1,1287,694,0,0
70,330,0,0,0,0,0,0,0,0,0,-1,1294,694,0,0
77,330,0,0,0,0,0,0,0,0,0,-1,1301,694,0,0
84,330,0,0,0,0,0,0,0,0,0,-1,1308,694,0,0
91,330,0,0,0,0,0,0,0,0,0,-1,1315,694,0,0
98,330,0,0,0,0,0,0,0,0,0,-1,1322,694,0,0
105,330,0,0,0,0,0,0,0,0,0,-1,1329,694,0,0
112,330,0,0,0,0,0,0,0,0,0,-1,1336,694,0,0
119,330,0,0,0,0,0,0,0,0,0,-1,1343,694,0,0
126,330,0,0,0,0,0,0,0,0,0,-1,1350,694,0,0
133,330,0,0,0,0,0,0,0,0,0,-1,1357,694,0,0
140,330,0,0,0,0,0,0,0,0,0,-1,1364,694,0,0
147,330,0,0,0,0,0,0,0,0,0,-1,1371,694,0,0
154,330,0,0,0,0,0,0,0,0,0,-1,1378,694,0,0
161,330,0,0,0,0,0,0,0,0,0,-1,1385,694,0,0
168,330,0,0,0,0,0,0,0,0,0,-1,1392,694,0,0
175,330,0,0,0,0,0,0,0,0,0,-1,1399,694,0,0
182,330,0,0,0,0,0,0,0,0,0,-1,1406,694,0,0
189,330,0,0,0,0,0,0,0,0,0,-1,1413,694,0,0
196,330,0,0,0,0,0,0,0,0,0,-1,1420,694,0,0
203,330,0,0,0,0,0,0,0,0,0,-1,1427,694,0,0
210,330,0,0,0,0,0,0,0,0,0,-1,1434,694,0,0
217,330,0,0,0,0,0,0,0,0,0,-1,1441,694,0,0
224,330,0,0,0,0,0,0,0,0,0,-1,1448,694,0,0
231,330,0,0,0,0,0,0,0,0,0,-1,1455,694,0,0
238,330,0,0,0,0,0,0,0,0,0,-1,1462,694,0,0
245,330,0,0,0,0,0,0,0,0,0,-1,1469,694,0,0
252,330,0,0,0,0,0,0,0,0,0,-1,1476,694,0,0
259,330,0,0,0,0,0,0,0,0,0,-1,1483,694,0,0
266,330,0,0,0,0,0,0,0,0,0,-1,1490,694,0,0
273,330,0,0,0,0,0,0,0,0,0,-1,1497,694,0,0
280,330,0,0,0,0,0,0,0,0,0,-1,1504,694,0,0
287,330,0,0,0,0,0,0,0,0,0,-1,1511,694,0,0
294,330,0,0,0,0,0,0,0,0,0,-1,1518,694,0,0
301,330,0,0,0,0,0,0,0,0,0,-1,1525,694,0,0
308,330,0,0,0,0,0,0,0,0,0,-1,1532,694,0,0
315,330,0,0,0,0,0,0,0,0,0,-1,1539,694,0,0
322,330,0,0,0,0,0,0,0,0,0,-1,1546,694,0,0
329,330,0,0,0,0,0,0,0,0,0,-1,1553,694,0,0
336,330,0,0,0,0,0,0,0,0,0,-1,1560,694,0,0
343,330,0,0,0,0,0,0,0,0,0,-1,1567,694,0,0
350,330,0,0,0,0,0,0,0,0,0,-1,1574,694,0,0
357,330,0,0,0,0,0,0,0,0,0,-1,1581,694,0,0
364,330,0,0,0,0,0,0,0,0,0,-1,1588,694,0,0
371,330,0,0,0,0,0,0,0,0,0,-1,1595,694,0,0
378,330,0,0,0,0,0,0,0,0,0,-1,1602,694,0,0
385,330,0,0,0,0,0,0,0,0,0,-1,1609,694,0,0
392,330,0,0,0,0,0,0,0,0,0,-1,1616,694,0,0
399,330,0,0,0,0,0,0,0,0,0,-1,1623,694,0,0
406,330,0,0,0,0,0,0,0,0,0,-1,1630,694,0,0
413,330,0,0,0,0,0,0,0,0,0,-1,1637,694,0,0
420,330,0,0,0,0,0,0,0,0,0,-1,1644,694,0,0
427,330,0,0,0,0,0,0,0,0,0,-1,1651,694,0,0
434,330,0,0,0,0,0,0,0,0,0,-1,1658,694,0,0
441,330,0,0,0,0,0,0,0,0,0,-1,1665,694,0,0
448,330,0,0,0,0,0,0,0,0,0,-1,1672,694,0,0
455,330,0,0,0,0,0,0,0,0,0,-1,1679,694,0,0
462,330,0,0,0,0,0,0,0,0,0,-1,1686,694,0,0
469,330,0,0,0,0,0,0,0,0,0,-1,1693,694,0,0
476,330,0,0,0,0,0,0,0,0,0,-1,1700,694,0,0
483,330,0,0,0,0,0,0,0,0,0,-1,1707,694,0,0
490,330,0,0,0,0,0,0,0,0,0,-1,1714,694,0,0
497,330,0,0,0,0,0,0,0,0,0,-1,1721,694,0,0
504,330,0,0,0,0,0,0,0,0,0,-1,1728,694,0,0
511,330,0,0,0,0,0,0,0,0,0,-1,1735,694,0,0
518,330,0,0,0,0,0,0,0,0,0,-1,1742,694,0,0
525,330,30.6694,0.69519,0,0,0,0,0,0,0,-1,1749,694,30.6694,-0.695206
532,330,30.9469,1.32501,0,0,0,0,0,0,0,-1,1756,694,30.9469,-1.32501
539,330,31.5155,1.62506,0,0,0,0,0,0,0,-1,1763,694,31.5155,-1.62507
546,330,31.4187,1.85651,0,0,0,0,0,0,0,-1,1770,694,31.4187,-1.85651
553,330,31.8452,1.81476,0,0,0,0,0,0,0,-1,1777,694,31.8452,-1.81475
560,330,32.2401,2.43225,0,0,0,0,0,0,0,-1,1784,694,32.2401,-2.43227
567,330,18.0321,3.98578,0,0,0,0,0,0,0,-1,1791,694,18.0321,-3.98576
574,330,12.0454,2.1662,0,0,0,0,0,0,0,-1,1798,694,12.0455,-2.16618
581,330,11.4215,4.50836,0,0,0,0,0,0,0,-1,1805,694,11.4215,-4.50837
588,330,6.45667,-0.0630493,0,0,0,0,0,0,0,-1,1812,694,6.45661,0.0630695
595,330,8.23193,-0.258484,0,0,0,0,0,0,0,-1,1819,694,8.23188,0.258459
602,330,33.0012,-9.21979,0,0,0,0,0,0,0,-1,1826,694,33.0012,9.21978
609,330,33.098,-8.37,0.00109685,-0.000605558,-0.000914309,0.00149485,-0.00100356,-0.410563,0.00145172,0.0314018,1833,694,33.0981,8.37001
616,330,33.1161,-7.63989,0.00112942,-0.000482753,-0.000440006,0.00124169,-0.000595024,-0.249827,0.00108212,0.011678,1840,694,33.1161,7.63987
623,330,33.0967,-6.91913,0.00111252,-0.000239936,-9.41902e-05,0.00111905,-0.000246465,-0.0691983,0.000840326,0.0132502,1847,694,33.0967,6.91912
630,330,33.0807,-6.13824,0.00124377,6.50988e-05,0.000299851,0.00131567,-6.79691e-06,0.235329,0.000879387,0.0134528,1854,694,33.0807,6.13824
637,330,33.0504,-5.38104,0.00146409,0.000424208,0.000687039,0.00180575,8.25454e-05,0.461483,0.00117729,0.0138778,1861,694,33.0505,5.38103
644,330,32.9789,-4.63702,0.0017616,0.000854141,0.00107872,0.00247813,0.000137606,0.586323,0.00160818,0.00968901,1868,694,32.9788,4.63701
651,330,32.9491,-3.86621,0.00214493,0.00136747,0.0014857,0.00329191,0.000220487,0.657442,0.00212493,0.0122761,1875,694,32.9491,3.86619
658,330,32.9041,-3.12329,0.00261387,0.0019686,0.00189828,0.00421674,0.00036573,0.701222,0.00269752,0.012648,1882,694,32.9041,3.12331
665,330,32.8478,-2.37036,0.0033207,0.002684,0.00237212,0.00539574,0.000608962,0.718695,0.00341233,0.0117034,1889,694,32.8478,2.37036
672,330,32.902,-1.60468,0.00425712,0.00353299,0.00278427,0.00670277,0.00108734,0.720741,0.00415378,0.0314006,1896,694,32.9019,1.60467
679,330,33.05,-0.792175,0,0,0,0,0,0,0,-1,1903,694,33.0501,0.792187
686,330,30.6691,0.582825,0,0,0,0,0,0,0,-1,1910,694,30.6691,-0.582798
693,330,17.3999,2.5976,0,0,0,0,0,0,0,-1,1917,694,17.4,-2.59759
700,330,17.1072,4.13,0,0,0,0,0,0,0,-1,1924,694,17.1071,-4.13002
707,330,16.663,4.88672,0,0,0,0,0,0,0,-1,1931,694,16.6629,-4.88673
714,330,16.5454,5.80896,0,0,0,0,0,0,0,-1,1938,694,16.5454,-5.80899
721,330,0,0,0,0,0,0,0,0,0,-1,1945,694,0,0
728,330,0,0,0,0,0,0,0,0,0,-1,1952,694,0,0
735,330,0,0,0,0,0,0,0,0,0,-1,1959,694,0,0
742,330,0,0,0,0,0,0,0,0,0,-1,1966,694,0,0
749,330,0,0,0,0,0,0,0,0,0,-1,1973,694,0,0
756,330,0,0,0,0,0,0,0,0,0,-1,1980,694,0,0
763,330,0,0,0,0,0,0,0,0,0,-1,1987,694,0,0
770,330,0,0,0,0,0,0,0,0,0,-1,1994,694,0,0
777,330,0,0,0,0,0,0,0,0,0,-1,2001,694,0,0
784,330,0,0,0,0,0,0,0,0,0,-1,2008,694,0,0
791,330,0,0,0,0,0,0,0,0,0,-1,2015,694,0,0
798,330,0,0,0,0,0,0,0,0,0,-1,2022,694,0,0
805,330,0,0,0,0,0,0,0,0,0,-1,2029,694,0,0
812,330,0,0,0,0,0,0,0,0,0,-1,2036,694,0,0
-700,323,0,0,0,0,0,0,0,0,0,-1,524,701,0,0
-693,323,0,0,0,0,0,0,0,0,0,-1,531,701,0,0
-686,323,0,0,0,0,0,0,0,0,0,-1,538,701,0,0
-679,323,0,0,0,0,0,0,0,0,0,-1,545,701,0,0
-672,323,0,0,0,0,0,0,0,0,0,-1,552,701,0,0
-665,323,0,0,0,0,0,0,0,0,0,-1,559,701,0,0
-658,323,0,0,0,0,0,0,0,0,0,-1,566,701,0,0
-651,323,0,0,0,0,0,0,0,0,0,-1,573,701,0,0
-644,323,0,0,0,0,0,0,0,0,0,-1,580,701,0,0
-637,323,0,0,0,0,0,0,0,0,0,-1,587,701,0,0
-630,323,0,0,0,0,0,0,0,0,0,-1,594,701,0,0
-623,323,0,0,0,0,0,0,0,0,0,-1,601,701,0,0
-616,323,0,0,0,0,0,0,0,0,0,-1,608,701,0,0
-609,323,0,0,0,0,0,0,0,0,0,-1,615,701,0,0
-602,323,-4.15833,2.12256,0,0,0,0,0,0,0,-1,622,701,-4.1583,-2.12257
-595,323,-4.052,1.79156,0,0,0,0,0,0,0,-1,629,701,-4.05198,-1.79158
-588,323,-4.07019,1.94543,0,0,0,0,0,0,0,-1,636,701,-4.07019,-1.94542
-581,323,-6.63727,0.562805,0,0,0,0,0,0,0,-1,643,701,-6.63728,-0.56279
-574,323,-6.15887,0.426697,0,0,0,0,0,0,0,-1,650,701,-6.15887,-0.426727
-567,323,-10.0015,0.0371094,0,0,0,0,0,0,0,-1,657,701,-10.0015,-0.037126
-560,323,-16.3503,-1.16956,0,0,0,0,0,0,0,-1,664,701,-16.3503,1.16957
-553,323,-20.7834,-2.55341,0,0,0,0,0,0,0,-1,671,701,-20.7834,2.55341
-546,323,-20.75,-3.15027,0.00386577,0.00355458,-0.000769201,0.00449495,0.00292539,-0.685604,0.00263422,0.0331074,678,701,-20.75,3.15029
-539,323,-20.7339,-3.80225,0.00362162,0.00262769,-0.000723206,0.00400215,0.00224715,-0.484366,0.00231646,0.0253425,685,701,-20.7339,3.80223
-532,323,-20.8027,-4.59753,0.00327696,0.00179305,-0.000603012,0.0034911,0.00157891,-0.341229,0.00201865,0.0117317,692,701,-20.8027,4.59754
-525,323,-20.8473,-5.35797,0.00288204,0.00103916,-0.000408418,0.0029685,0.000952699,-0.208608,0.00175012,0.00825215,699,701,-20.8473,5.35797
-518,323,-20.8693,-6.05121,0.00253459,0.00043164,-0.000194518,0.00255243,0.000413799,-0.0914637,0.00158183,0.0103461,706,701,-20.8693,6.05123
-511,323,-20.9158,-6.77075,0.00219884,-6.06514e-05,5.75624e-06,0.00219885,-6.06661e-05,0.00254756,0.00148654,0.0137494,713,701,-20.9158,6.77074
-504,323,-20.9576,-7.49146,0.00185876,-0.000440168,0.000227864,0.00188113,-0.000462535,0.097849,0.00143336,0.0149148,720,701,-20.9576,7.49143
-497,323,-20.9662,-8.20306,0.00167911,-0.0005852,0.000317507,0.00172279,-0.000628879,0.136711,0.00140585,0.0126315,727,701,-20.9662,8.20305
-490,323,-20.9822,-8.94202,0.0017426,-0.000593587,0.000361639,0.0017973,-0.000648288,0.150119,0.00146298,0.0142673,734,701,-20.9822,8.94203
-483,323,-20.9974,-9.6626,0.0019875,-0.000305903,0.000223903,0.00200915,-0.000327558,0.0964165,0.00146091,0.0306199,741,701,-20.9974,9.66259
-476,323,-20.9963,-10.3875,0,0,0,0,0,0,0,-1,748,701,-20.9963,10.3875
-469,323,-8.33301,-3.64001,0,0,0,0,0,0,0,-1,755,701,-8.33298,3.64
-462,323,-5.29431,-1.45697,0,0,0,0,0,0,0,-1,762,701,-5.29431,1.45699
-455,323,-5.0658,-1.36639,0,0,0,0,0,0,0,-1,769,701,-5.06578,1.3664
-448,323,-4.91608,-1.59601,0,0,0,0,0,0,0,-1,776,701,-4.91606,1.59604
-441,323,-14.4006,0.535217,0,0,0,0,0,0,0,-1,783,701,-14.4006,-0.535203
-434,323,-15.3158,2.479,0,0,0,0,0,0,0,-1,790,701,-15.3158,-2.47898
-427,323,-28.3923,1.16797,0,0,0,0,0,0,0,-1,797,701,-28.3923,-1.16796
-420,323,-28.7292,1.09302,0,0,0,0,0,0,0,-1,804,701,-28.7292,-1.09304
-413,323,-28.7955,1.22418,0,0,0,0,0,0,0,-1,811,701,-28.7956,-1.22419
-406,323,0,0,0,0,0,0,0,0,0,-1,818,701,0,0
-399,323,0,0,0,0,0,0,0,0,0,-1,825,701,0,0
-392,323,0,0,0,0,0,0,0,0,0,-1,832,701,0,0
-385,323,0,0,0,0,0,0,0,0,0,-1,839,701,0,0
-378,323,0,0,0,0,0,0,0,0,0,-1,846,701,0,0
-371,323,0,0,0,0,0,0,0,0,0,-1,853,701,0,0
-364,323,0,0,0,0,0,0,0,0,0,-1,860,701,0,0
-357,323,0,0,0,0,0,0,0,0,0,-1,867,701,0,0
-350,323,0,0,0,0,0,0,0,0,0,-1,874,701,0,0
-343,323,0,0,0,0,0,0,0,0,0,-1,881,701,0,0
-336,323,0,0,0,0,0,0,0,0,0,-1,888,701,0,0
-329,323,0,0,0,0,0,0,0,0,0,-1,895,701,0,0
-322,323,0,0,0,0,0,0,0,0,0,-1,902,701,0,0
-315,323,0,0,0,0,0,0,0,0,0,-1,909,701,0,0
-308,323,0,0,0,0,0,0,0,0,0,-1,916,701,0,0
-301,323,0,0,0,0,0,0,0,0,0,-1,923,701,0,0
-294,323,0,0,0,0,0,0,0,0,0,-1,930,701,0,0
-287,323,0,0,0,0,0,0,0,0,0,-1,937,701,0,0
-280,323,0,0,0,0,0,0,0,0,0,-1,944,701,0,0
-273,323,0,0,0,0,0,0,0,0,0,-1,951,701,0,0
-266,323,0,0,0,0,0,0,0,0,0,-1,958,701,0,0
-259,323,0,0,0,0,0,0,0,0,0,-1,965,701,0,0
-252,323,0,0,0,0,0,0,0,0,0,-1,972,701,0,0
-245,323,0,0,0,0,0,0,0,0,0,-1,979,701,0,0
-238,323,0,0,0,0,0,0,0,0,0,-1,986,701,0,0
-231,323,0,0,0,0,0,0,0,0,0,-1,993,701,0,0
-224,323,0,0,0,0,0,0,0,0,0,-1,1000,701,0,0
-217,323,0,0,0,0,0,0,0,0,0,-1,1007,701,0,0
-210,323,0,0,0,0,0,0,0,0,0,-1,1014,701,0,0
-203,323,0,0,0,0,0,0,0,0,0,-1,1021,701,0,0
-196,323,0,0,0,0,0,0,0,0,0,-1,1028,701,0,0
-189,323,0,0,0,0,0,0,0,0,0,-1,1035,701,0,0
-182,323,0,0,0,0,0,0,0,0,0,-1,1042,701,0,0
-175,323,0,0,0,0,0,0,0,0,0,-1,1049,701,0,0
-168,323,0,0,0,0,0,0,0,0,0,-1,1056,701,0,0
-161,323,0,0,0,0,0,0,0,0,0,-1,1063,701,0,0
-154,323,0,0,0,0,0,0,0,0,0,-1,1070,701,0,0
-147,323,0,0,0,0,0,0,0,0,0,-1,1077,701,0,0
-140,323,0,0,0,0,0,0,0,0,0,-1,1084,701,0,0
-133,323,0,0,0,0,0,0,0,0,0,-1,1091,701,0,0
-126,323,0,0,0,0,0,0,0,0,0,-1,1098,701,0,0
-119,323,0,0,0,0,0,0,0,0,0,-1,1105,701,0,0
-112,323,0,0,0,0,0,0,0,0,0,-1,1112,701,0,0
-105,323,0,0,0,0,0,0,0,0,0,-1,1119,701,0,0
-98,323,0,0,0,0,0,0,0,0,0,-1,1126,701,0,0
-91,323,0,0,0,0,0,0,0,0,0,-1,1133,701,0,0
-84,323,0,0,0,0,0,0,0,0,0,-1,1140,701,0,0
-77,323,0,0,0,0,0,0,0,0,0,-1,1147,701,0,0
-70,323,0,0,0,0,0,0,0,0,0,-1,1154,701,0,0
-63,323,0,0,0,0,0,0,0,0,0,-1,1161,701,0,0
-56,323,0,0,0,0,0,0,0,0,0,-1,1168,701,0,0
-49,323,0,0,0,0,0,0,0,0,0,-1,1175,701,0,0
-42,323,0,0,0,0,0,0,0,0,0,-1,1182,701,0,0
-35,323,0,0,0,0,0,0,0,0,0,-1,1189,701,0,0
-28,323,0,0,0,0,0,0,0,0,0,-1,1196,701,0,0
-21,323,0,0,0,0,0,0,0,0,0,-1,1203,701,0,0
-14,323,0,0,0,0,0,0,0,0,0,-1,1210,701,0,0
-7,323,0,0,0,0,0,0,0,0,0,-1,1217,701,0,0
0,323,0,0,0,0,0,0,0,0,0,-1,1224,701,0,0
7,323,0,0,0,0,0,0,0,0,0,-1,1231,701,0,0
14,323,0,0,0,0,0,0,0,0,0,-1,1238,701,0,0
21,323,0,0,0,0,0,0,0,0,0,-1,1245,701,0,0
28,323,0,0,0,0,0,0,0,0,0,-1,1252,701,0,0
35,323,0,0,0,0,0,0,0,0,0,-1,1259,701,0,0
42,323,0,0,0,0,0,0,0,0,0,-1,1266,701,0,0
49,323,0,0,0,0,0,0,0,0,0,-1,1273,701,0,0
56,323,0,0,0,0,0,0,0,0,0,-1,1280,701,0,0
63,323,0,0,0,0,0,0,0,0,0,-1,1287,701,0,0
70,323,0,0,0,0,0,0,0,0,0,-1,1294,701,0,0
77,323,0,0,0,0,0,0,0,0,0,-1,1301,701,0,0
84,323,0,0,0,0,0,0,0,0,0,-1,1308,701,0,0
91,323,0,0,0,0,0,0,0,0,0,-1,1315,701,0,0
98,323,0,0,0,0,0,0,0,0,0,-1,1322,701,0,0
105,323,0,0,0,0,0,0,0,0,0,-1,1329,701,0,0
112,323,0,0,0,0,0,0,0,0,0,-1,1336,701,0,0
119,323,0,0,0,0,0,0,0,0,0,-1,1343,701,0,0
126,323,0,0,0,0,0,0,0,0,0,-1,1350,701,0,0
133,323,0,0,0,0,0,0,0,0,0,-1,1357,701,0,0
140,323,0,0,0,0,0,0,0,0,0,-1,1364,701,0,0
147,323,0,0,0,0,0,0,0,0,0,-1,1371,701,0,0
154,323,0,0,0,0,0,0,0,0,0,-1,1378,701,0,0
161,323,0,0,0,0,0,0,0,0,0,-1,1385,701,0,0
168,323,0,0,0,0,0,0,0,0,0,-1,1392,701,0,0
175,323,0,0,0,0,0,0,0,0,0,-1,1399,701,0,0
182,323,0,0,0,0,0,0,0,0,0,-1,1406,701,0,0
189,323,0,0,0,0,0,0,0,0,0,-1,1413,701,0,0
196,323,0,0,0,0,0,0,0,0,0,-1,1420,701,0,0
203,323,0,0,0,0,0,0,0,0,0,-1,1427,701,0,0
210,323,0,0,0,0,0,0,0,0,0,-1,1434,701,0,0
217,323,0,0,0,0,0,0,0,0,0,-1,1441,701,0,0
224,323,0,0,0,0,0,0,0,0,0,-1,1448,701,0,0
231,323,0,0,0,0,0,0,0,0,0,-1,1455,701,0,0
238,323,0,0,0,0,0,0,0,0,0,-1,1462,701,0,0
245,323,0,0,0,0,0,0,0,0,0,-1,1469,701,0,0
252,323,0,0,0,0,0,0,0,0,0,-1,1476,701,0,0
259,323,0,0,0,0,0,0,0,0,0,-1,1483,701,0,0
266,323,0,0,0,0,0,0,0,0,0,-1,1490,701,0,0
273,323,0,0,0,0,0,0,0,0,0,-1,1497,701,0,0
280,323,0,0,0,0,0,0,0,0,0,-1,1504,701,0,0
287,323,0,0,0,0,0,0,0,0,0,-1,1511,701,0,0
294,323,0,0,0,0,0,0,0,0,0,-1,1518,701,0,0
301,323,0,0,0,0,0,0,0,0,0,-1,1525,701,0,0
308,323,0,0,0,0,0,0,0,0,0,-1,1532,701,0,0
315,323,0,0,0,0,0,0,0,0,0,-1,1539,701,0,0
322,323,0,0,0,0,0,0,0,0,0,-1,1546,701,0,0
329,323,0,0,0,0,0,0,0,0,0,-1,1553,701,0,0
336,323,0,0,0,0,0,0,0,0,0,-1,1560,701,0,0
343,323,0,0,0,0,0,0,0,0,0,-1,1567,701,0,0
350,323,0,0,0,0,0,0,0,0,0,-1,1574,701,0,0
357,323,0,0,0,0,0,0,0,0,0,-1,1581,701,0,0
364,323,0,0,0,0,0,0,0,0,0,-1,1588,701,0,0
371,323,0,0,0,0,0,0,0,0,0,-1,1595,701,0,0
378,323,0,0,0,0,0,0,0,0,0,-1,1602,701,0,0
385,323,0,0,0,0,0,0,0,0,0,-1,1609,701,0,0
392,323,0,0,0,0,0,0,0,0,0,-1,1616,701,0,0
399,323,0,0,0,0,0,0,0,0,0,-1,1623,701,0,0
406,323,0,0,0,0,0,0,0,0,0,-1,1630,701,0,0
413,323,0,0,0,0,0,0,0,0,0,-1,1637,701,0,0
420,323,0,0,0,0,0,0,0,0,0,-1,1644,701,0,0
427,323,0,0,0,0,0,0,0,0,0,-1,1651,701,0,0
434,323,0,0,0,0,0,0,0,0,0,-1,1658,701,0,0
441,323,0,0,0,0,0,0,0,0,0,-1,1665,701,0,0
448,323,0,0,0,0,0,0,0,0,0,-1,1672,701,0,0
455,323,0,0,0,0,0,0,0,0,0,-1,1679,701,0,0
462,323,0,0,0,0,0,0,0,0,0,-1,1686,701,0,0
469,323,0,0,0,0,0,0,0,0,0,-1,1693,701,0,0
476,323,0,0,0,0,0,0,0,0,0,-1,1700,701,0,0
483,323,0,0,0,0,0,0,0,0,0,-1,1707,701,0,0
490,323,0,0,0,0,0,0,0,0,0,-1,1714,701,0,0
497,323,0,0,0,0,0,0,0,0,0,-1,1721,701,0,0
504,323,0,0,0,0,0,0,0,0,0,-1,1728,701,0,0
511,323,0,0,0,0,0,0,0,0,0,-1,1735,701,0,0
518,323,0,0,0,0,0,0,0,0,0,-1,1742,701,0,0
525,323,0,0,0,0,0,0,0,0,0,-1,1749,701,0,0
532,323,33.6193,1.69446,0,0,0,0,0,0,0,-1,1756,701,33.6193,-1.69444
539,323,32.2698,2.44037,0,0,0,0,0,0,0,-1,1763,701,32.2697,-2.44036
546,323,31.1644,3.9444,0,0,0,0,0,0,0,-1,1770,701,31.1644,-3.94438
553,323,30.2488,5.8775,0,0,0,0,0,0,0,-1,1777,701,30.2487,-5.87752
560,323,40.6711,1.25153,0,0,0,0,0,0,0,-1,1784,701,40.6711,-1.25154
567,323,42.1637,2.01208,0,0,0,0,0,0,0,-1,1791,701,42.1637,-2.01207
574,323,12.514,5.89685,0,0,0,0,0,0,0,-1,1798,701,12.5141,-5.89683
581,323,11.821,5.3476,0,0,0,0,0,0,0,-1,1805,701,11.821,-5.34762
588,323,11.7933,7.00818,0,0,0,0,0,0,0,-1,1812,701,11.7933,-7.00819
595,323,6.67847,0.06604,0,0,0,0,0,0,0,-1,1819,701,6.67841,-0.0660418
602,323,33.4763,-9.12537,0,0,0,0,0,0,0,-1,1826,701,33.4763,9.12537
609,323,33.7468,-8.32971,0.00138368,-0.000589705,-0.000870568,0.00171284,-0.000918858,-0.361477,0.00154229,0.0443124,1833,701,33.7468,8.32969
616,323,33.8573,-7.58533,0.0012728,-0.000554441,-0.000428782,0.00136842,-0.000650056,-0.219402,0.00118971,0.0130205,1840,701,33.8573,7.5853
623,323,33.8389,-6.8501,0.00109531,-0.00035531,-0.000159808,0.0011127,-0.000372707,-0.108433,0.000892371,0.0134713,1847,701,33.8389,6.85007
630,323,33.8186,-6.07611,0.00113353,-0.000111638,0.000161276,0.00115408,-0.000132187,0.126735,0.000817023,0.0140991,1854,701,33.8187,6.07608
637,323,33.7938,-5.31787,0.0012741,0.000210283,0.000487207,0.00146351,2.08757e-05,0.370781,0.000968789,0.0115134,1861,701,33.7939,5.31785
644,323,33.7302,-4.58728,0.00150818,0.000613917,0.000827588,0.0020017,0.000120396,0.537722,0.0012962,0.00882305,1868,701,33.7303,4.58726
651,323,33.697,-3.82892,0.00183157,0.00109805,0.00118683,0.00270701,0.000222602,0.635541,0.00173524,0.0112774,1875,701,33.697,3.82893
658,323,33.6061,-3.06598,0.00223576,0.00168552,0.00156343,0.00354809,0.000373185,0.698305,0.00225133,0.0179747,1882,701,33.6061,3.06595
665,323,33.5525,-2.33423,0.00282055,0.00238011,0.00199287,0.00460533,0.000595333,0.73037,0.00289227,0.0151097,1889,701,33.5525,2.33421
672,323,33.6001,-1.52441,0.00357147,0.00320586,0.0024103,0.00580589,0.000971447,0.747549,0.00359085,0.0186277,1896,701,33.6001,1.52443
679,323,33.6841,-0.604309,0,0,0,0,0,0,0,-1,1903,701,33.684,0.604331
686,323,30.4916,0.378235,0,0,0,0,0,0,0,-1,1910,701,30.4916,-0.37825
693,323,23.8806,1.08844,0,0,0,0,0,0,0,-1,1917,701,23.8806,-1.08845
700,323,10.7705,0.828613,0,0,0,0,0,0,0,-1,1924,701,10.7705,-0.828591
707,323,16.9005,4.79193,0,0,0,0,0,0,0,-1,1931,701,16.9005,-4.7919
714,323,16.2346,6.25958,0,0,0,0,0,0,0,-1,1938,701,16.2346,-6.25956
721,323,0,0,0,0,0,0,0,0,0,-1,1945,701,0,0
728,323,0,0,0,0,0,0,0,0,0,-1,1952,701,0,0
735,323,0,0,0,0,0,0,0,0,0,-1,1959,701,0,0
742,323,0,0,0,0,0,0,0,0,0,-1,1966,701,0,0
749,323,0,0,0,0,0,0,0,0,0,-1,1973,701,0,0
756,323,0,0,0,0,0,0,0,0,0,-1,1980,701,0,0
763,323,0,0,0,0,0,0,0,0,0,-1,1987,701,0,0
770,323,0,0,0,0,0,0,0,0,0,-1,1994,701,0,0
777,323,0,0,0,0,0,0,0,0,0,-1,2001,701,0,0
784,323,0,0,0,0,0,0,0,0,0,-1,2008,701,0,0
791,323,0,0,0,0,0,0,0,0,0,-1,2015,701,0,0
798,323,0,0,0,0,0,0,0,0,0,-1,2022,701,0,0
805,323,0,0,0,0,0,0,0,0,0,-1,2029,701,0,0
812,323,0,0,0,0,0,0,0,0,0,-1,2036,701,0,0
-700,316,0,0,0,0,0,0,0,0,0,-1,524,708,0,0
-693,316,0,0,0,0,0,0,0,0,0,-1,531,708,0,0
-686,316,0,0,0,0,0,0,0,0,0,-1,538,708,0,0
-679,316,0,0,0,0,0,0,0,0,0,-1,545,708,0,0
-672,316,0,0,0,0,0,0,0,0,0,-1,552,708,0,0
-665,316,0,0,0,0,0,0,0,0,0,-1,559,708,0,0
-658,316,0,0,0,0,0,0,0,0,0,-1,566,708,0,0
-651,316,0,0,0,0,0,0,0,0,0,-1,573,708,0,0
-644,316,0,0,0,0,0,0,0,0,0,-1,580,708,0,0
-637,316,0,0,0,0,0,0,0,0,0,-1,587,708,0,0
-630,316,0,0,0,0,0,0,0,0,0,-1,594,708,0,0
-623,316,0,0,0,0,0,0,0,0,0,-1,601,708,0,0
-616,316,0,0,0,0,0,0,0,0,0,-1,608,708,0,0
-609,316,0,0,0,0,0,0,0,0,0,-1,615,708,0,0
-602,316,-0.451782,-0.0494995,0,0,0,0,0,0,0,-1,622,708,-0.451768,0.0495022
-595,316,-3.3761,2.17188,0,0,0,0,0,0,0,-1,629,708,-3.37609,-2.17189
-588,316,-5.00177,2.60675,0,0,0,0,0,0,0,-1,636,708,-5.00175,-2.60676
-581,316,-3.94653,0.393433,0,0,0,0,0,0,0,-1,643,708,-3.94655,-0.39342
-574,316,-9.67395,1.06067,0,0,0,0,0,0,0,-1,650,708,-9.67396,-1.06065
-567,316,-10.1962,0.448425,0,0,0,0,0,0,0,-1,657,708,-10.1962,-0.448411
-560,316,-18.9941,-1.75067,0,0,0,0,0,0,0,-1,664,708,-18.9941,1.75068
-553,316,-21.7212,-2.37427,0,0,0,0,0,0,0,-1,671,708,-21.7212,2.37426
-546,316,-21.6006,-3.0636,0.00274063,0.00362849,-0.000763041,0.00406734,0.00230177,-1.04886,0.00235507,0.0382553,678,708,-21.6007,3.06361
-539,316,-21.4727,-3.82837,0.00279556,0.00258465,-0.000672959,0.00337128,0.00200893,-0.707678,0.0019583,0.0138952,685,708,-21.4727,3.82836
-532,316,-21.5275,-4.55756,0.00265928,0.00165756,-0.000504832,0.00286956,0.00144728,-0.394674,0.00165676,0.0111656,692,708,-21.5274,4.55754
-525,316,-21.5566,-5.27563,0.00240812,0.000796165,-0.000262566,0.00244981,0.000754474,-0.157466,0.00144875,0.00960932,699,708,-21.5566,5.27564
-518,316,-21.572,-6.00134,0.00214511,0.000129523,4.68916e-06,0.00214512,0.000129512,0.00232642,0.00138893,0.0103583,706,708,-21.572,6.00134
-511,316,-21.6142,-6.72986,0.00182549,-0.000453689,0.000278596,0.00185905,-0.00048725,0.119884,0.00142973,0.0116511,713,708,-21.6142,6.72986
-504,316,-21.6559,-7.47424,0.00146358,-0.000935976,0.00059271,0.00160199,-0.0010744,0.229425,0.00155519,0.0143849,720,708,-21.6559,7.47424
-497,316,-21.6769,-8.17102,0.00124419,-0.00119545,0.000788108,0.00147664,-0.00142789,0.286809,0.00167701,0.0129013,727,708,-21.6769,8.17104
-490,316,-21.682,-8.88501,0.00135671,-0.0013404,0.000984944,0.0016781,-0.00166179,0.315409,0.0019283,0.0190272,734,708,-21.682,8.885
-483,316,-21.675,-9.62427,0,0,0,0,0,0,0,-1,741,708,-21.675,9.62426
-476,316,-8.90894,-3.31207,0,0,0,0,0,0,0,-1,748,708,-8.90896,3.31206
-469,316,-6.24194,-1.42725,0,0,0,0,0,0,0,-1,755,708,-6.24192,1.42725
-462,316,-5.74237,-1.40039,0,0,0,0,0,0,0,-1,762,708,-5.74238,1.40039
-455,316,-5.44745,-1.21899,0,0,0,0,0,0,0,-1,769,708,-5.44746,1.21898
-448,316,-14.8945,0.655396,0,0,0,0,0,0,0,-1,776,708,-14.8946,-0.655396
-441,316,-14.9626,0.576111,0,0,0,0,0,0,0,-1,783,708,-14.9626,-0.576115
-434,316,-27.7723,1.15576,0,0,0,0,0,0,0,-1,790,708,-27.7723,-1.15579
-427,316,-28.0504,1.31427,0,0,0,0,0,0,0,-1,797,708,-28.0504,-1.31427
-420,316,-28.198,1.62891,0,0,0,0,0,0,0,-1,804,708,-28.198,-1.62889
-413,316,0,0,0,0,0,0,0,0,0,-1,811,708,0,0
-406,316,0,0,0,0,0,0,0,0,0,-1,818,708,0,0
-399,316,0,0,0,0,0,0,0,0,0,-1,825,708,0,0
-392,316,0,0,0,0,0,0,0,0,0,-1,832,708,0,0
-385,316,0,0,0,0,0,0,0,0,0,-1,839,708,0,0
-378,316,0,0,0,0,0,0,0,0,0,-1,846,708,0,0
-371,316,0,0,0,0,0,0,0,0,0,-1,853,708,0,0
-364,316,0,0,0,0,0,0,0,0,0,-1,860,708,0,0
-357,316,0,0,0,0,0,0,0,0,0,-1,867,708,0,0
-350,316,0,0,0,0,0,0,0,0,0,-1,874,708,0,0
-343,316,0,0,0,0,0,0,0,0,0,-1,881,708,0,0
-336,316,0,0,0,0,0,0,0,0,0,-1,888,708,0,0
-329,316,0,0,0,0,0,0,0,0,0,-1,895,708,0,0
-322,316,0,0,0,0,0,0,0,0,0,-1,902,708,0,0
-315,316,0,0,0,0,0,0,0,0,0,-1,909,708,0,0
-308,316,0,0,0,0,0,0,0,0,0,-1,916,708,0,0
-301,316,0,0,0,0,0,0,0,0,0,-1,923,708,0,0
-294,316,0,0,0,0,0,0,0,0,0,-1,930,708,0,0
-287,316,0,0,0,0,0,0,0,0,0,-1,937,708,0,0
-280,316,0,0,0,0,0,0,0,0,0,-1,944,708,0,0
-273,316,0,0,0,0,0,0,0,0,0,-1,951,708,0,0
-266,316,0,0,0,0,0,0,0,0,0,-1,958,708,0,0
-259,316,0,0,0,0,0,0,0,0,0,-1,965,708,0,0
-252,316,0,0,0,0,0,0,0,0,0,-1,972,708,0,0
-245,316,0,0,0,0,0,0,0,0,0,-1,979,708,0,0
-238,316,0,0,0,0,0,0,0,0,0,-1,986,708,0,0
-231,316,0,0,0,0,0,0,0,0,0,-1,993,708,0,0
-224,316,0,0,0,0,0,0,0,0,0,-1,1000,708,0,0
-217,316,0,0,0,0,0,0,0,0,0,-1,1007,708,0,0
-210,316,0,0,0,0,0,0,0,0,0,-1,1014,708,0,0
-203,316,0,0,0,0,0,0,0,0,0,-1,1021,708,0,0
-196,316,0,0,0,0,0,0,0,0,0,-1,1028,708,0,0
-189,316,0,0,0,0,0,0,0,0,0,-1,1035,708,0,0
-182,316,0,0,0,0,0,0,0,0,0,-1,1042,708,0,0
-175,316,0,0,0,0,0,0,0,0,0,-1,1049,708,0,0
-168,316,0,0,0,0,0,0,0,0,0,-1,1056,708,0,0
-161,316,0,0,0,0,0,0,0,0,0,-1,1063,708,0,0
-154,316,0,0,0,0,0,0,0,0,0,-1,1070,708,0,0
-147,316,0,0,0,0,0,0,0,0,0,-1,1077,708,0,0
-140,316,0,0,0,0,0,0,0,0,0,-1,1084,708,0,0
-133,316,0,0,0,0,0,0,0,0,0,-1,1091,708,0,0
-126,316,0,0,0,0,0,0,0,0,0,-1,1098,708,0,0
-119,316,0,0,0,0,0,0,0,0,0,-1,1105,708,0,0
-112,316,0,0,0,0,0,0,0,0,0,-1,1112,708,0,0
-105,316,0,0,0,0,0,0,0,0,0,-1,1119,708,0,0
-98,316,0,0,0,0,0,0,0,0,0,-1,1126,708,0,0
-91,316,0,0,0,0,0,0,0,0,0,-1,1133,708,0,0
-84,316,0,0,0,0,0,0,0,0,0,-1,1140,708,0,0
-77,316,0,0,0,0,0,0,0,0,0,-1,1147,708,0,0
-70,316,0,0,0,0,0,0,0,0,0,-1,1154,708,0,0
-63,316,0,0,0,0,0,0,0,0,0,-1,1161,708,0,0
-56,316,0,0,0,0,0,0,0,0,0,-1,1168,708,0,0
-49,316,0,0,0,0,0,0,0,0,0,-1,1175,708,0,0
-42,316,0,0,0,0,0,0,0,0,0,-1,1182,708,0,0
-35,316,0,0,0,0,0,0,0,0,0,-1,1189,708,0,0
-28,316,0,0,0,0,0,0,0,0,0,-1,1196,708,0,0
-21,316,0,0,0,0,0,0,0,0,0,-1,1203,708,0,0
-14,316,0,0,0,0,0,0,0,0,0,-1,1210,708,0,0
-7,316,0,0,0,0,0,0,0,0,0,-1,1217,708,0,0
0,316,0,0,0,0,0,0,0,0,0,-1,1224,708,0,0
7,316,0,0,0,0,0,0,0,0,0,-1,1231,708,0,0
14,316,0,0,0,0,0,0,0,0,0,-1,1238,708,0,0
21,316,0,0,0,0,0,0,0,0,0,-1,1245,708,0,0
28,316,0,0,0,0,0,0,0,0,0,-1,1252,708,0,0
35,316,0,0,0,0,0,0,0,0,0,-1,1259,708,0,0
42,316,0,0,0,0,0,0,0,0,0,-1,1266,708,0,0
49,316,0,0,0,0,0,0,0,0,0,-1,1273,708,0,0
56,316,0,0,0,0,0,0,0,0,0,-1,1280,708,0,0
63,316,0,0,0,0,0,0,0,0,0,-1,1287,708,0,0
70,316,0,0,0,0,0,0,0,0,0,-1,1294,708,0,0
77,316,0,0,0,0,0,0,0,0,0,-1,1301,708,0,0
84,316,0,0,0,0,0,0,0,0,0,-1,1308,708,0,0
91,316,0,0,0,0,0,0,0,0,0,-1,1315,708,0,0
98,316,0,0,0,0,0,0,0,0,0,-1,1322,708,0,0
105,316,0,0,0,0,0,0,0,0,0,-1,1329,708,0,0
112,316,0,0,0,0,0,0,0,0,0,-1,1336,708,0,0
119,316,0,0,0,0,0,0,0,0,0,-1,1343,708,0,0
126,316,0,0,0,0,0,0,0,0,0,-1,1350,708,0,0
133,316,0,0,0,0,0,0,0,0,0,-1,1357,708,0,0
140,316,0,0,0,0,0,0,0,0,0,-1,1364,708,0,0
147,316,0,0,0,0,0,0,0,0,0,-1,1371,708,0,0
154,316,0,0,0,0,0,0,0,0,0,-1,1378,708,0,0
161,316,0,0,0,0,0,0,0,0,0,-1,1385,708,0,0
168,316,0,0,0,0,0,0,0,0,0,-1,1392,708,0,0
175,316,0,0,0,0,0,0,0,0,0,-1,1399,708,0,0
182,316,0,0,0,0,0,0,0,0,0,-1,1406,708,0,0
189,316,0,0,0,0,0,0,0,0,0,-1,1413,708,0,0
196,316,0,0,0,0,0,0,0,0,0,-1,1420,708,0,0
203,316,0,0,0,0,0,0,0,0,0,-1,1427,708,0,0
210,316,0,0,0,0,0,0,0,0,0,-1,1434,708,0,0
217,316,0,0,0,0,0,0,0,0,0,-1,1441,708,0,0
224,316,0,0,0,0,0,0,0,0,0,-1,1448,708,0,0
231,316,0,0,0,0,0,0,0,0,0,-1,1455,708,0,0
238,316,0,0,0,0,0,0,0,0,0,-1,1462,708,0,0
245,316,0,0,0,0,0,0,0,0,0,-1,1469,708,0,0
252,316,0,0,0,0,0,0,0,0,0,-1,1476,708,0,0
259,316,0,0,0,0,0,0,0,0,0,-1,1483,708,0,0
266,316,0,0,0,0,0,0,0,0,0,-1,1490,708,0,0
273,316,0,0,0,0,0,0,0,0,0,-1,1497,708,0,0
280,316,0,0,0,0,0,0,0,0,0,-1,1504,708,0,0
287,316,0,0,0,0,0,0,0,0,0,-1,1511,708,0,0
294,316,0,0,0,0,0,0,0,0,0,-1,1518,708,0,0
301,316,0,0,0,0,0,0,0,0,0,-1,1525,708,0,0
308,316,0,0,0,0,0,0,0,0,0,-1,1532,708,0,0
315,316,0,0,0,0,0,0,0,0,0,-1,1539,708,0,0
322,316,0,0,0,0,0,0,0,0,0,-1,1546,708,0,0
329,316,0,0,0,0,0,0,0,0,0,-1,1553,708,0,0
336,316,0,0,0,0,0,0,0,0,0,-1,1560,708,0,0
343,316,0,0,0,0,0,0,0,0,0,-1,1567,708,0,0
350,316,0,0,0,0,0,0,0,0,0,-1,1574,708,0,0
357,316,0,0,0,0,0,0,0,0,0,-1,1581,708,0,0
364,316,0,0,0,0,0,0,0,0,0,-1,1588,708,0,0
371,316,0,0,0,0,0,0,0,0,0,-1,1595,708,0,0
378,316,0,0,0,0,0,0,0,0,0,-1,1602,708,0,0
385,316,0,0,0,0,0,0,0,0,0,-1,1609,708,0,0
392,316,0,0,0,0,0,0,0,0,0,-1,1616,708,0,0
399,316,0,0,0,0,0,0,0,0,0,-1,1623,708,0,0
406,316,0,0,0,0,0,0,0,0,0,-1,1630,708,0,0
413,316,0,0,0,0,0,0,0,0,0,-1,1637,708,0,0
420,316,0,0,0,0,0,0,0,0,0,-1,1644,708,0,0
427,316,0,0,0,0,0,0,0,0,0,-1,1651,708,0,0
434,316,0,0,0,0,0,0,0,0,0,-1,1658,708,0,0
441,316,0,0,0,0,0,0,0,0,0,-1,1665,708,0,0
448,316,0,0,0,0,0,0,0,0,0,-1,1672,708,0,0
455,316,0,0,0,0,0,0,0,0,0,-1,1679,708,0,0
462,316,0,0,0,0,0,0,0,0,0,-1,1686,708,0,0
469,316,0,0,0,0,0,0,0,0,0,-1,1693,708,0,0
476,316,0,0,0,0,0,0,0,0,0,-1,1700,708,0,0
483,316,0,0,0,0,0,0,0,0,0,-1,1707,708,0,0
490,316,0,0,0,0,0,0,0,0,0,-1,1714,708,0,0
497,316,0,0,0,0,0,0,0,0,0,-1,1721,708,0,0
504,316,0,0,0,0,0,0,0,0,0,-1,1728,708,0,0
511,316,0,0,0,0,0,0,0,0,0,-1,1735,708,0,0
518,316,0,0,0,0,0,0,0,0,0,-1,1742,708,0,0
525,316,0,0,0,0,0,0,0,0,0,-1,1749,708,0,0
532,316,33.8604,0.531128,0,0,0,0,0,0,0,-1,1756,708,33.8604,-0.531151
539,316,44.4543,2.73468,0,0,0,0,0,0,0,-1,1763,708,44.4543,-2.7347
546,316,44.713,3.35498,0,0,0,0,0,0,0,-1,1770,708,44.7131,-3.35501
553,316,39.9031,6.57275,0,0,0,0,0,0,0,-1,1777,708,39.9031,-6.57274
560,316,39.1196,1.10046,0,0,0,0,0,0,0,-1,1784,708,39.1197,-1.10048
567,316,47.3683,6.04919,0,0,0,0,0,0,0,-1,1791,708,47.3683,-6.04918
574,316,45.9872,6.7655,0,0,0,0,0,0,0,-1,1798,708,45.9871,-6.76552
581,316,24.6815,7.77496,0,0,0,0,0,0,0,-1,1805,708,24.6815,-7.77499
588,316,19.7659,2.90198,0,0,0,0,0,0,0,-1,1812,708,19.7659,-2.902
595,316,12.5363,1.50702,0,0,0,0,0,0,0,-1,1819,708,12.5363,-1.50701
602,316,7.79919,0.0422363,0,0,0,0,0,0,0,-1,1826,708,7.79923,-0.0422066
609,316,34.4252,-8.25433,0,0,0,0,0,0,0,-1,1833,708,34.4251,8.25431
616,316,34.6056,-7.54041,0.00120601,-0.000617445,-0.000562015,0.00136531,-0.000776749,-0.276206,0.00125218,0.0143794,1840,708,34.6056,7.54039
623,316,34.5763,-6.79834,0.000882165,-0.000424827,-0.000337059,0.000963969,-0.000506631,-0.238095,0.000862628,0.0115867,1847,708,34.5763,6.79831
630,316,34.5382,-6.07715,0.000867788,-0.000219839,-5.42262e-05,0.000870485,-0.000222536,-0.0496931,0.000666993,0.0128829,1854,708,34.5382,6.07714
637,316,34.5125,-5.28845,0.000981259,8.74632e-05,0.00026235,0.00105257,1.61476e-05,0.26542,0.000696396,0.0116658,1861,708,34.5124,5.28844
644,316,34.4836,-4.52228,0.00121183,0.000487278,0.000605493,0.00155515,0.000143958,0.515807,0.000992269,0.0116706,1868,708,34.4836,4.5223
651,316,34.4138,-3.79028,0.00154385,0.000958459,0.000970927,0.00226524,0.000237069,0.639,0.00143767,0.0151312,1875,708,34.4139,3.7903
658,316,34.3461,-3.04102,0.00198028,0.00153688,0.0013609,0.00313742,0.000379741,0.704655,0.00197722,0.0301662,1882,708,34.3461,3.04099
665,316,34.2777,-2.27112,0.00261217,0.00223061,0.00183406,0.00426535,0.000577435,0.733575,0.00267197,0.0219316,1889,708,34.2777,2.2711
672,316,34.3043,-1.52863,0.00339393,0.00304844,0.00233145,0.00555903,0.00088334,0.74842,0.00344948,0.0145699,1896,708,34.3043,1.5286
679,316,34.3081,-0.641724,0,0,0,0,0,0,0,-1,1903,708,34.3081,0.641705
686,316,34.0828,0.223206,0,0,0,0,0,0,0,-1,1910,708,34.0828,-0.223183
693,316,26.4315,1.80652,0,0,0,0,0,0,0,-1,1917,708,26.4315,-1.80651
700,316,12.8749,2.89136,0,0,0,0,0,0,0,-1,1924,708,12.8748,-2.89137
707,316,15.7089,5.41486,0,0,0,0,0,0,0,-1,1931,708,15.7088,-5.41487
714,316,16.1727,5.52045,0,0,0,0,0,0,0,-1,1938,708,16.1728,-5.52042
721,316,16.7094,6.53351,0,0,0,0,0,0,0,-1,1945,708,16.7094,-6.5335
728,316,0,0,0,0,0,0,0,0,0,-1,1952,708,0,0
735,316,0,0,0,0,0,0,0,0,0,-1,1959,708,0,0
742,316,0,0,0,0,0,0,0,0,0,-1,1966,708,0,0
749,316,0,0,0,0,0,0,0,0,0,-1,1973,708,0,0
756,316,0,0,0,0,0,0,0,0,0,-1,1980,708,0,0
763,316,0,0,0,0,0,0,0,0,0,-1,1987,708,0,0
770,316,0,0,0,0,0,0,0,0,0,-1,1994,708,0,0
777,316,0,0,0,0,0,0,0,0,0,-1,2001,708,0,0
784,316,0,0,0,0,0,0,0,0,0,-1,2008,708,0,0
791,316,0,0,0,0,0,0,0,0,0,-1,2015,708,0,0
798,316,0,0,0,0,0,0,0,0,0,-1,2022,708,0,0
805,316,0,0,0,0,0,0,0,0,0,-1,2029,708,0,0
812,316,0,0,0,0,0,0,0,0,0,-1,2036,708,0,0
-700,309,0,0,0,0,0,0,0,0,0,-1,524,715,0,0
-693,309,0,0,0,0,0,0,0,0,0,-1,531,715,0,0
-686,309,0,0,0,0,0,0,0,0,0,-1,538,715,0,0
-679,309,0,0,0,0,0,0,0,0,0,-1,545,715,0,0
-672,309,0,0,0,0,0,0,0,0,0,-1,552,715,0,0
-665,309,0,0,0,0,0,0,0,0,0,-1,559,715,0,0
-658,309,0,0,0,0,0,0,0,0,0,-1,566,715,0,0
-651,309,0,0,0,0,0,0,0,0,0,-1,573,715,0,0
-644,309,0,0,0,0,0,0,0,0,0,-1,580,715,0,0
-637,309,0,0,0,0,0,0,0,0,0,-1,587,715,0,0
-630,309,0,0,0,0,0,0,0,0,0,-1,594,715,0,0
-623,309,0,0,0,0,0,0,0,0,0,-1,601,715,0,0
-616,309,0,0,0,0,0,0,0,0,0,-1,608,715,0,0
-609,309,-5.95392,-3.93689,0,0,0,0,0,0,0,-1,615,715,-5.95392,3.93686
-602,309,-4.99786,-3.31287,0,0,0,0,0,0,0,-1,622,715,-4.99786,3.31284
-595,309,-6.80847,2.4046,0,0,0,0,0,0,0,-1,629,715,-6.80845,-2.40458
-588,309,-6.08795,2.19324,0,0,0,0,0,0,0,-1,636,715,-6.08793,-2.19325
-581,309,-5.97552,1.3277,0,0,0,0,0,0,0,-1,643,715,-5.97552,-1.32769
-574,309,-8.73602,0.208435,0,0,0,0,0,0,0,-1,650,715,-8.73604,-0.208437
-567,309,-10.3909,0.85968,0,0,0,0,0,0,0,-1,657,715,-10.3909,-0.859696
-560,309,-18.6088,-1.73389,0,0,0,0,0,0,0,-1,664,715,-18.6088,1.73389
-553,309,-22.4174,-2.29193,0,0,0,0,0,0,0,-1,671,715,-22.4174,2.29195
-546,309,-22.3004,-3.03467,0.00181323,0.00344006,-0.000537649,0.00360169,0.0016516,-1.27877,0.00208181,0.0294248,678,715,-22.3004,3.03466
-539,309,-22.2061,-3.80548,0.00201825,0.00232911,-0.000430466,0.00263135,0.00171601,-0.958653,0.00154248,0.0155978,685,715,-22.2061,3.80551
-532,309,-22.2261,-4.52264,0.00199,0.00132647,-0.000234229,0.00206435,0.00125212,-0.307373,0.00120084,0.01331,692,715,-22.2261,4.52263
-525,309,-22.27,-5.26587,0.00185677,0.000438971,1.07673e-05,0.00185686,0.000438889,0.00759376,0.00112063,0.0161976,699,715,-22.2699,5.26588
-518,309,-22.3045,-5.97144,0.00167055,-0.000233627,0.000270736,0.00170829,-0.000271372,0.138524,0.00123926,0.0169234,706,715,-22.3045,5.97144
-511,309,-22.3388,-6.67633,0.00133824,-0.000848354,0.00053564,0.0014624,-0.000972517,0.22778,0.00141525,0.0135585,713,715,-22.3388,6.67631
-504,309,-22.3651,-7.42578,0.00087264,-0.00137273,0.000816988,0.00113844,-0.00163853,0.314541,0.00161193,0.0104433,720,715,-22.3651,7.42579
-497,309,-22.3974,-8.11621,0.000408566,-0.00172828,0.000960738,0.000776996,-0.00209671,0.36619,0.00171646,0.0141281,727,715,-22.3974,8.11619
-490,309,-22.4411,-8.82245,0,0,0,0,0,0,0,-1,734,715,-22.4411,8.82243
-483,309,-17.7261,-7.75836,0,0,0,0,0,0,0,-1,741,715,-17.7261,7.75839
-476,309,-5.29486,-1.2262,0,0,0,0,0,0,0,-1,748,715,-5.29484,1.22622
-469,309,-4.22717,-0.592896,0,0,0,0,0,0,0,-1,755,715,-4.2272,0.592905
-462,309,-10.428,2.46948,0,0,0,0,0,0,0,-1,762,715,-10.428,-2.46947
-455,309,-15.8216,0.00915527,0,0,0,0,0,0,0,-1,769,715,-15.8216,-0.00913359
-448,309,-37.3543,-1.02441,0,0,0,0,0,0,0,-1,776,715,-37.3543,1.02444
-441,309,-19.8181,1.4425,0,0,0,0,0,0,0,-1,783,715,-19.8181,-1.44249
-434,309,-28.3196,0.95105,0,0,0,0,0,0,0,-1,790,715,-28.3196,-0.951068
-427,309,-27.8553,1.40332,0,0,0,0,0,0,0,-1,797,715,-27.8553,-1.40334
-420,309,-27.3148,1.90747,0,0,0,0,0,0,0,-1,804,715,-27.3148,-1.90745
-413,309,0,0,0,0,0,0,0,0,0,-1,811,715,0,0
-406,309,0,0,0,0,0,0,0,0,0,-1,818,715,0,0
-399,309,0,0,0,0,0,0,0,0,0,-1,825,715,0,0
-392,309,0,0,0,0,0,0,0,0,0,-1,832,715,0,0
-385,309,0,0,0,0,0,0,0,0,0,-1,839,715,0,0
-378,309,0,0,0,0,0,0,0,0,0,-1,846,715,0,0
-371,309,0,0,0,0,0,0,0,0,0,-1,853,715,0,0
-364,309,0,0,0,0,0,0,0,0,0,-1,860,715,0,0
-357,309,0,0,0,0,0,0,0,0,0,-1,867,715,0,0
-350,309,0,0,0,0,0,0,0,0,0,-1,874,715,0,0
-343,309,0,0,0,0,0,0,0,0,0,-1,881,715,0,0
-336,309,0,0,0,0,0,0,0,0,0,-1,888,715,0,0
-329,309,0,0,0,0,0,0,0,0,0,-1,895,715,0,0
-322,309,0,0,0,0,0,0,0,0,0,-1,902,715,0,0
-315,309,0,0,0,0,0,0,0,0,0,-1,909,715,0,0
-308,309,0,0,0,0,0,0,0,0,0,-1,916,715,0,0
-301,309,0,0,0,0,0,0,0,0,0,-1,923,715,0,0
-294,309,0,0,0,0,0,0,0,0,0,-1,930,715,0,0
-287,309,0,0,0,0,0,0,0,0,0,-1,937,715,0,0
-280,309,0,0,0,0,0,0,0,0,0,-1,944,715,0,0
-273,309,0,0,0,0,0,0,0,0,0,-1,951,715,0,0
-266,309,0,0,0,0,0,0,0,0,0,-1,958,715,0,0
-259,309,0,0,0,0,0,0,0,0,0,-1,965,715,0,0
-252,309,0,0,0,0,0,0,0,0,0,-1,972,715,0,0
-245,309,0,0,0,0,0,0,0,0,0,-1,979,715,0,0
-238,309,0,0,0,0,0,0,0,0,0,-1,986,715,0,0
-231,309,0,0,0,0,0,0,0,0,0,-1,993,715,0,0
-224,309,0,0,0,0,0,0,0,0,0,-1,1000,715,0,0
-217,309,0,0,0,0,0,0,0,0,0,-1,1007,715,0,0
-210,309,0,0,0,0,0,0,0,0,0,-1,1014,715,0,0
-203,309,0,0,0,0,0,0,0,0,0,-1,1021,715,0,0
-196,309,0,0,0,0,0,0,0,0,0,-1,1028,715,0,0
-189,309,0,0,0,0,0,0,0,0,0,-1,1035,715,0,0
-182,309,0,0,0,0,0,0,0,0,0,-1,1042,715,0,0
-175,309,0,0,0,0,0,0,0,0,0,-1,1049,715,0,0
-168,309,0,0,0,0,0,0,0,0,0,-1,1056,715,0,0
-161,309,0,0,0,0,0,0,0,0,0,-1,1063,715,0,0
-154,309,0,0,0,0,0,0,0,0,0,-1,1070,715,0,0
-147,309,0,0,0,0,0,0,0,0,0,-1,1077,715,0,0
-140,309,0,0,0,0,0,0,0,0,0,-1,1084,715,0,0
-133,309,0,0,0,0,0,0,0,0,0,-1,1091,715,0,0
-126,309,0,0,0,0,0,0,0,0,0,-1,1098,715,0,0
-119,309,0,0,0,0,0,0,0,0,0,-1,1105,715,0,0
-112,309,0,0,0,0,0,0,0,0,0,-1,1112,715,0,0
-105,309,0,0,0,0,0,0,0,0,0,-1,1119,715,0,0
-98,309,0,0,0,0,0,0,0,0,0,-1,1126,715,0,0
-91,309,0,0,0,0,0,0,0,0,0,-1,1133,715,0,0
-84,309,0,0,0,0,0,0,0,0,0,-1,1140,715,0,0
-77,309,0,0,0,0,0,0,0,0,0,-1,1147,715,0,0
-70,309,0,0,0,0,0,0,0,0,0,-1,1154,715,0,0
-63,309,0,0,0,0,0,0,0,0,0,-1,1161,715,0,0
-56,309,0,0,0,0,0,0,0,0,0,-1,1168,715,0,0
-49,309,0,0,0,0,0,0,0,0,0,-1,1175,715,0,0
-42,309,0,0,0,0,0,0,0,0,0,-1,1182,715,0,0
-35,309,0,0,0,0,0,0,0,0,0,-1,1189,715,0,0
-28,309,0,0,0,0,0,0,0,0,0,-1,1196,715,0,0
-21,309,0,0,0,0,0,0,0,0,0,-1,1203,715,0,0
-14,309,0,0,0,0,0,0,0,0,0,-1,1210,715,0,0
-7,309,0,0,0,0,0,0,0,0,0,-1,1217,715,0,0
0,309,0,0,0,0,0,0,0,0,0,-1,1224,715,0,0
7,309,0,0,0,0,0,0,0,0,0,-1,1231,715,0,0
14,309,0,0,0,0,0,0,0,0,0,-1,1238,715,0,0
21,309,0,0,0,0,0,0,0,0,0,-1,1245,715,0,0
28,309,0,0,0,0,0,0,0,0,0,-1,1252,715,0,0
35,309,0,0,0,0,0,0,0,0,0,-1,1259,715,0,0
42,309,0,0,0,0,0,0,0,0,0,-1,1266,715,0,0
49,309,0,0,0,0,0,0,0,0,0,-1,1273,715,0,0
56,309,0,0,0,0,0,0,0,0,0,-1,1280,715,0,0
63,309,0,0,0,0,0,0,0,0,0,-1,1287,715,0,0
70,309,0,0,0,0,0,0,0,0,0,-1,1294,715,0,0
77,309,0,0,0,0,0,0,0,0,0,-1,1301,715,0,0
84,309,0,0,0,0,0,0,0,0,0,-1,1308,715,0,0
91,309,0,0,0,0,0,0,0,0,0,-1,1315,715,0,0
98,309,0,0,0,0,0,0,0,0,0,-1,1322,715,0,0
105,309,0,0,0,0,0,0,0,0,0,-1,1329,715,0,0
112,309,0,0,0,0,0,0,0,0,0,-1,1336,715,0,0
119,309,0,0,0,0,0,0,0,0,0,-1,1343,715,0,0
126,309,0,0,0,0,0,0,0,0,0,-1,1350,715,0,0
133,309,0,0,0,0,0,0,0,0,0,-1,1357,715,0,0
140,309,0,0,0,0,0,0,0,0,0,-1,1364,715,0,0
147,309,0,0,0,0,0,0,0,0,0,-1,1371,715,0,0
154,309,0,0,0,0,0,0,0,0,0,-1,1378,715,0,0
161,309,0,0,0,0,0,0,0,0,0,-1,1385,715,0,0
168,309,0,0,0,0,0,0,0,0,0,-1,1392,715,0,0
175,309,0,0,0,0,0,0,0,0,0,-1,1399,715,0,0
182,309,0,0,0,0,0,0,0,0,0,-1,1406,715,0,0
189,309,0,0,0,0,0,0,0,0,0,-1,1413,715,0,0
196,309,0,0,0,0,0,0,0,0,0,-1,1420,715,0,0
203,309,0,0,0,0,0,0,0,0,0,-1,1427,715,0,0
210,309,0,0,0,0,0,0,0,0,0,-1,1434,715,0,0
217,309,0,0,0,0,0,0,0,0,0,-1,1441,715,0,0
224,309,0,0,0,0,0,0,0,0,0,-1,1448,715,0,0
231,309,0,0,0,0,0,0,0,0,0,-1,1455,715,0,0
238,309,0,0,0,0,0,0,0,0,0,-1,1462,715,0,0
245,309,0,0,0,0,0,0,0,0,0,-1,1469,715,0,0
252,309,0,0,0,0,0,0,0,0,0,-1,1476,715,0,0
259,309,0,0,0,0,0,0,0,0,0,-1,1483,715,0,0
266,309,0,0,0,0,0,0,0,0,0,-1,1490,715,0,0
273,309,0,0,0,0,0,0,0,0,0,-1,1497,715,0,0
280,309,0,0,0,0,0,0,0,0,0,-1,1504,715,0,0
287,309,0,0,0,0,0,0,0,0,0,-1,1511,715,0,0
294,309,0,0,0,0,0,0,0,0,0,-1,1518,715,0,0
301,309,0,0,0,0,0,0,0,0,0,-1,1525,715,0,0
308,309,0,0,0,0,0,0,0,0,0,-1,1532,715,0,0
315,309,0,0,0,0,0,0,0,0,0,-1,1539,715,0,0
322,309,0,0,0,0,0,0,0,0,0,-1,1546,715,0,0
329,309,0,0,0,0,0,0,0,0,0,-1,1553,715,0,0
336,309,0,0,0,0,0,0,0,0,0,-1,1560,715,0,0
343,309,0,0,0,0,0,0,0,0,0,-1,1567,715,0,0
350,309,0,0,0,0,0,0,0,0,0,-1,1574,715,0,0
357,309,0,0,0,0,0,0,0,0,0,-1,1581,715,0,0
364,309,0,0,0,0,0,0,0,0,0,-1,1588,715,0,0
371,309,0,0,0,0,0,0,0,0,0,-1,1595,715,0,0
378,309,0,0,0,0,0,0,0,0,0,-1,1602,715,0,0
385,309,0,0,0,0,0,0,0,0,0,-1,1609,715,0,0
392,309,0,0,0,0,0,0,0,0,0,-1,1616,715,0,0
399,309,0,0,0,0,0,0,0,0,0,-1,1623,715,0,0
406,309,0,0,0,0,0,0,0,0,0,-1,1630,715,0,0
413,309,0,0,0,0,0,0,0,0,0,-1,1637,715,0,0
420,309,0,0,0,0,0,0,0,0,0,-1,1644,715,0,0
427,309,0,0,0,0,0,0,0,0,0,-1,1651,715,0,0
434,309,0,0,0,0,0,0,0,0,0,-1,1658,715,0,0
441,309,0,0,0,0,0,0,0,0,0,-1,1665,715,0,0
448,309,0,0,0,0,0,0,0,0,0,-1,1672,715,0,0
455,309,0,0,0,0,0,0,0,0,0,-1,1679,715,0,0
462,309,0,0,0,0,0,0,0,0,0,-1,1686,715,0,0
469,309,0,0,0,0,0,0,0,0,0,-1,1693,715,0,0
476,309,0,0,0,0,0,0,0,0,0,-1,1700,715,0,0
483,309,0,0,0,0,0,0,0,0,0,-1,1707,715,0,0
490,309,0,0,0,0,0,0,0,0,0,-1,1714,715,0,0
497,309,0,0,0,0,0,0,0,0,0,-1,1721,715,0,0
504,309,0,0,0,0,0,0,0,0,0,-1,1728,715,0,0
511,309,0,0,0,0,0,0,0,0,0,-1,1735,715,0,0
518,309,0,0,0,0,0,0,0,0,0,-1,1742,715,0,0
525,309,0,0,0,0,0,0,0,0,0,-1,1749,715,0,0
532,309,0,0,0,0,0,0,0,0,0,-1,1756,715,0,0
539,309,44.2073,2.66235,0,0,0,0,0,0,0,-1,1763,715,44.2073,-2.66238
546,309,44.4976,3.25531,0,0,0,0,0,0,0,-1,1770,715,44.4976,-3.25533
553,309,47.9611,4.06433,0,0,0,0,0,0,0,-1,1777,715,47.9611,-4.06434
560,309,47.9784,4.64801,0,0,0,0,0,0,0,-1,1784,715,47.9784,-4.64799
567,309,47.0073,5.43121,0,0,0,0,0,0,0,-1,1791,715,47.0073,-5.43121
574,309,45.8746,6.53271,0,0,0,0,0,0,0,-1,1798,715,45.8747,-6.53269
581,309,45.0629,7.73468,0,0,0,0,0,0,0,-1,1805,715,45.0629,-7.73471
588,309,26.2064,7.76422,0,0,0,0,0,0,0,-1,1812,715,26.2064,-7.7642
595,309,19.585,3.71558,0,0,0,0,0,0,0,-1,1819,715,19.5849,-3.71555
602,309,11.0811,3.47772,0,0,0,0,0,0,0,-1,1826,715,11.0811,-3.47772
609,309,35.4305,-8.18384,0,0,0,0,0,0,0,-1,1833,715,35.4305,8.18384
616,309,35.3816,-7.47174,0.000962353,-0.000607758,-0.000742911,0.00125814,-0.000903549,-0.378911,0.00125364,0.0252206,1840,715,35.3815,7.47174
623,309,35.3328,-6.75507,0.000540768,-0.000408169,-0.000482852,0.000743253,-0.000610654,-0.397077,0.000782927,0.0118152,1847,715,35.3327,6.75506
630,309,35.2737,-6.03735,0.000501947,-0.000236685,-0.000193444,0.000549542,-0.00028428,-0.241248,0.00048946,0.0106539,1854,715,35.2736,6.03738
637,309,35.2313,-5.27911,0.000605485,3.11974e-05,0.000119483,0.000629352,7.3305e-06,0.197157,0.000417146,0.0129849,1861,715,35.2313,5.27914
644,309,35.1759,-4.50275,0.000846221,0.000404631,0.000451647,0.00112815,0.000122698,0.558048,0.000714723,0.014818,1868,715,35.176,4.50277
651,309,35.1333,-3.75128,0.00119085,0.00083991,0.000800103,0.0018345,0.000196263,0.677452,0.00116311,0.0141725,1875,715,35.1333,3.75125
658,309,35.0981,-3.01099,0.00164765,0.00138044,0.0011705,0.00269214,0.000335942,0.728572,0.00169392,0.0197078,1882,715,35.0981,3.01097
665,309,35.1133,-2.26593,0.00228798,0.00204463,0.00162946,0.0038003,0.000532311,0.748131,0.00237606,0.0174774,1889,715,35.1133,2.26591
672,309,35.0668,-1.51398,0.0030601,0.00282506,0.00212593,0.00507175,0.0008134,0.757787,0.00314529,0.0163727,1896,715,35.0668,1.51396
679,309,35.0579,-0.686401,0.00396063,0.00382475,0.00273073,0.00662427,0.00116111,0.772961,0.00408453,0.0263172,1903,715,35.0578,0.68642
686,309,35.0845,0.211609,0,0,0,0,0,0,0,-1,1910,715,35.0845,-0.211598
693,309,32.7026,1.51727,0,0,0,0,0,0,0,-1,1917,715,32.7026,-1.51727
700,309,23.0179,3.08337,0,0,0,0,0,0,0,-1,1924,715,23.018,-3.08336
707,309,15.6318,4.58655,0,0,0,0,0,0,0,-1,1931,715,15.6318,-4.58657
714,309,16.7573,6.68286,0,0,0,0,0,0,0,-1,1938,715,16.7574,-6.68284
721,309,16.8337,5.4458,0,0,0,0,0,0,0,-1,1945,715,16.8338,-5.44582
728,309,0,0,0,0,0,0,0,0,0,-1,1952,715,0,0
735,309,0,0,0,0,0,0,0,0,0,-1,1959,715,0,0
742,309,0,0,0,0,0,0,0,0,0,-1,1966,715,0,0
749,309,0,0,0,0,0,0,0,0,0,-1,1973,715,0,0
756,309,0,0,0,0,0,0,0,0,0,-1,1980,715,0,0
763,309,0,0,0,0,0,0,0,0,0,-1,1987,715,0,0
770,309,0,0,0,0,0,0,0,0,0,-1,1994,715,0,0
777,309,0,0,0,0,0,0,0,0,0,-1,2001,715,0,0
784,309,0,0,0,0,0,0,0,0,0,-1,2008,715,0,0
791,309,0,0,0,0,0,0,0,0,0,-1,2015,715,0,0
798,309,0,0,0,0,0,0,0,0,0,-1,2022,715,0,0
805,309,0,0,0,0,0,0,0,0,0,-1,2029,715,0,0
812,309,0,0,0,0,0,0,0,0,0,-1,2036,715,0,0
-700,302,0,0,0,0,0,0,0,0,0,-1,524,722,0,0
-693,302,0,0,0,0,0,0,0,0,0,-1,531,722,0,0
-686,302,0,0,0,0,0,0,0,0,0,-1,538,722,0,0
-679,302,0,0,0,0,0,0,0,0,0,-1,545,722,0,0
-672,302,0,0,0,0,0,0,0,0,0,-1,552,722,0,0
-665,302,0,0,0,0,0,0,0,0,0,-1,559,722,0,0
-658,302,0,0,0,0,0,0,0,0,0,-1,566,722,0,0
-651,302,0,0,0,0,0,0,0,0,0,-1,573,722,0,0
-644,302,0,0,0,0,0,0,0,0,0,-1,580,722,0,0
-637,302,0,0,0,0,0,0,0,0,0,-1,587,722,0,0
-630,302,0,0,0,0,0,0,0,0,0,-1,594,722,0,0
-623,302,0,0,0,0,0,0,0,0,0,-1,601,722,0,0
-616,302,0,0,0,0,0,0,0,0,0,-1,608,722,0,0
-609,302,-7.79266,-3.71649,0,0,0,0,0,0,0,-1,615,722,-7.79267,3.7165
-602,302,0.92865,-1.99158,0,0,0,0,0,0,0,-1,622,722,0.928637,1.99157
-595,302,-7.89941,2.13641,0,0,0,0,0,0,0,-1,629,722,-7.89939,-2.13639
-588,302,-7.10895,1.79163,0,0,0,0,0,0,0,-1,636,722,-7.10896,-1.79163
-581,302,-9.17566,1.09448,0,0,0,0,0,0,0,-1,643,722,-9.17569,-1.09445
-574,302,-11.5183,-0.344543,0,0,0,0,0,0,0,-1,650,722,-11.5183,0.344557
-567,302,-12.1534,-0.672241,0,0,0,0,0,0,0,-1,657,722,-12.1535,0.672246
-560,302,-23.0162,-1.47546,0,0,0,0,0,0,0,-1,664,722,-23.0162,1.47545
-553,302,-22.9254,-2.24744,0.000522382,0.0043588,-0.000223036,0.00437172,0.000509459,-1.51292,0.00276038,0.0315409,671,722,-22.9253,2.24744
-546,302,-22.9334,-3.04681,0.00105543,0.002963,-0.000248482,0.00299484,0.00102359,-1.44337,0.00175769,0.0176199,678,722,-22.9334,3.04683
-539,302,-22.9592,-3.73932,0.00135762,0.00190321,-0.000152332,0.00194286,0.00131797,-1.31616,0.00114525,0.0155774,685,722,-22.9592,3.73935
-532,302,-22.9715,-4.47168,0.00140022,0.0009363,4.13519e-05,0.00140387,0.000932643,0.0882101,0.00082499,0.0152796,692,722,-22.9715,4.47168
-525,302,-22.9786,-5.26013,0.00135511,8.03229e-05,0.000271045,0.00141034,2.50867e-05,0.201037,0.000931979,0.0202177,699,722,-22.9786,5.26014
-518,302,-23.0133,-5.94891,0.00119884,-0.000576352,0.000505626,0.00133276,-0.000710267,0.258905,0.00119765,0.0218953,706,722,-23.0133,5.94892
-511,302,-23.0566,-6.64874,0.000849896,-0.00120019,0.00077954,0.00111264,-0.00146294,0.325092,0.00149159,0.0117568,713,722,-23.0567,6.64872
-504,302,-23.0874,-7.38068,0.000330864,-0.00174217,0.00104795,0.000768313,-0.00217962,0.395442,0.00176581,0.00995583,720,722,-23.0874,7.38067
-497,302,-23.1528,-8.06671,-0.000225333,-0.00212035,0.00113834,0.000308234,-0.00265391,0.438316,0.00188046,0.0148422,727,722,-23.1528,8.0667
-490,302,-23.2269,-8.76007,0,0,0,0,0,0,0,-1,734,722,-23.2269,8.7601
-483,302,-9.53412,-3.1673,0,0,0,0,0,0,0,-1,741,722,-9.53411,3.1673
-476,302,-4.29749,-0.203491,0,0,0,0,0,0,0,-1,748,722,-4.29751,0.203464
-469,302,-12.369,1.42859,0,0,0,0,0,0,0,-1,755,722,-12.3689,-1.42857
-462,302,-17.4766,0.310791,0,0,0,0,0,0,0,-1,762,722,-17.4766,-0.310788
-455,302,-36.7368,-2.97418,0,0,0,0,0,0,0,-1,769,722,-36.7368,2.97416
-448,302,-42.1174,-1.44232,0,0,0,0,0,0,0,-1,776,722,-42.1174,1.44229
-441,302,-42.171,-0.834961,0,0,0,0,0,0,0,-1,783,722,-42.171,0.834972
-434,302,-42.7626,-0.210876,0,0,0,0,0,0,0,-1,790,722,-42.7626,0.210888
-427,302,-27.1735,1.81506,0,0,0,0,0,0,0,-1,797,722,-27.1735,-1.81504
-420,302,0,0,0,0,0,0,0,0,0,-1,804,722,0,0
-413,302,0,0,0,0,0,0,0,0,0,-1,811,722,0,0
-406,302,0,0,0,0,0,0,0,0,0,-1,818,722,0,0
-399,302,0,0,0,0,0,0,0,0,0,-1,825,722,0,0
-392,302,0,0,0,0,0,0,0,0,0,-1,832,722,0,0
-385,302,0,0,0,0,0,0,0,0,0,-1,839,722,0,0
-378,302,0,0,0,0,0,0,0,0,0,-1,846,722,0,0
-371,302,0,0,0,0,0,0,0,0,0,-1,853,722,0,0
-364,302,0,0,0,0,0,0,0,0,0,-1,860,722,0,0
-357,302,0,0,0,0,0,0,0,0,0,-1,867,722,0,0
-350,302,0,0,0,0,0,0,0,0,0,-1,874,722,0,0
-343,302,0,0,0,0,0,0,0,0,0,-1,881,722,0,0
-336,302,0,0,0,0,0,0,0,0,0,-1,888,722,0,0
-329,302,0,0,0,0,0,0,0,0,0,-1,895,722,0,0
-322,302,0,0,0,0,0,0,0,0,0,-1,902,722,0,0
-315,302,0,0,0,0,0,0,0,0,0,-1,909,722,0,0
-308,302,0,0,0,0,0,0,0,0,0,-1,916,722,0,0
-301,302,0,0,0,0,0,0,0,0,0,-1,923,722,0,0
-294,302,0,0,0,0,0,0,0,0,0,-1,930,722,0,0
-287,302,0,0,0,0,0,0,0,0,0,-1,937,722,0,0
-280,302,0,0,0,0,0,0,0,0,0,-1,944,722,0,0
-273,302,0,0,0,0,0,0,0,0,0,-1,951,722,0,0
-266,302,0,0,0,0,0,0,0,0,0,-1,958,722,0,0
-259,302,0,0,0,0,0,0,0,0,0,-1,965,722,0,0
-252,302,0,0,0,0,0,0,0,0,0,-1,972,722,0,0
-245,302,0,0,0,0,0,0,0,0,0,-1,979,722,0,0
-238,302,0,0,0,0,0,0,0,0,0,-1,986,722,0,0
-231,302,0,0,0,0,0,0,0,0,0,-1,993,722,0,0
-224,302,0,0,0,0,0,0,0,0,0,-1,1000,722,0,0
-217,302,0,0,0,0,0,0,0,0,0,-1,1007,722,0,0
-210,302,0,0,0,0,0,0,0,0,0,-1,1014,722,0,0
-203,302,0,0,0,0,0,0,0,0,0,-1,1021,722,0,0
-196,302,0,0,0,0,0,0,0,0,0,-1,1028,722,0,0
-189,302,0,0,0,0,0,0,0,0,0,-1,1035,722,0,0
-182,302,0,0,0,0,0,0,0,0,0,-1,1042,722,0,0
-175,302,0,0,0,0,0,0,0,0,0,-1,1049,722,0,0
-168,302,0,0,0,0,0,0,0,0,0,-1,1056,722,0,0
-161,302,0,0,0,0,0,0,0,0,0,-1,1063,722,0,0
-154,302,0,0,0,0,0,0,0,0,0,-1,1070,722,0,0
-147,302,0,0,0,0,0,0,0,0,0,-1,1077,722,0,0
-140,302,0,0,0,0,0,0,0,0,0,-1,1084,722,0,0
-133,302,0,0,0,0,0,0,0,0,0,-1,1091,722,0,0
-126,302,0,0,0,0,0,0,0,0,0,-1,1098,722,0,0
-119,302,0,0,0,0,0,0,0,0,0,-1,1105,722,0,0
-112,302,0,0,0,0,0,0,0,0,0,-1,1112,722,0,0
-105,302,0,0,0,0,0,0,0,0,0,-1,1119,722,0,0
-98,302,0,0,0,0,0,0,0,0,0,-1,1126,722,0,0
-91,302,0,0,0,0,0,0,0,0,0,-1,1133,722,0,0
-84,302,0,0,0,0,0,0,0,0,0,-1,1140,722,0,0
-77,302,0,0,0,0,0,0,0,0,0,-1,1147,722,0,0
-70,302,0,0,0,0,0,0,0,0,0,-1,1154,722,0,0
-63,302,0,0,0,0,0,0,0,0,0,-1,1161,722,0,0
-56,302,0,0,0,0,0,0,0,0,0,-1,1168,722,0,0
-49,302,0,0,0,0,0,0,0,0,0,-1,1175,722,0,0
-42,302,0,0,0,0,0,0,0,0,0,-1,1182,722,0,0
-35,302,0,0,0,0,0,0,0,0,0,-1,1189,722,0,0
-28,302,0,0,0,0,0,0,0,0,0,-1,1196,722,0,0
-21,302,0,0,0,0,0,0,0,0,0,-1,1203,722,0,0
-14,302,0,0,0,0,0,0,0,0,0,-1,1210,722,0,0
-7,302,0,0,0,0,0,0,0,0,0,-1,1217,722,0,0
0,302,0,0,0,0,0,0,0,0,0,-1,1224,722,0,0
7,302,0,0,0,0,0,0,0,0,0,-1,1231,722,0,0
14,302,0,0,0,0,0,0,0,0,0,-1,1238,722,0,0
21,302,0,0,0,0,0,0,0,0,0,-1,1245,722,0,0
28,302,0,0,0,0,0,0,0,0,0,-1,1252,722,0,0
35,302,0,0,0,0,0,0,0,0,0,-1,1259,722,0,0
42,302,0,0,0,0,0,0,0,0,0,-1,1266,722,0,0
49,302,0,0,0,0,0,0,0,0,0,-1,1273,722,0,0
56,302,0,0,0,0,0,0,0,0,0,-1,1280,722,0,0
63,302,0,0,0,0,0,0,0,0,0,-1,1287,722,0,0
70,302,0,0,0,0,0,0,0,0,0,-1,1294,722,0,0
77,302,0,0,0,0,0,0,0,0,0,-1,1301,722,0,0
84,302,0,0,0,0,0,0,0,0,0,-1,1308,722,0,0
91,302,0,0,0,0,0,0,0,0,0,-1,1315,722,0,0
98,302,0,0,0,0,0,0,0,0,0,-1,1322,722,0,0
105,302,0,0,0,0,0,0,0,0,0,-1,1329,722,0,0
112,302,0,0,0,0,0,0,0,0,0,-1,1336,722,0,0
119,302,0,0,0,0,0,0,0,0,0,-1,1343,722,0,0
126,302,0,0,0,0,0,0,0,0,0,-1,1350,722,0,0
133,302,0,0,0,0,0,0,0,0,0,-1,1357,722,0,0
140,302,0,0,0,0,0,0,0,0,0,-1,1364,722,0,0
147,302,0,0,0,0,0,0,0,0,0,-1,1371,722,0,0
154,302,0,0,0,0,0,0,0,0,0,-1,1378,722,0,0
161,302,0,0,0,0,0,0,0,0,0,-1,1385,722,0,0
168,302,0,0,0,0,0,0,0,0,0,-1,1392,722,0,0
175,302,0,0,0,0,0,0,0,0,0,-1,1399,722,0,0
182,302,0,0,0,0,0,0,0,0,0,-1,1406,722,0,0
189,302,0,0,0,0,0,0,0,0,0,-1,1413,722,0,0
196,302,0,0,0,0,0,0,0,0,0,-1,1420,722,0,0
203,302,0,0,0,0,0,0,0,0,0,-1,1427,722,0,0
210,302,0,0,0,0,0,0,0,0,0,-1,1434,722,0,0
217,302,0,0,0,0,0,0,0,0,0,-1,1441,722,0,0
224,302,0,0,0,0,0,0,0,0,0,-1,1448,722,0,0
231,302,0,0,0,0,0,0,0,0,0,-1,1455,722,0,0
238,302,0,0,0,0,0,0,0,0,0,-1,1462,722,0,0
245,302,0,0,0,0,0,0,0,0,0,-1,1469,722,0,0
252,302,0,0,0,0,0,0,0,0,0,-1,1476,722,0,0
259,302,0,0,0,0,0,0,0,0,0,-1,1483,722,0,0
266,302,0,0,0,0,0,0,0,0,0,-1,1490,722,0,0
273,302,0,0,0,0,0,0,0,0,0,-1,1497,722,0,0
280,302,0,0,0,0,0,0,0,0,0,-1,1504,722,0,0
287,302,0,0,0,0,0,0,0,0,0,-1,1511,722,0,0
294,302,0,0,0,0,0,0,0,0,0,-1,1518,722,0,0
301,302,0,0,0,0,0,0,0,0,0,-1,1525,722,0,0
308,302,0,0,0,0,0,0,0,0,0,-1,1532,722,0,0
315,302,0,0,0,0,0,0,0,0,0,-1,1539,722,0,0
322,302,0,0,0,0,0,0,0,0,0,-1,1546,722,0,0
329,302,0,0,0,0,0,0,0,0,0,-1,1553,722,0,0
336,302,0,0,0,0,0,0,0,0,0,-1,1560,722,0,0
343,302,0,0,0,0,0,0,0,0,0,-1,1567,722,0,0
350,302,0,0,0,0,0,0,0,0,0,-1,1574,722,0,0
357,302,0,0,0,0,0,0,0,0,0,-1,1581,722,0,0
364,302,0,0,0,0,0,0,0,0,0,-1,1588,722,0,0
371,302,0,0,0,0,0,0,0,0,0,-1,1595,722,0,0
378,302,0,0,0,0,0,0,0,0,0,-1,1602,722,0,0
385,302,0,0,0,0,0,0,0,0,0,-1,1609,722,0,0
392,302,0,0,0,0,0,0,0,0,0,-1,1616,722,0,0
399,302,0,0,0,0,0,0,0,0,0,-1,1623,722,0,0
406,302,0,0,0,0,0,0,0,0,0,-1,1630,722,0,0
413,302,0,0,0,0,0,0,0,0,0,-1,1637,722,0,0
420,302,0,0,0,0,0,0,0,0,0,-1,1644,722,0,0
427,302,0,0,0,0,0,0,0,0,0,-1,1651,722,0,0
434,302,0,0,0,0,0,0,0,0,0,-1,1658,722,0,0
441,302,0,0,0,0,0,0,0,0,0,-1,1665,722,0,0
448,302,0,0,0,0,0,0,0,0,0,-1,1672,722,0,0
455,302,0,0,0,0,0,0,0,0,0,-1,1679,722,0,0
462,302,0,0,0,0,0,0,0,0,0,-1,1686,722,0,0
469,302,0,0,0,0,0,0,0,0,0,-1,1693,722,0,0
476,302,0,0,0,0,0,0,0,0,0,-1,1700,722,0,0
483,302,0,0,0,0,0,0,0,0,0,-1,1707,722,0,0
490,302,0,0,0,0,0,0,0,0,0,-1,1714,722,0,0
497,302,0,0,0,0,0,0,0,0,0,-1,1721,722,0,0
504,302,0,0,0,0,0,0,0,0,0,-1,1728,722,0,0
511,302,0,0,0,0,0,0,0,0,0,-1,1735,722,0,0
518,302,0,0,0,0,0,0,0,0,0,-1,1742,722,0,0
525,302,0,0,0,0,0,0,0,0,0,-1,1749,722,0,0
532,302,0,0,0,0,0,0,0,0,0,-1,1756,722,0,0
539,302,0,0,0,0,0,0,0,0,0,-1,1763,722,0,0
546,302,48.9873,1.50562,0,0,0,0,0,0,0,-1,1770,722,48.9873,-1.50562
553,302,56.7844,3.46533,0,0,0,0,0,0,0,-1,1777,722,56.7844,-3.4653
560,302,56.7115,3.84808,0,0,0,0,0,0,0,-1,1784,722,56.7116,-3.84806
567,302,55.9475,4.24542,0,0,0,0,0,0,0,-1,1791,722,55.9475,-4.24542
574,302,45.9537,6.00867,0,0,0,0,0,0,0,-1,1798,722,45.9537,-6.00864
581,302,45.137,7.38043,0,0,0,0,0,0,0,-1,1805,722,45.1369,-7.38044
588,302,26.9731,7.19983,0,0,0,0,0,0,0,-1,1812,722,26.9732,-7.19981
595,302,27.3826,8.13104,0,0,0,0,0,0,0,-1,1819,722,27.3825,-8.13102
602,302,14.7349,5.21246,0,0,0,0,0,0,0,-1,1826,722,14.7349,-5.21247
609,302,31.1039,-6.34253,0,0,0,0,0,0,0,-1,1833,722,31.1039,6.34254
616,302,36.1664,-7.41034,0,0,0,0,0,0,0,-1,1840,722,36.1664,7.41033
623,302,36.095,-6.70197,0.000261509,-0.000461788,-0.000523547,0.000536171,-0.00073645,-0.483147,0.000737775,0.0148311,1847,722,36.0949,6.70196
630,302,36.0211,-5.979,0.000143148,-0.000318218,-0.000281664,0.000276538,-0.000451608,-0.442289,0.000424426,0.0112468,1854,722,36.0211,5.979
637,302,35.9718,-5.24011,0.000193794,-7.9023e-05,-1.1797e-05,0.000194303,-7.95321e-05,-0.0431343,0.000162662,0.014417,1861,722,35.9718,5.24014
644,302,35.9301,-4.47864,0.000406246,0.000269221,0.000268407,0.000614746,6.07206e-05,0.660439,0.000391165,0.0159676,1868,722,35.9301,4.47863
651,302,35.8839,-3.71338,0.000736234,0.000687589,0.00057726,0.00128968,0.000134139,0.764344,0.000818747,0.0146379,1875,722,35.8839,3.71338
658,302,35.8766,-2.99622,0.00118749,0.00120517,0.000903997,0.00210037,0.000292293,0.790287,0.0013137,0.0149102,1882,722,35.8766,2.99624
665,302,35.8583,-2.26093,0.00182523,0.00184106,0.00132173,0.0031549,0.000511395,0.788392,0.00195522,0.0142635,1889,722,35.8582,2.26093
672,302,35.7988,-1.50092,0.00260862,0.00259523,0.00181119,0.00441313,0.00079072,0.78355,0.00271714,0.0115958,1896,722,35.7988,1.50093
679,302,35.7628,-0.72052,0.00353381,0.00353033,0.0023929,0.00592497,0.00113917,0.785035,0.00363033,0.00963736,1903,722,35.7628,0.720498
686,302,35.7649,0.0821533,0.00469363,0.00464086,0.00316405,0.00783141,0.00150308,0.781228,0.00479903,0.0230644,1910,722,35.7649,-0.082181
693,302,35.7175,0.877502,0,0,0,0,0,0,0,-1,1917,722,35.7176,-0.877493
700,302,25.4069,1.97308,0,0,0,0,0,0,0,-1,1924,722,25.4068,-1.97311
707,302,16.7321,4.76685,0,0,0,0,0,0,0,-1,1931,722,16.7321,-4.76687
714,302,17.2,5.77594,0,0,0,0,0,0,0,-1,1938,722,17.2,-5.77595
721,302,17.7914,6.60394,0,0,0,0,0,0,0,-1,1945,722,17.7914,-6.60395
728,302,17.2798,4.81702,0,0,0,0,0,0,0,-1,1952,722,17.2798,-4.81703
735,302,0,0,0,0,0,0,0,0,0,-1,1959,722,0,0
742,302,0,0,0,0,0,0,0,0,0,-1,1966,722,0,0
749,302,0,0,0,0,0,0,0,0,0,-1,1973,722,0,0
756,302,0,0,0,0,0,0,0,0,0,-1,1980,722,0,0
763,302,0,0,0,0,0,0,0,0,0,-1,1987,722,0,0
770,302,0,0,0,0,0,0,0,0,0,-1,1994,722,0,0
777,302,0,0,0,0,0,0,0,0,0,-1,2001,722,0,0
784,302,0,0,0,0,0,0,0,0,0,-1,2008,722,0,0
791,302,0,0,0,0,0,0,0,0,0,-1,2015,722,0,0
798,302,0,0,0,0,0,0,0,0,0,-1,2022,722,0,0
805,302,0,0,0,0,0,0,0,0,0,-1,2029,722,0,0
812,302,0,0,0,0,0,0,0,0,0,-1,2036,722,0,0
-700,295,0,0,0,0,0,0,0,0,0,-1,524,729,0,0
-693,295,0,0,0,0,0,0,0,0,0,-1,531,729,0,0
-686,295,0,0,0,0,0,0,0,0,0,-1,538,729,0,0
-679,295,0,0,0,0,0,0,0,0,0,-1,545,729,0,0
-672,295,0,0,0,0,0,0,0,0,0,-1,552,729,0,0
-665,295,0,0,0,0,0,0,0,0,0,-1,559,729,0,0
-658,295,0,0,0,0,0,0,0,0,0,-1,566,729,0,0
-651,295,0,0,0,0,0,0,0,0,0,-1,573,729,0,0
-644,295,0,0,0,0,0,0,0,0,0,-1,580,729,0,0
-637,295,0,0,0,0,0,0,0,0,0,-1,587,729,0,0
-630,295,0,0,0,0,0,0,0,0,0,-1,594,729,0,0
-623,295,0,0,0,0,0,0,0,0,0,-1,601,729,0,0
-616,295,-13.4911,1.31738,0,0,0,0,0,0,0,-1,608,729,-13.4911,-1.3174
-609,295,-10.2864,0.832031,0,0,0,0,0,0,0,-1,615,729,-10.2863,-0.832034
-602,295,-8.19006,3.01587,0,0,0,0,0,0,0,-1,622,729,-8.19005,-3.01588
-595,295,-0.615479,-1.95447,0,0,0,0,0,0,0,-1,629,729,-0.615481,1.95445
-588,295,-7.98999,1.56903,0,0,0,0,0,0,0,-1,636,729,-7.98997,-1.56905
-581,295,-12.0404,0.150574,0,0,0,0,0,0,0,-1,643,729,-12.0404,-0.150604
-574,295,-12.1605,-0.0739746,0,0,0,0,0,0,0,-1,650,729,-12.1605,0.0739856
-567,295,-23.2937,-0.673218,0,0,0,0,0,0,0,-1,657,729,-23.2937,0.673197
-560,295,-23.5361,-1.565,-0.00119673,0.00488646,-0.000100213,0.00488811,-0.00119838,-1.55433,0.00372306,0.036914,664,729,-23.5361,1.56498
-553,295,-23.5605,-2.36066,-0.000150372,0.00366439,-0.000174288,0.00367234,-0.000158318,-1.52524,0.00250267,0.0199787,671,729,-23.5605,2.36068
-546,295,-23.6531,-3.07422,0.00041012,0.00239807,-8.35635e-05,0.00240158,0.000406614,-1.52886,0.0014842,0.0219974,678,729,-23.6532,3.07424
-539,295,-23.6973,-3.71991,0.000760255,0.00140442,8.60265e-05,0.00141571,0.000748965,1.4403,0.000817822,0.019723,685,729,-23.6973,3.71988
-532,295,-23.7059,-4.42523,0.000872084,0.0004464,0.000323396,0.00104639,0.000272091,0.494357,0.000626901,0.0165641,692,729,-23.7059,4.42521
-525,295,-23.7212,-5.18268,0.000917722,-0.000392783,0.000568201,0.00112977,-0.00060483,0.357183,0.00101664,0.0154528,699,729,-23.7212,5.18269
-518,295,-23.7441,-5.89581,0.000789308,-0.00102167,0.000779927,0.00107889,-0.00131126,0.355518,0.00138212,0.0116246,706,729,-23.7441,5.8958
-511,295,-23.7718,-6.60345,0.000461009,-0.00160409,0.00104891,0.000900321,-0.0020434,0.39663,0.00174175,0.010198,713,729,-23.7718,6.60345
-504,295,-23.8001,-7.31158,-1.33494e-05,-0.002063,0.00127453,0.000597272,-0.00267362,0.446785,0.00201129,0.0116022,720,729,-23.8001,7.31161
-497,295,-23.8657,-7.96112,-0.000497698,-0.00232182,0.00128769,0.000168218,-0.00298774,0.477264,0.0020502,0.0227296,727,729,-23.8657,7.96114
-490,295,-23.9388,-8.5874,0,0,0,0,0,0,0,-1,734,729,-23.9388,8.58738
-483,295,-6.84503,-0.454651,0,0,0,0,0,0,0,-1,741,729,-6.84505,0.454639
-476,295,-13.1738,-0.836243,0,0,0,0,0,0,0,-1,748,729,-13.1738,0.836223
-469,295,-26.5608,-0.466187,0,0,0,0,0,0,0,-1,755,729,-26.5608,0.466162
-462,295,-29.7701,-0.792664,0,0,0,0,0,0,0,-1,762,729,-29.7701,0.792642
-455,295,-45.11,-2.79272,0,0,0,0,0,0,0,-1,769,729,-45.11,2.79272
-448,295,-44.4651,-2.22919,0,0,0,0,0,0,0,-1,776,729,-44.4652,2.22919
-441,295,-44.3488,-1.47363,0,0,0,0,0,0,0,-1,783,729,-44.3488,1.47365
-434,295,-43.5654,0.210632,0,0,0,0,0,0,0,-1,790,729,-43.5654,-0.210646
-427,295,0,0,0,0,0,0,0,0,0,-1,797,729,0,0
-420,295,0,0,0,0,0,0,0,0,0,-1,804,729,0,0
-413,295,0,0,0,0,0,0,0,0,0,-1,811,729,0,0
-406,295,0,0,0,0,0,0,0,0,0,-1,818,729,0,0
-399,295,0,0,0,0,0,0,0,0,0,-1,825,729,0,0
-392,295,0,0,0,0,0,0,0,0,0,-1,832,729,0,0
-385,295,0,0,0,0,0,0,0,0,0,-1,839,729,0,0
-378,295,0,0,0,0,0,0,0,0,0,-1,846,729,0,0
-371,295,0,0,0,0,0,0,0,0,0,-1,853,729,0,0
-364,295,0,0,0,0,0,0,0,0,0,-1,860,729,0,0
-357,295,0,0,0,0,0,0,0,0,0,-1,867,729,0,0
-350,295,0,0,0,0,0,0,0,0,0,-1,874,729,0,0
-343,295,0,0,0,0,0,0,0,0,0,-1,881,729,0,0
-336,295,0,0,0,0,0,0,0,0,0,-1,888,729,0,0
-329,295,0,0,0,0,0,0,0,0,0,-1,895,729,0,0
-322,295,0,0,0,0,0,0,0,0,0,-1,902,729,0,0
-315,295,0,0,0,0,0,0,0,0,0,-1,909,729,0,0
-308,295,0,0,0,0,0,0,0,0,0,-1,916,729,0,0
-301,295,0,0,0,0,0,0,0,0,0,-1,923,729,0,0
-294,295,0,0,0,0,0,0,0,0,0,-1,930,729,0,0
-287,295,0,0,0,0,0,0,0,0,0,-1,937,729,0,0
-280,295,0,0,0,0,0,0,0,0,0,-1,944,729,0,0
-273,295,0,0,0,0,0,0,0,0,0,-1,951,729,0,0
-266,295,0,0,0,0,0,0,0,0,0,-1,958,729,0,0
-259,295,0,0,0,0,0,0,0,0,0,-1,965,729,0,0
-252,295,0,0,0,0,0,0,0,0,0,-1,972,729,0,0
-245,295,0,0,0,0,0,0,0,0,0,-1,979,729,0,0
-238,295,0,0,0,0,0,0,0,0,0,-1,986,729,0,0
-231,295,0,0,0,0,0,0,0,0,0,-1,993,729,0,0
-224,295,0,0,0,0,0,0,0,0,0,-1,1000,729,0,0
-217,295,0,0,0,0,0,0,0,0,0,-1,1007,729,0,0
-210,295,0,0,0,0,0,0,0,0,0,-1,1014,729,0,0
-203,295,0,0,0,0,0,0,0,0,0,-1,1021,729,0,0
-196,295,0,0,0,0,0,0,0,0,0,-1,1028,729,0,0
-189,295,0,0,0,0,0,0,0,0,0,-1,1035,729,0,0
-182,295,0,0,0,0,0,0,0,0,0,-1,1042,729,0,0
-175,295,0,0,0,0,0,0,0,0,0,-1,1049,729,0,0
-168,295,0,0,0,0,0,0,0,0,0,-1,1056,729,0,0
-161,295,0,0,0,0,0,0,0,0,0,-1,1063,729,0,0
-154,295,0,0,0,0,0,0,0,0,0,-1,1070,729,0,0
-147,295,0,0,0,0,0,0,0,0,0,-1,1077,729,0,0
-140,295,0,0,0,0,0,0,0,0,0,-1,1084,729,0,0
-133,295,0,0,0,0,0,0,0,0,0,-1,1091,729,0,0
-126,295,0,0,0,0,0,0,0,0,0,-1,1098,729,0,0
-119,295,0,0,0,0,0,0,0,0,0,-1,1105,729,0,0
-112,295,0,0,0,0,0,0,0,0,0,-1,1112,729,0,0
-105,295,0,0,0,0,0,0,0,0,0,-1,1119,729,0,0
-98,295,0,0,0,0,0,0,0,0,0,-1,1126,729,0,0
-91,295,0,0,0,0,0,0,0,0,0,-1,1133,729,0,0
-84,295,0,0,0,0,0,0,0,0,0,-1,1140,729,0,0
-77,295,0,0,0,0,0,0,0,0,0,-1,1147,729,0,0
-70,295,0,0,0,0,0,0,0,0,0,-1,1154,729,0,0
-63,295,0,0,0,0,0,0,0,0,0,-1,1161,729,0,0
-56,295,0,0,0,0,0,0,0,0,0,-1,1168,729,0,0
-49,295,0,0,0,0,0,0,0,0,0,-1,1175,729,0,0
-42,295,0,0,0,0,0,0,0,0,0,-1,1182,729,0,0
-35,295,0,0,0,0,0,0,0,0,0,-1,1189,729,0,0
-28,295,0,0,0,0,0,0,0,0,0,-1,1196,729,0,0
-21,295,0,0,0,0,0,0,0,0,0,-1,1203,729,0,0
-14,295,0,0,0,0,0,0,0,0,0,-1,1210,729,0,0
-7,295,0,0,0,0,0,0,0,0,0,-1,1217,729,0,0
0,295,0,0,0,0,0,0,0,0,0,-1,1224,729,0,0
7,295,0,0,0,0,0,0,0,0,0,-1,1231,729,0,0
14,295,0,0,0,0,0,0,0,0,0,-1,1238,729,0,0
21,295,0,0,0,0,0,0,0,0,0,-1,1245,729,0,0
28,295,0,0,0,0,0,0,0,0,0,-1,1252,729,0,0
35,295,0,0,0,0,0,0,0,0,0,-1,1259,729,0,0
42,295,0,0,0,0,0,0,0,0,0,-1,1266,729,0,0
49,295,0,0,0,0,0,0,0,0,0,-1,1273,729,0,0
56,295,0,0,0,0,0,0,0,0,0,-1,1280,729,0,0
63,295,0,0,0,0,0,0,0,0,0,-1,1287,729,0,0
70,295,0,0,0,0,0,0,0,0,0,-1,1294,729,0,0
77,295,0,0,0,0,0,0,0,0,0,-1,1301,729,0,0
84,295,0,0,0,0,0,0,0,0,0,-1,1308,729,0,0
91,295,0,0,0,0,0,0,0,0,0,-1,1315,729,0,0
98,295,0,0,0,0,0,0,0,0,0,-1,1322,729,0,0
105,295,0,0,0,0,0,0,0,0,0,-1,1329,729,0,0
112,295,0,0,0,0,0,0,0,0,0,-1,1336,729,0,0
119,295,0,0,0,0,0,0,0,0,0,-1,1343,729,0,0
126,295,0,0,0,0,0,0,0,0,0,-1,1350,729,0,0
133,295,0,0,0,0,0,0,0,0,0,-1,1357,729,0,0
140,295,0,0,0,0,0,0,0,0,0,-1,1364,729,0,0
147,295,0,0,0,0,0,0,0,0,0,-1,1371,729,0,0
154,295,0,0,0,0,0,0,0,0,0,-1,1378,729,0,0
161,295,0,0,0,0,0,0,0,0,0,-1,1385,729,0,0
168,295,0,0,0,0,0,0,0,0,0,-1,1392,729,0,0
175,295,0,0,0,0,0,0,0,0,0,-1,1399,729,0,0
182,295,0,0,0,0,0,0,0,0,0,-1,1406,729,0,0
189,295,0,0,0,0,0,0,0,0,0,-1,1413,729,0,0
196,295,0,0,0,0,0,0,0,0,0,-1,1420,729,0,0
203,295,0,0,0,0,0,0,0,0,0,-1,1427,729,0,0
210,295,0,0,0,0,0,0,0,0,0,-1,1434,729,0,0
217,295,0,0,0,0,0,0,0,0,0,-1,1441,729,0,0
224,295,0,0,0,0,0,0,0,0,0,-1,1448,729,0,0
231,295,0,0,0,0,0,0,0,0,0,-1,1455,729,0,0
238,295,0,0,0,0,0,0,0,0,0,-1,1462,729,0,0
245,295,0,0,0,0,0,0,0,0,0,-1,1469,729,0,0
252,295,0,0,0,0,0,0,0,0,0,-1,1476,729,0,0
259,295,0,0,0,0,0,0,0,0,0,-1,1483,729,0,0
266,295,0,0,0,0,0,0,0,0,0,-1,1490,729,0,0
273,295,0,0,0,0,0,0,0,0,0,-1,1497,729,0,0
280,295,0,0,0,0,0,0,0,0,0,-1,1504,729,0,0
287,295,0,0,0,0,0,0,0,0,0,-1,1511,729,0,0
294,295,0,0,0,0,0,0,0,0,0,-1,1518,729,0,0
301,295,0,0,0,0,0,0,0,0,0,-1,1525,729,0,0
308,295,0,0,0,0,0,0,0,0,0,-1,1532,729,0,0
315,295,0,0,0,0,0,0,0,0,0,-1,1539,729,0,0
322,295,0,0,0,0,0,0,0,0,0,-1,1546,729,0,0
329,295,0,0,0,0,0,0,0,0,0,-1,1553,729,0,0
336,295,0,0,0,0,0,0,0,0,0,-1,1560,729,0,0
343,295,0,0,0,0,0,0,0,0,0,-1,1567,729,0,0
350,295,0,0,0,0,0,0,0,0,0,-1,1574,729,0,0
357,295,0,0,0,0,0,0,0,0,0,-1,1581,729,0,0
364,295,0,0,0,0,0,0,0,0,0,-1,1588,729,0,0
371,295,0,0,0,0,0,0,0,0,0,-1,1595,729,0,0
378,295,0,0,0,0,0,0,0,0,0,-1,1602,729,0,0
385,295,0,0,0,0,0,0,0,0,0,-1,1609,729,0,0
392,295,0,0,0,0,0,0,0,0,0,-1,1616,729,0,0
399,295,0,0,0,0,0,0,0,0,0,-1,1623,729,0,0
406,295,0,0,0,0,0,0,0,0,0,-1,1630,729,0,0
413,295,0,0,0,0,0,0,0,0,0,-1,1637,729,0,0
420,295,0,0,0,0,0,0,0,0,0,-1,1644,729,0,0
427,295,0,0,0,0,0,0,0,0,0,-1,1651,729,0,0
434,295,0,0,0,0,0,0,0,0,0,-1,1658,729,0,0
441,295,0,0,0,0,0,0,0,0,0,-1,1665,729,0,0
448,295,0,0,0,0,0,0,0,0,0,-1,1672,729,0,0
455,295,0,0,0,0,0,0,0,0,0,-1,1679,729,0,0
462,295,0,0,0,0,0,0,0,0,0,-1,1686,729,0,0
469,295,0,0,0,0,0,0,0,0,0,-1,1693,729,0,0
476,295,0,0,0,0,0,0,0,0,0,-1,1700,729,0,0
483,295,0,0,0,0,0,0,0,0,0,-1,1707,729,0,0
490,295,0,0,0,0,0,0,0,0,0,-1,1714,729,0,0
497,295,0,0,0,0,0,0,0,0,0,-1,1721,729,0,0
504,295,0,0,0,0,0,0,0,0,0,-1,1728,729,0,0
511,295,0,0,0,0,0,0,0,0,0,-1,1735,729,0,0
518,295,0,0,0,0,0,0,0,0,0,-1,1742,729,0,0
525,295,0,0,0,0,0,0,0,0,0,-1,1749,729,0,0
532,295,0,0,0,0,0,0,0,0,0,-1,1756,729,0,0
539,295,0,0,0,0,0,0,0,0,0,-1,1763,729,0,0
546,295,57.4674,2.36884,0,0,0,0,0,0,0,-1,1770,729,57.4674,-2.36883
553,295,57.1969,2.73846,0,0,0,0,0,0,0,-1,1777,729,57.197,-2.73843
560,295,57.0291,3.27454,0,0,0,0,0,0,0,-1,1784,729,57.029,-3.27454
567,295,56.6243,3.88239,0,0,0,0,0,0,0,-1,1791,729,56.6242,-3.8824
574,295,56.5275,4.755,0,0,0,0,0,0,0,-1,1798,729,56.5274,-4.75501
581,295,37.8191,2.19592,0,0,0,0,0,0,0,-1,1805,729,37.8191,-2.19594
588,295,39.0542,2.45679,0,0,0,0,0,0,0,-1,1812,729,39.0542,-2.45676
595,295,27.2102,6.99121,0,0,0,0,0,0,0,-1,1819,729,27.2103,-6.99121
602,295,26.9065,7.82141,0,0,0,0,0,0,0,-1,1826,729,26.9064,-7.8214
609,295,11.7737,2.19989,0,0,0,0,0,0,0,-1,1833,729,11.7736,-2.19988
616,295,36.9143,-7.41742,0,0,0,0,0,0,0,-1,1840,729,36.9143,7.41744
623,295,36.8297,-6.69116,-0.000377653,-0.000335981,0.00037229,1.60561e-05,-0.000729689,0.813353,0.000491899,0.0347772,1847,729,36.8297,6.69118
630,295,36.7552,-5.93683,-0.000379249,-0.000194965,0.000254214,-1.67095e-05,-0.000557505,0.959263,0.000366227,0.0125415,1854,729,36.7552,5.93684
637,295,36.7156,-5.17834,-0.000302109,2.81547e-05,0.000301696,0.000206955,-0.000480909,1.0358,0.000407502,0.013937,1861,729,36.7155,5.17832
644,295,36.6829,-4.4303,2.10716e-06,0.000304549,0.000395652,0.000576894,-0.000270238,0.967935,0.000499659,0.013397,1868,729,36.6828,4.43027
651,295,36.6348,-3.67371,0.000462182,0.000657397,0.00057967,0.00114762,-2.80408e-05,0.868808,0.000774596,0.0136178,1875,729,36.6348,3.67372
658,295,36.6166,-2.93793,0.000989111,0.00110315,0.000792589,0.00184077,0.000251494,0.821307,0.00115253,0.0136643,1882,729,36.6166,2.9379
665,295,36.5875,-2.20612,0.00158981,0.00168411,0.00115546,0.00279338,0.00048054,0.805791,0.00172454,0.0122249,1889,729,36.5875,2.20614
672,295,36.5402,-1.46643,0.00231452,0.00237596,0.00160096,0.0039465,0.000743988,0.79499,0.0024214,0.0140053,1896,729,36.5401,1.46644
679,295,36.5015,-0.711853,0.00319674,0.00320602,0.00215562,0.00535701,0.00104576,0.786474,0.00327882,0.0114814,1903,729,36.5015,0.711832
686,295,36.5201,0.034668,0.00425047,0.00420412,0.00286006,0.00708745,0.00136715,0.781347,0.00434161,0.0125618,1910,729,36.5201,-0.0346725
693,295,36.5486,0.774353,0,0,0,0,0,0,0,-1,1917,729,36.5486,-0.77438
700,295,31.3757,2.06982,0,0,0,0,0,0,0,-1,1924,729,31.3758,-2.0698
707,295,22.2661,3.05206,0,0,0,0,0,0,0,-1,1931,729,22.2662,-3.05207
714,295,17.4906,4.63068,0,0,0,0,0,0,0,-1,1938,729,17.4906,-4.63066
721,295,18.3792,5.32281,0,0,0,0,0,0,0,-1,1945,729,18.3791,-5.32283
728,295,17.379,3.74866,0,0,0,0,0,0,0,-1,1952,729,17.379,-3.74863
735,295,0,0,0,0,0,0,0,0,0,-1,1959,729,0,0
742,295,0,0,0,0,0,0,0,0,0,-1,1966,729,0,0
749,295,0,0,0,0,0,0,0,0,0,-1,1973,729,0,0
756,295,0,0,0,0,0,0,0,0,0,-1,1980,729,0,0
763,295,0,0,0,0,0,0,0,0,0,-1,1987,729,0,0
770,295,0,0,0,0,0,0,0,0,0,-1,1994,729,0,0
777,295,0,0,0,0,0,0,0,0,0,-1,2001,729,0,0
784,295,0,0,0,0,0,0,0,0,0,-1,2008,729,0,0
791,295,0,0,0,0,0,0,0,0,0,-1,2015,729,0,0
798,295,0,0,0,0,0,0,0,0,0,-1,2022,729,0,0
805,295,0,0,0,0,0,0,0,0,0,-1,2029,729,0,0
812,295,0,0,0,0,0,0,0,0,0,-1,2036,729,0,0
-700,288,0,0,0,0,0,0,0,0,0,-1,524,736,0,0
-693,288,0,0,0,0,0,0,0,0,0,-1,531,736,0,0
-686,288,0,0,0,0,0,0,0,0,0,-1,538,736,0,0
-679,288,0,0,0,0,0,0,0,0,0,-1,545,736,0,0
-672,288,0,0,0,0,0,0,0,0,0,-1,552,736,0,0
-665,288,0,0,0,0,0,0,0,0,0,-1,559,736,0,0
-658,288,0,0,0,0,0,0,0,0,0,-1,566,736,0,0
-651,288,0,0,0,0,0,0,0,0,0,-1,573,736,0,0
-644,288,0,0,0,0,0,0,0,0,0,-1,580,736,0,0
-637,288,0,0,0,0,0,0,0,0,0,-1,587,736,0,0
-630,288,0,0,0,0,0,0,0,0,0,-1,594,736,0,0
-623,288,0,0,0,0,0,0,0,0,0,-1,601,736,0,0
-616,288,-11.7584,2.4425,0,0,0,0,0,0,0,-1,608,736,-11.7584,-2.44251
-609,288,-10.3007,2.32178,0,0,0,0,0,0,0,-1,615,736,-10.3007,-2.32178
-602,288,-10.1458,-1.85559,0,0,0,0,0,0,0,-1,622,736,-10.1458,1.85556
-595,288,-7.63208,1.81769,0,0,0,0,0,0,0,-1,629,736,-7.63205,-1.81766
-588,288,-8.19269,1.50598,0,0,0,0,0,0,0,-1,636,736,-8.19268,-1.50601
-581,288,-13.1915,0.659241,0,0,0,0,0,0,0,-1,643,736,-13.1915,-0.659228
-574,288,-23.8162,-0.0925903,0,0,0,0,0,0,0,-1,650,736,-23.8162,0.0925847
-567,288,-24.0048,-0.846802,-0.00255193,0.00586042,-0.000760481,0.00592861,-0.00262012,-1.48136,0.00505732,0.0390829,657,736,-24.0048,0.846784
-560,288,-24.2948,-1.63135,-0.00145751,0.00428161,-0.000443325,0.00431565,-0.00149155,-1.49416,0.00348244,0.018021,664,736,-24.2948,1.63137
-553,288,-24.28,-2.29547,-0.000593592,0.00304966,-0.0002279,0.00306386,-0.000607793,-1.50857,0.00227243,0.018916,671,736,-24.2799,2.2955
-546,288,-24.3298,-3.03394,-7.0704e-05,0.00181414,5.4302e-05,0.00181571,-7.22671e-05,1.54202,0.00123527,0.0206339,678,736,-24.3298,3.03393
-539,288,-24.372,-3.69812,0.000273182,0.000800078,0.000384295,0.00100256,7.07031e-05,1.08587,0.000646094,0.0183968,685,736,-24.372,3.6981
-532,288,-24.3637,-4.40527,0.000411611,-0.000217935,0.000707728,0.000871409,-0.000677733,0.576152,0.000896724,0.0150377,692,736,-24.3637,4.40527
-525,288,-24.4127,-5.12048,0.000535415,-0.00106461,0.000954647,0.000980944,-0.00151013,0.43665,0.001449,0.0131364,699,736,-24.4127,5.12048
-518,288,-24.4873,-5.84326,0.000431046,-0.00168221,0.00107912,0.0008847,-0.00213587,0.397963,0.0017931,0.0122895,706,736,-24.4873,5.84328
-511,288,-24.524,-6.55042,0.00017105,-0.0022287,0.00120188,0.000669473,-0.00272712,0.393116,0.00207751,0.00961009,713,736,-24.5241,6.55039
-504,288,-24.5313,-7.26068,-0.000176939,-0.0026227,0.00118551,0.000303375,-0.00310301,0.384941,0.00217686,0.0115339,720,736,-24.5313,7.26071
-497,288,-24.535,-7.7981,-0.000485325,-0.00282013,0.000894404,-0.000182086,-0.00312337,0.326878,0.00202428,0.0330595,727,736,-24.5351,7.79808
-490,288,-24.4582,-8.28748,0,0,0,0,0,0,0,-1,734,736,-24.4582,8.28745
-483,288,-17.3287,0.564758,0,0,0,0,0,0,0,-1,741,736,-17.3287,-0.56477
-476,288,-26.136,0.452148,0,0,0,0,0,0,0,-1,748,736,-26.136,-0.452177
-469,288,-27.7904,0.649841,0,0,0,0,0,0,0,-1,755,736,-27.7904,-0.649854
-462,288,-44.999,-2.65112,0,0,0,0,0,0,0,-1,762,736,-44.999,2.65111
-455,288,-45.2786,-1.84644,0,0,0,0,0,0,0,-1,769,736,-45.2786,1.84643
-448,288,-44.7584,-1.31757,0,0,0,0,0,0,0,-1,776,736,-44.7584,1.31759
-441,288,-44.5874,-0.442871,0,0,0,0,0,0,0,-1,783,736,-44.5874,0.442884
-434,288,-44.372,0.381348,0,0,0,0,0,0,0,-1,790,736,-44.372,-0.381349
-427,288,0,0,0,0,0,0,0,0,0,-1,797,736,0,0
-420,288,0,0,0,0,0,0,0,0,0,-1,804,736,0,0
-413,288,0,0,0,0,0,0,0,0,0,-1,811,736,0,0
-406,288,0,0,0,0,0,0,0,0,0,-1,818,736,0,0
-399,288,0,0,0,0,0,0,0,0,0,-1,825,736,0,0
-392,288,0,0,0,0,0,0,0,0,0,-1,832,736,0,0
-385,288,0,0,0,0,0,0,0,0,0,-1,839,736,0,0
-378,288,0,0,0,0,0,0,0,0,0,-1,846,736,0,0
-371,288,0,0,0,0,0,0,0,0,0,-1,853,736,0,0
-364,288,0,0,0,0,0,0,0,0,0,-1,860,736,0,0
-357,288,0,0,0,0,0,0,0,0,0,-1,867,736,0,0
-350,288,0,0,0,0,0,0,0,0,0,-1,874,736,0,0
-343,288,0,0,0,0,0,0,0,0,0,-1,881,736,0,0
-336,288,0,0,0,0,0,0,0,0,0,-1,888,736,0,0
-329,288,0,0,0,0,0,0,0,0,0,-1,895,736,0,0
-322,288,0,0,0,0,0,0,0,0,0,-1,902,736,0,0
-315,288,0,0,0,0,0,0,0,0,0,-1,909,736,0,0
-308,288,0,0,0,0,0,0,0,0,0,-1,916,736,0,0
-301,288,0,0,0,0,0,0,0,0,0,-1,923,736,0,0
-294,288,0,0,0,0,0,0,0,0,0,-1,930,736,0,0
-287,288,0,0,0,0,0,0,0,0,0,-1,937,736,0,0
-280,288,0,0,0,0,0,0,0,0,0,-1,944,736,0,0
-273,288,0,0,0,0,0,0,0,0,0,-1,951,736,0,0
-266,288,0,0,0,0,0,0,0,0,0,-1,958,736,0,0
-259,288,0,0,0,0,0,0,0,0,0,-1,965,736,0,0
-252,288,0,0,0,0,0,0,0,0,0,-1,972,736,0,0
-245,288,0,0,0,0,0,0,0,0,0,-1,979,736,0,0
-238,288,0,0,0,0,0,0,0,0,0,-1,986,736,0,0
-231,288,0,0,0,0,0,0,0,0,0,-1,993,736,0,0
-224,288,0,0,0,0,0,0,0,0,0,-1,1000,736,0,0
-217,288,0,0,0,0,0,0,0,0,0,-1,1007,736,0,0
-210,288,0,0,0,0,0,0,0,0,0,-1,1014,736,0,0
-203,288,0,0,0,0,0,0,0,0,0,-1,1021,736,0,0
-196,288,0,0,0,0,0,0,0,0,0,-1,1028,736,0,0
-189,288,0,0,0,0,0,0,0,0,0,-1,1035,736,0,0
-182,288,0,0,0,0,0,0,0,0,0,-1,1042,736,0,0
-175,288,0,0,0,0,0,0,0,0,0,-1,1049,736,0,0
-168,288,0,0,0,0,0,0,0,0,0,-1,1056,736,0,0
-161,288,0,0,0,0,0,0,0,0,0,-1,1063,736,0,0
-154,288,0,0,0,0,0,0,0,0,0,-1,1070,736,0,0
-147,288,0,0,0,0,0,0,0,0,0,-1,1077,736,0,0
-140,288,0,0,0,0,0,0,0,0,0,-1,1084,736,0,0
-133,288,0,0,0,0,0,0,0,0,0,-1,1091,736,0,0
-126,288,0,0,0,0,0,0,0,0,0,-1,1098,736,0,0
-119,288,0,0,0,0,0,0,0,0,0,-1,1105,736,0,0
-112,288,0,0,0,0,0,0,0,0,0,-1,1112,736,0,0
-105,288,0,0,0,0,0,0,0,0,0,-1,1119,736,0,0
-98,288,0,0,0,0,0,0,0,0,0,-1,1126,736,0,0
-91,288,0,0,0,0,0,0,0,0,0,-1,1133,736,0,0
-84,288,0,0,0,0,0,0,0,0,0,-1,1140,736,0,0
-77,288,0,0,0,0,0,0,0,0,0,-1,1147,736,0,0
-70,288,0,0,0,0,0,0,0,0,0,-1,1154,736,0,0
-63,288,0,0,0,0,0,0,0,0,0,-1,1161,736,0,0
-56,288,0,0,0,0,0,0,0,0,0,-1,1168,736,0,0
-49,288,0,0,0,0,0,0,0,0,0,-1,1175,736,0,0
-42,288,0,0,0,0,0,0,0,0,0,-1,1182,736,0,0
-35,288,0,0,0,0,0,0,0,0,0,-1,1189,736,0,0
-28,288,0,0,0,0,0,0,0,0,0,-1,1196,736,0,0
-21,288,0,0,0,0,0,0,0,0,0,-1,1203,736,0,0
-14,288,0,0,0,0,0,0,0,0,0,-1,1210,736,0,0
-7,288,0,0,0,0,0,0,0,0,0,-1,1217,736,0,0
0,288,0,0,0,0,0,0,0,0,0,-1,1224,736,0,0
7,288,0,0,0,0,0,0,0,0,0,-1,1231,736,0,0
14,288,0,0,0,0,0,0,0,0,0,-1,1238,736,0,0
21,288,0,0,0,0,0,0,0,0,0,-1,1245,736,0,0
28,288,0,0,0,0,0,0,0,0,0,-1,1252,736,0,0
35,288,0,0,0,0,0,0,0,0,0,-1,1259,736,0,0
42,288,0,0,0,0,0,0,0,0,0,-1,1266,736,0,0
49,288,0,0,0,0,0,0,0,0,0,-1,1273,736,0,0
56,288,0,0,0,0,0,0,0,0,0,-1,1280,736,0,0
63,288,0,0,0,0,0,0,0,0,0,-1,1287,736,0,0
70,288,0,0,0,0,0,0,0,0,0,-1,1294,736,0,0
77,288,0,0,0,0,0,0,0,0,0,-1,1301,736,0,0
84,288,0,0,0,0,0,0,0,0,0,-1,1308,736,0,0
91,288,0,0,0,0,0,0,0,0,0,-1,1315,736,0,0
98,288,0,0,0,0,0,0,0,0,0,-1,1322,736,0,0
105,288,0,0,0,0,0,0,0,0,0,-1,1329,736,0,0
112,288,0,0,0,0,0,0,0,0,0,-1,1336,736,0,0
119,288,0,0,0,0,0,0,0,0,0,-1,1343,736,0,0
126,288,0,0,0,0,0,0,0,0,0,-1,1350,736,0,0
133,288,0,0,0,0,0,0,0,0,0,-1,1357,736,0,0
140,288,0,0,0,0,0,0,0,0,0,-1,1364,736,0,0
147,288,0,0,0,0,0,0,0,0,0,-1,1371,736,0,0
154,288,0,0,0,0,0,0,0,0,0,-1,1378,736,0,0
161,288,0,0,0,0,0,0,0,0,0,-1,1385,736,0,0
168,288,0,0,0,0,0,0,0,0,0,-1,1392,736,0,0
175,288,0,0,0,0,0,0,0,0,0,-1,1399,736,0,0
182,288,0,0,0,0,0,0,0,0,0,-1,1406,736,0,0
189,288,0,0,0,0,0,0,0,0,0,-1,1413,736,0,0
196,288,0,0,0,0,0,0,0,0,0,-1,1420,736,0,0
203,288,0,0,0,0,0,0,0,0,0,-1,1427,736,0,0
210,288,0,0,0,0,0,0,0,0,0,-1,1434,736,0,0
217,288,0,0,0,0,0,0,0,0,0,-1,1441,736,0,0
224,288,0,0,0,0,0,0,0,0,0,-1,1448,736,0,0
231,288,0,0,0,0,0,0,0,0,0,-1,1455,736,0,0
238,288,0,0,0,0,0,0,0,0,0,-1,1462,736,0,0
245,288,0,0,0,0,0,0,0,0,0,-1,1469,736,0,0
252,288,0,0,0,0,0,0,0,0,0,-1,1476,736,0,0
259,288,0,0,0,0,0,0,0,0,0,-1,1483,736,0,0
266,288,0,0,0,0,0,0,0,0,0,-1,1490,736,0,0
273,288,0,0,0,0,0,0,0,0,0,-1,1497,736,0,0
280,288,0,0,0,0,0,0,0,0,0,-1,1504,736,0,0
287,288,0,0,0,0,0,0,0,0,0,-1,1511,736,0,0
294,288,0,0,0,0,0,0,0,0,0,-1,1518,736,0,0
301,288,0,0,0,0,0,0,0,0,0,-1,1525,736,0,0
308,288,0,0,0,0,0,0,0,0,0,-1,1532,736,0,0
315,288,0,0,0,0,0,0,0,0,0,-1,1539,736,0,0
322,288,0,0,0,0,0,0,0,0,0,-1,1546,736,0,0
329,288,0,0,0,0,0,0,0,0,0,-1,1553,736,0,0
336,288,0,0,0,0,0,0,0,0,0,-1,1560,736,0,0
343,288,0,0,0,0,0,0,0,0,0,-1,1567,736,0,0
350,288,0,0,0,0,0,0,0,0,0,-1,1574,736,0,0
357,288,0,0,0,0,0,0,0,0,0,-1,1581,736,0,0
364,288,0,0,0,0,0,0,0,0,0,-1,1588,736,0,0
371,288,0,0,0,0,0,0,0,0,0,-1,1595,736,0,0
378,288,0,0,0,0,0,0,0,0,0,-1,1602,736,0,0
385,288,0,0,0,0,0,0,0,0,0,-1,1609,736,0,0
392,288,0,0,0,0,0,0,0,0,0,-1,1616,736,0,0
399,288,0,0,0,0,0,0,0,0,0,-1,1623,736,0,0
406,288,0,0,0,0,0,0,0,0,0,-1,1630,736,0,0
413,288,0,0,0,0,0,0,0,0,0,-1,1637,736,0,0
420,288,0,0,0,0,0,0,0,0,0,-1,1644,736,0,0
427,288,0,0,0,0,0,0,0,0,0,-1,1651,736,0,0
434,288,0,0,0,0,0,0,0,0,0,-1,1658,736,0,0
441,288,0,0,0,0,0,0,0,0,0,-1,1665,736,0,0
448,288,0,0,0,0,0,0,0,0,0,-1,1672,736,0,0
455,288,0,0,0,0,0,0,0,0,0,-1,1679,736,0,0
462,288,0,0,0,0,0,0,0,0,0,-1,1686,736,0,0
469,288,0,0,0,0,0,0,0,0,0,-1,1693,736,0,0
476,288,0,0,0,0,0,0,0,0,0,-1,1700,736,0,0
483,288,0,0,0,0,0,0,0,0,0,-1,1707,736,0,0
490,288,0,0,0,0,0,0,0,0,0,-1,1714,736,0,0
497,288,0,0,0,0,0,0,0,0,0,-1,1721,736,0,0
504,288,0,0,0,0,0,0,0,0,0,-1,1728,736,0,0
511,288,0,0,0,0,0,0,0,0,0,-1,1735,736,0,0
518,288,0,0,0,0,0,0,0,0,0,-1,1742,736,0,0
525,288,0,0,0,0,0,0,0,0,0,-1,1749,736,0,0
532,288,0,0,0,0,0,0,0,0,0,-1,1756,736,0,0
539,288,0,0,0,0,0,0,0,0,0,-1,1763,736,0,0
546,288,0,0,0,0,0,0,0,0,0,-1,1770,736,0,0
553,288,57.4934,2.28064,0,0,0,0,0,0,0,-1,1777,736,57.4934,-2.28064
560,288,57.3807,3.02881,0,0,0,0,0,0,0,-1,1784,736,57.3808,-3.0288
567,288,57.2081,3.74274,0,0,0,0,0,0,0,-1,1791,736,57.2081,-3.74273
574,288,56.9817,4.36981,0,0,0,0,0,0,0,-1,1798,736,56.9816,-4.36984
581,288,53.4904,5.33215,0,0,0,0,0,0,0,-1,1805,736,53.4904,-5.33218
588,288,54.9313,3.29852,0,0,0,0,0,0,0,-1,1812,736,54.9313,-3.29849
595,288,47.035,3.35156,0,0,0,0,0,0,0,-1,1819,736,47.035,-3.35157
602,288,26.7634,7.61279,0,0,0,0,0,0,0,-1,1826,736,26.7635,-7.61279
609,288,17.5223,4.86414,0,0,0,0,0,0,0,-1,1833,736,17.5223,-4.86412
616,288,13.4886,0.801331,0,0,0,0,0,0,0,-1,1840,736,13.4886,-0.80132
623,288,37.5623,-6.69775,0,0,0,0,0,0,0,-1,1847,736,37.5622,6.69775
630,288,37.4731,-5.88043,-0.000561297,0.000251546,0.000746151,0.000694783,-0.00100453,1.03478,0.00098652,0.025803,1854,736,37.4731,5.88044
637,288,37.4545,-5.13354,-0.000707759,0.00036311,0.0006661,0.000682298,-0.00102695,1.12394,0.000993498,0.0108375,1861,736,37.4545,5.13352
644,288,37.4236,-4.39166,-0.000461664,0.000440913,0.000587477,0.000730428,-0.000751179,1.11292,0.000855435,0.0103001,1868,736,37.4236,4.39167
651,288,37.3906,-3.64502,9.98499e-05,0.000619762,0.000623742,0.00103555,-0.000315939,0.982837,0.000816321,0.0117894,1875,736,37.3906,3.645
658,288,37.3723,-2.88562,0.000738982,0.000914329,0.000718674,0.00155066,0.000102654,0.846095,0.00100131,0.0178663,1882,736,37.3723,2.88565
665,288,37.3287,-2.16724,0.00134873,0.00143004,0.00106245,0.00245261,0.000326162,0.804521,0.00153792,0.0181991,1889,736,37.3288,2.16722
672,288,37.3014,-1.44086,0.00206364,0.00206444,0.00149028,0.00355432,0.000573759,0.785533,0.00220334,0.0174258,1896,736,37.3013,1.44087
679,288,37.2723,-0.685913,0.00292155,0.00281948,0.00204193,0.00491309,0.000827948,0.772904,0.00303726,0.0151125,1903,736,37.2724,0.685934
686,288,37.2255,0.032959,0.00390527,0.0037443,0.00270612,0.0065321,0.00111747,0.770532,0.00403417,0.0117713,1910,736,37.2254,-0.0329725
693,288,37.2401,0.851257,0.00512726,0.00488448,0.00353202,0.00853997,0.00147176,0.768221,0.00527166,0.0264896,1917,736,37.2401,-0.851271
700,288,37.2605,1.73486,0,0,0,0,0,0,0,-1,1924,736,37.2605,-1.73488
707,288,30.9496,3.07977,0,0,0,0,0,0,0,-1,1931,736,30.9496,-3.07975
714,288,23.0149,3.82544,0,0,0,0,0,0,0,-1,1938,736,23.0149,-3.82541
721,288,18.0732,3.69385,0,0,0,0,0,0,0,-1,1945,736,18.0732,-3.69387
728,288,19.3208,3.91455,0,0,0,0,0,0,0,-1,1952,736,19.3209,-3.91455
735,288,18.7712,3.51312,0,0,0,0,0,0,0,-1,1959,736,18.7713,-3.51309
742,288,0,0,0,0,0,0,0,0,0,-1,1966,736,0,0
749,288,0,0,0,0,0,0,0,0,0,-1,1973,736,0,0
756,288,0,0,0,0,0,0,0,0,0,-1,1980,736,0,0
763,288,0,0,0,0,0,0,0,0,0,-1,1987,736,0,0
770,288,0,0,0,0,0,0,0,0,0,-1,1994,736,0,0
777,288,0,0,0,0,0,0,0,0,0,-1,2001,736,0,0
784,288,0,0,0,0,0,0,0,0,0,-1,2008,736,0,0
791,288,0,0,0,0,0,0,0,0,0,-1,2015,736,0,0
798,288,0,0,0,0,0,0,0,0,0,-1,2022,736,0,0
805,288,0,0,0,0,0,0,0,0,0,-1,2029,736,0,0
812,288,0,0,0,0,0,0,0,0,0,-1,2036,736,0,0
-700,281,0,0,0,0,0,0,0,0,0,-1,524,743,0,0
-693,281,0,0,0,0,0,0,0,0,0,-1,531,743,0,0
-686,281,0,0,0,0,0,0,0,0,0,-1,538,743,0,0
-679,281,0,0,0,0,0,0,0,0,0,-1,545,743,0,0
-672,281,0,0,0,0,0,0,0,0,0,-1,552,743,0,0
-665,281,0,0,0,0,0,0,0,0,0,-1,559,743,0,0
-658,281,0,0,0,0,0,0,0,0,0,-1,566,743,0,0
-651,281,0,0,0,0,0,0,0,0,0,-1,573,743,0,0
-644,281,0,0,0,0,0,0,0,0,0,-1,580,743,0,0
-637,281,0,0,0,0,0,0,0,0,0,-1,587,743,0,0
-630,281,0,0,0,0,0,0,0,0,0,-1,594,743,0,0
-623,281,-19.1697,5.67017,0,0,0,0,0,0,0,-1,601,743,-19.1697,-5.67019
-616,281,-11.5906,2.6853,0,0,0,0,0,0,0,-1,608,743,-11.5906,-2.68529
-609,281,-16.1972,4.14838,0,0,0,0,0,0,0,-1,615,743,-16.1972,-4.14837
-602,281,-21.9772,6.77417,0,0,0,0,0,0,0,-1,622,743,-21.9771,-6.77415
-595,281,-10.4797,-1.07404,0,0,0,0,0,0,0,-1,629,743,-10.4798,1.07402
-588,281,-13.277,1.49817,0,0,0,0,0,0,0,-1,636,743,-13.2771,-1.49817
-581,281,-24.8873,0.550232,0,0,0,0,0,0,0,-1,643,743,-24.8873,-0.550259
-574,281,-24.7798,-0.154968,-0.00262054,0.0071814,-0.00209318,0.00760968,-0.00304882,-1.36897,0.0063387,0.0447861,650,743,-24.7798,0.154975
-567,281,-24.9504,-0.825256,-0.00194683,0.00523814,-0.00119135,0.00543053,-0.00213922,-1.41069,0.004506,0.0224394,657,743,-24.9505,0.825284
-560,281,-25.036,-1.54376,-0.00131658,0.0036979,-0.00060367,0.00376955,-0.00138823,-1.45266,0.00308182,0.00919912,664,743,-25.036,1.54378
-553,281,-25.045,-2.24847,-0.000793418,0.00241103,-0.000147893,0.00241784,-0.000800229,-1.52477,0.00193461,0.0139387,671,743,-25.045,2.24848
-546,281,-25.0697,-2.92596,-0.000456886,0.00118396,0.000297562,0.00123626,-0.000509181,1.39683,0.00103646,0.0162441,678,743,-25.0697,2.92599
-539,281,-25.0995,-3.65063,-0.00023476,0.000101193,0.000784665,0.00073566,-0.000869227,0.890844,0.000927651,0.0152229,685,743,-25.0995,3.65066
-532,281,-25.1202,-4.33923,-7.75811e-05,-0.000978331,0.00118639,0.00074104,-0.00179695,0.603991,0.00150699,0.0150058,692,743,-25.1202,4.33926
-525,281,-25.174,-5.07629,0.000188959,-0.00184013,0.00143643,0.000933006,-0.00258417,0.47793,0.00210391,0.0168626,699,743,-25.1739,5.07631
-518,281,-25.2115,-5.81281,0.00022587,-0.00244247,0.00148069,0.000884799,-0.0031014,0.418701,0.00241713,0.0133343,706,743,-25.2115,5.8128
-511,281,-25.2429,-6.5199,0.000233317,-0.00298257,0.00150518,0.000827887,-0.00357714,0.376201,0.00270331,0.0117325,713,743,-25.2428,6.51988
-504,281,-25.2867,-7.25812,0.00024329,-0.00335493,0.00134776,0.000692123,-0.00380376,0.32147,0.00279526,0.0160627,720,743,-25.2867,7.2581
-497,281,-25.1738,-7.94562,0.000285512,-0.00352188,0.000910489,0.000492041,-0.00372841,0.223058,0.00266481,0.0484852,727,743,-25.1738,7.94565
-490,281,-24.9803,-8.52167,0,0,0,0,0,0,0,-1,734,743,-24.9803,8.52164
-483,281,-22.1078,-2.34973,0,0,0,0,0,0,0,-1,741,743,-22.1078,2.3497
-476,281,-28.0016,2.17786,0,0,0,0,0,0,0,-1,748,743,-28.0016,-2.17786
-469,281,-34.6448,0.171692,0,0,0,0,0,0,0,-1,755,743,-34.6448,-0.171685
-462,281,-45.5345,-1.32562,0,0,0,0,0,0,0,-1,762,743,-45.5345,1.3256
-455,281,-45.3248,-0.990417,0,0,0,0,0,0,0,-1,769,743,-45.3248,0.99044
-448,281,-45.0236,-0.466003,0,0,0,0,0,0,0,-1,776,743,-45.0236,0.46603
-441,281,-44.8033,0.402039,0,0,0,0,0,0,0,-1,783,743,-44.8033,-0.402013
-434,281,0,0,0,0,0,0,0,0,0,-1,790,743,0,0
-427,281,0,0,0,0,0,0,0,0,0,-1,797,743,0,0
-420,281,0,0,0,0,0,0,0,0,0,-1,804,743,0,0
-413,281,0,0,0,0,0,0,0,0,0,-1,811,743,0,0
-406,281,0,0,0,0,0,0,0,0,0,-1,818,743,0,0
-399,281,0,0,0,0,0,0,0,0,0,-1,825,743,0,0
-392,281,0,0,0,0,0,0,0,0,0,-1,832,743,0,0
-385,281,0,0,0,0,0,0,0,0,0,-1,839,743,0,0
-378,281,0,0,0,0,0,0,0,0,0,-1,846,743,0,0
-371,281,0,0,0,0,0,0,0,0,0,-1,853,743,0,0
-364,281,0,0,0,0,0,0,0,0,0,-1,860,743,0,0
-357,281,0,0,0,0,0,0,0,0,0,-1,867,743,0,0
-350,281,0,0,0,0,0,0,0,0,0,-1,874,743,0,0
-343,281,0,0,0,0,0,0,0,0,0,-1,881,743,0,0
-336,281,0,0,0,0,0,0,0,0,0,-1,888,743,0,0
-329,281,0,0,0,0,0,0,0,0,0,-1,895,743,0,0
-322,281,0,0,0,0,0,0,0,0,0,-1,902,743,0,0
-315,281,0,0,0,0,0,0,0,0,0,-1,909,743,0,0
-308,281,0,0,0,0,0,0,0,0,0,-1,916,743,0,0
-301,281,0,0,0,0,0,0,0,0,0,-1,923,743,0,0
-294,281,0,0,0,0,0,0,0,0,0,-1,930,743,0,0
-287,281,0,0,0,0,0,0,0,0,0,-1,937,743,0,0
-280,281,0,0,0,0,0,0,0,0,0,-1,944,743,0,0
-273,281,0,0,0,0,0,0,0,0,0,-1,951,743,0,0
-266,281,0,0,0,0,0,0,0,0,0,-1,958,743,0,0
-259,281,0,0,0,0,0,0,0,0,0,-1,965,743,0,0
-252,281,0,0,0,0,0,0,0,0,0,-1,972,743,0,0
-245,281,0,0,0,0,0,0,0,0,0,-1,979,743,0,0
-238,281,0,0,0,0,0,0,0,0,0,-1,986,743,0,0
-231,281,0,0,0,0,0,0,0,0,0,-1,993,743,0,0
-224,281,0,0,0,0,0,0,0,0,0,-1,1000,743,0,0
-217,281,0,0,0,0,0,0,0,0,0,-1,1007,743,0,0
-210,281,0,0,0,0,0,0,0,0,0,-1,1014,743,0,0
-203,281,0,0,0,0,0,0,0,0,0,-1,1021,743,0,0
-196,281,0,0,0,0,0,0,0,0,0,-1,1028,743,0,0
-189,281,0,0,0,0,0,0,0,0,0,-1,1035,743,0,0
-182,281,0,0,0,0,0,0,0,0,0,-1,1042,743,0,0
-175,281,0,0,0,0,0,0,0,0,0,-1,1049,743,0,0
-168,281,0,0,0,0,0,0,0,0,0,-1,1056,743,0,0
-161,281,0,0,0,0,0,0,0,0,0,-1,1063,743,0,0
-154,281,0,0,0,0,0,0,0,0,0,-1,1070,743,0,0
-147,281,0,0,0,0,0,0,0,0,0,-1,1077,743,0,0
-140,281,0,0,0,0,0,0,0,0,0,-1,1084,743,0,0
-133,281,0,0,0,0,0,0,0,0,0,-1,1091,743,0,0
-126,281,0,0,0,0,0,0,0,0,0,-1,1098,743,0,0
-119,281,0,0,0,0,0,0,0,0,0,-1,1105,743,0,0
-112,281,0,0,0,0,0,0,0,0,0,-1,1112,743,0,0
-105,281,0,0,0,0,0,0,0,0,0,-1,1119,743,0,0
-98,281,0,0,0,0,0,0,0,0,0,-1,1126,743,0,0
-91,281,0,0,0,0,0,0,0,0,0,-1,1133,743,0,0
-84,281,0,0,0,0,0,0,0,0,0,-1,1140,743,0,0
-77,281,0,0,0,0,0,0,0,0,0,-1,1147,743,0,0
-70,281,0,0,0,0,0,0,0,0,0,-1,1154,743,0,0
-63,281,0,0,0,0,0,0,0,0,0,-1,1161,743,0,0
-56,281,0,0,0,0,0,0,0,0,0,-1,1168,743,0,0
-49,281,0,0,0,0,0,0,0,0,0,-1,1175,743,0,0
-42,281,0,0,0,0,0,0,0,0,0,-1,1182,743,0,0
-35,281,0,0,0,0,0,0,0,0,0,-1,1189,743,0,0
-28,281,0,0,0,0,0,0,0,0,0,-1,1196,743,0,0
-21,281,0,0,0,0,0,0,0,0,0,-1,1203,743,0,0
-14,281,0,0,0,0,0,0,0,0,0,-1,1210,743,0,0
-7,281,0,0,0,0,0,0,0,0,0,-1,1217,743,0,0
0,281,0,0,0,0,0,0,0,0,0,-1,1224,743,0,0
7,281,0,0,0,0,0,0,0,0,0,-1,1231,743,0,0
14,281,0,0,0,0,0,0,0,0,0,-1,1238,743,0,0
21,281,0,0,0,0,0,0,0,0,0,-1,1245,743,0,0
28,281,0,0,0,0,0,0,0,0,0,-1,1252,743,0,0
35,281,0,0,0,0,0,0,0,0,0,-1,1259,743,0,0
42,281,0,0,0,0,0,0,0,0,0,-1,1266,743,0,0
49,281,0,0,0,0,0,0,0,0,0,-1,1273,743,0,0
56,281,0,0,0,0,0,0,0,0,0,-1,1280,743,0,0
63,281,0,0,0,0,0,0,0,0,0,-1,1287,743,0,0
70,281,0,0,0,0,0,0,0,0,0,-1,1294,743,0,0
77,281,0,0,0,0,0,0,0,0,0,-1,1301,743,0,0
84,281,0,0,0,0,0,0,0,0,0,-1,1308,743,0,0
91,281,0,0,0,0,0,0,0,0,0,-1,1315,743,0,0
98,281,0,0,0,0,0,0,0,0,0,-1,1322,743,0,0
105,281,0,0,0,0,0,0,0,0,0,-1,1329,743,0,0
112,281,0,0,0,0,0,0,0,0,0,-1,1336,743,0,0
119,281,0,0,0,0,0,0,0,0,0,-1,1343,743,0,0
126,281,0,0,0,0,0,0,0,0,0,-1,1350,743,0,0
133,281,0,0,0,0,0,0,0,0,0,-1,1357,743,0,0
140,281,0,0,0,0,0,0,0,0,0,-1,1364,743,0,0
147,281,0,0,0,0,0,0,0,0,0,-1,1371,743,0,0
154,281,0,0,0,0,0,0,0,0,0,-1,1378,743,0,0
161,281,0,0,0,0,0,0,0,0,0,-1,1385,743,0,0
168,281,0,0,0,0,0,0,0,0,0,-1,1392,743,0,0
175,281,0,0,0,0,0,0,0,0,0,-1,1399,743,0,0
182,281,0,0,0,0,0,0,0,0,0,-1,1406,743,0,0
189,281,0,0,0,0,0,0,0,0,0,-1,1413,743,0,0
196,281,0,0,0,0,0,0,0,0,0,-1,1420,743,0,0
203,281,0,0,0,0,0,0,0,0,0,-1,1427,743,0,0
210,281,0,0,0,0,0,0,0,0,0,-1,1434,743,0,0
217,281,0,0,0,0,0,0,0,0,0,-1,1441,743,0,0
224,281,0,0,0,0,0,0,0,0,0,-1,1448,743,0,0
231,281,0,0,0,0,0,0,0,0,0,-1,1455,743,0,0
238,281,0,0,0,0,0,0,0,0,0,-1,1462,743,0,0
245,281,0,0,0,0,0,0,0,0,0,-1,1469,743,0,0
252,281,0,0,0,0,0,0,0,0,0,-1,1476,743,0,0
259,281,0,0,0,0,0,0,0,0,0,-1,1483,743,0,0
266,281,0,0,0,0,0,0,0,0,0,-1,1490,743,0,0
273,281,0,0,0,0,0,0,0,0,0,-1,1497,743,0,0
280,281,0,0,0,0,0,0,0,0,0,-1,1504,743,0,0
287,281,0,0,0,0,0,0,0,0,0,-1,1511,743,0,0
294,281,0,0,0,0,0,0,0,0,0,-1,1518,743,0,0
301,281,0,0,0,0,0,0,0,0,0,-1,1525,743,0,0
308,281,0,0,0,0,0,0,0,0,0,-1,1532,743,0,0
315,281,0,0,0,0,0,0,0,0,0,-1,1539,743,0,0
322,281,0,0,0,0,0,0,0,0,0,-1,1546,743,0,0
329,281,0,0,0,0,0,0,0,0,0,-1,1553,743,0,0
336,281,0,0,0,0,0,0,0,0,0,-1,1560,743,0,0
343,281,0,0,0,0,0,0,0,0,0,-1,1567,743,0,0
350,281,0,0,0,0,0,0,0,0,0,-1,1574,743,0,0
357,281,0,0,0,0,0,0,0,0,0,-1,1581,743,0,0
364,281,0,0,0,0,0,0,0,0,0,-1,1588,743,0,0
371,281,0,0,0,0,0,0,0,0,0,-1,1595,743,0,0
378,281,0,0,0,0,0,0,0,0,0,-1,1602,743,0,0
385,281,0,0,0,0,0,0,0,0,0,-1,1609,743,0,0
392,281,0,0,0,0,0,0,0,0,0,-1,1616,743,0,0
399,281,0,0,0,0,0,0,0,0,0,-1,1623,743,0,0
406,281,0,0,0,0,0,0,0,0,0,-1,1630,743,0,0
413,281,0,0,0,0,0,0,0,0,0,-1,1637,743,0,0
420,281,0,0,0,0,0,0,0,0,0,-1,1644,743,0,0
427,281,0,0,0,0,0,0,0,0,0,-1,1651,743,0,0
434,281,0,0,0,0,0,0,0,0,0,-1,1658,743,0,0
441,281,0,0,0,0,0,0,0,0,0,-1,1665,743,0,0
448,281,0,0,0,0,0,0,0,0,0,-1,1672,743,0,0
455,281,0,0,0,0,0,0,0,0,0,-1,1679,743,0,0
462,281,0,0,0,0,0,0,0,0,0,-1,1686,743,0,0
469,281,0,0,0,0,0,0,0,0,0,-1,1693,743,0,0
476,281,0,0,0,0,0,0,0,0,0,-1,1700,743,0,0
483,281,0,0,0,0,0,0,0,0,0,-1,1707,743,0,0
490,281,0,0,0,0,0,0,0,0,0,-1,1714,743,0,0
497,281,0,0,0,0,0,0,0,0,0,-1,1721,743,0,0
504,281,0,0,0,0,0,0,0,0,0,-1,1728,743,0,0
511,281,0,0,0,0,0,0,0,0,0,-1,1735,743,0,0
518,281,0,0,0,0,0,0,0,0,0,-1,1742,743,0,0
525,281,0,0,0,0,0,0,0,0,0,-1,1749,743,0,0
532,281,0,0,0,0,0,0,0,0,0,-1,1756,743,0,0
539,281,0,0,0,0,0,0,0,0,0,-1,1763,743,0,0
546,281,0,0,0,0,0,0,0,0,0,-1,1770,743,0,0
553,281,0,0,0,0,0,0,0,0,0,-1,1777,743,0,0
560,281,57.8354,3.06482,0,0,0,0,0,0,0,-1,1784,743,57.8354,-3.06479
567,281,57.6156,3.64508,0,0,0,0,0,0,0,-1,1791,743,57.6156,-3.64511
574,281,57.3431,4.17767,0,0,0,0,0,0,0,-1,1798,743,57.3431,-4.17769
581,281,57.0648,4.53906,0,0,0,0,0,0,0,-1,1805,743,57.0648,-4.53908
588,281,53.5422,6.00092,0,0,0,0,0,0,0,-1,1812,743,53.5422,-6.00092
595,281,54.8569,3.32269,0,0,0,0,0,0,0,-1,1819,743,54.857,-3.32269
602,281,45.9985,3.98254,0,0,0,0,0,0,0,-1,1826,743,45.9985,-3.98254
609,281,32.7925,1.28723,0,0,0,0,0,0,0,-1,1833,743,32.7925,-1.28722
616,281,21.3191,-0.253906,0,0,0,0,0,0,0,-1,1840,743,21.3191,0.253931
623,281,31.8741,-4.74182,0,0,0,0,0,0,0,-1,1847,743,31.8741,4.74184
630,281,38.1707,-5.78204,0,0,0,0,0,0,0,-1,1854,743,38.1706,5.78201
637,281,38.1521,-5.08496,-0.00102321,0.000619756,0.000982558,0.001079,-0.00148246,1.13357,0.00148496,0.0184235,1861,743,38.1522,5.08496
644,281,38.15,-4.35431,-0.000982055,0.000600588,0.00082681,0.000953733,-0.0013352,1.16713,0.00132762,0.0110056,1868,743,38.15,4.35433
651,281,38.1396,-3.61377,-0.000413915,0.000613448,0.000711269,0.000977133,-0.0007776,1.09813,0.00101528,0.0123194,1875,743,38.1397,3.61375
658,281,38.1007,-2.87445,0.000315286,0.000697724,0.000646386,0.00118058,-0.000167571,0.929211,0.000848445,0.0216069,1882,743,38.1007,2.87443
665,281,38.0485,-2.14685,0.000908019,0.00113792,0.000935163,0.00196517,8.07681e-05,0.846552,0.00128404,0.0220638,1889,743,38.0484,2.14687
672,281,38.0195,-1.4024,0.00161958,0.00171337,0.00131167,0.00297898,0.000353968,0.803267,0.00187914,0.0138447,1896,743,38.0196,1.40239
679,281,37.9777,-0.67157,0.00246945,0.00239858,0.00181291,0.00424727,0.000620756,0.775627,0.00264895,0.0214332,1903,743,37.9777,0.671561
686,281,37.9023,0.0336304,0.00341641,0.00324702,0.0024019,0.00573511,0.000928328,0.767775,0.0035546,0.0167588,1910,743,37.9024,-0.0336486
693,281,37.9005,0.771057,0.00456208,0.00427667,0.00314981,0.00757241,0.00126633,0.762761,0.00468358,0.0128414,1917,743,37.9005,-0.77106
700,281,37.8806,1.56317,0.00599229,0.00574078,0.00424093,0.0101093,0.00162374,0.770576,0.0062688,0.0400878,1924,743,37.8806,-1.5632
707,281,37.9714,2.3396,0,0,0,0,0,0,0,-1,1931,743,37.9714,-2.33962
714,281,25.0125,2.5105,0,0,0,0,0,0,0,-1,1938,743,25.0124,-2.51053
721,281,16.9656,3.22174,0,0,0,0,0,0,0,-1,1945,743,16.9656,-3.22172
728,281,19.0251,3.63934,0,0,0,0,0,0,0,-1,1952,743,19.0252,-3.63932
735,281,19.0869,2.50311,0,0,0,0,0,0,0,-1,1959,743,19.0869,-2.5031
742,281,0,0,0,0,0,0,0,0,0,-1,1966,743,0,0
749,281,0,0,0,0,0,0,0,0,0,-1,1973,743,0,0
756,281,0,0,0,0,0,0,0,0,0,-1,1980,743,0,0
763,281,0,0,0,0,0,0,0,0,0,-1,1987,743,0,0
770,281,0,0,0,0,0,0,0,0,0,-1,1994,743,0,0
777,281,0,0,0,0,0,0,0,0,0,-1,2001,743,0,0
784,281,0,0,0,0,0,0,0,0,0,-1,2008,743,0,0
791,281,0,0,0,0,0,0,0,0,0,-1,2015,743,0,0
798,281,0,0,0,0,0,0,0,0,0,-1,2022,743,0,0
805,281,0,0,0,0,0,0,0,0,0,-1,2029,743,0,0
812,281,0,0,0,0,0,0,0,0,0,-1,2036,743,0,0
-700,274,0,0,0,0,0,0,0,0,0,-1,524,750,0,0
-693,274,0,0,0,0,0,0,0,0,0,-1,531,750,0,0
-686,274,0,0,0,0,0,0,0,0,0,-1,538,750,0,0
-679,274,0,0,0,0,0,0,0,0,0,-1,545,750,0,0
-672,274,0,0,0,0,0,0,0,0,0,-1,552,750,0,0
-665,274,0,0,0,0,0,0,0,0,0,-1,559,750,0,0
-658,274,0,0,0,0,0,0,0,0,0,-1,566,750,0,0
-651,274,0,0,0,0,0,0,0,0,0,-1,573,750,0,0
-644,274,0,0,0,0,0,0,0,0,0,-1,580,750,0,0
-637,274,0,0,0,0,0,0,0,0,0,-1,587,750,0,0
-630,274,0,0,0,0,0,0,0,0,0,-1,594,750,0,0
-623,274,-19.6909,5.12701,0,0,0,0,0,0,0,-1,601,750,-19.6908,-5.12703
-616,274,-17.9133,3.9024,0,0,0,0,0,0,0,-1,608,750,-17.9133,-3.90239
-609,274,-26.0861,5.57306,0,0,0,0,0,0,0,-1,615,750,-26.0861,-5.57307
-602,274,-25.7372,3.73846,0,0,0,0,0,0,0,-1,622,750,-25.7372,-3.73849
-595,274,-25.258,2.53473,0,0,0,0,0,0,0,-1,629,750,-25.258,-2.53474
-588,274,-24.9805,2.2334,0,0,0,0,0,0,0,-1,636,750,-24.9805,-2.23341
-581,274,-25.5906,0.657471,0,0,0,0,0,0,0,-1,643,750,-25.5906,-0.657457
-574,274,-25.4925,-0.144287,-0.00172967,0.00626141,-0.00235184,0.00690219,-0.00237045,-1.30479,0.0055626,0.0278909,650,750,-25.4925,0.144261
-567,274,-25.6946,-0.819092,-0.00148362,0.00452025,-0.00128263,0.00478278,-0.00174615,-1.3689,0.00390302,0.0276807,657,750,-25.6946,0.819103
-560,274,-25.7342,-1.48846,-0.00118023,0.00308445,-0.000539477,0.00315164,-0.00124741,-1.4469,0.00261791,0.0154507,664,750,-25.7342,1.48845
-553,274,-25.7676,-2.23224,-0.000911552,0.00180013,6.59153e-05,0.00180173,-0.000913153,1.54651,0.00159518,0.0100807,671,750,-25.7676,2.23226
-546,274,-25.8165,-2.92395,-0.000716538,0.000604324,0.000617943,0.000848339,-0.000960553,1.19471,0.00104503,0.012088,678,750,-25.8165,2.92395
-539,274,-25.8401,-3.62622,-0.000548115,-0.000596838,0.00122332,0.000651081,-0.00179603,0.775442,0.00146348,0.0132877,685,750,-25.8401,3.62623
-532,274,-25.8657,-4.31036,-0.000342556,-0.00172377,0.0016548,0.00075996,-0.00282628,0.587718,0.00218208,0.0142845,692,750,-25.8656,4.31033
-525,274,-25.9058,-5.02869,3.90564e-05,-0.00256931,0.0018539,0.00100155,-0.00353181,0.478869,0.00274987,0.0143775,699,750,-25.9058,5.02868
-518,274,-25.9259,-5.77026,0.000143361,-0.00312165,0.00177737,0.000924176,-0.00390246,0.413928,0.00295822,0.0132946,706,750,-25.9259,5.77027
-511,274,-25.9412,-6.48846,0.000300163,-0.00362201,0.00168244,0.000922959,-0.00424481,0.354534,0.00318245,0.0151315,713,750,-25.9412,6.48848
-504,274,-26.0345,-7.27942,0.00046212,-0.00389462,0.00138792,0.000866699,-0.0042992,0.28364,0.00319447,0.0292106,720,750,-26.0345,7.27941
-497,274,-25.895,-8.06122,0,0,0,0,0,0,0,-1,727,750,-25.895,8.06122
-490,274,-13.6545,-3.58826,0,0,0,0,0,0,0,-1,734,750,-13.6546,3.58825
-483,274,-27.8608,1.30981,0,0,0,0,0,0,0,-1,741,750,-27.8608,-1.30979
-476,274,-33.7561,-0.508606,0,0,0,0,0,0,0,-1,748,750,-33.7561,0.508636
-469,274,-41.1387,0.907715,0,0,0,0,0,0,0,-1,755,750,-41.1387,-0.907744
-462,274,-47.8044,0.814026,0,0,0,0,0,0,0,-1,762,750,-47.8044,-0.814022
-455,274,-45.4913,-0.216675,0,0,0,0,0,0,0,-1,769,750,-45.4913,0.216672
-448,274,-45.2978,-0.228699,0,0,0,0,0,0,0,-1,776,750,-45.2978,0.228706
-441,274,0,0,0,0,0,0,0,0,0,-1,783,750,0,0
-434,274,0,0,0,0,0,0,0,0,0,-1,790,750,0,0
-427,274,0,0,0,0,0,0,0,0,0,-1,797,750,0,0
-420,274,0,0,0,0,0,0,0,0,0,-1,804,750,0,0
-413,274,0,0,0,0,0,0,0,0,0,-1,811,750,0,0
-406,274,0,0,0,0,0,0,0,0,0,-1,818,750,0,0
-399,274,0,0,0,0,0,0,0,0,0,-1,825,750,0,0
-392,274,0,0,0,0,0,0,0,0,0,-1,832,750,0,0
-385,274,0,0,0,0,0,0,0,0,0,-1,839,750,0,0
-378,274,0,0,0,0,0,0,0,0,0,-1,846,750,0,0
-371,274,0,0,0,0,0,0,0,0,0,-1,853,750,0,0
-364,274,0,0,0,0,0,0,0,0,0,-1,860,750,0,0
-357,274,0,0,0,0,0,0,0,0,0,-1,867,750,0,0
-350,274,0,0,0,0,0,0,0,0,0,-1,874,750,0,0
-343,274,0,0,0,0,0,0,0,0,0,-1,881,750,0,0
-336,274,0,0,0,0,0,0,0,0,0,-1,888,750,0,0
-329,274,0,0,0,0,0,0,0,0,0,-1,895,750,0,0
-322,274,0,0,0,0,0,0,0,0,0,-1,902,750,0,0
-315,274,0,0,0,0,0,0,0,0,0,-1,909,750,0,0
-308,274,0,0,0,0,0,0,0,0,0,-1,916,750,0,0
-301,274,0,0,0,0,0,0,0,0,0,-1,923,750,0,0
-294,274,0,0,0,0,0,0,0,0,0,-1,930,750,0,0
-287,274,0,0,0,0,0,0,0,0,0,-1,937,750,0,0
-280,274,0,0,0,0,0,0,0,0,0,-1,944,750,0,0
-273,274,0,0,0,0,0,0,0,0,0,-1,951,750,0,0
-266,274,0,0,0,0,0,0,0,0,0,-1,958,750,0,0
-259,274,0,0,0,0,0,0,0,0,0,-1,965,750,0,0
-252,274,0,0,0,0,0,0,0,0,0,-1,972,750,0,0
-245,274,0,0,0,0,0,0,0,0,0,-1,979,750,0,0
-238,274,0,0,0,0,0,0,0,0,0,-1,986,750,0,0
-231,274,0,0,0,0,0,0,0,0,0,-1,993,750,0,0
-224,274,0,0,0,0,0,0,0,0,0,-1,1000,750,0,0
-217,274,0,0,0,0,0,0,0,0,0,-1,1007,750,0,0
-210,274,0,0,0,0,0,0,0,0,0,-1,1014,750,0,0
-203,274,0,0,0,0,0,0,0,0,0,-1,1021,750,0,0
-196,274,0,0,0,0,0,0,0,0,0,-1,1028,750,0,0
-189,274,0,0,0,0,0,0,0,0,0,-1,1035,750,0,0
-182,274,0,0,0,0,0,0,0,0,0,-1,1042,750,0,0
-175,274,0,0,0,0,0,0,0,0,0,-1,1049,750,0,0
-168,274,0,0,0,0,0,0,0,0,0,-1,1056,750,0,0
-161,274,0,0,0,0,0,0,0,0,0,-1,1063,750,0,0
-154,274,0,0,0,0,0,0,0,0,0,-1,1070,750,0,0
-147,274,0,0,0,0,0,0,0,0,0,-1,1077,750,0,0
-140,274,0,0,0,0,0,0,0,0,0,-1,1084,750,0,0
-133,274,0,0,0,0,0,0,0,0,0,-1,1091,750,0,0
-126,274,0,0,0,0,0,0,0,0,0,-1,1098,750,0,0
-119,274,0,0,0,0,0,0,0,0,0,-1,1105,750,0,0
-112,274,0,0,0,0,0,0,0,0,0,-1,1112,750,0,0
-105,274,0,0,0,0,0,0,0,0,0,-1,1119,750,0,0
-98,274,0,0,0,0,0,0,0,0,0,-1,1126,750,0,0
-91,274,0,0,0,0,0,0,0,0,0,-1,1133,750,0,0
-84,274,0,0,0,0,0,0,0,0,0,-1,1140,750,0,0
-77,274,0,0,0,0,0,0,0,0,0,-1,1147,750,0,0
-70,274,0,0,0,0,0,0,0,0,0,-1,1154,750,0,0
-63,274,0,0,0,0,0,0,0,0,0,-1,1161,750,0,0
-56,274,0,0,0,0,0,0,0,0,0,-1,1168,750,0,0
-49,274,0,0,0,0,0,0,0,0,0,-1,1175,750,0,0
-42,274,0,0,0,0,0,0,0,0,0,-1,1182,750,0,0
-35,274,0,0,0,0,0,0,0,0,0,-1,1189,750,0,0
-28,274,0,0,0,0,0,0,0,0,0,-1,1196,750,0,0
-21,274,0,0,0,0,0,0,0,0,0,-1,1203,750,0,0
-14,274,0,0,0,0,0,0,0,0,0,-1,1210,750,0,0
-7,274,0,0,0,0,0,0,0,0,0,-1,1217,750,0,0
0,274,0,0,0,0,0,0,0,0,0,-1,1224,750,0,0
7,274,0,0,0,0,0,0,0,0,0,-1,1231,750,0,0
14,274,0,0,0,0,0,0,0,0,0,-1,1238,750,0,0
21,274,0,0,0,0,0,0,0,0,0,-1,1245,750,0,0
28,274,0,0,0,0,0,0,0,0,0,-1,1252,750,0,0
35,274,0,0,0,0,0,0,0,0,0,-1,1259,750,0,0
42,274,0,0,0,0,0,0,0,0,0,-1,1266,750,0,0
49,274,0,0,0,0,0,0,0,0,0,-1,1273,750,0,0
56,274,0,0,0,0,0,0,0,0,0,-1,1280,750,0,0
63,274,0,0,0,0,0,0,0,0,0,-1,1287,750,0,0
70,274,0,0,0,0,0,0,0,0,0,-1,1294,750,0,0
77,274,0,0,0,0,0,0,0,0,0,-1,1301,750,0,0
84,274,0,0,0,0,0,0,0,0,0,-1,1308,750,0,0
91,274,0,0,0,0,0,0,0,0,0,-1,1315,750,0,0
98,274,0,0,0,0,0,0,0,0,0,-1,1322,750,0,0
105,274,0,0,0,0,0,0,0,0,0,-1,1329,750,0,0
112,274,0,0,0,0,0,0,0,0,0,-1,1336,750,0,0
119,274,0,0,0,0,0,0,0,0,0,-1,1343,750,0,0
126,274,0,0,0,0,0,0,0,0,0,-1,1350,750,0,0
133,274,0,0,0,0,0,0,0,0,0,-1,1357,750,0,0
140,274,0,0,0,0,0,0,0,0,0,-1,1364,750,0,0
147,274,0,0,0,0,0,0,0,0,0,-1,1371,750,0,0
154,274,0,0,0,0,0,0,0,0,0,-1,1378,750,0,0
161,274,0,0,0,0,0,0,0,0,0,-1,1385,750,0,0
168,274,0,0,0,0,0,0,0,0,0,-1,1392,750,0,0
175,274,0,0,0,0,0,0,0,0,0,-1,1399,750,0,0
182,274,0,0,0,0,0,0,0,0,0,-1,1406,750,0,0
189,274,0,0,0,0,0,0,0,0,0,-1,1413,750,0,0
196,274,0,0,0,0,0,0,0,0,0,-1,1420,750,0,0
203,274,0,0,0,0,0,0,0,0,0,-1,1427,750,0,0
210,274,0,0,0,0,0,0,0,0,0,-1,1434,750,0,0
217,274,0,0,0,0,0,0,0,0,0,-1,1441,750,0,0
224,274,0,0,0,0,0,0,0,0,0,-1,1448,750,0,0
231,274,0,0,0,0,0,0,0,0,0,-1,1455,750,0,0
238,274,0,0,0,0,0,0,0,0,0,-1,1462,750,0,0
245,274,0,0,0,0,0,0,0,0,0,-1,1469,750,0,0
252,274,0,0,0,0,0,0,0,0,0,-1,1476,750,0,0
259,274,0,0,0,0,0,0,0,0,0,-1,1483,750,0,0
266,274,0,0,0,0,0,0,0,0,0,-1,1490,750,0,0
273,274,0,0,0,0,0,0,0,0,0,-1,1497,750,0,0
280,274,0,0,0,0,0,0,0,0,0,-1,1504,750,0,0
287,274,0,0,0,0,0,0,0,0,0,-1,1511,750,0,0
294,274,0,0,0,0,0,0,0,0,0,-1,1518,750,0,0
301,274,0,0,0,0,0,0,0,0,0,-1,1525,750,0,0
308,274,0,0,0,0,0,0,0,0,0,-1,1532,750,0,0
315,274,0,0,0,0,0,0,0,0,0,-1,1539,750,0,0
322,274,0,0,0,0,0,0,0,0,0,-1,1546,750,0,0
329,274,0,0,0,0,0,0,0,0,0,-1,1553,750,0,0
336,274,0,0,0,0,0,0,0,0,0,-1,1560,750,0,0
343,274,0,0,0,0,0,0,0,0,0,-1,1567,750,0,0
350,274,0,0,0,0,0,0,0,0,0,-1,1574,750,0,0
357,274,0,0,0,0,0,0,0,0,0,-1,1581,750,0,0
364,274,0,0,0,0,0,0,0,0,0,-1,1588,750,0,0
371,274,0,0,0,0,0,0,0,0,0,-1,1595,750,0,0
378,274,0,0,0,0,0,0,0,0,0,-1,1602,750,0,0
385,274,0,0,0,0,0,0,0,0,0,-1,1609,750,0,0
392,274,0,0,0,0,0,0,0,0,0,-1,1616,750,0,0
399,274,0,0,0,0,0,0,0,0,0,-1,1623,750,0,0
406,274,0,0,0,0,0,0,0,0,0,-1,1630,750,0,0
413,274,0,0,0,0,0,0,0,0,0,-1,1637,750,0,0
420,274,0,0,0,0,0,0,0,0,0,-1,1644,750,0,0
427,274,0,0,0,0,0,0,0,0,0,-1,1651,750,0,0
434,274,0,0,0,0,0,0,0,0,0,-1,1658,750,0,0
441,274,0,0,0,0,0,0,0,0,0,-1,1665,750,0,0
448,274,0,0,0,0,0,0,0,0,0,-1,1672,750,0,0
455,274,0,0,0,0,0,0,0,0,0,-1,1679,750,0,0
462,274,0,0,0,0,0,0,0,0,0,-1,1686,750,0,0
469,274,0,0,0,0,0,0,0,0,0,-1,1693,750,0,0
476,274,0,0,0,0,0,0,0,0,0,-1,1700,750,0,0
483,274,0,0,0,0,0,0,0,0,0,-1,1707,750,0,0
490,274,0,0,0,0,0,0,0,0,0,-1,1714,750,0,0
497,274,0,0,0,0,0,0,0,0,0,-1,1721,750,0,0
504,274,0,0,0,0,0,0,0,0,0,-1,1728,750,0,0
511,274,0,0,0,0,0,0,0,0,0,-1,1735,750,0,0
518,274,0,0,0,0,0,0,0,0,0,-1,1742,750,0,0
525,274,0,0,0,0,0,0,0,0,0,-1,1749,750,0,0
532,274,0,0,0,0,0,0,0,0,0,-1,1756,750,0,0
539,274,0,0,0,0,0,0,0,0,0,-1,1763,750,0,0
546,274,0,0,0,0,0,0,0,0,0,-1,1770,750,0,0
553,274,0,0,0,0,0,0,0,0,0,-1,1777,750,0,0
560,274,57.9182,3.24518,0,0,0,0,0,0,0,-1,1784,750,57.9182,-3.24516
567,274,57.8315,3.4137,0,0,0,0,0,0,0,-1,1791,750,57.8315,-3.41368
574,274,58.2571,3.11115,0,0,0,0,0,0,0,-1,1798,750,58.2571,-3.11114
581,274,54.4941,4.68127,0,0,0,0,0,0,0,-1,1805,750,54.4941,-4.68125
588,274,53.9908,5.6676,0,0,0,0,0,0,0,-1,1812,750,53.9908,-5.66763
595,274,61.5503,2.89563,0,0,0,0,0,0,0,-1,1819,750,61.5503,-2.89564
602,274,55.6321,2.56519,0,0,0,0,0,0,0,-1,1826,750,55.6321,-2.56521
609,274,44.6676,3.10461,0,0,0,0,0,0,0,-1,1833,750,44.6676,-3.1046
616,274,32.7869,1.78436,0,0,0,0,0,0,0,-1,1840,750,32.7868,-1.78437
623,274,24.8231,-1.80353,0,0,0,0,0,0,0,-1,1847,750,24.8232,1.80351
630,274,39.0356,-5.87128,0,0,0,0,0,0,0,-1,1854,750,39.0357,5.87126
637,274,38.8716,-5.12018,-0.00117564,0.000894868,0.00129405,0.00151682,-0.00179759,1.12277,0.00191586,0.0252405,1861,750,38.8716,5.1202
644,274,38.8641,-4.33008,-0.00131822,0.000926994,0.00111505,0.00138666,-0.00177788,1.17979,0.0018317,0.0142921,1868,750,38.8641,4.33008
651,274,38.8602,-3.58295,-0.000807176,0.000798138,0.000821212,0.0011438,-0.00115284,1.17238,0.00132597,0.0145337,1875,750,38.8602,3.58292
658,274,38.8236,-2.84741,-9.11486e-06,0.000605621,0.000514835,0.000897861,-0.000301355,1.05451,0.000720353,0.0172957,1882,750,38.8236,2.84742
665,274,38.7847,-2.09985,0.000536238,0.000893495,0.000689923,0.00142754,2.19425e-06,0.912072,0.000950962,0.0166685,1889,750,38.7847,2.09983
672,274,38.7502,-1.36218,0.00121544,0.00136983,0.000999944,0.00229555,0.000289716,0.823923,0.00144352,0.0140893,1896,750,38.7502,1.36219
679,274,38.7145,-0.628845,0.00203029,0.0019851,0.001483,0.00349086,0.000524527,0.777781,0.0021736,0.0154563,1903,750,38.7144,0.628823
686,274,38.6744,0.093811,0.00292465,0.00277817,0.00206391,0.00491661,0.000786202,0.767662,0.00304965,0.0170315,1910,750,38.6744,-0.0938082
693,274,38.6252,0.828796,0.00398687,0.00372167,0.002822,0.00667938,0.00102916,0.761921,0.0041526,0.0129427,1917,750,38.6253,-0.828799
700,274,38.6145,1.59717,0.00529769,0.00499318,0.00389197,0.00904038,0.00125049,0.765848,0.00565636,0.0180683,1924,750,38.6145,-1.59716
707,274,38.5132,2.3819,0.00694083,0.00628623,0.00540481,0.0120282,0.00119882,0.755156,0.00765059,0.0379058,1931,750,38.5131,-2.38188
714,274,38.3843,3.21045,0,0,0,0,0,0,0,-1,1938,750,38.3843,-3.21048
721,274,25.6215,3.91144,0,0,0,0,0,0,0,-1,1945,750,25.6214,-3.91141
728,274,19.2209,3.95154,0,0,0,0,0,0,0,-1,1952,750,19.221,-3.95151
735,274,20.6608,4.10931,0,0,0,0,0,0,0,-1,1959,750,20.6607,-4.10932
742,274,11.7815,-0.740234,0,0,0,0,0,0,0,-1,1966,750,11.7815,0.740253
749,274,0,0,0,0,0,0,0,0,0,-1,1973,750,0,0
756,274,0,0,0,0,0,0,0,0,0,-1,1980,750,0,0
763,274,0,0,0,0,0,0,0,0,0,-1,1987,750,0,0
770,274,0,0,0,0,0,0,0,0,0,-1,1994,750,0,0
777,274,0,0,0,0,0,0,0,0,0,-1,2001,750,0,0
784,274,0,0,0,0,0,0,0,0,0,-1,2008,750,0,0
791,274,0,0,0,0,0,0,0,0,0,-1,2015,750,0,0
798,274,0,0,0,0,0,0,0,0,0,-1,2022,750,0,0
805,274,0,0,0,0,0,0,0,0,0,-1,2029,750,0,0
812,274,0,0,0,0,0,0,0,0,0,-1,2036,750,0,0
-700,267,0,0,0,0,0,0,0,0,0,-1,524,757,0,0
-693,267,0,0,0,0,0,0,0,0,0,-1,531,757,0,0
-686,267,0,0,0,0,0,0,0,0,0,-1,538,757,0,0
-679,267,0,0,0,0,0,0,0,0,0,-1,545,757,0,0
-672,267,0,0,0,0,0,0,0,0,0,-1,552,757,0,0
-665,267,0,0,0,0,0,0,0,0,0,-1,559,757,0,0
-658,267,0,0,0,0,0,0,0,0,0,-1,566,757,0,0
-651,267,0,0,0,0,0,0,0,0,0,-1,573,757,0,0
-644,267,0,0,0,0,0,0,0,0,0,-1,580,757,0,0
-637,267,0,0,0,0,0,0,0,0,0,-1,587,757,0,0
-630,267,-21.3979,5.17529,0,0,0,0,0,0,0,-1,594,757,-21.3979,-5.17529
-623,267,-20.043,4.43115,0,0,0,0,0,0,0,-1,601,757,-20.043,-4.43116
-616,267,-27.1628,5.9325,0,0,0,0,0,0,0,-1,608,757,-27.1629,-5.93249
-609,267,-26.9868,4.99658,0,0,0,0,0,0,0,-1,615,757,-26.9868,-4.99656
-602,267,-26.6637,3.74072,0,0,0,0,0,0,0,-1,622,757,-26.6637,-3.74075
-595,267,-26.2172,2.54993,0,0,0,0,0,0,0,-1,629,757,-26.2171,-2.54993
-588,267,-26.0078,1.82788,0,0,0,0,0,0,0,-1,636,757,-26.0078,-1.82788
-581,267,-26.1436,0.876953,-0.000467372,0.00653956,-0.00401021,0.00836113,-0.00228894,-1.14443,0.0064734,0.0401829,643,757,-26.1436,-0.876932
-574,267,-26.2569,-0.0281372,-0.000835717,0.00526335,-0.00255494,0.00619218,-0.00176454,-1.22211,0.00482508,0.0232693,650,757,-26.2569,0.0281089
-567,267,-26.3831,-0.708679,-0.00096936,0.00378436,-0.00138872,0.00416031,-0.00134532,-1.30641,0.00331428,0.0286648,657,757,-26.3831,0.708659
-560,267,-26.4431,-1.41486,-0.000977237,0.00249865,-0.000528454,0.00257722,-0.0010558,-1.4232,0.00215796,0.0239369,664,757,-26.4431,1.41486
-553,267,-26.4843,-2.14697,-0.000968534,0.00125252,0.000205802,0.00127143,-0.000987442,1.47918,0.00130759,0.0184219,671,757,-26.4842,2.14699
-546,267,-26.5095,-2.88068,-0.000936364,5.85425e-05,0.00086246,0.000556728,-0.00143455,1.04699,0.00118632,0.0121665,678,757,-26.5095,2.88066
-539,267,-26.5164,-3.60553,-0.0008282,-0.00128751,0.00157192,0.000530751,-0.00264646,0.712862,0.00196526,0.0119685,685,757,-26.5164,3.60551
-532,267,-26.5303,-4.29962,-0.000581195,-0.00247381,0.00200344,0.000688189,-0.00374319,0.56476,0.00275367,0.0133522,692,757,-26.5303,4.29961
-525,267,-26.6039,-4.97498,-6.79972e-05,-0.0033304,0.00212653,0.000980906,-0.0043793,0.45823,0.00329553,0.0126431,699,757,-26.6039,4.97497
-518,267,-26.6415,-5.70074,0.000121226,-0.00389029,0.00195782,0.000918349,-0.00468741,0.386653,0.00347178,0.0133,706,757,-26.6415,5.70072
-511,267,-26.6279,-6.42578,0.000438208,-0.00440663,0.00177368,0.00101813,-0.00498655,0.316003,0.0037106,0.023731,713,757,-26.6279,6.42578
-504,267,-26.8106,-6.93567,0.000772622,-0.00464089,0.00139035,0.00110882,-0.00497709,0.237258,0.00374282,0.0412283,720,757,-26.8106,6.93566
-497,267,-27.0896,-7.48016,0,0,0,0,0,0,0,-1,727,757,-27.0896,7.48018
-490,267,-23.4949,-0.494995,0,0,0,0,0,0,0,-1,734,757,-23.4949,0.494981
-483,267,-33.2785,-0.448425,0,0,0,0,0,0,0,-1,741,757,-33.2785,0.448407
-476,267,-40.2954,0.52002,0,0,0,0,0,0,0,-1,748,757,-40.2954,-0.520037
-469,267,-46.6995,0.73468,0,0,0,0,0,0,0,-1,755,757,-46.6995,-0.734655
-462,267,-47.325,0.750977,0,0,0,0,0,0,0,-1,762,757,-47.325,-0.75097
-455,267,-47.4183,1.00275,0,0,0,0,0,0,0,-1,769,757,-47.4184,-1.00275
-448,267,-45.463,0.364624,0,0,0,0,0,0,0,-1,776,757,-45.463,-0.364611
-441,267,0,0,0,0,0,0,0,0,0,-1,783,757,0,0
-434,267,0,0,0,0,0,0,0,0,0,-1,790,757,0,0
-427,267,0,0,0,0,0,0,0,0,0,-1,797,757,0,0
-420,267,0,0,0,0,0,0,0,0,0,-1,804,757,0,0
-413,267,0,0,0,0,0,0,0,0,0,-1,811,757,0,0
-406,267,0,0,0,0,0,0,0,0,0,-1,818,757,0,0
-399,267,0,0,0,0,0,0,0,0,0,-1,825,757,0,0
-392,267,0,0,0,0,0,0,0,0,0,-1,832,757,0,0
-385,267,0,0,0,0,0,0,0,0,0,-1,839,757,0,0
-378,267,0,0,0,0,0,0,0,0,0,-1,846,757,0,0
-371,267,0,0,0,0,0,0,0,0,0,-1,853,757,0,0
-364,267,0,0,0,0,0,0,0,0,0,-1,860,757,0,0
-357,267,0,0,0,0,0,0,0,0,0,-1,867,757,0,0
-350,267,0,0,0,0,0,0,0,0,0,-1,874,757,0,0
-343,267,0,0,0,0,0,0,0,0,0,-1,881,757,0,0
-336,267,0,0,0,0,0,0,0,0,0,-1,888,757,0,0
-329,267,0,0,0,0,0,0,0,0,0,-1,895,757,0,0
-322,267,0,0,0,0,0,0,0,0,0,-1,902,757,0,0
-315,267,0,0,0,0,0,0,0,0,0,-1,909,757,0,0
-308,267,0,0,0,0,0,0,0,0,0,-1,916,757,0,0
-301,267,0,0,0,0,0,0,0,0,0,-1,923,757,0,0
-294,267,0,0,0,0,0,0,0,0,0,-1,930,757,0,0
-287,267,0,0,0,0,0,0,0,0,0,-1,937,757,0,0
-280,267,0,0,0,0,0,0,0,0,0,-1,944,757,0,0
-273,267,0,0,0,0,0,0,0,0,0,-1,951,757,0,0
-266,267,0,0,0,0,0,0,0,0,0,-1,958,757,0,0
-259,267,0,0,0,0,0,0,0,0,0,-1,965,757,0,0
-252,267,0,0,0,0,0,0,0,0,0,-1,972,757,0,0
-245,267,0,0,0,0,0,0,0,0,0,-1,979,757,0,0
-238,267,0,0,0,0,0,0,0,0,0,-1,986,757,0,0
-231,267,0,0,0,0,0,0,0,0,0,-1,993,757,0,0
-224,267,0,0,0,0,0,0,0,0,0,-1,1000,757,0,0
-217,267,0,0,0,0,0,0,0,0,0,-1,1007,757,0,0
-210,267,0,0,0,0,0,0,0,0,0,-1,1014,757,0,0
-203,267,0,0,0,0,0,0,0,0,0,-1,1021,757,0,0
-196,267,0,0,0,0,0,0,0,0,0,-1,1028,757,0,0
-189,267,0,0,0,0,0,0,0,0,0,-1,1035,757,0,0
-182,267,0,0,0,0,0,0,0,0,0,-1,1042,757,0,0
-175,267,0,0,0,0,0,0,0,0,0,-1,1049,757,0,0
-168,267,0,0,0,0,0,0,0,0,0,-1,1056,757,0,0
-161,267,0,0,0,0,0,0,0,0,0,-1,1063,757,0,0
-154,267,0,0,0,0,0,0,0,0,0,-1,1070,757,0,0
-147,267,0,0,0,0,0,0,0,0,0,-1,1077,757,0,0
-140,267,0,0,0,0,0,0,0,0,0,-1,1084,757,0,0
-133,267,0,0,0,0,0,0,0,0,0,-1,1091,757,0,0
-126,267,0,0,0,0,0,0,0,0,0,-1,1098,757,0,0
-119,267,0,0,0,0,0,0,0,0,0,-1,1105,757,0,0
-112,267,0,0,0,0,0,0,0,0,0,-1,1112,757,0,0
-105,267,0,0,0,0,0,0,0,0,0,-1,1119,757,0,0
-98,267,0,0,0,0,0,0,0,0,0,-1,1126,757,0,0
-91,267,0,0,0,0,0,0,0,0,0,-1,1133,757,0,0
-84,267,0,0,0,0,0,0,0,0,0,-1,1140,757,0,0
-77,267,0,0,0,0,0,0,0,0,0,-1,1147,757,0,0
-70,267,0,0,0,0,0,0,0,0,0,-1,1154,757,0,0
-63,267,0,0,0,0,0,0,0,0,0,-1,1161,757,0,0
-56,267,0,0,0,0,0,0,0,0,0,-1,1168,757,0,0
-49,267,0,0,0,0,0,0,0,0,0,-1,1175,757,0,0
-42,267,0,0,0,0,0,0,0,0,0,-1,1182,757,0,0
-35,267,0,0,0,0,0,0,0,0,0,-1,1189,757,0,0
-28,267,0,0,0,0,0,0,0,0,0,-1,1196,757,0,0
-21,267,0,0,0,0,0,0,0,0,0,-1,1203,757,0,0
-14,267,0,0,0,0,0,0,0,0,0,-1,1210,757,0,0
-7,267,0,0,0,0,0,0,0,0,0,-1,1217,757,0,0
0,267,0,0,0,0,0,0,0,0,0,-1,1224,757,0,0
7,267,0,0,0,0,0,0,0,0,0,-1,1231,757,0,0
14,267,0,0,0,0,0,0,0,0,0,-1,1238,757,0,0
21,267,0,0,0,0,0,0,0,0,0,-1,1245,757,0,0
28,267,0,0,0,0,0,0,0,0,0,-1,1252,757,0,0
35,267,0,0,0,0,0,0,0,0,0,-1,1259,757,0,0
42,267,0,0,0,0,0,0,0,0,0,-1,1266,757,0,0
49,267,0,0,0,0,0,0,0,0,0,-1,1273,757,0,0
56,267,0,0,0,0,0,0,0,0,0,-1,1280,757,0,0
63,267,0,0,0,0,0,0,0,0,0,-1,1287,757,0,0
70,267,0,0,0,0,0,0,0,0,0,-1,1294,757,0,0
77,267,0,0,0,0,0,0,0,0,0,-1,1301,757,0,0
84,267,0,0,0,0,0,0,0,0,0,-1,1308,757,0,0
91,267,0,0,0,0,0,0,0,0,0,-1,1315,757,0,0
98,267,0,0,0,0,0,0,0,0,0,-1,1322,757,0,0
105,267,0,0,0,0,0,0,0,0,0,-1,1329,757,0,0
112,267,0,0,0,0,0,0,0,0,0,-1,1336,757,0,0
119,267,0,0,0,0,0,0,0,0,0,-1,1343,757,0,0
126,267,0,0,0,0,0,0,0,0,0,-1,1350,757,0,0
133,267,0,0,0,0,0,0,0,0,0,-1,1357,757,0,0
140,267,0,0,0,0,0,0,0,0,0,-1,1364,757,0,0
147,267,0,0,0,0,0,0,0,0,0,-1,1371,757,0,0
154,267,0,0,0,0,0,0,0,0,0,-1,1378,757,0,0
161,267,0,0,0,0,0,0,0,0,0,-1,1385,757,0,0
168,267,0,0,0,0,0,0,0,0,0,-1,1392,757,0,0
175,267,0,0,0,0,0,0,0,0,0,-1,1399,757,0,0
182,267,0,0,0,0,0,0,0,0,0,-1,1406,757,0,0
189,267,0,0,0,0,0,0,0,0,0,-1,1413,757,0,0
196,267,0,0,0,0,0,0,0,0,0,-1,1420,757,0,0
203,267,0,0,0,0,0,0,0,0,0,-1,1427,757,0,0
210,267,0,0,0,0,0,0,0,0,0,-1,1434,757,0,0
217,267,0,0,0,0,0,0,0,0,0,-1,1441,757,0,0
224,267,0,0,0,0,0,0,0,0,0,-1,1448,757,0,0
231,267,0,0,0,0,0,0,0,0,0,-1,1455,757,0,0
238,267,0,0,0,0,0,0,0,0,0,-1,1462,757,0,0
245,267,0,0,0,0,0,0,0,0,0,-1,1469,757,0,0
252,267,0,0,0,0,0,0,0,0,0,-1,1476,757,0,0
259,267,0,0,0,0,0,0,0,0,0,-1,1483,757,0,0
266,267,0,0,0,0,0,0,0,0,0,-1,1490,757,0,0
273,267,0,0,0,0,0,0,0,0,0,-1,1497,757,0,0
280,267,0,0,0,0,0,0,0,0,0,-1,1504,757,0,0
287,267,0,0,0,0,0,0,0,0,0,-1,1511,757,0,0
294,267,0,0,0,0,0,0,0,0,0,-1,1518,757,0,0
301,267,0,0,0,0,0,0,0,0,0,-1,1525,757,0,0
308,267,0,0,0,0,0,0,0,0,0,-1,1532,757,0,0
315,267,0,0,0,0,0,0,0,0,0,-1,1539,757,0,0
322,267,0,0,0,0,0,0,0,0,0,-1,1546,757,0,0
329,267,0,0,0,0,0,0,0,0,0,-1,1553,757,0,0
336,267,0,0,0,0,0,0,0,0,0,-1,1560,757,0,0
343,267,0,0,0,0,0,0,0,0,0,-1,1567,757,0,0
350,267,0,0,0,0,0,0,0,0,0,-1,1574,757,0,0
357,267,0,0,0,0,0,0,0,0,0,-1,1581,757,0,0
364,267,0,0,0,0,0,0,0,0,0,-1,1588,757,0,0
371,267,0,0,0,0,0,0,0,0,0,-1,1595,757,0,0
378,267,0,0,0,0,0,0,0,0,0,-1,1602,757,0,0
385,267,0,0,0,0,0,0,0,0,0,-1,1609,757,0,0
392,267,0,0,0,0,0,0,0,0,0,-1,1616,757,0,0
399,267,0,0,0,0,0,0,0,0,0,-1,1623,757,0,0
406,267,0,0,0,0,0,0,0,0,0,-1,1630,757,0,0
413,267,0,0,0,0,0,0,0,0,0,-1,1637,757,0,0
420,267,0,0,0,0,0,0,0,0,0,-1,1644,757,0,0
427,267,0,0,0,0,0,0,0,0,0,-1,1651,757,0,0
434,267,0,0,0,0,0,0,0,0,0,-1,1658,757,0,0
441,267,0,0,0,0,0,0,0,0,0,-1,1665,757,0,0
448,267,0,0,0,0,0,0,0,0,0,-1,1672,757,0,0
455,267,0,0,0,0,0,0,0,0,0,-1,1679,757,0,0
462,267,0,0,0,0,0,0,0,0,0,-1,1686,757,0,0
469,267,0,0,0,0,0,0,0,0,0,-1,1693,757,0,0
476,267,0,0,0,0,0,0,0,0,0,-1,1700,757,0,0
483,267,0,0,0,0,0,0,0,0,0,-1,1707,757,0,0
490,267,0,0,0,0,0,0,0,0,0,-1,1714,757,0,0
497,267,0,0,0,0,0,0,0,0,0,-1,1721,757,0,0
504,267,0,0,0,0,0,0,0,0,0,-1,1728,757,0,0
511,267,0,0,0,0,0,0,0,0,0,-1,1735,757,0,0
518,267,0,0,0,0,0,0,0,0,0,-1,1742,757,0,0
525,267,0,0,0,0,0,0,0,0,0,-1,1749,757,0,0
532,267,0,0,0,0,0,0,0,0,0,-1,1756,757,0,0
539,267,0,0,0,0,0,0,0,0,0,-1,1763,757,0,0
546,267,0,0,0,0,0,0,0,0,0,-1,1770,757,0,0
553,267,0,0,0,0,0,0,0,0,0,-1,1777,757,0,0
560,267,0,0,0,0,0,0,0,0,0,-1,1784,757,0,0
567,267,58.0104,3.24304,0,0,0,0,0,0,0,-1,1791,757,58.0104,-3.24306
574,267,59.9662,2.96204,0,0,0,0,0,0,0,-1,1798,757,59.9662,-2.96201
581,267,58.374,2.95636,0,0,0,0,0,0,0,-1,1805,757,58.3741,-2.95639
588,267,61.3993,2.33972,0,0,0,0,0,0,0,-1,1812,757,61.3993,-2.33974
595,267,61.2975,2.59125,0,0,0,0,0,0,0,-1,1819,757,61.2975,-2.59126
602,267,61.2721,2.60455,0,0,0,0,0,0,0,-1,1826,757,61.2721,-2.60456
609,267,54.5498,3.24054,0,0,0,0,0,0,0,-1,1833,757,54.5498,-3.24052
616,267,44.2543,3.28918,0,0,0,0,0,0,0,-1,1840,757,44.2542,-3.28918
623,267,24.1475,-1.1391,0,0,0,0,0,0,0,-1,1847,757,24.1475,1.13913
630,267,40.1821,-5.58917,0,0,0,0,0,0,0,-1,1854,757,40.1821,5.5892
637,267,39.7743,-5.00128,-0.00106587,0.0011763,0.00133424,0.00179792,-0.00168749,1.1348,0.00201264,0.0497715,1861,757,39.7743,5.00126
644,267,39.6134,-4.33533,-0.00137361,0.00121657,0.00115818,0.0016589,-0.00181594,1.20597,0.00200689,0.0173814,1868,757,39.6134,4.33536
651,267,39.5928,-3.53387,-0.00108758,0.000985337,0.000782479,0.00124754,-0.00134979,1.24746,0.00149995,0.0149652,1875,757,39.5927,3.53387
658,267,39.5627,-2.79803,-0.000371981,0.000550631,0.000258233,0.000617991,-0.000439341,1.31563,0.000613348,0.0152313,1882,757,39.5627,2.798
665,267,39.5166,-2.07129,5.58935e-05,0.000643571,0.000303839,0.000772414,-7.29487e-05,1.16973,0.000540901,0.0160042,1889,757,39.5166,2.07127
672,267,39.4803,-1.33289,0.000685236,0.000979719,0.00054254,0.00139464,0.000270312,0.917903,0.000854038,0.0143187,1896,757,39.4804,1.33289
679,267,39.4587,-0.594177,0.00149082,0.00149156,0.00101499,0.00250618,0.000476199,0.785581,0.00153685,0.0133803,1903,757,39.4587,0.594182
686,267,39.4359,0.144714,0.00243009,0.00226499,0.00164324,0.00399285,0.000702231,0.760302,0.00246144,0.0159712,1910,757,39.4359,-0.144712
693,267,39.368,0.840576,0.0035357,0.00316158,0.00246736,0.00582307,0.0008742,0.747564,0.00362595,0.0155897,1917,757,39.3681,-0.84058
700,267,39.3331,1.60242,0.00486971,0.00431331,0.00357268,0.008175,0.00100802,0.746543,0.005147,0.0151498,1924,757,39.3332,-1.6024
707,267,39.3224,2.34723,0.00649538,0.00555412,0.00508427,0.0111308,0.000918746,0.739246,0.007134,0.0179179,1931,757,39.3223,-2.34726
714,267,39.4969,3.17627,0.00865043,0.00729556,0.00730926,0.0153136,0.00063241,0.739189,0.0100049,0.0420671,1938,757,39.497,-3.17626
721,267,39.8096,4.05371,0,0,0,0,0,0,0,-1,1945,757,39.8095,-4.05368
728,267,26.7886,3.90027,0,0,0,0,0,0,0,-1,1952,757,26.7886,-3.90028
735,267,24.6713,2.82483,0,0,0,0,0,0,0,-1,1959,757,24.6713,-2.82483
742,267,18.1177,3.56561,0,0,0,0,0,0,0,-1,1966,757,18.1176,-3.56564
749,267,0,0,0,0,0,0,0,0,0,-1,1973,757,0,0
756,267,0,0,0,0,0,0,0,0,0,-1,1980,757,0,0
763,267,0,0,0,0,0,0,0,0,0,-1,1987,757,0,0
770,267,0,0,0,0,0,0,0,0,0,-1,1994,757,0,0
777,267,0,0,0,0,0,0,0,0,0,-1,2001,757,0,0
784,267,0,0,0,0,0,0,0,0,0,-1,2008,757,0,0
791,267,0,0,0,0,0,0,0,0,0,-1,2015,757,0,0
798,267,0,0,0,0,0,0,0,0,0,-1,2022,757,0,0
805,267,0,0,0,0,0,0,0,0,0,-1,2029,757,0,0
812,267,0,0,0,0,0,0,0,0,0,-1,2036,757,0,0
-700,260,0,0,0,0,0,0,0,0,0,-1,524,764,0,0
-693,260,0,0,0,0,0,0,0,0,0,-1,531,764,0,0
-686,260,0,0,0,0,0,0,0,0,0,-1,538,764,0,0
-679,260,0,0,0,0,0,0,0,0,0,-1,545,764,0,0
-672,260,0,0,0,0,0,0,0,0,0,-1,552,764,0,0
-665,260,0,0,0,0,0,0,0,0,0,-1,559,764,0,0
-658,260,0,0,0,0,0,0,0,0,0,-1,566,764,0,0
-651,260,0,0,0,0,0,0,0,0,0,-1,573,764,0,0
-644,260,0,0,0,0,0,0,0,0,0,-1,580,764,0,0
-637,260,0,0,0,0,0,0,0,0,0,-1,587,764,0,0
-630,260,-21.8905,4.49341,0,0,0,0,0,0,0,-1,594,764,-21.8905,-4.49342
-623,260,-20.3127,3.53546,0,0,0,0,0,0,0,-1,601,764,-20.3127,-3.53544
-616,260,-23.4346,3.65009,0,0,0,0,0,0,0,-1,608,764,-23.4345,-3.65008
-609,260,-27.8874,4.42004,0,0,0,0,0,0,0,-1,615,764,-27.8874,-4.42005
-602,260,-27.5727,3.89905,0,0,0,0,0,0,0,-1,622,764,-27.5727,-3.89904
-595,260,-27.2634,2.70837,0,0,0,0,0,0,0,-1,629,764,-27.2634,-2.70838
-588,260,-27.1462,1.4964,-0.000591061,0.00543483,-0.00633921,0.00944067,-0.0045969,-1.00724,0.00826386,0.0459505,636,764,-27.1463,-1.49642
-581,260,-27.0511,0.625488,0.000464875,0.00514602,-0.0038274,0.00729179,-0.00168089,-1.05983,0.00550766,0.0289998,643,764,-27.0511,-0.625514
-574,260,-27.0504,-0.0197754,-0.000214093,0.00422389,-0.00243678,0.00530063,-0.00129083,-1.15473,0.00403347,0.0185168,650,764,-27.0504,0.0197721
-567,260,-27.097,-0.653442,-0.000623818,0.00301244,-0.00126875,0.00341136,-0.00102274,-1.26616,0.00268099,0.0183593,657,764,-27.0971,0.653463
-560,260,-27.1603,-1.37543,-0.000879059,0.00186433,-0.000341403,0.00190617,-0.000920907,-1.44883,0.00166493,0.0204693,664,764,-27.1603,1.37542
-553,260,-27.2032,-2.1059,-0.00110835,0.000676968,0.000469432,0.000792876,-0.00122426,1.32873,0.00117344,0.0170992,671,764,-27.2032,2.10588
-546,260,-27.2197,-2.83539,-0.0012549,-0.00061189,0.00118358,0.000293076,-0.00215987,0.918017,0.00154689,0.0115631,678,764,-27.2197,2.83538
-539,260,-27.2121,-3.54871,-0.00122309,-0.00216638,0.00194654,0.000308136,-0.0036976,0.666539,0.00257394,0.013575,685,764,-27.2121,3.54868
-532,260,-27.2209,-4.20868,-0.000995785,-0.00338944,0.0023079,0.000407154,-0.00479238,0.546198,0.00333892,0.0187844,692,764,-27.221,4.20867
-525,260,-27.2979,-4.94421,-0.000468318,-0.00425625,0.00232747,0.000638419,-0.00536299,0.443865,0.00380602,0.0164463,699,764,-27.2978,4.94419
-518,260,-27.3821,-5.64044,-0.000276026,-0.00481038,0.00208392,0.000536215,-0.00562262,0.371653,0.00393934,0.0225895,706,764,-27.3821,5.64044
-511,260,-27.414,-6.31934,0.000104812,-0.00534013,0.00184387,0.000670457,-0.00590578,0.297656,0.00417864,0.0414971,713,764,-27.414,6.31932
-504,260,-27.5165,-6.68726,0,0,0,0,0,0,0,-1,720,764,-27.5165,6.68727
-497,260,-16.6542,-3.67334,0,0,0,0,0,0,0,-1,727,764,-16.6542,3.67331
-490,260,-29.4557,0.921387,0,0,0,0,0,0,0,-1,734,764,-29.4557,-0.921369
-483,260,-40.8972,1.04193,0,0,0,0,0,0,0,-1,741,764,-40.8972,-1.04193
-476,260,-46.489,0.818604,0,0,0,0,0,0,0,-1,748,764,-46.489,-0.818597
-469,260,-46.5511,0.751282,-0.00434133,0.000449423,-0.00342326,0.00223215,-0.00612405,-1.09067,0.00499583,0.0469746,755,764,-46.5511,-0.751257
-462,260,-46.8277,0.66571,0,0,0,0,0,0,0,-1,762,764,-46.8277,-0.665727
-455,260,-46.8854,0.860229,0,0,0,0,0,0,0,-1,769,764,-46.8854,-0.86025
-448,260,0,0,0,0,0,0,0,0,0,-1,776,764,0,0
-441,260,0,0,0,0,0,0,0,0,0,-1,783,764,0,0
-434,260,0,0,0,0,0,0,0,0,0,-1,790,764,0,0
-427,260,0,0,0,0,0,0,0,0,0,-1,797,764,0,0
-420,260,0,0,0,0,0,0,0,0,0,-1,804,764,0,0
-413,260,0,0,0,0,0,0,0,0,0,-1,811,764,0,0
-406,260,0,0,0,0,0,0,0,0,0,-1,818,764,0,0
-399,260,0,0,0,0,0,0,0,0,0,-1,825,764,0,0
-392,260,0,0,0,0,0,0,0,0,0,-1,832,764,0,0
-385,260,0,0,0,0,0,0,0,0,0,-1,839,764,0,0
-378,260,0,0,0,0,0,0,0,0,0,-1,846,764,0,0
-371,260,0,0,0,0,0,0,0,0,0,-1,853,764,0,0
-364,260,0,0,0,0,0,0,0,0,0,-1,860,764,0,0
-357,260,0,0,0,0,0,0,0,0,0,-1,867,764,0,0
-350,260,0,0,0,0,0,0,0,0,0,-1,874,764,0,0
-343,260,0,0,0,0,0,0,0,0,0,-1,881,764,0,0
-336,260,0,0,0,0,0,0,0,0,0,-1,888,764,0,0
-329,260,0,0,0,0,0,0,0,0,0,-1,895,764,0,0
-322,260,0,0,0,0,0,0,0,0,0,-1,902,764,0,0
-315,260,0,0,0,0,0,0,0,0,0,-1,909,764,0,0
-308,260,0,0,0,0,0,0,0,0,0,-1,916,764,0,0
-301,260,0,0,0,0,0,0,0,0,0,-1,923,764,0,0
-294,260,0,0,0,0,0,0,0,0,0,-1,930,764,0,0
-287,260,0,0,0,0,0,0,0,0,0,-1,937,764,0,0
-280,260,0,0,0,0,0,0,0,0,0,-1,944,764,0,0
-273,260,0,0,0,0,0,0,0,0,0,-1,951,764,0,0
-266,260,0,0,0,0,0,0,0,0,0,-1,958,764,0,0
-259,260,0,0,0,0,0,0,0,0,0,-1,965,764,0,0
-252,260,0,0,0,0,0,0,0,0,0,-1,972,764,0,0
-245,260,0,0,0,0,0,0,0,0,0,-1,979,764,0,0
-238,260,0,0,0,0,0,0,0,0,0,-1,986,764,0,0
-231,260,0,0,0,0,0,0,0,0,0,-1,993,764,0,0
-224,260,0,0,0,0,0,0,0,0,0,-1,1000,764,0,0
-217,260,0,0,0,0,0,0,0,0,0,-1,1007,764,0,0
-210,260,0,0,0,0,0,0,0,0,0,-1,1014,764,0,0
-203,260,0,0,0,0,0,0,0,0,0,-1,1021,764,0,0
-196,260,0,0,0,0,0,0,0,0,0,-1,1028,764,0,0
-189,260,0,0,0,0,0,0,0,0,0,-1,1035,764,0,0
-182,260,0,0,0,0,0,0,0,0,0,-1,1042,764,0,0
-175,260,0,0,0,0,0,0,0,0,0,-1,1049,764,0,0
-168,260,0,0,0,0,0,0,0,0,0,-1,1056,764,0,0
-161,260,0,0,0,0,0,0,0,0,0,-1,1063,764,0,0
-154,260,0,0,0,0,0,0,0,0,0,-1,1070,764,0,0
-147,260,0,0,0,0,0,0,0,0,0,-1,1077,764,0,0
-140,260,0,0,0,0,0,0,0,0,0,-1,1084,764,0,0
-133,260,0,0,0,0,0,0,0,0,0,-1,1091,764,0,0
-126,260,0,0,0,0,0,0,0,0,0,-1,1098,764,0,0
-119,260,0,0,0,0,0,0,0,0,0,-1,1105,764,0,0
-112,260,0,0,0,0,0,0,0,0,0,-1,1112,764,0,0
-105,260,0,0,0,0,0,0,0,0,0,-1,1119,764,0,0
-98,260,0,0,0,0,0,0,0,0,0,-1,1126,764,0,0
-91,260,0,0,0,0,0,0,0,0,0,-1,1133,764,0,0
-84,260,0,0,0,0,0,0,0,0,0,-1,1140,764,0,0
-77,260,0,0,0,0,0,0,0,0,0,-1,1147,764,0,0
-70,260,0,0,0,0,0,0,0,0,0,-1,1154,764,0,0
-63,260,0,0,0,0,0,0,0,0,0,-1,1161,764,0,0
-56,260,0,0,0,0,0,0,0,0,0,-1,1168,764,0,0
-49,260,0,0,0,0,0,0,0,0,0,-1,1175,764,0,0
-42,260,0,0,0,0,0,0,0,0,0,-1,1182,764,0,0
-35,260,0,0,0,0,0,0,0,0,0,-1,1189,764,0,0
-28,260,0,0,0,0,0,0,0,0,0,-1,1196,764,0,0
-21,260,0,0,0,0,0,0,0,0,0,-1,1203,764,0,0
-14,260,0,0,0,0,0,0,0,0,0,-1,1210,764,0,0
-7,260,0,0,0,0,0,0,0,0,0,-1,1217,764,0,0
0,260,0,0,0,0,0,0,0,0,0,-1,1224,764,0,0
7,260,0,0,0,0,0,0,0,0,0,-1,1231,764,0,0
14,260,0,0,0,0,0,0,0,0,0,-1,1238,764,0,0
21,260,0,0,0,0,0,0,0,0,0,-1,1245,764,0,0
28,260,0,0,0,0,0,0,0,0,0,-1,1252,764,0,0
35,260,0,0,0,0,0,0,0,0,0,-1,1259,764,0,0
42,260,0,0,0,0,0,0,0,0,0,-1,1266,764,0,0
49,260,0,0,0,0,0,0,0,0,0,-1,1273,764,0,0
56,260,0,0,0,0,0,0,0,0,0,-1,1280,764,0,0
63,260,0,0,0,0,0,0,0,0,0,-1,1287,764,0,0
70,260,0,0,0,0,0,0,0,0,0,-1,1294,764,0,0
77,260,0,0,0,0,0,0,0,0,0,-1,1301,764,0,0
84,260,0,0,0,0,0,0,0,0,0,-1,1308,764,0,0
91,260,0,0,0,0,0,0,0,0,0,-1,1315,764,0,0
98,260,0,0,0,0,0,0,0,0,0,-1,1322,764,0,0
105,260,0,0,0,0,0,0,0,0,0,-1,1329,764,0,0
112,260,0,0,0,0,0,0,0,0,0,-1,1336,764,0,0
119,260,0,0,0,0,0,0,0,0,0,-1,1343,764,0,0
126,260,0,0,0,0,0,0,0,0,0,-1,1350,764,0,0
133,260,0,0,0,0,0,0,0,0,0,-1,1357,764,0,0
140,260,0,0,0,0,0,0,0,0,0,-1,1364,764,0,0
147,260,0,0,0,0,0,0,0,0,0,-1,1371,764,0,0
154,260,0,0,0,0,0,0,0,0,0,-1,1378,764,0,0
161,260,0,0,0,0,0,0,0,0,0,-1,1385,764,0,0
168,260,0,0,0,0,0,0,0,0,0,-1,1392,764,0,0
175,260,0,0,0,0,0,0,0,0,0,-1,1399,764,0,0
182,260,0,0,0,0,0,0,0,0,0,-1,1406,764,0,0
189,260,0,0,0,0,0,0,0,0,0,-1,1413,764,0,0
196,260,0,0,0,0,0,0,0,0,0,-1,1420,764,0,0
203,260,0,0,0,0,0,0,0,0,0,-1,1427,764,0,0
210,260,0,0,0,0,0,0,0,0,0,-1,1434,764,0,0
217,260,0,0,0,0,0,0,0,0,0,-1,1441,764,0,0
224,260,0,0,0,0,0,0,0,0,0,-1,1448,764,0,0
231,260,0,0,0,0,0,0,0,0,0,-1,1455,764,0,0
238,260,0,0,0,0,0,0,0,0,0,-1,1462,764,0,0
245,260,0,0,0,0,0,0,0,0,0,-1,1469,764,0,0
252,260,0,0,0,0,0,0,0,0,0,-1,1476,764,0,0
259,260,0,0,0,0,0,0,0,0,0,-1,1483,764,0,0
266,260,0,0,0,0,0,0,0,0,0,-1,1490,764,0,0
273,260,0,0,0,0,0,0,0,0,0,-1,1497,764,0,0
280,260,0,0,0,0,0,0,0,0,0,-1,1504,764,0,0
287,260,0,0,0,0,0,0,0,0,0,-1,1511,764,0,0
294,260,0,0,0,0,0,0,0,0,0,-1,1518,764,0,0
301,260,0,0,0,0,0,0,0,0,0,-1,1525,764,0,0
308,260,0,0,0,0,0,0,0,0,0,-1,1532,764,0,0
315,260,0,0,0,0,0,0,0,0,0,-1,1539,764,0,0
322,260,0,0,0,0,0,0,0,0,0,-1,1546,764,0,0
329,260,0,0,0,0,0,0,0,0,0,-1,1553,764,0,0
336,260,0,0,0,0,0,0,0,0,0,-1,1560,764,0,0
343,260,0,0,0,0,0,0,0,0,0,-1,1567,764,0,0
350,260,0,0,0,0,0,0,0,0,0,-1,1574,764,0,0
357,260,0,0,0,0,0,0,0,0,0,-1,1581,764,0,0
364,260,0,0,0,0,0,0,0,0,0,-1,1588,764,0,0
371,260,0,0,0,0,0,0,0,0,0,-1,1595,764,0,0
378,260,0,0,0,0,0,0,0,0,0,-1,1602,764,0,0
385,260,0,0,0,0,0,0,0,0,0,-1,1609,764,0,0
392,260,0,0,0,0,0,0,0,0,0,-1,1616,764,0,0
399,260,0,0,0,0,0,0,0,0,0,-1,1623,764,0,0
406,260,0,0,0,0,0,0,0,0,0,-1,1630,764,0,0
413,260,0,0,0,0,0,0,0,0,0,-1,1637,764,0,0
420,260,0,0,0,0,0,0,0,0,0,-1,1644,764,0,0
427,260,0,0,0,0,0,0,0,0,0,-1,1651,764,0,0
434,260,0,0,0,0,0,0,0,0,0,-1,1658,764,0,0
441,260,0,0,0,0,0,0,0,0,0,-1,1665,764,0,0
448,260,0,0,0,0,0,0,0,0,0,-1,1672,764,0,0
455,260,0,0,0,0,0,0,0,0,0,-1,1679,764,0,0
462,260,0,0,0,0,0,0,0,0,0,-1,1686,764,0,0
469,260,0,0,0,0,0,0,0,0,0,-1,1693,764,0,0
476,260,0,0,0,0,0,0,0,0,0,-1,1700,764,0,0
483,260,0,0,0,0,0,0,0,0,0,-1,1707,764,0,0
490,260,0,0,0,0,0,0,0,0,0,-1,1714,764,0,0
497,260,0,0,0,0,0,0,0,0,0,-1,1721,764,0,0
504,260,0,0,0,0,0,0,0,0,0,-1,1728,764,0,0
511,260,0,0,0,0,0,0,0,0,0,-1,1735,764,0,0
518,260,0,0,0,0,0,0,0,0,0,-1,1742,764,0,0
525,260,0,0,0,0,0,0,0,0,0,-1,1749,764,0,0
532,260,0,0,0,0,0,0,0,0,0,-1,1756,764,0,0
539,260,0,0,0,0,0,0,0,0,0,-1,1763,764,0,0
546,260,0,0,0,0,0,0,0,0,0,-1,1770,764,0,0
553,260,0,0,0,0,0,0,0,0,0,-1,1777,764,0,0
560,260,0,0,0,0,0,0,0,0,0,-1,1784,764,0,0
567,260,0,0,0,0,0,0,0,0,0,-1,1791,764,0,0
574,260,59.8372,2.82971,0,0,0,0,0,0,0,-1,1798,764,59.8372,-2.82972
581,260,59.6227,3.06396,0,0,0,0,0,0,0,-1,1805,764,59.6227,-3.06396
588,260,61.2255,2.1178,0,0,0,0,0,0,0,-1,1812,764,61.2255,-2.11781
595,260,61.2258,2.29614,0,0,0,0,0,0,0,-1,1819,764,61.2258,-2.29613
602,260,61.0963,2.62952,0,0,0,0,0,0,0,-1,1826,764,61.0963,-2.62955
609,260,60.6981,3.1593,0,0,0,0,0,0,0,-1,1833,764,60.6981,-3.15931
616,260,46.0709,2.74542,0,0,0,0,0,0,0,-1,1840,764,46.0709,-2.74545
623,260,32.2268,3.25836,0,0,0,0,0,0,0,-1,1847,764,32.2268,-3.25833
630,260,24.3739,-0.536316,0,0,0,0,0,0,0,-1,1854,764,24.3739,0.536343
637,260,40.5989,-5.21271,0,0,0,0,0,0,0,-1,1861,764,40.5988,5.21274
644,260,40.5253,-4.36755,-0.00135315,0.00126667,0.00129524,0.00179891,-0.00188539,1.18091,0.00212733,0.0471823,1868,764,40.5253,4.36755
651,260,40.3873,-3.47449,-0.00125888,0.00102448,0.000927427,0.0013537,-0.0015881,1.22969,0.00170025,0.0191234,1875,764,40.3873,3.47452
658,260,40.278,-2.74567,-0.000698026,0.000495597,0.000253135,0.000547062,-0.00074949,1.37022,0.000751599,0.0163989,1882,764,40.2779,2.74567
665,260,40.2152,-2.03784,-0.000480576,0.000462855,0.000122131,0.000478409,-0.00049613,1.44412,0.000562682,0.0170466,1889,764,40.2152,2.03785
672,260,40.2068,-1.30219,4.50081e-05,0.000638234,0.000203621,0.000701399,-1.81576e-05,1.27,0.000473768,0.0144028,1896,764,40.2067,1.30217
679,260,40.1676,-0.544983,0.000809895,0.000997291,0.000569627,0.00148087,0.000326312,0.866913,0.000898454,0.0126438,1903,764,40.1675,0.544992
686,260,40.1316,0.191589,0.0017863,0.0017098,0.00116305,0.00291172,0.000584377,0.76896,0.00177865,0.0191904,1910,764,40.1315,-0.19157
693,260,40.0763,0.865845,0.00297695,0.00254162,0.00198858,0.00475975,0.000758825,0.730886,0.0029529,0.019164,1917,764,40.0763,-0.865823
700,260,40.0154,1.61157,0.00437961,0.00357675,0.00305862,0.00706303,0.000893336,0.720149,0.00444096,0.0152738,1924,764,40.0154,-1.61157
707,260,40.017,2.35724,0.00603848,0.00475713,0.0044878,0.0099311,0.00086451,0.714498,0.0063522,0.0150571,1931,764,40.017,-2.35727
714,260,40.0437,3.10706,0.00814126,0.00635571,0.00652414,0.0138334,0.000663545,0.7174,0.00900925,0.0304709,1938,764,40.0437,-3.10708
721,260,40.0813,3.88367,0,0,0,0,0,0,0,-1,1945,764,40.0813,-3.88366
728,260,33.4344,5.75409,0,0,0,0,0,0,0,-1,1952,764,33.4345,-5.75408
735,260,26.9788,4.85681,0,0,0,0,0,0,0,-1,1959,764,26.9787,-4.85678
742,260,32.1443,1.73688,0,0,0,0,0,0,0,-1,1966,764,32.1442,-1.73688
749,260,33.6013,2.94733,0,0,0,0,0,0,0,-1,1973,764,33.6013,-2.9473
756,260,0,0,0,0,0,0,0,0,0,-1,1980,764,0,0
763,260,0,0,0,0,0,0,0,0,0,-1,1987,764,0,0
770,260,0,0,0,0,0,0,0,0,0,-1,1994,764,0,0
777,260,0,0,0,0,0,0,0,0,0,-1,2001,764,0,0
784,260,0,0,0,0,0,0,0,0,0,-1,2008,764,0,0
791,260,0,0,0,0,0,0,0,0,0,-1,2015,764,0,0
798,260,0,0,0,0,0,0,0,0,0,-1,2022,764,0,0
805,260,0,0,0,0,0,0,0,0,0,-1,2029,764,0,0
812,260,0,0,0,0,0,0,0,0,0,-1,2036,764,0,0
-700,253,0,0,0,0,0,0,0,0,0,-1,524,771,0,0
-693,253,0,0,0,0,0,0,0,0,0,-1,531,771,0,0
-686,253,0,0,0,0,0,0,0,0,0,-1,538,771,0,0
-679,253,0,0,0,0,0,0,0,0,0,-1,545,771,0,0
-672,253,0,0,0,0,0,0,0,0,0,-1,552,771,0,0
-665,253,0,0,0,0,0,0,0,0,0,-1,559,771,0,0
-658,253,0,0,0,0,0,0,0,0,0,-1,566,771,0,0
-651,253,0,0,0,0,0,0,0,0,0,-1,573,771,0,0
-644,253,0,0,0,0,0,0,0,0,0,-1,580,771,0,0
-637,253,-24.7979,-0.491394,0,0,0,0,0,0,0,-1,587,771,-24.7978,0.491371
-630,253,-25.156,0.540405,0,0,0,0,0,0,0,-1,594,771,-25.156,-0.540421
-623,253,-20.808,2.84314,0,0,0,0,0,0,0,-1,601,771,-20.8081,-2.84312
-616,253,-25.0877,2.96875,0,0,0,0,0,0,0,-1,608,771,-25.0877,-2.96876
-609,253,-24.28,2.08228,0,0,0,0,0,0,0,-1,615,771,-24.2801,-2.08227
-602,253,-27.5153,2.9566,0,0,0,0,0,0,0,-1,622,771,-27.5153,-2.95663
-595,253,-28.3453,2.90515,0,0,0,0,0,0,0,-1,629,771,-28.3454,-2.90518
-588,253,-27.8585,1.3053,-7.93967e-05,0.003962,-0.00628786,0.00854587,-0.00466327,-0.940869,0.00773534,0.0410505,636,771,-27.8585,-1.30531
-581,253,-27.7573,0.623596,0.00119094,0.00409843,-0.00370921,0.0066286,-0.00133924,-0.972163,0.00492653,0.0269041,643,771,-27.7573,-0.623573
-574,253,-27.7752,-0.017334,0.000357939,0.00339514,-0.00234475,0.0046701,-0.000917025,-1.07276,0.00345983,0.0210383,650,771,-27.7752,0.0173143
-567,253,-27.8122,-0.7453,-0.000232023,0.0023755,-0.00116318,0.00281896,-0.00067548,-1.20656,0.0021403,0.0167043,657,771,-27.8122,0.745273
-560,253,-27.8408,-1.37933,-0.000678076,0.00132152,-0.00016821,0.00133557,-0.000692127,-1.48745,0.00119018,0.0132791,664,771,-27.8408,1.37934
-553,253,-27.8849,-2.07922,-0.00113475,0.000170197,0.000709361,0.000481525,-0.00144608,1.15722,0.00115841,0.0123964,671,771,-27.885,2.07924
-546,253,-27.9202,-2.78394,-0.00150146,-0.00123471,0.00143784,7.5935e-05,-0.0028121,0.831646,0.00190055,0.0111985,678,771,-27.9202,2.78396
-539,253,-27.9631,-3.50696,-0.0015876,-0.0029236,0.00218015,2.45848e-05,-0.00453579,0.636739,0.00303209,0.0137561,685,771,-27.9631,3.50696
-532,253,-27.9567,-4.20917,-0.00143968,-0.00402665,0.00241891,9.87086e-06,-0.0054762,0.539873,0.00365409,0.0189398,692,771,-27.9567,4.20916
-525,253,-27.9863,-4.93195,-0.000976248,-0.00482379,0.00233448,0.000124992,-0.00592503,0.440776,0.00399233,0.019968,699,771,-27.9863,4.93195
-518,253,-28.0771,-5.65045,-0.000826596,-0.00532835,0.00204575,-3.58354e-05,-0.00611911,0.368847,0.00406751,0.0367005,706,771,-28.0771,5.65048
-511,253,-28.2896,-6.27448,0,0,0,0,0,0,0,-1,713,771,-28.2896,6.27447
-504,253,-19.317,-4.1723,0,0,0,0,0,0,0,-1,720,771,-19.317,4.1723
-497,253,-21.7737,-1.76837,0,0,0,0,0,0,0,-1,727,771,-21.7738,1.7684
-490,253,-29.7674,0.438354,0,0,0,0,0,0,0,-1,734,771,-29.7674,-0.438339
-483,253,-45.4489,1.59302,0,0,0,0,0,0,0,-1,741,771,-45.4489,-1.59303
-476,253,-46.2409,0.884888,0,0,0,0,0,0,0,-1,748,771,-46.2409,-0.884915
-469,253,-46.3259,0.820251,0,0,0,0,0,0,0,-1,755,771,-46.3259,-0.820254
-462,253,-46.1552,0.742554,0,0,0,0,0,0,0,-1,762,771,-46.1552,-0.74255
-455,253,-45.5858,0.991638,0,0,0,0,0,0,0,-1,769,771,-45.5857,-0.991648
-448,253,0,0,0,0,0,0,0,0,0,-1,776,771,0,0
-441,253,0,0,0,0,0,0,0,0,0,-1,783,771,0,0
-434,253,0,0,0,0,0,0,0,0,0,-1,790,771,0,0
-427,253,0,0,0,0,0,0,0,0,0,-1,797,771,0,0
-420,253,0,0,0,0,0,0,0,0,0,-1,804,771,0,0
-413,253,0,0,0,0,0,0,0,0,0,-1,811,771,0,0
-406,253,0,0,0,0,0,0,0,0,0,-1,818,771,0,0
-399,253,0,0,0,0,0,0,0,0,0,-1,825,771,0,0
-392,253,0,0,0,0,0,0,0,0,0,-1,832,771,0,0
-385,253,0,0,0,0,0,0,0,0,0,-1,839,771,0,0
-378,253,0,0,0,0,0,0,0,0,0,-1,846,771,0,0
-371,253,0,0,0,0,0,0,0,0,0,-1,853,771,0,0
-364,253,0,0,0,0,0,0,0,0,0,-1,860,771,0,0
-357,253,0,0,0,0,0,0,0,0,0,-1,867,771,0,0
-350,253,0,0,0,0,0,0,0,0,0,-1,874,771,0,0
-343,253,0,0,0,0,0,0,0,0,0,-1,881,771,0,0
-336,253,0,0,0,0,0,0,0,0,0,-1,888,771,0,0
-329,253,0,0,0,0,0,0,0,0,0,-1,895,771,0,0
-322,253,0,0,0,0,0,0,0,0,0,-1,902,771,0,0
-315,253,0,0,0,0,0,0,0,0,0,-1,909,771,0,0
-308,253,0,0,0,0,0,0,0,0,0,-1,916,771,0,0
-301,253,0,0,0,0,0,0,0,0,0,-1,923,771,0,0
-294,253,0,0,0,0,0,0,0,0,0,-1,930,771,0,0
-287,253,0,0,0,0,0,0,0,0,0,-1,937,771,0,0
-280,253,0,0,0,0,0,0,0,0,0,-1,944,771,0,0
-273,253,0,0,0,0,0,0,0,0,0,-1,951,771,0,0
-266,253,0,0,0,0,0,0,0,0,0,-1,958,771,0,0
-259,253,0,0,0,0,0,0,0,0,0,-1,965,771,0,0
-252,253,0,0,0,0,0,0,0,0,0,-1,972,771,0,0
-245,253,0,0,0,0,0,0,0,0,0,-1,979,771,0,0
-238,253,0,0,0,0,0,0,0,0,0,-1,986,771,0,0
-231,253,0,0,0,0,0,0,0,0,0,-1,993,771,0,0
-224,253,0,0,0,0,0,0,0,0,0,-1,1000,771,0,0
-217,253,0,0,0,0,0,0,0,0,0,-1,1007,771,0,0
-210,253,0,0,0,0,0,0,0,0,0,-1,1014,771,0,0
-203,253,0,0,0,0,0,0,0,0,0,-1,1021,771,0,0
-196,253,0,0,0,0,0,0,0,0,0,-1,1028,771,0,0
-189,253,0,0,0,0,0,0,0,0,0,-1,1035,771,0,0
-182,253,0,0,0,0,0,0,0,0,0,-1,1042,771,0,0
-175,253,0,0,0,0,0,0,0,0,0,-1,1049,771,0,0
-168,253,0,0,0,0,0,0,0,0,0,-1,1056,771,0,0
-161,253,0,0,0,0,0,0,0,0,0,-1,1063,771,0,0
-154,253,0,0,0,0,0,0,0,0,0,-1,1070,771,0,0
-147,253,0,0,0,0,0,0,0,0,0,-1,1077,771,0,0
-140,253,0,0,0,0,0,0,0,0,0,-1,1084,771,0,0
-133,253,0,0,0,0,0,0,0,0,0,-1,1091,771,0,0
-126,253,0,0,0,0,0,0,0,0,0,-1,1098,771,0,0
-119,253,0,0,0,0,0,0,0,0,0,-1,1105,771,0,0
-112,253,0,0,0,0,0,0,0,0,0,-1,1112,771,0,0
-105,253,0,0,0,0,0,0,0,0,0,-1,1119,771,0,0
-98,253,0,0,0,0,0,0,0,0,0,-1,1126,771,0,0
-91,253,0,0,0,0,0,0,0,0,0,-1,1133,771,0,0
-84,253,0,0,0,0,0,0,0,0,0,-1,1140,771,0,0
-77,253,0,0,0,0,0,0,0,0,0,-1,1147,771,0,0
-70,253,0,0,0,0,0,0,0,0,0,-1,1154,771,0,0
-63,253,0,0,0,0,0,0,0,0,0,-1,1161,771,0,0
-56,253,0,0,0,0,0,0,0,0,0,-1,1168,771,0,0
-49,253,0,0,0,0,0,0,0,0,0,-1,1175,771,0,0
-42,253,0,0,0,0,0,0,0,0,0,-1,1182,771,0,0
-35,253,0,0,0,0,0,0,0,0,0,-1,1189,771,0,0
-28,253,0,0,0,0,0,0,0,0,0,-1,1196,771,0,0
-21,253,0,0,0,0,0,0,0,0,0,-1,1203,771,0,0
-14,253,0,0,0,0,0,0,0,0,0,-1,1210,771,0,0
-7,253,0,0,0,0,0,0,0,0,0,-1,1217,771,0,0
0,253,0,0,0,0,0,0,0,0,0,-1,1224,771,0,0
7,253,0,0,0,0,0,0,0,0,0,-1,1231,771,0,0
14,253,0,0,0,0,0,0,0,0,0,-1,1238,771,0,0
21,253,0,0,0,0,0,0,0,0,0,-1,1245,771,0,0
28,253,0,0,0,0,0,0,0,0,0,-1,1252,771,0,0
35,253,0,0,0,0,0,0,0,0,0,-1,1259,771,0,0
42,253,0,0,0,0,0,0,0,0,0,-1,1266,771,0,0
49,253,0,0,0,0,0,0,0,0,0,-1,1273,771,0,0
56,253,0,0,0,0,0,0,0,0,0,-1,1280,771,0,0
63,253,0,0,0,0,0,0,0,0,0,-1,1287,771,0,0
70,253,0,0,0,0,0,0,0,0,0,-1,1294,771,0,0
77,253,0,0,0,0,0,0,0,0,0,-1,1301,771,0,0
84,253,0,0,0,0,0,0,0,0,0,-1,1308,771,0,0
91,253,0,0,0,0,0,0,0,0,0,-1,1315,771,0,0
98,253,0,0,0,0,0,0,0,0,0,-1,1322,771,0,0
105,253,0,0,0,0,0,0,0,0,0,-1,1329,771,0,0
112,253,0,0,0,0,0,0,0,0,0,-1,1336,771,0,0
119,253,0,0,0,0,0,0,0,0,0,-1,1343,771,0,0
126,253,0,0,0,0,0,0,0,0,0,-1,1350,771,0,0
133,253,0,0,0,0,0,0,0,0,0,-1,1357,771,0,0
140,253,0,0,0,0,0,0,0,0,0,-1,1364,771,0,0
147,253,0,0,0,0,0,0,0,0,0,-1,1371,771,0,0
154,253,0,0,0,0,0,0,0,0,0,-1,1378,771,0,0
161,253,0,0,0,0,0,0,0,0,0,-1,1385,771,0,0
168,253,0,0,0,0,0,0,0,0,0,-1,1392,771,0,0
175,253,0,0,0,0,0,0,0,0,0,-1,1399,771,0,0
182,253,0,0,0,0,0,0,0,0,0,-1,1406,771,0,0
189,253,0,0,0,0,0,0,0,0,0,-1,1413,771,0,0
196,253,0,0,0,0,0,0,0,0,0,-1,1420,771,0,0
203,253,0,0,0,0,0,0,0,0,0,-1,1427,771,0,0
210,253,0,0,0,0,0,0,0,0,0,-1,1434,771,0,0
217,253,0,0,0,0,0,0,0,0,0,-1,1441,771,0,0
224,253,0,0,0,0,0,0,0,0,0,-1,1448,771,0,0
231,253,0,0,0,0,0,0,0,0,0,-1,1455,771,0,0
238,253,0,0,0,0,0,0,0,0,0,-1,1462,771,0,0
245,253,0,0,0,0,0,0,0,0,0,-1,1469,771,0,0
252,253,0,0,0,0,0,0,0,0,0,-1,1476,771,0,0
259,253,0,0,0,0,0,0,0,0,0,-1,1483,771,0,0
266,253,0,0,0,0,0,0,0,0,0,-1,1490,771,0,0
273,253,0,0,0,0,0,0,0,0,0,-1,1497,771,0,0
280,253,0,0,0,0,0,0,0,0,0,-1,1504,771,0,0
287,253,0,0,0,0,0,0,0,0,0,-1,1511,771,0,0
294,253,0,0,0,0,0,0,0,0,0,-1,1518,771,0,0
301,253,0,0,0,0,0,0,0,0,0,-1,1525,771,0,0
308,253,0,0,0,0,0,0,0,0,0,-1,1532,771,0,0
315,253,0,0,0,0,0,0,0,0,0,-1,1539,771,0,0
322,253,0,0,0,0,0,0,0,0,0,-1,1546,771,0,0
329,253,0,0,0,0,0,0,0,0,0,-1,1553,771,0,0
336,253,0,0,0,0,0,0,0,0,0,-1,1560,771,0,0
343,253,0,0,0,0,0,0,0,0,0,-1,1567,771,0,0
350,253,0,0,0,0,0,0,0,0,0,-1,1574,771,0,0
357,253,0,0,0,0,0,0,0,0,0,-1,1581,771,0,0
364,253,0,0,0,0,0,0,0,0,0,-1,1588,771,0,0
371,253,0,0,0,0,0,0,0,0,0,-1,1595,771,0,0
378,253,0,0,0,0,0,0,0,0,0,-1,1602,771,0,0
385,253,0,0,0,0,0,0,0,0,0,-1,1609,771,0,0
392,253,0,0,0,0,0,0,0,0,0,-1,1616,771,0,0
399,253,0,0,0,0,0,0,0,0,0,-1,1623,771,0,0
406,253,0,0,0,0,0,0,0,0,0,-1,1630,771,0,0
413,253,0,0,0,0,0,0,0,0,0,-1,1637,771,0,0
420,253,0,0,0,0,0,0,0,0,0,-1,1644,771,0,0
427,253,0,0,0,0,0,0,0,0,0,-1,1651,771,0,0
434,253,0,0,0,0,0,0,0,0,0,-1,1658,771,0,0
441,253,0,0,0,0,0,0,0,0,0,-1,1665,771,0,0
448,253,0,0,0,0,0,0,0,0,0,-1,1672,771,0,0
455,253,0,0,0,0,0,0,0,0,0,-1,1679,771,0,0
462,253,0,0,0,0,0,0,0,0,0,-1,1686,771,0,0
469,253,0,0,0,0,0,0,0,0,0,-1,1693,771,0,0
476,253,0,0,0,0,0,0,0,0,0,-1,1700,771,0,0
483,253,0,0,0,0,0,0,0,0,0,-1,1707,771,0,0
490,253,0,0,0,0,0,0,0,0,0,-1,1714,771,0,0
497,253,0,0,0,0,0,0,0,0,0,-1,1721,771,0,0
504,253,0,0,0,0,0,0,0,0,0,-1,1728,771,0,0
511,253,0,0,0,0,0,0,0,0,0,-1,1735,771,0,0
518,253,0,0,0,0,0,0,0,0,0,-1,1742,771,0,0
525,253,0,0,0,0,0,0,0,0,0,-1,1749,771,0,0
532,253,0,0,0,0,0,0,0,0,0,-1,1756,771,0,0
539,253,0,0,0,0,0,0,0,0,0,-1,1763,771,0,0
546,253,0,0,0,0,0,0,0,0,0,-1,1770,771,0,0
553,253,0,0,0,0,0,0,0,0,0,-1,1777,771,0,0
560,253,0,0,0,0,0,0,0,0,0,-1,1784,771,0,0
567,253,0,0,0,0,0,0,0,0,0,-1,1791,771,0,0
574,253,59.7574,2.69061,0,0,0,0,0,0,0,-1,1798,771,59.7575,-2.69059
581,253,60.3481,2.72089,0,0,0,0,0,0,0,-1,1805,771,60.3482,-2.72088
588,253,60.689,2.63904,0,0,0,0,0,0,0,-1,1812,771,60.689,-2.63906
595,253,61.2864,2.17529,0,0,0,0,0,0,0,-1,1819,771,61.2864,-2.17527
602,253,60.8674,2.67102,0,0,0,0,0,0,0,-1,1826,771,60.8675,-2.67105
609,253,60.439,3.2243,0,0,0,0,0,0,0,-1,1833,771,60.439,-3.22432
616,253,58.416,2.69031,0,0,0,0,0,0,0,-1,1840,771,58.4161,-2.69031
623,253,48.8328,3.01001,0,0,0,0,0,0,0,-1,1847,771,48.8328,-3.01002
630,253,33.561,2.96838,0,0,0,0,0,0,0,-1,1854,771,33.561,-2.96836
637,253,22.3192,-0.604004,0,0,0,0,0,0,0,-1,1861,771,22.3192,0.603986
644,253,41.4554,-4.34058,0,0,0,0,0,0,0,-1,1868,771,41.4554,4.34058
651,253,41.0939,-3.36945,-0.00132968,0.00110606,0.000979127,0.00145085,-0.00167447,1.23222,0.00180594,0.0377006,1875,771,41.0939,3.36945
658,253,41.0017,-2.7005,-0.000926028,0.000570452,0.000244732,0.000609459,-0.000965034,1.41274,0.000916728,0.0216942,1882,771,41.0017,2.70051
665,253,40.9017,-2.00433,-0.000917836,0.000451036,-6.00093e-06,0.000451062,-0.000917862,-1.56641,0.00080552,0.0237136,1889,771,40.9017,2.00431
672,253,40.8687,-1.27686,-0.000550068,0.000421793,-7.84284e-05,0.000428082,-0.000556356,-1.49079,0.000569972,0.0176617,1896,771,40.8686,1.27685
679,253,40.8822,-0.488403,9.61232e-05,0.000555986,0.000143688,0.000597191,5.49185e-05,1.29153,0.000381142,0.0135176,1903,771,40.8823,0.488377
686,253,40.8457,0.253723,0.00103343,0.00116423,0.000653091,0.00175519,0.000442476,0.835301,0.00105406,0.0225641,1910,771,40.8456,-0.253722
693,253,40.7909,0.938477,0.00224848,0.00190579,0.00141877,0.00350621,0.000648051,0.725304,0.0021542,0.022036,1917,771,40.7909,-0.938452
700,253,40.7546,1.63202,0.00366539,0.00267242,0.00234124,0.00556221,0.000775599,0.680915,0.00347855,0.0164985,1924,771,40.7546,-1.63204
707,253,40.7406,2.36761,0.00528179,0.00362527,0.00356248,0.00811102,0.000796036,0.671179,0.0051625,0.0148025,1931,771,40.7406,-2.36761
714,253,40.7377,3.0838,0.00723307,0.00477518,0.00520452,0.0113518,0.000656478,0.669457,0.00735879,0.0216547,1938,771,40.7377,-3.08381
721,253,40.8157,3.89233,0.00950179,0.00590299,0.00724058,0.0151632,0.000241574,0.663608,0.0100292,0.0405385,1945,771,40.8157,-3.89234
728,253,40.9323,4.72797,0,0,0,0,0,0,0,-1,1952,771,40.9322,-4.72795
735,253,34.5735,6.15118,0,0,0,0,0,0,0,-1,1959,771,34.5734,-6.1512
742,253,31.0571,5.7337,0,0,0,0,0,0,0,-1,1966,771,31.0571,-5.73373
749,253,33.7754,3.21533,0,0,0,0,0,0,0,-1,1973,771,33.7754,-3.21533
756,253,0,0,0,0,0,0,0,0,0,-1,1980,771,0,0
763,253,0,0,0,0,0,0,0,0,0,-1,1987,771,0,0
770,253,0,0,0,0,0,0,0,0,0,-1,1994,771,0,0
777,253,0,0,0,0,0,0,0,0,0,-1,2001,771,0,0
784,253,0,0,0,0,0,0,0,0,0,-1,2008,771,0,0
791,253,0,0,0,0,0,0,0,0,0,-1,2015,771,0,0
798,253,0,0,0,0,0,0,0,0,0,-1,2022,771,0,0
805,253,0,0,0,0,0,0,0,0,0,-1,2029,771,0,0
812,253,0,0,0,0,0,0,0,0,0,-1,2036,771,0,0
-700,246,0,0,0,0,0,0,0,0,0,-1,524,778,0,0
-693,246,0,0,0,0,0,0,0,0,0,-1,531,778,0,0
-686,246,0,0,0,0,0,0,0,0,0,-1,538,778,0,0
-679,246,0,0,0,0,0,0,0,0,0,-1,545,778,0,0
-672,246,0,0,0,0,0,0,0,0,0,-1,552,778,0,0
-665,246,0,0,0,0,0,0,0,0,0,-1,559,778,0,0
-658,246,0,0,0,0,0,0,0,0,0,-1,566,778,0,0
-651,246,0,0,0,0,0,0,0,0,0,-1,573,778,0,0
-644,246,0,0,0,0,0,0,0,0,0,-1,580,778,0,0
-637,246,-24.1234,0.130432,0,0,0,0,0,0,0,-1,587,778,-24.1234,-0.130438
-630,246,-24.0781,1.38916,0,0,0,0,0,0,0,-1,594,778,-24.0781,-1.38913
-623,246,-23.9183,2.49573,0,0,0,0,0,0,0,-1,601,778,-23.9183,-2.49575
-616,246,-26.8182,2.0705,0,0,0,0,0,0,0,-1,608,778,-26.8182,-2.07052
-609,246,-26.0615,1.16388,0,0,0,0,0,0,0,-1,615,778,-26.0615,-1.16388
-602,246,-28.3367,3.20685,0,0,0,0,0,0,0,-1,622,778,-28.3367,-3.20687
-595,246,-28.3624,2.44861,-0.00561124,0.00183901,-0.012467,0.0111256,-0.0148978,-0.930575,0.0150771,0.0488499,629,778,-28.3623,-2.44861
-588,246,-28.3624,1.53027,-0.000300659,0.00343426,-0.00688389,0.0086995,-0.00556589,-0.91785,0.0083021,0.0331767,636,778,-28.3624,-1.53027
-581,246,-28.4902,0.75824,0.00143164,0.00356442,-0.00389411,0.00653552,-0.00153946,-0.919045,0.0049506,0.0190766,643,778,-28.4902,-0.758264
-574,246,-28.4467,-0.0262451,0.000817358,0.00273817,-0.00215442,0.00413655,-0.000581031,-0.995069,0.00297038,0.0195474,650,778,-28.4466,0.0262156
-567,246,-28.4857,-0.732788,0.000110554,0.00185771,-0.000976109,0.00229407,-0.000325802,-1.15041,0.00164874,0.0230252,657,778,-28.4857,0.73276
-560,246,-28.5679,-1.3681,-0.000474876,0.00089287,7.71671e-05,0.00089721,-0.000479216,1.51461,0.000806801,0.0178416,664,778,-28.5679,1.36813
-553,246,-28.5878,-2.00287,-0.00111756,-0.000174362,0.00102538,0.000482667,-0.00177459,1.00094,0.00137254,0.0135484,671,778,-28.5877,2.00285
-546,246,-28.6258,-2.71918,-0.0016687,-0.0015922,0.00173944,0.00010941,-0.00337031,0.796391,0.00228422,0.0114401,678,778,-28.6258,2.71918
-539,246,-28.6519,-3.4574,-0.00177429,-0.00329135,0.00238836,-2.69008e-05,-0.00503874,0.631639,0.00335023,0.0118853,685,778,-28.6519,3.45739
-532,246,-28.6526,-4.20178,-0.00157493,-0.00413773,0.00247502,-6.92753e-05,-0.00564339,0.546531,0.00373938,0.019358,692,778,-28.6526,4.20181
-525,246,-28.7103,-4.90265,-0.00112394,-0.00485659,0.00231703,-1.50707e-05,-0.00596546,0.446361,0.00397196,0.0384133,699,778,-28.7103,4.90266
-518,246,-28.6479,-5.48291,0,0,0,0,0,0,0,-1,706,778,-28.648,5.48292
-511,246,-28.5886,-5.38635,0,0,0,0,0,0,0,-1,713,778,-28.5886,5.38633
-504,246,-20.0047,-2.88214,0,0,0,0,0,0,0,-1,720,778,-20.0047,2.88216
-497,246,-29.4669,1.82684,0,0,0,0,0,0,0,-1,727,778,-29.4669,-1.82687
-490,246,-40.4299,1.04309,0,0,0,0,0,0,0,-1,734,778,-40.4299,-1.04308
-483,246,-46.534,0.780518,0,0,0,0,0,0,0,-1,741,778,-46.534,-0.780499
-476,246,-46.1926,0.815979,0.000876318,-0.00371363,-0.00169147,0.00143231,-0.00426961,-0.317575,0.00342517,0.0483301,748,778,-46.1926,-0.815977
-469,246,-46.0877,0.801819,-8.95134e-05,-0.00287478,-0.00226426,0.0011761,-0.0041404,-0.509692,0.0032246,0.0414459,755,778,-46.0877,-0.801832
-462,246,-46.1427,0.831055,-0.00186388,-0.00114097,-0.00312712,0.00164552,-0.00465037,-0.842936,0.0037704,0.0447776,762,778,-46.1427,-0.831064
-455,246,0,0,0,0,0,0,0,0,0,-1,769,778,0,0
-448,246,0,0,0,0,0,0,0,0,0,-1,776,778,0,0
-441,246,0,0,0,0,0,0,0,0,0,-1,783,778,0,0
-434,246,0,0,0,0,0,0,0,0,0,-1,790,778,0,0
-427,246,0,0,0,0,0,0,0,0,0,-1,797,778,0,0
-420,246,0,0,0,0,0,0,0,0,0,-1,804,778,0,0
-413,246,0,0,0,0,0,0,0,0,0,-1,811,778,0,0
-406,246,0,0,0,0,0,0,0,0,0,-1,818,778,0,0
-399,246,0,0,0,0,0,0,0,0,0,-1,825,778,0,0
-392,246,0,0,0,0,0,0,0,0,0,-1,832,778,0,0
-385,246,0,0,0,0,0,0,0,0,0,-1,839,778,0,0
-378,246,0,0,0,0,0,0,0,0,0,-1,846,778,0,0
-371,246,0,0,0,0,0,0,0,0,0,-1,853,778,0,0
-364,246,0,0,0,0,0,0,0,0,0,-1,860,778,0,0
-357,246,0,0,0,0,0,0,0,0,0,-1,867,778,0,0
-350,246,0,0,0,0,0,0,0,0,0,-1,874,778,0,0
-343,246,0,0,0,0,0,0,0,0,0,-1,881,778,0,0
-336,246,0,0,0,0,0,0,0,0,0,-1,888,778,0,0
-329,246,0,0,0,0,0,0,0,0,0,-1,895,778,0,0
-322,246,0,0,0,0,0,0,0,0,0,-1,902,778,0,0
-315,246,0,0,0,0,0,0,0,0,0,-1,909,778,0,0
-308,246,0,0,0,0,0,0,0,0,0,-1,916,778,0,0
-301,246,0,0,0,0,0,0,0,0,0,-1,923,778,0,0
-294,246,0,0,0,0,0,0,0,0,0,-1,930,778,0,0
-287,246,0,0,0,0,0,0,0,0,0,-1,937,778,0,0
-280,246,0,0,0,0,0,0,0,0,0,-1,944,778,0,0
-273,246,0,0,0,0,0,0,0,0,0,-1,951,778,0,0
-266,246,0,0,0,0,0,0,0,0,0,-1,958,778,0,0
-259,246,0,0,0,0,0,0,0,0,0,-1,965,778,0,0
-252,246,0,0,0,0,0,0,0,0,0,-1,972,778,0,0
-245,246,0,0,0,0,0,0,0,0,0,-1,979,778,0,0
-238,246,0,0,0,0,0,0,0,0,0,-1,986,778,0,0
-231,246,0,0,0,0,0,0,0,0,0,-1,993,778,0,0
-224,246,0,0,0,0,0,0,0,0,0,-1,1000,778,0,0
-217,246,0,0,0,0,0,0,0,0,0,-1,1007,778,0,0
-210,246,0,0,0,0,0,0,0,0,0,-1,1014,778,0,0
-203,246,0,0,0,0,0,0,0,0,0,-1,1021,778,0,0
-196,246,0,0,0,0,0,0,0,0,0,-1,1028,778,0,0
-189,246,0,0,0,0,0,0,0,0,0,-1,1035,778,0,0
-182,246,0,0,0,0,0,0,0,0,0,-1,1042,778,0,0
-175,246,0,0,0,0,0,0,0,0,0,-1,1049,778,0,0
-168,246,0,0,0,0,0,0,0,0,0,-1,1056,778,0,0
-161,246,0,0,0,0,0,0,0,0,0,-1,1063,778,0,0
-154,246,0,0,0,0,0,0,0,0,0,-1,1070,778,0,0
-147,246,0,0,0,0,0,0,0,0,0,-1,1077,778,0,0
-140,246,0,0,0,0,0,0,0,0,0,-1,1084,778,0,0
-133,246,0,0,0,0,0,0,0,0,0,-1,1091,778,0,0
-126,246,0,0,0,0,0,0,0,0,0,-1,1098,778,0,0
-119,246,0,0,0,0,0,0,0,0,0,-1,1105,778,0,0
-112,246,0,0,0,0,0,0,0,0,0,-1,1112,778,0,0
-105,246,0,0,0,0,0,0,0,0,0,-1,1119,778,0,0
-98,246,0,0,0,0,0,0,0,0,0,-1,1126,778,0,0
-91,246,0,0,0,0,0,0,0,0,0,-1,1133,778,0,0
-84,246,0,0,0,0,0,0,0,0,0,-1,1140,778,0,0
-77,246,0,0,0,0,0,0,0,0,0,-1,1147,778,0,0
-70,246,0,0,0,0,0,0,0,0,0,-1,1154,778,0,0
-63,246,0,0,0,0,0,0,0,0,0,-1,1161,778,0,0
-56,246,0,0,0,0,0,0,0,0,0,-1,1168,778,0,0
-49,246,0,0,0,0,0,0,0,0,0,-1,1175,778,0,0
-42,246,0,0,0,0,0,0,0,0,0,-1,1182,778,0,0
-35,246,0,0,0,0,0,0,0,0,0,-1,1189,778,0,0
-28,246,0,0,0,0,0,0,0,0,0,-1,1196,778,0,0
-21,246,0,0,0,0,0,0,0,0,0,-1,1203,778,0,0
-14,246,0,0,0,0,0,0,0,0,0,-1,1210,778,0,0
-7,246,0,0,0,0,0,0,0,0,0,-1,1217,778,0,0
0,246,0,0,0,0,0,0,0,0,0,-1,1224,778,0,0
7,246,0,0,0,0,0,0,0,0,0,-1,1231,778,0,0
14,246,0,0,0,0,0,0,0,0,0,-1,1238,778,0,0
21,246,0,0,0,0,0,0,0,0,0,-1,1245,778,0,0
28,246,0,0,0,0,0,0,0,0,0,-1,1252,778,0,0
35,246,0,0,0,0,0,0,0,0,0,-1,1259,778,0,0
42,246,0,0,0,0,0,0,0,0,0,-1,1266,778,0,0
49,246,0,0,0,0,0,0,0,0,0,-1,1273,778,0,0
56,246,0,0,0,0,0,0,0,0,0,-1,1280,778,0,0
63,246,0,0,0,0,0,0,0,0,0,-1,1287,778,0,0
70,246,0,0,0,0,0,0,0,0,0,-1,1294,778,0,0
77,246,0,0,0,0,0,0,0,0,0,-1,1301,778,0,0
84,246,0,0,0,0,0,0,0,0,0,-1,1308,778,0,0
91,246,0,0,0,0,0,0,0,0,0,-1,1315,778,0,0
98,246,0,0,0,0,0,0,0,0,0,-1,1322,778,0,0
105,246,0,0,0,0,0,0,0,0,0,-1,1329,778,0,0
112,246,0,0,0,0,0,0,0,0,0,-1,1336,778,0,0
119,246,0,0,0,0,0,0,0,0,0,-1,1343,778,0,0
126,246,0,0,0,0,0,0,0,0,0,-1,1350,778,0,0
133,246,0,0,0,0,0,0,0,0,0,-1,1357,778,0,0
140,246,0,0,0,0,0,0,0,0,0,-1,1364,778,0,0
147,246,0,0,0,0,0,0,0,0,0,-1,1371,778,0,0
154,246,0,0,0,0,0,0,0,0,0,-1,1378,778,0,0
161,246,0,0,0,0,0,0,0,0,0,-1,1385,778,0,0
168,246,0,0,0,0,0,0,0,0,0,-1,1392,778,0,0
175,246,0,0,0,0,0,0,0,0,0,-1,1399,778,0,0
182,246,0,0,0,0,0,0,0,0,0,-1,1406,778,0,0
189,246,0,0,0,0,0,0,0,0,0,-1,1413,778,0,0
196,246,0,0,0,0,0,0,0,0,0,-1,1420,778,0,0
203,246,0,0,0,0,0,0,0,0,0,-1,1427,778,0,0
210,246,0,0,0,0,0,0,0,0,0,-1,1434,778,0,0
217,246,0,0,0,0,0,0,0,0,0,-1,1441,778,0,0
224,246,0,0,0,0,0,0,0,0,0,-1,1448,778,0,0
231,246,0,0,0,0,0,0,0,0,0,-1,1455,778,0,0
238,246,0,0,0,0,0,0,0,0,0,-1,1462,778,0,0
245,246,0,0,0,0,0,0,0,0,0,-1,1469,778,0,0
252,246,0,0,0,0,0,0,0,0,0,-1,1476,778,0,0
259,246,0,0,0,0,0,0,0,0,0,-1,1483,778,0,0
266,246,0,0,0,0,0,0,0,0,0,-1,1490,778,0,0
273,246,0,0,0,0,0,0,0,0,0,-1,1497,778,0,0
280,246,0,0,0,0,0,0,0,0,0,-1,1504,778,0,0
287,246,0,0,0,0,0,0,0,0,0,-1,1511,778,0,0
294,246,0,0,0,0,0,0,0,0,0,-1,1518,778,0,0
301,246,0,0,0,0,0,0,0,0,0,-1,1525,778,0,0
308,246,0,0,0,0,0,0,0,0,0,-1,1532,778,0,0
315,246,0,0,0,0,0,0,0,0,0,-1,1539,778,0,0
322,246,0,0,0,0,0,0,0,0,0,-1,1546,778,0,0
329,246,0,0,0,0,0,0,0,0,0,-1,1553,778,0,0
336,246,0,0,0,0,0,0,0,0,0,-1,1560,778,0,0
343,246,0,0,0,0,0,0,0,0,0,-1,1567,778,0,0
350,246,0,0,0,0,0,0,0,0,0,-1,1574,778,0,0
357,246,0,0,0,0,0,0,0,0,0,-1,1581,778,0,0
364,246,0,0,0,0,0,0,0,0,0,-1,1588,778,0,0
371,246,0,0,0,0,0,0,0,0,0,-1,1595,778,0,0
378,246,0,0,0,0,0,0,0,0,0,-1,1602,778,0,0
385,246,0,0,0,0,0,0,0,0,0,-1,1609,778,0,0
392,246,0,0,0,0,0,0,0,0,0,-1,1616,778,0,0
399,246,0,0,0,0,0,0,0,0,0,-1,1623,778,0,0
406,246,0,0,0,0,0,0,0,0,0,-1,1630,778,0,0
413,246,0,0,0,0,0,0,0,0,0,-1,1637,778,0,0
420,246,0,0,0,0,0,0,0,0,0,-1,1644,778,0,0
427,246,0,0,0,0,0,0,0,0,0,-1,1651,778,0,0
434,246,0,0,0,0,0,0,0,0,0,-1,1658,778,0,0
441,246,0,0,0,0,0,0,0,0,0,-1,1665,778,0,0
448,246,0,0,0,0,0,0,0,0,0,-1,1672,778,0,0
455,246,0,0,0,0,0,0,0,0,0,-1,1679,778,0,0
462,246,0,0,0,0,0,0,0,0,0,-1,1686,778,0,0
469,246,0,0,0,0,0,0,0,0,0,-1,1693,778,0,0
476,246,0,0,0,0,0,0,0,0,0,-1,1700,778,0,0
483,246,0,0,0,0,0,0,0,0,0,-1,1707,778,0,0
490,246,0,0,0,0,0,0,0,0,0,-1,1714,778,0,0
497,246,0,0,0,0,0,0,0,0,0,-1,1721,778,0,0
504,246,0,0,0,0,0,0,0,0,0,-1,1728,778,0,0
511,246,0,0,0,0,0,0,0,0,0,-1,1735,778,0,0
518,246,0,0,0,0,0,0,0,0,0,-1,1742,778,0,0
525,246,0,0,0,0,0,0,0,0,0,-1,1749,778,0,0
532,246,0,0,0,0,0,0,0,0,0,-1,1756,778,0,0
539,246,0,0,0,0,0,0,0,0,0,-1,1763,778,0,0
546,246,0,0,0,0,0,0,0,0,0,-1,1770,778,0,0
553,246,0,0,0,0,0,0,0,0,0,-1,1777,778,0,0
560,246,0,0,0,0,0,0,0,0,0,-1,1784,778,0,0
567,246,0,0,0,0,0,0,0,0,0,-1,1791,778,0,0
574,246,0,0,0,0,0,0,0,0,0,-1,1798,778,0,0
581,246,60.3607,2.729,0.0104789,-0.00756766,-0.00272375,0.010881,-0.00796979,-0.146581,0.0109267,0.0385378,1805,778,60.3607,-2.729
588,246,60.5316,2.62463,0.00656272,-0.00464651,-0.000195529,0.00656613,-0.00464992,-0.0174365,0.00650702,0.0423862,1812,778,60.5316,-2.62465
595,246,60.9574,2.42279,0,0,0,0,0,0,0,-1,1819,778,60.9573,-2.42276
602,246,60.5985,2.8584,0.00251395,-0.00148177,0.00128251,0.00289018,-0.00185799,0.285344,0.00276286,0.0478449,1826,778,60.5985,-2.8584
609,246,60.238,3.29346,0,0,0,0,0,0,0,-1,1833,778,60.238,-3.29349
616,246,59.8417,3.77905,0,0,0,0,0,0,0,-1,1840,778,59.8417,-3.77906
623,246,55.8947,3.95953,0,0,0,0,0,0,0,-1,1847,778,55.8947,-3.95952
630,246,49.5938,1.99902,0,0,0,0,0,0,0,-1,1854,778,49.5937,-1.999
637,246,29.5785,0.837585,0,0,0,0,0,0,0,-1,1861,778,29.5785,-0.837606
644,246,28.1232,-1.43188,0,0,0,0,0,0,0,-1,1868,778,28.1232,1.43188
651,246,41.774,-3.30768,0,0,0,0,0,0,0,-1,1875,778,41.774,3.30767
658,246,41.5613,-2.802,-0.00117518,0.000672047,8.93779e-05,0.000676361,-0.0011795,1.52256,0.00108453,0.0461644,1882,778,41.5613,2.80201
665,246,41.6396,-1.9668,-0.0013642,0.000486974,-0.000228175,0.000514684,-0.00139191,-1.44995,0.00113895,0.0277329,1889,778,41.6396,1.96679
672,246,41.6145,-1.19489,-0.00118558,0.000275238,-0.000397052,0.000376182,-0.00128653,-1.32184,0.00100678,0.0226894,1896,778,41.6145,1.19491
679,246,41.6235,-0.480408,-0.000710084,0.000174713,-0.000314066,0.000274858,-0.000810229,-1.26212,0.000651398,0.0217909,1903,778,41.6235,0.480436
686,246,41.6108,0.276001,0.000148614,0.000669925,9.51101e-05,0.000686735,0.000131804,1.39586,0.000420826,0.0224296,1910,778,41.6109,-0.276018
693,246,41.5713,0.976318,0.00141141,0.00133543,0.000824566,0.00219886,0.000547977,0.762379,0.00132167,0.0180749,1917,778,41.5713,-0.976312
700,246,41.5194,1.66614,0.00297684,0.00194497,0.00171386,0.00425074,0.000671072,0.639195,0.00263873,0.0144055,1924,778,41.5194,-1.66612
707,246,41.4801,2.40601,0.00469503,0.00277209,0.0028605,0.00675132,0.000715792,0.62327,0.00428227,0.0130164,1931,778,41.4801,-2.406
714,246,41.4625,3.13483,0.00673204,0.00365373,0.00432906,0.00978742,0.000598345,0.614597,0.00633492,0.0132873,1938,778,41.4626,-3.1348
721,246,41.4167,3.83514,0.00912457,0.00440231,0.00610428,0.0133085,0.000218428,0.600861,0.0088004,0.0183295,1945,778,41.4167,-3.83516
728,246,41.5334,4.73413,0.0120055,0.00445138,0.00779321,0.0168887,-0.00043182,0.559747,0.0114058,0.0415037,1952,778,41.5334,-4.73415
735,246,41.7529,5.72668,0,0,0,0,0,0,0,-1,1959,778,41.7529,-5.7267
742,246,31.7356,6.70013,0,0,0,0,0,0,0,-1,1966,778,31.7356,-6.70011
749,246,32.3883,7.69324,0,0,0,0,0,0,0,-1,1973,778,32.3883,-7.69322
756,246,33.6919,3.45264,0,0,0,0,0,0,0,-1,1980,778,33.6919,-3.45262
763,246,0,0,0,0,0,0,0,0,0,-1,1987,778,0,0
770,246,0,0,0,0,0,0,0,0,0,-1,1994,778,0,0
777,246,0,0,0,0,0,0,0,0,0,-1,2001,778,0,0
784,246,0,0,0,0,0,0,0,0,0,-1,2008,778,0,0
791,246,0,0,0,0,0,0,0,0,0,-1,2015,778,0,0
798,246,0,0,0,0,0,0,0,0,0,-1,2022,778,0,0
805,246,0,0,0,0,0,0,0,0,0,-1,2029,778,0,0
812,246,0,0,0,0,0,0,0,0,0,-1,2036,778,0,0
-700,239,0,0,0,0,0,0,0,0,0,-1,524,785,0,0
-693,239,0,0,0,0,0,0,0,0,0,-1,531,785,0,0
-686,239,0,0,0,0,0,0,0,0,0,-1,538,785,0,0
-679,239,0,0,0,0,0,0,0,0,0,-1,545,785,0,0
-672,239,0,0,0,0,0,0,0,0,0,-1,552,785,0,0
-665,239,0,0,0,0,0,0,0,0,0,-1,559,785,0,0
-658,239,0,0,0,0,0,0,0,0,0,-1,566,785,0,0
-651,239,0,0,0,0,0,0,0,0,0,-1,573,785,0,0
-644,239,0,0,0,0,0,0,0,0,0,-1,580,785,0,0
-637,239,-23.2709,0.465088,0,0,0,0,0,0,0,-1,587,785,-23.271,-0.465116
-630,239,-23.4006,0.956299,0,0,0,0,0,0,0,-1,594,785,-23.4005,-0.956285
-623,239,-30.6328,2.52185,0,0,0,0,0,0,0,-1,601,785,-30.6328,-2.52183
-616,239,-29.1425,1.42139,0,0,0,0,0,0,0,-1,608,785,-29.1425,-1.42139
-609,239,-27.8569,0.322937,0,0,0,0,0,0,0,-1,615,785,-27.857,-0.322963
-602,239,-28.9364,3.77722,0,0,0,0,0,0,0,-1,622,785,-28.9364,-3.7772
-595,239,-28.9991,2.65552,-0.00483666,0.00135244,-0.0119905,0.0106413,-0.0141255,-0.911684,0.0143462,0.0448406,629,785,-28.9991,-2.65553
-588,239,-29.0744,1.58563,-0.000235622,0.00282714,-0.00645608,0.00793097,-0.00533946,-0.901846,0.00771023,0.0218825,636,785,-29.0744,-1.58563
-581,239,-29.1964,0.785645,0.00171969,0.00305378,-0.00352499,0.00597429,-0.00120082,-0.878909,0.00443762,0.0117995,643,785,-29.1963,-0.785634
-574,239,-29.1929,0.0493164,0.00120646,0.00226499,-0.00183542,0.00364594,-0.000174486,-0.925771,0.00249082,0.0133575,650,785,-29.1929,-0.0493416
-567,239,-29.2103,-0.677002,0.000455778,0.00151936,-0.000743973,0.00190206,7.30757e-05,-1.09569,0.0012444,0.0175784,657,785,-29.2103,0.677012
-560,239,-29.2642,-1.3147,-0.000213005,0.00065219,0.000299368,0.000745674,-0.000306489,1.26812,0.000624857,0.0177688,664,785,-29.2642,1.31469
-553,239,-29.2952,-1.96332,-0.00102173,-0.000349682,0.00125598,0.000614444,-0.00198586,0.916108,0.00156934,0.0147029,671,785,-29.2952,1.96334
-546,239,-29.3409,-2.68439,-0.00167825,-0.00175162,0.00186629,0.000151715,-0.00358159,0.775571,0.00243987,0.0151557,678,785,-29.341,2.68441
-539,239,-29.4786,-3.38745,-0.00170397,-0.0034827,0.00235942,-7.18611e-05,-0.00511481,0.605162,0.00338617,0.0178351,685,785,-29.4785,3.38744
-532,239,-29.5475,-4.07434,-0.00147227,-0.00414086,0.00234043,-0.000112502,-0.00550063,0.526325,0.00363016,0.0249035,692,785,-29.5475,4.07434
-525,239,-29.5242,-4.53955,-0.00106384,-0.00483676,0.00216422,-7.93096e-05,-0.00582129,0.426932,0.0038547,0.0382655,699,785,-29.5242,4.53957
-518,239,-29.7451,-4.92322,0,0,0,0,0,0,0,-1,706,785,-29.7451,4.92322
-511,239,-20.9849,-2.09235,0,0,0,0,0,0,0,-1,713,785,-20.9848,2.09234
-504,239,-25.5015,2.00421,0,0,0,0,0,0,0,-1,720,785,-25.5015,-2.00422
-497,239,-40.2453,1.4447,0,0,0,0,0,0,0,-1,727,785,-40.2453,-1.4447
-490,239,-46.6079,0.083252,0,0,0,0,0,0,0,-1,734,785,-46.6079,-0.0832796
-483,239,-46.2473,0.943054,0.0016938,-0.00550125,-0.000959574,0.00181957,-0.00562702,-0.130332,0.00448271,0.0486333,741,785,-46.2472,-0.943039
-476,239,-46.2462,0.677551,0.00150538,-0.00448562,-0.00162496,0.00191774,-0.00489798,-0.248521,0.00405851,0.0417391,748,785,-46.2461,-0.677522
-469,239,-46.1109,0.825867,0.000802885,-0.00349414,-0.00213409,0.00168265,-0.00437391,-0.391015,0.00360999,0.0434059,755,785,-46.1109,-0.825872
-462,239,-46.1261,0.913147,-0.000696496,-0.00141551,-0.00285321,0.00181977,-0.00393177,-0.722728,0.00339446,0.045602,762,785,-46.1261,-0.913123
-455,239,0,0,0,0,0,0,0,0,0,-1,769,785,0,0
-448,239,0,0,0,0,0,0,0,0,0,-1,776,785,0,0
-441,239,0,0,0,0,0,0,0,0,0,-1,783,785,0,0
-434,239,0,0,0,0,0,0,0,0,0,-1,790,785,0,0
-427,239,0,0,0,0,0,0,0,0,0,-1,797,785,0,0
-420,239,0,0,0,0,0,0,0,0,0,-1,804,785,0,0
-413,239,0,0,0,0,0,0,0,0,0,-1,811,785,0,0
-406,239,0,0,0,0,0,0,0,0,0,-1,818,785,0,0
-399,239,0,0,0,0,0,0,0,0,0,-1,825,785,0,0
-392,239,0,0,0,0,0,0,0,0,0,-1,832,785,0,0
-385,239,0,0,0,0,0,0,0,0,0,-1,839,785,0,0
-378,239,0,0,0,0,0,0,0,0,0,-1,846,785,0,0
-371,239,0,0,0,0,0,0,0,0,0,-1,853,785,0,0
-364,239,0,0,0,0,0,0,0,0,0,-1,860,785,0,0
-357,239,0,0,0,0,0,0,0,0,0,-1,867,785,0,0
-350,239,0,0,0,0,0,0,0,0,0,-1,874,785,0,0
-343,239,0,0,0,0,0,0,0,0,0,-1,881,785,0,0
-336,239,0,0,0,0,0,0,0,0,0,-1,888,785,0,0
-329,239,0,0,0,0,0,0,0,0,0,-1,895,785,0,0
-322,239,0,0,0,0,0,0,0,0,0,-1,902,785,0,0
-315,239,0,0,0,0,0,0,0,0,0,-1,909,785,0,0
-308,239,0,0,0,0,0,0,0,0,0,-1,916,785,0,0
-301,239,0,0,0,0,0,0,0,0,0,-1,923,785,0,0
-294,239,0,0,0,0,0,0,0,0,0,-1,930,785,0,0
-287,239,0,0,0,0,0,0,0,0,0,-1,937,785,0,0
-280,239,0,0,0,0,0,0,0,0,0,-1,944,785,0,0
-273,239,0,0,0,0,0,0,0,0,0,-1,951,785,0,0
-266,239,0,0,0,0,0,0,0,0,0,-1,958,785,0,0
-259,239,0,0,0,0,0,0,0,0,0,-1,965,785,0,0
-252,239,0,0,0,0,0,0,0,0,0,-1,972,785,0,0
-245,239,0,0,0,0,0,0,0,0,0,-1,979,785,0,0
-238,239,0,0,0,0,0,0,0,0,0,-1,986,785,0,0
-231,239,0,0,0,0,0,0,0,0,0,-1,993,785,0,0
-224,239,0,0,0,0,0,0,0,0,0,-1,1000,785,0,0
-217,239,0,0,0,0,0,0,0,0,0,-1,1007,785,0,0
-210,239,0,0,0,0,0,0,0,0,0,-1,1014,785,0,0
-203,239,0,0,0,0,0,0,0,0,0,-1,1021,785,0,0
-196,239,0,0,0,0,0,0,0,0,0,-1,1028,785,0,0
-189,239,0,0,0,0,0,0,0,0,0,-1,1035,785,0,0
-182,239,0,0,0,0,0,0,0,0,0,-1,1042,785,0,0
-175,239,0,0,0,0,0,0,0,0,0,-1,1049,785,0,0
-168,239,0,0,0,0,0,0,0,0,0,-1,1056,785,0,0
-161,239,0,0,0,0,0,0,0,0,0,-1,1063,785,0,0
-154,239,0,0,0,0,0,0,0,0,0,-1,1070,785,0,0
-147,239,0,0,0,0,0,0,0,0,0,-1,1077,785,0,0
-140,239,0,0,0,0,0,0,0,0,0,-1,1084,785,0,0
-133,239,0,0,0,0,0,0,0,0,0,-1,1091,785,0,0
-126,239,0,0,0,0,0,0,0,0,0,-1,1098,785,0,0
-119,239,0,0,0,0,0,0,0,0,0,-1,1105,785,0,0
-112,239,0,0,0,0,0,0,0,0,0,-1,1112,785,0,0
-105,239,0,0,0,0,0,0,0,0,0,-1,1119,785,0,0
-98,239,0,0,0,0,0,0,0,0,0,-1,1126,785,0,0
-91,239,0,0,0,0,0,0,0,0,0,-1,1133,785,0,0
-84,239,0,0,0,0,0,0,0,0,0,-1,1140,785,0,0
-77,239,0,0,0,0,0,0,0,0,0,-1,1147,785,0,0
-70,239,0,0,0,0,0,0,0,0,0,-1,1154,785,0,0
-63,239,0,0,0,0,0,0,0,0,0,-1,1161,785,0,0
-56,239,0,0,0,0,0,0,0,0,0,-1,1168,785,0,0
-49,239,0,0,0,0,0,0,0,0,0,-1,1175,785,0,0
-42,239,0,0,0,0,0,0,0,0,0,-1,1182,785,0,0
-35,239,0,0,0,0,0,0,0,0,0,-1,1189,785,0,0
-28,239,0,0,0,0,0,0,0,0,0,-1,1196,785,0,0
-21,239,0,0,0,0,0,0,0,0,0,-1,1203,785,0,0
-14,239,0,0,0,0,0,0,0,0,0,-1,1210,785,0,0
-7,239,0,0,0,0,0,0,0,0,0,-1,1217,785,0,0
0,239,0,0,0,0,0,0,0,0,0,-1,1224,785,0,0
7,239,0,0,0,0,0,0,0,0,0,-1,1231,785,0,0
14,239,0,0,0,0,0,0,0,0,0,-1,1238,785,0,0
21,239,0,0,0,0,0,0,0,0,0,-1,1245,785,0,0
28,239,0,0,0,0,0,0,0,0,0,-1,1252,785,0,0
35,239,0,0,0,0,0,0,0,0,0,-1,1259,785,0,0
42,239,0,0,0,0,0,0,0,0,0,-1,1266,785,0,0
49,239,0,0,0,0,0,0,0,0,0,-1,1273,785,0,0
56,239,0,0,0,0,0,0,0,0,0,-1,1280,785,0,0
63,239,0,0,0,0,0,0,0,0,0,-1,1287,785,0,0
70,239,0,0,0,0,0,0,0,0,0,-1,1294,785,0,0
77,239,0,0,0,0,0,0,0,0,0,-1,1301,785,0,0
84,239,0,0,0,0,0,0,0,0,0,-1,1308,785,0,0
91,239,0,0,0,0,0,0,0,0,0,-1,1315,785,0,0
98,239,0,0,0,0,0,0,0,0,0,-1,1322,785,0,0
105,239,0,0,0,0,0,0,0,0,0,-1,1329,785,0,0
112,239,0,0,0,0,0,0,0,0,0,-1,1336,785,0,0
119,239,0,0,0,0,0,0,0,0,0,-1,1343,785,0,0
126,239,0,0,0,0,0,0,0,0,0,-1,1350,785,0,0
133,239,0,0,0,0,0,0,0,0,0,-1,1357,785,0,0
140,239,0,0,0,0,0,0,0,0,0,-1,1364,785,0,0
147,239,0,0,0,0,0,0,0,0,0,-1,1371,785,0,0
154,239,0,0,0,0,0,0,0,0,0,-1,1378,785,0,0
161,239,0,0,0,0,0,0,0,0,0,-1,1385,785,0,0
168,239,0,0,0,0,0,0,0,0,0,-1,1392,785,0,0
175,239,0,0,0,0,0,0,0,0,0,-1,1399,785,0,0
182,239,0,0,0,0,0,0,0,0,0,-1,1406,785,0,0
189,239,0,0,0,0,0,0,0,0,0,-1,1413,785,0,0
196,239,0,0,0,0,0,0,0,0,0,-1,1420,785,0,0
203,239,0,0,0,0,0,0,0,0,0,-1,1427,785,0,0
210,239,0,0,0,0,0,0,0,0,0,-1,1434,785,0,0
217,239,0,0,0,0,0,0,0,0,0,-1,1441,785,0,0
224,239,0,0,0,0,0,0,0,0,0,-1,1448,785,0,0
231,239,0,0,0,0,0,0,0,0,0,-1,1455,785,0,0
238,239,0,0,0,0,0,0,0,0,0,-1,1462,785,0,0
245,239,0,0,0,0,0,0,0,0,0,-1,1469,785,0,0
252,239,0,0,0,0,0,0,0,0,0,-1,1476,785,0,0
259,239,0,0,0,0,0,0,0,0,0,-1,1483,785,0,0
266,239,0,0,0,0,0,0,0,0,0,-1,1490,785,0,0
273,239,0,0,0,0,0,0,0,0,0,-1,1497,785,0,0
280,239,0,0,0,0,0,0,0,0,0,-1,1504,785,0,0
287,239,0,0,0,0,0,0,0,0,0,-1,1511,785,0,0
294,239,0,0,0,0,0,0,0,0,0,-1,1518,785,0,0
301,239,0,0,0,0,0,0,0,0,0,-1,1525,785,0,0
308,239,0,0,0,0,0,0,0,0,0,-1,1532,785,0,0
315,239,0,0,0,0,0,0,0,0,0,-1,1539,785,0,0
322,239,0,0,0,0,0,0,0,0,0,-1,1546,785,0,0
329,239,0,0,0,0,0,0,0,0,0,-1,1553,785,0,0
336,239,0,0,0,0,0,0,0,0,0,-1,1560,785,0,0
343,239,0,0,0,0,0,0,0,0,0,-1,1567,785,0,0
350,239,0,0,0,0,0,0,0,0,0,-1,1574,785,0,0
357,239,0,0,0,0,0,0,0,0,0,-1,1581,785,0,0
364,239,0,0,0,0,0,0,0,0,0,-1,1588,785,0,0
371,239,0,0,0,0,0,0,0,0,0,-1,1595,785,0,0
378,239,0,0,0,0,0,0,0,0,0,-1,1602,785,0,0
385,239,0,0,0,0,0,0,0,0,0,-1,1609,785,0,0
392,239,0,0,0,0,0,0,0,0,0,-1,1616,785,0,0
399,239,0,0,0,0,0,0,0,0,0,-1,1623,785,0,0
406,239,0,0,0,0,0,0,0,0,0,-1,1630,785,0,0
413,239,0,0,0,0,0,0,0,0,0,-1,1637,785,0,0
420,239,0,0,0,0,0,0,0,0,0,-1,1644,785,0,0
427,239,0,0,0,0,0,0,0,0,0,-1,1651,785,0,0
434,239,0,0,0,0,0,0,0,0,0,-1,1658,785,0,0
441,239,0,0,0,0,0,0,0,0,0,-1,1665,785,0,0
448,239,0,0,0,0,0,0,0,0,0,-1,1672,785,0,0
455,239,0,0,0,0,0,0,0,0,0,-1,1679,785,0,0
462,239,0,0,0,0,0,0,0,0,0,-1,1686,785,0,0
469,239,0,0,0,0,0,0,0,0,0,-1,1693,785,0,0
476,239,0,0,0,0,0,0,0,0,0,-1,1700,785,0,0
483,239,0,0,0,0,0,0,0,0,0,-1,1707,785,0,0
490,239,0,0,0,0,0,0,0,0,0,-1,1714,785,0,0
497,239,0,0,0,0,0,0,0,0,0,-1,1721,785,0,0
504,239,0,0,0,0,0,0,0,0,0,-1,1728,785,0,0
511,239,0,0,0,0,0,0,0,0,0,-1,1735,785,0,0
518,239,0,0,0,0,0,0,0,0,0,-1,1742,785,0,0
525,239,0,0,0,0,0,0,0,0,0,-1,1749,785,0,0
532,239,0,0,0,0,0,0,0,0,0,-1,1756,785,0,0
539,239,0,0,0,0,0,0,0,0,0,-1,1763,785,0,0
546,239,0,0,0,0,0,0,0,0,0,-1,1770,785,0,0
553,239,0,0,0,0,0,0,0,0,0,-1,1777,785,0,0
560,239,0,0,0,0,0,0,0,0,0,-1,1784,785,0,0
567,239,0,0,0,0,0,0,0,0,0,-1,1791,785,0,0
574,239,0,0,0,0,0,0,0,0,0,-1,1798,785,0,0
581,239,60.3651,2.80878,0.0104906,-0.00911916,-0.00509722,0.0117364,-0.0103649,-0.239707,0.0127684,0.0369181,1805,785,60.3651,-2.8088
588,239,60.4601,2.6629,0.00616373,-0.00480971,-0.000833485,0.00622668,-0.00487266,-0.0753785,0.00642408,0.0385415,1812,785,60.4601,-2.6629
595,239,60.5833,2.59515,0.00382811,-0.00247116,0.000652549,0.003895,-0.00253805,0.102146,0.00374156,0.0352232,1819,785,60.5832,-2.59518
602,239,60.4962,2.76849,0.00224633,-0.00113044,0.00126233,0.00266605,-0.00155016,0.321,0.00246249,0.042208,1826,785,60.4962,-2.7685
609,239,60.5641,2.71252,0,0,0,0,0,0,0,-1,1833,785,60.564,-2.7125
616,239,55.8469,3.72443,0,0,0,0,0,0,0,-1,1840,785,55.8469,-3.72445
623,239,60.6725,2.53601,0,0,0,0,0,0,0,-1,1847,785,60.6725,-2.536
630,239,54.5767,3.64667,0,0,0,0,0,0,0,-1,1854,785,54.5766,-3.64667
637,239,39.5542,2.54114,0,0,0,0,0,0,0,-1,1861,785,39.5543,-2.54114
644,239,18.3466,0.735413,0,0,0,0,0,0,0,-1,1868,785,18.3465,-0.735414
651,239,34.2471,-2.15778,0,0,0,0,0,0,0,-1,1875,785,34.2471,2.1578
658,239,42.3389,-2.75385,0,0,0,0,0,0,0,-1,1882,785,42.3389,2.75382
665,239,42.3787,-1.91077,-0.00168973,0.000512507,-0.000411436,0.000586864,-0.00176408,-1.392,0.0014129,0.0303228,1889,785,42.3786,1.91079
672,239,42.3552,-1.11877,-0.00173836,0.00019522,-0.000673146,0.000406483,-0.00194962,-1.26669,0.0014543,0.0224954,1896,785,42.3553,1.1188
679,239,42.3427,-0.40271,-0.00147597,-8.80529e-05,-0.000740823,0.000233073,-0.0017971,-1.16177,0.00128283,0.0232587,1903,785,42.3427,0.402734
686,239,42.3331,0.328674,-0.000754687,0.000310218,-0.000466881,0.000485921,-0.00093039,-1.21086,0.000831021,0.0228187,1910,785,42.3331,-0.328659
693,239,42.2932,1.01196,0.000504938,0.000896821,0.000201112,0.000981663,0.000420096,1.17159,0.000568722,0.0153993,1917,785,42.2933,-1.01199
700,239,42.2581,1.71326,0.00217619,0.00142498,0.00108649,0.00295017,0.000650999,0.618977,0.00178969,0.0117739,1924,785,42.2581,-1.71328
707,239,42.2244,2.43768,0.00396391,0.00217752,0.00220362,0.00544847,0.000692958,0.592851,0.00342477,0.0111196,1931,785,42.2244,-2.4377
714,239,42.1957,3.14008,0.0060355,0.00289994,0.00356493,0.00836216,0.000573284,0.578238,0.00539384,0.0105336,1938,785,42.1956,-3.1401
721,239,42.1329,3.87689,0.00845788,0.00346142,0.00517511,0.0117062,0.000213094,0.560526,0.00773408,0.0224383,1945,785,42.1329,-3.87692
728,239,42.1129,4.73511,0.0113395,0.00335494,0.00666779,0.0151188,-0.000424386,0.515653,0.0102236,0.044778,1952,785,42.1129,-4.73511
735,239,42.3995,5.7829,0,0,0,0,0,0,0,-1,1959,785,42.3995,-5.78288
742,239,32.4141,7.6665,0,0,0,0,0,0,0,-1,1966,785,32.4141,-7.6665
749,239,32.1489,3.4411,0,0,0,0,0,0,0,-1,1973,785,32.149,-3.44109
756,239,32.9064,3.6687,0,0,0,0,0,0,0,-1,1980,785,32.9063,-3.66873
763,239,0,0,0,0,0,0,0,0,0,-1,1987,785,0,0
770,239,0,0,0,0,0,0,0,0,0,-1,1994,785,0,0
777,239,0,0,0,0,0,0,0,0,0,-1,2001,785,0,0
784,239,0,0,0,0,0,0,0,0,0,-1,2008,785,0,0
791,239,0,0,0,0,0,0,0,0,0,-1,2015,785,0,0
798,239,0,0,0,0,0,0,0,0,0,-1,2022,785,0,0
805,239,0,0,0,0,0,0,0,0,0,-1,2029,785,0,0
812,239,0,0,0,0,0,0,0,0,0,-1,2036,785,0,0
-700,232,0,0,0,0,0,0,0,0,0,-1,524,792,0,0
-693,232,0,0,0,0,0,0,0,0,0,-1,531,792,0,0
-686,232,0,0,0,0,0,0,0,0,0,-1,538,792,0,0
-679,232,0,0,0,0,0,0,0,0,0,-1,545,792,0,0
-672,232,0,0,0,0,0,0,0,0,0,-1,552,792,0,0
-665,232,0,0,0,0,0,0,0,0,0,-1,559,792,0,0
-658,232,0,0,0,0,0,0,0,0,0,-1,566,792,0,0
-651,232,0,0,0,0,0,0,0,0,0,-1,573,792,0,0
-644,232,-41.2348,4.28168,0,0,0,0,0,0,0,-1,580,792,-41.2348,-4.28166
-637,232,-42.1427,3.51453,0,0,0,0,0,0,0,-1,587,792,-42.1427,-3.51452
-630,232,-32.2345,1.80212,0,0,0,0,0,0,0,-1,594,792,-32.2345,-1.80211
-623,232,-31.5665,1.05115,0,0,0,0,0,0,0,-1,601,792,-31.5664,-1.05112
-616,232,-30.6812,0.432861,0,0,0,0,0,0,0,-1,608,792,-30.6812,-0.432881
-609,232,-29.7142,-0.478943,0,0,0,0,0,0,0,-1,615,792,-29.7142,0.478965
-602,232,-30.758,2.63586,0,0,0,0,0,0,0,-1,622,792,-30.758,-2.63588
-595,232,-29.7783,2.73669,-0.00262777,0.000598508,-0.0108762,0.0099806,-0.0120099,-0.85902,0.0127142,0.0379473,629,792,-29.7782,-2.73668
-588,232,-29.8262,1.57275,0.00060477,0.00222006,-0.00574915,0.00721802,-0.00439319,-0.855182,0.00676954,0.0139752,636,792,-29.8262,-1.57277
-581,232,-29.8734,0.794128,0.0020578,0.00272661,-0.00309366,0.00550388,-0.000719476,-0.839236,0.00393109,0.00862617,643,792,-29.8734,-0.794107
-574,232,-29.8907,0.104553,0.0016031,0.00195865,-0.00145782,0.0032495,0.000312252,-0.846072,0.00207011,0.00925265,650,792,-29.8907,-0.104536
-567,232,-29.9141,-0.577087,0.000793802,0.00132429,-0.000460816,0.00159074,0.000527345,-1.04654,0.000935637,0.0110857,657,792,-29.9141,0.577077
-560,232,-29.9565,-1.25415,7.94814e-05,0.000578634,0.00056099,0.000943059,-0.000284944,0.994695,0.000742151,0.0150855,664,792,-29.9565,1.25417
-553,232,-30.0226,-1.95142,-0.000782981,-0.000213232,0.00154816,0.00107605,-0.00207226,0.876384,0.00184776,0.0145175,671,792,-30.0226,1.95142
-546,232,-30.0523,-2.66608,-0.00147128,-0.0015284,0.00203947,0.000539829,-0.00353951,0.778397,0.00255867,0.0226228,678,792,-30.0523,2.66609
-539,232,-30.2538,-3.24066,-0.00142349,-0.00315397,0.0023919,0.000254855,-0.00483231,0.611851,0.00330976,0.0390725,685,792,-30.2538,3.24066
-532,232,-30.5048,-3.87524,-0.00117668,-0.00360188,0.00232076,0.000229173,-0.00500774,0.544655,0.00341745,0.0392136,692,792,-30.5048,3.87526
-525,232,-30.2999,-4.0025,0,0,0,0,0,0,0,-1,699,792,-30.2999,4.00253
-518,232,-20.8098,-3.08154,0,0,0,0,0,0,0,-1,706,792,-20.8098,3.08155
-511,232,-21.6708,-0.962708,0,0,0,0,0,0,0,-1,713,792,-21.6708,0.962731
-504,232,-34.2155,0.346985,0,0,0,0,0,0,0,-1,720,792,-34.2155,-0.346955
-497,232,-46.2164,0.174866,0,0,0,0,0,0,0,-1,727,792,-46.2165,-0.174852
-490,232,-46.4049,0.355164,0.00138582,-0.00661276,-3.12333e-05,0.00138594,-0.00661288,-0.00390477,0.00493586,0.0461953,734,792,-46.4049,-0.355139
-483,232,-46.0333,0.973938,0.00186584,-0.00599627,-0.00101853,0.00199565,-0.00612607,-0.126762,0.00488703,0.0453843,741,792,-46.0333,-0.973967
-476,232,-46.0715,0.839844,0.00189739,-0.00494789,-0.00183915,0.00236022,-0.00541073,-0.246539,0.00460035,0.0369718,748,792,-46.0715,-0.83987
-469,232,-46.1295,0.825256,0.00145208,-0.00358723,-0.0024127,0.00242095,-0.00455609,-0.381858,0.00409059,0.0351358,755,792,-46.1295,-0.825275
-462,232,0,0,0,0,0,0,0,0,0,-1,762,792,0,0
-455,232,0,0,0,0,0,0,0,0,0,-1,769,792,0,0
-448,232,0,0,0,0,0,0,0,0,0,-1,776,792,0,0
-441,232,0,0,0,0,0,0,0,0,0,-1,783,792,0,0
-434,232,0,0,0,0,0,0,0,0,0,-1,790,792,0,0
-427,232,0,0,0,0,0,0,0,0,0,-1,797,792,0,0
-420,232,0,0,0,0,0,0,0,0,0,-1,804,792,0,0
-413,232,0,0,0,0,0,0,0,0,0,-1,811,792,0,0
-406,232,0,0,0,0,0,0,0,0,0,-1,818,792,0,0
-399,232,0,0,0,0,0,0,0,0,0,-1,825,792,0,0
-392,232,0,0,0,0,0,0,0,0,0,-1,832,792,0,0
-385,232,0,0,0,0,0,0,0,0,0,-1,839,792,0,0
-378,232,0,0,0,0,0,0,0,0,0,-1,846,792,0,0
-371,232,0,0,0,0,0,0,0,0,0,-1,853,792,0,0
-364,232,0,0,0,0,0,0,0,0,0,-1,860,792,0,0
-357,232,0,0,0,0,0,0,0,0,0,-1,867,792,0,0
-350,232,0,0,0,0,0,0,0,0,0,-1,874,792,0,0
-343,232,0,0,0,0,0,0,0,0,0,-1,881,792,0,0
-336,232,0,0,0,0,0,0,0,0,0,-1,888,792,0,0
-329,232,0,0,0,0,0,0,0,0,0,-1,895,792,0,0
-322,232,0,0,0,0,0,0,0,0,0,-1,902,792,0,0
-315,232,0,0,0,0,0,0,0,0,0,-1,909,792,0,0
-308,232,0,0,0,0,0,0,0,0,0,-1,916,792,0,0
-301,232,0,0,0,0,0,0,0,0,0,-1,923,792,0,0
-294,232,0,0,0,0,0,0,0,0,0,-1,930,792,0,0
-287,232,0,0,0,0,0,0,0,0,0,-1,937,792,0,0
-280,232,0,0,0,0,0,0,0,0,0,-1,944,792,0,0
-273,232,0,0,0,0,0,0,0,0,0,-1,951,792,0,0
-266,232,0,0,0,0,0,0,0,0,0,-1,958,792,0,0
-259,232,0,0,0,0,0,0,0,0,0,-1,965,792,0,0
-252,232,0,0,0,0,0,0,0,0,0,-1,972,792,0,0
-245,232,0,0,0,0,0,0,0,0,0,-1,979,792,0,0
-238,232,0,0,0,0,0,0,0,0,0,-1,986,792,0,0
-231,232,0,0,0,0,0,0,0,0,0,-1,993,792,0,0
-224,232,0,0,0,0,0,0,0,0,0,-1,1000,792,0,0
-217,232,0,0,0,0,0,0,0,0,0,-1,1007,792,0,0
-210,232,0,0,0,0,0,0,0,0,0,-1,1014,792,0,0
-203,232,0,0,0,0,0,0,0,0,0,-1,1021,792,0,0
-196,232,0,0,0,0,0,0,0,0,0,-1,1028,792,0,0
-189,232,0,0,0,0,0,0,0,0,0,-1,1035,792,0,0
-182,232,0,0,0,0,0,0,0,0,0,-1,1042,792,0,0
-175,232,0,0,0,0,0,0,0,0,0,-1,1049,792,0,0
-168,232,0,0,0,0,0,0,0,0,0,-1,1056,792,0,0
-161,232,0,0,0,0,0,0,0,0,0,-1,1063,792,0,0
-154,232,0,0,0,0,0,0,0,0,0,-1,1070,792,0,0
-147,232,0,0,0,0,0,0,0,0,0,-1,1077,792,0,0
-140,232,0,0,0,0,0,0,0,0,0,-1,1084,792,0,0
-133,232,0,0,0,0,0,0,0,0,0,-1,1091,792,0,0
-126,232,0,0,0,0,0,0,0,0,0,-1,1098,792,0,0
-119,232,0,0,0,0,0,0,0,0,0,-1,1105,792,0,0
-112,232,0,0,0,0,0,0,0,0,0,-1,1112,792,0,0
-105,232,0,0,0,0,0,0,0,0,0,-1,1119,792,0,0
-98,232,0,0,0,0,0,0,0,0,0,-1,1126,792,0,0
-91,232,0,0,0,0,0,0,0,0,0,-1,1133,792,0,0
-84,232,0,0,0,0,0,0,0,0,0,-1,1140,792,0,0
-77,232,0,0,0,0,0,0,0,0,0,-1,1147,792,0,0
-70,232,0,0,0,0,0,0,0,0,0,-1,1154,792,0,0
-63,232,0,0,0,0,0,0,0,0,0,-1,1161,792,0,0
-56,232,0,0,0,0,0,0,0,0,0,-1,1168,792,0,0
-49,232,0,0,0,0,0,0,0,0,0,-1,1175,792,0,0
-42,232,0,0,0,0,0,0,0,0,0,-1,1182,792,0,0
-35,232,0,0,0,0,0,0,0,0,0,-1,1189,792,0,0
-28,232,0,0,0,0,0,0,0,0,0,-1,1196,792,0,0
-21,232,0,0,0,0,0,0,0,0,0,-1,1203,792,0,0
-14,232,0,0,0,0,0,0,0,0,0,-1,1210,792,0,0
-7,232,0,0,0,0,0,0,0,0,0,-1,1217,792,0,0
0,232,0,0,0,0,0,0,0,0,0,-1,1224,792,0,0
7,232,0,0,0,0,0,0,0,0,0,-1,1231,792,0,0
14,232,0,0,0,0,0,0,0,0,0,-1,1238,792,0,0
21,232,0,0,0,0,0,0,0,0,0,-1,1245,792,0,0
28,232,0,0,0,0,0,0,0,0,0,-1,1252,792,0,0
35,232,0,0,0,0,0,0,0,0,0,-1,1259,792,0,0
42,232,0,0,0,0,0,0,0,0,0,-1,1266,792,0,0
49,232,0,0,0,0,0,0,0,0,0,-1,1273,792,0,0
56,232,0,0,0,0,0,0,0,0,0,-1,1280,792,0,0
63,232,0,0,0,0,0,0,0,0,0,-1,1287,792,0,0
70,232,0,0,0,0,0,0,0,0,0,-1,1294,792,0,0
77,232,0,0,0,0,0,0,0,0,0,-1,1301,792,0,0
84,232,0,0,0,0,0,0,0,0,0,-1,1308,792,0,0
91,232,0,0,0,0,0,0,0,0,0,-1,1315,792,0,0
98,232,0,0,0,0,0,0,0,0,0,-1,1322,792,0,0
105,232,0,0,0,0,0,0,0,0,0,-1,1329,792,0,0
112,232,0,0,0,0,0,0,0,0,0,-1,1336,792,0,0
119,232,0,0,0,0,0,0,0,0,0,-1,1343,792,0,0
126,232,0,0,0,0,0,0,0,0,0,-1,1350,792,0,0
133,232,0,0,0,0,0,0,0,0,0,-1,1357,792,0,0
140,232,0,0,0,0,0,0,0,0,0,-1,1364,792,0,0
147,232,0,0,0,0,0,0,0,0,0,-1,1371,792,0,0
154,232,0,0,0,0,0,0,0,0,0,-1,1378,792,0,0
161,232,0,0,0,0,0,0,0,0,0,-1,1385,792,0,0
168,232,0,0,0,0,0,0,0,0,0,-1,1392,792,0,0
175,232,0,0,0,0,0,0,0,0,0,-1,1399,792,0,0
182,232,0,0,0,0,0,0,0,0,0,-1,1406,792,0,0
189,232,0,0,0,0,0,0,0,0,0,-1,1413,792,0,0
196,232,0,0,0,0,0,0,0,0,0,-1,1420,792,0,0
203,232,0,0,0,0,0,0,0,0,0,-1,1427,792,0,0
210,232,0,0,0,0,0,0,0,0,0,-1,1434,792,0,0
217,232,0,0,0,0,0,0,0,0,0,-1,1441,792,0,0
224,232,0,0,0,0,0,0,0,0,0,-1,1448,792,0,0
231,232,0,0,0,0,0,0,0,0,0,-1,1455,792,0,0
238,232,0,0,0,0,0,0,0,0,0,-1,1462,792,0,0
245,232,0,0,0,0,0,0,0,0,0,-1,1469,792,0,0
252,232,0,0,0,0,0,0,0,0,0,-1,1476,792,0,0
259,232,0,0,0,0,0,0,0,0,0,-1,1483,792,0,0
266,232,0,0,0,0,0,0,0,0,0,-1,1490,792,0,0
273,232,0,0,0,0,0,0,0,0,0,-1,1497,792,0,0
280,232,0,0,0,0,0,0,0,0,0,-1,1504,792,0,0
287,232,0,0,0,0,0,0,0,0,0,-1,1511,792,0,0
294,232,0,0,0,0,0,0,0,0,0,-1,1518,792,0,0
301,232,0,0,0,0,0,0,0,0,0,-1,1525,792,0,0
308,232,0,0,0,0,0,0,0,0,0,-1,1532,792,0,0
315,232,0,0,0,0,0,0,0,0,0,-1,1539,792,0,0
322,232,0,0,0,0,0,0,0,0,0,-1,1546,792,0,0
329,232,0,0,0,0,0,0,0,0,0,-1,1553,792,0,0
336,232,0,0,0,0,0,0,0,0,0,-1,1560,792,0,0
343,232,0,0,0,0,0,0,0,0,0,-1,1567,792,0,0
350,232,0,0,0,0,0,0,0,0,0,-1,1574,792,0,0
357,232,0,0,0,0,0,0,0,0,0,-1,1581,792,0,0
364,232,0,0,0,0,0,0,0,0,0,-1,1588,792,0,0
371,232,0,0,0,0,0,0,0,0,0,-1,1595,792,0,0
378,232,0,0,0,0,0,0,0,0,0,-1,1602,792,0,0
385,232,0,0,0,0,0,0,0,0,0,-1,1609,792,0,0
392,232,0,0,0,0,0,0,0,0,0,-1,1616,792,0,0
399,232,0,0,0,0,0,0,0,0,0,-1,1623,792,0,0
406,232,0,0,0,0,0,0,0,0,0,-1,1630,792,0,0
413,232,0,0,0,0,0,0,0,0,0,-1,1637,792,0,0
420,232,0,0,0,0,0,0,0,0,0,-1,1644,792,0,0
427,232,0,0,0,0,0,0,0,0,0,-1,1651,792,0,0
434,232,0,0,0,0,0,0,0,0,0,-1,1658,792,0,0
441,232,0,0,0,0,0,0,0,0,0,-1,1665,792,0,0
448,232,0,0,0,0,0,0,0,0,0,-1,1672,792,0,0
455,232,0,0,0,0,0,0,0,0,0,-1,1679,792,0,0
462,232,0,0,0,0,0,0,0,0,0,-1,1686,792,0,0
469,232,0,0,0,0,0,0,0,0,0,-1,1693,792,0,0
476,232,0,0,0,0,0,0,0,0,0,-1,1700,792,0,0
483,232,0,0,0,0,0,0,0,0,0,-1,1707,792,0,0
490,232,0,0,0,0,0,0,0,0,0,-1,1714,792,0,0
497,232,0,0,0,0,0,0,0,0,0,-1,1721,792,0,0
504,232,0,0,0,0,0,0,0,0,0,-1,1728,792,0,0
511,232,0,0,0,0,0,0,0,0,0,-1,1735,792,0,0
518,232,0,0,0,0,0,0,0,0,0,-1,1742,792,0,0
525,232,0,0,0,0,0,0,0,0,0,-1,1749,792,0,0
532,232,0,0,0,0,0,0,0,0,0,-1,1756,792,0,0
539,232,0,0,0,0,0,0,0,0,0,-1,1763,792,0,0
546,232,0,0,0,0,0,0,0,0,0,-1,1770,792,0,0
553,232,0,0,0,0,0,0,0,0,0,-1,1777,792,0,0
560,232,0,0,0,0,0,0,0,0,0,-1,1784,792,0,0
567,232,0,0,0,0,0,0,0,0,0,-1,1791,792,0,0
574,232,0,0,0,0,0,0,0,0,0,-1,1798,792,0,0
581,232,0,0,0,0,0,0,0,0,0,-1,1805,792,0,0
588,232,60.4392,2.65839,0.00658215,-0.00553125,-0.00244774,0.00705806,-0.00600717,-0.192034,0.00755134,0.0371616,1812,792,60.4392,-2.65836
595,232,60.4834,2.55701,0.00392946,-0.00263224,-8.03073e-05,0.00393044,-0.00263322,-0.0122363,0.00381412,0.0367068,1819,792,60.4834,-2.55699
602,232,60.454,2.59302,0.00218152,-0.000911199,0.000947993,0.00244898,-0.00117865,0.274979,0.00213679,0.0362608,1826,792,60.454,-2.59304
609,232,60.4924,2.60352,0.00118801,0.0002713,0.00147034,0.00226978,-0.000810467,0.634304,0.00184371,0.047365,1833,792,60.4924,-2.60354
616,232,60.4386,2.74628,0,0,0,0,0,0,0,-1,1840,792,60.4386,-2.74628
623,232,60.4937,2.84351,0,0,0,0,0,0,0,-1,1847,792,60.4936,-2.84348
630,232,60.5194,3.19641,0,0,0,0,0,0,0,-1,1854,792,60.5194,-3.1964
637,232,47.0471,4.04309,0,0,0,0,0,0,0,-1,1861,792,47.0471,-4.04309
644,232,30.7756,4.24139,0,0,0,0,0,0,0,-1,1868,792,30.7757,-4.24141
651,232,31.6797,-0.564087,0,0,0,0,0,0,0,-1,1875,792,31.6797,0.564059
658,232,43.452,-2.60309,0,0,0,0,0,0,0,-1,1882,792,43.452,2.60311
665,232,43.1903,-1.86914,-0.00194057,0.000484475,-0.000506424,0.000585983,-0.00204208,-1.37298,0.00159305,0.0410707,1889,792,43.1903,1.86915
672,232,43.0024,-1.07544,-0.00220722,8.42489e-05,-0.000840778,0.000359646,-0.00248262,-1.25426,0.00178706,0.0462555,1896,792,43.0024,1.07543
679,232,43.0192,-0.338318,-0.00218306,-0.000365629,-0.00109382,0.0001477,-0.00269639,-1.13201,0.00184879,0.0215107,1903,792,43.0191,0.338333
686,232,43.0262,0.364136,-0.00164258,-9.45784e-05,-0.00101523,0.000408043,-0.0021452,-1.11109,0.00158377,0.0188533,1910,792,43.0263,-0.364128
693,232,42.9979,1.03223,-0.000433944,0.0004002,-0.000466397,0.000608808,-0.000642552,-1.15021,0.000722561,0.0109603,1917,792,42.9979,-1.0322
700,232,42.9901,1.74976,0.00131947,0.000886065,0.000373238,0.00153435,0.000671182,0.522381,0.000888168,0.0138165,1924,792,42.9901,-1.74974
707,232,42.9716,2.46954,0.00320838,0.00159773,0.00146639,0.00407603,0.000730078,0.534288,0.00250964,0.0139641,1931,792,42.9716,-2.46954
714,232,42.929,3.15845,0.00536495,0.00222812,0.00274044,0.00695406,0.000639011,0.525489,0.00443839,0.0139123,1938,792,42.9289,-3.15845
721,232,42.87,3.86871,0.00786699,0.00269014,0.00419988,0.010212,0.00034511,0.509236,0.00669594,0.0215021,1945,792,42.8701,-3.86874
728,232,42.7821,4.66687,0,0,0,0,0,0,0,-1,1952,792,42.7821,-4.66685
735,232,42.4888,5.62,0,0,0,0,0,0,0,-1,1959,792,42.4888,-5.61997
742,232,25.6461,6.00684,0,0,0,0,0,0,0,-1,1966,792,25.6461,-6.00684
749,232,31.2874,3.74713,0,0,0,0,0,0,0,-1,1973,792,31.2874,-3.74713
756,232,32.1207,3.896,0,0,0,0,0,0,0,-1,1980,792,32.1207,-3.89597
763,232,32.7255,4.05878,0,0,0,0,0,0,0,-1,1987,792,32.7255,-4.05881
770,232,0,0,0,0,0,0,0,0,0,-1,1994,792,0,0
777,232,0,0,0,0,0,0,0,0,0,-1,2001,792,0,0
784,232,0,0,0,0,0,0,0,0,0,-1,2008,792,0,0
791,232,0,0,0,0,0,0,0,0,0,-1,2015,792,0,0
798,232,0,0,0,0,0,0,0,0,0,-1,2022,792,0,0
805,232,0,0,0,0,0,0,0,0,0,-1,2029,792,0,0
812,232,0,0,0,0,0,0,0,0,0,-1,2036,792,0,0
-700,225,0,0,0,0,0,0,0,0,0,-1,524,799,0,0
-693,225,0,0,0,0,0,0,0,0,0,-1,531,799,0,0
-686,225,0,0,0,0,0,0,0,0,0,-1,538,799,0,0
-679,225,0,0,0,0,0,0,0,0,0,-1,545,799,0,0
-672,225,0,0,0,0,0,0,0,0,0,-1,552,799,0,0
-665,225,0,0,0,0,0,0,0,0,0,-1,559,799,0,0
-658,225,0,0,0,0,0,0,0,0,0,-1,566,799,0,0
-651,225,0,0,0,0,0,0,0,0,0,-1,573,799,0,0
-644,225,-40.8898,4.14661,0,0,0,0,0,0,0,-1,580,799,-40.8898,-4.14661
-637,225,-41.61,3.36749,0,0,0,0,0,0,0,-1,587,799,-41.61,-3.36751
-630,225,-30.244,4.82196,0,0,0,0,0,0,0,-1,594,799,-30.244,-4.82193
-623,225,-32.8276,-0.00836182,0,0,0,0,0,0,0,-1,601,799,-32.8276,0.00837668
-616,225,-32.0569,-0.549255,0,0,0,0,0,0,0,-1,608,799,-32.0569,0.549265
-609,225,-31.5674,3.47375,0,0,0,0,0,0,0,-1,615,799,-31.5674,-3.47378
-602,225,-31.2067,2.75732,0,0,0,0,0,0,0,-1,622,799,-31.2067,-2.75731
-595,225,-30.6254,2.28876,0.000522709,-0.000508321,-0.00970699,0.00972786,-0.00971347,-0.758869,0.0112245,0.0305478,629,799,-30.6254,-2.28876
-588,225,-30.5549,1.48865,0.00204808,0.00149975,-0.00500418,0.0067856,-0.00323777,-0.758032,0.00590659,0.0126845,636,799,-30.555,-1.48866
-581,225,-30.5623,0.810913,0.0025311,0.00234472,-0.00256066,0.00500027,-0.000124446,-0.76721,0.00337576,0.0107762,643,799,-30.5623,-0.810904
-574,225,-30.5849,0.130981,0.00176402,0.00173467,-0.000988641,0.00273809,0.000760596,-0.777977,0.00163205,0.00888659,650,799,-30.5849,-0.130975
-567,225,-30.6099,-0.558228,0.000971297,0.0012029,-0.00010665,0.00124453,0.000929668,-1.19866,0.000747184,0.0115813,657,799,-30.6099,0.558216
-560,225,-30.66,-1.22601,0.000349862,0.000609543,0.000850581,0.00134014,-0.000380731,0.861138,0.00104374,0.013549,664,799,-30.66,1.22599
-553,225,-30.7205,-1.94836,-0.000501003,9.37734e-05,0.00180737,0.00162806,-0.00203529,0.866938,0.00211939,0.0122111,671,799,-30.7205,1.94834
-546,225,-30.7397,-2.59967,-0.00116741,-0.00101209,0.00207367,0.000985369,-0.00316487,0.804115,0.00250386,0.0226367,678,799,-30.7397,2.59967
-539,225,-31.196,-3.02863,0,0,0,0,0,0,0,-1,685,799,-31.1961,3.0286
-532,225,-31.754,-3.69116,0,0,0,0,0,0,0,-1,692,799,-31.754,3.69118
-525,225,-29.1705,-3.88239,0,0,0,0,0,0,0,-1,699,799,-29.1705,3.88237
-518,225,-21.963,0.171326,0,0,0,0,0,0,0,-1,706,799,-21.9629,-0.171319
-511,225,-33.0002,0.660217,0,0,0,0,0,0,0,-1,713,799,-33.0002,-0.660239
-504,225,-46.1491,0.409973,0,0,0,0,0,0,0,-1,720,799,-46.1491,-0.409964
-497,225,-46.1792,0.423462,0.000434226,-0.00614726,0.00092737,0.000562401,-0.00627543,0.137344,0.00438313,0.0466872,727,799,-46.1792,-0.42346
-490,225,-46.1275,0.745544,0.00120934,-0.0063631,1.56792e-05,0.00120937,-0.00636313,0.00207055,0.00469739,0.0389603,734,799,-46.1275,-0.745544
-483,225,-46.0255,0.870178,0.00186026,-0.00565202,-0.00110583,0.00201966,-0.00581142,-0.143158,0.00469462,0.0333852,741,799,-46.0255,-0.870175
-476,225,-46.0399,0.842224,0.00214888,-0.00414203,-0.00210723,0.00278949,-0.00478264,-0.295128,0.00442197,0.0316787,748,799,-46.0399,-0.842233
-469,225,-46.0886,0.799377,0.0021068,-0.00174137,-0.00288844,0.00365333,-0.0032879,-0.491581,0.00400937,0.0362899,755,799,-46.0886,-0.799407
-462,225,0,0,0,0,0,0,0,0,0,-1,762,799,0,0
-455,225,0,0,0,0,0,0,0,0,0,-1,769,799,0,0
-448,225,0,0,0,0,0,0,0,0,0,-1,776,799,0,0
-441,225,0,0,0,0,0,0,0,0,0,-1,783,799,0,0
-434,225,0,0,0,0,0,0,0,0,0,-1,790,799,0,0
-427,225,0,0,0,0,0,0,0,0,0,-1,797,799,0,0
-420,225,0,0,0,0,0,0,0,0,0,-1,804,799,0,0
-413,225,0,0,0,0,0,0,0,0,0,-1,811,799,0,0
-406,225,0,0,0,0,0,0,0,0,0,-1,818,799,0,0
-399,225,0,0,0,0,0,0,0,0,0,-1,825,799,0,0
-392,225,0,0,0,0,0,0,0,0,0,-1,832,799,0,0
-385,225,0,0,0,0,0,0,0,0,0,-1,839,799,0,0
-378,225,0,0,0,0,0,0,0,0,0,-1,846,799,0,0
-371,225,0,0,0,0,0,0,0,0,0,-1,853,799,0,0
-364,225,0,0,0,0,0,0,0,0,0,-1,860,799,0,0
-357,225,0,0,0,0,0,0,0,0,0,-1,867,799,0,0
-350,225,0,0,0,0,0,0,0,0,0,-1,874,799,0,0
-343,225,0,0,0,0,0,0,0,0,0,-1,881,799,0,0
-336,225,0,0,0,0,0,0,0,0,0,-1,888,799,0,0
-329,225,0,0,0,0,0,0,0,0,0,-1,895,799,0,0
-322,225,0,0,0,0,0,0,0,0,0,-1,902,799,0,0
-315,225,0,0,0,0,0,0,0,0,0,-1,909,799,0,0
-308,225,0,0,0,0,0,0,0,0,0,-1,916,799,0,0
-301,225,0,0,0,0,0,0,0,0,0,-1,923,799,0,0
-294,225,0,0,0,0,0,0,0,0,0,-1,930,799,0,0
-287,225,0,0,0,0,0,0,0,0,0,-1,937,799,0,0
-280,225,0,0,0,0,0,0,0,0,0,-1,944,799,0,0
-273,225,0,0,0,0,0,0,0,0,0,-1,951,799,0,0
-266,225,0,0,0,0,0,0,0,0,0,-1,958,799,0,0
-259,225,0,0,0,0,0,0,0,0,0,-1,965,799,0,0
-252,225,0,0,0,0,0,0,0,0,0,-1,972,799,0,0
-245,225,0,0,0,0,0,0,0,0,0,-1,979,799,0,0
-238,225,0,0,0,0,0,0,0,0,0,-1,986,799,0,0
-231,225,0,0,0,0,0,0,0,0,0,-1,993,799,0,0
-224,225,0,0,0,0,0,0,0,0,0,-1,1000,799,0,0
-217,225,0,0,0,0,0,0,0,0,0,-1,1007,799,0,0
-210,225,0,0,0,0,0,0,0,0,0,-1,1014,799,0,0
-203,225,0,0,0,0,0,0,0,0,0,-1,1021,799,0,0
-196,225,0,0,0,0,0,0,0,0,0,-1,1028,799,0,0
-189,225,0,0,0,0,0,0,0,0,0,-1,1035,799,0,0
-182,225,0,0,0,0,0,0,0,0,0,-1,1042,799,0,0
-175,225,0,0,0,0,0,0,0,0,0,-1,1049,799,0,0
-168,225,0,0,0,0,0,0,0,0,0,-1,1056,799,0,0
-161,225,0,0,0,0,0,0,0,0,0,-1,1063,799,0,0
-154,225,0,0,0,0,0,0,0,0,0,-1,1070,799,0,0
-147,225,0,0,0,0,0,0,0,0,0,-1,1077,799,0,0
-140,225,0,0,0,0,0,0,0,0,0,-1,1084,799,0,0
-133,225,0,0,0,0,0,0,0,0,0,-1,1091,799,0,0
-126,225,0,0,0,0,0,0,0,0,0,-1,1098,799,0,0
-119,225,0,0,0,0,0,0,0,0,0,-1,1105,799,0,0
-112,225,0,0,0,0,0,0,0,0,0,-1,1112,799,0,0
-105,225,0,0,0,0,0,0,0,0,0,-1,1119,799,0,0
-98,225,0,0,0,0,0,0,0,0,0,-1,1126,799,0,0
-91,225,0,0,0,0,0,0,0,0,0,-1,1133,799,0,0
-84,225,0,0,0,0,0,0,0,0,0,-1,1140,799,0,0
-77,225,0,0,0,0,0,0,0,0,0,-1,1147,799,0,0
-70,225,0,0,0,0,0,0,0,0,0,-1,1154,799,0,0
-63,225,0,0,0,0,0,0,0,0,0,-1,1161,799,0,0
-56,225,0,0,0,0,0,0,0,0,0,-1,1168,799,0,0
-49,225,0,0,0,0,0,0,0,0,0,-1,1175,799,0,0
-42,225,0,0,0,0,0,0,0,0,0,-1,1182,799,0,0
-35,225,0,0,0,0,0,0,0,0,0,-1,1189,799,0,0
-28,225,0,0,0,0,0,0,0,0,0,-1,1196,799,0,0
-21,225,0,0,0,0,0,0,0,0,0,-1,1203,799,0,0
-14,225,0,0,0,0,0,0,0,0,0,-1,1210,799,0,0
-7,225,0,0,0,0,0,0,0,0,0,-1,1217,799,0,0
0,225,0,0,0,0,0,0,0,0,0,-1,1224,799,0,0
7,225,0,0,0,0,0,0,0,0,0,-1,1231,799,0,0
14,225,0,0,0,0,0,0,0,0,0,-1,1238,799,0,0
21,225,0,0,0,0,0,0,0,0,0,-1,1245,799,0,0
28,225,0,0,0,0,0,0,0,0,0,-1,1252,799,0,0
35,225,0,0,0,0,0,0,0,0,0,-1,1259,799,0,0
42,225,0,0,0,0,0,0,0,0,0,-1,1266,799,0,0
49,225,0,0,0,0,0,0,0,0,0,-1,1273,799,0,0
56,225,0,0,0,0,0,0,0,0,0,-1,1280,799,0,0
63,225,0,0,0,0,0,0,0,0,0,-1,1287,799,0,0
70,225,0,0,0,0,0,0,0,0,0,-1,1294,799,0,0
77,225,0,0,0,0,0,0,0,0,0,-1,1301,799,0,0
84,225,0,0,0,0,0,0,0,0,0,-1,1308,799,0,0
91,225,0,0,0,0,0,0,0,0,0,-1,1315,799,0,0
98,225,0,0,0,0,0,0,0,0,0,-1,1322,799,0,0
105,225,0,0,0,0,0,0,0,0,0,-1,1329,799,0,0
112,225,0,0,0,0,0,0,0,0,0,-1,1336,799,0,0
119,225,0,0,0,0,0,0,0,0,0,-1,1343,799,0,0
126,225,0,0,0,0,0,0,0,0,0,-1,1350,799,0,0
133,225,0,0,0,0,0,0,0,0,0,-1,1357,799,0,0
140,225,0,0,0,0,0,0,0,0,0,-1,1364,799,0,0
147,225,0,0,0,0,0,0,0,0,0,-1,1371,799,0,0
154,225,0,0,0,0,0,0,0,0,0,-1,1378,799,0,0
161,225,0,0,0,0,0,0,0,0,0,-1,1385,799,0,0
168,225,0,0,0,0,0,0,0,0,0,-1,1392,799,0,0
175,225,0,0,0,0,0,0,0,0,0,-1,1399,799,0,0
182,225,0,0,0,0,0,0,0,0,0,-1,1406,799,0,0
189,225,0,0,0,0,0,0,0,0,0,-1,1413,799,0,0
196,225,0,0,0,0,0,0,0,0,0,-1,1420,799,0,0
203,225,0,0,0,0,0,0,0,0,0,-1,1427,799,0,0
210,225,0,0,0,0,0,0,0,0,0,-1,1434,799,0,0
217,225,0,0,0,0,0,0,0,0,0,-1,1441,799,0,0
224,225,0,0,0,0,0,0,0,0,0,-1,1448,799,0,0
231,225,0,0,0,0,0,0,0,0,0,-1,1455,799,0,0
238,225,0,0,0,0,0,0,0,0,0,-1,1462,799,0,0
245,225,0,0,0,0,0,0,0,0,0,-1,1469,799,0,0
252,225,0,0,0,0,0,0,0,0,0,-1,1476,799,0,0
259,225,0,0,0,0,0,0,0,0,0,-1,1483,799,0,0
266,225,0,0,0,0,0,0,0,0,0,-1,1490,799,0,0
273,225,0,0,0,0,0,0,0,0,0,-1,1497,799,0,0
280,225,0,0,0,0,0,0,0,0,0,-1,1504,799,0,0
287,225,0,0,0,0,0,0,0,0,0,-1,1511,799,0,0
294,225,0,0,0,0,0,0,0,0,0,-1,1518,799,0,0
301,225,0,0,0,0,0,0,0,0,0,-1,1525,799,0,0
308,225,0,0,0,0,0,0,0,0,0,-1,1532,799,0,0
315,225,0,0,0,0,0,0,0,0,0,-1,1539,799,0,0
322,225,0,0,0,0,0,0,0,0,0,-1,1546,799,0,0
329,225,0,0,0,0,0,0,0,0,0,-1,1553,799,0,0
336,225,0,0,0,0,0,0,0,0,0,-1,1560,799,0,0
343,225,0,0,0,0,0,0,0,0,0,-1,1567,799,0,0
350,225,0,0,0,0,0,0,0,0,0,-1,1574,799,0,0
357,225,0,0,0,0,0,0,0,0,0,-1,1581,799,0,0
364,225,0,0,0,0,0,0,0,0,0,-1,1588,799,0,0
371,225,0,0,0,0,0,0,0,0,0,-1,1595,799,0,0
378,225,0,0,0,0,0,0,0,0,0,-1,1602,799,0,0
385,225,0,0,0,0,0,0,0,0,0,-1,1609,799,0,0
392,225,0,0,0,0,0,0,0,0,0,-1,1616,799,0,0
399,225,0,0,0,0,0,0,0,0,0,-1,1623,799,0,0
406,225,0,0,0,0,0,0,0,0,0,-1,1630,799,0,0
413,225,0,0,0,0,0,0,0,0,0,-1,1637,799,0,0
420,225,0,0,0,0,0,0,0,0,0,-1,1644,799,0,0
427,225,0,0,0,0,0,0,0,0,0,-1,1651,799,0,0
434,225,0,0,0,0,0,0,0,0,0,-1,1658,799,0,0
441,225,0,0,0,0,0,0,0,0,0,-1,1665,799,0,0
448,225,0,0,0,0,0,0,0,0,0,-1,1672,799,0,0
455,225,0,0,0,0,0,0,0,0,0,-1,1679,799,0,0
462,225,0,0,0,0,0,0,0,0,0,-1,1686,799,0,0
469,225,0,0,0,0,0,0,0,0,0,-1,1693,799,0,0
476,225,0,0,0,0,0,0,0,0,0,-1,1700,799,0,0
483,225,0,0,0,0,0,0,0,0,0,-1,1707,799,0,0
490,225,0,0,0,0,0,0,0,0,0,-1,1714,799,0,0
497,225,0,0,0,0,0,0,0,0,0,-1,1721,799,0,0
504,225,0,0,0,0,0,0,0,0,0,-1,1728,799,0,0
511,225,0,0,0,0,0,0,0,0,0,-1,1735,799,0,0
518,225,0,0,0,0,0,0,0,0,0,-1,1742,799,0,0
525,225,0,0,0,0,0,0,0,0,0,-1,1749,799,0,0
532,225,0,0,0,0,0,0,0,0,0,-1,1756,799,0,0
539,225,0,0,0,0,0,0,0,0,0,-1,1763,799,0,0
546,225,0,0,0,0,0,0,0,0,0,-1,1770,799,0,0
553,225,0,0,0,0,0,0,0,0,0,-1,1777,799,0,0
560,225,0,0,0,0,0,0,0,0,0,-1,1784,799,0,0
567,225,0,0,0,0,0,0,0,0,0,-1,1791,799,0,0
574,225,0,0,0,0,0,0,0,0,0,-1,1798,799,0,0
581,225,0,0,0,0,0,0,0,0,0,-1,1805,799,0,0
588,225,60.4454,2.8147,0.00726949,-0.00618063,-0.00444527,0.00860587,-0.00751701,-0.292035,0.00931562,0.0369812,1812,799,60.4454,-2.8147
595,225,60.4757,2.6911,0.00462448,-0.0030683,-0.00142594,0.00488029,-0.00332411,-0.177508,0.00476513,0.0360673,1819,799,60.4758,-2.69111
602,225,60.4919,2.5437,0.00262741,-0.000957961,0.000227329,0.00264177,-0.000972317,0.0630679,0.00215952,0.0338765,1826,799,60.492,-2.5437
609,225,60.4657,2.60748,0.00142897,0.000360435,0.00112618,0.00214119,-0.000351786,0.563917,0.00155802,0.0331049,1833,799,60.4657,-2.60748
616,225,60.4363,2.6554,0.000719332,0.00105898,0.00148019,0.00237906,-0.000600744,0.842515,0.00181965,0.0417932,1840,799,60.4363,-2.65538
623,225,60.4407,2.82196,0.000227395,0.00110292,0.00125672,0.00199594,-0.000665625,0.952995,0.00159936,0.0437029,1847,799,60.4407,-2.82193
630,225,60.6284,2.65576,0,0,0,0,0,0,0,-1,1854,799,60.6284,-2.65575
637,225,55.6359,2.8064,0,0,0,0,0,0,0,-1,1861,799,55.6359,-2.80637
644,225,42.0298,2.46411,0,0,0,0,0,0,0,-1,1868,799,42.0298,-2.4641
651,225,27.9657,0.579529,0,0,0,0,0,0,0,-1,1875,799,27.9657,-0.579541
658,225,44.1967,-1.59662,0,0,0,0,0,0,0,-1,1882,799,44.1966,1.59664
665,225,44.0826,-1.6416,0,0,0,0,0,0,0,-1,1889,799,44.0827,1.64162
672,225,43.7725,-0.903137,-0.00268303,-0.000146009,-0.000980538,0.000188781,-0.00301782,-1.24177,0.00207767,0.0483735,1896,799,43.7725,0.90311
679,225,43.7382,-0.304321,-0.00291192,-0.000683061,-0.00137243,-2.95761e-05,-0.0035654,-1.12641,0.00236714,0.0293597,1903,799,43.7382,0.30432
686,225,43.7427,0.362915,-0.00258875,-0.000547194,-0.00149955,0.000246035,-0.00338198,-1.08423,0.00234098,0.0119241,1910,799,43.7427,-0.362886
693,225,43.7136,1.06458,-0.00143637,-0.000127932,-0.00111034,0.000506591,-0.00207089,-1.05162,0.00157682,0.0107449,1917,799,43.7136,-1.06459
700,225,43.6991,1.78278,0.000423107,0.000382481,-0.000330912,0.000734329,7.1259e-05,-0.754744,0.000467613,0.0126308,1924,799,43.6992,-1.78277
707,225,43.6588,2.50189,0.00247804,0.00109305,0.000748081,0.00280495,0.000766146,0.411982,0.00167408,0.0130662,1931,799,43.6588,-2.50187
714,225,43.6301,3.22333,0.00483832,0.00168817,0.00198211,0.00579497,0.000731516,0.449664,0.00364403,0.0140579,1938,799,43.6302,-3.22332
721,225,43.6295,3.92316,0.00756063,0.0021107,0.00335209,0.00915561,0.000515717,0.444115,0.0059393,0.0169399,1945,799,43.6295,-3.92314
728,225,43.6256,4.64441,0,0,0,0,0,0,0,-1,1952,799,43.6256,-4.64443
735,225,43.6678,5.72839,0,0,0,0,0,0,0,-1,1959,799,43.6679,-5.72842
742,225,29.0922,3.2132,0,0,0,0,0,0,0,-1,1966,799,29.0921,-3.21322
749,225,29.9529,4.45538,0,0,0,0,0,0,0,-1,1973,799,29.9529,-4.45537
756,225,31.8855,3.83466,0,0,0,0,0,0,0,-1,1980,799,31.8855,-3.83463
763,225,29.4901,5.14417,0,0,0,0,0,0,0,-1,1987,799,29.4902,-5.14415
770,225,0,0,0,0,0,0,0,0,0,-1,1994,799,0,0
777,225,0,0,0,0,0,0,0,0,0,-1,2001,799,0,0
784,225,0,0,0,0,0,0,0,0,0,-1,2008,799,0,0
791,225,0,0,0,0,0,0,0,0,0,-1,2015,799,0,0
798,225,0,0,0,0,0,0,0,0,0,-1,2022,799,0,0
805,225,0,0,0,0,0,0,0,0,0,-1,2029,799,0,0
812,225,0,0,0,0,0,0,0,0,0,-1,2036,799,0,0
-700,218,0,0,0,0,0,0,0,0,0,-1,524,806,0,0
-693,218,0,0,0,0,0,0,0,0,0,-1,531,806,0,0
-686,218,0,0,0,0,0,0,0,0,0,-1,538,806,0,0
-679,218,0,0,0,0,0,0,0,0,0,-1,545,806,0,0
-672,218,0,0,0,0,0,0,0,0,0,-1,552,806,0,0
-665,218,0,0,0,0,0,0,0,0,0,-1,559,806,0,0
-658,218,0,0,0,0,0,0,0,0,0,-1,566,806,0,0
-651,218,-40.3778,5.1792,0,0,0,0,0,0,0,-1,573,806,-40.3778,-5.1792
-644,218,-40.7704,4.19714,-0.0530585,-0.00751314,-0.0689401,0.0423182,-0.10289,-0.944919,0.0862329,0.0477196,580,806,-40.7704,-4.19714
-637,218,-41.541,3.36328,-0.0306778,-0.00838422,-0.0573036,0.0388467,-0.0779087,-0.881459,0.0686547,0.0482492,587,806,-41.541,-3.36326
-630,218,-42.1423,2.85565,0,0,0,0,0,0,0,-1,594,806,-42.1423,-2.85567
-623,218,-42.7292,2.59015,0,0,0,0,0,0,0,-1,601,806,-42.7292,-2.59015
-616,218,-20.0258,1.87585,0,0,0,0,0,0,0,-1,608,806,-20.0258,-1.87585
-609,218,-31.1077,3.12695,0,0,0,0,0,0,0,-1,615,806,-31.1077,-3.12696
-602,218,-31.6554,2.87872,0,0,0,0,0,0,0,-1,622,806,-31.6554,-2.87874
-595,218,-31.2892,2.20416,0.00415032,-0.00147947,-0.00840211,0.0101965,-0.00752567,-0.623763,0.0102706,0.018174,629,806,-31.2892,-2.20415
-588,218,-31.2584,1.50238,0.00388452,0.000879623,-0.00407233,0.00672271,-0.00195858,-0.608674,0.00525771,0.0114827,636,806,-31.2584,-1.50236
-581,218,-31.2637,0.843201,0.00317118,0.00200923,-0.00181806,0.00449884,0.000681579,-0.630747,0.00279982,0.0114506,643,806,-31.2637,-0.843209
-574,218,-31.294,0.174255,0.00193861,0.00157445,-0.000349987,0.00215105,0.00136201,-0.545541,0.00125651,0.0109326,650,806,-31.294,-0.174233
-567,218,-31.3058,-0.533508,0.00104589,0.00119996,0.000359883,0.00149096,0.00075489,0.890834,0.000860829,0.0184212,657,806,-31.3059,0.533538
-560,218,-31.3369,-1.21191,0.000559273,0.000825557,0.00121834,0.00191801,-0.000533176,0.839823,0.00148857,0.0188869,664,806,-31.3369,1.21189
-553,218,-31.3032,-2.04889,-0.00022057,0.000686726,0.00214803,0.00242849,-0.00196233,0.889465,0.0025398,0.0194846,671,806,-31.3032,2.04889
-546,218,-31.4962,-2.82898,-0.000840262,-4.54484e-05,0.0022335,0.00182573,-0.00271144,0.873442,0.00263612,0.0261116,678,806,-31.4961,2.82896
-539,218,-31.5634,-3.44489,-0.000749876,-0.0012165,0.00230451,0.0013331,-0.00329947,0.73495,0.00275376,0.0369692,685,806,-31.5634,3.4449
-532,218,-31.4421,-3.84937,0,0,0,0,0,0,0,-1,692,806,-31.4421,3.84937
-525,218,-29.3521,-3.64417,0,0,0,0,0,0,0,-1,699,806,-29.3521,3.64414
-518,218,-23.61,2.54181,0,0,0,0,0,0,0,-1,706,806,-23.61,-2.54183
-511,218,-41.0953,1.06879,0,0,0,0,0,0,0,-1,713,806,-41.0953,-1.06876
-504,218,-45.8529,0.778015,0,0,0,0,0,0,0,-1,720,806,-45.8529,-0.778027
-497,218,-46.0587,0.72052,0.000330437,-0.00469919,0.00113606,0.000575138,-0.00494389,0.212153,0.00350341,0.0475785,727,806,-46.0587,-0.720502
-490,218,-46.0572,0.780884,0.0012006,-0.00484512,3.53692e-05,0.00120081,-0.00484533,0.00585001,0.00369609,0.0367364,734,806,-46.0572,-0.780872
-483,218,-46.1194,0.835449,0.00196739,-0.00381183,-0.00138479,0.00228207,-0.00412651,-0.223447,0.00375073,0.0325959,741,806,-46.1194,-0.835442
-476,218,-45.9781,0.799866,0.00231721,-0.00157709,-0.00269815,0.00369744,-0.00295731,-0.47284,0.00385004,0.0360163,748,806,-45.9781,-0.799868
-469,218,0,0,0,0,0,0,0,0,0,-1,755,806,0,0
-462,218,0,0,0,0,0,0,0,0,0,-1,762,806,0,0
-455,218,0,0,0,0,0,0,0,0,0,-1,769,806,0,0
-448,218,0,0,0,0,0,0,0,0,0,-1,776,806,0,0
-441,218,0,0,0,0,0,0,0,0,0,-1,783,806,0,0
-434,218,0,0,0,0,0,0,0,0,0,-1,790,806,0,0
-427,218,0,0,0,0,0,0,0,0,0,-1,797,806,0,0
-420,218,0,0,0,0,0,0,0,0,0,-1,804,806,0,0
-413,218,0,0,0,0,0,0,0,0,0,-1,811,806,0,0
-406,218,0,0,0,0,0,0,0,0,0,-1,818,806,0,0
-399,218,0,0,0,0,0,0,0,0,0,-1,825,806,0,0
-392,218,0,0,0,0,0,0,0,0,0,-1,832,806,0,0
-385,218,0,0,0,0,0,0,0,0,0,-1,839,806,0,0
-378,218,0,0,0,0,0,0,0,0,0,-1,846,806,0,0
-371,218,0,0,0,0,0,0,0,0,0,-1,853,806,0,0
-364,218,0,0,0,0,0,0,0,0,0,-1,860,806,0,0
-357,218,0,0,0,0,0,0,0,0,0,-1,867,806,0,0
-350,218,0,0,0,0,0,0,0,0,0,-1,874,806,0,0
-343,218,0,0,0,0,0,0,0,0,0,-1,881,806,0,0
-336,218,0,0,0,0,0,0,0,0,0,-1,888,806,0,0
-329,218,0,0,0,0,0,0,0,0,0,-1,895,806,0,0
-322,218,0,0,0,0,0,0,0,0,0,-1,902,806,0,0
-315,218,0,0,0,0,0,0,0,0,0,-1,909,806,0,0
-308,218,0,0,0,0,0,0,0,0,0,-1,916,806,0,0
-301,218,0,0,0,0,0,0,0,0,0,-1,923,806,0,0
-294,218,0,0,0,0,0,0,0,0,0,-1,930,806,0,0
-287,218,0,0,0,0,0,0,0,0,0,-1,937,806,0,0
-280,218,0,0,0,0,0,0,0,0,0,-1,944,806,0,0
-273,218,0,0,0,0,0,0,0,0,0,-1,951,806,0,0
-266,218,0,0,0,0,0,0,0,0,0,-1,958,806,0,0
-259,218,0,0,0,0,0,0,0,0,0,-1,965,806,0,0
-252,218,0,0,0,0,0,0,0,0,0,-1,972,806,0,0
-245,218,0,0,0,0,0,0,0,0,0,-1,979,806,0,0
-238,218,0,0,0,0,0,0,0,0,0,-1,986,806,0,0
-231,218,0,0,0,0,0,0,0,0,0,-1,993,806,0,0
-224,218,0,0,0,0,0,0,0,0,0,-1,1000,806,0,0
-217,218,0,0,0,0,0,0,0,0,0,-1,1007,806,0,0
-210,218,0,0,0,0,0,0,0,0,0,-1,1014,806,0,0
-203,218,0,0,0,0,0,0,0,0,0,-1,1021,806,0,0
-196,218,0,0,0,0,0,0,0,0,0,-1,1028,806,0,0
-189,218,0,0,0,0,0,0,0,0,0,-1,1035,806,0,0
-182,218,0,0,0,0,0,0,0,0,0,-1,1042,806,0,0
-175,218,0,0,0,0,0,0,0,0,0,-1,1049,806,0,0
-168,218,0,0,0,0,0,0,0,0,0,-1,1056,806,0,0
-161,218,0,0,0,0,0,0,0,0,0,-1,1063,806,0,0
-154,218,0,0,0,0,0,0,0,0,0,-1,1070,806,0,0
-147,218,0,0,0,0,0,0,0,0,0,-1,1077,806,0,0
-140,218,0,0,0,0,0,0,0,0,0,-1,1084,806,0,0
-133,218,0,0,0,0,0,0,0,0,0,-1,1091,806,0,0
-126,218,0,0,0,0,0,0,0,0,0,-1,1098,806,0,0
-119,218,0,0,0,0,0,0,0,0,0,-1,1105,806,0,0
-112,218,0,0,0,0,0,0,0,0,0,-1,1112,806,0,0
-105,218,0,0,0,0,0,0,0,0,0,-1,1119,806,0,0
-98,218,0,0,0,0,0,0,0,0,0,-1,1126,806,0,0
-91,218,0,0,0,0,0,0,0,0,0,-1,1133,806,0,0
-84,218,0,0,0,0,0,0,0,0,0,-1,1140,806,0,0
-77,218,0,0,0,0,0,0,0,0,0,-1,1147,806,0,0
-70,218,0,0,0,0,0,0,0,0,0,-1,1154,806,0,0
-63,218,0,0,0,0,0,0,0,0,0,-1,1161,806,0,0
-56,218,0,0,0,0,0,0,0,0,0,-1,1168,806,0,0
-49,218,0,0,0,0,0,0,0,0,0,-1,1175,806,0,0
-42,218,0,0,0,0,0,0,0,0,0,-1,1182,806,0,0
-35,218,0,0,0,0,0,0,0,0,0,-1,1189,806,0,0
-28,218,0,0,0,0,0,0,0,0,0,-1,1196,806,0,0
-21,218,0,0,0,0,0,0,0,0,0,-1,1203,806,0,0
-14,218,0,0,0,0,0,0,0,0,0,-1,1210,806,0,0
-7,218,0,0,0,0,0,0,0,0,0,-1,1217,806,0,0
0,218,0,0,0,0,0,0,0,0,0,-1,1224,806,0,0
7,218,0,0,0,0,0,0,0,0,0,-1,1231,806,0,0
14,218,0,0,0,0,0,0,0,0,0,-1,1238,806,0,0
21,218,0,0,0,0,0,0,0,0,0,-1,1245,806,0,0
28,218,0,0,0,0,0,0,0,0,0,-1,1252,806,0,0
35,218,0,0,0,0,0,0,0,0,0,-1,1259,806,0,0
42,218,0,0,0,0,0,0,0,0,0,-1,1266,806,0,0
49,218,0,0,0,0,0,0,0,0,0,-1,1273,806,0,0
56,218,0,0,0,0,0,0,0,0,0,-1,1280,806,0,0
63,218,0,0,0,0,0,0,0,0,0,-1,1287,806,0,0
70,218,0,0,0,0,0,0,0,0,0,-1,1294,806,0,0
77,218,0,0,0,0,0,0,0,0,0,-1,1301,806,0,0
84,218,0,0,0,0,0,0,0,0,0,-1,1308,806,0,0
91,218,0,0,0,0,0,0,0,0,0,-1,1315,806,0,0
98,218,0,0,0,0,0,0,0,0,0,-1,1322,806,0,0
105,218,0,0,0,0,0,0,0,0,0,-1,1329,806,0,0
112,218,0,0,0,0,0,0,0,0,0,-1,1336,806,0,0
119,218,0,0,0,0,0,0,0,0,0,-1,1343,806,0,0
126,218,0,0,0,0,0,0,0,0,0,-1,1350,806,0,0
133,218,0,0,0,0,0,0,0,0,0,-1,1357,806,0,0
140,218,0,0,0,0,0,0,0,0,0,-1,1364,806,0,0
147,218,0,0,0,0,0,0,0,0,0,-1,1371,806,0,0
154,218,0,0,0,0,0,0,0,0,0,-1,1378,806,0,0
161,218,0,0,0,0,0,0,0,0,0,-1,1385,806,0,0
168,218,0,0,0,0,0,0,0,0,0,-1,1392,806,0,0
175,218,0,0,0,0,0,0,0,0,0,-1,1399,806,0,0
182,218,0,0,0,0,0,0,0,0,0,-1,1406,806,0,0
189,218,0,0,0,0,0,0,0,0,0,-1,1413,806,0,0
196,218,0,0,0,0,0,0,0,0,0,-1,1420,806,0,0
203,218,0,0,0,0,0,0,0,0,0,-1,1427,806,0,0
210,218,0,0,0,0,0,0,0,0,0,-1,1434,806,0,0
217,218,0,0,0,0,0,0,0,0,0,-1,1441,806,0,0
224,218,0,0,0,0,0,0,0,0,0,-1,1448,806,0,0
231,218,0,0,0,0,0,0,0,0,0,-1,1455,806,0,0
238,218,0,0,0,0,0,0,0,0,0,-1,1462,806,0,0
245,218,0,0,0,0,0,0,0,0,0,-1,1469,806,0,0
252,218,0,0,0,0,0,0,0,0,0,-1,1476,806,0,0
259,218,0,0,0,0,0,0,0,0,0,-1,1483,806,0,0
266,218,0,0,0,0,0,0,0,0,0,-1,1490,806,0,0
273,218,0,0,0,0,0,0,0,0,0,-1,1497,806,0,0
280,218,0,0,0,0,0,0,0,0,0,-1,1504,806,0,0
287,218,0,0,0,0,0,0,0,0,0,-1,1511,806,0,0
294,218,0,0,0,0,0,0,0,0,0,-1,1518,806,0,0
301,218,0,0,0,0,0,0,0,0,0,-1,1525,806,0,0
308,218,0,0,0,0,0,0,0,0,0,-1,1532,806,0,0
315,218,0,0,0,0,0,0,0,0,0,-1,1539,806,0,0
322,218,0,0,0,0,0,0,0,0,0,-1,1546,806,0,0
329,218,0,0,0,0,0,0,0,0,0,-1,1553,806,0,0
336,218,0,0,0,0,0,0,0,0,0,-1,1560,806,0,0
343,218,0,0,0,0,0,0,0,0,0,-1,1567,806,0,0
350,218,0,0,0,0,0,0,0,0,0,-1,1574,806,0,0
357,218,0,0,0,0,0,0,0,0,0,-1,1581,806,0,0
364,218,0,0,0,0,0,0,0,0,0,-1,1588,806,0,0
371,218,0,0,0,0,0,0,0,0,0,-1,1595,806,0,0
378,218,0,0,0,0,0,0,0,0,0,-1,1602,806,0,0
385,218,0,0,0,0,0,0,0,0,0,-1,1609,806,0,0
392,218,0,0,0,0,0,0,0,0,0,-1,1616,806,0,0
399,218,0,0,0,0,0,0,0,0,0,-1,1623,806,0,0
406,218,0,0,0,0,0,0,0,0,0,-1,1630,806,0,0
413,218,0,0,0,0,0,0,0,0,0,-1,1637,806,0,0
420,218,0,0,0,0,0,0,0,0,0,-1,1644,806,0,0
427,218,0,0,0,0,0,0,0,0,0,-1,1651,806,0,0
434,218,0,0,0,0,0,0,0,0,0,-1,1658,806,0,0
441,218,0,0,0,0,0,0,0,0,0,-1,1665,806,0,0
448,218,0,0,0,0,0,0,0,0,0,-1,1672,806,0,0
455,218,0,0,0,0,0,0,0,0,0,-1,1679,806,0,0
462,218,0,0,0,0,0,0,0,0,0,-1,1686,806,0,0
469,218,0,0,0,0,0,0,0,0,0,-1,1693,806,0,0
476,218,0,0,0,0,0,0,0,0,0,-1,1700,806,0,0
483,218,0,0,0,0,0,0,0,0,0,-1,1707,806,0,0
490,218,0,0,0,0,0,0,0,0,0,-1,1714,806,0,0
497,218,0,0,0,0,0,0,0,0,0,-1,1721,806,0,0
504,218,0,0,0,0,0,0,0,0,0,-1,1728,806,0,0
511,218,0,0,0,0,0,0,0,0,0,-1,1735,806,0,0
518,218,0,0,0,0,0,0,0,0,0,-1,1742,806,0,0
525,218,0,0,0,0,0,0,0,0,0,-1,1749,806,0,0
532,218,0,0,0,0,0,0,0,0,0,-1,1756,806,0,0
539,218,0,0,0,0,0,0,0,0,0,-1,1763,806,0,0
546,218,0,0,0,0,0,0,0,0,0,-1,1770,806,0,0
553,218,0,0,0,0,0,0,0,0,0,-1,1777,806,0,0
560,218,0,0,0,0,0,0,0,0,0,-1,1784,806,0,0
567,218,0,0,0,0,0,0,0,0,0,-1,1791,806,0,0
574,218,0,0,0,0,0,0,0,0,0,-1,1798,806,0,0
581,218,0,0,0,0,0,0,0,0,0,-1,1805,806,0,0
588,218,0,0,0,0,0,0,0,0,0,-1,1812,806,0,0
595,218,60.4044,2.80969,0.00578208,-0.00372296,-0.00318742,0.00675198,-0.00469286,-0.295388,0.00664323,0.0361843,1819,806,60.4044,-2.80968
602,218,60.4546,2.65015,0.00353577,-0.0013086,-0.000938679,0.00371129,-0.00148412,-0.184857,0.00309008,0.0335439,1826,806,60.4546,-2.65015
609,218,60.4653,2.59174,0.00196765,0.000204667,0.000477652,0.00208874,8.35729e-05,0.248289,0.00136549,0.0310493,1833,806,60.4653,-2.59173
616,218,60.4211,2.63715,0.000999828,0.00104535,0.00118845,0.00221125,-0.000166074,0.794973,0.00153253,0.0328563,1840,806,60.4211,-2.63712
623,218,60.4497,2.63123,0.000327864,0.00107176,0.00104365,0.00180776,-0.00040814,0.956576,0.00136176,0.0368337,1847,806,60.4497,-2.63123
630,218,60.5681,2.63599,-0.000332099,0.001066,0.000754191,0.00139529,-0.000661386,1.15913,0.00121236,0.0402081,1854,806,60.5681,-2.63597
637,218,60.6887,2.63336,0,0,0,0,0,0,0,-1,1861,806,60.6887,-2.63338
644,218,52.4042,2.47949,0,0,0,0,0,0,0,-1,1868,806,52.4041,-2.47949
651,218,41.7338,1.99164,0,0,0,0,0,0,0,-1,1875,806,41.7338,-1.99162
658,218,28.41,0.514954,0,0,0,0,0,0,0,-1,1882,806,28.41,-0.514983
665,218,45.1573,-1.53406,0,0,0,0,0,0,0,-1,1889,806,45.1573,1.53404
672,218,44.8442,-0.754272,-0.00302352,-0.000243328,-0.00105525,0.000111833,-0.00337868,-1.24614,0.00229064,0.0344785,1896,806,44.8442,0.754244
679,218,44.6055,-0.220093,-0.00342528,-0.000792741,-0.00147523,-0.000131928,-0.00408609,-1.14966,0.00268117,0.0340238,1903,806,44.6054,0.220123
686,218,44.4738,0.401917,-0.00329715,-0.00080878,-0.00178695,0.000124459,-0.00423039,-1.0895,0.00286265,0.0152828,1910,806,44.4737,-0.401906
693,218,44.447,1.10431,-0.00228912,-0.000527878,-0.00161075,0.00042726,-0.00324425,-1.03556,0.00231842,0.0124052,1917,806,44.4471,-1.10431
700,218,44.4075,1.80725,-0.000478244,-4.21273e-05,-0.000938396,0.000703212,-0.00122358,-0.899559,0.00112588,0.0101844,1924,806,44.4075,-1.80724
707,218,44.3632,2.52411,0.00163617,0.000625667,0.000101865,0.00164634,0.000615501,0.0994728,0.000960543,0.00876789,1931,806,44.3632,-2.52409
714,218,44.3514,3.25708,0.00413329,0.00117545,0.0013068,0.00462793,0.000680815,0.361845,0.00288525,0.0114068,1938,806,44.3514,-3.25706
721,218,44.3456,3.9458,0.0069894,0.00155303,0.00260988,0.00803951,0.000502919,0.382537,0.00520015,0.0151148,1945,806,44.3456,-3.94583
728,218,44.3162,4.70703,0.0102913,0.00148632,0.00382873,0.0117233,5.43268e-05,0.357904,0.00779746,0.0286872,1952,806,44.3162,-4.70702
735,218,44.3264,5.61896,0.0141223,0.00102035,0.00515181,0.0159053,-0.00076273,0.333203,0.0108667,0.0487836,1959,806,44.3264,-5.61894
742,218,44.4543,6.57965,0,0,0,0,0,0,0,-1,1966,806,44.4544,-6.57965
749,218,42.0249,6.64703,0,0,0,0,0,0,0,-1,1973,806,42.0249,-6.64703
756,218,44.0059,6.09637,0,0,0,0,0,0,0,-1,1980,806,44.0058,-6.0964
763,218,40.3187,5.18854,0,0,0,0,0,0,0,-1,1987,806,40.3188,-5.18855
770,218,0,0,0,0,0,0,0,0,0,-1,1994,806,0,0
777,218,0,0,0,0,0,0,0,0,0,-1,2001,806,0,0
784,218,0,0,0,0,0,0,0,0,0,-1,2008,806,0,0
791,218,0,0,0,0,0,0,0,0,0,-1,2015,806,0,0
798,218,0,0,0,0,0,0,0,0,0,-1,2022,806,0,0
805,218,0,0,0,0,0,0,0,0,0,-1,2029,806,0,0
812,218,0,0,0,0,0,0,0,0,0,-1,2036,806,0,0
-700,211,0,0,0,0,0,0,0,0,0,-1,524,813,0,0
-693,211,0,0,0,0,0,0,0,0,0,-1,531,813,0,0
-686,211,0,0,0,0,0,0,0,0,0,-1,538,813,0,0
-679,211,0,0,0,0,0,0,0,0,0,-1,545,813,0,0
-672,211,0,0,0,0,0,0,0,0,0,-1,552,813,0,0
-665,211,0,0,0,0,0,0,0,0,0,-1,559,813,0,0
-658,211,0,0,0,0,0,0,0,0,0,-1,566,813,0,0
-651,211,-40.2495,5.20386,-0.0227317,-0.0103423,-0.0692242,0.0529638,-0.0860378,-0.830023,0.0810063,0.0458779,573,813,-40.2494,-5.20384
-644,211,-40.6288,4.32092,-0.0169949,-0.0106176,-0.0599228,0.0462013,-0.0738138,-0.811979,0.0698994,0.0453586,580,813,-40.6288,-4.3209
-637,211,-41.3664,3.51849,-0.00645007,-0.0105602,-0.0500639,0.041601,-0.0586112,-0.764885,0.0581347,0.0459667,587,813,-41.3664,-3.51847
-630,211,-41.9262,2.94977,0,0,0,0,0,0,0,-1,594,813,-41.9262,-2.94975
-623,211,-42.5012,2.62903,0,0,0,0,0,0,0,-1,601,813,-42.5011,-2.629
-616,211,-32.0649,3.68384,0,0,0,0,0,0,0,-1,608,813,-32.0649,-3.68384
-609,211,-31.8768,3.28369,0.0090299,-0.00506506,-0.0174391,0.0207917,-0.0168268,-0.593372,0.0217592,0.0413125,615,813,-31.8768,-3.2837
-602,211,-31.8127,2.89386,0.00828968,-0.00312612,-0.0117706,0.0156634,-0.0104998,-0.55964,0.0152031,0.0229333,622,813,-31.8127,-2.89386
-595,211,-31.9257,2.23773,0.00659662,-0.00205105,-0.00681051,0.0103399,-0.00579435,-0.502563,0.00943754,0.0116141,629,813,-31.9256,-2.23776
-588,211,-31.9457,1.54852,0.00487316,0.00035523,-0.00297602,0.00635046,-0.00112206,-0.460762,0.00465298,0.0113883,636,813,-31.9457,-1.54855
-581,211,-31.9661,0.875916,0.00316204,0.0015712,-0.00100988,0.00365213,0.0010811,-0.451818,0.00216626,0.0121409,643,813,-31.9661,-0.875905
-574,211,-31.9966,0.186157,0.00151803,0.00137185,0.000261886,0.00171683,0.00117304,0.649309,0.00101316,0.0137729,650,813,-31.9967,-0.186156
-567,211,-32.0194,-0.524902,0.000595561,0.00126029,0.000752541,0.0017506,0.000105257,0.993345,0.00113361,0.0210111,657,813,-32.0194,0.524908
-560,211,-32.0302,-1.22266,0.000292071,0.00119422,0.00146098,0.00227218,-0.000785886,0.935129,0.00183377,0.0293282,664,813,-32.0302,1.22266
-553,211,-31.8462,-2.20709,0,0,0,0,0,0,0,-1,671,813,-31.8462,2.20708
-546,211,-32.1198,-3.02802,0,0,0,0,0,0,0,-1,678,813,-32.1198,3.028
-539,211,-32.231,-3.2486,0,0,0,0,0,0,0,-1,685,813,-32.231,3.24861
-532,211,-32.0755,-3.94067,0,0,0,0,0,0,0,-1,692,813,-32.0755,3.94067
-525,211,-14.3009,2.3233,0,0,0,0,0,0,0,-1,699,813,-14.3009,-2.3233
-518,211,-34.952,1.93011,0,0,0,0,0,0,0,-1,706,813,-34.952,-1.9301
-511,211,-45.7016,0.944641,0,0,0,0,0,0,0,-1,713,813,-45.7016,-0.944621
-504,211,-45.7685,0.978699,-0.000296881,-0.00206599,0.00193887,0.000949676,-0.00331255,0.57139,0.00258377,0.0473848,720,813,-45.7685,-0.978703
-497,211,-45.9185,0.951904,0.000492812,-0.00272434,0.00113972,0.000855651,-0.00308718,0.308213,0.00239484,0.0452024,727,813,-45.9185,-0.951885
-490,211,-46.0616,0.949646,0.0014203,-0.00250992,-0.000175682,0.00142814,-0.00251775,-0.0445819,0.00230693,0.0347339,734,813,-46.0617,-0.949667
-483,211,-46.1623,0.925354,0.00218012,-0.000894259,-0.0018651,0.00305987,-0.001774,-0.440741,0.00282356,0.0327307,741,813,-46.1623,-0.925339
-476,211,-46.1265,0.946289,0.00239573,0.00240564,-0.00330365,0.00570434,-0.000902969,-0.786147,0.00413686,0.036548,748,813,-46.1265,-0.946276
-469,211,0,0,0,0,0,0,0,0,0,-1,755,813,0,0
-462,211,0,0,0,0,0,0,0,0,0,-1,762,813,0,0
-455,211,0,0,0,0,0,0,0,0,0,-1,769,813,0,0
-448,211,0,0,0,0,0,0,0,0,0,-1,776,813,0,0
-441,211,0,0,0,0,0,0,0,0,0,-1,783,813,0,0
-434,211,0,0,0,0,0,0,0,0,0,-1,790,813,0,0
-427,211,0,0,0,0,0,0,0,0,0,-1,797,813,0,0
-420,211,0,0,0,0,0,0,0,0,0,-1,804,813,0,0
-413,211,0,0,0,0,0,0,0,0,0,-1,811,813,0,0
-406,211,0,0,0,0,0,0,0,0,0,-1,818,813,0,0
-399,211,0,0,0,0,0,0,0,0,0,-1,825,813,0,0
-392,211,0,0,0,0,0,0,0,0,0,-1,832,813,0,0
-385,211,0,0,0,0,0,0,0,0,0,-1,839,813,0,0
-378,211,0,0,0,0,0,0,0,0,0,-1,846,813,0,0
-371,211,0,0,0,0,0,0,0,0,0,-1,853,813,0,0
-364,211,0,0,0,0,0,0,0,0,0,-1,860,813,0,0
-357,211,0,0,0,0,0,0,0,0,0,-1,867,813,0,0
-350,211,0,0,0,0,0,0,0,0,0,-1,874,813,0,0
-343,211,0,0,0,0,0,0,0,0,0,-1,881,813,0,0
-336,211,0,0,0,0,0,0,0,0,0,-1,888,813,0,0
-329,211,0,0,0,0,0,0,0,0,0,-1,895,813,0,0
-322,211,0,0,0,0,0,0,0,0,0,-1,902,813,0,0
-315,211,0,0,0,0,0,0,0,0,0,-1,909,813,0,0
-308,211,0,0,0,0,0,0,0,0,0,-1,916,813,0,0
-301,211,0,0,0,0,0,0,0,0,0,-1,923,813,0,0
-294,211,0,0,0,0,0,0,0,0,0,-1,930,813,0,0
-287,211,0,0,0,0,0,0,0,0,0,-1,937,813,0,0
-280,211,0,0,0,0,0,0,0,0,0,-1,944,813,0,0
-273,211,0,0,0,0,0,0,0,0,0,-1,951,813,0,0
-266,211,0,0,0,0,0,0,0,0,0,-1,958,813,0,0
-259,211,0,0,0,0,0,0,0,0,0,-1,965,813,0,0
-252,211,0,0,0,0,0,0,0,0,0,-1,972,813,0,0
-245,211,0,0,0,0,0,0,0,0,0,-1,979,813,0,0
-238,211,0,0,0,0,0,0,0,0,0,-1,986,813,0,0
-231,211,0,0,0,0,0,0,0,0,0,-1,993,813,0,0
-224,211,0,0,0,0,0,0,0,0,0,-1,1000,813,0,0
-217,211,0,0,0,0,0,0,0,0,0,-1,1007,813,0,0
-210,211,0,0,0,0,0,0,0,0,0,-1,1014,813,0,0
-203,211,0,0,0,0,0,0,0,0,0,-1,1021,813,0,0
-196,211,0,0,0,0,0,0,0,0,0,-1,1028,813,0,0
-189,211,0,0,0,0,0,0,0,0,0,-1,1035,813,0,0
-182,211,0,0,0,0,0,0,0,0,0,-1,1042,813,0,0
-175,211,0,0,0,0,0,0,0,0,0,-1,1049,813,0,0
-168,211,0,0,0,0,0,0,0,0,0,-1,1056,813,0,0
-161,211,0,0,0,0,0,0,0,0,0,-1,1063,813,0,0
-154,211,0,0,0,0,0,0,0,0,0,-1,1070,813,0,0
-147,211,0,0,0,0,0,0,0,0,0,-1,1077,813,0,0
-140,211,0,0,0,0,0,0,0,0,0,-1,1084,813,0,0
-133,211,0,0,0,0,0,0,0,0,0,-1,1091,813,0,0
-126,211,0,0,0,0,0,0,0,0,0,-1,1098,813,0,0
-119,211,0,0,0,0,0,0,0,0,0,-1,1105,813,0,0
-112,211,0,0,0,0,0,0,0,0,0,-1,1112,813,0,0
-105,211,0,0,0,0,0,0,0,0,0,-1,1119,813,0,0
-98,211,0,0,0,0,0,0,0,0,0,-1,1126,813,0,0
-91,211,0,0,0,0,0,0,0,0,0,-1,1133,813,0,0
-84,211,0,0,0,0,0,0,0,0,0,-1,1140,813,0,0
-77,211,0,0,0,0,0,0,0,0,0,-1,1147,813,0,0
-70,211,0,0,0,0,0,0,0,0,0,-1,1154,813,0,0
-63,211,0,0,0,0,0,0,0,0,0,-1,1161,813,0,0
-56,211,0,0,0,0,0,0,0,0,0,-1,1168,813,0,0
-49,211,0,0,0,0,0,0,0,0,0,-1,1175,813,0,0
-42,211,0,0,0,0,0,0,0,0,0,-1,1182,813,0,0
-35,211,0,0,0,0,0,0,0,0,0,-1,1189,813,0,0
-28,211,0,0,0,0,0,0,0,0,0,-1,1196,813,0,0
-21,211,0,0,0,0,0,0,0,0,0,-1,1203,813,0,0
-14,211,0,0,0,0,0,0,0,0,0,-1,1210,813,0,0
-7,211,0,0,0,0,0,0,0,0,0,-1,1217,813,0,0
0,211,0,0,0,0,0,0,0,0,0,-1,1224,813,0,0
7,211,0,0,0,0,0,0,0,0,0,-1,1231,813,0,0
14,211,0,0,0,0,0,0,0,0,0,-1,1238,813,0,0
21,211,0,0,0,0,0,0,0,0,0,-1,1245,813,0,0
28,211,0,0,0,0,0,0,0,0,0,-1,1252,813,0,0
35,211,0,0,0,0,0,0,0,0,0,-1,1259,813,0,0
42,211,0,0,0,0,0,0,0,0,0,-1,1266,813,0,0
49,211,0,0,0,0,0,0,0,0,0,-1,1273,813,0,0
56,211,0,0,0,0,0,0,0,0,0,-1,1280,813,0,0
63,211,0,0,0,0,0,0,0,0,0,-1,1287,813,0,0
70,211,0,0,0,0,0,0,0,0,0,-1,1294,813,0,0
77,211,0,0,0,0,0,0,0,0,0,-1,1301,813,0,0
84,211,0,0,0,0,0,0,0,0,0,-1,1308,813,0,0
91,211,0,0,0,0,0,0,0,0,0,-1,1315,813,0,0
98,211,0,0,0,0,0,0,0,0,0,-1,1322,813,0,0
105,211,0,0,0,0,0,0,0,0,0,-1,1329,813,0,0
112,211,0,0,0,0,0,0,0,0,0,-1,1336,813,0,0
119,211,0,0,0,0,0,0,0,0,0,-1,1343,813,0,0
126,211,0,0,0,0,0,0,0,0,0,-1,1350,813,0,0
133,211,0,0,0,0,0,0,0,0,0,-1,1357,813,0,0
140,211,0,0,0,0,0,0,0,0,0,-1,1364,813,0,0
147,211,0,0,0,0,0,0,0,0,0,-1,1371,813,0,0
154,211,0,0,0,0,0,0,0,0,0,-1,1378,813,0,0
161,211,0,0,0,0,0,0,0,0,0,-1,1385,813,0,0
168,211,0,0,0,0,0,0,0,0,0,-1,1392,813,0,0
175,211,0,0,0,0,0,0,0,0,0,-1,1399,813,0,0
182,211,0,0,0,0,0,0,0,0,0,-1,1406,813,0,0
189,211,0,0,0,0,0,0,0,0,0,-1,1413,813,0,0
196,211,0,0,0,0,0,0,0,0,0,-1,1420,813,0,0
203,211,0,0,0,0,0,0,0,0,0,-1,1427,813,0,0
210,211,0,0,0,0,0,0,0,0,0,-1,1434,813,0,0
217,211,0,0,0,0,0,0,0,0,0,-1,1441,813,0,0
224,211,0,0,0,0,0,0,0,0,0,-1,1448,813,0,0
231,211,0,0,0,0,0,0,0,0,0,-1,1455,813,0,0
238,211,0,0,0,0,0,0,0,0,0,-1,1462,813,0,0
245,211,0,0,0,0,0,0,0,0,0,-1,1469,813,0,0
252,211,0,0,0,0,0,0,0,0,0,-1,1476,813,0,0
259,211,0,0,0,0,0,0,0,0,0,-1,1483,813,0,0
266,211,0,0,0,0,0,0,0,0,0,-1,1490,813,0,0
273,211,0,0,0,0,0,0,0,0,0,-1,1497,813,0,0
280,211,0,0,0,0,0,0,0,0,0,-1,1504,813,0,0
287,211,0,0,0,0,0,0,0,0,0,-1,1511,813,0,0
294,211,0,0,0,0,0,0,0,0,0,-1,1518,813,0,0
301,211,0,0,0,0,0,0,0,0,0,-1,1525,813,0,0
308,211,0,0,0,0,0,0,0,0,0,-1,1532,813,0,0
315,211,0,0,0,0,0,0,0,0,0,-1,1539,813,0,0
322,211,0,0,0,0,0,0,0,0,0,-1,1546,813,0,0
329,211,0,0,0,0,0,0,0,0,0,-1,1553,813,0,0
336,211,0,0,0,0,0,0,0,0,0,-1,1560,813,0,0
343,211,0,0,0,0,0,0,0,0,0,-1,1567,813,0,0
350,211,0,0,0,0,0,0,0,0,0,-1,1574,813,0,0
357,211,0,0,0,0,0,0,0,0,0,-1,1581,813,0,0
364,211,0,0,0,0,0,0,0,0,0,-1,1588,813,0,0
371,211,0,0,0,0,0,0,0,0,0,-1,1595,813,0,0
378,211,0,0,0,0,0,0,0,0,0,-1,1602,813,0,0
385,211,0,0,0,0,0,0,0,0,0,-1,1609,813,0,0
392,211,0,0,0,0,0,0,0,0,0,-1,1616,813,0,0
399,211,0,0,0,0,0,0,0,0,0,-1,1623,813,0,0
406,211,0,0,0,0,0,0,0,0,0,-1,1630,813,0,0
413,211,0,0,0,0,0,0,0,0,0,-1,1637,813,0,0
420,211,0,0,0,0,0,0,0,0,0,-1,1644,813,0,0
427,211,0,0,0,0,0,0,0,0,0,-1,1651,813,0,0
434,211,0,0,0,0,0,0,0,0,0,-1,1658,813,0,0
441,211,0,0,0,0,0,0,0,0,0,-1,1665,813,0,0
448,211,0,0,0,0,0,0,0,0,0,-1,1672,813,0,0
455,211,0,0,0,0,0,0,0,0,0,-1,1679,813,0,0
462,211,0,0,0,0,0,0,0,0,0,-1,1686,813,0,0
469,211,0,0,0,0,0,0,0,0,0,-1,1693,813,0,0
476,211,0,0,0,0,0,0,0,0,0,-1,1700,813,0,0
483,211,0,0,0,0,0,0,0,0,0,-1,1707,813,0,0
490,211,0,0,0,0,0,0,0,0,0,-1,1714,813,0,0
497,211,0,0,0,0,0,0,0,0,0,-1,1721,813,0,0
504,211,0,0,0,0,0,0,0,0,0,-1,1728,813,0,0
511,211,0,0,0,0,0,0,0,0,0,-1,1735,813,0,0
518,211,0,0,0,0,0,0,0,0,0,-1,1742,813,0,0
525,211,0,0,0,0,0,0,0,0,0,-1,1749,813,0,0
532,211,0,0,0,0,0,0,0,0,0,-1,1756,813,0,0
539,211,0,0,0,0,0,0,0,0,0,-1,1763,813,0,0
546,211,0,0,0,0,0,0,0,0,0,-1,1770,813,0,0
553,211,0,0,0,0,0,0,0,0,0,-1,1777,813,0,0
560,211,0,0,0,0,0,0,0,0,0,-1,1784,813,0,0
567,211,0,0,0,0,0,0,0,0,0,-1,1791,813,0,0
574,211,0,0,0,0,0,0,0,0,0,-1,1798,813,0,0
581,211,0,0,0,0,0,0,0,0,0,-1,1805,813,0,0
588,211,0,0,0,0,0,0,0,0,0,-1,1812,813,0,0
595,211,60.4635,2.71326,0.00690446,-0.00407391,-0.00508573,0.00889831,-0.00606776,-0.373632,0.00869203,0.0373206,1819,813,60.4635,-2.71323
602,211,60.4093,2.61719,0.0046949,-0.00169743,-0.00246658,0.005536,-0.00253853,-0.328632,0.0047677,0.0371299,1826,813,60.4093,-2.6172
609,211,60.4562,2.55212,0.00287997,-9.94168e-05,-0.000481658,0.0029559,-0.000175348,-0.156359,0.00203157,0.0374572,1833,813,60.4561,-2.55211
616,211,60.4625,2.59454,0.00161229,0.000954291,0.000806169,0.00215401,0.000412573,0.591663,0.00132015,0.0311545,1840,813,60.4625,-2.59456
623,211,60.4116,2.65027,0.000687822,0.00110502,0.00096587,0.00188456,-9.17171e-05,0.89175,0.00128803,0.0315516,1847,813,60.4116,-2.6503
630,211,60.4249,2.66272,-0.000204535,0.00113847,0.000752231,0.00147532,-0.000541381,1.14978,0.00120524,0.035958,1854,813,60.425,-2.66275
637,211,60.467,2.67621,-0.000984917,0.000917119,0.000374349,0.000988144,-0.00105594,1.38329,0.00118037,0.0442135,1861,813,60.4671,-2.67623
644,211,60.463,2.68066,0,0,0,0,0,0,0,-1,1868,813,60.463,-2.68068
651,211,48.5043,2.95557,0,0,0,0,0,0,0,-1,1875,813,48.5043,-2.95558
658,211,27.7909,1.52234,0,0,0,0,0,0,0,-1,1882,813,27.7909,-1.52234
665,211,42.2053,-0.745605,0,0,0,0,0,0,0,-1,1889,813,42.2054,0.745605
672,211,46.1274,-0.859314,0,0,0,0,0,0,0,-1,1896,813,46.1274,0.859319
679,211,45.5338,-0.162598,-0.00383501,-0.00081329,-0.00147756,-0.000210886,-0.00443742,-1.18367,0.00289055,0.0395707,1903,813,45.5338,0.162579
686,211,45.1973,0.438171,-0.00387922,-0.000928938,-0.00193247,2.70668e-05,-0.00483522,-1.11139,0.00323254,0.0171038,1910,813,45.1973,-0.438155
693,211,45.1479,1.12146,-0.00312097,-0.000827582,-0.00201167,0.000341266,-0.00428982,-1.04444,0.00298015,0.0129999,1917,813,45.1479,-1.12147
700,211,45.0327,1.80475,-0.00151627,-0.000431196,-0.00151842,0.000638697,-0.00258617,-0.956982,0.0019718,0.0144073,1924,813,45.0328,-1.80474
707,211,45.0526,2.56042,0.00052676,0.000158907,-0.000564776,0.000936804,-0.000251137,-0.627982,0.000722938,0.0219044,1931,813,45.0526,-2.56045
714,211,45.0894,3.29865,0.00306951,0.000687124,0.000604526,0.00321413,0.000542505,0.234813,0.00198676,0.0232364,1938,813,45.0893,-3.29864
721,211,45.0712,3.96436,0.00598139,0.00106551,0.00185515,0.00660291,0.000443993,0.32327,0.00426166,0.0185169,1945,813,45.0711,-3.96437
728,211,45.0702,4.64325,0.00931738,0.00107361,0.00305868,0.0103283,6.27111e-05,0.3192,0.00686471,0.0184475,1952,813,45.0702,-4.64324
735,211,45.0833,5.43683,0.0131608,0.000697188,0.00431911,0.0145112,-0.000653236,0.303033,0.00989905,0.0322339,1959,813,45.0832,-5.43684
742,211,45.0359,5.87329,0,0,0,0,0,0,0,-1,1966,813,45.0359,-5.87331
749,211,45.0494,6.27429,0,0,0,0,0,0,0,-1,1973,813,45.0494,-6.27428
756,211,44.822,6.16949,0,0,0,0,0,0,0,-1,1980,813,44.822,-6.16951
763,211,45.2036,6.37634,0,0,0,0,0,0,0,-1,1987,813,45.2036,-6.37634
770,211,39.2373,7.45868,0,0,0,0,0,0,0,-1,1994,813,39.2373,-7.45868
777,211,0,0,0,0,0,0,0,0,0,-1,2001,813,0,0
784,211,0,0,0,0,0,0,0,0,0,-1,2008,813,0,0
791,211,0,0,0,0,0,0,0,0,0,-1,2015,813,0,0
798,211,0,0,0,0,0,0,0,0,0,-1,2022,813,0,0
805,211,0,0,0,0,0,0,0,0,0,-1,2029,813,0,0
812,211,0,0,0,0,0,0,0,0,0,-1,2036,813,0,0
-700,204,0,0,0,0,0,0,0,0,0,-1,524,820,0,0
-693,204,0,0,0,0,0,0,0,0,0,-1,531,820,0,0
-686,204,0,0,0,0,0,0,0,0,0,-1,538,820,0,0
-679,204,0,0,0,0,0,0,0,0,0,-1,545,820,0,0
-672,204,0,0,0,0,0,0,0,0,0,-1,552,820,0,0
-665,204,0,0,0,0,0,0,0,0,0,-1,559,820,0,0
-658,204,0,0,0,0,0,0,0,0,0,-1,566,820,0,0
-651,204,-40.064,5.25806,0.02343,-0.0159067,-0.0592205,0.0661628,-0.0586395,-0.625069,0.0720983,0.0426944,573,820,-40.064,-5.25806
-644,204,-40.4117,4.54321,0.0168409,-0.0148776,-0.0514855,0.0548544,-0.0528911,-0.635993,0.0622103,0.0450512,580,820,-40.4117,-4.54323
-637,204,-40.8671,3.93817,0,0,0,0,0,0,0,-1,587,820,-40.8671,-3.93819
-630,204,-41.7101,3.04382,0,0,0,0,0,0,0,-1,594,820,-41.7101,-3.04383
-623,204,-41.8597,2.11951,0,0,0,0,0,0,0,-1,601,820,-41.8597,-2.11951
-616,204,-32.732,4.4472,0,0,0,0,0,0,0,-1,608,820,-32.732,-4.44721
-609,204,-32.5675,3.70575,0.0142973,-0.00605758,-0.0146188,0.0219325,-0.0136928,-0.481317,0.0207508,0.0375085,615,820,-32.5675,-3.70578
-602,204,-32.548,2.95789,0.0114247,-0.00385742,-0.00956577,0.0160266,-0.00845932,-0.448397,0.0143602,0.0176939,622,820,-32.548,-2.95787
-595,204,-32.6196,2.258,0.00816485,-0.0025419,-0.00515923,0.0102463,-0.00462332,-0.383466,0.00878719,0.016057,629,820,-32.6196,-2.25798
-588,204,-32.6455,1.57135,0.00507433,-3.91331e-05,-0.00182837,0.00566082,-0.00062562,-0.310401,0.00399877,0.0140383,636,820,-32.6455,-1.57134
-581,204,-32.6703,0.881897,0.00256906,0.00123626,-0.000168807,0.00259011,0.00121521,-0.124046,0.00149635,0.0135826,643,820,-32.6703,-0.881886
-574,204,-32.6846,0.19751,0.000813298,0.00128674,0.000796105,0.00188057,0.000219463,0.929908,0.00118734,0.0144082,650,820,-32.6846,-0.197485
-567,204,-32.666,-0.475281,0.000125083,0.0013556,0.00105288,0.0019598,-0.000479122,1.04982,0.00149211,0.0148008,657,820,-32.666,0.475278
-560,204,-32.5865,-1.2121,6.27325e-05,0.00147636,0.00161742,0.00253466,-0.000995571,0.991394,0.00210176,0.0252184,664,820,-32.5865,1.21208
-553,204,-32.7782,-1.88281,0,0,0,0,0,0,0,-1,671,820,-32.7782,1.88281
-546,204,-32.433,-2.2323,0,0,0,0,0,0,0,-1,678,820,-32.433,2.23228
-539,204,-32.837,-3.10583,0,0,0,0,0,0,0,-1,685,820,-32.837,3.10582
-532,204,-30.0565,-3.29065,0,0,0,0,0,0,0,-1,692,820,-30.0565,3.29063
-525,204,-25.7137,1.52496,0,0,0,0,0,0,0,-1,699,820,-25.7137,-1.52496
-518,204,-43.4591,0.383972,0,0,0,0,0,0,0,-1,706,820,-43.4591,-0.383942
-511,204,-45.8547,0.902527,0,0,0,0,0,0,0,-1,713,820,-45.8547,-0.902503
-504,204,-45.7144,1.146,-0.000437094,-0.000791264,0.00216648,0.00155953,-0.00278789,0.74462,0.00254316,0.046528,720,820,-45.7144,-1.14598
-497,204,-45.8224,1.08966,0.000476436,-0.00108399,0.00123121,0.00115383,-0.00176139,0.502984,0.00169524,0.0384098,727,820,-45.8224,-1.08965
-490,204,-46.1121,0.83606,0.00153652,-6.73364e-05,-0.000341096,0.00160605,-0.000136864,-0.201081,0.00111911,0.0342569,734,820,-46.1121,-0.836037
-483,204,-46.1652,0.866638,0.00234098,0.00255462,-0.00239506,0.00484524,5.03606e-05,-0.807684,0.00321351,0.0395992,741,820,-46.1652,-0.866668
-476,204,0,0,0,0,0,0,0,0,0,-1,748,820,0,0
-469,204,0,0,0,0,0,0,0,0,0,-1,755,820,0,0
-462,204,0,0,0,0,0,0,0,0,0,-1,762,820,0,0
-455,204,0,0,0,0,0,0,0,0,0,-1,769,820,0,0
-448,204,0,0,0,0,0,0,0,0,0,-1,776,820,0,0
-441,204,0,0,0,0,0,0,0,0,0,-1,783,820,0,0
-434,204,0,0,0,0,0,0,0,0,0,-1,790,820,0,0
-427,204,0,0,0,0,0,0,0,0,0,-1,797,820,0,0
-420,204,0,0,0,0,0,0,0,0,0,-1,804,820,0,0
-413,204,0,0,0,0,0,0,0,0,0,-1,811,820,0,0
-406,204,0,0,0,0,0,0,0,0,0,-1,818,820,0,0
-399,204,0,0,0,0,0,0,0,0,0,-1,825,820,0,0
-392,204,0,0,0,0,0,0,0,0,0,-1,832,820,0,0
-385,204,0,0,0,0,0,0,0,0,0,-1,839,820,0,0
-378,204,0,0,0,0,0,0,0,0,0,-1,846,820,0,0
-371,204,0,0,0,0,0,0,0,0,0,-1,853,820,0,0
-364,204,0,0,0,0,0,0,0,0,0,-1,860,820,0,0
-357,204,0,0,0,0,0,0,0,0,0,-1,867,820,0,0
-350,204,0,0,0,0,0,0,0,0,0,-1,874,820,0,0
-343,204,0,0,0,0,0,0,0,0,0,-1,881,820,0,0
-336,204,0,0,0,0,0,0,0,0,0,-1,888,820,0,0
-329,204,0,0,0,0,0,0,0,0,0,-1,895,820,0,0
-322,204,0,0,0,0,0,0,0,0,0,-1,902,820,0,0
-315,204,0,0,0,0,0,0,0,0,0,-1,909,820,0,0
-308,204,0,0,0,0,0,0,0,0,0,-1,916,820,0,0
-301,204,0,0,0,0,0,0,0,0,0,-1,923,820,0,0
-294,204,0,0,0,0,0,0,0,0,0,-1,930,820,0,0
-287,204,0,0,0,0,0,0,0,0,0,-1,937,820,0,0
-280,204,0,0,0,0,0,0,0,0,0,-1,944,820,0,0
-273,204,0,0,0,0,0,0,0,0,0,-1,951,820,0,0
-266,204,0,0,0,0,0,0,0,0,0,-1,958,820,0,0
-259,204,0,0,0,0,0,0,0,0,0,-1,965,820,0,0
-252,204,0,0,0,0,0,0,0,0,0,-1,972,820,0,0
-245,204,0,0,0,0,0,0,0,0,0,-1,979,820,0,0
-238,204,0,0,0,0,0,0,0,0,0,-1,986,820,0,0
-231,204,0,0,0,0,0,0,0,0,0,-1,993,820,0,0
-224,204,0,0,0,0,0,0,0,0,0,-1,1000,820,0,0
-217,204,0,0,0,0,0,0,0,0,0,-1,1007,820,0,0
-210,204,0,0,0,0,0,0,0,0,0,-1,1014,820,0,0
-203,204,0,0,0,0,0,0,0,0,0,-1,1021,820,0,0
-196,204,0,0,0,0,0,0,0,0,0,-1,1028,820,0,0
-189,204,0,0,0,0,0,0,0,0,0,-1,1035,820,0,0
-182,204,0,0,0,0,0,0,0,0,0,-1,1042,820,0,0
-175,204,0,0,0,0,0,0,0,0,0,-1,1049,820,0,0
-168,204,0,0,0,0,0,0,0,0,0,-1,1056,820,0,0
-161,204,0,0,0,0,0,0,0,0,0,-1,1063,820,0,0
-154,204,0,0,0,0,0,0,0,0,0,-1,1070,820,0,0
-147,204,0,0,0,0,0,0,0,0,0,-1,1077,820,0,0
-140,204,0,0,0,0,0,0,0,0,0,-1,1084,820,0,0
-133,204,0,0,0,0,0,0,0,0,0,-1,1091,820,0,0
-126,204,0,0,0,0,0,0,0,0,0,-1,1098,820,0,0
-119,204,0,0,0,0,0,0,0,0,0,-1,1105,820,0,0
-112,204,0,0,0,0,0,0,0,0,0,-1,1112,820,0,0
-105,204,0,0,0,0,0,0,0,0,0,-1,1119,820,0,0
-98,204,0,0,0,0,0,0,0,0,0,-1,1126,820,0,0
-91,204,0,0,0,0,0,0,0,0,0,-1,1133,820,0,0
-84,204,0,0,0,0,0,0,0,0,0,-1,1140,820,0,0
-77,204,0,0,0,0,0,0,0,0,0,-1,1147,820,0,0
-70,204,0,0,0,0,0,0,0,0,0,-1,1154,820,0,0
-63,204,0,0,0,0,0,0,0,0,0,-1,1161,820,0,0
-56,204,0,0,0,0,0,0,0,0,0,-1,1168,820,0,0
-49,204,0,0,0,0,0,0,0,0,0,-1,1175,820,0,0
-42,204,0,0,0,0,0,0,0,0,0,-1,1182,820,0,0
-35,204,0,0,0,0,0,0,0,0,0,-1,1189,820,0,0
-28,204,0,0,0,0,0,0,0,0,0,-1,1196,820,0,0
-21,204,0,0,0,0,0,0,0,0,0,-1,1203,820,0,0
-14,204,0,0,0,0,0,0,0,0,0,-1,1210,820,0,0
-7,204,0,0,0,0,0,0,0,0,0,-1,1217,820,0,0
0,204,0,0,0,0,0,0,0,0,0,-1,1224,820,0,0
7,204,0,0,0,0,0,0,0,0,0,-1,1231,820,0,0
14,204,0,0,0,0,0,0,0,0,0,-1,1238,820,0,0
21,204,0,0,0,0,0,0,0,0,0,-1,1245,820,0,0
28,204,0,0,0,0,0,0,0,0,0,-1,1252,820,0,0
35,204,0,0,0,0,0,0,0,0,0,-1,1259,820,0,0
42,204,0,0,0,0,0,0,0,0,0,-1,1266,820,0,0
49,204,0,0,0,0,0,0,0,0,0,-1,1273,820,0,0
56,204,0,0,0,0,0,0,0,0,0,-1,1280,820,0,0
63,204,0,0,0,0,0,0,0,0,0,-1,1287,820,0,0
70,204,0,0,0,0,0,0,0,0,0,-1,1294,820,0,0
77,204,0,0,0,0,0,0,0,0,0,-1,1301,820,0,0
84,204,0,0,0,0,0,0,0,0,0,-1,1308,820,0,0
91,204,0,0,0,0,0,0,0,0,0,-1,1315,820,0,0
98,204,0,0,0,0,0,0,0,0,0,-1,1322,820,0,0
105,204,0,0,0,0,0,0,0,0,0,-1,1329,820,0,0
112,204,0,0,0,0,0,0,0,0,0,-1,1336,820,0,0
119,204,0,0,0,0,0,0,0,0,0,-1,1343,820,0,0
126,204,0,0,0,0,0,0,0,0,0,-1,1350,820,0,0
133,204,0,0,0,0,0,0,0,0,0,-1,1357,820,0,0
140,204,0,0,0,0,0,0,0,0,0,-1,1364,820,0,0
147,204,0,0,0,0,0,0,0,0,0,-1,1371,820,0,0
154,204,0,0,0,0,0,0,0,0,0,-1,1378,820,0,0
161,204,0,0,0,0,0,0,0,0,0,-1,1385,820,0,0
168,204,0,0,0,0,0,0,0,0,0,-1,1392,820,0,0
175,204,0,0,0,0,0,0,0,0,0,-1,1399,820,0,0
182,204,0,0,0,0,0,0,0,0,0,-1,1406,820,0,0
189,204,0,0,0,0,0,0,0,0,0,-1,1413,820,0,0
196,204,0,0,0,0,0,0,0,0,0,-1,1420,820,0,0
203,204,0,0,0,0,0,0,0,0,0,-1,1427,820,0,0
210,204,0,0,0,0,0,0,0,0,0,-1,1434,820,0,0
217,204,0,0,0,0,0,0,0,0,0,-1,1441,820,0,0
224,204,0,0,0,0,0,0,0,0,0,-1,1448,820,0,0
231,204,0,0,0,0,0,0,0,0,0,-1,1455,820,0,0
238,204,0,0,0,0,0,0,0,0,0,-1,1462,820,0,0
245,204,0,0,0,0,0,0,0,0,0,-1,1469,820,0,0
252,204,0,0,0,0,0,0,0,0,0,-1,1476,820,0,0
259,204,0,0,0,0,0,0,0,0,0,-1,1483,820,0,0
266,204,0,0,0,0,0,0,0,0,0,-1,1490,820,0,0
273,204,0,0,0,0,0,0,0,0,0,-1,1497,820,0,0
280,204,0,0,0,0,0,0,0,0,0,-1,1504,820,0,0
287,204,0,0,0,0,0,0,0,0,0,-1,1511,820,0,0
294,204,0,0,0,0,0,0,0,0,0,-1,1518,820,0,0
301,204,0,0,0,0,0,0,0,0,0,-1,1525,820,0,0
308,204,0,0,0,0,0,0,0,0,0,-1,1532,820,0,0
315,204,0,0,0,0,0,0,0,0,0,-1,1539,820,0,0
322,204,0,0,0,0,0,0,0,0,0,-1,1546,820,0,0
329,204,0,0,0,0,0,0,0,0,0,-1,1553,820,0,0
336,204,0,0,0,0,0,0,0,0,0,-1,1560,820,0,0
343,204,0,0,0,0,0,0,0,0,0,-1,1567,820,0,0
350,204,0,0,0,0,0,0,0,0,0,-1,1574,820,0,0
357,204,0,0,0,0,0,0,0,0,0,-1,1581,820,0,0
364,204,0,0,0,0,0,0,0,0,0,-1,1588,820,0,0
371,204,0,0,0,0,0,0,0,0,0,-1,1595,820,0,0
378,204,0,0,0,0,0,0,0,0,0,-1,1602,820,0,0
385,204,0,0,0,0,0,0,0,0,0,-1,1609,820,0,0
392,204,0,0,0,0,0,0,0,0,0,-1,1616,820,0,0
399,204,0,0,0,0,0,0,0,0,0,-1,1623,820,0,0
406,204,0,0,0,0,0,0,0,0,0,-1,1630,820,0,0
413,204,0,0,0,0,0,0,0,0,0,-1,1637,820,0,0
420,204,0,0,0,0,0,0,0,0,0,-1,1644,820,0,0
427,204,0,0,0,0,0,0,0,0,0,-1,1651,820,0,0
434,204,0,0,0,0,0,0,0,0,0,-1,1658,820,0,0
441,204,0,0,0,0,0,0,0,0,0,-1,1665,820,0,0
448,204,0,0,0,0,0,0,0,0,0,-1,1672,820,0,0
455,204,0,0,0,0,0,0,0,0,0,-1,1679,820,0,0
462,204,0,0,0,0,0,0,0,0,0,-1,1686,820,0,0
469,204,0,0,0,0,0,0,0,0,0,-1,1693,820,0,0
476,204,0,0,0,0,0,0,0,0,0,-1,1700,820,0,0
483,204,0,0,0,0,0,0,0,0,0,-1,1707,820,0,0
490,204,0,0,0,0,0,0,0,0,0,-1,1714,820,0,0
497,204,0,0,0,0,0,0,0,0,0,-1,1721,820,0,0
504,204,0,0,0,0,0,0,0,0,0,-1,1728,820,0,0
511,204,0,0,0,0,0,0,0,0,0,-1,1735,820,0,0
518,204,0,0,0,0,0,0,0,0,0,-1,1742,820,0,0
525,204,0,0,0,0,0,0,0,0,0,-1,1749,820,0,0
532,204,0,0,0,0,0,0,0,0,0,-1,1756,820,0,0
539,204,0,0,0,0,0,0,0,0,0,-1,1763,820,0,0
546,204,0,0,0,0,0,0,0,0,0,-1,1770,820,0,0
553,204,0,0,0,0,0,0,0,0,0,-1,1777,820,0,0
560,204,0,0,0,0,0,0,0,0,0,-1,1784,820,0,0
567,204,0,0,0,0,0,0,0,0,0,-1,1791,820,0,0
574,204,0,0,0,0,0,0,0,0,0,-1,1798,820,0,0
581,204,0,0,0,0,0,0,0,0,0,-1,1805,820,0,0
588,204,0,0,0,0,0,0,0,0,0,-1,1812,820,0,0
595,204,0,0,0,0,0,0,0,0,0,-1,1819,820,0,0
602,204,60.422,2.69385,0.00584807,-0.00225294,-0.00390913,0.00742676,-0.00383163,-0.383819,0.00660958,0.0388193,1826,820,60.422,-2.69383
609,204,60.464,2.73511,0.00389779,-0.000772589,-0.00174741,0.0044792,-0.001354,-0.321204,0.00352523,0.0414467,1833,820,60.4639,-2.7351
616,204,60.465,2.67053,0.00232831,0.000430412,-1.46061e-05,0.00232842,0.000430299,-0.00769532,0.00143058,0.0382731,1840,820,60.4649,-2.67055
623,204,60.4181,2.67194,0.00109395,0.00080018,0.000607693,0.00157226,0.000321871,0.666819,0.000959056,0.0282176,1847,820,60.418,-2.67195
630,204,60.4058,2.68396,-5.48011e-05,0.000902162,0.000582916,0.00117783,-0.000330465,1.12906,0.000915474,0.0271916,1854,820,60.4058,-2.68398
637,204,60.4004,2.66241,-0.000977551,0.000638549,0.000197793,0.000662405,-0.00100141,1.45077,0.000967225,0.0358194,1861,820,60.4004,-2.66242
644,204,60.3901,2.6347,0,0,0,0,0,0,0,-1,1868,820,60.3901,-2.63473
651,204,53.7611,2.32251,0,0,0,0,0,0,0,-1,1875,820,53.7611,-2.32249
658,204,34.9631,1.64844,0,0,0,0,0,0,0,-1,1882,820,34.9631,-1.64842
665,204,21.8292,1.51099,0,0,0,0,0,0,0,-1,1889,820,21.8292,-1.51099
672,204,46.1262,-0.880798,0,0,0,0,0,0,0,-1,1896,820,46.1262,0.880806
679,204,46.0519,-0.248108,-0.00405318,-0.00106357,-0.00154165,-0.000411017,-0.00470573,-1.17038,0.00300952,0.0409029,1903,820,46.0519,0.248105
686,204,45.9618,0.465942,-0.00418305,-0.00114214,-0.00205082,-0.000109629,-0.00521556,-1.10438,0.00344108,0.0206552,1910,820,45.9618,-0.465934
693,204,45.7762,1.15179,-0.00362468,-0.00112596,-0.00230779,0.000248951,-0.00499959,-1.03349,0.00341907,0.0188608,1917,820,45.7762,-1.15179
700,204,45.7848,1.86475,-0.00229968,-0.000817094,-0.00201343,0.000587174,-0.00370394,-0.961784,0.0026865,0.0179605,1924,820,45.7848,-1.86474
707,204,45.772,2.6167,-0.00040533,-0.000307513,-0.00117668,0.000821275,-0.00153412,-0.806169,0.00138049,0.0159317,1931,820,45.772,-2.61668
714,204,45.7823,3.36597,0.00214566,0.000294008,-1.2713e-05,0.00214575,0.000293921,-0.00686532,0.00134329,0.0241712,1938,820,45.7823,-3.36599
721,204,45.7562,4.00806,0.0051117,0.000801352,0.00126002,0.00545301,0.000460045,0.264527,0.0034921,0.0220738,1945,820,45.7562,-4.00808
728,204,45.7087,4.66351,0.00846569,0.00103541,0.00254426,0.00925338,0.000247711,0.300238,0.00608803,0.01375,1952,820,45.7087,-4.66353
735,204,45.6252,5.38794,0.0122711,0.000962489,0.00388065,0.0134747,-0.00024109,0.300742,0.00906456,0.0168885,1959,820,45.6253,-5.38797
742,204,45.6476,5.98267,0.0169874,0.00014997,0.00523099,0.0184802,-0.00134282,0.277986,0.0127913,0.0332246,1966,820,45.6476,-5.98268
749,204,45.7041,6.46735,0.0230525,-0.00180247,0.00678466,0.0247839,-0.00353387,0.249861,0.0178177,0.0492144,1973,820,45.7041,-6.46732
756,204,45.7103,7.00165,0,0,0,0,0,0,0,-1,1980,820,45.7103,-7.00163
763,204,46.8104,8.40619,0,0,0,0,0,0,0,-1,1987,820,46.8105,-8.40616
770,204,46.9768,6.83398,0,0,0,0,0,0,0,-1,1994,820,46.9768,-6.83397
777,204,0,0,0,0,0,0,0,0,0,-1,2001,820,0,0
784,204,0,0,0,0,0,0,0,0,0,-1,2008,820,0,0
791,204,0,0,0,0,0,0,0,0,0,-1,2015,820,0,0
798,204,0,0,0,0,0,0,0,0,0,-1,2022,820,0,0
805,204,0,0,0,0,0,0,0,0,0,-1,2029,820,0,0
812,204,0,0,0,0,0,0,0,0,0,-1,2036,820,0,0
-700,197,0,0,0,0,0,0,0,0,0,-1,524,827,0,0
-693,197,0,0,0,0,0,0,0,0,0,-1,531,827,0,0
-686,197,0,0,0,0,0,0,0,0,0,-1,538,827,0,0
-679,197,0,0,0,0,0,0,0,0,0,-1,545,827,0,0
-672,197,0,0,0,0,0,0,0,0,0,-1,552,827,0,0
-665,197,0,0,0,0,0,0,0,0,0,-1,559,827,0,0
-658,197,-39.9774,5.66638,0,0,0,0,0,0,0,-1,566,827,-39.9774,-5.66637
-651,197,-39.9665,5.23578,0,0,0,0,0,0,0,-1,573,827,-39.9665,-5.23575
-644,197,-38.9225,4.75665,0,0,0,0,0,0,0,-1,580,827,-38.9225,-4.75665
-637,197,-39.9199,3.67963,0,0,0,0,0,0,0,-1,587,827,-39.9199,-3.67961
-630,197,-40.4908,2.45648,0.0349227,-0.0147143,-0.0286854,0.0480358,-0.0278275,-0.428773,0.0443146,0.0412454,594,827,-40.4908,-2.45649
-623,197,-41.1492,1.51202,0,0,0,0,0,0,0,-1,601,827,-41.1493,-1.51203
-616,197,-33.2844,4.47845,0,0,0,0,0,0,0,-1,608,827,-33.2844,-4.47844
-609,197,-33.1998,3.69958,0.019018,-0.00671496,-0.0117919,0.0236041,-0.0113011,-0.370923,0.0205656,0.0340327,615,827,-33.1998,-3.69958
-602,197,-33.2083,2.94775,0.0139167,-0.00416264,-0.00733042,0.0165154,-0.0067613,-0.340681,0.0138265,0.017859,622,827,-33.2083,-2.94778
-595,197,-33.2936,2.29022,0.00905427,-0.00251889,-0.00347092,0.0100154,-0.00348003,-0.270144,0.00809041,0.0183126,629,827,-33.2936,-2.29025
-588,197,-33.321,1.59485,0.00469856,2.74047e-05,-0.000660662,0.00479021,-6.42377e-05,-0.137833,0.0032151,0.0213039,636,827,-33.3211,-1.59485
-581,197,-33.3579,0.908936,0.00163338,0.00121092,0.000682144,0.00213625,0.000708052,0.635252,0.00125651,0.0126578,643,827,-33.3579,-0.908911
-574,197,-33.3647,0.22583,3.57124e-06,0.00139428,0.00131248,0.00218423,-0.000786377,1.029,0.00177725,0.0135935,650,827,-33.3647,-0.225814
-567,197,-33.2906,-0.427246,-0.000296199,0.00146475,0.00139593,0.00223469,-0.00106613,1.06676,0.00194513,0.0164632,657,827,-33.2907,0.427253
-560,197,-33.3298,-1.20721,0,0,0,0,0,0,0,-1,664,827,-33.3298,1.20723
-553,197,-33.1771,-1.4881,0,0,0,0,0,0,0,-1,671,827,-33.1771,1.4881
-546,197,-33.0991,-2.06989,0,0,0,0,0,0,0,-1,678,827,-33.0991,2.06991
-539,197,-32.8993,-2.61737,0,0,0,0,0,0,0,-1,685,827,-32.8993,2.61737
-532,197,-16.0519,0.0410156,0,0,0,0,0,0,0,-1,692,827,-16.0519,-0.0410415
-525,197,-35.3785,2.11829,0,0,0,0,0,0,0,-1,699,827,-35.3785,-2.11826
-518,197,-45.9178,0.764587,0,0,0,0,0,0,0,-1,706,827,-45.9179,-0.764565
-511,197,-45.9549,0.823853,-0.000804698,0.000964788,0.00280557,0.00302181,-0.00286172,0.938139,0.00339728,0.0408586,713,827,-45.9549,-0.823831
-504,197,-45.8851,1.03979,-0.000414411,0.000543495,0.00240963,0.00252131,-0.00239223,0.883503,0.00283716,0.0362267,720,827,-45.8851,-1.03978
-497,197,-45.975,1.04565,0.000519494,0.000893184,0.00123292,0.00195334,-0.000540659,0.860599,0.00151495,0.03955,727,827,-45.975,-1.04566
-490,197,-46.0561,0.758911,0.00156654,0.00309167,-0.000718331,0.00337673,0.00128149,-1.19303,0.00196833,0.0405285,734,827,-46.0561,-0.758916
-483,197,-45.8825,0.733887,0.00229208,0.00675351,-0.00320814,0.00843025,0.000615335,-1.08919,0.0054267,0.0412267,741,827,-45.8825,-0.733882
-476,197,0,0,0,0,0,0,0,0,0,-1,748,827,0,0
-469,197,0,0,0,0,0,0,0,0,0,-1,755,827,0,0
-462,197,0,0,0,0,0,0,0,0,0,-1,762,827,0,0
-455,197,0,0,0,0,0,0,0,0,0,-1,769,827,0,0
-448,197,0,0,0,0,0,0,0,0,0,-1,776,827,0,0
-441,197,0,0,0,0,0,0,0,0,0,-1,783,827,0,0
-434,197,0,0,0,0,0,0,0,0,0,-1,790,827,0,0
-427,197,0,0,0,0,0,0,0,0,0,-1,797,827,0,0
-420,197,0,0,0,0,0,0,0,0,0,-1,804,827,0,0
-413,197,0,0,0,0,0,0,0,0,0,-1,811,827,0,0
-406,197,0,0,0,0,0,0,0,0,0,-1,818,827,0,0
-399,197,0,0,0,0,0,0,0,0,0,-1,825,827,0,0
-392,197,0,0,0,0,0,0,0,0,0,-1,832,827,0,0
-385,197,0,0,0,0,0,0,0,0,0,-1,839,827,0,0
-378,197,0,0,0,0,0,0,0,0,0,-1,846,827,0,0
-371,197,0,0,0,0,0,0,0,0,0,-1,853,827,0,0
-364,197,0,0,0,0,0,0,0,0,0,-1,860,827,0,0
-357,197,0,0,0,0,0,0,0,0,0,-1,867,827,0,0
-350,197,0,0,0,0,0,0,0,0,0,-1,874,827,0,0
-343,197,0,0,0,0,0,0,0,0,0,-1,881,827,0,0
-336,197,0,0,0,0,0,0,0,0,0,-1,888,827,0,0
-329,197,0,0,0,0,0,0,0,0,0,-1,895,827,0,0
-322,197,0,0,0,0,0,0,0,0,0,-1,902,827,0,0
-315,197,0,0,0,0,0,0,0,0,0,-1,909,827,0,0
-308,197,0,0,0,0,0,0,0,0,0,-1,916,827,0,0
-301,197,0,0,0,0,0,0,0,0,0,-1,923,827,0,0
-294,197,0,0,0,0,0,0,0,0,0,-1,930,827,0,0
-287,197,0,0,0,0,0,0,0,0,0,-1,937,827,0,0
-280,197,0,0,0,0,0,0,0,0,0,-1,944,827,0,0
-273,197,0,0,0,0,0,0,0,0,0,-1,951,827,0,0
-266,197,0,0,0,0,0,0,0,0,0,-1,958,827,0,0
-259,197,0,0,0,0,0,0,0,0,0,-1,965,827,0,0
-252,197,0,0,0,0,0,0,0,0,0,-1,972,827,0,0
-245,197,0,0,0,0,0,0,0,0,0,-1,979,827,0,0
-238,197,0,0,0,0,0,0,0,0,0,-1,986,827,0,0
-231,197,0,0,0,0,0,0,0,0,0,-1,993,827,0,0
-224,197,0,0,0,0,0,0,0,0,0,-1,1000,827,0,0
-217,197,0,0,0,0,0,0,0,0,0,-1,1007,827,0,0
-210,197,0,0,0,0,0,0,0,0,0,-1,1014,827,0,0
-203,197,0,0,0,0,0,0,0,0,0,-1,1021,827,0,0
-196,197,0,0,0,0,0,0,0,0,0,-1,1028,827,0,0
-189,197,0,0,0,0,0,0,0,0,0,-1,1035,827,0,0
-182,197,0,0,0,0,0,0,0,0,0,-1,1042,827,0,0
-175,197,0,0,0,0,0,0,0,0,0,-1,1049,827,0,0
-168,197,0,0,0,0,0,0,0,0,0,-1,1056,827,0,0
-161,197,0,0,0,0,0,0,0,0,0,-1,1063,827,0,0
-154,197,0,0,0,0,0,0,0,0,0,-1,1070,827,0,0
-147,197,0,0,0,0,0,0,0,0,0,-1,1077,827,0,0
-140,197,0,0,0,0,0,0,0,0,0,-1,1084,827,0,0
-133,197,0,0,0,0,0,0,0,0,0,-1,1091,827,0,0
-126,197,0,0,0,0,0,0,0,0,0,-1,1098,827,0,0
-119,197,0,0,0,0,0,0,0,0,0,-1,1105,827,0,0
-112,197,0,0,0,0,0,0,0,0,0,-1,1112,827,0,0
-105,197,0,0,0,0,0,0,0,0,0,-1,1119,827,0,0
-98,197,0,0,0,0,0,0,0,0,0,-1,1126,827,0,0
-91,197,0,0,0,0,0,0,0,0,0,-1,1133,827,0,0
-84,197,0,0,0,0,0,0,0,0,0,-1,1140,827,0,0
-77,197,0,0,0,0,0,0,0,0,0,-1,1147,827,0,0
-70,197,0,0,0,0,0,0,0,0,0,-1,1154,827,0,0
-63,197,0,0,0,0,0,0,0,0,0,-1,1161,827,0,0
-56,197,0,0,0,0,0,0,0,0,0,-1,1168,827,0,0
-49,197,0,0,0,0,0,0,0,0,0,-1,1175,827,0,0
-42,197,0,0,0,0,0,0,0,0,0,-1,1182,827,0,0
-35,197,0,0,0,0,0,0,0,0,0,-1,1189,827,0,0
-28,197,0,0,0,0,0,0,0,0,0,-1,1196,827,0,0
-21,197,0,0,0,0,0,0,0,0,0,-1,1203,827,0,0
-14,197,0,0,0,0,0,0,0,0,0,-1,1210,827,0,0
-7,197,0,0,0,0,0,0,0,0,0,-1,1217,827,0,0
0,197,0,0,0,0,0,0,0,0,0,-1,1224,827,0,0
7,197,0,0,0,0,0,0,0,0,0,-1,1231,827,0,0
14,197,0,0,0,0,0,0,0,0,0,-1,1238,827,0,0
21,197,0,0,0,0,0,0,0,0,0,-1,1245,827,0,0
28,197,0,0,0,0,0,0,0,0,0,-1,1252,827,0,0
35,197,0,0,0,0,0,0,0,0,0,-1,1259,827,0,0
42,197,0,0,0,0,0,0,0,0,0,-1,1266,827,0,0
49,197,0,0,0,0,0,0,0,0,0,-1,1273,827,0,0
56,197,0,0,0,0,0,0,0,0,0,-1,1280,827,0,0
63,197,0,0,0,0,0,0,0,0,0,-1,1287,827,0,0
70,197,0,0,0,0,0,0,0,0,0,-1,1294,827,0,0
77,197,0,0,0,0,0,0,0,0,0,-1,1301,827,0,0
84,197,0,0,0,0,0,0,0,0,0,-1,1308,827,0,0
91,197,0,0,0,0,0,0,0,0,0,-1,1315,827,0,0
98,197,0,0,0,0,0,0,0,0,0,-1,1322,827,0,0
105,197,0,0,0,0,0,0,0,0,0,-1,1329,827,0,0
112,197,0,0,0,0,0,0,0,0,0,-1,1336,827,0,0
119,197,0,0,0,0,0,0,0,0,0,-1,1343,827,0,0
126,197,0,0,0,0,0,0,0,0,0,-1,1350,827,0,0
133,197,0,0,0,0,0,0,0,0,0,-1,1357,827,0,0
140,197,0,0,0,0,0,0,0,0,0,-1,1364,827,0,0
147,197,0,0,0,0,0,0,0,0,0,-1,1371,827,0,0
154,197,0,0,0,0,0,0,0,0,0,-1,1378,827,0,0
161,197,0,0,0,0,0,0,0,0,0,-1,1385,827,0,0
168,197,0,0,0,0,0,0,0,0,0,-1,1392,827,0,0
175,197,0,0,0,0,0,0,0,0,0,-1,1399,827,0,0
182,197,0,0,0,0,0,0,0,0,0,-1,1406,827,0,0
189,197,0,0,0,0,0,0,0,0,0,-1,1413,827,0,0
196,197,0,0,0,0,0,0,0,0,0,-1,1420,827,0,0
203,197,0,0,0,0,0,0,0,0,0,-1,1427,827,0,0
210,197,0,0,0,0,0,0,0,0,0,-1,1434,827,0,0
217,197,0,0,0,0,0,0,0,0,0,-1,1441,827,0,0
224,197,0,0,0,0,0,0,0,0,0,-1,1448,827,0,0
231,197,0,0,0,0,0,0,0,0,0,-1,1455,827,0,0
238,197,0,0,0,0,0,0,0,0,0,-1,1462,827,0,0
245,197,0,0,0,0,0,0,0,0,0,-1,1469,827,0,0
252,197,0,0,0,0,0,0,0,0,0,-1,1476,827,0,0
259,197,0,0,0,0,0,0,0,0,0,-1,1483,827,0,0
266,197,0,0,0,0,0,0,0,0,0,-1,1490,827,0,0
273,197,0,0,0,0,0,0,0,0,0,-1,1497,827,0,0
280,197,0,0,0,0,0,0,0,0,0,-1,1504,827,0,0
287,197,0,0,0,0,0,0,0,0,0,-1,1511,827,0,0
294,197,0,0,0,0,0,0,0,0,0,-1,1518,827,0,0
301,197,0,0,0,0,0,0,0,0,0,-1,1525,827,0,0
308,197,0,0,0,0,0,0,0,0,0,-1,1532,827,0,0
315,197,0,0,0,0,0,0,0,0,0,-1,1539,827,0,0
322,197,0,0,0,0,0,0,0,0,0,-1,1546,827,0,0
329,197,0,0,0,0,0,0,0,0,0,-1,1553,827,0,0
336,197,0,0,0,0,0,0,0,0,0,-1,1560,827,0,0
343,197,0,0,0,0,0,0,0,0,0,-1,1567,827,0,0
350,197,0,0,0,0,0,0,0,0,0,-1,1574,827,0,0
357,197,0,0,0,0,0,0,0,0,0,-1,1581,827,0,0
364,197,0,0,0,0,0,0,0,0,0,-1,1588,827,0,0
371,197,0,0,0,0,0,0,0,0,0,-1,1595,827,0,0
378,197,0,0,0,0,0,0,0,0,0,-1,1602,827,0,0
385,197,0,0,0,0,0,0,0,0,0,-1,1609,827,0,0
392,197,0,0,0,0,0,0,0,0,0,-1,1616,827,0,0
399,197,0,0,0,0,0,0,0,0,0,-1,1623,827,0,0
406,197,0,0,0,0,0,0,0,0,0,-1,1630,827,0,0
413,197,0,0,0,0,0,0,0,0,0,-1,1637,827,0,0
420,197,0,0,0,0,0,0,0,0,0,-1,1644,827,0,0
427,197,0,0,0,0,0,0,0,0,0,-1,1651,827,0,0
434,197,0,0,0,0,0,0,0,0,0,-1,1658,827,0,0
441,197,0,0,0,0,0,0,0,0,0,-1,1665,827,0,0
448,197,0,0,0,0,0,0,0,0,0,-1,1672,827,0,0
455,197,0,0,0,0,0,0,0,0,0,-1,1679,827,0,0
462,197,0,0,0,0,0,0,0,0,0,-1,1686,827,0,0
469,197,0,0,0,0,0,0,0,0,0,-1,1693,827,0,0
476,197,0,0,0,0,0,0,0,0,0,-1,1700,827,0,0
483,197,0,0,0,0,0,0,0,0,0,-1,1707,827,0,0
490,197,0,0,0,0,0,0,0,0,0,-1,1714,827,0,0
497,197,0,0,0,0,0,0,0,0,0,-1,1721,827,0,0
504,197,0,0,0,0,0,0,0,0,0,-1,1728,827,0,0
511,197,0,0,0,0,0,0,0,0,0,-1,1735,827,0,0
518,197,0,0,0,0,0,0,0,0,0,-1,1742,827,0,0
525,197,0,0,0,0,0,0,0,0,0,-1,1749,827,0,0
532,197,0,0,0,0,0,0,0,0,0,-1,1756,827,0,0
539,197,0,0,0,0,0,0,0,0,0,-1,1763,827,0,0
546,197,0,0,0,0,0,0,0,0,0,-1,1770,827,0,0
553,197,0,0,0,0,0,0,0,0,0,-1,1777,827,0,0
560,197,0,0,0,0,0,0,0,0,0,-1,1784,827,0,0
567,197,0,0,0,0,0,0,0,0,0,-1,1791,827,0,0
574,197,0,0,0,0,0,0,0,0,0,-1,1798,827,0,0
581,197,0,0,0,0,0,0,0,0,0,-1,1805,827,0,0
588,197,0,0,0,0,0,0,0,0,0,-1,1812,827,0,0
595,197,0,0,0,0,0,0,0,0,0,-1,1819,827,0,0
602,197,60.379,2.74573,0.00671812,-0.00272065,-0.00463299,0.00861214,-0.00461468,-0.388081,0.00775189,0.038423,1826,827,60.3791,-2.74573
609,197,60.4463,2.83771,0.00476691,-0.00148039,-0.00259002,0.00570102,-0.0024145,-0.346136,0.00481186,0.0387998,1833,827,60.4463,-2.83769
616,197,60.4646,2.6344,0.00301186,-0.000283955,-0.000745491,0.00317264,-0.000444737,-0.212419,0.00227786,0.0378008,1840,827,60.4646,-2.63443
623,197,60.4521,2.53241,0.00150566,0.000330803,0.000313083,0.00158389,0.000252579,0.244838,0.000982612,0.0341771,1847,827,60.4522,-2.53244
630,197,60.4674,2.55334,9.64069e-05,0.000546317,0.000552366,0.000917779,-0.000275055,0.978771,0.000721238,0.0303542,1854,827,60.4674,-2.55332
637,197,60.4713,2.58649,-0.000989479,0.00028807,0.00021879,0.000324501,-0.00102591,1.4058,0.000813961,0.0292769,1861,827,60.4713,-2.58649
644,197,60.3771,2.62897,-0.00179079,-2.6858e-05,-0.000138497,-1.60501e-05,-0.0018016,-1.49292,0.00119575,0.0344616,1868,827,60.377,-2.62899
651,197,60.2135,2.80414,0,0,0,0,0,0,0,-1,1875,827,60.2135,-2.80413
658,197,40.4694,3.05927,0,0,0,0,0,0,0,-1,1882,827,40.4694,-3.05926
665,197,14.0618,1.80304,0,0,0,0,0,0,0,-1,1889,827,14.0617,-1.80303
672,197,46.6077,-1.15747,0,0,0,0,0,0,0,-1,1896,827,46.6077,1.15746
679,197,46.4973,-0.450195,0,0,0,0,0,0,0,-1,1903,827,46.4973,0.450212
686,197,46.6711,0.571716,-0.0043744,-0.00148594,-0.0021028,-0.000379176,-0.00548117,-1.08631,0.0035345,0.0312678,1910,827,46.6711,-0.571711
693,197,46.5189,1.32434,-0.00398656,-0.00149872,-0.00245598,1.03945e-05,-0.00549567,-1.01981,0.00366725,0.0252071,1917,827,46.5189,-1.32434
700,197,46.5042,1.96027,-0.00303357,-0.00126192,-0.00234327,0.000357371,-0.00465286,-0.966109,0.00322763,0.025899,1924,827,46.5042,-1.96029
707,197,46.5,2.65527,-0.00145634,-0.000800611,-0.00168156,0.00058475,-0.0028417,-0.881678,0.00211648,0.0101838,1931,827,46.5,-2.65526
714,197,46.4656,3.34485,0.00096167,-0.000100628,-0.000590415,0.00122469,-0.000363651,-0.419096,0.000960897,0.0121311,1938,827,46.4656,-3.34484
721,197,46.4244,4.02887,0.00390619,0.00057847,0.000664118,0.00403384,0.000450827,0.189883,0.00255226,0.0119874,1945,827,46.4245,-4.02885
728,197,46.3781,4.71338,0.00727685,0.00106308,0.00199056,0.00785983,0.000480107,0.284902,0.00508741,0.0113615,1952,827,46.3781,-4.71336
735,197,46.321,5.40411,0.0110447,0.00131669,0.00334827,0.0120858,0.000275663,0.301441,0.00796687,0.0125485,1959,827,46.321,-5.40412
742,197,46.3047,6.086,0.0155551,0.00110193,0.00474077,0.0169713,-0.000314307,0.290297,0.0114204,0.0221574,1966,827,46.3047,-6.08603
749,197,46.6234,7.19098,0.0211889,0.00015372,0.00637382,0.0229695,-0.00162687,0.272415,0.0158831,0.0447967,1973,827,46.6234,-7.19098
756,197,47.1333,8.15271,0,0,0,0,0,0,0,-1,1980,827,47.1332,-8.15268
763,197,47.5629,8.78076,0,0,0,0,0,0,0,-1,1987,827,47.5629,-8.78079
770,197,47.9403,9.42865,0,0,0,0,0,0,0,-1,1994,827,47.9403,-9.42866
777,197,0,0,0,0,0,0,0,0,0,-1,2001,827,0,0
784,197,0,0,0,0,0,0,0,0,0,-1,2008,827,0,0
791,197,0,0,0,0,0,0,0,0,0,-1,2015,827,0,0
798,197,0,0,0,0,0,0,0,0,0,-1,2022,827,0,0
805,197,0,0,0,0,0,0,0,0,0,-1,2029,827,0,0
812,197,0,0,0,0,0,0,0,0,0,-1,2036,827,0,0
-700,190,0,0,0,0,0,0,0,0,0,-1,524,834,0,0
-693,190,0,0,0,0,0,0,0,0,0,-1,531,834,0,0
-686,190,0,0,0,0,0,0,0,0,0,-1,538,834,0,0
-679,190,0,0,0,0,0,0,0,0,0,-1,545,834,0,0
-672,190,0,0,0,0,0,0,0,0,0,-1,552,834,0,0
-665,190,0,0,0,0,0,0,0,0,0,-1,559,834,0,0
-658,190,-41.1679,5.51379,0,0,0,0,0,0,0,-1,566,834,-41.1679,-5.51377
-651,190,-40.1895,4.99677,0.084483,-0.0252924,-0.0317977,0.0930283,-0.0338378,-0.262539,0.075857,0.0482859,573,834,-40.1894,-4.99677
-644,190,-39.1886,4.41058,0.0711625,-0.0232901,-0.029938,0.0798523,-0.0319798,-0.282497,0.066509,0.0475107,580,834,-39.1886,-4.4106
-637,190,-37.7112,3.70337,0,0,0,0,0,0,0,-1,587,834,-37.7112,-3.70338
-630,190,-39.34,1.97888,0,0,0,0,0,0,0,-1,594,834,-39.3399,-1.97889
-623,190,-33.9686,4.81183,0,0,0,0,0,0,0,-1,601,834,-33.9686,-4.81181
-616,190,-33.9182,4.21234,0.031018,-0.0103147,-0.0129279,0.0347285,-0.0140251,-0.279499,0.0289816,0.0470569,608,834,-33.9181,-4.21237
-609,190,-33.8624,3.60321,0.0227812,-0.00709818,-0.00883453,0.0251978,-0.00951486,-0.267016,0.020712,0.025593,615,834,-33.8624,-3.60322
-602,190,-33.9006,2.9696,0.0154787,-0.00419371,-0.00508715,0.0167163,-0.00543135,-0.238651,0.0133288,0.0169064,622,834,-33.9006,-2.96963
-595,190,-33.9603,2.30133,0.00904666,-0.00220985,-0.00179597,0.00932626,-0.00248945,-0.154442,0.0071924,0.0187188,629,834,-33.9603,-2.30134
-588,190,-34.001,1.61401,0.00368266,0.000278963,0.000496939,0.00375373,0.000207893,0.142051,0.00243615,0.0193677,636,834,-34.0011,-1.61402
-581,190,-34.0286,0.949646,0.000448089,0.00123734,0.0014807,0.0023751,-0.000689673,0.915627,0.00185649,0.0142273,643,834,-34.0286,-0.949616
-574,190,-34.0294,0.277039,-0.000786177,0.00151416,0.00173235,0.0024434,-0.00171541,1.07845,0.00241332,0.0128864,650,834,-34.0293,-0.277052
-567,190,-33.9068,-0.471375,-0.000655272,0.00166825,0.00164467,0.0025201,-0.00150712,1.0929,0.00234951,0.0277588,657,834,-33.9068,0.471402
-560,190,-33.731,-1.25061,0,0,0,0,0,0,0,-1,664,834,-33.731,1.25061
-553,190,-33.9625,-1.6355,0,0,0,0,0,0,0,-1,671,834,-33.9625,1.63552
-546,190,-33.7621,-2.04889,0,0,0,0,0,0,0,-1,678,834,-33.7621,2.04886
-539,190,-16.4624,-0.542542,0,0,0,0,0,0,0,-1,685,834,-16.4624,0.542527
-532,190,-21.6292,2.06122,0,0,0,0,0,0,0,-1,692,834,-21.6292,-2.06123
-525,190,-38.9377,1.03369,0,0,0,0,0,0,0,-1,699,834,-38.9377,-1.0337
-518,190,-45.8812,0.860779,0,0,0,0,0,0,0,-1,706,834,-45.8812,-0.860751
-511,190,-45.9935,0.771118,0,0,0,0,0,0,0,-1,713,834,-45.9935,-0.771093
-504,190,-45.663,1.57904,0,0,0,0,0,0,0,-1,720,834,-45.663,-1.57902
-497,190,-45.865,0.847168,0.000781814,0.00339795,0.000905927,0.00368103,0.000498736,1.26794,0.00230583,0.0419056,727,834,-45.865,-0.847141
-490,190,-45.6827,0.960632,0.00189542,0.00663928,-0.00134822,0.00699567,0.00153902,-1.31236,0.00424482,0.0426855,734,834,-45.6827,-0.960652
-483,190,0,0,0,0,0,0,0,0,0,-1,741,834,0,0
-476,190,0,0,0,0,0,0,0,0,0,-1,748,834,0,0
-469,190,0,0,0,0,0,0,0,0,0,-1,755,834,0,0
-462,190,0,0,0,0,0,0,0,0,0,-1,762,834,0,0
-455,190,0,0,0,0,0,0,0,0,0,-1,769,834,0,0
-448,190,0,0,0,0,0,0,0,0,0,-1,776,834,0,0
-441,190,0,0,0,0,0,0,0,0,0,-1,783,834,0,0
-434,190,0,0,0,0,0,0,0,0,0,-1,790,834,0,0
-427,190,0,0,0,0,0,0,0,0,0,-1,797,834,0,0
-420,190,0,0,0,0,0,0,0,0,0,-1,804,834,0,0
-413,190,0,0,0,0,0,0,0,0,0,-1,811,834,0,0
-406,190,0,0,0,0,0,0,0,0,0,-1,818,834,0,0
-399,190,0,0,0,0,0,0,0,0,0,-1,825,834,0,0
-392,190,0,0,0,0,0,0,0,0,0,-1,832,834,0,0
-385,190,0,0,0,0,0,0,0,0,0,-1,839,834,0,0
-378,190,0,0,0,0,0,0,0,0,0,-1,846,834,0,0
-371,190,0,0,0,0,0,0,0,0,0,-1,853,834,0,0
-364,190,0,0,0,0,0,0,0,0,0,-1,860,834,0,0
-357,190,0,0,0,0,0,0,0,0,0,-1,867,834,0,0
-350,190,0,0,0,0,0,0,0,0,0,-1,874,834,0,0
-343,190,0,0,0,0,0,0,0,0,0,-1,881,834,0,0
-336,190,0,0,0,0,0,0,0,0,0,-1,888,834,0,0
-329,190,0,0,0,0,0,0,0,0,0,-1,895,834,0,0
-322,190,0,0,0,0,0,0,0,0,0,-1,902,834,0,0
-315,190,0,0,0,0,0,0,0,0,0,-1,909,834,0,0
-308,190,0,0,0,0,0,0,0,0,0,-1,916,834,0,0
-301,190,0,0,0,0,0,0,0,0,0,-1,923,834,0,0
-294,190,0,0,0,0,0,0,0,0,0,-1,930,834,0,0
-287,190,0,0,0,0,0,0,0,0,0,-1,937,834,0,0
-280,190,0,0,0,0,0,0,0,0,0,-1,944,834,0,0
-273,190,0,0,0,0,0,0,0,0,0,-1,951,834,0,0
-266,190,0,0,0,0,0,0,0,0,0,-1,958,834,0,0
-259,190,0,0,0,0,0,0,0,0,0,-1,965,834,0,0
-252,190,0,0,0,0,0,0,0,0,0,-1,972,834,0,0
-245,190,0,0,0,0,0,0,0,0,0,-1,979,834,0,0
-238,190,0,0,0,0,0,0,0,0,0,-1,986,834,0,0
-231,190,0,0,0,0,0,0,0,0,0,-1,993,834,0,0
-224,190,0,0,0,0,0,0,0,0,0,-1,1000,834,0,0
-217,190,0,0,0,0,0,0,0,0,0,-1,1007,834,0,0
-210,190,0,0,0,0,0,0,0,0,0,-1,1014,834,0,0
-203,190,0,0,0,0,0,0,0,0,0,-1,1021,834,0,0
-196,190,0,0,0,0,0,0,0,0,0,-1,1028,834,0,0
-189,190,0,0,0,0,0,0,0,0,0,-1,1035,834,0,0
-182,190,0,0,0,0,0,0,0,0,0,-1,1042,834,0,0
-175,190,0,0,0,0,0,0,0,0,0,-1,1049,834,0,0
-168,190,0,0,0,0,0,0,0,0,0,-1,1056,834,0,0
-161,190,0,0,0,0,0,0,0,0,0,-1,1063,834,0,0
-154,190,0,0,0,0,0,0,0,0,0,-1,1070,834,0,0
-147,190,0,0,0,0,0,0,0,0,0,-1,1077,834,0,0
-140,190,0,0,0,0,0,0,0,0,0,-1,1084,834,0,0
-133,190,0,0,0,0,0,0,0,0,0,-1,1091,834,0,0
-126,190,0,0,0,0,0,0,0,0,0,-1,1098,834,0,0
-119,190,0,0,0,0,0,0,0,0,0,-1,1105,834,0,0
-112,190,0,0,0,0,0,0,0,0,0,-1,1112,834,0,0
-105,190,0,0,0,0,0,0,0,0,0,-1,1119,834,0,0
-98,190,0,0,0,0,0,0,0,0,0,-1,1126,834,0,0
-91,190,0,0,0,0,0,0,0,0,0,-1,1133,834,0,0
-84,190,0,0,0,0,0,0,0,0,0,-1,1140,834,0,0
-77,190,0,0,0,0,0,0,0,0,0,-1,1147,834,0,0
-70,190,0,0,0,0,0,0,0,0,0,-1,1154,834,0,0
-63,190,0,0,0,0,0,0,0,0,0,-1,1161,834,0,0
-56,190,0,0,0,0,0,0,0,0,0,-1,1168,834,0,0
-49,190,0,0,0,0,0,0,0,0,0,-1,1175,834,0,0
-42,190,0,0,0,0,0,0,0,0,0,-1,1182,834,0,0
-35,190,0,0,0,0,0,0,0,0,0,-1,1189,834,0,0
-28,190,0,0,0,0,0,0,0,0,0,-1,1196,834,0,0
-21,190,0,0,0,0,0,0,0,0,0,-1,1203,834,0,0
-14,190,0,0,0,0,0,0,0,0,0,-1,1210,834,0,0
-7,190,0,0,0,0,0,0,0,0,0,-1,1217,834,0,0
0,190,0,0,0,0,0,0,0,0,0,-1,1224,834,0,0
7,190,0,0,0,0,0,0,0,0,0,-1,1231,834,0,0
14,190,0,0,0,0,0,0,0,0,0,-1,1238,834,0,0
21,190,0,0,0,0,0,0,0,0,0,-1,1245,834,0,0
28,190,0,0,0,0,0,0,0,0,0,-1,1252,834,0,0
35,190,0,0,0,0,0,0,0,0,0,-1,1259,834,0,0
42,190,0,0,0,0,0,0,0,0,0,-1,1266,834,0,0
49,190,0,0,0,0,0,0,0,0,0,-1,1273,834,0,0
56,190,0,0,0,0,0,0,0,0,0,-1,1280,834,0,0
63,190,0,0,0,0,0,0,0,0,0,-1,1287,834,0,0
70,190,0,0,0,0,0,0,0,0,0,-1,1294,834,0,0
77,190,0,0,0,0,0,0,0,0,0,-1,1301,834,0,0
84,190,0,0,0,0,0,0,0,0,0,-1,1308,834,0,0
91,190,0,0,0,0,0,0,0,0,0,-1,1315,834,0,0
98,190,0,0,0,0,0,0,0,0,0,-1,1322,834,0,0
105,190,0,0,0,0,0,0,0,0,0,-1,1329,834,0,0
112,190,0,0,0,0,0,0,0,0,0,-1,1336,834,0,0
119,190,0,0,0,0,0,0,0,0,0,-1,1343,834,0,0
126,190,0,0,0,0,0,0,0,0,0,-1,1350,834,0,0
133,190,0,0,0,0,0,0,0,0,0,-1,1357,834,0,0
140,190,0,0,0,0,0,0,0,0,0,-1,1364,834,0,0
147,190,0,0,0,0,0,0,0,0,0,-1,1371,834,0,0
154,190,0,0,0,0,0,0,0,0,0,-1,1378,834,0,0
161,190,0,0,0,0,0,0,0,0,0,-1,1385,834,0,0
168,190,0,0,0,0,0,0,0,0,0,-1,1392,834,0,0
175,190,0,0,0,0,0,0,0,0,0,-1,1399,834,0,0
182,190,0,0,0,0,0,0,0,0,0,-1,1406,834,0,0
189,190,0,0,0,0,0,0,0,0,0,-1,1413,834,0,0
196,190,0,0,0,0,0,0,0,0,0,-1,1420,834,0,0
203,190,0,0,0,0,0,0,0,0,0,-1,1427,834,0,0
210,190,0,0,0,0,0,0,0,0,0,-1,1434,834,0,0
217,190,0,0,0,0,0,0,0,0,0,-1,1441,834,0,0
224,190,0,0,0,0,0,0,0,0,0,-1,1448,834,0,0
231,190,0,0,0,0,0,0,0,0,0,-1,1455,834,0,0
238,190,0,0,0,0,0,0,0,0,0,-1,1462,834,0,0
245,190,0,0,0,0,0,0,0,0,0,-1,1469,834,0,0
252,190,0,0,0,0,0,0,0,0,0,-1,1476,834,0,0
259,190,0,0,0,0,0,0,0,0,0,-1,1483,834,0,0
266,190,0,0,0,0,0,0,0,0,0,-1,1490,834,0,0
273,190,0,0,0,0,0,0,0,0,0,-1,1497,834,0,0
280,190,0,0,0,0,0,0,0,0,0,-1,1504,834,0,0
287,190,0,0,0,0,0,0,0,0,0,-1,1511,834,0,0
294,190,0,0,0,0,0,0,0,0,0,-1,1518,834,0,0
301,190,0,0,0,0,0,0,0,0,0,-1,1525,834,0,0
308,190,0,0,0,0,0,0,0,0,0,-1,1532,834,0,0
315,190,0,0,0,0,0,0,0,0,0,-1,1539,834,0,0
322,190,0,0,0,0,0,0,0,0,0,-1,1546,834,0,0
329,190,0,0,0,0,0,0,0,0,0,-1,1553,834,0,0
336,190,0,0,0,0,0,0,0,0,0,-1,1560,834,0,0
343,190,0,0,0,0,0,0,0,0,0,-1,1567,834,0,0
350,190,0,0,0,0,0,0,0,0,0,-1,1574,834,0,0
357,190,0,0,0,0,0,0,0,0,0,-1,1581,834,0,0
364,190,0,0,0,0,0,0,0,0,0,-1,1588,834,0,0
371,190,0,0,0,0,0,0,0,0,0,-1,1595,834,0,0
378,190,0,0,0,0,0,0,0,0,0,-1,1602,834,0,0
385,190,0,0,0,0,0,0,0,0,0,-1,1609,834,0,0
392,190,0,0,0,0,0,0,0,0,0,-1,1616,834,0,0
399,190,0,0,0,0,0,0,0,0,0,-1,1623,834,0,0
406,190,0,0,0,0,0,0,0,0,0,-1,1630,834,0,0
413,190,0,0,0,0,0,0,0,0,0,-1,1637,834,0,0
420,190,0,0,0,0,0,0,0,0,0,-1,1644,834,0,0
427,190,0,0,0,0,0,0,0,0,0,-1,1651,834,0,0
434,190,0,0,0,0,0,0,0,0,0,-1,1658,834,0,0
441,190,0,0,0,0,0,0,0,0,0,-1,1665,834,0,0
448,190,0,0,0,0,0,0,0,0,0,-1,1672,834,0,0
455,190,0,0,0,0,0,0,0,0,0,-1,1679,834,0,0
462,190,0,0,0,0,0,0,0,0,0,-1,1686,834,0,0
469,190,0,0,0,0,0,0,0,0,0,-1,1693,834,0,0
476,190,0,0,0,0,0,0,0,0,0,-1,1700,834,0,0
483,190,0,0,0,0,0,0,0,0,0,-1,1707,834,0,0
490,190,0,0,0,0,0,0,0,0,0,-1,1714,834,0,0
497,190,0,0,0,0,0,0,0,0,0,-1,1721,834,0,0
504,190,0,0,0,0,0,0,0,0,0,-1,1728,834,0,0
511,190,0,0,0,0,0,0,0,0,0,-1,1735,834,0,0
518,190,0,0,0,0,0,0,0,0,0,-1,1742,834,0,0
525,190,0,0,0,0,0,0,0,0,0,-1,1749,834,0,0
532,190,0,0,0,0,0,0,0,0,0,-1,1756,834,0,0
539,190,0,0,0,0,0,0,0,0,0,-1,1763,834,0,0
546,190,0,0,0,0,0,0,0,0,0,-1,1770,834,0,0
553,190,0,0,0,0,0,0,0,0,0,-1,1777,834,0,0
560,190,0,0,0,0,0,0,0,0,0,-1,1784,834,0,0
567,190,0,0,0,0,0,0,0,0,0,-1,1791,834,0,0
574,190,0,0,0,0,0,0,0,0,0,-1,1798,834,0,0
581,190,0,0,0,0,0,0,0,0,0,-1,1805,834,0,0
588,190,0,0,0,0,0,0,0,0,0,-1,1812,834,0,0
595,190,0,0,0,0,0,0,0,0,0,-1,1819,834,0,0
602,190,60.3251,2.68793,0.00727964,-0.00279115,-0.00461712,0.00907601,-0.00458752,-0.371046,0.00802927,0.0402967,1826,834,60.3251,-2.68791
609,190,60.3046,2.75763,0.00563415,-0.00186832,-0.00277146,0.0065469,-0.00278107,-0.318151,0.00552987,0.0360098,1833,834,60.3046,-2.75762
616,190,60.4678,2.58978,0.00385611,-0.000894961,-0.0011675,0.0041275,-0.00116635,-0.228399,0.00321184,0.0360768,1840,834,60.4677,-2.58981
623,190,60.5715,2.53235,0.0020959,-0.000186845,2.70341e-05,0.00209623,-0.000187165,0.0118406,0.00146387,0.0357774,1847,834,60.5716,-2.53232
630,190,60.5387,2.57336,0.00035901,0.000177576,0.000450182,0.000727525,-0.000190939,0.685974,0.000559628,0.0392205,1854,834,60.5387,-2.57338
637,190,60.5031,2.56488,-0.00098597,2.03708e-05,0.000208318,6.17892e-05,-0.00102739,1.37453,0.000706423,0.0337581,1861,834,60.5031,-2.5649
644,190,60.4236,2.64966,-0.00193229,-0.000285724,-0.000136243,-0.000274526,-0.00194349,-1.4888,0.00121453,0.0275533,1868,834,60.4235,-2.64963
651,190,60.3699,2.81561,0,0,0,0,0,0,0,-1,1875,834,60.3698,-2.8156
658,190,54.0599,3.0943,0,0,0,0,0,0,0,-1,1882,834,54.0599,-3.09428
665,190,25.9916,3.05157,0,0,0,0,0,0,0,-1,1889,834,25.9916,-3.05156
672,190,27.2662,1.70862,0,0,0,0,0,0,0,-1,1896,834,27.2662,-1.70861
679,190,47.3105,0.0422363,0,0,0,0,0,0,0,-1,1903,834,47.3106,-0.0422262
686,190,47.328,0.674866,-0.00459908,-0.00142455,-0.00215878,-0.000332311,-0.00569132,-1.1024,0.00368843,0.0285835,1910,834,47.328,-0.674877
693,190,47.3719,1.34229,-0.00425932,-0.00143798,-0.00253113,4.9042e-05,-0.00574634,-1.03962,0.00384734,0.0280337,1917,834,47.3719,-1.34227
700,190,47.1733,1.99268,-0.00355373,-0.00128133,-0.00253154,0.000357295,-0.00519235,-0.996334,0.0035866,0.0184475,1924,834,47.1734,-1.9927
707,190,47.1805,2.67493,-0.00229704,-0.000920526,-0.00205676,0.000560076,-0.00377764,-0.946858,0.00272438,0.0143104,1931,834,47.1805,-2.67491
714,190,47.1686,3.34802,-7.77531e-05,-0.000237042,-0.00109847,0.00094396,-0.00125876,-0.749209,0.00127606,0.0122559,1938,834,47.1685,-3.34804
721,190,47.1244,4.03772,0.00273137,0.000517015,6.39313e-05,0.00273321,0.00051517,0.0288393,0.00167701,0.0112643,1945,834,47.1244,-4.03772
728,190,47.0879,4.71979,0.00598445,0.00116666,0.00135945,0.00634158,0.000809535,0.256896,0.00398537,0.0137787,1952,834,47.0879,-4.71982
735,190,47.059,5.38702,0.00959648,0.00167572,0.00268813,0.0104226,0.000849589,0.298162,0.00668323,0.0127757,1959,834,47.059,-5.38704
742,190,46.9891,6.09991,0.0137455,0.00188694,0.00405088,0.0149972,0.000635277,0.29968,0.00979322,0.0175005,1966,834,46.9891,-6.0999
749,190,47.2144,7.16132,0.0187474,0.00163032,0.00564663,0.0204423,-6.45826e-05,0.291605,0.0136497,0.0419474,1973,834,47.2143,-7.1613
756,190,47.408,8.20764,0,0,0,0,0,0,0,-1,1980,834,47.4079,-8.20764
763,190,48.3154,9.1554,0,0,0,0,0,0,0,-1,1987,834,48.3154,-9.15541
770,190,45.1699,8.8703,0,0,0,0,0,0,0,-1,1994,834,45.17,-8.87029
777,190,40.5735,6.99371,0,0,0,0,0,0,0,-1,2001,834,40.5735,-6.99373
784,190,0,0,0,0,0,0,0,0,0,-1,2008,834,0,0
791,190,0,0,0,0,0,0,0,0,0,-1,2015,834,0,0
798,190,0,0,0,0,0,0,0,0,0,-1,2022,834,0,0
805,190,0,0,0,0,0,0,0,0,0,-1,2029,834,0,0
812,190,0,0,0,0,0,0,0,0,0,-1,2036,834,0,0
-700,183,0,0,0,0,0,0,0,0,0,-1,524,841,0,0
-693,183,0,0,0,0,0,0,0,0,0,-1,531,841,0,0
-686,183,0,0,0,0,0,0,0,0,0,-1,538,841,0,0
-679,183,0,0,0,0,0,0,0,0,0,-1,545,841,0,0
-672,183,0,0,0,0,0,0,0,0,0,-1,552,841,0,0
-665,183,0,0,0,0,0,0,0,0,0,-1,559,841,0,0
-658,183,-41.5034,4.79205,0,0,0,0,0,0,0,-1,566,841,-41.5033,-4.79207
-651,183,-40.3624,4.61908,0.105095,-0.0296466,-0.0196709,0.107908,-0.0324596,-0.142041,0.0848542,0.0484969,573,841,-40.3624,-4.61907
-644,183,-39.2515,4.24902,0.0897996,-0.026879,-0.0196183,0.0930099,-0.0300893,-0.1622,0.0741015,0.0449929,580,841,-39.2515,-4.24905
-637,183,-38.0726,4.1145,0.0749563,-0.0231068,-0.0179527,0.0781396,-0.0262901,-0.175492,0.0627208,0.0470598,587,841,-38.0726,-4.1145
-630,183,-34.7909,5.38953,0,0,0,0,0,0,0,-1,594,841,-34.7909,-5.38955
-623,183,-34.7335,4.75018,0,0,0,0,0,0,0,-1,601,841,-34.7335,-4.7502
-616,183,-34.6656,4.18933,0.035995,-0.0111903,-0.00919577,0.0377238,-0.0129191,-0.18583,0.0303852,0.0397484,608,841,-34.6656,-4.18933
-609,183,-34.6035,3.62231,0.0250836,-0.00744501,-0.00606169,0.0261765,-0.00853789,-0.178376,0.020887,0.0172589,615,841,-34.6035,-3.62233
-602,183,-34.6116,2.9765,0.0156707,-0.00424848,-0.00299783,0.0161121,-0.00468987,-0.146186,0.0125991,0.0112553,622,841,-34.6116,-2.9765
-595,183,-34.6412,2.29974,0.00772642,-0.00196689,-0.000255216,0.00773313,-0.00197361,-0.0263048,0.00592391,0.0112826,629,841,-34.6411,-2.29973
-588,183,-34.6604,1.63141,0.0017038,0.000344495,0.00151258,0.0026824,-0.00063411,0.574248,0.00203288,0.0140319,636,841,-34.6604,-1.63143
-581,183,-34.7044,0.98114,-0.00123095,0.00106979,0.00208361,0.0022995,-0.00246067,1.03763,0.00274881,0.0152668,643,841,-34.7044,-0.981116
-574,183,-34.694,0.332214,-0.00181715,0.0014648,0.00194051,0.00236516,-0.00271751,1.13638,0.00293683,0.0174472,650,841,-34.694,-0.332215
-567,183,-34.6093,-0.307434,0,0,0,0,0,0,0,-1,657,841,-34.6092,0.307421
-560,183,-34.0303,-1.05511,0,0,0,0,0,0,0,-1,664,841,-34.0303,1.05511
-553,183,-32.2224,-1.71942,0,0,0,0,0,0,0,-1,671,841,-32.2224,1.71944
-546,183,-27.8053,-1.91199,0,0,0,0,0,0,0,-1,678,841,-27.8053,1.91201
-539,183,-16.8032,-0.417297,0,0,0,0,0,0,0,-1,685,841,-16.8032,0.41732
-532,183,-29.9686,0.953613,0,0,0,0,0,0,0,-1,692,841,-29.9686,-0.953627
-525,183,-45.73,1.01648,0,0,0,0,0,0,0,-1,699,841,-45.73,-1.01645
-518,183,-45.8759,0.958862,-0.000108307,0.00386386,0.00246442,0.00504288,-0.00128733,1.12456,0.0038632,0.0479111,706,841,-45.8758,-0.95889
-511,183,-45.829,1.00519,-0.000486243,0.00372268,0.00268307,0.00502815,-0.00179171,1.11796,0.00408256,0.0400474,713,841,-45.829,-1.00519
-504,183,-45.7078,1.36292,-5.26686e-06,0.00417727,0.00226532,0.00516903,-0.000997029,1.15813,0.00382196,0.0399698,720,841,-45.7078,-1.36291
-497,183,-45.8007,1.50458,0,0,0,0,0,0,0,-1,727,841,-45.8006,-1.50461
-490,183,-45.7098,1.05896,0,0,0,0,0,0,0,-1,734,841,-45.7098,-1.05894
-483,183,0,0,0,0,0,0,0,0,0,-1,741,841,0,0
-476,183,0,0,0,0,0,0,0,0,0,-1,748,841,0,0
-469,183,0,0,0,0,0,0,0,0,0,-1,755,841,0,0
-462,183,0,0,0,0,0,0,0,0,0,-1,762,841,0,0
-455,183,0,0,0,0,0,0,0,0,0,-1,769,841,0,0
-448,183,0,0,0,0,0,0,0,0,0,-1,776,841,0,0
-441,183,0,0,0,0,0,0,0,0,0,-1,783,841,0,0
-434,183,0,0,0,0,0,0,0,0,0,-1,790,841,0,0
-427,183,0,0,0,0,0,0,0,0,0,-1,797,841,0,0
-420,183,0,0,0,0,0,0,0,0,0,-1,804,841,0,0
-413,183,0,0,0,0,0,0,0,0,0,-1,811,841,0,0
-406,183,0,0,0,0,0,0,0,0,0,-1,818,841,0,0
-399,183,0,0,0,0,0,0,0,0,0,-1,825,841,0,0
-392,183,0,0,0,0,0,0,0,0,0,-1,832,841,0,0
-385,183,0,0,0,0,0,0,0,0,0,-1,839,841,0,0
-378,183,0,0,0,0,0,0,0,0,0,-1,846,841,0,0
-371,183,0,0,0,0,0,0,0,0,0,-1,853,841,0,0
-364,183,0,0,0,0,0,0,0,0,0,-1,860,841,0,0
-357,183,0,0,0,0,0,0,0,0,0,-1,867,841,0,0
-350,183,0,0,0,0,0,0,0,0,0,-1,874,841,0,0
-343,183,0,0,0,0,0,0,0,0,0,-1,881,841,0,0
-336,183,0,0,0,0,0,0,0,0,0,-1,888,841,0,0
-329,183,0,0,0,0,0,0,0,0,0,-1,895,841,0,0
-322,183,0,0,0,0,0,0,0,0,0,-1,902,841,0,0
-315,183,0,0,0,0,0,0,0,0,0,-1,909,841,0,0
-308,183,0,0,0,0,0,0,0,0,0,-1,916,841,0,0
-301,183,0,0,0,0,0,0,0,0,0,-1,923,841,0,0
-294,183,0,0,0,0,0,0,0,0,0,-1,930,841,0,0
-287,183,0,0,0,0,0,0,0,0,0,-1,937,841,0,0
-280,183,0,0,0,0,0,0,0,0,0,-1,944,841,0,0
-273,183,0,0,0,0,0,0,0,0,0,-1,951,841,0,0
-266,183,0,0,0,0,0,0,0,0,0,-1,958,841,0,0
-259,183,0,0,0,0,0,0,0,0,0,-1,965,841,0,0
-252,183,0,0,0,0,0,0,0,0,0,-1,972,841,0,0
-245,183,0,0,0,0,0,0,0,0,0,-1,979,841,0,0
-238,183,0,0,0,0,0,0,0,0,0,-1,986,841,0,0
-231,183,0,0,0,0,0,0,0,0,0,-1,993,841,0,0
-224,183,0,0,0,0,0,0,0,0,0,-1,1000,841,0,0
-217,183,0,0,0,0,0,0,0,0,0,-1,1007,841,0,0
-210,183,0,0,0,0,0,0,0,0,0,-1,1014,841,0,0
-203,183,0,0,0,0,0,0,0,0,0,-1,1021,841,0,0
-196,183,0,0,0,0,0,0,0,0,0,-1,1028,841,0,0
-189,183,0,0,0,0,0,0,0,0,0,-1,1035,841,0,0
-182,183,0,0,0,0,0,0,0,0,0,-1,1042,841,0,0
-175,183,0,0,0,0,0,0,0,0,0,-1,1049,841,0,0
-168,183,0,0,0,0,0,0,0,0,0,-1,1056,841,0,0
-161,183,0,0,0,0,0,0,0,0,0,-1,1063,841,0,0
-154,183,0,0,0,0,0,0,0,0,0,-1,1070,841,0,0
-147,183,0,0,0,0,0,0,0,0,0,-1,1077,841,0,0
-140,183,0,0,0,0,0,0,0,0,0,-1,1084,841,0,0
-133,183,0,0,0,0,0,0,0,0,0,-1,1091,841,0,0
-126,183,0,0,0,0,0,0,0,0,0,-1,1098,841,0,0
-119,183,0,0,0,0,0,0,0,0,0,-1,1105,841,0,0
-112,183,0,0,0,0,0,0,0,0,0,-1,1112,841,0,0
-105,183,0,0,0,0,0,0,0,0,0,-1,1119,841,0,0
-98,183,0,0,0,0,0,0,0,0,0,-1,1126,841,0,0
-91,183,0,0,0,0,0,0,0,0,0,-1,1133,841,0,0
-84,183,0,0,0,0,0,0,0,0,0,-1,1140,841,0,0
-77,183,0,0,0,0,0,0,0,0,0,-1,1147,841,0,0
-70,183,0,0,0,0,0,0,0,0,0,-1,1154,841,0,0
-63,183,0,0,0,0,0,0,0,0,0,-1,1161,841,0,0
-56,183,0,0,0,0,0,0,0,0,0,-1,1168,841,0,0
-49,183,0,0,0,0,0,0,0,0,0,-1,1175,841,0,0
-42,183,0,0,0,0,0,0,0,0,0,-1,1182,841,0,0
-35,183,0,0,0,0,0,0,0,0,0,-1,1189,841,0,0
-28,183,0,0,0,0,0,0,0,0,0,-1,1196,841,0,0
-21,183,0,0,0,0,0,0,0,0,0,-1,1203,841,0,0
-14,183,0,0,0,0,0,0,0,0,0,-1,1210,841,0,0
-7,183,0,0,0,0,0,0,0,0,0,-1,1217,841,0,0
0,183,0,0,0,0,0,0,0,0,0,-1,1224,841,0,0
7,183,0,0,0,0,0,0,0,0,0,-1,1231,841,0,0
14,183,0,0,0,0,0,0,0,0,0,-1,1238,841,0,0
21,183,0,0,0,0,0,0,0,0,0,-1,1245,841,0,0
28,183,0,0,0,0,0,0,0,0,0,-1,1252,841,0,0
35,183,0,0,0,0,0,0,0,0,0,-1,1259,841,0,0
42,183,0,0,0,0,0,0,0,0,0,-1,1266,841,0,0
49,183,0,0,0,0,0,0,0,0,0,-1,1273,841,0,0
56,183,0,0,0,0,0,0,0,0,0,-1,1280,841,0,0
63,183,0,0,0,0,0,0,0,0,0,-1,1287,841,0,0
70,183,0,0,0,0,0,0,0,0,0,-1,1294,841,0,0
77,183,0,0,0,0,0,0,0,0,0,-1,1301,841,0,0
84,183,0,0,0,0,0,0,0,0,0,-1,1308,841,0,0
91,183,0,0,0,0,0,0,0,0,0,-1,1315,841,0,0
98,183,0,0,0,0,0,0,0,0,0,-1,1322,841,0,0
105,183,0,0,0,0,0,0,0,0,0,-1,1329,841,0,0
112,183,0,0,0,0,0,0,0,0,0,-1,1336,841,0,0
119,183,0,0,0,0,0,0,0,0,0,-1,1343,841,0,0
126,183,0,0,0,0,0,0,0,0,0,-1,1350,841,0,0
133,183,0,0,0,0,0,0,0,0,0,-1,1357,841,0,0
140,183,0,0,0,0,0,0,0,0,0,-1,1364,841,0,0
147,183,0,0,0,0,0,0,0,0,0,-1,1371,841,0,0
154,183,0,0,0,0,0,0,0,0,0,-1,1378,841,0,0
161,183,0,0,0,0,0,0,0,0,0,-1,1385,841,0,0
168,183,0,0,0,0,0,0,0,0,0,-1,1392,841,0,0
175,183,0,0,0,0,0,0,0,0,0,-1,1399,841,0,0
182,183,0,0,0,0,0,0,0,0,0,-1,1406,841,0,0
189,183,0,0,0,0,0,0,0,0,0,-1,1413,841,0,0
196,183,0,0,0,0,0,0,0,0,0,-1,1420,841,0,0
203,183,0,0,0,0,0,0,0,0,0,-1,1427,841,0,0
210,183,0,0,0,0,0,0,0,0,0,-1,1434,841,0,0
217,183,0,0,0,0,0,0,0,0,0,-1,1441,841,0,0
224,183,0,0,0,0,0,0,0,0,0,-1,1448,841,0,0
231,183,0,0,0,0,0,0,0,0,0,-1,1455,841,0,0
238,183,0,0,0,0,0,0,0,0,0,-1,1462,841,0,0
245,183,0,0,0,0,0,0,0,0,0,-1,1469,841,0,0
252,183,0,0,0,0,0,0,0,0,0,-1,1476,841,0,0
259,183,0,0,0,0,0,0,0,0,0,-1,1483,841,0,0
266,183,0,0,0,0,0,0,0,0,0,-1,1490,841,0,0
273,183,0,0,0,0,0,0,0,0,0,-1,1497,841,0,0
280,183,0,0,0,0,0,0,0,0,0,-1,1504,841,0,0
287,183,0,0,0,0,0,0,0,0,0,-1,1511,841,0,0
294,183,0,0,0,0,0,0,0,0,0,-1,1518,841,0,0
301,183,0,0,0,0,0,0,0,0,0,-1,1525,841,0,0
308,183,0,0,0,0,0,0,0,0,0,-1,1532,841,0,0
315,183,0,0,0,0,0,0,0,0,0,-1,1539,841,0,0
322,183,0,0,0,0,0,0,0,0,0,-1,1546,841,0,0
329,183,0,0,0,0,0,0,0,0,0,-1,1553,841,0,0
336,183,0,0,0,0,0,0,0,0,0,-1,1560,841,0,0
343,183,0,0,0,0,0,0,0,0,0,-1,1567,841,0,0
350,183,0,0,0,0,0,0,0,0,0,-1,1574,841,0,0
357,183,0,0,0,0,0,0,0,0,0,-1,1581,841,0,0
364,183,0,0,0,0,0,0,0,0,0,-1,1588,841,0,0
371,183,0,0,0,0,0,0,0,0,0,-1,1595,841,0,0
378,183,0,0,0,0,0,0,0,0,0,-1,1602,841,0,0
385,183,0,0,0,0,0,0,0,0,0,-1,1609,841,0,0
392,183,0,0,0,0,0,0,0,0,0,-1,1616,841,0,0
399,183,0,0,0,0,0,0,0,0,0,-1,1623,841,0,0
406,183,0,0,0,0,0,0,0,0,0,-1,1630,841,0,0
413,183,0,0,0,0,0,0,0,0,0,-1,1637,841,0,0
420,183,0,0,0,0,0,0,0,0,0,-1,1644,841,0,0
427,183,0,0,0,0,0,0,0,0,0,-1,1651,841,0,0
434,183,0,0,0,0,0,0,0,0,0,-1,1658,841,0,0
441,183,0,0,0,0,0,0,0,0,0,-1,1665,841,0,0
448,183,0,0,0,0,0,0,0,0,0,-1,1672,841,0,0
455,183,0,0,0,0,0,0,0,0,0,-1,1679,841,0,0
462,183,0,0,0,0,0,0,0,0,0,-1,1686,841,0,0
469,183,0,0,0,0,0,0,0,0,0,-1,1693,841,0,0
476,183,0,0,0,0,0,0,0,0,0,-1,1700,841,0,0
483,183,0,0,0,0,0,0,0,0,0,-1,1707,841,0,0
490,183,0,0,0,0,0,0,0,0,0,-1,1714,841,0,0
497,183,0,0,0,0,0,0,0,0,0,-1,1721,841,0,0
504,183,0,0,0,0,0,0,0,0,0,-1,1728,841,0,0
511,183,0,0,0,0,0,0,0,0,0,-1,1735,841,0,0
518,183,0,0,0,0,0,0,0,0,0,-1,1742,841,0,0
525,183,0,0,0,0,0,0,0,0,0,-1,1749,841,0,0
532,183,0,0,0,0,0,0,0,0,0,-1,1756,841,0,0
539,183,0,0,0,0,0,0,0,0,0,-1,1763,841,0,0
546,183,0,0,0,0,0,0,0,0,0,-1,1770,841,0,0
553,183,0,0,0,0,0,0,0,0,0,-1,1777,841,0,0
560,183,0,0,0,0,0,0,0,0,0,-1,1784,841,0,0
567,183,0,0,0,0,0,0,0,0,0,-1,1791,841,0,0
574,183,0,0,0,0,0,0,0,0,0,-1,1798,841,0,0
581,183,0,0,0,0,0,0,0,0,0,-1,1805,841,0,0
588,183,0,0,0,0,0,0,0,0,0,-1,1812,841,0,0
595,183,0,0,0,0,0,0,0,0,0,-1,1819,841,0,0
602,183,0,0,0,0,0,0,0,0,0,-1,1826,841,0,0
609,183,60.2517,2.79456,0.00594577,-0.00274418,-0.00308885,0.00693182,-0.00373023,-0.309003,0.00624756,0.0384188,1833,841,60.2517,-2.79458
616,183,60.3574,2.48199,0.00430482,-0.00181458,-0.00155646,0.00467795,-0.00218771,-0.23529,0.00404987,0.0376506,1840,841,60.3574,-2.48198
623,183,60.5754,2.42529,0.00259397,-0.000919288,-0.00021417,0.00260698,-0.000932296,-0.060661,0.00211828,0.0407204,1847,841,60.5755,-2.4253
630,183,60.5377,2.63672,0.000817987,-0.000277974,0.000417856,0.000959126,-0.000419113,0.325739,0.000815833,0.0395797,1854,841,60.5378,-2.63673
637,183,60.4695,2.63141,-0.000693635,-0.000167504,0.000328456,-9.7524e-06,-0.000851386,1.12305,0.000564368,0.0331856,1861,841,60.4694,-2.63142
644,183,60.3506,2.65002,-0.00177088,-0.00036747,1.05745e-05,-0.00036739,-0.00177096,1.56326,0.00107923,0.0269562,1868,841,60.3505,-2.65005
651,183,60.4103,2.72009,-0.00250133,-0.00068835,-0.000390828,-0.000607687,-0.00258199,-1.36726,0.00155876,0.0268293,1875,841,60.4103,-2.72006
658,183,60.5203,2.68518,0,0,0,0,0,0,0,-1,1882,841,60.5203,-2.68516
665,183,38.4337,2.66992,0,0,0,0,0,0,0,-1,1889,841,38.4337,-2.6699
672,183,29.168,1.54572,0,0,0,0,0,0,0,-1,1896,841,29.168,-1.54574
679,183,48.1667,0.173157,0,0,0,0,0,0,0,-1,1903,841,48.1667,-0.173177
686,183,48.1216,0.755676,-0.0043896,-0.00115972,-0.00209588,-0.000128769,-0.00542056,-1.11365,0.00357155,0.0352816,1910,841,48.1216,-0.755675
693,183,48.0836,1.34174,-0.00407735,-0.00117968,-0.00245677,0.000223646,-0.00548067,-1.05182,0.00373057,0.0316035,1917,841,48.0836,-1.34174
700,183,47.928,2.0304,-0.00355424,-0.001112,-0.00252553,0.00047213,-0.00513837,-1.01058,0.00359331,0.033089,1924,841,47.928,-2.03038
707,183,47.8584,2.70557,-0.00263014,-0.000896389,-0.00222167,0.000621541,-0.00414807,-0.971409,0.00299414,0.0130994,1931,841,47.8585,-2.70555
714,183,47.8817,3.37299,-0.000744798,-0.00029585,-0.00144393,0.000940954,-0.0019816,-0.862511,0.00172263,0.017178,1938,841,47.8817,-3.37298
721,183,47.8274,4.04108,0.00176212,0.000515881,-0.000406744,0.00188312,0.000394877,-0.289155,0.00114668,0.0162744,1945,841,47.8274,-4.04107
728,183,47.7852,4.73779,0.00472851,0.00132374,0.000828467,0.0049194,0.00113286,0.226456,0.00297477,0.0136725,1952,841,47.7852,-4.73777
735,183,47.7513,5.40851,0.00803123,0.00209004,0.00211982,0.00871003,0.00141124,0.309898,0.00539812,0.0119065,1959,841,47.7513,-5.4085
742,183,47.7357,6.10205,0.0116574,0.00272949,0.00345397,0.0128376,0.00154925,0.329265,0.00809156,0.0132403,1966,841,47.7357,-6.10205
749,183,47.921,7.01324,0.0158244,0.00314217,0.00499866,0.0175577,0.00140885,0.333782,0.0112649,0.0368014,1973,841,47.921,-7.01326
756,183,48.1317,7.96674,0,0,0,0,0,0,0,-1,1980,841,48.1317,-7.96677
763,183,46.9092,8.95667,0,0,0,0,0,0,0,-1,1987,841,46.9091,-8.95667
770,183,41.0603,7.72028,0,0,0,0,0,0,0,-1,1994,841,41.0603,-7.72026
777,183,42.1948,7.22906,0,0,0,0,0,0,0,-1,2001,841,42.1948,-7.22905
784,183,0,0,0,0,0,0,0,0,0,-1,2008,841,0,0
791,183,0,0,0,0,0,0,0,0,0,-1,2015,841,0,0
798,183,0,0,0,0,0,0,0,0,0,-1,2022,841,0,0
805,183,0,0,0,0,0,0,0,0,0,-1,2029,841,0,0
812,183,0,0,0,0,0,0,0,0,0,-1,2036,841,0,0
-700,176,0,0,0,0,0,0,0,0,0,-1,524,848,0,0
-693,176,0,0,0,0,0,0,0,0,0,-1,531,848,0,0
-686,176,0,0,0,0,0,0,0,0,0,-1,538,848,0,0
-679,176,0,0,0,0,0,0,0,0,0,-1,545,848,0,0
-672,176,0,0,0,0,0,0,0,0,0,-1,552,848,0,0
-665,176,-43.8984,7.03381,0,0,0,0,0,0,0,-1,559,848,-43.8983,-7.0338
-658,176,-43.8357,7.30511,0,0,0,0,0,0,0,-1,566,848,-43.8357,-7.30509
-651,176,-40.7421,5.14581,0,0,0,0,0,0,0,-1,573,848,-40.7421,-5.14583
-644,176,-39.772,4.98273,0.103836,-0.0296464,-0.0100926,0.104595,-0.0304051,-0.0750416,0.0817715,0.0440694,580,848,-39.772,-4.98272
-637,176,-38.7249,4.75,0.0859076,-0.0252218,-0.0104118,0.0868747,-0.0261888,-0.0926164,0.0683397,0.0429585,587,848,-38.7249,-4.74998
-630,176,-37.3911,4.15991,0.0688168,-0.0205531,-0.00947163,0.0698096,-0.0215459,-0.104437,0.0551431,0.0419099,594,848,-37.3911,-4.1599
-623,176,-35.4133,4.69714,0,0,0,0,0,0,0,-1,601,848,-35.4132,-4.69714
-616,176,-35.3265,4.21173,0.038548,-0.0117408,-0.00596773,0.0392465,-0.0124393,-0.116513,0.03115,0.0289645,608,848,-35.3265,-4.21171
-609,176,-35.273,3.6405,0.0255321,-0.00758663,-0.00365631,0.025931,-0.00798548,-0.108657,0.020475,0.012413,615,848,-35.273,-3.64049
-602,176,-35.2794,2.97559,0.0145407,-0.00416496,-0.00112959,0.0146087,-0.00423293,-0.0600964,0.0114148,0.0125028,622,848,-35.2794,-2.97559
-595,176,-35.3283,2.30756,0.00561753,-0.00165426,0.00114329,0.00579305,-0.00182977,0.152328,0.00459504,0.011877,629,848,-35.3283,-2.30758
-588,176,-35.3259,1.66418,-0.000357874,0.000361003,0.00241697,0.00244512,-0.00244199,0.859214,0.00282157,0.0139404,636,848,-35.3259,-1.6642
-581,176,-35.3745,1.04559,-0.00242075,0.00085608,0.00262165,0.00230918,-0.00387385,1.06468,0.00360768,0.0130337,643,848,-35.3744,-1.04562
-574,176,-35.4434,0.387878,-0.00231654,0.00122686,0.00229117,0.00235143,-0.00344111,1.11451,0.00336399,0.026111,650,848,-35.4433,-0.387901
-567,176,-35.0059,-0.0762939,0,0,0,0,0,0,0,-1,657,848,-35.0059,0.0762808
-560,176,-31.6935,-0.0994873,0,0,0,0,0,0,0,-1,664,848,-31.6936,0.0994584
-553,176,-29.4605,-1.50214,0,0,0,0,0,0,0,-1,671,848,-29.4605,1.50211
-546,176,-16.657,-0.403198,0,0,0,0,0,0,0,-1,678,848,-16.657,0.403182
-539,176,-22.7061,1.48657,0,0,0,0,0,0,0,-1,685,848,-22.7061,-1.48657
-532,176,-38.8326,1.29749,0,0,0,0,0,0,0,-1,692,848,-38.8326,-1.29747
-525,176,-45.8111,0.97113,0,0,0,0,0,0,0,-1,699,848,-45.8111,-0.971113
-518,176,-45.8693,0.993713,0.000164992,0.00456422,0.0023604,0.00559103,-0.000861813,1.16047,0.00404534,0.0420159,706,848,-45.8693,-0.993721
-511,176,-45.7512,0.945313,-0.000387946,0.00484523,0.00266019,0.00596001,-0.00150273,1.17397,0.00455759,0.0379191,713,848,-45.7512,-0.945334
-504,176,-45.7479,1.11993,-0.000178848,0.00593579,0.00231315,0.00671225,-0.000955306,1.24694,0.0048249,0.0395605,720,848,-45.7479,-1.11996
-497,176,-45.9533,1.19891,0.00043123,0.00815211,0.00110899,0.00830824,0.000275096,1.43093,0.00544945,0.0429073,727,848,-45.9533,-1.1989
-490,176,-45.8201,1.02039,0,0,0,0,0,0,0,-1,734,848,-45.8201,-1.0204
-483,176,0,0,0,0,0,0,0,0,0,-1,741,848,0,0
-476,176,0,0,0,0,0,0,0,0,0,-1,748,848,0,0
-469,176,0,0,0,0,0,0,0,0,0,-1,755,848,0,0
-462,176,0,0,0,0,0,0,0,0,0,-1,762,848,0,0
-455,176,0,0,0,0,0,0,0,0,0,-1,769,848,0,0
-448,176,0,0,0,0,0,0,0,0,0,-1,776,848,0,0
-441,176,0,0,0,0,0,0,0,0,0,-1,783,848,0,0
-434,176,0,0,0,0,0,0,0,0,0,-1,790,848,0,0
-427,176,0,0,0,0,0,0,0,0,0,-1,797,848,0,0
-420,176,0,0,0,0,0,0,0,0,0,-1,804,848,0,0
-413,176,0,0,0,0,0,0,0,0,0,-1,811,848,0,0
-406,176,0,0,0,0,0,0,0,0,0,-1,818,848,0,0
-399,176,0,0,0,0,0,0,0,0,0,-1,825,848,0,0
-392,176,0,0,0,0,0,0,0,0,0,-1,832,848,0,0
-385,176,0,0,0,0,0,0,0,0,0,-1,839,848,0,0
-378,176,0,0,0,0,0,0,0,0,0,-1,846,848,0,0
-371,176,0,0,0,0,0,0,0,0,0,-1,853,848,0,0
-364,176,0,0,0,0,0,0,0,0,0,-1,860,848,0,0
-357,176,0,0,0,0,0,0,0,0,0,-1,867,848,0,0
-350,176,0,0,0,0,0,0,0,0,0,-1,874,848,0,0
-343,176,0,0,0,0,0,0,0,0,0,-1,881,848,0,0
-336,176,0,0,0,0,0,0,0,0,0,-1,888,848,0,0
-329,176,0,0,0,0,0,0,0,0,0,-1,895,848,0,0
-322,176,0,0,0,0,0,0,0,0,0,-1,902,848,0,0
-315,176,0,0,0,0,0,0,0,0,0,-1,909,848,0,0
-308,176,0,0,0,0,0,0,0,0,0,-1,916,848,0,0
-301,176,0,0,0,0,0,0,0,0,0,-1,923,848,0,0
-294,176,0,0,0,0,0,0,0,0,0,-1,930,848,0,0
-287,176,0,0,0,0,0,0,0,0,0,-1,937,848,0,0
-280,176,0,0,0,0,0,0,0,0,0,-1,944,848,0,0
-273,176,0,0,0,0,0,0,0,0,0,-1,951,848,0,0
-266,176,0,0,0,0,0,0,0,0,0,-1,958,848,0,0
-259,176,0,0,0,0,0,0,0,0,0,-1,965,848,0,0
-252,176,0,0,0,0,0,0,0,0,0,-1,972,848,0,0
-245,176,0,0,0,0,0,0,0,0,0,-1,979,848,0,0
-238,176,0,0,0,0,0,0,0,0,0,-1,986,848,0,0
-231,176,0,0,0,0,0,0,0,0,0,-1,993,848,0,0
-224,176,0,0,0,0,0,0,0,0,0,-1,1000,848,0,0
-217,176,0,0,0,0,0,0,0,0,0,-1,1007,848,0,0
-210,176,0,0,0,0,0,0,0,0,0,-1,1014,848,0,0
-203,176,0,0,0,0,0,0,0,0,0,-1,1021,848,0,0
-196,176,0,0,0,0,0,0,0,0,0,-1,1028,848,0,0
-189,176,0,0,0,0,0,0,0,0,0,-1,1035,848,0,0
-182,176,0,0,0,0,0,0,0,0,0,-1,1042,848,0,0
-175,176,0,0,0,0,0,0,0,0,0,-1,1049,848,0,0
-168,176,0,0,0,0,0,0,0,0,0,-1,1056,848,0,0
-161,176,0,0,0,0,0,0,0,0,0,-1,1063,848,0,0
-154,176,0,0,0,0,0,0,0,0,0,-1,1070,848,0,0
-147,176,0,0,0,0,0,0,0,0,0,-1,1077,848,0,0
-140,176,0,0,0,0,0,0,0,0,0,-1,1084,848,0,0
-133,176,0,0,0,0,0,0,0,0,0,-1,1091,848,0,0
-126,176,0,0,0,0,0,0,0,0,0,-1,1098,848,0,0
-119,176,0,0,0,0,0,0,0,0,0,-1,1105,848,0,0
-112,176,0,0,0,0,0,0,0,0,0,-1,1112,848,0,0
-105,176,0,0,0,0,0,0,0,0,0,-1,1119,848,0,0
-98,176,0,0,0,0,0,0,0,0,0,-1,1126,848,0,0
-91,176,0,0,0,0,0,0,0,0,0,-1,1133,848,0,0
-84,176,0,0,0,0,0,0,0,0,0,-1,1140,848,0,0
-77,176,0,0,0,0,0,0,0,0,0,-1,1147,848,0,0
-70,176,0,0,0,0,0,0,0,0,0,-1,1154,848,0,0
-63,176,0,0,0,0,0,0,0,0,0,-1,1161,848,0,0
-56,176,0,0,0,0,0,0,0,0,0,-1,1168,848,0,0
-49,176,0,0,0,0,0,0,0,0,0,-1,1175,848,0,0
-42,176,0,0,0,0,0,0,0,0,0,-1,1182,848,0,0
-35,176,0,0,0,0,0,0,0,0,0,-1,1189,848,0,0
-28,176,0,0,0,0,0,0,0,0,0,-1,1196,848,0,0
-21,176,0,0,0,0,0,0,0,0,0,-1,1203,848,0,0
-14,176,0,0,0,0,0,0,0,0,0,-1,1210,848,0,0
-7,176,0,0,0,0,0,0,0,0,0,-1,1217,848,0,0
0,176,0,0,0,0,0,0,0,0,0,-1,1224,848,0,0
7,176,0,0,0,0,0,0,0,0,0,-1,1231,848,0,0
14,176,0,0,0,0,0,0,0,0,0,-1,1238,848,0,0
21,176,0,0,0,0,0,0,0,0,0,-1,1245,848,0,0
28,176,0,0,0,0,0,0,0,0,0,-1,1252,848,0,0
35,176,0,0,0,0,0,0,0,0,0,-1,1259,848,0,0
42,176,0,0,0,0,0,0,0,0,0,-1,1266,848,0,0
49,176,0,0,0,0,0,0,0,0,0,-1,1273,848,0,0
56,176,0,0,0,0,0,0,0,0,0,-1,1280,848,0,0
63,176,0,0,0,0,0,0,0,0,0,-1,1287,848,0,0
70,176,0,0,0,0,0,0,0,0,0,-1,1294,848,0,0
77,176,0,0,0,0,0,0,0,0,0,-1,1301,848,0,0
84,176,0,0,0,0,0,0,0,0,0,-1,1308,848,0,0
91,176,0,0,0,0,0,0,0,0,0,-1,1315,848,0,0
98,176,0,0,0,0,0,0,0,0,0,-1,1322,848,0,0
105,176,0,0,0,0,0,0,0,0,0,-1,1329,848,0,0
112,176,0,0,0,0,0,0,0,0,0,-1,1336,848,0,0
119,176,0,0,0,0,0,0,0,0,0,-1,1343,848,0,0
126,176,0,0,0,0,0,0,0,0,0,-1,1350,848,0,0
133,176,0,0,0,0,0,0,0,0,0,-1,1357,848,0,0
140,176,0,0,0,0,0,0,0,0,0,-1,1364,848,0,0
147,176,0,0,0,0,0,0,0,0,0,-1,1371,848,0,0
154,176,0,0,0,0,0,0,0,0,0,-1,1378,848,0,0
161,176,0,0,0,0,0,0,0,0,0,-1,1385,848,0,0
168,176,0,0,0,0,0,0,0,0,0,-1,1392,848,0,0
175,176,0,0,0,0,0,0,0,0,0,-1,1399,848,0,0
182,176,0,0,0,0,0,0,0,0,0,-1,1406,848,0,0
189,176,0,0,0,0,0,0,0,0,0,-1,1413,848,0,0
196,176,0,0,0,0,0,0,0,0,0,-1,1420,848,0,0
203,176,0,0,0,0,0,0,0,0,0,-1,1427,848,0,0
210,176,0,0,0,0,0,0,0,0,0,-1,1434,848,0,0
217,176,0,0,0,0,0,0,0,0,0,-1,1441,848,0,0
224,176,0,0,0,0,0,0,0,0,0,-1,1448,848,0,0
231,176,0,0,0,0,0,0,0,0,0,-1,1455,848,0,0
238,176,0,0,0,0,0,0,0,0,0,-1,1462,848,0,0
245,176,0,0,0,0,0,0,0,0,0,-1,1469,848,0,0
252,176,0,0,0,0,0,0,0,0,0,-1,1476,848,0,0
259,176,0,0,0,0,0,0,0,0,0,-1,1483,848,0,0
266,176,0,0,0,0,0,0,0,0,0,-1,1490,848,0,0
273,176,0,0,0,0,0,0,0,0,0,-1,1497,848,0,0
280,176,0,0,0,0,0,0,0,0,0,-1,1504,848,0,0
287,176,0,0,0,0,0,0,0,0,0,-1,1511,848,0,0
294,176,0,0,0,0,0,0,0,0,0,-1,1518,848,0,0
301,176,0,0,0,0,0,0,0,0,0,-1,1525,848,0,0
308,176,0,0,0,0,0,0,0,0,0,-1,1532,848,0,0
315,176,0,0,0,0,0,0,0,0,0,-1,1539,848,0,0
322,176,0,0,0,0,0,0,0,0,0,-1,1546,848,0,0
329,176,0,0,0,0,0,0,0,0,0,-1,1553,848,0,0
336,176,0,0,0,0,0,0,0,0,0,-1,1560,848,0,0
343,176,0,0,0,0,0,0,0,0,0,-1,1567,848,0,0
350,176,0,0,0,0,0,0,0,0,0,-1,1574,848,0,0
357,176,0,0,0,0,0,0,0,0,0,-1,1581,848,0,0
364,176,0,0,0,0,0,0,0,0,0,-1,1588,848,0,0
371,176,0,0,0,0,0,0,0,0,0,-1,1595,848,0,0
378,176,0,0,0,0,0,0,0,0,0,-1,1602,848,0,0
385,176,0,0,0,0,0,0,0,0,0,-1,1609,848,0,0
392,176,0,0,0,0,0,0,0,0,0,-1,1616,848,0,0
399,176,0,0,0,0,0,0,0,0,0,-1,1623,848,0,0
406,176,0,0,0,0,0,0,0,0,0,-1,1630,848,0,0
413,176,0,0,0,0,0,0,0,0,0,-1,1637,848,0,0
420,176,0,0,0,0,0,0,0,0,0,-1,1644,848,0,0
427,176,0,0,0,0,0,0,0,0,0,-1,1651,848,0,0
434,176,0,0,0,0,0,0,0,0,0,-1,1658,848,0,0
441,176,0,0,0,0,0,0,0,0,0,-1,1665,848,0,0
448,176,0,0,0,0,0,0,0,0,0,-1,1672,848,0,0
455,176,0,0,0,0,0,0,0,0,0,-1,1679,848,0,0
462,176,0,0,0,0,0,0,0,0,0,-1,1686,848,0,0
469,176,0,0,0,0,0,0,0,0,0,-1,1693,848,0,0
476,176,0,0,0,0,0,0,0,0,0,-1,1700,848,0,0
483,176,0,0,0,0,0,0,0,0,0,-1,1707,848,0,0
490,176,0,0,0,0,0,0,0,0,0,-1,1714,848,0,0
497,176,0,0,0,0,0,0,0,0,0,-1,1721,848,0,0
504,176,0,0,0,0,0,0,0,0,0,-1,1728,848,0,0
511,176,0,0,0,0,0,0,0,0,0,-1,1735,848,0,0
518,176,0,0,0,0,0,0,0,0,0,-1,1742,848,0,0
525,176,0,0,0,0,0,0,0,0,0,-1,1749,848,0,0
532,176,0,0,0,0,0,0,0,0,0,-1,1756,848,0,0
539,176,0,0,0,0,0,0,0,0,0,-1,1763,848,0,0
546,176,0,0,0,0,0,0,0,0,0,-1,1770,848,0,0
553,176,0,0,0,0,0,0,0,0,0,-1,1777,848,0,0
560,176,0,0,0,0,0,0,0,0,0,-1,1784,848,0,0
567,176,0,0,0,0,0,0,0,0,0,-1,1791,848,0,0
574,176,0,0,0,0,0,0,0,0,0,-1,1798,848,0,0
581,176,0,0,0,0,0,0,0,0,0,-1,1805,848,0,0
588,176,0,0,0,0,0,0,0,0,0,-1,1812,848,0,0
595,176,0,0,0,0,0,0,0,0,0,-1,1819,848,0,0
602,176,0,0,0,0,0,0,0,0,0,-1,1826,848,0,0
609,176,60.3214,2.69263,0.00650102,-0.0035489,-0.00302185,0.00733966,-0.00438754,-0.270712,0.00684184,0.0390902,1833,848,60.3215,-2.69263
616,176,60.2507,2.43164,0.00481924,-0.00270776,-0.0015921,0.00514214,-0.00303066,-0.200103,0.00477077,0.0399316,1840,848,60.2507,-2.43165
623,176,60.4009,2.4267,0.00315522,-0.00175594,-0.000246258,0.00316754,-0.00176826,-0.0499755,0.0028876,0.043682,1847,848,60.4009,-2.42667
630,176,60.5581,2.5509,0.0014861,-0.000917968,0.000475542,0.00157675,-0.00100862,0.18836,0.00150463,0.0411264,1854,848,60.5581,-2.55091
637,176,60.4518,2.60126,-8.15965e-05,-0.000478248,0.000536142,0.000291725,-0.00085157,0.608246,0.000685954,0.0312565,1861,848,60.4518,-2.60124
644,176,60.3199,2.651,-0.00125078,-0.000507387,0.000253489,-0.000429178,-0.00132899,1.27153,0.000783164,0.0309172,1868,848,60.3199,-2.65099
651,176,60.365,2.73584,-0.00208042,-0.000755275,-0.000191627,-0.000728121,-0.00210758,-1.43003,0.00123603,0.0331608,1875,848,60.365,-2.73586
658,176,60.421,2.67731,0,0,0,0,0,0,0,-1,1882,848,60.421,-2.67733
665,176,54.3333,2.34277,0,0,0,0,0,0,0,-1,1889,848,54.3333,-2.34279
672,176,16.9304,2.80719,0,0,0,0,0,0,0,-1,1896,848,16.9305,-2.80719
679,176,49.0515,0.10675,0,0,0,0,0,0,0,-1,1903,848,49.0515,-0.106765
686,176,48.9695,0.847046,-0.00373578,-0.00106268,-0.00198449,-6.61775e-06,-0.00479184,-1.08176,0.00319235,0.0499176,1910,848,48.9694,-0.847019
693,176,48.7968,1.50073,-0.00339391,-0.00105997,-0.00231147,0.000362401,-0.00481629,-1.01916,0.00333822,0.0288237,1917,848,48.7967,-1.5007
700,176,48.6594,2.21698,-0.00300928,-0.00103997,-0.00239368,0.000563661,-0.00461292,-0.980527,0.00327935,0.0335812,1924,848,48.6595,-2.21698
707,176,48.6351,2.8042,-0.00239636,-0.000945482,-0.00222918,0.000673325,-0.00401516,-0.942708,0.00292715,0.0211864,1931,848,48.6351,-2.80422
714,176,48.5427,3.39307,-0.000943197,-0.000414817,-0.00165306,0.000995036,-0.00235305,-0.864637,0.00198531,0.0133739,1938,848,48.5427,-3.39309
721,176,48.527,4.05518,0.00103857,0.000459663,-0.00076579,0.00156778,-6.9552e-05,-0.604708,0.00106913,0.0138474,1945,848,48.527,-4.0552
728,176,48.4655,4.77576,0.0034688,0.00143492,0.000381465,0.00353799,0.00136573,0.179434,0.00206027,0.016561,1952,848,48.4655,-4.77575
735,176,48.4185,5.45392,0.00624536,0.00248887,0.00162617,0.00685151,0.00188271,0.356795,0.00408729,0.014637,1959,848,48.4184,-5.45392
742,176,48.411,6.12433,0.00919205,0.0035777,0.00292193,0.0104368,0.00233298,0.402713,0.00632527,0.0235392,1966,848,48.411,-6.12433
749,176,48.7866,6.92255,0.0124105,0.00464101,0.004388,0.0143863,0.00266523,0.423078,0.00883745,0.0368422,1973,848,48.7866,-6.92255
756,176,49.2743,7.77136,0,0,0,0,0,0,0,-1,1980,848,49.2743,-7.77135
763,176,44.4343,7.70581,0,0,0,0,0,0,0,-1,1987,848,44.4343,-7.70578
770,176,36.4186,4.25641,0,0,0,0,0,0,0,-1,1994,848,36.4186,-4.25639
777,176,43.8328,7.50177,0,0,0,0,0,0,0,-1,2001,848,43.8328,-7.50178
784,176,0,0,0,0,0,0,0,0,0,-1,2008,848,0,0
791,176,0,0,0,0,0,0,0,0,0,-1,2015,848,0,0
798,176,0,0,0,0,0,0,0,0,0,-1,2022,848,0,0
805,176,0,0,0,0,0,0,0,0,0,-1,2029,848,0,0
812,176,0,0,0,0,0,0,0,0,0,-1,2036,848,0,0
-700,169,0,0,0,0,0,0,0,0,0,-1,524,855,0,0
-693,169,0,0,0,0,0,0,0,0,0,-1,531,855,0,0
-686,169,0,0,0,0,0,0,0,0,0,-1,538,855,0,0
-679,169,0,0,0,0,0,0,0,0,0,-1,545,855,0,0
-672,169,0,0,0,0,0,0,0,0,0,-1,552,855,0,0
-665,169,-43.2675,6.61096,0,0,0,0,0,0,0,-1,559,855,-43.2675,-6.61099
-658,169,-43.3649,6.99109,0,0,0,0,0,0,0,-1,566,855,-43.3649,-6.9911
-651,169,-40.8989,6.59399,0,0,0,0,0,0,0,-1,573,855,-40.8989,-6.59401
-644,169,-39.7435,6.11145,0.111934,-0.0310998,-0.00142836,0.111948,-0.0311141,-0.00998481,0.086881,0.0471978,580,855,-39.7435,-6.11147
-637,169,-38.7416,5.51343,0.0917435,-0.026131,-0.00353827,0.0918497,-0.0262371,-0.0299813,0.0715996,0.0428967,587,855,-38.7416,-5.51344
-630,169,-37.7245,4.66302,0.0725606,-0.0210484,-0.00422384,0.0727508,-0.0212386,-0.0450002,0.0569166,0.0450995,594,855,-37.7246,-4.66303
-623,169,-36.4494,4.3255,0.054912,-0.0161353,-0.00377907,0.0551124,-0.0163357,-0.0529916,0.0432283,0.0374813,601,855,-36.4494,-4.32548
-616,169,-35.9478,4.23291,0.0386685,-0.0116566,-0.00322385,0.0388741,-0.0118623,-0.0637135,0.0306453,0.0234771,608,855,-35.9478,-4.23293
-609,169,-35.9207,3.68103,0.0242435,-0.00727812,-0.00171893,0.024337,-0.00737157,-0.0543169,0.0191605,0.0151739,615,855,-35.9207,-3.68104
-602,169,-35.9524,3.01636,0.0122683,-0.00382136,0.000298161,0.0122738,-0.00382688,0.0185228,0.0097128,0.0145425,622,855,-35.9524,-3.01636
-595,169,-35.9957,2.3324,0.00302605,-0.00132342,0.00214169,0.00390358,-0.00220095,0.388872,0.00356985,0.0126126,629,855,-35.9957,-2.33237
-588,169,-35.9924,1.70514,-0.00220871,0.00014626,0.00299826,0.00218996,-0.00425241,0.972507,0.0037825,0.0110381,636,855,-35.9923,-1.70515
-581,169,-36.0505,1.0863,-0.00332335,0.000345872,0.00297457,0.0020061,-0.00498357,1.06173,0.00415575,0.019621,643,855,-36.0505,-1.08632
-574,169,-36.3497,0.401001,-0.00294605,0.000661724,0.00263063,0.00204755,-0.00433187,1.08594,0.00376104,0.0368178,650,855,-36.3497,-0.400989
-567,169,-36.1368,-0.174133,0,0,0,0,0,0,0,-1,657,855,-36.1368,0.174118
-560,169,-36.1818,-0.712708,0,0,0,0,0,0,0,-1,664,855,-36.1818,0.7127
-553,169,-32.1944,-0.787964,0,0,0,0,0,0,0,-1,671,855,-32.1944,0.787959
-546,169,-19.0852,-1.05609,0,0,0,0,0,0,0,-1,678,855,-19.0852,1.05612
-539,169,-33.2307,1.10706,0,0,0,0,0,0,0,-1,685,855,-33.2307,-1.10708
-532,169,-45.8153,0.818787,0,0,0,0,0,0,0,-1,692,855,-45.8153,-0.818779
-525,169,-45.8544,0.937073,-9.65604e-05,0.00430453,0.00254824,0.00547087,-0.0012629,1.14155,0.00413304,0.0432774,699,855,-45.8544,-0.937074
-518,169,-45.9216,0.991577,-0.000118208,0.0048827,0.00250177,0.00591935,-0.00115486,1.17797,0.00438221,0.0396351,706,855,-45.9216,-0.991567
-511,169,-45.7811,0.951538,-0.000570579,0.00579527,0.00281971,0.00686462,-0.00163992,1.20831,0.00520981,0.0397342,713,855,-45.7811,-0.951548
-504,169,-45.8237,1.02606,-0.000269483,0.00749906,0.00245306,0.00820881,-0.000979237,1.28915,0.00582645,0.0414985,720,855,-45.8237,-1.02605
-497,169,-45.9323,1.11237,0.000310817,0.00976834,0.00144921,0.00998542,9.3733e-05,1.42211,0.00662592,0.0422293,727,855,-45.9322,-1.11234
-490,169,0,0,0,0,0,0,0,0,0,-1,734,855,0,0
-483,169,0,0,0,0,0,0,0,0,0,-1,741,855,0,0
-476,169,0,0,0,0,0,0,0,0,0,-1,748,855,0,0
-469,169,0,0,0,0,0,0,0,0,0,-1,755,855,0,0
-462,169,0,0,0,0,0,0,0,0,0,-1,762,855,0,0
-455,169,0,0,0,0,0,0,0,0,0,-1,769,855,0,0
-448,169,0,0,0,0,0,0,0,0,0,-1,776,855,0,0
-441,169,0,0,0,0,0,0,0,0,0,-1,783,855,0,0
-434,169,0,0,0,0,0,0,0,0,0,-1,790,855,0,0
-427,169,0,0,0,0,0,0,0,0,0,-1,797,855,0,0
-420,169,0,0,0,0,0,0,0,0,0,-1,804,855,0,0
-413,169,0,0,0,0,0,0,0,0,0,-1,811,855,0,0
-406,169,0,0,0,0,0,0,0,0,0,-1,818,855,0,0
-399,169,0,0,0,0,0,0,0,0,0,-1,825,855,0,0
-392,169,0,0,0,0,0,0,0,0,0,-1,832,855,0,0
-385,169,0,0,0,0,0,0,0,0,0,-1,839,855,0,0
-378,169,0,0,0,0,0,0,0,0,0,-1,846,855,0,0
-371,169,0,0,0,0,0,0,0,0,0,-1,853,855,0,0
-364,169,0,0,0,0,0,0,0,0,0,-1,860,855,0,0
-357,169,0,0,0,0,0,0,0,0,0,-1,867,855,0,0
-350,169,0,0,0,0,0,0,0,0,0,-1,874,855,0,0
-343,169,0,0,0,0,0,0,0,0,0,-1,881,855,0,0
-336,169,0,0,0,0,0,0,0,0,0,-1,888,855,0,0
-329,169,0,0,0,0,0,0,0,0,0,-1,895,855,0,0
-322,169,0,0,0,0,0,0,0,0,0,-1,902,855,0,0
-315,169,0,0,0,0,0,0,0,0,0,-1,909,855,0,0
-308,169,0,0,0,0,0,0,0,0,0,-1,916,855,0,0
-301,169,0,0,0,0,0,0,0,0,0,-1,923,855,0,0
-294,169,0,0,0,0,0,0,0,0,0,-1,930,855,0,0
-287,169,0,0,0,0,0,0,0,0,0,-1,937,855,0,0
-280,169,0,0,0,0,0,0,0,0,0,-1,944,855,0,0
-273,169,0,0,0,0,0,0,0,0,0,-1,951,855,0,0
-266,169,0,0,0,0,0,0,0,0,0,-1,958,855,0,0
-259,169,0,0,0,0,0,0,0,0,0,-1,965,855,0,0
-252,169,0,0,0,0,0,0,0,0,0,-1,972,855,0,0
-245,169,0,0,0,0,0,0,0,0,0,-1,979,855,0,0
-238,169,0,0,0,0,0,0,0,0,0,-1,986,855,0,0
-231,169,0,0,0,0,0,0,0,0,0,-1,993,855,0,0
-224,169,0,0,0,0,0,0,0,0,0,-1,1000,855,0,0
-217,169,0,0,0,0,0,0,0,0,0,-1,1007,855,0,0
-210,169,0,0,0,0,0,0,0,0,0,-1,1014,855,0,0
-203,169,0,0,0,0,0,0,0,0,0,-1,1021,855,0,0
-196,169,0,0,0,0,0,0,0,0,0,-1,1028,855,0,0
-189,169,0,0,0,0,0,0,0,0,0,-1,1035,855,0,0
-182,169,0,0,0,0,0,0,0,0,0,-1,1042,855,0,0
-175,169,0,0,0,0,0,0,0,0,0,-1,1049,855,0,0
-168,169,0,0,0,0,0,0,0,0,0,-1,1056,855,0,0
-161,169,0,0,0,0,0,0,0,0,0,-1,1063,855,0,0
-154,169,0,0,0,0,0,0,0,0,0,-1,1070,855,0,0
-147,169,0,0,0,0,0,0,0,0,0,-1,1077,855,0,0
-140,169,0,0,0,0,0,0,0,0,0,-1,1084,855,0,0
-133,169,0,0,0,0,0,0,0,0,0,-1,1091,855,0,0
-126,169,0,0,0,0,0,0,0,0,0,-1,1098,855,0,0
-119,169,0,0,0,0,0,0,0,0,0,-1,1105,855,0,0
-112,169,0,0,0,0,0,0,0,0,0,-1,1112,855,0,0
-105,169,0,0,0,0,0,0,0,0,0,-1,1119,855,0,0
-98,169,0,0,0,0,0,0,0,0,0,-1,1126,855,0,0
-91,169,0,0,0,0,0,0,0,0,0,-1,1133,855,0,0
-84,169,0,0,0,0,0,0,0,0,0,-1,1140,855,0,0
-77,169,0,0,0,0,0,0,0,0,0,-1,1147,855,0,0
-70,169,0,0,0,0,0,0,0,0,0,-1,1154,855,0,0
-63,169,0,0,0,0,0,0,0,0,0,-1,1161,855,0,0
-56,169,0,0,0,0,0,0,0,0,0,-1,1168,855,0,0
-49,169,0,0,0,0,0,0,0,0,0,-1,1175,855,0,0
-42,169,0,0,0,0,0,0,0,0,0,-1,1182,855,0,0
-35,169,0,0,0,0,0,0,0,0,0,-1,1189,855,0,0
-28,169,0,0,0,0,0,0,0,0,0,-1,1196,855,0,0
-21,169,0,0,0,0,0,0,0,0,0,-1,1203,855,0,0
-14,169,0,0,0,0,0,0,0,0,0,-1,1210,855,0,0
-7,169,0,0,0,0,0,0,0,0,0,-1,1217,855,0,0
0,169,0,0,0,0,0,0,0,0,0,-1,1224,855,0,0
7,169,0,0,0,0,0,0,0,0,0,-1,1231,855,0,0
14,169,0,0,0,0,0,0,0,0,0,-1,1238,855,0,0
21,169,0,0,0,0,0,0,0,0,0,-1,1245,855,0,0
28,169,0,0,0,0,0,0,0,0,0,-1,1252,855,0,0
35,169,0,0,0,0,0,0,0,0,0,-1,1259,855,0,0
42,169,0,0,0,0,0,0,0,0,0,-1,1266,855,0,0
49,169,0,0,0,0,0,0,0,0,0,-1,1273,855,0,0
56,169,0,0,0,0,0,0,0,0,0,-1,1280,855,0,0
63,169,0,0,0,0,0,0,0,0,0,-1,1287,855,0,0
70,169,0,0,0,0,0,0,0,0,0,-1,1294,855,0,0
77,169,0,0,0,0,0,0,0,0,0,-1,1301,855,0,0
84,169,0,0,0,0,0,0,0,0,0,-1,1308,855,0,0
91,169,0,0,0,0,0,0,0,0,0,-1,1315,855,0,0
98,169,0,0,0,0,0,0,0,0,0,-1,1322,855,0,0
105,169,0,0,0,0,0,0,0,0,0,-1,1329,855,0,0
112,169,0,0,0,0,0,0,0,0,0,-1,1336,855,0,0
119,169,0,0,0,0,0,0,0,0,0,-1,1343,855,0,0
126,169,0,0,0,0,0,0,0,0,0,-1,1350,855,0,0
133,169,0,0,0,0,0,0,0,0,0,-1,1357,855,0,0
140,169,0,0,0,0,0,0,0,0,0,-1,1364,855,0,0
147,169,0,0,0,0,0,0,0,0,0,-1,1371,855,0,0
154,169,0,0,0,0,0,0,0,0,0,-1,1378,855,0,0
161,169,0,0,0,0,0,0,0,0,0,-1,1385,855,0,0
168,169,0,0,0,0,0,0,0,0,0,-1,1392,855,0,0
175,169,0,0,0,0,0,0,0,0,0,-1,1399,855,0,0
182,169,0,0,0,0,0,0,0,0,0,-1,1406,855,0,0
189,169,0,0,0,0,0,0,0,0,0,-1,1413,855,0,0
196,169,0,0,0,0,0,0,0,0,0,-1,1420,855,0,0
203,169,0,0,0,0,0,0,0,0,0,-1,1427,855,0,0
210,169,0,0,0,0,0,0,0,0,0,-1,1434,855,0,0
217,169,0,0,0,0,0,0,0,0,0,-1,1441,855,0,0
224,169,0,0,0,0,0,0,0,0,0,-1,1448,855,0,0
231,169,0,0,0,0,0,0,0,0,0,-1,1455,855,0,0
238,169,0,0,0,0,0,0,0,0,0,-1,1462,855,0,0
245,169,0,0,0,0,0,0,0,0,0,-1,1469,855,0,0
252,169,0,0,0,0,0,0,0,0,0,-1,1476,855,0,0
259,169,0,0,0,0,0,0,0,0,0,-1,1483,855,0,0
266,169,0,0,0,0,0,0,0,0,0,-1,1490,855,0,0
273,169,0,0,0,0,0,0,0,0,0,-1,1497,855,0,0
280,169,0,0,0,0,0,0,0,0,0,-1,1504,855,0,0
287,169,0,0,0,0,0,0,0,0,0,-1,1511,855,0,0
294,169,0,0,0,0,0,0,0,0,0,-1,1518,855,0,0
301,169,0,0,0,0,0,0,0,0,0,-1,1525,855,0,0
308,169,0,0,0,0,0,0,0,0,0,-1,1532,855,0,0
315,169,0,0,0,0,0,0,0,0,0,-1,1539,855,0,0
322,169,0,0,0,0,0,0,0,0,0,-1,1546,855,0,0
329,169,0,0,0,0,0,0,0,0,0,-1,1553,855,0,0
336,169,0,0,0,0,0,0,0,0,0,-1,1560,855,0,0
343,169,0,0,0,0,0,0,0,0,0,-1,1567,855,0,0
350,169,0,0,0,0,0,0,0,0,0,-1,1574,855,0,0
357,169,0,0,0,0,0,0,0,0,0,-1,1581,855,0,0
364,169,0,0,0,0,0,0,0,0,0,-1,1588,855,0,0
371,169,0,0,0,0,0,0,0,0,0,-1,1595,855,0,0
378,169,0,0,0,0,0,0,0,0,0,-1,1602,855,0,0
385,169,0,0,0,0,0,0,0,0,0,-1,1609,855,0,0
392,169,0,0,0,0,0,0,0,0,0,-1,1616,855,0,0
399,169,0,0,0,0,0,0,0,0,0,-1,1623,855,0,0
406,169,0,0,0,0,0,0,0,0,0,-1,1630,855,0,0
413,169,0,0,0,0,0,0,0,0,0,-1,1637,855,0,0
420,169,0,0,0,0,0,0,0,0,0,-1,1644,855,0,0
427,169,0,0,0,0,0,0,0,0,0,-1,1651,855,0,0
434,169,0,0,0,0,0,0,0,0,0,-1,1658,855,0,0
441,169,0,0,0,0,0,0,0,0,0,-1,1665,855,0,0
448,169,0,0,0,0,0,0,0,0,0,-1,1672,855,0,0
455,169,0,0,0,0,0,0,0,0,0,-1,1679,855,0,0
462,169,0,0,0,0,0,0,0,0,0,-1,1686,855,0,0
469,169,0,0,0,0,0,0,0,0,0,-1,1693,855,0,0
476,169,0,0,0,0,0,0,0,0,0,-1,1700,855,0,0
483,169,0,0,0,0,0,0,0,0,0,-1,1707,855,0,0
490,169,0,0,0,0,0,0,0,0,0,-1,1714,855,0,0
497,169,0,0,0,0,0,0,0,0,0,-1,1721,855,0,0
504,169,0,0,0,0,0,0,0,0,0,-1,1728,855,0,0
511,169,0,0,0,0,0,0,0,0,0,-1,1735,855,0,0
518,169,0,0,0,0,0,0,0,0,0,-1,1742,855,0,0
525,169,0,0,0,0,0,0,0,0,0,-1,1749,855,0,0
532,169,0,0,0,0,0,0,0,0,0,-1,1756,855,0,0
539,169,0,0,0,0,0,0,0,0,0,-1,1763,855,0,0
546,169,0,0,0,0,0,0,0,0,0,-1,1770,855,0,0
553,169,0,0,0,0,0,0,0,0,0,-1,1777,855,0,0
560,169,0,0,0,0,0,0,0,0,0,-1,1784,855,0,0
567,169,0,0,0,0,0,0,0,0,0,-1,1791,855,0,0
574,169,0,0,0,0,0,0,0,0,0,-1,1798,855,0,0
581,169,0,0,0,0,0,0,0,0,0,-1,1805,855,0,0
588,169,0,0,0,0,0,0,0,0,0,-1,1812,855,0,0
595,169,0,0,0,0,0,0,0,0,0,-1,1819,855,0,0
602,169,0,0,0,0,0,0,0,0,0,-1,1826,855,0,0
609,169,0,0,0,0,0,0,0,0,0,-1,1833,855,0,0
616,169,60.3207,2.84949,0.00476188,-0.00314981,-0.0016847,0.00510568,-0.00349361,-0.201307,0.0049938,0.0435007,1840,855,60.3207,-2.84947
623,169,60.4811,2.54779,0.00326306,-0.00237999,-0.000528389,0.00331211,-0.00242904,-0.0925632,0.0033277,0.0472966,1847,855,60.4811,-2.54778
630,169,60.5238,2.45599,0.00184684,-0.00156234,0.000217564,0.00186067,-0.00157616,0.0634738,0.00198652,0.0453522,1854,855,60.5238,-2.456
637,169,60.4355,2.59875,0.000384908,-0.000853308,0.000485096,0.000552319,-0.00102072,0.332311,0.000921517,0.0378084,1861,855,60.4355,-2.59877
644,169,60.3961,2.77734,-0.000809638,-0.000657267,0.000327652,-0.00039706,-0.00106985,0.899628,0.000624476,0.0366127,1868,855,60.3962,-2.77733
651,169,60.3926,2.86725,-0.00171241,-0.000771477,-8.62418e-05,-0.000763638,-0.00172025,-1.48015,0.000995265,0.0375868,1875,855,60.3925,-2.86725
658,169,60.376,2.73395,-0.00230295,-0.0011293,-0.000700976,-0.000801939,-0.00263031,-1.13389,0.00155667,0.0378628,1882,855,60.376,-2.73394
665,169,60.486,2.57764,0,0,0,0,0,0,0,-1,1889,855,60.486,-2.57762
672,169,31.2465,2.96387,0,0,0,0,0,0,0,-1,1896,855,31.2464,-2.9639
679,169,38.4297,1.08197,0,0,0,0,0,0,0,-1,1903,855,38.4296,-1.08194
686,169,49.7894,0.984924,0,0,0,0,0,0,0,-1,1910,855,49.7894,-0.984912
693,169,49.5447,1.56451,-0.00293635,-0.000863189,-0.00211709,0.000457468,-0.004257,-1.01305,0.00300213,0.0315488,1917,855,49.5447,-1.56454
700,169,49.5319,2.30182,-0.00266542,-0.000841043,-0.00215877,0.000590354,-0.00409681,-0.985295,0.00294776,0.0272768,1924,855,49.5319,-2.30181
707,169,49.428,2.90021,-0.00230969,-0.000818577,-0.00209609,0.000660604,-0.00378887,-0.956265,0.00277247,0.0282878,1931,855,49.4279,-2.9002
714,169,49.2062,3.40741,-0.00125069,-0.000385939,-0.0017348,0.000969552,-0.00260618,-0.907528,0.00213532,0.0170588,1938,855,49.2061,-3.4074
721,169,49.2134,4.10321,0.000225092,0.000450806,-0.00105587,0.00139983,-0.000723936,-0.838639,0.00124669,0.0182034,1945,855,49.2133,-4.10323
728,169,49.1575,4.80878,0.00212297,0.00149235,-8.23693e-05,0.00213355,0.00148177,-0.127761,0.00126249,0.0149988,1952,855,49.1575,-4.80877
735,169,49.1068,5.45801,0.00456728,0.00290344,0.00123088,0.00522101,0.00224971,0.488222,0.00302393,0.0198976,1959,855,49.1068,-5.45799
742,169,49.1401,6.13971,0.0074321,0.00465525,0.00293558,0.00929103,0.00279631,0.564505,0.00550402,0.0185074,1966,855,49.1401,-6.13973
749,169,49.1602,6.75482,0.0105934,0.006666,0.00496064,0.0139649,0.00329454,0.596933,0.00842916,0.0302866,1973,855,49.1601,-6.75481
756,169,49.444,7.35309,0,0,0,0,0,0,0,-1,1980,855,49.4439,-7.35308
763,169,45.1978,7.5675,0,0,0,0,0,0,0,-1,1987,855,45.1977,-7.56751
770,169,37.2059,3.97021,0,0,0,0,0,0,0,-1,1994,855,37.2059,-3.97022
777,169,41.7505,8.7085,0,0,0,0,0,0,0,-1,2001,855,41.7505,-8.70852
784,169,40.0581,9.47473,0,0,0,0,0,0,0,-1,2008,855,40.058,-9.47476
791,169,0,0,0,0,0,0,0,0,0,-1,2015,855,0,0
798,169,0,0,0,0,0,0,0,0,0,-1,2022,855,0,0
805,169,0,0,0,0,0,0,0,0,0,-1,2029,855,0,0
812,169,0,0,0,0,0,0,0,0,0,-1,2036,855,0,0
-700,162,0,0,0,0,0,0,0,0,0,-1,524,862,0,0
-693,162,0,0,0,0,0,0,0,0,0,-1,531,862,0,0
-686,162,0,0,0,0,0,0,0,0,0,-1,538,862,0,0
-679,162,0,0,0,0,0,0,0,0,0,-1,545,862,0,0
-672,162,0,0,0,0,0,0,0,0,0,-1,552,862,0,0
-665,162,-42.992,5.87714,0,0,0,0,0,0,0,-1,559,862,-42.992,-5.87712
-658,162,-41.2422,5.24969,0,0,0,0,0,0,0,-1,566,862,-41.2422,-5.24971
-651,162,-41.1621,7.83588,0,0,0,0,0,0,0,-1,573,862,-41.1621,-7.83586
-644,162,-39.6024,7.15338,0,0,0,0,0,0,0,-1,580,862,-39.6023,-7.15337
-637,162,-37.8028,4.83154,0,0,0,0,0,0,0,-1,587,862,-37.8028,-4.83156
-630,162,-37.3861,4.73804,0.0746574,-0.0208046,0.000553702,0.0746606,-0.0208078,0.00579998,0.0579682,0.0495401,594,862,-37.3861,-4.73802
-623,162,-36.8636,4.55646,0.0555609,-0.0156458,-0.000190671,0.0555614,-0.0156463,-0.00267769,0.0432112,0.0352145,601,862,-36.8637,-4.55645
-616,162,-36.5109,4.30396,0.0379756,-0.0110117,-0.000701366,0.0379856,-0.0110218,-0.0143134,0.0296877,0.0205426,608,862,-36.5109,-4.30396
-609,162,-36.5898,3.67078,0.0224267,-0.00649239,2.33433e-05,0.0224268,-0.00649241,0.000807191,0.017521,0.0143238,615,862,-36.5899,-3.67078
-602,162,-36.6446,3.02325,0.00980064,-0.00313982,0.00150913,0.0099743,-0.00331349,0.114573,0.00798653,0.0123585,622,862,-36.6446,-3.02324
-595,162,-36.6569,2.39056,0.000783374,-0.00089048,0.00294025,0.00300349,-0.0031106,0.646743,0.00353015,0.0115822,629,862,-36.6569,-2.39058
-588,162,-36.6323,1.76727,-0.0033292,2.77687e-05,0.00346896,0.00220298,-0.00550442,1.01072,0.00458393,0.0140934,636,862,-36.6323,-1.76726
-581,162,-36.8629,1.1369,-0.00367528,5.00093e-05,0.00332687,0.00200017,-0.00562545,1.0406,0.00456548,0.0342011,643,862,-36.8628,-1.13692
-574,162,-37.1861,0.462585,-0.00330089,0.000302965,0.00304593,0.00204006,-0.00503798,1.0525,0.00420692,0.0479611,650,862,-37.1861,-0.462606
-567,162,-37.2678,-0.271973,0,0,0,0,0,0,0,-1,657,862,-37.2678,0.271955
-560,162,-36.5075,-0.831665,0,0,0,0,0,0,0,-1,664,862,-36.5075,0.831657
-553,162,-35.9823,-1.60956,0,0,0,0,0,0,0,-1,671,862,-35.9823,1.60954
-546,162,-22.8181,-1.51154,0,0,0,0,0,0,0,-1,678,862,-22.8181,1.51155
-539,162,-45.8112,0.798828,0,0,0,0,0,0,0,-1,685,862,-45.8112,-0.79883
-532,162,-45.8556,0.836365,-0.00128189,0.00348982,0.0029186,0.00487365,-0.00266572,1.12805,0.00441464,0.0425244,692,862,-45.8556,-0.836361
-525,162,-45.8994,0.865051,-0.000338245,0.00413785,0.00280925,0.00549157,-0.00169196,1.12175,0.00433649,0.0384578,699,862,-45.8994,-0.865037
-518,162,-45.9402,0.917175,-0.000352123,0.00504679,0.00279054,0.00622988,-0.00153522,1.1698,0.00474845,0.0387426,706,862,-45.9402,-0.917196
-511,162,-45.9482,0.883179,-0.000946763,0.00650913,0.00305018,0.00759795,-0.00203558,1.22793,0.00586282,0.0429317,713,862,-45.9482,-0.88317
-504,162,-45.9938,0.862122,-0.00102744,0.00850692,0.00265981,0.00919873,-0.00171926,1.31634,0.00677864,0.0443796,720,862,-45.9938,-0.862119
-497,162,-45.9244,0.885254,-0.000893454,0.0105776,0.00191308,0.0108882,-0.0012041,1.40982,0.00769164,0.0411902,727,862,-45.9244,-0.885226
-490,162,0,0,0,0,0,0,0,0,0,-1,734,862,0,0
-483,162,0,0,0,0,0,0,0,0,0,-1,741,862,0,0
-476,162,0,0,0,0,0,0,0,0,0,-1,748,862,0,0
-469,162,0,0,0,0,0,0,0,0,0,-1,755,862,0,0
-462,162,0,0,0,0,0,0,0,0,0,-1,762,862,0,0
-455,162,0,0,0,0,0,0,0,0,0,-1,769,862,0,0
-448,162,0,0,0,0,0,0,0,0,0,-1,776,862,0,0
-441,162,0,0,0,0,0,0,0,0,0,-1,783,862,0,0
-434,162,0,0,0,0,0,0,0,0,0,-1,790,862,0,0
-427,162,0,0,0,0,0,0,0,0,0,-1,797,862,0,0
-420,162,0,0,0,0,0,0,0,0,0,-1,804,862,0,0
-413,162,0,0,0,0,0,0,0,0,0,-1,811,862,0,0
-406,162,0,0,0,0,0,0,0,0,0,-1,818,862,0,0
-399,162,0,0,0,0,0,0,0,0,0,-1,825,862,0,0
-392,162,0,0,0,0,0,0,0,0,0,-1,832,862,0,0
-385,162,0,0,0,0,0,0,0,0,0,-1,839,862,0,0
-378,162,0,0,0,0,0,0,0,0,0,-1,846,862,0,0
-371,162,0,0,0,0,0,0,0,0,0,-1,853,862,0,0
-364,162,0,0,0,0,0,0,0,0,0,-1,860,862,0,0
-357,162,0,0,0,0,0,0,0,0,0,-1,867,862,0,0
-350,162,0,0,0,0,0,0,0,0,0,-1,874,862,0,0
-343,162,0,0,0,0,0,0,0,0,0,-1,881,862,0,0
-336,162,0,0,0,0,0,0,0,0,0,-1,888,862,0,0
-329,162,0,0,0,0,0,0,0,0,0,-1,895,862,0,0
-322,162,0,0,0,0,0,0,0,0,0,-1,902,862,0,0
-315,162,0,0,0,0,0,0,0,0,0,-1,909,862,0,0
-308,162,0,0,0,0,0,0,0,0,0,-1,916,862,0,0
-301,162,0,0,0,0,0,0,0,0,0,-1,923,862,0,0
-294,162,0,0,0,0,0,0,0,0,0,-1,930,862,0,0
-287,162,0,0,0,0,0,0,0,0,0,-1,937,862,0,0
-280,162,0,0,0,0,0,0,0,0,0,-1,944,862,0,0
-273,162,0,0,0,0,0,0,0,0,0,-1,951,862,0,0
-266,162,0,0,0,0,0,0,0,0,0,-1,958,862,0,0
-259,162,0,0,0,0,0,0,0,0,0,-1,965,862,0,0
-252,162,0,0,0,0,0,0,0,0,0,-1,972,862,0,0
-245,162,0,0,0,0,0,0,0,0,0,-1,979,862,0,0
-238,162,0,0,0,0,0,0,0,0,0,-1,986,862,0,0
-231,162,0,0,0,0,0,0,0,0,0,-1,993,862,0,0
-224,162,0,0,0,0,0,0,0,0,0,-1,1000,862,0,0
-217,162,0,0,0,0,0,0,0,0,0,-1,1007,862,0,0
-210,162,0,0,0,0,0,0,0,0,0,-1,1014,862,0,0
-203,162,0,0,0,0,0,0,0,0,0,-1,1021,862,0,0
-196,162,0,0,0,0,0,0,0,0,0,-1,1028,862,0,0
-189,162,0,0,0,0,0,0,0,0,0,-1,1035,862,0,0
-182,162,0,0,0,0,0,0,0,0,0,-1,1042,862,0,0
-175,162,0,0,0,0,0,0,0,0,0,-1,1049,862,0,0
-168,162,0,0,0,0,0,0,0,0,0,-1,1056,862,0,0
-161,162,0,0,0,0,0,0,0,0,0,-1,1063,862,0,0
-154,162,0,0,0,0,0,0,0,0,0,-1,1070,862,0,0
-147,162,0,0,0,0,0,0,0,0,0,-1,1077,862,0,0
-140,162,0,0,0,0,0,0,0,0,0,-1,1084,862,0,0
-133,162,0,0,0,0,0,0,0,0,0,-1,1091,862,0,0
-126,162,0,0,0,0,0,0,0,0,0,-1,1098,862,0,0
-119,162,0,0,0,0,0,0,0,0,0,-1,1105,862,0,0
-112,162,0,0,0,0,0,0,0,0,0,-1,1112,862,0,0
-105,162,0,0,0,0,0,0,0,0,0,-1,1119,862,0,0
-98,162,0,0,0,0,0,0,0,0,0,-1,1126,862,0,0
-91,162,0,0,0,0,0,0,0,0,0,-1,1133,862,0,0
-84,162,0,0,0,0,0,0,0,0,0,-1,1140,862,0,0
-77,162,0,0,0,0,0,0,0,0,0,-1,1147,862,0,0
-70,162,0,0,0,0,0,0,0,0,0,-1,1154,862,0,0
-63,162,0,0,0,0,0,0,0,0,0,-1,1161,862,0,0
-56,162,0,0,0,0,0,0,0,0,0,-1,1168,862,0,0
-49,162,0,0,0,0,0,0,0,0,0,-1,1175,862,0,0
-42,162,0,0,0,0,0,0,0,0,0,-1,1182,862,0,0
-35,162,0,0,0,0,0,0,0,0,0,-1,1189,862,0,0
-28,162,0,0,0,0,0,0,0,0,0,-1,1196,862,0,0
-21,162,0,0,0,0,0,0,0,0,0,-1,1203,862,0,0
-14,162,0,0,0,0,0,0,0,0,0,-1,1210,862,0,0
-7,162,0,0,0,0,0,0,0,0,0,-1,1217,862,0,0
0,162,0,0,0,0,0,0,0,0,0,-1,1224,862,0,0
7,162,0,0,0,0,0,0,0,0,0,-1,1231,862,0,0
14,162,0,0,0,0,0,0,0,0,0,-1,1238,862,0,0
21,162,0,0,0,0,0,0,0,0,0,-1,1245,862,0,0
28,162,0,0,0,0,0,0,0,0,0,-1,1252,862,0,0
35,162,0,0,0,0,0,0,0,0,0,-1,1259,862,0,0
42,162,0,0,0,0,0,0,0,0,0,-1,1266,862,0,0
49,162,0,0,0,0,0,0,0,0,0,-1,1273,862,0,0
56,162,0,0,0,0,0,0,0,0,0,-1,1280,862,0,0
63,162,0,0,0,0,0,0,0,0,0,-1,1287,862,0,0
70,162,0,0,0,0,0,0,0,0,0,-1,1294,862,0,0
77,162,0,0,0,0,0,0,0,0,0,-1,1301,862,0,0
84,162,0,0,0,0,0,0,0,0,0,-1,1308,862,0,0
91,162,0,0,0,0,0,0,0,0,0,-1,1315,862,0,0
98,162,0,0,0,0,0,0,0,0,0,-1,1322,862,0,0
105,162,0,0,0,0,0,0,0,0,0,-1,1329,862,0,0
112,162,0,0,0,0,0,0,0,0,0,-1,1336,862,0,0
119,162,0,0,0,0,0,0,0,0,0,-1,1343,862,0,0
126,162,0,0,0,0,0,0,0,0,0,-1,1350,862,0,0
133,162,0,0,0,0,0,0,0,0,0,-1,1357,862,0,0
140,162,0,0,0,0,0,0,0,0,0,-1,1364,862,0,0
147,162,0,0,0,0,0,0,0,0,0,-1,1371,862,0,0
154,162,0,0,0,0,0,0,0,0,0,-1,1378,862,0,0
161,162,0,0,0,0,0,0,0,0,0,-1,1385,862,0,0
168,162,0,0,0,0,0,0,0,0,0,-1,1392,862,0,0
175,162,0,0,0,0,0,0,0,0,0,-1,1399,862,0,0
182,162,0,0,0,0,0,0,0,0,0,-1,1406,862,0,0
189,162,0,0,0,0,0,0,0,0,0,-1,1413,862,0,0
196,162,0,0,0,0,0,0,0,0,0,-1,1420,862,0,0
203,162,0,0,0,0,0,0,0,0,0,-1,1427,862,0,0
210,162,0,0,0,0,0,0,0,0,0,-1,1434,862,0,0
217,162,0,0,0,0,0,0,0,0,0,-1,1441,862,0,0
224,162,0,0,0,0,0,0,0,0,0,-1,1448,862,0,0
231,162,0,0,0,0,0,0,0,0,0,-1,1455,862,0,0
238,162,0,0,0,0,0,0,0,0,0,-1,1462,862,0,0
245,162,0,0,0,0,0,0,0,0,0,-1,1469,862,0,0
252,162,0,0,0,0,0,0,0,0,0,-1,1476,862,0,0
259,162,0,0,0,0,0,0,0,0,0,-1,1483,862,0,0
266,162,0,0,0,0,0,0,0,0,0,-1,1490,862,0,0
273,162,0,0,0,0,0,0,0,0,0,-1,1497,862,0,0
280,162,0,0,0,0,0,0,0,0,0,-1,1504,862,0,0
287,162,0,0,0,0,0,0,0,0,0,-1,1511,862,0,0
294,162,0,0,0,0,0,0,0,0,0,-1,1518,862,0,0
301,162,0,0,0,0,0,0,0,0,0,-1,1525,862,0,0
308,162,0,0,0,0,0,0,0,0,0,-1,1532,862,0,0
315,162,0,0,0,0,0,0,0,0,0,-1,1539,862,0,0
322,162,0,0,0,0,0,0,0,0,0,-1,1546,862,0,0
329,162,0,0,0,0,0,0,0,0,0,-1,1553,862,0,0
336,162,0,0,0,0,0,0,0,0,0,-1,1560,862,0,0
343,162,0,0,0,0,0,0,0,0,0,-1,1567,862,0,0
350,162,0,0,0,0,0,0,0,0,0,-1,1574,862,0,0
357,162,0,0,0,0,0,0,0,0,0,-1,1581,862,0,0
364,162,0,0,0,0,0,0,0,0,0,-1,1588,862,0,0
371,162,0,0,0,0,0,0,0,0,0,-1,1595,862,0,0
378,162,0,0,0,0,0,0,0,0,0,-1,1602,862,0,0
385,162,0,0,0,0,0,0,0,0,0,-1,1609,862,0,0
392,162,0,0,0,0,0,0,0,0,0,-1,1616,862,0,0
399,162,0,0,0,0,0,0,0,0,0,-1,1623,862,0,0
406,162,0,0,0,0,0,0,0,0,0,-1,1630,862,0,0
413,162,0,0,0,0,0,0,0,0,0,-1,1637,862,0,0
420,162,0,0,0,0,0,0,0,0,0,-1,1644,862,0,0
427,162,0,0,0,0,0,0,0,0,0,-1,1651,862,0,0
434,162,0,0,0,0,0,0,0,0,0,-1,1658,862,0,0
441,162,0,0,0,0,0,0,0,0,0,-1,1665,862,0,0
448,162,0,0,0,0,0,0,0,0,0,-1,1672,862,0,0
455,162,0,0,0,0,0,0,0,0,0,-1,1679,862,0,0
462,162,0,0,0,0,0,0,0,0,0,-1,1686,862,0,0
469,162,0,0,0,0,0,0,0,0,0,-1,1693,862,0,0
476,162,0,0,0,0,0,0,0,0,0,-1,1700,862,0,0
483,162,0,0,0,0,0,0,0,0,0,-1,1707,862,0,0
490,162,0,0,0,0,0,0,0,0,0,-1,1714,862,0,0
497,162,0,0,0,0,0,0,0,0,0,-1,1721,862,0,0
504,162,0,0,0,0,0,0,0,0,0,-1,1728,862,0,0
511,162,0,0,0,0,0,0,0,0,0,-1,1735,862,0,0
518,162,0,0,0,0,0,0,0,0,0,-1,1742,862,0,0
525,162,0,0,0,0,0,0,0,0,0,-1,1749,862,0,0
532,162,0,0,0,0,0,0,0,0,0,-1,1756,862,0,0
539,162,0,0,0,0,0,0,0,0,0,-1,1763,862,0,0
546,162,0,0,0,0,0,0,0,0,0,-1,1770,862,0,0
553,162,0,0,0,0,0,0,0,0,0,-1,1777,862,0,0
560,162,0,0,0,0,0,0,0,0,0,-1,1784,862,0,0
567,162,0,0,0,0,0,0,0,0,0,-1,1791,862,0,0
574,162,0,0,0,0,0,0,0,0,0,-1,1798,862,0,0
581,162,0,0,0,0,0,0,0,0,0,-1,1805,862,0,0
588,162,0,0,0,0,0,0,0,0,0,-1,1812,862,0,0
595,162,0,0,0,0,0,0,0,0,0,-1,1819,862,0,0
602,162,0,0,0,0,0,0,0,0,0,-1,1826,862,0,0
609,162,0,0,0,0,0,0,0,0,0,-1,1833,862,0,0
616,162,60.3158,2.74658,0.00444264,-0.00349536,-0.00170882,0.00479487,-0.00384759,-0.203277,0.00499971,0.0450625,1840,862,60.3158,-2.74657
623,162,60.4362,2.66968,0.00301427,-0.00280291,-0.000832855,0.00313116,-0.0029198,-0.139441,0.00349423,0.0456662,1847,862,60.4361,-2.6697
630,162,60.3604,2.41626,0.00186579,-0.00206806,-0.000151274,0.0018716,-0.00207387,-0.0383789,0.00227891,0.0435351,1854,862,60.3604,-2.41624
637,162,60.3286,2.5506,0.000686945,-0.00120153,0.000288338,0.000729988,-0.00124458,0.148186,0.00115285,0.0408659,1861,862,60.3286,-2.55061
644,162,60.4253,2.64966,-0.000362257,-0.000797861,0.000296309,-0.000212314,-0.000947804,0.468465,0.000574332,0.0378719,1868,862,60.4253,-2.64967
651,162,60.3846,2.73383,-0.00122288,-0.000770193,-3.55008e-05,-0.000767425,-0.00122564,-1.49301,0.000715092,0.0366661,1875,862,60.3846,-2.73385
658,162,60.3307,2.7207,-0.00179756,-0.00111056,-0.00062521,-0.000740702,-0.00216742,-1.03659,0.00127208,0.036907,1882,862,60.3307,-2.7207
665,162,60.3457,2.71429,0,0,0,0,0,0,0,-1,1889,862,60.3457,-2.71427
672,162,56.9712,3.04034,0,0,0,0,0,0,0,-1,1896,862,56.9711,-3.04034
679,162,26.5077,2.54785,0,0,0,0,0,0,0,-1,1903,862,26.5077,-2.54787
686,162,49.8517,0.740723,0,0,0,0,0,0,0,-1,1910,862,49.8517,-0.740726
693,162,50.2213,1.66815,-0.00228795,-0.000810429,-0.00194221,0.000528773,-0.00362715,-0.967134,0.00261226,0.0376115,1917,862,50.2213,-1.66813
700,162,50.1941,2.29327,-0.00209466,-0.000759093,-0.0019235,0.000609243,-0.003463,-0.952475,0.00253626,0.0342509,1924,862,50.1941,-2.29326
707,162,50.0608,2.88605,-0.00191801,-0.000724266,-0.00190769,0.000677747,-0.00332002,-0.937012,0.00247045,0.0243129,1931,862,50.0608,-2.88606
714,162,49.8909,3.4071,-0.0011985,-0.000372596,-0.00172398,0.000987198,-0.0025583,-0.902951,0.00211292,0.0271723,1938,862,49.8909,-3.40708
721,162,49.7849,4.19727,-0.00022209,0.000385358,-0.00127154,0.00138894,-0.00122568,-0.902633,0.00151053,0.0314295,1945,862,49.7849,-4.19725
728,162,49.7681,4.87054,0.00107093,0.00141629,-0.000521761,0.0017932,0.000694016,-0.945202,0.00104408,0.024423,1952,862,49.7681,-4.87054
735,162,49.7914,5.50287,0.00307964,0.00301774,0.000843727,0.00389299,0.0022044,0.767067,0.00225418,0.0108724,1959,862,49.7913,-5.50288
742,162,49.7607,6.12268,0.00575885,0.00518834,0.00298241,0.00846962,0.00247757,0.737721,0.00502831,0.0126431,1966,862,49.7607,-6.12269
749,162,49.6686,6.78302,0.0087675,0.00778275,0.00559368,0.0138904,0.00265982,0.741499,0.00851333,0.0200753,1973,862,49.6685,-6.78303
756,162,49.5972,7.50775,0.0126882,0.0113023,0.0093909,0.0214117,0.00257879,0.74857,0.0134972,0.0478163,1980,862,49.5972,-7.50773
763,162,50.1276,8.79816,0,0,0,0,0,0,0,-1,1987,862,50.1276,-8.79813
770,162,48.002,9.22675,0,0,0,0,0,0,0,-1,1994,862,48.0019,-9.22675
777,162,47.9099,9.68317,0,0,0,0,0,0,0,-1,2001,862,47.91,-9.68317
784,162,48.532,10.3329,0,0,0,0,0,0,0,-1,2008,862,48.5321,-10.3329
791,162,0,0,0,0,0,0,0,0,0,-1,2015,862,0,0
798,162,0,0,0,0,0,0,0,0,0,-1,2022,862,0,0
805,162,0,0,0,0,0,0,0,0,0,-1,2029,862,0,0
812,162,0,0,0,0,0,0,0,0,0,-1,2036,862,0,0
-700,155,0,0,0,0,0,0,0,0,0,-1,524,869,0,0
-693,155,0,0,0,0,0,0,0,0,0,-1,531,869,0,0
-686,155,0,0,0,0,0,0,0,0,0,-1,538,869,0,0
-679,155,0,0,0,0,0,0,0,0,0,-1,545,869,0,0
-672,155,0,0,0,0,0,0,0,0,0,-1,552,869,0,0
-665,155,-49.7236,-5.71008,0,0,0,0,0,0,0,-1,559,869,-49.7236,5.71005
-658,155,-41.7332,4.93372,0,0,0,0,0,0,0,-1,566,869,-41.7332,-4.93369
-651,155,-48.6924,-4.29907,0,0,0,0,0,0,0,-1,573,869,-48.6924,4.29909
-644,155,-39.7001,8.02875,0,0,0,0,0,0,0,-1,580,869,-39.7001,-8.02874
-637,155,-36.8124,5.15515,0,0,0,0,0,0,0,-1,587,869,-36.8125,-5.15516
-630,155,-37.705,4.94843,0,0,0,0,0,0,0,-1,594,869,-37.7049,-4.94844
-623,155,-37.3066,4.79547,0,0,0,0,0,0,0,-1,601,869,-37.3066,-4.79549
-616,155,-37.1517,4.35162,0.0353514,-0.0100949,0.00109993,0.0353781,-0.0101216,0.0241839,0.0275853,0.0162947,608,869,-37.1517,-4.35161
-609,155,-37.2401,3.67053,0.0196107,-0.00545246,0.00122812,0.0196707,-0.00551249,0.0488451,0.0152863,0.0141449,615,869,-37.2401,-3.67051
-602,155,-37.3113,3.03491,0.00724077,-0.00231487,0.00225014,0.00774412,-0.00281821,0.220072,0.00631535,0.0132436,622,869,-37.3113,-3.0349
-595,155,-37.3453,2.4173,-0.000684183,-0.000537589,0.00329285,0.00268278,-0.00390456,0.796526,0.00382494,0.0132281,629,869,-37.3453,-2.41731
-588,155,-37.3018,1.83936,-0.00347772,-0.000110846,0.00357315,0.00215557,-0.00574414,1.00554,0.00471515,0.0197095,636,869,-37.3018,-1.83936
-581,155,-37.5898,1.3537,-0.00355254,-8.06814e-05,0.0033769,0.00198035,-0.00561357,1.02281,0.00454854,0.0391439,643,869,-37.5898,-1.35368
-574,155,-37.8644,0.992065,0,0,0,0,0,0,0,-1,650,869,-37.8644,-0.992081
-567,155,-37.7079,-0.177917,0,0,0,0,0,0,0,-1,657,869,-37.7079,0.177942
-560,155,-37.1416,-0.708008,0,0,0,0,0,0,0,-1,664,869,-37.1416,0.70801
-553,155,-36.7729,-1.71521,0,0,0,0,0,0,0,-1,671,869,-36.7729,1.71523
-546,155,-22.7988,0.873657,0,0,0,0,0,0,0,-1,678,869,-22.7988,-0.873645
-539,155,-45.8812,0.754028,0,0,0,0,0,0,0,-1,685,869,-45.8812,-0.754056
-532,155,-45.883,0.79364,-0.00163693,0.00324763,0.00297723,0.00465615,-0.00304545,1.1289,0.00447881,0.0350446,692,869,-45.883,-0.79367
-525,155,-45.8829,0.832581,-0.000672804,0.00404532,0.00286135,0.0053947,-0.00202218,1.13014,0.00442724,0.0388114,699,869,-45.8829,-0.832605
-518,155,-45.8877,0.725281,-0.000698484,0.0053065,0.0029981,0.00654706,-0.00193905,1.17846,0.00513459,0.0420804,706,869,-45.8877,-0.725269
-511,155,-46.0269,0.861755,-0.00122182,0.00705154,0.00331881,0.00821832,-0.00238859,1.23273,0.00642482,0.0424881,713,869,-46.0269,-0.861771
-504,155,-46.1523,1.03558,-0.00145783,0.00907708,0.00314527,0.00994467,-0.00232542,1.30165,0.00752565,0.0426025,720,869,-46.1523,-1.03558
-497,155,0,0,0,0,0,0,0,0,0,-1,727,869,0,0
-490,155,0,0,0,0,0,0,0,0,0,-1,734,869,0,0
-483,155,0,0,0,0,0,0,0,0,0,-1,741,869,0,0
-476,155,0,0,0,0,0,0,0,0,0,-1,748,869,0,0
-469,155,0,0,0,0,0,0,0,0,0,-1,755,869,0,0
-462,155,0,0,0,0,0,0,0,0,0,-1,762,869,0,0
-455,155,0,0,0,0,0,0,0,0,0,-1,769,869,0,0
-448,155,0,0,0,0,0,0,0,0,0,-1,776,869,0,0
-441,155,0,0,0,0,0,0,0,0,0,-1,783,869,0,0
-434,155,0,0,0,0,0,0,0,0,0,-1,790,869,0,0
-427,155,0,0,0,0,0,0,0,0,0,-1,797,869,0,0
-420,155,0,0,0,0,0,0,0,0,0,-1,804,869,0,0
-413,155,0,0,0,0,0,0,0,0,0,-1,811,869,0,0
-406,155,0,0,0,0,0,0,0,0,0,-1,818,869,0,0
-399,155,0,0,0,0,0,0,0,0,0,-1,825,869,0,0
-392,155,0,0,0,0,0,0,0,0,0,-1,832,869,0,0
-385,155,0,0,0,0,0,0,0,0,0,-1,839,869,0,0
-378,155,0,0,0,0,0,0,0,0,0,-1,846,869,0,0
-371,155,0,0,0,0,0,0,0,0,0,-1,853,869,0,0
-364,155,0,0,0,0,0,0,0,0,0,-1,860,869,0,0
-357,155,0,0,0,0,0,0,0,0,0,-1,867,869,0,0
-350,155,0,0,0,0,0,0,0,0,0,-1,874,869,0,0
-343,155,0,0,0,0,0,0,0,0,0,-1,881,869,0,0
-336,155,0,0,0,0,0,0,0,0,0,-1,888,869,0,0
-329,155,0,0,0,0,0,0,0,0,0,-1,895,869,0,0
-322,155,0,0,0,0,0,0,0,0,0,-1,902,869,0,0
-315,155,0,0,0,0,0,0,0,0,0,-1,909,869,0,0
-308,155,0,0,0,0,0,0,0,0,0,-1,916,869,0,0
-301,155,0,0,0,0,0,0,0,0,0,-1,923,869,0,0
-294,155,0,0,0,0,0,0,0,0,0,-1,930,869,0,0
-287,155,0,0,0,0,0,0,0,0,0,-1,937,869,0,0
-280,155,0,0,0,0,0,0,0,0,0,-1,944,869,0,0
-273,155,0,0,0,0,0,0,0,0,0,-1,951,869,0,0
-266,155,0,0,0,0,0,0,0,0,0,-1,958,869,0,0
-259,155,0,0,0,0,0,0,0,0,0,-1,965,869,0,0
-252,155,0,0,0,0,0,0,0,0,0,-1,972,869,0,0
-245,155,0,0,0,0,0,0,0,0,0,-1,979,869,0,0
-238,155,0,0,0,0,0,0,0,0,0,-1,986,869,0,0
-231,155,0,0,0,0,0,0,0,0,0,-1,993,869,0,0
-224,155,0,0,0,0,0,0,0,0,0,-1,1000,869,0,0
-217,155,0,0,0,0,0,0,0,0,0,-1,1007,869,0,0
-210,155,0,0,0,0,0,0,0,0,0,-1,1014,869,0,0
-203,155,0,0,0,0,0,0,0,0,0,-1,1021,869,0,0
-196,155,0,0,0,0,0,0,0,0,0,-1,1028,869,0,0
-189,155,0,0,0,0,0,0,0,0,0,-1,1035,869,0,0
-182,155,0,0,0,0,0,0,0,0,0,-1,1042,869,0,0
-175,155,0,0,0,0,0,0,0,0,0,-1,1049,869,0,0
-168,155,0,0,0,0,0,0,0,0,0,-1,1056,869,0,0
-161,155,0,0,0,0,0,0,0,0,0,-1,1063,869,0,0
-154,155,0,0,0,0,0,0,0,0,0,-1,1070,869,0,0
-147,155,0,0,0,0,0,0,0,0,0,-1,1077,869,0,0
-140,155,0,0,0,0,0,0,0,0,0,-1,1084,869,0,0
-133,155,0,0,0,0,0,0,0,0,0,-1,1091,869,0,0
-126,155,0,0,0,0,0,0,0,0,0,-1,1098,869,0,0
-119,155,0,0,0,0,0,0,0,0,0,-1,1105,869,0,0
-112,155,0,0,0,0,0,0,0,0,0,-1,1112,869,0,0
-105,155,0,0,0,0,0,0,0,0,0,-1,1119,869,0,0
-98,155,0,0,0,0,0,0,0,0,0,-1,1126,869,0,0
-91,155,0,0,0,0,0,0,0,0,0,-1,1133,869,0,0
-84,155,0,0,0,0,0,0,0,0,0,-1,1140,869,0,0
-77,155,0,0,0,0,0,0,0,0,0,-1,1147,869,0,0
-70,155,0,0,0,0,0,0,0,0,0,-1,1154,869,0,0
-63,155,0,0,0,0,0,0,0,0,0,-1,1161,869,0,0
-56,155,0,0,0,0,0,0,0,0,0,-1,1168,869,0,0
-49,155,0,0,0,0,0,0,0,0,0,-1,1175,869,0,0
-42,155,0,0,0,0,0,0,0,0,0,-1,1182,869,0,0
-35,155,0,0,0,0,0,0,0,0,0,-1,1189,869,0,0
-28,155,0,0,0,0,0,0,0,0,0,-1,1196,869,0,0
-21,155,0,0,0,0,0,0,0,0,0,-1,1203,869,0,0
-14,155,0,0,0,0,0,0,0,0,0,-1,1210,869,0,0
-7,155,0,0,0,0,0,0,0,0,0,-1,1217,869,0,0
0,155,0,0,0,0,0,0,0,0,0,-1,1224,869,0,0
7,155,0,0,0,0,0,0,0,0,0,-1,1231,869,0,0
14,155,0,0,0,0,0,0,0,0,0,-1,1238,869,0,0
21,155,0,0,0,0,0,0,0,0,0,-1,1245,869,0,0
28,155,0,0,0,0,0,0,0,0,0,-1,1252,869,0,0
35,155,0,0,0,0,0,0,0,0,0,-1,1259,869,0,0
42,155,0,0,0,0,0,0,0,0,0,-1,1266,869,0,0
49,155,0,0,0,0,0,0,0,0,0,-1,1273,869,0,0
56,155,0,0,0,0,0,0,0,0,0,-1,1280,869,0,0
63,155,0,0,0,0,0,0,0,0,0,-1,1287,869,0,0
70,155,0,0,0,0,0,0,0,0,0,-1,1294,869,0,0
77,155,0,0,0,0,0,0,0,0,0,-1,1301,869,0,0
84,155,0,0,0,0,0,0,0,0,0,-1,1308,869,0,0
91,155,0,0,0,0,0,0,0,0,0,-1,1315,869,0,0
98,155,0,0,0,0,0,0,0,0,0,-1,1322,869,0,0
105,155,0,0,0,0,0,0,0,0,0,-1,1329,869,0,0
112,155,0,0,0,0,0,0,0,0,0,-1,1336,869,0,0
119,155,0,0,0,0,0,0,0,0,0,-1,1343,869,0,0
126,155,0,0,0,0,0,0,0,0,0,-1,1350,869,0,0
133,155,0,0,0,0,0,0,0,0,0,-1,1357,869,0,0
140,155,0,0,0,0,0,0,0,0,0,-1,1364,869,0,0
147,155,0,0,0,0,0,0,0,0,0,-1,1371,869,0,0
154,155,0,0,0,0,0,0,0,0,0,-1,1378,869,0,0
161,155,0,0,0,0,0,0,0,0,0,-1,1385,869,0,0
168,155,0,0,0,0,0,0,0,0,0,-1,1392,869,0,0
175,155,0,0,0,0,0,0,0,0,0,-1,1399,869,0,0
182,155,0,0,0,0,0,0,0,0,0,-1,1406,869,0,0
189,155,0,0,0,0,0,0,0,0,0,-1,1413,869,0,0
196,155,0,0,0,0,0,0,0,0,0,-1,1420,869,0,0
203,155,0,0,0,0,0,0,0,0,0,-1,1427,869,0,0
210,155,0,0,0,0,0,0,0,0,0,-1,1434,869,0,0
217,155,0,0,0,0,0,0,0,0,0,-1,1441,869,0,0
224,155,0,0,0,0,0,0,0,0,0,-1,1448,869,0,0
231,155,0,0,0,0,0,0,0,0,0,-1,1455,869,0,0
238,155,0,0,0,0,0,0,0,0,0,-1,1462,869,0,0
245,155,0,0,0,0,0,0,0,0,0,-1,1469,869,0,0
252,155,0,0,0,0,0,0,0,0,0,-1,1476,869,0,0
259,155,0,0,0,0,0,0,0,0,0,-1,1483,869,0,0
266,155,0,0,0,0,0,0,0,0,0,-1,1490,869,0,0
273,155,0,0,0,0,0,0,0,0,0,-1,1497,869,0,0
280,155,0,0,0,0,0,0,0,0,0,-1,1504,869,0,0
287,155,0,0,0,0,0,0,0,0,0,-1,1511,869,0,0
294,155,0,0,0,0,0,0,0,0,0,-1,1518,869,0,0
301,155,0,0,0,0,0,0,0,0,0,-1,1525,869,0,0
308,155,0,0,0,0,0,0,0,0,0,-1,1532,869,0,0
315,155,0,0,0,0,0,0,0,0,0,-1,1539,869,0,0
322,155,0,0,0,0,0,0,0,0,0,-1,1546,869,0,0
329,155,0,0,0,0,0,0,0,0,0,-1,1553,869,0,0
336,155,0,0,0,0,0,0,0,0,0,-1,1560,869,0,0
343,155,0,0,0,0,0,0,0,0,0,-1,1567,869,0,0
350,155,0,0,0,0,0,0,0,0,0,-1,1574,869,0,0
357,155,0,0,0,0,0,0,0,0,0,-1,1581,869,0,0
364,155,0,0,0,0,0,0,0,0,0,-1,1588,869,0,0
371,155,0,0,0,0,0,0,0,0,0,-1,1595,869,0,0
378,155,0,0,0,0,0,0,0,0,0,-1,1602,869,0,0
385,155,0,0,0,0,0,0,0,0,0,-1,1609,869,0,0
392,155,0,0,0,0,0,0,0,0,0,-1,1616,869,0,0
399,155,0,0,0,0,0,0,0,0,0,-1,1623,869,0,0
406,155,0,0,0,0,0,0,0,0,0,-1,1630,869,0,0
413,155,0,0,0,0,0,0,0,0,0,-1,1637,869,0,0
420,155,0,0,0,0,0,0,0,0,0,-1,1644,869,0,0
427,155,0,0,0,0,0,0,0,0,0,-1,1651,869,0,0
434,155,0,0,0,0,0,0,0,0,0,-1,1658,869,0,0
441,155,0,0,0,0,0,0,0,0,0,-1,1665,869,0,0
448,155,0,0,0,0,0,0,0,0,0,-1,1672,869,0,0
455,155,0,0,0,0,0,0,0,0,0,-1,1679,869,0,0
462,155,0,0,0,0,0,0,0,0,0,-1,1686,869,0,0
469,155,0,0,0,0,0,0,0,0,0,-1,1693,869,0,0
476,155,0,0,0,0,0,0,0,0,0,-1,1700,869,0,0
483,155,0,0,0,0,0,0,0,0,0,-1,1707,869,0,0
490,155,0,0,0,0,0,0,0,0,0,-1,1714,869,0,0
497,155,0,0,0,0,0,0,0,0,0,-1,1721,869,0,0
504,155,0,0,0,0,0,0,0,0,0,-1,1728,869,0,0
511,155,0,0,0,0,0,0,0,0,0,-1,1735,869,0,0
518,155,0,0,0,0,0,0,0,0,0,-1,1742,869,0,0
525,155,0,0,0,0,0,0,0,0,0,-1,1749,869,0,0
532,155,0,0,0,0,0,0,0,0,0,-1,1756,869,0,0
539,155,0,0,0,0,0,0,0,0,0,-1,1763,869,0,0
546,155,0,0,0,0,0,0,0,0,0,-1,1770,869,0,0
553,155,0,0,0,0,0,0,0,0,0,-1,1777,869,0,0
560,155,0,0,0,0,0,0,0,0,0,-1,1784,869,0,0
567,155,0,0,0,0,0,0,0,0,0,-1,1791,869,0,0
574,155,0,0,0,0,0,0,0,0,0,-1,1798,869,0,0
581,155,0,0,0,0,0,0,0,0,0,-1,1805,869,0,0
588,155,0,0,0,0,0,0,0,0,0,-1,1812,869,0,0
595,155,0,0,0,0,0,0,0,0,0,-1,1819,869,0,0
602,155,0,0,0,0,0,0,0,0,0,-1,1826,869,0,0
609,155,0,0,0,0,0,0,0,0,0,-1,1833,869,0,0
616,155,60.0935,2.42212,0,0,0,0,0,0,0,-1,1840,869,60.0935,-2.42212
623,155,60.3796,2.61194,0.00209983,-0.00255693,-0.000516824,0.00215649,-0.0026136,-0.109213,0.00275822,0.0429515,1847,869,60.3797,-2.61195
630,155,60.4084,2.72827,0.0013116,-0.00204823,-0.000125427,0.00131627,-0.00205291,-0.0372622,0.00196063,0.0440646,1854,869,60.4085,-2.72826
637,155,60.3052,2.67761,0.000584237,-0.00127874,0.000180223,0.000601512,-0.00129601,0.0955585,0.00111973,0.0420501,1861,869,60.3052,-2.67759
644,155,60.424,2.60986,-0.000164925,-0.000824212,0.000188037,-0.000115065,-0.000874071,0.259195,0.000548398,0.0378536,1868,869,60.4239,-2.60988
651,155,60.4469,2.57825,-0.000889743,-0.000705592,-0.000105358,-0.000657745,-0.00093759,-1.14451,0.000555781,0.0362327,1875,869,60.4469,-2.57824
658,155,60.3577,2.61328,-0.00140637,-0.00102476,-0.000653527,-0.000534752,-0.00189637,-0.927432,0.00112903,0.030736,1882,869,60.3577,-2.6133
665,155,60.342,2.62915,-0.00182173,-0.000910401,-0.000846343,-0.000404855,-0.00232728,-1.03234,0.00143572,0.0347816,1889,869,60.342,-2.62913
672,155,60.3323,2.67444,0,0,0,0,0,0,0,-1,1896,869,60.3322,-2.67447
679,155,35.1565,2.78528,0,0,0,0,0,0,0,-1,1903,869,35.1565,-2.7853
686,155,43.6101,1.63361,0,0,0,0,0,0,0,-1,1910,869,43.6101,-1.63362
693,155,50.9944,1.80011,0,0,0,0,0,0,0,-1,1917,869,50.9944,-1.80011
700,155,50.9238,2.39825,-0.00162932,-0.000626585,-0.00173992,0.000682759,-0.00293867,-0.925676,0.00222194,0.0473122,1924,869,50.9239,-2.39825
707,155,50.834,3.04681,-0.00155035,-0.000534258,-0.00171358,0.000745003,-0.00282961,-0.929511,0.00217764,0.0298455,1931,869,50.834,-3.04684
714,155,50.6058,3.44135,0,0,0,0,0,0,0,-1,1938,869,50.6059,-3.44135
721,155,50.4617,4.20868,-0.000462945,0.000558473,-0.00138657,0.00152539,-0.00142987,-0.961852,0.00170652,0.037416,1945,869,50.4617,-4.20868
728,155,50.4531,4.88684,0.000290543,0.00161158,-0.000866451,0.00204057,-0.000138444,-1.11107,0.0014088,0.0197289,1952,869,50.4531,-4.88684
735,155,50.4397,5.51617,0.00190691,0.00335177,0.000486461,0.00350029,0.00175839,1.27448,0.0020209,0.0149701,1959,869,50.4397,-5.51619
742,155,50.4434,6.15533,0.00449903,0.00583761,0.00290364,0.0081481,0.00218854,0.898671,0.00486935,0.0168919,1966,869,50.4433,-6.15536
749,155,50.3499,6.76263,0.00774979,0.00885492,0.00593547,0.0142635,0.00234122,0.831812,0.00883262,0.0170975,1973,869,50.3499,-6.76262
756,155,50.2996,7.52283,0.0122515,0.0128108,0.0103844,0.0229193,0.00214295,0.798858,0.0146177,0.0305203,1980,869,50.2996,-7.52282
763,155,50.291,8.4101,0.0194779,0.0179015,0.0171897,0.0358974,0.00148198,0.762488,0.0234532,0.0489276,1987,869,50.2911,-8.41008
770,155,50.2013,9.26825,0,0,0,0,0,0,0,-1,1994,869,50.2013,-9.26827
777,155,50.2205,9.64087,0,0,0,0,0,0,0,-1,2001,869,50.2204,-9.64088
784,155,48.3962,11.3304,0,0,0,0,0,0,0,-1,2008,869,48.3963,-11.3305
791,155,0,0,0,0,0,0,0,0,0,-1,2015,869,0,0
798,155,0,0,0,0,0,0,0,0,0,-1,2022,869,0,0
805,155,0,0,0,0,0,0,0,0,0,-1,2029,869,0,0
812,155,0,0,0,0,0,0,0,0,0,-1,2036,869,0,0
-700,148,0,0,0,0,0,0,0,0,0,-1,524,876,0,0
-693,148,0,0,0,0,0,0,0,0,0,-1,531,876,0,0
-686,148,0,0,0,0,0,0,0,0,0,-1,538,876,0,0
-679,148,0,0,0,0,0,0,0,0,0,-1,545,876,0,0
-672,148,-50.7983,-6.18927,0.190952,-0.0535786,0.0428404,0.19824,-0.0608668,0.168511,0.156447,0.0436761,552,876,-50.7983,6.18924
-665,148,-49.6966,-5.40942,0.172044,-0.0512441,0.0310407,0.176278,-0.0554789,0.135592,0.139733,0.0488032,559,876,-49.6966,5.40942
-658,148,-48.4429,-4.58167,0,0,0,0,0,0,0,-1,566,876,-48.4428,4.58164
-651,148,-48.2202,-3.84912,0,0,0,0,0,0,0,-1,573,876,-48.2202,3.84915
-644,148,-47.3098,-2.93317,0,0,0,0,0,0,0,-1,580,876,-47.3098,2.93315
-637,148,-43.4385,2.36011,0,0,0,0,0,0,0,-1,587,876,-43.4385,-2.36011
-630,148,-37.5166,5.81549,0,0,0,0,0,0,0,-1,594,876,-37.5166,-5.81548
-623,148,-37.6491,5.07874,0.0475053,-0.0138204,0.00390348,0.0477528,-0.0140679,0.0633109,0.0374167,0.0288224,601,876,-37.6491,-5.07871
-616,148,-37.7914,4.35901,0.0306517,-0.00888241,0.00237643,0.0307941,-0.00902474,0.0598238,0.0241074,0.0148876,608,876,-37.7914,-4.35902
-609,148,-37.9042,3.69086,0.0157157,-0.0043277,0.00213955,0.0159416,-0.00455355,0.105167,0.0124268,0.0131875,615,876,-37.9042,-3.69085
-602,148,-37.9802,3.05103,0.00457807,-0.00160339,0.00280563,0.00566157,-0.00268688,0.368542,0.00492092,0.0149627,622,876,-37.9801,-3.05105
-595,148,-37.9924,2.44055,-0.00168085,-0.000392358,0.00349408,0.00251637,-0.00458957,0.876565,0.00416042,0.0135375,629,876,-37.9924,-2.44056
-588,148,-38.007,1.75854,-0.00342749,-0.000251886,0.00354007,0.00204016,-0.00571953,0.996211,0.0046449,0.027806,636,876,-38.007,-1.75853
-581,148,-38.2033,1.31763,-0.00355353,-0.000121865,0.00333847,0.00191589,-0.00559129,1.02277,0.0045041,0.0451412,643,876,-38.2033,-1.31765
-574,148,-38.2802,1.08289,0,0,0,0,0,0,0,-1,650,876,-38.2801,-1.0829
-567,148,-35.6293,0.615784,0,0,0,0,0,0,0,-1,657,876,-35.6293,-0.615792
-560,148,-37.7973,-0.588135,0,0,0,0,0,0,0,-1,664,876,-37.7973,0.588143
-553,148,-18.3896,-0.00280762,0,0,0,0,0,0,0,-1,671,876,-18.3897,0.00278524
-546,148,-45.9301,0.653076,0,0,0,0,0,0,0,-1,678,876,-45.9301,-0.653068
-539,148,-45.9033,0.683411,-0.00302196,0.00198548,0.00316277,0.00351558,-0.00455206,1.1202,0.00467065,0.0423248,685,876,-45.9033,-0.683399
-532,148,-45.8927,0.733948,-0.00208987,0.00285821,0.00287948,0.00418052,-0.00341218,1.1403,0.00439112,0.0348581,692,876,-45.8927,-0.733919
-525,148,-45.8648,0.868286,-0.00117581,0.00363444,0.00278809,0.00491145,-0.00245282,1.14129,0.00433003,0.039222,699,876,-45.8648,-0.86828
-518,148,-45.834,0.886475,-0.0011921,0.00494552,0.00319587,0.00630742,-0.002554,1.16796,0.0052669,0.0439728,706,876,-45.834,-0.88649
-511,148,-45.8935,0.934937,-0.00150475,0.00660399,0.00376308,0.00808123,-0.00298199,1.19672,0.00660965,0.0418499,713,876,-45.8935,-0.934957
-504,148,-45.9453,1.18512,-0.00167483,0.0084504,0.00403838,0.00986379,-0.00308822,1.23413,0.00781147,0.042349,720,876,-45.9453,-1.18513
-497,148,0,0,0,0,0,0,0,0,0,-1,727,876,0,0
-490,148,0,0,0,0,0,0,0,0,0,-1,734,876,0,0
-483,148,0,0,0,0,0,0,0,0,0,-1,741,876,0,0
-476,148,0,0,0,0,0,0,0,0,0,-1,748,876,0,0
-469,148,0,0,0,0,0,0,0,0,0,-1,755,876,0,0
-462,148,0,0,0,0,0,0,0,0,0,-1,762,876,0,0
-455,148,0,0,0,0,0,0,0,0,0,-1,769,876,0,0
-448,148,0,0,0,0,0,0,0,0,0,-1,776,876,0,0
-441,148,0,0,0,0,0,0,0,0,0,-1,783,876,0,0
-434,148,0,0,0,0,0,0,0,0,0,-1,790,876,0,0
-427,148,0,0,0,0,0,0,0,0,0,-1,797,876,0,0
-420,148,0,0,0,0,0,0,0,0,0,-1,804,876,0,0
-413,148,0,0,0,0,0,0,0,0,0,-1,811,876,0,0
-406,148,0,0,0,0,0,0,0,0,0,-1,818,876,0,0
-399,148,0,0,0,0,0,0,0,0,0,-1,825,876,0,0
-392,148,0,0,0,0,0,0,0,0,0,-1,832,876,0,0
-385,148,0,0,0,0,0,0,0,0,0,-1,839,876,0,0
-378,148,0,0,0,0,0,0,0,0,0,-1,846,876,0,0
-371,148,0,0,0,0,0,0,0,0,0,-1,853,876,0,0
-364,148,0,0,0,0,0,0,0,0,0,-1,860,876,0,0
-357,148,0,0,0,0,0,0,0,0,0,-1,867,876,0,0
-350,148,0,0,0,0,0,0,0,0,0,-1,874,876,0,0
-343,148,0,0,0,0,0,0,0,0,0,-1,881,876,0,0
-336,148,0,0,0,0,0,0,0,0,0,-1,888,876,0,0
-329,148,0,0,0,0,0,0,0,0,0,-1,895,876,0,0
-322,148,0,0,0,0,0,0,0,0,0,-1,902,876,0,0
-315,148,0,0,0,0,0,0,0,0,0,-1,909,876,0,0
-308,148,0,0,0,0,0,0,0,0,0,-1,916,876,0,0
-301,148,0,0,0,0,0,0,0,0,0,-1,923,876,0,0
-294,148,0,0,0,0,0,0,0,0,0,-1,930,876,0,0
-287,148,0,0,0,0,0,0,0,0,0,-1,937,876,0,0
-280,148,0,0,0,0,0,0,0,0,0,-1,944,876,0,0
-273,148,0,0,0,0,0,0,0,0,0,-1,951,876,0,0
-266,148,0,0,0,0,0,0,0,0,0,-1,958,876,0,0
-259,148,0,0,0,0,0,0,0,0,0,-1,965,876,0,0
-252,148,0,0,0,0,0,0,0,0,0,-1,972,876,0,0
-245,148,0,0,0,0,0,0,0,0,0,-1,979,876,0,0
-238,148,0,0,0,0,0,0,0,0,0,-1,986,876,0,0
-231,148,0,0,0,0,0,0,0,0,0,-1,993,876,0,0
-224,148,0,0,0,0,0,0,0,0,0,-1,1000,876,0,0
-217,148,0,0,0,0,0,0,0,0,0,-1,1007,876,0,0
-210,148,0,0,0,0,0,0,0,0,0,-1,1014,876,0,0
-203,148,0,0,0,0,0,0,0,0,0,-1,1021,876,0,0
-196,148,0,0,0,0,0,0,0,0,0,-1,1028,876,0,0
-189,148,0,0,0,0,0,0,0,0,0,-1,1035,876,0,0
-182,148,0,0,0,0,0,0,0,0,0,-1,1042,876,0,0
-175,148,0,0,0,0,0,0,0,0,0,-1,1049,876,0,0
-168,148,0,0,0,0,0,0,0,0,0,-1,1056,876,0,0
-161,148,0,0,0,0,0,0,0,0,0,-1,1063,876,0,0
-154,148,0,0,0,0,0,0,0,0,0,-1,1070,876,0,0
-147,148,0,0,0,0,0,0,0,0,0,-1,1077,876,0,0
-140,148,0,0,0,0,0,0,0,0,0,-1,1084,876,0,0
-133,148,0,0,0,0,0,0,0,0,0,-1,1091,876,0,0
-126,148,0,0,0,0,0,0,0,0,0,-1,1098,876,0,0
-119,148,0,0,0,0,0,0,0,0,0,-1,1105,876,0,0
-112,148,0,0,0,0,0,0,0,0,0,-1,1112,876,0,0
-105,148,0,0,0,0,0,0,0,0,0,-1,1119,876,0,0
-98,148,0,0,0,0,0,0,0,0,0,-1,1126,876,0,0
-91,148,0,0,0,0,0,0,0,0,0,-1,1133,876,0,0
-84,148,0,0,0,0,0,0,0,0,0,-1,1140,876,0,0
-77,148,0,0,0,0,0,0,0,0,0,-1,1147,876,0,0
-70,148,0,0,0,0,0,0,0,0,0,-1,1154,876,0,0
-63,148,0,0,0,0,0,0,0,0,0,-1,1161,876,0,0
-56,148,0,0,0,0,0,0,0,0,0,-1,1168,876,0,0
-49,148,0,0,0,0,0,0,0,0,0,-1,1175,876,0,0
-42,148,0,0,0,0,0,0,0,0,0,-1,1182,876,0,0
-35,148,0,0,0,0,0,0,0,0,0,-1,1189,876,0,0
-28,148,0,0,0,0,0,0,0,0,0,-1,1196,876,0,0
-21,148,0,0,0,0,0,0,0,0,0,-1,1203,876,0,0
-14,148,0,0,0,0,0,0,0,0,0,-1,1210,876,0,0
-7,148,0,0,0,0,0,0,0,0,0,-1,1217,876,0,0
0,148,0,0,0,0,0,0,0,0,0,-1,1224,876,0,0
7,148,0,0,0,0,0,0,0,0,0,-1,1231,876,0,0
14,148,0,0,0,0,0,0,0,0,0,-1,1238,876,0,0
21,148,0,0,0,0,0,0,0,0,0,-1,1245,876,0,0
28,148,0,0,0,0,0,0,0,0,0,-1,1252,876,0,0
35,148,0,0,0,0,0,0,0,0,0,-1,1259,876,0,0
42,148,0,0,0,0,0,0,0,0,0,-1,1266,876,0,0
49,148,0,0,0,0,0,0,0,0,0,-1,1273,876,0,0
56,148,0,0,0,0,0,0,0,0,0,-1,1280,876,0,0
63,148,0,0,0,0,0,0,0,0,0,-1,1287,876,0,0
70,148,0,0,0,0,0,0,0,0,0,-1,1294,876,0,0
77,148,0,0,0,0,0,0,0,0,0,-1,1301,876,0,0
84,148,0,0,0,0,0,0,0,0,0,-1,1308,876,0,0
91,148,0,0,0,0,0,0,0,0,0,-1,1315,876,0,0
98,148,0,0,0,0,0,0,0,0,0,-1,1322,876,0,0
105,148,0,0,0,0,0,0,0,0,0,-1,1329,876,0,0
112,148,0,0,0,0,0,0,0,0,0,-1,1336,876,0,0
119,148,0,0,0,0,0,0,0,0,0,-1,1343,876,0,0
126,148,0,0,0,0,0,0,0,0,0,-1,1350,876,0,0
133,148,0,0,0,0,0,0,0,0,0,-1,1357,876,0,0
140,148,0,0,0,0,0,0,0,0,0,-1,1364,876,0,0
147,148,0,0,0,0,0,0,0,0,0,-1,1371,876,0,0
154,148,0,0,0,0,0,0,0,0,0,-1,1378,876,0,0
161,148,0,0,0,0,0,0,0,0,0,-1,1385,876,0,0
168,148,0,0,0,0,0,0,0,0,0,-1,1392,876,0,0
175,148,0,0,0,0,0,0,0,0,0,-1,1399,876,0,0
182,148,0,0,0,0,0,0,0,0,0,-1,1406,876,0,0
189,148,0,0,0,0,0,0,0,0,0,-1,1413,876,0,0
196,148,0,0,0,0,0,0,0,0,0,-1,1420,876,0,0
203,148,0,0,0,0,0,0,0,0,0,-1,1427,876,0,0
210,148,0,0,0,0,0,0,0,0,0,-1,1434,876,0,0
217,148,0,0,0,0,0,0,0,0,0,-1,1441,876,0,0
224,148,0,0,0,0,0,0,0,0,0,-1,1448,876,0,0
231,148,0,0,0,0,0,0,0,0,0,-1,1455,876,0,0
238,148,0,0,0,0,0,0,0,0,0,-1,1462,876,0,0
245,148,0,0,0,0,0,0,0,0,0,-1,1469,876,0,0
252,148,0,0,0,0,0,0,0,0,0,-1,1476,876,0,0
259,148,0,0,0,0,0,0,0,0,0,-1,1483,876,0,0
266,148,0,0,0,0,0,0,0,0,0,-1,1490,876,0,0
273,148,0,0,0,0,0,0,0,0,0,-1,1497,876,0,0
280,148,0,0,0,0,0,0,0,0,0,-1,1504,876,0,0
287,148,0,0,0,0,0,0,0,0,0,-1,1511,876,0,0
294,148,0,0,0,0,0,0,0,0,0,-1,1518,876,0,0
301,148,0,0,0,0,0,0,0,0,0,-1,1525,876,0,0
308,148,0,0,0,0,0,0,0,0,0,-1,1532,876,0,0
315,148,0,0,0,0,0,0,0,0,0,-1,1539,876,0,0
322,148,0,0,0,0,0,0,0,0,0,-1,1546,876,0,0
329,148,0,0,0,0,0,0,0,0,0,-1,1553,876,0,0
336,148,0,0,0,0,0,0,0,0,0,-1,1560,876,0,0
343,148,0,0,0,0,0,0,0,0,0,-1,1567,876,0,0
350,148,0,0,0,0,0,0,0,0,0,-1,1574,876,0,0
357,148,0,0,0,0,0,0,0,0,0,-1,1581,876,0,0
364,148,0,0,0,0,0,0,0,0,0,-1,1588,876,0,0
371,148,0,0,0,0,0,0,0,0,0,-1,1595,876,0,0
378,148,0,0,0,0,0,0,0,0,0,-1,1602,876,0,0
385,148,0,0,0,0,0,0,0,0,0,-1,1609,876,0,0
392,148,0,0,0,0,0,0,0,0,0,-1,1616,876,0,0
399,148,0,0,0,0,0,0,0,0,0,-1,1623,876,0,0
406,148,0,0,0,0,0,0,0,0,0,-1,1630,876,0,0
413,148,0,0,0,0,0,0,0,0,0,-1,1637,876,0,0
420,148,0,0,0,0,0,0,0,0,0,-1,1644,876,0,0
427,148,0,0,0,0,0,0,0,0,0,-1,1651,876,0,0
434,148,0,0,0,0,0,0,0,0,0,-1,1658,876,0,0
441,148,0,0,0,0,0,0,0,0,0,-1,1665,876,0,0
448,148,0,0,0,0,0,0,0,0,0,-1,1672,876,0,0
455,148,0,0,0,0,0,0,0,0,0,-1,1679,876,0,0
462,148,0,0,0,0,0,0,0,0,0,-1,1686,876,0,0
469,148,0,0,0,0,0,0,0,0,0,-1,1693,876,0,0
476,148,0,0,0,0,0,0,0,0,0,-1,1700,876,0,0
483,148,0,0,0,0,0,0,0,0,0,-1,1707,876,0,0
490,148,0,0,0,0,0,0,0,0,0,-1,1714,876,0,0
497,148,0,0,0,0,0,0,0,0,0,-1,1721,876,0,0
504,148,0,0,0,0,0,0,0,0,0,-1,1728,876,0,0
511,148,0,0,0,0,0,0,0,0,0,-1,1735,876,0,0
518,148,0,0,0,0,0,0,0,0,0,-1,1742,876,0,0
525,148,0,0,0,0,0,0,0,0,0,-1,1749,876,0,0
532,148,0,0,0,0,0,0,0,0,0,-1,1756,876,0,0
539,148,0,0,0,0,0,0,0,0,0,-1,1763,876,0,0
546,148,0,0,0,0,0,0,0,0,0,-1,1770,876,0,0
553,148,0,0,0,0,0,0,0,0,0,-1,1777,876,0,0
560,148,0,0,0,0,0,0,0,0,0,-1,1784,876,0,0
567,148,0,0,0,0,0,0,0,0,0,-1,1791,876,0,0
574,148,0,0,0,0,0,0,0,0,0,-1,1798,876,0,0
581,148,0,0,0,0,0,0,0,0,0,-1,1805,876,0,0
588,148,0,0,0,0,0,0,0,0,0,-1,1812,876,0,0
595,148,0,0,0,0,0,0,0,0,0,-1,1819,876,0,0
602,148,0,0,0,0,0,0,0,0,0,-1,1826,876,0,0
609,148,0,0,0,0,0,0,0,0,0,-1,1833,876,0,0
616,148,0,0,0,0,0,0,0,0,0,-1,1840,876,0,0
623,148,60.5188,2.62335,0.00109005,-0.0019079,-0.000376414,0.00113659,-0.00195444,-0.123013,0.00180531,0.0410773,1847,876,60.5189,-2.62336
630,148,60.4474,3.09082,0.000717771,-0.00160659,-0.000160992,0.000728869,-0.00161768,-0.0688249,0.0013868,0.0427762,1854,876,60.4474,-3.09082
637,148,60.2729,3.00983,0.000370292,-0.000994539,5.0091e-06,0.00037031,-0.000994558,0.00367005,0.000815017,0.039487,1861,876,60.2729,-3.00983
644,148,60.322,2.72217,-9.63806e-05,-0.000542538,-8.25142e-06,-9.62281e-05,-0.00054269,-0.018486,0.000334365,0.0373463,1868,876,60.322,-2.72219
651,148,60.3794,2.49005,-0.000675056,-0.000339209,-0.000251581,-0.000204657,-0.000809608,-1.07968,0.000486099,0.0390328,1875,876,60.3794,-2.49005
658,148,60.3446,2.57007,-0.00111574,-0.00059191,-0.000727164,-8.09308e-05,-0.00162672,-0.958259,0.00105854,0.0347637,1882,876,60.3446,-2.57007
665,148,60.3031,2.69965,-0.00147595,-0.000443867,-0.000895674,7.3788e-05,-0.00199361,-1.04675,0.00135434,0.0253823,1889,876,60.3031,-2.69963
672,148,60.3679,2.62683,-0.00168095,-0.00050027,-0.00105402,0.000117474,-0.00229869,-1.04067,0.00157308,0.0382401,1896,876,60.3679,-2.6268
679,148,59.9813,2.99585,0,0,0,0,0,0,0,-1,1903,876,59.9813,-2.99584
686,148,21.6195,2.40845,0,0,0,0,0,0,0,-1,1910,876,21.6196,-2.40846
693,148,48.1387,1.97351,0,0,0,0,0,0,0,-1,1917,876,48.1387,-1.97351
700,148,51.8873,2.49298,0,0,0,0,0,0,0,-1,1924,876,51.8873,-2.49297
707,148,51.6193,3.27734,-0.00120561,-4.03015e-05,-0.0014912,0.000978037,-0.00222395,-0.971641,0.00189474,0.0367257,1931,876,51.6193,-3.27732
714,148,51.476,3.73584,-0.000807061,0.000282464,-0.00145907,0.00129515,-0.00181974,-0.964066,0.00180686,0.0362649,1938,876,51.476,-3.73583
721,148,51.1545,4.29102,-0.000425418,0.000970859,-0.00137377,0.00181371,-0.00126827,-1.02049,0.00178864,0.0272269,1945,876,51.1545,-4.29104
728,148,51.1509,4.89282,3.16503e-05,0.00195651,-0.00103186,0.00240511,-0.000416953,-1.1607,0.00175894,0.020885,1952,876,51.1509,-4.89282
735,148,51.1434,5.54663,0.00145143,0.00370289,0.000332019,0.00375083,0.00140349,1.42739,0.00218828,0.0190857,1959,876,51.1435,-5.54662
742,148,51.0923,6.18597,0.00402004,0.00639913,0.00294645,0.0083871,0.00203208,0.977253,0.00505215,0.020052,1966,876,51.0922,-6.18596
749,148,50.9989,6.79047,0.00748898,0.00964924,0.00634604,0.0150064,0.00213181,0.869693,0.00937482,0.0202968,1973,876,50.9989,-6.79045
756,148,50.9387,7.45325,0.012436,0.0137095,0.0113127,0.0244033,0.00174216,0.813513,0.0157204,0.0256554,1980,876,50.9387,-7.45327
763,148,50.8643,8.15265,0.0202191,0.0187562,0.0187498,0.0382518,0.000723569,0.765902,0.0252634,0.0460402,1987,876,50.8643,-8.15266
770,148,50.7871,8.84399,0,0,0,0,0,0,0,-1,1994,876,50.7872,-8.84399
777,148,51.5088,9.58264,0,0,0,0,0,0,0,-1,2001,876,51.5087,-9.58261
784,148,52.2202,10.5543,0,0,0,0,0,0,0,-1,2008,876,52.2202,-10.5543
791,148,47.6521,12.6907,0,0,0,0,0,0,0,-1,2015,876,47.6521,-12.6908
798,148,0,0,0,0,0,0,0,0,0,-1,2022,876,0,0
805,148,0,0,0,0,0,0,0,0,0,-1,2029,876,0,0
812,148,0,0,0,0,0,0,0,0,0,-1,2036,876,0,0
-700,141,0,0,0,0,0,0,0,0,0,-1,524,883,0,0
-693,141,0,0,0,0,0,0,0,0,0,-1,531,883,0,0
-686,141,0,0,0,0,0,0,0,0,0,-1,538,883,0,0
-679,141,0,0,0,0,0,0,0,0,0,-1,545,883,0,0
-672,141,-51.007,-5.98566,0.168346,-0.0577509,0.0329367,0.173047,-0.0624512,0.141751,0.140874,0.0461545,552,883,-51.0071,5.98564
-665,141,-49.7018,-5.10529,0.151174,-0.0527834,0.0254282,0.154296,-0.0559058,0.122183,0.125714,0.0459845,559,883,-49.7018,5.1053
-658,141,-48.5284,-4.2605,0.131296,-0.0460339,0.0198068,0.133482,-0.0482193,0.10989,0.108687,0.0474517,566,883,-48.5285,4.2605
-651,141,-47.783,-3.39136,0.111289,-0.0388189,0.0153059,0.112833,-0.0403637,0.100587,0.0916879,0.0450146,573,883,-47.7829,3.39134
-644,141,-46.86,-2.52283,0,0,0,0,0,0,0,-1,580,883,-46.86,2.52281
-637,141,-38.8842,6.77856,0,0,0,0,0,0,0,-1,587,883,-38.8842,-6.77857
-630,141,-38.0327,5.89197,0,0,0,0,0,0,0,-1,594,883,-38.0327,-5.89198
-623,141,-38.2259,5.04761,0.0404706,-0.0124785,0.00512247,0.0409616,-0.0129695,0.0955626,0.0325051,0.0319963,601,883,-38.2259,-5.04759
-616,141,-38.4451,4.30994,0.0252717,-0.00762434,0.00359965,0.0256609,-0.00801363,0.107727,0.0203124,0.0145348,608,883,-38.4451,-4.30992
-609,141,-38.556,3.68744,0.0118974,-0.00334459,0.00311898,0.0125109,-0.00395813,0.194232,0.00992663,0.0145396,615,883,-38.556,-3.68746
-602,141,-38.6023,3.0766,0.00244723,-0.00118385,0.00339533,0.00448195,-0.00321857,0.539881,0.00446579,0.0149508,622,883,-38.6023,-3.07661
-595,141,-38.5741,2.44788,-0.00225333,-0.000455855,0.00369437,0.00244753,-0.00515672,0.904717,0.00448223,0.0164778,629,883,-38.5741,-2.44786
-588,141,-38.9497,1.81464,-0.00348224,-0.000434911,0.00355199,0.00190642,-0.00582357,0.988009,0.00465,0.0331628,636,883,-38.9497,-1.81463
-581,141,-38.8715,1.25702,-0.00378694,-0.000246925,0.00337089,0.00179041,-0.00582428,1.02716,0.00459737,0.0449819,643,883,-38.8715,-1.257
-574,141,-38.4767,0.798584,0,0,0,0,0,0,0,-1,650,883,-38.4768,-0.798609
-567,141,-30.5335,0.480103,0,0,0,0,0,0,0,-1,657,883,-30.5335,-0.480081
-560,141,-30.5542,0.23175,0,0,0,0,0,0,0,-1,664,883,-30.5542,-0.231742
-553,141,-32.0876,1.39459,0,0,0,0,0,0,0,-1,671,883,-32.0876,-1.3946
-546,141,-45.8682,0.750916,0,0,0,0,0,0,0,-1,678,883,-45.8682,-0.750923
-539,141,-45.8841,0.707825,-0.00354351,0.00148055,0.00289003,0.00279769,-0.00486066,1.14317,0.00447471,0.028559,685,883,-45.8841,-0.707843
-532,141,-45.9093,0.733215,-0.00259203,0.00233719,0.00259178,0.00344911,-0.00370396,1.16552,0.0041307,0.0294442,692,883,-45.9093,-0.733219
-525,141,-45.9061,0.803223,-0.00177111,0.00304888,0.0026091,0.00419071,-0.00291294,1.15827,0.00412335,0.0392086,699,883,-45.9061,-0.80324
-518,141,-45.8609,0.896362,-0.00179564,0.00428746,0.00344282,0.00583983,-0.00334801,1.1472,0.00536923,0.0431944,706,883,-45.8609,-0.896334
-511,141,-45.8603,0.814209,-0.00192668,0.00579627,0.00443313,0.00781388,-0.00394429,1.14369,0.00691004,0.0405765,713,883,-45.8603,-0.814234
-504,141,-45.7896,0.874573,-0.00202978,0.00750545,0.00530312,0.00986897,-0.00439331,1.15154,0.0084342,0.0412626,720,883,-45.7895,-0.874585
-497,141,0,0,0,0,0,0,0,0,0,-1,727,883,0,0
-490,141,0,0,0,0,0,0,0,0,0,-1,734,883,0,0
-483,141,0,0,0,0,0,0,0,0,0,-1,741,883,0,0
-476,141,0,0,0,0,0,0,0,0,0,-1,748,883,0,0
-469,141,0,0,0,0,0,0,0,0,0,-1,755,883,0,0
-462,141,0,0,0,0,0,0,0,0,0,-1,762,883,0,0
-455,141,0,0,0,0,0,0,0,0,0,-1,769,883,0,0
-448,141,0,0,0,0,0,0,0,0,0,-1,776,883,0,0
-441,141,0,0,0,0,0,0,0,0,0,-1,783,883,0,0
-434,141,0,0,0,0,0,0,0,0,0,-1,790,883,0,0
-427,141,0,0,0,0,0,0,0,0,0,-1,797,883,0,0
-420,141,0,0,0,0,0,0,0,0,0,-1,804,883,0,0
-413,141,0,0,0,0,0,0,0,0,0,-1,811,883,0,0
-406,141,0,0,0,0,0,0,0,0,0,-1,818,883,0,0
-399,141,0,0,0,0,0,0,0,0,0,-1,825,883,0,0
-392,141,0,0,0,0,0,0,0,0,0,-1,832,883,0,0
-385,141,0,0,0,0,0,0,0,0,0,-1,839,883,0,0
-378,141,0,0,0,0,0,0,0,0,0,-1,846,883,0,0
-371,141,0,0,0,0,0,0,0,0,0,-1,853,883,0,0
-364,141,0,0,0,0,0,0,0,0,0,-1,860,883,0,0
-357,141,0,0,0,0,0,0,0,0,0,-1,867,883,0,0
-350,141,0,0,0,0,0,0,0,0,0,-1,874,883,0,0
-343,141,0,0,0,0,0,0,0,0,0,-1,881,883,0,0
-336,141,0,0,0,0,0,0,0,0,0,-1,888,883,0,0
-329,141,0,0,0,0,0,0,0,0,0,-1,895,883,0,0
-322,141,0,0,0,0,0,0,0,0,0,-1,902,883,0,0
-315,141,0,0,0,0,0,0,0,0,0,-1,909,883,0,0
-308,141,0,0,0,0,0,0,0,0,0,-1,916,883,0,0
-301,141,0,0,0,0,0,0,0,0,0,-1,923,883,0,0
-294,141,0,0,0,0,0,0,0,0,0,-1,930,883,0,0
-287,141,0,0,0,0,0,0,0,0,0,-1,937,883,0,0
-280,141,0,0,0,0,0,0,0,0,0,-1,944,883,0,0
-273,141,0,0,0,0,0,0,0,0,0,-1,951,883,0,0
-266,141,0,0,0,0,0,0,0,0,0,-1,958,883,0,0
-259,141,0,0,0,0,0,0,0,0,0,-1,965,883,0,0
-252,141,0,0,0,0,0,0,0,0,0,-1,972,883,0,0
-245,141,0,0,0,0,0,0,0,0,0,-1,979,883,0,0
-238,141,0,0,0,0,0,0,0,0,0,-1,986,883,0,0
-231,141,0,0,0,0,0,0,0,0,0,-1,993,883,0,0
-224,141,0,0,0,0,0,0,0,0,0,-1,1000,883,0,0
-217,141,0,0,0,0,0,0,0,0,0,-1,1007,883,0,0
-210,141,0,0,0,0,0,0,0,0,0,-1,1014,883,0,0
-203,141,0,0,0,0,0,0,0,0,0,-1,1021,883,0,0
-196,141,0,0,0,0,0,0,0,0,0,-1,1028,883,0,0
-189,141,0,0,0,0,0,0,0,0,0,-1,1035,883,0,0
-182,141,0,0,0,0,0,0,0,0,0,-1,1042,883,0,0
-175,141,0,0,0,0,0,0,0,0,0,-1,1049,883,0,0
-168,141,0,0,0,0,0,0,0,0,0,-1,1056,883,0,0
-161,141,0,0,0,0,0,0,0,0,0,-1,1063,883,0,0
-154,141,0,0,0,0,0,0,0,0,0,-1,1070,883,0,0
-147,141,0,0,0,0,0,0,0,0,0,-1,1077,883,0,0
-140,141,0,0,0,0,0,0,0,0,0,-1,1084,883,0,0
-133,141,0,0,0,0,0,0,0,0,0,-1,1091,883,0,0
-126,141,0,0,0,0,0,0,0,0,0,-1,1098,883,0,0
-119,141,0,0,0,0,0,0,0,0,0,-1,1105,883,0,0
-112,141,0,0,0,0,0,0,0,0,0,-1,1112,883,0,0
-105,141,0,0,0,0,0,0,0,0,0,-1,1119,883,0,0
-98,141,0,0,0,0,0,0,0,0,0,-1,1126,883,0,0
-91,141,0,0,0,0,0,0,0,0,0,-1,1133,883,0,0
-84,141,0,0,0,0,0,0,0,0,0,-1,1140,883,0,0
-77,141,0,0,0,0,0,0,0,0,0,-1,1147,883,0,0
-70,141,0,0,0,0,0,0,0,0,0,-1,1154,883,0,0
-63,141,0,0,0,0,0,0,0,0,0,-1,1161,883,0,0
-56,141,0,0,0,0,0,0,0,0,0,-1,1168,883,0,0
-49,141,0,0,0,0,0,0,0,0,0,-1,1175,883,0,0
-42,141,0,0,0,0,0,0,0,0,0,-1,1182,883,0,0
-35,141,0,0,0,0,0,0,0,0,0,-1,1189,883,0,0
-28,141,0,0,0,0,0,0,0,0,0,-1,1196,883,0,0
-21,141,0,0,0,0,0,0,0,0,0,-1,1203,883,0,0
-14,141,0,0,0,0,0,0,0,0,0,-1,1210,883,0,0
-7,141,0,0,0,0,0,0,0,0,0,-1,1217,883,0,0
0,141,0,0,0,0,0,0,0,0,0,-1,1224,883,0,0
7,141,0,0,0,0,0,0,0,0,0,-1,1231,883,0,0
14,141,0,0,0,0,0,0,0,0,0,-1,1238,883,0,0
21,141,0,0,0,0,0,0,0,0,0,-1,1245,883,0,0
28,141,0,0,0,0,0,0,0,0,0,-1,1252,883,0,0
35,141,0,0,0,0,0,0,0,0,0,-1,1259,883,0,0
42,141,0,0,0,0,0,0,0,0,0,-1,1266,883,0,0
49,141,0,0,0,0,0,0,0,0,0,-1,1273,883,0,0
56,141,0,0,0,0,0,0,0,0,0,-1,1280,883,0,0
63,141,0,0,0,0,0,0,0,0,0,-1,1287,883,0,0
70,141,0,0,0,0,0,0,0,0,0,-1,1294,883,0,0
77,141,0,0,0,0,0,0,0,0,0,-1,1301,883,0,0
84,141,0,0,0,0,0,0,0,0,0,-1,1308,883,0,0
91,141,0,0,0,0,0,0,0,0,0,-1,1315,883,0,0
98,141,0,0,0,0,0,0,0,0,0,-1,1322,883,0,0
105,141,0,0,0,0,0,0,0,0,0,-1,1329,883,0,0
112,141,0,0,0,0,0,0,0,0,0,-1,1336,883,0,0
119,141,0,0,0,0,0,0,0,0,0,-1,1343,883,0,0
126,141,0,0,0,0,0,0,0,0,0,-1,1350,883,0,0
133,141,0,0,0,0,0,0,0,0,0,-1,1357,883,0,0
140,141,0,0,0,0,0,0,0,0,0,-1,1364,883,0,0
147,141,0,0,0,0,0,0,0,0,0,-1,1371,883,0,0
154,141,0,0,0,0,0,0,0,0,0,-1,1378,883,0,0
161,141,0,0,0,0,0,0,0,0,0,-1,1385,883,0,0
168,141,0,0,0,0,0,0,0,0,0,-1,1392,883,0,0
175,141,0,0,0,0,0,0,0,0,0,-1,1399,883,0,0
182,141,0,0,0,0,0,0,0,0,0,-1,1406,883,0,0
189,141,0,0,0,0,0,0,0,0,0,-1,1413,883,0,0
196,141,0,0,0,0,0,0,0,0,0,-1,1420,883,0,0
203,141,0,0,0,0,0,0,0,0,0,-1,1427,883,0,0
210,141,0,0,0,0,0,0,0,0,0,-1,1434,883,0,0
217,141,0,0,0,0,0,0,0,0,0,-1,1441,883,0,0
224,141,0,0,0,0,0,0,0,0,0,-1,1448,883,0,0
231,141,0,0,0,0,0,0,0,0,0,-1,1455,883,0,0
238,141,0,0,0,0,0,0,0,0,0,-1,1462,883,0,0
245,141,0,0,0,0,0,0,0,0,0,-1,1469,883,0,0
252,141,0,0,0,0,0,0,0,0,0,-1,1476,883,0,0
259,141,0,0,0,0,0,0,0,0,0,-1,1483,883,0,0
266,141,0,0,0,0,0,0,0,0,0,-1,1490,883,0,0
273,141,0,0,0,0,0,0,0,0,0,-1,1497,883,0,0
280,141,0,0,0,0,0,0,0,0,0,-1,1504,883,0,0
287,141,0,0,0,0,0,0,0,0,0,-1,1511,883,0,0
294,141,0,0,0,0,0,0,0,0,0,-1,1518,883,0,0
301,141,0,0,0,0,0,0,0,0,0,-1,1525,883,0,0
308,141,0,0,0,0,0,0,0,0,0,-1,1532,883,0,0
315,141,0,0,0,0,0,0,0,0,0,-1,1539,883,0,0
322,141,0,0,0,0,0,0,0,0,0,-1,1546,883,0,0
329,141,0,0,0,0,0,0,0,0,0,-1,1553,883,0,0
336,141,0,0,0,0,0,0,0,0,0,-1,1560,883,0,0
343,141,0,0,0,0,0,0,0,0,0,-1,1567,883,0,0
350,141,0,0,0,0,0,0,0,0,0,-1,1574,883,0,0
357,141,0,0,0,0,0,0,0,0,0,-1,1581,883,0,0
364,141,0,0,0,0,0,0,0,0,0,-1,1588,883,0,0
371,141,0,0,0,0,0,0,0,0,0,-1,1595,883,0,0
378,141,0,0,0,0,0,0,0,0,0,-1,1602,883,0,0
385,141,0,0,0,0,0,0,0,0,0,-1,1609,883,0,0
392,141,0,0,0,0,0,0,0,0,0,-1,1616,883,0,0
399,141,0,0,0,0,0,0,0,0,0,-1,1623,883,0,0
406,141,0,0,0,0,0,0,0,0,0,-1,1630,883,0,0
413,141,0,0,0,0,0,0,0,0,0,-1,1637,883,0,0
420,141,0,0,0,0,0,0,0,0,0,-1,1644,883,0,0
427,141,0,0,0,0,0,0,0,0,0,-1,1651,883,0,0
434,141,0,0,0,0,0,0,0,0,0,-1,1658,883,0,0
441,141,0,0,0,0,0,0,0,0,0,-1,1665,883,0,0
448,141,0,0,0,0,0,0,0,0,0,-1,1672,883,0,0
455,141,0,0,0,0,0,0,0,0,0,-1,1679,883,0,0
462,141,0,0,0,0,0,0,0,0,0,-1,1686,883,0,0
469,141,0,0,0,0,0,0,0,0,0,-1,1693,883,0,0
476,141,0,0,0,0,0,0,0,0,0,-1,1700,883,0,0
483,141,0,0,0,0,0,0,0,0,0,-1,1707,883,0,0
490,141,0,0,0,0,0,0,0,0,0,-1,1714,883,0,0
497,141,0,0,0,0,0,0,0,0,0,-1,1721,883,0,0
504,141,0,0,0,0,0,0,0,0,0,-1,1728,883,0,0
511,141,0,0,0,0,0,0,0,0,0,-1,1735,883,0,0
518,141,0,0,0,0,0,0,0,0,0,-1,1742,883,0,0
525,141,0,0,0,0,0,0,0,0,0,-1,1749,883,0,0
532,141,0,0,0,0,0,0,0,0,0,-1,1756,883,0,0
539,141,0,0,0,0,0,0,0,0,0,-1,1763,883,0,0
546,141,0,0,0,0,0,0,0,0,0,-1,1770,883,0,0
553,141,0,0,0,0,0,0,0,0,0,-1,1777,883,0,0
560,141,0,0,0,0,0,0,0,0,0,-1,1784,883,0,0
567,141,0,0,0,0,0,0,0,0,0,-1,1791,883,0,0
574,141,0,0,0,0,0,0,0,0,0,-1,1798,883,0,0
581,141,0,0,0,0,0,0,0,0,0,-1,1805,883,0,0
588,141,0,0,0,0,0,0,0,0,0,-1,1812,883,0,0
595,141,0,0,0,0,0,0,0,0,0,-1,1819,883,0,0
602,141,0,0,0,0,0,0,0,0,0,-1,1826,883,0,0
609,141,0,0,0,0,0,0,0,0,0,-1,1833,883,0,0
616,141,0,0,0,0,0,0,0,0,0,-1,1840,883,0,0
623,141,60.2976,2.58575,-0.000212395,-0.00114215,-0.000194501,-0.000173346,-0.0011812,-0.19813,0.000736514,0.0436821,1847,883,60.2976,-2.58573
630,141,60.2775,2.88263,-8.8554e-05,-0.00100722,-0.000182445,-5.36473e-05,-0.00104213,-0.189043,0.000677578,0.0473652,1854,883,60.2775,-2.8826
637,141,60.2831,2.94818,-5.23843e-05,-0.000531085,-0.000156602,-5.70502e-06,-0.000577764,-0.28969,0.000383288,0.0448118,1861,883,60.283,-2.94818
644,141,60.2758,2.77014,-0.000196692,-0.000115649,-0.000182932,3.11953e-05,-0.000343537,-0.894394,0.000240099,0.0398561,1868,883,60.2757,-2.77017
651,141,60.3994,2.68976,-0.00055865,0.000146839,-0.000332052,0.00027854,-0.000690351,-1.1932,0.000575986,0.0387677,1875,883,60.3995,-2.68974
658,141,60.4012,2.68762,-0.000868633,-8.00385e-06,-0.000665149,0.00035389,-0.00123053,-1.07251,0.000960302,0.037195,1882,883,60.4012,-2.68761
665,141,60.2903,2.6828,-0.00112985,0.000173556,-0.000759339,0.000522509,-0.0014788,-1.14003,0.00119862,0.0287546,1889,883,60.2903,-2.6828
672,141,60.3032,2.70227,-0.00126822,8.38527e-05,-0.000890701,0.000526018,-0.00171038,-1.11001,0.00135019,0.0260966,1896,883,60.3032,-2.70228
679,141,60.1934,2.79395,-0.00123888,0.000147457,-0.001151,0.000797901,-0.00188932,-1.05643,0.00159355,0.0467214,1903,883,60.1933,-2.79394
686,141,60.0824,2.87775,0,0,0,0,0,0,0,-1,1910,883,60.0824,-2.87776
693,141,51.7202,1.76593,0,0,0,0,0,0,0,-1,1917,883,51.7202,-1.76595
700,141,51.7233,2.5777,0,0,0,0,0,0,0,-1,1924,883,51.7232,-2.57769
707,141,52.1978,3.20868,0,0,0,0,0,0,0,-1,1931,883,52.1977,-3.20865
714,141,51.7878,3.73999,-0.000768364,0.000626968,-0.00123907,0.00135128,-0.00149268,-1.0418,0.00164264,0.0344844,1938,883,51.7878,-3.74
721,141,51.7484,4.29187,-0.000577211,0.00117785,-0.001306,0.00187376,-0.00127311,-1.08121,0.00182785,0.0191256,1945,883,51.7485,-4.29187
728,141,51.8287,4.86481,-0.00042282,0.0019467,-0.00115517,0.00241665,-0.00089277,-1.18442,0.00197706,0.0167291,1952,883,51.8287,-4.86483
735,141,51.7993,5.57599,0.000675763,0.00345633,0.000129048,0.00346231,0.000669787,1.52452,0.0021205,0.0183641,1959,883,51.7994,-5.57597
742,141,51.7339,6.20752,0.00299903,0.00610159,0.00280551,0.00775614,0.00134447,1.03795,0.00478597,0.0186027,1966,883,51.7339,-6.2075
749,141,51.7096,6.78522,0.00638208,0.00932692,0.00647886,0.0144986,0.00121044,0.897133,0.00928856,0.0148538,1973,883,51.7096,-6.78524
756,141,51.6865,7.43134,0.0113314,0.0132393,0.0118584,0.0241821,0.000388619,0.825536,0.0159934,0.0212407,1980,883,51.6866,-7.43131
763,141,51.6338,8.03851,0.0190158,0.017993,0.019695,0.038206,-0.00119724,0.772418,0.025879,0.0439006,1987,883,51.6338,-8.0385
770,141,51.5583,8.63922,0,0,0,0,0,0,0,-1,1994,883,51.5584,-8.63925
777,141,52.7971,9.52435,0,0,0,0,0,0,0,-1,2001,883,52.797,-9.52434
784,141,47.7581,12.4807,0,0,0,0,0,0,0,-1,2008,883,47.7581,-12.4807
791,141,42.5815,7.74707,0,0,0,0,0,0,0,-1,2015,883,42.5815,-7.74706
798,141,0,0,0,0,0,0,0,0,0,-1,2022,883,0,0
805,141,0,0,0,0,0,0,0,0,0,-1,2029,883,0,0
812,141,0,0,0,0,0,0,0,0,0,-1,2036,883,0,0
-700,134,0,0,0,0,0,0,0,0,0,-1,524,890,0,0
-693,134,0,0,0,0,0,0,0,0,0,-1,531,890,0,0
-686,134,0,0,0,0,0,0,0,0,0,-1,538,890,0,0
-679,134,0,0,0,0,0,0,0,0,0,-1,545,890,0,0
-672,134,-50.5515,-5.10278,0,0,0,0,0,0,0,-1,552,890,-50.5515,5.10275
-665,134,-49.6353,-4.63837,0.131141,-0.0549562,0.0207228,0.133421,-0.0572358,0.109566,0.112967,0.049065,559,890,-49.6354,4.63839
-658,134,-48.6147,-4.05792,0.113174,-0.0470428,0.0167456,0.114906,-0.0487743,0.103035,0.0970378,0.0467875,566,890,-48.6147,4.05791
-651,134,-47.5334,-3.22351,0.0952434,-0.0390041,0.0133863,0.0965651,-0.0403258,0.0984221,0.0812269,0.04289,573,890,-47.5335,3.2235
-644,134,-46.2668,-2.43176,0,0,0,0,0,0,0,-1,580,890,-46.2668,2.43174
-637,134,-44.0023,1.39087,0,0,0,0,0,0,0,-1,587,890,-44.0023,-1.39087
-630,134,-38.7174,5.48767,0,0,0,0,0,0,0,-1,594,890,-38.7174,-5.48769
-623,134,-38.8793,4.92017,0.032728,-0.0110794,0.00546405,0.0333993,-0.0117506,0.122234,0.0270477,0.0297463,601,890,-38.8794,-4.92015
-616,134,-39.1042,4.29358,0.0193754,-0.00629085,0.00404351,0.0199973,-0.0069128,0.152619,0.0161372,0.0135356,608,890,-39.1042,-4.2936
-609,134,-39.2052,3.69806,0.0080023,-0.00236746,0.00350135,0.00907381,-0.00343897,0.296978,0.00746444,0.0125589,615,890,-39.2052,-3.69809
-602,134,-39.2133,3.09167,0.000742011,-0.000822594,0.00356755,0.00361203,-0.00369261,0.677465,0.00421742,0.0135492,622,890,-39.2132,-3.09169
-595,134,-39.1245,2.53473,-0.0023842,-0.000558272,0.00361465,0.00225693,-0.0051994,0.909098,0.00441523,0.0256344,629,890,-39.1245,-2.53473
-588,134,-39.6187,1.98376,-0.00323297,-0.000663554,0.00337859,0.00166634,-0.00556287,0.967081,0.00437121,0.0414508,636,890,-39.6187,-1.98378
-581,134,-39.7119,1.40271,0,0,0,0,0,0,0,-1,643,890,-39.7119,-1.4027
-574,134,-31.1517,0.757751,0,0,0,0,0,0,0,-1,650,890,-31.1517,-0.757758
-567,134,-30.9003,0.296326,0,0,0,0,0,0,0,-1,657,890,-30.9002,-0.296302
-560,134,-22.9123,0.106567,0,0,0,0,0,0,0,-1,664,890,-22.9123,-0.106594
-553,134,-45.7263,0.864258,0,0,0,0,0,0,0,-1,671,890,-45.7263,-0.864287
-546,134,-45.816,0.783997,-0.00395863,0.000412764,0.00265075,0.00166273,-0.00520859,1.13017,0.00413949,0.0351171,678,890,-45.816,-0.784003
-539,134,-45.8698,0.727966,-0.00372869,0.0008886,0.00251519,0.00199405,-0.00483413,1.1567,0.00405433,0.0190767,685,890,-45.8698,-0.727973
-532,134,-45.8779,0.784546,-0.00284713,0.00173278,0.00222822,0.00263796,-0.0037523,1.18493,0.00370807,0.0244482,692,890,-45.8779,-0.784529
-525,134,-45.8688,0.772339,-0.00219659,0.00241809,0.00242399,0.00345733,-0.00323582,1.16577,0.003865,0.0359947,699,890,-45.8688,-0.772363
-518,134,-45.7867,0.720703,-0.00223862,0.00364589,0.00348074,0.00526131,-0.00385405,1.13628,0.00528362,0.0402486,706,890,-45.7867,-0.720724
-511,134,-45.9295,0.688965,0,0,0,0,0,0,0,-1,713,890,-45.9295,-0.688953
-504,134,0,0,0,0,0,0,0,0,0,-1,720,890,0,0
-497,134,0,0,0,0,0,0,0,0,0,-1,727,890,0,0
-490,134,0,0,0,0,0,0,0,0,0,-1,734,890,0,0
-483,134,0,0,0,0,0,0,0,0,0,-1,741,890,0,0
-476,134,0,0,0,0,0,0,0,0,0,-1,748,890,0,0
-469,134,0,0,0,0,0,0,0,0,0,-1,755,890,0,0
-462,134,0,0,0,0,0,0,0,0,0,-1,762,890,0,0
-455,134,0,0,0,0,0,0,0,0,0,-1,769,890,0,0
-448,134,0,0,0,0,0,0,0,0,0,-1,776,890,0,0
-441,134,0,0,0,0,0,0,0,0,0,-1,783,890,0,0
-434,134,0,0,0,0,0,0,0,0,0,-1,790,890,0,0
-427,134,0,0,0,0,0,0,0,0,0,-1,797,890,0,0
-420,134,0,0,0,0,0,0,0,0,0,-1,804,890,0,0
-413,134,0,0,0,0,0,0,0,0,0,-1,811,890,0,0
-406,134,0,0,0,0,0,0,0,0,0,-1,818,890,0,0
-399,134,0,0,0,0,0,0,0,0,0,-1,825,890,0,0
-392,134,0,0,0,0,0,0,0,0,0,-1,832,890,0,0
-385,134,0,0,0,0,0,0,0,0,0,-1,839,890,0,0
-378,134,0,0,0,0,0,0,0,0,0,-1,846,890,0,0
-371,134,0,0,0,0,0,0,0,0,0,-1,853,890,0,0
-364,134,0,0,0,0,0,0,0,0,0,-1,860,890,0,0
-357,134,0,0,0,0,0,0,0,0,0,-1,867,890,0,0
-350,134,0,0,0,0,0,0,0,0,0,-1,874,890,0,0
-343,134,0,0,0,0,0,0,0,0,0,-1,881,890,0,0
-336,134,0,0,0,0,0,0,0,0,0,-1,888,890,0,0
-329,134,0,0,0,0,0,0,0,0,0,-1,895,890,0,0
-322,134,0,0,0,0,0,0,0,0,0,-1,902,890,0,0
-315,134,0,0,0,0,0,0,0,0,0,-1,909,890,0,0
-308,134,0,0,0,0,0,0,0,0,0,-1,916,890,0,0
-301,134,0,0,0,0,0,0,0,0,0,-1,923,890,0,0
-294,134,0,0,0,0,0,0,0,0,0,-1,930,890,0,0
-287,134,0,0,0,0,0,0,0,0,0,-1,937,890,0,0
-280,134,0,0,0,0,0,0,0,0,0,-1,944,890,0,0
-273,134,0,0,0,0,0,0,0,0,0,-1,951,890,0,0
-266,134,0,0,0,0,0,0,0,0,0,-1,958,890,0,0
-259,134,0,0,0,0,0,0,0,0,0,-1,965,890,0,0
-252,134,0,0,0,0,0,0,0,0,0,-1,972,890,0,0
-245,134,0,0,0,0,0,0,0,0,0,-1,979,890,0,0
-238,134,0,0,0,0,0,0,0,0,0,-1,986,890,0,0
-231,134,0,0,0,0,0,0,0,0,0,-1,993,890,0,0
-224,134,0,0,0,0,0,0,0,0,0,-1,1000,890,0,0
-217,134,0,0,0,0,0,0,0,0,0,-1,1007,890,0,0
-210,134,0,0,0,0,0,0,0,0,0,-1,1014,890,0,0
-203,134,0,0,0,0,0,0,0,0,0,-1,1021,890,0,0
-196,134,0,0,0,0,0,0,0,0,0,-1,1028,890,0,0
-189,134,0,0,0,0,0,0,0,0,0,-1,1035,890,0,0
-182,134,0,0,0,0,0,0,0,0,0,-1,1042,890,0,0
-175,134,0,0,0,0,0,0,0,0,0,-1,1049,890,0,0
-168,134,0,0,0,0,0,0,0,0,0,-1,1056,890,0,0
-161,134,0,0,0,0,0,0,0,0,0,-1,1063,890,0,0
-154,134,0,0,0,0,0,0,0,0,0,-1,1070,890,0,0
-147,134,0,0,0,0,0,0,0,0,0,-1,1077,890,0,0
-140,134,0,0,0,0,0,0,0,0,0,-1,1084,890,0,0
-133,134,0,0,0,0,0,0,0,0,0,-1,1091,890,0,0
-126,134,0,0,0,0,0,0,0,0,0,-1,1098,890,0,0
-119,134,0,0,0,0,0,0,0,0,0,-1,1105,890,0,0
-112,134,0,0,0,0,0,0,0,0,0,-1,1112,890,0,0
-105,134,0,0,0,0,0,0,0,0,0,-1,1119,890,0,0
-98,134,0,0,0,0,0,0,0,0,0,-1,1126,890,0,0
-91,134,0,0,0,0,0,0,0,0,0,-1,1133,890,0,0
-84,134,0,0,0,0,0,0,0,0,0,-1,1140,890,0,0
-77,134,0,0,0,0,0,0,0,0,0,-1,1147,890,0,0
-70,134,0,0,0,0,0,0,0,0,0,-1,1154,890,0,0
-63,134,0,0,0,0,0,0,0,0,0,-1,1161,890,0,0
-56,134,0,0,0,0,0,0,0,0,0,-1,1168,890,0,0
-49,134,0,0,0,0,0,0,0,0,0,-1,1175,890,0,0
-42,134,0,0,0,0,0,0,0,0,0,-1,1182,890,0,0
-35,134,0,0,0,0,0,0,0,0,0,-1,1189,890,0,0
-28,134,0,0,0,0,0,0,0,0,0,-1,1196,890,0,0
-21,134,0,0,0,0,0,0,0,0,0,-1,1203,890,0,0
-14,134,0,0,0,0,0,0,0,0,0,-1,1210,890,0,0
-7,134,0,0,0,0,0,0,0,0,0,-1,1217,890,0,0
0,134,0,0,0,0,0,0,0,0,0,-1,1224,890,0,0
7,134,0,0,0,0,0,0,0,0,0,-1,1231,890,0,0
14,134,0,0,0,0,0,0,0,0,0,-1,1238,890,0,0
21,134,0,0,0,0,0,0,0,0,0,-1,1245,890,0,0
28,134,0,0,0,0,0,0,0,0,0,-1,1252,890,0,0
35,134,0,0,0,0,0,0,0,0,0,-1,1259,890,0,0
42,134,0,0,0,0,0,0,0,0,0,-1,1266,890,0,0
49,134,0,0,0,0,0,0,0,0,0,-1,1273,890,0,0
56,134,0,0,0,0,0,0,0,0,0,-1,1280,890,0,0
63,134,0,0,0,0,0,0,0,0,0,-1,1287,890,0,0
70,134,0,0,0,0,0,0,0,0,0,-1,1294,890,0,0
77,134,0,0,0,0,0,0,0,0,0,-1,1301,890,0,0
84,134,0,0,0,0,0,0,0,0,0,-1,1308,890,0,0
91,134,0,0,0,0,0,0,0,0,0,-1,1315,890,0,0
98,134,0,0,0,0,0,0,0,0,0,-1,1322,890,0,0
105,134,0,0,0,0,0,0,0,0,0,-1,1329,890,0,0
112,134,0,0,0,0,0,0,0,0,0,-1,1336,890,0,0
119,134,0,0,0,0,0,0,0,0,0,-1,1343,890,0,0
126,134,0,0,0,0,0,0,0,0,0,-1,1350,890,0,0
133,134,0,0,0,0,0,0,0,0,0,-1,1357,890,0,0
140,134,0,0,0,0,0,0,0,0,0,-1,1364,890,0,0
147,134,0,0,0,0,0,0,0,0,0,-1,1371,890,0,0
154,134,0,0,0,0,0,0,0,0,0,-1,1378,890,0,0
161,134,0,0,0,0,0,0,0,0,0,-1,1385,890,0,0
168,134,0,0,0,0,0,0,0,0,0,-1,1392,890,0,0
175,134,0,0,0,0,0,0,0,0,0,-1,1399,890,0,0
182,134,0,0,0,0,0,0,0,0,0,-1,1406,890,0,0
189,134,0,0,0,0,0,0,0,0,0,-1,1413,890,0,0
196,134,0,0,0,0,0,0,0,0,0,-1,1420,890,0,0
203,134,0,0,0,0,0,0,0,0,0,-1,1427,890,0,0
210,134,0,0,0,0,0,0,0,0,0,-1,1434,890,0,0
217,134,0,0,0,0,0,0,0,0,0,-1,1441,890,0,0
224,134,0,0,0,0,0,0,0,0,0,-1,1448,890,0,0
231,134,0,0,0,0,0,0,0,0,0,-1,1455,890,0,0
238,134,0,0,0,0,0,0,0,0,0,-1,1462,890,0,0
245,134,0,0,0,0,0,0,0,0,0,-1,1469,890,0,0
252,134,0,0,0,0,0,0,0,0,0,-1,1476,890,0,0
259,134,0,0,0,0,0,0,0,0,0,-1,1483,890,0,0
266,134,0,0,0,0,0,0,0,0,0,-1,1490,890,0,0
273,134,0,0,0,0,0,0,0,0,0,-1,1497,890,0,0
280,134,0,0,0,0,0,0,0,0,0,-1,1504,890,0,0
287,134,0,0,0,0,0,0,0,0,0,-1,1511,890,0,0
294,134,0,0,0,0,0,0,0,0,0,-1,1518,890,0,0
301,134,0,0,0,0,0,0,0,0,0,-1,1525,890,0,0
308,134,0,0,0,0,0,0,0,0,0,-1,1532,890,0,0
315,134,0,0,0,0,0,0,0,0,0,-1,1539,890,0,0
322,134,0,0,0,0,0,0,0,0,0,-1,1546,890,0,0
329,134,0,0,0,0,0,0,0,0,0,-1,1553,890,0,0
336,134,0,0,0,0,0,0,0,0,0,-1,1560,890,0,0
343,134,0,0,0,0,0,0,0,0,0,-1,1567,890,0,0
350,134,0,0,0,0,0,0,0,0,0,-1,1574,890,0,0
357,134,0,0,0,0,0,0,0,0,0,-1,1581,890,0,0
364,134,0,0,0,0,0,0,0,0,0,-1,1588,890,0,0
371,134,0,0,0,0,0,0,0,0,0,-1,1595,890,0,0
378,134,0,0,0,0,0,0,0,0,0,-1,1602,890,0,0
385,134,0,0,0,0,0,0,0,0,0,-1,1609,890,0,0
392,134,0,0,0,0,0,0,0,0,0,-1,1616,890,0,0
399,134,0,0,0,0,0,0,0,0,0,-1,1623,890,0,0
406,134,0,0,0,0,0,0,0,0,0,-1,1630,890,0,0
413,134,0,0,0,0,0,0,0,0,0,-1,1637,890,0,0
420,134,0,0,0,0,0,0,0,0,0,-1,1644,890,0,0
427,134,0,0,0,0,0,0,0,0,0,-1,1651,890,0,0
434,134,0,0,0,0,0,0,0,0,0,-1,1658,890,0,0
441,134,0,0,0,0,0,0,0,0,0,-1,1665,890,0,0
448,134,0,0,0,0,0,0,0,0,0,-1,1672,890,0,0
455,134,0,0,0,0,0,0,0,0,0,-1,1679,890,0,0
462,134,0,0,0,0,0,0,0,0,0,-1,1686,890,0,0
469,134,0,0,0,0,0,0,0,0,0,-1,1693,890,0,0
476,134,0,0,0,0,0,0,0,0,0,-1,1700,890,0,0
483,134,0,0,0,0,0,0,0,0,0,-1,1707,890,0,0
490,134,0,0,0,0,0,0,0,0,0,-1,1714,890,0,0
497,134,0,0,0,0,0,0,0,0,0,-1,1721,890,0,0
504,134,0,0,0,0,0,0,0,0,0,-1,1728,890,0,0
511,134,0,0,0,0,0,0,0,0,0,-1,1735,890,0,0
518,134,0,0,0,0,0,0,0,0,0,-1,1742,890,0,0
525,134,0,0,0,0,0,0,0,0,0,-1,1749,890,0,0
532,134,0,0,0,0,0,0,0,0,0,-1,1756,890,0,0
539,134,0,0,0,0,0,0,0,0,0,-1,1763,890,0,0
546,134,0,0,0,0,0,0,0,0,0,-1,1770,890,0,0
553,134,0,0,0,0,0,0,0,0,0,-1,1777,890,0,0
560,134,0,0,0,0,0,0,0,0,0,-1,1784,890,0,0
567,134,0,0,0,0,0,0,0,0,0,-1,1791,890,0,0
574,134,0,0,0,0,0,0,0,0,0,-1,1798,890,0,0
581,134,0,0,0,0,0,0,0,0,0,-1,1805,890,0,0
588,134,0,0,0,0,0,0,0,0,0,-1,1812,890,0,0
595,134,0,0,0,0,0,0,0,0,0,-1,1819,890,0,0
602,134,0,0,0,0,0,0,0,0,0,-1,1826,890,0,0
609,134,0,0,0,0,0,0,0,0,0,-1,1833,890,0,0
616,134,0,0,0,0,0,0,0,0,0,-1,1840,890,0,0
623,134,60.2983,2.91577,-0.00131092,-0.000651504,5.38013e-05,-0.000647143,-0.00131528,1.48992,0.000759409,0.0434579,1847,890,60.2983,-2.9158
630,134,60.0861,2.77484,-0.000743536,-0.000577721,-0.000164621,-0.000476309,-0.000844948,-1.01867,0.000489149,0.0496808,1854,890,60.0861,-2.77483
637,134,60.2823,2.81848,-0.000409532,-0.000154114,-0.000322903,6.54177e-05,-0.000629064,-0.97371,0.000442795,0.0463136,1861,890,60.2824,-2.8185
644,134,60.3248,2.73499,-0.000341357,0.000231264,-0.000378762,0.000419753,-0.000529846,-1.10904,0.000549478,0.0394787,1868,890,60.3248,-2.73502
651,134,60.4198,2.63306,-0.000529433,0.000516321,-0.000409514,0.000657599,-0.000670711,-1.23859,0.000766913,0.0407405,1875,890,60.4198,-2.63305
658,134,60.4453,2.58472,-0.000727908,0.000453035,-0.00054444,0.000665727,-0.0009406,-1.19837,0.000931928,0.0388781,1882,890,60.4453,-2.58473
665,134,60.3175,2.55774,-0.000881487,0.000648754,-0.00049922,0.000797214,-0.00102995,-1.28174,0.00105776,0.0335095,1889,890,60.3176,-2.55774
672,134,60.3696,2.60077,-0.000969011,0.000527383,-0.000538063,0.000700767,-0.00114239,-1.25907,0.00107428,0.0266162,1896,890,60.3696,-2.60078
679,134,60.3334,2.62549,-0.00092752,0.000510165,-0.000715655,0.000805668,-0.00122302,-1.17921,0.0011795,0.0265486,1903,890,60.3334,-2.62549
686,134,60.2942,2.65979,0,0,0,0,0,0,0,-1,1910,890,60.2941,-2.65982
693,134,34.5778,2.48096,0,0,0,0,0,0,0,-1,1917,890,34.5777,-2.48099
700,134,52.3143,2.19238,0,0,0,0,0,0,0,-1,1924,890,52.3143,-2.1924
707,134,52.2579,2.75262,-0.00102053,0.000590637,-0.000788788,0.000912508,-0.0013424,-1.18336,0.00130973,0.0284843,1931,890,52.2579,-2.75262
714,134,52.3125,3.50739,-0.000808865,0.000868947,-0.000876042,0.00124298,-0.00118289,-1.16727,0.00140072,0.0271955,1938,890,52.3126,-3.50736
721,134,52.4574,4.19501,-0.00074411,0.00133196,-0.00105165,0.00177159,-0.00118374,-1.17484,0.00171747,0.0237681,1945,890,52.4574,-4.19503
728,134,52.5204,4.82611,-0.000769575,0.00190643,-0.00106525,0.0022787,-0.00114184,-1.2346,0.00201088,0.020628,1952,890,52.5204,-4.8261
735,134,52.4579,5.56952,0.000118247,0.00314416,5.60937e-05,0.0031452,0.000117208,1.55227,0.00205885,0.0260669,1959,890,52.4579,-5.56954
742,134,52.4058,6.24567,0.00225171,0.0055976,0.00261473,0.00702877,0.000820532,1.06999,0.0044377,0.0176261,1966,890,52.4057,-6.24568
749,134,52.4087,6.8244,0.00558235,0.00868105,0.00638194,0.013699,0.000564382,0.90448,0.00895048,0.0130413,1973,890,52.4087,-6.82443
756,134,52.358,7.41187,0.0105771,0.0124303,0.0120099,0.0235493,-0.000541936,0.823897,0.0158833,0.0173684,1980,890,52.3581,-7.41188
763,134,52.2997,8.05963,0.0181459,0.016872,0.0199664,0.0374856,-0.00246762,0.769453,0.0258522,0.0388211,1987,890,52.2997,-8.05961
770,134,52.2397,8.70514,0,0,0,0,0,0,0,-1,1994,890,52.2397,-8.70513
777,134,43.6969,5.94574,0,0,0,0,0,0,0,-1,2001,890,43.697,-5.94577
784,134,42.3352,7.4964,0,0,0,0,0,0,0,-1,2008,890,42.3352,-7.49641
791,134,64.4153,11.6803,0,0,0,0,0,0,0,-1,2015,890,64.4153,-11.6803
798,134,0,0,0,0,0,0,0,0,0,-1,2022,890,0,0
805,134,0,0,0,0,0,0,0,0,0,-1,2029,890,0,0
812,134,0,0,0,0,0,0,0,0,0,-1,2036,890,0,0
-700,127,0,0,0,0,0,0,0,0,0,-1,524,897,0,0
-693,127,0,0,0,0,0,0,0,0,0,-1,531,897,0,0
-686,127,0,0,0,0,0,0,0,0,0,-1,538,897,0,0
-679,127,-40.9533,5.45935,0,0,0,0,0,0,0,-1,545,897,-40.9533,-5.45936
-672,127,-49.9603,-4.22498,0,0,0,0,0,0,0,-1,552,897,-49.9603,4.22495
-665,127,-49.3783,-3.8269,0,0,0,0,0,0,0,-1,559,897,-49.3783,3.82691
-658,127,-49.1199,-3.05005,0,0,0,0,0,0,0,-1,566,897,-49.1199,3.05002
-651,127,-47.3047,-3.04736,0,0,0,0,0,0,0,-1,573,897,-47.3047,3.04734
-644,127,-44.5754,2.17377,0,0,0,0,0,0,0,-1,580,897,-44.5754,-2.17376
-637,127,-44.7166,1.10236,0,0,0,0,0,0,0,-1,587,897,-44.7166,-1.10233
-630,127,-39.6564,5.21521,0,0,0,0,0,0,0,-1,594,897,-39.6563,-5.21518
-623,127,-39.6948,4.7702,0.0246555,-0.00908676,0.00485313,0.0253397,-0.00977091,0.140048,0.0209249,0.0188798,601,897,-39.6948,-4.77023
-616,127,-39.7609,4.27582,0.013327,-0.00459925,0.00385214,0.0141197,-0.00539197,0.202955,0.0116347,0.0106337,608,897,-39.7609,-4.27583
-609,127,-39.8357,3.70483,0.00416874,-0.00124683,0.00345547,0.00585098,-0.00292907,0.453061,0.00516188,0.014685,615,897,-39.8357,-3.70486
-602,127,-39.8352,3.13617,-0.000966856,-0.000344778,0.00338449,0.00274293,-0.00405457,0.83122,0.00394882,0.0167694,622,897,-39.8352,-3.1362
-595,127,-39.7815,2.61353,-0.0029869,-0.000404687,0.00322823,0.00178104,-0.00517263,0.975627,0.00417085,0.0315041,629,897,-39.7815,-2.61354
-588,127,-39.7594,2.35071,0,0,0,0,0,0,0,-1,636,897,-39.7594,-2.35069
-581,127,-39.1389,1.30847,0,0,0,0,0,0,0,-1,643,897,-39.1388,-1.30848
-574,127,-25.2603,0.511169,0,0,0,0,0,0,0,-1,650,897,-25.2603,-0.51117
-567,127,-24.5417,-0.0447388,0,0,0,0,0,0,0,-1,657,897,-24.5417,0.0447226
-560,127,-18.9678,1.21667,0,0,0,0,0,0,0,-1,664,897,-18.9677,-1.2167
-553,127,-45.7786,0.863708,0,0,0,0,0,0,0,-1,671,897,-45.7786,-0.863688
-546,127,-45.8028,0.799194,-0.00421913,0.000138077,0.00206771,0.000963091,-0.00504414,1.19115,0.00372552,0.024271,678,897,-45.8028,-0.799203
-539,127,-45.8198,0.751099,-0.00399041,0.000588718,0.00189653,0.00127219,-0.00467388,1.2249,0.00361538,0.0203934,685,897,-45.8198,-0.751114
-532,127,-45.8224,0.75415,-0.00313878,0.0013756,0.00171319,0.00195213,-0.0037153,1.24618,0.00332445,0.0172114,692,897,-45.8224,-0.754162
-525,127,-45.8813,0.82196,-0.00244006,0.00195614,0.00217088,0.00284743,-0.00333135,1.18121,0.00357097,0.0322502,699,897,-45.8813,-0.821938
-518,127,-45.8975,0.841309,-0.0023112,0.00300223,0.00334499,0.00461718,-0.00392614,1.12101,0.00493786,0.0382754,706,897,-45.8974,-0.841284
-511,127,-45.8885,0.824951,-0.0023216,0.00427103,0.00439279,0.00646674,-0.00451731,1.10727,0.00637485,0.0406452,713,897,-45.8886,-0.82497
-504,127,0,0,0,0,0,0,0,0,0,-1,720,897,0,0
-497,127,0,0,0,0,0,0,0,0,0,-1,727,897,0,0
-490,127,0,0,0,0,0,0,0,0,0,-1,734,897,0,0
-483,127,0,0,0,0,0,0,0,0,0,-1,741,897,0,0
-476,127,0,0,0,0,0,0,0,0,0,-1,748,897,0,0
-469,127,0,0,0,0,0,0,0,0,0,-1,755,897,0,0
-462,127,0,0,0,0,0,0,0,0,0,-1,762,897,0,0
-455,127,0,0,0,0,0,0,0,0,0,-1,769,897,0,0
-448,127,0,0,0,0,0,0,0,0,0,-1,776,897,0,0
-441,127,0,0,0,0,0,0,0,0,0,-1,783,897,0,0
-434,127,0,0,0,0,0,0,0,0,0,-1,790,897,0,0
-427,127,0,0,0,0,0,0,0,0,0,-1,797,897,0,0
-420,127,0,0,0,0,0,0,0,0,0,-1,804,897,0,0
-413,127,0,0,0,0,0,0,0,0,0,-1,811,897,0,0
-406,127,0,0,0,0,0,0,0,0,0,-1,818,897,0,0
-399,127,0,0,0,0,0,0,0,0,0,-1,825,897,0,0
-392,127,0,0,0,0,0,0,0,0,0,-1,832,897,0,0
-385,127,0,0,0,0,0,0,0,0,0,-1,839,897,0,0
-378,127,0,0,0,0,0,0,0,0,0,-1,846,897,0,0
-371,127,0,0,0,0,0,0,0,0,0,-1,853,897,0,0
-364,127,0,0,0,0,0,0,0,0,0,-1,860,897,0,0
-357,127,0,0,0,0,0,0,0,0,0,-1,867,897,0,0
-350,127,0,0,0,0,0,0,0,0,0,-1,874,897,0,0
-343,127,0,0,0,0,0,0,0,0,0,-1,881,897,0,0
-336,127,0,0,0,0,0,0,0,0,0,-1,888,897,0,0
-329,127,0,0,0,0,0,0,0,0,0,-1,895,897,0,0
-322,127,0,0,0,0,0,0,0,0,0,-1,902,897,0,0
-315,127,0,0,0,0,0,0,0,0,0,-1,909,897,0,0
-308,127,0,0,0,0,0,0,0,0,0,-1,916,897,0,0
-301,127,0,0,0,0,0,0,0,0,0,-1,923,897,0,0
-294,127,0,0,0,0,0,0,0,0,0,-1,930,897,0,0
-287,127,0,0,0,0,0,0,0,0,0,-1,937,897,0,0
-280,127,0,0,0,0,0,0,0,0,0,-1,944,897,0,0
-273,127,0,0,0,0,0,0,0,0,0,-1,951,897,0,0
-266,127,0,0,0,0,0,0,0,0,0,-1,958,897,0,0
-259,127,0,0,0,0,0,0,0,0,0,-1,965,897,0,0
-252,127,0,0,0,0,0,0,0,0,0,-1,972,897,0,0
-245,127,0,0,0,0,0,0,0,0,0,-1,979,897,0,0
-238,127,0,0,0,0,0,0,0,0,0,-1,986,897,0,0
-231,127,0,0,0,0,0,0,0,0,0,-1,993,897,0,0
-224,127,0,0,0,0,0,0,0,0,0,-1,1000,897,0,0
-217,127,0,0,0,0,0,0,0,0,0,-1,1007,897,0,0
-210,127,0,0,0,0,0,0,0,0,0,-1,1014,897,0,0
-203,127,0,0,0,0,0,0,0,0,0,-1,1021,897,0,0
-196,127,0,0,0,0,0,0,0,0,0,-1,1028,897,0,0
-189,127,0,0,0,0,0,0,0,0,0,-1,1035,897,0,0
-182,127,0,0,0,0,0,0,0,0,0,-1,1042,897,0,0
-175,127,0,0,0,0,0,0,0,0,0,-1,1049,897,0,0
-168,127,0,0,0,0,0,0,0,0,0,-1,1056,897,0,0
-161,127,0,0,0,0,0,0,0,0,0,-1,1063,897,0,0
-154,127,0,0,0,0,0,0,0,0,0,-1,1070,897,0,0
-147,127,0,0,0,0,0,0,0,0,0,-1,1077,897,0,0
-140,127,0,0,0,0,0,0,0,0,0,-1,1084,897,0,0
-133,127,0,0,0,0,0,0,0,0,0,-1,1091,897,0,0
-126,127,0,0,0,0,0,0,0,0,0,-1,1098,897,0,0
-119,127,0,0,0,0,0,0,0,0,0,-1,1105,897,0,0
-112,127,0,0,0,0,0,0,0,0,0,-1,1112,897,0,0
-105,127,0,0,0,0,0,0,0,0,0,-1,1119,897,0,0
-98,127,0,0,0,0,0,0,0,0,0,-1,1126,897,0,0
-91,127,0,0,0,0,0,0,0,0,0,-1,1133,897,0,0
-84,127,0,0,0,0,0,0,0,0,0,-1,1140,897,0,0
-77,127,0,0,0,0,0,0,0,0,0,-1,1147,897,0,0
-70,127,0,0,0,0,0,0,0,0,0,-1,1154,897,0,0
-63,127,0,0,0,0,0,0,0,0,0,-1,1161,897,0,0
-56,127,0,0,0,0,0,0,0,0,0,-1,1168,897,0,0
-49,127,0,0,0,0,0,0,0,0,0,-1,1175,897,0,0
-42,127,0,0,0,0,0,0,0,0,0,-1,1182,897,0,0
-35,127,0,0,0,0,0,0,0,0,0,-1,1189,897,0,0
-28,127,0,0,0,0,0,0,0,0,0,-1,1196,897,0,0
-21,127,0,0,0,0,0,0,0,0,0,-1,1203,897,0,0
-14,127,0,0,0,0,0,0,0,0,0,-1,1210,897,0,0
-7,127,0,0,0,0,0,0,0,0,0,-1,1217,897,0,0
0,127,0,0,0,0,0,0,0,0,0,-1,1224,897,0,0
7,127,0,0,0,0,0,0,0,0,0,-1,1231,897,0,0
14,127,0,0,0,0,0,0,0,0,0,-1,1238,897,0,0
21,127,0,0,0,0,0,0,0,0,0,-1,1245,897,0,0
28,127,0,0,0,0,0,0,0,0,0,-1,1252,897,0,0
35,127,0,0,0,0,0,0,0,0,0,-1,1259,897,0,0
42,127,0,0,0,0,0,0,0,0,0,-1,1266,897,0,0
49,127,0,0,0,0,0,0,0,0,0,-1,1273,897,0,0
56,127,0,0,0,0,0,0,0,0,0,-1,1280,897,0,0
63,127,0,0,0,0,0,0,0,0,0,-1,1287,897,0,0
70,127,0,0,0,0,0,0,0,0,0,-1,1294,897,0,0
77,127,0,0,0,0,0,0,0,0,0,-1,1301,897,0,0
84,127,0,0,0,0,0,0,0,0,0,-1,1308,897,0,0
91,127,0,0,0,0,0,0,0,0,0,-1,1315,897,0,0
98,127,0,0,0,0,0,0,0,0,0,-1,1322,897,0,0
105,127,0,0,0,0,0,0,0,0,0,-1,1329,897,0,0
112,127,0,0,0,0,0,0,0,0,0,-1,1336,897,0,0
119,127,0,0,0,0,0,0,0,0,0,-1,1343,897,0,0
126,127,0,0,0,0,0,0,0,0,0,-1,1350,897,0,0
133,127,0,0,0,0,0,0,0,0,0,-1,1357,897,0,0
140,127,0,0,0,0,0,0,0,0,0,-1,1364,897,0,0
147,127,0,0,0,0,0,0,0,0,0,-1,1371,897,0,0
154,127,0,0,0,0,0,0,0,0,0,-1,1378,897,0,0
161,127,0,0,0,0,0,0,0,0,0,-1,1385,897,0,0
168,127,0,0,0,0,0,0,0,0,0,-1,1392,897,0,0
175,127,0,0,0,0,0,0,0,0,0,-1,1399,897,0,0
182,127,0,0,0,0,0,0,0,0,0,-1,1406,897,0,0
189,127,0,0,0,0,0,0,0,0,0,-1,1413,897,0,0
196,127,0,0,0,0,0,0,0,0,0,-1,1420,897,0,0
203,127,0,0,0,0,0,0,0,0,0,-1,1427,897,0,0
210,127,0,0,0,0,0,0,0,0,0,-1,1434,897,0,0
217,127,0,0,0,0,0,0,0,0,0,-1,1441,897,0,0
224,127,0,0,0,0,0,0,0,0,0,-1,1448,897,0,0
231,127,0,0,0,0,0,0,0,0,0,-1,1455,897,0,0
238,127,0,0,0,0,0,0,0,0,0,-1,1462,897,0,0
245,127,0,0,0,0,0,0,0,0,0,-1,1469,897,0,0
252,127,0,0,0,0,0,0,0,0,0,-1,1476,897,0,0
259,127,0,0,0,0,0,0,0,0,0,-1,1483,897,0,0
266,127,0,0,0,0,0,0,0,0,0,-1,1490,897,0,0
273,127,0,0,0,0,0,0,0,0,0,-1,1497,897,0,0
280,127,0,0,0,0,0,0,0,0,0,-1,1504,897,0,0
287,127,0,0,0,0,0,0,0,0,0,-1,1511,897,0,0
294,127,0,0,0,0,0,0,0,0,0,-1,1518,897,0,0
301,127,0,0,0,0,0,0,0,0,0,-1,1525,897,0,0
308,127,0,0,0,0,0,0,0,0,0,-1,1532,897,0,0
315,127,0,0,0,0,0,0,0,0,0,-1,1539,897,0,0
322,127,0,0,0,0,0,0,0,0,0,-1,1546,897,0,0
329,127,0,0,0,0,0,0,0,0,0,-1,1553,897,0,0
336,127,0,0,0,0,0,0,0,0,0,-1,1560,897,0,0
343,127,0,0,0,0,0,0,0,0,0,-1,1567,897,0,0
350,127,0,0,0,0,0,0,0,0,0,-1,1574,897,0,0
357,127,0,0,0,0,0,0,0,0,0,-1,1581,897,0,0
364,127,0,0,0,0,0,0,0,0,0,-1,1588,897,0,0
371,127,0,0,0,0,0,0,0,0,0,-1,1595,897,0,0
378,127,0,0,0,0,0,0,0,0,0,-1,1602,897,0,0
385,127,0,0,0,0,0,0,0,0,0,-1,1609,897,0,0
392,127,0,0,0,0,0,0,0,0,0,-1,1616,897,0,0
399,127,0,0,0,0,0,0,0,0,0,-1,1623,897,0,0
406,127,0,0,0,0,0,0,0,0,0,-1,1630,897,0,0
413,127,0,0,0,0,0,0,0,0,0,-1,1637,897,0,0
420,127,0,0,0,0,0,0,0,0,0,-1,1644,897,0,0
427,127,0,0,0,0,0,0,0,0,0,-1,1651,897,0,0
434,127,0,0,0,0,0,0,0,0,0,-1,1658,897,0,0
441,127,0,0,0,0,0,0,0,0,0,-1,1665,897,0,0
448,127,0,0,0,0,0,0,0,0,0,-1,1672,897,0,0
455,127,0,0,0,0,0,0,0,0,0,-1,1679,897,0,0
462,127,0,0,0,0,0,0,0,0,0,-1,1686,897,0,0
469,127,0,0,0,0,0,0,0,0,0,-1,1693,897,0,0
476,127,0,0,0,0,0,0,0,0,0,-1,1700,897,0,0
483,127,0,0,0,0,0,0,0,0,0,-1,1707,897,0,0
490,127,0,0,0,0,0,0,0,0,0,-1,1714,897,0,0
497,127,0,0,0,0,0,0,0,0,0,-1,1721,897,0,0
504,127,0,0,0,0,0,0,0,0,0,-1,1728,897,0,0
511,127,0,0,0,0,0,0,0,0,0,-1,1735,897,0,0
518,127,0,0,0,0,0,0,0,0,0,-1,1742,897,0,0
525,127,0,0,0,0,0,0,0,0,0,-1,1749,897,0,0
532,127,0,0,0,0,0,0,0,0,0,-1,1756,897,0,0
539,127,0,0,0,0,0,0,0,0,0,-1,1763,897,0,0
546,127,0,0,0,0,0,0,0,0,0,-1,1770,897,0,0
553,127,0,0,0,0,0,0,0,0,0,-1,1777,897,0,0
560,127,0,0,0,0,0,0,0,0,0,-1,1784,897,0,0
567,127,0,0,0,0,0,0,0,0,0,-1,1791,897,0,0
574,127,0,0,0,0,0,0,0,0,0,-1,1798,897,0,0
581,127,0,0,0,0,0,0,0,0,0,-1,1805,897,0,0
588,127,0,0,0,0,0,0,0,0,0,-1,1812,897,0,0
595,127,0,0,0,0,0,0,0,0,0,-1,1819,897,0,0
602,127,0,0,0,0,0,0,0,0,0,-1,1826,897,0,0
609,127,0,0,0,0,0,0,0,0,0,-1,1833,897,0,0
616,127,0,0,0,0,0,0,0,0,0,-1,1840,897,0,0
623,127,0,0,0,0,0,0,0,0,0,-1,1847,897,0,0
630,127,60.2002,2.81116,0,0,0,0,0,0,0,-1,1854,897,60.2001,-2.81114
637,127,59.9041,2.70105,0,0,0,0,0,0,0,-1,1861,897,59.904,-2.70107
644,127,60.1541,2.70605,-0.000551855,0.000947859,-0.000529279,0.00111584,-0.000719833,-1.26348,0.00106801,0.0392924,1868,897,60.1541,-2.70604
651,127,60.3185,2.52216,-0.000578797,0.00113064,-0.000505124,0.00126874,-0.0007169,-1.30391,0.00116107,0.0408102,1875,897,60.3185,-2.52215
658,127,60.3024,2.49738,-0.000652327,0.00110086,-0.000464305,0.00121623,-0.000767699,-1.32725,0.00115514,0.0412511,1882,897,60.3024,-2.49737
665,127,60.249,2.68121,-0.000680172,0.00130036,-0.000270182,0.00133656,-0.000716369,-1.43762,0.00120315,0.0399669,1889,897,60.249,-2.6812
672,127,60.2751,2.58105,-0.000711977,0.00115146,-0.000189554,0.00117055,-0.000731063,-1.47044,0.00110763,0.0360185,1896,897,60.2752,-2.58104
679,127,60.3785,2.57892,-0.000650544,0.00105879,-0.000270251,0.0011005,-0.000692254,-1.41767,0.00104395,0.0277643,1903,897,60.3786,-2.57895
686,127,60.3575,2.61346,0,0,0,0,0,0,0,-1,1910,897,60.3576,-2.61348
693,127,59.2523,2.33673,0,0,0,0,0,0,0,-1,1917,897,59.2524,-2.33674
700,127,52.9309,2.1543,0,0,0,0,0,0,0,-1,1924,897,52.931,-2.15428
707,127,52.8278,2.80664,-0.000976481,0.00097279,-0.000408256,0.00105484,-0.00105853,-1.37246,0.00122016,0.0369504,1931,897,52.8278,-2.80665
714,127,53.1517,3.539,-0.000852526,0.00124043,-0.00053139,0.00136762,-0.000979714,-1.33587,0.00136139,0.0244344,1938,897,53.1517,-3.53901
721,127,53.2782,4.34589,-0.000885887,0.00163423,-0.000774864,0.00185341,-0.00110507,-1.29513,0.0017262,0.0220006,1945,897,53.2783,-4.34589
728,127,53.1799,4.92761,-0.0010344,0.00205079,-0.000888911,0.00228858,-0.00127218,-1.30941,0.00208354,0.0201863,1952,897,53.1799,-4.92761
735,127,53.1178,5.59711,-0.000300597,0.00306241,7.64145e-05,0.00306414,-0.000302333,1.54809,0.00215064,0.0214407,1959,897,53.1179,-5.59709
742,127,53.0867,6.24249,0.00164022,0.00528495,0.00244548,0.0065124,0.000412771,1.10561,0.00421076,0.0192092,1966,897,53.0867,-6.24252
749,127,53.0465,6.82605,0.00490509,0.00819014,0.0062188,0.0129797,0.000115558,0.914511,0.00861485,0.0128085,1973,897,53.0465,-6.82604
756,127,52.9801,7.37683,0.00992918,0.0117746,0.0120105,0.0228978,-0.00119401,0.823736,0.0156784,0.0154888,1980,897,52.98,-7.37683
763,127,52.9281,7.96112,0.0173741,0.0159114,0.0200077,0.0366638,-0.00337828,0.76713,0.0256429,0.0264074,1987,897,52.9281,-7.96112
770,127,52.9594,8.55298,0,0,0,0,0,0,0,-1,1994,897,52.9594,-8.55297
777,127,42.703,5.33789,0,0,0,0,0,0,0,-1,2001,897,42.7031,-5.33791
784,127,60.9233,9.82471,0,0,0,0,0,0,0,-1,2008,897,60.9234,-9.8247
791,127,62.4458,10.6021,0,0,0,0,0,0,0,-1,2015,897,62.4457,-10.6021
798,127,0,0,0,0,0,0,0,0,0,-1,2022,897,0,0
805,127,0,0,0,0,0,0,0,0,0,-1,2029,897,0,0
812,127,0,0,0,0,0,0,0,0,0,-1,2036,897,0,0
-700,120,0,0,0,0,0,0,0,0,0,-1,524,904,0,0
-693,120,0,0,0,0,0,0,0,0,0,-1,531,904,0,0
-686,120,0,0,0,0,0,0,0,0,0,-1,538,904,0,0
-679,120,-41.0841,5.99487,0,0,0,0,0,0,0,-1,545,904,-41.0841,-5.99488
-672,120,-49.5787,-2.48511,0,0,0,0,0,0,0,-1,552,904,-49.5787,2.48509
-665,120,-49.3304,-3.02417,0,0,0,0,0,0,0,-1,559,904,-49.3304,3.02419
-658,120,-48.817,-2.37921,0,0,0,0,0,0,0,-1,566,904,-48.817,2.3792
-651,120,-48.2593,-1.74121,0,0,0,0,0,0,0,-1,573,904,-48.2593,1.74121
-644,120,-45.0175,2.1684,0,0,0,0,0,0,0,-1,580,904,-45.0175,-2.16837
-637,120,-40.3571,5.72241,0,0,0,0,0,0,0,-1,587,904,-40.3571,-5.72243
-630,120,-40.2975,5.27673,0.0265933,-0.0115425,0.00453158,0.0271244,-0.0120736,0.116663,0.0231804,0.0333981,594,904,-40.2975,-5.27673
-623,120,-40.3542,4.76886,0.0170433,-0.00618088,0.00433824,0.0178273,-0.00696479,0.17877,0.0147646,0.0131875,601,904,-40.3543,-4.76888
-616,120,-40.3939,4.24738,0.0077635,-0.00237922,0.00377198,0.00901247,-0.00362818,0.319755,0.00751553,0.0108471,608,904,-40.3939,-4.24737
-609,120,-40.4287,3.69836,0.000800179,9.02784e-05,0.00351032,0.00397345,-0.00308299,0.735011,0.00408484,0.0137257,615,904,-40.4287,-3.69834
-602,120,-40.4494,3.15234,-0.00246244,0.000303916,0.00329158,0.00249113,-0.00464965,0.984304,0.00418505,0.016647,622,904,-40.4494,-3.15235
-595,120,-40.3739,2.64722,-0.00362568,-1.48548e-05,0.00295388,0.00164165,-0.00528219,1.05971,0.00417762,0.0333056,629,904,-40.3739,-2.64723
-588,120,-40.2835,1.9104,-0.00397283,-0.00020993,0.00261983,0.00113404,-0.0053168,1.0968,0.00397682,0.0443132,636,904,-40.2835,-1.91042
-581,120,-39.9028,0.984985,0,0,0,0,0,0,0,-1,643,904,-39.9028,-0.984958
-574,120,-27.5438,0.505066,0,0,0,0,0,0,0,-1,650,904,-27.5438,-0.505085
-567,120,-25.2822,-0.410645,0,0,0,0,0,0,0,-1,657,904,-25.2821,0.410629
-560,120,-27.3358,1.10327,0,0,0,0,0,0,0,-1,664,904,-27.3358,-1.10324
-553,120,-45.8103,0.930115,0,0,0,0,0,0,0,-1,671,904,-45.8103,-0.930086
-546,120,-45.7983,0.84314,-0.00424718,0.000118747,0.00161574,0.000651655,-0.00478009,1.25221,0.00342467,0.0330153,678,904,-45.7983,-0.843124
-539,120,-45.7932,0.800232,-0.00401565,0.000581168,0.00148317,0.00101817,-0.00445266,1.28426,0.00335966,0.024637,685,904,-45.7931,-0.800227
-532,120,-45.7693,0.791931,-0.00320016,0.0013034,0.00151654,0.00176647,-0.00366323,1.27444,0.00319796,0.026554,692,904,-45.7693,-0.791943
-525,120,-45.8997,0.813721,-0.00242322,0.00176044,0.0023207,0.00279293,-0.00345572,1.15219,0.00361442,0.0345798,699,904,-45.8997,-0.813738
-518,120,-46.1187,0.869995,-0.00222307,0.00260768,0.00361529,0.00454022,-0.00415561,1.0799,0.00502218,0.0380922,706,904,-46.1187,-0.869968
-511,120,-46.0315,0.789734,-0.00216152,0.00364434,0.00467367,0.00624325,-0.00476043,1.0633,0.00637217,0.0387823,713,904,-46.0315,-0.78976
-504,120,0,0,0,0,0,0,0,0,0,-1,720,904,0,0
-497,120,0,0,0,0,0,0,0,0,0,-1,727,904,0,0
-490,120,0,0,0,0,0,0,0,0,0,-1,734,904,0,0
-483,120,0,0,0,0,0,0,0,0,0,-1,741,904,0,0
-476,120,0,0,0,0,0,0,0,0,0,-1,748,904,0,0
-469,120,0,0,0,0,0,0,0,0,0,-1,755,904,0,0
-462,120,0,0,0,0,0,0,0,0,0,-1,762,904,0,0
-455,120,0,0,0,0,0,0,0,0,0,-1,769,904,0,0
-448,120,0,0,0,0,0,0,0,0,0,-1,776,904,0,0
-441,120,0,0,0,0,0,0,0,0,0,-1,783,904,0,0
-434,120,0,0,0,0,0,0,0,0,0,-1,790,904,0,0
-427,120,0,0,0,0,0,0,0,0,0,-1,797,904,0,0
-420,120,0,0,0,0,0,0,0,0,0,-1,804,904,0,0
-413,120,0,0,0,0,0,0,0,0,0,-1,811,904,0,0
-406,120,0,0,0,0,0,0,0,0,0,-1,818,904,0,0
-399,120,0,0,0,0,0,0,0,0,0,-1,825,904,0,0
-392,120,0,0,0,0,0,0,0,0,0,-1,832,904,0,0
-385,120,0,0,0,0,0,0,0,0,0,-1,839,904,0,0
-378,120,0,0,0,0,0,0,0,0,0,-1,846,904,0,0
-371,120,0,0,0,0,0,0,0,0,0,-1,853,904,0,0
-364,120,0,0,0,0,0,0,0,0,0,-1,860,904,0,0
-357,120,0,0,0,0,0,0,0,0,0,-1,867,904,0,0
-350,120,0,0,0,0,0,0,0,0,0,-1,874,904,0,0
-343,120,0,0,0,0,0,0,0,0,0,-1,881,904,0,0
-336,120,0,0,0,0,0,0,0,0,0,-1,888,904,0,0
-329,120,0,0,0,0,0,0,0,0,0,-1,895,904,0,0
-322,120,0,0,0,0,0,0,0,0,0,-1,902,904,0,0
-315,120,0,0,0,0,0,0,0,0,0,-1,909,904,0,0
-308,120,0,0,0,0,0,0,0,0,0,-1,916,904,0,0
-301,120,0,0,0,0,0,0,0,0,0,-1,923,904,0,0
-294,120,0,0,0,0,0,0,0,0,0,-1,930,904,0,0
-287,120,0,0,0,0,0,0,0,0,0,-1,937,904,0,0
-280,120,0,0,0,0,0,0,0,0,0,-1,944,904,0,0
-273,120,0,0,0,0,0,0,0,0,0,-1,951,904,0,0
-266,120,0,0,0,0,0,0,0,0,0,-1,958,904,0,0
-259,120,0,0,0,0,0,0,0,0,0,-1,965,904,0,0
-252,120,0,0,0,0,0,0,0,0,0,-1,972,904,0,0
-245,120,0,0,0,0,0,0,0,0,0,-1,979,904,0,0
-238,120,0,0,0,0,0,0,0,0,0,-1,986,904,0,0
-231,120,0,0,0,0,0,0,0,0,0,-1,993,904,0,0
-224,120,0,0,0,0,0,0,0,0,0,-1,1000,904,0,0
-217,120,0,0,0,0,0,0,0,0,0,-1,1007,904,0,0
-210,120,0,0,0,0,0,0,0,0,0,-1,1014,904,0,0
-203,120,0,0,0,0,0,0,0,0,0,-1,1021,904,0,0
-196,120,0,0,0,0,0,0,0,0,0,-1,1028,904,0,0
-189,120,0,0,0,0,0,0,0,0,0,-1,1035,904,0,0
-182,120,0,0,0,0,0,0,0,0,0,-1,1042,904,0,0
-175,120,0,0,0,0,0,0,0,0,0,-1,1049,904,0,0
-168,120,0,0,0,0,0,0,0,0,0,-1,1056,904,0,0
-161,120,0,0,0,0,0,0,0,0,0,-1,1063,904,0,0
-154,120,0,0,0,0,0,0,0,0,0,-1,1070,904,0,0
-147,120,0,0,0,0,0,0,0,0,0,-1,1077,904,0,0
-140,120,0,0,0,0,0,0,0,0,0,-1,1084,904,0,0
-133,120,0,0,0,0,0,0,0,0,0,-1,1091,904,0,0
-126,120,0,0,0,0,0,0,0,0,0,-1,1098,904,0,0
-119,120,0,0,0,0,0,0,0,0,0,-1,1105,904,0,0
-112,120,0,0,0,0,0,0,0,0,0,-1,1112,904,0,0
-105,120,0,0,0,0,0,0,0,0,0,-1,1119,904,0,0
-98,120,0,0,0,0,0,0,0,0,0,-1,1126,904,0,0
-91,120,0,0,0,0,0,0,0,0,0,-1,1133,904,0,0
-84,120,0,0,0,0,0,0,0,0,0,-1,1140,904,0,0
-77,120,0,0,0,0,0,0,0,0,0,-1,1147,904,0,0
-70,120,0,0,0,0,0,0,0,0,0,-1,1154,904,0,0
-63,120,0,0,0,0,0,0,0,0,0,-1,1161,904,0,0
-56,120,0,0,0,0,0,0,0,0,0,-1,1168,904,0,0
-49,120,0,0,0,0,0,0,0,0,0,-1,1175,904,0,0
-42,120,0,0,0,0,0,0,0,0,0,-1,1182,904,0,0
-35,120,0,0,0,0,0,0,0,0,0,-1,1189,904,0,0
-28,120,0,0,0,0,0,0,0,0,0,-1,1196,904,0,0
-21,120,0,0,0,0,0,0,0,0,0,-1,1203,904,0,0
-14,120,0,0,0,0,0,0,0,0,0,-1,1210,904,0,0
-7,120,0,0,0,0,0,0,0,0,0,-1,1217,904,0,0
0,120,0,0,0,0,0,0,0,0,0,-1,1224,904,0,0
7,120,0,0,0,0,0,0,0,0,0,-1,1231,904,0,0
14,120,0,0,0,0,0,0,0,0,0,-1,1238,904,0,0
21,120,0,0,0,0,0,0,0,0,0,-1,1245,904,0,0
28,120,0,0,0,0,0,0,0,0,0,-1,1252,904,0,0
35,120,0,0,0,0,0,0,0,0,0,-1,1259,904,0,0
42,120,0,0,0,0,0,0,0,0,0,-1,1266,904,0,0
49,120,0,0,0,0,0,0,0,0,0,-1,1273,904,0,0
56,120,0,0,0,0,0,0,0,0,0,-1,1280,904,0,0
63,120,0,0,0,0,0,0,0,0,0,-1,1287,904,0,0
70,120,0,0,0,0,0,0,0,0,0,-1,1294,904,0,0
77,120,0,0,0,0,0,0,0,0,0,-1,1301,904,0,0
84,120,0,0,0,0,0,0,0,0,0,-1,1308,904,0,0
91,120,0,0,0,0,0,0,0,0,0,-1,1315,904,0,0
98,120,0,0,0,0,0,0,0,0,0,-1,1322,904,0,0
105,120,0,0,0,0,0,0,0,0,0,-1,1329,904,0,0
112,120,0,0,0,0,0,0,0,0,0,-1,1336,904,0,0
119,120,0,0,0,0,0,0,0,0,0,-1,1343,904,0,0
126,120,0,0,0,0,0,0,0,0,0,-1,1350,904,0,0
133,120,0,0,0,0,0,0,0,0,0,-1,1357,904,0,0
140,120,0,0,0,0,0,0,0,0,0,-1,1364,904,0,0
147,120,0,0,0,0,0,0,0,0,0,-1,1371,904,0,0
154,120,0,0,0,0,0,0,0,0,0,-1,1378,904,0,0
161,120,0,0,0,0,0,0,0,0,0,-1,1385,904,0,0
168,120,0,0,0,0,0,0,0,0,0,-1,1392,904,0,0
175,120,0,0,0,0,0,0,0,0,0,-1,1399,904,0,0
182,120,0,0,0,0,0,0,0,0,0,-1,1406,904,0,0
189,120,0,0,0,0,0,0,0,0,0,-1,1413,904,0,0
196,120,0,0,0,0,0,0,0,0,0,-1,1420,904,0,0
203,120,0,0,0,0,0,0,0,0,0,-1,1427,904,0,0
210,120,0,0,0,0,0,0,0,0,0,-1,1434,904,0,0
217,120,0,0,0,0,0,0,0,0,0,-1,1441,904,0,0
224,120,0,0,0,0,0,0,0,0,0,-1,1448,904,0,0
231,120,0,0,0,0,0,0,0,0,0,-1,1455,904,0,0
238,120,0,0,0,0,0,0,0,0,0,-1,1462,904,0,0
245,120,0,0,0,0,0,0,0,0,0,-1,1469,904,0,0
252,120,0,0,0,0,0,0,0,0,0,-1,1476,904,0,0
259,120,0,0,0,0,0,0,0,0,0,-1,1483,904,0,0
266,120,0,0,0,0,0,0,0,0,0,-1,1490,904,0,0
273,120,0,0,0,0,0,0,0,0,0,-1,1497,904,0,0
280,120,0,0,0,0,0,0,0,0,0,-1,1504,904,0,0
287,120,0,0,0,0,0,0,0,0,0,-1,1511,904,0,0
294,120,0,0,0,0,0,0,0,0,0,-1,1518,904,0,0
301,120,0,0,0,0,0,0,0,0,0,-1,1525,904,0,0
308,120,0,0,0,0,0,0,0,0,0,-1,1532,904,0,0
315,120,0,0,0,0,0,0,0,0,0,-1,1539,904,0,0
322,120,0,0,0,0,0,0,0,0,0,-1,1546,904,0,0
329,120,0,0,0,0,0,0,0,0,0,-1,1553,904,0,0
336,120,0,0,0,0,0,0,0,0,0,-1,1560,904,0,0
343,120,0,0,0,0,0,0,0,0,0,-1,1567,904,0,0
350,120,0,0,0,0,0,0,0,0,0,-1,1574,904,0,0
357,120,0,0,0,0,0,0,0,0,0,-1,1581,904,0,0
364,120,0,0,0,0,0,0,0,0,0,-1,1588,904,0,0
371,120,0,0,0,0,0,0,0,0,0,-1,1595,904,0,0
378,120,0,0,0,0,0,0,0,0,0,-1,1602,904,0,0
385,120,0,0,0,0,0,0,0,0,0,-1,1609,904,0,0
392,120,0,0,0,0,0,0,0,0,0,-1,1616,904,0,0
399,120,0,0,0,0,0,0,0,0,0,-1,1623,904,0,0
406,120,0,0,0,0,0,0,0,0,0,-1,1630,904,0,0
413,120,0,0,0,0,0,0,0,0,0,-1,1637,904,0,0
420,120,0,0,0,0,0,0,0,0,0,-1,1644,904,0,0
427,120,0,0,0,0,0,0,0,0,0,-1,1651,904,0,0
434,120,0,0,0,0,0,0,0,0,0,-1,1658,904,0,0
441,120,0,0,0,0,0,0,0,0,0,-1,1665,904,0,0
448,120,0,0,0,0,0,0,0,0,0,-1,1672,904,0,0
455,120,0,0,0,0,0,0,0,0,0,-1,1679,904,0,0
462,120,0,0,0,0,0,0,0,0,0,-1,1686,904,0,0
469,120,0,0,0,0,0,0,0,0,0,-1,1693,904,0,0
476,120,0,0,0,0,0,0,0,0,0,-1,1700,904,0,0
483,120,0,0,0,0,0,0,0,0,0,-1,1707,904,0,0
490,120,0,0,0,0,0,0,0,0,0,-1,1714,904,0,0
497,120,0,0,0,0,0,0,0,0,0,-1,1721,904,0,0
504,120,0,0,0,0,0,0,0,0,0,-1,1728,904,0,0
511,120,0,0,0,0,0,0,0,0,0,-1,1735,904,0,0
518,120,0,0,0,0,0,0,0,0,0,-1,1742,904,0,0
525,120,0,0,0,0,0,0,0,0,0,-1,1749,904,0,0
532,120,0,0,0,0,0,0,0,0,0,-1,1756,904,0,0
539,120,0,0,0,0,0,0,0,0,0,-1,1763,904,0,0
546,120,0,0,0,0,0,0,0,0,0,-1,1770,904,0,0
553,120,0,0,0,0,0,0,0,0,0,-1,1777,904,0,0
560,120,0,0,0,0,0,0,0,0,0,-1,1784,904,0,0
567,120,0,0,0,0,0,0,0,0,0,-1,1791,904,0,0
574,120,0,0,0,0,0,0,0,0,0,-1,1798,904,0,0
581,120,0,0,0,0,0,0,0,0,0,-1,1805,904,0,0
588,120,0,0,0,0,0,0,0,0,0,-1,1812,904,0,0
595,120,0,0,0,0,0,0,0,0,0,-1,1819,904,0,0
602,120,0,0,0,0,0,0,0,0,0,-1,1826,904,0,0
609,120,0,0,0,0,0,0,0,0,0,-1,1833,904,0,0
616,120,0,0,0,0,0,0,0,0,0,-1,1840,904,0,0
623,120,0,0,0,0,0,0,0,0,0,-1,1847,904,0,0
630,120,60.3026,2.75842,-0.00149651,0.00242807,0.000515723,0.00249471,-0.00156315,1.44229,0.0023633,0.0392812,1854,904,60.3026,-2.7584
637,120,60.1826,2.71234,-0.000813285,0.0022661,-0.000226452,0.00228267,-0.000829849,-1.49778,0.00186112,0.0416007,1861,904,60.1827,-2.71235
644,120,60.2042,2.76227,-0.0004987,0.00210912,-0.000521178,0.00220942,-0.000599001,-1.38067,0.00170799,0.0392424,1868,904,60.2042,-2.76228
651,120,60.285,2.5072,-0.000467948,0.00204258,-0.000508765,0.00214176,-0.000567133,-1.37826,0.00164971,0.0397301,1875,904,60.285,-2.50722
658,120,60.2478,2.62793,-0.000488822,0.00192879,-0.000353298,0.00197936,-0.000539394,-1.42862,0.00153137,0.0413567,1882,904,60.2479,-2.62793
665,120,60.2987,2.69183,-0.000436998,0.00205627,-3.43625e-05,0.00205675,-0.000437471,-1.55702,0.00153787,0.0385612,1889,904,60.2987,-2.69186
672,120,60.3151,2.51831,-0.000478899,0.00183564,0.000154695,0.00184593,-0.000489192,1.50435,0.00142202,0.0374883,1896,904,60.3151,-2.51831
679,120,60.3185,2.51489,-0.000436782,0.00164337,0.000169332,0.00165707,-0.000450476,1.4901,0.00128154,0.0327561,1903,904,60.3185,-2.51492
686,120,60.3311,2.62494,-0.000343179,0.00130543,9.96556e-05,0.00131143,-0.000349181,1.51064,0.00101099,0.0288817,1910,904,60.3311,-2.62496
693,120,60.3225,2.62555,0,0,0,0,0,0,0,-1,1917,904,60.3225,-2.62552
700,120,42.2007,3.00946,0,0,0,0,0,0,0,-1,1924,904,42.2007,-3.00944
707,120,53.5619,3.02948,0,0,0,0,0,0,0,-1,1931,904,53.5619,-3.02945
714,120,54.1611,3.62549,0,0,0,0,0,0,0,-1,1938,904,54.1612,-3.62548
721,120,53.9163,4.49841,-0.00123844,0.00190694,-0.000522189,0.00199137,-0.00132287,-1.41051,0.00192641,0.0203179,1945,904,53.9162,-4.4984
728,120,53.8036,5.07959,-0.00149523,0.00217839,-0.000688775,0.00230328,-0.00162013,-1.39142,0.0022766,0.01393,1952,904,53.8036,-5.07961
735,120,53.7479,5.62421,-0.000897875,0.00298491,0.00014231,0.00299012,-0.000903084,1.53421,0.00235294,0.013914,1959,904,53.7479,-5.62424
742,120,53.7054,6.245,0.000805133,0.00494396,0.00225427,0.00593465,-0.000185555,1.15673,0.00401971,0.014418,1966,904,53.7055,-6.24502
749,120,53.6797,6.81128,0.00391345,0.00760636,0.00589375,0.0119361,-0.00041631,0.9372,0.00809975,0.0106276,1973,904,53.6797,-6.81131
756,120,53.5927,7.37567,0.00884208,0.0109534,0.011688,0.0216334,-0.00183789,0.830436,0.0150723,0.0139447,1980,904,53.5926,-7.37569
763,120,53.4673,7.93408,0.0160255,0.0147356,0.0195913,0.0349824,-0.00422136,0.768944,0.0248485,0.0312635,1987,904,53.4673,-7.93411
770,120,53.3812,8.51233,0,0,0,0,0,0,0,-1,1994,904,53.3812,-8.51235
777,120,59.313,9.57587,0,0,0,0,0,0,0,-1,2001,904,59.3129,-9.57587
784,120,59.6865,9.48816,0.0575026,0.0300677,0.0613929,0.106692,-0.0191217,0.675485,0.0782842,0.0475803,2008,904,59.6864,-9.48817
791,120,60.4314,9.51392,0.0804375,0.0369958,0.0821861,0.143725,-0.0262913,0.656208,0.105676,0.0426838,2015,904,60.4315,-9.51392
798,120,61.2461,9.26575,0,0,0,0,0,0,0,-1,2022,904,61.2462,-9.26576
805,120,0,0,0,0,0,0,0,0,0,-1,2029,904,0,0
812,120,0,0,0,0,0,0,0,0,0,-1,2036,904,0,0
-700,113,0,0,0,0,0,0,0,0,0,-1,524,911,0,0
-693,113,0,0,0,0,0,0,0,0,0,-1,531,911,0,0
-686,113,0,0,0,0,0,0,0,0,0,-1,538,911,0,0
-679,113,-49.5072,-2.05408,0,0,0,0,0,0,0,-1,545,911,-49.5072,2.05405
-672,113,-49.2308,-1.95569,0,0,0,0,0,0,0,-1,552,911,-49.2308,1.9557
-665,113,-49.0443,-1.85583,0,0,0,0,0,0,0,-1,559,911,-49.0443,1.85586
-658,113,-48.5634,-1.70172,0,0,0,0,0,0,0,-1,566,911,-48.5634,1.70171
-651,113,-48.0294,-1.11536,0,0,0,0,0,0,0,-1,573,911,-48.0294,1.11538
-644,113,-40.9949,6.30469,0,0,0,0,0,0,0,-1,580,911,-40.9949,-6.3047
-637,113,-41.0255,5.73669,0.0283212,-0.014157,0.00361793,0.0286271,-0.0144629,0.0843618,0.0253221,0.0460067,587,911,-41.0255,-5.73668
-630,113,-40.9131,5.31628,0.018723,-0.00835298,0.00398092,0.0192962,-0.00892616,0.142997,0.0166568,0.0234934,594,911,-40.9131,-5.31626
-623,113,-40.9887,4.77771,0.0107853,-0.00348101,0.00422377,0.011942,-0.00463774,0.267308,0.00987711,0.0139477,601,911,-40.9887,-4.77769
-616,113,-41.002,4.23041,0.00328796,-0.000369096,0.00398728,0.00584599,-0.00292713,0.570411,0.00515776,0.0113929,608,911,-41.002,-4.2304
-609,113,-41.0054,3.71667,-0.00188106,0.00125279,0.00375076,0.00375076,-0.00437904,0.98326,0.00469841,0.0115036,615,911,-41.0054,-3.71665
-602,113,-41.0375,3.15637,-0.00378388,0.000953772,0.00331832,0.00266202,-0.00549213,1.09538,0.00480139,0.0195721,622,911,-41.0375,-3.15635
-595,113,-41.0627,2.73218,-0.0043476,0.00043791,0.00279287,0.00172284,-0.00563253,1.13959,0.0044421,0.0276255,629,911,-41.0628,-2.73221
-588,113,-40.9951,2.13153,-0.00440687,0.000119333,0.00238506,0.00114411,-0.00543164,1.16498,0.00405661,0.0335179,636,911,-40.9951,-2.13154
-581,113,-41.0172,1.56317,-0.00443105,3.06167e-05,0.00218936,0.000925466,-0.0053259,1.18279,0.0038959,0.034239,643,911,-41.0172,-1.5632
-574,113,-41,0.791931,0,0,0,0,0,0,0,-1,650,911,-41,-0.791913
-567,113,-21.8396,0.437378,0,0,0,0,0,0,0,-1,657,911,-21.8396,-0.437351
-560,113,-45.797,0.707642,0,0,0,0,0,0,0,-1,664,911,-45.797,-0.707634
-553,113,-45.8324,0.635681,-0.00411425,-0.000207,0.00141147,0.000249541,-0.00457079,1.25797,0.00313369,0.0465273,671,911,-45.8324,-0.635711
-546,113,-45.8387,0.707581,-0.00417636,0.00011601,0.00118284,0.000420382,-0.00448073,1.31894,0.00313669,0.0376234,678,911,-45.8387,-0.707555
-539,113,-45.748,0.775818,-0.00393249,0.000584976,0.00111742,0.000846265,-0.00419378,1.34109,0.00311648,0.0357962,685,911,-45.748,-0.775818
-532,113,-45.7148,0.744141,-0.00311695,0.00121009,0.00137401,0.00160952,-0.00351638,1.28789,0.00302693,0.0385068,692,911,-45.7148,-0.744169
-525,113,-45.8491,0.785461,-0.00218506,0.00153281,0.00244953,0.00274891,-0.00340116,1.10998,0.00355739,0.0384296,699,911,-45.8491,-0.785446
-518,113,-46.0332,0.880615,-0.00194366,0.00218603,0.00372356,0.00437894,-0.00413657,1.03856,0.00491709,0.039887,706,911,-46.0332,-0.880645
-511,113,-46.0884,0.931335,-0.00181883,0.00297778,0.00469373,0.00585043,-0.00469148,1.02159,0.00609862,0.0407701,713,911,-46.0885,-0.93136
-504,113,0,0,0,0,0,0,0,0,0,-1,720,911,0,0
-497,113,0,0,0,0,0,0,0,0,0,-1,727,911,0,0
-490,113,0,0,0,0,0,0,0,0,0,-1,734,911,0,0
-483,113,0,0,0,0,0,0,0,0,0,-1,741,911,0,0
-476,113,0,0,0,0,0,0,0,0,0,-1,748,911,0,0
-469,113,0,0,0,0,0,0,0,0,0,-1,755,911,0,0
-462,113,0,0,0,0,0,0,0,0,0,-1,762,911,0,0
-455,113,0,0,0,0,0,0,0,0,0,-1,769,911,0,0
-448,113,0,0,0,0,0,0,0,0,0,-1,776,911,0,0
-441,113,0,0,0,0,0,0,0,0,0,-1,783,911,0,0
-434,113,0,0,0,0,0,0,0,0,0,-1,790,911,0,0
-427,113,0,0,0,0,0,0,0,0,0,-1,797,911,0,0
-420,113,0,0,0,0,0,0,0,0,0,-1,804,911,0,0
-413,113,0,0,0,0,0,0,0,0,0,-1,811,911,0,0
-406,113,0,0,0,0,0,0,0,0,0,-1,818,911,0,0
-399,113,0,0,0,0,0,0,0,0,0,-1,825,911,0,0
-392,113,0,0,0,0,0,0,0,0,0,-1,832,911,0,0
-385,113,0,0,0,0,0,0,0,0,0,-1,839,911,0,0
-378,113,0,0,0,0,0,0,0,0,0,-1,846,911,0,0
-371,113,0,0,0,0,0,0,0,0,0,-1,853,911,0,0
-364,113,0,0,0,0,0,0,0,0,0,-1,860,911,0,0
-357,113,0,0,0,0,0,0,0,0,0,-1,867,911,0,0
-350,113,0,0,0,0,0,0,0,0,0,-1,874,911,0,0
-343,113,0,0,0,0,0,0,0,0,0,-1,881,911,0,0
-336,113,0,0,0,0,0,0,0,0,0,-1,888,911,0,0
-329,113,0,0,0,0,0,0,0,0,0,-1,895,911,0,0
-322,113,0,0,0,0,0,0,0,0,0,-1,902,911,0,0
-315,113,0,0,0,0,0,0,0,0,0,-1,909,911,0,0
-308,113,0,0,0,0,0,0,0,0,0,-1,916,911,0,0
-301,113,0,0,0,0,0,0,0,0,0,-1,923,911,0,0
-294,113,0,0,0,0,0,0,0,0,0,-1,930,911,0,0
-287,113,0,0,0,0,0,0,0,0,0,-1,937,911,0,0
-280,113,0,0,0,0,0,0,0,0,0,-1,944,911,0,0
-273,113,0,0,0,0,0,0,0,0,0,-1,951,911,0,0
-266,113,0,0,0,0,0,0,0,0,0,-1,958,911,0,0
-259,113,0,0,0,0,0,0,0,0,0,-1,965,911,0,0
-252,113,0,0,0,0,0,0,0,0,0,-1,972,911,0,0
-245,113,0,0,0,0,0,0,0,0,0,-1,979,911,0,0
-238,113,0,0,0,0,0,0,0,0,0,-1,986,911,0,0
-231,113,0,0,0,0,0,0,0,0,0,-1,993,911,0,0
-224,113,0,0,0,0,0,0,0,0,0,-1,1000,911,0,0
-217,113,0,0,0,0,0,0,0,0,0,-1,1007,911,0,0
-210,113,0,0,0,0,0,0,0,0,0,-1,1014,911,0,0
-203,113,0,0,0,0,0,0,0,0,0,-1,1021,911,0,0
-196,113,0,0,0,0,0,0,0,0,0,-1,1028,911,0,0
-189,113,0,0,0,0,0,0,0,0,0,-1,1035,911,0,0
-182,113,0,0,0,0,0,0,0,0,0,-1,1042,911,0,0
-175,113,0,0,0,0,0,0,0,0,0,-1,1049,911,0,0
-168,113,0,0,0,0,0,0,0,0,0,-1,1056,911,0,0
-161,113,0,0,0,0,0,0,0,0,0,-1,1063,911,0,0
-154,113,0,0,0,0,0,0,0,0,0,-1,1070,911,0,0
-147,113,0,0,0,0,0,0,0,0,0,-1,1077,911,0,0
-140,113,0,0,0,0,0,0,0,0,0,-1,1084,911,0,0
-133,113,0,0,0,0,0,0,0,0,0,-1,1091,911,0,0
-126,113,0,0,0,0,0,0,0,0,0,-1,1098,911,0,0
-119,113,0,0,0,0,0,0,0,0,0,-1,1105,911,0,0
-112,113,0,0,0,0,0,0,0,0,0,-1,1112,911,0,0
-105,113,0,0,0,0,0,0,0,0,0,-1,1119,911,0,0
-98,113,0,0,0,0,0,0,0,0,0,-1,1126,911,0,0
-91,113,0,0,0,0,0,0,0,0,0,-1,1133,911,0,0
-84,113,0,0,0,0,0,0,0,0,0,-1,1140,911,0,0
-77,113,0,0,0,0,0,0,0,0,0,-1,1147,911,0,0
-70,113,0,0,0,0,0,0,0,0,0,-1,1154,911,0,0
-63,113,0,0,0,0,0,0,0,0,0,-1,1161,911,0,0
-56,113,0,0,0,0,0,0,0,0,0,-1,1168,911,0,0
-49,113,0,0,0,0,0,0,0,0,0,-1,1175,911,0,0
-42,113,0,0,0,0,0,0,0,0,0,-1,1182,911,0,0
-35,113,0,0,0,0,0,0,0,0,0,-1,1189,911,0,0
-28,113,0,0,0,0,0,0,0,0,0,-1,1196,911,0,0
-21,113,0,0,0,0,0,0,0,0,0,-1,1203,911,0,0
-14,113,0,0,0,0,0,0,0,0,0,-1,1210,911,0,0
-7,113,0,0,0,0,0,0,0,0,0,-1,1217,911,0,0
0,113,0,0,0,0,0,0,0,0,0,-1,1224,911,0,0
7,113,0,0,0,0,0,0,0,0,0,-1,1231,911,0,0
14,113,0,0,0,0,0,0,0,0,0,-1,1238,911,0,0
21,113,0,0,0,0,0,0,0,0,0,-1,1245,911,0,0
28,113,0,0,0,0,0,0,0,0,0,-1,1252,911,0,0
35,113,0,0,0,0,0,0,0,0,0,-1,1259,911,0,0
42,113,0,0,0,0,0,0,0,0,0,-1,1266,911,0,0
49,113,0,0,0,0,0,0,0,0,0,-1,1273,911,0,0
56,113,0,0,0,0,0,0,0,0,0,-1,1280,911,0,0
63,113,0,0,0,0,0,0,0,0,0,-1,1287,911,0,0
70,113,0,0,0,0,0,0,0,0,0,-1,1294,911,0,0
77,113,0,0,0,0,0,0,0,0,0,-1,1301,911,0,0
84,113,0,0,0,0,0,0,0,0,0,-1,1308,911,0,0
91,113,0,0,0,0,0,0,0,0,0,-1,1315,911,0,0
98,113,0,0,0,0,0,0,0,0,0,-1,1322,911,0,0
105,113,0,0,0,0,0,0,0,0,0,-1,1329,911,0,0
112,113,0,0,0,0,0,0,0,0,0,-1,1336,911,0,0
119,113,0,0,0,0,0,0,0,0,0,-1,1343,911,0,0
126,113,0,0,0,0,0,0,0,0,0,-1,1350,911,0,0
133,113,0,0,0,0,0,0,0,0,0,-1,1357,911,0,0
140,113,0,0,0,0,0,0,0,0,0,-1,1364,911,0,0
147,113,0,0,0,0,0,0,0,0,0,-1,1371,911,0,0
154,113,0,0,0,0,0,0,0,0,0,-1,1378,911,0,0
161,113,0,0,0,0,0,0,0,0,0,-1,1385,911,0,0
168,113,0,0,0,0,0,0,0,0,0,-1,1392,911,0,0
175,113,0,0,0,0,0,0,0,0,0,-1,1399,911,0,0
182,113,0,0,0,0,0,0,0,0,0,-1,1406,911,0,0
189,113,0,0,0,0,0,0,0,0,0,-1,1413,911,0,0
196,113,0,0,0,0,0,0,0,0,0,-1,1420,911,0,0
203,113,0,0,0,0,0,0,0,0,0,-1,1427,911,0,0
210,113,0,0,0,0,0,0,0,0,0,-1,1434,911,0,0
217,113,0,0,0,0,0,0,0,0,0,-1,1441,911,0,0
224,113,0,0,0,0,0,0,0,0,0,-1,1448,911,0,0
231,113,0,0,0,0,0,0,0,0,0,-1,1455,911,0,0
238,113,0,0,0,0,0,0,0,0,0,-1,1462,911,0,0
245,113,0,0,0,0,0,0,0,0,0,-1,1469,911,0,0
252,113,0,0,0,0,0,0,0,0,0,-1,1476,911,0,0
259,113,0,0,0,0,0,0,0,0,0,-1,1483,911,0,0
266,113,0,0,0,0,0,0,0,0,0,-1,1490,911,0,0
273,113,0,0,0,0,0,0,0,0,0,-1,1497,911,0,0
280,113,0,0,0,0,0,0,0,0,0,-1,1504,911,0,0
287,113,0,0,0,0,0,0,0,0,0,-1,1511,911,0,0
294,113,0,0,0,0,0,0,0,0,0,-1,1518,911,0,0
301,113,0,0,0,0,0,0,0,0,0,-1,1525,911,0,0
308,113,0,0,0,0,0,0,0,0,0,-1,1532,911,0,0
315,113,0,0,0,0,0,0,0,0,0,-1,1539,911,0,0
322,113,0,0,0,0,0,0,0,0,0,-1,1546,911,0,0
329,113,0,0,0,0,0,0,0,0,0,-1,1553,911,0,0
336,113,0,0,0,0,0,0,0,0,0,-1,1560,911,0,0
343,113,0,0,0,0,0,0,0,0,0,-1,1567,911,0,0
350,113,0,0,0,0,0,0,0,0,0,-1,1574,911,0,0
357,113,0,0,0,0,0,0,0,0,0,-1,1581,911,0,0
364,113,0,0,0,0,0,0,0,0,0,-1,1588,911,0,0
371,113,0,0,0,0,0,0,0,0,0,-1,1595,911,0,0
378,113,0,0,0,0,0,0,0,0,0,-1,1602,911,0,0
385,113,0,0,0,0,0,0,0,0,0,-1,1609,911,0,0
392,113,0,0,0,0,0,0,0,0,0,-1,1616,911,0,0
399,113,0,0,0,0,0,0,0,0,0,-1,1623,911,0,0
406,113,0,0,0,0,0,0,0,0,0,-1,1630,911,0,0
413,113,0,0,0,0,0,0,0,0,0,-1,1637,911,0,0
420,113,0,0,0,0,0,0,0,0,0,-1,1644,911,0,0
427,113,0,0,0,0,0,0,0,0,0,-1,1651,911,0,0
434,113,0,0,0,0,0,0,0,0,0,-1,1658,911,0,0
441,113,0,0,0,0,0,0,0,0,0,-1,1665,911,0,0
448,113,0,0,0,0,0,0,0,0,0,-1,1672,911,0,0
455,113,0,0,0,0,0,0,0,0,0,-1,1679,911,0,0
462,113,0,0,0,0,0,0,0,0,0,-1,1686,911,0,0
469,113,0,0,0,0,0,0,0,0,0,-1,1693,911,0,0
476,113,0,0,0,0,0,0,0,0,0,-1,1700,911,0,0
483,113,0,0,0,0,0,0,0,0,0,-1,1707,911,0,0
490,113,0,0,0,0,0,0,0,0,0,-1,1714,911,0,0
497,113,0,0,0,0,0,0,0,0,0,-1,1721,911,0,0
504,113,0,0,0,0,0,0,0,0,0,-1,1728,911,0,0
511,113,0,0,0,0,0,0,0,0,0,-1,1735,911,0,0
518,113,0,0,0,0,0,0,0,0,0,-1,1742,911,0,0
525,113,0,0,0,0,0,0,0,0,0,-1,1749,911,0,0
532,113,0,0,0,0,0,0,0,0,0,-1,1756,911,0,0
539,113,0,0,0,0,0,0,0,0,0,-1,1763,911,0,0
546,113,0,0,0,0,0,0,0,0,0,-1,1770,911,0,0
553,113,0,0,0,0,0,0,0,0,0,-1,1777,911,0,0
560,113,0,0,0,0,0,0,0,0,0,-1,1784,911,0,0
567,113,0,0,0,0,0,0,0,0,0,-1,1791,911,0,0
574,113,0,0,0,0,0,0,0,0,0,-1,1798,911,0,0
581,113,0,0,0,0,0,0,0,0,0,-1,1805,911,0,0
588,113,0,0,0,0,0,0,0,0,0,-1,1812,911,0,0
595,113,0,0,0,0,0,0,0,0,0,-1,1819,911,0,0
602,113,0,0,0,0,0,0,0,0,0,-1,1826,911,0,0
609,113,0,0,0,0,0,0,0,0,0,-1,1833,911,0,0
616,113,0,0,0,0,0,0,0,0,0,-1,1840,911,0,0
623,113,0,0,0,0,0,0,0,0,0,-1,1847,911,0,0
630,113,60.4293,2.68323,-0.00141326,0.0040436,0.000850413,0.00417306,-0.00154272,1.41972,0.0034145,0.0394684,1854,911,60.4293,-2.68321
637,113,60.4282,2.68878,-0.000583077,0.0034391,-8.30932e-05,0.00344082,-0.000584793,-1.55015,0.00251161,0.0413154,1861,911,60.4282,-2.68878
644,113,60.4648,2.75385,-0.000237006,0.00295579,-0.000469761,0.00302347,-0.000304688,-1.4277,0.0021245,0.0390876,1868,911,60.4648,-2.75386
651,113,60.3856,2.62177,-0.000240376,0.00266752,-0.000471495,0.00274206,-0.000314915,-1.414,0.00194154,0.0410092,1875,911,60.3856,-2.62176
658,113,60.3961,2.59375,-0.00033807,0.002453,-0.000227367,0.0024714,-0.00035647,-1.49004,0.00177837,0.0426988,1882,911,60.3962,-2.59376
665,113,60.4264,2.57794,-0.000328971,0.00247228,0.00021305,0.00248839,-0.000345082,1.49532,0.00178511,0.0365914,1889,911,60.4264,-2.57792
672,113,60.3917,2.57233,-0.000437823,0.00220451,0.000516795,0.00230199,-0.000535303,1.38436,0.00174075,0.0338545,1896,911,60.3917,-2.5723
679,113,60.3492,2.54004,-0.000455789,0.00191465,0.000633315,0.00207325,-0.000614382,1.32542,0.00162612,0.0284976,1903,911,60.3493,-2.54004
686,113,60.3446,2.61328,-0.000386742,0.00149328,0.000600814,0.00166889,-0.000562346,1.28644,0.00133997,0.0257196,1910,911,60.3446,-2.61329
693,113,60.1813,2.81201,0,0,0,0,0,0,0,-1,1917,911,60.1812,-2.81199
700,113,43.897,2.79669,0,0,0,0,0,0,0,-1,1924,911,43.897,-2.79671
707,113,54.278,3.27844,0,0,0,0,0,0,0,-1,1931,911,54.278,-3.27845
714,113,54.3909,3.87006,0,0,0,0,0,0,0,-1,1938,911,54.3909,-3.87006
721,113,54.4355,4.45514,-0.0015594,0.00199725,-0.000204223,0.00200894,-0.00157108,-1.51363,0.00207207,0.024908,1945,911,54.4355,-4.45514
728,113,54.4637,5.07703,-0.00185194,0.00219147,-0.000385657,0.00222793,-0.00188839,-1.47655,0.00237925,0.0250354,1952,911,54.4638,-5.07701
735,113,54.3765,5.66809,-0.00132752,0.0028997,0.000333187,0.0029258,-0.00135362,1.49262,0.00252569,0.0214117,1959,911,54.3764,-5.6681
742,113,54.3134,6.22467,0.000118369,0.00466791,0.00210823,0.00549463,-0.000708347,1.19709,0.00392059,0.0127742,1966,911,54.3134,-6.2247
749,113,54.3163,6.80103,0.00290414,0.00713752,0.00544346,0.0108614,-0.000819686,0.970827,0.00752902,0.0095529,1973,911,54.3163,-6.80103
756,113,54.2192,7.40454,0.00747023,0.010295,0.0110343,0.0200069,-0.00224166,0.849053,0.0141445,0.0146055,1980,911,54.2193,-7.40454
763,113,54.0364,8.06787,0.0141162,0.0138142,0.0187292,0.0326951,-0.00476464,0.781367,0.0235462,0.0329119,1987,911,54.0364,-8.06788
770,113,53.8838,8.72742,0,0,0,0,0,0,0,-1,1994,911,53.8838,-8.72739
777,113,57.8459,8.4209,0,0,0,0,0,0,0,-1,2001,911,57.846,-8.42088
784,113,58.3684,8.81262,0.0521188,0.026684,0.0585165,0.0992838,-0.0204811,0.678397,0.0739675,0.049102,2008,911,58.3684,-8.81265
791,113,58.8999,9.14343,0.0734235,0.0319225,0.0783116,0.133687,-0.0283411,0.655888,0.0999206,0.0458497,2015,911,58.8999,-9.14343
798,113,59.1284,9.12079,0,0,0,0,0,0,0,-1,2022,911,59.1285,-9.12079
805,113,0,0,0,0,0,0,0,0,0,-1,2029,911,0,0
812,113,0,0,0,0,0,0,0,0,0,-1,2036,911,0,0
-700,106,0,0,0,0,0,0,0,0,0,-1,524,918,0,0
-693,106,0,0,0,0,0,0,0,0,0,-1,531,918,0,0
-686,106,0,0,0,0,0,0,0,0,0,-1,538,918,0,0
-679,106,-48.6871,-1.56952,0.0855395,-0.0656132,-0.0122101,0.0865195,-0.0665932,-0.0800876,0.0886488,0.0460984,545,918,-48.6871,1.56953
-672,106,-48.9176,-1.46484,0.0771936,-0.0549383,-0.00703608,0.0775673,-0.0553119,-0.0530504,0.0770757,0.04747,552,918,-48.9176,1.46485
-665,106,-48.6348,-1.3197,0.0660552,-0.0445993,-0.00390061,0.0661925,-0.0447366,-0.0351921,0.0644431,0.0481741,559,918,-48.6348,1.3197
-658,106,-48.2582,-1.1676,0.0543754,-0.0350558,-0.00179762,0.0544115,-0.0350919,-0.0200898,0.0520746,0.0474673,566,918,-48.2582,1.16757
-651,106,-47.8139,-0.917908,0,0,0,0,0,0,0,-1,573,918,-47.8139,0.917894
-644,106,-41.0695,6.65845,0,0,0,0,0,0,0,-1,580,918,-41.0695,-6.65845
-637,106,-41.1179,5.96448,0.0224228,-0.0122103,0.00173894,0.0225099,-0.0122974,0.0500426,0.0203823,0.0366519,587,918,-41.1178,-5.96445
-630,106,-41.4302,5.3988,0.0143239,-0.00667421,0.00283607,0.0147002,-0.00705051,0.131915,0.012814,0.0171907,594,918,-41.4302,-5.39881
-623,106,-41.5898,4.72748,0.00754584,-0.00206676,0.00361522,0.00875373,-0.00327464,0.322449,0.00718072,0.0169315,601,918,-41.5898,-4.72749
-616,106,-41.6328,4.18207,0.00135047,0.000660664,0.00376767,0.00478899,-0.00277786,0.739754,0.00441986,0.0168587,608,918,-41.6328,-4.1821
-609,106,-41.6086,3.70422,-0.00264049,0.00183735,0.00360397,0.00384123,-0.00464437,1.06334,0.00490647,0.0126033,615,918,-41.6087,-3.70424
-602,106,-41.6192,3.15021,-0.00392596,0.00145195,0.00304879,0.00282816,-0.00530217,1.14678,0.00476594,0.0211611,622,918,-41.6192,-3.1502
-595,106,-41.7572,2.65948,-0.00427223,0.000909164,0.002431,0.00187113,-0.0052342,1.19399,0.00425268,0.0259787,629,918,-41.7572,-2.65949
-588,106,-41.7664,2.10242,-0.00428783,0.000524847,0.00199647,0.00124523,-0.00500821,1.22451,0.00382211,0.0312147,636,918,-41.7664,-2.10241
-581,106,-41.5718,1.50928,-0.00426819,0.000319724,0.00178218,0.00093066,-0.00487912,1.24055,0.00360326,0.0196218,643,918,-41.5718,-1.50927
-574,106,-41.6434,0.938599,0,0,0,0,0,0,0,-1,650,918,-41.6434,-0.938576
-567,106,-41.3706,0.420776,0,0,0,0,0,0,0,-1,657,918,-41.3706,-0.420794
-560,106,-45.7488,0.78833,0,0,0,0,0,0,0,-1,664,918,-45.7488,-0.788351
-553,106,-45.8003,0.766296,-0.0039979,-9.21338e-05,0.000896202,0.000103687,-0.00419372,1.35568,0.00283101,0.0373419,671,918,-45.8003,-0.766323
-546,106,-45.8127,0.664856,-0.00408653,0.000183511,0.000726396,0.000303698,-0.00420672,1.40682,0.002911,0.0391935,678,918,-45.8128,-0.664858
-539,106,-45.7471,0.695007,-0.00382833,0.000567333,0.000784905,0.000703283,-0.00396428,1.39929,0.00290579,0.0390073,685,918,-45.747,-0.694989
-532,106,-45.7433,0.748596,-0.00298632,0.000936246,0.00129299,0.0013241,-0.00337417,1.27937,0.0027973,0.0403415,692,918,-45.7433,-0.748597
-525,106,-45.8602,0.845886,-0.00192,0.00106265,0.00254679,0.00252263,-0.00337998,1.05027,0.00341984,0.0380302,699,918,-45.8602,-0.845889
-518,106,-45.9539,0.961121,-0.00170394,0.00158362,0.00374101,0.00402606,-0.00414638,0.992398,0.00471853,0.0374271,706,918,-45.9538,-0.961119
-511,106,0,0,0,0,0,0,0,0,0,-1,713,918,0,0
-504,106,0,0,0,0,0,0,0,0,0,-1,720,918,0,0
-497,106,0,0,0,0,0,0,0,0,0,-1,727,918,0,0
-490,106,0,0,0,0,0,0,0,0,0,-1,734,918,0,0
-483,106,0,0,0,0,0,0,0,0,0,-1,741,918,0,0
-476,106,0,0,0,0,0,0,0,0,0,-1,748,918,0,0
-469,106,0,0,0,0,0,0,0,0,0,-1,755,918,0,0
-462,106,0,0,0,0,0,0,0,0,0,-1,762,918,0,0
-455,106,0,0,0,0,0,0,0,0,0,-1,769,918,0,0
-448,106,0,0,0,0,0,0,0,0,0,-1,776,918,0,0
-441,106,0,0,0,0,0,0,0,0,0,-1,783,918,0,0
-434,106,0,0,0,0,0,0,0,0,0,-1,790,918,0,0
-427,106,0,0,0,0,0,0,0,0,0,-1,797,918,0,0
-420,106,0,0,0,0,0,0,0,0,0,-1,804,918,0,0
-413,106,0,0,0,0,0,0,0,0,0,-1,811,918,0,0
-406,106,0,0,0,0,0,0,0,0,0,-1,818,918,0,0
-399,106,0,0,0,0,0,0,0,0,0,-1,825,918,0,0
-392,106,0,0,0,0,0,0,0,0,0,-1,832,918,0,0
-385,106,0,0,0,0,0,0,0,0,0,-1,839,918,0,0
-378,106,0,0,0,0,0,0,0,0,0,-1,846,918,0,0
-371,106,0,0,0,0,0,0,0,0,0,-1,853,918,0,0
-364,106,0,0,0,0,0,0,0,0,0,-1,860,918,0,0
-357,106,0,0,0,0,0,0,0,0,0,-1,867,918,0,0
-350,106,0,0,0,0,0,0,0,0,0,-1,874,918,0,0
-343,106,0,0,0,0,0,0,0,0,0,-1,881,918,0,0
-336,106,0,0,0,0,0,0,0,0,0,-1,888,918,0,0
-329,106,0,0,0,0,0,0,0,0,0,-1,895,918,0,0
-322,106,0,0,0,0,0,0,0,0,0,-1,902,918,0,0
-315,106,0,0,0,0,0,0,0,0,0,-1,909,918,0,0
-308,106,0,0,0,0,0,0,0,0,0,-1,916,918,0,0
-301,106,0,0,0,0,0,0,0,0,0,-1,923,918,0,0
-294,106,0,0,0,0,0,0,0,0,0,-1,930,918,0,0
-287,106,0,0,0,0,0,0,0,0,0,-1,937,918,0,0
-280,106,0,0,0,0,0,0,0,0,0,-1,944,918,0,0
-273,106,0,0,0,0,0,0,0,0,0,-1,951,918,0,0
-266,106,0,0,0,0,0,0,0,0,0,-1,958,918,0,0
-259,106,0,0,0,0,0,0,0,0,0,-1,965,918,0,0
-252,106,0,0,0,0,0,0,0,0,0,-1,972,918,0,0
-245,106,0,0,0,0,0,0,0,0,0,-1,979,918,0,0
-238,106,0,0,0,0,0,0,0,0,0,-1,986,918,0,0
-231,106,0,0,0,0,0,0,0,0,0,-1,993,918,0,0
-224,106,0,0,0,0,0,0,0,0,0,-1,1000,918,0,0
-217,106,0,0,0,0,0,0,0,0,0,-1,1007,918,0,0
-210,106,0,0,0,0,0,0,0,0,0,-1,1014,918,0,0
-203,106,0,0,0,0,0,0,0,0,0,-1,1021,918,0,0
-196,106,0,0,0,0,0,0,0,0,0,-1,1028,918,0,0
-189,106,0,0,0,0,0,0,0,0,0,-1,1035,918,0,0
-182,106,0,0,0,0,0,0,0,0,0,-1,1042,918,0,0
-175,106,0,0,0,0,0,0,0,0,0,-1,1049,918,0,0
-168,106,0,0,0,0,0,0,0,0,0,-1,1056,918,0,0
-161,106,0,0,0,0,0,0,0,0,0,-1,1063,918,0,0
-154,106,0,0,0,0,0,0,0,0,0,-1,1070,918,0,0
-147,106,0,0,0,0,0,0,0,0,0,-1,1077,918,0,0
-140,106,0,0,0,0,0,0,0,0,0,-1,1084,918,0,0
-133,106,0,0,0,0,0,0,0,0,0,-1,1091,918,0,0
-126,106,0,0,0,0,0,0,0,0,0,-1,1098,918,0,0
-119,106,0,0,0,0,0,0,0,0,0,-1,1105,918,0,0
-112,106,0,0,0,0,0,0,0,0,0,-1,1112,918,0,0
-105,106,0,0,0,0,0,0,0,0,0,-1,1119,918,0,0
-98,106,0,0,0,0,0,0,0,0,0,-1,1126,918,0,0
-91,106,0,0,0,0,0,0,0,0,0,-1,1133,918,0,0
-84,106,0,0,0,0,0,0,0,0,0,-1,1140,918,0,0
-77,106,0,0,0,0,0,0,0,0,0,-1,1147,918,0,0
-70,106,0,0,0,0,0,0,0,0,0,-1,1154,918,0,0
-63,106,0,0,0,0,0,0,0,0,0,-1,1161,918,0,0
-56,106,0,0,0,0,0,0,0,0,0,-1,1168,918,0,0
-49,106,0,0,0,0,0,0,0,0,0,-1,1175,918,0,0
-42,106,0,0,0,0,0,0,0,0,0,-1,1182,918,0,0
-35,106,0,0,0,0,0,0,0,0,0,-1,1189,918,0,0
-28,106,0,0,0,0,0,0,0,0,0,-1,1196,918,0,0
-21,106,0,0,0,0,0,0,0,0,0,-1,1203,918,0,0
-14,106,0,0,0,0,0,0,0,0,0,-1,1210,918,0,0
-7,106,0,0,0,0,0,0,0,0,0,-1,1217,918,0,0
0,106,0,0,0,0,0,0,0,0,0,-1,1224,918,0,0
7,106,0,0,0,0,0,0,0,0,0,-1,1231,918,0,0
14,106,0,0,0,0,0,0,0,0,0,-1,1238,918,0,0
21,106,0,0,0,0,0,0,0,0,0,-1,1245,918,0,0
28,106,0,0,0,0,0,0,0,0,0,-1,1252,918,0,0
35,106,0,0,0,0,0,0,0,0,0,-1,1259,918,0,0
42,106,0,0,0,0,0,0,0,0,0,-1,1266,918,0,0
49,106,0,0,0,0,0,0,0,0,0,-1,1273,918,0,0
56,106,0,0,0,0,0,0,0,0,0,-1,1280,918,0,0
63,106,0,0,0,0,0,0,0,0,0,-1,1287,918,0,0
70,106,0,0,0,0,0,0,0,0,0,-1,1294,918,0,0
77,106,0,0,0,0,0,0,0,0,0,-1,1301,918,0,0
84,106,0,0,0,0,0,0,0,0,0,-1,1308,918,0,0
91,106,0,0,0,0,0,0,0,0,0,-1,1315,918,0,0
98,106,0,0,0,0,0,0,0,0,0,-1,1322,918,0,0
105,106,0,0,0,0,0,0,0,0,0,-1,1329,918,0,0
112,106,0,0,0,0,0,0,0,0,0,-1,1336,918,0,0
119,106,0,0,0,0,0,0,0,0,0,-1,1343,918,0,0
126,106,0,0,0,0,0,0,0,0,0,-1,1350,918,0,0
133,106,0,0,0,0,0,0,0,0,0,-1,1357,918,0,0
140,106,0,0,0,0,0,0,0,0,0,-1,1364,918,0,0
147,106,0,0,0,0,0,0,0,0,0,-1,1371,918,0,0
154,106,0,0,0,0,0,0,0,0,0,-1,1378,918,0,0
161,106,0,0,0,0,0,0,0,0,0,-1,1385,918,0,0
168,106,0,0,0,0,0,0,0,0,0,-1,1392,918,0,0
175,106,0,0,0,0,0,0,0,0,0,-1,1399,918,0,0
182,106,0,0,0,0,0,0,0,0,0,-1,1406,918,0,0
189,106,0,0,0,0,0,0,0,0,0,-1,1413,918,0,0
196,106,0,0,0,0,0,0,0,0,0,-1,1420,918,0,0
203,106,0,0,0,0,0,0,0,0,0,-1,1427,918,0,0
210,106,0,0,0,0,0,0,0,0,0,-1,1434,918,0,0
217,106,0,0,0,0,0,0,0,0,0,-1,1441,918,0,0
224,106,0,0,0,0,0,0,0,0,0,-1,1448,918,0,0
231,106,0,0,0,0,0,0,0,0,0,-1,1455,918,0,0
238,106,0,0,0,0,0,0,0,0,0,-1,1462,918,0,0
245,106,0,0,0,0,0,0,0,0,0,-1,1469,918,0,0
252,106,0,0,0,0,0,0,0,0,0,-1,1476,918,0,0
259,106,0,0,0,0,0,0,0,0,0,-1,1483,918,0,0
266,106,0,0,0,0,0,0,0,0,0,-1,1490,918,0,0
273,106,0,0,0,0,0,0,0,0,0,-1,1497,918,0,0
280,106,0,0,0,0,0,0,0,0,0,-1,1504,918,0,0
287,106,0,0,0,0,0,0,0,0,0,-1,1511,918,0,0
294,106,0,0,0,0,0,0,0,0,0,-1,1518,918,0,0
301,106,0,0,0,0,0,0,0,0,0,-1,1525,918,0,0
308,106,0,0,0,0,0,0,0,0,0,-1,1532,918,0,0
315,106,0,0,0,0,0,0,0,0,0,-1,1539,918,0,0
322,106,0,0,0,0,0,0,0,0,0,-1,1546,918,0,0
329,106,0,0,0,0,0,0,0,0,0,-1,1553,918,0,0
336,106,0,0,0,0,0,0,0,0,0,-1,1560,918,0,0
343,106,0,0,0,0,0,0,0,0,0,-1,1567,918,0,0
350,106,0,0,0,0,0,0,0,0,0,-1,1574,918,0,0
357,106,0,0,0,0,0,0,0,0,0,-1,1581,918,0,0
364,106,0,0,0,0,0,0,0,0,0,-1,1588,918,0,0
371,106,0,0,0,0,0,0,0,0,0,-1,1595,918,0,0
378,106,0,0,0,0,0,0,0,0,0,-1,1602,918,0,0
385,106,0,0,0,0,0,0,0,0,0,-1,1609,918,0,0
392,106,0,0,0,0,0,0,0,0,0,-1,1616,918,0,0
399,106,0,0,0,0,0,0,0,0,0,-1,1623,918,0,0
406,106,0,0,0,0,0,0,0,0,0,-1,1630,918,0,0
413,106,0,0,0,0,0,0,0,0,0,-1,1637,918,0,0
420,106,0,0,0,0,0,0,0,0,0,-1,1644,918,0,0
427,106,0,0,0,0,0,0,0,0,0,-1,1651,918,0,0
434,106,0,0,0,0,0,0,0,0,0,-1,1658,918,0,0
441,106,0,0,0,0,0,0,0,0,0,-1,1665,918,0,0
448,106,0,0,0,0,0,0,0,0,0,-1,1672,918,0,0
455,106,0,0,0,0,0,0,0,0,0,-1,1679,918,0,0
462,106,0,0,0,0,0,0,0,0,0,-1,1686,918,0,0
469,106,0,0,0,0,0,0,0,0,0,-1,1693,918,0,0
476,106,0,0,0,0,0,0,0,0,0,-1,1700,918,0,0
483,106,0,0,0,0,0,0,0,0,0,-1,1707,918,0,0
490,106,0,0,0,0,0,0,0,0,0,-1,1714,918,0,0
497,106,0,0,0,0,0,0,0,0,0,-1,1721,918,0,0
504,106,0,0,0,0,0,0,0,0,0,-1,1728,918,0,0
511,106,0,0,0,0,0,0,0,0,0,-1,1735,918,0,0
518,106,0,0,0,0,0,0,0,0,0,-1,1742,918,0,0
525,106,0,0,0,0,0,0,0,0,0,-1,1749,918,0,0
532,106,0,0,0,0,0,0,0,0,0,-1,1756,918,0,0
539,106,0,0,0,0,0,0,0,0,0,-1,1763,918,0,0
546,106,0,0,0,0,0,0,0,0,0,-1,1770,918,0,0
553,106,0,0,0,0,0,0,0,0,0,-1,1777,918,0,0
560,106,0,0,0,0,0,0,0,0,0,-1,1784,918,0,0
567,106,0,0,0,0,0,0,0,0,0,-1,1791,918,0,0
574,106,0,0,0,0,0,0,0,0,0,-1,1798,918,0,0
581,106,0,0,0,0,0,0,0,0,0,-1,1805,918,0,0
588,106,0,0,0,0,0,0,0,0,0,-1,1812,918,0,0
595,106,0,0,0,0,0,0,0,0,0,-1,1819,918,0,0
602,106,0,0,0,0,0,0,0,0,0,-1,1826,918,0,0
609,106,0,0,0,0,0,0,0,0,0,-1,1833,918,0,0
616,106,0,0,0,0,0,0,0,0,0,-1,1840,918,0,0
623,106,0,0,0,0,0,0,0,0,0,-1,1847,918,0,0
630,106,60.6753,2.35999,-0.000626744,0.00529348,0.000726425,0.00538131,-0.000714575,1.45047,0.00384791,0.0413636,1854,918,60.6753,-2.35996
637,106,60.4448,2.67084,0.000175469,0.00434026,-0.000265595,0.00435713,0.0001586,-1.50737,0.00285336,0.0438117,1861,918,60.4448,-2.67086
644,106,60.5421,2.71478,0.000413252,0.00357624,-0.000637865,0.00370004,0.000289462,-1.37911,0.00237609,0.0414652,1868,918,60.5421,-2.71477
651,106,60.4961,2.87561,0.000268198,0.00309509,-0.000566704,0.00320447,0.000158823,-1.38014,0.00208539,0.0410678,1875,918,60.4962,-2.87559
658,106,60.3883,2.60413,-1.39334e-05,0.00279624,-0.000174693,0.00280706,-2.47514e-05,-1.50895,0.00187967,0.0410463,1882,918,60.3883,-2.60414
665,106,60.3612,2.60803,-0.000162542,0.00272726,0.000443469,0.00279379,-0.000229065,1.4219,0.00194339,0.0380938,1889,918,60.3613,-2.60803
672,106,60.3744,2.73242,-0.000413759,0.00244312,0.00091847,0.00271293,-0.000683562,1.28508,0.00207436,0.0372625,1896,918,60.3744,-2.73239
679,106,60.3939,2.70404,-0.000541228,0.00208147,0.00116613,0.00252497,-0.000984727,1.20737,0.00209036,0.0326731,1903,918,60.394,-2.70406
686,106,60.3851,2.61505,-0.000507637,0.00159304,0.00116715,0.00211287,-0.00102747,1.15178,0.00184882,0.0287995,1910,918,60.3851,-2.61505
693,106,60.2212,2.7923,-0.000686314,0.00138476,0.00101721,0.0018008,-0.00110235,1.18256,0.00169222,0.0365604,1917,918,60.2212,-2.7923
700,106,60.0994,3.10608,0,0,0,0,0,0,0,-1,1924,918,60.0994,-3.10606
707,106,54.3348,3.2085,0,0,0,0,0,0,0,-1,1931,918,54.3348,-3.20849
714,106,54.8224,3.74518,0,0,0,0,0,0,0,-1,1938,918,54.8223,-3.74517
721,106,55.0872,4.50714,-0.00190719,0.00208809,0.000163039,0.00209473,-0.00191383,1.53008,0.00231513,0.0314212,1945,918,55.0872,-4.50713
728,106,55.1337,5.14337,-0.00221487,0.00225143,-3.82449e-05,0.00225176,-0.0022152,-1.56223,0.00257903,0.0305968,1952,918,55.1337,-5.14335
735,106,55.0596,5.70496,-0.0017346,0.00291292,0.000552482,0.00297769,-0.00179937,1.45409,0.00278586,0.0261535,1959,918,55.0595,-5.70495
742,106,54.968,6.21564,-0.000547716,0.00453323,0.00195421,0.00519789,-0.00121238,1.24295,0.00393219,0.0132437,1966,918,54.968,-6.21562
749,106,54.9274,6.77893,0.00181879,0.006812,0.0048532,0.00977311,-0.00114232,1.02296,0.00692764,0.0106439,1973,918,54.9274,-6.77891
756,106,54.8474,7.35138,0.00586259,0.00977387,0.0100423,0.0180492,-0.00241272,0.881564,0.0129124,0.0141876,1980,918,54.8474,-7.35139
763,106,54.7151,8.06897,0.0118177,0.0130607,0.017352,0.0298023,-0.0049239,0.803299,0.0216966,0.027865,1987,918,54.7151,-8.06897
770,106,54.6687,8.78937,0.0198612,0.0164983,0.0266412,0.044874,-0.00851446,0.753883,0.033121,0.0493892,1994,918,54.6688,-8.78934
777,106,54.7522,9.44635,0,0,0,0,0,0,0,-1,2001,918,54.7523,-9.44636
784,106,57.4692,8.6532,0.0455171,0.0239075,0.0546022,0.0903733,-0.0209487,0.687719,0.068311,0.0453532,2008,918,57.4693,-8.65319
791,106,58.1304,9.0528,0.0646647,0.0278305,0.0732085,0.121737,-0.029242,0.66217,0.0924599,0.0435435,2015,918,58.1304,-9.05282
798,106,58.7241,8.94031,0.0880217,0.0320301,0.0944196,0.158509,-0.0384567,0.641275,0.120554,0.0465073,2022,918,58.7242,-8.94032
805,106,0,0,0,0,0,0,0,0,0,-1,2029,918,0,0
812,106,0,0,0,0,0,0,0,0,0,-1,2036,918,0,0
-700,99,0,0,0,0,0,0,0,0,0,-1,524,925,0,0
-693,99,0,0,0,0,0,0,0,0,0,-1,531,925,0,0
-686,99,0,0,0,0,0,0,0,0,0,-1,538,925,0,0
-679,99,-48.7447,-1.1261,0.0765103,-0.0628741,-0.0192487,0.0791196,-0.0654834,-0.134739,0.0836102,0.048406,545,925,-48.7447,1.12608
-672,99,-48.4662,-0.952026,0.0676714,-0.0519488,-0.0133736,0.0691484,-0.0534258,-0.109991,0.070962,0.0460319,552,925,-48.4662,0.952024
-665,99,-48.1783,-0.772156,0.0571046,-0.0415555,-0.00917449,0.0579505,-0.0424014,-0.0919405,0.0581695,0.0448058,559,925,-48.1783,0.772174
-658,99,-47.8135,-0.513062,0.0463806,-0.0320612,-0.0059671,0.0468319,-0.0325125,-0.0754916,0.0460575,0.0448554,566,925,-47.8134,0.513056
-651,99,-47.245,-0.165894,0,0,0,0,0,0,0,-1,573,925,-47.245,0.165891
-644,99,-40.8445,6.8147,0,0,0,0,0,0,0,-1,580,925,-40.8445,-6.8147
-637,99,-41.7709,5.95734,0.0182001,-0.0100998,0.00022125,0.0182019,-0.0101016,0.0078174,0.0165626,0.0345856,587,925,-41.7709,-5.95734
-630,99,-41.994,5.32904,0.0113181,-0.00497462,0.00185704,0.0115271,-0.00518361,0.112065,0.00987694,0.0181647,594,925,-41.994,-5.32905
-623,99,-42.1954,4.72418,0.00540799,-0.000749032,0.00299786,0.00662651,-0.00196754,0.386063,0.00519913,0.0123952,601,925,-42.1954,-4.72419
-616,99,-42.208,4.20294,0.000247283,0.00154397,0.00337593,0.00433324,-0.00254199,0.880268,0.00401408,0.0141638,608,925,-42.208,-4.20294
-609,99,-42.1969,3.73041,-0.00286725,0.00227953,0.00320618,0.00381733,-0.00440506,1.12357,0.00475124,0.0122157,615,925,-42.1969,-3.7304
-602,99,-42.1814,3.24695,-0.00378937,0.00183682,0.00255152,0.00282159,-0.00477414,1.20246,0.00443343,0.0170952,622,925,-42.1814,-3.24695
-595,99,-42.2819,2.75818,-0.0040485,0.00128196,0.00190033,0.00189006,-0.0046566,1.26109,0.00389059,0.0232866,629,925,-42.2819,-2.75817
-588,99,-42.2625,2.20972,-0.00413609,0.000804705,0.00145161,0.00119962,-0.00453101,1.30517,0.00348996,0.0260306,636,925,-42.2624,-2.2097
-581,99,-42.2656,1.54755,-0.00416423,0.000473616,0.00120185,0.000766558,-0.00445717,1.33172,0.00325717,0.0228219,643,925,-42.2656,-1.54754
-574,99,-42.4572,0.918884,0,0,0,0,0,0,0,-1,650,925,-42.4571,-0.918908
-567,99,-44.497,0.821106,0,0,0,0,0,0,0,-1,657,925,-44.497,-0.821079
-560,99,-45.7889,0.655151,0,0,0,0,0,0,0,-1,664,925,-45.7889,-0.655129
-553,99,-45.7473,0.931213,-0.00414319,8.88206e-05,0.000283054,0.000107669,-0.00416203,1.50431,0.00281127,0.0387599,671,925,-45.7472,-0.931237
-546,99,-45.7416,0.820862,-0.00415878,0.000355881,0.000212644,0.000365874,-0.00416877,1.52383,0.00290882,0.040664,678,925,-45.7416,-0.820871
-539,99,-45.8115,0.607239,-0.00374618,0.000669019,0.000415309,0.000707745,-0.00378491,1.47782,0.00278928,0.0382755,685,925,-45.8115,-0.607255
-532,99,-45.8445,0.554749,-0.00266282,0.000824209,0.00108936,0.00113655,-0.00297516,1.29157,0.00245173,0.0401071,692,925,-45.8445,-0.554755
-525,99,-45.9266,0.861938,-0.00125085,0.000944069,0.00222508,0.00232761,-0.0026344,1.0145,0.00286664,0.0391744,699,925,-45.9267,-0.861949
-518,99,-45.9341,0.990845,-0.000971448,0.00161685,0.00314909,0.00372734,-0.00308194,0.980358,0.00393722,0.0371233,706,925,-45.9341,-0.990851
-511,99,0,0,0,0,0,0,0,0,0,-1,713,925,0,0
-504,99,0,0,0,0,0,0,0,0,0,-1,720,925,0,0
-497,99,0,0,0,0,0,0,0,0,0,-1,727,925,0,0
-490,99,0,0,0,0,0,0,0,0,0,-1,734,925,0,0
-483,99,0,0,0,0,0,0,0,0,0,-1,741,925,0,0
-476,99,0,0,0,0,0,0,0,0,0,-1,748,925,0,0
-469,99,0,0,0,0,0,0,0,0,0,-1,755,925,0,0
-462,99,0,0,0,0,0,0,0,0,0,-1,762,925,0,0
-455,99,0,0,0,0,0,0,0,0,0,-1,769,925,0,0
-448,99,0,0,0,0,0,0,0,0,0,-1,776,925,0,0
-441,99,0,0,0,0,0,0,0,0,0,-1,783,925,0,0
-434,99,0,0,0,0,0,0,0,0,0,-1,790,925,0,0
-427,99,0,0,0,0,0,0,0,0,0,-1,797,925,0,0
-420,99,0,0,0,0,0,0,0,0,0,-1,804,925,0,0
-413,99,0,0,0,0,0,0,0,0,0,-1,811,925,0,0
-406,99,0,0,0,0,0,0,0,0,0,-1,818,925,0,0
-399,99,0,0,0,0,0,0,0,0,0,-1,825,925,0,0
-392,99,0,0,0,0,0,0,0,0,0,-1,832,925,0,0
-385,99,0,0,0,0,0,0,0,0,0,-1,839,925,0,0
-378,99,0,0,0,0,0,0,0,0,0,-1,846,925,0,0
-371,99,0,0,0,0,0,0,0,0,0,-1,853,925,0,0
-364,99,0,0,0,0,0,0,0,0,0,-1,860,925,0,0
-357,99,0,0,0,0,0,0,0,0,0,-1,867,925,0,0
-350,99,0,0,0,0,0,0,0,0,0,-1,874,925,0,0
-343,99,0,0,0,0,0,0,0,0,0,-1,881,925,0,0
-336,99,0,0,0,0,0,0,0,0,0,-1,888,925,0,0
-329,99,0,0,0,0,0,0,0,0,0,-1,895,925,0,0
-322,99,0,0,0,0,0,0,0,0,0,-1,902,925,0,0
-315,99,0,0,0,0,0,0,0,0,0,-1,909,925,0,0
-308,99,0,0,0,0,0,0,0,0,0,-1,916,925,0,0
-301,99,0,0,0,0,0,0,0,0,0,-1,923,925,0,0
-294,99,0,0,0,0,0,0,0,0,0,-1,930,925,0,0
-287,99,0,0,0,0,0,0,0,0,0,-1,937,925,0,0
-280,99,0,0,0,0,0,0,0,0,0,-1,944,925,0,0
-273,99,0,0,0,0,0,0,0,0,0,-1,951,925,0,0
-266,99,0,0,0,0,0,0,0,0,0,-1,958,925,0,0
-259,99,0,0,0,0,0,0,0,0,0,-1,965,925,0,0
-252,99,0,0,0,0,0,0,0,0,0,-1,972,925,0,0
-245,99,0,0,0,0,0,0,0,0,0,-1,979,925,0,0
-238,99,0,0,0,0,0,0,0,0,0,-1,986,925,0,0
-231,99,0,0,0,0,0,0,0,0,0,-1,993,925,0,0
-224,99,0,0,0,0,0,0,0,0,0,-1,1000,925,0,0
-217,99,0,0,0,0,0,0,0,0,0,-1,1007,925,0,0
-210,99,0,0,0,0,0,0,0,0,0,-1,1014,925,0,0
-203,99,0,0,0,0,0,0,0,0,0,-1,1021,925,0,0
-196,99,0,0,0,0,0,0,0,0,0,-1,1028,925,0,0
-189,99,0,0,0,0,0,0,0,0,0,-1,1035,925,0,0
-182,99,0,0,0,0,0,0,0,0,0,-1,1042,925,0,0
-175,99,0,0,0,0,0,0,0,0,0,-1,1049,925,0,0
-168,99,0,0,0,0,0,0,0,0,0,-1,1056,925,0,0
-161,99,0,0,0,0,0,0,0,0,0,-1,1063,925,0,0
-154,99,0,0,0,0,0,0,0,0,0,-1,1070,925,0,0
-147,99,0,0,0,0,0,0,0,0,0,-1,1077,925,0,0
-140,99,0,0,0,0,0,0,0,0,0,-1,1084,925,0,0
-133,99,0,0,0,0,0,0,0,0,0,-1,1091,925,0,0
-126,99,0,0,0,0,0,0,0,0,0,-1,1098,925,0,0
-119,99,0,0,0,0,0,0,0,0,0,-1,1105,925,0,0
-112,99,0,0,0,0,0,0,0,0,0,-1,1112,925,0,0
-105,99,0,0,0,0,0,0,0,0,0,-1,1119,925,0,0
-98,99,0,0,0,0,0,0,0,0,0,-1,1126,925,0,0
-91,99,0,0,0,0,0,0,0,0,0,-1,1133,925,0,0
-84,99,0,0,0,0,0,0,0,0,0,-1,1140,925,0,0
-77,99,0,0,0,0,0,0,0,0,0,-1,1147,925,0,0
-70,99,0,0,0,0,0,0,0,0,0,-1,1154,925,0,0
-63,99,0,0,0,0,0,0,0,0,0,-1,1161,925,0,0
-56,99,0,0,0,0,0,0,0,0,0,-1,1168,925,0,0
-49,99,0,0,0,0,0,0,0,0,0,-1,1175,925,0,0
-42,99,0,0,0,0,0,0,0,0,0,-1,1182,925,0,0
-35,99,0,0,0,0,0,0,0,0,0,-1,1189,925,0,0
-28,99,0,0,0,0,0,0,0,0,0,-1,1196,925,0,0
-21,99,0,0,0,0,0,0,0,0,0,-1,1203,925,0,0
-14,99,0,0,0,0,0,0,0,0,0,-1,1210,925,0,0
-7,99,0,0,0,0,0,0,0,0,0,-1,1217,925,0,0
0,99,0,0,0,0,0,0,0,0,0,-1,1224,925,0,0
7,99,0,0,0,0,0,0,0,0,0,-1,1231,925,0,0
14,99,0,0,0,0,0,0,0,0,0,-1,1238,925,0,0
21,99,0,0,0,0,0,0,0,0,0,-1,1245,925,0,0
28,99,0,0,0,0,0,0,0,0,0,-1,1252,925,0,0
35,99,0,0,0,0,0,0,0,0,0,-1,1259,925,0,0
42,99,0,0,0,0,0,0,0,0,0,-1,1266,925,0,0
49,99,0,0,0,0,0,0,0,0,0,-1,1273,925,0,0
56,99,0,0,0,0,0,0,0,0,0,-1,1280,925,0,0
63,99,0,0,0,0,0,0,0,0,0,-1,1287,925,0,0
70,99,0,0,0,0,0,0,0,0,0,-1,1294,925,0,0
77,99,0,0,0,0,0,0,0,0,0,-1,1301,925,0,0
84,99,0,0,0,0,0,0,0,0,0,-1,1308,925,0,0
91,99,0,0,0,0,0,0,0,0,0,-1,1315,925,0,0
98,99,0,0,0,0,0,0,0,0,0,-1,1322,925,0,0
105,99,0,0,0,0,0,0,0,0,0,-1,1329,925,0,0
112,99,0,0,0,0,0,0,0,0,0,-1,1336,925,0,0
119,99,0,0,0,0,0,0,0,0,0,-1,1343,925,0,0
126,99,0,0,0,0,0,0,0,0,0,-1,1350,925,0,0
133,99,0,0,0,0,0,0,0,0,0,-1,1357,925,0,0
140,99,0,0,0,0,0,0,0,0,0,-1,1364,925,0,0
147,99,0,0,0,0,0,0,0,0,0,-1,1371,925,0,0
154,99,0,0,0,0,0,0,0,0,0,-1,1378,925,0,0
161,99,0,0,0,0,0,0,0,0,0,-1,1385,925,0,0
168,99,0,0,0,0,0,0,0,0,0,-1,1392,925,0,0
175,99,0,0,0,0,0,0,0,0,0,-1,1399,925,0,0
182,99,0,0,0,0,0,0,0,0,0,-1,1406,925,0,0
189,99,0,0,0,0,0,0,0,0,0,-1,1413,925,0,0
196,99,0,0,0,0,0,0,0,0,0,-1,1420,925,0,0
203,99,0,0,0,0,0,0,0,0,0,-1,1427,925,0,0
210,99,0,0,0,0,0,0,0,0,0,-1,1434,925,0,0
217,99,0,0,0,0,0,0,0,0,0,-1,1441,925,0,0
224,99,0,0,0,0,0,0,0,0,0,-1,1448,925,0,0
231,99,0,0,0,0,0,0,0,0,0,-1,1455,925,0,0
238,99,0,0,0,0,0,0,0,0,0,-1,1462,925,0,0
245,99,0,0,0,0,0,0,0,0,0,-1,1469,925,0,0
252,99,0,0,0,0,0,0,0,0,0,-1,1476,925,0,0
259,99,0,0,0,0,0,0,0,0,0,-1,1483,925,0,0
266,99,0,0,0,0,0,0,0,0,0,-1,1490,925,0,0
273,99,0,0,0,0,0,0,0,0,0,-1,1497,925,0,0
280,99,0,0,0,0,0,0,0,0,0,-1,1504,925,0,0
287,99,0,0,0,0,0,0,0,0,0,-1,1511,925,0,0
294,99,0,0,0,0,0,0,0,0,0,-1,1518,925,0,0
301,99,0,0,0,0,0,0,0,0,0,-1,1525,925,0,0
308,99,0,0,0,0,0,0,0,0,0,-1,1532,925,0,0
315,99,0,0,0,0,0,0,0,0,0,-1,1539,925,0,0
322,99,0,0,0,0,0,0,0,0,0,-1,1546,925,0,0
329,99,0,0,0,0,0,0,0,0,0,-1,1553,925,0,0
336,99,0,0,0,0,0,0,0,0,0,-1,1560,925,0,0
343,99,0,0,0,0,0,0,0,0,0,-1,1567,925,0,0
350,99,0,0,0,0,0,0,0,0,0,-1,1574,925,0,0
357,99,0,0,0,0,0,0,0,0,0,-1,1581,925,0,0
364,99,0,0,0,0,0,0,0,0,0,-1,1588,925,0,0
371,99,0,0,0,0,0,0,0,0,0,-1,1595,925,0,0
378,99,0,0,0,0,0,0,0,0,0,-1,1602,925,0,0
385,99,0,0,0,0,0,0,0,0,0,-1,1609,925,0,0
392,99,0,0,0,0,0,0,0,0,0,-1,1616,925,0,0
399,99,0,0,0,0,0,0,0,0,0,-1,1623,925,0,0
406,99,0,0,0,0,0,0,0,0,0,-1,1630,925,0,0
413,99,0,0,0,0,0,0,0,0,0,-1,1637,925,0,0
420,99,0,0,0,0,0,0,0,0,0,-1,1644,925,0,0
427,99,0,0,0,0,0,0,0,0,0,-1,1651,925,0,0
434,99,0,0,0,0,0,0,0,0,0,-1,1658,925,0,0
441,99,0,0,0,0,0,0,0,0,0,-1,1665,925,0,0
448,99,0,0,0,0,0,0,0,0,0,-1,1672,925,0,0
455,99,0,0,0,0,0,0,0,0,0,-1,1679,925,0,0
462,99,0,0,0,0,0,0,0,0,0,-1,1686,925,0,0
469,99,0,0,0,0,0,0,0,0,0,-1,1693,925,0,0
476,99,0,0,0,0,0,0,0,0,0,-1,1700,925,0,0
483,99,0,0,0,0,0,0,0,0,0,-1,1707,925,0,0
490,99,0,0,0,0,0,0,0,0,0,-1,1714,925,0,0
497,99,0,0,0,0,0,0,0,0,0,-1,1721,925,0,0
504,99,0,0,0,0,0,0,0,0,0,-1,1728,925,0,0
511,99,0,0,0,0,0,0,0,0,0,-1,1735,925,0,0
518,99,0,0,0,0,0,0,0,0,0,-1,1742,925,0,0
525,99,0,0,0,0,0,0,0,0,0,-1,1749,925,0,0
532,99,0,0,0,0,0,0,0,0,0,-1,1756,925,0,0
539,99,0,0,0,0,0,0,0,0,0,-1,1763,925,0,0
546,99,0,0,0,0,0,0,0,0,0,-1,1770,925,0,0
553,99,0,0,0,0,0,0,0,0,0,-1,1777,925,0,0
560,99,0,0,0,0,0,0,0,0,0,-1,1784,925,0,0
567,99,0,0,0,0,0,0,0,0,0,-1,1791,925,0,0
574,99,0,0,0,0,0,0,0,0,0,-1,1798,925,0,0
581,99,0,0,0,0,0,0,0,0,0,-1,1805,925,0,0
588,99,0,0,0,0,0,0,0,0,0,-1,1812,925,0,0
595,99,0,0,0,0,0,0,0,0,0,-1,1819,925,0,0
602,99,0,0,0,0,0,0,0,0,0,-1,1826,925,0,0
609,99,0,0,0,0,0,0,0,0,0,-1,1833,925,0,0
616,99,0,0,0,0,0,0,0,0,0,-1,1840,925,0,0
623,99,0,0,0,0,0,0,0,0,0,-1,1847,925,0,0
630,99,0,0,0,0,0,0,0,0,0,-1,1854,925,0,0
637,99,60.4302,2.68994,0.00138915,0.00560856,-0.000379854,0.00564248,0.00135522,-1.48173,0.00340114,0.0460523,1861,925,60.4302,-2.68993
644,99,60.4225,2.76868,0.00133906,0.0044729,-0.000697287,0.00462105,0.00119092,-1.36145,0.0027704,0.0405207,1868,925,60.4224,-2.76868
651,99,60.4655,2.7851,0.000958382,0.00372879,-0.000564996,0.00383959,0.000847588,-1.37716,0.00232918,0.0388814,1875,925,60.4655,-2.7851
658,99,60.4058,2.66571,0.000430389,0.00329853,-7.538e-05,0.00330051,0.00042841,-1.54454,0.00207235,0.0404372,1882,925,60.4058,-2.66569
665,99,60.3431,2.60437,3.79092e-05,0.00313054,0.00066474,0.00326737,-9.89183e-05,1.3678,0.00221196,0.0387865,1889,925,60.3431,-2.60435
672,99,60.3936,2.68286,-0.000432305,0.00282055,0.00129632,0.00327396,-0.000885713,1.23433,0.00253009,0.0369188,1896,925,60.3935,-2.68287
679,99,60.3966,2.68848,-0.000710382,0.00240588,0.00167396,0.00313465,-0.00143915,1.16019,0.00270049,0.0361157,1903,925,60.3966,-2.6885
686,99,60.3149,2.61884,-0.000738298,0.00185475,0.00171862,0.00271105,-0.0015946,1.10855,0.00251357,0.0302822,1910,925,60.315,-2.61881
693,99,60.2906,2.77191,-0.000957371,0.00157958,0.00154619,0.00231104,-0.00168883,1.12892,0.00231862,0.0336723,1917,925,60.2907,-2.77192
700,99,60.2041,3.10974,0,0,0,0,0,0,0,-1,1924,925,60.2042,-3.10972
707,99,47.9915,3.27429,0,0,0,0,0,0,0,-1,1931,925,47.9914,-3.27427
714,99,55.4539,3.68011,0,0,0,0,0,0,0,-1,1938,925,55.4538,-3.68014
721,99,55.6616,4.44995,-0.00239621,0.00227554,0.000471344,0.00232262,-0.00244329,1.47124,0.0027519,0.0358548,1945,925,55.6617,-4.44997
728,99,55.6974,5.08099,-0.00268873,0.00243799,0.000261233,0.00245127,-0.00270201,1.52002,0.00297642,0.0287863,1952,925,55.6974,-5.08097
735,99,55.6527,5.67578,-0.00220496,0.00304555,0.000746951,0.00314975,-0.00230916,1.4322,0.00316413,0.02332,1959,925,55.6527,-5.67578
742,99,55.5807,6.22272,-0.00119645,0.00452891,0.00185334,0.00507648,-0.00174402,1.28352,0.00409149,0.0149524,1966,925,55.5807,-6.22275
749,99,55.5088,6.75653,0.000776792,0.0065977,0.00430094,0.0088804,-0.00150591,1.08286,0.00648082,0.0132474,1973,925,55.5088,-6.75653
756,99,55.4614,7.26605,0.00430097,0.00933958,0.00899648,0.0161628,-0.00252229,0.921918,0.0117069,0.0142133,1980,925,55.4614,-7.26607
763,99,55.4547,7.81952,0.0096001,0.0124208,0.0158403,0.0269134,-0.00489255,0.829799,0.0197759,0.0180543,1987,925,55.4548,-7.81953
770,99,55.6982,8.33502,0.0167422,0.0155666,0.0245479,0.0407093,-0.00840052,0.773428,0.03033,0.032261,1994,925,55.6983,-8.335
777,99,56.2981,8.43079,0.0262873,0.0187705,0.035936,0.058661,-0.0136031,0.733294,0.0443427,0.0415458,2001,925,56.2981,-8.4308
784,99,56.7585,8.79407,0.039319,0.0219123,0.05056,0.0819192,-0.0206879,0.700164,0.0626578,0.0460635,2008,925,56.7587,-8.79405
791,99,57.217,9.19434,0,0,0,0,0,0,0,-1,2015,925,57.217,-9.19432
798,99,58.3254,8.74707,0,0,0,0,0,0,0,-1,2022,925,58.3256,-8.7471
805,99,0,0,0,0,0,0,0,0,0,-1,2029,925,0,0
812,99,0,0,0,0,0,0,0,0,0,-1,2036,925,0,0
-700,92,0,0,0,0,0,0,0,0,0,-1,524,932,0,0
-693,92,0,0,0,0,0,0,0,0,0,-1,531,932,0,0
-686,92,-48.1857,-0.879883,0.0793388,-0.0721996,-0.0323273,0.0859469,-0.0788078,-0.201636,0.0951509,0.0450443,538,932,-48.1857,0.879868
-679,92,-47.9721,-0.680298,0.0722954,-0.0607354,-0.0245079,0.0766668,-0.0651068,-0.17651,0.0819437,0.0454049,545,932,-47.9721,0.680328
-672,92,-47.7079,-0.545288,0.0620532,-0.0493383,-0.0183659,0.0650032,-0.0522883,-0.159263,0.0678507,0.0435316,552,932,-47.7078,0.5453
-665,92,-47.7245,-0.270813,0.0512425,-0.0387308,-0.0134535,0.0532111,-0.0406994,-0.145295,0.0543794,0.0468595,559,932,-47.7244,0.27082
-658,92,-47.3833,-0.0600586,0,0,0,0,0,0,0,-1,566,932,-47.3833,0.060087
-651,92,-42.8937,5.92615,0,0,0,0,0,0,0,-1,573,932,-42.8937,-5.92613
-644,92,-42.7623,5.75665,0.0223764,-0.0135914,-0.00326626,0.0226706,-0.0138856,-0.0898313,0.021308,0.0423769,580,932,-42.7623,-5.75666
-637,92,-42.5896,5.61761,0.0148999,-0.00793547,-0.00103614,0.0149468,-0.00798239,-0.0452504,0.0134402,0.0288612,587,932,-42.5896,-5.6176
-630,92,-42.6129,5.17017,0.00882578,-0.00318886,0.000990509,0.00890689,-0.00326998,0.0817067,0.00727708,0.0150575,594,932,-42.6129,-5.17018
-623,92,-42.7146,4.71991,0.00352856,0.000646052,0.00236542,0.00485722,-0.000682606,0.511782,0.00348802,0.0102071,601,932,-42.7146,-4.71992
-616,92,-42.7382,4.24426,-0.000734292,0.00248837,0.0028782,0.00417559,-0.00242151,1.04058,0.00385345,0.00967714,608,932,-42.7382,-4.24429
-609,92,-42.774,3.75885,-0.00305894,0.00278032,0.00262731,0.00378841,-0.00406703,1.20442,0.00453629,0.00954735,615,932,-42.7741,-3.75888
-602,92,-42.7432,3.25366,-0.00368181,0.00225889,0.00184373,0.00278458,-0.0042075,1.29304,0.00406465,0.011402,622,932,-42.7432,-3.25369
-595,92,-42.6331,2.68219,-0.00384551,0.00169183,0.00115968,0.00192489,-0.00407857,1.37247,0.00353966,0.0237931,629,932,-42.6331,-2.68222
-588,92,-42.6407,2.21985,-0.00401715,0.00113526,0.000681996,0.001224,-0.00410589,1.4414,0.00322367,0.0303126,636,932,-42.6407,-2.21987
-581,92,-43.1544,1.6618,-0.00411144,0.000705753,0.000394558,0.000737856,-0.00414354,1.48961,0.00303833,0.0376119,643,932,-43.1543,-1.66182
-574,92,-43.7419,1.00671,0,0,0,0,0,0,0,-1,650,932,-43.742,-1.0067
-567,92,-45.7006,0.846741,0,0,0,0,0,0,0,-1,657,932,-45.7006,-0.846725
-560,92,-45.6683,0.640991,-0.00422974,0.000228689,-0.000334064,0.000253581,-0.00425463,-1.49642,0.00292461,0.0416918,664,932,-45.6683,-0.640965
-553,92,-45.8186,0.715576,-0.00437196,0.000405397,-0.000455739,0.000448484,-0.00441504,-1.47653,0.00310368,0.04034,671,932,-45.8186,-0.715562
-546,92,-45.7635,0.582031,-0.00428969,0.000654079,-0.000357947,0.000679862,-0.00431547,-1.49889,0.00312833,0.0401559,678,932,-45.7635,-0.582044
-539,92,-45.7795,0.51825,-0.00370223,0.000876639,7.57156e-05,0.00087789,-0.00370348,1.55427,0.00280775,0.0381148,685,932,-45.7795,-0.51824
-532,92,-45.9167,0.637207,-0.00235925,0.000788589,0.000997305,0.00107796,-0.00264862,1.2884,0.00221432,0.0423912,692,932,-45.9167,-0.637192
-525,92,-45.8964,0.883423,-0.000656477,0.00086474,0.00204552,0.00228649,-0.00207823,0.963397,0.00252092,0.0389471,699,932,-45.8964,-0.883441
-518,92,-45.7362,1.04504,-0.000417674,0.00158921,0.00278305,0.00354419,-0.00237265,0.958422,0.00343834,0.0366795,706,932,-45.7362,-1.04506
-511,92,0,0,0,0,0,0,0,0,0,-1,713,932,0,0
-504,92,0,0,0,0,0,0,0,0,0,-1,720,932,0,0
-497,92,0,0,0,0,0,0,0,0,0,-1,727,932,0,0
-490,92,0,0,0,0,0,0,0,0,0,-1,734,932,0,0
-483,92,0,0,0,0,0,0,0,0,0,-1,741,932,0,0
-476,92,0,0,0,0,0,0,0,0,0,-1,748,932,0,0
-469,92,0,0,0,0,0,0,0,0,0,-1,755,932,0,0
-462,92,0,0,0,0,0,0,0,0,0,-1,762,932,0,0
-455,92,0,0,0,0,0,0,0,0,0,-1,769,932,0,0
-448,92,0,0,0,0,0,0,0,0,0,-1,776,932,0,0
-441,92,0,0,0,0,0,0,0,0,0,-1,783,932,0,0
-434,92,0,0,0,0,0,0,0,0,0,-1,790,932,0,0
-427,92,0,0,0,0,0,0,0,0,0,-1,797,932,0,0
-420,92,0,0,0,0,0,0,0,0,0,-1,804,932,0,0
-413,92,0,0,0,0,0,0,0,0,0,-1,811,932,0,0
-406,92,0,0,0,0,0,0,0,0,0,-1,818,932,0,0
-399,92,0,0,0,0,0,0,0,0,0,-1,825,932,0,0
-392,92,0,0,0,0,0,0,0,0,0,-1,832,932,0,0
-385,92,0,0,0,0,0,0,0,0,0,-1,839,932,0,0
-378,92,0,0,0,0,0,0,0,0,0,-1,846,932,0,0
-371,92,0,0,0,0,0,0,0,0,0,-1,853,932,0,0
-364,92,0,0,0,0,0,0,0,0,0,-1,860,932,0,0
-357,92,0,0,0,0,0,0,0,0,0,-1,867,932,0,0
-350,92,0,0,0,0,0,0,0,0,0,-1,874,932,0,0
-343,92,0,0,0,0,0,0,0,0,0,-1,881,932,0,0
-336,92,0,0,0,0,0,0,0,0,0,-1,888,932,0,0
-329,92,0,0,0,0,0,0,0,0,0,-1,895,932,0,0
-322,92,0,0,0,0,0,0,0,0,0,-1,902,932,0,0
-315,92,0,0,0,0,0,0,0,0,0,-1,909,932,0,0
-308,92,0,0,0,0,0,0,0,0,0,-1,916,932,0,0
-301,92,0,0,0,0,0,0,0,0,0,-1,923,932,0,0
-294,92,0,0,0,0,0,0,0,0,0,-1,930,932,0,0
-287,92,0,0,0,0,0,0,0,0,0,-1,937,932,0,0
-280,92,0,0,0,0,0,0,0,0,0,-1,944,932,0,0
-273,92,0,0,0,0,0,0,0,0,0,-1,951,932,0,0
-266,92,0,0,0,0,0,0,0,0,0,-1,958,932,0,0
-259,92,0,0,0,0,0,0,0,0,0,-1,965,932,0,0
-252,92,0,0,0,0,0,0,0,0,0,-1,972,932,0,0
-245,92,0,0,0,0,0,0,0,0,0,-1,979,932,0,0
-238,92,0,0,0,0,0,0,0,0,0,-1,986,932,0,0
-231,92,0,0,0,0,0,0,0,0,0,-1,993,932,0,0
-224,92,0,0,0,0,0,0,0,0,0,-1,1000,932,0,0
-217,92,0,0,0,0,0,0,0,0,0,-1,1007,932,0,0
-210,92,0,0,0,0,0,0,0,0,0,-1,1014,932,0,0
-203,92,0,0,0,0,0,0,0,0,0,-1,1021,932,0,0
-196,92,0,0,0,0,0,0,0,0,0,-1,1028,932,0,0
-189,92,0,0,0,0,0,0,0,0,0,-1,1035,932,0,0
-182,92,0,0,0,0,0,0,0,0,0,-1,1042,932,0,0
-175,92,0,0,0,0,0,0,0,0,0,-1,1049,932,0,0
-168,92,0,0,0,0,0,0,0,0,0,-1,1056,932,0,0
-161,92,0,0,0,0,0,0,0,0,0,-1,1063,932,0,0
-154,92,0,0,0,0,0,0,0,0,0,-1,1070,932,0,0
-147,92,0,0,0,0,0,0,0,0,0,-1,1077,932,0,0
-140,92,0,0,0,0,0,0,0,0,0,-1,1084,932,0,0
-133,92,0,0,0,0,0,0,0,0,0,-1,1091,932,0,0
-126,92,0,0,0,0,0,0,0,0,0,-1,1098,932,0,0
-119,92,0,0,0,0,0,0,0,0,0,-1,1105,932,0,0
-112,92,0,0,0,0,0,0,0,0,0,-1,1112,932,0,0
-105,92,0,0,0,0,0,0,0,0,0,-1,1119,932,0,0
-98,92,0,0,0,0,0,0,0,0,0,-1,1126,932,0,0
-91,92,0,0,0,0,0,0,0,0,0,-1,1133,932,0,0
-84,92,0,0,0,0,0,0,0,0,0,-1,1140,932,0,0
-77,92,0,0,0,0,0,0,0,0,0,-1,1147,932,0,0
-70,92,0,0,0,0,0,0,0,0,0,-1,1154,932,0,0
-63,92,0,0,0,0,0,0,0,0,0,-1,1161,932,0,0
-56,92,0,0,0,0,0,0,0,0,0,-1,1168,932,0,0
-49,92,0,0,0,0,0,0,0,0,0,-1,1175,932,0,0
-42,92,0,0,0,0,0,0,0,0,0,-1,1182,932,0,0
-35,92,0,0,0,0,0,0,0,0,0,-1,1189,932,0,0
-28,92,0,0,0,0,0,0,0,0,0,-1,1196,932,0,0
-21,92,0,0,0,0,0,0,0,0,0,-1,1203,932,0,0
-14,92,0,0,0,0,0,0,0,0,0,-1,1210,932,0,0
-7,92,0,0,0,0,0,0,0,0,0,-1,1217,932,0,0
0,92,0,0,0,0,0,0,0,0,0,-1,1224,932,0,0
7,92,0,0,0,0,0,0,0,0,0,-1,1231,932,0,0
14,92,0,0,0,0,0,0,0,0,0,-1,1238,932,0,0
21,92,0,0,0,0,0,0,0,0,0,-1,1245,932,0,0
28,92,0,0,0,0,0,0,0,0,0,-1,1252,932,0,0
35,92,0,0,0,0,0,0,0,0,0,-1,1259,932,0,0
42,92,0,0,0,0,0,0,0,0,0,-1,1266,932,0,0
49,92,0,0,0,0,0,0,0,0,0,-1,1273,932,0,0
56,92,0,0,0,0,0,0,0,0,0,-1,1280,932,0,0
63,92,0,0,0,0,0,0,0,0,0,-1,1287,932,0,0
70,92,0,0,0,0,0,0,0,0,0,-1,1294,932,0,0
77,92,0,0,0,0,0,0,0,0,0,-1,1301,932,0,0
84,92,0,0,0,0,0,0,0,0,0,-1,1308,932,0,0
91,92,0,0,0,0,0,0,0,0,0,-1,1315,932,0,0
98,92,0,0,0,0,0,0,0,0,0,-1,1322,932,0,0
105,92,0,0,0,0,0,0,0,0,0,-1,1329,932,0,0
112,92,0,0,0,0,0,0,0,0,0,-1,1336,932,0,0
119,92,0,0,0,0,0,0,0,0,0,-1,1343,932,0,0
126,92,0,0,0,0,0,0,0,0,0,-1,1350,932,0,0
133,92,0,0,0,0,0,0,0,0,0,-1,1357,932,0,0
140,92,0,0,0,0,0,0,0,0,0,-1,1364,932,0,0
147,92,0,0,0,0,0,0,0,0,0,-1,1371,932,0,0
154,92,0,0,0,0,0,0,0,0,0,-1,1378,932,0,0
161,92,0,0,0,0,0,0,0,0,0,-1,1385,932,0,0
168,92,0,0,0,0,0,0,0,0,0,-1,1392,932,0,0
175,92,0,0,0,0,0,0,0,0,0,-1,1399,932,0,0
182,92,0,0,0,0,0,0,0,0,0,-1,1406,932,0,0
189,92,0,0,0,0,0,0,0,0,0,-1,1413,932,0,0
196,92,0,0,0,0,0,0,0,0,0,-1,1420,932,0,0
203,92,0,0,0,0,0,0,0,0,0,-1,1427,932,0,0
210,92,0,0,0,0,0,0,0,0,0,-1,1434,932,0,0
217,92,0,0,0,0,0,0,0,0,0,-1,1441,932,0,0
224,92,0,0,0,0,0,0,0,0,0,-1,1448,932,0,0
231,92,0,0,0,0,0,0,0,0,0,-1,1455,932,0,0
238,92,0,0,0,0,0,0,0,0,0,-1,1462,932,0,0
245,92,0,0,0,0,0,0,0,0,0,-1,1469,932,0,0
252,92,0,0,0,0,0,0,0,0,0,-1,1476,932,0,0
259,92,0,0,0,0,0,0,0,0,0,-1,1483,932,0,0
266,92,0,0,0,0,0,0,0,0,0,-1,1490,932,0,0
273,92,0,0,0,0,0,0,0,0,0,-1,1497,932,0,0
280,92,0,0,0,0,0,0,0,0,0,-1,1504,932,0,0
287,92,0,0,0,0,0,0,0,0,0,-1,1511,932,0,0
294,92,0,0,0,0,0,0,0,0,0,-1,1518,932,0,0
301,92,0,0,0,0,0,0,0,0,0,-1,1525,932,0,0
308,92,0,0,0,0,0,0,0,0,0,-1,1532,932,0,0
315,92,0,0,0,0,0,0,0,0,0,-1,1539,932,0,0
322,92,0,0,0,0,0,0,0,0,0,-1,1546,932,0,0
329,92,0,0,0,0,0,0,0,0,0,-1,1553,932,0,0
336,92,0,0,0,0,0,0,0,0,0,-1,1560,932,0,0
343,92,0,0,0,0,0,0,0,0,0,-1,1567,932,0,0
350,92,0,0,0,0,0,0,0,0,0,-1,1574,932,0,0
357,92,0,0,0,0,0,0,0,0,0,-1,1581,932,0,0
364,92,0,0,0,0,0,0,0,0,0,-1,1588,932,0,0
371,92,0,0,0,0,0,0,0,0,0,-1,1595,932,0,0
378,92,0,0,0,0,0,0,0,0,0,-1,1602,932,0,0
385,92,0,0,0,0,0,0,0,0,0,-1,1609,932,0,0
392,92,0,0,0,0,0,0,0,0,0,-1,1616,932,0,0
399,92,0,0,0,0,0,0,0,0,0,-1,1623,932,0,0
406,92,0,0,0,0,0,0,0,0,0,-1,1630,932,0,0
413,92,0,0,0,0,0,0,0,0,0,-1,1637,932,0,0
420,92,0,0,0,0,0,0,0,0,0,-1,1644,932,0,0
427,92,0,0,0,0,0,0,0,0,0,-1,1651,932,0,0
434,92,0,0,0,0,0,0,0,0,0,-1,1658,932,0,0
441,92,0,0,0,0,0,0,0,0,0,-1,1665,932,0,0
448,92,0,0,0,0,0,0,0,0,0,-1,1672,932,0,0
455,92,0,0,0,0,0,0,0,0,0,-1,1679,932,0,0
462,92,0,0,0,0,0,0,0,0,0,-1,1686,932,0,0
469,92,0,0,0,0,0,0,0,0,0,-1,1693,932,0,0
476,92,0,0,0,0,0,0,0,0,0,-1,1700,932,0,0
483,92,0,0,0,0,0,0,0,0,0,-1,1707,932,0,0
490,92,0,0,0,0,0,0,0,0,0,-1,1714,932,0,0
497,92,0,0,0,0,0,0,0,0,0,-1,1721,932,0,0
504,92,0,0,0,0,0,0,0,0,0,-1,1728,932,0,0
511,92,0,0,0,0,0,0,0,0,0,-1,1735,932,0,0
518,92,0,0,0,0,0,0,0,0,0,-1,1742,932,0,0
525,92,0,0,0,0,0,0,0,0,0,-1,1749,932,0,0
532,92,0,0,0,0,0,0,0,0,0,-1,1756,932,0,0
539,92,0,0,0,0,0,0,0,0,0,-1,1763,932,0,0
546,92,0,0,0,0,0,0,0,0,0,-1,1770,932,0,0
553,92,0,0,0,0,0,0,0,0,0,-1,1777,932,0,0
560,92,0,0,0,0,0,0,0,0,0,-1,1784,932,0,0
567,92,0,0,0,0,0,0,0,0,0,-1,1791,932,0,0
574,92,0,0,0,0,0,0,0,0,0,-1,1798,932,0,0
581,92,0,0,0,0,0,0,0,0,0,-1,1805,932,0,0
588,92,0,0,0,0,0,0,0,0,0,-1,1812,932,0,0
595,92,0,0,0,0,0,0,0,0,0,-1,1819,932,0,0
602,92,0,0,0,0,0,0,0,0,0,-1,1826,932,0,0
609,92,0,0,0,0,0,0,0,0,0,-1,1833,932,0,0
616,92,0,0,0,0,0,0,0,0,0,-1,1840,932,0,0
623,92,0,0,0,0,0,0,0,0,0,-1,1847,932,0,0
630,92,0,0,0,0,0,0,0,0,0,-1,1854,932,0,0
637,92,60.4613,2.59705,0.00296363,0.00593087,-0.000525231,0.0060211,0.0028734,-1.40067,0.00347749,0.0446324,1861,932,60.4613,-2.59702
644,92,60.4537,2.56854,0.00247833,0.00460767,-0.000717901,0.00482709,0.0022589,-1.27416,0.00278883,0.0380612,1868,932,60.4537,-2.56855
651,92,60.6042,2.47394,0.00178939,0.00377688,-0.000520898,0.00390513,0.00166114,-1.3294,0.00226298,0.0390924,1875,932,60.6043,-2.47394
658,92,60.412,2.59045,0.000987068,0.00336014,2.12918e-05,0.00336033,0.000986877,1.56183,0.00199438,0.0440796,1882,932,60.4119,-2.59046
665,92,60.3832,2.46643,0.000341492,0.00323184,0.000823156,0.00344983,0.000123502,1.31192,0.00225984,0.043227,1889,932,60.3832,-2.4664
672,92,60.4442,2.46747,-0.000325889,0.00298532,0.00156594,0.00360857,-0.000949141,1.19201,0.0027767,0.0400297,1896,932,60.4442,-2.46745
679,92,60.3748,2.54736,-0.000748299,0.00257624,0.00205927,0.00356042,-0.00173248,1.12496,0.00311601,0.0380346,1903,932,60.3747,-2.54733
686,92,60.2867,2.56714,-0.000831656,0.00201635,0.00215175,0.00317263,-0.00198793,1.07771,0.0030055,0.0308218,1910,932,60.2868,-2.56713
693,92,60.3275,2.68683,-0.00107833,0.0016964,0.00196197,0.00271197,-0.0020939,1.09315,0.00278231,0.028484,1917,932,60.3275,-2.68684
700,92,60.334,2.78937,0,0,0,0,0,0,0,-1,1924,932,60.334,-2.78936
707,92,32.9893,3.26874,0,0,0,0,0,0,0,-1,1931,932,32.9893,-3.26874
714,92,56.6316,3.9632,0,0,0,0,0,0,0,-1,1938,932,56.6315,-3.96322
721,92,56.4406,4.64899,-0.00264055,0.00241349,0.000724898,0.00251541,-0.00274247,1.43112,0.00303658,0.0370726,1945,932,56.4405,-4.64896
728,92,56.2269,5.21899,-0.00292411,0.00262304,0.000547653,0.00267659,-0.00297767,1.47332,0.00326603,0.0280567,1952,932,56.2269,-5.21901
735,92,56.2084,5.72229,-0.00249793,0.00322759,0.000967936,0.0033868,-0.00265714,1.40777,0.00349793,0.0214204,1959,932,56.2084,-5.72228
742,92,56.2041,6.21631,-0.00175146,0.00463019,0.00186138,0.00513342,-0.0022547,1.30675,0.00437214,0.0209512,1966,932,56.2041,-6.21632
749,92,56.1257,6.73389,-0.000278398,0.00659235,0.00390507,0.00835807,-0.00204411,1.14615,0.0063638,0.01871,1973,932,56.1257,-6.73386
756,92,56.0427,7.22095,0.00252656,0.00925761,0.00805622,0.014623,-0.00283886,0.983257,0.0108198,0.0160591,1980,932,56.0427,-7.22097
763,92,56.0391,7.73828,0.00693061,0.0123129,0.01437,0.0242416,-0.00499811,0.877963,0.0180592,0.0182817,1987,932,56.0391,-7.7383
770,92,56.0498,8.29205,0.0129378,0.0154155,0.0224679,0.0366787,-0.00832534,0.812939,0.0276486,0.0281313,1994,932,56.0499,-8.29207
777,92,56.1641,8.80212,0.0208832,0.0185095,0.0329358,0.0526536,-0.0132608,0.767388,0.0402574,0.0458886,2001,932,56.1641,-8.80213
784,92,55.8704,9.77289,0.0319578,0.0214565,0.0465561,0.0735583,-0.0201441,0.729245,0.0569537,0.0482208,2008,932,55.8703,-9.77288
791,92,55.8528,10.6884,0,0,0,0,0,0,0,-1,2015,932,55.8527,-10.6884
798,92,55.7913,11.4949,0,0,0,0,0,0,0,-1,2022,932,55.7913,-11.4949
805,92,0,0,0,0,0,0,0,0,0,-1,2029,932,0,0
812,92,0,0,0,0,0,0,0,0,0,-1,2036,932,0,0
-700,85,0,0,0,0,0,0,0,0,0,-1,524,939,0,0
-693,85,0,0,0,0,0,0,0,0,0,-1,531,939,0,0
-686,85,-47.1743,-0.390259,0.0811804,-0.0696539,-0.0349739,0.0888952,-0.0773687,-0.217111,0.0960694,0.0452885,538,939,-47.1743,0.390271
-679,85,-47.0069,-0.0800781,0.070066,-0.0573536,-0.0279919,0.0759442,-0.0632318,-0.206988,0.0804649,0.0426743,545,939,-47.0069,0.0800887
-672,85,-47.6981,0.380066,0,0,0,0,0,0,0,-1,552,939,-47.698,-0.38008
-665,85,-47.1371,0.25824,0,0,0,0,0,0,0,-1,559,939,-47.1371,-0.25827
-658,85,-46.1853,0.257019,0,0,0,0,0,0,0,-1,566,939,-46.1853,-0.257012
-651,85,-42.674,6.02496,0,0,0,0,0,0,0,-1,573,939,-42.674,-6.02496
-644,85,-43.0271,5.69061,0.0184567,-0.0103421,-0.00476781,0.0192255,-0.0111109,-0.159875,0.0177224,0.035892,580,939,-43.0271,-5.69059
-637,85,-43.0782,5.52722,0.0117585,-0.00518554,-0.00209986,0.0120148,-0.00544189,-0.121481,0.010314,0.0229179,587,939,-43.0783,-5.52722
-630,85,-43.1667,5.08228,0.00636448,-0.000915564,0.000158206,0.00636791,-0.000919001,0.0217178,0.00458243,0.0140775,594,939,-43.1667,-5.08229
-623,85,-43.2441,4.65198,0.00162731,0.00242641,0.00165266,0.00372713,0.000326582,0.904003,0.00238336,0.0102848,601,939,-43.2441,-4.65198
-616,85,-43.2755,4.22083,-0.00174751,0.00372131,0.00217976,0.0044838,-0.00251001,1.23429,0.00409113,0.0105933,608,939,-43.2754,-4.2208
-609,85,-43.3147,3.73761,-0.00333634,0.00355644,0.00181837,0.00400673,-0.00378662,1.32805,0.00450009,0.0128718,615,939,-43.3147,-3.73763
-602,85,-43.3098,3.26666,-0.00355318,0.00288582,0.000948325,0.00302259,-0.00368994,1.42757,0.00388186,0.0172114,622,939,-43.3097,-3.26664
-595,85,-43.2122,2.78467,-0.00356029,0.00226331,0.00022633,0.00227209,-0.00356907,1.53201,0.00339999,0.0206616,629,939,-43.2122,-2.78468
-588,85,-43.196,2.29919,-0.00378837,0.00157597,-0.00029102,0.00159172,-0.00380412,-1.51676,0.00320138,0.023355,636,939,-43.1961,-2.29917
-581,85,-44.121,1.78607,0,0,0,0,0,0,0,-1,643,939,-44.121,-1.78609
-574,85,-44.3862,1.24121,0,0,0,0,0,0,0,-1,650,939,-44.3861,-1.24121
-567,85,-45.6846,0.717285,0,0,0,0,0,0,0,-1,657,939,-45.6846,-0.717313
-560,85,-45.7322,0.760315,-0.00429326,0.000407672,-0.00127222,0.000729891,-0.00461548,-1.32274,0.00334692,0.0350159,664,939,-45.7322,-0.760344
-553,85,-45.789,0.63855,-0.00442588,0.000429969,-0.00122374,0.000720935,-0.00471685,-1.33736,0.00341037,0.0433741,671,939,-45.789,-0.638575
-546,85,-45.7482,0.480408,-0.00422628,0.000445759,-0.00089489,0.000611302,-0.00439182,-1.38788,0.00315147,0.0422882,678,939,-45.7482,-0.480386
-539,85,-45.7377,0.744812,-0.00347582,0.000264532,-0.000164562,0.000271758,-0.00348305,-1.52691,0.00241772,0.0382477,685,939,-45.7377,-0.744797
-532,85,-45.8203,0.843018,-0.0018914,-0.000440585,0.000998418,6.81297e-05,-0.00240011,1.09956,0.00162326,0.0408645,692,939,-45.8203,-0.843046
-525,85,-45.7552,0.835266,-3.97997e-05,-0.00083355,0.00189179,0.0014963,-0.00236965,0.682004,0.00225091,0.0382345,699,939,-45.7552,-0.835241
-518,85,-45.6951,0.869812,7.68579e-05,-0.000550337,0.00248773,0.00227068,-0.00274416,0.7227,0.00289962,0.0363018,706,939,-45.6951,-0.869807
-511,85,0,0,0,0,0,0,0,0,0,-1,713,939,0,0
-504,85,0,0,0,0,0,0,0,0,0,-1,720,939,0,0
-497,85,0,0,0,0,0,0,0,0,0,-1,727,939,0,0
-490,85,0,0,0,0,0,0,0,0,0,-1,734,939,0,0
-483,85,0,0,0,0,0,0,0,0,0,-1,741,939,0,0
-476,85,0,0,0,0,0,0,0,0,0,-1,748,939,0,0
-469,85,0,0,0,0,0,0,0,0,0,-1,755,939,0,0
-462,85,0,0,0,0,0,0,0,0,0,-1,762,939,0,0
-455,85,0,0,0,0,0,0,0,0,0,-1,769,939,0,0
-448,85,0,0,0,0,0,0,0,0,0,-1,776,939,0,0
-441,85,0,0,0,0,0,0,0,0,0,-1,783,939,0,0
-434,85,0,0,0,0,0,0,0,0,0,-1,790,939,0,0
-427,85,0,0,0,0,0,0,0,0,0,-1,797,939,0,0
-420,85,0,0,0,0,0,0,0,0,0,-1,804,939,0,0
-413,85,0,0,0,0,0,0,0,0,0,-1,811,939,0,0
-406,85,0,0,0,0,0,0,0,0,0,-1,818,939,0,0
-399,85,0,0,0,0,0,0,0,0,0,-1,825,939,0,0
-392,85,0,0,0,0,0,0,0,0,0,-1,832,939,0,0
-385,85,0,0,0,0,0,0,0,0,0,-1,839,939,0,0
-378,85,0,0,0,0,0,0,0,0,0,-1,846,939,0,0
-371,85,0,0,0,0,0,0,0,0,0,-1,853,939,0,0
-364,85,0,0,0,0,0,0,0,0,0,-1,860,939,0,0
-357,85,0,0,0,0,0,0,0,0,0,-1,867,939,0,0
-350,85,0,0,0,0,0,0,0,0,0,-1,874,939,0,0
-343,85,0,0,0,0,0,0,0,0,0,-1,881,939,0,0
-336,85,0,0,0,0,0,0,0,0,0,-1,888,939,0,0
-329,85,0,0,0,0,0,0,0,0,0,-1,895,939,0,0
-322,85,0,0,0,0,0,0,0,0,0,-1,902,939,0,0
-315,85,0,0,0,0,0,0,0,0,0,-1,909,939,0,0
-308,85,0,0,0,0,0,0,0,0,0,-1,916,939,0,0
-301,85,0,0,0,0,0,0,0,0,0,-1,923,939,0,0
-294,85,0,0,0,0,0,0,0,0,0,-1,930,939,0,0
-287,85,0,0,0,0,0,0,0,0,0,-1,937,939,0,0
-280,85,0,0,0,0,0,0,0,0,0,-1,944,939,0,0
-273,85,0,0,0,0,0,0,0,0,0,-1,951,939,0,0
-266,85,0,0,0,0,0,0,0,0,0,-1,958,939,0,0
-259,85,0,0,0,0,0,0,0,0,0,-1,965,939,0,0
-252,85,0,0,0,0,0,0,0,0,0,-1,972,939,0,0
-245,85,0,0,0,0,0,0,0,0,0,-1,979,939,0,0
-238,85,0,0,0,0,0,0,0,0,0,-1,986,939,0,0
-231,85,0,0,0,0,0,0,0,0,0,-1,993,939,0,0
-224,85,0,0,0,0,0,0,0,0,0,-1,1000,939,0,0
-217,85,0,0,0,0,0,0,0,0,0,-1,1007,939,0,0
-210,85,0,0,0,0,0,0,0,0,0,-1,1014,939,0,0
-203,85,0,0,0,0,0,0,0,0,0,-1,1021,939,0,0
-196,85,0,0,0,0,0,0,0,0,0,-1,1028,939,0,0
-189,85,0,0,0,0,0,0,0,0,0,-1,1035,939,0,0
-182,85,0,0,0,0,0,0,0,0,0,-1,1042,939,0,0
-175,85,0,0,0,0,0,0,0,0,0,-1,1049,939,0,0
-168,85,0,0,0,0,0,0,0,0,0,-1,1056,939,0,0
-161,85,0,0,0,0,0,0,0,0,0,-1,1063,939,0,0
-154,85,0,0,0,0,0,0,0,0,0,-1,1070,939,0,0
-147,85,0,0,0,0,0,0,0,0,0,-1,1077,939,0,0
-140,85,0,0,0,0,0,0,0,0,0,-1,1084,939,0,0
-133,85,0,0,0,0,0,0,0,0,0,-1,1091,939,0,0
-126,85,0,0,0,0,0,0,0,0,0,-1,1098,939,0,0
-119,85,0,0,0,0,0,0,0,0,0,-1,1105,939,0,0
-112,85,0,0,0,0,0,0,0,0,0,-1,1112,939,0,0
-105,85,0,0,0,0,0,0,0,0,0,-1,1119,939,0,0
-98,85,0,0,0,0,0,0,0,0,0,-1,1126,939,0,0
-91,85,0,0,0,0,0,0,0,0,0,-1,1133,939,0,0
-84,85,0,0,0,0,0,0,0,0,0,-1,1140,939,0,0
-77,85,0,0,0,0,0,0,0,0,0,-1,1147,939,0,0
-70,85,0,0,0,0,0,0,0,0,0,-1,1154,939,0,0
-63,85,0,0,0,0,0,0,0,0,0,-1,1161,939,0,0
-56,85,0,0,0,0,0,0,0,0,0,-1,1168,939,0,0
-49,85,0,0,0,0,0,0,0,0,0,-1,1175,939,0,0
-42,85,0,0,0,0,0,0,0,0,0,-1,1182,939,0,0
-35,85,0,0,0,0,0,0,0,0,0,-1,1189,939,0,0
-28,85,0,0,0,0,0,0,0,0,0,-1,1196,939,0,0
-21,85,0,0,0,0,0,0,0,0,0,-1,1203,939,0,0
-14,85,0,0,0,0,0,0,0,0,0,-1,1210,939,0,0
-7,85,0,0,0,0,0,0,0,0,0,-1,1217,939,0,0
0,85,0,0,0,0,0,0,0,0,0,-1,1224,939,0,0
7,85,0,0,0,0,0,0,0,0,0,-1,1231,939,0,0
14,85,0,0,0,0,0,0,0,0,0,-1,1238,939,0,0
21,85,0,0,0,0,0,0,0,0,0,-1,1245,939,0,0
28,85,0,0,0,0,0,0,0,0,0,-1,1252,939,0,0
35,85,0,0,0,0,0,0,0,0,0,-1,1259,939,0,0
42,85,0,0,0,0,0,0,0,0,0,-1,1266,939,0,0
49,85,0,0,0,0,0,0,0,0,0,-1,1273,939,0,0
56,85,0,0,0,0,0,0,0,0,0,-1,1280,939,0,0
63,85,0,0,0,0,0,0,0,0,0,-1,1287,939,0,0
70,85,0,0,0,0,0,0,0,0,0,-1,1294,939,0,0
77,85,0,0,0,0,0,0,0,0,0,-1,1301,939,0,0
84,85,0,0,0,0,0,0,0,0,0,-1,1308,939,0,0
91,85,0,0,0,0,0,0,0,0,0,-1,1315,939,0,0
98,85,0,0,0,0,0,0,0,0,0,-1,1322,939,0,0
105,85,0,0,0,0,0,0,0,0,0,-1,1329,939,0,0
112,85,0,0,0,0,0,0,0,0,0,-1,1336,939,0,0
119,85,0,0,0,0,0,0,0,0,0,-1,1343,939,0,0
126,85,0,0,0,0,0,0,0,0,0,-1,1350,939,0,0
133,85,0,0,0,0,0,0,0,0,0,-1,1357,939,0,0
140,85,0,0,0,0,0,0,0,0,0,-1,1364,939,0,0
147,85,0,0,0,0,0,0,0,0,0,-1,1371,939,0,0
154,85,0,0,0,0,0,0,0,0,0,-1,1378,939,0,0
161,85,0,0,0,0,0,0,0,0,0,-1,1385,939,0,0
168,85,0,0,0,0,0,0,0,0,0,-1,1392,939,0,0
175,85,0,0,0,0,0,0,0,0,0,-1,1399,939,0,0
182,85,0,0,0,0,0,0,0,0,0,-1,1406,939,0,0
189,85,0,0,0,0,0,0,0,0,0,-1,1413,939,0,0
196,85,0,0,0,0,0,0,0,0,0,-1,1420,939,0,0
203,85,0,0,0,0,0,0,0,0,0,-1,1427,939,0,0
210,85,0,0,0,0,0,0,0,0,0,-1,1434,939,0,0
217,85,0,0,0,0,0,0,0,0,0,-1,1441,939,0,0
224,85,0,0,0,0,0,0,0,0,0,-1,1448,939,0,0
231,85,0,0,0,0,0,0,0,0,0,-1,1455,939,0,0
238,85,0,0,0,0,0,0,0,0,0,-1,1462,939,0,0
245,85,0,0,0,0,0,0,0,0,0,-1,1469,939,0,0
252,85,0,0,0,0,0,0,0,0,0,-1,1476,939,0,0
259,85,0,0,0,0,0,0,0,0,0,-1,1483,939,0,0
266,85,0,0,0,0,0,0,0,0,0,-1,1490,939,0,0
273,85,0,0,0,0,0,0,0,0,0,-1,1497,939,0,0
280,85,0,0,0,0,0,0,0,0,0,-1,1504,939,0,0
287,85,0,0,0,0,0,0,0,0,0,-1,1511,939,0,0
294,85,0,0,0,0,0,0,0,0,0,-1,1518,939,0,0
301,85,0,0,0,0,0,0,0,0,0,-1,1525,939,0,0
308,85,0,0,0,0,0,0,0,0,0,-1,1532,939,0,0
315,85,0,0,0,0,0,0,0,0,0,-1,1539,939,0,0
322,85,0,0,0,0,0,0,0,0,0,-1,1546,939,0,0
329,85,0,0,0,0,0,0,0,0,0,-1,1553,939,0,0
336,85,0,0,0,0,0,0,0,0,0,-1,1560,939,0,0
343,85,0,0,0,0,0,0,0,0,0,-1,1567,939,0,0
350,85,0,0,0,0,0,0,0,0,0,-1,1574,939,0,0
357,85,0,0,0,0,0,0,0,0,0,-1,1581,939,0,0
364,85,0,0,0,0,0,0,0,0,0,-1,1588,939,0,0
371,85,0,0,0,0,0,0,0,0,0,-1,1595,939,0,0
378,85,0,0,0,0,0,0,0,0,0,-1,1602,939,0,0
385,85,0,0,0,0,0,0,0,0,0,-1,1609,939,0,0
392,85,0,0,0,0,0,0,0,0,0,-1,1616,939,0,0
399,85,0,0,0,0,0,0,0,0,0,-1,1623,939,0,0
406,85,0,0,0,0,0,0,0,0,0,-1,1630,939,0,0
413,85,0,0,0,0,0,0,0,0,0,-1,1637,939,0,0
420,85,0,0,0,0,0,0,0,0,0,-1,1644,939,0,0
427,85,0,0,0,0,0,0,0,0,0,-1,1651,939,0,0
434,85,0,0,0,0,0,0,0,0,0,-1,1658,939,0,0
441,85,0,0,0,0,0,0,0,0,0,-1,1665,939,0,0
448,85,0,0,0,0,0,0,0,0,0,-1,1672,939,0,0
455,85,0,0,0,0,0,0,0,0,0,-1,1679,939,0,0
462,85,0,0,0,0,0,0,0,0,0,-1,1686,939,0,0
469,85,0,0,0,0,0,0,0,0,0,-1,1693,939,0,0
476,85,0,0,0,0,0,0,0,0,0,-1,1700,939,0,0
483,85,0,0,0,0,0,0,0,0,0,-1,1707,939,0,0
490,85,0,0,0,0,0,0,0,0,0,-1,1714,939,0,0
497,85,0,0,0,0,0,0,0,0,0,-1,1721,939,0,0
504,85,0,0,0,0,0,0,0,0,0,-1,1728,939,0,0
511,85,0,0,0,0,0,0,0,0,0,-1,1735,939,0,0
518,85,0,0,0,0,0,0,0,0,0,-1,1742,939,0,0
525,85,0,0,0,0,0,0,0,0,0,-1,1749,939,0,0
532,85,0,0,0,0,0,0,0,0,0,-1,1756,939,0,0
539,85,0,0,0,0,0,0,0,0,0,-1,1763,939,0,0
546,85,0,0,0,0,0,0,0,0,0,-1,1770,939,0,0
553,85,0,0,0,0,0,0,0,0,0,-1,1777,939,0,0
560,85,0,0,0,0,0,0,0,0,0,-1,1784,939,0,0
567,85,0,0,0,0,0,0,0,0,0,-1,1791,939,0,0
574,85,0,0,0,0,0,0,0,0,0,-1,1798,939,0,0
581,85,0,0,0,0,0,0,0,0,0,-1,1805,939,0,0
588,85,0,0,0,0,0,0,0,0,0,-1,1812,939,0,0
595,85,0,0,0,0,0,0,0,0,0,-1,1819,939,0,0
602,85,0,0,0,0,0,0,0,0,0,-1,1826,939,0,0
609,85,0,0,0,0,0,0,0,0,0,-1,1833,939,0,0
616,85,0,0,0,0,0,0,0,0,0,-1,1840,939,0,0
623,85,0,0,0,0,0,0,0,0,0,-1,1847,939,0,0
630,85,0,0,0,0,0,0,0,0,0,-1,1854,939,0,0
637,85,60.2744,2.69446,0.00427645,0.00539557,-0.000441607,0.00554884,0.00412318,-1.23674,0.00332742,0.0478741,1861,939,60.2744,-2.69444
644,85,60.385,2.48981,0.00350126,0.00390502,-0.000577881,0.00431526,0.00309101,-0.953444,0.00256795,0.0416512,1868,939,60.385,-2.48979
651,85,60.4214,2.56134,0.00263007,0.00302994,-0.000380232,0.0032596,0.00240041,-1.02745,0.00195079,0.0411229,1875,939,60.4214,-2.56132
658,85,60.3385,2.74237,0.00166171,0.00266809,0.000159708,0.00269282,0.00163697,1.41713,0.00156672,0.0419256,1882,939,60.3384,-2.7424
665,85,60.3419,2.5553,0.000799609,0.0026188,0.000993082,0.0030559,0.000362514,1.15617,0.00192782,0.04457,1889,939,60.3419,-2.55529
672,85,60.3998,2.43982,-0.000100447,0.002476,0.0018278,0.00342393,-0.00104837,1.09237,0.00270078,0.0435123,1896,939,60.3998,-2.43983
679,85,60.2792,2.39368,-0.000723966,0.0021165,0.00243349,0.00351388,-0.00212135,1.04954,0.00328644,0.0403708,1903,939,60.2791,-2.39366
686,85,60.1829,2.54358,-0.000934212,0.00160974,0.00259921,0.00323152,-0.00255599,1.01295,0.003349,0.0356176,1910,939,60.1828,-2.54361
693,85,60.2639,2.7229,-0.0012703,0.00129386,0.00243216,0.00276117,-0.00273761,1.02796,0.00317473,0.0315964,1917,939,60.2639,-2.72293
700,85,60.2983,2.81934,-0.00188864,0.00117808,0.00217967,0.0023097,-0.00302026,1.09193,0.00308636,0.0454764,1924,939,60.2984,-2.81936
707,85,60.3778,2.89349,0,0,0,0,0,0,0,-1,1931,939,60.3778,-2.89351
714,85,57.2317,4.12445,0,0,0,0,0,0,0,-1,1938,939,57.2316,-4.12443
721,85,56.9786,4.73169,-0.00310474,0.00220038,0.00111871,0.00242663,-0.003331,1.37124,0.00333781,0.0338965,1945,939,56.9787,-4.73171
728,85,56.7244,5.38696,-0.00340205,0.00254355,0.000983006,0.00270186,-0.00356036,1.41112,0.0036268,0.0316594,1952,939,56.7243,-5.38694
735,85,56.7628,5.79639,-0.00304337,0.0032903,0.00132245,0.00355533,-0.0033084,1.37301,0.00396363,0.0287619,1959,939,56.7628,-5.79641
742,85,56.8175,6.25244,-0.00248075,0.00473468,0.00200933,0.0052565,-0.00300257,1.31671,0.0048272,0.0196636,1966,939,56.8175,-6.25245
749,85,56.7185,6.74341,-0.00138754,0.0067665,0.00361162,0.00813612,-0.00275717,1.20833,0.00653983,0.0150284,1973,939,56.7185,-6.74342
756,85,56.5901,7.20984,0.000790259,0.00957319,0.00707569,0.0135094,-0.00314596,1.06313,0.0102177,0.0133896,1980,939,56.59,-7.20983
763,85,56.5493,7.67981,0.0043478,0.0128624,0.0126546,0.0219566,-0.00474641,0.947663,0.0164497,0.0141308,1987,939,56.5494,-7.67984
770,85,56.4568,8.17126,0.00930875,0.0162325,0.0200051,0.033073,-0.00753179,0.871074,0.0249413,0.0209828,1994,939,56.4567,-8.17127
777,85,56.2515,9.13019,0.0158301,0.0195961,0.0294339,0.0472072,-0.011781,0.817342,0.036046,0.04429,2001,939,56.2514,-9.1302
784,85,56.0532,9.87854,0.0251864,0.0227982,0.0419029,0.0659121,-0.0179276,0.771154,0.0509791,0.0493078,2008,939,56.0533,-9.87852
791,85,55.7234,10.6191,0,0,0,0,0,0,0,-1,2015,939,55.7234,-10.6192
798,85,56.2346,11.467,0,0,0,0,0,0,0,-1,2022,939,56.2346,-11.467
805,85,57.9341,10.3158,0,0,0,0,0,0,0,-1,2029,939,57.934,-10.3158
812,85,0,0,0,0,0,0,0,0,0,-1,2036,939,0,0
-700,78,0,0,0,0,0,0,0,0,0,-1,524,946,0,0
-693,78,0,0,0,0,0,0,0,0,0,-1,531,946,0,0
-686,78,-46.3582,0.245117,0,0,0,0,0,0,0,-1,538,946,-46.3582,-0.245143
-679,78,-48.2779,0.286194,0,0,0,0,0,0,0,-1,545,946,-48.2779,-0.286223
-672,78,-47.44,0.514038,0.0600623,-0.0403476,-0.0215983,0.064511,-0.0447963,-0.203135,0.0634499,0.0444492,552,946,-47.44,-0.514059
-665,78,-46.5701,0.544373,0.0470617,-0.0298389,-0.0165267,0.050463,-0.0332402,-0.202973,0.0486659,0.0472779,559,946,-46.5701,-0.54437
-658,78,-42.4818,6.62872,0,0,0,0,0,0,0,-1,566,946,-42.4817,-6.62869
-651,78,-42.8996,6.2085,0.025553,-0.0130316,-0.00806899,0.0271725,-0.014651,-0.19807,0.0245049,0.0449635,573,946,-42.8996,-6.20849
-644,78,-43.2733,5.80328,0.0172113,-0.00688664,-0.0047074,0.0180983,-0.00777356,-0.186227,0.0153285,0.0298604,580,946,-43.2733,-5.80328
-637,78,-43.5533,5.40454,0.0105952,-0.00237952,-0.00208062,0.0109207,-0.002705,-0.155178,0.00832984,0.0202619,587,946,-43.5534,-5.40454
-630,78,-43.6968,4.98895,0.00527624,0.00135008,7.17203e-06,0.00527626,0.00135006,0.00182672,0.00316497,0.0178176,594,946,-43.6968,-4.98894
-623,78,-43.7477,4.5791,0.000605239,0.00416178,0.00137058,0.00462866,0.000138351,1.24248,0.00304071,0.0141362,601,946,-43.7477,-4.57909
-616,78,-43.7908,4.14716,-0.00249724,0.0049864,0.00168703,0.00534912,-0.00285997,1.35901,0.0048116,0.0128062,608,946,-43.7907,-4.14715
-609,78,-43.7748,3.73737,-0.0035817,0.00438977,0.00113867,0.00454923,-0.00374116,1.43166,0.00479403,0.0123935,615,946,-43.7748,-3.73734
-602,78,-43.7908,3.30573,-0.00345048,0.00356425,0.000163816,0.00356807,-0.00345431,1.54746,0.00405455,0.016526,622,946,-43.7908,-3.30573
-595,78,-43.7228,2.81641,-0.00328808,0.00284883,-0.000595651,0.00290611,-0.00334536,-1.47493,0.00361226,0.0170086,629,946,-43.7228,-2.81643
-588,78,-43.7006,2.4245,-0.00351218,0.00198426,-0.00116104,0.00221945,-0.00374737,-1.37093,0.00348239,0.0146509,636,946,-43.7006,-2.42448
-581,78,-43.6348,1.95251,0,0,0,0,0,0,0,-1,643,946,-43.6348,-1.95253
-574,78,-44.8009,1.36328,-0.00377182,0.000848795,-0.00179909,0.00146667,-0.0043897,-1.23998,0.00351876,0.0446754,650,946,-44.8009,-1.36325
-567,78,-45.695,0.732727,-0.0039555,0.000627791,-0.00197915,0.00136412,-0.00469183,-1.21462,0.00366814,0.0347965,657,946,-45.695,-0.732721
-560,78,-45.7075,0.775513,-0.00422847,0.000409987,-0.00199616,0.00115074,-0.00496922,-1.21546,0.00375563,0.0322877,664,946,-45.7074,-0.775491
-553,78,-45.7264,0.605225,-0.00433601,0.000246673,-0.00175919,0.000844104,-0.00493344,-1.24341,0.00360344,0.0417152,671,946,-45.7264,-0.605227
-546,78,-45.7151,0.667725,-0.00404608,-2.87942e-05,-0.00119708,0.000300865,-0.00437574,-1.30207,0.00302245,0.042122,678,946,-45.7151,-0.667752
-539,78,-45.682,0.930847,-0.00318205,-0.000640213,-0.000223559,-0.000620701,-0.00320156,-1.48374,0.00196051,0.0379872,685,946,-45.682,-0.930839
-532,78,-45.6854,0.888062,-0.00141842,-0.00186281,0.00104503,-0.000572219,-0.00270901,0.680647,0.0016487,0.0380397,692,946,-45.6853,-0.888059
-525,78,-45.6099,0.697266,0.000559012,-0.0025349,0.0016313,0.00126022,-0.0032361,0.405965,0.0026782,0.0386876,699,946,-45.6099,-0.697281
-518,78,-45.6339,0.772644,0.000642427,-0.00248295,0.00194455,0.00157439,-0.00341491,0.446924,0.00294518,0.0406714,706,946,-45.6339,-0.772628
-511,78,0,0,0,0,0,0,0,0,0,-1,713,946,0,0
-504,78,0,0,0,0,0,0,0,0,0,-1,720,946,0,0
-497,78,0,0,0,0,0,0,0,0,0,-1,727,946,0,0
-490,78,0,0,0,0,0,0,0,0,0,-1,734,946,0,0
-483,78,0,0,0,0,0,0,0,0,0,-1,741,946,0,0
-476,78,0,0,0,0,0,0,0,0,0,-1,748,946,0,0
-469,78,0,0,0,0,0,0,0,0,0,-1,755,946,0,0
-462,78,0,0,0,0,0,0,0,0,0,-1,762,946,0,0
-455,78,0,0,0,0,0,0,0,0,0,-1,769,946,0,0
-448,78,0,0,0,0,0,0,0,0,0,-1,776,946,0,0
-441,78,0,0,0,0,0,0,0,0,0,-1,783,946,0,0
-434,78,0,0,0,0,0,0,0,0,0,-1,790,946,0,0
-427,78,0,0,0,0,0,0,0,0,0,-1,797,946,0,0
-420,78,0,0,0,0,0,0,0,0,0,-1,804,946,0,0
-413,78,0,0,0,0,0,0,0,0,0,-1,811,946,0,0
-406,78,0,0,0,0,0,0,0,0,0,-1,818,946,0,0
-399,78,0,0,0,0,0,0,0,0,0,-1,825,946,0,0
-392,78,0,0,0,0,0,0,0,0,0,-1,832,946,0,0
-385,78,0,0,0,0,0,0,0,0,0,-1,839,946,0,0
-378,78,0,0,0,0,0,0,0,0,0,-1,846,946,0,0
-371,78,0,0,0,0,0,0,0,0,0,-1,853,946,0,0
-364,78,0,0,0,0,0,0,0,0,0,-1,860,946,0,0
-357,78,0,0,0,0,0,0,0,0,0,-1,867,946,0,0
-350,78,0,0,0,0,0,0,0,0,0,-1,874,946,0,0
-343,78,0,0,0,0,0,0,0,0,0,-1,881,946,0,0
-336,78,0,0,0,0,0,0,0,0,0,-1,888,946,0,0
-329,78,0,0,0,0,0,0,0,0,0,-1,895,946,0,0
-322,78,0,0,0,0,0,0,0,0,0,-1,902,946,0,0
-315,78,0,0,0,0,0,0,0,0,0,-1,909,946,0,0
-308,78,0,0,0,0,0,0,0,0,0,-1,916,946,0,0
-301,78,0,0,0,0,0,0,0,0,0,-1,923,946,0,0
-294,78,0,0,0,0,0,0,0,0,0,-1,930,946,0,0
-287,78,0,0,0,0,0,0,0,0,0,-1,937,946,0,0
-280,78,0,0,0,0,0,0,0,0,0,-1,944,946,0,0
-273,78,0,0,0,0,0,0,0,0,0,-1,951,946,0,0
-266,78,0,0,0,0,0,0,0,0,0,-1,958,946,0,0
-259,78,0,0,0,0,0,0,0,0,0,-1,965,946,0,0
-252,78,0,0,0,0,0,0,0,0,0,-1,972,946,0,0
-245,78,0,0,0,0,0,0,0,0,0,-1,979,946,0,0
-238,78,0,0,0,0,0,0,0,0,0,-1,986,946,0,0
-231,78,0,0,0,0,0,0,0,0,0,-1,993,946,0,0
-224,78,0,0,0,0,0,0,0,0,0,-1,1000,946,0,0
-217,78,0,0,0,0,0,0,0,0,0,-1,1007,946,0,0
-210,78,0,0,0,0,0,0,0,0,0,-1,1014,946,0,0
-203,78,0,0,0,0,0,0,0,0,0,-1,1021,946,0,0
-196,78,0,0,0,0,0,0,0,0,0,-1,1028,946,0,0
-189,78,0,0,0,0,0,0,0,0,0,-1,1035,946,0,0
-182,78,0,0,0,0,0,0,0,0,0,-1,1042,946,0,0
-175,78,0,0,0,0,0,0,0,0,0,-1,1049,946,0,0
-168,78,0,0,0,0,0,0,0,0,0,-1,1056,946,0,0
-161,78,0,0,0,0,0,0,0,0,0,-1,1063,946,0,0
-154,78,0,0,0,0,0,0,0,0,0,-1,1070,946,0,0
-147,78,0,0,0,0,0,0,0,0,0,-1,1077,946,0,0
-140,78,0,0,0,0,0,0,0,0,0,-1,1084,946,0,0
-133,78,0,0,0,0,0,0,0,0,0,-1,1091,946,0,0
-126,78,0,0,0,0,0,0,0,0,0,-1,1098,946,0,0
-119,78,0,0,0,0,0,0,0,0,0,-1,1105,946,0,0
-112,78,0,0,0,0,0,0,0,0,0,-1,1112,946,0,0
-105,78,0,0,0,0,0,0,0,0,0,-1,1119,946,0,0
-98,78,0,0,0,0,0,0,0,0,0,-1,1126,946,0,0
-91,78,0,0,0,0,0,0,0,0,0,-1,1133,946,0,0
-84,78,0,0,0,0,0,0,0,0,0,-1,1140,946,0,0
-77,78,0,0,0,0,0,0,0,0,0,-1,1147,946,0,0
-70,78,0,0,0,0,0,0,0,0,0,-1,1154,946,0,0
-63,78,0,0,0,0,0,0,0,0,0,-1,1161,946,0,0
-56,78,0,0,0,0,0,0,0,0,0,-1,1168,946,0,0
-49,78,0,0,0,0,0,0,0,0,0,-1,1175,946,0,0
-42,78,0,0,0,0,0,0,0,0,0,-1,1182,946,0,0
-35,78,0,0,0,0,0,0,0,0,0,-1,1189,946,0,0
-28,78,0,0,0,0,0,0,0,0,0,-1,1196,946,0,0
-21,78,0,0,0,0,0,0,0,0,0,-1,1203,946,0,0
-14,78,0,0,0,0,0,0,0,0,0,-1,1210,946,0,0
-7,78,0,0,0,0,0,0,0,0,0,-1,1217,946,0,0
0,78,0,0,0,0,0,0,0,0,0,-1,1224,946,0,0
7,78,0,0,0,0,0,0,0,0,0,-1,1231,946,0,0
14,78,0,0,0,0,0,0,0,0,0,-1,1238,946,0,0
21,78,0,0,0,0,0,0,0,0,0,-1,1245,946,0,0
28,78,0,0,0,0,0,0,0,0,0,-1,1252,946,0,0
35,78,0,0,0,0,0,0,0,0,0,-1,1259,946,0,0
42,78,0,0,0,0,0,0,0,0,0,-1,1266,946,0,0
49,78,0,0,0,0,0,0,0,0,0,-1,1273,946,0,0
56,78,0,0,0,0,0,0,0,0,0,-1,1280,946,0,0
63,78,0,0,0,0,0,0,0,0,0,-1,1287,946,0,0
70,78,0,0,0,0,0,0,0,0,0,-1,1294,946,0,0
77,78,0,0,0,0,0,0,0,0,0,-1,1301,946,0,0
84,78,0,0,0,0,0,0,0,0,0,-1,1308,946,0,0
91,78,0,0,0,0,0,0,0,0,0,-1,1315,946,0,0
98,78,0,0,0,0,0,0,0,0,0,-1,1322,946,0,0
105,78,0,0,0,0,0,0,0,0,0,-1,1329,946,0,0
112,78,0,0,0,0,0,0,0,0,0,-1,1336,946,0,0
119,78,0,0,0,0,0,0,0,0,0,-1,1343,946,0,0
126,78,0,0,0,0,0,0,0,0,0,-1,1350,946,0,0
133,78,0,0,0,0,0,0,0,0,0,-1,1357,946,0,0
140,78,0,0,0,0,0,0,0,0,0,-1,1364,946,0,0
147,78,0,0,0,0,0,0,0,0,0,-1,1371,946,0,0
154,78,0,0,0,0,0,0,0,0,0,-1,1378,946,0,0
161,78,0,0,0,0,0,0,0,0,0,-1,1385,946,0,0
168,78,0,0,0,0,0,0,0,0,0,-1,1392,946,0,0
175,78,0,0,0,0,0,0,0,0,0,-1,1399,946,0,0
182,78,0,0,0,0,0,0,0,0,0,-1,1406,946,0,0
189,78,0,0,0,0,0,0,0,0,0,-1,1413,946,0,0
196,78,0,0,0,0,0,0,0,0,0,-1,1420,946,0,0
203,78,0,0,0,0,0,0,0,0,0,-1,1427,946,0,0
210,78,0,0,0,0,0,0,0,0,0,-1,1434,946,0,0
217,78,0,0,0,0,0,0,0,0,0,-1,1441,946,0,0
224,78,0,0,0,0,0,0,0,0,0,-1,1448,946,0,0
231,78,0,0,0,0,0,0,0,0,0,-1,1455,946,0,0
238,78,0,0,0,0,0,0,0,0,0,-1,1462,946,0,0
245,78,0,0,0,0,0,0,0,0,0,-1,1469,946,0,0
252,78,0,0,0,0,0,0,0,0,0,-1,1476,946,0,0
259,78,0,0,0,0,0,0,0,0,0,-1,1483,946,0,0
266,78,0,0,0,0,0,0,0,0,0,-1,1490,946,0,0
273,78,0,0,0,0,0,0,0,0,0,-1,1497,946,0,0
280,78,0,0,0,0,0,0,0,0,0,-1,1504,946,0,0
287,78,0,0,0,0,0,0,0,0,0,-1,1511,946,0,0
294,78,0,0,0,0,0,0,0,0,0,-1,1518,946,0,0
301,78,0,0,0,0,0,0,0,0,0,-1,1525,946,0,0
308,78,0,0,0,0,0,0,0,0,0,-1,1532,946,0,0
315,78,0,0,0,0,0,0,0,0,0,-1,1539,946,0,0
322,78,0,0,0,0,0,0,0,0,0,-1,1546,946,0,0
329,78,0,0,0,0,0,0,0,0,0,-1,1553,946,0,0
336,78,0,0,0,0,0,0,0,0,0,-1,1560,946,0,0
343,78,0,0,0,0,0,0,0,0,0,-1,1567,946,0,0
350,78,0,0,0,0,0,0,0,0,0,-1,1574,946,0,0
357,78,0,0,0,0,0,0,0,0,0,-1,1581,946,0,0
364,78,0,0,0,0,0,0,0,0,0,-1,1588,946,0,0
371,78,0,0,0,0,0,0,0,0,0,-1,1595,946,0,0
378,78,0,0,0,0,0,0,0,0,0,-1,1602,946,0,0
385,78,0,0,0,0,0,0,0,0,0,-1,1609,946,0,0
392,78,0,0,0,0,0,0,0,0,0,-1,1616,946,0,0
399,78,0,0,0,0,0,0,0,0,0,-1,1623,946,0,0
406,78,0,0,0,0,0,0,0,0,0,-1,1630,946,0,0
413,78,0,0,0,0,0,0,0,0,0,-1,1637,946,0,0
420,78,0,0,0,0,0,0,0,0,0,-1,1644,946,0,0
427,78,0,0,0,0,0,0,0,0,0,-1,1651,946,0,0
434,78,0,0,0,0,0,0,0,0,0,-1,1658,946,0,0
441,78,0,0,0,0,0,0,0,0,0,-1,1665,946,0,0
448,78,0,0,0,0,0,0,0,0,0,-1,1672,946,0,0
455,78,0,0,0,0,0,0,0,0,0,-1,1679,946,0,0
462,78,0,0,0,0,0,0,0,0,0,-1,1686,946,0,0
469,78,0,0,0,0,0,0,0,0,0,-1,1693,946,0,0
476,78,0,0,0,0,0,0,0,0,0,-1,1700,946,0,0
483,78,0,0,0,0,0,0,0,0,0,-1,1707,946,0,0
490,78,0,0,0,0,0,0,0,0,0,-1,1714,946,0,0
497,78,0,0,0,0,0,0,0,0,0,-1,1721,946,0,0
504,78,0,0,0,0,0,0,0,0,0,-1,1728,946,0,0
511,78,0,0,0,0,0,0,0,0,0,-1,1735,946,0,0
518,78,0,0,0,0,0,0,0,0,0,-1,1742,946,0,0
525,78,0,0,0,0,0,0,0,0,0,-1,1749,946,0,0
532,78,0,0,0,0,0,0,0,0,0,-1,1756,946,0,0
539,78,0,0,0,0,0,0,0,0,0,-1,1763,946,0,0
546,78,0,0,0,0,0,0,0,0,0,-1,1770,946,0,0
553,78,0,0,0,0,0,0,0,0,0,-1,1777,946,0,0
560,78,0,0,0,0,0,0,0,0,0,-1,1784,946,0,0
567,78,0,0,0,0,0,0,0,0,0,-1,1791,946,0,0
574,78,0,0,0,0,0,0,0,0,0,-1,1798,946,0,0
581,78,0,0,0,0,0,0,0,0,0,-1,1805,946,0,0
588,78,0,0,0,0,0,0,0,0,0,-1,1812,946,0,0
595,78,0,0,0,0,0,0,0,0,0,-1,1819,946,0,0
602,78,0,0,0,0,0,0,0,0,0,-1,1826,946,0,0
609,78,0,0,0,0,0,0,0,0,0,-1,1833,946,0,0
616,78,0,0,0,0,0,0,0,0,0,-1,1840,946,0,0
623,78,0,0,0,0,0,0,0,0,0,-1,1847,946,0,0
630,78,0,0,0,0,0,0,0,0,0,-1,1854,946,0,0
637,78,60.1892,2.7113,0.00547335,0.005609,0.00040871,0.00595547,0.00512687,0.867622,0.00372496,0.0465996,1861,946,60.1892,-2.71128
644,78,60.2656,2.62158,0.00436605,0.00380043,6.00007e-06,0.00436611,0.00380036,0.0106064,0.00274168,0.0441721,1868,946,60.2656,-2.6216
651,78,60.2626,2.62823,0.00332547,0.00274023,-1.24642e-05,0.00332574,0.00273996,-0.0212845,0.00204999,0.0426015,1875,946,60.2625,-2.62826
658,78,60.2399,2.67847,0.00223855,0.00228362,0.000386199,0.00264794,0.00187423,0.814544,0.00157219,0.0380039,1882,946,60.2399,-2.67847
665,78,60.2722,2.55225,0.00119948,0.00220853,0.0011667,0.00297512,0.000432892,0.989476,0.00185602,0.0414417,1889,946,60.2722,-2.55224
672,78,60.2603,2.41608,8.9753e-05,0.00211669,0.00205008,0.00339013,-0.00118368,1.01496,0.0027412,0.0423272,1896,946,60.2603,-2.41608
679,78,60.2452,2.40552,-0.000731286,0.00178496,0.00273698,0.00353914,-0.00248546,1.00083,0.00349599,0.0391464,1903,946,60.2452,-2.40552
686,78,60.2498,2.55157,-0.0010785,0.00132947,0.00298136,0.00334078,-0.00308981,0.977303,0.00371364,0.0380426,1910,946,60.2497,-2.55156
693,78,60.2753,2.58771,-0.00150401,0.00102534,0.00286217,0.00288979,-0.00336846,0.993429,0.00361672,0.0331669,1917,946,60.2752,-2.58771
700,78,60.2423,2.69427,-0.00217602,0.000927594,0.00261879,0.00241983,-0.00366825,1.05287,0.0035395,0.0297262,1924,946,60.2422,-2.69428
707,78,60.2678,2.83679,0,0,0,0,0,0,0,-1,1931,946,60.2678,-2.83678
714,78,57.5376,4.3103,0,0,0,0,0,0,0,-1,1938,946,57.5376,-4.31029
721,78,57.3938,4.8067,-0.00356112,0.00206698,0.00151385,0.00244834,-0.00394248,1.32402,0.0037232,0.0322094,1945,946,57.3937,-4.80671
728,78,57.261,5.45081,-0.00386575,0.00256193,0.00139872,0.00285311,-0.00415693,1.36555,0.00407051,0.0377152,1952,946,57.261,-5.4508
735,78,57.3633,5.85254,-0.00356368,0.00348504,0.00160272,0.00383235,-0.00391099,1.3574,0.0044707,0.0264266,1959,946,57.3633,-5.85256
742,78,57.3804,6.27936,-0.00315526,0.00501781,0.00207948,0.00551647,-0.00365392,1.33544,0.00533081,0.0197398,1966,946,57.3804,-6.27935
749,78,57.2343,6.72974,-0.00236418,0.00718862,0.00324962,0.00818924,-0.0033648,1.27209,0.00686183,0.0161776,1973,946,57.2343,-6.72971
756,78,57.1536,7.16058,-0.000702664,0.0102475,0.00599557,0.0128917,-0.00334691,1.15542,0.00990052,0.0154101,1980,946,57.1535,-7.16056
763,78,57.0675,7.54388,0.0021152,0.0139554,0.0107517,0.0203091,-0.00423854,1.03706,0.0151512,0.016684,1987,946,57.0675,-7.54387
770,78,56.9873,7.91821,0.00614861,0.0178545,0.0172706,0.030237,-0.00623388,0.948772,0.0225253,0.0237899,1994,946,56.9874,-7.9182
777,78,56.7854,8.75793,0.0114503,0.0218329,0.0256203,0.0427825,-0.00949938,0.885357,0.0321592,0.0452611,2001,946,56.7854,-8.75793
784,78,56.6091,9.66357,0,0,0,0,0,0,0,-1,2008,946,56.6092,-9.66357
791,78,56.5569,9.52771,0,0,0,0,0,0,0,-1,2015,946,56.5569,-9.52773
798,78,58.6025,9.51666,0,0,0,0,0,0,0,-1,2022,946,58.6025,-9.51663
805,78,50.8481,6.75513,0,0,0,0,0,0,0,-1,2029,946,50.848,-6.75512
812,78,0,0,0,0,0,0,0,0,0,-1,2036,946,0,0
-700,71,0,0,0,0,0,0,0,0,0,-1,524,953,0,0
-693,71,0,0,0,0,0,0,0,0,0,-1,531,953,0,0
-686,71,-48.7137,0.418152,0,0,0,0,0,0,0,-1,538,953,-48.7137,-0.418145
-679,71,-48.0168,0.513611,0.0812055,-0.0475233,-0.0243331,0.0856516,-0.0519694,-0.180722,0.0802448,0.0450025,545,953,-48.0168,-0.513615
-672,71,-47.2516,0.648071,0.0651659,-0.0354756,-0.0190357,0.068646,-0.0389557,-0.180825,0.0629073,0.0443163,552,953,-47.2517,-0.648081
-665,71,-46.3611,0.637573,0.0506421,-0.0251119,-0.014325,0.0532604,-0.0277303,-0.180785,0.0475281,0.0469179,559,953,-46.3612,-0.637558
-658,71,-42.6726,6.78345,0,0,0,0,0,0,0,-1,566,953,-42.6726,-6.78342
-651,71,-43.1149,6.37219,0.0268886,-0.00923408,-0.00656146,0.0280435,-0.010389,-0.174231,0.0229561,0.0454577,573,953,-43.1149,-6.37221
-644,71,-43.6595,5.80304,0.0178467,-0.00376234,-0.00354016,0.0184119,-0.00432753,-0.158315,0.0139428,0.0336372,580,953,-43.6595,-5.80307
-637,71,-44.0444,5.36304,0.0108126,0.000121504,-0.00129106,0.0109663,-3.21958e-05,-0.118491,0.0073216,0.0184332,587,953,-44.0443,-5.36305
-630,71,-44.1705,4.93744,0.00515932,0.00332682,0.000315168,0.00521201,0.00327413,0.16565,0.00304194,0.0174315,594,953,-44.1706,-4.93746
-623,71,-44.229,4.53003,0.000255207,0.00562731,0.00130869,0.00592915,-4.66392e-05,1.34411,0.00396841,0.0162998,601,953,-44.229,-4.53004
-616,71,-44.2645,4.06665,-0.00287019,0.00605586,0.00126285,0.00623108,-0.00304542,1.43292,0.00546005,0.0160949,608,953,-44.2645,-4.06668
-609,71,-44.2244,3.69696,-0.00382346,0.00511929,0.000441274,0.00514101,-0.00384518,1.52161,0.00520613,0.0152556,615,953,-44.2243,-3.69695
-602,71,-44.1956,3.34198,-0.00358686,0.00411266,-0.000674723,0.00417134,-0.00364554,-1.48405,0.00451648,0.0159233,622,953,-44.1956,-3.34199
-595,71,-44.1964,2.96796,-0.00338636,0.00328387,-0.00148601,0.00359995,-0.00370243,-1.36122,0.00421617,0.0188989,629,953,-44.1964,-2.96796
-588,71,-44.1583,2.61871,-0.00354115,0.00220677,-0.00211259,0.00289969,-0.00423408,-1.25385,0.00414263,0.0231214,636,953,-44.1583,-2.61873
-581,71,-43.9938,2.23047,0,0,0,0,0,0,0,-1,643,953,-43.9938,-2.23045
-574,71,-45.3324,1.18805,-0.00375175,0.000824199,-0.00278967,0.00214415,-0.00507169,-1.12885,0.00427883,0.0457344,650,953,-45.3324,-1.18804
-567,71,-45.7061,0.694092,-0.00394325,0.000512013,-0.00287715,0.00192311,-0.00535435,-1.11482,0.00435453,0.0225263,657,953,-45.7061,-0.694112
-560,71,-45.6932,0.682007,-0.0041765,0.000161857,-0.00272356,0.00147451,-0.00548914,-1.12168,0.00423733,0.0291455,664,953,-45.6932,-0.68198
-553,71,-45.6852,0.662354,-0.00418537,-0.000196944,-0.00226876,0.000829466,-0.00521178,-1.14594,0.00378145,0.0391111,671,953,-45.6852,-0.662325
-546,71,-45.5998,0.659851,-0.00375525,-0.000740012,-0.00145925,-0.000149462,-0.0043458,-1.18625,0.00284869,0.0412161,678,953,-45.5998,-0.659825
-539,71,-45.6146,0.773193,-0.00273704,-0.00170037,-0.000260936,-0.00163839,-0.00279902,-1.33761,0.00162384,0.040721,685,953,-45.6145,-0.773196
-532,71,-45.7521,0.833069,-0.000798822,-0.00326341,0.00103863,-0.000419499,-0.00364273,0.350163,0.00230143,0.0446856,692,953,-45.752,-0.833075
-525,71,-45.7929,0.680542,0.00131574,-0.00393499,0.00114869,0.00155604,-0.00417529,0.20622,0.00342223,0.044776,699,953,-45.7929,-0.680527
-518,71,0,0,0,0,0,0,0,0,0,-1,706,953,0,0
-511,71,0,0,0,0,0,0,0,0,0,-1,713,953,0,0
-504,71,0,0,0,0,0,0,0,0,0,-1,720,953,0,0
-497,71,0,0,0,0,0,0,0,0,0,-1,727,953,0,0
-490,71,0,0,0,0,0,0,0,0,0,-1,734,953,0,0
-483,71,0,0,0,0,0,0,0,0,0,-1,741,953,0,0
-476,71,0,0,0,0,0,0,0,0,0,-1,748,953,0,0
-469,71,0,0,0,0,0,0,0,0,0,-1,755,953,0,0
-462,71,0,0,0,0,0,0,0,0,0,-1,762,953,0,0
-455,71,0,0,0,0,0,0,0,0,0,-1,769,953,0,0
-448,71,0,0,0,0,0,0,0,0,0,-1,776,953,0,0
-441,71,0,0,0,0,0,0,0,0,0,-1,783,953,0,0
-434,71,0,0,0,0,0,0,0,0,0,-1,790,953,0,0
-427,71,0,0,0,0,0,0,0,0,0,-1,797,953,0,0
-420,71,0,0,0,0,0,0,0,0,0,-1,804,953,0,0
-413,71,0,0,0,0,0,0,0,0,0,-1,811,953,0,0
-406,71,0,0,0,0,0,0,0,0,0,-1,818,953,0,0
-399,71,0,0,0,0,0,0,0,0,0,-1,825,953,0,0
-392,71,0,0,0,0,0,0,0,0,0,-1,832,953,0,0
-385,71,0,0,0,0,0,0,0,0,0,-1,839,953,0,0
-378,71,0,0,0,0,0,0,0,0,0,-1,846,953,0,0
-371,71,0,0,0,0,0,0,0,0,0,-1,853,953,0,0
-364,71,0,0,0,0,0,0,0,0,0,-1,860,953,0,0
-357,71,0,0,0,0,0,0,0,0,0,-1,867,953,0,0
-350,71,0,0,0,0,0,0,0,0,0,-1,874,953,0,0
-343,71,0,0,0,0,0,0,0,0,0,-1,881,953,0,0
-336,71,0,0,0,0,0,0,0,0,0,-1,888,953,0,0
-329,71,0,0,0,0,0,0,0,0,0,-1,895,953,0,0
-322,71,0,0,0,0,0,0,0,0,0,-1,902,953,0,0
-315,71,0,0,0,0,0,0,0,0,0,-1,909,953,0,0
-308,71,0,0,0,0,0,0,0,0,0,-1,916,953,0,0
-301,71,0,0,0,0,0,0,0,0,0,-1,923,953,0,0
-294,71,0,0,0,0,0,0,0,0,0,-1,930,953,0,0
-287,71,0,0,0,0,0,0,0,0,0,-1,937,953,0,0
-280,71,0,0,0,0,0,0,0,0,0,-1,944,953,0,0
-273,71,0,0,0,0,0,0,0,0,0,-1,951,953,0,0
-266,71,0,0,0,0,0,0,0,0,0,-1,958,953,0,0
-259,71,0,0,0,0,0,0,0,0,0,-1,965,953,0,0
-252,71,0,0,0,0,0,0,0,0,0,-1,972,953,0,0
-245,71,0,0,0,0,0,0,0,0,0,-1,979,953,0,0
-238,71,0,0,0,0,0,0,0,0,0,-1,986,953,0,0
-231,71,0,0,0,0,0,0,0,0,0,-1,993,953,0,0
-224,71,0,0,0,0,0,0,0,0,0,-1,1000,953,0,0
-217,71,0,0,0,0,0,0,0,0,0,-1,1007,953,0,0
-210,71,0,0,0,0,0,0,0,0,0,-1,1014,953,0,0
-203,71,0,0,0,0,0,0,0,0,0,-1,1021,953,0,0
-196,71,0,0,0,0,0,0,0,0,0,-1,1028,953,0,0
-189,71,0,0,0,0,0,0,0,0,0,-1,1035,953,0,0
-182,71,0,0,0,0,0,0,0,0,0,-1,1042,953,0,0
-175,71,0,0,0,0,0,0,0,0,0,-1,1049,953,0,0
-168,71,0,0,0,0,0,0,0,0,0,-1,1056,953,0,0
-161,71,0,0,0,0,0,0,0,0,0,-1,1063,953,0,0
-154,71,0,0,0,0,0,0,0,0,0,-1,1070,953,0,0
-147,71,0,0,0,0,0,0,0,0,0,-1,1077,953,0,0
-140,71,0,0,0,0,0,0,0,0,0,-1,1084,953,0,0
-133,71,0,0,0,0,0,0,0,0,0,-1,1091,953,0,0
-126,71,0,0,0,0,0,0,0,0,0,-1,1098,953,0,0
-119,71,0,0,0,0,0,0,0,0,0,-1,1105,953,0,0
-112,71,0,0,0,0,0,0,0,0,0,-1,1112,953,0,0
-105,71,0,0,0,0,0,0,0,0,0,-1,1119,953,0,0
-98,71,0,0,0,0,0,0,0,0,0,-1,1126,953,0,0
-91,71,0,0,0,0,0,0,0,0,0,-1,1133,953,0,0
-84,71,0,0,0,0,0,0,0,0,0,-1,1140,953,0,0
-77,71,0,0,0,0,0,0,0,0,0,-1,1147,953,0,0
-70,71,0,0,0,0,0,0,0,0,0,-1,1154,953,0,0
-63,71,0,0,0,0,0,0,0,0,0,-1,1161,953,0,0
-56,71,0,0,0,0,0,0,0,0,0,-1,1168,953,0,0
-49,71,0,0,0,0,0,0,0,0,0,-1,1175,953,0,0
-42,71,0,0,0,0,0,0,0,0,0,-1,1182,953,0,0
-35,71,0,0,0,0,0,0,0,0,0,-1,1189,953,0,0
-28,71,0,0,0,0,0,0,0,0,0,-1,1196,953,0,0
-21,71,0,0,0,0,0,0,0,0,0,-1,1203,953,0,0
-14,71,0,0,0,0,0,0,0,0,0,-1,1210,953,0,0
-7,71,0,0,0,0,0,0,0,0,0,-1,1217,953,0,0
0,71,0,0,0,0,0,0,0,0,0,-1,1224,953,0,0
7,71,0,0,0,0,0,0,0,0,0,-1,1231,953,0,0
14,71,0,0,0,0,0,0,0,0,0,-1,1238,953,0,0
21,71,0,0,0,0,0,0,0,0,0,-1,1245,953,0,0
28,71,0,0,0,0,0,0,0,0,0,-1,1252,953,0,0
35,71,0,0,0,0,0,0,0,0,0,-1,1259,953,0,0
42,71,0,0,0,0,0,0,0,0,0,-1,1266,953,0,0
49,71,0,0,0,0,0,0,0,0,0,-1,1273,953,0,0
56,71,0,0,0,0,0,0,0,0,0,-1,1280,953,0,0
63,71,0,0,0,0,0,0,0,0,0,-1,1287,953,0,0
70,71,0,0,0,0,0,0,0,0,0,-1,1294,953,0,0
77,71,0,0,0,0,0,0,0,0,0,-1,1301,953,0,0
84,71,0,0,0,0,0,0,0,0,0,-1,1308,953,0,0
91,71,0,0,0,0,0,0,0,0,0,-1,1315,953,0,0
98,71,0,0,0,0,0,0,0,0,0,-1,1322,953,0,0
105,71,0,0,0,0,0,0,0,0,0,-1,1329,953,0,0
112,71,0,0,0,0,0,0,0,0,0,-1,1336,953,0,0
119,71,0,0,0,0,0,0,0,0,0,-1,1343,953,0,0
126,71,0,0,0,0,0,0,0,0,0,-1,1350,953,0,0
133,71,0,0,0,0,0,0,0,0,0,-1,1357,953,0,0
140,71,0,0,0,0,0,0,0,0,0,-1,1364,953,0,0
147,71,0,0,0,0,0,0,0,0,0,-1,1371,953,0,0
154,71,0,0,0,0,0,0,0,0,0,-1,1378,953,0,0
161,71,0,0,0,0,0,0,0,0,0,-1,1385,953,0,0
168,71,0,0,0,0,0,0,0,0,0,-1,1392,953,0,0
175,71,0,0,0,0,0,0,0,0,0,-1,1399,953,0,0
182,71,0,0,0,0,0,0,0,0,0,-1,1406,953,0,0
189,71,0,0,0,0,0,0,0,0,0,-1,1413,953,0,0
196,71,0,0,0,0,0,0,0,0,0,-1,1420,953,0,0
203,71,0,0,0,0,0,0,0,0,0,-1,1427,953,0,0
210,71,0,0,0,0,0,0,0,0,0,-1,1434,953,0,0
217,71,0,0,0,0,0,0,0,0,0,-1,1441,953,0,0
224,71,0,0,0,0,0,0,0,0,0,-1,1448,953,0,0
231,71,0,0,0,0,0,0,0,0,0,-1,1455,953,0,0
238,71,0,0,0,0,0,0,0,0,0,-1,1462,953,0,0
245,71,0,0,0,0,0,0,0,0,0,-1,1469,953,0,0
252,71,0,0,0,0,0,0,0,0,0,-1,1476,953,0,0
259,71,0,0,0,0,0,0,0,0,0,-1,1483,953,0,0
266,71,0,0,0,0,0,0,0,0,0,-1,1490,953,0,0
273,71,0,0,0,0,0,0,0,0,0,-1,1497,953,0,0
280,71,0,0,0,0,0,0,0,0,0,-1,1504,953,0,0
287,71,0,0,0,0,0,0,0,0,0,-1,1511,953,0,0
294,71,0,0,0,0,0,0,0,0,0,-1,1518,953,0,0
301,71,0,0,0,0,0,0,0,0,0,-1,1525,953,0,0
308,71,0,0,0,0,0,0,0,0,0,-1,1532,953,0,0
315,71,0,0,0,0,0,0,0,0,0,-1,1539,953,0,0
322,71,0,0,0,0,0,0,0,0,0,-1,1546,953,0,0
329,71,0,0,0,0,0,0,0,0,0,-1,1553,953,0,0
336,71,0,0,0,0,0,0,0,0,0,-1,1560,953,0,0
343,71,0,0,0,0,0,0,0,0,0,-1,1567,953,0,0
350,71,0,0,0,0,0,0,0,0,0,-1,1574,953,0,0
357,71,0,0,0,0,0,0,0,0,0,-1,1581,953,0,0
364,71,0,0,0,0,0,0,0,0,0,-1,1588,953,0,0
371,71,0,0,0,0,0,0,0,0,0,-1,1595,953,0,0
378,71,0,0,0,0,0,0,0,0,0,-1,1602,953,0,0
385,71,0,0,0,0,0,0,0,0,0,-1,1609,953,0,0
392,71,0,0,0,0,0,0,0,0,0,-1,1616,953,0,0
399,71,0,0,0,0,0,0,0,0,0,-1,1623,953,0,0
406,71,0,0,0,0,0,0,0,0,0,-1,1630,953,0,0
413,71,0,0,0,0,0,0,0,0,0,-1,1637,953,0,0
420,71,0,0,0,0,0,0,0,0,0,-1,1644,953,0,0
427,71,0,0,0,0,0,0,0,0,0,-1,1651,953,0,0
434,71,0,0,0,0,0,0,0,0,0,-1,1658,953,0,0
441,71,0,0,0,0,0,0,0,0,0,-1,1665,953,0,0
448,71,0,0,0,0,0,0,0,0,0,-1,1672,953,0,0
455,71,0,0,0,0,0,0,0,0,0,-1,1679,953,0,0
462,71,0,0,0,0,0,0,0,0,0,-1,1686,953,0,0
469,71,0,0,0,0,0,0,0,0,0,-1,1693,953,0,0
476,71,0,0,0,0,0,0,0,0,0,-1,1700,953,0,0
483,71,0,0,0,0,0,0,0,0,0,-1,1707,953,0,0
490,71,0,0,0,0,0,0,0,0,0,-1,1714,953,0,0
497,71,0,0,0,0,0,0,0,0,0,-1,1721,953,0,0
504,71,0,0,0,0,0,0,0,0,0,-1,1728,953,0,0
511,71,0,0,0,0,0,0,0,0,0,-1,1735,953,0,0
518,71,0,0,0,0,0,0,0,0,0,-1,1742,953,0,0
525,71,0,0,0,0,0,0,0,0,0,-1,1749,953,0,0
532,71,0,0,0,0,0,0,0,0,0,-1,1756,953,0,0
539,71,0,0,0,0,0,0,0,0,0,-1,1763,953,0,0
546,71,0,0,0,0,0,0,0,0,0,-1,1770,953,0,0
553,71,0,0,0,0,0,0,0,0,0,-1,1777,953,0,0
560,71,0,0,0,0,0,0,0,0,0,-1,1784,953,0,0
567,71,0,0,0,0,0,0,0,0,0,-1,1791,953,0,0
574,71,0,0,0,0,0,0,0,0,0,-1,1798,953,0,0
581,71,0,0,0,0,0,0,0,0,0,-1,1805,953,0,0
588,71,0,0,0,0,0,0,0,0,0,-1,1812,953,0,0
595,71,0,0,0,0,0,0,0,0,0,-1,1819,953,0,0
602,71,0,0,0,0,0,0,0,0,0,-1,1826,953,0,0
609,71,0,0,0,0,0,0,0,0,0,-1,1833,953,0,0
616,71,0,0,0,0,0,0,0,0,0,-1,1840,953,0,0
623,71,0,0,0,0,0,0,0,0,0,-1,1847,953,0,0
630,71,0,0,0,0,0,0,0,0,0,-1,1854,953,0,0
637,71,60.0343,2.46783,0.00631282,0.00542694,0.000883362,0.00685807,0.00488169,0.553004,0.00407622,0.0449488,1861,953,60.0343,-2.46786
644,71,60.075,2.42767,0.00499739,0.00367763,0.000335889,0.00507795,0.00359706,0.235417,0.00301542,0.0440171,1868,953,60.075,-2.42769
651,71,60.1451,2.5174,0.00385568,0.00261178,0.000174679,0.00387974,0.00258772,0.136902,0.00228123,0.0411908,1875,953,60.1452,-2.51738
658,71,60.2795,2.6037,0.00270765,0.0021178,0.000480946,0.0029769,0.00184855,0.510359,0.0017354,0.0377715,1882,953,60.2795,-2.6037
665,71,60.2571,2.50134,0.00153155,0.00202587,0.00122937,0.00303268,0.00052474,0.884599,0.00187156,0.0397239,1889,953,60.2571,-2.50137
672,71,60.2701,2.34491,0.000254351,0.00198248,0.00215517,0.00344035,-0.00120351,0.976051,0.00278288,0.0405776,1896,953,60.2701,-2.3449
679,71,60.259,2.51233,-0.00072057,0.00171719,0.00292885,0.00367066,-0.00267404,0.98258,0.00367815,0.0378347,1903,953,60.2591,-2.51235
686,71,60.3044,2.4624,-0.00120017,0.00131933,0.00326563,0.00355977,-0.0034406,0.969484,0.00404186,0.0368346,1910,953,60.3044,-2.46238
693,71,60.3124,2.42737,-0.0017121,0.00102018,0.00321671,0.00314883,-0.00384075,0.986207,0.00404203,0.0340965,1917,953,60.3124,-2.42739
700,71,60.2474,2.55438,-0.00240683,0.000937407,0.00300079,0.0027005,-0.00416992,1.03959,0.00399677,0.0348052,1924,953,60.2475,-2.55437
707,71,60.2311,2.78644,0,0,0,0,0,0,0,-1,1931,953,60.231,-2.78646
714,71,58.3322,4.44598,0,0,0,0,0,0,0,-1,1938,953,58.3322,-4.44597
721,71,58.0009,4.89862,-0.00391744,0.00214436,0.00186857,0.00267407,-0.00444715,1.29456,0.0041537,0.0404301,1945,953,58.0008,-4.8986
728,71,57.7365,5.47333,-0.0042371,0.00280008,0.00174922,0.00321089,-0.00464792,1.34012,0.0045625,0.0313102,1952,953,57.7365,-5.47332
735,71,57.7839,5.93121,-0.00401145,0.00388394,0.00180741,0.00427802,-0.00440553,1.35612,0.00501363,0.0227966,1959,953,57.784,-5.9312
742,71,57.8308,6.30884,-0.00377989,0.00547774,0.00211079,0.0059363,-0.00423845,1.35688,0.00590159,0.0223396,1966,953,57.8308,-6.30883
749,71,57.7571,6.70404,-0.00328653,0.0077356,0.00291687,0.00845992,-0.00401084,1.3274,0.00735114,0.0203501,1973,953,57.757,-6.70405
756,71,57.6931,7.08234,-0.00212145,0.0109748,0.00502133,0.0126784,-0.0038251,1.2437,0.00997485,0.0180394,1980,953,57.6931,-7.08236
763,71,57.6193,7.48218,-2.11385e-05,0.0150571,0.00900098,0.0192592,-0.00422323,1.13402,0.0144543,0.0211207,1987,953,57.6193,-7.4822
770,71,57.4077,7.79034,0.00311196,0.0195023,0.0147442,0.0281758,-0.00556157,1.03905,0.020886,0.0262715,1994,953,57.4078,-7.79032
777,71,57.2236,8.46796,0.00728527,0.0241406,0.0221341,0.0393973,-0.00797134,0.967301,0.0292858,0.0468144,2001,953,57.2237,-8.46795
784,71,57.0615,9.25287,0,0,0,0,0,0,0,-1,2008,953,57.0615,-9.25288
791,71,56.6904,8.60608,0,0,0,0,0,0,0,-1,2015,953,56.6905,-8.60608
798,71,59.2974,9.13574,0,0,0,0,0,0,0,-1,2022,953,59.2973,-9.13574
805,71,45.0161,6.63287,0,0,0,0,0,0,0,-1,2029,953,45.0161,-6.63289
812,71,0,0,0,0,0,0,0,0,0,-1,2036,953,0,0
-700,64,0,0,0,0,0,0,0,0,0,-1,524,960,0,0
-693,64,0,0,0,0,0,0,0,0,0,-1,531,960,0,0
-686,64,-48.3403,0.673645,0,0,0,0,0,0,0,-1,538,960,-48.3403,-0.673649
-679,64,-47.6659,0.681335,0.0848271,-0.0442831,-0.0211691,0.0882094,-0.0476654,-0.158437,0.079603,0.0443307,545,960,-47.6659,-0.681305
-672,64,-47.1143,0.581787,0.067928,-0.0320716,-0.0163366,0.0705292,-0.0346728,-0.157899,0.0619032,0.0463172,552,960,-47.1143,-0.581782
-665,64,-46.3597,0.37854,0.0526605,-0.0217686,-0.012084,0.0545733,-0.0236814,-0.156985,0.0463389,0.0460167,559,960,-46.3597,-0.378556
-658,64,-45.498,0.20166,0,0,0,0,0,0,0,-1,566,960,-45.4981,-0.201675
-651,64,-43.3505,6.53534,0,0,0,0,0,0,0,-1,573,960,-43.3505,-6.53536
-644,64,-44.51,5.46155,0.0182977,-0.00147753,-0.00252015,0.0186138,-0.00179365,-0.124783,0.0130483,0.0349458,580,960,-44.51,-5.46153
-637,64,-44.5621,5.1358,0.010968,0.00202284,-0.000652811,0.0110154,0.00197545,-0.0724676,0.00678169,0.0186636,587,960,-44.5621,-5.13582
-630,64,-44.6241,4.81683,0.00505596,0.00490577,0.000480082,0.00546679,0.00449495,0.707816,0.00336765,0.0158592,594,960,-44.6241,-4.81685
-623,64,-44.6534,4.48956,-1.1668e-05,0.00683992,0.0011137,0.00701641,-0.000188151,1.41364,0.00474156,0.0159289,601,960,-44.6535,-4.48957
-616,64,-44.6835,4.09204,-0.0031356,0.00700043,0.000773522,0.00705912,-0.00319429,1.49507,0.00605837,0.0191226,608,960,-44.6835,-4.09201
-609,64,-44.6471,3.76898,-0.00396092,0.0058285,-0.000254861,0.00583513,-0.00396755,-1.54479,0.00569371,0.0177279,615,960,-44.6471,-3.76895
-602,64,-44.6119,3.41553,-0.00362658,0.0046272,-0.00146634,0.00487996,-0.00387934,-1.4001,0.00506817,0.0171564,622,960,-44.6119,-3.41551
-595,64,-44.6245,3.08942,-0.00338576,0.00366661,-0.00231536,0.00435882,-0.00407797,-1.28029,0.00487188,0.0215863,629,960,-44.6244,-3.08944
-588,64,-44.55,2.84088,-0.00346243,0.00238131,-0.00300327,0.00364954,-0.00473067,-1.17123,0.00485172,0.0335162,636,960,-44.55,-2.84088
-581,64,-44.3953,2.58441,0,0,0,0,0,0,0,-1,643,960,-44.3953,-2.5844
-574,64,-45.7222,0.674866,0,0,0,0,0,0,0,-1,650,960,-45.7222,-0.674853
-567,64,-45.701,0.649597,-0.0037816,0.000255865,-0.00373363,0.00248157,-0.0060073,-1.03323,0.00503999,0.0268139,657,960,-45.701,-0.649575
-560,64,-45.7663,0.597656,-0.00397725,-0.000258008,-0.0034214,0.00177649,-0.00601175,-1.03433,0.00471296,0.0343814,664,960,-45.7663,-0.597638
-553,64,-45.6508,0.610718,-0.00391652,-0.000844274,-0.0027739,0.000790438,-0.00555123,-1.03827,0.00399048,0.0375597,671,960,-45.6508,-0.610735
-546,64,-45.5706,0.514343,-0.00340802,-0.00166987,-0.00176186,-0.000574395,-0.00450349,-1.01452,0.00283036,0.0395922,678,960,-45.5705,-0.514319
-539,64,-45.853,0.513855,-0.00232928,-0.00297166,-0.000411358,-0.00212857,-0.00317237,-0.453935,0.00186692,0.041129,685,960,-45.853,-0.513825
-532,64,-45.9759,0.799988,-0.000361594,-0.00472821,0.000770871,-0.000229503,-0.0048603,0.169706,0.00316648,0.0441502,692,960,-45.9759,-0.799969
-525,64,-45.9511,0.595581,0.00178399,-0.00523626,0.000241778,0.0017923,-0.00524457,0.0343859,0.00422257,0.0444292,699,960,-45.9511,-0.595567
-518,64,0,0,0,0,0,0,0,0,0,-1,706,960,0,0
-511,64,0,0,0,0,0,0,0,0,0,-1,713,960,0,0
-504,64,0,0,0,0,0,0,0,0,0,-1,720,960,0,0
-497,64,0,0,0,0,0,0,0,0,0,-1,727,960,0,0
-490,64,0,0,0,0,0,0,0,0,0,-1,734,960,0,0
-483,64,0,0,0,0,0,0,0,0,0,-1,741,960,0,0
-476,64,0,0,0,0,0,0,0,0,0,-1,748,960,0,0
-469,64,0,0,0,0,0,0,0,0,0,-1,755,960,0,0
-462,64,0,0,0,0,0,0,0,0,0,-1,762,960,0,0
-455,64,0,0,0,0,0,0,0,0,0,-1,769,960,0,0
-448,64,0,0,0,0,0,0,0,0,0,-1,776,960,0,0
-441,64,0,0,0,0,0,0,0,0,0,-1,783,960,0,0
-434,64,0,0,0,0,0,0,0,0,0,-1,790,960,0,0
-427,64,0,0,0,0,0,0,0,0,0,-1,797,960,0,0
-420,64,0,0,0,0,0,0,0,0,0,-1,804,960,0,0
-413,64,0,0,0,0,0,0,0,0,0,-1,811,960,0,0
-406,64,0,0,0,0,0,0,0,0,0,-1,818,960,0,0
-399,64,0,0,0,0,0,0,0,0,0,-1,825,960,0,0
-392,64,0,0,0,0,0,0,0,0,0,-1,832,960,0,0
-385,64,0,0,0,0,0,0,0,0,0,-1,839,960,0,0
-378,64,0,0,0,0,0,0,0,0,0,-1,846,960,0,0
-371,64,0,0,0,0,0,0,0,0,0,-1,853,960,0,0
-364,64,0,0,0,0,0,0,0,0,0,-1,860,960,0,0
-357,64,0,0,0,0,0,0,0,0,0,-1,867,960,0,0
-350,64,0,0,0,0,0,0,0,0,0,-1,874,960,0,0
-343,64,0,0,0,0,0,0,0,0,0,-1,881,960,0,0
-336,64,0,0,0,0,0,0,0,0,0,-1,888,960,0,0
-329,64,0,0,0,0,0,0,0,0,0,-1,895,960,0,0
-322,64,0,0,0,0,0,0,0,0,0,-1,902,960,0,0
-315,64,0,0,0,0,0,0,0,0,0,-1,909,960,0,0
-308,64,0,0,0,0,0,0,0,0,0,-1,916,960,0,0
-301,64,0,0,0,0,0,0,0,0,0,-1,923,960,0,0
-294,64,0,0,0,0,0,0,0,0,0,-1,930,960,0,0
-287,64,0,0,0,0,0,0,0,0,0,-1,937,960,0,0
-280,64,0,0,0,0,0,0,0,0,0,-1,944,960,0,0
-273,64,0,0,0,0,0,0,0,0,0,-1,951,960,0,0
-266,64,0,0,0,0,0,0,0,0,0,-1,958,960,0,0
-259,64,0,0,0,0,0,0,0,0,0,-1,965,960,0,0
-252,64,0,0,0,0,0,0,0,0,0,-1,972,960,0,0
-245,64,0,0,0,0,0,0,0,0,0,-1,979,960,0,0
-238,64,0,0,0,0,0,0,0,0,0,-1,986,960,0,0
-231,64,0,0,0,0,0,0,0,0,0,-1,993,960,0,0
-224,64,0,0,0,0,0,0,0,0,0,-1,1000,960,0,0
-217,64,0,0,0,0,0,0,0,0,0,-1,1007,960,0,0
-210,64,0,0,0,0,0,0,0,0,0,-1,1014,960,0,0
-203,64,0,0,0,0,0,0,0,0,0,-1,1021,960,0,0
-196,64,0,0,0,0,0,0,0,0,0,-1,1028,960,0,0
-189,64,0,0,0,0,0,0,0,0,0,-1,1035,960,0,0
-182,64,0,0,0,0,0,0,0,0,0,-1,1042,960,0,0
-175,64,0,0,0,0,0,0,0,0,0,-1,1049,960,0,0
-168,64,0,0,0,0,0,0,0,0,0,-1,1056,960,0,0
-161,64,0,0,0,0,0,0,0,0,0,-1,1063,960,0,0
-154,64,0,0,0,0,0,0,0,0,0,-1,1070,960,0,0
-147,64,0,0,0,0,0,0,0,0,0,-1,1077,960,0,0
-140,64,0,0,0,0,0,0,0,0,0,-1,1084,960,0,0
-133,64,0,0,0,0,0,0,0,0,0,-1,1091,960,0,0
-126,64,0,0,0,0,0,0,0,0,0,-1,1098,960,0,0
-119,64,0,0,0,0,0,0,0,0,0,-1,1105,960,0,0
-112,64,0,0,0,0,0,0,0,0,0,-1,1112,960,0,0
-105,64,0,0,0,0,0,0,0,0,0,-1,1119,960,0,0
-98,64,0,0,0,0,0,0,0,0,0,-1,1126,960,0,0
-91,64,0,0,0,0,0,0,0,0,0,-1,1133,960,0,0
-84,64,0,0,0,0,0,0,0,0,0,-1,1140,960,0,0
-77,64,0,0,0,0,0,0,0,0,0,-1,1147,960,0,0
-70,64,0,0,0,0,0,0,0,0,0,-1,1154,960,0,0
-63,64,0,0,0,0,0,0,0,0,0,-1,1161,960,0,0
-56,64,0,0,0,0,0,0,0,0,0,-1,1168,960,0,0
-49,64,0,0,0,0,0,0,0,0,0,-1,1175,960,0,0
-42,64,0,0,0,0,0,0,0,0,0,-1,1182,960,0,0
-35,64,0,0,0,0,0,0,0,0,0,-1,1189,960,0,0
-28,64,0,0,0,0,0,0,0,0,0,-1,1196,960,0,0
-21,64,0,0,0,0,0,0,0,0,0,-1,1203,960,0,0
-14,64,0,0,0,0,0,0,0,0,0,-1,1210,960,0,0
-7,64,0,0,0,0,0,0,0,0,0,-1,1217,960,0,0
0,64,0,0,0,0,0,0,0,0,0,-1,1224,960,0,0
7,64,0,0,0,0,0,0,0,0,0,-1,1231,960,0,0
14,64,0,0,0,0,0,0,0,0,0,-1,1238,960,0,0
21,64,0,0,0,0,0,0,0,0,0,-1,1245,960,0,0
28,64,0,0,0,0,0,0,0,0,0,-1,1252,960,0,0
35,64,0,0,0,0,0,0,0,0,0,-1,1259,960,0,0
42,64,0,0,0,0,0,0,0,0,0,-1,1266,960,0,0
49,64,0,0,0,0,0,0,0,0,0,-1,1273,960,0,0
56,64,0,0,0,0,0,0,0,0,0,-1,1280,960,0,0
63,64,0,0,0,0,0,0,0,0,0,-1,1287,960,0,0
70,64,0,0,0,0,0,0,0,0,0,-1,1294,960,0,0
77,64,0,0,0,0,0,0,0,0,0,-1,1301,960,0,0
84,64,0,0,0,0,0,0,0,0,0,-1,1308,960,0,0
91,64,0,0,0,0,0,0,0,0,0,-1,1315,960,0,0
98,64,0,0,0,0,0,0,0,0,0,-1,1322,960,0,0
105,64,0,0,0,0,0,0,0,0,0,-1,1329,960,0,0
112,64,0,0,0,0,0,0,0,0,0,-1,1336,960,0,0
119,64,0,0,0,0,0,0,0,0,0,-1,1343,960,0,0
126,64,0,0,0,0,0,0,0,0,0,-1,1350,960,0,0
133,64,0,0,0,0,0,0,0,0,0,-1,1357,960,0,0
140,64,0,0,0,0,0,0,0,0,0,-1,1364,960,0,0
147,64,0,0,0,0,0,0,0,0,0,-1,1371,960,0,0
154,64,0,0,0,0,0,0,0,0,0,-1,1378,960,0,0
161,64,0,0,0,0,0,0,0,0,0,-1,1385,960,0,0
168,64,0,0,0,0,0,0,0,0,0,-1,1392,960,0,0
175,64,0,0,0,0,0,0,0,0,0,-1,1399,960,0,0
182,64,0,0,0,0,0,0,0,0,0,-1,1406,960,0,0
189,64,0,0,0,0,0,0,0,0,0,-1,1413,960,0,0
196,64,0,0,0,0,0,0,0,0,0,-1,1420,960,0,0
203,64,0,0,0,0,0,0,0,0,0,-1,1427,960,0,0
210,64,0,0,0,0,0,0,0,0,0,-1,1434,960,0,0
217,64,0,0,0,0,0,0,0,0,0,-1,1441,960,0,0
224,64,0,0,0,0,0,0,0,0,0,-1,1448,960,0,0
231,64,0,0,0,0,0,0,0,0,0,-1,1455,960,0,0
238,64,0,0,0,0,0,0,0,0,0,-1,1462,960,0,0
245,64,0,0,0,0,0,0,0,0,0,-1,1469,960,0,0
252,64,0,0,0,0,0,0,0,0,0,-1,1476,960,0,0
259,64,0,0,0,0,0,0,0,0,0,-1,1483,960,0,0
266,64,0,0,0,0,0,0,0,0,0,-1,1490,960,0,0
273,64,0,0,0,0,0,0,0,0,0,-1,1497,960,0,0
280,64,0,0,0,0,0,0,0,0,0,-1,1504,960,0,0
287,64,0,0,0,0,0,0,0,0,0,-1,1511,960,0,0
294,64,0,0,0,0,0,0,0,0,0,-1,1518,960,0,0
301,64,0,0,0,0,0,0,0,0,0,-1,1525,960,0,0
308,64,0,0,0,0,0,0,0,0,0,-1,1532,960,0,0
315,64,0,0,0,0,0,0,0,0,0,-1,1539,960,0,0
322,64,0,0,0,0,0,0,0,0,0,-1,1546,960,0,0
329,64,0,0,0,0,0,0,0,0,0,-1,1553,960,0,0
336,64,0,0,0,0,0,0,0,0,0,-1,1560,960,0,0
343,64,0,0,0,0,0,0,0,0,0,-1,1567,960,0,0
350,64,0,0,0,0,0,0,0,0,0,-1,1574,960,0,0
357,64,0,0,0,0,0,0,0,0,0,-1,1581,960,0,0
364,64,0,0,0,0,0,0,0,0,0,-1,1588,960,0,0
371,64,0,0,0,0,0,0,0,0,0,-1,1595,960,0,0
378,64,0,0,0,0,0,0,0,0,0,-1,1602,960,0,0
385,64,0,0,0,0,0,0,0,0,0,-1,1609,960,0,0
392,64,0,0,0,0,0,0,0,0,0,-1,1616,960,0,0
399,64,0,0,0,0,0,0,0,0,0,-1,1623,960,0,0
406,64,0,0,0,0,0,0,0,0,0,-1,1630,960,0,0
413,64,0,0,0,0,0,0,0,0,0,-1,1637,960,0,0
420,64,0,0,0,0,0,0,0,0,0,-1,1644,960,0,0
427,64,0,0,0,0,0,0,0,0,0,-1,1651,960,0,0
434,64,0,0,0,0,0,0,0,0,0,-1,1658,960,0,0
441,64,0,0,0,0,0,0,0,0,0,-1,1665,960,0,0
448,64,0,0,0,0,0,0,0,0,0,-1,1672,960,0,0
455,64,0,0,0,0,0,0,0,0,0,-1,1679,960,0,0
462,64,0,0,0,0,0,0,0,0,0,-1,1686,960,0,0
469,64,0,0,0,0,0,0,0,0,0,-1,1693,960,0,0
476,64,0,0,0,0,0,0,0,0,0,-1,1700,960,0,0
483,64,0,0,0,0,0,0,0,0,0,-1,1707,960,0,0
490,64,0,0,0,0,0,0,0,0,0,-1,1714,960,0,0
497,64,0,0,0,0,0,0,0,0,0,-1,1721,960,0,0
504,64,0,0,0,0,0,0,0,0,0,-1,1728,960,0,0
511,64,0,0,0,0,0,0,0,0,0,-1,1735,960,0,0
518,64,0,0,0,0,0,0,0,0,0,-1,1742,960,0,0
525,64,0,0,0,0,0,0,0,0,0,-1,1749,960,0,0
532,64,0,0,0,0,0,0,0,0,0,-1,1756,960,0,0
539,64,0,0,0,0,0,0,0,0,0,-1,1763,960,0,0
546,64,0,0,0,0,0,0,0,0,0,-1,1770,960,0,0
553,64,0,0,0,0,0,0,0,0,0,-1,1777,960,0,0
560,64,0,0,0,0,0,0,0,0,0,-1,1784,960,0,0
567,64,0,0,0,0,0,0,0,0,0,-1,1791,960,0,0
574,64,0,0,0,0,0,0,0,0,0,-1,1798,960,0,0
581,64,0,0,0,0,0,0,0,0,0,-1,1805,960,0,0
588,64,0,0,0,0,0,0,0,0,0,-1,1812,960,0,0
595,64,0,0,0,0,0,0,0,0,0,-1,1819,960,0,0
602,64,0,0,0,0,0,0,0,0,0,-1,1826,960,0,0
609,64,0,0,0,0,0,0,0,0,0,-1,1833,960,0,0
616,64,0,0,0,0,0,0,0,0,0,-1,1840,960,0,0
623,64,0,0,0,0,0,0,0,0,0,-1,1847,960,0,0
630,64,0,0,0,0,0,0,0,0,0,-1,1854,960,0,0
637,64,0,0,0,0,0,0,0,0,0,-1,1861,960,0,0
644,64,60.0605,2.45343,0.00590022,0.00329241,0.000913875,0.00618859,0.00300404,0.305657,0.00357349,0.0446791,1868,960,60.0605,-2.45342
651,64,60.218,2.48047,0.00460785,0.00226957,0.000558574,0.00473443,0.00214298,0.22285,0.00273751,0.0422331,1875,960,60.218,-2.48046
658,64,60.2245,2.68793,0.00335714,0.00179532,0.000713669,0.00363413,0.00151833,0.370218,0.0021076,0.0383634,1882,960,60.2245,-2.68794
665,64,60.2076,2.48334,0.00210856,0.00174583,0.00137392,0.00331304,0.000541355,0.719774,0.00205218,0.0393468,1889,960,60.2076,-2.48333
672,64,60.332,2.30469,0.000783919,0.0017933,0.00227191,0.00361591,-0.00103869,0.894695,0.0028213,0.0414104,1896,960,60.3321,-2.30469
679,64,60.3573,2.3847,-0.000247455,0.00162104,0.00308185,0.00390714,-0.00253355,0.932568,0.00374662,0.0388909,1903,960,60.3573,-2.38468
686,64,60.3568,2.40729,-0.000799805,0.00129888,0.00349819,0.00390173,-0.00340265,0.931112,0.00422046,0.0349874,1910,960,60.3568,-2.40727
693,64,60.3253,2.48389,-0.00135005,0.000998718,0.00352565,0.00354043,-0.00389176,0.946167,0.00429258,0.031121,1917,960,60.3253,-2.48388
700,64,60.3032,2.58148,-0.00204784,0.000919693,0.00334347,0.00309384,-0.00422198,0.994233,0.0042405,0.0323427,1924,960,60.3032,-2.58149
707,64,60.1664,3.0224,-0.00258826,0.00107577,0.0029431,0.00271046,-0.00422296,1.06379,0.00403464,0.0469848,1931,960,60.1664,-3.02242
714,64,59.967,3.85602,0,0,0,0,0,0,0,-1,1938,960,59.967,-3.85601
721,64,58.3395,4.95789,0,0,0,0,0,0,0,-1,1945,960,58.3395,-4.95786
728,64,58.1627,5.50208,-0.00410331,0.00303597,0.00204183,0.00357868,-0.00464601,1.31101,0.00476184,0.0231432,1952,960,58.1627,-5.50207
735,64,58.1334,6.00623,-0.00407723,0.00424525,0.00190517,0.00466065,-0.00449263,1.35612,0.00528494,0.0321658,1959,960,58.1334,-6.00623
742,64,58.2668,6.29608,-0.00413713,0.00588867,0.00200455,0.00627461,-0.00452306,1.3806,0.00626132,0.027343,1966,960,58.2668,-6.29608
749,64,58.2092,6.68842,-0.00403377,0.00822248,0.00244296,0.00869147,-0.00450277,1.38113,0.0077446,0.0163052,1973,960,58.2092,-6.6884
756,64,58.1621,7.05865,-0.00348332,0.0115863,0.00388245,0.0125277,-0.00442476,1.3329,0.0101534,0.0155728,1980,960,58.1621,-7.05864
763,64,58.1356,7.43976,-0.00226499,0.0159385,0.00697181,0.0183018,-0.00462832,1.24397,0.0140013,0.0177703,1987,960,58.1356,-7.43974
770,64,57.8953,7.72968,-0.000197291,0.0208165,0.0117764,0.0260918,-0.00547263,1.14964,0.0194768,0.0193373,1994,960,57.8953,-7.72967
777,64,57.6636,8.31982,0.00270346,0.0259354,0.0180374,0.0357735,-0.00713465,1.07147,0.0265487,0.0354384,2001,960,57.6635,-8.31985
784,64,57.3364,9.19702,0.00761751,0.0312173,0.0267535,0.0486575,-0.00982272,0.993096,0.0361601,0.0430706,2008,960,57.3365,-9.19704
791,64,57.29,10.2977,0,0,0,0,0,0,0,-1,2015,960,57.29,-10.2977
798,64,57.4868,8.45184,0,0,0,0,0,0,0,-1,2022,960,57.4868,-8.45186
805,64,57.7939,6.56946,0,0,0,0,0,0,0,-1,2029,960,57.7939,-6.56944
812,64,0,0,0,0,0,0,0,0,0,-1,2036,960,0,0
-700,57,0,0,0,0,0,0,0,0,0,-1,524,967,0,0
-693,57,0,0,0,0,0,0,0,0,0,-1,531,967,0,0
-686,57,-48.2377,1.27527,0,0,0,0,0,0,0,-1,538,967,-48.2377,-1.27524
-679,57,-47.5456,1.08185,0.0858248,-0.042221,-0.0185222,0.0884502,-0.0448465,-0.140809,0.0783194,0.043957,545,967,-47.5456,-1.08184
-672,57,-46.8781,0.864563,0.0684238,-0.0299486,-0.0140056,0.0703789,-0.0319038,-0.138703,0.0604296,0.0468864,552,967,-46.8781,-0.864546
-665,57,-46.2152,0.683533,0,0,0,0,0,0,0,-1,559,967,-46.2152,-0.683543
-658,57,-45.2834,5.23474,0,0,0,0,0,0,0,-1,566,967,-45.2834,-5.23472
-651,57,-45.2528,5.15118,0.0276622,-0.00479331,-0.00387189,0.0281177,-0.00524883,-0.117109,0.0207176,0.0492801,573,967,-45.2528,-5.1512
-644,57,-45.0609,5.09772,0.0180981,-1.72023e-05,-0.00155145,0.01823,-0.000149111,-0.0848199,0.0122033,0.0364368,580,967,-45.0608,-5.09774
-637,57,-44.9681,4.9234,0.0106814,0.00329089,-2.72111e-05,0.0106815,0.00329079,-0.00368183,0.00631658,0.0219366,587,967,-44.9682,-4.92337
-630,57,-45.0405,4.67468,0.00467345,0.00601815,0.000703064,0.0063186,0.00437299,1.16693,0.0037367,0.0154712,594,967,-45.0404,-4.67467
-623,57,-45.0605,4.42694,-0.000393192,0.00769643,0.0010058,0.00781961,-0.00051637,1.44894,0.00539345,0.0147026,601,967,-45.0605,-4.42697
-616,57,-45.0663,4.12067,-0.00340189,0.007672,0.000382845,0.00768522,-0.00341511,1.53628,0.00656494,0.0161682,608,967,-45.0663,-4.12064
-609,57,-45.0664,3.79999,-0.00402114,0.00632818,-0.000855644,0.00639845,-0.00409141,-1.48886,0.00610495,0.0155559,615,967,-45.0664,-3.79999
-602,57,-45.0278,3.45056,-0.00356946,0.00495601,-0.00215763,0.00547096,-0.00408442,-1.33651,0.00553613,0.0119777,622,967,-45.0278,-3.45059
-595,57,-45.0079,3.13794,-0.00326785,0.00385817,-0.00305814,0.00499061,-0.00440029,-1.21615,0.00542541,0.0155666,629,967,-45.0079,-3.13796
-588,57,-44.9374,2.93762,-0.00323141,0.0023809,-0.00381158,0.00430789,-0.0051584,-1.10271,0.00547271,0.0260316,636,967,-44.9375,-2.9376
-581,57,-45.1658,1.89752,-0.00319157,0.00126668,-0.00434647,0.0039223,-0.0058472,-1.02234,0.0056768,0.0413159,643,967,-45.1658,-1.89755
-574,57,-45.6093,0.755676,0,0,0,0,0,0,0,-1,650,967,-45.6093,-0.755673
-567,57,-45.6904,0.591248,-0.00338561,-0.000160703,-0.00453886,0.00304362,-0.00658992,-0.956072,0.00568616,0.0330255,657,967,-45.6904,-0.591248
-560,57,-45.6768,0.551575,-0.00352712,-0.000819722,-0.00409396,0.00213854,-0.00648538,-0.945069,0.00518557,0.0403673,664,967,-45.6767,-0.551595
-553,57,-45.6252,0.528076,-0.00340457,-0.00160735,-0.00328835,0.000902967,-0.00591489,-0.918777,0.00427614,0.0408538,671,967,-45.6252,-0.528055
-546,57,-45.6766,0.638245,-0.00282593,-0.00269176,-0.0021195,-0.000638287,-0.0048794,-0.801219,0.00306242,0.0398174,678,967,-45.6766,-0.638269
-539,57,-45.8839,0.609802,-0.00165542,-0.00432505,-0.000678405,-0.00149292,-0.00448755,-0.235109,0.0026388,0.0421606,685,967,-45.8838,-0.609807
-532,57,-45.9554,0.722656,0.000469407,-0.00625877,0.000277076,0.000480798,-0.00627016,0.0410888,0.00434924,0.0406721,692,967,-45.9555,-0.722659
-525,57,-45.9011,0.708252,0.0028476,-0.00662472,-0.000969903,0.00294589,-0.00672301,-0.100997,0.00572257,0.0405714,699,967,-45.9011,-0.708267
-518,57,0,0,0,0,0,0,0,0,0,-1,706,967,0,0
-511,57,0,0,0,0,0,0,0,0,0,-1,713,967,0,0
-504,57,0,0,0,0,0,0,0,0,0,-1,720,967,0,0
-497,57,0,0,0,0,0,0,0,0,0,-1,727,967,0,0
-490,57,0,0,0,0,0,0,0,0,0,-1,734,967,0,0
-483,57,0,0,0,0,0,0,0,0,0,-1,741,967,0,0
-476,57,0,0,0,0,0,0,0,0,0,-1,748,967,0,0
-469,57,0,0,0,0,0,0,0,0,0,-1,755,967,0,0
-462,57,0,0,0,0,0,0,0,0,0,-1,762,967,0,0
-455,57,0,0,0,0,0,0,0,0,0,-1,769,967,0,0
-448,57,0,0,0,0,0,0,0,0,0,-1,776,967,0,0
-441,57,0,0,0,0,0,0,0,0,0,-1,783,967,0,0
-434,57,0,0,0,0,0,0,0,0,0,-1,790,967,0,0
-427,57,0,0,0,0,0,0,0,0,0,-1,797,967,0,0
-420,57,0,0,0,0,0,0,0,0,0,-1,804,967,0,0
-413,57,0,0,0,0,0,0,0,0,0,-1,811,967,0,0
-406,57,0,0,0,0,0,0,0,0,0,-1,818,967,0,0
-399,57,0,0,0,0,0,0,0,0,0,-1,825,967,0,0
-392,57,0,0,0,0,0,0,0,0,0,-1,832,967,0,0
-385,57,0,0,0,0,0,0,0,0,0,-1,839,967,0,0
-378,57,0,0,0,0,0,0,0,0,0,-1,846,967,0,0
-371,57,0,0,0,0,0,0,0,0,0,-1,853,967,0,0
-364,57,0,0,0,0,0,0,0,0,0,-1,860,967,0,0
-357,57,0,0,0,0,0,0,0,0,0,-1,867,967,0,0
-350,57,0,0,0,0,0,0,0,0,0,-1,874,967,0,0
-343,57,0,0,0,0,0,0,0,0,0,-1,881,967,0,0
-336,57,0,0,0,0,0,0,0,0,0,-1,888,967,0,0
-329,57,0,0,0,0,0,0,0,0,0,-1,895,967,0,0
-322,57,0,0,0,0,0,0,0,0,0,-1,902,967,0,0
-315,57,0,0,0,0,0,0,0,0,0,-1,909,967,0,0
-308,57,0,0,0,0,0,0,0,0,0,-1,916,967,0,0
-301,57,0,0,0,0,0,0,0,0,0,-1,923,967,0,0
-294,57,0,0,0,0,0,0,0,0,0,-1,930,967,0,0
-287,57,0,0,0,0,0,0,0,0,0,-1,937,967,0,0
-280,57,0,0,0,0,0,0,0,0,0,-1,944,967,0,0
-273,57,0,0,0,0,0,0,0,0,0,-1,951,967,0,0
-266,57,0,0,0,0,0,0,0,0,0,-1,958,967,0,0
-259,57,0,0,0,0,0,0,0,0,0,-1,965,967,0,0
-252,57,0,0,0,0,0,0,0,0,0,-1,972,967,0,0
-245,57,0,0,0,0,0,0,0,0,0,-1,979,967,0,0
-238,57,0,0,0,0,0,0,0,0,0,-1,986,967,0,0
-231,57,0,0,0,0,0,0,0,0,0,-1,993,967,0,0
-224,57,0,0,0,0,0,0,0,0,0,-1,1000,967,0,0
-217,57,0,0,0,0,0,0,0,0,0,-1,1007,967,0,0
-210,57,0,0,0,0,0,0,0,0,0,-1,1014,967,0,0
-203,57,0,0,0,0,0,0,0,0,0,-1,1021,967,0,0
-196,57,0,0,0,0,0,0,0,0,0,-1,1028,967,0,0
-189,57,0,0,0,0,0,0,0,0,0,-1,1035,967,0,0
-182,57,0,0,0,0,0,0,0,0,0,-1,1042,967,0,0
-175,57,0,0,0,0,0,0,0,0,0,-1,1049,967,0,0
-168,57,0,0,0,0,0,0,0,0,0,-1,1056,967,0,0
-161,57,0,0,0,0,0,0,0,0,0,-1,1063,967,0,0
-154,57,0,0,0,0,0,0,0,0,0,-1,1070,967,0,0
-147,57,0,0,0,0,0,0,0,0,0,-1,1077,967,0,0
-140,57,0,0,0,0,0,0,0,0,0,-1,1084,967,0,0
-133,57,0,0,0,0,0,0,0,0,0,-1,1091,967,0,0
-126,57,0,0,0,0,0,0,0,0,0,-1,1098,967,0,0
-119,57,0,0,0,0,0,0,0,0,0,-1,1105,967,0,0
-112,57,0,0,0,0,0,0,0,0,0,-1,1112,967,0,0
-105,57,0,0,0,0,0,0,0,0,0,-1,1119,967,0,0
-98,57,0,0,0,0,0,0,0,0,0,-1,1126,967,0,0
-91,57,0,0,0,0,0,0,0,0,0,-1,1133,967,0,0
-84,57,0,0,0,0,0,0,0,0,0,-1,1140,967,0,0
-77,57,0,0,0,0,0,0,0,0,0,-1,1147,967,0,0
-70,57,0,0,0,0,0,0,0,0,0,-1,1154,967,0,0
-63,57,0,0,0,0,0,0,0,0,0,-1,1161,967,0,0
-56,57,0,0,0,0,0,0,0,0,0,-1,1168,967,0,0
-49,57,0,0,0,0,0,0,0,0,0,-1,1175,967,0,0
-42,57,0,0,0,0,0,0,0,0,0,-1,1182,967,0,0
-35,57,0,0,0,0,0,0,0,0,0,-1,1189,967,0,0
-28,57,0,0,0,0,0,0,0,0,0,-1,1196,967,0,0
-21,57,0,0,0,0,0,0,0,0,0,-1,1203,967,0,0
-14,57,0,0,0,0,0,0,0,0,0,-1,1210,967,0,0
-7,57,0,0,0,0,0,0,0,0,0,-1,1217,967,0,0
0,57,0,0,0,0,0,0,0,0,0,-1,1224,967,0,0
7,57,0,0,0,0,0,0,0,0,0,-1,1231,967,0,0
14,57,0,0,0,0,0,0,0,0,0,-1,1238,967,0,0
21,57,0,0,0,0,0,0,0,0,0,-1,1245,967,0,0
28,57,0,0,0,0,0,0,0,0,0,-1,1252,967,0,0
35,57,0,0,0,0,0,0,0,0,0,-1,1259,967,0,0
42,57,0,0,0,0,0,0,0,0,0,-1,1266,967,0,0
49,57,0,0,0,0,0,0,0,0,0,-1,1273,967,0,0
56,57,0,0,0,0,0,0,0,0,0,-1,1280,967,0,0
63,57,0,0,0,0,0,0,0,0,0,-1,1287,967,0,0
70,57,0,0,0,0,0,0,0,0,0,-1,1294,967,0,0
77,57,0,0,0,0,0,0,0,0,0,-1,1301,967,0,0
84,57,0,0,0,0,0,0,0,0,0,-1,1308,967,0,0
91,57,0,0,0,0,0,0,0,0,0,-1,1315,967,0,0
98,57,0,0,0,0,0,0,0,0,0,-1,1322,967,0,0
105,57,0,0,0,0,0,0,0,0,0,-1,1329,967,0,0
112,57,0,0,0,0,0,0,0,0,0,-1,1336,967,0,0
119,57,0,0,0,0,0,0,0,0,0,-1,1343,967,0,0
126,57,0,0,0,0,0,0,0,0,0,-1,1350,967,0,0
133,57,0,0,0,0,0,0,0,0,0,-1,1357,967,0,0
140,57,0,0,0,0,0,0,0,0,0,-1,1364,967,0,0
147,57,0,0,0,0,0,0,0,0,0,-1,1371,967,0,0
154,57,0,0,0,0,0,0,0,0,0,-1,1378,967,0,0
161,57,0,0,0,0,0,0,0,0,0,-1,1385,967,0,0
168,57,0,0,0,0,0,0,0,0,0,-1,1392,967,0,0
175,57,0,0,0,0,0,0,0,0,0,-1,1399,967,0,0
182,57,0,0,0,0,0,0,0,0,0,-1,1406,967,0,0
189,57,0,0,0,0,0,0,0,0,0,-1,1413,967,0,0
196,57,0,0,0,0,0,0,0,0,0,-1,1420,967,0,0
203,57,0,0,0,0,0,0,0,0,0,-1,1427,967,0,0
210,57,0,0,0,0,0,0,0,0,0,-1,1434,967,0,0
217,57,0,0,0,0,0,0,0,0,0,-1,1441,967,0,0
224,57,0,0,0,0,0,0,0,0,0,-1,1448,967,0,0
231,57,0,0,0,0,0,0,0,0,0,-1,1455,967,0,0
238,57,0,0,0,0,0,0,0,0,0,-1,1462,967,0,0
245,57,0,0,0,0,0,0,0,0,0,-1,1469,967,0,0
252,57,0,0,0,0,0,0,0,0,0,-1,1476,967,0,0
259,57,0,0,0,0,0,0,0,0,0,-1,1483,967,0,0
266,57,0,0,0,0,0,0,0,0,0,-1,1490,967,0,0
273,57,0,0,0,0,0,0,0,0,0,-1,1497,967,0,0
280,57,0,0,0,0,0,0,0,0,0,-1,1504,967,0,0
287,57,0,0,0,0,0,0,0,0,0,-1,1511,967,0,0
294,57,0,0,0,0,0,0,0,0,0,-1,1518,967,0,0
301,57,0,0,0,0,0,0,0,0,0,-1,1525,967,0,0
308,57,0,0,0,0,0,0,0,0,0,-1,1532,967,0,0
315,57,0,0,0,0,0,0,0,0,0,-1,1539,967,0,0
322,57,0,0,0,0,0,0,0,0,0,-1,1546,967,0,0
329,57,0,0,0,0,0,0,0,0,0,-1,1553,967,0,0
336,57,0,0,0,0,0,0,0,0,0,-1,1560,967,0,0
343,57,0,0,0,0,0,0,0,0,0,-1,1567,967,0,0
350,57,0,0,0,0,0,0,0,0,0,-1,1574,967,0,0
357,57,0,0,0,0,0,0,0,0,0,-1,1581,967,0,0
364,57,0,0,0,0,0,0,0,0,0,-1,1588,967,0,0
371,57,0,0,0,0,0,0,0,0,0,-1,1595,967,0,0
378,57,0,0,0,0,0,0,0,0,0,-1,1602,967,0,0
385,57,0,0,0,0,0,0,0,0,0,-1,1609,967,0,0
392,57,0,0,0,0,0,0,0,0,0,-1,1616,967,0,0
399,57,0,0,0,0,0,0,0,0,0,-1,1623,967,0,0
406,57,0,0,0,0,0,0,0,0,0,-1,1630,967,0,0
413,57,0,0,0,0,0,0,0,0,0,-1,1637,967,0,0
420,57,0,0,0,0,0,0,0,0,0,-1,1644,967,0,0
427,57,0,0,0,0,0,0,0,0,0,-1,1651,967,0,0
434,57,0,0,0,0,0,0,0,0,0,-1,1658,967,0,0
441,57,0,0,0,0,0,0,0,0,0,-1,1665,967,0,0
448,57,0,0,0,0,0,0,0,0,0,-1,1672,967,0,0
455,57,0,0,0,0,0,0,0,0,0,-1,1679,967,0,0
462,57,0,0,0,0,0,0,0,0,0,-1,1686,967,0,0
469,57,0,0,0,0,0,0,0,0,0,-1,1693,967,0,0
476,57,0,0,0,0,0,0,0,0,0,-1,1700,967,0,0
483,57,0,0,0,0,0,0,0,0,0,-1,1707,967,0,0
490,57,0,0,0,0,0,0,0,0,0,-1,1714,967,0,0
497,57,0,0,0,0,0,0,0,0,0,-1,1721,967,0,0
504,57,0,0,0,0,0,0,0,0,0,-1,1728,967,0,0
511,57,0,0,0,0,0,0,0,0,0,-1,1735,967,0,0
518,57,0,0,0,0,0,0,0,0,0,-1,1742,967,0,0
525,57,0,0,0,0,0,0,0,0,0,-1,1749,967,0,0
532,57,0,0,0,0,0,0,0,0,0,-1,1756,967,0,0
539,57,0,0,0,0,0,0,0,0,0,-1,1763,967,0,0
546,57,0,0,0,0,0,0,0,0,0,-1,1770,967,0,0
553,57,0,0,0,0,0,0,0,0,0,-1,1777,967,0,0
560,57,0,0,0,0,0,0,0,0,0,-1,1784,967,0,0
567,57,0,0,0,0,0,0,0,0,0,-1,1791,967,0,0
574,57,0,0,0,0,0,0,0,0,0,-1,1798,967,0,0
581,57,0,0,0,0,0,0,0,0,0,-1,1805,967,0,0
588,57,0,0,0,0,0,0,0,0,0,-1,1812,967,0,0
595,57,0,0,0,0,0,0,0,0,0,-1,1819,967,0,0
602,57,0,0,0,0,0,0,0,0,0,-1,1826,967,0,0
609,57,0,0,0,0,0,0,0,0,0,-1,1833,967,0,0
616,57,0,0,0,0,0,0,0,0,0,-1,1840,967,0,0
623,57,0,0,0,0,0,0,0,0,0,-1,1847,967,0,0
630,57,0,0,0,0,0,0,0,0,0,-1,1854,967,0,0
637,57,0,0,0,0,0,0,0,0,0,-1,1861,967,0,0
644,57,60.0676,2.74487,0.00649544,0.00257539,0.00132414,0.0069008,0.00217003,0.297072,0.00407459,0.0435065,1868,967,60.0676,-2.74485
651,57,60.2527,2.52283,0.00518178,0.0017003,0.00080114,0.00535728,0.00152479,0.215664,0.00318725,0.0364918,1875,967,60.2527,-2.52283
658,57,60.3295,2.53296,0.00391709,0.00131334,0.000818112,0.00415281,0.00107762,0.280524,0.00248837,0.0346126,1882,967,60.3294,-2.53296
665,57,60.265,2.45538,0.00266647,0.00135625,0.00139882,0.00355598,0.000466731,0.566402,0.00223141,0.0405003,1889,967,60.265,-2.45539
672,57,60.4001,2.35199,0.00134193,0.00153,0.00227004,0.00370795,-0.000836022,0.806098,0.00279267,0.0416883,1896,967,60.4002,-2.35201
679,57,60.3615,2.45087,0.000270578,0.00147664,0.00311217,0.00404366,-0.00229644,0.881095,0.0037065,0.0408636,1903,967,60.3615,-2.45086
686,57,60.308,2.48322,-0.000353408,0.00125691,0.00361359,0.00415396,-0.00325046,0.895015,0.00428554,0.037235,1910,967,60.308,-2.48323
693,57,60.2983,2.52637,-0.000950201,0.000980542,0.00373949,0.00387726,-0.00384692,0.911718,0.00445957,0.0303345,1917,967,60.2983,-2.52638
700,57,60.3049,2.60114,-0.00166097,0.000910136,0.00361116,0.00345774,-0.00420857,0.956401,0.00443322,0.0262346,1924,967,60.3049,-2.60113
707,57,60.1956,3.05585,-0.00222,0.00107827,0.00323766,0.0030626,-0.00420433,1.02095,0.00421279,0.0486704,1931,967,60.1956,-3.05585
714,57,60.0471,3.67883,0,0,0,0,0,0,0,-1,1938,967,60.0471,-3.67883
721,57,58.7706,5.14044,0,0,0,0,0,0,0,-1,1945,967,58.7706,-5.14045
728,57,58.6058,5.61157,-0.00402337,0.00331492,0.00231203,0.00398261,-0.00469106,1.28966,0.00501331,0.0245042,1952,967,58.6058,-5.61156
735,57,58.6433,6.0517,-0.00415423,0.00471914,0.00200385,0.00515068,-0.00458577,1.35868,0.00562449,0.0312449,1959,967,58.6433,-6.05172
742,57,58.7124,6.29059,-0.00443533,0.0064649,0.00193355,0.00679773,-0.00476816,1.40034,0.00671175,0.021843,1966,967,58.7124,-6.29057
749,57,58.6127,6.67975,-0.00462366,0.00893854,0.0020678,0.00924681,-0.00493192,1.42281,0.00831149,0.0151788,1973,967,58.6127,-6.67976
756,57,58.5585,7.03143,-0.00449871,0.0125045,0.00295033,0.0130019,-0.00499609,1.40378,0.0107283,0.0125878,1980,967,58.5584,-7.03144
763,57,58.4768,7.36176,-0.00388221,0.0172359,0.00525019,0.0184691,-0.00511544,1.34008,0.0143256,0.0130191,1987,967,58.4769,-7.36178
770,57,58.3496,7.64453,-0.00253369,0.0227538,0.00922001,0.0257585,-0.00553836,1.25576,0.0192854,0.01265,1994,967,58.3497,-7.64454
777,57,58.2329,8.13171,-0.000479209,0.0286206,0.014503,0.0346143,-0.00647285,1.1789,0.025509,0.0261235,2001,967,58.2329,-8.13174
784,57,58.094,8.70923,0.00338289,0.0348295,0.0220111,0.0461563,-0.00794399,1.09554,0.0337321,0.0463072,2008,967,58.0939,-8.70924
791,57,58.0598,9.34387,0,0,0,0,0,0,0,-1,2015,967,58.0599,-9.34387
798,57,57.7861,8.37549,0,0,0,0,0,0,0,-1,2022,967,57.7862,-8.37549
805,57,57.8276,8.36951,0,0,0,0,0,0,0,-1,2029,967,57.8277,-8.36953
812,57,0,0,0,0,0,0,0,0,0,-1,2036,967,0,0
-700,50,0,0,0,0,0,0,0,0,0,-1,524,974,0,0
-693,50,-49.6639,1.05896,0,0,0,0,0,0,0,-1,531,974,-49.6639,-1.05898
-686,50,-48.6615,1.27332,0,0,0,0,0,0,0,-1,538,974,-48.6615,-1.27331
-679,50,-47.3581,1.31818,0.083186,-0.0382573,-0.0212604,0.0868004,-0.0418717,-0.168395,0.0757834,0.0428634,545,974,-47.3581,-1.31815
-672,50,-46.8327,1.29181,0.0661896,-0.0267828,-0.0155336,0.0687162,-0.0293095,-0.161245,0.0580995,0.043492,552,974,-46.8327,-1.29181
-665,50,-46.3177,1.33246,0,0,0,0,0,0,0,-1,559,974,-46.3177,-1.33245
-658,50,-45.4954,4.90283,0,0,0,0,0,0,0,-1,566,974,-45.4954,-4.90281
-651,50,-45.3874,4.88684,0.0266471,-0.00310348,-0.0038833,0.0271456,-0.00360201,-0.127679,0.0194095,0.0469701,573,974,-45.3874,-4.88686
-644,50,-45.1888,4.93011,0.017325,0.00133588,-0.00142659,0.0174513,0.00120959,-0.0882933,0.0112527,0.034207,580,974,-45.1888,-4.93013
-637,50,-45.2971,4.7843,0.010123,0.00423838,0.000308318,0.0101391,0.00422227,0.0522037,0.00588098,0.0200258,587,974,-45.2971,-4.78431
-630,50,-45.3831,4.58307,0.00420167,0.00691587,0.00092592,0.00720165,0.0039159,1.27143,0.00416318,0.0123374,594,974,-45.3831,-4.5831
-623,50,-45.4117,4.37683,-0.000727134,0.00837261,0.00101656,0.00848479,-0.000839316,1.46089,0.00595605,0.0136948,601,974,-45.4117,-4.37685
-616,50,-45.4299,4.13287,-0.00351378,0.00814169,0.000155032,0.00814376,-0.00351585,1.5575,0.00690617,0.0136934,608,974,-45.4299,-4.13288
-609,50,-45.4236,3.79468,-0.00388603,0.00660258,-0.00125943,0.00675169,-0.00403514,-1.45295,0.00629327,0.0114062,615,974,-45.4236,-3.79469
-602,50,-45.4061,3.48029,-0.00335875,0.00509778,-0.00260186,0.00583418,-0.00409515,-1.29498,0.00576193,0.0112823,622,974,-45.4061,-3.48028
-595,50,-45.3952,3.20667,-0.00304716,0.00392672,-0.0035246,0.00539776,-0.0045182,-1.17541,0.00573248,0.0138517,629,974,-45.3952,-3.20666
-588,50,-45.3923,2.73938,-0.0029015,0.00233856,-0.0043256,0.00477574,-0.00533869,-1.0577,0.00584258,0.0247705,636,974,-45.3923,-2.73938
-581,50,-45.5872,1.4903,-0.00275279,0.00114991,-0.00490961,0.00448174,-0.00608462,-0.974554,0.00612385,0.032897,643,974,-45.5872,-1.49027
-574,50,-45.7345,0.286255,0,0,0,0,0,0,0,-1,650,974,-45.7345,-0.286254
-567,50,-45.645,0.582886,-0.00291101,-0.000489001,-0.0050426,0.00348597,-0.00688598,-0.903244,0.00609455,0.038117,657,974,-45.645,-0.582884
-560,50,-45.6122,0.600525,-0.0029959,-0.00127574,-0.00449664,0.00244233,-0.00671398,-0.879893,0.0054748,0.0426368,664,974,-45.6122,-0.600554
-553,50,-45.6731,0.58844,-0.00282716,-0.00223327,-0.00358339,0.00106545,-0.00612589,-0.826737,0.00448149,0.0416803,671,974,-45.6731,-0.588465
-546,50,-45.7599,0.847107,-0.00220775,-0.00356401,-0.00232509,-0.000463912,-0.00530785,-0.643505,0.00339451,0.0385008,678,974,-45.76,-0.84712
-539,50,-45.7632,0.933411,-0.00098169,-0.0055349,-0.000879965,-0.000817543,-0.00569904,-0.184418,0.00355829,0.040956,685,974,-45.7632,-0.933428
-532,50,-45.7781,0.81488,0.00123059,-0.00766634,-0.000225926,0.00123632,-0.00767207,-0.0253719,0.00557273,0.0422499,692,974,-45.7781,-0.81485
-525,50,-45.7723,0.64563,0.00373371,-0.00809993,-0.00212454,0.00410357,-0.00846979,-0.172365,0.0074037,0.0410906,699,974,-45.7723,-0.645619
-518,50,0,0,0,0,0,0,0,0,0,-1,706,974,0,0
-511,50,0,0,0,0,0,0,0,0,0,-1,713,974,0,0
-504,50,0,0,0,0,0,0,0,0,0,-1,720,974,0,0
-497,50,0,0,0,0,0,0,0,0,0,-1,727,974,0,0
-490,50,0,0,0,0,0,0,0,0,0,-1,734,974,0,0
-483,50,0,0,0,0,0,0,0,0,0,-1,741,974,0,0
-476,50,0,0,0,0,0,0,0,0,0,-1,748,974,0,0
-469,50,0,0,0,0,0,0,0,0,0,-1,755,974,0,0
-462,50,0,0,0,0,0,0,0,0,0,-1,762,974,0,0
-455,50,0,0,0,0,0,0,0,0,0,-1,769,974,0,0
-448,50,0,0,0,0,0,0,0,0,0,-1,776,974,0,0
-441,50,0,0,0,0,0,0,0,0,0,-1,783,974,0,0
-434,50,0,0,0,0,0,0,0,0,0,-1,790,974,0,0
-427,50,0,0,0,0,0,0,0,0,0,-1,797,974,0,0
-420,50,0,0,0,0,0,0,0,0,0,-1,804,974,0,0
-413,50,0,0,0,0,0,0,0,0,0,-1,811,974,0,0
-406,50,0,0,0,0,0,0,0,0,0,-1,818,974,0,0
-399,50,0,0,0,0,0,0,0,0,0,-1,825,974,0,0
-392,50,0,0,0,0,0,0,0,0,0,-1,832,974,0,0
-385,50,0,0,0,0,0,0,0,0,0,-1,839,974,0,0
-378,50,0,0,0,0,0,0,0,0,0,-1,846,974,0,0
-371,50,0,0,0,0,0,0,0,0,0,-1,853,974,0,0
-364,50,0,0,0,0,0,0,0,0,0,-1,860,974,0,0
-357,50,0,0,0,0,0,0,0,0,0,-1,867,974,0,0
-350,50,0,0,0,0,0,0,0,0,0,-1,874,974,0,0
-343,50,0,0,0,0,0,0,0,0,0,-1,881,974,0,0
-336,50,0,0,0,0,0,0,0,0,0,-1,888,974,0,0
-329,50,0,0,0,0,0,0,0,0,0,-1,895,974,0,0
-322,50,0,0,0,0,0,0,0,0,0,-1,902,974,0,0
-315,50,0,0,0,0,0,0,0,0,0,-1,909,974,0,0
-308,50,0,0,0,0,0,0,0,0,0,-1,916,974,0,0
-301,50,0,0,0,0,0,0,0,0,0,-1,923,974,0,0
-294,50,0,0,0,0,0,0,0,0,0,-1,930,974,0,0
-287,50,0,0,0,0,0,0,0,0,0,-1,937,974,0,0
-280,50,0,0,0,0,0,0,0,0,0,-1,944,974,0,0
-273,50,0,0,0,0,0,0,0,0,0,-1,951,974,0,0
-266,50,0,0,0,0,0,0,0,0,0,-1,958,974,0,0
-259,50,0,0,0,0,0,0,0,0,0,-1,965,974,0,0
-252,50,0,0,0,0,0,0,0,0,0,-1,972,974,0,0
-245,50,0,0,0,0,0,0,0,0,0,-1,979,974,0,0
-238,50,0,0,0,0,0,0,0,0,0,-1,986,974,0,0
-231,50,0,0,0,0,0,0,0,0,0,-1,993,974,0,0
-224,50,0,0,0,0,0,0,0,0,0,-1,1000,974,0,0
-217,50,0,0,0,0,0,0,0,0,0,-1,1007,974,0,0
-210,50,0,0,0,0,0,0,0,0,0,-1,1014,974,0,0
-203,50,0,0,0,0,0,0,0,0,0,-1,1021,974,0,0
-196,50,0,0,0,0,0,0,0,0,0,-1,1028,974,0,0
-189,50,0,0,0,0,0,0,0,0,0,-1,1035,974,0,0
-182,50,0,0,0,0,0,0,0,0,0,-1,1042,974,0,0
-175,50,0,0,0,0,0,0,0,0,0,-1,1049,974,0,0
-168,50,0,0,0,0,0,0,0,0,0,-1,1056,974,0,0
-161,50,0,0,0,0,0,0,0,0,0,-1,1063,974,0,0
-154,50,0,0,0,0,0,0,0,0,0,-1,1070,974,0,0
-147,50,0,0,0,0,0,0,0,0,0,-1,1077,974,0,0
-140,50,0,0,0,0,0,0,0,0,0,-1,1084,974,0,0
-133,50,0,0,0,0,0,0,0,0,0,-1,1091,974,0,0
-126,50,0,0,0,0,0,0,0,0,0,-1,1098,974,0,0
-119,50,0,0,0,0,0,0,0,0,0,-1,1105,974,0,0
-112,50,0,0,0,0,0,0,0,0,0,-1,1112,974,0,0
-105,50,0,0,0,0,0,0,0,0,0,-1,1119,974,0,0
-98,50,0,0,0,0,0,0,0,0,0,-1,1126,974,0,0
-91,50,0,0,0,0,0,0,0,0,0,-1,1133,974,0,0
-84,50,0,0,0,0,0,0,0,0,0,-1,1140,974,0,0
-77,50,0,0,0,0,0,0,0,0,0,-1,1147,974,0,0
-70,50,0,0,0,0,0,0,0,0,0,-1,1154,974,0,0
-63,50,0,0,0,0,0,0,0,0,0,-1,1161,974,0,0
-56,50,0,0,0,0,0,0,0,0,0,-1,1168,974,0,0
-49,50,0,0,0,0,0,0,0,0,0,-1,1175,974,0,0
-42,50,0,0,0,0,0,0,0,0,0,-1,1182,974,0,0
-35,50,0,0,0,0,0,0,0,0,0,-1,1189,974,0,0
-28,50,0,0,0,0,0,0,0,0,0,-1,1196,974,0,0
-21,50,0,0,0,0,0,0,0,0,0,-1,1203,974,0,0
-14,50,0,0,0,0,0,0,0,0,0,-1,1210,974,0,0
-7,50,0,0,0,0,0,0,0,0,0,-1,1217,974,0,0
0,50,0,0,0,0,0,0,0,0,0,-1,1224,974,0,0
7,50,0,0,0,0,0,0,0,0,0,-1,1231,974,0,0
14,50,0,0,0,0,0,0,0,0,0,-1,1238,974,0,0
21,50,0,0,0,0,0,0,0,0,0,-1,1245,974,0,0
28,50,0,0,0,0,0,0,0,0,0,-1,1252,974,0,0
35,50,0,0,0,0,0,0,0,0,0,-1,1259,974,0,0
42,50,0,0,0,0,0,0,0,0,0,-1,1266,974,0,0
49,50,0,0,0,0,0,0,0,0,0,-1,1273,974,0,0
56,50,0,0,0,0,0,0,0,0,0,-1,1280,974,0,0
63,50,0,0,0,0,0,0,0,0,0,-1,1287,974,0,0
70,50,0,0,0,0,0,0,0,0,0,-1,1294,974,0,0
77,50,0,0,0,0,0,0,0,0,0,-1,1301,974,0,0
84,50,0,0,0,0,0,0,0,0,0,-1,1308,974,0,0
91,50,0,0,0,0,0,0,0,0,0,-1,1315,974,0,0
98,50,0,0,0,0,0,0,0,0,0,-1,1322,974,0,0
105,50,0,0,0,0,0,0,0,0,0,-1,1329,974,0,0
112,50,0,0,0,0,0,0,0,0,0,-1,1336,974,0,0
119,50,0,0,0,0,0,0,0,0,0,-1,1343,974,0,0
126,50,0,0,0,0,0,0,0,0,0,-1,1350,974,0,0
133,50,0,0,0,0,0,0,0,0,0,-1,1357,974,0,0
140,50,0,0,0,0,0,0,0,0,0,-1,1364,974,0,0
147,50,0,0,0,0,0,0,0,0,0,-1,1371,974,0,0
154,50,0,0,0,0,0,0,0,0,0,-1,1378,974,0,0
161,50,0,0,0,0,0,0,0,0,0,-1,1385,974,0,0
168,50,0,0,0,0,0,0,0,0,0,-1,1392,974,0,0
175,50,0,0,0,0,0,0,0,0,0,-1,1399,974,0,0
182,50,0,0,0,0,0,0,0,0,0,-1,1406,974,0,0
189,50,0,0,0,0,0,0,0,0,0,-1,1413,974,0,0
196,50,0,0,0,0,0,0,0,0,0,-1,1420,974,0,0
203,50,0,0,0,0,0,0,0,0,0,-1,1427,974,0,0
210,50,0,0,0,0,0,0,0,0,0,-1,1434,974,0,0
217,50,0,0,0,0,0,0,0,0,0,-1,1441,974,0,0
224,50,0,0,0,0,0,0,0,0,0,-1,1448,974,0,0
231,50,0,0,0,0,0,0,0,0,0,-1,1455,974,0,0
238,50,0,0,0,0,0,0,0,0,0,-1,1462,974,0,0
245,50,0,0,0,0,0,0,0,0,0,-1,1469,974,0,0
252,50,0,0,0,0,0,0,0,0,0,-1,1476,974,0,0
259,50,0,0,0,0,0,0,0,0,0,-1,1483,974,0,0
266,50,0,0,0,0,0,0,0,0,0,-1,1490,974,0,0
273,50,0,0,0,0,0,0,0,0,0,-1,1497,974,0,0
280,50,0,0,0,0,0,0,0,0,0,-1,1504,974,0,0
287,50,0,0,0,0,0,0,0,0,0,-1,1511,974,0,0
294,50,0,0,0,0,0,0,0,0,0,-1,1518,974,0,0
301,50,0,0,0,0,0,0,0,0,0,-1,1525,974,0,0
308,50,0,0,0,0,0,0,0,0,0,-1,1532,974,0,0
315,50,0,0,0,0,0,0,0,0,0,-1,1539,974,0,0
322,50,0,0,0,0,0,0,0,0,0,-1,1546,974,0,0
329,50,0,0,0,0,0,0,0,0,0,-1,1553,974,0,0
336,50,0,0,0,0,0,0,0,0,0,-1,1560,974,0,0
343,50,0,0,0,0,0,0,0,0,0,-1,1567,974,0,0
350,50,0,0,0,0,0,0,0,0,0,-1,1574,974,0,0
357,50,0,0,0,0,0,0,0,0,0,-1,1581,974,0,0
364,50,0,0,0,0,0,0,0,0,0,-1,1588,974,0,0
371,50,0,0,0,0,0,0,0,0,0,-1,1595,974,0,0
378,50,0,0,0,0,0,0,0,0,0,-1,1602,974,0,0
385,50,0,0,0,0,0,0,0,0,0,-1,1609,974,0,0
392,50,0,0,0,0,0,0,0,0,0,-1,1616,974,0,0
399,50,0,0,0,0,0,0,0,0,0,-1,1623,974,0,0
406,50,0,0,0,0,0,0,0,0,0,-1,1630,974,0,0
413,50,0,0,0,0,0,0,0,0,0,-1,1637,974,0,0
420,50,0,0,0,0,0,0,0,0,0,-1,1644,974,0,0
427,50,0,0,0,0,0,0,0,0,0,-1,1651,974,0,0
434,50,0,0,0,0,0,0,0,0,0,-1,1658,974,0,0
441,50,0,0,0,0,0,0,0,0,0,-1,1665,974,0,0
448,50,0,0,0,0,0,0,0,0,0,-1,1672,974,0,0
455,50,0,0,0,0,0,0,0,0,0,-1,1679,974,0,0
462,50,0,0,0,0,0,0,0,0,0,-1,1686,974,0,0
469,50,0,0,0,0,0,0,0,0,0,-1,1693,974,0,0
476,50,0,0,0,0,0,0,0,0,0,-1,1700,974,0,0
483,50,0,0,0,0,0,0,0,0,0,-1,1707,974,0,0
490,50,0,0,0,0,0,0,0,0,0,-1,1714,974,0,0
497,50,0,0,0,0,0,0,0,0,0,-1,1721,974,0,0
504,50,0,0,0,0,0,0,0,0,0,-1,1728,974,0,0
511,50,0,0,0,0,0,0,0,0,0,-1,1735,974,0,0
518,50,0,0,0,0,0,0,0,0,0,-1,1742,974,0,0
525,50,0,0,0,0,0,0,0,0,0,-1,1749,974,0,0
532,50,0,0,0,0,0,0,0,0,0,-1,1756,974,0,0
539,50,0,0,0,0,0,0,0,0,0,-1,1763,974,0,0
546,50,0,0,0,0,0,0,0,0,0,-1,1770,974,0,0
553,50,0,0,0,0,0,0,0,0,0,-1,1777,974,0,0
560,50,0,0,0,0,0,0,0,0,0,-1,1784,974,0,0
567,50,0,0,0,0,0,0,0,0,0,-1,1791,974,0,0
574,50,0,0,0,0,0,0,0,0,0,-1,1798,974,0,0
581,50,0,0,0,0,0,0,0,0,0,-1,1805,974,0,0
588,50,0,0,0,0,0,0,0,0,0,-1,1812,974,0,0
595,50,0,0,0,0,0,0,0,0,0,-1,1819,974,0,0
602,50,0,0,0,0,0,0,0,0,0,-1,1826,974,0,0
609,50,0,0,0,0,0,0,0,0,0,-1,1833,974,0,0
616,50,0,0,0,0,0,0,0,0,0,-1,1840,974,0,0
623,50,0,0,0,0,0,0,0,0,0,-1,1847,974,0,0
630,50,0,0,0,0,0,0,0,0,0,-1,1854,974,0,0
637,50,0,0,0,0,0,0,0,0,0,-1,1861,974,0,0
644,50,60.1525,2.61212,0.00712448,0.00175288,0.00123056,0.00739296,0.00148439,0.214815,0.00451591,0.0405425,1868,974,60.1525,-2.61213
651,50,60.2813,2.58813,0.00572667,0.00104456,0.000635292,0.00581134,0.000959891,0.132494,0.00359721,0.0333373,1875,974,60.2812,-2.58811
658,50,60.3596,2.52545,0.00442391,0.000742267,0.000584899,0.0045146,0.000651579,0.153825,0.00281777,0.0358943,1882,974,60.3596,-2.52543
665,50,60.3555,2.45917,0.00317346,0.000858043,0.0011379,0.00363905,0.00039245,0.388385,0.00230637,0.0410017,1889,974,60.3554,-2.45918
672,50,60.3755,2.27313,0.00187426,0.00113672,0.0020241,0.0035629,-0.000551928,0.695291,0.00257901,0.0411423,1896,974,60.3755,-2.27316
679,50,60.2174,2.52734,0.000789503,0.00119631,0.00292752,0.00392749,-0.00194168,0.820082,0.00345261,0.0419874,1903,974,60.2174,-2.52736
686,50,60.1084,2.67676,0.000105338,0.00107966,0.00354484,0.00417066,-0.00298566,0.853684,0.00415054,0.0439915,1910,974,60.1084,-2.67678
693,50,60.1729,2.64825,-0.000519366,0.000838974,0.00379805,0.0040181,-0.00369849,0.873873,0.00445645,0.0399188,1917,974,60.1729,-2.64827
700,50,60.2557,2.61261,-0.00121871,0.000777818,0.00374968,0.00365984,-0.00410073,0.915494,0.00448298,0.0232608,1924,974,60.2557,-2.6126
707,50,60.2411,2.82483,-0.0018089,0.000975082,0.00342061,0.00327609,-0.0041099,0.978636,0.00427335,0.0356161,1931,974,60.2411,-2.82482
714,50,60.1512,3.09399,0,0,0,0,0,0,0,-1,1938,974,60.1512,-3.09398
721,50,59.0336,5.20581,0,0,0,0,0,0,0,-1,1945,974,59.0336,-5.20582
728,50,59.0376,5.61981,-0.00396998,0.00343997,0.00251925,0.00421533,-0.00474534,1.27222,0.00517646,0.0231159,1952,974,59.0376,-5.61983
735,50,59.084,5.98969,-0.00427902,0.00508629,0.00208879,0.00553104,-0.00472377,1.36101,0.00592673,0.0213047,1959,974,59.084,-5.98972
742,50,59.1121,6.33643,-0.00480166,0.00693707,0.00190384,0.00723812,-0.00510271,1.41397,0.00716045,0.0162334,1966,974,59.1121,-6.33644
749,50,59.0405,6.63568,-0.00534331,0.00954851,0.0017884,0.00976027,-0.00555508,1.45294,0.00895274,0.0173807,1973,974,59.0405,-6.63569
756,50,58.9587,6.94055,-0.00566886,0.0132971,0.00222802,0.0135553,-0.00592708,1.45541,0.011532,0.0151043,1980,974,58.9587,-6.94053
763,50,58.8521,7.25568,-0.00570142,0.0183981,0.00388502,0.0190089,-0.00631223,1.41485,0.0152194,0.0146002,1987,974,58.8521,-7.25566
770,50,58.76,7.52325,-0.00518844,0.0246309,0.00720468,0.0262803,-0.00683793,1.34573,0.0201893,0.013087,1994,974,58.76,-7.52325
777,50,58.7161,7.91046,-0.0041546,0.0313686,0.011747,0.0349018,-0.00768777,1.27863,0.026209,0.0231734,2001,974,58.7161,-7.91048
784,50,59.106,8.69244,-0.00166448,0.0387264,0.0183613,0.0458256,-0.00876361,1.20186,0.0338518,0.0403879,2008,974,59.1059,-8.69243
791,50,59.4487,9.53033,0.00371436,0.0466469,0.0275929,0.0601402,-0.00977893,1.11598,0.0437192,0.0493043,2015,974,59.4487,-9.53033
798,50,59.9248,10.1968,0,0,0,0,0,0,0,-1,2022,974,59.9248,-10.1968
805,50,58.4124,8.31702,0,0,0,0,0,0,0,-1,2029,974,58.4123,-8.31704
812,50,0,0,0,0,0,0,0,0,0,-1,2036,974,0,0
-700,43,0,0,0,0,0,0,0,0,0,-1,524,981,0,0
-693,43,-49.3253,0.989075,0,0,0,0,0,0,0,-1,531,981,-49.3253,-0.989099
-686,43,-48.4211,1.62451,0.0960167,-0.0430922,-0.0290743,0.101849,-0.0489244,-0.197967,0.0888186,0.0461654,538,981,-48.4211,-1.6245
-679,43,-47.4988,1.76563,0.0778056,-0.0321229,-0.0217759,0.081962,-0.0362793,-0.188605,0.0699444,0.0423779,545,981,-47.4988,-1.76561
-672,43,-46.6402,1.70929,0.0614006,-0.0221628,-0.0159076,0.0643264,-0.0250886,-0.181893,0.0532549,0.0431284,552,981,-46.6402,-1.70929
-665,43,-45.2151,5.33362,0,0,0,0,0,0,0,-1,559,981,-45.2151,-5.33361
-658,43,-45.155,5.20886,0,0,0,0,0,0,0,-1,566,981,-45.155,-5.20889
-651,43,-45.3303,5.02643,0.0240583,-0.00127152,-0.00419687,0.0247356,-0.00194878,-0.159995,0.0171769,0.0453967,573,981,-45.3302,-5.02645
-644,43,-45.4591,4.86292,0.0153326,0.00260768,-0.0017598,0.0155715,0.00236879,-0.134922,0.00968843,0.0273569,580,981,-45.4591,-4.86293
-637,43,-45.6291,4.65405,0.00867988,0.00488004,4.61446e-05,0.00868044,0.00487948,0.0121414,0.00502453,0.0202368,587,981,-45.6291,-4.65405
-630,43,-45.6646,4.47363,0.00313227,0.00743396,0.00063116,0.00752466,0.00304158,1.42808,0.00437086,0.0155169,594,981,-45.6645,-4.47363
-623,43,-45.6741,4.28735,-0.00139337,0.00868594,0.000647962,0.00872742,-0.00143485,1.50686,0.00635083,0.0134233,601,981,-45.6741,-4.28734
-616,43,-45.6906,4.05084,-0.00378402,0.00828921,-0.000299651,0.00829664,-0.00379145,-1.546,0.0071388,0.0127938,608,981,-45.6906,-4.05082
-609,43,-45.7036,3.79285,-0.00379875,0.00665865,-0.00168003,0.00692193,-0.00406202,-1.41535,0.00641284,0.014197,615,981,-45.7036,-3.79286
-602,43,-45.6839,3.53046,-0.00316128,0.00508652,-0.00290255,0.00600557,-0.00408033,-1.26415,0.00585835,0.0166341,622,981,-45.6839,-3.53045
-595,43,-45.7794,3.28931,-0.00281276,0.00387596,-0.00376134,0.00556473,-0.00450154,-1.14879,0.00582256,0.017157,629,981,-45.7794,-3.28932
-588,43,-45.755,2.59253,-0.00254307,0.00224901,-0.0045497,0.00499503,-0.00528909,-1.02776,0.00593835,0.0340133,636,981,-45.755,-2.59252
-581,43,-45.7079,1.19873,-0.00228276,0.00103709,-0.00510801,0.00474812,-0.00599379,-0.942498,0.00621573,0.0404783,643,981,-45.7079,-1.19872
-574,43,-45.6277,-0.0604248,0,0,0,0,0,0,0,-1,650,981,-45.6277,0.0604515
-567,43,-45.6417,0.648743,-0.00242811,-0.000753183,-0.00515213,0.00362911,-0.0068104,-0.865967,0.00611983,0.0391918,657,981,-45.6417,-0.648719
-560,43,-45.6743,0.716858,-0.00250589,-0.00162857,-0.00452824,0.0024822,-0.00661666,-0.833684,0.005431,0.0400894,664,981,-45.6743,-0.716865
-553,43,-45.8012,0.604126,-0.00238199,-0.00271213,-0.00353876,0.000995548,-0.00608967,-0.762092,0.00442909,0.0396397,671,981,-45.8012,-0.604102
-546,43,-45.7324,0.699951,-0.00186911,-0.00424219,-0.00222462,-0.000534375,-0.00557692,-0.540406,0.00355324,0.0405794,678,981,-45.7323,-0.699961
-539,43,-45.6956,0.166138,0,0,0,0,0,0,0,-1,685,981,-45.6956,-0.166148
-532,43,-45.7668,0.0769653,0,0,0,0,0,0,0,-1,692,981,-45.7668,-0.0769828
-525,43,-45.6506,0.141357,0,0,0,0,0,0,0,-1,699,981,-45.6506,-0.14134
-518,43,0,0,0,0,0,0,0,0,0,-1,706,981,0,0
-511,43,0,0,0,0,0,0,0,0,0,-1,713,981,0,0
-504,43,0,0,0,0,0,0,0,0,0,-1,720,981,0,0
-497,43,0,0,0,0,0,0,0,0,0,-1,727,981,0,0
-490,43,0,0,0,0,0,0,0,0,0,-1,734,981,0,0
-483,43,0,0,0,0,0,0,0,0,0,-1,741,981,0,0
-476,43,0,0,0,0,0,0,0,0,0,-1,748,981,0,0
-469,43,0,0,0,0,0,0,0,0,0,-1,755,981,0,0
-462,43,0,0,0,0,0,0,0,0,0,-1,762,981,0,0
-455,43,0,0,0,0,0,0,0,0,0,-1,769,981,0,0
-448,43,0,0,0,0,0,0,0,0,0,-1,776,981,0,0
-441,43,0,0,0,0,0,0,0,0,0,-1,783,981,0,0
-434,43,0,0,0,0,0,0,0,0,0,-1,790,981,0,0
-427,43,0,0,0,0,0,0,0,0,0,-1,797,981,0,0
-420,43,0,0,0,0,0,0,0,0,0,-1,804,981,0,0
-413,43,0,0,0,0,0,0,0,0,0,-1,811,981,0,0
-406,43,0,0,0,0,0,0,0,0,0,-1,818,981,0,0
-399,43,0,0,0,0,0,0,0,0,0,-1,825,981,0,0
-392,43,0,0,0,0,0,0,0,0,0,-1,832,981,0,0
-385,43,0,0,0,0,0,0,0,0,0,-1,839,981,0,0
-378,43,0,0,0,0,0,0,0,0,0,-1,846,981,0,0
-371,43,0,0,0,0,0,0,0,0,0,-1,853,981,0,0
-364,43,0,0,0,0,0,0,0,0,0,-1,860,981,0,0
-357,43,0,0,0,0,0,0,0,0,0,-1,867,981,0,0
-350,43,0,0,0,0,0,0,0,0,0,-1,874,981,0,0
-343,43,0,0,0,0,0,0,0,0,0,-1,881,981,0,0
-336,43,0,0,0,0,0,0,0,0,0,-1,888,981,0,0
-329,43,0,0,0,0,0,0,0,0,0,-1,895,981,0,0
-322,43,0,0,0,0,0,0,0,0,0,-1,902,981,0,0
-315,43,0,0,0,0,0,0,0,0,0,-1,909,981,0,0
-308,43,0,0,0,0,0,0,0,0,0,-1,916,981,0,0
-301,43,0,0,0,0,0,0,0,0,0,-1,923,981,0,0
-294,43,0,0,0,0,0,0,0,0,0,-1,930,981,0,0
-287,43,0,0,0,0,0,0,0,0,0,-1,937,981,0,0
-280,43,0,0,0,0,0,0,0,0,0,-1,944,981,0,0
-273,43,0,0,0,0,0,0,0,0,0,-1,951,981,0,0
-266,43,0,0,0,0,0,0,0,0,0,-1,958,981,0,0
-259,43,0,0,0,0,0,0,0,0,0,-1,965,981,0,0
-252,43,0,0,0,0,0,0,0,0,0,-1,972,981,0,0
-245,43,0,0,0,0,0,0,0,0,0,-1,979,981,0,0
-238,43,0,0,0,0,0,0,0,0,0,-1,986,981,0,0
-231,43,0,0,0,0,0,0,0,0,0,-1,993,981,0,0
-224,43,0,0,0,0,0,0,0,0,0,-1,1000,981,0,0
-217,43,0,0,0,0,0,0,0,0,0,-1,1007,981,0,0
-210,43,0,0,0,0,0,0,0,0,0,-1,1014,981,0,0
-203,43,0,0,0,0,0,0,0,0,0,-1,1021,981,0,0
-196,43,0,0,0,0,0,0,0,0,0,-1,1028,981,0,0
-189,43,0,0,0,0,0,0,0,0,0,-1,1035,981,0,0
-182,43,0,0,0,0,0,0,0,0,0,-1,1042,981,0,0
-175,43,0,0,0,0,0,0,0,0,0,-1,1049,981,0,0
-168,43,0,0,0,0,0,0,0,0,0,-1,1056,981,0,0
-161,43,0,0,0,0,0,0,0,0,0,-1,1063,981,0,0
-154,43,0,0,0,0,0,0,0,0,0,-1,1070,981,0,0
-147,43,0,0,0,0,0,0,0,0,0,-1,1077,981,0,0
-140,43,0,0,0,0,0,0,0,0,0,-1,1084,981,0,0
-133,43,0,0,0,0,0,0,0,0,0,-1,1091,981,0,0
-126,43,0,0,0,0,0,0,0,0,0,-1,1098,981,0,0
-119,43,0,0,0,0,0,0,0,0,0,-1,1105,981,0,0
-112,43,0,0,0,0,0,0,0,0,0,-1,1112,981,0,0
-105,43,0,0,0,0,0,0,0,0,0,-1,1119,981,0,0
-98,43,0,0,0,0,0,0,0,0,0,-1,1126,981,0,0
-91,43,0,0,0,0,0,0,0,0,0,-1,1133,981,0,0
-84,43,0,0,0,0,0,0,0,0,0,-1,1140,981,0,0
-77,43,0,0,0,0,0,0,0,0,0,-1,1147,981,0,0
-70,43,0,0,0,0,0,0,0,0,0,-1,1154,981,0,0
-63,43,0,0,0,0,0,0,0,0,0,-1,1161,981,0,0
-56,43,0,0,0,0,0,0,0,0,0,-1,1168,981,0,0
-49,43,0,0,0,0,0,0,0,0,0,-1,1175,981,0,0
-42,43,0,0,0,0,0,0,0,0,0,-1,1182,981,0,0
-35,43,0,0,0,0,0,0,0,0,0,-1,1189,981,0,0
-28,43,0,0,0,0,0,0,0,0,0,-1,1196,981,0,0
-21,43,0,0,0,0,0,0,0,0,0,-1,1203,981,0,0
-14,43,0,0,0,0,0,0,0,0,0,-1,1210,981,0,0
-7,43,0,0,0,0,0,0,0,0,0,-1,1217,981,0,0
0,43,0,0,0,0,0,0,0,0,0,-1,1224,981,0,0
7,43,0,0,0,0,0,0,0,0,0,-1,1231,981,0,0
14,43,0,0,0,0,0,0,0,0,0,-1,1238,981,0,0
21,43,0,0,0,0,0,0,0,0,0,-1,1245,981,0,0
28,43,0,0,0,0,0,0,0,0,0,-1,1252,981,0,0
35,43,0,0,0,0,0,0,0,0,0,-1,1259,981,0,0
42,43,0,0,0,0,0,0,0,0,0,-1,1266,981,0,0
49,43,0,0,0,0,0,0,0,0,0,-1,1273,981,0,0
56,43,0,0,0,0,0,0,0,0,0,-1,1280,981,0,0
63,43,0,0,0,0,0,0,0,0,0,-1,1287,981,0,0
70,43,0,0,0,0,0,0,0,0,0,-1,1294,981,0,0
77,43,0,0,0,0,0,0,0,0,0,-1,1301,981,0,0
84,43,0,0,0,0,0,0,0,0,0,-1,1308,981,0,0
91,43,0,0,0,0,0,0,0,0,0,-1,1315,981,0,0
98,43,0,0,0,0,0,0,0,0,0,-1,1322,981,0,0
105,43,0,0,0,0,0,0,0,0,0,-1,1329,981,0,0
112,43,0,0,0,0,0,0,0,0,0,-1,1336,981,0,0
119,43,0,0,0,0,0,0,0,0,0,-1,1343,981,0,0
126,43,0,0,0,0,0,0,0,0,0,-1,1350,981,0,0
133,43,0,0,0,0,0,0,0,0,0,-1,1357,981,0,0
140,43,0,0,0,0,0,0,0,0,0,-1,1364,981,0,0
147,43,0,0,0,0,0,0,0,0,0,-1,1371,981,0,0
154,43,0,0,0,0,0,0,0,0,0,-1,1378,981,0,0
161,43,0,0,0,0,0,0,0,0,0,-1,1385,981,0,0
168,43,0,0,0,0,0,0,0,0,0,-1,1392,981,0,0
175,43,0,0,0,0,0,0,0,0,0,-1,1399,981,0,0
182,43,0,0,0,0,0,0,0,0,0,-1,1406,981,0,0
189,43,0,0,0,0,0,0,0,0,0,-1,1413,981,0,0
196,43,0,0,0,0,0,0,0,0,0,-1,1420,981,0,0
203,43,0,0,0,0,0,0,0,0,0,-1,1427,981,0,0
210,43,0,0,0,0,0,0,0,0,0,-1,1434,981,0,0
217,43,0,0,0,0,0,0,0,0,0,-1,1441,981,0,0
224,43,0,0,0,0,0,0,0,0,0,-1,1448,981,0,0
231,43,0,0,0,0,0,0,0,0,0,-1,1455,981,0,0
238,43,0,0,0,0,0,0,0,0,0,-1,1462,981,0,0
245,43,0,0,0,0,0,0,0,0,0,-1,1469,981,0,0
252,43,0,0,0,0,0,0,0,0,0,-1,1476,981,0,0
259,43,0,0,0,0,0,0,0,0,0,-1,1483,981,0,0
266,43,0,0,0,0,0,0,0,0,0,-1,1490,981,0,0
273,43,0,0,0,0,0,0,0,0,0,-1,1497,981,0,0
280,43,0,0,0,0,0,0,0,0,0,-1,1504,981,0,0
287,43,0,0,0,0,0,0,0,0,0,-1,1511,981,0,0
294,43,0,0,0,0,0,0,0,0,0,-1,1518,981,0,0
301,43,0,0,0,0,0,0,0,0,0,-1,1525,981,0,0
308,43,0,0,0,0,0,0,0,0,0,-1,1532,981,0,0
315,43,0,0,0,0,0,0,0,0,0,-1,1539,981,0,0
322,43,0,0,0,0,0,0,0,0,0,-1,1546,981,0,0
329,43,0,0,0,0,0,0,0,0,0,-1,1553,981,0,0
336,43,0,0,0,0,0,0,0,0,0,-1,1560,981,0,0
343,43,0,0,0,0,0,0,0,0,0,-1,1567,981,0,0
350,43,0,0,0,0,0,0,0,0,0,-1,1574,981,0,0
357,43,0,0,0,0,0,0,0,0,0,-1,1581,981,0,0
364,43,0,0,0,0,0,0,0,0,0,-1,1588,981,0,0
371,43,0,0,0,0,0,0,0,0,0,-1,1595,981,0,0
378,43,0,0,0,0,0,0,0,0,0,-1,1602,981,0,0
385,43,0,0,0,0,0,0,0,0,0,-1,1609,981,0,0
392,43,0,0,0,0,0,0,0,0,0,-1,1616,981,0,0
399,43,0,0,0,0,0,0,0,0,0,-1,1623,981,0,0
406,43,0,0,0,0,0,0,0,0,0,-1,1630,981,0,0
413,43,0,0,0,0,0,0,0,0,0,-1,1637,981,0,0
420,43,0,0,0,0,0,0,0,0,0,-1,1644,981,0,0
427,43,0,0,0,0,0,0,0,0,0,-1,1651,981,0,0
434,43,0,0,0,0,0,0,0,0,0,-1,1658,981,0,0
441,43,0,0,0,0,0,0,0,0,0,-1,1665,981,0,0
448,43,0,0,0,0,0,0,0,0,0,-1,1672,981,0,0
455,43,0,0,0,0,0,0,0,0,0,-1,1679,981,0,0
462,43,0,0,0,0,0,0,0,0,0,-1,1686,981,0,0
469,43,0,0,0,0,0,0,0,0,0,-1,1693,981,0,0
476,43,0,0,0,0,0,0,0,0,0,-1,1700,981,0,0
483,43,0,0,0,0,0,0,0,0,0,-1,1707,981,0,0
490,43,0,0,0,0,0,0,0,0,0,-1,1714,981,0,0
497,43,0,0,0,0,0,0,0,0,0,-1,1721,981,0,0
504,43,0,0,0,0,0,0,0,0,0,-1,1728,981,0,0
511,43,0,0,0,0,0,0,0,0,0,-1,1735,981,0,0
518,43,0,0,0,0,0,0,0,0,0,-1,1742,981,0,0
525,43,0,0,0,0,0,0,0,0,0,-1,1749,981,0,0
532,43,0,0,0,0,0,0,0,0,0,-1,1756,981,0,0
539,43,0,0,0,0,0,0,0,0,0,-1,1763,981,0,0
546,43,0,0,0,0,0,0,0,0,0,-1,1770,981,0,0
553,43,0,0,0,0,0,0,0,0,0,-1,1777,981,0,0
560,43,0,0,0,0,0,0,0,0,0,-1,1784,981,0,0
567,43,0,0,0,0,0,0,0,0,0,-1,1791,981,0,0
574,43,0,0,0,0,0,0,0,0,0,-1,1798,981,0,0
581,43,0,0,0,0,0,0,0,0,0,-1,1805,981,0,0
588,43,0,0,0,0,0,0,0,0,0,-1,1812,981,0,0
595,43,0,0,0,0,0,0,0,0,0,-1,1819,981,0,0
602,43,0,0,0,0,0,0,0,0,0,-1,1826,981,0,0
609,43,0,0,0,0,0,0,0,0,0,-1,1833,981,0,0
616,43,0,0,0,0,0,0,0,0,0,-1,1840,981,0,0
623,43,0,0,0,0,0,0,0,0,0,-1,1847,981,0,0
630,43,0,0,0,0,0,0,0,0,0,-1,1854,981,0,0
637,43,0,0,0,0,0,0,0,0,0,-1,1861,981,0,0
644,43,60.2584,2.55414,0.00700546,0.00144774,0.00121483,0.0072594,0.0011938,0.206065,0.00449482,0.037994,1868,981,60.2585,-2.55412
651,43,60.2986,2.56775,0.00571841,0.000721089,0.000526726,0.00577333,0.000666174,0.103881,0.00364716,0.038308,1875,981,60.2986,-2.56775
658,43,60.345,2.49255,0.00450329,0.000386161,0.00038589,0.00453914,0.000350304,0.0926527,0.00291635,0.0386051,1882,981,60.345,-2.49254
665,43,60.3262,2.49536,0.00333336,0.000476788,0.000879432,0.00358239,0.000227754,0.275951,0.00231608,0.0372742,1889,981,60.3261,-2.49534
672,43,60.3236,2.41748,0.00212285,0.000778896,0.00174418,0.00332002,-0.000418274,0.601527,0.00236513,0.0380829,1896,981,60.3236,-2.41751
679,43,60.1044,2.41528,0.00107392,0.000919053,0.00267444,0.00367205,-0.00167907,0.770925,0.00316009,0.0418785,1903,981,60.1044,-2.41526
686,43,60.1613,2.66223,0.0003744,0.000883022,0.00337656,0.00401484,-0.00275742,0.822985,0.00393236,0.0437871,1910,981,60.1613,-2.66226
693,43,60.306,2.58264,-0.000255828,0.000697089,0.00374221,0.00399305,-0.00355179,0.848718,0.0043585,0.0408516,1917,981,60.3061,-2.58264
700,43,60.2406,2.54175,-0.000924023,0.000657061,0.00377246,0.00372092,-0.00398788,0.888682,0.00445157,0.0334967,1924,981,60.2406,-2.54175
707,43,60.317,2.58234,-0.00154147,0.000912371,0.00350144,0.00339562,-0.00402473,0.953916,0.00428927,0.0299904,1931,981,60.3171,-2.58232
714,43,60.2574,2.74512,0,0,0,0,0,0,0,-1,1938,981,60.2574,-2.74512
721,43,59.4731,5.26239,0,0,0,0,0,0,0,-1,1945,981,59.4731,-5.26241
728,43,59.4622,5.65045,-0.00416159,0.00369473,0.00262745,0.00449245,-0.00495931,1.27603,0.00545919,0.0206388,1952,981,59.4622,-5.65045
735,43,59.4495,6.0105,-0.00464188,0.00560862,0.00211902,0.0060294,-0.00506265,1.37477,0.0064121,0.0145735,1959,981,59.4495,-6.01052
742,43,59.4061,6.3064,-0.0053598,0.00757727,0.00186779,0.00784154,-0.00562406,1.43024,0.00780943,0.0157791,1966,981,59.4061,-6.30642
749,43,59.3695,6.58325,-0.00616824,0.0103252,0.00156542,0.0104725,-0.0063155,1.477,0.0097911,0.0191706,1973,981,59.3695,-6.58328
756,43,59.344,6.8374,-0.00683745,0.0142402,0.0016592,0.01437,-0.00696726,1.49272,0.0125638,0.0228635,1980,981,59.344,-6.83738
763,43,59.2903,7.08154,-0.00728727,0.019678,0.00276586,0.0199588,-0.00756805,1.46963,0.0164206,0.025398,1987,981,59.2902,-7.08155
770,43,59.1921,7.41235,-0.00722363,0.0266549,0.00549309,0.0275233,-0.00809203,1.41401,0.0215585,0.0204005,1994,981,59.1922,-7.41234
777,43,59.1824,7.75659,-0.00659397,0.034317,0.00936617,0.0363593,-0.00863631,1.3561,0.0275729,0.0239809,2001,981,59.1825,-7.7566
784,43,59.2632,8.51672,-0.00451987,0.042827,0.0150304,0.0471954,-0.00888829,1.28795,0.0348068,0.0406841,2008,981,59.2631,-8.5167
791,43,59.2183,9.27679,0.000433028,0.0522515,0.0230554,0.0610243,-0.00833975,1.20721,0.0437287,0.0457885,2015,981,59.2184,-9.2768
798,43,59.321,9.90735,0,0,0,0,0,0,0,-1,2022,981,59.321,-9.90732
805,43,58.5559,8.31128,0,0,0,0,0,0,0,-1,2029,981,58.556,-8.31126
812,43,59.0786,5.90497,0,0,0,0,0,0,0,-1,2036,981,59.0787,-5.90499
-700,36,0,0,0,0,0,0,0,0,0,-1,524,988,0,0
-693,36,-48.7154,1.89056,0,0,0,0,0,0,0,-1,531,988,-48.7154,-1.89056
-686,36,-48.1525,2.06903,0.0895098,-0.0316935,-0.0276952,0.0955383,-0.0377221,-0.214332,0.079315,0.0446094,538,988,-48.1525,-2.06903
-679,36,-47.4035,2.10339,0.0717356,-0.0234193,-0.0207026,0.0760447,-0.0277283,-0.205212,0.0620403,0.04418,545,988,-47.4035,-2.10342
-672,36,-45.3899,5.10706,0,0,0,0,0,0,0,-1,552,988,-45.3899,-5.10707
-665,36,-45.2979,5.08215,0,0,0,0,0,0,0,-1,559,988,-45.2979,-5.08215
-658,36,-45.2957,4.96002,0.0306501,-0.00273585,-0.00715381,0.0321185,-0.00420416,-0.202437,0.0229424,0.0497863,566,988,-45.2957,-4.96005
-651,36,-45.5148,4.74353,0.0209221,0.00156045,-0.00427154,0.0218226,0.000659946,-0.207771,0.0143335,0.0432484,573,988,-45.5147,-4.74352
-644,36,-45.7482,4.56964,0.0128733,0.00457661,-0.00201929,0.0133386,0.00411124,-0.226505,0.00788763,0.0289267,580,988,-45.7481,-4.56961
-637,36,-45.9175,4.44427,0.00687894,0.00593424,-0.000283342,0.00695741,0.00585577,-0.270155,0.00431816,0.0226168,587,988,-45.9176,-4.44428
-630,36,-45.9192,4.37177,0.00186393,0.00804061,0.000204758,0.00804739,0.00185715,1.53769,0.0048655,0.0166933,594,988,-45.9192,-4.37179
-623,36,-45.94,4.22015,-0.00213724,0.00892241,0.000154435,0.00892457,-0.00213939,1.55684,0.00677637,0.014365,601,988,-45.94,-4.22017
-616,36,-45.9447,4.04041,-0.00410144,0.00828943,-0.000778945,0.00833821,-0.00415022,-1.50826,0.00734409,0.0124543,608,988,-45.9447,-4.04042
-609,36,-45.9014,3.86786,-0.00380082,0.00658025,-0.00202271,0.00696044,-0.00418101,-1.385,0.0064989,0.0177957,615,988,-45.9014,-3.86785
-602,36,-45.9427,3.6059,-0.00303893,0.00496308,-0.00304515,0.00599009,-0.00406595,-1.24551,0.00584117,0.022031,622,988,-45.9428,-3.60589
-595,36,-46.1204,3.35834,-0.00259889,0.00367664,-0.00380905,0.00547389,-0.00439615,-1.12993,0.00570978,0.0250804,629,988,-46.1204,-3.35831
-588,36,-46.0109,2.29541,-0.00216427,0.00202194,-0.00455158,0.00493862,-0.00508095,-1.00091,0.005785,0.0447083,636,988,-46.0109,-2.29542
-581,36,-45.6859,1.04169,-0.00173957,0.000801308,-0.00507566,0.00476311,-0.00570138,-0.908029,0.00604977,0.0429073,643,988,-45.6859,-1.04166
-574,36,-45.6154,0.638428,-0.00169626,-0.00024183,-0.00528679,0.00436752,-0.00630562,-0.853746,0.00619591,0.0311693,650,988,-45.6154,-0.638444
-567,36,-45.6512,0.59082,-0.0018277,-0.00107416,-0.00505145,0.00361455,-0.00651641,-0.822622,0.00592855,0.0348112,657,988,-45.6512,-0.590828
-560,36,-45.6808,0.564514,-0.00190625,-0.00198435,-0.00440625,0.00246112,-0.00635172,-0.780967,0.00525077,0.0378643,664,988,-45.6809,-0.5645
-553,36,-45.7805,0.743347,-0.00185541,-0.00313465,-0.00340865,0.000973115,-0.00596317,-0.692653,0.00433637,0.0414683,671,988,-45.7805,-0.743323
-546,36,-45.785,0.606995,-0.00150869,-0.00480711,-0.00210991,-0.00047991,-0.00583589,-0.453673,0.0037409,0.0437989,678,988,-45.785,-0.606974
-539,36,-45.731,0.41272,-0.000747846,-0.00723364,-0.000784295,-0.000654353,-0.00732714,-0.118647,0.00468191,0.0465204,685,988,-45.7309,-0.412728
-532,36,-45.744,0.544556,0.000933659,-0.00943764,-0.00066798,0.000976505,-0.00948048,-0.0640539,0.0066697,0.0477153,692,988,-45.744,-0.544553
-525,36,-45.6839,0.62439,0.00312519,-0.0100666,-0.00338258,0.00394196,-0.0108834,-0.23693,0.00886663,0.0483716,699,988,-45.6839,-0.624368
-518,36,0,0,0,0,0,0,0,0,0,-1,706,988,0,0
-511,36,0,0,0,0,0,0,0,0,0,-1,713,988,0,0
-504,36,0,0,0,0,0,0,0,0,0,-1,720,988,0,0
-497,36,0,0,0,0,0,0,0,0,0,-1,727,988,0,0
-490,36,0,0,0,0,0,0,0,0,0,-1,734,988,0,0
-483,36,0,0,0,0,0,0,0,0,0,-1,741,988,0,0
-476,36,0,0,0,0,0,0,0,0,0,-1,748,988,0,0
-469,36,0,0,0,0,0,0,0,0,0,-1,755,988,0,0
-462,36,0,0,0,0,0,0,0,0,0,-1,762,988,0,0
-455,36,0,0,0,0,0,0,0,0,0,-1,769,988,0,0
-448,36,0,0,0,0,0,0,0,0,0,-1,776,988,0,0
-441,36,0,0,0,0,0,0,0,0,0,-1,783,988,0,0
-434,36,0,0,0,0,0,0,0,0,0,-1,790,988,0,0
-427,36,0,0,0,0,0,0,0,0,0,-1,797,988,0,0
-420,36,0,0,0,0,0,0,0,0,0,-1,804,988,0,0
-413,36,0,0,0,0,0,0,0,0,0,-1,811,988,0,0
-406,36,0,0,0,0,0,0,0,0,0,-1,818,988,0,0
-399,36,0,0,0,0,0,0,0,0,0,-1,825,988,0,0
-392,36,0,0,0,0,0,0,0,0,0,-1,832,988,0,0
-385,36,0,0,0,0,0,0,0,0,0,-1,839,988,0,0
-378,36,0,0,0,0,0,0,0,0,0,-1,846,988,0,0
-371,36,0,0,0,0,0,0,0,0,0,-1,853,988,0,0
-364,36,0,0,0,0,0,0,0,0,0,-1,860,988,0,0
-357,36,0,0,0,0,0,0,0,0,0,-1,867,988,0,0
-350,36,0,0,0,0,0,0,0,0,0,-1,874,988,0,0
-343,36,0,0,0,0,0,0,0,0,0,-1,881,988,0,0
-336,36,0,0,0,0,0,0,0,0,0,-1,888,988,0,0
-329,36,0,0,0,0,0,0,0,0,0,-1,895,988,0,0
-322,36,0,0,0,0,0,0,0,0,0,-1,902,988,0,0
-315,36,0,0,0,0,0,0,0,0,0,-1,909,988,0,0
-308,36,0,0,0,0,0,0,0,0,0,-1,916,988,0,0
-301,36,0,0,0,0,0,0,0,0,0,-1,923,988,0,0
-294,36,0,0,0,0,0,0,0,0,0,-1,930,988,0,0
-287,36,0,0,0,0,0,0,0,0,0,-1,937,988,0,0
-280,36,0,0,0,0,0,0,0,0,0,-1,944,988,0,0
-273,36,0,0,0,0,0,0,0,0,0,-1,951,988,0,0
-266,36,0,0,0,0,0,0,0,0,0,-1,958,988,0,0
-259,36,0,0,0,0,0,0,0,0,0,-1,965,988,0,0
-252,36,0,0,0,0,0,0,0,0,0,-1,972,988,0,0
-245,36,0,0,0,0,0,0,0,0,0,-1,979,988,0,0
-238,36,0,0,0,0,0,0,0,0,0,-1,986,988,0,0
-231,36,0,0,0,0,0,0,0,0,0,-1,993,988,0,0
-224,36,0,0,0,0,0,0,0,0,0,-1,1000,988,0,0
-217,36,0,0,0,0,0,0,0,0,0,-1,1007,988,0,0
-210,36,0,0,0,0,0,0,0,0,0,-1,1014,988,0,0
-203,36,0,0,0,0,0,0,0,0,0,-1,1021,988,0,0
-196,36,0,0,0,0,0,0,0,0,0,-1,1028,988,0,0
-189,36,0,0,0,0,0,0,0,0,0,-1,1035,988,0,0
-182,36,0,0,0,0,0,0,0,0,0,-1,1042,988,0,0
-175,36,0,0,0,0,0,0,0,0,0,-1,1049,988,0,0
-168,36,0,0,0,0,0,0,0,0,0,-1,1056,988,0,0
-161,36,0,0,0,0,0,0,0,0,0,-1,1063,988,0,0
-154,36,0,0,0,0,0,0,0,0,0,-1,1070,988,0,0
-147,36,0,0,0,0,0,0,0,0,0,-1,1077,988,0,0
-140,36,0,0,0,0,0,0,0,0,0,-1,1084,988,0,0
-133,36,0,0,0,0,0,0,0,0,0,-1,1091,988,0,0
-126,36,0,0,0,0,0,0,0,0,0,-1,1098,988,0,0
-119,36,0,0,0,0,0,0,0,0,0,-1,1105,988,0,0
-112,36,0,0,0,0,0,0,0,0,0,-1,1112,988,0,0
-105,36,0,0,0,0,0,0,0,0,0,-1,1119,988,0,0
-98,36,0,0,0,0,0,0,0,0,0,-1,1126,988,0,0
-91,36,0,0,0,0,0,0,0,0,0,-1,1133,988,0,0
-84,36,0,0,0,0,0,0,0,0,0,-1,1140,988,0,0
-77,36,0,0,0,0,0,0,0,0,0,-1,1147,988,0,0
-70,36,0,0,0,0,0,0,0,0,0,-1,1154,988,0,0
-63,36,0,0,0,0,0,0,0,0,0,-1,1161,988,0,0
-56,36,0,0,0,0,0,0,0,0,0,-1,1168,988,0,0
-49,36,0,0,0,0,0,0,0,0,0,-1,1175,988,0,0
-42,36,0,0,0,0,0,0,0,0,0,-1,1182,988,0,0
-35,36,0,0,0,0,0,0,0,0,0,-1,1189,988,0,0
-28,36,0,0,0,0,0,0,0,0,0,-1,1196,988,0,0
-21,36,0,0,0,0,0,0,0,0,0,-1,1203,988,0,0
-14,36,0,0,0,0,0,0,0,0,0,-1,1210,988,0,0
-7,36,0,0,0,0,0,0,0,0,0,-1,1217,988,0,0
0,36,0,0,0,0,0,0,0,0,0,-1,1224,988,0,0
7,36,0,0,0,0,0,0,0,0,0,-1,1231,988,0,0
14,36,0,0,0,0,0,0,0,0,0,-1,1238,988,0,0
21,36,0,0,0,0,0,0,0,0,0,-1,1245,988,0,0
28,36,0,0,0,0,0,0,0,0,0,-1,1252,988,0,0
35,36,0,0,0,0,0,0,0,0,0,-1,1259,988,0,0
42,36,0,0,0,0,0,0,0,0,0,-1,1266,988,0,0
49,36,0,0,0,0,0,0,0,0,0,-1,1273,988,0,0
56,36,0,0,0,0,0,0,0,0,0,-1,1280,988,0,0
63,36,0,0,0,0,0,0,0,0,0,-1,1287,988,0,0
70,36,0,0,0,0,0,0,0,0,0,-1,1294,988,0,0
77,36,0,0,0,0,0,0,0,0,0,-1,1301,988,0,0
84,36,0,0,0,0,0,0,0,0,0,-1,1308,988,0,0
91,36,0,0,0,0,0,0,0,0,0,-1,1315,988,0,0
98,36,0,0,0,0,0,0,0,0,0,-1,1322,988,0,0
105,36,0,0,0,0,0,0,0,0,0,-1,1329,988,0,0
112,36,0,0,0,0,0,0,0,0,0,-1,1336,988,0,0
119,36,0,0,0,0,0,0,0,0,0,-1,1343,988,0,0
126,36,0,0,0,0,0,0,0,0,0,-1,1350,988,0,0
133,36,0,0,0,0,0,0,0,0,0,-1,1357,988,0,0
140,36,0,0,0,0,0,0,0,0,0,-1,1364,988,0,0
147,36,0,0,0,0,0,0,0,0,0,-1,1371,988,0,0
154,36,0,0,0,0,0,0,0,0,0,-1,1378,988,0,0
161,36,0,0,0,0,0,0,0,0,0,-1,1385,988,0,0
168,36,0,0,0,0,0,0,0,0,0,-1,1392,988,0,0
175,36,0,0,0,0,0,0,0,0,0,-1,1399,988,0,0
182,36,0,0,0,0,0,0,0,0,0,-1,1406,988,0,0
189,36,0,0,0,0,0,0,0,0,0,-1,1413,988,0,0
196,36,0,0,0,0,0,0,0,0,0,-1,1420,988,0,0
203,36,0,0,0,0,0,0,0,0,0,-1,1427,988,0,0
210,36,0,0,0,0,0,0,0,0,0,-1,1434,988,0,0
217,36,0,0,0,0,0,0,0,0,0,-1,1441,988,0,0
224,36,0,0,0,0,0,0,0,0,0,-1,1448,988,0,0
231,36,0,0,0,0,0,0,0,0,0,-1,1455,988,0,0
238,36,0,0,0,0,0,0,0,0,0,-1,1462,988,0,0
245,36,0,0,0,0,0,0,0,0,0,-1,1469,988,0,0
252,36,0,0,0,0,0,0,0,0,0,-1,1476,988,0,0
259,36,0,0,0,0,0,0,0,0,0,-1,1483,988,0,0
266,36,0,0,0,0,0,0,0,0,0,-1,1490,988,0,0
273,36,0,0,0,0,0,0,0,0,0,-1,1497,988,0,0
280,36,0,0,0,0,0,0,0,0,0,-1,1504,988,0,0
287,36,0,0,0,0,0,0,0,0,0,-1,1511,988,0,0
294,36,0,0,0,0,0,0,0,0,0,-1,1518,988,0,0
301,36,0,0,0,0,0,0,0,0,0,-1,1525,988,0,0
308,36,0,0,0,0,0,0,0,0,0,-1,1532,988,0,0
315,36,0,0,0,0,0,0,0,0,0,-1,1539,988,0,0
322,36,0,0,0,0,0,0,0,0,0,-1,1546,988,0,0
329,36,0,0,0,0,0,0,0,0,0,-1,1553,988,0,0
336,36,0,0,0,0,0,0,0,0,0,-1,1560,988,0,0
343,36,0,0,0,0,0,0,0,0,0,-1,1567,988,0,0
350,36,0,0,0,0,0,0,0,0,0,-1,1574,988,0,0
357,36,0,0,0,0,0,0,0,0,0,-1,1581,988,0,0
364,36,0,0,0,0,0,0,0,0,0,-1,1588,988,0,0
371,36,0,0,0,0,0,0,0,0,0,-1,1595,988,0,0
378,36,0,0,0,0,0,0,0,0,0,-1,1602,988,0,0
385,36,0,0,0,0,0,0,0,0,0,-1,1609,988,0,0
392,36,0,0,0,0,0,0,0,0,0,-1,1616,988,0,0
399,36,0,0,0,0,0,0,0,0,0,-1,1623,988,0,0
406,36,0,0,0,0,0,0,0,0,0,-1,1630,988,0,0
413,36,0,0,0,0,0,0,0,0,0,-1,1637,988,0,0
420,36,0,0,0,0,0,0,0,0,0,-1,1644,988,0,0
427,36,0,0,0,0,0,0,0,0,0,-1,1651,988,0,0
434,36,0,0,0,0,0,0,0,0,0,-1,1658,988,0,0
441,36,0,0,0,0,0,0,0,0,0,-1,1665,988,0,0
448,36,0,0,0,0,0,0,0,0,0,-1,1672,988,0,0
455,36,0,0,0,0,0,0,0,0,0,-1,1679,988,0,0
462,36,0,0,0,0,0,0,0,0,0,-1,1686,988,0,0
469,36,0,0,0,0,0,0,0,0,0,-1,1693,988,0,0
476,36,0,0,0,0,0,0,0,0,0,-1,1700,988,0,0
483,36,0,0,0,0,0,0,0,0,0,-1,1707,988,0,0
490,36,0,0,0,0,0,0,0,0,0,-1,1714,988,0,0
497,36,0,0,0,0,0,0,0,0,0,-1,1721,988,0,0
504,36,0,0,0,0,0,0,0,0,0,-1,1728,988,0,0
511,36,0,0,0,0,0,0,0,0,0,-1,1735,988,0,0
518,36,0,0,0,0,0,0,0,0,0,-1,1742,988,0,0
525,36,0,0,0,0,0,0,0,0,0,-1,1749,988,0,0
532,36,0,0,0,0,0,0,0,0,0,-1,1756,988,0,0
539,36,0,0,0,0,0,0,0,0,0,-1,1763,988,0,0
546,36,0,0,0,0,0,0,0,0,0,-1,1770,988,0,0
553,36,0,0,0,0,0,0,0,0,0,-1,1777,988,0,0
560,36,0,0,0,0,0,0,0,0,0,-1,1784,988,0,0
567,36,0,0,0,0,0,0,0,0,0,-1,1791,988,0,0
574,36,0,0,0,0,0,0,0,0,0,-1,1798,988,0,0
581,36,0,0,0,0,0,0,0,0,0,-1,1805,988,0,0
588,36,0,0,0,0,0,0,0,0,0,-1,1812,988,0,0
595,36,0,0,0,0,0,0,0,0,0,-1,1819,988,0,0
602,36,0,0,0,0,0,0,0,0,0,-1,1826,988,0,0
609,36,0,0,0,0,0,0,0,0,0,-1,1833,988,0,0
616,36,0,0,0,0,0,0,0,0,0,-1,1840,988,0,0
623,36,0,0,0,0,0,0,0,0,0,-1,1847,988,0,0
630,36,0,0,0,0,0,0,0,0,0,-1,1854,988,0,0
637,36,0,0,0,0,0,0,0,0,0,-1,1861,988,0,0
644,36,60.136,2.62244,0.00680351,0.00156734,0.00109749,0.00702423,0.00134662,0.198472,0.00430474,0.0421469,1868,988,60.136,-2.62242
651,36,60.0759,2.80499,0.00562674,0.00077456,0.000336643,0.00564999,0.000751315,0.0689395,0.00354288,0.0390963,1875,988,60.0759,-2.80497
658,36,60.1189,2.729,0.00450628,0.000362652,0.000118709,0.00450968,0.000359254,0.0286173,0.00289415,0.0392569,1882,988,60.1189,-2.72901
665,36,60.2903,2.69922,0.00341792,0.000382092,0.000559087,0.00351761,0.000282403,0.176453,0.00225684,0.0382921,1889,988,60.2903,-2.69922
672,36,60.2998,2.63879,0.00230775,0.00065279,0.00140431,0.00311024,-0.000149703,0.519162,0.00212515,0.0373567,1896,988,60.2998,-2.63878
679,36,60.217,2.52924,0.0013252,0.000836343,0.00236447,0.00345784,-0.00129631,0.733894,0.0028378,0.04024,1903,988,60.217,-2.52924
686,36,60.316,2.5202,0.000635727,0.000850939,0.00313887,0.00388405,-0.00239738,0.802532,0.00366028,0.038123,1910,988,60.316,-2.52022
693,36,60.3722,2.50128,2.62688e-05,0.000713965,0.00361578,0.00400221,-0.00326197,0.832804,0.00420123,0.0389983,1917,988,60.3722,-2.50131
700,36,60.2899,2.5376,-0.000584076,0.000689896,0.00373102,0.00383792,-0.0037321,0.869946,0.00437069,0.0350338,1924,988,60.2899,-2.53761
707,36,60.3179,2.57483,-0.00120561,0.000968468,0.00353524,0.00358002,-0.00381716,0.934553,0.0042715,0.027686,1931,988,60.3179,-2.57483
714,36,60.2159,3.11096,-0.00201571,0.00152912,0.00317008,0.00338863,-0.00387522,1.0403,0.00419692,0.0431345,1938,988,60.216,-3.11095
721,36,59.7451,5.35834,0,0,0,0,0,0,0,-1,1945,988,59.7451,-5.35835
728,36,59.7157,5.73987,-0.00410633,0.00397656,0.0026438,0.00476449,-0.00489427,1.28115,0.00557666,0.0214714,1952,988,59.7158,-5.73987
735,36,59.7069,6.08838,-0.00463599,0.00602951,0.00207021,0.00641725,-0.00502372,1.38565,0.00662176,0.0196373,1959,988,59.7069,-6.0884
742,36,59.6455,6.28339,-0.00539779,0.00800427,0.00173737,0.00822583,-0.00561935,1.44395,0.0080406,0.0159958,1966,988,59.6455,-6.28339
749,36,59.6172,6.53668,-0.00631327,0.0107496,0.00125658,0.0108417,-0.00640531,1.49768,0.0100667,0.0182234,1973,988,59.6172,-6.53666
756,36,59.6045,6.78851,-0.00710095,0.014652,0.00103216,0.0147009,-0.00714982,1.52349,0.0128642,0.018645,1980,988,59.6046,-6.78849
763,36,59.5171,6.995,-0.00763469,0.02015,0.00158535,0.0202402,-0.00772485,1.51398,0.0166759,0.020907,1987,988,59.5171,-6.99498
770,36,59.4531,7.25366,-0.00757996,0.0275019,0.00362376,0.0278723,-0.00795036,1.46894,0.0217222,0.0165578,1994,988,59.453,-7.25364
777,36,59.4954,7.58514,-0.00680761,0.0356247,0.00671092,0.0366608,-0.00784368,1.41762,0.0274315,0.0239688,2001,988,59.4953,-7.58514
784,36,59.6575,7.91699,-0.00452212,0.0445383,0.0112716,0.047004,-0.00698783,1.35543,0.0339062,0.0458667,2008,988,59.6575,-7.91701
791,36,59.8013,8.2442,0,0,0,0,0,0,0,-1,2015,988,59.8013,-8.24421
798,36,58.7798,8.06006,0,0,0,0,0,0,0,-1,2022,988,58.7799,-8.06007
805,36,58.2576,6.50665,0,0,0,0,0,0,0,-1,2029,988,58.2576,-6.50666
812,36,58.1711,5.26349,0,0,0,0,0,0,0,-1,2036,988,58.171,-5.26351
-700,29,0,0,0,0,0,0,0,0,0,-1,524,995,0,0
-693,29,-48.7325,2.21472,0,0,0,0,0,0,0,-1,531,995,-48.7325,-2.2147
-686,29,-48.0035,2.26263,0.0791278,-0.0229933,-0.0290384,0.0868074,-0.0306729,-0.258545,0.070361,0.0426384,538,995,-48.0035,-2.26264
-679,29,-47.3119,2.33008,0.0630676,-0.016844,-0.0214619,0.0684668,-0.0222432,-0.246458,0.0545909,0.0439033,545,995,-47.3119,-2.3301
-672,29,-46.5079,2.41315,0.0487906,-0.01035,-0.0156602,0.0526814,-0.0142408,-0.243521,0.0407068,0.0426298,552,995,-46.5079,-2.41312
-665,29,-45.3807,4.83069,0,0,0,0,0,0,0,-1,559,995,-45.3807,-4.83069
-658,29,-45.1898,4.50684,0,0,0,0,0,0,0,-1,566,995,-45.1898,-4.50687
-651,29,-45.7327,4.37384,0,0,0,0,0,0,0,-1,573,995,-45.7327,-4.37383
-644,29,-45.8798,4.13605,0.0103188,0.00603202,-0.00249988,0.0114684,0.00488247,-0.431009,0.00664558,0.0451005,580,995,-45.8798,-4.13603
-637,29,-46.1283,4.25446,0.00507169,0.00673357,-0.000731877,0.00700993,0.00479533,-1.20975,0.0041376,0.0261185,587,995,-46.1283,-4.25446
-630,29,-46.1355,4.24994,0.000668794,0.00844485,-0.000239915,0.00845224,0.000661399,-1.53998,0.00542781,0.0141872,594,995,-46.1355,-4.24995
-623,29,-46.1276,4.17487,-0.00277737,0.00891829,-0.000286977,0.00892533,-0.00278441,-1.54628,0.00706372,0.0130495,601,995,-46.1275,-4.17484
-616,29,-46.1629,4.02441,-0.00438291,0.00806156,-0.00113671,0.00816454,-0.00448589,-1.48045,0.00740595,0.0147919,608,995,-46.1629,-4.02444
-609,29,-46.1617,3.93542,-0.00390486,0.0063035,-0.0021941,0.0067551,-0.00435646,-1.3678,0.0064649,0.0231386,615,995,-46.1617,-3.93543
-602,29,-46.2625,3.74243,-0.00311043,0.00458955,-0.00300355,0.00562257,-0.00414344,-1.23954,0.00565993,0.0247771,622,995,-46.2624,-3.74245
-595,29,-46.3949,3.46136,-0.00265667,0.00324539,-0.00364295,0.00498261,-0.00439389,-1.12582,0.00541708,0.0268192,629,995,-46.3949,-3.46134
-588,29,-46.5281,3.1969,0,0,0,0,0,0,0,-1,636,995,-46.5281,-3.19692
-581,29,-45.6162,1.13885,0,0,0,0,0,0,0,-1,643,995,-45.6162,-1.13886
-574,29,-45.5834,0.722656,-0.00150409,-0.000618242,-0.00497475,0.00393326,-0.0060556,-0.829798,0.0058103,0.0336013,650,995,-45.5834,-0.722643
-567,29,-45.6141,0.581299,-0.00158355,-0.00142002,-0.00474039,0.00323931,-0.00624288,-0.794021,0.00556534,0.0317111,657,995,-45.6141,-0.581328
-560,29,-45.6586,0.518494,-0.00160362,-0.00228084,-0.00413139,0.00220302,-0.00608748,-0.744509,0.00495856,0.0356225,664,995,-45.6586,-0.51851
-553,29,-45.728,0.726074,-0.00153211,-0.00340778,-0.0032179,0.000881834,-0.00582173,-0.643604,0.00420602,0.0398134,671,995,-45.7281,-0.726099
-546,29,-45.7141,0.77832,-0.00121602,-0.00512951,-0.0020608,-0.000330984,-0.00601455,-0.405646,0.00390405,0.0411141,678,995,-45.7141,-0.778314
-539,29,-45.7677,0.655518,-0.000572272,-0.00765136,-0.0009899,-0.000436455,-0.00778718,-0.136351,0.00505226,0.0432761,685,995,-45.7677,-0.655519
-532,29,-45.6954,0.855896,0.000904504,-0.0098341,-0.00123167,0.00104396,-0.00997355,-0.112745,0.00702293,0.0467723,692,995,-45.6954,-0.855913
-525,29,-45.6906,0.867859,0.00284365,-0.0108215,-0.00405828,0.00395801,-0.0119358,-0.267984,0.00955387,0.0461835,699,995,-45.6905,-0.867838
-518,29,0,0,0,0,0,0,0,0,0,-1,706,995,0,0
-511,29,0,0,0,0,0,0,0,0,0,-1,713,995,0,0
-504,29,0,0,0,0,0,0,0,0,0,-1,720,995,0,0
-497,29,0,0,0,0,0,0,0,0,0,-1,727,995,0,0
-490,29,0,0,0,0,0,0,0,0,0,-1,734,995,0,0
-483,29,0,0,0,0,0,0,0,0,0,-1,741,995,0,0
-476,29,0,0,0,0,0,0,0,0,0,-1,748,995,0,0
-469,29,0,0,0,0,0,0,0,0,0,-1,755,995,0,0
-462,29,0,0,0,0,0,0,0,0,0,-1,762,995,0,0
-455,29,0,0,0,0,0,0,0,0,0,-1,769,995,0,0
-448,29,0,0,0,0,0,0,0,0,0,-1,776,995,0,0
-441,29,0,0,0,0,0,0,0,0,0,-1,783,995,0,0
-434,29,0,0,0,0,0,0,0,0,0,-1,790,995,0,0
-427,29,0,0,0,0,0,0,0,0,0,-1,797,995,0,0
-420,29,0,0,0,0,0,0,0,0,0,-1,804,995,0,0
-413,29,0,0,0,0,0,0,0,0,0,-1,811,995,0,0
-406,29,0,0,0,0,0,0,0,0,0,-1,818,995,0,0
-399,29,0,0,0,0,0,0,0,0,0,-1,825,995,0,0
-392,29,0,0,0,0,0,0,0,0,0,-1,832,995,0,0
-385,29,0,0,0,0,0,0,0,0,0,-1,839,995,0,0
-378,29,0,0,0,0,0,0,0,0,0,-1,846,995,0,0
-371,29,0,0,0,0,0,0,0,0,0,-1,853,995,0,0
-364,29,0,0,0,0,0,0,0,0,0,-1,860,995,0,0
-357,29,0,0,0,0,0,0,0,0,0,-1,867,995,0,0
-350,29,0,0,0,0,0,0,0,0,0,-1,874,995,0,0
-343,29,0,0,0,0,0,0,0,0,0,-1,881,995,0,0
-336,29,0,0,0,0,0,0,0,0,0,-1,888,995,0,0
-329,29,0,0,0,0,0,0,0,0,0,-1,895,995,0,0
-322,29,0,0,0,0,0,0,0,0,0,-1,902,995,0,0
-315,29,0,0,0,0,0,0,0,0,0,-1,909,995,0,0
-308,29,0,0,0,0,0,0,0,0,0,-1,916,995,0,0
-301,29,0,0,0,0,0,0,0,0,0,-1,923,995,0,0
-294,29,0,0,0,0,0,0,0,0,0,-1,930,995,0,0
-287,29,0,0,0,0,0,0,0,0,0,-1,937,995,0,0
-280,29,0,0,0,0,0,0,0,0,0,-1,944,995,0,0
-273,29,0,0,0,0,0,0,0,0,0,-1,951,995,0,0
-266,29,0,0,0,0,0,0,0,0,0,-1,958,995,0,0
-259,29,0,0,0,0,0,0,0,0,0,-1,965,995,0,0
-252,29,0,0,0,0,0,0,0,0,0,-1,972,995,0,0
-245,29,0,0,0,0,0,0,0,0,0,-1,979,995,0,0
-238,29,0,0,0,0,0,0,0,0,0,-1,986,995,0,0
-231,29,0,0,0,0,0,0,0,0,0,-1,993,995,0,0
-224,29,0,0,0,0,0,0,0,0,0,-1,1000,995,0,0
-217,29,0,0,0,0,0,0,0,0,0,-1,1007,995,0,0
-210,29,0,0,0,0,0,0,0,0,0,-1,1014,995,0,0
-203,29,0,0,0,0,0,0,0,0,0,-1,1021,995,0,0
-196,29,0,0,0,0,0,0,0,0,0,-1,1028,995,0,0
-189,29,0,0,0,0,0,0,0,0,0,-1,1035,995,0,0
-182,29,0,0,0,0,0,0,0,0,0,-1,1042,995,0,0
-175,29,0,0,0,0,0,0,0,0,0,-1,1049,995,0,0
-168,29,0,0,0,0,0,0,0,0,0,-1,1056,995,0,0
-161,29,0,0,0,0,0,0,0,0,0,-1,1063,995,0,0
-154,29,0,0,0,0,0,0,0,0,0,-1,1070,995,0,0
-147,29,0,0,0,0,0,0,0,0,0,-1,1077,995,0,0
-140,29,0,0,0,0,0,0,0,0,0,-1,1084,995,0,0
-133,29,0,0,0,0,0,0,0,0,0,-1,1091,995,0,0
-126,29,0,0,0,0,0,0,0,0,0,-1,1098,995,0,0
-119,29,0,0,0,0,0,0,0,0,0,-1,1105,995,0,0
-112,29,0,0,0,0,0,0,0,0,0,-1,1112,995,0,0
-105,29,0,0,0,0,0,0,0,0,0,-1,1119,995,0,0
-98,29,0,0,0,0,0,0,0,0,0,-1,1126,995,0,0
-91,29,0,0,0,0,0,0,0,0,0,-1,1133,995,0,0
-84,29,0,0,0,0,0,0,0,0,0,-1,1140,995,0,0
-77,29,0,0,0,0,0,0,0,0,0,-1,1147,995,0,0
-70,29,0,0,0,0,0,0,0,0,0,-1,1154,995,0,0
-63,29,0,0,0,0,0,0,0,0,0,-1,1161,995,0,0
-56,29,0,0,0,0,0,0,0,0,0,-1,1168,995,0,0
-49,29,0,0,0,0,0,0,0,0,0,-1,1175,995,0,0
-42,29,0,0,0,0,0,0,0,0,0,-1,1182,995,0,0
-35,29,0,0,0,0,0,0,0,0,0,-1,1189,995,0,0
-28,29,0,0,0,0,0,0,0,0,0,-1,1196,995,0,0
-21,29,0,0,0,0,0,0,0,0,0,-1,1203,995,0,0
-14,29,0,0,0,0,0,0,0,0,0,-1,1210,995,0,0
-7,29,0,0,0,0,0,0,0,0,0,-1,1217,995,0,0
0,29,0,0,0,0,0,0,0,0,0,-1,1224,995,0,0
7,29,0,0,0,0,0,0,0,0,0,-1,1231,995,0,0
14,29,0,0,0,0,0,0,0,0,0,-1,1238,995,0,0
21,29,0,0,0,0,0,0,0,0,0,-1,1245,995,0,0
28,29,0,0,0,0,0,0,0,0,0,-1,1252,995,0,0
35,29,0,0,0,0,0,0,0,0,0,-1,1259,995,0,0
42,29,0,0,0,0,0,0,0,0,0,-1,1266,995,0,0
49,29,0,0,0,0,0,0,0,0,0,-1,1273,995,0,0
56,29,0,0,0,0,0,0,0,0,0,-1,1280,995,0,0
63,29,0,0,0,0,0,0,0,0,0,-1,1287,995,0,0
70,29,0,0,0,0,0,0,0,0,0,-1,1294,995,0,0
77,29,0,0,0,0,0,0,0,0,0,-1,1301,995,0,0
84,29,0,0,0,0,0,0,0,0,0,-1,1308,995,0,0
91,29,0,0,0,0,0,0,0,0,0,-1,1315,995,0,0
98,29,0,0,0,0,0,0,0,0,0,-1,1322,995,0,0
105,29,0,0,0,0,0,0,0,0,0,-1,1329,995,0,0
112,29,0,0,0,0,0,0,0,0,0,-1,1336,995,0,0
119,29,0,0,0,0,0,0,0,0,0,-1,1343,995,0,0
126,29,0,0,0,0,0,0,0,0,0,-1,1350,995,0,0
133,29,0,0,0,0,0,0,0,0,0,-1,1357,995,0,0
140,29,0,0,0,0,0,0,0,0,0,-1,1364,995,0,0
147,29,0,0,0,0,0,0,0,0,0,-1,1371,995,0,0
154,29,0,0,0,0,0,0,0,0,0,-1,1378,995,0,0
161,29,0,0,0,0,0,0,0,0,0,-1,1385,995,0,0
168,29,0,0,0,0,0,0,0,0,0,-1,1392,995,0,0
175,29,0,0,0,0,0,0,0,0,0,-1,1399,995,0,0
182,29,0,0,0,0,0,0,0,0,0,-1,1406,995,0,0
189,29,0,0,0,0,0,0,0,0,0,-1,1413,995,0,0
196,29,0,0,0,0,0,0,0,0,0,-1,1420,995,0,0
203,29,0,0,0,0,0,0,0,0,0,-1,1427,995,0,0
210,29,0,0,0,0,0,0,0,0,0,-1,1434,995,0,0
217,29,0,0,0,0,0,0,0,0,0,-1,1441,995,0,0
224,29,0,0,0,0,0,0,0,0,0,-1,1448,995,0,0
231,29,0,0,0,0,0,0,0,0,0,-1,1455,995,0,0
238,29,0,0,0,0,0,0,0,0,0,-1,1462,995,0,0
245,29,0,0,0,0,0,0,0,0,0,-1,1469,995,0,0
252,29,0,0,0,0,0,0,0,0,0,-1,1476,995,0,0
259,29,0,0,0,0,0,0,0,0,0,-1,1483,995,0,0
266,29,0,0,0,0,0,0,0,0,0,-1,1490,995,0,0
273,29,0,0,0,0,0,0,0,0,0,-1,1497,995,0,0
280,29,0,0,0,0,0,0,0,0,0,-1,1504,995,0,0
287,29,0,0,0,0,0,0,0,0,0,-1,1511,995,0,0
294,29,0,0,0,0,0,0,0,0,0,-1,1518,995,0,0
301,29,0,0,0,0,0,0,0,0,0,-1,1525,995,0,0
308,29,0,0,0,0,0,0,0,0,0,-1,1532,995,0,0
315,29,0,0,0,0,0,0,0,0,0,-1,1539,995,0,0
322,29,0,0,0,0,0,0,0,0,0,-1,1546,995,0,0
329,29,0,0,0,0,0,0,0,0,0,-1,1553,995,0,0
336,29,0,0,0,0,0,0,0,0,0,-1,1560,995,0,0
343,29,0,0,0,0,0,0,0,0,0,-1,1567,995,0,0
350,29,0,0,0,0,0,0,0,0,0,-1,1574,995,0,0
357,29,0,0,0,0,0,0,0,0,0,-1,1581,995,0,0
364,29,0,0,0,0,0,0,0,0,0,-1,1588,995,0,0
371,29,0,0,0,0,0,0,0,0,0,-1,1595,995,0,0
378,29,0,0,0,0,0,0,0,0,0,-1,1602,995,0,0
385,29,0,0,0,0,0,0,0,0,0,-1,1609,995,0,0
392,29,0,0,0,0,0,0,0,0,0,-1,1616,995,0,0
399,29,0,0,0,0,0,0,0,0,0,-1,1623,995,0,0
406,29,0,0,0,0,0,0,0,0,0,-1,1630,995,0,0
413,29,0,0,0,0,0,0,0,0,0,-1,1637,995,0,0
420,29,0,0,0,0,0,0,0,0,0,-1,1644,995,0,0
427,29,0,0,0,0,0,0,0,0,0,-1,1651,995,0,0
434,29,0,0,0,0,0,0,0,0,0,-1,1658,995,0,0
441,29,0,0,0,0,0,0,0,0,0,-1,1665,995,0,0
448,29,0,0,0,0,0,0,0,0,0,-1,1672,995,0,0
455,29,0,0,0,0,0,0,0,0,0,-1,1679,995,0,0
462,29,0,0,0,0,0,0,0,0,0,-1,1686,995,0,0
469,29,0,0,0,0,0,0,0,0,0,-1,1693,995,0,0
476,29,0,0,0,0,0,0,0,0,0,-1,1700,995,0,0
483,29,0,0,0,0,0,0,0,0,0,-1,1707,995,0,0
490,29,0,0,0,0,0,0,0,0,0,-1,1714,995,0,0
497,29,0,0,0,0,0,0,0,0,0,-1,1721,995,0,0
504,29,0,0,0,0,0,0,0,0,0,-1,1728,995,0,0
511,29,0,0,0,0,0,0,0,0,0,-1,1735,995,0,0
518,29,0,0,0,0,0,0,0,0,0,-1,1742,995,0,0
525,29,0,0,0,0,0,0,0,0,0,-1,1749,995,0,0
532,29,0,0,0,0,0,0,0,0,0,-1,1756,995,0,0
539,29,0,0,0,0,0,0,0,0,0,-1,1763,995,0,0
546,29,0,0,0,0,0,0,0,0,0,-1,1770,995,0,0
553,29,0,0,0,0,0,0,0,0,0,-1,1777,995,0,0
560,29,0,0,0,0,0,0,0,0,0,-1,1784,995,0,0
567,29,0,0,0,0,0,0,0,0,0,-1,1791,995,0,0
574,29,0,0,0,0,0,0,0,0,0,-1,1798,995,0,0
581,29,0,0,0,0,0,0,0,0,0,-1,1805,995,0,0
588,29,0,0,0,0,0,0,0,0,0,-1,1812,995,0,0
595,29,0,0,0,0,0,0,0,0,0,-1,1819,995,0,0
602,29,0,0,0,0,0,0,0,0,0,-1,1826,995,0,0
609,29,0,0,0,0,0,0,0,0,0,-1,1833,995,0,0
616,29,0,0,0,0,0,0,0,0,0,-1,1840,995,0,0
623,29,0,0,0,0,0,0,0,0,0,-1,1847,995,0,0
630,29,0,0,0,0,0,0,0,0,0,-1,1854,995,0,0
637,29,0,0,0,0,0,0,0,0,0,-1,1861,995,0,0
644,29,60.2635,2.61176,0.00636198,0.00214466,0.00109837,0.00663089,0.00187575,0.240107,0.00394683,0.0459283,1868,995,60.2635,-2.61175
651,29,60.1731,2.92041,0.00531222,0.00126314,0.000262197,0.00532913,0.00124624,0.0643964,0.00321879,0.0409425,1875,995,60.1732,-2.9204
658,29,59.9788,3.0036,0.00430785,0.000712001,-4.65332e-05,0.00430846,0.000711399,-0.0129379,0.00266699,0.0421772,1882,995,59.9787,-3.00363
665,29,60.141,2.86462,0.00332296,0.000597886,0.00031844,0.00335967,0.00056117,0.114795,0.00207814,0.0414192,1889,995,60.141,-2.86462
672,29,60.1962,2.64886,0.00232963,0.000766392,0.00110922,0.00290495,0.000191067,0.478476,0.00187619,0.0374033,1896,995,60.1962,-2.64885
679,29,60.2633,2.55542,0.00143524,0.000909089,0.00205966,0.00324856,-0.000904227,0.721878,0.00252174,0.0365428,1903,995,60.2633,-2.55542
686,29,60.3197,2.54065,0.000743538,0.000896331,0.002865,0.00368595,-0.00204608,0.798728,0.00335423,0.0344596,1910,995,60.3197,-2.54065
693,29,60.3119,2.51227,0.000137409,0.000736929,0.00341341,0.00386372,-0.00298938,0.829195,0.00396735,0.0360848,1917,995,60.3119,-2.51225
700,29,60.3094,2.53619,-0.000432936,0.000673329,0.00360021,0.00376265,-0.00352226,0.861622,0.0042067,0.0324436,1924,995,60.3094,-2.53619
707,29,60.2567,2.62524,-0.00107704,0.000935274,0.00346704,0.00353921,-0.00368097,0.926622,0.00416884,0.021548,1931,995,60.2567,-2.62524
714,29,60.1841,3.11603,-0.0019405,0.00152078,0.0031373,0.00337312,-0.00379285,1.03745,0.00413964,0.0471511,1938,995,60.1841,-3.11603
721,29,59.7692,5.58606,0,0,0,0,0,0,0,-1,1945,995,59.7692,-5.58608
728,29,59.9346,5.89362,-0.00424767,0.00404806,0.00257482,0.00478225,-0.00498186,1.29303,0.00563771,0.0342584,1952,995,59.9345,-5.89363
735,29,59.9216,6.15796,-0.00483514,0.006106,0.00198564,0.00645522,-0.00518436,1.39671,0.00673345,0.0173355,1959,995,59.9217,-6.15797
742,29,59.887,6.31848,-0.00561681,0.00800244,0.00160897,0.00818994,-0.00580431,1.45478,0.00811863,0.0140962,1966,995,59.887,-6.31847
749,29,59.8583,6.53058,-0.00661672,0.0106445,0.00102665,0.0107053,-0.00667756,1.5116,0.0101254,0.0151279,1973,995,59.8583,-6.53058
756,29,59.8434,6.75519,-0.00745072,0.0143359,0.000655817,0.0143556,-0.00747044,1.54073,0.0128086,0.0152285,1980,995,59.8434,-6.75519
763,29,59.792,6.89001,-0.0079356,0.0194651,0.000901971,0.0194947,-0.00796526,1.53793,0.0163132,0.0129594,1987,995,59.792,-6.89004
770,29,59.6899,7.01996,-0.00773409,0.0265038,0.00250808,0.0266866,-0.00791684,1.49806,0.0209351,0.0164568,1994,995,59.69,-7.01998
777,29,59.6045,7.23395,-0.00664199,0.0341817,0.00516899,0.034826,-0.0072863,1.44679,0.0259888,0.0290138,2001,995,59.6045,-7.23397
784,29,59.8142,7.11755,-0.00402644,0.0420452,0.00915358,0.0437972,-0.00577846,1.38168,0.0313026,0.0468356,2008,995,59.8142,-7.11755
791,29,60.0898,6.97034,0,0,0,0,0,0,0,-1,2015,995,60.0898,-6.97032
798,29,60.3899,6.96338,0,0,0,0,0,0,0,-1,2022,995,60.3898,-6.96336
805,29,57.999,6.55103,0,0,0,0,0,0,0,-1,2029,995,57.999,-6.55102
812,29,58.1111,5.16632,0,0,0,0,0,0,0,-1,2036,995,58.1111,-5.16631
-700,22,0,0,0,0,0,0,0,0,0,-1,524,1002,0,0
-693,22,-47.5298,1.50677,0,0,0,0,0,0,0,-1,531,1002,-47.5298,-1.50678
-686,22,-47.874,2.42438,0,0,0,0,0,0,0,-1,538,1002,-47.874,-2.42437
-679,22,-46.8896,2.41199,0.0520551,-0.00854172,-0.02334,0.0600026,-0.0164892,-0.328195,0.0464834,0.0463752,545,1002,-46.8896,-2.41198
-672,22,-46.6151,2.54205,0.0404107,-0.00371957,-0.0170417,0.0462255,-0.00953435,-0.328822,0.0344379,0.0451601,552,1002,-46.6151,-2.54207
-665,22,-46.312,2.26703,0,0,0,0,0,0,0,-1,559,1002,-46.312,-2.267
-658,22,-45.3362,4.3017,0,0,0,0,0,0,0,-1,566,1002,-45.3362,-4.30168
-651,22,-45.2874,3.52588,0,0,0,0,0,0,0,-1,573,1002,-45.2873,-3.52585
-644,22,-45.9041,3.83917,0.00797786,0.00836533,-0.00326685,0.0114442,0.00489901,-0.815015,0.00663005,0.0404157,580,1002,-45.904,-3.83916
-637,22,-46.2961,4.08252,0.00354967,0.00823432,-0.00137861,0.00860991,0.00317408,-1.30481,0.00502778,0.025456,587,1002,-46.2961,-4.08252
-630,22,-46.2755,4.11969,-0.000260243,0.00930615,-0.000747115,0.00936415,-0.00031824,-1.49332,0.0063515,0.0140664,594,1002,-46.2755,-4.1197
-623,22,-46.2892,4.06934,-0.00314293,0.00923618,-0.000686588,0.00927415,-0.0031809,-1.51556,0.00747226,0.0126081,601,1002,-46.2893,-4.06932
-616,22,-46.3044,3.94055,-0.00429784,0.00798903,-0.00144526,0.00815674,-0.00446555,-1.45527,0.00739062,0.019204,608,1002,-46.3044,-3.94054
-609,22,-46.3877,3.8728,-0.00364363,0.00594202,-0.00227492,0.00645451,-0.00415613,-1.34921,0.00617377,0.0300342,615,1002,-46.3877,-3.87278
-602,22,-46.5396,3.79456,-0.00286183,0.00412906,-0.00286388,0.00515246,-0.00388523,-1.22759,0.00523498,0.0309054,622,1002,-46.5396,-3.79458
-595,22,-46.6321,3.54376,-0.00241076,0.00275412,-0.00339159,0.00443453,-0.00409117,-1.11078,0.00492365,0.0342147,629,1002,-46.6321,-3.54375
-588,22,-46.585,3.2149,0,0,0,0,0,0,0,-1,636,1002,-46.5849,-3.21493
-581,22,-45.5938,0.78302,0,0,0,0,0,0,0,-1,643,1002,-45.5938,-0.783008
-574,22,-45.6018,0.757874,-0.000978503,-0.000978978,-0.00455845,0.00357971,-0.00553719,-0.785372,0.00530393,0.0342341,650,1002,-45.6018,-0.757865
-567,22,-45.5827,0.653503,-0.000980756,-0.00171411,-0.00434767,0.00301567,-0.00571054,-0.743328,0.00511754,0.0324154,657,1002,-45.5827,-0.653521
-560,22,-45.6486,0.574097,-0.000944214,-0.00247898,-0.00381862,0.00218336,-0.00560655,-0.68624,0.00464,0.0373736,664,1002,-45.6487,-0.5741
-553,22,-45.7601,0.770081,-0.0008813,-0.00352203,-0.00306153,0.00113245,-0.00553578,-0.58181,0.00412021,0.0392743,671,1002,-45.7601,-0.770054
-546,22,-45.7292,0.937805,-0.000650855,-0.00522014,-0.00214915,0.000201132,-0.00607212,-0.377425,0.00411676,0.0396599,678,1002,-45.7292,-0.937786
-539,22,-45.8174,0.897339,-0.000212047,-0.0077445,-0.0014402,5.39259e-05,-0.00801047,-0.18262,0.00535838,0.0409899,685,1002,-45.8174,-0.897327
-532,22,-45.738,0.874451,0.000959223,-0.00983671,-0.00207623,0.00134475,-0.0102222,-0.183594,0.00730445,0.0435757,692,1002,-45.738,-0.874475
-525,22,0,0,0,0,0,0,0,0,0,-1,699,1002,0,0
-518,22,0,0,0,0,0,0,0,0,0,-1,706,1002,0,0
-511,22,0,0,0,0,0,0,0,0,0,-1,713,1002,0,0
-504,22,0,0,0,0,0,0,0,0,0,-1,720,1002,0,0
-497,22,0,0,0,0,0,0,0,0,0,-1,727,1002,0,0
-490,22,0,0,0,0,0,0,0,0,0,-1,734,1002,0,0
-483,22,0,0,0,0,0,0,0,0,0,-1,741,1002,0,0
-476,22,0,0,0,0,0,0,0,0,0,-1,748,1002,0,0
-469,22,0,0,0,0,0,0,0,0,0,-1,755,1002,0,0
-462,22,0,0,0,0,0,0,0,0,0,-1,762,1002,0,0
-455,22,0,0,0,0,0,0,0,0,0,-1,769,1002,0,0
-448,22,0,0,0,0,0,0,0,0,0,-1,776,1002,0,0
-441,22,0,0,0,0,0,0,0,0,0,-1,783,1002,0,0
-434,22,0,0,0,0,0,0,0,0,0,-1,790,1002,0,0
-427,22,0,0,0,0,0,0,0,0,0,-1,797,1002,0,0
-420,22,0,0,0,0,0,0,0,0,0,-1,804,1002,0,0
-413,22,0,0,0,0,0,0,0,0,0,-1,811,1002,0,0
-406,22,0,0,0,0,0,0,0,0,0,-1,818,1002,0,0
-399,22,0,0,0,0,0,0,0,0,0,-1,825,1002,0,0
-392,22,0,0,0,0,0,0,0,0,0,-1,832,1002,0,0
-385,22,0,0,0,0,0,0,0,0,0,-1,839,1002,0,0
-378,22,0,0,0,0,0,0,0,0,0,-1,846,1002,0,0
-371,22,0,0,0,0,0,0,0,0,0,-1,853,1002,0,0
-364,22,0,0,0,0,0,0,0,0,0,-1,860,1002,0,0
-357,22,0,0,0,0,0,0,0,0,0,-1,867,1002,0,0
-350,22,0,0,0,0,0,0,0,0,0,-1,874,1002,0,0
-343,22,0,0,0,0,0,0,0,0,0,-1,881,1002,0,0
-336,22,0,0,0,0,0,0,0,0,0,-1,888,1002,0,0
-329,22,0,0,0,0,0,0,0,0,0,-1,895,1002,0,0
-322,22,0,0,0,0,0,0,0,0,0,-1,902,1002,0,0
-315,22,0,0,0,0,0,0,0,0,0,-1,909,1002,0,0
-308,22,0,0,0,0,0,0,0,0,0,-1,916,1002,0,0
-301,22,0,0,0,0,0,0,0,0,0,-1,923,1002,0,0
-294,22,0,0,0,0,0,0,0,0,0,-1,930,1002,0,0
-287,22,0,0,0,0,0,0,0,0,0,-1,937,1002,0,0
-280,22,0,0,0,0,0,0,0,0,0,-1,944,1002,0,0
-273,22,0,0,0,0,0,0,0,0,0,-1,951,1002,0,0
-266,22,0,0,0,0,0,0,0,0,0,-1,958,1002,0,0
-259,22,0,0,0,0,0,0,0,0,0,-1,965,1002,0,0
-252,22,0,0,0,0,0,0,0,0,0,-1,972,1002,0,0
-245,22,0,0,0,0,0,0,0,0,0,-1,979,1002,0,0
-238,22,0,0,0,0,0,0,0,0,0,-1,986,1002,0,0
-231,22,0,0,0,0,0,0,0,0,0,-1,993,1002,0,0
-224,22,0,0,0,0,0,0,0,0,0,-1,1000,1002,0,0
-217,22,0,0,0,0,0,0,0,0,0,-1,1007,1002,0,0
-210,22,0,0,0,0,0,0,0,0,0,-1,1014,1002,0,0
-203,22,0,0,0,0,0,0,0,0,0,-1,1021,1002,0,0
-196,22,0,0,0,0,0,0,0,0,0,-1,1028,1002,0,0
-189,22,0,0,0,0,0,0,0,0,0,-1,1035,1002,0,0
-182,22,0,0,0,0,0,0,0,0,0,-1,1042,1002,0,0
-175,22,0,0,0,0,0,0,0,0,0,-1,1049,1002,0,0
-168,22,0,0,0,0,0,0,0,0,0,-1,1056,1002,0,0
-161,22,0,0,0,0,0,0,0,0,0,-1,1063,1002,0,0
-154,22,0,0,0,0,0,0,0,0,0,-1,1070,1002,0,0
-147,22,0,0,0,0,0,0,0,0,0,-1,1077,1002,0,0
-140,22,0,0,0,0,0,0,0,0,0,-1,1084,1002,0,0
-133,22,0,0,0,0,0,0,0,0,0,-1,1091,1002,0,0
-126,22,0,0,0,0,0,0,0,0,0,-1,1098,1002,0,0
-119,22,0,0,0,0,0,0,0,0,0,-1,1105,1002,0,0
-112,22,0,0,0,0,0,0,0,0,0,-1,1112,1002,0,0
-105,22,0,0,0,0,0,0,0,0,0,-1,1119,1002,0,0
-98,22,0,0,0,0,0,0,0,0,0,-1,1126,1002,0,0
-91,22,0,0,0,0,0,0,0,0,0,-1,1133,1002,0,0
-84,22,0,0,0,0,0,0,0,0,0,-1,1140,1002,0,0
-77,22,0,0,0,0,0,0,0,0,0,-1,1147,1002,0,0
-70,22,0,0,0,0,0,0,0,0,0,-1,1154,1002,0,0
-63,22,0,0,0,0,0,0,0,0,0,-1,1161,1002,0,0
-56,22,0,0,0,0,0,0,0,0,0,-1,1168,1002,0,0
-49,22,0,0,0,0,0,0,0,0,0,-1,1175,1002,0,0
-42,22,0,0,0,0,0,0,0,0,0,-1,1182,1002,0,0
-35,22,0,0,0,0,0,0,0,0,0,-1,1189,1002,0,0
-28,22,0,0,0,0,0,0,0,0,0,-1,1196,1002,0,0
-21,22,0,0,0,0,0,0,0,0,0,-1,1203,1002,0,0
-14,22,0,0,0,0,0,0,0,0,0,-1,1210,1002,0,0
-7,22,0,0,0,0,0,0,0,0,0,-1,1217,1002,0,0
0,22,0,0,0,0,0,0,0,0,0,-1,1224,1002,0,0
7,22,0,0,0,0,0,0,0,0,0,-1,1231,1002,0,0
14,22,0,0,0,0,0,0,0,0,0,-1,1238,1002,0,0
21,22,0,0,0,0,0,0,0,0,0,-1,1245,1002,0,0
28,22,0,0,0,0,0,0,0,0,0,-1,1252,1002,0,0
35,22,0,0,0,0,0,0,0,0,0,-1,1259,1002,0,0
42,22,0,0,0,0,0,0,0,0,0,-1,1266,1002,0,0
49,22,0,0,0,0,0,0,0,0,0,-1,1273,1002,0,0
56,22,0,0,0,0,0,0,0,0,0,-1,1280,1002,0,0
63,22,0,0,0,0,0,0,0,0,0,-1,1287,1002,0,0
70,22,0,0,0,0,0,0,0,0,0,-1,1294,1002,0,0
77,22,0,0,0,0,0,0,0,0,0,-1,1301,1002,0,0
84,22,0,0,0,0,0,0,0,0,0,-1,1308,1002,0,0
91,22,0,0,0,0,0,0,0,0,0,-1,1315,1002,0,0
98,22,0,0,0,0,0,0,0,0,0,-1,1322,1002,0,0
105,22,0,0,0,0,0,0,0,0,0,-1,1329,1002,0,0
112,22,0,0,0,0,0,0,0,0,0,-1,1336,1002,0,0
119,22,0,0,0,0,0,0,0,0,0,-1,1343,1002,0,0
126,22,0,0,0,0,0,0,0,0,0,-1,1350,1002,0,0
133,22,0,0,0,0,0,0,0,0,0,-1,1357,1002,0,0
140,22,0,0,0,0,0,0,0,0,0,-1,1364,1002,0,0
147,22,0,0,0,0,0,0,0,0,0,-1,1371,1002,0,0
154,22,0,0,0,0,0,0,0,0,0,-1,1378,1002,0,0
161,22,0,0,0,0,0,0,0,0,0,-1,1385,1002,0,0
168,22,0,0,0,0,0,0,0,0,0,-1,1392,1002,0,0
175,22,0,0,0,0,0,0,0,0,0,-1,1399,1002,0,0
182,22,0,0,0,0,0,0,0,0,0,-1,1406,1002,0,0
189,22,0,0,0,0,0,0,0,0,0,-1,1413,1002,0,0
196,22,0,0,0,0,0,0,0,0,0,-1,1420,1002,0,0
203,22,0,0,0,0,0,0,0,0,0,-1,1427,1002,0,0
210,22,0,0,0,0,0,0,0,0,0,-1,1434,1002,0,0
217,22,0,0,0,0,0,0,0,0,0,-1,1441,1002,0,0
224,22,0,0,0,0,0,0,0,0,0,-1,1448,1002,0,0
231,22,0,0,0,0,0,0,0,0,0,-1,1455,1002,0,0
238,22,0,0,0,0,0,0,0,0,0,-1,1462,1002,0,0
245,22,0,0,0,0,0,0,0,0,0,-1,1469,1002,0,0
252,22,0,0,0,0,0,0,0,0,0,-1,1476,1002,0,0
259,22,0,0,0,0,0,0,0,0,0,-1,1483,1002,0,0
266,22,0,0,0,0,0,0,0,0,0,-1,1490,1002,0,0
273,22,0,0,0,0,0,0,0,0,0,-1,1497,1002,0,0
280,22,0,0,0,0,0,0,0,0,0,-1,1504,1002,0,0
287,22,0,0,0,0,0,0,0,0,0,-1,1511,1002,0,0
294,22,0,0,0,0,0,0,0,0,0,-1,1518,1002,0,0
301,22,0,0,0,0,0,0,0,0,0,-1,1525,1002,0,0
308,22,0,0,0,0,0,0,0,0,0,-1,1532,1002,0,0
315,22,0,0,0,0,0,0,0,0,0,-1,1539,1002,0,0
322,22,0,0,0,0,0,0,0,0,0,-1,1546,1002,0,0
329,22,0,0,0,0,0,0,0,0,0,-1,1553,1002,0,0
336,22,0,0,0,0,0,0,0,0,0,-1,1560,1002,0,0
343,22,0,0,0,0,0,0,0,0,0,-1,1567,1002,0,0
350,22,0,0,0,0,0,0,0,0,0,-1,1574,1002,0,0
357,22,0,0,0,0,0,0,0,0,0,-1,1581,1002,0,0
364,22,0,0,0,0,0,0,0,0,0,-1,1588,1002,0,0
371,22,0,0,0,0,0,0,0,0,0,-1,1595,1002,0,0
378,22,0,0,0,0,0,0,0,0,0,-1,1602,1002,0,0
385,22,0,0,0,0,0,0,0,0,0,-1,1609,1002,0,0
392,22,0,0,0,0,0,0,0,0,0,-1,1616,1002,0,0
399,22,0,0,0,0,0,0,0,0,0,-1,1623,1002,0,0
406,22,0,0,0,0,0,0,0,0,0,-1,1630,1002,0,0
413,22,0,0,0,0,0,0,0,0,0,-1,1637,1002,0,0
420,22,0,0,0,0,0,0,0,0,0,-1,1644,1002,0,0
427,22,0,0,0,0,0,0,0,0,0,-1,1651,1002,0,0
434,22,0,0,0,0,0,0,0,0,0,-1,1658,1002,0,0
441,22,0,0,0,0,0,0,0,0,0,-1,1665,1002,0,0
448,22,0,0,0,0,0,0,0,0,0,-1,1672,1002,0,0
455,22,0,0,0,0,0,0,0,0,0,-1,1679,1002,0,0
462,22,0,0,0,0,0,0,0,0,0,-1,1686,1002,0,0
469,22,0,0,0,0,0,0,0,0,0,-1,1693,1002,0,0
476,22,0,0,0,0,0,0,0,0,0,-1,1700,1002,0,0
483,22,0,0,0,0,0,0,0,0,0,-1,1707,1002,0,0
490,22,0,0,0,0,0,0,0,0,0,-1,1714,1002,0,0
497,22,0,0,0,0,0,0,0,0,0,-1,1721,1002,0,0
504,22,0,0,0,0,0,0,0,0,0,-1,1728,1002,0,0
511,22,0,0,0,0,0,0,0,0,0,-1,1735,1002,0,0
518,22,0,0,0,0,0,0,0,0,0,-1,1742,1002,0,0
525,22,0,0,0,0,0,0,0,0,0,-1,1749,1002,0,0
532,22,0,0,0,0,0,0,0,0,0,-1,1756,1002,0,0
539,22,0,0,0,0,0,0,0,0,0,-1,1763,1002,0,0
546,22,0,0,0,0,0,0,0,0,0,-1,1770,1002,0,0
553,22,0,0,0,0,0,0,0,0,0,-1,1777,1002,0,0
560,22,0,0,0,0,0,0,0,0,0,-1,1784,1002,0,0
567,22,0,0,0,0,0,0,0,0,0,-1,1791,1002,0,0
574,22,0,0,0,0,0,0,0,0,0,-1,1798,1002,0,0
581,22,0,0,0,0,0,0,0,0,0,-1,1805,1002,0,0
588,22,0,0,0,0,0,0,0,0,0,-1,1812,1002,0,0
595,22,0,0,0,0,0,0,0,0,0,-1,1819,1002,0,0
602,22,0,0,0,0,0,0,0,0,0,-1,1826,1002,0,0
609,22,0,0,0,0,0,0,0,0,0,-1,1833,1002,0,0
616,22,0,0,0,0,0,0,0,0,0,-1,1840,1002,0,0
623,22,0,0,0,0,0,0,0,0,0,-1,1847,1002,0,0
630,22,0,0,0,0,0,0,0,0,0,-1,1854,1002,0,0
637,22,0,0,0,0,0,0,0,0,0,-1,1861,1002,0,0
644,22,60.1404,2.61407,0.00581188,0.00212329,0.00103193,0.00608095,0.00185422,0.255063,0.00359881,0.04288,1868,1002,60.1404,-2.6141
651,22,60.1027,2.51691,0.00482248,0.00137974,0.000195455,0.00483354,0.00136868,0.0565308,0.00287679,0.0414619,1875,1002,60.1026,-2.51688
658,22,60.1683,2.44849,0.00392938,0.000841837,-0.000156361,0.00393727,0.000833938,-0.0504705,0.00239575,0.0401704,1882,1002,60.1684,-2.44847
665,22,60.129,2.59192,0.00306058,0.000686015,0.000151042,0.00307015,0.000676446,0.0632684,0.00186268,0.0392173,1889,1002,60.1291,-2.59191
672,22,60.1339,2.57562,0.00219863,0.000802849,0.000891913,0.00263324,0.000368238,0.45342,0.00164653,0.0377776,1896,1002,60.134,-2.57562
679,22,60.2339,2.60162,0.00140836,0.000917321,0.00181987,0.0029992,-0.000673519,0.718348,0.00225771,0.0359179,1903,1002,60.2339,-2.60159
686,22,60.3412,2.61261,0.000727219,0.000869697,0.00264271,0.00344212,-0.00184521,0.798873,0.00309871,0.0359746,1910,1002,60.3411,-2.61258
693,22,60.3206,2.55408,0.000127367,0.000673369,0.00324219,0.00365403,-0.0028533,0.8274,0.00376648,0.0370373,1917,1002,60.3206,-2.5541
700,22,60.2448,2.54675,-0.000412921,0.000547707,0.0034895,0.00358979,-0.003455,0.853791,0.00406756,0.0322277,1924,1002,60.2447,-2.54678
707,22,60.2114,2.69788,-0.00108552,0.000786107,0.00340283,0.00337946,-0.00367887,0.919586,0.00407635,0.0291136,1931,1002,60.2115,-2.6979
714,22,60.1968,2.82294,-0.00199197,0.00138864,0.00310905,0.00323717,-0.0038405,1.03438,0.00409124,0.0435711,1938,1002,60.1968,-2.82293
721,22,60.1567,3.17786,0,0,0,0,0,0,0,-1,1945,1002,60.1567,-3.17783
728,22,59.7944,6.05286,0,0,0,0,0,0,0,-1,1952,1002,59.7944,-6.05284
735,22,60.0807,6.25079,-0.00514096,0.0059166,0.00200165,0.00626778,-0.00549214,1.39712,0.00679452,0.0177183,1959,1002,60.0807,-6.25077
742,22,60.109,6.3736,-0.00593833,0.00771205,0.00162103,0.00790191,-0.0061282,1.4542,0.00812184,0.0175156,1966,1002,60.109,-6.37361
749,22,60.0385,6.53497,-0.00702318,0.0102258,0.0010125,0.010285,-0.00708241,1.51236,0.0100837,0.0130998,1973,1002,60.0384,-6.53496
756,22,60.0308,6.66516,-0.00787353,0.0136363,0.000620496,0.0136542,-0.00789141,1.54198,0.0125868,0.0182573,1980,1002,60.0307,-6.66513
763,22,59.9662,6.79834,-0.00826854,0.0182363,0.000723994,0.0182561,-0.0082883,1.54351,0.0156814,0.01915,1987,1002,59.9661,-6.79835
770,22,59.77,6.89703,-0.00790946,0.0245914,0.00204331,0.0247194,-0.00803742,1.50826,0.0197127,0.0183311,1994,1002,59.7701,-6.89703
777,22,59.4756,6.8396,-0.00650019,0.0314485,0.00447073,0.0319681,-0.00701977,1.4551,0.0239967,0.039342,2001,1002,59.4756,-6.83958
784,22,59.2322,6.78094,0,0,0,0,0,0,0,-1,2008,1002,59.2321,-6.78096
791,22,59.7451,6.40906,0,0,0,0,0,0,0,-1,2015,1002,59.7452,-6.40904
798,22,56.4783,8.31635,0,0,0,0,0,0,0,-1,2022,1002,56.4784,-8.31633
805,22,57.5769,6.74829,0,0,0,0,0,0,0,-1,2029,1002,57.5768,-6.74826
812,22,57.8459,5.25842,0,0,0,0,0,0,0,-1,2036,1002,57.846,-5.25845
-700,15,0,0,0,0,0,0,0,0,0,-1,524,1009,0,0
-693,15,-47.408,1.97076,0,0,0,0,0,0,0,-1,531,1009,-47.408,-1.97079
-686,15,-47.3774,2.47235,0.0545776,0.047043,-0.0363074,0.0873127,0.0143079,-0.733703,0.0540738,0.044689,538,1009,-47.3774,-2.47234
-679,15,-47.0854,2.68701,0.0437997,0.0303728,-0.0262907,0.0642205,0.00995193,-0.660392,0.0399121,0.0487802,545,1009,-47.0853,-2.68703
-672,15,-46.7485,2.65643,0.0338162,0.0227784,-0.0190058,0.0480882,0.0085064,-0.644094,0.0296331,0.0477622,552,1009,-46.7485,-2.65641
-665,15,-46.5724,2.56793,0.0250531,0.0191962,-0.0135617,0.0359989,0.00825038,-0.679062,0.0217765,0.0442701,559,1009,-46.5724,-2.5679
-658,15,-46.5359,2.93085,0,0,0,0,0,0,0,-1,566,1009,-46.5359,-2.93085
-651,15,-45.0165,2.88843,0,0,0,0,0,0,0,-1,573,1009,-45.0166,-2.8884
-644,15,-46.3985,4.02924,0,0,0,0,0,0,0,-1,580,1009,-46.3985,-4.02923
-637,15,-46.3035,4.03754,0.00226944,0.00991324,-0.00173474,0.0102885,0.00189417,-1.35775,0.00632291,0.0289777,587,1009,-46.3035,-4.03752
-630,15,-46.3061,4.03162,-0.00101969,0.0102513,-0.000959479,0.0103324,-0.00110079,-1.48648,0.00728297,0.0156746,594,1009,-46.3061,-4.03162
-623,15,-46.3688,4.00476,-0.00343181,0.0095473,-0.000843527,0.0096019,-0.0034864,-1.50617,0.00782666,0.011224,601,1009,-46.3689,-4.00477
-616,15,-46.3974,3.9469,-0.00424985,0.00793171,-0.00154994,0.00812583,-0.00444396,-1.4462,0.00736021,0.0178529,608,1009,-46.3974,-3.94689
-609,15,-46.4489,3.91522,-0.00352479,0.00557508,-0.00226474,0.00610756,-0.00405727,-1.33987,0.00590833,0.0240605,615,1009,-46.4489,-3.91519
-602,15,-46.5035,3.87061,-0.00281033,0.00372245,-0.00269235,0.00468903,-0.00377692,-1.22612,0.00489727,0.0245857,622,1009,-46.5035,-3.87064
-595,15,-46.5464,3.77368,0,0,0,0,0,0,0,-1,629,1009,-46.5464,-3.77369
-588,15,-45.5945,0.653137,0,0,0,0,0,0,0,-1,636,1009,-45.5946,-0.653163
-581,15,-45.5896,0.744812,-0.00108092,-0.0001951,-0.00395122,0.00333795,-0.00461397,-0.841213,0.00461071,0.0404787,643,1009,-45.5896,-0.744814
-574,15,-45.5928,0.809692,-0.00083147,-0.00108986,-0.00405615,0.00309754,-0.00501887,-0.769478,0.00472958,0.0325887,650,1009,-45.5928,-0.809705
-567,15,-45.651,0.685425,-0.000750808,-0.00170586,-0.00387021,0.00267123,-0.00512789,-0.724016,0.00457668,0.0342029,657,1009,-45.651,-0.685408
-560,15,-45.7595,0.851379,-0.000604603,-0.00230826,-0.00344214,0.00208954,-0.0050024,-0.6641,0.00420808,0.0402853,664,1009,-45.7595,-0.851401
-553,15,-45.7507,0.903625,-0.000426772,-0.00316484,-0.00288257,0.00139535,-0.00498696,-0.5637,0.00387444,0.0417449,671,1009,-45.7507,-0.903598
-546,15,-45.6794,0.971313,-6.72401e-05,-0.00468281,-0.00229005,0.000876156,-0.00562621,-0.39077,0.00407438,0.0431263,678,1009,-45.6795,-0.971318
-539,15,-45.6941,0.921143,0.000457284,-0.00698227,-0.00201262,0.000966854,-0.00749184,-0.247977,0.00534607,0.0427743,685,1009,-45.6941,-0.921171
-532,15,-45.7912,0.631348,0.00162325,-0.00876768,-0.00298539,0.0024199,-0.00956433,-0.260772,0.00731747,0.0439279,692,1009,-45.7912,-0.631332
-525,15,0,0,0,0,0,0,0,0,0,-1,699,1009,0,0
-518,15,0,0,0,0,0,0,0,0,0,-1,706,1009,0,0
-511,15,0,0,0,0,0,0,0,0,0,-1,713,1009,0,0
-504,15,0,0,0,0,0,0,0,0,0,-1,720,1009,0,0
-497,15,0,0,0,0,0,0,0,0,0,-1,727,1009,0,0
-490,15,0,0,0,0,0,0,0,0,0,-1,734,1009,0,0
-483,15,0,0,0,0,0,0,0,0,0,-1,741,1009,0,0
-476,15,0,0,0,0,0,0,0,0,0,-1,748,1009,0,0
-469,15,0,0,0,0,0,0,0,0,0,-1,755,1009,0,0
-462,15,0,0,0,0,0,0,0,0,0,-1,762,1009,0,0
-455,15,0,0,0,0,0,0,0,0,0,-1,769,1009,0,0
-448,15,0,0,0,0,0,0,0,0,0,-1,776,1009,0,0
-441,15,0,0,0,0,0,0,0,0,0,-1,783,1009,0,0
-434,15,0,0,0,0,0,0,0,0,0,-1,790,1009,0,0
-427,15,0,0,0,0,0,0,0,0,0,-1,797,1009,0,0
-420,15,0,0,0,0,0,0,0,0,0,-1,804,1009,0,0
-413,15,0,0,0,0,0,0,0,0,0,-1,811,1009,0,0
-406,15,0,0,0,0,0,0,0,0,0,-1,818,1009,0,0
-399,15,0,0,0,0,0,0,0,0,0,-1,825,1009,0,0
-392,15,0,0,0,0,0,0,0,0,0,-1,832,1009,0,0
-385,15,0,0,0,0,0,0,0,0,0,-1,839,1009,0,0
-378,15,0,0,0,0,0,0,0,0,0,-1,846,1009,0,0
-371,15,0,0,0,0,0,0,0,0,0,-1,853,1009,0,0
-364,15,0,0,0,0,0,0,0,0,0,-1,860,1009,0,0
-357,15,0,0,0,0,0,0,0,0,0,-1,867,1009,0,0
-350,15,0,0,0,0,0,0,0,0,0,-1,874,1009,0,0
-343,15,0,0,0,0,0,0,0,0,0,-1,881,1009,0,0
-336,15,0,0,0,0,0,0,0,0,0,-1,888,1009,0,0
-329,15,0,0,0,0,0,0,0,0,0,-1,895,1009,0,0
-322,15,0,0,0,0,0,0,0,0,0,-1,902,1009,0,0
-315,15,0,0,0,0,0,0,0,0,0,-1,909,1009,0,0
-308,15,0,0,0,0,0,0,0,0,0,-1,916,1009,0,0
-301,15,0,0,0,0,0,0,0,0,0,-1,923,1009,0,0
-294,15,0,0,0,0,0,0,0,0,0,-1,930,1009,0,0
-287,15,0,0,0,0,0,0,0,0,0,-1,937,1009,0,0
-280,15,0,0,0,0,0,0,0,0,0,-1,944,1009,0,0
-273,15,0,0,0,0,0,0,0,0,0,-1,951,1009,0,0
-266,15,0,0,0,0,0,0,0,0,0,-1,958,1009,0,0
-259,15,0,0,0,0,0,0,0,0,0,-1,965,1009,0,0
-252,15,0,0,0,0,0,0,0,0,0,-1,972,1009,0,0
-245,15,0,0,0,0,0,0,0,0,0,-1,979,1009,0,0
-238,15,0,0,0,0,0,0,0,0,0,-1,986,1009,0,0
-231,15,0,0,0,0,0,0,0,0,0,-1,993,1009,0,0
-224,15,0,0,0,0,0,0,0,0,0,-1,1000,1009,0,0
-217,15,0,0,0,0,0,0,0,0,0,-1,1007,1009,0,0
-210,15,0,0,0,0,0,0,0,0,0,-1,1014,1009,0,0
-203,15,0,0,0,0,0,0,0,0,0,-1,1021,1009,0,0
-196,15,0,0,0,0,0,0,0,0,0,-1,1028,1009,0,0
-189,15,0,0,0,0,0,0,0,0,0,-1,1035,1009,0,0
-182,15,0,0,0,0,0,0,0,0,0,-1,1042,1009,0,0
-175,15,0,0,0,0,0,0,0,0,0,-1,1049,1009,0,0
-168,15,0,0,0,0,0,0,0,0,0,-1,1056,1009,0,0
-161,15,0,0,0,0,0,0,0,0,0,-1,1063,1009,0,0
-154,15,0,0,0,0,0,0,0,0,0,-1,1070,1009,0,0
-147,15,0,0,0,0,0,0,0,0,0,-1,1077,1009,0,0
-140,15,0,0,0,0,0,0,0,0,0,-1,1084,1009,0,0
-133,15,0,0,0,0,0,0,0,0,0,-1,1091,1009,0,0
-126,15,0,0,0,0,0,0,0,0,0,-1,1098,1009,0,0
-119,15,0,0,0,0,0,0,0,0,0,-1,1105,1009,0,0
-112,15,0,0,0,0,0,0,0,0,0,-1,1112,1009,0,0
-105,15,0,0,0,0,0,0,0,0,0,-1,1119,1009,0,0
-98,15,0,0,0,0,0,0,0,0,0,-1,1126,1009,0,0
-91,15,0,0,0,0,0,0,0,0,0,-1,1133,1009,0,0
-84,15,0,0,0,0,0,0,0,0,0,-1,1140,1009,0,0
-77,15,0,0,0,0,0,0,0,0,0,-1,1147,1009,0,0
-70,15,0,0,0,0,0,0,0,0,0,-1,1154,1009,0,0
-63,15,0,0,0,0,0,0,0,0,0,-1,1161,1009,0,0
-56,15,0,0,0,0,0,0,0,0,0,-1,1168,1009,0,0
-49,15,0,0,0,0,0,0,0,0,0,-1,1175,1009,0,0
-42,15,0,0,0,0,0,0,0,0,0,-1,1182,1009,0,0
-35,15,0,0,0,0,0,0,0,0,0,-1,1189,1009,0,0
-28,15,0,0,0,0,0,0,0,0,0,-1,1196,1009,0,0
-21,15,0,0,0,0,0,0,0,0,0,-1,1203,1009,0,0
-14,15,0,0,0,0,0,0,0,0,0,-1,1210,1009,0,0
-7,15,0,0,0,0,0,0,0,0,0,-1,1217,1009,0,0
0,15,0,0,0,0,0,0,0,0,0,-1,1224,1009,0,0
7,15,0,0,0,0,0,0,0,0,0,-1,1231,1009,0,0
14,15,0,0,0,0,0,0,0,0,0,-1,1238,1009,0,0
21,15,0,0,0,0,0,0,0,0,0,-1,1245,1009,0,0
28,15,0,0,0,0,0,0,0,0,0,-1,1252,1009,0,0
35,15,0,0,0,0,0,0,0,0,0,-1,1259,1009,0,0
42,15,0,0,0,0,0,0,0,0,0,-1,1266,1009,0,0
49,15,0,0,0,0,0,0,0,0,0,-1,1273,1009,0,0
56,15,0,0,0,0,0,0,0,0,0,-1,1280,1009,0,0
63,15,0,0,0,0,0,0,0,0,0,-1,1287,1009,0,0
70,15,0,0,0,0,0,0,0,0,0,-1,1294,1009,0,0
77,15,0,0,0,0,0,0,0,0,0,-1,1301,1009,0,0
84,15,0,0,0,0,0,0,0,0,0,-1,1308,1009,0,0
91,15,0,0,0,0,0,0,0,0,0,-1,1315,1009,0,0
98,15,0,0,0,0,0,0,0,0,0,-1,1322,1009,0,0
105,15,0,0,0,0,0,0,0,0,0,-1,1329,1009,0,0
112,15,0,0,0,0,0,0,0,0,0,-1,1336,1009,0,0
119,15,0,0,0,0,0,0,0,0,0,-1,1343,1009,0,0
126,15,0,0,0,0,0,0,0,0,0,-1,1350,1009,0,0
133,15,0,0,0,0,0,0,0,0,0,-1,1357,1009,0,0
140,15,0,0,0,0,0,0,0,0,0,-1,1364,1009,0,0
147,15,0,0,0,0,0,0,0,0,0,-1,1371,1009,0,0
154,15,0,0,0,0,0,0,0,0,0,-1,1378,1009,0,0
161,15,0,0,0,0,0,0,0,0,0,-1,1385,1009,0,0
168,15,0,0,0,0,0,0,0,0,0,-1,1392,1009,0,0
175,15,0,0,0,0,0,0,0,0,0,-1,1399,1009,0,0
182,15,0,0,0,0,0,0,0,0,0,-1,1406,1009,0,0
189,15,0,0,0,0,0,0,0,0,0,-1,1413,1009,0,0
196,15,0,0,0,0,0,0,0,0,0,-1,1420,1009,0,0
203,15,0,0,0,0,0,0,0,0,0,-1,1427,1009,0,0
210,15,0,0,0,0,0,0,0,0,0,-1,1434,1009,0,0
217,15,0,0,0,0,0,0,0,0,0,-1,1441,1009,0,0
224,15,0,0,0,0,0,0,0,0,0,-1,1448,1009,0,0
231,15,0,0,0,0,0,0,0,0,0,-1,1455,1009,0,0
238,15,0,0,0,0,0,0,0,0,0,-1,1462,1009,0,0
245,15,0,0,0,0,0,0,0,0,0,-1,1469,1009,0,0
252,15,0,0,0,0,0,0,0,0,0,-1,1476,1009,0,0
259,15,0,0,0,0,0,0,0,0,0,-1,1483,1009,0,0
266,15,0,0,0,0,0,0,0,0,0,-1,1490,1009,0,0
273,15,0,0,0,0,0,0,0,0,0,-1,1497,1009,0,0
280,15,0,0,0,0,0,0,0,0,0,-1,1504,1009,0,0
287,15,0,0,0,0,0,0,0,0,0,-1,1511,1009,0,0
294,15,0,0,0,0,0,0,0,0,0,-1,1518,1009,0,0
301,15,0,0,0,0,0,0,0,0,0,-1,1525,1009,0,0
308,15,0,0,0,0,0,0,0,0,0,-1,1532,1009,0,0
315,15,0,0,0,0,0,0,0,0,0,-1,1539,1009,0,0
322,15,0,0,0,0,0,0,0,0,0,-1,1546,1009,0,0
329,15,0,0,0,0,0,0,0,0,0,-1,1553,1009,0,0
336,15,0,0,0,0,0,0,0,0,0,-1,1560,1009,0,0
343,15,0,0,0,0,0,0,0,0,0,-1,1567,1009,0,0
350,15,0,0,0,0,0,0,0,0,0,-1,1574,1009,0,0
357,15,0,0,0,0,0,0,0,0,0,-1,1581,1009,0,0
364,15,0,0,0,0,0,0,0,0,0,-1,1588,1009,0,0
371,15,0,0,0,0,0,0,0,0,0,-1,1595,1009,0,0
378,15,0,0,0,0,0,0,0,0,0,-1,1602,1009,0,0
385,15,0,0,0,0,0,0,0,0,0,-1,1609,1009,0,0
392,15,0,0,0,0,0,0,0,0,0,-1,1616,1009,0,0
399,15,0,0,0,0,0,0,0,0,0,-1,1623,1009,0,0
406,15,0,0,0,0,0,0,0,0,0,-1,1630,1009,0,0
413,15,0,0,0,0,0,0,0,0,0,-1,1637,1009,0,0
420,15,0,0,0,0,0,0,0,0,0,-1,1644,1009,0,0
427,15,0,0,0,0,0,0,0,0,0,-1,1651,1009,0,0
434,15,0,0,0,0,0,0,0,0,0,-1,1658,1009,0,0
441,15,0,0,0,0,0,0,0,0,0,-1,1665,1009,0,0
448,15,0,0,0,0,0,0,0,0,0,-1,1672,1009,0,0
455,15,0,0,0,0,0,0,0,0,0,-1,1679,1009,0,0
462,15,0,0,0,0,0,0,0,0,0,-1,1686,1009,0,0
469,15,0,0,0,0,0,0,0,0,0,-1,1693,1009,0,0
476,15,0,0,0,0,0,0,0,0,0,-1,1700,1009,0,0
483,15,0,0,0,0,0,0,0,0,0,-1,1707,1009,0,0
490,15,0,0,0,0,0,0,0,0,0,-1,1714,1009,0,0
497,15,0,0,0,0,0,0,0,0,0,-1,1721,1009,0,0
504,15,0,0,0,0,0,0,0,0,0,-1,1728,1009,0,0
511,15,0,0,0,0,0,0,0,0,0,-1,1735,1009,0,0
518,15,0,0,0,0,0,0,0,0,0,-1,1742,1009,0,0
525,15,0,0,0,0,0,0,0,0,0,-1,1749,1009,0,0
532,15,0,0,0,0,0,0,0,0,0,-1,1756,1009,0,0
539,15,0,0,0,0,0,0,0,0,0,-1,1763,1009,0,0
546,15,0,0,0,0,0,0,0,0,0,-1,1770,1009,0,0
553,15,0,0,0,0,0,0,0,0,0,-1,1777,1009,0,0
560,15,0,0,0,0,0,0,0,0,0,-1,1784,1009,0,0
567,15,0,0,0,0,0,0,0,0,0,-1,1791,1009,0,0
574,15,0,0,0,0,0,0,0,0,0,-1,1798,1009,0,0
581,15,0,0,0,0,0,0,0,0,0,-1,1805,1009,0,0
588,15,0,0,0,0,0,0,0,0,0,-1,1812,1009,0,0
595,15,0,0,0,0,0,0,0,0,0,-1,1819,1009,0,0
602,15,0,0,0,0,0,0,0,0,0,-1,1826,1009,0,0
609,15,0,0,0,0,0,0,0,0,0,-1,1833,1009,0,0
616,15,0,0,0,0,0,0,0,0,0,-1,1840,1009,0,0
623,15,0,0,0,0,0,0,0,0,0,-1,1847,1009,0,0
630,15,0,0,0,0,0,0,0,0,0,-1,1854,1009,0,0
637,15,0,0,0,0,0,0,0,0,0,-1,1861,1009,0,0
644,15,60.0137,2.55255,0.0050805,0.00200305,0.000849038,0.0052992,0.00178435,0.252105,0.0031134,0.0405633,1868,1009,60.0137,-2.55255
651,15,60.1478,2.47925,0.00414434,0.00145934,5.41313e-05,0.00414543,0.00145825,0.0201497,0.00242817,0.0381486,1875,1009,60.1478,-2.47926
658,15,60.1135,2.474,0.00337456,0.000983744,-0.00029594,0.00341065,0.000947657,-0.121342,0.00203289,0.0375679,1882,1009,60.1135,-2.47403
665,15,60.1077,2.53278,0.00263906,0.00081227,-2.13524e-05,0.00263931,0.00081202,-0.0116864,0.00156093,0.0378142,1889,1009,60.1076,-2.53276
672,15,60.134,2.57574,0.00193013,0.000888779,0.000694527,0.00227748,0.000541428,0.463748,0.00137388,0.0375393,1896,1009,60.1341,-2.57572
679,15,60.2727,2.58173,0.00128795,0.000974026,0.00161506,0.00275366,-0.00049168,0.736957,0.00201971,0.036962,1903,1009,60.2727,-2.5817
686,15,60.364,2.59637,0.000671229,0.000892104,0.00245457,0.00323872,-0.00167539,0.807879,0.00288463,0.0415244,1910,1009,60.364,-2.59637
693,15,60.2915,2.5351,0.000118199,0.000670907,0.00310588,0.0035127,-0.00272359,0.82977,0.00361012,0.0407872,1917,1009,60.2915,-2.53508
700,15,60.2058,2.5246,-0.000362906,0.000496064,0.00342138,0.00351482,-0.00338166,0.847836,0.00398193,0.0312617,1924,1009,60.2058,-2.5246
707,15,60.2117,2.63367,-0.00104395,0.000718399,0.00337948,0.0033297,-0.00365525,0.91293,0.00403422,0.029788,1931,1009,60.2117,-2.63369
714,15,60.2306,2.73877,-0.00197079,0.00133112,0.00313013,0.003219,-0.00385867,1.02808,0.00409185,0.0335912,1938,1009,60.2306,-2.73876
721,15,60.1881,2.76532,0,0,0,0,0,0,0,-1,1945,1009,60.1881,-2.76531
728,15,60.2428,6.1474,0,0,0,0,0,0,0,-1,1952,1009,60.2427,-6.14738
735,15,60.1805,6.32318,-0.00531443,0.00580255,0.00212998,0.00619667,-0.00570855,1.38783,0.00687541,0.0208748,1959,1009,60.1805,-6.32319
742,15,60.1975,6.54041,-0.00611641,0.00757095,0.0017639,0.00779461,-0.00634007,1.44467,0.00817506,0.0386131,1966,1009,60.1975,-6.5404
749,15,60.1873,6.58191,-0.00727317,0.00998487,0.00116067,0.0100626,-0.00735088,1.50394,0.0100942,0.0238487,1973,1009,60.1873,-6.5819
756,15,60.1897,6.54144,-0.00818026,0.013203,0.000765259,0.0132304,-0.00820761,1.53507,0.01249,0.0171816,1980,1009,60.1896,-6.54145
763,15,60.105,6.66534,-0.00860339,0.0174443,0.000750355,0.0174659,-0.00862498,1.54202,0.0153492,0.0142661,1987,1009,60.1049,-6.66531
770,15,59.9392,6.6972,-0.00825172,0.0232987,0.00177865,0.0233986,-0.00835167,1.51466,0.0190049,0.0194684,1994,1009,59.9393,-6.69717
777,15,59.5667,6.70337,-0.00675657,0.0296342,0.0039231,0.0300523,-0.00717469,1.46462,0.0228058,0.0432877,2001,1009,59.5668,-6.70336
784,15,59.239,6.70313,0,0,0,0,0,0,0,-1,2008,1009,59.2391,-6.70311
791,15,54.7566,10.7156,0,0,0,0,0,0,0,-1,2015,1009,54.7567,-10.7156
798,15,55.9805,9.0943,0,0,0,0,0,0,0,-1,2022,1009,55.9805,-9.09428
805,15,57.1633,7.08173,0,0,0,0,0,0,0,-1,2029,1009,57.1633,-7.08173
812,15,57.9465,5.26196,0,0,0,0,0,0,0,-1,2036,1009,57.9466,-5.26198
-700,8,0,0,0,0,0,0,0,0,0,-1,524,1016,0,0
-693,8,-47.3952,2.45862,0,0,0,0,0,0,0,-1,531,1016,-47.3952,-2.45862
-686,8,-47.119,2.75171,0.0536079,0.09487,-0.0288383,0.109697,0.0387807,-1.09589,0.0642332,0.0455431,538,1016,-47.1189,-2.75168
-679,8,-46.9166,2.92804,0.042226,0.063043,-0.0210448,0.0761126,0.0291564,-1.01505,0.0443424,0.0458993,545,1016,-46.9166,-2.92804
-672,8,-46.7301,2.87695,0.032159,0.0454257,-0.0152258,0.0554004,0.0221844,-0.990833,0.0321961,0.0469385,552,1016,-46.7301,-2.87692
-665,8,-46.53,2.99835,0.023552,0.0350153,-0.0108379,0.0415438,0.0170235,-1.02863,0.0241152,0.0463787,559,1016,-46.53,-2.99837
-658,8,-46.3556,3.15332,0.0163214,0.0282527,-0.00750655,0.0318754,0.0126986,-1.12116,0.0185295,0.039144,566,1016,-46.3556,-3.1533
-651,8,-45.7707,3.51825,0,0,0,0,0,0,0,-1,573,1016,-45.7707,-3.51827
-644,8,-46.0912,3.53467,0,0,0,0,0,0,0,-1,580,1016,-46.0912,-3.53467
-637,8,-46.1244,3.74072,0.00168292,0.0113344,-0.00173582,0.011637,0.00138023,-1.39815,0.00734133,0.0428284,587,1016,-46.1244,-3.74074
-630,8,-46.3564,3.9245,-0.00170178,0.0108966,-0.00132258,0.0110339,-0.00183913,-1.46732,0.00803941,0.0254715,594,1016,-46.3564,-3.92449
-623,8,-46.3362,3.98615,-0.00368209,0.00962435,-0.00123351,0.00973773,-0.00379547,-1.47914,0.00806056,0.0171494,601,1016,-46.3362,-3.98615
-616,8,-46.3724,3.95374,-0.00427253,0.007673,-0.00195103,0.00798358,-0.00458311,-1.41293,0.00734339,0.0180924,608,1016,-46.3724,-3.95372
-609,8,-46.4294,3.87299,-0.00354865,0.00515271,-0.00258524,0.00586285,-0.00425879,-1.30272,0.00586814,0.0190833,615,1016,-46.4294,-3.87298
-602,8,-46.3522,3.92413,-0.00292226,0.00325676,-0.00289002,0.00439777,-0.00406327,-1.19477,0.00488626,0.0225539,622,1016,-46.3522,-3.9241
-595,8,-46.3692,3.87451,0,0,0,0,0,0,0,-1,629,1016,-46.3692,-3.87451
-588,8,-45.5372,0.548523,0,0,0,0,0,0,0,-1,636,1016,-45.5372,-0.548551
-581,8,-45.5558,0.765625,-0.00111424,-0.000310089,-0.00372839,0.00303785,-0.00446217,-0.839111,0.00435609,0.0315981,643,1016,-45.5558,-0.76565
-574,8,-45.5904,0.816223,-0.000802759,-0.00106657,-0.00374832,0.00281598,-0.00468531,-0.76781,0.00437547,0.0341451,650,1016,-45.5904,-0.816239
-567,8,-45.6433,0.798523,-0.000631536,-0.00151507,-0.00353115,0.00248537,-0.00463198,-0.723168,0.00417103,0.0388916,657,1016,-45.6433,-0.798507
-560,8,-45.6871,0.814209,-0.000351913,-0.00190049,-0.00313161,0.00209971,-0.00435211,-0.664204,0.00379988,0.0411425,664,1016,-45.6871,-0.814239
-553,8,-45.5895,0.951904,-9.03295e-06,-0.00250326,-0.00267435,0.00169469,-0.00420698,-0.567225,0.00350873,0.0421524,671,1016,-45.5895,-0.951896
-546,8,-45.6407,0.981628,0.000551338,-0.00376904,-0.00227801,0.00153053,-0.00474824,-0.405969,0.0037804,0.0424091,678,1016,-45.6407,-0.981625
-539,8,-45.6642,0.902893,0.0012324,-0.00582805,-0.0023382,0.00193652,-0.00653217,-0.2925,0.00512376,0.0422456,685,1016,-45.6642,-0.902897
-532,8,-45.5156,0.584351,0.00241205,-0.0074161,-0.00341833,0.00348405,-0.0084881,-0.30389,0.00711053,0.0423455,692,1016,-45.5156,-0.584348
-525,8,0,0,0,0,0,0,0,0,0,-1,699,1016,0,0
-518,8,0,0,0,0,0,0,0,0,0,-1,706,1016,0,0
-511,8,0,0,0,0,0,0,0,0,0,-1,713,1016,0,0
-504,8,0,0,0,0,0,0,0,0,0,-1,720,1016,0,0
-497,8,0,0,0,0,0,0,0,0,0,-1,727,1016,0,0
-490,8,0,0,0,0,0,0,0,0,0,-1,734,1016,0,0
-483,8,0,0,0,0,0,0,0,0,0,-1,741,1016,0,0
-476,8,0,0,0,0,0,0,0,0,0,-1,748,1016,0,0
-469,8,0,0,0,0,0,0,0,0,0,-1,755,1016,0,0
-462,8,0,0,0,0,0,0,0,0,0,-1,762,1016,0,0
-455,8,0,0,0,0,0,0,0,0,0,-1,769,1016,0,0
-448,8,0,0,0,0,0,0,0,0,0,-1,776,1016,0,0
-441,8,0,0,0,0,0,0,0,0,0,-1,783,1016,0,0
-434,8,0,0,0,0,0,0,0,0,0,-1,790,1016,0,0
-427,8,0,0,0,0,0,0,0,0,0,-1,797,1016,0,0
-420,8,0,0,0,0,0,0,0,0,0,-1,804,1016,0,0
-413,8,0,0,0,0,0,0,0,0,0,-1,811,1016,0,0
-406,8,0,0,0,0,0,0,0,0,0,-1,818,1016,0,0
-399,8,0,0,0,0,0,0,0,0,0,-1,825,1016,0,0
-392,8,0,0,0,0,0,0,0,0,0,-1,832,1016,0,0
-385,8,0,0,0,0,0,0,0,0,0,-1,839,1016,0,0
-378,8,0,0,0,0,0,0,0,0,0,-1,846,1016,0,0
-371,8,0,0,0,0,0,0,0,0,0,-1,853,1016,0,0
-364,8,0,0,0,0,0,0,0,0,0,-1,860,1016,0,0
-357,8,0,0,0,0,0,0,0,0,0,-1,867,1016,0,0
-350,8,0,0,0,0,0,0,0,0,0,-1,874,1016,0,0
-343,8,0,0,0,0,0,0,0,0,0,-1,881,1016,0,0
-336,8,0,0,0,0,0,0,0,0,0,-1,888,1016,0,0
-329,8,0,0,0,0,0,0,0,0,0,-1,895,1016,0,0
-322,8,0,0,0,0,0,0,0,0,0,-1,902,1016,0,0
-315,8,0,0,0,0,0,0,0,0,0,-1,909,1016,0,0
-308,8,0,0,0,0,0,0,0,0,0,-1,916,1016,0,0
-301,8,0,0,0,0,0,0,0,0,0,-1,923,1016,0,0
-294,8,0,0,0,0,0,0,0,0,0,-1,930,1016,0,0
-287,8,0,0,0,0,0,0,0,0,0,-1,937,1016,0,0
-280,8,0,0,0,0,0,0,0,0,0,-1,944,1016,0,0
-273,8,0,0,0,0,0,0,0,0,0,-1,951,1016,0,0
-266,8,0,0,0,0,0,0,0,0,0,-1,958,1016,0,0
-259,8,0,0,0,0,0,0,0,0,0,-1,965,1016,0,0
-252,8,0,0,0,0,0,0,0,0,0,-1,972,1016,0,0
-245,8,0,0,0,0,0,0,0,0,0,-1,979,1016,0,0
-238,8,0,0,0,0,0,0,0,0,0,-1,986,1016,0,0
-231,8,0,0,0,0,0,0,0,0,0,-1,993,1016,0,0
-224,8,0,0,0,0,0,0,0,0,0,-1,1000,1016,0,0
-217,8,0,0,0,0,0,0,0,0,0,-1,1007,1016,0,0
-210,8,0,0,0,0,0,0,0,0,0,-1,1014,1016,0,0
-203,8,0,0,0,0,0,0,0,0,0,-1,1021,1016,0,0
-196,8,0,0,0,0,0,0,0,0,0,-1,1028,1016,0,0
-189,8,0,0,0,0,0,0,0,0,0,-1,1035,1016,0,0
-182,8,0,0,0,0,0,0,0,0,0,-1,1042,1016,0,0
-175,8,0,0,0,0,0,0,0,0,0,-1,1049,1016,0,0
-168,8,0,0,0,0,0,0,0,0,0,-1,1056,1016,0,0
-161,8,0,0,0,0,0,0,0,0,0,-1,1063,1016,0,0
-154,8,0,0,0,0,0,0,0,0,0,-1,1070,1016,0,0
-147,8,0,0,0,0,0,0,0,0,0,-1,1077,1016,0,0
-140,8,0,0,0,0,0,0,0,0,0,-1,1084,1016,0,0
-133,8,0,0,0,0,0,0,0,0,0,-1,1091,1016,0,0
-126,8,0,0,0,0,0,0,0,0,0,-1,1098,1016,0,0
-119,8,0,0,0,0,0,0,0,0,0,-1,1105,1016,0,0
-112,8,0,0,0,0,0,0,0,0,0,-1,1112,1016,0,0
-105,8,0,0,0,0,0,0,0,0,0,-1,1119,1016,0,0
-98,8,0,0,0,0,0,0,0,0,0,-1,1126,1016,0,0
-91,8,0,0,0,0,0,0,0,0,0,-1,1133,1016,0,0
-84,8,0,0,0,0,0,0,0,0,0,-1,1140,1016,0,0
-77,8,0,0,0,0,0,0,0,0,0,-1,1147,1016,0,0
-70,8,0,0,0,0,0,0,0,0,0,-1,1154,1016,0,0
-63,8,0,0,0,0,0,0,0,0,0,-1,1161,1016,0,0
-56,8,0,0,0,0,0,0,0,0,0,-1,1168,1016,0,0
-49,8,0,0,0,0,0,0,0,0,0,-1,1175,1016,0,0
-42,8,0,0,0,0,0,0,0,0,0,-1,1182,1016,0,0
-35,8,0,0,0,0,0,0,0,0,0,-1,1189,1016,0,0
-28,8,0,0,0,0,0,0,0,0,0,-1,1196,1016,0,0
-21,8,0,0,0,0,0,0,0,0,0,-1,1203,1016,0,0
-14,8,0,0,0,0,0,0,0,0,0,-1,1210,1016,0,0
-7,8,0,0,0,0,0,0,0,0,0,-1,1217,1016,0,0
0,8,0,0,0,0,0,0,0,0,0,-1,1224,1016,0,0
7,8,0,0,0,0,0,0,0,0,0,-1,1231,1016,0,0
14,8,0,0,0,0,0,0,0,0,0,-1,1238,1016,0,0
21,8,0,0,0,0,0,0,0,0,0,-1,1245,1016,0,0
28,8,0,0,0,0,0,0,0,0,0,-1,1252,1016,0,0
35,8,0,0,0,0,0,0,0,0,0,-1,1259,1016,0,0
42,8,0,0,0,0,0,0,0,0,0,-1,1266,1016,0,0
49,8,0,0,0,0,0,0,0,0,0,-1,1273,1016,0,0
56,8,0,0,0,0,0,0,0,0,0,-1,1280,1016,0,0
63,8,0,0,0,0,0,0,0,0,0,-1,1287,1016,0,0
70,8,0,0,0,0,0,0,0,0,0,-1,1294,1016,0,0
77,8,0,0,0,0,0,0,0,0,0,-1,1301,1016,0,0
84,8,0,0,0,0,0,0,0,0,0,-1,1308,1016,0,0
91,8,0,0,0,0,0,0,0,0,0,-1,1315,1016,0,0
98,8,0,0,0,0,0,0,0,0,0,-1,1322,1016,0,0
105,8,0,0,0,0,0,0,0,0,0,-1,1329,1016,0,0
112,8,0,0,0,0,0,0,0,0,0,-1,1336,1016,0,0
119,8,0,0,0,0,0,0,0,0,0,-1,1343,1016,0,0
126,8,0,0,0,0,0,0,0,0,0,-1,1350,1016,0,0
133,8,0,0,0,0,0,0,0,0,0,-1,1357,1016,0,0
140,8,0,0,0,0,0,0,0,0,0,-1,1364,1016,0,0
147,8,0,0,0,0,0,0,0,0,0,-1,1371,1016,0,0
154,8,0,0,0,0,0,0,0,0,0,-1,1378,1016,0,0
161,8,0,0,0,0,0,0,0,0,0,-1,1385,1016,0,0
168,8,0,0,0,0,0,0,0,0,0,-1,1392,1016,0,0
175,8,0,0,0,0,0,0,0,0,0,-1,1399,1016,0,0
182,8,0,0,0,0,0,0,0,0,0,-1,1406,1016,0,0
189,8,0,0,0,0,0,0,0,0,0,-1,1413,1016,0,0
196,8,0,0,0,0,0,0,0,0,0,-1,1420,1016,0,0
203,8,0,0,0,0,0,0,0,0,0,-1,1427,1016,0,0
210,8,0,0,0,0,0,0,0,0,0,-1,1434,1016,0,0
217,8,0,0,0,0,0,0,0,0,0,-1,1441,1016,0,0
224,8,0,0,0,0,0,0,0,0,0,-1,1448,1016,0,0
231,8,0,0,0,0,0,0,0,0,0,-1,1455,1016,0,0
238,8,0,0,0,0,0,0,0,0,0,-1,1462,1016,0,0
245,8,0,0,0,0,0,0,0,0,0,-1,1469,1016,0,0
252,8,0,0,0,0,0,0,0,0,0,-1,1476,1016,0,0
259,8,0,0,0,0,0,0,0,0,0,-1,1483,1016,0,0
266,8,0,0,0,0,0,0,0,0,0,-1,1490,1016,0,0
273,8,0,0,0,0,0,0,0,0,0,-1,1497,1016,0,0
280,8,0,0,0,0,0,0,0,0,0,-1,1504,1016,0,0
287,8,0,0,0,0,0,0,0,0,0,-1,1511,1016,0,0
294,8,0,0,0,0,0,0,0,0,0,-1,1518,1016,0,0
301,8,0,0,0,0,0,0,0,0,0,-1,1525,1016,0,0
308,8,0,0,0,0,0,0,0,0,0,-1,1532,1016,0,0
315,8,0,0,0,0,0,0,0,0,0,-1,1539,1016,0,0
322,8,0,0,0,0,0,0,0,0,0,-1,1546,1016,0,0
329,8,0,0,0,0,0,0,0,0,0,-1,1553,1016,0,0
336,8,0,0,0,0,0,0,0,0,0,-1,1560,1016,0,0
343,8,0,0,0,0,0,0,0,0,0,-1,1567,1016,0,0
350,8,0,0,0,0,0,0,0,0,0,-1,1574,1016,0,0
357,8,0,0,0,0,0,0,0,0,0,-1,1581,1016,0,0
364,8,0,0,0,0,0,0,0,0,0,-1,1588,1016,0,0
371,8,0,0,0,0,0,0,0,0,0,-1,1595,1016,0,0
378,8,0,0,0,0,0,0,0,0,0,-1,1602,1016,0,0
385,8,0,0,0,0,0,0,0,0,0,-1,1609,1016,0,0
392,8,0,0,0,0,0,0,0,0,0,-1,1616,1016,0,0
399,8,0,0,0,0,0,0,0,0,0,-1,1623,1016,0,0
406,8,0,0,0,0,0,0,0,0,0,-1,1630,1016,0,0
413,8,0,0,0,0,0,0,0,0,0,-1,1637,1016,0,0
420,8,0,0,0,0,0,0,0,0,0,-1,1644,1016,0,0
427,8,0,0,0,0,0,0,0,0,0,-1,1651,1016,0,0
434,8,0,0,0,0,0,0,0,0,0,-1,1658,1016,0,0
441,8,0,0,0,0,0,0,0,0,0,-1,1665,1016,0,0
448,8,0,0,0,0,0,0,0,0,0,-1,1672,1016,0,0
455,8,0,0,0,0,0,0,0,0,0,-1,1679,1016,0,0
462,8,0,0,0,0,0,0,0,0,0,-1,1686,1016,0,0
469,8,0,0,0,0,0,0,0,0,0,-1,1693,1016,0,0
476,8,0,0,0,0,0,0,0,0,0,-1,1700,1016,0,0
483,8,0,0,0,0,0,0,0,0,0,-1,1707,1016,0,0
490,8,0,0,0,0,0,0,0,0,0,-1,1714,1016,0,0
497,8,0,0,0,0,0,0,0,0,0,-1,1721,1016,0,0
504,8,0,0,0,0,0,0,0,0,0,-1,1728,1016,0,0
511,8,0,0,0,0,0,0,0,0,0,-1,1735,1016,0,0
518,8,0,0,0,0,0,0,0,0,0,-1,1742,1016,0,0
525,8,0,0,0,0,0,0,0,0,0,-1,1749,1016,0,0
532,8,0,0,0,0,0,0,0,0,0,-1,1756,1016,0,0
539,8,0,0,0,0,0,0,0,0,0,-1,1763,1016,0,0
546,8,0,0,0,0,0,0,0,0,0,-1,1770,1016,0,0
553,8,0,0,0,0,0,0,0,0,0,-1,1777,1016,0,0
560,8,0,0,0,0,0,0,0,0,0,-1,1784,1016,0,0
567,8,0,0,0,0,0,0,0,0,0,-1,1791,1016,0,0
574,8,0,0,0,0,0,0,0,0,0,-1,1798,1016,0,0
581,8,0,0,0,0,0,0,0,0,0,-1,1805,1016,0,0
588,8,0,0,0,0,0,0,0,0,0,-1,1812,1016,0,0
595,8,0,0,0,0,0,0,0,0,0,-1,1819,1016,0,0
602,8,0,0,0,0,0,0,0,0,0,-1,1826,1016,0,0
609,8,0,0,0,0,0,0,0,0,0,-1,1833,1016,0,0
616,8,0,0,0,0,0,0,0,0,0,-1,1840,1016,0,0
623,8,0,0,0,0,0,0,0,0,0,-1,1847,1016,0,0
630,8,0,0,0,0,0,0,0,0,0,-1,1854,1016,0,0
637,8,0,0,0,0,0,0,0,0,0,-1,1861,1016,0,0
644,8,59.9738,2.50861,0.00417571,0.00256286,0.000694725,0.0044337,0.00230488,0.355562,0.00256047,0.0449254,1868,1016,59.9738,-2.50859
651,8,60.108,2.46149,0.00331195,0.00191555,-2.56699e-05,0.00331242,0.00191507,-0.0183747,0.0019202,0.0395884,1875,1016,60.108,-2.46149
658,8,60.0992,2.57739,0.00267579,0.00132422,-0.000355671,0.00276367,0.00123633,-0.242236,0.00159855,0.0372233,1882,1016,60.0992,-2.57736
665,8,60.1267,2.62305,0.00209846,0.0010298,-0.000140458,0.00211661,0.00101165,-0.128527,0.00122242,0.0388621,1889,1016,60.1267,-2.62302
672,8,60.2177,2.45728,0.00155021,0.00100374,0.000507324,0.0018532,0.000700753,0.538383,0.00108049,0.039338,1896,1016,60.2176,-2.4573
679,8,60.2474,2.19989,0.00105489,0.0010191,0.00136276,0.00239987,-0.000325885,0.778832,0.00171887,0.0377272,1903,1016,60.2474,-2.19988
686,8,60.2339,2.42816,0.000497288,0.000879168,0.00216198,0.00285863,-0.00148217,0.829442,0.00254781,0.0410664,1910,1016,60.2339,-2.42818
693,8,60.2369,2.49652,-2.18829e-05,0.000617961,0.00282065,0.00313677,-0.0025407,0.841868,0.0032839,0.0399675,1917,1016,60.237,-2.49652
700,8,60.2704,2.49744,-0.00045432,0.000406887,0.00318441,0.00318967,-0.0032371,0.852602,0.00371053,0.0296088,1924,1016,60.2704,-2.49743
707,8,60.2609,2.54211,-0.00115385,0.000620161,0.00319452,0.00304853,-0.00358222,0.920819,0.0038324,0.0245949,1931,1016,60.2609,-2.54209
714,8,60.2631,2.57037,-0.00210123,0.00124047,0.00300538,0.00300824,-0.00386899,1.0391,0.00398092,0.0304079,1938,1016,60.2631,-2.57039
721,8,60.2966,2.58398,0,0,0,0,0,0,0,-1,1945,1016,60.2966,-2.58401
728,8,52.1681,5.36774,0,0,0,0,0,0,0,-1,1952,1016,52.168,-5.36773
735,8,60.2598,6.41791,0,0,0,0,0,0,0,-1,1959,1016,60.2598,-6.41788
742,8,60.1873,6.67511,0,0,0,0,0,0,0,-1,1966,1016,60.1872,-6.67509
749,8,60.3621,6.63757,0,0,0,0,0,0,0,-1,1973,1016,60.362,-6.63758
756,8,60.2328,6.40631,-0.00838779,0.0128205,0.000629968,0.0128392,-0.00840648,1.54113,0.0123549,0.0350849,1980,1016,60.2328,-6.40631
763,8,60.2129,6.51178,-0.00875207,0.0167961,0.000419476,0.016803,-0.00875895,1.55438,0.0149998,0.0172152,1987,1016,60.2129,-6.51179
770,8,60.0923,6.47021,-0.00827332,0.0222468,0.000935085,0.0222754,-0.00830194,1.5402,0.018258,0.0212936,1994,1016,60.0922,-6.47022
777,8,59.7166,6.50726,-0.0065734,0.0282287,0.00246231,0.028402,-0.00674675,1.50051,0.0215388,0.0346591,2001,1016,59.7167,-6.50725
784,8,59.3362,6.54272,0,0,0,0,0,0,0,-1,2008,1016,59.3362,-6.54275
791,8,58.4666,6.09686,0,0,0,0,0,0,0,-1,2015,1016,58.4666,-6.09687
798,8,55.0149,9.83722,0,0,0,0,0,0,0,-1,2022,1016,55.015,-9.83724
805,8,56.6685,7.31506,0,0,0,0,0,0,0,-1,2029,1016,56.6685,-7.31505
812,8,57.5935,5.77295,0,0,0,0,0,0,0,-1,2036,1016,57.5934,-5.77293
-700,1,0,0,0,0,0,0,0,0,0,-1,524,1023,0,0
-693,1,-45.5123,6.19763,0.0601066,0.202734,-0.0359878,0.2113,0.0515406,-1.33712,0.127216,0.0406776,531,1023,-45.5123,-6.19765
-686,1,-46.335,3.33502,0.0496738,0.130902,-0.0258362,0.138424,0.0421525,-1.28751,0.0819296,0.0449619,538,1023,-46.335,-3.33499
-679,1,-46.4749,3.18988,0.0389266,0.0896151,-0.0186343,0.0957282,0.0328134,-1.2538,0.0561721,0.0483903,545,1023,-46.4749,-3.18988
-672,1,-46.665,3.10364,0.0294653,0.0646109,-0.0132914,0.0690713,0.0250048,-1.24702,0.0403814,0.0477836,552,1023,-46.665,-3.10363
-665,1,-45.8156,3.8316,0,0,0,0,0,0,0,-1,559,1023,-45.8156,-3.83161
-658,1,-46.1973,3.37897,0.014739,0.03791,-0.00633114,0.039527,0.013122,-1.32073,0.0232465,0.0339888,566,1023,-46.1973,-3.37895
-651,1,-46.0262,3.53131,0.00933049,0.0299344,-0.00419724,0.0307566,0.00850828,-1.37735,0.0183385,0.0284751,573,1023,-46.0262,-3.53129
-644,1,-45.9143,3.75061,0,0,0,0,0,0,0,-1,580,1023,-45.9143,-3.75063
-637,1,-46.1061,3.68665,0.00122613,0.0131235,-0.00150795,0.0133117,0.00103798,-1.44666,0.00854947,0.0403859,587,1023,-46.1062,-3.68663
-630,1,-46.4313,3.75037,-0.0019901,0.0117228,-0.00123761,0.0118336,-0.0021009,-1.48151,0.00867457,0.0352347,594,1023,-46.4313,-3.75034
-623,1,-46.2813,3.95367,-0.00363562,0.00975347,-0.0012005,0.00986026,-0.00374241,-1.48208,0.00811395,0.0167861,601,1023,-46.2813,-3.95365
-616,1,-46.386,3.88135,-0.00408132,0.00736029,-0.00194872,0.00768309,-0.00440412,-1.40664,0.00706363,0.0214108,608,1023,-46.386,-3.88133
-609,1,-46.4044,3.94574,-0.00343604,0.00457761,-0.00252947,0.00530923,-0.00416766,-1.28924,0.0054847,0.0218348,615,1023,-46.4044,-3.94572
-602,1,-46.2261,4.03613,-0.00287299,0.00256574,-0.00279082,0.00374299,-0.00405024,-1.17161,0.00450059,0.0143168,622,1023,-46.2262,-4.0361
-595,1,-46.0567,4.08423,0,0,0,0,0,0,0,-1,629,1023,-46.0567,-4.08425
-588,1,-45.8226,4.18005,0,0,0,0,0,0,0,-1,636,1023,-45.8226,-4.18004
-581,1,-45.5686,0.754333,-0.00104073,-0.000730476,-0.00328434,0.0024024,-0.0041736,-0.808997,0.00384228,0.0293762,643,1023,-45.5686,-0.75432
-574,1,-45.6068,0.843506,-0.000687975,-0.00133828,-0.00323313,0.00223632,-0.00426257,-0.735282,0.00381244,0.0364005,650,1023,-45.6068,-0.843491
-567,1,-45.6237,0.875977,-0.000464215,-0.00158864,-0.0030006,0.00202639,-0.00407925,-0.692789,0.00359089,0.0425444,657,1023,-45.6236,-0.875995
-560,1,-45.5785,0.819092,-0.000124874,-0.00170541,-0.00264274,0.00184322,-0.00367351,-0.640113,0.00324299,0.0411752,664,1023,-45.5785,-0.819113
-553,1,-45.4858,0.854858,0.000287373,-0.0019746,-0.00228826,0.00170889,-0.00339611,-0.555877,0.00300055,0.039118,671,1023,-45.4859,-0.854865
-546,1,-45.6278,0.902832,0.000922369,-0.00288267,-0.00206548,0.00182802,-0.00378832,-0.413222,0.00330778,0.0402519,678,1023,-45.6278,-0.902836
-539,1,-45.736,0.933411,0.001603,-0.00465745,-0.00238452,0.00240778,-0.00546223,-0.325497,0.00465643,0.0424285,685,1023,-45.736,-0.933414
-532,1,-45.5236,0.717712,0.00265105,-0.00614879,-0.00340218,0.00381298,-0.00731071,-0.329103,0.00652724,0.0438091,692,1023,-45.5236,-0.717735
-525,1,0,0,0,0,0,0,0,0,0,-1,699,1023,0,0
-518,1,0,0,0,0,0,0,0,0,0,-1,706,1023,0,0
-511,1,0,0,0,0,0,0,0,0,0,-1,713,1023,0,0
-504,1,0,0,0,0,0,0,0,0,0,-1,720,1023,0,0
-497,1,0,0,0,0,0,0,0,0,0,-1,727,1023,0,0
-490,1,0,0,0,0,0,0,0,0,0,-1,734,1023,0,0
-483,1,0,0,0,0,0,0,0,0,0,-1,741,1023,0,0
-476,1,0,0,0,0,0,0,0,0,0,-1,748,1023,0,0
-469,1,0,0,0,0,0,0,0,0,0,-1,755,1023,0,0
-462,1,0,0,0,0,0,0,0,0,0,-1,762,1023,0,0
-455,1,0,0,0,0,0,0,0,0,0,-1,769,1023,0,0
-448,1,0,0,0,0,0,0,0,0,0,-1,776,1023,0,0
-441,1,0,0,0,0,0,0,0,0,0,-1,783,1023,0,0
-434,1,0,0,0,0,0,0,0,0,0,-1,790,1023,0,0
-427,1,0,0,0,0,0,0,0,0,0,-1,797,1023,0,0
-420,1,0,0,0,0,0,0,0,0,0,-1,804,1023,0,0
-413,1,0,0,0,0,0,0,0,0,0,-1,811,1023,0,0
-406,1,0,0,0,0,0,0,0,0,0,-1,818,1023,0,0
-399,1,0,0,0,0,0,0,0,0,0,-1,825,1023,0,0
-392,1,0,0,0,0,0,0,0,0,0,-1,832,1023,0,0
-385,1,0,0,0,0,0,0,0,0,0,-1,839,1023,0,0
-378,1,0,0,0,0,0,0,0,0,0,-1,846,1023,0,0
-371,1,0,0,0,0,0,0,0,0,0,-1,853,1023,0,0
-364,1,0,0,0,0,0,0,0,0,0,-1,860,1023,0,0
-357,1,0,0,0,0,0,0,0,0,0,-1,867,1023,0,0
-350,1,0,0,0,0,0,0,0,0,0,-1,874,1023,0,0
-343,1,0,0,0,0,0,0,0,0,0,-1,881,1023,0,0
-336,1,0,0,0,0,0,0,0,0,0,-1,888,1023,0,0
-329,1,0,0,0,0,0,0,0,0,0,-1,895,1023,0,0
-322,1,0,0,0,0,0,0,0,0,0,-1,902,1023,0,0
-315,1,0,0,0,0,0,0,0,0,0,-1,909,1023,0,0
-308,1,0,0,0,0,0,0,0,0,0,-1,916,1023,0,0
-301,1,0,0,0,0,0,0,0,0,0,-1,923,1023,0,0
-294,1,0,0,0,0,0,0,0,0,0,-1,930,1023,0,0
-287,1,0,0,0,0,0,0,0,0,0,-1,937,1023,0,0
-280,1,0,0,0,0,0,0,0,0,0,-1,944,1023,0,0
-273,1,0,0,0,0,0,0,0,0,0,-1,951,1023,0,0
-266,1,0,0,0,0,0,0,0,0,0,-1,958,1023,0,0
-259,1,0,0,0,0,0,0,0,0,0,-1,965,1023,0,0
-252,1,0,0,0,0,0,0,0,0,0,-1,972,1023,0,0
-245,1,0,0,0,0,0,0,0,0,0,-1,979,1023,0,0
-238,1,0,0,0,0,0,0,0,0,0,-1,986,1023,0,0
-231,1,0,0,0,0,0,0,0,0,0,-1,993,1023,0,0
-224,1,0,0,0,0,0,0,0,0,0,-1,1000,1023,0,0
-217,1,0,0,0,0,0,0,0,0,0,-1,1007,1023,0,0
-210,1,0,0,0,0,0,0,0,0,0,-1,1014,1023,0,0
-203,1,0,0,0,0,0,0,0,0,0,-1,1021,1023,0,0
-196,1,0,0,0,0,0,0,0,0,0,-1,1028,1023,0,0
-189,1,0,0,0,0,0,0,0,0,0,-1,1035,1023,0,0
-182,1,0,0,0,0,0,0,0,0,0,-1,1042,1023,0,0
-175,1,0,0,0,0,0,0,0,0,0,-1,1049,1023,0,0
-168,1,0,0,0,0,0,0,0,0,0,-1,1056,1023,0,0
-161,1,0,0,0,0,0,0,0,0,0,-1,1063,1023,0,0
-154,1,0,0,0,0,0,0,0,0,0,-1,1070,1023,0,0
-147,1,0,0,0,0,0,0,0,0,0,-1,1077,1023,0,0
-140,1,0,0,0,0,0,0,0,0,0,-1,1084,1023,0,0
-133,1,0,0,0,0,0,0,0,0,0,-1,1091,1023,0,0
-126,1,0,0,0,0,0,0,0,0,0,-1,1098,1023,0,0
-119,1,0,0,0,0,0,0,0,0,0,-1,1105,1023,0,0
-112,1,0,0,0,0,0,0,0,0,0,-1,1112,1023,0,0
-105,1,0,0,0,0,0,0,0,0,0,-1,1119,1023,0,0
-98,1,0,0,0,0,0,0,0,0,0,-1,1126,1023,0,0
-91,1,0,0,0,0,0,0,0,0,0,-1,1133,1023,0,0
-84,1,0,0,0,0,0,0,0,0,0,-1,1140,1023,0,0
-77,1,0,0,0,0,0,0,0,0,0,-1,1147,1023,0,0
-70,1,0,0,0,0,0,0,0,0,0,-1,1154,1023,0,0
-63,1,0,0,0,0,0,0,0,0,0,-1,1161,1023,0,0
-56,1,0,0,0,0,0,0,0,0,0,-1,1168,1023,0,0
-49,1,0,0,0,0,0,0,0,0,0,-1,1175,1023,0,0
-42,1,0,0,0,0,0,0,0,0,0,-1,1182,1023,0,0
-35,1,0,0,0,0,0,0,0,0,0,-1,1189,1023,0,0
-28,1,0,0,0,0,0,0,0,0,0,-1,1196,1023,0,0
-21,1,0,0,0,0,0,0,0,0,0,-1,1203,1023,0,0
-14,1,0,0,0,0,0,0,0,0,0,-1,1210,1023,0,0
-7,1,0,0,0,0,0,0,0,0,0,-1,1217,1023,0,0
0,1,0,0,0,0,0,0,0,0,0,-1,1224,1023,0,0
7,1,0,0,0,0,0,0,0,0,0,-1,1231,1023,0,0
14,1,0,0,0,0,0,0,0,0,0,-1,1238,1023,0,0
21,1,0,0,0,0,0,0,0,0,0,-1,1245,1023,0,0
28,1,0,0,0,0,0,0,0,0,0,-1,1252,1023,0,0
35,1,0,0,0,0,0,0,0,0,0,-1,1259,1023,0,0
42,1,0,0,0,0,0,0,0,0,0,-1,1266,1023,0,0
49,1,0,0,0,0,0,0,0,0,0,-1,1273,1023,0,0
56,1,0,0,0,0,0,0,0,0,0,-1,1280,1023,0,0
63,1,0,0,0,0,0,0,0,0,0,-1,1287,1023,0,0
70,1,0,0,0,0,0,0,0,0,0,-1,1294,1023,0,0
77,1,0,0,0,0,0,0,0,0,0,-1,1301,1023,0,0
84,1,0,0,0,0,0,0,0,0,0,-1,1308,1023,0,0
91,1,0,0,0,0,0,0,0,0,0,-1,1315,1023,0,0
98,1,0,0,0,0,0,0,0,0,0,-1,1322,1023,0,0
105,1,0,0,0,0,0,0,0,0,0,-1,1329,1023,0,0
112,1,0,0,0,0,0,0,0,0,0,-1,1336,1023,0,0
119,1,0,0,0,0,0,0,0,0,0,-1,1343,1023,0,0
126,1,0,0,0,0,0,0,0,0,0,-1,1350,1023,0,0
133,1,0,0,0,0,0,0,0,0,0,-1,1357,1023,0,0
140,1,0,0,0,0,0,0,0,0,0,-1,1364,1023,0,0
147,1,0,0,0,0,0,0,0,0,0,-1,1371,1023,0,0
154,1,0,0,0,0,0,0,0,0,0,-1,1378,1023,0,0
161,1,0,0,0,0,0,0,0,0,0,-1,1385,1023,0,0
168,1,0,0,0,0,0,0,0,0,0,-1,1392,1023,0,0
175,1,0,0,0,0,0,0,0,0,0,-1,1399,1023,0,0
182,1,0,0,0,0,0,0,0,0,0,-1,1406,1023,0,0
189,1,0,0,0,0,0,0,0,0,0,-1,1413,1023,0,0
196,1,0,0,0,0,0,0,0,0,0,-1,1420,1023,0,0
203,1,0,0,0,0,0,0,0,0,0,-1,1427,1023,0,0
210,1,0,0,0,0,0,0,0,0,0,-1,1434,1023,0,0
217,1,0,0,0,0,0,0,0,0,0,-1,1441,1023,0,0
224,1,0,0,0,0,0,0,0,0,0,-1,1448,1023,0,0
231,1,0,0,0,0,0,0,0,0,0,-1,1455,1023,0,0
238,1,0,0,0,0,0,0,0,0,0,-1,1462,1023,0,0
245,1,0,0,0,0,0,0,0,0,0,-1,1469,1023,0,0
252,1,0,0,0,0,0,0,0,0,0,-1,1476,1023,0,0
259,1,0,0,0,0,0,0,0,0,0,-1,1483,1023,0,0
266,1,0,0,0,0,0,0,0,0,0,-1,1490,1023,0,0
273,1,0,0,0,0,0,0,0,0,0,-1,1497,1023,0,0
280,1,0,0,0,0,0,0,0,0,0,-1,1504,1023,0,0
287,1,0,0,0,0,0,0,0,0,0,-1,1511,1023,0,0
294,1,0,0,0,0,0,0,0,0,0,-1,1518,1023,0,0
301,1,0,0,0,0,0,0,0,0,0,-1,1525,1023,0,0
308,1,0,0,0,0,0,0,0,0,0,-1,1532,1023,0,0
315,1,0,0,0,0,0,0,0,0,0,-1,1539,1023,0,0
322,1,0,0,0,0,0,0,0,0,0,-1,1546,1023,0,0
329,1,0,0,0,0,0,0,0,0,0,-1,1553,1023,0,0
336,1,0,0,0,0,0,0,0,0,0,-1,1560,1023,0,0
343,1,0,0,0,0,0,0,0,0,0,-1,1567,1023,0,0
350,1,0,0,0,0,0,0,0,0,0,-1,1574,1023,0,0
357,1,0,0,0,0,0,0,0,0,0,-1,1581,1023,0,0
364,1,0,0,0,0,0,0,0,0,0,-1,1588,1023,0,0
371,1,0,0,0,0,0,0,0,0,0,-1,1595,1023,0,0
378,1,0,0,0,0,0,0,0,0,0,-1,1602,1023,0,0
385,1,0,0,0,0,0,0,0,0,0,-1,1609,1023,0,0
392,1,0,0,0,0,0,0,0,0,0,-1,1616,1023,0,0
399,1,0,0,0,0,0,0,0,0,0,-1,1623,1023,0,0
406,1,0,0,0,0,0,0,0,0,0,-1,1630,1023,0,0
413,1,0,0,0,0,0,0,0,0,0,-1,1637,1023,0,0
420,1,0,0,0,0,0,0,0,0,0,-1,1644,1023,0,0
427,1,0,0,0,0,0,0,0,0,0,-1,1651,1023,0,0
434,1,0,0,0,0,0,0,0,0,0,-1,1658,1023,0,0
441,1,0,0,0,0,0,0,0,0,0,-1,1665,1023,0,0
448,1,0,0,0,0,0,0,0,0,0,-1,1672,1023,0,0
455,1,0,0,0,0,0,0,0,0,0,-1,1679,1023,0,0
462,1,0,0,0,0,0,0,0,0,0,-1,1686,1023,0,0
469,1,0,0,0,0,0,0,0,0,0,-1,1693,1023,0,0
476,1,0,0,0,0,0,0,0,0,0,-1,1700,1023,0,0
483,1,0,0,0,0,0,0,0,0,0,-1,1707,1023,0,0
490,1,0,0,0,0,0,0,0,0,0,-1,1714,1023,0,0
497,1,0,0,0,0,0,0,0,0,0,-1,1721,1023,0,0
504,1,0,0,0,0,0,0,0,0,0,-1,1728,1023,0,0
511,1,0,0,0,0,0,0,0,0,0,-1,1735,1023,0,0
518,1,0,0,0,0,0,0,0,0,0,-1,1742,1023,0,0
525,1,0,0,0,0,0,0,0,0,0,-1,1749,1023,0,0
532,1,0,0,0,0,0,0,0,0,0,-1,1756,1023,0,0
539,1,0,0,0,0,0,0,0,0,0,-1,1763,1023,0,0
546,1,0,0,0,0,0,0,0,0,0,-1,1770,1023,0,0
553,1,0,0,0,0,0,0,0,0,0,-1,1777,1023,0,0
560,1,0,0,0,0,0,0,0,0,0,-1,1784,1023,0,0
567,1,0,0,0,0,0,0,0,0,0,-1,1791,1023,0,0
574,1,0,0,0,0,0,0,0,0,0,-1,1798,1023,0,0
581,1,0,0,0,0,0,0,0,0,0,-1,1805,1023,0,0
588,1,0,0,0,0,0,0,0,0,0,-1,1812,1023,0,0
595,1,0,0,0,0,0,0,0,0,0,-1,1819,1023,0,0
602,1,0,0,0,0,0,0,0,0,0,-1,1826,1023,0,0
609,1,0,0,0,0,0,0,0,0,0,-1,1833,1023,0,0
616,1,0,0,0,0,0,0,0,0,0,-1,1840,1023,0,0
623,1,0,0,0,0,0,0,0,0,0,-1,1847,1023,0,0
630,1,0,0,0,0,0,0,0,0,0,-1,1854,1023,0,0
637,1,0,0,0,0,0,0,0,0,0,-1,1861,1023,0,0
644,1,0,0,0,0,0,0,0,0,0,-1,1868,1023,0,0
651,1,60.1226,2.59009,0.00251433,0.00186901,0.000251735,0.00260092,0.00178243,0.331271,0.00153563,0.0389163,1875,1023,60.1226,-2.5901
658,1,60.1781,2.71686,0.00200675,0.00131086,-0.000163421,0.00204321,0.00127439,-0.219547,0.00119163,0.0394629,1882,1023,60.1781,-2.71688
665,1,60.2457,2.81091,0.00157972,0.000984867,-9.46549e-05,0.00159441,0.000970169,-0.154057,0.000927729,0.041099,1889,1023,60.2457,-2.81092
672,1,60.3042,2.62225,0.00118519,0.000920717,0.000413452,0.00148704,0.000618869,0.630621,0.000862554,0.0393159,1896,1023,60.3042,-2.62225
679,1,60.1997,2.39587,0.000837289,0.000905117,0.00113925,0.00201096,-0.000268555,0.800278,0.00143854,0.0379394,1903,1023,60.1997,-2.3959
686,1,60.0981,2.33698,0.000335711,0.000722599,0.00185096,0.00239019,-0.00133188,0.837464,0.0021777,0.0402025,1910,1023,60.0981,-2.33697
693,1,60.1567,2.47125,-0.000149392,0.000437368,0.00247384,0.00263516,-0.00234719,0.844419,0.00287816,0.036633,1917,1023,60.1567,-2.47125
700,1,60.2625,2.54376,-0.000538045,0.000206871,0.00285799,0.00271657,-0.00304775,0.850194,0.00332986,0.0299007,1924,1023,60.2624,-2.54379
707,1,60.2521,2.578,-0.00125513,0.000407888,0.00292035,0.0026128,-0.00346005,0.924093,0.00351752,0.0240404,1931,1023,60.2521,-2.578
714,1,60.2324,2.60468,-0.00221647,0.00102709,0.00279653,0.00263807,-0.00382745,1.04816,0.00375387,0.0263378,1938,1023,60.2324,-2.60467
721,1,60.2876,2.65143,0,0,0,0,0,0,0,-1,1945,1023,60.2876,-2.65141
728,1,52.4639,5.59277,0,0,0,0,0,0,0,-1,1952,1023,52.4639,-5.59276
735,1,53.3617,6.10699,0,0,0,0,0,0,0,-1,1959,1023,53.3617,-6.10698
742,1,52.4393,5.81525,0,0,0,0,0,0,0,-1,1966,1023,52.4393,-5.81527
749,1,60.3442,6.33881,0,0,0,0,0,0,0,-1,1973,1023,60.3443,-6.33884
756,1,60.2911,6.48413,-0.00860532,0.0123897,0.00047298,0.0124004,-0.00861597,1.54828,0.0121992,0.0372481,1980,1023,60.2911,-6.48416
763,1,60.1482,6.40125,-0.00894606,0.0162185,8.7854e-05,0.0162188,-0.00894637,1.56731,0.01473,0.017909,1987,1023,60.1482,-6.40127
770,1,60.0894,6.34692,-0.00843976,0.0214141,7.76744e-05,0.0214143,-0.00843996,1.56819,0.0177706,0.0186516,1994,1023,60.0893,-6.34691
777,1,59.791,6.27063,-0.00668603,0.0272497,0.000911997,0.0272742,-0.00671052,1.54395,0.020784,0.0255776,2001,1023,59.7911,-6.27065
784,1,59.4954,6.17047,-0.00371406,0.032556,0.00246053,0.0327222,-0.00388022,1.50337,0.0232165,0.0471987,2008,1023,59.4954,-6.17048
791,1,59.2166,6.09723,0,0,0,0,0,0,0,-1,2015,1023,59.2166,-6.09721
798,1,58.397,5.91913,0,0,0,0,0,0,0,-1,2022,1023,58.3969,-5.91912
805,1,56.241,7.38562,0,0,0,0,0,0,0,-1,2029,1023,56.241,-7.38563
812,1,58.4685,4.14008,0,0,0,0,0,0,0,-1,2036,1023,58.4684,-4.14009
-700,-6,0,0,0,0,0,0,0,0,0,-1,524,1030,0,0
-693,-6,-45.2953,5.09387,0.0599983,0.241339,-0.0304265,0.246308,0.0550293,-1.40891,0.149282,0.0408911,531,1030,-45.2953,-5.09388
-686,-6,-45.4772,4.69067,0.0502338,0.163141,-0.0215544,0.167116,0.046259,-1.38843,0.0996369,0.0432519,538,1030,-45.4772,-4.69063
-679,-6,-45.335,4.29602,0.0398083,0.114545,-0.0153235,0.117565,0.0367885,-1.37622,0.0694417,0.0467348,545,1030,-45.335,-4.29605
-672,-6,-45.4981,3.79041,0,0,0,0,0,0,0,-1,552,1030,-45.4981,-3.7904
-665,-6,-45.4724,3.59973,0.0223183,0.0620392,-0.00736513,0.0633609,0.0209967,-1.39324,0.0372684,0.0471994,559,1030,-45.4724,-3.59978
-658,-6,-46.0658,3.55078,0.0155903,0.0472642,-0.00489139,0.0480023,0.0148521,-1.42101,0.0283774,0.0381741,566,1030,-46.0658,-3.55075
-651,-6,-46.0075,3.29236,0.0101601,0.0363083,-0.00317739,0.0366889,0.00977956,-1.45159,0.0219384,0.0445668,573,1030,-46.0075,-3.29231
-644,-6,-45.84,3.59705,0,0,0,0,0,0,0,-1,580,1030,-45.84,-3.59708
-637,-6,-46.0786,3.82849,0.00184543,0.0144887,-0.00121588,0.0146046,0.00172956,-1.47579,0.00921412,0.0455376,587,1030,-46.0786,-3.82849
-630,-6,-46.2763,3.71472,-0.00152211,0.0121763,-0.00109712,0.0122636,-0.00160943,-1.49138,0.00876164,0.0255736,594,1030,-46.2763,-3.7147
-623,-6,-46.1967,3.86401,-0.00313789,0.00970107,-0.00103766,0.00978439,-0.00322122,-1.49067,0.007821,0.0187098,601,1030,-46.1967,-3.86405
-616,-6,-46.2371,3.88416,-0.00362939,0.00700037,-0.0017798,0.00729046,-0.00391947,-1.40923,0.00656888,0.0217771,608,1030,-46.2371,-3.88414
-609,-6,-46.2443,4.02271,-0.00305796,0.00398975,-0.00232817,0.0046894,-0.0037576,-1.27887,0.00488675,0.0207174,615,1030,-46.2443,-4.0227
-602,-6,-46.1426,4.13379,-0.00255966,0.00191527,-0.00256982,0.00308518,-0.00372957,-1.14358,0.00394036,0.0136455,622,1030,-46.1426,-4.13382
-595,-6,-46.1409,4.21716,0,0,0,0,0,0,0,-1,629,1030,-46.141,-4.21718
-588,-6,-45.763,2.25342,0,0,0,0,0,0,0,-1,636,1030,-45.763,-2.25342
-581,-6,-45.5675,0.704346,-0.000898063,-0.00104342,-0.002822,0.00185219,-0.00379368,-0.772524,0.00332327,0.0248595,643,1030,-45.5675,-0.704296
-574,-6,-45.6453,0.808105,-0.000545349,-0.00147816,-0.00270733,0.00173546,-0.00375897,-0.700098,0.00324313,0.0327645,650,1030,-45.6453,-0.808085
-567,-6,-45.6619,0.767578,-0.0003241,-0.0015185,-0.00245809,0.00160829,-0.00345089,-0.66623,0.0029848,0.042577,657,1030,-45.6619,-0.767555
-560,-6,-45.5333,0.733765,-2.92377e-06,-0.0013735,-0.00212578,0.0015453,-0.00292172,-0.629473,0.00261953,0.0429768,664,1030,-45.5334,-0.733815
-553,-6,-45.3926,0.675537,0.000393984,-0.001347,-0.00183686,0.00155618,-0.00250919,-0.564122,0.00236854,0.0417681,671,1030,-45.3926,-0.675556
-546,-6,-45.5207,0.6521,0.00102151,-0.00194706,-0.00172115,0.00180999,-0.00273554,-0.429579,0.00264243,0.0422791,678,1030,-45.5207,-0.65204
-539,-6,-45.6341,0.770386,0.00166985,-0.00351735,-0.00220701,0.00248178,-0.00432929,-0.352522,0.0039803,0.0431007,685,1030,-45.6341,-0.770364
-532,-6,-45.7805,0.878662,0.0025547,-0.00499039,-0.00304005,0.00362715,-0.00606284,-0.339145,0.00565313,0.0443845,692,1030,-45.7804,-0.878622
-525,-6,0,0,0,0,0,0,0,0,0,-1,699,1030,0,0
-518,-6,0,0,0,0,0,0,0,0,0,-1,706,1030,0,0
-511,-6,0,0,0,0,0,0,0,0,0,-1,713,1030,0,0
-504,-6,0,0,0,0,0,0,0,0,0,-1,720,1030,0,0
-497,-6,0,0,0,0,0,0,0,0,0,-1,727,1030,0,0
-490,-6,0,0,0,0,0,0,0,0,0,-1,734,1030,0,0
-483,-6,0,0,0,0,0,0,0,0,0,-1,741,1030,0,0
-476,-6,0,0,0,0,0,0,0,0,0,-1,748,1030,0,0
-469,-6,0,0,0,0,0,0,0,0,0,-1,755,1030,0,0
-462,-6,0,0,0,0,0,0,0,0,0,-1,762,1030,0,0
-455,-6,0,0,0,0,0,0,0,0,0,-1,769,1030,0,0
-448,-6,0,0,0,0,0,0,0,0,0,-1,776,1030,0,0
-441,-6,0,0,0,0,0,0,0,0,0,-1,783,1030,0,0
-434,-6,0,0,0,0,0,0,0,0,0,-1,790,1030,0,0
-427,-6,0,0,0,0,0,0,0,0,0,-1,797,1030,0,0
-420,-6,0,0,0,0,0,0,0,0,0,-1,804,1030,0,0
-413,-6,0,0,0,0,0,0,0,0,0,-1,811,1030,0,0
-406,-6,0,0,0,0,0,0,0,0,0,-1,818,1030,0,0
-399,-6,0,0,0,0,0,0,0,0,0,-1,825,1030,0,0
-392,-6,0,0,0,0,0,0,0,0,0,-1,832,1030,0,0
-385,-6,0,0,0,0,0,0,0,0,0,-1,839,1030,0,0
-378,-6,0,0,0,0,0,0,0,0,0,-1,846,1030,0,0
-371,-6,0,0,0,0,0,0,0,0,0,-1,853,1030,0,0
-364,-6,0,0,0,0,0,0,0,0,0,-1,860,1030,0,0
-357,-6,0,0,0,0,0,0,0,0,0,-1,867,1030,0,0
-350,-6,0,0,0,0,0,0,0,0,0,-1,874,1030,0,0
-343,-6,0,0,0,0,0,0,0,0,0,-1,881,1030,0,0
-336,-6,0,0,0,0,0,0,0,0,0,-1,888,1030,0,0
-329,-6,0,0,0,0,0,0,0,0,0,-1,895,1030,0,0
-322,-6,0,0,0,0,0,0,0,0,0,-1,902,1030,0,0
-315,-6,0,0,0,0,0,0,0,0,0,-1,909,1030,0,0
-308,-6,0,0,0,0,0,0,0,0,0,-1,916,1030,0,0
-301,-6,0,0,0,0,0,0,0,0,0,-1,923,1030,0,0
-294,-6,0,0,0,0,0,0,0,0,0,-1,930,1030,0,0
-287,-6,0,0,0,0,0,0,0,0,0,-1,937,1030,0,0
-280,-6,0,0,0,0,0,0,0,0,0,-1,944,1030,0,0
-273,-6,0,0,0,0,0,0,0,0,0,-1,951,1030,0,0
-266,-6,0,0,0,0,0,0,0,0,0,-1,958,1030,0,0
-259,-6,0,0,0,0,0,0,0,0,0,-1,965,1030,0,0
-252,-6,0,0,0,0,0,0,0,0,0,-1,972,1030,0,0
-245,-6,0,0,0,0,0,0,0,0,0,-1,979,1030,0,0
-238,-6,0,0,0,0,0,0,0,0,0,-1,986,1030,0,0
-231,-6,0,0,0,0,0,0,0,0,0,-1,993,1030,0,0
-224,-6,0,0,0,0,0,0,0,0,0,-1,1000,1030,0,0
-217,-6,0,0,0,0,0,0,0,0,0,-1,1007,1030,0,0
-210,-6,0,0,0,0,0,0,0,0,0,-1,1014,1030,0,0
-203,-6,0,0,0,0,0,0,0,0,0,-1,1021,1030,0,0
-196,-6,0,0,0,0,0,0,0,0,0,-1,1028,1030,0,0
-189,-6,0,0,0,0,0,0,0,0,0,-1,1035,1030,0,0
-182,-6,0,0,0,0,0,0,0,0,0,-1,1042,1030,0,0
-175,-6,0,0,0,0,0,0,0,0,0,-1,1049,1030,0,0
-168,-6,0,0,0,0,0,0,0,0,0,-1,1056,1030,0,0
-161,-6,0,0,0,0,0,0,0,0,0,-1,1063,1030,0,0
-154,-6,0,0,0,0,0,0,0,0,0,-1,1070,1030,0,0
-147,-6,0,0,0,0,0,0,0,0,0,-1,1077,1030,0,0
-140,-6,0,0,0,0,0,0,0,0,0,-1,1084,1030,0,0
-133,-6,0,0,0,0,0,0,0,0,0,-1,1091,1030,0,0
-126,-6,0,0,0,0,0,0,0,0,0,-1,1098,1030,0,0
-119,-6,0,0,0,0,0,0,0,0,0,-1,1105,1030,0,0
-112,-6,0,0,0,0,0,0,0,0,0,-1,1112,1030,0,0
-105,-6,0,0,0,0,0,0,0,0,0,-1,1119,1030,0,0
-98,-6,0,0,0,0,0,0,0,0,0,-1,1126,1030,0,0
-91,-6,0,0,0,0,0,0,0,0,0,-1,1133,1030,0,0
-84,-6,0,0,0,0,0,0,0,0,0,-1,1140,1030,0,0
-77,-6,0,0,0,0,0,0,0,0,0,-1,1147,1030,0,0
-70,-6,0,0,0,0,0,0,0,0,0,-1,1154,1030,0,0
-63,-6,0,0,0,0,0,0,0,0,0,-1,1161,1030,0,0
-56,-6,0,0,0,0,0,0,0,0,0,-1,1168,1030,0,0
-49,-6,0,0,0,0,0,0,0,0,0,-1,1175,1030,0,0
-42,-6,0,0,0,0,0,0,0,0,0,-1,1182,1030,0,0
-35,-6,0,0,0,0,0,0,0,0,0,-1,1189,1030,0,0
-28,-6,0,0,0,0,0,0,0,0,0,-1,1196,1030,0,0
-21,-6,0,0,0,0,0,0,0,0,0,-1,1203,1030,0,0
-14,-6,0,0,0,0,0,0,0,0,0,-1,1210,1030,0,0
-7,-6,0,0,0,0,0,0,0,0,0,-1,1217,1030,0,0
0,-6,0,0,0,0,0,0,0,0,0,-1,1224,1030,0,0
7,-6,0,0,0,0,0,0,0,0,0,-1,1231,1030,0,0
14,-6,0,0,0,0,0,0,0,0,0,-1,1238,1030,0,0
21,-6,0,0,0,0,0,0,0,0,0,-1,1245,1030,0,0
28,-6,0,0,0,0,0,0,0,0,0,-1,1252,1030,0,0
35,-6,0,0,0,0,0,0,0,0,0,-1,1259,1030,0,0
42,-6,0,0,0,0,0,0,0,0,0,-1,1266,1030,0,0
49,-6,0,0,0,0,0,0,0,0,0,-1,1273,1030,0,0
56,-6,0,0,0,0,0,0,0,0,0,-1,1280,1030,0,0
63,-6,0,0,0,0,0,0,0,0,0,-1,1287,1030,0,0
70,-6,0,0,0,0,0,0,0,0,0,-1,1294,1030,0,0
77,-6,0,0,0,0,0,0,0,0,0,-1,1301,1030,0,0
84,-6,0,0,0,0,0,0,0,0,0,-1,1308,1030,0,0
91,-6,0,0,0,0,0,0,0,0,0,-1,1315,1030,0,0
98,-6,0,0,0,0,0,0,0,0,0,-1,1322,1030,0,0
105,-6,0,0,0,0,0,0,0,0,0,-1,1329,1030,0,0
112,-6,0,0,0,0,0,0,0,0,0,-1,1336,1030,0,0
119,-6,0,0,0,0,0,0,0,0,0,-1,1343,1030,0,0
126,-6,0,0,0,0,0,0,0,0,0,-1,1350,1030,0,0
133,-6,0,0,0,0,0,0,0,0,0,-1,1357,1030,0,0
140,-6,0,0,0,0,0,0,0,0,0,-1,1364,1030,0,0
147,-6,0,0,0,0,0,0,0,0,0,-1,1371,1030,0,0
154,-6,0,0,0,0,0,0,0,0,0,-1,1378,1030,0,0
161,-6,0,0,0,0,0,0,0,0,0,-1,1385,1030,0,0
168,-6,0,0,0,0,0,0,0,0,0,-1,1392,1030,0,0
175,-6,0,0,0,0,0,0,0,0,0,-1,1399,1030,0,0
182,-6,0,0,0,0,0,0,0,0,0,-1,1406,1030,0,0
189,-6,0,0,0,0,0,0,0,0,0,-1,1413,1030,0,0
196,-6,0,0,0,0,0,0,0,0,0,-1,1420,1030,0,0
203,-6,0,0,0,0,0,0,0,0,0,-1,1427,1030,0,0
210,-6,0,0,0,0,0,0,0,0,0,-1,1434,1030,0,0
217,-6,0,0,0,0,0,0,0,0,0,-1,1441,1030,0,0
224,-6,0,0,0,0,0,0,0,0,0,-1,1448,1030,0,0
231,-6,0,0,0,0,0,0,0,0,0,-1,1455,1030,0,0
238,-6,0,0,0,0,0,0,0,0,0,-1,1462,1030,0,0
245,-6,0,0,0,0,0,0,0,0,0,-1,1469,1030,0,0
252,-6,0,0,0,0,0,0,0,0,0,-1,1476,1030,0,0
259,-6,0,0,0,0,0,0,0,0,0,-1,1483,1030,0,0
266,-6,0,0,0,0,0,0,0,0,0,-1,1490,1030,0,0
273,-6,0,0,0,0,0,0,0,0,0,-1,1497,1030,0,0
280,-6,0,0,0,0,0,0,0,0,0,-1,1504,1030,0,0
287,-6,0,0,0,0,0,0,0,0,0,-1,1511,1030,0,0
294,-6,0,0,0,0,0,0,0,0,0,-1,1518,1030,0,0
301,-6,0,0,0,0,0,0,0,0,0,-1,1525,1030,0,0
308,-6,0,0,0,0,0,0,0,0,0,-1,1532,1030,0,0
315,-6,0,0,0,0,0,0,0,0,0,-1,1539,1030,0,0
322,-6,0,0,0,0,0,0,0,0,0,-1,1546,1030,0,0
329,-6,0,0,0,0,0,0,0,0,0,-1,1553,1030,0,0
336,-6,0,0,0,0,0,0,0,0,0,-1,1560,1030,0,0
343,-6,0,0,0,0,0,0,0,0,0,-1,1567,1030,0,0
350,-6,0,0,0,0,0,0,0,0,0,-1,1574,1030,0,0
357,-6,0,0,0,0,0,0,0,0,0,-1,1581,1030,0,0
364,-6,0,0,0,0,0,0,0,0,0,-1,1588,1030,0,0
371,-6,0,0,0,0,0,0,0,0,0,-1,1595,1030,0,0
378,-6,0,0,0,0,0,0,0,0,0,-1,1602,1030,0,0
385,-6,0,0,0,0,0,0,0,0,0,-1,1609,1030,0,0
392,-6,0,0,0,0,0,0,0,0,0,-1,1616,1030,0,0
399,-6,0,0,0,0,0,0,0,0,0,-1,1623,1030,0,0
406,-6,0,0,0,0,0,0,0,0,0,-1,1630,1030,0,0
413,-6,0,0,0,0,0,0,0,0,0,-1,1637,1030,0,0
420,-6,0,0,0,0,0,0,0,0,0,-1,1644,1030,0,0
427,-6,0,0,0,0,0,0,0,0,0,-1,1651,1030,0,0
434,-6,0,0,0,0,0,0,0,0,0,-1,1658,1030,0,0
441,-6,0,0,0,0,0,0,0,0,0,-1,1665,1030,0,0
448,-6,0,0,0,0,0,0,0,0,0,-1,1672,1030,0,0
455,-6,0,0,0,0,0,0,0,0,0,-1,1679,1030,0,0
462,-6,0,0,0,0,0,0,0,0,0,-1,1686,1030,0,0
469,-6,0,0,0,0,0,0,0,0,0,-1,1693,1030,0,0
476,-6,0,0,0,0,0,0,0,0,0,-1,1700,1030,0,0
483,-6,0,0,0,0,0,0,0,0,0,-1,1707,1030,0,0
490,-6,0,0,0,0,0,0,0,0,0,-1,1714,1030,0,0
497,-6,0,0,0,0,0,0,0,0,0,-1,1721,1030,0,0
504,-6,0,0,0,0,0,0,0,0,0,-1,1728,1030,0,0
511,-6,0,0,0,0,0,0,0,0,0,-1,1735,1030,0,0
518,-6,0,0,0,0,0,0,0,0,0,-1,1742,1030,0,0
525,-6,0,0,0,0,0,0,0,0,0,-1,1749,1030,0,0
532,-6,0,0,0,0,0,0,0,0,0,-1,1756,1030,0,0
539,-6,0,0,0,0,0,0,0,0,0,-1,1763,1030,0,0
546,-6,0,0,0,0,0,0,0,0,0,-1,1770,1030,0,0
553,-6,0,0,0,0,0,0,0,0,0,-1,1777,1030,0,0
560,-6,0,0,0,0,0,0,0,0,0,-1,1784,1030,0,0
567,-6,0,0,0,0,0,0,0,0,0,-1,1791,1030,0,0
574,-6,0,0,0,0,0,0,0,0,0,-1,1798,1030,0,0
581,-6,0,0,0,0,0,0,0,0,0,-1,1805,1030,0,0
588,-6,0,0,0,0,0,0,0,0,0,-1,1812,1030,0,0
595,-6,0,0,0,0,0,0,0,0,0,-1,1819,1030,0,0
602,-6,0,0,0,0,0,0,0,0,0,-1,1826,1030,0,0
609,-6,0,0,0,0,0,0,0,0,0,-1,1833,1030,0,0
616,-6,0,0,0,0,0,0,0,0,0,-1,1840,1030,0,0
623,-6,0,0,0,0,0,0,0,0,0,-1,1847,1030,0,0
630,-6,0,0,0,0,0,0,0,0,0,-1,1854,1030,0,0
637,-6,0,0,0,0,0,0,0,0,0,-1,1861,1030,0,0
644,-6,0,0,0,0,0,0,0,0,0,-1,1868,1030,0,0
651,-6,60.266,2.69482,0.00204264,0.00178693,0.000331701,0.00227027,0.00155929,0.601446,0.0013409,0.0382801,1875,1030,60.266,-2.69479
658,-6,60.3065,2.61511,0.00157882,0.00130321,-0.000147768,0.00164307,0.00123896,-0.410137,0.000988603,0.040977,1882,1030,60.3065,-2.61506
665,-6,60.3267,2.65076,0.00122245,0.000955204,-0.000181275,0.00131403,0.000863625,-0.467794,0.000771056,0.0412377,1889,1030,60.3267,-2.65071
672,-6,60.3656,2.61243,0.000914314,0.000843164,0.000238166,0.00111955,0.00063793,0.711262,0.000648468,0.0391031,1896,1030,60.3656,-2.61239
679,-6,60.283,2.48193,0.00065931,0.000776471,0.000885565,0.00160539,-0.00016961,0.818425,0.00113104,0.0403116,1903,1030,60.283,-2.48191
686,-6,60.0613,2.40076,0.000190935,0.000540594,0.00154503,0.00192065,-0.00118913,0.841737,0.00181192,0.0373703,1910,1030,60.0613,-2.40081
693,-6,60.1177,2.48682,-0.000270445,0.000227236,0.00214794,0.0021407,-0.00218391,0.843066,0.00249686,0.0348935,1917,1030,60.1177,-2.48685
700,-6,60.2158,2.53076,-0.000630815,-1.74974e-05,0.00256805,0.00226214,-0.00291045,0.844823,0.0029942,0.0302216,1924,1030,60.2158,-2.53073
707,-6,60.2291,2.526,-0.00136323,0.000158023,0.0026917,0.0021945,-0.00339971,0.923099,0.0032547,0.0268784,1931,1030,60.2291,-2.52603
714,-6,60.1833,2.59229,-0.00231732,0.000750881,0.00264318,0.0022729,-0.00383934,1.04834,0.00356733,0.0326016,1938,1030,60.1833,-2.59233
721,-6,60.189,2.7146,0,0,0,0,0,0,0,-1,1945,1030,60.1889,-2.71458
728,-6,53.1713,6.25494,0,0,0,0,0,0,0,-1,1952,1030,53.1713,-6.25495
735,-6,60.1023,6.57111,0,0,0,0,0,0,0,-1,1959,1030,60.1023,-6.57109
742,-6,60.2191,6.7345,0,0,0,0,0,0,0,-1,1966,1030,60.2191,-6.73452
749,-6,60.2299,6.26886,0,0,0,0,0,0,0,-1,1973,1030,60.2298,-6.26886
756,-6,60.2406,6.33228,-0.00899184,0.0117949,0.000203923,0.0117969,-0.00899385,1.56099,0.0120399,0.0313827,1980,1030,60.2406,-6.33226
763,-6,60.0566,6.20758,-0.00948249,0.0155141,-0.00045855,0.0155225,-0.0094909,-1.55246,0.0145808,0.0218475,1987,1030,60.0566,-6.20761
770,-6,59.9734,6.13873,-0.0092723,0.0204595,-0.00108266,0.0204989,-0.00931167,-1.53445,0.0176105,0.0187879,1994,1030,59.9734,-6.13873
777,-6,59.8574,6.13818,-0.00795316,0.0261272,-0.00109584,0.0261624,-0.00798836,-1.53869,0.0206266,0.0203113,2001,1030,59.8574,-6.13817
784,-6,59.6589,5.93579,-0.00568277,0.0313139,-0.000518025,0.0313212,-0.00569002,-1.5568,0.0230132,0.0483009,2008,1030,59.6588,-5.9358
791,-6,60.4651,5.48157,0,0,0,0,0,0,0,-1,2015,1030,60.4651,-5.48156
798,-6,60.626,5.34375,0,0,0,0,0,0,0,-1,2022,1030,60.626,-5.34369
805,-6,59.4734,4.18726,0,0,0,0,0,0,0,-1,2029,1030,59.4734,-4.18723
812,-6,59.4092,4.22742,0,0,0,0,0,0,0,-1,2036,1030,59.4091,-4.22736
-700,-13,0,0,0,0,0,0,0,0,0,-1,524,1037,0,0
-693,-13,-45.1528,3.56982,0.0628241,0.288746,-0.0227442,0.291013,0.0605572,-1.47145,0.177304,0.0471771,531,1037,-45.1528,-3.56987
-686,-13,-45.3774,3.76563,0.0529534,0.199517,-0.0155929,0.201158,0.0513128,-1.46597,0.120693,0.0430697,538,1037,-45.3774,-3.76566
-679,-13,-45.4518,3.70947,0.0422997,0.141304,-0.0106909,0.142445,0.0411584,-1.46445,0.0846479,0.0442664,545,1037,-45.4518,-3.70946
-672,-13,-45.3596,3.45703,0.0325433,0.102213,-0.00716289,0.102942,0.0318145,-1.4694,0.0608611,0.0473963,552,1037,-45.3596,-3.45702
-665,-13,-45.3467,3.36584,0.0241107,0.0752968,-0.00463537,0.0757132,0.0236943,-1.48121,0.044721,0.0469957,559,1037,-45.3468,-3.36581
-658,-13,-45.4575,3.27441,0.0171065,0.0562013,-0.002862,0.0564097,0.0168981,-1.49811,0.0334291,0.0466494,566,1037,-45.4575,-3.27445
-651,-13,-45.7307,3.1687,0.0114805,0.0421277,-0.00172556,0.0422246,0.0113837,-1.51473,0.0252264,0.0427106,573,1037,-45.7307,-3.16874
-644,-13,-45.7648,3.34045,0.00672821,0.0260329,-0.00104702,0.0260895,0.00667159,-1.51677,0.0156505,0.034463,580,1037,-45.7647,-3.34048
-637,-13,-45.8815,3.52661,0.00272223,0.0153527,-0.000772092,0.0153997,0.0026752,-1.50997,0.0095011,0.0276915,587,1037,-45.8816,-3.52664
-630,-13,-46.0262,3.57947,-0.000827027,0.0122431,-0.000901702,0.012305,-0.000888942,-1.50224,0.00851514,0.0165724,594,1037,-46.0262,-3.5795
-623,-13,-46.0474,3.74023,-0.00240737,0.00943631,-0.00086955,0.00949981,-0.00247087,-1.4979,0.00729762,0.0146643,601,1037,-46.0474,-3.74022
-616,-13,-46.0336,3.92041,-0.00296096,0.00661115,-0.0016352,0.00688278,-0.00323259,-1.40618,0.00596552,0.0138476,608,1037,-46.0336,-3.92039
-609,-13,-46.0317,4.09888,-0.00255789,0.00350772,-0.00214218,0.00418797,-0.00323815,-1.26331,0.00429915,0.0180567,615,1037,-46.0318,-4.0989
-602,-13,-46.0026,4.19958,-0.00216719,0.00140617,-0.00239408,0.00260676,-0.00336779,-1.10596,0.00345872,0.0137255,622,1037,-46.0025,-4.19958
-595,-13,-46.0407,4.28687,0,0,0,0,0,0,0,-1,629,1037,-46.0407,-4.2869
-588,-13,-45.4524,0.80127,0,0,0,0,0,0,0,-1,636,1037,-45.4524,-0.801278
-581,-13,-45.5708,0.629395,-0.000795067,-0.00114799,-0.00246924,0.00150401,-0.00344707,-0.749727,0.00293097,0.0254655,643,1037,-45.5708,-0.629453
-574,-13,-45.6876,0.718628,-0.000460104,-0.00141288,-0.00231039,0.0014225,-0.00329549,-0.683726,0.00279456,0.0328081,650,1037,-45.6876,-0.718577
-567,-13,-45.775,0.753662,-0.000257133,-0.00127826,-0.00205232,0.00134717,-0.00288256,-0.663486,0.0024951,0.0416091,657,1037,-45.7749,-0.753709
-560,-13,-45.6297,0.692627,2.8065e-05,-0.000924806,-0.0017489,0.00136426,-0.002261,-0.652415,0.00211428,0.0473142,664,1037,-45.6297,-0.692592
-553,-13,-45.5001,0.597534,0.000399425,-0.000661726,-0.00153251,0.00149061,-0.00175291,-0.61875,0.00187469,0.0466386,671,1037,-45.5001,-0.597561
-546,-13,-45.4897,0.529541,0.00101815,-0.000982692,-0.0015459,0.0018591,-0.00182364,-0.498215,0.00212627,0.0417236,678,1037,-45.4897,-0.529554
-539,-13,-45.5907,0.716064,0.00167022,-0.0023234,-0.00222905,0.00266606,-0.00331924,-0.42015,0.00346246,0.0410863,685,1037,-45.5907,-0.71609
-532,-13,-45.7122,0.915283,0,0,0,0,0,0,0,-1,692,1037,-45.7122,-0.91534
-525,-13,0,0,0,0,0,0,0,0,0,-1,699,1037,0,0
-518,-13,0,0,0,0,0,0,0,0,0,-1,706,1037,0,0
-511,-13,0,0,0,0,0,0,0,0,0,-1,713,1037,0,0
-504,-13,0,0,0,0,0,0,0,0,0,-1,720,1037,0,0
-497,-13,0,0,0,0,0,0,0,0,0,-1,727,1037,0,0
-490,-13,0,0,0,0,0,0,0,0,0,-1,734,1037,0,0
-483,-13,0,0,0,0,0,0,0,0,0,-1,741,1037,0,0
-476,-13,0,0,0,0,0,0,0,0,0,-1,748,1037,0,0
-469,-13,0,0,0,0,0,0,0,0,0,-1,755,1037,0,0
-462,-13,0,0,0,0,0,0,0,0,0,-1,762,1037,0,0
-455,-13,0,0,0,0,0,0,0,0,0,-1,769,1037,0,0
-448,-13,0,0,0,0,0,0,0,0,0,-1,776,1037,0,0
-441,-13,0,0,0,0,0,0,0,0,0,-1,783,1037,0,0
-434,-13,0,0,0,0,0,0,0,0,0,-1,790,1037,0,0
-427,-13,0,0,0,0,0,0,0,0,0,-1,797,1037,0,0
-420,-13,0,0,0,0,0,0,0,0,0,-1,804,1037,0,0
-413,-13,0,0,0,0,0,0,0,0,0,-1,811,1037,0,0
-406,-13,0,0,0,0,0,0,0,0,0,-1,818,1037,0,0
-399,-13,0,0,0,0,0,0,0,0,0,-1,825,1037,0,0
-392,-13,0,0,0,0,0,0,0,0,0,-1,832,1037,0,0
-385,-13,0,0,0,0,0,0,0,0,0,-1,839,1037,0,0
-378,-13,0,0,0,0,0,0,0,0,0,-1,846,1037,0,0
-371,-13,0,0,0,0,0,0,0,0,0,-1,853,1037,0,0
-364,-13,0,0,0,0,0,0,0,0,0,-1,860,1037,0,0
-357,-13,0,0,0,0,0,0,0,0,0,-1,867,1037,0,0
-350,-13,0,0,0,0,0,0,0,0,0,-1,874,1037,0,0
-343,-13,0,0,0,0,0,0,0,0,0,-1,881,1037,0,0
-336,-13,0,0,0,0,0,0,0,0,0,-1,888,1037,0,0
-329,-13,0,0,0,0,0,0,0,0,0,-1,895,1037,0,0
-322,-13,0,0,0,0,0,0,0,0,0,-1,902,1037,0,0
-315,-13,0,0,0,0,0,0,0,0,0,-1,909,1037,0,0
-308,-13,0,0,0,0,0,0,0,0,0,-1,916,1037,0,0
-301,-13,0,0,0,0,0,0,0,0,0,-1,923,1037,0,0
-294,-13,0,0,0,0,0,0,0,0,0,-1,930,1037,0,0
-287,-13,0,0,0,0,0,0,0,0,0,-1,937,1037,0,0
-280,-13,0,0,0,0,0,0,0,0,0,-1,944,1037,0,0
-273,-13,0,0,0,0,0,0,0,0,0,-1,951,1037,0,0
-266,-13,0,0,0,0,0,0,0,0,0,-1,958,1037,0,0
-259,-13,0,0,0,0,0,0,0,0,0,-1,965,1037,0,0
-252,-13,0,0,0,0,0,0,0,0,0,-1,972,1037,0,0
-245,-13,0,0,0,0,0,0,0,0,0,-1,979,1037,0,0
-238,-13,0,0,0,0,0,0,0,0,0,-1,986,1037,0,0
-231,-13,0,0,0,0,0,0,0,0,0,-1,993,1037,0,0
-224,-13,0,0,0,0,0,0,0,0,0,-1,1000,1037,0,0
-217,-13,0,0,0,0,0,0,0,0,0,-1,1007,1037,0,0
-210,-13,0,0,0,0,0,0,0,0,0,-1,1014,1037,0,0
-203,-13,0,0,0,0,0,0,0,0,0,-1,1021,1037,0,0
-196,-13,0,0,0,0,0,0,0,0,0,-1,1028,1037,0,0
-189,-13,0,0,0,0,0,0,0,0,0,-1,1035,1037,0,0
-182,-13,0,0,0,0,0,0,0,0,0,-1,1042,1037,0,0
-175,-13,0,0,0,0,0,0,0,0,0,-1,1049,1037,0,0
-168,-13,0,0,0,0,0,0,0,0,0,-1,1056,1037,0,0
-161,-13,0,0,0,0,0,0,0,0,0,-1,1063,1037,0,0
-154,-13,0,0,0,0,0,0,0,0,0,-1,1070,1037,0,0
-147,-13,0,0,0,0,0,0,0,0,0,-1,1077,1037,0,0
-140,-13,0,0,0,0,0,0,0,0,0,-1,1084,1037,0,0
-133,-13,0,0,0,0,0,0,0,0,0,-1,1091,1037,0,0
-126,-13,0,0,0,0,0,0,0,0,0,-1,1098,1037,0,0
-119,-13,0,0,0,0,0,0,0,0,0,-1,1105,1037,0,0
-112,-13,0,0,0,0,0,0,0,0,0,-1,1112,1037,0,0
-105,-13,0,0,0,0,0,0,0,0,0,-1,1119,1037,0,0
-98,-13,0,0,0,0,0,0,0,0,0,-1,1126,1037,0,0
-91,-13,0,0,0,0,0,0,0,0,0,-1,1133,1037,0,0
-84,-13,0,0,0,0,0,0,0,0,0,-1,1140,1037,0,0
-77,-13,0,0,0,0,0,0,0,0,0,-1,1147,1037,0,0
-70,-13,0,0,0,0,0,0,0,0,0,-1,1154,1037,0,0
-63,-13,0,0,0,0,0,0,0,0,0,-1,1161,1037,0,0
-56,-13,0,0,0,0,0,0,0,0,0,-1,1168,1037,0,0
-49,-13,0,0,0,0,0,0,0,0,0,-1,1175,1037,0,0
-42,-13,0,0,0,0,0,0,0,0,0,-1,1182,1037,0,0
-35,-13,0,0,0,0,0,0,0,0,0,-1,1189,1037,0,0
-28,-13,0,0,0,0,0,0,0,0,0,-1,1196,1037,0,0
-21,-13,0,0,0,0,0,0,0,0,0,-1,1203,1037,0,0
-14,-13,0,0,0,0,0,0,0,0,0,-1,1210,1037,0,0
-7,-13,0,0,0,0,0,0,0,0,0,-1,1217,1037,0,0
0,-13,0,0,0,0,0,0,0,0,0,-1,1224,1037,0,0
7,-13,0,0,0,0,0,0,0,0,0,-1,1231,1037,0,0
14,-13,0,0,0,0,0,0,0,0,0,-1,1238,1037,0,0
21,-13,0,0,0,0,0,0,0,0,0,-1,1245,1037,0,0
28,-13,0,0,0,0,0,0,0,0,0,-1,1252,1037,0,0
35,-13,0,0,0,0,0,0,0,0,0,-1,1259,1037,0,0
42,-13,0,0,0,0,0,0,0,0,0,-1,1266,1037,0,0
49,-13,0,0,0,0,0,0,0,0,0,-1,1273,1037,0,0
56,-13,0,0,0,0,0,0,0,0,0,-1,1280,1037,0,0
63,-13,0,0,0,0,0,0,0,0,0,-1,1287,1037,0,0
70,-13,0,0,0,0,0,0,0,0,0,-1,1294,1037,0,0
77,-13,0,0,0,0,0,0,0,0,0,-1,1301,1037,0,0
84,-13,0,0,0,0,0,0,0,0,0,-1,1308,1037,0,0
91,-13,0,0,0,0,0,0,0,0,0,-1,1315,1037,0,0
98,-13,0,0,0,0,0,0,0,0,0,-1,1322,1037,0,0
105,-13,0,0,0,0,0,0,0,0,0,-1,1329,1037,0,0
112,-13,0,0,0,0,0,0,0,0,0,-1,1336,1037,0,0
119,-13,0,0,0,0,0,0,0,0,0,-1,1343,1037,0,0
126,-13,0,0,0,0,0,0,0,0,0,-1,1350,1037,0,0
133,-13,0,0,0,0,0,0,0,0,0,-1,1357,1037,0,0
140,-13,0,0,0,0,0,0,0,0,0,-1,1364,1037,0,0
147,-13,0,0,0,0,0,0,0,0,0,-1,1371,1037,0,0
154,-13,0,0,0,0,0,0,0,0,0,-1,1378,1037,0,0
161,-13,0,0,0,0,0,0,0,0,0,-1,1385,1037,0,0
168,-13,0,0,0,0,0,0,0,0,0,-1,1392,1037,0,0
175,-13,0,0,0,0,0,0,0,0,0,-1,1399,1037,0,0
182,-13,0,0,0,0,0,0,0,0,0,-1,1406,1037,0,0
189,-13,0,0,0,0,0,0,0,0,0,-1,1413,1037,0,0
196,-13,0,0,0,0,0,0,0,0,0,-1,1420,1037,0,0
203,-13,0,0,0,0,0,0,0,0,0,-1,1427,1037,0,0
210,-13,0,0,0,0,0,0,0,0,0,-1,1434,1037,0,0
217,-13,0,0,0,0,0,0,0,0,0,-1,1441,1037,0,0
224,-13,0,0,0,0,0,0,0,0,0,-1,1448,1037,0,0
231,-13,0,0,0,0,0,0,0,0,0,-1,1455,1037,0,0
238,-13,0,0,0,0,0,0,0,0,0,-1,1462,1037,0,0
245,-13,0,0,0,0,0,0,0,0,0,-1,1469,1037,0,0
252,-13,0,0,0,0,0,0,0,0,0,-1,1476,1037,0,0
259,-13,0,0,0,0,0,0,0,0,0,-1,1483,1037,0,0
266,-13,0,0,0,0,0,0,0,0,0,-1,1490,1037,0,0
273,-13,0,0,0,0,0,0,0,0,0,-1,1497,1037,0,0
280,-13,0,0,0,0,0,0,0,0,0,-1,1504,1037,0,0
287,-13,0,0,0,0,0,0,0,0,0,-1,1511,1037,0,0
294,-13,0,0,0,0,0,0,0,0,0,-1,1518,1037,0,0
301,-13,0,0,0,0,0,0,0,0,0,-1,1525,1037,0,0
308,-13,0,0,0,0,0,0,0,0,0,-1,1532,1037,0,0
315,-13,0,0,0,0,0,0,0,0,0,-1,1539,1037,0,0
322,-13,0,0,0,0,0,0,0,0,0,-1,1546,1037,0,0
329,-13,0,0,0,0,0,0,0,0,0,-1,1553,1037,0,0
336,-13,0,0,0,0,0,0,0,0,0,-1,1560,1037,0,0
343,-13,0,0,0,0,0,0,0,0,0,-1,1567,1037,0,0
350,-13,0,0,0,0,0,0,0,0,0,-1,1574,1037,0,0
357,-13,0,0,0,0,0,0,0,0,0,-1,1581,1037,0,0
364,-13,0,0,0,0,0,0,0,0,0,-1,1588,1037,0,0
371,-13,0,0,0,0,0,0,0,0,0,-1,1595,1037,0,0
378,-13,0,0,0,0,0,0,0,0,0,-1,1602,1037,0,0
385,-13,0,0,0,0,0,0,0,0,0,-1,1609,1037,0,0
392,-13,0,0,0,0,0,0,0,0,0,-1,1616,1037,0,0
399,-13,0,0,0,0,0,0,0,0,0,-1,1623,1037,0,0
406,-13,0,0,0,0,0,0,0,0,0,-1,1630,1037,0,0
413,-13,0,0,0,0,0,0,0,0,0,-1,1637,1037,0,0
420,-13,0,0,0,0,0,0,0,0,0,-1,1644,1037,0,0
427,-13,0,0,0,0,0,0,0,0,0,-1,1651,1037,0,0
434,-13,0,0,0,0,0,0,0,0,0,-1,1658,1037,0,0
441,-13,0,0,0,0,0,0,0,0,0,-1,1665,1037,0,0
448,-13,0,0,0,0,0,0,0,0,0,-1,1672,1037,0,0
455,-13,0,0,0,0,0,0,0,0,0,-1,1679,1037,0,0
462,-13,0,0,0,0,0,0,0,0,0,-1,1686,1037,0,0
469,-13,0,0,0,0,0,0,0,0,0,-1,1693,1037,0,0
476,-13,0,0,0,0,0,0,0,0,0,-1,1700,1037,0,0
483,-13,0,0,0,0,0,0,0,0,0,-1,1707,1037,0,0
490,-13,0,0,0,0,0,0,0,0,0,-1,1714,1037,0,0
497,-13,0,0,0,0,0,0,0,0,0,-1,1721,1037,0,0
504,-13,0,0,0,0,0,0,0,0,0,-1,1728,1037,0,0
511,-13,0,0,0,0,0,0,0,0,0,-1,1735,1037,0,0
518,-13,0,0,0,0,0,0,0,0,0,-1,1742,1037,0,0
525,-13,0,0,0,0,0,0,0,0,0,-1,1749,1037,0,0
532,-13,0,0,0,0,0,0,0,0,0,-1,1756,1037,0,0
539,-13,0,0,0,0,0,0,0,0,0,-1,1763,1037,0,0
546,-13,0,0,0,0,0,0,0,0,0,-1,1770,1037,0,0
553,-13,0,0,0,0,0,0,0,0,0,-1,1777,1037,0,0
560,-13,0,0,0,0,0,0,0,0,0,-1,1784,1037,0,0
567,-13,0,0,0,0,0,0,0,0,0,-1,1791,1037,0,0
574,-13,0,0,0,0,0,0,0,0,0,-1,1798,1037,0,0
581,-13,0,0,0,0,0,0,0,0,0,-1,1805,1037,0,0
588,-13,0,0,0,0,0,0,0,0,0,-1,1812,1037,0,0
595,-13,0,0,0,0,0,0,0,0,0,-1,1819,1037,0,0
602,-13,0,0,0,0,0,0,0,0,0,-1,1826,1037,0,0
609,-13,0,0,0,0,0,0,0,0,0,-1,1833,1037,0,0
616,-13,0,0,0,0,0,0,0,0,0,-1,1840,1037,0,0
623,-13,0,0,0,0,0,0,0,0,0,-1,1847,1037,0,0
630,-13,0,0,0,0,0,0,0,0,0,-1,1854,1037,0,0
637,-13,0,0,0,0,0,0,0,0,0,-1,1861,1037,0,0
644,-13,0,0,0,0,0,0,0,0,0,-1,1868,1037,0,0
651,-13,60.2228,2.72095,0.00166567,0.00196562,0.000572208,0.00240718,0.00122411,0.913564,0.00138985,0.0388463,1875,1037,60.2228,-2.72094
658,-13,60.2583,2.46973,0.00120959,0.00149298,4.94776e-05,0.00150137,0.0012012,1.40282,0.000917375,0.0433495,1882,1037,60.2583,-2.46979
665,-13,60.2579,2.54358,0.000884339,0.00110387,-6.45993e-05,0.00112147,0.00086674,-1.30483,0.000678858,0.0423753,1889,1037,60.2579,-2.54352
672,-13,60.3793,2.5155,0.000635275,0.000937326,0.000275571,0.00110054,0.000472058,1.03607,0.000637535,0.0353545,1896,1037,60.3793,-2.51551
679,-13,60.3064,2.52002,0.000456253,0.000823926,0.000841485,0.00150142,-0.000221243,0.892942,0.00108226,0.0358738,1903,1037,60.3064,-2.51998
686,-13,60.0934,2.44861,1.76632e-05,0.000547338,0.00143766,0.00174435,-0.00117935,0.876484,0.00169847,0.0368926,1910,1037,60.0934,-2.44857
693,-13,60.0884,2.49792,-0.000426274,0.000209022,0.00200154,0.00191796,-0.00213521,0.864093,0.00234122,0.0354115,1917,1037,60.0884,-2.49791
700,-13,60.2284,2.5304,-0.000773732,-5.1401e-05,0.00244377,0.00205775,-0.00288288,0.858762,0.0028657,0.0342037,1924,1037,60.2283,-2.53037
707,-13,60.2603,2.47168,-0.00151195,8.50064e-05,0.00261663,0.00202228,-0.00344922,0.933488,0.00319458,0.0323299,1931,1037,60.2602,-2.47171
714,-13,60.2051,2.73987,-0.00244549,0.000622685,0.00262471,0.00212875,-0.00395155,1.04986,0.00356266,0.0302264,1938,1037,60.2051,-2.73986
721,-13,60.0725,2.9657,0,0,0,0,0,0,0,-1,1945,1037,60.0725,-2.96567
728,-13,60.1205,6.64746,0,0,0,0,0,0,0,-1,1952,1037,60.1205,-6.64744
735,-13,60.0394,6.61169,-0.0060396,0.00435165,0.00223835,0.0048133,-0.00650125,1.3674,0.00655665,0.0360728,1959,1037,60.0394,-6.61164
742,-13,60.0214,6.52209,-0.00685715,0.00601586,0.00167292,0.00622972,-0.00707101,1.44365,0.0076843,0.0223128,1966,1037,60.0214,-6.52205
749,-13,60.1106,6.38794,-0.00807525,0.00840206,0.000696339,0.00843143,-0.00810463,1.52864,0.00954772,0.0299008,1973,1037,60.1106,-6.38797
756,-13,60.1028,6.29565,-0.00884206,0.0110773,0.000116725,0.0110779,-0.00884274,1.56494,0.0115253,0.0197132,1980,1037,60.1028,-6.29561
763,-13,60.0099,6.13892,-0.00887619,0.0145134,-0.000734508,0.0145364,-0.00889923,-1.53943,0.0136605,0.0296962,1987,1037,60.0099,-6.13888
770,-13,59.9099,6.04956,-0.00804285,0.0189997,-0.00180896,0.0191202,-0.00816332,-1.5043,0.01617,0.0252737,1994,1037,59.9099,-6.04958
777,-13,59.7507,5.93945,-0.00559879,0.0241463,-0.00252051,0.0243584,-0.00581086,-1.48686,0.0184829,0.017478,2001,1037,59.7506,-5.93947
784,-13,59.7327,5.76978,-0.00194039,0.0287533,-0.00277189,0.0290016,-0.00218871,-1.48145,0.0201037,0.0378167,2008,1037,59.7326,-5.76974
791,-13,60.1096,5.4425,0.00340063,0.0324724,-0.00219532,0.0326372,0.00323579,-1.49585,0.0207638,0.0496678,2015,1037,60.1096,-5.44254
798,-13,60.2874,5.23975,0,0,0,0,0,0,0,-1,2022,1037,60.2874,-5.23976
805,-13,60.4497,5.08203,0,0,0,0,0,0,0,-1,2029,1037,60.4497,-5.08206
812,-13,60.3584,6.15564,0,0,0,0,0,0,0,-1,2036,1037,60.3584,-6.15567
-700,-20,-45.157,2.33008,0,0,0,0,0,0,0,-1,524,1044,-45.157,-2.33002
-693,-20,-45.0497,2.52185,0,0,0,0,0,0,0,-1,531,1044,-45.0496,-2.52184
-686,-20,-45.5669,3.2644,0,0,0,0,0,0,0,-1,538,1044,-45.5669,-3.26444
-679,-20,-45.5289,3.13953,0.0491604,0.15901,-0.00636427,0.159377,0.0487929,-1.51312,0.0942934,0.0456226,545,1044,-45.5289,-3.13955
-672,-20,-45.4477,2.96497,0.0384398,0.115046,-0.00390291,0.115244,0.0382414,-1.52002,0.067779,0.0446058,552,1044,-45.4477,-2.96498
-665,-20,-45.4004,2.95667,0.0290212,0.0842149,-0.00220284,0.0843027,0.0289334,-1.53097,0.0494634,0.045419,559,1044,-45.4004,-2.95669
-658,-20,-45.482,2.93481,0.0211111,0.062121,-0.00109259,0.0621501,0.021082,-1.54418,0.0364956,0.0491516,566,1044,-45.482,-2.93478
-651,-20,-45.6113,2.9563,0.0147055,0.0458491,-0.000489697,0.0458568,0.0146978,-1.55508,0.0270381,0.0437395,573,1044,-45.6114,-2.95629
-644,-20,-45.5989,3.0658,0.0093547,0.0274762,-0.000253764,0.0274798,0.00935115,-1.5568,0.016133,0.0300195,580,1044,-45.599,-3.06574
-637,-20,-45.6837,3.22363,0.00452408,0.0156011,-0.000472736,0.0156212,0.00450394,-1.52822,0.00928443,0.0191824,587,1044,-45.6837,-3.22359
-630,-20,-45.7764,3.46436,0.000390348,0.0119095,-0.000853483,0.0119724,0.000327455,-1.49724,0.00787471,0.0154685,594,1044,-45.7764,-3.46439
-623,-20,-45.8307,3.70496,-0.00141166,0.00898215,-0.00083775,0.00904924,-0.00147875,-1.49088,0.00658135,0.0141383,601,1044,-45.8308,-3.7049
-616,-20,-45.8293,3.896,-0.00221088,0.00617795,-0.00162615,0.00648214,-0.00251508,-1.38587,0.00536022,0.0139269,608,1044,-45.8293,-3.89603
-609,-20,-45.8538,4.09131,-0.00201817,0.00306249,-0.00214514,0.00384705,-0.00280273,-1.22017,0.003855,0.0151076,615,1044,-45.8537,-4.09129
-602,-20,-45.8363,4.23877,-0.00175153,0.00100944,-0.00245347,0.00244414,-0.00318622,-1.04166,0.00326009,0.0148249,622,1044,-45.8363,-4.23881
-595,-20,-45.8177,4.34534,-0.00168394,0.000199823,-0.00254546,0.00197207,-0.00345619,-0.962599,0.00317281,0.0406035,629,1044,-45.8177,-4.3453
-588,-20,-45.6298,4.20752,0,0,0,0,0,0,0,-1,636,1044,-45.6298,-4.20751
-581,-20,-45.5739,0.618164,-0.000614504,-0.00100998,-0.00242026,0.00161608,-0.00324056,-0.744638,0.00285579,0.0335113,643,1044,-45.5739,-0.618207
-574,-20,-45.7158,0.772461,-0.00028751,-0.00107273,-0.00222494,0.00157919,-0.00293944,-0.698067,0.00264794,0.0376552,650,1044,-45.7157,-0.772472
-567,-20,-45.8391,0.8302,-7.73924e-05,-0.000734145,-0.00194746,0.00156919,-0.00238072,-0.701875,0.00229647,0.0437931,657,1044,-45.839,-0.83026
-560,-20,-45.7028,0.731934,0.000205983,-0.000125226,-0.00163594,0.00168468,-0.00160392,-0.734955,0.00189886,0.0462187,664,1044,-45.7028,-0.731961
-553,-20,-45.4907,0.670532,0.000592501,0.000468804,-0.00142487,0.00195687,-0.000895564,-0.763709,0.00168442,0.0437547,671,1044,-45.4907,-0.670514
-546,-20,-45.4623,0.682495,0.00125213,0.000590401,-0.00146865,0.00242673,-0.000584194,-0.674605,0.00184366,0.0403552,678,1044,-45.4624,-0.682438
-539,-20,-45.6345,0.76123,0.00197915,-0.00028891,-0.00227287,0.00338519,-0.00169495,-0.553997,0.00298664,0.0423145,685,1044,-45.6344,-0.761259
-532,-20,-45.6227,0.657959,0.0026141,-0.00123611,-0.00295749,0.00421785,-0.00283986,-0.496885,0.00410057,0.0422371,692,1044,-45.6227,-0.657958
-525,-20,0,0,0,0,0,0,0,0,0,-1,699,1044,0,0
-518,-20,0,0,0,0,0,0,0,0,0,-1,706,1044,0,0
-511,-20,0,0,0,0,0,0,0,0,0,-1,713,1044,0,0
-504,-20,0,0,0,0,0,0,0,0,0,-1,720,1044,0,0
-497,-20,0,0,0,0,0,0,0,0,0,-1,727,1044,0,0
-490,-20,0,0,0,0,0,0,0,0,0,-1,734,1044,0,0
-483,-20,0,0,0,0,0,0,0,0,0,-1,741,1044,0,0
-476,-20,0,0,0,0,0,0,0,0,0,-1,748,1044,0,0
-469,-20,0,0,0,0,0,0,0,0,0,-1,755,1044,0,0
-462,-20,0,0,0,0,0,0,0,0,0,-1,762,1044,0,0
-455,-20,0,0,0,0,0,0,0,0,0,-1,769,1044,0,0
-448,-20,0,0,0,0,0,0,0,0,0,-1,776,1044,0,0
-441,-20,0,0,0,0,0,0,0,0,0,-1,783,1044,0,0
-434,-20,0,0,0,0,0,0,0,0,0,-1,790,1044,0,0
-427,-20,0,0,0,0,0,0,0,0,0,-1,797,1044,0,0
-420,-20,0,0,0,0,0,0,0,0,0,-1,804,1044,0,0
-413,-20,0,0,0,0,0,0,0,0,0,-1,811,1044,0,0
-406,-20,0,0,0,0,0,0,0,0,0,-1,818,1044,0,0
-399,-20,0,0,0,0,0,0,0,0,0,-1,825,1044,0,0
-392,-20,0,0,0,0,0,0,0,0,0,-1,832,1044,0,0
-385,-20,0,0,0,0,0,0,0,0,0,-1,839,1044,0,0
-378,-20,0,0,0,0,0,0,0,0,0,-1,846,1044,0,0
-371,-20,0,0,0,0,0,0,0,0,0,-1,853,1044,0,0
-364,-20,0,0,0,0,0,0,0,0,0,-1,860,1044,0,0
-357,-20,0,0,0,0,0,0,0,0,0,-1,867,1044,0,0
-350,-20,0,0,0,0,0,0,0,0,0,-1,874,1044,0,0
-343,-20,0,0,0,0,0,0,0,0,0,-1,881,1044,0,0
-336,-20,0,0,0,0,0,0,0,0,0,-1,888,1044,0,0
-329,-20,0,0,0,0,0,0,0,0,0,-1,895,1044,0,0
-322,-20,0,0,0,0,0,0,0,0,0,-1,902,1044,0,0
-315,-20,0,0,0,0,0,0,0,0,0,-1,909,1044,0,0
-308,-20,0,0,0,0,0,0,0,0,0,-1,916,1044,0,0
-301,-20,0,0,0,0,0,0,0,0,0,-1,923,1044,0,0
-294,-20,0,0,0,0,0,0,0,0,0,-1,930,1044,0,0
-287,-20,0,0,0,0,0,0,0,0,0,-1,937,1044,0,0
-280,-20,0,0,0,0,0,0,0,0,0,-1,944,1044,0,0
-273,-20,0,0,0,0,0,0,0,0,0,-1,951,1044,0,0
-266,-20,0,0,0,0,0,0,0,0,0,-1,958,1044,0,0
-259,-20,0,0,0,0,0,0,0,0,0,-1,965,1044,0,0
-252,-20,0,0,0,0,0,0,0,0,0,-1,972,1044,0,0
-245,-20,0,0,0,0,0,0,0,0,0,-1,979,1044,0,0
-238,-20,0,0,0,0,0,0,0,0,0,-1,986,1044,0,0
-231,-20,0,0,0,0,0,0,0,0,0,-1,993,1044,0,0
-224,-20,0,0,0,0,0,0,0,0,0,-1,1000,1044,0,0
-217,-20,0,0,0,0,0,0,0,0,0,-1,1007,1044,0,0
-210,-20,0,0,0,0,0,0,0,0,0,-1,1014,1044,0,0
-203,-20,0,0,0,0,0,0,0,0,0,-1,1021,1044,0,0
-196,-20,0,0,0,0,0,0,0,0,0,-1,1028,1044,0,0
-189,-20,0,0,0,0,0,0,0,0,0,-1,1035,1044,0,0
-182,-20,0,0,0,0,0,0,0,0,0,-1,1042,1044,0,0
-175,-20,0,0,0,0,0,0,0,0,0,-1,1049,1044,0,0
-168,-20,0,0,0,0,0,0,0,0,0,-1,1056,1044,0,0
-161,-20,0,0,0,0,0,0,0,0,0,-1,1063,1044,0,0
-154,-20,0,0,0,0,0,0,0,0,0,-1,1070,1044,0,0
-147,-20,0,0,0,0,0,0,0,0,0,-1,1077,1044,0,0
-140,-20,0,0,0,0,0,0,0,0,0,-1,1084,1044,0,0
-133,-20,0,0,0,0,0,0,0,0,0,-1,1091,1044,0,0
-126,-20,0,0,0,0,0,0,0,0,0,-1,1098,1044,0,0
-119,-20,0,0,0,0,0,0,0,0,0,-1,1105,1044,0,0
-112,-20,0,0,0,0,0,0,0,0,0,-1,1112,1044,0,0
-105,-20,0,0,0,0,0,0,0,0,0,-1,1119,1044,0,0
-98,-20,0,0,0,0,0,0,0,0,0,-1,1126,1044,0,0
-91,-20,0,0,0,0,0,0,0,0,0,-1,1133,1044,0,0
-84,-20,0,0,0,0,0,0,0,0,0,-1,1140,1044,0,0
-77,-20,0,0,0,0,0,0,0,0,0,-1,1147,1044,0,0
-70,-20,0,0,0,0,0,0,0,0,0,-1,1154,1044,0,0
-63,-20,0,0,0,0,0,0,0,0,0,-1,1161,1044,0,0
-56,-20,0,0,0,0,0,0,0,0,0,-1,1168,1044,0,0
-49,-20,0,0,0,0,0,0,0,0,0,-1,1175,1044,0,0
-42,-20,0,0,0,0,0,0,0,0,0,-1,1182,1044,0,0
-35,-20,0,0,0,0,0,0,0,0,0,-1,1189,1044,0,0
-28,-20,0,0,0,0,0,0,0,0,0,-1,1196,1044,0,0
-21,-20,0,0,0,0,0,0,0,0,0,-1,1203,1044,0,0
-14,-20,0,0,0,0,0,0,0,0,0,-1,1210,1044,0,0
-7,-20,0,0,0,0,0,0,0,0,0,-1,1217,1044,0,0
0,-20,0,0,0,0,0,0,0,0,0,-1,1224,1044,0,0
7,-20,0,0,0,0,0,0,0,0,0,-1,1231,1044,0,0
14,-20,0,0,0,0,0,0,0,0,0,-1,1238,1044,0,0
21,-20,0,0,0,0,0,0,0,0,0,-1,1245,1044,0,0
28,-20,0,0,0,0,0,0,0,0,0,-1,1252,1044,0,0
35,-20,0,0,0,0,0,0,0,0,0,-1,1259,1044,0,0
42,-20,0,0,0,0,0,0,0,0,0,-1,1266,1044,0,0
49,-20,0,0,0,0,0,0,0,0,0,-1,1273,1044,0,0
56,-20,0,0,0,0,0,0,0,0,0,-1,1280,1044,0,0
63,-20,0,0,0,0,0,0,0,0,0,-1,1287,1044,0,0
70,-20,0,0,0,0,0,0,0,0,0,-1,1294,1044,0,0
77,-20,0,0,0,0,0,0,0,0,0,-1,1301,1044,0,0
84,-20,0,0,0,0,0,0,0,0,0,-1,1308,1044,0,0
91,-20,0,0,0,0,0,0,0,0,0,-1,1315,1044,0,0
98,-20,0,0,0,0,0,0,0,0,0,-1,1322,1044,0,0
105,-20,0,0,0,0,0,0,0,0,0,-1,1329,1044,0,0
112,-20,0,0,0,0,0,0,0,0,0,-1,1336,1044,0,0
119,-20,0,0,0,0,0,0,0,0,0,-1,1343,1044,0,0
126,-20,0,0,0,0,0,0,0,0,0,-1,1350,1044,0,0
133,-20,0,0,0,0,0,0,0,0,0,-1,1357,1044,0,0
140,-20,0,0,0,0,0,0,0,0,0,-1,1364,1044,0,0
147,-20,0,0,0,0,0,0,0,0,0,-1,1371,1044,0,0
154,-20,0,0,0,0,0,0,0,0,0,-1,1378,1044,0,0
161,-20,0,0,0,0,0,0,0,0,0,-1,1385,1044,0,0
168,-20,0,0,0,0,0,0,0,0,0,-1,1392,1044,0,0
175,-20,0,0,0,0,0,0,0,0,0,-1,1399,1044,0,0
182,-20,0,0,0,0,0,0,0,0,0,-1,1406,1044,0,0
189,-20,0,0,0,0,0,0,0,0,0,-1,1413,1044,0,0
196,-20,0,0,0,0,0,0,0,0,0,-1,1420,1044,0,0
203,-20,0,0,0,0,0,0,0,0,0,-1,1427,1044,0,0
210,-20,0,0,0,0,0,0,0,0,0,-1,1434,1044,0,0
217,-20,0,0,0,0,0,0,0,0,0,-1,1441,1044,0,0
224,-20,0,0,0,0,0,0,0,0,0,-1,1448,1044,0,0
231,-20,0,0,0,0,0,0,0,0,0,-1,1455,1044,0,0
238,-20,0,0,0,0,0,0,0,0,0,-1,1462,1044,0,0
245,-20,0,0,0,0,0,0,0,0,0,-1,1469,1044,0,0
252,-20,0,0,0,0,0,0,0,0,0,-1,1476,1044,0,0
259,-20,0,0,0,0,0,0,0,0,0,-1,1483,1044,0,0
266,-20,0,0,0,0,0,0,0,0,0,-1,1490,1044,0,0
273,-20,0,0,0,0,0,0,0,0,0,-1,1497,1044,0,0
280,-20,0,0,0,0,0,0,0,0,0,-1,1504,1044,0,0
287,-20,0,0,0,0,0,0,0,0,0,-1,1511,1044,0,0
294,-20,0,0,0,0,0,0,0,0,0,-1,1518,1044,0,0
301,-20,0,0,0,0,0,0,0,0,0,-1,1525,1044,0,0
308,-20,0,0,0,0,0,0,0,0,0,-1,1532,1044,0,0
315,-20,0,0,0,0,0,0,0,0,0,-1,1539,1044,0,0
322,-20,0,0,0,0,0,0,0,0,0,-1,1546,1044,0,0
329,-20,0,0,0,0,0,0,0,0,0,-1,1553,1044,0,0
336,-20,0,0,0,0,0,0,0,0,0,-1,1560,1044,0,0
343,-20,0,0,0,0,0,0,0,0,0,-1,1567,1044,0,0
350,-20,0,0,0,0,0,0,0,0,0,-1,1574,1044,0,0
357,-20,0,0,0,0,0,0,0,0,0,-1,1581,1044,0,0
364,-20,0,0,0,0,0,0,0,0,0,-1,1588,1044,0,0
371,-20,0,0,0,0,0,0,0,0,0,-1,1595,1044,0,0
378,-20,0,0,0,0,0,0,0,0,0,-1,1602,1044,0,0
385,-20,0,0,0,0,0,0,0,0,0,-1,1609,1044,0,0
392,-20,0,0,0,0,0,0,0,0,0,-1,1616,1044,0,0
399,-20,0,0,0,0,0,0,0,0,0,-1,1623,1044,0,0
406,-20,0,0,0,0,0,0,0,0,0,-1,1630,1044,0,0
413,-20,0,0,0,0,0,0,0,0,0,-1,1637,1044,0,0
420,-20,0,0,0,0,0,0,0,0,0,-1,1644,1044,0,0
427,-20,0,0,0,0,0,0,0,0,0,-1,1651,1044,0,0
434,-20,0,0,0,0,0,0,0,0,0,-1,1658,1044,0,0
441,-20,0,0,0,0,0,0,0,0,0,-1,1665,1044,0,0
448,-20,0,0,0,0,0,0,0,0,0,-1,1672,1044,0,0
455,-20,0,0,0,0,0,0,0,0,0,-1,1679,1044,0,0
462,-20,0,0,0,0,0,0,0,0,0,-1,1686,1044,0,0
469,-20,0,0,0,0,0,0,0,0,0,-1,1693,1044,0,0
476,-20,0,0,0,0,0,0,0,0,0,-1,1700,1044,0,0
483,-20,0,0,0,0,0,0,0,0,0,-1,1707,1044,0,0
490,-20,0,0,0,0,0,0,0,0,0,-1,1714,1044,0,0
497,-20,0,0,0,0,0,0,0,0,0,-1,1721,1044,0,0
504,-20,0,0,0,0,0,0,0,0,0,-1,1728,1044,0,0
511,-20,0,0,0,0,0,0,0,0,0,-1,1735,1044,0,0
518,-20,0,0,0,0,0,0,0,0,0,-1,1742,1044,0,0
525,-20,0,0,0,0,0,0,0,0,0,-1,1749,1044,0,0
532,-20,0,0,0,0,0,0,0,0,0,-1,1756,1044,0,0
539,-20,0,0,0,0,0,0,0,0,0,-1,1763,1044,0,0
546,-20,0,0,0,0,0,0,0,0,0,-1,1770,1044,0,0
553,-20,0,0,0,0,0,0,0,0,0,-1,1777,1044,0,0
560,-20,0,0,0,0,0,0,0,0,0,-1,1784,1044,0,0
567,-20,0,0,0,0,0,0,0,0,0,-1,1791,1044,0,0
574,-20,0,0,0,0,0,0,0,0,0,-1,1798,1044,0,0
581,-20,0,0,0,0,0,0,0,0,0,-1,1805,1044,0,0
588,-20,0,0,0,0,0,0,0,0,0,-1,1812,1044,0,0
595,-20,0,0,0,0,0,0,0,0,0,-1,1819,1044,0,0
602,-20,0,0,0,0,0,0,0,0,0,-1,1826,1044,0,0
609,-20,0,0,0,0,0,0,0,0,0,-1,1833,1044,0,0
616,-20,0,0,0,0,0,0,0,0,0,-1,1840,1044,0,0
623,-20,0,0,0,0,0,0,0,0,0,-1,1847,1044,0,0
630,-20,0,0,0,0,0,0,0,0,0,-1,1854,1044,0,0
637,-20,0,0,0,0,0,0,0,0,0,-1,1861,1044,0,0
644,-20,0,0,0,0,0,0,0,0,0,-1,1868,1044,0,0
651,-20,60.245,2.4187,0.00127592,0.00213229,0.000890202,0.00269193,0.00071628,1.00956,0.00160988,0.0367394,1875,1044,60.245,-2.41867
658,-20,60.2615,2.46399,0.000810439,0.00171028,0.000343577,0.00182646,0.000694255,1.24471,0.00106457,0.0389341,1882,1044,60.2615,-2.46396
665,-20,60.2732,2.67468,0.000527399,0.00132982,0.000133585,0.00135147,0.000505745,1.41009,0.000788459,0.0378106,1889,1044,60.2732,-2.67467
672,-20,60.288,2.5813,0.00036614,0.00115422,0.000342035,0.00128196,0.000238399,1.21337,0.0007873,0.02452,1896,1044,60.288,-2.58129
679,-20,60.2686,2.54248,0.000299001,0.00103675,0.000756116,0.00150917,-0.000173419,1.01234,0.00106862,0.0275552,1903,1044,60.2686,-2.5425
686,-20,60.1357,2.51099,-6.89957e-05,0.000737587,0.00123637,0.00163478,-0.000966191,0.943051,0.00151812,0.0376989,1910,1044,60.1357,-2.51097
693,-20,60.0496,2.44958,-0.000478997,0.000375212,0.00171573,0.0017162,-0.00181999,0.907386,0.00204191,0.0390269,1917,1044,60.0496,-2.44957
700,-20,60.1803,2.5094,-0.000811963,9.09375e-05,0.00214247,0.001829,-0.00255003,0.889237,0.00253963,0.0339331,1924,1044,60.1804,-2.50937
707,-20,60.2059,2.48364,-0.00152991,0.000177906,0.00234969,0.00182404,-0.00317604,0.959684,0.00292176,0.031058,1931,1044,60.206,-2.48368
714,-20,60.2246,2.67236,-0.00242865,0.000637138,0.00241685,0.00196622,-0.00375773,1.06801,0.00335825,0.0290713,1938,1044,60.2247,-2.6723
721,-20,60.116,2.7561,0,0,0,0,0,0,0,-1,1945,1044,60.1159,-2.75609
728,-20,60.4836,6.72498,0,0,0,0,0,0,0,-1,1952,1044,60.4837,-6.72493
735,-20,60.1399,6.65698,-0.00598791,0.00392502,0.00219982,0.00439127,-0.00645415,1.36194,0.00629925,0.0328388,1959,1044,60.1399,-6.65697
742,-20,59.8643,6.44409,-0.00683834,0.0055181,0.00162814,0.00572903,-0.00704928,1.44196,0.00739067,0.0277929,1966,1044,59.8643,-6.44406
749,-20,59.9486,6.34119,-0.00809252,0.00772441,0.000577497,0.00774547,-0.00811358,1.53435,0.00915705,0.0287261,1973,1044,59.9486,-6.34114
756,-20,59.9425,6.25378,-0.00884848,0.0100903,-4.5674e-05,0.0100904,-0.00884859,-1.56838,0.0109423,0.0187977,1980,1044,59.9425,-6.25381
763,-20,59.849,6.12085,-0.00886765,0.013062,-0.00102099,0.0131094,-0.00891508,-1.52437,0.0127925,0.030133,1987,1044,59.849,-6.1208
770,-20,59.749,6.04529,-0.00809317,0.0168632,-0.00247499,0.0171063,-0.00833625,-1.47289,0.0149773,0.025653,1994,1044,59.7489,-6.04528
777,-20,59.6157,5.81982,-0.00569491,0.0211139,-0.00385215,0.0216565,-0.00623744,-1.43088,0.0169048,0.0168834,2001,1044,59.6158,-5.81977
784,-20,59.6082,5.67798,-0.00213093,0.0247506,-0.00482803,0.0255915,-0.00297176,-1.39837,0.0181329,0.0212076,2008,1044,59.6081,-5.67796
791,-20,59.7903,5.42468,0.00306331,0.0273944,-0.00503904,0.0283967,0.002061,-1.37445,0.0182829,0.0381501,2015,1044,59.7904,-5.42466
798,-20,59.9502,5.17651,0,0,0,0,0,0,0,-1,2022,1044,59.9501,-5.17647
805,-20,60.1431,5.77869,0.0212416,0.0279741,-0.000175493,0.0279787,0.021237,-1.54475,0.0168607,0.0430443,2029,1044,60.1431,-5.77864
812,-20,60.2019,6.07666,0.0344017,0.0245847,0.00684221,0.037914,0.0210724,0.474248,0.021935,0.0476474,2036,1044,60.2019,-6.07672
-700,-27,-47.7354,5.36206,0,0,0,0,0,0,0,-1,524,1051,-47.7354,-5.36205
-693,-27,-46.5883,3.3728,0,0,0,0,0,0,0,-1,531,1051,-46.5883,-3.3728
-686,-27,-46.1006,3.16919,0.0684278,0.236234,-0.00451482,0.236355,0.0683064,-1.54392,0.140452,0.0449017,538,1051,-46.1006,-3.1692
-679,-27,-45.5015,2.89526,0.0563454,0.169786,-0.00240899,0.169838,0.0562943,-1.54957,0.0998954,0.0463249,545,1051,-45.5015,-2.89531
-672,-27,-45.5338,2.74036,0.0447225,0.123159,-0.000964149,0.123171,0.0447106,-1.55851,0.0719971,0.0435013,552,1051,-45.5338,-2.74033
-665,-27,-45.817,3.12915,0.0342912,0.0899253,-3.55224e-05,0.0899254,0.0342912,-1.57016,0.0524036,0.0448471,559,1051,-45.817,-3.1291
-658,-27,-45.6323,1.91089,0.0253823,0.0658613,0.000465465,0.0658667,0.025377,1.5593,0.0383603,0.0450656,566,1051,-45.6323,-1.91085
-651,-27,-45.2775,2.86609,0.0180724,0.0480996,0.000586629,0.048111,0.0180609,1.55127,0.0280629,0.039741,573,1051,-45.2775,-2.86607
-644,-27,-45.3849,2.9259,0.0120806,0.0282013,0.000424625,0.0282125,0.0120695,1.54448,0.016345,0.0201738,580,1051,-45.3849,-2.92592
-637,-27,-45.4528,3.07764,0.00645403,0.015643,-0.000282527,0.0156517,0.00644535,-1.54009,0.00908323,0.0152455,587,1051,-45.4528,-3.07764
-630,-27,-45.5401,3.43384,0.00175089,0.0115175,-0.000998026,0.0116184,0.00164995,-1.47,0.0072584,0.018654,594,1051,-45.5401,-3.43387
-623,-27,-45.59,3.7124,-0.000213344,0.00856153,-0.00109524,0.00869617,-0.000347981,-1.44848,0.00591685,0.0169229,601,1051,-45.59,-3.71244
-616,-27,-45.5773,3.92395,-0.00116069,0.00584048,-0.001929,0.00633679,-0.00165699,-1.31897,0.00487171,0.013939,608,1051,-45.5773,-3.92399
-609,-27,-45.574,4.13025,-0.0011587,0.00280069,-0.00249642,0.00400711,-0.00236512,-1.12063,0.0037195,0.01421,615,1051,-45.574,-4.13029
-602,-27,-45.5293,4.36682,-0.00097241,0.000793343,-0.00292079,0.00296177,-0.00314084,-0.932169,0.00352385,0.0145996,622,1051,-45.5293,-4.36688
-595,-27,-45.5829,4.56091,-0.000957432,0.000150941,-0.00306103,0.00270755,-0.00351404,-0.874951,0.00360208,0.0185416,629,1051,-45.5829,-4.56097
-588,-27,-45.8115,4.68933,0,0,0,0,0,0,0,-1,636,1051,-45.8115,-4.68928
-581,-27,-45.4922,0.708862,1.31941e-05,-0.000668004,-0.00286194,0.00255473,-0.00320954,-0.726172,0.00333515,0.0259848,643,1051,-45.4922,-0.70882
-574,-27,-45.5409,0.739868,0.000323755,-0.000527558,-0.00262095,0.00255338,-0.00275719,-0.704898,0.00306681,0.0356475,650,1051,-45.5409,-0.739919
-567,-27,-45.5832,0.744385,0.000515853,-3.81252e-07,-0.00228604,0.0025583,-0.00204283,-0.729181,0.00266202,0.0445356,657,1051,-45.5832,-0.744392
-560,-27,-45.5985,0.712036,0.00074658,0.00082142,-0.00188711,0.00267148,-0.00110348,-0.795312,0.00224127,0.0455801,664,1051,-45.5985,-0.712018
-553,-27,-45.4337,0.770996,0.00108621,0.00167839,-0.00154664,0.00295703,-0.000192423,-0.879974,0.00203852,0.0411121,671,1051,-45.4336,-0.770937
-546,-27,-45.334,0.809204,0,0,0,0,0,0,0,-1,678,1051,-45.334,-0.809262
-539,-27,-45.5123,0.816162,0.00253283,0.00168067,-0.00212578,0.00427482,-6.13115e-05,-0.686492,0.00287053,0.0445907,685,1051,-45.5122,-0.816158
-532,-27,-45.4708,0.685791,0.00326058,0.00121489,-0.00269408,0.00511945,-0.00064398,-0.603971,0.00364663,0.0406997,692,1051,-45.4708,-0.685731
-525,-27,0,0,0,0,0,0,0,0,0,-1,699,1051,0,0
-518,-27,0,0,0,0,0,0,0,0,0,-1,706,1051,0,0
-511,-27,0,0,0,0,0,0,0,0,0,-1,713,1051,0,0
-504,-27,0,0,0,0,0,0,0,0,0,-1,720,1051,0,0
-497,-27,0,0,0,0,0,0,0,0,0,-1,727,1051,0,0
-490,-27,0,0,0,0,0,0,0,0,0,-1,734,1051,0,0
-483,-27,0,0,0,0,0,0,0,0,0,-1,741,1051,0,0
-476,-27,0,0,0,0,0,0,0,0,0,-1,748,1051,0,0
-469,-27,0,0,0,0,0,0,0,0,0,-1,755,1051,0,0
-462,-27,0,0,0,0,0,0,0,0,0,-1,762,1051,0,0
-455,-27,0,0,0,0,0,0,0,0,0,-1,769,1051,0,0
-448,-27,0,0,0,0,0,0,0,0,0,-1,776,1051,0,0
-441,-27,0,0,0,0,0,0,0,0,0,-1,783,1051,0,0
-434,-27,0,0,0,0,0,0,0,0,0,-1,790,1051,0,0
-427,-27,0,0,0,0,0,0,0,0,0,-1,797,1051,0,0
-420,-27,0,0,0,0,0,0,0,0,0,-1,804,1051,0,0
-413,-27,0,0,0,0,0,0,0,0,0,-1,811,1051,0,0
-406,-27,0,0,0,0,0,0,0,0,0,-1,818,1051,0,0
-399,-27,0,0,0,0,0,0,0,0,0,-1,825,1051,0,0
-392,-27,0,0,0,0,0,0,0,0,0,-1,832,1051,0,0
-385,-27,0,0,0,0,0,0,0,0,0,-1,839,1051,0,0
-378,-27,0,0,0,0,0,0,0,0,0,-1,846,1051,0,0
-371,-27,0,0,0,0,0,0,0,0,0,-1,853,1051,0,0
-364,-27,0,0,0,0,0,0,0,0,0,-1,860,1051,0,0
-357,-27,0,0,0,0,0,0,0,0,0,-1,867,1051,0,0
-350,-27,0,0,0,0,0,0,0,0,0,-1,874,1051,0,0
-343,-27,0,0,0,0,0,0,0,0,0,-1,881,1051,0,0
-336,-27,0,0,0,0,0,0,0,0,0,-1,888,1051,0,0
-329,-27,0,0,0,0,0,0,0,0,0,-1,895,1051,0,0
-322,-27,0,0,0,0,0,0,0,0,0,-1,902,1051,0,0
-315,-27,0,0,0,0,0,0,0,0,0,-1,909,1051,0,0
-308,-27,0,0,0,0,0,0,0,0,0,-1,916,1051,0,0
-301,-27,0,0,0,0,0,0,0,0,0,-1,923,1051,0,0
-294,-27,0,0,0,0,0,0,0,0,0,-1,930,1051,0,0
-287,-27,0,0,0,0,0,0,0,0,0,-1,937,1051,0,0
-280,-27,0,0,0,0,0,0,0,0,0,-1,944,1051,0,0
-273,-27,0,0,0,0,0,0,0,0,0,-1,951,1051,0,0
-266,-27,0,0,0,0,0,0,0,0,0,-1,958,1051,0,0
-259,-27,0,0,0,0,0,0,0,0,0,-1,965,1051,0,0
-252,-27,0,0,0,0,0,0,0,0,0,-1,972,1051,0,0
-245,-27,0,0,0,0,0,0,0,0,0,-1,979,1051,0,0
-238,-27,0,0,0,0,0,0,0,0,0,-1,986,1051,0,0
-231,-27,0,0,0,0,0,0,0,0,0,-1,993,1051,0,0
-224,-27,0,0,0,0,0,0,0,0,0,-1,1000,1051,0,0
-217,-27,0,0,0,0,0,0,0,0,0,-1,1007,1051,0,0
-210,-27,0,0,0,0,0,0,0,0,0,-1,1014,1051,0,0
-203,-27,0,0,0,0,0,0,0,0,0,-1,1021,1051,0,0
-196,-27,0,0,0,0,0,0,0,0,0,-1,1028,1051,0,0
-189,-27,0,0,0,0,0,0,0,0,0,-1,1035,1051,0,0
-182,-27,0,0,0,0,0,0,0,0,0,-1,1042,1051,0,0
-175,-27,0,0,0,0,0,0,0,0,0,-1,1049,1051,0,0
-168,-27,0,0,0,0,0,0,0,0,0,-1,1056,1051,0,0
-161,-27,0,0,0,0,0,0,0,0,0,-1,1063,1051,0,0
-154,-27,0,0,0,0,0,0,0,0,0,-1,1070,1051,0,0
-147,-27,0,0,0,0,0,0,0,0,0,-1,1077,1051,0,0
-140,-27,0,0,0,0,0,0,0,0,0,-1,1084,1051,0,0
-133,-27,0,0,0,0,0,0,0,0,0,-1,1091,1051,0,0
-126,-27,0,0,0,0,0,0,0,0,0,-1,1098,1051,0,0
-119,-27,0,0,0,0,0,0,0,0,0,-1,1105,1051,0,0
-112,-27,0,0,0,0,0,0,0,0,0,-1,1112,1051,0,0
-105,-27,0,0,0,0,0,0,0,0,0,-1,1119,1051,0,0
-98,-27,0,0,0,0,0,0,0,0,0,-1,1126,1051,0,0
-91,-27,0,0,0,0,0,0,0,0,0,-1,1133,1051,0,0
-84,-27,0,0,0,0,0,0,0,0,0,-1,1140,1051,0,0
-77,-27,0,0,0,0,0,0,0,0,0,-1,1147,1051,0,0
-70,-27,0,0,0,0,0,0,0,0,0,-1,1154,1051,0,0
-63,-27,0,0,0,0,0,0,0,0,0,-1,1161,1051,0,0
-56,-27,0,0,0,0,0,0,0,0,0,-1,1168,1051,0,0
-49,-27,0,0,0,0,0,0,0,0,0,-1,1175,1051,0,0
-42,-27,0,0,0,0,0,0,0,0,0,-1,1182,1051,0,0
-35,-27,0,0,0,0,0,0,0,0,0,-1,1189,1051,0,0
-28,-27,0,0,0,0,0,0,0,0,0,-1,1196,1051,0,0
-21,-27,0,0,0,0,0,0,0,0,0,-1,1203,1051,0,0
-14,-27,0,0,0,0,0,0,0,0,0,-1,1210,1051,0,0
-7,-27,0,0,0,0,0,0,0,0,0,-1,1217,1051,0,0
0,-27,0,0,0,0,0,0,0,0,0,-1,1224,1051,0,0
7,-27,0,0,0,0,0,0,0,0,0,-1,1231,1051,0,0
14,-27,0,0,0,0,0,0,0,0,0,-1,1238,1051,0,0
21,-27,0,0,0,0,0,0,0,0,0,-1,1245,1051,0,0
28,-27,0,0,0,0,0,0,0,0,0,-1,1252,1051,0,0
35,-27,0,0,0,0,0,0,0,0,0,-1,1259,1051,0,0
42,-27,0,0,0,0,0,0,0,0,0,-1,1266,1051,0,0
49,-27,0,0,0,0,0,0,0,0,0,-1,1273,1051,0,0
56,-27,0,0,0,0,0,0,0,0,0,-1,1280,1051,0,0
63,-27,0,0,0,0,0,0,0,0,0,-1,1287,1051,0,0
70,-27,0,0,0,0,0,0,0,0,0,-1,1294,1051,0,0
77,-27,0,0,0,0,0,0,0,0,0,-1,1301,1051,0,0
84,-27,0,0,0,0,0,0,0,0,0,-1,1308,1051,0,0
91,-27,0,0,0,0,0,0,0,0,0,-1,1315,1051,0,0
98,-27,0,0,0,0,0,0,0,0,0,-1,1322,1051,0,0
105,-27,0,0,0,0,0,0,0,0,0,-1,1329,1051,0,0
112,-27,0,0,0,0,0,0,0,0,0,-1,1336,1051,0,0
119,-27,0,0,0,0,0,0,0,0,0,-1,1343,1051,0,0
126,-27,0,0,0,0,0,0,0,0,0,-1,1350,1051,0,0
133,-27,0,0,0,0,0,0,0,0,0,-1,1357,1051,0,0
140,-27,0,0,0,0,0,0,0,0,0,-1,1364,1051,0,0
147,-27,0,0,0,0,0,0,0,0,0,-1,1371,1051,0,0
154,-27,0,0,0,0,0,0,0,0,0,-1,1378,1051,0,0
161,-27,0,0,0,0,0,0,0,0,0,-1,1385,1051,0,0
168,-27,0,0,0,0,0,0,0,0,0,-1,1392,1051,0,0
175,-27,0,0,0,0,0,0,0,0,0,-1,1399,1051,0,0
182,-27,0,0,0,0,0,0,0,0,0,-1,1406,1051,0,0
189,-27,0,0,0,0,0,0,0,0,0,-1,1413,1051,0,0
196,-27,0,0,0,0,0,0,0,0,0,-1,1420,1051,0,0
203,-27,0,0,0,0,0,0,0,0,0,-1,1427,1051,0,0
210,-27,0,0,0,0,0,0,0,0,0,-1,1434,1051,0,0
217,-27,0,0,0,0,0,0,0,0,0,-1,1441,1051,0,0
224,-27,0,0,0,0,0,0,0,0,0,-1,1448,1051,0,0
231,-27,0,0,0,0,0,0,0,0,0,-1,1455,1051,0,0
238,-27,0,0,0,0,0,0,0,0,0,-1,1462,1051,0,0
245,-27,0,0,0,0,0,0,0,0,0,-1,1469,1051,0,0
252,-27,0,0,0,0,0,0,0,0,0,-1,1476,1051,0,0
259,-27,0,0,0,0,0,0,0,0,0,-1,1483,1051,0,0
266,-27,0,0,0,0,0,0,0,0,0,-1,1490,1051,0,0
273,-27,0,0,0,0,0,0,0,0,0,-1,1497,1051,0,0
280,-27,0,0,0,0,0,0,0,0,0,-1,1504,1051,0,0
287,-27,0,0,0,0,0,0,0,0,0,-1,1511,1051,0,0
294,-27,0,0,0,0,0,0,0,0,0,-1,1518,1051,0,0
301,-27,0,0,0,0,0,0,0,0,0,-1,1525,1051,0,0
308,-27,0,0,0,0,0,0,0,0,0,-1,1532,1051,0,0
315,-27,0,0,0,0,0,0,0,0,0,-1,1539,1051,0,0
322,-27,0,0,0,0,0,0,0,0,0,-1,1546,1051,0,0
329,-27,0,0,0,0,0,0,0,0,0,-1,1553,1051,0,0
336,-27,0,0,0,0,0,0,0,0,0,-1,1560,1051,0,0
343,-27,0,0,0,0,0,0,0,0,0,-1,1567,1051,0,0
350,-27,0,0,0,0,0,0,0,0,0,-1,1574,1051,0,0
357,-27,0,0,0,0,0,0,0,0,0,-1,1581,1051,0,0
364,-27,0,0,0,0,0,0,0,0,0,-1,1588,1051,0,0
371,-27,0,0,0,0,0,0,0,0,0,-1,1595,1051,0,0
378,-27,0,0,0,0,0,0,0,0,0,-1,1602,1051,0,0
385,-27,0,0,0,0,0,0,0,0,0,-1,1609,1051,0,0
392,-27,0,0,0,0,0,0,0,0,0,-1,1616,1051,0,0
399,-27,0,0,0,0,0,0,0,0,0,-1,1623,1051,0,0
406,-27,0,0,0,0,0,0,0,0,0,-1,1630,1051,0,0
413,-27,0,0,0,0,0,0,0,0,0,-1,1637,1051,0,0
420,-27,0,0,0,0,0,0,0,0,0,-1,1644,1051,0,0
427,-27,0,0,0,0,0,0,0,0,0,-1,1651,1051,0,0
434,-27,0,0,0,0,0,0,0,0,0,-1,1658,1051,0,0
441,-27,0,0,0,0,0,0,0,0,0,-1,1665,1051,0,0
448,-27,0,0,0,0,0,0,0,0,0,-1,1672,1051,0,0
455,-27,0,0,0,0,0,0,0,0,0,-1,1679,1051,0,0
462,-27,0,0,0,0,0,0,0,0,0,-1,1686,1051,0,0
469,-27,0,0,0,0,0,0,0,0,0,-1,1693,1051,0,0
476,-27,0,0,0,0,0,0,0,0,0,-1,1700,1051,0,0
483,-27,0,0,0,0,0,0,0,0,0,-1,1707,1051,0,0
490,-27,0,0,0,0,0,0,0,0,0,-1,1714,1051,0,0
497,-27,0,0,0,0,0,0,0,0,0,-1,1721,1051,0,0
504,-27,0,0,0,0,0,0,0,0,0,-1,1728,1051,0,0
511,-27,0,0,0,0,0,0,0,0,0,-1,1735,1051,0,0
518,-27,0,0,0,0,0,0,0,0,0,-1,1742,1051,0,0
525,-27,0,0,0,0,0,0,0,0,0,-1,1749,1051,0,0
532,-27,0,0,0,0,0,0,0,0,0,-1,1756,1051,0,0
539,-27,0,0,0,0,0,0,0,0,0,-1,1763,1051,0,0
546,-27,0,0,0,0,0,0,0,0,0,-1,1770,1051,0,0
553,-27,0,0,0,0,0,0,0,0,0,-1,1777,1051,0,0
560,-27,0,0,0,0,0,0,0,0,0,-1,1784,1051,0,0
567,-27,0,0,0,0,0,0,0,0,0,-1,1791,1051,0,0
574,-27,0,0,0,0,0,0,0,0,0,-1,1798,1051,0,0
581,-27,0,0,0,0,0,0,0,0,0,-1,1805,1051,0,0
588,-27,0,0,0,0,0,0,0,0,0,-1,1812,1051,0,0
595,-27,0,0,0,0,0,0,0,0,0,-1,1819,1051,0,0
602,-27,0,0,0,0,0,0,0,0,0,-1,1826,1051,0,0
609,-27,0,0,0,0,0,0,0,0,0,-1,1833,1051,0,0
616,-27,0,0,0,0,0,0,0,0,0,-1,1840,1051,0,0
623,-27,0,0,0,0,0,0,0,0,0,-1,1847,1051,0,0
630,-27,0,0,0,0,0,0,0,0,0,-1,1854,1051,0,0
637,-27,0,0,0,0,0,0,0,0,0,-1,1861,1051,0,0
644,-27,0,0,0,0,0,0,0,0,0,-1,1868,1051,0,0
651,-27,60.2999,2.42651,0.000907473,0.00189184,0.0010095,0.00252275,0.000276564,1.01222,0.00159764,0.0377393,1875,1051,60.3,-2.42652
658,-27,60.241,2.56494,0.000482365,0.0015458,0.000480563,0.00173079,0.000297379,1.20334,0.00106861,0.0367953,1882,1051,60.241,-2.56499
665,-27,60.1929,2.60803,0.000253949,0.00122039,0.000212831,0.00126519,0.000209155,1.36336,0.000783107,0.0340469,1889,1051,60.1928,-2.60799
672,-27,60.1299,2.58801,0.000167988,0.00107961,0.000323477,0.00118273,6.48704e-05,1.2622,0.000767777,0.0279996,1896,1051,60.1299,-2.58804
679,-27,60.0912,2.46582,0.000184806,0.000999401,0.000619038,0.00133312,-0.000148909,1.07637,0.00094231,0.0291955,1903,1051,60.0912,-2.46576
686,-27,60.1508,2.48816,-0.000107256,0.000709763,0.00102554,0.00140516,-0.00080265,0.974935,0.0012904,0.0418443,1910,1051,60.1507,-2.48818
693,-27,60.1257,2.56958,-0.000468716,0.000351419,0.00145846,0.00145636,-0.00157366,0.922442,0.00174982,0.0413442,1917,1051,60.1257,-2.56963
700,-27,60.1827,2.56555,-0.000774802,6.72404e-05,0.00188462,0.0015773,-0.00228486,0.895293,0.00224225,0.0336554,1924,1051,60.1828,-2.5656
707,-27,60.1686,2.54199,-0.00145072,0.000129012,0.00213288,0.00161359,-0.00293529,0.962732,0.00266299,0.0232833,1931,1051,60.1686,-2.54202
714,-27,60.1973,2.62683,-0.00229567,0.000532393,0.00226578,0.00178917,-0.00355245,1.06437,0.0031395,0.0214915,1938,1051,60.1972,-2.62682
721,-27,60.1652,2.75452,0,0,0,0,0,0,0,-1,1945,1051,60.1652,-2.7545
728,-27,60.437,6.78638,0,0,0,0,0,0,0,-1,1952,1051,60.4371,-6.78638
735,-27,59.9639,6.74731,-0.00568519,0.00341219,0.00230257,0.00396178,-0.00623477,1.3365,0.00593554,0.033452,1959,1051,59.9638,-6.74726
742,-27,59.7478,6.60181,-0.00653349,0.00490325,0.00174939,0.00516486,-0.0067951,1.42235,0.00692644,0.0201478,1966,1051,59.7478,-6.60182
749,-27,59.7693,6.37366,-0.00777319,0.00694408,0.000650022,0.00697273,-0.00780184,1.52674,0.00853458,0.0156622,1973,1051,59.7693,-6.37369
756,-27,59.7399,6.20203,-0.00848354,0.00900912,-2.21968e-05,0.00900915,-0.00848357,-1.56953,0.0101009,0.0149879,1980,1051,59.7399,-6.20197
763,-27,59.6635,6.01257,-0.0084706,0.0115471,-0.00115791,0.0116139,-0.00853735,-1.51321,0.0116794,0.0160515,1987,1051,59.6634,-6.01261
770,-27,59.592,5.81628,-0.00777092,0.0147316,-0.00301271,0.015128,-0.00816729,-1.43998,0.0136482,0.0174595,1994,1051,59.592,-5.81624
777,-27,59.4902,5.70703,-0.00552337,0.0181062,-0.00513309,0.0191731,-0.00659026,-1.36587,0.0154545,0.0206536,2001,1051,59.4902,-5.70705
784,-27,59.4233,5.64343,-0.00216741,0.0208256,-0.0069895,0.0227835,-0.00412537,-1.29767,0.0167345,0.028662,2008,1051,59.4234,-5.64348
791,-27,59.4531,5.42212,0.00277215,0.0225493,-0.00826259,0.0255469,-0.000225482,-1.22277,0.0171069,0.0438735,2015,1051,59.4532,-5.42206
798,-27,59.6208,5.37781,0,0,0,0,0,0,0,-1,2022,1051,59.6209,-5.37785
805,-27,59.833,5.71814,0.0201906,0.0215421,-0.00652948,0.0274307,0.014302,-0.83696,0.0158419,0.0445117,2029,1051,59.833,-5.71809
812,-27,60.0281,5.99158,0.0332601,0.0176964,-0.00170823,0.0334454,0.0175111,-0.108044,0.0193168,0.0466194,2036,1051,60.028,-5.99156
-700,-34,-47.1689,4.42639,0.095715,0.46045,-0.00547444,0.460533,0.0956329,-1.55579,0.280629,0.0498775,524,1058,-47.1689,-4.42641
-693,-34,-46.4772,3.38342,0.0884419,0.327285,-0.00397881,0.327352,0.0883756,-1.55414,0.19555,0.0459012,531,1058,-46.4772,-3.38338
-686,-34,-45.9165,2.401,0.0768646,0.233419,-0.00257685,0.233461,0.0768222,-1.55434,0.13739,0.0460385,538,1058,-45.9165,-2.40104
-679,-34,-45.165,2.12451,0.0639512,0.168268,-0.00150382,0.16829,0.0639296,-1.55638,0.0980923,0.0437744,545,1058,-45.165,-2.12447
-672,-34,-45.5685,2.4032,0,0,0,0,0,0,0,-1,552,1058,-45.5685,-2.40318
-665,-34,-45.1566,0.269165,0.0399248,0.089115,2.73275e-05,0.089115,0.0399248,1.57024,0.0515432,0.0472119,559,1058,-45.1566,-0.269124
-658,-34,-45.2054,1.52661,0.0300114,0.0650654,0.00040091,0.0650699,0.0300068,1.55936,0.0376059,0.0412521,566,1058,-45.2054,-1.52662
-651,-34,-45.0008,2.60889,0,0,0,0,0,0,0,-1,573,1058,-45.0008,-2.60894
-644,-34,-45.1832,2.75403,0.0151209,0.0273241,0.000300665,0.0273315,0.0151135,1.54618,0.0158093,0.0157863,580,1058,-45.1831,-2.75401
-637,-34,-45.2324,2.99927,0.00867099,0.0149341,-0.000507023,0.0149749,0.00863021,-1.49054,0.00867925,0.0166901,587,1058,-45.2323,-2.9993
-630,-34,-45.2349,3.35999,0.00328852,0.0106958,-0.0012799,0.0109107,0.0030736,-1.40443,0.00649635,0.018178,594,1058,-45.2349,-3.36002
-623,-34,-45.2518,3.65161,0.00104998,0.00788132,-0.00132096,0.00812785,0.000803448,-1.38629,0.0051716,0.0142094,601,1058,-45.2518,-3.65161
-616,-34,-45.2437,3.9519,-0.000105814,0.00532,-0.00211947,0.00604977,-0.000835585,-1.23919,0.00433861,0.0207211,608,1058,-45.2437,-3.95191
-609,-34,-45.2336,4.20337,-0.000244418,0.00244593,-0.0026666,0.00408743,-0.00188592,-1.019,0.00352593,0.0214641,615,1058,-45.2337,-4.20343
-602,-34,-45.2266,4.427,-0.000139353,0.000485795,-0.00320457,0.003393,-0.00304656,-0.834014,0.00371967,0.0165603,622,1058,-45.2266,-4.42695
-595,-34,-45.3513,4.63635,-0.000199476,-7.88787e-05,-0.00340195,0.0032633,-0.00354166,-0.79426,0.00392994,0.018243,629,1058,-45.3513,-4.63635
-588,-34,-45.6606,4.77808,0,0,0,0,0,0,0,-1,636,1058,-45.6607,-4.77802
-581,-34,-45.4666,0.74231,0.000618788,-0.000689003,-0.00314491,0.00317706,-0.00324728,-0.682898,0.00370917,0.0266182,643,1058,-45.4665,-0.742335
-574,-34,-45.4588,0.660767,0.000878345,-0.000461289,-0.00286278,0.00314863,-0.00273157,-0.670478,0.00339778,0.0347093,650,1058,-45.4588,-0.660728
-567,-34,-45.489,0.647583,0.00100865,0.000140252,-0.00246791,0.00308027,-0.00193137,-0.698321,0.0029187,0.0398698,657,1058,-45.489,-0.647563
-560,-34,-45.5587,0.719604,0.00112402,0.0010342,-0.00197671,0.00305634,-0.000898109,-0.77404,0.00239376,0.0407218,664,1058,-45.5587,-0.719573
-553,-34,-45.5089,0.830811,0.00133608,0.00198374,-0.00149508,0.00318966,0.000130159,-0.892049,0.00208441,0.0424664,671,1058,-45.5089,-0.830837
-546,-34,-45.525,1.00891,0.00185436,0.00260907,-0.00116982,0.0034609,0.00100253,-0.941416,0.00205623,0.0474675,678,1058,-45.5249,-1.00894
-539,-34,-45.5355,0.892944,0.00264259,0.00228588,-0.00166856,0.0041423,0.000786163,-0.732154,0.00254036,0.0462462,685,1058,-45.5354,-0.892904
-532,-34,-45.383,0.731812,0.00337086,0.00200091,-0.00202611,0.00482465,0.00054712,-0.622394,0.00305046,0.0405124,692,1058,-45.383,-0.731842
-525,-34,0,0,0,0,0,0,0,0,0,-1,699,1058,0,0
-518,-34,0,0,0,0,0,0,0,0,0,-1,706,1058,0,0
-511,-34,0,0,0,0,0,0,0,0,0,-1,713,1058,0,0
-504,-34,0,0,0,0,0,0,0,0,0,-1,720,1058,0,0
-497,-34,0,0,0,0,0,0,0,0,0,-1,727,1058,0,0
-490,-34,0,0,0,0,0,0,0,0,0,-1,734,1058,0,0
-483,-34,0,0,0,0,0,0,0,0,0,-1,741,1058,0,0
-476,-34,0,0,0,0,0,0,0,0,0,-1,748,1058,0,0
-469,-34,0,0,0,0,0,0,0,0,0,-1,755,1058,0,0
-462,-34,0,0,0,0,0,0,0,0,0,-1,762,1058,0,0
-455,-34,0,0,0,0,0,0,0,0,0,-1,769,1058,0,0
-448,-34,0,0,0,0,0,0,0,0,0,-1,776,1058,0,0
-441,-34,0,0,0,0,0,0,0,0,0,-1,783,1058,0,0
-434,-34,0,0,0,0,0,0,0,0,0,-1,790,1058,0,0
-427,-34,0,0,0,0,0,0,0,0,0,-1,797,1058,0,0
-420,-34,0,0,0,0,0,0,0,0,0,-1,804,1058,0,0
-413,-34,0,0,0,0,0,0,0,0,0,-1,811,1058,0,0
-406,-34,0,0,0,0,0,0,0,0,0,-1,818,1058,0,0
-399,-34,0,0,0,0,0,0,0,0,0,-1,825,1058,0,0
-392,-34,0,0,0,0,0,0,0,0,0,-1,832,1058,0,0
-385,-34,0,0,0,0,0,0,0,0,0,-1,839,1058,0,0
-378,-34,0,0,0,0,0,0,0,0,0,-1,846,1058,0,0
-371,-34,0,0,0,0,0,0,0,0,0,-1,853,1058,0,0
-364,-34,0,0,0,0,0,0,0,0,0,-1,860,1058,0,0
-357,-34,0,0,0,0,0,0,0,0,0,-1,867,1058,0,0
-350,-34,0,0,0,0,0,0,0,0,0,-1,874,1058,0,0
-343,-34,0,0,0,0,0,0,0,0,0,-1,881,1058,0,0
-336,-34,0,0,0,0,0,0,0,0,0,-1,888,1058,0,0
-329,-34,0,0,0,0,0,0,0,0,0,-1,895,1058,0,0
-322,-34,0,0,0,0,0,0,0,0,0,-1,902,1058,0,0
-315,-34,0,0,0,0,0,0,0,0,0,-1,909,1058,0,0
-308,-34,0,0,0,0,0,0,0,0,0,-1,916,1058,0,0
-301,-34,0,0,0,0,0,0,0,0,0,-1,923,1058,0,0
-294,-34,0,0,0,0,0,0,0,0,0,-1,930,1058,0,0
-287,-34,0,0,0,0,0,0,0,0,0,-1,937,1058,0,0
-280,-34,0,0,0,0,0,0,0,0,0,-1,944,1058,0,0
-273,-34,0,0,0,0,0,0,0,0,0,-1,951,1058,0,0
-266,-34,0,0,0,0,0,0,0,0,0,-1,958,1058,0,0
-259,-34,0,0,0,0,0,0,0,0,0,-1,965,1058,0,0
-252,-34,0,0,0,0,0,0,0,0,0,-1,972,1058,0,0
-245,-34,0,0,0,0,0,0,0,0,0,-1,979,1058,0,0
-238,-34,0,0,0,0,0,0,0,0,0,-1,986,1058,0,0
-231,-34,0,0,0,0,0,0,0,0,0,-1,993,1058,0,0
-224,-34,0,0,0,0,0,0,0,0,0,-1,1000,1058,0,0
-217,-34,0,0,0,0,0,0,0,0,0,-1,1007,1058,0,0
-210,-34,0,0,0,0,0,0,0,0,0,-1,1014,1058,0,0
-203,-34,0,0,0,0,0,0,0,0,0,-1,1021,1058,0,0
-196,-34,0,0,0,0,0,0,0,0,0,-1,1028,1058,0,0
-189,-34,0,0,0,0,0,0,0,0,0,-1,1035,1058,0,0
-182,-34,0,0,0,0,0,0,0,0,0,-1,1042,1058,0,0
-175,-34,0,0,0,0,0,0,0,0,0,-1,1049,1058,0,0
-168,-34,0,0,0,0,0,0,0,0,0,-1,1056,1058,0,0
-161,-34,0,0,0,0,0,0,0,0,0,-1,1063,1058,0,0
-154,-34,0,0,0,0,0,0,0,0,0,-1,1070,1058,0,0
-147,-34,0,0,0,0,0,0,0,0,0,-1,1077,1058,0,0
-140,-34,0,0,0,0,0,0,0,0,0,-1,1084,1058,0,0
-133,-34,0,0,0,0,0,0,0,0,0,-1,1091,1058,0,0
-126,-34,0,0,0,0,0,0,0,0,0,-1,1098,1058,0,0
-119,-34,0,0,0,0,0,0,0,0,0,-1,1105,1058,0,0
-112,-34,0,0,0,0,0,0,0,0,0,-1,1112,1058,0,0
-105,-34,0,0,0,0,0,0,0,0,0,-1,1119,1058,0,0
-98,-34,0,0,0,0,0,0,0,0,0,-1,1126,1058,0,0
-91,-34,0,0,0,0,0,0,0,0,0,-1,1133,1058,0,0
-84,-34,0,0,0,0,0,0,0,0,0,-1,1140,1058,0,0
-77,-34,0,0,0,0,0,0,0,0,0,-1,1147,1058,0,0
-70,-34,0,0,0,0,0,0,0,0,0,-1,1154,1058,0,0
-63,-34,0,0,0,0,0,0,0,0,0,-1,1161,1058,0,0
-56,-34,0,0,0,0,0,0,0,0,0,-1,1168,1058,0,0
-49,-34,0,0,0,0,0,0,0,0,0,-1,1175,1058,0,0
-42,-34,0,0,0,0,0,0,0,0,0,-1,1182,1058,0,0
-35,-34,0,0,0,0,0,0,0,0,0,-1,1189,1058,0,0
-28,-34,0,0,0,0,0,0,0,0,0,-1,1196,1058,0,0
-21,-34,0,0,0,0,0,0,0,0,0,-1,1203,1058,0,0
-14,-34,0,0,0,0,0,0,0,0,0,-1,1210,1058,0,0
-7,-34,0,0,0,0,0,0,0,0,0,-1,1217,1058,0,0
0,-34,0,0,0,0,0,0,0,0,0,-1,1224,1058,0,0
7,-34,0,0,0,0,0,0,0,0,0,-1,1231,1058,0,0
14,-34,0,0,0,0,0,0,0,0,0,-1,1238,1058,0,0
21,-34,0,0,0,0,0,0,0,0,0,-1,1245,1058,0,0
28,-34,0,0,0,0,0,0,0,0,0,-1,1252,1058,0,0
35,-34,0,0,0,0,0,0,0,0,0,-1,1259,1058,0,0
42,-34,0,0,0,0,0,0,0,0,0,-1,1266,1058,0,0
49,-34,0,0,0,0,0,0,0,0,0,-1,1273,1058,0,0
56,-34,0,0,0,0,0,0,0,0,0,-1,1280,1058,0,0
63,-34,0,0,0,0,0,0,0,0,0,-1,1287,1058,0,0
70,-34,0,0,0,0,0,0,0,0,0,-1,1294,1058,0,0
77,-34,0,0,0,0,0,0,0,0,0,-1,1301,1058,0,0
84,-34,0,0,0,0,0,0,0,0,0,-1,1308,1058,0,0
91,-34,0,0,0,0,0,0,0,0,0,-1,1315,1058,0,0
98,-34,0,0,0,0,0,0,0,0,0,-1,1322,1058,0,0
105,-34,0,0,0,0,0,0,0,0,0,-1,1329,1058,0,0
112,-34,0,0,0,0,0,0,0,0,0,-1,1336,1058,0,0
119,-34,0,0,0,0,0,0,0,0,0,-1,1343,1058,0,0
126,-34,0,0,0,0,0,0,0,0,0,-1,1350,1058,0,0
133,-34,0,0,0,0,0,0,0,0,0,-1,1357,1058,0,0
140,-34,0,0,0,0,0,0,0,0,0,-1,1364,1058,0,0
147,-34,0,0,0,0,0,0,0,0,0,-1,1371,1058,0,0
154,-34,0,0,0,0,0,0,0,0,0,-1,1378,1058,0,0
161,-34,0,0,0,0,0,0,0,0,0,-1,1385,1058,0,0
168,-34,0,0,0,0,0,0,0,0,0,-1,1392,1058,0,0
175,-34,0,0,0,0,0,0,0,0,0,-1,1399,1058,0,0
182,-34,0,0,0,0,0,0,0,0,0,-1,1406,1058,0,0
189,-34,0,0,0,0,0,0,0,0,0,-1,1413,1058,0,0
196,-34,0,0,0,0,0,0,0,0,0,-1,1420,1058,0,0
203,-34,0,0,0,0,0,0,0,0,0,-1,1427,1058,0,0
210,-34,0,0,0,0,0,0,0,0,0,-1,1434,1058,0,0
217,-34,0,0,0,0,0,0,0,0,0,-1,1441,1058,0,0
224,-34,0,0,0,0,0,0,0,0,0,-1,1448,1058,0,0
231,-34,0,0,0,0,0,0,0,0,0,-1,1455,1058,0,0
238,-34,0,0,0,0,0,0,0,0,0,-1,1462,1058,0,0
245,-34,0,0,0,0,0,0,0,0,0,-1,1469,1058,0,0
252,-34,0,0,0,0,0,0,0,0,0,-1,1476,1058,0,0
259,-34,0,0,0,0,0,0,0,0,0,-1,1483,1058,0,0
266,-34,0,0,0,0,0,0,0,0,0,-1,1490,1058,0,0
273,-34,0,0,0,0,0,0,0,0,0,-1,1497,1058,0,0
280,-34,0,0,0,0,0,0,0,0,0,-1,1504,1058,0,0
287,-34,0,0,0,0,0,0,0,0,0,-1,1511,1058,0,0
294,-34,0,0,0,0,0,0,0,0,0,-1,1518,1058,0,0
301,-34,0,0,0,0,0,0,0,0,0,-1,1525,1058,0,0
308,-34,0,0,0,0,0,0,0,0,0,-1,1532,1058,0,0
315,-34,0,0,0,0,0,0,0,0,0,-1,1539,1058,0,0
322,-34,0,0,0,0,0,0,0,0,0,-1,1546,1058,0,0
329,-34,0,0,0,0,0,0,0,0,0,-1,1553,1058,0,0
336,-34,0,0,0,0,0,0,0,0,0,-1,1560,1058,0,0
343,-34,0,0,0,0,0,0,0,0,0,-1,1567,1058,0,0
350,-34,0,0,0,0,0,0,0,0,0,-1,1574,1058,0,0
357,-34,0,0,0,0,0,0,0,0,0,-1,1581,1058,0,0
364,-34,0,0,0,0,0,0,0,0,0,-1,1588,1058,0,0
371,-34,0,0,0,0,0,0,0,0,0,-1,1595,1058,0,0
378,-34,0,0,0,0,0,0,0,0,0,-1,1602,1058,0,0
385,-34,0,0,0,0,0,0,0,0,0,-1,1609,1058,0,0
392,-34,0,0,0,0,0,0,0,0,0,-1,1616,1058,0,0
399,-34,0,0,0,0,0,0,0,0,0,-1,1623,1058,0,0
406,-34,0,0,0,0,0,0,0,0,0,-1,1630,1058,0,0
413,-34,0,0,0,0,0,0,0,0,0,-1,1637,1058,0,0
420,-34,0,0,0,0,0,0,0,0,0,-1,1644,1058,0,0
427,-34,0,0,0,0,0,0,0,0,0,-1,1651,1058,0,0
434,-34,0,0,0,0,0,0,0,0,0,-1,1658,1058,0,0
441,-34,0,0,0,0,0,0,0,0,0,-1,1665,1058,0,0
448,-34,0,0,0,0,0,0,0,0,0,-1,1672,1058,0,0
455,-34,0,0,0,0,0,0,0,0,0,-1,1679,1058,0,0
462,-34,0,0,0,0,0,0,0,0,0,-1,1686,1058,0,0
469,-34,0,0,0,0,0,0,0,0,0,-1,1693,1058,0,0
476,-34,0,0,0,0,0,0,0,0,0,-1,1700,1058,0,0
483,-34,0,0,0,0,0,0,0,0,0,-1,1707,1058,0,0
490,-34,0,0,0,0,0,0,0,0,0,-1,1714,1058,0,0
497,-34,0,0,0,0,0,0,0,0,0,-1,1721,1058,0,0
504,-34,0,0,0,0,0,0,0,0,0,-1,1728,1058,0,0
511,-34,0,0,0,0,0,0,0,0,0,-1,1735,1058,0,0
518,-34,0,0,0,0,0,0,0,0,0,-1,1742,1058,0,0
525,-34,0,0,0,0,0,0,0,0,0,-1,1749,1058,0,0
532,-34,0,0,0,0,0,0,0,0,0,-1,1756,1058,0,0
539,-34,0,0,0,0,0,0,0,0,0,-1,1763,1058,0,0
546,-34,0,0,0,0,0,0,0,0,0,-1,1770,1058,0,0
553,-34,0,0,0,0,0,0,0,0,0,-1,1777,1058,0,0
560,-34,0,0,0,0,0,0,0,0,0,-1,1784,1058,0,0
567,-34,0,0,0,0,0,0,0,0,0,-1,1791,1058,0,0
574,-34,0,0,0,0,0,0,0,0,0,-1,1798,1058,0,0
581,-34,0,0,0,0,0,0,0,0,0,-1,1805,1058,0,0
588,-34,0,0,0,0,0,0,0,0,0,-1,1812,1058,0,0
595,-34,0,0,0,0,0,0,0,0,0,-1,1819,1058,0,0
602,-34,0,0,0,0,0,0,0,0,0,-1,1826,1058,0,0
609,-34,0,0,0,0,0,0,0,0,0,-1,1833,1058,0,0
616,-34,0,0,0,0,0,0,0,0,0,-1,1840,1058,0,0
623,-34,0,0,0,0,0,0,0,0,0,-1,1847,1058,0,0
630,-34,0,0,0,0,0,0,0,0,0,-1,1854,1058,0,0
637,-34,0,0,0,0,0,0,0,0,0,-1,1861,1058,0,0
644,-34,0,0,0,0,0,0,0,0,0,-1,1868,1058,0,0
651,-34,60.3075,2.46008,0.000523251,0.00162377,0.00136531,0.00254554,-0.000398516,0.976955,0.00184427,0.0421156,1875,1058,60.3075,-2.46009
658,-34,60.2495,2.5625,0.000186472,0.00128345,0.000767986,0.0016787,-0.000208778,1.09549,0.00119482,0.0429145,1882,1058,60.2495,-2.56245
665,-34,60.173,2.5813,3.06045e-05,0.000966497,0.000401248,0.00111497,-0.000117869,1.21639,0.000785557,0.0403671,1889,1058,60.173,-2.58134
672,-34,60.1133,2.48254,2.16043e-05,0.000840334,0.000399379,0.00100288,-0.000140943,1.18427,0.000720181,0.0372346,1896,1058,60.1133,-2.4826
679,-34,60.0608,2.29639,0.000110931,0.000779739,0.000578254,0.00111332,-0.00022265,1.04755,0.000826487,0.0401098,1903,1058,60.0607,-2.29643
686,-34,60.236,2.44934,-0.000103181,0.000498152,0.000925453,0.00117055,-0.000775584,0.942463,0.00113129,0.0451135,1910,1058,60.236,-2.44936
693,-34,60.308,2.56909,-0.000397258,0.000162963,0.00133217,0.00124415,-0.00147845,0.889022,0.00157383,0.0418336,1917,1058,60.308,-2.56915
700,-34,60.166,2.68604,-0.000656943,-8.64581e-05,0.00175671,0.00140802,-0.00215142,0.865882,0.00206993,0.0366625,1924,1058,60.166,-2.68599
707,-34,60.15,2.61426,-0.00126714,-3.29897e-05,0.00203463,0.00147608,-0.00277621,0.932632,0.00249302,0.0220802,1931,1058,60.15,-2.61429
714,-34,60.1539,2.65991,-0.00202727,0.000323063,0.00222579,0.00166487,-0.00336907,1.02829,0.00296135,0.0181927,1938,1058,60.1539,-2.65997
721,-34,60.2554,3.14258,0,0,0,0,0,0,0,-1,1945,1058,60.2554,-3.14253
728,-34,59.7148,6.95959,0,0,0,0,0,0,0,-1,1952,1058,59.7149,-6.95963
735,-34,59.5637,6.80334,-0.00509617,0.00296303,0.00249195,0.00367131,-0.00580444,1.29387,0.00551684,0.021882,1959,1058,59.5638,-6.80339
742,-34,59.4863,6.58936,-0.00591822,0.00440532,0.00194763,0.00476053,-0.00627344,1.3904,0.0063904,0.0178442,1966,1058,59.4863,-6.58935
749,-34,59.5092,6.39014,-0.00705741,0.00633674,0.000785505,0.00638265,-0.00710332,1.51242,0.00778983,0.0151571,1973,1058,59.5091,-6.39016
756,-34,59.517,6.15576,-0.00760799,0.00816464,2.38319e-05,0.00816467,-0.00760803,1.56929,0.00910826,0.0121704,1980,1058,59.5169,-6.15576
763,-34,59.4313,5.94226,-0.00744795,0.0104098,-0.00129766,0.0105036,-0.00754176,-1.49864,0.0104652,0.0133978,1987,1058,59.4313,-5.94232
770,-34,59.3125,5.7196,-0.00666836,0.0131672,-0.00352387,0.0137746,-0.00727578,-1.4001,0.012345,0.0187682,1994,1058,59.3126,-5.71954
777,-34,59.1726,5.58264,-0.00439001,0.0158822,-0.00626601,0.0176626,-0.00617042,-1.29395,0.0142833,0.0216501,2001,1058,59.1725,-5.5826
784,-34,59.0115,5.44519,-0.00100989,0.0178882,-0.0089073,0.0214247,-0.00454639,-1.19285,0.0160152,0.0388615,2008,1058,59.0115,-5.44514
791,-34,59.0962,5.33313,0.00397545,0.0188574,-0.0112236,0.0248826,-0.00204978,-1.07812,0.0173122,0.0484833,2015,1058,59.0961,-5.3331
798,-34,59.4636,5.15967,0,0,0,0,0,0,0,-1,2022,1058,59.4636,-5.15968
805,-34,59.6812,5.66711,0,0,0,0,0,0,0,-1,2029,1058,59.6812,-5.66714
812,-34,59.8687,5.89221,0,0,0,0,0,0,0,-1,2036,1058,59.8686,-5.89223
-700,-41,-47.5295,-4.91736,0.104662,0.43904,-0.00236534,0.439057,0.104645,-1.56372,0.264807,0.0445843,524,1065,-47.5295,4.9174
-693,-41,-47.53,-4.14783,0.0969719,0.310701,-0.00332231,0.310753,0.0969202,-1.55526,0.183597,0.0456559,531,1065,-47.53,4.14778
-686,-41,-45.4344,1.89441,0.0848895,0.222151,-0.00300473,0.222217,0.0848238,-1.54892,0.129488,0.0459362,538,1065,-45.4344,-1.89437
-679,-41,-45.8714,-1.7478,0,0,0,0,0,0,0,-1,545,1065,-45.8714,1.74779
-672,-41,-45.4551,-0.906128,0.0578023,0.116495,-0.00160694,0.116539,0.0577583,-1.54344,0.0672846,0.0469848,552,1065,-45.4551,0.906126
-665,-41,-45.1604,0.00817871,0.0453624,0.0848705,-0.000858551,0.0848892,0.0453437,-1.54908,0.0490489,0.0444313,559,1065,-45.1604,-0.00813711
-658,-41,-44.8206,1.12927,0.0344245,0.0618036,-0.000288594,0.0618066,0.0344214,-1.56026,0.0357611,0.0393919,566,1065,-44.8206,-1.12926
-651,-41,-44.6976,2.08557,0,0,0,0,0,0,0,-1,573,1065,-44.6976,-2.08559
-644,-41,-44.8863,2.67969,0.0179144,0.0254681,4.77866e-05,0.0254684,0.0179141,1.56447,0.0151043,0.0168109,580,1065,-44.8863,-2.67971
-637,-41,-44.9573,2.9646,0.0106507,0.013708,-0.000672965,0.0138495,0.0105091,-1.36344,0.00834546,0.0182763,587,1065,-44.9573,-2.96455
-630,-41,-44.9332,3.29529,0.00454613,0.00953806,-0.00132521,0.00986805,0.00421614,-1.32675,0.00571739,0.0163154,594,1065,-44.9332,-3.29532
-623,-41,-44.9016,3.59485,0.00201071,0.00700198,-0.00125569,0.00730008,0.00171261,-1.33771,0.00440818,0.0126992,601,1065,-44.9016,-3.59485
-616,-41,-44.9145,3.94482,0.000704743,0.00464051,-0.00205481,0.00551776,-0.00017251,-1.16729,0.00373734,0.0168727,608,1065,-44.9145,-3.94483
-609,-41,-44.8798,4.24109,0.000473068,0.00195227,-0.00260204,0.00391777,-0.00149244,-0.923866,0.00322651,0.023104,615,1065,-44.8798,-4.24114
-602,-41,-44.9441,4.48682,0.000543076,5.77588e-05,-0.00322653,0.00353606,-0.00293522,-0.747865,0.00374156,0.0143434,622,1065,-44.9441,-4.48685
-595,-41,-45.0775,4.67871,0.000448002,-0.000492358,-0.00347938,0.00348882,-0.00353318,-0.718238,0.00405418,0.0249167,629,1065,-45.0775,-4.67867
-588,-41,-45.3479,2.5105,0,0,0,0,0,0,0,-1,636,1065,-45.3479,-2.51049
-581,-41,-45.5482,0.472046,0,0,0,0,0,0,0,-1,643,1065,-45.5482,-0.472093
-574,-41,-45.5735,0.612061,0.00140147,-0.00073557,-0.00288941,0.0034136,-0.00274771,-0.608294,0.00356415,0.0363862,650,1065,-45.5736,-0.612026
-567,-41,-45.592,0.662231,0.00147636,-0.000115144,-0.00244251,0.00324948,-0.00188826,-0.627923,0.00300078,0.0409079,657,1065,-45.592,-0.662211
-560,-41,-45.6294,0.671753,0.0014928,0.000820686,-0.00186707,0.00305381,-0.000740325,-0.696355,0.00232232,0.0420436,664,1065,-45.6294,-0.671713
-553,-41,-45.6318,0.660522,0.00159559,0.00187723,-0.00124942,0.00299375,0.000479077,-0.841516,0.00185685,0.0428835,671,1065,-45.6318,-0.660464
-546,-41,-45.4955,0.758545,0.00201001,0.00272308,-0.000707581,0.00315887,0.00157422,-1.01877,0.00182378,0.0427984,678,1065,-45.4955,-0.758541
-539,-41,-45.5194,0.589111,0.00283451,0.00273168,-0.000920154,0.00370468,0.0018615,-0.757488,0.00213891,0.0425641,685,1065,-45.5194,-0.589144
-532,-41,-45.4151,0.736084,0.00364327,0.00281695,-0.00100571,0.00431738,0.00214284,-0.5905,0.00249266,0.0386486,692,1065,-45.4151,-0.736119
-525,-41,0,0,0,0,0,0,0,0,0,-1,699,1065,0,0
-518,-41,0,0,0,0,0,0,0,0,0,-1,706,1065,0,0
-511,-41,0,0,0,0,0,0,0,0,0,-1,713,1065,0,0
-504,-41,0,0,0,0,0,0,0,0,0,-1,720,1065,0,0
-497,-41,0,0,0,0,0,0,0,0,0,-1,727,1065,0,0
-490,-41,0,0,0,0,0,0,0,0,0,-1,734,1065,0,0
-483,-41,0,0,0,0,0,0,0,0,0,-1,741,1065,0,0
-476,-41,0,0,0,0,0,0,0,0,0,-1,748,1065,0,0
-469,-41,0,0,0,0,0,0,0,0,0,-1,755,1065,0,0
-462,-41,0,0,0,0,0,0,0,0,0,-1,762,1065,0,0
-455,-41,0,0,0,0,0,0,0,0,0,-1,769,1065,0,0
-448,-41,0,0,0,0,0,0,0,0,0,-1,776,1065,0,0
-441,-41,0,0,0,0,0,0,0,0,0,-1,783,1065,0,0
-434,-41,0,0,0,0,0,0,0,0,0,-1,790,1065,0,0
-427,-41,0,0,0,0,0,0,0,0,0,-1,797,1065,0,0
-420,-41,0,0,0,0,0,0,0,0,0,-1,804,1065,0,0
-413,-41,0,0,0,0,0,0,0,0,0,-1,811,1065,0,0
-406,-41,0,0,0,0,0,0,0,0,0,-1,818,1065,0,0
-399,-41,0,0,0,0,0,0,0,0,0,-1,825,1065,0,0
-392,-41,0,0,0,0,0,0,0,0,0,-1,832,1065,0,0
-385,-41,0,0,0,0,0,0,0,0,0,-1,839,1065,0,0
-378,-41,0,0,0,0,0,0,0,0,0,-1,846,1065,0,0
-371,-41,0,0,0,0,0,0,0,0,0,-1,853,1065,0,0
-364,-41,0,0,0,0,0,0,0,0,0,-1,860,1065,0,0
-357,-41,0,0,0,0,0,0,0,0,0,-1,867,1065,0,0
-350,-41,0,0,0,0,0,0,0,0,0,-1,874,1065,0,0
-343,-41,0,0,0,0,0,0,0,0,0,-1,881,1065,0,0
-336,-41,0,0,0,0,0,0,0,0,0,-1,888,1065,0,0
-329,-41,0,0,0,0,0,0,0,0,0,-1,895,1065,0,0
-322,-41,0,0,0,0,0,0,0,0,0,-1,902,1065,0,0
-315,-41,0,0,0,0,0,0,0,0,0,-1,909,1065,0,0
-308,-41,0,0,0,0,0,0,0,0,0,-1,916,1065,0,0
-301,-41,0,0,0,0,0,0,0,0,0,-1,923,1065,0,0
-294,-41,0,0,0,0,0,0,0,0,0,-1,930,1065,0,0
-287,-41,0,0,0,0,0,0,0,0,0,-1,937,1065,0,0
-280,-41,0,0,0,0,0,0,0,0,0,-1,944,1065,0,0
-273,-41,0,0,0,0,0,0,0,0,0,-1,951,1065,0,0
-266,-41,0,0,0,0,0,0,0,0,0,-1,958,1065,0,0
-259,-41,0,0,0,0,0,0,0,0,0,-1,965,1065,0,0
-252,-41,0,0,0,0,0,0,0,0,0,-1,972,1065,0,0
-245,-41,0,0,0,0,0,0,0,0,0,-1,979,1065,0,0
-238,-41,0,0,0,0,0,0,0,0,0,-1,986,1065,0,0
-231,-41,0,0,0,0,0,0,0,0,0,-1,993,1065,0,0
-224,-41,0,0,0,0,0,0,0,0,0,-1,1000,1065,0,0
-217,-41,0,0,0,0,0,0,0,0,0,-1,1007,1065,0,0
-210,-41,0,0,0,0,0,0,0,0,0,-1,1014,1065,0,0
-203,-41,0,0,0,0,0,0,0,0,0,-1,1021,1065,0,0
-196,-41,0,0,0,0,0,0,0,0,0,-1,1028,1065,0,0
-189,-41,0,0,0,0,0,0,0,0,0,-1,1035,1065,0,0
-182,-41,0,0,0,0,0,0,0,0,0,-1,1042,1065,0,0
-175,-41,0,0,0,0,0,0,0,0,0,-1,1049,1065,0,0
-168,-41,0,0,0,0,0,0,0,0,0,-1,1056,1065,0,0
-161,-41,0,0,0,0,0,0,0,0,0,-1,1063,1065,0,0
-154,-41,0,0,0,0,0,0,0,0,0,-1,1070,1065,0,0
-147,-41,0,0,0,0,0,0,0,0,0,-1,1077,1065,0,0
-140,-41,0,0,0,0,0,0,0,0,0,-1,1084,1065,0,0
-133,-41,0,0,0,0,0,0,0,0,0,-1,1091,1065,0,0
-126,-41,0,0,0,0,0,0,0,0,0,-1,1098,1065,0,0
-119,-41,0,0,0,0,0,0,0,0,0,-1,1105,1065,0,0
-112,-41,0,0,0,0,0,0,0,0,0,-1,1112,1065,0,0
-105,-41,0,0,0,0,0,0,0,0,0,-1,1119,1065,0,0
-98,-41,0,0,0,0,0,0,0,0,0,-1,1126,1065,0,0
-91,-41,0,0,0,0,0,0,0,0,0,-1,1133,1065,0,0
-84,-41,0,0,0,0,0,0,0,0,0,-1,1140,1065,0,0
-77,-41,0,0,0,0,0,0,0,0,0,-1,1147,1065,0,0
-70,-41,0,0,0,0,0,0,0,0,0,-1,1154,1065,0,0
-63,-41,0,0,0,0,0,0,0,0,0,-1,1161,1065,0,0
-56,-41,0,0,0,0,0,0,0,0,0,-1,1168,1065,0,0
-49,-41,0,0,0,0,0,0,0,0,0,-1,1175,1065,0,0
-42,-41,0,0,0,0,0,0,0,0,0,-1,1182,1065,0,0
-35,-41,0,0,0,0,0,0,0,0,0,-1,1189,1065,0,0
-28,-41,0,0,0,0,0,0,0,0,0,-1,1196,1065,0,0
-21,-41,0,0,0,0,0,0,0,0,0,-1,1203,1065,0,0
-14,-41,0,0,0,0,0,0,0,0,0,-1,1210,1065,0,0
-7,-41,0,0,0,0,0,0,0,0,0,-1,1217,1065,0,0
0,-41,0,0,0,0,0,0,0,0,0,-1,1224,1065,0,0
7,-41,0,0,0,0,0,0,0,0,0,-1,1231,1065,0,0
14,-41,0,0,0,0,0,0,0,0,0,-1,1238,1065,0,0
21,-41,0,0,0,0,0,0,0,0,0,-1,1245,1065,0,0
28,-41,0,0,0,0,0,0,0,0,0,-1,1252,1065,0,0
35,-41,0,0,0,0,0,0,0,0,0,-1,1259,1065,0,0
42,-41,0,0,0,0,0,0,0,0,0,-1,1266,1065,0,0
49,-41,0,0,0,0,0,0,0,0,0,-1,1273,1065,0,0
56,-41,0,0,0,0,0,0,0,0,0,-1,1280,1065,0,0
63,-41,0,0,0,0,0,0,0,0,0,-1,1287,1065,0,0
70,-41,0,0,0,0,0,0,0,0,0,-1,1294,1065,0,0
77,-41,0,0,0,0,0,0,0,0,0,-1,1301,1065,0,0
84,-41,0,0,0,0,0,0,0,0,0,-1,1308,1065,0,0
91,-41,0,0,0,0,0,0,0,0,0,-1,1315,1065,0,0
98,-41,0,0,0,0,0,0,0,0,0,-1,1322,1065,0,0
105,-41,0,0,0,0,0,0,0,0,0,-1,1329,1065,0,0
112,-41,0,0,0,0,0,0,0,0,0,-1,1336,1065,0,0
119,-41,0,0,0,0,0,0,0,0,0,-1,1343,1065,0,0
126,-41,0,0,0,0,0,0,0,0,0,-1,1350,1065,0,0
133,-41,0,0,0,0,0,0,0,0,0,-1,1357,1065,0,0
140,-41,0,0,0,0,0,0,0,0,0,-1,1364,1065,0,0
147,-41,0,0,0,0,0,0,0,0,0,-1,1371,1065,0,0
154,-41,0,0,0,0,0,0,0,0,0,-1,1378,1065,0,0
161,-41,0,0,0,0,0,0,0,0,0,-1,1385,1065,0,0
168,-41,0,0,0,0,0,0,0,0,0,-1,1392,1065,0,0
175,-41,0,0,0,0,0,0,0,0,0,-1,1399,1065,0,0
182,-41,0,0,0,0,0,0,0,0,0,-1,1406,1065,0,0
189,-41,0,0,0,0,0,0,0,0,0,-1,1413,1065,0,0
196,-41,0,0,0,0,0,0,0,0,0,-1,1420,1065,0,0
203,-41,0,0,0,0,0,0,0,0,0,-1,1427,1065,0,0
210,-41,0,0,0,0,0,0,0,0,0,-1,1434,1065,0,0
217,-41,0,0,0,0,0,0,0,0,0,-1,1441,1065,0,0
224,-41,0,0,0,0,0,0,0,0,0,-1,1448,1065,0,0
231,-41,0,0,0,0,0,0,0,0,0,-1,1455,1065,0,0
238,-41,0,0,0,0,0,0,0,0,0,-1,1462,1065,0,0
245,-41,0,0,0,0,0,0,0,0,0,-1,1469,1065,0,0
252,-41,0,0,0,0,0,0,0,0,0,-1,1476,1065,0,0
259,-41,0,0,0,0,0,0,0,0,0,-1,1483,1065,0,0
266,-41,0,0,0,0,0,0,0,0,0,-1,1490,1065,0,0
273,-41,0,0,0,0,0,0,0,0,0,-1,1497,1065,0,0
280,-41,0,0,0,0,0,0,0,0,0,-1,1504,1065,0,0
287,-41,0,0,0,0,0,0,0,0,0,-1,1511,1065,0,0
294,-41,0,0,0,0,0,0,0,0,0,-1,1518,1065,0,0
301,-41,0,0,0,0,0,0,0,0,0,-1,1525,1065,0,0
308,-41,0,0,0,0,0,0,0,0,0,-1,1532,1065,0,0
315,-41,0,0,0,0,0,0,0,0,0,-1,1539,1065,0,0
322,-41,0,0,0,0,0,0,0,0,0,-1,1546,1065,0,0
329,-41,0,0,0,0,0,0,0,0,0,-1,1553,1065,0,0
336,-41,0,0,0,0,0,0,0,0,0,-1,1560,1065,0,0
343,-41,0,0,0,0,0,0,0,0,0,-1,1567,1065,0,0
350,-41,0,0,0,0,0,0,0,0,0,-1,1574,1065,0,0
357,-41,0,0,0,0,0,0,0,0,0,-1,1581,1065,0,0
364,-41,0,0,0,0,0,0,0,0,0,-1,1588,1065,0,0
371,-41,0,0,0,0,0,0,0,0,0,-1,1595,1065,0,0
378,-41,0,0,0,0,0,0,0,0,0,-1,1602,1065,0,0
385,-41,0,0,0,0,0,0,0,0,0,-1,1609,1065,0,0
392,-41,0,0,0,0,0,0,0,0,0,-1,1616,1065,0,0
399,-41,0,0,0,0,0,0,0,0,0,-1,1623,1065,0,0
406,-41,0,0,0,0,0,0,0,0,0,-1,1630,1065,0,0
413,-41,0,0,0,0,0,0,0,0,0,-1,1637,1065,0,0
420,-41,0,0,0,0,0,0,0,0,0,-1,1644,1065,0,0
427,-41,0,0,0,0,0,0,0,0,0,-1,1651,1065,0,0
434,-41,0,0,0,0,0,0,0,0,0,-1,1658,1065,0,0
441,-41,0,0,0,0,0,0,0,0,0,-1,1665,1065,0,0
448,-41,0,0,0,0,0,0,0,0,0,-1,1672,1065,0,0
455,-41,0,0,0,0,0,0,0,0,0,-1,1679,1065,0,0
462,-41,0,0,0,0,0,0,0,0,0,-1,1686,1065,0,0
469,-41,0,0,0,0,0,0,0,0,0,-1,1693,1065,0,0
476,-41,0,0,0,0,0,0,0,0,0,-1,1700,1065,0,0
483,-41,0,0,0,0,0,0,0,0,0,-1,1707,1065,0,0
490,-41,0,0,0,0,0,0,0,0,0,-1,1714,1065,0,0
497,-41,0,0,0,0,0,0,0,0,0,-1,1721,1065,0,0
504,-41,0,0,0,0,0,0,0,0,0,-1,1728,1065,0,0
511,-41,0,0,0,0,0,0,0,0,0,-1,1735,1065,0,0
518,-41,0,0,0,0,0,0,0,0,0,-1,1742,1065,0,0
525,-41,0,0,0,0,0,0,0,0,0,-1,1749,1065,0,0
532,-41,0,0,0,0,0,0,0,0,0,-1,1756,1065,0,0
539,-41,0,0,0,0,0,0,0,0,0,-1,1763,1065,0,0
546,-41,0,0,0,0,0,0,0,0,0,-1,1770,1065,0,0
553,-41,0,0,0,0,0,0,0,0,0,-1,1777,1065,0,0
560,-41,0,0,0,0,0,0,0,0,0,-1,1784,1065,0,0
567,-41,0,0,0,0,0,0,0,0,0,-1,1791,1065,0,0
574,-41,0,0,0,0,0,0,0,0,0,-1,1798,1065,0,0
581,-41,0,0,0,0,0,0,0,0,0,-1,1805,1065,0,0
588,-41,0,0,0,0,0,0,0,0,0,-1,1812,1065,0,0
595,-41,0,0,0,0,0,0,0,0,0,-1,1819,1065,0,0
602,-41,0,0,0,0,0,0,0,0,0,-1,1826,1065,0,0
609,-41,0,0,0,0,0,0,0,0,0,-1,1833,1065,0,0
616,-41,0,0,0,0,0,0,0,0,0,-1,1840,1065,0,0
623,-41,0,0,0,0,0,0,0,0,0,-1,1847,1065,0,0
630,-41,0,0,0,0,0,0,0,0,0,-1,1854,1065,0,0
637,-41,0,0,0,0,0,0,0,0,0,-1,1861,1065,0,0
644,-41,0,0,0,0,0,0,0,0,0,-1,1868,1065,0,0
651,-41,60.2424,2.48303,0.00019097,0.00165221,0.00161055,0.00269011,-0.00084693,0.99834,0.00213253,0.0377219,1875,1065,60.2425,-2.48303
658,-41,60.1829,2.42432,-3.46206e-06,0.0012373,0.000994702,0.00178923,-0.000555389,1.06422,0.00141476,0.0432641,1882,1065,60.1828,-2.42427
665,-41,60.3142,2.78259,0,0,0,0,0,0,0,-1,1889,1065,60.3142,-2.78265
672,-41,60.2023,2.52625,-1.75568e-05,0.000683822,0.000471448,0.000920709,-0.000254444,1.10518,0.000713899,0.0422686,1896,1065,60.2023,-2.52628
679,-41,60.1768,2.28906,9.87773e-05,0.000602528,0.000530177,0.000937618,-0.000236313,1.00715,0.000716951,0.0420105,1903,1065,60.1768,-2.28903
686,-41,60.2191,2.5144,-9.23485e-05,0.000321472,0.000788963,0.000930205,-0.000701082,0.913638,0.000944916,0.0436034,1910,1065,60.2191,-2.51441
693,-41,60.2815,2.57983,-0.000338604,2.19651e-05,0.00112841,0.000984404,-0.00130104,0.864613,0.00132372,0.0433678,1917,1065,60.2815,-2.57981
700,-41,60.181,2.68054,-0.000558636,-0.000170091,0.00152536,0.00117332,-0.00190205,0.848738,0.00179211,0.0372404,1924,1065,60.181,-2.68056
707,-41,60.2013,2.56897,-0.00111371,-0.000111974,0.00181144,0.00126657,-0.00249225,0.920279,0.00220828,0.0255119,1931,1065,60.2013,-2.56892
714,-41,60.1854,2.58472,-0.00179454,0.000194961,0.00204248,0.00147205,-0.00307163,1.01201,0.00267693,0.0244109,1938,1065,60.1854,-2.58476
721,-41,60.1782,2.60229,0,0,0,0,0,0,0,-1,1945,1065,60.1782,-2.60229
728,-41,59.4125,7.01074,0,0,0,0,0,0,0,-1,1952,1065,59.4125,-7.01069
735,-41,59.2622,6.79114,-0.00456786,0.00262425,0.00250883,0.00341292,-0.00535654,1.26622,0.00510433,0.0210022,1959,1065,59.2622,-6.79116
742,-41,59.187,6.56299,-0.00538194,0.0039832,0.0020007,0.00439271,-0.00579145,1.3689,0.00589828,0.0173476,1966,1065,59.1871,-6.56297
749,-41,59.2186,6.37769,-0.00643083,0.00572549,0.000808948,0.00577908,-0.00648443,1.50464,0.00708425,0.0156897,1973,1065,59.2186,-6.37771
756,-41,59.233,6.15088,-0.00684819,0.00722767,-2.79836e-05,0.00722773,-0.00684824,-1.56881,0.00812775,0.0153381,1980,1065,59.233,-6.15091
763,-41,59.127,5.86206,-0.00658896,0.00903388,-0.0014822,0.00917325,-0.00672834,-1.47704,0.00921689,0.0134438,1987,1065,59.127,-5.86205
770,-41,59.0188,5.63574,-0.00580763,0.0111668,-0.00396317,0.0120465,-0.00668735,-1.35236,0.0109625,0.0139149,1994,1065,59.0187,-5.63569
777,-41,58.8757,5.39392,-0.00363762,0.0129675,-0.00712487,0.0156056,-0.00627563,-1.21619,0.0130103,0.0167506,2001,1065,58.8757,-5.39394
784,-41,58.7451,5.09363,-0.000395701,0.0139839,-0.0103411,0.019389,-0.00580084,-1.08917,0.0152324,0.0285837,2008,1065,58.7451,-5.09365
791,-41,58.5884,4.44849,0.00440544,0.0138809,-0.0134623,0.0234148,-0.0051285,-0.954592,0.0175707,0.0462298,2015,1065,58.5884,-4.44853
798,-41,58.6042,3.41968,0.0114351,0.0121954,-0.0162487,0.0280683,-0.00443791,-0.797094,0.0203534,0.0486316,2022,1065,58.6042,-3.41973
805,-41,58.6709,2.01611,0,0,0,0,0,0,0,-1,2029,1065,58.6708,-2.01607
812,-41,58.7209,0.72937,0,0,0,0,0,0,0,-1,2036,1065,58.7211,-0.729368
-700,-48,-47.1459,-3.60071,0.110735,0.39671,-0.00636575,0.396851,0.110594,-1.54855,0.236486,0.0445258,524,1072,-47.1459,3.60074
-693,-48,-46.9792,-3.16968,0.10148,0.279301,-0.00822346,0.279681,0.101101,-1.52468,0.163526,0.0426441,531,1072,-46.9792,3.16973
-686,-48,-46.6953,-2.64893,0,0,0,0,0,0,0,-1,538,1072,-46.6952,2.64891
-679,-48,-45.4746,-2.22913,0,0,0,0,0,0,0,-1,545,1072,-45.4746,2.22919
-672,-48,-45.1688,-1.29358,0.0603429,0.104206,-0.00532702,0.104843,0.0597053,-1.45166,0.0607257,0.0461863,552,1072,-45.1688,1.29362
-665,-48,-44.8957,-0.344971,0.0475256,0.0757277,-0.00387983,0.0762517,0.0470016,-1.43655,0.0444198,0.0462409,559,1072,-44.8957,0.344967
-658,-48,-44.6059,0.641113,0.0362349,0.0549985,-0.00261233,0.0553554,0.035878,-1.43501,0.0324237,0.0468635,566,1072,-44.6059,-0.641144
-651,-48,-44.347,1.79578,0.0266802,0.0397111,-0.00165373,0.0399177,0.0264736,-1.44651,0.0234522,0.0401634,573,1072,-44.347,-1.79572
-644,-48,-44.4521,2.63794,0.0192416,0.0222616,-0.00111502,0.0226286,0.0188746,-1.25277,0.0140032,0.0230855,580,1072,-44.4522,-2.63797
-637,-48,-44.4801,2.86255,0.0116278,0.0117798,-0.00131674,0.0130227,0.0103849,-0.81421,0.00794977,0.0246148,587,1072,-44.4801,-2.86256
-630,-48,-44.4847,3.21997,0.00520185,0.00798154,-0.00156428,0.00868421,0.00449918,-1.14861,0.00501493,0.0278787,594,1072,-44.4847,-3.21995
-623,-48,-44.61,3.56104,0.00264758,0.00589075,-0.00125264,0.00631823,0.0022201,-1.24193,0.00370116,0.0131398,601,1072,-44.6101,-3.56107
-616,-48,-44.6101,3.89526,0.00137291,0.00386086,-0.00197025,0.00494698,0.000286789,-1.06698,0.00320667,0.011567,608,1072,-44.6101,-3.89522
-609,-48,-44.5712,4.24475,0.00109507,0.00149832,-0.00247599,0.00378088,-0.00118749,-0.826025,0.00299592,0.0130884,615,1072,-44.5712,-4.24473
-602,-48,-44.595,4.54468,0.00116211,-0.000256816,-0.00312129,0.00365355,-0.00274825,-0.673648,0.00370838,0.0143597,622,1072,-44.595,-4.54473
-595,-48,-44.6069,4.76514,0.00104716,-0.000722288,-0.00339408,0.00366993,-0.00334506,-0.657902,0.00405155,0.0341631,629,1072,-44.6069,-4.76518
-588,-48,-44.7702,4.88879,0,0,0,0,0,0,0,-1,636,1072,-44.7702,-4.88873
-581,-48,-45.4564,0.509521,0,0,0,0,0,0,0,-1,643,1072,-45.4563,-0.50954
-574,-48,-45.522,0.635986,0.00182248,-0.000654073,-0.00282625,0.00366982,-0.00250141,-0.578927,0.00358418,0.0389409,650,1072,-45.5221,-0.636006
-567,-48,-45.5183,0.687134,0.00182882,4.3674e-05,-0.00237981,0.00347794,-0.00160545,-0.605986,0.00300053,0.0408426,657,1072,-45.5183,-0.687169
-560,-48,-45.4865,0.752686,0.00172063,0.00109425,-0.00179746,0.00323198,-0.000417097,-0.699144,0.00230629,0.0422309,664,1072,-45.4865,-0.752668
-553,-48,-45.4376,0.891724,0.00165503,0.00233439,-0.00113941,0.00318367,0.000805748,-0.930265,0.00191134,0.042662,671,1072,-45.4376,-0.891767
-546,-48,-45.4005,0.467407,0.00185823,0.00349451,-0.000505952,0.00363832,0.00171443,-1.29387,0.00210175,0.0415051,678,1072,-45.4004,-0.467435
-539,-48,-45.6237,0.772461,0.00258075,0.00393899,-0.000573691,0.00414887,0.00237087,-1.22008,0.00240349,0.039862,685,1072,-45.6237,-0.772517
-532,-48,-45.5993,0.889404,0.00332349,0.00448303,-0.000574387,0.00471938,0.00308714,-1.18043,0.00276756,0.0376844,692,1072,-45.5993,-0.889423
-525,-48,0,0,0,0,0,0,0,0,0,-1,699,1072,0,0
-518,-48,0,0,0,0,0,0,0,0,0,-1,706,1072,0,0
-511,-48,0,0,0,0,0,0,0,0,0,-1,713,1072,0,0
-504,-48,0,0,0,0,0,0,0,0,0,-1,720,1072,0,0
-497,-48,0,0,0,0,0,0,0,0,0,-1,727,1072,0,0
-490,-48,0,0,0,0,0,0,0,0,0,-1,734,1072,0,0
-483,-48,0,0,0,0,0,0,0,0,0,-1,741,1072,0,0
-476,-48,0,0,0,0,0,0,0,0,0,-1,748,1072,0,0
-469,-48,0,0,0,0,0,0,0,0,0,-1,755,1072,0,0
-462,-48,0,0,0,0,0,0,0,0,0,-1,762,1072,0,0
-455,-48,0,0,0,0,0,0,0,0,0,-1,769,1072,0,0
-448,-48,0,0,0,0,0,0,0,0,0,-1,776,1072,0,0
-441,-48,0,0,0,0,0,0,0,0,0,-1,783,1072,0,0
-434,-48,0,0,0,0,0,0,0,0,0,-1,790,1072,0,0
-427,-48,0,0,0,0,0,0,0,0,0,-1,797,1072,0,0
-420,-48,0,0,0,0,0,0,0,0,0,-1,804,1072,0,0
-413,-48,0,0,0,0,0,0,0,0,0,-1,811,1072,0,0
-406,-48,0,0,0,0,0,0,0,0,0,-1,818,1072,0,0
-399,-48,0,0,0,0,0,0,0,0,0,-1,825,1072,0,0
-392,-48,0,0,0,0,0,0,0,0,0,-1,832,1072,0,0
-385,-48,0,0,0,0,0,0,0,0,0,-1,839,1072,0,0
-378,-48,0,0,0,0,0,0,0,0,0,-1,846,1072,0,0
-371,-48,0,0,0,0,0,0,0,0,0,-1,853,1072,0,0
-364,-48,0,0,0,0,0,0,0,0,0,-1,860,1072,0,0
-357,-48,0,0,0,0,0,0,0,0,0,-1,867,1072,0,0
-350,-48,0,0,0,0,0,0,0,0,0,-1,874,1072,0,0
-343,-48,0,0,0,0,0,0,0,0,0,-1,881,1072,0,0
-336,-48,0,0,0,0,0,0,0,0,0,-1,888,1072,0,0
-329,-48,0,0,0,0,0,0,0,0,0,-1,895,1072,0,0
-322,-48,0,0,0,0,0,0,0,0,0,-1,902,1072,0,0
-315,-48,0,0,0,0,0,0,0,0,0,-1,909,1072,0,0
-308,-48,0,0,0,0,0,0,0,0,0,-1,916,1072,0,0
-301,-48,0,0,0,0,0,0,0,0,0,-1,923,1072,0,0
-294,-48,0,0,0,0,0,0,0,0,0,-1,930,1072,0,0
-287,-48,0,0,0,0,0,0,0,0,0,-1,937,1072,0,0
-280,-48,0,0,0,0,0,0,0,0,0,-1,944,1072,0,0
-273,-48,0,0,0,0,0,0,0,0,0,-1,951,1072,0,0
-266,-48,0,0,0,0,0,0,0,0,0,-1,958,1072,0,0
-259,-48,0,0,0,0,0,0,0,0,0,-1,965,1072,0,0
-252,-48,0,0,0,0,0,0,0,0,0,-1,972,1072,0,0
-245,-48,0,0,0,0,0,0,0,0,0,-1,979,1072,0,0
-238,-48,0,0,0,0,0,0,0,0,0,-1,986,1072,0,0
-231,-48,0,0,0,0,0,0,0,0,0,-1,993,1072,0,0
-224,-48,0,0,0,0,0,0,0,0,0,-1,1000,1072,0,0
-217,-48,0,0,0,0,0,0,0,0,0,-1,1007,1072,0,0
-210,-48,0,0,0,0,0,0,0,0,0,-1,1014,1072,0,0
-203,-48,0,0,0,0,0,0,0,0,0,-1,1021,1072,0,0
-196,-48,0,0,0,0,0,0,0,0,0,-1,1028,1072,0,0
-189,-48,0,0,0,0,0,0,0,0,0,-1,1035,1072,0,0
-182,-48,0,0,0,0,0,0,0,0,0,-1,1042,1072,0,0
-175,-48,0,0,0,0,0,0,0,0,0,-1,1049,1072,0,0
-168,-48,0,0,0,0,0,0,0,0,0,-1,1056,1072,0,0
-161,-48,0,0,0,0,0,0,0,0,0,-1,1063,1072,0,0
-154,-48,0,0,0,0,0,0,0,0,0,-1,1070,1072,0,0
-147,-48,0,0,0,0,0,0,0,0,0,-1,1077,1072,0,0
-140,-48,0,0,0,0,0,0,0,0,0,-1,1084,1072,0,0
-133,-48,0,0,0,0,0,0,0,0,0,-1,1091,1072,0,0
-126,-48,0,0,0,0,0,0,0,0,0,-1,1098,1072,0,0
-119,-48,0,0,0,0,0,0,0,0,0,-1,1105,1072,0,0
-112,-48,0,0,0,0,0,0,0,0,0,-1,1112,1072,0,0
-105,-48,0,0,0,0,0,0,0,0,0,-1,1119,1072,0,0
-98,-48,0,0,0,0,0,0,0,0,0,-1,1126,1072,0,0
-91,-48,0,0,0,0,0,0,0,0,0,-1,1133,1072,0,0
-84,-48,0,0,0,0,0,0,0,0,0,-1,1140,1072,0,0
-77,-48,0,0,0,0,0,0,0,0,0,-1,1147,1072,0,0
-70,-48,0,0,0,0,0,0,0,0,0,-1,1154,1072,0,0
-63,-48,0,0,0,0,0,0,0,0,0,-1,1161,1072,0,0
-56,-48,0,0,0,0,0,0,0,0,0,-1,1168,1072,0,0
-49,-48,0,0,0,0,0,0,0,0,0,-1,1175,1072,0,0
-42,-48,0,0,0,0,0,0,0,0,0,-1,1182,1072,0,0
-35,-48,0,0,0,0,0,0,0,0,0,-1,1189,1072,0,0
-28,-48,0,0,0,0,0,0,0,0,0,-1,1196,1072,0,0
-21,-48,0,0,0,0,0,0,0,0,0,-1,1203,1072,0,0
-14,-48,0,0,0,0,0,0,0,0,0,-1,1210,1072,0,0
-7,-48,0,0,0,0,0,0,0,0,0,-1,1217,1072,0,0
0,-48,0,0,0,0,0,0,0,0,0,-1,1224,1072,0,0
7,-48,0,0,0,0,0,0,0,0,0,-1,1231,1072,0,0
14,-48,0,0,0,0,0,0,0,0,0,-1,1238,1072,0,0
21,-48,0,0,0,0,0,0,0,0,0,-1,1245,1072,0,0
28,-48,0,0,0,0,0,0,0,0,0,-1,1252,1072,0,0
35,-48,0,0,0,0,0,0,0,0,0,-1,1259,1072,0,0
42,-48,0,0,0,0,0,0,0,0,0,-1,1266,1072,0,0
49,-48,0,0,0,0,0,0,0,0,0,-1,1273,1072,0,0
56,-48,0,0,0,0,0,0,0,0,0,-1,1280,1072,0,0
63,-48,0,0,0,0,0,0,0,0,0,-1,1287,1072,0,0
70,-48,0,0,0,0,0,0,0,0,0,-1,1294,1072,0,0
77,-48,0,0,0,0,0,0,0,0,0,-1,1301,1072,0,0
84,-48,0,0,0,0,0,0,0,0,0,-1,1308,1072,0,0
91,-48,0,0,0,0,0,0,0,0,0,-1,1315,1072,0,0
98,-48,0,0,0,0,0,0,0,0,0,-1,1322,1072,0,0
105,-48,0,0,0,0,0,0,0,0,0,-1,1329,1072,0,0
112,-48,0,0,0,0,0,0,0,0,0,-1,1336,1072,0,0
119,-48,0,0,0,0,0,0,0,0,0,-1,1343,1072,0,0
126,-48,0,0,0,0,0,0,0,0,0,-1,1350,1072,0,0
133,-48,0,0,0,0,0,0,0,0,0,-1,1357,1072,0,0
140,-48,0,0,0,0,0,0,0,0,0,-1,1364,1072,0,0
147,-48,0,0,0,0,0,0,0,0,0,-1,1371,1072,0,0
154,-48,0,0,0,0,0,0,0,0,0,-1,1378,1072,0,0
161,-48,0,0,0,0,0,0,0,0,0,-1,1385,1072,0,0
168,-48,0,0,0,0,0,0,0,0,0,-1,1392,1072,0,0
175,-48,0,0,0,0,0,0,0,0,0,-1,1399,1072,0,0
182,-48,0,0,0,0,0,0,0,0,0,-1,1406,1072,0,0
189,-48,0,0,0,0,0,0,0,0,0,-1,1413,1072,0,0
196,-48,0,0,0,0,0,0,0,0,0,-1,1420,1072,0,0
203,-48,0,0,0,0,0,0,0,0,0,-1,1427,1072,0,0
210,-48,0,0,0,0,0,0,0,0,0,-1,1434,1072,0,0
217,-48,0,0,0,0,0,0,0,0,0,-1,1441,1072,0,0
224,-48,0,0,0,0,0,0,0,0,0,-1,1448,1072,0,0
231,-48,0,0,0,0,0,0,0,0,0,-1,1455,1072,0,0
238,-48,0,0,0,0,0,0,0,0,0,-1,1462,1072,0,0
245,-48,0,0,0,0,0,0,0,0,0,-1,1469,1072,0,0
252,-48,0,0,0,0,0,0,0,0,0,-1,1476,1072,0,0
259,-48,0,0,0,0,0,0,0,0,0,-1,1483,1072,0,0
266,-48,0,0,0,0,0,0,0,0,0,-1,1490,1072,0,0
273,-48,0,0,0,0,0,0,0,0,0,-1,1497,1072,0,0
280,-48,0,0,0,0,0,0,0,0,0,-1,1504,1072,0,0
287,-48,0,0,0,0,0,0,0,0,0,-1,1511,1072,0,0
294,-48,0,0,0,0,0,0,0,0,0,-1,1518,1072,0,0
301,-48,0,0,0,0,0,0,0,0,0,-1,1525,1072,0,0
308,-48,0,0,0,0,0,0,0,0,0,-1,1532,1072,0,0
315,-48,0,0,0,0,0,0,0,0,0,-1,1539,1072,0,0
322,-48,0,0,0,0,0,0,0,0,0,-1,1546,1072,0,0
329,-48,0,0,0,0,0,0,0,0,0,-1,1553,1072,0,0
336,-48,0,0,0,0,0,0,0,0,0,-1,1560,1072,0,0
343,-48,0,0,0,0,0,0,0,0,0,-1,1567,1072,0,0
350,-48,0,0,0,0,0,0,0,0,0,-1,1574,1072,0,0
357,-48,0,0,0,0,0,0,0,0,0,-1,1581,1072,0,0
364,-48,0,0,0,0,0,0,0,0,0,-1,1588,1072,0,0
371,-48,0,0,0,0,0,0,0,0,0,-1,1595,1072,0,0
378,-48,0,0,0,0,0,0,0,0,0,-1,1602,1072,0,0
385,-48,0,0,0,0,0,0,0,0,0,-1,1609,1072,0,0
392,-48,0,0,0,0,0,0,0,0,0,-1,1616,1072,0,0
399,-48,0,0,0,0,0,0,0,0,0,-1,1623,1072,0,0
406,-48,0,0,0,0,0,0,0,0,0,-1,1630,1072,0,0
413,-48,0,0,0,0,0,0,0,0,0,-1,1637,1072,0,0
420,-48,0,0,0,0,0,0,0,0,0,-1,1644,1072,0,0
427,-48,0,0,0,0,0,0,0,0,0,-1,1651,1072,0,0
434,-48,0,0,0,0,0,0,0,0,0,-1,1658,1072,0,0
441,-48,0,0,0,0,0,0,0,0,0,-1,1665,1072,0,0
448,-48,0,0,0,0,0,0,0,0,0,-1,1672,1072,0,0
455,-48,0,0,0,0,0,0,0,0,0,-1,1679,1072,0,0
462,-48,0,0,0,0,0,0,0,0,0,-1,1686,1072,0,0
469,-48,0,0,0,0,0,0,0,0,0,-1,1693,1072,0,0
476,-48,0,0,0,0,0,0,0,0,0,-1,1700,1072,0,0
483,-48,0,0,0,0,0,0,0,0,0,-1,1707,1072,0,0
490,-48,0,0,0,0,0,0,0,0,0,-1,1714,1072,0,0
497,-48,0,0,0,0,0,0,0,0,0,-1,1721,1072,0,0
504,-48,0,0,0,0,0,0,0,0,0,-1,1728,1072,0,0
511,-48,0,0,0,0,0,0,0,0,0,-1,1735,1072,0,0
518,-48,0,0,0,0,0,0,0,0,0,-1,1742,1072,0,0
525,-48,0,0,0,0,0,0,0,0,0,-1,1749,1072,0,0
532,-48,0,0,0,0,0,0,0,0,0,-1,1756,1072,0,0
539,-48,0,0,0,0,0,0,0,0,0,-1,1763,1072,0,0
546,-48,0,0,0,0,0,0,0,0,0,-1,1770,1072,0,0
553,-48,0,0,0,0,0,0,0,0,0,-1,1777,1072,0,0
560,-48,0,0,0,0,0,0,0,0,0,-1,1784,1072,0,0
567,-48,0,0,0,0,0,0,0,0,0,-1,1791,1072,0,0
574,-48,0,0,0,0,0,0,0,0,0,-1,1798,1072,0,0
581,-48,0,0,0,0,0,0,0,0,0,-1,1805,1072,0,0
588,-48,0,0,0,0,0,0,0,0,0,-1,1812,1072,0,0
595,-48,0,0,0,0,0,0,0,0,0,-1,1819,1072,0,0
602,-48,0,0,0,0,0,0,0,0,0,-1,1826,1072,0,0
609,-48,0,0,0,0,0,0,0,0,0,-1,1833,1072,0,0
616,-48,0,0,0,0,0,0,0,0,0,-1,1840,1072,0,0
623,-48,0,0,0,0,0,0,0,0,0,-1,1847,1072,0,0
630,-48,0,0,0,0,0,0,0,0,0,-1,1854,1072,0,0
637,-48,0,0,0,0,0,0,0,0,0,-1,1861,1072,0,0
644,-48,0,0,0,0,0,0,0,0,0,-1,1868,1072,0,0
651,-48,60.1392,2.5061,-2.13789e-05,0.00160733,0.00164801,0.0026312,-0.00104526,1.01487,0.00218745,0.0315599,1875,1072,60.1391,-2.50607
658,-48,60.1959,2.55908,-6.57921e-05,0.00126206,0.00106364,0.00185198,-0.000655708,1.06441,0.00150172,0.0393058,1882,1072,60.1959,-2.55913
665,-48,60.1683,2.76685,-7.13505e-05,0.000907024,0.000639944,0.00122334,-0.000387665,1.11173,0.00097093,0.0457662,1889,1072,60.1683,-2.76685
672,-48,60.1267,2.74548,2.76504e-05,0.000749608,0.000476413,0.000986354,-0.000209095,1.1096,0.000737219,0.0410582,1896,1072,60.1266,-2.74551
679,-48,60.0206,2.4906,0.000142045,0.00068266,0.000436157,0.000925479,-0.000100775,1.06281,0.000653174,0.0401639,1903,1072,60.0207,-2.49066
686,-48,60.0554,2.42651,-2.65321e-05,0.000418052,0.000608457,0.000843551,-0.000452031,0.960534,0.000759304,0.0421806,1910,1072,60.0554,-2.42652
693,-48,60.1322,2.63086,-0.000223445,0.000131556,0.000872647,0.000844572,-0.000936461,0.885732,0.00102874,0.0415056,1917,1072,60.1322,-2.63087
700,-48,60.2634,2.7616,-0.000391686,-3.98995e-05,0.00121854,0.00101538,-0.00144696,0.857077,0.00142889,0.033706,1924,1072,60.2634,-2.76156
707,-48,60.2565,2.57422,-0.000874772,7.07338e-06,0.00148946,0.0011195,-0.0019872,0.929303,0.00181683,0.0271753,1931,1072,60.2564,-2.57426
714,-48,60.2194,2.51538,-0.00147089,0.000241172,0.00174497,0.00132877,-0.00255849,1.01344,0.00228144,0.0416874,1938,1072,60.2193,-2.51536
721,-48,60.2074,2.51099,0,0,0,0,0,0,0,-1,1945,1072,60.2074,-2.51095
728,-48,59.0813,7.17883,0,0,0,0,0,0,0,-1,1952,1072,59.0813,-7.17885
735,-48,58.9778,6.93359,-0.00394591,0.00228836,0.00235442,0.00307761,-0.00473516,1.24735,0.00454441,0.0217508,1959,1072,58.9778,-6.93358
742,-48,58.8574,6.64734,-0.00476381,0.00349608,0.00192105,0.00392101,-0.00518874,1.35311,0.00527646,0.0173584,1966,1072,58.8575,-6.64738
749,-48,58.8955,6.36243,-0.00574181,0.00498029,0.000729383,0.00502968,-0.0057912,1.50319,0.00625259,0.0154844,1973,1072,58.8956,-6.36246
756,-48,58.8698,6.10278,-0.00609149,0.0061024,-0.00021441,0.00610617,-0.00609526,-1.55322,0.0070445,0.0133789,1980,1072,58.8697,-6.10279
763,-48,58.792,5.8291,-0.00582681,0.00742838,-0.00181375,0.00767208,-0.00607051,-1.43723,0.00795223,0.012981,1987,1072,58.792,-5.82906
770,-48,58.7603,5.55334,-0.0051558,0.00894063,-0.00452174,0.0102664,-0.00648156,-1.28559,0.00975139,0.0137977,1994,1072,58.7602,-5.5533
777,-48,58.6201,5.25293,-0.00324445,0.00990772,-0.00802709,0.0137085,-0.00704522,-1.12858,0.0121863,0.0128558,2001,1072,58.6202,-5.25295
784,-48,58.4944,4.93884,-0.000283363,0.0099873,-0.01176,0.0176843,-0.00798037,-0.991258,0.0151665,0.0248703,2008,1072,58.4944,-4.9388
791,-48,58.3203,4.38074,0.00417489,0.00882661,-0.0156537,0.0223263,-0.0093248,-0.85915,0.0187807,0.0429847,2015,1072,58.3204,-4.38068
798,-48,58.1782,2.56982,0.0108303,0.00582232,-0.0195742,0.02806,-0.0114075,-0.721783,0.0234529,0.0484853,2022,1072,58.1781,-2.56978
805,-48,58.3867,0.930542,0,0,0,0,0,0,0,-1,2029,1072,58.3868,-0.93051
812,-48,57.689,0.315552,0,0,0,0,0,0,0,-1,2036,1072,57.6889,-0.315584
-700,-55,-46.5319,-2.75867,0.115754,0.345596,-0.00929169,0.345971,0.115379,-1.53046,0.203405,0.0442778,524,1079,-46.5319,2.75869
-693,-55,-46.5345,-2.20947,0.105534,0.241513,-0.011483,0.242476,0.104571,-1.48714,0.140434,0.0468707,531,1079,-46.5345,2.20948
-686,-55,-46.3808,-1.63745,0,0,0,0,0,0,0,-1,538,1079,-46.3808,1.63741
-679,-55,-46.2364,-1.19629,0.0769198,0.123073,-0.00961298,0.124996,0.0749976,-1.37344,0.0726458,0.0474118,545,1079,-46.2364,1.19633
-672,-55,-44.9338,-1.64246,0.0625113,0.0887458,-0.00781929,0.0908996,0.0603575,-1.30202,0.0534136,0.0479994,552,1079,-44.9338,1.6425
-665,-55,-46.3225,0.154419,0,0,0,0,0,0,0,-1,559,1079,-46.3225,-0.154478
-658,-55,-44.4034,0.320679,0,0,0,0,0,0,0,-1,566,1079,-44.4035,-0.320618
-651,-55,-44.2083,1.4541,0.0277037,0.0334384,-0.00283457,0.034603,0.0265391,-1.18097,0.0209057,0.0451121,573,1079,-44.2082,-1.45414
-644,-55,-44.108,2.5271,0.0201386,0.0183827,-0.00192637,0.0213776,0.0171437,-0.57159,0.013071,0.0273428,580,1079,-44.1081,-2.52704
-637,-55,-44.1234,2.7821,0.0122663,0.00961019,-0.00183166,0.0132007,0.00867578,-0.471727,0.007746,0.022308,587,1079,-44.1234,-2.78207
-630,-55,-44.1475,3.17664,0.00566908,0.00635375,-0.00171061,0.00775595,0.00426688,-0.884155,0.0044854,0.0244565,594,1079,-44.1475,-3.17658
-623,-55,-44.3167,3.60278,0.00310304,0.00475781,-0.00119924,0.00538739,0.00247346,-1.08736,0.00311387,0.0188485,601,1079,-44.3167,-3.60277
-616,-55,-44.3462,3.91626,0.00190141,0.00309804,-0.00183311,0.00442801,0.00057145,-0.943144,0.00278116,0.01771,608,1079,-44.3462,-3.91632
-609,-55,-44.2825,4.29395,0.00164172,0.00112249,-0.00229716,0.00369389,-0.000929671,-0.729129,0.00282396,0.0191748,615,1079,-44.2826,-4.294
-602,-55,-44.2155,4.6283,0.00173657,-0.000496486,-0.0029515,0.00377566,-0.00253558,-0.604572,0.00366717,0.0167198,622,1079,-44.2155,-4.62831
-595,-55,-44.0613,4.9989,0.00163029,-0.000916778,-0.00324694,0.00384452,-0.00313101,-0.598505,0.00403434,0.0335645,629,1079,-44.0614,-4.99889
-588,-55,-44.0494,5.42603,0,0,0,0,0,0,0,-1,636,1079,-44.0495,-5.42605
-581,-55,-45.4407,0.632324,0,0,0,0,0,0,0,-1,643,1079,-45.4407,-0.632295
-574,-55,-45.4349,0.734009,0.00226113,-0.00068117,-0.00282834,0.00397805,-0.00239809,-0.545581,0.00371874,0.0393162,650,1079,-45.4349,-0.734034
-567,-55,-45.4126,0.719482,0.00221167,4.92513e-05,-0.00244481,0.00380368,-0.00154276,-0.577204,0.00317744,0.0388436,657,1079,-45.4126,-0.719523
-560,-55,-45.5002,0.914917,0.00199175,0.00115948,-0.00192086,0.00354103,-0.000389798,-0.678726,0.00250077,0.0410049,664,1079,-45.5003,-0.914868
-553,-55,-45.4268,0.929077,0.00174584,0.00252416,-0.00128546,0.00347808,0.00079193,-0.932382,0.002105,0.0417292,671,1079,-45.4268,-0.929079
-546,-55,-45.5233,0.734375,0.00174369,0.00394574,-0.000603386,0.00410023,0.0015892,-1.32013,0.00238713,0.0394349,678,1079,-45.5233,-0.734407
-539,-55,-45.687,0.880249,0.00241745,0.00480695,-0.0004751,0.00489795,0.00232645,-1.38155,0.00282901,0.0379962,685,1079,-45.6869,-0.880288
-532,-55,-45.7184,0.974365,0.00312956,0.00573257,-0.000357963,0.0057809,0.00308123,-1.4366,0.00334003,0.036344,692,1079,-45.7185,-0.974381
-525,-55,0,0,0,0,0,0,0,0,0,-1,699,1079,0,0
-518,-55,0,0,0,0,0,0,0,0,0,-1,706,1079,0,0
-511,-55,0,0,0,0,0,0,0,0,0,-1,713,1079,0,0
-504,-55,0,0,0,0,0,0,0,0,0,-1,720,1079,0,0
-497,-55,0,0,0,0,0,0,0,0,0,-1,727,1079,0,0
-490,-55,0,0,0,0,0,0,0,0,0,-1,734,1079,0,0
-483,-55,0,0,0,0,0,0,0,0,0,-1,741,1079,0,0
-476,-55,0,0,0,0,0,0,0,0,0,-1,748,1079,0,0
-469,-55,0,0,0,0,0,0,0,0,0,-1,755,1079,0,0
-462,-55,0,0,0,0,0,0,0,0,0,-1,762,1079,0,0
-455,-55,0,0,0,0,0,0,0,0,0,-1,769,1079,0,0
-448,-55,0,0,0,0,0,0,0,0,0,-1,776,1079,0,0
-441,-55,0,0,0,0,0,0,0,0,0,-1,783,1079,0,0
-434,-55,0,0,0,0,0,0,0,0,0,-1,790,1079,0,0
-427,-55,0,0,0,0,0,0,0,0,0,-1,797,1079,0,0
-420,-55,0,0,0,0,0,0,0,0,0,-1,804,1079,0,0
-413,-55,0,0,0,0,0,0,0,0,0,-1,811,1079,0,0
-406,-55,0,0,0,0,0,0,0,0,0,-1,818,1079,0,0
-399,-55,0,0,0,0,0,0,0,0,0,-1,825,1079,0,0
-392,-55,0,0,0,0,0,0,0,0,0,-1,832,1079,0,0
-385,-55,0,0,0,0,0,0,0,0,0,-1,839,1079,0,0
-378,-55,0,0,0,0,0,0,0,0,0,-1,846,1079,0,0
-371,-55,0,0,0,0,0,0,0,0,0,-1,853,1079,0,0
-364,-55,0,0,0,0,0,0,0,0,0,-1,860,1079,0,0
-357,-55,0,0,0,0,0,0,0,0,0,-1,867,1079,0,0
-350,-55,0,0,0,0,0,0,0,0,0,-1,874,1079,0,0
-343,-55,0,0,0,0,0,0,0,0,0,-1,881,1079,0,0
-336,-55,0,0,0,0,0,0,0,0,0,-1,888,1079,0,0
-329,-55,0,0,0,0,0,0,0,0,0,-1,895,1079,0,0
-322,-55,0,0,0,0,0,0,0,0,0,-1,902,1079,0,0
-315,-55,0,0,0,0,0,0,0,0,0,-1,909,1079,0,0
-308,-55,0,0,0,0,0,0,0,0,0,-1,916,1079,0,0
-301,-55,0,0,0,0,0,0,0,0,0,-1,923,1079,0,0
-294,-55,0,0,0,0,0,0,0,0,0,-1,930,1079,0,0
-287,-55,0,0,0,0,0,0,0,0,0,-1,937,1079,0,0
-280,-55,0,0,0,0,0,0,0,0,0,-1,944,1079,0,0
-273,-55,0,0,0,0,0,0,0,0,0,-1,951,1079,0,0
-266,-55,0,0,0,0,0,0,0,0,0,-1,958,1079,0,0
-259,-55,0,0,0,0,0,0,0,0,0,-1,965,1079,0,0
-252,-55,0,0,0,0,0,0,0,0,0,-1,972,1079,0,0
-245,-55,0,0,0,0,0,0,0,0,0,-1,979,1079,0,0
-238,-55,0,0,0,0,0,0,0,0,0,-1,986,1079,0,0
-231,-55,0,0,0,0,0,0,0,0,0,-1,993,1079,0,0
-224,-55,0,0,0,0,0,0,0,0,0,-1,1000,1079,0,0
-217,-55,0,0,0,0,0,0,0,0,0,-1,1007,1079,0,0
-210,-55,0,0,0,0,0,0,0,0,0,-1,1014,1079,0,0
-203,-55,0,0,0,0,0,0,0,0,0,-1,1021,1079,0,0
-196,-55,0,0,0,0,0,0,0,0,0,-1,1028,1079,0,0
-189,-55,0,0,0,0,0,0,0,0,0,-1,1035,1079,0,0
-182,-55,0,0,0,0,0,0,0,0,0,-1,1042,1079,0,0
-175,-55,0,0,0,0,0,0,0,0,0,-1,1049,1079,0,0
-168,-55,0,0,0,0,0,0,0,0,0,-1,1056,1079,0,0
-161,-55,0,0,0,0,0,0,0,0,0,-1,1063,1079,0,0
-154,-55,0,0,0,0,0,0,0,0,0,-1,1070,1079,0,0
-147,-55,0,0,0,0,0,0,0,0,0,-1,1077,1079,0,0
-140,-55,0,0,0,0,0,0,0,0,0,-1,1084,1079,0,0
-133,-55,0,0,0,0,0,0,0,0,0,-1,1091,1079,0,0
-126,-55,0,0,0,0,0,0,0,0,0,-1,1098,1079,0,0
-119,-55,0,0,0,0,0,0,0,0,0,-1,1105,1079,0,0
-112,-55,0,0,0,0,0,0,0,0,0,-1,1112,1079,0,0
-105,-55,0,0,0,0,0,0,0,0,0,-1,1119,1079,0,0
-98,-55,0,0,0,0,0,0,0,0,0,-1,1126,1079,0,0
-91,-55,0,0,0,0,0,0,0,0,0,-1,1133,1079,0,0
-84,-55,0,0,0,0,0,0,0,0,0,-1,1140,1079,0,0
-77,-55,0,0,0,0,0,0,0,0,0,-1,1147,1079,0,0
-70,-55,0,0,0,0,0,0,0,0,0,-1,1154,1079,0,0
-63,-55,0,0,0,0,0,0,0,0,0,-1,1161,1079,0,0
-56,-55,0,0,0,0,0,0,0,0,0,-1,1168,1079,0,0
-49,-55,0,0,0,0,0,0,0,0,0,-1,1175,1079,0,0
-42,-55,0,0,0,0,0,0,0,0,0,-1,1182,1079,0,0
-35,-55,0,0,0,0,0,0,0,0,0,-1,1189,1079,0,0
-28,-55,0,0,0,0,0,0,0,0,0,-1,1196,1079,0,0
-21,-55,0,0,0,0,0,0,0,0,0,-1,1203,1079,0,0
-14,-55,0,0,0,0,0,0,0,0,0,-1,1210,1079,0,0
-7,-55,0,0,0,0,0,0,0,0,0,-1,1217,1079,0,0
0,-55,0,0,0,0,0,0,0,0,0,-1,1224,1079,0,0
7,-55,0,0,0,0,0,0,0,0,0,-1,1231,1079,0,0
14,-55,0,0,0,0,0,0,0,0,0,-1,1238,1079,0,0
21,-55,0,0,0,0,0,0,0,0,0,-1,1245,1079,0,0
28,-55,0,0,0,0,0,0,0,0,0,-1,1252,1079,0,0
35,-55,0,0,0,0,0,0,0,0,0,-1,1259,1079,0,0
42,-55,0,0,0,0,0,0,0,0,0,-1,1266,1079,0,0
49,-55,0,0,0,0,0,0,0,0,0,-1,1273,1079,0,0
56,-55,0,0,0,0,0,0,0,0,0,-1,1280,1079,0,0
63,-55,0,0,0,0,0,0,0,0,0,-1,1287,1079,0,0
70,-55,0,0,0,0,0,0,0,0,0,-1,1294,1079,0,0
77,-55,0,0,0,0,0,0,0,0,0,-1,1301,1079,0,0
84,-55,0,0,0,0,0,0,0,0,0,-1,1308,1079,0,0
91,-55,0,0,0,0,0,0,0,0,0,-1,1315,1079,0,0
98,-55,0,0,0,0,0,0,0,0,0,-1,1322,1079,0,0
105,-55,0,0,0,0,0,0,0,0,0,-1,1329,1079,0,0
112,-55,0,0,0,0,0,0,0,0,0,-1,1336,1079,0,0
119,-55,0,0,0,0,0,0,0,0,0,-1,1343,1079,0,0
126,-55,0,0,0,0,0,0,0,0,0,-1,1350,1079,0,0
133,-55,0,0,0,0,0,0,0,0,0,-1,1357,1079,0,0
140,-55,0,0,0,0,0,0,0,0,0,-1,1364,1079,0,0
147,-55,0,0,0,0,0,0,0,0,0,-1,1371,1079,0,0
154,-55,0,0,0,0,0,0,0,0,0,-1,1378,1079,0,0
161,-55,0,0,0,0,0,0,0,0,0,-1,1385,1079,0,0
168,-55,0,0,0,0,0,0,0,0,0,-1,1392,1079,0,0
175,-55,0,0,0,0,0,0,0,0,0,-1,1399,1079,0,0
182,-55,0,0,0,0,0,0,0,0,0,-1,1406,1079,0,0
189,-55,0,0,0,0,0,0,0,0,0,-1,1413,1079,0,0
196,-55,0,0,0,0,0,0,0,0,0,-1,1420,1079,0,0
203,-55,0,0,0,0,0,0,0,0,0,-1,1427,1079,0,0
210,-55,0,0,0,0,0,0,0,0,0,-1,1434,1079,0,0
217,-55,0,0,0,0,0,0,0,0,0,-1,1441,1079,0,0
224,-55,0,0,0,0,0,0,0,0,0,-1,1448,1079,0,0
231,-55,0,0,0,0,0,0,0,0,0,-1,1455,1079,0,0
238,-55,0,0,0,0,0,0,0,0,0,-1,1462,1079,0,0
245,-55,0,0,0,0,0,0,0,0,0,-1,1469,1079,0,0
252,-55,0,0,0,0,0,0,0,0,0,-1,1476,1079,0,0
259,-55,0,0,0,0,0,0,0,0,0,-1,1483,1079,0,0
266,-55,0,0,0,0,0,0,0,0,0,-1,1490,1079,0,0
273,-55,0,0,0,0,0,0,0,0,0,-1,1497,1079,0,0
280,-55,0,0,0,0,0,0,0,0,0,-1,1504,1079,0,0
287,-55,0,0,0,0,0,0,0,0,0,-1,1511,1079,0,0
294,-55,0,0,0,0,0,0,0,0,0,-1,1518,1079,0,0
301,-55,0,0,0,0,0,0,0,0,0,-1,1525,1079,0,0
308,-55,0,0,0,0,0,0,0,0,0,-1,1532,1079,0,0
315,-55,0,0,0,0,0,0,0,0,0,-1,1539,1079,0,0
322,-55,0,0,0,0,0,0,0,0,0,-1,1546,1079,0,0
329,-55,0,0,0,0,0,0,0,0,0,-1,1553,1079,0,0
336,-55,0,0,0,0,0,0,0,0,0,-1,1560,1079,0,0
343,-55,0,0,0,0,0,0,0,0,0,-1,1567,1079,0,0
350,-55,0,0,0,0,0,0,0,0,0,-1,1574,1079,0,0
357,-55,0,0,0,0,0,0,0,0,0,-1,1581,1079,0,0
364,-55,0,0,0,0,0,0,0,0,0,-1,1588,1079,0,0
371,-55,0,0,0,0,0,0,0,0,0,-1,1595,1079,0,0
378,-55,0,0,0,0,0,0,0,0,0,-1,1602,1079,0,0
385,-55,0,0,0,0,0,0,0,0,0,-1,1609,1079,0,0
392,-55,0,0,0,0,0,0,0,0,0,-1,1616,1079,0,0
399,-55,0,0,0,0,0,0,0,0,0,-1,1623,1079,0,0
406,-55,0,0,0,0,0,0,0,0,0,-1,1630,1079,0,0
413,-55,0,0,0,0,0,0,0,0,0,-1,1637,1079,0,0
420,-55,0,0,0,0,0,0,0,0,0,-1,1644,1079,0,0
427,-55,0,0,0,0,0,0,0,0,0,-1,1651,1079,0,0
434,-55,0,0,0,0,0,0,0,0,0,-1,1658,1079,0,0
441,-55,0,0,0,0,0,0,0,0,0,-1,1665,1079,0,0
448,-55,0,0,0,0,0,0,0,0,0,-1,1672,1079,0,0
455,-55,0,0,0,0,0,0,0,0,0,-1,1679,1079,0,0
462,-55,0,0,0,0,0,0,0,0,0,-1,1686,1079,0,0
469,-55,0,0,0,0,0,0,0,0,0,-1,1693,1079,0,0
476,-55,0,0,0,0,0,0,0,0,0,-1,1700,1079,0,0
483,-55,0,0,0,0,0,0,0,0,0,-1,1707,1079,0,0
490,-55,0,0,0,0,0,0,0,0,0,-1,1714,1079,0,0
497,-55,0,0,0,0,0,0,0,0,0,-1,1721,1079,0,0
504,-55,0,0,0,0,0,0,0,0,0,-1,1728,1079,0,0
511,-55,0,0,0,0,0,0,0,0,0,-1,1735,1079,0,0
518,-55,0,0,0,0,0,0,0,0,0,-1,1742,1079,0,0
525,-55,0,0,0,0,0,0,0,0,0,-1,1749,1079,0,0
532,-55,0,0,0,0,0,0,0,0,0,-1,1756,1079,0,0
539,-55,0,0,0,0,0,0,0,0,0,-1,1763,1079,0,0
546,-55,0,0,0,0,0,0,0,0,0,-1,1770,1079,0,0
553,-55,0,0,0,0,0,0,0,0,0,-1,1777,1079,0,0
560,-55,0,0,0,0,0,0,0,0,0,-1,1784,1079,0,0
567,-55,0,0,0,0,0,0,0,0,0,-1,1791,1079,0,0
574,-55,0,0,0,0,0,0,0,0,0,-1,1798,1079,0,0
581,-55,0,0,0,0,0,0,0,0,0,-1,1805,1079,0,0
588,-55,0,0,0,0,0,0,0,0,0,-1,1812,1079,0,0
595,-55,0,0,0,0,0,0,0,0,0,-1,1819,1079,0,0
602,-55,0,0,0,0,0,0,0,0,0,-1,1826,1079,0,0
609,-55,0,0,0,0,0,0,0,0,0,-1,1833,1079,0,0
616,-55,0,0,0,0,0,0,0,0,0,-1,1840,1079,0,0
623,-55,0,0,0,0,0,0,0,0,0,-1,1847,1079,0,0
630,-55,0,0,0,0,0,0,0,0,0,-1,1854,1079,0,0
637,-55,0,0,0,0,0,0,0,0,0,-1,1861,1079,0,0
644,-55,0,0,0,0,0,0,0,0,0,-1,1868,1079,0,0
651,-55,60.1563,2.56689,0.000401916,0.00155326,0.00145597,0.00254324,-0.000588061,0.973659,0.00192174,0.0330997,1875,1079,60.1562,-2.5669
658,-55,60.3578,2.71655,0.000313787,0.00131757,0.000954594,0.00189417,-0.000262814,1.02742,0.00135888,0.035083,1882,1079,60.3578,-2.71655
665,-55,60.2181,2.74316,0.000245433,0.00103886,0.000582242,0.0013467,-6.24005e-05,1.08445,0.000919305,0.0394007,1889,1079,60.2182,-2.74315
672,-55,60.1187,2.69531,0.00028015,0.000924153,0.000396857,0.00111321,9.10932e-05,1.12622,0.000713716,0.0374941,1896,1079,60.1187,-2.69534
679,-55,60.0914,2.62012,0.000303752,0.000893293,0.000298021,0.0010177,0.000179349,1.17536,0.000627286,0.0390959,1903,1079,60.0915,-2.62009
686,-55,60.1781,2.41382,0.000116361,0.000642389,0.000424554,0.000878798,-0.000120047,1.06272,0.000629707,0.0418423,1910,1079,60.1781,-2.41386
693,-55,60.249,2.57458,-5.8698e-05,0.000355566,0.000641806,0.000822836,-0.000525968,0.941488,0.000784995,0.0383893,1917,1079,60.249,-2.57456
700,-55,60.2762,2.72925,-0.000196079,0.000187346,0.0009484,0.000963216,-0.000971949,0.885126,0.00111727,0.0323443,1924,1079,60.2763,-2.72922
707,-55,60.26,2.59082,-0.000606188,0.000213422,0.00122026,0.00109085,-0.00148362,0.947398,0.00149213,0.0258332,1931,1079,60.26,-2.5908
714,-55,60.1445,2.42249,0,0,0,0,0,0,0,-1,1938,1079,60.1445,-2.42252
721,-55,59.0815,2.79382,0,0,0,0,0,0,0,-1,1945,1079,59.0815,-2.79382
728,-55,58.6879,7.32751,0,0,0,0,0,0,0,-1,1952,1079,58.6878,-7.3275
735,-55,58.614,7.00757,-0.00331976,0.00202924,0.00225738,0.00285456,-0.00414507,1.22028,0.00406407,0.0206797,1959,1079,58.614,-7.00762
742,-55,58.6213,6.69604,-0.00409918,0.00303562,0.00191767,0.00351838,-0.00458194,1.32418,0.00469014,0.0210295,1966,1079,58.6213,-6.6961
749,-55,58.6206,6.37805,-0.0049616,0.00420707,0.000797657,0.00427595,-0.00503048,1.48466,0.00537895,0.0145001,1973,1079,58.6207,-6.37806
756,-55,58.5061,6.08679,-0.00526201,0.00494197,-0.000193554,0.00494564,-0.00526568,-1.55184,0.00589647,0.0118257,1980,1079,58.5061,-6.0868
763,-55,58.4554,5.81067,-0.00500358,0.00578684,-0.00188881,0.00610791,-0.00532465,-1.40242,0.00660575,0.0144112,1987,1079,58.4554,-5.81073
770,-55,58.4146,5.48389,-0.00439354,0.00664684,-0.00477032,0.00842243,-0.00616914,-1.21447,0.00845786,0.0166559,1994,1079,58.4145,-5.48384
777,-55,58.3015,5.17896,-0.00265453,0.00676877,-0.00853665,0.0118077,-0.00769347,-1.03756,0.0113422,0.0139846,2001,1079,58.3016,-5.179
784,-55,58.2141,4.8894,8.33862e-05,0.00586453,-0.012664,0.0159637,-0.0100158,-0.897601,0.0151297,0.0290378,2008,1079,58.2141,-4.88937
791,-55,58,3.03149,0.00420291,0.00354733,-0.01715,0.0210283,-0.013278,-0.775843,0.0199745,0.0442512,2015,1079,58,-3.03145
798,-55,57.821,1.82434,0.0103996,-0.000912918,-0.0219655,0.0274255,-0.0179388,-0.659382,0.0263813,0.048361,2022,1079,57.821,-1.82428
805,-55,57.5679,0.678345,0.0193667,-0.00803087,-0.0266827,0.0356616,-0.0243258,-0.548245,0.0348393,0.0453697,2029,1079,57.5679,-0.6783
812,-55,57.3284,-0.22522,0.0314088,-0.0186399,-0.0306232,0.0459319,-0.033163,-0.442837,0.0458633,0.0438584,2036,1079,57.3283,0.225189
-700,-62,-46.4936,-2.63147,0,0,0,0,0,0,0,-1,524,1086,-46.4936,2.63145
-693,-62,-47.8457,-0.203735,0,0,0,0,0,0,0,-1,531,1086,-47.8457,0.2037
-686,-62,-46.8115,2.22498,0,0,0,0,0,0,0,-1,538,1086,-46.8115,-2.22501
-679,-62,-45.8418,0.163208,0.077265,0.0971201,-0.0172932,0.107133,0.0672524,-1.04597,0.0625225,0.0448868,545,1086,-45.8418,-0.163191
-672,-62,-45.6099,0.653442,0.0629194,0.0696924,-0.0138987,0.0806113,0.0520006,-0.904898,0.0471895,0.0479115,552,1086,-45.6099,-0.653388
-665,-62,-45.2561,0.653687,0.0496498,0.0502626,-0.0106008,0.0605615,0.0393509,-0.799847,0.0354842,0.0471434,559,1086,-45.2561,-0.653703
-658,-62,-43.9873,1.00427,0,0,0,0,0,0,0,-1,566,1086,-43.9873,-1.00433
-651,-62,-43.8323,1.69958,0.0280066,0.0262049,-0.00524853,0.032431,0.0217804,-0.700408,0.019088,0.0467846,573,1086,-43.8323,-1.69963
-644,-62,-43.7401,2.3927,0.0204663,0.0140288,-0.00353987,0.022032,0.0124631,-0.416437,0.0127567,0.0177044,580,1086,-43.7401,-2.39273
-637,-62,-43.792,2.80481,0.0125169,0.00721867,-0.00265919,0.0136213,0.00611423,-0.39365,0.00787795,0.0151407,587,1086,-43.792,-2.80483
-630,-62,-43.8581,3.17822,0.0059215,0.00470489,-0.00190042,0.0073086,0.0033178,-0.630505,0.00422558,0.0159523,594,1086,-43.8581,-3.17821
-623,-62,-43.9288,3.62036,0.0034251,0.0036422,-0.00110936,0.00464831,0.00241899,-0.834167,0.00268445,0.018063,601,1086,-43.9288,-3.62036
-616,-62,-43.9376,4.03149,0.00237901,0.00233917,-0.00162498,0.0039842,0.000733987,-0.77927,0.00244842,0.0189068,608,1086,-43.9376,-4.03145
-609,-62,-43.8849,4.35657,0.00217186,0.000696882,-0.00205337,0.00361617,-0.000747421,-0.612992,0.0026947,0.0195373,615,1086,-43.8849,-4.35655
-602,-62,-43.7728,4.69031,0.00232044,-0.000810298,-0.00272478,0.00389749,-0.00238735,-0.524672,0.00366331,0.0173411,622,1086,-43.7727,-4.69028
-595,-62,-43.6525,5.14551,0.00223602,-0.00128415,-0.00306782,0.0040128,-0.00306093,-0.524961,0.00409633,0.0382214,629,1086,-43.6526,-5.14549
-588,-62,-43.5848,5.64453,0,0,0,0,0,0,0,-1,636,1086,-43.5848,-5.64456
-581,-62,-45.4754,0.804199,0,0,0,0,0,0,0,-1,643,1086,-45.4754,-0.804215
-574,-62,-45.4646,0.721313,0.00281904,-0.00119595,-0.00293067,0.00436385,-0.00274076,-0.485105,0.00413737,0.0354417,650,1086,-45.4646,-0.721292
-567,-62,-45.488,0.549438,0.00273029,-0.00057434,-0.00266787,0.00421607,-0.00206012,-0.508139,0.00369414,0.0373404,657,1086,-45.4881,-0.549412
-560,-62,-45.516,0.61853,0.00242461,0.000424607,-0.00227908,0.00391342,-0.0010642,-0.578658,0.0030267,0.0409839,664,1086,-45.516,-0.618472
-553,-62,-45.4587,0.898315,0,0,0,0,0,0,0,-1,671,1086,-45.4587,-0.898342
-546,-62,-45.4695,0.682129,0.00180511,0.00321868,-0.00123067,0.00393109,0.0010927,-1.04606,0.00234302,0.0326744,678,1086,-45.4695,-0.682128
-539,-62,-45.533,0.869141,0.00250436,0.00433651,-0.00110582,0.00485642,0.00198446,-1.13131,0.00281942,0.0370486,685,1086,-45.5331,-0.86911
-532,-62,-45.5616,0.963379,0.00326186,0.00546421,-0.00110742,0.00592475,0.00280132,-1.17668,0.00342234,0.0397732,692,1086,-45.5616,-0.963325
-525,-62,0,0,0,0,0,0,0,0,0,-1,699,1086,0,0
-518,-62,0,0,0,0,0,0,0,0,0,-1,706,1086,0,0
-511,-62,0,0,0,0,0,0,0,0,0,-1,713,1086,0,0
-504,-62,0,0,0,0,0,0,0,0,0,-1,720,1086,0,0
-497,-62,0,0,0,0,0,0,0,0,0,-1,727,1086,0,0
-490,-62,0,0,0,0,0,0,0,0,0,-1,734,1086,0,0
-483,-62,0,0,0,0,0,0,0,0,0,-1,741,1086,0,0
-476,-62,0,0,0,0,0,0,0,0,0,-1,748,1086,0,0
-469,-62,0,0,0,0,0,0,0,0,0,-1,755,1086,0,0
-462,-62,0,0,0,0,0,0,0,0,0,-1,762,1086,0,0
-455,-62,0,0,0,0,0,0,0,0,0,-1,769,1086,0,0
-448,-62,0,0,0,0,0,0,0,0,0,-1,776,1086,0,0
-441,-62,0,0,0,0,0,0,0,0,0,-1,783,1086,0,0
-434,-62,0,0,0,0,0,0,0,0,0,-1,790,1086,0,0
-427,-62,0,0,0,0,0,0,0,0,0,-1,797,1086,0,0
-420,-62,0,0,0,0,0,0,0,0,0,-1,804,1086,0,0
-413,-62,0,0,0,0,0,0,0,0,0,-1,811,1086,0,0
-406,-62,0,0,0,0,0,0,0,0,0,-1,818,1086,0,0
-399,-62,0,0,0,0,0,0,0,0,0,-1,825,1086,0,0
-392,-62,0,0,0,0,0,0,0,0,0,-1,832,1086,0,0
-385,-62,0,0,0,0,0,0,0,0,0,-1,839,1086,0,0
-378,-62,0,0,0,0,0,0,0,0,0,-1,846,1086,0,0
-371,-62,0,0,0,0,0,0,0,0,0,-1,853,1086,0,0
-364,-62,0,0,0,0,0,0,0,0,0,-1,860,1086,0,0
-357,-62,0,0,0,0,0,0,0,0,0,-1,867,1086,0,0
-350,-62,0,0,0,0,0,0,0,0,0,-1,874,1086,0,0
-343,-62,0,0,0,0,0,0,0,0,0,-1,881,1086,0,0
-336,-62,0,0,0,0,0,0,0,0,0,-1,888,1086,0,0
-329,-62,0,0,0,0,0,0,0,0,0,-1,895,1086,0,0
-322,-62,0,0,0,0,0,0,0,0,0,-1,902,1086,0,0
-315,-62,0,0,0,0,0,0,0,0,0,-1,909,1086,0,0
-308,-62,0,0,0,0,0,0,0,0,0,-1,916,1086,0,0
-301,-62,0,0,0,0,0,0,0,0,0,-1,923,1086,0,0
-294,-62,0,0,0,0,0,0,0,0,0,-1,930,1086,0,0
-287,-62,0,0,0,0,0,0,0,0,0,-1,937,1086,0,0
-280,-62,0,0,0,0,0,0,0,0,0,-1,944,1086,0,0
-273,-62,0,0,0,0,0,0,0,0,0,-1,951,1086,0,0
-266,-62,0,0,0,0,0,0,0,0,0,-1,958,1086,0,0
-259,-62,0,0,0,0,0,0,0,0,0,-1,965,1086,0,0
-252,-62,0,0,0,0,0,0,0,0,0,-1,972,1086,0,0
-245,-62,0,0,0,0,0,0,0,0,0,-1,979,1086,0,0
-238,-62,0,0,0,0,0,0,0,0,0,-1,986,1086,0,0
-231,-62,0,0,0,0,0,0,0,0,0,-1,993,1086,0,0
-224,-62,0,0,0,0,0,0,0,0,0,-1,1000,1086,0,0
-217,-62,0,0,0,0,0,0,0,0,0,-1,1007,1086,0,0
-210,-62,0,0,0,0,0,0,0,0,0,-1,1014,1086,0,0
-203,-62,0,0,0,0,0,0,0,0,0,-1,1021,1086,0,0
-196,-62,0,0,0,0,0,0,0,0,0,-1,1028,1086,0,0
-189,-62,0,0,0,0,0,0,0,0,0,-1,1035,1086,0,0
-182,-62,0,0,0,0,0,0,0,0,0,-1,1042,1086,0,0
-175,-62,0,0,0,0,0,0,0,0,0,-1,1049,1086,0,0
-168,-62,0,0,0,0,0,0,0,0,0,-1,1056,1086,0,0
-161,-62,0,0,0,0,0,0,0,0,0,-1,1063,1086,0,0
-154,-62,0,0,0,0,0,0,0,0,0,-1,1070,1086,0,0
-147,-62,0,0,0,0,0,0,0,0,0,-1,1077,1086,0,0
-140,-62,0,0,0,0,0,0,0,0,0,-1,1084,1086,0,0
-133,-62,0,0,0,0,0,0,0,0,0,-1,1091,1086,0,0
-126,-62,0,0,0,0,0,0,0,0,0,-1,1098,1086,0,0
-119,-62,0,0,0,0,0,0,0,0,0,-1,1105,1086,0,0
-112,-62,0,0,0,0,0,0,0,0,0,-1,1112,1086,0,0
-105,-62,0,0,0,0,0,0,0,0,0,-1,1119,1086,0,0
-98,-62,0,0,0,0,0,0,0,0,0,-1,1126,1086,0,0
-91,-62,0,0,0,0,0,0,0,0,0,-1,1133,1086,0,0
-84,-62,0,0,0,0,0,0,0,0,0,-1,1140,1086,0,0
-77,-62,0,0,0,0,0,0,0,0,0,-1,1147,1086,0,0
-70,-62,0,0,0,0,0,0,0,0,0,-1,1154,1086,0,0
-63,-62,0,0,0,0,0,0,0,0,0,-1,1161,1086,0,0
-56,-62,0,0,0,0,0,0,0,0,0,-1,1168,1086,0,0
-49,-62,0,0,0,0,0,0,0,0,0,-1,1175,1086,0,0
-42,-62,0,0,0,0,0,0,0,0,0,-1,1182,1086,0,0
-35,-62,0,0,0,0,0,0,0,0,0,-1,1189,1086,0,0
-28,-62,0,0,0,0,0,0,0,0,0,-1,1196,1086,0,0
-21,-62,0,0,0,0,0,0,0,0,0,-1,1203,1086,0,0
-14,-62,0,0,0,0,0,0,0,0,0,-1,1210,1086,0,0
-7,-62,0,0,0,0,0,0,0,0,0,-1,1217,1086,0,0
0,-62,0,0,0,0,0,0,0,0,0,-1,1224,1086,0,0
7,-62,0,0,0,0,0,0,0,0,0,-1,1231,1086,0,0
14,-62,0,0,0,0,0,0,0,0,0,-1,1238,1086,0,0
21,-62,0,0,0,0,0,0,0,0,0,-1,1245,1086,0,0
28,-62,0,0,0,0,0,0,0,0,0,-1,1252,1086,0,0
35,-62,0,0,0,0,0,0,0,0,0,-1,1259,1086,0,0
42,-62,0,0,0,0,0,0,0,0,0,-1,1266,1086,0,0
49,-62,0,0,0,0,0,0,0,0,0,-1,1273,1086,0,0
56,-62,0,0,0,0,0,0,0,0,0,-1,1280,1086,0,0
63,-62,0,0,0,0,0,0,0,0,0,-1,1287,1086,0,0
70,-62,0,0,0,0,0,0,0,0,0,-1,1294,1086,0,0
77,-62,0,0,0,0,0,0,0,0,0,-1,1301,1086,0,0
84,-62,0,0,0,0,0,0,0,0,0,-1,1308,1086,0,0
91,-62,0,0,0,0,0,0,0,0,0,-1,1315,1086,0,0
98,-62,0,0,0,0,0,0,0,0,0,-1,1322,1086,0,0
105,-62,0,0,0,0,0,0,0,0,0,-1,1329,1086,0,0
112,-62,0,0,0,0,0,0,0,0,0,-1,1336,1086,0,0
119,-62,0,0,0,0,0,0,0,0,0,-1,1343,1086,0,0
126,-62,0,0,0,0,0,0,0,0,0,-1,1350,1086,0,0
133,-62,0,0,0,0,0,0,0,0,0,-1,1357,1086,0,0
140,-62,0,0,0,0,0,0,0,0,0,-1,1364,1086,0,0
147,-62,0,0,0,0,0,0,0,0,0,-1,1371,1086,0,0
154,-62,0,0,0,0,0,0,0,0,0,-1,1378,1086,0,0
161,-62,0,0,0,0,0,0,0,0,0,-1,1385,1086,0,0
168,-62,0,0,0,0,0,0,0,0,0,-1,1392,1086,0,0
175,-62,0,0,0,0,0,0,0,0,0,-1,1399,1086,0,0
182,-62,0,0,0,0,0,0,0,0,0,-1,1406,1086,0,0
189,-62,0,0,0,0,0,0,0,0,0,-1,1413,1086,0,0
196,-62,0,0,0,0,0,0,0,0,0,-1,1420,1086,0,0
203,-62,0,0,0,0,0,0,0,0,0,-1,1427,1086,0,0
210,-62,0,0,0,0,0,0,0,0,0,-1,1434,1086,0,0
217,-62,0,0,0,0,0,0,0,0,0,-1,1441,1086,0,0
224,-62,0,0,0,0,0,0,0,0,0,-1,1448,1086,0,0
231,-62,0,0,0,0,0,0,0,0,0,-1,1455,1086,0,0
238,-62,0,0,0,0,0,0,0,0,0,-1,1462,1086,0,0
245,-62,0,0,0,0,0,0,0,0,0,-1,1469,1086,0,0
252,-62,0,0,0,0,0,0,0,0,0,-1,1476,1086,0,0
259,-62,0,0,0,0,0,0,0,0,0,-1,1483,1086,0,0
266,-62,0,0,0,0,0,0,0,0,0,-1,1490,1086,0,0
273,-62,0,0,0,0,0,0,0,0,0,-1,1497,1086,0,0
280,-62,0,0,0,0,0,0,0,0,0,-1,1504,1086,0,0
287,-62,0,0,0,0,0,0,0,0,0,-1,1511,1086,0,0
294,-62,0,0,0,0,0,0,0,0,0,-1,1518,1086,0,0
301,-62,0,0,0,0,0,0,0,0,0,-1,1525,1086,0,0
308,-62,0,0,0,0,0,0,0,0,0,-1,1532,1086,0,0
315,-62,0,0,0,0,0,0,0,0,0,-1,1539,1086,0,0
322,-62,0,0,0,0,0,0,0,0,0,-1,1546,1086,0,0
329,-62,0,0,0,0,0,0,0,0,0,-1,1553,1086,0,0
336,-62,0,0,0,0,0,0,0,0,0,-1,1560,1086,0,0
343,-62,0,0,0,0,0,0,0,0,0,-1,1567,1086,0,0
350,-62,0,0,0,0,0,0,0,0,0,-1,1574,1086,0,0
357,-62,0,0,0,0,0,0,0,0,0,-1,1581,1086,0,0
364,-62,0,0,0,0,0,0,0,0,0,-1,1588,1086,0,0
371,-62,0,0,0,0,0,0,0,0,0,-1,1595,1086,0,0
378,-62,0,0,0,0,0,0,0,0,0,-1,1602,1086,0,0
385,-62,0,0,0,0,0,0,0,0,0,-1,1609,1086,0,0
392,-62,0,0,0,0,0,0,0,0,0,-1,1616,1086,0,0
399,-62,0,0,0,0,0,0,0,0,0,-1,1623,1086,0,0
406,-62,0,0,0,0,0,0,0,0,0,-1,1630,1086,0,0
413,-62,0,0,0,0,0,0,0,0,0,-1,1637,1086,0,0
420,-62,0,0,0,0,0,0,0,0,0,-1,1644,1086,0,0
427,-62,0,0,0,0,0,0,0,0,0,-1,1651,1086,0,0
434,-62,0,0,0,0,0,0,0,0,0,-1,1658,1086,0,0
441,-62,0,0,0,0,0,0,0,0,0,-1,1665,1086,0,0
448,-62,0,0,0,0,0,0,0,0,0,-1,1672,1086,0,0
455,-62,0,0,0,0,0,0,0,0,0,-1,1679,1086,0,0
462,-62,0,0,0,0,0,0,0,0,0,-1,1686,1086,0,0
469,-62,0,0,0,0,0,0,0,0,0,-1,1693,1086,0,0
476,-62,0,0,0,0,0,0,0,0,0,-1,1700,1086,0,0
483,-62,0,0,0,0,0,0,0,0,0,-1,1707,1086,0,0
490,-62,0,0,0,0,0,0,0,0,0,-1,1714,1086,0,0
497,-62,0,0,0,0,0,0,0,0,0,-1,1721,1086,0,0
504,-62,0,0,0,0,0,0,0,0,0,-1,1728,1086,0,0
511,-62,0,0,0,0,0,0,0,0,0,-1,1735,1086,0,0
518,-62,0,0,0,0,0,0,0,0,0,-1,1742,1086,0,0
525,-62,0,0,0,0,0,0,0,0,0,-1,1749,1086,0,0
532,-62,0,0,0,0,0,0,0,0,0,-1,1756,1086,0,0
539,-62,0,0,0,0,0,0,0,0,0,-1,1763,1086,0,0
546,-62,0,0,0,0,0,0,0,0,0,-1,1770,1086,0,0
553,-62,0,0,0,0,0,0,0,0,0,-1,1777,1086,0,0
560,-62,0,0,0,0,0,0,0,0,0,-1,1784,1086,0,0
567,-62,0,0,0,0,0,0,0,0,0,-1,1791,1086,0,0
574,-62,0,0,0,0,0,0,0,0,0,-1,1798,1086,0,0
581,-62,0,0,0,0,0,0,0,0,0,-1,1805,1086,0,0
588,-62,0,0,0,0,0,0,0,0,0,-1,1812,1086,0,0
595,-62,0,0,0,0,0,0,0,0,0,-1,1819,1086,0,0
602,-62,0,0,0,0,0,0,0,0,0,-1,1826,1086,0,0
609,-62,0,0,0,0,0,0,0,0,0,-1,1833,1086,0,0
616,-62,0,0,0,0,0,0,0,0,0,-1,1840,1086,0,0
623,-62,0,0,0,0,0,0,0,0,0,-1,1847,1086,0,0
630,-62,0,0,0,0,0,0,0,0,0,-1,1854,1086,0,0
637,-62,0,0,0,0,0,0,0,0,0,-1,1861,1086,0,0
644,-62,0,0,0,0,0,0,0,0,0,-1,1868,1086,0,0
651,-62,60.234,2.44946,0.00145625,0.00143533,0.00108089,0.00252672,0.000364852,0.780561,0.001577,0.0384225,1875,1086,60.234,-2.44948
658,-62,60.3267,2.64832,0.00113361,0.00117073,0.000708013,0.00186042,0.000443912,0.798502,0.00112198,0.0392571,1882,1086,60.3267,-2.64827
665,-62,60.259,2.68018,0.000867606,0.00089151,0.000429111,0.00130884,0.00045028,0.799321,0.000767814,0.0386947,1889,1086,60.2591,-2.68012
672,-62,60.1156,2.64014,0.000729114,0.000773754,0.000268611,0.00102097,0.000481897,0.82685,0.000589766,0.0368785,1896,1086,60.1155,-2.64016
679,-62,60.1853,2.63574,0.000580229,0.000745181,0.000160074,0.000842777,0.000482633,1.02328,0.000488288,0.038106,1903,1086,60.1853,-2.6358
686,-62,60.278,2.45605,0.000337591,0.000499162,0.000278443,0.000708302,0.000128452,0.926588,0.000435741,0.0407796,1910,1086,60.278,-2.45608
693,-62,60.262,2.45215,0.000169095,0.000227706,0.000473446,0.000672753,-0.000275952,0.816308,0.000563479,0.0375999,1917,1086,60.262,-2.4522
700,-62,60.2407,2.54956,5.13119e-05,7.94515e-05,0.000752614,0.000818127,-0.000687363,0.794744,0.000870287,0.0299386,1924,1086,60.2407,-2.54955
707,-62,60.1951,2.55469,-0.000303453,9.71204e-05,0.00102538,0.000941589,-0.00114792,0.881849,0.00120834,0.0221068,1931,1086,60.195,-2.55465
714,-62,60.2115,2.51013,-0.000769245,0.000237202,0.00132892,0.00115498,-0.00168703,0.966391,0.00165039,0.0396659,1938,1086,60.2115,-2.51018
721,-62,60.2526,2.47644,0,0,0,0,0,0,0,-1,1945,1086,60.2526,-2.47648
728,-62,58.3354,7.48865,0,0,0,0,0,0,0,-1,1952,1086,58.3354,-7.4886
735,-62,58.3055,7.01404,-0.00276551,0.00169488,0.00216301,0.00257151,-0.00364215,1.18574,0.00360516,0.0265588,1959,1086,58.3056,-7.014
742,-62,58.2249,6.73792,-0.00352722,0.00253077,0.00192691,0.00309173,-0.00408818,1.28751,0.00415861,0.0285689,1966,1086,58.2248,-6.73797
749,-62,58.1755,6.39478,-0.0042572,0.00338665,0.00095025,0.00350301,-0.00437356,1.44895,0.00455678,0.0219188,1973,1086,58.1756,-6.39479
756,-62,58.1116,6.11768,-0.00456579,0.00377857,-2.82523e-05,0.00377867,-0.00456589,-1.56741,0.00482487,0.015442,1980,1086,58.1116,-6.11771
763,-62,58.0896,5.77063,-0.00435056,0.00412934,-0.00174169,0.00447313,-0.00469435,-1.37591,0.00529336,0.0169322,1987,1086,58.0896,-5.77061
770,-62,58.0417,5.40283,-0.00381551,0.00424947,-0.00465231,0.00637368,-0.00593972,-1.14247,0.00711061,0.0145441,1994,1086,58.0417,-5.40283
777,-62,57.8904,5.03369,-0.00223991,0.00342946,-0.00845355,0.00951094,-0.00832139,-0.947169,0.0103031,0.0156835,2001,1086,57.8904,-5.03373
784,-62,57.7488,4.63086,0.000298664,0.00143446,-0.012708,0.0135872,-0.0118541,-0.807727,0.0146999,0.0282284,2008,1086,57.7487,-4.63086
791,-62,57.5798,4.21802,0.00413802,-0.00216873,-0.0174777,0.0187445,-0.0167753,-0.696147,0.0205179,0.0428106,2015,1086,57.5799,-4.218
798,-62,57.5742,1.1156,0,0,0,0,0,0,0,-1,2022,1086,57.5741,-1.11557
805,-62,55.4038,1.19971,0.0184211,-0.0172878,-0.0283619,0.0340806,-0.0329473,-0.504475,0.0387004,0.0455653,2029,1086,55.4037,-1.19973
812,-62,57.1853,-0.654175,0.0298382,-0.030205,-0.0335594,0.0448447,-0.0452115,-0.420492,0.0519942,0.0456522,2036,1086,57.1854,0.654122
-700,-69,-47.1294,-1.07898,0,0,0,0,0,0,0,-1,524,1093,-47.1294,1.07898
-693,-69,-46.3602,-0.0546875,0.10207,0.144508,-0.0372449,0.166155,0.0804239,-1.04433,0.0959457,0.0498771,531,1093,-46.3602,0.0546377
-686,-69,-45.6732,1.82446,0.0885241,0.100323,-0.0319804,0.126943,0.0619034,-0.876606,0.0732983,0.0469677,538,1093,-45.6732,-1.82445
-679,-69,-44.8694,1.00818,0.0742143,0.0707153,-0.0263567,0.0988795,0.0460501,-0.752258,0.0571328,0.0485584,545,1093,-44.8693,-1.00813
-672,-69,-44.5053,1.11414,0.0603887,0.0503391,-0.0208699,0.0768302,0.0338976,-0.667263,0.0444601,0.0472249,552,1093,-44.5053,-1.11412
-665,-69,-44.1264,1.18359,0.0475893,0.036078,-0.0158624,0.058708,0.0249593,-0.61136,0.0340214,0.0474608,559,1093,-44.1264,-1.18357
-658,-69,-43.604,1.43079,0,0,0,0,0,0,0,-1,566,1093,-43.604,-1.43077
-651,-69,-43.3367,1.82471,0.026748,0.0187106,-0.00799014,0.0316731,0.0137855,-0.552394,0.0183375,0.0382055,573,1093,-43.3367,-1.82469
-644,-69,-43.2878,2.35327,0.019502,0.00943609,-0.00543347,0.0218754,0.00706276,-0.411822,0.0128912,0.0116786,580,1093,-43.2878,-2.35329
-637,-69,-43.346,2.79895,0.0118161,0.00458325,-0.0036751,0.0133558,0.00304363,-0.396722,0.00808262,0.0130304,587,1093,-43.346,-2.79894
-630,-69,-43.3864,3.16919,0.00555377,0.0029525,-0.00220251,0.00681101,0.00169526,-0.518686,0.00409429,0.0157032,594,1093,-43.3863,-3.16913
-623,-69,-43.3691,3.58337,0.00331802,0.00246253,-0.00110106,0.00407151,0.00170904,-0.600129,0.00236076,0.0187776,601,1093,-43.3691,-3.58335
-616,-69,-43.3865,3.97424,0.00261514,0.00155692,-0.00149112,0.00366824,0.000503819,-0.614909,0.00229605,0.0228415,608,1093,-43.3865,-3.97426
-609,-69,-43.3938,4.31543,0.00255703,0.000270181,-0.00185137,0.00358961,-0.000762398,-0.508765,0.00268355,0.0202202,615,1093,-43.3938,-4.31545
-602,-69,-43.3538,4.75037,0.0027964,-0.00107058,-0.00245997,0.00399178,-0.00226596,-0.452331,0.00365842,0.0204608,622,1093,-43.3538,-4.75042
-595,-69,-43.2491,5.1228,0.00273072,-0.00156484,-0.00279967,0.00411155,-0.00294567,-0.458203,0.00409298,0.0415765,629,1093,-43.2491,-5.1228
-588,-69,-43.2461,5.54724,0,0,0,0,0,0,0,-1,636,1093,-43.2461,-5.5473
-581,-69,-45.4485,0.752197,0,0,0,0,0,0,0,-1,643,1093,-45.4486,-0.752168
-574,-69,-45.4869,0.744385,0.00324195,-0.00160333,-0.00286442,0.00457085,-0.00293223,-0.434381,0.00436621,0.031699,650,1093,-45.4869,-0.744363
-567,-69,-45.4742,0.563477,0.00311166,-0.00110624,-0.00270808,0.00443511,-0.00242969,-0.454571,0.00401937,0.0381892,657,1093,-45.4743,-0.563449
-560,-69,-45.4358,0.310669,0.00272838,-0.000239016,-0.00244744,0.00410673,-0.00161737,-0.512906,0.00340739,0.042881,664,1093,-45.4358,-0.310613
-553,-69,-45.3826,0.503418,0.00209973,0.000962062,-0.00212375,0.0037295,-0.000667708,-0.654547,0.0027362,0.0406955,671,1093,-45.3826,-0.503458
-546,-69,-45.4263,0.650635,0.00164645,0.00244384,-0.00175136,0.00384131,0.000248977,-0.897315,0.00248205,0.0356449,678,1093,-45.4264,-0.650586
-539,-69,-45.3296,0.754761,0.00219437,0.00367767,-0.00171932,0.00480848,0.00106356,-0.989022,0.0029165,0.0383861,685,1093,-45.3296,-0.754788
-532,-69,-45.2278,0.806152,0.00285375,0.00484593,-0.00191748,0.00601061,0.00168908,-1.02495,0.00357945,0.042507,692,1093,-45.2279,-0.80613
-525,-69,0,0,0,0,0,0,0,0,0,-1,699,1093,0,0
-518,-69,0,0,0,0,0,0,0,0,0,-1,706,1093,0,0
-511,-69,0,0,0,0,0,0,0,0,0,-1,713,1093,0,0
-504,-69,0,0,0,0,0,0,0,0,0,-1,720,1093,0,0
-497,-69,0,0,0,0,0,0,0,0,0,-1,727,1093,0,0
-490,-69,0,0,0,0,0,0,0,0,0,-1,734,1093,0,0
-483,-69,0,0,0,0,0,0,0,0,0,-1,741,1093,0,0
-476,-69,0,0,0,0,0,0,0,0,0,-1,748,1093,0,0
-469,-69,0,0,0,0,0,0,0,0,0,-1,755,1093,0,0
-462,-69,0,0,0,0,0,0,0,0,0,-1,762,1093,0,0
-455,-69,0,0,0,0,0,0,0,0,0,-1,769,1093,0,0
-448,-69,0,0,0,0,0,0,0,0,0,-1,776,1093,0,0
-441,-69,0,0,0,0,0,0,0,0,0,-1,783,1093,0,0
-434,-69,0,0,0,0,0,0,0,0,0,-1,790,1093,0,0
-427,-69,0,0,0,0,0,0,0,0,0,-1,797,1093,0,0
-420,-69,0,0,0,0,0,0,0,0,0,-1,804,1093,0,0
-413,-69,0,0,0,0,0,0,0,0,0,-1,811,1093,0,0
-406,-69,0,0,0,0,0,0,0,0,0,-1,818,1093,0,0
-399,-69,0,0,0,0,0,0,0,0,0,-1,825,1093,0,0
-392,-69,0,0,0,0,0,0,0,0,0,-1,832,1093,0,0
-385,-69,0,0,0,0,0,0,0,0,0,-1,839,1093,0,0
-378,-69,0,0,0,0,0,0,0,0,0,-1,846,1093,0,0
-371,-69,0,0,0,0,0,0,0,0,0,-1,853,1093,0,0
-364,-69,0,0,0,0,0,0,0,0,0,-1,860,1093,0,0
-357,-69,0,0,0,0,0,0,0,0,0,-1,867,1093,0,0
-350,-69,0,0,0,0,0,0,0,0,0,-1,874,1093,0,0
-343,-69,0,0,0,0,0,0,0,0,0,-1,881,1093,0,0
-336,-69,0,0,0,0,0,0,0,0,0,-1,888,1093,0,0
-329,-69,0,0,0,0,0,0,0,0,0,-1,895,1093,0,0
-322,-69,0,0,0,0,0,0,0,0,0,-1,902,1093,0,0
-315,-69,0,0,0,0,0,0,0,0,0,-1,909,1093,0,0
-308,-69,0,0,0,0,0,0,0,0,0,-1,916,1093,0,0
-301,-69,0,0,0,0,0,0,0,0,0,-1,923,1093,0,0
-294,-69,0,0,0,0,0,0,0,0,0,-1,930,1093,0,0
-287,-69,0,0,0,0,0,0,0,0,0,-1,937,1093,0,0
-280,-69,0,0,0,0,0,0,0,0,0,-1,944,1093,0,0
-273,-69,0,0,0,0,0,0,0,0,0,-1,951,1093,0,0
-266,-69,0,0,0,0,0,0,0,0,0,-1,958,1093,0,0
-259,-69,0,0,0,0,0,0,0,0,0,-1,965,1093,0,0
-252,-69,0,0,0,0,0,0,0,0,0,-1,972,1093,0,0
-245,-69,0,0,0,0,0,0,0,0,0,-1,979,1093,0,0
-238,-69,0,0,0,0,0,0,0,0,0,-1,986,1093,0,0
-231,-69,0,0,0,0,0,0,0,0,0,-1,993,1093,0,0
-224,-69,0,0,0,0,0,0,0,0,0,-1,1000,1093,0,0
-217,-69,0,0,0,0,0,0,0,0,0,-1,1007,1093,0,0
-210,-69,0,0,0,0,0,0,0,0,0,-1,1014,1093,0,0
-203,-69,0,0,0,0,0,0,0,0,0,-1,1021,1093,0,0
-196,-69,0,0,0,0,0,0,0,0,0,-1,1028,1093,0,0
-189,-69,0,0,0,0,0,0,0,0,0,-1,1035,1093,0,0
-182,-69,0,0,0,0,0,0,0,0,0,-1,1042,1093,0,0
-175,-69,0,0,0,0,0,0,0,0,0,-1,1049,1093,0,0
-168,-69,0,0,0,0,0,0,0,0,0,-1,1056,1093,0,0
-161,-69,0,0,0,0,0,0,0,0,0,-1,1063,1093,0,0
-154,-69,0,0,0,0,0,0,0,0,0,-1,1070,1093,0,0
-147,-69,0,0,0,0,0,0,0,0,0,-1,1077,1093,0,0
-140,-69,0,0,0,0,0,0,0,0,0,-1,1084,1093,0,0
-133,-69,0,0,0,0,0,0,0,0,0,-1,1091,1093,0,0
-126,-69,0,0,0,0,0,0,0,0,0,-1,1098,1093,0,0
-119,-69,0,0,0,0,0,0,0,0,0,-1,1105,1093,0,0
-112,-69,0,0,0,0,0,0,0,0,0,-1,1112,1093,0,0
-105,-69,0,0,0,0,0,0,0,0,0,-1,1119,1093,0,0
-98,-69,0,0,0,0,0,0,0,0,0,-1,1126,1093,0,0
-91,-69,0,0,0,0,0,0,0,0,0,-1,1133,1093,0,0
-84,-69,0,0,0,0,0,0,0,0,0,-1,1140,1093,0,0
-77,-69,0,0,0,0,0,0,0,0,0,-1,1147,1093,0,0
-70,-69,0,0,0,0,0,0,0,0,0,-1,1154,1093,0,0
-63,-69,0,0,0,0,0,0,0,0,0,-1,1161,1093,0,0
-56,-69,0,0,0,0,0,0,0,0,0,-1,1168,1093,0,0
-49,-69,0,0,0,0,0,0,0,0,0,-1,1175,1093,0,0
-42,-69,0,0,0,0,0,0,0,0,0,-1,1182,1093,0,0
-35,-69,0,0,0,0,0,0,0,0,0,-1,1189,1093,0,0
-28,-69,0,0,0,0,0,0,0,0,0,-1,1196,1093,0,0
-21,-69,0,0,0,0,0,0,0,0,0,-1,1203,1093,0,0
-14,-69,0,0,0,0,0,0,0,0,0,-1,1210,1093,0,0
-7,-69,0,0,0,0,0,0,0,0,0,-1,1217,1093,0,0
0,-69,0,0,0,0,0,0,0,0,0,-1,1224,1093,0,0
7,-69,0,0,0,0,0,0,0,0,0,-1,1231,1093,0,0
14,-69,0,0,0,0,0,0,0,0,0,-1,1238,1093,0,0
21,-69,0,0,0,0,0,0,0,0,0,-1,1245,1093,0,0
28,-69,0,0,0,0,0,0,0,0,0,-1,1252,1093,0,0
35,-69,0,0,0,0,0,0,0,0,0,-1,1259,1093,0,0
42,-69,0,0,0,0,0,0,0,0,0,-1,1266,1093,0,0
49,-69,0,0,0,0,0,0,0,0,0,-1,1273,1093,0,0
56,-69,0,0,0,0,0,0,0,0,0,-1,1280,1093,0,0
63,-69,0,0,0,0,0,0,0,0,0,-1,1287,1093,0,0
70,-69,0,0,0,0,0,0,0,0,0,-1,1294,1093,0,0
77,-69,0,0,0,0,0,0,0,0,0,-1,1301,1093,0,0
84,-69,0,0,0,0,0,0,0,0,0,-1,1308,1093,0,0
91,-69,0,0,0,0,0,0,0,0,0,-1,1315,1093,0,0
98,-69,0,0,0,0,0,0,0,0,0,-1,1322,1093,0,0
105,-69,0,0,0,0,0,0,0,0,0,-1,1329,1093,0,0
112,-69,0,0,0,0,0,0,0,0,0,-1,1336,1093,0,0
119,-69,0,0,0,0,0,0,0,0,0,-1,1343,1093,0,0
126,-69,0,0,0,0,0,0,0,0,0,-1,1350,1093,0,0
133,-69,0,0,0,0,0,0,0,0,0,-1,1357,1093,0,0
140,-69,0,0,0,0,0,0,0,0,0,-1,1364,1093,0,0
147,-69,0,0,0,0,0,0,0,0,0,-1,1371,1093,0,0
154,-69,0,0,0,0,0,0,0,0,0,-1,1378,1093,0,0
161,-69,0,0,0,0,0,0,0,0,0,-1,1385,1093,0,0
168,-69,0,0,0,0,0,0,0,0,0,-1,1392,1093,0,0
175,-69,0,0,0,0,0,0,0,0,0,-1,1399,1093,0,0
182,-69,0,0,0,0,0,0,0,0,0,-1,1406,1093,0,0
189,-69,0,0,0,0,0,0,0,0,0,-1,1413,1093,0,0
196,-69,0,0,0,0,0,0,0,0,0,-1,1420,1093,0,0
203,-69,0,0,0,0,0,0,0,0,0,-1,1427,1093,0,0
210,-69,0,0,0,0,0,0,0,0,0,-1,1434,1093,0,0
217,-69,0,0,0,0,0,0,0,0,0,-1,1441,1093,0,0
224,-69,0,0,0,0,0,0,0,0,0,-1,1448,1093,0,0
231,-69,0,0,0,0,0,0,0,0,0,-1,1455,1093,0,0
238,-69,0,0,0,0,0,0,0,0,0,-1,1462,1093,0,0
245,-69,0,0,0,0,0,0,0,0,0,-1,1469,1093,0,0
252,-69,0,0,0,0,0,0,0,0,0,-1,1476,1093,0,0
259,-69,0,0,0,0,0,0,0,0,0,-1,1483,1093,0,0
266,-69,0,0,0,0,0,0,0,0,0,-1,1490,1093,0,0
273,-69,0,0,0,0,0,0,0,0,0,-1,1497,1093,0,0
280,-69,0,0,0,0,0,0,0,0,0,-1,1504,1093,0,0
287,-69,0,0,0,0,0,0,0,0,0,-1,1511,1093,0,0
294,-69,0,0,0,0,0,0,0,0,0,-1,1518,1093,0,0
301,-69,0,0,0,0,0,0,0,0,0,-1,1525,1093,0,0
308,-69,0,0,0,0,0,0,0,0,0,-1,1532,1093,0,0
315,-69,0,0,0,0,0,0,0,0,0,-1,1539,1093,0,0
322,-69,0,0,0,0,0,0,0,0,0,-1,1546,1093,0,0
329,-69,0,0,0,0,0,0,0,0,0,-1,1553,1093,0,0
336,-69,0,0,0,0,0,0,0,0,0,-1,1560,1093,0,0
343,-69,0,0,0,0,0,0,0,0,0,-1,1567,1093,0,0
350,-69,0,0,0,0,0,0,0,0,0,-1,1574,1093,0,0
357,-69,0,0,0,0,0,0,0,0,0,-1,1581,1093,0,0
364,-69,0,0,0,0,0,0,0,0,0,-1,1588,1093,0,0
371,-69,0,0,0,0,0,0,0,0,0,-1,1595,1093,0,0
378,-69,0,0,0,0,0,0,0,0,0,-1,1602,1093,0,0
385,-69,0,0,0,0,0,0,0,0,0,-1,1609,1093,0,0
392,-69,0,0,0,0,0,0,0,0,0,-1,1616,1093,0,0
399,-69,0,0,0,0,0,0,0,0,0,-1,1623,1093,0,0
406,-69,0,0,0,0,0,0,0,0,0,-1,1630,1093,0,0
413,-69,0,0,0,0,0,0,0,0,0,-1,1637,1093,0,0
420,-69,0,0,0,0,0,0,0,0,0,-1,1644,1093,0,0
427,-69,0,0,0,0,0,0,0,0,0,-1,1651,1093,0,0
434,-69,0,0,0,0,0,0,0,0,0,-1,1658,1093,0,0
441,-69,0,0,0,0,0,0,0,0,0,-1,1665,1093,0,0
448,-69,0,0,0,0,0,0,0,0,0,-1,1672,1093,0,0
455,-69,0,0,0,0,0,0,0,0,0,-1,1679,1093,0,0
462,-69,0,0,0,0,0,0,0,0,0,-1,1686,1093,0,0
469,-69,0,0,0,0,0,0,0,0,0,-1,1693,1093,0,0
476,-69,0,0,0,0,0,0,0,0,0,-1,1700,1093,0,0
483,-69,0,0,0,0,0,0,0,0,0,-1,1707,1093,0,0
490,-69,0,0,0,0,0,0,0,0,0,-1,1714,1093,0,0
497,-69,0,0,0,0,0,0,0,0,0,-1,1721,1093,0,0
504,-69,0,0,0,0,0,0,0,0,0,-1,1728,1093,0,0
511,-69,0,0,0,0,0,0,0,0,0,-1,1735,1093,0,0
518,-69,0,0,0,0,0,0,0,0,0,-1,1742,1093,0,0
525,-69,0,0,0,0,0,0,0,0,0,-1,1749,1093,0,0
532,-69,0,0,0,0,0,0,0,0,0,-1,1756,1093,0,0
539,-69,0,0,0,0,0,0,0,0,0,-1,1763,1093,0,0
546,-69,0,0,0,0,0,0,0,0,0,-1,1770,1093,0,0
553,-69,0,0,0,0,0,0,0,0,0,-1,1777,1093,0,0
560,-69,0,0,0,0,0,0,0,0,0,-1,1784,1093,0,0
567,-69,0,0,0,0,0,0,0,0,0,-1,1791,1093,0,0
574,-69,0,0,0,0,0,0,0,0,0,-1,1798,1093,0,0
581,-69,0,0,0,0,0,0,0,0,0,-1,1805,1093,0,0
588,-69,0,0,0,0,0,0,0,0,0,-1,1812,1093,0,0
595,-69,0,0,0,0,0,0,0,0,0,-1,1819,1093,0,0
602,-69,0,0,0,0,0,0,0,0,0,-1,1826,1093,0,0
609,-69,0,0,0,0,0,0,0,0,0,-1,1833,1093,0,0
616,-69,0,0,0,0,0,0,0,0,0,-1,1840,1093,0,0
623,-69,0,0,0,0,0,0,0,0,0,-1,1847,1093,0,0
630,-69,0,0,0,0,0,0,0,0,0,-1,1854,1093,0,0
637,-69,0,0,0,0,0,0,0,0,0,-1,1861,1093,0,0
644,-69,0,0,0,0,0,0,0,0,0,-1,1868,1093,0,0
651,-69,60.0878,2.57288,0.00276387,0.00109063,0.000594538,0.00295361,0.000900892,0.308916,0.00174796,0.0406327,1875,1093,60.0877,-2.57292
658,-69,60.101,2.69446,0.002088,0.000764351,0.000431437,0.00221621,0.000636145,0.288851,0.00131765,0.04397,1882,1093,60.101,-2.69448
665,-69,60.1328,2.64673,0.00154708,0.000477093,0.00028157,0.00161665,0.000407521,0.242235,0.000970869,0.0421631,1889,1093,60.1328,-2.64671
672,-69,60.0657,2.6864,0.00117347,0.000344409,0.000167509,0.00120604,0.000311844,0.192015,0.000722858,0.0385123,1896,1093,60.0657,-2.68639
679,-69,60.0897,2.59814,0.000805753,0.000317232,5.1471e-05,0.000811117,0.000311868,0.103842,0.000472446,0.0377142,1903,1093,60.0898,-2.59816
686,-69,60.1812,2.38977,0.000491111,9.79253e-05,0.000154031,0.000544267,4.47695e-05,0.3323,0.00034888,0.0378526,1910,1093,60.1812,-2.38979
693,-69,60.2,2.37219,0.000320356,-0.00013597,0.000312698,0.000479283,-0.000294897,0.470221,0.000451179,0.0349744,1917,1093,60.2,-2.37222
700,-69,60.2057,2.39746,0.000207107,-0.000252477,0.000565538,0.000587756,-0.000633126,0.592425,0.000705039,0.0281987,1924,1093,60.2057,-2.39748
707,-69,60.156,2.49377,-0.00011755,-0.000194897,0.000829255,0.000673933,-0.000986379,0.762097,0.000964223,0.0214479,1931,1093,60.156,-2.49375
714,-69,60.1681,2.41626,-0.000555982,-3.60509e-05,0.00113435,0.000867737,-0.00145977,0.898041,0.0013582,0.0308634,1938,1093,60.1681,-2.41622
721,-69,60.1642,2.26233,0,0,0,0,0,0,0,-1,1945,1093,60.1641,-2.26237
728,-69,57.585,7.65198,0,0,0,0,0,0,0,-1,1952,1093,57.585,-7.65197
735,-69,57.8304,7.20593,-0.00242476,0.00138732,0.00199871,0.00224314,-0.00328057,1.16623,0.00320781,0.0387382,1959,1093,57.8304,-7.20597
742,-69,57.7981,6.86353,-0.00318588,0.00210292,0.00188626,0.00270672,-0.00378968,1.261,0.00376803,0.030397,1966,1093,57.798,-6.86347
749,-69,57.5996,6.44385,-0.00385943,0.00274686,0.00107991,0.00291891,-0.00403148,1.41281,0.00402991,0.0317829,1973,1093,57.5996,-6.44383
756,-69,57.691,6.09497,-0.00424499,0.00289643,0.000171807,0.00290056,-0.00424912,1.54676,0.00415228,0.0173348,1980,1093,57.6911,-6.09494
763,-69,57.6813,5.71741,-0.00415609,0.00283684,-0.00149778,0.00314413,-0.00446339,-1.36844,0.00441416,0.0190532,1987,1093,57.6813,-5.71746
770,-69,57.592,5.39563,-0.00378625,0.00228966,-0.00434357,0.00455226,-0.00604884,-1.09056,0.00614084,0.0207429,1994,1093,57.592,-5.39563
777,-69,57.4634,5.06335,-0.00245754,0.00061536,-0.00805653,0.00728064,-0.00912282,-0.879621,0.00949043,0.0253498,2001,1093,57.4635,-5.06334
784,-69,57.3501,4.43738,-0.000199383,-0.00238399,-0.0122742,0.011031,-0.0136144,-0.741019,0.014255,0.032642,2008,1093,57.3502,-4.43736
791,-69,56.825,3.3894,0.00330715,-0.00722812,-0.0171179,0.0159496,-0.0198706,-0.636133,0.020722,0.0402976,2015,1093,56.825,-3.38935
798,-69,56.3391,2.46106,0.0087298,-0.0147979,-0.0226467,0.0224858,-0.0285538,-0.545855,0.0295371,0.0438372,2022,1093,56.3392,-2.46109
805,-69,55.6729,1.79126,0.0166829,-0.0257436,-0.0286312,0.0311031,-0.0401638,-0.466568,0.0412567,0.0452559,2029,1093,55.6728,-1.79124
812,-69,55.3132,0.870239,0.0275002,-0.040903,-0.0345467,0.0419117,-0.0553144,-0.395209,0.056311,0.047255,2036,1093,55.3132,-0.87026
-700,-76,0,0,0,0,0,0,0,0,0,-1,524,1100,0,0
-693,-76,-44.7328,0.166992,0.0936521,0.0966047,-0.0539268,0.149075,0.0411814,-0.799083,0.0888951,0.0452764,531,1100,-44.7328,-0.166934
-686,-76,-44.3602,1.22437,0.0810981,0.0660927,-0.0448731,0.119091,0.0280994,-0.702566,0.0718824,0.04869,538,1100,-44.3602,-1.22434
-679,-76,-44.0884,1.12866,0,0,0,0,0,0,0,-1,545,1100,-44.0884,-1.12871
-672,-76,-43.5319,1.43408,0.0553917,0.032938,-0.0282159,0.0745322,0.0137974,-0.596055,0.0457873,0.0478995,552,1100,-43.5319,-1.4341
-665,-76,-42.9504,1.71094,0.0436524,0.0236716,-0.0212727,0.0571639,0.0101602,-0.565868,0.0352145,0.0478292,559,1100,-42.9504,-1.71092
-658,-76,-42.7361,1.65198,0,0,0,0,0,0,0,-1,566,1100,-42.7361,-1.65199
-651,-76,-42.7238,1.87109,0.0243644,0.0123738,-0.0107073,0.0306407,0.0060976,-0.530183,0.0187284,0.0322743,573,1100,-42.7238,-1.8711
-644,-76,-42.7511,2.31384,0.0176215,0.00586536,-0.00725178,0.0210783,0.00240854,-0.444822,0.0133221,0.0124096,580,1100,-42.7511,-2.31389
-637,-76,-42.8698,2.7229,0.0104974,0.00264518,-0.00460376,0.0126218,0.000520753,-0.432338,0.00824645,0.0151103,587,1100,-42.8698,-2.72287
-630,-76,-42.9042,3.12451,0.00482532,0.00169322,-0.00242034,0.00614207,0.000376466,-0.498253,0.00397517,0.016033,594,1100,-42.9043,-3.12453
-623,-76,-42.909,3.54614,0.00298892,0.00162895,-0.00102842,0.00354183,0.00107604,-0.493295,0.00209669,0.0203737,601,1100,-42.909,-3.54618
-616,-76,-42.9567,3.98853,0.0027096,0.000983447,-0.00130114,0.00340788,0.000285158,-0.492556,0.00218309,0.0203727,608,1100,-42.9567,-3.98852
-609,-76,-42.9601,4.37195,0.0028593,6.8552e-06,-0.00159168,0.00357026,-0.000704103,-0.420083,0.00264628,0.0204492,615,1100,-42.9601,-4.37195
-602,-76,-42.9019,4.79871,0.00320819,-0.00115067,-0.00207321,0.00403677,-0.00197925,-0.380213,0.00354041,0.0199308,622,1100,-42.9019,-4.79871
-595,-76,-42.8741,5.19983,0.00318016,-0.0016677,-0.00238672,0.00415798,-0.00264551,-0.388832,0.00396022,0.0367369,629,1100,-42.8741,-5.19989
-588,-76,-42.8871,5.62268,0,0,0,0,0,0,0,-1,636,1100,-42.8871,-5.62271
-581,-76,-45.4199,0.568604,0,0,0,0,0,0,0,-1,643,1100,-45.4199,-0.568564
-574,-76,-45.3838,0.543213,0.0036736,-0.00186928,-0.00259356,0.00469788,-0.00289355,-0.376127,0.00442399,0.0340972,650,1100,-45.3838,-0.543263
-567,-76,-45.1799,0.518188,0.00354025,-0.00149022,-0.00252166,0.00458664,-0.00253661,-0.393337,0.004169,0.0398161,657,1100,-45.1799,-0.518241
-560,-76,-45.1456,0.504028,0.00312235,-0.000728698,-0.00235923,0.00424208,-0.00184843,-0.443138,0.00360575,0.0417684,664,1100,-45.1456,-0.503981
-553,-76,-45.3068,0.362427,0.00231479,0.000425814,-0.00215484,0.00372304,-0.000982438,-0.578853,0.00286619,0.0424825,671,1100,-45.3068,-0.362377
-546,-76,-45.3922,0.549561,0.00161959,0.00196842,-0.00189199,0.00369401,-0.000106012,-0.831361,0.00249876,0.0402536,678,1100,-45.3922,-0.549559
-539,-76,-45.2147,0.478394,0.00202465,0.00342182,-0.00183386,0.00468564,0.000760823,-0.967381,0.00290357,0.0406848,685,1100,-45.2147,-0.478436
-532,-76,-44.9572,0.498535,0.0026036,0.00473914,-0.00207953,0.00600901,0.00133373,-1.02258,0.00364372,0.043018,692,1100,-44.9572,-0.498565
-525,-76,0,0,0,0,0,0,0,0,0,-1,699,1100,0,0
-518,-76,0,0,0,0,0,0,0,0,0,-1,706,1100,0,0
-511,-76,0,0,0,0,0,0,0,0,0,-1,713,1100,0,0
-504,-76,0,0,0,0,0,0,0,0,0,-1,720,1100,0,0
-497,-76,0,0,0,0,0,0,0,0,0,-1,727,1100,0,0
-490,-76,0,0,0,0,0,0,0,0,0,-1,734,1100,0,0
-483,-76,0,0,0,0,0,0,0,0,0,-1,741,1100,0,0
-476,-76,0,0,0,0,0,0,0,0,0,-1,748,1100,0,0
-469,-76,0,0,0,0,0,0,0,0,0,-1,755,1100,0,0
-462,-76,0,0,0,0,0,0,0,0,0,-1,762,1100,0,0
-455,-76,0,0,0,0,0,0,0,0,0,-1,769,1100,0,0
-448,-76,0,0,0,0,0,0,0,0,0,-1,776,1100,0,0
-441,-76,0,0,0,0,0,0,0,0,0,-1,783,1100,0,0
-434,-76,0,0,0,0,0,0,0,0,0,-1,790,1100,0,0
-427,-76,0,0,0,0,0,0,0,0,0,-1,797,1100,0,0
-420,-76,0,0,0,0,0,0,0,0,0,-1,804,1100,0,0
-413,-76,0,0,0,0,0,0,0,0,0,-1,811,1100,0,0
-406,-76,0,0,0,0,0,0,0,0,0,-1,818,1100,0,0
-399,-76,0,0,0,0,0,0,0,0,0,-1,825,1100,0,0
-392,-76,0,0,0,0,0,0,0,0,0,-1,832,1100,0,0
-385,-76,0,0,0,0,0,0,0,0,0,-1,839,1100,0,0
-378,-76,0,0,0,0,0,0,0,0,0,-1,846,1100,0,0
-371,-76,0,0,0,0,0,0,0,0,0,-1,853,1100,0,0
-364,-76,0,0,0,0,0,0,0,0,0,-1,860,1100,0,0
-357,-76,0,0,0,0,0,0,0,0,0,-1,867,1100,0,0
-350,-76,0,0,0,0,0,0,0,0,0,-1,874,1100,0,0
-343,-76,0,0,0,0,0,0,0,0,0,-1,881,1100,0,0
-336,-76,0,0,0,0,0,0,0,0,0,-1,888,1100,0,0
-329,-76,0,0,0,0,0,0,0,0,0,-1,895,1100,0,0
-322,-76,0,0,0,0,0,0,0,0,0,-1,902,1100,0,0
-315,-76,0,0,0,0,0,0,0,0,0,-1,909,1100,0,0
-308,-76,0,0,0,0,0,0,0,0,0,-1,916,1100,0,0
-301,-76,0,0,0,0,0,0,0,0,0,-1,923,1100,0,0
-294,-76,0,0,0,0,0,0,0,0,0,-1,930,1100,0,0
-287,-76,0,0,0,0,0,0,0,0,0,-1,937,1100,0,0
-280,-76,0,0,0,0,0,0,0,0,0,-1,944,1100,0,0
-273,-76,0,0,0,0,0,0,0,0,0,-1,951,1100,0,0
-266,-76,0,0,0,0,0,0,0,0,0,-1,958,1100,0,0
-259,-76,0,0,0,0,0,0,0,0,0,-1,965,1100,0,0
-252,-76,0,0,0,0,0,0,0,0,0,-1,972,1100,0,0
-245,-76,0,0,0,0,0,0,0,0,0,-1,979,1100,0,0
-238,-76,0,0,0,0,0,0,0,0,0,-1,986,1100,0,0
-231,-76,0,0,0,0,0,0,0,0,0,-1,993,1100,0,0
-224,-76,0,0,0,0,0,0,0,0,0,-1,1000,1100,0,0
-217,-76,0,0,0,0,0,0,0,0,0,-1,1007,1100,0,0
-210,-76,0,0,0,0,0,0,0,0,0,-1,1014,1100,0,0
-203,-76,0,0,0,0,0,0,0,0,0,-1,1021,1100,0,0
-196,-76,0,0,0,0,0,0,0,0,0,-1,1028,1100,0,0
-189,-76,0,0,0,0,0,0,0,0,0,-1,1035,1100,0,0
-182,-76,0,0,0,0,0,0,0,0,0,-1,1042,1100,0,0
-175,-76,0,0,0,0,0,0,0,0,0,-1,1049,1100,0,0
-168,-76,0,0,0,0,0,0,0,0,0,-1,1056,1100,0,0
-161,-76,0,0,0,0,0,0,0,0,0,-1,1063,1100,0,0
-154,-76,0,0,0,0,0,0,0,0,0,-1,1070,1100,0,0
-147,-76,0,0,0,0,0,0,0,0,0,-1,1077,1100,0,0
-140,-76,0,0,0,0,0,0,0,0,0,-1,1084,1100,0,0
-133,-76,0,0,0,0,0,0,0,0,0,-1,1091,1100,0,0
-126,-76,0,0,0,0,0,0,0,0,0,-1,1098,1100,0,0
-119,-76,0,0,0,0,0,0,0,0,0,-1,1105,1100,0,0
-112,-76,0,0,0,0,0,0,0,0,0,-1,1112,1100,0,0
-105,-76,0,0,0,0,0,0,0,0,0,-1,1119,1100,0,0
-98,-76,0,0,0,0,0,0,0,0,0,-1,1126,1100,0,0
-91,-76,0,0,0,0,0,0,0,0,0,-1,1133,1100,0,0
-84,-76,0,0,0,0,0,0,0,0,0,-1,1140,1100,0,0
-77,-76,0,0,0,0,0,0,0,0,0,-1,1147,1100,0,0
-70,-76,0,0,0,0,0,0,0,0,0,-1,1154,1100,0,0
-63,-76,0,0,0,0,0,0,0,0,0,-1,1161,1100,0,0
-56,-76,0,0,0,0,0,0,0,0,0,-1,1168,1100,0,0
-49,-76,0,0,0,0,0,0,0,0,0,-1,1175,1100,0,0
-42,-76,0,0,0,0,0,0,0,0,0,-1,1182,1100,0,0
-35,-76,0,0,0,0,0,0,0,0,0,-1,1189,1100,0,0
-28,-76,0,0,0,0,0,0,0,0,0,-1,1196,1100,0,0
-21,-76,0,0,0,0,0,0,0,0,0,-1,1203,1100,0,0
-14,-76,0,0,0,0,0,0,0,0,0,-1,1210,1100,0,0
-7,-76,0,0,0,0,0,0,0,0,0,-1,1217,1100,0,0
0,-76,0,0,0,0,0,0,0,0,0,-1,1224,1100,0,0
7,-76,0,0,0,0,0,0,0,0,0,-1,1231,1100,0,0
14,-76,0,0,0,0,0,0,0,0,0,-1,1238,1100,0,0
21,-76,0,0,0,0,0,0,0,0,0,-1,1245,1100,0,0
28,-76,0,0,0,0,0,0,0,0,0,-1,1252,1100,0,0
35,-76,0,0,0,0,0,0,0,0,0,-1,1259,1100,0,0
42,-76,0,0,0,0,0,0,0,0,0,-1,1266,1100,0,0
49,-76,0,0,0,0,0,0,0,0,0,-1,1273,1100,0,0
56,-76,0,0,0,0,0,0,0,0,0,-1,1280,1100,0,0
63,-76,0,0,0,0,0,0,0,0,0,-1,1287,1100,0,0
70,-76,0,0,0,0,0,0,0,0,0,-1,1294,1100,0,0
77,-76,0,0,0,0,0,0,0,0,0,-1,1301,1100,0,0
84,-76,0,0,0,0,0,0,0,0,0,-1,1308,1100,0,0
91,-76,0,0,0,0,0,0,0,0,0,-1,1315,1100,0,0
98,-76,0,0,0,0,0,0,0,0,0,-1,1322,1100,0,0
105,-76,0,0,0,0,0,0,0,0,0,-1,1329,1100,0,0
112,-76,0,0,0,0,0,0,0,0,0,-1,1336,1100,0,0
119,-76,0,0,0,0,0,0,0,0,0,-1,1343,1100,0,0
126,-76,0,0,0,0,0,0,0,0,0,-1,1350,1100,0,0
133,-76,0,0,0,0,0,0,0,0,0,-1,1357,1100,0,0
140,-76,0,0,0,0,0,0,0,0,0,-1,1364,1100,0,0
147,-76,0,0,0,0,0,0,0,0,0,-1,1371,1100,0,0
154,-76,0,0,0,0,0,0,0,0,0,-1,1378,1100,0,0
161,-76,0,0,0,0,0,0,0,0,0,-1,1385,1100,0,0
168,-76,0,0,0,0,0,0,0,0,0,-1,1392,1100,0,0
175,-76,0,0,0,0,0,0,0,0,0,-1,1399,1100,0,0
182,-76,0,0,0,0,0,0,0,0,0,-1,1406,1100,0,0
189,-76,0,0,0,0,0,0,0,0,0,-1,1413,1100,0,0
196,-76,0,0,0,0,0,0,0,0,0,-1,1420,1100,0,0
203,-76,0,0,0,0,0,0,0,0,0,-1,1427,1100,0,0
210,-76,0,0,0,0,0,0,0,0,0,-1,1434,1100,0,0
217,-76,0,0,0,0,0,0,0,0,0,-1,1441,1100,0,0
224,-76,0,0,0,0,0,0,0,0,0,-1,1448,1100,0,0
231,-76,0,0,0,0,0,0,0,0,0,-1,1455,1100,0,0
238,-76,0,0,0,0,0,0,0,0,0,-1,1462,1100,0,0
245,-76,0,0,0,0,0,0,0,0,0,-1,1469,1100,0,0
252,-76,0,0,0,0,0,0,0,0,0,-1,1476,1100,0,0
259,-76,0,0,0,0,0,0,0,0,0,-1,1483,1100,0,0
266,-76,0,0,0,0,0,0,0,0,0,-1,1490,1100,0,0
273,-76,0,0,0,0,0,0,0,0,0,-1,1497,1100,0,0
280,-76,0,0,0,0,0,0,0,0,0,-1,1504,1100,0,0
287,-76,0,0,0,0,0,0,0,0,0,-1,1511,1100,0,0
294,-76,0,0,0,0,0,0,0,0,0,-1,1518,1100,0,0
301,-76,0,0,0,0,0,0,0,0,0,-1,1525,1100,0,0
308,-76,0,0,0,0,0,0,0,0,0,-1,1532,1100,0,0
315,-76,0,0,0,0,0,0,0,0,0,-1,1539,1100,0,0
322,-76,0,0,0,0,0,0,0,0,0,-1,1546,1100,0,0
329,-76,0,0,0,0,0,0,0,0,0,-1,1553,1100,0,0
336,-76,0,0,0,0,0,0,0,0,0,-1,1560,1100,0,0
343,-76,0,0,0,0,0,0,0,0,0,-1,1567,1100,0,0
350,-76,0,0,0,0,0,0,0,0,0,-1,1574,1100,0,0
357,-76,0,0,0,0,0,0,0,0,0,-1,1581,1100,0,0
364,-76,0,0,0,0,0,0,0,0,0,-1,1588,1100,0,0
371,-76,0,0,0,0,0,0,0,0,0,-1,1595,1100,0,0
378,-76,0,0,0,0,0,0,0,0,0,-1,1602,1100,0,0
385,-76,0,0,0,0,0,0,0,0,0,-1,1609,1100,0,0
392,-76,0,0,0,0,0,0,0,0,0,-1,1616,1100,0,0
399,-76,0,0,0,0,0,0,0,0,0,-1,1623,1100,0,0
406,-76,0,0,0,0,0,0,0,0,0,-1,1630,1100,0,0
413,-76,0,0,0,0,0,0,0,0,0,-1,1637,1100,0,0
420,-76,0,0,0,0,0,0,0,0,0,-1,1644,1100,0,0
427,-76,0,0,0,0,0,0,0,0,0,-1,1651,1100,0,0
434,-76,0,0,0,0,0,0,0,0,0,-1,1658,1100,0,0
441,-76,0,0,0,0,0,0,0,0,0,-1,1665,1100,0,0
448,-76,0,0,0,0,0,0,0,0,0,-1,1672,1100,0,0
455,-76,0,0,0,0,0,0,0,0,0,-1,1679,1100,0,0
462,-76,0,0,0,0,0,0,0,0,0,-1,1686,1100,0,0
469,-76,0,0,0,0,0,0,0,0,0,-1,1693,1100,0,0
476,-76,0,0,0,0,0,0,0,0,0,-1,1700,1100,0,0
483,-76,0,0,0,0,0,0,0,0,0,-1,1707,1100,0,0
490,-76,0,0,0,0,0,0,0,0,0,-1,1714,1100,0,0
497,-76,0,0,0,0,0,0,0,0,0,-1,1721,1100,0,0
504,-76,0,0,0,0,0,0,0,0,0,-1,1728,1100,0,0
511,-76,0,0,0,0,0,0,0,0,0,-1,1735,1100,0,0
518,-76,0,0,0,0,0,0,0,0,0,-1,1742,1100,0,0
525,-76,0,0,0,0,0,0,0,0,0,-1,1749,1100,0,0
532,-76,0,0,0,0,0,0,0,0,0,-1,1756,1100,0,0
539,-76,0,0,0,0,0,0,0,0,0,-1,1763,1100,0,0
546,-76,0,0,0,0,0,0,0,0,0,-1,1770,1100,0,0
553,-76,0,0,0,0,0,0,0,0,0,-1,1777,1100,0,0
560,-76,0,0,0,0,0,0,0,0,0,-1,1784,1100,0,0
567,-76,0,0,0,0,0,0,0,0,0,-1,1791,1100,0,0
574,-76,0,0,0,0,0,0,0,0,0,-1,1798,1100,0,0
581,-76,0,0,0,0,0,0,0,0,0,-1,1805,1100,0,0
588,-76,0,0,0,0,0,0,0,0,0,-1,1812,1100,0,0
595,-76,0,0,0,0,0,0,0,0,0,-1,1819,1100,0,0
602,-76,0,0,0,0,0,0,0,0,0,-1,1826,1100,0,0
609,-76,0,0,0,0,0,0,0,0,0,-1,1833,1100,0,0
616,-76,0,0,0,0,0,0,0,0,0,-1,1840,1100,0,0
623,-76,0,0,0,0,0,0,0,0,0,-1,1847,1100,0,0
630,-76,0,0,0,0,0,0,0,0,0,-1,1854,1100,0,0
637,-76,0,0,0,0,0,0,0,0,0,-1,1861,1100,0,0
644,-76,0,0,0,0,0,0,0,0,0,-1,1868,1100,0,0
651,-76,60.1456,2.59973,0.0037415,0.000873535,4.81762e-05,0.00374231,0.000872726,0.0167917,0.00226083,0.0419187,1875,1100,60.1457,-2.59975
658,-76,60.0453,2.62878,0.00284095,0.000483088,0.000101829,0.00284534,0.000478699,0.0430801,0.00175917,0.0439737,1882,1100,60.0453,-2.62876
665,-76,60.0587,2.50464,0.00210358,0.000173952,8.9041e-05,0.00210768,0.000169852,0.0460138,0.00135206,0.0387605,1889,1100,60.0587,-2.5046
672,-76,60.0786,2.49377,0.00153391,5.76142e-06,4.02954e-05,0.00153497,4.69957e-06,0.0263444,0.00102175,0.0367157,1896,1100,60.0786,-2.49383
679,-76,60.1196,2.47644,0.000971395,-4.07016e-05,-6.99141e-05,0.000976201,-4.55083e-05,-0.068644,0.000666488,0.0386249,1903,1100,60.1197,-2.47649
686,-76,60.257,2.34033,0.000613885,-0.000240684,1.38878e-05,0.000614111,-0.00024091,0.0162455,0.00050908,0.036454,1910,1100,60.257,-2.34029
693,-76,60.2505,2.39172,0.000457596,-0.000427025,0.000136647,0.000478223,-0.000447652,0.149819,0.000534652,0.0364445,1917,1100,60.2505,-2.39169
700,-76,60.1938,2.39648,0.000366764,-0.00051041,0.000352655,0.00049096,-0.000634605,0.33861,0.000651607,0.0324259,1924,1100,60.1938,-2.39648
707,-76,60.1307,2.5144,7.46961e-05,-0.000410958,0.000600734,0.000479824,-0.000816086,0.59333,0.000756544,0.0226823,1931,1100,60.1308,-2.51439
714,-76,60.1902,2.54932,0,0,0,0,0,0,0,-1,1938,1100,60.1902,-2.54928
721,-76,45.1713,3.04919,0,0,0,0,0,0,0,-1,1945,1100,45.1713,-3.04915
728,-76,56.7433,7.65735,0,0,0,0,0,0,0,-1,1952,1100,56.7433,-7.65729
735,-76,57.1362,7.33862,-0.0020328,0.00115749,0.00177017,0.0019452,-0.0028205,1.15212,0.0027669,0.0453192,1959,1100,57.1363,-7.33868
742,-76,57.3275,6.94397,-0.00273855,0.00178471,0.00178196,0.00240238,-0.00335621,1.23713,0.00333989,0.0305213,1966,1100,57.3275,-6.94399
749,-76,57.2158,6.46924,-0.00331452,0.00226666,0.00115745,0.00249718,-0.00354504,1.37421,0.00350592,0.0292511,1973,1100,57.2159,-6.46929
756,-76,57.2781,6.0802,-0.00374609,0.00223067,0.000345903,0.00225063,-0.00376604,1.51318,0.00351026,0.0170125,1980,1100,57.2781,-6.08025
763,-76,57.2222,5.7052,-0.00373841,0.00179541,-0.00125841,0.00206813,-0.00401113,-1.35737,0.00356912,0.0182114,1987,1100,57.2222,-5.70521
770,-76,57.123,5.36829,-0.00346934,0.000662987,-0.00396094,0.00306427,-0.00587063,-1.0258,0.0052427,0.0199508,1994,1100,57.1231,-5.36823
777,-76,57.0308,5.13953,-0.00232097,-0.00172548,-0.00747457,0.00545727,-0.00950373,-0.805305,0.00874241,0.0222374,2001,1100,57.0308,-5.13952
784,-76,57.0698,4.73877,-0.000271417,-0.00555637,-0.0115639,0.00894809,-0.0147759,-0.673072,0.0138341,0.0308122,2008,1100,57.0698,-4.73876
791,-76,57.2197,4.18323,0.00302171,-0.0114897,-0.0163889,0.0136892,-0.0221571,-0.577006,0.0208875,0.0389592,2015,1100,57.2198,-4.18323
798,-76,57.3328,3.61816,0.00819711,-0.0204118,-0.022029,0.0201585,-0.0323732,-0.49744,0.0306012,0.0451569,2022,1100,57.3327,-3.61817
805,-76,55.8296,2.41931,0.0158057,-0.0330392,-0.0283334,0.0287896,-0.0460232,-0.429698,0.0435735,0.0460943,2029,1100,55.8295,-2.41928
812,-76,55.4819,1.64795,0.026168,-0.0502681,-0.0348451,0.0396684,-0.0637685,-0.369633,0.0602573,0.0485717,2036,1100,55.4818,-1.64794
-700,-83,0,0,0,0,0,0,0,0,0,-1,524,1107,0,0
-693,-83,-43.3744,0.283203,0.081521,0.0651117,-0.0635932,0.137437,0.00919611,-0.721244,0.088718,0.0482716,531,1107,-43.3744,-0.283245
-686,-83,-42.8875,0.865601,0.0698672,0.0432577,-0.0516067,0.109857,0.00326828,-0.65924,0.072173,0.0493674,538,1107,-42.8875,-0.865619
-679,-83,-42.3073,1.32935,0.0581771,0.0295621,-0.04086,0.0871622,0.000577006,-0.61699,0.0579167,0.0487131,545,1107,-42.3073,-1.32939
-672,-83,-41.7853,1.63525,0.0471479,0.0205213,-0.0315069,0.0680389,-0.000369657,-0.5855,0.045483,0.0451958,552,1107,-41.7853,-1.63527
-665,-83,-41.4951,2.08289,0.0369053,0.0144024,-0.0235827,0.0517831,-0.000475399,-0.562816,0.0346816,0.0469762,559,1107,-41.495,-2.08294
-658,-83,-42.5609,1.03967,0,0,0,0,0,0,0,-1,566,1107,-42.5609,-1.03972
-651,-83,-42.3508,1.62231,0.0200481,0.00727694,-0.0117647,0.0270485,0.000276571,-0.536758,0.0179408,0.0344197,573,1107,-42.3508,-1.62232
-644,-83,-42.2682,2.21704,0.0142006,0.00300155,-0.00789132,0.0182772,-0.00107505,-0.476834,0.0125585,0.0184841,580,1107,-42.2682,-2.21709
-637,-83,-42.3812,2.67908,0.00800413,0.00108576,-0.0047655,0.0104336,-0.00134369,-0.471456,0.00744414,0.0127846,587,1107,-42.3812,-2.67906
-630,-83,-42.4294,3.12305,0.00328836,0.000754038,-0.00224454,0.00459873,-0.000556336,-0.528425,0.00326709,0.0179567,594,1107,-42.4294,-3.12303
-623,-83,-42.4579,3.53711,0.00210469,0.000961066,-0.000834372,0.00254438,0.000521371,-0.484996,0.00155194,0.0203606,601,1107,-42.458,-3.53709
-616,-83,-42.5272,3.98669,0.00230827,0.000502778,-0.00107132,0.00280648,4.56965e-06,-0.435293,0.00186946,0.0177783,608,1107,-42.5272,-3.98668
-609,-83,-42.4952,4.37012,0.0027357,-0.000232455,-0.00138173,0.00327935,-0.000776105,-0.374851,0.00248566,0.021932,615,1107,-42.4952,-4.37011
-602,-83,-42.4728,4.84143,0.0031793,-0.00131105,-0.00173346,0.00377062,-0.00190237,-0.328742,0.00333398,0.0196296,622,1107,-42.4729,-4.84143
-595,-83,-42.3884,5.31128,0.003201,-0.00190502,-0.00198958,0.0038847,-0.00258872,-0.330998,0.00376232,0.0267737,629,1107,-42.3884,-5.31134
-588,-83,-42.3802,5.72998,0,0,0,0,0,0,0,-1,636,1107,-42.3802,-5.72996
-581,-83,-45.4359,0.666626,0,0,0,0,0,0,0,-1,643,1107,-45.4358,-0.666636
-574,-83,-45.3464,0.496216,0.00372944,-0.00238974,-0.00225105,0.00446831,-0.00312861,-0.317155,0.00440876,0.0345113,650,1107,-45.3464,-0.496235
-567,-83,-45.1845,0.443115,0.00365549,-0.00216773,-0.00223544,0.00441467,-0.0029269,-0.327388,0.00426757,0.0393019,657,1107,-45.1845,-0.443138
-560,-83,-45.2192,0.417358,0.00329151,-0.00156354,-0.00214643,0.00410436,-0.0023764,-0.36201,0.00378574,0.0397852,664,1107,-45.2192,-0.417394
-553,-83,-45.2715,0.412354,0.00237387,-0.000511731,-0.00205407,0.00344123,-0.00157909,-0.479227,0.0029642,0.0408914,671,1107,-45.2716,-0.412347
-546,-83,-45.3386,0.58667,0.00146402,0.00104667,-0.00191141,0.00317811,-0.000667419,-0.731026,0.00237271,0.0421204,678,1107,-45.3386,-0.586706
-539,-83,-44.9813,-0.00158691,0,0,0,0,0,0,0,-1,685,1107,-44.9814,0.00155906
-532,-83,-45.0081,0.13855,0,0,0,0,0,0,0,-1,692,1107,-45.0081,-0.138525
-525,-83,0,0,0,0,0,0,0,0,0,-1,699,1107,0,0
-518,-83,0,0,0,0,0,0,0,0,0,-1,706,1107,0,0
-511,-83,0,0,0,0,0,0,0,0,0,-1,713,1107,0,0
-504,-83,0,0,0,0,0,0,0,0,0,-1,720,1107,0,0
-497,-83,0,0,0,0,0,0,0,0,0,-1,727,1107,0,0
-490,-83,0,0,0,0,0,0,0,0,0,-1,734,1107,0,0
-483,-83,0,0,0,0,0,0,0,0,0,-1,741,1107,0,0
-476,-83,0,0,0,0,0,0,0,0,0,-1,748,1107,0,0
-469,-83,0,0,0,0,0,0,0,0,0,-1,755,1107,0,0
-462,-83,0,0,0,0,0,0,0,0,0,-1,762,1107,0,0
-455,-83,0,0,0,0,0,0,0,0,0,-1,769,1107,0,0
-448,-83,0,0,0,0,0,0,0,0,0,-1,776,1107,0,0
-441,-83,0,0,0,0,0,0,0,0,0,-1,783,1107,0,0
-434,-83,0,0,0,0,0,0,0,0,0,-1,790,1107,0,0
-427,-83,0,0,0,0,0,0,0,0,0,-1,797,1107,0,0
-420,-83,0,0,0,0,0,0,0,0,0,-1,804,1107,0,0
-413,-83,0,0,0,0,0,0,0,0,0,-1,811,1107,0,0
-406,-83,0,0,0,0,0,0,0,0,0,-1,818,1107,0,0
-399,-83,0,0,0,0,0,0,0,0,0,-1,825,1107,0,0
-392,-83,0,0,0,0,0,0,0,0,0,-1,832,1107,0,0
-385,-83,0,0,0,0,0,0,0,0,0,-1,839,1107,0,0
-378,-83,0,0,0,0,0,0,0,0,0,-1,846,1107,0,0
-371,-83,0,0,0,0,0,0,0,0,0,-1,853,1107,0,0
-364,-83,0,0,0,0,0,0,0,0,0,-1,860,1107,0,0
-357,-83,0,0,0,0,0,0,0,0,0,-1,867,1107,0,0
-350,-83,0,0,0,0,0,0,0,0,0,-1,874,1107,0,0
-343,-83,0,0,0,0,0,0,0,0,0,-1,881,1107,0,0
-336,-83,0,0,0,0,0,0,0,0,0,-1,888,1107,0,0
-329,-83,0,0,0,0,0,0,0,0,0,-1,895,1107,0,0
-322,-83,0,0,0,0,0,0,0,0,0,-1,902,1107,0,0
-315,-83,0,0,0,0,0,0,0,0,0,-1,909,1107,0,0
-308,-83,0,0,0,0,0,0,0,0,0,-1,916,1107,0,0
-301,-83,0,0,0,0,0,0,0,0,0,-1,923,1107,0,0
-294,-83,0,0,0,0,0,0,0,0,0,-1,930,1107,0,0
-287,-83,0,0,0,0,0,0,0,0,0,-1,937,1107,0,0
-280,-83,0,0,0,0,0,0,0,0,0,-1,944,1107,0,0
-273,-83,0,0,0,0,0,0,0,0,0,-1,951,1107,0,0
-266,-83,0,0,0,0,0,0,0,0,0,-1,958,1107,0,0
-259,-83,0,0,0,0,0,0,0,0,0,-1,965,1107,0,0
-252,-83,0,0,0,0,0,0,0,0,0,-1,972,1107,0,0
-245,-83,0,0,0,0,0,0,0,0,0,-1,979,1107,0,0
-238,-83,0,0,0,0,0,0,0,0,0,-1,986,1107,0,0
-231,-83,0,0,0,0,0,0,0,0,0,-1,993,1107,0,0
-224,-83,0,0,0,0,0,0,0,0,0,-1,1000,1107,0,0
-217,-83,0,0,0,0,0,0,0,0,0,-1,1007,1107,0,0
-210,-83,0,0,0,0,0,0,0,0,0,-1,1014,1107,0,0
-203,-83,0,0,0,0,0,0,0,0,0,-1,1021,1107,0,0
-196,-83,0,0,0,0,0,0,0,0,0,-1,1028,1107,0,0
-189,-83,0,0,0,0,0,0,0,0,0,-1,1035,1107,0,0
-182,-83,0,0,0,0,0,0,0,0,0,-1,1042,1107,0,0
-175,-83,0,0,0,0,0,0,0,0,0,-1,1049,1107,0,0
-168,-83,0,0,0,0,0,0,0,0,0,-1,1056,1107,0,0
-161,-83,0,0,0,0,0,0,0,0,0,-1,1063,1107,0,0
-154,-83,0,0,0,0,0,0,0,0,0,-1,1070,1107,0,0
-147,-83,0,0,0,0,0,0,0,0,0,-1,1077,1107,0,0
-140,-83,0,0,0,0,0,0,0,0,0,-1,1084,1107,0,0
-133,-83,0,0,0,0,0,0,0,0,0,-1,1091,1107,0,0
-126,-83,0,0,0,0,0,0,0,0,0,-1,1098,1107,0,0
-119,-83,0,0,0,0,0,0,0,0,0,-1,1105,1107,0,0
-112,-83,0,0,0,0,0,0,0,0,0,-1,1112,1107,0,0
-105,-83,0,0,0,0,0,0,0,0,0,-1,1119,1107,0,0
-98,-83,0,0,0,0,0,0,0,0,0,-1,1126,1107,0,0
-91,-83,0,0,0,0,0,0,0,0,0,-1,1133,1107,0,0
-84,-83,0,0,0,0,0,0,0,0,0,-1,1140,1107,0,0
-77,-83,0,0,0,0,0,0,0,0,0,-1,1147,1107,0,0
-70,-83,0,0,0,0,0,0,0,0,0,-1,1154,1107,0,0
-63,-83,0,0,0,0,0,0,0,0,0,-1,1161,1107,0,0
-56,-83,0,0,0,0,0,0,0,0,0,-1,1168,1107,0,0
-49,-83,0,0,0,0,0,0,0,0,0,-1,1175,1107,0,0
-42,-83,0,0,0,0,0,0,0,0,0,-1,1182,1107,0,0
-35,-83,0,0,0,0,0,0,0,0,0,-1,1189,1107,0,0
-28,-83,0,0,0,0,0,0,0,0,0,-1,1196,1107,0,0
-21,-83,0,0,0,0,0,0,0,0,0,-1,1203,1107,0,0
-14,-83,0,0,0,0,0,0,0,0,0,-1,1210,1107,0,0
-7,-83,0,0,0,0,0,0,0,0,0,-1,1217,1107,0,0
0,-83,0,0,0,0,0,0,0,0,0,-1,1224,1107,0,0
7,-83,0,0,0,0,0,0,0,0,0,-1,1231,1107,0,0
14,-83,0,0,0,0,0,0,0,0,0,-1,1238,1107,0,0
21,-83,0,0,0,0,0,0,0,0,0,-1,1245,1107,0,0
28,-83,0,0,0,0,0,0,0,0,0,-1,1252,1107,0,0
35,-83,0,0,0,0,0,0,0,0,0,-1,1259,1107,0,0
42,-83,0,0,0,0,0,0,0,0,0,-1,1266,1107,0,0
49,-83,0,0,0,0,0,0,0,0,0,-1,1273,1107,0,0
56,-83,0,0,0,0,0,0,0,0,0,-1,1280,1107,0,0
63,-83,0,0,0,0,0,0,0,0,0,-1,1287,1107,0,0
70,-83,0,0,0,0,0,0,0,0,0,-1,1294,1107,0,0
77,-83,0,0,0,0,0,0,0,0,0,-1,1301,1107,0,0
84,-83,0,0,0,0,0,0,0,0,0,-1,1308,1107,0,0
91,-83,0,0,0,0,0,0,0,0,0,-1,1315,1107,0,0
98,-83,0,0,0,0,0,0,0,0,0,-1,1322,1107,0,0
105,-83,0,0,0,0,0,0,0,0,0,-1,1329,1107,0,0
112,-83,0,0,0,0,0,0,0,0,0,-1,1336,1107,0,0
119,-83,0,0,0,0,0,0,0,0,0,-1,1343,1107,0,0
126,-83,0,0,0,0,0,0,0,0,0,-1,1350,1107,0,0
133,-83,0,0,0,0,0,0,0,0,0,-1,1357,1107,0,0
140,-83,0,0,0,0,0,0,0,0,0,-1,1364,1107,0,0
147,-83,0,0,0,0,0,0,0,0,0,-1,1371,1107,0,0
154,-83,0,0,0,0,0,0,0,0,0,-1,1378,1107,0,0
161,-83,0,0,0,0,0,0,0,0,0,-1,1385,1107,0,0
168,-83,0,0,0,0,0,0,0,0,0,-1,1392,1107,0,0
175,-83,0,0,0,0,0,0,0,0,0,-1,1399,1107,0,0
182,-83,0,0,0,0,0,0,0,0,0,-1,1406,1107,0,0
189,-83,0,0,0,0,0,0,0,0,0,-1,1413,1107,0,0
196,-83,0,0,0,0,0,0,0,0,0,-1,1420,1107,0,0
203,-83,0,0,0,0,0,0,0,0,0,-1,1427,1107,0,0
210,-83,0,0,0,0,0,0,0,0,0,-1,1434,1107,0,0
217,-83,0,0,0,0,0,0,0,0,0,-1,1441,1107,0,0
224,-83,0,0,0,0,0,0,0,0,0,-1,1448,1107,0,0
231,-83,0,0,0,0,0,0,0,0,0,-1,1455,1107,0,0
238,-83,0,0,0,0,0,0,0,0,0,-1,1462,1107,0,0
245,-83,0,0,0,0,0,0,0,0,0,-1,1469,1107,0,0
252,-83,0,0,0,0,0,0,0,0,0,-1,1476,1107,0,0
259,-83,0,0,0,0,0,0,0,0,0,-1,1483,1107,0,0
266,-83,0,0,0,0,0,0,0,0,0,-1,1490,1107,0,0
273,-83,0,0,0,0,0,0,0,0,0,-1,1497,1107,0,0
280,-83,0,0,0,0,0,0,0,0,0,-1,1504,1107,0,0
287,-83,0,0,0,0,0,0,0,0,0,-1,1511,1107,0,0
294,-83,0,0,0,0,0,0,0,0,0,-1,1518,1107,0,0
301,-83,0,0,0,0,0,0,0,0,0,-1,1525,1107,0,0
308,-83,0,0,0,0,0,0,0,0,0,-1,1532,1107,0,0
315,-83,0,0,0,0,0,0,0,0,0,-1,1539,1107,0,0
322,-83,0,0,0,0,0,0,0,0,0,-1,1546,1107,0,0
329,-83,0,0,0,0,0,0,0,0,0,-1,1553,1107,0,0
336,-83,0,0,0,0,0,0,0,0,0,-1,1560,1107,0,0
343,-83,0,0,0,0,0,0,0,0,0,-1,1567,1107,0,0
350,-83,0,0,0,0,0,0,0,0,0,-1,1574,1107,0,0
357,-83,0,0,0,0,0,0,0,0,0,-1,1581,1107,0,0
364,-83,0,0,0,0,0,0,0,0,0,-1,1588,1107,0,0
371,-83,0,0,0,0,0,0,0,0,0,-1,1595,1107,0,0
378,-83,0,0,0,0,0,0,0,0,0,-1,1602,1107,0,0
385,-83,0,0,0,0,0,0,0,0,0,-1,1609,1107,0,0
392,-83,0,0,0,0,0,0,0,0,0,-1,1616,1107,0,0
399,-83,0,0,0,0,0,0,0,0,0,-1,1623,1107,0,0
406,-83,0,0,0,0,0,0,0,0,0,-1,1630,1107,0,0
413,-83,0,0,0,0,0,0,0,0,0,-1,1637,1107,0,0
420,-83,0,0,0,0,0,0,0,0,0,-1,1644,1107,0,0
427,-83,0,0,0,0,0,0,0,0,0,-1,1651,1107,0,0
434,-83,0,0,0,0,0,0,0,0,0,-1,1658,1107,0,0
441,-83,0,0,0,0,0,0,0,0,0,-1,1665,1107,0,0
448,-83,0,0,0,0,0,0,0,0,0,-1,1672,1107,0,0
455,-83,0,0,0,0,0,0,0,0,0,-1,1679,1107,0,0
462,-83,0,0,0,0,0,0,0,0,0,-1,1686,1107,0,0
469,-83,0,0,0,0,0,0,0,0,0,-1,1693,1107,0,0
476,-83,0,0,0,0,0,0,0,0,0,-1,1700,1107,0,0
483,-83,0,0,0,0,0,0,0,0,0,-1,1707,1107,0,0
490,-83,0,0,0,0,0,0,0,0,0,-1,1714,1107,0,0
497,-83,0,0,0,0,0,0,0,0,0,-1,1721,1107,0,0
504,-83,0,0,0,0,0,0,0,0,0,-1,1728,1107,0,0
511,-83,0,0,0,0,0,0,0,0,0,-1,1735,1107,0,0
518,-83,0,0,0,0,0,0,0,0,0,-1,1742,1107,0,0
525,-83,0,0,0,0,0,0,0,0,0,-1,1749,1107,0,0
532,-83,0,0,0,0,0,0,0,0,0,-1,1756,1107,0,0
539,-83,0,0,0,0,0,0,0,0,0,-1,1763,1107,0,0
546,-83,0,0,0,0,0,0,0,0,0,-1,1770,1107,0,0
553,-83,0,0,0,0,0,0,0,0,0,-1,1777,1107,0,0
560,-83,0,0,0,0,0,0,0,0,0,-1,1784,1107,0,0
567,-83,0,0,0,0,0,0,0,0,0,-1,1791,1107,0,0
574,-83,0,0,0,0,0,0,0,0,0,-1,1798,1107,0,0
581,-83,0,0,0,0,0,0,0,0,0,-1,1805,1107,0,0
588,-83,0,0,0,0,0,0,0,0,0,-1,1812,1107,0,0
595,-83,0,0,0,0,0,0,0,0,0,-1,1819,1107,0,0
602,-83,0,0,0,0,0,0,0,0,0,-1,1826,1107,0,0
609,-83,0,0,0,0,0,0,0,0,0,-1,1833,1107,0,0
616,-83,0,0,0,0,0,0,0,0,0,-1,1840,1107,0,0
623,-83,0,0,0,0,0,0,0,0,0,-1,1847,1107,0,0
630,-83,0,0,0,0,0,0,0,0,0,-1,1854,1107,0,0
637,-83,0,0,0,0,0,0,0,0,0,-1,1861,1107,0,0
644,-83,60.1675,2.62036,0.0060574,0.00167543,-0.00108736,0.00631239,0.00142045,-0.230336,0.00382376,0.0365469,1868,1107,60.1675,-2.6204
651,-83,60.2006,2.50854,0.00456061,0.000968959,-0.000555995,0.00464471,0.000884859,-0.150122,0.00284772,0.0417988,1875,1107,60.2006,-2.50859
658,-83,60.2944,2.32214,0.00346955,0.000476652,-0.000271917,0.00349406,0.000452148,-0.0898735,0.00219424,0.043085,1882,1107,60.2945,-2.32214
665,-83,60.1617,2.26733,0.002554,0.000102447,-0.000125242,0.00256038,9.60649e-05,-0.0509101,0.00167582,0.0385186,1889,1107,60.1617,-2.26728
672,-83,60.0591,2.46179,0.00179437,-0.000132038,-7.57655e-05,0.00179734,-0.000135014,-0.0392491,0.00124567,0.0348901,1896,1107,60.0591,-2.46185
679,-83,60.0741,2.57971,0.00104088,-0.000242333,-0.000138107,0.00105557,-0.000257028,-0.106008,0.000803219,0.0365847,1903,1107,60.0741,-2.57966
686,-83,60.2485,2.52234,0.000617277,-0.000462308,-6.27978e-05,0.000620917,-0.000465949,-0.0579081,0.000629625,0.0354933,1910,1107,60.2485,-2.52234
693,-83,60.285,2.47363,0.000455197,-0.000628931,3.03724e-05,0.000456047,-0.000629781,0.0279862,0.000629572,0.0366234,1917,1107,60.285,-2.47361
700,-83,60.1887,2.52637,0.000380479,-0.000700524,0.000217029,0.000422423,-0.000742469,0.190913,0.000680959,0.0332256,1924,1107,60.1887,-2.52637
707,-83,60.1548,2.56335,0.000103376,-0.000596352,0.00045396,0.000326647,-0.000819623,0.457091,0.000681896,0.024689,1931,1107,60.1548,-2.56337
714,-83,60.1731,2.52588,0,0,0,0,0,0,0,-1,1938,1107,60.1731,-2.52583
721,-83,49.1162,7.36719,0,0,0,0,0,0,0,-1,1945,1107,49.1162,-7.36721
728,-83,56.38,7.74988,0,0,0,0,0,0,0,-1,1952,1107,56.38,-7.74983
735,-83,56.5945,7.34668,-0.00180958,0.000918878,0.00157188,0.00163598,-0.00252668,1.14279,0.00242158,0.0451559,1959,1107,56.5945,-7.34664
742,-83,56.785,6.93469,-0.00242753,0.00148109,0.00169463,0.0021135,-0.00305994,1.21362,0.0030035,0.027226,1966,1107,56.785,-6.93469
749,-83,56.8805,6.50745,-0.00272327,0.00221602,0.000946644,0.00239124,-0.00289849,1.38778,0.0030587,0.018752,1973,1107,56.8804,-6.50747
756,-83,56.8744,6.10156,-0.0030232,0.0022373,-2.19863e-05,0.00223739,-0.00302329,-1.56662,0.00304853,0.0176227,1980,1107,56.8744,-6.10155
763,-83,56.8387,5.67932,-0.00282555,0.00188897,-0.00190973,0.00256548,-0.00350206,-1.23035,0.00351697,0.0127289,1987,1107,56.8387,-5.67929
770,-83,56.751,5.33215,-0.00218125,0.00099897,-0.00507419,0.00472636,-0.00590864,-0.937238,0.00615276,0.0151748,1994,1107,56.7509,-5.33212
777,-83,56.6077,4.99609,-0.000573146,-0.000940822,-0.00924295,0.00848779,-0.0100018,-0.775455,0.0106869,0.0163591,2001,1107,56.6077,-4.99608
784,-83,56.4729,4.67957,0.00201041,-0.00421554,-0.0142524,0.0134858,-0.015691,-0.677878,0.0168613,0.0249944,2008,1107,56.4728,-4.67955
791,-83,56.6582,4.1543,0.00600305,-0.00952247,-0.0203705,0.0200398,-0.0235592,-0.603354,0.0251992,0.0403823,2015,1107,56.6581,-4.15436
798,-83,56.762,3.6886,0.0120507,-0.0176639,-0.0277695,0.0286876,-0.0343008,-0.539763,0.0364145,0.0465595,2022,1107,56.762,-3.68862
805,-83,56.7979,3.22302,0.020657,-0.0294207,-0.0363812,0.039783,-0.0485467,-0.484005,0.0510808,0.049471,2029,1107,56.7978,-3.22305
812,-83,56.7979,2.74597,0,0,0,0,0,0,0,-1,2036,1107,56.7979,-2.746
-700,-90,0,0,0,0,0,0,0,0,0,-1,524,1114,0,0
-693,-90,-41.9504,0.269653,0,0,0,0,0,0,0,-1,531,1114,-41.9504,-0.269637
-686,-90,-41.2446,0.973022,0.0597041,0.00866633,-0.056332,0.0960278,-0.0276573,-0.572721,0.0749582,0.04531,538,1114,-41.2446,-0.972965
-679,-90,-40.4188,1.39453,0.0493378,0.00361692,-0.0442538,0.076287,-0.0233323,-0.546988,0.0601629,0.0464248,545,1114,-40.4188,-1.39458
-672,-90,-39.9754,1.80127,0,0,0,0,0,0,0,-1,552,1114,-39.9754,-1.80123
-665,-90,-40.0334,2.41809,0,0,0,0,0,0,0,-1,559,1114,-40.0334,-2.41811
-658,-90,-42.3907,0.706299,0,0,0,0,0,0,0,-1,566,1114,-42.3908,-0.706277
-651,-90,-41.7505,1.40759,0.0164102,0.000314747,-0.0127326,0.0234252,-0.00670024,-0.503569,0.0182646,0.0349431,573,1114,-41.7505,-1.40753
-644,-90,-41.8461,2.07214,0.0113878,0.000230641,-0.00858823,0.0160502,-0.00443178,-0.497365,0.0124433,0.0176101,580,1114,-41.8461,-2.07217
-637,-90,-41.8981,2.65283,0.00609669,0.000422437,-0.00508076,0.00907879,-0.00255966,-0.530761,0.0070621,0.0137414,587,1114,-41.8981,-2.65285
-630,-90,-41.9227,3.10657,0.00226967,0.000439822,-0.00228301,0.00381426,-0.00110477,-0.59482,0.00298015,0.0126866,594,1114,-41.9227,-3.10652
-623,-90,-41.9355,3.56531,0.001628,0.000719256,-0.000811126,0.00210335,0.000243908,-0.530087,0.00132842,0.0125018,601,1114,-41.9355,-3.56536
-616,-90,-41.99,4.04614,0.00215824,0.000274639,-0.000999179,0.00258952,-0.000156641,-0.407476,0.00178086,0.0153201,608,1114,-41.99,-4.0462
-609,-90,-41.9714,4.48254,0.00267626,-0.00041956,-0.00126971,0.0031304,-0.000873699,-0.343491,0.00243107,0.0229321,615,1114,-41.9714,-4.48255
-602,-90,-42.0707,4.89185,0.00309059,-0.00147981,-0.00148297,0.00352961,-0.00191882,-0.287817,0.00319115,0.0233123,622,1114,-42.0707,-4.8919
-595,-90,-41.9433,5.44861,0.00304882,-0.00218822,-0.00168329,0.00354319,-0.0026826,-0.285663,0.00360589,0.0200599,629,1114,-41.9433,-5.44857
-588,-90,-42.0034,5.87341,0,0,0,0,0,0,0,-1,636,1114,-42.0034,-5.87337
-581,-90,-45.4951,0.844849,0,0,0,0,0,0,0,-1,643,1114,-45.4951,-0.844864
-574,-90,-45.3759,0.761597,0.00359723,-0.00295952,-0.0020146,0.00416676,-0.00352905,-0.275511,0.00444826,0.0367905,650,1114,-45.3759,-0.761627
-567,-90,-45.3198,0.701782,0.0036221,-0.00290088,-0.00206385,0.00422025,-0.00349903,-0.282093,0.00446321,0.0347165,657,1114,-45.3198,-0.701749
-560,-90,-45.314,0.651245,0.00336601,-0.00248242,-0.00205908,0.00401823,-0.00313463,-0.306753,0.00414019,0.0384701,664,1114,-45.314,-0.651194
-553,-90,-45.2737,0.741699,0.00241446,-0.00160486,-0.00210254,0.00331331,-0.0025037,-0.403991,0.00336928,0.0397116,671,1114,-45.2737,-0.741746
-546,-90,-45.3168,0.935547,0.00134557,-0.000153706,-0.00211113,0.0028362,-0.00164434,-0.614798,0.00261717,0.0433648,678,1114,-45.3168,-0.935514
-539,-90,-45.3561,0.7771,0.00125148,0.00152075,-0.00211701,0.00350741,-0.000735168,-0.817154,0.00261796,0.043783,685,1114,-45.3561,-0.777134
-532,-90,-45.1835,-0.145508,0,0,0,0,0,0,0,-1,692,1114,-45.1835,0.145522
-525,-90,0,0,0,0,0,0,0,0,0,-1,699,1114,0,0
-518,-90,0,0,0,0,0,0,0,0,0,-1,706,1114,0,0
-511,-90,0,0,0,0,0,0,0,0,0,-1,713,1114,0,0
-504,-90,0,0,0,0,0,0,0,0,0,-1,720,1114,0,0
-497,-90,0,0,0,0,0,0,0,0,0,-1,727,1114,0,0
-490,-90,0,0,0,0,0,0,0,0,0,-1,734,1114,0,0
-483,-90,0,0,0,0,0,0,0,0,0,-1,741,1114,0,0
-476,-90,0,0,0,0,0,0,0,0,0,-1,748,1114,0,0
-469,-90,0,0,0,0,0,0,0,0,0,-1,755,1114,0,0
-462,-90,0,0,0,0,0,0,0,0,0,-1,762,1114,0,0
-455,-90,0,0,0,0,0,0,0,0,0,-1,769,1114,0,0
-448,-90,0,0,0,0,0,0,0,0,0,-1,776,1114,0,0
-441,-90,0,0,0,0,0,0,0,0,0,-1,783,1114,0,0
-434,-90,0,0,0,0,0,0,0,0,0,-1,790,1114,0,0
-427,-90,0,0,0,0,0,0,0,0,0,-1,797,1114,0,0
-420,-90,0,0,0,0,0,0,0,0,0,-1,804,1114,0,0
-413,-90,0,0,0,0,0,0,0,0,0,-1,811,1114,0,0
-406,-90,0,0,0,0,0,0,0,0,0,-1,818,1114,0,0
-399,-90,0,0,0,0,0,0,0,0,0,-1,825,1114,0,0
-392,-90,0,0,0,0,0,0,0,0,0,-1,832,1114,0,0
-385,-90,0,0,0,0,0,0,0,0,0,-1,839,1114,0,0
-378,-90,0,0,0,0,0,0,0,0,0,-1,846,1114,0,0
-371,-90,0,0,0,0,0,0,0,0,0,-1,853,1114,0,0
-364,-90,0,0,0,0,0,0,0,0,0,-1,860,1114,0,0
-357,-90,0,0,0,0,0,0,0,0,0,-1,867,1114,0,0
-350,-90,0,0,0,0,0,0,0,0,0,-1,874,1114,0,0
-343,-90,0,0,0,0,0,0,0,0,0,-1,881,1114,0,0
-336,-90,0,0,0,0,0,0,0,0,0,-1,888,1114,0,0
-329,-90,0,0,0,0,0,0,0,0,0,-1,895,1114,0,0
-322,-90,0,0,0,0,0,0,0,0,0,-1,902,1114,0,0
-315,-90,0,0,0,0,0,0,0,0,0,-1,909,1114,0,0
-308,-90,0,0,0,0,0,0,0,0,0,-1,916,1114,0,0
-301,-90,0,0,0,0,0,0,0,0,0,-1,923,1114,0,0
-294,-90,0,0,0,0,0,0,0,0,0,-1,930,1114,0,0
-287,-90,0,0,0,0,0,0,0,0,0,-1,937,1114,0,0
-280,-90,0,0,0,0,0,0,0,0,0,-1,944,1114,0,0
-273,-90,0,0,0,0,0,0,0,0,0,-1,951,1114,0,0
-266,-90,0,0,0,0,0,0,0,0,0,-1,958,1114,0,0
-259,-90,0,0,0,0,0,0,0,0,0,-1,965,1114,0,0
-252,-90,0,0,0,0,0,0,0,0,0,-1,972,1114,0,0
-245,-90,0,0,0,0,0,0,0,0,0,-1,979,1114,0,0
-238,-90,0,0,0,0,0,0,0,0,0,-1,986,1114,0,0
-231,-90,0,0,0,0,0,0,0,0,0,-1,993,1114,0,0
-224,-90,0,0,0,0,0,0,0,0,0,-1,1000,1114,0,0
-217,-90,0,0,0,0,0,0,0,0,0,-1,1007,1114,0,0
-210,-90,0,0,0,0,0,0,0,0,0,-1,1014,1114,0,0
-203,-90,0,0,0,0,0,0,0,0,0,-1,1021,1114,0,0
-196,-90,0,0,0,0,0,0,0,0,0,-1,1028,1114,0,0
-189,-90,0,0,0,0,0,0,0,0,0,-1,1035,1114,0,0
-182,-90,0,0,0,0,0,0,0,0,0,-1,1042,1114,0,0
-175,-90,0,0,0,0,0,0,0,0,0,-1,1049,1114,0,0
-168,-90,0,0,0,0,0,0,0,0,0,-1,1056,1114,0,0
-161,-90,0,0,0,0,0,0,0,0,0,-1,1063,1114,0,0
-154,-90,0,0,0,0,0,0,0,0,0,-1,1070,1114,0,0
-147,-90,0,0,0,0,0,0,0,0,0,-1,1077,1114,0,0
-140,-90,0,0,0,0,0,0,0,0,0,-1,1084,1114,0,0
-133,-90,0,0,0,0,0,0,0,0,0,-1,1091,1114,0,0
-126,-90,0,0,0,0,0,0,0,0,0,-1,1098,1114,0,0
-119,-90,0,0,0,0,0,0,0,0,0,-1,1105,1114,0,0
-112,-90,0,0,0,0,0,0,0,0,0,-1,1112,1114,0,0
-105,-90,0,0,0,0,0,0,0,0,0,-1,1119,1114,0,0
-98,-90,0,0,0,0,0,0,0,0,0,-1,1126,1114,0,0
-91,-90,0,0,0,0,0,0,0,0,0,-1,1133,1114,0,0
-84,-90,0,0,0,0,0,0,0,0,0,-1,1140,1114,0,0
-77,-90,0,0,0,0,0,0,0,0,0,-1,1147,1114,0,0
-70,-90,0,0,0,0,0,0,0,0,0,-1,1154,1114,0,0
-63,-90,0,0,0,0,0,0,0,0,0,-1,1161,1114,0,0
-56,-90,0,0,0,0,0,0,0,0,0,-1,1168,1114,0,0
-49,-90,0,0,0,0,0,0,0,0,0,-1,1175,1114,0,0
-42,-90,0,0,0,0,0,0,0,0,0,-1,1182,1114,0,0
-35,-90,0,0,0,0,0,0,0,0,0,-1,1189,1114,0,0
-28,-90,0,0,0,0,0,0,0,0,0,-1,1196,1114,0,0
-21,-90,0,0,0,0,0,0,0,0,0,-1,1203,1114,0,0
-14,-90,0,0,0,0,0,0,0,0,0,-1,1210,1114,0,0
-7,-90,0,0,0,0,0,0,0,0,0,-1,1217,1114,0,0
0,-90,0,0,0,0,0,0,0,0,0,-1,1224,1114,0,0
7,-90,0,0,0,0,0,0,0,0,0,-1,1231,1114,0,0
14,-90,0,0,0,0,0,0,0,0,0,-1,1238,1114,0,0
21,-90,0,0,0,0,0,0,0,0,0,-1,1245,1114,0,0
28,-90,0,0,0,0,0,0,0,0,0,-1,1252,1114,0,0
35,-90,0,0,0,0,0,0,0,0,0,-1,1259,1114,0,0
42,-90,0,0,0,0,0,0,0,0,0,-1,1266,1114,0,0
49,-90,0,0,0,0,0,0,0,0,0,-1,1273,1114,0,0
56,-90,0,0,0,0,0,0,0,0,0,-1,1280,1114,0,0
63,-90,0,0,0,0,0,0,0,0,0,-1,1287,1114,0,0
70,-90,0,0,0,0,0,0,0,0,0,-1,1294,1114,0,0
77,-90,0,0,0,0,0,0,0,0,0,-1,1301,1114,0,0
84,-90,0,0,0,0,0,0,0,0,0,-1,1308,1114,0,0
91,-90,0,0,0,0,0,0,0,0,0,-1,1315,1114,0,0
98,-90,0,0,0,0,0,0,0,0,0,-1,1322,1114,0,0
105,-90,0,0,0,0,0,0,0,0,0,-1,1329,1114,0,0
112,-90,0,0,0,0,0,0,0,0,0,-1,1336,1114,0,0
119,-90,0,0,0,0,0,0,0,0,0,-1,1343,1114,0,0
126,-90,0,0,0,0,0,0,0,0,0,-1,1350,1114,0,0
133,-90,0,0,0,0,0,0,0,0,0,-1,1357,1114,0,0
140,-90,0,0,0,0,0,0,0,0,0,-1,1364,1114,0,0
147,-90,0,0,0,0,0,0,0,0,0,-1,1371,1114,0,0
154,-90,0,0,0,0,0,0,0,0,0,-1,1378,1114,0,0
161,-90,0,0,0,0,0,0,0,0,0,-1,1385,1114,0,0
168,-90,0,0,0,0,0,0,0,0,0,-1,1392,1114,0,0
175,-90,0,0,0,0,0,0,0,0,0,-1,1399,1114,0,0
182,-90,0,0,0,0,0,0,0,0,0,-1,1406,1114,0,0
189,-90,0,0,0,0,0,0,0,0,0,-1,1413,1114,0,0
196,-90,0,0,0,0,0,0,0,0,0,-1,1420,1114,0,0
203,-90,0,0,0,0,0,0,0,0,0,-1,1427,1114,0,0
210,-90,0,0,0,0,0,0,0,0,0,-1,1434,1114,0,0
217,-90,0,0,0,0,0,0,0,0,0,-1,1441,1114,0,0
224,-90,0,0,0,0,0,0,0,0,0,-1,1448,1114,0,0
231,-90,0,0,0,0,0,0,0,0,0,-1,1455,1114,0,0
238,-90,0,0,0,0,0,0,0,0,0,-1,1462,1114,0,0
245,-90,0,0,0,0,0,0,0,0,0,-1,1469,1114,0,0
252,-90,0,0,0,0,0,0,0,0,0,-1,1476,1114,0,0
259,-90,0,0,0,0,0,0,0,0,0,-1,1483,1114,0,0
266,-90,0,0,0,0,0,0,0,0,0,-1,1490,1114,0,0
273,-90,0,0,0,0,0,0,0,0,0,-1,1497,1114,0,0
280,-90,0,0,0,0,0,0,0,0,0,-1,1504,1114,0,0
287,-90,0,0,0,0,0,0,0,0,0,-1,1511,1114,0,0
294,-90,0,0,0,0,0,0,0,0,0,-1,1518,1114,0,0
301,-90,0,0,0,0,0,0,0,0,0,-1,1525,1114,0,0
308,-90,0,0,0,0,0,0,0,0,0,-1,1532,1114,0,0
315,-90,0,0,0,0,0,0,0,0,0,-1,1539,1114,0,0
322,-90,0,0,0,0,0,0,0,0,0,-1,1546,1114,0,0
329,-90,0,0,0,0,0,0,0,0,0,-1,1553,1114,0,0
336,-90,0,0,0,0,0,0,0,0,0,-1,1560,1114,0,0
343,-90,0,0,0,0,0,0,0,0,0,-1,1567,1114,0,0
350,-90,0,0,0,0,0,0,0,0,0,-1,1574,1114,0,0
357,-90,0,0,0,0,0,0,0,0,0,-1,1581,1114,0,0
364,-90,0,0,0,0,0,0,0,0,0,-1,1588,1114,0,0
371,-90,0,0,0,0,0,0,0,0,0,-1,1595,1114,0,0
378,-90,0,0,0,0,0,0,0,0,0,-1,1602,1114,0,0
385,-90,0,0,0,0,0,0,0,0,0,-1,1609,1114,0,0
392,-90,0,0,0,0,0,0,0,0,0,-1,1616,1114,0,0
399,-90,0,0,0,0,0,0,0,0,0,-1,1623,1114,0,0
406,-90,0,0,0,0,0,0,0,0,0,-1,1630,1114,0,0
413,-90,0,0,0,0,0,0,0,0,0,-1,1637,1114,0,0
420,-90,0,0,0,0,0,0,0,0,0,-1,1644,1114,0,0
427,-90,0,0,0,0,0,0,0,0,0,-1,1651,1114,0,0
434,-90,0,0,0,0,0,0,0,0,0,-1,1658,1114,0,0
441,-90,0,0,0,0,0,0,0,0,0,-1,1665,1114,0,0
448,-90,0,0,0,0,0,0,0,0,0,-1,1672,1114,0,0
455,-90,0,0,0,0,0,0,0,0,0,-1,1679,1114,0,0
462,-90,0,0,0,0,0,0,0,0,0,-1,1686,1114,0,0
469,-90,0,0,0,0,0,0,0,0,0,-1,1693,1114,0,0
476,-90,0,0,0,0,0,0,0,0,0,-1,1700,1114,0,0
483,-90,0,0,0,0,0,0,0,0,0,-1,1707,1114,0,0
490,-90,0,0,0,0,0,0,0,0,0,-1,1714,1114,0,0
497,-90,0,0,0,0,0,0,0,0,0,-1,1721,1114,0,0
504,-90,0,0,0,0,0,0,0,0,0,-1,1728,1114,0,0
511,-90,0,0,0,0,0,0,0,0,0,-1,1735,1114,0,0
518,-90,0,0,0,0,0,0,0,0,0,-1,1742,1114,0,0
525,-90,0,0,0,0,0,0,0,0,0,-1,1749,1114,0,0
532,-90,0,0,0,0,0,0,0,0,0,-1,1756,1114,0,0
539,-90,0,0,0,0,0,0,0,0,0,-1,1763,1114,0,0
546,-90,0,0,0,0,0,0,0,0,0,-1,1770,1114,0,0
553,-90,0,0,0,0,0,0,0,0,0,-1,1777,1114,0,0
560,-90,0,0,0,0,0,0,0,0,0,-1,1784,1114,0,0
567,-90,0,0,0,0,0,0,0,0,0,-1,1791,1114,0,0
574,-90,0,0,0,0,0,0,0,0,0,-1,1798,1114,0,0
581,-90,0,0,0,0,0,0,0,0,0,-1,1805,1114,0,0
588,-90,0,0,0,0,0,0,0,0,0,-1,1812,1114,0,0
595,-90,0,0,0,0,0,0,0,0,0,-1,1819,1114,0,0
602,-90,0,0,0,0,0,0,0,0,0,-1,1826,1114,0,0
609,-90,0,0,0,0,0,0,0,0,0,-1,1833,1114,0,0
616,-90,0,0,0,0,0,0,0,0,0,-1,1840,1114,0,0
623,-90,0,0,0,0,0,0,0,0,0,-1,1847,1114,0,0
630,-90,0,0,0,0,0,0,0,0,0,-1,1854,1114,0,0
637,-90,0,0,0,0,0,0,0,0,0,-1,1861,1114,0,0
644,-90,60.0249,2.59863,0.00658893,0.00145703,-0.00170547,0.00710401,0.000941952,-0.293304,0.00445534,0.0339892,1868,1114,60.0249,-2.59867
651,-90,60.0933,2.4397,0.00495291,0.000729318,-0.000885412,0.00513101,0.000551215,-0.198503,0.00325254,0.0388121,1875,1114,60.0933,-2.43971
658,-90,60.2163,2.25818,0.00377048,0.000218096,-0.000447885,0.00382608,0.000162496,-0.123505,0.00249831,0.042771,1882,1114,60.2163,-2.25815
665,-90,60.1504,2.27844,0.00275268,-0.000155522,-0.000197703,0.00276606,-0.0001689,-0.0675671,0.00190284,0.0429861,1889,1114,60.1504,-2.27841
672,-90,60.0995,2.55664,0.00186836,-0.000391768,-9.23649e-05,0.00187212,-0.000395536,-0.0407765,0.0013987,0.0405955,1896,1114,60.0995,-2.55662
679,-90,60.0929,2.82544,0.000992176,-0.000529099,-0.000122931,0.00100205,-0.000538969,-0.0801149,0.000902996,0.0369018,1903,1114,60.0928,-2.82545
686,-90,60.231,2.69702,0.00052106,-0.000740989,-6.87815e-05,0.000524798,-0.000744727,-0.0542855,0.000736617,0.0349876,1910,1114,60.231,-2.69706
693,-90,60.2174,2.53845,0.000350149,-0.000888126,-1.74919e-05,0.000350396,-0.000888374,-0.0141223,0.000737343,0.0354104,1917,1114,60.2174,-2.53848
700,-90,60.1809,2.51794,0.000284106,-0.000956479,0.000139455,0.000299589,-0.000971962,0.110572,0.00076758,0.0309019,1924,1114,60.1809,-2.51797
707,-90,60.175,2.47534,5.55859e-06,-0.000851061,0.00036243,0.000138324,-0.000983826,0.351138,0.00070652,0.025251,1931,1114,60.175,-2.4754
714,-90,60.1677,2.39136,0,0,0,0,0,0,0,-1,1938,1114,60.1677,-2.39135
721,-90,56.3237,8.28308,0,0,0,0,0,0,0,-1,1945,1114,56.3238,-8.28314
728,-90,56.3613,7.90149,-0.00108492,4.0902e-05,0.00101923,0.000642334,-0.00168636,1.0377,0.00138878,0.0419805,1952,1114,56.3613,-7.90153
735,-90,56.1165,7.4115,-0.00176635,0.000618222,0.00138696,0.00125493,-0.00240305,1.14043,0.00214633,0.0374585,1959,1114,56.1165,-7.41148
742,-90,56.2318,6.92102,-0.00231106,0.0010518,0.00161157,0.0016994,-0.00295866,1.1887,0.00272189,0.0331364,1966,1114,56.2318,-6.92105
749,-90,56.572,6.36145,-0.00249064,0.00198077,0.000926817,0.00216526,-0.00267513,1.3743,0.00279977,0.0213445,1973,1114,56.5721,-6.36141
756,-90,56.5176,6.0116,-0.00278874,0.00206232,-1.78936e-05,0.00206238,-0.00278881,-1.56711,0.00281129,0.0178754,1980,1114,56.5176,-6.01163
763,-90,56.4364,5.6366,-0.00253537,0.00185477,-0.00191308,0.00257144,-0.00325204,-1.21236,0.00336983,0.0129109,1987,1114,56.4364,-5.63661
770,-90,56.3752,5.22131,-0.00179958,0.00129359,-0.00503983,0.0050188,-0.00552479,-0.934273,0.00608968,0.0160655,1994,1114,56.3752,-5.22126
777,-90,56.2385,4.91089,-0.00016072,-8.78759e-05,-0.00917996,0.00905573,-0.00930433,-0.787382,0.0106005,0.0155005,2001,1114,56.2384,-4.91084
784,-90,56.0693,4.6665,0.00242056,-0.0026221,-0.0142824,0.0144025,-0.014604,-0.698031,0.016747,0.0280345,2008,1114,56.0693,-4.66651
791,-90,56.085,4.46716,0.00642389,-0.0069452,-0.0206708,0.0214641,-0.0219854,-0.629015,0.0250862,0.0435258,2015,1114,56.085,-4.46718
798,-90,56.1729,4.12573,0.0124607,-0.0137353,-0.0285818,0.0308028,-0.0320774,-0.570546,0.0363064,0.0472086,2022,1114,56.1728,-4.12572
805,-90,56.1985,3.64063,0.020983,-0.0237411,-0.0380243,0.0427334,-0.0454915,-0.519587,0.050945,0.0460835,2029,1114,56.1985,-3.64061
812,-90,56.2856,3.27783,0.0322054,-0.0379836,-0.0486663,0.0571112,-0.0628894,-0.473016,0.0693091,0.0488542,2036,1114,56.2856,-3.27787
-700,-97,0,0,0,0,0,0,0,0,0,-1,524,1121,0,0
-693,-97,-40.0319,0.677734,0.059057,0.00720594,-0.0761025,0.113529,-0.0472658,-0.62123,0.0954262,0.0438385,531,1121,-40.0319,-0.6777
-686,-97,-39.1202,1.37659,0.0478782,0.000668116,-0.0610496,0.0897273,-0.041181,-0.600924,0.0772929,0.04808,538,1121,-39.1202,-1.37655
-679,-97,-38.3312,1.77185,0.0384123,-0.00242312,-0.0480963,0.0702453,-0.0342561,-0.584667,0.061515,0.0498672,545,1121,-38.3312,-1.77181
-672,-97,-41.0703,0.349243,0.0303392,-0.00341636,-0.0370745,0.0541969,-0.027274,-0.571797,0.0478857,0.0443228,552,1121,-41.0703,-0.349184
-665,-97,-41.2822,0.678345,0.0231501,-0.0031341,-0.0277851,0.0407444,-0.0207284,-0.564494,0.036113,0.0460808,559,1121,-41.2822,-0.678352
-658,-97,-41.3655,1.1283,0,0,0,0,0,0,0,-1,566,1121,-41.3655,-1.12831
-651,-97,-41.3102,1.59277,0.01144,-0.000806796,-0.0137232,0.020344,-0.00971082,-0.575551,0.0177105,0.0352829,573,1121,-41.3102,-1.59278
-644,-97,-41.3746,2.08484,0.00751574,0.000472508,-0.00897686,0.013637,-0.00564879,-0.598473,0.0114486,0.01372,580,1121,-41.3746,-2.08483
-637,-97,-41.4002,2.62756,0.00355879,0.00113583,-0.00487102,0.00736673,-0.00267211,-0.663515,0.00600347,0.0130497,587,1121,-41.4002,-2.62761
-630,-97,-41.4114,3.08521,0.0010222,0.00106661,-0.00178079,0.00282533,-0.00073652,-0.791632,0.00217111,0.0103691,594,1121,-41.4114,-3.08515
-623,-97,-41.436,3.52942,0.000931468,0.0010327,-0.000443523,0.00142849,0.000535682,-0.842213,0.000833283,0.0128366,601,1121,-41.436,-3.52945
-616,-97,-41.508,4.03918,0.00178005,0.000417041,-0.000671937,0.0020556,0.000141494,-0.389164,0.00132575,0.021209,608,1121,-41.508,-4.03916
-609,-97,-41.5992,4.55237,0.00239843,-0.000417848,-0.000990687,0.00271201,-0.000731428,-0.30655,0.00209482,0.0296996,615,1121,-41.5992,-4.55232
-602,-97,-41.6735,4.94788,0.00273768,-0.0014673,-0.0011144,0.00301476,-0.00174438,-0.243694,0.00278013,0.0288842,622,1121,-41.6735,-4.94783
-595,-97,-41.5416,5.47217,0.00263801,-0.0022305,-0.00128064,0.00295433,-0.00254682,-0.242151,0.00317899,0.0220316,629,1121,-41.5416,-5.4722
-588,-97,-41.6318,5.94458,0,0,0,0,0,0,0,-1,636,1121,-41.6318,-5.94454
-581,-97,-44.0868,2.68958,0,0,0,0,0,0,0,-1,643,1121,-44.0868,-2.68956
-574,-97,-45.4223,0.960449,0,0,0,0,0,0,0,-1,650,1121,-45.4223,-0.960435
-567,-97,-45.4155,0.842896,0.00359214,-0.00329183,-0.00185054,0.00405807,-0.00375776,-0.246652,0.00451358,0.0349526,657,1121,-45.4155,-0.842845
-560,-97,-45.4108,0.643311,0.00356805,-0.00306075,-0.00194262,0.0040954,-0.0035881,-0.265074,0.00443929,0.0386953,664,1121,-45.4108,-0.643311
-553,-97,-45.3807,0.80188,0.00266847,-0.00238606,-0.00218024,0.00347895,-0.00319653,-0.355907,0.00385524,0.0414339,671,1121,-45.3807,-0.801826
-546,-97,-45.4137,1.09546,0.00156325,-0.00112684,-0.00245235,0.0030152,-0.00257879,-0.534563,0.00323296,0.0437995,678,1121,-45.4137,-1.09541
-539,-97,-45.4297,0.682251,0.00138457,0.000327761,-0.0026848,0.00359247,-0.00188014,-0.688233,0.00321076,0.0419714,685,1121,-45.4297,-0.682224
-532,-97,-45.4598,0.449707,0.00145218,0.00159943,-0.00319832,0.00472497,-0.00167336,-0.796906,0.00383157,0.0400504,692,1121,-45.4598,-0.449664
-525,-97,0,0,0,0,0,0,0,0,0,-1,699,1121,0,0
-518,-97,0,0,0,0,0,0,0,0,0,-1,706,1121,0,0
-511,-97,0,0,0,0,0,0,0,0,0,-1,713,1121,0,0
-504,-97,0,0,0,0,0,0,0,0,0,-1,720,1121,0,0
-497,-97,0,0,0,0,0,0,0,0,0,-1,727,1121,0,0
-490,-97,0,0,0,0,0,0,0,0,0,-1,734,1121,0,0
-483,-97,0,0,0,0,0,0,0,0,0,-1,741,1121,0,0
-476,-97,0,0,0,0,0,0,0,0,0,-1,748,1121,0,0
-469,-97,0,0,0,0,0,0,0,0,0,-1,755,1121,0,0
-462,-97,0,0,0,0,0,0,0,0,0,-1,762,1121,0,0
-455,-97,0,0,0,0,0,0,0,0,0,-1,769,1121,0,0
-448,-97,0,0,0,0,0,0,0,0,0,-1,776,1121,0,0
-441,-97,0,0,0,0,0,0,0,0,0,-1,783,1121,0,0
-434,-97,0,0,0,0,0,0,0,0,0,-1,790,1121,0,0
-427,-97,0,0,0,0,0,0,0,0,0,-1,797,1121,0,0
-420,-97,0,0,0,0,0,0,0,0,0,-1,804,1121,0,0
-413,-97,0,0,0,0,0,0,0,0,0,-1,811,1121,0,0
-406,-97,0,0,0,0,0,0,0,0,0,-1,818,1121,0,0
-399,-97,0,0,0,0,0,0,0,0,0,-1,825,1121,0,0
-392,-97,0,0,0,0,0,0,0,0,0,-1,832,1121,0,0
-385,-97,0,0,0,0,0,0,0,0,0,-1,839,1121,0,0
-378,-97,0,0,0,0,0,0,0,0,0,-1,846,1121,0,0
-371,-97,0,0,0,0,0,0,0,0,0,-1,853,1121,0,0
-364,-97,0,0,0,0,0,0,0,0,0,-1,860,1121,0,0
-357,-97,0,0,0,0,0,0,0,0,0,-1,867,1121,0,0
-350,-97,0,0,0,0,0,0,0,0,0,-1,874,1121,0,0
-343,-97,0,0,0,0,0,0,0,0,0,-1,881,1121,0,0
-336,-97,0,0,0,0,0,0,0,0,0,-1,888,1121,0,0
-329,-97,0,0,0,0,0,0,0,0,0,-1,895,1121,0,0
-322,-97,0,0,0,0,0,0,0,0,0,-1,902,1121,0,0
-315,-97,0,0,0,0,0,0,0,0,0,-1,909,1121,0,0
-308,-97,0,0,0,0,0,0,0,0,0,-1,916,1121,0,0
-301,-97,0,0,0,0,0,0,0,0,0,-1,923,1121,0,0
-294,-97,0,0,0,0,0,0,0,0,0,-1,930,1121,0,0
-287,-97,0,0,0,0,0,0,0,0,0,-1,937,1121,0,0
-280,-97,0,0,0,0,0,0,0,0,0,-1,944,1121,0,0
-273,-97,0,0,0,0,0,0,0,0,0,-1,951,1121,0,0
-266,-97,0,0,0,0,0,0,0,0,0,-1,958,1121,0,0
-259,-97,0,0,0,0,0,0,0,0,0,-1,965,1121,0,0
-252,-97,0,0,0,0,0,0,0,0,0,-1,972,1121,0,0
-245,-97,0,0,0,0,0,0,0,0,0,-1,979,1121,0,0
-238,-97,0,0,0,0,0,0,0,0,0,-1,986,1121,0,0
-231,-97,0,0,0,0,0,0,0,0,0,-1,993,1121,0,0
-224,-97,0,0,0,0,0,0,0,0,0,-1,1000,1121,0,0
-217,-97,0,0,0,0,0,0,0,0,0,-1,1007,1121,0,0
-210,-97,0,0,0,0,0,0,0,0,0,-1,1014,1121,0,0
-203,-97,0,0,0,0,0,0,0,0,0,-1,1021,1121,0,0
-196,-97,0,0,0,0,0,0,0,0,0,-1,1028,1121,0,0
-189,-97,0,0,0,0,0,0,0,0,0,-1,1035,1121,0,0
-182,-97,0,0,0,0,0,0,0,0,0,-1,1042,1121,0,0
-175,-97,0,0,0,0,0,0,0,0,0,-1,1049,1121,0,0
-168,-97,0,0,0,0,0,0,0,0,0,-1,1056,1121,0,0
-161,-97,0,0,0,0,0,0,0,0,0,-1,1063,1121,0,0
-154,-97,0,0,0,0,0,0,0,0,0,-1,1070,1121,0,0
-147,-97,0,0,0,0,0,0,0,0,0,-1,1077,1121,0,0
-140,-97,0,0,0,0,0,0,0,0,0,-1,1084,1121,0,0
-133,-97,0,0,0,0,0,0,0,0,0,-1,1091,1121,0,0
-126,-97,0,0,0,0,0,0,0,0,0,-1,1098,1121,0,0
-119,-97,0,0,0,0,0,0,0,0,0,-1,1105,1121,0,0
-112,-97,0,0,0,0,0,0,0,0,0,-1,1112,1121,0,0
-105,-97,0,0,0,0,0,0,0,0,0,-1,1119,1121,0,0
-98,-97,0,0,0,0,0,0,0,0,0,-1,1126,1121,0,0
-91,-97,0,0,0,0,0,0,0,0,0,-1,1133,1121,0,0
-84,-97,0,0,0,0,0,0,0,0,0,-1,1140,1121,0,0
-77,-97,0,0,0,0,0,0,0,0,0,-1,1147,1121,0,0
-70,-97,0,0,0,0,0,0,0,0,0,-1,1154,1121,0,0
-63,-97,0,0,0,0,0,0,0,0,0,-1,1161,1121,0,0
-56,-97,0,0,0,0,0,0,0,0,0,-1,1168,1121,0,0
-49,-97,0,0,0,0,0,0,0,0,0,-1,1175,1121,0,0
-42,-97,0,0,0,0,0,0,0,0,0,-1,1182,1121,0,0
-35,-97,0,0,0,0,0,0,0,0,0,-1,1189,1121,0,0
-28,-97,0,0,0,0,0,0,0,0,0,-1,1196,1121,0,0
-21,-97,0,0,0,0,0,0,0,0,0,-1,1203,1121,0,0
-14,-97,0,0,0,0,0,0,0,0,0,-1,1210,1121,0,0
-7,-97,0,0,0,0,0,0,0,0,0,-1,1217,1121,0,0
0,-97,0,0,0,0,0,0,0,0,0,-1,1224,1121,0,0
7,-97,0,0,0,0,0,0,0,0,0,-1,1231,1121,0,0
14,-97,0,0,0,0,0,0,0,0,0,-1,1238,1121,0,0
21,-97,0,0,0,0,0,0,0,0,0,-1,1245,1121,0,0
28,-97,0,0,0,0,0,0,0,0,0,-1,1252,1121,0,0
35,-97,0,0,0,0,0,0,0,0,0,-1,1259,1121,0,0
42,-97,0,0,0,0,0,0,0,0,0,-1,1266,1121,0,0
49,-97,0,0,0,0,0,0,0,0,0,-1,1273,1121,0,0
56,-97,0,0,0,0,0,0,0,0,0,-1,1280,1121,0,0
63,-97,0,0,0,0,0,0,0,0,0,-1,1287,1121,0,0
70,-97,0,0,0,0,0,0,0,0,0,-1,1294,1121,0,0
77,-97,0,0,0,0,0,0,0,0,0,-1,1301,1121,0,0
84,-97,0,0,0,0,0,0,0,0,0,-1,1308,1121,0,0
91,-97,0,0,0,0,0,0,0,0,0,-1,1315,1121,0,0
98,-97,0,0,0,0,0,0,0,0,0,-1,1322,1121,0,0
105,-97,0,0,0,0,0,0,0,0,0,-1,1329,1121,0,0
112,-97,0,0,0,0,0,0,0,0,0,-1,1336,1121,0,0
119,-97,0,0,0,0,0,0,0,0,0,-1,1343,1121,0,0
126,-97,0,0,0,0,0,0,0,0,0,-1,1350,1121,0,0
133,-97,0,0,0,0,0,0,0,0,0,-1,1357,1121,0,0
140,-97,0,0,0,0,0,0,0,0,0,-1,1364,1121,0,0
147,-97,0,0,0,0,0,0,0,0,0,-1,1371,1121,0,0
154,-97,0,0,0,0,0,0,0,0,0,-1,1378,1121,0,0
161,-97,0,0,0,0,0,0,0,0,0,-1,1385,1121,0,0
168,-97,0,0,0,0,0,0,0,0,0,-1,1392,1121,0,0
175,-97,0,0,0,0,0,0,0,0,0,-1,1399,1121,0,0
182,-97,0,0,0,0,0,0,0,0,0,-1,1406,1121,0,0
189,-97,0,0,0,0,0,0,0,0,0,-1,1413,1121,0,0
196,-97,0,0,0,0,0,0,0,0,0,-1,1420,1121,0,0
203,-97,0,0,0,0,0,0,0,0,0,-1,1427,1121,0,0
210,-97,0,0,0,0,0,0,0,0,0,-1,1434,1121,0,0
217,-97,0,0,0,0,0,0,0,0,0,-1,1441,1121,0,0
224,-97,0,0,0,0,0,0,0,0,0,-1,1448,1121,0,0
231,-97,0,0,0,0,0,0,0,0,0,-1,1455,1121,0,0
238,-97,0,0,0,0,0,0,0,0,0,-1,1462,1121,0,0
245,-97,0,0,0,0,0,0,0,0,0,-1,1469,1121,0,0
252,-97,0,0,0,0,0,0,0,0,0,-1,1476,1121,0,0
259,-97,0,0,0,0,0,0,0,0,0,-1,1483,1121,0,0
266,-97,0,0,0,0,0,0,0,0,0,-1,1490,1121,0,0
273,-97,0,0,0,0,0,0,0,0,0,-1,1497,1121,0,0
280,-97,0,0,0,0,0,0,0,0,0,-1,1504,1121,0,0
287,-97,0,0,0,0,0,0,0,0,0,-1,1511,1121,0,0
294,-97,0,0,0,0,0,0,0,0,0,-1,1518,1121,0,0
301,-97,0,0,0,0,0,0,0,0,0,-1,1525,1121,0,0
308,-97,0,0,0,0,0,0,0,0,0,-1,1532,1121,0,0
315,-97,0,0,0,0,0,0,0,0,0,-1,1539,1121,0,0
322,-97,0,0,0,0,0,0,0,0,0,-1,1546,1121,0,0
329,-97,0,0,0,0,0,0,0,0,0,-1,1553,1121,0,0
336,-97,0,0,0,0,0,0,0,0,0,-1,1560,1121,0,0
343,-97,0,0,0,0,0,0,0,0,0,-1,1567,1121,0,0
350,-97,0,0,0,0,0,0,0,0,0,-1,1574,1121,0,0
357,-97,0,0,0,0,0,0,0,0,0,-1,1581,1121,0,0
364,-97,0,0,0,0,0,0,0,0,0,-1,1588,1121,0,0
371,-97,0,0,0,0,0,0,0,0,0,-1,1595,1121,0,0
378,-97,0,0,0,0,0,0,0,0,0,-1,1602,1121,0,0
385,-97,0,0,0,0,0,0,0,0,0,-1,1609,1121,0,0
392,-97,0,0,0,0,0,0,0,0,0,-1,1616,1121,0,0
399,-97,0,0,0,0,0,0,0,0,0,-1,1623,1121,0,0
406,-97,0,0,0,0,0,0,0,0,0,-1,1630,1121,0,0
413,-97,0,0,0,0,0,0,0,0,0,-1,1637,1121,0,0
420,-97,0,0,0,0,0,0,0,0,0,-1,1644,1121,0,0
427,-97,0,0,0,0,0,0,0,0,0,-1,1651,1121,0,0
434,-97,0,0,0,0,0,0,0,0,0,-1,1658,1121,0,0
441,-97,0,0,0,0,0,0,0,0,0,-1,1665,1121,0,0
448,-97,0,0,0,0,0,0,0,0,0,-1,1672,1121,0,0
455,-97,0,0,0,0,0,0,0,0,0,-1,1679,1121,0,0
462,-97,0,0,0,0,0,0,0,0,0,-1,1686,1121,0,0
469,-97,0,0,0,0,0,0,0,0,0,-1,1693,1121,0,0
476,-97,0,0,0,0,0,0,0,0,0,-1,1700,1121,0,0
483,-97,0,0,0,0,0,0,0,0,0,-1,1707,1121,0,0
490,-97,0,0,0,0,0,0,0,0,0,-1,1714,1121,0,0
497,-97,0,0,0,0,0,0,0,0,0,-1,1721,1121,0,0
504,-97,0,0,0,0,0,0,0,0,0,-1,1728,1121,0,0
511,-97,0,0,0,0,0,0,0,0,0,-1,1735,1121,0,0
518,-97,0,0,0,0,0,0,0,0,0,-1,1742,1121,0,0
525,-97,0,0,0,0,0,0,0,0,0,-1,1749,1121,0,0
532,-97,0,0,0,0,0,0,0,0,0,-1,1756,1121,0,0
539,-97,0,0,0,0,0,0,0,0,0,-1,1763,1121,0,0
546,-97,0,0,0,0,0,0,0,0,0,-1,1770,1121,0,0
553,-97,0,0,0,0,0,0,0,0,0,-1,1777,1121,0,0
560,-97,0,0,0,0,0,0,0,0,0,-1,1784,1121,0,0
567,-97,0,0,0,0,0,0,0,0,0,-1,1791,1121,0,0
574,-97,0,0,0,0,0,0,0,0,0,-1,1798,1121,0,0
581,-97,0,0,0,0,0,0,0,0,0,-1,1805,1121,0,0
588,-97,0,0,0,0,0,0,0,0,0,-1,1812,1121,0,0
595,-97,0,0,0,0,0,0,0,0,0,-1,1819,1121,0,0
602,-97,0,0,0,0,0,0,0,0,0,-1,1826,1121,0,0
609,-97,0,0,0,0,0,0,0,0,0,-1,1833,1121,0,0
616,-97,0,0,0,0,0,0,0,0,0,-1,1840,1121,0,0
623,-97,0,0,0,0,0,0,0,0,0,-1,1847,1121,0,0
630,-97,0,0,0,0,0,0,0,0,0,-1,1854,1121,0,0
637,-97,0,0,0,0,0,0,0,0,0,-1,1861,1121,0,0
644,-97,60.0807,2.66162,0.00667382,0.00106425,-0.00141315,0.00700971,0.000728369,-0.233356,0.00445026,0.0359327,1868,1121,60.0807,-2.6616
651,-97,60.0884,2.52698,0.00503323,0.000488114,-0.000604924,0.00511237,0.000408981,-0.130077,0.00328043,0.0365217,1875,1121,60.0884,-2.52696
658,-97,60.1406,2.42529,0.00383701,6.1675e-05,-0.000208138,0.00384845,5.02348e-05,-0.054909,0.00254906,0.0401054,1882,1121,60.1407,-2.42525
665,-97,60.2321,2.25366,0.00277657,-0.000252326,3.4258e-06,0.00277657,-0.00025233,0.00113104,0.00194063,0.0438512,1889,1121,60.232,-2.25364
672,-97,60.1653,2.49597,0.00182585,-0.0004562,5.90307e-05,0.00182737,-0.000457726,0.0258444,0.00139606,0.0423152,1896,1121,60.1653,-2.49599
679,-97,60.1431,3.02844,0.000895518,-0.000619189,-1.39791e-05,0.000895647,-0.000619318,-0.00922788,0.000879502,0.0413458,1903,1121,60.1431,-3.02844
686,-97,60.1985,2.74292,0.000427591,-0.000805758,-1.8116e-05,0.000427857,-0.000806024,-0.0146843,0.000723448,0.037171,1910,1121,60.1985,-2.74294
693,-97,60.1879,2.52942,0.000264665,-0.00093967,-2.13774e-05,0.000265045,-0.00094005,-0.0177429,0.000731239,0.0336444,1917,1121,60.1878,-2.52939
700,-97,60.1647,2.48767,0.00020994,-0.00101907,0.000101289,0.000218232,-0.00102736,0.0816804,0.000768059,0.0262947,1924,1121,60.1647,-2.48762
707,-97,60.1525,2.49072,-6.51671e-05,-0.000924791,0.000303239,3.10366e-05,-0.00102099,0.307209,0.000691241,0.0247649,1931,1121,60.1525,-2.49074
714,-97,60.1158,2.38904,0,0,0,0,0,0,0,-1,1938,1121,60.1158,-2.38905
721,-97,56.0591,8.15649,0,0,0,0,0,0,0,-1,1945,1121,56.0591,-8.15648
728,-97,56.0131,7.85352,-0.00107306,-8.79696e-05,0.000848118,0.000400252,-0.00156129,1.04847,0.0011968,0.0302219,1952,1121,56.0131,-7.85346
735,-97,55.9749,7.32178,-0.00168383,0.000417866,0.00126054,0.00100813,-0.00227409,1.13286,0.00194141,0.0286555,1959,1121,55.9749,-7.32173
742,-97,55.9387,6.89441,-0.00215046,0.000731803,0.00162298,0.00146114,-0.00287979,1.14846,0.00255046,0.0246379,1966,1121,55.9387,-6.89439
749,-97,56.0439,6.41284,-0.00220048,0.00174209,0.00103613,0.00199781,-0.00245619,1.32883,0.00257606,0.0240427,1973,1121,56.0439,-6.41285
756,-97,56.0669,5.97437,-0.0024413,0.00183725,0.000126816,0.001841,-0.00244505,1.54119,0.00248273,0.016686,1980,1121,56.0669,-5.97434
763,-97,55.9594,5.61646,-0.00205929,0.00169851,-0.00177419,0.0024038,-0.00276458,-1.19242,0.00298638,0.013262,1987,1121,55.9593,-5.61647
770,-97,55.887,5.24719,-0.00111931,0.0012878,-0.00489689,0.00512687,-0.00495838,-0.905899,0.00582299,0.0123959,1994,1121,55.8869,-5.24722
777,-97,55.8323,4.86011,0.000704977,0.000170752,-0.00907904,0.00952084,-0.00864511,-0.770692,0.0104922,0.0167605,2001,1121,55.8323,-4.86012
784,-97,55.7415,4.67419,0.0034693,-0.00198894,-0.0143864,0.0153832,-0.0139028,-0.691661,0.0169155,0.037175,2008,1121,55.7414,-4.67424
791,-97,55.7197,4.59888,0.00768818,-0.00575158,-0.0212036,0.0232112,-0.0212746,-0.631944,0.025692,0.0461095,2015,1121,55.7198,-4.59888
798,-97,55.6836,4.33545,0.0139225,-0.0117242,-0.0298656,0.0336014,-0.0314031,-0.582615,0.0375375,0.0470744,2022,1121,55.6836,-4.3355
805,-97,55.6797,3.94971,0,0,0,0,0,0,0,-1,2029,1121,55.6797,-3.94971
812,-97,55.7703,3.76465,0,0,0,0,0,0,0,-1,2036,1121,55.7703,-3.76462
-700,-104,0,0,0,0,0,0,0,0,0,-1,524,1128,0,0
-693,-104,-37.5864,0.674683,0,0,0,0,0,0,0,-1,531,1128,-37.5864,-0.67467
-686,-104,-37.2651,1.84192,0,0,0,0,0,0,0,-1,538,1128,-37.2651,-1.84187
-679,-104,-41.3971,0.16626,0,0,0,0,0,0,0,-1,545,1128,-41.3971,-0.166271
-672,-104,-41.5746,0.543945,0.0243312,0.00239137,-0.0332369,0.0483617,-0.0216391,-0.626001,0.041385,0.0472915,552,1128,-41.5746,-0.543966
-665,-104,-41.8428,0.884521,0.0183917,0.000862636,-0.0249599,0.0360811,-0.0168268,-0.616551,0.0312134,0.0456447,559,1128,-41.8429,-0.884557
-658,-104,-40.9731,1.08044,0,0,0,0,0,0,0,-1,566,1128,-40.9731,-1.08048
-651,-104,-40.9166,1.55396,0.00845338,0.000930836,-0.0123019,0.0175562,-0.00817194,-0.637038,0.0151799,0.0464966,573,1128,-40.9165,-1.55394
-644,-104,-40.8791,2.09839,0.00513585,0.00147488,-0.00795536,0.0114686,-0.00485787,-0.672319,0.00968024,0.0175355,580,1128,-40.8791,-2.09834
-637,-104,-40.8732,2.59924,0.00185253,0.00165227,-0.00419177,0.00594537,-0.00244057,-0.773457,0.00498058,0.0117286,587,1128,-40.8732,-2.59923
-630,-104,-40.8816,3.02026,-5.18294e-05,0.00147851,-0.00144657,0.00234982,-0.000923133,-1.02867,0.00194856,0.0156288,594,1128,-40.8816,-3.02021
-623,-104,-40.9335,3.52161,0.000335628,0.00123825,-0.000372709,0.00137226,0.000201625,-1.22565,0.000855586,0.0181531,601,1128,-40.9335,-3.52164
-616,-104,-41.2241,4.09607,0.00135406,0.000525891,-0.000663683,0.00172224,0.000157708,-0.506488,0.00109937,0.0271231,608,1128,-41.2241,-4.09609
-609,-104,-41.4193,4.46509,0.00196276,-0.000410859,-0.00101733,0.00233911,-0.00078721,-0.354328,0.00187765,0.0349269,615,1128,-41.4192,-4.46508
-602,-104,-41.2076,4.98108,0.00219712,-0.00136471,-0.00104114,0.00247913,-0.00164671,-0.264514,0.00239816,0.0297771,622,1128,-41.2076,-4.98103
-595,-104,-40.9891,5.57166,0.00204673,-0.00207602,-0.00115981,0.00235061,-0.0023799,-0.256248,0.00273118,0.0214396,629,1128,-40.9891,-5.57162
-588,-104,-40.932,6.21814,0,0,0,0,0,0,0,-1,636,1128,-40.932,-6.21809
-581,-104,-23.9373,2.85864,0,0,0,0,0,0,0,-1,643,1128,-23.9373,-2.85861
-574,-104,-45.4005,0.940186,0,0,0,0,0,0,0,-1,650,1128,-45.4004,-0.940165
-567,-104,-45.4507,0.859741,0.00325599,-0.00323356,-0.0017,0.00367435,-0.00365192,-0.2413,0.00422983,0.0373851,657,1128,-45.4507,-0.8597
-560,-104,-45.5017,0.612671,0.00350188,-0.00313603,-0.00178798,0.00395285,-0.003587,-0.24707,0.00435484,0.0406504,664,1128,-45.5017,-0.612684
-553,-104,-45.527,0.38147,0.00275075,-0.00261304,-0.00212985,0.00349359,-0.00335588,-0.335585,0.00395481,0.0449132,671,1128,-45.5271,-0.381478
-546,-104,-45.535,0.404907,0.00170853,-0.00147415,-0.00258565,0.0031533,-0.00291892,-0.509547,0.00350667,0.0428847,678,1128,-45.535,-0.404922
-539,-104,-45.5522,0.318481,0.00152671,-0.000168386,-0.00307081,0.00386479,-0.00250646,-0.65075,0.00370621,0.0376469,685,1128,-45.5522,-0.318441
-532,-104,-45.4313,0.558472,0.00162398,0.00094786,-0.00381093,0.00511181,-0.00253997,-0.74116,0.00450017,0.0383699,692,1128,-45.4313,-0.558442
-525,-104,-45.4564,0.575439,0.00179759,0.00183014,-0.00484137,0.00665526,-0.00302753,-0.787079,0.00571965,0.0374421,699,1128,-45.4564,-0.575484
-518,-104,0,0,0,0,0,0,0,0,0,-1,706,1128,0,0
-511,-104,0,0,0,0,0,0,0,0,0,-1,713,1128,0,0
-504,-104,0,0,0,0,0,0,0,0,0,-1,720,1128,0,0
-497,-104,0,0,0,0,0,0,0,0,0,-1,727,1128,0,0
-490,-104,0,0,0,0,0,0,0,0,0,-1,734,1128,0,0
-483,-104,0,0,0,0,0,0,0,0,0,-1,741,1128,0,0
-476,-104,0,0,0,0,0,0,0,0,0,-1,748,1128,0,0
-469,-104,0,0,0,0,0,0,0,0,0,-1,755,1128,0,0
-462,-104,0,0,0,0,0,0,0,0,0,-1,762,1128,0,0
-455,-104,0,0,0,0,0,0,0,0,0,-1,769,1128,0,0
-448,-104,0,0,0,0,0,0,0,0,0,-1,776,1128,0,0
-441,-104,0,0,0,0,0,0,0,0,0,-1,783,1128,0,0
-434,-104,0,0,0,0,0,0,0,0,0,-1,790,1128,0,0
-427,-104,0,0,0,0,0,0,0,0,0,-1,797,1128,0,0
-420,-104,0,0,0,0,0,0,0,0,0,-1,804,1128,0,0
-413,-104,0,0,0,0,0,0,0,0,0,-1,811,1128,0,0
-406,-104,0,0,0,0,0,0,0,0,0,-1,818,1128,0,0
-399,-104,0,0,0,0,0,0,0,0,0,-1,825,1128,0,0
-392,-104,0,0,0,0,0,0,0,0,0,-1,832,1128,0,0
-385,-104,0,0,0,0,0,0,0,0,0,-1,839,1128,0,0
-378,-104,0,0,0,0,0,0,0,0,0,-1,846,1128,0,0
-371,-104,0,0,0,0,0,0,0,0,0,-1,853,1128,0,0
-364,-104,0,0,0,0,0,0,0,0,0,-1,860,1128,0,0
-357,-104,0,0,0,0,0,0,0,0,0,-1,867,1128,0,0
-350,-104,0,0,0,0,0,0,0,0,0,-1,874,1128,0,0
-343,-104,0,0,0,0,0,0,0,0,0,-1,881,1128,0,0
-336,-104,0,0,0,0,0,0,0,0,0,-1,888,1128,0,0
-329,-104,0,0,0,0,0,0,0,0,0,-1,895,1128,0,0
-322,-104,0,0,0,0,0,0,0,0,0,-1,902,1128,0,0
-315,-104,0,0,0,0,0,0,0,0,0,-1,909,1128,0,0
-308,-104,0,0,0,0,0,0,0,0,0,-1,916,1128,0,0
-301,-104,0,0,0,0,0,0,0,0,0,-1,923,1128,0,0
-294,-104,0,0,0,0,0,0,0,0,0,-1,930,1128,0,0
-287,-104,0,0,0,0,0,0,0,0,0,-1,937,1128,0,0
-280,-104,0,0,0,0,0,0,0,0,0,-1,944,1128,0,0
-273,-104,0,0,0,0,0,0,0,0,0,-1,951,1128,0,0
-266,-104,0,0,0,0,0,0,0,0,0,-1,958,1128,0,0
-259,-104,0,0,0,0,0,0,0,0,0,-1,965,1128,0,0
-252,-104,0,0,0,0,0,0,0,0,0,-1,972,1128,0,0
-245,-104,0,0,0,0,0,0,0,0,0,-1,979,1128,0,0
-238,-104,0,0,0,0,0,0,0,0,0,-1,986,1128,0,0
-231,-104,0,0,0,0,0,0,0,0,0,-1,993,1128,0,0
-224,-104,0,0,0,0,0,0,0,0,0,-1,1000,1128,0,0
-217,-104,0,0,0,0,0,0,0,0,0,-1,1007,1128,0,0
-210,-104,0,0,0,0,0,0,0,0,0,-1,1014,1128,0,0
-203,-104,0,0,0,0,0,0,0,0,0,-1,1021,1128,0,0
-196,-104,0,0,0,0,0,0,0,0,0,-1,1028,1128,0,0
-189,-104,0,0,0,0,0,0,0,0,0,-1,1035,1128,0,0
-182,-104,0,0,0,0,0,0,0,0,0,-1,1042,1128,0,0
-175,-104,0,0,0,0,0,0,0,0,0,-1,1049,1128,0,0
-168,-104,0,0,0,0,0,0,0,0,0,-1,1056,1128,0,0
-161,-104,0,0,0,0,0,0,0,0,0,-1,1063,1128,0,0
-154,-104,0,0,0,0,0,0,0,0,0,-1,1070,1128,0,0
-147,-104,0,0,0,0,0,0,0,0,0,-1,1077,1128,0,0
-140,-104,0,0,0,0,0,0,0,0,0,-1,1084,1128,0,0
-133,-104,0,0,0,0,0,0,0,0,0,-1,1091,1128,0,0
-126,-104,0,0,0,0,0,0,0,0,0,-1,1098,1128,0,0
-119,-104,0,0,0,0,0,0,0,0,0,-1,1105,1128,0,0
-112,-104,0,0,0,0,0,0,0,0,0,-1,1112,1128,0,0
-105,-104,0,0,0,0,0,0,0,0,0,-1,1119,1128,0,0
-98,-104,0,0,0,0,0,0,0,0,0,-1,1126,1128,0,0
-91,-104,0,0,0,0,0,0,0,0,0,-1,1133,1128,0,0
-84,-104,0,0,0,0,0,0,0,0,0,-1,1140,1128,0,0
-77,-104,0,0,0,0,0,0,0,0,0,-1,1147,1128,0,0
-70,-104,0,0,0,0,0,0,0,0,0,-1,1154,1128,0,0
-63,-104,0,0,0,0,0,0,0,0,0,-1,1161,1128,0,0
-56,-104,0,0,0,0,0,0,0,0,0,-1,1168,1128,0,0
-49,-104,0,0,0,0,0,0,0,0,0,-1,1175,1128,0,0
-42,-104,0,0,0,0,0,0,0,0,0,-1,1182,1128,0,0
-35,-104,0,0,0,0,0,0,0,0,0,-1,1189,1128,0,0
-28,-104,0,0,0,0,0,0,0,0,0,-1,1196,1128,0,0
-21,-104,0,0,0,0,0,0,0,0,0,-1,1203,1128,0,0
-14,-104,0,0,0,0,0,0,0,0,0,-1,1210,1128,0,0
-7,-104,0,0,0,0,0,0,0,0,0,-1,1217,1128,0,0
0,-104,0,0,0,0,0,0,0,0,0,-1,1224,1128,0,0
7,-104,0,0,0,0,0,0,0,0,0,-1,1231,1128,0,0
14,-104,0,0,0,0,0,0,0,0,0,-1,1238,1128,0,0
21,-104,0,0,0,0,0,0,0,0,0,-1,1245,1128,0,0
28,-104,0,0,0,0,0,0,0,0,0,-1,1252,1128,0,0
35,-104,0,0,0,0,0,0,0,0,0,-1,1259,1128,0,0
42,-104,0,0,0,0,0,0,0,0,0,-1,1266,1128,0,0
49,-104,0,0,0,0,0,0,0,0,0,-1,1273,1128,0,0
56,-104,0,0,0,0,0,0,0,0,0,-1,1280,1128,0,0
63,-104,0,0,0,0,0,0,0,0,0,-1,1287,1128,0,0
70,-104,0,0,0,0,0,0,0,0,0,-1,1294,1128,0,0
77,-104,0,0,0,0,0,0,0,0,0,-1,1301,1128,0,0
84,-104,0,0,0,0,0,0,0,0,0,-1,1308,1128,0,0
91,-104,0,0,0,0,0,0,0,0,0,-1,1315,1128,0,0
98,-104,0,0,0,0,0,0,0,0,0,-1,1322,1128,0,0
105,-104,0,0,0,0,0,0,0,0,0,-1,1329,1128,0,0
112,-104,0,0,0,0,0,0,0,0,0,-1,1336,1128,0,0
119,-104,0,0,0,0,0,0,0,0,0,-1,1343,1128,0,0
126,-104,0,0,0,0,0,0,0,0,0,-1,1350,1128,0,0
133,-104,0,0,0,0,0,0,0,0,0,-1,1357,1128,0,0
140,-104,0,0,0,0,0,0,0,0,0,-1,1364,1128,0,0
147,-104,0,0,0,0,0,0,0,0,0,-1,1371,1128,0,0
154,-104,0,0,0,0,0,0,0,0,0,-1,1378,1128,0,0
161,-104,0,0,0,0,0,0,0,0,0,-1,1385,1128,0,0
168,-104,0,0,0,0,0,0,0,0,0,-1,1392,1128,0,0
175,-104,0,0,0,0,0,0,0,0,0,-1,1399,1128,0,0
182,-104,0,0,0,0,0,0,0,0,0,-1,1406,1128,0,0
189,-104,0,0,0,0,0,0,0,0,0,-1,1413,1128,0,0
196,-104,0,0,0,0,0,0,0,0,0,-1,1420,1128,0,0
203,-104,0,0,0,0,0,0,0,0,0,-1,1427,1128,0,0
210,-104,0,0,0,0,0,0,0,0,0,-1,1434,1128,0,0
217,-104,0,0,0,0,0,0,0,0,0,-1,1441,1128,0,0
224,-104,0,0,0,0,0,0,0,0,0,-1,1448,1128,0,0
231,-104,0,0,0,0,0,0,0,0,0,-1,1455,1128,0,0
238,-104,0,0,0,0,0,0,0,0,0,-1,1462,1128,0,0
245,-104,0,0,0,0,0,0,0,0,0,-1,1469,1128,0,0
252,-104,0,0,0,0,0,0,0,0,0,-1,1476,1128,0,0
259,-104,0,0,0,0,0,0,0,0,0,-1,1483,1128,0,0
266,-104,0,0,0,0,0,0,0,0,0,-1,1490,1128,0,0
273,-104,0,0,0,0,0,0,0,0,0,-1,1497,1128,0,0
280,-104,0,0,0,0,0,0,0,0,0,-1,1504,1128,0,0
287,-104,0,0,0,0,0,0,0,0,0,-1,1511,1128,0,0
294,-104,0,0,0,0,0,0,0,0,0,-1,1518,1128,0,0
301,-104,0,0,0,0,0,0,0,0,0,-1,1525,1128,0,0
308,-104,0,0,0,0,0,0,0,0,0,-1,1532,1128,0,0
315,-104,0,0,0,0,0,0,0,0,0,-1,1539,1128,0,0
322,-104,0,0,0,0,0,0,0,0,0,-1,1546,1128,0,0
329,-104,0,0,0,0,0,0,0,0,0,-1,1553,1128,0,0
336,-104,0,0,0,0,0,0,0,0,0,-1,1560,1128,0,0
343,-104,0,0,0,0,0,0,0,0,0,-1,1567,1128,0,0
350,-104,0,0,0,0,0,0,0,0,0,-1,1574,1128,0,0
357,-104,0,0,0,0,0,0,0,0,0,-1,1581,1128,0,0
364,-104,0,0,0,0,0,0,0,0,0,-1,1588,1128,0,0
371,-104,0,0,0,0,0,0,0,0,0,-1,1595,1128,0,0
378,-104,0,0,0,0,0,0,0,0,0,-1,1602,1128,0,0
385,-104,0,0,0,0,0,0,0,0,0,-1,1609,1128,0,0
392,-104,0,0,0,0,0,0,0,0,0,-1,1616,1128,0,0
399,-104,0,0,0,0,0,0,0,0,0,-1,1623,1128,0,0
406,-104,0,0,0,0,0,0,0,0,0,-1,1630,1128,0,0
413,-104,0,0,0,0,0,0,0,0,0,-1,1637,1128,0,0
420,-104,0,0,0,0,0,0,0,0,0,-1,1644,1128,0,0
427,-104,0,0,0,0,0,0,0,0,0,-1,1651,1128,0,0
434,-104,0,0,0,0,0,0,0,0,0,-1,1658,1128,0,0
441,-104,0,0,0,0,0,0,0,0,0,-1,1665,1128,0,0
448,-104,0,0,0,0,0,0,0,0,0,-1,1672,1128,0,0
455,-104,0,0,0,0,0,0,0,0,0,-1,1679,1128,0,0
462,-104,0,0,0,0,0,0,0,0,0,-1,1686,1128,0,0
469,-104,0,0,0,0,0,0,0,0,0,-1,1693,1128,0,0
476,-104,0,0,0,0,0,0,0,0,0,-1,1700,1128,0,0
483,-104,0,0,0,0,0,0,0,0,0,-1,1707,1128,0,0
490,-104,0,0,0,0,0,0,0,0,0,-1,1714,1128,0,0
497,-104,0,0,0,0,0,0,0,0,0,-1,1721,1128,0,0
504,-104,0,0,0,0,0,0,0,0,0,-1,1728,1128,0,0
511,-104,0,0,0,0,0,0,0,0,0,-1,1735,1128,0,0
518,-104,0,0,0,0,0,0,0,0,0,-1,1742,1128,0,0
525,-104,0,0,0,0,0,0,0,0,0,-1,1749,1128,0,0
532,-104,0,0,0,0,0,0,0,0,0,-1,1756,1128,0,0
539,-104,0,0,0,0,0,0,0,0,0,-1,1763,1128,0,0
546,-104,0,0,0,0,0,0,0,0,0,-1,1770,1128,0,0
553,-104,0,0,0,0,0,0,0,0,0,-1,1777,1128,0,0
560,-104,0,0,0,0,0,0,0,0,0,-1,1784,1128,0,0
567,-104,0,0,0,0,0,0,0,0,0,-1,1791,1128,0,0
574,-104,0,0,0,0,0,0,0,0,0,-1,1798,1128,0,0
581,-104,0,0,0,0,0,0,0,0,0,-1,1805,1128,0,0
588,-104,0,0,0,0,0,0,0,0,0,-1,1812,1128,0,0
595,-104,0,0,0,0,0,0,0,0,0,-1,1819,1128,0,0
602,-104,0,0,0,0,0,0,0,0,0,-1,1826,1128,0,0
609,-104,0,0,0,0,0,0,0,0,0,-1,1833,1128,0,0
616,-104,0,0,0,0,0,0,0,0,0,-1,1840,1128,0,0
623,-104,0,0,0,0,0,0,0,0,0,-1,1847,1128,0,0
630,-104,0,0,0,0,0,0,0,0,0,-1,1854,1128,0,0
637,-104,0,0,0,0,0,0,0,0,0,-1,1861,1128,0,0
644,-104,60.0441,2.73828,0.00616948,0.00122172,-0.000964927,0.006351,0.0010402,-0.185948,0.00393338,0.0378251,1868,1128,60.0441,-2.73824
651,-104,60.0541,2.65808,0.00470579,0.000747955,-0.000242844,0.00472064,0.00073311,-0.0610524,0.00293342,0.038952,1875,1128,60.0541,-2.65808
658,-104,60.2448,2.50659,0.00360894,0.000356348,8.34491e-05,0.00361108,0.000354208,0.0256337,0.00229844,0.0414055,1882,1128,60.2448,-2.50656
665,-104,60.3147,2.36292,0.00260393,6.14517e-05,0.000235901,0.00262563,3.9749e-05,0.0917407,0.00173732,0.0449926,1889,1128,60.3147,-2.36297
672,-104,60.2123,2.48804,0.00166704,-0.000151733,0.000231891,0.00169614,-0.000180834,0.124839,0.0011956,0.0436391,1896,1128,60.2122,-2.48806
679,-104,60.1848,2.64807,0.000739348,-0.000396514,0.000125881,0.000753132,-0.000410297,0.109061,0.000681358,0.0408175,1903,1128,60.1848,-2.64813
686,-104,60.1711,2.68506,0.000287701,-0.00062432,8.06805e-05,0.000294783,-0.000631402,0.0875573,0.000546379,0.038756,1910,1128,60.1712,-2.6851
693,-104,60.1387,2.57568,0.000132706,-0.000797288,4.79343e-05,0.00013517,-0.000799753,0.0513612,0.000583468,0.0334541,1917,1128,60.1386,-2.57564
700,-104,60.1593,2.4856,8.5849e-05,-0.000929901,0.000154104,0.000108714,-0.000952766,0.1473,0.000674343,0.0262568,1924,1128,60.1592,-2.48558
707,-104,60.1273,2.6051,0,0,0,0,0,0,0,-1,1931,1128,60.1273,-2.60514
714,-104,45.5221,2.32166,0,0,0,0,0,0,0,-1,1938,1128,45.5221,-2.3216
721,-104,55.5002,8.29468,0,0,0,0,0,0,0,-1,1945,1128,55.5002,-8.29471
728,-104,55.6875,7.75378,0,0,0,0,0,0,0,-1,1952,1128,55.6875,-7.75375
735,-104,55.8232,7.14478,0,0,0,0,0,0,0,-1,1959,1128,55.8233,-7.14475
742,-104,55.5884,6.90686,-0.00216453,0.000519098,0.00171365,0.00135376,-0.0029992,1.11755,0.00257234,0.0237277,1966,1128,55.5883,-6.90687
749,-104,55.5129,6.45959,-0.00210519,0.00174149,0.00120214,0.00208627,-0.00244997,1.29149,0.0026218,0.0221214,1973,1128,55.5129,-6.45958
756,-104,55.556,5.99695,-0.00229295,0.00205679,0.000295843,0.00207682,-0.00231298,1.5032,0.00253567,0.0173469,1980,1128,55.5561,-5.99693
763,-104,55.4708,5.60437,-0.00181632,0.00230882,-0.00168012,0.00290651,-0.00241401,-1.22901,0.00307619,0.0178777,1987,1128,55.4708,-5.60442
770,-104,55.3892,5.23193,-0.000727078,0.00246172,-0.00489995,0.00602015,-0.00428551,-0.942691,0.005978,0.0160322,1994,1128,55.3892,-5.23193
777,-104,55.3008,4.81116,0.00123455,0.00206429,-0.00925062,0.0109093,-0.0076105,-0.807807,0.0107488,0.0238907,2001,1128,55.3007,-4.81121
784,-104,55.2825,4.62659,0.00416396,0.00078477,-0.0149166,0.0174863,-0.0125376,-0.729004,0.0174126,0.0419162,2008,1128,55.2826,-4.62664
791,-104,55.4211,4.51538,0.00861097,-0.00181717,-0.0223573,0.0263542,-0.0195604,-0.670838,0.0266053,0.046786,2015,1128,55.4211,-4.51542
798,-104,55.834,3.64294,0.0151161,-0.0063036,-0.0320244,0.0381741,-0.0293615,-0.624031,0.0391022,0.0464172,2022,1128,55.834,-3.64292
805,-104,56.2285,2.94177,0,0,0,0,0,0,0,-1,2029,1128,56.2286,-2.94172
812,-104,54.8723,4.10706,0,0,0,0,0,0,0,-1,2036,1128,54.8724,-4.10708
-700,-111,0,0,0,0,0,0,0,0,0,-1,524,1135,0,0
-693,-111,-35.225,0.848511,0,0,0,0,0,0,0,-1,531,1135,-35.225,-0.848537
-686,-111,-33.8451,1.43884,0,0,0,0,0,0,0,-1,538,1135,-33.8451,-1.43889
-679,-111,-42.3089,1.46057,0,0,0,0,0,0,0,-1,545,1135,-42.3089,-1.46058
-672,-111,-42.0857,0.727295,0,0,0,0,0,0,0,-1,552,1135,-42.0857,-0.727342
-665,-111,-42.7312,1.3092,0,0,0,0,0,0,0,-1,559,1135,-42.7312,-1.30918
-658,-111,-40.5615,0.556763,0,0,0,0,0,0,0,-1,566,1135,-40.5615,-0.556737
-651,-111,-40.3194,1.22852,0.00575214,0.00407024,-0.0084774,0.0134302,-0.00360781,-0.735961,0.0103675,0.0451198,573,1135,-40.3194,-1.22854
-644,-111,-40.2339,2.00085,0.00301657,0.00369849,-0.00530532,0.00867379,-0.00195873,-0.817488,0.00653404,0.0289402,580,1135,-40.2339,-2.00088
-637,-111,-40.3452,2.60266,0.000419852,0.00315199,-0.00251469,0.0046477,-0.00107587,-1.03422,0.00351245,0.012209,587,1135,-40.3452,-2.60264
-630,-111,-40.3717,3.00122,-0.00087948,0.00252126,-0.00066349,0.00264612,-0.00100434,-1.38478,0.00217749,0.0233186,594,1135,-40.3717,-3.00128
-623,-111,-40.3944,3.54236,-0.000169525,0.00174238,-0.000271486,0.00178018,-0.000207328,-1.43244,0.00126159,0.0196443,601,1135,-40.3944,-3.54237
-616,-111,-40.7049,4.0481,0.000787393,0.000762283,-0.000766503,0.00154144,8.23254e-06,-0.777209,0.0010249,0.0234231,608,1135,-40.7049,-4.04813
-609,-111,-40.9697,4.45337,0.001295,-0.000356773,-0.00111418,0.00185601,-0.000917783,-0.466459,0.0016317,0.0336864,615,1135,-40.9697,-4.45337
-602,-111,-40.8727,4.99585,0.00142685,-0.00122806,-0.00105278,0.00179364,-0.00159486,-0.335254,0.00195747,0.0392831,622,1135,-40.8727,-4.99588
-595,-111,-40.5472,5.5979,0.00124602,-0.00187456,-0.00112308,0.00160818,-0.00223672,-0.311942,0.00222972,0.0198907,629,1135,-40.5471,-5.59793
-588,-111,-40.1853,6.28906,0,0,0,0,0,0,0,-1,636,1135,-40.1853,-6.28906
-581,-111,-21.0555,3.14551,0,0,0,0,0,0,0,-1,643,1135,-21.0555,-3.14548
-574,-111,-45.3489,0.859985,0,0,0,0,0,0,0,-1,650,1135,-45.3489,-0.860005
-567,-111,-45.3942,0.918945,0.00277128,-0.00309175,-0.00157958,0.00316976,-0.00349023,-0.247113,0.00384663,0.0392554,657,1135,-45.3942,-0.919
-560,-111,-45.3669,0.787476,0.00333554,-0.00315076,-0.00163351,0.0037237,-0.00353891,-0.233294,0.00419352,0.0395469,664,1135,-45.3669,-0.787444
-553,-111,-45.3358,0.532837,0.00285054,-0.00284276,-0.00204293,0.00350774,-0.00349996,-0.31124,0.0040459,0.0432984,671,1135,-45.3358,-0.532856
-546,-111,-45.3277,0.391846,0.0019961,-0.00188695,-0.00263257,0.00332565,-0.00321651,-0.467671,0.00377729,0.0391999,678,1135,-45.3277,-0.391853
-539,-111,-45.3689,0.480103,0.00188264,-0.00081123,-0.00332328,0.00412157,-0.00305016,-0.592863,0.00415597,0.0375829,685,1135,-45.3689,-0.480116
-532,-111,-45.3776,0.928345,0.00205064,9.31273e-05,-0.00423883,0.00542224,-0.00327848,-0.671936,0.00507394,0.0402253,692,1135,-45.3777,-0.928358
-525,-111,-45.4521,0.591187,0.00220697,0.000770073,-0.00541564,0.00695161,-0.00397456,-0.719452,0.0063858,0.0387175,699,1135,-45.4521,-0.591169
-518,-111,0,0,0,0,0,0,0,0,0,-1,706,1135,0,0
-511,-111,0,0,0,0,0,0,0,0,0,-1,713,1135,0,0
-504,-111,0,0,0,0,0,0,0,0,0,-1,720,1135,0,0
-497,-111,0,0,0,0,0,0,0,0,0,-1,727,1135,0,0
-490,-111,0,0,0,0,0,0,0,0,0,-1,734,1135,0,0
-483,-111,0,0,0,0,0,0,0,0,0,-1,741,1135,0,0
-476,-111,0,0,0,0,0,0,0,0,0,-1,748,1135,0,0
-469,-111,0,0,0,0,0,0,0,0,0,-1,755,1135,0,0
-462,-111,0,0,0,0,0,0,0,0,0,-1,762,1135,0,0
-455,-111,0,0,0,0,0,0,0,0,0,-1,769,1135,0,0
-448,-111,0,0,0,0,0,0,0,0,0,-1,776,1135,0,0
-441,-111,0,0,0,0,0,0,0,0,0,-1,783,1135,0,0
-434,-111,0,0,0,0,0,0,0,0,0,-1,790,1135,0,0
-427,-111,0,0,0,0,0,0,0,0,0,-1,797,1135,0,0
-420,-111,0,0,0,0,0,0,0,0,0,-1,804,1135,0,0
-413,-111,0,0,0,0,0,0,0,0,0,-1,811,1135,0,0
-406,-111,0,0,0,0,0,0,0,0,0,-1,818,1135,0,0
-399,-111,0,0,0,0,0,0,0,0,0,-1,825,1135,0,0
-392,-111,0,0,0,0,0,0,0,0,0,-1,832,1135,0,0
-385,-111,0,0,0,0,0,0,0,0,0,-1,839,1135,0,0
-378,-111,0,0,0,0,0,0,0,0,0,-1,846,1135,0,0
-371,-111,0,0,0,0,0,0,0,0,0,-1,853,1135,0,0
-364,-111,0,0,0,0,0,0,0,0,0,-1,860,1135,0,0
-357,-111,0,0,0,0,0,0,0,0,0,-1,867,1135,0,0
-350,-111,0,0,0,0,0,0,0,0,0,-1,874,1135,0,0
-343,-111,0,0,0,0,0,0,0,0,0,-1,881,1135,0,0
-336,-111,0,0,0,0,0,0,0,0,0,-1,888,1135,0,0
-329,-111,0,0,0,0,0,0,0,0,0,-1,895,1135,0,0
-322,-111,0,0,0,0,0,0,0,0,0,-1,902,1135,0,0
-315,-111,0,0,0,0,0,0,0,0,0,-1,909,1135,0,0
-308,-111,0,0,0,0,0,0,0,0,0,-1,916,1135,0,0
-301,-111,0,0,0,0,0,0,0,0,0,-1,923,1135,0,0
-294,-111,0,0,0,0,0,0,0,0,0,-1,930,1135,0,0
-287,-111,0,0,0,0,0,0,0,0,0,-1,937,1135,0,0
-280,-111,0,0,0,0,0,0,0,0,0,-1,944,1135,0,0
-273,-111,0,0,0,0,0,0,0,0,0,-1,951,1135,0,0
-266,-111,0,0,0,0,0,0,0,0,0,-1,958,1135,0,0
-259,-111,0,0,0,0,0,0,0,0,0,-1,965,1135,0,0
-252,-111,0,0,0,0,0,0,0,0,0,-1,972,1135,0,0
-245,-111,0,0,0,0,0,0,0,0,0,-1,979,1135,0,0
-238,-111,0,0,0,0,0,0,0,0,0,-1,986,1135,0,0
-231,-111,0,0,0,0,0,0,0,0,0,-1,993,1135,0,0
-224,-111,0,0,0,0,0,0,0,0,0,-1,1000,1135,0,0
-217,-111,0,0,0,0,0,0,0,0,0,-1,1007,1135,0,0
-210,-111,0,0,0,0,0,0,0,0,0,-1,1014,1135,0,0
-203,-111,0,0,0,0,0,0,0,0,0,-1,1021,1135,0,0
-196,-111,0,0,0,0,0,0,0,0,0,-1,1028,1135,0,0
-189,-111,0,0,0,0,0,0,0,0,0,-1,1035,1135,0,0
-182,-111,0,0,0,0,0,0,0,0,0,-1,1042,1135,0,0
-175,-111,0,0,0,0,0,0,0,0,0,-1,1049,1135,0,0
-168,-111,0,0,0,0,0,0,0,0,0,-1,1056,1135,0,0
-161,-111,0,0,0,0,0,0,0,0,0,-1,1063,1135,0,0
-154,-111,0,0,0,0,0,0,0,0,0,-1,1070,1135,0,0
-147,-111,0,0,0,0,0,0,0,0,0,-1,1077,1135,0,0
-140,-111,0,0,0,0,0,0,0,0,0,-1,1084,1135,0,0
-133,-111,0,0,0,0,0,0,0,0,0,-1,1091,1135,0,0
-126,-111,0,0,0,0,0,0,0,0,0,-1,1098,1135,0,0
-119,-111,0,0,0,0,0,0,0,0,0,-1,1105,1135,0,0
-112,-111,0,0,0,0,0,0,0,0,0,-1,1112,1135,0,0
-105,-111,0,0,0,0,0,0,0,0,0,-1,1119,1135,0,0
-98,-111,0,0,0,0,0,0,0,0,0,-1,1126,1135,0,0
-91,-111,0,0,0,0,0,0,0,0,0,-1,1133,1135,0,0
-84,-111,0,0,0,0,0,0,0,0,0,-1,1140,1135,0,0
-77,-111,0,0,0,0,0,0,0,0,0,-1,1147,1135,0,0
-70,-111,0,0,0,0,0,0,0,0,0,-1,1154,1135,0,0
-63,-111,0,0,0,0,0,0,0,0,0,-1,1161,1135,0,0
-56,-111,0,0,0,0,0,0,0,0,0,-1,1168,1135,0,0
-49,-111,0,0,0,0,0,0,0,0,0,-1,1175,1135,0,0
-42,-111,0,0,0,0,0,0,0,0,0,-1,1182,1135,0,0
-35,-111,0,0,0,0,0,0,0,0,0,-1,1189,1135,0,0
-28,-111,0,0,0,0,0,0,0,0,0,-1,1196,1135,0,0
-21,-111,0,0,0,0,0,0,0,0,0,-1,1203,1135,0,0
-14,-111,0,0,0,0,0,0,0,0,0,-1,1210,1135,0,0
-7,-111,0,0,0,0,0,0,0,0,0,-1,1217,1135,0,0
0,-111,0,0,0,0,0,0,0,0,0,-1,1224,1135,0,0
7,-111,0,0,0,0,0,0,0,0,0,-1,1231,1135,0,0
14,-111,0,0,0,0,0,0,0,0,0,-1,1238,1135,0,0
21,-111,0,0,0,0,0,0,0,0,0,-1,1245,1135,0,0
28,-111,0,0,0,0,0,0,0,0,0,-1,1252,1135,0,0
35,-111,0,0,0,0,0,0,0,0,0,-1,1259,1135,0,0
42,-111,0,0,0,0,0,0,0,0,0,-1,1266,1135,0,0
49,-111,0,0,0,0,0,0,0,0,0,-1,1273,1135,0,0
56,-111,0,0,0,0,0,0,0,0,0,-1,1280,1135,0,0
63,-111,0,0,0,0,0,0,0,0,0,-1,1287,1135,0,0
70,-111,0,0,0,0,0,0,0,0,0,-1,1294,1135,0,0
77,-111,0,0,0,0,0,0,0,0,0,-1,1301,1135,0,0
84,-111,0,0,0,0,0,0,0,0,0,-1,1308,1135,0,0
91,-111,0,0,0,0,0,0,0,0,0,-1,1315,1135,0,0
98,-111,0,0,0,0,0,0,0,0,0,-1,1322,1135,0,0
105,-111,0,0,0,0,0,0,0,0,0,-1,1329,1135,0,0
112,-111,0,0,0,0,0,0,0,0,0,-1,1336,1135,0,0
119,-111,0,0,0,0,0,0,0,0,0,-1,1343,1135,0,0
126,-111,0,0,0,0,0,0,0,0,0,-1,1350,1135,0,0
133,-111,0,0,0,0,0,0,0,0,0,-1,1357,1135,0,0
140,-111,0,0,0,0,0,0,0,0,0,-1,1364,1135,0,0
147,-111,0,0,0,0,0,0,0,0,0,-1,1371,1135,0,0
154,-111,0,0,0,0,0,0,0,0,0,-1,1378,1135,0,0
161,-111,0,0,0,0,0,0,0,0,0,-1,1385,1135,0,0
168,-111,0,0,0,0,0,0,0,0,0,-1,1392,1135,0,0
175,-111,0,0,0,0,0,0,0,0,0,-1,1399,1135,0,0
182,-111,0,0,0,0,0,0,0,0,0,-1,1406,1135,0,0
189,-111,0,0,0,0,0,0,0,0,0,-1,1413,1135,0,0
196,-111,0,0,0,0,0,0,0,0,0,-1,1420,1135,0,0
203,-111,0,0,0,0,0,0,0,0,0,-1,1427,1135,0,0
210,-111,0,0,0,0,0,0,0,0,0,-1,1434,1135,0,0
217,-111,0,0,0,0,0,0,0,0,0,-1,1441,1135,0,0
224,-111,0,0,0,0,0,0,0,0,0,-1,1448,1135,0,0
231,-111,0,0,0,0,0,0,0,0,0,-1,1455,1135,0,0
238,-111,0,0,0,0,0,0,0,0,0,-1,1462,1135,0,0
245,-111,0,0,0,0,0,0,0,0,0,-1,1469,1135,0,0
252,-111,0,0,0,0,0,0,0,0,0,-1,1476,1135,0,0
259,-111,0,0,0,0,0,0,0,0,0,-1,1483,1135,0,0
266,-111,0,0,0,0,0,0,0,0,0,-1,1490,1135,0,0
273,-111,0,0,0,0,0,0,0,0,0,-1,1497,1135,0,0
280,-111,0,0,0,0,0,0,0,0,0,-1,1504,1135,0,0
287,-111,0,0,0,0,0,0,0,0,0,-1,1511,1135,0,0
294,-111,0,0,0,0,0,0,0,0,0,-1,1518,1135,0,0
301,-111,0,0,0,0,0,0,0,0,0,-1,1525,1135,0,0
308,-111,0,0,0,0,0,0,0,0,0,-1,1532,1135,0,0
315,-111,0,0,0,0,0,0,0,0,0,-1,1539,1135,0,0
322,-111,0,0,0,0,0,0,0,0,0,-1,1546,1135,0,0
329,-111,0,0,0,0,0,0,0,0,0,-1,1553,1135,0,0
336,-111,0,0,0,0,0,0,0,0,0,-1,1560,1135,0,0
343,-111,0,0,0,0,0,0,0,0,0,-1,1567,1135,0,0
350,-111,0,0,0,0,0,0,0,0,0,-1,1574,1135,0,0
357,-111,0,0,0,0,0,0,0,0,0,-1,1581,1135,0,0
364,-111,0,0,0,0,0,0,0,0,0,-1,1588,1135,0,0
371,-111,0,0,0,0,0,0,0,0,0,-1,1595,1135,0,0
378,-111,0,0,0,0,0,0,0,0,0,-1,1602,1135,0,0
385,-111,0,0,0,0,0,0,0,0,0,-1,1609,1135,0,0
392,-111,0,0,0,0,0,0,0,0,0,-1,1616,1135,0,0
399,-111,0,0,0,0,0,0,0,0,0,-1,1623,1135,0,0
406,-111,0,0,0,0,0,0,0,0,0,-1,1630,1135,0,0
413,-111,0,0,0,0,0,0,0,0,0,-1,1637,1135,0,0
420,-111,0,0,0,0,0,0,0,0,0,-1,1644,1135,0,0
427,-111,0,0,0,0,0,0,0,0,0,-1,1651,1135,0,0
434,-111,0,0,0,0,0,0,0,0,0,-1,1658,1135,0,0
441,-111,0,0,0,0,0,0,0,0,0,-1,1665,1135,0,0
448,-111,0,0,0,0,0,0,0,0,0,-1,1672,1135,0,0
455,-111,0,0,0,0,0,0,0,0,0,-1,1679,1135,0,0
462,-111,0,0,0,0,0,0,0,0,0,-1,1686,1135,0,0
469,-111,0,0,0,0,0,0,0,0,0,-1,1693,1135,0,0
476,-111,0,0,0,0,0,0,0,0,0,-1,1700,1135,0,0
483,-111,0,0,0,0,0,0,0,0,0,-1,1707,1135,0,0
490,-111,0,0,0,0,0,0,0,0,0,-1,1714,1135,0,0
497,-111,0,0,0,0,0,0,0,0,0,-1,1721,1135,0,0
504,-111,0,0,0,0,0,0,0,0,0,-1,1728,1135,0,0
511,-111,0,0,0,0,0,0,0,0,0,-1,1735,1135,0,0
518,-111,0,0,0,0,0,0,0,0,0,-1,1742,1135,0,0
525,-111,0,0,0,0,0,0,0,0,0,-1,1749,1135,0,0
532,-111,0,0,0,0,0,0,0,0,0,-1,1756,1135,0,0
539,-111,0,0,0,0,0,0,0,0,0,-1,1763,1135,0,0
546,-111,0,0,0,0,0,0,0,0,0,-1,1770,1135,0,0
553,-111,0,0,0,0,0,0,0,0,0,-1,1777,1135,0,0
560,-111,0,0,0,0,0,0,0,0,0,-1,1784,1135,0,0
567,-111,0,0,0,0,0,0,0,0,0,-1,1791,1135,0,0
574,-111,0,0,0,0,0,0,0,0,0,-1,1798,1135,0,0
581,-111,0,0,0,0,0,0,0,0,0,-1,1805,1135,0,0
588,-111,0,0,0,0,0,0,0,0,0,-1,1812,1135,0,0
595,-111,0,0,0,0,0,0,0,0,0,-1,1819,1135,0,0
602,-111,0,0,0,0,0,0,0,0,0,-1,1826,1135,0,0
609,-111,0,0,0,0,0,0,0,0,0,-1,1833,1135,0,0
616,-111,0,0,0,0,0,0,0,0,0,-1,1840,1135,0,0
623,-111,0,0,0,0,0,0,0,0,0,-1,1847,1135,0,0
630,-111,0,0,0,0,0,0,0,0,0,-1,1854,1135,0,0
637,-111,0,0,0,0,0,0,0,0,0,-1,1861,1135,0,0
644,-111,59.9202,2.73218,0.00533978,0.00143141,-0.000475366,0.00539677,0.00137442,-0.119311,0.00323843,0.0399302,1868,1135,59.9202,-2.73212
651,-111,60.0353,2.62,0.00410383,0.00101331,0.000183064,0.00411464,0.0010025,0.0589591,0.00247748,0.0418512,1875,1135,60.0353,-2.62
658,-111,60.3324,2.51526,0.00316774,0.000639475,0.000453879,0.00324675,0.000560463,0.172355,0.00200397,0.0448868,1882,1135,60.3324,-2.5152
665,-111,60.4778,2.51648,0.00228719,0.000363709,0.000543744,0.00243026,0.000220641,0.257285,0.00155186,0.0461131,1889,1135,60.4777,-2.51645
672,-111,60.3138,2.50549,0.0014244,0.000153505,0.000475421,0.00158257,-4.65865e-06,0.321163,0.0010566,0.0452182,1896,1135,60.3138,-2.50549
679,-111,60.1978,2.5282,0.00054424,-0.000156378,0.000340469,0.000682434,-0.000294572,0.385577,0.000578701,0.0425769,1903,1135,60.1978,-2.5282
686,-111,60.1141,2.62671,0.000112946,-0.000411348,0.000253999,0.000215814,-0.000514216,0.384806,0.000433061,0.0379639,1910,1135,60.1141,-2.62672
693,-111,60.0585,2.63989,-4.89136e-05,-0.000618424,0.000194351,1.10886e-05,-0.000678426,0.299448,0.000456025,0.0344185,1917,1135,60.0585,-2.6399
700,-111,60.1633,2.52197,-9.1302e-05,-0.000805437,0.000281143,6.09565e-06,-0.000902835,0.333495,0.000603932,0.0276703,1924,1135,60.1633,-2.52195
707,-111,60.1846,2.50598,0,0,0,0,0,0,0,-1,1931,1135,60.1846,-2.506
714,-111,45.1654,7.39746,0,0,0,0,0,0,0,-1,1938,1135,45.1654,-7.39745
721,-111,55.043,8.41272,0,0,0,0,0,0,0,-1,1945,1135,55.0429,-8.41273
728,-111,55.1578,7.81299,-0.0013101,-0.000268721,0.000803369,0.00016794,-0.00174676,1.07293,0.00122433,0.0237585,1952,1135,55.1579,-7.81293
735,-111,55.1989,7.39233,-0.00181475,0.000248946,0.00118646,0.000789486,-0.00235529,1.1433,0.00188917,0.027282,1959,1135,55.1989,-7.39237
742,-111,55.0973,6.97754,-0.0021721,0.000435172,0.00170362,0.00127671,-0.00301364,1.11198,0.0025438,0.0190109,1966,1135,55.0973,-6.97754
749,-111,55.0394,6.50769,-0.00202733,0.00200318,0.00116333,0.00231485,-0.00233901,1.30903,0.00268692,0.0187744,1973,1135,55.0395,-6.50772
756,-111,55.0374,6.0437,-0.00210739,0.00278349,0.000105107,0.00278574,-0.00210965,1.54932,0.00283533,0.0165214,1980,1135,55.0374,-6.04367
763,-111,54.9979,5.62219,-0.00144583,0.00374614,-0.00214897,0.0045202,-0.00221989,-1.22506,0.00396622,0.0161626,1987,1135,54.9979,-5.62217
770,-111,54.9529,5.16687,-0.000151781,0.00483213,-0.00573726,0.00859525,-0.00391491,-0.990278,0.00738931,0.014073,1994,1135,54.9529,-5.16681
777,-111,54.7661,4.73584,0.00197389,0.00555099,-0.010582,0.0144946,-0.00696968,-0.869116,0.0126437,0.028184,2001,1135,54.7661,-4.73581
784,-111,54.5564,4.40222,0.0050517,0.00557522,-0.0169552,0.0222707,-0.0116438,-0.793117,0.0198983,0.0439002,2008,1135,54.5564,-4.40224
791,-111,55.1216,4.40515,0,0,0,0,0,0,0,-1,2015,1135,55.1215,-4.40517
798,-111,55.1714,4.1687,0.0161173,0.00189936,-0.0363439,0.046041,-0.0280243,-0.688816,0.0431813,0.0456558,2022,1135,55.1714,-4.16871
805,-111,56.116,3.59717,0,0,0,0,0,0,0,-1,2029,1135,56.116,-3.59715
812,-111,53.7524,4.38623,0,0,0,0,0,0,0,-1,2036,1135,53.7525,-4.38625
-700,-118,0,0,0,0,0,0,0,0,0,-1,524,1142,0,0
-693,-118,-32.7289,1.23633,0,0,0,0,0,0,0,-1,531,1142,-32.7289,-1.23637
-686,-118,-31.7643,1.77002,0,0,0,0,0,0,0,-1,538,1142,-31.7643,-1.77007
-679,-118,-42.3427,1.63403,0,0,0,0,0,0,0,-1,545,1142,-42.3427,-1.63408
-672,-118,-42.8755,1.71094,0.0162851,0.0106743,-0.0139586,0.0277174,-0.000758046,-0.686231,0.0187361,0.046151,552,1142,-42.8755,-1.7109
-665,-118,-43.5472,1.62085,0,0,0,0,0,0,0,-1,559,1142,-43.5472,-1.62084
-658,-118,-39.8552,0.365112,0,0,0,0,0,0,0,-1,566,1142,-39.8551,-0.365075
-651,-118,-39.6707,1.17981,0.00416755,0.00671764,-0.00398027,0.0096221,0.00126308,-0.940404,0.00603791,0.0445426,573,1142,-39.6707,-1.17976
-644,-118,-39.6447,1.97424,0.00190952,0.00580257,-0.00224482,0.00682727,0.000884819,-1.14257,0.00428712,0.0324547,580,1142,-39.6447,-1.9743
-637,-118,-39.8082,2.62073,-0.000224712,0.00470262,-0.000643385,0.00478524,-0.000307336,-1.44307,0.00329738,0.0181073,587,1142,-39.8081,-2.62076
-630,-118,-39.8478,3.09534,-0.00124335,0.00359162,0.00019261,0.00359928,-0.00125102,1.53104,0.00290766,0.0244532,594,1142,-39.8478,-3.09539
-623,-118,-39.8441,3.60022,-0.000551169,0.00220625,-0.000199568,0.00222062,-0.000565537,-1.49892,0.00170056,0.0196541,601,1142,-39.8441,-3.60023
-616,-118,-39.9871,4.07483,0.00018649,0.000896919,-0.000952058,0.00155787,-0.000474461,-0.963951,0.00122768,0.0270628,608,1142,-39.9871,-4.07485
-609,-118,-40.2549,4.34387,0.00052326,-0.00039994,-0.00122969,0.00137514,-0.00125182,-0.605847,0.00151723,0.0419357,615,1142,-40.2549,-4.34389
-602,-118,-40.1009,5.17749,0.000589082,-0.00111587,-0.00107743,0.00111049,-0.00163728,-0.450718,0.00159612,0.0430085,622,1142,-40.1009,-5.17751
-595,-118,-40.2967,6.02087,0,0,0,0,0,0,0,-1,629,1142,-40.2967,-6.02086
-588,-118,-38.276,6.11401,0,0,0,0,0,0,0,-1,636,1142,-38.276,-6.11398
-581,-118,-24.6116,3.89648,0,0,0,0,0,0,0,-1,643,1142,-24.6116,-3.89645
-574,-118,-45.2385,0.600342,0,0,0,0,0,0,0,-1,650,1142,-45.2384,-0.600318
-567,-118,-45.3481,0.852173,0.00212306,-0.00285347,-0.00136358,0.00247219,-0.0032026,-0.250655,0.00328538,0.043695,657,1142,-45.3481,-0.85216
-560,-118,-45.4008,1.0116,0.00292898,-0.00302829,-0.00132842,0.00321178,-0.00331109,-0.209755,0.00376613,0.0382376,664,1142,-45.4008,-1.01156
-553,-118,-45.2777,0.848022,0.00272487,-0.00297339,-0.00172833,0.00320811,-0.00345662,-0.272635,0.00384878,0.0391263,671,1142,-45.2777,-0.848046
-546,-118,-45.1185,0.69873,0.00210643,-0.00229333,-0.00236362,0.00313551,-0.00332241,-0.410631,0.003729,0.0390247,678,1142,-45.1185,-0.698691
-539,-118,-45.2598,0.842773,0.00208857,-0.00155488,-0.00318994,0.00394032,-0.00340663,-0.525956,0.00424549,0.0405258,685,1142,-45.2598,-0.842779
-532,-118,-45.4503,1.13611,0.00232449,-0.000963807,-0.00421227,0.00520211,-0.00384143,-0.59933,0.00524095,0.0427601,692,1142,-45.4503,-1.13609
-525,-118,-45.3806,0.74707,0.00247458,-0.000554664,-0.00543978,0.00660666,-0.00468674,-0.64962,0.00655158,0.0438474,699,1142,-45.3805,-0.747084
-518,-118,0,0,0,0,0,0,0,0,0,-1,706,1142,0,0
-511,-118,0,0,0,0,0,0,0,0,0,-1,713,1142,0,0
-504,-118,0,0,0,0,0,0,0,0,0,-1,720,1142,0,0
-497,-118,0,0,0,0,0,0,0,0,0,-1,727,1142,0,0
-490,-118,0,0,0,0,0,0,0,0,0,-1,734,1142,0,0
-483,-118,0,0,0,0,0,0,0,0,0,-1,741,1142,0,0
-476,-118,0,0,0,0,0,0,0,0,0,-1,748,1142,0,0
-469,-118,0,0,0,0,0,0,0,0,0,-1,755,1142,0,0
-462,-118,0,0,0,0,0,0,0,0,0,-1,762,1142,0,0
-455,-118,0,0,0,0,0,0,0,0,0,-1,769,1142,0,0
-448,-118,0,0,0,0,0,0,0,0,0,-1,776,1142,0,0
-441,-118,0,0,0,0,0,0,0,0,0,-1,783,1142,0,0
-434,-118,0,0,0,0,0,0,0,0,0,-1,790,1142,0,0
-427,-118,0,0,0,0,0,0,0,0,0,-1,797,1142,0,0
-420,-118,0,0,0,0,0,0,0,0,0,-1,804,1142,0,0
-413,-118,0,0,0,0,0,0,0,0,0,-1,811,1142,0,0
-406,-118,0,0,0,0,0,0,0,0,0,-1,818,1142,0,0
-399,-118,0,0,0,0,0,0,0,0,0,-1,825,1142,0,0
-392,-118,0,0,0,0,0,0,0,0,0,-1,832,1142,0,0
-385,-118,0,0,0,0,0,0,0,0,0,-1,839,1142,0,0
-378,-118,0,0,0,0,0,0,0,0,0,-1,846,1142,0,0
-371,-118,0,0,0,0,0,0,0,0,0,-1,853,1142,0,0
-364,-118,0,0,0,0,0,0,0,0,0,-1,860,1142,0,0
-357,-118,0,0,0,0,0,0,0,0,0,-1,867,1142,0,0
-350,-118,0,0,0,0,0,0,0,0,0,-1,874,1142,0,0
-343,-118,0,0,0,0,0,0,0,0,0,-1,881,1142,0,0
-336,-118,0,0,0,0,0,0,0,0,0,-1,888,1142,0,0
-329,-118,0,0,0,0,0,0,0,0,0,-1,895,1142,0,0
-322,-118,0,0,0,0,0,0,0,0,0,-1,902,1142,0,0
-315,-118,0,0,0,0,0,0,0,0,0,-1,909,1142,0,0
-308,-118,0,0,0,0,0,0,0,0,0,-1,916,1142,0,0
-301,-118,0,0,0,0,0,0,0,0,0,-1,923,1142,0,0
-294,-118,0,0,0,0,0,0,0,0,0,-1,930,1142,0,0
-287,-118,0,0,0,0,0,0,0,0,0,-1,937,1142,0,0
-280,-118,0,0,0,0,0,0,0,0,0,-1,944,1142,0,0
-273,-118,0,0,0,0,0,0,0,0,0,-1,951,1142,0,0
-266,-118,0,0,0,0,0,0,0,0,0,-1,958,1142,0,0
-259,-118,0,0,0,0,0,0,0,0,0,-1,965,1142,0,0
-252,-118,0,0,0,0,0,0,0,0,0,-1,972,1142,0,0
-245,-118,0,0,0,0,0,0,0,0,0,-1,979,1142,0,0
-238,-118,0,0,0,0,0,0,0,0,0,-1,986,1142,0,0
-231,-118,0,0,0,0,0,0,0,0,0,-1,993,1142,0,0
-224,-118,0,0,0,0,0,0,0,0,0,-1,1000,1142,0,0
-217,-118,0,0,0,0,0,0,0,0,0,-1,1007,1142,0,0
-210,-118,0,0,0,0,0,0,0,0,0,-1,1014,1142,0,0
-203,-118,0,0,0,0,0,0,0,0,0,-1,1021,1142,0,0
-196,-118,0,0,0,0,0,0,0,0,0,-1,1028,1142,0,0
-189,-118,0,0,0,0,0,0,0,0,0,-1,1035,1142,0,0
-182,-118,0,0,0,0,0,0,0,0,0,-1,1042,1142,0,0
-175,-118,0,0,0,0,0,0,0,0,0,-1,1049,1142,0,0
-168,-118,0,0,0,0,0,0,0,0,0,-1,1056,1142,0,0
-161,-118,0,0,0,0,0,0,0,0,0,-1,1063,1142,0,0
-154,-118,0,0,0,0,0,0,0,0,0,-1,1070,1142,0,0
-147,-118,0,0,0,0,0,0,0,0,0,-1,1077,1142,0,0
-140,-118,0,0,0,0,0,0,0,0,0,-1,1084,1142,0,0
-133,-118,0,0,0,0,0,0,0,0,0,-1,1091,1142,0,0
-126,-118,0,0,0,0,0,0,0,0,0,-1,1098,1142,0,0
-119,-118,0,0,0,0,0,0,0,0,0,-1,1105,1142,0,0
-112,-118,0,0,0,0,0,0,0,0,0,-1,1112,1142,0,0
-105,-118,0,0,0,0,0,0,0,0,0,-1,1119,1142,0,0
-98,-118,0,0,0,0,0,0,0,0,0,-1,1126,1142,0,0
-91,-118,0,0,0,0,0,0,0,0,0,-1,1133,1142,0,0
-84,-118,0,0,0,0,0,0,0,0,0,-1,1140,1142,0,0
-77,-118,0,0,0,0,0,0,0,0,0,-1,1147,1142,0,0
-70,-118,0,0,0,0,0,0,0,0,0,-1,1154,1142,0,0
-63,-118,0,0,0,0,0,0,0,0,0,-1,1161,1142,0,0
-56,-118,0,0,0,0,0,0,0,0,0,-1,1168,1142,0,0
-49,-118,0,0,0,0,0,0,0,0,0,-1,1175,1142,0,0
-42,-118,0,0,0,0,0,0,0,0,0,-1,1182,1142,0,0
-35,-118,0,0,0,0,0,0,0,0,0,-1,1189,1142,0,0
-28,-118,0,0,0,0,0,0,0,0,0,-1,1196,1142,0,0
-21,-118,0,0,0,0,0,0,0,0,0,-1,1203,1142,0,0
-14,-118,0,0,0,0,0,0,0,0,0,-1,1210,1142,0,0
-7,-118,0,0,0,0,0,0,0,0,0,-1,1217,1142,0,0
0,-118,0,0,0,0,0,0,0,0,0,-1,1224,1142,0,0
7,-118,0,0,0,0,0,0,0,0,0,-1,1231,1142,0,0
14,-118,0,0,0,0,0,0,0,0,0,-1,1238,1142,0,0
21,-118,0,0,0,0,0,0,0,0,0,-1,1245,1142,0,0
28,-118,0,0,0,0,0,0,0,0,0,-1,1252,1142,0,0
35,-118,0,0,0,0,0,0,0,0,0,-1,1259,1142,0,0
42,-118,0,0,0,0,0,0,0,0,0,-1,1266,1142,0,0
49,-118,0,0,0,0,0,0,0,0,0,-1,1273,1142,0,0
56,-118,0,0,0,0,0,0,0,0,0,-1,1280,1142,0,0
63,-118,0,0,0,0,0,0,0,0,0,-1,1287,1142,0,0
70,-118,0,0,0,0,0,0,0,0,0,-1,1294,1142,0,0
77,-118,0,0,0,0,0,0,0,0,0,-1,1301,1142,0,0
84,-118,0,0,0,0,0,0,0,0,0,-1,1308,1142,0,0
91,-118,0,0,0,0,0,0,0,0,0,-1,1315,1142,0,0
98,-118,0,0,0,0,0,0,0,0,0,-1,1322,1142,0,0
105,-118,0,0,0,0,0,0,0,0,0,-1,1329,1142,0,0
112,-118,0,0,0,0,0,0,0,0,0,-1,1336,1142,0,0
119,-118,0,0,0,0,0,0,0,0,0,-1,1343,1142,0,0
126,-118,0,0,0,0,0,0,0,0,0,-1,1350,1142,0,0
133,-118,0,0,0,0,0,0,0,0,0,-1,1357,1142,0,0
140,-118,0,0,0,0,0,0,0,0,0,-1,1364,1142,0,0
147,-118,0,0,0,0,0,0,0,0,0,-1,1371,1142,0,0
154,-118,0,0,0,0,0,0,0,0,0,-1,1378,1142,0,0
161,-118,0,0,0,0,0,0,0,0,0,-1,1385,1142,0,0
168,-118,0,0,0,0,0,0,0,0,0,-1,1392,1142,0,0
175,-118,0,0,0,0,0,0,0,0,0,-1,1399,1142,0,0
182,-118,0,0,0,0,0,0,0,0,0,-1,1406,1142,0,0
189,-118,0,0,0,0,0,0,0,0,0,-1,1413,1142,0,0
196,-118,0,0,0,0,0,0,0,0,0,-1,1420,1142,0,0
203,-118,0,0,0,0,0,0,0,0,0,-1,1427,1142,0,0
210,-118,0,0,0,0,0,0,0,0,0,-1,1434,1142,0,0
217,-118,0,0,0,0,0,0,0,0,0,-1,1441,1142,0,0
224,-118,0,0,0,0,0,0,0,0,0,-1,1448,1142,0,0
231,-118,0,0,0,0,0,0,0,0,0,-1,1455,1142,0,0
238,-118,0,0,0,0,0,0,0,0,0,-1,1462,1142,0,0
245,-118,0,0,0,0,0,0,0,0,0,-1,1469,1142,0,0
252,-118,0,0,0,0,0,0,0,0,0,-1,1476,1142,0,0
259,-118,0,0,0,0,0,0,0,0,0,-1,1483,1142,0,0
266,-118,0,0,0,0,0,0,0,0,0,-1,1490,1142,0,0
273,-118,0,0,0,0,0,0,0,0,0,-1,1497,1142,0,0
280,-118,0,0,0,0,0,0,0,0,0,-1,1504,1142,0,0
287,-118,0,0,0,0,0,0,0,0,0,-1,1511,1142,0,0
294,-118,0,0,0,0,0,0,0,0,0,-1,1518,1142,0,0
301,-118,0,0,0,0,0,0,0,0,0,-1,1525,1142,0,0
308,-118,0,0,0,0,0,0,0,0,0,-1,1532,1142,0,0
315,-118,0,0,0,0,0,0,0,0,0,-1,1539,1142,0,0
322,-118,0,0,0,0,0,0,0,0,0,-1,1546,1142,0,0
329,-118,0,0,0,0,0,0,0,0,0,-1,1553,1142,0,0
336,-118,0,0,0,0,0,0,0,0,0,-1,1560,1142,0,0
343,-118,0,0,0,0,0,0,0,0,0,-1,1567,1142,0,0
350,-118,0,0,0,0,0,0,0,0,0,-1,1574,1142,0,0
357,-118,0,0,0,0,0,0,0,0,0,-1,1581,1142,0,0
364,-118,0,0,0,0,0,0,0,0,0,-1,1588,1142,0,0
371,-118,0,0,0,0,0,0,0,0,0,-1,1595,1142,0,0
378,-118,0,0,0,0,0,0,0,0,0,-1,1602,1142,0,0
385,-118,0,0,0,0,0,0,0,0,0,-1,1609,1142,0,0
392,-118,0,0,0,0,0,0,0,0,0,-1,1616,1142,0,0
399,-118,0,0,0,0,0,0,0,0,0,-1,1623,1142,0,0
406,-118,0,0,0,0,0,0,0,0,0,-1,1630,1142,0,0
413,-118,0,0,0,0,0,0,0,0,0,-1,1637,1142,0,0
420,-118,0,0,0,0,0,0,0,0,0,-1,1644,1142,0,0
427,-118,0,0,0,0,0,0,0,0,0,-1,1651,1142,0,0
434,-118,0,0,0,0,0,0,0,0,0,-1,1658,1142,0,0
441,-118,0,0,0,0,0,0,0,0,0,-1,1665,1142,0,0
448,-118,0,0,0,0,0,0,0,0,0,-1,1672,1142,0,0
455,-118,0,0,0,0,0,0,0,0,0,-1,1679,1142,0,0
462,-118,0,0,0,0,0,0,0,0,0,-1,1686,1142,0,0
469,-118,0,0,0,0,0,0,0,0,0,-1,1693,1142,0,0
476,-118,0,0,0,0,0,0,0,0,0,-1,1700,1142,0,0
483,-118,0,0,0,0,0,0,0,0,0,-1,1707,1142,0,0
490,-118,0,0,0,0,0,0,0,0,0,-1,1714,1142,0,0
497,-118,0,0,0,0,0,0,0,0,0,-1,1721,1142,0,0
504,-118,0,0,0,0,0,0,0,0,0,-1,1728,1142,0,0
511,-118,0,0,0,0,0,0,0,0,0,-1,1735,1142,0,0
518,-118,0,0,0,0,0,0,0,0,0,-1,1742,1142,0,0
525,-118,0,0,0,0,0,0,0,0,0,-1,1749,1142,0,0
532,-118,0,0,0,0,0,0,0,0,0,-1,1756,1142,0,0
539,-118,0,0,0,0,0,0,0,0,0,-1,1763,1142,0,0
546,-118,0,0,0,0,0,0,0,0,0,-1,1770,1142,0,0
553,-118,0,0,0,0,0,0,0,0,0,-1,1777,1142,0,0
560,-118,0,0,0,0,0,0,0,0,0,-1,1784,1142,0,0
567,-118,0,0,0,0,0,0,0,0,0,-1,1791,1142,0,0
574,-118,0,0,0,0,0,0,0,0,0,-1,1798,1142,0,0
581,-118,0,0,0,0,0,0,0,0,0,-1,1805,1142,0,0
588,-118,0,0,0,0,0,0,0,0,0,-1,1812,1142,0,0
595,-118,0,0,0,0,0,0,0,0,0,-1,1819,1142,0,0
602,-118,0,0,0,0,0,0,0,0,0,-1,1826,1142,0,0
609,-118,0,0,0,0,0,0,0,0,0,-1,1833,1142,0,0
616,-118,0,0,0,0,0,0,0,0,0,-1,1840,1142,0,0
623,-118,0,0,0,0,0,0,0,0,0,-1,1847,1142,0,0
630,-118,0,0,0,0,0,0,0,0,0,-1,1854,1142,0,0
637,-118,0,0,0,0,0,0,0,0,0,-1,1861,1142,0,0
644,-118,59.8956,2.68604,0.00429475,0.00120735,0.000150956,0.00430212,0.00119999,0.0487393,0.00256348,0.039375,1868,1142,59.8956,-2.68603
651,-118,60.1,2.46655,0.00328804,0.000969321,0.00065916,0.00346232,0.000795036,0.258489,0.00209413,0.0403888,1875,1142,60.1,-2.46655
658,-118,60.3063,2.42566,0.00252423,0.000722055,0.000820934,0.00284211,0.00040417,0.369443,0.00177542,0.0421374,1882,1142,60.3063,-2.42567
665,-118,60.3889,2.53906,0.00179197,0.00054406,0.00080141,0.00218368,0.00015235,0.454628,0.00140776,0.0424081,1889,1142,60.3889,-2.53905
672,-118,60.272,2.6875,0.00102723,0.000400751,0.000638903,0.00142555,2.43023e-06,0.55748,0.000949555,0.0473067,1896,1142,60.272,-2.68752
679,-118,60.1331,2.78284,0.000215075,8.29326e-05,0.000468901,0.000622537,-0.000324529,0.715406,0.000555739,0.0443074,1903,1142,60.133,-2.78278
686,-118,60.075,2.73474,-0.000160242,-0.000123324,0.000339985,0.000198703,-0.000482269,0.812518,0.000404362,0.0364884,1910,1142,60.0749,-2.73477
693,-118,60.0276,2.67224,-0.000301862,-0.000318327,0.000253513,-5.6448e-05,-0.00056374,0.769167,0.000358495,0.0331232,1917,1142,60.0275,-2.67228
700,-118,60.1228,2.5647,-0.000316367,-0.00052597,0.000311095,-9.28949e-05,-0.000749442,0.622929,0.000471722,0.021304,1924,1142,60.1228,-2.56471
707,-118,60.2048,2.57141,0,0,0,0,0,0,0,-1,1931,1142,60.2048,-2.57135
714,-118,50.4819,8.53809,0,0,0,0,0,0,0,-1,1938,1142,50.4819,-8.53809
721,-118,54.66,8.43396,0,0,0,0,0,0,0,-1,1945,1142,54.6601,-8.43396
728,-118,54.6523,7.95789,-0.00146604,-0.000196108,0.000705684,0.000118225,-0.00178038,1.15175,0.00122822,0.0212087,1952,1142,54.6523,-7.95788
735,-118,54.6077,7.50964,-0.00189523,0.000296068,0.0010449,0.000714441,-0.00231361,1.18995,0.00182771,0.021431,1959,1142,54.6077,-7.50962
742,-118,54.5999,7.01917,-0.00220601,0.000410771,0.00154707,0.00112854,-0.00292378,1.1364,0.00241492,0.0318614,1966,1142,54.5999,-7.01912
749,-118,54.5173,6.552,-0.00205421,0.00225065,0.0009557,0.00245328,-0.00225684,1.36187,0.00272018,0.0236534,1973,1142,54.5173,-6.55194
756,-118,54.5278,6.09302,-0.00211646,0.00352971,-0.000324165,0.00354826,-0.00213501,-1.51363,0.00331488,0.0180307,1980,1142,54.5279,-6.09302
763,-118,54.5437,5.60266,-0.00158856,0.00533869,-0.00296412,0.00643387,-0.00268374,-1.21687,0.00541044,0.0107331,1987,1142,54.5437,-5.60269
770,-118,54.4451,5.16101,-0.000501556,0.00745329,-0.00700421,0.0115306,-0.00457887,-1.04362,0.00958513,0.0146063,1994,1142,54.4451,-5.16097
777,-118,54.2747,4.75195,0.00122741,0.00941507,-0.0123899,0.0183699,-0.00772745,-0.94496,0.0154793,0.03156,2001,1142,54.2748,-4.75191
784,-118,54.0791,4.35291,0.00367274,0.0109895,-0.0194962,0.0271676,-0.0125053,-0.878143,0.0234208,0.0463529,2008,1142,54.079,-4.35285
791,-118,53.7024,4.10803,0,0,0,0,0,0,0,-1,2015,1142,53.7024,-4.10798
798,-118,54.1152,4.95593,0,0,0,0,0,0,0,-1,2022,1142,54.1152,-4.95597
805,-118,55.2483,4.33447,0,0,0,0,0,0,0,-1,2029,1142,55.2482,-4.33446
812,-118,52.4636,4.84033,0,0,0,0,0,0,0,-1,2036,1142,52.4635,-4.84033
-700,-125,0,0,0,0,0,0,0,0,0,-1,524,1149,0,0
-693,-125,-30.3221,1.47827,0,0,0,0,0,0,0,-1,531,1149,-30.3221,-1.47833
-686,-125,-29.5565,1.98767,0,0,0,0,0,0,0,-1,538,1149,-29.5565,-1.98769
-679,-125,-28.8007,2.45386,0,0,0,0,0,0,0,-1,545,1149,-28.8007,-2.45384
-672,-125,-43.3324,1.94446,0,0,0,0,0,0,0,-1,552,1149,-43.3324,-1.94443
-665,-125,-44.3093,1.92566,0,0,0,0,0,0,0,-1,559,1149,-44.3092,-1.92561
-658,-125,-39.4885,0.399292,0,0,0,0,0,0,0,-1,566,1149,-39.4885,-0.39932
-651,-125,-39.2645,1.24426,0.00109013,0.00804149,0.000501651,0.00807751,0.00105412,1.49913,0.00507029,0.0427725,573,1149,-39.2645,-1.24425
-644,-125,-39.1627,2.01526,3.15349e-05,0.00697407,0.000846586,0.00707582,-7.02082e-05,1.45119,0.00474079,0.031991,580,1149,-39.1627,-2.01528
-637,-125,-39.274,2.61011,-0.00110902,0.00560102,0.0012085,0.00581204,-0.00132004,1.39793,0.0043815,0.0149326,587,1149,-39.274,-2.61012
-630,-125,-39.2925,3.10474,-0.00154229,0.00428673,0.000974034,0.00444518,-0.00170075,1.40953,0.00366438,0.0150879,594,1149,-39.2925,-3.1047
-623,-125,-39.2907,3.62463,-0.00088135,0.00244477,-0.000197485,0.00245645,-0.000893034,-1.5117,0.00200282,0.0135901,601,1149,-39.2907,-3.62467
-616,-125,-39.3439,4.10425,-0.000415132,0.000853986,-0.00113784,0.00152225,-0.00108339,-1.03976,0.00151146,0.0279728,608,1149,-39.3439,-4.10421
-609,-125,-39.5416,4.36707,0,0,0,0,0,0,0,-1,615,1149,-39.5416,-4.36709
-602,-125,-39.4692,5.19385,0,0,0,0,0,0,0,-1,622,1149,-39.4692,-5.19384
-595,-125,-39.6548,5.83691,0,0,0,0,0,0,0,-1,629,1149,-39.6549,-5.83686
-588,-125,-38.4244,6.27576,0,0,0,0,0,0,0,-1,636,1149,-38.4245,-6.27573
-581,-125,-26.4055,4.83203,0,0,0,0,0,0,0,-1,643,1149,-26.4055,-4.83204
-574,-125,-37.674,0.655151,0,0,0,0,0,0,0,-1,650,1149,-37.674,-0.655195
-567,-125,-45.3223,0.772461,0,0,0,0,0,0,0,-1,657,1149,-45.3223,-0.772462
-560,-125,-45.4295,0.933716,0.00231735,-0.00245454,-0.000925857,0.00249069,-0.00262788,-0.18508,0.00295556,0.0390241,664,1149,-45.4295,-0.933683
-553,-125,-45.3937,0.966064,0.00236546,-0.00254717,-0.0012286,0.00265559,-0.0028373,-0.231895,0.0031719,0.039187,671,1149,-45.3937,-0.966028
-546,-125,-45.2051,0.841431,0.00201424,-0.00210807,-0.00182925,0.0027089,-0.00280273,-0.36293,0.0031823,0.0405752,678,1149,-45.2051,-0.841424
-539,-125,-45.2106,0.834229,0.00217546,-0.00172803,-0.00275443,0.00359954,-0.00315211,-0.477166,0.00390092,0.043389,685,1149,-45.2106,-0.834256
-532,-125,-45.4016,0.925659,0.00260276,-0.00147518,-0.00384348,0.00491463,-0.00378705,-0.541524,0.00503795,0.0403997,692,1149,-45.4016,-0.925626
-525,-125,-45.2637,0.945068,0.00290969,-0.00132062,-0.00505163,0.0062711,-0.00468204,-0.587133,0.00634594,0.0431813,699,1149,-45.2638,-0.945095
-518,-125,0,0,0,0,0,0,0,0,0,-1,706,1149,0,0
-511,-125,0,0,0,0,0,0,0,0,0,-1,713,1149,0,0
-504,-125,0,0,0,0,0,0,0,0,0,-1,720,1149,0,0
-497,-125,0,0,0,0,0,0,0,0,0,-1,727,1149,0,0
-490,-125,0,0,0,0,0,0,0,0,0,-1,734,1149,0,0
-483,-125,0,0,0,0,0,0,0,0,0,-1,741,1149,0,0
-476,-125,0,0,0,0,0,0,0,0,0,-1,748,1149,0,0
-469,-125,0,0,0,0,0,0,0,0,0,-1,755,1149,0,0
-462,-125,0,0,0,0,0,0,0,0,0,-1,762,1149,0,0
-455,-125,0,0,0,0,0,0,0,0,0,-1,769,1149,0,0
-448,-125,0,0,0,0,0,0,0,0,0,-1,776,1149,0,0
-441,-125,0,0,0,0,0,0,0,0,0,-1,783,1149,0,0
-434,-125,0,0,0,0,0,0,0,0,0,-1,790,1149,0,0
-427,-125,0,0,0,0,0,0,0,0,0,-1,797,1149,0,0
-420,-125,0,0,0,0,0,0,0,0,0,-1,804,1149,0,0
-413,-125,0,0,0,0,0,0,0,0,0,-1,811,1149,0,0
-406,-125,0,0,0,0,0,0,0,0,0,-1,818,1149,0,0
-399,-125,0,0,0,0,0,0,0,0,0,-1,825,1149,0,0
-392,-125,0,0,0,0,0,0,0,0,0,-1,832,1149,0,0
-385,-125,0,0,0,0,0,0,0,0,0,-1,839,1149,0,0
-378,-125,0,0,0,0,0,0,0,0,0,-1,846,1149,0,0
-371,-125,0,0,0,0,0,0,0,0,0,-1,853,1149,0,0
-364,-125,0,0,0,0,0,0,0,0,0,-1,860,1149,0,0
-357,-125,0,0,0,0,0,0,0,0,0,-1,867,1149,0,0
-350,-125,0,0,0,0,0,0,0,0,0,-1,874,1149,0,0
-343,-125,0,0,0,0,0,0,0,0,0,-1,881,1149,0,0
-336,-125,0,0,0,0,0,0,0,0,0,-1,888,1149,0,0
-329,-125,0,0,0,0,0,0,0,0,0,-1,895,1149,0,0
-322,-125,0,0,0,0,0,0,0,0,0,-1,902,1149,0,0
-315,-125,0,0,0,0,0,0,0,0,0,-1,909,1149,0,0
-308,-125,0,0,0,0,0,0,0,0,0,-1,916,1149,0,0
-301,-125,0,0,0,0,0,0,0,0,0,-1,923,1149,0,0
-294,-125,0,0,0,0,0,0,0,0,0,-1,930,1149,0,0
-287,-125,0,0,0,0,0,0,0,0,0,-1,937,1149,0,0
-280,-125,0,0,0,0,0,0,0,0,0,-1,944,1149,0,0
-273,-125,0,0,0,0,0,0,0,0,0,-1,951,1149,0,0
-266,-125,0,0,0,0,0,0,0,0,0,-1,958,1149,0,0
-259,-125,0,0,0,0,0,0,0,0,0,-1,965,1149,0,0
-252,-125,0,0,0,0,0,0,0,0,0,-1,972,1149,0,0
-245,-125,0,0,0,0,0,0,0,0,0,-1,979,1149,0,0
-238,-125,0,0,0,0,0,0,0,0,0,-1,986,1149,0,0
-231,-125,0,0,0,0,0,0,0,0,0,-1,993,1149,0,0
-224,-125,0,0,0,0,0,0,0,0,0,-1,1000,1149,0,0
-217,-125,0,0,0,0,0,0,0,0,0,-1,1007,1149,0,0
-210,-125,0,0,0,0,0,0,0,0,0,-1,1014,1149,0,0
-203,-125,0,0,0,0,0,0,0,0,0,-1,1021,1149,0,0
-196,-125,0,0,0,0,0,0,0,0,0,-1,1028,1149,0,0
-189,-125,0,0,0,0,0,0,0,0,0,-1,1035,1149,0,0
-182,-125,0,0,0,0,0,0,0,0,0,-1,1042,1149,0,0
-175,-125,0,0,0,0,0,0,0,0,0,-1,1049,1149,0,0
-168,-125,0,0,0,0,0,0,0,0,0,-1,1056,1149,0,0
-161,-125,0,0,0,0,0,0,0,0,0,-1,1063,1149,0,0
-154,-125,0,0,0,0,0,0,0,0,0,-1,1070,1149,0,0
-147,-125,0,0,0,0,0,0,0,0,0,-1,1077,1149,0,0
-140,-125,0,0,0,0,0,0,0,0,0,-1,1084,1149,0,0
-133,-125,0,0,0,0,0,0,0,0,0,-1,1091,1149,0,0
-126,-125,0,0,0,0,0,0,0,0,0,-1,1098,1149,0,0
-119,-125,0,0,0,0,0,0,0,0,0,-1,1105,1149,0,0
-112,-125,0,0,0,0,0,0,0,0,0,-1,1112,1149,0,0
-105,-125,0,0,0,0,0,0,0,0,0,-1,1119,1149,0,0
-98,-125,0,0,0,0,0,0,0,0,0,-1,1126,1149,0,0
-91,-125,0,0,0,0,0,0,0,0,0,-1,1133,1149,0,0
-84,-125,0,0,0,0,0,0,0,0,0,-1,1140,1149,0,0
-77,-125,0,0,0,0,0,0,0,0,0,-1,1147,1149,0,0
-70,-125,0,0,0,0,0,0,0,0,0,-1,1154,1149,0,0
-63,-125,0,0,0,0,0,0,0,0,0,-1,1161,1149,0,0
-56,-125,0,0,0,0,0,0,0,0,0,-1,1168,1149,0,0
-49,-125,0,0,0,0,0,0,0,0,0,-1,1175,1149,0,0
-42,-125,0,0,0,0,0,0,0,0,0,-1,1182,1149,0,0
-35,-125,0,0,0,0,0,0,0,0,0,-1,1189,1149,0,0
-28,-125,0,0,0,0,0,0,0,0,0,-1,1196,1149,0,0
-21,-125,0,0,0,0,0,0,0,0,0,-1,1203,1149,0,0
-14,-125,0,0,0,0,0,0,0,0,0,-1,1210,1149,0,0
-7,-125,0,0,0,0,0,0,0,0,0,-1,1217,1149,0,0
0,-125,0,0,0,0,0,0,0,0,0,-1,1224,1149,0,0
7,-125,0,0,0,0,0,0,0,0,0,-1,1231,1149,0,0
14,-125,0,0,0,0,0,0,0,0,0,-1,1238,1149,0,0
21,-125,0,0,0,0,0,0,0,0,0,-1,1245,1149,0,0
28,-125,0,0,0,0,0,0,0,0,0,-1,1252,1149,0,0
35,-125,0,0,0,0,0,0,0,0,0,-1,1259,1149,0,0
42,-125,0,0,0,0,0,0,0,0,0,-1,1266,1149,0,0
49,-125,0,0,0,0,0,0,0,0,0,-1,1273,1149,0,0
56,-125,0,0,0,0,0,0,0,0,0,-1,1280,1149,0,0
63,-125,0,0,0,0,0,0,0,0,0,-1,1287,1149,0,0
70,-125,0,0,0,0,0,0,0,0,0,-1,1294,1149,0,0
77,-125,0,0,0,0,0,0,0,0,0,-1,1301,1149,0,0
84,-125,0,0,0,0,0,0,0,0,0,-1,1308,1149,0,0
91,-125,0,0,0,0,0,0,0,0,0,-1,1315,1149,0,0
98,-125,0,0,0,0,0,0,0,0,0,-1,1322,1149,0,0
105,-125,0,0,0,0,0,0,0,0,0,-1,1329,1149,0,0
112,-125,0,0,0,0,0,0,0,0,0,-1,1336,1149,0,0
119,-125,0,0,0,0,0,0,0,0,0,-1,1343,1149,0,0
126,-125,0,0,0,0,0,0,0,0,0,-1,1350,1149,0,0
133,-125,0,0,0,0,0,0,0,0,0,-1,1357,1149,0,0
140,-125,0,0,0,0,0,0,0,0,0,-1,1364,1149,0,0
147,-125,0,0,0,0,0,0,0,0,0,-1,1371,1149,0,0
154,-125,0,0,0,0,0,0,0,0,0,-1,1378,1149,0,0
161,-125,0,0,0,0,0,0,0,0,0,-1,1385,1149,0,0
168,-125,0,0,0,0,0,0,0,0,0,-1,1392,1149,0,0
175,-125,0,0,0,0,0,0,0,0,0,-1,1399,1149,0,0
182,-125,0,0,0,0,0,0,0,0,0,-1,1406,1149,0,0
189,-125,0,0,0,0,0,0,0,0,0,-1,1413,1149,0,0
196,-125,0,0,0,0,0,0,0,0,0,-1,1420,1149,0,0
203,-125,0,0,0,0,0,0,0,0,0,-1,1427,1149,0,0
210,-125,0,0,0,0,0,0,0,0,0,-1,1434,1149,0,0
217,-125,0,0,0,0,0,0,0,0,0,-1,1441,1149,0,0
224,-125,0,0,0,0,0,0,0,0,0,-1,1448,1149,0,0
231,-125,0,0,0,0,0,0,0,0,0,-1,1455,1149,0,0
238,-125,0,0,0,0,0,0,0,0,0,-1,1462,1149,0,0
245,-125,0,0,0,0,0,0,0,0,0,-1,1469,1149,0,0
252,-125,0,0,0,0,0,0,0,0,0,-1,1476,1149,0,0
259,-125,0,0,0,0,0,0,0,0,0,-1,1483,1149,0,0
266,-125,0,0,0,0,0,0,0,0,0,-1,1490,1149,0,0
273,-125,0,0,0,0,0,0,0,0,0,-1,1497,1149,0,0
280,-125,0,0,0,0,0,0,0,0,0,-1,1504,1149,0,0
287,-125,0,0,0,0,0,0,0,0,0,-1,1511,1149,0,0
294,-125,0,0,0,0,0,0,0,0,0,-1,1518,1149,0,0
301,-125,0,0,0,0,0,0,0,0,0,-1,1525,1149,0,0
308,-125,0,0,0,0,0,0,0,0,0,-1,1532,1149,0,0
315,-125,0,0,0,0,0,0,0,0,0,-1,1539,1149,0,0
322,-125,0,0,0,0,0,0,0,0,0,-1,1546,1149,0,0
329,-125,0,0,0,0,0,0,0,0,0,-1,1553,1149,0,0
336,-125,0,0,0,0,0,0,0,0,0,-1,1560,1149,0,0
343,-125,0,0,0,0,0,0,0,0,0,-1,1567,1149,0,0
350,-125,0,0,0,0,0,0,0,0,0,-1,1574,1149,0,0
357,-125,0,0,0,0,0,0,0,0,0,-1,1581,1149,0,0
364,-125,0,0,0,0,0,0,0,0,0,-1,1588,1149,0,0
371,-125,0,0,0,0,0,0,0,0,0,-1,1595,1149,0,0
378,-125,0,0,0,0,0,0,0,0,0,-1,1602,1149,0,0
385,-125,0,0,0,0,0,0,0,0,0,-1,1609,1149,0,0
392,-125,0,0,0,0,0,0,0,0,0,-1,1616,1149,0,0
399,-125,0,0,0,0,0,0,0,0,0,-1,1623,1149,0,0
406,-125,0,0,0,0,0,0,0,0,0,-1,1630,1149,0,0
413,-125,0,0,0,0,0,0,0,0,0,-1,1637,1149,0,0
420,-125,0,0,0,0,0,0,0,0,0,-1,1644,1149,0,0
427,-125,0,0,0,0,0,0,0,0,0,-1,1651,1149,0,0
434,-125,0,0,0,0,0,0,0,0,0,-1,1658,1149,0,0
441,-125,0,0,0,0,0,0,0,0,0,-1,1665,1149,0,0
448,-125,0,0,0,0,0,0,0,0,0,-1,1672,1149,0,0
455,-125,0,0,0,0,0,0,0,0,0,-1,1679,1149,0,0
462,-125,0,0,0,0,0,0,0,0,0,-1,1686,1149,0,0
469,-125,0,0,0,0,0,0,0,0,0,-1,1693,1149,0,0
476,-125,0,0,0,0,0,0,0,0,0,-1,1700,1149,0,0
483,-125,0,0,0,0,0,0,0,0,0,-1,1707,1149,0,0
490,-125,0,0,0,0,0,0,0,0,0,-1,1714,1149,0,0
497,-125,0,0,0,0,0,0,0,0,0,-1,1721,1149,0,0
504,-125,0,0,0,0,0,0,0,0,0,-1,1728,1149,0,0
511,-125,0,0,0,0,0,0,0,0,0,-1,1735,1149,0,0
518,-125,0,0,0,0,0,0,0,0,0,-1,1742,1149,0,0
525,-125,0,0,0,0,0,0,0,0,0,-1,1749,1149,0,0
532,-125,0,0,0,0,0,0,0,0,0,-1,1756,1149,0,0
539,-125,0,0,0,0,0,0,0,0,0,-1,1763,1149,0,0
546,-125,0,0,0,0,0,0,0,0,0,-1,1770,1149,0,0
553,-125,0,0,0,0,0,0,0,0,0,-1,1777,1149,0,0
560,-125,0,0,0,0,0,0,0,0,0,-1,1784,1149,0,0
567,-125,0,0,0,0,0,0,0,0,0,-1,1791,1149,0,0
574,-125,0,0,0,0,0,0,0,0,0,-1,1798,1149,0,0
581,-125,0,0,0,0,0,0,0,0,0,-1,1805,1149,0,0
588,-125,0,0,0,0,0,0,0,0,0,-1,1812,1149,0,0
595,-125,0,0,0,0,0,0,0,0,0,-1,1819,1149,0,0
602,-125,0,0,0,0,0,0,0,0,0,-1,1826,1149,0,0
609,-125,0,0,0,0,0,0,0,0,0,-1,1833,1149,0,0
616,-125,0,0,0,0,0,0,0,0,0,-1,1840,1149,0,0
623,-125,0,0,0,0,0,0,0,0,0,-1,1847,1149,0,0
630,-125,0,0,0,0,0,0,0,0,0,-1,1854,1149,0,0
637,-125,0,0,0,0,0,0,0,0,0,-1,1861,1149,0,0
644,-125,59.9844,2.58838,0.00337477,0.000898576,0.000903014,0.0036691,0.00060425,0.315079,0.0022716,0.0426305,1868,1149,59.9844,-2.58841
651,-125,59.9047,2.67615,0.00252531,0.000881674,0.0012222,0.0031763,0.000230686,0.489414,0.00204498,0.0425994,1875,1149,59.9046,-2.67615
658,-125,60.1063,2.64648,0.00188662,0.00081625,0.00124394,0.00270562,-2.74472e-06,0.58225,0.00180466,0.0410891,1882,1149,60.1064,-2.64653
665,-125,60.0938,2.85535,0.00128341,0.000790153,0.00108629,0.00215072,-7.71522e-05,0.673771,0.00146021,0.0426717,1889,1149,60.0937,-2.85538
672,-125,60.0782,3.01941,0.000604932,0.00076911,0.000817765,0.0015089,-0.000134854,0.835422,0.00105376,0.0465329,1896,1149,60.0782,-3.01936
679,-125,60.1125,2.81995,-0.000148281,0.000495008,0.000614458,0.000866915,-0.000520188,1.02652,0.000809141,0.0404599,1903,1149,60.1125,-2.81993
686,-125,60.1226,2.6958,-0.000444204,0.000384304,0.00044532,0.000578258,-0.000638158,1.16003,0.000702582,0.0364718,1910,1149,60.1226,-2.69579
693,-125,60.0382,2.66382,-0.000533448,0.000221496,0.000353727,0.000361332,-0.000673284,1.19433,0.000606319,0.0312693,1917,1149,60.0382,-2.66378
700,-125,60.0959,2.56995,-0.000514122,1.15733e-05,0.000392759,0.000221324,-0.000723873,1.08029,0.000570842,0.0169835,1924,1149,60.096,-2.56991
707,-125,60.1776,2.47095,0,0,0,0,0,0,0,-1,1931,1149,60.1776,-2.47093
714,-125,54.3396,9.06152,0,0,0,0,0,0,0,-1,1938,1149,54.3396,-9.06147
721,-125,54.1874,8.50403,-0.00131268,-5.55904e-05,0.00061288,0.000193754,-0.00156203,1.18441,0.00111158,0.048874,1945,1149,54.1874,-8.50402
728,-125,54.1111,8.02576,-0.00146154,0.000113626,0.000628013,0.00033336,-0.00168128,1.23422,0.00124691,0.0211446,1952,1149,54.111,-8.0258
735,-125,54.1012,7.58911,-0.00179466,0.00057171,0.000908543,0.000880295,-0.00210324,1.24337,0.00177013,0.0211572,1959,1149,54.1011,-7.58911
742,-125,54.0792,7.08533,-0.00205496,0.00062068,0.00138326,0.00120722,-0.0026415,1.16975,0.00227292,0.0310497,1966,1149,54.0792,-7.08536
749,-125,54.0109,6.61169,-0.00194832,0.00257193,0.000828932,0.00271915,-0.00209554,1.39503,0.00278752,0.0273925,1973,1149,54.0109,-6.6117
756,-125,54.0066,6.0802,-0.00181374,0.00441352,-0.000641359,0.00447889,-0.00187911,-1.46922,0.0037717,0.0210125,1980,1149,54.0066,-6.08019
763,-125,54.0165,5.61414,-0.00096792,0.00715033,-0.00359043,0.0085104,-0.00232799,-1.20869,0.00658816,0.0122297,1987,1149,54.0165,-5.61413
770,-125,53.9512,5.14197,0.000463755,0.0103546,-0.00795659,0.0147775,-0.00395909,-1.06346,0.0114028,0.0160082,1994,1149,53.9512,-5.14198
777,-125,53.8555,4.77979,0.00257484,0.0136627,-0.0137478,0.0229423,-0.00670473,-0.977055,0.0179521,0.0313199,2001,1149,53.8554,-4.77982
784,-125,53.8213,4.34143,0.00549442,0.0169568,-0.021422,0.0334011,-0.0109498,-0.916106,0.0266772,0.0460952,2008,1149,53.8213,-4.34149
791,-125,53.8667,3.9104,0,0,0,0,0,0,0,-1,2015,1149,53.8668,-3.91036
798,-125,52.9536,5.82861,0,0,0,0,0,0,0,-1,2022,1149,52.9536,-5.82857
805,-125,52.6938,5.34546,0,0,0,0,0,0,0,-1,2029,1149,52.6939,-5.3455
812,-125,51.4773,-0.254395,0,0,0,0,0,0,0,-1,2036,1149,51.4773,0.254409
-700,-132,0,0,0,0,0,0,0,0,0,-1,524,1156,0,0
-693,-132,-27.999,1.63867,0,0,0,0,0,0,0,-1,531,1156,-27.999,-1.63873
-686,-132,-27.2359,2.13318,0,0,0,0,0,0,0,-1,538,1156,-27.2359,-2.13317
-679,-132,-43.2063,1.21667,-0.000123198,0.00578812,-0.00434927,0.00809098,-0.00242606,-1.08384,0.00635886,0.0481029,545,1156,-43.2063,-1.21668
-672,-132,-43.8671,2.16846,0,0,0,0,0,0,0,-1,552,1156,-43.8671,-2.16848
-665,-132,-44.7733,3.07043,-0.00215139,0.00706303,0.00382462,0.00844366,-0.00353201,1.22437,0.00710535,0.0415964,559,1156,-44.7733,-3.07041
-658,-132,-45.6781,3.94116,0,0,0,0,0,0,0,-1,566,1156,-45.6781,-3.94111
-651,-132,-38.8307,1.20129,0,0,0,0,0,0,0,-1,573,1156,-38.8307,-1.2013
-644,-132,-38.7004,2.06165,-0.00199235,0.00630543,0.00362805,0.00766799,-0.0033549,1.21153,0.00652444,0.0263297,580,1156,-38.7004,-2.06159
-637,-132,-38.7289,2.58484,-0.00213925,0.00521747,0.00277154,0.00614473,-0.00306652,1.24794,0.0054162,0.0133801,587,1156,-38.7289,-2.5848
-630,-132,-38.7288,3.09351,-0.00197315,0.00416496,0.00164264,0.00457691,-0.0023851,1.32508,0.00408537,0.0103777,594,1156,-38.7288,-3.09352
-623,-132,-38.7584,3.63525,-0.00133207,0.00228123,-0.000195434,0.00229177,-0.00134261,-1.51692,0.00212203,0.0154526,601,1156,-38.7583,-3.63528
-616,-132,-38.8492,4.06982,-0.00111481,0.000582991,-0.00133655,0.00131744,-0.00184926,-1.06833,0.00183687,0.0356207,608,1156,-38.8493,-4.06979
-609,-132,-38.768,4.77258,0,0,0,0,0,0,0,-1,615,1156,-38.768,-4.77262
-602,-132,-38.8121,5.20361,-0.00112299,-0.000983226,-0.00103241,-1.83313e-05,-0.00208788,-0.819191,0.00138585,0.0345042,622,1156,-38.8121,-5.20359
-595,-132,-38.945,5.71167,-0.00120348,-0.00113467,-0.000862629,-0.000305762,-0.00203239,-0.805328,0.00126538,0.0483143,629,1156,-38.945,-5.71163
-588,-132,-39.0231,6.28125,0,0,0,0,0,0,0,-1,636,1156,-39.0231,-6.28129
-581,-132,-35.9343,6.42957,0,0,0,0,0,0,0,-1,643,1156,-35.9342,-6.42957
-574,-132,-33.2071,2.86963,0,0,0,0,0,0,0,-1,650,1156,-33.2071,-2.86963
-567,-132,-45.3036,0.765137,0,0,0,0,0,0,0,-1,657,1156,-45.3036,-0.765112
-560,-132,-45.3983,0.848511,0.00154947,-0.00160576,-0.000553891,0.00164388,-0.00170017,-0.168825,0.00193078,0.0377302,664,1156,-45.3982,-0.848539
-553,-132,-45.4824,0.944458,0.00177626,-0.0016686,-0.000726295,0.00192312,-0.00181547,-0.199523,0.00215877,0.0400468,671,1156,-45.4824,-0.944401
-546,-132,-45.4385,1.03149,0.00168575,-0.00133209,-0.00124783,0.00213487,-0.00178122,-0.345486,0.00226402,0.0422495,678,1156,-45.4385,-1.03146
-539,-132,-45.2618,0.802002,0.00206569,-0.00124231,-0.00228665,0.00323383,-0.00241045,-0.472292,0.00327026,0.0437037,685,1156,-45.2618,-0.801949
-532,-132,-45.2375,0.766357,0.00269484,-0.00127373,-0.00349456,0.00472918,-0.00330807,-0.527187,0.00466442,0.0411792,692,1156,-45.2376,-0.766347
-525,-132,-45.2769,0.96106,0.003153,-0.00132543,-0.00475238,0.00616728,-0.00433971,-0.565236,0.00609672,0.0424452,699,1156,-45.2768,-0.96109
-518,-132,0,0,0,0,0,0,0,0,0,-1,706,1156,0,0
-511,-132,0,0,0,0,0,0,0,0,0,-1,713,1156,0,0
-504,-132,0,0,0,0,0,0,0,0,0,-1,720,1156,0,0
-497,-132,0,0,0,0,0,0,0,0,0,-1,727,1156,0,0
-490,-132,0,0,0,0,0,0,0,0,0,-1,734,1156,0,0
-483,-132,0,0,0,0,0,0,0,0,0,-1,741,1156,0,0
-476,-132,0,0,0,0,0,0,0,0,0,-1,748,1156,0,0
-469,-132,0,0,0,0,0,0,0,0,0,-1,755,1156,0,0
-462,-132,0,0,0,0,0,0,0,0,0,-1,762,1156,0,0
-455,-132,0,0,0,0,0,0,0,0,0,-1,769,1156,0,0
-448,-132,0,0,0,0,0,0,0,0,0,-1,776,1156,0,0
-441,-132,0,0,0,0,0,0,0,0,0,-1,783,1156,0,0
-434,-132,0,0,0,0,0,0,0,0,0,-1,790,1156,0,0
-427,-132,0,0,0,0,0,0,0,0,0,-1,797,1156,0,0
-420,-132,0,0,0,0,0,0,0,0,0,-1,804,1156,0,0
-413,-132,0,0,0,0,0,0,0,0,0,-1,811,1156,0,0
-406,-132,0,0,0,0,0,0,0,0,0,-1,818,1156,0,0
-399,-132,0,0,0,0,0,0,0,0,0,-1,825,1156,0,0
-392,-132,0,0,0,0,0,0,0,0,0,-1,832,1156,0,0
-385,-132,0,0,0,0,0,0,0,0,0,-1,839,1156,0,0
-378,-132,0,0,0,0,0,0,0,0,0,-1,846,1156,0,0
-371,-132,0,0,0,0,0,0,0,0,0,-1,853,1156,0,0
-364,-132,0,0,0,0,0,0,0,0,0,-1,860,1156,0,0
-357,-132,0,0,0,0,0,0,0,0,0,-1,867,1156,0,0
-350,-132,0,0,0,0,0,0,0,0,0,-1,874,1156,0,0
-343,-132,0,0,0,0,0,0,0,0,0,-1,881,1156,0,0
-336,-132,0,0,0,0,0,0,0,0,0,-1,888,1156,0,0
-329,-132,0,0,0,0,0,0,0,0,0,-1,895,1156,0,0
-322,-132,0,0,0,0,0,0,0,0,0,-1,902,1156,0,0
-315,-132,0,0,0,0,0,0,0,0,0,-1,909,1156,0,0
-308,-132,0,0,0,0,0,0,0,0,0,-1,916,1156,0,0
-301,-132,0,0,0,0,0,0,0,0,0,-1,923,1156,0,0
-294,-132,0,0,0,0,0,0,0,0,0,-1,930,1156,0,0
-287,-132,0,0,0,0,0,0,0,0,0,-1,937,1156,0,0
-280,-132,0,0,0,0,0,0,0,0,0,-1,944,1156,0,0
-273,-132,0,0,0,0,0,0,0,0,0,-1,951,1156,0,0
-266,-132,0,0,0,0,0,0,0,0,0,-1,958,1156,0,0
-259,-132,0,0,0,0,0,0,0,0,0,-1,965,1156,0,0
-252,-132,0,0,0,0,0,0,0,0,0,-1,972,1156,0,0
-245,-132,0,0,0,0,0,0,0,0,0,-1,979,1156,0,0
-238,-132,0,0,0,0,0,0,0,0,0,-1,986,1156,0,0
-231,-132,0,0,0,0,0,0,0,0,0,-1,993,1156,0,0
-224,-132,0,0,0,0,0,0,0,0,0,-1,1000,1156,0,0
-217,-132,0,0,0,0,0,0,0,0,0,-1,1007,1156,0,0
-210,-132,0,0,0,0,0,0,0,0,0,-1,1014,1156,0,0
-203,-132,0,0,0,0,0,0,0,0,0,-1,1021,1156,0,0
-196,-132,0,0,0,0,0,0,0,0,0,-1,1028,1156,0,0
-189,-132,0,0,0,0,0,0,0,0,0,-1,1035,1156,0,0
-182,-132,0,0,0,0,0,0,0,0,0,-1,1042,1156,0,0
-175,-132,0,0,0,0,0,0,0,0,0,-1,1049,1156,0,0
-168,-132,0,0,0,0,0,0,0,0,0,-1,1056,1156,0,0
-161,-132,0,0,0,0,0,0,0,0,0,-1,1063,1156,0,0
-154,-132,0,0,0,0,0,0,0,0,0,-1,1070,1156,0,0
-147,-132,0,0,0,0,0,0,0,0,0,-1,1077,1156,0,0
-140,-132,0,0,0,0,0,0,0,0,0,-1,1084,1156,0,0
-133,-132,0,0,0,0,0,0,0,0,0,-1,1091,1156,0,0
-126,-132,0,0,0,0,0,0,0,0,0,-1,1098,1156,0,0
-119,-132,0,0,0,0,0,0,0,0,0,-1,1105,1156,0,0
-112,-132,0,0,0,0,0,0,0,0,0,-1,1112,1156,0,0
-105,-132,0,0,0,0,0,0,0,0,0,-1,1119,1156,0,0
-98,-132,0,0,0,0,0,0,0,0,0,-1,1126,1156,0,0
-91,-132,0,0,0,0,0,0,0,0,0,-1,1133,1156,0,0
-84,-132,0,0,0,0,0,0,0,0,0,-1,1140,1156,0,0
-77,-132,0,0,0,0,0,0,0,0,0,-1,1147,1156,0,0
-70,-132,0,0,0,0,0,0,0,0,0,-1,1154,1156,0,0
-63,-132,0,0,0,0,0,0,0,0,0,-1,1161,1156,0,0
-56,-132,0,0,0,0,0,0,0,0,0,-1,1168,1156,0,0
-49,-132,0,0,0,0,0,0,0,0,0,-1,1175,1156,0,0
-42,-132,0,0,0,0,0,0,0,0,0,-1,1182,1156,0,0
-35,-132,0,0,0,0,0,0,0,0,0,-1,1189,1156,0,0
-28,-132,0,0,0,0,0,0,0,0,0,-1,1196,1156,0,0
-21,-132,0,0,0,0,0,0,0,0,0,-1,1203,1156,0,0
-14,-132,0,0,0,0,0,0,0,0,0,-1,1210,1156,0,0
-7,-132,0,0,0,0,0,0,0,0,0,-1,1217,1156,0,0
0,-132,0,0,0,0,0,0,0,0,0,-1,1224,1156,0,0
7,-132,0,0,0,0,0,0,0,0,0,-1,1231,1156,0,0
14,-132,0,0,0,0,0,0,0,0,0,-1,1238,1156,0,0
21,-132,0,0,0,0,0,0,0,0,0,-1,1245,1156,0,0
28,-132,0,0,0,0,0,0,0,0,0,-1,1252,1156,0,0
35,-132,0,0,0,0,0,0,0,0,0,-1,1259,1156,0,0
42,-132,0,0,0,0,0,0,0,0,0,-1,1266,1156,0,0
49,-132,0,0,0,0,0,0,0,0,0,-1,1273,1156,0,0
56,-132,0,0,0,0,0,0,0,0,0,-1,1280,1156,0,0
63,-132,0,0,0,0,0,0,0,0,0,-1,1287,1156,0,0
70,-132,0,0,0,0,0,0,0,0,0,-1,1294,1156,0,0
77,-132,0,0,0,0,0,0,0,0,0,-1,1301,1156,0,0
84,-132,0,0,0,0,0,0,0,0,0,-1,1308,1156,0,0
91,-132,0,0,0,0,0,0,0,0,0,-1,1315,1156,0,0
98,-132,0,0,0,0,0,0,0,0,0,-1,1322,1156,0,0
105,-132,0,0,0,0,0,0,0,0,0,-1,1329,1156,0,0
112,-132,0,0,0,0,0,0,0,0,0,-1,1336,1156,0,0
119,-132,0,0,0,0,0,0,0,0,0,-1,1343,1156,0,0
126,-132,0,0,0,0,0,0,0,0,0,-1,1350,1156,0,0
133,-132,0,0,0,0,0,0,0,0,0,-1,1357,1156,0,0
140,-132,0,0,0,0,0,0,0,0,0,-1,1364,1156,0,0
147,-132,0,0,0,0,0,0,0,0,0,-1,1371,1156,0,0
154,-132,0,0,0,0,0,0,0,0,0,-1,1378,1156,0,0
161,-132,0,0,0,0,0,0,0,0,0,-1,1385,1156,0,0
168,-132,0,0,0,0,0,0,0,0,0,-1,1392,1156,0,0
175,-132,0,0,0,0,0,0,0,0,0,-1,1399,1156,0,0
182,-132,0,0,0,0,0,0,0,0,0,-1,1406,1156,0,0
189,-132,0,0,0,0,0,0,0,0,0,-1,1413,1156,0,0
196,-132,0,0,0,0,0,0,0,0,0,-1,1420,1156,0,0
203,-132,0,0,0,0,0,0,0,0,0,-1,1427,1156,0,0
210,-132,0,0,0,0,0,0,0,0,0,-1,1434,1156,0,0
217,-132,0,0,0,0,0,0,0,0,0,-1,1441,1156,0,0
224,-132,0,0,0,0,0,0,0,0,0,-1,1448,1156,0,0
231,-132,0,0,0,0,0,0,0,0,0,-1,1455,1156,0,0
238,-132,0,0,0,0,0,0,0,0,0,-1,1462,1156,0,0
245,-132,0,0,0,0,0,0,0,0,0,-1,1469,1156,0,0
252,-132,0,0,0,0,0,0,0,0,0,-1,1476,1156,0,0
259,-132,0,0,0,0,0,0,0,0,0,-1,1483,1156,0,0
266,-132,0,0,0,0,0,0,0,0,0,-1,1490,1156,0,0
273,-132,0,0,0,0,0,0,0,0,0,-1,1497,1156,0,0
280,-132,0,0,0,0,0,0,0,0,0,-1,1504,1156,0,0
287,-132,0,0,0,0,0,0,0,0,0,-1,1511,1156,0,0
294,-132,0,0,0,0,0,0,0,0,0,-1,1518,1156,0,0
301,-132,0,0,0,0,0,0,0,0,0,-1,1525,1156,0,0
308,-132,0,0,0,0,0,0,0,0,0,-1,1532,1156,0,0
315,-132,0,0,0,0,0,0,0,0,0,-1,1539,1156,0,0
322,-132,0,0,0,0,0,0,0,0,0,-1,1546,1156,0,0
329,-132,0,0,0,0,0,0,0,0,0,-1,1553,1156,0,0
336,-132,0,0,0,0,0,0,0,0,0,-1,1560,1156,0,0
343,-132,0,0,0,0,0,0,0,0,0,-1,1567,1156,0,0
350,-132,0,0,0,0,0,0,0,0,0,-1,1574,1156,0,0
357,-132,0,0,0,0,0,0,0,0,0,-1,1581,1156,0,0
364,-132,0,0,0,0,0,0,0,0,0,-1,1588,1156,0,0
371,-132,0,0,0,0,0,0,0,0,0,-1,1595,1156,0,0
378,-132,0,0,0,0,0,0,0,0,0,-1,1602,1156,0,0
385,-132,0,0,0,0,0,0,0,0,0,-1,1609,1156,0,0
392,-132,0,0,0,0,0,0,0,0,0,-1,1616,1156,0,0
399,-132,0,0,0,0,0,0,0,0,0,-1,1623,1156,0,0
406,-132,0,0,0,0,0,0,0,0,0,-1,1630,1156,0,0
413,-132,0,0,0,0,0,0,0,0,0,-1,1637,1156,0,0
420,-132,0,0,0,0,0,0,0,0,0,-1,1644,1156,0,0
427,-132,0,0,0,0,0,0,0,0,0,-1,1651,1156,0,0
434,-132,0,0,0,0,0,0,0,0,0,-1,1658,1156,0,0
441,-132,0,0,0,0,0,0,0,0,0,-1,1665,1156,0,0
448,-132,0,0,0,0,0,0,0,0,0,-1,1672,1156,0,0
455,-132,0,0,0,0,0,0,0,0,0,-1,1679,1156,0,0
462,-132,0,0,0,0,0,0,0,0,0,-1,1686,1156,0,0
469,-132,0,0,0,0,0,0,0,0,0,-1,1693,1156,0,0
476,-132,0,0,0,0,0,0,0,0,0,-1,1700,1156,0,0
483,-132,0,0,0,0,0,0,0,0,0,-1,1707,1156,0,0
490,-132,0,0,0,0,0,0,0,0,0,-1,1714,1156,0,0
497,-132,0,0,0,0,0,0,0,0,0,-1,1721,1156,0,0
504,-132,0,0,0,0,0,0,0,0,0,-1,1728,1156,0,0
511,-132,0,0,0,0,0,0,0,0,0,-1,1735,1156,0,0
518,-132,0,0,0,0,0,0,0,0,0,-1,1742,1156,0,0
525,-132,0,0,0,0,0,0,0,0,0,-1,1749,1156,0,0
532,-132,0,0,0,0,0,0,0,0,0,-1,1756,1156,0,0
539,-132,0,0,0,0,0,0,0,0,0,-1,1763,1156,0,0
546,-132,0,0,0,0,0,0,0,0,0,-1,1770,1156,0,0
553,-132,0,0,0,0,0,0,0,0,0,-1,1777,1156,0,0
560,-132,0,0,0,0,0,0,0,0,0,-1,1784,1156,0,0
567,-132,0,0,0,0,0,0,0,0,0,-1,1791,1156,0,0
574,-132,0,0,0,0,0,0,0,0,0,-1,1798,1156,0,0
581,-132,0,0,0,0,0,0,0,0,0,-1,1805,1156,0,0
588,-132,0,0,0,0,0,0,0,0,0,-1,1812,1156,0,0
595,-132,0,0,0,0,0,0,0,0,0,-1,1819,1156,0,0
602,-132,0,0,0,0,0,0,0,0,0,-1,1826,1156,0,0
609,-132,0,0,0,0,0,0,0,0,0,-1,1833,1156,0,0
616,-132,0,0,0,0,0,0,0,0,0,-1,1840,1156,0,0
623,-132,0,0,0,0,0,0,0,0,0,-1,1847,1156,0,0
630,-132,0,0,0,0,0,0,0,0,0,-1,1854,1156,0,0
637,-132,0,0,0,0,0,0,0,0,0,-1,1861,1156,0,0
644,-132,60.1006,2.4967,0.0025947,0.000542279,0.00149939,0.00338543,-0.000248456,0.485303,0.00234417,0.0472268,1868,1156,60.1006,-2.49668
651,-132,59.9264,2.58093,0.00184225,0.000754436,0.00174167,0.00312296,-0.000526277,0.634051,0.00227776,0.0451265,1875,1156,59.9265,-2.58088
658,-132,59.9786,2.60876,0.0012945,0.000924555,0.00166995,0.0027897,-0.00057064,0.73024,0.00207632,0.0426719,1882,1156,59.9787,-2.60877
665,-132,60.0409,2.67004,0.000810794,0.0011315,0.00138187,0.00236229,-0.00041999,0.843161,0.00173191,0.043806,1889,1156,60.0408,-2.6701
672,-132,59.9818,2.88489,0.000218398,0.00132193,0.000999654,0.00191198,-0.000371657,1.03757,0.00141491,0.0427351,1896,1156,59.9818,-2.88483
679,-132,60.0614,2.6698,-0.000474835,0.00116694,0.000740471,0.00145156,-0.000759458,1.20383,0.00129721,0.0394321,1903,1156,60.0614,-2.66976
686,-132,60.1101,2.72571,-0.000723006,0.00116366,0.000539538,0.00130706,-0.000866401,1.31103,0.00126342,0.0364981,1910,1156,60.1101,-2.72572
693,-132,60.08,2.68909,-0.000783552,0.00099286,0.000466726,0.00110802,-0.000898712,1.32889,0.00116069,0.0290859,1917,1156,60.08,-2.6891
700,-132,60.121,2.5553,0,0,0,0,0,0,0,-1,1924,1156,60.121,-2.55525
707,-132,57.9275,3.01367,0,0,0,0,0,0,0,-1,1931,1156,57.9275,-3.01369
714,-132,53.72,8.89441,0,0,0,0,0,0,0,-1,1938,1156,53.72,-8.89437
721,-132,53.7616,8.50464,-0.00126558,0.00055231,0.000567921,0.000715147,-0.00142842,1.29156,0.00126022,0.0439639,1945,1156,53.7616,-8.50469
728,-132,53.6068,8.09827,-0.00135137,0.0006355,0.000553266,0.000779173,-0.00149505,1.31673,0.00133453,0.030903,1952,1156,53.6069,-8.0983
735,-132,53.5399,7.61365,-0.00158138,0.000995342,0.000777372,0.0012117,-0.00179773,1.29935,0.00174844,0.0301123,1959,1156,53.5399,-7.6136
742,-132,53.5693,7.09631,-0.0018043,0.000947215,0.00120772,0.00140211,-0.0022592,1.21057,0.00213308,0.0226783,1966,1156,53.5694,-7.0963
749,-132,53.5514,6.59839,-0.00184087,0.00279586,0.000726314,0.00290697,-0.00195198,1.419,0.00282332,0.0249764,1973,1156,53.5514,-6.59843
756,-132,53.5272,6.08313,-0.00158993,0.0051525,-0.00101888,0.0053031,-0.00174053,-1.42405,0.00423648,0.0225629,1980,1156,53.5272,-6.08311
763,-132,53.491,5.62183,-0.000567852,0.00865145,-0.00429115,0.0103396,-0.00225605,-1.19598,0.00775528,0.0144037,1987,1156,53.491,-5.62186
770,-132,53.4803,5.15759,0.00101577,0.0127395,-0.00898032,0.0176018,-0.00384651,-1.07455,0.0132048,0.0148171,1994,1156,53.4804,-5.1576
777,-132,53.4392,4.68433,0.00326698,0.0171762,-0.0151594,0.0269002,-0.00645696,-1.00046,0.0204288,0.0257941,2001,1156,53.4393,-4.68435
784,-132,53.366,4.19934,0.00634457,0.0219108,-0.023306,0.038699,-0.0104436,-0.946552,0.0298949,0.0467516,2008,1156,53.3659,-4.1994
791,-132,53.3811,3.70203,0,0,0,0,0,0,0,-1,2015,1156,53.3811,-3.70204
798,-132,52.0063,6.86963,0.0167508,0.0313021,-0.0476007,0.07218,-0.024127,-0.861235,0.057864,0.0496105,2022,1156,52.0064,-6.8696
805,-132,52.1108,1.38367,0.0248077,0.0343448,-0.0646985,0.0944502,-0.0352978,-0.822184,0.0774616,0.0456011,2029,1156,52.1109,-1.38372
812,-132,51.3081,0.788696,0,0,0,0,0,0,0,-1,2036,1156,51.3082,-0.788731
-700,-139,0,0,0,0,0,0,0,0,0,-1,524,1163,0,0
-693,-139,-37.061,-1.47009,0,0,0,0,0,0,0,-1,531,1163,-37.061,1.47012
-686,-139,-43.3814,-0.597046,0,0,0,0,0,0,0,-1,538,1163,-43.3814,0.597037
-679,-139,-43.9801,0.514526,0,0,0,0,0,0,0,-1,545,1163,-43.9801,-0.514501
-672,-139,-44.2053,2.60901,0,0,0,0,0,0,0,-1,552,1163,-44.2053,-2.60901
-665,-139,-44.6902,3.33691,0,0,0,0,0,0,0,-1,559,1163,-44.6903,-3.33689
-658,-139,-39.4249,0.757202,0,0,0,0,0,0,0,-1,566,1163,-39.4249,-0.757149
-651,-139,-38.7982,1.37781,-0.00473088,0.0054233,0.00927974,0.010924,-0.0102316,1.03571,0.0122164,0.045978,573,1163,-38.7982,-1.37778
-644,-139,-38.1175,2.04016,-0.00355712,0.00519565,0.00670752,0.00882823,-0.0071897,1.07445,0.00926407,0.0268564,580,1163,-38.1175,-2.04022
-637,-139,-38.1572,2.55884,-0.00294925,0.00444344,0.00437384,0.00647365,-0.00497946,1.13622,0.00663119,0.014624,587,1163,-38.1572,-2.55883
-630,-139,-38.1867,3.09741,-0.00240852,0.00370641,0.00224876,0.00444434,-0.00314645,1.25372,0.00440384,0.0102546,594,1163,-38.1867,-3.09737
-623,-139,-38.2111,3.63953,-0.00188088,0.00200273,-0.000264082,0.0020206,-0.00189876,-1.50321,0.00226321,0.0162239,601,1163,-38.2111,-3.63955
-616,-139,-38.2719,4.15967,-0.00189563,0.000398462,-0.00166507,0.00127333,-0.00277051,-1.08701,0.00238745,0.0181945,608,1163,-38.2718,-4.15962
-609,-139,-38.0861,4.71899,0,0,0,0,0,0,0,-1,615,1163,-38.0861,-4.71895
-602,-139,-38.2272,5.27954,-0.00199582,-0.00090366,-0.00132602,-1.56772e-05,-0.00288381,-0.980725,0.00191733,0.0373703,622,1163,-38.2272,-5.27954
-595,-139,-38.3811,5.81458,-0.0019492,-0.000853216,-0.00110211,-0.000170379,-0.00263203,-1.01611,0.00170074,0.0476898,629,1163,-38.3811,-5.81457
-588,-139,-38.6599,6.25146,0,0,0,0,0,0,0,-1,636,1163,-38.6599,-6.25149
-581,-139,-34.4892,6.72473,0,0,0,0,0,0,0,-1,643,1163,-34.4892,-6.72476
-574,-139,-23.0725,2.4043,0,0,0,0,0,0,0,-1,650,1163,-23.0725,-2.40433
-567,-139,-45.3012,0.758301,0,0,0,0,0,0,0,-1,657,1163,-45.3012,-0.758285
-560,-139,-45.3774,0.898315,0.000527853,-0.000891157,-0.000714636,0.000825374,-0.00118868,-0.3945,0.0011691,0.038543,664,1163,-45.3774,-0.898311
-553,-139,-45.5204,1.14807,0.000877853,-0.000694844,-0.000722806,0.00115958,-0.000976574,-0.371659,0.00123482,0.0414488,671,1163,-45.5205,-1.14805
-546,-139,-45.5732,1.11633,0.0011816,-9.68241e-05,-0.00100218,0.00173106,-0.000646291,-0.501515,0.0014194,0.0419374,678,1163,-45.5732,-1.11638
-539,-139,-45.3816,0.82251,0.00206919,0.000290855,-0.00186695,0.0032479,-0.000887856,-0.563157,0.00251403,0.0403361,685,1163,-45.3816,-0.822562
-532,-139,-45.1266,0.690674,0.00314955,0.000492279,-0.00300493,0.00510647,-0.00146465,-0.577245,0.00398332,0.0415905,692,1163,-45.1266,-0.690673
-525,-139,-45.3274,0.887817,0.0040767,0.000724752,-0.00425895,0.00697758,-0.00217613,-0.597945,0.00552192,0.0429756,699,1163,-45.3274,-0.88787
-518,-139,0,0,0,0,0,0,0,0,0,-1,706,1163,0,0
-511,-139,0,0,0,0,0,0,0,0,0,-1,713,1163,0,0
-504,-139,0,0,0,0,0,0,0,0,0,-1,720,1163,0,0
-497,-139,0,0,0,0,0,0,0,0,0,-1,727,1163,0,0
-490,-139,0,0,0,0,0,0,0,0,0,-1,734,1163,0,0
-483,-139,0,0,0,0,0,0,0,0,0,-1,741,1163,0,0
-476,-139,0,0,0,0,0,0,0,0,0,-1,748,1163,0,0
-469,-139,0,0,0,0,0,0,0,0,0,-1,755,1163,0,0
-462,-139,0,0,0,0,0,0,0,0,0,-1,762,1163,0,0
-455,-139,0,0,0,0,0,0,0,0,0,-1,769,1163,0,0
-448,-139,0,0,0,0,0,0,0,0,0,-1,776,1163,0,0
-441,-139,0,0,0,0,0,0,0,0,0,-1,783,1163,0,0
-434,-139,0,0,0,0,0,0,0,0,0,-1,790,1163,0,0
-427,-139,0,0,0,0,0,0,0,0,0,-1,797,1163,0,0
-420,-139,0,0,0,0,0,0,0,0,0,-1,804,1163,0,0
-413,-139,0,0,0,0,0,0,0,0,0,-1,811,1163,0,0
-406,-139,0,0,0,0,0,0,0,0,0,-1,818,1163,0,0
-399,-139,0,0,0,0,0,0,0,0,0,-1,825,1163,0,0
-392,-139,0,0,0,0,0,0,0,0,0,-1,832,1163,0,0
-385,-139,0,0,0,0,0,0,0,0,0,-1,839,1163,0,0
-378,-139,0,0,0,0,0,0,0,0,0,-1,846,1163,0,0
-371,-139,0,0,0,0,0,0,0,0,0,-1,853,1163,0,0
-364,-139,0,0,0,0,0,0,0,0,0,-1,860,1163,0,0
-357,-139,0,0,0,0,0,0,0,0,0,-1,867,1163,0,0
-350,-139,0,0,0,0,0,0,0,0,0,-1,874,1163,0,0
-343,-139,0,0,0,0,0,0,0,0,0,-1,881,1163,0,0
-336,-139,0,0,0,0,0,0,0,0,0,-1,888,1163,0,0
-329,-139,0,0,0,0,0,0,0,0,0,-1,895,1163,0,0
-322,-139,0,0,0,0,0,0,0,0,0,-1,902,1163,0,0
-315,-139,0,0,0,0,0,0,0,0,0,-1,909,1163,0,0
-308,-139,0,0,0,0,0,0,0,0,0,-1,916,1163,0,0
-301,-139,0,0,0,0,0,0,0,0,0,-1,923,1163,0,0
-294,-139,0,0,0,0,0,0,0,0,0,-1,930,1163,0,0
-287,-139,0,0,0,0,0,0,0,0,0,-1,937,1163,0,0
-280,-139,0,0,0,0,0,0,0,0,0,-1,944,1163,0,0
-273,-139,0,0,0,0,0,0,0,0,0,-1,951,1163,0,0
-266,-139,0,0,0,0,0,0,0,0,0,-1,958,1163,0,0
-259,-139,0,0,0,0,0,0,0,0,0,-1,965,1163,0,0
-252,-139,0,0,0,0,0,0,0,0,0,-1,972,1163,0,0
-245,-139,0,0,0,0,0,0,0,0,0,-1,979,1163,0,0
-238,-139,0,0,0,0,0,0,0,0,0,-1,986,1163,0,0
-231,-139,0,0,0,0,0,0,0,0,0,-1,993,1163,0,0
-224,-139,0,0,0,0,0,0,0,0,0,-1,1000,1163,0,0
-217,-139,0,0,0,0,0,0,0,0,0,-1,1007,1163,0,0
-210,-139,0,0,0,0,0,0,0,0,0,-1,1014,1163,0,0
-203,-139,0,0,0,0,0,0,0,0,0,-1,1021,1163,0,0
-196,-139,0,0,0,0,0,0,0,0,0,-1,1028,1163,0,0
-189,-139,0,0,0,0,0,0,0,0,0,-1,1035,1163,0,0
-182,-139,0,0,0,0,0,0,0,0,0,-1,1042,1163,0,0
-175,-139,0,0,0,0,0,0,0,0,0,-1,1049,1163,0,0
-168,-139,0,0,0,0,0,0,0,0,0,-1,1056,1163,0,0
-161,-139,0,0,0,0,0,0,0,0,0,-1,1063,1163,0,0
-154,-139,0,0,0,0,0,0,0,0,0,-1,1070,1163,0,0
-147,-139,0,0,0,0,0,0,0,0,0,-1,1077,1163,0,0
-140,-139,0,0,0,0,0,0,0,0,0,-1,1084,1163,0,0
-133,-139,0,0,0,0,0,0,0,0,0,-1,1091,1163,0,0
-126,-139,0,0,0,0,0,0,0,0,0,-1,1098,1163,0,0
-119,-139,0,0,0,0,0,0,0,0,0,-1,1105,1163,0,0
-112,-139,0,0,0,0,0,0,0,0,0,-1,1112,1163,0,0
-105,-139,0,0,0,0,0,0,0,0,0,-1,1119,1163,0,0
-98,-139,0,0,0,0,0,0,0,0,0,-1,1126,1163,0,0
-91,-139,0,0,0,0,0,0,0,0,0,-1,1133,1163,0,0
-84,-139,0,0,0,0,0,0,0,0,0,-1,1140,1163,0,0
-77,-139,0,0,0,0,0,0,0,0,0,-1,1147,1163,0,0
-70,-139,0,0,0,0,0,0,0,0,0,-1,1154,1163,0,0
-63,-139,0,0,0,0,0,0,0,0,0,-1,1161,1163,0,0
-56,-139,0,0,0,0,0,0,0,0,0,-1,1168,1163,0,0
-49,-139,0,0,0,0,0,0,0,0,0,-1,1175,1163,0,0
-42,-139,0,0,0,0,0,0,0,0,0,-1,1182,1163,0,0
-35,-139,0,0,0,0,0,0,0,0,0,-1,1189,1163,0,0
-28,-139,0,0,0,0,0,0,0,0,0,-1,1196,1163,0,0
-21,-139,0,0,0,0,0,0,0,0,0,-1,1203,1163,0,0
-14,-139,0,0,0,0,0,0,0,0,0,-1,1210,1163,0,0
-7,-139,0,0,0,0,0,0,0,0,0,-1,1217,1163,0,0
0,-139,0,0,0,0,0,0,0,0,0,-1,1224,1163,0,0
7,-139,0,0,0,0,0,0,0,0,0,-1,1231,1163,0,0
14,-139,0,0,0,0,0,0,0,0,0,-1,1238,1163,0,0
21,-139,0,0,0,0,0,0,0,0,0,-1,1245,1163,0,0
28,-139,0,0,0,0,0,0,0,0,0,-1,1252,1163,0,0
35,-139,0,0,0,0,0,0,0,0,0,-1,1259,1163,0,0
42,-139,0,0,0,0,0,0,0,0,0,-1,1266,1163,0,0
49,-139,0,0,0,0,0,0,0,0,0,-1,1273,1163,0,0
56,-139,0,0,0,0,0,0,0,0,0,-1,1280,1163,0,0
63,-139,0,0,0,0,0,0,0,0,0,-1,1287,1163,0,0
70,-139,0,0,0,0,0,0,0,0,0,-1,1294,1163,0,0
77,-139,0,0,0,0,0,0,0,0,0,-1,1301,1163,0,0
84,-139,0,0,0,0,0,0,0,0,0,-1,1308,1163,0,0
91,-139,0,0,0,0,0,0,0,0,0,-1,1315,1163,0,0
98,-139,0,0,0,0,0,0,0,0,0,-1,1322,1163,0,0
105,-139,0,0,0,0,0,0,0,0,0,-1,1329,1163,0,0
112,-139,0,0,0,0,0,0,0,0,0,-1,1336,1163,0,0
119,-139,0,0,0,0,0,0,0,0,0,-1,1343,1163,0,0
126,-139,0,0,0,0,0,0,0,0,0,-1,1350,1163,0,0
133,-139,0,0,0,0,0,0,0,0,0,-1,1357,1163,0,0
140,-139,0,0,0,0,0,0,0,0,0,-1,1364,1163,0,0
147,-139,0,0,0,0,0,0,0,0,0,-1,1371,1163,0,0
154,-139,0,0,0,0,0,0,0,0,0,-1,1378,1163,0,0
161,-139,0,0,0,0,0,0,0,0,0,-1,1385,1163,0,0
168,-139,0,0,0,0,0,0,0,0,0,-1,1392,1163,0,0
175,-139,0,0,0,0,0,0,0,0,0,-1,1399,1163,0,0
182,-139,0,0,0,0,0,0,0,0,0,-1,1406,1163,0,0
189,-139,0,0,0,0,0,0,0,0,0,-1,1413,1163,0,0
196,-139,0,0,0,0,0,0,0,0,0,-1,1420,1163,0,0
203,-139,0,0,0,0,0,0,0,0,0,-1,1427,1163,0,0
210,-139,0,0,0,0,0,0,0,0,0,-1,1434,1163,0,0
217,-139,0,0,0,0,0,0,0,0,0,-1,1441,1163,0,0
224,-139,0,0,0,0,0,0,0,0,0,-1,1448,1163,0,0
231,-139,0,0,0,0,0,0,0,0,0,-1,1455,1163,0,0
238,-139,0,0,0,0,0,0,0,0,0,-1,1462,1163,0,0
245,-139,0,0,0,0,0,0,0,0,0,-1,1469,1163,0,0
252,-139,0,0,0,0,0,0,0,0,0,-1,1476,1163,0,0
259,-139,0,0,0,0,0,0,0,0,0,-1,1483,1163,0,0
266,-139,0,0,0,0,0,0,0,0,0,-1,1490,1163,0,0
273,-139,0,0,0,0,0,0,0,0,0,-1,1497,1163,0,0
280,-139,0,0,0,0,0,0,0,0,0,-1,1504,1163,0,0
287,-139,0,0,0,0,0,0,0,0,0,-1,1511,1163,0,0
294,-139,0,0,0,0,0,0,0,0,0,-1,1518,1163,0,0
301,-139,0,0,0,0,0,0,0,0,0,-1,1525,1163,0,0
308,-139,0,0,0,0,0,0,0,0,0,-1,1532,1163,0,0
315,-139,0,0,0,0,0,0,0,0,0,-1,1539,1163,0,0
322,-139,0,0,0,0,0,0,0,0,0,-1,1546,1163,0,0
329,-139,0,0,0,0,0,0,0,0,0,-1,1553,1163,0,0
336,-139,0,0,0,0,0,0,0,0,0,-1,1560,1163,0,0
343,-139,0,0,0,0,0,0,0,0,0,-1,1567,1163,0,0
350,-139,0,0,0,0,0,0,0,0,0,-1,1574,1163,0,0
357,-139,0,0,0,0,0,0,0,0,0,-1,1581,1163,0,0
364,-139,0,0,0,0,0,0,0,0,0,-1,1588,1163,0,0
371,-139,0,0,0,0,0,0,0,0,0,-1,1595,1163,0,0
378,-139,0,0,0,0,0,0,0,0,0,-1,1602,1163,0,0
385,-139,0,0,0,0,0,0,0,0,0,-1,1609,1163,0,0
392,-139,0,0,0,0,0,0,0,0,0,-1,1616,1163,0,0
399,-139,0,0,0,0,0,0,0,0,0,-1,1623,1163,0,0
406,-139,0,0,0,0,0,0,0,0,0,-1,1630,1163,0,0
413,-139,0,0,0,0,0,0,0,0,0,-1,1637,1163,0,0
420,-139,0,0,0,0,0,0,0,0,0,-1,1644,1163,0,0
427,-139,0,0,0,0,0,0,0,0,0,-1,1651,1163,0,0
434,-139,0,0,0,0,0,0,0,0,0,-1,1658,1163,0,0
441,-139,0,0,0,0,0,0,0,0,0,-1,1665,1163,0,0
448,-139,0,0,0,0,0,0,0,0,0,-1,1672,1163,0,0
455,-139,0,0,0,0,0,0,0,0,0,-1,1679,1163,0,0
462,-139,0,0,0,0,0,0,0,0,0,-1,1686,1163,0,0
469,-139,0,0,0,0,0,0,0,0,0,-1,1693,1163,0,0
476,-139,0,0,0,0,0,0,0,0,0,-1,1700,1163,0,0
483,-139,0,0,0,0,0,0,0,0,0,-1,1707,1163,0,0
490,-139,0,0,0,0,0,0,0,0,0,-1,1714,1163,0,0
497,-139,0,0,0,0,0,0,0,0,0,-1,1721,1163,0,0
504,-139,0,0,0,0,0,0,0,0,0,-1,1728,1163,0,0
511,-139,0,0,0,0,0,0,0,0,0,-1,1735,1163,0,0
518,-139,0,0,0,0,0,0,0,0,0,-1,1742,1163,0,0
525,-139,0,0,0,0,0,0,0,0,0,-1,1749,1163,0,0
532,-139,0,0,0,0,0,0,0,0,0,-1,1756,1163,0,0
539,-139,0,0,0,0,0,0,0,0,0,-1,1763,1163,0,0
546,-139,0,0,0,0,0,0,0,0,0,-1,1770,1163,0,0
553,-139,0,0,0,0,0,0,0,0,0,-1,1777,1163,0,0
560,-139,0,0,0,0,0,0,0,0,0,-1,1784,1163,0,0
567,-139,0,0,0,0,0,0,0,0,0,-1,1791,1163,0,0
574,-139,0,0,0,0,0,0,0,0,0,-1,1798,1163,0,0
581,-139,0,0,0,0,0,0,0,0,0,-1,1805,1163,0,0
588,-139,0,0,0,0,0,0,0,0,0,-1,1812,1163,0,0
595,-139,0,0,0,0,0,0,0,0,0,-1,1819,1163,0,0
602,-139,0,0,0,0,0,0,0,0,0,-1,1826,1163,0,0
609,-139,0,0,0,0,0,0,0,0,0,-1,1833,1163,0,0
616,-139,0,0,0,0,0,0,0,0,0,-1,1840,1163,0,0
623,-139,0,0,0,0,0,0,0,0,0,-1,1847,1163,0,0
630,-139,0,0,0,0,0,0,0,0,0,-1,1854,1163,0,0
637,-139,0,0,0,0,0,0,0,0,0,-1,1861,1163,0,0
644,-139,60.245,2.38306,0.00176069,0.000380364,0.00170888,0.00291351,-0.000772458,0.593479,0.00224458,0.0426356,1868,1163,60.245,-2.38302
651,-139,59.995,2.51929,0.00113727,0.000800895,0.00192982,0.00290622,-0.000968047,0.741931,0.00232824,0.0427827,1875,1163,59.995,-2.51933
658,-139,60.0753,2.62048,0.000708354,0.0011922,0.00180657,0.00277297,-0.000872418,0.851958,0.00219795,0.0428535,1882,1163,60.0753,-2.62044
665,-139,60.1493,2.61121,0.000418812,0.00161253,0.00143838,0.00257297,-0.000541628,0.982063,0.00192147,0.0426813,1889,1163,60.1493,-2.61119
672,-139,60.0771,2.59631,-5.258e-07,0.00197885,0.000991591,0.00239014,-0.000411815,1.17762,0.00174695,0.0394634,1896,1163,60.0771,-2.59637
679,-139,60.1099,2.62122,-0.000529403,0.00187764,0.000707174,0.00207003,-0.00072179,1.30518,0.00167333,0.0348318,1903,1163,60.1099,-2.6212
686,-139,60.0525,2.68188,-0.000671925,0.00191193,0.000528377,0.0020158,-0.000775798,1.37668,0.00166389,0.0329543,1910,1163,60.0525,-2.6819
693,-139,60.1146,2.67261,-0.000693807,0.0016944,0.000505594,0.00179702,-0.000796433,1.37053,0.00153403,0.0224153,1917,1163,60.1147,-2.67258
700,-139,60.1553,2.49829,0,0,0,0,0,0,0,-1,1924,1163,60.1553,-2.49828
707,-139,32.116,6.54346,0,0,0,0,0,0,0,-1,1931,1163,32.116,-6.54343
714,-139,53.1285,9.10242,0,0,0,0,0,0,0,-1,1938,1163,53.1286,-9.10247
721,-139,53.1918,8.5531,-0.000907992,0.00116602,0.000498274,0.00127952,-0.00102149,1.34684,0.00133127,0.0382401,1945,1163,53.1917,-8.55313
728,-139,53.033,8.21838,-0.000969136,0.00115854,0.000485095,0.00126392,-0.00107451,1.35689,0.00135157,0.0489966,1952,1163,53.0329,-8.21844
735,-139,52.9623,7.74731,-0.00112815,0.00135157,0.000700386,0.00153572,-0.00131229,1.31369,0.00164599,0.0353401,1959,1163,52.9623,-7.74734
742,-139,53.0551,7.09949,-0.00134967,0.0012152,0.00110232,0.00162385,-0.00175831,1.21579,0.0019532,0.0230683,1966,1163,53.0551,-7.09947
749,-139,53.0344,6.58667,-0.00155298,0.00284104,0.000708864,0.00295257,-0.00166451,1.41474,0.00270003,0.0195724,1973,1163,53.0344,-6.58664
756,-139,52.9873,6.09619,-0.00131155,0.00556904,-0.00136423,0.00582965,-0.00157217,-1.38203,0.00450293,0.0109843,1980,1163,52.9873,-6.09621
763,-139,52.957,5.59875,-0.000402638,0.00947679,-0.004996,0.0115628,-0.00248865,-1.17526,0.00865814,0.0115769,1987,1163,52.957,-5.59871
770,-139,52.9581,5.13135,0.000997355,0.0140709,-0.0100789,0.0195472,-0.00447888,-1.07308,0.0147528,0.0139716,1994,1163,52.9581,-5.13134
777,-139,52.9341,4.67188,0.00291533,0.0191669,-0.0167407,0.0296497,-0.00756744,-1.01134,0.0227131,0.0268171,2001,1163,52.9342,-4.67183
784,-139,52.5356,4.06348,0.00547256,0.0247196,-0.0254514,0.0423061,-0.0121139,-0.966147,0.0329919,0.0431127,2008,1163,52.5358,-4.06349
791,-139,52.3013,3.39636,0.00902376,0.0306413,-0.0366499,0.058043,-0.018378,-0.928792,0.0460602,0.0465902,2015,1163,52.3012,-3.39637
798,-139,52.1921,2.84436,0.0139311,0.036428,-0.0510159,0.0774208,-0.0270617,-0.893907,0.062615,0.046165,2022,1163,52.1921,-2.84432
805,-139,51.6746,2.41077,0.02044,0.0410846,-0.0687876,0.10032,-0.0387955,-0.859873,0.0828953,0.0439891,2029,1163,51.6747,-2.41072
812,-139,0,0,0,0,0,0,0,0,0,-1,2036,1163,0,0
-700,-146,0,0,0,0,0,0,0,0,0,-1,524,1170,0,0
-693,-146,-36.7423,-2.15393,0,0,0,0,0,0,0,-1,531,1170,-36.7423,2.15394
-686,-146,-36.7842,-1.50708,0,0,0,0,0,0,0,-1,538,1170,-36.7842,1.50703
-679,-146,-44.741,-0.46875,0,0,0,0,0,0,0,-1,545,1170,-44.741,0.468769
-672,-146,-36.7721,-0.502563,0,0,0,0,0,0,0,-1,552,1170,-36.7721,0.502619
-665,-146,-37.7994,-0.897461,0,0,0,0,0,0,0,-1,559,1170,-37.7994,0.89741
-658,-146,-37.6985,-0.026123,-0.0107898,0.00369056,0.0157623,0.013796,-0.0208953,1.00069,0.0201683,0.0459746,566,1170,-37.6985,0.0261489
-651,-146,-37.562,1.06555,-0.00783593,0.00423055,0.01204,0.0116644,-0.0152698,1.01766,0.0155968,0.0430772,573,1170,-37.562,-1.06553
-644,-146,-37.4998,1.96619,-0.00552201,0.00430808,0.00834934,0.00908165,-0.0102956,1.05142,0.0111948,0.0250409,580,1170,-37.4998,-1.96618
-637,-146,-37.5794,2.5553,-0.00404847,0.00387911,0.00512404,0.00639355,-0.0065629,1.11461,0.00748062,0.0121513,587,1170,-37.5794,-2.55524
-630,-146,-37.6276,3.09912,-0.00290603,0.00344753,0.00241313,0.00426012,-0.00371863,1.24598,0.00461007,0.0101611,594,1170,-37.6276,-3.09917
-623,-146,-37.6545,3.64026,-0.00217039,0.00201408,-0.000509107,0.00207513,-0.00223144,-1.45145,0.00248694,0.0129179,601,1170,-37.6545,-3.64024
-616,-146,-37.7616,4.19971,-0.00231539,0.000624019,-0.00206326,0.00168751,-0.00337888,-1.09487,0.00297892,0.0191196,608,1170,-37.7616,-4.1997
-609,-146,-37.8535,4.75635,0,0,0,0,0,0,0,-1,615,1170,-37.8534,-4.75632
-602,-146,-37.7302,5.40198,0,0,0,0,0,0,0,-1,622,1170,-37.7302,-5.40193
-595,-146,-37.8278,5.88452,0,0,0,0,0,0,0,-1,629,1170,-37.8278,-5.88451
-588,-146,-38.0911,6.32202,0,0,0,0,0,0,0,-1,636,1170,-38.0911,-6.32199
-581,-146,-31.7815,6.30347,0,0,0,0,0,0,0,-1,643,1170,-31.7815,-6.3035
-574,-146,-17.9915,3.79114,0,0,0,0,0,0,0,-1,650,1170,-17.9915,-3.79118
-567,-146,-44.4572,0.6604,0,0,0,0,0,0,0,-1,657,1170,-44.4572,-0.660404
-560,-146,-45.3515,0.814697,0,0,0,0,0,0,0,-1,664,1170,-45.3515,-0.814686
-553,-146,-45.3337,0.853882,0.000181103,0.000345004,-0.00112556,0.00139159,-0.000865487,-0.821738,0.00131487,0.0409762,671,1170,-45.3337,-0.853876
-546,-146,-45.4696,0.984863,0.000733387,0.00106923,-0.00115151,0.002065,-0.000262382,-0.857802,0.00147195,0.0425048,678,1170,-45.4696,-0.98485
-539,-146,-45.3796,0.782104,0.00205805,0.00162842,-0.00173052,0.00358704,9.9433e-05,-0.723648,0.00235892,0.0418983,685,1170,-45.3796,-0.782074
-532,-146,-45.068,0.567993,0.00364556,0.0019757,-0.00269682,0.00563374,-1.24869e-05,-0.635279,0.00376,0.0408383,692,1170,-45.068,-0.568034
-525,-146,-45.3912,0.625732,0,0,0,0,0,0,0,-1,699,1170,-45.3912,-0.625735
-518,-146,0,0,0,0,0,0,0,0,0,-1,706,1170,0,0
-511,-146,0,0,0,0,0,0,0,0,0,-1,713,1170,0,0
-504,-146,0,0,0,0,0,0,0,0,0,-1,720,1170,0,0
-497,-146,0,0,0,0,0,0,0,0,0,-1,727,1170,0,0
-490,-146,0,0,0,0,0,0,0,0,0,-1,734,1170,0,0
-483,-146,0,0,0,0,0,0,0,0,0,-1,741,1170,0,0
-476,-146,0,0,0,0,0,0,0,0,0,-1,748,1170,0,0
-469,-146,0,0,0,0,0,0,0,0,0,-1,755,1170,0,0
-462,-146,0,0,0,0,0,0,0,0,0,-1,762,1170,0,0
-455,-146,0,0,0,0,0,0,0,0,0,-1,769,1170,0,0
-448,-146,0,0,0,0,0,0,0,0,0,-1,776,1170,0,0
-441,-146,0,0,0,0,0,0,0,0,0,-1,783,1170,0,0
-434,-146,0,0,0,0,0,0,0,0,0,-1,790,1170,0,0
-427,-146,0,0,0,0,0,0,0,0,0,-1,797,1170,0,0
-420,-146,0,0,0,0,0,0,0,0,0,-1,804,1170,0,0
-413,-146,0,0,0,0,0,0,0,0,0,-1,811,1170,0,0
-406,-146,0,0,0,0,0,0,0,0,0,-1,818,1170,0,0
-399,-146,0,0,0,0,0,0,0,0,0,-1,825,1170,0,0
-392,-146,0,0,0,0,0,0,0,0,0,-1,832,1170,0,0
-385,-146,0,0,0,0,0,0,0,0,0,-1,839,1170,0,0
-378,-146,0,0,0,0,0,0,0,0,0,-1,846,1170,0,0
-371,-146,0,0,0,0,0,0,0,0,0,-1,853,1170,0,0
-364,-146,0,0,0,0,0,0,0,0,0,-1,860,1170,0,0
-357,-146,0,0,0,0,0,0,0,0,0,-1,867,1170,0,0
-350,-146,0,0,0,0,0,0,0,0,0,-1,874,1170,0,0
-343,-146,0,0,0,0,0,0,0,0,0,-1,881,1170,0,0
-336,-146,0,0,0,0,0,0,0,0,0,-1,888,1170,0,0
-329,-146,0,0,0,0,0,0,0,0,0,-1,895,1170,0,0
-322,-146,0,0,0,0,0,0,0,0,0,-1,902,1170,0,0
-315,-146,0,0,0,0,0,0,0,0,0,-1,909,1170,0,0
-308,-146,0,0,0,0,0,0,0,0,0,-1,916,1170,0,0
-301,-146,0,0,0,0,0,0,0,0,0,-1,923,1170,0,0
-294,-146,0,0,0,0,0,0,0,0,0,-1,930,1170,0,0
-287,-146,0,0,0,0,0,0,0,0,0,-1,937,1170,0,0
-280,-146,0,0,0,0,0,0,0,0,0,-1,944,1170,0,0
-273,-146,0,0,0,0,0,0,0,0,0,-1,951,1170,0,0
-266,-146,0,0,0,0,0,0,0,0,0,-1,958,1170,0,0
-259,-146,0,0,0,0,0,0,0,0,0,-1,965,1170,0,0
-252,-146,0,0,0,0,0,0,0,0,0,-1,972,1170,0,0
-245,-146,0,0,0,0,0,0,0,0,0,-1,979,1170,0,0
-238,-146,0,0,0,0,0,0,0,0,0,-1,986,1170,0,0
-231,-146,0,0,0,0,0,0,0,0,0,-1,993,1170,0,0
-224,-146,0,0,0,0,0,0,0,0,0,-1,1000,1170,0,0
-217,-146,0,0,0,0,0,0,0,0,0,-1,1007,1170,0,0
-210,-146,0,0,0,0,0,0,0,0,0,-1,1014,1170,0,0
-203,-146,0,0,0,0,0,0,0,0,0,-1,1021,1170,0,0
-196,-146,0,0,0,0,0,0,0,0,0,-1,1028,1170,0,0
-189,-146,0,0,0,0,0,0,0,0,0,-1,1035,1170,0,0
-182,-146,0,0,0,0,0,0,0,0,0,-1,1042,1170,0,0
-175,-146,0,0,0,0,0,0,0,0,0,-1,1049,1170,0,0
-168,-146,0,0,0,0,0,0,0,0,0,-1,1056,1170,0,0
-161,-146,0,0,0,0,0,0,0,0,0,-1,1063,1170,0,0
-154,-146,0,0,0,0,0,0,0,0,0,-1,1070,1170,0,0
-147,-146,0,0,0,0,0,0,0,0,0,-1,1077,1170,0,0
-140,-146,0,0,0,0,0,0,0,0,0,-1,1084,1170,0,0
-133,-146,0,0,0,0,0,0,0,0,0,-1,1091,1170,0,0
-126,-146,0,0,0,0,0,0,0,0,0,-1,1098,1170,0,0
-119,-146,0,0,0,0,0,0,0,0,0,-1,1105,1170,0,0
-112,-146,0,0,0,0,0,0,0,0,0,-1,1112,1170,0,0
-105,-146,0,0,0,0,0,0,0,0,0,-1,1119,1170,0,0
-98,-146,0,0,0,0,0,0,0,0,0,-1,1126,1170,0,0
-91,-146,0,0,0,0,0,0,0,0,0,-1,1133,1170,0,0
-84,-146,0,0,0,0,0,0,0,0,0,-1,1140,1170,0,0
-77,-146,0,0,0,0,0,0,0,0,0,-1,1147,1170,0,0
-70,-146,0,0,0,0,0,0,0,0,0,-1,1154,1170,0,0
-63,-146,0,0,0,0,0,0,0,0,0,-1,1161,1170,0,0
-56,-146,0,0,0,0,0,0,0,0,0,-1,1168,1170,0,0
-49,-146,0,0,0,0,0,0,0,0,0,-1,1175,1170,0,0
-42,-146,0,0,0,0,0,0,0,0,0,-1,1182,1170,0,0
-35,-146,0,0,0,0,0,0,0,0,0,-1,1189,1170,0,0
-28,-146,0,0,0,0,0,0,0,0,0,-1,1196,1170,0,0
-21,-146,0,0,0,0,0,0,0,0,0,-1,1203,1170,0,0
-14,-146,0,0,0,0,0,0,0,0,0,-1,1210,1170,0,0
-7,-146,0,0,0,0,0,0,0,0,0,-1,1217,1170,0,0
0,-146,0,0,0,0,0,0,0,0,0,-1,1224,1170,0,0
7,-146,0,0,0,0,0,0,0,0,0,-1,1231,1170,0,0
14,-146,0,0,0,0,0,0,0,0,0,-1,1238,1170,0,0
21,-146,0,0,0,0,0,0,0,0,0,-1,1245,1170,0,0
28,-146,0,0,0,0,0,0,0,0,0,-1,1252,1170,0,0
35,-146,0,0,0,0,0,0,0,0,0,-1,1259,1170,0,0
42,-146,0,0,0,0,0,0,0,0,0,-1,1266,1170,0,0
49,-146,0,0,0,0,0,0,0,0,0,-1,1273,1170,0,0
56,-146,0,0,0,0,0,0,0,0,0,-1,1280,1170,0,0
63,-146,0,0,0,0,0,0,0,0,0,-1,1287,1170,0,0
70,-146,0,0,0,0,0,0,0,0,0,-1,1294,1170,0,0
77,-146,0,0,0,0,0,0,0,0,0,-1,1301,1170,0,0
84,-146,0,0,0,0,0,0,0,0,0,-1,1308,1170,0,0
91,-146,0,0,0,0,0,0,0,0,0,-1,1315,1170,0,0
98,-146,0,0,0,0,0,0,0,0,0,-1,1322,1170,0,0
105,-146,0,0,0,0,0,0,0,0,0,-1,1329,1170,0,0
112,-146,0,0,0,0,0,0,0,0,0,-1,1336,1170,0,0
119,-146,0,0,0,0,0,0,0,0,0,-1,1343,1170,0,0
126,-146,0,0,0,0,0,0,0,0,0,-1,1350,1170,0,0
133,-146,0,0,0,0,0,0,0,0,0,-1,1357,1170,0,0
140,-146,0,0,0,0,0,0,0,0,0,-1,1364,1170,0,0
147,-146,0,0,0,0,0,0,0,0,0,-1,1371,1170,0,0
154,-146,0,0,0,0,0,0,0,0,0,-1,1378,1170,0,0
161,-146,0,0,0,0,0,0,0,0,0,-1,1385,1170,0,0
168,-146,0,0,0,0,0,0,0,0,0,-1,1392,1170,0,0
175,-146,0,0,0,0,0,0,0,0,0,-1,1399,1170,0,0
182,-146,0,0,0,0,0,0,0,0,0,-1,1406,1170,0,0
189,-146,0,0,0,0,0,0,0,0,0,-1,1413,1170,0,0
196,-146,0,0,0,0,0,0,0,0,0,-1,1420,1170,0,0
203,-146,0,0,0,0,0,0,0,0,0,-1,1427,1170,0,0
210,-146,0,0,0,0,0,0,0,0,0,-1,1434,1170,0,0
217,-146,0,0,0,0,0,0,0,0,0,-1,1441,1170,0,0
224,-146,0,0,0,0,0,0,0,0,0,-1,1448,1170,0,0
231,-146,0,0,0,0,0,0,0,0,0,-1,1455,1170,0,0
238,-146,0,0,0,0,0,0,0,0,0,-1,1462,1170,0,0
245,-146,0,0,0,0,0,0,0,0,0,-1,1469,1170,0,0
252,-146,0,0,0,0,0,0,0,0,0,-1,1476,1170,0,0
259,-146,0,0,0,0,0,0,0,0,0,-1,1483,1170,0,0
266,-146,0,0,0,0,0,0,0,0,0,-1,1490,1170,0,0
273,-146,0,0,0,0,0,0,0,0,0,-1,1497,1170,0,0
280,-146,0,0,0,0,0,0,0,0,0,-1,1504,1170,0,0
287,-146,0,0,0,0,0,0,0,0,0,-1,1511,1170,0,0
294,-146,0,0,0,0,0,0,0,0,0,-1,1518,1170,0,0
301,-146,0,0,0,0,0,0,0,0,0,-1,1525,1170,0,0
308,-146,0,0,0,0,0,0,0,0,0,-1,1532,1170,0,0
315,-146,0,0,0,0,0,0,0,0,0,-1,1539,1170,0,0
322,-146,0,0,0,0,0,0,0,0,0,-1,1546,1170,0,0
329,-146,0,0,0,0,0,0,0,0,0,-1,1553,1170,0,0
336,-146,0,0,0,0,0,0,0,0,0,-1,1560,1170,0,0
343,-146,0,0,0,0,0,0,0,0,0,-1,1567,1170,0,0
350,-146,0,0,0,0,0,0,0,0,0,-1,1574,1170,0,0
357,-146,0,0,0,0,0,0,0,0,0,-1,1581,1170,0,0
364,-146,0,0,0,0,0,0,0,0,0,-1,1588,1170,0,0
371,-146,0,0,0,0,0,0,0,0,0,-1,1595,1170,0,0
378,-146,0,0,0,0,0,0,0,0,0,-1,1602,1170,0,0
385,-146,0,0,0,0,0,0,0,0,0,-1,1609,1170,0,0
392,-146,0,0,0,0,0,0,0,0,0,-1,1616,1170,0,0
399,-146,0,0,0,0,0,0,0,0,0,-1,1623,1170,0,0
406,-146,0,0,0,0,0,0,0,0,0,-1,1630,1170,0,0
413,-146,0,0,0,0,0,0,0,0,0,-1,1637,1170,0,0
420,-146,0,0,0,0,0,0,0,0,0,-1,1644,1170,0,0
427,-146,0,0,0,0,0,0,0,0,0,-1,1651,1170,0,0
434,-146,0,0,0,0,0,0,0,0,0,-1,1658,1170,0,0
441,-146,0,0,0,0,0,0,0,0,0,-1,1665,1170,0,0
448,-146,0,0,0,0,0,0,0,0,0,-1,1672,1170,0,0
455,-146,0,0,0,0,0,0,0,0,0,-1,1679,1170,0,0
462,-146,0,0,0,0,0,0,0,0,0,-1,1686,1170,0,0
469,-146,0,0,0,0,0,0,0,0,0,-1,1693,1170,0,0
476,-146,0,0,0,0,0,0,0,0,0,-1,1700,1170,0,0
483,-146,0,0,0,0,0,0,0,0,0,-1,1707,1170,0,0
490,-146,0,0,0,0,0,0,0,0,0,-1,1714,1170,0,0
497,-146,0,0,0,0,0,0,0,0,0,-1,1721,1170,0,0
504,-146,0,0,0,0,0,0,0,0,0,-1,1728,1170,0,0
511,-146,0,0,0,0,0,0,0,0,0,-1,1735,1170,0,0
518,-146,0,0,0,0,0,0,0,0,0,-1,1742,1170,0,0
525,-146,0,0,0,0,0,0,0,0,0,-1,1749,1170,0,0
532,-146,0,0,0,0,0,0,0,0,0,-1,1756,1170,0,0
539,-146,0,0,0,0,0,0,0,0,0,-1,1763,1170,0,0
546,-146,0,0,0,0,0,0,0,0,0,-1,1770,1170,0,0
553,-146,0,0,0,0,0,0,0,0,0,-1,1777,1170,0,0
560,-146,0,0,0,0,0,0,0,0,0,-1,1784,1170,0,0
567,-146,0,0,0,0,0,0,0,0,0,-1,1791,1170,0,0
574,-146,0,0,0,0,0,0,0,0,0,-1,1798,1170,0,0
581,-146,0,0,0,0,0,0,0,0,0,-1,1805,1170,0,0
588,-146,0,0,0,0,0,0,0,0,0,-1,1812,1170,0,0
595,-146,0,0,0,0,0,0,0,0,0,-1,1819,1170,0,0
602,-146,0,0,0,0,0,0,0,0,0,-1,1826,1170,0,0
609,-146,0,0,0,0,0,0,0,0,0,-1,1833,1170,0,0
616,-146,0,0,0,0,0,0,0,0,0,-1,1840,1170,0,0
623,-146,0,0,0,0,0,0,0,0,0,-1,1847,1170,0,0
630,-146,0,0,0,0,0,0,0,0,0,-1,1854,1170,0,0
637,-146,60.2307,2.32739,0.00171371,0.00027422,0.00115409,0.0023541,-0.000366167,0.506585,0.00170462,0.0379732,1861,1170,60.2307,-2.32739
644,-146,60.239,2.41357,0.00094745,0.000635224,0.00186665,0.00266451,-0.00108183,0.743679,0.00222636,0.0375984,1868,1170,60.2391,-2.4136
651,-146,60.0646,2.57056,0.000454726,0.00114793,0.0019738,0.00280532,-0.00120267,0.872313,0.00237488,0.036404,1875,1170,60.0645,-2.57051
658,-146,60.1124,2.67053,0.000164129,0.00163638,0.00175944,0.00280748,-0.00100697,0.983525,0.00228259,0.0407279,1882,1170,60.1124,-2.67053
665,-146,60.1062,2.64368,5.20172e-05,0.00215152,0.00130877,0.00277952,-0.000575988,1.1234,0.00207187,0.0408879,1889,1170,60.1062,-2.64363
672,-146,60.1342,2.67139,-0.000189364,0.00254108,0.000812313,0.00276447,-0.000412753,1.30243,0.00199485,0.0364567,1896,1170,60.1342,-2.67142
679,-146,60.1525,2.62903,-0.000497985,0.00236918,0.0005226,0.00246146,-0.00059027,1.39601,0.00186906,0.0287403,1903,1170,60.1525,-2.62909
686,-146,60.0691,2.57764,-0.000487818,0.00238077,0.000401929,0.00243602,-0.00054307,1.43419,0.00183207,0.0225305,1910,1170,60.0691,-2.57768
693,-146,60.1073,2.53027,-0.000488375,0.00212567,0.00045757,0.00220345,-0.000566155,1.40242,0.0016896,0.0161549,1917,1170,60.1073,-2.53033
700,-146,60.1465,2.33435,0,0,0,0,0,0,0,-1,1924,1170,60.1465,-2.33439
707,-146,29.9441,6.94653,0,0,0,0,0,0,0,-1,1931,1170,29.9441,-6.94652
714,-146,31.325,6.13245,0,0,0,0,0,0,0,-1,1938,1170,31.325,-6.1325
721,-146,52.5488,8.51062,0,0,0,0,0,0,0,-1,1945,1170,52.5489,-8.51057
728,-146,52.5922,7.7699,0,0,0,0,0,0,0,-1,1952,1170,52.5921,-7.76992
735,-146,52.5277,7.58447,-0.000604981,0.00143962,0.000695895,0.001654,-0.000819356,1.27196,0.00145484,0.0362702,1959,1170,52.5277,-7.58441
742,-146,52.574,7.0791,-0.00080788,0.00128998,0.00109136,0.00175476,-0.00127266,1.16819,0.00175525,0.0175983,1966,1170,52.574,-7.07914
749,-146,52.4999,6.60938,-0.00109895,0.00274086,0.00077086,0.00288984,-0.00124792,1.37989,0.00245083,0.0159035,1973,1170,52.4999,-6.60939
756,-146,52.4725,6.0929,-0.000858125,0.00580324,-0.00160517,0.00616986,-0.00122474,-1.34625,0.00457644,0.0119291,1980,1170,52.4726,-6.09285
763,-146,52.4325,5.58105,-9.03642e-05,0.0100537,-0.00554396,0.0124957,-0.00253238,-1.15589,0.00929038,0.0113358,1987,1170,52.4325,-5.58105
770,-146,52.4188,5.09058,0.00106218,0.0150507,-0.0109488,0.0210485,-0.00493568,-1.06963,0.0159345,0.0137631,1994,1170,52.4188,-5.09058
777,-146,52.406,4.7262,0.00256166,0.0206887,-0.0180071,0.0317846,-0.00853429,-1.01855,0.0245344,0.0251347,2001,1170,52.406,-4.72616
784,-146,51.9399,4.15576,0,0,0,0,0,0,0,-1,2008,1170,51.9399,-4.15573
791,-146,51.6023,4.08679,0.00717366,0.0336476,-0.0388019,0.0614083,-0.020587,-0.949779,0.0492568,0.0427398,2015,1170,51.6023,-4.08676
798,-146,51.5544,3.63318,0.010699,0.0405733,-0.0537498,0.0814229,-0.0301506,-0.920929,0.0666456,0.0428187,2022,1170,51.5544,-3.63313
805,-146,51.4707,3.17993,0.015311,0.0468265,-0.0723004,0.105066,-0.0429289,-0.892694,0.0879197,0.0455322,2029,1170,51.4706,-3.17996
812,-146,0,0,0,0,0,0,0,0,0,-1,2036,1170,0,0
-700,-153,0,0,0,0,0,0,0,0,0,-1,524,1177,0,0
-693,-153,0,0,0,0,0,0,0,0,0,-1,531,1177,0,0
-686,-153,-36.5762,-2.08337,0,0,0,0,0,0,0,-1,538,1177,-36.5762,2.08333
-679,-153,-36.7862,-1.46008,0,0,0,0,0,0,0,-1,545,1177,-36.7862,1.46012
-672,-153,-37.451,-2.21252,0,0,0,0,0,0,0,-1,552,1177,-37.451,2.21248
-665,-153,-37.2096,-1.46082,0,0,0,0,0,0,0,-1,559,1177,-37.2096,1.46084
-658,-153,-36.98,-0.715454,0,0,0,0,0,0,0,-1,566,1177,-36.98,0.715451
-651,-153,-36.886,1.41394,0,0,0,0,0,0,0,-1,573,1177,-36.8861,-1.41395
-644,-153,-36.9528,1.99243,-0.00669156,0.00299666,0.00970152,0.00899621,-0.0126911,1.01695,0.0125816,0.0312848,580,1177,-36.9528,-1.99248
-637,-153,-37.011,2.56128,-0.00470555,0.00304613,0.00562446,0.00600086,-0.00766028,1.08709,0.00790663,0.0122566,587,1177,-37.0111,-2.56125
-630,-153,-37.0407,3.10645,-0.00325947,0.00303147,0.00257479,0.00395092,-0.00417891,1.22781,0.00469438,0.0102617,594,1177,-37.0407,-3.10639
-623,-153,-37.0783,3.65601,-0.00242417,0.00192969,-0.000641728,0.0020223,-0.00251678,-1.42746,0.00262582,0.0109069,601,1177,-37.0783,-3.65598
-616,-153,-37.1312,4.20398,-0.00249063,0.000781271,-0.00234365,0.00200348,-0.00371284,-1.0901,0.00334914,0.0136996,608,1177,-37.1312,-4.20395
-609,-153,-37.145,4.72058,-0.00306366,-0.000658086,-0.00262326,0.00102498,-0.00474673,-1.00035,0.00355574,0.0303399,615,1177,-37.1449,-4.72056
-602,-153,-37.1177,5.1449,0,0,0,0,0,0,0,-1,622,1177,-37.1176,-5.14492
-595,-153,-37.3094,5.97742,0,0,0,0,0,0,0,-1,629,1177,-37.3094,-5.97739
-588,-153,-32.348,5.51038,0,0,0,0,0,0,0,-1,636,1177,-32.348,-5.51034
-581,-153,-33.4568,6.41492,0,0,0,0,0,0,0,-1,643,1177,-33.4568,-6.41497
-574,-153,-25.4814,5.16956,0,0,0,0,0,0,0,-1,650,1177,-25.4814,-5.16961
-567,-153,-35.3121,1.09485,0,0,0,0,0,0,0,-1,657,1177,-35.3121,-1.09482
-560,-153,-45.2173,0.595825,0,0,0,0,0,0,0,-1,664,1177,-45.2174,-0.595829
-553,-153,-45.2474,0.665039,-0.000514032,0.000667666,-0.00126218,0.00147045,-0.00131681,-1.00431,0.00161004,0.0402981,671,1177,-45.2474,-0.665031
-546,-153,-45.2849,0.793945,0.000117557,0.00142505,-0.00110566,0.00205577,-0.000513169,-1.05239,0.00156978,0.0418765,678,1177,-45.2848,-0.793979
-539,-153,-45.3252,0.736206,0.00167377,0.00209091,-0.00142179,0.00331934,0.00044534,-0.858227,0.0020804,0.0412519,685,1177,-45.3252,-0.736158
-532,-153,-45.3857,0.767212,0.00365881,0.00252951,-0.00214556,0.00531278,0.000875543,-0.656731,0.00328908,0.0410944,692,1177,-45.3857,-0.767271
-525,-153,-45.3766,0.903198,0.00580906,0.00307811,-0.00330875,0.00802301,0.000864152,-0.589701,0.00508516,0.0410481,699,1177,-45.3766,-0.903228
-518,-153,0,0,0,0,0,0,0,0,0,-1,706,1177,0,0
-511,-153,0,0,0,0,0,0,0,0,0,-1,713,1177,0,0
-504,-153,0,0,0,0,0,0,0,0,0,-1,720,1177,0,0
-497,-153,0,0,0,0,0,0,0,0,0,-1,727,1177,0,0
-490,-153,0,0,0,0,0,0,0,0,0,-1,734,1177,0,0
-483,-153,0,0,0,0,0,0,0,0,0,-1,741,1177,0,0
-476,-153,0,0,0,0,0,0,0,0,0,-1,748,1177,0,0
-469,-153,0,0,0,0,0,0,0,0,0,-1,755,1177,0,0
-462,-153,0,0,0,0,0,0,0,0,0,-1,762,1177,0,0
-455,-153,0,0,0,0,0,0,0,0,0,-1,769,1177,0,0
-448,-153,0,0,0,0,0,0,0,0,0,-1,776,1177,0,0
-441,-153,0,0,0,0,0,0,0,0,0,-1,783,1177,0,0
-434,-153,0,0,0,0,0,0,0,0,0,-1,790,1177,0,0
-427,-153,0,0,0,0,0,0,0,0,0,-1,797,1177,0,0
-420,-153,0,0,0,0,0,0,0,0,0,-1,804,1177,0,0
-413,-153,0,0,0,0,0,0,0,0,0,-1,811,1177,0,0
-406,-153,0,0,0,0,0,0,0,0,0,-1,818,1177,0,0
-399,-153,0,0,0,0,0,0,0,0,0,-1,825,1177,0,0
-392,-153,0,0,0,0,0,0,0,0,0,-1,832,1177,0,0
-385,-153,0,0,0,0,0,0,0,0,0,-1,839,1177,0,0
-378,-153,0,0,0,0,0,0,0,0,0,-1,846,1177,0,0
-371,-153,0,0,0,0,0,0,0,0,0,-1,853,1177,0,0
-364,-153,0,0,0,0,0,0,0,0,0,-1,860,1177,0,0
-357,-153,0,0,0,0,0,0,0,0,0,-1,867,1177,0,0
-350,-153,0,0,0,0,0,0,0,0,0,-1,874,1177,0,0
-343,-153,0,0,0,0,0,0,0,0,0,-1,881,1177,0,0
-336,-153,0,0,0,0,0,0,0,0,0,-1,888,1177,0,0
-329,-153,0,0,0,0,0,0,0,0,0,-1,895,1177,0,0
-322,-153,0,0,0,0,0,0,0,0,0,-1,902,1177,0,0
-315,-153,0,0,0,0,0,0,0,0,0,-1,909,1177,0,0
-308,-153,0,0,0,0,0,0,0,0,0,-1,916,1177,0,0
-301,-153,0,0,0,0,0,0,0,0,0,-1,923,1177,0,0
-294,-153,0,0,0,0,0,0,0,0,0,-1,930,1177,0,0
-287,-153,0,0,0,0,0,0,0,0,0,-1,937,1177,0,0
-280,-153,0,0,0,0,0,0,0,0,0,-1,944,1177,0,0
-273,-153,0,0,0,0,0,0,0,0,0,-1,951,1177,0,0
-266,-153,0,0,0,0,0,0,0,0,0,-1,958,1177,0,0
-259,-153,0,0,0,0,0,0,0,0,0,-1,965,1177,0,0
-252,-153,0,0,0,0,0,0,0,0,0,-1,972,1177,0,0
-245,-153,0,0,0,0,0,0,0,0,0,-1,979,1177,0,0
-238,-153,0,0,0,0,0,0,0,0,0,-1,986,1177,0,0
-231,-153,0,0,0,0,0,0,0,0,0,-1,993,1177,0,0
-224,-153,0,0,0,0,0,0,0,0,0,-1,1000,1177,0,0
-217,-153,0,0,0,0,0,0,0,0,0,-1,1007,1177,0,0
-210,-153,0,0,0,0,0,0,0,0,0,-1,1014,1177,0,0
-203,-153,0,0,0,0,0,0,0,0,0,-1,1021,1177,0,0
-196,-153,0,0,0,0,0,0,0,0,0,-1,1028,1177,0,0
-189,-153,0,0,0,0,0,0,0,0,0,-1,1035,1177,0,0
-182,-153,0,0,0,0,0,0,0,0,0,-1,1042,1177,0,0
-175,-153,0,0,0,0,0,0,0,0,0,-1,1049,1177,0,0
-168,-153,0,0,0,0,0,0,0,0,0,-1,1056,1177,0,0
-161,-153,0,0,0,0,0,0,0,0,0,-1,1063,1177,0,0
-154,-153,0,0,0,0,0,0,0,0,0,-1,1070,1177,0,0
-147,-153,0,0,0,0,0,0,0,0,0,-1,1077,1177,0,0
-140,-153,0,0,0,0,0,0,0,0,0,-1,1084,1177,0,0
-133,-153,0,0,0,0,0,0,0,0,0,-1,1091,1177,0,0
-126,-153,0,0,0,0,0,0,0,0,0,-1,1098,1177,0,0
-119,-153,0,0,0,0,0,0,0,0,0,-1,1105,1177,0,0
-112,-153,0,0,0,0,0,0,0,0,0,-1,1112,1177,0,0
-105,-153,0,0,0,0,0,0,0,0,0,-1,1119,1177,0,0
-98,-153,0,0,0,0,0,0,0,0,0,-1,1126,1177,0,0
-91,-153,0,0,0,0,0,0,0,0,0,-1,1133,1177,0,0
-84,-153,0,0,0,0,0,0,0,0,0,-1,1140,1177,0,0
-77,-153,0,0,0,0,0,0,0,0,0,-1,1147,1177,0,0
-70,-153,0,0,0,0,0,0,0,0,0,-1,1154,1177,0,0
-63,-153,0,0,0,0,0,0,0,0,0,-1,1161,1177,0,0
-56,-153,0,0,0,0,0,0,0,0,0,-1,1168,1177,0,0
-49,-153,0,0,0,0,0,0,0,0,0,-1,1175,1177,0,0
-42,-153,0,0,0,0,0,0,0,0,0,-1,1182,1177,0,0
-35,-153,0,0,0,0,0,0,0,0,0,-1,1189,1177,0,0
-28,-153,0,0,0,0,0,0,0,0,0,-1,1196,1177,0,0
-21,-153,0,0,0,0,0,0,0,0,0,-1,1203,1177,0,0
-14,-153,0,0,0,0,0,0,0,0,0,-1,1210,1177,0,0
-7,-153,0,0,0,0,0,0,0,0,0,-1,1217,1177,0,0
0,-153,0,0,0,0,0,0,0,0,0,-1,1224,1177,0,0
7,-153,0,0,0,0,0,0,0,0,0,-1,1231,1177,0,0
14,-153,0,0,0,0,0,0,0,0,0,-1,1238,1177,0,0
21,-153,0,0,0,0,0,0,0,0,0,-1,1245,1177,0,0
28,-153,0,0,0,0,0,0,0,0,0,-1,1252,1177,0,0
35,-153,0,0,0,0,0,0,0,0,0,-1,1259,1177,0,0
42,-153,0,0,0,0,0,0,0,0,0,-1,1266,1177,0,0
49,-153,0,0,0,0,0,0,0,0,0,-1,1273,1177,0,0
56,-153,0,0,0,0,0,0,0,0,0,-1,1280,1177,0,0
63,-153,0,0,0,0,0,0,0,0,0,-1,1287,1177,0,0
70,-153,0,0,0,0,0,0,0,0,0,-1,1294,1177,0,0
77,-153,0,0,0,0,0,0,0,0,0,-1,1301,1177,0,0
84,-153,0,0,0,0,0,0,0,0,0,-1,1308,1177,0,0
91,-153,0,0,0,0,0,0,0,0,0,-1,1315,1177,0,0
98,-153,0,0,0,0,0,0,0,0,0,-1,1322,1177,0,0
105,-153,0,0,0,0,0,0,0,0,0,-1,1329,1177,0,0
112,-153,0,0,0,0,0,0,0,0,0,-1,1336,1177,0,0
119,-153,0,0,0,0,0,0,0,0,0,-1,1343,1177,0,0
126,-153,0,0,0,0,0,0,0,0,0,-1,1350,1177,0,0
133,-153,0,0,0,0,0,0,0,0,0,-1,1357,1177,0,0
140,-153,0,0,0,0,0,0,0,0,0,-1,1364,1177,0,0
147,-153,0,0,0,0,0,0,0,0,0,-1,1371,1177,0,0
154,-153,0,0,0,0,0,0,0,0,0,-1,1378,1177,0,0
161,-153,0,0,0,0,0,0,0,0,0,-1,1385,1177,0,0
168,-153,0,0,0,0,0,0,0,0,0,-1,1392,1177,0,0
175,-153,0,0,0,0,0,0,0,0,0,-1,1399,1177,0,0
182,-153,0,0,0,0,0,0,0,0,0,-1,1406,1177,0,0
189,-153,0,0,0,0,0,0,0,0,0,-1,1413,1177,0,0
196,-153,0,0,0,0,0,0,0,0,0,-1,1420,1177,0,0
203,-153,0,0,0,0,0,0,0,0,0,-1,1427,1177,0,0
210,-153,0,0,0,0,0,0,0,0,0,-1,1434,1177,0,0
217,-153,0,0,0,0,0,0,0,0,0,-1,1441,1177,0,0
224,-153,0,0,0,0,0,0,0,0,0,-1,1448,1177,0,0
231,-153,0,0,0,0,0,0,0,0,0,-1,1455,1177,0,0
238,-153,0,0,0,0,0,0,0,0,0,-1,1462,1177,0,0
245,-153,0,0,0,0,0,0,0,0,0,-1,1469,1177,0,0
252,-153,0,0,0,0,0,0,0,0,0,-1,1476,1177,0,0
259,-153,0,0,0,0,0,0,0,0,0,-1,1483,1177,0,0
266,-153,0,0,0,0,0,0,0,0,0,-1,1490,1177,0,0
273,-153,0,0,0,0,0,0,0,0,0,-1,1497,1177,0,0
280,-153,0,0,0,0,0,0,0,0,0,-1,1504,1177,0,0
287,-153,0,0,0,0,0,0,0,0,0,-1,1511,1177,0,0
294,-153,0,0,0,0,0,0,0,0,0,-1,1518,1177,0,0
301,-153,0,0,0,0,0,0,0,0,0,-1,1525,1177,0,0
308,-153,0,0,0,0,0,0,0,0,0,-1,1532,1177,0,0
315,-153,0,0,0,0,0,0,0,0,0,-1,1539,1177,0,0
322,-153,0,0,0,0,0,0,0,0,0,-1,1546,1177,0,0
329,-153,0,0,0,0,0,0,0,0,0,-1,1553,1177,0,0
336,-153,0,0,0,0,0,0,0,0,0,-1,1560,1177,0,0
343,-153,0,0,0,0,0,0,0,0,0,-1,1567,1177,0,0
350,-153,0,0,0,0,0,0,0,0,0,-1,1574,1177,0,0
357,-153,0,0,0,0,0,0,0,0,0,-1,1581,1177,0,0
364,-153,0,0,0,0,0,0,0,0,0,-1,1588,1177,0,0
371,-153,0,0,0,0,0,0,0,0,0,-1,1595,1177,0,0
378,-153,0,0,0,0,0,0,0,0,0,-1,1602,1177,0,0
385,-153,0,0,0,0,0,0,0,0,0,-1,1609,1177,0,0
392,-153,0,0,0,0,0,0,0,0,0,-1,1616,1177,0,0
399,-153,0,0,0,0,0,0,0,0,0,-1,1623,1177,0,0
406,-153,0,0,0,0,0,0,0,0,0,-1,1630,1177,0,0
413,-153,0,0,0,0,0,0,0,0,0,-1,1637,1177,0,0
420,-153,0,0,0,0,0,0,0,0,0,-1,1644,1177,0,0
427,-153,0,0,0,0,0,0,0,0,0,-1,1651,1177,0,0
434,-153,0,0,0,0,0,0,0,0,0,-1,1658,1177,0,0
441,-153,0,0,0,0,0,0,0,0,0,-1,1665,1177,0,0
448,-153,0,0,0,0,0,0,0,0,0,-1,1672,1177,0,0
455,-153,0,0,0,0,0,0,0,0,0,-1,1679,1177,0,0
462,-153,0,0,0,0,0,0,0,0,0,-1,1686,1177,0,0
469,-153,0,0,0,0,0,0,0,0,0,-1,1693,1177,0,0
476,-153,0,0,0,0,0,0,0,0,0,-1,1700,1177,0,0
483,-153,0,0,0,0,0,0,0,0,0,-1,1707,1177,0,0
490,-153,0,0,0,0,0,0,0,0,0,-1,1714,1177,0,0
497,-153,0,0,0,0,0,0,0,0,0,-1,1721,1177,0,0
504,-153,0,0,0,0,0,0,0,0,0,-1,1728,1177,0,0
511,-153,0,0,0,0,0,0,0,0,0,-1,1735,1177,0,0
518,-153,0,0,0,0,0,0,0,0,0,-1,1742,1177,0,0
525,-153,0,0,0,0,0,0,0,0,0,-1,1749,1177,0,0
532,-153,0,0,0,0,0,0,0,0,0,-1,1756,1177,0,0
539,-153,0,0,0,0,0,0,0,0,0,-1,1763,1177,0,0
546,-153,0,0,0,0,0,0,0,0,0,-1,1770,1177,0,0
553,-153,0,0,0,0,0,0,0,0,0,-1,1777,1177,0,0
560,-153,0,0,0,0,0,0,0,0,0,-1,1784,1177,0,0
567,-153,0,0,0,0,0,0,0,0,0,-1,1791,1177,0,0
574,-153,0,0,0,0,0,0,0,0,0,-1,1798,1177,0,0
581,-153,0,0,0,0,0,0,0,0,0,-1,1805,1177,0,0
588,-153,0,0,0,0,0,0,0,0,0,-1,1812,1177,0,0
595,-153,0,0,0,0,0,0,0,0,0,-1,1819,1177,0,0
602,-153,0,0,0,0,0,0,0,0,0,-1,1826,1177,0,0
609,-153,0,0,0,0,0,0,0,0,0,-1,1833,1177,0,0
616,-153,0,0,0,0,0,0,0,0,0,-1,1840,1177,0,0
623,-153,0,0,0,0,0,0,0,0,0,-1,1847,1177,0,0
630,-153,0,0,0,0,0,0,0,0,0,-1,1854,1177,0,0
637,-153,60.1039,2.36963,0.00133348,0.000917024,0.00140107,0.00254172,-0.000291211,0.711628,0.00179942,0.0392068,1861,1177,60.1038,-2.36959
644,-153,60.0813,2.5304,0.00056044,0.00119853,0.00193795,0.00284352,-0.00108456,0.866981,0.00234244,0.0371884,1868,1177,60.0814,-2.53038
651,-153,60.1118,2.59631,0.000107809,0.00164799,0.00193762,0.00296295,-0.00120714,0.974548,0.00247772,0.0318991,1875,1177,60.1118,-2.59634
658,-153,60.0642,2.46179,-7.66452e-05,0.00209871,0.00161455,0.00295778,-0.000935708,1.08182,0.00234678,0.0363386,1882,1177,60.0642,-2.46175
665,-153,59.9968,2.45557,-2.69982e-05,0.00252376,0.00108418,0.00292231,-0.000425546,1.21853,0.00210445,0.0369168,1889,1177,59.9969,-2.45552
672,-153,59.9974,2.55701,-6.63136e-05,0.00276843,0.000556192,0.00287365,-0.000171536,1.38382,0.00197543,0.0360975,1896,1177,59.9974,-2.55699
679,-153,60.0782,2.62585,-0.000167708,0.0024488,0.00026206,0.00247479,-0.000193697,1.47195,0.00171807,0.0282575,1903,1177,60.0782,-2.62584
686,-153,60.1029,2.55383,-8.26664e-05,0.00239003,0.000207945,0.0024074,-0.000100032,1.48748,0.00163929,0.0177373,1910,1177,60.1029,-2.5538
693,-153,60.129,2.45239,-0.000102683,0.00210966,0.000328678,0.00215746,-0.000150481,1.42639,0.001491,0.038867,1917,1177,60.129,-2.45236
700,-153,60.1486,2.3009,0,0,0,0,0,0,0,-1,1924,1177,60.1486,-2.30096
707,-153,29.6483,6.6842,0,0,0,0,0,0,0,-1,1931,1177,29.6483,-6.68415
714,-153,36.0046,6.78418,0,0,0,0,0,0,0,-1,1938,1177,36.0046,-6.78418
721,-153,36.4866,6.47595,0,0,0,0,0,0,0,-1,1945,1177,36.4866,-6.47593
728,-153,47.7305,7.37024,0,0,0,0,0,0,0,-1,1952,1177,47.7304,-7.37022
735,-153,51.9767,7.58228,0,0,0,0,0,0,0,-1,1959,1177,51.9767,-7.58226
742,-153,51.9972,7.1394,-0.000335186,0.0012484,0.00112498,0.0018323,-0.000919082,1.09204,0.00161741,0.015768,1966,1177,51.9971,-7.13946
749,-153,51.9823,6.66309,-0.000511901,0.00286371,0.000632562,0.00297835,-0.000626544,1.39151,0.00222403,0.0158531,1973,1177,51.9823,-6.66313
756,-153,51.9666,6.11987,-0.000231011,0.00598172,-0.00191478,0.00652445,-0.000773739,-1.2946,0.00462915,0.0112975,1980,1177,51.9666,-6.11986
763,-153,51.9272,5.59814,0.000440544,0.0102193,-0.00590373,0.0129954,-0.00233559,-1.13124,0.00953793,0.0111988,1987,1177,51.9272,-5.5981
770,-153,51.9183,5.10437,0.00136996,0.0151792,-0.0113171,0.0215316,-0.00498248,-1.05931,0.0162715,0.0120445,1994,1177,51.9184,-5.1044
777,-153,51.8948,4.6582,0.00243526,0.0207777,-0.0183314,0.0321041,-0.00889115,-1.01734,0.0249013,0.024358,2001,1177,51.8949,-4.65819
784,-153,51.6172,4.60901,0.00368406,0.0268052,-0.0272109,0.0448095,-0.0143202,-0.98627,0.0356192,0.042457,2008,1177,51.6172,-4.60903
791,-153,51.2783,4.4563,0.00528266,0.033406,-0.0383849,0.0602238,-0.0215351,-0.960974,0.0489335,0.0453046,2015,1177,51.2783,-4.45627
798,-153,51.3088,4.11682,0.00708437,0.0400261,-0.0524434,0.0785244,-0.0314139,-0.937555,0.0653866,0.0445879,2022,1177,51.3089,-4.11677
805,-153,51.1792,3.43567,0,0,0,0,0,0,0,-1,2029,1177,51.1792,-3.43567
812,-153,0,0,0,0,0,0,0,0,0,-1,2036,1177,0,0
-700,-160,0,0,0,0,0,0,0,0,0,-1,524,1184,0,0
-693,-160,0,0,0,0,0,0,0,0,0,-1,531,1184,0,0
-686,-160,-36.3273,-2.66882,0,0,0,0,0,0,0,-1,538,1184,-36.3273,2.66881
-679,-160,-36.7976,-1.39331,-0.0276223,-0.00426045,0.0317408,0.0178805,-0.0497633,0.961712,0.0404744,0.0461935,545,1184,-36.7976,1.39326
-672,-160,-36.4728,-0.674927,-0.0235352,-0.00339536,0.0273377,0.0156681,-0.0425987,0.961864,0.0348175,0.0455074,552,1184,-36.4728,0.674954
-665,-160,-36.456,-2.28088,0,0,0,0,0,0,0,-1,559,1184,-36.456,2.2809
-658,-160,-36.1546,-1.63403,0,0,0,0,0,0,0,-1,566,1184,-36.1546,1.63409
-651,-160,-36.3464,1.58557,0,0,0,0,0,0,0,-1,573,1184,-36.3464,-1.58556
-644,-160,-36.3588,2.08142,-0.00885922,0.000985537,0.00913016,0.0064357,-0.0143094,1.03263,0.0122614,0.0413659,580,1184,-36.3588,-2.08145
-637,-160,-36.4135,2.57764,-0.00634354,0.00158129,0.0053725,0.00429454,-0.00905679,1.10314,0.00787015,0.0156359,587,1184,-36.4135,-2.57767
-630,-160,-36.4819,3.09058,-0.00435369,0.00214526,0.00256829,0.00303767,-0.0052461,1.23638,0.00483896,0.00963598,594,1184,-36.4819,-3.09059
-623,-160,-36.5363,3.62976,-0.00293598,0.00156788,-0.000656716,0.00166168,-0.00302978,-1.42892,0.00274674,0.0140473,601,1184,-36.5363,-3.62977
-616,-160,-36.5754,4.18323,-0.00269079,0.000811927,-0.00251131,0.00212225,-0.00400112,-1.08988,0.00359037,0.0123313,608,1184,-36.5754,-4.18322
-609,-160,-36.6227,4.77576,-0.00319766,-0.000542386,-0.00293389,0.00135027,-0.00509032,-0.997871,0.0039219,0.0179115,615,1184,-36.6227,-4.77571
-602,-160,-36.6824,5.38428,0,0,0,0,0,0,0,-1,622,1184,-36.6824,-5.38433
-595,-160,-33.0669,5.93445,0,0,0,0,0,0,0,-1,629,1184,-33.0669,-5.93446
-588,-160,-33.4845,5.66699,0,0,0,0,0,0,0,-1,636,1184,-33.4845,-5.66697
-581,-160,-33.1338,6.41174,0,0,0,0,0,0,0,-1,643,1184,-33.1338,-6.41176
-574,-160,-32.7831,7.15649,0,0,0,0,0,0,0,-1,650,1184,-32.7831,-7.15655
-567,-160,-29.5828,0.643921,0,0,0,0,0,0,0,-1,657,1184,-29.5828,-0.643968
-560,-160,-45.1668,0.552246,0,0,0,0,0,0,0,-1,664,1184,-45.1668,-0.552225
-553,-160,-45.2034,0.603149,-0.00127916,0.000992773,-0.00115184,0.00147457,-0.00176095,-1.17463,0.00187047,0.0398942,671,1184,-45.2034,-0.603135
-546,-160,-45.2211,0.715942,-0.000692089,0.00175361,-0.000842078,0.0020155,-0.000953981,-1.26927,0.00175056,0.0402506,678,1184,-45.2211,-0.715996
-539,-160,-45.2366,0.734253,0.000883973,0.00246804,-0.000980314,0.00293629,0.000415715,-1.12518,0.00183472,0.0426589,685,1184,-45.2366,-0.734268
-532,-160,-45.2161,0.756836,0.00313184,0.00292222,-0.00160602,0.00463647,0.00141759,-0.752814,0.00274338,0.0448334,692,1184,-45.2161,-0.756879
-525,-160,-45.0396,0.694214,0.0059672,0.00347304,-0.00286881,0.00784826,0.00159198,-0.580368,0.00479052,0.0428653,699,1184,-45.0396,-0.694167
-518,-160,-45.0856,0.750732,0.00843746,0.00439222,-0.00365619,0.0105932,0.00223648,-0.532748,0.00644727,0.0413321,706,1184,-45.0856,-0.750785
-511,-160,0,0,0,0,0,0,0,0,0,-1,713,1184,0,0
-504,-160,0,0,0,0,0,0,0,0,0,-1,720,1184,0,0
-497,-160,0,0,0,0,0,0,0,0,0,-1,727,1184,0,0
-490,-160,0,0,0,0,0,0,0,0,0,-1,734,1184,0,0
-483,-160,0,0,0,0,0,0,0,0,0,-1,741,1184,0,0
-476,-160,0,0,0,0,0,0,0,0,0,-1,748,1184,0,0
-469,-160,0,0,0,0,0,0,0,0,0,-1,755,1184,0,0
-462,-160,0,0,0,0,0,0,0,0,0,-1,762,1184,0,0
-455,-160,0,0,0,0,0,0,0,0,0,-1,769,1184,0,0
-448,-160,0,0,0,0,0,0,0,0,0,-1,776,1184,0,0
-441,-160,0,0,0,0,0,0,0,0,0,-1,783,1184,0,0
-434,-160,0,0,0,0,0,0,0,0,0,-1,790,1184,0,0
-427,-160,0,0,0,0,0,0,0,0,0,-1,797,1184,0,0
-420,-160,0,0,0,0,0,0,0,0,0,-1,804,1184,0,0
-413,-160,0,0,0,0,0,0,0,0,0,-1,811,1184,0,0
-406,-160,0,0,0,0,0,0,0,0,0,-1,818,1184,0,0
-399,-160,0,0,0,0,0,0,0,0,0,-1,825,1184,0,0
-392,-160,0,0,0,0,0,0,0,0,0,-1,832,1184,0,0
-385,-160,0,0,0,0,0,0,0,0,0,-1,839,1184,0,0
-378,-160,0,0,0,0,0,0,0,0,0,-1,846,1184,0,0
-371,-160,0,0,0,0,0,0,0,0,0,-1,853,1184,0,0
-364,-160,0,0,0,0,0,0,0,0,0,-1,860,1184,0,0
-357,-160,0,0,0,0,0,0,0,0,0,-1,867,1184,0,0
-350,-160,0,0,0,0,0,0,0,0,0,-1,874,1184,0,0
-343,-160,0,0,0,0,0,0,0,0,0,-1,881,1184,0,0
-336,-160,0,0,0,0,0,0,0,0,0,-1,888,1184,0,0
-329,-160,0,0,0,0,0,0,0,0,0,-1,895,1184,0,0
-322,-160,0,0,0,0,0,0,0,0,0,-1,902,1184,0,0
-315,-160,0,0,0,0,0,0,0,0,0,-1,909,1184,0,0
-308,-160,0,0,0,0,0,0,0,0,0,-1,916,1184,0,0
-301,-160,0,0,0,0,0,0,0,0,0,-1,923,1184,0,0
-294,-160,0,0,0,0,0,0,0,0,0,-1,930,1184,0,0
-287,-160,0,0,0,0,0,0,0,0,0,-1,937,1184,0,0
-280,-160,0,0,0,0,0,0,0,0,0,-1,944,1184,0,0
-273,-160,0,0,0,0,0,0,0,0,0,-1,951,1184,0,0
-266,-160,0,0,0,0,0,0,0,0,0,-1,958,1184,0,0
-259,-160,0,0,0,0,0,0,0,0,0,-1,965,1184,0,0
-252,-160,0,0,0,0,0,0,0,0,0,-1,972,1184,0,0
-245,-160,0,0,0,0,0,0,0,0,0,-1,979,1184,0,0
-238,-160,0,0,0,0,0,0,0,0,0,-1,986,1184,0,0
-231,-160,0,0,0,0,0,0,0,0,0,-1,993,1184,0,0
-224,-160,0,0,0,0,0,0,0,0,0,-1,1000,1184,0,0
-217,-160,0,0,0,0,0,0,0,0,0,-1,1007,1184,0,0
-210,-160,0,0,0,0,0,0,0,0,0,-1,1014,1184,0,0
-203,-160,0,0,0,0,0,0,0,0,0,-1,1021,1184,0,0
-196,-160,0,0,0,0,0,0,0,0,0,-1,1028,1184,0,0
-189,-160,0,0,0,0,0,0,0,0,0,-1,1035,1184,0,0
-182,-160,0,0,0,0,0,0,0,0,0,-1,1042,1184,0,0
-175,-160,0,0,0,0,0,0,0,0,0,-1,1049,1184,0,0
-168,-160,0,0,0,0,0,0,0,0,0,-1,1056,1184,0,0
-161,-160,0,0,0,0,0,0,0,0,0,-1,1063,1184,0,0
-154,-160,0,0,0,0,0,0,0,0,0,-1,1070,1184,0,0
-147,-160,0,0,0,0,0,0,0,0,0,-1,1077,1184,0,0
-140,-160,0,0,0,0,0,0,0,0,0,-1,1084,1184,0,0
-133,-160,0,0,0,0,0,0,0,0,0,-1,1091,1184,0,0
-126,-160,0,0,0,0,0,0,0,0,0,-1,1098,1184,0,0
-119,-160,0,0,0,0,0,0,0,0,0,-1,1105,1184,0,0
-112,-160,0,0,0,0,0,0,0,0,0,-1,1112,1184,0,0
-105,-160,0,0,0,0,0,0,0,0,0,-1,1119,1184,0,0
-98,-160,0,0,0,0,0,0,0,0,0,-1,1126,1184,0,0
-91,-160,0,0,0,0,0,0,0,0,0,-1,1133,1184,0,0
-84,-160,0,0,0,0,0,0,0,0,0,-1,1140,1184,0,0
-77,-160,0,0,0,0,0,0,0,0,0,-1,1147,1184,0,0
-70,-160,0,0,0,0,0,0,0,0,0,-1,1154,1184,0,0
-63,-160,0,0,0,0,0,0,0,0,0,-1,1161,1184,0,0
-56,-160,0,0,0,0,0,0,0,0,0,-1,1168,1184,0,0
-49,-160,0,0,0,0,0,0,0,0,0,-1,1175,1184,0,0
-42,-160,0,0,0,0,0,0,0,0,0,-1,1182,1184,0,0
-35,-160,0,0,0,0,0,0,0,0,0,-1,1189,1184,0,0
-28,-160,0,0,0,0,0,0,0,0,0,-1,1196,1184,0,0
-21,-160,0,0,0,0,0,0,0,0,0,-1,1203,1184,0,0
-14,-160,0,0,0,0,0,0,0,0,0,-1,1210,1184,0,0
-7,-160,0,0,0,0,0,0,0,0,0,-1,1217,1184,0,0
0,-160,0,0,0,0,0,0,0,0,0,-1,1224,1184,0,0
7,-160,0,0,0,0,0,0,0,0,0,-1,1231,1184,0,0
14,-160,0,0,0,0,0,0,0,0,0,-1,1238,1184,0,0
21,-160,0,0,0,0,0,0,0,0,0,-1,1245,1184,0,0
28,-160,0,0,0,0,0,0,0,0,0,-1,1252,1184,0,0
35,-160,0,0,0,0,0,0,0,0,0,-1,1259,1184,0,0
42,-160,0,0,0,0,0,0,0,0,0,-1,1266,1184,0,0
49,-160,0,0,0,0,0,0,0,0,0,-1,1273,1184,0,0
56,-160,0,0,0,0,0,0,0,0,0,-1,1280,1184,0,0
63,-160,0,0,0,0,0,0,0,0,0,-1,1287,1184,0,0
70,-160,0,0,0,0,0,0,0,0,0,-1,1294,1184,0,0
77,-160,0,0,0,0,0,0,0,0,0,-1,1301,1184,0,0
84,-160,0,0,0,0,0,0,0,0,0,-1,1308,1184,0,0
91,-160,0,0,0,0,0,0,0,0,0,-1,1315,1184,0,0
98,-160,0,0,0,0,0,0,0,0,0,-1,1322,1184,0,0
105,-160,0,0,0,0,0,0,0,0,0,-1,1329,1184,0,0
112,-160,0,0,0,0,0,0,0,0,0,-1,1336,1184,0,0
119,-160,0,0,0,0,0,0,0,0,0,-1,1343,1184,0,0
126,-160,0,0,0,0,0,0,0,0,0,-1,1350,1184,0,0
133,-160,0,0,0,0,0,0,0,0,0,-1,1357,1184,0,0
140,-160,0,0,0,0,0,0,0,0,0,-1,1364,1184,0,0
147,-160,0,0,0,0,0,0,0,0,0,-1,1371,1184,0,0
154,-160,0,0,0,0,0,0,0,0,0,-1,1378,1184,0,0
161,-160,0,0,0,0,0,0,0,0,0,-1,1385,1184,0,0
168,-160,0,0,0,0,0,0,0,0,0,-1,1392,1184,0,0
175,-160,0,0,0,0,0,0,0,0,0,-1,1399,1184,0,0
182,-160,0,0,0,0,0,0,0,0,0,-1,1406,1184,0,0
189,-160,0,0,0,0,0,0,0,0,0,-1,1413,1184,0,0
196,-160,0,0,0,0,0,0,0,0,0,-1,1420,1184,0,0
203,-160,0,0,0,0,0,0,0,0,0,-1,1427,1184,0,0
210,-160,0,0,0,0,0,0,0,0,0,-1,1434,1184,0,0
217,-160,0,0,0,0,0,0,0,0,0,-1,1441,1184,0,0
224,-160,0,0,0,0,0,0,0,0,0,-1,1448,1184,0,0
231,-160,0,0,0,0,0,0,0,0,0,-1,1455,1184,0,0
238,-160,0,0,0,0,0,0,0,0,0,-1,1462,1184,0,0
245,-160,0,0,0,0,0,0,0,0,0,-1,1469,1184,0,0
252,-160,0,0,0,0,0,0,0,0,0,-1,1476,1184,0,0
259,-160,0,0,0,0,0,0,0,0,0,-1,1483,1184,0,0
266,-160,0,0,0,0,0,0,0,0,0,-1,1490,1184,0,0
273,-160,0,0,0,0,0,0,0,0,0,-1,1497,1184,0,0
280,-160,0,0,0,0,0,0,0,0,0,-1,1504,1184,0,0
287,-160,0,0,0,0,0,0,0,0,0,-1,1511,1184,0,0
294,-160,0,0,0,0,0,0,0,0,0,-1,1518,1184,0,0
301,-160,0,0,0,0,0,0,0,0,0,-1,1525,1184,0,0
308,-160,0,0,0,0,0,0,0,0,0,-1,1532,1184,0,0
315,-160,0,0,0,0,0,0,0,0,0,-1,1539,1184,0,0
322,-160,0,0,0,0,0,0,0,0,0,-1,1546,1184,0,0
329,-160,0,0,0,0,0,0,0,0,0,-1,1553,1184,0,0
336,-160,0,0,0,0,0,0,0,0,0,-1,1560,1184,0,0
343,-160,0,0,0,0,0,0,0,0,0,-1,1567,1184,0,0
350,-160,0,0,0,0,0,0,0,0,0,-1,1574,1184,0,0
357,-160,0,0,0,0,0,0,0,0,0,-1,1581,1184,0,0
364,-160,0,0,0,0,0,0,0,0,0,-1,1588,1184,0,0
371,-160,0,0,0,0,0,0,0,0,0,-1,1595,1184,0,0
378,-160,0,0,0,0,0,0,0,0,0,-1,1602,1184,0,0
385,-160,0,0,0,0,0,0,0,0,0,-1,1609,1184,0,0
392,-160,0,0,0,0,0,0,0,0,0,-1,1616,1184,0,0
399,-160,0,0,0,0,0,0,0,0,0,-1,1623,1184,0,0
406,-160,0,0,0,0,0,0,0,0,0,-1,1630,1184,0,0
413,-160,0,0,0,0,0,0,0,0,0,-1,1637,1184,0,0
420,-160,0,0,0,0,0,0,0,0,0,-1,1644,1184,0,0
427,-160,0,0,0,0,0,0,0,0,0,-1,1651,1184,0,0
434,-160,0,0,0,0,0,0,0,0,0,-1,1658,1184,0,0
441,-160,0,0,0,0,0,0,0,0,0,-1,1665,1184,0,0
448,-160,0,0,0,0,0,0,0,0,0,-1,1672,1184,0,0
455,-160,0,0,0,0,0,0,0,0,0,-1,1679,1184,0,0
462,-160,0,0,0,0,0,0,0,0,0,-1,1686,1184,0,0
469,-160,0,0,0,0,0,0,0,0,0,-1,1693,1184,0,0
476,-160,0,0,0,0,0,0,0,0,0,-1,1700,1184,0,0
483,-160,0,0,0,0,0,0,0,0,0,-1,1707,1184,0,0
490,-160,0,0,0,0,0,0,0,0,0,-1,1714,1184,0,0
497,-160,0,0,0,0,0,0,0,0,0,-1,1721,1184,0,0
504,-160,0,0,0,0,0,0,0,0,0,-1,1728,1184,0,0
511,-160,0,0,0,0,0,0,0,0,0,-1,1735,1184,0,0
518,-160,0,0,0,0,0,0,0,0,0,-1,1742,1184,0,0
525,-160,0,0,0,0,0,0,0,0,0,-1,1749,1184,0,0
532,-160,0,0,0,0,0,0,0,0,0,-1,1756,1184,0,0
539,-160,0,0,0,0,0,0,0,0,0,-1,1763,1184,0,0
546,-160,0,0,0,0,0,0,0,0,0,-1,1770,1184,0,0
553,-160,0,0,0,0,0,0,0,0,0,-1,1777,1184,0,0
560,-160,0,0,0,0,0,0,0,0,0,-1,1784,1184,0,0
567,-160,0,0,0,0,0,0,0,0,0,-1,1791,1184,0,0
574,-160,0,0,0,0,0,0,0,0,0,-1,1798,1184,0,0
581,-160,0,0,0,0,0,0,0,0,0,-1,1805,1184,0,0
588,-160,0,0,0,0,0,0,0,0,0,-1,1812,1184,0,0
595,-160,0,0,0,0,0,0,0,0,0,-1,1819,1184,0,0
602,-160,0,0,0,0,0,0,0,0,0,-1,1826,1184,0,0
609,-160,0,0,0,0,0,0,0,0,0,-1,1833,1184,0,0
616,-160,0,0,0,0,0,0,0,0,0,-1,1840,1184,0,0
623,-160,0,0,0,0,0,0,0,0,0,-1,1847,1184,0,0
630,-160,0,0,0,0,0,0,0,0,0,-1,1854,1184,0,0
637,-160,60.1003,2.29163,0.00099141,0.000920398,0.00126838,0.00222478,-0.00031297,0.771405,0.00159776,0.0398659,1861,1184,60.1003,-2.29158
644,-160,60.1831,2.34961,0.000291908,0.00123454,0.0017343,0.00256043,-0.00103398,0.918074,0.0021367,0.0398747,1868,1184,60.1831,-2.34957
651,-160,60.1603,2.48694,-8.98083e-05,0.00170422,0.00168586,0.00271685,-0.00110244,1.02989,0.00226979,0.0392783,1875,1184,60.1603,-2.48688
658,-160,59.9434,2.23547,-0.000142769,0.00218436,0.00133012,0.00278803,-0.000746433,1.14475,0.00215111,0.0378746,1882,1184,59.9434,-2.23546
665,-160,60.0764,2.26941,7.24421e-05,0.00257376,0.00080558,0.00281075,-0.000164551,1.28468,0.00193102,0.0369591,1889,1184,60.0764,-2.26947
672,-160,60.068,2.51257,0.000246256,0.00274214,0.000316402,0.00278163,0.000206771,1.44664,0.00178948,0.0351717,1896,1184,60.068,-2.51262
679,-160,60.0846,2.58167,0.000346709,0.0023896,4.70107e-05,0.00239068,0.000345628,1.5478,0.00149198,0.026353,1903,1184,60.0846,-2.58167
686,-160,60.1051,2.53516,0.000464764,0.00233123,1.27495e-05,0.00233131,0.000464677,1.56397,0.0014248,0.0155536,1910,1184,60.105,-2.53516
693,-160,60.1561,2.42456,0,0,0,0,0,0,0,-1,1917,1184,60.1561,-2.4246
700,-160,42.8784,2.44617,0,0,0,0,0,0,0,-1,1924,1184,42.8785,-2.4462
707,-160,24.5115,6.27405,0,0,0,0,0,0,0,-1,1931,1184,24.5115,-6.27401
714,-160,35.6892,6.8905,0,0,0,0,0,0,0,-1,1938,1184,35.6892,-6.89048
721,-160,36.2388,6.37878,0,0,0,0,0,0,0,-1,1945,1184,36.2388,-6.37876
728,-160,50.3132,8.19373,0,0,0,0,0,0,0,-1,1952,1184,50.3133,-8.19376
735,-160,51.4512,7.62854,0,0,0,0,0,0,0,-1,1959,1184,51.4511,-7.6285
742,-160,51.4731,7.12952,0.000196226,0.00133956,0.000960712,0.00188582,-0.00035004,1.05378,0.00138868,0.0171498,1966,1184,51.4732,-7.12951
749,-160,51.4485,6.65112,0.000125242,0.00321756,0.00023428,0.00323521,0.000107593,1.49561,0.00212185,0.0176091,1973,1184,51.4485,-6.65106
756,-160,51.4332,6.12793,0.000316581,0.00614204,-0.00226918,0.00692162,-0.000463,-1.23988,0.00477623,0.0121004,1980,1184,51.4332,-6.12794
763,-160,51.3796,5.63184,0.000773132,0.0101808,-0.00602347,0.0131195,-0.00216556,-1.1169,0.00955038,0.0128692,1987,1184,51.3797,-5.63185
770,-160,51.2898,5.08337,0.00137817,0.0149506,-0.0111583,0.0212243,-0.00489549,-1.0586,0.0160325,0.0257986,1994,1184,51.2897,-5.0834
777,-160,51.3794,4.58862,0.00193798,0.0203769,-0.0178264,0.0312268,-0.00891188,-1.02405,0.0243386,0.0369742,2001,1184,51.3794,-4.58861
784,-160,51.6592,3.90991,0.0024826,0.0261715,-0.0261773,0.0430593,-0.0144052,-0.997852,0.0345247,0.0471532,2008,1184,51.6592,-3.90991
791,-160,51.8596,3.40698,0,0,0,0,0,0,0,-1,2015,1184,51.8596,-3.40697
798,-160,51.5637,3.56506,0.00343773,0.0389289,-0.0495431,0.0738087,-0.0314421,-0.957372,0.062386,0.0460332,2022,1184,51.5638,-3.56511
805,-160,51.2664,2.9978,0.00299233,0.0442648,-0.0645381,0.0913856,-0.0441285,-0.940137,0.0798091,0.0452749,2029,1184,51.2663,-2.99783
812,-160,0,0,0,0,0,0,0,0,0,-1,2036,1184,0,0
-700,-167,0,0,0,0,0,0,0,0,0,-1,524,1191,0,0
-693,-167,0,0,0,0,0,0,0,0,0,-1,531,1191,0,0
-686,-167,-37.1346,-1.51758,-0.0376858,-0.0128546,0.0294401,0.00668075,-0.0572211,0.984944,0.0405582,0.0450188,538,1191,-37.1346,1.51756
-679,-167,-37.0384,-1.42102,-0.0334367,-0.0113638,0.0281548,0.00784034,-0.0526409,0.97219,0.0379781,0.04427,545,1191,-37.0384,1.42105
-672,-167,-37.0532,-0.785889,-0.0290205,-0.0093349,0.0250164,0.00770539,-0.0460608,0.972824,0.0335717,0.0458756,552,1191,-37.0532,0.785909
-665,-167,-36.8231,-0.00793457,0,0,0,0,0,0,0,-1,559,1191,-36.8231,0.00793821
-658,-167,-36.5266,0.359375,0,0,0,0,0,0,0,-1,566,1191,-36.5265,-0.359385
-651,-167,-35.7667,1.18896,0,0,0,0,0,0,0,-1,573,1191,-35.7667,-1.18891
-644,-167,-35.7648,1.88489,-0.0119172,-0.0015588,0.00918429,0.00380598,-0.0172819,1.04213,0.0129773,0.0453087,580,1191,-35.7648,-1.88493
-637,-167,-35.8183,2.59705,-0.0086274,-0.00024044,0.00561719,0.00257594,-0.0114438,1.10604,0.00861714,0.0201083,587,1191,-35.8183,-2.59699
-630,-167,-35.9171,3.09424,-0.005905,0.000995967,0.00295924,0.00209114,-0.00700017,1.21634,0.00549802,0.0101918,594,1191,-35.9171,-3.09429
-623,-167,-35.9433,3.62415,-0.00368077,0.00104376,-0.000310286,0.00106405,-0.00370106,-1.50549,0.00288815,0.0133416,601,1191,-35.9433,-3.62409
-616,-167,-35.9548,4.18762,-0.00285633,0.000803963,-0.00240416,0.00199531,-0.00404768,-1.11073,0.00355536,0.0167643,608,1191,-35.9548,-4.18758
-609,-167,-35.9879,4.80127,-0.00306782,-0.000250445,-0.00309155,0.00173823,-0.00505649,-0.999172,0.00407588,0.015121,615,1191,-35.9878,-4.80133
-602,-167,-36.0614,5.33997,-0.00345369,-0.00030545,-0.00245522,0.00103692,-0.00479607,-1.07046,0.00359324,0.0204952,622,1191,-36.0614,-5.33995
-595,-167,-35.9007,5.78601,0,0,0,0,0,0,0,-1,629,1191,-35.9007,-5.78598
-588,-167,-36.1838,6.41992,0,0,0,0,0,0,0,-1,636,1191,-36.1838,-6.4199
-581,-167,-32.8646,6.30542,0,0,0,0,0,0,0,-1,643,1191,-32.8646,-6.30537
-574,-167,-32.4808,7.37524,0,0,0,0,0,0,0,-1,650,1191,-32.4808,-7.37525
-567,-167,-27.3643,2.55859,0,0,0,0,0,0,0,-1,657,1191,-27.3643,-2.55864
-560,-167,-45.1227,0.645264,0,0,0,0,0,0,0,-1,664,1191,-45.1228,-0.645255
-553,-167,-45.2102,0.616821,-0.00185045,0.0019935,-0.00113907,0.00230568,-0.00216263,-1.3033,0.00258022,0.0460534,671,1191,-45.2102,-0.61685
-546,-167,-45.1927,0.738525,-0.0013831,0.00270371,-0.000772217,0.00284476,-0.00152414,-1.39014,0.00256051,0.0361149,678,1191,-45.1928,-0.738575
-539,-167,-45.2476,0.928589,5.69413e-05,0.00349007,-0.000681731,0.00362049,-7.34786e-05,-1.38177,0.00243852,0.0404685,685,1191,-45.2476,-0.928618
-532,-167,-45.1819,0.75769,0.0023756,0.00414016,-0.00098133,0.00457751,0.00193825,-1.15155,0.00265314,0.0440876,692,1191,-45.182,-0.757651
-525,-167,-45.1509,0.800903,0,0,0,0,0,0,0,-1,699,1191,-45.1509,-0.800866
-518,-167,-44.8852,0.814697,0,0,0,0,0,0,0,-1,706,1191,-44.8852,-0.814705
-511,-167,0,0,0,0,0,0,0,0,0,-1,713,1191,0,0
-504,-167,0,0,0,0,0,0,0,0,0,-1,720,1191,0,0
-497,-167,0,0,0,0,0,0,0,0,0,-1,727,1191,0,0
-490,-167,0,0,0,0,0,0,0,0,0,-1,734,1191,0,0
-483,-167,0,0,0,0,0,0,0,0,0,-1,741,1191,0,0
-476,-167,0,0,0,0,0,0,0,0,0,-1,748,1191,0,0
-469,-167,0,0,0,0,0,0,0,0,0,-1,755,1191,0,0
-462,-167,0,0,0,0,0,0,0,0,0,-1,762,1191,0,0
-455,-167,0,0,0,0,0,0,0,0,0,-1,769,1191,0,0
-448,-167,0,0,0,0,0,0,0,0,0,-1,776,1191,0,0
-441,-167,0,0,0,0,0,0,0,0,0,-1,783,1191,0,0
-434,-167,0,0,0,0,0,0,0,0,0,-1,790,1191,0,0
-427,-167,0,0,0,0,0,0,0,0,0,-1,797,1191,0,0
-420,-167,0,0,0,0,0,0,0,0,0,-1,804,1191,0,0
-413,-167,0,0,0,0,0,0,0,0,0,-1,811,1191,0,0
-406,-167,0,0,0,0,0,0,0,0,0,-1,818,1191,0,0
-399,-167,0,0,0,0,0,0,0,0,0,-1,825,1191,0,0
-392,-167,0,0,0,0,0,0,0,0,0,-1,832,1191,0,0
-385,-167,0,0,0,0,0,0,0,0,0,-1,839,1191,0,0
-378,-167,0,0,0,0,0,0,0,0,0,-1,846,1191,0,0
-371,-167,0,0,0,0,0,0,0,0,0,-1,853,1191,0,0
-364,-167,0,0,0,0,0,0,0,0,0,-1,860,1191,0,0
-357,-167,0,0,0,0,0,0,0,0,0,-1,867,1191,0,0
-350,-167,0,0,0,0,0,0,0,0,0,-1,874,1191,0,0
-343,-167,0,0,0,0,0,0,0,0,0,-1,881,1191,0,0
-336,-167,0,0,0,0,0,0,0,0,0,-1,888,1191,0,0
-329,-167,0,0,0,0,0,0,0,0,0,-1,895,1191,0,0
-322,-167,0,0,0,0,0,0,0,0,0,-1,902,1191,0,0
-315,-167,0,0,0,0,0,0,0,0,0,-1,909,1191,0,0
-308,-167,0,0,0,0,0,0,0,0,0,-1,916,1191,0,0
-301,-167,0,0,0,0,0,0,0,0,0,-1,923,1191,0,0
-294,-167,0,0,0,0,0,0,0,0,0,-1,930,1191,0,0
-287,-167,0,0,0,0,0,0,0,0,0,-1,937,1191,0,0
-280,-167,0,0,0,0,0,0,0,0,0,-1,944,1191,0,0
-273,-167,0,0,0,0,0,0,0,0,0,-1,951,1191,0,0
-266,-167,0,0,0,0,0,0,0,0,0,-1,958,1191,0,0
-259,-167,0,0,0,0,0,0,0,0,0,-1,965,1191,0,0
-252,-167,0,0,0,0,0,0,0,0,0,-1,972,1191,0,0
-245,-167,0,0,0,0,0,0,0,0,0,-1,979,1191,0,0
-238,-167,0,0,0,0,0,0,0,0,0,-1,986,1191,0,0
-231,-167,0,0,0,0,0,0,0,0,0,-1,993,1191,0,0
-224,-167,0,0,0,0,0,0,0,0,0,-1,1000,1191,0,0
-217,-167,0,0,0,0,0,0,0,0,0,-1,1007,1191,0,0
-210,-167,0,0,0,0,0,0,0,0,0,-1,1014,1191,0,0
-203,-167,0,0,0,0,0,0,0,0,0,-1,1021,1191,0,0
-196,-167,0,0,0,0,0,0,0,0,0,-1,1028,1191,0,0
-189,-167,0,0,0,0,0,0,0,0,0,-1,1035,1191,0,0
-182,-167,0,0,0,0,0,0,0,0,0,-1,1042,1191,0,0
-175,-167,0,0,0,0,0,0,0,0,0,-1,1049,1191,0,0
-168,-167,0,0,0,0,0,0,0,0,0,-1,1056,1191,0,0
-161,-167,0,0,0,0,0,0,0,0,0,-1,1063,1191,0,0
-154,-167,0,0,0,0,0,0,0,0,0,-1,1070,1191,0,0
-147,-167,0,0,0,0,0,0,0,0,0,-1,1077,1191,0,0
-140,-167,0,0,0,0,0,0,0,0,0,-1,1084,1191,0,0
-133,-167,0,0,0,0,0,0,0,0,0,-1,1091,1191,0,0
-126,-167,0,0,0,0,0,0,0,0,0,-1,1098,1191,0,0
-119,-167,0,0,0,0,0,0,0,0,0,-1,1105,1191,0,0
-112,-167,0,0,0,0,0,0,0,0,0,-1,1112,1191,0,0
-105,-167,0,0,0,0,0,0,0,0,0,-1,1119,1191,0,0
-98,-167,0,0,0,0,0,0,0,0,0,-1,1126,1191,0,0
-91,-167,0,0,0,0,0,0,0,0,0,-1,1133,1191,0,0
-84,-167,0,0,0,0,0,0,0,0,0,-1,1140,1191,0,0
-77,-167,0,0,0,0,0,0,0,0,0,-1,1147,1191,0,0
-70,-167,0,0,0,0,0,0,0,0,0,-1,1154,1191,0,0
-63,-167,0,0,0,0,0,0,0,0,0,-1,1161,1191,0,0
-56,-167,0,0,0,0,0,0,0,0,0,-1,1168,1191,0,0
-49,-167,0,0,0,0,0,0,0,0,0,-1,1175,1191,0,0
-42,-167,0,0,0,0,0,0,0,0,0,-1,1182,1191,0,0
-35,-167,0,0,0,0,0,0,0,0,0,-1,1189,1191,0,0
-28,-167,0,0,0,0,0,0,0,0,0,-1,1196,1191,0,0
-21,-167,0,0,0,0,0,0,0,0,0,-1,1203,1191,0,0
-14,-167,0,0,0,0,0,0,0,0,0,-1,1210,1191,0,0
-7,-167,0,0,0,0,0,0,0,0,0,-1,1217,1191,0,0
0,-167,0,0,0,0,0,0,0,0,0,-1,1224,1191,0,0
7,-167,0,0,0,0,0,0,0,0,0,-1,1231,1191,0,0
14,-167,0,0,0,0,0,0,0,0,0,-1,1238,1191,0,0
21,-167,0,0,0,0,0,0,0,0,0,-1,1245,1191,0,0
28,-167,0,0,0,0,0,0,0,0,0,-1,1252,1191,0,0
35,-167,0,0,0,0,0,0,0,0,0,-1,1259,1191,0,0
42,-167,0,0,0,0,0,0,0,0,0,-1,1266,1191,0,0
49,-167,0,0,0,0,0,0,0,0,0,-1,1273,1191,0,0
56,-167,0,0,0,0,0,0,0,0,0,-1,1280,1191,0,0
63,-167,0,0,0,0,0,0,0,0,0,-1,1287,1191,0,0
70,-167,0,0,0,0,0,0,0,0,0,-1,1294,1191,0,0
77,-167,0,0,0,0,0,0,0,0,0,-1,1301,1191,0,0
84,-167,0,0,0,0,0,0,0,0,0,-1,1308,1191,0,0
91,-167,0,0,0,0,0,0,0,0,0,-1,1315,1191,0,0
98,-167,0,0,0,0,0,0,0,0,0,-1,1322,1191,0,0
105,-167,0,0,0,0,0,0,0,0,0,-1,1329,1191,0,0
112,-167,0,0,0,0,0,0,0,0,0,-1,1336,1191,0,0
119,-167,0,0,0,0,0,0,0,0,0,-1,1343,1191,0,0
126,-167,0,0,0,0,0,0,0,0,0,-1,1350,1191,0,0
133,-167,0,0,0,0,0,0,0,0,0,-1,1357,1191,0,0
140,-167,0,0,0,0,0,0,0,0,0,-1,1364,1191,0,0
147,-167,0,0,0,0,0,0,0,0,0,-1,1371,1191,0,0
154,-167,0,0,0,0,0,0,0,0,0,-1,1378,1191,0,0
161,-167,0,0,0,0,0,0,0,0,0,-1,1385,1191,0,0
168,-167,0,0,0,0,0,0,0,0,0,-1,1392,1191,0,0
175,-167,0,0,0,0,0,0,0,0,0,-1,1399,1191,0,0
182,-167,0,0,0,0,0,0,0,0,0,-1,1406,1191,0,0
189,-167,0,0,0,0,0,0,0,0,0,-1,1413,1191,0,0
196,-167,0,0,0,0,0,0,0,0,0,-1,1420,1191,0,0
203,-167,0,0,0,0,0,0,0,0,0,-1,1427,1191,0,0
210,-167,0,0,0,0,0,0,0,0,0,-1,1434,1191,0,0
217,-167,0,0,0,0,0,0,0,0,0,-1,1441,1191,0,0
224,-167,0,0,0,0,0,0,0,0,0,-1,1448,1191,0,0
231,-167,0,0,0,0,0,0,0,0,0,-1,1455,1191,0,0
238,-167,0,0,0,0,0,0,0,0,0,-1,1462,1191,0,0
245,-167,0,0,0,0,0,0,0,0,0,-1,1469,1191,0,0
252,-167,0,0,0,0,0,0,0,0,0,-1,1476,1191,0,0
259,-167,0,0,0,0,0,0,0,0,0,-1,1483,1191,0,0
266,-167,0,0,0,0,0,0,0,0,0,-1,1490,1191,0,0
273,-167,0,0,0,0,0,0,0,0,0,-1,1497,1191,0,0
280,-167,0,0,0,0,0,0,0,0,0,-1,1504,1191,0,0
287,-167,0,0,0,0,0,0,0,0,0,-1,1511,1191,0,0
294,-167,0,0,0,0,0,0,0,0,0,-1,1518,1191,0,0
301,-167,0,0,0,0,0,0,0,0,0,-1,1525,1191,0,0
308,-167,0,0,0,0,0,0,0,0,0,-1,1532,1191,0,0
315,-167,0,0,0,0,0,0,0,0,0,-1,1539,1191,0,0
322,-167,0,0,0,0,0,0,0,0,0,-1,1546,1191,0,0
329,-167,0,0,0,0,0,0,0,0,0,-1,1553,1191,0,0
336,-167,0,0,0,0,0,0,0,0,0,-1,1560,1191,0,0
343,-167,0,0,0,0,0,0,0,0,0,-1,1567,1191,0,0
350,-167,0,0,0,0,0,0,0,0,0,-1,1574,1191,0,0
357,-167,0,0,0,0,0,0,0,0,0,-1,1581,1191,0,0
364,-167,0,0,0,0,0,0,0,0,0,-1,1588,1191,0,0
371,-167,0,0,0,0,0,0,0,0,0,-1,1595,1191,0,0
378,-167,0,0,0,0,0,0,0,0,0,-1,1602,1191,0,0
385,-167,0,0,0,0,0,0,0,0,0,-1,1609,1191,0,0
392,-167,0,0,0,0,0,0,0,0,0,-1,1616,1191,0,0
399,-167,0,0,0,0,0,0,0,0,0,-1,1623,1191,0,0
406,-167,0,0,0,0,0,0,0,0,0,-1,1630,1191,0,0
413,-167,0,0,0,0,0,0,0,0,0,-1,1637,1191,0,0
420,-167,0,0,0,0,0,0,0,0,0,-1,1644,1191,0,0
427,-167,0,0,0,0,0,0,0,0,0,-1,1651,1191,0,0
434,-167,0,0,0,0,0,0,0,0,0,-1,1658,1191,0,0
441,-167,0,0,0,0,0,0,0,0,0,-1,1665,1191,0,0
448,-167,0,0,0,0,0,0,0,0,0,-1,1672,1191,0,0
455,-167,0,0,0,0,0,0,0,0,0,-1,1679,1191,0,0
462,-167,0,0,0,0,0,0,0,0,0,-1,1686,1191,0,0
469,-167,0,0,0,0,0,0,0,0,0,-1,1693,1191,0,0
476,-167,0,0,0,0,0,0,0,0,0,-1,1700,1191,0,0
483,-167,0,0,0,0,0,0,0,0,0,-1,1707,1191,0,0
490,-167,0,0,0,0,0,0,0,0,0,-1,1714,1191,0,0
497,-167,0,0,0,0,0,0,0,0,0,-1,1721,1191,0,0
504,-167,0,0,0,0,0,0,0,0,0,-1,1728,1191,0,0
511,-167,0,0,0,0,0,0,0,0,0,-1,1735,1191,0,0
518,-167,0,0,0,0,0,0,0,0,0,-1,1742,1191,0,0
525,-167,0,0,0,0,0,0,0,0,0,-1,1749,1191,0,0
532,-167,0,0,0,0,0,0,0,0,0,-1,1756,1191,0,0
539,-167,0,0,0,0,0,0,0,0,0,-1,1763,1191,0,0
546,-167,0,0,0,0,0,0,0,0,0,-1,1770,1191,0,0
553,-167,0,0,0,0,0,0,0,0,0,-1,1777,1191,0,0
560,-167,0,0,0,0,0,0,0,0,0,-1,1784,1191,0,0
567,-167,0,0,0,0,0,0,0,0,0,-1,1791,1191,0,0
574,-167,0,0,0,0,0,0,0,0,0,-1,1798,1191,0,0
581,-167,0,0,0,0,0,0,0,0,0,-1,1805,1191,0,0
588,-167,0,0,0,0,0,0,0,0,0,-1,1812,1191,0,0
595,-167,0,0,0,0,0,0,0,0,0,-1,1819,1191,0,0
602,-167,0,0,0,0,0,0,0,0,0,-1,1826,1191,0,0
609,-167,0,0,0,0,0,0,0,0,0,-1,1833,1191,0,0
616,-167,0,0,0,0,0,0,0,0,0,-1,1840,1191,0,0
623,-167,0,0,0,0,0,0,0,0,0,-1,1847,1191,0,0
630,-167,0,0,0,0,0,0,0,0,0,-1,1854,1191,0,0
637,-167,60.1995,2.32202,0.00069967,0.000262109,0.000983703,0.00148863,-0.000526849,0.675977,0.00120699,0.0402659,1861,1191,60.1994,-2.32201
644,-167,60.2756,2.28369,0.000118244,0.000762515,0.00131565,0.00179489,-0.000914129,0.905461,0.00159137,0.0424864,1868,1191,60.2756,-2.28373
651,-167,60.095,2.46875,-0.000143457,0.00140031,0.0011772,0.00203612,-0.000779268,1.07558,0.00167859,0.0418076,1875,1191,60.095,-2.46877
658,-167,59.6447,2.63611,0,0,0,0,0,0,0,-1,1882,1191,59.6446,-2.63614
665,-167,60.1508,2.42798,0.000305269,0.0025119,0.000265171,0.00254331,0.00027385,1.45286,0.00161203,0.039701,1889,1191,60.1507,-2.42793
672,-167,60.1475,2.60742,0.000635328,0.00270628,-0.00014246,0.00271603,0.000625574,-1.50244,0.00164237,0.0295071,1896,1191,60.1474,-2.60746
679,-167,60.0927,2.54443,0.000844269,0.0024414,-0.000335789,0.00250912,0.000776543,-1.37177,0.00148328,0.0208883,1903,1191,60.0927,-2.54443
686,-167,60.0333,2.46533,0.000929994,0.00242206,-0.00031821,0.00248709,0.000864964,-1.36921,0.00145793,0.0267118,1910,1191,60.0333,-2.46529
693,-167,59.9371,2.38318,0,0,0,0,0,0,0,-1,1917,1191,59.9371,-2.38322
700,-167,28.0459,2.70508,0,0,0,0,0,0,0,-1,1924,1191,28.0459,-2.70513
707,-167,29.4708,7.10168,0,0,0,0,0,0,0,-1,1931,1191,29.4708,-7.10172
714,-167,35.9202,6.84668,0,0,0,0,0,0,0,-1,1938,1191,35.9202,-6.84664
721,-167,36.2072,6.38892,0,0,0,0,0,0,0,-1,1945,1191,36.2072,-6.38891
728,-167,50.8665,8.31396,0,0,0,0,0,0,0,-1,1952,1191,50.8665,-8.31396
735,-167,51.0132,7.82825,0.000757584,0.00138732,0.000496079,0.00166002,0.000484884,1.06817,0.000985644,0.0255756,1959,1191,51.0132,-7.82827
742,-167,50.9489,7.18188,0.000607674,0.00154245,0.00077685,0.00198167,0.000168449,1.05621,0.0012687,0.0159337,1966,1191,50.9488,-7.18189
749,-167,50.922,6.64941,0.000663438,0.00360127,-7.11872e-05,0.00360299,0.000661714,-1.54658,0.00221462,0.014269,1973,1191,50.922,-6.64936
756,-167,50.9225,6.15637,0.000827194,0.00629601,-0.00238211,0.0071881,-6.48864e-05,-1.21247,0.00481384,0.011498,1980,1191,50.9224,-6.15632
763,-167,50.8396,5.62695,0.00114795,0.0101143,-0.00579253,0.0129559,-0.00169365,-1.11473,0.0092536,0.013753,1987,1191,50.8396,-5.62695
770,-167,50.6096,5.29187,0,0,0,0,0,0,0,-1,1994,1191,50.6096,-5.29183
777,-167,51.1008,4.15759,0,0,0,0,0,0,0,-1,2001,1191,51.1008,-4.15756
784,-167,51.2427,3.64807,0,0,0,0,0,0,0,-1,2008,1191,51.2428,-3.64803
791,-167,51.6206,3.30981,0,0,0,0,0,0,0,-1,2015,1191,51.6206,-3.30983
798,-167,51.6868,2.93445,0,0,0,0,0,0,0,-1,2022,1191,51.6868,-2.93449
805,-167,51.4097,2.23499,0,0,0,0,0,0,0,-1,2029,1191,51.4098,-2.23497
812,-167,0,0,0,0,0,0,0,0,0,-1,2036,1191,0,0
-700,-174,0,0,0,0,0,0,0,0,0,-1,524,1198,0,0
-693,-174,0,0,0,0,0,0,0,0,0,-1,531,1198,0,0
-686,-174,-36.7636,-1.11877,-0.0469734,-0.0219582,0.0257341,-0.00585316,-0.0630784,1.0116,0.0402434,0.0452248,538,1198,-36.7636,1.11876
-679,-174,-37.1981,-1.27368,-0.0413862,-0.0181686,0.025542,-0.00172107,-0.0578337,0.998692,0.0379951,0.0457685,545,1198,-37.1981,1.27371
-672,-174,-37.4064,-1.18018,-0.0359908,-0.0144852,0.0231499,0.000287328,-0.0507633,1.00282,0.0339384,0.0465499,552,1198,-37.4064,1.1802
-665,-174,-37.5867,-1.09045,0,0,0,0,0,0,0,-1,559,1198,-37.5867,1.0905
-658,-174,-36.9077,0.208374,0,0,0,0,0,0,0,-1,566,1198,-36.9077,-0.208422
-651,-174,-35.1598,1.03442,0,0,0,0,0,0,0,-1,573,1198,-35.1598,-1.0344
-644,-174,-35.1513,1.74744,-0.0155563,-0.00271956,0.00881531,0.00176643,-0.0200423,1.10006,0.0139876,0.0463969,580,1198,-35.1513,-1.74748
-637,-174,-35.1613,2.53662,-0.0114177,-0.000884685,0.00547247,0.0014438,-0.0137462,1.16851,0.00968135,0.0264957,587,1198,-35.1613,-2.53662
-630,-174,-35.3101,3.11133,-0.00789525,0.000726119,0.00305056,0.00169633,-0.00886547,1.26287,0.0065494,0.013995,594,1198,-35.3101,-3.11131
-623,-174,-35.3511,3.66235,-0.00470809,0.001018,-8.29001e-05,0.0010192,-0.00470929,-1.55632,0.00352867,0.013939,601,1198,-35.3511,-3.66238
-616,-174,-35.3481,4.24841,-0.00309254,0.000768677,-0.00221994,0.00178007,-0.00410393,-1.1433,0.00348433,0.0193971,608,1198,-35.3481,-4.2484
-609,-174,-35.3948,4.82544,-0.00251057,-0.000265374,-0.0031693,0.00197427,-0.00475022,-0.955609,0.00399113,0.0210636,615,1198,-35.3948,-4.82547
-602,-174,-35.4325,5.34241,-0.00297328,-0.000489818,-0.00280095,0.00133231,-0.0047954,-0.994042,0.0037214,0.0190571,622,1198,-35.4325,-5.34241
-595,-174,-35.1925,5.78821,0,0,0,0,0,0,0,-1,629,1198,-35.1925,-5.78825
-588,-174,-35.8368,6.42261,0,0,0,0,0,0,0,-1,636,1198,-35.8368,-6.42266
-581,-174,-35.9078,7.10168,0,0,0,0,0,0,0,-1,643,1198,-35.9078,-7.10165
-574,-174,-31.7448,7.09595,0,0,0,0,0,0,0,-1,650,1198,-31.7448,-7.09599
-567,-174,-26.6597,3.04041,0,0,0,0,0,0,0,-1,657,1198,-26.6597,-3.04039
-560,-174,-42.6953,1.07178,0,0,0,0,0,0,0,-1,664,1198,-42.6953,-1.07181
-553,-174,-45.0521,0.456299,0,0,0,0,0,0,0,-1,671,1198,-45.0521,-0.456343
-546,-174,-45.1563,0.744995,-0.00182583,0.00313001,-0.00103108,0.00333597,-0.00203179,-1.37364,0.00312942,0.0308731,678,1198,-45.1563,-0.745021
-539,-174,-45.2602,0.953735,-0.000789988,0.00393819,-0.000729933,0.00404832,-0.00090011,-1.42106,0.00304361,0.03477,685,1198,-45.2602,-0.953734
-532,-174,-45.2527,0.785645,0.00122095,0.0047656,-0.000514085,0.00483865,0.0011479,-1.42964,0.00291935,0.0408393,692,1198,-45.2528,-0.785651
-525,-174,-45.1174,0.743774,0.00501521,0.00589911,-0.00100946,0.00655913,0.0043552,-0.991733,0.00385421,0.0419374,699,1198,-45.1174,-0.7438
-518,-174,-44.9861,0.760498,0.00888134,0.00750966,-0.0013329,0.0096945,0.00669651,-0.547789,0.00573129,0.0425928,706,1198,-44.9861,-0.760528
-511,-174,0,0,0,0,0,0,0,0,0,-1,713,1198,0,0
-504,-174,0,0,0,0,0,0,0,0,0,-1,720,1198,0,0
-497,-174,0,0,0,0,0,0,0,0,0,-1,727,1198,0,0
-490,-174,0,0,0,0,0,0,0,0,0,-1,734,1198,0,0
-483,-174,0,0,0,0,0,0,0,0,0,-1,741,1198,0,0
-476,-174,0,0,0,0,0,0,0,0,0,-1,748,1198,0,0
-469,-174,0,0,0,0,0,0,0,0,0,-1,755,1198,0,0
-462,-174,0,0,0,0,0,0,0,0,0,-1,762,1198,0,0
-455,-174,0,0,0,0,0,0,0,0,0,-1,769,1198,0,0
-448,-174,0,0,0,0,0,0,0,0,0,-1,776,1198,0,0
-441,-174,0,0,0,0,0,0,0,0,0,-1,783,1198,0,0
-434,-174,0,0,0,0,0,0,0,0,0,-1,790,1198,0,0
-427,-174,0,0,0,0,0,0,0,0,0,-1,797,1198,0,0
-420,-174,0,0,0,0,0,0,0,0,0,-1,804,1198,0,0
-413,-174,0,0,0,0,0,0,0,0,0,-1,811,1198,0,0
-406,-174,0,0,0,0,0,0,0,0,0,-1,818,1198,0,0
-399,-174,0,0,0,0,0,0,0,0,0,-1,825,1198,0,0
-392,-174,0,0,0,0,0,0,0,0,0,-1,832,1198,0,0
-385,-174,0,0,0,0,0,0,0,0,0,-1,839,1198,0,0
-378,-174,0,0,0,0,0,0,0,0,0,-1,846,1198,0,0
-371,-174,0,0,0,0,0,0,0,0,0,-1,853,1198,0,0
-364,-174,0,0,0,0,0,0,0,0,0,-1,860,1198,0,0
-357,-174,0,0,0,0,0,0,0,0,0,-1,867,1198,0,0
-350,-174,0,0,0,0,0,0,0,0,0,-1,874,1198,0,0
-343,-174,0,0,0,0,0,0,0,0,0,-1,881,1198,0,0
-336,-174,0,0,0,0,0,0,0,0,0,-1,888,1198,0,0
-329,-174,0,0,0,0,0,0,0,0,0,-1,895,1198,0,0
-322,-174,0,0,0,0,0,0,0,0,0,-1,902,1198,0,0
-315,-174,0,0,0,0,0,0,0,0,0,-1,909,1198,0,0
-308,-174,0,0,0,0,0,0,0,0,0,-1,916,1198,0,0
-301,-174,0,0,0,0,0,0,0,0,0,-1,923,1198,0,0
-294,-174,0,0,0,0,0,0,0,0,0,-1,930,1198,0,0
-287,-174,0,0,0,0,0,0,0,0,0,-1,937,1198,0,0
-280,-174,0,0,0,0,0,0,0,0,0,-1,944,1198,0,0
-273,-174,0,0,0,0,0,0,0,0,0,-1,951,1198,0,0
-266,-174,0,0,0,0,0,0,0,0,0,-1,958,1198,0,0
-259,-174,0,0,0,0,0,0,0,0,0,-1,965,1198,0,0
-252,-174,0,0,0,0,0,0,0,0,0,-1,972,1198,0,0
-245,-174,0,0,0,0,0,0,0,0,0,-1,979,1198,0,0
-238,-174,0,0,0,0,0,0,0,0,0,-1,986,1198,0,0
-231,-174,0,0,0,0,0,0,0,0,0,-1,993,1198,0,0
-224,-174,0,0,0,0,0,0,0,0,0,-1,1000,1198,0,0
-217,-174,0,0,0,0,0,0,0,0,0,-1,1007,1198,0,0
-210,-174,0,0,0,0,0,0,0,0,0,-1,1014,1198,0,0
-203,-174,0,0,0,0,0,0,0,0,0,-1,1021,1198,0,0
-196,-174,0,0,0,0,0,0,0,0,0,-1,1028,1198,0,0
-189,-174,0,0,0,0,0,0,0,0,0,-1,1035,1198,0,0
-182,-174,0,0,0,0,0,0,0,0,0,-1,1042,1198,0,0
-175,-174,0,0,0,0,0,0,0,0,0,-1,1049,1198,0,0
-168,-174,0,0,0,0,0,0,0,0,0,-1,1056,1198,0,0
-161,-174,0,0,0,0,0,0,0,0,0,-1,1063,1198,0,0
-154,-174,0,0,0,0,0,0,0,0,0,-1,1070,1198,0,0
-147,-174,0,0,0,0,0,0,0,0,0,-1,1077,1198,0,0
-140,-174,0,0,0,0,0,0,0,0,0,-1,1084,1198,0,0
-133,-174,0,0,0,0,0,0,0,0,0,-1,1091,1198,0,0
-126,-174,0,0,0,0,0,0,0,0,0,-1,1098,1198,0,0
-119,-174,0,0,0,0,0,0,0,0,0,-1,1105,1198,0,0
-112,-174,0,0,0,0,0,0,0,0,0,-1,1112,1198,0,0
-105,-174,0,0,0,0,0,0,0,0,0,-1,1119,1198,0,0
-98,-174,0,0,0,0,0,0,0,0,0,-1,1126,1198,0,0
-91,-174,0,0,0,0,0,0,0,0,0,-1,1133,1198,0,0
-84,-174,0,0,0,0,0,0,0,0,0,-1,1140,1198,0,0
-77,-174,0,0,0,0,0,0,0,0,0,-1,1147,1198,0,0
-70,-174,0,0,0,0,0,0,0,0,0,-1,1154,1198,0,0
-63,-174,0,0,0,0,0,0,0,0,0,-1,1161,1198,0,0
-56,-174,0,0,0,0,0,0,0,0,0,-1,1168,1198,0,0
-49,-174,0,0,0,0,0,0,0,0,0,-1,1175,1198,0,0
-42,-174,0,0,0,0,0,0,0,0,0,-1,1182,1198,0,0
-35,-174,0,0,0,0,0,0,0,0,0,-1,1189,1198,0,0
-28,-174,0,0,0,0,0,0,0,0,0,-1,1196,1198,0,0
-21,-174,0,0,0,0,0,0,0,0,0,-1,1203,1198,0,0
-14,-174,0,0,0,0,0,0,0,0,0,-1,1210,1198,0,0
-7,-174,0,0,0,0,0,0,0,0,0,-1,1217,1198,0,0
0,-174,0,0,0,0,0,0,0,0,0,-1,1224,1198,0,0
7,-174,0,0,0,0,0,0,0,0,0,-1,1231,1198,0,0
14,-174,0,0,0,0,0,0,0,0,0,-1,1238,1198,0,0
21,-174,0,0,0,0,0,0,0,0,0,-1,1245,1198,0,0
28,-174,0,0,0,0,0,0,0,0,0,-1,1252,1198,0,0
35,-174,0,0,0,0,0,0,0,0,0,-1,1259,1198,0,0
42,-174,0,0,0,0,0,0,0,0,0,-1,1266,1198,0,0
49,-174,0,0,0,0,0,0,0,0,0,-1,1273,1198,0,0
56,-174,0,0,0,0,0,0,0,0,0,-1,1280,1198,0,0
63,-174,0,0,0,0,0,0,0,0,0,-1,1287,1198,0,0
70,-174,0,0,0,0,0,0,0,0,0,-1,1294,1198,0,0
77,-174,0,0,0,0,0,0,0,0,0,-1,1301,1198,0,0
84,-174,0,0,0,0,0,0,0,0,0,-1,1308,1198,0,0
91,-174,0,0,0,0,0,0,0,0,0,-1,1315,1198,0,0
98,-174,0,0,0,0,0,0,0,0,0,-1,1322,1198,0,0
105,-174,0,0,0,0,0,0,0,0,0,-1,1329,1198,0,0
112,-174,0,0,0,0,0,0,0,0,0,-1,1336,1198,0,0
119,-174,0,0,0,0,0,0,0,0,0,-1,1343,1198,0,0
126,-174,0,0,0,0,0,0,0,0,0,-1,1350,1198,0,0
133,-174,0,0,0,0,0,0,0,0,0,-1,1357,1198,0,0
140,-174,0,0,0,0,0,0,0,0,0,-1,1364,1198,0,0
147,-174,0,0,0,0,0,0,0,0,0,-1,1371,1198,0,0
154,-174,0,0,0,0,0,0,0,0,0,-1,1378,1198,0,0
161,-174,0,0,0,0,0,0,0,0,0,-1,1385,1198,0,0
168,-174,0,0,0,0,0,0,0,0,0,-1,1392,1198,0,0
175,-174,0,0,0,0,0,0,0,0,0,-1,1399,1198,0,0
182,-174,0,0,0,0,0,0,0,0,0,-1,1406,1198,0,0
189,-174,0,0,0,0,0,0,0,0,0,-1,1413,1198,0,0
196,-174,0,0,0,0,0,0,0,0,0,-1,1420,1198,0,0
203,-174,0,0,0,0,0,0,0,0,0,-1,1427,1198,0,0
210,-174,0,0,0,0,0,0,0,0,0,-1,1434,1198,0,0
217,-174,0,0,0,0,0,0,0,0,0,-1,1441,1198,0,0
224,-174,0,0,0,0,0,0,0,0,0,-1,1448,1198,0,0
231,-174,0,0,0,0,0,0,0,0,0,-1,1455,1198,0,0
238,-174,0,0,0,0,0,0,0,0,0,-1,1462,1198,0,0
245,-174,0,0,0,0,0,0,0,0,0,-1,1469,1198,0,0
252,-174,0,0,0,0,0,0,0,0,0,-1,1476,1198,0,0
259,-174,0,0,0,0,0,0,0,0,0,-1,1483,1198,0,0
266,-174,0,0,0,0,0,0,0,0,0,-1,1490,1198,0,0
273,-174,0,0,0,0,0,0,0,0,0,-1,1497,1198,0,0
280,-174,0,0,0,0,0,0,0,0,0,-1,1504,1198,0,0
287,-174,0,0,0,0,0,0,0,0,0,-1,1511,1198,0,0
294,-174,0,0,0,0,0,0,0,0,0,-1,1518,1198,0,0
301,-174,0,0,0,0,0,0,0,0,0,-1,1525,1198,0,0
308,-174,0,0,0,0,0,0,0,0,0,-1,1532,1198,0,0
315,-174,0,0,0,0,0,0,0,0,0,-1,1539,1198,0,0
322,-174,0,0,0,0,0,0,0,0,0,-1,1546,1198,0,0
329,-174,0,0,0,0,0,0,0,0,0,-1,1553,1198,0,0
336,-174,0,0,0,0,0,0,0,0,0,-1,1560,1198,0,0
343,-174,0,0,0,0,0,0,0,0,0,-1,1567,1198,0,0
350,-174,0,0,0,0,0,0,0,0,0,-1,1574,1198,0,0
357,-174,0,0,0,0,0,0,0,0,0,-1,1581,1198,0,0
364,-174,0,0,0,0,0,0,0,0,0,-1,1588,1198,0,0
371,-174,0,0,0,0,0,0,0,0,0,-1,1595,1198,0,0
378,-174,0,0,0,0,0,0,0,0,0,-1,1602,1198,0,0
385,-174,0,0,0,0,0,0,0,0,0,-1,1609,1198,0,0
392,-174,0,0,0,0,0,0,0,0,0,-1,1616,1198,0,0
399,-174,0,0,0,0,0,0,0,0,0,-1,1623,1198,0,0
406,-174,0,0,0,0,0,0,0,0,0,-1,1630,1198,0,0
413,-174,0,0,0,0,0,0,0,0,0,-1,1637,1198,0,0
420,-174,0,0,0,0,0,0,0,0,0,-1,1644,1198,0,0
427,-174,0,0,0,0,0,0,0,0,0,-1,1651,1198,0,0
434,-174,0,0,0,0,0,0,0,0,0,-1,1658,1198,0,0
441,-174,0,0,0,0,0,0,0,0,0,-1,1665,1198,0,0
448,-174,0,0,0,0,0,0,0,0,0,-1,1672,1198,0,0
455,-174,0,0,0,0,0,0,0,0,0,-1,1679,1198,0,0
462,-174,0,0,0,0,0,0,0,0,0,-1,1686,1198,0,0
469,-174,0,0,0,0,0,0,0,0,0,-1,1693,1198,0,0
476,-174,0,0,0,0,0,0,0,0,0,-1,1700,1198,0,0
483,-174,0,0,0,0,0,0,0,0,0,-1,1707,1198,0,0
490,-174,0,0,0,0,0,0,0,0,0,-1,1714,1198,0,0
497,-174,0,0,0,0,0,0,0,0,0,-1,1721,1198,0,0
504,-174,0,0,0,0,0,0,0,0,0,-1,1728,1198,0,0
511,-174,0,0,0,0,0,0,0,0,0,-1,1735,1198,0,0
518,-174,0,0,0,0,0,0,0,0,0,-1,1742,1198,0,0
525,-174,0,0,0,0,0,0,0,0,0,-1,1749,1198,0,0
532,-174,0,0,0,0,0,0,0,0,0,-1,1756,1198,0,0
539,-174,0,0,0,0,0,0,0,0,0,-1,1763,1198,0,0
546,-174,0,0,0,0,0,0,0,0,0,-1,1770,1198,0,0
553,-174,0,0,0,0,0,0,0,0,0,-1,1777,1198,0,0
560,-174,0,0,0,0,0,0,0,0,0,-1,1784,1198,0,0
567,-174,0,0,0,0,0,0,0,0,0,-1,1791,1198,0,0
574,-174,0,0,0,0,0,0,0,0,0,-1,1798,1198,0,0
581,-174,0,0,0,0,0,0,0,0,0,-1,1805,1198,0,0
588,-174,0,0,0,0,0,0,0,0,0,-1,1812,1198,0,0
595,-174,0,0,0,0,0,0,0,0,0,-1,1819,1198,0,0
602,-174,0,0,0,0,0,0,0,0,0,-1,1826,1198,0,0
609,-174,0,0,0,0,0,0,0,0,0,-1,1833,1198,0,0
616,-174,0,0,0,0,0,0,0,0,0,-1,1840,1198,0,0
623,-174,0,0,0,0,0,0,0,0,0,-1,1847,1198,0,0
630,-174,0,0,0,0,0,0,0,0,0,-1,1854,1198,0,0
637,-174,60.108,2.51184,0.000688754,9.93261e-05,0.000442288,0.000925524,-0.000137444,0.49151,0.000667563,0.0402951,1861,1198,60.108,-2.51183
644,-174,60.1687,2.44983,0.000199672,0.000696646,0.000669567,0.00116235,-0.000266029,0.963079,0.000877127,0.0412032,1868,1198,60.1687,-2.44982
651,-174,60.2827,2.49695,2.87492e-05,0.00142035,0.000478366,0.00156892,-0.000119828,1.26965,0.00108809,0.0427265,1875,1198,60.2828,-2.497
658,-174,60.1593,2.46765,0.00020474,0.00205641,9.94589e-05,0.00206174,0.000199413,1.51729,0.00131308,0.042021,1882,1198,60.1593,-2.46768
665,-174,60.1516,2.56238,0.000552912,0.00246054,-0.000269351,0.00249784,0.00051561,-1.43318,0.00152274,0.0367234,1889,1198,60.1517,-2.56234
672,-174,60.1075,2.5946,0.000881176,0.00258553,-0.000499282,0.00272103,0.000745685,-1.30581,0.00162358,0.0267436,1896,1198,60.1076,-2.59463
679,-174,60.0717,2.53101,0.00108537,0.00236774,-0.000548558,0.00257038,0.000882736,-1.21695,0.00150807,0.0218154,1903,1198,60.0717,-2.53106
686,-174,59.9728,2.39258,0,0,0,0,0,0,0,-1,1910,1198,59.9727,-2.39261
693,-174,51.1324,2.57349,0,0,0,0,0,0,0,-1,1917,1198,51.1325,-2.57343
700,-174,25.4004,6.11792,0,0,0,0,0,0,0,-1,1924,1198,25.4004,-6.11797
707,-174,34.7908,7.34473,0,0,0,0,0,0,0,-1,1931,1198,34.7908,-7.34475
714,-174,40.1135,7.79871,0,0,0,0,0,0,0,-1,1938,1198,40.1135,-7.79875
721,-174,40.8693,7.59863,0,0,0,0,0,0,0,-1,1945,1198,40.8693,-7.59859
728,-174,50.2709,8.23938,0,0,0,0,0,0,0,-1,1952,1198,50.2709,-8.23941
735,-174,50.389,7.74841,0.0010186,0.00143304,0.000473136,0.00174234,0.000709293,0.9918,0.00101171,0.0163254,1959,1198,50.389,-7.7484
742,-174,50.4213,7.19202,0.000954041,0.00166276,0.000711301,0.00210308,0.000513717,1.01649,0.00126605,0.0200519,1966,1198,50.4213,-7.19204
749,-174,50.4169,6.66919,0.00118896,0.00383343,-0.000183527,0.0038461,0.00117629,-1.50184,0.00227567,0.0174485,1973,1198,50.4169,-6.6692
756,-174,50.386,6.15283,0.00141863,0.00623587,-0.00216058,0.00706292,0.000591585,-1.20521,0.00452433,0.0111715,1980,1198,50.386,-6.1528
763,-174,50.332,5.63892,0.00178289,0.00973148,-0.00509607,0.0122198,-0.000705393,-1.11657,0.00839153,0.0162085,1987,1198,50.332,-5.63888
770,-174,50.4514,5.04041,0.00207884,0.0139992,-0.00931611,0.0190986,-0.00302053,-1.06997,0.0138495,0.0397367,1994,1198,50.4515,-5.04037
777,-174,50.8264,3.98901,0,0,0,0,0,0,0,-1,2001,1198,50.8265,-3.98897
784,-174,46.7341,3.90161,0,0,0,0,0,0,0,-1,2008,1198,46.734,-3.90159
791,-174,51.5215,2.81079,0,0,0,0,0,0,0,-1,2015,1198,51.5216,-2.81073
798,-174,52.5671,1.77576,0,0,0,0,0,0,0,-1,2022,1198,52.5672,-1.77572
805,-174,51.5759,1.89404,0,0,0,0,0,0,0,-1,2029,1198,51.576,-1.89409
812,-174,0,0,0,0,0,0,0,0,0,-1,2036,1198,0,0
-700,-181,0,0,0,0,0,0,0,0,0,-1,524,1205,0,0
-693,-181,0,0,0,0,0,0,0,0,0,-1,531,1205,0,0
-686,-181,-36.5191,-0.866211,-0.0591603,-0.0293713,0.0210525,-0.0184772,-0.0700544,1.09327,0.0419238,0.0475996,538,1205,-36.5191,0.866242
-679,-181,-36.9184,-1.21667,-0.0509751,-0.0235344,0.0210999,-0.0120862,-0.0624233,1.07368,0.038229,0.047218,545,1205,-36.9184,1.21669
-672,-181,-37.4685,-0.945068,-0.0438698,-0.0183749,0.0189791,-0.0082597,-0.053985,1.08112,0.0335771,0.0464541,552,1205,-37.4685,0.945122
-665,-181,-37.6966,-1.28857,-0.0371257,-0.0137857,0.0160274,-0.00562977,-0.0452816,1.10008,0.0284971,0.0437187,559,1205,-37.6966,1.28854
-658,-181,-37.9484,-1.78723,-0.0308024,-0.00976267,0.0127556,-0.00374857,-0.0368165,1.13022,0.0233951,0.0450151,566,1205,-37.9484,1.78724
-651,-181,-38.2648,-2.13403,0,0,0,0,0,0,0,-1,573,1205,-38.2648,2.13407
-644,-181,-34.5065,1.60608,0,0,0,0,0,0,0,-1,580,1205,-34.5065,-1.6061
-637,-181,-34.5355,2.53955,-0.0144938,-0.00119439,0.00368742,-0.000240437,-0.0154478,1.31764,0.0102193,0.0275053,587,1205,-34.5355,-2.53957
-630,-181,-34.7155,3.11121,-0.0102556,0.00062747,0.00186602,0.00093853,-0.0105667,1.40562,0.00737721,0.014177,594,1205,-34.7155,-3.11124
-623,-181,-34.7747,3.67944,-0.00616326,0.00109383,-0.000664095,0.0011541,-0.00622354,-1.48029,0.00458243,0.01461,601,1205,-34.7746,-3.6795
-616,-181,-34.7808,4.27148,-0.00382041,0.000792146,-0.00223007,0.00169401,-0.00472227,-1.1865,0.00383951,0.014668,608,1205,-34.7808,-4.27143
-609,-181,-34.7867,4.8667,-0.00226574,-0.000218013,-0.00297737,0.00190662,-0.00439038,-0.951005,0.00372865,0.0143847,615,1205,-34.7867,-4.86666
-602,-181,-34.785,5.43884,-0.00227344,-0.00081304,-0.00290317,0.00145035,-0.00453683,-0.908602,0.00360655,0.0177253,622,1205,-34.7849,-5.43883
-595,-181,-34.6672,5.98657,0,0,0,0,0,0,0,-1,629,1205,-34.6672,-5.98658
-588,-181,-35.3201,6.52698,0,0,0,0,0,0,0,-1,636,1205,-35.3201,-6.52699
-581,-181,-35.3613,7.31482,0,0,0,0,0,0,0,-1,643,1205,-35.3612,-7.31487
-574,-181,-31.4653,6.98145,0,0,0,0,0,0,0,-1,650,1205,-31.4653,-6.98148
-567,-181,-25.8839,3.34485,0,0,0,0,0,0,0,-1,657,1205,-25.8839,-3.3449
-560,-181,-31.7396,1.63306,0,0,0,0,0,0,0,-1,664,1205,-31.7396,-1.63303
-553,-181,-44.9937,0.360352,0,0,0,0,0,0,0,-1,671,1205,-44.9936,-0.360379
-546,-181,-45.1202,0.657227,-0.00210772,0.0029156,-0.00133464,0.00324819,-0.0024403,-1.32658,0.00329527,0.0352075,678,1205,-45.1202,-0.65723
-539,-181,-45.2316,0.905396,-0.00148856,0.00367533,-0.000963495,0.00384924,-0.00166248,-1.39222,0.00326461,0.0373672,685,1205,-45.2317,-0.905423
-532,-181,-45.2216,0.841797,-0.000127265,0.00452557,-0.000468145,0.00457221,-0.0001739,-1.47151,0.00310773,0.0409311,692,1205,-45.2216,-0.84175
-525,-181,-45.1805,0.718384,0.00329593,0.00569798,-0.000472402,0.00578755,0.00320637,-1.38342,0.00334793,0.0410397,699,1205,-45.1805,-0.71835
-518,-181,-45.1257,0.681641,0.00759622,0.00740079,-0.000644476,0.00815034,0.00684666,-0.710163,0.00505535,0.0412856,706,1205,-45.1257,-0.681599
-511,-181,0,0,0,0,0,0,0,0,0,-1,713,1205,0,0
-504,-181,0,0,0,0,0,0,0,0,0,-1,720,1205,0,0
-497,-181,0,0,0,0,0,0,0,0,0,-1,727,1205,0,0
-490,-181,0,0,0,0,0,0,0,0,0,-1,734,1205,0,0
-483,-181,0,0,0,0,0,0,0,0,0,-1,741,1205,0,0
-476,-181,0,0,0,0,0,0,0,0,0,-1,748,1205,0,0
-469,-181,0,0,0,0,0,0,0,0,0,-1,755,1205,0,0
-462,-181,0,0,0,0,0,0,0,0,0,-1,762,1205,0,0
-455,-181,0,0,0,0,0,0,0,0,0,-1,769,1205,0,0
-448,-181,0,0,0,0,0,0,0,0,0,-1,776,1205,0,0
-441,-181,0,0,0,0,0,0,0,0,0,-1,783,1205,0,0
-434,-181,0,0,0,0,0,0,0,0,0,-1,790,1205,0,0
-427,-181,0,0,0,0,0,0,0,0,0,-1,797,1205,0,0
-420,-181,0,0,0,0,0,0,0,0,0,-1,804,1205,0,0
-413,-181,0,0,0,0,0,0,0,0,0,-1,811,1205,0,0
-406,-181,0,0,0,0,0,0,0,0,0,-1,818,1205,0,0
-399,-181,0,0,0,0,0,0,0,0,0,-1,825,1205,0,0
-392,-181,0,0,0,0,0,0,0,0,0,-1,832,1205,0,0
-385,-181,0,0,0,0,0,0,0,0,0,-1,839,1205,0,0
-378,-181,0,0,0,0,0,0,0,0,0,-1,846,1205,0,0
-371,-181,0,0,0,0,0,0,0,0,0,-1,853,1205,0,0
-364,-181,0,0,0,0,0,0,0,0,0,-1,860,1205,0,0
-357,-181,0,0,0,0,0,0,0,0,0,-1,867,1205,0,0
-350,-181,0,0,0,0,0,0,0,0,0,-1,874,1205,0,0
-343,-181,0,0,0,0,0,0,0,0,0,-1,881,1205,0,0
-336,-181,0,0,0,0,0,0,0,0,0,-1,888,1205,0,0
-329,-181,0,0,0,0,0,0,0,0,0,-1,895,1205,0,0
-322,-181,0,0,0,0,0,0,0,0,0,-1,902,1205,0,0
-315,-181,0,0,0,0,0,0,0,0,0,-1,909,1205,0,0
-308,-181,0,0,0,0,0,0,0,0,0,-1,916,1205,0,0
-301,-181,0,0,0,0,0,0,0,0,0,-1,923,1205,0,0
-294,-181,0,0,0,0,0,0,0,0,0,-1,930,1205,0,0
-287,-181,0,0,0,0,0,0,0,0,0,-1,937,1205,0,0
-280,-181,0,0,0,0,0,0,0,0,0,-1,944,1205,0,0
-273,-181,0,0,0,0,0,0,0,0,0,-1,951,1205,0,0
-266,-181,0,0,0,0,0,0,0,0,0,-1,958,1205,0,0
-259,-181,0,0,0,0,0,0,0,0,0,-1,965,1205,0,0
-252,-181,0,0,0,0,0,0,0,0,0,-1,972,1205,0,0
-245,-181,0,0,0,0,0,0,0,0,0,-1,979,1205,0,0
-238,-181,0,0,0,0,0,0,0,0,0,-1,986,1205,0,0
-231,-181,0,0,0,0,0,0,0,0,0,-1,993,1205,0,0
-224,-181,0,0,0,0,0,0,0,0,0,-1,1000,1205,0,0
-217,-181,0,0,0,0,0,0,0,0,0,-1,1007,1205,0,0
-210,-181,0,0,0,0,0,0,0,0,0,-1,1014,1205,0,0
-203,-181,0,0,0,0,0,0,0,0,0,-1,1021,1205,0,0
-196,-181,0,0,0,0,0,0,0,0,0,-1,1028,1205,0,0
-189,-181,0,0,0,0,0,0,0,0,0,-1,1035,1205,0,0
-182,-181,0,0,0,0,0,0,0,0,0,-1,1042,1205,0,0
-175,-181,0,0,0,0,0,0,0,0,0,-1,1049,1205,0,0
-168,-181,0,0,0,0,0,0,0,0,0,-1,1056,1205,0,0
-161,-181,0,0,0,0,0,0,0,0,0,-1,1063,1205,0,0
-154,-181,0,0,0,0,0,0,0,0,0,-1,1070,1205,0,0
-147,-181,0,0,0,0,0,0,0,0,0,-1,1077,1205,0,0
-140,-181,0,0,0,0,0,0,0,0,0,-1,1084,1205,0,0
-133,-181,0,0,0,0,0,0,0,0,0,-1,1091,1205,0,0
-126,-181,0,0,0,0,0,0,0,0,0,-1,1098,1205,0,0
-119,-181,0,0,0,0,0,0,0,0,0,-1,1105,1205,0,0
-112,-181,0,0,0,0,0,0,0,0,0,-1,1112,1205,0,0
-105,-181,0,0,0,0,0,0,0,0,0,-1,1119,1205,0,0
-98,-181,0,0,0,0,0,0,0,0,0,-1,1126,1205,0,0
-91,-181,0,0,0,0,0,0,0,0,0,-1,1133,1205,0,0
-84,-181,0,0,0,0,0,0,0,0,0,-1,1140,1205,0,0
-77,-181,0,0,0,0,0,0,0,0,0,-1,1147,1205,0,0
-70,-181,0,0,0,0,0,0,0,0,0,-1,1154,1205,0,0
-63,-181,0,0,0,0,0,0,0,0,0,-1,1161,1205,0,0
-56,-181,0,0,0,0,0,0,0,0,0,-1,1168,1205,0,0
-49,-181,0,0,0,0,0,0,0,0,0,-1,1175,1205,0,0
-42,-181,0,0,0,0,0,0,0,0,0,-1,1182,1205,0,0
-35,-181,0,0,0,0,0,0,0,0,0,-1,1189,1205,0,0
-28,-181,0,0,0,0,0,0,0,0,0,-1,1196,1205,0,0
-21,-181,0,0,0,0,0,0,0,0,0,-1,1203,1205,0,0
-14,-181,0,0,0,0,0,0,0,0,0,-1,1210,1205,0,0
-7,-181,0,0,0,0,0,0,0,0,0,-1,1217,1205,0,0
0,-181,0,0,0,0,0,0,0,0,0,-1,1224,1205,0,0
7,-181,0,0,0,0,0,0,0,0,0,-1,1231,1205,0,0
14,-181,0,0,0,0,0,0,0,0,0,-1,1238,1205,0,0
21,-181,0,0,0,0,0,0,0,0,0,-1,1245,1205,0,0
28,-181,0,0,0,0,0,0,0,0,0,-1,1252,1205,0,0
35,-181,0,0,0,0,0,0,0,0,0,-1,1259,1205,0,0
42,-181,0,0,0,0,0,0,0,0,0,-1,1266,1205,0,0
49,-181,0,0,0,0,0,0,0,0,0,-1,1273,1205,0,0
56,-181,0,0,0,0,0,0,0,0,0,-1,1280,1205,0,0
63,-181,0,0,0,0,0,0,0,0,0,-1,1287,1205,0,0
70,-181,0,0,0,0,0,0,0,0,0,-1,1294,1205,0,0
77,-181,0,0,0,0,0,0,0,0,0,-1,1301,1205,0,0
84,-181,0,0,0,0,0,0,0,0,0,-1,1308,1205,0,0
91,-181,0,0,0,0,0,0,0,0,0,-1,1315,1205,0,0
98,-181,0,0,0,0,0,0,0,0,0,-1,1322,1205,0,0
105,-181,0,0,0,0,0,0,0,0,0,-1,1329,1205,0,0
112,-181,0,0,0,0,0,0,0,0,0,-1,1336,1205,0,0
119,-181,0,0,0,0,0,0,0,0,0,-1,1343,1205,0,0
126,-181,0,0,0,0,0,0,0,0,0,-1,1350,1205,0,0
133,-181,0,0,0,0,0,0,0,0,0,-1,1357,1205,0,0
140,-181,0,0,0,0,0,0,0,0,0,-1,1364,1205,0,0
147,-181,0,0,0,0,0,0,0,0,0,-1,1371,1205,0,0
154,-181,0,0,0,0,0,0,0,0,0,-1,1378,1205,0,0
161,-181,0,0,0,0,0,0,0,0,0,-1,1385,1205,0,0
168,-181,0,0,0,0,0,0,0,0,0,-1,1392,1205,0,0
175,-181,0,0,0,0,0,0,0,0,0,-1,1399,1205,0,0
182,-181,0,0,0,0,0,0,0,0,0,-1,1406,1205,0,0
189,-181,0,0,0,0,0,0,0,0,0,-1,1413,1205,0,0
196,-181,0,0,0,0,0,0,0,0,0,-1,1420,1205,0,0
203,-181,0,0,0,0,0,0,0,0,0,-1,1427,1205,0,0
210,-181,0,0,0,0,0,0,0,0,0,-1,1434,1205,0,0
217,-181,0,0,0,0,0,0,0,0,0,-1,1441,1205,0,0
224,-181,0,0,0,0,0,0,0,0,0,-1,1448,1205,0,0
231,-181,0,0,0,0,0,0,0,0,0,-1,1455,1205,0,0
238,-181,0,0,0,0,0,0,0,0,0,-1,1462,1205,0,0
245,-181,0,0,0,0,0,0,0,0,0,-1,1469,1205,0,0
252,-181,0,0,0,0,0,0,0,0,0,-1,1476,1205,0,0
259,-181,0,0,0,0,0,0,0,0,0,-1,1483,1205,0,0
266,-181,0,0,0,0,0,0,0,0,0,-1,1490,1205,0,0
273,-181,0,0,0,0,0,0,0,0,0,-1,1497,1205,0,0
280,-181,0,0,0,0,0,0,0,0,0,-1,1504,1205,0,0
287,-181,0,0,0,0,0,0,0,0,0,-1,1511,1205,0,0
294,-181,0,0,0,0,0,0,0,0,0,-1,1518,1205,0,0
301,-181,0,0,0,0,0,0,0,0,0,-1,1525,1205,0,0
308,-181,0,0,0,0,0,0,0,0,0,-1,1532,1205,0,0
315,-181,0,0,0,0,0,0,0,0,0,-1,1539,1205,0,0
322,-181,0,0,0,0,0,0,0,0,0,-1,1546,1205,0,0
329,-181,0,0,0,0,0,0,0,0,0,-1,1553,1205,0,0
336,-181,0,0,0,0,0,0,0,0,0,-1,1560,1205,0,0
343,-181,0,0,0,0,0,0,0,0,0,-1,1567,1205,0,0
350,-181,0,0,0,0,0,0,0,0,0,-1,1574,1205,0,0
357,-181,0,0,0,0,0,0,0,0,0,-1,1581,1205,0,0
364,-181,0,0,0,0,0,0,0,0,0,-1,1588,1205,0,0
371,-181,0,0,0,0,0,0,0,0,0,-1,1595,1205,0,0
378,-181,0,0,0,0,0,0,0,0,0,-1,1602,1205,0,0
385,-181,0,0,0,0,0,0,0,0,0,-1,1609,1205,0,0
392,-181,0,0,0,0,0,0,0,0,0,-1,1616,1205,0,0
399,-181,0,0,0,0,0,0,0,0,0,-1,1623,1205,0,0
406,-181,0,0,0,0,0,0,0,0,0,-1,1630,1205,0,0
413,-181,0,0,0,0,0,0,0,0,0,-1,1637,1205,0,0
420,-181,0,0,0,0,0,0,0,0,0,-1,1644,1205,0,0
427,-181,0,0,0,0,0,0,0,0,0,-1,1651,1205,0,0
434,-181,0,0,0,0,0,0,0,0,0,-1,1658,1205,0,0
441,-181,0,0,0,0,0,0,0,0,0,-1,1665,1205,0,0
448,-181,0,0,0,0,0,0,0,0,0,-1,1672,1205,0,0
455,-181,0,0,0,0,0,0,0,0,0,-1,1679,1205,0,0
462,-181,0,0,0,0,0,0,0,0,0,-1,1686,1205,0,0
469,-181,0,0,0,0,0,0,0,0,0,-1,1693,1205,0,0
476,-181,0,0,0,0,0,0,0,0,0,-1,1700,1205,0,0
483,-181,0,0,0,0,0,0,0,0,0,-1,1707,1205,0,0
490,-181,0,0,0,0,0,0,0,0,0,-1,1714,1205,0,0
497,-181,0,0,0,0,0,0,0,0,0,-1,1721,1205,0,0
504,-181,0,0,0,0,0,0,0,0,0,-1,1728,1205,0,0
511,-181,0,0,0,0,0,0,0,0,0,-1,1735,1205,0,0
518,-181,0,0,0,0,0,0,0,0,0,-1,1742,1205,0,0
525,-181,0,0,0,0,0,0,0,0,0,-1,1749,1205,0,0
532,-181,0,0,0,0,0,0,0,0,0,-1,1756,1205,0,0
539,-181,0,0,0,0,0,0,0,0,0,-1,1763,1205,0,0
546,-181,0,0,0,0,0,0,0,0,0,-1,1770,1205,0,0
553,-181,0,0,0,0,0,0,0,0,0,-1,1777,1205,0,0
560,-181,0,0,0,0,0,0,0,0,0,-1,1784,1205,0,0
567,-181,0,0,0,0,0,0,0,0,0,-1,1791,1205,0,0
574,-181,0,0,0,0,0,0,0,0,0,-1,1798,1205,0,0
581,-181,0,0,0,0,0,0,0,0,0,-1,1805,1205,0,0
588,-181,0,0,0,0,0,0,0,0,0,-1,1812,1205,0,0
595,-181,0,0,0,0,0,0,0,0,0,-1,1819,1205,0,0
602,-181,0,0,0,0,0,0,0,0,0,-1,1826,1205,0,0
609,-181,0,0,0,0,0,0,0,0,0,-1,1833,1205,0,0
616,-181,0,0,0,0,0,0,0,0,0,-1,1840,1205,0,0
623,-181,0,0,0,0,0,0,0,0,0,-1,1847,1205,0,0
630,-181,60.0676,2.88489,0.00177852,-0.000614768,-0.000917972,0.00209007,-0.000926311,-0.327184,0.00178419,0.0364493,1854,1205,60.0676,-2.88494
637,-181,60.1263,2.5752,0.00105192,-6.00632e-05,-0.000300378,0.00112788,-0.000136016,-0.247665,0.000801114,0.037077,1861,1205,60.1263,-2.57523
644,-181,60.1025,2.48743,0.000581189,0.00062641,-0.000111342,0.000717414,0.000490185,-0.885572,0.000423372,0.0393568,1868,1205,60.1025,-2.48747
651,-181,60.1895,2.55151,0.000394961,0.00140998,-0.000285544,0.0014848,0.000320146,-1.31455,0.000902284,0.0394788,1875,1205,60.1894,-2.55153
658,-181,60.1388,2.51318,0.00054604,0.00196145,-0.000567735,0.00216104,0.000346459,-1.23275,0.00134022,0.0357492,1882,1205,60.1387,-2.51316
665,-181,60.0851,2.5498,0.000792732,0.00220422,-0.000756321,0.00253293,0.000464021,-1.16081,0.00155716,0.0313858,1889,1205,60.0851,-2.54984
672,-181,60.0648,2.59033,0.00106358,0.00221601,-0.000794941,0.00262161,0.000657983,-1.099,0.00157491,0.0224378,1896,1205,60.0648,-2.59029
679,-181,60.0699,2.52429,0.00123286,0.00200133,-0.000716129,0.00242979,0.000804398,-1.03162,0.00142928,0.027319,1903,1205,60.07,-2.52427
686,-181,60.0955,2.43152,0,0,0,0,0,0,0,-1,1910,1205,60.0955,-2.43154
693,-181,36.1301,2.91016,0,0,0,0,0,0,0,-1,1917,1205,36.1302,-2.9102
700,-181,29.5845,6.58398,0,0,0,0,0,0,0,-1,1924,1205,29.5844,-6.58395
707,-181,50.4115,9.82056,0,0,0,0,0,0,0,-1,1931,1205,50.4115,-9.82061
714,-181,50.6208,9.50342,0,0,0,0,0,0,0,-1,1938,1205,50.6209,-9.50345
721,-181,46.834,8.7926,0,0,0,0,0,0,0,-1,1945,1205,46.834,-8.79256
728,-181,49.8956,8.23315,0,0,0,0,0,0,0,-1,1952,1205,49.8956,-8.2332
735,-181,49.8929,7.72473,0.00133004,0.00130592,0.000470499,0.00178864,0.000847329,0.772584,0.00103314,0.0132785,1959,1205,49.8929,-7.72478
742,-181,49.8654,7.22095,0.00130277,0.00161428,0.000694283,0.00217006,0.000746983,0.895742,0.00127299,0.0175309,1966,1205,49.8654,-7.22097
749,-181,49.8671,6.66443,0.00158323,0.00377304,-0.000122562,0.00377987,0.00157639,-1.51506,0.0021923,0.0159315,1973,1205,49.8671,-6.66442
756,-181,49.8409,6.12158,0.00180008,0.00593662,-0.00172147,0.0065593,0.0011774,-1.22373,0.00403803,0.0122105,1980,1205,49.841,-6.1216
763,-181,49.8439,5.60706,0.00218307,0.00913126,-0.00416018,0.0110772,0.000237166,-1.13328,0.007307,0.0161346,1987,1205,49.8439,-5.60708
770,-181,50.0757,4.97803,0.00242605,0.0131041,-0.00781688,0.0172313,-0.00170111,-1.08502,0.0120945,0.0459754,1994,1205,50.0757,-4.97804
777,-181,50.4319,4.19006,0,0,0,0,0,0,0,-1,2001,1205,50.4319,-4.19012
784,-181,49.4673,-0.801392,0,0,0,0,0,0,0,-1,2008,1205,49.4674,0.801388
791,-181,51.4558,0.762085,0,0,0,0,0,0,0,-1,2015,1205,51.4558,-0.762099
798,-181,45.8289,4.4198,0,0,0,0,0,0,0,-1,2022,1205,45.8288,-4.41985
805,-181,0,0,0,0,0,0,0,0,0,-1,2029,1205,0,0
812,-181,0,0,0,0,0,0,0,0,0,-1,2036,1205,0,0
-700,-188,0,0,0,0,0,0,0,0,0,-1,524,1212,0,0
-693,-188,0,0,0,0,0,0,0,0,0,-1,531,1212,0,0
-686,-188,0,0,0,0,0,0,0,0,0,-1,538,1212,0,0
-679,-188,-36.5822,-1.40405,0,0,0,0,0,0,0,-1,545,1212,-36.5822,1.40411
-672,-188,-37.6707,-0.718018,0,0,0,0,0,0,0,-1,552,1212,-37.6706,0.718002
-665,-188,-38.6347,-0.669922,-0.0393557,-0.0159906,0.00919812,-0.0128041,-0.0425422,1.23731,0.025202,0.0460789,559,1212,-38.6347,0.66989
-658,-188,-39.1238,-1.20703,-0.0324584,-0.0111924,0.0065635,-0.00932982,-0.034321,1.29428,0.0204914,0.0450496,566,1212,-39.1239,1.20708
-651,-188,-34.0131,1.53491,0,0,0,0,0,0,0,-1,573,1212,-34.0131,-1.53495
-644,-188,-34.0549,2.06946,-0.0204353,-0.00371952,0.00187363,-0.00351208,-0.0206427,1.46053,0.0127534,0.04605,580,1212,-34.0548,-2.06952
-637,-188,-34.0981,2.56982,-0.0153441,-0.00121996,0.000156101,-0.00121823,-0.0153459,1.55975,0.00984964,0.0236816,587,1212,-34.0981,-2.56985
-630,-188,-34.1482,3.13123,-0.0109504,0.000754409,-0.000713625,0.000797757,-0.0109937,-1.51013,0.00760901,0.0108969,594,1212,-34.1482,-3.13128
-623,-188,-34.1812,3.7196,-0.0066002,0.00143742,-0.00218645,0.00199369,-0.00715647,-1.32166,0.00555609,0.0109689,601,1212,-34.1812,-3.71963
-616,-188,-34.1806,4.29712,-0.00416324,0.00108603,-0.00272211,0.00224275,-0.00531995,-1.16898,0.00448519,0.0109278,608,1212,-34.1806,-4.29716
-609,-188,-34.1861,4.9021,-0.00219293,8.88608e-05,-0.00274604,0.00192158,-0.00402565,-0.982283,0.00350453,0.0137145,615,1212,-34.1861,-4.90207
-602,-188,-34.2026,5.52856,-0.00165411,-0.000837135,-0.0026141,0.0014002,-0.00389145,-0.862903,0.00316598,0.019289,622,1212,-34.2026,-5.52861
-595,-188,-34.327,6.0033,-0.00245808,-0.000559097,-0.00237071,0.00104519,-0.00406237,-0.975871,0.00311564,0.0331395,629,1212,-34.327,-6.00331
-588,-188,-34.5712,6.60217,-0.00330155,0.000522529,-0.0023429,0.00163457,-0.00441359,-1.12764,0.00361269,0.0276633,636,1212,-34.5712,-6.60212
-581,-188,-34.5407,7.14246,-0.00305247,0.000692339,-0.00231253,0.00179545,-0.00415558,-1.12571,0.00352474,0.0284333,643,1212,-34.5407,-7.14245
-574,-188,-34.7751,7.59045,0,0,0,0,0,0,0,-1,650,1212,-34.7751,-7.59048
-567,-188,-19.5786,4.10388,0,0,0,0,0,0,0,-1,657,1212,-19.5785,-4.10383
-560,-188,-23.9507,0.416626,0,0,0,0,0,0,0,-1,664,1212,-23.9508,-0.416602
-553,-188,-44.9577,0.484497,0,0,0,0,0,0,0,-1,671,1212,-44.9577,-0.48453
-546,-188,-45.0873,0.677124,-0.00225707,0.00275553,-0.00149769,0.00316893,-0.00267047,-1.30148,0.00337547,0.0434558,678,1212,-45.0873,-0.677107
-539,-188,-45.1962,0.790649,-0.00199445,0.00340218,-0.00110447,0.00361948,-0.00221174,-1.37654,0.0033992,0.0366053,685,1212,-45.1962,-0.790599
-532,-188,-45.2509,0.735107,-0.00127419,0.0041634,-0.000495348,0.00420815,-0.00131895,-1.48069,0.00333324,0.0406024,692,1212,-45.2509,-0.735122
-525,-188,-45.2845,0.66394,0.00141349,0.00521795,-0.000132433,0.00522256,0.00140888,-1.53604,0.00311998,0.0415457,699,1212,-45.2846,-0.663971
-518,-188,-45.2526,0.636841,0.00576661,0.00682996,-0.000129499,0.0068455,0.00575107,-1.45134,0.00424613,0.0428207,706,1212,-45.2525,-0.636848
-511,-188,-45.2328,1.01074,0.0108298,0.00893516,0.000218177,0.0108546,0.00891036,0.113179,0.00668328,0.0394666,713,1212,-45.2329,-1.01075
-504,-188,0,0,0,0,0,0,0,0,0,-1,720,1212,0,0
-497,-188,0,0,0,0,0,0,0,0,0,-1,727,1212,0,0
-490,-188,0,0,0,0,0,0,0,0,0,-1,734,1212,0,0
-483,-188,0,0,0,0,0,0,0,0,0,-1,741,1212,0,0
-476,-188,0,0,0,0,0,0,0,0,0,-1,748,1212,0,0
-469,-188,0,0,0,0,0,0,0,0,0,-1,755,1212,0,0
-462,-188,0,0,0,0,0,0,0,0,0,-1,762,1212,0,0
-455,-188,0,0,0,0,0,0,0,0,0,-1,769,1212,0,0
-448,-188,0,0,0,0,0,0,0,0,0,-1,776,1212,0,0
-441,-188,0,0,0,0,0,0,0,0,0,-1,783,1212,0,0
-434,-188,0,0,0,0,0,0,0,0,0,-1,790,1212,0,0
-427,-188,0,0,0,0,0,0,0,0,0,-1,797,1212,0,0
-420,-188,0,0,0,0,0,0,0,0,0,-1,804,1212,0,0
-413,-188,0,0,0,0,0,0,0,0,0,-1,811,1212,0,0
-406,-188,0,0,0,0,0,0,0,0,0,-1,818,1212,0,0
-399,-188,0,0,0,0,0,0,0,0,0,-1,825,1212,0,0
-392,-188,0,0,0,0,0,0,0,0,0,-1,832,1212,0,0
-385,-188,0,0,0,0,0,0,0,0,0,-1,839,1212,0,0
-378,-188,0,0,0,0,0,0,0,0,0,-1,846,1212,0,0
-371,-188,0,0,0,0,0,0,0,0,0,-1,853,1212,0,0
-364,-188,0,0,0,0,0,0,0,0,0,-1,860,1212,0,0
-357,-188,0,0,0,0,0,0,0,0,0,-1,867,1212,0,0
-350,-188,0,0,0,0,0,0,0,0,0,-1,874,1212,0,0
-343,-188,0,0,0,0,0,0,0,0,0,-1,881,1212,0,0
-336,-188,0,0,0,0,0,0,0,0,0,-1,888,1212,0,0
-329,-188,0,0,0,0,0,0,0,0,0,-1,895,1212,0,0
-322,-188,0,0,0,0,0,0,0,0,0,-1,902,1212,0,0
-315,-188,0,0,0,0,0,0,0,0,0,-1,909,1212,0,0
-308,-188,0,0,0,0,0,0,0,0,0,-1,916,1212,0,0
-301,-188,0,0,0,0,0,0,0,0,0,-1,923,1212,0,0
-294,-188,0,0,0,0,0,0,0,0,0,-1,930,1212,0,0
-287,-188,0,0,0,0,0,0,0,0,0,-1,937,1212,0,0
-280,-188,0,0,0,0,0,0,0,0,0,-1,944,1212,0,0
-273,-188,0,0,0,0,0,0,0,0,0,-1,951,1212,0,0
-266,-188,0,0,0,0,0,0,0,0,0,-1,958,1212,0,0
-259,-188,0,0,0,0,0,0,0,0,0,-1,965,1212,0,0
-252,-188,0,0,0,0,0,0,0,0,0,-1,972,1212,0,0
-245,-188,0,0,0,0,0,0,0,0,0,-1,979,1212,0,0
-238,-188,0,0,0,0,0,0,0,0,0,-1,986,1212,0,0
-231,-188,0,0,0,0,0,0,0,0,0,-1,993,1212,0,0
-224,-188,0,0,0,0,0,0,0,0,0,-1,1000,1212,0,0
-217,-188,0,0,0,0,0,0,0,0,0,-1,1007,1212,0,0
-210,-188,0,0,0,0,0,0,0,0,0,-1,1014,1212,0,0
-203,-188,0,0,0,0,0,0,0,0,0,-1,1021,1212,0,0
-196,-188,0,0,0,0,0,0,0,0,0,-1,1028,1212,0,0
-189,-188,0,0,0,0,0,0,0,0,0,-1,1035,1212,0,0
-182,-188,0,0,0,0,0,0,0,0,0,-1,1042,1212,0,0
-175,-188,0,0,0,0,0,0,0,0,0,-1,1049,1212,0,0
-168,-188,0,0,0,0,0,0,0,0,0,-1,1056,1212,0,0
-161,-188,0,0,0,0,0,0,0,0,0,-1,1063,1212,0,0
-154,-188,0,0,0,0,0,0,0,0,0,-1,1070,1212,0,0
-147,-188,0,0,0,0,0,0,0,0,0,-1,1077,1212,0,0
-140,-188,0,0,0,0,0,0,0,0,0,-1,1084,1212,0,0
-133,-188,0,0,0,0,0,0,0,0,0,-1,1091,1212,0,0
-126,-188,0,0,0,0,0,0,0,0,0,-1,1098,1212,0,0
-119,-188,0,0,0,0,0,0,0,0,0,-1,1105,1212,0,0
-112,-188,0,0,0,0,0,0,0,0,0,-1,1112,1212,0,0
-105,-188,0,0,0,0,0,0,0,0,0,-1,1119,1212,0,0
-98,-188,0,0,0,0,0,0,0,0,0,-1,1126,1212,0,0
-91,-188,0,0,0,0,0,0,0,0,0,-1,1133,1212,0,0
-84,-188,0,0,0,0,0,0,0,0,0,-1,1140,1212,0,0
-77,-188,0,0,0,0,0,0,0,0,0,-1,1147,1212,0,0
-70,-188,0,0,0,0,0,0,0,0,0,-1,1154,1212,0,0
-63,-188,0,0,0,0,0,0,0,0,0,-1,1161,1212,0,0
-56,-188,0,0,0,0,0,0,0,0,0,-1,1168,1212,0,0
-49,-188,0,0,0,0,0,0,0,0,0,-1,1175,1212,0,0
-42,-188,0,0,0,0,0,0,0,0,0,-1,1182,1212,0,0
-35,-188,0,0,0,0,0,0,0,0,0,-1,1189,1212,0,0
-28,-188,0,0,0,0,0,0,0,0,0,-1,1196,1212,0,0
-21,-188,0,0,0,0,0,0,0,0,0,-1,1203,1212,0,0
-14,-188,0,0,0,0,0,0,0,0,0,-1,1210,1212,0,0
-7,-188,0,0,0,0,0,0,0,0,0,-1,1217,1212,0,0
0,-188,0,0,0,0,0,0,0,0,0,-1,1224,1212,0,0
7,-188,0,0,0,0,0,0,0,0,0,-1,1231,1212,0,0
14,-188,0,0,0,0,0,0,0,0,0,-1,1238,1212,0,0
21,-188,0,0,0,0,0,0,0,0,0,-1,1245,1212,0,0
28,-188,0,0,0,0,0,0,0,0,0,-1,1252,1212,0,0
35,-188,0,0,0,0,0,0,0,0,0,-1,1259,1212,0,0
42,-188,0,0,0,0,0,0,0,0,0,-1,1266,1212,0,0
49,-188,0,0,0,0,0,0,0,0,0,-1,1273,1212,0,0
56,-188,0,0,0,0,0,0,0,0,0,-1,1280,1212,0,0
63,-188,0,0,0,0,0,0,0,0,0,-1,1287,1212,0,0
70,-188,0,0,0,0,0,0,0,0,0,-1,1294,1212,0,0
77,-188,0,0,0,0,0,0,0,0,0,-1,1301,1212,0,0
84,-188,0,0,0,0,0,0,0,0,0,-1,1308,1212,0,0
91,-188,0,0,0,0,0,0,0,0,0,-1,1315,1212,0,0
98,-188,0,0,0,0,0,0,0,0,0,-1,1322,1212,0,0
105,-188,0,0,0,0,0,0,0,0,0,-1,1329,1212,0,0
112,-188,0,0,0,0,0,0,0,0,0,-1,1336,1212,0,0
119,-188,0,0,0,0,0,0,0,0,0,-1,1343,1212,0,0
126,-188,0,0,0,0,0,0,0,0,0,-1,1350,1212,0,0
133,-188,0,0,0,0,0,0,0,0,0,-1,1357,1212,0,0
140,-188,0,0,0,0,0,0,0,0,0,-1,1364,1212,0,0
147,-188,0,0,0,0,0,0,0,0,0,-1,1371,1212,0,0
154,-188,0,0,0,0,0,0,0,0,0,-1,1378,1212,0,0
161,-188,0,0,0,0,0,0,0,0,0,-1,1385,1212,0,0
168,-188,0,0,0,0,0,0,0,0,0,-1,1392,1212,0,0
175,-188,0,0,0,0,0,0,0,0,0,-1,1399,1212,0,0
182,-188,0,0,0,0,0,0,0,0,0,-1,1406,1212,0,0
189,-188,0,0,0,0,0,0,0,0,0,-1,1413,1212,0,0
196,-188,0,0,0,0,0,0,0,0,0,-1,1420,1212,0,0
203,-188,0,0,0,0,0,0,0,0,0,-1,1427,1212,0,0
210,-188,0,0,0,0,0,0,0,0,0,-1,1434,1212,0,0
217,-188,0,0,0,0,0,0,0,0,0,-1,1441,1212,0,0
224,-188,0,0,0,0,0,0,0,0,0,-1,1448,1212,0,0
231,-188,0,0,0,0,0,0,0,0,0,-1,1455,1212,0,0
238,-188,0,0,0,0,0,0,0,0,0,-1,1462,1212,0,0
245,-188,0,0,0,0,0,0,0,0,0,-1,1469,1212,0,0
252,-188,0,0,0,0,0,0,0,0,0,-1,1476,1212,0,0
259,-188,0,0,0,0,0,0,0,0,0,-1,1483,1212,0,0
266,-188,0,0,0,0,0,0,0,0,0,-1,1490,1212,0,0
273,-188,0,0,0,0,0,0,0,0,0,-1,1497,1212,0,0
280,-188,0,0,0,0,0,0,0,0,0,-1,1504,1212,0,0
287,-188,0,0,0,0,0,0,0,0,0,-1,1511,1212,0,0
294,-188,0,0,0,0,0,0,0,0,0,-1,1518,1212,0,0
301,-188,0,0,0,0,0,0,0,0,0,-1,1525,1212,0,0
308,-188,0,0,0,0,0,0,0,0,0,-1,1532,1212,0,0
315,-188,0,0,0,0,0,0,0,0,0,-1,1539,1212,0,0
322,-188,0,0,0,0,0,0,0,0,0,-1,1546,1212,0,0
329,-188,0,0,0,0,0,0,0,0,0,-1,1553,1212,0,0
336,-188,0,0,0,0,0,0,0,0,0,-1,1560,1212,0,0
343,-188,0,0,0,0,0,0,0,0,0,-1,1567,1212,0,0
350,-188,0,0,0,0,0,0,0,0,0,-1,1574,1212,0,0
357,-188,0,0,0,0,0,0,0,0,0,-1,1581,1212,0,0
364,-188,0,0,0,0,0,0,0,0,0,-1,1588,1212,0,0
371,-188,0,0,0,0,0,0,0,0,0,-1,1595,1212,0,0
378,-188,0,0,0,0,0,0,0,0,0,-1,1602,1212,0,0
385,-188,0,0,0,0,0,0,0,0,0,-1,1609,1212,0,0
392,-188,0,0,0,0,0,0,0,0,0,-1,1616,1212,0,0
399,-188,0,0,0,0,0,0,0,0,0,-1,1623,1212,0,0
406,-188,0,0,0,0,0,0,0,0,0,-1,1630,1212,0,0
413,-188,0,0,0,0,0,0,0,0,0,-1,1637,1212,0,0
420,-188,0,0,0,0,0,0,0,0,0,-1,1644,1212,0,0
427,-188,0,0,0,0,0,0,0,0,0,-1,1651,1212,0,0
434,-188,0,0,0,0,0,0,0,0,0,-1,1658,1212,0,0
441,-188,0,0,0,0,0,0,0,0,0,-1,1665,1212,0,0
448,-188,0,0,0,0,0,0,0,0,0,-1,1672,1212,0,0
455,-188,0,0,0,0,0,0,0,0,0,-1,1679,1212,0,0
462,-188,0,0,0,0,0,0,0,0,0,-1,1686,1212,0,0
469,-188,0,0,0,0,0,0,0,0,0,-1,1693,1212,0,0
476,-188,0,0,0,0,0,0,0,0,0,-1,1700,1212,0,0
483,-188,0,0,0,0,0,0,0,0,0,-1,1707,1212,0,0
490,-188,0,0,0,0,0,0,0,0,0,-1,1714,1212,0,0
497,-188,0,0,0,0,0,0,0,0,0,-1,1721,1212,0,0
504,-188,0,0,0,0,0,0,0,0,0,-1,1728,1212,0,0
511,-188,0,0,0,0,0,0,0,0,0,-1,1735,1212,0,0
518,-188,0,0,0,0,0,0,0,0,0,-1,1742,1212,0,0
525,-188,0,0,0,0,0,0,0,0,0,-1,1749,1212,0,0
532,-188,0,0,0,0,0,0,0,0,0,-1,1756,1212,0,0
539,-188,0,0,0,0,0,0,0,0,0,-1,1763,1212,0,0
546,-188,0,0,0,0,0,0,0,0,0,-1,1770,1212,0,0
553,-188,0,0,0,0,0,0,0,0,0,-1,1777,1212,0,0
560,-188,0,0,0,0,0,0,0,0,0,-1,1784,1212,0,0
567,-188,0,0,0,0,0,0,0,0,0,-1,1791,1212,0,0
574,-188,0,0,0,0,0,0,0,0,0,-1,1798,1212,0,0
581,-188,0,0,0,0,0,0,0,0,0,-1,1805,1212,0,0
588,-188,0,0,0,0,0,0,0,0,0,-1,1812,1212,0,0
595,-188,0,0,0,0,0,0,0,0,0,-1,1819,1212,0,0
602,-188,0,0,0,0,0,0,0,0,0,-1,1826,1212,0,0
609,-188,0,0,0,0,0,0,0,0,0,-1,1833,1212,0,0
616,-188,0,0,0,0,0,0,0,0,0,-1,1840,1212,0,0
623,-188,0,0,0,0,0,0,0,0,0,-1,1847,1212,0,0
630,-188,60.0439,2.87744,0.00201855,-0.00102049,-0.00112825,0.00239161,-0.00139356,-0.319344,0.00221055,0.0394082,1854,1212,60.0439,-2.87748
637,-188,60.1183,2.46936,0.00131503,-0.000337373,-0.000690832,0.00156579,-0.000588138,-0.348201,0.00128556,0.0408818,1861,1212,60.1183,-2.46941
644,-188,60.0396,2.39465,0.0008295,0.000482573,-0.000634688,0.001314,-1.9283e-06,-0.652003,0.000876645,0.0365987,1868,1212,60.0396,-2.39469
651,-188,60.0201,2.6145,0.000617036,0.00133558,-0.000882494,0.00192913,2.3485e-05,-0.978708,0.00127833,0.0310441,1875,1212,60.0202,-2.61448
658,-188,60.0411,2.59216,0.000770146,0.00174866,-0.00112059,0.00248214,3.66651e-05,-0.991228,0.00164267,0.0304054,1882,1212,60.0412,-2.59213
665,-188,60.0168,2.57861,0.000957721,0.00177656,-0.00117803,0.00261429,0.000119992,-0.952642,0.00170427,0.0283154,1889,1212,60.0168,-2.57855
672,-188,60.0598,2.55603,0.00123372,0.00162684,-0.00109491,0.00254269,0.000317864,-0.874214,0.00159974,0.0225614,1896,1212,60.0598,-2.556
679,-188,60.0616,2.47961,0.00143638,0.00137387,-0.000938385,0.00234403,0.00046622,-0.76875,0.00143279,0.0467507,1903,1212,60.0617,-2.47955
686,-188,60.1007,2.41321,0,0,0,0,0,0,0,-1,1910,1212,60.1007,-2.41325
693,-188,35.9054,2.18042,0,0,0,0,0,0,0,-1,1917,1212,35.9054,-2.18038
700,-188,49.3726,10.4647,0,0,0,0,0,0,0,-1,1924,1212,49.3725,-10.4647
707,-188,49.4949,9.98523,0.00161908,0.00131635,-0.000510632,0.00200031,0.000935124,-0.641311,0.00115569,0.0482608,1931,1212,49.4948,-9.98522
714,-188,49.6949,9.42725,0,0,0,0,0,0,0,-1,1938,1212,49.6949,-9.42727
721,-188,49.1514,8.96753,0,0,0,0,0,0,0,-1,1945,1212,49.1514,-8.96749
728,-188,49.3324,8.30725,0.00175489,0.000780221,0.000143078,0.00177546,0.000759652,0.142784,0.00102861,0.0225579,1952,1212,49.3324,-8.30723
735,-188,49.3271,7.76172,0.00174101,0.00109704,0.000405445,0.00193677,0.000901281,0.449814,0.00111909,0.0131919,1959,1212,49.3271,-7.76169
742,-188,49.2922,7.23083,0.00170259,0.00147664,0.000700344,0.00229901,0.000880218,0.705431,0.00133942,0.0153867,1966,1212,49.2923,-7.23084
749,-188,49.3041,6.67969,0.00165821,0.00282418,0.000665293,0.00312578,0.00135661,1.14518,0.0018099,0.0147835,1973,1212,49.304,-6.67969
756,-188,49.288,6.12292,0.0014672,0.00437349,0.000176549,0.00438418,0.00145651,1.51035,0.00257827,0.0131766,1980,1212,49.288,-6.12296
763,-188,49.3053,5.59155,0.00134307,0.00645333,-0.000704923,0.00654879,0.00124761,-1.4362,0.00401513,0.0167794,1987,1212,49.3053,-5.59158
770,-188,49.3168,5.00952,0.000735547,0.00901863,-0.0022572,0.00959379,0.000160382,-1.32129,0.00634308,0.0385963,1994,1212,49.3167,-5.00947
777,-188,49.4243,4.41199,0,0,0,0,0,0,0,-1,2001,1212,49.4243,-4.41201
784,-188,50.2876,-0.510742,0,0,0,0,0,0,0,-1,2008,1212,50.2875,0.510762
791,-188,51.6936,0.835083,0,0,0,0,0,0,0,-1,2015,1212,51.6937,-0.835076
798,-188,52.3022,2.24426,0,0,0,0,0,0,0,-1,2022,1212,52.3023,-2.24429
805,-188,0,0,0,0,0,0,0,0,0,-1,2029,1212,0,0
812,-188,0,0,0,0,0,0,0,0,0,-1,2036,1212,0,0
-700,-195,0,0,0,0,0,0,0,0,0,-1,524,1219,0,0
-693,-195,0,0,0,0,0,0,0,0,0,-1,531,1219,0,0
-686,-195,0,0,0,0,0,0,0,0,0,-1,538,1219,0,0
-679,-195,-36.2287,-1.37939,-0.0553463,-0.0290473,0.00494647,-0.0281477,-0.0562459,1.3909,0.0324736,0.0467649,545,1219,-36.2287,1.37945
-672,-195,-38.7916,0.643799,0,0,0,0,0,0,0,-1,552,1219,-38.7916,-0.643769
-665,-195,-39.5106,0.0283203,0,0,0,0,0,0,0,-1,559,1219,-39.5106,-0.0282618
-658,-195,-33.3624,1.18237,0,0,0,0,0,0,0,-1,566,1219,-33.3624,-1.18238
-651,-195,-33.4157,1.66382,0,0,0,0,0,0,0,-1,573,1219,-33.4157,-1.66383
-644,-195,-33.4323,2.16003,-0.0217852,-0.00373605,-0.00226542,-0.00345605,-0.0220652,-1.44782,0.0137042,0.0430805,580,1219,-33.4323,-2.16002
-637,-195,-33.4348,2.63245,-0.0166312,-0.00110456,-0.00299244,-0.000547791,-0.017188,-1.38684,0.0112805,0.0235819,587,1219,-33.4347,-2.63249
-630,-195,-33.5555,3.1665,-0.0121403,0.000898581,-0.00299701,0.00155446,-0.0127962,-1.35535,0.00909333,0.00857667,594,1219,-33.5555,-3.16656
-623,-195,-33.5792,3.73389,-0.00750956,0.00167889,-0.00364096,0.00294671,-0.00877738,-1.23572,0.00704241,0.00817387,601,1219,-33.5792,-3.73384
-616,-195,-33.5778,4.31262,-0.00494464,0.00140592,-0.00333213,0.00283341,-0.00637213,-1.16605,0.00544414,0.0107263,608,1219,-33.5778,-4.31258
-609,-195,-33.5829,4.94189,-0.00250659,0.000481774,-0.0028582,0.00221279,-0.0042376,-1.02625,0.0037848,0.0197399,615,1219,-33.5829,-4.94191
-602,-195,-33.6349,5.52722,-0.0013157,-0.000801921,-0.00257384,0.00152781,-0.00364544,-0.835137,0.00306905,0.0223815,622,1219,-33.6349,-5.52722
-595,-195,-33.7097,6.09802,-0.00172383,-0.00105671,-0.00240911,0.00104183,-0.00382236,-0.85419,0.00295733,0.0281737,629,1219,-33.7097,-6.09804
-588,-195,-33.7587,6.78589,-0.00279077,2.22651e-05,-0.00244854,0.00143951,-0.00420802,-1.0461,0.00338868,0.028016,636,1219,-33.7587,-6.78588
-581,-195,-33.7656,7.17444,-0.00279211,0.000299885,-0.0024507,0.00165148,-0.00414371,-1.06679,0.00344744,0.0376016,643,1219,-33.7656,-7.17439
-574,-195,-34.2657,7.45642,0,0,0,0,0,0,0,-1,650,1219,-34.2657,-7.45643
-567,-195,-20.6388,3.78369,0,0,0,0,0,0,0,-1,657,1219,-20.6388,-3.78369
-560,-195,-20.878,2.10388,0,0,0,0,0,0,0,-1,664,1219,-20.878,-2.10385
-553,-195,-41.595,0.613281,0,0,0,0,0,0,0,-1,671,1219,-41.595,-0.61334
-546,-195,-45.0698,0.690063,0,0,0,0,0,0,0,-1,678,1219,-45.0698,-0.690022
-539,-195,-45.1714,0.821777,-0.002082,0.00258826,-0.00114908,0.00285567,-0.00234941,-1.34215,0.00300989,0.0405634,685,1219,-45.1714,-0.821793
-532,-195,-45.289,0.745483,-0.00184871,0.00332865,-0.000511028,0.0033786,-0.00189867,-1.47334,0.00308651,0.0353556,692,1219,-45.289,-0.745446
-525,-195,-45.265,0.70105,-0.000186383,0.00447166,0.000157088,0.00447695,-0.000191674,1.53712,0.00305054,0.0403903,699,1219,-45.265,-0.700989
-518,-195,-44.9467,0.594971,0.00326946,0.00621496,0.000522802,0.006305,0.00317942,1.40024,0.00364024,0.0431177,706,1219,-44.9467,-0.594992
-511,-195,-44.9208,0.75354,0.0085269,0.0084766,0.00104437,0.00954643,0.00745707,0.773359,0.00579478,0.0417745,713,1219,-44.9208,-0.753543
-504,-195,0,0,0,0,0,0,0,0,0,-1,720,1219,0,0
-497,-195,0,0,0,0,0,0,0,0,0,-1,727,1219,0,0
-490,-195,0,0,0,0,0,0,0,0,0,-1,734,1219,0,0
-483,-195,0,0,0,0,0,0,0,0,0,-1,741,1219,0,0
-476,-195,0,0,0,0,0,0,0,0,0,-1,748,1219,0,0
-469,-195,0,0,0,0,0,0,0,0,0,-1,755,1219,0,0
-462,-195,0,0,0,0,0,0,0,0,0,-1,762,1219,0,0
-455,-195,0,0,0,0,0,0,0,0,0,-1,769,1219,0,0
-448,-195,0,0,0,0,0,0,0,0,0,-1,776,1219,0,0
-441,-195,0,0,0,0,0,0,0,0,0,-1,783,1219,0,0
-434,-195,0,0,0,0,0,0,0,0,0,-1,790,1219,0,0
-427,-195,0,0,0,0,0,0,0,0,0,-1,797,1219,0,0
-420,-195,0,0,0,0,0,0,0,0,0,-1,804,1219,0,0
-413,-195,0,0,0,0,0,0,0,0,0,-1,811,1219,0,0
-406,-195,0,0,0,0,0,0,0,0,0,-1,818,1219,0,0
-399,-195,0,0,0,0,0,0,0,0,0,-1,825,1219,0,0
-392,-195,0,0,0,0,0,0,0,0,0,-1,832,1219,0,0
-385,-195,0,0,0,0,0,0,0,0,0,-1,839,1219,0,0
-378,-195,0,0,0,0,0,0,0,0,0,-1,846,1219,0,0
-371,-195,0,0,0,0,0,0,0,0,0,-1,853,1219,0,0
-364,-195,0,0,0,0,0,0,0,0,0,-1,860,1219,0,0
-357,-195,0,0,0,0,0,0,0,0,0,-1,867,1219,0,0
-350,-195,0,0,0,0,0,0,0,0,0,-1,874,1219,0,0
-343,-195,0,0,0,0,0,0,0,0,0,-1,881,1219,0,0
-336,-195,0,0,0,0,0,0,0,0,0,-1,888,1219,0,0
-329,-195,0,0,0,0,0,0,0,0,0,-1,895,1219,0,0
-322,-195,0,0,0,0,0,0,0,0,0,-1,902,1219,0,0
-315,-195,0,0,0,0,0,0,0,0,0,-1,909,1219,0,0
-308,-195,0,0,0,0,0,0,0,0,0,-1,916,1219,0,0
-301,-195,0,0,0,0,0,0,0,0,0,-1,923,1219,0,0
-294,-195,0,0,0,0,0,0,0,0,0,-1,930,1219,0,0
-287,-195,0,0,0,0,0,0,0,0,0,-1,937,1219,0,0
-280,-195,0,0,0,0,0,0,0,0,0,-1,944,1219,0,0
-273,-195,0,0,0,0,0,0,0,0,0,-1,951,1219,0,0
-266,-195,0,0,0,0,0,0,0,0,0,-1,958,1219,0,0
-259,-195,0,0,0,0,0,0,0,0,0,-1,965,1219,0,0
-252,-195,0,0,0,0,0,0,0,0,0,-1,972,1219,0,0
-245,-195,0,0,0,0,0,0,0,0,0,-1,979,1219,0,0
-238,-195,0,0,0,0,0,0,0,0,0,-1,986,1219,0,0
-231,-195,0,0,0,0,0,0,0,0,0,-1,993,1219,0,0
-224,-195,0,0,0,0,0,0,0,0,0,-1,1000,1219,0,0
-217,-195,0,0,0,0,0,0,0,0,0,-1,1007,1219,0,0
-210,-195,0,0,0,0,0,0,0,0,0,-1,1014,1219,0,0
-203,-195,0,0,0,0,0,0,0,0,0,-1,1021,1219,0,0
-196,-195,0,0,0,0,0,0,0,0,0,-1,1028,1219,0,0
-189,-195,0,0,0,0,0,0,0,0,0,-1,1035,1219,0,0
-182,-195,0,0,0,0,0,0,0,0,0,-1,1042,1219,0,0
-175,-195,0,0,0,0,0,0,0,0,0,-1,1049,1219,0,0
-168,-195,0,0,0,0,0,0,0,0,0,-1,1056,1219,0,0
-161,-195,0,0,0,0,0,0,0,0,0,-1,1063,1219,0,0
-154,-195,0,0,0,0,0,0,0,0,0,-1,1070,1219,0,0
-147,-195,0,0,0,0,0,0,0,0,0,-1,1077,1219,0,0
-140,-195,0,0,0,0,0,0,0,0,0,-1,1084,1219,0,0
-133,-195,0,0,0,0,0,0,0,0,0,-1,1091,1219,0,0
-126,-195,0,0,0,0,0,0,0,0,0,-1,1098,1219,0,0
-119,-195,0,0,0,0,0,0,0,0,0,-1,1105,1219,0,0
-112,-195,0,0,0,0,0,0,0,0,0,-1,1112,1219,0,0
-105,-195,0,0,0,0,0,0,0,0,0,-1,1119,1219,0,0
-98,-195,0,0,0,0,0,0,0,0,0,-1,1126,1219,0,0
-91,-195,0,0,0,0,0,0,0,0,0,-1,1133,1219,0,0
-84,-195,0,0,0,0,0,0,0,0,0,-1,1140,1219,0,0
-77,-195,0,0,0,0,0,0,0,0,0,-1,1147,1219,0,0
-70,-195,0,0,0,0,0,0,0,0,0,-1,1154,1219,0,0
-63,-195,0,0,0,0,0,0,0,0,0,-1,1161,1219,0,0
-56,-195,0,0,0,0,0,0,0,0,0,-1,1168,1219,0,0
-49,-195,0,0,0,0,0,0,0,0,0,-1,1175,1219,0,0
-42,-195,0,0,0,0,0,0,0,0,0,-1,1182,1219,0,0
-35,-195,0,0,0,0,0,0,0,0,0,-1,1189,1219,0,0
-28,-195,0,0,0,0,0,0,0,0,0,-1,1196,1219,0,0
-21,-195,0,0,0,0,0,0,0,0,0,-1,1203,1219,0,0
-14,-195,0,0,0,0,0,0,0,0,0,-1,1210,1219,0,0
-7,-195,0,0,0,0,0,0,0,0,0,-1,1217,1219,0,0
0,-195,0,0,0,0,0,0,0,0,0,-1,1224,1219,0,0
7,-195,0,0,0,0,0,0,0,0,0,-1,1231,1219,0,0
14,-195,0,0,0,0,0,0,0,0,0,-1,1238,1219,0,0
21,-195,0,0,0,0,0,0,0,0,0,-1,1245,1219,0,0
28,-195,0,0,0,0,0,0,0,0,0,-1,1252,1219,0,0
35,-195,0,0,0,0,0,0,0,0,0,-1,1259,1219,0,0
42,-195,0,0,0,0,0,0,0,0,0,-1,1266,1219,0,0
49,-195,0,0,0,0,0,0,0,0,0,-1,1273,1219,0,0
56,-195,0,0,0,0,0,0,0,0,0,-1,1280,1219,0,0
63,-195,0,0,0,0,0,0,0,0,0,-1,1287,1219,0,0
70,-195,0,0,0,0,0,0,0,0,0,-1,1294,1219,0,0
77,-195,0,0,0,0,0,0,0,0,0,-1,1301,1219,0,0
84,-195,0,0,0,0,0,0,0,0,0,-1,1308,1219,0,0
91,-195,0,0,0,0,0,0,0,0,0,-1,1315,1219,0,0
98,-195,0,0,0,0,0,0,0,0,0,-1,1322,1219,0,0
105,-195,0,0,0,0,0,0,0,0,0,-1,1329,1219,0,0
112,-195,0,0,0,0,0,0,0,0,0,-1,1336,1219,0,0
119,-195,0,0,0,0,0,0,0,0,0,-1,1343,1219,0,0
126,-195,0,0,0,0,0,0,0,0,0,-1,1350,1219,0,0
133,-195,0,0,0,0,0,0,0,0,0,-1,1357,1219,0,0
140,-195,0,0,0,0,0,0,0,0,0,-1,1364,1219,0,0
147,-195,0,0,0,0,0,0,0,0,0,-1,1371,1219,0,0
154,-195,0,0,0,0,0,0,0,0,0,-1,1378,1219,0,0
161,-195,0,0,0,0,0,0,0,0,0,-1,1385,1219,0,0
168,-195,0,0,0,0,0,0,0,0,0,-1,1392,1219,0,0
175,-195,0,0,0,0,0,0,0,0,0,-1,1399,1219,0,0
182,-195,0,0,0,0,0,0,0,0,0,-1,1406,1219,0,0
189,-195,0,0,0,0,0,0,0,0,0,-1,1413,1219,0,0
196,-195,0,0,0,0,0,0,0,0,0,-1,1420,1219,0,0
203,-195,0,0,0,0,0,0,0,0,0,-1,1427,1219,0,0
210,-195,0,0,0,0,0,0,0,0,0,-1,1434,1219,0,0
217,-195,0,0,0,0,0,0,0,0,0,-1,1441,1219,0,0
224,-195,0,0,0,0,0,0,0,0,0,-1,1448,1219,0,0
231,-195,0,0,0,0,0,0,0,0,0,-1,1455,1219,0,0
238,-195,0,0,0,0,0,0,0,0,0,-1,1462,1219,0,0
245,-195,0,0,0,0,0,0,0,0,0,-1,1469,1219,0,0
252,-195,0,0,0,0,0,0,0,0,0,-1,1476,1219,0,0
259,-195,0,0,0,0,0,0,0,0,0,-1,1483,1219,0,0
266,-195,0,0,0,0,0,0,0,0,0,-1,1490,1219,0,0
273,-195,0,0,0,0,0,0,0,0,0,-1,1497,1219,0,0
280,-195,0,0,0,0,0,0,0,0,0,-1,1504,1219,0,0
287,-195,0,0,0,0,0,0,0,0,0,-1,1511,1219,0,0
294,-195,0,0,0,0,0,0,0,0,0,-1,1518,1219,0,0
301,-195,0,0,0,0,0,0,0,0,0,-1,1525,1219,0,0
308,-195,0,0,0,0,0,0,0,0,0,-1,1532,1219,0,0
315,-195,0,0,0,0,0,0,0,0,0,-1,1539,1219,0,0
322,-195,0,0,0,0,0,0,0,0,0,-1,1546,1219,0,0
329,-195,0,0,0,0,0,0,0,0,0,-1,1553,1219,0,0
336,-195,0,0,0,0,0,0,0,0,0,-1,1560,1219,0,0
343,-195,0,0,0,0,0,0,0,0,0,-1,1567,1219,0,0
350,-195,0,0,0,0,0,0,0,0,0,-1,1574,1219,0,0
357,-195,0,0,0,0,0,0,0,0,0,-1,1581,1219,0,0
364,-195,0,0,0,0,0,0,0,0,0,-1,1588,1219,0,0
371,-195,0,0,0,0,0,0,0,0,0,-1,1595,1219,0,0
378,-195,0,0,0,0,0,0,0,0,0,-1,1602,1219,0,0
385,-195,0,0,0,0,0,0,0,0,0,-1,1609,1219,0,0
392,-195,0,0,0,0,0,0,0,0,0,-1,1616,1219,0,0
399,-195,0,0,0,0,0,0,0,0,0,-1,1623,1219,0,0
406,-195,0,0,0,0,0,0,0,0,0,-1,1630,1219,0,0
413,-195,0,0,0,0,0,0,0,0,0,-1,1637,1219,0,0
420,-195,0,0,0,0,0,0,0,0,0,-1,1644,1219,0,0
427,-195,0,0,0,0,0,0,0,0,0,-1,1651,1219,0,0
434,-195,0,0,0,0,0,0,0,0,0,-1,1658,1219,0,0
441,-195,0,0,0,0,0,0,0,0,0,-1,1665,1219,0,0
448,-195,0,0,0,0,0,0,0,0,0,-1,1672,1219,0,0
455,-195,0,0,0,0,0,0,0,0,0,-1,1679,1219,0,0
462,-195,0,0,0,0,0,0,0,0,0,-1,1686,1219,0,0
469,-195,0,0,0,0,0,0,0,0,0,-1,1693,1219,0,0
476,-195,0,0,0,0,0,0,0,0,0,-1,1700,1219,0,0
483,-195,0,0,0,0,0,0,0,0,0,-1,1707,1219,0,0
490,-195,0,0,0,0,0,0,0,0,0,-1,1714,1219,0,0
497,-195,0,0,0,0,0,0,0,0,0,-1,1721,1219,0,0
504,-195,0,0,0,0,0,0,0,0,0,-1,1728,1219,0,0
511,-195,0,0,0,0,0,0,0,0,0,-1,1735,1219,0,0
518,-195,0,0,0,0,0,0,0,0,0,-1,1742,1219,0,0
525,-195,0,0,0,0,0,0,0,0,0,-1,1749,1219,0,0
532,-195,0,0,0,0,0,0,0,0,0,-1,1756,1219,0,0
539,-195,0,0,0,0,0,0,0,0,0,-1,1763,1219,0,0
546,-195,0,0,0,0,0,0,0,0,0,-1,1770,1219,0,0
553,-195,0,0,0,0,0,0,0,0,0,-1,1777,1219,0,0
560,-195,0,0,0,0,0,0,0,0,0,-1,1784,1219,0,0
567,-195,0,0,0,0,0,0,0,0,0,-1,1791,1219,0,0
574,-195,0,0,0,0,0,0,0,0,0,-1,1798,1219,0,0
581,-195,0,0,0,0,0,0,0,0,0,-1,1805,1219,0,0
588,-195,0,0,0,0,0,0,0,0,0,-1,1812,1219,0,0
595,-195,0,0,0,0,0,0,0,0,0,-1,1819,1219,0,0
602,-195,0,0,0,0,0,0,0,0,0,-1,1826,1219,0,0
609,-195,0,0,0,0,0,0,0,0,0,-1,1833,1219,0,0
616,-195,0,0,0,0,0,0,0,0,0,-1,1840,1219,0,0
623,-195,0,0,0,0,0,0,0,0,0,-1,1847,1219,0,0
630,-195,60.0813,2.60144,0.00218383,-0.00102701,-0.00112975,0.0025415,-0.00138467,-0.306607,0.00229934,0.039858,1854,1219,60.0813,-2.60144
637,-195,60.1693,2.57654,0.00132263,-0.000121691,-0.000960323,0.00180203,-0.000601086,-0.463009,0.00144403,0.0393439,1861,1219,60.1693,-2.57651
644,-195,60.0681,2.60388,0.000699535,0.000886682,-0.0011134,0.00191043,-0.000324216,-0.827321,0.00139432,0.0343322,1868,1219,60.0681,-2.60393
651,-195,60.0217,2.58203,0.000468431,0.00173333,-0.00147327,0.00270416,-0.000502398,-0.988145,0.00199148,0.0259604,1875,1219,60.0217,-2.58207
658,-195,60.0386,2.64014,0.000707567,0.00191542,-0.00167642,0.00309338,-0.000470395,-0.958285,0.00223561,0.0244312,1882,1219,60.0386,-2.64011
665,-195,60.0568,2.62793,0.00095646,0.00169343,-0.00162659,0.00299275,-0.000342862,-0.896787,0.00211872,0.0229592,1889,1219,60.0568,-2.6279
672,-195,60.1068,2.49036,0.0013106,0.00137562,-0.00147189,0.00281536,-0.00012914,-0.796441,0.0019214,0.0330094,1896,1219,60.1068,-2.49031
679,-195,60.0431,2.37427,0,0,0,0,0,0,0,-1,1903,1219,60.043,-2.37421
686,-195,51.2117,1.94312,0,0,0,0,0,0,0,-1,1910,1219,51.2117,-1.9431
693,-195,24.4368,5.68298,0,0,0,0,0,0,0,-1,1917,1219,24.4368,-5.68293
700,-195,49.0409,10.652,0,0,0,0,0,0,0,-1,1924,1219,49.0409,-10.652
707,-195,48.8977,9.96875,0,0,0,0,0,0,0,-1,1931,1219,48.8977,-9.96871
714,-195,48.9543,9.49524,0,0,0,0,0,0,0,-1,1938,1219,48.9543,-9.49529
721,-195,48.7772,8.91003,0.00211286,0.000356834,-0.000272483,0.00215417,0.000315524,-0.150459,0.00134335,0.0339776,1945,1219,48.7772,-8.90999
728,-195,48.8103,8.34412,0.00201359,0.000295576,7.73322e-05,0.00201706,0.000292102,0.0448915,0.00125869,0.0112163,1952,1219,48.8103,-8.34417
735,-195,48.7885,7.75671,0.00198053,0.0007178,0.00041652,0.00210554,0.000592785,0.291587,0.00125372,0.0124055,1959,1219,48.7885,-7.75674
742,-195,48.7588,7.2301,0.00188832,0.00124153,0.000891997,0.00251374,0.000616114,0.611494,0.00151287,0.014828,1966,1219,48.7588,-7.23011
749,-195,48.7356,6.69202,0.00187506,0.00220614,0.00113392,0.00318653,0.000894662,0.85788,0.00189778,0.015456,1973,1219,48.7356,-6.692
756,-195,48.7236,6.15002,0.00194715,0.00365068,0.000976816,0.00409494,0.00150289,1.14396,0.00239193,0.0148856,1980,1219,48.7237,-6.15001
763,-195,48.7456,5.60718,0.00230842,0.00542782,0.000462479,0.00549495,0.0022413,1.42667,0.0031904,0.0197843,1987,1219,48.7457,-5.60723
770,-195,48.6945,5.12854,0.00238592,0.00770457,-0.000743309,0.0078065,0.00228399,-1.43452,0.00463456,0.0395166,1994,1219,48.6945,-5.12854
777,-195,48.6948,4.72852,0,0,0,0,0,0,0,-1,2001,1219,48.6949,-4.72847
784,-195,51.2444,-0.069458,0,0,0,0,0,0,0,-1,2008,1219,51.2443,0.0694704
791,-195,50.6421,1.65222,0,0,0,0,0,0,0,-1,2015,1219,50.6422,-1.65218
798,-195,53.3943,2.08484,0,0,0,0,0,0,0,-1,2022,1219,53.3943,-2.08489
805,-195,0,0,0,0,0,0,0,0,0,-1,2029,1219,0,0
812,-195,0,0,0,0,0,0,0,0,0,-1,2036,1219,0,0
-700,-202,0,0,0,0,0,0,0,0,0,-1,524,1226,0,0
-693,-202,0,0,0,0,0,0,0,0,0,-1,531,1226,0,0
-686,-202,0,0,0,0,0,0,0,0,0,-1,538,1226,0,0
-679,-202,-35.6099,-1.17578,0,0,0,0,0,0,0,-1,545,1226,-35.6099,1.17576
-672,-202,-39.5427,1.41809,0,0,0,0,0,0,0,-1,552,1226,-39.5427,-1.41805
-665,-202,-40.3221,0.686279,-0.0406295,-0.0178735,-0.00582411,-0.0164695,-0.0420335,-1.33425,0.0244566,0.0470834,559,1226,-40.3221,-0.686296
-658,-202,-41.0885,-0.0198975,0,0,0,0,0,0,0,-1,566,1226,-41.0885,0.0199486
-651,-202,-32.7987,1.67676,0,0,0,0,0,0,0,-1,573,1226,-32.7987,-1.67675
-644,-202,-32.7886,2.20081,0,0,0,0,0,0,0,-1,580,1226,-32.7886,-2.20085
-637,-202,-32.7627,2.64819,-0.0169865,-0.00140979,-0.00697918,0.00125975,-0.019656,-1.20547,0.0135435,0.0446638,587,1226,-32.7627,-2.64814
-630,-202,-32.9463,3.15625,-0.01247,0.000696697,-0.00605321,0.0030566,-0.0148299,-1.19906,0.0110473,0.0190891,594,1226,-32.9463,-3.15627
-623,-202,-32.9724,3.73047,-0.00772089,0.00166439,-0.00579413,0.00442781,-0.0104843,-1.12577,0.00884305,0.00858559,601,1226,-32.9724,-3.73053
-616,-202,-32.9828,4.3092,-0.00518105,0.00162539,-0.00455311,0.0039066,-0.00746226,-1.10633,0.00666996,0.00908987,608,1226,-32.9828,-4.30919
-609,-202,-32.9697,4.93616,-0.00268016,0.000976187,-0.003368,0.0029802,-0.00468417,-1.03405,0.00446133,0.0233377,615,1226,-32.9697,-4.93618
-602,-202,-33.058,5.49805,-0.00114992,-0.000452903,-0.00264591,0.00186735,-0.00347018,-0.850879,0.0031276,0.0234697,622,1226,-33.0581,-5.49806
-595,-202,-33.1403,6.10754,-0.00109136,-0.00136358,-0.00224385,0.0010205,-0.00347544,-0.755106,0.00272167,0.0173201,629,1226,-33.1403,-6.1076
-588,-202,-33.095,6.70752,-0.00218477,-0.000688379,-0.00223181,0.00091731,-0.00379046,-0.947132,0.00288182,0.0205833,636,1226,-33.095,-6.70758
-581,-202,-33.0646,7.05896,0,0,0,0,0,0,0,-1,643,1226,-33.0646,-7.05892
-574,-202,-26.922,5.99512,0,0,0,0,0,0,0,-1,650,1226,-26.922,-5.99512
-567,-202,-22.1768,4.56995,0,0,0,0,0,0,0,-1,657,1226,-22.1768,-4.56991
-560,-202,-10.929,2.73096,0,0,0,0,0,0,0,-1,664,1226,-10.929,-2.73092
-553,-202,-30.2701,1.474,0,0,0,0,0,0,0,-1,671,1226,-30.2701,-1.47395
-546,-202,-44.8184,0.310669,0,0,0,0,0,0,0,-1,678,1226,-44.8184,-0.310637
-539,-202,-44.9775,0.611572,-0.00203364,0.0018552,-0.000758084,0.00199775,-0.0021762,-1.38492,0.00241056,0.0418917,685,1226,-44.9775,-0.61157
-532,-202,-45.2005,0.828613,-0.00201905,0.00259327,-0.000215059,0.00260327,-0.00202906,-1.5243,0.00268132,0.0287475,692,1226,-45.2005,-0.82857
-525,-202,-45.1547,0.678101,-0.00116889,0.0037639,0.000451756,0.00380493,-0.00120992,1.48022,0.00302178,0.0337083,699,1226,-45.1547,-0.67806
-518,-202,-44.8973,0.492188,0.00090047,0.00552009,0.000996884,0.00572603,0.00069453,1.36708,0.00360819,0.0407631,706,1226,-44.8973,-0.492135
-511,-202,-44.9753,0.550415,0.00503326,0.00790527,0.00169735,0.00869258,0.00424596,1.13649,0.00501911,0.0424259,713,1226,-44.9753,-0.550422
-504,-202,0,0,0,0,0,0,0,0,0,-1,720,1226,0,0
-497,-202,0,0,0,0,0,0,0,0,0,-1,727,1226,0,0
-490,-202,0,0,0,0,0,0,0,0,0,-1,734,1226,0,0
-483,-202,0,0,0,0,0,0,0,0,0,-1,741,1226,0,0
-476,-202,0,0,0,0,0,0,0,0,0,-1,748,1226,0,0
-469,-202,0,0,0,0,0,0,0,0,0,-1,755,1226,0,0
-462,-202,0,0,0,0,0,0,0,0,0,-1,762,1226,0,0
-455,-202,0,0,0,0,0,0,0,0,0,-1,769,1226,0,0
-448,-202,0,0,0,0,0,0,0,0,0,-1,776,1226,0,0
-441,-202,0,0,0,0,0,0,0,0,0,-1,783,1226,0,0
-434,-202,0,0,0,0,0,0,0,0,0,-1,790,1226,0,0
-427,-202,0,0,0,0,0,0,0,0,0,-1,797,1226,0,0
-420,-202,0,0,0,0,0,0,0,0,0,-1,804,1226,0,0
-413,-202,0,0,0,0,0,0,0,0,0,-1,811,1226,0,0
-406,-202,0,0,0,0,0,0,0,0,0,-1,818,1226,0,0
-399,-202,0,0,0,0,0,0,0,0,0,-1,825,1226,0,0
-392,-202,0,0,0,0,0,0,0,0,0,-1,832,1226,0,0
-385,-202,0,0,0,0,0,0,0,0,0,-1,839,1226,0,0
-378,-202,0,0,0,0,0,0,0,0,0,-1,846,1226,0,0
-371,-202,0,0,0,0,0,0,0,0,0,-1,853,1226,0,0
-364,-202,0,0,0,0,0,0,0,0,0,-1,860,1226,0,0
-357,-202,0,0,0,0,0,0,0,0,0,-1,867,1226,0,0
-350,-202,0,0,0,0,0,0,0,0,0,-1,874,1226,0,0
-343,-202,0,0,0,0,0,0,0,0,0,-1,881,1226,0,0
-336,-202,0,0,0,0,0,0,0,0,0,-1,888,1226,0,0
-329,-202,0,0,0,0,0,0,0,0,0,-1,895,1226,0,0
-322,-202,0,0,0,0,0,0,0,0,0,-1,902,1226,0,0
-315,-202,0,0,0,0,0,0,0,0,0,-1,909,1226,0,0
-308,-202,0,0,0,0,0,0,0,0,0,-1,916,1226,0,0
-301,-202,0,0,0,0,0,0,0,0,0,-1,923,1226,0,0
-294,-202,0,0,0,0,0,0,0,0,0,-1,930,1226,0,0
-287,-202,0,0,0,0,0,0,0,0,0,-1,937,1226,0,0
-280,-202,0,0,0,0,0,0,0,0,0,-1,944,1226,0,0
-273,-202,0,0,0,0,0,0,0,0,0,-1,951,1226,0,0
-266,-202,0,0,0,0,0,0,0,0,0,-1,958,1226,0,0
-259,-202,0,0,0,0,0,0,0,0,0,-1,965,1226,0,0
-252,-202,0,0,0,0,0,0,0,0,0,-1,972,1226,0,0
-245,-202,0,0,0,0,0,0,0,0,0,-1,979,1226,0,0
-238,-202,0,0,0,0,0,0,0,0,0,-1,986,1226,0,0
-231,-202,0,0,0,0,0,0,0,0,0,-1,993,1226,0,0
-224,-202,0,0,0,0,0,0,0,0,0,-1,1000,1226,0,0
-217,-202,0,0,0,0,0,0,0,0,0,-1,1007,1226,0,0
-210,-202,0,0,0,0,0,0,0,0,0,-1,1014,1226,0,0
-203,-202,0,0,0,0,0,0,0,0,0,-1,1021,1226,0,0
-196,-202,0,0,0,0,0,0,0,0,0,-1,1028,1226,0,0
-189,-202,0,0,0,0,0,0,0,0,0,-1,1035,1226,0,0
-182,-202,0,0,0,0,0,0,0,0,0,-1,1042,1226,0,0
-175,-202,0,0,0,0,0,0,0,0,0,-1,1049,1226,0,0
-168,-202,0,0,0,0,0,0,0,0,0,-1,1056,1226,0,0
-161,-202,0,0,0,0,0,0,0,0,0,-1,1063,1226,0,0
-154,-202,0,0,0,0,0,0,0,0,0,-1,1070,1226,0,0
-147,-202,0,0,0,0,0,0,0,0,0,-1,1077,1226,0,0
-140,-202,0,0,0,0,0,0,0,0,0,-1,1084,1226,0,0
-133,-202,0,0,0,0,0,0,0,0,0,-1,1091,1226,0,0
-126,-202,0,0,0,0,0,0,0,0,0,-1,1098,1226,0,0
-119,-202,0,0,0,0,0,0,0,0,0,-1,1105,1226,0,0
-112,-202,0,0,0,0,0,0,0,0,0,-1,1112,1226,0,0
-105,-202,0,0,0,0,0,0,0,0,0,-1,1119,1226,0,0
-98,-202,0,0,0,0,0,0,0,0,0,-1,1126,1226,0,0
-91,-202,0,0,0,0,0,0,0,0,0,-1,1133,1226,0,0
-84,-202,0,0,0,0,0,0,0,0,0,-1,1140,1226,0,0
-77,-202,0,0,0,0,0,0,0,0,0,-1,1147,1226,0,0
-70,-202,0,0,0,0,0,0,0,0,0,-1,1154,1226,0,0
-63,-202,0,0,0,0,0,0,0,0,0,-1,1161,1226,0,0
-56,-202,0,0,0,0,0,0,0,0,0,-1,1168,1226,0,0
-49,-202,0,0,0,0,0,0,0,0,0,-1,1175,1226,0,0
-42,-202,0,0,0,0,0,0,0,0,0,-1,1182,1226,0,0
-35,-202,0,0,0,0,0,0,0,0,0,-1,1189,1226,0,0
-28,-202,0,0,0,0,0,0,0,0,0,-1,1196,1226,0,0
-21,-202,0,0,0,0,0,0,0,0,0,-1,1203,1226,0,0
-14,-202,0,0,0,0,0,0,0,0,0,-1,1210,1226,0,0
-7,-202,0,0,0,0,0,0,0,0,0,-1,1217,1226,0,0
0,-202,0,0,0,0,0,0,0,0,0,-1,1224,1226,0,0
7,-202,0,0,0,0,0,0,0,0,0,-1,1231,1226,0,0
14,-202,0,0,0,0,0,0,0,0,0,-1,1238,1226,0,0
21,-202,0,0,0,0,0,0,0,0,0,-1,1245,1226,0,0
28,-202,0,0,0,0,0,0,0,0,0,-1,1252,1226,0,0
35,-202,0,0,0,0,0,0,0,0,0,-1,1259,1226,0,0
42,-202,0,0,0,0,0,0,0,0,0,-1,1266,1226,0,0
49,-202,0,0,0,0,0,0,0,0,0,-1,1273,1226,0,0
56,-202,0,0,0,0,0,0,0,0,0,-1,1280,1226,0,0
63,-202,0,0,0,0,0,0,0,0,0,-1,1287,1226,0,0
70,-202,0,0,0,0,0,0,0,0,0,-1,1294,1226,0,0
77,-202,0,0,0,0,0,0,0,0,0,-1,1301,1226,0,0
84,-202,0,0,0,0,0,0,0,0,0,-1,1308,1226,0,0
91,-202,0,0,0,0,0,0,0,0,0,-1,1315,1226,0,0
98,-202,0,0,0,0,0,0,0,0,0,-1,1322,1226,0,0
105,-202,0,0,0,0,0,0,0,0,0,-1,1329,1226,0,0
112,-202,0,0,0,0,0,0,0,0,0,-1,1336,1226,0,0
119,-202,0,0,0,0,0,0,0,0,0,-1,1343,1226,0,0
126,-202,0,0,0,0,0,0,0,0,0,-1,1350,1226,0,0
133,-202,0,0,0,0,0,0,0,0,0,-1,1357,1226,0,0
140,-202,0,0,0,0,0,0,0,0,0,-1,1364,1226,0,0
147,-202,0,0,0,0,0,0,0,0,0,-1,1371,1226,0,0
154,-202,0,0,0,0,0,0,0,0,0,-1,1378,1226,0,0
161,-202,0,0,0,0,0,0,0,0,0,-1,1385,1226,0,0
168,-202,0,0,0,0,0,0,0,0,0,-1,1392,1226,0,0
175,-202,0,0,0,0,0,0,0,0,0,-1,1399,1226,0,0
182,-202,0,0,0,0,0,0,0,0,0,-1,1406,1226,0,0
189,-202,0,0,0,0,0,0,0,0,0,-1,1413,1226,0,0
196,-202,0,0,0,0,0,0,0,0,0,-1,1420,1226,0,0
203,-202,0,0,0,0,0,0,0,0,0,-1,1427,1226,0,0
210,-202,0,0,0,0,0,0,0,0,0,-1,1434,1226,0,0
217,-202,0,0,0,0,0,0,0,0,0,-1,1441,1226,0,0
224,-202,0,0,0,0,0,0,0,0,0,-1,1448,1226,0,0
231,-202,0,0,0,0,0,0,0,0,0,-1,1455,1226,0,0
238,-202,0,0,0,0,0,0,0,0,0,-1,1462,1226,0,0
245,-202,0,0,0,0,0,0,0,0,0,-1,1469,1226,0,0
252,-202,0,0,0,0,0,0,0,0,0,-1,1476,1226,0,0
259,-202,0,0,0,0,0,0,0,0,0,-1,1483,1226,0,0
266,-202,0,0,0,0,0,0,0,0,0,-1,1490,1226,0,0
273,-202,0,0,0,0,0,0,0,0,0,-1,1497,1226,0,0
280,-202,0,0,0,0,0,0,0,0,0,-1,1504,1226,0,0
287,-202,0,0,0,0,0,0,0,0,0,-1,1511,1226,0,0
294,-202,0,0,0,0,0,0,0,0,0,-1,1518,1226,0,0
301,-202,0,0,0,0,0,0,0,0,0,-1,1525,1226,0,0
308,-202,0,0,0,0,0,0,0,0,0,-1,1532,1226,0,0
315,-202,0,0,0,0,0,0,0,0,0,-1,1539,1226,0,0
322,-202,0,0,0,0,0,0,0,0,0,-1,1546,1226,0,0
329,-202,0,0,0,0,0,0,0,0,0,-1,1553,1226,0,0
336,-202,0,0,0,0,0,0,0,0,0,-1,1560,1226,0,0
343,-202,0,0,0,0,0,0,0,0,0,-1,1567,1226,0,0
350,-202,0,0,0,0,0,0,0,0,0,-1,1574,1226,0,0
357,-202,0,0,0,0,0,0,0,0,0,-1,1581,1226,0,0
364,-202,0,0,0,0,0,0,0,0,0,-1,1588,1226,0,0
371,-202,0,0,0,0,0,0,0,0,0,-1,1595,1226,0,0
378,-202,0,0,0,0,0,0,0,0,0,-1,1602,1226,0,0
385,-202,0,0,0,0,0,0,0,0,0,-1,1609,1226,0,0
392,-202,0,0,0,0,0,0,0,0,0,-1,1616,1226,0,0
399,-202,0,0,0,0,0,0,0,0,0,-1,1623,1226,0,0
406,-202,0,0,0,0,0,0,0,0,0,-1,1630,1226,0,0
413,-202,0,0,0,0,0,0,0,0,0,-1,1637,1226,0,0
420,-202,0,0,0,0,0,0,0,0,0,-1,1644,1226,0,0
427,-202,0,0,0,0,0,0,0,0,0,-1,1651,1226,0,0
434,-202,0,0,0,0,0,0,0,0,0,-1,1658,1226,0,0
441,-202,0,0,0,0,0,0,0,0,0,-1,1665,1226,0,0
448,-202,0,0,0,0,0,0,0,0,0,-1,1672,1226,0,0
455,-202,0,0,0,0,0,0,0,0,0,-1,1679,1226,0,0
462,-202,0,0,0,0,0,0,0,0,0,-1,1686,1226,0,0
469,-202,0,0,0,0,0,0,0,0,0,-1,1693,1226,0,0
476,-202,0,0,0,0,0,0,0,0,0,-1,1700,1226,0,0
483,-202,0,0,0,0,0,0,0,0,0,-1,1707,1226,0,0
490,-202,0,0,0,0,0,0,0,0,0,-1,1714,1226,0,0
497,-202,0,0,0,0,0,0,0,0,0,-1,1721,1226,0,0
504,-202,0,0,0,0,0,0,0,0,0,-1,1728,1226,0,0
511,-202,0,0,0,0,0,0,0,0,0,-1,1735,1226,0,0
518,-202,0,0,0,0,0,0,0,0,0,-1,1742,1226,0,0
525,-202,0,0,0,0,0,0,0,0,0,-1,1749,1226,0,0
532,-202,0,0,0,0,0,0,0,0,0,-1,1756,1226,0,0
539,-202,0,0,0,0,0,0,0,0,0,-1,1763,1226,0,0
546,-202,0,0,0,0,0,0,0,0,0,-1,1770,1226,0,0
553,-202,0,0,0,0,0,0,0,0,0,-1,1777,1226,0,0
560,-202,0,0,0,0,0,0,0,0,0,-1,1784,1226,0,0
567,-202,0,0,0,0,0,0,0,0,0,-1,1791,1226,0,0
574,-202,0,0,0,0,0,0,0,0,0,-1,1798,1226,0,0
581,-202,0,0,0,0,0,0,0,0,0,-1,1805,1226,0,0
588,-202,0,0,0,0,0,0,0,0,0,-1,1812,1226,0,0
595,-202,0,0,0,0,0,0,0,0,0,-1,1819,1226,0,0
602,-202,0,0,0,0,0,0,0,0,0,-1,1826,1226,0,0
609,-202,0,0,0,0,0,0,0,0,0,-1,1833,1226,0,0
616,-202,0,0,0,0,0,0,0,0,0,-1,1840,1226,0,0
623,-202,0,0,0,0,0,0,0,0,0,-1,1847,1226,0,0
630,-202,60.0409,2.5896,0.00188558,-0.0010466,-0.00124815,0.00234493,-0.00150594,-0.352637,0.00224082,0.037264,1854,1226,60.0409,-2.58958
637,-202,60.1545,2.62927,0.000696774,0.000210418,-0.00134658,0.00182195,-0.000914761,-0.696066,0.00160872,0.0350371,1861,1226,60.1545,-2.6293
644,-202,60.0951,2.55908,-0.000161471,0.00149286,-0.00170625,0.00256187,-0.00123048,-1.0111,0.00223404,0.0318841,1868,1226,60.095,-2.55905
651,-202,60.066,2.55518,-0.000367364,0.00226981,-0.00210423,0.00343446,-0.00153201,-1.06529,0.00293668,0.025839,1875,1226,60.066,-2.55519
658,-202,60.0664,2.59131,3.94942e-05,0.00219747,-0.00222155,0.0035882,-0.00135124,-1.01147,0.00294766,0.0228564,1882,1226,60.0664,-2.59131
665,-202,60.1058,2.55237,0.000441994,0.00177405,-0.00206153,0.00327447,-0.00105843,-0.941643,0.00260838,0.0215883,1889,1226,60.1058,-2.55239
672,-202,60.1885,2.43909,0.000901054,0.00133885,-0.00182941,0.00296242,-0.000722513,-0.844942,0.0022547,0.042004,1896,1226,60.1885,-2.43915
679,-202,60.2948,2.34412,0,0,0,0,0,0,0,-1,1903,1226,60.2948,-2.34406
686,-202,49.1708,2.15198,0,0,0,0,0,0,0,-1,1910,1226,49.1708,-2.15195
693,-202,48.1899,11.5154,0,0,0,0,0,0,0,-1,1917,1226,48.19,-11.5154
700,-202,48.2921,10.6893,0.00150906,0.000328048,-0.00086,0.00196177,-0.00012466,-0.484548,0.00135132,0.047142,1924,1226,48.2921,-10.6893
707,-202,48.3336,9.82703,0.00178635,0.000170044,-0.000788195,0.00210707,-0.00015068,-0.386449,0.00145754,0.032666,1931,1226,48.3336,-9.82701
714,-202,48.2512,9.34924,0.00198108,2.38062e-05,-0.000510202,0.00210609,-0.000101204,-0.240287,0.00143898,0.0314045,1938,1226,48.2512,-9.34924
721,-202,48.2821,9.00134,0.00194901,-0.000322232,-0.000109025,0.00195423,-0.000327453,-0.0478558,0.00142457,0.0179661,1945,1226,48.2821,-9.00138
728,-202,48.2687,8.34985,0.00179494,-0.00031971,0.0003374,0.00184746,-0.000372238,0.154447,0.00137265,0.0112189,1952,1226,48.2687,-8.34984
735,-202,48.2418,7.7854,0.0016718,0.000213382,0.000765774,0.00200002,-0.000114838,0.404926,0.00137323,0.0111373,1959,1226,48.2418,-7.78539
742,-202,48.2072,7.22852,0.0015251,0.000924564,0.0013359,0.00259407,-0.000144398,0.674851,0.00177946,0.0122129,1966,1226,48.2072,-7.22849
749,-202,48.1534,6.69019,0.00151659,0.00208024,0.00172608,0.00354735,4.9478e-05,0.866321,0.00234858,0.0131861,1973,1226,48.1534,-6.69015
756,-202,48.1592,6.16797,0.00169603,0.00391855,0.00181813,0.00493813,0.000676449,1.05971,0.00309137,0.012962,1980,1226,48.1591,-6.16799
763,-202,48.2412,5.68774,0.00230092,0.00629614,0.00161242,0.00686569,0.00173136,1.23125,0.00412302,0.0234174,1987,1226,48.2412,-5.68773
770,-202,48.3019,5.26257,0,0,0,0,0,0,0,-1,1994,1226,48.3018,-5.26259
777,-202,53.3003,-4.00098,0,0,0,0,0,0,0,-1,2001,1226,53.3002,4.00099
784,-202,52.9231,-1.28162,0,0,0,0,0,0,0,-1,2008,1226,52.9232,1.28167
791,-202,52.2668,1.22656,0,0,0,0,0,0,0,-1,2015,1226,52.2668,-1.22651
798,-202,51.8999,3.58789,0,0,0,0,0,0,0,-1,2022,1226,51.9,-3.58791
805,-202,0,0,0,0,0,0,0,0,0,-1,2029,1226,0,0
812,-202,0,0,0,0,0,0,0,0,0,-1,2036,1226,0,0
-700,-209,0,0,0,0,0,0,0,0,0,-1,524,1233,0,0
-693,-209,0,0,0,0,0,0,0,0,0,-1,531,1233,0,0
-686,-209,0,0,0,0,0,0,0,0,0,-1,538,1233,0,0
-679,-209,-39.7174,2.927,-0.0497063,-0.0315204,-0.0142919,-0.0236741,-0.0575527,-1.06872,0.0334017,0.0461266,545,1233,-39.7174,-2.92705
-672,-209,-40.5507,2.13843,0,0,0,0,0,0,0,-1,552,1233,-40.5507,-2.13847
-665,-209,-41.2851,1.39392,0,0,0,0,0,0,0,-1,559,1233,-41.2851,-1.39397
-658,-209,-41.8462,0.642456,0,0,0,0,0,0,0,-1,566,1233,-41.8462,-0.642448
-651,-209,-43.5882,0.389282,-0.026923,-0.00780562,-0.0143538,-0.00011903,-0.0346096,-1.07915,0.0230335,0.0483787,573,1233,-43.5882,-0.389335
-644,-209,-44.0176,-0.588989,-0.0215144,-0.00400311,-0.013379,0.00323054,-0.0287481,-1.07514,0.020328,0.0497328,580,1233,-44.0176,0.589003
-637,-209,-32.2711,2.672,0,0,0,0,0,0,0,-1,587,1233,-32.2711,-2.67196
-630,-209,-32.2303,3.11523,-0.0122657,0.000853672,-0.00992405,0.00619004,-0.0176021,-1.07743,0.0142534,0.0314727,594,1233,-32.2303,-3.11526
-623,-209,-32.3471,3.74048,-0.00765918,0.00186801,-0.00861052,0.00694479,-0.012736,-1.03806,0.0115255,0.0142474,601,1233,-32.3471,-3.74042
-616,-209,-32.3911,4.35022,-0.00523981,0.00196973,-0.00634055,0.00565858,-0.00892866,-1.04388,0.0084922,0.0123658,608,1233,-32.3911,-4.35021
-609,-209,-32.3992,4.95288,-0.00278218,0.00150239,-0.00428639,0.00415203,-0.00543182,-1.01714,0.00554965,0.0156212,615,1233,-32.3993,-4.95287
-602,-209,-32.4498,5.55884,-0.00107763,0.000105213,-0.00291824,0.00249136,-0.00346378,-0.885376,0.00345344,0.018582,622,1233,-32.4498,-5.55884
-595,-209,-32.4625,6.14429,-0.000603207,-0.00118544,-0.00208098,0.00120692,-0.00299557,-0.715902,0.00249849,0.0132142,629,1233,-32.4625,-6.1443
-588,-209,-32.4799,6.78882,-0.00152806,-0.00105333,-0.00199083,0.000714233,-0.00329562,-0.844733,0.00246983,0.0244897,636,1233,-32.4798,-6.78878
-581,-209,-32.4882,7.41162,0,0,0,0,0,0,0,-1,643,1233,-32.4882,-7.41157
-574,-209,-26.2147,6.6123,0,0,0,0,0,0,0,-1,650,1233,-26.2147,-6.61234
-567,-209,-26.2951,6.92981,0,0,0,0,0,0,0,-1,657,1233,-26.2951,-6.92986
-560,-209,-13.9294,4.16626,0,0,0,0,0,0,0,-1,664,1233,-13.9294,-4.16621
-553,-209,-22.7542,0.748779,0,0,0,0,0,0,0,-1,671,1233,-22.7541,-0.748796
-546,-209,-44.691,0.142822,0,0,0,0,0,0,0,-1,678,1233,-44.6911,-0.142844
-539,-209,-44.8401,0.444702,-0.00167814,0.00143595,-0.00033806,0.00147223,-0.00171441,-1.4639,0.00184158,0.0470455,685,1233,-44.8401,-0.444703
-532,-209,-45.0327,0.802124,-0.00176306,0.00219452,0.000147885,0.00220003,-0.00176858,1.5335,0.00229579,0.0326371,692,1233,-45.0327,-0.802128
-525,-209,-45.1736,0.815552,-0.00140588,0.00333764,0.000749587,0.00345328,-0.00152152,1.41774,0.00294349,0.033082,699,1233,-45.1736,-0.81557
-518,-209,-45.2004,0.770386,-0.000425017,0.00493864,0.00140282,0.00528338,-0.000769758,1.32982,0.00380488,0.0412718,706,1233,-45.2004,-0.770357
-511,-209,-45.1921,0.854858,0.00222026,0.00716325,0.00218403,0.00798997,0.00139353,1.20893,0.00492826,0.0421687,713,1233,-45.1921,-0.854823
-504,-209,0,0,0,0,0,0,0,0,0,-1,720,1233,0,0
-497,-209,0,0,0,0,0,0,0,0,0,-1,727,1233,0,0
-490,-209,0,0,0,0,0,0,0,0,0,-1,734,1233,0,0
-483,-209,0,0,0,0,0,0,0,0,0,-1,741,1233,0,0
-476,-209,0,0,0,0,0,0,0,0,0,-1,748,1233,0,0
-469,-209,0,0,0,0,0,0,0,0,0,-1,755,1233,0,0
-462,-209,0,0,0,0,0,0,0,0,0,-1,762,1233,0,0
-455,-209,0,0,0,0,0,0,0,0,0,-1,769,1233,0,0
-448,-209,0,0,0,0,0,0,0,0,0,-1,776,1233,0,0
-441,-209,0,0,0,0,0,0,0,0,0,-1,783,1233,0,0
-434,-209,0,0,0,0,0,0,0,0,0,-1,790,1233,0,0
-427,-209,0,0,0,0,0,0,0,0,0,-1,797,1233,0,0
-420,-209,0,0,0,0,0,0,0,0,0,-1,804,1233,0,0
-413,-209,0,0,0,0,0,0,0,0,0,-1,811,1233,0,0
-406,-209,0,0,0,0,0,0,0,0,0,-1,818,1233,0,0
-399,-209,0,0,0,0,0,0,0,0,0,-1,825,1233,0,0
-392,-209,0,0,0,0,0,0,0,0,0,-1,832,1233,0,0
-385,-209,0,0,0,0,0,0,0,0,0,-1,839,1233,0,0
-378,-209,0,0,0,0,0,0,0,0,0,-1,846,1233,0,0
-371,-209,0,0,0,0,0,0,0,0,0,-1,853,1233,0,0
-364,-209,0,0,0,0,0,0,0,0,0,-1,860,1233,0,0
-357,-209,0,0,0,0,0,0,0,0,0,-1,867,1233,0,0
-350,-209,0,0,0,0,0,0,0,0,0,-1,874,1233,0,0
-343,-209,0,0,0,0,0,0,0,0,0,-1,881,1233,0,0
-336,-209,0,0,0,0,0,0,0,0,0,-1,888,1233,0,0
-329,-209,0,0,0,0,0,0,0,0,0,-1,895,1233,0,0
-322,-209,0,0,0,0,0,0,0,0,0,-1,902,1233,0,0
-315,-209,0,0,0,0,0,0,0,0,0,-1,909,1233,0,0
-308,-209,0,0,0,0,0,0,0,0,0,-1,916,1233,0,0
-301,-209,0,0,0,0,0,0,0,0,0,-1,923,1233,0,0
-294,-209,0,0,0,0,0,0,0,0,0,-1,930,1233,0,0
-287,-209,0,0,0,0,0,0,0,0,0,-1,937,1233,0,0
-280,-209,0,0,0,0,0,0,0,0,0,-1,944,1233,0,0
-273,-209,0,0,0,0,0,0,0,0,0,-1,951,1233,0,0
-266,-209,0,0,0,0,0,0,0,0,0,-1,958,1233,0,0
-259,-209,0,0,0,0,0,0,0,0,0,-1,965,1233,0,0
-252,-209,0,0,0,0,0,0,0,0,0,-1,972,1233,0,0
-245,-209,0,0,0,0,0,0,0,0,0,-1,979,1233,0,0
-238,-209,0,0,0,0,0,0,0,0,0,-1,986,1233,0,0
-231,-209,0,0,0,0,0,0,0,0,0,-1,993,1233,0,0
-224,-209,0,0,0,0,0,0,0,0,0,-1,1000,1233,0,0
-217,-209,0,0,0,0,0,0,0,0,0,-1,1007,1233,0,0
-210,-209,0,0,0,0,0,0,0,0,0,-1,1014,1233,0,0
-203,-209,0,0,0,0,0,0,0,0,0,-1,1021,1233,0,0
-196,-209,0,0,0,0,0,0,0,0,0,-1,1028,1233,0,0
-189,-209,0,0,0,0,0,0,0,0,0,-1,1035,1233,0,0
-182,-209,0,0,0,0,0,0,0,0,0,-1,1042,1233,0,0
-175,-209,0,0,0,0,0,0,0,0,0,-1,1049,1233,0,0
-168,-209,0,0,0,0,0,0,0,0,0,-1,1056,1233,0,0
-161,-209,0,0,0,0,0,0,0,0,0,-1,1063,1233,0,0
-154,-209,0,0,0,0,0,0,0,0,0,-1,1070,1233,0,0
-147,-209,0,0,0,0,0,0,0,0,0,-1,1077,1233,0,0
-140,-209,0,0,0,0,0,0,0,0,0,-1,1084,1233,0,0
-133,-209,0,0,0,0,0,0,0,0,0,-1,1091,1233,0,0
-126,-209,0,0,0,0,0,0,0,0,0,-1,1098,1233,0,0
-119,-209,0,0,0,0,0,0,0,0,0,-1,1105,1233,0,0
-112,-209,0,0,0,0,0,0,0,0,0,-1,1112,1233,0,0
-105,-209,0,0,0,0,0,0,0,0,0,-1,1119,1233,0,0
-98,-209,0,0,0,0,0,0,0,0,0,-1,1126,1233,0,0
-91,-209,0,0,0,0,0,0,0,0,0,-1,1133,1233,0,0
-84,-209,0,0,0,0,0,0,0,0,0,-1,1140,1233,0,0
-77,-209,0,0,0,0,0,0,0,0,0,-1,1147,1233,0,0
-70,-209,0,0,0,0,0,0,0,0,0,-1,1154,1233,0,0
-63,-209,0,0,0,0,0,0,0,0,0,-1,1161,1233,0,0
-56,-209,0,0,0,0,0,0,0,0,0,-1,1168,1233,0,0
-49,-209,0,0,0,0,0,0,0,0,0,-1,1175,1233,0,0
-42,-209,0,0,0,0,0,0,0,0,0,-1,1182,1233,0,0
-35,-209,0,0,0,0,0,0,0,0,0,-1,1189,1233,0,0
-28,-209,0,0,0,0,0,0,0,0,0,-1,1196,1233,0,0
-21,-209,0,0,0,0,0,0,0,0,0,-1,1203,1233,0,0
-14,-209,0,0,0,0,0,0,0,0,0,-1,1210,1233,0,0
-7,-209,0,0,0,0,0,0,0,0,0,-1,1217,1233,0,0
0,-209,0,0,0,0,0,0,0,0,0,-1,1224,1233,0,0
7,-209,0,0,0,0,0,0,0,0,0,-1,1231,1233,0,0
14,-209,0,0,0,0,0,0,0,0,0,-1,1238,1233,0,0
21,-209,0,0,0,0,0,0,0,0,0,-1,1245,1233,0,0
28,-209,0,0,0,0,0,0,0,0,0,-1,1252,1233,0,0
35,-209,0,0,0,0,0,0,0,0,0,-1,1259,1233,0,0
42,-209,0,0,0,0,0,0,0,0,0,-1,1266,1233,0,0
49,-209,0,0,0,0,0,0,0,0,0,-1,1273,1233,0,0
56,-209,0,0,0,0,0,0,0,0,0,-1,1280,1233,0,0
63,-209,0,0,0,0,0,0,0,0,0,-1,1287,1233,0,0
70,-209,0,0,0,0,0,0,0,0,0,-1,1294,1233,0,0
77,-209,0,0,0,0,0,0,0,0,0,-1,1301,1233,0,0
84,-209,0,0,0,0,0,0,0,0,0,-1,1308,1233,0,0
91,-209,0,0,0,0,0,0,0,0,0,-1,1315,1233,0,0
98,-209,0,0,0,0,0,0,0,0,0,-1,1322,1233,0,0
105,-209,0,0,0,0,0,0,0,0,0,-1,1329,1233,0,0
112,-209,0,0,0,0,0,0,0,0,0,-1,1336,1233,0,0
119,-209,0,0,0,0,0,0,0,0,0,-1,1343,1233,0,0
126,-209,0,0,0,0,0,0,0,0,0,-1,1350,1233,0,0
133,-209,0,0,0,0,0,0,0,0,0,-1,1357,1233,0,0
140,-209,0,0,0,0,0,0,0,0,0,-1,1364,1233,0,0
147,-209,0,0,0,0,0,0,0,0,0,-1,1371,1233,0,0
154,-209,0,0,0,0,0,0,0,0,0,-1,1378,1233,0,0
161,-209,0,0,0,0,0,0,0,0,0,-1,1385,1233,0,0
168,-209,0,0,0,0,0,0,0,0,0,-1,1392,1233,0,0
175,-209,0,0,0,0,0,0,0,0,0,-1,1399,1233,0,0
182,-209,0,0,0,0,0,0,0,0,0,-1,1406,1233,0,0
189,-209,0,0,0,0,0,0,0,0,0,-1,1413,1233,0,0
196,-209,0,0,0,0,0,0,0,0,0,-1,1420,1233,0,0
203,-209,0,0,0,0,0,0,0,0,0,-1,1427,1233,0,0
210,-209,0,0,0,0,0,0,0,0,0,-1,1434,1233,0,0
217,-209,0,0,0,0,0,0,0,0,0,-1,1441,1233,0,0
224,-209,0,0,0,0,0,0,0,0,0,-1,1448,1233,0,0
231,-209,0,0,0,0,0,0,0,0,0,-1,1455,1233,0,0
238,-209,0,0,0,0,0,0,0,0,0,-1,1462,1233,0,0
245,-209,0,0,0,0,0,0,0,0,0,-1,1469,1233,0,0
252,-209,0,0,0,0,0,0,0,0,0,-1,1476,1233,0,0
259,-209,0,0,0,0,0,0,0,0,0,-1,1483,1233,0,0
266,-209,0,0,0,0,0,0,0,0,0,-1,1490,1233,0,0
273,-209,0,0,0,0,0,0,0,0,0,-1,1497,1233,0,0
280,-209,0,0,0,0,0,0,0,0,0,-1,1504,1233,0,0
287,-209,0,0,0,0,0,0,0,0,0,-1,1511,1233,0,0
294,-209,0,0,0,0,0,0,0,0,0,-1,1518,1233,0,0
301,-209,0,0,0,0,0,0,0,0,0,-1,1525,1233,0,0
308,-209,0,0,0,0,0,0,0,0,0,-1,1532,1233,0,0
315,-209,0,0,0,0,0,0,0,0,0,-1,1539,1233,0,0
322,-209,0,0,0,0,0,0,0,0,0,-1,1546,1233,0,0
329,-209,0,0,0,0,0,0,0,0,0,-1,1553,1233,0,0
336,-209,0,0,0,0,0,0,0,0,0,-1,1560,1233,0,0
343,-209,0,0,0,0,0,0,0,0,0,-1,1567,1233,0,0
350,-209,0,0,0,0,0,0,0,0,0,-1,1574,1233,0,0
357,-209,0,0,0,0,0,0,0,0,0,-1,1581,1233,0,0
364,-209,0,0,0,0,0,0,0,0,0,-1,1588,1233,0,0
371,-209,0,0,0,0,0,0,0,0,0,-1,1595,1233,0,0
378,-209,0,0,0,0,0,0,0,0,0,-1,1602,1233,0,0
385,-209,0,0,0,0,0,0,0,0,0,-1,1609,1233,0,0
392,-209,0,0,0,0,0,0,0,0,0,-1,1616,1233,0,0
399,-209,0,0,0,0,0,0,0,0,0,-1,1623,1233,0,0
406,-209,0,0,0,0,0,0,0,0,0,-1,1630,1233,0,0
413,-209,0,0,0,0,0,0,0,0,0,-1,1637,1233,0,0
420,-209,0,0,0,0,0,0,0,0,0,-1,1644,1233,0,0
427,-209,0,0,0,0,0,0,0,0,0,-1,1651,1233,0,0
434,-209,0,0,0,0,0,0,0,0,0,-1,1658,1233,0,0
441,-209,0,0,0,0,0,0,0,0,0,-1,1665,1233,0,0
448,-209,0,0,0,0,0,0,0,0,0,-1,1672,1233,0,0
455,-209,0,0,0,0,0,0,0,0,0,-1,1679,1233,0,0
462,-209,0,0,0,0,0,0,0,0,0,-1,1686,1233,0,0
469,-209,0,0,0,0,0,0,0,0,0,-1,1693,1233,0,0
476,-209,0,0,0,0,0,0,0,0,0,-1,1700,1233,0,0
483,-209,0,0,0,0,0,0,0,0,0,-1,1707,1233,0,0
490,-209,0,0,0,0,0,0,0,0,0,-1,1714,1233,0,0
497,-209,0,0,0,0,0,0,0,0,0,-1,1721,1233,0,0
504,-209,0,0,0,0,0,0,0,0,0,-1,1728,1233,0,0
511,-209,0,0,0,0,0,0,0,0,0,-1,1735,1233,0,0
518,-209,0,0,0,0,0,0,0,0,0,-1,1742,1233,0,0
525,-209,0,0,0,0,0,0,0,0,0,-1,1749,1233,0,0
532,-209,0,0,0,0,0,0,0,0,0,-1,1756,1233,0,0
539,-209,0,0,0,0,0,0,0,0,0,-1,1763,1233,0,0
546,-209,0,0,0,0,0,0,0,0,0,-1,1770,1233,0,0
553,-209,0,0,0,0,0,0,0,0,0,-1,1777,1233,0,0
560,-209,0,0,0,0,0,0,0,0,0,-1,1784,1233,0,0
567,-209,0,0,0,0,0,0,0,0,0,-1,1791,1233,0,0
574,-209,0,0,0,0,0,0,0,0,0,-1,1798,1233,0,0
581,-209,0,0,0,0,0,0,0,0,0,-1,1805,1233,0,0
588,-209,0,0,0,0,0,0,0,0,0,-1,1812,1233,0,0
595,-209,0,0,0,0,0,0,0,0,0,-1,1819,1233,0,0
602,-209,0,0,0,0,0,0,0,0,0,-1,1826,1233,0,0
609,-209,0,0,0,0,0,0,0,0,0,-1,1833,1233,0,0
616,-209,0,0,0,0,0,0,0,0,0,-1,1840,1233,0,0
623,-209,59.9979,2.50891,0.00299281,-0.00275636,-0.00110887,0.00319927,-0.00296282,-0.184081,0.00355856,0.0354819,1847,1233,59.998,-2.50897
630,-209,59.9377,2.40747,0.00113786,-0.0010478,-0.00123201,0.00169188,-0.00160182,-0.422597,0.00190185,0.0379835,1854,1233,59.9378,-2.40743
637,-209,60.0287,2.47192,-0.000357857,0.000595202,-0.00157233,0.00176163,-0.00152429,-0.932534,0.00189877,0.0356308,1861,1233,60.0287,-2.4719
644,-209,60.0762,2.46436,-0.00137481,0.00216578,-0.00213763,0.00317099,-0.00238001,-1.13124,0.0032157,0.0304534,1868,1233,60.0762,-2.46433
651,-209,60.0953,2.53894,-0.00141244,0.00274618,-0.00251447,0.00392971,-0.00259597,-1.13087,0.00379374,0.0249009,1875,1233,60.0953,-2.53892
658,-209,60.0715,2.55261,-0.000801196,0.00240152,-0.00254115,0.00380379,-0.00220347,-1.06655,0.00350908,0.0218168,1882,1233,60.0715,-2.55267
665,-209,60.1238,2.40295,-0.000255124,0.00182156,-0.00231446,0.00331992,-0.00175349,-0.996256,0.00297531,0.0366164,1889,1233,60.1237,-2.40301
672,-209,60.2328,2.18506,0,0,0,0,0,0,0,-1,1896,1233,60.2328,-2.18501
679,-209,55.2465,2.78674,0,0,0,0,0,0,0,-1,1903,1233,55.2464,-2.78678
686,-209,33.3711,3.89856,0,0,0,0,0,0,0,-1,1910,1233,33.3711,-3.89855
693,-209,47.4766,11.4415,0,0,0,0,0,0,0,-1,1917,1233,47.4766,-11.4416
700,-209,47.6202,10.682,0.00135213,-2.59525e-05,-0.000975868,0.0018577,-0.000531522,-0.478,0.00144852,0.0438669,1924,1233,47.6202,-10.682
707,-209,47.7056,9.99695,0.0016128,-0.000276276,-0.00086582,0.00194959,-0.000613065,-0.370972,0.00154517,0.0366112,1931,1233,47.7056,-9.99691
714,-209,47.6926,9.49854,0.00170748,-0.000392346,-0.000467966,0.00180705,-0.000491915,-0.209644,0.00139783,0.0221894,1938,1233,47.6926,-9.49848
721,-209,47.7214,8.92212,0.00156962,-0.000723453,9.00221e-05,0.00157314,-0.000726982,0.039178,0.0013576,0.0134429,1945,1233,47.7214,-8.92208
728,-209,47.7257,8.37231,0.0013527,-0.000597119,0.000644995,0.00154675,-0.000791169,0.292242,0.00137309,0.0136851,1952,1233,47.7257,-8.37229
735,-209,47.7009,7.82031,0.00119213,-4.59687e-05,0.00117919,0.00190489,-0.000758723,0.543682,0.00158458,0.015223,1959,1233,47.701,-7.8203
742,-209,47.6691,7.25513,0.00107082,0.000704805,0.0018228,0.00271978,-0.000944155,0.735366,0.00219662,0.0147045,1966,1233,47.6691,-7.25508
749,-209,47.6118,6.71301,0.00114378,0.00174191,0.00237612,0.00383771,-0.000952028,0.848,0.00292787,0.0134021,1973,1233,47.6118,-6.71301
756,-209,47.6083,6.20703,0.00151509,0.00332384,0.00271203,0.00527832,-0.000439382,0.946334,0.00367411,0.0122816,1980,1233,47.6083,-6.20701
763,-209,47.6069,5.77039,0.00250718,0.00534634,0.00286777,0.00712665,0.000726862,1.01522,0.0045283,0.0245625,1987,1233,47.607,-5.77043
770,-209,47.7028,5.44153,0,0,0,0,0,0,0,-1,1994,1233,47.7028,-5.44155
777,-209,49.8105,-3.45435,0,0,0,0,0,0,0,-1,2001,1233,49.8106,3.45429
784,-209,53.6729,-0.603394,0,0,0,0,0,0,0,-1,2008,1233,53.6728,0.603386
791,-209,53.6887,1.53479,0,0,0,0,0,0,0,-1,2015,1233,53.6887,-1.53478
798,-209,53.6404,3.71179,0,0,0,0,0,0,0,-1,2022,1233,53.6404,-3.71185
805,-209,0,0,0,0,0,0,0,0,0,-1,2029,1233,0,0
812,-209,0,0,0,0,0,0,0,0,0,-1,2036,1233,0,0
-700,-216,0,0,0,0,0,0,0,0,0,-1,524,1240,0,0
-693,-216,0,0,0,0,0,0,0,0,0,-1,531,1240,0,0
-686,-216,0,0,0,0,0,0,0,0,0,-1,538,1240,0,0
-679,-216,-40.8773,3.28052,0,0,0,0,0,0,0,-1,545,1240,-40.8773,-3.28054
-672,-216,-41.6474,2.85388,0,0,0,0,0,0,0,-1,552,1240,-41.6474,-2.85392
-665,-216,-42.4839,2.03894,0,0,0,0,0,0,0,-1,559,1240,-42.4839,-2.03899
-658,-216,-43.703,1.24719,0,0,0,0,0,0,0,-1,566,1240,-43.703,-1.24716
-651,-216,-44.6378,0.500122,-0.025173,-0.00721706,-0.0228759,0.00837956,-0.0407696,-0.972395,0.0303609,0.045978,573,1240,-44.6378,-0.500092
-644,-216,-45.1311,-0.217285,-0.0200716,-0.00331371,-0.0203796,0.0103422,-0.0337275,-0.980436,0.026611,0.0431973,580,1240,-45.1311,0.217258
-637,-216,-31.5038,2.29932,0,0,0,0,0,0,0,-1,587,1240,-31.5038,-2.29929
-630,-216,-31.5665,3.09631,-0.0113673,0.00143129,-0.0141258,0.0105397,-0.0204757,-0.99808,0.0182105,0.0388595,594,1240,-31.5666,-3.09628
-623,-216,-31.7113,3.83643,-0.00698029,0.00241022,-0.0115507,0.0101835,-0.0147536,-0.978443,0.0144778,0.0179679,601,1240,-31.7113,-3.83645
-616,-216,-31.7997,4.38782,-0.00477293,0.00255665,-0.00818771,0.00786233,-0.0100786,-0.995825,0.0103845,0.0137389,608,1240,-31.7997,-4.38787
-609,-216,-31.8181,4.98169,-0.00255292,0.00206956,-0.00531493,0.00555403,-0.00603739,-0.990494,0.00669425,0.0144793,615,1240,-31.8181,-4.9817
-602,-216,-31.8259,5.56592,-0.000879572,0.000622066,-0.00337735,0.00333105,-0.00358856,-0.894774,0.00399596,0.0145528,622,1240,-31.826,-5.5659
-595,-216,-31.8156,6.14697,-0.000165045,-0.000901929,-0.00209458,0.00159325,-0.00266022,-0.698337,0.00248137,0.0187463,629,1240,-31.8156,-6.14693
-588,-216,-31.8273,6.745,-0.000881631,-0.00122564,-0.00178479,0.000739428,-0.0028467,-0.737361,0.00218636,0.0212863,636,1240,-31.8274,-6.74499
-581,-216,-32.0248,7.2345,0,0,0,0,0,0,0,-1,643,1240,-32.0248,-7.23445
-574,-216,-32.3593,7.97388,0,0,0,0,0,0,0,-1,650,1240,-32.3592,-7.97392
-567,-216,-32.1227,9.02478,0,0,0,0,0,0,0,-1,657,1240,-32.1227,-9.0248
-560,-216,-16.5087,5.4574,0,0,0,0,0,0,0,-1,664,1240,-16.5087,-5.45746
-553,-216,-16.2355,1.22351,0,0,0,0,0,0,0,-1,671,1240,-16.2356,-1.22356
-546,-216,-37.1617,-0.25415,0,0,0,0,0,0,0,-1,678,1240,-37.1618,0.254161
-539,-216,-44.6993,0.29187,0,0,0,0,0,0,0,-1,685,1240,-44.6993,-0.291854
-532,-216,-44.9259,0.721313,0,0,0,0,0,0,0,-1,692,1240,-44.9259,-0.721272
-525,-216,-45.002,0.789185,-0.0010701,0.0029801,0.00111636,0.00326742,-0.00135742,1.31889,0.00274501,0.0493595,699,1240,-45.002,-0.789153
-518,-216,-45.0864,0.799316,-0.000764636,0.00449732,0.00173187,0.00501617,-0.00128349,1.27972,0.00384404,0.0434615,706,1240,-45.0864,-0.799344
-511,-216,-45.158,0.940308,0.000249736,0.0066064,0.00247396,0.00745576,-0.000599619,1.24009,0.00518196,0.0420364,713,1240,-45.158,-0.940303
-504,-216,-45.1325,0.979126,0.00455322,0.00920077,0.00402447,0.0115242,0.00222981,1.04722,0.00705792,0.0408244,720,1240,-45.1325,-0.979178
-497,-216,0,0,0,0,0,0,0,0,0,-1,727,1240,0,0
-490,-216,0,0,0,0,0,0,0,0,0,-1,734,1240,0,0
-483,-216,0,0,0,0,0,0,0,0,0,-1,741,1240,0,0
-476,-216,0,0,0,0,0,0,0,0,0,-1,748,1240,0,0
-469,-216,0,0,0,0,0,0,0,0,0,-1,755,1240,0,0
-462,-216,0,0,0,0,0,0,0,0,0,-1,762,1240,0,0
-455,-216,0,0,0,0,0,0,0,0,0,-1,769,1240,0,0
-448,-216,0,0,0,0,0,0,0,0,0,-1,776,1240,0,0
-441,-216,0,0,0,0,0,0,0,0,0,-1,783,1240,0,0
-434,-216,0,0,0,0,0,0,0,0,0,-1,790,1240,0,0
-427,-216,0,0,0,0,0,0,0,0,0,-1,797,1240,0,0
-420,-216,0,0,0,0,0,0,0,0,0,-1,804,1240,0,0
-413,-216,0,0,0,0,0,0,0,0,0,-1,811,1240,0,0
-406,-216,0,0,0,0,0,0,0,0,0,-1,818,1240,0,0
-399,-216,0,0,0,0,0,0,0,0,0,-1,825,1240,0,0
-392,-216,0,0,0,0,0,0,0,0,0,-1,832,1240,0,0
-385,-216,0,0,0,0,0,0,0,0,0,-1,839,1240,0,0
-378,-216,0,0,0,0,0,0,0,0,0,-1,846,1240,0,0
-371,-216,0,0,0,0,0,0,0,0,0,-1,853,1240,0,0
-364,-216,0,0,0,0,0,0,0,0,0,-1,860,1240,0,0
-357,-216,0,0,0,0,0,0,0,0,0,-1,867,1240,0,0
-350,-216,0,0,0,0,0,0,0,0,0,-1,874,1240,0,0
-343,-216,0,0,0,0,0,0,0,0,0,-1,881,1240,0,0
-336,-216,0,0,0,0,0,0,0,0,0,-1,888,1240,0,0
-329,-216,0,0,0,0,0,0,0,0,0,-1,895,1240,0,0
-322,-216,0,0,0,0,0,0,0,0,0,-1,902,1240,0,0
-315,-216,0,0,0,0,0,0,0,0,0,-1,909,1240,0,0
-308,-216,0,0,0,0,0,0,0,0,0,-1,916,1240,0,0
-301,-216,0,0,0,0,0,0,0,0,0,-1,923,1240,0,0
-294,-216,0,0,0,0,0,0,0,0,0,-1,930,1240,0,0
-287,-216,0,0,0,0,0,0,0,0,0,-1,937,1240,0,0
-280,-216,0,0,0,0,0,0,0,0,0,-1,944,1240,0,0
-273,-216,0,0,0,0,0,0,0,0,0,-1,951,1240,0,0
-266,-216,0,0,0,0,0,0,0,0,0,-1,958,1240,0,0
-259,-216,0,0,0,0,0,0,0,0,0,-1,965,1240,0,0
-252,-216,0,0,0,0,0,0,0,0,0,-1,972,1240,0,0
-245,-216,0,0,0,0,0,0,0,0,0,-1,979,1240,0,0
-238,-216,0,0,0,0,0,0,0,0,0,-1,986,1240,0,0
-231,-216,0,0,0,0,0,0,0,0,0,-1,993,1240,0,0
-224,-216,0,0,0,0,0,0,0,0,0,-1,1000,1240,0,0
-217,-216,0,0,0,0,0,0,0,0,0,-1,1007,1240,0,0
-210,-216,0,0,0,0,0,0,0,0,0,-1,1014,1240,0,0
-203,-216,0,0,0,0,0,0,0,0,0,-1,1021,1240,0,0
-196,-216,0,0,0,0,0,0,0,0,0,-1,1028,1240,0,0
-189,-216,0,0,0,0,0,0,0,0,0,-1,1035,1240,0,0
-182,-216,0,0,0,0,0,0,0,0,0,-1,1042,1240,0,0
-175,-216,0,0,0,0,0,0,0,0,0,-1,1049,1240,0,0
-168,-216,0,0,0,0,0,0,0,0,0,-1,1056,1240,0,0
-161,-216,0,0,0,0,0,0,0,0,0,-1,1063,1240,0,0
-154,-216,0,0,0,0,0,0,0,0,0,-1,1070,1240,0,0
-147,-216,0,0,0,0,0,0,0,0,0,-1,1077,1240,0,0
-140,-216,0,0,0,0,0,0,0,0,0,-1,1084,1240,0,0
-133,-216,0,0,0,0,0,0,0,0,0,-1,1091,1240,0,0
-126,-216,0,0,0,0,0,0,0,0,0,-1,1098,1240,0,0
-119,-216,0,0,0,0,0,0,0,0,0,-1,1105,1240,0,0
-112,-216,0,0,0,0,0,0,0,0,0,-1,1112,1240,0,0
-105,-216,0,0,0,0,0,0,0,0,0,-1,1119,1240,0,0
-98,-216,0,0,0,0,0,0,0,0,0,-1,1126,1240,0,0
-91,-216,0,0,0,0,0,0,0,0,0,-1,1133,1240,0,0
-84,-216,0,0,0,0,0,0,0,0,0,-1,1140,1240,0,0
-77,-216,0,0,0,0,0,0,0,0,0,-1,1147,1240,0,0
-70,-216,0,0,0,0,0,0,0,0,0,-1,1154,1240,0,0
-63,-216,0,0,0,0,0,0,0,0,0,-1,1161,1240,0,0
-56,-216,0,0,0,0,0,0,0,0,0,-1,1168,1240,0,0
-49,-216,0,0,0,0,0,0,0,0,0,-1,1175,1240,0,0
-42,-216,0,0,0,0,0,0,0,0,0,-1,1182,1240,0,0
-35,-216,0,0,0,0,0,0,0,0,0,-1,1189,1240,0,0
-28,-216,0,0,0,0,0,0,0,0,0,-1,1196,1240,0,0
-21,-216,0,0,0,0,0,0,0,0,0,-1,1203,1240,0,0
-14,-216,0,0,0,0,0,0,0,0,0,-1,1210,1240,0,0
-7,-216,0,0,0,0,0,0,0,0,0,-1,1217,1240,0,0
0,-216,0,0,0,0,0,0,0,0,0,-1,1224,1240,0,0
7,-216,0,0,0,0,0,0,0,0,0,-1,1231,1240,0,0
14,-216,0,0,0,0,0,0,0,0,0,-1,1238,1240,0,0
21,-216,0,0,0,0,0,0,0,0,0,-1,1245,1240,0,0
28,-216,0,0,0,0,0,0,0,0,0,-1,1252,1240,0,0
35,-216,0,0,0,0,0,0,0,0,0,-1,1259,1240,0,0
42,-216,0,0,0,0,0,0,0,0,0,-1,1266,1240,0,0
49,-216,0,0,0,0,0,0,0,0,0,-1,1273,1240,0,0
56,-216,0,0,0,0,0,0,0,0,0,-1,1280,1240,0,0
63,-216,0,0,0,0,0,0,0,0,0,-1,1287,1240,0,0
70,-216,0,0,0,0,0,0,0,0,0,-1,1294,1240,0,0
77,-216,0,0,0,0,0,0,0,0,0,-1,1301,1240,0,0
84,-216,0,0,0,0,0,0,0,0,0,-1,1308,1240,0,0
91,-216,0,0,0,0,0,0,0,0,0,-1,1315,1240,0,0
98,-216,0,0,0,0,0,0,0,0,0,-1,1322,1240,0,0
105,-216,0,0,0,0,0,0,0,0,0,-1,1329,1240,0,0
112,-216,0,0,0,0,0,0,0,0,0,-1,1336,1240,0,0
119,-216,0,0,0,0,0,0,0,0,0,-1,1343,1240,0,0
126,-216,0,0,0,0,0,0,0,0,0,-1,1350,1240,0,0
133,-216,0,0,0,0,0,0,0,0,0,-1,1357,1240,0,0
140,-216,0,0,0,0,0,0,0,0,0,-1,1364,1240,0,0
147,-216,0,0,0,0,0,0,0,0,0,-1,1371,1240,0,0
154,-216,0,0,0,0,0,0,0,0,0,-1,1378,1240,0,0
161,-216,0,0,0,0,0,0,0,0,0,-1,1385,1240,0,0
168,-216,0,0,0,0,0,0,0,0,0,-1,1392,1240,0,0
175,-216,0,0,0,0,0,0,0,0,0,-1,1399,1240,0,0
182,-216,0,0,0,0,0,0,0,0,0,-1,1406,1240,0,0
189,-216,0,0,0,0,0,0,0,0,0,-1,1413,1240,0,0
196,-216,0,0,0,0,0,0,0,0,0,-1,1420,1240,0,0
203,-216,0,0,0,0,0,0,0,0,0,-1,1427,1240,0,0
210,-216,0,0,0,0,0,0,0,0,0,-1,1434,1240,0,0
217,-216,0,0,0,0,0,0,0,0,0,-1,1441,1240,0,0
224,-216,0,0,0,0,0,0,0,0,0,-1,1448,1240,0,0
231,-216,0,0,0,0,0,0,0,0,0,-1,1455,1240,0,0
238,-216,0,0,0,0,0,0,0,0,0,-1,1462,1240,0,0
245,-216,0,0,0,0,0,0,0,0,0,-1,1469,1240,0,0
252,-216,0,0,0,0,0,0,0,0,0,-1,1476,1240,0,0
259,-216,0,0,0,0,0,0,0,0,0,-1,1483,1240,0,0
266,-216,0,0,0,0,0,0,0,0,0,-1,1490,1240,0,0
273,-216,0,0,0,0,0,0,0,0,0,-1,1497,1240,0,0
280,-216,0,0,0,0,0,0,0,0,0,-1,1504,1240,0,0
287,-216,0,0,0,0,0,0,0,0,0,-1,1511,1240,0,0
294,-216,0,0,0,0,0,0,0,0,0,-1,1518,1240,0,0
301,-216,0,0,0,0,0,0,0,0,0,-1,1525,1240,0,0
308,-216,0,0,0,0,0,0,0,0,0,-1,1532,1240,0,0
315,-216,0,0,0,0,0,0,0,0,0,-1,1539,1240,0,0
322,-216,0,0,0,0,0,0,0,0,0,-1,1546,1240,0,0
329,-216,0,0,0,0,0,0,0,0,0,-1,1553,1240,0,0
336,-216,0,0,0,0,0,0,0,0,0,-1,1560,1240,0,0
343,-216,0,0,0,0,0,0,0,0,0,-1,1567,1240,0,0
350,-216,0,0,0,0,0,0,0,0,0,-1,1574,1240,0,0
357,-216,0,0,0,0,0,0,0,0,0,-1,1581,1240,0,0
364,-216,0,0,0,0,0,0,0,0,0,-1,1588,1240,0,0
371,-216,0,0,0,0,0,0,0,0,0,-1,1595,1240,0,0
378,-216,0,0,0,0,0,0,0,0,0,-1,1602,1240,0,0
385,-216,0,0,0,0,0,0,0,0,0,-1,1609,1240,0,0
392,-216,0,0,0,0,0,0,0,0,0,-1,1616,1240,0,0
399,-216,0,0,0,0,0,0,0,0,0,-1,1623,1240,0,0
406,-216,0,0,0,0,0,0,0,0,0,-1,1630,1240,0,0
413,-216,0,0,0,0,0,0,0,0,0,-1,1637,1240,0,0
420,-216,0,0,0,0,0,0,0,0,0,-1,1644,1240,0,0
427,-216,0,0,0,0,0,0,0,0,0,-1,1651,1240,0,0
434,-216,0,0,0,0,0,0,0,0,0,-1,1658,1240,0,0
441,-216,0,0,0,0,0,0,0,0,0,-1,1665,1240,0,0
448,-216,0,0,0,0,0,0,0,0,0,-1,1672,1240,0,0
455,-216,0,0,0,0,0,0,0,0,0,-1,1679,1240,0,0
462,-216,0,0,0,0,0,0,0,0,0,-1,1686,1240,0,0
469,-216,0,0,0,0,0,0,0,0,0,-1,1693,1240,0,0
476,-216,0,0,0,0,0,0,0,0,0,-1,1700,1240,0,0
483,-216,0,0,0,0,0,0,0,0,0,-1,1707,1240,0,0
490,-216,0,0,0,0,0,0,0,0,0,-1,1714,1240,0,0
497,-216,0,0,0,0,0,0,0,0,0,-1,1721,1240,0,0
504,-216,0,0,0,0,0,0,0,0,0,-1,1728,1240,0,0
511,-216,0,0,0,0,0,0,0,0,0,-1,1735,1240,0,0
518,-216,0,0,0,0,0,0,0,0,0,-1,1742,1240,0,0
525,-216,0,0,0,0,0,0,0,0,0,-1,1749,1240,0,0
532,-216,0,0,0,0,0,0,0,0,0,-1,1756,1240,0,0
539,-216,0,0,0,0,0,0,0,0,0,-1,1763,1240,0,0
546,-216,0,0,0,0,0,0,0,0,0,-1,1770,1240,0,0
553,-216,0,0,0,0,0,0,0,0,0,-1,1777,1240,0,0
560,-216,0,0,0,0,0,0,0,0,0,-1,1784,1240,0,0
567,-216,0,0,0,0,0,0,0,0,0,-1,1791,1240,0,0
574,-216,0,0,0,0,0,0,0,0,0,-1,1798,1240,0,0
581,-216,0,0,0,0,0,0,0,0,0,-1,1805,1240,0,0
588,-216,0,0,0,0,0,0,0,0,0,-1,1812,1240,0,0
595,-216,0,0,0,0,0,0,0,0,0,-1,1819,1240,0,0
602,-216,0,0,0,0,0,0,0,0,0,-1,1826,1240,0,0
609,-216,0,0,0,0,0,0,0,0,0,-1,1833,1240,0,0
616,-216,0,0,0,0,0,0,0,0,0,-1,1840,1240,0,0
623,-216,59.9628,2.5896,0.00208128,-0.00200395,-0.000532646,0.00214959,-0.00207225,-0.127543,0.00243762,0.041225,1847,1240,59.9628,-2.58957
630,-216,59.9652,2.57996,-0.000117776,7.52033e-05,-0.000945416,0.000929041,-0.000971614,-0.836252,0.00109744,0.0380156,1854,1240,59.9653,-2.58
637,-216,60.0267,2.58911,-0.00195249,0.00209688,-0.00154539,0.00261927,-0.00247488,-1.24482,0.0029415,0.0316576,1861,1240,60.0268,-2.58915
644,-216,60.0873,2.60388,-0.00291805,0.00366135,-0.00228323,0.00437606,-0.00363275,-1.26743,0.00463052,0.0258842,1868,1240,60.0873,-2.60386
651,-216,60.0839,2.59509,-0.00262706,0.00372611,-0.00258339,0.00464398,-0.00354493,-1.22941,0.00474204,0.0231797,1875,1240,60.0839,-2.59505
658,-216,60.1014,2.58862,-0.00179491,0.0030145,-0.0025486,0.00411379,-0.00289419,-1.16358,0.00406643,0.0329987,1882,1240,60.1015,-2.58864
665,-216,60.1434,2.25513,-0.00111683,0.00224491,-0.00231765,0.00342706,-0.00229897,-1.09913,0.00332724,0.0468317,1889,1240,60.1434,-2.25511
672,-216,60.2089,1.8667,0,0,0,0,0,0,0,-1,1896,1240,60.2089,-1.86669
679,-216,47.3159,3.82703,0,0,0,0,0,0,0,-1,1903,1240,47.316,-3.82708
686,-216,21.5172,6.19458,0,0,0,0,0,0,0,-1,1910,1240,21.5172,-6.19453
693,-216,47.2822,10.9481,0,0,0,0,0,0,0,-1,1917,1240,47.2822,-10.9482
700,-216,47.024,10.3872,0,0,0,0,0,0,0,-1,1924,1240,47.024,-10.3873
707,-216,47.1647,10.0608,0.00140287,-0.00050083,-0.00090475,0.00176425,-0.000862217,-0.380018,0.00154592,0.0422995,1931,1240,47.1647,-10.0608
714,-216,47.1843,9.5105,0.00135674,-0.000612094,-0.000375425,0.0014259,-0.000681252,-0.18217,0.00124163,0.017052,1938,1240,47.1843,-9.51052
721,-216,47.2023,8.97095,0.00110661,-0.000932678,0.000331153,0.00115904,-0.000985105,0.157013,0.00123928,0.0146352,1945,1240,47.2023,-8.97091
728,-216,47.2202,8.40015,0.000771762,-0.000718252,0.00100126,0.00127478,-0.00122127,0.465552,0.0014412,0.0140029,1952,1240,47.2202,-8.40009
735,-216,47.2159,7.84912,0.000486616,-0.000188339,0.00168279,0.00186544,-0.00156716,0.686438,0.00198431,0.0143551,1959,1240,47.216,-7.84917
742,-216,47.1299,7.3147,0.000286313,0.000475642,0.002451,0.00283381,-0.00207185,0.8047,0.00284365,0.0153255,1966,1240,47.1299,-7.31472
749,-216,47.0696,6.74854,0.000345288,0.00118681,0.00328795,0.00408081,-0.00254871,0.849038,0.00386148,0.012225,1973,1240,47.0696,-6.7485
756,-216,47.0413,6.20605,0.000801475,0.00198084,0.00420011,0.00563246,-0.00285015,0.855141,0.00498448,0.0121293,1980,1240,47.0412,-6.20608
763,-216,47.0316,5.74854,0.00196039,0.00276583,0.00527177,0.00765024,-0.00292402,0.82352,0.00630504,0.0214726,1987,1240,47.0316,-5.7485
770,-216,47.0591,5.31836,0.0036982,0.00361548,0.00656149,0.0102185,-0.00290478,0.782246,0.00795926,0.0441041,1994,1240,47.0591,-5.31839
777,-216,47.1526,4.86926,0,0,0,0,0,0,0,-1,2001,1240,47.1527,-4.86927
784,-216,51.8208,-0.443726,0,0,0,0,0,0,0,-1,2008,1240,51.8208,0.443779
791,-216,55.1682,1.76636,0,0,0,0,0,0,0,-1,2015,1240,55.1682,-1.76635
798,-216,0,0,0,0,0,0,0,0,0,-1,2022,1240,0,0
805,-216,0,0,0,0,0,0,0,0,0,-1,2029,1240,0,0
812,-216,0,0,0,0,0,0,0,0,0,-1,2036,1240,0,0
-700,-223,0,0,0,0,0,0,0,0,0,-1,524,1247,0,0
-693,-223,0,0,0,0,0,0,0,0,0,-1,531,1247,0,0
-686,-223,0,0,0,0,0,0,0,0,0,-1,538,1247,0,0
-679,-223,0,0,0,0,0,0,0,0,0,-1,545,1247,0,0
-672,-223,-44.9912,3.75146,0,0,0,0,0,0,0,-1,552,1247,-44.9912,-3.75143
-665,-223,-43.3776,2.73401,0,0,0,0,0,0,0,-1,559,1247,-43.3776,-2.73397
-658,-223,-44.6705,1.65955,0,0,0,0,0,0,0,-1,566,1247,-44.6705,-1.65959
-651,-223,-45.6436,0.58606,-0.0216859,-0.00691465,-0.031906,0.0184494,-0.0470499,-0.899135,0.0389993,0.0466164,573,1247,-45.6436,-0.586086
-644,-223,-46.2908,-0.212891,-0.017301,-0.00303974,-0.0278125,0.0185417,-0.0388824,-0.910886,0.03384,0.0466812,580,1247,-46.2908,0.212852
-637,-223,-46.7499,-0.944946,-0.0133147,-0.000305939,-0.0232679,0.0173496,-0.0309702,-0.921691,0.0282645,0.0480029,587,1247,-46.7499,0.944886
-630,-223,-31.1133,3.16223,0,0,0,0,0,0,0,-1,594,1247,-31.1133,-3.16224
-623,-223,-31.2023,3.9375,-0.00593238,0.00247959,-0.0147329,0.0135951,-0.0170479,-0.924441,0.0177292,0.031065,601,1247,-31.2023,-3.93752
-616,-223,-31.1861,4.40637,-0.00409737,0.00277803,-0.0103103,0.0102086,-0.011528,-0.946315,0.0125573,0.0155276,608,1247,-31.1861,-4.40632
-609,-223,-31.1783,5.00305,-0.00220218,0.00235911,-0.00657247,0.00703538,-0.00687845,-0.952398,0.00803333,0.0122373,615,1247,-31.1784,-5.003
-602,-223,-31.2191,5.57568,-0.000617837,0.00102098,-0.00402973,0.00431377,-0.00391062,-0.885701,0.00475025,0.0151561,622,1247,-31.2191,-5.5757
-595,-223,-31.2235,6.19043,0.00026548,-0.000499205,-0.00224596,0.00216141,-0.00239514,-0.701089,0.00263188,0.0212713,629,1247,-31.2235,-6.19045
-588,-223,-31.1927,6.77563,-0.000183004,-0.00118016,-0.00159484,0.000989372,-0.00235254,-0.633901,0.00198224,0.0247372,636,1247,-31.1928,-6.77566
-581,-223,-31.2994,7.40588,-0.000879606,-0.00141355,-0.00175009,0.000623755,-0.00291691,-0.709708,0.00218244,0.027079,643,1247,-31.2995,-7.40588
-574,-223,-31.4056,7.96851,-0.00093455,-0.00135543,-0.0018399,0.000706901,-0.00299689,-0.728457,0.00227054,0.0312282,650,1247,-31.4056,-7.96857
-567,-223,-31.2934,8.22107,0,0,0,0,0,0,0,-1,657,1247,-31.2934,-8.22113
-560,-223,-31.2863,9.43835,0,0,0,0,0,0,0,-1,664,1247,-31.2863,-9.43836
-553,-223,-11.4025,4.14722,0,0,0,0,0,0,0,-1,671,1247,-11.4025,-4.14719
-546,-223,-26.9034,-0.148682,0,0,0,0,0,0,0,-1,678,1247,-26.9034,0.14867
-539,-223,-36.7405,0.35376,0,0,0,0,0,0,0,-1,685,1247,-36.7405,-0.353807
-532,-223,-44.403,1.15222,0,0,0,0,0,0,0,-1,692,1247,-44.4029,-1.15225
-525,-223,-44.841,0.599609,0,0,0,0,0,0,0,-1,699,1247,-44.841,-0.599644
-518,-223,-44.8955,0.461914,0,0,0,0,0,0,0,-1,706,1247,-44.8955,-0.46192
-511,-223,-45.0944,0.697876,0.000225783,0.00626794,0.00307067,0.00755452,-0.0010608,1.17403,0.00542463,0.0406305,713,1247,-45.0944,-0.697912
-504,-223,-45.0964,0.815796,0.00120928,0.0088472,0.00406691,0.0106072,-0.000550669,1.16238,0.00726195,0.0420883,720,1247,-45.0964,-0.815796
-497,-223,0,0,0,0,0,0,0,0,0,-1,727,1247,0,0
-490,-223,0,0,0,0,0,0,0,0,0,-1,734,1247,0,0
-483,-223,0,0,0,0,0,0,0,0,0,-1,741,1247,0,0
-476,-223,0,0,0,0,0,0,0,0,0,-1,748,1247,0,0
-469,-223,0,0,0,0,0,0,0,0,0,-1,755,1247,0,0
-462,-223,0,0,0,0,0,0,0,0,0,-1,762,1247,0,0
-455,-223,0,0,0,0,0,0,0,0,0,-1,769,1247,0,0
-448,-223,0,0,0,0,0,0,0,0,0,-1,776,1247,0,0
-441,-223,0,0,0,0,0,0,0,0,0,-1,783,1247,0,0
-434,-223,0,0,0,0,0,0,0,0,0,-1,790,1247,0,0
-427,-223,0,0,0,0,0,0,0,0,0,-1,797,1247,0,0
-420,-223,0,0,0,0,0,0,0,0,0,-1,804,1247,0,0
-413,-223,0,0,0,0,0,0,0,0,0,-1,811,1247,0,0
-406,-223,0,0,0,0,0,0,0,0,0,-1,818,1247,0,0
-399,-223,0,0,0,0,0,0,0,0,0,-1,825,1247,0,0
-392,-223,0,0,0,0,0,0,0,0,0,-1,832,1247,0,0
-385,-223,0,0,0,0,0,0,0,0,0,-1,839,1247,0,0
-378,-223,0,0,0,0,0,0,0,0,0,-1,846,1247,0,0
-371,-223,0,0,0,0,0,0,0,0,0,-1,853,1247,0,0
-364,-223,0,0,0,0,0,0,0,0,0,-1,860,1247,0,0
-357,-223,0,0,0,0,0,0,0,0,0,-1,867,1247,0,0
-350,-223,0,0,0,0,0,0,0,0,0,-1,874,1247,0,0
-343,-223,0,0,0,0,0,0,0,0,0,-1,881,1247,0,0
-336,-223,0,0,0,0,0,0,0,0,0,-1,888,1247,0,0
-329,-223,0,0,0,0,0,0,0,0,0,-1,895,1247,0,0
-322,-223,0,0,0,0,0,0,0,0,0,-1,902,1247,0,0
-315,-223,0,0,0,0,0,0,0,0,0,-1,909,1247,0,0
-308,-223,0,0,0,0,0,0,0,0,0,-1,916,1247,0,0
-301,-223,0,0,0,0,0,0,0,0,0,-1,923,1247,0,0
-294,-223,0,0,0,0,0,0,0,0,0,-1,930,1247,0,0
-287,-223,0,0,0,0,0,0,0,0,0,-1,937,1247,0,0
-280,-223,0,0,0,0,0,0,0,0,0,-1,944,1247,0,0
-273,-223,0,0,0,0,0,0,0,0,0,-1,951,1247,0,0
-266,-223,0,0,0,0,0,0,0,0,0,-1,958,1247,0,0
-259,-223,0,0,0,0,0,0,0,0,0,-1,965,1247,0,0
-252,-223,0,0,0,0,0,0,0,0,0,-1,972,1247,0,0
-245,-223,0,0,0,0,0,0,0,0,0,-1,979,1247,0,0
-238,-223,0,0,0,0,0,0,0,0,0,-1,986,1247,0,0
-231,-223,0,0,0,0,0,0,0,0,0,-1,993,1247,0,0
-224,-223,0,0,0,0,0,0,0,0,0,-1,1000,1247,0,0
-217,-223,0,0,0,0,0,0,0,0,0,-1,1007,1247,0,0
-210,-223,0,0,0,0,0,0,0,0,0,-1,1014,1247,0,0
-203,-223,0,0,0,0,0,0,0,0,0,-1,1021,1247,0,0
-196,-223,0,0,0,0,0,0,0,0,0,-1,1028,1247,0,0
-189,-223,0,0,0,0,0,0,0,0,0,-1,1035,1247,0,0
-182,-223,0,0,0,0,0,0,0,0,0,-1,1042,1247,0,0
-175,-223,0,0,0,0,0,0,0,0,0,-1,1049,1247,0,0
-168,-223,0,0,0,0,0,0,0,0,0,-1,1056,1247,0,0
-161,-223,0,0,0,0,0,0,0,0,0,-1,1063,1247,0,0
-154,-223,0,0,0,0,0,0,0,0,0,-1,1070,1247,0,0
-147,-223,0,0,0,0,0,0,0,0,0,-1,1077,1247,0,0
-140,-223,0,0,0,0,0,0,0,0,0,-1,1084,1247,0,0
-133,-223,0,0,0,0,0,0,0,0,0,-1,1091,1247,0,0
-126,-223,0,0,0,0,0,0,0,0,0,-1,1098,1247,0,0
-119,-223,0,0,0,0,0,0,0,0,0,-1,1105,1247,0,0
-112,-223,0,0,0,0,0,0,0,0,0,-1,1112,1247,0,0
-105,-223,0,0,0,0,0,0,0,0,0,-1,1119,1247,0,0
-98,-223,0,0,0,0,0,0,0,0,0,-1,1126,1247,0,0
-91,-223,0,0,0,0,0,0,0,0,0,-1,1133,1247,0,0
-84,-223,0,0,0,0,0,0,0,0,0,-1,1140,1247,0,0
-77,-223,0,0,0,0,0,0,0,0,0,-1,1147,1247,0,0
-70,-223,0,0,0,0,0,0,0,0,0,-1,1154,1247,0,0
-63,-223,0,0,0,0,0,0,0,0,0,-1,1161,1247,0,0
-56,-223,0,0,0,0,0,0,0,0,0,-1,1168,1247,0,0
-49,-223,0,0,0,0,0,0,0,0,0,-1,1175,1247,0,0
-42,-223,0,0,0,0,0,0,0,0,0,-1,1182,1247,0,0
-35,-223,0,0,0,0,0,0,0,0,0,-1,1189,1247,0,0
-28,-223,0,0,0,0,0,0,0,0,0,-1,1196,1247,0,0
-21,-223,0,0,0,0,0,0,0,0,0,-1,1203,1247,0,0
-14,-223,0,0,0,0,0,0,0,0,0,-1,1210,1247,0,0
-7,-223,0,0,0,0,0,0,0,0,0,-1,1217,1247,0,0
0,-223,0,0,0,0,0,0,0,0,0,-1,1224,1247,0,0
7,-223,0,0,0,0,0,0,0,0,0,-1,1231,1247,0,0
14,-223,0,0,0,0,0,0,0,0,0,-1,1238,1247,0,0
21,-223,0,0,0,0,0,0,0,0,0,-1,1245,1247,0,0
28,-223,0,0,0,0,0,0,0,0,0,-1,1252,1247,0,0
35,-223,0,0,0,0,0,0,0,0,0,-1,1259,1247,0,0
42,-223,0,0,0,0,0,0,0,0,0,-1,1266,1247,0,0
49,-223,0,0,0,0,0,0,0,0,0,-1,1273,1247,0,0
56,-223,0,0,0,0,0,0,0,0,0,-1,1280,1247,0,0
63,-223,0,0,0,0,0,0,0,0,0,-1,1287,1247,0,0
70,-223,0,0,0,0,0,0,0,0,0,-1,1294,1247,0,0
77,-223,0,0,0,0,0,0,0,0,0,-1,1301,1247,0,0
84,-223,0,0,0,0,0,0,0,0,0,-1,1308,1247,0,0
91,-223,0,0,0,0,0,0,0,0,0,-1,1315,1247,0,0
98,-223,0,0,0,0,0,0,0,0,0,-1,1322,1247,0,0
105,-223,0,0,0,0,0,0,0,0,0,-1,1329,1247,0,0
112,-223,0,0,0,0,0,0,0,0,0,-1,1336,1247,0,0
119,-223,0,0,0,0,0,0,0,0,0,-1,1343,1247,0,0
126,-223,0,0,0,0,0,0,0,0,0,-1,1350,1247,0,0
133,-223,0,0,0,0,0,0,0,0,0,-1,1357,1247,0,0
140,-223,0,0,0,0,0,0,0,0,0,-1,1364,1247,0,0
147,-223,0,0,0,0,0,0,0,0,0,-1,1371,1247,0,0
154,-223,0,0,0,0,0,0,0,0,0,-1,1378,1247,0,0
161,-223,0,0,0,0,0,0,0,0,0,-1,1385,1247,0,0
168,-223,0,0,0,0,0,0,0,0,0,-1,1392,1247,0,0
175,-223,0,0,0,0,0,0,0,0,0,-1,1399,1247,0,0
182,-223,0,0,0,0,0,0,0,0,0,-1,1406,1247,0,0
189,-223,0,0,0,0,0,0,0,0,0,-1,1413,1247,0,0
196,-223,0,0,0,0,0,0,0,0,0,-1,1420,1247,0,0
203,-223,0,0,0,0,0,0,0,0,0,-1,1427,1247,0,0
210,-223,0,0,0,0,0,0,0,0,0,-1,1434,1247,0,0
217,-223,0,0,0,0,0,0,0,0,0,-1,1441,1247,0,0
224,-223,0,0,0,0,0,0,0,0,0,-1,1448,1247,0,0
231,-223,0,0,0,0,0,0,0,0,0,-1,1455,1247,0,0
238,-223,0,0,0,0,0,0,0,0,0,-1,1462,1247,0,0
245,-223,0,0,0,0,0,0,0,0,0,-1,1469,1247,0,0
252,-223,0,0,0,0,0,0,0,0,0,-1,1476,1247,0,0
259,-223,0,0,0,0,0,0,0,0,0,-1,1483,1247,0,0
266,-223,0,0,0,0,0,0,0,0,0,-1,1490,1247,0,0
273,-223,0,0,0,0,0,0,0,0,0,-1,1497,1247,0,0
280,-223,0,0,0,0,0,0,0,0,0,-1,1504,1247,0,0
287,-223,0,0,0,0,0,0,0,0,0,-1,1511,1247,0,0
294,-223,0,0,0,0,0,0,0,0,0,-1,1518,1247,0,0
301,-223,0,0,0,0,0,0,0,0,0,-1,1525,1247,0,0
308,-223,0,0,0,0,0,0,0,0,0,-1,1532,1247,0,0
315,-223,0,0,0,0,0,0,0,0,0,-1,1539,1247,0,0
322,-223,0,0,0,0,0,0,0,0,0,-1,1546,1247,0,0
329,-223,0,0,0,0,0,0,0,0,0,-1,1553,1247,0,0
336,-223,0,0,0,0,0,0,0,0,0,-1,1560,1247,0,0
343,-223,0,0,0,0,0,0,0,0,0,-1,1567,1247,0,0
350,-223,0,0,0,0,0,0,0,0,0,-1,1574,1247,0,0
357,-223,0,0,0,0,0,0,0,0,0,-1,1581,1247,0,0
364,-223,0,0,0,0,0,0,0,0,0,-1,1588,1247,0,0
371,-223,0,0,0,0,0,0,0,0,0,-1,1595,1247,0,0
378,-223,0,0,0,0,0,0,0,0,0,-1,1602,1247,0,0
385,-223,0,0,0,0,0,0,0,0,0,-1,1609,1247,0,0
392,-223,0,0,0,0,0,0,0,0,0,-1,1616,1247,0,0
399,-223,0,0,0,0,0,0,0,0,0,-1,1623,1247,0,0
406,-223,0,0,0,0,0,0,0,0,0,-1,1630,1247,0,0
413,-223,0,0,0,0,0,0,0,0,0,-1,1637,1247,0,0
420,-223,0,0,0,0,0,0,0,0,0,-1,1644,1247,0,0
427,-223,0,0,0,0,0,0,0,0,0,-1,1651,1247,0,0
434,-223,0,0,0,0,0,0,0,0,0,-1,1658,1247,0,0
441,-223,0,0,0,0,0,0,0,0,0,-1,1665,1247,0,0
448,-223,0,0,0,0,0,0,0,0,0,-1,1672,1247,0,0
455,-223,0,0,0,0,0,0,0,0,0,-1,1679,1247,0,0
462,-223,0,0,0,0,0,0,0,0,0,-1,1686,1247,0,0
469,-223,0,0,0,0,0,0,0,0,0,-1,1693,1247,0,0
476,-223,0,0,0,0,0,0,0,0,0,-1,1700,1247,0,0
483,-223,0,0,0,0,0,0,0,0,0,-1,1707,1247,0,0
490,-223,0,0,0,0,0,0,0,0,0,-1,1714,1247,0,0
497,-223,0,0,0,0,0,0,0,0,0,-1,1721,1247,0,0
504,-223,0,0,0,0,0,0,0,0,0,-1,1728,1247,0,0
511,-223,0,0,0,0,0,0,0,0,0,-1,1735,1247,0,0
518,-223,0,0,0,0,0,0,0,0,0,-1,1742,1247,0,0
525,-223,0,0,0,0,0,0,0,0,0,-1,1749,1247,0,0
532,-223,0,0,0,0,0,0,0,0,0,-1,1756,1247,0,0
539,-223,0,0,0,0,0,0,0,0,0,-1,1763,1247,0,0
546,-223,0,0,0,0,0,0,0,0,0,-1,1770,1247,0,0
553,-223,0,0,0,0,0,0,0,0,0,-1,1777,1247,0,0
560,-223,0,0,0,0,0,0,0,0,0,-1,1784,1247,0,0
567,-223,0,0,0,0,0,0,0,0,0,-1,1791,1247,0,0
574,-223,0,0,0,0,0,0,0,0,0,-1,1798,1247,0,0
581,-223,0,0,0,0,0,0,0,0,0,-1,1805,1247,0,0
588,-223,0,0,0,0,0,0,0,0,0,-1,1812,1247,0,0
595,-223,0,0,0,0,0,0,0,0,0,-1,1819,1247,0,0
602,-223,0,0,0,0,0,0,0,0,0,-1,1826,1247,0,0
609,-223,0,0,0,0,0,0,0,0,0,-1,1833,1247,0,0
616,-223,0,0,0,0,0,0,0,0,0,-1,1840,1247,0,0
623,-223,59.9656,2.65405,0.000757035,2.87554e-05,-0.000487668,0.00100152,-0.000215725,-0.464707,0.000749999,0.0407041,1847,1247,59.9655,-2.65402
630,-223,59.9962,2.65015,-0.00184451,0.00269561,-0.0010296,0.00291819,-0.00206709,-1.35789,0.0028922,0.036644,1854,1247,59.9962,-2.65015
637,-223,60.0217,2.61926,-0.0039904,0.00506446,-0.00174349,0.00538857,-0.00431451,-1.387,0.0056135,0.0289667,1861,1247,60.0217,-2.61926
644,-223,60.0824,2.62451,-0.00459518,0.00617177,-0.00248679,0.00671838,-0.00514179,-1.35443,0.00686761,0.0224299,1868,1247,60.0824,-2.62449
651,-223,60.0704,2.5752,-0.00384808,0.00543251,-0.00261764,0.00611992,-0.00453549,-1.31399,0.00617453,0.0299863,1875,1247,60.0705,-2.57522
658,-223,60.0554,2.5603,0,0,0,0,0,0,0,-1,1882,1247,60.0555,-2.56034
665,-223,60.1869,2.14429,0,0,0,0,0,0,0,-1,1889,1247,60.1868,-2.14432
672,-223,56.4625,2.72424,0,0,0,0,0,0,0,-1,1896,1247,56.4626,-2.72418
679,-223,43.2783,2.46973,0,0,0,0,0,0,0,-1,1903,1247,43.2784,-2.46978
686,-223,40.7926,10.0316,0,0,0,0,0,0,0,-1,1910,1247,40.7926,-10.0316
693,-223,47.2504,10.9158,0,0,0,0,0,0,0,-1,1917,1247,47.2503,-10.9157
700,-223,46.8018,10.5436,0.00124279,-0.000142085,-0.00110437,0.00185385,-0.000753144,-0.505381,0.00154922,0.0383854,1924,1247,46.8017,-10.5436
707,-223,46.6819,10.0295,0.00131296,-0.000586487,-0.0008527,0.00163959,-0.000913115,-0.36581,0.00149357,0.0347883,1931,1247,46.6819,-10.0295
714,-223,46.6414,9.53088,0.00109337,-0.000759592,-0.000199635,0.00111464,-0.000780856,-0.106116,0.0011,0.0136385,1938,1247,46.6413,-9.53092
721,-223,46.6171,8.97461,0.000668793,-0.00105231,0.00063818,0.000879606,-0.00126312,0.31905,0.00124369,0.0152678,1945,1247,46.6171,-8.9746
728,-223,46.5875,8.42664,0.000180895,-0.000740605,0.00138729,0.00118195,-0.00174166,0.625068,0.00169822,0.0189497,1952,1247,46.5875,-8.42659
735,-223,46.5928,7.89441,-0.000235603,-0.000161147,0.00213676,0.00193871,-0.00233546,0.794109,0.00247124,0.0177104,1959,1247,46.5928,-7.89447
742,-223,46.5306,7.37378,-0.000529675,0.000509877,0.00296011,0.0029955,-0.00301529,0.872309,0.00347034,0.0159818,1966,1247,46.5306,-7.37383
749,-223,46.4955,6.76196,-0.000565188,0.00124051,0.0038438,0.00428607,-0.00361075,0.900749,0.00456479,0.0134067,1973,1247,46.4954,-6.76198
756,-223,46.4474,6.20142,-0.000239033,0.00207774,0.00482597,0.0058824,-0.00404369,0.903186,0.00576351,0.016569,1980,1247,46.4474,-6.20141
763,-223,46.442,5.72363,0.000749003,0.00295309,0.00597883,0.00793059,-0.0042285,0.876537,0.00712769,0.0227312,1987,1247,46.442,-5.72367
770,-223,46.4764,5.22717,0.00231985,0.0039893,0.00737719,0.0105788,-0.00426969,0.841734,0.00882699,0.0493631,1994,1247,46.4764,-5.22718
777,-223,46.4985,4.68445,0,0,0,0,0,0,0,-1,2001,1247,46.4986,-4.68442
784,-223,54.1208,-0.293457,0,0,0,0,0,0,0,-1,2008,1247,54.1208,0.293477
791,-223,34.7136,2.92554,0,0,0,0,0,0,0,-1,2015,1247,34.7137,-2.92555
798,-223,0,0,0,0,0,0,0,0,0,-1,2022,1247,0,0
805,-223,0,0,0,0,0,0,0,0,0,-1,2029,1247,0,0
812,-223,0,0,0,0,0,0,0,0,0,-1,2036,1247,0,0
-700,-230,0,0,0,0,0,0,0,0,0,-1,524,1254,0,0
-693,-230,0,0,0,0,0,0,0,0,0,-1,531,1254,0,0
-686,-230,0,0,0,0,0,0,0,0,0,-1,538,1254,0,0
-679,-230,0,0,0,0,0,0,0,0,0,-1,545,1254,0,0
-672,-230,-45.5126,3.94531,-0.024096,-0.0267259,-0.0495491,0.0241556,-0.0749775,-0.772132,0.059689,0.046621,552,1254,-45.5126,-3.94529
-665,-230,-45.7233,2.76086,-0.0219592,-0.0186733,-0.0491045,0.0288157,-0.0694482,-0.802121,0.0583271,0.0424998,559,1254,-45.7233,-2.76091
-658,-230,-45.9288,1.59399,0,0,0,0,0,0,0,-1,566,1254,-45.9288,-1.59395
-651,-230,-46.3187,0.471313,-0.0158741,-0.00719148,-0.0408658,0.029563,-0.0526285,-0.838316,0.0480721,0.0465853,573,1254,-46.3187,-0.471282
-644,-230,-46.6829,-0.736084,-0.0129181,-0.00341963,-0.0351088,0.0272598,-0.0435975,-0.852626,0.0412703,0.0460951,580,1254,-46.6828,0.736121
-637,-230,-47.2576,-2.08752,-0.0101068,-0.000727132,-0.0289815,0.0239416,-0.0347755,-0.865614,0.0340921,0.0456032,587,1254,-47.2576,2.08754
-630,-230,-30.783,2.92566,0,0,0,0,0,0,0,-1,594,1254,-30.783,-2.92562
-623,-230,-30.6383,3.77856,-0.00449767,0.00214478,-0.01785,0.0169799,-0.0193328,-0.877378,0.0209798,0.0354781,601,1254,-30.6383,-3.77856
-616,-230,-30.5496,4.44421,-0.0031764,0.00269321,-0.0124972,0.0125956,-0.0130788,-0.900727,0.014824,0.017799,608,1254,-30.5496,-4.44421
-609,-230,-30.544,5.0343,-0.00169747,0.00244181,-0.00790677,0.00854532,-0.00780098,-0.913404,0.0094408,0.0131636,615,1254,-30.544,-5.0343
-602,-230,-30.5791,5.60681,-0.000273577,0.00131966,-0.00480229,0.00539095,-0.00434487,-0.867591,0.00563178,0.0123537,622,1254,-30.5791,-5.60684
-595,-230,-30.6285,6.2179,0.000685572,-5.28385e-05,-0.00252722,0.00287041,-0.00223768,-0.712865,0.00295669,0.0203206,629,1254,-30.6285,-6.21784
-588,-230,-30.6266,6.86609,0.000554419,-0.000970787,-0.00141257,0.00139709,-0.00181346,-0.537882,0.0018588,0.0282795,636,1254,-30.6266,-6.86605
-581,-230,-30.6474,7.51709,-7.78729e-05,-0.00164356,-0.00137511,0.000721619,-0.00244305,-0.526631,0.00191511,0.0252909,643,1254,-30.6474,-7.51712
-574,-230,-30.6559,8.04663,-0.000338897,-0.00176685,-0.00157486,0.000676275,-0.00278202,-0.572577,0.00211643,0.0298598,650,1254,-30.6559,-8.04664
-567,-230,-30.6442,8.5542,-0.000305043,-0.00180376,-0.00122247,0.000379461,-0.00248826,-0.510441,0.00179872,0.0436335,657,1254,-30.6443,-8.55415
-560,-230,-30.8416,8.97656,0,0,0,0,0,0,0,-1,664,1254,-30.8416,-8.9766
-553,-230,-13.1939,4.9718,0,0,0,0,0,0,0,-1,671,1254,-13.1939,-4.97175
-546,-230,-15.23,0.453979,0,0,0,0,0,0,0,-1,678,1254,-15.23,-0.453996
-539,-230,-25.8232,0.512817,0,0,0,0,0,0,0,-1,685,1254,-25.8232,-0.512878
-532,-230,-21.1644,1.52966,0,0,0,0,0,0,0,-1,692,1254,-21.1644,-1.52969
-525,-230,-29.4775,0.731445,0,0,0,0,0,0,0,-1,699,1254,-29.4775,-0.731432
-518,-230,-44.8911,0.687378,0,0,0,0,0,0,0,-1,706,1254,-44.891,-0.687361
-511,-230,-45.0807,0.694702,0,0,0,0,0,0,0,-1,713,1254,-45.0808,-0.694704
-504,-230,-45.0405,0.668945,0,0,0,0,0,0,0,-1,720,1254,-45.0405,-0.668985
-497,-230,0,0,0,0,0,0,0,0,0,-1,727,1254,0,0
-490,-230,0,0,0,0,0,0,0,0,0,-1,734,1254,0,0
-483,-230,0,0,0,0,0,0,0,0,0,-1,741,1254,0,0
-476,-230,0,0,0,0,0,0,0,0,0,-1,748,1254,0,0
-469,-230,0,0,0,0,0,0,0,0,0,-1,755,1254,0,0
-462,-230,0,0,0,0,0,0,0,0,0,-1,762,1254,0,0
-455,-230,0,0,0,0,0,0,0,0,0,-1,769,1254,0,0
-448,-230,0,0,0,0,0,0,0,0,0,-1,776,1254,0,0
-441,-230,0,0,0,0,0,0,0,0,0,-1,783,1254,0,0
-434,-230,0,0,0,0,0,0,0,0,0,-1,790,1254,0,0
-427,-230,0,0,0,0,0,0,0,0,0,-1,797,1254,0,0
-420,-230,0,0,0,0,0,0,0,0,0,-1,804,1254,0,0
-413,-230,0,0,0,0,0,0,0,0,0,-1,811,1254,0,0
-406,-230,0,0,0,0,0,0,0,0,0,-1,818,1254,0,0
-399,-230,0,0,0,0,0,0,0,0,0,-1,825,1254,0,0
-392,-230,0,0,0,0,0,0,0,0,0,-1,832,1254,0,0
-385,-230,0,0,0,0,0,0,0,0,0,-1,839,1254,0,0
-378,-230,0,0,0,0,0,0,0,0,0,-1,846,1254,0,0
-371,-230,0,0,0,0,0,0,0,0,0,-1,853,1254,0,0
-364,-230,0,0,0,0,0,0,0,0,0,-1,860,1254,0,0
-357,-230,0,0,0,0,0,0,0,0,0,-1,867,1254,0,0
-350,-230,0,0,0,0,0,0,0,0,0,-1,874,1254,0,0
-343,-230,0,0,0,0,0,0,0,0,0,-1,881,1254,0,0
-336,-230,0,0,0,0,0,0,0,0,0,-1,888,1254,0,0
-329,-230,0,0,0,0,0,0,0,0,0,-1,895,1254,0,0
-322,-230,0,0,0,0,0,0,0,0,0,-1,902,1254,0,0
-315,-230,0,0,0,0,0,0,0,0,0,-1,909,1254,0,0
-308,-230,0,0,0,0,0,0,0,0,0,-1,916,1254,0,0
-301,-230,0,0,0,0,0,0,0,0,0,-1,923,1254,0,0
-294,-230,0,0,0,0,0,0,0,0,0,-1,930,1254,0,0
-287,-230,0,0,0,0,0,0,0,0,0,-1,937,1254,0,0
-280,-230,0,0,0,0,0,0,0,0,0,-1,944,1254,0,0
-273,-230,0,0,0,0,0,0,0,0,0,-1,951,1254,0,0
-266,-230,0,0,0,0,0,0,0,0,0,-1,958,1254,0,0
-259,-230,0,0,0,0,0,0,0,0,0,-1,965,1254,0,0
-252,-230,0,0,0,0,0,0,0,0,0,-1,972,1254,0,0
-245,-230,0,0,0,0,0,0,0,0,0,-1,979,1254,0,0
-238,-230,0,0,0,0,0,0,0,0,0,-1,986,1254,0,0
-231,-230,0,0,0,0,0,0,0,0,0,-1,993,1254,0,0
-224,-230,0,0,0,0,0,0,0,0,0,-1,1000,1254,0,0
-217,-230,0,0,0,0,0,0,0,0,0,-1,1007,1254,0,0
-210,-230,0,0,0,0,0,0,0,0,0,-1,1014,1254,0,0
-203,-230,0,0,0,0,0,0,0,0,0,-1,1021,1254,0,0
-196,-230,0,0,0,0,0,0,0,0,0,-1,1028,1254,0,0
-189,-230,0,0,0,0,0,0,0,0,0,-1,1035,1254,0,0
-182,-230,0,0,0,0,0,0,0,0,0,-1,1042,1254,0,0
-175,-230,0,0,0,0,0,0,0,0,0,-1,1049,1254,0,0
-168,-230,0,0,0,0,0,0,0,0,0,-1,1056,1254,0,0
-161,-230,0,0,0,0,0,0,0,0,0,-1,1063,1254,0,0
-154,-230,0,0,0,0,0,0,0,0,0,-1,1070,1254,0,0
-147,-230,0,0,0,0,0,0,0,0,0,-1,1077,1254,0,0
-140,-230,0,0,0,0,0,0,0,0,0,-1,1084,1254,0,0
-133,-230,0,0,0,0,0,0,0,0,0,-1,1091,1254,0,0
-126,-230,0,0,0,0,0,0,0,0,0,-1,1098,1254,0,0
-119,-230,0,0,0,0,0,0,0,0,0,-1,1105,1254,0,0
-112,-230,0,0,0,0,0,0,0,0,0,-1,1112,1254,0,0
-105,-230,0,0,0,0,0,0,0,0,0,-1,1119,1254,0,0
-98,-230,0,0,0,0,0,0,0,0,0,-1,1126,1254,0,0
-91,-230,0,0,0,0,0,0,0,0,0,-1,1133,1254,0,0
-84,-230,0,0,0,0,0,0,0,0,0,-1,1140,1254,0,0
-77,-230,0,0,0,0,0,0,0,0,0,-1,1147,1254,0,0
-70,-230,0,0,0,0,0,0,0,0,0,-1,1154,1254,0,0
-63,-230,0,0,0,0,0,0,0,0,0,-1,1161,1254,0,0
-56,-230,0,0,0,0,0,0,0,0,0,-1,1168,1254,0,0
-49,-230,0,0,0,0,0,0,0,0,0,-1,1175,1254,0,0
-42,-230,0,0,0,0,0,0,0,0,0,-1,1182,1254,0,0
-35,-230,0,0,0,0,0,0,0,0,0,-1,1189,1254,0,0
-28,-230,0,0,0,0,0,0,0,0,0,-1,1196,1254,0,0
-21,-230,0,0,0,0,0,0,0,0,0,-1,1203,1254,0,0
-14,-230,0,0,0,0,0,0,0,0,0,-1,1210,1254,0,0
-7,-230,0,0,0,0,0,0,0,0,0,-1,1217,1254,0,0
0,-230,0,0,0,0,0,0,0,0,0,-1,1224,1254,0,0
7,-230,0,0,0,0,0,0,0,0,0,-1,1231,1254,0,0
14,-230,0,0,0,0,0,0,0,0,0,-1,1238,1254,0,0
21,-230,0,0,0,0,0,0,0,0,0,-1,1245,1254,0,0
28,-230,0,0,0,0,0,0,0,0,0,-1,1252,1254,0,0
35,-230,0,0,0,0,0,0,0,0,0,-1,1259,1254,0,0
42,-230,0,0,0,0,0,0,0,0,0,-1,1266,1254,0,0
49,-230,0,0,0,0,0,0,0,0,0,-1,1273,1254,0,0
56,-230,0,0,0,0,0,0,0,0,0,-1,1280,1254,0,0
63,-230,0,0,0,0,0,0,0,0,0,-1,1287,1254,0,0
70,-230,0,0,0,0,0,0,0,0,0,-1,1294,1254,0,0
77,-230,0,0,0,0,0,0,0,0,0,-1,1301,1254,0,0
84,-230,0,0,0,0,0,0,0,0,0,-1,1308,1254,0,0
91,-230,0,0,0,0,0,0,0,0,0,-1,1315,1254,0,0
98,-230,0,0,0,0,0,0,0,0,0,-1,1322,1254,0,0
105,-230,0,0,0,0,0,0,0,0,0,-1,1329,1254,0,0
112,-230,0,0,0,0,0,0,0,0,0,-1,1336,1254,0,0
119,-230,0,0,0,0,0,0,0,0,0,-1,1343,1254,0,0
126,-230,0,0,0,0,0,0,0,0,0,-1,1350,1254,0,0
133,-230,0,0,0,0,0,0,0,0,0,-1,1357,1254,0,0
140,-230,0,0,0,0,0,0,0,0,0,-1,1364,1254,0,0
147,-230,0,0,0,0,0,0,0,0,0,-1,1371,1254,0,0
154,-230,0,0,0,0,0,0,0,0,0,-1,1378,1254,0,0
161,-230,0,0,0,0,0,0,0,0,0,-1,1385,1254,0,0
168,-230,0,0,0,0,0,0,0,0,0,-1,1392,1254,0,0
175,-230,0,0,0,0,0,0,0,0,0,-1,1399,1254,0,0
182,-230,0,0,0,0,0,0,0,0,0,-1,1406,1254,0,0
189,-230,0,0,0,0,0,0,0,0,0,-1,1413,1254,0,0
196,-230,0,0,0,0,0,0,0,0,0,-1,1420,1254,0,0
203,-230,0,0,0,0,0,0,0,0,0,-1,1427,1254,0,0
210,-230,0,0,0,0,0,0,0,0,0,-1,1434,1254,0,0
217,-230,0,0,0,0,0,0,0,0,0,-1,1441,1254,0,0
224,-230,0,0,0,0,0,0,0,0,0,-1,1448,1254,0,0
231,-230,0,0,0,0,0,0,0,0,0,-1,1455,1254,0,0
238,-230,0,0,0,0,0,0,0,0,0,-1,1462,1254,0,0
245,-230,0,0,0,0,0,0,0,0,0,-1,1469,1254,0,0
252,-230,0,0,0,0,0,0,0,0,0,-1,1476,1254,0,0
259,-230,0,0,0,0,0,0,0,0,0,-1,1483,1254,0,0
266,-230,0,0,0,0,0,0,0,0,0,-1,1490,1254,0,0
273,-230,0,0,0,0,0,0,0,0,0,-1,1497,1254,0,0
280,-230,0,0,0,0,0,0,0,0,0,-1,1504,1254,0,0
287,-230,0,0,0,0,0,0,0,0,0,-1,1511,1254,0,0
294,-230,0,0,0,0,0,0,0,0,0,-1,1518,1254,0,0
301,-230,0,0,0,0,0,0,0,0,0,-1,1525,1254,0,0
308,-230,0,0,0,0,0,0,0,0,0,-1,1532,1254,0,0
315,-230,0,0,0,0,0,0,0,0,0,-1,1539,1254,0,0
322,-230,0,0,0,0,0,0,0,0,0,-1,1546,1254,0,0
329,-230,0,0,0,0,0,0,0,0,0,-1,1553,1254,0,0
336,-230,0,0,0,0,0,0,0,0,0,-1,1560,1254,0,0
343,-230,0,0,0,0,0,0,0,0,0,-1,1567,1254,0,0
350,-230,0,0,0,0,0,0,0,0,0,-1,1574,1254,0,0
357,-230,0,0,0,0,0,0,0,0,0,-1,1581,1254,0,0
364,-230,0,0,0,0,0,0,0,0,0,-1,1588,1254,0,0
371,-230,0,0,0,0,0,0,0,0,0,-1,1595,1254,0,0
378,-230,0,0,0,0,0,0,0,0,0,-1,1602,1254,0,0
385,-230,0,0,0,0,0,0,0,0,0,-1,1609,1254,0,0
392,-230,0,0,0,0,0,0,0,0,0,-1,1616,1254,0,0
399,-230,0,0,0,0,0,0,0,0,0,-1,1623,1254,0,0
406,-230,0,0,0,0,0,0,0,0,0,-1,1630,1254,0,0
413,-230,0,0,0,0,0,0,0,0,0,-1,1637,1254,0,0
420,-230,0,0,0,0,0,0,0,0,0,-1,1644,1254,0,0
427,-230,0,0,0,0,0,0,0,0,0,-1,1651,1254,0,0
434,-230,0,0,0,0,0,0,0,0,0,-1,1658,1254,0,0
441,-230,0,0,0,0,0,0,0,0,0,-1,1665,1254,0,0
448,-230,0,0,0,0,0,0,0,0,0,-1,1672,1254,0,0
455,-230,0,0,0,0,0,0,0,0,0,-1,1679,1254,0,0
462,-230,0,0,0,0,0,0,0,0,0,-1,1686,1254,0,0
469,-230,0,0,0,0,0,0,0,0,0,-1,1693,1254,0,0
476,-230,0,0,0,0,0,0,0,0,0,-1,1700,1254,0,0
483,-230,0,0,0,0,0,0,0,0,0,-1,1707,1254,0,0
490,-230,0,0,0,0,0,0,0,0,0,-1,1714,1254,0,0
497,-230,0,0,0,0,0,0,0,0,0,-1,1721,1254,0,0
504,-230,0,0,0,0,0,0,0,0,0,-1,1728,1254,0,0
511,-230,0,0,0,0,0,0,0,0,0,-1,1735,1254,0,0
518,-230,0,0,0,0,0,0,0,0,0,-1,1742,1254,0,0
525,-230,0,0,0,0,0,0,0,0,0,-1,1749,1254,0,0
532,-230,0,0,0,0,0,0,0,0,0,-1,1756,1254,0,0
539,-230,0,0,0,0,0,0,0,0,0,-1,1763,1254,0,0
546,-230,0,0,0,0,0,0,0,0,0,-1,1770,1254,0,0
553,-230,0,0,0,0,0,0,0,0,0,-1,1777,1254,0,0
560,-230,0,0,0,0,0,0,0,0,0,-1,1784,1254,0,0
567,-230,0,0,0,0,0,0,0,0,0,-1,1791,1254,0,0
574,-230,0,0,0,0,0,0,0,0,0,-1,1798,1254,0,0
581,-230,0,0,0,0,0,0,0,0,0,-1,1805,1254,0,0
588,-230,0,0,0,0,0,0,0,0,0,-1,1812,1254,0,0
595,-230,0,0,0,0,0,0,0,0,0,-1,1819,1254,0,0
602,-230,0,0,0,0,0,0,0,0,0,-1,1826,1254,0,0
609,-230,0,0,0,0,0,0,0,0,0,-1,1833,1254,0,0
616,-230,60.1189,2.58191,0.00229435,-0.00100759,0.000143962,0.00230062,-0.00101386,0.0434891,0.00196109,0.0384614,1840,1254,60.1189,-2.58193
623,-230,60.1064,2.57153,-0.00127371,0.00244235,-0.000306169,0.00246741,-0.00129876,-1.48914,0.00220902,0.0354133,1847,1254,60.1064,-2.5715
630,-230,60.0179,2.65955,-0.00433235,0.00550726,-0.00102386,0.00561267,-0.00443776,-1.46821,0.00581582,0.0319277,1854,1254,60.018,-2.65954
637,-230,60.0211,2.62476,-0.00654555,0.00780368,-0.00183129,0.00803371,-0.00677558,-1.44584,0.00856042,0.0266447,1861,1254,60.0211,-2.62474
644,-230,60.0304,2.54663,-0.00641224,0.00803165,-0.00251076,0.00845564,-0.00683624,-1.4035,0.00884526,0.0211468,1868,1254,60.0304,-2.54664
651,-230,60.0018,2.49683,-0.00518867,0.00661253,-0.00248912,0.00711605,-0.00569219,-1.3712,0.00741006,0.0470643,1875,1254,60.0018,-2.49679
658,-230,59.9575,2.43921,0,0,0,0,0,0,0,-1,1882,1254,59.9575,-2.43916
665,-230,56.2585,2.51587,0,0,0,0,0,0,0,-1,1889,1254,56.2586,-2.51586
672,-230,43.0962,2.78699,0,0,0,0,0,0,0,-1,1896,1254,43.0962,-2.78698
679,-230,27.9967,2.37708,0,0,0,0,0,0,0,-1,1903,1254,27.9967,-2.3771
686,-230,40.8854,10.1788,0,0,0,0,0,0,0,-1,1910,1254,40.8853,-10.1788
693,-230,46.4373,11.2606,0,0,0,0,0,0,0,-1,1917,1254,46.4373,-11.2606
700,-230,46.2091,10.6812,0.00125926,-0.000143535,-0.00109779,0.00186059,-0.000744867,-0.501126,0.00154955,0.039975,1924,1254,46.2091,-10.6812
707,-230,46.0939,10.1122,0.0011825,-0.000646101,-0.000765461,0.00146063,-0.000924225,-0.34851,0.00138846,0.0192121,1931,1254,46.0939,-10.1122
714,-230,46.0513,9.55225,0.000697279,-0.000835523,1.12704e-05,0.000697361,-0.000835606,0.00735226,0.000886258,0.0133196,1938,1254,46.0513,-9.55225
721,-230,46.0402,8.99182,7.42818e-05,-0.00102848,0.000923836,0.00059877,-0.00155297,0.516353,0.00128238,0.0125473,1945,1254,46.0401,-8.99179
728,-230,46.0084,8.46362,-0.000569882,-0.000661862,0.00172047,0.00110521,-0.00233696,0.772036,0.00202931,0.0136188,1952,1254,46.0084,-8.46357
735,-230,45.9885,7.92517,-0.00112132,-0.00010098,0.00252365,0.00196355,-0.00318585,0.885132,0.0030008,0.0141423,1959,1254,45.9885,-7.92516
742,-230,45.9594,7.35083,-0.00153774,0.000530108,0.0033991,0.00304906,-0.00405669,0.93304,0.00411623,0.0115788,1966,1254,45.9593,-7.35089
749,-230,45.9338,6.75732,-0.0017067,0.00125056,0.00433815,0.00435515,-0.00481129,0.949645,0.00529443,0.0117559,1973,1254,45.9339,-6.75735
756,-230,45.8956,6.21851,-0.00155324,0.00208916,0.00541776,0.00598364,-0.00544772,0.947542,0.00660231,0.0177292,1980,1254,45.8957,-6.21855
763,-230,45.9064,5.62695,-0.000765295,0.00301218,0.00668747,0.00807251,-0.00582562,0.923028,0.00805897,0.0373931,1987,1254,45.9064,-5.62695
770,-230,46.245,4.97888,0,0,0,0,0,0,0,-1,1994,1254,46.2451,-4.97887
777,-230,41.8693,3.74707,0,0,0,0,0,0,0,-1,2001,1254,41.8692,-3.74713
784,-230,35.8896,1.80334,0,0,0,0,0,0,0,-1,2008,1254,35.8897,-1.80338
791,-230,35.6028,2.20642,0,0,0,0,0,0,0,-1,2015,1254,35.6027,-2.2064
798,-230,0,0,0,0,0,0,0,0,0,-1,2022,1254,0,0
805,-230,0,0,0,0,0,0,0,0,0,-1,2029,1254,0,0
812,-230,0,0,0,0,0,0,0,0,0,-1,2036,1254,0,0
-700,-237,0,0,0,0,0,0,0,0,0,-1,524,1261,0,0
-693,-237,0,0,0,0,0,0,0,0,0,-1,531,1261,0,0
-686,-237,0,0,0,0,0,0,0,0,0,-1,538,1261,0,0
-679,-237,0,0,0,0,0,0,0,0,0,-1,545,1261,0,0
-672,-237,-46.0028,4.15186,-0.0138097,-0.029921,-0.0592455,0.0379253,-0.081656,-0.717827,0.0705624,0.0481758,552,1261,-46.0028,-4.15186
-665,-237,-46.0415,2.72217,-0.0138416,-0.0223788,-0.0592083,0.0412518,-0.0774722,-0.749413,0.0696005,0.0476839,559,1261,-46.0415,-2.7222
-658,-237,-46.5731,1.78918,0,0,0,0,0,0,0,-1,566,1261,-46.5731,-1.78917
-651,-237,-46.7432,0.650757,-0.0108553,-0.0111641,-0.0487809,0.0377714,-0.0597909,-0.783815,0.0568038,0.045621,573,1261,-46.7432,-0.650708
-644,-237,-46.5833,-0.659302,-0.00915507,-0.00710766,-0.041557,0.0334382,-0.0497009,-0.797713,0.0483055,0.0445288,580,1261,-46.5832,0.659344
-637,-237,-46.2443,-2.69543,-0.00733528,-0.00392554,-0.0340779,0.0284901,-0.0397509,-0.810392,0.0395774,0.0488284,587,1261,-46.2443,2.69545
-630,-237,-29.8011,2.90063,0,0,0,0,0,0,0,-1,594,1261,-29.8011,-2.90069
-623,-237,-29.837,3.69592,-0.00321993,0.000167733,-0.0207094,0.0192525,-0.0223047,-0.826203,0.0240146,0.0347006,601,1261,-29.837,-3.69589
-616,-237,-29.8893,4.44385,-0.00231172,0.00136354,-0.014588,0.0142292,-0.0151774,-0.848052,0.0169808,0.0158887,608,1261,-29.8893,-4.44388
-609,-237,-29.9348,5.03284,-0.00119333,0.00163042,-0.00920967,0.00953581,-0.00909872,-0.861458,0.0107596,0.0180017,615,1261,-29.9348,-5.03288
-602,-237,-29.9559,5.63721,9.29013e-05,0.00108651,-0.00557655,0.00618834,-0.00500893,-0.829825,0.00647669,0.0130055,622,1261,-29.9559,-5.63723
-595,-237,-30.0215,6.26086,0.00107379,0.00020876,-0.00286979,0.00354348,-0.00226093,-0.710605,0.00337833,0.0163833,629,1261,-30.0215,-6.2609
-588,-237,-30.0356,6.90698,0.0011866,-0.00068654,-0.00131045,0.00186076,-0.00136069,-0.475138,0.00186736,0.027168,636,1261,-30.0357,-6.90693
-581,-237,-30.0472,7.53528,0.000683505,-0.00178989,-0.000991844,0.00103211,-0.00213849,-0.337983,0.00186733,0.0248389,643,1261,-30.0473,-7.53533
-574,-237,-30.0321,8.08997,0.000336535,-0.00219165,-0.00127778,0.000869842,-0.00272496,-0.395391,0.00216562,0.0224041,650,1261,-30.0321,-8.08996
-567,-237,-30.0533,8.69885,0.000314064,-0.00237848,-0.000999328,0.000644427,-0.00270884,-0.319275,0.00205467,0.035429,657,1261,-30.0533,-8.69889
-560,-237,-29.9854,9.04431,0,0,0,0,0,0,0,-1,664,1261,-29.9854,-9.04432
-553,-237,-20.6102,6.92139,0,0,0,0,0,0,0,-1,671,1261,-20.6102,-6.92138
-546,-237,-11.192,1.14014,0,0,0,0,0,0,0,-1,678,1261,-11.192,-1.14011
-539,-237,-16.512,1.53455,0,0,0,0,0,0,0,-1,685,1261,-16.512,-1.53457
-532,-237,-29.7025,1.23621,0,0,0,0,0,0,0,-1,692,1261,-29.7025,-1.23618
-525,-237,-37.9338,0.75708,0,0,0,0,0,0,0,-1,699,1261,-37.9339,-0.757056
-518,-237,-44.6821,0.796021,0,0,0,0,0,0,0,-1,706,1261,-44.6821,-0.796038
-511,-237,-45.0624,0.959839,0,0,0,0,0,0,0,-1,713,1261,-45.0624,-0.959786
-504,-237,-45.4186,1.08093,0,0,0,0,0,0,0,-1,720,1261,-45.4187,-1.08094
-497,-237,-45.2903,1.01636,0,0,0,0,0,0,0,-1,727,1261,-45.2903,-1.01636
-490,-237,0,0,0,0,0,0,0,0,0,-1,734,1261,0,0
-483,-237,0,0,0,0,0,0,0,0,0,-1,741,1261,0,0
-476,-237,0,0,0,0,0,0,0,0,0,-1,748,1261,0,0
-469,-237,0,0,0,0,0,0,0,0,0,-1,755,1261,0,0
-462,-237,0,0,0,0,0,0,0,0,0,-1,762,1261,0,0
-455,-237,0,0,0,0,0,0,0,0,0,-1,769,1261,0,0
-448,-237,0,0,0,0,0,0,0,0,0,-1,776,1261,0,0
-441,-237,0,0,0,0,0,0,0,0,0,-1,783,1261,0,0
-434,-237,0,0,0,0,0,0,0,0,0,-1,790,1261,0,0
-427,-237,0,0,0,0,0,0,0,0,0,-1,797,1261,0,0
-420,-237,0,0,0,0,0,0,0,0,0,-1,804,1261,0,0
-413,-237,0,0,0,0,0,0,0,0,0,-1,811,1261,0,0
-406,-237,0,0,0,0,0,0,0,0,0,-1,818,1261,0,0
-399,-237,0,0,0,0,0,0,0,0,0,-1,825,1261,0,0
-392,-237,0,0,0,0,0,0,0,0,0,-1,832,1261,0,0
-385,-237,0,0,0,0,0,0,0,0,0,-1,839,1261,0,0
-378,-237,0,0,0,0,0,0,0,0,0,-1,846,1261,0,0
-371,-237,0,0,0,0,0,0,0,0,0,-1,853,1261,0,0
-364,-237,0,0,0,0,0,0,0,0,0,-1,860,1261,0,0
-357,-237,0,0,0,0,0,0,0,0,0,-1,867,1261,0,0
-350,-237,0,0,0,0,0,0,0,0,0,-1,874,1261,0,0
-343,-237,0,0,0,0,0,0,0,0,0,-1,881,1261,0,0
-336,-237,0,0,0,0,0,0,0,0,0,-1,888,1261,0,0
-329,-237,0,0,0,0,0,0,0,0,0,-1,895,1261,0,0
-322,-237,0,0,0,0,0,0,0,0,0,-1,902,1261,0,0
-315,-237,0,0,0,0,0,0,0,0,0,-1,909,1261,0,0
-308,-237,0,0,0,0,0,0,0,0,0,-1,916,1261,0,0
-301,-237,0,0,0,0,0,0,0,0,0,-1,923,1261,0,0
-294,-237,0,0,0,0,0,0,0,0,0,-1,930,1261,0,0
-287,-237,0,0,0,0,0,0,0,0,0,-1,937,1261,0,0
-280,-237,0,0,0,0,0,0,0,0,0,-1,944,1261,0,0
-273,-237,0,0,0,0,0,0,0,0,0,-1,951,1261,0,0
-266,-237,0,0,0,0,0,0,0,0,0,-1,958,1261,0,0
-259,-237,0,0,0,0,0,0,0,0,0,-1,965,1261,0,0
-252,-237,0,0,0,0,0,0,0,0,0,-1,972,1261,0,0
-245,-237,0,0,0,0,0,0,0,0,0,-1,979,1261,0,0
-238,-237,0,0,0,0,0,0,0,0,0,-1,986,1261,0,0
-231,-237,0,0,0,0,0,0,0,0,0,-1,993,1261,0,0
-224,-237,0,0,0,0,0,0,0,0,0,-1,1000,1261,0,0
-217,-237,0,0,0,0,0,0,0,0,0,-1,1007,1261,0,0
-210,-237,0,0,0,0,0,0,0,0,0,-1,1014,1261,0,0
-203,-237,0,0,0,0,0,0,0,0,0,-1,1021,1261,0,0
-196,-237,0,0,0,0,0,0,0,0,0,-1,1028,1261,0,0
-189,-237,0,0,0,0,0,0,0,0,0,-1,1035,1261,0,0
-182,-237,0,0,0,0,0,0,0,0,0,-1,1042,1261,0,0
-175,-237,0,0,0,0,0,0,0,0,0,-1,1049,1261,0,0
-168,-237,0,0,0,0,0,0,0,0,0,-1,1056,1261,0,0
-161,-237,0,0,0,0,0,0,0,0,0,-1,1063,1261,0,0
-154,-237,0,0,0,0,0,0,0,0,0,-1,1070,1261,0,0
-147,-237,0,0,0,0,0,0,0,0,0,-1,1077,1261,0,0
-140,-237,0,0,0,0,0,0,0,0,0,-1,1084,1261,0,0
-133,-237,0,0,0,0,0,0,0,0,0,-1,1091,1261,0,0
-126,-237,0,0,0,0,0,0,0,0,0,-1,1098,1261,0,0
-119,-237,0,0,0,0,0,0,0,0,0,-1,1105,1261,0,0
-112,-237,0,0,0,0,0,0,0,0,0,-1,1112,1261,0,0
-105,-237,0,0,0,0,0,0,0,0,0,-1,1119,1261,0,0
-98,-237,0,0,0,0,0,0,0,0,0,-1,1126,1261,0,0
-91,-237,0,0,0,0,0,0,0,0,0,-1,1133,1261,0,0
-84,-237,0,0,0,0,0,0,0,0,0,-1,1140,1261,0,0
-77,-237,0,0,0,0,0,0,0,0,0,-1,1147,1261,0,0
-70,-237,0,0,0,0,0,0,0,0,0,-1,1154,1261,0,0
-63,-237,0,0,0,0,0,0,0,0,0,-1,1161,1261,0,0
-56,-237,0,0,0,0,0,0,0,0,0,-1,1168,1261,0,0
-49,-237,0,0,0,0,0,0,0,0,0,-1,1175,1261,0,0
-42,-237,0,0,0,0,0,0,0,0,0,-1,1182,1261,0,0
-35,-237,0,0,0,0,0,0,0,0,0,-1,1189,1261,0,0
-28,-237,0,0,0,0,0,0,0,0,0,-1,1196,1261,0,0
-21,-237,0,0,0,0,0,0,0,0,0,-1,1203,1261,0,0
-14,-237,0,0,0,0,0,0,0,0,0,-1,1210,1261,0,0
-7,-237,0,0,0,0,0,0,0,0,0,-1,1217,1261,0,0
0,-237,0,0,0,0,0,0,0,0,0,-1,1224,1261,0,0
7,-237,0,0,0,0,0,0,0,0,0,-1,1231,1261,0,0
14,-237,0,0,0,0,0,0,0,0,0,-1,1238,1261,0,0
21,-237,0,0,0,0,0,0,0,0,0,-1,1245,1261,0,0
28,-237,0,0,0,0,0,0,0,0,0,-1,1252,1261,0,0
35,-237,0,0,0,0,0,0,0,0,0,-1,1259,1261,0,0
42,-237,0,0,0,0,0,0,0,0,0,-1,1266,1261,0,0
49,-237,0,0,0,0,0,0,0,0,0,-1,1273,1261,0,0
56,-237,0,0,0,0,0,0,0,0,0,-1,1280,1261,0,0
63,-237,0,0,0,0,0,0,0,0,0,-1,1287,1261,0,0
70,-237,0,0,0,0,0,0,0,0,0,-1,1294,1261,0,0
77,-237,0,0,0,0,0,0,0,0,0,-1,1301,1261,0,0
84,-237,0,0,0,0,0,0,0,0,0,-1,1308,1261,0,0
91,-237,0,0,0,0,0,0,0,0,0,-1,1315,1261,0,0
98,-237,0,0,0,0,0,0,0,0,0,-1,1322,1261,0,0
105,-237,0,0,0,0,0,0,0,0,0,-1,1329,1261,0,0
112,-237,0,0,0,0,0,0,0,0,0,-1,1336,1261,0,0
119,-237,0,0,0,0,0,0,0,0,0,-1,1343,1261,0,0
126,-237,0,0,0,0,0,0,0,0,0,-1,1350,1261,0,0
133,-237,0,0,0,0,0,0,0,0,0,-1,1357,1261,0,0
140,-237,0,0,0,0,0,0,0,0,0,-1,1364,1261,0,0
147,-237,0,0,0,0,0,0,0,0,0,-1,1371,1261,0,0
154,-237,0,0,0,0,0,0,0,0,0,-1,1378,1261,0,0
161,-237,0,0,0,0,0,0,0,0,0,-1,1385,1261,0,0
168,-237,0,0,0,0,0,0,0,0,0,-1,1392,1261,0,0
175,-237,0,0,0,0,0,0,0,0,0,-1,1399,1261,0,0
182,-237,0,0,0,0,0,0,0,0,0,-1,1406,1261,0,0
189,-237,0,0,0,0,0,0,0,0,0,-1,1413,1261,0,0
196,-237,0,0,0,0,0,0,0,0,0,-1,1420,1261,0,0
203,-237,0,0,0,0,0,0,0,0,0,-1,1427,1261,0,0
210,-237,0,0,0,0,0,0,0,0,0,-1,1434,1261,0,0
217,-237,0,0,0,0,0,0,0,0,0,-1,1441,1261,0,0
224,-237,0,0,0,0,0,0,0,0,0,-1,1448,1261,0,0
231,-237,0,0,0,0,0,0,0,0,0,-1,1455,1261,0,0
238,-237,0,0,0,0,0,0,0,0,0,-1,1462,1261,0,0
245,-237,0,0,0,0,0,0,0,0,0,-1,1469,1261,0,0
252,-237,0,0,0,0,0,0,0,0,0,-1,1476,1261,0,0
259,-237,0,0,0,0,0,0,0,0,0,-1,1483,1261,0,0
266,-237,0,0,0,0,0,0,0,0,0,-1,1490,1261,0,0
273,-237,0,0,0,0,0,0,0,0,0,-1,1497,1261,0,0
280,-237,0,0,0,0,0,0,0,0,0,-1,1504,1261,0,0
287,-237,0,0,0,0,0,0,0,0,0,-1,1511,1261,0,0
294,-237,0,0,0,0,0,0,0,0,0,-1,1518,1261,0,0
301,-237,0,0,0,0,0,0,0,0,0,-1,1525,1261,0,0
308,-237,0,0,0,0,0,0,0,0,0,-1,1532,1261,0,0
315,-237,0,0,0,0,0,0,0,0,0,-1,1539,1261,0,0
322,-237,0,0,0,0,0,0,0,0,0,-1,1546,1261,0,0
329,-237,0,0,0,0,0,0,0,0,0,-1,1553,1261,0,0
336,-237,0,0,0,0,0,0,0,0,0,-1,1560,1261,0,0
343,-237,0,0,0,0,0,0,0,0,0,-1,1567,1261,0,0
350,-237,0,0,0,0,0,0,0,0,0,-1,1574,1261,0,0
357,-237,0,0,0,0,0,0,0,0,0,-1,1581,1261,0,0
364,-237,0,0,0,0,0,0,0,0,0,-1,1588,1261,0,0
371,-237,0,0,0,0,0,0,0,0,0,-1,1595,1261,0,0
378,-237,0,0,0,0,0,0,0,0,0,-1,1602,1261,0,0
385,-237,0,0,0,0,0,0,0,0,0,-1,1609,1261,0,0
392,-237,0,0,0,0,0,0,0,0,0,-1,1616,1261,0,0
399,-237,0,0,0,0,0,0,0,0,0,-1,1623,1261,0,0
406,-237,0,0,0,0,0,0,0,0,0,-1,1630,1261,0,0
413,-237,0,0,0,0,0,0,0,0,0,-1,1637,1261,0,0
420,-237,0,0,0,0,0,0,0,0,0,-1,1644,1261,0,0
427,-237,0,0,0,0,0,0,0,0,0,-1,1651,1261,0,0
434,-237,0,0,0,0,0,0,0,0,0,-1,1658,1261,0,0
441,-237,0,0,0,0,0,0,0,0,0,-1,1665,1261,0,0
448,-237,0,0,0,0,0,0,0,0,0,-1,1672,1261,0,0
455,-237,0,0,0,0,0,0,0,0,0,-1,1679,1261,0,0
462,-237,0,0,0,0,0,0,0,0,0,-1,1686,1261,0,0
469,-237,0,0,0,0,0,0,0,0,0,-1,1693,1261,0,0
476,-237,0,0,0,0,0,0,0,0,0,-1,1700,1261,0,0
483,-237,0,0,0,0,0,0,0,0,0,-1,1707,1261,0,0
490,-237,0,0,0,0,0,0,0,0,0,-1,1714,1261,0,0
497,-237,0,0,0,0,0,0,0,0,0,-1,1721,1261,0,0
504,-237,0,0,0,0,0,0,0,0,0,-1,1728,1261,0,0
511,-237,0,0,0,0,0,0,0,0,0,-1,1735,1261,0,0
518,-237,0,0,0,0,0,0,0,0,0,-1,1742,1261,0,0
525,-237,0,0,0,0,0,0,0,0,0,-1,1749,1261,0,0
532,-237,0,0,0,0,0,0,0,0,0,-1,1756,1261,0,0
539,-237,0,0,0,0,0,0,0,0,0,-1,1763,1261,0,0
546,-237,0,0,0,0,0,0,0,0,0,-1,1770,1261,0,0
553,-237,0,0,0,0,0,0,0,0,0,-1,1777,1261,0,0
560,-237,0,0,0,0,0,0,0,0,0,-1,1784,1261,0,0
567,-237,0,0,0,0,0,0,0,0,0,-1,1791,1261,0,0
574,-237,0,0,0,0,0,0,0,0,0,-1,1798,1261,0,0
581,-237,0,0,0,0,0,0,0,0,0,-1,1805,1261,0,0
588,-237,0,0,0,0,0,0,0,0,0,-1,1812,1261,0,0
595,-237,0,0,0,0,0,0,0,0,0,-1,1819,1261,0,0
602,-237,0,0,0,0,0,0,0,0,0,-1,1826,1261,0,0
609,-237,0,0,0,0,0,0,0,0,0,-1,1833,1261,0,0
616,-237,60.1656,2.62781,0.000280301,0.00134929,0.000618071,0.00163192,-2.33098e-06,1.1419,0.00108873,0.0367952,1840,1261,60.1657,-2.62786
623,-237,60.1439,2.64197,-0.00371,0.00538532,-4.72941e-05,0.00538557,-0.00371025,-1.5656,0.00528108,0.0315903,1847,1261,60.1439,-2.64191
630,-237,60.0967,2.71155,-0.00734728,0.00896772,-0.00097114,0.00902532,-0.00740488,-1.51155,0.00950135,0.0258867,1854,1261,60.0967,-2.71159
637,-237,60.0022,2.54468,-0.00924859,0.0107322,-0.00181741,0.0108962,-0.00941255,-1.48082,0.0117357,0.0206392,1861,1261,60.0022,-2.54469
644,-237,59.8381,2.323,-0.00817475,0.00976256,-0.00237486,0.0100717,-0.00848385,-1.44137,0.0107261,0.0403588,1868,1261,59.8381,-2.32302
651,-237,59.9513,2.45496,0,0,0,0,0,0,0,-1,1875,1261,59.9513,-2.45501
658,-237,57.7922,3.16138,0,0,0,0,0,0,0,-1,1882,1261,57.7922,-3.16132
665,-237,57.9302,3.30676,0,0,0,0,0,0,0,-1,1889,1261,57.9302,-3.30671
672,-237,45.3922,1.95618,0,0,0,0,0,0,0,-1,1896,1261,45.3922,-1.95623
679,-237,23.1501,7.37488,0,0,0,0,0,0,0,-1,1903,1261,23.1502,-7.37493
686,-237,36.8348,9.99426,0,0,0,0,0,0,0,-1,1910,1261,36.8349,-9.99424
693,-237,45.6167,11.3131,0,0,0,0,0,0,0,-1,1917,1261,45.6167,-11.3131
700,-237,45.5597,10.7411,0.00124388,-0.000198713,-0.00110367,0.00184105,-0.000795883,-0.495967,0.00156179,0.0192381,1924,1261,45.5597,-10.7411
707,-237,45.5138,10.1661,0.00101302,-0.000700032,-0.000652845,0.00123345,-0.000920466,-0.325633,0.00124793,0.0117097,1931,1261,45.5137,-10.1661
714,-237,45.4829,9.59241,0.000314727,-0.000849765,0.000214543,0.000352996,-0.000888035,0.176519,0.000738372,0.0157642,1938,1261,45.483,-9.59238
721,-237,45.4337,9.05151,-0.00046024,-0.000909926,0.00115286,0.0004895,-0.00185967,0.689092,0.00143113,0.0171255,1945,1261,45.4337,-9.05146
728,-237,45.4641,8.47998,-0.00122614,-0.000517422,0.00196989,0.00112973,-0.00287329,0.874391,0.0023831,0.0145811,1952,1261,45.4641,-8.47996
735,-237,45.429,7.90698,-0.00191023,4.11691e-06,0.0028044,0.00201019,-0.0039163,0.949855,0.00348015,0.0185813,1959,1261,45.429,-7.90701
742,-237,45.3883,7.33765,-0.00247853,0.000584182,0.00371159,0.00306791,-0.00496226,0.981054,0.00467903,0.0149984,1966,1261,45.3883,-7.3376
749,-237,45.3347,6.79883,-0.00283134,0.00128018,0.00467731,0.00433356,-0.00588473,0.99245,0.00592215,0.0108617,1973,1261,45.3348,-6.79887
756,-237,45.2998,6.25769,-0.00293359,0.00209072,0.00582132,0.00591881,-0.00676168,0.989099,0.00732647,0.0195923,1980,1261,45.2998,-6.25771
763,-237,45.1927,5.58801,-0.00245036,0.00302916,0.0071548,0.00795083,-0.00737202,0.968249,0.00884875,0.0390602,1987,1261,45.1928,-5.58805
770,-237,45.5526,4.63416,0,0,0,0,0,0,0,-1,1994,1261,45.5526,-4.63416
777,-237,46.1018,3.53772,0,0,0,0,0,0,0,-1,2001,1261,46.1018,-3.53767
784,-237,36.3441,1.68591,0,0,0,0,0,0,0,-1,2008,1261,36.3441,-1.68592
791,-237,32.3025,6.03235,0,0,0,0,0,0,0,-1,2015,1261,32.3025,-6.03229
798,-237,0,0,0,0,0,0,0,0,0,-1,2022,1261,0,0
805,-237,0,0,0,0,0,0,0,0,0,-1,2029,1261,0,0
812,-237,0,0,0,0,0,0,0,0,0,-1,2036,1261,0,0
-700,-244,0,0,0,0,0,0,0,0,0,-1,524,1268,0,0
-693,-244,0,0,0,0,0,0,0,0,0,-1,531,1268,0,0
-686,-244,0,0,0,0,0,0,0,0,0,-1,538,1268,0,0
-679,-244,0,0,0,0,0,0,0,0,0,-1,545,1268,0,0
-672,-244,-46.5594,4.42163,-0.00224294,-0.0374077,-0.0695334,0.0518966,-0.0915472,-0.661563,0.0838653,0.044869,552,1268,-46.5594,-4.42164
-665,-244,-46.3803,2.63867,-0.00593296,-0.0306519,-0.0679066,0.0507297,-0.0873146,-0.69538,0.0806275,0.0470303,559,1268,-46.3803,-2.63873
-658,-244,-47.1508,1.63855,0,0,0,0,0,0,0,-1,566,1268,-47.1508,-1.63861
-651,-244,-46.9415,0.578247,-0.00667248,-0.0192121,-0.0547086,0.0421244,-0.068009,-0.728345,0.0641683,0.0493513,573,1268,-46.9415,-0.578211
-644,-244,-47.0084,-0.652344,-0.00610368,-0.0142859,-0.0464157,0.0364008,-0.0567904,-0.741441,0.0542315,0.045916,580,1268,-47.0083,0.652373
-637,-244,-29.8231,1.77478,0,0,0,0,0,0,0,-1,587,1268,-29.8231,-1.77482
-630,-244,-29.7591,2.70093,0,0,0,0,0,0,0,-1,594,1268,-29.7591,-2.70095
-623,-244,-29.4638,3.6217,-0.00215983,-0.00350666,-0.0231205,0.0202971,-0.0259636,-0.770839,0.0267753,0.03782,601,1268,-29.4638,-3.62167
-616,-244,-29.2809,4.45996,-0.0015395,-0.00120948,-0.0164459,0.0150722,-0.0178212,-0.790415,0.0190131,0.0188341,608,1268,-29.2809,-4.46002
-609,-244,-29.3136,5.04834,-0.000735152,-6.40243e-05,-0.0104053,0.0100111,-0.0108103,-0.801517,0.0120242,0.0151091,615,1268,-29.3136,-5.0483
-602,-244,-29.349,5.6582,0.000450084,0.000291904,-0.00628682,0.00665831,-0.00591632,-0.779108,0.00726418,0.0153455,622,1268,-29.349,-5.65816
-595,-244,-29.3895,6.29578,0.0014637,0.000221184,-0.00315047,0.00405358,-0.00236869,-0.688049,0.0037502,0.0167004,629,1268,-29.3896,-6.29577
-588,-244,-29.3927,6.93127,0.00182316,-0.000298054,-0.00112746,0.00231047,-0.000785363,-0.40797,0.00185827,0.0207206,636,1268,-29.3927,-6.93124
-581,-244,-29.4174,7.5332,0.00153043,-0.00166921,-0.000444721,0.00159109,-0.00172987,-0.135568,0.00191792,0.0179012,643,1268,-29.4174,-7.53324
-574,-244,-29.4605,8.14795,0.00124573,-0.00232298,-0.000754507,0.00139869,-0.00247594,-0.200023,0.00226566,0.0148508,650,1268,-29.4605,-8.14796
-567,-244,-29.4769,8.73975,0.00127538,-0.00273081,-0.000587565,0.00135978,-0.00281521,-0.142662,0.00245877,0.02339,657,1268,-29.4769,-8.73971
-560,-244,-29.3723,9.27954,0.00124214,-0.00233378,-4.41183e-05,0.00124268,-0.00233432,-0.0123351,0.002097,0.0422216,664,1268,-29.3722,-9.27959
-553,-244,-29.2057,9.82214,0,0,0,0,0,0,0,-1,671,1268,-29.2057,-9.82217
-546,-244,-11.2686,4.41772,0,0,0,0,0,0,0,-1,678,1268,-11.2686,-4.41767
-539,-244,-12.8706,0.3302,0,0,0,0,0,0,0,-1,685,1268,-12.8706,-0.330156
-532,-244,-18.1502,0.816528,0,0,0,0,0,0,0,-1,692,1268,-18.1502,-0.816514
-525,-244,-33.0835,0.693604,0,0,0,0,0,0,0,-1,699,1268,-33.0835,-0.69365
-518,-244,-38.1713,0.902832,0,0,0,0,0,0,0,-1,706,1268,-38.1713,-0.902888
-511,-244,-45.1503,1.29028,0,0,0,0,0,0,0,-1,713,1268,-45.1503,-1.29033
-504,-244,-45.5184,1.34546,0,0,0,0,0,0,0,-1,720,1268,-45.5184,-1.34541
-497,-244,-45.5983,1.38525,0,0,0,0,0,0,0,-1,727,1268,-45.5982,-1.38522
-490,-244,0,0,0,0,0,0,0,0,0,-1,734,1268,0,0
-483,-244,0,0,0,0,0,0,0,0,0,-1,741,1268,0,0
-476,-244,0,0,0,0,0,0,0,0,0,-1,748,1268,0,0
-469,-244,0,0,0,0,0,0,0,0,0,-1,755,1268,0,0
-462,-244,0,0,0,0,0,0,0,0,0,-1,762,1268,0,0
-455,-244,0,0,0,0,0,0,0,0,0,-1,769,1268,0,0
-448,-244,0,0,0,0,0,0,0,0,0,-1,776,1268,0,0
-441,-244,0,0,0,0,0,0,0,0,0,-1,783,1268,0,0
-434,-244,0,0,0,0,0,0,0,0,0,-1,790,1268,0,0
-427,-244,0,0,0,0,0,0,0,0,0,-1,797,1268,0,0
-420,-244,0,0,0,0,0,0,0,0,0,-1,804,1268,0,0
-413,-244,0,0,0,0,0,0,0,0,0,-1,811,1268,0,0
-406,-244,0,0,0,0,0,0,0,0,0,-1,818,1268,0,0
-399,-244,0,0,0,0,0,0,0,0,0,-1,825,1268,0,0
-392,-244,0,0,0,0,0,0,0,0,0,-1,832,1268,0,0
-385,-244,0,0,0,0,0,0,0,0,0,-1,839,1268,0,0
-378,-244,0,0,0,0,0,0,0,0,0,-1,846,1268,0,0
-371,-244,0,0,0,0,0,0,0,0,0,-1,853,1268,0,0
-364,-244,0,0,0,0,0,0,0,0,0,-1,860,1268,0,0
-357,-244,0,0,0,0,0,0,0,0,0,-1,867,1268,0,0
-350,-244,0,0,0,0,0,0,0,0,0,-1,874,1268,0,0
-343,-244,0,0,0,0,0,0,0,0,0,-1,881,1268,0,0
-336,-244,0,0,0,0,0,0,0,0,0,-1,888,1268,0,0
-329,-244,0,0,0,0,0,0,0,0,0,-1,895,1268,0,0
-322,-244,0,0,0,0,0,0,0,0,0,-1,902,1268,0,0
-315,-244,0,0,0,0,0,0,0,0,0,-1,909,1268,0,0
-308,-244,0,0,0,0,0,0,0,0,0,-1,916,1268,0,0
-301,-244,0,0,0,0,0,0,0,0,0,-1,923,1268,0,0
-294,-244,0,0,0,0,0,0,0,0,0,-1,930,1268,0,0
-287,-244,0,0,0,0,0,0,0,0,0,-1,937,1268,0,0
-280,-244,0,0,0,0,0,0,0,0,0,-1,944,1268,0,0
-273,-244,0,0,0,0,0,0,0,0,0,-1,951,1268,0,0
-266,-244,0,0,0,0,0,0,0,0,0,-1,958,1268,0,0
-259,-244,0,0,0,0,0,0,0,0,0,-1,965,1268,0,0
-252,-244,0,0,0,0,0,0,0,0,0,-1,972,1268,0,0
-245,-244,0,0,0,0,0,0,0,0,0,-1,979,1268,0,0
-238,-244,0,0,0,0,0,0,0,0,0,-1,986,1268,0,0
-231,-244,0,0,0,0,0,0,0,0,0,-1,993,1268,0,0
-224,-244,0,0,0,0,0,0,0,0,0,-1,1000,1268,0,0
-217,-244,0,0,0,0,0,0,0,0,0,-1,1007,1268,0,0
-210,-244,0,0,0,0,0,0,0,0,0,-1,1014,1268,0,0
-203,-244,0,0,0,0,0,0,0,0,0,-1,1021,1268,0,0
-196,-244,0,0,0,0,0,0,0,0,0,-1,1028,1268,0,0
-189,-244,0,0,0,0,0,0,0,0,0,-1,1035,1268,0,0
-182,-244,0,0,0,0,0,0,0,0,0,-1,1042,1268,0,0
-175,-244,0,0,0,0,0,0,0,0,0,-1,1049,1268,0,0
-168,-244,0,0,0,0,0,0,0,0,0,-1,1056,1268,0,0
-161,-244,0,0,0,0,0,0,0,0,0,-1,1063,1268,0,0
-154,-244,0,0,0,0,0,0,0,0,0,-1,1070,1268,0,0
-147,-244,0,0,0,0,0,0,0,0,0,-1,1077,1268,0,0
-140,-244,0,0,0,0,0,0,0,0,0,-1,1084,1268,0,0
-133,-244,0,0,0,0,0,0,0,0,0,-1,1091,1268,0,0
-126,-244,0,0,0,0,0,0,0,0,0,-1,1098,1268,0,0
-119,-244,0,0,0,0,0,0,0,0,0,-1,1105,1268,0,0
-112,-244,0,0,0,0,0,0,0,0,0,-1,1112,1268,0,0
-105,-244,0,0,0,0,0,0,0,0,0,-1,1119,1268,0,0
-98,-244,0,0,0,0,0,0,0,0,0,-1,1126,1268,0,0
-91,-244,0,0,0,0,0,0,0,0,0,-1,1133,1268,0,0
-84,-244,0,0,0,0,0,0,0,0,0,-1,1140,1268,0,0
-77,-244,0,0,0,0,0,0,0,0,0,-1,1147,1268,0,0
-70,-244,0,0,0,0,0,0,0,0,0,-1,1154,1268,0,0
-63,-244,0,0,0,0,0,0,0,0,0,-1,1161,1268,0,0
-56,-244,0,0,0,0,0,0,0,0,0,-1,1168,1268,0,0
-49,-244,0,0,0,0,0,0,0,0,0,-1,1175,1268,0,0
-42,-244,0,0,0,0,0,0,0,0,0,-1,1182,1268,0,0
-35,-244,0,0,0,0,0,0,0,0,0,-1,1189,1268,0,0
-28,-244,0,0,0,0,0,0,0,0,0,-1,1196,1268,0,0
-21,-244,0,0,0,0,0,0,0,0,0,-1,1203,1268,0,0
-14,-244,0,0,0,0,0,0,0,0,0,-1,1210,1268,0,0
-7,-244,0,0,0,0,0,0,0,0,0,-1,1217,1268,0,0
0,-244,0,0,0,0,0,0,0,0,0,-1,1224,1268,0,0
7,-244,0,0,0,0,0,0,0,0,0,-1,1231,1268,0,0
14,-244,0,0,0,0,0,0,0,0,0,-1,1238,1268,0,0
21,-244,0,0,0,0,0,0,0,0,0,-1,1245,1268,0,0
28,-244,0,0,0,0,0,0,0,0,0,-1,1252,1268,0,0
35,-244,0,0,0,0,0,0,0,0,0,-1,1259,1268,0,0
42,-244,0,0,0,0,0,0,0,0,0,-1,1266,1268,0,0
49,-244,0,0,0,0,0,0,0,0,0,-1,1273,1268,0,0
56,-244,0,0,0,0,0,0,0,0,0,-1,1280,1268,0,0
63,-244,0,0,0,0,0,0,0,0,0,-1,1287,1268,0,0
70,-244,0,0,0,0,0,0,0,0,0,-1,1294,1268,0,0
77,-244,0,0,0,0,0,0,0,0,0,-1,1301,1268,0,0
84,-244,0,0,0,0,0,0,0,0,0,-1,1308,1268,0,0
91,-244,0,0,0,0,0,0,0,0,0,-1,1315,1268,0,0
98,-244,0,0,0,0,0,0,0,0,0,-1,1322,1268,0,0
105,-244,0,0,0,0,0,0,0,0,0,-1,1329,1268,0,0
112,-244,0,0,0,0,0,0,0,0,0,-1,1336,1268,0,0
119,-244,0,0,0,0,0,0,0,0,0,-1,1343,1268,0,0
126,-244,0,0,0,0,0,0,0,0,0,-1,1350,1268,0,0
133,-244,0,0,0,0,0,0,0,0,0,-1,1357,1268,0,0
140,-244,0,0,0,0,0,0,0,0,0,-1,1364,1268,0,0
147,-244,0,0,0,0,0,0,0,0,0,-1,1371,1268,0,0
154,-244,0,0,0,0,0,0,0,0,0,-1,1378,1268,0,0
161,-244,0,0,0,0,0,0,0,0,0,-1,1385,1268,0,0
168,-244,0,0,0,0,0,0,0,0,0,-1,1392,1268,0,0
175,-244,0,0,0,0,0,0,0,0,0,-1,1399,1268,0,0
182,-244,0,0,0,0,0,0,0,0,0,-1,1406,1268,0,0
189,-244,0,0,0,0,0,0,0,0,0,-1,1413,1268,0,0
196,-244,0,0,0,0,0,0,0,0,0,-1,1420,1268,0,0
203,-244,0,0,0,0,0,0,0,0,0,-1,1427,1268,0,0
210,-244,0,0,0,0,0,0,0,0,0,-1,1434,1268,0,0
217,-244,0,0,0,0,0,0,0,0,0,-1,1441,1268,0,0
224,-244,0,0,0,0,0,0,0,0,0,-1,1448,1268,0,0
231,-244,0,0,0,0,0,0,0,0,0,-1,1455,1268,0,0
238,-244,0,0,0,0,0,0,0,0,0,-1,1462,1268,0,0
245,-244,0,0,0,0,0,0,0,0,0,-1,1469,1268,0,0
252,-244,0,0,0,0,0,0,0,0,0,-1,1476,1268,0,0
259,-244,0,0,0,0,0,0,0,0,0,-1,1483,1268,0,0
266,-244,0,0,0,0,0,0,0,0,0,-1,1490,1268,0,0
273,-244,0,0,0,0,0,0,0,0,0,-1,1497,1268,0,0
280,-244,0,0,0,0,0,0,0,0,0,-1,1504,1268,0,0
287,-244,0,0,0,0,0,0,0,0,0,-1,1511,1268,0,0
294,-244,0,0,0,0,0,0,0,0,0,-1,1518,1268,0,0
301,-244,0,0,0,0,0,0,0,0,0,-1,1525,1268,0,0
308,-244,0,0,0,0,0,0,0,0,0,-1,1532,1268,0,0
315,-244,0,0,0,0,0,0,0,0,0,-1,1539,1268,0,0
322,-244,0,0,0,0,0,0,0,0,0,-1,1546,1268,0,0
329,-244,0,0,0,0,0,0,0,0,0,-1,1553,1268,0,0
336,-244,0,0,0,0,0,0,0,0,0,-1,1560,1268,0,0
343,-244,0,0,0,0,0,0,0,0,0,-1,1567,1268,0,0
350,-244,0,0,0,0,0,0,0,0,0,-1,1574,1268,0,0
357,-244,0,0,0,0,0,0,0,0,0,-1,1581,1268,0,0
364,-244,0,0,0,0,0,0,0,0,0,-1,1588,1268,0,0
371,-244,0,0,0,0,0,0,0,0,0,-1,1595,1268,0,0
378,-244,0,0,0,0,0,0,0,0,0,-1,1602,1268,0,0
385,-244,0,0,0,0,0,0,0,0,0,-1,1609,1268,0,0
392,-244,0,0,0,0,0,0,0,0,0,-1,1616,1268,0,0
399,-244,0,0,0,0,0,0,0,0,0,-1,1623,1268,0,0
406,-244,0,0,0,0,0,0,0,0,0,-1,1630,1268,0,0
413,-244,0,0,0,0,0,0,0,0,0,-1,1637,1268,0,0
420,-244,0,0,0,0,0,0,0,0,0,-1,1644,1268,0,0
427,-244,0,0,0,0,0,0,0,0,0,-1,1651,1268,0,0
434,-244,0,0,0,0,0,0,0,0,0,-1,1658,1268,0,0
441,-244,0,0,0,0,0,0,0,0,0,-1,1665,1268,0,0
448,-244,0,0,0,0,0,0,0,0,0,-1,1672,1268,0,0
455,-244,0,0,0,0,0,0,0,0,0,-1,1679,1268,0,0
462,-244,0,0,0,0,0,0,0,0,0,-1,1686,1268,0,0
469,-244,0,0,0,0,0,0,0,0,0,-1,1693,1268,0,0
476,-244,0,0,0,0,0,0,0,0,0,-1,1700,1268,0,0
483,-244,0,0,0,0,0,0,0,0,0,-1,1707,1268,0,0
490,-244,0,0,0,0,0,0,0,0,0,-1,1714,1268,0,0
497,-244,0,0,0,0,0,0,0,0,0,-1,1721,1268,0,0
504,-244,0,0,0,0,0,0,0,0,0,-1,1728,1268,0,0
511,-244,0,0,0,0,0,0,0,0,0,-1,1735,1268,0,0
518,-244,0,0,0,0,0,0,0,0,0,-1,1742,1268,0,0
525,-244,0,0,0,0,0,0,0,0,0,-1,1749,1268,0,0
532,-244,0,0,0,0,0,0,0,0,0,-1,1756,1268,0,0
539,-244,0,0,0,0,0,0,0,0,0,-1,1763,1268,0,0
546,-244,0,0,0,0,0,0,0,0,0,-1,1770,1268,0,0
553,-244,0,0,0,0,0,0,0,0,0,-1,1777,1268,0,0
560,-244,0,0,0,0,0,0,0,0,0,-1,1784,1268,0,0
567,-244,0,0,0,0,0,0,0,0,0,-1,1791,1268,0,0
574,-244,0,0,0,0,0,0,0,0,0,-1,1798,1268,0,0
581,-244,0,0,0,0,0,0,0,0,0,-1,1805,1268,0,0
588,-244,0,0,0,0,0,0,0,0,0,-1,1812,1268,0,0
595,-244,0,0,0,0,0,0,0,0,0,-1,1819,1268,0,0
602,-244,0,0,0,0,0,0,0,0,0,-1,1826,1268,0,0
609,-244,0,0,0,0,0,0,0,0,0,-1,1833,1268,0,0
616,-244,60.0372,2.54456,-0.00232395,0.00504182,0.000808693,0.00512956,-0.00241169,1.46272,0.0044472,0.0340449,1840,1268,60.0372,-2.54455
623,-244,60.0717,2.64783,-0.00673391,0.00961266,3.78397e-05,0.00961275,-0.006734,1.56848,0.00948645,0.0254912,1847,1268,60.0716,-2.64788
630,-244,60.0551,2.66736,-0.0107551,0.0133985,-0.000962049,0.0134368,-0.0107933,-1.53105,0.014017,0.0227004,1854,1268,60.055,-2.66739
637,-244,59.9487,2.45618,-0.0114621,0.0135388,-0.00159653,0.0136403,-0.0115636,-1.50728,0.014568,0.0382385,1861,1268,59.9487,-2.45619
644,-244,59.5642,2.08923,-0.00948847,0.0112852,-0.00196277,0.011469,-0.00967229,-1.47741,0.0122206,0.0468518,1868,1268,59.5642,-2.08927
651,-244,59.245,1.75244,0,0,0,0,0,0,0,-1,1875,1268,59.2449,-1.75241
658,-244,58.8584,1.91467,0,0,0,0,0,0,0,-1,1882,1268,58.8584,-1.91466
665,-244,50.7988,1.09888,0,0,0,0,0,0,0,-1,1889,1268,50.7989,-1.09893
672,-244,32.224,3.6123,0,0,0,0,0,0,0,-1,1896,1268,32.224,-3.6123
679,-244,27.2593,7.90649,0,0,0,0,0,0,0,-1,1903,1268,27.2592,-7.9065
686,-244,44.876,12.0377,0,0,0,0,0,0,0,-1,1910,1268,44.8759,-12.0377
693,-244,44.8596,11.4442,-0.000696312,0.00122983,-0.00142305,0.00198506,-0.00145155,-1.08288,0.00199208,0.0315963,1917,1268,44.8596,-11.4442
700,-244,44.9207,10.8022,0.00110321,-0.00028198,-0.00101116,0.00163623,-0.000814998,-0.48512,0.00144145,0.011209,1924,1268,44.9206,-10.8022
707,-244,44.9393,10.2151,0.000702912,-0.000719164,-0.000466876,0.00084249,-0.000858742,-0.290505,0.000982222,0.0111967,1931,1268,44.9393,-10.215
714,-244,44.9779,9.63599,-0.000108661,-0.000783228,0.000413687,8.78128e-05,-0.000979702,0.443394,0.000684286,0.0149099,1938,1268,44.9779,-9.63594
721,-244,44.8853,9.10803,-0.000935698,-0.000702549,0.00131165,0.000497695,-0.00213594,0.82972,0.00161562,0.0206216,1945,1268,44.8853,-9.108
728,-244,44.8411,8.49719,-0.00174238,-0.000274647,0.00211361,0.00122888,-0.0032459,0.952492,0.00266957,0.0263551,1952,1268,44.8411,-8.49721
735,-244,44.7849,7.83118,-0.00248935,0.000233002,0.00295126,0.00212186,-0.00437821,1.00147,0.00382744,0.0274059,1959,1268,44.7849,-7.83122
742,-244,44.7427,7.35486,-0.00314368,0.000796876,0.00386817,0.00316765,-0.00551445,1.02095,0.00507329,0.0171971,1966,1268,44.7427,-7.35489
749,-244,44.6079,6.91699,-0.00361166,0.00150435,0.00483657,0.00441771,-0.00652502,1.02864,0.00635672,0.0250769,1973,1268,44.6079,-6.91696
756,-244,44.4346,6.46765,-0.00388798,0.00231719,0.00602014,0.00598721,-0.007558,1.02333,0.00783784,0.036325,1980,1268,44.4345,-6.46765
763,-244,44.4398,5.83984,0,0,0,0,0,0,0,-1,1987,1268,44.4399,-5.83987
770,-244,45.5964,4.37244,0,0,0,0,0,0,0,-1,1994,1268,45.5964,-4.37247
777,-244,45.5345,4.51587,0,0,0,0,0,0,0,-1,2001,1268,45.5346,-4.51589
784,-244,31.7908,5.20081,0,0,0,0,0,0,0,-1,2008,1268,31.7907,-5.20083
791,-244,0,0,0,0,0,0,0,0,0,-1,2015,1268,0,0
798,-244,0,0,0,0,0,0,0,0,0,-1,2022,1268,0,0
805,-244,0,0,0,0,0,0,0,0,0,-1,2029,1268,0,0
812,-244,0,0,0,0,0,0,0,0,0,-1,2036,1268,0,0
-700,-251,0,0,0,0,0,0,0,0,0,-1,524,1275,0,0
-693,-251,0,0,0,0,0,0,0,0,0,-1,531,1275,0,0
-686,-251,0,0,0,0,0,0,0,0,0,-1,538,1275,0,0
-679,-251,0,0,0,0,0,0,0,0,0,-1,545,1275,0,0
-672,-251,0,0,0,0,0,0,0,0,0,-1,552,1275,0,0
-665,-251,-47.0169,2.80054,0.00221814,-0.0433675,-0.0758946,0.0586687,-0.099818,-0.639522,0.0925247,0.0465121,559,1275,-47.0169,-2.80051
-658,-251,-47.0667,0.771729,0,0,0,0,0,0,0,-1,566,1275,-47.0667,-0.771698
-651,-251,-47.1705,0.542725,0,0,0,0,0,0,0,-1,573,1275,-47.1705,-0.54271
-644,-251,-47.6946,-0.211792,-0.0035473,-0.0238745,-0.0502036,0.0375111,-0.064933,-0.685524,0.0598483,0.0451694,580,1275,-47.6946,0.211738
-637,-251,-48.0686,-1.51526,-0.00332333,-0.0178037,-0.0411034,0.0311727,-0.0522997,-0.69822,0.0487047,0.041895,587,1275,-48.0686,1.51526
-630,-251,-29.4597,2.53613,0,0,0,0,0,0,0,-1,594,1275,-29.4596,-2.53614
-623,-251,-29.1386,3.59546,-0.00154505,-0.00811946,-0.0248414,0.0202257,-0.0298903,-0.719617,0.0291133,0.0420699,601,1275,-29.1386,-3.5954
-616,-251,-28.7067,4.47388,-0.00108624,-0.00447625,-0.017786,0.0150853,-0.0206478,-0.737892,0.0207137,0.0217803,608,1275,-28.7067,-4.47382
-609,-251,-28.7133,5.03992,-0.000471976,-0.00223461,-0.0112999,0.00998092,-0.0126875,-0.74648,0.0131187,0.0200237,615,1275,-28.7133,-5.03993
-602,-251,-28.741,5.67493,0.000677034,-0.000892696,-0.00689139,0.00682811,-0.00704377,-0.728697,0.00800926,0.0141555,622,1275,-28.741,-5.67491
-595,-251,-28.7416,6.30188,0.00168397,-0.000112945,-0.0034408,0.00434168,-0.00277066,-0.65769,0.00413957,0.0133832,629,1275,-28.7416,-6.3019
-588,-251,-28.7568,6.92126,0.00222114,-4.58847e-05,-0.00100391,0.00260179,-0.000426534,-0.362418,0.00189279,0.0154703,636,1275,-28.7568,-6.92129
-581,-251,-28.7859,7.56079,0.0021001,-0.00147914,9.04753e-05,0.00210238,-0.00148143,0.0252563,0.00207944,0.0138633,643,1275,-28.7859,-7.56083
-574,-251,-28.8108,8.21716,0.00187209,-0.0022978,-7.71636e-05,0.00187352,-0.00229923,-0.0184965,0.00241331,0.0127021,650,1275,-28.8108,-8.21716
-567,-251,-28.8437,8.84412,0.00190256,-0.00294018,0.00012921,0.00190601,-0.00294362,0.0266558,0.00282122,0.0187173,657,1275,-28.8437,-8.84407
-560,-251,-28.7506,9.66357,0.00195386,-0.00280573,0.000646273,0.00204005,-0.00289192,0.132586,0.0028616,0.0411549,664,1275,-28.7506,-9.66358
-553,-251,-28.5822,10.3124,0,0,0,0,0,0,0,-1,671,1275,-28.5822,-10.3124
-546,-251,-12.995,4.5675,0,0,0,0,0,0,0,-1,678,1275,-12.995,-4.56745
-539,-251,-10.7916,0.366333,0,0,0,0,0,0,0,-1,685,1275,-10.7916,-0.366282
-532,-251,-10.7391,-0.00769043,0,0,0,0,0,0,0,-1,692,1275,-10.7391,0.00773227
-525,-251,-29.4286,-0.250244,0,0,0,0,0,0,0,-1,699,1275,-29.4286,0.250266
-518,-251,-32.6981,0.678833,0,0,0,0,0,0,0,-1,706,1275,-32.6981,-0.678787
-511,-251,-29.4731,0.637085,0,0,0,0,0,0,0,-1,713,1275,-29.4731,-0.637025
-504,-251,-30.6428,0.792358,0,0,0,0,0,0,0,-1,720,1275,-30.6427,-0.792335
-497,-251,-43.2418,1.24744,0,0,0,0,0,0,0,-1,727,1275,-43.2418,-1.24738
-490,-251,0,0,0,0,0,0,0,0,0,-1,734,1275,0,0
-483,-251,0,0,0,0,0,0,0,0,0,-1,741,1275,0,0
-476,-251,0,0,0,0,0,0,0,0,0,-1,748,1275,0,0
-469,-251,0,0,0,0,0,0,0,0,0,-1,755,1275,0,0
-462,-251,0,0,0,0,0,0,0,0,0,-1,762,1275,0,0
-455,-251,0,0,0,0,0,0,0,0,0,-1,769,1275,0,0
-448,-251,0,0,0,0,0,0,0,0,0,-1,776,1275,0,0
-441,-251,0,0,0,0,0,0,0,0,0,-1,783,1275,0,0
-434,-251,0,0,0,0,0,0,0,0,0,-1,790,1275,0,0
-427,-251,0,0,0,0,0,0,0,0,0,-1,797,1275,0,0
-420,-251,0,0,0,0,0,0,0,0,0,-1,804,1275,0,0
-413,-251,0,0,0,0,0,0,0,0,0,-1,811,1275,0,0
-406,-251,0,0,0,0,0,0,0,0,0,-1,818,1275,0,0
-399,-251,0,0,0,0,0,0,0,0,0,-1,825,1275,0,0
-392,-251,0,0,0,0,0,0,0,0,0,-1,832,1275,0,0
-385,-251,0,0,0,0,0,0,0,0,0,-1,839,1275,0,0
-378,-251,0,0,0,0,0,0,0,0,0,-1,846,1275,0,0
-371,-251,0,0,0,0,0,0,0,0,0,-1,853,1275,0,0
-364,-251,0,0,0,0,0,0,0,0,0,-1,860,1275,0,0
-357,-251,0,0,0,0,0,0,0,0,0,-1,867,1275,0,0
-350,-251,0,0,0,0,0,0,0,0,0,-1,874,1275,0,0
-343,-251,0,0,0,0,0,0,0,0,0,-1,881,1275,0,0
-336,-251,0,0,0,0,0,0,0,0,0,-1,888,1275,0,0
-329,-251,0,0,0,0,0,0,0,0,0,-1,895,1275,0,0
-322,-251,0,0,0,0,0,0,0,0,0,-1,902,1275,0,0
-315,-251,0,0,0,0,0,0,0,0,0,-1,909,1275,0,0
-308,-251,0,0,0,0,0,0,0,0,0,-1,916,1275,0,0
-301,-251,0,0,0,0,0,0,0,0,0,-1,923,1275,0,0
-294,-251,0,0,0,0,0,0,0,0,0,-1,930,1275,0,0
-287,-251,0,0,0,0,0,0,0,0,0,-1,937,1275,0,0
-280,-251,0,0,0,0,0,0,0,0,0,-1,944,1275,0,0
-273,-251,0,0,0,0,0,0,0,0,0,-1,951,1275,0,0
-266,-251,0,0,0,0,0,0,0,0,0,-1,958,1275,0,0
-259,-251,0,0,0,0,0,0,0,0,0,-1,965,1275,0,0
-252,-251,0,0,0,0,0,0,0,0,0,-1,972,1275,0,0
-245,-251,0,0,0,0,0,0,0,0,0,-1,979,1275,0,0
-238,-251,0,0,0,0,0,0,0,0,0,-1,986,1275,0,0
-231,-251,0,0,0,0,0,0,0,0,0,-1,993,1275,0,0
-224,-251,0,0,0,0,0,0,0,0,0,-1,1000,1275,0,0
-217,-251,0,0,0,0,0,0,0,0,0,-1,1007,1275,0,0
-210,-251,0,0,0,0,0,0,0,0,0,-1,1014,1275,0,0
-203,-251,0,0,0,0,0,0,0,0,0,-1,1021,1275,0,0
-196,-251,0,0,0,0,0,0,0,0,0,-1,1028,1275,0,0
-189,-251,0,0,0,0,0,0,0,0,0,-1,1035,1275,0,0
-182,-251,0,0,0,0,0,0,0,0,0,-1,1042,1275,0,0
-175,-251,0,0,0,0,0,0,0,0,0,-1,1049,1275,0,0
-168,-251,0,0,0,0,0,0,0,0,0,-1,1056,1275,0,0
-161,-251,0,0,0,0,0,0,0,0,0,-1,1063,1275,0,0
-154,-251,0,0,0,0,0,0,0,0,0,-1,1070,1275,0,0
-147,-251,0,0,0,0,0,0,0,0,0,-1,1077,1275,0,0
-140,-251,0,0,0,0,0,0,0,0,0,-1,1084,1275,0,0
-133,-251,0,0,0,0,0,0,0,0,0,-1,1091,1275,0,0
-126,-251,0,0,0,0,0,0,0,0,0,-1,1098,1275,0,0
-119,-251,0,0,0,0,0,0,0,0,0,-1,1105,1275,0,0
-112,-251,0,0,0,0,0,0,0,0,0,-1,1112,1275,0,0
-105,-251,0,0,0,0,0,0,0,0,0,-1,1119,1275,0,0
-98,-251,0,0,0,0,0,0,0,0,0,-1,1126,1275,0,0
-91,-251,0,0,0,0,0,0,0,0,0,-1,1133,1275,0,0
-84,-251,0,0,0,0,0,0,0,0,0,-1,1140,1275,0,0
-77,-251,0,0,0,0,0,0,0,0,0,-1,1147,1275,0,0
-70,-251,0,0,0,0,0,0,0,0,0,-1,1154,1275,0,0
-63,-251,0,0,0,0,0,0,0,0,0,-1,1161,1275,0,0
-56,-251,0,0,0,0,0,0,0,0,0,-1,1168,1275,0,0
-49,-251,0,0,0,0,0,0,0,0,0,-1,1175,1275,0,0
-42,-251,0,0,0,0,0,0,0,0,0,-1,1182,1275,0,0
-35,-251,0,0,0,0,0,0,0,0,0,-1,1189,1275,0,0
-28,-251,0,0,0,0,0,0,0,0,0,-1,1196,1275,0,0
-21,-251,0,0,0,0,0,0,0,0,0,-1,1203,1275,0,0
-14,-251,0,0,0,0,0,0,0,0,0,-1,1210,1275,0,0
-7,-251,0,0,0,0,0,0,0,0,0,-1,1217,1275,0,0
0,-251,0,0,0,0,0,0,0,0,0,-1,1224,1275,0,0
7,-251,0,0,0,0,0,0,0,0,0,-1,1231,1275,0,0
14,-251,0,0,0,0,0,0,0,0,0,-1,1238,1275,0,0
21,-251,0,0,0,0,0,0,0,0,0,-1,1245,1275,0,0
28,-251,0,0,0,0,0,0,0,0,0,-1,1252,1275,0,0
35,-251,0,0,0,0,0,0,0,0,0,-1,1259,1275,0,0
42,-251,0,0,0,0,0,0,0,0,0,-1,1266,1275,0,0
49,-251,0,0,0,0,0,0,0,0,0,-1,1273,1275,0,0
56,-251,0,0,0,0,0,0,0,0,0,-1,1280,1275,0,0
63,-251,0,0,0,0,0,0,0,0,0,-1,1287,1275,0,0
70,-251,0,0,0,0,0,0,0,0,0,-1,1294,1275,0,0
77,-251,0,0,0,0,0,0,0,0,0,-1,1301,1275,0,0
84,-251,0,0,0,0,0,0,0,0,0,-1,1308,1275,0,0
91,-251,0,0,0,0,0,0,0,0,0,-1,1315,1275,0,0
98,-251,0,0,0,0,0,0,0,0,0,-1,1322,1275,0,0
105,-251,0,0,0,0,0,0,0,0,0,-1,1329,1275,0,0
112,-251,0,0,0,0,0,0,0,0,0,-1,1336,1275,0,0
119,-251,0,0,0,0,0,0,0,0,0,-1,1343,1275,0,0
126,-251,0,0,0,0,0,0,0,0,0,-1,1350,1275,0,0
133,-251,0,0,0,0,0,0,0,0,0,-1,1357,1275,0,0
140,-251,0,0,0,0,0,0,0,0,0,-1,1364,1275,0,0
147,-251,0,0,0,0,0,0,0,0,0,-1,1371,1275,0,0
154,-251,0,0,0,0,0,0,0,0,0,-1,1378,1275,0,0
161,-251,0,0,0,0,0,0,0,0,0,-1,1385,1275,0,0
168,-251,0,0,0,0,0,0,0,0,0,-1,1392,1275,0,0
175,-251,0,0,0,0,0,0,0,0,0,-1,1399,1275,0,0
182,-251,0,0,0,0,0,0,0,0,0,-1,1406,1275,0,0
189,-251,0,0,0,0,0,0,0,0,0,-1,1413,1275,0,0
196,-251,0,0,0,0,0,0,0,0,0,-1,1420,1275,0,0
203,-251,0,0,0,0,0,0,0,0,0,-1,1427,1275,0,0
210,-251,0,0,0,0,0,0,0,0,0,-1,1434,1275,0,0
217,-251,0,0,0,0,0,0,0,0,0,-1,1441,1275,0,0
224,-251,0,0,0,0,0,0,0,0,0,-1,1448,1275,0,0
231,-251,0,0,0,0,0,0,0,0,0,-1,1455,1275,0,0
238,-251,0,0,0,0,0,0,0,0,0,-1,1462,1275,0,0
245,-251,0,0,0,0,0,0,0,0,0,-1,1469,1275,0,0
252,-251,0,0,0,0,0,0,0,0,0,-1,1476,1275,0,0
259,-251,0,0,0,0,0,0,0,0,0,-1,1483,1275,0,0
266,-251,0,0,0,0,0,0,0,0,0,-1,1490,1275,0,0
273,-251,0,0,0,0,0,0,0,0,0,-1,1497,1275,0,0
280,-251,0,0,0,0,0,0,0,0,0,-1,1504,1275,0,0
287,-251,0,0,0,0,0,0,0,0,0,-1,1511,1275,0,0
294,-251,0,0,0,0,0,0,0,0,0,-1,1518,1275,0,0
301,-251,0,0,0,0,0,0,0,0,0,-1,1525,1275,0,0
308,-251,0,0,0,0,0,0,0,0,0,-1,1532,1275,0,0
315,-251,0,0,0,0,0,0,0,0,0,-1,1539,1275,0,0
322,-251,0,0,0,0,0,0,0,0,0,-1,1546,1275,0,0
329,-251,0,0,0,0,0,0,0,0,0,-1,1553,1275,0,0
336,-251,0,0,0,0,0,0,0,0,0,-1,1560,1275,0,0
343,-251,0,0,0,0,0,0,0,0,0,-1,1567,1275,0,0
350,-251,0,0,0,0,0,0,0,0,0,-1,1574,1275,0,0
357,-251,0,0,0,0,0,0,0,0,0,-1,1581,1275,0,0
364,-251,0,0,0,0,0,0,0,0,0,-1,1588,1275,0,0
371,-251,0,0,0,0,0,0,0,0,0,-1,1595,1275,0,0
378,-251,0,0,0,0,0,0,0,0,0,-1,1602,1275,0,0
385,-251,0,0,0,0,0,0,0,0,0,-1,1609,1275,0,0
392,-251,0,0,0,0,0,0,0,0,0,-1,1616,1275,0,0
399,-251,0,0,0,0,0,0,0,0,0,-1,1623,1275,0,0
406,-251,0,0,0,0,0,0,0,0,0,-1,1630,1275,0,0
413,-251,0,0,0,0,0,0,0,0,0,-1,1637,1275,0,0
420,-251,0,0,0,0,0,0,0,0,0,-1,1644,1275,0,0
427,-251,0,0,0,0,0,0,0,0,0,-1,1651,1275,0,0
434,-251,0,0,0,0,0,0,0,0,0,-1,1658,1275,0,0
441,-251,0,0,0,0,0,0,0,0,0,-1,1665,1275,0,0
448,-251,0,0,0,0,0,0,0,0,0,-1,1672,1275,0,0
455,-251,0,0,0,0,0,0,0,0,0,-1,1679,1275,0,0
462,-251,0,0,0,0,0,0,0,0,0,-1,1686,1275,0,0
469,-251,0,0,0,0,0,0,0,0,0,-1,1693,1275,0,0
476,-251,0,0,0,0,0,0,0,0,0,-1,1700,1275,0,0
483,-251,0,0,0,0,0,0,0,0,0,-1,1707,1275,0,0
490,-251,0,0,0,0,0,0,0,0,0,-1,1714,1275,0,0
497,-251,0,0,0,0,0,0,0,0,0,-1,1721,1275,0,0
504,-251,0,0,0,0,0,0,0,0,0,-1,1728,1275,0,0
511,-251,0,0,0,0,0,0,0,0,0,-1,1735,1275,0,0
518,-251,0,0,0,0,0,0,0,0,0,-1,1742,1275,0,0
525,-251,0,0,0,0,0,0,0,0,0,-1,1749,1275,0,0
532,-251,0,0,0,0,0,0,0,0,0,-1,1756,1275,0,0
539,-251,0,0,0,0,0,0,0,0,0,-1,1763,1275,0,0
546,-251,0,0,0,0,0,0,0,0,0,-1,1770,1275,0,0
553,-251,0,0,0,0,0,0,0,0,0,-1,1777,1275,0,0
560,-251,0,0,0,0,0,0,0,0,0,-1,1784,1275,0,0
567,-251,0,0,0,0,0,0,0,0,0,-1,1791,1275,0,0
574,-251,0,0,0,0,0,0,0,0,0,-1,1798,1275,0,0
581,-251,0,0,0,0,0,0,0,0,0,-1,1805,1275,0,0
588,-251,0,0,0,0,0,0,0,0,0,-1,1812,1275,0,0
595,-251,0,0,0,0,0,0,0,0,0,-1,1819,1275,0,0
602,-251,0,0,0,0,0,0,0,0,0,-1,1826,1275,0,0
609,-251,60.0277,2.48584,-0.000384373,0.00502184,0.000618959,0.0050918,-0.000454332,1.45825,0.00355567,0.0300712,1833,1275,60.0277,-2.48584
616,-251,59.9862,2.55151,-0.00539494,0.0105038,0.000475986,0.0105181,-0.00540917,1.54089,0.00935195,0.0268982,1840,1275,59.9862,-2.55147
623,-251,60.0168,2.63293,-0.0101007,0.0152994,-0.000107787,0.0152999,-0.0101012,-1.56655,0.0147673,0.0219572,1847,1275,60.0168,-2.63295
630,-251,59.9949,2.55847,-0.0134692,0.0178857,-0.000810188,0.0179066,-0.0134901,-1.54498,0.0181866,0.0308867,1854,1275,59.9949,-2.55851
637,-251,59.9073,2.34583,-0.0125588,0.0157235,-0.00111135,0.0157671,-0.0126024,-1.53158,0.0164131,0.0395277,1861,1275,59.9074,-2.34586
644,-251,59.3528,1.9646,-0.010186,0.012608,-0.00138064,0.0126913,-0.0102694,-1.51052,0.0132809,0.0487967,1868,1275,59.3527,-1.96461
651,-251,58.974,1.59668,0,0,0,0,0,0,0,-1,1875,1275,58.974,-1.59669
658,-251,58.1687,1.95789,0,0,0,0,0,0,0,-1,1882,1275,58.1687,-1.95784
665,-251,32.9579,2.60229,0,0,0,0,0,0,0,-1,1889,1275,32.9579,-2.60231
672,-251,26.0721,4.53064,0,0,0,0,0,0,0,-1,1896,1275,26.0721,-4.53063
679,-251,29.1344,8.63782,0,0,0,0,0,0,0,-1,1903,1275,29.1344,-8.63778
686,-251,44.4762,11.9598,0,0,0,0,0,0,0,-1,1910,1275,44.4762,-11.9598
693,-251,44.3896,11.4178,-0.000813987,0.00124039,-0.00121882,0.00180714,-0.00138073,-1.13554,0.001846,0.0195922,1917,1275,44.3897,-11.4178
700,-251,44.3539,10.8311,0.00105042,-0.000329906,-0.000742506,0.00137399,-0.000653468,-0.410958,0.00119494,0.00986484,1924,1275,44.3539,-10.8311
707,-251,44.3671,10.2347,0.000511411,-0.000634421,-0.000177733,0.000538346,-0.000661356,-0.150406,0.000693861,0.0117163,1931,1275,44.3671,-10.2347
714,-251,44.3802,9.64893,-0.00034576,-0.000606546,0.000632354,0.000169505,-0.00112181,0.683722,0.000810307,0.0145395,1938,1275,44.3802,-9.64898
721,-251,44.2643,9.11353,-0.00120623,-0.000438258,0.00143262,0.000660947,-0.00230543,0.916335,0.00179823,0.0223513,1945,1275,44.2643,-9.11352
728,-251,44.2122,8.5874,-0.00206829,-4.59109e-05,0.00218504,0.00135057,-0.00346477,1.00211,0.00286807,0.0270664,1952,1275,44.2122,-8.58743
735,-251,44.2129,7.91199,-0.00290375,0.000411144,0.00299512,0.00217683,-0.00466944,1.03812,0.00403908,0.0218006,1959,1275,44.2129,-7.91202
742,-251,44.158,7.44946,-0.00367363,0.000938746,0.00389452,0.00315868,-0.00589356,1.05272,0.00530523,0.0188652,1966,1275,44.1579,-7.44944
749,-251,43.9103,7.12683,-0.00429223,0.00164839,0.00483681,0.00435412,-0.00699796,1.06076,0.00661311,0.0378441,1973,1275,43.9103,-7.12677
756,-251,43.5743,6.66833,0,0,0,0,0,0,0,-1,1980,1275,43.5743,-6.66834
763,-251,43.3652,5.7583,0,0,0,0,0,0,0,-1,1987,1275,43.3653,-5.75827
770,-251,45.2444,5.30237,0,0,0,0,0,0,0,-1,1994,1275,45.2444,-5.30239
777,-251,31.5731,4.33252,0,0,0,0,0,0,0,-1,2001,1275,31.5731,-4.33251
784,-251,32.0776,5.78247,0,0,0,0,0,0,0,-1,2008,1275,32.0776,-5.78247
791,-251,0,0,0,0,0,0,0,0,0,-1,2015,1275,0,0
798,-251,0,0,0,0,0,0,0,0,0,-1,2022,1275,0,0
805,-251,0,0,0,0,0,0,0,0,0,-1,2029,1275,0,0
812,-251,0,0,0,0,0,0,0,0,0,-1,2036,1275,0,0
-700,-258,0,0,0,0,0,0,0,0,0,-1,524,1282,0,0
-693,-258,0,0,0,0,0,0,0,0,0,-1,531,1282,0,0
-686,-258,0,0,0,0,0,0,0,0,0,-1,538,1282,0,0
-679,-258,0,0,0,0,0,0,0,0,0,-1,545,1282,0,0
-672,-258,0,0,0,0,0,0,0,0,0,-1,552,1282,0,0
-665,-258,-47.4511,2.94031,0,0,0,0,0,0,0,-1,559,1282,-47.4511,-2.94029
-658,-258,-47.2729,1.10986,0,0,0,0,0,0,0,-1,566,1282,-47.2729,-1.10984
-651,-258,-47.8791,2.18286,0,0,0,0,0,0,0,-1,573,1282,-47.8791,-2.18289
-644,-258,-48.3217,0.615601,-0.00348592,-0.0362258,-0.0521106,0.0347655,-0.0744772,-0.63321,0.0644454,0.0464567,580,1282,-48.3217,-0.615579
-637,-258,-48.7546,-0.999756,-0.00322446,-0.0278094,-0.0428937,0.0291033,-0.0601372,-0.645848,0.0525513,0.0436757,587,1282,-48.7546,0.999774
-630,-258,-49.2488,-2.7572,-0.00250357,-0.0203764,-0.0342041,0.0239123,-0.0467922,-0.657621,0.0415276,0.0458873,594,1282,-49.2488,2.7572
-623,-258,-28.2685,3.95496,0,0,0,0,0,0,0,-1,601,1282,-28.2685,-3.95494
-616,-258,-28.1667,4.52014,-0.000969795,-0.00860574,-0.0188894,0.0144837,-0.0240592,-0.685681,0.0224805,0.0346113,608,1282,-28.1667,-4.52019
-609,-258,-28.0909,5.09839,-0.000484402,-0.00506256,-0.0120558,0.00949769,-0.0150447,-0.691578,0.0142897,0.0168179,615,1282,-28.0909,-5.09839
-602,-258,-28.106,5.72058,0.00069064,-0.00252239,-0.00747737,0.00673212,-0.00856387,-0.679582,0.00885223,0.0131279,622,1282,-28.106,-5.72057
-595,-258,-28.11,6.34082,0.00173373,-0.000662019,-0.00380265,0.00452271,-0.003451,-0.632813,0.00461746,0.0117525,629,1282,-28.11,-6.34078
-588,-258,-28.1385,6.96423,0.0024221,0.000204757,-0.00106598,0.00285144,-0.000224577,-0.382884,0.00198007,0.0131814,636,1282,-28.1386,-6.9642
-581,-258,-28.1718,7.57239,0.00244253,-0.0011401,0.000287874,0.00246551,-0.00116308,0.0796716,0.00213948,0.0146638,643,1282,-28.1718,-7.57236
-574,-258,-28.1728,8.19653,0.0023645,-0.00206233,0.000245587,0.00237809,-0.00207591,0.0552509,0.00257349,0.0145979,650,1282,-28.1728,-8.19652
-567,-258,-28.2249,8.84766,0.0025569,-0.00289175,0.000424499,0.00258977,-0.00292462,0.0772875,0.00318569,0.0153923,657,1282,-28.2248,-8.84769
-560,-258,-28.2082,9.5304,0.00294128,-0.00296512,0.000894133,0.00307367,-0.00309751,0.146997,0.00356294,0.0442492,664,1282,-28.2082,-9.53045
-553,-258,-28.061,10.238,0,0,0,0,0,0,0,-1,671,1282,-28.061,-10.238
-546,-258,-14.2231,5.92029,0,0,0,0,0,0,0,-1,678,1282,-14.2231,-5.92028
-539,-258,-10.2228,4.05823,0,0,0,0,0,0,0,-1,685,1282,-10.2228,-4.05823
-532,-258,-10.2173,-0.353882,0,0,0,0,0,0,0,-1,692,1282,-10.2173,0.353836
-525,-258,-21.8661,-1.5929,0,0,0,0,0,0,0,-1,699,1282,-21.8661,1.59285
-518,-258,-29.2484,0.123169,0,0,0,0,0,0,0,-1,706,1282,-29.2484,-0.123186
-511,-258,-23.5061,1.16833,0,0,0,0,0,0,0,-1,713,1282,-23.5061,-1.16833
-504,-258,-22.9178,0.484131,0,0,0,0,0,0,0,-1,720,1282,-22.9178,-0.484106
-497,-258,-17.8047,0.730469,0,0,0,0,0,0,0,-1,727,1282,-17.8048,-0.730489
-490,-258,-15.4346,0.632935,0,0,0,0,0,0,0,-1,734,1282,-15.4346,-0.632917
-483,-258,0,0,0,0,0,0,0,0,0,-1,741,1282,0,0
-476,-258,0,0,0,0,0,0,0,0,0,-1,748,1282,0,0
-469,-258,0,0,0,0,0,0,0,0,0,-1,755,1282,0,0
-462,-258,0,0,0,0,0,0,0,0,0,-1,762,1282,0,0
-455,-258,0,0,0,0,0,0,0,0,0,-1,769,1282,0,0
-448,-258,0,0,0,0,0,0,0,0,0,-1,776,1282,0,0
-441,-258,0,0,0,0,0,0,0,0,0,-1,783,1282,0,0
-434,-258,0,0,0,0,0,0,0,0,0,-1,790,1282,0,0
-427,-258,0,0,0,0,0,0,0,0,0,-1,797,1282,0,0
-420,-258,0,0,0,0,0,0,0,0,0,-1,804,1282,0,0
-413,-258,0,0,0,0,0,0,0,0,0,-1,811,1282,0,0
-406,-258,0,0,0,0,0,0,0,0,0,-1,818,1282,0,0
-399,-258,0,0,0,0,0,0,0,0,0,-1,825,1282,0,0
-392,-258,0,0,0,0,0,0,0,0,0,-1,832,1282,0,0
-385,-258,0,0,0,0,0,0,0,0,0,-1,839,1282,0,0
-378,-258,0,0,0,0,0,0,0,0,0,-1,846,1282,0,0
-371,-258,0,0,0,0,0,0,0,0,0,-1,853,1282,0,0
-364,-258,0,0,0,0,0,0,0,0,0,-1,860,1282,0,0
-357,-258,0,0,0,0,0,0,0,0,0,-1,867,1282,0,0
-350,-258,0,0,0,0,0,0,0,0,0,-1,874,1282,0,0
-343,-258,0,0,0,0,0,0,0,0,0,-1,881,1282,0,0
-336,-258,0,0,0,0,0,0,0,0,0,-1,888,1282,0,0
-329,-258,0,0,0,0,0,0,0,0,0,-1,895,1282,0,0
-322,-258,0,0,0,0,0,0,0,0,0,-1,902,1282,0,0
-315,-258,0,0,0,0,0,0,0,0,0,-1,909,1282,0,0
-308,-258,0,0,0,0,0,0,0,0,0,-1,916,1282,0,0
-301,-258,0,0,0,0,0,0,0,0,0,-1,923,1282,0,0
-294,-258,0,0,0,0,0,0,0,0,0,-1,930,1282,0,0
-287,-258,0,0,0,0,0,0,0,0,0,-1,937,1282,0,0
-280,-258,0,0,0,0,0,0,0,0,0,-1,944,1282,0,0
-273,-258,0,0,0,0,0,0,0,0,0,-1,951,1282,0,0
-266,-258,0,0,0,0,0,0,0,0,0,-1,958,1282,0,0
-259,-258,0,0,0,0,0,0,0,0,0,-1,965,1282,0,0
-252,-258,0,0,0,0,0,0,0,0,0,-1,972,1282,0,0
-245,-258,0,0,0,0,0,0,0,0,0,-1,979,1282,0,0
-238,-258,0,0,0,0,0,0,0,0,0,-1,986,1282,0,0
-231,-258,0,0,0,0,0,0,0,0,0,-1,993,1282,0,0
-224,-258,0,0,0,0,0,0,0,0,0,-1,1000,1282,0,0
-217,-258,0,0,0,0,0,0,0,0,0,-1,1007,1282,0,0
-210,-258,0,0,0,0,0,0,0,0,0,-1,1014,1282,0,0
-203,-258,0,0,0,0,0,0,0,0,0,-1,1021,1282,0,0
-196,-258,0,0,0,0,0,0,0,0,0,-1,1028,1282,0,0
-189,-258,0,0,0,0,0,0,0,0,0,-1,1035,1282,0,0
-182,-258,0,0,0,0,0,0,0,0,0,-1,1042,1282,0,0
-175,-258,0,0,0,0,0,0,0,0,0,-1,1049,1282,0,0
-168,-258,0,0,0,0,0,0,0,0,0,-1,1056,1282,0,0
-161,-258,0,0,0,0,0,0,0,0,0,-1,1063,1282,0,0
-154,-258,0,0,0,0,0,0,0,0,0,-1,1070,1282,0,0
-147,-258,0,0,0,0,0,0,0,0,0,-1,1077,1282,0,0
-140,-258,0,0,0,0,0,0,0,0,0,-1,1084,1282,0,0
-133,-258,0,0,0,0,0,0,0,0,0,-1,1091,1282,0,0
-126,-258,0,0,0,0,0,0,0,0,0,-1,1098,1282,0,0
-119,-258,0,0,0,0,0,0,0,0,0,-1,1105,1282,0,0
-112,-258,0,0,0,0,0,0,0,0,0,-1,1112,1282,0,0
-105,-258,0,0,0,0,0,0,0,0,0,-1,1119,1282,0,0
-98,-258,0,0,0,0,0,0,0,0,0,-1,1126,1282,0,0
-91,-258,0,0,0,0,0,0,0,0,0,-1,1133,1282,0,0
-84,-258,0,0,0,0,0,0,0,0,0,-1,1140,1282,0,0
-77,-258,0,0,0,0,0,0,0,0,0,-1,1147,1282,0,0
-70,-258,0,0,0,0,0,0,0,0,0,-1,1154,1282,0,0
-63,-258,0,0,0,0,0,0,0,0,0,-1,1161,1282,0,0
-56,-258,0,0,0,0,0,0,0,0,0,-1,1168,1282,0,0
-49,-258,0,0,0,0,0,0,0,0,0,-1,1175,1282,0,0
-42,-258,0,0,0,0,0,0,0,0,0,-1,1182,1282,0,0
-35,-258,0,0,0,0,0,0,0,0,0,-1,1189,1282,0,0
-28,-258,0,0,0,0,0,0,0,0,0,-1,1196,1282,0,0
-21,-258,0,0,0,0,0,0,0,0,0,-1,1203,1282,0,0
-14,-258,0,0,0,0,0,0,0,0,0,-1,1210,1282,0,0
-7,-258,0,0,0,0,0,0,0,0,0,-1,1217,1282,0,0
0,-258,0,0,0,0,0,0,0,0,0,-1,1224,1282,0,0
7,-258,0,0,0,0,0,0,0,0,0,-1,1231,1282,0,0
14,-258,0,0,0,0,0,0,0,0,0,-1,1238,1282,0,0
21,-258,0,0,0,0,0,0,0,0,0,-1,1245,1282,0,0
28,-258,0,0,0,0,0,0,0,0,0,-1,1252,1282,0,0
35,-258,0,0,0,0,0,0,0,0,0,-1,1259,1282,0,0
42,-258,0,0,0,0,0,0,0,0,0,-1,1266,1282,0,0
49,-258,0,0,0,0,0,0,0,0,0,-1,1273,1282,0,0
56,-258,0,0,0,0,0,0,0,0,0,-1,1280,1282,0,0
63,-258,0,0,0,0,0,0,0,0,0,-1,1287,1282,0,0
70,-258,0,0,0,0,0,0,0,0,0,-1,1294,1282,0,0
77,-258,0,0,0,0,0,0,0,0,0,-1,1301,1282,0,0
84,-258,0,0,0,0,0,0,0,0,0,-1,1308,1282,0,0
91,-258,0,0,0,0,0,0,0,0,0,-1,1315,1282,0,0
98,-258,0,0,0,0,0,0,0,0,0,-1,1322,1282,0,0
105,-258,0,0,0,0,0,0,0,0,0,-1,1329,1282,0,0
112,-258,0,0,0,0,0,0,0,0,0,-1,1336,1282,0,0
119,-258,0,0,0,0,0,0,0,0,0,-1,1343,1282,0,0
126,-258,0,0,0,0,0,0,0,0,0,-1,1350,1282,0,0
133,-258,0,0,0,0,0,0,0,0,0,-1,1357,1282,0,0
140,-258,0,0,0,0,0,0,0,0,0,-1,1364,1282,0,0
147,-258,0,0,0,0,0,0,0,0,0,-1,1371,1282,0,0
154,-258,0,0,0,0,0,0,0,0,0,-1,1378,1282,0,0
161,-258,0,0,0,0,0,0,0,0,0,-1,1385,1282,0,0
168,-258,0,0,0,0,0,0,0,0,0,-1,1392,1282,0,0
175,-258,0,0,0,0,0,0,0,0,0,-1,1399,1282,0,0
182,-258,0,0,0,0,0,0,0,0,0,-1,1406,1282,0,0
189,-258,0,0,0,0,0,0,0,0,0,-1,1413,1282,0,0
196,-258,0,0,0,0,0,0,0,0,0,-1,1420,1282,0,0
203,-258,0,0,0,0,0,0,0,0,0,-1,1427,1282,0,0
210,-258,0,0,0,0,0,0,0,0,0,-1,1434,1282,0,0
217,-258,0,0,0,0,0,0,0,0,0,-1,1441,1282,0,0
224,-258,0,0,0,0,0,0,0,0,0,-1,1448,1282,0,0
231,-258,0,0,0,0,0,0,0,0,0,-1,1455,1282,0,0
238,-258,0,0,0,0,0,0,0,0,0,-1,1462,1282,0,0
245,-258,0,0,0,0,0,0,0,0,0,-1,1469,1282,0,0
252,-258,0,0,0,0,0,0,0,0,0,-1,1476,1282,0,0
259,-258,0,0,0,0,0,0,0,0,0,-1,1483,1282,0,0
266,-258,0,0,0,0,0,0,0,0,0,-1,1490,1282,0,0
273,-258,0,0,0,0,0,0,0,0,0,-1,1497,1282,0,0
280,-258,0,0,0,0,0,0,0,0,0,-1,1504,1282,0,0
287,-258,0,0,0,0,0,0,0,0,0,-1,1511,1282,0,0
294,-258,0,0,0,0,0,0,0,0,0,-1,1518,1282,0,0
301,-258,0,0,0,0,0,0,0,0,0,-1,1525,1282,0,0
308,-258,0,0,0,0,0,0,0,0,0,-1,1532,1282,0,0
315,-258,0,0,0,0,0,0,0,0,0,-1,1539,1282,0,0
322,-258,0,0,0,0,0,0,0,0,0,-1,1546,1282,0,0
329,-258,0,0,0,0,0,0,0,0,0,-1,1553,1282,0,0
336,-258,0,0,0,0,0,0,0,0,0,-1,1560,1282,0,0
343,-258,0,0,0,0,0,0,0,0,0,-1,1567,1282,0,0
350,-258,0,0,0,0,0,0,0,0,0,-1,1574,1282,0,0
357,-258,0,0,0,0,0,0,0,0,0,-1,1581,1282,0,0
364,-258,0,0,0,0,0,0,0,0,0,-1,1588,1282,0,0
371,-258,0,0,0,0,0,0,0,0,0,-1,1595,1282,0,0
378,-258,0,0,0,0,0,0,0,0,0,-1,1602,1282,0,0
385,-258,0,0,0,0,0,0,0,0,0,-1,1609,1282,0,0
392,-258,0,0,0,0,0,0,0,0,0,-1,1616,1282,0,0
399,-258,0,0,0,0,0,0,0,0,0,-1,1623,1282,0,0
406,-258,0,0,0,0,0,0,0,0,0,-1,1630,1282,0,0
413,-258,0,0,0,0,0,0,0,0,0,-1,1637,1282,0,0
420,-258,0,0,0,0,0,0,0,0,0,-1,1644,1282,0,0
427,-258,0,0,0,0,0,0,0,0,0,-1,1651,1282,0,0
434,-258,0,0,0,0,0,0,0,0,0,-1,1658,1282,0,0
441,-258,0,0,0,0,0,0,0,0,0,-1,1665,1282,0,0
448,-258,0,0,0,0,0,0,0,0,0,-1,1672,1282,0,0
455,-258,0,0,0,0,0,0,0,0,0,-1,1679,1282,0,0
462,-258,0,0,0,0,0,0,0,0,0,-1,1686,1282,0,0
469,-258,0,0,0,0,0,0,0,0,0,-1,1693,1282,0,0
476,-258,0,0,0,0,0,0,0,0,0,-1,1700,1282,0,0
483,-258,0,0,0,0,0,0,0,0,0,-1,1707,1282,0,0
490,-258,0,0,0,0,0,0,0,0,0,-1,1714,1282,0,0
497,-258,0,0,0,0,0,0,0,0,0,-1,1721,1282,0,0
504,-258,0,0,0,0,0,0,0,0,0,-1,1728,1282,0,0
511,-258,0,0,0,0,0,0,0,0,0,-1,1735,1282,0,0
518,-258,0,0,0,0,0,0,0,0,0,-1,1742,1282,0,0
525,-258,0,0,0,0,0,0,0,0,0,-1,1749,1282,0,0
532,-258,0,0,0,0,0,0,0,0,0,-1,1756,1282,0,0
539,-258,0,0,0,0,0,0,0,0,0,-1,1763,1282,0,0
546,-258,0,0,0,0,0,0,0,0,0,-1,1770,1282,0,0
553,-258,0,0,0,0,0,0,0,0,0,-1,1777,1282,0,0
560,-258,0,0,0,0,0,0,0,0,0,-1,1784,1282,0,0
567,-258,0,0,0,0,0,0,0,0,0,-1,1791,1282,0,0
574,-258,0,0,0,0,0,0,0,0,0,-1,1798,1282,0,0
581,-258,0,0,0,0,0,0,0,0,0,-1,1805,1282,0,0
588,-258,0,0,0,0,0,0,0,0,0,-1,1812,1282,0,0
595,-258,0,0,0,0,0,0,0,0,0,-1,1819,1282,0,0
602,-258,0,0,0,0,0,0,0,0,0,-1,1826,1282,0,0
609,-258,60.0343,2.60144,-0.00357712,0.0119765,0.000124237,0.0119775,-0.00357811,1.56281,0.00940733,0.0244232,1833,1282,60.0343,-2.60139
616,-258,60.0021,2.60876,-0.00866678,0.0178122,0.000233238,0.0178143,-0.00866884,1.56199,0.015591,0.024094,1840,1282,60.0021,-2.60881
623,-258,59.9648,2.61316,-0.0129516,0.0217846,-2.88991e-05,0.0217847,-0.0129517,-1.56996,0.02027,0.0334328,1847,1282,59.9649,-2.61319
630,-258,59.9027,2.44348,-0.0148168,0.0217597,-0.000373833,0.0217635,-0.0148207,-1.56058,0.0212483,0.041447,1854,1282,59.9027,-2.44347
637,-258,59.6879,2.38232,-0.0127749,0.0175514,-0.000523745,0.0175605,-0.012784,-1.55353,0.0175916,0.0422183,1861,1282,59.6879,-2.3823
644,-258,59.1174,1.79626,0,0,0,0,0,0,0,-1,1868,1282,59.1175,-1.79627
651,-258,58.3621,2.84021,0,0,0,0,0,0,0,-1,1875,1282,58.3621,-2.8402
658,-258,45.4424,3.1405,0,0,0,0,0,0,0,-1,1882,1282,45.4423,-3.14046
665,-258,35.4747,1.1864,0,0,0,0,0,0,0,-1,1889,1282,35.4747,-1.18637
672,-258,22.703,2.80957,0,0,0,0,0,0,0,-1,1896,1282,22.703,-2.80962
679,-258,26.8693,8.19543,0,0,0,0,0,0,0,-1,1903,1282,26.8692,-8.19548
686,-258,43.8523,12.0677,0,0,0,0,0,0,0,-1,1910,1282,43.8523,-12.0678
693,-258,43.8468,11.4421,-0.000966869,0.00104974,-0.000936006,0.00141722,-0.00133435,-1.19668,0.00158886,0.0163489,1917,1282,43.8468,-11.4421
700,-258,43.7886,10.8396,0.000884454,-0.000388949,-0.000428578,0.00101526,-0.000519755,-0.29623,0.000901501,0.00953068,1924,1282,43.7886,-10.8396
707,-258,43.7859,10.2454,0.000290753,-0.000551571,0.000117758,0.000306906,-0.000567724,0.136319,0.000512397,0.0112617,1931,1282,43.7858,-10.2454
714,-258,43.7698,9.67334,-0.000539224,-0.000464224,0.000841494,0.000340605,-0.00134405,0.807665,0.00102854,0.0117502,1938,1282,43.7697,-9.67328
721,-258,43.7096,9.08997,-0.00139932,-0.000285792,0.0015637,0.000817309,-0.00250242,0.956427,0.00199726,0.0201409,1945,1282,43.7095,-9.08996
728,-258,43.6453,8.57507,-0.0023066,1.21209e-05,0.00228146,0.00141189,-0.00370637,1.02048,0.0030524,0.0202693,1952,1282,43.6452,-8.57504
735,-258,43.6829,7.98718,-0.00324043,0.000371378,0.00307041,0.0021276,-0.00499665,1.05123,0.0042229,0.0180402,1959,1282,43.6828,-7.98713
742,-258,43.6644,7.45374,-0.0041564,0.000812128,0.00395969,0.00300234,-0.00634662,1.06556,0.00551153,0.0184236,1966,1282,43.6644,-7.4537
749,-258,43.512,7.0238,-0.00498856,0.00146806,0.00487451,0.00408636,-0.00760686,1.07788,0.00685231,0.0405696,1973,1282,43.5119,-7.02376
756,-258,43.3546,6.46411,0,0,0,0,0,0,0,-1,1980,1282,43.3546,-6.46409
763,-258,39.3638,5.09753,0,0,0,0,0,0,0,-1,1987,1282,39.3638,-5.09751
770,-258,40.3713,4.08325,0,0,0,0,0,0,0,-1,1994,1282,40.3713,-4.08323
777,-258,31.912,4.83093,0,0,0,0,0,0,0,-1,2001,1282,31.912,-4.8309
784,-258,32.6525,6.43091,0,0,0,0,0,0,0,-1,2008,1282,32.6525,-6.43091
791,-258,0,0,0,0,0,0,0,0,0,-1,2015,1282,0,0
798,-258,0,0,0,0,0,0,0,0,0,-1,2022,1282,0,0
805,-258,0,0,0,0,0,0,0,0,0,-1,2029,1282,0,0
812,-258,0,0,0,0,0,0,0,0,0,-1,2036,1282,0,0
-700,-265,0,0,0,0,0,0,0,0,0,-1,524,1289,0,0
-693,-265,0,0,0,0,0,0,0,0,0,-1,531,1289,0,0
-686,-265,0,0,0,0,0,0,0,0,0,-1,538,1289,0,0
-679,-265,0,0,0,0,0,0,0,0,0,-1,545,1289,0,0
-672,-265,0,0,0,0,0,0,0,0,0,-1,552,1289,0,0
-665,-265,-47.8207,3.03528,0,0,0,0,0,0,0,-1,559,1289,-47.8207,-3.0353
-658,-265,-50.1454,1.76343,0,0,0,0,0,0,0,-1,566,1289,-50.1454,-1.76341
-651,-265,-48.5339,3.28699,0,0,0,0,0,0,0,-1,573,1289,-48.5339,-3.28697
-644,-265,-49.3502,1.65283,0,0,0,0,0,0,0,-1,580,1289,-49.3501,-1.65288
-637,-265,-50.1664,0.0187988,0,0,0,0,0,0,0,-1,587,1289,-50.1664,-0.0187813
-630,-265,-50.0026,-2.48242,0,0,0,0,0,0,0,-1,594,1289,-50.0026,2.48242
-623,-265,-27.7312,3.50989,0,0,0,0,0,0,0,-1,601,1289,-27.7312,-3.50988
-616,-265,-27.5281,4.26978,-0.0041573,-0.0148411,-0.018172,0.00944169,-0.0284401,-0.642443,0.0227695,0.0464686,608,1289,-27.5281,-4.26979
-609,-265,-27.4164,5.0769,-0.00263057,-0.00942868,-0.011746,0.00619832,-0.0182576,-0.644556,0.0146807,0.0185404,615,1289,-27.4164,-5.07695
-602,-265,-27.4747,5.76404,-0.00060628,-0.0052037,-0.00743161,0.00487402,-0.010684,-0.635408,0.00918883,0.0137485,622,1289,-27.4747,-5.76405
-595,-265,-27.4856,6.39209,0.00100191,-0.00183282,-0.00379936,0.00363967,-0.00447058,-0.606867,0.00469064,0.0120851,629,1289,-27.4856,-6.39204
-588,-265,-27.5085,7.00317,0.00230722,0.000298708,-0.00100494,0.00272367,-0.00011775,-0.392869,0.00185628,0.0113376,636,1289,-27.5085,-7.00315
-581,-265,-27.546,7.59888,0.00263983,-0.000673356,0.000393878,0.00268601,-0.000719538,0.116715,0.00207258,0.0133067,643,1289,-27.5459,-7.59891
-574,-265,-27.584,8.25305,0.00274986,-0.00163571,0.000401118,0.00278625,-0.00167209,0.0904631,0.00260068,0.0144237,650,1289,-27.584,-8.25303
-567,-265,-27.6324,8.89966,0.00320662,-0.00259961,0.000459399,0.00324275,-0.00263573,0.0784711,0.00339997,0.0210774,657,1289,-27.6324,-8.89967
-560,-265,-27.6535,9.55237,0.00409286,-0.00288596,0.000781053,0.00417921,-0.0029723,0.110103,0.00414848,0.0261092,664,1289,-27.6535,-9.55243
-553,-265,-27.6514,10.2108,0,0,0,0,0,0,0,-1,671,1289,-27.6514,-10.2108
-546,-265,-24.2283,10.2581,0,0,0,0,0,0,0,-1,678,1289,-24.2283,-10.258
-539,-265,-13.7668,6.39917,0,0,0,0,0,0,0,-1,685,1289,-13.7668,-6.39915
-532,-265,-8.53998,3.41467,0,0,0,0,0,0,0,-1,692,1289,-8.53996,-3.41473
-525,-265,-12.1317,0.514648,0,0,0,0,0,0,0,-1,699,1289,-12.1317,-0.514634
-518,-265,-24.1604,0.712402,0,0,0,0,0,0,0,-1,706,1289,-24.1604,-0.712425
-511,-265,-23.233,0.791626,0,0,0,0,0,0,0,-1,713,1289,-23.233,-0.791617
-504,-265,-22.3056,0.87085,0,0,0,0,0,0,0,-1,720,1289,-22.3056,-0.87081
-497,-265,-18.689,-0.278442,0,0,0,0,0,0,0,-1,727,1289,-18.689,0.278423
-490,-265,-15.1696,0.492676,0,0,0,0,0,0,0,-1,734,1289,-15.1696,-0.492688
-483,-265,0,0,0,0,0,0,0,0,0,-1,741,1289,0,0
-476,-265,0,0,0,0,0,0,0,0,0,-1,748,1289,0,0
-469,-265,0,0,0,0,0,0,0,0,0,-1,755,1289,0,0
-462,-265,0,0,0,0,0,0,0,0,0,-1,762,1289,0,0
-455,-265,0,0,0,0,0,0,0,0,0,-1,769,1289,0,0
-448,-265,0,0,0,0,0,0,0,0,0,-1,776,1289,0,0
-441,-265,0,0,0,0,0,0,0,0,0,-1,783,1289,0,0
-434,-265,0,0,0,0,0,0,0,0,0,-1,790,1289,0,0
-427,-265,0,0,0,0,0,0,0,0,0,-1,797,1289,0,0
-420,-265,0,0,0,0,0,0,0,0,0,-1,804,1289,0,0
-413,-265,0,0,0,0,0,0,0,0,0,-1,811,1289,0,0
-406,-265,0,0,0,0,0,0,0,0,0,-1,818,1289,0,0
-399,-265,0,0,0,0,0,0,0,0,0,-1,825,1289,0,0
-392,-265,0,0,0,0,0,0,0,0,0,-1,832,1289,0,0
-385,-265,0,0,0,0,0,0,0,0,0,-1,839,1289,0,0
-378,-265,0,0,0,0,0,0,0,0,0,-1,846,1289,0,0
-371,-265,0,0,0,0,0,0,0,0,0,-1,853,1289,0,0
-364,-265,0,0,0,0,0,0,0,0,0,-1,860,1289,0,0
-357,-265,0,0,0,0,0,0,0,0,0,-1,867,1289,0,0
-350,-265,0,0,0,0,0,0,0,0,0,-1,874,1289,0,0
-343,-265,0,0,0,0,0,0,0,0,0,-1,881,1289,0,0
-336,-265,0,0,0,0,0,0,0,0,0,-1,888,1289,0,0
-329,-265,0,0,0,0,0,0,0,0,0,-1,895,1289,0,0
-322,-265,0,0,0,0,0,0,0,0,0,-1,902,1289,0,0
-315,-265,0,0,0,0,0,0,0,0,0,-1,909,1289,0,0
-308,-265,0,0,0,0,0,0,0,0,0,-1,916,1289,0,0
-301,-265,0,0,0,0,0,0,0,0,0,-1,923,1289,0,0
-294,-265,0,0,0,0,0,0,0,0,0,-1,930,1289,0,0
-287,-265,0,0,0,0,0,0,0,0,0,-1,937,1289,0,0
-280,-265,0,0,0,0,0,0,0,0,0,-1,944,1289,0,0
-273,-265,0,0,0,0,0,0,0,0,0,-1,951,1289,0,0
-266,-265,0,0,0,0,0,0,0,0,0,-1,958,1289,0,0
-259,-265,0,0,0,0,0,0,0,0,0,-1,965,1289,0,0
-252,-265,0,0,0,0,0,0,0,0,0,-1,972,1289,0,0
-245,-265,0,0,0,0,0,0,0,0,0,-1,979,1289,0,0
-238,-265,0,0,0,0,0,0,0,0,0,-1,986,1289,0,0
-231,-265,0,0,0,0,0,0,0,0,0,-1,993,1289,0,0
-224,-265,0,0,0,0,0,0,0,0,0,-1,1000,1289,0,0
-217,-265,0,0,0,0,0,0,0,0,0,-1,1007,1289,0,0
-210,-265,0,0,0,0,0,0,0,0,0,-1,1014,1289,0,0
-203,-265,0,0,0,0,0,0,0,0,0,-1,1021,1289,0,0
-196,-265,0,0,0,0,0,0,0,0,0,-1,1028,1289,0,0
-189,-265,0,0,0,0,0,0,0,0,0,-1,1035,1289,0,0
-182,-265,0,0,0,0,0,0,0,0,0,-1,1042,1289,0,0
-175,-265,0,0,0,0,0,0,0,0,0,-1,1049,1289,0,0
-168,-265,0,0,0,0,0,0,0,0,0,-1,1056,1289,0,0
-161,-265,0,0,0,0,0,0,0,0,0,-1,1063,1289,0,0
-154,-265,0,0,0,0,0,0,0,0,0,-1,1070,1289,0,0
-147,-265,0,0,0,0,0,0,0,0,0,-1,1077,1289,0,0
-140,-265,0,0,0,0,0,0,0,0,0,-1,1084,1289,0,0
-133,-265,0,0,0,0,0,0,0,0,0,-1,1091,1289,0,0
-126,-265,0,0,0,0,0,0,0,0,0,-1,1098,1289,0,0
-119,-265,0,0,0,0,0,0,0,0,0,-1,1105,1289,0,0
-112,-265,0,0,0,0,0,0,0,0,0,-1,1112,1289,0,0
-105,-265,0,0,0,0,0,0,0,0,0,-1,1119,1289,0,0
-98,-265,0,0,0,0,0,0,0,0,0,-1,1126,1289,0,0
-91,-265,0,0,0,0,0,0,0,0,0,-1,1133,1289,0,0
-84,-265,0,0,0,0,0,0,0,0,0,-1,1140,1289,0,0
-77,-265,0,0,0,0,0,0,0,0,0,-1,1147,1289,0,0
-70,-265,0,0,0,0,0,0,0,0,0,-1,1154,1289,0,0
-63,-265,0,0,0,0,0,0,0,0,0,-1,1161,1289,0,0
-56,-265,0,0,0,0,0,0,0,0,0,-1,1168,1289,0,0
-49,-265,0,0,0,0,0,0,0,0,0,-1,1175,1289,0,0
-42,-265,0,0,0,0,0,0,0,0,0,-1,1182,1289,0,0
-35,-265,0,0,0,0,0,0,0,0,0,-1,1189,1289,0,0
-28,-265,0,0,0,0,0,0,0,0,0,-1,1196,1289,0,0
-21,-265,0,0,0,0,0,0,0,0,0,-1,1203,1289,0,0
-14,-265,0,0,0,0,0,0,0,0,0,-1,1210,1289,0,0
-7,-265,0,0,0,0,0,0,0,0,0,-1,1217,1289,0,0
0,-265,0,0,0,0,0,0,0,0,0,-1,1224,1289,0,0
7,-265,0,0,0,0,0,0,0,0,0,-1,1231,1289,0,0
14,-265,0,0,0,0,0,0,0,0,0,-1,1238,1289,0,0
21,-265,0,0,0,0,0,0,0,0,0,-1,1245,1289,0,0
28,-265,0,0,0,0,0,0,0,0,0,-1,1252,1289,0,0
35,-265,0,0,0,0,0,0,0,0,0,-1,1259,1289,0,0
42,-265,0,0,0,0,0,0,0,0,0,-1,1266,1289,0,0
49,-265,0,0,0,0,0,0,0,0,0,-1,1273,1289,0,0
56,-265,0,0,0,0,0,0,0,0,0,-1,1280,1289,0,0
63,-265,0,0,0,0,0,0,0,0,0,-1,1287,1289,0,0
70,-265,0,0,0,0,0,0,0,0,0,-1,1294,1289,0,0
77,-265,0,0,0,0,0,0,0,0,0,-1,1301,1289,0,0
84,-265,0,0,0,0,0,0,0,0,0,-1,1308,1289,0,0
91,-265,0,0,0,0,0,0,0,0,0,-1,1315,1289,0,0
98,-265,0,0,0,0,0,0,0,0,0,-1,1322,1289,0,0
105,-265,0,0,0,0,0,0,0,0,0,-1,1329,1289,0,0
112,-265,0,0,0,0,0,0,0,0,0,-1,1336,1289,0,0
119,-265,0,0,0,0,0,0,0,0,0,-1,1343,1289,0,0
126,-265,0,0,0,0,0,0,0,0,0,-1,1350,1289,0,0
133,-265,0,0,0,0,0,0,0,0,0,-1,1357,1289,0,0
140,-265,0,0,0,0,0,0,0,0,0,-1,1364,1289,0,0
147,-265,0,0,0,0,0,0,0,0,0,-1,1371,1289,0,0
154,-265,0,0,0,0,0,0,0,0,0,-1,1378,1289,0,0
161,-265,0,0,0,0,0,0,0,0,0,-1,1385,1289,0,0
168,-265,0,0,0,0,0,0,0,0,0,-1,1392,1289,0,0
175,-265,0,0,0,0,0,0,0,0,0,-1,1399,1289,0,0
182,-265,0,0,0,0,0,0,0,0,0,-1,1406,1289,0,0
189,-265,0,0,0,0,0,0,0,0,0,-1,1413,1289,0,0
196,-265,0,0,0,0,0,0,0,0,0,-1,1420,1289,0,0
203,-265,0,0,0,0,0,0,0,0,0,-1,1427,1289,0,0
210,-265,0,0,0,0,0,0,0,0,0,-1,1434,1289,0,0
217,-265,0,0,0,0,0,0,0,0,0,-1,1441,1289,0,0
224,-265,0,0,0,0,0,0,0,0,0,-1,1448,1289,0,0
231,-265,0,0,0,0,0,0,0,0,0,-1,1455,1289,0,0
238,-265,0,0,0,0,0,0,0,0,0,-1,1462,1289,0,0
245,-265,0,0,0,0,0,0,0,0,0,-1,1469,1289,0,0
252,-265,0,0,0,0,0,0,0,0,0,-1,1476,1289,0,0
259,-265,0,0,0,0,0,0,0,0,0,-1,1483,1289,0,0
266,-265,0,0,0,0,0,0,0,0,0,-1,1490,1289,0,0
273,-265,0,0,0,0,0,0,0,0,0,-1,1497,1289,0,0
280,-265,0,0,0,0,0,0,0,0,0,-1,1504,1289,0,0
287,-265,0,0,0,0,0,0,0,0,0,-1,1511,1289,0,0
294,-265,0,0,0,0,0,0,0,0,0,-1,1518,1289,0,0
301,-265,0,0,0,0,0,0,0,0,0,-1,1525,1289,0,0
308,-265,0,0,0,0,0,0,0,0,0,-1,1532,1289,0,0
315,-265,0,0,0,0,0,0,0,0,0,-1,1539,1289,0,0
322,-265,0,0,0,0,0,0,0,0,0,-1,1546,1289,0,0
329,-265,0,0,0,0,0,0,0,0,0,-1,1553,1289,0,0
336,-265,0,0,0,0,0,0,0,0,0,-1,1560,1289,0,0
343,-265,0,0,0,0,0,0,0,0,0,-1,1567,1289,0,0
350,-265,0,0,0,0,0,0,0,0,0,-1,1574,1289,0,0
357,-265,0,0,0,0,0,0,0,0,0,-1,1581,1289,0,0
364,-265,0,0,0,0,0,0,0,0,0,-1,1588,1289,0,0
371,-265,0,0,0,0,0,0,0,0,0,-1,1595,1289,0,0
378,-265,0,0,0,0,0,0,0,0,0,-1,1602,1289,0,0
385,-265,0,0,0,0,0,0,0,0,0,-1,1609,1289,0,0
392,-265,0,0,0,0,0,0,0,0,0,-1,1616,1289,0,0
399,-265,0,0,0,0,0,0,0,0,0,-1,1623,1289,0,0
406,-265,0,0,0,0,0,0,0,0,0,-1,1630,1289,0,0
413,-265,0,0,0,0,0,0,0,0,0,-1,1637,1289,0,0
420,-265,0,0,0,0,0,0,0,0,0,-1,1644,1289,0,0
427,-265,0,0,0,0,0,0,0,0,0,-1,1651,1289,0,0
434,-265,0,0,0,0,0,0,0,0,0,-1,1658,1289,0,0
441,-265,0,0,0,0,0,0,0,0,0,-1,1665,1289,0,0
448,-265,0,0,0,0,0,0,0,0,0,-1,1672,1289,0,0
455,-265,0,0,0,0,0,0,0,0,0,-1,1679,1289,0,0
462,-265,0,0,0,0,0,0,0,0,0,-1,1686,1289,0,0
469,-265,0,0,0,0,0,0,0,0,0,-1,1693,1289,0,0
476,-265,0,0,0,0,0,0,0,0,0,-1,1700,1289,0,0
483,-265,0,0,0,0,0,0,0,0,0,-1,1707,1289,0,0
490,-265,0,0,0,0,0,0,0,0,0,-1,1714,1289,0,0
497,-265,0,0,0,0,0,0,0,0,0,-1,1721,1289,0,0
504,-265,0,0,0,0,0,0,0,0,0,-1,1728,1289,0,0
511,-265,0,0,0,0,0,0,0,0,0,-1,1735,1289,0,0
518,-265,0,0,0,0,0,0,0,0,0,-1,1742,1289,0,0
525,-265,0,0,0,0,0,0,0,0,0,-1,1749,1289,0,0
532,-265,0,0,0,0,0,0,0,0,0,-1,1756,1289,0,0
539,-265,0,0,0,0,0,0,0,0,0,-1,1763,1289,0,0
546,-265,0,0,0,0,0,0,0,0,0,-1,1770,1289,0,0
553,-265,0,0,0,0,0,0,0,0,0,-1,1777,1289,0,0
560,-265,0,0,0,0,0,0,0,0,0,-1,1784,1289,0,0
567,-265,0,0,0,0,0,0,0,0,0,-1,1791,1289,0,0
574,-265,0,0,0,0,0,0,0,0,0,-1,1798,1289,0,0
581,-265,0,0,0,0,0,0,0,0,0,-1,1805,1289,0,0
588,-265,0,0,0,0,0,0,0,0,0,-1,1812,1289,0,0
595,-265,0,0,0,0,0,0,0,0,0,-1,1819,1289,0,0
602,-265,60.0614,2.64001,-0.00175977,0.0134214,-0.000772016,0.0134605,-0.00179893,-1.52012,0.00962949,0.0271128,1826,1289,60.0614,-2.64
609,-265,60.0195,2.56396,-0.00654462,0.0208939,-0.000196559,0.0208953,-0.00654603,-1.56363,0.0165495,0.0279812,1833,1289,60.0196,-2.56392
616,-265,59.9768,2.57959,-0.0113603,0.0264473,0.000227232,0.0264487,-0.0113617,1.56479,0.0224016,0.0336048,1840,1289,59.9768,-2.57954
623,-265,59.948,2.41565,-0.0137691,0.0271326,0.000275736,0.0271345,-0.0137709,1.56406,0.0240332,0.0460599,1847,1289,59.948,-2.41567
630,-265,59.7312,2.29626,-0.0138193,0.023834,0.000143018,0.0238345,-0.0138198,1.567,0.0219945,0.0437564,1854,1289,59.7312,-2.29622
637,-265,59.6733,2.46106,-0.0117266,0.0188261,1.73186e-06,0.0188261,-0.0117266,1.57074,0.0177977,0.0439121,1861,1289,59.6733,-2.46109
644,-265,59.7484,2.32935,0,0,0,0,0,0,0,-1,1868,1289,59.7484,-2.32934
651,-265,53.6781,1.57166,0,0,0,0,0,0,0,-1,1875,1289,53.6781,-1.57167
658,-265,41.7163,3.71619,0,0,0,0,0,0,0,-1,1882,1289,41.7163,-3.71624
665,-265,34.7902,1.43164,0,0,0,0,0,0,0,-1,1889,1289,34.7901,-1.43162
672,-265,20.0045,6.62671,0,0,0,0,0,0,0,-1,1896,1289,20.0045,-6.62668
679,-265,43.2832,12.6952,0,0,0,0,0,0,0,-1,1903,1289,43.2833,-12.6952
686,-265,43.2544,12.0645,-0.00316066,0.00130115,-0.00111886,0.001566,-0.00342551,-1.33836,0.00294775,0.0423093,1910,1289,43.2544,-12.0645
693,-265,43.2413,11.4537,-0.000916212,0.000775476,-0.000732162,0.00104834,-0.00118908,-1.21406,0.00129263,0.00996058,1917,1289,43.2413,-11.4538
700,-265,43.2107,10.8635,0.000728272,-0.000460948,-0.000193196,0.000758871,-0.000491546,-0.157076,0.000727407,0.0103992,1924,1289,43.2107,-10.8635
707,-265,43.1968,10.2739,9.83801e-05,-0.000508382,0.000341968,0.000252145,-0.000662147,0.42256,0.000545272,0.0104612,1931,1289,43.1968,-10.2739
714,-265,43.1722,9.69128,-0.000675774,-0.000370858,0.000979423,0.000467902,-0.00151453,0.862609,0.00119655,0.0129238,1938,1289,43.1722,-9.69123
721,-265,43.0837,9.1084,-0.00150309,-0.000173319,0.00163055,0.000922698,-0.00259911,0.97899,0.00210871,0.0151751,1945,1289,43.0838,-9.1084
728,-265,43.0482,8.57263,-0.00240774,7.03939e-05,0.00230887,0.00145166,-0.00378901,1.03167,0.0031244,0.0155427,1952,1289,43.0482,-8.57262
735,-265,43.1008,8.01013,-0.00337829,0.00037297,0.0030541,0.00208141,-0.00508673,1.06077,0.00425804,0.0162019,1959,1289,43.1008,-8.01016
742,-265,43.0775,7.4353,-0.00437759,0.000754526,0.00390478,0.00286093,-0.006484,1.07609,0.00552881,0.0190363,1966,1289,43.0775,-7.43532
749,-265,43.0677,6.81921,-0.00536595,0.00136647,0.00475166,0.00382346,-0.00782294,1.09358,0.00685494,0.0481277,1973,1289,43.0677,-6.81923
756,-265,43.1897,6.19714,0,0,0,0,0,0,0,-1,1980,1289,43.1897,-6.1972
763,-265,39.1299,4.9679,0,0,0,0,0,0,0,-1,1987,1289,39.1299,-4.96791
770,-265,35.1674,5.07715,0,0,0,0,0,0,0,-1,1994,1289,35.1673,-5.07718
777,-265,32.1664,5.3457,0,0,0,0,0,0,0,-1,2001,1289,32.1664,-5.34568
784,-265,0,0,0,0,0,0,0,0,0,-1,2008,1289,0,0
791,-265,0,0,0,0,0,0,0,0,0,-1,2015,1289,0,0
798,-265,0,0,0,0,0,0,0,0,0,-1,2022,1289,0,0
805,-265,0,0,0,0,0,0,0,0,0,-1,2029,1289,0,0
812,-265,0,0,0,0,0,0,0,0,0,-1,2036,1289,0,0
-700,-272,0,0,0,0,0,0,0,0,0,-1,524,1296,0,0
-693,-272,0,0,0,0,0,0,0,0,0,-1,531,1296,0,0
-686,-272,0,0,0,0,0,0,0,0,0,-1,538,1296,0,0
-679,-272,0,0,0,0,0,0,0,0,0,-1,545,1296,0,0
-672,-272,0,0,0,0,0,0,0,0,0,-1,552,1296,0,0
-665,-272,0,0,0,0,0,0,0,0,0,-1,559,1296,0,0
-658,-272,-50.4721,3.74414,0,0,0,0,0,0,0,-1,566,1296,-50.4721,-3.74413
-651,-272,-49.3028,4.22571,0,0,0,0,0,0,0,-1,573,1296,-49.3028,-4.22573
-644,-272,-50.2842,2.66602,0,0,0,0,0,0,0,-1,580,1296,-50.2842,-2.66602
-637,-272,-51.2656,1.10632,0,0,0,0,0,0,0,-1,587,1296,-51.2656,-1.10631
-630,-272,-50.7759,-2.20715,0,0,0,0,0,0,0,-1,594,1296,-50.7759,2.20711
-623,-272,-26.0651,3.34204,0,0,0,0,0,0,0,-1,601,1296,-26.0651,-3.34206
-616,-272,-26.7679,4.2561,0,0,0,0,0,0,0,-1,608,1296,-26.768,-4.25608
-609,-272,-26.7308,5.26428,-0.0065528,-0.0149719,-0.0109244,0.000945063,-0.0224698,-0.601498,0.0153046,0.0270048,615,1296,-26.7308,-5.26428
-602,-272,-26.791,5.77551,-0.00317883,-0.00887193,-0.00705537,0.00158259,-0.0136333,-0.593656,0.00965973,0.0153334,622,1296,-26.791,-5.77556
-595,-272,-26.8467,6.41113,-0.000621537,-0.00372906,-0.00358355,0.00173059,-0.00608119,-0.580839,0.00473755,0.0114466,629,1296,-26.8467,-6.41113
-588,-272,-26.8803,7.0282,0.00176495,7.28949e-05,-0.000849679,0.00211797,-0.000280126,-0.393776,0.00151402,0.0112783,636,1296,-26.8803,-7.0282
-581,-272,-26.9229,7.63562,0.0026424,-0.000181495,0.000474792,0.00272009,-0.000259186,0.162194,0.00190568,0.010787,643,1296,-26.9229,-7.6356
-574,-272,-26.9642,8.28369,0.00278374,-0.00104539,0.000577191,0.00286885,-0.0011305,0.146404,0.00238062,0.015769,650,1296,-26.9642,-8.28364
-567,-272,-26.985,8.91211,0.00325798,-0.0019852,0.000623257,0.00333105,-0.00205827,0.116703,0.00314032,0.022468,657,1296,-26.985,-8.91215
-560,-272,-27.0173,9.57202,0.004332,-0.00254344,0.000952144,0.00446142,-0.00267286,0.135098,0.0041619,0.021684,664,1296,-27.0173,-9.57206
-553,-272,-26.9476,10.1992,0.00557185,-0.00298719,0.00129309,0.00576294,-0.00317828,0.146717,0.00523362,0.0283987,671,1296,-26.9476,-10.1992
-546,-272,-26.9042,10.9294,0,0,0,0,0,0,0,-1,678,1296,-26.9042,-10.9294
-539,-272,-24.1416,11.0325,0,0,0,0,0,0,0,-1,685,1296,-24.1416,-11.0324
-532,-272,-10.5572,4.53943,0,0,0,0,0,0,0,-1,692,1296,-10.5572,-4.53943
-525,-272,-11.9599,0.0393066,0,0,0,0,0,0,0,-1,699,1296,-11.9599,-0.0393577
-518,-272,-21.1357,-1.41382,0,0,0,0,0,0,0,-1,706,1296,-21.1357,1.41379
-511,-272,-23.2565,0.226318,0,0,0,0,0,0,0,-1,713,1296,-23.2565,-0.22626
-504,-272,-19.7397,0.114746,0,0,0,0,0,0,0,-1,720,1296,-19.7397,-0.114701
-497,-272,-19.2225,1.71301,0,0,0,0,0,0,0,-1,727,1296,-19.2225,-1.71302
-490,-272,-20.1948,2.4032,0,0,0,0,0,0,0,-1,734,1296,-20.1948,-2.40322
-483,-272,-15.3736,0.792603,0,0,0,0,0,0,0,-1,741,1296,-15.3736,-0.79263
-476,-272,0,0,0,0,0,0,0,0,0,-1,748,1296,0,0
-469,-272,0,0,0,0,0,0,0,0,0,-1,755,1296,0,0
-462,-272,0,0,0,0,0,0,0,0,0,-1,762,1296,0,0
-455,-272,0,0,0,0,0,0,0,0,0,-1,769,1296,0,0
-448,-272,0,0,0,0,0,0,0,0,0,-1,776,1296,0,0
-441,-272,0,0,0,0,0,0,0,0,0,-1,783,1296,0,0
-434,-272,0,0,0,0,0,0,0,0,0,-1,790,1296,0,0
-427,-272,0,0,0,0,0,0,0,0,0,-1,797,1296,0,0
-420,-272,0,0,0,0,0,0,0,0,0,-1,804,1296,0,0
-413,-272,0,0,0,0,0,0,0,0,0,-1,811,1296,0,0
-406,-272,0,0,0,0,0,0,0,0,0,-1,818,1296,0,0
-399,-272,0,0,0,0,0,0,0,0,0,-1,825,1296,0,0
-392,-272,0,0,0,0,0,0,0,0,0,-1,832,1296,0,0
-385,-272,0,0,0,0,0,0,0,0,0,-1,839,1296,0,0
-378,-272,0,0,0,0,0,0,0,0,0,-1,846,1296,0,0
-371,-272,0,0,0,0,0,0,0,0,0,-1,853,1296,0,0
-364,-272,0,0,0,0,0,0,0,0,0,-1,860,1296,0,0
-357,-272,0,0,0,0,0,0,0,0,0,-1,867,1296,0,0
-350,-272,0,0,0,0,0,0,0,0,0,-1,874,1296,0,0
-343,-272,0,0,0,0,0,0,0,0,0,-1,881,1296,0,0
-336,-272,0,0,0,0,0,0,0,0,0,-1,888,1296,0,0
-329,-272,0,0,0,0,0,0,0,0,0,-1,895,1296,0,0
-322,-272,0,0,0,0,0,0,0,0,0,-1,902,1296,0,0
-315,-272,0,0,0,0,0,0,0,0,0,-1,909,1296,0,0
-308,-272,0,0,0,0,0,0,0,0,0,-1,916,1296,0,0
-301,-272,0,0,0,0,0,0,0,0,0,-1,923,1296,0,0
-294,-272,0,0,0,0,0,0,0,0,0,-1,930,1296,0,0
-287,-272,0,0,0,0,0,0,0,0,0,-1,937,1296,0,0
-280,-272,0,0,0,0,0,0,0,0,0,-1,944,1296,0,0
-273,-272,0,0,0,0,0,0,0,0,0,-1,951,1296,0,0
-266,-272,0,0,0,0,0,0,0,0,0,-1,958,1296,0,0
-259,-272,0,0,0,0,0,0,0,0,0,-1,965,1296,0,0
-252,-272,0,0,0,0,0,0,0,0,0,-1,972,1296,0,0
-245,-272,0,0,0,0,0,0,0,0,0,-1,979,1296,0,0
-238,-272,0,0,0,0,0,0,0,0,0,-1,986,1296,0,0
-231,-272,0,0,0,0,0,0,0,0,0,-1,993,1296,0,0
-224,-272,0,0,0,0,0,0,0,0,0,-1,1000,1296,0,0
-217,-272,0,0,0,0,0,0,0,0,0,-1,1007,1296,0,0
-210,-272,0,0,0,0,0,0,0,0,0,-1,1014,1296,0,0
-203,-272,0,0,0,0,0,0,0,0,0,-1,1021,1296,0,0
-196,-272,0,0,0,0,0,0,0,0,0,-1,1028,1296,0,0
-189,-272,0,0,0,0,0,0,0,0,0,-1,1035,1296,0,0
-182,-272,0,0,0,0,0,0,0,0,0,-1,1042,1296,0,0
-175,-272,0,0,0,0,0,0,0,0,0,-1,1049,1296,0,0
-168,-272,0,0,0,0,0,0,0,0,0,-1,1056,1296,0,0
-161,-272,0,0,0,0,0,0,0,0,0,-1,1063,1296,0,0
-154,-272,0,0,0,0,0,0,0,0,0,-1,1070,1296,0,0
-147,-272,0,0,0,0,0,0,0,0,0,-1,1077,1296,0,0
-140,-272,0,0,0,0,0,0,0,0,0,-1,1084,1296,0,0
-133,-272,0,0,0,0,0,0,0,0,0,-1,1091,1296,0,0
-126,-272,0,0,0,0,0,0,0,0,0,-1,1098,1296,0,0
-119,-272,0,0,0,0,0,0,0,0,0,-1,1105,1296,0,0
-112,-272,0,0,0,0,0,0,0,0,0,-1,1112,1296,0,0
-105,-272,0,0,0,0,0,0,0,0,0,-1,1119,1296,0,0
-98,-272,0,0,0,0,0,0,0,0,0,-1,1126,1296,0,0
-91,-272,0,0,0,0,0,0,0,0,0,-1,1133,1296,0,0
-84,-272,0,0,0,0,0,0,0,0,0,-1,1140,1296,0,0
-77,-272,0,0,0,0,0,0,0,0,0,-1,1147,1296,0,0
-70,-272,0,0,0,0,0,0,0,0,0,-1,1154,1296,0,0
-63,-272,0,0,0,0,0,0,0,0,0,-1,1161,1296,0,0
-56,-272,0,0,0,0,0,0,0,0,0,-1,1168,1296,0,0
-49,-272,0,0,0,0,0,0,0,0,0,-1,1175,1296,0,0
-42,-272,0,0,0,0,0,0,0,0,0,-1,1182,1296,0,0
-35,-272,0,0,0,0,0,0,0,0,0,-1,1189,1296,0,0
-28,-272,0,0,0,0,0,0,0,0,0,-1,1196,1296,0,0
-21,-272,0,0,0,0,0,0,0,0,0,-1,1203,1296,0,0
-14,-272,0,0,0,0,0,0,0,0,0,-1,1210,1296,0,0
-7,-272,0,0,0,0,0,0,0,0,0,-1,1217,1296,0,0
0,-272,0,0,0,0,0,0,0,0,0,-1,1224,1296,0,0
7,-272,0,0,0,0,0,0,0,0,0,-1,1231,1296,0,0
14,-272,0,0,0,0,0,0,0,0,0,-1,1238,1296,0,0
21,-272,0,0,0,0,0,0,0,0,0,-1,1245,1296,0,0
28,-272,0,0,0,0,0,0,0,0,0,-1,1252,1296,0,0
35,-272,0,0,0,0,0,0,0,0,0,-1,1259,1296,0,0
42,-272,0,0,0,0,0,0,0,0,0,-1,1266,1296,0,0
49,-272,0,0,0,0,0,0,0,0,0,-1,1273,1296,0,0
56,-272,0,0,0,0,0,0,0,0,0,-1,1280,1296,0,0
63,-272,0,0,0,0,0,0,0,0,0,-1,1287,1296,0,0
70,-272,0,0,0,0,0,0,0,0,0,-1,1294,1296,0,0
77,-272,0,0,0,0,0,0,0,0,0,-1,1301,1296,0,0
84,-272,0,0,0,0,0,0,0,0,0,-1,1308,1296,0,0
91,-272,0,0,0,0,0,0,0,0,0,-1,1315,1296,0,0
98,-272,0,0,0,0,0,0,0,0,0,-1,1322,1296,0,0
105,-272,0,0,0,0,0,0,0,0,0,-1,1329,1296,0,0
112,-272,0,0,0,0,0,0,0,0,0,-1,1336,1296,0,0
119,-272,0,0,0,0,0,0,0,0,0,-1,1343,1296,0,0
126,-272,0,0,0,0,0,0,0,0,0,-1,1350,1296,0,0
133,-272,0,0,0,0,0,0,0,0,0,-1,1357,1296,0,0
140,-272,0,0,0,0,0,0,0,0,0,-1,1364,1296,0,0
147,-272,0,0,0,0,0,0,0,0,0,-1,1371,1296,0,0
154,-272,0,0,0,0,0,0,0,0,0,-1,1378,1296,0,0
161,-272,0,0,0,0,0,0,0,0,0,-1,1385,1296,0,0
168,-272,0,0,0,0,0,0,0,0,0,-1,1392,1296,0,0
175,-272,0,0,0,0,0,0,0,0,0,-1,1399,1296,0,0
182,-272,0,0,0,0,0,0,0,0,0,-1,1406,1296,0,0
189,-272,0,0,0,0,0,0,0,0,0,-1,1413,1296,0,0
196,-272,0,0,0,0,0,0,0,0,0,-1,1420,1296,0,0
203,-272,0,0,0,0,0,0,0,0,0,-1,1427,1296,0,0
210,-272,0,0,0,0,0,0,0,0,0,-1,1434,1296,0,0
217,-272,0,0,0,0,0,0,0,0,0,-1,1441,1296,0,0
224,-272,0,0,0,0,0,0,0,0,0,-1,1448,1296,0,0
231,-272,0,0,0,0,0,0,0,0,0,-1,1455,1296,0,0
238,-272,0,0,0,0,0,0,0,0,0,-1,1462,1296,0,0
245,-272,0,0,0,0,0,0,0,0,0,-1,1469,1296,0,0
252,-272,0,0,0,0,0,0,0,0,0,-1,1476,1296,0,0
259,-272,0,0,0,0,0,0,0,0,0,-1,1483,1296,0,0
266,-272,0,0,0,0,0,0,0,0,0,-1,1490,1296,0,0
273,-272,0,0,0,0,0,0,0,0,0,-1,1497,1296,0,0
280,-272,0,0,0,0,0,0,0,0,0,-1,1504,1296,0,0
287,-272,0,0,0,0,0,0,0,0,0,-1,1511,1296,0,0
294,-272,0,0,0,0,0,0,0,0,0,-1,1518,1296,0,0
301,-272,0,0,0,0,0,0,0,0,0,-1,1525,1296,0,0
308,-272,0,0,0,0,0,0,0,0,0,-1,1532,1296,0,0
315,-272,0,0,0,0,0,0,0,0,0,-1,1539,1296,0,0
322,-272,0,0,0,0,0,0,0,0,0,-1,1546,1296,0,0
329,-272,0,0,0,0,0,0,0,0,0,-1,1553,1296,0,0
336,-272,0,0,0,0,0,0,0,0,0,-1,1560,1296,0,0
343,-272,0,0,0,0,0,0,0,0,0,-1,1567,1296,0,0
350,-272,0,0,0,0,0,0,0,0,0,-1,1574,1296,0,0
357,-272,0,0,0,0,0,0,0,0,0,-1,1581,1296,0,0
364,-272,0,0,0,0,0,0,0,0,0,-1,1588,1296,0,0
371,-272,0,0,0,0,0,0,0,0,0,-1,1595,1296,0,0
378,-272,0,0,0,0,0,0,0,0,0,-1,1602,1296,0,0
385,-272,0,0,0,0,0,0,0,0,0,-1,1609,1296,0,0
392,-272,0,0,0,0,0,0,0,0,0,-1,1616,1296,0,0
399,-272,0,0,0,0,0,0,0,0,0,-1,1623,1296,0,0
406,-272,0,0,0,0,0,0,0,0,0,-1,1630,1296,0,0
413,-272,0,0,0,0,0,0,0,0,0,-1,1637,1296,0,0
420,-272,0,0,0,0,0,0,0,0,0,-1,1644,1296,0,0
427,-272,0,0,0,0,0,0,0,0,0,-1,1651,1296,0,0
434,-272,0,0,0,0,0,0,0,0,0,-1,1658,1296,0,0
441,-272,0,0,0,0,0,0,0,0,0,-1,1665,1296,0,0
448,-272,0,0,0,0,0,0,0,0,0,-1,1672,1296,0,0
455,-272,0,0,0,0,0,0,0,0,0,-1,1679,1296,0,0
462,-272,0,0,0,0,0,0,0,0,0,-1,1686,1296,0,0
469,-272,0,0,0,0,0,0,0,0,0,-1,1693,1296,0,0
476,-272,0,0,0,0,0,0,0,0,0,-1,1700,1296,0,0
483,-272,0,0,0,0,0,0,0,0,0,-1,1707,1296,0,0
490,-272,0,0,0,0,0,0,0,0,0,-1,1714,1296,0,0
497,-272,0,0,0,0,0,0,0,0,0,-1,1721,1296,0,0
504,-272,0,0,0,0,0,0,0,0,0,-1,1728,1296,0,0
511,-272,0,0,0,0,0,0,0,0,0,-1,1735,1296,0,0
518,-272,0,0,0,0,0,0,0,0,0,-1,1742,1296,0,0
525,-272,0,0,0,0,0,0,0,0,0,-1,1749,1296,0,0
532,-272,0,0,0,0,0,0,0,0,0,-1,1756,1296,0,0
539,-272,0,0,0,0,0,0,0,0,0,-1,1763,1296,0,0
546,-272,0,0,0,0,0,0,0,0,0,-1,1770,1296,0,0
553,-272,0,0,0,0,0,0,0,0,0,-1,1777,1296,0,0
560,-272,0,0,0,0,0,0,0,0,0,-1,1784,1296,0,0
567,-272,0,0,0,0,0,0,0,0,0,-1,1791,1296,0,0
574,-272,0,0,0,0,0,0,0,0,0,-1,1798,1296,0,0
581,-272,0,0,0,0,0,0,0,0,0,-1,1805,1296,0,0
588,-272,0,0,0,0,0,0,0,0,0,-1,1812,1296,0,0
595,-272,0,0,0,0,0,0,0,0,0,-1,1819,1296,0,0
602,-272,59.9905,2.5946,-0.00464211,0.0241111,-0.00154576,0.0241939,-0.00472497,-1.51724,0.0179132,0.0319509,1826,1296,59.9904,-2.5946
609,-272,59.9254,2.41614,-0.00917021,0.0318745,-0.000603895,0.0318833,-0.00917909,-1.55609,0.0248861,0.039583,1833,1296,59.9254,-2.41619
616,-272,59.7002,1.98145,-0.0119589,0.0342125,5.22752e-05,0.0342126,-0.0119589,1.56966,0.02767,0.0421529,1840,1296,59.7002,-1.9815
623,-272,59.6702,1.69128,-0.0119159,0.0303876,0.000276804,0.0303894,-0.0119177,1.56425,0.0251901,0.043415,1847,1296,59.6701,-1.69127
630,-272,59.5637,1.81458,-0.011195,0.025119,0.000310542,0.0251216,-0.0111976,1.56225,0.0214765,0.0439465,1854,1296,59.5637,-1.81462
637,-272,59.5979,2.39917,0,0,0,0,0,0,0,-1,1861,1296,59.5979,-2.39912
644,-272,53.563,1.44336,0,0,0,0,0,0,0,-1,1868,1296,53.5629,-1.4433
651,-272,41.9225,4.27161,0,0,0,0,0,0,0,-1,1875,1296,41.9225,-4.27157
658,-272,35.1527,2.10571,0,0,0,0,0,0,0,-1,1882,1296,35.1527,-2.10573
665,-272,22.0238,4.14417,0,0,0,0,0,0,0,-1,1889,1296,22.0238,-4.14421
672,-272,22.661,7.21765,0,0,0,0,0,0,0,-1,1896,1296,22.661,-7.21761
679,-272,42.6465,12.7373,0,0,0,0,0,0,0,-1,1903,1296,42.6464,-12.7373
686,-272,42.6041,12.1171,-0.00285474,0.00103992,-0.000781729,0.00119097,-0.00300579,-1.37992,0.00249738,0.0295962,1910,1296,42.6041,-12.117
693,-272,42.6339,11.4856,-0.000594161,0.000518019,-0.000414691,0.000655618,-0.00073176,-1.25042,0.000801405,0.0111747,1917,1296,42.6339,-11.4856
700,-272,42.6272,10.8971,0.000715474,-0.000478899,7.42648e-05,0.000720074,-0.000483499,0.0618613,0.000699343,0.0114002,1924,1296,42.6271,-10.8971
707,-272,42.6064,10.3,6.51858e-05,-0.000449726,0.000533746,0.000400324,-0.000784865,0.560681,0.000696171,0.0111692,1931,1296,42.6065,-10.3
714,-272,42.5653,9.72559,-0.000675978,-0.000297206,0.00106109,0.000591266,-0.00156445,0.87371,0.00128618,0.0136555,1938,1296,42.5654,-9.72555
721,-272,42.5034,9.18237,-0.00150571,-0.000120472,0.00163679,0.000964214,-0.0025904,0.985552,0.00212264,0.0181029,1945,1296,42.5034,-9.18232
728,-272,42.5028,8.57495,-0.00242904,6.85732e-05,0.00226429,0.0014056,-0.00376606,1.0374,0.00308779,0.018873,1952,1296,42.5028,-8.57499
735,-272,42.4966,8.02148,-0.00345833,0.000301429,0.00295785,0.00192624,-0.00508314,1.06848,0.00418144,0.0160192,1959,1296,42.4966,-8.02146
742,-272,42.3939,7.47937,-0.00457607,0.000590926,0.00376614,0.00257451,-0.00655965,1.08603,0.00543834,0.0245464,1966,1296,42.3939,-7.47935
749,-272,42.2904,6.84827,-0.00578874,0.00109077,0.00454526,0.00335113,-0.0080491,1.10931,0.00676565,0.0485512,1973,1296,42.2904,-6.84832
756,-272,42.3118,6.27112,0,0,0,0,0,0,0,-1,1980,1296,42.3117,-6.2711
763,-272,34.3995,5.88416,0,0,0,0,0,0,0,-1,1987,1296,34.3996,-5.88419
770,-272,25.9485,3.67749,0,0,0,0,0,0,0,-1,1994,1296,25.9485,-3.67744
777,-272,32.3619,6.13257,0,0,0,0,0,0,0,-1,2001,1296,32.362,-6.1326
784,-272,0,0,0,0,0,0,0,0,0,-1,2008,1296,0,0
791,-272,0,0,0,0,0,0,0,0,0,-1,2015,1296,0,0
798,-272,0,0,0,0,0,0,0,0,0,-1,2022,1296,0,0
805,-272,0,0,0,0,0,0,0,0,0,-1,2029,1296,0,0
812,-272,0,0,0,0,0,0,0,0,0,-1,2036,1296,0,0
-700,-279,0,0,0,0,0,0,0,0,0,-1,524,1303,0,0
-693,-279,0,0,0,0,0,0,0,0,0,-1,531,1303,0,0
-686,-279,0,0,0,0,0,0,0,0,0,-1,538,1303,0,0
-679,-279,0,0,0,0,0,0,0,0,0,-1,545,1303,0,0
-672,-279,0,0,0,0,0,0,0,0,0,-1,552,1303,0,0
-665,-279,0,0,0,0,0,0,0,0,0,-1,559,1303,0,0
-658,-279,-50.8646,5.87878,0,0,0,0,0,0,0,-1,566,1303,-50.8646,-5.8788
-651,-279,-50.2,5.19824,0,0,0,0,0,0,0,-1,573,1303,-50.2,-5.19819
-644,-279,-51.201,3.71008,0,0,0,0,0,0,0,-1,580,1303,-51.201,-3.71005
-637,-279,-52.202,2.22192,0,0,0,0,0,0,0,-1,587,1303,-52.202,-2.22192
-630,-279,-37.8927,-1.96741,0,0,0,0,0,0,0,-1,594,1303,-37.8927,1.96745
-623,-279,-22.2665,2.68457,0,0,0,0,0,0,0,-1,601,1303,-22.2665,-2.68451
-616,-279,-25.9256,4.78198,0,0,0,0,0,0,0,-1,608,1303,-25.9256,-4.78194
-609,-279,-26.3116,5.52173,0,0,0,0,0,0,0,-1,615,1303,-26.3116,-5.52173
-602,-279,-26.1412,5.78625,-0.00564411,-0.0129662,-0.00646857,-0.0018724,-0.0167379,-0.527886,0.0105898,0.016389,622,1303,-26.1412,-5.78623
-595,-279,-26.2141,6.41577,-0.00221499,-0.00591784,-0.00315262,-0.000410354,-0.00772247,-0.519897,0.00501713,0.0108665,629,1303,-26.2141,-6.41577
-588,-279,-26.2466,7.03992,0.00122402,-0.00034601,-0.0005294,0.00138585,-0.000507839,-0.296662,0.00113182,0.0121658,636,1303,-26.2466,-7.03996
-581,-279,-26.2851,7.6322,0.00266459,0.000315774,0.000578909,0.00279952,0.000180843,0.228991,0.00180908,0.0138653,643,1303,-26.2851,-7.63216
-574,-279,-26.334,8.27515,0.00280831,-0.000419628,0.000717713,0.00296069,-0.000572014,0.209214,0.00218952,0.0142231,650,1303,-26.334,-8.27509
-567,-279,-26.3479,8.92285,0.00316137,-0.00124863,0.000710724,0.00327308,-0.00136034,0.155905,0.00275004,0.0179108,657,1303,-26.3479,-8.92288
-560,-279,-26.3655,9.59375,0.00406762,-0.00191858,0.000951897,0.00421534,-0.0020663,0.153958,0.00369678,0.0173672,664,1303,-26.3655,-9.59373
-553,-279,-26.3683,10.2299,0.005294,-0.00270595,0.00122759,0.00547814,-0.00289009,0.148887,0.00490781,0.0155453,671,1303,-26.3683,-10.2299
-546,-279,-26.3635,10.8721,0.00673019,-0.00332654,0.00169701,0.00700883,-0.00360518,0.162742,0.00623214,0.0314526,678,1303,-26.3635,-10.872
-539,-279,-26.6847,11.6179,0,0,0,0,0,0,0,-1,685,1303,-26.6847,-11.618
-532,-279,-14.9813,7.89917,0,0,0,0,0,0,0,-1,692,1303,-14.9813,-7.89918
-525,-279,-11.7063,-0.539185,0,0,0,0,0,0,0,-1,699,1303,-11.7063,0.539166
-518,-279,-16.8138,1.11963,0,0,0,0,0,0,0,-1,706,1303,-16.8138,-1.11968
-511,-279,-20.1063,-1.37915,0,0,0,0,0,0,0,-1,713,1303,-20.1062,1.37918
-504,-279,-18.3766,1.04578,0,0,0,0,0,0,0,-1,720,1303,-18.3767,-1.04577
-497,-279,-19.0046,2.08911,0,0,0,0,0,0,0,-1,727,1303,-19.0046,-2.08905
-490,-279,-20.0176,2.55188,0,0,0,0,0,0,0,-1,734,1303,-20.0176,-2.55183
-483,-279,-20.8064,2.99792,0,0,0,0,0,0,0,-1,741,1303,-20.8064,-2.99797
-476,-279,0,0,0,0,0,0,0,0,0,-1,748,1303,0,0
-469,-279,0,0,0,0,0,0,0,0,0,-1,755,1303,0,0
-462,-279,0,0,0,0,0,0,0,0,0,-1,762,1303,0,0
-455,-279,0,0,0,0,0,0,0,0,0,-1,769,1303,0,0
-448,-279,0,0,0,0,0,0,0,0,0,-1,776,1303,0,0
-441,-279,0,0,0,0,0,0,0,0,0,-1,783,1303,0,0
-434,-279,0,0,0,0,0,0,0,0,0,-1,790,1303,0,0
-427,-279,0,0,0,0,0,0,0,0,0,-1,797,1303,0,0
-420,-279,0,0,0,0,0,0,0,0,0,-1,804,1303,0,0
-413,-279,0,0,0,0,0,0,0,0,0,-1,811,1303,0,0
-406,-279,0,0,0,0,0,0,0,0,0,-1,818,1303,0,0
-399,-279,0,0,0,0,0,0,0,0,0,-1,825,1303,0,0
-392,-279,0,0,0,0,0,0,0,0,0,-1,832,1303,0,0
-385,-279,0,0,0,0,0,0,0,0,0,-1,839,1303,0,0
-378,-279,0,0,0,0,0,0,0,0,0,-1,846,1303,0,0
-371,-279,0,0,0,0,0,0,0,0,0,-1,853,1303,0,0
-364,-279,0,0,0,0,0,0,0,0,0,-1,860,1303,0,0
-357,-279,0,0,0,0,0,0,0,0,0,-1,867,1303,0,0
-350,-279,0,0,0,0,0,0,0,0,0,-1,874,1303,0,0
-343,-279,0,0,0,0,0,0,0,0,0,-1,881,1303,0,0
-336,-279,0,0,0,0,0,0,0,0,0,-1,888,1303,0,0
-329,-279,0,0,0,0,0,0,0,0,0,-1,895,1303,0,0
-322,-279,0,0,0,0,0,0,0,0,0,-1,902,1303,0,0
-315,-279,0,0,0,0,0,0,0,0,0,-1,909,1303,0,0
-308,-279,0,0,0,0,0,0,0,0,0,-1,916,1303,0,0
-301,-279,0,0,0,0,0,0,0,0,0,-1,923,1303,0,0
-294,-279,0,0,0,0,0,0,0,0,0,-1,930,1303,0,0
-287,-279,0,0,0,0,0,0,0,0,0,-1,937,1303,0,0
-280,-279,0,0,0,0,0,0,0,0,0,-1,944,1303,0,0
-273,-279,0,0,0,0,0,0,0,0,0,-1,951,1303,0,0
-266,-279,0,0,0,0,0,0,0,0,0,-1,958,1303,0,0
-259,-279,0,0,0,0,0,0,0,0,0,-1,965,1303,0,0
-252,-279,0,0,0,0,0,0,0,0,0,-1,972,1303,0,0
-245,-279,0,0,0,0,0,0,0,0,0,-1,979,1303,0,0
-238,-279,0,0,0,0,0,0,0,0,0,-1,986,1303,0,0
-231,-279,0,0,0,0,0,0,0,0,0,-1,993,1303,0,0
-224,-279,0,0,0,0,0,0,0,0,0,-1,1000,1303,0,0
-217,-279,0,0,0,0,0,0,0,0,0,-1,1007,1303,0,0
-210,-279,0,0,0,0,0,0,0,0,0,-1,1014,1303,0,0
-203,-279,0,0,0,0,0,0,0,0,0,-1,1021,1303,0,0
-196,-279,0,0,0,0,0,0,0,0,0,-1,1028,1303,0,0
-189,-279,0,0,0,0,0,0,0,0,0,-1,1035,1303,0,0
-182,-279,0,0,0,0,0,0,0,0,0,-1,1042,1303,0,0
-175,-279,0,0,0,0,0,0,0,0,0,-1,1049,1303,0,0
-168,-279,0,0,0,0,0,0,0,0,0,-1,1056,1303,0,0
-161,-279,0,0,0,0,0,0,0,0,0,-1,1063,1303,0,0
-154,-279,0,0,0,0,0,0,0,0,0,-1,1070,1303,0,0
-147,-279,0,0,0,0,0,0,0,0,0,-1,1077,1303,0,0
-140,-279,0,0,0,0,0,0,0,0,0,-1,1084,1303,0,0
-133,-279,0,0,0,0,0,0,0,0,0,-1,1091,1303,0,0
-126,-279,0,0,0,0,0,0,0,0,0,-1,1098,1303,0,0
-119,-279,0,0,0,0,0,0,0,0,0,-1,1105,1303,0,0
-112,-279,0,0,0,0,0,0,0,0,0,-1,1112,1303,0,0
-105,-279,0,0,0,0,0,0,0,0,0,-1,1119,1303,0,0
-98,-279,0,0,0,0,0,0,0,0,0,-1,1126,1303,0,0
-91,-279,0,0,0,0,0,0,0,0,0,-1,1133,1303,0,0
-84,-279,0,0,0,0,0,0,0,0,0,-1,1140,1303,0,0
-77,-279,0,0,0,0,0,0,0,0,0,-1,1147,1303,0,0
-70,-279,0,0,0,0,0,0,0,0,0,-1,1154,1303,0,0
-63,-279,0,0,0,0,0,0,0,0,0,-1,1161,1303,0,0
-56,-279,0,0,0,0,0,0,0,0,0,-1,1168,1303,0,0
-49,-279,0,0,0,0,0,0,0,0,0,-1,1175,1303,0,0
-42,-279,0,0,0,0,0,0,0,0,0,-1,1182,1303,0,0
-35,-279,0,0,0,0,0,0,0,0,0,-1,1189,1303,0,0
-28,-279,0,0,0,0,0,0,0,0,0,-1,1196,1303,0,0
-21,-279,0,0,0,0,0,0,0,0,0,-1,1203,1303,0,0
-14,-279,0,0,0,0,0,0,0,0,0,-1,1210,1303,0,0
-7,-279,0,0,0,0,0,0,0,0,0,-1,1217,1303,0,0
0,-279,0,0,0,0,0,0,0,0,0,-1,1224,1303,0,0
7,-279,0,0,0,0,0,0,0,0,0,-1,1231,1303,0,0
14,-279,0,0,0,0,0,0,0,0,0,-1,1238,1303,0,0
21,-279,0,0,0,0,0,0,0,0,0,-1,1245,1303,0,0
28,-279,0,0,0,0,0,0,0,0,0,-1,1252,1303,0,0
35,-279,0,0,0,0,0,0,0,0,0,-1,1259,1303,0,0
42,-279,0,0,0,0,0,0,0,0,0,-1,1266,1303,0,0
49,-279,0,0,0,0,0,0,0,0,0,-1,1273,1303,0,0
56,-279,0,0,0,0,0,0,0,0,0,-1,1280,1303,0,0
63,-279,0,0,0,0,0,0,0,0,0,-1,1287,1303,0,0
70,-279,0,0,0,0,0,0,0,0,0,-1,1294,1303,0,0
77,-279,0,0,0,0,0,0,0,0,0,-1,1301,1303,0,0
84,-279,0,0,0,0,0,0,0,0,0,-1,1308,1303,0,0
91,-279,0,0,0,0,0,0,0,0,0,-1,1315,1303,0,0
98,-279,0,0,0,0,0,0,0,0,0,-1,1322,1303,0,0
105,-279,0,0,0,0,0,0,0,0,0,-1,1329,1303,0,0
112,-279,0,0,0,0,0,0,0,0,0,-1,1336,1303,0,0
119,-279,0,0,0,0,0,0,0,0,0,-1,1343,1303,0,0
126,-279,0,0,0,0,0,0,0,0,0,-1,1350,1303,0,0
133,-279,0,0,0,0,0,0,0,0,0,-1,1357,1303,0,0
140,-279,0,0,0,0,0,0,0,0,0,-1,1364,1303,0,0
147,-279,0,0,0,0,0,0,0,0,0,-1,1371,1303,0,0
154,-279,0,0,0,0,0,0,0,0,0,-1,1378,1303,0,0
161,-279,0,0,0,0,0,0,0,0,0,-1,1385,1303,0,0
168,-279,0,0,0,0,0,0,0,0,0,-1,1392,1303,0,0
175,-279,0,0,0,0,0,0,0,0,0,-1,1399,1303,0,0
182,-279,0,0,0,0,0,0,0,0,0,-1,1406,1303,0,0
189,-279,0,0,0,0,0,0,0,0,0,-1,1413,1303,0,0
196,-279,0,0,0,0,0,0,0,0,0,-1,1420,1303,0,0
203,-279,0,0,0,0,0,0,0,0,0,-1,1427,1303,0,0
210,-279,0,0,0,0,0,0,0,0,0,-1,1434,1303,0,0
217,-279,0,0,0,0,0,0,0,0,0,-1,1441,1303,0,0
224,-279,0,0,0,0,0,0,0,0,0,-1,1448,1303,0,0
231,-279,0,0,0,0,0,0,0,0,0,-1,1455,1303,0,0
238,-279,0,0,0,0,0,0,0,0,0,-1,1462,1303,0,0
245,-279,0,0,0,0,0,0,0,0,0,-1,1469,1303,0,0
252,-279,0,0,0,0,0,0,0,0,0,-1,1476,1303,0,0
259,-279,0,0,0,0,0,0,0,0,0,-1,1483,1303,0,0
266,-279,0,0,0,0,0,0,0,0,0,-1,1490,1303,0,0
273,-279,0,0,0,0,0,0,0,0,0,-1,1497,1303,0,0
280,-279,0,0,0,0,0,0,0,0,0,-1,1504,1303,0,0
287,-279,0,0,0,0,0,0,0,0,0,-1,1511,1303,0,0
294,-279,0,0,0,0,0,0,0,0,0,-1,1518,1303,0,0
301,-279,0,0,0,0,0,0,0,0,0,-1,1525,1303,0,0
308,-279,0,0,0,0,0,0,0,0,0,-1,1532,1303,0,0
315,-279,0,0,0,0,0,0,0,0,0,-1,1539,1303,0,0
322,-279,0,0,0,0,0,0,0,0,0,-1,1546,1303,0,0
329,-279,0,0,0,0,0,0,0,0,0,-1,1553,1303,0,0
336,-279,0,0,0,0,0,0,0,0,0,-1,1560,1303,0,0
343,-279,0,0,0,0,0,0,0,0,0,-1,1567,1303,0,0
350,-279,0,0,0,0,0,0,0,0,0,-1,1574,1303,0,0
357,-279,0,0,0,0,0,0,0,0,0,-1,1581,1303,0,0
364,-279,0,0,0,0,0,0,0,0,0,-1,1588,1303,0,0
371,-279,0,0,0,0,0,0,0,0,0,-1,1595,1303,0,0
378,-279,0,0,0,0,0,0,0,0,0,-1,1602,1303,0,0
385,-279,0,0,0,0,0,0,0,0,0,-1,1609,1303,0,0
392,-279,0,0,0,0,0,0,0,0,0,-1,1616,1303,0,0
399,-279,0,0,0,0,0,0,0,0,0,-1,1623,1303,0,0
406,-279,0,0,0,0,0,0,0,0,0,-1,1630,1303,0,0
413,-279,0,0,0,0,0,0,0,0,0,-1,1637,1303,0,0
420,-279,0,0,0,0,0,0,0,0,0,-1,1644,1303,0,0
427,-279,0,0,0,0,0,0,0,0,0,-1,1651,1303,0,0
434,-279,0,0,0,0,0,0,0,0,0,-1,1658,1303,0,0
441,-279,0,0,0,0,0,0,0,0,0,-1,1665,1303,0,0
448,-279,0,0,0,0,0,0,0,0,0,-1,1672,1303,0,0
455,-279,0,0,0,0,0,0,0,0,0,-1,1679,1303,0,0
462,-279,0,0,0,0,0,0,0,0,0,-1,1686,1303,0,0
469,-279,0,0,0,0,0,0,0,0,0,-1,1693,1303,0,0
476,-279,0,0,0,0,0,0,0,0,0,-1,1700,1303,0,0
483,-279,0,0,0,0,0,0,0,0,0,-1,1707,1303,0,0
490,-279,0,0,0,0,0,0,0,0,0,-1,1714,1303,0,0
497,-279,0,0,0,0,0,0,0,0,0,-1,1721,1303,0,0
504,-279,0,0,0,0,0,0,0,0,0,-1,1728,1303,0,0
511,-279,0,0,0,0,0,0,0,0,0,-1,1735,1303,0,0
518,-279,0,0,0,0,0,0,0,0,0,-1,1742,1303,0,0
525,-279,0,0,0,0,0,0,0,0,0,-1,1749,1303,0,0
532,-279,0,0,0,0,0,0,0,0,0,-1,1756,1303,0,0
539,-279,0,0,0,0,0,0,0,0,0,-1,1763,1303,0,0
546,-279,0,0,0,0,0,0,0,0,0,-1,1770,1303,0,0
553,-279,0,0,0,0,0,0,0,0,0,-1,1777,1303,0,0
560,-279,0,0,0,0,0,0,0,0,0,-1,1784,1303,0,0
567,-279,0,0,0,0,0,0,0,0,0,-1,1791,1303,0,0
574,-279,0,0,0,0,0,0,0,0,0,-1,1798,1303,0,0
581,-279,0,0,0,0,0,0,0,0,0,-1,1805,1303,0,0
588,-279,0,0,0,0,0,0,0,0,0,-1,1812,1303,0,0
595,-279,0,0,0,0,0,0,0,0,0,-1,1819,1303,0,0
602,-279,59.9784,2.53955,0,0,0,0,0,0,0,-1,1826,1303,59.9783,-2.5396
609,-279,59.818,2.24829,0,0,0,0,0,0,0,-1,1833,1303,59.818,-2.24827
616,-279,59.719,1.31299,0,0,0,0,0,0,0,-1,1840,1303,59.719,-1.31297
623,-279,59.9589,1.26929,0,0,0,0,0,0,0,-1,1847,1303,59.9589,-1.26926
630,-279,59.462,1.52893,0,0,0,0,0,0,0,-1,1854,1303,59.462,-1.52898
637,-279,58.6346,0.926392,0,0,0,0,0,0,0,-1,1861,1303,58.6347,-0.926344
644,-279,33.5021,3.40234,0,0,0,0,0,0,0,-1,1868,1303,33.5021,-3.40237
651,-279,29.8456,2.3562,0,0,0,0,0,0,0,-1,1875,1303,29.8455,-2.35615
658,-279,21.5076,7.65649,0,0,0,0,0,0,0,-1,1882,1303,21.5076,-7.65648
665,-279,18.9794,6.09607,0,0,0,0,0,0,0,-1,1889,1303,18.9793,-6.09601
672,-279,23.5206,8.32507,0,0,0,0,0,0,0,-1,1896,1303,23.5206,-8.32512
679,-279,41.8569,12.703,0,0,0,0,0,0,0,-1,1903,1303,41.857,-12.703
686,-279,41.9913,12.1199,-0.0020372,0.000750304,-0.000754545,0.000941444,-0.00222834,-1.3227,0.00187968,0.0286305,1910,1303,41.9914,-12.1198
693,-279,42.022,11.5364,-8.68484e-06,0.000350162,-0.000408246,0.000616672,-0.000275196,-0.992441,0.000527351,0.0175257,1917,1303,42.022,-11.5364
700,-279,42.0348,10.9525,0.00084598,-0.000333991,8.42122e-05,0.00085196,-0.00033997,0.0708892,0.000709007,0.0126708,1924,1303,42.0347,-10.9525
707,-279,41.9933,10.3394,0.000183543,-0.000305827,0.000552126,0.000542773,-0.000665057,0.576819,0.000698531,0.0101255,1931,1303,41.9933,-10.3394
714,-279,41.9521,9.75647,-0.000543723,-0.000215222,0.00105889,0.000692086,-0.00145103,0.862342,0.00126293,0.0103219,1938,1303,41.9521,-9.7565
721,-279,41.9735,9.17981,-0.00139001,-0.000126563,0.0016153,0.00097615,-0.00249273,0.971798,0.00206557,0.0144269,1945,1303,41.9735,-9.1798
728,-279,41.975,8.61584,-0.00235542,-2.59885e-05,0.00222461,0.00132037,-0.00370177,1.02656,0.00300623,0.0173552,1952,1303,41.975,-8.61581
735,-279,41.908,8.06372,-0.00348118,9.76712e-05,0.00290947,0.00172396,-0.00510747,1.0611,0.00410221,0.0166641,1959,1303,41.908,-8.06372
742,-279,41.7848,7.51587,-0.00478098,0.0002444,0.00373277,0.0022314,-0.00676798,1.08163,0.00541138,0.0288394,1966,1303,41.7848,-7.51581
749,-279,41.701,6.95215,0,0,0,0,0,0,0,-1,1973,1303,41.7011,-6.9522
756,-279,23.2091,4.43433,0,0,0,0,0,0,0,-1,1980,1303,23.2092,-4.43432
763,-279,27.1613,3.46265,0,0,0,0,0,0,0,-1,1987,1303,27.1613,-3.4627
770,-279,21.5828,3.54199,0,0,0,0,0,0,0,-1,1994,1303,21.5827,-3.54198
777,-279,32.5369,6.99609,0,0,0,0,0,0,0,-1,2001,1303,32.5369,-6.99608
784,-279,0,0,0,0,0,0,0,0,0,-1,2008,1303,0,0
791,-279,0,0,0,0,0,0,0,0,0,-1,2015,1303,0,0
798,-279,0,0,0,0,0,0,0,0,0,-1,2022,1303,0,0
805,-279,0,0,0,0,0,0,0,0,0,-1,2029,1303,0,0
812,-279,0,0,0,0,0,0,0,0,0,-1,2036,1303,0,0
-700,-286,0,0,0,0,0,0,0,0,0,-1,524,1310,0,0
-693,-286,0,0,0,0,0,0,0,0,0,-1,531,1310,0,0
-686,-286,0,0,0,0,0,0,0,0,0,-1,538,1310,0,0
-679,-286,0,0,0,0,0,0,0,0,0,-1,545,1310,0,0
-672,-286,0,0,0,0,0,0,0,0,0,-1,552,1310,0,0
-665,-286,0,0,0,0,0,0,0,0,0,-1,559,1310,0,0
-658,-286,-51.1878,7.67065,0,0,0,0,0,0,0,-1,566,1310,-51.1878,-7.67065
-651,-286,-51.5525,6.18335,-0.0517565,-0.10188,-0.0397644,-0.029815,-0.123821,-0.504214,0.0746217,0.0461495,573,1310,-51.5525,-6.1833
-644,-286,-52.0189,4.6803,-0.0500063,-0.0910653,-0.0308541,-0.0334759,-0.107596,-0.491845,0.0635806,0.0445082,580,1310,-52.0189,-4.6803
-637,-286,-52.4854,3.03357,0,0,0,0,0,0,0,-1,587,1310,-52.4854,-3.03361
-630,-286,-53.0779,1.25867,0,0,0,0,0,0,0,-1,594,1310,-53.0779,-1.25867
-623,-286,-20.1415,-1.72998,0,0,0,0,0,0,0,-1,601,1310,-20.1415,1.72995
-616,-286,-22.0634,2.37744,0,0,0,0,0,0,0,-1,608,1310,-22.0633,-2.37746
-609,-286,-25.713,4.95911,0,0,0,0,0,0,0,-1,615,1310,-25.713,-4.95914
-602,-286,-25.582,5.74622,-0.0090429,-0.017446,-0.00526235,-0.00651057,-0.0199784,-0.448509,0.0117653,0.0227481,622,1310,-25.582,-5.74627
-595,-286,-25.6003,6.44202,-0.00444716,-0.00847773,-0.0023373,-0.00337629,-0.0095486,-0.429624,0.00559112,0.0128516,629,1310,-25.6003,-6.44198
-588,-286,-25.6096,7.05652,0.000372522,-0.00100922,-8.36989e-05,0.000377574,-0.00101427,-0.0602812,0.000831135,0.0146031,636,1310,-25.6096,-7.05652
-581,-286,-25.5938,7.67432,0.00257695,0.000695837,0.00058773,0.00274548,0.000527307,0.279254,0.00168233,0.0163959,643,1310,-25.5937,-7.67434
-574,-286,-25.6635,8.31458,0.0026865,9.45374e-05,0.000758993,0.0028924,-0.000111359,0.264901,0.00196644,0.0153784,650,1310,-25.6635,-8.31454
-567,-286,-25.7235,8.96008,0.00293576,-0.000602325,0.000744745,0.00308613,-0.000752698,0.199234,0.00234887,0.0141688,657,1310,-25.7235,-8.96013
-560,-286,-25.7205,9.62061,0.00364599,-0.00120217,0.000956339,0.00382781,-0.001384,0.187885,0.00311736,0.013798,664,1310,-25.7204,-9.62066
-553,-286,-25.7283,10.2635,0.00467311,-0.00182635,0.00123975,0.00490155,-0.00205479,0.182226,0.00412683,0.0104062,671,1310,-25.7283,-10.2636
-546,-286,-25.7344,10.923,0.00589881,-0.0023468,0.00168082,0.00622827,-0.00267626,0.193558,0.00527561,0.0228147,678,1310,-25.7344,-10.923
-539,-286,-25.6824,11.4354,0,0,0,0,0,0,0,-1,685,1310,-25.6824,-11.4354
-532,-286,-21.6771,10.4924,0,0,0,0,0,0,0,-1,692,1310,-21.6771,-10.4924
-525,-286,-11.4528,-1.11768,0,0,0,0,0,0,0,-1,699,1310,-11.4528,1.11769
-518,-286,-11.0701,1.37329,0,0,0,0,0,0,0,-1,706,1310,-11.0701,-1.37332
-511,-286,-17.7545,-0.0791016,0,0,0,0,0,0,0,-1,713,1310,-17.7544,0.0791606
-504,-286,-18.0455,1.29602,0,0,0,0,0,0,0,-1,720,1310,-18.0455,-1.29601
-497,-286,-18.3367,2.67114,0,0,0,0,0,0,0,-1,727,1310,-18.3366,-2.67118
-490,-286,-19.5795,2.47266,0,0,0,0,0,0,0,-1,734,1310,-19.5795,-2.4727
-483,-286,-19.7277,2.74744,0,0,0,0,0,0,0,-1,741,1310,-19.7277,-2.74747
-476,-286,-20.0391,3.06177,0,0,0,0,0,0,0,-1,748,1310,-20.0391,-3.06178
-469,-286,0,0,0,0,0,0,0,0,0,-1,755,1310,0,0
-462,-286,0,0,0,0,0,0,0,0,0,-1,762,1310,0,0
-455,-286,0,0,0,0,0,0,0,0,0,-1,769,1310,0,0
-448,-286,0,0,0,0,0,0,0,0,0,-1,776,1310,0,0
-441,-286,0,0,0,0,0,0,0,0,0,-1,783,1310,0,0
-434,-286,0,0,0,0,0,0,0,0,0,-1,790,1310,0,0
-427,-286,0,0,0,0,0,0,0,0,0,-1,797,1310,0,0
-420,-286,0,0,0,0,0,0,0,0,0,-1,804,1310,0,0
-413,-286,0,0,0,0,0,0,0,0,0,-1,811,1310,0,0
-406,-286,0,0,0,0,0,0,0,0,0,-1,818,1310,0,0
-399,-286,0,0,0,0,0,0,0,0,0,-1,825,1310,0,0
-392,-286,0,0,0,0,0,0,0,0,0,-1,832,1310,0,0
-385,-286,0,0,0,0,0,0,0,0,0,-1,839,1310,0,0
-378,-286,0,0,0,0,0,0,0,0,0,-1,846,1310,0,0
-371,-286,0,0,0,0,0,0,0,0,0,-1,853,1310,0,0
-364,-286,0,0,0,0,0,0,0,0,0,-1,860,1310,0,0
-357,-286,0,0,0,0,0,0,0,0,0,-1,867,1310,0,0
-350,-286,0,0,0,0,0,0,0,0,0,-1,874,1310,0,0
-343,-286,0,0,0,0,0,0,0,0,0,-1,881,1310,0,0
-336,-286,0,0,0,0,0,0,0,0,0,-1,888,1310,0,0
-329,-286,0,0,0,0,0,0,0,0,0,-1,895,1310,0,0
-322,-286,0,0,0,0,0,0,0,0,0,-1,902,1310,0,0
-315,-286,0,0,0,0,0,0,0,0,0,-1,909,1310,0,0
-308,-286,0,0,0,0,0,0,0,0,0,-1,916,1310,0,0
-301,-286,0,0,0,0,0,0,0,0,0,-1,923,1310,0,0
-294,-286,0,0,0,0,0,0,0,0,0,-1,930,1310,0,0
-287,-286,0,0,0,0,0,0,0,0,0,-1,937,1310,0,0
-280,-286,0,0,0,0,0,0,0,0,0,-1,944,1310,0,0
-273,-286,0,0,0,0,0,0,0,0,0,-1,951,1310,0,0
-266,-286,0,0,0,0,0,0,0,0,0,-1,958,1310,0,0
-259,-286,0,0,0,0,0,0,0,0,0,-1,965,1310,0,0
-252,-286,0,0,0,0,0,0,0,0,0,-1,972,1310,0,0
-245,-286,0,0,0,0,0,0,0,0,0,-1,979,1310,0,0
-238,-286,0,0,0,0,0,0,0,0,0,-1,986,1310,0,0
-231,-286,0,0,0,0,0,0,0,0,0,-1,993,1310,0,0
-224,-286,0,0,0,0,0,0,0,0,0,-1,1000,1310,0,0
-217,-286,0,0,0,0,0,0,0,0,0,-1,1007,1310,0,0
-210,-286,0,0,0,0,0,0,0,0,0,-1,1014,1310,0,0
-203,-286,0,0,0,0,0,0,0,0,0,-1,1021,1310,0,0
-196,-286,0,0,0,0,0,0,0,0,0,-1,1028,1310,0,0
-189,-286,0,0,0,0,0,0,0,0,0,-1,1035,1310,0,0
-182,-286,0,0,0,0,0,0,0,0,0,-1,1042,1310,0,0
-175,-286,0,0,0,0,0,0,0,0,0,-1,1049,1310,0,0
-168,-286,0,0,0,0,0,0,0,0,0,-1,1056,1310,0,0
-161,-286,0,0,0,0,0,0,0,0,0,-1,1063,1310,0,0
-154,-286,0,0,0,0,0,0,0,0,0,-1,1070,1310,0,0
-147,-286,0,0,0,0,0,0,0,0,0,-1,1077,1310,0,0
-140,-286,0,0,0,0,0,0,0,0,0,-1,1084,1310,0,0
-133,-286,0,0,0,0,0,0,0,0,0,-1,1091,1310,0,0
-126,-286,0,0,0,0,0,0,0,0,0,-1,1098,1310,0,0
-119,-286,0,0,0,0,0,0,0,0,0,-1,1105,1310,0,0
-112,-286,0,0,0,0,0,0,0,0,0,-1,1112,1310,0,0
-105,-286,0,0,0,0,0,0,0,0,0,-1,1119,1310,0,0
-98,-286,0,0,0,0,0,0,0,0,0,-1,1126,1310,0,0
-91,-286,0,0,0,0,0,0,0,0,0,-1,1133,1310,0,0
-84,-286,0,0,0,0,0,0,0,0,0,-1,1140,1310,0,0
-77,-286,0,0,0,0,0,0,0,0,0,-1,1147,1310,0,0
-70,-286,0,0,0,0,0,0,0,0,0,-1,1154,1310,0,0
-63,-286,0,0,0,0,0,0,0,0,0,-1,1161,1310,0,0
-56,-286,0,0,0,0,0,0,0,0,0,-1,1168,1310,0,0
-49,-286,0,0,0,0,0,0,0,0,0,-1,1175,1310,0,0
-42,-286,0,0,0,0,0,0,0,0,0,-1,1182,1310,0,0
-35,-286,0,0,0,0,0,0,0,0,0,-1,1189,1310,0,0
-28,-286,0,0,0,0,0,0,0,0,0,-1,1196,1310,0,0
-21,-286,0,0,0,0,0,0,0,0,0,-1,1203,1310,0,0
-14,-286,0,0,0,0,0,0,0,0,0,-1,1210,1310,0,0
-7,-286,0,0,0,0,0,0,0,0,0,-1,1217,1310,0,0
0,-286,0,0,0,0,0,0,0,0,0,-1,1224,1310,0,0
7,-286,0,0,0,0,0,0,0,0,0,-1,1231,1310,0,0
14,-286,0,0,0,0,0,0,0,0,0,-1,1238,1310,0,0
21,-286,0,0,0,0,0,0,0,0,0,-1,1245,1310,0,0
28,-286,0,0,0,0,0,0,0,0,0,-1,1252,1310,0,0
35,-286,0,0,0,0,0,0,0,0,0,-1,1259,1310,0,0
42,-286,0,0,0,0,0,0,0,0,0,-1,1266,1310,0,0
49,-286,0,0,0,0,0,0,0,0,0,-1,1273,1310,0,0
56,-286,0,0,0,0,0,0,0,0,0,-1,1280,1310,0,0
63,-286,0,0,0,0,0,0,0,0,0,-1,1287,1310,0,0
70,-286,0,0,0,0,0,0,0,0,0,-1,1294,1310,0,0
77,-286,0,0,0,0,0,0,0,0,0,-1,1301,1310,0,0
84,-286,0,0,0,0,0,0,0,0,0,-1,1308,1310,0,0
91,-286,0,0,0,0,0,0,0,0,0,-1,1315,1310,0,0
98,-286,0,0,0,0,0,0,0,0,0,-1,1322,1310,0,0
105,-286,0,0,0,0,0,0,0,0,0,-1,1329,1310,0,0
112,-286,0,0,0,0,0,0,0,0,0,-1,1336,1310,0,0
119,-286,0,0,0,0,0,0,0,0,0,-1,1343,1310,0,0
126,-286,0,0,0,0,0,0,0,0,0,-1,1350,1310,0,0
133,-286,0,0,0,0,0,0,0,0,0,-1,1357,1310,0,0
140,-286,0,0,0,0,0,0,0,0,0,-1,1364,1310,0,0
147,-286,0,0,0,0,0,0,0,0,0,-1,1371,1310,0,0
154,-286,0,0,0,0,0,0,0,0,0,-1,1378,1310,0,0
161,-286,0,0,0,0,0,0,0,0,0,-1,1385,1310,0,0
168,-286,0,0,0,0,0,0,0,0,0,-1,1392,1310,0,0
175,-286,0,0,0,0,0,0,0,0,0,-1,1399,1310,0,0
182,-286,0,0,0,0,0,0,0,0,0,-1,1406,1310,0,0
189,-286,0,0,0,0,0,0,0,0,0,-1,1413,1310,0,0
196,-286,0,0,0,0,0,0,0,0,0,-1,1420,1310,0,0
203,-286,0,0,0,0,0,0,0,0,0,-1,1427,1310,0,0
210,-286,0,0,0,0,0,0,0,0,0,-1,1434,1310,0,0
217,-286,0,0,0,0,0,0,0,0,0,-1,1441,1310,0,0
224,-286,0,0,0,0,0,0,0,0,0,-1,1448,1310,0,0
231,-286,0,0,0,0,0,0,0,0,0,-1,1455,1310,0,0
238,-286,0,0,0,0,0,0,0,0,0,-1,1462,1310,0,0
245,-286,0,0,0,0,0,0,0,0,0,-1,1469,1310,0,0
252,-286,0,0,0,0,0,0,0,0,0,-1,1476,1310,0,0
259,-286,0,0,0,0,0,0,0,0,0,-1,1483,1310,0,0
266,-286,0,0,0,0,0,0,0,0,0,-1,1490,1310,0,0
273,-286,0,0,0,0,0,0,0,0,0,-1,1497,1310,0,0
280,-286,0,0,0,0,0,0,0,0,0,-1,1504,1310,0,0
287,-286,0,0,0,0,0,0,0,0,0,-1,1511,1310,0,0
294,-286,0,0,0,0,0,0,0,0,0,-1,1518,1310,0,0
301,-286,0,0,0,0,0,0,0,0,0,-1,1525,1310,0,0
308,-286,0,0,0,0,0,0,0,0,0,-1,1532,1310,0,0
315,-286,0,0,0,0,0,0,0,0,0,-1,1539,1310,0,0
322,-286,0,0,0,0,0,0,0,0,0,-1,1546,1310,0,0
329,-286,0,0,0,0,0,0,0,0,0,-1,1553,1310,0,0
336,-286,0,0,0,0,0,0,0,0,0,-1,1560,1310,0,0
343,-286,0,0,0,0,0,0,0,0,0,-1,1567,1310,0,0
350,-286,0,0,0,0,0,0,0,0,0,-1,1574,1310,0,0
357,-286,0,0,0,0,0,0,0,0,0,-1,1581,1310,0,0
364,-286,0,0,0,0,0,0,0,0,0,-1,1588,1310,0,0
371,-286,0,0,0,0,0,0,0,0,0,-1,1595,1310,0,0
378,-286,0,0,0,0,0,0,0,0,0,-1,1602,1310,0,0
385,-286,0,0,0,0,0,0,0,0,0,-1,1609,1310,0,0
392,-286,0,0,0,0,0,0,0,0,0,-1,1616,1310,0,0
399,-286,0,0,0,0,0,0,0,0,0,-1,1623,1310,0,0
406,-286,0,0,0,0,0,0,0,0,0,-1,1630,1310,0,0
413,-286,0,0,0,0,0,0,0,0,0,-1,1637,1310,0,0
420,-286,0,0,0,0,0,0,0,0,0,-1,1644,1310,0,0
427,-286,0,0,0,0,0,0,0,0,0,-1,1651,1310,0,0
434,-286,0,0,0,0,0,0,0,0,0,-1,1658,1310,0,0
441,-286,0,0,0,0,0,0,0,0,0,-1,1665,1310,0,0
448,-286,0,0,0,0,0,0,0,0,0,-1,1672,1310,0,0
455,-286,0,0,0,0,0,0,0,0,0,-1,1679,1310,0,0
462,-286,0,0,0,0,0,0,0,0,0,-1,1686,1310,0,0
469,-286,0,0,0,0,0,0,0,0,0,-1,1693,1310,0,0
476,-286,0,0,0,0,0,0,0,0,0,-1,1700,1310,0,0
483,-286,0,0,0,0,0,0,0,0,0,-1,1707,1310,0,0
490,-286,0,0,0,0,0,0,0,0,0,-1,1714,1310,0,0
497,-286,0,0,0,0,0,0,0,0,0,-1,1721,1310,0,0
504,-286,0,0,0,0,0,0,0,0,0,-1,1728,1310,0,0
511,-286,0,0,0,0,0,0,0,0,0,-1,1735,1310,0,0
518,-286,0,0,0,0,0,0,0,0,0,-1,1742,1310,0,0
525,-286,0,0,0,0,0,0,0,0,0,-1,1749,1310,0,0
532,-286,0,0,0,0,0,0,0,0,0,-1,1756,1310,0,0
539,-286,0,0,0,0,0,0,0,0,0,-1,1763,1310,0,0
546,-286,0,0,0,0,0,0,0,0,0,-1,1770,1310,0,0
553,-286,0,0,0,0,0,0,0,0,0,-1,1777,1310,0,0
560,-286,0,0,0,0,0,0,0,0,0,-1,1784,1310,0,0
567,-286,0,0,0,0,0,0,0,0,0,-1,1791,1310,0,0
574,-286,0,0,0,0,0,0,0,0,0,-1,1798,1310,0,0
581,-286,0,0,0,0,0,0,0,0,0,-1,1805,1310,0,0
588,-286,0,0,0,0,0,0,0,0,0,-1,1812,1310,0,0
595,-286,58.9567,2.65564,0,0,0,0,0,0,0,-1,1819,1310,58.9567,-2.65569
602,-286,59.9929,2.40125,0,0,0,0,0,0,0,-1,1826,1310,59.993,-2.40123
609,-286,58.7235,1.24707,0,0,0,0,0,0,0,-1,1833,1310,58.7235,-1.24712
616,-286,58.5273,0.787109,0,0,0,0,0,0,0,-1,1840,1310,58.5274,-0.787134
623,-286,60.1001,0.842529,0,0,0,0,0,0,0,-1,1847,1310,60.1001,-0.842584
630,-286,58.5714,0.717163,0,0,0,0,0,0,0,-1,1854,1310,58.5714,-0.717218
637,-286,47.8409,3.69824,0,0,0,0,0,0,0,-1,1861,1310,47.841,-3.69823
644,-286,25.6433,1.33862,0,0,0,0,0,0,0,-1,1868,1310,25.6433,-1.33858
651,-286,25.2507,1.88245,0,0,0,0,0,0,0,-1,1875,1310,25.2508,-1.88245
658,-286,25.9475,9.43689,0,0,0,0,0,0,0,-1,1882,1310,25.9475,-9.43693
665,-286,24.9838,8.03101,0,0,0,0,0,0,0,-1,1889,1310,24.9837,-8.03104
672,-286,40.2175,12.9626,0,0,0,0,0,0,0,-1,1896,1310,40.2175,-12.9627
679,-286,41.4716,12.7515,0,0,0,0,0,0,0,-1,1903,1310,41.4715,-12.7515
686,-286,41.4741,12.1713,-0.0010661,0.000294597,-0.000685659,0.000580169,-0.00135167,-1.17615,0.00114461,0.0216372,1910,1310,41.4742,-12.1713
693,-286,41.4373,11.5846,0.000509526,9.70571e-05,-0.000348118,0.000707913,-0.00010133,-0.517982,0.000509091,0.0170636,1917,1310,41.4373,-11.5845
700,-286,41.4236,10.981,0.000917469,-0.000252419,0.000132392,0.000932265,-0.000267215,0.111291,0.000727136,0.012572,1924,1310,41.4235,-10.9809
707,-286,41.3879,10.3951,0.000278199,-0.000208751,0.000582112,0.000665703,-0.000596255,0.587324,0.000728959,0.00980783,1931,1310,41.388,-10.3951
714,-286,41.3575,9.80518,-0.00041087,-0.000158499,0.00105575,0.00077858,-0.00134795,0.844877,0.00124233,0.00958504,1938,1310,41.3576,-9.80521
721,-286,41.3668,9.22437,-0.00122084,-0.000120211,0.00158087,0.00100339,-0.00234444,0.952892,0.00198389,0.0123591,1945,1310,41.3669,-9.22442
728,-286,41.3569,8.64636,-0.00217488,-8.10061e-05,0.00216453,0.00127648,-0.00353237,1.01065,0.00287642,0.0163481,1952,1310,41.3569,-8.64637
735,-286,41.3634,8.06445,-0.00333782,-4.32509e-05,0.0028381,0.00159098,-0.00497205,1.04835,0.00395322,0.0193987,1959,1310,41.3635,-8.06445
742,-286,41.303,7.5918,-0.00474443,-1.50005e-05,0.00367157,0.00198747,-0.0067469,1.07149,0.00528646,0.0417597,1966,1310,41.303,-7.59185
749,-286,41.3427,7.07703,0,0,0,0,0,0,0,-1,1973,1310,41.3427,-7.077
756,-286,24.8226,4.43481,0,0,0,0,0,0,0,-1,1980,1310,24.8227,-4.43479
763,-286,20.6671,3.99683,0,0,0,0,0,0,0,-1,1987,1310,20.6671,-3.99683
770,-286,23.9147,4.45679,0,0,0,0,0,0,0,-1,1994,1310,23.9146,-4.45675
777,-286,0,0,0,0,0,0,0,0,0,-1,2001,1310,0,0
784,-286,0,0,0,0,0,0,0,0,0,-1,2008,1310,0,0
791,-286,0,0,0,0,0,0,0,0,0,-1,2015,1310,0,0
798,-286,0,0,0,0,0,0,0,0,0,-1,2022,1310,0,0
805,-286,0,0,0,0,0,0,0,0,0,-1,2029,1310,0,0
812,-286,0,0,0,0,0,0,0,0,0,-1,2036,1310,0,0
-700,-293,0,0,0,0,0,0,0,0,0,-1,524,1317,0,0
-693,-293,0,0,0,0,0,0,0,0,0,-1,531,1317,0,0
-686,-293,0,0,0,0,0,0,0,0,0,-1,538,1317,0,0
-679,-293,0,0,0,0,0,0,0,0,0,-1,545,1317,0,0
-672,-293,0,0,0,0,0,0,0,0,0,-1,552,1317,0,0
-665,-293,0,0,0,0,0,0,0,0,0,-1,559,1317,0,0
-658,-293,0,0,0,0,0,0,0,0,0,-1,566,1317,0,0
-651,-293,-52.3254,7.26721,-0.067097,-0.116098,-0.0325268,-0.0508758,-0.13232,-0.462611,0.0770712,0.0481071,573,1317,-52.3254,-7.26722
-644,-293,-52.6753,5.53198,-0.0659522,-0.103784,-0.0229291,-0.0551434,-0.114593,-0.440507,0.0661756,0.049592,580,1317,-52.6753,-5.53193
-637,-293,-53.3887,3.75928,0,0,0,0,0,0,0,-1,587,1317,-53.3887,-3.75922
-630,-293,-24.5684,-3.7887,0,0,0,0,0,0,0,-1,594,1317,-24.5684,3.78869
-623,-293,-15.6058,0.229614,0,0,0,0,0,0,0,-1,601,1317,-15.6058,-0.229666
-616,-293,-15.5056,2.17737,0,0,0,0,0,0,0,-1,608,1317,-15.5055,-2.17742
-609,-293,-22.9199,4.26501,0,0,0,0,0,0,0,-1,615,1317,-22.9199,-4.26502
-602,-293,-25.0541,5.70862,0,0,0,0,0,0,0,-1,622,1317,-25.0541,-5.70864
-595,-293,-24.9883,6.45093,-0.00760306,-0.0112809,-0.00104962,-0.0073246,-0.0115594,-0.259329,0.00675281,0.0206751,629,1317,-24.9883,-6.45098
-588,-293,-24.9601,7.09595,-0.000769425,-0.00184838,0.000627941,-0.000481047,-0.00213676,0.430515,0.00129431,0.0171342,636,1317,-24.9601,-7.096
-581,-293,-24.9479,7.73083,0.00268428,0.000993149,0.000581231,0.00286478,0.000812649,0.301105,0.0017048,0.0189019,643,1317,-24.9479,-7.73088
-574,-293,-25.0079,8.39026,0.00269206,0.000449674,0.000731298,0.00290947,0.000232259,0.288978,0.00186705,0.0165973,650,1317,-25.0079,-8.39024
-567,-293,-25.0699,9.03015,0.00281823,-0.000176241,0.000703257,0.00297517,-0.000333177,0.219559,0.00210332,0.0152064,657,1317,-25.0699,-9.03015
-560,-293,-25.0719,9.67004,0.00334115,-0.000747023,0.000870024,0.0035186,-0.000924475,0.201202,0.00270703,0.0166405,664,1317,-25.0719,-9.67001
-553,-293,-25.0771,10.298,0.00418562,-0.00127547,0.00114173,0.00441471,-0.00150456,0.19802,0.0035525,0.0119656,671,1317,-25.0771,-10.2979
-546,-293,-25.0969,10.9463,0.00524189,-0.0017514,0.00155422,0.00557175,-0.00208126,0.209131,0.00456909,0.0143895,678,1317,-25.0969,-10.9463
-539,-293,-24.9795,11.5656,0.00681079,-0.00220519,0.00218569,0.00731271,-0.00270711,0.225727,0.00598518,0.0461047,685,1317,-24.9795,-11.5655
-532,-293,-24.7822,12.1418,0,0,0,0,0,0,0,-1,692,1317,-24.7822,-12.1419
-525,-293,-8.20642,3.62256,0,0,0,0,0,0,0,-1,699,1317,-8.20639,-3.6226
-518,-293,-10.1053,0.314209,0,0,0,0,0,0,0,-1,706,1317,-10.1053,-0.314234
-511,-293,-11.6276,0.235352,0,0,0,0,0,0,0,-1,713,1317,-11.6276,-0.235372
-504,-293,-17.9086,1.25427,0,0,0,0,0,0,0,-1,720,1317,-17.9086,-1.25423
-497,-293,-18.8006,1.62122,0,0,0,0,0,0,0,-1,727,1317,-18.8006,-1.62119
-490,-293,-18.8961,1.99255,0,0,0,0,0,0,0,-1,734,1317,-18.8961,-1.99251
-483,-293,-19.0831,2.35498,0,0,0,0,0,0,0,-1,741,1317,-19.0831,-2.35497
-476,-293,-19.5228,2.61243,0,0,0,0,0,0,0,-1,748,1317,-19.5228,-2.61237
-469,-293,0,0,0,0,0,0,0,0,0,-1,755,1317,0,0
-462,-293,0,0,0,0,0,0,0,0,0,-1,762,1317,0,0
-455,-293,0,0,0,0,0,0,0,0,0,-1,769,1317,0,0
-448,-293,0,0,0,0,0,0,0,0,0,-1,776,1317,0,0
-441,-293,0,0,0,0,0,0,0,0,0,-1,783,1317,0,0
-434,-293,0,0,0,0,0,0,0,0,0,-1,790,1317,0,0
-427,-293,0,0,0,0,0,0,0,0,0,-1,797,1317,0,0
-420,-293,0,0,0,0,0,0,0,0,0,-1,804,1317,0,0
-413,-293,0,0,0,0,0,0,0,0,0,-1,811,1317,0,0
-406,-293,0,0,0,0,0,0,0,0,0,-1,818,1317,0,0
-399,-293,0,0,0,0,0,0,0,0,0,-1,825,1317,0,0
-392,-293,0,0,0,0,0,0,0,0,0,-1,832,1317,0,0
-385,-293,0,0,0,0,0,0,0,0,0,-1,839,1317,0,0
-378,-293,0,0,0,0,0,0,0,0,0,-1,846,1317,0,0
-371,-293,0,0,0,0,0,0,0,0,0,-1,853,1317,0,0
-364,-293,0,0,0,0,0,0,0,0,0,-1,860,1317,0,0
-357,-293,0,0,0,0,0,0,0,0,0,-1,867,1317,0,0
-350,-293,0,0,0,0,0,0,0,0,0,-1,874,1317,0,0
-343,-293,0,0,0,0,0,0,0,0,0,-1,881,1317,0,0
-336,-293,0,0,0,0,0,0,0,0,0,-1,888,1317,0,0
-329,-293,0,0,0,0,0,0,0,0,0,-1,895,1317,0,0
-322,-293,0,0,0,0,0,0,0,0,0,-1,902,1317,0,0
-315,-293,0,0,0,0,0,0,0,0,0,-1,909,1317,0,0
-308,-293,0,0,0,0,0,0,0,0,0,-1,916,1317,0,0
-301,-293,0,0,0,0,0,0,0,0,0,-1,923,1317,0,0
-294,-293,0,0,0,0,0,0,0,0,0,-1,930,1317,0,0
-287,-293,0,0,0,0,0,0,0,0,0,-1,937,1317,0,0
-280,-293,0,0,0,0,0,0,0,0,0,-1,944,1317,0,0
-273,-293,0,0,0,0,0,0,0,0,0,-1,951,1317,0,0
-266,-293,0,0,0,0,0,0,0,0,0,-1,958,1317,0,0
-259,-293,0,0,0,0,0,0,0,0,0,-1,965,1317,0,0
-252,-293,0,0,0,0,0,0,0,0,0,-1,972,1317,0,0
-245,-293,0,0,0,0,0,0,0,0,0,-1,979,1317,0,0
-238,-293,0,0,0,0,0,0,0,0,0,-1,986,1317,0,0
-231,-293,0,0,0,0,0,0,0,0,0,-1,993,1317,0,0
-224,-293,0,0,0,0,0,0,0,0,0,-1,1000,1317,0,0
-217,-293,0,0,0,0,0,0,0,0,0,-1,1007,1317,0,0
-210,-293,0,0,0,0,0,0,0,0,0,-1,1014,1317,0,0
-203,-293,0,0,0,0,0,0,0,0,0,-1,1021,1317,0,0
-196,-293,0,0,0,0,0,0,0,0,0,-1,1028,1317,0,0
-189,-293,0,0,0,0,0,0,0,0,0,-1,1035,1317,0,0
-182,-293,0,0,0,0,0,0,0,0,0,-1,1042,1317,0,0
-175,-293,0,0,0,0,0,0,0,0,0,-1,1049,1317,0,0
-168,-293,0,0,0,0,0,0,0,0,0,-1,1056,1317,0,0
-161,-293,0,0,0,0,0,0,0,0,0,-1,1063,1317,0,0
-154,-293,0,0,0,0,0,0,0,0,0,-1,1070,1317,0,0
-147,-293,0,0,0,0,0,0,0,0,0,-1,1077,1317,0,0
-140,-293,0,0,0,0,0,0,0,0,0,-1,1084,1317,0,0
-133,-293,0,0,0,0,0,0,0,0,0,-1,1091,1317,0,0
-126,-293,0,0,0,0,0,0,0,0,0,-1,1098,1317,0,0
-119,-293,0,0,0,0,0,0,0,0,0,-1,1105,1317,0,0
-112,-293,0,0,0,0,0,0,0,0,0,-1,1112,1317,0,0
-105,-293,0,0,0,0,0,0,0,0,0,-1,1119,1317,0,0
-98,-293,0,0,0,0,0,0,0,0,0,-1,1126,1317,0,0
-91,-293,0,0,0,0,0,0,0,0,0,-1,1133,1317,0,0
-84,-293,0,0,0,0,0,0,0,0,0,-1,1140,1317,0,0
-77,-293,0,0,0,0,0,0,0,0,0,-1,1147,1317,0,0
-70,-293,0,0,0,0,0,0,0,0,0,-1,1154,1317,0,0
-63,-293,0,0,0,0,0,0,0,0,0,-1,1161,1317,0,0
-56,-293,0,0,0,0,0,0,0,0,0,-1,1168,1317,0,0
-49,-293,0,0,0,0,0,0,0,0,0,-1,1175,1317,0,0
-42,-293,0,0,0,0,0,0,0,0,0,-1,1182,1317,0,0
-35,-293,0,0,0,0,0,0,0,0,0,-1,1189,1317,0,0
-28,-293,0,0,0,0,0,0,0,0,0,-1,1196,1317,0,0
-21,-293,0,0,0,0,0,0,0,0,0,-1,1203,1317,0,0
-14,-293,0,0,0,0,0,0,0,0,0,-1,1210,1317,0,0
-7,-293,0,0,0,0,0,0,0,0,0,-1,1217,1317,0,0
0,-293,0,0,0,0,0,0,0,0,0,-1,1224,1317,0,0
7,-293,0,0,0,0,0,0,0,0,0,-1,1231,1317,0,0
14,-293,0,0,0,0,0,0,0,0,0,-1,1238,1317,0,0
21,-293,0,0,0,0,0,0,0,0,0,-1,1245,1317,0,0
28,-293,0,0,0,0,0,0,0,0,0,-1,1252,1317,0,0
35,-293,0,0,0,0,0,0,0,0,0,-1,1259,1317,0,0
42,-293,0,0,0,0,0,0,0,0,0,-1,1266,1317,0,0
49,-293,0,0,0,0,0,0,0,0,0,-1,1273,1317,0,0
56,-293,0,0,0,0,0,0,0,0,0,-1,1280,1317,0,0
63,-293,0,0,0,0,0,0,0,0,0,-1,1287,1317,0,0
70,-293,0,0,0,0,0,0,0,0,0,-1,1294,1317,0,0
77,-293,0,0,0,0,0,0,0,0,0,-1,1301,1317,0,0
84,-293,0,0,0,0,0,0,0,0,0,-1,1308,1317,0,0
91,-293,0,0,0,0,0,0,0,0,0,-1,1315,1317,0,0
98,-293,0,0,0,0,0,0,0,0,0,-1,1322,1317,0,0
105,-293,0,0,0,0,0,0,0,0,0,-1,1329,1317,0,0
112,-293,0,0,0,0,0,0,0,0,0,-1,1336,1317,0,0
119,-293,0,0,0,0,0,0,0,0,0,-1,1343,1317,0,0
126,-293,0,0,0,0,0,0,0,0,0,-1,1350,1317,0,0
133,-293,0,0,0,0,0,0,0,0,0,-1,1357,1317,0,0
140,-293,0,0,0,0,0,0,0,0,0,-1,1364,1317,0,0
147,-293,0,0,0,0,0,0,0,0,0,-1,1371,1317,0,0
154,-293,0,0,0,0,0,0,0,0,0,-1,1378,1317,0,0
161,-293,0,0,0,0,0,0,0,0,0,-1,1385,1317,0,0
168,-293,0,0,0,0,0,0,0,0,0,-1,1392,1317,0,0
175,-293,0,0,0,0,0,0,0,0,0,-1,1399,1317,0,0
182,-293,0,0,0,0,0,0,0,0,0,-1,1406,1317,0,0
189,-293,0,0,0,0,0,0,0,0,0,-1,1413,1317,0,0
196,-293,0,0,0,0,0,0,0,0,0,-1,1420,1317,0,0
203,-293,0,0,0,0,0,0,0,0,0,-1,1427,1317,0,0
210,-293,0,0,0,0,0,0,0,0,0,-1,1434,1317,0,0
217,-293,0,0,0,0,0,0,0,0,0,-1,1441,1317,0,0
224,-293,0,0,0,0,0,0,0,0,0,-1,1448,1317,0,0
231,-293,0,0,0,0,0,0,0,0,0,-1,1455,1317,0,0
238,-293,0,0,0,0,0,0,0,0,0,-1,1462,1317,0,0
245,-293,0,0,0,0,0,0,0,0,0,-1,1469,1317,0,0
252,-293,0,0,0,0,0,0,0,0,0,-1,1476,1317,0,0
259,-293,0,0,0,0,0,0,0,0,0,-1,1483,1317,0,0
266,-293,0,0,0,0,0,0,0,0,0,-1,1490,1317,0,0
273,-293,0,0,0,0,0,0,0,0,0,-1,1497,1317,0,0
280,-293,0,0,0,0,0,0,0,0,0,-1,1504,1317,0,0
287,-293,0,0,0,0,0,0,0,0,0,-1,1511,1317,0,0
294,-293,0,0,0,0,0,0,0,0,0,-1,1518,1317,0,0
301,-293,0,0,0,0,0,0,0,0,0,-1,1525,1317,0,0
308,-293,0,0,0,0,0,0,0,0,0,-1,1532,1317,0,0
315,-293,0,0,0,0,0,0,0,0,0,-1,1539,1317,0,0
322,-293,0,0,0,0,0,0,0,0,0,-1,1546,1317,0,0
329,-293,0,0,0,0,0,0,0,0,0,-1,1553,1317,0,0
336,-293,0,0,0,0,0,0,0,0,0,-1,1560,1317,0,0
343,-293,0,0,0,0,0,0,0,0,0,-1,1567,1317,0,0
350,-293,0,0,0,0,0,0,0,0,0,-1,1574,1317,0,0
357,-293,0,0,0,0,0,0,0,0,0,-1,1581,1317,0,0
364,-293,0,0,0,0,0,0,0,0,0,-1,1588,1317,0,0
371,-293,0,0,0,0,0,0,0,0,0,-1,1595,1317,0,0
378,-293,0,0,0,0,0,0,0,0,0,-1,1602,1317,0,0
385,-293,0,0,0,0,0,0,0,0,0,-1,1609,1317,0,0
392,-293,0,0,0,0,0,0,0,0,0,-1,1616,1317,0,0
399,-293,0,0,0,0,0,0,0,0,0,-1,1623,1317,0,0
406,-293,0,0,0,0,0,0,0,0,0,-1,1630,1317,0,0
413,-293,0,0,0,0,0,0,0,0,0,-1,1637,1317,0,0
420,-293,0,0,0,0,0,0,0,0,0,-1,1644,1317,0,0
427,-293,0,0,0,0,0,0,0,0,0,-1,1651,1317,0,0
434,-293,0,0,0,0,0,0,0,0,0,-1,1658,1317,0,0
441,-293,0,0,0,0,0,0,0,0,0,-1,1665,1317,0,0
448,-293,0,0,0,0,0,0,0,0,0,-1,1672,1317,0,0
455,-293,0,0,0,0,0,0,0,0,0,-1,1679,1317,0,0
462,-293,0,0,0,0,0,0,0,0,0,-1,1686,1317,0,0
469,-293,0,0,0,0,0,0,0,0,0,-1,1693,1317,0,0
476,-293,0,0,0,0,0,0,0,0,0,-1,1700,1317,0,0
483,-293,0,0,0,0,0,0,0,0,0,-1,1707,1317,0,0
490,-293,0,0,0,0,0,0,0,0,0,-1,1714,1317,0,0
497,-293,0,0,0,0,0,0,0,0,0,-1,1721,1317,0,0
504,-293,0,0,0,0,0,0,0,0,0,-1,1728,1317,0,0
511,-293,0,0,0,0,0,0,0,0,0,-1,1735,1317,0,0
518,-293,0,0,0,0,0,0,0,0,0,-1,1742,1317,0,0
525,-293,0,0,0,0,0,0,0,0,0,-1,1749,1317,0,0
532,-293,0,0,0,0,0,0,0,0,0,-1,1756,1317,0,0
539,-293,0,0,0,0,0,0,0,0,0,-1,1763,1317,0,0
546,-293,0,0,0,0,0,0,0,0,0,-1,1770,1317,0,0
553,-293,0,0,0,0,0,0,0,0,0,-1,1777,1317,0,0
560,-293,0,0,0,0,0,0,0,0,0,-1,1784,1317,0,0
567,-293,0,0,0,0,0,0,0,0,0,-1,1791,1317,0,0
574,-293,0,0,0,0,0,0,0,0,0,-1,1798,1317,0,0
581,-293,0,0,0,0,0,0,0,0,0,-1,1805,1317,0,0
588,-293,0,0,0,0,0,0,0,0,0,-1,1812,1317,0,0
595,-293,59.283,2.56763,0,0,0,0,0,0,0,-1,1819,1317,59.2829,-2.56765
602,-293,58.4191,1.32129,0,0,0,0,0,0,0,-1,1826,1317,58.4191,-1.32127
609,-293,58.3896,0.703613,0,0,0,0,0,0,0,-1,1833,1317,58.3896,-0.703592
616,-293,58.361,0.0551758,0,0,0,0,0,0,0,-1,1840,1317,58.3609,-0.0551407
623,-293,58.3417,-0.580078,0,0,0,0,0,0,0,-1,1847,1317,58.3417,0.580017
630,-293,46.6716,3.21558,0,0,0,0,0,0,0,-1,1854,1317,46.6716,-3.2156
637,-293,42.7729,4.95544,0,0,0,0,0,0,0,-1,1861,1317,42.773,-4.95546
644,-293,24.4565,0.520752,0,0,0,0,0,0,0,-1,1868,1317,24.4566,-0.520709
651,-293,25.8926,9.51245,0,0,0,0,0,0,0,-1,1875,1317,25.8926,-9.51246
658,-293,25.4904,9.10205,0,0,0,0,0,0,0,-1,1882,1317,25.4904,-9.10209
665,-293,39.7999,13.4221,0,0,0,0,0,0,0,-1,1889,1317,39.8,-13.4221
672,-293,40.9333,13.3817,0,0,0,0,0,0,0,-1,1896,1317,40.9334,-13.3817
679,-293,40.9117,12.7759,-0.00162521,0.00197882,-0.000245899,0.00199552,-0.00164191,-1.50299,0.00210337,0.0159987,1903,1317,40.9118,-12.7759
686,-293,40.8997,12.1893,-0.000101316,-8.09662e-05,-0.000516192,0.000425151,-0.000607433,-0.795253,0.000599251,0.0168918,1910,1317,40.8997,-12.1893
693,-293,40.8674,11.6001,0.000844616,-9.82081e-05,-0.000233383,0.000899223,-0.000152816,-0.229849,0.000656378,0.0122974,1917,1317,40.8674,-11.6001
700,-293,40.8213,11.0039,0.000878013,-0.000211974,0.000188854,0.000909807,-0.000243768,0.166788,0.000702045,0.0108639,1924,1317,40.8213,-11.0039
707,-293,40.7922,10.4253,0.000320239,-0.000180009,0.0005921,0.000712878,-0.000572648,0.58555,0.000743669,0.0121994,1931,1317,40.7922,-10.4253
714,-293,40.7753,9.84961,-0.000313198,-0.000159708,0.00102944,0.000795841,-0.00126875,0.822605,0.00120237,0.00851603,1938,1317,40.7753,-9.8496
721,-293,40.7687,9.24634,-0.00105973,-0.000155532,0.00151475,0.000973143,-0.00218841,0.930423,0.00186973,0.00963964,1945,1317,40.7687,-9.24631
728,-293,40.7699,8.63086,-0.00198272,-0.000153207,0.0020652,0.00119076,-0.00332668,0.993881,0.00270358,0.0129001,1952,1317,40.7699,-8.63085
735,-293,40.7699,8.03357,-0.00318108,-0.000175606,0.00272452,0.00143312,-0.00478981,1.03742,0.003763,0.0245632,1959,1317,40.7698,-8.03363
742,-293,40.9233,7.58374,0,0,0,0,0,0,0,-1,1966,1317,40.9234,-7.58378
749,-293,29.439,5.35339,0,0,0,0,0,0,0,-1,1973,1317,29.4389,-5.35334
756,-293,24.978,3.9718,0,0,0,0,0,0,0,-1,1980,1317,24.978,-3.97186
763,-293,26.6713,4.74097,0,0,0,0,0,0,0,-1,1987,1317,26.6713,-4.74098
770,-293,24.1349,4.69153,0,0,0,0,0,0,0,-1,1994,1317,24.1348,-4.69159
777,-293,0,0,0,0,0,0,0,0,0,-1,2001,1317,0,0
784,-293,0,0,0,0,0,0,0,0,0,-1,2008,1317,0,0
791,-293,0,0,0,0,0,0,0,0,0,-1,2015,1317,0,0
798,-293,0,0,0,0,0,0,0,0,0,-1,2022,1317,0,0
805,-293,0,0,0,0,0,0,0,0,0,-1,2029,1317,0,0
812,-293,0,0,0,0,0,0,0,0,0,-1,2036,1317,0,0
-700,-300,0,0,0,0,0,0,0,0,0,-1,524,1324,0,0
-693,-300,0,0,0,0,0,0,0,0,0,-1,531,1324,0,0
-686,-300,0,0,0,0,0,0,0,0,0,-1,538,1324,0,0
-679,-300,0,0,0,0,0,0,0,0,0,-1,545,1324,0,0
-672,-300,0,0,0,0,0,0,0,0,0,-1,552,1324,0,0
-665,-300,0,0,0,0,0,0,0,0,0,-1,559,1324,0,0
-658,-300,0,0,0,0,0,0,0,0,0,-1,566,1324,0,0
-651,-300,-53.5255,8.18042,0,0,0,0,0,0,0,-1,573,1324,-53.5255,-8.18036
-644,-300,-53.5926,6.62146,0,0,0,0,0,0,0,-1,580,1324,-53.5926,-6.62144
-637,-300,-24.088,-5.12695,0,0,0,0,0,0,0,-1,587,1324,-24.088,5.12694
-630,-300,-21.1108,2.26306,0,0,0,0,0,0,0,-1,594,1324,-21.1109,-2.2631
-623,-300,-12.7067,1.48462,0,0,0,0,0,0,0,-1,601,1324,-12.7067,-1.48462
-616,-300,-14.9988,1.68628,0,0,0,0,0,0,0,-1,608,1324,-14.9988,-1.68627
-609,-300,-15.5027,3.29907,0,0,0,0,0,0,0,-1,615,1324,-15.5027,-3.29902
-602,-300,-24.369,5.60864,0,0,0,0,0,0,0,-1,622,1324,-24.369,-5.6086
-595,-300,-24.3875,6.44189,-0.0110494,-0.0140581,-0.000364866,-0.0110058,-0.0141017,-0.118975,0.00855791,0.0361335,629,1324,-24.3874,-6.44192
-588,-300,-24.3134,7.14343,-0.00212342,-0.00272887,0.000940005,-0.00143859,-0.00341369,0.62962,0.00197899,0.0211142,636,1324,-24.3134,-7.1434
-581,-300,-24.3575,7.80212,0.00268611,0.00124144,0.000598779,0.00290202,0.00102553,0.346072,0.00169933,0.0201141,643,1324,-24.3575,-7.80214
-574,-300,-24.3808,8.44006,0.00260778,0.000780511,0.000743801,0.00287227,0.000516026,0.341643,0.00176812,0.0162487,650,1324,-24.3808,-8.44005
-567,-300,-24.4088,9.05591,0.00264734,0.000260961,0.00074145,0.00285895,4.93559e-05,0.278003,0.00188973,0.015867,657,1324,-24.4088,-9.05591
-560,-300,-24.4515,9.70337,0.0030042,-0.000228028,0.000880496,0.00322849,-0.000452321,0.24943,0.00231786,0.0159012,664,1324,-24.4515,-9.70341
-553,-300,-24.4492,10.3357,0.00366694,-0.000636974,0.00113697,0.00394883,-0.000918865,0.243031,0.00298634,0.0119872,671,1324,-24.4491,-10.3356
-546,-300,-24.4565,10.9587,0.0045524,-0.00102963,0.00151617,0.00493763,-0.00141486,0.248816,0.00385101,0.00993665,678,1324,-24.4565,-10.9587
-539,-300,-24.4099,11.6259,0.00586545,-0.00139383,0.00209146,0.0064249,-0.00195328,0.261374,0.00506159,0.0241674,685,1324,-24.4099,-11.6258
-532,-300,-24.3387,12.2633,0,0,0,0,0,0,0,-1,692,1324,-24.3387,-12.2633
-525,-300,-13.5115,6.27783,0,0,0,0,0,0,0,-1,699,1324,-13.5115,-6.2778
-518,-300,-9.8349,-0.537109,0,0,0,0,0,0,0,-1,706,1324,-9.83487,0.537068
-511,-300,-12.8644,0.081665,0,0,0,0,0,0,0,-1,713,1324,-12.8644,-0.0817016
-504,-300,-13.4829,-0.165527,0,0,0,0,0,0,0,-1,720,1324,-13.4829,0.165544
-497,-300,-18.1063,0.956543,0,0,0,0,0,0,0,-1,727,1324,-18.1063,-0.9565
-490,-300,-18.2293,1.53625,0,0,0,0,0,0,0,-1,734,1324,-18.2293,-1.53626
-483,-300,-18.3522,1.61084,0,0,0,0,0,0,0,-1,741,1324,-18.3522,-1.6108
-476,-300,-18.7489,1.96387,0,0,0,0,0,0,0,-1,748,1324,-18.7489,-1.96387
-469,-300,0,0,0,0,0,0,0,0,0,-1,755,1324,0,0
-462,-300,0,0,0,0,0,0,0,0,0,-1,762,1324,0,0
-455,-300,0,0,0,0,0,0,0,0,0,-1,769,1324,0,0
-448,-300,0,0,0,0,0,0,0,0,0,-1,776,1324,0,0
-441,-300,0,0,0,0,0,0,0,0,0,-1,783,1324,0,0
-434,-300,0,0,0,0,0,0,0,0,0,-1,790,1324,0,0
-427,-300,0,0,0,0,0,0,0,0,0,-1,797,1324,0,0
-420,-300,0,0,0,0,0,0,0,0,0,-1,804,1324,0,0
-413,-300,0,0,0,0,0,0,0,0,0,-1,811,1324,0,0
-406,-300,0,0,0,0,0,0,0,0,0,-1,818,1324,0,0
-399,-300,0,0,0,0,0,0,0,0,0,-1,825,1324,0,0
-392,-300,0,0,0,0,0,0,0,0,0,-1,832,1324,0,0
-385,-300,0,0,0,0,0,0,0,0,0,-1,839,1324,0,0
-378,-300,0,0,0,0,0,0,0,0,0,-1,846,1324,0,0
-371,-300,0,0,0,0,0,0,0,0,0,-1,853,1324,0,0
-364,-300,0,0,0,0,0,0,0,0,0,-1,860,1324,0,0
-357,-300,0,0,0,0,0,0,0,0,0,-1,867,1324,0,0
-350,-300,0,0,0,0,0,0,0,0,0,-1,874,1324,0,0
-343,-300,0,0,0,0,0,0,0,0,0,-1,881,1324,0,0
-336,-300,0,0,0,0,0,0,0,0,0,-1,888,1324,0,0
-329,-300,0,0,0,0,0,0,0,0,0,-1,895,1324,0,0
-322,-300,0,0,0,0,0,0,0,0,0,-1,902,1324,0,0
-315,-300,0,0,0,0,0,0,0,0,0,-1,909,1324,0,0
-308,-300,0,0,0,0,0,0,0,0,0,-1,916,1324,0,0
-301,-300,0,0,0,0,0,0,0,0,0,-1,923,1324,0,0
-294,-300,0,0,0,0,0,0,0,0,0,-1,930,1324,0,0
-287,-300,0,0,0,0,0,0,0,0,0,-1,937,1324,0,0
-280,-300,0,0,0,0,0,0,0,0,0,-1,944,1324,0,0
-273,-300,0,0,0,0,0,0,0,0,0,-1,951,1324,0,0
-266,-300,0,0,0,0,0,0,0,0,0,-1,958,1324,0,0
-259,-300,0,0,0,0,0,0,0,0,0,-1,965,1324,0,0
-252,-300,0,0,0,0,0,0,0,0,0,-1,972,1324,0,0
-245,-300,0,0,0,0,0,0,0,0,0,-1,979,1324,0,0
-238,-300,0,0,0,0,0,0,0,0,0,-1,986,1324,0,0
-231,-300,0,0,0,0,0,0,0,0,0,-1,993,1324,0,0
-224,-300,0,0,0,0,0,0,0,0,0,-1,1000,1324,0,0
-217,-300,0,0,0,0,0,0,0,0,0,-1,1007,1324,0,0
-210,-300,0,0,0,0,0,0,0,0,0,-1,1014,1324,0,0
-203,-300,0,0,0,0,0,0,0,0,0,-1,1021,1324,0,0
-196,-300,0,0,0,0,0,0,0,0,0,-1,1028,1324,0,0
-189,-300,0,0,0,0,0,0,0,0,0,-1,1035,1324,0,0
-182,-300,0,0,0,0,0,0,0,0,0,-1,1042,1324,0,0
-175,-300,0,0,0,0,0,0,0,0,0,-1,1049,1324,0,0
-168,-300,0,0,0,0,0,0,0,0,0,-1,1056,1324,0,0
-161,-300,0,0,0,0,0,0,0,0,0,-1,1063,1324,0,0
-154,-300,0,0,0,0,0,0,0,0,0,-1,1070,1324,0,0
-147,-300,0,0,0,0,0,0,0,0,0,-1,1077,1324,0,0
-140,-300,0,0,0,0,0,0,0,0,0,-1,1084,1324,0,0
-133,-300,0,0,0,0,0,0,0,0,0,-1,1091,1324,0,0
-126,-300,0,0,0,0,0,0,0,0,0,-1,1098,1324,0,0
-119,-300,0,0,0,0,0,0,0,0,0,-1,1105,1324,0,0
-112,-300,0,0,0,0,0,0,0,0,0,-1,1112,1324,0,0
-105,-300,0,0,0,0,0,0,0,0,0,-1,1119,1324,0,0
-98,-300,0,0,0,0,0,0,0,0,0,-1,1126,1324,0,0
-91,-300,0,0,0,0,0,0,0,0,0,-1,1133,1324,0,0
-84,-300,0,0,0,0,0,0,0,0,0,-1,1140,1324,0,0
-77,-300,0,0,0,0,0,0,0,0,0,-1,1147,1324,0,0
-70,-300,0,0,0,0,0,0,0,0,0,-1,1154,1324,0,0
-63,-300,0,0,0,0,0,0,0,0,0,-1,1161,1324,0,0
-56,-300,0,0,0,0,0,0,0,0,0,-1,1168,1324,0,0
-49,-300,0,0,0,0,0,0,0,0,0,-1,1175,1324,0,0
-42,-300,0,0,0,0,0,0,0,0,0,-1,1182,1324,0,0
-35,-300,0,0,0,0,0,0,0,0,0,-1,1189,1324,0,0
-28,-300,0,0,0,0,0,0,0,0,0,-1,1196,1324,0,0
-21,-300,0,0,0,0,0,0,0,0,0,-1,1203,1324,0,0
-14,-300,0,0,0,0,0,0,0,0,0,-1,1210,1324,0,0
-7,-300,0,0,0,0,0,0,0,0,0,-1,1217,1324,0,0
0,-300,0,0,0,0,0,0,0,0,0,-1,1224,1324,0,0
7,-300,0,0,0,0,0,0,0,0,0,-1,1231,1324,0,0
14,-300,0,0,0,0,0,0,0,0,0,-1,1238,1324,0,0
21,-300,0,0,0,0,0,0,0,0,0,-1,1245,1324,0,0
28,-300,0,0,0,0,0,0,0,0,0,-1,1252,1324,0,0
35,-300,0,0,0,0,0,0,0,0,0,-1,1259,1324,0,0
42,-300,0,0,0,0,0,0,0,0,0,-1,1266,1324,0,0
49,-300,0,0,0,0,0,0,0,0,0,-1,1273,1324,0,0
56,-300,0,0,0,0,0,0,0,0,0,-1,1280,1324,0,0
63,-300,0,0,0,0,0,0,0,0,0,-1,1287,1324,0,0
70,-300,0,0,0,0,0,0,0,0,0,-1,1294,1324,0,0
77,-300,0,0,0,0,0,0,0,0,0,-1,1301,1324,0,0
84,-300,0,0,0,0,0,0,0,0,0,-1,1308,1324,0,0
91,-300,0,0,0,0,0,0,0,0,0,-1,1315,1324,0,0
98,-300,0,0,0,0,0,0,0,0,0,-1,1322,1324,0,0
105,-300,0,0,0,0,0,0,0,0,0,-1,1329,1324,0,0
112,-300,0,0,0,0,0,0,0,0,0,-1,1336,1324,0,0
119,-300,0,0,0,0,0,0,0,0,0,-1,1343,1324,0,0
126,-300,0,0,0,0,0,0,0,0,0,-1,1350,1324,0,0
133,-300,0,0,0,0,0,0,0,0,0,-1,1357,1324,0,0
140,-300,0,0,0,0,0,0,0,0,0,-1,1364,1324,0,0
147,-300,0,0,0,0,0,0,0,0,0,-1,1371,1324,0,0
154,-300,0,0,0,0,0,0,0,0,0,-1,1378,1324,0,0
161,-300,0,0,0,0,0,0,0,0,0,-1,1385,1324,0,0
168,-300,0,0,0,0,0,0,0,0,0,-1,1392,1324,0,0
175,-300,0,0,0,0,0,0,0,0,0,-1,1399,1324,0,0
182,-300,0,0,0,0,0,0,0,0,0,-1,1406,1324,0,0
189,-300,0,0,0,0,0,0,0,0,0,-1,1413,1324,0,0
196,-300,0,0,0,0,0,0,0,0,0,-1,1420,1324,0,0
203,-300,0,0,0,0,0,0,0,0,0,-1,1427,1324,0,0
210,-300,0,0,0,0,0,0,0,0,0,-1,1434,1324,0,0
217,-300,0,0,0,0,0,0,0,0,0,-1,1441,1324,0,0
224,-300,0,0,0,0,0,0,0,0,0,-1,1448,1324,0,0
231,-300,0,0,0,0,0,0,0,0,0,-1,1455,1324,0,0
238,-300,0,0,0,0,0,0,0,0,0,-1,1462,1324,0,0
245,-300,0,0,0,0,0,0,0,0,0,-1,1469,1324,0,0
252,-300,0,0,0,0,0,0,0,0,0,-1,1476,1324,0,0
259,-300,0,0,0,0,0,0,0,0,0,-1,1483,1324,0,0
266,-300,0,0,0,0,0,0,0,0,0,-1,1490,1324,0,0
273,-300,0,0,0,0,0,0,0,0,0,-1,1497,1324,0,0
280,-300,0,0,0,0,0,0,0,0,0,-1,1504,1324,0,0
287,-300,0,0,0,0,0,0,0,0,0,-1,1511,1324,0,0
294,-300,0,0,0,0,0,0,0,0,0,-1,1518,1324,0,0
301,-300,0,0,0,0,0,0,0,0,0,-1,1525,1324,0,0
308,-300,0,0,0,0,0,0,0,0,0,-1,1532,1324,0,0
315,-300,0,0,0,0,0,0,0,0,0,-1,1539,1324,0,0
322,-300,0,0,0,0,0,0,0,0,0,-1,1546,1324,0,0
329,-300,0,0,0,0,0,0,0,0,0,-1,1553,1324,0,0
336,-300,0,0,0,0,0,0,0,0,0,-1,1560,1324,0,0
343,-300,0,0,0,0,0,0,0,0,0,-1,1567,1324,0,0
350,-300,0,0,0,0,0,0,0,0,0,-1,1574,1324,0,0
357,-300,0,0,0,0,0,0,0,0,0,-1,1581,1324,0,0
364,-300,0,0,0,0,0,0,0,0,0,-1,1588,1324,0,0
371,-300,0,0,0,0,0,0,0,0,0,-1,1595,1324,0,0
378,-300,0,0,0,0,0,0,0,0,0,-1,1602,1324,0,0
385,-300,0,0,0,0,0,0,0,0,0,-1,1609,1324,0,0
392,-300,0,0,0,0,0,0,0,0,0,-1,1616,1324,0,0
399,-300,0,0,0,0,0,0,0,0,0,-1,1623,1324,0,0
406,-300,0,0,0,0,0,0,0,0,0,-1,1630,1324,0,0
413,-300,0,0,0,0,0,0,0,0,0,-1,1637,1324,0,0
420,-300,0,0,0,0,0,0,0,0,0,-1,1644,1324,0,0
427,-300,0,0,0,0,0,0,0,0,0,-1,1651,1324,0,0
434,-300,0,0,0,0,0,0,0,0,0,-1,1658,1324,0,0
441,-300,0,0,0,0,0,0,0,0,0,-1,1665,1324,0,0
448,-300,0,0,0,0,0,0,0,0,0,-1,1672,1324,0,0
455,-300,0,0,0,0,0,0,0,0,0,-1,1679,1324,0,0
462,-300,0,0,0,0,0,0,0,0,0,-1,1686,1324,0,0
469,-300,0,0,0,0,0,0,0,0,0,-1,1693,1324,0,0
476,-300,0,0,0,0,0,0,0,0,0,-1,1700,1324,0,0
483,-300,0,0,0,0,0,0,0,0,0,-1,1707,1324,0,0
490,-300,0,0,0,0,0,0,0,0,0,-1,1714,1324,0,0
497,-300,0,0,0,0,0,0,0,0,0,-1,1721,1324,0,0
504,-300,0,0,0,0,0,0,0,0,0,-1,1728,1324,0,0
511,-300,0,0,0,0,0,0,0,0,0,-1,1735,1324,0,0
518,-300,0,0,0,0,0,0,0,0,0,-1,1742,1324,0,0
525,-300,0,0,0,0,0,0,0,0,0,-1,1749,1324,0,0
532,-300,0,0,0,0,0,0,0,0,0,-1,1756,1324,0,0
539,-300,0,0,0,0,0,0,0,0,0,-1,1763,1324,0,0
546,-300,0,0,0,0,0,0,0,0,0,-1,1770,1324,0,0
553,-300,0,0,0,0,0,0,0,0,0,-1,1777,1324,0,0
560,-300,0,0,0,0,0,0,0,0,0,-1,1784,1324,0,0
567,-300,0,0,0,0,0,0,0,0,0,-1,1791,1324,0,0
574,-300,0,0,0,0,0,0,0,0,0,-1,1798,1324,0,0
581,-300,0,0,0,0,0,0,0,0,0,-1,1805,1324,0,0
588,-300,59.1318,2.42944,0,0,0,0,0,0,0,-1,1812,1324,59.1319,-2.42945
595,-300,59.504,2.39404,0,0,0,0,0,0,0,-1,1819,1324,59.5041,-2.39405
602,-300,57.8468,1.34912,0,0,0,0,0,0,0,-1,1826,1324,57.8468,-1.34915
609,-300,57.9767,0.473999,0,0,0,0,0,0,0,-1,1833,1324,57.9767,-0.474049
616,-300,58.1067,-0.401001,0,0,0,0,0,0,0,-1,1840,1324,58.1067,0.401047
623,-300,47.4474,2.43188,0,0,0,0,0,0,0,-1,1847,1324,47.4474,-2.43194
630,-300,42.4099,3.9165,0,0,0,0,0,0,0,-1,1854,1324,42.4099,-3.91649
637,-300,31.1719,4.6366,0,0,0,0,0,0,0,-1,1861,1324,31.1718,-4.63665
644,-300,22.9836,3.44934,0,0,0,0,0,0,0,-1,1868,1324,22.9836,-3.4493
651,-300,25.5004,9.11853,0,0,0,0,0,0,0,-1,1875,1324,25.5004,-9.11851
658,-300,25.4012,9.20032,0,0,0,0,0,0,0,-1,1882,1324,25.4012,-9.20036
665,-300,40.4408,13.9847,0,0,0,0,0,0,0,-1,1889,1324,40.4407,-13.9848
672,-300,40.321,13.4341,-0.00173214,0.00413725,0.000112056,0.00413939,-0.00173427,1.55171,0.00348464,0.029677,1896,1324,40.321,-13.434
679,-300,40.3114,12.8027,-0.000491008,0.0012157,3.08589e-05,0.00121626,-0.000491566,1.55272,0.00101517,0.0129015,1903,1324,40.3114,-12.8028
686,-300,40.2786,12.2063,0.000526249,-0.000317164,-0.000220863,0.000580586,-0.000371501,-0.241228,0.000554088,0.0137124,1910,1324,40.2785,-12.2062
693,-300,40.2557,11.6227,0.000950912,-0.000221291,-5.02836e-05,0.000953065,-0.000223444,-0.0427919,0.000721485,0.0111047,1917,1324,40.2558,-11.6226
700,-300,40.2255,11.0153,0.000827639,-0.000197833,0.000248406,0.000884643,-0.000254837,0.225574,0.000690563,0.0126692,1924,1324,40.2254,-11.0153
707,-300,40.2185,10.417,0.000477664,-0.000144826,0.000541724,0.00079119,-0.000458352,0.524652,0.000729905,0.00996751,1931,1324,40.2185,-10.417
714,-300,40.2175,9.84619,4.01243e-05,-0.000106373,0.000874909,0.000844846,-0.000911094,0.743635,0.00101403,0.0114405,1938,1324,40.2175,-9.84621
721,-300,40.1995,9.24585,-0.000498058,-8.25093e-05,0.00124427,0.000971217,-0.00155178,0.868127,0.00146945,0.0119189,1945,1324,40.1994,-9.24588
728,-300,40.2063,8.60986,-0.00121038,-4.69462e-05,0.00166294,0.00113309,-0.00239042,0.953652,0.00207702,0.0174694,1952,1324,40.2063,-8.6099
735,-300,40.2725,8.03088,0,0,0,0,0,0,0,-1,1959,1324,40.2724,-8.0309
742,-300,39.5627,7.83118,0,0,0,0,0,0,0,-1,1966,1324,39.5627,-7.83112
749,-300,27.4065,5.9718,0,0,0,0,0,0,0,-1,1973,1324,27.4065,-5.97181
756,-300,22.1423,3.45642,0,0,0,0,0,0,0,-1,1980,1324,22.1423,-3.45638
763,-300,22.6136,5.1571,0,0,0,0,0,0,0,-1,1987,1324,22.6136,-5.15706
770,-300,24.859,4.77979,0,0,0,0,0,0,0,-1,1994,1324,24.859,-4.77972
777,-300,0,0,0,0,0,0,0,0,0,-1,2001,1324,0,0
784,-300,0,0,0,0,0,0,0,0,0,-1,2008,1324,0,0
791,-300,0,0,0,0,0,0,0,0,0,-1,2015,1324,0,0
798,-300,0,0,0,0,0,0,0,0,0,-1,2022,1324,0,0
805,-300,0,0,0,0,0,0,0,0,0,-1,2029,1324,0,0
812,-300,0,0,0,0,0,0,0,0,0,-1,2036,1324,0,0
-700,-307,0,0,0,0,0,0,0,0,0,-1,524,1331,0,0
-693,-307,0,0,0,0,0,0,0,0,0,-1,531,1331,0,0
-686,-307,0,0,0,0,0,0,0,0,0,-1,538,1331,0,0
-679,-307,0,0,0,0,0,0,0,0,0,-1,545,1331,0,0
-672,-307,0,0,0,0,0,0,0,0,0,-1,552,1331,0,0
-665,-307,0,0,0,0,0,0,0,0,0,-1,559,1331,0,0
-658,-307,0,0,0,0,0,0,0,0,0,-1,566,1331,0,0
-651,-307,-54.7367,9.00867,0,0,0,0,0,0,0,-1,573,1331,-54.7367,-9.00861
-644,-307,-55.8599,7.91187,0,0,0,0,0,0,0,-1,580,1331,-55.8599,-7.91183
-637,-307,-56.9963,6.80457,0,0,0,0,0,0,0,-1,587,1331,-56.9963,-6.80456
-630,-307,-12.0005,0.767212,0,0,0,0,0,0,0,-1,594,1331,-12.0005,-0.767266
-623,-307,-12.2128,2.93811,0,0,0,0,0,0,0,-1,601,1331,-12.2128,-2.93813
-616,-307,-12.6612,2.08289,0,0,0,0,0,0,0,-1,608,1331,-12.6612,-2.08293
-609,-307,-12.2767,1.83228,0,0,0,0,0,0,0,-1,615,1331,-12.2768,-1.83224
-602,-307,-22.8475,5.62708,0,0,0,0,0,0,0,-1,622,1331,-22.8476,-5.6271
-595,-307,-23.8918,6.45679,0,0,0,0,0,0,0,-1,629,1331,-23.8918,-6.45674
-588,-307,-23.7106,7.19751,-0.00372389,-0.00353285,0.00151456,-0.0021108,-0.00514594,0.816889,0.00298695,0.0229253,636,1331,-23.7106,-7.1975
-581,-307,-23.7037,7.8385,0.00270495,0.00155235,0.000688882,0.00302681,0.0012305,0.437075,0.00175768,0.0161865,643,1331,-23.7037,-7.83854
-574,-307,-23.735,8.43848,0.0025751,0.00106211,0.000752754,0.00288581,0.000751399,0.391459,0.00172872,0.0133408,650,1331,-23.7351,-8.43846
-567,-307,-23.7838,9.07678,0.00257469,0.000541943,0.000714271,0.00280057,0.000316061,0.30629,0.00177112,0.0139228,657,1331,-23.7838,-9.07681
-560,-307,-23.812,9.74072,0.00278213,4.58577e-05,0.000769341,0.0029836,-0.000155619,0.25613,0.00204292,0.0148537,664,1331,-23.8119,-9.74069
-553,-307,-23.8175,10.3644,0.00326053,-0.000347437,0.000947138,0.00349405,-0.000580959,0.241733,0.00254522,0.0120541,671,1331,-23.8175,-10.3644
-546,-307,-23.8356,10.9873,0.00397219,-0.000735286,0.00123982,0.00427875,-0.00104186,0.242407,0.00325584,0.0108128,678,1331,-23.8357,-10.9873
-539,-307,-23.8349,11.6604,0.00504931,-0.00108129,0.00171098,0.0054945,-0.00152648,0.25455,0.0042639,0.0164505,685,1331,-23.8349,-11.6604
-532,-307,-23.8258,12.3307,0,0,0,0,0,0,0,-1,692,1331,-23.8258,-12.3307
-525,-307,-13.2009,6.91309,0,0,0,0,0,0,0,-1,699,1331,-13.2009,-6.9131
-518,-307,-9.77777,-1.56653,0,0,0,0,0,0,0,-1,706,1331,-9.77777,1.56651
-511,-307,-12.5226,0.26709,0,0,0,0,0,0,0,-1,713,1331,-12.5226,-0.267038
-504,-307,-12.5913,-0.308105,0,0,0,0,0,0,0,-1,720,1331,-12.5913,0.308124
-497,-307,-13.8586,-0.115845,0,0,0,0,0,0,0,-1,727,1331,-13.8587,0.115861
-490,-307,-17.9429,0.982178,0,0,0,0,0,0,0,-1,734,1331,-17.9429,-0.982198
-483,-307,-18.1066,0.927612,0,0,0,0,0,0,0,-1,741,1331,-18.1066,-0.927609
-476,-307,-18.1288,1.1228,0,0,0,0,0,0,0,-1,748,1331,-18.1289,-1.12286
-469,-307,-18.2028,0.798584,0,0,0,0,0,0,0,-1,755,1331,-18.2027,-0.798546
-462,-307,0,0,0,0,0,0,0,0,0,-1,762,1331,0,0
-455,-307,0,0,0,0,0,0,0,0,0,-1,769,1331,0,0
-448,-307,0,0,0,0,0,0,0,0,0,-1,776,1331,0,0
-441,-307,0,0,0,0,0,0,0,0,0,-1,783,1331,0,0
-434,-307,0,0,0,0,0,0,0,0,0,-1,790,1331,0,0
-427,-307,0,0,0,0,0,0,0,0,0,-1,797,1331,0,0
-420,-307,0,0,0,0,0,0,0,0,0,-1,804,1331,0,0
-413,-307,0,0,0,0,0,0,0,0,0,-1,811,1331,0,0
-406,-307,0,0,0,0,0,0,0,0,0,-1,818,1331,0,0
-399,-307,0,0,0,0,0,0,0,0,0,-1,825,1331,0,0
-392,-307,0,0,0,0,0,0,0,0,0,-1,832,1331,0,0
-385,-307,0,0,0,0,0,0,0,0,0,-1,839,1331,0,0
-378,-307,0,0,0,0,0,0,0,0,0,-1,846,1331,0,0
-371,-307,0,0,0,0,0,0,0,0,0,-1,853,1331,0,0
-364,-307,0,0,0,0,0,0,0,0,0,-1,860,1331,0,0
-357,-307,0,0,0,0,0,0,0,0,0,-1,867,1331,0,0
-350,-307,0,0,0,0,0,0,0,0,0,-1,874,1331,0,0
-343,-307,0,0,0,0,0,0,0,0,0,-1,881,1331,0,0
-336,-307,0,0,0,0,0,0,0,0,0,-1,888,1331,0,0
-329,-307,0,0,0,0,0,0,0,0,0,-1,895,1331,0,0
-322,-307,0,0,0,0,0,0,0,0,0,-1,902,1331,0,0
-315,-307,0,0,0,0,0,0,0,0,0,-1,909,1331,0,0
-308,-307,0,0,0,0,0,0,0,0,0,-1,916,1331,0,0
-301,-307,0,0,0,0,0,0,0,0,0,-1,923,1331,0,0
-294,-307,0,0,0,0,0,0,0,0,0,-1,930,1331,0,0
-287,-307,0,0,0,0,0,0,0,0,0,-1,937,1331,0,0
-280,-307,0,0,0,0,0,0,0,0,0,-1,944,1331,0,0
-273,-307,0,0,0,0,0,0,0,0,0,-1,951,1331,0,0
-266,-307,0,0,0,0,0,0,0,0,0,-1,958,1331,0,0
-259,-307,0,0,0,0,0,0,0,0,0,-1,965,1331,0,0
-252,-307,0,0,0,0,0,0,0,0,0,-1,972,1331,0,0
-245,-307,0,0,0,0,0,0,0,0,0,-1,979,1331,0,0
-238,-307,0,0,0,0,0,0,0,0,0,-1,986,1331,0,0
-231,-307,0,0,0,0,0,0,0,0,0,-1,993,1331,0,0
-224,-307,0,0,0,0,0,0,0,0,0,-1,1000,1331,0,0
-217,-307,0,0,0,0,0,0,0,0,0,-1,1007,1331,0,0
-210,-307,0,0,0,0,0,0,0,0,0,-1,1014,1331,0,0
-203,-307,0,0,0,0,0,0,0,0,0,-1,1021,1331,0,0
-196,-307,0,0,0,0,0,0,0,0,0,-1,1028,1331,0,0
-189,-307,0,0,0,0,0,0,0,0,0,-1,1035,1331,0,0
-182,-307,0,0,0,0,0,0,0,0,0,-1,1042,1331,0,0
-175,-307,0,0,0,0,0,0,0,0,0,-1,1049,1331,0,0
-168,-307,0,0,0,0,0,0,0,0,0,-1,1056,1331,0,0
-161,-307,0,0,0,0,0,0,0,0,0,-1,1063,1331,0,0
-154,-307,0,0,0,0,0,0,0,0,0,-1,1070,1331,0,0
-147,-307,0,0,0,0,0,0,0,0,0,-1,1077,1331,0,0
-140,-307,0,0,0,0,0,0,0,0,0,-1,1084,1331,0,0
-133,-307,0,0,0,0,0,0,0,0,0,-1,1091,1331,0,0
-126,-307,0,0,0,0,0,0,0,0,0,-1,1098,1331,0,0
-119,-307,0,0,0,0,0,0,0,0,0,-1,1105,1331,0,0
-112,-307,0,0,0,0,0,0,0,0,0,-1,1112,1331,0,0
-105,-307,0,0,0,0,0,0,0,0,0,-1,1119,1331,0,0
-98,-307,0,0,0,0,0,0,0,0,0,-1,1126,1331,0,0
-91,-307,0,0,0,0,0,0,0,0,0,-1,1133,1331,0,0
-84,-307,0,0,0,0,0,0,0,0,0,-1,1140,1331,0,0
-77,-307,0,0,0,0,0,0,0,0,0,-1,1147,1331,0,0
-70,-307,0,0,0,0,0,0,0,0,0,-1,1154,1331,0,0
-63,-307,0,0,0,0,0,0,0,0,0,-1,1161,1331,0,0
-56,-307,0,0,0,0,0,0,0,0,0,-1,1168,1331,0,0
-49,-307,0,0,0,0,0,0,0,0,0,-1,1175,1331,0,0
-42,-307,0,0,0,0,0,0,0,0,0,-1,1182,1331,0,0
-35,-307,0,0,0,0,0,0,0,0,0,-1,1189,1331,0,0
-28,-307,0,0,0,0,0,0,0,0,0,-1,1196,1331,0,0
-21,-307,0,0,0,0,0,0,0,0,0,-1,1203,1331,0,0
-14,-307,0,0,0,0,0,0,0,0,0,-1,1210,1331,0,0
-7,-307,0,0,0,0,0,0,0,0,0,-1,1217,1331,0,0
0,-307,0,0,0,0,0,0,0,0,0,-1,1224,1331,0,0
7,-307,0,0,0,0,0,0,0,0,0,-1,1231,1331,0,0
14,-307,0,0,0,0,0,0,0,0,0,-1,1238,1331,0,0
21,-307,0,0,0,0,0,0,0,0,0,-1,1245,1331,0,0
28,-307,0,0,0,0,0,0,0,0,0,-1,1252,1331,0,0
35,-307,0,0,0,0,0,0,0,0,0,-1,1259,1331,0,0
42,-307,0,0,0,0,0,0,0,0,0,-1,1266,1331,0,0
49,-307,0,0,0,0,0,0,0,0,0,-1,1273,1331,0,0
56,-307,0,0,0,0,0,0,0,0,0,-1,1280,1331,0,0
63,-307,0,0,0,0,0,0,0,0,0,-1,1287,1331,0,0
70,-307,0,0,0,0,0,0,0,0,0,-1,1294,1331,0,0
77,-307,0,0,0,0,0,0,0,0,0,-1,1301,1331,0,0
84,-307,0,0,0,0,0,0,0,0,0,-1,1308,1331,0,0
91,-307,0,0,0,0,0,0,0,0,0,-1,1315,1331,0,0
98,-307,0,0,0,0,0,0,0,0,0,-1,1322,1331,0,0
105,-307,0,0,0,0,0,0,0,0,0,-1,1329,1331,0,0
112,-307,0,0,0,0,0,0,0,0,0,-1,1336,1331,0,0
119,-307,0,0,0,0,0,0,0,0,0,-1,1343,1331,0,0
126,-307,0,0,0,0,0,0,0,0,0,-1,1350,1331,0,0
133,-307,0,0,0,0,0,0,0,0,0,-1,1357,1331,0,0
140,-307,0,0,0,0,0,0,0,0,0,-1,1364,1331,0,0
147,-307,0,0,0,0,0,0,0,0,0,-1,1371,1331,0,0
154,-307,0,0,0,0,0,0,0,0,0,-1,1378,1331,0,0
161,-307,0,0,0,0,0,0,0,0,0,-1,1385,1331,0,0
168,-307,0,0,0,0,0,0,0,0,0,-1,1392,1331,0,0
175,-307,0,0,0,0,0,0,0,0,0,-1,1399,1331,0,0
182,-307,0,0,0,0,0,0,0,0,0,-1,1406,1331,0,0
189,-307,0,0,0,0,0,0,0,0,0,-1,1413,1331,0,0
196,-307,0,0,0,0,0,0,0,0,0,-1,1420,1331,0,0
203,-307,0,0,0,0,0,0,0,0,0,-1,1427,1331,0,0
210,-307,0,0,0,0,0,0,0,0,0,-1,1434,1331,0,0
217,-307,0,0,0,0,0,0,0,0,0,-1,1441,1331,0,0
224,-307,0,0,0,0,0,0,0,0,0,-1,1448,1331,0,0
231,-307,0,0,0,0,0,0,0,0,0,-1,1455,1331,0,0
238,-307,0,0,0,0,0,0,0,0,0,-1,1462,1331,0,0
245,-307,0,0,0,0,0,0,0,0,0,-1,1469,1331,0,0
252,-307,0,0,0,0,0,0,0,0,0,-1,1476,1331,0,0
259,-307,0,0,0,0,0,0,0,0,0,-1,1483,1331,0,0
266,-307,0,0,0,0,0,0,0,0,0,-1,1490,1331,0,0
273,-307,0,0,0,0,0,0,0,0,0,-1,1497,1331,0,0
280,-307,0,0,0,0,0,0,0,0,0,-1,1504,1331,0,0
287,-307,0,0,0,0,0,0,0,0,0,-1,1511,1331,0,0
294,-307,0,0,0,0,0,0,0,0,0,-1,1518,1331,0,0
301,-307,0,0,0,0,0,0,0,0,0,-1,1525,1331,0,0
308,-307,0,0,0,0,0,0,0,0,0,-1,1532,1331,0,0
315,-307,0,0,0,0,0,0,0,0,0,-1,1539,1331,0,0
322,-307,0,0,0,0,0,0,0,0,0,-1,1546,1331,0,0
329,-307,0,0,0,0,0,0,0,0,0,-1,1553,1331,0,0
336,-307,0,0,0,0,0,0,0,0,0,-1,1560,1331,0,0
343,-307,0,0,0,0,0,0,0,0,0,-1,1567,1331,0,0
350,-307,0,0,0,0,0,0,0,0,0,-1,1574,1331,0,0
357,-307,0,0,0,0,0,0,0,0,0,-1,1581,1331,0,0
364,-307,0,0,0,0,0,0,0,0,0,-1,1588,1331,0,0
371,-307,0,0,0,0,0,0,0,0,0,-1,1595,1331,0,0
378,-307,0,0,0,0,0,0,0,0,0,-1,1602,1331,0,0
385,-307,0,0,0,0,0,0,0,0,0,-1,1609,1331,0,0
392,-307,0,0,0,0,0,0,0,0,0,-1,1616,1331,0,0
399,-307,0,0,0,0,0,0,0,0,0,-1,1623,1331,0,0
406,-307,0,0,0,0,0,0,0,0,0,-1,1630,1331,0,0
413,-307,0,0,0,0,0,0,0,0,0,-1,1637,1331,0,0
420,-307,0,0,0,0,0,0,0,0,0,-1,1644,1331,0,0
427,-307,0,0,0,0,0,0,0,0,0,-1,1651,1331,0,0
434,-307,0,0,0,0,0,0,0,0,0,-1,1658,1331,0,0
441,-307,0,0,0,0,0,0,0,0,0,-1,1665,1331,0,0
448,-307,0,0,0,0,0,0,0,0,0,-1,1672,1331,0,0
455,-307,0,0,0,0,0,0,0,0,0,-1,1679,1331,0,0
462,-307,0,0,0,0,0,0,0,0,0,-1,1686,1331,0,0
469,-307,0,0,0,0,0,0,0,0,0,-1,1693,1331,0,0
476,-307,0,0,0,0,0,0,0,0,0,-1,1700,1331,0,0
483,-307,0,0,0,0,0,0,0,0,0,-1,1707,1331,0,0
490,-307,0,0,0,0,0,0,0,0,0,-1,1714,1331,0,0
497,-307,0,0,0,0,0,0,0,0,0,-1,1721,1331,0,0
504,-307,0,0,0,0,0,0,0,0,0,-1,1728,1331,0,0
511,-307,0,0,0,0,0,0,0,0,0,-1,1735,1331,0,0
518,-307,0,0,0,0,0,0,0,0,0,-1,1742,1331,0,0
525,-307,0,0,0,0,0,0,0,0,0,-1,1749,1331,0,0
532,-307,0,0,0,0,0,0,0,0,0,-1,1756,1331,0,0
539,-307,0,0,0,0,0,0,0,0,0,-1,1763,1331,0,0
546,-307,0,0,0,0,0,0,0,0,0,-1,1770,1331,0,0
553,-307,0,0,0,0,0,0,0,0,0,-1,1777,1331,0,0
560,-307,0,0,0,0,0,0,0,0,0,-1,1784,1331,0,0
567,-307,0,0,0,0,0,0,0,0,0,-1,1791,1331,0,0
574,-307,0,0,0,0,0,0,0,0,0,-1,1798,1331,0,0
581,-307,0,0,0,0,0,0,0,0,0,-1,1805,1331,0,0
588,-307,59.522,2.36218,0,0,0,0,0,0,0,-1,1812,1331,59.522,-2.3622
595,-307,59.7025,2.32031,0,0,0,0,0,0,0,-1,1819,1331,59.7026,-2.32034
602,-307,60.0997,2.24915,0,0,0,0,0,0,0,-1,1826,1331,60.0997,-2.24913
609,-307,57.6433,-0.0090332,0,0,0,0,0,0,0,-1,1833,1331,57.6433,0.00897556
616,-307,53.2878,0.135498,0,0,0,0,0,0,0,-1,1840,1331,53.2878,-0.135477
623,-307,44.3966,2.84888,0,0,0,0,0,0,0,-1,1847,1331,44.3966,-2.84884
630,-307,29.8116,1.51184,0,0,0,0,0,0,0,-1,1854,1331,29.8116,-1.51188
637,-307,24.6407,4.09106,0,0,0,0,0,0,0,-1,1861,1331,24.6407,-4.09103
644,-307,22.6885,5.80408,0,0,0,0,0,0,0,-1,1868,1331,22.6884,-5.80408
651,-307,17.5013,5.80078,0,0,0,0,0,0,0,-1,1875,1331,17.5014,-5.80072
658,-307,37.4427,13.9775,0,0,0,0,0,0,0,-1,1882,1331,37.4427,-13.9776
665,-307,39.7977,14.0316,0,0,0,0,0,0,0,-1,1889,1331,39.7978,-14.0316
672,-307,39.7312,13.4229,-7.19666e-05,0.00296745,0.000333922,0.00300371,-0.00010822,1.46265,0.0020395,0.0182792,1896,1331,39.7311,-13.4229
679,-307,39.7041,12.824,0.000693777,0.000568966,0.000176555,0.00081863,0.000444112,0.61552,0.000473205,0.0107501,1903,1331,39.7041,-12.824
686,-307,39.6787,12.2362,0.00113921,-0.000427657,-6.66194e-05,0.00114204,-0.000430485,-0.0424155,0.000938368,0.0101454,1910,1331,39.6787,-12.2362
693,-307,39.6675,11.6265,0.00114166,-0.000285178,2.7845e-05,0.0011422,-0.000285721,0.0195053,0.000872447,0.0119993,1917,1331,39.6675,-11.6265
700,-307,39.6454,11.0236,0.000933063,-0.000184868,0.000236346,0.000980976,-0.000232781,0.200015,0.00074382,0.0139821,1924,1331,39.6453,-11.0235
707,-307,39.6168,10.4213,0.000705691,-0.000111924,0.000472126,0.000921405,-0.000327637,0.428576,0.000747802,0.0153139,1931,1331,39.6168,-10.4213
714,-307,39.6178,9.84399,0.000394536,-5.58008e-05,0.000751587,0.000953959,-0.000615224,0.639858,0.000912977,0.012997,1938,1331,39.6178,-9.84402
721,-307,39.6392,9.26257,8.08205e-06,-3.22783e-05,0.00107025,0.00105834,-0.00108254,0.775972,0.00123607,0.0173162,1945,1331,39.6392,-9.26262
728,-307,39.5916,8.85413,-0.000548153,-9.32788e-06,0.00144967,0.00119575,-0.00175323,0.877272,0.00171271,0.0492492,1952,1331,39.5915,-8.85411
735,-307,39.6469,8.14014,0,0,0,0,0,0,0,-1,1959,1331,39.6469,-8.14011
742,-307,26.677,6.09192,0,0,0,0,0,0,0,-1,1966,1331,26.677,-6.0919
749,-307,26.7727,5.9032,0,0,0,0,0,0,0,-1,1973,1331,26.7727,-5.90323
756,-307,27.1556,5.74756,0,0,0,0,0,0,0,-1,1980,1331,27.1557,-5.7475
763,-307,18.7522,3.55298,0,0,0,0,0,0,0,-1,1987,1331,18.7522,-3.55301
770,-307,0,0,0,0,0,0,0,0,0,-1,1994,1331,0,0
777,-307,0,0,0,0,0,0,0,0,0,-1,2001,1331,0,0
784,-307,0,0,0,0,0,0,0,0,0,-1,2008,1331,0,0
791,-307,0,0,0,0,0,0,0,0,0,-1,2015,1331,0,0
798,-307,0,0,0,0,0,0,0,0,0,-1,2022,1331,0,0
805,-307,0,0,0,0,0,0,0,0,0,-1,2029,1331,0,0
812,-307,0,0,0,0,0,0,0,0,0,-1,2036,1331,0,0
-700,-314,0,0,0,0,0,0,0,0,0,-1,524,1338,0,0
-693,-314,0,0,0,0,0,0,0,0,0,-1,531,1338,0,0
-686,-314,0,0,0,0,0,0,0,0,0,-1,538,1338,0,0
-679,-314,0,0,0,0,0,0,0,0,0,-1,545,1338,0,0
-672,-314,0,0,0,0,0,0,0,0,0,-1,552,1338,0,0
-665,-314,0,0,0,0,0,0,0,0,0,-1,559,1338,0,0
-658,-314,0,0,0,0,0,0,0,0,0,-1,566,1338,0,0
-651,-314,0,0,0,0,0,0,0,0,0,-1,573,1338,0,0
-644,-314,-57.1674,9.05884,-0.125187,-0.128397,0.00746091,-0.11916,-0.134423,0.679471,0.084986,0.047272,580,1338,-57.1674,-9.05884
-637,-314,-58.369,7.97375,-0.112662,-0.111731,0.0095188,-0.102666,-0.121727,0.809838,0.0756028,0.0469033,587,1338,-58.369,-7.97376
-630,-314,-59.7463,6.72742,0,0,0,0,0,0,0,-1,594,1338,-59.7463,-6.72739
-623,-314,-13.3542,3.00903,0,0,0,0,0,0,0,-1,601,1338,-13.3542,-3.00907
-616,-314,-9.93311,1.15088,0,0,0,0,0,0,0,-1,608,1338,-9.93308,-1.15093
-609,-314,-9.4361,2.86292,0,0,0,0,0,0,0,-1,615,1338,-9.43612,-2.86286
-602,-314,-11.8027,2.42798,0,0,0,0,0,0,0,-1,622,1338,-11.8027,-2.42802
-595,-314,-23.313,6.40723,0,0,0,0,0,0,0,-1,629,1338,-23.313,-6.40719
-588,-314,-23.1074,7.12646,-0.00498213,-0.00431294,0.00276739,-0.00185999,-0.00743508,0.84556,0.0044677,0.0352713,636,1338,-23.1074,-7.12643
-581,-314,-23.0471,7.83875,0.00309177,0.00199721,0.0011525,0.00382033,0.00126865,0.56373,0.00224675,0.0135568,643,1338,-23.0471,-7.83874
-574,-314,-23.113,8.4491,0.0027145,0.00136572,0.000904891,0.00316866,0.000911561,0.465164,0.00188361,0.0127158,650,1338,-23.1131,-8.44914
-567,-314,-23.1292,9.08826,0.00259479,0.000811774,0.00078504,0.00289117,0.000515396,0.360989,0.00178069,0.0148882,657,1338,-23.1292,-9.0883
-560,-314,-23.1011,9.76782,0.00270345,0.000301433,0.000782153,0.00293569,6.9199e-05,0.288625,0.00193447,0.0155512,664,1338,-23.1011,-9.76788
-553,-314,-23.1547,10.3962,0.00306989,-0.000111488,0.000911241,0.00331241,-0.000354007,0.260112,0.00233524,0.0171203,671,1338,-23.1547,-10.3963
-546,-314,-23.2439,11.0304,0.00368298,-0.000508644,0.00115857,0.00398189,-0.000807557,0.252496,0.00296072,0.0176685,678,1338,-23.2439,-11.0304
-539,-314,-23.2056,11.701,0.00462881,-0.000838615,0.00157825,0.00505169,-0.00126149,0.261791,0.00385766,0.0176137,685,1338,-23.2056,-11.701
-532,-314,-23.1266,12.3329,0,0,0,0,0,0,0,-1,692,1338,-23.1266,-12.3329
-525,-314,-13.3017,7.50671,0,0,0,0,0,0,0,-1,699,1338,-13.3017,-7.50669
-518,-314,-8.52753,4.70032,0,0,0,0,0,0,0,-1,706,1338,-8.52755,-4.70034
-511,-314,-11.8597,0.384888,0,0,0,0,0,0,0,-1,713,1338,-11.8597,-0.384927
-504,-314,-11.4322,-0.187378,0,0,0,0,0,0,0,-1,720,1338,-11.4322,0.187381
-497,-314,-11.0047,-0.759644,0,0,0,0,0,0,0,-1,727,1338,-11.0047,0.759689
-490,-314,-18.5143,0.471069,0,0,0,0,0,0,0,-1,734,1338,-18.5143,-0.47103
-483,-314,-17.8528,0.577271,0,0,0,0,0,0,0,-1,741,1338,-17.8528,-0.577327
-476,-314,-17.714,0.665405,0,0,0,0,0,0,0,-1,748,1338,-17.714,-0.665388
-469,-314,-17.7246,0.794678,0,0,0,0,0,0,0,-1,755,1338,-17.7246,-0.794645
-462,-314,0,0,0,0,0,0,0,0,0,-1,762,1338,0,0
-455,-314,0,0,0,0,0,0,0,0,0,-1,769,1338,0,0
-448,-314,0,0,0,0,0,0,0,0,0,-1,776,1338,0,0
-441,-314,0,0,0,0,0,0,0,0,0,-1,783,1338,0,0
-434,-314,0,0,0,0,0,0,0,0,0,-1,790,1338,0,0
-427,-314,0,0,0,0,0,0,0,0,0,-1,797,1338,0,0
-420,-314,0,0,0,0,0,0,0,0,0,-1,804,1338,0,0
-413,-314,0,0,0,0,0,0,0,0,0,-1,811,1338,0,0
-406,-314,0,0,0,0,0,0,0,0,0,-1,818,1338,0,0
-399,-314,0,0,0,0,0,0,0,0,0,-1,825,1338,0,0
-392,-314,0,0,0,0,0,0,0,0,0,-1,832,1338,0,0
-385,-314,0,0,0,0,0,0,0,0,0,-1,839,1338,0,0
-378,-314,0,0,0,0,0,0,0,0,0,-1,846,1338,0,0
-371,-314,0,0,0,0,0,0,0,0,0,-1,853,1338,0,0
-364,-314,0,0,0,0,0,0,0,0,0,-1,860,1338,0,0
-357,-314,0,0,0,0,0,0,0,0,0,-1,867,1338,0,0
-350,-314,0,0,0,0,0,0,0,0,0,-1,874,1338,0,0
-343,-314,0,0,0,0,0,0,0,0,0,-1,881,1338,0,0
-336,-314,0,0,0,0,0,0,0,0,0,-1,888,1338,0,0
-329,-314,0,0,0,0,0,0,0,0,0,-1,895,1338,0,0
-322,-314,0,0,0,0,0,0,0,0,0,-1,902,1338,0,0
-315,-314,0,0,0,0,0,0,0,0,0,-1,909,1338,0,0
-308,-314,0,0,0,0,0,0,0,0,0,-1,916,1338,0,0
-301,-314,0,0,0,0,0,0,0,0,0,-1,923,1338,0,0
-294,-314,0,0,0,0,0,0,0,0,0,-1,930,1338,0,0
-287,-314,0,0,0,0,0,0,0,0,0,-1,937,1338,0,0
-280,-314,0,0,0,0,0,0,0,0,0,-1,944,1338,0,0
-273,-314,0,0,0,0,0,0,0,0,0,-1,951,1338,0,0
-266,-314,0,0,0,0,0,0,0,0,0,-1,958,1338,0,0
-259,-314,0,0,0,0,0,0,0,0,0,-1,965,1338,0,0
-252,-314,0,0,0,0,0,0,0,0,0,-1,972,1338,0,0
-245,-314,0,0,0,0,0,0,0,0,0,-1,979,1338,0,0
-238,-314,0,0,0,0,0,0,0,0,0,-1,986,1338,0,0
-231,-314,0,0,0,0,0,0,0,0,0,-1,993,1338,0,0
-224,-314,0,0,0,0,0,0,0,0,0,-1,1000,1338,0,0
-217,-314,0,0,0,0,0,0,0,0,0,-1,1007,1338,0,0
-210,-314,0,0,0,0,0,0,0,0,0,-1,1014,1338,0,0
-203,-314,0,0,0,0,0,0,0,0,0,-1,1021,1338,0,0
-196,-314,0,0,0,0,0,0,0,0,0,-1,1028,1338,0,0
-189,-314,0,0,0,0,0,0,0,0,0,-1,1035,1338,0,0
-182,-314,0,0,0,0,0,0,0,0,0,-1,1042,1338,0,0
-175,-314,0,0,0,0,0,0,0,0,0,-1,1049,1338,0,0
-168,-314,0,0,0,0,0,0,0,0,0,-1,1056,1338,0,0
-161,-314,0,0,0,0,0,0,0,0,0,-1,1063,1338,0,0
-154,-314,0,0,0,0,0,0,0,0,0,-1,1070,1338,0,0
-147,-314,0,0,0,0,0,0,0,0,0,-1,1077,1338,0,0
-140,-314,0,0,0,0,0,0,0,0,0,-1,1084,1338,0,0
-133,-314,0,0,0,0,0,0,0,0,0,-1,1091,1338,0,0
-126,-314,0,0,0,0,0,0,0,0,0,-1,1098,1338,0,0
-119,-314,0,0,0,0,0,0,0,0,0,-1,1105,1338,0,0
-112,-314,0,0,0,0,0,0,0,0,0,-1,1112,1338,0,0
-105,-314,0,0,0,0,0,0,0,0,0,-1,1119,1338,0,0
-98,-314,0,0,0,0,0,0,0,0,0,-1,1126,1338,0,0
-91,-314,0,0,0,0,0,0,0,0,0,-1,1133,1338,0,0
-84,-314,0,0,0,0,0,0,0,0,0,-1,1140,1338,0,0
-77,-314,0,0,0,0,0,0,0,0,0,-1,1147,1338,0,0
-70,-314,0,0,0,0,0,0,0,0,0,-1,1154,1338,0,0
-63,-314,0,0,0,0,0,0,0,0,0,-1,1161,1338,0,0
-56,-314,0,0,0,0,0,0,0,0,0,-1,1168,1338,0,0
-49,-314,0,0,0,0,0,0,0,0,0,-1,1175,1338,0,0
-42,-314,0,0,0,0,0,0,0,0,0,-1,1182,1338,0,0
-35,-314,0,0,0,0,0,0,0,0,0,-1,1189,1338,0,0
-28,-314,0,0,0,0,0,0,0,0,0,-1,1196,1338,0,0
-21,-314,0,0,0,0,0,0,0,0,0,-1,1203,1338,0,0
-14,-314,0,0,0,0,0,0,0,0,0,-1,1210,1338,0,0
-7,-314,0,0,0,0,0,0,0,0,0,-1,1217,1338,0,0
0,-314,0,0,0,0,0,0,0,0,0,-1,1224,1338,0,0
7,-314,0,0,0,0,0,0,0,0,0,-1,1231,1338,0,0
14,-314,0,0,0,0,0,0,0,0,0,-1,1238,1338,0,0
21,-314,0,0,0,0,0,0,0,0,0,-1,1245,1338,0,0
28,-314,0,0,0,0,0,0,0,0,0,-1,1252,1338,0,0
35,-314,0,0,0,0,0,0,0,0,0,-1,1259,1338,0,0
42,-314,0,0,0,0,0,0,0,0,0,-1,1266,1338,0,0
49,-314,0,0,0,0,0,0,0,0,0,-1,1273,1338,0,0
56,-314,0,0,0,0,0,0,0,0,0,-1,1280,1338,0,0
63,-314,0,0,0,0,0,0,0,0,0,-1,1287,1338,0,0
70,-314,0,0,0,0,0,0,0,0,0,-1,1294,1338,0,0
77,-314,0,0,0,0,0,0,0,0,0,-1,1301,1338,0,0
84,-314,0,0,0,0,0,0,0,0,0,-1,1308,1338,0,0
91,-314,0,0,0,0,0,0,0,0,0,-1,1315,1338,0,0
98,-314,0,0,0,0,0,0,0,0,0,-1,1322,1338,0,0
105,-314,0,0,0,0,0,0,0,0,0,-1,1329,1338,0,0
112,-314,0,0,0,0,0,0,0,0,0,-1,1336,1338,0,0
119,-314,0,0,0,0,0,0,0,0,0,-1,1343,1338,0,0
126,-314,0,0,0,0,0,0,0,0,0,-1,1350,1338,0,0
133,-314,0,0,0,0,0,0,0,0,0,-1,1357,1338,0,0
140,-314,0,0,0,0,0,0,0,0,0,-1,1364,1338,0,0
147,-314,0,0,0,0,0,0,0,0,0,-1,1371,1338,0,0
154,-314,0,0,0,0,0,0,0,0,0,-1,1378,1338,0,0
161,-314,0,0,0,0,0,0,0,0,0,-1,1385,1338,0,0
168,-314,0,0,0,0,0,0,0,0,0,-1,1392,1338,0,0
175,-314,0,0,0,0,0,0,0,0,0,-1,1399,1338,0,0
182,-314,0,0,0,0,0,0,0,0,0,-1,1406,1338,0,0
189,-314,0,0,0,0,0,0,0,0,0,-1,1413,1338,0,0
196,-314,0,0,0,0,0,0,0,0,0,-1,1420,1338,0,0
203,-314,0,0,0,0,0,0,0,0,0,-1,1427,1338,0,0
210,-314,0,0,0,0,0,0,0,0,0,-1,1434,1338,0,0
217,-314,0,0,0,0,0,0,0,0,0,-1,1441,1338,0,0
224,-314,0,0,0,0,0,0,0,0,0,-1,1448,1338,0,0
231,-314,0,0,0,0,0,0,0,0,0,-1,1455,1338,0,0
238,-314,0,0,0,0,0,0,0,0,0,-1,1462,1338,0,0
245,-314,0,0,0,0,0,0,0,0,0,-1,1469,1338,0,0
252,-314,0,0,0,0,0,0,0,0,0,-1,1476,1338,0,0
259,-314,0,0,0,0,0,0,0,0,0,-1,1483,1338,0,0
266,-314,0,0,0,0,0,0,0,0,0,-1,1490,1338,0,0
273,-314,0,0,0,0,0,0,0,0,0,-1,1497,1338,0,0
280,-314,0,0,0,0,0,0,0,0,0,-1,1504,1338,0,0
287,-314,0,0,0,0,0,0,0,0,0,-1,1511,1338,0,0
294,-314,0,0,0,0,0,0,0,0,0,-1,1518,1338,0,0
301,-314,0,0,0,0,0,0,0,0,0,-1,1525,1338,0,0
308,-314,0,0,0,0,0,0,0,0,0,-1,1532,1338,0,0
315,-314,0,0,0,0,0,0,0,0,0,-1,1539,1338,0,0
322,-314,0,0,0,0,0,0,0,0,0,-1,1546,1338,0,0
329,-314,0,0,0,0,0,0,0,0,0,-1,1553,1338,0,0
336,-314,0,0,0,0,0,0,0,0,0,-1,1560,1338,0,0
343,-314,0,0,0,0,0,0,0,0,0,-1,1567,1338,0,0
350,-314,0,0,0,0,0,0,0,0,0,-1,1574,1338,0,0
357,-314,0,0,0,0,0,0,0,0,0,-1,1581,1338,0,0
364,-314,0,0,0,0,0,0,0,0,0,-1,1588,1338,0,0
371,-314,0,0,0,0,0,0,0,0,0,-1,1595,1338,0,0
378,-314,0,0,0,0,0,0,0,0,0,-1,1602,1338,0,0
385,-314,0,0,0,0,0,0,0,0,0,-1,1609,1338,0,0
392,-314,0,0,0,0,0,0,0,0,0,-1,1616,1338,0,0
399,-314,0,0,0,0,0,0,0,0,0,-1,1623,1338,0,0
406,-314,0,0,0,0,0,0,0,0,0,-1,1630,1338,0,0
413,-314,0,0,0,0,0,0,0,0,0,-1,1637,1338,0,0
420,-314,0,0,0,0,0,0,0,0,0,-1,1644,1338,0,0
427,-314,0,0,0,0,0,0,0,0,0,-1,1651,1338,0,0
434,-314,0,0,0,0,0,0,0,0,0,-1,1658,1338,0,0
441,-314,0,0,0,0,0,0,0,0,0,-1,1665,1338,0,0
448,-314,0,0,0,0,0,0,0,0,0,-1,1672,1338,0,0
455,-314,0,0,0,0,0,0,0,0,0,-1,1679,1338,0,0
462,-314,0,0,0,0,0,0,0,0,0,-1,1686,1338,0,0
469,-314,0,0,0,0,0,0,0,0,0,-1,1693,1338,0,0
476,-314,0,0,0,0,0,0,0,0,0,-1,1700,1338,0,0
483,-314,0,0,0,0,0,0,0,0,0,-1,1707,1338,0,0
490,-314,0,0,0,0,0,0,0,0,0,-1,1714,1338,0,0
497,-314,0,0,0,0,0,0,0,0,0,-1,1721,1338,0,0
504,-314,0,0,0,0,0,0,0,0,0,-1,1728,1338,0,0
511,-314,0,0,0,0,0,0,0,0,0,-1,1735,1338,0,0
518,-314,0,0,0,0,0,0,0,0,0,-1,1742,1338,0,0
525,-314,0,0,0,0,0,0,0,0,0,-1,1749,1338,0,0
532,-314,0,0,0,0,0,0,0,0,0,-1,1756,1338,0,0
539,-314,0,0,0,0,0,0,0,0,0,-1,1763,1338,0,0
546,-314,0,0,0,0,0,0,0,0,0,-1,1770,1338,0,0
553,-314,0,0,0,0,0,0,0,0,0,-1,1777,1338,0,0
560,-314,0,0,0,0,0,0,0,0,0,-1,1784,1338,0,0
567,-314,0,0,0,0,0,0,0,0,0,-1,1791,1338,0,0
574,-314,0,0,0,0,0,0,0,0,0,-1,1798,1338,0,0
581,-314,59.6042,2.26257,0,0,0,0,0,0,0,-1,1805,1338,59.6042,-2.26255
588,-314,59.4537,2.27551,0,0,0,0,0,0,0,-1,1812,1338,59.4538,-2.27555
595,-314,59.8414,2.22742,0,0,0,0,0,0,0,-1,1819,1338,59.8415,-2.22739
602,-314,55.9962,-1.17151,0,0,0,0,0,0,0,-1,1826,1338,55.9962,1.17155
609,-314,56.6547,0.382813,0,0,0,0,0,0,0,-1,1833,1338,56.6547,-0.382865
616,-314,48.1149,3.005,0,0,0,0,0,0,0,-1,1840,1338,48.1149,-3.00505
623,-314,38.7728,2.71741,0,0,0,0,0,0,0,-1,1847,1338,38.7728,-2.71737
630,-314,29.4308,6.23206,0,0,0,0,0,0,0,-1,1854,1338,29.4308,-6.23202
637,-314,22.1349,5.16418,0,0,0,0,0,0,0,-1,1861,1338,22.1349,-5.16414
644,-314,18.7517,6.2605,0,0,0,0,0,0,0,-1,1868,1338,18.7517,-6.26053
651,-314,23.1317,8.005,0,0,0,0,0,0,0,-1,1875,1338,23.1317,-8.00506
658,-314,39.1519,14.7031,0,0,0,0,0,0,0,-1,1882,1338,39.1519,-14.7031
665,-314,39.0914,14.092,-0.000224337,0.00528587,0.000383326,0.00531241,-0.000250875,1.50167,0.00362812,0.0325143,1889,1338,39.0914,-14.092
672,-314,39.1149,13.4905,0.000599728,0.00186818,0.000159834,0.00188801,0.000579898,1.44736,0.00111674,0.0137599,1896,1338,39.1149,-13.4905
679,-314,39.1152,12.8752,0.0010508,0.000193694,3.30231e-05,0.00105207,0.000192424,0.0384525,0.000646854,0.0109279,1903,1338,39.1152,-12.8752
686,-314,39.0961,12.2727,0.00127792,-0.00036393,-9.9845e-05,0.00128397,-0.000369979,-0.0605154,0.00100233,0.0131916,1910,1338,39.0961,-12.2727
693,-314,39.0671,11.6475,0.00126881,-0.000241858,-1.53359e-05,0.00126897,-0.000242014,-0.0101503,0.000937126,0.0133327,1917,1338,39.0671,-11.6474
700,-314,39.0364,11.0359,0.00120335,-0.000130434,0.000141202,0.00121813,-0.000145218,0.104325,0.000864568,0.0146642,1924,1338,39.0364,-11.0359
707,-314,39.0331,10.442,0.00110537,-4.11507e-05,0.000323425,0.00119031,-0.000126093,0.256835,0.000838735,0.0143565,1931,1338,39.0331,-10.442
714,-314,39.0045,9.87878,0.00091953,1.83583e-05,0.000558275,0.00118637,-0.000248481,0.445869,0.000885438,0.0115002,1938,1338,39.0045,-9.87879
721,-314,38.973,9.33276,0.000675186,1.40147e-06,0.000849843,0.00125248,-0.000575889,0.596691,0.00107943,0.0261285,1945,1338,38.9731,-9.33271
728,-314,39.2415,9.09436,0,0,0,0,0,0,0,-1,1952,1338,39.2415,-9.09434
735,-314,26.3665,6.21582,0,0,0,0,0,0,0,-1,1959,1338,26.3664,-6.21581
742,-314,26.2235,6.0166,0,0,0,0,0,0,0,-1,1966,1338,26.2235,-6.01662
749,-314,26.2223,5.47046,0,0,0,0,0,0,0,-1,1973,1338,26.2223,-5.47041
756,-314,24.2521,5.93408,0,0,0,0,0,0,0,-1,1980,1338,24.252,-5.93413
763,-314,19.2207,4.07239,0,0,0,0,0,0,0,-1,1987,1338,19.2206,-4.07239
770,-314,0,0,0,0,0,0,0,0,0,-1,1994,1338,0,0
777,-314,0,0,0,0,0,0,0,0,0,-1,2001,1338,0,0
784,-314,0,0,0,0,0,0,0,0,0,-1,2008,1338,0,0
791,-314,0,0,0,0,0,0,0,0,0,-1,2015,1338,0,0
798,-314,0,0,0,0,0,0,0,0,0,-1,2022,1338,0,0
805,-314,0,0,0,0,0,0,0,0,0,-1,2029,1338,0,0
812,-314,0,0,0,0,0,0,0,0,0,-1,2036,1338,0,0
-700,-321,0,0,0,0,0,0,0,0,0,-1,524,1345,0,0
-693,-321,0,0,0,0,0,0,0,0,0,-1,531,1345,0,0
-686,-321,0,0,0,0,0,0,0,0,0,-1,538,1345,0,0
-679,-321,0,0,0,0,0,0,0,0,0,-1,545,1345,0,0
-672,-321,0,0,0,0,0,0,0,0,0,-1,552,1345,0,0
-665,-321,0,0,0,0,0,0,0,0,0,-1,559,1345,0,0
-658,-321,0,0,0,0,0,0,0,0,0,-1,566,1345,0,0
-651,-321,0,0,0,0,0,0,0,0,0,-1,573,1345,0,0
-644,-321,-58.7329,10.2313,-0.15465,-0.132525,0.0236806,-0.11745,-0.169725,1.00391,0.10037,0.045572,580,1345,-58.7329,-10.2313
-637,-321,-59.9981,9.06421,-0.138279,-0.115471,0.0238737,-0.100418,-0.153333,1.00822,0.0899317,0.0471813,587,1345,-59.9981,-9.06417
-630,-321,-61.377,8.07166,0,0,0,0,0,0,0,-1,594,1345,-61.3769,-8.07168
-623,-321,-13.2242,3.14148,0,0,0,0,0,0,0,-1,601,1345,-13.2243,-3.14146
-616,-321,-11.6754,3.13794,0,0,0,0,0,0,0,-1,608,1345,-11.6754,-3.13789
-609,-321,-7.95209,1.14758,0,0,0,0,0,0,0,-1,615,1345,-7.95208,-1.14757
-602,-321,-8.85791,2.50049,0,0,0,0,0,0,0,-1,622,1345,-8.85791,-2.50048
-595,-321,-19.8463,5.36584,0,0,0,0,0,0,0,-1,629,1345,-19.8462,-5.36589
-588,-321,-22.5663,7.12805,0,0,0,0,0,0,0,-1,636,1345,-22.5663,-7.12808
-581,-321,-22.4429,7.85852,0.00349005,0.00227345,0.00136806,0.00437895,0.00138455,0.576203,0.00258451,0.0155333,643,1345,-22.4429,-7.8585
-574,-321,-22.4903,8.50317,0.00298538,0.00167749,0.00108891,0.00360162,0.00106125,0.514986,0.00213705,0.0157423,650,1345,-22.4903,-8.50319
-567,-321,-22.4761,9.10986,0.00273982,0.00113323,0.000923601,0.00316059,0.000712468,0.427476,0.00191429,0.02238,657,1345,-22.4761,-9.10984
-560,-321,-22.4053,9.83936,0.00273858,0.00065168,0.00088806,0.00306533,0.000324934,0.35256,0.00194431,0.0268022,664,1345,-22.4053,-9.83938
-553,-321,-22.4734,10.4877,0.00296557,0.000223567,0.00096679,0.00327217,-8.30269e-05,0.307094,0.00220964,0.0269982,671,1345,-22.4734,-10.4876
-546,-321,-22.551,11.078,0.00343492,-0.000174452,0.00115515,0.00377296,-0.000512491,0.284687,0.00270238,0.0256344,678,1345,-22.551,-11.078
-539,-321,-22.5511,11.7104,0.00420137,-0.000497523,0.0014999,0.00463933,-0.000935479,0.284091,0.00344728,0.0229493,685,1345,-22.5512,-11.7105
-532,-321,-22.5002,12.3688,0.00538588,-0.000699359,0.0020503,0.00601222,-0.0013257,0.296483,0.00451539,0.0351565,692,1345,-22.5003,-12.3688
-525,-321,-22.6417,13.0464,0,0,0,0,0,0,0,-1,699,1345,-22.6416,-13.0464
-518,-321,-10.3564,6.75696,0,0,0,0,0,0,0,-1,706,1345,-10.3564,-6.75694
-511,-321,-9.3302,5.29297,0,0,0,0,0,0,0,-1,713,1345,-9.33023,-5.29294
-504,-321,-10.4713,0.0145264,0,0,0,0,0,0,0,-1,720,1345,-10.4713,-0.0145296
-497,-321,-9.96771,0.313599,0,0,0,0,0,0,0,-1,727,1345,-9.96769,-0.313618
-490,-321,-10.7631,0.973511,0,0,0,0,0,0,0,-1,734,1345,-10.7631,-0.97353
-483,-321,-17.5908,0.2323,0,0,0,0,0,0,0,-1,741,1345,-17.5908,-0.232355
-476,-321,-17.2915,0.297363,0,0,0,0,0,0,0,-1,748,1345,-17.2915,-0.297342
-469,-321,-17.2441,0.478027,0,0,0,0,0,0,0,-1,755,1345,-17.2441,-0.477994
-462,-321,-17.1672,0.526489,0,0,0,0,0,0,0,-1,762,1345,-17.1672,-0.526533
-455,-321,0,0,0,0,0,0,0,0,0,-1,769,1345,0,0
-448,-321,0,0,0,0,0,0,0,0,0,-1,776,1345,0,0
-441,-321,0,0,0,0,0,0,0,0,0,-1,783,1345,0,0
-434,-321,0,0,0,0,0,0,0,0,0,-1,790,1345,0,0
-427,-321,0,0,0,0,0,0,0,0,0,-1,797,1345,0,0
-420,-321,0,0,0,0,0,0,0,0,0,-1,804,1345,0,0
-413,-321,0,0,0,0,0,0,0,0,0,-1,811,1345,0,0
-406,-321,0,0,0,0,0,0,0,0,0,-1,818,1345,0,0
-399,-321,0,0,0,0,0,0,0,0,0,-1,825,1345,0,0
-392,-321,0,0,0,0,0,0,0,0,0,-1,832,1345,0,0
-385,-321,0,0,0,0,0,0,0,0,0,-1,839,1345,0,0
-378,-321,0,0,0,0,0,0,0,0,0,-1,846,1345,0,0
-371,-321,0,0,0,0,0,0,0,0,0,-1,853,1345,0,0
-364,-321,0,0,0,0,0,0,0,0,0,-1,860,1345,0,0
-357,-321,0,0,0,0,0,0,0,0,0,-1,867,1345,0,0
-350,-321,0,0,0,0,0,0,0,0,0,-1,874,1345,0,0
-343,-321,0,0,0,0,0,0,0,0,0,-1,881,1345,0,0
-336,-321,0,0,0,0,0,0,0,0,0,-1,888,1345,0,0
-329,-321,0,0,0,0,0,0,0,0,0,-1,895,1345,0,0
-322,-321,0,0,0,0,0,0,0,0,0,-1,902,1345,0,0
-315,-321,0,0,0,0,0,0,0,0,0,-1,909,1345,0,0
-308,-321,0,0,0,0,0,0,0,0,0,-1,916,1345,0,0
-301,-321,0,0,0,0,0,0,0,0,0,-1,923,1345,0,0
-294,-321,0,0,0,0,0,0,0,0,0,-1,930,1345,0,0
-287,-321,0,0,0,0,0,0,0,0,0,-1,937,1345,0,0
-280,-321,0,0,0,0,0,0,0,0,0,-1,944,1345,0,0
-273,-321,0,0,0,0,0,0,0,0,0,-1,951,1345,0,0
-266,-321,0,0,0,0,0,0,0,0,0,-1,958,1345,0,0
-259,-321,0,0,0,0,0,0,0,0,0,-1,965,1345,0,0
-252,-321,0,0,0,0,0,0,0,0,0,-1,972,1345,0,0
-245,-321,0,0,0,0,0,0,0,0,0,-1,979,1345,0,0
-238,-321,0,0,0,0,0,0,0,0,0,-1,986,1345,0,0
-231,-321,0,0,0,0,0,0,0,0,0,-1,993,1345,0,0
-224,-321,0,0,0,0,0,0,0,0,0,-1,1000,1345,0,0
-217,-321,0,0,0,0,0,0,0,0,0,-1,1007,1345,0,0
-210,-321,0,0,0,0,0,0,0,0,0,-1,1014,1345,0,0
-203,-321,0,0,0,0,0,0,0,0,0,-1,1021,1345,0,0
-196,-321,0,0,0,0,0,0,0,0,0,-1,1028,1345,0,0
-189,-321,0,0,0,0,0,0,0,0,0,-1,1035,1345,0,0
-182,-321,0,0,0,0,0,0,0,0,0,-1,1042,1345,0,0
-175,-321,0,0,0,0,0,0,0,0,0,-1,1049,1345,0,0
-168,-321,0,0,0,0,0,0,0,0,0,-1,1056,1345,0,0
-161,-321,0,0,0,0,0,0,0,0,0,-1,1063,1345,0,0
-154,-321,0,0,0,0,0,0,0,0,0,-1,1070,1345,0,0
-147,-321,0,0,0,0,0,0,0,0,0,-1,1077,1345,0,0
-140,-321,0,0,0,0,0,0,0,0,0,-1,1084,1345,0,0
-133,-321,0,0,0,0,0,0,0,0,0,-1,1091,1345,0,0
-126,-321,0,0,0,0,0,0,0,0,0,-1,1098,1345,0,0
-119,-321,0,0,0,0,0,0,0,0,0,-1,1105,1345,0,0
-112,-321,0,0,0,0,0,0,0,0,0,-1,1112,1345,0,0
-105,-321,0,0,0,0,0,0,0,0,0,-1,1119,1345,0,0
-98,-321,0,0,0,0,0,0,0,0,0,-1,1126,1345,0,0
-91,-321,0,0,0,0,0,0,0,0,0,-1,1133,1345,0,0
-84,-321,0,0,0,0,0,0,0,0,0,-1,1140,1345,0,0
-77,-321,0,0,0,0,0,0,0,0,0,-1,1147,1345,0,0
-70,-321,0,0,0,0,0,0,0,0,0,-1,1154,1345,0,0
-63,-321,0,0,0,0,0,0,0,0,0,-1,1161,1345,0,0
-56,-321,0,0,0,0,0,0,0,0,0,-1,1168,1345,0,0
-49,-321,0,0,0,0,0,0,0,0,0,-1,1175,1345,0,0
-42,-321,0,0,0,0,0,0,0,0,0,-1,1182,1345,0,0
-35,-321,0,0,0,0,0,0,0,0,0,-1,1189,1345,0,0
-28,-321,0,0,0,0,0,0,0,0,0,-1,1196,1345,0,0
-21,-321,0,0,0,0,0,0,0,0,0,-1,1203,1345,0,0
-14,-321,0,0,0,0,0,0,0,0,0,-1,1210,1345,0,0
-7,-321,0,0,0,0,0,0,0,0,0,-1,1217,1345,0,0
0,-321,0,0,0,0,0,0,0,0,0,-1,1224,1345,0,0
7,-321,0,0,0,0,0,0,0,0,0,-1,1231,1345,0,0
14,-321,0,0,0,0,0,0,0,0,0,-1,1238,1345,0,0
21,-321,0,0,0,0,0,0,0,0,0,-1,1245,1345,0,0
28,-321,0,0,0,0,0,0,0,0,0,-1,1252,1345,0,0
35,-321,0,0,0,0,0,0,0,0,0,-1,1259,1345,0,0
42,-321,0,0,0,0,0,0,0,0,0,-1,1266,1345,0,0
49,-321,0,0,0,0,0,0,0,0,0,-1,1273,1345,0,0
56,-321,0,0,0,0,0,0,0,0,0,-1,1280,1345,0,0
63,-321,0,0,0,0,0,0,0,0,0,-1,1287,1345,0,0
70,-321,0,0,0,0,0,0,0,0,0,-1,1294,1345,0,0
77,-321,0,0,0,0,0,0,0,0,0,-1,1301,1345,0,0
84,-321,0,0,0,0,0,0,0,0,0,-1,1308,1345,0,0
91,-321,0,0,0,0,0,0,0,0,0,-1,1315,1345,0,0
98,-321,0,0,0,0,0,0,0,0,0,-1,1322,1345,0,0
105,-321,0,0,0,0,0,0,0,0,0,-1,1329,1345,0,0
112,-321,0,0,0,0,0,0,0,0,0,-1,1336,1345,0,0
119,-321,0,0,0,0,0,0,0,0,0,-1,1343,1345,0,0
126,-321,0,0,0,0,0,0,0,0,0,-1,1350,1345,0,0
133,-321,0,0,0,0,0,0,0,0,0,-1,1357,1345,0,0
140,-321,0,0,0,0,0,0,0,0,0,-1,1364,1345,0,0
147,-321,0,0,0,0,0,0,0,0,0,-1,1371,1345,0,0
154,-321,0,0,0,0,0,0,0,0,0,-1,1378,1345,0,0
161,-321,0,0,0,0,0,0,0,0,0,-1,1385,1345,0,0
168,-321,0,0,0,0,0,0,0,0,0,-1,1392,1345,0,0
175,-321,0,0,0,0,0,0,0,0,0,-1,1399,1345,0,0
182,-321,0,0,0,0,0,0,0,0,0,-1,1406,1345,0,0
189,-321,0,0,0,0,0,0,0,0,0,-1,1413,1345,0,0
196,-321,0,0,0,0,0,0,0,0,0,-1,1420,1345,0,0
203,-321,0,0,0,0,0,0,0,0,0,-1,1427,1345,0,0
210,-321,0,0,0,0,0,0,0,0,0,-1,1434,1345,0,0
217,-321,0,0,0,0,0,0,0,0,0,-1,1441,1345,0,0
224,-321,0,0,0,0,0,0,0,0,0,-1,1448,1345,0,0
231,-321,0,0,0,0,0,0,0,0,0,-1,1455,1345,0,0
238,-321,0,0,0,0,0,0,0,0,0,-1,1462,1345,0,0
245,-321,0,0,0,0,0,0,0,0,0,-1,1469,1345,0,0
252,-321,0,0,0,0,0,0,0,0,0,-1,1476,1345,0,0
259,-321,0,0,0,0,0,0,0,0,0,-1,1483,1345,0,0
266,-321,0,0,0,0,0,0,0,0,0,-1,1490,1345,0,0
273,-321,0,0,0,0,0,0,0,0,0,-1,1497,1345,0,0
280,-321,0,0,0,0,0,0,0,0,0,-1,1504,1345,0,0
287,-321,0,0,0,0,0,0,0,0,0,-1,1511,1345,0,0
294,-321,0,0,0,0,0,0,0,0,0,-1,1518,1345,0,0
301,-321,0,0,0,0,0,0,0,0,0,-1,1525,1345,0,0
308,-321,0,0,0,0,0,0,0,0,0,-1,1532,1345,0,0
315,-321,0,0,0,0,0,0,0,0,0,-1,1539,1345,0,0
322,-321,0,0,0,0,0,0,0,0,0,-1,1546,1345,0,0
329,-321,0,0,0,0,0,0,0,0,0,-1,1553,1345,0,0
336,-321,0,0,0,0,0,0,0,0,0,-1,1560,1345,0,0
343,-321,0,0,0,0,0,0,0,0,0,-1,1567,1345,0,0
350,-321,0,0,0,0,0,0,0,0,0,-1,1574,1345,0,0
357,-321,0,0,0,0,0,0,0,0,0,-1,1581,1345,0,0
364,-321,0,0,0,0,0,0,0,0,0,-1,1588,1345,0,0
371,-321,0,0,0,0,0,0,0,0,0,-1,1595,1345,0,0
378,-321,0,0,0,0,0,0,0,0,0,-1,1602,1345,0,0
385,-321,0,0,0,0,0,0,0,0,0,-1,1609,1345,0,0
392,-321,0,0,0,0,0,0,0,0,0,-1,1616,1345,0,0
399,-321,0,0,0,0,0,0,0,0,0,-1,1623,1345,0,0
406,-321,0,0,0,0,0,0,0,0,0,-1,1630,1345,0,0
413,-321,0,0,0,0,0,0,0,0,0,-1,1637,1345,0,0
420,-321,0,0,0,0,0,0,0,0,0,-1,1644,1345,0,0
427,-321,0,0,0,0,0,0,0,0,0,-1,1651,1345,0,0
434,-321,0,0,0,0,0,0,0,0,0,-1,1658,1345,0,0
441,-321,0,0,0,0,0,0,0,0,0,-1,1665,1345,0,0
448,-321,0,0,0,0,0,0,0,0,0,-1,1672,1345,0,0
455,-321,0,0,0,0,0,0,0,0,0,-1,1679,1345,0,0
462,-321,0,0,0,0,0,0,0,0,0,-1,1686,1345,0,0
469,-321,0,0,0,0,0,0,0,0,0,-1,1693,1345,0,0
476,-321,0,0,0,0,0,0,0,0,0,-1,1700,1345,0,0
483,-321,0,0,0,0,0,0,0,0,0,-1,1707,1345,0,0
490,-321,0,0,0,0,0,0,0,0,0,-1,1714,1345,0,0
497,-321,0,0,0,0,0,0,0,0,0,-1,1721,1345,0,0
504,-321,0,0,0,0,0,0,0,0,0,-1,1728,1345,0,0
511,-321,0,0,0,0,0,0,0,0,0,-1,1735,1345,0,0
518,-321,0,0,0,0,0,0,0,0,0,-1,1742,1345,0,0
525,-321,0,0,0,0,0,0,0,0,0,-1,1749,1345,0,0
532,-321,0,0,0,0,0,0,0,0,0,-1,1756,1345,0,0
539,-321,0,0,0,0,0,0,0,0,0,-1,1763,1345,0,0
546,-321,0,0,0,0,0,0,0,0,0,-1,1770,1345,0,0
553,-321,0,0,0,0,0,0,0,0,0,-1,1777,1345,0,0
560,-321,0,0,0,0,0,0,0,0,0,-1,1784,1345,0,0
567,-321,0,0,0,0,0,0,0,0,0,-1,1791,1345,0,0
574,-321,0,0,0,0,0,0,0,0,0,-1,1798,1345,0,0
581,-321,59.2018,1.7915,0,0,0,0,0,0,0,-1,1805,1345,59.2017,-1.79155
588,-321,58.9794,1.9939,0,0,0,0,0,0,0,-1,1812,1345,58.9793,-1.99388
595,-321,58.7632,2.00488,0,0,0,0,0,0,0,-1,1819,1345,58.7632,-2.00484
602,-321,58.7485,2.00928,0,0,0,0,0,0,0,-1,1826,1345,58.7485,-2.00923
609,-321,48.311,3.39575,0,0,0,0,0,0,0,-1,1833,1345,48.311,-3.39571
616,-321,37.8107,2.58704,0,0,0,0,0,0,0,-1,1840,1345,37.8106,-2.58705
623,-321,37.6854,3.68933,0,0,0,0,0,0,0,-1,1847,1345,37.6854,-3.68931
630,-321,23.6674,4.34106,0,0,0,0,0,0,0,-1,1854,1345,23.6674,-4.34112
637,-321,21.7925,6.79224,0,0,0,0,0,0,0,-1,1861,1345,21.7925,-6.7922
644,-321,16.8844,6.71973,0,0,0,0,0,0,0,-1,1868,1345,16.8844,-6.71971
651,-321,27.4924,10.0319,0,0,0,0,0,0,0,-1,1875,1345,27.4924,-10.0319
658,-321,38.4072,14.7483,0,0,0,0,0,0,0,-1,1882,1345,38.4073,-14.7483
665,-321,38.4802,14.1597,0.000130774,0.00258794,-2.97082e-05,0.0025883,0.000130415,-1.55871,0.00168375,0.0245805,1889,1345,38.4802,-14.1597
672,-321,38.5277,13.5073,0.000734015,0.000634275,-9.56261e-05,0.000791994,0.000576296,-0.545044,0.000472792,0.0136549,1896,1345,38.5278,-13.5074
679,-321,38.511,12.9105,0.0010888,-5.81352e-05,-0.000145332,0.00110693,-7.62641e-05,-0.1241,0.000764645,0.0123176,1903,1345,38.511,-12.9105
686,-321,38.4625,12.3032,0.00136653,-0.000206629,-0.000201383,0.0013919,-0.000231999,-0.12532,0.00101415,0.0132955,1910,1345,38.4625,-12.3032
693,-321,38.4406,11.7043,0.00153922,-6.35466e-05,-0.0001687,0.00155679,-8.11107e-05,-0.103741,0.00106592,0.012808,1917,1345,38.4406,-11.7043
700,-321,38.4427,11.085,0.00167439,8.4815e-05,-9.87878e-05,0.00168051,7.86991e-05,-0.0618302,0.00109505,0.0129153,1924,1345,38.4427,-11.085
707,-321,38.4371,10.4829,0.0017467,0.000217592,2.61292e-06,0.00174671,0.000217588,0.00170877,0.00109915,0.0153278,1931,1345,38.4371,-10.4829
714,-321,38.401,9.89404,0.00171035,0.00031174,0.00016346,0.0017292,0.00029289,0.114812,0.00106863,0.0139621,1938,1345,38.401,-9.89403
721,-321,38.3331,9.29382,0.00161219,0.000282353,0.000402321,0.00172444,0.000170111,0.272068,0.00109732,0.0415408,1945,1345,38.3332,-9.29383
728,-321,38.3427,8.74109,0,0,0,0,0,0,0,-1,1952,1345,38.3427,-8.74105
735,-321,22.0081,5.65479,0,0,0,0,0,0,0,-1,1959,1345,22.008,-5.65481
742,-321,24.5398,5.05725,0,0,0,0,0,0,0,-1,1966,1345,24.5398,-5.05729
749,-321,24.0675,5.4458,0,0,0,0,0,0,0,-1,1973,1345,24.0675,-5.44581
756,-321,19.6251,4.98315,0,0,0,0,0,0,0,-1,1980,1345,19.6251,-4.98311
763,-321,19.6747,4.61438,0,0,0,0,0,0,0,-1,1987,1345,19.6747,-4.61436
770,-321,0,0,0,0,0,0,0,0,0,-1,1994,1345,0,0
777,-321,0,0,0,0,0,0,0,0,0,-1,2001,1345,0,0
784,-321,0,0,0,0,0,0,0,0,0,-1,2008,1345,0,0
791,-321,0,0,0,0,0,0,0,0,0,-1,2015,1345,0,0
798,-321,0,0,0,0,0,0,0,0,0,-1,2022,1345,0,0
805,-321,0,0,0,0,0,0,0,0,0,-1,2029,1345,0,0
812,-321,0,0,0,0,0,0,0,0,0,-1,2036,1345,0,0
-700,-328,0,0,0,0,0,0,0,0,0,-1,524,1352,0,0
-693,-328,0,0,0,0,0,0,0,0,0,-1,531,1352,0,0
-686,-328,0,0,0,0,0,0,0,0,0,-1,538,1352,0,0
-679,-328,0,0,0,0,0,0,0,0,0,-1,545,1352,0,0
-672,-328,0,0,0,0,0,0,0,0,0,-1,552,1352,0,0
-665,-328,0,0,0,0,0,0,0,0,0,-1,559,1352,0,0
-658,-328,0,0,0,0,0,0,0,0,0,-1,566,1352,0,0
-651,-328,0,0,0,0,0,0,0,0,0,-1,573,1352,0,0
-644,-328,0,0,0,0,0,0,0,0,0,-1,580,1352,0,0
-637,-328,-61.3883,10.1125,0,0,0,0,0,0,0,-1,587,1352,-61.3883,-10.1126
-630,-328,-62.8012,9.14563,0,0,0,0,0,0,0,-1,594,1352,-62.8012,-9.14564
-623,-328,-10.7739,4.55042,0,0,0,0,0,0,0,-1,601,1352,-10.7739,-4.55041
-616,-328,-8.22198,-0.25708,0,0,0,0,0,0,0,-1,608,1352,-8.22201,0.257067
-609,-328,-7.87439,0.192871,0,0,0,0,0,0,0,-1,615,1352,-7.87441,-0.192822
-602,-328,-7.63062,1.31665,0,0,0,0,0,0,0,-1,622,1352,-7.63064,-1.3166
-595,-328,-9.42639,2.93494,0,0,0,0,0,0,0,-1,629,1352,-9.42638,-2.93499
-588,-328,-21.9474,6.94922,0,0,0,0,0,0,0,-1,636,1352,-21.9474,-6.94922
-581,-328,-21.8359,7.81238,0.00426737,0.00278304,0.00183714,0.00550659,0.00154382,0.593432,0.00327989,0.0275262,643,1352,-21.8359,-7.81241
-574,-328,-21.8165,8.51672,0.00345029,0.00207268,0.00144756,0.00436457,0.00115839,0.563332,0.0026107,0.0156748,650,1352,-21.8166,-8.5167
-567,-328,-21.8339,9.15967,0.00297133,0.00145867,0.00118871,0.00362392,0.000806077,0.502069,0.00219711,0.0212483,657,1352,-21.8338,-9.1597
-560,-328,-21.8066,9.86218,0.00278662,0.000941682,0.00108319,0.00328691,0.000441388,0.432681,0.00205997,0.0293283,664,1352,-21.8066,-9.86217
-553,-328,-21.8171,10.5365,0.0028436,0.000493534,0.00109423,0.0032742,6.29367e-05,0.374904,0.00216213,0.0301286,671,1352,-21.8171,-10.5365
-546,-328,-21.8589,11.1432,0.00315873,0.000107989,0.0012209,0.00358717,-0.000320447,0.337492,0.0025051,0.0276194,678,1352,-21.859,-11.1432
-539,-328,-21.9077,11.719,0.00375066,-0.00019978,0.00149072,0.00425006,-0.000699178,0.323254,0.00309289,0.0226533,685,1352,-21.9077,-11.7191
-532,-328,-21.9299,12.3928,0.00470378,-0.000396168,0.00193946,0.00535753,-0.00104992,0.325119,0.00396823,0.0186914,692,1352,-21.9299,-12.3928
-525,-328,-21.9765,13.0656,0.00601076,-0.000598239,0.00253895,0.00687351,-0.00146099,0.327565,0.00513903,0.0334395,699,1352,-21.9765,-13.0656
-518,-328,-22.0909,13.7113,0,0,0,0,0,0,0,-1,706,1352,-22.0909,-13.7113
-511,-328,-9.39868,7.16113,0,0,0,0,0,0,0,-1,713,1352,-9.39869,-7.16113
-504,-328,-8.60626,-0.905762,0,0,0,0,0,0,0,-1,720,1352,-8.60623,0.905787
-497,-328,-9.29102,-0.0517578,0,0,0,0,0,0,0,-1,727,1352,-9.29104,0.0518175
-490,-328,-10.0663,0.882813,0,0,0,0,0,0,0,-1,734,1352,-10.0663,-0.882795
-483,-328,-10.8181,1.72375,0,0,0,0,0,0,0,-1,741,1352,-10.8181,-1.72374
-476,-328,-16.8951,-0.150757,0,0,0,0,0,0,0,-1,748,1352,-16.8951,0.150795
-469,-328,-16.8412,0.00158691,0,0,0,0,0,0,0,-1,755,1352,-16.8412,-0.00161515
-462,-328,-16.3546,-0.203491,0,0,0,0,0,0,0,-1,762,1352,-16.3545,0.203532
-455,-328,0,0,0,0,0,0,0,0,0,-1,769,1352,0,0
-448,-328,0,0,0,0,0,0,0,0,0,-1,776,1352,0,0
-441,-328,0,0,0,0,0,0,0,0,0,-1,783,1352,0,0
-434,-328,0,0,0,0,0,0,0,0,0,-1,790,1352,0,0
-427,-328,0,0,0,0,0,0,0,0,0,-1,797,1352,0,0
-420,-328,0,0,0,0,0,0,0,0,0,-1,804,1352,0,0
-413,-328,0,0,0,0,0,0,0,0,0,-1,811,1352,0,0
-406,-328,0,0,0,0,0,0,0,0,0,-1,818,1352,0,0
-399,-328,0,0,0,0,0,0,0,0,0,-1,825,1352,0,0
-392,-328,0,0,0,0,0,0,0,0,0,-1,832,1352,0,0
-385,-328,0,0,0,0,0,0,0,0,0,-1,839,1352,0,0
-378,-328,0,0,0,0,0,0,0,0,0,-1,846,1352,0,0
-371,-328,0,0,0,0,0,0,0,0,0,-1,853,1352,0,0
-364,-328,0,0,0,0,0,0,0,0,0,-1,860,1352,0,0
-357,-328,0,0,0,0,0,0,0,0,0,-1,867,1352,0,0
-350,-328,0,0,0,0,0,0,0,0,0,-1,874,1352,0,0
-343,-328,0,0,0,0,0,0,0,0,0,-1,881,1352,0,0
-336,-328,0,0,0,0,0,0,0,0,0,-1,888,1352,0,0
-329,-328,0,0,0,0,0,0,0,0,0,-1,895,1352,0,0
-322,-328,0,0,0,0,0,0,0,0,0,-1,902,1352,0,0
-315,-328,0,0,0,0,0,0,0,0,0,-1,909,1352,0,0
-308,-328,0,0,0,0,0,0,0,0,0,-1,916,1352,0,0
-301,-328,0,0,0,0,0,0,0,0,0,-1,923,1352,0,0
-294,-328,0,0,0,0,0,0,0,0,0,-1,930,1352,0,0
-287,-328,0,0,0,0,0,0,0,0,0,-1,937,1352,0,0
-280,-328,0,0,0,0,0,0,0,0,0,-1,944,1352,0,0
-273,-328,0,0,0,0,0,0,0,0,0,-1,951,1352,0,0
-266,-328,0,0,0,0,0,0,0,0,0,-1,958,1352,0,0
-259,-328,0,0,0,0,0,0,0,0,0,-1,965,1352,0,0
-252,-328,0,0,0,0,0,0,0,0,0,-1,972,1352,0,0
-245,-328,0,0,0,0,0,0,0,0,0,-1,979,1352,0,0
-238,-328,0,0,0,0,0,0,0,0,0,-1,986,1352,0,0
-231,-328,0,0,0,0,0,0,0,0,0,-1,993,1352,0,0
-224,-328,0,0,0,0,0,0,0,0,0,-1,1000,1352,0,0
-217,-328,0,0,0,0,0,0,0,0,0,-1,1007,1352,0,0
-210,-328,0,0,0,0,0,0,0,0,0,-1,1014,1352,0,0
-203,-328,0,0,0,0,0,0,0,0,0,-1,1021,1352,0,0
-196,-328,0,0,0,0,0,0,0,0,0,-1,1028,1352,0,0
-189,-328,0,0,0,0,0,0,0,0,0,-1,1035,1352,0,0
-182,-328,0,0,0,0,0,0,0,0,0,-1,1042,1352,0,0
-175,-328,0,0,0,0,0,0,0,0,0,-1,1049,1352,0,0
-168,-328,0,0,0,0,0,0,0,0,0,-1,1056,1352,0,0
-161,-328,0,0,0,0,0,0,0,0,0,-1,1063,1352,0,0
-154,-328,0,0,0,0,0,0,0,0,0,-1,1070,1352,0,0
-147,-328,0,0,0,0,0,0,0,0,0,-1,1077,1352,0,0
-140,-328,0,0,0,0,0,0,0,0,0,-1,1084,1352,0,0
-133,-328,0,0,0,0,0,0,0,0,0,-1,1091,1352,0,0
-126,-328,0,0,0,0,0,0,0,0,0,-1,1098,1352,0,0
-119,-328,0,0,0,0,0,0,0,0,0,-1,1105,1352,0,0
-112,-328,0,0,0,0,0,0,0,0,0,-1,1112,1352,0,0
-105,-328,0,0,0,0,0,0,0,0,0,-1,1119,1352,0,0
-98,-328,0,0,0,0,0,0,0,0,0,-1,1126,1352,0,0
-91,-328,0,0,0,0,0,0,0,0,0,-1,1133,1352,0,0
-84,-328,0,0,0,0,0,0,0,0,0,-1,1140,1352,0,0
-77,-328,0,0,0,0,0,0,0,0,0,-1,1147,1352,0,0
-70,-328,0,0,0,0,0,0,0,0,0,-1,1154,1352,0,0
-63,-328,0,0,0,0,0,0,0,0,0,-1,1161,1352,0,0
-56,-328,0,0,0,0,0,0,0,0,0,-1,1168,1352,0,0
-49,-328,0,0,0,0,0,0,0,0,0,-1,1175,1352,0,0
-42,-328,0,0,0,0,0,0,0,0,0,-1,1182,1352,0,0
-35,-328,0,0,0,0,0,0,0,0,0,-1,1189,1352,0,0
-28,-328,0,0,0,0,0,0,0,0,0,-1,1196,1352,0,0
-21,-328,0,0,0,0,0,0,0,0,0,-1,1203,1352,0,0
-14,-328,0,0,0,0,0,0,0,0,0,-1,1210,1352,0,0
-7,-328,0,0,0,0,0,0,0,0,0,-1,1217,1352,0,0
0,-328,0,0,0,0,0,0,0,0,0,-1,1224,1352,0,0
7,-328,0,0,0,0,0,0,0,0,0,-1,1231,1352,0,0
14,-328,0,0,0,0,0,0,0,0,0,-1,1238,1352,0,0
21,-328,0,0,0,0,0,0,0,0,0,-1,1245,1352,0,0
28,-328,0,0,0,0,0,0,0,0,0,-1,1252,1352,0,0
35,-328,0,0,0,0,0,0,0,0,0,-1,1259,1352,0,0
42,-328,0,0,0,0,0,0,0,0,0,-1,1266,1352,0,0
49,-328,0,0,0,0,0,0,0,0,0,-1,1273,1352,0,0
56,-328,0,0,0,0,0,0,0,0,0,-1,1280,1352,0,0
63,-328,0,0,0,0,0,0,0,0,0,-1,1287,1352,0,0
70,-328,0,0,0,0,0,0,0,0,0,-1,1294,1352,0,0
77,-328,0,0,0,0,0,0,0,0,0,-1,1301,1352,0,0
84,-328,0,0,0,0,0,0,0,0,0,-1,1308,1352,0,0
91,-328,0,0,0,0,0,0,0,0,0,-1,1315,1352,0,0
98,-328,0,0,0,0,0,0,0,0,0,-1,1322,1352,0,0
105,-328,0,0,0,0,0,0,0,0,0,-1,1329,1352,0,0
112,-328,0,0,0,0,0,0,0,0,0,-1,1336,1352,0,0
119,-328,0,0,0,0,0,0,0,0,0,-1,1343,1352,0,0
126,-328,0,0,0,0,0,0,0,0,0,-1,1350,1352,0,0
133,-328,0,0,0,0,0,0,0,0,0,-1,1357,1352,0,0
140,-328,0,0,0,0,0,0,0,0,0,-1,1364,1352,0,0
147,-328,0,0,0,0,0,0,0,0,0,-1,1371,1352,0,0
154,-328,0,0,0,0,0,0,0,0,0,-1,1378,1352,0,0
161,-328,0,0,0,0,0,0,0,0,0,-1,1385,1352,0,0
168,-328,0,0,0,0,0,0,0,0,0,-1,1392,1352,0,0
175,-328,0,0,0,0,0,0,0,0,0,-1,1399,1352,0,0
182,-328,0,0,0,0,0,0,0,0,0,-1,1406,1352,0,0
189,-328,0,0,0,0,0,0,0,0,0,-1,1413,1352,0,0
196,-328,0,0,0,0,0,0,0,0,0,-1,1420,1352,0,0
203,-328,0,0,0,0,0,0,0,0,0,-1,1427,1352,0,0
210,-328,0,0,0,0,0,0,0,0,0,-1,1434,1352,0,0
217,-328,0,0,0,0,0,0,0,0,0,-1,1441,1352,0,0
224,-328,0,0,0,0,0,0,0,0,0,-1,1448,1352,0,0
231,-328,0,0,0,0,0,0,0,0,0,-1,1455,1352,0,0
238,-328,0,0,0,0,0,0,0,0,0,-1,1462,1352,0,0
245,-328,0,0,0,0,0,0,0,0,0,-1,1469,1352,0,0
252,-328,0,0,0,0,0,0,0,0,0,-1,1476,1352,0,0
259,-328,0,0,0,0,0,0,0,0,0,-1,1483,1352,0,0
266,-328,0,0,0,0,0,0,0,0,0,-1,1490,1352,0,0
273,-328,0,0,0,0,0,0,0,0,0,-1,1497,1352,0,0
280,-328,0,0,0,0,0,0,0,0,0,-1,1504,1352,0,0
287,-328,0,0,0,0,0,0,0,0,0,-1,1511,1352,0,0
294,-328,0,0,0,0,0,0,0,0,0,-1,1518,1352,0,0
301,-328,0,0,0,0,0,0,0,0,0,-1,1525,1352,0,0
308,-328,0,0,0,0,0,0,0,0,0,-1,1532,1352,0,0
315,-328,0,0,0,0,0,0,0,0,0,-1,1539,1352,0,0
322,-328,0,0,0,0,0,0,0,0,0,-1,1546,1352,0,0
329,-328,0,0,0,0,0,0,0,0,0,-1,1553,1352,0,0
336,-328,0,0,0,0,0,0,0,0,0,-1,1560,1352,0,0
343,-328,0,0,0,0,0,0,0,0,0,-1,1567,1352,0,0
350,-328,0,0,0,0,0,0,0,0,0,-1,1574,1352,0,0
357,-328,0,0,0,0,0,0,0,0,0,-1,1581,1352,0,0
364,-328,0,0,0,0,0,0,0,0,0,-1,1588,1352,0,0
371,-328,0,0,0,0,0,0,0,0,0,-1,1595,1352,0,0
378,-328,0,0,0,0,0,0,0,0,0,-1,1602,1352,0,0
385,-328,0,0,0,0,0,0,0,0,0,-1,1609,1352,0,0
392,-328,0,0,0,0,0,0,0,0,0,-1,1616,1352,0,0
399,-328,0,0,0,0,0,0,0,0,0,-1,1623,1352,0,0
406,-328,0,0,0,0,0,0,0,0,0,-1,1630,1352,0,0
413,-328,0,0,0,0,0,0,0,0,0,-1,1637,1352,0,0
420,-328,0,0,0,0,0,0,0,0,0,-1,1644,1352,0,0
427,-328,0,0,0,0,0,0,0,0,0,-1,1651,1352,0,0
434,-328,0,0,0,0,0,0,0,0,0,-1,1658,1352,0,0
441,-328,0,0,0,0,0,0,0,0,0,-1,1665,1352,0,0
448,-328,0,0,0,0,0,0,0,0,0,-1,1672,1352,0,0
455,-328,0,0,0,0,0,0,0,0,0,-1,1679,1352,0,0
462,-328,0,0,0,0,0,0,0,0,0,-1,1686,1352,0,0
469,-328,0,0,0,0,0,0,0,0,0,-1,1693,1352,0,0
476,-328,0,0,0,0,0,0,0,0,0,-1,1700,1352,0,0
483,-328,0,0,0,0,0,0,0,0,0,-1,1707,1352,0,0
490,-328,0,0,0,0,0,0,0,0,0,-1,1714,1352,0,0
497,-328,0,0,0,0,0,0,0,0,0,-1,1721,1352,0,0
504,-328,0,0,0,0,0,0,0,0,0,-1,1728,1352,0,0
511,-328,0,0,0,0,0,0,0,0,0,-1,1735,1352,0,0
518,-328,0,0,0,0,0,0,0,0,0,-1,1742,1352,0,0
525,-328,0,0,0,0,0,0,0,0,0,-1,1749,1352,0,0
532,-328,0,0,0,0,0,0,0,0,0,-1,1756,1352,0,0
539,-328,0,0,0,0,0,0,0,0,0,-1,1763,1352,0,0
546,-328,0,0,0,0,0,0,0,0,0,-1,1770,1352,0,0
553,-328,0,0,0,0,0,0,0,0,0,-1,1777,1352,0,0
560,-328,0,0,0,0,0,0,0,0,0,-1,1784,1352,0,0
567,-328,0,0,0,0,0,0,0,0,0,-1,1791,1352,0,0
574,-328,58.4558,1.34363,0,0,0,0,0,0,0,-1,1798,1352,58.4558,-1.34364
581,-328,58.6575,1.03662,0,0,0,0,0,0,0,-1,1805,1352,58.6575,-1.03663
588,-328,58.8262,0.918213,0,0,0,0,0,0,0,-1,1812,1352,58.8262,-0.918189
595,-328,59.0111,0.804443,0,0,0,0,0,0,0,-1,1819,1352,59.0111,-0.804433
602,-328,48.7734,3.66785,0,0,0,0,0,0,0,-1,1826,1352,48.7734,-3.66782
609,-328,37.0468,1.17407,0,0,0,0,0,0,0,-1,1833,1352,37.0468,-1.17407
616,-328,36.999,2.42859,0,0,0,0,0,0,0,-1,1840,1352,36.999,-2.42862
623,-328,34.345,5.14722,0,0,0,0,0,0,0,-1,1847,1352,34.3449,-5.14718
630,-328,22.0211,5.026,0,0,0,0,0,0,0,-1,1854,1352,22.0212,-5.02603
637,-328,21.15,5.53699,0,0,0,0,0,0,0,-1,1861,1352,21.15,-5.53704
644,-328,16.9579,6.3396,0,0,0,0,0,0,0,-1,1868,1352,16.9579,-6.33959
651,-328,36.2629,14.6906,0,0,0,0,0,0,0,-1,1875,1352,36.263,-14.6905
658,-328,37.9409,14.7437,0,0,0,0,0,0,0,-1,1882,1352,37.9409,-14.7437
665,-328,37.9653,14.1383,0.000362647,-0.000323377,-0.000197291,0.000415338,-0.000376068,-0.260981,0.000457106,0.0150559,1889,1352,37.9654,-14.1383
672,-328,37.9336,13.5455,0.000766681,-0.000321629,-0.000232402,0.000814232,-0.00036918,-0.201819,0.000699163,0.012214,1896,1352,37.9336,-13.5455
679,-328,37.9019,12.9398,0.00115128,-0.000185663,-0.000263785,0.00120144,-0.000235827,-0.187926,0.000890045,0.0154193,1903,1352,37.9019,-12.9399
686,-328,37.8528,12.3215,0.00154454,-3.02197e-05,-0.000301973,0.00160046,-8.61397e-05,-0.183108,0.00109682,0.0157151,1910,1352,37.8528,-12.3215
693,-328,37.8362,11.7267,0.00190785,0.000137648,-0.000342683,0.00197187,7.36257e-05,-0.184698,0.00129074,0.0102993,1917,1352,37.8362,-11.7267
700,-328,37.8375,11.1188,0.00227821,0.000331549,-0.000379722,0.00234965,0.000260101,-0.185983,0.00148734,0.0140237,1924,1352,37.8375,-11.1188
707,-328,37.8291,10.5187,0.00257449,0.000521069,-0.000380425,0.00264271,0.000452856,-0.177422,0.00163193,0.0163447,1931,1352,37.8291,-10.5187
714,-328,37.8071,9.91357,0.00278496,0.000687207,-0.000336248,0.00283754,0.000634627,-0.155114,0.00171964,0.0172323,1938,1352,37.8071,-9.91362
721,-328,37.7926,9.22791,0,0,0,0,0,0,0,-1,1945,1352,37.7926,-9.22795
728,-328,29.2787,6.74695,0,0,0,0,0,0,0,-1,1952,1352,29.2787,-6.74693
735,-328,20.8927,5.23523,0,0,0,0,0,0,0,-1,1959,1352,20.8927,-5.23528
742,-328,20.3547,4.11316,0,0,0,0,0,0,0,-1,1966,1352,20.3547,-4.11321
749,-328,20.0669,5.66321,0,0,0,0,0,0,0,-1,1973,1352,20.0669,-5.66319
756,-328,19.9543,5.50464,0,0,0,0,0,0,0,-1,1980,1352,19.9543,-5.50463
763,-328,0,0,0,0,0,0,0,0,0,-1,1987,1352,0,0
770,-328,0,0,0,0,0,0,0,0,0,-1,1994,1352,0,0
777,-328,0,0,0,0,0,0,0,0,0,-1,2001,1352,0,0
784,-328,0,0,0,0,0,0,0,0,0,-1,2008,1352,0,0
791,-328,0,0,0,0,0,0,0,0,0,-1,2015,1352,0,0
798,-328,0,0,0,0,0,0,0,0,0,-1,2022,1352,0,0
805,-328,0,0,0,0,0,0,0,0,0,-1,2029,1352,0,0
812,-328,0,0,0,0,0,0,0,0,0,-1,2036,1352,0,0
-700,-335,0,0,0,0,0,0,0,0,0,-1,524,1359,0,0
-693,-335,0,0,0,0,0,0,0,0,0,-1,531,1359,0,0
-686,-335,0,0,0,0,0,0,0,0,0,-1,538,1359,0,0
-679,-335,0,0,0,0,0,0,0,0,0,-1,545,1359,0,0
-672,-335,0,0,0,0,0,0,0,0,0,-1,552,1359,0,0
-665,-335,0,0,0,0,0,0,0,0,0,-1,559,1359,0,0
-658,-335,0,0,0,0,0,0,0,0,0,-1,566,1359,0,0
-651,-335,0,0,0,0,0,0,0,0,0,-1,573,1359,0,0
-644,-335,0,0,0,0,0,0,0,0,0,-1,580,1359,0,0
-637,-335,-62.7114,11.0491,0,0,0,0,0,0,0,-1,587,1359,-62.7114,-11.0491
-630,-335,-64.2532,9.91284,0,0,0,0,0,0,0,-1,594,1359,-64.2532,-9.91285
-623,-335,-8.43304,1.09509,0,0,0,0,0,0,0,-1,601,1359,-8.43301,-1.09507
-616,-335,-7.80927,-0.485352,0,0,0,0,0,0,0,-1,608,1359,-7.80926,0.485291
-609,-335,-7.12256,-2.03601,0,0,0,0,0,0,0,-1,615,1359,-7.12253,2.03601
-602,-335,-9.39935,2.25146,0,0,0,0,0,0,0,-1,622,1359,-9.39935,-2.25145
-595,-335,-9.54767,3.01917,0,0,0,0,0,0,0,-1,629,1359,-9.54768,-3.01911
-588,-335,-21.3068,6.89136,0,0,0,0,0,0,0,-1,636,1359,-21.3067,-6.8913
-581,-335,-21.1508,7.8949,0.0050932,0.00301552,0.00220919,0.00649561,0.0016131,0.565622,0.00390538,0.0449303,643,1359,-21.1508,-7.89486
-574,-335,-21.1691,8.5011,0.00396948,0.00227925,0.00176958,0.0050854,0.00116334,0.562623,0.00307669,0.0148654,650,1359,-21.1691,-8.50113
-567,-335,-21.1531,9.16565,0.00327677,0.00164803,0.00144447,0.00412063,0.000804178,0.528716,0.00252213,0.0177692,657,1359,-21.1531,-9.16566
-560,-335,-21.1425,9.81494,0.00293544,0.00112857,0.00128171,0.00360012,0.00046389,0.478405,0.00226137,0.0249073,664,1359,-21.1425,-9.81491
-553,-335,-21.1882,10.4978,0.00285383,0.000695104,0.00123683,0.00341605,0.000132888,0.42664,0.00223439,0.0282402,671,1359,-21.1882,-10.4979
-546,-335,-21.2479,11.1432,0.00303163,0.000334653,0.00130417,0.00355912,-0.000192835,0.384347,0.00243957,0.0259065,678,1359,-21.2478,-11.1431
-539,-335,-21.299,11.7317,0.00347458,5.70356e-05,0.00150408,0.00404224,-0.000510629,0.360887,0.00288017,0.0204351,685,1359,-21.2989,-11.7317
-532,-335,-21.3514,12.4211,0.00423477,-0.000112465,0.00186541,0.00492548,-0.000803176,0.35462,0.00358153,0.015992,692,1359,-21.3514,-12.4211
-525,-335,-21.3029,13.1134,0.00531021,-0.000240947,0.00237138,0.00618528,-0.00111602,0.353513,0.00454147,0.0131844,699,1359,-21.3029,-13.1135
-518,-335,-21.2011,13.7124,0,0,0,0,0,0,0,-1,706,1359,-21.2011,-13.7124
-511,-335,-17.3098,11.6718,0,0,0,0,0,0,0,-1,713,1359,-17.3097,-11.6717
-504,-335,-9.35767,5.99695,0,0,0,0,0,0,0,-1,720,1359,-9.35767,-5.99694
-497,-335,-8.75024,-0.650513,0,0,0,0,0,0,0,-1,727,1359,-8.75024,0.650521
-490,-335,-9.51971,0.417603,0,0,0,0,0,0,0,-1,734,1359,-9.51974,-0.41765
-483,-335,-10.2883,1.29224,0,0,0,0,0,0,0,-1,741,1359,-10.2883,-1.2922
-476,-335,-11.9938,-0.173462,0,0,0,0,0,0,0,-1,748,1359,-11.9938,0.173429
-469,-335,-12.8704,-0.204102,0,0,0,0,0,0,0,-1,755,1359,-12.8704,0.204117
-462,-335,-13.486,0.0218506,0,0,0,0,0,0,0,-1,762,1359,-13.4859,-0.0217908
-455,-335,-14.1504,0.549561,0,0,0,0,0,0,0,-1,769,1359,-14.1504,-0.549583
-448,-335,0,0,0,0,0,0,0,0,0,-1,776,1359,0,0
-441,-335,0,0,0,0,0,0,0,0,0,-1,783,1359,0,0
-434,-335,0,0,0,0,0,0,0,0,0,-1,790,1359,0,0
-427,-335,0,0,0,0,0,0,0,0,0,-1,797,1359,0,0
-420,-335,0,0,0,0,0,0,0,0,0,-1,804,1359,0,0
-413,-335,0,0,0,0,0,0,0,0,0,-1,811,1359,0,0
-406,-335,0,0,0,0,0,0,0,0,0,-1,818,1359,0,0
-399,-335,0,0,0,0,0,0,0,0,0,-1,825,1359,0,0
-392,-335,0,0,0,0,0,0,0,0,0,-1,832,1359,0,0
-385,-335,0,0,0,0,0,0,0,0,0,-1,839,1359,0,0
-378,-335,0,0,0,0,0,0,0,0,0,-1,846,1359,0,0
-371,-335,0,0,0,0,0,0,0,0,0,-1,853,1359,0,0
-364,-335,0,0,0,0,0,0,0,0,0,-1,860,1359,0,0
-357,-335,0,0,0,0,0,0,0,0,0,-1,867,1359,0,0
-350,-335,0,0,0,0,0,0,0,0,0,-1,874,1359,0,0
-343,-335,0,0,0,0,0,0,0,0,0,-1,881,1359,0,0
-336,-335,0,0,0,0,0,0,0,0,0,-1,888,1359,0,0
-329,-335,0,0,0,0,0,0,0,0,0,-1,895,1359,0,0
-322,-335,0,0,0,0,0,0,0,0,0,-1,902,1359,0,0
-315,-335,0,0,0,0,0,0,0,0,0,-1,909,1359,0,0
-308,-335,0,0,0,0,0,0,0,0,0,-1,916,1359,0,0
-301,-335,0,0,0,0,0,0,0,0,0,-1,923,1359,0,0
-294,-335,0,0,0,0,0,0,0,0,0,-1,930,1359,0,0
-287,-335,0,0,0,0,0,0,0,0,0,-1,937,1359,0,0
-280,-335,0,0,0,0,0,0,0,0,0,-1,944,1359,0,0
-273,-335,0,0,0,0,0,0,0,0,0,-1,951,1359,0,0
-266,-335,0,0,0,0,0,0,0,0,0,-1,958,1359,0,0
-259,-335,0,0,0,0,0,0,0,0,0,-1,965,1359,0,0
-252,-335,0,0,0,0,0,0,0,0,0,-1,972,1359,0,0
-245,-335,0,0,0,0,0,0,0,0,0,-1,979,1359,0,0
-238,-335,0,0,0,0,0,0,0,0,0,-1,986,1359,0,0
-231,-335,0,0,0,0,0,0,0,0,0,-1,993,1359,0,0
-224,-335,0,0,0,0,0,0,0,0,0,-1,1000,1359,0,0
-217,-335,0,0,0,0,0,0,0,0,0,-1,1007,1359,0,0
-210,-335,0,0,0,0,0,0,0,0,0,-1,1014,1359,0,0
-203,-335,0,0,0,0,0,0,0,0,0,-1,1021,1359,0,0
-196,-335,0,0,0,0,0,0,0,0,0,-1,1028,1359,0,0
-189,-335,0,0,0,0,0,0,0,0,0,-1,1035,1359,0,0
-182,-335,0,0,0,0,0,0,0,0,0,-1,1042,1359,0,0
-175,-335,0,0,0,0,0,0,0,0,0,-1,1049,1359,0,0
-168,-335,0,0,0,0,0,0,0,0,0,-1,1056,1359,0,0
-161,-335,0,0,0,0,0,0,0,0,0,-1,1063,1359,0,0
-154,-335,0,0,0,0,0,0,0,0,0,-1,1070,1359,0,0
-147,-335,0,0,0,0,0,0,0,0,0,-1,1077,1359,0,0
-140,-335,0,0,0,0,0,0,0,0,0,-1,1084,1359,0,0
-133,-335,0,0,0,0,0,0,0,0,0,-1,1091,1359,0,0
-126,-335,0,0,0,0,0,0,0,0,0,-1,1098,1359,0,0
-119,-335,0,0,0,0,0,0,0,0,0,-1,1105,1359,0,0
-112,-335,0,0,0,0,0,0,0,0,0,-1,1112,1359,0,0
-105,-335,0,0,0,0,0,0,0,0,0,-1,1119,1359,0,0
-98,-335,0,0,0,0,0,0,0,0,0,-1,1126,1359,0,0
-91,-335,0,0,0,0,0,0,0,0,0,-1,1133,1359,0,0
-84,-335,0,0,0,0,0,0,0,0,0,-1,1140,1359,0,0
-77,-335,0,0,0,0,0,0,0,0,0,-1,1147,1359,0,0
-70,-335,0,0,0,0,0,0,0,0,0,-1,1154,1359,0,0
-63,-335,0,0,0,0,0,0,0,0,0,-1,1161,1359,0,0
-56,-335,0,0,0,0,0,0,0,0,0,-1,1168,1359,0,0
-49,-335,0,0,0,0,0,0,0,0,0,-1,1175,1359,0,0
-42,-335,0,0,0,0,0,0,0,0,0,-1,1182,1359,0,0
-35,-335,0,0,0,0,0,0,0,0,0,-1,1189,1359,0,0
-28,-335,0,0,0,0,0,0,0,0,0,-1,1196,1359,0,0
-21,-335,0,0,0,0,0,0,0,0,0,-1,1203,1359,0,0
-14,-335,0,0,0,0,0,0,0,0,0,-1,1210,1359,0,0
-7,-335,0,0,0,0,0,0,0,0,0,-1,1217,1359,0,0
0,-335,0,0,0,0,0,0,0,0,0,-1,1224,1359,0,0
7,-335,0,0,0,0,0,0,0,0,0,-1,1231,1359,0,0
14,-335,0,0,0,0,0,0,0,0,0,-1,1238,1359,0,0
21,-335,0,0,0,0,0,0,0,0,0,-1,1245,1359,0,0
28,-335,0,0,0,0,0,0,0,0,0,-1,1252,1359,0,0
35,-335,0,0,0,0,0,0,0,0,0,-1,1259,1359,0,0
42,-335,0,0,0,0,0,0,0,0,0,-1,1266,1359,0,0
49,-335,0,0,0,0,0,0,0,0,0,-1,1273,1359,0,0
56,-335,0,0,0,0,0,0,0,0,0,-1,1280,1359,0,0
63,-335,0,0,0,0,0,0,0,0,0,-1,1287,1359,0,0
70,-335,0,0,0,0,0,0,0,0,0,-1,1294,1359,0,0
77,-335,0,0,0,0,0,0,0,0,0,-1,1301,1359,0,0
84,-335,0,0,0,0,0,0,0,0,0,-1,1308,1359,0,0
91,-335,0,0,0,0,0,0,0,0,0,-1,1315,1359,0,0
98,-335,0,0,0,0,0,0,0,0,0,-1,1322,1359,0,0
105,-335,0,0,0,0,0,0,0,0,0,-1,1329,1359,0,0
112,-335,0,0,0,0,0,0,0,0,0,-1,1336,1359,0,0
119,-335,0,0,0,0,0,0,0,0,0,-1,1343,1359,0,0
126,-335,0,0,0,0,0,0,0,0,0,-1,1350,1359,0,0
133,-335,0,0,0,0,0,0,0,0,0,-1,1357,1359,0,0
140,-335,0,0,0,0,0,0,0,0,0,-1,1364,1359,0,0
147,-335,0,0,0,0,0,0,0,0,0,-1,1371,1359,0,0
154,-335,0,0,0,0,0,0,0,0,0,-1,1378,1359,0,0
161,-335,0,0,0,0,0,0,0,0,0,-1,1385,1359,0,0
168,-335,0,0,0,0,0,0,0,0,0,-1,1392,1359,0,0
175,-335,0,0,0,0,0,0,0,0,0,-1,1399,1359,0,0
182,-335,0,0,0,0,0,0,0,0,0,-1,1406,1359,0,0
189,-335,0,0,0,0,0,0,0,0,0,-1,1413,1359,0,0
196,-335,0,0,0,0,0,0,0,0,0,-1,1420,1359,0,0
203,-335,0,0,0,0,0,0,0,0,0,-1,1427,1359,0,0
210,-335,0,0,0,0,0,0,0,0,0,-1,1434,1359,0,0
217,-335,0,0,0,0,0,0,0,0,0,-1,1441,1359,0,0
224,-335,0,0,0,0,0,0,0,0,0,-1,1448,1359,0,0
231,-335,0,0,0,0,0,0,0,0,0,-1,1455,1359,0,0
238,-335,0,0,0,0,0,0,0,0,0,-1,1462,1359,0,0
245,-335,0,0,0,0,0,0,0,0,0,-1,1469,1359,0,0
252,-335,0,0,0,0,0,0,0,0,0,-1,1476,1359,0,0
259,-335,0,0,0,0,0,0,0,0,0,-1,1483,1359,0,0
266,-335,0,0,0,0,0,0,0,0,0,-1,1490,1359,0,0
273,-335,0,0,0,0,0,0,0,0,0,-1,1497,1359,0,0
280,-335,0,0,0,0,0,0,0,0,0,-1,1504,1359,0,0
287,-335,0,0,0,0,0,0,0,0,0,-1,1511,1359,0,0
294,-335,0,0,0,0,0,0,0,0,0,-1,1518,1359,0,0
301,-335,0,0,0,0,0,0,0,0,0,-1,1525,1359,0,0
308,-335,0,0,0,0,0,0,0,0,0,-1,1532,1359,0,0
315,-335,0,0,0,0,0,0,0,0,0,-1,1539,1359,0,0
322,-335,0,0,0,0,0,0,0,0,0,-1,1546,1359,0,0
329,-335,0,0,0,0,0,0,0,0,0,-1,1553,1359,0,0
336,-335,0,0,0,0,0,0,0,0,0,-1,1560,1359,0,0
343,-335,0,0,0,0,0,0,0,0,0,-1,1567,1359,0,0
350,-335,0,0,0,0,0,0,0,0,0,-1,1574,1359,0,0
357,-335,0,0,0,0,0,0,0,0,0,-1,1581,1359,0,0
364,-335,0,0,0,0,0,0,0,0,0,-1,1588,1359,0,0
371,-335,0,0,0,0,0,0,0,0,0,-1,1595,1359,0,0
378,-335,0,0,0,0,0,0,0,0,0,-1,1602,1359,0,0
385,-335,0,0,0,0,0,0,0,0,0,-1,1609,1359,0,0
392,-335,0,0,0,0,0,0,0,0,0,-1,1616,1359,0,0
399,-335,0,0,0,0,0,0,0,0,0,-1,1623,1359,0,0
406,-335,0,0,0,0,0,0,0,0,0,-1,1630,1359,0,0
413,-335,0,0,0,0,0,0,0,0,0,-1,1637,1359,0,0
420,-335,0,0,0,0,0,0,0,0,0,-1,1644,1359,0,0
427,-335,0,0,0,0,0,0,0,0,0,-1,1651,1359,0,0
434,-335,0,0,0,0,0,0,0,0,0,-1,1658,1359,0,0
441,-335,0,0,0,0,0,0,0,0,0,-1,1665,1359,0,0
448,-335,0,0,0,0,0,0,0,0,0,-1,1672,1359,0,0
455,-335,0,0,0,0,0,0,0,0,0,-1,1679,1359,0,0
462,-335,0,0,0,0,0,0,0,0,0,-1,1686,1359,0,0
469,-335,0,0,0,0,0,0,0,0,0,-1,1693,1359,0,0
476,-335,0,0,0,0,0,0,0,0,0,-1,1700,1359,0,0
483,-335,0,0,0,0,0,0,0,0,0,-1,1707,1359,0,0
490,-335,0,0,0,0,0,0,0,0,0,-1,1714,1359,0,0
497,-335,0,0,0,0,0,0,0,0,0,-1,1721,1359,0,0
504,-335,0,0,0,0,0,0,0,0,0,-1,1728,1359,0,0
511,-335,0,0,0,0,0,0,0,0,0,-1,1735,1359,0,0
518,-335,0,0,0,0,0,0,0,0,0,-1,1742,1359,0,0
525,-335,0,0,0,0,0,0,0,0,0,-1,1749,1359,0,0
532,-335,0,0,0,0,0,0,0,0,0,-1,1756,1359,0,0
539,-335,0,0,0,0,0,0,0,0,0,-1,1763,1359,0,0
546,-335,0,0,0,0,0,0,0,0,0,-1,1770,1359,0,0
553,-335,0,0,0,0,0,0,0,0,0,-1,1777,1359,0,0
560,-335,0,0,0,0,0,0,0,0,0,-1,1784,1359,0,0
567,-335,0,0,0,0,0,0,0,0,0,-1,1791,1359,0,0
574,-335,58.0887,0.573853,0,0,0,0,0,0,0,-1,1798,1359,58.0887,-0.573905
581,-335,57.8474,0.28833,0,0,0,0,0,0,0,-1,1805,1359,57.8474,-0.28839
588,-335,58.4113,0.081665,0,0,0,0,0,0,0,-1,1812,1359,58.4113,-0.0816863
595,-335,49.984,3.76465,0,0,0,0,0,0,0,-1,1819,1359,49.984,-3.76467
602,-335,36.5643,0.0861816,0,0,0,0,0,0,0,-1,1826,1359,36.5643,-0.0862283
609,-335,36.2933,0.993896,0,0,0,0,0,0,0,-1,1833,1359,36.2934,-0.993911
616,-335,34.6969,4.82666,0,0,0,0,0,0,0,-1,1840,1359,34.6969,-4.82667
623,-335,26.6051,6.54333,0,0,0,0,0,0,0,-1,1847,1359,26.6051,-6.54339
630,-335,19.1707,1.00952,0,0,0,0,0,0,0,-1,1854,1359,19.1707,-1.00953
637,-335,18.2009,6.65454,0,0,0,0,0,0,0,-1,1861,1359,18.2009,-6.6546
644,-335,28.1042,12.067,0,0,0,0,0,0,0,-1,1868,1359,28.1042,-12.067
651,-335,37.2905,15.4821,0,0,0,0,0,0,0,-1,1875,1359,37.2905,-15.4821
658,-335,37.3368,14.812,-0.000362871,0.000192515,-0.000322387,0.000340318,-0.000510674,-1.14093,0.000494591,0.031288,1882,1359,37.3369,-14.812
665,-335,37.3602,14.1742,0.000143607,-9.41015e-05,-0.000208523,0.00026477,-0.000215265,-0.526371,0.000277639,0.0146437,1889,1359,37.3603,-14.1742
672,-335,37.3246,13.5808,0.000700966,-0.000130251,-0.000244353,0.000767477,-0.000196762,-0.265753,0.00058831,0.0175077,1896,1359,37.3246,-13.5807
679,-335,37.2877,12.9877,0.00126989,-6.34067e-05,-0.000307901,0.00133756,-0.000131077,-0.216339,0.000938452,0.0161565,1903,1359,37.2877,-12.9877
686,-335,37.2833,12.3416,0.00187343,7.10554e-05,-0.00040669,0.00196094,-1.64611e-05,-0.21196,0.00131282,0.0139692,1910,1359,37.2833,-12.3416
693,-335,37.2496,11.7389,0.00248334,0.000239558,-0.000522585,0.00259908,0.000123817,-0.217961,0.00169296,0.0113241,1917,1359,37.2496,-11.7388
700,-335,37.2216,11.1544,0.00311553,0.000462662,-0.000655052,0.00326846,0.000309731,-0.229356,0.00208342,0.0116535,1924,1359,37.2215,-11.1545
707,-335,37.2014,10.5552,0.00366739,0.000705435,-0.000746336,0.00384482,0.000528006,-0.2334,0.0024066,0.0146922,1931,1359,37.2014,-10.5551
714,-335,37.2144,9.85742,0.00418546,0.000962964,-0.000811304,0.00437819,0.000770235,-0.233232,0.00269894,0.0354936,1938,1359,37.2144,-9.85744
721,-335,37.1461,9.06177,0,0,0,0,0,0,0,-1,1945,1359,37.1461,-9.06182
728,-335,20.8126,5.21167,0,0,0,0,0,0,0,-1,1952,1359,20.8127,-5.21172
735,-335,20.2725,5.34729,0,0,0,0,0,0,0,-1,1959,1359,20.2724,-5.34734
742,-335,19.8624,4.72229,0,0,0,0,0,0,0,-1,1966,1359,19.8624,-4.72225
749,-335,20.5887,6.05322,0,0,0,0,0,0,0,-1,1973,1359,20.5887,-6.05322
756,-335,20.7832,6.00452,0,0,0,0,0,0,0,-1,1980,1359,20.7832,-6.00447
763,-335,0,0,0,0,0,0,0,0,0,-1,1987,1359,0,0
770,-335,0,0,0,0,0,0,0,0,0,-1,1994,1359,0,0
777,-335,0,0,0,0,0,0,0,0,0,-1,2001,1359,0,0
784,-335,0,0,0,0,0,0,0,0,0,-1,2008,1359,0,0
791,-335,0,0,0,0,0,0,0,0,0,-1,2015,1359,0,0
798,-335,0,0,0,0,0,0,0,0,0,-1,2022,1359,0,0
805,-335,0,0,0,0,0,0,0,0,0,-1,2029,1359,0,0
812,-335,0,0,0,0,0,0,0,0,0,-1,2036,1359,0,0
-700,-342,0,0,0,0,0,0,0,0,0,-1,524,1366,0,0
-693,-342,0,0,0,0,0,0,0,0,0,-1,531,1366,0,0
-686,-342,0,0,0,0,0,0,0,0,0,-1,538,1366,0,0
-679,-342,0,0,0,0,0,0,0,0,0,-1,545,1366,0,0
-672,-342,0,0,0,0,0,0,0,0,0,-1,552,1366,0,0
-665,-342,0,0,0,0,0,0,0,0,0,-1,559,1366,0,0
-658,-342,0,0,0,0,0,0,0,0,0,-1,566,1366,0,0
-651,-342,0,0,0,0,0,0,0,0,0,-1,573,1366,0,0
-644,-342,0,0,0,0,0,0,0,0,0,-1,580,1366,0,0
-637,-342,-63.7546,12.2344,0,0,0,0,0,0,0,-1,587,1366,-63.7546,-12.2343
-630,-342,-8.60132,2.71777,0,0,0,0,0,0,0,-1,594,1366,-8.60135,-2.71779
-623,-342,-8.41168,0.662476,0,0,0,0,0,0,0,-1,601,1366,-8.41168,-0.662442
-616,-342,-6.625,-1.28015,0,0,0,0,0,0,0,-1,608,1366,-6.62499,1.28011
-609,-342,-7.83154,0.674561,0,0,0,0,0,0,0,-1,615,1366,-7.83155,-0.674598
-602,-342,-9.65765,2.25195,0,0,0,0,0,0,0,-1,622,1366,-9.65767,-2.25192
-595,-342,-9.47687,3.00671,0,0,0,0,0,0,0,-1,629,1366,-9.47686,-3.00668
-588,-342,-9.78467,3.57727,0,0,0,0,0,0,0,-1,636,1366,-9.78468,-3.57723
-581,-342,-20.566,7.724,0,0,0,0,0,0,0,-1,643,1366,-20.566,-7.72394
-574,-342,-20.5623,8.53845,0.00448117,0.00251166,0.00207027,0.00578897,0.00120387,0.563403,0.00352718,0.0171863,650,1366,-20.5623,-8.53848
-567,-342,-20.4706,9.19177,0.00360207,0.00185182,0.00168043,0.00462159,0.000832299,0.545335,0.00284451,0.0169032,657,1366,-20.4706,-9.19178
-560,-342,-20.5161,9.83643,0.00312988,0.00131363,0.00145687,0.00393848,0.000505023,0.506696,0.00247455,0.0248224,664,1366,-20.516,-9.83646
-553,-342,-20.5782,10.4872,0.00293193,0.000881289,0.00135516,0.00360595,0.000207272,0.461541,0.00233794,0.0302056,671,1366,-20.5783,-10.4872
-546,-342,-20.5891,11.0991,0.00298382,0.0005333,0.00136279,0.00359117,-7.40503e-05,0.419244,0.00241918,0.030567,678,1366,-20.5891,-11.0991
-539,-342,-20.6792,11.7522,0.00328216,0.000271811,0.00149085,0.00389552,-0.000341546,0.390308,0.00271802,0.0239436,685,1366,-20.6792,-11.7522
-532,-342,-20.7164,12.4583,0.00385574,0.000120111,0.00176627,0.00455861,-0.000582764,0.378732,0.00325079,0.0184307,692,1366,-20.7164,-12.4583
-525,-342,-20.6593,13.1584,0.00470132,4.78315e-05,0.00218251,0.00556473,-0.000815578,0.376711,0.00400943,0.0140044,699,1366,-20.6593,-13.1585
-518,-342,-20.5873,13.8328,0.00598107,0.000247259,0.0027751,0.00710419,-0.000875866,0.384564,0.00505345,0.0377404,706,1366,-20.5873,-13.8327
-511,-342,-20.5757,14.4717,0,0,0,0,0,0,0,-1,713,1366,-20.5758,-14.4717
-504,-342,-8.95709,6.5719,0,0,0,0,0,0,0,-1,720,1366,-8.95707,-6.57192
-497,-342,-8.26587,-0.943604,0,0,0,0,0,0,0,-1,727,1366,-8.26586,0.943543
-490,-342,-9.07153,-0.0227051,0,0,0,0,0,0,0,-1,734,1366,-9.07155,0.0227087
-483,-342,-9.87726,0.898071,0,0,0,0,0,0,0,-1,741,1366,-9.87724,-0.898125
-476,-342,-11.6371,-0.736328,0,0,0,0,0,0,0,-1,748,1366,-11.6371,0.736281
-469,-342,-12.6245,-0.987549,0,0,0,0,0,0,0,-1,755,1366,-12.6245,0.987553
-462,-342,-13.0912,-0.533203,0,0,0,0,0,0,0,-1,762,1366,-13.0912,0.533224
-455,-342,-13.7612,0.122925,0,0,0,0,0,0,0,-1,769,1366,-13.7612,-0.122896
-448,-342,-14.5278,0.826904,0,0,0,0,0,0,0,-1,776,1366,-14.5277,-0.826861
-441,-342,0,0,0,0,0,0,0,0,0,-1,783,1366,0,0
-434,-342,0,0,0,0,0,0,0,0,0,-1,790,1366,0,0
-427,-342,0,0,0,0,0,0,0,0,0,-1,797,1366,0,0
-420,-342,0,0,0,0,0,0,0,0,0,-1,804,1366,0,0
-413,-342,0,0,0,0,0,0,0,0,0,-1,811,1366,0,0
-406,-342,0,0,0,0,0,0,0,0,0,-1,818,1366,0,0
-399,-342,0,0,0,0,0,0,0,0,0,-1,825,1366,0,0
-392,-342,0,0,0,0,0,0,0,0,0,-1,832,1366,0,0
-385,-342,0,0,0,0,0,0,0,0,0,-1,839,1366,0,0
-378,-342,0,0,0,0,0,0,0,0,0,-1,846,1366,0,0
-371,-342,0,0,0,0,0,0,0,0,0,-1,853,1366,0,0
-364,-342,0,0,0,0,0,0,0,0,0,-1,860,1366,0,0
-357,-342,0,0,0,0,0,0,0,0,0,-1,867,1366,0,0
-350,-342,0,0,0,0,0,0,0,0,0,-1,874,1366,0,0
-343,-342,0,0,0,0,0,0,0,0,0,-1,881,1366,0,0
-336,-342,0,0,0,0,0,0,0,0,0,-1,888,1366,0,0
-329,-342,0,0,0,0,0,0,0,0,0,-1,895,1366,0,0
-322,-342,0,0,0,0,0,0,0,0,0,-1,902,1366,0,0
-315,-342,0,0,0,0,0,0,0,0,0,-1,909,1366,0,0
-308,-342,0,0,0,0,0,0,0,0,0,-1,916,1366,0,0
-301,-342,0,0,0,0,0,0,0,0,0,-1,923,1366,0,0
-294,-342,0,0,0,0,0,0,0,0,0,-1,930,1366,0,0
-287,-342,0,0,0,0,0,0,0,0,0,-1,937,1366,0,0
-280,-342,0,0,0,0,0,0,0,0,0,-1,944,1366,0,0
-273,-342,0,0,0,0,0,0,0,0,0,-1,951,1366,0,0
-266,-342,0,0,0,0,0,0,0,0,0,-1,958,1366,0,0
-259,-342,0,0,0,0,0,0,0,0,0,-1,965,1366,0,0
-252,-342,0,0,0,0,0,0,0,0,0,-1,972,1366,0,0
-245,-342,0,0,0,0,0,0,0,0,0,-1,979,1366,0,0
-238,-342,0,0,0,0,0,0,0,0,0,-1,986,1366,0,0
-231,-342,0,0,0,0,0,0,0,0,0,-1,993,1366,0,0
-224,-342,0,0,0,0,0,0,0,0,0,-1,1000,1366,0,0
-217,-342,0,0,0,0,0,0,0,0,0,-1,1007,1366,0,0
-210,-342,0,0,0,0,0,0,0,0,0,-1,1014,1366,0,0
-203,-342,0,0,0,0,0,0,0,0,0,-1,1021,1366,0,0
-196,-342,0,0,0,0,0,0,0,0,0,-1,1028,1366,0,0
-189,-342,0,0,0,0,0,0,0,0,0,-1,1035,1366,0,0
-182,-342,0,0,0,0,0,0,0,0,0,-1,1042,1366,0,0
-175,-342,0,0,0,0,0,0,0,0,0,-1,1049,1366,0,0
-168,-342,0,0,0,0,0,0,0,0,0,-1,1056,1366,0,0
-161,-342,0,0,0,0,0,0,0,0,0,-1,1063,1366,0,0
-154,-342,0,0,0,0,0,0,0,0,0,-1,1070,1366,0,0
-147,-342,0,0,0,0,0,0,0,0,0,-1,1077,1366,0,0
-140,-342,0,0,0,0,0,0,0,0,0,-1,1084,1366,0,0
-133,-342,0,0,0,0,0,0,0,0,0,-1,1091,1366,0,0
-126,-342,0,0,0,0,0,0,0,0,0,-1,1098,1366,0,0
-119,-342,0,0,0,0,0,0,0,0,0,-1,1105,1366,0,0
-112,-342,0,0,0,0,0,0,0,0,0,-1,1112,1366,0,0
-105,-342,0,0,0,0,0,0,0,0,0,-1,1119,1366,0,0
-98,-342,0,0,0,0,0,0,0,0,0,-1,1126,1366,0,0
-91,-342,0,0,0,0,0,0,0,0,0,-1,1133,1366,0,0
-84,-342,0,0,0,0,0,0,0,0,0,-1,1140,1366,0,0
-77,-342,0,0,0,0,0,0,0,0,0,-1,1147,1366,0,0
-70,-342,0,0,0,0,0,0,0,0,0,-1,1154,1366,0,0
-63,-342,0,0,0,0,0,0,0,0,0,-1,1161,1366,0,0
-56,-342,0,0,0,0,0,0,0,0,0,-1,1168,1366,0,0
-49,-342,0,0,0,0,0,0,0,0,0,-1,1175,1366,0,0
-42,-342,0,0,0,0,0,0,0,0,0,-1,1182,1366,0,0
-35,-342,0,0,0,0,0,0,0,0,0,-1,1189,1366,0,0
-28,-342,0,0,0,0,0,0,0,0,0,-1,1196,1366,0,0
-21,-342,0,0,0,0,0,0,0,0,0,-1,1203,1366,0,0
-14,-342,0,0,0,0,0,0,0,0,0,-1,1210,1366,0,0
-7,-342,0,0,0,0,0,0,0,0,0,-1,1217,1366,0,0
0,-342,0,0,0,0,0,0,0,0,0,-1,1224,1366,0,0
7,-342,0,0,0,0,0,0,0,0,0,-1,1231,1366,0,0
14,-342,0,0,0,0,0,0,0,0,0,-1,1238,1366,0,0
21,-342,0,0,0,0,0,0,0,0,0,-1,1245,1366,0,0
28,-342,0,0,0,0,0,0,0,0,0,-1,1252,1366,0,0
35,-342,0,0,0,0,0,0,0,0,0,-1,1259,1366,0,0
42,-342,0,0,0,0,0,0,0,0,0,-1,1266,1366,0,0
49,-342,0,0,0,0,0,0,0,0,0,-1,1273,1366,0,0
56,-342,0,0,0,0,0,0,0,0,0,-1,1280,1366,0,0
63,-342,0,0,0,0,0,0,0,0,0,-1,1287,1366,0,0
70,-342,0,0,0,0,0,0,0,0,0,-1,1294,1366,0,0
77,-342,0,0,0,0,0,0,0,0,0,-1,1301,1366,0,0
84,-342,0,0,0,0,0,0,0,0,0,-1,1308,1366,0,0
91,-342,0,0,0,0,0,0,0,0,0,-1,1315,1366,0,0
98,-342,0,0,0,0,0,0,0,0,0,-1,1322,1366,0,0
105,-342,0,0,0,0,0,0,0,0,0,-1,1329,1366,0,0
112,-342,0,0,0,0,0,0,0,0,0,-1,1336,1366,0,0
119,-342,0,0,0,0,0,0,0,0,0,-1,1343,1366,0,0
126,-342,0,0,0,0,0,0,0,0,0,-1,1350,1366,0,0
133,-342,0,0,0,0,0,0,0,0,0,-1,1357,1366,0,0
140,-342,0,0,0,0,0,0,0,0,0,-1,1364,1366,0,0
147,-342,0,0,0,0,0,0,0,0,0,-1,1371,1366,0,0
154,-342,0,0,0,0,0,0,0,0,0,-1,1378,1366,0,0
161,-342,0,0,0,0,0,0,0,0,0,-1,1385,1366,0,0
168,-342,0,0,0,0,0,0,0,0,0,-1,1392,1366,0,0
175,-342,0,0,0,0,0,0,0,0,0,-1,1399,1366,0,0
182,-342,0,0,0,0,0,0,0,0,0,-1,1406,1366,0,0
189,-342,0,0,0,0,0,0,0,0,0,-1,1413,1366,0,0
196,-342,0,0,0,0,0,0,0,0,0,-1,1420,1366,0,0
203,-342,0,0,0,0,0,0,0,0,0,-1,1427,1366,0,0
210,-342,0,0,0,0,0,0,0,0,0,-1,1434,1366,0,0
217,-342,0,0,0,0,0,0,0,0,0,-1,1441,1366,0,0
224,-342,0,0,0,0,0,0,0,0,0,-1,1448,1366,0,0
231,-342,0,0,0,0,0,0,0,0,0,-1,1455,1366,0,0
238,-342,0,0,0,0,0,0,0,0,0,-1,1462,1366,0,0
245,-342,0,0,0,0,0,0,0,0,0,-1,1469,1366,0,0
252,-342,0,0,0,0,0,0,0,0,0,-1,1476,1366,0,0
259,-342,0,0,0,0,0,0,0,0,0,-1,1483,1366,0,0
266,-342,0,0,0,0,0,0,0,0,0,-1,1490,1366,0,0
273,-342,0,0,0,0,0,0,0,0,0,-1,1497,1366,0,0
280,-342,0,0,0,0,0,0,0,0,0,-1,1504,1366,0,0
287,-342,0,0,0,0,0,0,0,0,0,-1,1511,1366,0,0
294,-342,0,0,0,0,0,0,0,0,0,-1,1518,1366,0,0
301,-342,0,0,0,0,0,0,0,0,0,-1,1525,1366,0,0
308,-342,0,0,0,0,0,0,0,0,0,-1,1532,1366,0,0
315,-342,0,0,0,0,0,0,0,0,0,-1,1539,1366,0,0
322,-342,0,0,0,0,0,0,0,0,0,-1,1546,1366,0,0
329,-342,0,0,0,0,0,0,0,0,0,-1,1553,1366,0,0
336,-342,0,0,0,0,0,0,0,0,0,-1,1560,1366,0,0
343,-342,0,0,0,0,0,0,0,0,0,-1,1567,1366,0,0
350,-342,0,0,0,0,0,0,0,0,0,-1,1574,1366,0,0
357,-342,0,0,0,0,0,0,0,0,0,-1,1581,1366,0,0
364,-342,0,0,0,0,0,0,0,0,0,-1,1588,1366,0,0
371,-342,0,0,0,0,0,0,0,0,0,-1,1595,1366,0,0
378,-342,0,0,0,0,0,0,0,0,0,-1,1602,1366,0,0
385,-342,0,0,0,0,0,0,0,0,0,-1,1609,1366,0,0
392,-342,0,0,0,0,0,0,0,0,0,-1,1616,1366,0,0
399,-342,0,0,0,0,0,0,0,0,0,-1,1623,1366,0,0
406,-342,0,0,0,0,0,0,0,0,0,-1,1630,1366,0,0
413,-342,0,0,0,0,0,0,0,0,0,-1,1637,1366,0,0
420,-342,0,0,0,0,0,0,0,0,0,-1,1644,1366,0,0
427,-342,0,0,0,0,0,0,0,0,0,-1,1651,1366,0,0
434,-342,0,0,0,0,0,0,0,0,0,-1,1658,1366,0,0
441,-342,0,0,0,0,0,0,0,0,0,-1,1665,1366,0,0
448,-342,0,0,0,0,0,0,0,0,0,-1,1672,1366,0,0
455,-342,0,0,0,0,0,0,0,0,0,-1,1679,1366,0,0
462,-342,0,0,0,0,0,0,0,0,0,-1,1686,1366,0,0
469,-342,0,0,0,0,0,0,0,0,0,-1,1693,1366,0,0
476,-342,0,0,0,0,0,0,0,0,0,-1,1700,1366,0,0
483,-342,0,0,0,0,0,0,0,0,0,-1,1707,1366,0,0
490,-342,0,0,0,0,0,0,0,0,0,-1,1714,1366,0,0
497,-342,0,0,0,0,0,0,0,0,0,-1,1721,1366,0,0
504,-342,0,0,0,0,0,0,0,0,0,-1,1728,1366,0,0
511,-342,0,0,0,0,0,0,0,0,0,-1,1735,1366,0,0
518,-342,0,0,0,0,0,0,0,0,0,-1,1742,1366,0,0
525,-342,0,0,0,0,0,0,0,0,0,-1,1749,1366,0,0
532,-342,0,0,0,0,0,0,0,0,0,-1,1756,1366,0,0
539,-342,0,0,0,0,0,0,0,0,0,-1,1763,1366,0,0
546,-342,0,0,0,0,0,0,0,0,0,-1,1770,1366,0,0
553,-342,0,0,0,0,0,0,0,0,0,-1,1777,1366,0,0
560,-342,0,0,0,0,0,0,0,0,0,-1,1784,1366,0,0
567,-342,42.6652,5.53748,0,0,0,0,0,0,0,-1,1791,1366,42.6652,-5.53752
574,-342,57.798,-0.27356,0,0,0,0,0,0,0,-1,1798,1366,57.798,0.273534
581,-342,57.0219,-0.327759,0,0,0,0,0,0,0,-1,1805,1366,57.0219,0.327814
588,-342,43.9108,7.22559,0,0,0,0,0,0,0,-1,1812,1366,43.9107,-7.22554
595,-342,35.7993,0.709961,0,0,0,0,0,0,0,-1,1819,1366,35.7993,-0.709913
602,-342,36.3618,3.28723,0,0,0,0,0,0,0,-1,1826,1366,36.3619,-3.28719
609,-342,35.3777,4.14978,0,0,0,0,0,0,0,-1,1833,1366,35.3777,-4.14976
616,-342,34.199,5.8158,0,0,0,0,0,0,0,-1,1840,1366,34.199,-5.81579
623,-342,26.0299,6.86865,0,0,0,0,0,0,0,-1,1847,1366,26.0299,-6.86863
630,-342,17.3431,0.773071,0,0,0,0,0,0,0,-1,1854,1366,17.3432,-0.773095
637,-342,16.196,6.76172,0,0,0,0,0,0,0,-1,1861,1366,16.1961,-6.76174
644,-342,31.8916,14.0614,0,0,0,0,0,0,0,-1,1868,1366,31.8916,-14.0613
651,-342,36.7488,15.4612,0,0,0,0,0,0,0,-1,1875,1366,36.7488,-15.4612
658,-342,36.7402,14.8279,-0.000601883,0.000282913,-0.000271119,0.000359381,-0.000678351,-1.29589,0.000608496,0.0218027,1882,1366,36.7402,-14.8279
665,-342,36.7206,14.1965,7.71012e-05,1.1338e-06,-0.000179914,0.000222998,-0.000144763,-0.681365,0.000213922,0.017239,1889,1366,36.7206,-14.1965
672,-342,36.697,13.6169,0.000791573,-7.40743e-05,-0.000201401,0.000836136,-0.000118638,-0.21776,0.000600887,0.0136439,1896,1366,36.6971,-13.617
679,-342,36.6666,13.038,0.00153272,-7.10619e-05,-0.000264005,0.00157506,-0.000113403,-0.159026,0.00108981,0.0144082,1903,1366,36.6666,-13.038
686,-342,36.6934,12.4198,0.00232799,2.76505e-05,-0.000386407,0.00239117,-3.55225e-05,-0.162055,0.00160608,0.0132002,1910,1366,36.6933,-12.4198
693,-342,36.6361,11.796,0.00314111,0.000183858,-0.000534093,0.00323461,9.03551e-05,-0.173313,0.00212693,0.0128626,1917,1366,36.6361,-11.796
700,-342,36.6075,11.1979,0.0039874,0.000424672,-0.000727494,0.00413022,0.000281847,-0.19386,0.00266451,0.0143253,1924,1366,36.6075,-11.1979
707,-342,36.5961,10.547,0.00473576,0.000713519,-0.000886876,0.00492263,0.000526651,-0.207666,0.00312105,0.0136234,1931,1366,36.596,-10.547
714,-342,36.6836,9.76636,0,0,0,0,0,0,0,-1,1938,1366,36.6835,-9.76641
721,-342,22.4666,6.08679,0,0,0,0,0,0,0,-1,1945,1366,22.4666,-6.08678
728,-342,19.8912,5.26636,0,0,0,0,0,0,0,-1,1952,1366,19.8913,-5.26636
735,-342,19.481,4.41968,0,0,0,0,0,0,0,-1,1959,1366,19.4809,-4.41962
742,-342,19.309,2.66943,0,0,0,0,0,0,0,-1,1966,1366,19.3089,-2.66948
749,-342,21.0934,6.47729,0,0,0,0,0,0,0,-1,1973,1366,21.0934,-6.4773
756,-342,0,0,0,0,0,0,0,0,0,-1,1980,1366,0,0
763,-342,0,0,0,0,0,0,0,0,0,-1,1987,1366,0,0
770,-342,0,0,0,0,0,0,0,0,0,-1,1994,1366,0,0
777,-342,0,0,0,0,0,0,0,0,0,-1,2001,1366,0,0
784,-342,0,0,0,0,0,0,0,0,0,-1,2008,1366,0,0
791,-342,0,0,0,0,0,0,0,0,0,-1,2015,1366,0,0
798,-342,0,0,0,0,0,0,0,0,0,-1,2022,1366,0,0
805,-342,0,0,0,0,0,0,0,0,0,-1,2029,1366,0,0
812,-342,0,0,0,0,0,0,0,0,0,-1,2036,1366,0,0
-700,-349,0,0,0,0,0,0,0,0,0,-1,524,1373,0,0
-693,-349,0,0,0,0,0,0,0,0,0,-1,531,1373,0,0
-686,-349,0,0,0,0,0,0,0,0,0,-1,538,1373,0,0
-679,-349,0,0,0,0,0,0,0,0,0,-1,545,1373,0,0
-672,-349,0,0,0,0,0,0,0,0,0,-1,552,1373,0,0
-665,-349,0,0,0,0,0,0,0,0,0,-1,559,1373,0,0
-658,-349,0,0,0,0,0,0,0,0,0,-1,566,1373,0,0
-651,-349,0,0,0,0,0,0,0,0,0,-1,573,1373,0,0
-644,-349,0,0,0,0,0,0,0,0,0,-1,580,1373,0,0
-637,-349,0,0,0,0,0,0,0,0,0,-1,587,1373,0,0
-630,-349,-7.64117,-5.06177,0,0,0,0,0,0,0,-1,594,1373,-7.64118,5.0618
-623,-349,-8.63507,0.51123,0,0,0,0,0,0,0,-1,601,1373,-8.63505,-0.511275
-616,-349,-5.2066,-0.188232,0,0,0,0,0,0,0,-1,608,1373,-5.20659,0.188211
-609,-349,-7.12073,1.37048,0,0,0,0,0,0,0,-1,615,1373,-7.12072,-1.37044
-602,-349,-9.00623,3.39587,0,0,0,0,0,0,0,-1,622,1373,-9.0062,-3.39591
-595,-349,-9.50568,2.96912,0,0,0,0,0,0,0,-1,629,1373,-9.50569,-2.96906
-588,-349,-8.60046,3.56042,0,0,0,0,0,0,0,-1,636,1373,-8.60046,-3.56047
-581,-349,-19.8015,7.9093,0,0,0,0,0,0,0,-1,643,1373,-19.8015,-7.9093
-574,-349,-19.8602,8.51025,0.00527137,0.00280195,0.00251198,0.00683568,0.00123763,0.556975,0.00420572,0.0375113,650,1373,-19.8602,-8.51027
-567,-349,-19.8886,9.23743,0.00414301,0.00208576,0.00199983,0.00536325,0.00086552,0.547865,0.00332476,0.0179875,657,1373,-19.8886,-9.23737
-560,-349,-19.9035,9.90625,0.003484,0.00150832,0.00167592,0.00444154,0.000550772,0.519092,0.00279558,0.0212618,664,1373,-19.9035,-9.90627
-553,-349,-19.9401,10.5144,0.00311796,0.00107007,0.00149687,0.00390759,0.000280431,0.485424,0.0025168,0.0292548,671,1373,-19.9401,-10.5144
-546,-349,-19.9726,11.1632,0.00298582,0.000722789,0.00142604,0.00367472,3.38878e-05,0.450026,0.00243859,0.0331651,678,1373,-19.9726,-11.1632
-539,-349,-20.0647,11.8176,0.00308229,0.000468099,0.00147456,0.00374568,-0.000195293,0.422764,0.0025647,0.0251195,685,1373,-20.0647,-11.8176
-532,-349,-20.0763,12.4945,0.00341762,0.000316728,0.00165957,0.00413831,-0.000403965,0.409691,0.00290291,0.0183126,692,1373,-20.0763,-12.4945
-525,-349,-20.0286,13.1876,0.00398585,0.000260025,0.00198029,0.00484176,-0.000595883,0.407965,0.0034437,0.0149616,699,1373,-20.0286,-13.1877
-518,-349,-20.0288,13.8743,0.00487205,0.000417653,0.00245112,0.0059567,-0.000667004,0.416613,0.00421111,0.0238499,706,1373,-20.0288,-13.8743
-511,-349,-19.987,14.5769,0,0,0,0,0,0,0,-1,713,1373,-19.987,-14.5769
-504,-349,-9.60516,7.88831,0,0,0,0,0,0,0,-1,720,1373,-9.60519,-7.88825
-497,-349,-7.9339,5.58789,0,0,0,0,0,0,0,-1,727,1373,-7.93388,-5.58785
-490,-349,-8.73969,-0.503784,0,0,0,0,0,0,0,-1,734,1373,-8.73966,0.503752
-483,-349,-5.66974,3.7395,0,0,0,0,0,0,0,-1,741,1373,-5.66975,-3.73949
-476,-349,-10.8496,1.15759,0,0,0,0,0,0,0,-1,748,1373,-10.8496,-1.15756
-469,-349,-12.3314,-1.74878,0,0,0,0,0,0,0,-1,755,1373,-12.3314,1.74882
-462,-349,-12.6559,-0.995361,0,0,0,0,0,0,0,-1,762,1373,-12.656,0.995351
-455,-349,-13.2897,-0.234253,0,0,0,0,0,0,0,-1,769,1373,-13.2897,0.234261
-448,-349,-14.045,0.712891,0,0,0,0,0,0,0,-1,776,1373,-14.045,-0.712838
-441,-349,0,0,0,0,0,0,0,0,0,-1,783,1373,0,0
-434,-349,0,0,0,0,0,0,0,0,0,-1,790,1373,0,0
-427,-349,0,0,0,0,0,0,0,0,0,-1,797,1373,0,0
-420,-349,0,0,0,0,0,0,0,0,0,-1,804,1373,0,0
-413,-349,0,0,0,0,0,0,0,0,0,-1,811,1373,0,0
-406,-349,0,0,0,0,0,0,0,0,0,-1,818,1373,0,0
-399,-349,0,0,0,0,0,0,0,0,0,-1,825,1373,0,0
-392,-349,0,0,0,0,0,0,0,0,0,-1,832,1373,0,0
-385,-349,0,0,0,0,0,0,0,0,0,-1,839,1373,0,0
-378,-349,0,0,0,0,0,0,0,0,0,-1,846,1373,0,0
-371,-349,0,0,0,0,0,0,0,0,0,-1,853,1373,0,0
-364,-349,0,0,0,0,0,0,0,0,0,-1,860,1373,0,0
-357,-349,0,0,0,0,0,0,0,0,0,-1,867,1373,0,0
-350,-349,0,0,0,0,0,0,0,0,0,-1,874,1373,0,0
-343,-349,0,0,0,0,0,0,0,0,0,-1,881,1373,0,0
-336,-349,0,0,0,0,0,0,0,0,0,-1,888,1373,0,0
-329,-349,0,0,0,0,0,0,0,0,0,-1,895,1373,0,0
-322,-349,0,0,0,0,0,0,0,0,0,-1,902,1373,0,0
-315,-349,0,0,0,0,0,0,0,0,0,-1,909,1373,0,0
-308,-349,0,0,0,0,0,0,0,0,0,-1,916,1373,0,0
-301,-349,0,0,0,0,0,0,0,0,0,-1,923,1373,0,0
-294,-349,0,0,0,0,0,0,0,0,0,-1,930,1373,0,0
-287,-349,0,0,0,0,0,0,0,0,0,-1,937,1373,0,0
-280,-349,0,0,0,0,0,0,0,0,0,-1,944,1373,0,0
-273,-349,0,0,0,0,0,0,0,0,0,-1,951,1373,0,0
-266,-349,0,0,0,0,0,0,0,0,0,-1,958,1373,0,0
-259,-349,0,0,0,0,0,0,0,0,0,-1,965,1373,0,0
-252,-349,0,0,0,0,0,0,0,0,0,-1,972,1373,0,0
-245,-349,0,0,0,0,0,0,0,0,0,-1,979,1373,0,0
-238,-349,0,0,0,0,0,0,0,0,0,-1,986,1373,0,0
-231,-349,0,0,0,0,0,0,0,0,0,-1,993,1373,0,0
-224,-349,0,0,0,0,0,0,0,0,0,-1,1000,1373,0,0
-217,-349,0,0,0,0,0,0,0,0,0,-1,1007,1373,0,0
-210,-349,0,0,0,0,0,0,0,0,0,-1,1014,1373,0,0
-203,-349,0,0,0,0,0,0,0,0,0,-1,1021,1373,0,0
-196,-349,0,0,0,0,0,0,0,0,0,-1,1028,1373,0,0
-189,-349,0,0,0,0,0,0,0,0,0,-1,1035,1373,0,0
-182,-349,0,0,0,0,0,0,0,0,0,-1,1042,1373,0,0
-175,-349,0,0,0,0,0,0,0,0,0,-1,1049,1373,0,0
-168,-349,0,0,0,0,0,0,0,0,0,-1,1056,1373,0,0
-161,-349,0,0,0,0,0,0,0,0,0,-1,1063,1373,0,0
-154,-349,0,0,0,0,0,0,0,0,0,-1,1070,1373,0,0
-147,-349,0,0,0,0,0,0,0,0,0,-1,1077,1373,0,0
-140,-349,0,0,0,0,0,0,0,0,0,-1,1084,1373,0,0
-133,-349,0,0,0,0,0,0,0,0,0,-1,1091,1373,0,0
-126,-349,0,0,0,0,0,0,0,0,0,-1,1098,1373,0,0
-119,-349,0,0,0,0,0,0,0,0,0,-1,1105,1373,0,0
-112,-349,0,0,0,0,0,0,0,0,0,-1,1112,1373,0,0
-105,-349,0,0,0,0,0,0,0,0,0,-1,1119,1373,0,0
-98,-349,0,0,0,0,0,0,0,0,0,-1,1126,1373,0,0
-91,-349,0,0,0,0,0,0,0,0,0,-1,1133,1373,0,0
-84,-349,0,0,0,0,0,0,0,0,0,-1,1140,1373,0,0
-77,-349,0,0,0,0,0,0,0,0,0,-1,1147,1373,0,0
-70,-349,0,0,0,0,0,0,0,0,0,-1,1154,1373,0,0
-63,-349,0,0,0,0,0,0,0,0,0,-1,1161,1373,0,0
-56,-349,0,0,0,0,0,0,0,0,0,-1,1168,1373,0,0
-49,-349,0,0,0,0,0,0,0,0,0,-1,1175,1373,0,0
-42,-349,0,0,0,0,0,0,0,0,0,-1,1182,1373,0,0
-35,-349,0,0,0,0,0,0,0,0,0,-1,1189,1373,0,0
-28,-349,0,0,0,0,0,0,0,0,0,-1,1196,1373,0,0
-21,-349,0,0,0,0,0,0,0,0,0,-1,1203,1373,0,0
-14,-349,0,0,0,0,0,0,0,0,0,-1,1210,1373,0,0
-7,-349,0,0,0,0,0,0,0,0,0,-1,1217,1373,0,0
0,-349,0,0,0,0,0,0,0,0,0,-1,1224,1373,0,0
7,-349,0,0,0,0,0,0,0,0,0,-1,1231,1373,0,0
14,-349,0,0,0,0,0,0,0,0,0,-1,1238,1373,0,0
21,-349,0,0,0,0,0,0,0,0,0,-1,1245,1373,0,0
28,-349,0,0,0,0,0,0,0,0,0,-1,1252,1373,0,0
35,-349,0,0,0,0,0,0,0,0,0,-1,1259,1373,0,0
42,-349,0,0,0,0,0,0,0,0,0,-1,1266,1373,0,0
49,-349,0,0,0,0,0,0,0,0,0,-1,1273,1373,0,0
56,-349,0,0,0,0,0,0,0,0,0,-1,1280,1373,0,0
63,-349,0,0,0,0,0,0,0,0,0,-1,1287,1373,0,0
70,-349,0,0,0,0,0,0,0,0,0,-1,1294,1373,0,0
77,-349,0,0,0,0,0,0,0,0,0,-1,1301,1373,0,0
84,-349,0,0,0,0,0,0,0,0,0,-1,1308,1373,0,0
91,-349,0,0,0,0,0,0,0,0,0,-1,1315,1373,0,0
98,-349,0,0,0,0,0,0,0,0,0,-1,1322,1373,0,0
105,-349,0,0,0,0,0,0,0,0,0,-1,1329,1373,0,0
112,-349,0,0,0,0,0,0,0,0,0,-1,1336,1373,0,0
119,-349,0,0,0,0,0,0,0,0,0,-1,1343,1373,0,0
126,-349,0,0,0,0,0,0,0,0,0,-1,1350,1373,0,0
133,-349,0,0,0,0,0,0,0,0,0,-1,1357,1373,0,0
140,-349,0,0,0,0,0,0,0,0,0,-1,1364,1373,0,0
147,-349,0,0,0,0,0,0,0,0,0,-1,1371,1373,0,0
154,-349,0,0,0,0,0,0,0,0,0,-1,1378,1373,0,0
161,-349,0,0,0,0,0,0,0,0,0,-1,1385,1373,0,0
168,-349,0,0,0,0,0,0,0,0,0,-1,1392,1373,0,0
175,-349,0,0,0,0,0,0,0,0,0,-1,1399,1373,0,0
182,-349,0,0,0,0,0,0,0,0,0,-1,1406,1373,0,0
189,-349,0,0,0,0,0,0,0,0,0,-1,1413,1373,0,0
196,-349,0,0,0,0,0,0,0,0,0,-1,1420,1373,0,0
203,-349,0,0,0,0,0,0,0,0,0,-1,1427,1373,0,0
210,-349,0,0,0,0,0,0,0,0,0,-1,1434,1373,0,0
217,-349,0,0,0,0,0,0,0,0,0,-1,1441,1373,0,0
224,-349,0,0,0,0,0,0,0,0,0,-1,1448,1373,0,0
231,-349,0,0,0,0,0,0,0,0,0,-1,1455,1373,0,0
238,-349,0,0,0,0,0,0,0,0,0,-1,1462,1373,0,0
245,-349,0,0,0,0,0,0,0,0,0,-1,1469,1373,0,0
252,-349,0,0,0,0,0,0,0,0,0,-1,1476,1373,0,0
259,-349,0,0,0,0,0,0,0,0,0,-1,1483,1373,0,0
266,-349,0,0,0,0,0,0,0,0,0,-1,1490,1373,0,0
273,-349,0,0,0,0,0,0,0,0,0,-1,1497,1373,0,0
280,-349,0,0,0,0,0,0,0,0,0,-1,1504,1373,0,0
287,-349,0,0,0,0,0,0,0,0,0,-1,1511,1373,0,0
294,-349,0,0,0,0,0,0,0,0,0,-1,1518,1373,0,0
301,-349,0,0,0,0,0,0,0,0,0,-1,1525,1373,0,0
308,-349,0,0,0,0,0,0,0,0,0,-1,1532,1373,0,0
315,-349,0,0,0,0,0,0,0,0,0,-1,1539,1373,0,0
322,-349,0,0,0,0,0,0,0,0,0,-1,1546,1373,0,0
329,-349,0,0,0,0,0,0,0,0,0,-1,1553,1373,0,0
336,-349,0,0,0,0,0,0,0,0,0,-1,1560,1373,0,0
343,-349,0,0,0,0,0,0,0,0,0,-1,1567,1373,0,0
350,-349,0,0,0,0,0,0,0,0,0,-1,1574,1373,0,0
357,-349,0,0,0,0,0,0,0,0,0,-1,1581,1373,0,0
364,-349,0,0,0,0,0,0,0,0,0,-1,1588,1373,0,0
371,-349,0,0,0,0,0,0,0,0,0,-1,1595,1373,0,0
378,-349,0,0,0,0,0,0,0,0,0,-1,1602,1373,0,0
385,-349,0,0,0,0,0,0,0,0,0,-1,1609,1373,0,0
392,-349,0,0,0,0,0,0,0,0,0,-1,1616,1373,0,0
399,-349,0,0,0,0,0,0,0,0,0,-1,1623,1373,0,0
406,-349,0,0,0,0,0,0,0,0,0,-1,1630,1373,0,0
413,-349,0,0,0,0,0,0,0,0,0,-1,1637,1373,0,0
420,-349,0,0,0,0,0,0,0,0,0,-1,1644,1373,0,0
427,-349,0,0,0,0,0,0,0,0,0,-1,1651,1373,0,0
434,-349,0,0,0,0,0,0,0,0,0,-1,1658,1373,0,0
441,-349,0,0,0,0,0,0,0,0,0,-1,1665,1373,0,0
448,-349,0,0,0,0,0,0,0,0,0,-1,1672,1373,0,0
455,-349,0,0,0,0,0,0,0,0,0,-1,1679,1373,0,0
462,-349,0,0,0,0,0,0,0,0,0,-1,1686,1373,0,0
469,-349,0,0,0,0,0,0,0,0,0,-1,1693,1373,0,0
476,-349,0,0,0,0,0,0,0,0,0,-1,1700,1373,0,0
483,-349,0,0,0,0,0,0,0,0,0,-1,1707,1373,0,0
490,-349,0,0,0,0,0,0,0,0,0,-1,1714,1373,0,0
497,-349,0,0,0,0,0,0,0,0,0,-1,1721,1373,0,0
504,-349,0,0,0,0,0,0,0,0,0,-1,1728,1373,0,0
511,-349,0,0,0,0,0,0,0,0,0,-1,1735,1373,0,0
518,-349,0,0,0,0,0,0,0,0,0,-1,1742,1373,0,0
525,-349,0,0,0,0,0,0,0,0,0,-1,1749,1373,0,0
532,-349,0,0,0,0,0,0,0,0,0,-1,1756,1373,0,0
539,-349,0,0,0,0,0,0,0,0,0,-1,1763,1373,0,0
546,-349,0,0,0,0,0,0,0,0,0,-1,1770,1373,0,0
553,-349,0,0,0,0,0,0,0,0,0,-1,1777,1373,0,0
560,-349,45.6893,3.53845,0,0,0,0,0,0,0,-1,1784,1373,45.6893,-3.5385
567,-349,41.9424,6.03833,0,0,0,0,0,0,0,-1,1791,1373,41.9423,-6.03834
574,-349,42.4165,6.17078,0,0,0,0,0,0,0,-1,1798,1373,42.4165,-6.17072
581,-349,42.8947,6.78381,0,0,0,0,0,0,0,-1,1805,1373,42.8946,-6.78376
588,-349,44.8121,5.06213,0,0,0,0,0,0,0,-1,1812,1373,44.8121,-5.06215
595,-349,44.4338,6.14099,0,0,0,0,0,0,0,-1,1819,1373,44.4338,-6.14095
602,-349,35.6641,3.26465,0,0,0,0,0,0,0,-1,1826,1373,35.6641,-3.26468
609,-349,34.7175,4.401,0,0,0,0,0,0,0,-1,1833,1373,34.7175,-4.40096
616,-349,27.1451,6.68274,0,0,0,0,0,0,0,-1,1840,1373,27.1451,-6.6828
623,-349,18.8478,2.75769,0,0,0,0,0,0,0,-1,1847,1373,18.8478,-2.75774
630,-349,15.4948,6.47644,0,0,0,0,0,0,0,-1,1854,1373,15.4947,-6.4765
637,-349,16.5161,6.92639,0,0,0,0,0,0,0,-1,1861,1373,16.5161,-6.92636
644,-349,36.2759,16.05,0,0,0,0,0,0,0,-1,1868,1373,36.2759,-16.0501
651,-349,36.2831,15.4321,-0.000883414,0.000515999,-0.000535514,0.000697408,-0.00106482,-1.24417,0.00102477,0.0427104,1875,1373,36.2831,-15.4321
658,-349,36.1516,14.8224,-0.000383214,0.000205809,-0.000264111,0.000306888,-0.000484293,-1.20528,0.0004606,0.0277216,1882,1373,36.1517,-14.8224
665,-349,36.1094,14.2222,0.000278087,-5.1609e-05,-0.000154382,0.00033909,-0.000112612,-0.376312,0.000271497,0.0207387,1889,1373,36.1094,-14.2222
672,-349,36.0757,13.6396,0.00100813,-0.000158332,-0.000124458,0.00102126,-0.000171464,-0.10512,0.000744605,0.0146982,1896,1373,36.0757,-13.6397
679,-349,36.0581,13.0421,0.00180128,-0.00020623,-0.000137473,0.00181065,-0.0002156,-0.0680559,0.00128501,0.0159119,1903,1373,36.0581,-13.0421
686,-349,36.1156,12.4453,0.00268633,-0.000161681,-0.000216258,0.00270266,-0.000178009,-0.0753571,0.00186394,0.0172693,1910,1373,36.1156,-12.4453
693,-349,36.0319,11.8193,0.00362252,-4.49631e-05,-0.000330311,0.00365203,-7.4475e-05,-0.0891091,0.00245989,0.0195468,1917,1373,36.0319,-11.8193
700,-349,36.0004,11.2382,0.0046241,0.000184198,-0.000512516,0.0046825,0.000125805,-0.113446,0.00308059,0.018529,1924,1373,36.0004,-11.2381
707,-349,36.0807,10.5999,0.00551886,0.000471386,-0.000653771,0.00560217,0.000388081,-0.126738,0.00361237,0.0339265,1931,1373,36.0807,-10.5998
714,-349,36.2026,9.85413,0,0,0,0,0,0,0,-1,1938,1373,36.2027,-9.85412
721,-349,19.6688,5.93604,0,0,0,0,0,0,0,-1,1945,1373,19.6688,-5.93606
728,-349,18.6333,3.73218,0,0,0,0,0,0,0,-1,1952,1373,18.6333,-3.73214
735,-349,18.1918,3.39954,0,0,0,0,0,0,0,-1,1959,1373,18.1918,-3.3995
742,-349,20.7345,2.07483,0,0,0,0,0,0,0,-1,1966,1373,20.7345,-2.07485
749,-349,21.9037,1.45789,0,0,0,0,0,0,0,-1,1973,1373,21.9037,-1.45788
756,-349,0,0,0,0,0,0,0,0,0,-1,1980,1373,0,0
763,-349,0,0,0,0,0,0,0,0,0,-1,1987,1373,0,0
770,-349,0,0,0,0,0,0,0,0,0,-1,1994,1373,0,0
777,-349,0,0,0,0,0,0,0,0,0,-1,2001,1373,0,0
784,-349,0,0,0,0,0,0,0,0,0,-1,2008,1373,0,0
791,-349,0,0,0,0,0,0,0,0,0,-1,2015,1373,0,0
798,-349,0,0,0,0,0,0,0,0,0,-1,2022,1373,0,0
805,-349,0,0,0,0,0,0,0,0,0,-1,2029,1373,0,0
812,-349,0,0,0,0,0,0,0,0,0,-1,2036,1373,0,0
-700,-356,0,0,0,0,0,0,0,0,0,-1,524,1380,0,0
-693,-356,0,0,0,0,0,0,0,0,0,-1,531,1380,0,0
-686,-356,0,0,0,0,0,0,0,0,0,-1,538,1380,0,0
-679,-356,0,0,0,0,0,0,0,0,0,-1,545,1380,0,0
-672,-356,0,0,0,0,0,0,0,0,0,-1,552,1380,0,0
-665,-356,0,0,0,0,0,0,0,0,0,-1,559,1380,0,0
-658,-356,0,0,0,0,0,0,0,0,0,-1,566,1380,0,0
-651,-356,0,0,0,0,0,0,0,0,0,-1,573,1380,0,0
-644,-356,0,0,0,0,0,0,0,0,0,-1,580,1380,0,0
-637,-356,0,0,0,0,0,0,0,0,0,-1,587,1380,0,0
-630,-356,-8.23126,-5.01917,0,0,0,0,0,0,0,-1,594,1380,-8.23124,5.0192
-623,-356,-0.263855,-0.675781,0,0,0,0,0,0,0,-1,601,1380,-0.263835,0.675841
-616,-356,-8.26532,-3.43945,0,0,0,0,0,0,0,-1,608,1380,-8.2653,3.43948
-609,-356,-4.88483,0.734497,0,0,0,0,0,0,0,-1,615,1380,-4.88485,-0.734532
-602,-356,-9.06635,2.4021,0,0,0,0,0,0,0,-1,622,1380,-9.06634,-2.40206
-595,-356,-8.45703,3.61853,0,0,0,0,0,0,0,-1,629,1380,-8.45706,-3.61848
-588,-356,-9.31738,4.14258,0,0,0,0,0,0,0,-1,636,1380,-9.31736,-4.14255
-581,-356,-16.5185,7.32312,0,0,0,0,0,0,0,-1,643,1380,-16.5185,-7.32306
-574,-356,-19.1537,8.70862,0,0,0,0,0,0,0,-1,650,1380,-19.1537,-8.7086
-567,-356,-19.2976,9.22681,0.00461889,0.00236468,0.0023416,0.00609053,0.000893039,0.561094,0.00379783,0.0213984,657,1380,-19.2976,-9.22676
-560,-356,-19.2429,9.93152,0.00381566,0.00171662,0.00189915,0.004936,0.000596283,0.532969,0.00311101,0.0174531,664,1380,-19.2429,-9.93154
-553,-356,-19.2868,10.5699,0.00334148,0.00125383,0.00163806,0.00424003,0.000355286,0.501723,0.00271601,0.0211013,671,1380,-19.2868,-10.57
-546,-356,-19.3584,11.2307,0.00308319,0.000886737,0.00148561,0.00383244,0.000137496,0.467107,0.00251038,0.0241059,678,1380,-19.3584,-11.2308
-539,-356,-19.3879,11.8884,0.00304772,0.000616912,0.00145552,0.00372857,-6.39311e-05,0.437529,0.00250729,0.0168878,685,1380,-19.3879,-11.8884
-532,-356,-19.4055,12.5476,0.00324134,0.000476387,0.0015759,0.00395522,-0.00023749,0.425343,0.00271943,0.0164917,692,1380,-19.4055,-12.5476
-525,-356,-19.3977,13.2046,0.00364085,0.000437527,0.00183121,0.00447201,-0.000393639,0.426083,0.00312084,0.0142699,699,1380,-19.3977,-13.2046
-518,-356,-19.386,13.8613,0.00429873,0.000584328,0.00223987,0.00535121,-0.00046815,0.439265,0.00373332,0.0140318,706,1380,-19.386,-13.8613
-511,-356,-19.2264,14.6567,0,0,0,0,0,0,0,-1,713,1380,-19.2264,-14.6568
-504,-356,-14.3925,12.3971,0,0,0,0,0,0,0,-1,720,1380,-14.3925,-12.3971
-497,-356,-5.68604,4.96387,0,0,0,0,0,0,0,-1,727,1380,-5.68605,-4.96385
-490,-356,-7.95288,5.5625,0,0,0,0,0,0,0,-1,734,1380,-7.95285,-5.56246
-483,-356,-7.2627,4.07446,0,0,0,0,0,0,0,-1,741,1380,-7.2627,-4.07441
-476,-356,-5.1936,4.16016,0,0,0,0,0,0,0,-1,748,1380,-5.1936,-4.16012
-469,-356,-10.0883,0.536011,0,0,0,0,0,0,0,-1,755,1380,-10.0883,-0.535989
-462,-356,-12.3481,-0.215698,0,0,0,0,0,0,0,-1,762,1380,-12.3481,0.215641
-455,-356,-13.1367,-0.264648,0,0,0,0,0,0,0,-1,769,1380,-13.1367,0.264647
-448,-356,-13.9116,-0.310181,0,0,0,0,0,0,0,-1,776,1380,-13.9115,0.310207
-441,-356,-13.1602,3.05603,0,0,0,0,0,0,0,-1,783,1380,-13.1602,-3.05609
-434,-356,0,0,0,0,0,0,0,0,0,-1,790,1380,0,0
-427,-356,0,0,0,0,0,0,0,0,0,-1,797,1380,0,0
-420,-356,0,0,0,0,0,0,0,0,0,-1,804,1380,0,0
-413,-356,0,0,0,0,0,0,0,0,0,-1,811,1380,0,0
-406,-356,0,0,0,0,0,0,0,0,0,-1,818,1380,0,0
-399,-356,0,0,0,0,0,0,0,0,0,-1,825,1380,0,0
-392,-356,0,0,0,0,0,0,0,0,0,-1,832,1380,0,0
-385,-356,0,0,0,0,0,0,0,0,0,-1,839,1380,0,0
-378,-356,0,0,0,0,0,0,0,0,0,-1,846,1380,0,0
-371,-356,0,0,0,0,0,0,0,0,0,-1,853,1380,0,0
-364,-356,0,0,0,0,0,0,0,0,0,-1,860,1380,0,0
-357,-356,0,0,0,0,0,0,0,0,0,-1,867,1380,0,0
-350,-356,0,0,0,0,0,0,0,0,0,-1,874,1380,0,0
-343,-356,0,0,0,0,0,0,0,0,0,-1,881,1380,0,0
-336,-356,0,0,0,0,0,0,0,0,0,-1,888,1380,0,0
-329,-356,0,0,0,0,0,0,0,0,0,-1,895,1380,0,0
-322,-356,0,0,0,0,0,0,0,0,0,-1,902,1380,0,0
-315,-356,0,0,0,0,0,0,0,0,0,-1,909,1380,0,0
-308,-356,0,0,0,0,0,0,0,0,0,-1,916,1380,0,0
-301,-356,0,0,0,0,0,0,0,0,0,-1,923,1380,0,0
-294,-356,0,0,0,0,0,0,0,0,0,-1,930,1380,0,0
-287,-356,0,0,0,0,0,0,0,0,0,-1,937,1380,0,0
-280,-356,0,0,0,0,0,0,0,0,0,-1,944,1380,0,0
-273,-356,0,0,0,0,0,0,0,0,0,-1,951,1380,0,0
-266,-356,0,0,0,0,0,0,0,0,0,-1,958,1380,0,0
-259,-356,0,0,0,0,0,0,0,0,0,-1,965,1380,0,0
-252,-356,0,0,0,0,0,0,0,0,0,-1,972,1380,0,0
-245,-356,0,0,0,0,0,0,0,0,0,-1,979,1380,0,0
-238,-356,0,0,0,0,0,0,0,0,0,-1,986,1380,0,0
-231,-356,0,0,0,0,0,0,0,0,0,-1,993,1380,0,0
-224,-356,0,0,0,0,0,0,0,0,0,-1,1000,1380,0,0
-217,-356,0,0,0,0,0,0,0,0,0,-1,1007,1380,0,0
-210,-356,0,0,0,0,0,0,0,0,0,-1,1014,1380,0,0
-203,-356,0,0,0,0,0,0,0,0,0,-1,1021,1380,0,0
-196,-356,0,0,0,0,0,0,0,0,0,-1,1028,1380,0,0
-189,-356,0,0,0,0,0,0,0,0,0,-1,1035,1380,0,0
-182,-356,0,0,0,0,0,0,0,0,0,-1,1042,1380,0,0
-175,-356,0,0,0,0,0,0,0,0,0,-1,1049,1380,0,0
-168,-356,0,0,0,0,0,0,0,0,0,-1,1056,1380,0,0
-161,-356,0,0,0,0,0,0,0,0,0,-1,1063,1380,0,0
-154,-356,0,0,0,0,0,0,0,0,0,-1,1070,1380,0,0
-147,-356,0,0,0,0,0,0,0,0,0,-1,1077,1380,0,0
-140,-356,0,0,0,0,0,0,0,0,0,-1,1084,1380,0,0
-133,-356,0,0,0,0,0,0,0,0,0,-1,1091,1380,0,0
-126,-356,0,0,0,0,0,0,0,0,0,-1,1098,1380,0,0
-119,-356,0,0,0,0,0,0,0,0,0,-1,1105,1380,0,0
-112,-356,0,0,0,0,0,0,0,0,0,-1,1112,1380,0,0
-105,-356,0,0,0,0,0,0,0,0,0,-1,1119,1380,0,0
-98,-356,0,0,0,0,0,0,0,0,0,-1,1126,1380,0,0
-91,-356,0,0,0,0,0,0,0,0,0,-1,1133,1380,0,0
-84,-356,0,0,0,0,0,0,0,0,0,-1,1140,1380,0,0
-77,-356,0,0,0,0,0,0,0,0,0,-1,1147,1380,0,0
-70,-356,0,0,0,0,0,0,0,0,0,-1,1154,1380,0,0
-63,-356,0,0,0,0,0,0,0,0,0,-1,1161,1380,0,0
-56,-356,0,0,0,0,0,0,0,0,0,-1,1168,1380,0,0
-49,-356,0,0,0,0,0,0,0,0,0,-1,1175,1380,0,0
-42,-356,0,0,0,0,0,0,0,0,0,-1,1182,1380,0,0
-35,-356,0,0,0,0,0,0,0,0,0,-1,1189,1380,0,0
-28,-356,0,0,0,0,0,0,0,0,0,-1,1196,1380,0,0
-21,-356,0,0,0,0,0,0,0,0,0,-1,1203,1380,0,0
-14,-356,0,0,0,0,0,0,0,0,0,-1,1210,1380,0,0
-7,-356,0,0,0,0,0,0,0,0,0,-1,1217,1380,0,0
0,-356,0,0,0,0,0,0,0,0,0,-1,1224,1380,0,0
7,-356,0,0,0,0,0,0,0,0,0,-1,1231,1380,0,0
14,-356,0,0,0,0,0,0,0,0,0,-1,1238,1380,0,0
21,-356,0,0,0,0,0,0,0,0,0,-1,1245,1380,0,0
28,-356,0,0,0,0,0,0,0,0,0,-1,1252,1380,0,0
35,-356,0,0,0,0,0,0,0,0,0,-1,1259,1380,0,0
42,-356,0,0,0,0,0,0,0,0,0,-1,1266,1380,0,0
49,-356,0,0,0,0,0,0,0,0,0,-1,1273,1380,0,0
56,-356,0,0,0,0,0,0,0,0,0,-1,1280,1380,0,0
63,-356,0,0,0,0,0,0,0,0,0,-1,1287,1380,0,0
70,-356,0,0,0,0,0,0,0,0,0,-1,1294,1380,0,0
77,-356,0,0,0,0,0,0,0,0,0,-1,1301,1380,0,0
84,-356,0,0,0,0,0,0,0,0,0,-1,1308,1380,0,0
91,-356,0,0,0,0,0,0,0,0,0,-1,1315,1380,0,0
98,-356,0,0,0,0,0,0,0,0,0,-1,1322,1380,0,0
105,-356,0,0,0,0,0,0,0,0,0,-1,1329,1380,0,0
112,-356,0,0,0,0,0,0,0,0,0,-1,1336,1380,0,0
119,-356,0,0,0,0,0,0,0,0,0,-1,1343,1380,0,0
126,-356,0,0,0,0,0,0,0,0,0,-1,1350,1380,0,0
133,-356,0,0,0,0,0,0,0,0,0,-1,1357,1380,0,0
140,-356,0,0,0,0,0,0,0,0,0,-1,1364,1380,0,0
147,-356,0,0,0,0,0,0,0,0,0,-1,1371,1380,0,0
154,-356,0,0,0,0,0,0,0,0,0,-1,1378,1380,0,0
161,-356,0,0,0,0,0,0,0,0,0,-1,1385,1380,0,0
168,-356,0,0,0,0,0,0,0,0,0,-1,1392,1380,0,0
175,-356,0,0,0,0,0,0,0,0,0,-1,1399,1380,0,0
182,-356,0,0,0,0,0,0,0,0,0,-1,1406,1380,0,0
189,-356,0,0,0,0,0,0,0,0,0,-1,1413,1380,0,0
196,-356,0,0,0,0,0,0,0,0,0,-1,1420,1380,0,0
203,-356,0,0,0,0,0,0,0,0,0,-1,1427,1380,0,0
210,-356,0,0,0,0,0,0,0,0,0,-1,1434,1380,0,0
217,-356,0,0,0,0,0,0,0,0,0,-1,1441,1380,0,0
224,-356,0,0,0,0,0,0,0,0,0,-1,1448,1380,0,0
231,-356,0,0,0,0,0,0,0,0,0,-1,1455,1380,0,0
238,-356,0,0,0,0,0,0,0,0,0,-1,1462,1380,0,0
245,-356,0,0,0,0,0,0,0,0,0,-1,1469,1380,0,0
252,-356,0,0,0,0,0,0,0,0,0,-1,1476,1380,0,0
259,-356,0,0,0,0,0,0,0,0,0,-1,1483,1380,0,0
266,-356,0,0,0,0,0,0,0,0,0,-1,1490,1380,0,0
273,-356,0,0,0,0,0,0,0,0,0,-1,1497,1380,0,0
280,-356,0,0,0,0,0,0,0,0,0,-1,1504,1380,0,0
287,-356,0,0,0,0,0,0,0,0,0,-1,1511,1380,0,0
294,-356,0,0,0,0,0,0,0,0,0,-1,1518,1380,0,0
301,-356,0,0,0,0,0,0,0,0,0,-1,1525,1380,0,0
308,-356,0,0,0,0,0,0,0,0,0,-1,1532,1380,0,0
315,-356,0,0,0,0,0,0,0,0,0,-1,1539,1380,0,0
322,-356,0,0,0,0,0,0,0,0,0,-1,1546,1380,0,0
329,-356,0,0,0,0,0,0,0,0,0,-1,1553,1380,0,0
336,-356,0,0,0,0,0,0,0,0,0,-1,1560,1380,0,0
343,-356,0,0,0,0,0,0,0,0,0,-1,1567,1380,0,0
350,-356,0,0,0,0,0,0,0,0,0,-1,1574,1380,0,0
357,-356,0,0,0,0,0,0,0,0,0,-1,1581,1380,0,0
364,-356,0,0,0,0,0,0,0,0,0,-1,1588,1380,0,0
371,-356,0,0,0,0,0,0,0,0,0,-1,1595,1380,0,0
378,-356,0,0,0,0,0,0,0,0,0,-1,1602,1380,0,0
385,-356,0,0,0,0,0,0,0,0,0,-1,1609,1380,0,0
392,-356,0,0,0,0,0,0,0,0,0,-1,1616,1380,0,0
399,-356,0,0,0,0,0,0,0,0,0,-1,1623,1380,0,0
406,-356,0,0,0,0,0,0,0,0,0,-1,1630,1380,0,0
413,-356,0,0,0,0,0,0,0,0,0,-1,1637,1380,0,0
420,-356,0,0,0,0,0,0,0,0,0,-1,1644,1380,0,0
427,-356,0,0,0,0,0,0,0,0,0,-1,1651,1380,0,0
434,-356,0,0,0,0,0,0,0,0,0,-1,1658,1380,0,0
441,-356,0,0,0,0,0,0,0,0,0,-1,1665,1380,0,0
448,-356,0,0,0,0,0,0,0,0,0,-1,1672,1380,0,0
455,-356,0,0,0,0,0,0,0,0,0,-1,1679,1380,0,0
462,-356,0,0,0,0,0,0,0,0,0,-1,1686,1380,0,0
469,-356,0,0,0,0,0,0,0,0,0,-1,1693,1380,0,0
476,-356,0,0,0,0,0,0,0,0,0,-1,1700,1380,0,0
483,-356,0,0,0,0,0,0,0,0,0,-1,1707,1380,0,0
490,-356,0,0,0,0,0,0,0,0,0,-1,1714,1380,0,0
497,-356,0,0,0,0,0,0,0,0,0,-1,1721,1380,0,0
504,-356,0,0,0,0,0,0,0,0,0,-1,1728,1380,0,0
511,-356,0,0,0,0,0,0,0,0,0,-1,1735,1380,0,0
518,-356,0,0,0,0,0,0,0,0,0,-1,1742,1380,0,0
525,-356,0,0,0,0,0,0,0,0,0,-1,1749,1380,0,0
532,-356,0,0,0,0,0,0,0,0,0,-1,1756,1380,0,0
539,-356,0,0,0,0,0,0,0,0,0,-1,1763,1380,0,0
546,-356,0,0,0,0,0,0,0,0,0,-1,1770,1380,0,0
553,-356,0,0,0,0,0,0,0,0,0,-1,1777,1380,0,0
560,-356,45.7938,3.65295,0,0,0,0,0,0,0,-1,1784,1380,45.7938,-3.65294
567,-356,45.6788,3.51428,0,0,0,0,0,0,0,-1,1791,1380,45.6788,-3.51422
574,-356,45.5742,3.39575,0,0,0,0,0,0,0,-1,1798,1380,45.5742,-3.39574
581,-356,45.6708,3.64172,0,0,0,0,0,0,0,-1,1805,1380,45.6707,-3.64175
588,-356,44.4739,4.87085,0,0,0,0,0,0,0,-1,1812,1380,44.4739,-4.87086
595,-356,32.0834,5.86084,0,0,0,0,0,0,0,-1,1819,1380,32.0834,-5.86079
602,-356,30.1604,6.07104,0,0,0,0,0,0,0,-1,1826,1380,30.1604,-6.07104
609,-356,28.3435,6.48901,0,0,0,0,0,0,0,-1,1833,1380,28.3435,-6.48899
616,-356,26.9358,6.80872,0,0,0,0,0,0,0,-1,1840,1380,26.9358,-6.80877
623,-356,16.1803,1.07532,0,0,0,0,0,0,0,-1,1847,1380,16.1803,-1.07529
630,-356,16.4138,6.91553,0,0,0,0,0,0,0,-1,1854,1380,16.4138,-6.9155
637,-356,24.8021,12.0151,0,0,0,0,0,0,0,-1,1861,1380,24.8022,-12.0151
644,-356,35.6537,16.1366,0,0,0,0,0,0,0,-1,1868,1380,35.6537,-16.1365
651,-356,35.6167,15.4509,-0.000619045,0.00043858,-0.000425086,0.000588252,-0.000768717,-1.23225,0.000785752,0.0202765,1875,1380,35.6167,-15.4509
658,-356,35.5482,14.8107,-0.000131489,0.000148144,-0.000181164,0.000237171,-0.000220515,-1.11404,0.000264303,0.0156273,1882,1380,35.5482,-14.8107
665,-356,35.5135,14.2651,0.000502368,-0.000100761,-5.67752e-05,0.000507665,-0.000106059,-0.0930453,0.000378779,0.0142905,1889,1380,35.5135,-14.2651
672,-356,35.4677,13.6908,0.00122443,-0.000251132,9.87925e-06,0.0012245,-0.000251198,0.00669484,0.000911674,0.0149142,1896,1380,35.4676,-13.6908
679,-356,35.4772,13.0739,0.00203597,-0.000350024,3.31155e-05,0.00203643,-0.000350484,0.0138756,0.00148827,0.0181416,1903,1380,35.4772,-13.0738
686,-356,35.4723,12.4357,0.00297317,-0.000364752,-1.1851e-05,0.00297321,-0.000364795,-0.00355036,0.00211426,0.0191739,1910,1380,35.4723,-12.4356
693,-356,35.4329,11.8489,0.00401122,-0.000282072,-0.000112443,0.00401416,-0.000285015,-0.0261664,0.00277599,0.016743,1917,1380,35.4329,-11.8489
700,-356,35.4406,11.2709,0.00516827,-4.31608e-05,-0.000304353,0.00518599,-6.0875e-05,-0.0581375,0.00347779,0.0233612,1924,1380,35.4406,-11.2709
707,-356,35.588,10.5118,0,0,0,0,0,0,0,-1,1931,1380,35.588,-10.5118
714,-356,19.6907,5.82129,0,0,0,0,0,0,0,-1,1938,1380,19.6907,-5.82132
721,-356,17.2948,4.1958,0,0,0,0,0,0,0,-1,1945,1380,17.2948,-4.19584
728,-356,19.1846,2.31519,0,0,0,0,0,0,0,-1,1952,1380,19.1846,-2.31514
735,-356,20.0731,2.50842,0,0,0,0,0,0,0,-1,1959,1380,20.0731,-2.50844
742,-356,21.0111,2.43762,0,0,0,0,0,0,0,-1,1966,1380,21.0112,-2.43762
749,-356,22.1411,1.83276,0,0,0,0,0,0,0,-1,1973,1380,22.1411,-1.83275
756,-356,0,0,0,0,0,0,0,0,0,-1,1980,1380,0,0
763,-356,0,0,0,0,0,0,0,0,0,-1,1987,1380,0,0
770,-356,0,0,0,0,0,0,0,0,0,-1,1994,1380,0,0
777,-356,0,0,0,0,0,0,0,0,0,-1,2001,1380,0,0
784,-356,0,0,0,0,0,0,0,0,0,-1,2008,1380,0,0
791,-356,0,0,0,0,0,0,0,0,0,-1,2015,1380,0,0
798,-356,0,0,0,0,0,0,0,0,0,-1,2022,1380,0,0
805,-356,0,0,0,0,0,0,0,0,0,-1,2029,1380,0,0
812,-356,0,0,0,0,0,0,0,0,0,-1,2036,1380,0,0
-700,-363,0,0,0,0,0,0,0,0,0,-1,524,1387,0,0
-693,-363,0,0,0,0,0,0,0,0,0,-1,531,1387,0,0
-686,-363,0,0,0,0,0,0,0,0,0,-1,538,1387,0,0
-679,-363,0,0,0,0,0,0,0,0,0,-1,545,1387,0,0
-672,-363,0,0,0,0,0,0,0,0,0,-1,552,1387,0,0
-665,-363,0,0,0,0,0,0,0,0,0,-1,559,1387,0,0
-658,-363,0,0,0,0,0,0,0,0,0,-1,566,1387,0,0
-651,-363,0,0,0,0,0,0,0,0,0,-1,573,1387,0,0
-644,-363,0,0,0,0,0,0,0,0,0,-1,580,1387,0,0
-637,-363,0,0,0,0,0,0,0,0,0,-1,587,1387,0,0
-630,-363,0,0,0,0,0,0,0,0,0,-1,594,1387,0,0
-623,-363,-9.67566,-5.91846,0,0,0,0,0,0,0,-1,601,1387,-9.67563,5.91847
-616,-363,-9.02985,-2.98083,0,0,0,0,0,0,0,-1,608,1387,-9.02987,2.98079
-609,-363,-4.90265,0.195679,0,0,0,0,0,0,0,-1,615,1387,-4.90263,-0.195721
-602,-363,-9.65009,3.5321,0,0,0,0,0,0,0,-1,622,1387,-9.65007,-3.53211
-595,-363,-8.00256,3.48853,0,0,0,0,0,0,0,-1,629,1387,-8.00256,-3.48855
-588,-363,-10.8846,4.49768,0,0,0,0,0,0,0,-1,636,1387,-10.8846,-4.49773
-581,-363,-11.7469,5.15161,0,0,0,0,0,0,0,-1,643,1387,-11.747,-5.15167
-574,-363,-17.8334,8.33801,0,0,0,0,0,0,0,-1,650,1387,-17.8334,-8.33804
-567,-363,-18.623,9.23914,0,0,0,0,0,0,0,-1,657,1387,-18.6231,-9.23911
-560,-363,-18.6299,9.91907,0.00420739,0.00185616,0.00223331,0.0055556,0.000507939,0.543126,0.00354657,0.014108,664,1387,-18.6299,-9.9191
-553,-363,-18.6583,10.6022,0.00362071,0.00137724,0.00185691,0.00466841,0.000329548,0.513689,0.00300844,0.0134681,671,1387,-18.6583,-10.6022
-546,-363,-18.6901,11.2529,0.00324239,0.000998261,0.00160119,0.00407553,0.000165115,0.479778,0.00266369,0.0139027,678,1387,-18.6901,-11.2529
-539,-363,-18.672,11.916,0.00307642,0.000719185,0.00146896,0.00378115,1.44587e-05,0.447312,0.00251596,0.0162465,685,1387,-18.672,-11.916
-532,-363,-18.722,12.5692,0.00312976,0.000585752,0.0014939,0.00381983,-0.000104316,0.432726,0.00258203,0.0139955,692,1387,-18.722,-12.5692
-525,-363,-18.7374,13.2059,0.00336884,0.000555808,0.0016535,0.00413312,-0.000208472,0.432969,0.00282746,0.0121136,699,1387,-18.7374,-13.2059
-518,-363,-18.7374,13.866,0.00381202,0.000685009,0.00195718,0.00475353,-0.000256499,0.448376,0.00325789,0.0105486,706,1387,-18.7374,-13.866
-511,-363,-18.6619,14.5979,0.0045044,0.000973601,0.0024858,0.00578791,-0.000309906,0.476631,0.00396595,0.0293625,713,1387,-18.6618,-14.5979
-504,-363,-18.5232,15.3793,0,0,0,0,0,0,0,-1,720,1387,-18.5232,-15.3792
-497,-363,-7.18842,7.29944,0,0,0,0,0,0,0,-1,727,1387,-7.18839,-7.29945
-490,-363,-5.42413,4.6958,0,0,0,0,0,0,0,-1,734,1387,-5.42412,-4.69583
-483,-363,-6.28375,4.1394,0,0,0,0,0,0,0,-1,741,1387,-6.28374,-4.13944
-476,-363,-5.83807,4.31018,0,0,0,0,0,0,0,-1,748,1387,-5.8381,-4.31013
-469,-363,-10.7125,0.697754,0,0,0,0,0,0,0,-1,755,1387,-10.7125,-0.697811
-462,-363,-9.55951,-0.0830078,0,0,0,0,0,0,0,-1,762,1387,-9.55949,0.0830163
-455,-363,-13.1008,-0.290894,0,0,0,0,0,0,0,-1,769,1387,-13.1008,0.290921
-448,-363,-11.7324,2.46606,0,0,0,0,0,0,0,-1,776,1387,-11.7324,-2.46605
-441,-363,-12.4464,2.5354,0,0,0,0,0,0,0,-1,783,1387,-12.4463,-2.53537
-434,-363,-13.6918,2.14661,0,0,0,0,0,0,0,-1,790,1387,-13.6918,-2.14662
-427,-363,0,0,0,0,0,0,0,0,0,-1,797,1387,0,0
-420,-363,0,0,0,0,0,0,0,0,0,-1,804,1387,0,0
-413,-363,0,0,0,0,0,0,0,0,0,-1,811,1387,0,0
-406,-363,0,0,0,0,0,0,0,0,0,-1,818,1387,0,0
-399,-363,0,0,0,0,0,0,0,0,0,-1,825,1387,0,0
-392,-363,0,0,0,0,0,0,0,0,0,-1,832,1387,0,0
-385,-363,0,0,0,0,0,0,0,0,0,-1,839,1387,0,0
-378,-363,0,0,0,0,0,0,0,0,0,-1,846,1387,0,0
-371,-363,0,0,0,0,0,0,0,0,0,-1,853,1387,0,0
-364,-363,0,0,0,0,0,0,0,0,0,-1,860,1387,0,0
-357,-363,0,0,0,0,0,0,0,0,0,-1,867,1387,0,0
-350,-363,0,0,0,0,0,0,0,0,0,-1,874,1387,0,0
-343,-363,0,0,0,0,0,0,0,0,0,-1,881,1387,0,0
-336,-363,0,0,0,0,0,0,0,0,0,-1,888,1387,0,0
-329,-363,0,0,0,0,0,0,0,0,0,-1,895,1387,0,0
-322,-363,0,0,0,0,0,0,0,0,0,-1,902,1387,0,0
-315,-363,0,0,0,0,0,0,0,0,0,-1,909,1387,0,0
-308,-363,0,0,0,0,0,0,0,0,0,-1,916,1387,0,0
-301,-363,0,0,0,0,0,0,0,0,0,-1,923,1387,0,0
-294,-363,0,0,0,0,0,0,0,0,0,-1,930,1387,0,0
-287,-363,0,0,0,0,0,0,0,0,0,-1,937,1387,0,0
-280,-363,0,0,0,0,0,0,0,0,0,-1,944,1387,0,0
-273,-363,0,0,0,0,0,0,0,0,0,-1,951,1387,0,0
-266,-363,0,0,0,0,0,0,0,0,0,-1,958,1387,0,0
-259,-363,0,0,0,0,0,0,0,0,0,-1,965,1387,0,0
-252,-363,0,0,0,0,0,0,0,0,0,-1,972,1387,0,0
-245,-363,0,0,0,0,0,0,0,0,0,-1,979,1387,0,0
-238,-363,0,0,0,0,0,0,0,0,0,-1,986,1387,0,0
-231,-363,0,0,0,0,0,0,0,0,0,-1,993,1387,0,0
-224,-363,0,0,0,0,0,0,0,0,0,-1,1000,1387,0,0
-217,-363,0,0,0,0,0,0,0,0,0,-1,1007,1387,0,0
-210,-363,0,0,0,0,0,0,0,0,0,-1,1014,1387,0,0
-203,-363,0,0,0,0,0,0,0,0,0,-1,1021,1387,0,0
-196,-363,0,0,0,0,0,0,0,0,0,-1,1028,1387,0,0
-189,-363,0,0,0,0,0,0,0,0,0,-1,1035,1387,0,0
-182,-363,0,0,0,0,0,0,0,0,0,-1,1042,1387,0,0
-175,-363,0,0,0,0,0,0,0,0,0,-1,1049,1387,0,0
-168,-363,0,0,0,0,0,0,0,0,0,-1,1056,1387,0,0
-161,-363,0,0,0,0,0,0,0,0,0,-1,1063,1387,0,0
-154,-363,0,0,0,0,0,0,0,0,0,-1,1070,1387,0,0
-147,-363,0,0,0,0,0,0,0,0,0,-1,1077,1387,0,0
-140,-363,0,0,0,0,0,0,0,0,0,-1,1084,1387,0,0
-133,-363,0,0,0,0,0,0,0,0,0,-1,1091,1387,0,0
-126,-363,0,0,0,0,0,0,0,0,0,-1,1098,1387,0,0
-119,-363,0,0,0,0,0,0,0,0,0,-1,1105,1387,0,0
-112,-363,0,0,0,0,0,0,0,0,0,-1,1112,1387,0,0
-105,-363,0,0,0,0,0,0,0,0,0,-1,1119,1387,0,0
-98,-363,0,0,0,0,0,0,0,0,0,-1,1126,1387,0,0
-91,-363,0,0,0,0,0,0,0,0,0,-1,1133,1387,0,0
-84,-363,0,0,0,0,0,0,0,0,0,-1,1140,1387,0,0
-77,-363,0,0,0,0,0,0,0,0,0,-1,1147,1387,0,0
-70,-363,0,0,0,0,0,0,0,0,0,-1,1154,1387,0,0
-63,-363,0,0,0,0,0,0,0,0,0,-1,1161,1387,0,0
-56,-363,0,0,0,0,0,0,0,0,0,-1,1168,1387,0,0
-49,-363,0,0,0,0,0,0,0,0,0,-1,1175,1387,0,0
-42,-363,0,0,0,0,0,0,0,0,0,-1,1182,1387,0,0
-35,-363,0,0,0,0,0,0,0,0,0,-1,1189,1387,0,0
-28,-363,0,0,0,0,0,0,0,0,0,-1,1196,1387,0,0
-21,-363,0,0,0,0,0,0,0,0,0,-1,1203,1387,0,0
-14,-363,0,0,0,0,0,0,0,0,0,-1,1210,1387,0,0
-7,-363,0,0,0,0,0,0,0,0,0,-1,1217,1387,0,0
0,-363,0,0,0,0,0,0,0,0,0,-1,1224,1387,0,0
7,-363,0,0,0,0,0,0,0,0,0,-1,1231,1387,0,0
14,-363,0,0,0,0,0,0,0,0,0,-1,1238,1387,0,0
21,-363,0,0,0,0,0,0,0,0,0,-1,1245,1387,0,0
28,-363,0,0,0,0,0,0,0,0,0,-1,1252,1387,0,0
35,-363,0,0,0,0,0,0,0,0,0,-1,1259,1387,0,0
42,-363,0,0,0,0,0,0,0,0,0,-1,1266,1387,0,0
49,-363,0,0,0,0,0,0,0,0,0,-1,1273,1387,0,0
56,-363,0,0,0,0,0,0,0,0,0,-1,1280,1387,0,0
63,-363,0,0,0,0,0,0,0,0,0,-1,1287,1387,0,0
70,-363,0,0,0,0,0,0,0,0,0,-1,1294,1387,0,0
77,-363,0,0,0,0,0,0,0,0,0,-1,1301,1387,0,0
84,-363,0,0,0,0,0,0,0,0,0,-1,1308,1387,0,0
91,-363,0,0,0,0,0,0,0,0,0,-1,1315,1387,0,0
98,-363,0,0,0,0,0,0,0,0,0,-1,1322,1387,0,0
105,-363,0,0,0,0,0,0,0,0,0,-1,1329,1387,0,0
112,-363,0,0,0,0,0,0,0,0,0,-1,1336,1387,0,0
119,-363,0,0,0,0,0,0,0,0,0,-1,1343,1387,0,0
126,-363,0,0,0,0,0,0,0,0,0,-1,1350,1387,0,0
133,-363,0,0,0,0,0,0,0,0,0,-1,1357,1387,0,0
140,-363,0,0,0,0,0,0,0,0,0,-1,1364,1387,0,0
147,-363,0,0,0,0,0,0,0,0,0,-1,1371,1387,0,0
154,-363,0,0,0,0,0,0,0,0,0,-1,1378,1387,0,0
161,-363,0,0,0,0,0,0,0,0,0,-1,1385,1387,0,0
168,-363,0,0,0,0,0,0,0,0,0,-1,1392,1387,0,0
175,-363,0,0,0,0,0,0,0,0,0,-1,1399,1387,0,0
182,-363,0,0,0,0,0,0,0,0,0,-1,1406,1387,0,0
189,-363,0,0,0,0,0,0,0,0,0,-1,1413,1387,0,0
196,-363,0,0,0,0,0,0,0,0,0,-1,1420,1387,0,0
203,-363,0,0,0,0,0,0,0,0,0,-1,1427,1387,0,0
210,-363,0,0,0,0,0,0,0,0,0,-1,1434,1387,0,0
217,-363,0,0,0,0,0,0,0,0,0,-1,1441,1387,0,0
224,-363,0,0,0,0,0,0,0,0,0,-1,1448,1387,0,0
231,-363,0,0,0,0,0,0,0,0,0,-1,1455,1387,0,0
238,-363,0,0,0,0,0,0,0,0,0,-1,1462,1387,0,0
245,-363,0,0,0,0,0,0,0,0,0,-1,1469,1387,0,0
252,-363,0,0,0,0,0,0,0,0,0,-1,1476,1387,0,0
259,-363,0,0,0,0,0,0,0,0,0,-1,1483,1387,0,0
266,-363,0,0,0,0,0,0,0,0,0,-1,1490,1387,0,0
273,-363,0,0,0,0,0,0,0,0,0,-1,1497,1387,0,0
280,-363,0,0,0,0,0,0,0,0,0,-1,1504,1387,0,0
287,-363,0,0,0,0,0,0,0,0,0,-1,1511,1387,0,0
294,-363,0,0,0,0,0,0,0,0,0,-1,1518,1387,0,0
301,-363,0,0,0,0,0,0,0,0,0,-1,1525,1387,0,0
308,-363,0,0,0,0,0,0,0,0,0,-1,1532,1387,0,0
315,-363,0,0,0,0,0,0,0,0,0,-1,1539,1387,0,0
322,-363,0,0,0,0,0,0,0,0,0,-1,1546,1387,0,0
329,-363,0,0,0,0,0,0,0,0,0,-1,1553,1387,0,0
336,-363,0,0,0,0,0,0,0,0,0,-1,1560,1387,0,0
343,-363,0,0,0,0,0,0,0,0,0,-1,1567,1387,0,0
350,-363,0,0,0,0,0,0,0,0,0,-1,1574,1387,0,0
357,-363,0,0,0,0,0,0,0,0,0,-1,1581,1387,0,0
364,-363,0,0,0,0,0,0,0,0,0,-1,1588,1387,0,0
371,-363,0,0,0,0,0,0,0,0,0,-1,1595,1387,0,0
378,-363,0,0,0,0,0,0,0,0,0,-1,1602,1387,0,0
385,-363,0,0,0,0,0,0,0,0,0,-1,1609,1387,0,0
392,-363,0,0,0,0,0,0,0,0,0,-1,1616,1387,0,0
399,-363,0,0,0,0,0,0,0,0,0,-1,1623,1387,0,0
406,-363,0,0,0,0,0,0,0,0,0,-1,1630,1387,0,0
413,-363,0,0,0,0,0,0,0,0,0,-1,1637,1387,0,0
420,-363,0,0,0,0,0,0,0,0,0,-1,1644,1387,0,0
427,-363,0,0,0,0,0,0,0,0,0,-1,1651,1387,0,0
434,-363,0,0,0,0,0,0,0,0,0,-1,1658,1387,0,0
441,-363,0,0,0,0,0,0,0,0,0,-1,1665,1387,0,0
448,-363,0,0,0,0,0,0,0,0,0,-1,1672,1387,0,0
455,-363,0,0,0,0,0,0,0,0,0,-1,1679,1387,0,0
462,-363,0,0,0,0,0,0,0,0,0,-1,1686,1387,0,0
469,-363,0,0,0,0,0,0,0,0,0,-1,1693,1387,0,0
476,-363,0,0,0,0,0,0,0,0,0,-1,1700,1387,0,0
483,-363,0,0,0,0,0,0,0,0,0,-1,1707,1387,0,0
490,-363,0,0,0,0,0,0,0,0,0,-1,1714,1387,0,0
497,-363,0,0,0,0,0,0,0,0,0,-1,1721,1387,0,0
504,-363,0,0,0,0,0,0,0,0,0,-1,1728,1387,0,0
511,-363,0,0,0,0,0,0,0,0,0,-1,1735,1387,0,0
518,-363,0,0,0,0,0,0,0,0,0,-1,1742,1387,0,0
525,-363,0,0,0,0,0,0,0,0,0,-1,1749,1387,0,0
532,-363,0,0,0,0,0,0,0,0,0,-1,1756,1387,0,0
539,-363,0,0,0,0,0,0,0,0,0,-1,1763,1387,0,0
546,-363,0,0,0,0,0,0,0,0,0,-1,1770,1387,0,0
553,-363,45.9076,3.64331,0,0,0,0,0,0,0,-1,1777,1387,45.9076,-3.64336
560,-363,45.9459,3.6875,0,0,0,0,0,0,0,-1,1784,1387,45.9459,-3.68756
567,-363,45.9266,3.32825,0,0,0,0,0,0,0,-1,1791,1387,45.9266,-3.32824
574,-363,45.7261,2.8075,0,0,0,0,0,0,0,-1,1798,1387,45.7261,-2.80754
581,-363,39.2413,1.97632,0,0,0,0,0,0,0,-1,1805,1387,39.2413,-1.97636
588,-363,32.5608,6.72131,0,0,0,0,0,0,0,-1,1812,1387,32.5608,-6.72131
595,-363,31.4688,6.95435,0,0,0,0,0,0,0,-1,1819,1387,31.4688,-6.95431
602,-363,25.7437,5.33667,0,0,0,0,0,0,0,-1,1826,1387,25.7437,-5.33667
609,-363,27.7048,7.06885,0,0,0,0,0,0,0,-1,1833,1387,27.7048,-7.06882
616,-363,16.229,1.08704,0,0,0,0,0,0,0,-1,1840,1387,16.229,-1.08706
623,-363,15.7283,7.16663,0,0,0,0,0,0,0,-1,1847,1387,15.7282,-7.16665
630,-363,18.3192,9.27844,0,0,0,0,0,0,0,-1,1854,1387,18.3192,-9.27843
637,-363,34.9359,16.9318,0,0,0,0,0,0,0,-1,1861,1387,34.9359,-16.9317
644,-363,34.9647,16.1696,-0.000359082,0.000772152,-0.000786142,0.00117501,-0.000761939,-1.09724,0.00112674,0.0174489,1868,1387,34.9648,-16.1696
651,-363,34.9623,15.4869,-0.000332871,0.000308793,-0.000339819,0.000455305,-0.000479383,-1.16373,0.000539702,0.0121317,1875,1387,34.9623,-15.4869
658,-363,34.9503,14.8835,0.000164359,7.54553e-05,-0.000113599,0.000241894,-2.07923e-06,-0.598903,0.00016196,0.0130264,1882,1387,34.9503,-14.8835
665,-363,34.9207,14.2994,0.000789003,-0.000136667,3.97866e-05,0.00079071,-0.000138374,0.042876,0.000578805,0.0124998,1889,1387,34.9207,-14.2994
672,-363,34.8728,13.7184,0.00154831,-0.000290095,0.000136734,0.00155842,-0.000300209,0.0738351,0.00115213,0.0140735,1896,1387,34.8727,-13.7184
679,-363,34.8596,13.1154,0.00243568,-0.000391219,0.000181476,0.00244728,-0.000402822,0.063847,0.00178104,0.0150756,1903,1387,34.8596,-13.1153
686,-363,34.8483,12.5026,0.00346761,-0.000433938,0.000166514,0.0034747,-0.000441032,0.0425757,0.0024766,0.0149321,1910,1387,34.8483,-12.5026
693,-363,34.8219,11.8646,0.00465938,-0.000346797,5.53055e-05,0.00465999,-0.000347408,0.0110457,0.0032287,0.0143242,1917,1387,34.8219,-11.8646
700,-363,34.9624,11.2178,0.00604,-5.2204e-05,-0.000194494,0.0060462,-5.84067e-05,-0.0318818,0.00405041,0.0280179,1924,1387,34.9624,-11.2177
707,-363,35.2509,10.6254,0,0,0,0,0,0,0,-1,1931,1387,35.2509,-10.6254
714,-363,16.5782,5.3147,0,0,0,0,0,0,0,-1,1938,1387,16.5783,-5.31472
721,-363,14.4045,4.51685,0,0,0,0,0,0,0,-1,1945,1387,14.4045,-4.51685
728,-363,19.9756,0.853027,0,0,0,0,0,0,0,-1,1952,1387,19.9756,-0.853059
735,-363,21.4297,1.2981,0,0,0,0,0,0,0,-1,1959,1387,21.4297,-1.29811
742,-363,21.3621,2.79663,0,0,0,0,0,0,0,-1,1966,1387,21.362,-2.7966
749,-363,0,0,0,0,0,0,0,0,0,-1,1973,1387,0,0
756,-363,0,0,0,0,0,0,0,0,0,-1,1980,1387,0,0
763,-363,0,0,0,0,0,0,0,0,0,-1,1987,1387,0,0
770,-363,0,0,0,0,0,0,0,0,0,-1,1994,1387,0,0
777,-363,0,0,0,0,0,0,0,0,0,-1,2001,1387,0,0
784,-363,0,0,0,0,0,0,0,0,0,-1,2008,1387,0,0
791,-363,0,0,0,0,0,0,0,0,0,-1,2015,1387,0,0
798,-363,0,0,0,0,0,0,0,0,0,-1,2022,1387,0,0
805,-363,0,0,0,0,0,0,0,0,0,-1,2029,1387,0,0
812,-363,0,0,0,0,0,0,0,0,0,-1,2036,1387,0,0
-700,-370,0,0,0,0,0,0,0,0,0,-1,524,1394,0,0
-693,-370,0,0,0,0,0,0,0,0,0,-1,531,1394,0,0
-686,-370,0,0,0,0,0,0,0,0,0,-1,538,1394,0,0
-679,-370,0,0,0,0,0,0,0,0,0,-1,545,1394,0,0
-672,-370,0,0,0,0,0,0,0,0,0,-1,552,1394,0,0
-665,-370,0,0,0,0,0,0,0,0,0,-1,559,1394,0,0
-658,-370,0,0,0,0,0,0,0,0,0,-1,566,1394,0,0
-651,-370,0,0,0,0,0,0,0,0,0,-1,573,1394,0,0
-644,-370,0,0,0,0,0,0,0,0,0,-1,580,1394,0,0
-637,-370,0,0,0,0,0,0,0,0,0,-1,587,1394,0,0
-630,-370,0,0,0,0,0,0,0,0,0,-1,594,1394,0,0
-623,-370,-10.1758,-7.10486,0,0,0,0,0,0,0,-1,601,1394,-10.1758,7.10483
-616,-370,-8.85925,-1.61475,0,0,0,0,0,0,0,-1,608,1394,-8.85925,1.61476
-609,-370,-5.39325,0.0421143,0,0,0,0,0,0,0,-1,615,1394,-5.39328,-0.0421372
-602,-370,-12.3151,3.44592,0,0,0,0,0,0,0,-1,622,1394,-12.3151,-3.44595
-595,-370,-7.53284,5.44214,0,0,0,0,0,0,0,-1,629,1394,-7.53284,-5.44216
-588,-370,-11.2422,4.50598,0,0,0,0,0,0,0,-1,636,1394,-11.2422,-4.50596
-581,-370,-13.1575,5.84888,0,0,0,0,0,0,0,-1,643,1394,-13.1575,-5.84887
-574,-370,-13.0107,6.69861,0,0,0,0,0,0,0,-1,650,1394,-13.0108,-6.69866
-567,-370,-18.0006,9.14856,0,0,0,0,0,0,0,-1,657,1394,-18.0006,-9.14853
-560,-370,-18.0535,9.88989,0.00465635,0.0019952,0.00251531,0.00617134,0.00048022,0.542113,0.00396386,0.0301689,664,1394,-18.0535,-9.88985
-553,-370,-18.0213,10.608,0.00396824,0.0015118,0.00204453,0.0051251,0.00035493,0.514919,0.00330479,0.0105948,671,1394,-18.0213,-10.608
-546,-370,-17.9973,11.2697,0.00346969,0.00112129,0.00170523,0.00436589,0.000225093,0.483885,0.00283854,0.0138786,678,1394,-17.9973,-11.2696
-539,-370,-17.9743,11.9764,0.00316529,0.000824459,0.0014872,0.0038874,0.000102352,0.452019,0.00255816,0.0186106,685,1394,-17.9743,-11.9765
-532,-370,-18.06,12.589,0.00307387,0.00067367,0.00143092,0.00374133,6.20843e-06,0.436453,0.00249215,0.020192,692,1394,-18.06,-12.589
-525,-370,-18.0739,13.2209,0.00315703,0.000635439,0.00151894,0.00387026,-7.77909e-05,0.438999,0.00260649,0.0182158,699,1394,-18.0739,-13.221
-518,-370,-18.0963,13.8667,0.00341399,0.000729231,0.00174376,0.00427222,-0.000128996,0.457365,0.0028921,0.0133658,706,1394,-18.0963,-13.8668
-511,-370,-18.0844,14.5519,0.00388633,0.00099128,0.00215987,0.00503888,-0.000161268,0.490179,0.00341428,0.0156658,713,1394,-18.0844,-14.5519
-504,-370,-18.1074,15.2378,0,0,0,0,0,0,0,-1,720,1394,-18.1074,-15.2377
-497,-370,-12.3546,11.7982,0,0,0,0,0,0,0,-1,727,1394,-12.3546,-11.7983
-490,-370,-5.30695,4.5271,0,0,0,0,0,0,0,-1,734,1394,-5.30698,-4.52704
-483,-370,-6.02997,4.59253,0,0,0,0,0,0,0,-1,741,1394,-6.02994,-4.5925
-476,-370,-6.75293,4.65796,0,0,0,0,0,0,0,-1,748,1394,-6.7529,-4.65795
-469,-370,-10.584,1.14294,0,0,0,0,0,0,0,-1,755,1394,-10.584,-1.14293
-462,-370,-9.54462,0.387207,0,0,0,0,0,0,0,-1,762,1394,-9.5446,-0.387176
-455,-370,-8.50525,-0.36853,0,0,0,0,0,0,0,-1,769,1394,-8.50523,0.368582
-448,-370,-10.9543,2.28833,0,0,0,0,0,0,0,-1,776,1394,-10.9543,-2.28835
-441,-370,-11.8699,1.8313,0,0,0,0,0,0,0,-1,783,1394,-11.8699,-1.83127
-434,-370,-12.7855,1.37415,0,0,0,0,0,0,0,-1,790,1394,-12.7855,-1.37419
-427,-370,0,0,0,0,0,0,0,0,0,-1,797,1394,0,0
-420,-370,0,0,0,0,0,0,0,0,0,-1,804,1394,0,0
-413,-370,0,0,0,0,0,0,0,0,0,-1,811,1394,0,0
-406,-370,0,0,0,0,0,0,0,0,0,-1,818,1394,0,0
-399,-370,0,0,0,0,0,0,0,0,0,-1,825,1394,0,0
-392,-370,0,0,0,0,0,0,0,0,0,-1,832,1394,0,0
-385,-370,0,0,0,0,0,0,0,0,0,-1,839,1394,0,0
-378,-370,0,0,0,0,0,0,0,0,0,-1,846,1394,0,0
-371,-370,0,0,0,0,0,0,0,0,0,-1,853,1394,0,0
-364,-370,0,0,0,0,0,0,0,0,0,-1,860,1394,0,0
-357,-370,0,0,0,0,0,0,0,0,0,-1,867,1394,0,0
-350,-370,0,0,0,0,0,0,0,0,0,-1,874,1394,0,0
-343,-370,0,0,0,0,0,0,0,0,0,-1,881,1394,0,0
-336,-370,0,0,0,0,0,0,0,0,0,-1,888,1394,0,0
-329,-370,0,0,0,0,0,0,0,0,0,-1,895,1394,0,0
-322,-370,0,0,0,0,0,0,0,0,0,-1,902,1394,0,0
-315,-370,0,0,0,0,0,0,0,0,0,-1,909,1394,0,0
-308,-370,0,0,0,0,0,0,0,0,0,-1,916,1394,0,0
-301,-370,0,0,0,0,0,0,0,0,0,-1,923,1394,0,0
-294,-370,0,0,0,0,0,0,0,0,0,-1,930,1394,0,0
-287,-370,0,0,0,0,0,0,0,0,0,-1,937,1394,0,0
-280,-370,0,0,0,0,0,0,0,0,0,-1,944,1394,0,0
-273,-370,0,0,0,0,0,0,0,0,0,-1,951,1394,0,0
-266,-370,0,0,0,0,0,0,0,0,0,-1,958,1394,0,0
-259,-370,0,0,0,0,0,0,0,0,0,-1,965,1394,0,0
-252,-370,0,0,0,0,0,0,0,0,0,-1,972,1394,0,0
-245,-370,0,0,0,0,0,0,0,0,0,-1,979,1394,0,0
-238,-370,0,0,0,0,0,0,0,0,0,-1,986,1394,0,0
-231,-370,0,0,0,0,0,0,0,0,0,-1,993,1394,0,0
-224,-370,0,0,0,0,0,0,0,0,0,-1,1000,1394,0,0
-217,-370,0,0,0,0,0,0,0,0,0,-1,1007,1394,0,0
-210,-370,0,0,0,0,0,0,0,0,0,-1,1014,1394,0,0
-203,-370,0,0,0,0,0,0,0,0,0,-1,1021,1394,0,0
-196,-370,0,0,0,0,0,0,0,0,0,-1,1028,1394,0,0
-189,-370,0,0,0,0,0,0,0,0,0,-1,1035,1394,0,0
-182,-370,0,0,0,0,0,0,0,0,0,-1,1042,1394,0,0
-175,-370,0,0,0,0,0,0,0,0,0,-1,1049,1394,0,0
-168,-370,0,0,0,0,0,0,0,0,0,-1,1056,1394,0,0
-161,-370,0,0,0,0,0,0,0,0,0,-1,1063,1394,0,0
-154,-370,0,0,0,0,0,0,0,0,0,-1,1070,1394,0,0
-147,-370,0,0,0,0,0,0,0,0,0,-1,1077,1394,0,0
-140,-370,0,0,0,0,0,0,0,0,0,-1,1084,1394,0,0
-133,-370,0,0,0,0,0,0,0,0,0,-1,1091,1394,0,0
-126,-370,0,0,0,0,0,0,0,0,0,-1,1098,1394,0,0
-119,-370,0,0,0,0,0,0,0,0,0,-1,1105,1394,0,0
-112,-370,0,0,0,0,0,0,0,0,0,-1,1112,1394,0,0
-105,-370,0,0,0,0,0,0,0,0,0,-1,1119,1394,0,0
-98,-370,0,0,0,0,0,0,0,0,0,-1,1126,1394,0,0
-91,-370,0,0,0,0,0,0,0,0,0,-1,1133,1394,0,0
-84,-370,0,0,0,0,0,0,0,0,0,-1,1140,1394,0,0
-77,-370,0,0,0,0,0,0,0,0,0,-1,1147,1394,0,0
-70,-370,0,0,0,0,0,0,0,0,0,-1,1154,1394,0,0
-63,-370,0,0,0,0,0,0,0,0,0,-1,1161,1394,0,0
-56,-370,0,0,0,0,0,0,0,0,0,-1,1168,1394,0,0
-49,-370,0,0,0,0,0,0,0,0,0,-1,1175,1394,0,0
-42,-370,0,0,0,0,0,0,0,0,0,-1,1182,1394,0,0
-35,-370,0,0,0,0,0,0,0,0,0,-1,1189,1394,0,0
-28,-370,0,0,0,0,0,0,0,0,0,-1,1196,1394,0,0
-21,-370,0,0,0,0,0,0,0,0,0,-1,1203,1394,0,0
-14,-370,0,0,0,0,0,0,0,0,0,-1,1210,1394,0,0
-7,-370,0,0,0,0,0,0,0,0,0,-1,1217,1394,0,0
0,-370,0,0,0,0,0,0,0,0,0,-1,1224,1394,0,0
7,-370,0,0,0,0,0,0,0,0,0,-1,1231,1394,0,0
14,-370,0,0,0,0,0,0,0,0,0,-1,1238,1394,0,0
21,-370,0,0,0,0,0,0,0,0,0,-1,1245,1394,0,0
28,-370,0,0,0,0,0,0,0,0,0,-1,1252,1394,0,0
35,-370,0,0,0,0,0,0,0,0,0,-1,1259,1394,0,0
42,-370,0,0,0,0,0,0,0,0,0,-1,1266,1394,0,0
49,-370,0,0,0,0,0,0,0,0,0,-1,1273,1394,0,0
56,-370,0,0,0,0,0,0,0,0,0,-1,1280,1394,0,0
63,-370,0,0,0,0,0,0,0,0,0,-1,1287,1394,0,0
70,-370,0,0,0,0,0,0,0,0,0,-1,1294,1394,0,0
77,-370,0,0,0,0,0,0,0,0,0,-1,1301,1394,0,0
84,-370,0,0,0,0,0,0,0,0,0,-1,1308,1394,0,0
91,-370,0,0,0,0,0,0,0,0,0,-1,1315,1394,0,0
98,-370,0,0,0,0,0,0,0,0,0,-1,1322,1394,0,0
105,-370,0,0,0,0,0,0,0,0,0,-1,1329,1394,0,0
112,-370,0,0,0,0,0,0,0,0,0,-1,1336,1394,0,0
119,-370,0,0,0,0,0,0,0,0,0,-1,1343,1394,0,0
126,-370,0,0,0,0,0,0,0,0,0,-1,1350,1394,0,0
133,-370,0,0,0,0,0,0,0,0,0,-1,1357,1394,0,0
140,-370,0,0,0,0,0,0,0,0,0,-1,1364,1394,0,0
147,-370,0,0,0,0,0,0,0,0,0,-1,1371,1394,0,0
154,-370,0,0,0,0,0,0,0,0,0,-1,1378,1394,0,0
161,-370,0,0,0,0,0,0,0,0,0,-1,1385,1394,0,0
168,-370,0,0,0,0,0,0,0,0,0,-1,1392,1394,0,0
175,-370,0,0,0,0,0,0,0,0,0,-1,1399,1394,0,0
182,-370,0,0,0,0,0,0,0,0,0,-1,1406,1394,0,0
189,-370,0,0,0,0,0,0,0,0,0,-1,1413,1394,0,0
196,-370,0,0,0,0,0,0,0,0,0,-1,1420,1394,0,0
203,-370,0,0,0,0,0,0,0,0,0,-1,1427,1394,0,0
210,-370,0,0,0,0,0,0,0,0,0,-1,1434,1394,0,0
217,-370,0,0,0,0,0,0,0,0,0,-1,1441,1394,0,0
224,-370,0,0,0,0,0,0,0,0,0,-1,1448,1394,0,0
231,-370,0,0,0,0,0,0,0,0,0,-1,1455,1394,0,0
238,-370,0,0,0,0,0,0,0,0,0,-1,1462,1394,0,0
245,-370,0,0,0,0,0,0,0,0,0,-1,1469,1394,0,0
252,-370,0,0,0,0,0,0,0,0,0,-1,1476,1394,0,0
259,-370,0,0,0,0,0,0,0,0,0,-1,1483,1394,0,0
266,-370,0,0,0,0,0,0,0,0,0,-1,1490,1394,0,0
273,-370,0,0,0,0,0,0,0,0,0,-1,1497,1394,0,0
280,-370,0,0,0,0,0,0,0,0,0,-1,1504,1394,0,0
287,-370,0,0,0,0,0,0,0,0,0,-1,1511,1394,0,0
294,-370,0,0,0,0,0,0,0,0,0,-1,1518,1394,0,0
301,-370,0,0,0,0,0,0,0,0,0,-1,1525,1394,0,0
308,-370,0,0,0,0,0,0,0,0,0,-1,1532,1394,0,0
315,-370,0,0,0,0,0,0,0,0,0,-1,1539,1394,0,0
322,-370,0,0,0,0,0,0,0,0,0,-1,1546,1394,0,0
329,-370,0,0,0,0,0,0,0,0,0,-1,1553,1394,0,0
336,-370,0,0,0,0,0,0,0,0,0,-1,1560,1394,0,0
343,-370,0,0,0,0,0,0,0,0,0,-1,1567,1394,0,0
350,-370,0,0,0,0,0,0,0,0,0,-1,1574,1394,0,0
357,-370,0,0,0,0,0,0,0,0,0,-1,1581,1394,0,0
364,-370,0,0,0,0,0,0,0,0,0,-1,1588,1394,0,0
371,-370,0,0,0,0,0,0,0,0,0,-1,1595,1394,0,0
378,-370,0,0,0,0,0,0,0,0,0,-1,1602,1394,0,0
385,-370,0,0,0,0,0,0,0,0,0,-1,1609,1394,0,0
392,-370,0,0,0,0,0,0,0,0,0,-1,1616,1394,0,0
399,-370,0,0,0,0,0,0,0,0,0,-1,1623,1394,0,0
406,-370,0,0,0,0,0,0,0,0,0,-1,1630,1394,0,0
413,-370,0,0,0,0,0,0,0,0,0,-1,1637,1394,0,0
420,-370,0,0,0,0,0,0,0,0,0,-1,1644,1394,0,0
427,-370,0,0,0,0,0,0,0,0,0,-1,1651,1394,0,0
434,-370,0,0,0,0,0,0,0,0,0,-1,1658,1394,0,0
441,-370,0,0,0,0,0,0,0,0,0,-1,1665,1394,0,0
448,-370,0,0,0,0,0,0,0,0,0,-1,1672,1394,0,0
455,-370,0,0,0,0,0,0,0,0,0,-1,1679,1394,0,0
462,-370,0,0,0,0,0,0,0,0,0,-1,1686,1394,0,0
469,-370,0,0,0,0,0,0,0,0,0,-1,1693,1394,0,0
476,-370,0,0,0,0,0,0,0,0,0,-1,1700,1394,0,0
483,-370,0,0,0,0,0,0,0,0,0,-1,1707,1394,0,0
490,-370,0,0,0,0,0,0,0,0,0,-1,1714,1394,0,0
497,-370,0,0,0,0,0,0,0,0,0,-1,1721,1394,0,0
504,-370,0,0,0,0,0,0,0,0,0,-1,1728,1394,0,0
511,-370,0,0,0,0,0,0,0,0,0,-1,1735,1394,0,0
518,-370,0,0,0,0,0,0,0,0,0,-1,1742,1394,0,0
525,-370,0,0,0,0,0,0,0,0,0,-1,1749,1394,0,0
532,-370,0,0,0,0,0,0,0,0,0,-1,1756,1394,0,0
539,-370,0,0,0,0,0,0,0,0,0,-1,1763,1394,0,0
546,-370,27.4949,2.81201,0,0,0,0,0,0,0,-1,1770,1394,27.4948,-2.81198
553,-370,26.5985,1.99329,0,0,0,0,0,0,0,-1,1777,1394,26.5985,-1.99327
560,-370,46.0132,3.65686,0,0,0,0,0,0,0,-1,1784,1394,46.0132,-3.65689
567,-370,46.1089,3.11719,0,0,0,0,0,0,0,-1,1791,1394,46.1089,-3.1172
574,-370,38.8953,1.49353,0,0,0,0,0,0,0,-1,1798,1394,38.8952,-1.49348
581,-370,39.178,2.86145,0,0,0,0,0,0,0,-1,1805,1394,39.1779,-2.86145
588,-370,39.2102,4.27661,0,0,0,0,0,0,0,-1,1812,1394,39.2102,-4.27657
595,-370,25.793,4.5271,0,0,0,0,0,0,0,-1,1819,1394,25.793,-4.52711
602,-370,25.1077,5.34937,0,0,0,0,0,0,0,-1,1826,1394,25.1077,-5.34932
609,-370,16.712,0.993286,0,0,0,0,0,0,0,-1,1833,1394,16.7121,-0.99323
616,-370,16.7764,7.23315,0,0,0,0,0,0,0,-1,1840,1394,16.7764,-7.23313
623,-370,17.6625,8.94263,0,0,0,0,0,0,0,-1,1847,1394,17.6624,-8.94258
630,-370,20.9681,11.1785,0,0,0,0,0,0,0,-1,1854,1394,20.9681,-11.1784
637,-370,34.4093,16.7831,0,0,0,0,0,0,0,-1,1861,1394,34.4093,-16.7831
644,-370,34.3861,16.1472,-0.000266529,0.000474077,-0.000542109,0.000760284,-0.000552737,-1.08504,0.000761223,0.0145024,1868,1394,34.3861,-16.1472
651,-370,34.3457,15.5289,-0.000105724,0.000174761,-0.000201021,0.000279626,-0.000210588,-1.08997,0.000283959,0.0127291,1875,1394,34.3457,-15.529
658,-370,34.3409,14.9565,0.000408117,-6.29237e-06,-2.11643e-06,0.000408128,-6.30318e-06,-0.00510692,0.000274211,0.012524,1882,1394,34.341,-14.9566
665,-370,34.3206,14.3438,0.0010324,-0.000190388,0.000168241,0.00105513,-0.000213114,0.134264,0.00078417,0.0144169,1889,1394,34.3206,-14.3437
672,-370,34.2635,13.7263,0.00181079,-0.000358552,0.000301367,0.00185188,-0.00039964,0.135503,0.00138713,0.0157519,1896,1394,34.2635,-13.7264
679,-370,34.245,13.1243,0.00273362,-0.000513817,0.000408301,0.00278417,-0.000564366,0.123176,0.00207004,0.0146548,1903,1394,34.245,-13.1242
686,-370,34.2357,12.5194,0.00381878,-0.000658205,0.000485056,0.00387073,-0.000710155,0.106695,0.00284688,0.0147671,1910,1394,34.2357,-12.5194
693,-370,34.2074,11.8702,0.0051255,-0.000683387,0.000451447,0.00516037,-0.000718263,0.0770998,0.00370296,0.013792,1917,1394,34.2074,-11.8703
700,-370,34.3965,11.1283,0.00669425,-0.000531588,0.000285064,0.00670548,-0.000542816,0.0393691,0.00466181,0.041789,1924,1394,34.3965,-11.1283
707,-370,34.7777,10.2584,0,0,0,0,0,0,0,-1,1931,1394,34.7777,-10.2584
714,-370,16.9116,5.93018,0,0,0,0,0,0,0,-1,1938,1394,16.9116,-5.93014
721,-370,17.2007,4.69153,0,0,0,0,0,0,0,-1,1945,1394,17.2007,-4.69158
728,-370,20.5315,-0.313354,0,0,0,0,0,0,0,-1,1952,1394,20.5315,0.313332
735,-370,22.3652,0.233398,0,0,0,0,0,0,0,-1,1959,1394,22.3652,-0.233355
742,-370,24.1989,0.780029,0,0,0,0,0,0,0,-1,1966,1394,24.1989,-0.780041
749,-370,0,0,0,0,0,0,0,0,0,-1,1973,1394,0,0
756,-370,0,0,0,0,0,0,0,0,0,-1,1980,1394,0,0
763,-370,0,0,0,0,0,0,0,0,0,-1,1987,1394,0,0
770,-370,0,0,0,0,0,0,0,0,0,-1,1994,1394,0,0
777,-370,0,0,0,0,0,0,0,0,0,-1,2001,1394,0,0
784,-370,0,0,0,0,0,0,0,0,0,-1,2008,1394,0,0
791,-370,0,0,0,0,0,0,0,0,0,-1,2015,1394,0,0
798,-370,0,0,0,0,0,0,0,0,0,-1,2022,1394,0,0
805,-370,0,0,0,0,0,0,0,0,0,-1,2029,1394,0,0
812,-370,0,0,0,0,0,0,0,0,0,-1,2036,1394,0,0
-700,-377,0,0,0,0,0,0,0,0,0,-1,524,1401,0,0
-693,-377,0,0,0,0,0,0,0,0,0,-1,531,1401,0,0
-686,-377,0,0,0,0,0,0,0,0,0,-1,538,1401,0,0
-679,-377,0,0,0,0,0,0,0,0,0,-1,545,1401,0,0
-672,-377,0,0,0,0,0,0,0,0,0,-1,552,1401,0,0
-665,-377,0,0,0,0,0,0,0,0,0,-1,559,1401,0,0
-658,-377,0,0,0,0,0,0,0,0,0,-1,566,1401,0,0
-651,-377,0,0,0,0,0,0,0,0,0,-1,573,1401,0,0
-644,-377,0,0,0,0,0,0,0,0,0,-1,580,1401,0,0
-637,-377,0,0,0,0,0,0,0,0,0,-1,587,1401,0,0
-630,-377,0,0,0,0,0,0,0,0,0,-1,594,1401,0,0
-623,-377,0,0,0,0,0,0,0,0,0,-1,601,1401,0,0
-616,-377,-9.43915,-2.4906,0,0,0,0,0,0,0,-1,608,1401,-9.43915,2.49062
-609,-377,-7.2821,-1.35278,0,0,0,0,0,0,0,-1,615,1401,-7.28208,1.35279
-602,-377,-14.9736,3.98279,0,0,0,0,0,0,0,-1,622,1401,-14.9737,-3.98276
-595,-377,-6.9082,1.18201,0,0,0,0,0,0,0,-1,629,1401,-6.90822,-1.18204
-588,-377,-12.8003,3.44751,0,0,0,0,0,0,0,-1,636,1401,-12.8003,-3.44754
-581,-377,-11.8243,6.21521,0,0,0,0,0,0,0,-1,643,1401,-11.8244,-6.21519
-574,-377,-12.2761,6.60547,0,0,0,0,0,0,0,-1,650,1401,-12.2761,-6.60552
-567,-377,-13.4844,7.41931,0,0,0,0,0,0,0,-1,657,1401,-13.4845,-7.41926
-560,-377,-17.4855,9.82678,0,0,0,0,0,0,0,-1,664,1401,-17.4856,-9.82679
-553,-377,-17.3773,10.5935,0.00447649,0.00169211,0.00226298,0.00574123,0.000427369,0.509636,0.00369328,0.0154555,671,1401,-17.3773,-10.5935
-546,-377,-17.3816,11.3534,0.0038083,0.00125128,0.00182843,0.00476087,0.000298708,0.48029,0.00307918,0.0154579,678,1401,-17.3816,-11.3535
-539,-377,-17.3443,11.9634,0.00333188,0.000909385,0.00152135,0.00406527,0.000175989,0.449199,0.00265346,0.0216078,685,1401,-17.3443,-11.9633
-532,-377,-17.4216,12.5522,0.0030681,0.000713338,0.00137815,0.00370332,7.81214e-05,0.431899,0.00244326,0.0218073,692,1401,-17.4216,-12.5523
-525,-377,-17.3784,13.2577,0.00298183,0.000658384,0.00139198,0.00363317,7.04348e-06,0.43766,0.00241977,0.0241645,699,1401,-17.3784,-13.2577
-518,-377,-17.4313,13.9136,0.00305035,0.000722765,0.00153558,0.00381332,-4.02072e-05,0.461134,0.00255572,0.0157275,706,1401,-17.4313,-13.9136
-511,-377,-17.4592,14.5734,0.00331014,0.000962091,0.00184174,0.00432022,-4.79927e-05,0.501645,0.00289628,0.0120369,713,1401,-17.4592,-14.5734
-504,-377,-17.4974,15.2583,0.00375347,0.00143966,0.00236954,0.00523345,-4.03186e-05,0.5583,0.00350249,0.0151398,720,1401,-17.4974,-15.2583
-497,-377,-17.5174,15.9238,0,0,0,0,0,0,0,-1,727,1401,-17.5174,-15.9239
-490,-377,-8.88409,10.1245,0,0,0,0,0,0,0,-1,734,1401,-8.8841,-10.1245
-483,-377,-5.6524,5.07324,0,0,0,0,0,0,0,-1,741,1401,-5.6524,-5.07325
-476,-377,-6.11682,5.10535,0,0,0,0,0,0,0,-1,748,1401,-6.11681,-5.10537
-469,-377,-10.3211,1.9281,0,0,0,0,0,0,0,-1,755,1401,-10.3211,-1.92808
-462,-377,-9.2204,1.0022,0,0,0,0,0,0,0,-1,762,1401,-9.22039,-1.00218
-455,-377,-8.11969,0.0762939,0,0,0,0,0,0,0,-1,769,1401,-8.11968,-0.0762759
-448,-377,-9.05334,0.877319,0,0,0,0,0,0,0,-1,776,1401,-9.05332,-0.877324
-441,-377,-11.212,0.763428,0,0,0,0,0,0,0,-1,783,1401,-11.212,-0.763415
-434,-377,-11.0984,0.996216,0,0,0,0,0,0,0,-1,790,1401,-11.0984,-0.996265
-427,-377,-11.1733,1.25732,0,0,0,0,0,0,0,-1,797,1401,-11.1733,-1.25732
-420,-377,0,0,0,0,0,0,0,0,0,-1,804,1401,0,0
-413,-377,0,0,0,0,0,0,0,0,0,-1,811,1401,0,0
-406,-377,0,0,0,0,0,0,0,0,0,-1,818,1401,0,0
-399,-377,0,0,0,0,0,0,0,0,0,-1,825,1401,0,0
-392,-377,0,0,0,0,0,0,0,0,0,-1,832,1401,0,0
-385,-377,0,0,0,0,0,0,0,0,0,-1,839,1401,0,0
-378,-377,0,0,0,0,0,0,0,0,0,-1,846,1401,0,0
-371,-377,0,0,0,0,0,0,0,0,0,-1,853,1401,0,0
-364,-377,0,0,0,0,0,0,0,0,0,-1,860,1401,0,0
-357,-377,0,0,0,0,0,0,0,0,0,-1,867,1401,0,0
-350,-377,0,0,0,0,0,0,0,0,0,-1,874,1401,0,0
-343,-377,0,0,0,0,0,0,0,0,0,-1,881,1401,0,0
-336,-377,0,0,0,0,0,0,0,0,0,-1,888,1401,0,0
-329,-377,0,0,0,0,0,0,0,0,0,-1,895,1401,0,0
-322,-377,0,0,0,0,0,0,0,0,0,-1,902,1401,0,0
-315,-377,0,0,0,0,0,0,0,0,0,-1,909,1401,0,0
-308,-377,0,0,0,0,0,0,0,0,0,-1,916,1401,0,0
-301,-377,0,0,0,0,0,0,0,0,0,-1,923,1401,0,0
-294,-377,0,0,0,0,0,0,0,0,0,-1,930,1401,0,0
-287,-377,0,0,0,0,0,0,0,0,0,-1,937,1401,0,0
-280,-377,0,0,0,0,0,0,0,0,0,-1,944,1401,0,0
-273,-377,0,0,0,0,0,0,0,0,0,-1,951,1401,0,0
-266,-377,0,0,0,0,0,0,0,0,0,-1,958,1401,0,0
-259,-377,0,0,0,0,0,0,0,0,0,-1,965,1401,0,0
-252,-377,0,0,0,0,0,0,0,0,0,-1,972,1401,0,0
-245,-377,0,0,0,0,0,0,0,0,0,-1,979,1401,0,0
-238,-377,0,0,0,0,0,0,0,0,0,-1,986,1401,0,0
-231,-377,0,0,0,0,0,0,0,0,0,-1,993,1401,0,0
-224,-377,0,0,0,0,0,0,0,0,0,-1,1000,1401,0,0
-217,-377,0,0,0,0,0,0,0,0,0,-1,1007,1401,0,0
-210,-377,0,0,0,0,0,0,0,0,0,-1,1014,1401,0,0
-203,-377,0,0,0,0,0,0,0,0,0,-1,1021,1401,0,0
-196,-377,0,0,0,0,0,0,0,0,0,-1,1028,1401,0,0
-189,-377,0,0,0,0,0,0,0,0,0,-1,1035,1401,0,0
-182,-377,0,0,0,0,0,0,0,0,0,-1,1042,1401,0,0
-175,-377,0,0,0,0,0,0,0,0,0,-1,1049,1401,0,0
-168,-377,0,0,0,0,0,0,0,0,0,-1,1056,1401,0,0
-161,-377,0,0,0,0,0,0,0,0,0,-1,1063,1401,0,0
-154,-377,0,0,0,0,0,0,0,0,0,-1,1070,1401,0,0
-147,-377,0,0,0,0,0,0,0,0,0,-1,1077,1401,0,0
-140,-377,0,0,0,0,0,0,0,0,0,-1,1084,1401,0,0
-133,-377,0,0,0,0,0,0,0,0,0,-1,1091,1401,0,0
-126,-377,0,0,0,0,0,0,0,0,0,-1,1098,1401,0,0
-119,-377,0,0,0,0,0,0,0,0,0,-1,1105,1401,0,0
-112,-377,0,0,0,0,0,0,0,0,0,-1,1112,1401,0,0
-105,-377,0,0,0,0,0,0,0,0,0,-1,1119,1401,0,0
-98,-377,0,0,0,0,0,0,0,0,0,-1,1126,1401,0,0
-91,-377,0,0,0,0,0,0,0,0,0,-1,1133,1401,0,0
-84,-377,0,0,0,0,0,0,0,0,0,-1,1140,1401,0,0
-77,-377,0,0,0,0,0,0,0,0,0,-1,1147,1401,0,0
-70,-377,0,0,0,0,0,0,0,0,0,-1,1154,1401,0,0
-63,-377,0,0,0,0,0,0,0,0,0,-1,1161,1401,0,0
-56,-377,0,0,0,0,0,0,0,0,0,-1,1168,1401,0,0
-49,-377,0,0,0,0,0,0,0,0,0,-1,1175,1401,0,0
-42,-377,0,0,0,0,0,0,0,0,0,-1,1182,1401,0,0
-35,-377,0,0,0,0,0,0,0,0,0,-1,1189,1401,0,0
-28,-377,0,0,0,0,0,0,0,0,0,-1,1196,1401,0,0
-21,-377,0,0,0,0,0,0,0,0,0,-1,1203,1401,0,0
-14,-377,0,0,0,0,0,0,0,0,0,-1,1210,1401,0,0
-7,-377,0,0,0,0,0,0,0,0,0,-1,1217,1401,0,0
0,-377,0,0,0,0,0,0,0,0,0,-1,1224,1401,0,0
7,-377,0,0,0,0,0,0,0,0,0,-1,1231,1401,0,0
14,-377,0,0,0,0,0,0,0,0,0,-1,1238,1401,0,0
21,-377,0,0,0,0,0,0,0,0,0,-1,1245,1401,0,0
28,-377,0,0,0,0,0,0,0,0,0,-1,1252,1401,0,0
35,-377,0,0,0,0,0,0,0,0,0,-1,1259,1401,0,0
42,-377,0,0,0,0,0,0,0,0,0,-1,1266,1401,0,0
49,-377,0,0,0,0,0,0,0,0,0,-1,1273,1401,0,0
56,-377,0,0,0,0,0,0,0,0,0,-1,1280,1401,0,0
63,-377,0,0,0,0,0,0,0,0,0,-1,1287,1401,0,0
70,-377,0,0,0,0,0,0,0,0,0,-1,1294,1401,0,0
77,-377,0,0,0,0,0,0,0,0,0,-1,1301,1401,0,0
84,-377,0,0,0,0,0,0,0,0,0,-1,1308,1401,0,0
91,-377,0,0,0,0,0,0,0,0,0,-1,1315,1401,0,0
98,-377,0,0,0,0,0,0,0,0,0,-1,1322,1401,0,0
105,-377,0,0,0,0,0,0,0,0,0,-1,1329,1401,0,0
112,-377,0,0,0,0,0,0,0,0,0,-1,1336,1401,0,0
119,-377,0,0,0,0,0,0,0,0,0,-1,1343,1401,0,0
126,-377,0,0,0,0,0,0,0,0,0,-1,1350,1401,0,0
133,-377,0,0,0,0,0,0,0,0,0,-1,1357,1401,0,0
140,-377,0,0,0,0,0,0,0,0,0,-1,1364,1401,0,0
147,-377,0,0,0,0,0,0,0,0,0,-1,1371,1401,0,0
154,-377,0,0,0,0,0,0,0,0,0,-1,1378,1401,0,0
161,-377,0,0,0,0,0,0,0,0,0,-1,1385,1401,0,0
168,-377,0,0,0,0,0,0,0,0,0,-1,1392,1401,0,0
175,-377,0,0,0,0,0,0,0,0,0,-1,1399,1401,0,0
182,-377,0,0,0,0,0,0,0,0,0,-1,1406,1401,0,0
189,-377,0,0,0,0,0,0,0,0,0,-1,1413,1401,0,0
196,-377,0,0,0,0,0,0,0,0,0,-1,1420,1401,0,0
203,-377,0,0,0,0,0,0,0,0,0,-1,1427,1401,0,0
210,-377,0,0,0,0,0,0,0,0,0,-1,1434,1401,0,0
217,-377,0,0,0,0,0,0,0,0,0,-1,1441,1401,0,0
224,-377,0,0,0,0,0,0,0,0,0,-1,1448,1401,0,0
231,-377,0,0,0,0,0,0,0,0,0,-1,1455,1401,0,0
238,-377,0,0,0,0,0,0,0,0,0,-1,1462,1401,0,0
245,-377,0,0,0,0,0,0,0,0,0,-1,1469,1401,0,0
252,-377,0,0,0,0,0,0,0,0,0,-1,1476,1401,0,0
259,-377,0,0,0,0,0,0,0,0,0,-1,1483,1401,0,0
266,-377,0,0,0,0,0,0,0,0,0,-1,1490,1401,0,0
273,-377,0,0,0,0,0,0,0,0,0,-1,1497,1401,0,0
280,-377,0,0,0,0,0,0,0,0,0,-1,1504,1401,0,0
287,-377,0,0,0,0,0,0,0,0,0,-1,1511,1401,0,0
294,-377,0,0,0,0,0,0,0,0,0,-1,1518,1401,0,0
301,-377,0,0,0,0,0,0,0,0,0,-1,1525,1401,0,0
308,-377,0,0,0,0,0,0,0,0,0,-1,1532,1401,0,0
315,-377,0,0,0,0,0,0,0,0,0,-1,1539,1401,0,0
322,-377,0,0,0,0,0,0,0,0,0,-1,1546,1401,0,0
329,-377,0,0,0,0,0,0,0,0,0,-1,1553,1401,0,0
336,-377,0,0,0,0,0,0,0,0,0,-1,1560,1401,0,0
343,-377,0,0,0,0,0,0,0,0,0,-1,1567,1401,0,0
350,-377,0,0,0,0,0,0,0,0,0,-1,1574,1401,0,0
357,-377,0,0,0,0,0,0,0,0,0,-1,1581,1401,0,0
364,-377,0,0,0,0,0,0,0,0,0,-1,1588,1401,0,0
371,-377,0,0,0,0,0,0,0,0,0,-1,1595,1401,0,0
378,-377,0,0,0,0,0,0,0,0,0,-1,1602,1401,0,0
385,-377,0,0,0,0,0,0,0,0,0,-1,1609,1401,0,0
392,-377,0,0,0,0,0,0,0,0,0,-1,1616,1401,0,0
399,-377,0,0,0,0,0,0,0,0,0,-1,1623,1401,0,0
406,-377,0,0,0,0,0,0,0,0,0,-1,1630,1401,0,0
413,-377,0,0,0,0,0,0,0,0,0,-1,1637,1401,0,0
420,-377,0,0,0,0,0,0,0,0,0,-1,1644,1401,0,0
427,-377,0,0,0,0,0,0,0,0,0,-1,1651,1401,0,0
434,-377,0,0,0,0,0,0,0,0,0,-1,1658,1401,0,0
441,-377,0,0,0,0,0,0,0,0,0,-1,1665,1401,0,0
448,-377,0,0,0,0,0,0,0,0,0,-1,1672,1401,0,0
455,-377,0,0,0,0,0,0,0,0,0,-1,1679,1401,0,0
462,-377,0,0,0,0,0,0,0,0,0,-1,1686,1401,0,0
469,-377,0,0,0,0,0,0,0,0,0,-1,1693,1401,0,0
476,-377,0,0,0,0,0,0,0,0,0,-1,1700,1401,0,0
483,-377,0,0,0,0,0,0,0,0,0,-1,1707,1401,0,0
490,-377,0,0,0,0,0,0,0,0,0,-1,1714,1401,0,0
497,-377,0,0,0,0,0,0,0,0,0,-1,1721,1401,0,0
504,-377,0,0,0,0,0,0,0,0,0,-1,1728,1401,0,0
511,-377,0,0,0,0,0,0,0,0,0,-1,1735,1401,0,0
518,-377,0,0,0,0,0,0,0,0,0,-1,1742,1401,0,0
525,-377,0,0,0,0,0,0,0,0,0,-1,1749,1401,0,0
532,-377,0,0,0,0,0,0,0,0,0,-1,1756,1401,0,0
539,-377,0,0,0,0,0,0,0,0,0,-1,1763,1401,0,0
546,-377,27.8485,2.34094,0,0,0,0,0,0,0,-1,1770,1401,27.8486,-2.34091
553,-377,27.2189,2.42493,0,0,0,0,0,0,0,-1,1777,1401,27.2188,-2.42498
560,-377,38.3577,-2.15015,0,0,0,0,0,0,0,-1,1784,1401,38.3576,2.1501
567,-377,38.4889,-0.285645,0,0,0,0,0,0,0,-1,1791,1401,38.4889,0.2857
574,-377,38.6221,1.61694,0,0,0,0,0,0,0,-1,1798,1401,38.6221,-1.61689
581,-377,39.1818,3.76367,0,0,0,0,0,0,0,-1,1805,1401,39.1818,-3.76366
588,-377,25.882,4.35217,0,0,0,0,0,0,0,-1,1812,1401,25.8819,-4.3522
595,-377,25.5392,5.11804,0,0,0,0,0,0,0,-1,1819,1401,25.5392,-5.11808
602,-377,24.816,5.79126,0,0,0,0,0,0,0,-1,1826,1401,24.816,-5.79124
609,-377,15.0223,4.76135,0,0,0,0,0,0,0,-1,1833,1401,15.0224,-4.76129
616,-377,14.1842,5.78992,0,0,0,0,0,0,0,-1,1840,1401,14.1842,-5.78987
623,-377,15.8248,8.76721,0,0,0,0,0,0,0,-1,1847,1401,15.8248,-8.76725
630,-377,33.3148,17.7633,0,0,0,0,0,0,0,-1,1854,1401,33.3148,-17.7634
637,-377,33.6772,16.8434,4.38051e-05,-7.42903e-05,-0.000276937,0.00026792,-0.000298405,-0.680363,0.000327126,0.0419773,1861,1401,33.6772,-16.8434
644,-377,33.7783,16.1709,2.73064e-05,0.000128488,-0.000288009,0.000370315,-0.000214521,-0.872339,0.000341625,0.0136966,1868,1401,33.7784,-16.1709
651,-377,33.7296,15.5431,0.000230918,-1.74706e-05,-3.38107e-05,0.000235438,-2.19907e-05,-0.132899,0.000164779,0.013865,1875,1401,33.7296,-15.5431
658,-377,33.7206,14.9701,0.000685355,-0.000134888,0.000151982,0.00071261,-0.000162143,0.177445,0.000537338,0.0146919,1882,1401,33.7205,-14.9701
665,-377,33.7216,14.3268,0.00127818,-0.000280458,0.000334906,0.0013471,-0.000349372,0.20294,0.00103438,0.0185644,1889,1401,33.7216,-14.3267
672,-377,33.6823,13.7067,0.00204656,-0.000458811,0.000513573,0.00214775,-0.000560001,0.194539,0.00165048,0.0190343,1896,1401,33.6823,-13.7066
679,-377,33.5911,13.1327,0.00296447,-0.000671566,0.000705209,0.00309645,-0.000803551,0.185016,0.00237785,0.0181189,1903,1401,33.5911,-13.1327
686,-377,33.5984,12.542,0.00404946,-0.000941125,0.000925298,0.0042155,-0.00110716,0.177549,0.00324301,0.0152598,1910,1401,33.5984,-12.542
693,-377,33.6537,11.8966,0.0054141,-0.00112091,0.00104698,0.00557774,-0.00128455,0.155043,0.00421248,0.0180182,1917,1401,33.6537,-11.8966
700,-377,34.0298,11.2672,0,0,0,0,0,0,0,-1,1924,1401,34.0298,-11.2673
707,-377,28.6234,9.18152,0,0,0,0,0,0,0,-1,1931,1401,28.6234,-9.18151
714,-377,16.5369,5.45959,0,0,0,0,0,0,0,-1,1938,1401,16.5369,-5.4596
721,-377,17.0913,5.42529,0,0,0,0,0,0,0,-1,1945,1401,17.0914,-5.42529
728,-377,14.5396,2.79724,0,0,0,0,0,0,0,-1,1952,1401,14.5396,-2.7972
735,-377,23.2977,-0.991089,0,0,0,0,0,0,0,-1,1959,1401,23.2978,0.991076
742,-377,0,0,0,0,0,0,0,0,0,-1,1966,1401,0,0
749,-377,0,0,0,0,0,0,0,0,0,-1,1973,1401,0,0
756,-377,0,0,0,0,0,0,0,0,0,-1,1980,1401,0,0
763,-377,0,0,0,0,0,0,0,0,0,-1,1987,1401,0,0
770,-377,0,0,0,0,0,0,0,0,0,-1,1994,1401,0,0
777,-377,0,0,0,0,0,0,0,0,0,-1,2001,1401,0,0
784,-377,0,0,0,0,0,0,0,0,0,-1,2008,1401,0,0
791,-377,0,0,0,0,0,0,0,0,0,-1,2015,1401,0,0
798,-377,0,0,0,0,0,0,0,0,0,-1,2022,1401,0,0
805,-377,0,0,0,0,0,0,0,0,0,-1,2029,1401,0,0
812,-377,0,0,0,0,0,0,0,0,0,-1,2036,1401,0,0
-700,-384,0,0,0,0,0,0,0,0,0,-1,524,1408,0,0
-693,-384,0,0,0,0,0,0,0,0,0,-1,531,1408,0,0
-686,-384,0,0,0,0,0,0,0,0,0,-1,538,1408,0,0
-679,-384,0,0,0,0,0,0,0,0,0,-1,545,1408,0,0
-672,-384,0,0,0,0,0,0,0,0,0,-1,552,1408,0,0
-665,-384,0,0,0,0,0,0,0,0,0,-1,559,1408,0,0
-658,-384,0,0,0,0,0,0,0,0,0,-1,566,1408,0,0
-651,-384,0,0,0,0,0,0,0,0,0,-1,573,1408,0,0
-644,-384,0,0,0,0,0,0,0,0,0,-1,580,1408,0,0
-637,-384,0,0,0,0,0,0,0,0,0,-1,587,1408,0,0
-630,-384,0,0,0,0,0,0,0,0,0,-1,594,1408,0,0
-623,-384,0,0,0,0,0,0,0,0,0,-1,601,1408,0,0
-616,-384,-10.019,-3.36646,0,0,0,0,0,0,0,-1,608,1408,-10.019,3.36648
-609,-384,-7.72357,-2.3418,0,0,0,0,0,0,0,-1,615,1408,-7.72358,2.34182
-602,-384,-11.7632,-2.85156,0,0,0,0,0,0,0,-1,622,1408,-11.7632,2.85157
-595,-384,-10.2217,2.8855,0,0,0,0,0,0,0,-1,629,1408,-10.2218,-2.88548
-588,-384,-12.1653,2.29041,0,0,0,0,0,0,0,-1,636,1408,-12.1654,-2.29038
-581,-384,-11.9297,3.60376,0,0,0,0,0,0,0,-1,643,1408,-11.9298,-3.6038
-574,-384,-11.8677,6.02722,0,0,0,0,0,0,0,-1,650,1408,-11.8677,-6.02722
-567,-384,-12.0743,7.04639,0,0,0,0,0,0,0,-1,657,1408,-12.0743,-7.04641
-560,-384,-16.9274,9.88428,0,0,0,0,0,0,0,-1,664,1408,-16.9274,-9.88428
-553,-384,-16.7681,10.6614,0.00479453,0.00179856,0.0023942,0.00612076,0.00047233,0.505857,0.00393253,0.0432896,671,1408,-16.7681,-10.6614
-546,-384,-16.729,11.3922,0.00401909,0.00128926,0.00186462,0.00496498,0.000343375,0.469455,0.00320167,0.0146223,678,1408,-16.729,-11.3922
-539,-384,-16.7689,12.0046,0.00343196,0.00090434,0.00147951,0.00411396,0.000222342,0.431932,0.00267161,0.0169746,685,1408,-16.7689,-12.0046
-532,-384,-16.77,12.5504,0.00305934,0.000670516,0.00126472,0.00360451,0.000125348,0.406991,0.00236233,0.0247084,692,1408,-16.77,-12.5504
-525,-384,-16.7811,13.2681,0.00288503,0.000619286,0.00123137,0.00342538,7.89377e-05,0.413517,0.00225774,0.0241127,699,1408,-16.7811,-13.2681
-518,-384,-16.7977,13.9561,0.00285795,0.000696405,0.00133088,0.00349162,6.27313e-05,0.44437,0.00230712,0.0141636,706,1408,-16.7978,-13.9561
-511,-384,-16.8262,14.6273,0.00301168,0.000952879,0.00157757,0.00386599,9.85662e-05,0.496324,0.00254511,0.0109277,713,1408,-16.8262,-14.6273
-504,-384,-16.8489,15.2985,0.00334647,0.00142158,0.00201101,0.00461348,0.000154572,0.562212,0.00302545,0.0120108,720,1408,-16.8489,-15.2985
-497,-384,-16.8719,15.9674,0,0,0,0,0,0,0,-1,727,1408,-16.872,-15.9674
-490,-384,-16.4548,16.7072,0,0,0,0,0,0,0,-1,734,1408,-16.4548,-16.7072
-483,-384,-6.26471,7.61194,0,0,0,0,0,0,0,-1,741,1408,-6.26469,-7.61191
-476,-384,-6.02734,5.67761,0,0,0,0,0,0,0,-1,748,1408,-6.02736,-5.6776
-469,-384,-10.206,2.63721,0,0,0,0,0,0,0,-1,755,1408,-10.206,-2.6372
-462,-384,-9.04291,1.43542,0,0,0,0,0,0,0,-1,762,1408,-9.04293,-1.43545
-455,-384,-7.87988,0.233765,0,0,0,0,0,0,0,-1,769,1408,-7.87986,-0.233709
-448,-384,-9.35529,7.19226,0,0,0,0,0,0,0,-1,776,1408,-9.35531,-7.19226
-441,-384,-10.4697,1.79004,0,0,0,0,0,0,0,-1,783,1408,-10.4697,-1.79003
-434,-384,-10.6449,0.552246,0,0,0,0,0,0,0,-1,790,1408,-10.6449,-0.552216
-427,-384,-10.968,1.10583,0,0,0,0,0,0,0,-1,797,1408,-10.968,-1.10588
-420,-384,-12.5607,4.54858,0,0,0,0,0,0,0,-1,804,1408,-12.5607,-4.54859
-413,-384,0,0,0,0,0,0,0,0,0,-1,811,1408,0,0
-406,-384,0,0,0,0,0,0,0,0,0,-1,818,1408,0,0
-399,-384,0,0,0,0,0,0,0,0,0,-1,825,1408,0,0
-392,-384,0,0,0,0,0,0,0,0,0,-1,832,1408,0,0
-385,-384,0,0,0,0,0,0,0,0,0,-1,839,1408,0,0
-378,-384,0,0,0,0,0,0,0,0,0,-1,846,1408,0,0
-371,-384,0,0,0,0,0,0,0,0,0,-1,853,1408,0,0
-364,-384,0,0,0,0,0,0,0,0,0,-1,860,1408,0,0
-357,-384,0,0,0,0,0,0,0,0,0,-1,867,1408,0,0
-350,-384,0,0,0,0,0,0,0,0,0,-1,874,1408,0,0
-343,-384,0,0,0,0,0,0,0,0,0,-1,881,1408,0,0
-336,-384,0,0,0,0,0,0,0,0,0,-1,888,1408,0,0
-329,-384,0,0,0,0,0,0,0,0,0,-1,895,1408,0,0
-322,-384,0,0,0,0,0,0,0,0,0,-1,902,1408,0,0
-315,-384,0,0,0,0,0,0,0,0,0,-1,909,1408,0,0
-308,-384,0,0,0,0,0,0,0,0,0,-1,916,1408,0,0
-301,-384,0,0,0,0,0,0,0,0,0,-1,923,1408,0,0
-294,-384,0,0,0,0,0,0,0,0,0,-1,930,1408,0,0
-287,-384,0,0,0,0,0,0,0,0,0,-1,937,1408,0,0
-280,-384,0,0,0,0,0,0,0,0,0,-1,944,1408,0,0
-273,-384,0,0,0,0,0,0,0,0,0,-1,951,1408,0,0
-266,-384,0,0,0,0,0,0,0,0,0,-1,958,1408,0,0
-259,-384,0,0,0,0,0,0,0,0,0,-1,965,1408,0,0
-252,-384,0,0,0,0,0,0,0,0,0,-1,972,1408,0,0
-245,-384,0,0,0,0,0,0,0,0,0,-1,979,1408,0,0
-238,-384,0,0,0,0,0,0,0,0,0,-1,986,1408,0,0
-231,-384,0,0,0,0,0,0,0,0,0,-1,993,1408,0,0
-224,-384,0,0,0,0,0,0,0,0,0,-1,1000,1408,0,0
-217,-384,0,0,0,0,0,0,0,0,0,-1,1007,1408,0,0
-210,-384,0,0,0,0,0,0,0,0,0,-1,1014,1408,0,0
-203,-384,0,0,0,0,0,0,0,0,0,-1,1021,1408,0,0
-196,-384,0,0,0,0,0,0,0,0,0,-1,1028,1408,0,0
-189,-384,0,0,0,0,0,0,0,0,0,-1,1035,1408,0,0
-182,-384,0,0,0,0,0,0,0,0,0,-1,1042,1408,0,0
-175,-384,0,0,0,0,0,0,0,0,0,-1,1049,1408,0,0
-168,-384,0,0,0,0,0,0,0,0,0,-1,1056,1408,0,0
-161,-384,0,0,0,0,0,0,0,0,0,-1,1063,1408,0,0
-154,-384,0,0,0,0,0,0,0,0,0,-1,1070,1408,0,0
-147,-384,0,0,0,0,0,0,0,0,0,-1,1077,1408,0,0
-140,-384,0,0,0,0,0,0,0,0,0,-1,1084,1408,0,0
-133,-384,0,0,0,0,0,0,0,0,0,-1,1091,1408,0,0
-126,-384,0,0,0,0,0,0,0,0,0,-1,1098,1408,0,0
-119,-384,0,0,0,0,0,0,0,0,0,-1,1105,1408,0,0
-112,-384,0,0,0,0,0,0,0,0,0,-1,1112,1408,0,0
-105,-384,0,0,0,0,0,0,0,0,0,-1,1119,1408,0,0
-98,-384,0,0,0,0,0,0,0,0,0,-1,1126,1408,0,0
-91,-384,0,0,0,0,0,0,0,0,0,-1,1133,1408,0,0
-84,-384,0,0,0,0,0,0,0,0,0,-1,1140,1408,0,0
-77,-384,0,0,0,0,0,0,0,0,0,-1,1147,1408,0,0
-70,-384,0,0,0,0,0,0,0,0,0,-1,1154,1408,0,0
-63,-384,0,0,0,0,0,0,0,0,0,-1,1161,1408,0,0
-56,-384,0,0,0,0,0,0,0,0,0,-1,1168,1408,0,0
-49,-384,0,0,0,0,0,0,0,0,0,-1,1175,1408,0,0
-42,-384,0,0,0,0,0,0,0,0,0,-1,1182,1408,0,0
-35,-384,0,0,0,0,0,0,0,0,0,-1,1189,1408,0,0
-28,-384,0,0,0,0,0,0,0,0,0,-1,1196,1408,0,0
-21,-384,0,0,0,0,0,0,0,0,0,-1,1203,1408,0,0
-14,-384,0,0,0,0,0,0,0,0,0,-1,1210,1408,0,0
-7,-384,0,0,0,0,0,0,0,0,0,-1,1217,1408,0,0
0,-384,0,0,0,0,0,0,0,0,0,-1,1224,1408,0,0
7,-384,0,0,0,0,0,0,0,0,0,-1,1231,1408,0,0
14,-384,0,0,0,0,0,0,0,0,0,-1,1238,1408,0,0
21,-384,0,0,0,0,0,0,0,0,0,-1,1245,1408,0,0
28,-384,0,0,0,0,0,0,0,0,0,-1,1252,1408,0,0
35,-384,0,0,0,0,0,0,0,0,0,-1,1259,1408,0,0
42,-384,0,0,0,0,0,0,0,0,0,-1,1266,1408,0,0
49,-384,0,0,0,0,0,0,0,0,0,-1,1273,1408,0,0
56,-384,0,0,0,0,0,0,0,0,0,-1,1280,1408,0,0
63,-384,0,0,0,0,0,0,0,0,0,-1,1287,1408,0,0
70,-384,0,0,0,0,0,0,0,0,0,-1,1294,1408,0,0
77,-384,0,0,0,0,0,0,0,0,0,-1,1301,1408,0,0
84,-384,0,0,0,0,0,0,0,0,0,-1,1308,1408,0,0
91,-384,0,0,0,0,0,0,0,0,0,-1,1315,1408,0,0
98,-384,0,0,0,0,0,0,0,0,0,-1,1322,1408,0,0
105,-384,0,0,0,0,0,0,0,0,0,-1,1329,1408,0,0
112,-384,0,0,0,0,0,0,0,0,0,-1,1336,1408,0,0
119,-384,0,0,0,0,0,0,0,0,0,-1,1343,1408,0,0
126,-384,0,0,0,0,0,0,0,0,0,-1,1350,1408,0,0
133,-384,0,0,0,0,0,0,0,0,0,-1,1357,1408,0,0
140,-384,0,0,0,0,0,0,0,0,0,-1,1364,1408,0,0
147,-384,0,0,0,0,0,0,0,0,0,-1,1371,1408,0,0
154,-384,0,0,0,0,0,0,0,0,0,-1,1378,1408,0,0
161,-384,0,0,0,0,0,0,0,0,0,-1,1385,1408,0,0
168,-384,0,0,0,0,0,0,0,0,0,-1,1392,1408,0,0
175,-384,0,0,0,0,0,0,0,0,0,-1,1399,1408,0,0
182,-384,0,0,0,0,0,0,0,0,0,-1,1406,1408,0,0
189,-384,0,0,0,0,0,0,0,0,0,-1,1413,1408,0,0
196,-384,0,0,0,0,0,0,0,0,0,-1,1420,1408,0,0
203,-384,0,0,0,0,0,0,0,0,0,-1,1427,1408,0,0
210,-384,0,0,0,0,0,0,0,0,0,-1,1434,1408,0,0
217,-384,0,0,0,0,0,0,0,0,0,-1,1441,1408,0,0
224,-384,0,0,0,0,0,0,0,0,0,-1,1448,1408,0,0
231,-384,0,0,0,0,0,0,0,0,0,-1,1455,1408,0,0
238,-384,0,0,0,0,0,0,0,0,0,-1,1462,1408,0,0
245,-384,0,0,0,0,0,0,0,0,0,-1,1469,1408,0,0
252,-384,0,0,0,0,0,0,0,0,0,-1,1476,1408,0,0
259,-384,0,0,0,0,0,0,0,0,0,-1,1483,1408,0,0
266,-384,0,0,0,0,0,0,0,0,0,-1,1490,1408,0,0
273,-384,0,0,0,0,0,0,0,0,0,-1,1497,1408,0,0
280,-384,0,0,0,0,0,0,0,0,0,-1,1504,1408,0,0
287,-384,0,0,0,0,0,0,0,0,0,-1,1511,1408,0,0
294,-384,0,0,0,0,0,0,0,0,0,-1,1518,1408,0,0
301,-384,0,0,0,0,0,0,0,0,0,-1,1525,1408,0,0
308,-384,0,0,0,0,0,0,0,0,0,-1,1532,1408,0,0
315,-384,0,0,0,0,0,0,0,0,0,-1,1539,1408,0,0
322,-384,0,0,0,0,0,0,0,0,0,-1,1546,1408,0,0
329,-384,0,0,0,0,0,0,0,0,0,-1,1553,1408,0,0
336,-384,0,0,0,0,0,0,0,0,0,-1,1560,1408,0,0
343,-384,0,0,0,0,0,0,0,0,0,-1,1567,1408,0,0
350,-384,0,0,0,0,0,0,0,0,0,-1,1574,1408,0,0
357,-384,0,0,0,0,0,0,0,0,0,-1,1581,1408,0,0
364,-384,0,0,0,0,0,0,0,0,0,-1,1588,1408,0,0
371,-384,0,0,0,0,0,0,0,0,0,-1,1595,1408,0,0
378,-384,0,0,0,0,0,0,0,0,0,-1,1602,1408,0,0
385,-384,0,0,0,0,0,0,0,0,0,-1,1609,1408,0,0
392,-384,0,0,0,0,0,0,0,0,0,-1,1616,1408,0,0
399,-384,0,0,0,0,0,0,0,0,0,-1,1623,1408,0,0
406,-384,0,0,0,0,0,0,0,0,0,-1,1630,1408,0,0
413,-384,0,0,0,0,0,0,0,0,0,-1,1637,1408,0,0
420,-384,0,0,0,0,0,0,0,0,0,-1,1644,1408,0,0
427,-384,0,0,0,0,0,0,0,0,0,-1,1651,1408,0,0
434,-384,0,0,0,0,0,0,0,0,0,-1,1658,1408,0,0
441,-384,0,0,0,0,0,0,0,0,0,-1,1665,1408,0,0
448,-384,0,0,0,0,0,0,0,0,0,-1,1672,1408,0,0
455,-384,0,0,0,0,0,0,0,0,0,-1,1679,1408,0,0
462,-384,0,0,0,0,0,0,0,0,0,-1,1686,1408,0,0
469,-384,0,0,0,0,0,0,0,0,0,-1,1693,1408,0,0
476,-384,0,0,0,0,0,0,0,0,0,-1,1700,1408,0,0
483,-384,0,0,0,0,0,0,0,0,0,-1,1707,1408,0,0
490,-384,0,0,0,0,0,0,0,0,0,-1,1714,1408,0,0
497,-384,0,0,0,0,0,0,0,0,0,-1,1721,1408,0,0
504,-384,0,0,0,0,0,0,0,0,0,-1,1728,1408,0,0
511,-384,0,0,0,0,0,0,0,0,0,-1,1735,1408,0,0
518,-384,0,0,0,0,0,0,0,0,0,-1,1742,1408,0,0
525,-384,0,0,0,0,0,0,0,0,0,-1,1749,1408,0,0
532,-384,0,0,0,0,0,0,0,0,0,-1,1756,1408,0,0
539,-384,27.6886,2.85803,0,0,0,0,0,0,0,-1,1763,1408,27.6886,-2.85807
546,-384,27.5044,2.9425,0,0,0,0,0,0,0,-1,1770,1408,27.5044,-2.94255
553,-384,27.3052,2.78394,0,0,0,0,0,0,0,-1,1777,1408,27.3051,-2.78394
560,-384,26.833,3.19812,0,0,0,0,0,0,0,-1,1784,1408,26.833,-3.19816
567,-384,38.2566,0.109985,0,0,0,0,0,0,0,-1,1791,1408,38.2566,-0.110044
574,-384,38.4003,2.05945,0,0,0,0,0,0,0,-1,1798,1408,38.4003,-2.05949
581,-384,25.819,3.91846,0,0,0,0,0,0,0,-1,1805,1408,25.8189,-3.91848
588,-384,23.3721,4.25439,0,0,0,0,0,0,0,-1,1812,1408,23.3721,-4.25442
595,-384,24.981,5.59595,0,0,0,0,0,0,0,-1,1819,1408,24.981,-5.59598
602,-384,20.6605,4.17261,0,0,0,0,0,0,0,-1,1826,1408,20.6606,-4.17265
609,-384,14.158,5.49475,0,0,0,0,0,0,0,-1,1833,1408,14.158,-5.49474
616,-384,14.7997,7.6908,0,0,0,0,0,0,0,-1,1840,1408,14.7996,-7.69079
623,-384,16.4293,9.58899,0,0,0,0,0,0,0,-1,1847,1408,16.4294,-9.58901
630,-384,33.2239,17.4133,0,0,0,0,0,0,0,-1,1854,1408,33.2239,-17.4133
637,-384,33.1888,16.8041,0.000426721,-0.000289228,-0.000130127,0.000449639,-0.000312146,-0.17433,0.000442198,0.0236754,1861,1408,33.1889,-16.8041
644,-384,33.1329,16.2261,0.000394426,-0.000103287,-0.000116368,0.000420289,-0.00012915,-0.218701,0.000331732,0.0168833,1868,1408,33.1329,-16.226
651,-384,33.0909,15.584,0.000600774,-0.00014932,8.51391e-05,0.000610316,-0.000158862,0.111613,0.000468889,0.0157231,1875,1408,33.0909,-15.584
658,-384,33.0823,14.9694,0.000975456,-0.000229095,0.000278445,0.00103671,-0.000290347,0.216527,0.000805555,0.015756,1882,1408,33.0822,-14.9693
665,-384,33.1083,14.3585,0.00149676,-0.000360746,0.00049431,0.00162012,-0.000484097,0.244548,0.00127252,0.0179496,1889,1408,33.1083,-14.3586
672,-384,33.0804,13.7257,0.00218648,-0.000558485,0.000745931,0.00237608,-0.000748092,0.248916,0.00188361,0.015952,1896,1408,33.0804,-13.7257
679,-384,33.0127,13.1235,0.00301657,-0.000844777,0.00105983,0.00328834,-0.00111654,0.251016,0.00264419,0.0149846,1903,1408,33.0127,-13.1235
686,-384,32.9946,12.5605,0.00398129,-0.00126056,0.00148455,0.00437253,-0.0016518,0.257682,0.00359444,0.0118401,1910,1408,32.9947,-12.5605
693,-384,33.0674,11.9757,0.0052295,-0.00161908,0.00185508,0.0056997,-0.00208928,0.24824,0.00465522,0.0280734,1917,1408,33.0674,-11.9757
700,-384,33.1868,11.4017,0,0,0,0,0,0,0,-1,1924,1408,33.1868,-11.4017
707,-384,17.0566,6.62842,0,0,0,0,0,0,0,-1,1931,1408,17.0567,-6.62848
714,-384,16.038,5.0282,0,0,0,0,0,0,0,-1,1938,1408,16.038,-5.02819
721,-384,13.8843,2.8717,0,0,0,0,0,0,0,-1,1945,1408,13.8843,-2.87171
728,-384,15.4409,6.25745,0,0,0,0,0,0,0,-1,1952,1408,15.4409,-6.2574
735,-384,16.7598,6.71289,0,0,0,0,0,0,0,-1,1959,1408,16.7598,-6.71287
742,-384,0,0,0,0,0,0,0,0,0,-1,1966,1408,0,0
749,-384,0,0,0,0,0,0,0,0,0,-1,1973,1408,0,0
756,-384,0,0,0,0,0,0,0,0,0,-1,1980,1408,0,0
763,-384,0,0,0,0,0,0,0,0,0,-1,1987,1408,0,0
770,-384,0,0,0,0,0,0,0,0,0,-1,1994,1408,0,0
777,-384,0,0,0,0,0,0,0,0,0,-1,2001,1408,0,0
784,-384,0,0,0,0,0,0,0,0,0,-1,2008,1408,0,0
791,-384,0,0,0,0,0,0,0,0,0,-1,2015,1408,0,0
798,-384,0,0,0,0,0,0,0,0,0,-1,2022,1408,0,0
805,-384,0,0,0,0,0,0,0,0,0,-1,2029,1408,0,0
812,-384,0,0,0,0,0,0,0,0,0,-1,2036,1408,0,0
-700,-391,0,0,0,0,0,0,0,0,0,-1,524,1415,0,0
-693,-391,0,0,0,0,0,0,0,0,0,-1,531,1415,0,0
-686,-391,0,0,0,0,0,0,0,0,0,-1,538,1415,0,0
-679,-391,0,0,0,0,0,0,0,0,0,-1,545,1415,0,0
-672,-391,0,0,0,0,0,0,0,0,0,-1,552,1415,0,0
-665,-391,0,0,0,0,0,0,0,0,0,-1,559,1415,0,0
-658,-391,0,0,0,0,0,0,0,0,0,-1,566,1415,0,0
-651,-391,0,0,0,0,0,0,0,0,0,-1,573,1415,0,0
-644,-391,0,0,0,0,0,0,0,0,0,-1,580,1415,0,0
-637,-391,0,0,0,0,0,0,0,0,0,-1,587,1415,0,0
-630,-391,0,0,0,0,0,0,0,0,0,-1,594,1415,0,0
-623,-391,0,0,0,0,0,0,0,0,0,-1,601,1415,0,0
-616,-391,0,0,0,0,0,0,0,0,0,-1,608,1415,0,0
-609,-391,-7.71753,-3.69763,0,0,0,0,0,0,0,-1,615,1415,-7.71751,3.69759
-602,-391,-13.9493,-4.12805,0,0,0,0,0,0,0,-1,622,1415,-13.9493,4.12803
-595,-391,-10.8315,1.76172,0,0,0,0,0,0,0,-1,629,1415,-10.8315,-1.76171
-588,-391,-10.265,2.16431,0,0,0,0,0,0,0,-1,636,1415,-10.265,-2.16431
-581,-391,-11.3325,2.44836,0,0,0,0,0,0,0,-1,643,1415,-11.3325,-2.44842
-574,-391,-11.1471,6.19983,0,0,0,0,0,0,0,-1,650,1415,-11.1471,-6.19981
-567,-391,-11.5172,6.82458,0,0,0,0,0,0,0,-1,657,1415,-11.5171,-6.82454
-560,-391,-11.2459,7.37195,0,0,0,0,0,0,0,-1,664,1415,-11.2459,-7.37191
-553,-391,-16.2267,10.6912,0,0,0,0,0,0,0,-1,671,1415,-16.2267,-10.6911
-546,-391,-16.1208,11.3813,0.00442383,0.00154152,0.00208556,0.00551772,0.000447623,0.483063,0.00353872,0.0167544,678,1415,-16.1208,-11.3814
-539,-391,-16.0634,12.0448,0.00365677,0.00105952,0.00157942,0.00440289,0.000313401,0.441326,0.00283657,0.014532,685,1415,-16.0634,-12.0448
-532,-391,-16.1028,12.6787,0.00311273,0.000729909,0.00125015,0.00364827,0.000194377,0.404725,0.00237004,0.0257944,692,1415,-16.1028,-12.6787
-525,-391,-16.1205,13.3647,0.00280061,0.000629731,0.00112837,0.00328087,0.000149477,0.402394,0.00213916,0.0243407,699,1415,-16.1205,-13.3648
-518,-391,-16.1651,14.0029,0.00264121,0.000677358,0.00115066,0.00317196,0.000146605,0.432178,0.0020675,0.0150466,706,1415,-16.1651,-14.0029
-511,-391,-16.1732,14.6575,0.00268081,0.000894553,0.0013046,0.00336871,0.00020665,0.485241,0.00218019,0.0139524,713,1415,-16.1732,-14.6575
-504,-391,-16.1943,15.3235,0.00298495,0.00132389,0.00167448,0.00402355,0.00028529,0.555179,0.00259251,0.0123647,720,1415,-16.1942,-15.3235
-497,-391,-16.2083,15.9756,0.00348988,0.00191331,0.0022375,0.0050739,0.000329301,0.616034,0.00327835,0.0136701,727,1415,-16.2083,-15.9756
-490,-391,-16.1639,16.6436,0,0,0,0,0,0,0,-1,734,1415,-16.1639,-16.6436
-483,-391,-11.1018,12.9382,0,0,0,0,0,0,0,-1,741,1415,-11.1018,-12.9382
-476,-391,-6.05731,6.85303,0,0,0,0,0,0,0,-1,748,1415,-6.05728,-6.85304
-469,-391,-3.88953,5.0979,0,0,0,0,0,0,0,-1,755,1415,-3.88955,-5.09794
-462,-391,-8.67688,2.03125,0,0,0,0,0,0,0,-1,762,1415,-8.67685,-2.03121
-455,-391,-8.65576,6.46997,0,0,0,0,0,0,0,-1,769,1415,-8.65579,-6.46999
-448,-391,-8.39618,4.38403,0,0,0,0,0,0,0,-1,776,1415,-8.39617,-4.38405
-441,-391,-9.77704,2.5946,0,0,0,0,0,0,0,-1,783,1415,-9.77702,-2.5946
-434,-391,-11.5403,2.12878,0,0,0,0,0,0,0,-1,790,1415,-11.5403,-2.12881
-427,-391,-10.5311,2.50403,0,0,0,0,0,0,0,-1,797,1415,-10.5311,-2.504
-420,-391,-14.7087,1.24365,0,0,0,0,0,0,0,-1,804,1415,-14.7088,-1.24365
-413,-391,0,0,0,0,0,0,0,0,0,-1,811,1415,0,0
-406,-391,0,0,0,0,0,0,0,0,0,-1,818,1415,0,0
-399,-391,0,0,0,0,0,0,0,0,0,-1,825,1415,0,0
-392,-391,0,0,0,0,0,0,0,0,0,-1,832,1415,0,0
-385,-391,0,0,0,0,0,0,0,0,0,-1,839,1415,0,0
-378,-391,0,0,0,0,0,0,0,0,0,-1,846,1415,0,0
-371,-391,0,0,0,0,0,0,0,0,0,-1,853,1415,0,0
-364,-391,0,0,0,0,0,0,0,0,0,-1,860,1415,0,0
-357,-391,0,0,0,0,0,0,0,0,0,-1,867,1415,0,0
-350,-391,0,0,0,0,0,0,0,0,0,-1,874,1415,0,0
-343,-391,0,0,0,0,0,0,0,0,0,-1,881,1415,0,0
-336,-391,0,0,0,0,0,0,0,0,0,-1,888,1415,0,0
-329,-391,0,0,0,0,0,0,0,0,0,-1,895,1415,0,0
-322,-391,0,0,0,0,0,0,0,0,0,-1,902,1415,0,0
-315,-391,0,0,0,0,0,0,0,0,0,-1,909,1415,0,0
-308,-391,0,0,0,0,0,0,0,0,0,-1,916,1415,0,0
-301,-391,0,0,0,0,0,0,0,0,0,-1,923,1415,0,0
-294,-391,0,0,0,0,0,0,0,0,0,-1,930,1415,0,0
-287,-391,0,0,0,0,0,0,0,0,0,-1,937,1415,0,0
-280,-391,0,0,0,0,0,0,0,0,0,-1,944,1415,0,0
-273,-391,0,0,0,0,0,0,0,0,0,-1,951,1415,0,0
-266,-391,0,0,0,0,0,0,0,0,0,-1,958,1415,0,0
-259,-391,0,0,0,0,0,0,0,0,0,-1,965,1415,0,0
-252,-391,0,0,0,0,0,0,0,0,0,-1,972,1415,0,0
-245,-391,0,0,0,0,0,0,0,0,0,-1,979,1415,0,0
-238,-391,0,0,0,0,0,0,0,0,0,-1,986,1415,0,0
-231,-391,0,0,0,0,0,0,0,0,0,-1,993,1415,0,0
-224,-391,0,0,0,0,0,0,0,0,0,-1,1000,1415,0,0
-217,-391,0,0,0,0,0,0,0,0,0,-1,1007,1415,0,0
-210,-391,0,0,0,0,0,0,0,0,0,-1,1014,1415,0,0
-203,-391,0,0,0,0,0,0,0,0,0,-1,1021,1415,0,0
-196,-391,0,0,0,0,0,0,0,0,0,-1,1028,1415,0,0
-189,-391,0,0,0,0,0,0,0,0,0,-1,1035,1415,0,0
-182,-391,0,0,0,0,0,0,0,0,0,-1,1042,1415,0,0
-175,-391,0,0,0,0,0,0,0,0,0,-1,1049,1415,0,0
-168,-391,0,0,0,0,0,0,0,0,0,-1,1056,1415,0,0
-161,-391,0,0,0,0,0,0,0,0,0,-1,1063,1415,0,0
-154,-391,0,0,0,0,0,0,0,0,0,-1,1070,1415,0,0
-147,-391,0,0,0,0,0,0,0,0,0,-1,1077,1415,0,0
-140,-391,0,0,0,0,0,0,0,0,0,-1,1084,1415,0,0
-133,-391,0,0,0,0,0,0,0,0,0,-1,1091,1415,0,0
-126,-391,0,0,0,0,0,0,0,0,0,-1,1098,1415,0,0
-119,-391,0,0,0,0,0,0,0,0,0,-1,1105,1415,0,0
-112,-391,0,0,0,0,0,0,0,0,0,-1,1112,1415,0,0
-105,-391,0,0,0,0,0,0,0,0,0,-1,1119,1415,0,0
-98,-391,0,0,0,0,0,0,0,0,0,-1,1126,1415,0,0
-91,-391,0,0,0,0,0,0,0,0,0,-1,1133,1415,0,0
-84,-391,0,0,0,0,0,0,0,0,0,-1,1140,1415,0,0
-77,-391,0,0,0,0,0,0,0,0,0,-1,1147,1415,0,0
-70,-391,0,0,0,0,0,0,0,0,0,-1,1154,1415,0,0
-63,-391,0,0,0,0,0,0,0,0,0,-1,1161,1415,0,0
-56,-391,0,0,0,0,0,0,0,0,0,-1,1168,1415,0,0
-49,-391,0,0,0,0,0,0,0,0,0,-1,1175,1415,0,0
-42,-391,0,0,0,0,0,0,0,0,0,-1,1182,1415,0,0
-35,-391,0,0,0,0,0,0,0,0,0,-1,1189,1415,0,0
-28,-391,0,0,0,0,0,0,0,0,0,-1,1196,1415,0,0
-21,-391,0,0,0,0,0,0,0,0,0,-1,1203,1415,0,0
-14,-391,0,0,0,0,0,0,0,0,0,-1,1210,1415,0,0
-7,-391,0,0,0,0,0,0,0,0,0,-1,1217,1415,0,0
0,-391,0,0,0,0,0,0,0,0,0,-1,1224,1415,0,0
7,-391,0,0,0,0,0,0,0,0,0,-1,1231,1415,0,0
14,-391,0,0,0,0,0,0,0,0,0,-1,1238,1415,0,0
21,-391,0,0,0,0,0,0,0,0,0,-1,1245,1415,0,0
28,-391,0,0,0,0,0,0,0,0,0,-1,1252,1415,0,0
35,-391,0,0,0,0,0,0,0,0,0,-1,1259,1415,0,0
42,-391,0,0,0,0,0,0,0,0,0,-1,1266,1415,0,0
49,-391,0,0,0,0,0,0,0,0,0,-1,1273,1415,0,0
56,-391,0,0,0,0,0,0,0,0,0,-1,1280,1415,0,0
63,-391,0,0,0,0,0,0,0,0,0,-1,1287,1415,0,0
70,-391,0,0,0,0,0,0,0,0,0,-1,1294,1415,0,0
77,-391,0,0,0,0,0,0,0,0,0,-1,1301,1415,0,0
84,-391,0,0,0,0,0,0,0,0,0,-1,1308,1415,0,0
91,-391,0,0,0,0,0,0,0,0,0,-1,1315,1415,0,0
98,-391,0,0,0,0,0,0,0,0,0,-1,1322,1415,0,0
105,-391,0,0,0,0,0,0,0,0,0,-1,1329,1415,0,0
112,-391,0,0,0,0,0,0,0,0,0,-1,1336,1415,0,0
119,-391,0,0,0,0,0,0,0,0,0,-1,1343,1415,0,0
126,-391,0,0,0,0,0,0,0,0,0,-1,1350,1415,0,0
133,-391,0,0,0,0,0,0,0,0,0,-1,1357,1415,0,0
140,-391,0,0,0,0,0,0,0,0,0,-1,1364,1415,0,0
147,-391,0,0,0,0,0,0,0,0,0,-1,1371,1415,0,0
154,-391,0,0,0,0,0,0,0,0,0,-1,1378,1415,0,0
161,-391,0,0,0,0,0,0,0,0,0,-1,1385,1415,0,0
168,-391,0,0,0,0,0,0,0,0,0,-1,1392,1415,0,0
175,-391,0,0,0,0,0,0,0,0,0,-1,1399,1415,0,0
182,-391,0,0,0,0,0,0,0,0,0,-1,1406,1415,0,0
189,-391,0,0,0,0,0,0,0,0,0,-1,1413,1415,0,0
196,-391,0,0,0,0,0,0,0,0,0,-1,1420,1415,0,0
203,-391,0,0,0,0,0,0,0,0,0,-1,1427,1415,0,0
210,-391,0,0,0,0,0,0,0,0,0,-1,1434,1415,0,0
217,-391,0,0,0,0,0,0,0,0,0,-1,1441,1415,0,0
224,-391,0,0,0,0,0,0,0,0,0,-1,1448,1415,0,0
231,-391,0,0,0,0,0,0,0,0,0,-1,1455,1415,0,0
238,-391,0,0,0,0,0,0,0,0,0,-1,1462,1415,0,0
245,-391,0,0,0,0,0,0,0,0,0,-1,1469,1415,0,0
252,-391,0,0,0,0,0,0,0,0,0,-1,1476,1415,0,0
259,-391,0,0,0,0,0,0,0,0,0,-1,1483,1415,0,0
266,-391,0,0,0,0,0,0,0,0,0,-1,1490,1415,0,0
273,-391,0,0,0,0,0,0,0,0,0,-1,1497,1415,0,0
280,-391,0,0,0,0,0,0,0,0,0,-1,1504,1415,0,0
287,-391,0,0,0,0,0,0,0,0,0,-1,1511,1415,0,0
294,-391,0,0,0,0,0,0,0,0,0,-1,1518,1415,0,0
301,-391,0,0,0,0,0,0,0,0,0,-1,1525,1415,0,0
308,-391,0,0,0,0,0,0,0,0,0,-1,1532,1415,0,0
315,-391,0,0,0,0,0,0,0,0,0,-1,1539,1415,0,0
322,-391,0,0,0,0,0,0,0,0,0,-1,1546,1415,0,0
329,-391,0,0,0,0,0,0,0,0,0,-1,1553,1415,0,0
336,-391,0,0,0,0,0,0,0,0,0,-1,1560,1415,0,0
343,-391,0,0,0,0,0,0,0,0,0,-1,1567,1415,0,0
350,-391,0,0,0,0,0,0,0,0,0,-1,1574,1415,0,0
357,-391,0,0,0,0,0,0,0,0,0,-1,1581,1415,0,0
364,-391,0,0,0,0,0,0,0,0,0,-1,1588,1415,0,0
371,-391,0,0,0,0,0,0,0,0,0,-1,1595,1415,0,0
378,-391,0,0,0,0,0,0,0,0,0,-1,1602,1415,0,0
385,-391,0,0,0,0,0,0,0,0,0,-1,1609,1415,0,0
392,-391,0,0,0,0,0,0,0,0,0,-1,1616,1415,0,0
399,-391,0,0,0,0,0,0,0,0,0,-1,1623,1415,0,0
406,-391,0,0,0,0,0,0,0,0,0,-1,1630,1415,0,0
413,-391,0,0,0,0,0,0,0,0,0,-1,1637,1415,0,0
420,-391,0,0,0,0,0,0,0,0,0,-1,1644,1415,0,0
427,-391,0,0,0,0,0,0,0,0,0,-1,1651,1415,0,0
434,-391,0,0,0,0,0,0,0,0,0,-1,1658,1415,0,0
441,-391,0,0,0,0,0,0,0,0,0,-1,1665,1415,0,0
448,-391,0,0,0,0,0,0,0,0,0,-1,1672,1415,0,0
455,-391,0,0,0,0,0,0,0,0,0,-1,1679,1415,0,0
462,-391,0,0,0,0,0,0,0,0,0,-1,1686,1415,0,0
469,-391,0,0,0,0,0,0,0,0,0,-1,1693,1415,0,0
476,-391,0,0,0,0,0,0,0,0,0,-1,1700,1415,0,0
483,-391,0,0,0,0,0,0,0,0,0,-1,1707,1415,0,0
490,-391,0,0,0,0,0,0,0,0,0,-1,1714,1415,0,0
497,-391,0,0,0,0,0,0,0,0,0,-1,1721,1415,0,0
504,-391,0,0,0,0,0,0,0,0,0,-1,1728,1415,0,0
511,-391,0,0,0,0,0,0,0,0,0,-1,1735,1415,0,0
518,-391,0,0,0,0,0,0,0,0,0,-1,1742,1415,0,0
525,-391,0,0,0,0,0,0,0,0,0,-1,1749,1415,0,0
532,-391,28.5959,3.02356,0,0,0,0,0,0,0,-1,1756,1415,28.596,-3.02358
539,-391,27.5881,3.25012,0,0,0,0,0,0,0,-1,1763,1415,27.5882,-3.25016
546,-391,27.2837,3.28064,0,0,0,0,0,0,0,-1,1770,1415,27.2837,-3.28064
553,-391,32.5952,5.04553,0,0,0,0,0,0,0,-1,1777,1415,32.5952,-5.04551
560,-391,31.2947,5.67017,0,0,0,0,0,0,0,-1,1784,1415,31.2947,-5.67011
567,-391,30.1473,6.17603,0,0,0,0,0,0,0,-1,1791,1415,30.1473,-6.17602
574,-391,27.5656,5.6842,0,0,0,0,0,0,0,-1,1798,1415,27.5655,-5.68422
581,-391,25.8883,5.76123,0,0,0,0,0,0,0,-1,1805,1415,25.8883,-5.76124
588,-391,24.2717,5.47986,0,0,0,0,0,0,0,-1,1812,1415,24.2717,-5.47982
595,-391,22.8827,6.1991,0,0,0,0,0,0,0,-1,1819,1415,22.8827,-6.19909
602,-391,15.1635,5.69849,0,0,0,0,0,0,0,-1,1826,1415,15.1635,-5.69847
609,-391,14.8285,7.50476,0,0,0,0,0,0,0,-1,1833,1415,14.8285,-7.50479
616,-391,20.7952,12.0503,0,0,0,0,0,0,0,-1,1840,1415,20.7952,-12.0503
623,-391,32.5618,17.9761,0,0,0,0,0,0,0,-1,1847,1415,32.5617,-17.9761
630,-391,32.7158,17.3322,0.000841336,-0.000652325,-0.000115743,0.000850251,-0.00066124,-0.0768777,0.000874931,0.048111,1854,1415,32.7159,-17.3321
637,-391,32.5648,16.8136,0.0007174,-0.000369866,-7.62889e-05,0.000722727,-0.000375193,-0.0697106,0.000644383,0.0174208,1861,1415,32.5649,-16.8137
644,-391,32.5154,16.2129,0.00068335,-0.000215585,-1.9427e-05,0.00068377,-0.000216005,-0.0215977,0.00054238,0.0175014,1868,1415,32.5154,-16.2128
651,-391,32.4894,15.6302,0.000878417,-0.000190248,0.000153839,0.000900122,-0.000211953,0.140163,0.000681804,0.0177479,1875,1415,32.4894,-15.6302
658,-391,32.4684,15.0194,0.00120617,-0.000227109,0.000346214,0.00128542,-0.000306356,0.225021,0.000975238,0.0184112,1882,1415,32.4684,-15.0195
665,-391,32.4814,14.4154,0.00167999,-0.000342992,0.000593442,0.00184122,-0.000504228,0.265292,0.0014256,0.0150099,1889,1415,32.4814,-14.4154
672,-391,32.4493,13.798,0.00229318,-0.000558724,0.000926863,0.00256793,-0.000833482,0.288187,0.00204715,0.0120102,1896,1415,32.4493,-13.798
679,-391,32.4041,13.1868,0.00302034,-0.000928941,0.00138833,0.00345955,-0.00136815,0.306396,0.00287313,0.0113512,1903,1415,32.404,-13.1868
686,-391,32.3998,12.5992,0.00381463,-0.00152805,0.00207791,0.00452763,-0.00224105,0.330545,0.00398153,0.0127315,1910,1415,32.3998,-12.5992
693,-391,32.4058,12.2218,0.00484718,-0.00213583,0.0028071,0.00583568,-0.00312433,0.338582,0.00525142,0.0358967,1917,1415,32.4058,-12.2218
700,-391,32.5509,11.7776,0,0,0,0,0,0,0,-1,1924,1415,32.551,-11.7776
707,-391,12.9524,5.96851,0,0,0,0,0,0,0,-1,1931,1415,12.9524,-5.96849
714,-391,15.6875,7.67896,0,0,0,0,0,0,0,-1,1938,1415,15.6875,-7.67893
721,-391,14.1808,8.08435,0,0,0,0,0,0,0,-1,1945,1415,14.1808,-8.08439
728,-391,13.8102,7.28174,0,0,0,0,0,0,0,-1,1952,1415,13.8102,-7.28174
735,-391,0,0,0,0,0,0,0,0,0,-1,1959,1415,0,0
742,-391,0,0,0,0,0,0,0,0,0,-1,1966,1415,0,0
749,-391,0,0,0,0,0,0,0,0,0,-1,1973,1415,0,0
756,-391,0,0,0,0,0,0,0,0,0,-1,1980,1415,0,0
763,-391,0,0,0,0,0,0,0,0,0,-1,1987,1415,0,0
770,-391,0,0,0,0,0,0,0,0,0,-1,1994,1415,0,0
777,-391,0,0,0,0,0,0,0,0,0,-1,2001,1415,0,0
784,-391,0,0,0,0,0,0,0,0,0,-1,2008,1415,0,0
791,-391,0,0,0,0,0,0,0,0,0,-1,2015,1415,0,0
798,-391,0,0,0,0,0,0,0,0,0,-1,2022,1415,0,0
805,-391,0,0,0,0,0,0,0,0,0,-1,2029,1415,0,0
812,-391,0,0,0,0,0,0,0,0,0,-1,2036,1415,0,0
-700,-398,0,0,0,0,0,0,0,0,0,-1,524,1422,0,0
-693,-398,0,0,0,0,0,0,0,0,0,-1,531,1422,0,0
-686,-398,0,0,0,0,0,0,0,0,0,-1,538,1422,0,0
-679,-398,0,0,0,0,0,0,0,0,0,-1,545,1422,0,0
-672,-398,0,0,0,0,0,0,0,0,0,-1,552,1422,0,0
-665,-398,0,0,0,0,0,0,0,0,0,-1,559,1422,0,0
-658,-398,0,0,0,0,0,0,0,0,0,-1,566,1422,0,0
-651,-398,0,0,0,0,0,0,0,0,0,-1,573,1422,0,0
-644,-398,0,0,0,0,0,0,0,0,0,-1,580,1422,0,0
-637,-398,0,0,0,0,0,0,0,0,0,-1,587,1422,0,0
-630,-398,0,0,0,0,0,0,0,0,0,-1,594,1422,0,0
-623,-398,0,0,0,0,0,0,0,0,0,-1,601,1422,0,0
-616,-398,0,0,0,0,0,0,0,0,0,-1,608,1422,0,0
-609,-398,-7.47125,-4.05322,0,0,0,0,0,0,0,-1,615,1422,-7.47128,4.05317
-602,-398,-4.58868,-2.77026,0,0,0,0,0,0,0,-1,622,1422,-4.58869,2.77023
-595,-398,-12.2224,-1.82007,0,0,0,0,0,0,0,-1,629,1422,-12.2224,1.82006
-588,-398,-10.6939,1.32336,0,0,0,0,0,0,0,-1,636,1422,-10.6939,-1.32337
-581,-398,-10.433,3.1123,0,0,0,0,0,0,0,-1,643,1422,-10.433,-3.11233
-574,-398,-10.4475,5.89807,0,0,0,0,0,0,0,-1,650,1422,-10.4475,-5.89802
-567,-398,-10.4904,6.80115,0,0,0,0,0,0,0,-1,657,1422,-10.4904,-6.80115
-560,-398,-10.5333,7.70435,0,0,0,0,0,0,0,-1,664,1422,-10.5333,-7.70429
-553,-398,-15.5026,10.5725,0,0,0,0,0,0,0,-1,671,1422,-15.5026,-10.5725
-546,-398,-15.467,11.3866,0.00482067,0.00186763,0.00233981,0.00611089,0.000577422,0.503931,0.00389574,0.0289807,678,1422,-15.467,-11.3866
-539,-398,-15.3835,12.103,0.00387384,0.00129284,0.00172786,0.00473993,0.000426749,0.464649,0.00302775,0.012931,685,1422,-15.3836,-12.103
-532,-398,-15.4258,12.7437,0.003151,0.000849093,0.00128043,0.00372174,0.00027836,0.419301,0.00239377,0.0206928,692,1422,-15.4258,-12.7436
-525,-398,-15.46,13.4055,0.00271007,0.000691888,0.00107497,0.00317536,0.000226591,0.408499,0.00204557,0.0198435,699,1422,-15.4599,-13.4056
-518,-398,-15.4786,14.0385,0.00243854,0.00069975,0.00101775,0.00290768,0.000230613,0.431926,0.00186633,0.0179101,706,1422,-15.4786,-14.0385
-511,-398,-15.5119,14.6713,0.00235645,0.000867169,0.00108353,0.00292654,0.000297076,0.484344,0.00185993,0.0140838,713,1422,-15.5119,-14.6713
-504,-398,-15.5397,15.3521,0.00254225,0.00124106,0.00136597,0.00340464,0.000378667,0.563148,0.00215466,0.0138566,720,1422,-15.5397,-15.3521
-497,-398,-15.5634,15.9982,0.00290337,0.00177559,0.00180063,0.00422634,0.000452622,0.633653,0.00267946,0.0101668,727,1422,-15.5634,-15.9982
-490,-398,-15.5797,16.6602,0.00367097,0.00263383,0.00244015,0.00564704,0.00065776,0.680698,0.00356572,0.0194595,734,1422,-15.5797,-16.6601
-483,-398,-15.4242,17.5751,0,0,0,0,0,0,0,-1,741,1422,-15.4242,-17.575
-476,-398,-8.64392,11.9448,0,0,0,0,0,0,0,-1,748,1422,-8.6439,-11.9448
-469,-398,-8.91699,10.6276,0,0,0,0,0,0,0,-1,755,1422,-8.91697,-10.6275
-462,-398,-9.59753,9.32532,0,0,0,0,0,0,0,-1,762,1422,-9.59753,-9.32531
-455,-398,-8.08331,6.75024,0,0,0,0,0,0,0,-1,769,1422,-8.08333,-6.75022
-448,-398,-7.4505,5.25293,0,0,0,0,0,0,0,-1,776,1422,-7.4505,-5.25291
-441,-398,-7.61639,3.32141,0,0,0,0,0,0,0,-1,783,1422,-7.61637,-3.32145
-434,-398,-10.7618,3.297,0,0,0,0,0,0,0,-1,790,1422,-10.7618,-3.29704
-427,-398,-11.9061,2.24939,0,0,0,0,0,0,0,-1,797,1422,-11.9061,-2.24941
-420,-398,-13.467,2.32788,0,0,0,0,0,0,0,-1,804,1422,-13.467,-2.32787
-413,-398,-14.7983,2.15515,0,0,0,0,0,0,0,-1,811,1422,-14.7983,-2.15516
-406,-398,0,0,0,0,0,0,0,0,0,-1,818,1422,0,0
-399,-398,0,0,0,0,0,0,0,0,0,-1,825,1422,0,0
-392,-398,0,0,0,0,0,0,0,0,0,-1,832,1422,0,0
-385,-398,0,0,0,0,0,0,0,0,0,-1,839,1422,0,0
-378,-398,0,0,0,0,0,0,0,0,0,-1,846,1422,0,0
-371,-398,0,0,0,0,0,0,0,0,0,-1,853,1422,0,0
-364,-398,0,0,0,0,0,0,0,0,0,-1,860,1422,0,0
-357,-398,0,0,0,0,0,0,0,0,0,-1,867,1422,0,0
-350,-398,0,0,0,0,0,0,0,0,0,-1,874,1422,0,0
-343,-398,0,0,0,0,0,0,0,0,0,-1,881,1422,0,0
-336,-398,0,0,0,0,0,0,0,0,0,-1,888,1422,0,0
-329,-398,0,0,0,0,0,0,0,0,0,-1,895,1422,0,0
-322,-398,0,0,0,0,0,0,0,0,0,-1,902,1422,0,0
-315,-398,0,0,0,0,0,0,0,0,0,-1,909,1422,0,0
-308,-398,0,0,0,0,0,0,0,0,0,-1,916,1422,0,0
-301,-398,0,0,0,0,0,0,0,0,0,-1,923,1422,0,0
-294,-398,0,0,0,0,0,0,0,0,0,-1,930,1422,0,0
-287,-398,0,0,0,0,0,0,0,0,0,-1,937,1422,0,0
-280,-398,0,0,0,0,0,0,0,0,0,-1,944,1422,0,0
-273,-398,0,0,0,0,0,0,0,0,0,-1,951,1422,0,0
-266,-398,0,0,0,0,0,0,0,0,0,-1,958,1422,0,0
-259,-398,0,0,0,0,0,0,0,0,0,-1,965,1422,0,0
-252,-398,0,0,0,0,0,0,0,0,0,-1,972,1422,0,0
-245,-398,0,0,0,0,0,0,0,0,0,-1,979,1422,0,0
-238,-398,0,0,0,0,0,0,0,0,0,-1,986,1422,0,0
-231,-398,0,0,0,0,0,0,0,0,0,-1,993,1422,0,0
-224,-398,0,0,0,0,0,0,0,0,0,-1,1000,1422,0,0
-217,-398,0,0,0,0,0,0,0,0,0,-1,1007,1422,0,0
-210,-398,0,0,0,0,0,0,0,0,0,-1,1014,1422,0,0
-203,-398,0,0,0,0,0,0,0,0,0,-1,1021,1422,0,0
-196,-398,0,0,0,0,0,0,0,0,0,-1,1028,1422,0,0
-189,-398,0,0,0,0,0,0,0,0,0,-1,1035,1422,0,0
-182,-398,0,0,0,0,0,0,0,0,0,-1,1042,1422,0,0
-175,-398,0,0,0,0,0,0,0,0,0,-1,1049,1422,0,0
-168,-398,0,0,0,0,0,0,0,0,0,-1,1056,1422,0,0
-161,-398,0,0,0,0,0,0,0,0,0,-1,1063,1422,0,0
-154,-398,0,0,0,0,0,0,0,0,0,-1,1070,1422,0,0
-147,-398,0,0,0,0,0,0,0,0,0,-1,1077,1422,0,0
-140,-398,0,0,0,0,0,0,0,0,0,-1,1084,1422,0,0
-133,-398,0,0,0,0,0,0,0,0,0,-1,1091,1422,0,0
-126,-398,0,0,0,0,0,0,0,0,0,-1,1098,1422,0,0
-119,-398,0,0,0,0,0,0,0,0,0,-1,1105,1422,0,0
-112,-398,0,0,0,0,0,0,0,0,0,-1,1112,1422,0,0
-105,-398,0,0,0,0,0,0,0,0,0,-1,1119,1422,0,0
-98,-398,0,0,0,0,0,0,0,0,0,-1,1126,1422,0,0
-91,-398,0,0,0,0,0,0,0,0,0,-1,1133,1422,0,0
-84,-398,0,0,0,0,0,0,0,0,0,-1,1140,1422,0,0
-77,-398,0,0,0,0,0,0,0,0,0,-1,1147,1422,0,0
-70,-398,0,0,0,0,0,0,0,0,0,-1,1154,1422,0,0
-63,-398,0,0,0,0,0,0,0,0,0,-1,1161,1422,0,0
-56,-398,0,0,0,0,0,0,0,0,0,-1,1168,1422,0,0
-49,-398,0,0,0,0,0,0,0,0,0,-1,1175,1422,0,0
-42,-398,0,0,0,0,0,0,0,0,0,-1,1182,1422,0,0
-35,-398,0,0,0,0,0,0,0,0,0,-1,1189,1422,0,0
-28,-398,0,0,0,0,0,0,0,0,0,-1,1196,1422,0,0
-21,-398,0,0,0,0,0,0,0,0,0,-1,1203,1422,0,0
-14,-398,0,0,0,0,0,0,0,0,0,-1,1210,1422,0,0
-7,-398,0,0,0,0,0,0,0,0,0,-1,1217,1422,0,0
0,-398,0,0,0,0,0,0,0,0,0,-1,1224,1422,0,0
7,-398,0,0,0,0,0,0,0,0,0,-1,1231,1422,0,0
14,-398,0,0,0,0,0,0,0,0,0,-1,1238,1422,0,0
21,-398,0,0,0,0,0,0,0,0,0,-1,1245,1422,0,0
28,-398,0,0,0,0,0,0,0,0,0,-1,1252,1422,0,0
35,-398,0,0,0,0,0,0,0,0,0,-1,1259,1422,0,0
42,-398,0,0,0,0,0,0,0,0,0,-1,1266,1422,0,0
49,-398,0,0,0,0,0,0,0,0,0,-1,1273,1422,0,0
56,-398,0,0,0,0,0,0,0,0,0,-1,1280,1422,0,0
63,-398,0,0,0,0,0,0,0,0,0,-1,1287,1422,0,0
70,-398,0,0,0,0,0,0,0,0,0,-1,1294,1422,0,0
77,-398,0,0,0,0,0,0,0,0,0,-1,1301,1422,0,0
84,-398,0,0,0,0,0,0,0,0,0,-1,1308,1422,0,0
91,-398,0,0,0,0,0,0,0,0,0,-1,1315,1422,0,0
98,-398,0,0,0,0,0,0,0,0,0,-1,1322,1422,0,0
105,-398,0,0,0,0,0,0,0,0,0,-1,1329,1422,0,0
112,-398,0,0,0,0,0,0,0,0,0,-1,1336,1422,0,0
119,-398,0,0,0,0,0,0,0,0,0,-1,1343,1422,0,0
126,-398,0,0,0,0,0,0,0,0,0,-1,1350,1422,0,0
133,-398,0,0,0,0,0,0,0,0,0,-1,1357,1422,0,0
140,-398,0,0,0,0,0,0,0,0,0,-1,1364,1422,0,0
147,-398,0,0,0,0,0,0,0,0,0,-1,1371,1422,0,0
154,-398,0,0,0,0,0,0,0,0,0,-1,1378,1422,0,0
161,-398,0,0,0,0,0,0,0,0,0,-1,1385,1422,0,0
168,-398,0,0,0,0,0,0,0,0,0,-1,1392,1422,0,0
175,-398,0,0,0,0,0,0,0,0,0,-1,1399,1422,0,0
182,-398,0,0,0,0,0,0,0,0,0,-1,1406,1422,0,0
189,-398,0,0,0,0,0,0,0,0,0,-1,1413,1422,0,0
196,-398,0,0,0,0,0,0,0,0,0,-1,1420,1422,0,0
203,-398,0,0,0,0,0,0,0,0,0,-1,1427,1422,0,0
210,-398,0,0,0,0,0,0,0,0,0,-1,1434,1422,0,0
217,-398,0,0,0,0,0,0,0,0,0,-1,1441,1422,0,0
224,-398,0,0,0,0,0,0,0,0,0,-1,1448,1422,0,0
231,-398,0,0,0,0,0,0,0,0,0,-1,1455,1422,0,0
238,-398,0,0,0,0,0,0,0,0,0,-1,1462,1422,0,0
245,-398,0,0,0,0,0,0,0,0,0,-1,1469,1422,0,0
252,-398,0,0,0,0,0,0,0,0,0,-1,1476,1422,0,0
259,-398,0,0,0,0,0,0,0,0,0,-1,1483,1422,0,0
266,-398,0,0,0,0,0,0,0,0,0,-1,1490,1422,0,0
273,-398,0,0,0,0,0,0,0,0,0,-1,1497,1422,0,0
280,-398,0,0,0,0,0,0,0,0,0,-1,1504,1422,0,0
287,-398,0,0,0,0,0,0,0,0,0,-1,1511,1422,0,0
294,-398,0,0,0,0,0,0,0,0,0,-1,1518,1422,0,0
301,-398,0,0,0,0,0,0,0,0,0,-1,1525,1422,0,0
308,-398,0,0,0,0,0,0,0,0,0,-1,1532,1422,0,0
315,-398,0,0,0,0,0,0,0,0,0,-1,1539,1422,0,0
322,-398,0,0,0,0,0,0,0,0,0,-1,1546,1422,0,0
329,-398,0,0,0,0,0,0,0,0,0,-1,1553,1422,0,0
336,-398,0,0,0,0,0,0,0,0,0,-1,1560,1422,0,0
343,-398,0,0,0,0,0,0,0,0,0,-1,1567,1422,0,0
350,-398,0,0,0,0,0,0,0,0,0,-1,1574,1422,0,0
357,-398,0,0,0,0,0,0,0,0,0,-1,1581,1422,0,0
364,-398,0,0,0,0,0,0,0,0,0,-1,1588,1422,0,0
371,-398,0,0,0,0,0,0,0,0,0,-1,1595,1422,0,0
378,-398,0,0,0,0,0,0,0,0,0,-1,1602,1422,0,0
385,-398,0,0,0,0,0,0,0,0,0,-1,1609,1422,0,0
392,-398,0,0,0,0,0,0,0,0,0,-1,1616,1422,0,0
399,-398,0,0,0,0,0,0,0,0,0,-1,1623,1422,0,0
406,-398,0,0,0,0,0,0,0,0,0,-1,1630,1422,0,0
413,-398,0,0,0,0,0,0,0,0,0,-1,1637,1422,0,0
420,-398,0,0,0,0,0,0,0,0,0,-1,1644,1422,0,0
427,-398,0,0,0,0,0,0,0,0,0,-1,1651,1422,0,0
434,-398,0,0,0,0,0,0,0,0,0,-1,1658,1422,0,0
441,-398,0,0,0,0,0,0,0,0,0,-1,1665,1422,0,0
448,-398,0,0,0,0,0,0,0,0,0,-1,1672,1422,0,0
455,-398,0,0,0,0,0,0,0,0,0,-1,1679,1422,0,0
462,-398,0,0,0,0,0,0,0,0,0,-1,1686,1422,0,0
469,-398,0,0,0,0,0,0,0,0,0,-1,1693,1422,0,0
476,-398,0,0,0,0,0,0,0,0,0,-1,1700,1422,0,0
483,-398,0,0,0,0,0,0,0,0,0,-1,1707,1422,0,0
490,-398,0,0,0,0,0,0,0,0,0,-1,1714,1422,0,0
497,-398,0,0,0,0,0,0,0,0,0,-1,1721,1422,0,0
504,-398,0,0,0,0,0,0,0,0,0,-1,1728,1422,0,0
511,-398,0,0,0,0,0,0,0,0,0,-1,1735,1422,0,0
518,-398,0,0,0,0,0,0,0,0,0,-1,1742,1422,0,0
525,-398,0,0,0,0,0,0,0,0,0,-1,1749,1422,0,0
532,-398,28.4558,3.84094,0,0,0,0,0,0,0,-1,1756,1422,28.4558,-3.8409
539,-398,27.0594,3.33887,0,0,0,0,0,0,0,-1,1763,1422,27.0595,-3.3389
546,-398,31.6873,5.58582,0,0,0,0,0,0,0,-1,1770,1422,31.6872,-5.58585
553,-398,30.4392,5.92383,0,0,0,0,0,0,0,-1,1777,1422,30.4392,-5.92386
560,-398,29.1621,6.30469,0,0,0,0,0,0,0,-1,1784,1422,29.1621,-6.30469
567,-398,27.8411,6.55029,0,0,0,0,0,0,0,-1,1791,1422,27.8411,-6.55033
574,-398,26.411,6.8916,0,0,0,0,0,0,0,-1,1798,1422,26.411,-6.8916
581,-398,24.75,7.11145,0,0,0,0,0,0,0,-1,1805,1422,24.7499,-7.11142
588,-398,23.1649,7.67969,0,0,0,0,0,0,0,-1,1812,1422,23.1649,-7.67975
595,-398,21.4253,7.86023,0,0,0,0,0,0,0,-1,1819,1422,21.4253,-7.86029
602,-398,19.6857,8.04077,0,0,0,0,0,0,0,-1,1826,1422,19.6856,-8.04083
609,-398,21.1835,13.2628,0,0,0,0,0,0,0,-1,1833,1422,21.1835,-13.2628
616,-398,31.7786,18.9061,0,0,0,0,0,0,0,-1,1840,1422,31.7786,-18.9061
623,-398,31.9797,18.0775,0.00177384,-0.000543154,-0.000554005,0.00189949,-0.000668805,-0.223033,0.0015385,0.0447583,1847,1422,31.9797,-18.0776
630,-398,31.9949,17.4318,0.00116254,-0.000574729,-0.000184772,0.00118198,-0.000594164,-0.104796,0.00104401,0.0142424,1854,1422,31.9949,-17.4317
637,-398,31.964,16.8262,0.00100738,-0.000356476,-0.000114851,0.00101698,-0.00036608,-0.0834276,0.000827462,0.0147429,1861,1422,31.964,-16.8262
644,-398,31.8717,16.2543,0.000993467,-0.000247481,-1.79752e-05,0.000993727,-0.000247741,-0.014481,0.00075867,0.0221869,1868,1422,31.8717,-16.2543
651,-398,31.8867,15.717,0.0011947,-0.000161766,0.000118907,0.00120504,-0.00017211,0.0867772,0.00086645,0.0314911,1875,1422,31.8867,-15.7171
658,-398,31.8956,15.1208,0.00149267,-0.000141599,0.000300299,0.0015461,-0.000195033,0.176091,0.00110151,0.0262261,1882,1422,31.8957,-15.1208
665,-398,31.8818,14.4713,0.00192398,-0.000206696,0.000559122,0.00206179,-0.000344504,0.241657,0.00150259,0.01703,1889,1422,31.8819,-14.4713
672,-398,31.8396,13.8518,0.00244845,-0.000398109,0.000959379,0.0027416,-0.00069126,0.296553,0.00209649,0.0138895,1896,1422,31.8396,-13.8519
679,-398,31.8025,13.2458,0.00304835,-0.000800207,0.00155835,0.00360021,-0.00135207,0.340355,0.00295578,0.0128463,1903,1422,31.8025,-13.2459
686,-398,31.7849,12.6498,0.0036108,-0.00152532,0.00252478,0.00464405,-0.00255857,0.38845,0.00421614,0.0187316,1910,1422,31.7849,-12.6497
693,-398,31.6671,12.3115,0.00429757,-0.00231361,0.00365411,0.0059194,-0.00393544,0.417716,0.005728,0.0449124,1917,1422,31.6671,-12.3115
700,-398,31.6654,12.036,0,0,0,0,0,0,0,-1,1924,1422,31.6654,-12.036
707,-398,10.9731,5.479,0,0,0,0,0,0,0,-1,1931,1422,10.9732,-5.47896
714,-398,11.7313,6.17346,0,0,0,0,0,0,0,-1,1938,1422,11.7313,-6.17348
721,-398,13.9371,8.05103,0,0,0,0,0,0,0,-1,1945,1422,13.9372,-8.05102
728,-398,14.786,7.0282,0,0,0,0,0,0,0,-1,1952,1422,14.786,-7.0282
735,-398,0,0,0,0,0,0,0,0,0,-1,1959,1422,0,0
742,-398,0,0,0,0,0,0,0,0,0,-1,1966,1422,0,0
749,-398,0,0,0,0,0,0,0,0,0,-1,1973,1422,0,0
756,-398,0,0,0,0,0,0,0,0,0,-1,1980,1422,0,0
763,-398,0,0,0,0,0,0,0,0,0,-1,1987,1422,0,0
770,-398,0,0,0,0,0,0,0,0,0,-1,1994,1422,0,0
777,-398,0,0,0,0,0,0,0,0,0,-1,2001,1422,0,0
784,-398,0,0,0,0,0,0,0,0,0,-1,2008,1422,0,0
791,-398,0,0,0,0,0,0,0,0,0,-1,2015,1422,0,0
798,-398,0,0,0,0,0,0,0,0,0,-1,2022,1422,0,0
805,-398,0,0,0,0,0,0,0,0,0,-1,2029,1422,0,0
812,-398,0,0,0,0,0,0,0,0,0,-1,2036,1422,0,0
-700,-405,0,0,0,0,0,0,0,0,0,-1,524,1429,0,0
-693,-405,0,0,0,0,0,0,0,0,0,-1,531,1429,0,0
-686,-405,0,0,0,0,0,0,0,0,0,-1,538,1429,0,0
-679,-405,0,0,0,0,0,0,0,0,0,-1,545,1429,0,0
-672,-405,0,0,0,0,0,0,0,0,0,-1,552,1429,0,0
-665,-405,0,0,0,0,0,0,0,0,0,-1,559,1429,0,0
-658,-405,0,0,0,0,0,0,0,0,0,-1,566,1429,0,0
-651,-405,0,0,0,0,0,0,0,0,0,-1,573,1429,0,0
-644,-405,0,0,0,0,0,0,0,0,0,-1,580,1429,0,0
-637,-405,0,0,0,0,0,0,0,0,0,-1,587,1429,0,0
-630,-405,0,0,0,0,0,0,0,0,0,-1,594,1429,0,0
-623,-405,0,0,0,0,0,0,0,0,0,-1,601,1429,0,0
-616,-405,0,0,0,0,0,0,0,0,0,-1,608,1429,0,0
-609,-405,0,0,0,0,0,0,0,0,0,-1,615,1429,0,0
-602,-405,-5.80988,-3.46594,0,0,0,0,0,0,0,-1,622,1429,-5.80987,3.46592
-595,-405,-9.35413,2.01477,0,0,0,0,0,0,0,-1,629,1429,-9.35411,-2.01476
-588,-405,-7.35693,0.507202,0,0,0,0,0,0,0,-1,636,1429,-7.35696,-0.507187
-581,-405,-10.1284,1.62927,0,0,0,0,0,0,0,-1,643,1429,-10.1284,-1.62922
-574,-405,-9.32074,3.05896,0,0,0,0,0,0,0,-1,650,1429,-9.32077,-3.0589
-567,-405,-9.68781,6.92163,0,0,0,0,0,0,0,-1,657,1429,-9.68782,-6.92166
-560,-405,-9.28674,7.20886,0,0,0,0,0,0,0,-1,664,1429,-9.28675,-7.20885
-553,-405,-14.7498,10.6406,0,0,0,0,0,0,0,-1,671,1429,-14.7497,-10.6406
-546,-405,-14.762,11.3707,0.00524062,0.00227238,0.00257206,0.00672603,0.000786965,0.523724,0.00424608,0.0429953,678,1429,-14.762,-11.3708
-539,-405,-14.7706,12.0718,0.00407582,0.00160651,0.00190279,0.00510942,0.000572908,0.49761,0.00323228,0.0132895,685,1429,-14.7706,-12.0718
-532,-405,-14.7842,12.7367,0.00317044,0.00102608,0.00135771,0.00382827,0.000368243,0.451186,0.00243872,0.0159684,692,1429,-14.7842,-12.7367
-525,-405,-14.8132,13.4138,0.00263025,0.00079163,0.00108649,0.00313417,0.000287706,0.434278,0.00200046,0.0153454,699,1429,-14.8132,-13.4138
-518,-405,-14.8262,14.0847,0.00228531,0.000743469,0.00096925,0.00275284,0.000275938,0.44944,0.00175051,0.0163929,706,1429,-14.8262,-14.0847
-511,-405,-14.8677,14.7186,0.00213851,0.000839489,0.000966289,0.00265329,0.000324705,0.489498,0.00167117,0.0165341,713,1429,-14.8677,-14.7187
-504,-405,-14.8714,15.3728,0.00227478,0.00113339,0.0011663,0.00300252,0.000405651,0.557864,0.0018811,0.0179833,720,1429,-14.8714,-15.3728
-497,-405,-14.8859,16.0535,0.00258421,0.00159738,0.00149334,0.00366354,0.000518057,0.625839,0.00228929,0.0147157,727,1429,-14.8859,-16.0535
-490,-405,-14.9355,16.6982,0.00321075,0.00230488,0.00201099,0.00481918,0.000696448,0.674631,0.00300764,0.0128822,734,1429,-14.9355,-16.6983
-483,-405,-14.8491,17.4613,0.0040849,0.00330939,0.002772,0.00649614,0.000898151,0.715908,0.00406459,0.0301685,741,1429,-14.8491,-17.4613
-476,-405,-14.6051,18.4484,0,0,0,0,0,0,0,-1,748,1429,-14.6051,-18.4484
-469,-405,-9.65692,12.8171,0,0,0,0,0,0,0,-1,755,1429,-9.65691,-12.8172
-462,-405,-9.14862,11.3597,0,0,0,0,0,0,0,-1,762,1429,-9.14865,-11.3597
-455,-405,-9.021,9.51111,0,0,0,0,0,0,0,-1,769,1429,-9.021,-9.51109
-448,-405,-8.4649,6.82813,0,0,0,0,0,0,0,-1,776,1429,-8.46492,-6.82817
-441,-405,-6.6712,4.23767,0,0,0,0,0,0,0,-1,783,1429,-6.67121,-4.23764
-434,-405,-9.62549,3.94189,0,0,0,0,0,0,0,-1,790,1429,-9.62546,-3.94191
-427,-405,-10.9764,3.73926,0,0,0,0,0,0,0,-1,797,1429,-10.9764,-3.73923
-420,-405,-12.1187,3.68506,0,0,0,0,0,0,0,-1,804,1429,-12.1187,-3.68512
-413,-405,-13.5353,3.75659,0,0,0,0,0,0,0,-1,811,1429,-13.5353,-3.75655
-406,-405,-14.7374,3.99817,0,0,0,0,0,0,0,-1,818,1429,-14.7374,-3.99814
-399,-405,0,0,0,0,0,0,0,0,0,-1,825,1429,0,0
-392,-405,0,0,0,0,0,0,0,0,0,-1,832,1429,0,0
-385,-405,0,0,0,0,0,0,0,0,0,-1,839,1429,0,0
-378,-405,0,0,0,0,0,0,0,0,0,-1,846,1429,0,0
-371,-405,0,0,0,0,0,0,0,0,0,-1,853,1429,0,0
-364,-405,0,0,0,0,0,0,0,0,0,-1,860,1429,0,0
-357,-405,0,0,0,0,0,0,0,0,0,-1,867,1429,0,0
-350,-405,0,0,0,0,0,0,0,0,0,-1,874,1429,0,0
-343,-405,0,0,0,0,0,0,0,0,0,-1,881,1429,0,0
-336,-405,0,0,0,0,0,0,0,0,0,-1,888,1429,0,0
-329,-405,0,0,0,0,0,0,0,0,0,-1,895,1429,0,0
-322,-405,0,0,0,0,0,0,0,0,0,-1,902,1429,0,0
-315,-405,0,0,0,0,0,0,0,0,0,-1,909,1429,0,0
-308,-405,0,0,0,0,0,0,0,0,0,-1,916,1429,0,0
-301,-405,0,0,0,0,0,0,0,0,0,-1,923,1429,0,0
-294,-405,0,0,0,0,0,0,0,0,0,-1,930,1429,0,0
-287,-405,0,0,0,0,0,0,0,0,0,-1,937,1429,0,0
-280,-405,0,0,0,0,0,0,0,0,0,-1,944,1429,0,0
-273,-405,0,0,0,0,0,0,0,0,0,-1,951,1429,0,0
-266,-405,0,0,0,0,0,0,0,0,0,-1,958,1429,0,0
-259,-405,0,0,0,0,0,0,0,0,0,-1,965,1429,0,0
-252,-405,0,0,0,0,0,0,0,0,0,-1,972,1429,0,0
-245,-405,0,0,0,0,0,0,0,0,0,-1,979,1429,0,0
-238,-405,0,0,0,0,0,0,0,0,0,-1,986,1429,0,0
-231,-405,0,0,0,0,0,0,0,0,0,-1,993,1429,0,0
-224,-405,0,0,0,0,0,0,0,0,0,-1,1000,1429,0,0
-217,-405,0,0,0,0,0,0,0,0,0,-1,1007,1429,0,0
-210,-405,0,0,0,0,0,0,0,0,0,-1,1014,1429,0,0
-203,-405,0,0,0,0,0,0,0,0,0,-1,1021,1429,0,0
-196,-405,0,0,0,0,0,0,0,0,0,-1,1028,1429,0,0
-189,-405,0,0,0,0,0,0,0,0,0,-1,1035,1429,0,0
-182,-405,0,0,0,0,0,0,0,0,0,-1,1042,1429,0,0
-175,-405,0,0,0,0,0,0,0,0,0,-1,1049,1429,0,0
-168,-405,0,0,0,0,0,0,0,0,0,-1,1056,1429,0,0
-161,-405,0,0,0,0,0,0,0,0,0,-1,1063,1429,0,0
-154,-405,0,0,0,0,0,0,0,0,0,-1,1070,1429,0,0
-147,-405,0,0,0,0,0,0,0,0,0,-1,1077,1429,0,0
-140,-405,0,0,0,0,0,0,0,0,0,-1,1084,1429,0,0
-133,-405,0,0,0,0,0,0,0,0,0,-1,1091,1429,0,0
-126,-405,0,0,0,0,0,0,0,0,0,-1,1098,1429,0,0
-119,-405,0,0,0,0,0,0,0,0,0,-1,1105,1429,0,0
-112,-405,0,0,0,0,0,0,0,0,0,-1,1112,1429,0,0
-105,-405,0,0,0,0,0,0,0,0,0,-1,1119,1429,0,0
-98,-405,0,0,0,0,0,0,0,0,0,-1,1126,1429,0,0
-91,-405,0,0,0,0,0,0,0,0,0,-1,1133,1429,0,0
-84,-405,0,0,0,0,0,0,0,0,0,-1,1140,1429,0,0
-77,-405,0,0,0,0,0,0,0,0,0,-1,1147,1429,0,0
-70,-405,0,0,0,0,0,0,0,0,0,-1,1154,1429,0,0
-63,-405,0,0,0,0,0,0,0,0,0,-1,1161,1429,0,0
-56,-405,0,0,0,0,0,0,0,0,0,-1,1168,1429,0,0
-49,-405,0,0,0,0,0,0,0,0,0,-1,1175,1429,0,0
-42,-405,0,0,0,0,0,0,0,0,0,-1,1182,1429,0,0
-35,-405,0,0,0,0,0,0,0,0,0,-1,1189,1429,0,0
-28,-405,0,0,0,0,0,0,0,0,0,-1,1196,1429,0,0
-21,-405,0,0,0,0,0,0,0,0,0,-1,1203,1429,0,0
-14,-405,0,0,0,0,0,0,0,0,0,-1,1210,1429,0,0
-7,-405,0,0,0,0,0,0,0,0,0,-1,1217,1429,0,0
0,-405,0,0,0,0,0,0,0,0,0,-1,1224,1429,0,0
7,-405,0,0,0,0,0,0,0,0,0,-1,1231,1429,0,0
14,-405,0,0,0,0,0,0,0,0,0,-1,1238,1429,0,0
21,-405,0,0,0,0,0,0,0,0,0,-1,1245,1429,0,0
28,-405,0,0,0,0,0,0,0,0,0,-1,1252,1429,0,0
35,-405,0,0,0,0,0,0,0,0,0,-1,1259,1429,0,0
42,-405,0,0,0,0,0,0,0,0,0,-1,1266,1429,0,0
49,-405,0,0,0,0,0,0,0,0,0,-1,1273,1429,0,0
56,-405,0,0,0,0,0,0,0,0,0,-1,1280,1429,0,0
63,-405,0,0,0,0,0,0,0,0,0,-1,1287,1429,0,0
70,-405,0,0,0,0,0,0,0,0,0,-1,1294,1429,0,0
77,-405,0,0,0,0,0,0,0,0,0,-1,1301,1429,0,0
84,-405,0,0,0,0,0,0,0,0,0,-1,1308,1429,0,0
91,-405,0,0,0,0,0,0,0,0,0,-1,1315,1429,0,0
98,-405,0,0,0,0,0,0,0,0,0,-1,1322,1429,0,0
105,-405,0,0,0,0,0,0,0,0,0,-1,1329,1429,0,0
112,-405,0,0,0,0,0,0,0,0,0,-1,1336,1429,0,0
119,-405,0,0,0,0,0,0,0,0,0,-1,1343,1429,0,0
126,-405,0,0,0,0,0,0,0,0,0,-1,1350,1429,0,0
133,-405,0,0,0,0,0,0,0,0,0,-1,1357,1429,0,0
140,-405,0,0,0,0,0,0,0,0,0,-1,1364,1429,0,0
147,-405,0,0,0,0,0,0,0,0,0,-1,1371,1429,0,0
154,-405,0,0,0,0,0,0,0,0,0,-1,1378,1429,0,0
161,-405,0,0,0,0,0,0,0,0,0,-1,1385,1429,0,0
168,-405,0,0,0,0,0,0,0,0,0,-1,1392,1429,0,0
175,-405,0,0,0,0,0,0,0,0,0,-1,1399,1429,0,0
182,-405,0,0,0,0,0,0,0,0,0,-1,1406,1429,0,0
189,-405,0,0,0,0,0,0,0,0,0,-1,1413,1429,0,0
196,-405,0,0,0,0,0,0,0,0,0,-1,1420,1429,0,0
203,-405,0,0,0,0,0,0,0,0,0,-1,1427,1429,0,0
210,-405,0,0,0,0,0,0,0,0,0,-1,1434,1429,0,0
217,-405,0,0,0,0,0,0,0,0,0,-1,1441,1429,0,0
224,-405,0,0,0,0,0,0,0,0,0,-1,1448,1429,0,0
231,-405,0,0,0,0,0,0,0,0,0,-1,1455,1429,0,0
238,-405,0,0,0,0,0,0,0,0,0,-1,1462,1429,0,0
245,-405,0,0,0,0,0,0,0,0,0,-1,1469,1429,0,0
252,-405,0,0,0,0,0,0,0,0,0,-1,1476,1429,0,0
259,-405,0,0,0,0,0,0,0,0,0,-1,1483,1429,0,0
266,-405,0,0,0,0,0,0,0,0,0,-1,1490,1429,0,0
273,-405,0,0,0,0,0,0,0,0,0,-1,1497,1429,0,0
280,-405,0,0,0,0,0,0,0,0,0,-1,1504,1429,0,0
287,-405,0,0,0,0,0,0,0,0,0,-1,1511,1429,0,0
294,-405,0,0,0,0,0,0,0,0,0,-1,1518,1429,0,0
301,-405,0,0,0,0,0,0,0,0,0,-1,1525,1429,0,0
308,-405,0,0,0,0,0,0,0,0,0,-1,1532,1429,0,0
315,-405,0,0,0,0,0,0,0,0,0,-1,1539,1429,0,0
322,-405,0,0,0,0,0,0,0,0,0,-1,1546,1429,0,0
329,-405,0,0,0,0,0,0,0,0,0,-1,1553,1429,0,0
336,-405,0,0,0,0,0,0,0,0,0,-1,1560,1429,0,0
343,-405,0,0,0,0,0,0,0,0,0,-1,1567,1429,0,0
350,-405,0,0,0,0,0,0,0,0,0,-1,1574,1429,0,0
357,-405,0,0,0,0,0,0,0,0,0,-1,1581,1429,0,0
364,-405,0,0,0,0,0,0,0,0,0,-1,1588,1429,0,0
371,-405,0,0,0,0,0,0,0,0,0,-1,1595,1429,0,0
378,-405,0,0,0,0,0,0,0,0,0,-1,1602,1429,0,0
385,-405,0,0,0,0,0,0,0,0,0,-1,1609,1429,0,0
392,-405,0,0,0,0,0,0,0,0,0,-1,1616,1429,0,0
399,-405,0,0,0,0,0,0,0,0,0,-1,1623,1429,0,0
406,-405,0,0,0,0,0,0,0,0,0,-1,1630,1429,0,0
413,-405,0,0,0,0,0,0,0,0,0,-1,1637,1429,0,0
420,-405,0,0,0,0,0,0,0,0,0,-1,1644,1429,0,0
427,-405,0,0,0,0,0,0,0,0,0,-1,1651,1429,0,0
434,-405,0,0,0,0,0,0,0,0,0,-1,1658,1429,0,0
441,-405,0,0,0,0,0,0,0,0,0,-1,1665,1429,0,0
448,-405,0,0,0,0,0,0,0,0,0,-1,1672,1429,0,0
455,-405,0,0,0,0,0,0,0,0,0,-1,1679,1429,0,0
462,-405,0,0,0,0,0,0,0,0,0,-1,1686,1429,0,0
469,-405,0,0,0,0,0,0,0,0,0,-1,1693,1429,0,0
476,-405,0,0,0,0,0,0,0,0,0,-1,1700,1429,0,0
483,-405,0,0,0,0,0,0,0,0,0,-1,1707,1429,0,0
490,-405,0,0,0,0,0,0,0,0,0,-1,1714,1429,0,0
497,-405,0,0,0,0,0,0,0,0,0,-1,1721,1429,0,0
504,-405,0,0,0,0,0,0,0,0,0,-1,1728,1429,0,0
511,-405,0,0,0,0,0,0,0,0,0,-1,1735,1429,0,0
518,-405,0,0,0,0,0,0,0,0,0,-1,1742,1429,0,0
525,-405,31.1563,-1.40942,0,0,0,0,0,0,0,-1,1749,1429,31.1563,1.40937
532,-405,28.156,4.8783,0,0,0,0,0,0,0,-1,1756,1429,28.1561,-4.87833
539,-405,26.5133,3.02454,0,0,0,0,0,0,0,-1,1763,1429,26.5133,-3.0246
546,-405,29.5735,6.53052,0,0,0,0,0,0,0,-1,1770,1429,29.5735,-6.53049
553,-405,28.2911,6.70654,0,0,0,0,0,0,0,-1,1777,1429,28.2912,-6.70656
560,-405,26.9299,7.08472,0,0,0,0,0,0,0,-1,1784,1429,26.9299,-7.08469
567,-405,25.804,7.14661,0,0,0,0,0,0,0,-1,1791,1429,25.8039,-7.14665
574,-405,25.1151,8.07971,0,0,0,0,0,0,0,-1,1798,1429,25.1151,-8.07965
581,-405,23.5055,8.505,0,0,0,0,0,0,0,-1,1805,1429,23.5054,-8.50501
588,-405,21.7491,8.98254,0,0,0,0,0,0,0,-1,1812,1429,21.7491,-8.98254
595,-405,21.6327,10.7795,0,0,0,0,0,0,0,-1,1819,1429,21.6327,-10.7796
602,-405,21.6461,13.9199,0,0,0,0,0,0,0,-1,1826,1429,21.6461,-13.92
609,-405,31.2092,19.5609,0,0,0,0,0,0,0,-1,1833,1429,31.2093,-19.5609
616,-405,31.3524,18.8304,0,0,0,0,0,0,0,-1,1840,1429,31.3524,-18.8304
623,-405,31.3452,18.1643,0.00211625,-0.000262082,-0.00072907,0.00232196,-0.000467784,-0.274996,0.00172517,0.0150102,1847,1429,31.3452,-18.1643
630,-405,31.3485,17.5027,0.00158607,-0.000409226,-0.000361858,0.00164967,-0.000472824,-0.173976,0.00128668,0.0117389,1854,1429,31.3485,-17.5026
637,-405,31.3413,16.8854,0.0014026,-0.000289816,-0.000244929,0.00143733,-0.00032455,-0.140872,0.00108274,0.012506,1861,1429,31.3413,-16.8853
644,-405,31.2538,16.3043,0.0013963,-0.000223303,-0.00011478,0.00140439,-0.000231397,-0.0704006,0.00102216,0.0328375,1868,1429,31.2537,-16.3043
651,-405,31.1482,15.7478,0.00157993,-9.35305e-05,-9.01825e-06,0.00157998,-9.35791e-05,-0.00538878,0.00108586,0.0353608,1875,1429,31.1481,-15.7478
658,-405,31.2233,15.1599,0.00182598,-8.22722e-06,0.000155186,0.00183902,-2.12642e-05,0.0838123,0.00123316,0.0267031,1882,1429,31.2233,-15.1599
665,-405,31.2413,14.514,0.00219045,4.34402e-06,0.00041033,0.00226493,-7.0137e-05,0.17956,0.00153387,0.0215562,1889,1429,31.2414,-14.514
672,-405,31.2572,13.8823,0.00258083,-0.000121715,0.00085889,0.00283069,-0.000371576,0.283098,0.0020224,0.0257303,1896,1429,31.2572,-13.8823
679,-405,31.3334,13.3184,0.00298788,-0.000502673,0.0015756,0.00359389,-0.00110868,0.367175,0.00283859,0.0258717,1903,1429,31.3333,-13.3184
686,-405,31.1201,12.8031,0.00320685,-0.00129756,0.00282312,0.00456608,-0.00265679,0.448708,0.00421841,0.0404635,1910,1429,31.1201,-12.8031
693,-405,30.9938,12.3843,0,0,0,0,0,0,0,-1,1917,1429,30.9938,-12.3843
700,-405,9.1958,4.02026,0,0,0,0,0,0,0,-1,1924,1429,9.19579,-4.02025
707,-405,7.40308,3.83191,0,0,0,0,0,0,0,-1,1931,1429,7.40311,-3.83194
714,-405,7.33252,3.47388,0,0,0,0,0,0,0,-1,1938,1429,7.33255,-3.47383
721,-405,9.23523,0.993896,0,0,0,0,0,0,0,-1,1945,1429,9.23523,-0.993884
728,-405,0,0,0,0,0,0,0,0,0,-1,1952,1429,0,0
735,-405,0,0,0,0,0,0,0,0,0,-1,1959,1429,0,0
742,-405,0,0,0,0,0,0,0,0,0,-1,1966,1429,0,0
749,-405,0,0,0,0,0,0,0,0,0,-1,1973,1429,0,0
756,-405,0,0,0,0,0,0,0,0,0,-1,1980,1429,0,0
763,-405,0,0,0,0,0,0,0,0,0,-1,1987,1429,0,0
770,-405,0,0,0,0,0,0,0,0,0,-1,1994,1429,0,0
777,-405,0,0,0,0,0,0,0,0,0,-1,2001,1429,0,0
784,-405,0,0,0,0,0,0,0,0,0,-1,2008,1429,0,0
791,-405,0,0,0,0,0,0,0,0,0,-1,2015,1429,0,0
798,-405,0,0,0,0,0,0,0,0,0,-1,2022,1429,0,0
805,-405,0,0,0,0,0,0,0,0,0,-1,2029,1429,0,0
812,-405,0,0,0,0,0,0,0,0,0,-1,2036,1429,0,0
-700,-412,0,0,0,0,0,0,0,0,0,-1,524,1436,0,0
-693,-412,0,0,0,0,0,0,0,0,0,-1,531,1436,0,0
-686,-412,0,0,0,0,0,0,0,0,0,-1,538,1436,0,0
-679,-412,0,0,0,0,0,0,0,0,0,-1,545,1436,0,0
-672,-412,0,0,0,0,0,0,0,0,0,-1,552,1436,0,0
-665,-412,0,0,0,0,0,0,0,0,0,-1,559,1436,0,0
-658,-412,0,0,0,0,0,0,0,0,0,-1,566,1436,0,0
-651,-412,0,0,0,0,0,0,0,0,0,-1,573,1436,0,0
-644,-412,0,0,0,0,0,0,0,0,0,-1,580,1436,0,0
-637,-412,0,0,0,0,0,0,0,0,0,-1,587,1436,0,0
-630,-412,0,0,0,0,0,0,0,0,0,-1,594,1436,0,0
-623,-412,0,0,0,0,0,0,0,0,0,-1,601,1436,0,0
-616,-412,0,0,0,0,0,0,0,0,0,-1,608,1436,0,0
-609,-412,0,0,0,0,0,0,0,0,0,-1,615,1436,0,0
-602,-412,-3.72766,-3.50012,0,0,0,0,0,0,0,-1,622,1436,-3.72764,3.50017
-595,-412,-10.3706,0.65564,0,0,0,0,0,0,0,-1,629,1436,-10.3706,-0.655672
-588,-412,-8.17957,1.94934,0,0,0,0,0,0,0,-1,636,1436,-8.17956,-1.94939
-581,-412,-6.60065,-0.0554199,0,0,0,0,0,0,0,-1,643,1436,-6.60063,0.0554733
-574,-412,-8.34131,5.25012,0,0,0,0,0,0,0,-1,650,1436,-8.34129,-5.25012
-567,-412,-7.50354,3.65454,0,0,0,0,0,0,0,-1,657,1436,-7.50356,-3.65452
-560,-412,-8.52448,7.39014,0,0,0,0,0,0,0,-1,664,1436,-8.52447,-7.39019
-553,-412,-7.36761,6.54651,0,0,0,0,0,0,0,-1,671,1436,-7.36763,-6.54654
-546,-412,-14.0516,11.4208,0,0,0,0,0,0,0,-1,678,1436,-14.0515,-11.4208
-539,-412,-14.0935,12.0439,0.00425976,0.0020422,0.00217505,0.00559234,0.00070962,0.549681,0.00351564,0.026062,685,1436,-14.0935,-12.044
-532,-412,-14.1389,12.788,0.00323275,0.00129159,0.0015691,0.00410719,0.000417147,0.508423,0.00261021,0.0146303,692,1436,-14.1389,-12.7879
-525,-412,-14.1658,13.4457,0.00263238,0.000957816,0.00125059,0.0033001,0.000290096,0.490415,0.00211002,0.0160425,699,1436,-14.1658,-13.4456
-518,-412,-14.1708,14.1084,0.00223617,0.000832966,0.00108029,0.0028227,0.000246437,0.497402,0.00180527,0.0173521,706,1436,-14.1708,-14.1084
-511,-412,-14.22,14.74,0.00201612,0.00084896,0.00100164,0.00259178,0.000273295,0.521626,0.00164435,0.0207479,713,1436,-14.2199,-14.74
-504,-412,-14.2485,15.3925,0.00206073,0.00104905,0.00109596,0.00276196,0.000347833,0.569189,0.00173701,0.0201872,720,1436,-14.2485,-15.3924
-497,-412,-14.2504,16.0835,0.00227955,0.00141511,0.00130069,0.00321796,0.000476702,0.624988,0.00200538,0.0150426,727,1436,-14.2504,-16.0835
-490,-412,-14.2792,16.7178,0.0027724,0.00200723,0.00170818,0.00414031,0.000639322,0.67523,0.00257371,0.0128754,734,1436,-14.2792,-16.7177
-483,-412,-14.2925,17.3492,0.00352398,0.00284187,0.00232047,0.00552832,0.000837531,0.712432,0.00344052,0.0109058,741,1436,-14.2925,-17.3492
-476,-412,-14.2173,18.2184,0,0,0,0,0,0,0,-1,748,1436,-14.2173,-18.2183
-469,-412,-12.7646,18.4785,0,0,0,0,0,0,0,-1,755,1436,-12.7647,-18.4785
-462,-412,-8.94659,13.3385,0,0,0,0,0,0,0,-1,762,1436,-8.94657,-13.3385
-455,-412,-8.25006,11.2572,0,0,0,0,0,0,0,-1,769,1436,-8.25007,-11.2572
-448,-412,-7.38086,8.78186,0,0,0,0,0,0,0,-1,776,1436,-7.38088,-8.78183
-441,-412,-8.79523,9.05286,0,0,0,0,0,0,0,-1,783,1436,-8.79521,-9.0529
-434,-412,-10.6305,8.03577,0,0,0,0,0,0,0,-1,790,1436,-10.6305,-8.0358
-427,-412,-10.0004,5.15271,0,0,0,0,0,0,0,-1,797,1436,-10.0004,-5.15266
-420,-412,-10.4468,4.9043,0,0,0,0,0,0,0,-1,804,1436,-10.4468,-4.90429
-413,-412,-11.5704,4.97766,0,0,0,0,0,0,0,-1,811,1436,-11.5704,-4.97771
-406,-412,-13.1968,5.70093,0,0,0,0,0,0,0,-1,818,1436,-13.1968,-5.70096
-399,-412,-10.5506,0.771973,0,0,0,0,0,0,0,-1,825,1436,-10.5506,-0.771954
-392,-412,0,0,0,0,0,0,0,0,0,-1,832,1436,0,0
-385,-412,0,0,0,0,0,0,0,0,0,-1,839,1436,0,0
-378,-412,0,0,0,0,0,0,0,0,0,-1,846,1436,0,0
-371,-412,0,0,0,0,0,0,0,0,0,-1,853,1436,0,0
-364,-412,0,0,0,0,0,0,0,0,0,-1,860,1436,0,0
-357,-412,0,0,0,0,0,0,0,0,0,-1,867,1436,0,0
-350,-412,0,0,0,0,0,0,0,0,0,-1,874,1436,0,0
-343,-412,0,0,0,0,0,0,0,0,0,-1,881,1436,0,0
-336,-412,0,0,0,0,0,0,0,0,0,-1,888,1436,0,0
-329,-412,0,0,0,0,0,0,0,0,0,-1,895,1436,0,0
-322,-412,0,0,0,0,0,0,0,0,0,-1,902,1436,0,0
-315,-412,0,0,0,0,0,0,0,0,0,-1,909,1436,0,0
-308,-412,0,0,0,0,0,0,0,0,0,-1,916,1436,0,0
-301,-412,0,0,0,0,0,0,0,0,0,-1,923,1436,0,0
-294,-412,0,0,0,0,0,0,0,0,0,-1,930,1436,0,0
-287,-412,0,0,0,0,0,0,0,0,0,-1,937,1436,0,0
-280,-412,0,0,0,0,0,0,0,0,0,-1,944,1436,0,0
-273,-412,0,0,0,0,0,0,0,0,0,-1,951,1436,0,0
-266,-412,0,0,0,0,0,0,0,0,0,-1,958,1436,0,0
-259,-412,0,0,0,0,0,0,0,0,0,-1,965,1436,0,0
-252,-412,0,0,0,0,0,0,0,0,0,-1,972,1436,0,0
-245,-412,0,0,0,0,0,0,0,0,0,-1,979,1436,0,0
-238,-412,0,0,0,0,0,0,0,0,0,-1,986,1436,0,0
-231,-412,0,0,0,0,0,0,0,0,0,-1,993,1436,0,0
-224,-412,0,0,0,0,0,0,0,0,0,-1,1000,1436,0,0
-217,-412,0,0,0,0,0,0,0,0,0,-1,1007,1436,0,0
-210,-412,0,0,0,0,0,0,0,0,0,-1,1014,1436,0,0
-203,-412,0,0,0,0,0,0,0,0,0,-1,1021,1436,0,0
-196,-412,0,0,0,0,0,0,0,0,0,-1,1028,1436,0,0
-189,-412,0,0,0,0,0,0,0,0,0,-1,1035,1436,0,0
-182,-412,0,0,0,0,0,0,0,0,0,-1,1042,1436,0,0
-175,-412,0,0,0,0,0,0,0,0,0,-1,1049,1436,0,0
-168,-412,0,0,0,0,0,0,0,0,0,-1,1056,1436,0,0
-161,-412,0,0,0,0,0,0,0,0,0,-1,1063,1436,0,0
-154,-412,0,0,0,0,0,0,0,0,0,-1,1070,1436,0,0
-147,-412,0,0,0,0,0,0,0,0,0,-1,1077,1436,0,0
-140,-412,0,0,0,0,0,0,0,0,0,-1,1084,1436,0,0
-133,-412,0,0,0,0,0,0,0,0,0,-1,1091,1436,0,0
-126,-412,0,0,0,0,0,0,0,0,0,-1,1098,1436,0,0
-119,-412,0,0,0,0,0,0,0,0,0,-1,1105,1436,0,0
-112,-412,0,0,0,0,0,0,0,0,0,-1,1112,1436,0,0
-105,-412,0,0,0,0,0,0,0,0,0,-1,1119,1436,0,0
-98,-412,0,0,0,0,0,0,0,0,0,-1,1126,1436,0,0
-91,-412,0,0,0,0,0,0,0,0,0,-1,1133,1436,0,0
-84,-412,0,0,0,0,0,0,0,0,0,-1,1140,1436,0,0
-77,-412,0,0,0,0,0,0,0,0,0,-1,1147,1436,0,0
-70,-412,0,0,0,0,0,0,0,0,0,-1,1154,1436,0,0
-63,-412,0,0,0,0,0,0,0,0,0,-1,1161,1436,0,0
-56,-412,0,0,0,0,0,0,0,0,0,-1,1168,1436,0,0
-49,-412,0,0,0,0,0,0,0,0,0,-1,1175,1436,0,0
-42,-412,0,0,0,0,0,0,0,0,0,-1,1182,1436,0,0
-35,-412,0,0,0,0,0,0,0,0,0,-1,1189,1436,0,0
-28,-412,0,0,0,0,0,0,0,0,0,-1,1196,1436,0,0
-21,-412,0,0,0,0,0,0,0,0,0,-1,1203,1436,0,0
-14,-412,0,0,0,0,0,0,0,0,0,-1,1210,1436,0,0
-7,-412,0,0,0,0,0,0,0,0,0,-1,1217,1436,0,0
0,-412,0,0,0,0,0,0,0,0,0,-1,1224,1436,0,0
7,-412,0,0,0,0,0,0,0,0,0,-1,1231,1436,0,0
14,-412,0,0,0,0,0,0,0,0,0,-1,1238,1436,0,0
21,-412,0,0,0,0,0,0,0,0,0,-1,1245,1436,0,0
28,-412,0,0,0,0,0,0,0,0,0,-1,1252,1436,0,0
35,-412,0,0,0,0,0,0,0,0,0,-1,1259,1436,0,0
42,-412,0,0,0,0,0,0,0,0,0,-1,1266,1436,0,0
49,-412,0,0,0,0,0,0,0,0,0,-1,1273,1436,0,0
56,-412,0,0,0,0,0,0,0,0,0,-1,1280,1436,0,0
63,-412,0,0,0,0,0,0,0,0,0,-1,1287,1436,0,0
70,-412,0,0,0,0,0,0,0,0,0,-1,1294,1436,0,0
77,-412,0,0,0,0,0,0,0,0,0,-1,1301,1436,0,0
84,-412,0,0,0,0,0,0,0,0,0,-1,1308,1436,0,0
91,-412,0,0,0,0,0,0,0,0,0,-1,1315,1436,0,0
98,-412,0,0,0,0,0,0,0,0,0,-1,1322,1436,0,0
105,-412,0,0,0,0,0,0,0,0,0,-1,1329,1436,0,0
112,-412,0,0,0,0,0,0,0,0,0,-1,1336,1436,0,0
119,-412,0,0,0,0,0,0,0,0,0,-1,1343,1436,0,0
126,-412,0,0,0,0,0,0,0,0,0,-1,1350,1436,0,0
133,-412,0,0,0,0,0,0,0,0,0,-1,1357,1436,0,0
140,-412,0,0,0,0,0,0,0,0,0,-1,1364,1436,0,0
147,-412,0,0,0,0,0,0,0,0,0,-1,1371,1436,0,0
154,-412,0,0,0,0,0,0,0,0,0,-1,1378,1436,0,0
161,-412,0,0,0,0,0,0,0,0,0,-1,1385,1436,0,0
168,-412,0,0,0,0,0,0,0,0,0,-1,1392,1436,0,0
175,-412,0,0,0,0,0,0,0,0,0,-1,1399,1436,0,0
182,-412,0,0,0,0,0,0,0,0,0,-1,1406,1436,0,0
189,-412,0,0,0,0,0,0,0,0,0,-1,1413,1436,0,0
196,-412,0,0,0,0,0,0,0,0,0,-1,1420,1436,0,0
203,-412,0,0,0,0,0,0,0,0,0,-1,1427,1436,0,0
210,-412,0,0,0,0,0,0,0,0,0,-1,1434,1436,0,0
217,-412,0,0,0,0,0,0,0,0,0,-1,1441,1436,0,0
224,-412,0,0,0,0,0,0,0,0,0,-1,1448,1436,0,0
231,-412,0,0,0,0,0,0,0,0,0,-1,1455,1436,0,0
238,-412,0,0,0,0,0,0,0,0,0,-1,1462,1436,0,0
245,-412,0,0,0,0,0,0,0,0,0,-1,1469,1436,0,0
252,-412,0,0,0,0,0,0,0,0,0,-1,1476,1436,0,0
259,-412,0,0,0,0,0,0,0,0,0,-1,1483,1436,0,0
266,-412,0,0,0,0,0,0,0,0,0,-1,1490,1436,0,0
273,-412,0,0,0,0,0,0,0,0,0,-1,1497,1436,0,0
280,-412,0,0,0,0,0,0,0,0,0,-1,1504,1436,0,0
287,-412,0,0,0,0,0,0,0,0,0,-1,1511,1436,0,0
294,-412,0,0,0,0,0,0,0,0,0,-1,1518,1436,0,0
301,-412,0,0,0,0,0,0,0,0,0,-1,1525,1436,0,0
308,-412,0,0,0,0,0,0,0,0,0,-1,1532,1436,0,0
315,-412,0,0,0,0,0,0,0,0,0,-1,1539,1436,0,0
322,-412,0,0,0,0,0,0,0,0,0,-1,1546,1436,0,0
329,-412,0,0,0,0,0,0,0,0,0,-1,1553,1436,0,0
336,-412,0,0,0,0,0,0,0,0,0,-1,1560,1436,0,0
343,-412,0,0,0,0,0,0,0,0,0,-1,1567,1436,0,0
350,-412,0,0,0,0,0,0,0,0,0,-1,1574,1436,0,0
357,-412,0,0,0,0,0,0,0,0,0,-1,1581,1436,0,0
364,-412,0,0,0,0,0,0,0,0,0,-1,1588,1436,0,0
371,-412,0,0,0,0,0,0,0,0,0,-1,1595,1436,0,0
378,-412,0,0,0,0,0,0,0,0,0,-1,1602,1436,0,0
385,-412,0,0,0,0,0,0,0,0,0,-1,1609,1436,0,0
392,-412,0,0,0,0,0,0,0,0,0,-1,1616,1436,0,0
399,-412,0,0,0,0,0,0,0,0,0,-1,1623,1436,0,0
406,-412,0,0,0,0,0,0,0,0,0,-1,1630,1436,0,0
413,-412,0,0,0,0,0,0,0,0,0,-1,1637,1436,0,0
420,-412,0,0,0,0,0,0,0,0,0,-1,1644,1436,0,0
427,-412,0,0,0,0,0,0,0,0,0,-1,1651,1436,0,0
434,-412,0,0,0,0,0,0,0,0,0,-1,1658,1436,0,0
441,-412,0,0,0,0,0,0,0,0,0,-1,1665,1436,0,0
448,-412,0,0,0,0,0,0,0,0,0,-1,1672,1436,0,0
455,-412,0,0,0,0,0,0,0,0,0,-1,1679,1436,0,0
462,-412,0,0,0,0,0,0,0,0,0,-1,1686,1436,0,0
469,-412,0,0,0,0,0,0,0,0,0,-1,1693,1436,0,0
476,-412,0,0,0,0,0,0,0,0,0,-1,1700,1436,0,0
483,-412,0,0,0,0,0,0,0,0,0,-1,1707,1436,0,0
490,-412,0,0,0,0,0,0,0,0,0,-1,1714,1436,0,0
497,-412,0,0,0,0,0,0,0,0,0,-1,1721,1436,0,0
504,-412,0,0,0,0,0,0,0,0,0,-1,1728,1436,0,0
511,-412,0,0,0,0,0,0,0,0,0,-1,1735,1436,0,0
518,-412,30.1038,-2.43384,0,0,0,0,0,0,0,-1,1742,1436,30.1038,2.43383
525,-412,29.5283,-1.42493,0,0,0,0,0,0,0,-1,1749,1436,29.5283,1.42495
532,-412,28.8533,-0.386597,0,0,0,0,0,0,0,-1,1756,1436,28.8533,0.386632
539,-412,25.8654,2.74683,0,0,0,0,0,0,0,-1,1763,1436,25.8654,-2.74685
546,-412,25.4265,2.4342,0,0,0,0,0,0,0,-1,1770,1436,25.4265,-2.4342
553,-412,26.3595,7.49255,0,0,0,0,0,0,0,-1,1777,1436,26.3595,-7.4925
560,-412,24.9116,7.94324,0,0,0,0,0,0,0,-1,1784,1436,24.9116,-7.94327
567,-412,23.668,7.94531,0,0,0,0,0,0,0,-1,1791,1436,23.6679,-7.94534
574,-412,23.0142,9.17236,0,0,0,0,0,0,0,-1,1798,1436,23.0141,-9.17235
581,-412,22.2615,10.0349,0,0,0,0,0,0,0,-1,1805,1436,22.2615,-10.0349
588,-412,21.6893,10.8069,0,0,0,0,0,0,0,-1,1812,1436,21.6893,-10.8069
595,-412,21.5137,14.3157,0,0,0,0,0,0,0,-1,1819,1436,21.5137,-14.3157
602,-412,30.6265,20.1874,0,0,0,0,0,0,0,-1,1826,1436,30.6265,-20.1874
609,-412,30.7142,19.4114,0.0042535,0.00118505,-0.002419,0.00558378,-0.000145234,-0.502791,0.00377186,0.0429874,1833,1436,30.7142,-19.4113
616,-412,30.7704,18.7755,0.00307488,0.000369677,-0.00146903,0.00371917,-0.000274611,-0.413318,0.00257587,0.01307,1840,1436,30.7703,-18.7755
623,-412,30.7321,18.1693,0.00225664,-5.14393e-06,-0.000900163,0.00257116,-0.000319662,-0.336141,0.00182999,0.00998142,1847,1436,30.732,-18.1693
630,-412,30.7251,17.5229,0.00185503,-0.000199612,-0.000549553,0.00199278,-0.000337364,-0.245603,0.00145408,0.01236,1854,1436,30.725,-17.5229
637,-412,30.7352,16.8757,0.00170407,-0.000148504,-0.000389941,0.0017828,-0.000227235,-0.199227,0.00127107,0.0144288,1861,1436,30.7353,-16.8757
644,-412,30.7101,16.2932,0.00174303,-0.00010447,-0.000230211,0.00177128,-0.000132724,-0.122119,0.00122749,0.0157661,1868,1436,30.7101,-16.2932
651,-412,30.6356,15.682,0.00195227,5.49294e-05,-0.000145714,0.00196339,4.38039e-05,-0.0762034,0.00129457,0.0256781,1875,1436,30.6356,-15.682
658,-412,30.6257,15.1132,0.00222511,0.000198921,-2.20525e-05,0.00222535,0.000198681,-0.010882,0.00142198,0.0180378,1882,1436,30.6258,-15.1132
665,-412,30.6227,14.5088,0.00260122,0.000293563,0.000192477,0.00261717,0.000277619,0.0826468,0.00165999,0.0240921,1889,1436,30.6227,-14.5087
672,-412,30.6654,13.8837,0.00293169,0.000242766,0.000635672,0.00307439,0.000100064,0.220829,0.00201707,0.0317438,1896,1436,30.6654,-13.8837
679,-412,30.7588,13.2383,0.00322769,-9.49334e-05,0.00138763,0.00373097,-0.000598217,0.347937,0.00270883,0.0489715,1903,1436,30.7588,-13.2383
686,-412,30.6005,12.9308,0,0,0,0,0,0,0,-1,1910,1436,30.6004,-12.9308
693,-412,11.9346,6.02344,0,0,0,0,0,0,0,-1,1917,1436,11.9346,-6.02343
700,-412,8.82764,5.8844,0,0,0,0,0,0,0,-1,1924,1436,8.82761,-5.88444
707,-412,6.59998,1.68994,0,0,0,0,0,0,0,-1,1931,1436,6.60002,-1.68995
714,-412,4.77283,-2.39832,0,0,0,0,0,0,0,-1,1938,1436,4.77288,2.39835
721,-412,0,0,0,0,0,0,0,0,0,-1,1945,1436,0,0
728,-412,0,0,0,0,0,0,0,0,0,-1,1952,1436,0,0
735,-412,0,0,0,0,0,0,0,0,0,-1,1959,1436,0,0
742,-412,0,0,0,0,0,0,0,0,0,-1,1966,1436,0,0
749,-412,0,0,0,0,0,0,0,0,0,-1,1973,1436,0,0
756,-412,0,0,0,0,0,0,0,0,0,-1,1980,1436,0,0
763,-412,0,0,0,0,0,0,0,0,0,-1,1987,1436,0,0
770,-412,0,0,0,0,0,0,0,0,0,-1,1994,1436,0,0
777,-412,0,0,0,0,0,0,0,0,0,-1,2001,1436,0,0
784,-412,0,0,0,0,0,0,0,0,0,-1,2008,1436,0,0
791,-412,0,0,0,0,0,0,0,0,0,-1,2015,1436,0,0
798,-412,0,0,0,0,0,0,0,0,0,-1,2022,1436,0,0
805,-412,0,0,0,0,0,0,0,0,0,-1,2029,1436,0,0
812,-412,0,0,0,0,0,0,0,0,0,-1,2036,1436,0,0
-700,-419,0,0,0,0,0,0,0,0,0,-1,524,1443,0,0
-693,-419,0,0,0,0,0,0,0,0,0,-1,531,1443,0,0
-686,-419,0,0,0,0,0,0,0,0,0,-1,538,1443,0,0
-679,-419,0,0,0,0,0,0,0,0,0,-1,545,1443,0,0
-672,-419,0,0,0,0,0,0,0,0,0,-1,552,1443,0,0
-665,-419,0,0,0,0,0,0,0,0,0,-1,559,1443,0,0
-658,-419,0,0,0,0,0,0,0,0,0,-1,566,1443,0,0
-651,-419,0,0,0,0,0,0,0,0,0,-1,573,1443,0,0
-644,-419,0,0,0,0,0,0,0,0,0,-1,580,1443,0,0
-637,-419,0,0,0,0,0,0,0,0,0,-1,587,1443,0,0
-630,-419,0,0,0,0,0,0,0,0,0,-1,594,1443,0,0
-623,-419,0,0,0,0,0,0,0,0,0,-1,601,1443,0,0
-616,-419,0,0,0,0,0,0,0,0,0,-1,608,1443,0,0
-609,-419,0,0,0,0,0,0,0,0,0,-1,615,1443,0,0
-602,-419,0,0,0,0,0,0,0,0,0,-1,622,1443,0,0
-595,-419,-11.4904,-0.622681,0,0,0,0,0,0,0,-1,629,1443,-11.4903,0.622714
-588,-419,-9.09369,0.742432,0,0,0,0,0,0,0,-1,636,1443,-9.09366,-0.742482
-581,-419,-6.39172,2.14673,0,0,0,0,0,0,0,-1,643,1443,-6.39175,-2.14668
-574,-419,-4.09772,3.54773,0,0,0,0,0,0,0,-1,650,1443,-4.09772,-3.54767
-567,-419,-6.14038,3.22498,0,0,0,0,0,0,0,-1,657,1443,-6.14037,-3.22497
-560,-419,-4.52814,5.22253,0,0,0,0,0,0,0,-1,664,1443,-4.52816,-5.22251
-553,-419,-5.08331,6.11829,0,0,0,0,0,0,0,-1,671,1443,-5.08331,-6.1183
-546,-419,-10.3732,9.23279,0,0,0,0,0,0,0,-1,678,1443,-10.3732,-9.23275
-539,-419,-13.4418,12.0518,0,0,0,0,0,0,0,-1,685,1443,-13.4418,-12.0518
-532,-419,-13.5012,12.7894,0.00337441,0.00156372,0.00193111,0.00460186,0.000336267,0.566201,0.00296219,0.0260675,692,1443,-13.5012,-12.7895
-525,-419,-13.5038,13.4823,0.00267373,0.00109665,0.00151991,0.00359748,0.000172903,0.546109,0.00234281,0.0133665,699,1443,-13.5038,-13.4823
-518,-419,-13.4922,14.1392,0.00220926,0.000885889,0.00126741,0.00297731,0.000117836,0.544822,0.00194678,0.0177264,706,1443,-13.4922,-14.1392
-511,-419,-13.5364,14.7808,0.00189716,0.0008236,0.00108985,0.00257525,0.00014551,0.556573,0.00167044,0.0211597,713,1443,-13.5364,-14.7808
-504,-419,-13.6015,15.4387,0.00183779,0.000941073,0.00106413,0.00254416,0.000234707,0.586015,0.00162353,0.0206615,720,1443,-13.6015,-15.4387
-497,-419,-13.6074,16.0841,0.00196954,0.00122866,0.00114979,0.00280708,0.00039111,0.629557,0.0017556,0.0136117,727,1443,-13.6074,-16.0841
-490,-419,-13.6117,16.7213,0.00234144,0.00173181,0.00144286,0.00351133,0.000561919,0.681301,0.00217788,0.0113791,734,1443,-13.6117,-16.7213
-483,-419,-13.6326,17.375,0.00298047,0.00247139,0.00193539,0.00467798,0.000773877,0.720015,0.00289538,0.00956714,741,1443,-13.6326,-17.3751
-476,-419,-13.6198,18.0988,0.00390076,0.00341301,0.00267053,0.00633853,0.000975241,0.739863,0.00394104,0.0182646,748,1443,-13.6198,-18.0988
-469,-419,-13.6575,18.7097,0,0,0,0,0,0,0,-1,755,1443,-13.6575,-18.7097
-462,-419,-11.5347,18.1563,0,0,0,0,0,0,0,-1,762,1443,-11.5347,-18.1562
-455,-419,-7.35645,11.9451,0,0,0,0,0,0,0,-1,769,1443,-7.35646,-11.9451
-448,-419,-7.49109,9.92444,0,0,0,0,0,0,0,-1,776,1443,-7.49109,-9.92442
-441,-419,-7.65527,8.75574,0,0,0,0,0,0,0,-1,783,1443,-7.65525,-8.75568
-434,-419,-11.3724,12.3643,0,0,0,0,0,0,0,-1,790,1443,-11.3724,-12.3643
-427,-419,-8.23193,7.89404,0,0,0,0,0,0,0,-1,797,1443,-8.23193,-7.89404
-420,-419,-8.74091,6.36597,0,0,0,0,0,0,0,-1,804,1443,-8.74089,-6.366
-413,-419,-9.88391,6.53955,0,0,0,0,0,0,0,-1,811,1443,-9.8839,-6.53955
-406,-419,-10.3372,2.75195,0,0,0,0,0,0,0,-1,818,1443,-10.3372,-2.75201
-399,-419,-11.5999,1.40002,0,0,0,0,0,0,0,-1,825,1443,-11.5999,-1.39998
-392,-419,0,0,0,0,0,0,0,0,0,-1,832,1443,0,0
-385,-419,0,0,0,0,0,0,0,0,0,-1,839,1443,0,0
-378,-419,0,0,0,0,0,0,0,0,0,-1,846,1443,0,0
-371,-419,0,0,0,0,0,0,0,0,0,-1,853,1443,0,0
-364,-419,0,0,0,0,0,0,0,0,0,-1,860,1443,0,0
-357,-419,0,0,0,0,0,0,0,0,0,-1,867,1443,0,0
-350,-419,0,0,0,0,0,0,0,0,0,-1,874,1443,0,0
-343,-419,0,0,0,0,0,0,0,0,0,-1,881,1443,0,0
-336,-419,0,0,0,0,0,0,0,0,0,-1,888,1443,0,0
-329,-419,0,0,0,0,0,0,0,0,0,-1,895,1443,0,0
-322,-419,0,0,0,0,0,0,0,0,0,-1,902,1443,0,0
-315,-419,0,0,0,0,0,0,0,0,0,-1,909,1443,0,0
-308,-419,0,0,0,0,0,0,0,0,0,-1,916,1443,0,0
-301,-419,0,0,0,0,0,0,0,0,0,-1,923,1443,0,0
-294,-419,0,0,0,0,0,0,0,0,0,-1,930,1443,0,0
-287,-419,0,0,0,0,0,0,0,0,0,-1,937,1443,0,0
-280,-419,0,0,0,0,0,0,0,0,0,-1,944,1443,0,0
-273,-419,0,0,0,0,0,0,0,0,0,-1,951,1443,0,0
-266,-419,0,0,0,0,0,0,0,0,0,-1,958,1443,0,0
-259,-419,0,0,0,0,0,0,0,0,0,-1,965,1443,0,0
-252,-419,0,0,0,0,0,0,0,0,0,-1,972,1443,0,0
-245,-419,0,0,0,0,0,0,0,0,0,-1,979,1443,0,0
-238,-419,0,0,0,0,0,0,0,0,0,-1,986,1443,0,0
-231,-419,0,0,0,0,0,0,0,0,0,-1,993,1443,0,0
-224,-419,0,0,0,0,0,0,0,0,0,-1,1000,1443,0,0
-217,-419,0,0,0,0,0,0,0,0,0,-1,1007,1443,0,0
-210,-419,0,0,0,0,0,0,0,0,0,-1,1014,1443,0,0
-203,-419,0,0,0,0,0,0,0,0,0,-1,1021,1443,0,0
-196,-419,0,0,0,0,0,0,0,0,0,-1,1028,1443,0,0
-189,-419,0,0,0,0,0,0,0,0,0,-1,1035,1443,0,0
-182,-419,0,0,0,0,0,0,0,0,0,-1,1042,1443,0,0
-175,-419,0,0,0,0,0,0,0,0,0,-1,1049,1443,0,0
-168,-419,0,0,0,0,0,0,0,0,0,-1,1056,1443,0,0
-161,-419,0,0,0,0,0,0,0,0,0,-1,1063,1443,0,0
-154,-419,0,0,0,0,0,0,0,0,0,-1,1070,1443,0,0
-147,-419,0,0,0,0,0,0,0,0,0,-1,1077,1443,0,0
-140,-419,0,0,0,0,0,0,0,0,0,-1,1084,1443,0,0
-133,-419,0,0,0,0,0,0,0,0,0,-1,1091,1443,0,0
-126,-419,0,0,0,0,0,0,0,0,0,-1,1098,1443,0,0
-119,-419,0,0,0,0,0,0,0,0,0,-1,1105,1443,0,0
-112,-419,0,0,0,0,0,0,0,0,0,-1,1112,1443,0,0
-105,-419,0,0,0,0,0,0,0,0,0,-1,1119,1443,0,0
-98,-419,0,0,0,0,0,0,0,0,0,-1,1126,1443,0,0
-91,-419,0,0,0,0,0,0,0,0,0,-1,1133,1443,0,0
-84,-419,0,0,0,0,0,0,0,0,0,-1,1140,1443,0,0
-77,-419,0,0,0,0,0,0,0,0,0,-1,1147,1443,0,0
-70,-419,0,0,0,0,0,0,0,0,0,-1,1154,1443,0,0
-63,-419,0,0,0,0,0,0,0,0,0,-1,1161,1443,0,0
-56,-419,0,0,0,0,0,0,0,0,0,-1,1168,1443,0,0
-49,-419,0,0,0,0,0,0,0,0,0,-1,1175,1443,0,0
-42,-419,0,0,0,0,0,0,0,0,0,-1,1182,1443,0,0
-35,-419,0,0,0,0,0,0,0,0,0,-1,1189,1443,0,0
-28,-419,0,0,0,0,0,0,0,0,0,-1,1196,1443,0,0
-21,-419,0,0,0,0,0,0,0,0,0,-1,1203,1443,0,0
-14,-419,0,0,0,0,0,0,0,0,0,-1,1210,1443,0,0
-7,-419,0,0,0,0,0,0,0,0,0,-1,1217,1443,0,0
0,-419,0,0,0,0,0,0,0,0,0,-1,1224,1443,0,0
7,-419,0,0,0,0,0,0,0,0,0,-1,1231,1443,0,0
14,-419,0,0,0,0,0,0,0,0,0,-1,1238,1443,0,0
21,-419,0,0,0,0,0,0,0,0,0,-1,1245,1443,0,0
28,-419,0,0,0,0,0,0,0,0,0,-1,1252,1443,0,0
35,-419,0,0,0,0,0,0,0,0,0,-1,1259,1443,0,0
42,-419,0,0,0,0,0,0,0,0,0,-1,1266,1443,0,0
49,-419,0,0,0,0,0,0,0,0,0,-1,1273,1443,0,0
56,-419,0,0,0,0,0,0,0,0,0,-1,1280,1443,0,0
63,-419,0,0,0,0,0,0,0,0,0,-1,1287,1443,0,0
70,-419,0,0,0,0,0,0,0,0,0,-1,1294,1443,0,0
77,-419,0,0,0,0,0,0,0,0,0,-1,1301,1443,0,0
84,-419,0,0,0,0,0,0,0,0,0,-1,1308,1443,0,0
91,-419,0,0,0,0,0,0,0,0,0,-1,1315,1443,0,0
98,-419,0,0,0,0,0,0,0,0,0,-1,1322,1443,0,0
105,-419,0,0,0,0,0,0,0,0,0,-1,1329,1443,0,0
112,-419,0,0,0,0,0,0,0,0,0,-1,1336,1443,0,0
119,-419,0,0,0,0,0,0,0,0,0,-1,1343,1443,0,0
126,-419,0,0,0,0,0,0,0,0,0,-1,1350,1443,0,0
133,-419,0,0,0,0,0,0,0,0,0,-1,1357,1443,0,0
140,-419,0,0,0,0,0,0,0,0,0,-1,1364,1443,0,0
147,-419,0,0,0,0,0,0,0,0,0,-1,1371,1443,0,0
154,-419,0,0,0,0,0,0,0,0,0,-1,1378,1443,0,0
161,-419,0,0,0,0,0,0,0,0,0,-1,1385,1443,0,0
168,-419,0,0,0,0,0,0,0,0,0,-1,1392,1443,0,0
175,-419,0,0,0,0,0,0,0,0,0,-1,1399,1443,0,0
182,-419,0,0,0,0,0,0,0,0,0,-1,1406,1443,0,0
189,-419,0,0,0,0,0,0,0,0,0,-1,1413,1443,0,0
196,-419,0,0,0,0,0,0,0,0,0,-1,1420,1443,0,0
203,-419,0,0,0,0,0,0,0,0,0,-1,1427,1443,0,0
210,-419,0,0,0,0,0,0,0,0,0,-1,1434,1443,0,0
217,-419,0,0,0,0,0,0,0,0,0,-1,1441,1443,0,0
224,-419,0,0,0,0,0,0,0,0,0,-1,1448,1443,0,0
231,-419,0,0,0,0,0,0,0,0,0,-1,1455,1443,0,0
238,-419,0,0,0,0,0,0,0,0,0,-1,1462,1443,0,0
245,-419,0,0,0,0,0,0,0,0,0,-1,1469,1443,0,0
252,-419,0,0,0,0,0,0,0,0,0,-1,1476,1443,0,0
259,-419,0,0,0,0,0,0,0,0,0,-1,1483,1443,0,0
266,-419,0,0,0,0,0,0,0,0,0,-1,1490,1443,0,0
273,-419,0,0,0,0,0,0,0,0,0,-1,1497,1443,0,0
280,-419,0,0,0,0,0,0,0,0,0,-1,1504,1443,0,0
287,-419,0,0,0,0,0,0,0,0,0,-1,1511,1443,0,0
294,-419,0,0,0,0,0,0,0,0,0,-1,1518,1443,0,0
301,-419,0,0,0,0,0,0,0,0,0,-1,1525,1443,0,0
308,-419,0,0,0,0,0,0,0,0,0,-1,1532,1443,0,0
315,-419,0,0,0,0,0,0,0,0,0,-1,1539,1443,0,0
322,-419,0,0,0,0,0,0,0,0,0,-1,1546,1443,0,0
329,-419,0,0,0,0,0,0,0,0,0,-1,1553,1443,0,0
336,-419,0,0,0,0,0,0,0,0,0,-1,1560,1443,0,0
343,-419,0,0,0,0,0,0,0,0,0,-1,1567,1443,0,0
350,-419,0,0,0,0,0,0,0,0,0,-1,1574,1443,0,0
357,-419,0,0,0,0,0,0,0,0,0,-1,1581,1443,0,0
364,-419,0,0,0,0,0,0,0,0,0,-1,1588,1443,0,0
371,-419,0,0,0,0,0,0,0,0,0,-1,1595,1443,0,0
378,-419,0,0,0,0,0,0,0,0,0,-1,1602,1443,0,0
385,-419,0,0,0,0,0,0,0,0,0,-1,1609,1443,0,0
392,-419,0,0,0,0,0,0,0,0,0,-1,1616,1443,0,0
399,-419,0,0,0,0,0,0,0,0,0,-1,1623,1443,0,0
406,-419,0,0,0,0,0,0,0,0,0,-1,1630,1443,0,0
413,-419,0,0,0,0,0,0,0,0,0,-1,1637,1443,0,0
420,-419,0,0,0,0,0,0,0,0,0,-1,1644,1443,0,0
427,-419,0,0,0,0,0,0,0,0,0,-1,1651,1443,0,0
434,-419,0,0,0,0,0,0,0,0,0,-1,1658,1443,0,0
441,-419,0,0,0,0,0,0,0,0,0,-1,1665,1443,0,0
448,-419,0,0,0,0,0,0,0,0,0,-1,1672,1443,0,0
455,-419,0,0,0,0,0,0,0,0,0,-1,1679,1443,0,0
462,-419,0,0,0,0,0,0,0,0,0,-1,1686,1443,0,0
469,-419,0,0,0,0,0,0,0,0,0,-1,1693,1443,0,0
476,-419,0,0,0,0,0,0,0,0,0,-1,1700,1443,0,0
483,-419,0,0,0,0,0,0,0,0,0,-1,1707,1443,0,0
490,-419,0,0,0,0,0,0,0,0,0,-1,1714,1443,0,0
497,-419,0,0,0,0,0,0,0,0,0,-1,1721,1443,0,0
504,-419,0,0,0,0,0,0,0,0,0,-1,1728,1443,0,0
511,-419,20.3005,3.7959,0,0,0,0,0,0,0,-1,1735,1443,20.3005,-3.79584
518,-419,21.3154,2.03027,0,0,0,0,0,0,0,-1,1742,1443,21.3155,-2.03029
525,-419,28.3439,-1.24475,0,0,0,0,0,0,0,-1,1749,1443,28.3438,1.24471
532,-419,27.5902,-0.272583,0,0,0,0,0,0,0,-1,1756,1443,27.5902,0.272526
539,-419,26.5278,1.60583,0,0,0,0,0,0,0,-1,1763,1443,26.5279,-1.60579
546,-419,24.9509,2.77539,0,0,0,0,0,0,0,-1,1770,1443,24.9509,-2.77537
553,-419,24.118,3.75525,0,0,0,0,0,0,0,-1,1777,1443,24.1181,-3.75526
560,-419,11.8199,8.26343,0,0,0,0,0,0,0,-1,1784,1443,11.82,-8.26341
567,-419,21.5143,8.74719,0,0,0,0,0,0,0,-1,1791,1443,21.5143,-8.74722
574,-419,19.5886,6.46155,0,0,0,0,0,0,0,-1,1798,1443,19.5886,-6.46157
581,-419,20.7926,11.4265,0,0,0,0,0,0,0,-1,1805,1443,20.7926,-11.4265
588,-419,19.4242,12.5363,0,0,0,0,0,0,0,-1,1812,1443,19.4242,-12.5362
595,-419,22.9375,16.0151,0,0,0,0,0,0,0,-1,1819,1443,22.9375,-16.0152
602,-419,30.1809,20.0803,0,0,0,0,0,0,0,-1,1826,1443,30.181,-20.0803
609,-419,30.1842,19.4052,0.00380433,0.00104557,-0.0022584,0.00507128,-0.000221374,-0.511245,0.00345701,0.023241,1833,1443,30.1842,-19.4052
616,-419,30.1656,18.8076,0.00292809,0.000464165,-0.00151027,0.00364514,-0.000252885,-0.443271,0.00251862,0.0121664,1840,1443,30.1657,-18.8076
623,-419,30.1392,18.1901,0.00232799,0.000151099,-0.000989279,0.00271039,-0.000231301,-0.368852,0.00188876,0.0107136,1847,1443,30.1391,-18.1901
630,-419,30.1366,17.5396,0.0020558,-4.42741e-05,-0.000642719,0.00223688,-0.000225361,-0.274632,0.00157177,0.0134569,1854,1443,30.1367,-17.5395
637,-419,30.1277,16.9263,0.00196577,-2.45442e-05,-0.000447209,0.00206164,-0.000120411,-0.211171,0.00141627,0.0141579,1861,1443,30.1277,-16.9263
644,-419,30.0975,16.3344,0.0020674,2.45106e-05,-0.00026416,0.00210101,-9.09436e-06,-0.126535,0.00140371,0.0123801,1868,1443,30.0975,-16.3343
651,-419,30.0642,15.7651,0.00232127,0.000218142,-0.000197394,0.00233963,0.000199776,-0.092778,0.00149761,0.0119573,1875,1443,30.0642,-15.7652
658,-419,30.0363,15.1427,0.00267322,0.00043422,-0.000129322,0.00268066,0.000426775,-0.057504,0.0016632,0.0133419,1882,1443,30.0362,-15.1427
665,-419,30.0219,14.531,0.00311724,0.000632164,1.78051e-05,0.00311737,0.000632036,0.00716433,0.00190288,0.0214109,1889,1443,30.0218,-14.531
672,-419,30.0635,13.8224,0.00343244,0.000682641,0.000418549,0.00349473,0.000620345,0.147754,0.00215304,0.035557,1896,1443,30.0635,-13.8224
679,-419,30.2777,13.1763,0,0,0,0,0,0,0,-1,1903,1443,30.2777,-13.1763
686,-419,17.4127,8.03076,0,0,0,0,0,0,0,-1,1910,1443,17.4127,-8.03071
693,-419,8.76086,5.60535,0,0,0,0,0,0,0,-1,1917,1443,8.76091,-5.6054
700,-419,11.0498,4.85156,0,0,0,0,0,0,0,-1,1924,1443,11.0498,-4.85153
707,-419,9.5752,1.80042,0,0,0,0,0,0,0,-1,1931,1443,9.57523,-1.80037
714,-419,5.77576,-1.25061,0,0,0,0,0,0,0,-1,1938,1443,5.7757,1.25056
721,-419,0,0,0,0,0,0,0,0,0,-1,1945,1443,0,0
728,-419,0,0,0,0,0,0,0,0,0,-1,1952,1443,0,0
735,-419,0,0,0,0,0,0,0,0,0,-1,1959,1443,0,0
742,-419,0,0,0,0,0,0,0,0,0,-1,1966,1443,0,0
749,-419,0,0,0,0,0,0,0,0,0,-1,1973,1443,0,0
756,-419,0,0,0,0,0,0,0,0,0,-1,1980,1443,0,0
763,-419,0,0,0,0,0,0,0,0,0,-1,1987,1443,0,0
770,-419,0,0,0,0,0,0,0,0,0,-1,1994,1443,0,0
777,-419,0,0,0,0,0,0,0,0,0,-1,2001,1443,0,0
784,-419,0,0,0,0,0,0,0,0,0,-1,2008,1443,0,0
791,-419,0,0,0,0,0,0,0,0,0,-1,2015,1443,0,0
798,-419,0,0,0,0,0,0,0,0,0,-1,2022,1443,0,0
805,-419,0,0,0,0,0,0,0,0,0,-1,2029,1443,0,0
812,-419,0,0,0,0,0,0,0,0,0,-1,2036,1443,0,0
-700,-426,0,0,0,0,0,0,0,0,0,-1,524,1450,0,0
-693,-426,0,0,0,0,0,0,0,0,0,-1,531,1450,0,0
-686,-426,0,0,0,0,0,0,0,0,0,-1,538,1450,0,0
-679,-426,0,0,0,0,0,0,0,0,0,-1,545,1450,0,0
-672,-426,0,0,0,0,0,0,0,0,0,-1,552,1450,0,0
-665,-426,0,0,0,0,0,0,0,0,0,-1,559,1450,0,0
-658,-426,0,0,0,0,0,0,0,0,0,-1,566,1450,0,0
-651,-426,0,0,0,0,0,0,0,0,0,-1,573,1450,0,0
-644,-426,0,0,0,0,0,0,0,0,0,-1,580,1450,0,0
-637,-426,0,0,0,0,0,0,0,0,0,-1,587,1450,0,0
-630,-426,0,0,0,0,0,0,0,0,0,-1,594,1450,0,0
-623,-426,0,0,0,0,0,0,0,0,0,-1,601,1450,0,0
-616,-426,0,0,0,0,0,0,0,0,0,-1,608,1450,0,0
-609,-426,0,0,0,0,0,0,0,0,0,-1,615,1450,0,0
-602,-426,0,0,0,0,0,0,0,0,0,-1,622,1450,0,0
-595,-426,0,0,0,0,0,0,0,0,0,-1,629,1450,0,0
-588,-426,-10.184,-0.554321,0,0,0,0,0,0,0,-1,636,1450,-10.184,0.554321
-581,-426,-7.3349,1.48157,0,0,0,0,0,0,0,-1,643,1450,-7.33491,-1.48152
-574,-426,-5.02856,2.89319,0,0,0,0,0,0,0,-1,650,1450,-5.02858,-2.89319
-567,-426,-3.04797,1.72644,0,0,0,0,0,0,0,-1,657,1450,-3.04797,-1.72639
-560,-426,-5.55682,3.44397,0,0,0,0,0,0,0,-1,664,1450,-5.55684,-3.44399
-553,-426,-4.67017,6.66614,0,0,0,0,0,0,0,-1,671,1450,-4.67015,-6.66619
-546,-426,-7.58752,8.28882,0,0,0,0,0,0,0,-1,678,1450,-7.58752,-8.28878
-539,-426,-10.436,10.7441,0,0,0,0,0,0,0,-1,685,1450,-10.436,-10.7441
-532,-426,-12.9116,12.7544,0,0,0,0,0,0,0,-1,692,1450,-12.9116,-12.7544
-525,-426,-12.8712,13.4482,0.00267214,0.00112051,0.00177342,0.00383202,-3.93725e-05,0.579206,0.00256791,0.0205951,699,1450,-12.8712,-13.4483
-518,-426,-12.8401,14.1669,0.0022207,0.000856919,0.001463,0.00315291,-7.52956e-05,0.567321,0.00212749,0.0168192,706,1450,-12.8401,-14.1669
-511,-426,-12.8735,14.8337,0.00186708,0.000752635,0.00121954,0.00265067,-3.09518e-05,0.571104,0.00177752,0.0170716,713,1450,-12.8735,-14.8337
-504,-426,-12.9246,15.4796,0.00172911,0.000815377,0.0010972,0.00246076,8.37269e-05,0.58812,0.00161332,0.0164122,720,1450,-12.9246,-15.4796
-497,-426,-12.9353,16.1072,0.00179474,0.00105566,0.00110151,0.00258704,0.000263354,0.623555,0.00164396,0.0129435,727,1450,-12.9353,-16.1072
-490,-426,-12.9639,16.7566,0.00206838,0.00149235,0.0013124,0.003124,0.000436736,0.677381,0.00195343,0.0132716,734,1450,-12.9639,-16.7566
-483,-426,-12.9798,17.4156,0.00260175,0.00215045,0.00171591,0.00410678,0.000645422,0.720022,0.00255009,0.0127611,741,1450,-12.9798,-17.4156
-476,-426,-13.0056,18.0646,0.00341036,0.00301925,0.0023729,0.00559576,0.000833861,0.744285,0.00348596,0.00945826,748,1450,-13.0056,-18.0645
-469,-426,-13.0529,18.7073,0.00457019,0.00401202,0.00323136,0.0075345,0.00104771,0.742321,0.00471274,0.0124317,755,1450,-13.0529,-18.7072
-462,-426,-12.9952,19.3928,0,0,0,0,0,0,0,-1,762,1450,-12.9952,-19.3928
-455,-426,-10.215,17.7007,0,0,0,0,0,0,0,-1,769,1450,-10.215,-17.7007
-448,-426,-6.46545,10.1322,0,0,0,0,0,0,0,-1,776,1450,-6.46543,-10.1322
-441,-426,-10.9547,11.4747,0,0,0,0,0,0,0,-1,783,1450,-10.9546,-11.4748
-434,-426,-10.4998,13.6189,0,0,0,0,0,0,0,-1,790,1450,-10.4997,-13.6189
-427,-426,-9.36627,13.7396,0,0,0,0,0,0,0,-1,797,1450,-9.36628,-13.7396
-420,-426,-5.33765,7.95044,0,0,0,0,0,0,0,-1,804,1450,-5.33766,-7.95041
-413,-426,-10.1148,5.0415,0,0,0,0,0,0,0,-1,811,1450,-10.1148,-5.04152
-406,-426,-11.4199,3.6438,0,0,0,0,0,0,0,-1,818,1450,-11.4198,-3.64382
-399,-426,-12.7595,2.29004,0,0,0,0,0,0,0,-1,825,1450,-12.7595,-2.29003
-392,-426,-12.4147,0.537354,0,0,0,0,0,0,0,-1,832,1450,-12.4147,-0.53731
-385,-426,0,0,0,0,0,0,0,0,0,-1,839,1450,0,0
-378,-426,0,0,0,0,0,0,0,0,0,-1,846,1450,0,0
-371,-426,0,0,0,0,0,0,0,0,0,-1,853,1450,0,0
-364,-426,0,0,0,0,0,0,0,0,0,-1,860,1450,0,0
-357,-426,0,0,0,0,0,0,0,0,0,-1,867,1450,0,0
-350,-426,0,0,0,0,0,0,0,0,0,-1,874,1450,0,0
-343,-426,0,0,0,0,0,0,0,0,0,-1,881,1450,0,0
-336,-426,0,0,0,0,0,0,0,0,0,-1,888,1450,0,0
-329,-426,0,0,0,0,0,0,0,0,0,-1,895,1450,0,0
-322,-426,0,0,0,0,0,0,0,0,0,-1,902,1450,0,0
-315,-426,0,0,0,0,0,0,0,0,0,-1,909,1450,0,0
-308,-426,0,0,0,0,0,0,0,0,0,-1,916,1450,0,0
-301,-426,0,0,0,0,0,0,0,0,0,-1,923,1450,0,0
-294,-426,0,0,0,0,0,0,0,0,0,-1,930,1450,0,0
-287,-426,0,0,0,0,0,0,0,0,0,-1,937,1450,0,0
-280,-426,0,0,0,0,0,0,0,0,0,-1,944,1450,0,0
-273,-426,0,0,0,0,0,0,0,0,0,-1,951,1450,0,0
-266,-426,0,0,0,0,0,0,0,0,0,-1,958,1450,0,0
-259,-426,0,0,0,0,0,0,0,0,0,-1,965,1450,0,0
-252,-426,0,0,0,0,0,0,0,0,0,-1,972,1450,0,0
-245,-426,0,0,0,0,0,0,0,0,0,-1,979,1450,0,0
-238,-426,0,0,0,0,0,0,0,0,0,-1,986,1450,0,0
-231,-426,0,0,0,0,0,0,0,0,0,-1,993,1450,0,0
-224,-426,0,0,0,0,0,0,0,0,0,-1,1000,1450,0,0
-217,-426,0,0,0,0,0,0,0,0,0,-1,1007,1450,0,0
-210,-426,0,0,0,0,0,0,0,0,0,-1,1014,1450,0,0
-203,-426,0,0,0,0,0,0,0,0,0,-1,1021,1450,0,0
-196,-426,0,0,0,0,0,0,0,0,0,-1,1028,1450,0,0
-189,-426,0,0,0,0,0,0,0,0,0,-1,1035,1450,0,0
-182,-426,0,0,0,0,0,0,0,0,0,-1,1042,1450,0,0
-175,-426,0,0,0,0,0,0,0,0,0,-1,1049,1450,0,0
-168,-426,0,0,0,0,0,0,0,0,0,-1,1056,1450,0,0
-161,-426,0,0,0,0,0,0,0,0,0,-1,1063,1450,0,0
-154,-426,0,0,0,0,0,0,0,0,0,-1,1070,1450,0,0
-147,-426,0,0,0,0,0,0,0,0,0,-1,1077,1450,0,0
-140,-426,0,0,0,0,0,0,0,0,0,-1,1084,1450,0,0
-133,-426,0,0,0,0,0,0,0,0,0,-1,1091,1450,0,0
-126,-426,0,0,0,0,0,0,0,0,0,-1,1098,1450,0,0
-119,-426,0,0,0,0,0,0,0,0,0,-1,1105,1450,0,0
-112,-426,0,0,0,0,0,0,0,0,0,-1,1112,1450,0,0
-105,-426,0,0,0,0,0,0,0,0,0,-1,1119,1450,0,0
-98,-426,0,0,0,0,0,0,0,0,0,-1,1126,1450,0,0
-91,-426,0,0,0,0,0,0,0,0,0,-1,1133,1450,0,0
-84,-426,0,0,0,0,0,0,0,0,0,-1,1140,1450,0,0
-77,-426,0,0,0,0,0,0,0,0,0,-1,1147,1450,0,0
-70,-426,0,0,0,0,0,0,0,0,0,-1,1154,1450,0,0
-63,-426,0,0,0,0,0,0,0,0,0,-1,1161,1450,0,0
-56,-426,0,0,0,0,0,0,0,0,0,-1,1168,1450,0,0
-49,-426,0,0,0,0,0,0,0,0,0,-1,1175,1450,0,0
-42,-426,0,0,0,0,0,0,0,0,0,-1,1182,1450,0,0
-35,-426,0,0,0,0,0,0,0,0,0,-1,1189,1450,0,0
-28,-426,0,0,0,0,0,0,0,0,0,-1,1196,1450,0,0
-21,-426,0,0,0,0,0,0,0,0,0,-1,1203,1450,0,0
-14,-426,0,0,0,0,0,0,0,0,0,-1,1210,1450,0,0
-7,-426,0,0,0,0,0,0,0,0,0,-1,1217,1450,0,0
0,-426,0,0,0,0,0,0,0,0,0,-1,1224,1450,0,0
7,-426,0,0,0,0,0,0,0,0,0,-1,1231,1450,0,0
14,-426,0,0,0,0,0,0,0,0,0,-1,1238,1450,0,0
21,-426,0,0,0,0,0,0,0,0,0,-1,1245,1450,0,0
28,-426,0,0,0,0,0,0,0,0,0,-1,1252,1450,0,0
35,-426,0,0,0,0,0,0,0,0,0,-1,1259,1450,0,0
42,-426,0,0,0,0,0,0,0,0,0,-1,1266,1450,0,0
49,-426,0,0,0,0,0,0,0,0,0,-1,1273,1450,0,0
56,-426,0,0,0,0,0,0,0,0,0,-1,1280,1450,0,0
63,-426,0,0,0,0,0,0,0,0,0,-1,1287,1450,0,0
70,-426,0,0,0,0,0,0,0,0,0,-1,1294,1450,0,0
77,-426,0,0,0,0,0,0,0,0,0,-1,1301,1450,0,0
84,-426,0,0,0,0,0,0,0,0,0,-1,1308,1450,0,0
91,-426,0,0,0,0,0,0,0,0,0,-1,1315,1450,0,0
98,-426,0,0,0,0,0,0,0,0,0,-1,1322,1450,0,0
105,-426,0,0,0,0,0,0,0,0,0,-1,1329,1450,0,0
112,-426,0,0,0,0,0,0,0,0,0,-1,1336,1450,0,0
119,-426,0,0,0,0,0,0,0,0,0,-1,1343,1450,0,0
126,-426,0,0,0,0,0,0,0,0,0,-1,1350,1450,0,0
133,-426,0,0,0,0,0,0,0,0,0,-1,1357,1450,0,0
140,-426,0,0,0,0,0,0,0,0,0,-1,1364,1450,0,0
147,-426,0,0,0,0,0,0,0,0,0,-1,1371,1450,0,0
154,-426,0,0,0,0,0,0,0,0,0,-1,1378,1450,0,0
161,-426,0,0,0,0,0,0,0,0,0,-1,1385,1450,0,0
168,-426,0,0,0,0,0,0,0,0,0,-1,1392,1450,0,0
175,-426,0,0,0,0,0,0,0,0,0,-1,1399,1450,0,0
182,-426,0,0,0,0,0,0,0,0,0,-1,1406,1450,0,0
189,-426,0,0,0,0,0,0,0,0,0,-1,1413,1450,0,0
196,-426,0,0,0,0,0,0,0,0,0,-1,1420,1450,0,0
203,-426,0,0,0,0,0,0,0,0,0,-1,1427,1450,0,0
210,-426,0,0,0,0,0,0,0,0,0,-1,1434,1450,0,0
217,-426,0,0,0,0,0,0,0,0,0,-1,1441,1450,0,0
224,-426,0,0,0,0,0,0,0,0,0,-1,1448,1450,0,0
231,-426,0,0,0,0,0,0,0,0,0,-1,1455,1450,0,0
238,-426,0,0,0,0,0,0,0,0,0,-1,1462,1450,0,0
245,-426,0,0,0,0,0,0,0,0,0,-1,1469,1450,0,0
252,-426,0,0,0,0,0,0,0,0,0,-1,1476,1450,0,0
259,-426,0,0,0,0,0,0,0,0,0,-1,1483,1450,0,0
266,-426,0,0,0,0,0,0,0,0,0,-1,1490,1450,0,0
273,-426,0,0,0,0,0,0,0,0,0,-1,1497,1450,0,0
280,-426,0,0,0,0,0,0,0,0,0,-1,1504,1450,0,0
287,-426,0,0,0,0,0,0,0,0,0,-1,1511,1450,0,0
294,-426,0,0,0,0,0,0,0,0,0,-1,1518,1450,0,0
301,-426,0,0,0,0,0,0,0,0,0,-1,1525,1450,0,0
308,-426,0,0,0,0,0,0,0,0,0,-1,1532,1450,0,0
315,-426,0,0,0,0,0,0,0,0,0,-1,1539,1450,0,0
322,-426,0,0,0,0,0,0,0,0,0,-1,1546,1450,0,0
329,-426,0,0,0,0,0,0,0,0,0,-1,1553,1450,0,0
336,-426,0,0,0,0,0,0,0,0,0,-1,1560,1450,0,0
343,-426,0,0,0,0,0,0,0,0,0,-1,1567,1450,0,0
350,-426,0,0,0,0,0,0,0,0,0,-1,1574,1450,0,0
357,-426,0,0,0,0,0,0,0,0,0,-1,1581,1450,0,0
364,-426,0,0,0,0,0,0,0,0,0,-1,1588,1450,0,0
371,-426,0,0,0,0,0,0,0,0,0,-1,1595,1450,0,0
378,-426,0,0,0,0,0,0,0,0,0,-1,1602,1450,0,0
385,-426,0,0,0,0,0,0,0,0,0,-1,1609,1450,0,0
392,-426,0,0,0,0,0,0,0,0,0,-1,1616,1450,0,0
399,-426,0,0,0,0,0,0,0,0,0,-1,1623,1450,0,0
406,-426,0,0,0,0,0,0,0,0,0,-1,1630,1450,0,0
413,-426,0,0,0,0,0,0,0,0,0,-1,1637,1450,0,0
420,-426,0,0,0,0,0,0,0,0,0,-1,1644,1450,0,0
427,-426,0,0,0,0,0,0,0,0,0,-1,1651,1450,0,0
434,-426,0,0,0,0,0,0,0,0,0,-1,1658,1450,0,0
441,-426,0,0,0,0,0,0,0,0,0,-1,1665,1450,0,0
448,-426,0,0,0,0,0,0,0,0,0,-1,1672,1450,0,0
455,-426,0,0,0,0,0,0,0,0,0,-1,1679,1450,0,0
462,-426,0,0,0,0,0,0,0,0,0,-1,1686,1450,0,0
469,-426,0,0,0,0,0,0,0,0,0,-1,1693,1450,0,0
476,-426,0,0,0,0,0,0,0,0,0,-1,1700,1450,0,0
483,-426,0,0,0,0,0,0,0,0,0,-1,1707,1450,0,0
490,-426,0,0,0,0,0,0,0,0,0,-1,1714,1450,0,0
497,-426,0,0,0,0,0,0,0,0,0,-1,1721,1450,0,0
504,-426,20.6873,3.38367,0,0,0,0,0,0,0,-1,1728,1450,20.6873,-3.38361
511,-426,19.6676,3.53748,0,0,0,0,0,0,0,-1,1735,1450,19.6676,-3.53749
518,-426,18.6853,3.32288,0,0,0,0,0,0,0,-1,1742,1450,18.6853,-3.3229
525,-426,18.9552,2.71033,0,0,0,0,0,0,0,-1,1749,1450,18.9552,-2.71034
532,-426,19.4333,2.70764,0,0,0,0,0,0,0,-1,1756,1450,19.4334,-2.70764
539,-426,25.1482,2.56287,0,0,0,0,0,0,0,-1,1763,1450,25.1482,-2.56286
546,-426,24.1136,3.75659,0,0,0,0,0,0,0,-1,1770,1450,24.1136,-3.7566
553,-426,23.0791,4.95032,0,0,0,0,0,0,0,-1,1777,1450,23.0791,-4.95034
560,-426,12.9688,11.8289,0,0,0,0,0,0,0,-1,1784,1450,12.9688,-11.8288
567,-426,13.6388,11.5623,0,0,0,0,0,0,0,-1,1791,1450,13.6388,-11.5623
574,-426,14.3943,11.0286,0,0,0,0,0,0,0,-1,1798,1450,14.3942,-11.0285
581,-426,16.3879,11.4653,0,0,0,0,0,0,0,-1,1805,1450,16.3879,-11.4653
588,-426,18.1212,12.5547,0,0,0,0,0,0,0,-1,1812,1450,18.1212,-12.5547
595,-426,29.2595,20.6718,0,0,0,0,0,0,0,-1,1819,1450,29.2595,-20.6717
602,-426,29.4763,20.0664,0.00453569,0.00165445,-0.00286405,0.00630103,-0.000110885,-0.552376,0.00423813,0.0470269,1826,1450,29.4763,-20.0664
609,-426,29.5884,19.4215,0.0036406,0.0010123,-0.00207889,0.00478588,-0.000132974,-0.50354,0.00323582,0.0140579,1833,1450,29.5884,-19.4215
616,-426,29.5709,18.8063,0.00288488,0.000528421,-0.00145499,0.00357888,-0.000165571,-0.445058,0.00244298,0.0149641,1840,1450,29.5709,-18.8062
623,-426,29.5444,18.2058,0.00243409,0.000227202,-0.00099625,0.00281729,-0.000155995,-0.367195,0.00193229,0.0129376,1847,1450,29.5445,-18.2058
630,-426,29.5583,17.6047,0.00227164,1.58646e-05,-0.000684306,0.002463,-0.000175492,-0.272671,0.00170351,0.0141917,1854,1450,29.5584,-17.6048
637,-426,29.5266,16.9894,0.00223468,-2.62177e-08,-0.000490866,0.00233775,-0.000103094,-0.206965,0.00159397,0.0141144,1861,1450,29.5266,-16.9894
644,-426,29.4678,16.3785,0.00237989,5.66822e-05,-0.000313729,0.00242151,1.50612e-05,-0.131895,0.00160934,0.0128974,1868,1450,29.4678,-16.3785
651,-426,29.4392,15.79,0.00266358,0.000281468,-0.000276642,0.00269528,0.000249762,-0.11411,0.00171966,0.0122023,1875,1450,29.4392,-15.79
658,-426,29.4412,15.1421,0.00310324,0.000579766,-0.000273775,0.0031326,0.000550406,-0.106835,0.00193126,0.0123823,1882,1450,29.4412,-15.1421
665,-426,29.4507,14.4287,0.00362151,0.000910232,-0.000194479,0.00363539,0.000896353,-0.0712438,0.00218692,0.0293039,1889,1450,29.4507,-14.4287
672,-426,29.5946,13.7992,0,0,0,0,0,0,0,-1,1896,1450,29.5946,-13.7992
679,-426,17.1522,8.15784,0,0,0,0,0,0,0,-1,1903,1450,17.1522,-8.15784
686,-426,13.5326,8.03711,0,0,0,0,0,0,0,-1,1910,1450,13.5326,-8.03717
693,-426,11.8607,6.45215,0,0,0,0,0,0,0,-1,1917,1450,11.8607,-6.45215
700,-426,9.24304,2.95447,0,0,0,0,0,0,0,-1,1924,1450,9.24305,-2.95442
707,-426,8.44519,-1.21448,0,0,0,0,0,0,0,-1,1931,1450,8.44514,1.21454
714,-426,0,0,0,0,0,0,0,0,0,-1,1938,1450,0,0
721,-426,0,0,0,0,0,0,0,0,0,-1,1945,1450,0,0
728,-426,0,0,0,0,0,0,0,0,0,-1,1952,1450,0,0
735,-426,0,0,0,0,0,0,0,0,0,-1,1959,1450,0,0
742,-426,0,0,0,0,0,0,0,0,0,-1,1966,1450,0,0
749,-426,0,0,0,0,0,0,0,0,0,-1,1973,1450,0,0
756,-426,0,0,0,0,0,0,0,0,0,-1,1980,1450,0,0
763,-426,0,0,0,0,0,0,0,0,0,-1,1987,1450,0,0
770,-426,0,0,0,0,0,0,0,0,0,-1,1994,1450,0,0
777,-426,0,0,0,0,0,0,0,0,0,-1,2001,1450,0,0
784,-426,0,0,0,0,0,0,0,0,0,-1,2008,1450,0,0
791,-426,0,0,0,0,0,0,0,0,0,-1,2015,1450,0,0
798,-426,0,0,0,0,0,0,0,0,0,-1,2022,1450,0,0
805,-426,0,0,0,0,0,0,0,0,0,-1,2029,1450,0,0
812,-426,0,0,0,0,0,0,0,0,0,-1,2036,1450,0,0
-700,-433,0,0,0,0,0,0,0,0,0,-1,524,1457,0,0
-693,-433,0,0,0,0,0,0,0,0,0,-1,531,1457,0,0
-686,-433,0,0,0,0,0,0,0,0,0,-1,538,1457,0,0
-679,-433,0,0,0,0,0,0,0,0,0,-1,545,1457,0,0
-672,-433,0,0,0,0,0,0,0,0,0,-1,552,1457,0,0
-665,-433,0,0,0,0,0,0,0,0,0,-1,559,1457,0,0
-658,-433,0,0,0,0,0,0,0,0,0,-1,566,1457,0,0
-651,-433,0,0,0,0,0,0,0,0,0,-1,573,1457,0,0
-644,-433,0,0,0,0,0,0,0,0,0,-1,580,1457,0,0
-637,-433,0,0,0,0,0,0,0,0,0,-1,587,1457,0,0
-630,-433,0,0,0,0,0,0,0,0,0,-1,594,1457,0,0
-623,-433,0,0,0,0,0,0,0,0,0,-1,601,1457,0,0
-616,-433,0,0,0,0,0,0,0,0,0,-1,608,1457,0,0
-609,-433,0,0,0,0,0,0,0,0,0,-1,615,1457,0,0
-602,-433,0,0,0,0,0,0,0,0,0,-1,622,1457,0,0
-595,-433,0,0,0,0,0,0,0,0,0,-1,629,1457,0,0
-588,-433,-10.3756,-0.467041,0,0,0,0,0,0,0,-1,636,1457,-10.3756,0.467081
-581,-433,-8.12201,0.884033,0,0,0,0,0,0,0,-1,643,1457,-8.12204,-0.884056
-574,-433,-5.86847,2.23523,0,0,0,0,0,0,0,-1,650,1457,-5.86844,-2.23519
-567,-433,-5.42255,1.16833,0,0,0,0,0,0,0,-1,657,1457,-5.42254,-1.1683
-560,-433,-6.84027,1.86414,0,0,0,0,0,0,0,-1,664,1457,-6.84026,-1.86412
-553,-433,-5.74017,1.79163,0,0,0,0,0,0,0,-1,671,1457,-5.74015,-1.79166
-546,-433,-6.9668,8.25073,0,0,0,0,0,0,0,-1,678,1457,-6.96679,-8.25074
-539,-433,-7.3136,8.75659,0,0,0,0,0,0,0,-1,685,1457,-7.31362,-8.75659
-532,-433,-12.0881,12.7223,0,0,0,0,0,0,0,-1,692,1457,-12.0881,-12.7223
-525,-433,-12.1398,13.6003,0.00280205,0.00131206,0.00228246,0.00445803,-0.000343914,0.62765,0.00309303,0.0423761,699,1457,-12.1398,-13.6004
-518,-433,-12.1784,14.2123,0.00237322,0.000995359,0.00187703,0.00368376,-0.000315176,0.609514,0.00256735,0.0187081,706,1457,-12.1784,-14.2123
-511,-433,-12.2401,14.8656,0.0019744,0.000843321,0.00154152,0.00305085,-0.00023313,0.609587,0.00211589,0.0173535,713,1457,-12.2401,-14.8656
-504,-433,-12.2714,15.5123,0.00173614,0.00081605,0.00127349,0.00263013,-7.79404e-05,0.612068,0.00177997,0.0134884,720,1457,-12.2714,-15.5124
-497,-433,-12.2809,16.1547,0.00172715,0.000973444,0.0011728,0.00258216,0.000118434,0.629946,0.00168335,0.0137725,727,1457,-12.2809,-16.1547
-490,-433,-12.3328,16.7894,0.00190033,0.00130624,0.00126701,0.00290465,0.000301923,0.670255,0.00184405,0.016517,734,1457,-12.3328,-16.7894
-483,-433,-12.3373,17.4401,0.00231121,0.001834,0.00154412,0.00363506,0.000510158,0.708742,0.00227249,0.0172257,741,1457,-12.3373,-17.4401
-476,-433,-12.3611,18.0912,0.0029674,0.00256567,0.00206698,0.00484325,0.000689819,0.736961,0.00302523,0.0109941,748,1457,-12.3611,-18.0912
-469,-433,-12.4082,18.7335,0.003894,0.00342751,0.00278984,0.00646033,0.00086118,0.743693,0.00405046,0.0111916,755,1457,-12.4082,-18.7336
-462,-433,-12.4442,19.3759,0,0,0,0,0,0,0,-1,762,1457,-12.4441,-19.3759
-455,-433,-11.9183,20.3514,0,0,0,0,0,0,0,-1,769,1457,-11.9184,-20.3514
-448,-433,-6.94812,14.5563,0,0,0,0,0,0,0,-1,776,1457,-6.94809,-14.5562
-441,-433,-9.97485,14.0258,0,0,0,0,0,0,0,-1,783,1457,-9.97488,-14.0257
-434,-433,-9.41205,14.2297,0,0,0,0,0,0,0,-1,790,1457,-9.41205,-14.2297
-427,-433,-8.67419,13.6827,0,0,0,0,0,0,0,-1,797,1457,-8.67422,-13.6827
-420,-433,-5.74658,9.49121,0,0,0,0,0,0,0,-1,804,1457,-5.7466,-9.49119
-413,-433,-3.63074,5.5813,0,0,0,0,0,0,0,-1,811,1457,-3.63072,-5.58129
-406,-433,-12.3472,4.69373,0,0,0,0,0,0,0,-1,818,1457,-12.3472,-4.69374
-399,-433,-12.055,2.83594,0,0,0,0,0,0,0,-1,825,1457,-12.055,-2.83594
-392,-433,-12.9772,1.6228,0,0,0,0,0,0,0,-1,832,1457,-12.9772,-1.62282
-385,-433,-13.7999,0.514771,0,0,0,0,0,0,0,-1,839,1457,-13.7999,-0.514788
-378,-433,0,0,0,0,0,0,0,0,0,-1,846,1457,0,0
-371,-433,0,0,0,0,0,0,0,0,0,-1,853,1457,0,0
-364,-433,0,0,0,0,0,0,0,0,0,-1,860,1457,0,0
-357,-433,0,0,0,0,0,0,0,0,0,-1,867,1457,0,0
-350,-433,0,0,0,0,0,0,0,0,0,-1,874,1457,0,0
-343,-433,0,0,0,0,0,0,0,0,0,-1,881,1457,0,0
-336,-433,0,0,0,0,0,0,0,0,0,-1,888,1457,0,0
-329,-433,0,0,0,0,0,0,0,0,0,-1,895,1457,0,0
-322,-433,0,0,0,0,0,0,0,0,0,-1,902,1457,0,0
-315,-433,0,0,0,0,0,0,0,0,0,-1,909,1457,0,0
-308,-433,0,0,0,0,0,0,0,0,0,-1,916,1457,0,0
-301,-433,0,0,0,0,0,0,0,0,0,-1,923,1457,0,0
-294,-433,0,0,0,0,0,0,0,0,0,-1,930,1457,0,0
-287,-433,0,0,0,0,0,0,0,0,0,-1,937,1457,0,0
-280,-433,0,0,0,0,0,0,0,0,0,-1,944,1457,0,0
-273,-433,0,0,0,0,0,0,0,0,0,-1,951,1457,0,0
-266,-433,0,0,0,0,0,0,0,0,0,-1,958,1457,0,0
-259,-433,0,0,0,0,0,0,0,0,0,-1,965,1457,0,0
-252,-433,0,0,0,0,0,0,0,0,0,-1,972,1457,0,0
-245,-433,0,0,0,0,0,0,0,0,0,-1,979,1457,0,0
-238,-433,0,0,0,0,0,0,0,0,0,-1,986,1457,0,0
-231,-433,0,0,0,0,0,0,0,0,0,-1,993,1457,0,0
-224,-433,0,0,0,0,0,0,0,0,0,-1,1000,1457,0,0
-217,-433,0,0,0,0,0,0,0,0,0,-1,1007,1457,0,0
-210,-433,0,0,0,0,0,0,0,0,0,-1,1014,1457,0,0
-203,-433,0,0,0,0,0,0,0,0,0,-1,1021,1457,0,0
-196,-433,0,0,0,0,0,0,0,0,0,-1,1028,1457,0,0
-189,-433,0,0,0,0,0,0,0,0,0,-1,1035,1457,0,0
-182,-433,0,0,0,0,0,0,0,0,0,-1,1042,1457,0,0
-175,-433,0,0,0,0,0,0,0,0,0,-1,1049,1457,0,0
-168,-433,0,0,0,0,0,0,0,0,0,-1,1056,1457,0,0
-161,-433,0,0,0,0,0,0,0,0,0,-1,1063,1457,0,0
-154,-433,0,0,0,0,0,0,0,0,0,-1,1070,1457,0,0
-147,-433,0,0,0,0,0,0,0,0,0,-1,1077,1457,0,0
-140,-433,0,0,0,0,0,0,0,0,0,-1,1084,1457,0,0
-133,-433,0,0,0,0,0,0,0,0,0,-1,1091,1457,0,0
-126,-433,0,0,0,0,0,0,0,0,0,-1,1098,1457,0,0
-119,-433,0,0,0,0,0,0,0,0,0,-1,1105,1457,0,0
-112,-433,0,0,0,0,0,0,0,0,0,-1,1112,1457,0,0
-105,-433,0,0,0,0,0,0,0,0,0,-1,1119,1457,0,0
-98,-433,0,0,0,0,0,0,0,0,0,-1,1126,1457,0,0
-91,-433,0,0,0,0,0,0,0,0,0,-1,1133,1457,0,0
-84,-433,0,0,0,0,0,0,0,0,0,-1,1140,1457,0,0
-77,-433,0,0,0,0,0,0,0,0,0,-1,1147,1457,0,0
-70,-433,0,0,0,0,0,0,0,0,0,-1,1154,1457,0,0
-63,-433,0,0,0,0,0,0,0,0,0,-1,1161,1457,0,0
-56,-433,0,0,0,0,0,0,0,0,0,-1,1168,1457,0,0
-49,-433,0,0,0,0,0,0,0,0,0,-1,1175,1457,0,0
-42,-433,0,0,0,0,0,0,0,0,0,-1,1182,1457,0,0
-35,-433,0,0,0,0,0,0,0,0,0,-1,1189,1457,0,0
-28,-433,0,0,0,0,0,0,0,0,0,-1,1196,1457,0,0
-21,-433,0,0,0,0,0,0,0,0,0,-1,1203,1457,0,0
-14,-433,0,0,0,0,0,0,0,0,0,-1,1210,1457,0,0
-7,-433,0,0,0,0,0,0,0,0,0,-1,1217,1457,0,0
0,-433,0,0,0,0,0,0,0,0,0,-1,1224,1457,0,0
7,-433,0,0,0,0,0,0,0,0,0,-1,1231,1457,0,0
14,-433,0,0,0,0,0,0,0,0,0,-1,1238,1457,0,0
21,-433,0,0,0,0,0,0,0,0,0,-1,1245,1457,0,0
28,-433,0,0,0,0,0,0,0,0,0,-1,1252,1457,0,0
35,-433,0,0,0,0,0,0,0,0,0,-1,1259,1457,0,0
42,-433,0,0,0,0,0,0,0,0,0,-1,1266,1457,0,0
49,-433,0,0,0,0,0,0,0,0,0,-1,1273,1457,0,0
56,-433,0,0,0,0,0,0,0,0,0,-1,1280,1457,0,0
63,-433,0,0,0,0,0,0,0,0,0,-1,1287,1457,0,0
70,-433,0,0,0,0,0,0,0,0,0,-1,1294,1457,0,0
77,-433,0,0,0,0,0,0,0,0,0,-1,1301,1457,0,0
84,-433,0,0,0,0,0,0,0,0,0,-1,1308,1457,0,0
91,-433,0,0,0,0,0,0,0,0,0,-1,1315,1457,0,0
98,-433,0,0,0,0,0,0,0,0,0,-1,1322,1457,0,0
105,-433,0,0,0,0,0,0,0,0,0,-1,1329,1457,0,0
112,-433,0,0,0,0,0,0,0,0,0,-1,1336,1457,0,0
119,-433,0,0,0,0,0,0,0,0,0,-1,1343,1457,0,0
126,-433,0,0,0,0,0,0,0,0,0,-1,1350,1457,0,0
133,-433,0,0,0,0,0,0,0,0,0,-1,1357,1457,0,0
140,-433,0,0,0,0,0,0,0,0,0,-1,1364,1457,0,0
147,-433,0,0,0,0,0,0,0,0,0,-1,1371,1457,0,0
154,-433,0,0,0,0,0,0,0,0,0,-1,1378,1457,0,0
161,-433,0,0,0,0,0,0,0,0,0,-1,1385,1457,0,0
168,-433,0,0,0,0,0,0,0,0,0,-1,1392,1457,0,0
175,-433,0,0,0,0,0,0,0,0,0,-1,1399,1457,0,0
182,-433,0,0,0,0,0,0,0,0,0,-1,1406,1457,0,0
189,-433,0,0,0,0,0,0,0,0,0,-1,1413,1457,0,0
196,-433,0,0,0,0,0,0,0,0,0,-1,1420,1457,0,0
203,-433,0,0,0,0,0,0,0,0,0,-1,1427,1457,0,0
210,-433,0,0,0,0,0,0,0,0,0,-1,1434,1457,0,0
217,-433,0,0,0,0,0,0,0,0,0,-1,1441,1457,0,0
224,-433,0,0,0,0,0,0,0,0,0,-1,1448,1457,0,0
231,-433,0,0,0,0,0,0,0,0,0,-1,1455,1457,0,0
238,-433,0,0,0,0,0,0,0,0,0,-1,1462,1457,0,0
245,-433,0,0,0,0,0,0,0,0,0,-1,1469,1457,0,0
252,-433,0,0,0,0,0,0,0,0,0,-1,1476,1457,0,0
259,-433,0,0,0,0,0,0,0,0,0,-1,1483,1457,0,0
266,-433,0,0,0,0,0,0,0,0,0,-1,1490,1457,0,0
273,-433,0,0,0,0,0,0,0,0,0,-1,1497,1457,0,0
280,-433,0,0,0,0,0,0,0,0,0,-1,1504,1457,0,0
287,-433,0,0,0,0,0,0,0,0,0,-1,1511,1457,0,0
294,-433,0,0,0,0,0,0,0,0,0,-1,1518,1457,0,0
301,-433,0,0,0,0,0,0,0,0,0,-1,1525,1457,0,0
308,-433,0,0,0,0,0,0,0,0,0,-1,1532,1457,0,0
315,-433,0,0,0,0,0,0,0,0,0,-1,1539,1457,0,0
322,-433,0,0,0,0,0,0,0,0,0,-1,1546,1457,0,0
329,-433,0,0,0,0,0,0,0,0,0,-1,1553,1457,0,0
336,-433,0,0,0,0,0,0,0,0,0,-1,1560,1457,0,0
343,-433,0,0,0,0,0,0,0,0,0,-1,1567,1457,0,0
350,-433,0,0,0,0,0,0,0,0,0,-1,1574,1457,0,0
357,-433,0,0,0,0,0,0,0,0,0,-1,1581,1457,0,0
364,-433,0,0,0,0,0,0,0,0,0,-1,1588,1457,0,0
371,-433,0,0,0,0,0,0,0,0,0,-1,1595,1457,0,0
378,-433,0,0,0,0,0,0,0,0,0,-1,1602,1457,0,0
385,-433,0,0,0,0,0,0,0,0,0,-1,1609,1457,0,0
392,-433,0,0,0,0,0,0,0,0,0,-1,1616,1457,0,0
399,-433,0,0,0,0,0,0,0,0,0,-1,1623,1457,0,0
406,-433,0,0,0,0,0,0,0,0,0,-1,1630,1457,0,0
413,-433,0,0,0,0,0,0,0,0,0,-1,1637,1457,0,0
420,-433,0,0,0,0,0,0,0,0,0,-1,1644,1457,0,0
427,-433,0,0,0,0,0,0,0,0,0,-1,1651,1457,0,0
434,-433,0,0,0,0,0,0,0,0,0,-1,1658,1457,0,0
441,-433,0,0,0,0,0,0,0,0,0,-1,1665,1457,0,0
448,-433,0,0,0,0,0,0,0,0,0,-1,1672,1457,0,0
455,-433,0,0,0,0,0,0,0,0,0,-1,1679,1457,0,0
462,-433,0,0,0,0,0,0,0,0,0,-1,1686,1457,0,0
469,-433,0,0,0,0,0,0,0,0,0,-1,1693,1457,0,0
476,-433,0,0,0,0,0,0,0,0,0,-1,1700,1457,0,0
483,-433,0,0,0,0,0,0,0,0,0,-1,1707,1457,0,0
490,-433,0,0,0,0,0,0,0,0,0,-1,1714,1457,0,0
497,-433,0,0,0,0,0,0,0,0,0,-1,1721,1457,0,0
504,-433,19.9058,3.03662,0,0,0,0,0,0,0,-1,1728,1457,19.9058,-3.03656
511,-433,19.0145,3.07837,0,0,0,0,0,0,0,-1,1735,1457,19.0146,-3.07834
518,-433,18.071,3.06433,0,0,0,0,0,0,0,-1,1742,1457,18.071,-3.06432
525,-433,17.2048,3.37085,0,0,0,0,0,0,0,-1,1749,1457,17.2049,-3.37083
532,-433,16.5637,3.36646,0,0,0,0,0,0,0,-1,1756,1457,16.5637,-3.36643
539,-433,15.9193,3.30396,0,0,0,0,0,0,0,-1,1763,1457,15.9193,-3.30394
546,-433,23.1903,4.81775,0,0,0,0,0,0,0,-1,1770,1457,23.1903,-4.81775
553,-433,13.9674,11.5781,0,0,0,0,0,0,0,-1,1777,1457,13.9674,-11.5781
560,-433,13.9855,11.7341,0,0,0,0,0,0,0,-1,1784,1457,13.9855,-11.7341
567,-433,13.9264,11.3364,0,0,0,0,0,0,0,-1,1791,1457,13.9263,-11.3364
574,-433,15.5305,12.3673,0,0,0,0,0,0,0,-1,1798,1457,15.5305,-12.3673
581,-433,16.6405,12.1898,0,0,0,0,0,0,0,-1,1805,1457,16.6405,-12.1898
588,-433,26.4386,19.7478,0,0,0,0,0,0,0,-1,1812,1457,26.4386,-19.7478
595,-433,28.9734,20.7395,0,0,0,0,0,0,0,-1,1819,1457,28.9734,-20.7395
602,-433,28.9689,20.0665,0.00407111,0.00146031,-0.00247724,0.00556585,-3.4427e-05,-0.542907,0.00372209,0.0283212,1826,1457,28.9689,-20.0666
609,-433,29.0115,19.428,0.00331593,0.000875191,-0.00180559,0.00427489,-8.37652e-05,-0.48822,0.00287825,0.0171716,1833,1457,29.0115,-19.4279
616,-433,28.9889,18.8383,0.00269242,0.000445974,-0.00127121,0.00326555,-0.000127155,-0.423563,0.00222063,0.0143823,1840,1457,28.9889,-18.8383
623,-433,28.9441,18.235,0.00239387,0.000153408,-0.000863085,0.00268779,-0.000140516,-0.328231,0.00184049,0.0114752,1847,1457,28.9441,-18.235
630,-433,28.941,17.6426,0.00236703,-7.13009e-05,-0.000578106,0.00249715,-0.000201421,-0.22139,0.0017358,0.0149263,1854,1457,28.941,-17.6426
637,-433,28.9127,17.0157,0.00243754,-0.000114411,-0.000397249,0.00249794,-0.000174819,-0.150909,0.00172652,0.0155732,1861,1457,28.9128,-17.0158
644,-433,28.8671,16.4287,0.00269396,-3.81699e-05,-0.000250372,0.00271672,-6.09244e-05,-0.0906337,0.00183179,0.0156332,1868,1457,28.8671,-16.4287
651,-433,28.8494,15.8108,0.00313516,0.000245405,-0.000286019,0.0031632,0.000217368,-0.0977138,0.0020402,0.0124417,1875,1457,28.8493,-15.8108
658,-433,28.7847,15.1528,0.0038128,0.000658962,-0.00039666,0.00386192,0.000609839,-0.123214,0.00239733,0.0343064,1882,1457,28.7846,-15.1529
665,-433,29.0042,14.3402,0,0,0,0,0,0,0,-1,1889,1457,29.0041,-14.3402
672,-433,18.115,8.7207,0,0,0,0,0,0,0,-1,1896,1457,18.115,-8.72074
679,-433,17.2969,9.6355,0,0,0,0,0,0,0,-1,1903,1457,17.2968,-9.63548
686,-433,13.6356,8.61694,0,0,0,0,0,0,0,-1,1910,1457,13.6356,-8.61694
693,-433,13.4081,8.39624,0,0,0,0,0,0,0,-1,1917,1457,13.4081,-8.39624
700,-433,7.16809,-1.5166,0,0,0,0,0,0,0,-1,1924,1457,7.16806,1.51656
707,-433,8.68359,-2.82202,0,0,0,0,0,0,0,-1,1931,1457,8.68359,2.82197
714,-433,0,0,0,0,0,0,0,0,0,-1,1938,1457,0,0
721,-433,0,0,0,0,0,0,0,0,0,-1,1945,1457,0,0
728,-433,0,0,0,0,0,0,0,0,0,-1,1952,1457,0,0
735,-433,0,0,0,0,0,0,0,0,0,-1,1959,1457,0,0
742,-433,0,0,0,0,0,0,0,0,0,-1,1966,1457,0,0
749,-433,0,0,0,0,0,0,0,0,0,-1,1973,1457,0,0
756,-433,0,0,0,0,0,0,0,0,0,-1,1980,1457,0,0
763,-433,0,0,0,0,0,0,0,0,0,-1,1987,1457,0,0
770,-433,0,0,0,0,0,0,0,0,0,-1,1994,1457,0,0
777,-433,0,0,0,0,0,0,0,0,0,-1,2001,1457,0,0
784,-433,0,0,0,0,0,0,0,0,0,-1,2008,1457,0,0
791,-433,0,0,0,0,0,0,0,0,0,-1,2015,1457,0,0
798,-433,0,0,0,0,0,0,0,0,0,-1,2022,1457,0,0
805,-433,0,0,0,0,0,0,0,0,0,-1,2029,1457,0,0
812,-433,0,0,0,0,0,0,0,0,0,-1,2036,1457,0,0
-700,-440,0,0,0,0,0,0,0,0,0,-1,524,1464,0,0
-693,-440,0,0,0,0,0,0,0,0,0,-1,531,1464,0,0
-686,-440,0,0,0,0,0,0,0,0,0,-1,538,1464,0,0
-679,-440,0,0,0,0,0,0,0,0,0,-1,545,1464,0,0
-672,-440,0,0,0,0,0,0,0,0,0,-1,552,1464,0,0
-665,-440,0,0,0,0,0,0,0,0,0,-1,559,1464,0,0
-658,-440,0,0,0,0,0,0,0,0,0,-1,566,1464,0,0
-651,-440,0,0,0,0,0,0,0,0,0,-1,573,1464,0,0
-644,-440,0,0,0,0,0,0,0,0,0,-1,580,1464,0,0
-637,-440,0,0,0,0,0,0,0,0,0,-1,587,1464,0,0
-630,-440,0,0,0,0,0,0,0,0,0,-1,594,1464,0,0
-623,-440,0,0,0,0,0,0,0,0,0,-1,601,1464,0,0
-616,-440,0,0,0,0,0,0,0,0,0,-1,608,1464,0,0
-609,-440,0,0,0,0,0,0,0,0,0,-1,615,1464,0,0
-602,-440,0,0,0,0,0,0,0,0,0,-1,622,1464,0,0
-595,-440,0,0,0,0,0,0,0,0,0,-1,629,1464,0,0
-588,-440,0,0,0,0,0,0,0,0,0,-1,636,1464,0,0
-581,-440,-8.97278,0.254517,0,0,0,0,0,0,0,-1,643,1464,-8.97276,-0.254526
-574,-440,-7.00818,-0.918579,0,0,0,0,0,0,0,-1,650,1464,-7.00817,0.918538
-567,-440,-6.12152,-0.0766602,0,0,0,0,0,0,0,-1,657,1464,-6.12151,0.0767097
-560,-440,-5.46747,0.82251,0,0,0,0,0,0,0,-1,664,1464,-5.46748,-0.822551
-553,-440,-6.84729,0.0831299,0,0,0,0,0,0,0,-1,671,1464,-6.84732,-0.083136
-546,-440,-5.63446,-0.153198,0,0,0,0,0,0,0,-1,678,1464,-5.63447,0.153147
-539,-440,-6.80017,8.58252,0,0,0,0,0,0,0,-1,685,1464,-6.80015,-8.58257
-532,-440,-9.69647,11.3262,0,0,0,0,0,0,0,-1,692,1464,-9.69649,-11.3262
-525,-440,-11.645,13.4408,0,0,0,0,0,0,0,-1,699,1464,-11.645,-13.4408
-518,-440,-11.6002,14.1595,0.00262397,0.00109218,0.00241965,0.00439605,-0.000679896,0.632122,0.00318164,0.025467,706,1464,-11.6002,-14.1595
-511,-440,-11.5883,14.8711,0.00215771,0.000886684,0.00197899,0.00360073,-0.00055633,0.630034,0.0026058,0.016437,713,1464,-11.5883,-14.8711
-504,-440,-11.6223,15.5763,0.00179028,0.000749739,0.00154045,0.00289595,-0.000355928,0.622543,0.00205955,0.0194577,720,1464,-11.6223,-15.5762
-497,-440,-11.6433,16.2222,0.00169994,0.000816103,0.00132873,0.0026583,-0.000142267,0.624859,0.00182148,0.0223561,727,1464,-11.6433,-16.2221
-490,-440,-11.6636,16.7374,0.00177382,0.00106361,0.00130261,0.00276886,6.85659e-05,0.652325,0.00182348,0.0234917,734,1464,-11.6637,-16.7374
-483,-440,-11.6937,17.4207,0.00207265,0.0015028,0.00145984,0.00327511,0.000300344,0.68902,0.00209049,0.0211772,741,1464,-11.6937,-17.4207
-476,-440,-11.721,18.0912,0.0025996,0.00214615,0.00186442,0.00425103,0.000494721,0.724891,0.00268435,0.0137032,748,1464,-11.721,-18.0912
-469,-440,-11.7654,18.7528,0.00334472,0.00299685,0.00248637,0.00566322,0.000678341,0.750477,0.00357091,0.0131567,755,1464,-11.7654,-18.7528
-462,-440,-11.838,19.3881,0.00438713,0.00413531,0.00343195,0.00769548,0.000826958,0.767062,0.00487809,0.0174115,762,1464,-11.838,-19.3881
-455,-440,-11.6339,20.1458,0.00575373,0.00562105,0.00476416,0.010452,0.000922767,0.778437,0.00668169,0.0459578,769,1464,-11.6339,-20.1457
-448,-440,-10.9966,21.0752,0,0,0,0,0,0,0,-1,776,1464,-10.9966,-21.0752
-441,-440,-7.28583,14.7465,0,0,0,0,0,0,0,-1,783,1464,-7.28584,-14.7464
-434,-440,-8.33636,14.5024,0,0,0,0,0,0,0,-1,790,1464,-8.33638,-14.5025
-427,-440,-8.28094,14.2512,0,0,0,0,0,0,0,-1,797,1464,-8.28094,-14.2512
-420,-440,-6.86603,8.09216,0,0,0,0,0,0,0,-1,804,1464,-6.86602,-8.09222
-413,-440,-3.46796,5.72278,0,0,0,0,0,0,0,-1,811,1464,-3.46797,-5.72276
-406,-440,-5.2887,5.20264,0,0,0,0,0,0,0,-1,818,1464,-5.2887,-5.20261
-399,-440,-12.7318,3.94421,0,0,0,0,0,0,0,-1,825,1464,-12.7318,-3.94419
-392,-440,-13.5565,2.51855,0,0,0,0,0,0,0,-1,832,1464,-13.5565,-2.51861
-385,-440,-14.6741,1.39795,0,0,0,0,0,0,0,-1,839,1464,-14.6741,-1.39801
-378,-440,-15.8063,0.293457,0,0,0,0,0,0,0,-1,846,1464,-15.8063,-0.293412
-371,-440,0,0,0,0,0,0,0,0,0,-1,853,1464,0,0
-364,-440,0,0,0,0,0,0,0,0,0,-1,860,1464,0,0
-357,-440,0,0,0,0,0,0,0,0,0,-1,867,1464,0,0
-350,-440,0,0,0,0,0,0,0,0,0,-1,874,1464,0,0
-343,-440,0,0,0,0,0,0,0,0,0,-1,881,1464,0,0
-336,-440,0,0,0,0,0,0,0,0,0,-1,888,1464,0,0
-329,-440,0,0,0,0,0,0,0,0,0,-1,895,1464,0,0
-322,-440,0,0,0,0,0,0,0,0,0,-1,902,1464,0,0
-315,-440,0,0,0,0,0,0,0,0,0,-1,909,1464,0,0
-308,-440,0,0,0,0,0,0,0,0,0,-1,916,1464,0,0
-301,-440,0,0,0,0,0,0,0,0,0,-1,923,1464,0,0
-294,-440,0,0,0,0,0,0,0,0,0,-1,930,1464,0,0
-287,-440,0,0,0,0,0,0,0,0,0,-1,937,1464,0,0
-280,-440,0,0,0,0,0,0,0,0,0,-1,944,1464,0,0
-273,-440,0,0,0,0,0,0,0,0,0,-1,951,1464,0,0
-266,-440,0,0,0,0,0,0,0,0,0,-1,958,1464,0,0
-259,-440,0,0,0,0,0,0,0,0,0,-1,965,1464,0,0
-252,-440,0,0,0,0,0,0,0,0,0,-1,972,1464,0,0
-245,-440,0,0,0,0,0,0,0,0,0,-1,979,1464,0,0
-238,-440,0,0,0,0,0,0,0,0,0,-1,986,1464,0,0
-231,-440,0,0,0,0,0,0,0,0,0,-1,993,1464,0,0
-224,-440,0,0,0,0,0,0,0,0,0,-1,1000,1464,0,0
-217,-440,0,0,0,0,0,0,0,0,0,-1,1007,1464,0,0
-210,-440,0,0,0,0,0,0,0,0,0,-1,1014,1464,0,0
-203,-440,0,0,0,0,0,0,0,0,0,-1,1021,1464,0,0
-196,-440,0,0,0,0,0,0,0,0,0,-1,1028,1464,0,0
-189,-440,0,0,0,0,0,0,0,0,0,-1,1035,1464,0,0
-182,-440,0,0,0,0,0,0,0,0,0,-1,1042,1464,0,0
-175,-440,0,0,0,0,0,0,0,0,0,-1,1049,1464,0,0
-168,-440,0,0,0,0,0,0,0,0,0,-1,1056,1464,0,0
-161,-440,0,0,0,0,0,0,0,0,0,-1,1063,1464,0,0
-154,-440,0,0,0,0,0,0,0,0,0,-1,1070,1464,0,0
-147,-440,0,0,0,0,0,0,0,0,0,-1,1077,1464,0,0
-140,-440,0,0,0,0,0,0,0,0,0,-1,1084,1464,0,0
-133,-440,0,0,0,0,0,0,0,0,0,-1,1091,1464,0,0
-126,-440,0,0,0,0,0,0,0,0,0,-1,1098,1464,0,0
-119,-440,0,0,0,0,0,0,0,0,0,-1,1105,1464,0,0
-112,-440,0,0,0,0,0,0,0,0,0,-1,1112,1464,0,0
-105,-440,0,0,0,0,0,0,0,0,0,-1,1119,1464,0,0
-98,-440,0,0,0,0,0,0,0,0,0,-1,1126,1464,0,0
-91,-440,0,0,0,0,0,0,0,0,0,-1,1133,1464,0,0
-84,-440,0,0,0,0,0,0,0,0,0,-1,1140,1464,0,0
-77,-440,0,0,0,0,0,0,0,0,0,-1,1147,1464,0,0
-70,-440,0,0,0,0,0,0,0,0,0,-1,1154,1464,0,0
-63,-440,0,0,0,0,0,0,0,0,0,-1,1161,1464,0,0
-56,-440,0,0,0,0,0,0,0,0,0,-1,1168,1464,0,0
-49,-440,0,0,0,0,0,0,0,0,0,-1,1175,1464,0,0
-42,-440,0,0,0,0,0,0,0,0,0,-1,1182,1464,0,0
-35,-440,0,0,0,0,0,0,0,0,0,-1,1189,1464,0,0
-28,-440,0,0,0,0,0,0,0,0,0,-1,1196,1464,0,0
-21,-440,0,0,0,0,0,0,0,0,0,-1,1203,1464,0,0
-14,-440,0,0,0,0,0,0,0,0,0,-1,1210,1464,0,0
-7,-440,0,0,0,0,0,0,0,0,0,-1,1217,1464,0,0
0,-440,0,0,0,0,0,0,0,0,0,-1,1224,1464,0,0
7,-440,0,0,0,0,0,0,0,0,0,-1,1231,1464,0,0
14,-440,0,0,0,0,0,0,0,0,0,-1,1238,1464,0,0
21,-440,0,0,0,0,0,0,0,0,0,-1,1245,1464,0,0
28,-440,0,0,0,0,0,0,0,0,0,-1,1252,1464,0,0
35,-440,0,0,0,0,0,0,0,0,0,-1,1259,1464,0,0
42,-440,0,0,0,0,0,0,0,0,0,-1,1266,1464,0,0
49,-440,0,0,0,0,0,0,0,0,0,-1,1273,1464,0,0
56,-440,0,0,0,0,0,0,0,0,0,-1,1280,1464,0,0
63,-440,0,0,0,0,0,0,0,0,0,-1,1287,1464,0,0
70,-440,0,0,0,0,0,0,0,0,0,-1,1294,1464,0,0
77,-440,0,0,0,0,0,0,0,0,0,-1,1301,1464,0,0
84,-440,0,0,0,0,0,0,0,0,0,-1,1308,1464,0,0
91,-440,0,0,0,0,0,0,0,0,0,-1,1315,1464,0,0
98,-440,0,0,0,0,0,0,0,0,0,-1,1322,1464,0,0
105,-440,0,0,0,0,0,0,0,0,0,-1,1329,1464,0,0
112,-440,0,0,0,0,0,0,0,0,0,-1,1336,1464,0,0
119,-440,0,0,0,0,0,0,0,0,0,-1,1343,1464,0,0
126,-440,0,0,0,0,0,0,0,0,0,-1,1350,1464,0,0
133,-440,0,0,0,0,0,0,0,0,0,-1,1357,1464,0,0
140,-440,0,0,0,0,0,0,0,0,0,-1,1364,1464,0,0
147,-440,0,0,0,0,0,0,0,0,0,-1,1371,1464,0,0
154,-440,0,0,0,0,0,0,0,0,0,-1,1378,1464,0,0
161,-440,0,0,0,0,0,0,0,0,0,-1,1385,1464,0,0
168,-440,0,0,0,0,0,0,0,0,0,-1,1392,1464,0,0
175,-440,0,0,0,0,0,0,0,0,0,-1,1399,1464,0,0
182,-440,0,0,0,0,0,0,0,0,0,-1,1406,1464,0,0
189,-440,0,0,0,0,0,0,0,0,0,-1,1413,1464,0,0
196,-440,0,0,0,0,0,0,0,0,0,-1,1420,1464,0,0
203,-440,0,0,0,0,0,0,0,0,0,-1,1427,1464,0,0
210,-440,0,0,0,0,0,0,0,0,0,-1,1434,1464,0,0
217,-440,0,0,0,0,0,0,0,0,0,-1,1441,1464,0,0
224,-440,0,0,0,0,0,0,0,0,0,-1,1448,1464,0,0
231,-440,0,0,0,0,0,0,0,0,0,-1,1455,1464,0,0
238,-440,0,0,0,0,0,0,0,0,0,-1,1462,1464,0,0
245,-440,0,0,0,0,0,0,0,0,0,-1,1469,1464,0,0
252,-440,0,0,0,0,0,0,0,0,0,-1,1476,1464,0,0
259,-440,0,0,0,0,0,0,0,0,0,-1,1483,1464,0,0
266,-440,0,0,0,0,0,0,0,0,0,-1,1490,1464,0,0
273,-440,0,0,0,0,0,0,0,0,0,-1,1497,1464,0,0
280,-440,0,0,0,0,0,0,0,0,0,-1,1504,1464,0,0
287,-440,0,0,0,0,0,0,0,0,0,-1,1511,1464,0,0
294,-440,0,0,0,0,0,0,0,0,0,-1,1518,1464,0,0
301,-440,0,0,0,0,0,0,0,0,0,-1,1525,1464,0,0
308,-440,0,0,0,0,0,0,0,0,0,-1,1532,1464,0,0
315,-440,0,0,0,0,0,0,0,0,0,-1,1539,1464,0,0
322,-440,0,0,0,0,0,0,0,0,0,-1,1546,1464,0,0
329,-440,0,0,0,0,0,0,0,0,0,-1,1553,1464,0,0
336,-440,0,0,0,0,0,0,0,0,0,-1,1560,1464,0,0
343,-440,0,0,0,0,0,0,0,0,0,-1,1567,1464,0,0
350,-440,0,0,0,0,0,0,0,0,0,-1,1574,1464,0,0
357,-440,0,0,0,0,0,0,0,0,0,-1,1581,1464,0,0
364,-440,0,0,0,0,0,0,0,0,0,-1,1588,1464,0,0
371,-440,0,0,0,0,0,0,0,0,0,-1,1595,1464,0,0
378,-440,0,0,0,0,0,0,0,0,0,-1,1602,1464,0,0
385,-440,0,0,0,0,0,0,0,0,0,-1,1609,1464,0,0
392,-440,0,0,0,0,0,0,0,0,0,-1,1616,1464,0,0
399,-440,0,0,0,0,0,0,0,0,0,-1,1623,1464,0,0
406,-440,0,0,0,0,0,0,0,0,0,-1,1630,1464,0,0
413,-440,0,0,0,0,0,0,0,0,0,-1,1637,1464,0,0
420,-440,0,0,0,0,0,0,0,0,0,-1,1644,1464,0,0
427,-440,0,0,0,0,0,0,0,0,0,-1,1651,1464,0,0
434,-440,0,0,0,0,0,0,0,0,0,-1,1658,1464,0,0
441,-440,0,0,0,0,0,0,0,0,0,-1,1665,1464,0,0
448,-440,0,0,0,0,0,0,0,0,0,-1,1672,1464,0,0
455,-440,0,0,0,0,0,0,0,0,0,-1,1679,1464,0,0
462,-440,0,0,0,0,0,0,0,0,0,-1,1686,1464,0,0
469,-440,0,0,0,0,0,0,0,0,0,-1,1693,1464,0,0
476,-440,0,0,0,0,0,0,0,0,0,-1,1700,1464,0,0
483,-440,0,0,0,0,0,0,0,0,0,-1,1707,1464,0,0
490,-440,0,0,0,0,0,0,0,0,0,-1,1714,1464,0,0
497,-440,16.965,-0.528442,0,0,0,0,0,0,0,-1,1721,1464,16.965,0.528492
504,-440,15.8052,0.670166,0,0,0,0,0,0,0,-1,1728,1464,15.8052,-0.670145
511,-440,17.5754,2.77832,0,0,0,0,0,0,0,-1,1735,1464,17.5754,-2.77826
518,-440,16.9017,3.07861,0,0,0,0,0,0,0,-1,1742,1464,16.9018,-3.07859
525,-440,18.4495,12.0867,0,0,0,0,0,0,0,-1,1749,1464,18.4495,-12.0867
532,-440,15.4319,3.64392,0,0,0,0,0,0,0,-1,1756,1464,15.4318,-3.64391
539,-440,14.8214,3.41321,0,0,0,0,0,0,0,-1,1763,1464,14.8214,-3.4132
546,-440,14.8651,10.7683,0,0,0,0,0,0,0,-1,1770,1464,14.8651,-10.7683
553,-440,15.1213,11.4121,0,0,0,0,0,0,0,-1,1777,1464,15.1213,-11.4121
560,-440,17.4325,12.5394,0,0,0,0,0,0,0,-1,1784,1464,17.4325,-12.5394
567,-440,16.9025,12.4249,0,0,0,0,0,0,0,-1,1791,1464,16.9025,-12.425
574,-440,19.2841,14.8679,0,0,0,0,0,0,0,-1,1798,1464,19.2841,-14.868
581,-440,26.4432,21.3477,0,0,0,0,0,0,0,-1,1805,1464,26.4432,-21.3476
588,-440,28.1029,21.4819,0,0,0,0,0,0,0,-1,1812,1464,28.1029,-21.482
595,-440,28.3021,20.7527,0.00460568,0.00174837,-0.00273449,0.00626223,9.18142e-05,-0.544673,0.00414456,0.0318313,1819,1464,28.3021,-20.7527
602,-440,28.4016,20.0564,0.00372881,0.00116121,-0.00207597,0.00488586,4.1509e-06,-0.508475,0.00325586,0.0216171,1826,1464,28.4016,-20.0564
609,-440,28.389,19.4805,0.00310763,0.000652469,-0.00151348,0.00382879,-6.86898e-05,-0.444663,0.00257573,0.0175905,1833,1464,28.3891,-19.4804
616,-440,28.3538,18.8848,0.00260728,0.000307226,-0.00107338,0.00303037,-0.000115869,-0.37547,0.00205996,0.0182694,1840,1464,28.3537,-18.8847
623,-440,28.337,18.2512,0.00243435,4.76585e-05,-0.000718016,0.00263371,-0.000151698,-0.270828,0.0018085,0.0144223,1847,1464,28.337,-18.2512
630,-440,28.3041,17.6132,0.00251271,-0.000158695,-0.000457229,0.0025888,-0.000234786,-0.164905,0.00180921,0.0120966,1854,1464,28.3041,-17.6131
637,-440,28.2838,17.0459,0.00266717,-0.000201701,-0.000285938,0.00269539,-0.000229922,-0.0983798,0.00187826,0.0170453,1861,1464,28.2838,-17.0459
644,-440,28.2794,16.475,0.00299505,-7.47342e-05,-0.000167501,0.00300416,-8.38466e-05,-0.0543492,0.0020313,0.0158168,1868,1464,28.2794,-16.4749
651,-440,28.2877,15.8126,0.00354899,0.000280085,-0.000261009,0.00356969,0.000259376,-0.0791777,0.00229822,0.0204226,1875,1464,28.2878,-15.8126
658,-440,28.3765,15.0692,0,0,0,0,0,0,0,-1,1882,1464,28.3765,-15.0693
665,-440,24.2067,12.5813,0,0,0,0,0,0,0,-1,1889,1464,24.2067,-12.5813
672,-440,18.9385,9.6394,0,0,0,0,0,0,0,-1,1896,1464,18.9384,-9.63939
679,-440,16.9508,10.2336,0,0,0,0,0,0,0,-1,1903,1464,16.9508,-10.2337
686,-440,15.2556,8.44177,0,0,0,0,0,0,0,-1,1910,1464,15.2556,-8.44177
693,-440,9.88635,2.89795,0,0,0,0,0,0,0,-1,1917,1464,9.88638,-2.89798
700,-440,7.07825,-2.62061,0,0,0,0,0,0,0,-1,1924,1464,7.07829,2.62057
707,-440,0,0,0,0,0,0,0,0,0,-1,1931,1464,0,0
714,-440,0,0,0,0,0,0,0,0,0,-1,1938,1464,0,0
721,-440,0,0,0,0,0,0,0,0,0,-1,1945,1464,0,0
728,-440,0,0,0,0,0,0,0,0,0,-1,1952,1464,0,0
735,-440,0,0,0,0,0,0,0,0,0,-1,1959,1464,0,0
742,-440,0,0,0,0,0,0,0,0,0,-1,1966,1464,0,0
749,-440,0,0,0,0,0,0,0,0,0,-1,1973,1464,0,0
756,-440,0,0,0,0,0,0,0,0,0,-1,1980,1464,0,0
763,-440,0,0,0,0,0,0,0,0,0,-1,1987,1464,0,0
770,-440,0,0,0,0,0,0,0,0,0,-1,1994,1464,0,0
777,-440,0,0,0,0,0,0,0,0,0,-1,2001,1464,0,0
784,-440,0,0,0,0,0,0,0,0,0,-1,2008,1464,0,0
791,-440,0,0,0,0,0,0,0,0,0,-1,2015,1464,0,0
798,-440,0,0,0,0,0,0,0,0,0,-1,2022,1464,0,0
805,-440,0,0,0,0,0,0,0,0,0,-1,2029,1464,0,0
812,-440,0,0,0,0,0,0,0,0,0,-1,2036,1464,0,0
-700,-447,0,0,0,0,0,0,0,0,0,-1,524,1471,0,0
-693,-447,0,0,0,0,0,0,0,0,0,-1,531,1471,0,0
-686,-447,0,0,0,0,0,0,0,0,0,-1,538,1471,0,0
-679,-447,0,0,0,0,0,0,0,0,0,-1,545,1471,0,0
-672,-447,0,0,0,0,0,0,0,0,0,-1,552,1471,0,0
-665,-447,0,0,0,0,0,0,0,0,0,-1,559,1471,0,0
-658,-447,0,0,0,0,0,0,0,0,0,-1,566,1471,0,0
-651,-447,0,0,0,0,0,0,0,0,0,-1,573,1471,0,0
-644,-447,0,0,0,0,0,0,0,0,0,-1,580,1471,0,0
-637,-447,0,0,0,0,0,0,0,0,0,-1,587,1471,0,0
-630,-447,0,0,0,0,0,0,0,0,0,-1,594,1471,0,0
-623,-447,0,0,0,0,0,0,0,0,0,-1,601,1471,0,0
-616,-447,0,0,0,0,0,0,0,0,0,-1,608,1471,0,0
-609,-447,0,0,0,0,0,0,0,0,0,-1,615,1471,0,0
-602,-447,0,0,0,0,0,0,0,0,0,-1,622,1471,0,0
-595,-447,0,0,0,0,0,0,0,0,0,-1,629,1471,0,0
-588,-447,0,0,0,0,0,0,0,0,0,-1,636,1471,0,0
-581,-447,-7.06482,-1.50476,0,0,0,0,0,0,0,-1,643,1471,-7.0648,1.50474
-574,-447,-6.88092,-0.00585938,0,0,0,0,0,0,0,-1,650,1471,-6.88095,0.00589852
-567,-447,-6.8205,-1.32178,0,0,0,0,0,0,0,-1,657,1471,-6.82047,1.32172
-560,-447,-8.85748,2.80774,0,0,0,0,0,0,0,-1,664,1471,-8.85748,-2.80775
-553,-447,-7.60486,3.26794,0,0,0,0,0,0,0,-1,671,1471,-7.60487,-3.26799
-546,-447,-3.94501,1.8656,0,0,0,0,0,0,0,-1,678,1471,-3.945,-1.86554
-539,-447,-5.35492,4.50024,0,0,0,0,0,0,0,-1,685,1471,-5.35492,-4.50018
-532,-447,-6.12781,8.81091,0,0,0,0,0,0,0,-1,692,1471,-6.12781,-8.81094
-525,-447,-9.44501,12.098,0,0,0,0,0,0,0,-1,699,1471,-9.44502,-12.098
-518,-447,-10.9924,14.1116,0,0,0,0,0,0,0,-1,706,1471,-10.9924,-14.1116
-511,-447,-10.9488,14.8441,0.00225011,0.0006515,0.00233416,0.00391803,-0.00101642,0.620437,0.00300861,0.0238122,713,1471,-10.9488,-14.8441
-504,-447,-10.9514,15.6289,0.00174209,0.000403191,0.00170796,0.00290711,-0.000761829,0.598621,0.00223571,0.0218254,720,1471,-10.9514,-15.6289
-497,-447,-11.0426,16.2931,0.00157546,0.000403846,0.00138743,0.00249569,-0.000516377,0.585639,0.00185997,0.0271545,727,1471,-11.0426,-16.2931
-490,-447,-10.9769,16.7732,0.00158983,0.000600355,0.00126216,0.00245075,-0.000260566,0.598613,0.00172725,0.0262362,734,1471,-10.977,-16.7732
-483,-447,-11.0609,17.4036,0.00182525,0.00101301,0.0013446,0.00282372,1.45404e-05,0.638737,0.00187765,0.0233011,741,1471,-11.0609,-17.4035
-476,-447,-11.0881,18.0938,0.00228079,0.00164561,0.00168401,0.00367689,0.000249506,0.692198,0.00237247,0.0153416,748,1471,-11.0881,-18.0938
-469,-447,-11.1151,18.774,0.00293699,0.00254472,0.00224898,0.00499837,0.000483344,0.741903,0.00318339,0.0142303,755,1471,-11.1151,-18.774
-462,-447,-11.1567,19.4364,0.00386843,0.00367649,0.00308964,0.00686358,0.000681331,0.769872,0.00436637,0.0138619,762,1471,-11.1567,-19.4364
-455,-447,-11.195,20.0754,0.00507594,0.00513051,0.00425249,0.00935581,0.000850649,0.788606,0.00597388,0.0234863,769,1471,-11.195,-20.0754
-448,-447,-11.1113,20.9089,0,0,0,0,0,0,0,-1,776,1471,-11.1113,-20.9089
-441,-447,-8.68506,19.0931,0,0,0,0,0,0,0,-1,783,1471,-8.68504,-19.0932
-434,-447,-7.43402,15.6273,0,0,0,0,0,0,0,-1,790,1471,-7.43404,-15.6274
-427,-447,-7.21832,14.691,0,0,0,0,0,0,0,-1,797,1471,-7.21834,-14.6911
-420,-447,-8.0545,12.8055,0,0,0,0,0,0,0,-1,804,1471,-8.05452,-12.8055
-413,-447,-4.27393,6.59705,0,0,0,0,0,0,0,-1,811,1471,-4.27392,-6.59707
-406,-447,-1.04279,6.18591,0,0,0,0,0,0,0,-1,818,1471,-1.04276,-6.18586
-399,-447,0.0134888,0.687622,0,0,0,0,0,0,0,-1,825,1471,0.0134841,-0.68767
-392,-447,-14.0646,3.76147,0,0,0,0,0,0,0,-1,832,1471,-14.0646,-3.7615
-385,-447,-15.1695,2.61865,0,0,0,0,0,0,0,-1,839,1471,-15.1695,-2.61871
-378,-447,-15.9424,1.49316,0,0,0,0,0,0,0,-1,846,1471,-15.9424,-1.49313
-371,-447,-17.3655,0.73291,0,0,0,0,0,0,0,-1,853,1471,-17.3655,-0.732946
-364,-447,0,0,0,0,0,0,0,0,0,-1,860,1471,0,0
-357,-447,0,0,0,0,0,0,0,0,0,-1,867,1471,0,0
-350,-447,0,0,0,0,0,0,0,0,0,-1,874,1471,0,0
-343,-447,0,0,0,0,0,0,0,0,0,-1,881,1471,0,0
-336,-447,0,0,0,0,0,0,0,0,0,-1,888,1471,0,0
-329,-447,0,0,0,0,0,0,0,0,0,-1,895,1471,0,0
-322,-447,0,0,0,0,0,0,0,0,0,-1,902,1471,0,0
-315,-447,0,0,0,0,0,0,0,0,0,-1,909,1471,0,0
-308,-447,0,0,0,0,0,0,0,0,0,-1,916,1471,0,0
-301,-447,0,0,0,0,0,0,0,0,0,-1,923,1471,0,0
-294,-447,0,0,0,0,0,0,0,0,0,-1,930,1471,0,0
-287,-447,0,0,0,0,0,0,0,0,0,-1,937,1471,0,0
-280,-447,0,0,0,0,0,0,0,0,0,-1,944,1471,0,0
-273,-447,0,0,0,0,0,0,0,0,0,-1,951,1471,0,0
-266,-447,0,0,0,0,0,0,0,0,0,-1,958,1471,0,0
-259,-447,0,0,0,0,0,0,0,0,0,-1,965,1471,0,0
-252,-447,0,0,0,0,0,0,0,0,0,-1,972,1471,0,0
-245,-447,0,0,0,0,0,0,0,0,0,-1,979,1471,0,0
-238,-447,0,0,0,0,0,0,0,0,0,-1,986,1471,0,0
-231,-447,0,0,0,0,0,0,0,0,0,-1,993,1471,0,0
-224,-447,0,0,0,0,0,0,0,0,0,-1,1000,1471,0,0
-217,-447,0,0,0,0,0,0,0,0,0,-1,1007,1471,0,0
-210,-447,0,0,0,0,0,0,0,0,0,-1,1014,1471,0,0
-203,-447,0,0,0,0,0,0,0,0,0,-1,1021,1471,0,0
-196,-447,0,0,0,0,0,0,0,0,0,-1,1028,1471,0,0
-189,-447,0,0,0,0,0,0,0,0,0,-1,1035,1471,0,0
-182,-447,0,0,0,0,0,0,0,0,0,-1,1042,1471,0,0
-175,-447,0,0,0,0,0,0,0,0,0,-1,1049,1471,0,0
-168,-447,0,0,0,0,0,0,0,0,0,-1,1056,1471,0,0
-161,-447,0,0,0,0,0,0,0,0,0,-1,1063,1471,0,0
-154,-447,0,0,0,0,0,0,0,0,0,-1,1070,1471,0,0
-147,-447,0,0,0,0,0,0,0,0,0,-1,1077,1471,0,0
-140,-447,0,0,0,0,0,0,0,0,0,-1,1084,1471,0,0
-133,-447,0,0,0,0,0,0,0,0,0,-1,1091,1471,0,0
-126,-447,0,0,0,0,0,0,0,0,0,-1,1098,1471,0,0
-119,-447,0,0,0,0,0,0,0,0,0,-1,1105,1471,0,0
-112,-447,0,0,0,0,0,0,0,0,0,-1,1112,1471,0,0
-105,-447,0,0,0,0,0,0,0,0,0,-1,1119,1471,0,0
-98,-447,0,0,0,0,0,0,0,0,0,-1,1126,1471,0,0
-91,-447,0,0,0,0,0,0,0,0,0,-1,1133,1471,0,0
-84,-447,0,0,0,0,0,0,0,0,0,-1,1140,1471,0,0
-77,-447,0,0,0,0,0,0,0,0,0,-1,1147,1471,0,0
-70,-447,0,0,0,0,0,0,0,0,0,-1,1154,1471,0,0
-63,-447,0,0,0,0,0,0,0,0,0,-1,1161,1471,0,0
-56,-447,0,0,0,0,0,0,0,0,0,-1,1168,1471,0,0
-49,-447,0,0,0,0,0,0,0,0,0,-1,1175,1471,0,0
-42,-447,0,0,0,0,0,0,0,0,0,-1,1182,1471,0,0
-35,-447,0,0,0,0,0,0,0,0,0,-1,1189,1471,0,0
-28,-447,0,0,0,0,0,0,0,0,0,-1,1196,1471,0,0
-21,-447,0,0,0,0,0,0,0,0,0,-1,1203,1471,0,0
-14,-447,0,0,0,0,0,0,0,0,0,-1,1210,1471,0,0
-7,-447,0,0,0,0,0,0,0,0,0,-1,1217,1471,0,0
0,-447,0,0,0,0,0,0,0,0,0,-1,1224,1471,0,0
7,-447,0,0,0,0,0,0,0,0,0,-1,1231,1471,0,0
14,-447,0,0,0,0,0,0,0,0,0,-1,1238,1471,0,0
21,-447,0,0,0,0,0,0,0,0,0,-1,1245,1471,0,0
28,-447,0,0,0,0,0,0,0,0,0,-1,1252,1471,0,0
35,-447,0,0,0,0,0,0,0,0,0,-1,1259,1471,0,0
42,-447,0,0,0,0,0,0,0,0,0,-1,1266,1471,0,0
49,-447,0,0,0,0,0,0,0,0,0,-1,1273,1471,0,0
56,-447,0,0,0,0,0,0,0,0,0,-1,1280,1471,0,0
63,-447,0,0,0,0,0,0,0,0,0,-1,1287,1471,0,0
70,-447,0,0,0,0,0,0,0,0,0,-1,1294,1471,0,0
77,-447,0,0,0,0,0,0,0,0,0,-1,1301,1471,0,0
84,-447,0,0,0,0,0,0,0,0,0,-1,1308,1471,0,0
91,-447,0,0,0,0,0,0,0,0,0,-1,1315,1471,0,0
98,-447,0,0,0,0,0,0,0,0,0,-1,1322,1471,0,0
105,-447,0,0,0,0,0,0,0,0,0,-1,1329,1471,0,0
112,-447,0,0,0,0,0,0,0,0,0,-1,1336,1471,0,0
119,-447,0,0,0,0,0,0,0,0,0,-1,1343,1471,0,0
126,-447,0,0,0,0,0,0,0,0,0,-1,1350,1471,0,0
133,-447,0,0,0,0,0,0,0,0,0,-1,1357,1471,0,0
140,-447,0,0,0,0,0,0,0,0,0,-1,1364,1471,0,0
147,-447,0,0,0,0,0,0,0,0,0,-1,1371,1471,0,0
154,-447,0,0,0,0,0,0,0,0,0,-1,1378,1471,0,0
161,-447,0,0,0,0,0,0,0,0,0,-1,1385,1471,0,0
168,-447,0,0,0,0,0,0,0,0,0,-1,1392,1471,0,0
175,-447,0,0,0,0,0,0,0,0,0,-1,1399,1471,0,0
182,-447,0,0,0,0,0,0,0,0,0,-1,1406,1471,0,0
189,-447,0,0,0,0,0,0,0,0,0,-1,1413,1471,0,0
196,-447,0,0,0,0,0,0,0,0,0,-1,1420,1471,0,0
203,-447,0,0,0,0,0,0,0,0,0,-1,1427,1471,0,0
210,-447,0,0,0,0,0,0,0,0,0,-1,1434,1471,0,0
217,-447,0,0,0,0,0,0,0,0,0,-1,1441,1471,0,0
224,-447,0,0,0,0,0,0,0,0,0,-1,1448,1471,0,0
231,-447,0,0,0,0,0,0,0,0,0,-1,1455,1471,0,0
238,-447,0,0,0,0,0,0,0,0,0,-1,1462,1471,0,0
245,-447,0,0,0,0,0,0,0,0,0,-1,1469,1471,0,0
252,-447,0,0,0,0,0,0,0,0,0,-1,1476,1471,0,0
259,-447,0,0,0,0,0,0,0,0,0,-1,1483,1471,0,0
266,-447,0,0,0,0,0,0,0,0,0,-1,1490,1471,0,0
273,-447,0,0,0,0,0,0,0,0,0,-1,1497,1471,0,0
280,-447,0,0,0,0,0,0,0,0,0,-1,1504,1471,0,0
287,-447,0,0,0,0,0,0,0,0,0,-1,1511,1471,0,0
294,-447,0,0,0,0,0,0,0,0,0,-1,1518,1471,0,0
301,-447,0,0,0,0,0,0,0,0,0,-1,1525,1471,0,0
308,-447,0,0,0,0,0,0,0,0,0,-1,1532,1471,0,0
315,-447,0,0,0,0,0,0,0,0,0,-1,1539,1471,0,0
322,-447,0,0,0,0,0,0,0,0,0,-1,1546,1471,0,0
329,-447,0,0,0,0,0,0,0,0,0,-1,1553,1471,0,0
336,-447,0,0,0,0,0,0,0,0,0,-1,1560,1471,0,0
343,-447,0,0,0,0,0,0,0,0,0,-1,1567,1471,0,0
350,-447,0,0,0,0,0,0,0,0,0,-1,1574,1471,0,0
357,-447,0,0,0,0,0,0,0,0,0,-1,1581,1471,0,0
364,-447,0,0,0,0,0,0,0,0,0,-1,1588,1471,0,0
371,-447,0,0,0,0,0,0,0,0,0,-1,1595,1471,0,0
378,-447,0,0,0,0,0,0,0,0,0,-1,1602,1471,0,0
385,-447,0,0,0,0,0,0,0,0,0,-1,1609,1471,0,0
392,-447,0,0,0,0,0,0,0,0,0,-1,1616,1471,0,0
399,-447,0,0,0,0,0,0,0,0,0,-1,1623,1471,0,0
406,-447,0,0,0,0,0,0,0,0,0,-1,1630,1471,0,0
413,-447,0,0,0,0,0,0,0,0,0,-1,1637,1471,0,0
420,-447,0,0,0,0,0,0,0,0,0,-1,1644,1471,0,0
427,-447,0,0,0,0,0,0,0,0,0,-1,1651,1471,0,0
434,-447,0,0,0,0,0,0,0,0,0,-1,1658,1471,0,0
441,-447,0,0,0,0,0,0,0,0,0,-1,1665,1471,0,0
448,-447,0,0,0,0,0,0,0,0,0,-1,1672,1471,0,0
455,-447,0,0,0,0,0,0,0,0,0,-1,1679,1471,0,0
462,-447,0,0,0,0,0,0,0,0,0,-1,1686,1471,0,0
469,-447,0,0,0,0,0,0,0,0,0,-1,1693,1471,0,0
476,-447,0,0,0,0,0,0,0,0,0,-1,1700,1471,0,0
483,-447,0,0,0,0,0,0,0,0,0,-1,1707,1471,0,0
490,-447,18.2214,-0.810303,0,0,0,0,0,0,0,-1,1714,1471,18.2215,0.810307
497,-447,17.0237,0.352417,0,0,0,0,0,0,0,-1,1721,1471,17.0237,-0.352442
504,-447,15.8998,1.53479,0,0,0,0,0,0,0,-1,1728,1471,15.8997,-1.53478
511,-447,14.7201,2.76111,0,0,0,0,0,0,0,-1,1735,1471,14.7201,-2.76107
518,-447,17.7618,13.2864,0,0,0,0,0,0,0,-1,1742,1471,17.7619,-13.2863
525,-447,17.1191,11.9014,0,0,0,0,0,0,0,-1,1749,1471,17.1191,-11.9013
532,-447,16.3959,10.0455,0,0,0,0,0,0,0,-1,1756,1471,16.3959,-10.0456
539,-447,14.1699,10.0204,0,0,0,0,0,0,0,-1,1763,1471,14.1699,-10.0204
546,-447,16.3715,11.8046,0,0,0,0,0,0,0,-1,1770,1471,16.3714,-11.8046
553,-447,17.5106,13.4012,0,0,0,0,0,0,0,-1,1777,1471,17.5107,-13.4012
560,-447,17.0187,13.168,0,0,0,0,0,0,0,-1,1784,1471,17.0187,-13.168
567,-447,18.9286,15.1703,0,0,0,0,0,0,0,-1,1791,1471,18.9286,-15.1703
574,-447,27.4843,23.1012,0,0,0,0,0,0,0,-1,1798,1471,27.4843,-23.1012
581,-447,27.6282,22.0326,0,0,0,0,0,0,0,-1,1805,1471,27.6282,-22.0326
588,-447,27.786,21.3677,0.00521551,0.00175018,-0.00256859,0.00658119,0.000384494,-0.488675,0.00426508,0.0300367,1812,1471,27.786,-21.3676
595,-447,27.7988,20.7224,0.00410646,0.00140105,-0.00218617,0.00532458,0.000182933,-0.50835,0.00349034,0.0138805,1819,1471,27.7988,-20.7224
602,-447,27.7744,20.1003,0.00340898,0.000912367,-0.00171381,0.00428091,4.04329e-05,-0.470638,0.00284056,0.0124707,1826,1471,27.7744,-20.1004
609,-447,27.7484,19.493,0.00294245,0.000503029,-0.00127752,0.00348903,-4.35434e-05,-0.404272,0.00234067,0.0136775,1833,1471,27.7484,-19.493
616,-447,27.7517,18.8857,0.00259457,0.000231363,-0.000931664,0.00291769,-9.17545e-05,-0.333837,0.00197642,0.0157844,1840,1471,27.7517,-18.8858
623,-447,27.7424,18.2953,0.00256006,-9.2909e-06,-0.000618641,0.00270126,-0.000150486,-0.224391,0.00185304,0.0174631,1847,1471,27.7424,-18.2953
630,-447,27.6863,17.6715,0.00274612,-0.000202497,-0.000363451,0.00279026,-0.000246636,-0.120852,0.0019476,0.0105153,1854,1471,27.6863,-17.6715
637,-447,27.6864,17.0728,0.00298967,-0.000260438,-0.000181246,0.00299975,-0.000270514,-0.0555366,0.00209583,0.0114073,1861,1471,27.6864,-17.0727
644,-447,27.6919,16.4838,0.00339513,-0.000110903,-8.73877e-05,0.0033973,-0.00011308,-0.0249044,0.00230349,0.0123241,1868,1471,27.6918,-16.4837
651,-447,27.7424,15.8224,0.00405674,0.000280256,-0.000224134,0.00407,0.000267,-0.0590735,0.00262886,0.0488999,1875,1471,27.7424,-15.8224
658,-447,27.9441,15.0514,0,0,0,0,0,0,0,-1,1882,1471,27.9441,-15.0514
665,-447,18.4946,9.79919,0,0,0,0,0,0,0,-1,1889,1471,18.4946,-9.79922
672,-447,18.9784,9.66077,0,0,0,0,0,0,0,-1,1896,1471,18.9784,-9.66081
679,-447,14.844,7.4248,0,0,0,0,0,0,0,-1,1903,1471,14.844,-7.42477
686,-447,9.81079,4.30859,0,0,0,0,0,0,0,-1,1910,1471,9.8108,-4.30864
693,-447,10.48,2.08643,0,0,0,0,0,0,0,-1,1917,1471,10.48,-2.08642
700,-447,0,0,0,0,0,0,0,0,0,-1,1924,1471,0,0
707,-447,0,0,0,0,0,0,0,0,0,-1,1931,1471,0,0
714,-447,0,0,0,0,0,0,0,0,0,-1,1938,1471,0,0
721,-447,0,0,0,0,0,0,0,0,0,-1,1945,1471,0,0
728,-447,0,0,0,0,0,0,0,0,0,-1,1952,1471,0,0
735,-447,0,0,0,0,0,0,0,0,0,-1,1959,1471,0,0
742,-447,0,0,0,0,0,0,0,0,0,-1,1966,1471,0,0
749,-447,0,0,0,0,0,0,0,0,0,-1,1973,1471,0,0
756,-447,0,0,0,0,0,0,0,0,0,-1,1980,1471,0,0
763,-447,0,0,0,0,0,0,0,0,0,-1,1987,1471,0,0
770,-447,0,0,0,0,0,0,0,0,0,-1,1994,1471,0,0
777,-447,0,0,0,0,0,0,0,0,0,-1,2001,1471,0,0
784,-447,0,0,0,0,0,0,0,0,0,-1,2008,1471,0,0
791,-447,0,0,0,0,0,0,0,0,0,-1,2015,1471,0,0
798,-447,0,0,0,0,0,0,0,0,0,-1,2022,1471,0,0
805,-447,0,0,0,0,0,0,0,0,0,-1,2029,1471,0,0
812,-447,0,0,0,0,0,0,0,0,0,-1,2036,1471,0,0
-700,-454,0,0,0,0,0,0,0,0,0,-1,524,1478,0,0
-693,-454,0,0,0,0,0,0,0,0,0,-1,531,1478,0,0
-686,-454,0,0,0,0,0,0,0,0,0,-1,538,1478,0,0
-679,-454,0,0,0,0,0,0,0,0,0,-1,545,1478,0,0
-672,-454,0,0,0,0,0,0,0,0,0,-1,552,1478,0,0
-665,-454,0,0,0,0,0,0,0,0,0,-1,559,1478,0,0
-658,-454,0,0,0,0,0,0,0,0,0,-1,566,1478,0,0
-651,-454,0,0,0,0,0,0,0,0,0,-1,573,1478,0,0
-644,-454,0,0,0,0,0,0,0,0,0,-1,580,1478,0,0
-637,-454,0,0,0,0,0,0,0,0,0,-1,587,1478,0,0
-630,-454,0,0,0,0,0,0,0,0,0,-1,594,1478,0,0
-623,-454,0,0,0,0,0,0,0,0,0,-1,601,1478,0,0
-616,-454,0,0,0,0,0,0,0,0,0,-1,608,1478,0,0
-609,-454,0,0,0,0,0,0,0,0,0,-1,615,1478,0,0
-602,-454,0,0,0,0,0,0,0,0,0,-1,622,1478,0,0
-595,-454,0,0,0,0,0,0,0,0,0,-1,629,1478,0,0
-588,-454,0,0,0,0,0,0,0,0,0,-1,636,1478,0,0
-581,-454,0,0,0,0,0,0,0,0,0,-1,643,1478,0,0
-574,-454,-8.4881,-0.465942,0,0,0,0,0,0,0,-1,650,1478,-8.4881,0.465885
-567,-454,-8.10046,0.922974,0,0,0,0,0,0,0,-1,657,1478,-8.10047,-0.923034
-560,-454,-10.656,3.51172,0,0,0,0,0,0,0,-1,664,1478,-10.656,-3.51176
-553,-454,-9.01129,3.95251,0,0,0,0,0,0,0,-1,671,1478,-9.0113,-3.95256
-546,-454,-9.61896,6.05237,0,0,0,0,0,0,0,-1,678,1478,-9.61897,-6.05239
-539,-454,-7.72589,4.96533,0,0,0,0,0,0,0,-1,685,1478,-7.72592,-4.96532
-532,-454,-7.03931,7.59985,0,0,0,0,0,0,0,-1,692,1478,-7.03929,-7.59981
-525,-454,-5.78723,9.677,0,0,0,0,0,0,0,-1,699,1478,-5.78722,-9.67703
-518,-454,-9.82098,13.8295,0,0,0,0,0,0,0,-1,706,1478,-9.82098,-13.8295
-511,-454,-10.3976,14.8668,0,0,0,0,0,0,0,-1,713,1478,-10.3977,-14.8668
-504,-454,-10.3243,15.5861,0.00172435,0.000110955,0.00182467,0.00291269,-0.00107738,0.577263,0.00238352,0.0201817,720,1478,-10.3243,-15.5861
-497,-454,-10.4008,16.2959,0.00147088,5.58092e-05,0.00138079,0.00231485,-0.000788165,0.548633,0.00186241,0.0217503,727,1478,-10.4008,-16.296
-490,-454,-10.3929,16.876,0.00141691,0.000184122,0.00114159,0.00209789,-0.000496851,0.537853,0.00159029,0.0197983,734,1478,-10.3929,-16.876
-483,-454,-10.4294,17.5002,0.00157608,0.000543879,0.0011514,0.00232176,-0.000201799,0.574705,0.0016193,0.0168922,741,1478,-10.4295,-17.5002
-476,-454,-10.4855,18.1223,0.00194805,0.00112376,0.00142873,0.0030229,4.89207e-05,0.644976,0.00199916,0.0142542,748,1478,-10.4856,-18.1223
-469,-454,-10.4991,18.7827,0.00251257,0.00197798,0.00194336,0.00420694,0.000283614,0.717056,0.00271503,0.0109233,755,1478,-10.4991,-18.7827
-462,-454,-10.5253,19.4532,0.00332089,0.00300576,0.00269716,0.00586508,0.000461563,0.756222,0.00376564,0.0114092,762,1478,-10.5253,-19.4533
-455,-454,-10.5533,20.0986,0.00438875,0.00430171,0.00374264,0.00808812,0.000602331,0.779585,0.00520294,0.0129787,769,1478,-10.5533,-20.0987
-448,-454,-10.5332,20.7809,0.00580364,0.00609999,0.00528223,0.0112361,0.00066751,0.79942,0.00727845,0.0233699,776,1478,-10.5332,-20.7809
-441,-454,-10.229,21.9305,0,0,0,0,0,0,0,-1,783,1478,-10.229,-21.9306
-434,-454,-7.55743,19.4857,0,0,0,0,0,0,0,-1,790,1478,-7.55746,-19.4858
-427,-454,-6.00183,15.8636,0,0,0,0,0,0,0,-1,797,1478,-6.00184,-15.8637
-420,-454,-6.28088,15.2135,0,0,0,0,0,0,0,-1,804,1478,-6.28087,-15.2135
-413,-454,-5.4408,13.674,0,0,0,0,0,0,0,-1,811,1478,-5.44079,-13.6739
-406,-454,-2.38208,10.0308,0,0,0,0,0,0,0,-1,818,1478,-2.38209,-10.0308
-399,-454,-1.21033,6.95447,0,0,0,0,0,0,0,-1,825,1478,-1.21035,-6.95452
-392,-454,0.0967407,0.985474,0,0,0,0,0,0,0,-1,832,1478,0.0967364,-0.985529
-385,-454,2.38629,3.297,0,0,0,0,0,0,0,-1,839,1478,2.38629,-3.29702
-378,-454,-15.9756,2.83997,0,0,0,0,0,0,0,-1,846,1478,-15.9756,-2.83994
-371,-454,-17.2753,2.01453,0,0,0,0,0,0,0,-1,853,1478,-17.2753,-2.01455
-364,-454,1.08124,0.819458,0,0,0,0,0,0,0,-1,860,1478,1.08124,-0.819513
-357,-454,0,0,0,0,0,0,0,0,0,-1,867,1478,0,0
-350,-454,0,0,0,0,0,0,0,0,0,-1,874,1478,0,0
-343,-454,0,0,0,0,0,0,0,0,0,-1,881,1478,0,0
-336,-454,0,0,0,0,0,0,0,0,0,-1,888,1478,0,0
-329,-454,0,0,0,0,0,0,0,0,0,-1,895,1478,0,0
-322,-454,0,0,0,0,0,0,0,0,0,-1,902,1478,0,0
-315,-454,0,0,0,0,0,0,0,0,0,-1,909,1478,0,0
-308,-454,0,0,0,0,0,0,0,0,0,-1,916,1478,0,0
-301,-454,0,0,0,0,0,0,0,0,0,-1,923,1478,0,0
-294,-454,0,0,0,0,0,0,0,0,0,-1,930,1478,0,0
-287,-454,0,0,0,0,0,0,0,0,0,-1,937,1478,0,0
-280,-454,0,0,0,0,0,0,0,0,0,-1,944,1478,0,0
-273,-454,0,0,0,0,0,0,0,0,0,-1,951,1478,0,0
-266,-454,0,0,0,0,0,0,0,0,0,-1,958,1478,0,0
-259,-454,0,0,0,0,0,0,0,0,0,-1,965,1478,0,0
-252,-454,0,0,0,0,0,0,0,0,0,-1,972,1478,0,0
-245,-454,0,0,0,0,0,0,0,0,0,-1,979,1478,0,0
-238,-454,0,0,0,0,0,0,0,0,0,-1,986,1478,0,0
-231,-454,0,0,0,0,0,0,0,0,0,-1,993,1478,0,0
-224,-454,0,0,0,0,0,0,0,0,0,-1,1000,1478,0,0
-217,-454,0,0,0,0,0,0,0,0,0,-1,1007,1478,0,0
-210,-454,0,0,0,0,0,0,0,0,0,-1,1014,1478,0,0
-203,-454,0,0,0,0,0,0,0,0,0,-1,1021,1478,0,0
-196,-454,0,0,0,0,0,0,0,0,0,-1,1028,1478,0,0
-189,-454,0,0,0,0,0,0,0,0,0,-1,1035,1478,0,0
-182,-454,0,0,0,0,0,0,0,0,0,-1,1042,1478,0,0
-175,-454,0,0,0,0,0,0,0,0,0,-1,1049,1478,0,0
-168,-454,0,0,0,0,0,0,0,0,0,-1,1056,1478,0,0
-161,-454,0,0,0,0,0,0,0,0,0,-1,1063,1478,0,0
-154,-454,0,0,0,0,0,0,0,0,0,-1,1070,1478,0,0
-147,-454,0,0,0,0,0,0,0,0,0,-1,1077,1478,0,0
-140,-454,0,0,0,0,0,0,0,0,0,-1,1084,1478,0,0
-133,-454,0,0,0,0,0,0,0,0,0,-1,1091,1478,0,0
-126,-454,0,0,0,0,0,0,0,0,0,-1,1098,1478,0,0
-119,-454,0,0,0,0,0,0,0,0,0,-1,1105,1478,0,0
-112,-454,0,0,0,0,0,0,0,0,0,-1,1112,1478,0,0
-105,-454,0,0,0,0,0,0,0,0,0,-1,1119,1478,0,0
-98,-454,0,0,0,0,0,0,0,0,0,-1,1126,1478,0,0
-91,-454,0,0,0,0,0,0,0,0,0,-1,1133,1478,0,0
-84,-454,0,0,0,0,0,0,0,0,0,-1,1140,1478,0,0
-77,-454,0,0,0,0,0,0,0,0,0,-1,1147,1478,0,0
-70,-454,0,0,0,0,0,0,0,0,0,-1,1154,1478,0,0
-63,-454,0,0,0,0,0,0,0,0,0,-1,1161,1478,0,0
-56,-454,0,0,0,0,0,0,0,0,0,-1,1168,1478,0,0
-49,-454,0,0,0,0,0,0,0,0,0,-1,1175,1478,0,0
-42,-454,0,0,0,0,0,0,0,0,0,-1,1182,1478,0,0
-35,-454,0,0,0,0,0,0,0,0,0,-1,1189,1478,0,0
-28,-454,0,0,0,0,0,0,0,0,0,-1,1196,1478,0,0
-21,-454,0,0,0,0,0,0,0,0,0,-1,1203,1478,0,0
-14,-454,0,0,0,0,0,0,0,0,0,-1,1210,1478,0,0
-7,-454,0,0,0,0,0,0,0,0,0,-1,1217,1478,0,0
0,-454,0,0,0,0,0,0,0,0,0,-1,1224,1478,0,0
7,-454,0,0,0,0,0,0,0,0,0,-1,1231,1478,0,0
14,-454,0,0,0,0,0,0,0,0,0,-1,1238,1478,0,0
21,-454,0,0,0,0,0,0,0,0,0,-1,1245,1478,0,0
28,-454,0,0,0,0,0,0,0,0,0,-1,1252,1478,0,0
35,-454,0,0,0,0,0,0,0,0,0,-1,1259,1478,0,0
42,-454,0,0,0,0,0,0,0,0,0,-1,1266,1478,0,0
49,-454,0,0,0,0,0,0,0,0,0,-1,1273,1478,0,0
56,-454,0,0,0,0,0,0,0,0,0,-1,1280,1478,0,0
63,-454,0,0,0,0,0,0,0,0,0,-1,1287,1478,0,0
70,-454,0,0,0,0,0,0,0,0,0,-1,1294,1478,0,0
77,-454,0,0,0,0,0,0,0,0,0,-1,1301,1478,0,0
84,-454,0,0,0,0,0,0,0,0,0,-1,1308,1478,0,0
91,-454,0,0,0,0,0,0,0,0,0,-1,1315,1478,0,0
98,-454,0,0,0,0,0,0,0,0,0,-1,1322,1478,0,0
105,-454,0,0,0,0,0,0,0,0,0,-1,1329,1478,0,0
112,-454,0,0,0,0,0,0,0,0,0,-1,1336,1478,0,0
119,-454,0,0,0,0,0,0,0,0,0,-1,1343,1478,0,0
126,-454,0,0,0,0,0,0,0,0,0,-1,1350,1478,0,0
133,-454,0,0,0,0,0,0,0,0,0,-1,1357,1478,0,0
140,-454,0,0,0,0,0,0,0,0,0,-1,1364,1478,0,0
147,-454,0,0,0,0,0,0,0,0,0,-1,1371,1478,0,0
154,-454,0,0,0,0,0,0,0,0,0,-1,1378,1478,0,0
161,-454,0,0,0,0,0,0,0,0,0,-1,1385,1478,0,0
168,-454,0,0,0,0,0,0,0,0,0,-1,1392,1478,0,0
175,-454,0,0,0,0,0,0,0,0,0,-1,1399,1478,0,0
182,-454,0,0,0,0,0,0,0,0,0,-1,1406,1478,0,0
189,-454,0,0,0,0,0,0,0,0,0,-1,1413,1478,0,0
196,-454,0,0,0,0,0,0,0,0,0,-1,1420,1478,0,0
203,-454,0,0,0,0,0,0,0,0,0,-1,1427,1478,0,0
210,-454,0,0,0,0,0,0,0,0,0,-1,1434,1478,0,0
217,-454,0,0,0,0,0,0,0,0,0,-1,1441,1478,0,0
224,-454,0,0,0,0,0,0,0,0,0,-1,1448,1478,0,0
231,-454,0,0,0,0,0,0,0,0,0,-1,1455,1478,0,0
238,-454,0,0,0,0,0,0,0,0,0,-1,1462,1478,0,0
245,-454,0,0,0,0,0,0,0,0,0,-1,1469,1478,0,0
252,-454,0,0,0,0,0,0,0,0,0,-1,1476,1478,0,0
259,-454,0,0,0,0,0,0,0,0,0,-1,1483,1478,0,0
266,-454,0,0,0,0,0,0,0,0,0,-1,1490,1478,0,0
273,-454,0,0,0,0,0,0,0,0,0,-1,1497,1478,0,0
280,-454,0,0,0,0,0,0,0,0,0,-1,1504,1478,0,0
287,-454,0,0,0,0,0,0,0,0,0,-1,1511,1478,0,0
294,-454,0,0,0,0,0,0,0,0,0,-1,1518,1478,0,0
301,-454,0,0,0,0,0,0,0,0,0,-1,1525,1478,0,0
308,-454,0,0,0,0,0,0,0,0,0,-1,1532,1478,0,0
315,-454,0,0,0,0,0,0,0,0,0,-1,1539,1478,0,0
322,-454,0,0,0,0,0,0,0,0,0,-1,1546,1478,0,0
329,-454,0,0,0,0,0,0,0,0,0,-1,1553,1478,0,0
336,-454,0,0,0,0,0,0,0,0,0,-1,1560,1478,0,0
343,-454,0,0,0,0,0,0,0,0,0,-1,1567,1478,0,0
350,-454,0,0,0,0,0,0,0,0,0,-1,1574,1478,0,0
357,-454,0,0,0,0,0,0,0,0,0,-1,1581,1478,0,0
364,-454,0,0,0,0,0,0,0,0,0,-1,1588,1478,0,0
371,-454,0,0,0,0,0,0,0,0,0,-1,1595,1478,0,0
378,-454,0,0,0,0,0,0,0,0,0,-1,1602,1478,0,0
385,-454,0,0,0,0,0,0,0,0,0,-1,1609,1478,0,0
392,-454,0,0,0,0,0,0,0,0,0,-1,1616,1478,0,0
399,-454,0,0,0,0,0,0,0,0,0,-1,1623,1478,0,0
406,-454,0,0,0,0,0,0,0,0,0,-1,1630,1478,0,0
413,-454,0,0,0,0,0,0,0,0,0,-1,1637,1478,0,0
420,-454,0,0,0,0,0,0,0,0,0,-1,1644,1478,0,0
427,-454,0,0,0,0,0,0,0,0,0,-1,1651,1478,0,0
434,-454,0,0,0,0,0,0,0,0,0,-1,1658,1478,0,0
441,-454,0,0,0,0,0,0,0,0,0,-1,1665,1478,0,0
448,-454,0,0,0,0,0,0,0,0,0,-1,1672,1478,0,0
455,-454,0,0,0,0,0,0,0,0,0,-1,1679,1478,0,0
462,-454,0,0,0,0,0,0,0,0,0,-1,1686,1478,0,0
469,-454,0,0,0,0,0,0,0,0,0,-1,1693,1478,0,0
476,-454,0,0,0,0,0,0,0,0,0,-1,1700,1478,0,0
483,-454,14.2399,3.97498,0,0,0,0,0,0,0,-1,1707,1478,14.2399,-3.97502
490,-454,18.1821,-0.175781,0,0,0,0,0,0,0,-1,1714,1478,18.1821,0.175822
497,-454,16.8854,1.01208,0,0,0,0,0,0,0,-1,1721,1478,16.8854,-1.01209
504,-454,15.587,2.05994,0,0,0,0,0,0,0,-1,1728,1478,15.5871,-2.05998
511,-454,17.0273,14.5258,0,0,0,0,0,0,0,-1,1735,1478,17.0273,-14.5258
518,-454,16.4158,13.1039,0,0,0,0,0,0,0,-1,1742,1478,16.4157,-13.1038
525,-454,15.7842,11.6628,0,0,0,0,0,0,0,-1,1749,1478,15.7841,-11.6629
532,-454,15.1094,10.2476,0,0,0,0,0,0,0,-1,1756,1478,15.1094,-10.2475
539,-454,13.7905,10.9373,0,0,0,0,0,0,0,-1,1763,1478,13.7906,-10.9372
546,-454,16.2002,13.2458,0,0,0,0,0,0,0,-1,1770,1478,16.2002,-13.2459
553,-454,15.6747,12.1868,0,0,0,0,0,0,0,-1,1777,1478,15.6747,-12.1868
560,-454,16.3895,14.0527,0,0,0,0,0,0,0,-1,1784,1478,16.3895,-14.0528
567,-454,27.3535,23.5031,0,0,0,0,0,0,0,-1,1791,1478,27.3535,-23.5031
574,-454,27.2122,22.6693,0.00679726,0.00204093,-0.00248748,0.00786049,0.0009777,-0.40393,0.00494674,0.0449149,1798,1478,27.2121,-22.6693
581,-454,27.1926,21.9915,0.0055015,0.00183311,-0.00227946,0.00659309,0.000741517,-0.44661,0.00417025,0.0275944,1805,1478,27.1926,-21.9915
588,-454,27.2407,21.3397,0.00442529,0.00149252,-0.00202761,0.0054612,0.000456605,-0.472332,0.00349855,0.0142398,1812,1478,27.2408,-21.3398
595,-454,27.1802,20.7373,0.00356239,0.00115859,-0.00172479,0.00446273,0.00025824,-0.481097,0.00289292,0.0122124,1819,1478,27.1802,-20.7373
602,-454,27.1577,20.1246,0.00301256,0.000746675,-0.00138312,0.00366752,9.17178e-05,-0.442253,0.00241502,0.00933327,1826,1478,27.1577,-20.1247
609,-454,27.1565,19.5215,0.00267806,0.000407443,-0.00104001,0.00308241,3.09164e-06,-0.370809,0.00205391,0.0115816,1833,1478,27.1565,-19.5215
616,-454,27.144,18.9214,0.00247256,0.000165261,-0.000749783,0.00269481,-5.69822e-05,-0.28816,0.00181583,0.0150685,1840,1478,27.1441,-18.9214
623,-454,27.1382,18.327,0.00257849,-9.79268e-05,-0.000450118,0.00265217,-0.000171599,-0.162235,0.001828,0.0151448,1847,1478,27.1382,-18.327
630,-454,27.1158,17.7246,0.00289811,-0.000306996,-0.000175732,0.00290772,-0.000316602,-0.0546105,0.00205217,0.0146836,1854,1478,27.1159,-17.7246
637,-454,27.0602,17.1345,0.00330415,-0.000407857,3.42659e-05,0.00330447,-0.000408174,0.00923004,0.00235088,0.0127294,1861,1478,27.0602,-17.1346
644,-454,27.1445,16.5094,0.00393051,-0.000299984,0.000110323,0.00393338,-0.000302859,0.0260544,0.00272881,0.0233468,1868,1478,27.1445,-16.5094
651,-454,27.2734,15.745,0,0,0,0,0,0,0,-1,1875,1478,27.2735,-15.745
658,-454,17.2583,10.0765,0,0,0,0,0,0,0,-1,1882,1478,17.2583,-10.0765
665,-454,17.683,9.67566,0,0,0,0,0,0,0,-1,1889,1478,17.683,-9.67572
672,-454,16.5476,6.41931,0,0,0,0,0,0,0,-1,1896,1478,16.5476,-6.41929
679,-454,14.2161,5.45007,0,0,0,0,0,0,0,-1,1903,1478,14.2161,-5.45013
686,-454,10.3767,2.12842,0,0,0,0,0,0,0,-1,1910,1478,10.3767,-2.12839
693,-454,11.1857,1.48486,0,0,0,0,0,0,0,-1,1917,1478,11.1857,-1.48487
700,-454,0,0,0,0,0,0,0,0,0,-1,1924,1478,0,0
707,-454,0,0,0,0,0,0,0,0,0,-1,1931,1478,0,0
714,-454,0,0,0,0,0,0,0,0,0,-1,1938,1478,0,0
721,-454,0,0,0,0,0,0,0,0,0,-1,1945,1478,0,0
728,-454,0,0,0,0,0,0,0,0,0,-1,1952,1478,0,0
735,-454,0,0,0,0,0,0,0,0,0,-1,1959,1478,0,0
742,-454,0,0,0,0,0,0,0,0,0,-1,1966,1478,0,0
749,-454,0,0,0,0,0,0,0,0,0,-1,1973,1478,0,0
756,-454,0,0,0,0,0,0,0,0,0,-1,1980,1478,0,0
763,-454,0,0,0,0,0,0,0,0,0,-1,1987,1478,0,0
770,-454,0,0,0,0,0,0,0,0,0,-1,1994,1478,0,0
777,-454,0,0,0,0,0,0,0,0,0,-1,2001,1478,0,0
784,-454,0,0,0,0,0,0,0,0,0,-1,2008,1478,0,0
791,-454,0,0,0,0,0,0,0,0,0,-1,2015,1478,0,0
798,-454,0,0,0,0,0,0,0,0,0,-1,2022,1478,0,0
805,-454,0,0,0,0,0,0,0,0,0,-1,2029,1478,0,0
812,-454,0,0,0,0,0,0,0,0,0,-1,2036,1478,0,0
-700,-461,0,0,0,0,0,0,0,0,0,-1,524,1485,0,0
-693,-461,0,0,0,0,0,0,0,0,0,-1,531,1485,0,0
-686,-461,0,0,0,0,0,0,0,0,0,-1,538,1485,0,0
-679,-461,0,0,0,0,0,0,0,0,0,-1,545,1485,0,0
-672,-461,0,0,0,0,0,0,0,0,0,-1,552,1485,0,0
-665,-461,0,0,0,0,0,0,0,0,0,-1,559,1485,0,0
-658,-461,0,0,0,0,0,0,0,0,0,-1,566,1485,0,0
-651,-461,0,0,0,0,0,0,0,0,0,-1,573,1485,0,0
-644,-461,0,0,0,0,0,0,0,0,0,-1,580,1485,0,0
-637,-461,0,0,0,0,0,0,0,0,0,-1,587,1485,0,0
-630,-461,0,0,0,0,0,0,0,0,0,-1,594,1485,0,0
-623,-461,0,0,0,0,0,0,0,0,0,-1,601,1485,0,0
-616,-461,0,0,0,0,0,0,0,0,0,-1,608,1485,0,0
-609,-461,0,0,0,0,0,0,0,0,0,-1,615,1485,0,0
-602,-461,0,0,0,0,0,0,0,0,0,-1,622,1485,0,0
-595,-461,0,0,0,0,0,0,0,0,0,-1,629,1485,0,0
-588,-461,0,0,0,0,0,0,0,0,0,-1,636,1485,0,0
-581,-461,0,0,0,0,0,0,0,0,0,-1,643,1485,0,0
-574,-461,0,0,0,0,0,0,0,0,0,-1,650,1485,0,0
-567,-461,-9.69031,0.513306,0,0,0,0,0,0,0,-1,657,1485,-9.69032,-0.513305
-560,-461,-7.28815,1.54004,0,0,0,0,0,0,0,-1,664,1485,-7.28817,-1.54005
-553,-461,-11.9607,5.27783,0,0,0,0,0,0,0,-1,671,1485,-11.9607,-5.27778
-546,-461,-11.4215,4.44666,0,0,0,0,0,0,0,-1,678,1485,-11.4215,-4.4467
-539,-461,-9.36493,5.23438,0,0,0,0,0,0,0,-1,685,1485,-9.3649,-5.23432
-532,-461,-7.82898,6.78357,0,0,0,0,0,0,0,-1,692,1485,-7.829,-6.78363
-525,-461,-6.37878,8.75659,0,0,0,0,0,0,0,-1,699,1485,-6.3788,-8.75659
-518,-461,-6.49695,10.886,0,0,0,0,0,0,0,-1,706,1485,-6.49696,-10.8859
-511,-461,-10.0079,14.7855,0,0,0,0,0,0,0,-1,713,1485,-10.0079,-14.7856
-504,-461,-9.78857,15.5168,0.00137785,-0.00011943,0.00203016,0.00279301,-0.00153459,0.608754,0.0025335,0.0346984,720,1485,-9.78855,-15.5168
-497,-461,-9.72418,16.2866,0.000975874,-0.000248771,0.00140973,0.00190052,-0.00117342,0.580514,0.00179121,0.0120854,727,1485,-9.72419,-16.2866
-490,-461,-9.75439,16.9272,0.000831235,-0.000215282,0.0010128,0.00144796,-0.000832007,0.546961,0.00133226,0.0133304,734,1485,-9.75437,-16.9272
-483,-461,-9.797,17.5609,0.000953104,7.2678e-05,0.000921905,0.00153451,-0.000508724,0.562654,0.00122821,0.0125214,741,1485,-9.79702,-17.5609
-476,-461,-9.85089,18.1915,0.00131542,0.000573494,0.00110755,0.00211248,-0.000223566,0.6238,0.00148845,0.011121,748,1485,-9.85092,-18.1915
-469,-461,-9.85901,18.8296,0.00188995,0.00134213,0.00154313,0.00318329,4.87854e-05,0.697562,0.00210612,0.0133533,755,1485,-9.85902,-18.8296
-462,-461,-9.86932,19.4727,0.00269492,0.0022445,0.00218642,0.0046677,0.000271722,0.734078,0.00302529,0.0189052,762,1485,-9.86932,-19.4727
-455,-461,-9.92969,20.0839,0.0037322,0.00336536,0.00307607,0.00663032,0.000467242,0.755619,0.00427299,0.0236558,769,1485,-9.9297,-20.0839
-448,-461,-9.89526,20.7489,0.00510813,0.00492002,0.00439074,0.00940582,0.000622332,0.774689,0.00607374,0.021293,776,1485,-9.89528,-20.7489
-441,-461,-9.81915,21.5314,0.00688102,0.00668512,0.00602239,0.0128063,0.000759876,0.777267,0.00829582,0.0367989,783,1485,-9.81914,-21.5313
-434,-461,-9.60498,22.5005,0,0,0,0,0,0,0,-1,790,1485,-9.60501,-22.5005
-427,-461,-8.26154,21.546,0,0,0,0,0,0,0,-1,797,1485,-8.26153,-21.5461
-420,-461,-5.70355,16.6116,0,0,0,0,0,0,0,-1,804,1485,-5.70353,-16.6115
-413,-461,-5.98798,16.0605,0,0,0,0,0,0,0,-1,811,1485,-5.98796,-16.0605
-406,-461,-5.52667,14.839,0,0,0,0,0,0,0,-1,818,1485,-5.52666,-14.839
-399,-461,-1.93439,9.82849,0,0,0,0,0,0,0,-1,825,1485,-1.9344,-9.82846
-392,-461,-0.357544,5.55225,0,0,0,0,0,0,0,-1,832,1485,-0.357536,-5.55228
-385,-461,1.71509,3.35254,0,0,0,0,0,0,0,-1,839,1485,1.71511,-3.35255
-378,-461,1.95996,3.01111,0,0,0,0,0,0,0,-1,846,1485,1.95993,-3.01111
-371,-461,0.702881,2.33459,0,0,0,0,0,0,0,-1,853,1485,0.702859,-2.33459
-364,-461,-1.93097,2.56458,0,0,0,0,0,0,0,-1,860,1485,-1.93095,-2.56456
-357,-461,-2.41516,3.49487,0,0,0,0,0,0,0,-1,867,1485,-2.41517,-3.49487
-350,-461,0,0,0,0,0,0,0,0,0,-1,874,1485,0,0
-343,-461,0,0,0,0,0,0,0,0,0,-1,881,1485,0,0
-336,-461,0,0,0,0,0,0,0,0,0,-1,888,1485,0,0
-329,-461,0,0,0,0,0,0,0,0,0,-1,895,1485,0,0
-322,-461,0,0,0,0,0,0,0,0,0,-1,902,1485,0,0
-315,-461,0,0,0,0,0,0,0,0,0,-1,909,1485,0,0
-308,-461,0,0,0,0,0,0,0,0,0,-1,916,1485,0,0
-301,-461,0,0,0,0,0,0,0,0,0,-1,923,1485,0,0
-294,-461,0,0,0,0,0,0,0,0,0,-1,930,1485,0,0
-287,-461,0,0,0,0,0,0,0,0,0,-1,937,1485,0,0
-280,-461,0,0,0,0,0,0,0,0,0,-1,944,1485,0,0
-273,-461,0,0,0,0,0,0,0,0,0,-1,951,1485,0,0
-266,-461,0,0,0,0,0,0,0,0,0,-1,958,1485,0,0
-259,-461,0,0,0,0,0,0,0,0,0,-1,965,1485,0,0
-252,-461,0,0,0,0,0,0,0,0,0,-1,972,1485,0,0
-245,-461,0,0,0,0,0,0,0,0,0,-1,979,1485,0,0
-238,-461,0,0,0,0,0,0,0,0,0,-1,986,1485,0,0
-231,-461,0,0,0,0,0,0,0,0,0,-1,993,1485,0,0
-224,-461,0,0,0,0,0,0,0,0,0,-1,1000,1485,0,0
-217,-461,0,0,0,0,0,0,0,0,0,-1,1007,1485,0,0
-210,-461,0,0,0,0,0,0,0,0,0,-1,1014,1485,0,0
-203,-461,0,0,0,0,0,0,0,0,0,-1,1021,1485,0,0
-196,-461,0,0,0,0,0,0,0,0,0,-1,1028,1485,0,0
-189,-461,0,0,0,0,0,0,0,0,0,-1,1035,1485,0,0
-182,-461,0,0,0,0,0,0,0,0,0,-1,1042,1485,0,0
-175,-461,0,0,0,0,0,0,0,0,0,-1,1049,1485,0,0
-168,-461,0,0,0,0,0,0,0,0,0,-1,1056,1485,0,0
-161,-461,0,0,0,0,0,0,0,0,0,-1,1063,1485,0,0
-154,-461,0,0,0,0,0,0,0,0,0,-1,1070,1485,0,0
-147,-461,0,0,0,0,0,0,0,0,0,-1,1077,1485,0,0
-140,-461,0,0,0,0,0,0,0,0,0,-1,1084,1485,0,0
-133,-461,0,0,0,0,0,0,0,0,0,-1,1091,1485,0,0
-126,-461,0,0,0,0,0,0,0,0,0,-1,1098,1485,0,0
-119,-461,0,0,0,0,0,0,0,0,0,-1,1105,1485,0,0
-112,-461,0,0,0,0,0,0,0,0,0,-1,1112,1485,0,0
-105,-461,0,0,0,0,0,0,0,0,0,-1,1119,1485,0,0
-98,-461,0,0,0,0,0,0,0,0,0,-1,1126,1485,0,0
-91,-461,0,0,0,0,0,0,0,0,0,-1,1133,1485,0,0
-84,-461,0,0,0,0,0,0,0,0,0,-1,1140,1485,0,0
-77,-461,0,0,0,0,0,0,0,0,0,-1,1147,1485,0,0
-70,-461,0,0,0,0,0,0,0,0,0,-1,1154,1485,0,0
-63,-461,0,0,0,0,0,0,0,0,0,-1,1161,1485,0,0
-56,-461,0,0,0,0,0,0,0,0,0,-1,1168,1485,0,0
-49,-461,0,0,0,0,0,0,0,0,0,-1,1175,1485,0,0
-42,-461,0,0,0,0,0,0,0,0,0,-1,1182,1485,0,0
-35,-461,0,0,0,0,0,0,0,0,0,-1,1189,1485,0,0
-28,-461,0,0,0,0,0,0,0,0,0,-1,1196,1485,0,0
-21,-461,0,0,0,0,0,0,0,0,0,-1,1203,1485,0,0
-14,-461,0,0,0,0,0,0,0,0,0,-1,1210,1485,0,0
-7,-461,0,0,0,0,0,0,0,0,0,-1,1217,1485,0,0
0,-461,0,0,0,0,0,0,0,0,0,-1,1224,1485,0,0
7,-461,0,0,0,0,0,0,0,0,0,-1,1231,1485,0,0
14,-461,0,0,0,0,0,0,0,0,0,-1,1238,1485,0,0
21,-461,0,0,0,0,0,0,0,0,0,-1,1245,1485,0,0
28,-461,0,0,0,0,0,0,0,0,0,-1,1252,1485,0,0
35,-461,0,0,0,0,0,0,0,0,0,-1,1259,1485,0,0
42,-461,0,0,0,0,0,0,0,0,0,-1,1266,1485,0,0
49,-461,0,0,0,0,0,0,0,0,0,-1,1273,1485,0,0
56,-461,0,0,0,0,0,0,0,0,0,-1,1280,1485,0,0
63,-461,0,0,0,0,0,0,0,0,0,-1,1287,1485,0,0
70,-461,0,0,0,0,0,0,0,0,0,-1,1294,1485,0,0
77,-461,0,0,0,0,0,0,0,0,0,-1,1301,1485,0,0
84,-461,0,0,0,0,0,0,0,0,0,-1,1308,1485,0,0
91,-461,0,0,0,0,0,0,0,0,0,-1,1315,1485,0,0
98,-461,0,0,0,0,0,0,0,0,0,-1,1322,1485,0,0
105,-461,0,0,0,0,0,0,0,0,0,-1,1329,1485,0,0
112,-461,0,0,0,0,0,0,0,0,0,-1,1336,1485,0,0
119,-461,0,0,0,0,0,0,0,0,0,-1,1343,1485,0,0
126,-461,0,0,0,0,0,0,0,0,0,-1,1350,1485,0,0
133,-461,0,0,0,0,0,0,0,0,0,-1,1357,1485,0,0
140,-461,0,0,0,0,0,0,0,0,0,-1,1364,1485,0,0
147,-461,0,0,0,0,0,0,0,0,0,-1,1371,1485,0,0
154,-461,0,0,0,0,0,0,0,0,0,-1,1378,1485,0,0
161,-461,0,0,0,0,0,0,0,0,0,-1,1385,1485,0,0
168,-461,0,0,0,0,0,0,0,0,0,-1,1392,1485,0,0
175,-461,0,0,0,0,0,0,0,0,0,-1,1399,1485,0,0
182,-461,0,0,0,0,0,0,0,0,0,-1,1406,1485,0,0
189,-461,0,0,0,0,0,0,0,0,0,-1,1413,1485,0,0
196,-461,0,0,0,0,0,0,0,0,0,-1,1420,1485,0,0
203,-461,0,0,0,0,0,0,0,0,0,-1,1427,1485,0,0
210,-461,0,0,0,0,0,0,0,0,0,-1,1434,1485,0,0
217,-461,0,0,0,0,0,0,0,0,0,-1,1441,1485,0,0
224,-461,0,0,0,0,0,0,0,0,0,-1,1448,1485,0,0
231,-461,0,0,0,0,0,0,0,0,0,-1,1455,1485,0,0
238,-461,0,0,0,0,0,0,0,0,0,-1,1462,1485,0,0
245,-461,0,0,0,0,0,0,0,0,0,-1,1469,1485,0,0
252,-461,0,0,0,0,0,0,0,0,0,-1,1476,1485,0,0
259,-461,0,0,0,0,0,0,0,0,0,-1,1483,1485,0,0
266,-461,0,0,0,0,0,0,0,0,0,-1,1490,1485,0,0
273,-461,0,0,0,0,0,0,0,0,0,-1,1497,1485,0,0
280,-461,0,0,0,0,0,0,0,0,0,-1,1504,1485,0,0
287,-461,0,0,0,0,0,0,0,0,0,-1,1511,1485,0,0
294,-461,0,0,0,0,0,0,0,0,0,-1,1518,1485,0,0
301,-461,0,0,0,0,0,0,0,0,0,-1,1525,1485,0,0
308,-461,0,0,0,0,0,0,0,0,0,-1,1532,1485,0,0
315,-461,0,0,0,0,0,0,0,0,0,-1,1539,1485,0,0
322,-461,0,0,0,0,0,0,0,0,0,-1,1546,1485,0,0
329,-461,0,0,0,0,0,0,0,0,0,-1,1553,1485,0,0
336,-461,0,0,0,0,0,0,0,0,0,-1,1560,1485,0,0
343,-461,0,0,0,0,0,0,0,0,0,-1,1567,1485,0,0
350,-461,0,0,0,0,0,0,0,0,0,-1,1574,1485,0,0
357,-461,0,0,0,0,0,0,0,0,0,-1,1581,1485,0,0
364,-461,0,0,0,0,0,0,0,0,0,-1,1588,1485,0,0
371,-461,0,0,0,0,0,0,0,0,0,-1,1595,1485,0,0
378,-461,0,0,0,0,0,0,0,0,0,-1,1602,1485,0,0
385,-461,0,0,0,0,0,0,0,0,0,-1,1609,1485,0,0
392,-461,0,0,0,0,0,0,0,0,0,-1,1616,1485,0,0
399,-461,0,0,0,0,0,0,0,0,0,-1,1623,1485,0,0
406,-461,0,0,0,0,0,0,0,0,0,-1,1630,1485,0,0
413,-461,0,0,0,0,0,0,0,0,0,-1,1637,1485,0,0
420,-461,0,0,0,0,0,0,0,0,0,-1,1644,1485,0,0
427,-461,0,0,0,0,0,0,0,0,0,-1,1651,1485,0,0
434,-461,0,0,0,0,0,0,0,0,0,-1,1658,1485,0,0
441,-461,0,0,0,0,0,0,0,0,0,-1,1665,1485,0,0
448,-461,0,0,0,0,0,0,0,0,0,-1,1672,1485,0,0
455,-461,0,0,0,0,0,0,0,0,0,-1,1679,1485,0,0
462,-461,0,0,0,0,0,0,0,0,0,-1,1686,1485,0,0
469,-461,0,0,0,0,0,0,0,0,0,-1,1693,1485,0,0
476,-461,14.1906,0.690552,0,0,0,0,0,0,0,-1,1700,1485,14.1906,-0.690525
483,-461,10.6361,3.09106,0,0,0,0,0,0,0,-1,1707,1485,10.6361,-3.091
490,-461,17.9972,0.665894,0,0,0,0,0,0,0,-1,1714,1485,17.9972,-0.665876
497,-461,16.6829,1.87732,0,0,0,0,0,0,0,-1,1721,1485,16.6828,-1.87736
504,-461,15.3884,3.09216,0,0,0,0,0,0,0,-1,1728,1485,15.3885,-3.09212
511,-461,15.4292,14.3512,0,0,0,0,0,0,0,-1,1735,1485,15.4292,-14.3512
518,-461,14.8081,10.0085,0,0,0,0,0,0,0,-1,1742,1485,14.8081,-10.0086
525,-461,14.0022,10.8033,0,0,0,0,0,0,0,-1,1749,1485,14.0022,-10.8033
532,-461,17.1704,14.077,0,0,0,0,0,0,0,-1,1756,1485,17.1704,-14.077
539,-461,17.0229,14.7386,0,0,0,0,0,0,0,-1,1763,1485,17.0229,-14.7387
546,-461,16.2106,14.1372,0,0,0,0,0,0,0,-1,1770,1485,16.2106,-14.1372
553,-461,25.9354,24.2889,0,0,0,0,0,0,0,-1,1777,1485,25.9354,-24.2889
560,-461,26.6356,23.7261,0,0,0,0,0,0,0,-1,1784,1485,26.6357,-23.7261
567,-461,26.686,23.0538,0.00719399,0.0023562,-0.00221521,0.00805506,0.00149512,-0.370737,0.00494755,0.0349046,1791,1485,26.686,-23.0538
574,-461,26.7051,22.5568,0.00573474,0.00191179,-0.0019868,0.00658028,0.00106625,-0.402359,0.00407817,0.0306489,1798,1485,26.7051,-22.5567
581,-461,26.6798,21.958,0.0046291,0.00162368,-0.00181376,0.00548178,0.000770995,-0.439457,0.00342656,0.0184638,1805,1485,26.6798,-21.958
588,-461,26.6344,21.3834,0.00375264,0.00127069,-0.00160655,0.0045417,0.000481635,-0.456541,0.0028807,0.0115999,1812,1485,26.6344,-21.3834
595,-461,26.5712,20.7869,0.00313503,0.000924143,-0.00136523,0.00378624,0.000272925,-0.445081,0.00243829,0.00930419,1819,1485,26.5711,-20.7869
602,-461,26.5668,20.1569,0.00274319,0.000553006,-0.00112477,0.00321791,7.82815e-05,-0.399382,0.00211966,0.00982229,1826,1485,26.5668,-20.1569
609,-461,26.568,19.5491,0.00253589,0.00025285,-0.000857504,0.00282209,-3.33483e-05,-0.322132,0.00189261,0.0115129,1833,1485,26.568,-19.5491
616,-461,26.5421,18.9414,0.00246651,1.4515e-05,-0.000603516,0.00260701,-0.00012598,-0.22872,0.00178148,0.0136879,1840,1485,26.5421,-18.9414
623,-461,26.5378,18.3597,0.00268729,-0.000283457,-0.000302384,0.00271775,-0.000313923,-0.100415,0.00192503,0.0166261,1847,1485,26.5378,-18.3598
630,-461,26.5178,17.7845,0.00311541,-0.000515398,-6.8316e-07,0.00311541,-0.000515398,-0.000188156,0.00226834,0.0164574,1854,1485,26.5179,-17.7845
637,-461,26.4696,17.1833,0.00369371,-0.000658067,0.000254717,0.00370857,-0.000672925,0.0582666,0.00272453,0.0153748,1861,1485,26.4696,-17.1834
644,-461,26.5692,16.6708,0.0044875,-0.000627207,0.000420904,0.00452191,-0.000661613,0.0815616,0.00325762,0.0305384,1868,1485,26.5692,-16.6707
651,-461,26.733,16.1331,0,0,0,0,0,0,0,-1,1875,1485,26.7331,-16.133
658,-461,16.8987,10.1084,0,0,0,0,0,0,0,-1,1882,1485,16.8986,-10.1084
665,-461,17.2638,9.81384,0,0,0,0,0,0,0,-1,1889,1485,17.2638,-9.81385
672,-461,14.4877,6.89429,0,0,0,0,0,0,0,-1,1896,1485,14.4876,-6.89431
679,-461,10.0535,2.16321,0,0,0,0,0,0,0,-1,1903,1485,10.0535,-2.16317
686,-461,10.8195,1.84192,0,0,0,0,0,0,0,-1,1910,1485,10.8194,-1.84195
693,-461,0,0,0,0,0,0,0,0,0,-1,1917,1485,0,0
700,-461,0,0,0,0,0,0,0,0,0,-1,1924,1485,0,0
707,-461,0,0,0,0,0,0,0,0,0,-1,1931,1485,0,0
714,-461,0,0,0,0,0,0,0,0,0,-1,1938,1485,0,0
721,-461,0,0,0,0,0,0,0,0,0,-1,1945,1485,0,0
728,-461,0,0,0,0,0,0,0,0,0,-1,1952,1485,0,0
735,-461,0,0,0,0,0,0,0,0,0,-1,1959,1485,0,0
742,-461,0,0,0,0,0,0,0,0,0,-1,1966,1485,0,0
749,-461,0,0,0,0,0,0,0,0,0,-1,1973,1485,0,0
756,-461,0,0,0,0,0,0,0,0,0,-1,1980,1485,0,0
763,-461,0,0,0,0,0,0,0,0,0,-1,1987,1485,0,0
770,-461,0,0,0,0,0,0,0,0,0,-1,1994,1485,0,0
777,-461,0,0,0,0,0,0,0,0,0,-1,2001,1485,0,0
784,-461,0,0,0,0,0,0,0,0,0,-1,2008,1485,0,0
791,-461,0,0,0,0,0,0,0,0,0,-1,2015,1485,0,0
798,-461,0,0,0,0,0,0,0,0,0,-1,2022,1485,0,0
805,-461,0,0,0,0,0,0,0,0,0,-1,2029,1485,0,0
812,-461,0,0,0,0,0,0,0,0,0,-1,2036,1485,0,0
-700,-468,0,0,0,0,0,0,0,0,0,-1,524,1492,0,0
-693,-468,0,0,0,0,0,0,0,0,0,-1,531,1492,0,0
-686,-468,0,0,0,0,0,0,0,0,0,-1,538,1492,0,0
-679,-468,0,0,0,0,0,0,0,0,0,-1,545,1492,0,0
-672,-468,0,0,0,0,0,0,0,0,0,-1,552,1492,0,0
-665,-468,0,0,0,0,0,0,0,0,0,-1,559,1492,0,0
-658,-468,0,0,0,0,0,0,0,0,0,-1,566,1492,0,0
-651,-468,0,0,0,0,0,0,0,0,0,-1,573,1492,0,0
-644,-468,0,0,0,0,0,0,0,0,0,-1,580,1492,0,0
-637,-468,0,0,0,0,0,0,0,0,0,-1,587,1492,0,0
-630,-468,0,0,0,0,0,0,0,0,0,-1,594,1492,0,0
-623,-468,0,0,0,0,0,0,0,0,0,-1,601,1492,0,0
-616,-468,0,0,0,0,0,0,0,0,0,-1,608,1492,0,0
-609,-468,0,0,0,0,0,0,0,0,0,-1,615,1492,0,0
-602,-468,0,0,0,0,0,0,0,0,0,-1,622,1492,0,0
-595,-468,0,0,0,0,0,0,0,0,0,-1,629,1492,0,0
-588,-468,0,0,0,0,0,0,0,0,0,-1,636,1492,0,0
-581,-468,0,0,0,0,0,0,0,0,0,-1,643,1492,0,0
-574,-468,0,0,0,0,0,0,0,0,0,-1,650,1492,0,0
-567,-468,-11.2603,1.8042,0,0,0,0,0,0,0,-1,657,1492,-11.2603,-1.80424
-560,-468,-8.77441,2.23694,0,0,0,0,0,0,0,-1,664,1492,-8.77443,-2.23692
-553,-468,-5.94061,9.26318,0,0,0,0,0,0,0,-1,671,1492,-5.94062,-9.26322
-546,-468,-10.47,5.43237,0,0,0,0,0,0,0,-1,678,1492,-10.47,-5.4324
-539,-468,-10.2468,5.45203,0,0,0,0,0,0,0,-1,685,1492,-10.2468,-5.45197
-532,-468,-8.39795,6.02783,0,0,0,0,0,0,0,-1,692,1492,-8.39793,-6.02789
-525,-468,-6.59332,7.15405,0,0,0,0,0,0,0,-1,699,1492,-6.59331,-7.15411
-518,-468,-6.33588,8.65393,0,0,0,0,0,0,0,-1,706,1492,-6.33588,-8.65397
-511,-468,-8.05835,13.8282,0,0,0,0,0,0,0,-1,713,1492,-8.05835,-13.8283
-504,-468,-9.22729,15.4645,0,0,0,0,0,0,0,-1,720,1492,-9.22731,-15.4644
-497,-468,-9.10773,16.2432,3.79804e-06,-0.00093901,0.00136538,0.000976861,-0.00191207,0.619178,0.00169681,0.0230986,727,1492,-9.10773,-16.2432
-490,-468,-9.10437,16.9617,-0.000142472,-0.000965711,0.000868117,0.000406667,-0.00151485,0.56402,0.00116927,0.00830385,734,1492,-9.10438,-16.9617
-483,-468,-9.15369,17.5969,2.89878e-05,-0.000679854,0.000717785,0.000475085,-0.00112595,0.556072,0.000949478,0.00893445,741,1492,-9.15366,-17.5969
-476,-468,-9.18958,18.2411,0.000455018,-0.00017637,0.000835389,0.00103237,-0.000753726,0.604743,0.00103538,0.00943111,748,1492,-9.18954,-18.241
-469,-468,-9.18896,18.881,0.00110354,0.000592097,0.00120067,0.00207542,-0.00037978,0.680475,0.00152604,0.0138537,755,1492,-9.18896,-18.881
-462,-468,-9.19135,19.4915,0.00195897,0.0014902,0.00174275,0.00348303,-3.38601e-05,0.718555,0.00233339,0.0244261,762,1492,-9.19134,-19.4915
-455,-468,-9.24207,20.0939,0.00300983,0.0025717,0.00248607,0.00528647,0.000295063,0.741453,0.00343019,0.0243942,769,1492,-9.24208,-20.0939
-448,-468,-9.26221,20.7528,0.00435233,0.00401555,0.00357515,0.00776306,0.000604823,0.761865,0.00498601,0.0150615,776,1492,-9.2622,-20.7528
-441,-468,-9.28052,21.4012,0.00602173,0.00573039,0.00500354,0.0108817,0.000870396,0.770845,0.00698246,0.016116,783,1492,-9.28051,-21.4012
-434,-468,-9.26788,22.1338,0.00803393,0.00796421,0.00686072,0.0148599,0.00113827,0.782857,0.0095498,0.0295621,790,1492,-9.26789,-22.1338
-427,-468,-9.26355,22.8784,0,0,0,0,0,0,0,-1,797,1492,-9.26355,-22.8785
-420,-468,-7.57581,22.0538,0,0,0,0,0,0,0,-1,804,1492,-7.57582,-22.0538
-413,-468,-5.30328,17.3519,0,0,0,0,0,0,0,-1,811,1492,-5.30329,-17.352
-406,-468,-2.2356,9.396,0,0,0,0,0,0,0,-1,818,1492,-2.2356,-9.396
-399,-468,-0.940369,8.1936,0,0,0,0,0,0,0,-1,825,1492,-0.940365,-8.19357
-392,-468,-0.35144,8.14673,0,0,0,0,0,0,0,-1,832,1492,-0.351449,-8.14674
-385,-468,0.465759,5.35864,0,0,0,0,0,0,0,-1,839,1492,0.465732,-5.35864
-378,-468,1.99835,3.25391,0,0,0,0,0,0,0,-1,846,1492,1.99837,-3.2539
-371,-468,-0.31842,3.1532,0,0,0,0,0,0,0,-1,853,1492,-0.318441,-3.15324
-364,-468,-0.966736,2.14563,0,0,0,0,0,0,0,-1,860,1492,-0.966735,-2.14557
-357,-468,-3.06787,3.22742,0,0,0,0,0,0,0,-1,867,1492,-3.06784,-3.2274
-350,-468,-3.18658,4.12659,0,0,0,0,0,0,0,-1,874,1492,-3.18659,-4.12658
-343,-468,0,0,0,0,0,0,0,0,0,-1,881,1492,0,0
-336,-468,0,0,0,0,0,0,0,0,0,-1,888,1492,0,0
-329,-468,0,0,0,0,0,0,0,0,0,-1,895,1492,0,0
-322,-468,0,0,0,0,0,0,0,0,0,-1,902,1492,0,0
-315,-468,0,0,0,0,0,0,0,0,0,-1,909,1492,0,0
-308,-468,0,0,0,0,0,0,0,0,0,-1,916,1492,0,0
-301,-468,0,0,0,0,0,0,0,0,0,-1,923,1492,0,0
-294,-468,0,0,0,0,0,0,0,0,0,-1,930,1492,0,0
-287,-468,0,0,0,0,0,0,0,0,0,-1,937,1492,0,0
-280,-468,0,0,0,0,0,0,0,0,0,-1,944,1492,0,0
-273,-468,0,0,0,0,0,0,0,0,0,-1,951,1492,0,0
-266,-468,0,0,0,0,0,0,0,0,0,-1,958,1492,0,0
-259,-468,0,0,0,0,0,0,0,0,0,-1,965,1492,0,0
-252,-468,0,0,0,0,0,0,0,0,0,-1,972,1492,0,0
-245,-468,0,0,0,0,0,0,0,0,0,-1,979,1492,0,0
-238,-468,0,0,0,0,0,0,0,0,0,-1,986,1492,0,0
-231,-468,0,0,0,0,0,0,0,0,0,-1,993,1492,0,0
-224,-468,0,0,0,0,0,0,0,0,0,-1,1000,1492,0,0
-217,-468,0,0,0,0,0,0,0,0,0,-1,1007,1492,0,0
-210,-468,0,0,0,0,0,0,0,0,0,-1,1014,1492,0,0
-203,-468,0,0,0,0,0,0,0,0,0,-1,1021,1492,0,0
-196,-468,0,0,0,0,0,0,0,0,0,-1,1028,1492,0,0
-189,-468,0,0,0,0,0,0,0,0,0,-1,1035,1492,0,0
-182,-468,0,0,0,0,0,0,0,0,0,-1,1042,1492,0,0
-175,-468,0,0,0,0,0,0,0,0,0,-1,1049,1492,0,0
-168,-468,0,0,0,0,0,0,0,0,0,-1,1056,1492,0,0
-161,-468,0,0,0,0,0,0,0,0,0,-1,1063,1492,0,0
-154,-468,0,0,0,0,0,0,0,0,0,-1,1070,1492,0,0
-147,-468,0,0,0,0,0,0,0,0,0,-1,1077,1492,0,0
-140,-468,0,0,0,0,0,0,0,0,0,-1,1084,1492,0,0
-133,-468,0,0,0,0,0,0,0,0,0,-1,1091,1492,0,0
-126,-468,0,0,0,0,0,0,0,0,0,-1,1098,1492,0,0
-119,-468,0,0,0,0,0,0,0,0,0,-1,1105,1492,0,0
-112,-468,0,0,0,0,0,0,0,0,0,-1,1112,1492,0,0
-105,-468,0,0,0,0,0,0,0,0,0,-1,1119,1492,0,0
-98,-468,0,0,0,0,0,0,0,0,0,-1,1126,1492,0,0
-91,-468,0,0,0,0,0,0,0,0,0,-1,1133,1492,0,0
-84,-468,0,0,0,0,0,0,0,0,0,-1,1140,1492,0,0
-77,-468,0,0,0,0,0,0,0,0,0,-1,1147,1492,0,0
-70,-468,0,0,0,0,0,0,0,0,0,-1,1154,1492,0,0
-63,-468,0,0,0,0,0,0,0,0,0,-1,1161,1492,0,0
-56,-468,0,0,0,0,0,0,0,0,0,-1,1168,1492,0,0
-49,-468,0,0,0,0,0,0,0,0,0,-1,1175,1492,0,0
-42,-468,0,0,0,0,0,0,0,0,0,-1,1182,1492,0,0
-35,-468,0,0,0,0,0,0,0,0,0,-1,1189,1492,0,0
-28,-468,0,0,0,0,0,0,0,0,0,-1,1196,1492,0,0
-21,-468,0,0,0,0,0,0,0,0,0,-1,1203,1492,0,0
-14,-468,0,0,0,0,0,0,0,0,0,-1,1210,1492,0,0
-7,-468,0,0,0,0,0,0,0,0,0,-1,1217,1492,0,0
0,-468,0,0,0,0,0,0,0,0,0,-1,1224,1492,0,0
7,-468,0,0,0,0,0,0,0,0,0,-1,1231,1492,0,0
14,-468,0,0,0,0,0,0,0,0,0,-1,1238,1492,0,0
21,-468,0,0,0,0,0,0,0,0,0,-1,1245,1492,0,0
28,-468,0,0,0,0,0,0,0,0,0,-1,1252,1492,0,0
35,-468,0,0,0,0,0,0,0,0,0,-1,1259,1492,0,0
42,-468,0,0,0,0,0,0,0,0,0,-1,1266,1492,0,0
49,-468,0,0,0,0,0,0,0,0,0,-1,1273,1492,0,0
56,-468,0,0,0,0,0,0,0,0,0,-1,1280,1492,0,0
63,-468,0,0,0,0,0,0,0,0,0,-1,1287,1492,0,0
70,-468,0,0,0,0,0,0,0,0,0,-1,1294,1492,0,0
77,-468,0,0,0,0,0,0,0,0,0,-1,1301,1492,0,0
84,-468,0,0,0,0,0,0,0,0,0,-1,1308,1492,0,0
91,-468,0,0,0,0,0,0,0,0,0,-1,1315,1492,0,0
98,-468,0,0,0,0,0,0,0,0,0,-1,1322,1492,0,0
105,-468,0,0,0,0,0,0,0,0,0,-1,1329,1492,0,0
112,-468,0,0,0,0,0,0,0,0,0,-1,1336,1492,0,0
119,-468,0,0,0,0,0,0,0,0,0,-1,1343,1492,0,0
126,-468,0,0,0,0,0,0,0,0,0,-1,1350,1492,0,0
133,-468,0,0,0,0,0,0,0,0,0,-1,1357,1492,0,0
140,-468,0,0,0,0,0,0,0,0,0,-1,1364,1492,0,0
147,-468,0,0,0,0,0,0,0,0,0,-1,1371,1492,0,0
154,-468,0,0,0,0,0,0,0,0,0,-1,1378,1492,0,0
161,-468,0,0,0,0,0,0,0,0,0,-1,1385,1492,0,0
168,-468,0,0,0,0,0,0,0,0,0,-1,1392,1492,0,0
175,-468,0,0,0,0,0,0,0,0,0,-1,1399,1492,0,0
182,-468,0,0,0,0,0,0,0,0,0,-1,1406,1492,0,0
189,-468,0,0,0,0,0,0,0,0,0,-1,1413,1492,0,0
196,-468,0,0,0,0,0,0,0,0,0,-1,1420,1492,0,0
203,-468,0,0,0,0,0,0,0,0,0,-1,1427,1492,0,0
210,-468,0,0,0,0,0,0,0,0,0,-1,1434,1492,0,0
217,-468,0,0,0,0,0,0,0,0,0,-1,1441,1492,0,0
224,-468,0,0,0,0,0,0,0,0,0,-1,1448,1492,0,0
231,-468,0,0,0,0,0,0,0,0,0,-1,1455,1492,0,0
238,-468,0,0,0,0,0,0,0,0,0,-1,1462,1492,0,0
245,-468,0,0,0,0,0,0,0,0,0,-1,1469,1492,0,0
252,-468,0,0,0,0,0,0,0,0,0,-1,1476,1492,0,0
259,-468,0,0,0,0,0,0,0,0,0,-1,1483,1492,0,0
266,-468,0,0,0,0,0,0,0,0,0,-1,1490,1492,0,0
273,-468,0,0,0,0,0,0,0,0,0,-1,1497,1492,0,0
280,-468,0,0,0,0,0,0,0,0,0,-1,1504,1492,0,0
287,-468,0,0,0,0,0,0,0,0,0,-1,1511,1492,0,0
294,-468,0,0,0,0,0,0,0,0,0,-1,1518,1492,0,0
301,-468,0,0,0,0,0,0,0,0,0,-1,1525,1492,0,0
308,-468,0,0,0,0,0,0,0,0,0,-1,1532,1492,0,0
315,-468,0,0,0,0,0,0,0,0,0,-1,1539,1492,0,0
322,-468,0,0,0,0,0,0,0,0,0,-1,1546,1492,0,0
329,-468,0,0,0,0,0,0,0,0,0,-1,1553,1492,0,0
336,-468,0,0,0,0,0,0,0,0,0,-1,1560,1492,0,0
343,-468,0,0,0,0,0,0,0,0,0,-1,1567,1492,0,0
350,-468,0,0,0,0,0,0,0,0,0,-1,1574,1492,0,0
357,-468,0,0,0,0,0,0,0,0,0,-1,1581,1492,0,0
364,-468,0,0,0,0,0,0,0,0,0,-1,1588,1492,0,0
371,-468,0,0,0,0,0,0,0,0,0,-1,1595,1492,0,0
378,-468,0,0,0,0,0,0,0,0,0,-1,1602,1492,0,0
385,-468,0,0,0,0,0,0,0,0,0,-1,1609,1492,0,0
392,-468,0,0,0,0,0,0,0,0,0,-1,1616,1492,0,0
399,-468,0,0,0,0,0,0,0,0,0,-1,1623,1492,0,0
406,-468,0,0,0,0,0,0,0,0,0,-1,1630,1492,0,0
413,-468,0,0,0,0,0,0,0,0,0,-1,1637,1492,0,0
420,-468,0,0,0,0,0,0,0,0,0,-1,1644,1492,0,0
427,-468,0,0,0,0,0,0,0,0,0,-1,1651,1492,0,0
434,-468,0,0,0,0,0,0,0,0,0,-1,1658,1492,0,0
441,-468,0,0,0,0,0,0,0,0,0,-1,1665,1492,0,0
448,-468,0,0,0,0,0,0,0,0,0,-1,1672,1492,0,0
455,-468,0,0,0,0,0,0,0,0,0,-1,1679,1492,0,0
462,-468,0,0,0,0,0,0,0,0,0,-1,1686,1492,0,0
469,-468,15.6879,1.2677,0,0,0,0,0,0,0,-1,1693,1492,15.6879,-1.26772
476,-468,14.9318,1.61865,0,0,0,0,0,0,0,-1,1700,1492,14.9318,-1.61869
483,-468,11.265,4.64795,0,0,0,0,0,0,0,-1,1707,1492,11.265,-4.64798
490,-468,12.1316,3.51624,0,0,0,0,0,0,0,-1,1714,1492,12.1316,-3.51628
497,-468,16.5355,3.14587,0,0,0,0,0,0,0,-1,1721,1492,16.5356,-3.14583
504,-468,15.0642,4.10437,0,0,0,0,0,0,0,-1,1728,1492,15.0643,-4.10431
511,-468,15.6877,9.4801,0,0,0,0,0,0,0,-1,1735,1492,15.6878,-9.48007
518,-468,13.759,11.0887,0,0,0,0,0,0,0,-1,1742,1492,13.759,-11.0887
525,-468,16.6531,14.2238,0,0,0,0,0,0,0,-1,1749,1492,16.653,-14.2237
532,-468,16.9696,15.9641,0,0,0,0,0,0,0,-1,1756,1492,16.9696,-15.9641
539,-468,21.5308,20.7551,0,0,0,0,0,0,0,-1,1763,1492,21.5308,-20.7551
546,-468,25.5796,25.0283,0,0,0,0,0,0,0,-1,1770,1492,25.5796,-25.0284
553,-468,25.8137,24.2698,0,0,0,0,0,0,0,-1,1777,1492,25.8138,-24.2698
560,-468,26.0582,23.7312,0.00813179,0.00342665,-0.00272499,0.00937925,0.00217919,-0.429307,0.00566784,0.0405261,1784,1492,26.0582,-23.7312
567,-468,26.0883,23.1934,0.00628589,0.00241904,-0.00202954,0.00715553,0.00154941,-0.404824,0.00434693,0.0218764,1791,1492,26.0883,-23.1934
574,-468,26.1156,22.5536,0.00498235,0.00184289,-0.00173521,0.0057525,0.00107275,-0.417713,0.00353214,0.016475,1798,1492,26.1156,-22.5536
581,-468,26.0916,21.985,0.00396852,0.00144758,-0.00152146,0.00468381,0.000732288,-0.439471,0.00290933,0.0167744,1805,1492,26.0916,-21.985
588,-468,26.0194,21.4183,0.00323676,0.00107244,-0.001337,0.00387467,0.000434526,-0.445178,0.00245114,0.0136658,1812,1492,26.0194,-21.4184
595,-468,25.9821,20.8013,0.0028124,0.000708168,-0.00113256,0.00330613,0.000214435,-0.411103,0.0021362,0.011074,1819,1492,25.9821,-20.8013
602,-468,25.9669,20.1829,0.00256005,0.000370113,-0.000959459,0.00292094,9.22557e-06,-0.359767,0.00194422,0.00938367,1826,1492,25.9669,-20.1829
609,-468,25.9475,19.574,0.00247802,0.00010955,-0.000752633,0.00269695,-0.000109379,-0.283073,0.00183551,0.00952784,1833,1492,25.9475,-19.574
616,-468,25.9233,18.9596,0.00255798,-0.000123999,-0.000524304,0.00265683,-0.000222853,-0.186355,0.00184998,0.00981943,1840,1492,25.9233,-18.9596
623,-468,25.9166,18.3735,0.00290596,-0.000452866,-0.000213473,0.00291948,-0.000466379,-0.0632169,0.00211896,0.0111865,1847,1492,25.9166,-18.3736
630,-468,25.9139,17.7737,0.00341481,-0.000703526,0.000131332,0.00341899,-0.00070771,0.0318464,0.0025482,0.0116142,1854,1492,25.9139,-17.7737
637,-468,25.881,17.1691,0.00406222,-0.000946245,0.000483861,0.00410853,-0.000992562,0.0954327,0.00312291,0.0136782,1861,1492,25.881,-17.1691
644,-468,25.9381,16.7369,0.00489945,-0.00110092,0.000821093,0.00500978,-0.00121125,0.13357,0.00380836,0.0364284,1868,1492,25.9381,-16.7369
651,-468,26.1412,16.2913,0,0,0,0,0,0,0,-1,1875,1492,26.1413,-16.2913
658,-468,16.4969,10.0774,0,0,0,0,0,0,0,-1,1882,1492,16.497,-10.0774
665,-468,15.4673,8.59546,0,0,0,0,0,0,0,-1,1889,1492,15.4672,-8.59548
672,-468,9.96814,3.61133,0,0,0,0,0,0,0,-1,1896,1492,9.96817,-3.61139
679,-468,11.2191,1.91968,0,0,0,0,0,0,0,-1,1903,1492,11.2191,-1.91965
686,-468,11.9252,1.42285,0,0,0,0,0,0,0,-1,1910,1492,11.9252,-1.42291
693,-468,0,0,0,0,0,0,0,0,0,-1,1917,1492,0,0
700,-468,0,0,0,0,0,0,0,0,0,-1,1924,1492,0,0
707,-468,0,0,0,0,0,0,0,0,0,-1,1931,1492,0,0
714,-468,0,0,0,0,0,0,0,0,0,-1,1938,1492,0,0
721,-468,0,0,0,0,0,0,0,0,0,-1,1945,1492,0,0
728,-468,0,0,0,0,0,0,0,0,0,-1,1952,1492,0,0
735,-468,0,0,0,0,0,0,0,0,0,-1,1959,1492,0,0
742,-468,0,0,0,0,0,0,0,0,0,-1,1966,1492,0,0
749,-468,0,0,0,0,0,0,0,0,0,-1,1973,1492,0,0
756,-468,0,0,0,0,0,0,0,0,0,-1,1980,1492,0,0
763,-468,0,0,0,0,0,0,0,0,0,-1,1987,1492,0,0
770,-468,0,0,0,0,0,0,0,0,0,-1,1994,1492,0,0
777,-468,0,0,0,0,0,0,0,0,0,-1,2001,1492,0,0
784,-468,0,0,0,0,0,0,0,0,0,-1,2008,1492,0,0
791,-468,0,0,0,0,0,0,0,0,0,-1,2015,1492,0,0
798,-468,0,0,0,0,0,0,0,0,0,-1,2022,1492,0,0
805,-468,0,0,0,0,0,0,0,0,0,-1,2029,1492,0,0
812,-468,0,0,0,0,0,0,0,0,0,-1,2036,1492,0,0
-700,-475,0,0,0,0,0,0,0,0,0,-1,524,1499,0,0
-693,-475,0,0,0,0,0,0,0,0,0,-1,531,1499,0,0
-686,-475,0,0,0,0,0,0,0,0,0,-1,538,1499,0,0
-679,-475,0,0,0,0,0,0,0,0,0,-1,545,1499,0,0
-672,-475,0,0,0,0,0,0,0,0,0,-1,552,1499,0,0
-665,-475,0,0,0,0,0,0,0,0,0,-1,559,1499,0,0
-658,-475,0,0,0,0,0,0,0,0,0,-1,566,1499,0,0
-651,-475,0,0,0,0,0,0,0,0,0,-1,573,1499,0,0
-644,-475,0,0,0,0,0,0,0,0,0,-1,580,1499,0,0
-637,-475,0,0,0,0,0,0,0,0,0,-1,587,1499,0,0
-630,-475,0,0,0,0,0,0,0,0,0,-1,594,1499,0,0
-623,-475,0,0,0,0,0,0,0,0,0,-1,601,1499,0,0
-616,-475,0,0,0,0,0,0,0,0,0,-1,608,1499,0,0
-609,-475,0,0,0,0,0,0,0,0,0,-1,615,1499,0,0
-602,-475,0,0,0,0,0,0,0,0,0,-1,622,1499,0,0
-595,-475,0,0,0,0,0,0,0,0,0,-1,629,1499,0,0
-588,-475,0,0,0,0,0,0,0,0,0,-1,636,1499,0,0
-581,-475,0,0,0,0,0,0,0,0,0,-1,643,1499,0,0
-574,-475,0,0,0,0,0,0,0,0,0,-1,650,1499,0,0
-567,-475,0,0,0,0,0,0,0,0,0,-1,657,1499,0,0
-560,-475,-9.42731,9.29517,0,0,0,0,0,0,0,-1,664,1499,-9.42731,-9.29519
-553,-475,-8.15131,8.78369,0,0,0,0,0,0,0,-1,671,1499,-8.15131,-8.78367
-546,-475,-8.41254,8.20654,0,0,0,0,0,0,0,-1,678,1499,-8.41251,-8.20655
-539,-475,-4.7345,4.17419,0,0,0,0,0,0,0,-1,685,1499,-4.73449,-4.17418
-532,-475,-7.07379,4.25024,0,0,0,0,0,0,0,-1,692,1499,-7.07378,-4.2503
-525,-475,-6.13147,5.82166,0,0,0,0,0,0,0,-1,699,1499,-6.1315,-5.8216
-518,-475,-7.28784,9.31506,0,0,0,0,0,0,0,-1,706,1499,-7.28782,-9.315
-511,-475,-6.84851,12.4244,0,0,0,0,0,0,0,-1,713,1499,-6.84851,-12.4244
-504,-475,-8.47827,15.5862,0,0,0,0,0,0,0,-1,720,1499,-8.4783,-15.5862
-497,-475,-8.4895,16.4161,-0.000822734,-0.00218429,0.00120556,-0.000119016,-0.00288801,0.528369,0.00188692,0.0464774,727,1499,-8.48948,-16.4161
-490,-475,-8.4903,16.9546,-0.000969593,-0.00221683,0.000600368,-0.000727565,-0.00245885,0.383203,0.00145851,0.0147916,734,1499,-8.4903,-16.9545
-483,-475,-8.50909,17.639,-0.000769955,-0.00188111,0.000392289,-0.000645417,-0.00200565,0.307401,0.00118222,0.00944121,741,1499,-8.50911,-17.639
-476,-475,-8.53046,18.2661,-0.000331212,-0.00129876,0.0004541,-0.000151477,-0.00147849,0.376885,0.000939249,0.0112511,748,1499,-8.53046,-18.2661
-469,-475,-8.54657,18.9037,0.000319627,-0.000457516,0.00077128,0.000794687,-0.000932577,0.552056,0.000998295,0.0145233,755,1499,-8.54657,-18.9036
-462,-475,-8.52435,19.5322,0.0011424,0.000527033,0.00124817,0.00212025,-0.000450815,0.664553,0.00158528,0.0200838,762,1499,-8.52433,-19.5323
-455,-475,-8.57007,20.1631,0.00211859,0.00167266,0.00189691,0.00380559,-1.43456e-05,0.726897,0.00254186,0.0167061,769,1499,-8.57007,-20.1631
-448,-475,-8.63824,20.7926,0.00333727,0.00312676,0.00283665,0.00607062,0.000393411,0.766855,0.00392252,0.0143695,776,1499,-8.63822,-20.7926
-441,-475,-8.66827,21.429,0.00481153,0.00486078,0.00410535,0.00894158,0.000730727,0.788397,0.00573302,0.0166058,783,1499,-8.66829,-21.429
-434,-475,-8.67041,22.0525,0.00652904,0.00704992,0.00573305,0.0125284,0.00105052,0.808096,0.00802507,0.01179,790,1499,-8.67044,-22.0524
-427,-475,-8.6062,22.8048,0.0085304,0.00937275,0.00760791,0.0165711,0.00133202,0.81305,0.0106313,0.0328379,797,1499,-8.60621,-22.8048
-420,-475,-8.49237,23.5366,0,0,0,0,0,0,0,-1,804,1499,-8.49237,-23.5366
-413,-475,-6.46777,20.8481,0,0,0,0,0,0,0,-1,811,1499,-6.46776,-20.8481
-406,-475,-2.56116,12.4956,0,0,0,0,0,0,0,-1,818,1499,-2.56116,-12.4956
-399,-475,-1.39667,6.1615,0,0,0,0,0,0,0,-1,825,1499,-1.39664,-6.16155
-392,-475,0.217163,8.61389,0,0,0,0,0,0,0,-1,832,1499,0.217167,-8.6139
-385,-475,1.18372,2.73999,0,0,0,0,0,0,0,-1,839,1499,1.18372,-2.73995
-378,-475,1.31409,2.90149,0,0,0,0,0,0,0,-1,846,1499,1.31411,-2.90151
-371,-475,2.3476,3.31116,0,0,0,0,0,0,0,-1,853,1499,2.34761,-3.31121
-364,-475,1.04462,9.05823,0,0,0,0,0,0,0,-1,860,1499,1.04461,-9.05825
-357,-475,-0.262756,7.97205,0,0,0,0,0,0,0,-1,867,1499,-0.262784,-7.97205
-350,-475,-2.77173,4.35486,0,0,0,0,0,0,0,-1,874,1499,-2.77175,-4.35491
-343,-475,-6.38824,-1.48096,0,0,0,0,0,0,0,-1,881,1499,-6.38827,1.48097
-336,-475,0,0,0,0,0,0,0,0,0,-1,888,1499,0,0
-329,-475,0,0,0,0,0,0,0,0,0,-1,895,1499,0,0
-322,-475,0,0,0,0,0,0,0,0,0,-1,902,1499,0,0
-315,-475,0,0,0,0,0,0,0,0,0,-1,909,1499,0,0
-308,-475,0,0,0,0,0,0,0,0,0,-1,916,1499,0,0
-301,-475,0,0,0,0,0,0,0,0,0,-1,923,1499,0,0
-294,-475,0,0,0,0,0,0,0,0,0,-1,930,1499,0,0
-287,-475,0,0,0,0,0,0,0,0,0,-1,937,1499,0,0
-280,-475,0,0,0,0,0,0,0,0,0,-1,944,1499,0,0
-273,-475,0,0,0,0,0,0,0,0,0,-1,951,1499,0,0
-266,-475,0,0,0,0,0,0,0,0,0,-1,958,1499,0,0
-259,-475,0,0,0,0,0,0,0,0,0,-1,965,1499,0,0
-252,-475,0,0,0,0,0,0,0,0,0,-1,972,1499,0,0
-245,-475,0,0,0,0,0,0,0,0,0,-1,979,1499,0,0
-238,-475,0,0,0,0,0,0,0,0,0,-1,986,1499,0,0
-231,-475,0,0,0,0,0,0,0,0,0,-1,993,1499,0,0
-224,-475,0,0,0,0,0,0,0,0,0,-1,1000,1499,0,0
-217,-475,0,0,0,0,0,0,0,0,0,-1,1007,1499,0,0
-210,-475,0,0,0,0,0,0,0,0,0,-1,1014,1499,0,0
-203,-475,0,0,0,0,0,0,0,0,0,-1,1021,1499,0,0
-196,-475,0,0,0,0,0,0,0,0,0,-1,1028,1499,0,0
-189,-475,0,0,0,0,0,0,0,0,0,-1,1035,1499,0,0
-182,-475,0,0,0,0,0,0,0,0,0,-1,1042,1499,0,0
-175,-475,0,0,0,0,0,0,0,0,0,-1,1049,1499,0,0
-168,-475,0,0,0,0,0,0,0,0,0,-1,1056,1499,0,0
-161,-475,0,0,0,0,0,0,0,0,0,-1,1063,1499,0,0
-154,-475,0,0,0,0,0,0,0,0,0,-1,1070,1499,0,0
-147,-475,0,0,0,0,0,0,0,0,0,-1,1077,1499,0,0
-140,-475,0,0,0,0,0,0,0,0,0,-1,1084,1499,0,0
-133,-475,0,0,0,0,0,0,0,0,0,-1,1091,1499,0,0
-126,-475,0,0,0,0,0,0,0,0,0,-1,1098,1499,0,0
-119,-475,0,0,0,0,0,0,0,0,0,-1,1105,1499,0,0
-112,-475,0,0,0,0,0,0,0,0,0,-1,1112,1499,0,0
-105,-475,0,0,0,0,0,0,0,0,0,-1,1119,1499,0,0
-98,-475,0,0,0,0,0,0,0,0,0,-1,1126,1499,0,0
-91,-475,0,0,0,0,0,0,0,0,0,-1,1133,1499,0,0
-84,-475,0,0,0,0,0,0,0,0,0,-1,1140,1499,0,0
-77,-475,0,0,0,0,0,0,0,0,0,-1,1147,1499,0,0
-70,-475,0,0,0,0,0,0,0,0,0,-1,1154,1499,0,0
-63,-475,0,0,0,0,0,0,0,0,0,-1,1161,1499,0,0
-56,-475,0,0,0,0,0,0,0,0,0,-1,1168,1499,0,0
-49,-475,0,0,0,0,0,0,0,0,0,-1,1175,1499,0,0
-42,-475,0,0,0,0,0,0,0,0,0,-1,1182,1499,0,0
-35,-475,0,0,0,0,0,0,0,0,0,-1,1189,1499,0,0
-28,-475,0,0,0,0,0,0,0,0,0,-1,1196,1499,0,0
-21,-475,0,0,0,0,0,0,0,0,0,-1,1203,1499,0,0
-14,-475,0,0,0,0,0,0,0,0,0,-1,1210,1499,0,0
-7,-475,0,0,0,0,0,0,0,0,0,-1,1217,1499,0,0
0,-475,0,0,0,0,0,0,0,0,0,-1,1224,1499,0,0
7,-475,0,0,0,0,0,0,0,0,0,-1,1231,1499,0,0
14,-475,0,0,0,0,0,0,0,0,0,-1,1238,1499,0,0
21,-475,0,0,0,0,0,0,0,0,0,-1,1245,1499,0,0
28,-475,0,0,0,0,0,0,0,0,0,-1,1252,1499,0,0
35,-475,0,0,0,0,0,0,0,0,0,-1,1259,1499,0,0
42,-475,0,0,0,0,0,0,0,0,0,-1,1266,1499,0,0
49,-475,0,0,0,0,0,0,0,0,0,-1,1273,1499,0,0
56,-475,0,0,0,0,0,0,0,0,0,-1,1280,1499,0,0
63,-475,0,0,0,0,0,0,0,0,0,-1,1287,1499,0,0
70,-475,0,0,0,0,0,0,0,0,0,-1,1294,1499,0,0
77,-475,0,0,0,0,0,0,0,0,0,-1,1301,1499,0,0
84,-475,0,0,0,0,0,0,0,0,0,-1,1308,1499,0,0
91,-475,0,0,0,0,0,0,0,0,0,-1,1315,1499,0,0
98,-475,0,0,0,0,0,0,0,0,0,-1,1322,1499,0,0
105,-475,0,0,0,0,0,0,0,0,0,-1,1329,1499,0,0
112,-475,0,0,0,0,0,0,0,0,0,-1,1336,1499,0,0
119,-475,0,0,0,0,0,0,0,0,0,-1,1343,1499,0,0
126,-475,0,0,0,0,0,0,0,0,0,-1,1350,1499,0,0
133,-475,0,0,0,0,0,0,0,0,0,-1,1357,1499,0,0
140,-475,0,0,0,0,0,0,0,0,0,-1,1364,1499,0,0
147,-475,0,0,0,0,0,0,0,0,0,-1,1371,1499,0,0
154,-475,0,0,0,0,0,0,0,0,0,-1,1378,1499,0,0
161,-475,0,0,0,0,0,0,0,0,0,-1,1385,1499,0,0
168,-475,0,0,0,0,0,0,0,0,0,-1,1392,1499,0,0
175,-475,0,0,0,0,0,0,0,0,0,-1,1399,1499,0,0
182,-475,0,0,0,0,0,0,0,0,0,-1,1406,1499,0,0
189,-475,0,0,0,0,0,0,0,0,0,-1,1413,1499,0,0
196,-475,0,0,0,0,0,0,0,0,0,-1,1420,1499,0,0
203,-475,0,0,0,0,0,0,0,0,0,-1,1427,1499,0,0
210,-475,0,0,0,0,0,0,0,0,0,-1,1434,1499,0,0
217,-475,0,0,0,0,0,0,0,0,0,-1,1441,1499,0,0
224,-475,0,0,0,0,0,0,0,0,0,-1,1448,1499,0,0
231,-475,0,0,0,0,0,0,0,0,0,-1,1455,1499,0,0
238,-475,0,0,0,0,0,0,0,0,0,-1,1462,1499,0,0
245,-475,0,0,0,0,0,0,0,0,0,-1,1469,1499,0,0
252,-475,0,0,0,0,0,0,0,0,0,-1,1476,1499,0,0
259,-475,0,0,0,0,0,0,0,0,0,-1,1483,1499,0,0
266,-475,0,0,0,0,0,0,0,0,0,-1,1490,1499,0,0
273,-475,0,0,0,0,0,0,0,0,0,-1,1497,1499,0,0
280,-475,0,0,0,0,0,0,0,0,0,-1,1504,1499,0,0
287,-475,0,0,0,0,0,0,0,0,0,-1,1511,1499,0,0
294,-475,0,0,0,0,0,0,0,0,0,-1,1518,1499,0,0
301,-475,0,0,0,0,0,0,0,0,0,-1,1525,1499,0,0
308,-475,0,0,0,0,0,0,0,0,0,-1,1532,1499,0,0
315,-475,0,0,0,0,0,0,0,0,0,-1,1539,1499,0,0
322,-475,0,0,0,0,0,0,0,0,0,-1,1546,1499,0,0
329,-475,0,0,0,0,0,0,0,0,0,-1,1553,1499,0,0
336,-475,0,0,0,0,0,0,0,0,0,-1,1560,1499,0,0
343,-475,0,0,0,0,0,0,0,0,0,-1,1567,1499,0,0
350,-475,0,0,0,0,0,0,0,0,0,-1,1574,1499,0,0
357,-475,0,0,0,0,0,0,0,0,0,-1,1581,1499,0,0
364,-475,0,0,0,0,0,0,0,0,0,-1,1588,1499,0,0
371,-475,0,0,0,0,0,0,0,0,0,-1,1595,1499,0,0
378,-475,0,0,0,0,0,0,0,0,0,-1,1602,1499,0,0
385,-475,0,0,0,0,0,0,0,0,0,-1,1609,1499,0,0
392,-475,0,0,0,0,0,0,0,0,0,-1,1616,1499,0,0
399,-475,0,0,0,0,0,0,0,0,0,-1,1623,1499,0,0
406,-475,0,0,0,0,0,0,0,0,0,-1,1630,1499,0,0
413,-475,0,0,0,0,0,0,0,0,0,-1,1637,1499,0,0
420,-475,0,0,0,0,0,0,0,0,0,-1,1644,1499,0,0
427,-475,0,0,0,0,0,0,0,0,0,-1,1651,1499,0,0
434,-475,0,0,0,0,0,0,0,0,0,-1,1658,1499,0,0
441,-475,0,0,0,0,0,0,0,0,0,-1,1665,1499,0,0
448,-475,0,0,0,0,0,0,0,0,0,-1,1672,1499,0,0
455,-475,0,0,0,0,0,0,0,0,0,-1,1679,1499,0,0
462,-475,12.6372,0.275391,0,0,0,0,0,0,0,-1,1686,1499,12.6372,-0.27536
469,-475,15.6437,2.28296,0,0,0,0,0,0,0,-1,1693,1499,15.6437,-2.28293
476,-475,15.3302,2.71436,0,0,0,0,0,0,0,-1,1700,1499,15.3303,-2.7143
483,-475,10.7461,5.91479,0,0,0,0,0,0,0,-1,1707,1499,10.7461,-5.91476
490,-475,11.9305,4.4364,0,0,0,0,0,0,0,-1,1714,1499,11.9305,-4.43644
497,-475,15.3451,4.3479,0,0,0,0,0,0,0,-1,1721,1499,15.3451,-4.34789
504,-475,16.9646,7.71265,0,0,0,0,0,0,0,-1,1728,1499,16.9646,-7.71265
511,-475,18.941,12.7572,0,0,0,0,0,0,0,-1,1735,1499,18.941,-12.7572
518,-475,17.0021,13.8564,0,0,0,0,0,0,0,-1,1742,1499,17.0021,-13.8564
525,-475,17.5637,15.2103,0,0,0,0,0,0,0,-1,1749,1499,17.5637,-15.2103
532,-475,20.8623,20.8413,0,0,0,0,0,0,0,-1,1756,1499,20.8623,-20.8413
539,-475,20.5494,20.8519,0,0,0,0,0,0,0,-1,1763,1499,20.5494,-20.852
546,-475,20.4524,19.8799,0,0,0,0,0,0,0,-1,1770,1499,20.4524,-19.8798
553,-475,25.1853,24.5656,0,0,0,0,0,0,0,-1,1777,1499,25.1853,-24.5656
560,-475,25.3347,23.9015,0.00701621,0.00325992,-0.00254997,0.00830505,0.00197109,-0.467984,0.00501061,0.0293177,1784,1499,25.3347,-23.9015
567,-475,25.5311,23.1699,0.00549037,0.00227228,-0.00187882,0.00635498,0.00140767,-0.431295,0.0038541,0.0153766,1791,1499,25.5311,-23.17
574,-475,25.4889,22.5798,0.00440693,0.00169187,-0.00157653,0.00512986,0.000968936,-0.42995,0.00314705,0.0145896,1798,1499,25.4889,-22.5798
581,-475,25.4449,22.0157,0.0035442,0.0012747,-0.00136232,0.00418247,0.000636433,-0.438141,0.00260224,0.0122017,1805,1499,25.4449,-22.0158
588,-475,25.4181,21.4156,0.00295618,0.000936402,-0.00121804,0.00352854,0.000364047,-0.439278,0.00224089,0.0106539,1812,1499,25.4181,-21.4157
595,-475,25.4124,20.8062,0.0026889,0.000604907,-0.00106466,0.00313662,0.000157189,-0.398077,0.0020407,0.0112195,1819,1499,25.4123,-20.8061
602,-475,25.3782,20.2057,0.00255394,0.000339206,-0.000968819,0.00291792,-2.47775e-05,-0.359382,0.00195359,0.0125166,1826,1499,25.3782,-20.2057
609,-475,25.3358,19.6128,0.00257399,0.00015085,-0.000832263,0.00283231,-0.000107466,-0.30095,0.00192503,0.0118757,1833,1499,25.3359,-19.6128
616,-475,25.3112,19.02,0.00279604,-6.53631e-05,-0.000632029,0.00292943,-0.000198748,-0.207991,0.00202246,0.0115901,1840,1499,25.3112,-19.02
623,-475,25.3174,18.3981,0.00325277,-0.000426882,-0.000303112,0.00327757,-0.000451684,-0.0816418,0.00235012,0.0111065,1847,1499,25.3174,-18.3981
630,-475,25.3173,17.7871,0.0038206,-0.000661416,9.42654e-05,0.00382258,-0.000663398,0.0210195,0.00279588,0.0128747,1854,1499,25.3173,-17.7871
637,-475,25.2736,17.191,0.00450022,-0.00100686,0.000590193,0.00456276,-0.00106941,0.105572,0.00345394,0.0231195,1861,1499,25.2736,-17.1911
644,-475,25.257,16.8695,0,0,0,0,0,0,0,-1,1868,1499,25.2569,-16.8695
651,-475,11.7965,7.57593,0,0,0,0,0,0,0,-1,1875,1499,11.7965,-7.5759
658,-475,14.6708,8.80322,0,0,0,0,0,0,0,-1,1882,1499,14.6708,-8.8032
665,-475,9.33435,5.43335,0,0,0,0,0,0,0,-1,1889,1499,9.33439,-5.43332
672,-475,9.38635,1.10474,0,0,0,0,0,0,0,-1,1896,1499,9.38629,-1.10475
679,-475,12.2594,1.31079,0,0,0,0,0,0,0,-1,1903,1499,12.2594,-1.31077
686,-475,0,0,0,0,0,0,0,0,0,-1,1910,1499,0,0
693,-475,0,0,0,0,0,0,0,0,0,-1,1917,1499,0,0
700,-475,0,0,0,0,0,0,0,0,0,-1,1924,1499,0,0
707,-475,0,0,0,0,0,0,0,0,0,-1,1931,1499,0,0
714,-475,0,0,0,0,0,0,0,0,0,-1,1938,1499,0,0
721,-475,0,0,0,0,0,0,0,0,0,-1,1945,1499,0,0
728,-475,0,0,0,0,0,0,0,0,0,-1,1952,1499,0,0
735,-475,0,0,0,0,0,0,0,0,0,-1,1959,1499,0,0
742,-475,0,0,0,0,0,0,0,0,0,-1,1966,1499,0,0
749,-475,0,0,0,0,0,0,0,0,0,-1,1973,1499,0,0
756,-475,0,0,0,0,0,0,0,0,0,-1,1980,1499,0,0
763,-475,0,0,0,0,0,0,0,0,0,-1,1987,1499,0,0
770,-475,0,0,0,0,0,0,0,0,0,-1,1994,1499,0,0
777,-475,0,0,0,0,0,0,0,0,0,-1,2001,1499,0,0
784,-475,0,0,0,0,0,0,0,0,0,-1,2008,1499,0,0
791,-475,0,0,0,0,0,0,0,0,0,-1,2015,1499,0,0
798,-475,0,0,0,0,0,0,0,0,0,-1,2022,1499,0,0
805,-475,0,0,0,0,0,0,0,0,0,-1,2029,1499,0,0
812,-475,0,0,0,0,0,0,0,0,0,-1,2036,1499,0,0
-700,-482,0,0,0,0,0,0,0,0,0,-1,524,1506,0,0
-693,-482,0,0,0,0,0,0,0,0,0,-1,531,1506,0,0
-686,-482,0,0,0,0,0,0,0,0,0,-1,538,1506,0,0
-679,-482,0,0,0,0,0,0,0,0,0,-1,545,1506,0,0
-672,-482,0,0,0,0,0,0,0,0,0,-1,552,1506,0,0
-665,-482,0,0,0,0,0,0,0,0,0,-1,559,1506,0,0
-658,-482,0,0,0,0,0,0,0,0,0,-1,566,1506,0,0
-651,-482,0,0,0,0,0,0,0,0,0,-1,573,1506,0,0
-644,-482,0,0,0,0,0,0,0,0,0,-1,580,1506,0,0
-637,-482,0,0,0,0,0,0,0,0,0,-1,587,1506,0,0
-630,-482,0,0,0,0,0,0,0,0,0,-1,594,1506,0,0
-623,-482,0,0,0,0,0,0,0,0,0,-1,601,1506,0,0
-616,-482,0,0,0,0,0,0,0,0,0,-1,608,1506,0,0
-609,-482,0,0,0,0,0,0,0,0,0,-1,615,1506,0,0
-602,-482,0,0,0,0,0,0,0,0,0,-1,622,1506,0,0
-595,-482,0,0,0,0,0,0,0,0,0,-1,629,1506,0,0
-588,-482,0,0,0,0,0,0,0,0,0,-1,636,1506,0,0
-581,-482,0,0,0,0,0,0,0,0,0,-1,643,1506,0,0
-574,-482,0,0,0,0,0,0,0,0,0,-1,650,1506,0,0
-567,-482,0,0,0,0,0,0,0,0,0,-1,657,1506,0,0
-560,-482,0,0,0,0,0,0,0,0,0,-1,664,1506,0,0
-553,-482,-9.06055,9.34314,0,0,0,0,0,0,0,-1,671,1506,-9.06056,-9.34312
-546,-482,-4.08624,8.34241,0,0,0,0,0,0,0,-1,678,1506,-4.08624,-8.3424
-539,-482,-4.29877,2.73499,0,0,0,0,0,0,0,-1,685,1506,-4.29879,-2.73494
-532,-482,-3.63611,4.23987,0,0,0,0,0,0,0,-1,692,1506,-3.63609,-4.23983
-525,-482,-6.19116,5.24927,0,0,0,0,0,0,0,-1,699,1506,-6.19117,-5.24927
-518,-482,-5.92957,6.39807,0,0,0,0,0,0,0,-1,706,1506,-5.92958,-6.39806
-511,-482,-7.74634,11.9137,0,0,0,0,0,0,0,-1,713,1506,-7.74633,-11.9137
-504,-482,-6.42358,13.4211,0,0,0,0,0,0,0,-1,720,1506,-6.42356,-13.4212
-497,-482,-7.91846,16.1486,0,0,0,0,0,0,0,-1,727,1506,-7.91845,-16.1485
-490,-482,-7.91644,16.939,-0.00221992,-0.00291441,0.000275358,-0.002124,-0.00301034,0.335221,0.00178631,0.044543,734,1506,-7.91642,-16.9389
-483,-482,-7.8808,17.6495,-0.00184711,-0.00255186,4.37971e-05,-0.0018444,-0.00255457,0.0618286,0.00152257,0.0110779,741,1506,-7.88078,-17.6495
-476,-482,-7.8913,18.2899,-0.0012859,-0.00195961,6.51773e-05,-0.00127965,-0.00196586,0.0955629,0.0011521,0.0107557,748,1506,-7.89128,-18.2899
-469,-482,-7.92352,18.9362,-0.000541394,-0.00116194,0.000347131,-0.000386081,-0.00131725,0.420704,0.000781918,0.0129329,755,1506,-7.92353,-18.9361
-462,-482,-7.92999,19.5605,0.000319963,-0.000224072,0.000774175,0.000868519,-0.000772627,0.616453,0.000948055,0.0138652,762,1506,-7.93002,-19.5605
-455,-482,-7.94073,20.1626,0.00128056,0.000830169,0.00134662,0.00242068,-0.000309949,0.702549,0.0017264,0.0136832,769,1506,-7.94071,-20.1626
-448,-482,-7.98749,20.826,0.00242566,0.00212694,0.00216671,0.00444815,0.000104453,0.750985,0.00293124,0.0137424,776,1506,-7.9875,-20.8261
-441,-482,-8.03986,21.4753,0.00376141,0.00368687,0.00330224,0.00702659,0.000421697,0.779755,0.00455034,0.0121103,783,1506,-8.03985,-21.4754
-434,-482,-8.06458,22.1241,0.00525683,0.00561462,0.00473183,0.0101709,0.000700513,0.804292,0.0065596,0.015217,790,1506,-8.06456,-22.1241
-427,-482,-8.07159,22.7823,0.00695424,0.00762165,0.00633504,0.0136318,0.000944115,0.811712,0.00879006,0.019627,797,1506,-8.07158,-22.7824
-420,-482,-8.10571,23.6908,0,0,0,0,0,0,0,-1,804,1506,-8.10573,-23.6908
-413,-482,-6.56415,22.3163,0,0,0,0,0,0,0,-1,811,1506,-6.56417,-22.3163
-406,-482,-2.51373,12.7556,0,0,0,0,0,0,0,-1,818,1506,-2.51376,-12.7556
-399,-482,-1.3822,9.22595,0,0,0,0,0,0,0,-1,825,1506,-1.38221,-9.22598
-392,-482,-1.06836,9.22729,0,0,0,0,0,0,0,-1,832,1506,-1.06835,-9.2273
-385,-482,0.0647583,8.90649,0,0,0,0,0,0,0,-1,839,1506,0.0647778,-8.90644
-378,-482,0.215698,5.96948,0,0,0,0,0,0,0,-1,846,1506,0.215681,-5.9695
-371,-482,-0.10907,8.10437,0,0,0,0,0,0,0,-1,853,1506,-0.109063,-8.10433
-364,-482,-0.154968,10.5032,0,0,0,0,0,0,0,-1,860,1506,-0.154976,-10.5032
-357,-482,2.14807,4.60144,0,0,0,0,0,0,0,-1,867,1506,2.14807,-4.60144
-350,-482,-7.5813,-1.45935,0,0,0,0,0,0,0,-1,874,1506,-7.58133,1.45937
-343,-482,-7.19983,-1.26416,0,0,0,0,0,0,0,-1,881,1506,-7.19981,1.26414
-336,-482,-2.30151,-0.242676,0,0,0,0,0,0,0,-1,888,1506,-2.30153,0.242648
-329,-482,0,0,0,0,0,0,0,0,0,-1,895,1506,0,0
-322,-482,0,0,0,0,0,0,0,0,0,-1,902,1506,0,0
-315,-482,0,0,0,0,0,0,0,0,0,-1,909,1506,0,0
-308,-482,0,0,0,0,0,0,0,0,0,-1,916,1506,0,0
-301,-482,0,0,0,0,0,0,0,0,0,-1,923,1506,0,0
-294,-482,0,0,0,0,0,0,0,0,0,-1,930,1506,0,0
-287,-482,0,0,0,0,0,0,0,0,0,-1,937,1506,0,0
-280,-482,0,0,0,0,0,0,0,0,0,-1,944,1506,0,0
-273,-482,0,0,0,0,0,0,0,0,0,-1,951,1506,0,0
-266,-482,0,0,0,0,0,0,0,0,0,-1,958,1506,0,0
-259,-482,0,0,0,0,0,0,0,0,0,-1,965,1506,0,0
-252,-482,0,0,0,0,0,0,0,0,0,-1,972,1506,0,0
-245,-482,0,0,0,0,0,0,0,0,0,-1,979,1506,0,0
-238,-482,0,0,0,0,0,0,0,0,0,-1,986,1506,0,0
-231,-482,0,0,0,0,0,0,0,0,0,-1,993,1506,0,0
-224,-482,0,0,0,0,0,0,0,0,0,-1,1000,1506,0,0
-217,-482,0,0,0,0,0,0,0,0,0,-1,1007,1506,0,0
-210,-482,0,0,0,0,0,0,0,0,0,-1,1014,1506,0,0
-203,-482,0,0,0,0,0,0,0,0,0,-1,1021,1506,0,0
-196,-482,0,0,0,0,0,0,0,0,0,-1,1028,1506,0,0
-189,-482,0,0,0,0,0,0,0,0,0,-1,1035,1506,0,0
-182,-482,0,0,0,0,0,0,0,0,0,-1,1042,1506,0,0
-175,-482,0,0,0,0,0,0,0,0,0,-1,1049,1506,0,0
-168,-482,0,0,0,0,0,0,0,0,0,-1,1056,1506,0,0
-161,-482,0,0,0,0,0,0,0,0,0,-1,1063,1506,0,0
-154,-482,0,0,0,0,0,0,0,0,0,-1,1070,1506,0,0
-147,-482,0,0,0,0,0,0,0,0,0,-1,1077,1506,0,0
-140,-482,0,0,0,0,0,0,0,0,0,-1,1084,1506,0,0
-133,-482,0,0,0,0,0,0,0,0,0,-1,1091,1506,0,0
-126,-482,0,0,0,0,0,0,0,0,0,-1,1098,1506,0,0
-119,-482,0,0,0,0,0,0,0,0,0,-1,1105,1506,0,0
-112,-482,0,0,0,0,0,0,0,0,0,-1,1112,1506,0,0
-105,-482,0,0,0,0,0,0,0,0,0,-1,1119,1506,0,0
-98,-482,0,0,0,0,0,0,0,0,0,-1,1126,1506,0,0
-91,-482,0,0,0,0,0,0,0,0,0,-1,1133,1506,0,0
-84,-482,0,0,0,0,0,0,0,0,0,-1,1140,1506,0,0
-77,-482,0,0,0,0,0,0,0,0,0,-1,1147,1506,0,0
-70,-482,0,0,0,0,0,0,0,0,0,-1,1154,1506,0,0
-63,-482,0,0,0,0,0,0,0,0,0,-1,1161,1506,0,0
-56,-482,0,0,0,0,0,0,0,0,0,-1,1168,1506,0,0
-49,-482,0,0,0,0,0,0,0,0,0,-1,1175,1506,0,0
-42,-482,0,0,0,0,0,0,0,0,0,-1,1182,1506,0,0
-35,-482,0,0,0,0,0,0,0,0,0,-1,1189,1506,0,0
-28,-482,0,0,0,0,0,0,0,0,0,-1,1196,1506,0,0
-21,-482,0,0,0,0,0,0,0,0,0,-1,1203,1506,0,0
-14,-482,0,0,0,0,0,0,0,0,0,-1,1210,1506,0,0
-7,-482,0,0,0,0,0,0,0,0,0,-1,1217,1506,0,0
0,-482,0,0,0,0,0,0,0,0,0,-1,1224,1506,0,0
7,-482,0,0,0,0,0,0,0,0,0,-1,1231,1506,0,0
14,-482,0,0,0,0,0,0,0,0,0,-1,1238,1506,0,0
21,-482,0,0,0,0,0,0,0,0,0,-1,1245,1506,0,0
28,-482,0,0,0,0,0,0,0,0,0,-1,1252,1506,0,0
35,-482,0,0,0,0,0,0,0,0,0,-1,1259,1506,0,0
42,-482,0,0,0,0,0,0,0,0,0,-1,1266,1506,0,0
49,-482,0,0,0,0,0,0,0,0,0,-1,1273,1506,0,0
56,-482,0,0,0,0,0,0,0,0,0,-1,1280,1506,0,0
63,-482,0,0,0,0,0,0,0,0,0,-1,1287,1506,0,0
70,-482,0,0,0,0,0,0,0,0,0,-1,1294,1506,0,0
77,-482,0,0,0,0,0,0,0,0,0,-1,1301,1506,0,0
84,-482,0,0,0,0,0,0,0,0,0,-1,1308,1506,0,0
91,-482,0,0,0,0,0,0,0,0,0,-1,1315,1506,0,0
98,-482,0,0,0,0,0,0,0,0,0,-1,1322,1506,0,0
105,-482,0,0,0,0,0,0,0,0,0,-1,1329,1506,0,0
112,-482,0,0,0,0,0,0,0,0,0,-1,1336,1506,0,0
119,-482,0,0,0,0,0,0,0,0,0,-1,1343,1506,0,0
126,-482,0,0,0,0,0,0,0,0,0,-1,1350,1506,0,0
133,-482,0,0,0,0,0,0,0,0,0,-1,1357,1506,0,0
140,-482,0,0,0,0,0,0,0,0,0,-1,1364,1506,0,0
147,-482,0,0,0,0,0,0,0,0,0,-1,1371,1506,0,0
154,-482,0,0,0,0,0,0,0,0,0,-1,1378,1506,0,0
161,-482,0,0,0,0,0,0,0,0,0,-1,1385,1506,0,0
168,-482,0,0,0,0,0,0,0,0,0,-1,1392,1506,0,0
175,-482,0,0,0,0,0,0,0,0,0,-1,1399,1506,0,0
182,-482,0,0,0,0,0,0,0,0,0,-1,1406,1506,0,0
189,-482,0,0,0,0,0,0,0,0,0,-1,1413,1506,0,0
196,-482,0,0,0,0,0,0,0,0,0,-1,1420,1506,0,0
203,-482,0,0,0,0,0,0,0,0,0,-1,1427,1506,0,0
210,-482,0,0,0,0,0,0,0,0,0,-1,1434,1506,0,0
217,-482,0,0,0,0,0,0,0,0,0,-1,1441,1506,0,0
224,-482,0,0,0,0,0,0,0,0,0,-1,1448,1506,0,0
231,-482,0,0,0,0,0,0,0,0,0,-1,1455,1506,0,0
238,-482,0,0,0,0,0,0,0,0,0,-1,1462,1506,0,0
245,-482,0,0,0,0,0,0,0,0,0,-1,1469,1506,0,0
252,-482,0,0,0,0,0,0,0,0,0,-1,1476,1506,0,0
259,-482,0,0,0,0,0,0,0,0,0,-1,1483,1506,0,0
266,-482,0,0,0,0,0,0,0,0,0,-1,1490,1506,0,0
273,-482,0,0,0,0,0,0,0,0,0,-1,1497,1506,0,0
280,-482,0,0,0,0,0,0,0,0,0,-1,1504,1506,0,0
287,-482,0,0,0,0,0,0,0,0,0,-1,1511,1506,0,0
294,-482,0,0,0,0,0,0,0,0,0,-1,1518,1506,0,0
301,-482,0,0,0,0,0,0,0,0,0,-1,1525,1506,0,0
308,-482,0,0,0,0,0,0,0,0,0,-1,1532,1506,0,0
315,-482,0,0,0,0,0,0,0,0,0,-1,1539,1506,0,0
322,-482,0,0,0,0,0,0,0,0,0,-1,1546,1506,0,0
329,-482,0,0,0,0,0,0,0,0,0,-1,1553,1506,0,0
336,-482,0,0,0,0,0,0,0,0,0,-1,1560,1506,0,0
343,-482,0,0,0,0,0,0,0,0,0,-1,1567,1506,0,0
350,-482,0,0,0,0,0,0,0,0,0,-1,1574,1506,0,0
357,-482,0,0,0,0,0,0,0,0,0,-1,1581,1506,0,0
364,-482,0,0,0,0,0,0,0,0,0,-1,1588,1506,0,0
371,-482,0,0,0,0,0,0,0,0,0,-1,1595,1506,0,0
378,-482,0,0,0,0,0,0,0,0,0,-1,1602,1506,0,0
385,-482,0,0,0,0,0,0,0,0,0,-1,1609,1506,0,0
392,-482,0,0,0,0,0,0,0,0,0,-1,1616,1506,0,0
399,-482,0,0,0,0,0,0,0,0,0,-1,1623,1506,0,0
406,-482,0,0,0,0,0,0,0,0,0,-1,1630,1506,0,0
413,-482,0,0,0,0,0,0,0,0,0,-1,1637,1506,0,0
420,-482,0,0,0,0,0,0,0,0,0,-1,1644,1506,0,0
427,-482,0,0,0,0,0,0,0,0,0,-1,1651,1506,0,0
434,-482,0,0,0,0,0,0,0,0,0,-1,1658,1506,0,0
441,-482,0,0,0,0,0,0,0,0,0,-1,1665,1506,0,0
448,-482,4.24146,1.55383,0,0,0,0,0,0,0,-1,1672,1506,4.24149,-1.55381
455,-482,12.4122,1.09729,0,0,0,0,0,0,0,-1,1679,1506,12.4122,-1.09734
462,-482,15.0673,3.13135,0,0,0,0,0,0,0,-1,1686,1506,15.0672,-3.13134
469,-482,15.3793,3.46301,0,0,0,0,0,0,0,-1,1693,1506,15.3793,-3.46307
476,-482,8.69751,9.18738,0,0,0,0,0,0,0,-1,1700,1506,8.69753,-9.18739
483,-482,10.0902,7.17432,0,0,0,0,0,0,0,-1,1707,1506,10.0902,-7.1743
490,-482,11.6289,5.4928,0,0,0,0,0,0,0,-1,1714,1506,11.6289,-5.49283
497,-482,15.9539,7.40222,0,0,0,0,0,0,0,-1,1721,1506,15.9538,-7.40219
504,-482,20.4233,12.006,0,0,0,0,0,0,0,-1,1728,1506,20.4233,-12.006
511,-482,18.4937,12.9175,0,0,0,0,0,0,0,-1,1735,1506,18.4936,-12.9174
518,-482,16.6002,13.9679,0,0,0,0,0,0,0,-1,1742,1506,16.6003,-13.9679
525,-482,18.495,15.9618,0,0,0,0,0,0,0,-1,1749,1506,18.495,-15.9618
532,-482,19.9375,21.0775,0,0,0,0,0,0,0,-1,1756,1506,19.9375,-21.0775
539,-482,20.2291,20.5577,0,0,0,0,0,0,0,-1,1763,1506,20.2291,-20.5578
546,-482,24.826,25.3296,0,0,0,0,0,0,0,-1,1770,1506,24.826,-25.3296
553,-482,24.7866,24.5016,0,0,0,0,0,0,0,-1,1777,1506,24.7867,-24.5016
560,-482,24.8223,23.822,0.0059645,0.00303947,-0.00236371,0.00728157,0.00172241,-0.508357,0.00439424,0.0156604,1784,1506,24.8222,-23.822
567,-482,24.9142,23.2031,0.00473145,0.00213154,-0.00174773,0.00560967,0.00125332,-0.465639,0.0033999,0.0150043,1791,1506,24.9142,-23.2031
574,-482,24.8931,22.6235,0.00387449,0.00158181,-0.00146449,0.00458794,0.000868359,-0.453329,0.00281419,0.0140288,1798,1506,24.893,-22.6235
581,-482,24.847,22.0334,0.00319376,0.00117066,-0.00127586,0.00381042,0.000554011,-0.450219,0.00237723,0.00988396,1805,1506,24.847,-22.0335
588,-482,24.8217,21.4209,0.00278068,0.000878102,-0.00118801,0.00335133,0.000307445,-0.447802,0.00213912,0.0107192,1812,1506,24.8216,-21.4209
595,-482,24.8219,20.8254,0.00269569,0.000600511,-0.00110728,0.00317241,0.00012379,-0.406546,0.00207491,0.0169654,1819,1506,24.8219,-20.8255
602,-482,24.7937,20.239,0.00272071,0.000422929,-0.00111203,0.00317075,-2.71045e-05,-0.384548,0.00212292,0.0205311,1826,1506,24.7937,-20.239
609,-482,24.7596,19.6432,0.00288633,0.000312549,-0.00107555,0.00327661,-7.77313e-05,-0.348089,0.00221078,0.0157992,1833,1506,24.7596,-19.6432
616,-482,24.7211,19.0527,0.00332278,0.000112223,-0.000932676,0.00357406,-0.000139056,-0.263168,0.00243038,0.0118441,1840,1506,24.721,-19.0528
623,-482,24.6921,18.4528,0.00396006,-0.000245025,-0.00062945,0.00405226,-0.000337224,-0.145442,0.00282064,0.0171927,1847,1506,24.6921,-18.4528
630,-482,24.6895,17.894,0.00462474,-0.000427631,-0.000218908,0.0046342,-0.000437098,-0.0432198,0.003245,0.037694,1854,1506,24.6895,-17.894
637,-482,24.684,17.1949,0,0,0,0,0,0,0,-1,1861,1506,24.684,-17.1949
644,-482,17.5909,11.6163,0,0,0,0,0,0,0,-1,1868,1506,17.5909,-11.6163
651,-482,4.03845,7.05273,0,0,0,0,0,0,0,-1,1875,1506,4.03843,-7.05279
658,-482,10.0278,5.87903,0,0,0,0,0,0,0,-1,1882,1506,10.0279,-5.87902
665,-482,8.15198,3.22229,0,0,0,0,0,0,0,-1,1889,1506,8.15199,-3.22232
672,-482,9.87415,1.3147,0,0,0,0,0,0,0,-1,1896,1506,9.87416,-1.31473
679,-482,0,0,0,0,0,0,0,0,0,-1,1903,1506,0,0
686,-482,0,0,0,0,0,0,0,0,0,-1,1910,1506,0,0
693,-482,0,0,0,0,0,0,0,0,0,-1,1917,1506,0,0
700,-482,0,0,0,0,0,0,0,0,0,-1,1924,1506,0,0
707,-482,0,0,0,0,0,0,0,0,0,-1,1931,1506,0,0
714,-482,0,0,0,0,0,0,0,0,0,-1,1938,1506,0,0
721,-482,0,0,0,0,0,0,0,0,0,-1,1945,1506,0,0
728,-482,0,0,0,0,0,0,0,0,0,-1,1952,1506,0,0
735,-482,0,0,0,0,0,0,0,0,0,-1,1959,1506,0,0
742,-482,0,0,0,0,0,0,0,0,0,-1,1966,1506,0,0
749,-482,0,0,0,0,0,0,0,0,0,-1,1973,1506,0,0
756,-482,0,0,0,0,0,0,0,0,0,-1,1980,1506,0,0
763,-482,0,0,0,0,0,0,0,0,0,-1,1987,1506,0,0
770,-482,0,0,0,0,0,0,0,0,0,-1,1994,1506,0,0
777,-482,0,0,0,0,0,0,0,0,0,-1,2001,1506,0,0
784,-482,0,0,0,0,0,0,0,0,0,-1,2008,1506,0,0
791,-482,0,0,0,0,0,0,0,0,0,-1,2015,1506,0,0
798,-482,0,0,0,0,0,0,0,0,0,-1,2022,1506,0,0
805,-482,0,0,0,0,0,0,0,0,0,-1,2029,1506,0,0
812,-482,0,0,0,0,0,0,0,0,0,-1,2036,1506,0,0
-700,-489,0,0,0,0,0,0,0,0,0,-1,524,1513,0,0
-693,-489,0,0,0,0,0,0,0,0,0,-1,531,1513,0,0
-686,-489,0,0,0,0,0,0,0,0,0,-1,538,1513,0,0
-679,-489,0,0,0,0,0,0,0,0,0,-1,545,1513,0,0
-672,-489,0,0,0,0,0,0,0,0,0,-1,552,1513,0,0
-665,-489,0,0,0,0,0,0,0,0,0,-1,559,1513,0,0
-658,-489,0,0,0,0,0,0,0,0,0,-1,566,1513,0,0
-651,-489,0,0,0,0,0,0,0,0,0,-1,573,1513,0,0
-644,-489,0,0,0,0,0,0,0,0,0,-1,580,1513,0,0
-637,-489,0,0,0,0,0,0,0,0,0,-1,587,1513,0,0
-630,-489,0,0,0,0,0,0,0,0,0,-1,594,1513,0,0
-623,-489,0,0,0,0,0,0,0,0,0,-1,601,1513,0,0
-616,-489,0,0,0,0,0,0,0,0,0,-1,608,1513,0,0
-609,-489,0,0,0,0,0,0,0,0,0,-1,615,1513,0,0
-602,-489,0,0,0,0,0,0,0,0,0,-1,622,1513,0,0
-595,-489,0,0,0,0,0,0,0,0,0,-1,629,1513,0,0
-588,-489,0,0,0,0,0,0,0,0,0,-1,636,1513,0,0
-581,-489,0,0,0,0,0,0,0,0,0,-1,643,1513,0,0
-574,-489,0,0,0,0,0,0,0,0,0,-1,650,1513,0,0
-567,-489,0,0,0,0,0,0,0,0,0,-1,657,1513,0,0
-560,-489,0,0,0,0,0,0,0,0,0,-1,664,1513,0,0
-553,-489,-9.42206,8.5116,0,0,0,0,0,0,0,-1,671,1513,-9.42205,-8.51158
-546,-489,-7.80951,8.18506,0,0,0,0,0,0,0,-1,678,1513,-7.8095,-8.18503
-539,-489,-3.06879,2.82349,0,0,0,0,0,0,0,-1,685,1513,-3.06881,-2.82354
-532,-489,-3.14215,2.5835,0,0,0,0,0,0,0,-1,692,1513,-3.14213,-2.58353
-525,-489,-2.604,4.06274,0,0,0,0,0,0,0,-1,699,1513,-2.60399,-4.06274
-518,-489,-5.43774,7.48059,0,0,0,0,0,0,0,-1,706,1513,-5.43777,-7.48058
-511,-489,-7.52856,10.951,0,0,0,0,0,0,0,-1,713,1513,-7.52857,-10.951
-504,-489,-7.17352,12.8508,0,0,0,0,0,0,0,-1,720,1513,-7.17352,-12.8508
-497,-489,-5.51678,14.9254,0,0,0,0,0,0,0,-1,727,1513,-5.51681,-14.9254
-490,-489,-7.33722,16.8892,0,0,0,0,0,0,0,-1,734,1513,-7.3372,-16.8892
-483,-489,-7.27625,17.5856,-0.00219,-0.00204132,0.000370697,-0.00173758,-0.00249374,0.884353,0.00147646,0.0246011,741,1513,-7.27622,-17.5856
-476,-489,-7.2749,18.2979,-0.00156171,-0.00153863,0.000284044,-0.00126589,-0.00183445,0.805708,0.00108433,0.0103101,748,1513,-7.27489,-18.2979
-469,-489,-7.29724,18.941,-0.00082461,-0.000936034,0.000434647,-0.000442119,-0.00131852,0.721657,0.000774893,0.0106294,755,1513,-7.29721,-18.9411
-462,-489,-7.31421,19.5734,-4.47944e-05,-0.000208383,0.000710415,0.000588519,-0.000841697,0.728082,0.000830037,0.0158944,762,1513,-7.31422,-19.5734
-455,-489,-7.33789,20.2197,0.00076672,0.000561245,0.00109011,0.00175892,-0.000430957,0.738414,0.00133958,0.0205152,769,1513,-7.3379,-20.2197
-448,-489,-7.37909,20.8622,0.00169677,0.00149353,0.0016681,0.00326635,-7.60402e-05,0.754976,0.00220335,0.0176604,776,1513,-7.3791,-20.8622
-441,-489,-7.40167,21.512,0.00276495,0.00266815,0.00254153,0.00525854,0.00017456,0.775877,0.00344898,0.0134663,783,1513,-7.40169,-21.512
-434,-489,-7.44141,22.1516,0.00394044,0.00416217,0.00366255,0.00771553,0.000387084,0.800529,0.00501964,0.016746,790,1513,-7.44143,-22.1516
-427,-489,-7.461,22.7828,0.00527623,0.00572348,0.00492296,0.0104279,0.000571819,0.808095,0.00676938,0.0195133,797,1513,-7.46102,-22.7829
-420,-489,-7.47034,23.5511,0.00660344,0.00776284,0.00655019,0.0137589,0.000607355,0.829534,0.00897702,0.0260134,804,1513,-7.47036,-23.5512
-413,-489,-7.05695,24.2997,0,0,0,0,0,0,0,-1,811,1513,-7.05693,-24.2996
-406,-489,-3.10559,15.8143,0,0,0,0,0,0,0,-1,818,1513,-3.10556,-15.8143
-399,-489,-1.41241,9.10718,0,0,0,0,0,0,0,-1,825,1513,-1.41244,-9.10722
-392,-489,-1.0368,9.30469,0,0,0,0,0,0,0,-1,832,1513,-1.03682,-9.30466
-385,-489,-1.75165,10.6559,0,0,0,0,0,0,0,-1,839,1513,-1.75165,-10.6559
-378,-489,-0.401428,9.87048,0,0,0,0,0,0,0,-1,846,1513,-0.401415,-9.87047
-371,-489,-1.11633,10.6606,0,0,0,0,0,0,0,-1,853,1513,-1.11633,-10.6606
-364,-489,-0.503113,8.98486,0,0,0,0,0,0,0,-1,860,1513,-0.503097,-8.98482
-357,-489,-0.609924,10.9606,0,0,0,0,0,0,0,-1,867,1513,-0.609947,-10.9605
-350,-489,-7.94659,-0.358887,0,0,0,0,0,0,0,-1,874,1513,-7.94657,0.358912
-343,-489,-7.49323,-0.437866,0,0,0,0,0,0,0,-1,881,1513,-7.49322,0.437823
-336,-489,-7.02332,-0.53125,0,0,0,0,0,0,0,-1,888,1513,-7.0233,0.531295
-329,-489,-12.7423,4.73523,0,0,0,0,0,0,0,-1,895,1513,-12.7423,-4.73521
-322,-489,0,0,0,0,0,0,0,0,0,-1,902,1513,0,0
-315,-489,0,0,0,0,0,0,0,0,0,-1,909,1513,0,0
-308,-489,0,0,0,0,0,0,0,0,0,-1,916,1513,0,0
-301,-489,0,0,0,0,0,0,0,0,0,-1,923,1513,0,0
-294,-489,0,0,0,0,0,0,0,0,0,-1,930,1513,0,0
-287,-489,0,0,0,0,0,0,0,0,0,-1,937,1513,0,0
-280,-489,0,0,0,0,0,0,0,0,0,-1,944,1513,0,0
-273,-489,0,0,0,0,0,0,0,0,0,-1,951,1513,0,0
-266,-489,0,0,0,0,0,0,0,0,0,-1,958,1513,0,0
-259,-489,0,0,0,0,0,0,0,0,0,-1,965,1513,0,0
-252,-489,0,0,0,0,0,0,0,0,0,-1,972,1513,0,0
-245,-489,0,0,0,0,0,0,0,0,0,-1,979,1513,0,0
-238,-489,0,0,0,0,0,0,0,0,0,-1,986,1513,0,0
-231,-489,0,0,0,0,0,0,0,0,0,-1,993,1513,0,0
-224,-489,0,0,0,0,0,0,0,0,0,-1,1000,1513,0,0
-217,-489,0,0,0,0,0,0,0,0,0,-1,1007,1513,0,0
-210,-489,0,0,0,0,0,0,0,0,0,-1,1014,1513,0,0
-203,-489,0,0,0,0,0,0,0,0,0,-1,1021,1513,0,0
-196,-489,0,0,0,0,0,0,0,0,0,-1,1028,1513,0,0
-189,-489,0,0,0,0,0,0,0,0,0,-1,1035,1513,0,0
-182,-489,0,0,0,0,0,0,0,0,0,-1,1042,1513,0,0
-175,-489,0,0,0,0,0,0,0,0,0,-1,1049,1513,0,0
-168,-489,0,0,0,0,0,0,0,0,0,-1,1056,1513,0,0
-161,-489,0,0,0,0,0,0,0,0,0,-1,1063,1513,0,0
-154,-489,0,0,0,0,0,0,0,0,0,-1,1070,1513,0,0
-147,-489,0,0,0,0,0,0,0,0,0,-1,1077,1513,0,0
-140,-489,0,0,0,0,0,0,0,0,0,-1,1084,1513,0,0
-133,-489,0,0,0,0,0,0,0,0,0,-1,1091,1513,0,0
-126,-489,0,0,0,0,0,0,0,0,0,-1,1098,1513,0,0
-119,-489,0,0,0,0,0,0,0,0,0,-1,1105,1513,0,0
-112,-489,0,0,0,0,0,0,0,0,0,-1,1112,1513,0,0
-105,-489,0,0,0,0,0,0,0,0,0,-1,1119,1513,0,0
-98,-489,0,0,0,0,0,0,0,0,0,-1,1126,1513,0,0
-91,-489,0,0,0,0,0,0,0,0,0,-1,1133,1513,0,0
-84,-489,0,0,0,0,0,0,0,0,0,-1,1140,1513,0,0
-77,-489,0,0,0,0,0,0,0,0,0,-1,1147,1513,0,0
-70,-489,0,0,0,0,0,0,0,0,0,-1,1154,1513,0,0
-63,-489,0,0,0,0,0,0,0,0,0,-1,1161,1513,0,0
-56,-489,0,0,0,0,0,0,0,0,0,-1,1168,1513,0,0
-49,-489,0,0,0,0,0,0,0,0,0,-1,1175,1513,0,0
-42,-489,0,0,0,0,0,0,0,0,0,-1,1182,1513,0,0
-35,-489,0,0,0,0,0,0,0,0,0,-1,1189,1513,0,0
-28,-489,0,0,0,0,0,0,0,0,0,-1,1196,1513,0,0
-21,-489,0,0,0,0,0,0,0,0,0,-1,1203,1513,0,0
-14,-489,0,0,0,0,0,0,0,0,0,-1,1210,1513,0,0
-7,-489,0,0,0,0,0,0,0,0,0,-1,1217,1513,0,0
0,-489,0,0,0,0,0,0,0,0,0,-1,1224,1513,0,0
7,-489,0,0,0,0,0,0,0,0,0,-1,1231,1513,0,0
14,-489,0,0,0,0,0,0,0,0,0,-1,1238,1513,0,0
21,-489,0,0,0,0,0,0,0,0,0,-1,1245,1513,0,0
28,-489,0,0,0,0,0,0,0,0,0,-1,1252,1513,0,0
35,-489,0,0,0,0,0,0,0,0,0,-1,1259,1513,0,0
42,-489,0,0,0,0,0,0,0,0,0,-1,1266,1513,0,0
49,-489,0,0,0,0,0,0,0,0,0,-1,1273,1513,0,0
56,-489,0,0,0,0,0,0,0,0,0,-1,1280,1513,0,0
63,-489,0,0,0,0,0,0,0,0,0,-1,1287,1513,0,0
70,-489,0,0,0,0,0,0,0,0,0,-1,1294,1513,0,0
77,-489,0,0,0,0,0,0,0,0,0,-1,1301,1513,0,0
84,-489,0,0,0,0,0,0,0,0,0,-1,1308,1513,0,0
91,-489,0,0,0,0,0,0,0,0,0,-1,1315,1513,0,0
98,-489,0,0,0,0,0,0,0,0,0,-1,1322,1513,0,0
105,-489,0,0,0,0,0,0,0,0,0,-1,1329,1513,0,0
112,-489,0,0,0,0,0,0,0,0,0,-1,1336,1513,0,0
119,-489,0,0,0,0,0,0,0,0,0,-1,1343,1513,0,0
126,-489,0,0,0,0,0,0,0,0,0,-1,1350,1513,0,0
133,-489,0,0,0,0,0,0,0,0,0,-1,1357,1513,0,0
140,-489,0,0,0,0,0,0,0,0,0,-1,1364,1513,0,0
147,-489,0,0,0,0,0,0,0,0,0,-1,1371,1513,0,0
154,-489,0,0,0,0,0,0,0,0,0,-1,1378,1513,0,0
161,-489,0,0,0,0,0,0,0,0,0,-1,1385,1513,0,0
168,-489,0,0,0,0,0,0,0,0,0,-1,1392,1513,0,0
175,-489,0,0,0,0,0,0,0,0,0,-1,1399,1513,0,0
182,-489,0,0,0,0,0,0,0,0,0,-1,1406,1513,0,0
189,-489,0,0,0,0,0,0,0,0,0,-1,1413,1513,0,0
196,-489,0,0,0,0,0,0,0,0,0,-1,1420,1513,0,0
203,-489,0,0,0,0,0,0,0,0,0,-1,1427,1513,0,0
210,-489,0,0,0,0,0,0,0,0,0,-1,1434,1513,0,0
217,-489,0,0,0,0,0,0,0,0,0,-1,1441,1513,0,0
224,-489,0,0,0,0,0,0,0,0,0,-1,1448,1513,0,0
231,-489,0,0,0,0,0,0,0,0,0,-1,1455,1513,0,0
238,-489,0,0,0,0,0,0,0,0,0,-1,1462,1513,0,0
245,-489,0,0,0,0,0,0,0,0,0,-1,1469,1513,0,0
252,-489,0,0,0,0,0,0,0,0,0,-1,1476,1513,0,0
259,-489,0,0,0,0,0,0,0,0,0,-1,1483,1513,0,0
266,-489,0,0,0,0,0,0,0,0,0,-1,1490,1513,0,0
273,-489,0,0,0,0,0,0,0,0,0,-1,1497,1513,0,0
280,-489,0,0,0,0,0,0,0,0,0,-1,1504,1513,0,0
287,-489,0,0,0,0,0,0,0,0,0,-1,1511,1513,0,0
294,-489,0,0,0,0,0,0,0,0,0,-1,1518,1513,0,0
301,-489,0,0,0,0,0,0,0,0,0,-1,1525,1513,0,0
308,-489,0,0,0,0,0,0,0,0,0,-1,1532,1513,0,0
315,-489,0,0,0,0,0,0,0,0,0,-1,1539,1513,0,0
322,-489,0,0,0,0,0,0,0,0,0,-1,1546,1513,0,0
329,-489,0,0,0,0,0,0,0,0,0,-1,1553,1513,0,0
336,-489,0,0,0,0,0,0,0,0,0,-1,1560,1513,0,0
343,-489,0,0,0,0,0,0,0,0,0,-1,1567,1513,0,0
350,-489,0,0,0,0,0,0,0,0,0,-1,1574,1513,0,0
357,-489,0,0,0,0,0,0,0,0,0,-1,1581,1513,0,0
364,-489,0,0,0,0,0,0,0,0,0,-1,1588,1513,0,0
371,-489,0,0,0,0,0,0,0,0,0,-1,1595,1513,0,0
378,-489,0,0,0,0,0,0,0,0,0,-1,1602,1513,0,0
385,-489,0,0,0,0,0,0,0,0,0,-1,1609,1513,0,0
392,-489,0,0,0,0,0,0,0,0,0,-1,1616,1513,0,0
399,-489,0,0,0,0,0,0,0,0,0,-1,1623,1513,0,0
406,-489,0,0,0,0,0,0,0,0,0,-1,1630,1513,0,0
413,-489,0,0,0,0,0,0,0,0,0,-1,1637,1513,0,0
420,-489,0,0,0,0,0,0,0,0,0,-1,1644,1513,0,0
427,-489,0,0,0,0,0,0,0,0,0,-1,1651,1513,0,0
434,-489,0,0,0,0,0,0,0,0,0,-1,1658,1513,0,0
441,-489,11.4602,2.56787,0,0,0,0,0,0,0,-1,1665,1513,11.4602,-2.56786
448,-489,12.4425,1.72351,0,0,0,0,0,0,0,-1,1672,1513,12.4425,-1.72349
455,-489,12.5575,1.37463,0,0,0,0,0,0,0,-1,1679,1513,12.5575,-1.37469
462,-489,14.9784,3.84888,0,0,0,0,0,0,0,-1,1686,1513,14.9784,-3.84892
469,-489,15.1367,4.53101,0,0,0,0,0,0,0,-1,1693,1513,15.1368,-4.531
476,-489,15.5536,5.09338,0,0,0,0,0,0,0,-1,1700,1513,15.5536,-5.09339
483,-489,8.96912,8.37805,0,0,0,0,0,0,0,-1,1707,1513,8.96909,-8.37809
490,-489,10.5366,7.49561,0,0,0,0,0,0,0,-1,1714,1513,10.5367,-7.49558
497,-489,14.6051,11.8397,0,0,0,0,0,0,0,-1,1721,1513,14.6051,-11.8397
504,-489,16.7527,14.1735,0,0,0,0,0,0,0,-1,1728,1513,16.7527,-14.1735
511,-489,17.83,17.7993,0,0,0,0,0,0,0,-1,1735,1513,17.83,-17.7993
518,-489,16.4751,14.3682,0,0,0,0,0,0,0,-1,1742,1513,16.4751,-14.3682
525,-489,17.2606,17.4949,0,0,0,0,0,0,0,-1,1749,1513,17.2606,-17.4949
532,-489,19.397,21.0182,0,0,0,0,0,0,0,-1,1756,1513,19.397,-21.0182
539,-489,24.1666,26.017,0,0,0,0,0,0,0,-1,1763,1513,24.1667,-26.017
546,-489,24.3131,25.2181,0.0080484,0.00538228,-0.00432991,0.0112458,0.00218487,-0.636067,0.00688546,0.0345851,1770,1513,24.3132,-25.2182
553,-489,24.2939,24.468,0.00644216,0.00395853,-0.0031105,0.00854957,0.00185112,-0.595475,0.00519382,0.0213526,1777,1513,24.2939,-24.4681
560,-489,24.3026,23.8339,0.00514676,0.00283772,-0.00220414,0.00648044,0.00150404,-0.544147,0.00391642,0.0133393,1784,1513,24.3026,-23.8338
567,-489,24.3108,23.249,0.0041784,0.00201722,-0.00165916,0.00507783,0.00111778,-0.496758,0.00308097,0.0157983,1791,1513,24.3108,-23.249
574,-489,24.2657,22.6781,0.00352248,0.00149379,-0.00140042,0.00423731,0.000778947,-0.471969,0.00260435,0.0157418,1798,1513,24.2657,-22.6781
581,-489,24.2765,22.0708,0.00301897,0.00108133,-0.00124244,0.00362567,0.00047463,-0.454255,0.00227547,0.0108367,1805,1513,24.2765,-22.0708
588,-489,24.251,21.4692,0.00277582,0.000824481,-0.00121635,0.00335946,0.00024084,-0.44738,0.00216383,0.0132279,1812,1513,24.2509,-21.4693
595,-489,24.2229,20.8892,0.00285955,0.00060584,-0.00121629,0.00339075,7.46386e-05,-0.411773,0.00223604,0.0201442,1819,1513,24.2229,-20.8891
602,-489,24.1885,20.3162,0.00304853,0.000527505,-0.00132407,0.00361615,-4.01144e-05,-0.404993,0.00242425,0.0252052,1826,1513,24.1885,-20.3161
609,-489,24.17,19.6848,0.00337308,0.000496392,-0.00140082,0.0039425,-7.30328e-05,-0.386092,0.00265301,0.0171972,1833,1513,24.17,-19.6848
616,-489,24.1605,19.0483,0.00406614,0.000346076,-0.0013602,0.00451042,-9.8208e-05,-0.315706,0.00304021,0.0192424,1840,1513,24.1605,-19.0484
623,-489,24.1133,18.4464,0.0049125,6.54725e-05,-0.00113347,0.00516446,-0.00018649,-0.218737,0.00350679,0.0412923,1847,1513,24.1132,-18.4464
630,-489,24.2367,17.816,0,0,0,0,0,0,0,-1,1854,1513,24.2367,-17.8161
637,-489,17.2048,11.8091,0,0,0,0,0,0,0,-1,1861,1513,17.2048,-11.8091
644,-489,9.67578,8.45874,0,0,0,0,0,0,0,-1,1868,1513,9.67576,-8.45879
651,-489,6.13818,6.85095,0,0,0,0,0,0,0,-1,1875,1513,6.13823,-6.85097
658,-489,5.43848,7.75513,0,0,0,0,0,0,0,-1,1882,1513,5.43844,-7.75509
665,-489,5.48438,8.59912,0,0,0,0,0,0,0,-1,1889,1513,5.48434,-8.59907
672,-489,0,0,0,0,0,0,0,0,0,-1,1896,1513,0,0
679,-489,0,0,0,0,0,0,0,0,0,-1,1903,1513,0,0
686,-489,0,0,0,0,0,0,0,0,0,-1,1910,1513,0,0
693,-489,0,0,0,0,0,0,0,0,0,-1,1917,1513,0,0
700,-489,0,0,0,0,0,0,0,0,0,-1,1924,1513,0,0
707,-489,0,0,0,0,0,0,0,0,0,-1,1931,1513,0,0
714,-489,0,0,0,0,0,0,0,0,0,-1,1938,1513,0,0
721,-489,0,0,0,0,0,0,0,0,0,-1,1945,1513,0,0
728,-489,0,0,0,0,0,0,0,0,0,-1,1952,1513,0,0
735,-489,0,0,0,0,0,0,0,0,0,-1,1959,1513,0,0
742,-489,0,0,0,0,0,0,0,0,0,-1,1966,1513,0,0
749,-489,0,0,0,0,0,0,0,0,0,-1,1973,1513,0,0
756,-489,0,0,0,0,0,0,0,0,0,-1,1980,1513,0,0
763,-489,0,0,0,0,0,0,0,0,0,-1,1987,1513,0,0
770,-489,0,0,0,0,0,0,0,0,0,-1,1994,1513,0,0
777,-489,0,0,0,0,0,0,0,0,0,-1,2001,1513,0,0
784,-489,0,0,0,0,0,0,0,0,0,-1,2008,1513,0,0
791,-489,0,0,0,0,0,0,0,0,0,-1,2015,1513,0,0
798,-489,0,0,0,0,0,0,0,0,0,-1,2022,1513,0,0
805,-489,0,0,0,0,0,0,0,0,0,-1,2029,1513,0,0
812,-489,0,0,0,0,0,0,0,0,0,-1,2036,1513,0,0
-700,-496,0,0,0,0,0,0,0,0,0,-1,524,1520,0,0
-693,-496,0,0,0,0,0,0,0,0,0,-1,531,1520,0,0
-686,-496,0,0,0,0,0,0,0,0,0,-1,538,1520,0,0
-679,-496,0,0,0,0,0,0,0,0,0,-1,545,1520,0,0
-672,-496,0,0,0,0,0,0,0,0,0,-1,552,1520,0,0
-665,-496,0,0,0,0,0,0,0,0,0,-1,559,1520,0,0
-658,-496,0,0,0,0,0,0,0,0,0,-1,566,1520,0,0
-651,-496,0,0,0,0,0,0,0,0,0,-1,573,1520,0,0
-644,-496,0,0,0,0,0,0,0,0,0,-1,580,1520,0,0
-637,-496,0,0,0,0,0,0,0,0,0,-1,587,1520,0,0
-630,-496,0,0,0,0,0,0,0,0,0,-1,594,1520,0,0
-623,-496,0,0,0,0,0,0,0,0,0,-1,601,1520,0,0
-616,-496,0,0,0,0,0,0,0,0,0,-1,608,1520,0,0
-609,-496,0,0,0,0,0,0,0,0,0,-1,615,1520,0,0
-602,-496,0,0,0,0,0,0,0,0,0,-1,622,1520,0,0
-595,-496,0,0,0,0,0,0,0,0,0,-1,629,1520,0,0
-588,-496,0,0,0,0,0,0,0,0,0,-1,636,1520,0,0
-581,-496,0,0,0,0,0,0,0,0,0,-1,643,1520,0,0
-574,-496,0,0,0,0,0,0,0,0,0,-1,650,1520,0,0
-567,-496,0,0,0,0,0,0,0,0,0,-1,657,1520,0,0
-560,-496,0,0,0,0,0,0,0,0,0,-1,664,1520,0,0
-553,-496,0,0,0,0,0,0,0,0,0,-1,671,1520,0,0
-546,-496,-8.09711,7.94836,0,0,0,0,0,0,0,-1,678,1520,-8.09712,-7.94842
-539,-496,-3.20129,1.16052,0,0,0,0,0,0,0,-1,685,1520,-3.20131,-1.16054
-532,-496,-2.98279,2.62146,0,0,0,0,0,0,0,-1,692,1520,-2.98278,-2.62151
-525,-496,-2.75201,4.08032,0,0,0,0,0,0,0,-1,699,1520,-2.75201,-4.08031
-518,-496,-2.6333,5.36072,0,0,0,0,0,0,0,-1,706,1520,-2.63328,-5.36077
-511,-496,-7.92126,9.68604,0,0,0,0,0,0,0,-1,713,1520,-7.92127,-9.68598
-504,-496,-7.51044,11.6274,0,0,0,0,0,0,0,-1,720,1520,-7.51042,-11.6275
-497,-496,-5.30933,14.4291,0,0,0,0,0,0,0,-1,727,1520,-5.30932,-14.4291
-490,-496,-6.46698,17.0701,0,0,0,0,0,0,0,-1,734,1520,-6.46701,-17.0701
-483,-496,-6.54541,17.8358,-0.00250119,-0.00138268,0.000981746,-0.000812069,-0.0030718,1.0443,0.00183798,0.0421891,741,1520,-6.54539,-17.8358
-476,-496,-6.68091,18.3358,-0.00173387,-0.000854701,0.000817112,-0.000366436,-0.00222214,1.03218,0.00137565,0.0183292,748,1520,-6.68092,-18.3358
-469,-496,-6.67908,18.9869,-0.000964523,-0.000358926,0.00084954,0.000240165,-0.00156361,0.956593,0.001131,0.0103404,755,1520,-6.67907,-18.987
-462,-496,-6.70911,19.609,-0.000236613,0.00021671,0.000963236,0.000979593,-0.000999496,0.900952,0.00114265,0.0151583,762,1520,-6.7091,-19.609
-455,-496,-6.74817,20.2687,0.000443383,0.000750972,0.00112899,0.0017366,-0.000542241,0.853093,0.0013746,0.0215858,769,1520,-6.74815,-20.2686
-448,-496,-6.7569,20.9274,0.00117299,0.00135889,0.00144189,0.00271082,-0.00017894,0.817587,0.00186972,0.0200377,776,1520,-6.75692,-20.9274
-441,-496,-6.74774,21.5399,0.00200522,0.00218062,0.00203109,0.0041259,5.99418e-05,0.806974,0.00273084,0.0141872,783,1520,-6.74772,-21.5399
-434,-496,-6.79553,22.1617,0.0029148,0.00328845,0.00284198,0.00594974,0.000253513,0.81822,0.00388475,0.0137445,790,1520,-6.79554,-22.1617
-427,-496,-6.8302,22.7931,0.00396308,0.00446827,0.0037893,0.00801339,0.000417965,0.818678,0.00520853,0.0181009,797,1520,-6.8302,-22.7931
-420,-496,-6.83252,23.4017,0.00507011,0.00596453,0.00504082,0.0105779,0.000456703,0.829642,0.00690476,0.0188739,804,1520,-6.83249,-23.4018
-413,-496,-6.77319,24.0886,0.00656033,0.00767612,0.00678718,0.0139283,0.000308155,0.826405,0.00918454,0.031237,811,1520,-6.77317,-24.0887
-406,-496,-6.61279,24.984,0,0,0,0,0,0,0,-1,818,1520,-6.61281,-24.9841
-399,-496,-6.31348,25.8685,0,0,0,0,0,0,0,-1,825,1520,-6.31349,-25.8685
-392,-496,-1.49786,12.387,0,0,0,0,0,0,0,-1,832,1520,-1.49788,-12.387
-385,-496,-1.72437,11.4985,0,0,0,0,0,0,0,-1,839,1520,-1.72436,-11.4985
-378,-496,-1.45532,14.0719,0,0,0,0,0,0,0,-1,846,1520,-1.45533,-14.0719
-371,-496,0.0877075,12.5299,0,0,0,0,0,0,0,-1,853,1520,0.0876896,-12.5299
-364,-496,0.0881348,10.6422,0,0,0,0,0,0,0,-1,860,1520,0.0881368,-10.6423
-357,-496,0.323792,7.56812,0,0,0,0,0,0,0,-1,867,1520,0.323782,-7.56806
-350,-496,2.1535,7.18945,0,0,0,0,0,0,0,-1,874,1520,2.15348,-7.1894
-343,-496,-7.56244,0.335327,0,0,0,0,0,0,0,-1,881,1520,-7.56242,-0.335322
-336,-496,-3.99249,6.02222,0,0,0,0,0,0,0,-1,888,1520,-3.99246,-6.0222
-329,-496,-6.93689,-0.100342,0,0,0,0,0,0,0,-1,895,1520,-6.93686,0.1003
-322,-496,-6.17505,0.494385,0,0,0,0,0,0,0,-1,902,1520,-6.17507,-0.49437
-315,-496,-7.539,5.78638,0,0,0,0,0,0,0,-1,909,1520,-7.53898,-5.78633
-308,-496,0,0,0,0,0,0,0,0,0,-1,916,1520,0,0
-301,-496,0,0,0,0,0,0,0,0,0,-1,923,1520,0,0
-294,-496,0,0,0,0,0,0,0,0,0,-1,930,1520,0,0
-287,-496,0,0,0,0,0,0,0,0,0,-1,937,1520,0,0
-280,-496,0,0,0,0,0,0,0,0,0,-1,944,1520,0,0
-273,-496,0,0,0,0,0,0,0,0,0,-1,951,1520,0,0
-266,-496,0,0,0,0,0,0,0,0,0,-1,958,1520,0,0
-259,-496,0,0,0,0,0,0,0,0,0,-1,965,1520,0,0
-252,-496,0,0,0,0,0,0,0,0,0,-1,972,1520,0,0
-245,-496,0,0,0,0,0,0,0,0,0,-1,979,1520,0,0
-238,-496,0,0,0,0,0,0,0,0,0,-1,986,1520,0,0
-231,-496,0,0,0,0,0,0,0,0,0,-1,993,1520,0,0
-224,-496,0,0,0,0,0,0,0,0,0,-1,1000,1520,0,0
-217,-496,0,0,0,0,0,0,0,0,0,-1,1007,1520,0,0
-210,-496,0,0,0,0,0,0,0,0,0,-1,1014,1520,0,0
-203,-496,0,0,0,0,0,0,0,0,0,-1,1021,1520,0,0
-196,-496,0,0,0,0,0,0,0,0,0,-1,1028,1520,0,0
-189,-496,0,0,0,0,0,0,0,0,0,-1,1035,1520,0,0
-182,-496,0,0,0,0,0,0,0,0,0,-1,1042,1520,0,0
-175,-496,0,0,0,0,0,0,0,0,0,-1,1049,1520,0,0
-168,-496,0,0,0,0,0,0,0,0,0,-1,1056,1520,0,0
-161,-496,0,0,0,0,0,0,0,0,0,-1,1063,1520,0,0
-154,-496,0,0,0,0,0,0,0,0,0,-1,1070,1520,0,0
-147,-496,0,0,0,0,0,0,0,0,0,-1,1077,1520,0,0
-140,-496,0,0,0,0,0,0,0,0,0,-1,1084,1520,0,0
-133,-496,0,0,0,0,0,0,0,0,0,-1,1091,1520,0,0
-126,-496,0,0,0,0,0,0,0,0,0,-1,1098,1520,0,0
-119,-496,0,0,0,0,0,0,0,0,0,-1,1105,1520,0,0
-112,-496,0,0,0,0,0,0,0,0,0,-1,1112,1520,0,0
-105,-496,0,0,0,0,0,0,0,0,0,-1,1119,1520,0,0
-98,-496,0,0,0,0,0,0,0,0,0,-1,1126,1520,0,0
-91,-496,0,0,0,0,0,0,0,0,0,-1,1133,1520,0,0
-84,-496,0,0,0,0,0,0,0,0,0,-1,1140,1520,0,0
-77,-496,0,0,0,0,0,0,0,0,0,-1,1147,1520,0,0
-70,-496,0,0,0,0,0,0,0,0,0,-1,1154,1520,0,0
-63,-496,0,0,0,0,0,0,0,0,0,-1,1161,1520,0,0
-56,-496,0,0,0,0,0,0,0,0,0,-1,1168,1520,0,0
-49,-496,0,0,0,0,0,0,0,0,0,-1,1175,1520,0,0
-42,-496,0,0,0,0,0,0,0,0,0,-1,1182,1520,0,0
-35,-496,0,0,0,0,0,0,0,0,0,-1,1189,1520,0,0
-28,-496,0,0,0,0,0,0,0,0,0,-1,1196,1520,0,0
-21,-496,0,0,0,0,0,0,0,0,0,-1,1203,1520,0,0
-14,-496,0,0,0,0,0,0,0,0,0,-1,1210,1520,0,0
-7,-496,0,0,0,0,0,0,0,0,0,-1,1217,1520,0,0
0,-496,0,0,0,0,0,0,0,0,0,-1,1224,1520,0,0
7,-496,0,0,0,0,0,0,0,0,0,-1,1231,1520,0,0
14,-496,0,0,0,0,0,0,0,0,0,-1,1238,1520,0,0
21,-496,0,0,0,0,0,0,0,0,0,-1,1245,1520,0,0
28,-496,0,0,0,0,0,0,0,0,0,-1,1252,1520,0,0
35,-496,0,0,0,0,0,0,0,0,0,-1,1259,1520,0,0
42,-496,0,0,0,0,0,0,0,0,0,-1,1266,1520,0,0
49,-496,0,0,0,0,0,0,0,0,0,-1,1273,1520,0,0
56,-496,0,0,0,0,0,0,0,0,0,-1,1280,1520,0,0
63,-496,0,0,0,0,0,0,0,0,0,-1,1287,1520,0,0
70,-496,0,0,0,0,0,0,0,0,0,-1,1294,1520,0,0
77,-496,0,0,0,0,0,0,0,0,0,-1,1301,1520,0,0
84,-496,0,0,0,0,0,0,0,0,0,-1,1308,1520,0,0
91,-496,0,0,0,0,0,0,0,0,0,-1,1315,1520,0,0
98,-496,0,0,0,0,0,0,0,0,0,-1,1322,1520,0,0
105,-496,0,0,0,0,0,0,0,0,0,-1,1329,1520,0,0
112,-496,0,0,0,0,0,0,0,0,0,-1,1336,1520,0,0
119,-496,0,0,0,0,0,0,0,0,0,-1,1343,1520,0,0
126,-496,0,0,0,0,0,0,0,0,0,-1,1350,1520,0,0
133,-496,0,0,0,0,0,0,0,0,0,-1,1357,1520,0,0
140,-496,0,0,0,0,0,0,0,0,0,-1,1364,1520,0,0
147,-496,0,0,0,0,0,0,0,0,0,-1,1371,1520,0,0
154,-496,0,0,0,0,0,0,0,0,0,-1,1378,1520,0,0
161,-496,0,0,0,0,0,0,0,0,0,-1,1385,1520,0,0
168,-496,0,0,0,0,0,0,0,0,0,-1,1392,1520,0,0
175,-496,0,0,0,0,0,0,0,0,0,-1,1399,1520,0,0
182,-496,0,0,0,0,0,0,0,0,0,-1,1406,1520,0,0
189,-496,0,0,0,0,0,0,0,0,0,-1,1413,1520,0,0
196,-496,0,0,0,0,0,0,0,0,0,-1,1420,1520,0,0
203,-496,0,0,0,0,0,0,0,0,0,-1,1427,1520,0,0
210,-496,0,0,0,0,0,0,0,0,0,-1,1434,1520,0,0
217,-496,0,0,0,0,0,0,0,0,0,-1,1441,1520,0,0
224,-496,0,0,0,0,0,0,0,0,0,-1,1448,1520,0,0
231,-496,0,0,0,0,0,0,0,0,0,-1,1455,1520,0,0
238,-496,0,0,0,0,0,0,0,0,0,-1,1462,1520,0,0
245,-496,0,0,0,0,0,0,0,0,0,-1,1469,1520,0,0
252,-496,0,0,0,0,0,0,0,0,0,-1,1476,1520,0,0
259,-496,0,0,0,0,0,0,0,0,0,-1,1483,1520,0,0
266,-496,0,0,0,0,0,0,0,0,0,-1,1490,1520,0,0
273,-496,0,0,0,0,0,0,0,0,0,-1,1497,1520,0,0
280,-496,0,0,0,0,0,0,0,0,0,-1,1504,1520,0,0
287,-496,0,0,0,0,0,0,0,0,0,-1,1511,1520,0,0
294,-496,0,0,0,0,0,0,0,0,0,-1,1518,1520,0,0
301,-496,0,0,0,0,0,0,0,0,0,-1,1525,1520,0,0
308,-496,0,0,0,0,0,0,0,0,0,-1,1532,1520,0,0
315,-496,0,0,0,0,0,0,0,0,0,-1,1539,1520,0,0
322,-496,0,0,0,0,0,0,0,0,0,-1,1546,1520,0,0
329,-496,0,0,0,0,0,0,0,0,0,-1,1553,1520,0,0
336,-496,0,0,0,0,0,0,0,0,0,-1,1560,1520,0,0
343,-496,0,0,0,0,0,0,0,0,0,-1,1567,1520,0,0
350,-496,0,0,0,0,0,0,0,0,0,-1,1574,1520,0,0
357,-496,0,0,0,0,0,0,0,0,0,-1,1581,1520,0,0
364,-496,0,0,0,0,0,0,0,0,0,-1,1588,1520,0,0
371,-496,0,0,0,0,0,0,0,0,0,-1,1595,1520,0,0
378,-496,0,0,0,0,0,0,0,0,0,-1,1602,1520,0,0
385,-496,0,0,0,0,0,0,0,0,0,-1,1609,1520,0,0
392,-496,0,0,0,0,0,0,0,0,0,-1,1616,1520,0,0
399,-496,0,0,0,0,0,0,0,0,0,-1,1623,1520,0,0
406,-496,0,0,0,0,0,0,0,0,0,-1,1630,1520,0,0
413,-496,0,0,0,0,0,0,0,0,0,-1,1637,1520,0,0
420,-496,0,0,0,0,0,0,0,0,0,-1,1644,1520,0,0
427,-496,0,0,0,0,0,0,0,0,0,-1,1651,1520,0,0
434,-496,11.0457,3.37732,0,0,0,0,0,0,0,-1,1658,1520,11.0456,-3.37736
441,-496,11.788,2.75488,0,0,0,0,0,0,0,-1,1665,1520,11.7879,-2.75485
448,-496,12.2146,2.18494,0,0,0,0,0,0,0,-1,1672,1520,12.2146,-2.18489
455,-496,12.3489,1.65173,0,0,0,0,0,0,0,-1,1679,1520,12.3489,-1.65178
462,-496,12.1912,1.32361,0,0,0,0,0,0,0,-1,1686,1520,12.1911,-1.32357
469,-496,14.8138,5.77954,0,0,0,0,0,0,0,-1,1693,1520,14.8138,-5.77958
476,-496,15.2449,6.27942,0,0,0,0,0,0,0,-1,1700,1520,15.2449,-6.27936
483,-496,9.19812,6.88367,0,0,0,0,0,0,0,-1,1707,1520,9.19812,-6.88361
490,-496,10.2123,7.97144,0,0,0,0,0,0,0,-1,1714,1520,10.2122,-7.97145
497,-496,13.9297,12.2981,0,0,0,0,0,0,0,-1,1721,1520,13.9297,-12.2982
504,-496,16.3271,16.6501,0,0,0,0,0,0,0,-1,1728,1520,16.3272,-16.6502
511,-496,17.6753,18.0685,0,0,0,0,0,0,0,-1,1735,1520,17.6753,-18.0685
518,-496,17.0537,17.3118,0,0,0,0,0,0,0,-1,1742,1520,17.0538,-17.3118
525,-496,18.2721,19.3259,0,0,0,0,0,0,0,-1,1749,1520,18.2721,-19.3259
532,-496,23.837,25.8489,0,0,0,0,0,0,0,-1,1756,1520,23.8371,-25.8489
539,-496,23.5544,25.8076,0,0,0,0,0,0,0,-1,1763,1520,23.5544,-25.8077
546,-496,23.639,25.1151,0.00677589,0.00485679,-0.00387557,0.00980893,0.00182375,-0.664044,0.0060241,0.0198088,1770,1520,23.6391,-25.1152
553,-496,23.7485,24.4042,0.00543675,0.00358086,-0.00279045,0.0074495,0.00156811,-0.624878,0.00453492,0.0148608,1777,1520,23.7485,-24.4041
560,-496,23.7408,23.8496,0.00440115,0.00254044,-0.00197927,0.00565781,0.00128378,-0.565698,0.00342511,0.0148527,1784,1520,23.7409,-23.8496
567,-496,23.718,23.2598,0.00369513,0.00181426,-0.00153533,0.00455516,0.000954231,-0.510608,0.00277395,0.0129845,1791,1520,23.718,-23.2598
574,-496,23.6868,22.6602,0.00325385,0.00133568,-0.00133474,0.00393835,0.000651183,-0.473862,0.00243767,0.0129435,1798,1520,23.6868,-22.6602
581,-496,23.6753,22.0887,0.0029597,0.00095355,-0.00124469,0.00355519,0.00035806,-0.446239,0.00226025,0.0136332,1805,1520,23.6753,-22.0887
588,-496,23.6775,21.5087,0.00291934,0.00075939,-0.00131632,0.00354203,0.000136708,-0.441854,0.00231713,0.0170387,1812,1520,23.6775,-21.5086
595,-496,23.6315,20.9225,0.00319843,0.000634788,-0.00143659,0.00384193,-8.70693e-06,-0.421134,0.00256419,0.0183561,1819,1520,23.6314,-20.9225
602,-496,23.5916,20.3401,0.00359159,0.000701264,-0.0016834,0.00436506,-7.22087e-05,-0.430701,0.00293441,0.0188627,1826,1520,23.5915,-20.3401
609,-496,23.5939,19.6868,0.00411117,0.000795756,-0.0019133,0.00498501,-7.8077e-05,-0.428425,0.00334967,0.0176281,1833,1520,23.5939,-19.6868
616,-496,23.668,18.9479,0.00513863,0.000750977,-0.00203082,0.00593431,-4.46977e-05,-0.373417,0.00397119,0.041726,1840,1520,23.668,-18.9478
623,-496,23.6594,18.344,0,0,0,0,0,0,0,-1,1847,1520,23.6594,-18.344
630,-496,18.5656,13.8966,0,0,0,0,0,0,0,-1,1854,1520,18.5655,-13.8967
637,-496,14.6411,10.1016,0,0,0,0,0,0,0,-1,1861,1520,14.6411,-10.1016
644,-496,12.4537,10.087,0,0,0,0,0,0,0,-1,1868,1520,12.4537,-10.0871
651,-496,8.18506,5.47803,0,0,0,0,0,0,0,-1,1875,1520,8.18505,-5.47806
658,-496,7.79993,4.02563,0,0,0,0,0,0,0,-1,1882,1520,7.79997,-4.02568
665,-496,5.47583,7.90625,0,0,0,0,0,0,0,-1,1889,1520,5.47581,-7.90628
672,-496,0,0,0,0,0,0,0,0,0,-1,1896,1520,0,0
679,-496,0,0,0,0,0,0,0,0,0,-1,1903,1520,0,0
686,-496,0,0,0,0,0,0,0,0,0,-1,1910,1520,0,0
693,-496,0,0,0,0,0,0,0,0,0,-1,1917,1520,0,0
700,-496,0,0,0,0,0,0,0,0,0,-1,1924,1520,0,0
707,-496,0,0,0,0,0,0,0,0,0,-1,1931,1520,0,0
714,-496,0,0,0,0,0,0,0,0,0,-1,1938,1520,0,0
721,-496,0,0,0,0,0,0,0,0,0,-1,1945,1520,0,0
728,-496,0,0,0,0,0,0,0,0,0,-1,1952,1520,0,0
735,-496,0,0,0,0,0,0,0,0,0,-1,1959,1520,0,0
742,-496,0,0,0,0,0,0,0,0,0,-1,1966,1520,0,0
749,-496,0,0,0,0,0,0,0,0,0,-1,1973,1520,0,0
756,-496,0,0,0,0,0,0,0,0,0,-1,1980,1520,0,0
763,-496,0,0,0,0,0,0,0,0,0,-1,1987,1520,0,0
770,-496,0,0,0,0,0,0,0,0,0,-1,1994,1520,0,0
777,-496,0,0,0,0,0,0,0,0,0,-1,2001,1520,0,0
784,-496,0,0,0,0,0,0,0,0,0,-1,2008,1520,0,0
791,-496,0,0,0,0,0,0,0,0,0,-1,2015,1520,0,0
798,-496,0,0,0,0,0,0,0,0,0,-1,2022,1520,0,0
805,-496,0,0,0,0,0,0,0,0,0,-1,2029,1520,0,0
812,-496,0,0,0,0,0,0,0,0,0,-1,2036,1520,0,0
-700,-503,0,0,0,0,0,0,0,0,0,-1,524,1527,0,0
-693,-503,0,0,0,0,0,0,0,0,0,-1,531,1527,0,0
-686,-503,0,0,0,0,0,0,0,0,0,-1,538,1527,0,0
-679,-503,0,0,0,0,0,0,0,0,0,-1,545,1527,0,0
-672,-503,0,0,0,0,0,0,0,0,0,-1,552,1527,0,0
-665,-503,0,0,0,0,0,0,0,0,0,-1,559,1527,0,0
-658,-503,0,0,0,0,0,0,0,0,0,-1,566,1527,0,0
-651,-503,0,0,0,0,0,0,0,0,0,-1,573,1527,0,0
-644,-503,0,0,0,0,0,0,0,0,0,-1,580,1527,0,0
-637,-503,0,0,0,0,0,0,0,0,0,-1,587,1527,0,0
-630,-503,0,0,0,0,0,0,0,0,0,-1,594,1527,0,0
-623,-503,0,0,0,0,0,0,0,0,0,-1,601,1527,0,0
-616,-503,0,0,0,0,0,0,0,0,0,-1,608,1527,0,0
-609,-503,0,0,0,0,0,0,0,0,0,-1,615,1527,0,0
-602,-503,0,0,0,0,0,0,0,0,0,-1,622,1527,0,0
-595,-503,0,0,0,0,0,0,0,0,0,-1,629,1527,0,0
-588,-503,0,0,0,0,0,0,0,0,0,-1,636,1527,0,0
-581,-503,0,0,0,0,0,0,0,0,0,-1,643,1527,0,0
-574,-503,0,0,0,0,0,0,0,0,0,-1,650,1527,0,0
-567,-503,0,0,0,0,0,0,0,0,0,-1,657,1527,0,0
-560,-503,0,0,0,0,0,0,0,0,0,-1,664,1527,0,0
-553,-503,0,0,0,0,0,0,0,0,0,-1,671,1527,0,0
-546,-503,0,0,0,0,0,0,0,0,0,-1,678,1527,0,0
-539,-503,3.50177,4.26428,0,0,0,0,0,0,0,-1,685,1527,3.50177,-4.26424
-532,-503,-3.13196,1.05298,0,0,0,0,0,0,0,-1,692,1527,-3.13194,-1.05299
-525,-503,-2.94293,2.59314,0,0,0,0,0,0,0,-1,699,1527,-2.94296,-2.59314
-518,-503,-2.7395,4.05872,0,0,0,0,0,0,0,-1,706,1527,-2.73948,-4.05871
-511,-503,-1.60022,7.23877,0,0,0,0,0,0,0,-1,713,1527,-1.60023,-7.23872
-504,-503,-8.1402,10.1541,0,0,0,0,0,0,0,-1,720,1527,-8.14017,-10.1541
-497,-503,-4.51758,14.0781,0,0,0,0,0,0,0,-1,727,1527,-4.5176,-14.0782
-490,-503,-4.24194,16.1982,0,0,0,0,0,0,0,-1,734,1527,-4.24196,-16.1982
-483,-503,-6.03302,17.8458,0,0,0,0,0,0,0,-1,741,1527,-6.03304,-17.8458
-476,-503,-5.95258,18.4841,-0.00206131,5.66557e-05,0.00137668,0.000734532,-0.00273919,1.11325,0.00211395,0.0329678,748,1527,-5.95256,-18.4841
-469,-503,-6.05396,19.0262,-0.00114048,0.00044605,0.00130438,0.00117944,-0.00187387,1.0586,0.00177796,0.0127882,755,1527,-6.05396,-19.0263
-462,-503,-6.07092,19.676,-0.000371478,0.000865643,0.00127444,0.0016637,-0.00116954,1.01133,0.00164404,0.011842,762,1527,-6.07094,-19.676
-455,-503,-6.0932,20.3416,0.000275534,0.00120393,0.00128095,0.0021022,-0.000622738,0.95923,0.00164872,0.0178049,769,1527,-6.09322,-20.3416
-448,-503,-6.10022,20.9851,0.000894517,0.00153812,0.00139158,0.00264462,-0.000211986,0.899025,0.00183782,0.0166948,776,1527,-6.1002,-20.9851
-441,-503,-6.10645,21.566,0.00158994,0.00206467,0.00176647,0.00360965,4.49506e-05,0.852184,0.00239159,0.0135763,783,1527,-6.10644,-21.566
-434,-503,-6.15808,22.1653,0.00234709,0.00286108,0.00236,0.00497804,0.000230135,0.839632,0.0032447,0.0117672,790,1527,-6.15805,-22.1653
-427,-503,-6.22632,22.7744,0.00322497,0.00375066,0.00309649,0.00659544,0.000380194,0.827739,0.00427586,0.0180517,797,1527,-6.22632,-22.7744
-420,-503,-6.21039,23.3972,0.00423988,0.0048718,0.00410407,0.00867205,0.00043963,0.823816,0.00564054,0.0185929,804,1527,-6.21041,-23.3972
-413,-503,-6.23071,24.0256,0.00551051,0.00625303,0.00548568,0.01138,0.000383547,0.819186,0.0074621,0.0168973,811,1527,-6.23071,-24.0256
-406,-503,-6.21954,24.6632,0.00747095,0.00878555,0.00758433,0.015741,0.000515491,0.828623,0.0103265,0.0261065,818,1527,-6.21956,-24.6632
-399,-503,-6.08362,25.4803,0.0103223,0.0123158,0.0103033,0.0216705,0.000967611,0.83362,0.0141355,0.0432819,825,1527,-6.08361,-25.4803
-392,-503,-5.76971,26.4965,0,0,0,0,0,0,0,-1,832,1527,-5.7697,-26.4964
-385,-503,-2.00403,14.1218,0,0,0,0,0,0,0,-1,839,1527,-2.00403,-14.1218
-378,-503,-2.07043,13.8632,0,0,0,0,0,0,0,-1,846,1527,-2.07043,-13.8631
-371,-503,-1.67285,13.8081,0,0,0,0,0,0,0,-1,853,1527,-1.67285,-13.8081
-364,-503,0.181396,12.3768,0,0,0,0,0,0,0,-1,860,1527,0.18138,-12.3768
-357,-503,0.558533,9.25452,0,0,0,0,0,0,0,-1,867,1527,0.558542,-9.25446
-350,-503,0.219971,6.84827,0,0,0,0,0,0,0,-1,874,1527,0.21996,-6.84831
-343,-503,-3.5802,4.43274,0,0,0,0,0,0,0,-1,881,1527,-3.58018,-4.43276
-336,-503,-3.2384,6.40637,0,0,0,0,0,0,0,-1,888,1527,-3.2384,-6.40643
-329,-503,-1.70691,11.886,0,0,0,0,0,0,0,-1,895,1527,-1.70689,-11.886
-322,-503,-3.31317,8.81519,0,0,0,0,0,0,0,-1,902,1527,-3.31315,-8.81524
-315,-503,-3.90265,7.73853,0,0,0,0,0,0,0,-1,909,1527,-3.90264,-7.73854
-308,-503,-1.70264,7.35413,0,0,0,0,0,0,0,-1,916,1527,-1.70262,-7.35416
-301,-503,0,0,0,0,0,0,0,0,0,-1,923,1527,0,0
-294,-503,0,0,0,0,0,0,0,0,0,-1,930,1527,0,0
-287,-503,0,0,0,0,0,0,0,0,0,-1,937,1527,0,0
-280,-503,0,0,0,0,0,0,0,0,0,-1,944,1527,0,0
-273,-503,0,0,0,0,0,0,0,0,0,-1,951,1527,0,0
-266,-503,0,0,0,0,0,0,0,0,0,-1,958,1527,0,0
-259,-503,0,0,0,0,0,0,0,0,0,-1,965,1527,0,0
-252,-503,0,0,0,0,0,0,0,0,0,-1,972,1527,0,0
-245,-503,0,0,0,0,0,0,0,0,0,-1,979,1527,0,0
-238,-503,0,0,0,0,0,0,0,0,0,-1,986,1527,0,0
-231,-503,0,0,0,0,0,0,0,0,0,-1,993,1527,0,0
-224,-503,0,0,0,0,0,0,0,0,0,-1,1000,1527,0,0
-217,-503,0,0,0,0,0,0,0,0,0,-1,1007,1527,0,0
-210,-503,0,0,0,0,0,0,0,0,0,-1,1014,1527,0,0
-203,-503,0,0,0,0,0,0,0,0,0,-1,1021,1527,0,0
-196,-503,0,0,0,0,0,0,0,0,0,-1,1028,1527,0,0
-189,-503,0,0,0,0,0,0,0,0,0,-1,1035,1527,0,0
-182,-503,0,0,0,0,0,0,0,0,0,-1,1042,1527,0,0
-175,-503,0,0,0,0,0,0,0,0,0,-1,1049,1527,0,0
-168,-503,0,0,0,0,0,0,0,0,0,-1,1056,1527,0,0
-161,-503,0,0,0,0,0,0,0,0,0,-1,1063,1527,0,0
-154,-503,0,0,0,0,0,0,0,0,0,-1,1070,1527,0,0
-147,-503,0,0,0,0,0,0,0,0,0,-1,1077,1527,0,0
-140,-503,0,0,0,0,0,0,0,0,0,-1,1084,1527,0,0
-133,-503,0,0,0,0,0,0,0,0,0,-1,1091,1527,0,0
-126,-503,0,0,0,0,0,0,0,0,0,-1,1098,1527,0,0
-119,-503,0,0,0,0,0,0,0,0,0,-1,1105,1527,0,0
-112,-503,0,0,0,0,0,0,0,0,0,-1,1112,1527,0,0
-105,-503,0,0,0,0,0,0,0,0,0,-1,1119,1527,0,0
-98,-503,0,0,0,0,0,0,0,0,0,-1,1126,1527,0,0
-91,-503,0,0,0,0,0,0,0,0,0,-1,1133,1527,0,0
-84,-503,0,0,0,0,0,0,0,0,0,-1,1140,1527,0,0
-77,-503,0,0,0,0,0,0,0,0,0,-1,1147,1527,0,0
-70,-503,0,0,0,0,0,0,0,0,0,-1,1154,1527,0,0
-63,-503,0,0,0,0,0,0,0,0,0,-1,1161,1527,0,0
-56,-503,0,0,0,0,0,0,0,0,0,-1,1168,1527,0,0
-49,-503,0,0,0,0,0,0,0,0,0,-1,1175,1527,0,0
-42,-503,0,0,0,0,0,0,0,0,0,-1,1182,1527,0,0
-35,-503,0,0,0,0,0,0,0,0,0,-1,1189,1527,0,0
-28,-503,0,0,0,0,0,0,0,0,0,-1,1196,1527,0,0
-21,-503,0,0,0,0,0,0,0,0,0,-1,1203,1527,0,0
-14,-503,0,0,0,0,0,0,0,0,0,-1,1210,1527,0,0
-7,-503,0,0,0,0,0,0,0,0,0,-1,1217,1527,0,0
0,-503,0,0,0,0,0,0,0,0,0,-1,1224,1527,0,0
7,-503,0,0,0,0,0,0,0,0,0,-1,1231,1527,0,0
14,-503,0,0,0,0,0,0,0,0,0,-1,1238,1527,0,0
21,-503,0,0,0,0,0,0,0,0,0,-1,1245,1527,0,0
28,-503,0,0,0,0,0,0,0,0,0,-1,1252,1527,0,0
35,-503,0,0,0,0,0,0,0,0,0,-1,1259,1527,0,0
42,-503,0,0,0,0,0,0,0,0,0,-1,1266,1527,0,0
49,-503,0,0,0,0,0,0,0,0,0,-1,1273,1527,0,0
56,-503,0,0,0,0,0,0,0,0,0,-1,1280,1527,0,0
63,-503,0,0,0,0,0,0,0,0,0,-1,1287,1527,0,0
70,-503,0,0,0,0,0,0,0,0,0,-1,1294,1527,0,0
77,-503,0,0,0,0,0,0,0,0,0,-1,1301,1527,0,0
84,-503,0,0,0,0,0,0,0,0,0,-1,1308,1527,0,0
91,-503,0,0,0,0,0,0,0,0,0,-1,1315,1527,0,0
98,-503,0,0,0,0,0,0,0,0,0,-1,1322,1527,0,0
105,-503,0,0,0,0,0,0,0,0,0,-1,1329,1527,0,0
112,-503,0,0,0,0,0,0,0,0,0,-1,1336,1527,0,0
119,-503,0,0,0,0,0,0,0,0,0,-1,1343,1527,0,0
126,-503,0,0,0,0,0,0,0,0,0,-1,1350,1527,0,0
133,-503,0,0,0,0,0,0,0,0,0,-1,1357,1527,0,0
140,-503,0,0,0,0,0,0,0,0,0,-1,1364,1527,0,0
147,-503,0,0,0,0,0,0,0,0,0,-1,1371,1527,0,0
154,-503,0,0,0,0,0,0,0,0,0,-1,1378,1527,0,0
161,-503,0,0,0,0,0,0,0,0,0,-1,1385,1527,0,0
168,-503,0,0,0,0,0,0,0,0,0,-1,1392,1527,0,0
175,-503,0,0,0,0,0,0,0,0,0,-1,1399,1527,0,0
182,-503,0,0,0,0,0,0,0,0,0,-1,1406,1527,0,0
189,-503,0,0,0,0,0,0,0,0,0,-1,1413,1527,0,0
196,-503,0,0,0,0,0,0,0,0,0,-1,1420,1527,0,0
203,-503,0,0,0,0,0,0,0,0,0,-1,1427,1527,0,0
210,-503,0,0,0,0,0,0,0,0,0,-1,1434,1527,0,0
217,-503,0,0,0,0,0,0,0,0,0,-1,1441,1527,0,0
224,-503,0,0,0,0,0,0,0,0,0,-1,1448,1527,0,0
231,-503,0,0,0,0,0,0,0,0,0,-1,1455,1527,0,0
238,-503,0,0,0,0,0,0,0,0,0,-1,1462,1527,0,0
245,-503,0,0,0,0,0,0,0,0,0,-1,1469,1527,0,0
252,-503,0,0,0,0,0,0,0,0,0,-1,1476,1527,0,0
259,-503,0,0,0,0,0,0,0,0,0,-1,1483,1527,0,0
266,-503,0,0,0,0,0,0,0,0,0,-1,1490,1527,0,0
273,-503,0,0,0,0,0,0,0,0,0,-1,1497,1527,0,0
280,-503,0,0,0,0,0,0,0,0,0,-1,1504,1527,0,0
287,-503,0,0,0,0,0,0,0,0,0,-1,1511,1527,0,0
294,-503,0,0,0,0,0,0,0,0,0,-1,1518,1527,0,0
301,-503,0,0,0,0,0,0,0,0,0,-1,1525,1527,0,0
308,-503,0,0,0,0,0,0,0,0,0,-1,1532,1527,0,0
315,-503,0,0,0,0,0,0,0,0,0,-1,1539,1527,0,0
322,-503,0,0,0,0,0,0,0,0,0,-1,1546,1527,0,0
329,-503,0,0,0,0,0,0,0,0,0,-1,1553,1527,0,0
336,-503,0,0,0,0,0,0,0,0,0,-1,1560,1527,0,0
343,-503,0,0,0,0,0,0,0,0,0,-1,1567,1527,0,0
350,-503,0,0,0,0,0,0,0,0,0,-1,1574,1527,0,0
357,-503,0,0,0,0,0,0,0,0,0,-1,1581,1527,0,0
364,-503,0,0,0,0,0,0,0,0,0,-1,1588,1527,0,0
371,-503,0,0,0,0,0,0,0,0,0,-1,1595,1527,0,0
378,-503,0,0,0,0,0,0,0,0,0,-1,1602,1527,0,0
385,-503,0,0,0,0,0,0,0,0,0,-1,1609,1527,0,0
392,-503,0,0,0,0,0,0,0,0,0,-1,1616,1527,0,0
399,-503,0,0,0,0,0,0,0,0,0,-1,1623,1527,0,0
406,-503,0,0,0,0,0,0,0,0,0,-1,1630,1527,0,0
413,-503,0,0,0,0,0,0,0,0,0,-1,1637,1527,0,0
420,-503,0,0,0,0,0,0,0,0,0,-1,1644,1527,0,0
427,-503,10.5968,4.9856,0,0,0,0,0,0,0,-1,1651,1527,10.5969,-4.98563
434,-503,11.4329,3.97217,0,0,0,0,0,0,0,-1,1658,1527,11.4328,-3.97222
441,-503,12.0957,2.96509,0,0,0,0,0,0,0,-1,1665,1527,12.0957,-2.96512
448,-503,12.3259,2.53894,0,0,0,0,0,0,0,-1,1672,1527,12.326,-2.53895
455,-503,12.1669,2.18762,0,0,0,0,0,0,0,-1,1679,1527,12.1668,-2.18767
462,-503,11.59,2.60791,0,0,0,0,0,0,0,-1,1686,1527,11.5899,-2.60794
469,-503,11.1625,1.61853,0,0,0,0,0,0,0,-1,1693,1527,11.1625,-1.61856
476,-503,9.07703,5.81042,0,0,0,0,0,0,0,-1,1700,1527,9.07699,-5.81047
483,-503,9.74414,6.92432,0,0,0,0,0,0,0,-1,1707,1527,9.74417,-6.9243
490,-503,10.5033,10.1071,0,0,0,0,0,0,0,-1,1714,1527,10.5032,-10.107
497,-503,15.0057,17.9476,0,0,0,0,0,0,0,-1,1721,1527,15.0058,-17.9476
504,-503,16.4764,18.4486,0,0,0,0,0,0,0,-1,1728,1527,16.4764,-18.4486
511,-503,16.8276,18.3271,0,0,0,0,0,0,0,-1,1735,1527,16.8276,-18.3272
518,-503,17.2533,18.2738,0,0,0,0,0,0,0,-1,1742,1527,17.2533,-18.2738
525,-503,21.2887,26.5785,0,0,0,0,0,0,0,-1,1749,1527,21.2887,-26.5785
532,-503,23.0836,26.359,0,0,0,0,0,0,0,-1,1756,1527,23.0836,-26.3591
539,-503,23.1049,25.7074,0.00722157,0.00557928,-0.00459391,0.0110672,0.00173371,-0.696959,0.00687347,0.0265468,1763,1527,23.1048,-25.7074
546,-503,23.1487,25.0216,0.00565399,0.00426474,-0.00335993,0.00839035,0.00152839,-0.683465,0.00516011,0.0135284,1770,1527,23.1487,-25.0216
553,-503,23.1606,24.4554,0.00457558,0.00311333,-0.00243361,0.00638551,0.00130339,-0.639473,0.00389591,0.0137537,1777,1527,23.1607,-24.4555
560,-503,23.1346,23.8806,0.00378219,0.00214016,-0.00172841,0.00487467,0.00104768,-0.56367,0.00296296,0.0140169,1784,1527,23.1347,-23.8806
567,-503,23.1227,23.2644,0.00331537,0.00149808,-0.00138631,0.00406428,0.000749172,-0.495303,0.00249754,0.0130413,1791,1527,23.1226,-23.2645
574,-503,23.1143,22.6715,0.00308507,0.0010669,-0.00125152,0.00368364,0.00046833,-0.446116,0.00231549,0.0129499,1798,1527,23.1143,-22.6716
581,-503,23.0717,22.1044,0.00301478,0.000735762,-0.00124281,0.00356141,0.000189138,-0.414365,0.0023138,0.0150172,1805,1527,23.0717,-22.1043
588,-503,23.0513,21.5396,0.00319147,0.000626343,-0.00142257,0.00382428,-6.4692e-06,-0.418553,0.00255168,0.0190026,1812,1527,23.0513,-21.5396
595,-503,23.0314,20.9475,0.00366682,0.00062551,-0.00168028,0.00441238,-0.000120048,-0.417612,0.00298241,0.0139925,1819,1527,23.0313,-20.9475
602,-503,23.0767,20.277,0.00427011,0.000884222,-0.00208619,0.00526385,-0.000109514,-0.444541,0.0035463,0.0258761,1826,1527,23.0767,-20.2769
609,-503,23.0673,19.6427,0,0,0,0,0,0,0,-1,1833,1527,23.0673,-19.6427
616,-503,23.1802,19.0071,0,0,0,0,0,0,0,-1,1840,1527,23.1802,-19.007
623,-503,18.7351,15.5999,0,0,0,0,0,0,0,-1,1847,1527,18.7351,-15.5999
630,-503,20.6721,13.9077,0,0,0,0,0,0,0,-1,1854,1527,20.6721,-13.9077
637,-503,14.5564,9.20496,0,0,0,0,0,0,0,-1,1861,1527,14.5564,-9.2049
644,-503,11.4802,7.57214,0,0,0,0,0,0,0,-1,1868,1527,11.4802,-7.57215
651,-503,11.5718,6.5448,0,0,0,0,0,0,0,-1,1875,1527,11.5718,-6.54476
658,-503,8.25635,3.10498,0,0,0,0,0,0,0,-1,1882,1527,8.2563,-3.10493
665,-503,0,0,0,0,0,0,0,0,0,-1,1889,1527,0,0
672,-503,0,0,0,0,0,0,0,0,0,-1,1896,1527,0,0
679,-503,0,0,0,0,0,0,0,0,0,-1,1903,1527,0,0
686,-503,0,0,0,0,0,0,0,0,0,-1,1910,1527,0,0
693,-503,0,0,0,0,0,0,0,0,0,-1,1917,1527,0,0
700,-503,0,0,0,0,0,0,0,0,0,-1,1924,1527,0,0
707,-503,0,0,0,0,0,0,0,0,0,-1,1931,1527,0,0
714,-503,0,0,0,0,0,0,0,0,0,-1,1938,1527,0,0
721,-503,0,0,0,0,0,0,0,0,0,-1,1945,1527,0,0
728,-503,0,0,0,0,0,0,0,0,0,-1,1952,1527,0,0
735,-503,0,0,0,0,0,0,0,0,0,-1,1959,1527,0,0
742,-503,0,0,0,0,0,0,0,0,0,-1,1966,1527,0,0
749,-503,0,0,0,0,0,0,0,0,0,-1,1973,1527,0,0
756,-503,0,0,0,0,0,0,0,0,0,-1,1980,1527,0,0
763,-503,0,0,0,0,0,0,0,0,0,-1,1987,1527,0,0
770,-503,0,0,0,0,0,0,0,0,0,-1,1994,1527,0,0
777,-503,0,0,0,0,0,0,0,0,0,-1,2001,1527,0,0
784,-503,0,0,0,0,0,0,0,0,0,-1,2008,1527,0,0
791,-503,0,0,0,0,0,0,0,0,0,-1,2015,1527,0,0
798,-503,0,0,0,0,0,0,0,0,0,-1,2022,1527,0,0
805,-503,0,0,0,0,0,0,0,0,0,-1,2029,1527,0,0
812,-503,0,0,0,0,0,0,0,0,0,-1,2036,1527,0,0
-700,-510,0,0,0,0,0,0,0,0,0,-1,524,1534,0,0
-693,-510,0,0,0,0,0,0,0,0,0,-1,531,1534,0,0
-686,-510,0,0,0,0,0,0,0,0,0,-1,538,1534,0,0
-679,-510,0,0,0,0,0,0,0,0,0,-1,545,1534,0,0
-672,-510,0,0,0,0,0,0,0,0,0,-1,552,1534,0,0
-665,-510,0,0,0,0,0,0,0,0,0,-1,559,1534,0,0
-658,-510,0,0,0,0,0,0,0,0,0,-1,566,1534,0,0
-651,-510,0,0,0,0,0,0,0,0,0,-1,573,1534,0,0
-644,-510,0,0,0,0,0,0,0,0,0,-1,580,1534,0,0
-637,-510,0,0,0,0,0,0,0,0,0,-1,587,1534,0,0
-630,-510,0,0,0,0,0,0,0,0,0,-1,594,1534,0,0
-623,-510,0,0,0,0,0,0,0,0,0,-1,601,1534,0,0
-616,-510,0,0,0,0,0,0,0,0,0,-1,608,1534,0,0
-609,-510,0,0,0,0,0,0,0,0,0,-1,615,1534,0,0
-602,-510,0,0,0,0,0,0,0,0,0,-1,622,1534,0,0
-595,-510,0,0,0,0,0,0,0,0,0,-1,629,1534,0,0
-588,-510,0,0,0,0,0,0,0,0,0,-1,636,1534,0,0
-581,-510,0,0,0,0,0,0,0,0,0,-1,643,1534,0,0
-574,-510,0,0,0,0,0,0,0,0,0,-1,650,1534,0,0
-567,-510,0,0,0,0,0,0,0,0,0,-1,657,1534,0,0
-560,-510,0,0,0,0,0,0,0,0,0,-1,664,1534,0,0
-553,-510,0,0,0,0,0,0,0,0,0,-1,671,1534,0,0
-546,-510,0,0,0,0,0,0,0,0,0,-1,678,1534,0,0
-539,-510,0,0,0,0,0,0,0,0,0,-1,685,1534,0,0
-532,-510,-3.95129,4.52014,0,0,0,0,0,0,0,-1,692,1534,-3.95131,-4.5202
-525,-510,-2.77411,0.316772,0,0,0,0,0,0,0,-1,699,1534,-2.77409,-0.3168
-518,-510,-2.86847,2.71423,0,0,0,0,0,0,0,-1,706,1534,-2.86849,-2.71424
-511,-510,-2.28571,4.48083,0,0,0,0,0,0,0,-1,713,1534,-2.28571,-4.48086
-504,-510,-4.86731,10.8224,0,0,0,0,0,0,0,-1,720,1534,-4.8673,-10.8224
-497,-510,-3.42352,15.5178,0,0,0,0,0,0,0,-1,727,1534,-3.42352,-15.5178
-490,-510,-4.72717,16.8805,0,0,0,0,0,0,0,-1,734,1534,-4.7272,-16.8805
-483,-510,-4.87506,17.5333,0,0,0,0,0,0,0,-1,741,1534,-4.87506,-17.5333
-476,-510,-5.05273,18.3663,-0.00173999,0.00187574,0.00247258,0.00313089,-0.00299514,1.10107,0.00353715,0.0430903,748,1534,-5.05272,-18.3664
-469,-510,-5.39777,19.0663,-0.000745608,0.00205618,0.00222687,0.00328615,-0.00197558,1.06616,0.00306911,0.0171636,755,1534,-5.39774,-19.0663
-462,-510,-5.43854,19.6914,-2.03746e-05,0.00220486,0.00199061,0.00337269,-0.00118821,1.04024,0.00273206,0.0118307,762,1534,-5.43857,-19.6914
-455,-510,-5.47302,20.3453,0.000503274,0.00222996,0.00177398,0.00333953,-0.000606293,1.01186,0.00245355,0.0141608,769,1534,-5.47299,-20.3453
-448,-510,-5.4646,20.9731,0.000929753,0.00219754,0.00163429,0.00331656,-0.000189272,0.970401,0.00227675,0.0126372,776,1534,-5.46461,-20.9731
-441,-510,-5.49091,21.5886,0.00141098,0.00234365,0.00174675,0.00368525,6.93807e-05,0.915843,0.00243403,0.0138382,783,1534,-5.49088,-21.5886
-434,-510,-5.56036,22.1957,0.00195146,0.00276285,0.00208759,0.0044838,0.000230507,0.88137,0.0029154,0.0157345,790,1534,-5.56035,-22.1957
-427,-510,-5.60535,22.771,0.00260616,0.00331478,0.00258518,0.00556981,0.000351125,0.853501,0.00360188,0.0237839,797,1534,-5.60538,-22.7711
-420,-510,-5.61145,23.4329,0.00347051,0.00406993,0.00333872,0.00712236,0.000418077,0.830162,0.0046152,0.0219673,804,1534,-5.61148,-23.4328
-413,-510,-5.62469,24.0657,0.0044966,0.00516227,0.00439436,0.00923638,0.00042249,0.823197,0.0060217,0.0115936,811,1534,-5.62472,-24.0657
-406,-510,-5.64911,24.6666,0.00602716,0.00713889,0.00600607,0.0126148,0.000551292,0.831542,0.00823223,0.0110719,818,1534,-5.64913,-24.6667
-399,-510,-5.65717,25.2678,0.00826424,0.00999283,0.00811904,0.0172934,0.000963623,0.838425,0.0112216,0.0154713,825,1534,-5.65717,-25.2678
-392,-510,-5.4635,26.156,0.0106326,0.0129354,0.0102694,0.0221177,0.0014503,0.841225,0.0142863,0.0496776,832,1534,-5.46348,-26.156
-385,-510,-5.32623,27.1696,0,0,0,0,0,0,0,-1,839,1534,-5.32624,-27.1696
-378,-510,-1.78308,13.8044,0,0,0,0,0,0,0,-1,846,1534,-1.78309,-13.8044
-371,-510,-1.74982,13.8027,0,0,0,0,0,0,0,-1,853,1534,-1.74981,-13.8028
-364,-510,-1.3479,13.7771,0,0,0,0,0,0,0,-1,860,1534,-1.34791,-13.7771
-357,-510,-0.254395,8.89575,0,0,0,0,0,0,0,-1,867,1534,-0.254397,-8.89569
-350,-510,0.471191,6.06458,0,0,0,0,0,0,0,-1,874,1534,0.47118,-6.06453
-343,-510,-6.96869,26.3074,0,0,0,0,0,0,0,-1,881,1534,-6.9687,-26.3074
-336,-510,-5.60437,29.5996,0,0,0,0,0,0,0,-1,888,1534,-5.60435,-29.5996
-329,-510,-4.87781,20.6893,0,0,0,0,0,0,0,-1,895,1534,-4.87782,-20.6894
-322,-510,-0.251526,11.973,0,0,0,0,0,0,0,-1,902,1534,-0.251497,-11.9731
-315,-510,-1.73047,10.9796,0,0,0,0,0,0,0,-1,909,1534,-1.73049,-10.9796
-308,-510,-2.05328,9.72034,0,0,0,0,0,0,0,-1,916,1534,-2.05327,-9.72036
-301,-510,-1.85437,11.5869,0,0,0,0,0,0,0,-1,923,1534,-1.85437,-11.5869
-294,-510,0,0,0,0,0,0,0,0,0,-1,930,1534,0,0
-287,-510,0,0,0,0,0,0,0,0,0,-1,937,1534,0,0
-280,-510,0,0,0,0,0,0,0,0,0,-1,944,1534,0,0
-273,-510,0,0,0,0,0,0,0,0,0,-1,951,1534,0,0
-266,-510,0,0,0,0,0,0,0,0,0,-1,958,1534,0,0
-259,-510,0,0,0,0,0,0,0,0,0,-1,965,1534,0,0
-252,-510,0,0,0,0,0,0,0,0,0,-1,972,1534,0,0
-245,-510,0,0,0,0,0,0,0,0,0,-1,979,1534,0,0
-238,-510,0,0,0,0,0,0,0,0,0,-1,986,1534,0,0
-231,-510,0,0,0,0,0,0,0,0,0,-1,993,1534,0,0
-224,-510,0,0,0,0,0,0,0,0,0,-1,1000,1534,0,0
-217,-510,0,0,0,0,0,0,0,0,0,-1,1007,1534,0,0
-210,-510,0,0,0,0,0,0,0,0,0,-1,1014,1534,0,0
-203,-510,0,0,0,0,0,0,0,0,0,-1,1021,1534,0,0
-196,-510,0,0,0,0,0,0,0,0,0,-1,1028,1534,0,0
-189,-510,0,0,0,0,0,0,0,0,0,-1,1035,1534,0,0
-182,-510,0,0,0,0,0,0,0,0,0,-1,1042,1534,0,0
-175,-510,0,0,0,0,0,0,0,0,0,-1,1049,1534,0,0
-168,-510,0,0,0,0,0,0,0,0,0,-1,1056,1534,0,0
-161,-510,0,0,0,0,0,0,0,0,0,-1,1063,1534,0,0
-154,-510,0,0,0,0,0,0,0,0,0,-1,1070,1534,0,0
-147,-510,0,0,0,0,0,0,0,0,0,-1,1077,1534,0,0
-140,-510,0,0,0,0,0,0,0,0,0,-1,1084,1534,0,0
-133,-510,0,0,0,0,0,0,0,0,0,-1,1091,1534,0,0
-126,-510,0,0,0,0,0,0,0,0,0,-1,1098,1534,0,0
-119,-510,0,0,0,0,0,0,0,0,0,-1,1105,1534,0,0
-112,-510,0,0,0,0,0,0,0,0,0,-1,1112,1534,0,0
-105,-510,0,0,0,0,0,0,0,0,0,-1,1119,1534,0,0
-98,-510,0,0,0,0,0,0,0,0,0,-1,1126,1534,0,0
-91,-510,0,0,0,0,0,0,0,0,0,-1,1133,1534,0,0
-84,-510,0,0,0,0,0,0,0,0,0,-1,1140,1534,0,0
-77,-510,0,0,0,0,0,0,0,0,0,-1,1147,1534,0,0
-70,-510,0,0,0,0,0,0,0,0,0,-1,1154,1534,0,0
-63,-510,0,0,0,0,0,0,0,0,0,-1,1161,1534,0,0
-56,-510,0,0,0,0,0,0,0,0,0,-1,1168,1534,0,0
-49,-510,0,0,0,0,0,0,0,0,0,-1,1175,1534,0,0
-42,-510,0,0,0,0,0,0,0,0,0,-1,1182,1534,0,0
-35,-510,0,0,0,0,0,0,0,0,0,-1,1189,1534,0,0
-28,-510,0,0,0,0,0,0,0,0,0,-1,1196,1534,0,0
-21,-510,0,0,0,0,0,0,0,0,0,-1,1203,1534,0,0
-14,-510,0,0,0,0,0,0,0,0,0,-1,1210,1534,0,0
-7,-510,0,0,0,0,0,0,0,0,0,-1,1217,1534,0,0
0,-510,0,0,0,0,0,0,0,0,0,-1,1224,1534,0,0
7,-510,0,0,0,0,0,0,0,0,0,-1,1231,1534,0,0
14,-510,0,0,0,0,0,0,0,0,0,-1,1238,1534,0,0
21,-510,0,0,0,0,0,0,0,0,0,-1,1245,1534,0,0
28,-510,0,0,0,0,0,0,0,0,0,-1,1252,1534,0,0
35,-510,0,0,0,0,0,0,0,0,0,-1,1259,1534,0,0
42,-510,0,0,0,0,0,0,0,0,0,-1,1266,1534,0,0
49,-510,0,0,0,0,0,0,0,0,0,-1,1273,1534,0,0
56,-510,0,0,0,0,0,0,0,0,0,-1,1280,1534,0,0
63,-510,0,0,0,0,0,0,0,0,0,-1,1287,1534,0,0
70,-510,0,0,0,0,0,0,0,0,0,-1,1294,1534,0,0
77,-510,0,0,0,0,0,0,0,0,0,-1,1301,1534,0,0
84,-510,0,0,0,0,0,0,0,0,0,-1,1308,1534,0,0
91,-510,0,0,0,0,0,0,0,0,0,-1,1315,1534,0,0
98,-510,0,0,0,0,0,0,0,0,0,-1,1322,1534,0,0
105,-510,0,0,0,0,0,0,0,0,0,-1,1329,1534,0,0
112,-510,0,0,0,0,0,0,0,0,0,-1,1336,1534,0,0
119,-510,0,0,0,0,0,0,0,0,0,-1,1343,1534,0,0
126,-510,0,0,0,0,0,0,0,0,0,-1,1350,1534,0,0
133,-510,0,0,0,0,0,0,0,0,0,-1,1357,1534,0,0
140,-510,0,0,0,0,0,0,0,0,0,-1,1364,1534,0,0
147,-510,0,0,0,0,0,0,0,0,0,-1,1371,1534,0,0
154,-510,0,0,0,0,0,0,0,0,0,-1,1378,1534,0,0
161,-510,0,0,0,0,0,0,0,0,0,-1,1385,1534,0,0
168,-510,0,0,0,0,0,0,0,0,0,-1,1392,1534,0,0
175,-510,0,0,0,0,0,0,0,0,0,-1,1399,1534,0,0
182,-510,0,0,0,0,0,0,0,0,0,-1,1406,1534,0,0
189,-510,0,0,0,0,0,0,0,0,0,-1,1413,1534,0,0
196,-510,0,0,0,0,0,0,0,0,0,-1,1420,1534,0,0
203,-510,0,0,0,0,0,0,0,0,0,-1,1427,1534,0,0
210,-510,0,0,0,0,0,0,0,0,0,-1,1434,1534,0,0
217,-510,0,0,0,0,0,0,0,0,0,-1,1441,1534,0,0
224,-510,0,0,0,0,0,0,0,0,0,-1,1448,1534,0,0
231,-510,0,0,0,0,0,0,0,0,0,-1,1455,1534,0,0
238,-510,0,0,0,0,0,0,0,0,0,-1,1462,1534,0,0
245,-510,0,0,0,0,0,0,0,0,0,-1,1469,1534,0,0
252,-510,0,0,0,0,0,0,0,0,0,-1,1476,1534,0,0
259,-510,0,0,0,0,0,0,0,0,0,-1,1483,1534,0,0
266,-510,0,0,0,0,0,0,0,0,0,-1,1490,1534,0,0
273,-510,0,0,0,0,0,0,0,0,0,-1,1497,1534,0,0
280,-510,0,0,0,0,0,0,0,0,0,-1,1504,1534,0,0
287,-510,0,0,0,0,0,0,0,0,0,-1,1511,1534,0,0
294,-510,0,0,0,0,0,0,0,0,0,-1,1518,1534,0,0
301,-510,0,0,0,0,0,0,0,0,0,-1,1525,1534,0,0
308,-510,0,0,0,0,0,0,0,0,0,-1,1532,1534,0,0
315,-510,0,0,0,0,0,0,0,0,0,-1,1539,1534,0,0
322,-510,0,0,0,0,0,0,0,0,0,-1,1546,1534,0,0
329,-510,0,0,0,0,0,0,0,0,0,-1,1553,1534,0,0
336,-510,0,0,0,0,0,0,0,0,0,-1,1560,1534,0,0
343,-510,0,0,0,0,0,0,0,0,0,-1,1567,1534,0,0
350,-510,0,0,0,0,0,0,0,0,0,-1,1574,1534,0,0
357,-510,0,0,0,0,0,0,0,0,0,-1,1581,1534,0,0
364,-510,0,0,0,0,0,0,0,0,0,-1,1588,1534,0,0
371,-510,0,0,0,0,0,0,0,0,0,-1,1595,1534,0,0
378,-510,0,0,0,0,0,0,0,0,0,-1,1602,1534,0,0
385,-510,0,0,0,0,0,0,0,0,0,-1,1609,1534,0,0
392,-510,0,0,0,0,0,0,0,0,0,-1,1616,1534,0,0
399,-510,0,0,0,0,0,0,0,0,0,-1,1623,1534,0,0
406,-510,0,0,0,0,0,0,0,0,0,-1,1630,1534,0,0
413,-510,0,0,0,0,0,0,0,0,0,-1,1637,1534,0,0
420,-510,14.1888,6.71936,0,0,0,0,0,0,0,-1,1644,1534,14.1889,-6.71939
427,-510,10.2134,5.59485,0,0,0,0,0,0,0,-1,1651,1534,10.2134,-5.59485
434,-510,11.8219,4.07898,0,0,0,0,0,0,0,-1,1658,1534,11.8219,-4.07895
441,-510,12.6812,3.02991,0,0,0,0,0,0,0,-1,1665,1534,12.6811,-3.0299
448,-510,13.2379,2.2804,0,0,0,0,0,0,0,-1,1672,1534,13.2379,-2.28037
455,-510,9.76892,2.20642,0,0,0,0,0,0,0,-1,1679,1534,9.76894,-2.20647
462,-510,9.84692,2.49182,0,0,0,0,0,0,0,-1,1686,1534,9.84695,-2.49185
469,-510,16.6072,7.26941,0,0,0,0,0,0,0,-1,1693,1534,16.6072,-7.26945
476,-510,15.9199,7.8645,0,0,0,0,0,0,0,-1,1700,1534,15.9199,-7.86455
483,-510,13.0833,8.10938,0,0,0,0,0,0,0,-1,1707,1534,13.0833,-8.10932
490,-510,13.0841,15.3286,0,0,0,0,0,0,0,-1,1714,1534,13.0841,-15.3286
497,-510,15.5652,18.823,0,0,0,0,0,0,0,-1,1721,1534,15.5652,-18.823
504,-510,15.998,18.7478,0,0,0,0,0,0,0,-1,1728,1534,15.998,-18.7478
511,-510,15.9443,18.0476,0,0,0,0,0,0,0,-1,1735,1534,15.9443,-18.0476
518,-510,21.5343,27.1368,0,0,0,0,0,0,0,-1,1742,1534,21.5342,-27.1368
525,-510,22.2743,27.0785,0,0,0,0,0,0,0,-1,1749,1534,22.2743,-27.0785
532,-510,22.579,26.2734,0.00749588,0.00631118,-0.0051639,0.0121013,0.00170576,-0.728293,0.00756333,0.0265303,1756,1534,22.579,-26.2734
539,-510,22.6377,25.5863,0.00586819,0.0047634,-0.0038231,0.0091786,0.00145299,-0.713651,0.00569684,0.0135569,1763,1534,22.6377,-25.5863
546,-510,22.5815,25.0378,0.00465905,0.00352922,-0.00278656,0.00693738,0.00125089,-0.68539,0.00426948,0.0132941,1770,1534,22.5815,-25.0379
553,-510,22.5566,24.4629,0.00383091,0.00246692,-0.00198594,0.00524869,0.00104914,-0.620001,0.00320713,0.0134647,1777,1534,22.5566,-24.4628
560,-510,22.5323,23.8752,0.00326932,0.00154745,-0.00136628,0.0040233,0.000793472,-0.504258,0.00246073,0.0139346,1784,1534,22.5324,-23.8752
567,-510,22.5228,23.2733,0.00302521,0.000973116,-0.00110775,0.00350909,0.000489236,-0.411834,0.00219457,0.0130825,1791,1534,22.5228,-23.2733
574,-510,22.5084,22.6902,0.00299709,0.000588955,-0.00103984,0.00338395,0.000202099,-0.356169,0.00219171,0.0136833,1798,1534,22.5085,-22.6902
581,-510,22.4786,22.1565,0.00316957,0.000327445,-0.00113647,0.00356812,-7.11e-05,-0.337288,0.0024028,0.0129454,1805,1534,22.4787,-22.1565
588,-510,22.4583,21.5831,0.00359268,0.00033334,-0.00145475,0.00414752,-0.000221507,-0.364374,0.00284173,0.0139255,1812,1534,22.4583,-21.5831
595,-510,22.5718,20.8459,0.00428262,0.000517418,-0.00189871,0.00507383,-0.000273797,-0.394829,0.00347741,0.0215854,1819,1534,22.5718,-20.846
602,-510,22.6245,20.0835,0,0,0,0,0,0,0,-1,1826,1534,22.6245,-20.0835
609,-510,21.259,19.222,0,0,0,0,0,0,0,-1,1833,1534,21.259,-19.222
616,-510,18.7024,16.2474,0,0,0,0,0,0,0,-1,1840,1534,18.7024,-16.2474
623,-510,19.6013,14.6211,0,0,0,0,0,0,0,-1,1847,1534,19.6013,-14.6211
630,-510,13.7461,9.30334,0,0,0,0,0,0,0,-1,1854,1534,13.7461,-9.30335
637,-510,11.0155,7.38464,0,0,0,0,0,0,0,-1,1861,1534,11.0155,-7.38463
644,-510,11.5809,7.17126,0,0,0,0,0,0,0,-1,1868,1534,11.5809,-7.17123
651,-510,8.70471,3.5061,0,0,0,0,0,0,0,-1,1875,1534,8.70475,-3.50611
658,-510,0,0,0,0,0,0,0,0,0,-1,1882,1534,0,0
665,-510,0,0,0,0,0,0,0,0,0,-1,1889,1534,0,0
672,-510,0,0,0,0,0,0,0,0,0,-1,1896,1534,0,0
679,-510,0,0,0,0,0,0,0,0,0,-1,1903,1534,0,0
686,-510,0,0,0,0,0,0,0,0,0,-1,1910,1534,0,0
693,-510,0,0,0,0,0,0,0,0,0,-1,1917,1534,0,0
700,-510,0,0,0,0,0,0,0,0,0,-1,1924,1534,0,0
707,-510,0,0,0,0,0,0,0,0,0,-1,1931,1534,0,0
714,-510,0,0,0,0,0,0,0,0,0,-1,1938,1534,0,0
721,-510,0,0,0,0,0,0,0,0,0,-1,1945,1534,0,0
728,-510,0,0,0,0,0,0,0,0,0,-1,1952,1534,0,0
735,-510,0,0,0,0,0,0,0,0,0,-1,1959,1534,0,0
742,-510,0,0,0,0,0,0,0,0,0,-1,1966,1534,0,0
749,-510,0,0,0,0,0,0,0,0,0,-1,1973,1534,0,0
756,-510,0,0,0,0,0,0,0,0,0,-1,1980,1534,0,0
763,-510,0,0,0,0,0,0,0,0,0,-1,1987,1534,0,0
770,-510,0,0,0,0,0,0,0,0,0,-1,1994,1534,0,0
777,-510,0,0,0,0,0,0,0,0,0,-1,2001,1534,0,0
784,-510,0,0,0,0,0,0,0,0,0,-1,2008,1534,0,0
791,-510,0,0,0,0,0,0,0,0,0,-1,2015,1534,0,0
798,-510,0,0,0,0,0,0,0,0,0,-1,2022,1534,0,0
805,-510,0,0,0,0,0,0,0,0,0,-1,2029,1534,0,0
812,-510,0,0,0,0,0,0,0,0,0,-1,2036,1534,0,0
-700,-517,0,0,0,0,0,0,0,0,0,-1,524,1541,0,0
-693,-517,0,0,0,0,0,0,0,0,0,-1,531,1541,0,0
-686,-517,0,0,0,0,0,0,0,0,0,-1,538,1541,0,0
-679,-517,0,0,0,0,0,0,0,0,0,-1,545,1541,0,0
-672,-517,0,0,0,0,0,0,0,0,0,-1,552,1541,0,0
-665,-517,0,0,0,0,0,0,0,0,0,-1,559,1541,0,0
-658,-517,0,0,0,0,0,0,0,0,0,-1,566,1541,0,0
-651,-517,0,0,0,0,0,0,0,0,0,-1,573,1541,0,0
-644,-517,0,0,0,0,0,0,0,0,0,-1,580,1541,0,0
-637,-517,0,0,0,0,0,0,0,0,0,-1,587,1541,0,0
-630,-517,0,0,0,0,0,0,0,0,0,-1,594,1541,0,0
-623,-517,0,0,0,0,0,0,0,0,0,-1,601,1541,0,0
-616,-517,0,0,0,0,0,0,0,0,0,-1,608,1541,0,0
-609,-517,0,0,0,0,0,0,0,0,0,-1,615,1541,0,0
-602,-517,0,0,0,0,0,0,0,0,0,-1,622,1541,0,0
-595,-517,0,0,0,0,0,0,0,0,0,-1,629,1541,0,0
-588,-517,0,0,0,0,0,0,0,0,0,-1,636,1541,0,0
-581,-517,0,0,0,0,0,0,0,0,0,-1,643,1541,0,0
-574,-517,0,0,0,0,0,0,0,0,0,-1,650,1541,0,0
-567,-517,0,0,0,0,0,0,0,0,0,-1,657,1541,0,0
-560,-517,0,0,0,0,0,0,0,0,0,-1,664,1541,0,0
-553,-517,0,0,0,0,0,0,0,0,0,-1,671,1541,0,0
-546,-517,0,0,0,0,0,0,0,0,0,-1,678,1541,0,0
-539,-517,0,0,0,0,0,0,0,0,0,-1,685,1541,0,0
-532,-517,0,0,0,0,0,0,0,0,0,-1,692,1541,0,0
-525,-517,-3.62903,4.3606,0,0,0,0,0,0,0,-1,699,1541,-3.62904,-4.36056
-518,-517,-1.664,2.27209,0,0,0,0,0,0,0,-1,706,1541,-1.66399,-2.27207
-511,-517,-0.999146,5.52063,0,0,0,0,0,0,0,-1,713,1541,-0.999126,-5.52059
-504,-517,-1.06946,8.67432,0,0,0,0,0,0,0,-1,720,1541,-1.06947,-8.6743
-497,-517,-3.87305,15.0215,0,0,0,0,0,0,0,-1,727,1541,-3.87307,-15.0215
-490,-517,-3.70679,18.0737,0,0,0,0,0,0,0,-1,734,1541,-3.70681,-18.0738
-483,-517,-4.04028,18.2849,0,0,0,0,0,0,0,-1,741,1541,-4.04026,-18.285
-476,-517,-4.40533,18.4541,-0.000694803,0.00500504,0.00430559,0.00731847,-0.00300823,1.07775,0.00613279,0.0486737,748,1541,-4.40536,-18.4541
-469,-517,-4.69403,19.1072,0.000328401,0.0047954,0.00377745,0.00695025,-0.00182645,1.05239,0.00534732,0.0221322,755,1541,-4.69403,-19.1072
-462,-517,-4.83594,19.7061,0.000916222,0.00447745,0.00322079,0.00637706,-0.00098339,1.03791,0.00461423,0.0214133,762,1541,-4.83596,-19.7061
-455,-517,-4.85693,20.3606,0.0012087,0.00401689,0.00267661,0.00563533,-0.000409742,1.02696,0.00390065,0.0159897,769,1541,-4.85694,-20.3605
-448,-517,-4.86157,20.9969,0.00134529,0.00345676,0.00219345,0.00483532,-3.32748e-05,1.00969,0.0032347,0.0139878,776,1541,-4.86159,-20.9969
-441,-517,-4.89642,21.6129,0.00151922,0.00308747,0.00196459,0.00441864,0.000188054,0.975277,0.00288512,0.0123507,783,1541,-4.89641,-21.6129
-434,-517,-4.90283,22.223,0.0017731,0.00302231,0.00199659,0.00448972,0.000305692,0.936993,0.00289663,0.0149607,790,1541,-4.90283,-22.223
-427,-517,-4.94196,22.8318,0.0021568,0.00316115,0.00222207,0.00493708,0.000380868,0.896528,0.00317206,0.0140527,797,1541,-4.94193,-22.8318
-420,-517,-5.01556,23.4901,0.00282398,0.00351535,0.0027034,0.00589508,0.000444254,0.848989,0.00379065,0.0193213,804,1541,-5.01558,-23.4901
-413,-517,-5.0285,24.0807,0.00358866,0.00428566,0.00344362,0.00739837,0.000475956,0.835828,0.0047815,0.0107601,811,1541,-5.02852,-24.0807
-406,-517,-5.03784,24.6937,0.00469738,0.00567455,0.00459929,0.00981113,0.000560801,0.838315,0.00636207,0.0110094,818,1541,-5.03787,-24.6937
-399,-517,-5.03662,25.3097,0.00635577,0.00782632,0.00617084,0.0133055,0.000876557,0.844695,0.00859309,0.0111866,825,1541,-5.03663,-25.3097
-392,-517,-5.02539,25.9365,0.00812582,0.0100672,0.00775723,0.0169142,0.00127878,0.847641,0.010875,0.0175425,832,1541,-5.02541,-25.9365
-385,-517,-4.93103,26.8877,0.00976365,0.012327,0.00951749,0.0206487,0.0014419,0.852327,0.0133112,0.0436766,839,1541,-4.93105,-26.8877
-378,-517,-4.80371,28.0021,0,0,0,0,0,0,0,-1,846,1541,-4.80372,-28.0021
-371,-517,-1.37585,13.2646,0,0,0,0,0,0,0,-1,853,1541,-1.37586,-13.2647
-364,-517,-1.26245,12.6289,0,0,0,0,0,0,0,-1,860,1541,-1.26243,-12.6289
-357,-517,-1.23889,12.979,0,0,0,0,0,0,0,-1,867,1541,-1.23891,-12.979
-350,-517,-5.40198,23.8954,0,0,0,0,0,0,0,-1,874,1541,-5.40196,-23.8954
-343,-517,-5.45844,29.2598,0,0,0,0,0,0,0,-1,881,1541,-5.45842,-29.2598
-336,-517,-4.53223,29.6708,0,0,0,0,0,0,0,-1,888,1541,-4.53221,-29.6708
-329,-517,-3.60602,30.0817,0,0,0,0,0,0,0,-1,895,1541,-3.60601,-30.0817
-322,-517,-4.21246,19.5819,0,0,0,0,0,0,0,-1,902,1541,-4.21244,-19.5819
-315,-517,-0.987976,7.29749,0,0,0,0,0,0,0,-1,909,1541,-0.987993,-7.29743
-308,-517,3.27911,17.621,0,0,0,0,0,0,0,-1,916,1541,3.27913,-17.621
-301,-517,-1.69141,8.87488,0,0,0,0,0,0,0,-1,923,1541,-1.69141,-8.87485
-294,-517,-1.72583,9.92566,0,0,0,0,0,0,0,-1,930,1541,-1.72584,-9.92571
-287,-517,-3.09045,12.1472,0,0,0,0,0,0,0,-1,937,1541,-3.09043,-12.1472
-280,-517,0,0,0,0,0,0,0,0,0,-1,944,1541,0,0
-273,-517,0,0,0,0,0,0,0,0,0,-1,951,1541,0,0
-266,-517,0,0,0,0,0,0,0,0,0,-1,958,1541,0,0
-259,-517,0,0,0,0,0,0,0,0,0,-1,965,1541,0,0
-252,-517,0,0,0,0,0,0,0,0,0,-1,972,1541,0,0
-245,-517,0,0,0,0,0,0,0,0,0,-1,979,1541,0,0
-238,-517,0,0,0,0,0,0,0,0,0,-1,986,1541,0,0
-231,-517,0,0,0,0,0,0,0,0,0,-1,993,1541,0,0
-224,-517,0,0,0,0,0,0,0,0,0,-1,1000,1541,0,0
-217,-517,0,0,0,0,0,0,0,0,0,-1,1007,1541,0,0
-210,-517,0,0,0,0,0,0,0,0,0,-1,1014,1541,0,0
-203,-517,0,0,0,0,0,0,0,0,0,-1,1021,1541,0,0
-196,-517,0,0,0,0,0,0,0,0,0,-1,1028,1541,0,0
-189,-517,0,0,0,0,0,0,0,0,0,-1,1035,1541,0,0
-182,-517,0,0,0,0,0,0,0,0,0,-1,1042,1541,0,0
-175,-517,0,0,0,0,0,0,0,0,0,-1,1049,1541,0,0
-168,-517,0,0,0,0,0,0,0,0,0,-1,1056,1541,0,0
-161,-517,0,0,0,0,0,0,0,0,0,-1,1063,1541,0,0
-154,-517,0,0,0,0,0,0,0,0,0,-1,1070,1541,0,0
-147,-517,0,0,0,0,0,0,0,0,0,-1,1077,1541,0,0
-140,-517,0,0,0,0,0,0,0,0,0,-1,1084,1541,0,0
-133,-517,0,0,0,0,0,0,0,0,0,-1,1091,1541,0,0
-126,-517,0,0,0,0,0,0,0,0,0,-1,1098,1541,0,0
-119,-517,0,0,0,0,0,0,0,0,0,-1,1105,1541,0,0
-112,-517,0,0,0,0,0,0,0,0,0,-1,1112,1541,0,0
-105,-517,0,0,0,0,0,0,0,0,0,-1,1119,1541,0,0
-98,-517,0,0,0,0,0,0,0,0,0,-1,1126,1541,0,0
-91,-517,0,0,0,0,0,0,0,0,0,-1,1133,1541,0,0
-84,-517,0,0,0,0,0,0,0,0,0,-1,1140,1541,0,0
-77,-517,0,0,0,0,0,0,0,0,0,-1,1147,1541,0,0
-70,-517,0,0,0,0,0,0,0,0,0,-1,1154,1541,0,0
-63,-517,0,0,0,0,0,0,0,0,0,-1,1161,1541,0,0
-56,-517,0,0,0,0,0,0,0,0,0,-1,1168,1541,0,0
-49,-517,0,0,0,0,0,0,0,0,0,-1,1175,1541,0,0
-42,-517,0,0,0,0,0,0,0,0,0,-1,1182,1541,0,0
-35,-517,0,0,0,0,0,0,0,0,0,-1,1189,1541,0,0
-28,-517,0,0,0,0,0,0,0,0,0,-1,1196,1541,0,0
-21,-517,0,0,0,0,0,0,0,0,0,-1,1203,1541,0,0
-14,-517,0,0,0,0,0,0,0,0,0,-1,1210,1541,0,0
-7,-517,0,0,0,0,0,0,0,0,0,-1,1217,1541,0,0
0,-517,0,0,0,0,0,0,0,0,0,-1,1224,1541,0,0
7,-517,0,0,0,0,0,0,0,0,0,-1,1231,1541,0,0
14,-517,0,0,0,0,0,0,0,0,0,-1,1238,1541,0,0
21,-517,0,0,0,0,0,0,0,0,0,-1,1245,1541,0,0
28,-517,0,0,0,0,0,0,0,0,0,-1,1252,1541,0,0
35,-517,0,0,0,0,0,0,0,0,0,-1,1259,1541,0,0
42,-517,0,0,0,0,0,0,0,0,0,-1,1266,1541,0,0
49,-517,0,0,0,0,0,0,0,0,0,-1,1273,1541,0,0
56,-517,0,0,0,0,0,0,0,0,0,-1,1280,1541,0,0
63,-517,0,0,0,0,0,0,0,0,0,-1,1287,1541,0,0
70,-517,0,0,0,0,0,0,0,0,0,-1,1294,1541,0,0
77,-517,0,0,0,0,0,0,0,0,0,-1,1301,1541,0,0
84,-517,0,0,0,0,0,0,0,0,0,-1,1308,1541,0,0
91,-517,0,0,0,0,0,0,0,0,0,-1,1315,1541,0,0
98,-517,0,0,0,0,0,0,0,0,0,-1,1322,1541,0,0
105,-517,0,0,0,0,0,0,0,0,0,-1,1329,1541,0,0
112,-517,0,0,0,0,0,0,0,0,0,-1,1336,1541,0,0
119,-517,0,0,0,0,0,0,0,0,0,-1,1343,1541,0,0
126,-517,0,0,0,0,0,0,0,0,0,-1,1350,1541,0,0
133,-517,0,0,0,0,0,0,0,0,0,-1,1357,1541,0,0
140,-517,0,0,0,0,0,0,0,0,0,-1,1364,1541,0,0
147,-517,0,0,0,0,0,0,0,0,0,-1,1371,1541,0,0
154,-517,0,0,0,0,0,0,0,0,0,-1,1378,1541,0,0
161,-517,0,0,0,0,0,0,0,0,0,-1,1385,1541,0,0
168,-517,0,0,0,0,0,0,0,0,0,-1,1392,1541,0,0
175,-517,0,0,0,0,0,0,0,0,0,-1,1399,1541,0,0
182,-517,0,0,0,0,0,0,0,0,0,-1,1406,1541,0,0
189,-517,0,0,0,0,0,0,0,0,0,-1,1413,1541,0,0
196,-517,0,0,0,0,0,0,0,0,0,-1,1420,1541,0,0
203,-517,0,0,0,0,0,0,0,0,0,-1,1427,1541,0,0
210,-517,0,0,0,0,0,0,0,0,0,-1,1434,1541,0,0
217,-517,0,0,0,0,0,0,0,0,0,-1,1441,1541,0,0
224,-517,0,0,0,0,0,0,0,0,0,-1,1448,1541,0,0
231,-517,0,0,0,0,0,0,0,0,0,-1,1455,1541,0,0
238,-517,0,0,0,0,0,0,0,0,0,-1,1462,1541,0,0
245,-517,0,0,0,0,0,0,0,0,0,-1,1469,1541,0,0
252,-517,0,0,0,0,0,0,0,0,0,-1,1476,1541,0,0
259,-517,0,0,0,0,0,0,0,0,0,-1,1483,1541,0,0
266,-517,0,0,0,0,0,0,0,0,0,-1,1490,1541,0,0
273,-517,0,0,0,0,0,0,0,0,0,-1,1497,1541,0,0
280,-517,0,0,0,0,0,0,0,0,0,-1,1504,1541,0,0
287,-517,0,0,0,0,0,0,0,0,0,-1,1511,1541,0,0
294,-517,0,0,0,0,0,0,0,0,0,-1,1518,1541,0,0
301,-517,0,0,0,0,0,0,0,0,0,-1,1525,1541,0,0
308,-517,0,0,0,0,0,0,0,0,0,-1,1532,1541,0,0
315,-517,0,0,0,0,0,0,0,0,0,-1,1539,1541,0,0
322,-517,0,0,0,0,0,0,0,0,0,-1,1546,1541,0,0
329,-517,0,0,0,0,0,0,0,0,0,-1,1553,1541,0,0
336,-517,0,0,0,0,0,0,0,0,0,-1,1560,1541,0,0
343,-517,0,0,0,0,0,0,0,0,0,-1,1567,1541,0,0
350,-517,0,0,0,0,0,0,0,0,0,-1,1574,1541,0,0
357,-517,0,0,0,0,0,0,0,0,0,-1,1581,1541,0,0
364,-517,0,0,0,0,0,0,0,0,0,-1,1588,1541,0,0
371,-517,0,0,0,0,0,0,0,0,0,-1,1595,1541,0,0
378,-517,0,0,0,0,0,0,0,0,0,-1,1602,1541,0,0
385,-517,0,0,0,0,0,0,0,0,0,-1,1609,1541,0,0
392,-517,0,0,0,0,0,0,0,0,0,-1,1616,1541,0,0
399,-517,0,0,0,0,0,0,0,0,0,-1,1623,1541,0,0
406,-517,13.1395,7.01978,0,0,0,0,0,0,0,-1,1630,1541,13.1396,-7.01981
413,-517,12.8859,6.31592,0,0,0,0,0,0,0,-1,1637,1541,12.8858,-6.31588
420,-517,12.4789,6.20337,0,0,0,0,0,0,0,-1,1644,1541,12.4789,-6.20333
427,-517,11.647,4.66516,0,0,0,0,0,0,0,-1,1651,1541,11.647,-4.66519
434,-517,12.3719,3.92773,0,0,0,0,0,0,0,-1,1658,1541,12.3719,-3.92776
441,-517,13.146,3.14124,0,0,0,0,0,0,0,-1,1665,1541,13.146,-3.14121
448,-517,13.8861,2.36682,0,0,0,0,0,0,0,-1,1672,1541,13.8861,-2.36684
455,-517,13.6012,4.06335,0,0,0,0,0,0,0,-1,1679,1541,13.6012,-4.06335
462,-517,14.8956,7.0752,0,0,0,0,0,0,0,-1,1686,1541,14.8956,-7.07525
469,-517,13.6292,6.87744,0,0,0,0,0,0,0,-1,1693,1541,13.6292,-6.87739
476,-517,17.1632,14.1487,0,0,0,0,0,0,0,-1,1700,1541,17.1632,-14.1487
483,-517,16.5157,15.0776,0,0,0,0,0,0,0,-1,1707,1541,16.5157,-15.0777
490,-517,15.5439,18.0258,0,0,0,0,0,0,0,-1,1714,1541,15.5439,-18.0258
497,-517,16.0292,18.7786,0,0,0,0,0,0,0,-1,1721,1541,16.0291,-18.7786
504,-517,17.3815,22.3873,0,0,0,0,0,0,0,-1,1728,1541,17.3814,-22.3873
511,-517,16.9674,21.8491,0,0,0,0,0,0,0,-1,1735,1541,16.9674,-21.8491
518,-517,22.0571,27.3633,0,0,0,0,0,0,0,-1,1742,1541,22.0571,-27.3633
525,-517,21.8784,26.8484,0.00772906,0.0067661,-0.00594157,0.0132086,0.00128654,-0.744969,0.00840977,0.0245553,1749,1541,21.8784,-26.8483
532,-517,22.0685,26.1667,0.0060625,0.00527461,-0.00453588,0.0102215,0.00111561,-0.742081,0.00647459,0.0121429,1756,1541,22.0685,-26.1668
539,-517,22.0719,25.6012,0.00476692,0.0039576,-0.00330146,0.00768843,0.00103609,-0.724418,0.00481754,0.0124927,1763,1541,22.0719,-25.6012
546,-517,22.0232,25.0552,0.00378885,0.00280059,-0.0022873,0.00563479,0.000954655,-0.679017,0.0034822,0.0140911,1770,1541,22.0232,-25.0552
553,-517,21.9915,24.4808,0.00311385,0.00180946,-0.00145457,0.00405575,0.000867559,-0.574647,0.00246605,0.0179691,1777,1541,21.9915,-24.4808
560,-517,21.9821,23.9056,0.0027053,0.000930746,-0.000785644,0.00300314,0.000632908,-0.36236,0.00182802,0.0181191,1784,1541,21.9821,-23.9056
567,-517,21.9639,23.3384,0.00261615,0.000381119,-0.000474553,0.00271273,0.000284534,-0.200787,0.0017215,0.0140838,1791,1541,21.9639,-23.3383
574,-517,21.9333,22.7328,0.0027422,-4.12082e-06,-0.000359202,0.0027884,-5.03249e-05,-0.127927,0.00187594,0.0149697,1798,1541,21.9333,-22.7327
581,-517,21.8964,22.1534,0.0031411,-0.000246237,-0.00047776,0.0032072,-0.000312332,-0.137471,0.00224948,0.0160656,1805,1541,21.8964,-22.1535
588,-517,21.8965,21.5854,0.00381701,-0.000185436,-0.000866453,0.00399653,-0.000364954,-0.204297,0.00279396,0.0172244,1812,1541,21.8965,-21.5854
595,-517,21.9709,21.0049,0.00471986,0.000139062,-0.00147341,0.00515285,-0.000293929,-0.285824,0.00353728,0.0490812,1819,1541,21.9709,-21.0048
602,-517,22.4303,20.1324,0,0,0,0,0,0,0,-1,1826,1541,22.4302,-20.1324
609,-517,12.6417,10.8751,0,0,0,0,0,0,0,-1,1833,1541,12.6417,-10.8751
616,-517,14.205,10.3193,0,0,0,0,0,0,0,-1,1840,1541,14.205,-10.3194
623,-517,12.578,10.0779,0,0,0,0,0,0,0,-1,1847,1541,12.578,-10.0779
630,-517,11.7035,7.47815,0,0,0,0,0,0,0,-1,1854,1541,11.7035,-7.47812
637,-517,11.5172,5.79822,0,0,0,0,0,0,0,-1,1861,1541,11.5173,-5.79825
644,-517,11.4232,3.30579,0,0,0,0,0,0,0,-1,1868,1541,11.4232,-3.30574
651,-517,0,0,0,0,0,0,0,0,0,-1,1875,1541,0,0
658,-517,0,0,0,0,0,0,0,0,0,-1,1882,1541,0,0
665,-517,0,0,0,0,0,0,0,0,0,-1,1889,1541,0,0
672,-517,0,0,0,0,0,0,0,0,0,-1,1896,1541,0,0
679,-517,0,0,0,0,0,0,0,0,0,-1,1903,1541,0,0
686,-517,0,0,0,0,0,0,0,0,0,-1,1910,1541,0,0
693,-517,0,0,0,0,0,0,0,0,0,-1,1917,1541,0,0
700,-517,0,0,0,0,0,0,0,0,0,-1,1924,1541,0,0
707,-517,0,0,0,0,0,0,0,0,0,-1,1931,1541,0,0
714,-517,0,0,0,0,0,0,0,0,0,-1,1938,1541,0,0
721,-517,0,0,0,0,0,0,0,0,0,-1,1945,1541,0,0
728,-517,0,0,0,0,0,0,0,0,0,-1,1952,1541,0,0
735,-517,0,0,0,0,0,0,0,0,0,-1,1959,1541,0,0
742,-517,0,0,0,0,0,0,0,0,0,-1,1966,1541,0,0
749,-517,0,0,0,0,0,0,0,0,0,-1,1973,1541,0,0
756,-517,0,0,0,0,0,0,0,0,0,-1,1980,1541,0,0
763,-517,0,0,0,0,0,0,0,0,0,-1,1987,1541,0,0
770,-517,0,0,0,0,0,0,0,0,0,-1,1994,1541,0,0
777,-517,0,0,0,0,0,0,0,0,0,-1,2001,1541,0,0
784,-517,0,0,0,0,0,0,0,0,0,-1,2008,1541,0,0
791,-517,0,0,0,0,0,0,0,0,0,-1,2015,1541,0,0
798,-517,0,0,0,0,0,0,0,0,0,-1,2022,1541,0,0
805,-517,0,0,0,0,0,0,0,0,0,-1,2029,1541,0,0
812,-517,0,0,0,0,0,0,0,0,0,-1,2036,1541,0,0
-700,-524,0,0,0,0,0,0,0,0,0,-1,524,1548,0,0
-693,-524,0,0,0,0,0,0,0,0,0,-1,531,1548,0,0
-686,-524,0,0,0,0,0,0,0,0,0,-1,538,1548,0,0
-679,-524,0,0,0,0,0,0,0,0,0,-1,545,1548,0,0
-672,-524,0,0,0,0,0,0,0,0,0,-1,552,1548,0,0
-665,-524,0,0,0,0,0,0,0,0,0,-1,559,1548,0,0
-658,-524,0,0,0,0,0,0,0,0,0,-1,566,1548,0,0
-651,-524,0,0,0,0,0,0,0,0,0,-1,573,1548,0,0
-644,-524,0,0,0,0,0,0,0,0,0,-1,580,1548,0,0
-637,-524,0,0,0,0,0,0,0,0,0,-1,587,1548,0,0
-630,-524,0,0,0,0,0,0,0,0,0,-1,594,1548,0,0
-623,-524,0,0,0,0,0,0,0,0,0,-1,601,1548,0,0
-616,-524,0,0,0,0,0,0,0,0,0,-1,608,1548,0,0
-609,-524,0,0,0,0,0,0,0,0,0,-1,615,1548,0,0
-602,-524,0,0,0,0,0,0,0,0,0,-1,622,1548,0,0
-595,-524,0,0,0,0,0,0,0,0,0,-1,629,1548,0,0
-588,-524,0,0,0,0,0,0,0,0,0,-1,636,1548,0,0
-581,-524,0,0,0,0,0,0,0,0,0,-1,643,1548,0,0
-574,-524,0,0,0,0,0,0,0,0,0,-1,650,1548,0,0
-567,-524,0,0,0,0,0,0,0,0,0,-1,657,1548,0,0
-560,-524,0,0,0,0,0,0,0,0,0,-1,664,1548,0,0
-553,-524,0,0,0,0,0,0,0,0,0,-1,671,1548,0,0
-546,-524,0,0,0,0,0,0,0,0,0,-1,678,1548,0,0
-539,-524,0,0,0,0,0,0,0,0,0,-1,685,1548,0,0
-532,-524,0,0,0,0,0,0,0,0,0,-1,692,1548,0,0
-525,-524,-0.215515,3.97131,0,0,0,0,0,0,0,-1,699,1548,-0.215501,-3.97136
-518,-524,-0.806274,4.35632,0,0,0,0,0,0,0,-1,706,1548,-0.806259,-4.35633
-511,-524,-1.08301,4.29004,0,0,0,0,0,0,0,-1,713,1548,-1.08301,-4.29006
-504,-524,-1.28821,3.98145,0,0,0,0,0,0,0,-1,720,1548,-1.28822,-3.98151
-497,-524,-0.328491,8.63416,0,0,0,0,0,0,0,-1,727,1548,-0.328487,-8.63411
-490,-524,-3.28113,17.4874,0,0,0,0,0,0,0,-1,734,1548,-3.28115,-17.4875
-483,-524,-4.03192,18.6517,0,0,0,0,0,0,0,-1,741,1548,-4.03189,-18.6518
-476,-524,-4.09369,18.6624,0,0,0,0,0,0,0,-1,748,1548,-4.09369,-18.6624
-469,-524,-4.23895,19.4513,0.00243375,0.00917621,0.00618077,0.0128454,-0.0012354,1.03507,0.00900368,0.0400696,755,1548,-4.23893,-19.4513
-462,-524,-4.15039,19.9559,0.00266627,0.00804271,0.00511281,0.0111309,-0.000421951,1.02743,0.0075652,0.0335786,762,1548,-4.15041,-19.9559
-455,-524,-4.27509,20.4117,0.00253657,0.00682207,0.00409813,0.00930382,5.48186e-05,1.02628,0.00618436,0.0277791,769,1548,-4.27508,-20.4117
-448,-524,-4.27417,21.0278,0.00221389,0.00548959,0.00314777,0.00740011,0.000303361,1.02528,0.00483546,0.0147091,776,1548,-4.27419,-21.0278
-441,-524,-4.28156,21.6395,0.00196725,0.0044216,0.00249732,0.00597698,0.000411873,1.01377,0.0038547,0.010882,783,1548,-4.28153,-21.6395
-434,-524,-4.26538,22.2323,0.0018617,0.00373625,0.00216498,0.00515813,0.00043982,0.989681,0.00330192,0.012881,790,1548,-4.26538,-22.2323
-427,-524,-4.29785,22.8622,0.00193435,0.00337346,0.0020882,0.0048626,0.000445212,0.951318,0.00310399,0.0133815,797,1548,-4.29784,-22.8621
-420,-524,-4.35486,23.5045,0.00236907,0.0032839,0.00228362,0.00515547,0.000497499,0.884241,0.00328373,0.0108028,804,1548,-4.35487,-23.5045
-413,-524,-4.37952,24.1068,0.00287613,0.00369511,0.00271965,0.00603593,0.000535319,0.860121,0.00385791,0.0107381,811,1548,-4.37952,-24.1069
-406,-524,-4.39996,24.7183,0.0036139,0.00449097,0.00345632,0.00753647,0.000568406,0.8485,0.00484597,0.0117634,818,1548,-4.39995,-24.7183
-399,-524,-4.42255,25.3206,0.00478751,0.00598066,0.00456263,0.00998555,0.000782617,0.850405,0.0064121,0.00966614,825,1548,-4.42257,-25.3206
-392,-524,-4.44562,25.911,0.00611715,0.00765007,0.00570831,0.0126431,0.00112408,0.852135,0.00808018,0.0108012,832,1548,-4.44563,-25.911
-385,-524,-4.46265,26.5494,0.0074159,0.00928869,0.00695218,0.0153672,0.00133734,0.852341,0.00982943,0.0162459,839,1548,-4.46267,-26.5494
-378,-524,-4.47961,27.2534,0,0,0,0,0,0,0,-1,846,1548,-4.47962,-27.2534
-371,-524,-3.9671,28.1908,0,0,0,0,0,0,0,-1,853,1548,-3.96709,-28.1908
-364,-524,-0.712097,14.9871,0,0,0,0,0,0,0,-1,860,1548,-0.712116,-14.9871
-357,-524,-1.34052,14.7448,0,0,0,0,0,0,0,-1,867,1548,-1.34054,-14.7447
-350,-524,-4.31909,25.032,0,0,0,0,0,0,0,-1,874,1548,-4.31906,-25.0319
-343,-524,-3.69696,28.6923,0,0,0,0,0,0,0,-1,881,1548,-3.69694,-28.6922
-336,-524,-3.4873,29.655,0,0,0,0,0,0,0,-1,888,1548,-3.48728,-29.6551
-329,-524,-3.21936,30.5509,0,0,0,0,0,0,0,-1,895,1548,-3.21933,-30.5509
-322,-524,-4.31378,25.6389,0,0,0,0,0,0,0,-1,902,1548,-4.31379,-25.639
-315,-524,-1.90839,19.4824,0,0,0,0,0,0,0,-1,909,1548,-1.90838,-19.4824
-308,-524,-2.36938,19.3059,0,0,0,0,0,0,0,-1,916,1548,-2.3694,-19.3058
-301,-524,2.72394,17.7618,0,0,0,0,0,0,0,-1,923,1548,2.72396,-17.7619
-294,-524,-1.52515,9.05408,0,0,0,0,0,0,0,-1,930,1548,-1.52512,-9.05411
-287,-524,-0.962219,10.3199,0,0,0,0,0,0,0,-1,937,1548,-0.962241,-10.32
-280,-524,-1.36255,10.3859,0,0,0,0,0,0,0,-1,944,1548,-1.36253,-10.3859
-273,-524,0,0,0,0,0,0,0,0,0,-1,951,1548,0,0
-266,-524,0,0,0,0,0,0,0,0,0,-1,958,1548,0,0
-259,-524,0,0,0,0,0,0,0,0,0,-1,965,1548,0,0
-252,-524,0,0,0,0,0,0,0,0,0,-1,972,1548,0,0
-245,-524,0,0,0,0,0,0,0,0,0,-1,979,1548,0,0
-238,-524,0,0,0,0,0,0,0,0,0,-1,986,1548,0,0
-231,-524,0,0,0,0,0,0,0,0,0,-1,993,1548,0,0
-224,-524,0,0,0,0,0,0,0,0,0,-1,1000,1548,0,0
-217,-524,0,0,0,0,0,0,0,0,0,-1,1007,1548,0,0
-210,-524,0,0,0,0,0,0,0,0,0,-1,1014,1548,0,0
-203,-524,0,0,0,0,0,0,0,0,0,-1,1021,1548,0,0
-196,-524,0,0,0,0,0,0,0,0,0,-1,1028,1548,0,0
-189,-524,0,0,0,0,0,0,0,0,0,-1,1035,1548,0,0
-182,-524,0,0,0,0,0,0,0,0,0,-1,1042,1548,0,0
-175,-524,0,0,0,0,0,0,0,0,0,-1,1049,1548,0,0
-168,-524,0,0,0,0,0,0,0,0,0,-1,1056,1548,0,0
-161,-524,0,0,0,0,0,0,0,0,0,-1,1063,1548,0,0
-154,-524,0,0,0,0,0,0,0,0,0,-1,1070,1548,0,0
-147,-524,0,0,0,0,0,0,0,0,0,-1,1077,1548,0,0
-140,-524,0,0,0,0,0,0,0,0,0,-1,1084,1548,0,0
-133,-524,0,0,0,0,0,0,0,0,0,-1,1091,1548,0,0
-126,-524,0,0,0,0,0,0,0,0,0,-1,1098,1548,0,0
-119,-524,0,0,0,0,0,0,0,0,0,-1,1105,1548,0,0
-112,-524,0,0,0,0,0,0,0,0,0,-1,1112,1548,0,0
-105,-524,0,0,0,0,0,0,0,0,0,-1,1119,1548,0,0
-98,-524,0,0,0,0,0,0,0,0,0,-1,1126,1548,0,0
-91,-524,0,0,0,0,0,0,0,0,0,-1,1133,1548,0,0
-84,-524,0,0,0,0,0,0,0,0,0,-1,1140,1548,0,0
-77,-524,0,0,0,0,0,0,0,0,0,-1,1147,1548,0,0
-70,-524,0,0,0,0,0,0,0,0,0,-1,1154,1548,0,0
-63,-524,0,0,0,0,0,0,0,0,0,-1,1161,1548,0,0
-56,-524,0,0,0,0,0,0,0,0,0,-1,1168,1548,0,0
-49,-524,0,0,0,0,0,0,0,0,0,-1,1175,1548,0,0
-42,-524,0,0,0,0,0,0,0,0,0,-1,1182,1548,0,0
-35,-524,0,0,0,0,0,0,0,0,0,-1,1189,1548,0,0
-28,-524,0,0,0,0,0,0,0,0,0,-1,1196,1548,0,0
-21,-524,0,0,0,0,0,0,0,0,0,-1,1203,1548,0,0
-14,-524,0,0,0,0,0,0,0,0,0,-1,1210,1548,0,0
-7,-524,0,0,0,0,0,0,0,0,0,-1,1217,1548,0,0
0,-524,0,0,0,0,0,0,0,0,0,-1,1224,1548,0,0
7,-524,0,0,0,0,0,0,0,0,0,-1,1231,1548,0,0
14,-524,0,0,0,0,0,0,0,0,0,-1,1238,1548,0,0
21,-524,0,0,0,0,0,0,0,0,0,-1,1245,1548,0,0
28,-524,0,0,0,0,0,0,0,0,0,-1,1252,1548,0,0
35,-524,0,0,0,0,0,0,0,0,0,-1,1259,1548,0,0
42,-524,0,0,0,0,0,0,0,0,0,-1,1266,1548,0,0
49,-524,0,0,0,0,0,0,0,0,0,-1,1273,1548,0,0
56,-524,0,0,0,0,0,0,0,0,0,-1,1280,1548,0,0
63,-524,0,0,0,0,0,0,0,0,0,-1,1287,1548,0,0
70,-524,0,0,0,0,0,0,0,0,0,-1,1294,1548,0,0
77,-524,0,0,0,0,0,0,0,0,0,-1,1301,1548,0,0
84,-524,0,0,0,0,0,0,0,0,0,-1,1308,1548,0,0
91,-524,0,0,0,0,0,0,0,0,0,-1,1315,1548,0,0
98,-524,0,0,0,0,0,0,0,0,0,-1,1322,1548,0,0
105,-524,0,0,0,0,0,0,0,0,0,-1,1329,1548,0,0
112,-524,0,0,0,0,0,0,0,0,0,-1,1336,1548,0,0
119,-524,0,0,0,0,0,0,0,0,0,-1,1343,1548,0,0
126,-524,0,0,0,0,0,0,0,0,0,-1,1350,1548,0,0
133,-524,0,0,0,0,0,0,0,0,0,-1,1357,1548,0,0
140,-524,0,0,0,0,0,0,0,0,0,-1,1364,1548,0,0
147,-524,0,0,0,0,0,0,0,0,0,-1,1371,1548,0,0
154,-524,0,0,0,0,0,0,0,0,0,-1,1378,1548,0,0
161,-524,0,0,0,0,0,0,0,0,0,-1,1385,1548,0,0
168,-524,0,0,0,0,0,0,0,0,0,-1,1392,1548,0,0
175,-524,0,0,0,0,0,0,0,0,0,-1,1399,1548,0,0
182,-524,0,0,0,0,0,0,0,0,0,-1,1406,1548,0,0
189,-524,0,0,0,0,0,0,0,0,0,-1,1413,1548,0,0
196,-524,0,0,0,0,0,0,0,0,0,-1,1420,1548,0,0
203,-524,0,0,0,0,0,0,0,0,0,-1,1427,1548,0,0
210,-524,0,0,0,0,0,0,0,0,0,-1,1434,1548,0,0
217,-524,0,0,0,0,0,0,0,0,0,-1,1441,1548,0,0
224,-524,0,0,0,0,0,0,0,0,0,-1,1448,1548,0,0
231,-524,0,0,0,0,0,0,0,0,0,-1,1455,1548,0,0
238,-524,0,0,0,0,0,0,0,0,0,-1,1462,1548,0,0
245,-524,0,0,0,0,0,0,0,0,0,-1,1469,1548,0,0
252,-524,0,0,0,0,0,0,0,0,0,-1,1476,1548,0,0
259,-524,0,0,0,0,0,0,0,0,0,-1,1483,1548,0,0
266,-524,0,0,0,0,0,0,0,0,0,-1,1490,1548,0,0
273,-524,0,0,0,0,0,0,0,0,0,-1,1497,1548,0,0
280,-524,0,0,0,0,0,0,0,0,0,-1,1504,1548,0,0
287,-524,0,0,0,0,0,0,0,0,0,-1,1511,1548,0,0
294,-524,0,0,0,0,0,0,0,0,0,-1,1518,1548,0,0
301,-524,0,0,0,0,0,0,0,0,0,-1,1525,1548,0,0
308,-524,0,0,0,0,0,0,0,0,0,-1,1532,1548,0,0
315,-524,0,0,0,0,0,0,0,0,0,-1,1539,1548,0,0
322,-524,0,0,0,0,0,0,0,0,0,-1,1546,1548,0,0
329,-524,0,0,0,0,0,0,0,0,0,-1,1553,1548,0,0
336,-524,0,0,0,0,0,0,0,0,0,-1,1560,1548,0,0
343,-524,0,0,0,0,0,0,0,0,0,-1,1567,1548,0,0
350,-524,0,0,0,0,0,0,0,0,0,-1,1574,1548,0,0
357,-524,0,0,0,0,0,0,0,0,0,-1,1581,1548,0,0
364,-524,0,0,0,0,0,0,0,0,0,-1,1588,1548,0,0
371,-524,0,0,0,0,0,0,0,0,0,-1,1595,1548,0,0
378,-524,0,0,0,0,0,0,0,0,0,-1,1602,1548,0,0
385,-524,0,0,0,0,0,0,0,0,0,-1,1609,1548,0,0
392,-524,0,0,0,0,0,0,0,0,0,-1,1616,1548,0,0
399,-524,8.81848,5.05774,0,0,0,0,0,0,0,-1,1623,1548,8.81843,-5.05769
406,-524,8.64294,6.06799,0,0,0,0,0,0,0,-1,1630,1548,8.6429,-6.06805
413,-524,11.677,6.41858,0,0,0,0,0,0,0,-1,1637,1548,11.677,-6.41864
420,-524,11.4913,6.36401,0,0,0,0,0,0,0,-1,1644,1548,11.4913,-6.36402
427,-524,7.68335,6.17249,0,0,0,0,0,0,0,-1,1651,1548,7.68341,-6.17245
434,-524,10.432,11.6801,0,0,0,0,0,0,0,-1,1658,1548,10.432,-11.68
441,-524,8.78552,4.12305,0,0,0,0,0,0,0,-1,1665,1548,8.78553,-4.12301
448,-524,14.1854,4.78674,0,0,0,0,0,0,0,-1,1672,1548,14.1854,-4.78674
455,-524,12.4784,3.65576,0,0,0,0,0,0,0,-1,1679,1548,12.4784,-3.65572
462,-524,14.7551,9.29395,0,0,0,0,0,0,0,-1,1686,1548,14.7552,-9.29397
469,-524,16.3314,14.3779,0,0,0,0,0,0,0,-1,1693,1548,16.3314,-14.3779
476,-524,15.9106,15.1875,0,0,0,0,0,0,0,-1,1700,1548,15.9107,-15.1876
483,-524,15.2776,16.2268,0,0,0,0,0,0,0,-1,1707,1548,15.2776,-16.2269
490,-524,15.2563,18.5848,0,0,0,0,0,0,0,-1,1714,1548,15.2564,-18.5848
497,-524,17.5173,22.6123,0,0,0,0,0,0,0,-1,1721,1548,17.5174,-22.6123
504,-524,21.058,28.9761,0,0,0,0,0,0,0,-1,1728,1548,21.058,-28.976
511,-524,21.5189,27.9713,0,0,0,0,0,0,0,-1,1735,1548,21.5189,-27.9713
518,-524,21.5093,27.3507,0.00797952,0.0067093,-0.00632123,0.0136975,0.00099135,-0.73533,0.00881979,0.027229,1742,1548,21.5092,-27.3507
525,-524,21.496,26.7931,0.00630911,0.00537522,-0.00496447,0.0108285,0.000855782,-0.738507,0.00695135,0.0140068,1749,1548,21.496,-26.7931
532,-524,21.4894,26.2048,0.00483984,0.0041455,-0.00369589,0.00820483,0.000780505,-0.738569,0.00522917,0.0102327,1756,1548,21.4894,-26.2048
539,-524,21.475,25.6256,0.00368479,0.00307087,-0.00254286,0.00593915,0.000816509,-0.725331,0.00371728,0.011288,1763,1548,21.475,-25.6256
546,-524,21.4343,25.0844,0.00277958,0.0020398,-0.0015204,0.00397444,0.000844947,-0.666075,0.0024177,0.0149294,1770,1548,21.4343,-25.0843
553,-524,21.4324,24.5277,0.00213309,0.00116056,-0.000617961,0.00243316,0.000860484,-0.452052,0.0014247,0.0243592,1777,1548,21.4324,-24.5277
560,-524,21.4569,23.9518,0.00177324,0.000366508,0.000142702,0.00178757,0.000352178,0.100084,0.00109339,0.0343753,1784,1548,21.4569,-23.9518
567,-524,21.3761,23.3633,0.00175119,-0.000142602,0.000576365,0.00191281,-0.000304222,0.273392,0.00138777,0.0194426,1791,1548,21.3761,-23.3633
574,-524,21.3573,22.7677,0.00197322,-0.000527169,0.000818866,0.00221753,-0.000771474,0.289938,0.00179176,0.0142186,1798,1548,21.3573,-22.7677
581,-524,21.3436,22.1564,0.00258344,-0.000755017,0.000750129,0.00274425,-0.00091582,0.211172,0.00219928,0.0156992,1805,1548,21.3436,-22.1563
588,-524,21.392,21.5795,0.0035486,-0.000654012,0.000350859,0.00357769,-0.000683102,0.0827228,0.00264243,0.0277505,1812,1548,21.3919,-21.5794
595,-524,21.7185,21.1113,0,0,0,0,0,0,0,-1,1819,1548,21.7185,-21.1113
602,-524,13.837,12.0682,0,0,0,0,0,0,0,-1,1826,1548,13.837,-12.0683
609,-524,13.0056,10.5138,0,0,0,0,0,0,0,-1,1833,1548,13.0056,-10.5138
616,-524,11.6941,8.65515,0,0,0,0,0,0,0,-1,1840,1548,11.6941,-8.65514
623,-524,9.38452,5.15356,0,0,0,0,0,0,0,-1,1847,1548,9.38456,-5.15359
630,-524,11.0541,3.57434,0,0,0,0,0,0,0,-1,1854,1548,11.0541,-3.57438
637,-524,11.6067,3.20728,0,0,0,0,0,0,0,-1,1861,1548,11.6067,-3.20724
644,-524,12.2134,0.727173,0,0,0,0,0,0,0,-1,1868,1548,12.2134,-0.727222
651,-524,0,0,0,0,0,0,0,0,0,-1,1875,1548,0,0
658,-524,0,0,0,0,0,0,0,0,0,-1,1882,1548,0,0
665,-524,0,0,0,0,0,0,0,0,0,-1,1889,1548,0,0
672,-524,0,0,0,0,0,0,0,0,0,-1,1896,1548,0,0
679,-524,0,0,0,0,0,0,0,0,0,-1,1903,1548,0,0
686,-524,0,0,0,0,0,0,0,0,0,-1,1910,1548,0,0
693,-524,0,0,0,0,0,0,0,0,0,-1,1917,1548,0,0
700,-524,0,0,0,0,0,0,0,0,0,-1,1924,1548,0,0
707,-524,0,0,0,0,0,0,0,0,0,-1,1931,1548,0,0
714,-524,0,0,0,0,0,0,0,0,0,-1,1938,1548,0,0
721,-524,0,0,0,0,0,0,0,0,0,-1,1945,1548,0,0
728,-524,0,0,0,0,0,0,0,0,0,-1,1952,1548,0,0
735,-524,0,0,0,0,0,0,0,0,0,-1,1959,1548,0,0
742,-524,0,0,0,0,0,0,0,0,0,-1,1966,1548,0,0
749,-524,0,0,0,0,0,0,0,0,0,-1,1973,1548,0,0
756,-524,0,0,0,0,0,0,0,0,0,-1,1980,1548,0,0
763,-524,0,0,0,0,0,0,0,0,0,-1,1987,1548,0,0
770,-524,0,0,0,0,0,0,0,0,0,-1,1994,1548,0,0
777,-524,0,0,0,0,0,0,0,0,0,-1,2001,1548,0,0
784,-524,0,0,0,0,0,0,0,0,0,-1,2008,1548,0,0
791,-524,0,0,0,0,0,0,0,0,0,-1,2015,1548,0,0
798,-524,0,0,0,0,0,0,0,0,0,-1,2022,1548,0,0
805,-524,0,0,0,0,0,0,0,0,0,-1,2029,1548,0,0
812,-524,0,0,0,0,0,0,0,0,0,-1,2036,1548,0,0
-700,-531,0,0,0,0,0,0,0,0,0,-1,524,1555,0,0
-693,-531,0,0,0,0,0,0,0,0,0,-1,531,1555,0,0
-686,-531,0,0,0,0,0,0,0,0,0,-1,538,1555,0,0
-679,-531,0,0,0,0,0,0,0,0,0,-1,545,1555,0,0
-672,-531,0,0,0,0,0,0,0,0,0,-1,552,1555,0,0
-665,-531,0,0,0,0,0,0,0,0,0,-1,559,1555,0,0
-658,-531,0,0,0,0,0,0,0,0,0,-1,566,1555,0,0
-651,-531,0,0,0,0,0,0,0,0,0,-1,573,1555,0,0
-644,-531,0,0,0,0,0,0,0,0,0,-1,580,1555,0,0
-637,-531,0,0,0,0,0,0,0,0,0,-1,587,1555,0,0
-630,-531,0,0,0,0,0,0,0,0,0,-1,594,1555,0,0
-623,-531,0,0,0,0,0,0,0,0,0,-1,601,1555,0,0
-616,-531,0,0,0,0,0,0,0,0,0,-1,608,1555,0,0
-609,-531,0,0,0,0,0,0,0,0,0,-1,615,1555,0,0
-602,-531,0,0,0,0,0,0,0,0,0,-1,622,1555,0,0
-595,-531,0,0,0,0,0,0,0,0,0,-1,629,1555,0,0
-588,-531,0,0,0,0,0,0,0,0,0,-1,636,1555,0,0
-581,-531,0,0,0,0,0,0,0,0,0,-1,643,1555,0,0
-574,-531,0,0,0,0,0,0,0,0,0,-1,650,1555,0,0
-567,-531,0,0,0,0,0,0,0,0,0,-1,657,1555,0,0
-560,-531,0,0,0,0,0,0,0,0,0,-1,664,1555,0,0
-553,-531,0,0,0,0,0,0,0,0,0,-1,671,1555,0,0
-546,-531,0,0,0,0,0,0,0,0,0,-1,678,1555,0,0
-539,-531,0,0,0,0,0,0,0,0,0,-1,685,1555,0,0
-532,-531,0,0,0,0,0,0,0,0,0,-1,692,1555,0,0
-525,-531,0,0,0,0,0,0,0,0,0,-1,699,1555,0,0
-518,-531,-1.63983,4.03821,0,0,0,0,0,0,0,-1,706,1555,-1.63982,-4.03821
-511,-531,-2.9682,8.07483,0,0,0,0,0,0,0,-1,713,1555,-2.9682,-8.07479
-504,-531,-2.95978,0.557861,0,0,0,0,0,0,0,-1,720,1555,-2.95978,-0.557917
-497,-531,-2.46039,8.07422,0,0,0,0,0,0,0,-1,727,1555,-2.46039,-8.07423
-490,-531,-0.423462,7.92065,0,0,0,0,0,0,0,-1,734,1555,-0.42344,-7.92066
-483,-531,-3.8501,17.6864,0,0,0,0,0,0,0,-1,741,1555,-3.85008,-17.6864
-476,-531,-4.08264,19.348,0,0,0,0,0,0,0,-1,748,1555,-4.08264,-19.348
-469,-531,-3.62427,19.3865,0,0,0,0,0,0,0,-1,755,1555,-3.6243,-19.3864
-462,-531,-3.68579,20.1182,0.00544139,0.0130894,0.00785453,0.0180013,0.000529446,1.01193,0.0118283,0.0438079,762,1555,-3.68577,-20.1182
-455,-531,-3.71149,20.6927,0.00460871,0.0107471,0.00614057,0.0145428,0.000813017,1.01715,0.00943585,0.0423299,769,1555,-3.71147,-20.6927
-448,-531,-3.57959,21.0339,0.00358688,0.00832554,0.00453881,0.0110762,0.000836195,1.02595,0.0071218,0.0210266,776,1555,-3.57958,-21.034
-441,-531,-3.67334,21.6371,0.00274322,0.00633029,0.0033196,0.00830989,0.000763623,1.03308,0.00530374,0.0123182,783,1555,-3.67333,-21.6371
-434,-531,-3.69696,22.2808,0.00216542,0.00486484,0.00253664,0.0063885,0.000641763,1.02989,0.00406201,0.0115114,790,1555,-3.69696,-22.2808
-427,-531,-3.70905,22.907,0.00186343,0.00391162,0.00211824,0.00524034,0.000534718,1.01056,0.00332966,0.0135531,797,1555,-3.70904,-22.907
-420,-531,-3.72821,23.5308,0.00201392,0.00334289,0.00201301,0.00479824,0.00055856,0.944815,0.00302985,0.0123491,804,1555,-3.72822,-23.5308
-413,-531,-3.74762,24.137,0.00225155,0.00337113,0.00215987,0.00504258,0.000580102,0.912197,0.003186,0.0103621,811,1555,-3.74763,-24.1369
-406,-531,-3.79083,24.7434,0.0026434,0.0035962,0.00252811,0.0056924,0.000547189,0.878527,0.00362633,0.0115023,818,1555,-3.79084,-24.7434
-399,-531,-3.81848,25.3564,0.00339675,0.00448905,0.00325613,0.00724452,0.000641286,0.86849,0.00463074,0.0137218,825,1555,-3.81849,-25.3564
-392,-531,-3.84149,25.9781,0.00439974,0.00571581,0.00408707,0.00919748,0.000918079,0.865215,0.00584969,0.0184085,832,1555,-3.84147,-25.9781
-385,-531,-3.87823,26.5668,0.00548381,0.00690481,0.00498546,0.0112301,0.00115848,0.856179,0.00713204,0.0159424,839,1555,-3.87822,-26.5668
-378,-531,-3.89954,27.1104,0.00669066,0.00841523,0.00593424,0.0135495,0.00155638,0.857547,0.0085615,0.017762,846,1555,-3.89956,-27.1103
-371,-531,-3.87769,27.7874,0,0,0,0,0,0,0,-1,853,1555,-3.87769,-27.7874
-364,-531,-3.71899,28.621,0,0,0,0,0,0,0,-1,860,1555,-3.71897,-28.621
-357,-531,-3.79803,29.3418,0,0,0,0,0,0,0,-1,867,1555,-3.79803,-29.3418
-350,-531,-3.16101,27.5791,0,0,0,0,0,0,0,-1,874,1555,-3.16099,-27.5791
-343,-531,-2.90552,28.561,0,0,0,0,0,0,0,-1,881,1555,-2.90549,-28.5611
-336,-531,-2.6698,29.5398,0,0,0,0,0,0,0,-1,888,1555,-2.66983,-29.5398
-329,-531,-2.45148,30.4781,0,0,0,0,0,0,0,-1,895,1555,-2.45148,-30.4781
-322,-531,-3.25092,28.4921,0,0,0,0,0,0,0,-1,902,1555,-3.25092,-28.4921
-315,-531,-5.51929,31.7814,0,0,0,0,0,0,0,-1,909,1555,-5.51928,-31.7813
-308,-531,-1.66455,19.0624,0,0,0,0,0,0,0,-1,916,1555,-1.66455,-19.0623
-301,-531,-2.02405,18.8912,0,0,0,0,0,0,0,-1,923,1555,-2.02407,-18.8913
-294,-531,-1.3244,8.1825,0,0,0,0,0,0,0,-1,930,1555,-1.3244,-8.18251
-287,-531,-1.78192,10.1661,0,0,0,0,0,0,0,-1,937,1555,-1.78192,-10.1661
-280,-531,-2.14508,10.3945,0,0,0,0,0,0,0,-1,944,1555,-2.14506,-10.3945
-273,-531,-2.50818,10.6229,0,0,0,0,0,0,0,-1,951,1555,-2.5082,-10.6229
-266,-531,-4.97742,17.9215,0,0,0,0,0,0,0,-1,958,1555,-4.97744,-17.9215
-259,-531,0,0,0,0,0,0,0,0,0,-1,965,1555,0,0
-252,-531,0,0,0,0,0,0,0,0,0,-1,972,1555,0,0
-245,-531,0,0,0,0,0,0,0,0,0,-1,979,1555,0,0
-238,-531,0,0,0,0,0,0,0,0,0,-1,986,1555,0,0
-231,-531,0,0,0,0,0,0,0,0,0,-1,993,1555,0,0
-224,-531,0,0,0,0,0,0,0,0,0,-1,1000,1555,0,0
-217,-531,0,0,0,0,0,0,0,0,0,-1,1007,1555,0,0
-210,-531,0,0,0,0,0,0,0,0,0,-1,1014,1555,0,0
-203,-531,0,0,0,0,0,0,0,0,0,-1,1021,1555,0,0
-196,-531,0,0,0,0,0,0,0,0,0,-1,1028,1555,0,0
-189,-531,0,0,0,0,0,0,0,0,0,-1,1035,1555,0,0
-182,-531,0,0,0,0,0,0,0,0,0,-1,1042,1555,0,0
-175,-531,0,0,0,0,0,0,0,0,0,-1,1049,1555,0,0
-168,-531,0,0,0,0,0,0,0,0,0,-1,1056,1555,0,0
-161,-531,0,0,0,0,0,0,0,0,0,-1,1063,1555,0,0
-154,-531,0,0,0,0,0,0,0,0,0,-1,1070,1555,0,0
-147,-531,0,0,0,0,0,0,0,0,0,-1,1077,1555,0,0
-140,-531,0,0,0,0,0,0,0,0,0,-1,1084,1555,0,0
-133,-531,0,0,0,0,0,0,0,0,0,-1,1091,1555,0,0
-126,-531,0,0,0,0,0,0,0,0,0,-1,1098,1555,0,0
-119,-531,0,0,0,0,0,0,0,0,0,-1,1105,1555,0,0
-112,-531,0,0,0,0,0,0,0,0,0,-1,1112,1555,0,0
-105,-531,0,0,0,0,0,0,0,0,0,-1,1119,1555,0,0
-98,-531,0,0,0,0,0,0,0,0,0,-1,1126,1555,0,0
-91,-531,0,0,0,0,0,0,0,0,0,-1,1133,1555,0,0
-84,-531,0,0,0,0,0,0,0,0,0,-1,1140,1555,0,0
-77,-531,0,0,0,0,0,0,0,0,0,-1,1147,1555,0,0
-70,-531,0,0,0,0,0,0,0,0,0,-1,1154,1555,0,0
-63,-531,0,0,0,0,0,0,0,0,0,-1,1161,1555,0,0
-56,-531,0,0,0,0,0,0,0,0,0,-1,1168,1555,0,0
-49,-531,0,0,0,0,0,0,0,0,0,-1,1175,1555,0,0
-42,-531,0,0,0,0,0,0,0,0,0,-1,1182,1555,0,0
-35,-531,0,0,0,0,0,0,0,0,0,-1,1189,1555,0,0
-28,-531,0,0,0,0,0,0,0,0,0,-1,1196,1555,0,0
-21,-531,0,0,0,0,0,0,0,0,0,-1,1203,1555,0,0
-14,-531,0,0,0,0,0,0,0,0,0,-1,1210,1555,0,0
-7,-531,0,0,0,0,0,0,0,0,0,-1,1217,1555,0,0
0,-531,0,0,0,0,0,0,0,0,0,-1,1224,1555,0,0
7,-531,0,0,0,0,0,0,0,0,0,-1,1231,1555,0,0
14,-531,0,0,0,0,0,0,0,0,0,-1,1238,1555,0,0
21,-531,0,0,0,0,0,0,0,0,0,-1,1245,1555,0,0
28,-531,0,0,0,0,0,0,0,0,0,-1,1252,1555,0,0
35,-531,0,0,0,0,0,0,0,0,0,-1,1259,1555,0,0
42,-531,0,0,0,0,0,0,0,0,0,-1,1266,1555,0,0
49,-531,0,0,0,0,0,0,0,0,0,-1,1273,1555,0,0
56,-531,0,0,0,0,0,0,0,0,0,-1,1280,1555,0,0
63,-531,0,0,0,0,0,0,0,0,0,-1,1287,1555,0,0
70,-531,0,0,0,0,0,0,0,0,0,-1,1294,1555,0,0
77,-531,0,0,0,0,0,0,0,0,0,-1,1301,1555,0,0
84,-531,0,0,0,0,0,0,0,0,0,-1,1308,1555,0,0
91,-531,0,0,0,0,0,0,0,0,0,-1,1315,1555,0,0
98,-531,0,0,0,0,0,0,0,0,0,-1,1322,1555,0,0
105,-531,0,0,0,0,0,0,0,0,0,-1,1329,1555,0,0
112,-531,0,0,0,0,0,0,0,0,0,-1,1336,1555,0,0
119,-531,0,0,0,0,0,0,0,0,0,-1,1343,1555,0,0
126,-531,0,0,0,0,0,0,0,0,0,-1,1350,1555,0,0
133,-531,0,0,0,0,0,0,0,0,0,-1,1357,1555,0,0
140,-531,0,0,0,0,0,0,0,0,0,-1,1364,1555,0,0
147,-531,0,0,0,0,0,0,0,0,0,-1,1371,1555,0,0
154,-531,0,0,0,0,0,0,0,0,0,-1,1378,1555,0,0
161,-531,0,0,0,0,0,0,0,0,0,-1,1385,1555,0,0
168,-531,0,0,0,0,0,0,0,0,0,-1,1392,1555,0,0
175,-531,0,0,0,0,0,0,0,0,0,-1,1399,1555,0,0
182,-531,0,0,0,0,0,0,0,0,0,-1,1406,1555,0,0
189,-531,0,0,0,0,0,0,0,0,0,-1,1413,1555,0,0
196,-531,0,0,0,0,0,0,0,0,0,-1,1420,1555,0,0
203,-531,0,0,0,0,0,0,0,0,0,-1,1427,1555,0,0
210,-531,0,0,0,0,0,0,0,0,0,-1,1434,1555,0,0
217,-531,0,0,0,0,0,0,0,0,0,-1,1441,1555,0,0
224,-531,0,0,0,0,0,0,0,0,0,-1,1448,1555,0,0
231,-531,0,0,0,0,0,0,0,0,0,-1,1455,1555,0,0
238,-531,0,0,0,0,0,0,0,0,0,-1,1462,1555,0,0
245,-531,0,0,0,0,0,0,0,0,0,-1,1469,1555,0,0
252,-531,0,0,0,0,0,0,0,0,0,-1,1476,1555,0,0
259,-531,0,0,0,0,0,0,0,0,0,-1,1483,1555,0,0
266,-531,0,0,0,0,0,0,0,0,0,-1,1490,1555,0,0
273,-531,0,0,0,0,0,0,0,0,0,-1,1497,1555,0,0
280,-531,0,0,0,0,0,0,0,0,0,-1,1504,1555,0,0
287,-531,0,0,0,0,0,0,0,0,0,-1,1511,1555,0,0
294,-531,0,0,0,0,0,0,0,0,0,-1,1518,1555,0,0
301,-531,0,0,0,0,0,0,0,0,0,-1,1525,1555,0,0
308,-531,0,0,0,0,0,0,0,0,0,-1,1532,1555,0,0
315,-531,0,0,0,0,0,0,0,0,0,-1,1539,1555,0,0
322,-531,0,0,0,0,0,0,0,0,0,-1,1546,1555,0,0
329,-531,0,0,0,0,0,0,0,0,0,-1,1553,1555,0,0
336,-531,0,0,0,0,0,0,0,0,0,-1,1560,1555,0,0
343,-531,0,0,0,0,0,0,0,0,0,-1,1567,1555,0,0
350,-531,0,0,0,0,0,0,0,0,0,-1,1574,1555,0,0
357,-531,0,0,0,0,0,0,0,0,0,-1,1581,1555,0,0
364,-531,0,0,0,0,0,0,0,0,0,-1,1588,1555,0,0
371,-531,0,0,0,0,0,0,0,0,0,-1,1595,1555,0,0
378,-531,0,0,0,0,0,0,0,0,0,-1,1602,1555,0,0
385,-531,3.48169,1.78625,0,0,0,0,0,0,0,-1,1609,1555,3.48165,-1.78624
392,-531,10.8781,9.09204,0,0,0,0,0,0,0,-1,1616,1555,10.8781,-9.09205
399,-531,8.26306,5.29602,0,0,0,0,0,0,0,-1,1623,1555,8.26302,-5.29607
406,-531,8.26147,5.42712,0,0,0,0,0,0,0,-1,1630,1555,8.26145,-5.42716
413,-531,8.20618,5.75012,0,0,0,0,0,0,0,-1,1637,1555,8.20619,-5.75017
420,-531,7.64868,7.09558,0,0,0,0,0,0,0,-1,1644,1555,7.64867,-7.09564
427,-531,9.93054,11.8412,0,0,0,0,0,0,0,-1,1651,1555,9.93059,-11.8412
434,-531,10.244,11.7072,0,0,0,0,0,0,0,-1,1658,1555,10.244,-11.7071
441,-531,11.4528,12.9397,0,0,0,0,0,0,0,-1,1665,1555,11.4528,-12.9397
448,-531,11.928,18.8029,0,0,0,0,0,0,0,-1,1672,1555,11.928,-18.8028
455,-531,14.4877,9.67065,0,0,0,0,0,0,0,-1,1679,1555,14.4876,-9.67066
462,-531,13.5253,12.2002,0,0,0,0,0,0,0,-1,1686,1555,13.5252,-12.2002
469,-531,15.5087,15.7894,0,0,0,0,0,0,0,-1,1693,1555,15.5086,-15.7895
476,-531,14.6582,16.2264,0,0,0,0,0,0,0,-1,1700,1555,14.6582,-16.2264
483,-531,14.755,18.5994,0,0,0,0,0,0,0,-1,1707,1555,14.7551,-18.5994
490,-531,16.9362,25.4943,0,0,0,0,0,0,0,-1,1714,1555,16.9362,-25.4942
497,-531,20.6444,29.5299,0,0,0,0,0,0,0,-1,1721,1555,20.6444,-29.5298
504,-531,20.804,28.6626,0.00941078,0.00872632,-0.0075189,0.0165952,0.00154186,-0.762656,0.010587,0.0433174,1728,1555,20.8039,-28.6626
511,-531,20.9301,27.9719,0.0076819,0.00690942,-0.00632841,0.0136358,0.000955475,-0.75492,0.0087894,0.0169761,1735,1555,20.93,-27.9719
518,-531,20.9401,27.3899,0.00607315,0.00527245,-0.00487215,0.0105614,0.000784226,-0.744405,0.00679461,0.0140618,1742,1555,20.9401,-27.3899
525,-531,20.9319,26.8425,0.00463129,0.00409179,-0.00366378,0.00803524,0.000687846,-0.748651,0.0051429,0.0138182,1749,1555,20.9319,-26.8425
532,-531,20.9353,26.2467,0.00336752,0.00299442,-0.00250439,0.00569229,0.000669643,-0.748222,0.00359251,0.0111194,1756,1555,20.9353,-26.2468
539,-531,20.901,25.6672,0.00238178,0.00205694,-0.00143116,0.00365971,0.000779015,-0.728896,0.00222604,0.0127781,1763,1555,20.901,-25.6672
546,-531,20.8334,25.0931,0.00160911,0.00110086,-0.000424514,0.00184975,0.000860217,-0.515693,0.00106882,0.016061,1770,1555,20.8333,-25.0931
553,-531,20.8472,24.5941,0.00107469,0.000294862,0.000506291,0.00132381,4.5743e-05,0.457265,0.000867694,0.0305224,1777,1555,20.8472,-24.5941
560,-531,20.8127,24.045,0.000848248,-0.000421894,0.00130589,0.0016653,-0.00123895,0.559079,0.00168278,0.0353083,1784,1555,20.8127,-24.045
567,-531,20.7274,23.3849,0.000968869,-0.000892924,0.0018222,0.00208419,-0.00200824,0.549248,0.0023629,0.0200696,1791,1555,20.7275,-23.3849
574,-531,20.7399,22.7793,0.00136337,-0.00126168,0.00216245,0.00258045,-0.00247876,0.512637,0.00292113,0.0149285,1798,1555,20.7398,-22.7793
581,-531,20.7878,22.161,0.00229141,-0.00141873,0.00210977,0.00324569,-0.002373,0.424775,0.00325697,0.0237823,1805,1555,20.7879,-22.161
588,-531,20.8311,21.5314,0.00371339,-0.00120591,0.00167509,0.00422961,-0.00172213,0.29894,0.00353643,0.0394635,1812,1555,20.831,-21.5314
595,-531,20.7834,20.8851,0,0,0,0,0,0,0,-1,1819,1555,20.7835,-20.8851
602,-531,13.701,11.8346,0,0,0,0,0,0,0,-1,1826,1555,13.701,-11.8347
609,-531,10.9072,8.50903,0,0,0,0,0,0,0,-1,1833,1555,10.9073,-8.50902
616,-531,10.5723,7.17859,0,0,0,0,0,0,0,-1,1840,1555,10.5723,-7.17855
623,-531,10.0674,5.08984,0,0,0,0,0,0,0,-1,1847,1555,10.0674,-5.08981
630,-531,11.672,3.18909,0,0,0,0,0,0,0,-1,1854,1555,11.672,-3.18904
637,-531,13.2546,1.38965,0,0,0,0,0,0,0,-1,1861,1555,13.2547,-1.3896
644,-531,0,0,0,0,0,0,0,0,0,-1,1868,1555,0,0
651,-531,0,0,0,0,0,0,0,0,0,-1,1875,1555,0,0
658,-531,0,0,0,0,0,0,0,0,0,-1,1882,1555,0,0
665,-531,0,0,0,0,0,0,0,0,0,-1,1889,1555,0,0
672,-531,0,0,0,0,0,0,0,0,0,-1,1896,1555,0,0
679,-531,0,0,0,0,0,0,0,0,0,-1,1903,1555,0,0
686,-531,0,0,0,0,0,0,0,0,0,-1,1910,1555,0,0
693,-531,0,0,0,0,0,0,0,0,0,-1,1917,1555,0,0
700,-531,0,0,0,0,0,0,0,0,0,-1,1924,1555,0,0
707,-531,0,0,0,0,0,0,0,0,0,-1,1931,1555,0,0
714,-531,0,0,0,0,0,0,0,0,0,-1,1938,1555,0,0
721,-531,0,0,0,0,0,0,0,0,0,-1,1945,1555,0,0
728,-531,0,0,0,0,0,0,0,0,0,-1,1952,1555,0,0
735,-531,0,0,0,0,0,0,0,0,0,-1,1959,1555,0,0
742,-531,0,0,0,0,0,0,0,0,0,-1,1966,1555,0,0
749,-531,0,0,0,0,0,0,0,0,0,-1,1973,1555,0,0
756,-531,0,0,0,0,0,0,0,0,0,-1,1980,1555,0,0
763,-531,0,0,0,0,0,0,0,0,0,-1,1987,1555,0,0
770,-531,0,0,0,0,0,0,0,0,0,-1,1994,1555,0,0
777,-531,0,0,0,0,0,0,0,0,0,-1,2001,1555,0,0
784,-531,0,0,0,0,0,0,0,0,0,-1,2008,1555,0,0
791,-531,0,0,0,0,0,0,0,0,0,-1,2015,1555,0,0
798,-531,0,0,0,0,0,0,0,0,0,-1,2022,1555,0,0
805,-531,0,0,0,0,0,0,0,0,0,-1,2029,1555,0,0
812,-531,0,0,0,0,0,0,0,0,0,-1,2036,1555,0,0
-700,-538,0,0,0,0,0,0,0,0,0,-1,524,1562,0,0
-693,-538,0,0,0,0,0,0,0,0,0,-1,531,1562,0,0
-686,-538,0,0,0,0,0,0,0,0,0,-1,538,1562,0,0
-679,-538,0,0,0,0,0,0,0,0,0,-1,545,1562,0,0
-672,-538,0,0,0,0,0,0,0,0,0,-1,552,1562,0,0
-665,-538,0,0,0,0,0,0,0,0,0,-1,559,1562,0,0
-658,-538,0,0,0,0,0,0,0,0,0,-1,566,1562,0,0
-651,-538,0,0,0,0,0,0,0,0,0,-1,573,1562,0,0
-644,-538,0,0,0,0,0,0,0,0,0,-1,580,1562,0,0
-637,-538,0,0,0,0,0,0,0,0,0,-1,587,1562,0,0
-630,-538,0,0,0,0,0,0,0,0,0,-1,594,1562,0,0
-623,-538,0,0,0,0,0,0,0,0,0,-1,601,1562,0,0
-616,-538,0,0,0,0,0,0,0,0,0,-1,608,1562,0,0
-609,-538,0,0,0,0,0,0,0,0,0,-1,615,1562,0,0
-602,-538,0,0,0,0,0,0,0,0,0,-1,622,1562,0,0
-595,-538,0,0,0,0,0,0,0,0,0,-1,629,1562,0,0
-588,-538,0,0,0,0,0,0,0,0,0,-1,636,1562,0,0
-581,-538,0,0,0,0,0,0,0,0,0,-1,643,1562,0,0
-574,-538,0,0,0,0,0,0,0,0,0,-1,650,1562,0,0
-567,-538,0,0,0,0,0,0,0,0,0,-1,657,1562,0,0
-560,-538,0,0,0,0,0,0,0,0,0,-1,664,1562,0,0
-553,-538,0,0,0,0,0,0,0,0,0,-1,671,1562,0,0
-546,-538,0,0,0,0,0,0,0,0,0,-1,678,1562,0,0
-539,-538,0,0,0,0,0,0,0,0,0,-1,685,1562,0,0
-532,-538,0,0,0,0,0,0,0,0,0,-1,692,1562,0,0
-525,-538,0,0,0,0,0,0,0,0,0,-1,699,1562,0,0
-518,-538,0,0,0,0,0,0,0,0,0,-1,706,1562,0,0
-511,-538,-2.6582,-1.54321,0,0,0,0,0,0,0,-1,713,1562,-2.65821,1.54327
-504,-538,-2.66455,-0.71167,0,0,0,0,0,0,0,-1,720,1562,-2.66456,0.711667
-497,-538,-0.763855,6.77747,0,0,0,0,0,0,0,-1,727,1562,-0.76385,-6.77743
-490,-538,-2.70453,8.01465,0,0,0,0,0,0,0,-1,734,1562,-2.70451,-8.0147
-483,-538,-0.933533,7.84644,0,0,0,0,0,0,0,-1,741,1562,-0.933548,-7.84638
-476,-538,-3.29962,15.8307,0,0,0,0,0,0,0,-1,748,1562,-3.29962,-15.8306
-469,-538,-3.76221,18.3372,0,0,0,0,0,0,0,-1,755,1562,-3.7622,-18.3372
-462,-538,-3.4389,19.363,0.00921456,0.0197273,0.0113947,0.0270196,0.00192228,1.0015,0.0174077,0.0457268,762,1562,-3.4389,-19.363
-455,-538,-3.0293,20.3658,0.00733214,0.0158067,0.00875376,0.0212948,0.00184406,1.0108,0.0136235,0.0424762,769,1562,-3.0293,-20.3659
-448,-538,-2.88116,21.1827,0.005377,0.0119485,0.00633751,0.0158014,0.00152412,1.02455,0.0100648,0.0223303,776,1562,-2.88114,-21.1827
-441,-538,-3.00378,21.802,0.00371429,0.00879963,0.00442023,0.0113563,0.00115759,1.0464,0.00721605,0.0253193,783,1562,-3.00379,-21.8021
-434,-538,-3.10638,22.3073,0.00255022,0.00634838,0.00311439,0.00809703,0.000801575,1.05919,0.00515166,0.01334,790,1562,-3.10637,-22.3072
-427,-538,-3.14142,22.934,0.00183523,0.00471449,0.00233498,0.00601797,0.000531747,1.06165,0.003847,0.0133335,797,1562,-3.14139,-22.934
-420,-538,-3.146,23.5289,0.00167373,0.00362477,0.0019256,0.00480785,0.000490646,1.01986,0.00305485,0.0174297,804,1562,-3.14601,-23.5289
-413,-538,-3.16675,24.1582,0.00164728,0.00323472,0.00179783,0.00440625,0.000475759,0.993274,0.00279245,0.0177199,811,1562,-3.16673,-24.1583
-406,-538,-3.19128,24.7675,0.00173907,0.00290029,0.00183635,0.00424563,0.000393732,0.938514,0.00270873,0.013351,818,1562,-3.19126,-24.7674
-399,-538,-3.20135,25.3868,0.00216419,0.0032421,0.0022444,0.00501135,0.000394947,0.903233,0.00321734,0.0128004,825,1562,-3.20134,-25.3868
-392,-538,-3.21515,26.007,0.00296909,0.00411595,0.00284165,0.00644145,0.000643588,0.884959,0.00409666,0.015486,832,1562,-3.21514,-26.0069
-385,-538,-3.26678,26.6035,0.00396977,0.00498252,0.00349584,0.00800847,0.00094382,0.857324,0.00505384,0.0137169,839,1562,-3.2668,-26.6036
-378,-538,-3.27704,27.1748,0.00509119,0.00622541,0.00424247,0.0099385,0.0013781,0.851841,0.00621742,0.010748,846,1562,-3.27705,-27.1748
-371,-538,-3.31537,27.7228,0.00628193,0.00743161,0.00502133,0.0119109,0.00180264,0.84239,0.00741314,0.0136517,853,1562,-3.3154,-27.7227
-364,-538,-3.25079,28.4235,0.00767475,0.00880788,0.00595097,0.0142192,0.00226344,0.832858,0.0088223,0.0191396,860,1562,-3.2508,-28.4235
-357,-538,-3.22906,29.1757,0.00924819,0.0104545,0.00703272,0.0169099,0.00279281,0.828176,0.0104673,0.0462972,867,1562,-3.22909,-29.1757
-350,-538,-3.20593,29.9949,0,0,0,0,0,0,0,-1,874,1562,-3.20593,-29.9948
-343,-538,-2.47339,28.3082,0,0,0,0,0,0,0,-1,881,1562,-2.47341,-28.3083
-336,-538,-2.40161,28.5409,0,0,0,0,0,0,0,-1,888,1562,-2.40163,-28.541
-329,-538,-2.57159,28.4905,0,0,0,0,0,0,0,-1,895,1562,-2.57161,-28.4905
-322,-538,-2.83783,28.2308,0,0,0,0,0,0,0,-1,902,1562,-2.83783,-28.2308
-315,-538,-2.91827,27.7609,0,0,0,0,0,0,0,-1,909,1562,-2.91829,-27.7608
-308,-538,-4.37433,31.7996,0,0,0,0,0,0,0,-1,916,1562,-4.3743,-31.7995
-301,-538,-0.452393,18.5101,0,0,0,0,0,0,0,-1,923,1562,-0.452367,-18.5102
-294,-538,1.23138,14.0757,0,0,0,0,0,0,0,-1,930,1562,1.23137,-14.0757
-287,-538,-2.60419,10.2361,0,0,0,0,0,0,0,-1,937,1562,-2.6042,-10.2361
-280,-538,-2.93475,10.5106,0,0,0,0,0,0,0,-1,944,1562,-2.93475,-10.5106
-273,-538,-3.26532,10.785,0,0,0,0,0,0,0,-1,951,1562,-3.26531,-10.785
-266,-538,-5.03412,15.9951,0,0,0,0,0,0,0,-1,958,1562,-5.03409,-15.9951
-259,-538,-5.89642,16.5184,0,0,0,0,0,0,0,-1,965,1562,-5.89644,-16.5184
-252,-538,0,0,0,0,0,0,0,0,0,-1,972,1562,0,0
-245,-538,0,0,0,0,0,0,0,0,0,-1,979,1562,0,0
-238,-538,0,0,0,0,0,0,0,0,0,-1,986,1562,0,0
-231,-538,0,0,0,0,0,0,0,0,0,-1,993,1562,0,0
-224,-538,0,0,0,0,0,0,0,0,0,-1,1000,1562,0,0
-217,-538,0,0,0,0,0,0,0,0,0,-1,1007,1562,0,0
-210,-538,0,0,0,0,0,0,0,0,0,-1,1014,1562,0,0
-203,-538,0,0,0,0,0,0,0,0,0,-1,1021,1562,0,0
-196,-538,0,0,0,0,0,0,0,0,0,-1,1028,1562,0,0
-189,-538,0,0,0,0,0,0,0,0,0,-1,1035,1562,0,0
-182,-538,0,0,0,0,0,0,0,0,0,-1,1042,1562,0,0
-175,-538,0,0,0,0,0,0,0,0,0,-1,1049,1562,0,0
-168,-538,0,0,0,0,0,0,0,0,0,-1,1056,1562,0,0
-161,-538,0,0,0,0,0,0,0,0,0,-1,1063,1562,0,0
-154,-538,0,0,0,0,0,0,0,0,0,-1,1070,1562,0,0
-147,-538,0,0,0,0,0,0,0,0,0,-1,1077,1562,0,0
-140,-538,0,0,0,0,0,0,0,0,0,-1,1084,1562,0,0
-133,-538,0,0,0,0,0,0,0,0,0,-1,1091,1562,0,0
-126,-538,0,0,0,0,0,0,0,0,0,-1,1098,1562,0,0
-119,-538,0,0,0,0,0,0,0,0,0,-1,1105,1562,0,0
-112,-538,0,0,0,0,0,0,0,0,0,-1,1112,1562,0,0
-105,-538,0,0,0,0,0,0,0,0,0,-1,1119,1562,0,0
-98,-538,0,0,0,0,0,0,0,0,0,-1,1126,1562,0,0
-91,-538,0,0,0,0,0,0,0,0,0,-1,1133,1562,0,0
-84,-538,0,0,0,0,0,0,0,0,0,-1,1140,1562,0,0
-77,-538,0,0,0,0,0,0,0,0,0,-1,1147,1562,0,0
-70,-538,0,0,0,0,0,0,0,0,0,-1,1154,1562,0,0
-63,-538,0,0,0,0,0,0,0,0,0,-1,1161,1562,0,0
-56,-538,0,0,0,0,0,0,0,0,0,-1,1168,1562,0,0
-49,-538,0,0,0,0,0,0,0,0,0,-1,1175,1562,0,0
-42,-538,0,0,0,0,0,0,0,0,0,-1,1182,1562,0,0
-35,-538,0,0,0,0,0,0,0,0,0,-1,1189,1562,0,0
-28,-538,0,0,0,0,0,0,0,0,0,-1,1196,1562,0,0
-21,-538,0,0,0,0,0,0,0,0,0,-1,1203,1562,0,0
-14,-538,0,0,0,0,0,0,0,0,0,-1,1210,1562,0,0
-7,-538,0,0,0,0,0,0,0,0,0,-1,1217,1562,0,0
0,-538,0,0,0,0,0,0,0,0,0,-1,1224,1562,0,0
7,-538,0,0,0,0,0,0,0,0,0,-1,1231,1562,0,0
14,-538,0,0,0,0,0,0,0,0,0,-1,1238,1562,0,0
21,-538,0,0,0,0,0,0,0,0,0,-1,1245,1562,0,0
28,-538,0,0,0,0,0,0,0,0,0,-1,1252,1562,0,0
35,-538,0,0,0,0,0,0,0,0,0,-1,1259,1562,0,0
42,-538,0,0,0,0,0,0,0,0,0,-1,1266,1562,0,0
49,-538,0,0,0,0,0,0,0,0,0,-1,1273,1562,0,0
56,-538,0,0,0,0,0,0,0,0,0,-1,1280,1562,0,0
63,-538,0,0,0,0,0,0,0,0,0,-1,1287,1562,0,0
70,-538,0,0,0,0,0,0,0,0,0,-1,1294,1562,0,0
77,-538,0,0,0,0,0,0,0,0,0,-1,1301,1562,0,0
84,-538,0,0,0,0,0,0,0,0,0,-1,1308,1562,0,0
91,-538,0,0,0,0,0,0,0,0,0,-1,1315,1562,0,0
98,-538,0,0,0,0,0,0,0,0,0,-1,1322,1562,0,0
105,-538,0,0,0,0,0,0,0,0,0,-1,1329,1562,0,0
112,-538,0,0,0,0,0,0,0,0,0,-1,1336,1562,0,0
119,-538,0,0,0,0,0,0,0,0,0,-1,1343,1562,0,0
126,-538,0,0,0,0,0,0,0,0,0,-1,1350,1562,0,0
133,-538,0,0,0,0,0,0,0,0,0,-1,1357,1562,0,0
140,-538,0,0,0,0,0,0,0,0,0,-1,1364,1562,0,0
147,-538,0,0,0,0,0,0,0,0,0,-1,1371,1562,0,0
154,-538,0,0,0,0,0,0,0,0,0,-1,1378,1562,0,0
161,-538,0,0,0,0,0,0,0,0,0,-1,1385,1562,0,0
168,-538,0,0,0,0,0,0,0,0,0,-1,1392,1562,0,0
175,-538,0,0,0,0,0,0,0,0,0,-1,1399,1562,0,0
182,-538,0,0,0,0,0,0,0,0,0,-1,1406,1562,0,0
189,-538,0,0,0,0,0,0,0,0,0,-1,1413,1562,0,0
196,-538,0,0,0,0,0,0,0,0,0,-1,1420,1562,0,0
203,-538,0,0,0,0,0,0,0,0,0,-1,1427,1562,0,0
210,-538,0,0,0,0,0,0,0,0,0,-1,1434,1562,0,0
217,-538,0,0,0,0,0,0,0,0,0,-1,1441,1562,0,0
224,-538,0,0,0,0,0,0,0,0,0,-1,1448,1562,0,0
231,-538,0,0,0,0,0,0,0,0,0,-1,1455,1562,0,0
238,-538,0,0,0,0,0,0,0,0,0,-1,1462,1562,0,0
245,-538,0,0,0,0,0,0,0,0,0,-1,1469,1562,0,0
252,-538,0,0,0,0,0,0,0,0,0,-1,1476,1562,0,0
259,-538,0,0,0,0,0,0,0,0,0,-1,1483,1562,0,0
266,-538,0,0,0,0,0,0,0,0,0,-1,1490,1562,0,0
273,-538,0,0,0,0,0,0,0,0,0,-1,1497,1562,0,0
280,-538,0,0,0,0,0,0,0,0,0,-1,1504,1562,0,0
287,-538,0,0,0,0,0,0,0,0,0,-1,1511,1562,0,0
294,-538,0,0,0,0,0,0,0,0,0,-1,1518,1562,0,0
301,-538,0,0,0,0,0,0,0,0,0,-1,1525,1562,0,0
308,-538,0,0,0,0,0,0,0,0,0,-1,1532,1562,0,0
315,-538,0,0,0,0,0,0,0,0,0,-1,1539,1562,0,0
322,-538,0,0,0,0,0,0,0,0,0,-1,1546,1562,0,0
329,-538,0,0,0,0,0,0,0,0,0,-1,1553,1562,0,0
336,-538,0,0,0,0,0,0,0,0,0,-1,1560,1562,0,0
343,-538,0,0,0,0,0,0,0,0,0,-1,1567,1562,0,0
350,-538,0,0,0,0,0,0,0,0,0,-1,1574,1562,0,0
357,-538,0,0,0,0,0,0,0,0,0,-1,1581,1562,0,0
364,-538,0,0,0,0,0,0,0,0,0,-1,1588,1562,0,0
371,-538,0,0,0,0,0,0,0,0,0,-1,1595,1562,0,0
378,-538,9.65479,5.82434,0,0,0,0,0,0,0,-1,1602,1562,9.6548,-5.82439
385,-538,10.5449,7.9502,0,0,0,0,0,0,0,-1,1609,1562,10.5449,-7.95014
392,-538,8.20361,7.07214,0,0,0,0,0,0,0,-1,1616,1562,8.20362,-7.07211
399,-538,7.85425,4.70508,0,0,0,0,0,0,0,-1,1623,1562,7.85425,-4.70512
406,-538,7.77734,4.96094,0,0,0,0,0,0,0,-1,1630,1562,7.77729,-4.96097
413,-538,13.0446,13.1765,0,0,0,0,0,0,0,-1,1637,1562,13.0446,-13.1765
420,-538,9.96216,12.7653,0,0,0,0,0,0,0,-1,1644,1562,9.96221,-12.7653
427,-538,10.1732,14.5863,0,0,0,0,0,0,0,-1,1651,1562,10.1732,-14.5863
434,-538,9.64331,14.7745,0,0,0,0,0,0,0,-1,1658,1562,9.64326,-14.7746
441,-538,11.5039,20.5195,0,0,0,0,0,0,0,-1,1665,1562,11.5039,-20.5195
448,-538,12.8766,22.4932,0,0,0,0,0,0,0,-1,1672,1562,12.8766,-22.4932
455,-538,12.5693,17.4128,0,0,0,0,0,0,0,-1,1679,1562,12.5694,-17.4128
462,-538,12.1389,17.017,0,0,0,0,0,0,0,-1,1686,1562,12.1389,-17.017
469,-538,14.3802,16.6945,0,0,0,0,0,0,0,-1,1693,1562,14.3803,-16.6945
476,-538,13.724,19.0608,0,0,0,0,0,0,0,-1,1700,1562,13.724,-19.0608
483,-538,17.088,25.2936,0,0,0,0,0,0,0,-1,1707,1562,17.088,-25.2936
490,-538,20.1473,29.891,0,0,0,0,0,0,0,-1,1714,1562,20.1474,-29.891
497,-538,20.3951,29.103,0,0,0,0,0,0,0,-1,1721,1562,20.3952,-29.1031
504,-538,20.421,28.5037,0.00734213,0.00702394,-0.00594422,0.0131294,0.00123668,-0.772019,0.0083712,0.0177034,1728,1562,20.421,-28.5037
511,-538,20.3751,27.9446,0.00586224,0.0054179,-0.00485777,0.0105029,0.000777223,-0.762547,0.00675778,0.0104291,1735,1562,20.3752,-27.9445
518,-538,20.3571,27.4019,0.00444017,0.00393556,-0.00353329,0.00773015,0.00064558,-0.749755,0.00495228,0.0107593,1742,1562,20.3571,-27.4018
525,-538,20.3389,26.8457,0.00319058,0.00290371,-0.00241087,0.00546228,0.000632009,-0.755685,0.0034502,0.0117619,1749,1562,20.3388,-26.8457
532,-538,20.3472,26.2842,0.00208988,0.00192836,-0.00129397,0.00330561,0.000712628,-0.754232,0.00200878,0.0140834,1756,1562,20.3472,-26.2842
539,-538,20.313,25.7196,0.00121453,0.00110637,-0.00022664,0.00139345,0.000927447,-0.668281,0.000819082,0.0167426,1763,1562,20.313,-25.7196
546,-538,20.2588,25.1265,0.000508799,0.000222582,0.000835589,0.00121345,-0.000482065,0.700588,0.00100881,0.0175197,1770,1562,20.2588,-25.1264
553,-538,20.2963,24.5095,1.28044e-05,-0.000523153,0.00186888,0.00163282,-0.00214317,0.714188,0.00218669,0.028059,1777,1562,20.2963,-24.5096
560,-538,20.2081,23.9746,-0.000170428,-0.00116733,0.00278781,0.00216314,-0.0035009,0.696935,0.0033004,0.0309915,1784,1562,20.2081,-23.9746
567,-538,20.1216,23.4606,-1.07644e-05,-0.00161957,0.00348254,0.00275907,-0.0043894,0.671898,0.0041628,0.02356,1791,1562,20.1216,-23.4605
574,-538,20.0905,22.8163,0.00045165,-0.00199286,0.00401583,0.00342711,-0.00496832,0.637673,0.00487425,0.0299473,1798,1562,20.0904,-22.8163
581,-538,20.1274,22.2217,0.00160924,-0.0020813,0.00405237,0.00421669,-0.00468875,0.571749,0.00514397,0.0427805,1805,1562,20.1274,-22.2216
588,-538,20.2175,21.5825,0,0,0,0,0,0,0,-1,1812,1562,20.2175,-21.5826
595,-538,15.9808,16.0894,0,0,0,0,0,0,0,-1,1819,1562,15.9808,-16.0893
602,-538,10.314,8.94238,0,0,0,0,0,0,0,-1,1826,1562,10.314,-8.94238
609,-538,10.1046,7.05713,0,0,0,0,0,0,0,-1,1833,1562,10.1046,-7.05719
616,-538,9.92249,5.43506,0,0,0,0,0,0,0,-1,1840,1562,9.92254,-5.43507
623,-538,11.1711,4.31604,0,0,0,0,0,0,0,-1,1847,1562,11.1711,-4.316
630,-538,12.6112,2.61633,0,0,0,0,0,0,0,-1,1854,1562,12.6112,-2.61637
637,-538,0,0,0,0,0,0,0,0,0,-1,1861,1562,0,0
644,-538,0,0,0,0,0,0,0,0,0,-1,1868,1562,0,0
651,-538,0,0,0,0,0,0,0,0,0,-1,1875,1562,0,0
658,-538,0,0,0,0,0,0,0,0,0,-1,1882,1562,0,0
665,-538,0,0,0,0,0,0,0,0,0,-1,1889,1562,0,0
672,-538,0,0,0,0,0,0,0,0,0,-1,1896,1562,0,0
679,-538,0,0,0,0,0,0,0,0,0,-1,1903,1562,0,0
686,-538,0,0,0,0,0,0,0,0,0,-1,1910,1562,0,0
693,-538,0,0,0,0,0,0,0,0,0,-1,1917,1562,0,0
700,-538,0,0,0,0,0,0,0,0,0,-1,1924,1562,0,0
707,-538,0,0,0,0,0,0,0,0,0,-1,1931,1562,0,0
714,-538,0,0,0,0,0,0,0,0,0,-1,1938,1562,0,0
721,-538,0,0,0,0,0,0,0,0,0,-1,1945,1562,0,0
728,-538,0,0,0,0,0,0,0,0,0,-1,1952,1562,0,0
735,-538,0,0,0,0,0,0,0,0,0,-1,1959,1562,0,0
742,-538,0,0,0,0,0,0,0,0,0,-1,1966,1562,0,0
749,-538,0,0,0,0,0,0,0,0,0,-1,1973,1562,0,0
756,-538,0,0,0,0,0,0,0,0,0,-1,1980,1562,0,0
763,-538,0,0,0,0,0,0,0,0,0,-1,1987,1562,0,0
770,-538,0,0,0,0,0,0,0,0,0,-1,1994,1562,0,0
777,-538,0,0,0,0,0,0,0,0,0,-1,2001,1562,0,0
784,-538,0,0,0,0,0,0,0,0,0,-1,2008,1562,0,0
791,-538,0,0,0,0,0,0,0,0,0,-1,2015,1562,0,0
798,-538,0,0,0,0,0,0,0,0,0,-1,2022,1562,0,0
805,-538,0,0,0,0,0,0,0,0,0,-1,2029,1562,0,0
812,-538,0,0,0,0,0,0,0,0,0,-1,2036,1562,0,0
-700,-545,0,0,0,0,0,0,0,0,0,-1,524,1569,0,0
-693,-545,0,0,0,0,0,0,0,0,0,-1,531,1569,0,0
-686,-545,0,0,0,0,0,0,0,0,0,-1,538,1569,0,0
-679,-545,0,0,0,0,0,0,0,0,0,-1,545,1569,0,0
-672,-545,0,0,0,0,0,0,0,0,0,-1,552,1569,0,0
-665,-545,0,0,0,0,0,0,0,0,0,-1,559,1569,0,0
-658,-545,0,0,0,0,0,0,0,0,0,-1,566,1569,0,0
-651,-545,0,0,0,0,0,0,0,0,0,-1,573,1569,0,0
-644,-545,0,0,0,0,0,0,0,0,0,-1,580,1569,0,0
-637,-545,0,0,0,0,0,0,0,0,0,-1,587,1569,0,0
-630,-545,0,0,0,0,0,0,0,0,0,-1,594,1569,0,0
-623,-545,0,0,0,0,0,0,0,0,0,-1,601,1569,0,0
-616,-545,0,0,0,0,0,0,0,0,0,-1,608,1569,0,0
-609,-545,0,0,0,0,0,0,0,0,0,-1,615,1569,0,0
-602,-545,0,0,0,0,0,0,0,0,0,-1,622,1569,0,0
-595,-545,0,0,0,0,0,0,0,0,0,-1,629,1569,0,0
-588,-545,0,0,0,0,0,0,0,0,0,-1,636,1569,0,0
-581,-545,0,0,0,0,0,0,0,0,0,-1,643,1569,0,0
-574,-545,0,0,0,0,0,0,0,0,0,-1,650,1569,0,0
-567,-545,0,0,0,0,0,0,0,0,0,-1,657,1569,0,0
-560,-545,0,0,0,0,0,0,0,0,0,-1,664,1569,0,0
-553,-545,0,0,0,0,0,0,0,0,0,-1,671,1569,0,0
-546,-545,0,0,0,0,0,0,0,0,0,-1,678,1569,0,0
-539,-545,0,0,0,0,0,0,0,0,0,-1,685,1569,0,0
-532,-545,0,0,0,0,0,0,0,0,0,-1,692,1569,0,0
-525,-545,0,0,0,0,0,0,0,0,0,-1,699,1569,0,0
-518,-545,0,0,0,0,0,0,0,0,0,-1,706,1569,0,0
-511,-545,0,0,0,0,0,0,0,0,0,-1,713,1569,0,0
-504,-545,-3.55237,-2.5354,0,0,0,0,0,0,0,-1,720,1569,-3.55236,2.53545
-497,-545,2.26575,5.69214,0,0,0,0,0,0,0,-1,727,1569,2.26573,-5.6922
-490,-545,-2.17334,7.81396,0,0,0,0,0,0,0,-1,734,1569,-2.17334,-7.81399
-483,-545,-1.88336,5.8446,0,0,0,0,0,0,0,-1,741,1569,-1.88334,-5.84466
-476,-545,-1.13147,6.5741,0,0,0,0,0,0,0,-1,748,1569,-1.13149,-6.57405
-469,-545,-1.03412,15.8353,0,0,0,0,0,0,0,-1,755,1569,-1.03414,-15.8353
-462,-545,-2.80829,18.6146,0,0,0,0,0,0,0,-1,762,1569,-2.8083,-18.6147
-455,-545,-2.54053,19.7628,0.0109127,0.0225782,0.0122571,0.0303196,0.0031713,1.00748,0.0192432,0.0489166,769,1569,-2.54054,-19.7628
-448,-545,-2.21588,20.9775,0.00764024,0.0166607,0.0087068,0.0219561,0.00234484,1.02438,0.0139218,0.0347056,776,1569,-2.21587,-20.9775
-441,-545,-2.27075,21.9111,0.00494333,0.0119661,0.00588218,0.0153053,0.00160419,1.05449,0.00971304,0.0308122,783,1569,-2.27073,-21.9112
-434,-545,-2.57068,22.4075,0.00302958,0.00822228,0.00386948,0.0102858,0.000966114,1.08089,0.00655889,0.0278658,790,1569,-2.57068,-22.4074
-427,-545,-2.54364,22.9584,0.00184867,0.00573702,0.00266225,0.00708942,0.000496273,1.10078,0.00456985,0.0207947,797,1569,-2.54363,-22.9583
-420,-545,-2.50232,23.5297,0.00135827,0.00405962,0.00192533,0.0050608,0.00035709,1.09127,0.00326136,0.0234694,804,1569,-2.50229,-23.5296
-413,-545,-2.5379,24.1515,0.00107208,0.00319766,0.00151961,0.00398925,0.000280482,1.09055,0.00257111,0.0241003,811,1569,-2.53789,-24.1515
-406,-545,-2.5777,24.7797,0.000890446,0.00231076,0.0012596,0.0030466,0.000154606,1.04209,0.00198154,0.0173718,818,1569,-2.57769,-24.7796
-399,-545,-2.58551,25.3809,0.00103303,0.00214978,0.00140164,0.00310017,8.26361e-05,0.974948,0.00203979,0.010946,825,1569,-2.58549,-25.3808
-392,-545,-2.61871,25.9912,0.00169063,0.00274921,0.00184322,0.00413763,0.000302216,0.925215,0.0026634,0.012023,832,1569,-2.6187,-25.9913
-385,-545,-2.6441,26.6051,0.0026312,0.00339909,0.00235134,0.00539762,0.000632666,0.866328,0.00340716,0.0108722,839,1569,-2.64411,-26.6051
-378,-545,-2.67786,27.1921,0.00368415,0.00446846,0.00299922,0.00710106,0.00105156,0.850405,0.00442536,0.0125936,846,1569,-2.67785,-27.1921
-371,-545,-2.70148,27.8062,0.00475051,0.00543103,0.00363431,0.00874097,0.00144057,0.832074,0.00541142,0.0158954,853,1569,-2.70148,-27.8062
-364,-545,-2.70605,28.3567,0.00598152,0.00665293,0.00441143,0.0107414,0.00189303,0.823374,0.00662076,0.0108746,860,1569,-2.70605,-28.3567
-357,-545,-2.64874,29.0553,0.0073708,0.00807181,0.0052778,0.0130107,0.00243188,0.818555,0.00798756,0.0198794,867,1569,-2.64872,-29.0553
-350,-545,-2.591,29.7244,0.00896848,0.00974342,0.00628588,0.0156538,0.00305814,0.81618,0.00958056,0.0328002,874,1569,-2.59098,-29.7243
-343,-545,-2.52307,30.3092,0,0,0,0,0,0,0,-1,881,1569,-2.52306,-30.3091
-336,-545,-2.38025,30.5404,0,0,0,0,0,0,0,-1,888,1569,-2.38027,-30.5404
-329,-545,-2.03595,27.8694,0,0,0,0,0,0,0,-1,895,1569,-2.03592,-27.8694
-322,-545,-2.42474,27.9695,0,0,0,0,0,0,0,-1,902,1569,-2.42474,-27.9695
-315,-545,-2.52954,30.1711,0,0,0,0,0,0,0,-1,909,1569,-2.52951,-30.1712
-308,-545,-1.54358,21.4457,0,0,0,0,0,0,0,-1,916,1569,-1.54357,-21.4457
-301,-545,1.52191,17.5009,0,0,0,0,0,0,0,-1,923,1569,1.52192,-17.5008
-294,-545,-2.69287,8.42102,0,0,0,0,0,0,0,-1,930,1569,-2.69287,-8.42097
-287,-545,-3.47784,9.96021,0,0,0,0,0,0,0,-1,937,1569,-3.47785,-9.96021
-280,-545,-3.7879,10.5448,0,0,0,0,0,0,0,-1,944,1569,-3.78793,-10.5448
-273,-545,-5.10333,12.864,0,0,0,0,0,0,0,-1,951,1569,-5.10331,-12.864
-266,-545,-5.78955,13.3704,0,0,0,0,0,0,0,-1,958,1569,-5.78952,-13.3703
-259,-545,-6.32184,13.8101,0,0,0,0,0,0,0,-1,965,1569,-6.32182,-13.81
-252,-545,0.369263,7.54053,0,0,0,0,0,0,0,-1,972,1569,0.369276,-7.54056
-245,-545,-0.236633,6.65564,0,0,0,0,0,0,0,-1,979,1569,-0.236605,-6.65566
-238,-545,0,0,0,0,0,0,0,0,0,-1,986,1569,0,0
-231,-545,0,0,0,0,0,0,0,0,0,-1,993,1569,0,0
-224,-545,0,0,0,0,0,0,0,0,0,-1,1000,1569,0,0
-217,-545,0,0,0,0,0,0,0,0,0,-1,1007,1569,0,0
-210,-545,0,0,0,0,0,0,0,0,0,-1,1014,1569,0,0
-203,-545,0,0,0,0,0,0,0,0,0,-1,1021,1569,0,0
-196,-545,0,0,0,0,0,0,0,0,0,-1,1028,1569,0,0
-189,-545,0,0,0,0,0,0,0,0,0,-1,1035,1569,0,0
-182,-545,0,0,0,0,0,0,0,0,0,-1,1042,1569,0,0
-175,-545,0,0,0,0,0,0,0,0,0,-1,1049,1569,0,0
-168,-545,0,0,0,0,0,0,0,0,0,-1,1056,1569,0,0
-161,-545,0,0,0,0,0,0,0,0,0,-1,1063,1569,0,0
-154,-545,0,0,0,0,0,0,0,0,0,-1,1070,1569,0,0
-147,-545,0,0,0,0,0,0,0,0,0,-1,1077,1569,0,0
-140,-545,0,0,0,0,0,0,0,0,0,-1,1084,1569,0,0
-133,-545,0,0,0,0,0,0,0,0,0,-1,1091,1569,0,0
-126,-545,0,0,0,0,0,0,0,0,0,-1,1098,1569,0,0
-119,-545,0,0,0,0,0,0,0,0,0,-1,1105,1569,0,0
-112,-545,0,0,0,0,0,0,0,0,0,-1,1112,1569,0,0
-105,-545,0,0,0,0,0,0,0,0,0,-1,1119,1569,0,0
-98,-545,0,0,0,0,0,0,0,0,0,-1,1126,1569,0,0
-91,-545,0,0,0,0,0,0,0,0,0,-1,1133,1569,0,0
-84,-545,0,0,0,0,0,0,0,0,0,-1,1140,1569,0,0
-77,-545,0,0,0,0,0,0,0,0,0,-1,1147,1569,0,0
-70,-545,0,0,0,0,0,0,0,0,0,-1,1154,1569,0,0
-63,-545,0,0,0,0,0,0,0,0,0,-1,1161,1569,0,0
-56,-545,0,0,0,0,0,0,0,0,0,-1,1168,1569,0,0
-49,-545,0,0,0,0,0,0,0,0,0,-1,1175,1569,0,0
-42,-545,0,0,0,0,0,0,0,0,0,-1,1182,1569,0,0
-35,-545,0,0,0,0,0,0,0,0,0,-1,1189,1569,0,0
-28,-545,0,0,0,0,0,0,0,0,0,-1,1196,1569,0,0
-21,-545,0,0,0,0,0,0,0,0,0,-1,1203,1569,0,0
-14,-545,0,0,0,0,0,0,0,0,0,-1,1210,1569,0,0
-7,-545,0,0,0,0,0,0,0,0,0,-1,1217,1569,0,0
0,-545,0,0,0,0,0,0,0,0,0,-1,1224,1569,0,0
7,-545,0,0,0,0,0,0,0,0,0,-1,1231,1569,0,0
14,-545,0,0,0,0,0,0,0,0,0,-1,1238,1569,0,0
21,-545,0,0,0,0,0,0,0,0,0,-1,1245,1569,0,0
28,-545,0,0,0,0,0,0,0,0,0,-1,1252,1569,0,0
35,-545,0,0,0,0,0,0,0,0,0,-1,1259,1569,0,0
42,-545,0,0,0,0,0,0,0,0,0,-1,1266,1569,0,0
49,-545,0,0,0,0,0,0,0,0,0,-1,1273,1569,0,0
56,-545,0,0,0,0,0,0,0,0,0,-1,1280,1569,0,0
63,-545,0,0,0,0,0,0,0,0,0,-1,1287,1569,0,0
70,-545,0,0,0,0,0,0,0,0,0,-1,1294,1569,0,0
77,-545,0,0,0,0,0,0,0,0,0,-1,1301,1569,0,0
84,-545,0,0,0,0,0,0,0,0,0,-1,1308,1569,0,0
91,-545,0,0,0,0,0,0,0,0,0,-1,1315,1569,0,0
98,-545,0,0,0,0,0,0,0,0,0,-1,1322,1569,0,0
105,-545,0,0,0,0,0,0,0,0,0,-1,1329,1569,0,0
112,-545,0,0,0,0,0,0,0,0,0,-1,1336,1569,0,0
119,-545,0,0,0,0,0,0,0,0,0,-1,1343,1569,0,0
126,-545,0,0,0,0,0,0,0,0,0,-1,1350,1569,0,0
133,-545,0,0,0,0,0,0,0,0,0,-1,1357,1569,0,0
140,-545,0,0,0,0,0,0,0,0,0,-1,1364,1569,0,0
147,-545,0,0,0,0,0,0,0,0,0,-1,1371,1569,0,0
154,-545,0,0,0,0,0,0,0,0,0,-1,1378,1569,0,0
161,-545,0,0,0,0,0,0,0,0,0,-1,1385,1569,0,0
168,-545,0,0,0,0,0,0,0,0,0,-1,1392,1569,0,0
175,-545,0,0,0,0,0,0,0,0,0,-1,1399,1569,0,0
182,-545,0,0,0,0,0,0,0,0,0,-1,1406,1569,0,0
189,-545,0,0,0,0,0,0,0,0,0,-1,1413,1569,0,0
196,-545,0,0,0,0,0,0,0,0,0,-1,1420,1569,0,0
203,-545,0,0,0,0,0,0,0,0,0,-1,1427,1569,0,0
210,-545,0,0,0,0,0,0,0,0,0,-1,1434,1569,0,0
217,-545,0,0,0,0,0,0,0,0,0,-1,1441,1569,0,0
224,-545,0,0,0,0,0,0,0,0,0,-1,1448,1569,0,0
231,-545,0,0,0,0,0,0,0,0,0,-1,1455,1569,0,0
238,-545,0,0,0,0,0,0,0,0,0,-1,1462,1569,0,0
245,-545,0,0,0,0,0,0,0,0,0,-1,1469,1569,0,0
252,-545,0,0,0,0,0,0,0,0,0,-1,1476,1569,0,0
259,-545,0,0,0,0,0,0,0,0,0,-1,1483,1569,0,0
266,-545,0,0,0,0,0,0,0,0,0,-1,1490,1569,0,0
273,-545,0,0,0,0,0,0,0,0,0,-1,1497,1569,0,0
280,-545,0,0,0,0,0,0,0,0,0,-1,1504,1569,0,0
287,-545,0,0,0,0,0,0,0,0,0,-1,1511,1569,0,0
294,-545,0,0,0,0,0,0,0,0,0,-1,1518,1569,0,0
301,-545,0,0,0,0,0,0,0,0,0,-1,1525,1569,0,0
308,-545,0,0,0,0,0,0,0,0,0,-1,1532,1569,0,0
315,-545,0,0,0,0,0,0,0,0,0,-1,1539,1569,0,0
322,-545,0,0,0,0,0,0,0,0,0,-1,1546,1569,0,0
329,-545,0,0,0,0,0,0,0,0,0,-1,1553,1569,0,0
336,-545,0,0,0,0,0,0,0,0,0,-1,1560,1569,0,0
343,-545,0,0,0,0,0,0,0,0,0,-1,1567,1569,0,0
350,-545,0,0,0,0,0,0,0,0,0,-1,1574,1569,0,0
357,-545,0,0,0,0,0,0,0,0,0,-1,1581,1569,0,0
364,-545,7.19495,4.88098,0,0,0,0,0,0,0,-1,1588,1569,7.19497,-4.88095
371,-545,7.82324,3.84302,0,0,0,0,0,0,0,-1,1595,1569,7.82324,-3.84307
378,-545,7.65674,5.52673,0,0,0,0,0,0,0,-1,1602,1569,7.6567,-5.52667
385,-545,8.58447,1.16125,0,0,0,0,0,0,0,-1,1609,1569,8.5845,-1.1612
392,-545,12.5654,3.89526,0,0,0,0,0,0,0,-1,1616,1569,12.5655,-3.89532
399,-545,11.5869,5.6333,0,0,0,0,0,0,0,-1,1623,1569,11.5869,-5.63326
406,-545,11.234,6.36414,0,0,0,0,0,0,0,-1,1630,1569,11.234,-6.3641
413,-545,12.1521,13.4817,0,0,0,0,0,0,0,-1,1637,1569,12.1521,-13.4817
420,-545,11.1954,13.6047,0,0,0,0,0,0,0,-1,1644,1569,11.1954,-13.6047
427,-545,9.61072,14.9135,0,0,0,0,0,0,0,-1,1651,1569,9.61076,-14.9134
434,-545,13.1598,23.9921,0,0,0,0,0,0,0,-1,1658,1569,13.1598,-23.992
441,-545,12.2833,22.2238,0,0,0,0,0,0,0,-1,1665,1569,12.2833,-22.2237
448,-545,13.0082,21.941,0,0,0,0,0,0,0,-1,1672,1569,13.0082,-21.941
455,-545,13.733,21.6583,0,0,0,0,0,0,0,-1,1679,1569,13.733,-21.6583
462,-545,12.449,20.7413,0,0,0,0,0,0,0,-1,1686,1569,12.4489,-20.7413
469,-545,12.7837,17.7919,0,0,0,0,0,0,0,-1,1693,1569,12.7837,-17.7919
476,-545,15.7562,24.8708,0,0,0,0,0,0,0,-1,1700,1569,15.7563,-24.8709
483,-545,19.7061,30.3688,0,0,0,0,0,0,0,-1,1707,1569,19.7061,-30.3688
490,-545,19.7643,29.7234,0.00864892,0.0100933,-0.00770886,0.0171137,0.00162847,-0.832102,0.0109069,0.0302481,1714,1569,19.7643,-29.7233
497,-545,19.8228,29.1443,0.00708945,0.00757077,-0.00575857,0.0130937,0.00156652,-0.806282,0.00825665,0.0232187,1721,1569,19.8227,-29.1443
504,-545,19.9202,28.5554,0.00569693,0.0054654,-0.00452823,0.0101109,0.00105146,-0.772618,0.00641887,0.0154995,1728,1569,19.9201,-28.5554
511,-545,19.865,27.9745,0.00437522,0.00407314,-0.00350932,0.00773674,0.000711611,-0.763891,0.00493775,0.0122107,1735,1569,19.865,-27.9745
518,-545,19.8187,27.4132,0.0030735,0.00275816,-0.00229499,0.00521623,0.000615429,-0.751101,0.00329158,0.013761,1742,1569,19.8187,-27.4132
525,-545,19.771,26.844,0.00192752,0.00186879,-0.00122186,0.00312037,0.000675947,-0.773385,0.00189554,0.0137544,1749,1569,19.771,-26.844
532,-545,19.7438,26.2909,0.000902286,0.00101345,-0.000101913,0.00107395,0.000841783,-1.03504,0.000652494,0.0143675,1756,1569,19.7438,-26.2909
539,-545,19.7048,25.7554,5.08268e-05,0.000296118,0.00102507,0.00120585,-0.00085891,0.844938,0.00119769,0.0167581,1763,1569,19.7048,-25.7554
546,-545,19.6707,25.1544,-0.000671431,-0.000506368,0.00222134,0.00163398,-0.00281178,0.803967,0.00259661,0.0181824,1770,1569,19.6706,-25.1544
553,-545,19.7175,24.5238,-0.00121915,-0.0011931,0.00345191,0.00224581,-0.00465806,0.787285,0.00406624,0.0273906,1777,1569,19.7175,-24.5239
560,-545,19.7095,23.9309,-0.00147441,-0.00176341,0.00461119,0.00299455,-0.00623236,0.769735,0.00543539,0.0298097,1784,1569,19.7095,-23.9309
567,-545,19.6771,23.3882,0,0,0,0,0,0,0,-1,1791,1569,19.6772,-23.3882
574,-545,19.6509,22.6595,0,0,0,0,0,0,0,-1,1798,1569,19.6509,-22.6595
581,-545,19.5795,22.1179,0,0,0,0,0,0,0,-1,1805,1569,19.5795,-22.1179
588,-545,15.4786,16.7035,0,0,0,0,0,0,0,-1,1812,1569,15.4786,-16.7035
595,-545,10.2859,9.11218,0,0,0,0,0,0,0,-1,1819,1569,10.2858,-9.11215
602,-545,8.82117,6.32214,0,0,0,0,0,0,0,-1,1826,1569,8.82121,-6.32217
609,-545,10.2406,5.22351,0,0,0,0,0,0,0,-1,1833,1569,10.2406,-5.22353
616,-545,11.701,3.93188,0,0,0,0,0,0,0,-1,1840,1569,11.701,-3.93191
623,-545,13.2139,2.32043,0,0,0,0,0,0,0,-1,1847,1569,13.2139,-2.32042
630,-545,0,0,0,0,0,0,0,0,0,-1,1854,1569,0,0
637,-545,0,0,0,0,0,0,0,0,0,-1,1861,1569,0,0
644,-545,0,0,0,0,0,0,0,0,0,-1,1868,1569,0,0
651,-545,0,0,0,0,0,0,0,0,0,-1,1875,1569,0,0
658,-545,0,0,0,0,0,0,0,0,0,-1,1882,1569,0,0
665,-545,0,0,0,0,0,0,0,0,0,-1,1889,1569,0,0
672,-545,0,0,0,0,0,0,0,0,0,-1,1896,1569,0,0
679,-545,0,0,0,0,0,0,0,0,0,-1,1903,1569,0,0
686,-545,0,0,0,0,0,0,0,0,0,-1,1910,1569,0,0
693,-545,0,0,0,0,0,0,0,0,0,-1,1917,1569,0,0
700,-545,0,0,0,0,0,0,0,0,0,-1,1924,1569,0,0
707,-545,0,0,0,0,0,0,0,0,0,-1,1931,1569,0,0
714,-545,0,0,0,0,0,0,0,0,0,-1,1938,1569,0,0
721,-545,0,0,0,0,0,0,0,0,0,-1,1945,1569,0,0
728,-545,0,0,0,0,0,0,0,0,0,-1,1952,1569,0,0
735,-545,0,0,0,0,0,0,0,0,0,-1,1959,1569,0,0
742,-545,0,0,0,0,0,0,0,0,0,-1,1966,1569,0,0
749,-545,0,0,0,0,0,0,0,0,0,-1,1973,1569,0,0
756,-545,0,0,0,0,0,0,0,0,0,-1,1980,1569,0,0
763,-545,0,0,0,0,0,0,0,0,0,-1,1987,1569,0,0
770,-545,0,0,0,0,0,0,0,0,0,-1,1994,1569,0,0
777,-545,0,0,0,0,0,0,0,0,0,-1,2001,1569,0,0
784,-545,0,0,0,0,0,0,0,0,0,-1,2008,1569,0,0
791,-545,0,0,0,0,0,0,0,0,0,-1,2015,1569,0,0
798,-545,0,0,0,0,0,0,0,0,0,-1,2022,1569,0,0
805,-545,0,0,0,0,0,0,0,0,0,-1,2029,1569,0,0
812,-545,0,0,0,0,0,0,0,0,0,-1,2036,1569,0,0
-700,-552,0,0,0,0,0,0,0,0,0,-1,524,1576,0,0
-693,-552,0,0,0,0,0,0,0,0,0,-1,531,1576,0,0
-686,-552,0,0,0,0,0,0,0,0,0,-1,538,1576,0,0
-679,-552,0,0,0,0,0,0,0,0,0,-1,545,1576,0,0
-672,-552,0,0,0,0,0,0,0,0,0,-1,552,1576,0,0
-665,-552,0,0,0,0,0,0,0,0,0,-1,559,1576,0,0
-658,-552,0,0,0,0,0,0,0,0,0,-1,566,1576,0,0
-651,-552,0,0,0,0,0,0,0,0,0,-1,573,1576,0,0
-644,-552,0,0,0,0,0,0,0,0,0,-1,580,1576,0,0
-637,-552,0,0,0,0,0,0,0,0,0,-1,587,1576,0,0
-630,-552,0,0,0,0,0,0,0,0,0,-1,594,1576,0,0
-623,-552,0,0,0,0,0,0,0,0,0,-1,601,1576,0,0
-616,-552,0,0,0,0,0,0,0,0,0,-1,608,1576,0,0
-609,-552,0,0,0,0,0,0,0,0,0,-1,615,1576,0,0
-602,-552,0,0,0,0,0,0,0,0,0,-1,622,1576,0,0
-595,-552,0,0,0,0,0,0,0,0,0,-1,629,1576,0,0
-588,-552,0,0,0,0,0,0,0,0,0,-1,636,1576,0,0
-581,-552,0,0,0,0,0,0,0,0,0,-1,643,1576,0,0
-574,-552,0,0,0,0,0,0,0,0,0,-1,650,1576,0,0
-567,-552,0,0,0,0,0,0,0,0,0,-1,657,1576,0,0
-560,-552,0,0,0,0,0,0,0,0,0,-1,664,1576,0,0
-553,-552,0,0,0,0,0,0,0,0,0,-1,671,1576,0,0
-546,-552,0,0,0,0,0,0,0,0,0,-1,678,1576,0,0
-539,-552,0,0,0,0,0,0,0,0,0,-1,685,1576,0,0
-532,-552,0,0,0,0,0,0,0,0,0,-1,692,1576,0,0
-525,-552,0,0,0,0,0,0,0,0,0,-1,699,1576,0,0
-518,-552,0,0,0,0,0,0,0,0,0,-1,706,1576,0,0
-511,-552,0,0,0,0,0,0,0,0,0,-1,713,1576,0,0
-504,-552,0,0,0,0,0,0,0,0,0,-1,720,1576,0,0
-497,-552,1.51282,3.96924,0,0,0,0,0,0,0,-1,727,1576,1.5128,-3.96924
-490,-552,-3.82312,6.32104,0,0,0,0,0,0,0,-1,734,1576,-3.82314,-6.3211
-483,-552,-3.50586,6.47986,0,0,0,0,0,0,0,-1,741,1576,-3.50587,-6.47983
-476,-552,-1.95129,4.43054,0,0,0,0,0,0,0,-1,748,1576,-1.95128,-4.43054
-469,-552,-1.40491,7.9895,0,0,0,0,0,0,0,-1,755,1576,-1.40491,-7.98947
-462,-552,0.0459595,16.3469,0,0,0,0,0,0,0,-1,762,1576,0.0459611,-16.3469
-455,-552,-1.9527,19.385,0,0,0,0,0,0,0,-1,769,1576,-1.95269,-19.385
-448,-552,-1.48474,20.7028,0,0,0,0,0,0,0,-1,776,1576,-1.48475,-20.7028
-441,-552,-1.63385,21.749,0.00646802,0.0158256,0.00764471,0.0201096,0.00218396,1.06001,0.012741,0.0475247,783,1576,-1.63384,-21.749
-434,-552,-1.70331,22.5878,0.00347368,0.0105258,0.00478776,0.0129458,0.00105367,1.10279,0.00830163,0.0393478,790,1576,-1.70329,-22.5877
-427,-552,-1.9718,22.8961,0.00168828,0.00701349,0.00310353,0.00844006,0.000261713,1.13994,0.00554153,0.0346671,797,1576,-1.97182,-22.8961
-420,-552,-1.91046,23.5941,0.000823409,0.00472877,0.00202922,0.00559224,-4.0062e-05,1.16849,0.00374158,0.0225498,804,1576,-1.91043,-23.5941
-413,-552,-1.91608,24.1855,0.000265988,0.00338771,0.00136115,0.00389784,-0.000244144,1.21222,0.00268365,0.0177993,811,1576,-1.9161,-24.1856
-406,-552,-1.96857,24.7971,-0.000158691,0.00198036,0.000841304,0.0022716,-0.000449928,1.23753,0.00168453,0.0143473,818,1576,-1.96857,-24.7971
-399,-552,-2.00909,25.4012,-0.000228338,0.00137356,0.000760174,0.00167686,-0.000531647,1.19115,0.001331,0.0141641,825,1576,-2.00907,-25.4012
-392,-552,-2.03729,26.01,0.000363581,0.00174672,0.00108711,0.0023436,-0.00023329,1.06869,0.00164568,0.016097,832,1576,-2.0373,-26.01
-385,-552,-2.05603,26.6141,0.00131027,0.00221875,0.00148448,0.00331693,0.000212086,0.933871,0.00214409,0.0145536,839,1576,-2.05601,-26.6142
-378,-552,-2.08783,27.2028,0.00236876,0.00310306,0.00205263,0.00482111,0.000650703,0.873897,0.00302063,0.0149501,846,1576,-2.08781,-27.2028
-371,-552,-2.10657,27.8306,0.00340999,0.00383178,0.00257351,0.00620302,0.00103876,0.826281,0.00383626,0.0187306,853,1576,-2.10659,-27.8306
-364,-552,-2.11011,28.4161,0.00458861,0.00483724,0.00322527,0.00794059,0.00148526,0.804661,0.00487466,0.0143227,860,1576,-2.1101,-28.4161
-357,-552,-2.11694,28.9642,0.00589502,0.00599336,0.00394027,0.00988477,0.00200361,0.791637,0.0060339,0.0101814,867,1576,-2.11696,-28.9642
-350,-552,-2.10596,29.5916,0.00736048,0.0072881,0.00476016,0.0120846,0.00256399,0.781597,0.00735229,0.0148365,874,1576,-2.10595,-29.5916
-343,-552,-2.12921,30.1123,0.0088893,0.00878528,0.00575728,0.0145948,0.00307977,0.780882,0.00888306,0.02298,881,1576,-2.12922,-30.1123
-336,-552,-2.05084,30.5472,0.0103508,0.0109522,0.00695363,0.0176116,0.00369138,0.807008,0.0107245,0.0423367,888,1576,-2.05084,-30.5472
-329,-552,-1.83356,31.9065,0,0,0,0,0,0,0,-1,895,1576,-1.83354,-31.9065
-322,-552,-1.23962,28.5371,0,0,0,0,0,0,0,-1,902,1576,-1.23964,-28.5371
-315,-552,-0.605347,28.994,0,0,0,0,0,0,0,-1,909,1576,-0.605331,-28.9941
-308,-552,-1.01624,30.3169,0,0,0,0,0,0,0,-1,916,1576,-1.01624,-30.3169
-301,-552,1.39453,18.4995,0,0,0,0,0,0,0,-1,923,1576,1.3945,-18.4995
-294,-552,0.842163,13.7863,0,0,0,0,0,0,0,-1,930,1576,0.842149,-13.7863
-287,-552,-0.663757,13.3474,0,0,0,0,0,0,0,-1,937,1576,-0.663744,-13.3474
-280,-552,-5.47241,8.96765,0,0,0,0,0,0,0,-1,944,1576,-5.47239,-8.96766
-273,-552,1.64587,10.6685,0,0,0,0,0,0,0,-1,951,1576,1.6459,-10.6685
-266,-552,-1.32678,8.05688,0,0,0,0,0,0,0,-1,958,1576,-1.32677,-8.05683
-259,-552,-5.54321,8.31213,0,0,0,0,0,0,0,-1,965,1576,-5.54324,-8.31214
-252,-552,-1.93445,7.81543,0,0,0,0,0,0,0,-1,972,1576,-1.93445,-7.81546
-245,-552,-2.53613,6.92212,0,0,0,0,0,0,0,-1,979,1576,-2.53614,-6.92216
-238,-552,-6.5365,2.81885,0,0,0,0,0,0,0,-1,986,1576,-6.53649,-2.8188
-231,-552,-4.32239,4.34583,0,0,0,0,0,0,0,-1,993,1576,-4.32239,-4.34587
-224,-552,0,0,0,0,0,0,0,0,0,-1,1000,1576,0,0
-217,-552,0,0,0,0,0,0,0,0,0,-1,1007,1576,0,0
-210,-552,0,0,0,0,0,0,0,0,0,-1,1014,1576,0,0
-203,-552,0,0,0,0,0,0,0,0,0,-1,1021,1576,0,0
-196,-552,0,0,0,0,0,0,0,0,0,-1,1028,1576,0,0
-189,-552,0,0,0,0,0,0,0,0,0,-1,1035,1576,0,0
-182,-552,0,0,0,0,0,0,0,0,0,-1,1042,1576,0,0
-175,-552,0,0,0,0,0,0,0,0,0,-1,1049,1576,0,0
-168,-552,0,0,0,0,0,0,0,0,0,-1,1056,1576,0,0
-161,-552,0,0,0,0,0,0,0,0,0,-1,1063,1576,0,0
-154,-552,0,0,0,0,0,0,0,0,0,-1,1070,1576,0,0
-147,-552,0,0,0,0,0,0,0,0,0,-1,1077,1576,0,0
-140,-552,0,0,0,0,0,0,0,0,0,-1,1084,1576,0,0
-133,-552,0,0,0,0,0,0,0,0,0,-1,1091,1576,0,0
-126,-552,0,0,0,0,0,0,0,0,0,-1,1098,1576,0,0
-119,-552,0,0,0,0,0,0,0,0,0,-1,1105,1576,0,0
-112,-552,0,0,0,0,0,0,0,0,0,-1,1112,1576,0,0
-105,-552,0,0,0,0,0,0,0,0,0,-1,1119,1576,0,0
-98,-552,0,0,0,0,0,0,0,0,0,-1,1126,1576,0,0
-91,-552,0,0,0,0,0,0,0,0,0,-1,1133,1576,0,0
-84,-552,0,0,0,0,0,0,0,0,0,-1,1140,1576,0,0
-77,-552,0,0,0,0,0,0,0,0,0,-1,1147,1576,0,0
-70,-552,0,0,0,0,0,0,0,0,0,-1,1154,1576,0,0
-63,-552,0,0,0,0,0,0,0,0,0,-1,1161,1576,0,0
-56,-552,0,0,0,0,0,0,0,0,0,-1,1168,1576,0,0
-49,-552,0,0,0,0,0,0,0,0,0,-1,1175,1576,0,0
-42,-552,0,0,0,0,0,0,0,0,0,-1,1182,1576,0,0
-35,-552,0,0,0,0,0,0,0,0,0,-1,1189,1576,0,0
-28,-552,0,0,0,0,0,0,0,0,0,-1,1196,1576,0,0
-21,-552,0,0,0,0,0,0,0,0,0,-1,1203,1576,0,0
-14,-552,0,0,0,0,0,0,0,0,0,-1,1210,1576,0,0
-7,-552,0,0,0,0,0,0,0,0,0,-1,1217,1576,0,0
0,-552,0,0,0,0,0,0,0,0,0,-1,1224,1576,0,0
7,-552,0,0,0,0,0,0,0,0,0,-1,1231,1576,0,0
14,-552,0,0,0,0,0,0,0,0,0,-1,1238,1576,0,0
21,-552,0,0,0,0,0,0,0,0,0,-1,1245,1576,0,0
28,-552,0,0,0,0,0,0,0,0,0,-1,1252,1576,0,0
35,-552,0,0,0,0,0,0,0,0,0,-1,1259,1576,0,0
42,-552,0,0,0,0,0,0,0,0,0,-1,1266,1576,0,0
49,-552,0,0,0,0,0,0,0,0,0,-1,1273,1576,0,0
56,-552,0,0,0,0,0,0,0,0,0,-1,1280,1576,0,0
63,-552,0,0,0,0,0,0,0,0,0,-1,1287,1576,0,0
70,-552,0,0,0,0,0,0,0,0,0,-1,1294,1576,0,0
77,-552,0,0,0,0,0,0,0,0,0,-1,1301,1576,0,0
84,-552,0,0,0,0,0,0,0,0,0,-1,1308,1576,0,0
91,-552,0,0,0,0,0,0,0,0,0,-1,1315,1576,0,0
98,-552,0,0,0,0,0,0,0,0,0,-1,1322,1576,0,0
105,-552,0,0,0,0,0,0,0,0,0,-1,1329,1576,0,0
112,-552,0,0,0,0,0,0,0,0,0,-1,1336,1576,0,0
119,-552,0,0,0,0,0,0,0,0,0,-1,1343,1576,0,0
126,-552,0,0,0,0,0,0,0,0,0,-1,1350,1576,0,0
133,-552,0,0,0,0,0,0,0,0,0,-1,1357,1576,0,0
140,-552,0,0,0,0,0,0,0,0,0,-1,1364,1576,0,0
147,-552,0,0,0,0,0,0,0,0,0,-1,1371,1576,0,0
154,-552,0,0,0,0,0,0,0,0,0,-1,1378,1576,0,0
161,-552,0,0,0,0,0,0,0,0,0,-1,1385,1576,0,0
168,-552,0,0,0,0,0,0,0,0,0,-1,1392,1576,0,0
175,-552,0,0,0,0,0,0,0,0,0,-1,1399,1576,0,0
182,-552,0,0,0,0,0,0,0,0,0,-1,1406,1576,0,0
189,-552,0,0,0,0,0,0,0,0,0,-1,1413,1576,0,0
196,-552,0,0,0,0,0,0,0,0,0,-1,1420,1576,0,0
203,-552,0,0,0,0,0,0,0,0,0,-1,1427,1576,0,0
210,-552,0,0,0,0,0,0,0,0,0,-1,1434,1576,0,0
217,-552,0,0,0,0,0,0,0,0,0,-1,1441,1576,0,0
224,-552,0,0,0,0,0,0,0,0,0,-1,1448,1576,0,0
231,-552,0,0,0,0,0,0,0,0,0,-1,1455,1576,0,0
238,-552,0,0,0,0,0,0,0,0,0,-1,1462,1576,0,0
245,-552,0,0,0,0,0,0,0,0,0,-1,1469,1576,0,0
252,-552,0,0,0,0,0,0,0,0,0,-1,1476,1576,0,0
259,-552,0,0,0,0,0,0,0,0,0,-1,1483,1576,0,0
266,-552,0,0,0,0,0,0,0,0,0,-1,1490,1576,0,0
273,-552,0,0,0,0,0,0,0,0,0,-1,1497,1576,0,0
280,-552,0,0,0,0,0,0,0,0,0,-1,1504,1576,0,0
287,-552,0,0,0,0,0,0,0,0,0,-1,1511,1576,0,0
294,-552,0,0,0,0,0,0,0,0,0,-1,1518,1576,0,0
301,-552,0,0,0,0,0,0,0,0,0,-1,1525,1576,0,0
308,-552,0,0,0,0,0,0,0,0,0,-1,1532,1576,0,0
315,-552,0,0,0,0,0,0,0,0,0,-1,1539,1576,0,0
322,-552,0,0,0,0,0,0,0,0,0,-1,1546,1576,0,0
329,-552,0,0,0,0,0,0,0,0,0,-1,1553,1576,0,0
336,-552,0,0,0,0,0,0,0,0,0,-1,1560,1576,0,0
343,-552,0,0,0,0,0,0,0,0,0,-1,1567,1576,0,0
350,-552,4.97876,4.09888,0,0,0,0,0,0,0,-1,1574,1576,4.97875,-4.09883
357,-552,5.18469,4.10706,0,0,0,0,0,0,0,-1,1581,1576,5.1847,-4.10702
364,-552,5.80872,5.07031,0,0,0,0,0,0,0,-1,1588,1576,5.80874,-5.07037
371,-552,7.10657,5.64783,0,0,0,0,0,0,0,-1,1595,1576,7.10651,-5.64786
378,-552,6.44446,4.91492,0,0,0,0,0,0,0,-1,1602,1576,6.44448,-4.91496
385,-552,12.8276,3.16504,0,0,0,0,0,0,0,-1,1609,1576,12.8276,-3.16503
392,-552,12.1301,4.3363,0,0,0,0,0,0,0,-1,1616,1576,12.1302,-4.33631
399,-552,11.3486,5.6012,0,0,0,0,0,0,0,-1,1623,1576,11.3486,-5.60115
406,-552,10.7863,6.42542,0,0,0,0,0,0,0,-1,1630,1576,10.7863,-6.42536
413,-552,8.39307,10.365,0,0,0,0,0,0,0,-1,1637,1576,8.3931,-10.365
420,-552,10.2306,12.7225,0,0,0,0,0,0,0,-1,1644,1576,10.2305,-12.7226
427,-552,9.73267,14.783,0,0,0,0,0,0,0,-1,1651,1576,9.73269,-14.783
434,-552,12.0377,20.1364,0,0,0,0,0,0,0,-1,1658,1576,12.0377,-20.1364
441,-552,12.4963,21.5277,0,0,0,0,0,0,0,-1,1665,1576,12.4964,-21.5277
448,-552,12.9141,21.5482,0,0,0,0,0,0,0,-1,1672,1576,12.9141,-21.5482
455,-552,13.3318,21.5687,0,0,0,0,0,0,0,-1,1679,1576,13.3317,-21.5687
462,-552,12.745,20.5947,0,0,0,0,0,0,0,-1,1686,1576,12.745,-20.5947
469,-552,17.7067,29.6902,0,0,0,0,0,0,0,-1,1693,1576,17.7067,-29.6902
476,-552,19.1156,30.9648,0,0,0,0,0,0,0,-1,1700,1576,19.1156,-30.9648
483,-552,19.2958,30.1589,0,0,0,0,0,0,0,-1,1707,1576,19.2958,-30.159
490,-552,19.3077,29.6406,0.00683761,0.00844452,-0.00599679,0.0136914,0.00159069,-0.851992,0.00864631,0.0150427,1714,1576,19.3078,-29.6406
497,-552,19.3816,29.1074,0.00549325,0.00620855,-0.00445199,0.0103172,0.00138457,-0.82548,0.00646623,0.0235242,1721,1576,19.3816,-29.1075
504,-552,19.3511,28.5715,0.00423323,0.00429189,-0.00335191,0.0076146,0.000910528,-0.789773,0.00480175,0.0243817,1728,1576,19.3511,-28.5716
511,-552,19.3156,27.9783,0.002997,0.0030074,-0.00235112,0.00535332,0.00065108,-0.786504,0.00337287,0.0176169,1735,1576,19.3155,-27.9782
518,-552,19.286,27.3872,0.00176247,0.00179029,-0.00121036,0.00298682,0.000565945,-0.791143,0.00183194,0.015855,1742,1576,19.2861,-27.3872
525,-552,19.2209,26.8411,0.000658817,0.000968526,-0.000139898,0.00102236,0.000604982,-1.20345,0.000593564,0.015022,1749,1576,19.221,-26.841
532,-552,19.1913,26.288,-0.000349095,0.000175697,0.00103801,0.000983961,-0.00115736,0.909199,0.00123764,0.0147486,1756,1576,19.1913,-26.2879
539,-552,19.1498,25.7555,-0.00123516,-0.000491784,0.00229969,0.00146606,-0.003193,0.865518,0.00275082,0.0177916,1763,1576,19.1498,-25.7555
546,-552,19.115,25.1871,-0.00202447,-0.00123721,0.00372662,0.00211652,-0.00537819,0.838016,0.00446157,0.0224692,1770,1576,19.115,-25.1871
553,-552,19.1586,24.5792,-0.00267647,-0.00189342,0.00527956,0.00300911,-0.007579,0.82241,0.00629999,0.0274405,1777,1576,19.1586,-24.5792
560,-552,19.1178,24.0447,-0.00307772,-0.00241233,0.00684832,0.00411137,-0.00960142,0.809669,0.00812583,0.045176,1784,1576,19.1178,-24.0446
567,-552,19.101,23.2201,0,0,0,0,0,0,0,-1,1791,1576,19.101,-23.2201
574,-552,12.8835,14.8463,0,0,0,0,0,0,0,-1,1798,1576,12.8836,-14.8463
581,-552,9.74841,9.98645,0,0,0,0,0,0,0,-1,1805,1576,9.74847,-9.9864
588,-552,10.5619,9.34924,0,0,0,0,0,0,0,-1,1812,1576,10.5619,-9.34921
595,-552,5.36194,6.62744,0,0,0,0,0,0,0,-1,1819,1576,5.36193,-6.62742
602,-552,10.6863,4.31616,0,0,0,0,0,0,0,-1,1826,1576,10.6862,-4.31619
609,-552,12.146,3.18286,0,0,0,0,0,0,0,-1,1833,1576,12.1459,-3.18281
616,-552,13.8762,2.08167,0,0,0,0,0,0,0,-1,1840,1576,13.8763,-2.08167
623,-552,0,0,0,0,0,0,0,0,0,-1,1847,1576,0,0
630,-552,0,0,0,0,0,0,0,0,0,-1,1854,1576,0,0
637,-552,0,0,0,0,0,0,0,0,0,-1,1861,1576,0,0
644,-552,0,0,0,0,0,0,0,0,0,-1,1868,1576,0,0
651,-552,0,0,0,0,0,0,0,0,0,-1,1875,1576,0,0
658,-552,0,0,0,0,0,0,0,0,0,-1,1882,1576,0,0
665,-552,0,0,0,0,0,0,0,0,0,-1,1889,1576,0,0
672,-552,0,0,0,0,0,0,0,0,0,-1,1896,1576,0,0
679,-552,0,0,0,0,0,0,0,0,0,-1,1903,1576,0,0
686,-552,0,0,0,0,0,0,0,0,0,-1,1910,1576,0,0
693,-552,0,0,0,0,0,0,0,0,0,-1,1917,1576,0,0
700,-552,0,0,0,0,0,0,0,0,0,-1,1924,1576,0,0
707,-552,0,0,0,0,0,0,0,0,0,-1,1931,1576,0,0
714,-552,0,0,0,0,0,0,0,0,0,-1,1938,1576,0,0
721,-552,0,0,0,0,0,0,0,0,0,-1,1945,1576,0,0
728,-552,0,0,0,0,0,0,0,0,0,-1,1952,1576,0,0
735,-552,0,0,0,0,0,0,0,0,0,-1,1959,1576,0,0
742,-552,0,0,0,0,0,0,0,0,0,-1,1966,1576,0,0
749,-552,0,0,0,0,0,0,0,0,0,-1,1973,1576,0,0
756,-552,0,0,0,0,0,0,0,0,0,-1,1980,1576,0,0
763,-552,0,0,0,0,0,0,0,0,0,-1,1987,1576,0,0
770,-552,0,0,0,0,0,0,0,0,0,-1,1994,1576,0,0
777,-552,0,0,0,0,0,0,0,0,0,-1,2001,1576,0,0
784,-552,0,0,0,0,0,0,0,0,0,-1,2008,1576,0,0
791,-552,0,0,0,0,0,0,0,0,0,-1,2015,1576,0,0
798,-552,0,0,0,0,0,0,0,0,0,-1,2022,1576,0,0
805,-552,0,0,0,0,0,0,0,0,0,-1,2029,1576,0,0
812,-552,0,0,0,0,0,0,0,0,0,-1,2036,1576,0,0
-700,-559,0,0,0,0,0,0,0,0,0,-1,524,1583,0,0
-693,-559,0,0,0,0,0,0,0,0,0,-1,531,1583,0,0
-686,-559,0,0,0,0,0,0,0,0,0,-1,538,1583,0,0
-679,-559,0,0,0,0,0,0,0,0,0,-1,545,1583,0,0
-672,-559,0,0,0,0,0,0,0,0,0,-1,552,1583,0,0
-665,-559,0,0,0,0,0,0,0,0,0,-1,559,1583,0,0
-658,-559,0,0,0,0,0,0,0,0,0,-1,566,1583,0,0
-651,-559,0,0,0,0,0,0,0,0,0,-1,573,1583,0,0
-644,-559,0,0,0,0,0,0,0,0,0,-1,580,1583,0,0
-637,-559,0,0,0,0,0,0,0,0,0,-1,587,1583,0,0
-630,-559,0,0,0,0,0,0,0,0,0,-1,594,1583,0,0
-623,-559,0,0,0,0,0,0,0,0,0,-1,601,1583,0,0
-616,-559,0,0,0,0,0,0,0,0,0,-1,608,1583,0,0
-609,-559,0,0,0,0,0,0,0,0,0,-1,615,1583,0,0
-602,-559,0,0,0,0,0,0,0,0,0,-1,622,1583,0,0
-595,-559,0,0,0,0,0,0,0,0,0,-1,629,1583,0,0
-588,-559,0,0,0,0,0,0,0,0,0,-1,636,1583,0,0
-581,-559,0,0,0,0,0,0,0,0,0,-1,643,1583,0,0
-574,-559,0,0,0,0,0,0,0,0,0,-1,650,1583,0,0
-567,-559,0,0,0,0,0,0,0,0,0,-1,657,1583,0,0
-560,-559,0,0,0,0,0,0,0,0,0,-1,664,1583,0,0
-553,-559,0,0,0,0,0,0,0,0,0,-1,671,1583,0,0
-546,-559,0,0,0,0,0,0,0,0,0,-1,678,1583,0,0
-539,-559,0,0,0,0,0,0,0,0,0,-1,685,1583,0,0
-532,-559,0,0,0,0,0,0,0,0,0,-1,692,1583,0,0
-525,-559,0,0,0,0,0,0,0,0,0,-1,699,1583,0,0
-518,-559,0,0,0,0,0,0,0,0,0,-1,706,1583,0,0
-511,-559,0,0,0,0,0,0,0,0,0,-1,713,1583,0,0
-504,-559,0,0,0,0,0,0,0,0,0,-1,720,1583,0,0
-497,-559,0,0,0,0,0,0,0,0,0,-1,727,1583,0,0
-490,-559,-5.49835,4.47424,0,0,0,0,0,0,0,-1,734,1583,-5.49833,-4.4743
-483,-559,-5.24078,4.74561,0,0,0,0,0,0,0,-1,741,1583,-5.24079,-4.74563
-476,-559,-4.98022,4.99316,0,0,0,0,0,0,0,-1,748,1583,-4.98024,-4.99321
-469,-559,-4.6424,5.38062,0,0,0,0,0,0,0,-1,755,1583,-4.64237,-5.38058
-462,-559,-0.161865,6.49438,0,0,0,0,0,0,0,-1,762,1583,-0.161835,-6.49444
-455,-559,1.08826,7.02527,0,0,0,0,0,0,0,-1,769,1583,1.08823,-7.02529
-448,-559,-2.86023,20.0852,0,0,0,0,0,0,0,-1,776,1583,-2.86025,-20.0852
-441,-559,-0.196289,22.3228,0,0,0,0,0,0,0,-1,783,1583,-0.196283,-22.3228
-434,-559,-0.844421,22.7197,0,0,0,0,0,0,0,-1,790,1583,-0.844444,-22.7197
-427,-559,-1.30768,22.7695,0,0,0,0,0,0,0,-1,797,1583,-1.30768,-22.7695
-420,-559,-1.32568,23.5626,0,0,0,0,0,0,0,-1,804,1583,-1.32565,-23.5626
-413,-559,-1.38495,24.2581,-0.000482425,0.00377966,0.00140408,0.00420063,-0.000903399,1.2795,0.0031451,0.017505,811,1583,-1.38492,-24.258
-406,-559,-1.40143,24.8584,-0.00115939,0.00184498,0.000610421,0.00196427,-0.00127867,1.37781,0.00188621,0.0103391,818,1583,-1.40141,-24.8584
-399,-559,-1.41107,25.4568,-0.00143092,0.000808669,0.000303529,0.000849077,-0.00147133,1.43845,0.00135565,0.0137057,825,1583,-1.41108,-25.4568
-392,-559,-1.43854,26.047,-0.000908192,0.000981073,0.000524601,0.00111697,-0.00104409,1.31733,0.00124792,0.0174541,832,1583,-1.43852,-26.047
-385,-559,-1.47394,26.637,9.75251e-06,0.00131229,0.000824134,0.00171142,-0.000389383,1.11978,0.00129048,0.0171117,839,1583,-1.47395,-26.637
-378,-559,-1.49957,27.2351,0.00103408,0.0020287,0.00131487,0.00293717,0.000125616,0.966192,0.00191761,0.0147678,846,1583,-1.49954,-27.2352
-371,-559,-1.52484,27.8651,0.00203681,0.0025856,0.00173983,0.00407254,0.000549873,0.86361,0.00255156,0.0214017,853,1583,-1.52486,-27.8651
-364,-559,-1.51935,28.4299,0.00316044,0.00341342,0.00228603,0.00557646,0.000997395,0.813036,0.0034338,0.0192723,860,1583,-1.51937,-28.4299
-357,-559,-1.54663,28.9897,0.00439039,0.00437476,0.00287377,0.00725635,0.00150879,0.784039,0.0044213,0.0118577,867,1583,-1.54664,-28.9897
-350,-559,-1.55872,29.5432,0.00577442,0.00539494,0.00354792,0.00913767,0.00203169,0.758683,0.00554015,0.0102965,874,1583,-1.55872,-29.5432
-343,-559,-1.55591,30.1125,0.00721254,0.00667382,0.00442333,0.0113747,0.00251166,0.754988,0.00690001,0.0110648,881,1583,-1.55589,-30.1126
-336,-559,-1.63312,30.6221,0.00855369,0.0085158,0.00546937,0.0140041,0.00306535,0.783666,0.00850059,0.0263278,888,1583,-1.63314,-30.6221
-329,-559,-1.49731,31.4817,0.00998145,0.0103854,0.00665929,0.0168458,0.00352106,0.800557,0.0102602,0.0469422,895,1583,-1.49734,-31.4816
-322,-559,-1.05151,32.4922,0,0,0,0,0,0,0,-1,902,1583,-1.05152,-32.4922
-315,-559,-0.659607,29.1698,0,0,0,0,0,0,0,-1,909,1583,-0.659577,-29.1698
-308,-559,-0.755493,30.4624,0,0,0,0,0,0,0,-1,916,1583,-0.755509,-30.4625
-301,-559,-1.22174,31.0372,0,0,0,0,0,0,0,-1,923,1583,-1.22176,-31.0372
-294,-559,0.945129,18.5165,0,0,0,0,0,0,0,-1,930,1583,0.945117,-18.5165
-287,-559,-0.11792,15.4912,0,0,0,0,0,0,0,-1,937,1583,-0.117939,-15.4912
-280,-559,0.191467,13.5093,0,0,0,0,0,0,0,-1,944,1583,0.191441,-13.5093
-273,-559,2.12836,10.3059,0,0,0,0,0,0,0,-1,951,1583,2.12839,-10.3059
-266,-559,-0.597046,6.68933,0,0,0,0,0,0,0,-1,958,1583,-0.597031,-6.68937
-259,-559,-7.00311,8.62756,0,0,0,0,0,0,0,-1,965,1583,-7.00312,-8.6275
-252,-559,-9.4483,2.87805,0,0,0,0,0,0,0,-1,972,1583,-9.44829,-2.87805
-245,-559,-4.80804,7.1803,0,0,0,0,0,0,0,-1,979,1583,-4.80804,-7.18027
-238,-559,-8.45764,2.54858,0,0,0,0,0,0,0,-1,986,1583,-8.45763,-2.54862
-231,-559,-5.86914,4.34021,0,0,0,0,0,0,0,-1,993,1583,-5.86914,-4.34019
-224,-559,-3.30505,6.22864,0,0,0,0,0,0,0,-1,1000,1583,-3.30505,-6.22859
-217,-559,0,0,0,0,0,0,0,0,0,-1,1007,1583,0,0
-210,-559,0,0,0,0,0,0,0,0,0,-1,1014,1583,0,0
-203,-559,0,0,0,0,0,0,0,0,0,-1,1021,1583,0,0
-196,-559,0,0,0,0,0,0,0,0,0,-1,1028,1583,0,0
-189,-559,0,0,0,0,0,0,0,0,0,-1,1035,1583,0,0
-182,-559,0,0,0,0,0,0,0,0,0,-1,1042,1583,0,0
-175,-559,0,0,0,0,0,0,0,0,0,-1,1049,1583,0,0
-168,-559,0,0,0,0,0,0,0,0,0,-1,1056,1583,0,0
-161,-559,0,0,0,0,0,0,0,0,0,-1,1063,1583,0,0
-154,-559,0,0,0,0,0,0,0,0,0,-1,1070,1583,0,0
-147,-559,0,0,0,0,0,0,0,0,0,-1,1077,1583,0,0
-140,-559,0,0,0,0,0,0,0,0,0,-1,1084,1583,0,0
-133,-559,0,0,0,0,0,0,0,0,0,-1,1091,1583,0,0
-126,-559,0,0,0,0,0,0,0,0,0,-1,1098,1583,0,0
-119,-559,0,0,0,0,0,0,0,0,0,-1,1105,1583,0,0
-112,-559,0,0,0,0,0,0,0,0,0,-1,1112,1583,0,0
-105,-559,0,0,0,0,0,0,0,0,0,-1,1119,1583,0,0
-98,-559,0,0,0,0,0,0,0,0,0,-1,1126,1583,0,0
-91,-559,0,0,0,0,0,0,0,0,0,-1,1133,1583,0,0
-84,-559,0,0,0,0,0,0,0,0,0,-1,1140,1583,0,0
-77,-559,0,0,0,0,0,0,0,0,0,-1,1147,1583,0,0
-70,-559,0,0,0,0,0,0,0,0,0,-1,1154,1583,0,0
-63,-559,0,0,0,0,0,0,0,0,0,-1,1161,1583,0,0
-56,-559,0,0,0,0,0,0,0,0,0,-1,1168,1583,0,0
-49,-559,0,0,0,0,0,0,0,0,0,-1,1175,1583,0,0
-42,-559,0,0,0,0,0,0,0,0,0,-1,1182,1583,0,0
-35,-559,0,0,0,0,0,0,0,0,0,-1,1189,1583,0,0
-28,-559,0,0,0,0,0,0,0,0,0,-1,1196,1583,0,0
-21,-559,0,0,0,0,0,0,0,0,0,-1,1203,1583,0,0
-14,-559,0,0,0,0,0,0,0,0,0,-1,1210,1583,0,0
-7,-559,0,0,0,0,0,0,0,0,0,-1,1217,1583,0,0
0,-559,0,0,0,0,0,0,0,0,0,-1,1224,1583,0,0
7,-559,0,0,0,0,0,0,0,0,0,-1,1231,1583,0,0
14,-559,0,0,0,0,0,0,0,0,0,-1,1238,1583,0,0
21,-559,0,0,0,0,0,0,0,0,0,-1,1245,1583,0,0
28,-559,0,0,0,0,0,0,0,0,0,-1,1252,1583,0,0
35,-559,0,0,0,0,0,0,0,0,0,-1,1259,1583,0,0
42,-559,0,0,0,0,0,0,0,0,0,-1,1266,1583,0,0
49,-559,0,0,0,0,0,0,0,0,0,-1,1273,1583,0,0
56,-559,0,0,0,0,0,0,0,0,0,-1,1280,1583,0,0
63,-559,0,0,0,0,0,0,0,0,0,-1,1287,1583,0,0
70,-559,0,0,0,0,0,0,0,0,0,-1,1294,1583,0,0
77,-559,0,0,0,0,0,0,0,0,0,-1,1301,1583,0,0
84,-559,0,0,0,0,0,0,0,0,0,-1,1308,1583,0,0
91,-559,0,0,0,0,0,0,0,0,0,-1,1315,1583,0,0
98,-559,0,0,0,0,0,0,0,0,0,-1,1322,1583,0,0
105,-559,0,0,0,0,0,0,0,0,0,-1,1329,1583,0,0
112,-559,0,0,0,0,0,0,0,0,0,-1,1336,1583,0,0
119,-559,0,0,0,0,0,0,0,0,0,-1,1343,1583,0,0
126,-559,0,0,0,0,0,0,0,0,0,-1,1350,1583,0,0
133,-559,0,0,0,0,0,0,0,0,0,-1,1357,1583,0,0
140,-559,0,0,0,0,0,0,0,0,0,-1,1364,1583,0,0
147,-559,0,0,0,0,0,0,0,0,0,-1,1371,1583,0,0
154,-559,0,0,0,0,0,0,0,0,0,-1,1378,1583,0,0
161,-559,0,0,0,0,0,0,0,0,0,-1,1385,1583,0,0
168,-559,0,0,0,0,0,0,0,0,0,-1,1392,1583,0,0
175,-559,0,0,0,0,0,0,0,0,0,-1,1399,1583,0,0
182,-559,0,0,0,0,0,0,0,0,0,-1,1406,1583,0,0
189,-559,0,0,0,0,0,0,0,0,0,-1,1413,1583,0,0
196,-559,0,0,0,0,0,0,0,0,0,-1,1420,1583,0,0
203,-559,0,0,0,0,0,0,0,0,0,-1,1427,1583,0,0
210,-559,0,0,0,0,0,0,0,0,0,-1,1434,1583,0,0
217,-559,0,0,0,0,0,0,0,0,0,-1,1441,1583,0,0
224,-559,0,0,0,0,0,0,0,0,0,-1,1448,1583,0,0
231,-559,0,0,0,0,0,0,0,0,0,-1,1455,1583,0,0
238,-559,0,0,0,0,0,0,0,0,0,-1,1462,1583,0,0
245,-559,0,0,0,0,0,0,0,0,0,-1,1469,1583,0,0
252,-559,0,0,0,0,0,0,0,0,0,-1,1476,1583,0,0
259,-559,0,0,0,0,0,0,0,0,0,-1,1483,1583,0,0
266,-559,0,0,0,0,0,0,0,0,0,-1,1490,1583,0,0
273,-559,0,0,0,0,0,0,0,0,0,-1,1497,1583,0,0
280,-559,0,0,0,0,0,0,0,0,0,-1,1504,1583,0,0
287,-559,0,0,0,0,0,0,0,0,0,-1,1511,1583,0,0
294,-559,0,0,0,0,0,0,0,0,0,-1,1518,1583,0,0
301,-559,0,0,0,0,0,0,0,0,0,-1,1525,1583,0,0
308,-559,0,0,0,0,0,0,0,0,0,-1,1532,1583,0,0
315,-559,0,0,0,0,0,0,0,0,0,-1,1539,1583,0,0
322,-559,0,0,0,0,0,0,0,0,0,-1,1546,1583,0,0
329,-559,0,0,0,0,0,0,0,0,0,-1,1553,1583,0,0
336,-559,5.97668,3.09827,0,0,0,0,0,0,0,-1,1560,1583,5.97667,-3.09824
343,-559,5.44824,2.88696,0,0,0,0,0,0,0,-1,1567,1583,5.44819,-2.88693
350,-559,4.69775,3.27051,0,0,0,0,0,0,0,-1,1574,1583,4.69771,-3.27048
357,-559,3.88025,3.60999,0,0,0,0,0,0,0,-1,1581,1583,3.88027,-3.60998
364,-559,5.00928,5.32605,0,0,0,0,0,0,0,-1,1588,1583,5.00928,-5.32607
371,-559,1.84436,2.52441,0,0,0,0,0,0,0,-1,1595,1583,1.84441,-2.52447
378,-559,6.34753,1.53137,0,0,0,0,0,0,0,-1,1602,1583,6.34752,-1.53139
385,-559,6.95911,1.48181,0,0,0,0,0,0,0,-1,1609,1583,6.95916,-1.48175
392,-559,11.6949,4.77734,0,0,0,0,0,0,0,-1,1616,1583,11.6949,-4.77731
399,-559,11.1104,5.56909,0,0,0,0,0,0,0,-1,1623,1583,11.1103,-5.56905
406,-559,10.3385,6.48657,0,0,0,0,0,0,0,-1,1630,1583,10.3385,-6.48661
413,-559,9.76147,6.97571,0,0,0,0,0,0,0,-1,1637,1583,9.76143,-6.97574
420,-559,7.77124,10.5851,0,0,0,0,0,0,0,-1,1644,1583,7.77128,-10.585
427,-559,10.1022,12.5565,0,0,0,0,0,0,0,-1,1651,1583,10.1021,-12.5565
434,-559,9.62769,14.6309,0,0,0,0,0,0,0,-1,1658,1583,9.62771,-14.6309
441,-559,12.6149,21.3678,0,0,0,0,0,0,0,-1,1665,1583,12.6149,-21.3678
448,-559,13.7046,22.6677,0,0,0,0,0,0,0,-1,1672,1583,13.7046,-22.6677
455,-559,13.9427,23.0509,0,0,0,0,0,0,0,-1,1679,1583,13.9427,-23.0509
462,-559,18.4718,32.4973,0,0,0,0,0,0,0,-1,1686,1583,18.4719,-32.4973
469,-559,18.545,31.4618,0,0,0,0,0,0,0,-1,1693,1583,18.545,-31.4617
476,-559,18.6882,30.8339,0.00713357,0.0137172,-0.00760704,0.0187141,0.00213665,-0.989598,0.0118284,0.0235199,1700,1583,18.6882,-30.8339
483,-559,18.7533,30.1733,0.00637654,0.00966623,-0.00619134,0.0144275,0.00161528,-0.915233,0.00912767,0.0134754,1707,1583,18.7532,-30.1733
490,-559,18.7549,29.6346,0.00527456,0.00681129,-0.00466723,0.010773,0.00131287,-0.866981,0.00678683,0.0148272,1714,1583,18.7549,-29.6346
497,-559,18.7877,29.1222,0.00412457,0.0048723,-0.00342065,0.00793945,0.00105742,-0.839831,0.00497807,0.0186533,1721,1583,18.7877,-29.1222
504,-559,18.7474,28.5789,0.00297416,0.00316923,-0.002395,0.00546869,0.000674712,-0.805749,0.00344299,0.0239955,1728,1583,18.7474,-28.5788
511,-559,18.7206,27.9974,0.00180494,0.00202311,-0.00135125,0.00326968,0.000558377,-0.825676,0.00201956,0.0213986,1735,1583,18.7206,-27.9975
518,-559,18.7301,27.4131,0.000623839,0.00094633,-0.000235068,0.00107014,0.000500028,-1.08602,0.000618287,0.014381,1742,1583,18.7301,-27.4131
525,-559,18.6909,26.8668,-0.000473565,0.000209813,0.000889018,0.000820545,-0.0010843,0.968867,0.00110327,0.0132968,1749,1583,18.6909,-26.8668
532,-559,18.6521,26.3179,-0.00152055,-0.00050503,0.00219027,0.00123557,-0.00326115,0.899298,0.00268255,0.0145264,1756,1583,18.6521,-26.3179
539,-559,18.621,25.7595,-0.0025242,-0.00112617,0.00366915,0.00190996,-0.00556033,0.879526,0.00448133,0.0187936,1763,1583,18.621,-25.7596
546,-559,18.5608,25.1967,-0.00349367,-0.00181126,0.00543794,0.00285016,-0.00815509,0.862136,0.00659536,0.0171165,1770,1583,18.5608,-25.1966
553,-559,18.637,24.5996,-0.0044013,-0.00243226,0.00745915,0.00410706,-0.0109406,0.851013,0.00898143,0.0210595,1777,1583,18.637,-24.5996
560,-559,18.6331,24.1826,-0.00512282,-0.00289795,0.00960305,0.00565689,-0.0136777,0.843062,0.0114785,0.0391648,1784,1583,18.6331,-24.1826
567,-559,18.5521,23.6661,0,0,0,0,0,0,0,-1,1791,1583,18.5521,-23.6661
574,-559,10.5109,10.7317,0,0,0,0,0,0,0,-1,1798,1583,10.5108,-10.7317
581,-559,5.97095,5.96179,0,0,0,0,0,0,0,-1,1805,1583,5.97093,-5.96181
588,-559,5.79102,5.89954,0,0,0,0,0,0,0,-1,1812,1583,5.79098,-5.89949
595,-559,5.79089,6.24231,0,0,0,0,0,0,0,-1,1819,1583,5.7909,-6.24227
602,-559,12.478,2.35669,0,0,0,0,0,0,0,-1,1826,1583,12.4781,-2.35675
609,-559,14.0479,1.22681,0,0,0,0,0,0,0,-1,1833,1583,14.0479,-1.22681
616,-559,0,0,0,0,0,0,0,0,0,-1,1840,1583,0,0
623,-559,0,0,0,0,0,0,0,0,0,-1,1847,1583,0,0
630,-559,0,0,0,0,0,0,0,0,0,-1,1854,1583,0,0
637,-559,0,0,0,0,0,0,0,0,0,-1,1861,1583,0,0
644,-559,0,0,0,0,0,0,0,0,0,-1,1868,1583,0,0
651,-559,0,0,0,0,0,0,0,0,0,-1,1875,1583,0,0
658,-559,0,0,0,0,0,0,0,0,0,-1,1882,1583,0,0
665,-559,0,0,0,0,0,0,0,0,0,-1,1889,1583,0,0
672,-559,0,0,0,0,0,0,0,0,0,-1,1896,1583,0,0
679,-559,0,0,0,0,0,0,0,0,0,-1,1903,1583,0,0
686,-559,0,0,0,0,0,0,0,0,0,-1,1910,1583,0,0
693,-559,0,0,0,0,0,0,0,0,0,-1,1917,1583,0,0
700,-559,0,0,0,0,0,0,0,0,0,-1,1924,1583,0,0
707,-559,0,0,0,0,0,0,0,0,0,-1,1931,1583,0,0
714,-559,0,0,0,0,0,0,0,0,0,-1,1938,1583,0,0
721,-559,0,0,0,0,0,0,0,0,0,-1,1945,1583,0,0
728,-559,0,0,0,0,0,0,0,0,0,-1,1952,1583,0,0
735,-559,0,0,0,0,0,0,0,0,0,-1,1959,1583,0,0
742,-559,0,0,0,0,0,0,0,0,0,-1,1966,1583,0,0
749,-559,0,0,0,0,0,0,0,0,0,-1,1973,1583,0,0
756,-559,0,0,0,0,0,0,0,0,0,-1,1980,1583,0,0
763,-559,0,0,0,0,0,0,0,0,0,-1,1987,1583,0,0
770,-559,0,0,0,0,0,0,0,0,0,-1,1994,1583,0,0
777,-559,0,0,0,0,0,0,0,0,0,-1,2001,1583,0,0
784,-559,0,0,0,0,0,0,0,0,0,-1,2008,1583,0,0
791,-559,0,0,0,0,0,0,0,0,0,-1,2015,1583,0,0
798,-559,0,0,0,0,0,0,0,0,0,-1,2022,1583,0,0
805,-559,0,0,0,0,0,0,0,0,0,-1,2029,1583,0,0
812,-559,0,0,0,0,0,0,0,0,0,-1,2036,1583,0,0
-700,-566,0,0,0,0,0,0,0,0,0,-1,524,1590,0,0
-693,-566,0,0,0,0,0,0,0,0,0,-1,531,1590,0,0
-686,-566,0,0,0,0,0,0,0,0,0,-1,538,1590,0,0
-679,-566,0,0,0,0,0,0,0,0,0,-1,545,1590,0,0
-672,-566,0,0,0,0,0,0,0,0,0,-1,552,1590,0,0
-665,-566,0,0,0,0,0,0,0,0,0,-1,559,1590,0,0
-658,-566,0,0,0,0,0,0,0,0,0,-1,566,1590,0,0
-651,-566,0,0,0,0,0,0,0,0,0,-1,573,1590,0,0
-644,-566,0,0,0,0,0,0,0,0,0,-1,580,1590,0,0
-637,-566,0,0,0,0,0,0,0,0,0,-1,587,1590,0,0
-630,-566,0,0,0,0,0,0,0,0,0,-1,594,1590,0,0
-623,-566,0,0,0,0,0,0,0,0,0,-1,601,1590,0,0
-616,-566,0,0,0,0,0,0,0,0,0,-1,608,1590,0,0
-609,-566,0,0,0,0,0,0,0,0,0,-1,615,1590,0,0
-602,-566,0,0,0,0,0,0,0,0,0,-1,622,1590,0,0
-595,-566,0,0,0,0,0,0,0,0,0,-1,629,1590,0,0
-588,-566,0,0,0,0,0,0,0,0,0,-1,636,1590,0,0
-581,-566,0,0,0,0,0,0,0,0,0,-1,643,1590,0,0
-574,-566,0,0,0,0,0,0,0,0,0,-1,650,1590,0,0
-567,-566,0,0,0,0,0,0,0,0,0,-1,657,1590,0,0
-560,-566,0,0,0,0,0,0,0,0,0,-1,664,1590,0,0
-553,-566,0,0,0,0,0,0,0,0,0,-1,671,1590,0,0
-546,-566,0,0,0,0,0,0,0,0,0,-1,678,1590,0,0
-539,-566,0,0,0,0,0,0,0,0,0,-1,685,1590,0,0
-532,-566,0,0,0,0,0,0,0,0,0,-1,692,1590,0,0
-525,-566,0,0,0,0,0,0,0,0,0,-1,699,1590,0,0
-518,-566,0,0,0,0,0,0,0,0,0,-1,706,1590,0,0
-511,-566,0,0,0,0,0,0,0,0,0,-1,713,1590,0,0
-504,-566,0,0,0,0,0,0,0,0,0,-1,720,1590,0,0
-497,-566,0,0,0,0,0,0,0,0,0,-1,727,1590,0,0
-490,-566,0,0,0,0,0,0,0,0,0,-1,734,1590,0,0
-483,-566,-7.17084,2.78613,0,0,0,0,0,0,0,-1,741,1590,-7.17083,-2.78618
-476,-566,-7.13971,2.87183,0,0,0,0,0,0,0,-1,748,1590,-7.13971,-2.87184
-469,-566,-6.43829,3.2998,0,0,0,0,0,0,0,-1,755,1590,-6.43829,-3.2998
-462,-566,-0.459106,3.89343,0,0,0,0,0,0,0,-1,762,1590,-0.459095,-3.89341
-455,-566,0.280212,4.74023,0,0,0,0,0,0,0,-1,769,1590,0.280207,-4.74023
-448,-566,0.436951,5.51306,0,0,0,0,0,0,0,-1,776,1590,0.436971,-5.51301
-441,-566,-0.440735,12.4063,0,0,0,0,0,0,0,-1,783,1590,-0.440753,-12.4062
-434,-566,-0.274963,22.9775,0,0,0,0,0,0,0,-1,790,1590,-0.274974,-22.9775
-427,-566,-0.675049,23.8071,0,0,0,0,0,0,0,-1,797,1590,-0.675033,-23.8072
-420,-566,-0.997803,23.5443,0,0,0,0,0,0,0,-1,804,1590,-0.99781,-23.5443
-413,-566,-0.833252,24.261,-0.00134775,0.00437126,0.00158693,0.00478209,-0.00175858,1.31747,0.00390844,0.0316214,811,1590,-0.833223,-24.261
-406,-566,-0.814758,24.876,-0.0022521,0.00190214,0.000517668,0.00196567,-0.00231564,1.44867,0.00247457,0.0134484,818,1590,-0.814729,-24.876
-399,-566,-0.829468,25.4771,-0.00267965,0.000451765,-1.05417e-05,0.000451801,-0.00267969,-1.56743,0.00195454,0.0112979,825,1590,-0.829496,-25.477
-392,-566,-0.850891,26.0529,-0.00219035,0.000426827,0.000117927,0.00043213,-0.00219565,1.52586,0.00162705,0.014404,832,1590,-0.85091,-26.0529
-385,-566,-0.870544,26.6599,-0.00129383,0.000626342,0.00033135,0.000681912,-0.0013494,1.40463,0.0011937,0.0166196,839,1590,-0.870555,-26.6599
-378,-566,-0.908447,27.2817,-0.000298416,0.00116185,0.000744252,0.00147431,-0.000610878,1.17331,0.00123781,0.0157757,846,1590,-0.908426,-27.2817
-371,-566,-0.953369,27.874,0.000685984,0.00157173,0.00109484,0.00230987,-5.2165e-05,0.977591,0.0015576,0.0215814,853,1590,-0.953342,-27.874
-364,-566,-0.951965,28.4283,0.00177284,0.0022483,0.00156598,0.00359449,0.000426651,0.860727,0.00226753,0.022236,860,1590,-0.951963,-28.4284
-357,-566,-0.98877,28.9808,0.00294528,0.00306191,0.00206879,0.00507321,0.000933983,0.799489,0.0031178,0.018298,867,1590,-0.988779,-28.9808
-350,-566,-0.997253,29.5642,0.00424882,0.00389938,0.0026434,0.00672327,0.00142493,0.752397,0.00409078,0.0213708,874,1590,-0.997239,-29.5641
-343,-566,-0.971313,30.106,0.00558331,0.00500169,0.0034121,0.00871697,0.00186803,0.742887,0.00529954,0.0255364,881,1590,-0.971327,-30.106
-336,-566,-1.10425,30.6671,0.00684625,0.0066313,0.00437892,0.011119,0.00235854,0.773129,0.00676496,0.0276694,888,1590,-1.10425,-30.6672
-329,-566,-0.995361,31.1654,0.00809387,0.00826145,0.0053753,0.0135536,0.0028017,0.793192,0.00826174,0.0270973,895,1590,-0.995372,-31.1654
-322,-566,-0.919983,31.9008,0.00968311,0.0106966,0.00691443,0.0171228,0.00325689,0.821978,0.0104994,0.0352622,902,1590,-0.920009,-31.9007
-315,-566,-0.819275,32.7957,0,0,0,0,0,0,0,-1,909,1590,-0.819291,-32.7956
-308,-566,-0.127258,29.7607,0,0,0,0,0,0,0,-1,916,1590,-0.12725,-29.7608
-301,-566,0.424011,30.6545,0,0,0,0,0,0,0,-1,923,1590,0.424036,-30.6546
-294,-566,0.741455,25.3229,0,0,0,0,0,0,0,-1,930,1590,0.741475,-25.3229
-287,-566,1.25391,23.4589,0,0,0,0,0,0,0,-1,937,1590,1.2539,-23.4589
-280,-566,1.59406,17.8762,0,0,0,0,0,0,0,-1,944,1590,1.59405,-17.8762
-273,-566,0.49762,11.2427,0,0,0,0,0,0,0,-1,951,1590,0.497591,-11.2426
-266,-566,0.392151,6.90295,0,0,0,0,0,0,0,-1,958,1590,0.392151,-6.90294
-259,-566,0.343628,6.47437,0,0,0,0,0,0,0,-1,965,1590,0.34363,-6.47438
-252,-566,-7.68311,1.01343,0,0,0,0,0,0,0,-1,972,1590,-7.68308,-1.01348
-245,-566,-11.1835,1.97522,0,0,0,0,0,0,0,-1,979,1590,-11.1835,-1.97527
-238,-566,-10.4883,2.40491,0,0,0,0,0,0,0,-1,986,1590,-10.4883,-2.40487
-231,-566,-7.41827,4.22803,0,0,0,0,0,0,0,-1,993,1590,-7.41827,-4.22803
-224,-566,-4.67188,6.30859,0,0,0,0,0,0,0,-1,1000,1590,-4.67185,-6.30853
-217,-566,-2.82867,7.52527,0,0,0,0,0,0,0,-1,1007,1590,-2.82869,-7.52531
-210,-566,-1.03436,8.67737,0,0,0,0,0,0,0,-1,1014,1590,-1.03439,-8.67733
-203,-566,0,0,0,0,0,0,0,0,0,-1,1021,1590,0,0
-196,-566,0,0,0,0,0,0,0,0,0,-1,1028,1590,0,0
-189,-566,0,0,0,0,0,0,0,0,0,-1,1035,1590,0,0
-182,-566,0,0,0,0,0,0,0,0,0,-1,1042,1590,0,0
-175,-566,0,0,0,0,0,0,0,0,0,-1,1049,1590,0,0
-168,-566,0,0,0,0,0,0,0,0,0,-1,1056,1590,0,0
-161,-566,0,0,0,0,0,0,0,0,0,-1,1063,1590,0,0
-154,-566,0,0,0,0,0,0,0,0,0,-1,1070,1590,0,0
-147,-566,0,0,0,0,0,0,0,0,0,-1,1077,1590,0,0
-140,-566,0,0,0,0,0,0,0,0,0,-1,1084,1590,0,0
-133,-566,0,0,0,0,0,0,0,0,0,-1,1091,1590,0,0
-126,-566,0,0,0,0,0,0,0,0,0,-1,1098,1590,0,0
-119,-566,0,0,0,0,0,0,0,0,0,-1,1105,1590,0,0
-112,-566,0,0,0,0,0,0,0,0,0,-1,1112,1590,0,0
-105,-566,0,0,0,0,0,0,0,0,0,-1,1119,1590,0,0
-98,-566,0,0,0,0,0,0,0,0,0,-1,1126,1590,0,0
-91,-566,0,0,0,0,0,0,0,0,0,-1,1133,1590,0,0
-84,-566,0,0,0,0,0,0,0,0,0,-1,1140,1590,0,0
-77,-566,0,0,0,0,0,0,0,0,0,-1,1147,1590,0,0
-70,-566,0,0,0,0,0,0,0,0,0,-1,1154,1590,0,0
-63,-566,0,0,0,0,0,0,0,0,0,-1,1161,1590,0,0
-56,-566,0,0,0,0,0,0,0,0,0,-1,1168,1590,0,0
-49,-566,0,0,0,0,0,0,0,0,0,-1,1175,1590,0,0
-42,-566,0,0,0,0,0,0,0,0,0,-1,1182,1590,0,0
-35,-566,0,0,0,0,0,0,0,0,0,-1,1189,1590,0,0
-28,-566,0,0,0,0,0,0,0,0,0,-1,1196,1590,0,0
-21,-566,0,0,0,0,0,0,0,0,0,-1,1203,1590,0,0
-14,-566,0,0,0,0,0,0,0,0,0,-1,1210,1590,0,0
-7,-566,0,0,0,0,0,0,0,0,0,-1,1217,1590,0,0
0,-566,0,0,0,0,0,0,0,0,0,-1,1224,1590,0,0
7,-566,0,0,0,0,0,0,0,0,0,-1,1231,1590,0,0
14,-566,0,0,0,0,0,0,0,0,0,-1,1238,1590,0,0
21,-566,0,0,0,0,0,0,0,0,0,-1,1245,1590,0,0
28,-566,0,0,0,0,0,0,0,0,0,-1,1252,1590,0,0
35,-566,0,0,0,0,0,0,0,0,0,-1,1259,1590,0,0
42,-566,0,0,0,0,0,0,0,0,0,-1,1266,1590,0,0
49,-566,0,0,0,0,0,0,0,0,0,-1,1273,1590,0,0
56,-566,0,0,0,0,0,0,0,0,0,-1,1280,1590,0,0
63,-566,0,0,0,0,0,0,0,0,0,-1,1287,1590,0,0
70,-566,0,0,0,0,0,0,0,0,0,-1,1294,1590,0,0
77,-566,0,0,0,0,0,0,0,0,0,-1,1301,1590,0,0
84,-566,0,0,0,0,0,0,0,0,0,-1,1308,1590,0,0
91,-566,0,0,0,0,0,0,0,0,0,-1,1315,1590,0,0
98,-566,0,0,0,0,0,0,0,0,0,-1,1322,1590,0,0
105,-566,0,0,0,0,0,0,0,0,0,-1,1329,1590,0,0
112,-566,0,0,0,0,0,0,0,0,0,-1,1336,1590,0,0
119,-566,0,0,0,0,0,0,0,0,0,-1,1343,1590,0,0
126,-566,0,0,0,0,0,0,0,0,0,-1,1350,1590,0,0
133,-566,0,0,0,0,0,0,0,0,0,-1,1357,1590,0,0
140,-566,0,0,0,0,0,0,0,0,0,-1,1364,1590,0,0
147,-566,0,0,0,0,0,0,0,0,0,-1,1371,1590,0,0
154,-566,0,0,0,0,0,0,0,0,0,-1,1378,1590,0,0
161,-566,0,0,0,0,0,0,0,0,0,-1,1385,1590,0,0
168,-566,0,0,0,0,0,0,0,0,0,-1,1392,1590,0,0
175,-566,0,0,0,0,0,0,0,0,0,-1,1399,1590,0,0
182,-566,0,0,0,0,0,0,0,0,0,-1,1406,1590,0,0
189,-566,0,0,0,0,0,0,0,0,0,-1,1413,1590,0,0
196,-566,0,0,0,0,0,0,0,0,0,-1,1420,1590,0,0
203,-566,0,0,0,0,0,0,0,0,0,-1,1427,1590,0,0
210,-566,0,0,0,0,0,0,0,0,0,-1,1434,1590,0,0
217,-566,0,0,0,0,0,0,0,0,0,-1,1441,1590,0,0
224,-566,0,0,0,0,0,0,0,0,0,-1,1448,1590,0,0
231,-566,0,0,0,0,0,0,0,0,0,-1,1455,1590,0,0
238,-566,0,0,0,0,0,0,0,0,0,-1,1462,1590,0,0
245,-566,0,0,0,0,0,0,0,0,0,-1,1469,1590,0,0
252,-566,0,0,0,0,0,0,0,0,0,-1,1476,1590,0,0
259,-566,0,0,0,0,0,0,0,0,0,-1,1483,1590,0,0
266,-566,0,0,0,0,0,0,0,0,0,-1,1490,1590,0,0
273,-566,0,0,0,0,0,0,0,0,0,-1,1497,1590,0,0
280,-566,0,0,0,0,0,0,0,0,0,-1,1504,1590,0,0
287,-566,0,0,0,0,0,0,0,0,0,-1,1511,1590,0,0
294,-566,0,0,0,0,0,0,0,0,0,-1,1518,1590,0,0
301,-566,0,0,0,0,0,0,0,0,0,-1,1525,1590,0,0
308,-566,0,0,0,0,0,0,0,0,0,-1,1532,1590,0,0
315,-566,0,0,0,0,0,0,0,0,0,-1,1539,1590,0,0
322,-566,6.07983,4.44873,0,0,0,0,0,0,0,-1,1546,1590,6.07983,-4.44873
329,-566,5.77026,3.47534,0,0,0,0,0,0,0,-1,1553,1590,5.77026,-3.47535
336,-566,5.41138,2.62915,0,0,0,0,0,0,0,-1,1560,1590,5.41138,-2.62909
343,-566,4.81873,1.79089,0,0,0,0,0,0,0,-1,1567,1590,4.81878,-1.79095
350,-566,4.41663,2.44214,0,0,0,0,0,0,0,-1,1574,1590,4.41666,-2.44214
357,-566,6.34058,5.18579,0,0,0,0,0,0,0,-1,1581,1590,6.34059,-5.1858
364,-566,6.06262,4.20251,0,0,0,0,0,0,0,-1,1588,1590,6.06259,-4.20246
371,-566,5.78455,3.21912,0,0,0,0,0,0,0,-1,1595,1590,5.7846,-3.21912
378,-566,5.7439,0.695557,0,0,0,0,0,0,0,-1,1602,1590,5.74392,-0.695531
385,-566,5.67615,-0.573975,0,0,0,0,0,0,0,-1,1609,1590,5.67612,0.573956
392,-566,5.78638,1.82434,0,0,0,0,0,0,0,-1,1616,1590,5.78637,-1.82439
399,-566,18.3279,36.4055,0,0,0,0,0,0,0,-1,1623,1590,18.3279,-36.4056
406,-566,4.30359,5.26868,0,0,0,0,0,0,0,-1,1630,1590,4.30364,-5.26867
413,-566,4.27124,5.79492,0,0,0,0,0,0,0,-1,1637,1590,4.27123,-5.7949
420,-566,18.0121,32.5314,0,0,0,0,0,0,0,-1,1644,1590,18.0121,-32.5313
427,-566,19.333,36.0059,0,0,0,0,0,0,0,-1,1651,1590,19.333,-36.0058
434,-566,18.2572,34.7024,0,0,0,0,0,0,0,-1,1658,1590,18.2572,-34.7024
441,-566,15.5841,27.5869,0,0,0,0,0,0,0,-1,1665,1590,15.5842,-27.587
448,-566,18.1251,33.8892,0,0,0,0,0,0,0,-1,1672,1590,18.1252,-33.8891
455,-566,17.8531,32.9515,0,0,0,0,0,0,0,-1,1679,1590,17.8532,-32.9515
462,-566,18.0344,32.1693,0.00672915,0.0185894,-0.00875853,0.0232365,0.00208202,-1.08298,0.0148458,0.0414504,1686,1590,18.0345,-32.1693
469,-566,18.1492,31.345,0.00613624,0.0146686,-0.00736901,0.0189173,0.00188757,-1.04779,0.0120318,0.0183804,1693,1590,18.1492,-31.3449
476,-566,18.207,30.7546,0.00554937,0.0111955,-0.0060052,0.0150081,0.00173676,-1.00512,0.00947967,0.0106541,1700,1590,18.2071,-30.7546
483,-566,18.2069,30.2009,0.00488384,0.00772154,-0.00484526,0.0113514,0.00125396,-0.927832,0.00718619,0.0105314,1707,1590,18.2069,-30.2009
490,-566,18.1934,29.6497,0.00395199,0.00525982,-0.00357795,0.00824312,0.000968687,-0.875782,0.00520267,0.0117701,1714,1590,18.1933,-29.6497
497,-566,18.226,29.1093,0.00293838,0.00359438,-0.00256969,0.00585692,0.000675841,-0.848876,0.00369997,0.0149375,1721,1590,18.2259,-29.1093
504,-566,18.218,28.5969,0.00184918,0.00210126,-0.00158801,0.00356823,0.000382211,-0.824999,0.0022622,0.0194685,1728,1590,18.218,-28.5969
511,-566,18.1953,28.0543,0.000713805,0.00109936,-0.000481854,0.00142557,0.000387595,-0.975681,0.000851124,0.0197952,1735,1590,18.1953,-28.0543
518,-566,18.1537,27.4956,-0.000436555,0.000188802,0.000628001,0.00057766,-0.000825412,1.01638,0.000814263,0.0123035,1742,1590,18.1537,-27.4956
525,-566,18.1154,26.908,-0.00156522,-0.000451621,0.00183764,0.000911722,-0.00292856,0.9325,0.00231687,0.0121758,1749,1590,18.1154,-26.9079
532,-566,18.1017,26.3221,-0.0027059,-0.00106998,0.00331497,0.00152645,-0.00530234,0.906356,0.00413863,0.0147775,1756,1590,18.1016,-26.3222
539,-566,18.0719,25.7496,-0.00390515,-0.00162892,0.00508965,0.00244831,-0.00798238,0.895396,0.00629836,0.0185406,1763,1590,18.0719,-25.7496
546,-566,18.0795,25.1282,-0.00516467,-0.00222668,0.00731827,0.00376857,-0.0111599,0.884447,0.0089642,0.0202232,1770,1590,18.0795,-25.1282
553,-566,18.0713,24.7415,-0.00646134,-0.00272669,0.00993613,0.00551606,-0.0147041,0.878281,0.0120692,0.0324329,1777,1590,18.0713,-24.7415
560,-566,17.9038,24.5714,-0.00774282,-0.00308764,0.0129046,0.00769756,-0.018528,0.874624,0.0155658,0.0371849,1784,1590,17.9038,-24.5714
567,-566,17.8805,24.3448,0,0,0,0,0,0,0,-1,1791,1590,17.8805,-24.3449
574,-566,7.99548,3.14514,0,0,0,0,0,0,0,-1,1798,1590,7.99543,-3.14511
581,-566,2.54102,5.1311,0,0,0,0,0,0,0,-1,1805,1590,2.54099,-5.13111
588,-566,-1.91321,8.39197,0,0,0,0,0,0,0,-1,1812,1590,-1.91316,-8.39199
595,-566,9.0271,4.66467,0,0,0,0,0,0,0,-1,1819,1590,9.02705,-4.66468
602,-566,9.953,3.54895,0,0,0,0,0,0,0,-1,1826,1590,9.953,-3.54898
609,-566,0,0,0,0,0,0,0,0,0,-1,1833,1590,0,0
616,-566,0,0,0,0,0,0,0,0,0,-1,1840,1590,0,0
623,-566,0,0,0,0,0,0,0,0,0,-1,1847,1590,0,0
630,-566,0,0,0,0,0,0,0,0,0,-1,1854,1590,0,0
637,-566,0,0,0,0,0,0,0,0,0,-1,1861,1590,0,0
644,-566,0,0,0,0,0,0,0,0,0,-1,1868,1590,0,0
651,-566,0,0,0,0,0,0,0,0,0,-1,1875,1590,0,0
658,-566,0,0,0,0,0,0,0,0,0,-1,1882,1590,0,0
665,-566,0,0,0,0,0,0,0,0,0,-1,1889,1590,0,0
672,-566,0,0,0,0,0,0,0,0,0,-1,1896,1590,0,0
679,-566,0,0,0,0,0,0,0,0,0,-1,1903,1590,0,0
686,-566,0,0,0,0,0,0,0,0,0,-1,1910,1590,0,0
693,-566,0,0,0,0,0,0,0,0,0,-1,1917,1590,0,0
700,-566,0,0,0,0,0,0,0,0,0,-1,1924,1590,0,0
707,-566,0,0,0,0,0,0,0,0,0,-1,1931,1590,0,0
714,-566,0,0,0,0,0,0,0,0,0,-1,1938,1590,0,0
721,-566,0,0,0,0,0,0,0,0,0,-1,1945,1590,0,0
728,-566,0,0,0,0,0,0,0,0,0,-1,1952,1590,0,0
735,-566,0,0,0,0,0,0,0,0,0,-1,1959,1590,0,0
742,-566,0,0,0,0,0,0,0,0,0,-1,1966,1590,0,0
749,-566,0,0,0,0,0,0,0,0,0,-1,1973,1590,0,0
756,-566,0,0,0,0,0,0,0,0,0,-1,1980,1590,0,0
763,-566,0,0,0,0,0,0,0,0,0,-1,1987,1590,0,0
770,-566,0,0,0,0,0,0,0,0,0,-1,1994,1590,0,0
777,-566,0,0,0,0,0,0,0,0,0,-1,2001,1590,0,0
784,-566,0,0,0,0,0,0,0,0,0,-1,2008,1590,0,0
791,-566,0,0,0,0,0,0,0,0,0,-1,2015,1590,0,0
798,-566,0,0,0,0,0,0,0,0,0,-1,2022,1590,0,0
805,-566,0,0,0,0,0,0,0,0,0,-1,2029,1590,0,0
812,-566,0,0,0,0,0,0,0,0,0,-1,2036,1590,0,0
-700,-573,0,0,0,0,0,0,0,0,0,-1,524,1597,0,0
-693,-573,0,0,0,0,0,0,0,0,0,-1,531,1597,0,0
-686,-573,0,0,0,0,0,0,0,0,0,-1,538,1597,0,0
-679,-573,0,0,0,0,0,0,0,0,0,-1,545,1597,0,0
-672,-573,0,0,0,0,0,0,0,0,0,-1,552,1597,0,0
-665,-573,0,0,0,0,0,0,0,0,0,-1,559,1597,0,0
-658,-573,0,0,0,0,0,0,0,0,0,-1,566,1597,0,0
-651,-573,0,0,0,0,0,0,0,0,0,-1,573,1597,0,0
-644,-573,0,0,0,0,0,0,0,0,0,-1,580,1597,0,0
-637,-573,0,0,0,0,0,0,0,0,0,-1,587,1597,0,0
-630,-573,0,0,0,0,0,0,0,0,0,-1,594,1597,0,0
-623,-573,0,0,0,0,0,0,0,0,0,-1,601,1597,0,0
-616,-573,0,0,0,0,0,0,0,0,0,-1,608,1597,0,0
-609,-573,0,0,0,0,0,0,0,0,0,-1,615,1597,0,0
-602,-573,0,0,0,0,0,0,0,0,0,-1,622,1597,0,0
-595,-573,0,0,0,0,0,0,0,0,0,-1,629,1597,0,0
-588,-573,0,0,0,0,0,0,0,0,0,-1,636,1597,0,0
-581,-573,0,0,0,0,0,0,0,0,0,-1,643,1597,0,0
-574,-573,0,0,0,0,0,0,0,0,0,-1,650,1597,0,0
-567,-573,0,0,0,0,0,0,0,0,0,-1,657,1597,0,0
-560,-573,0,0,0,0,0,0,0,0,0,-1,664,1597,0,0
-553,-573,0,0,0,0,0,0,0,0,0,-1,671,1597,0,0
-546,-573,0,0,0,0,0,0,0,0,0,-1,678,1597,0,0
-539,-573,0,0,0,0,0,0,0,0,0,-1,685,1597,0,0
-532,-573,0,0,0,0,0,0,0,0,0,-1,692,1597,0,0
-525,-573,0,0,0,0,0,0,0,0,0,-1,699,1597,0,0
-518,-573,0,0,0,0,0,0,0,0,0,-1,706,1597,0,0
-511,-573,0,0,0,0,0,0,0,0,0,-1,713,1597,0,0
-504,-573,0,0,0,0,0,0,0,0,0,-1,720,1597,0,0
-497,-573,0,0,0,0,0,0,0,0,0,-1,727,1597,0,0
-490,-573,0,0,0,0,0,0,0,0,0,-1,734,1597,0,0
-483,-573,0,0,0,0,0,0,0,0,0,-1,741,1597,0,0
-476,-573,-9.3327,0.972778,0,0,0,0,0,0,0,-1,748,1597,-9.33268,-0.972776
-469,-573,-1.41681,1.13379,0,0,0,0,0,0,0,-1,755,1597,-1.41681,-1.13382
-462,-573,-0.748535,2.02588,0,0,0,0,0,0,0,-1,762,1597,-0.748533,-2.02584
-455,-573,-0.112976,2.70703,0,0,0,0,0,0,0,-1,769,1597,-0.112988,-2.70697
-448,-573,-1.26172,3.33252,0,0,0,0,0,0,0,-1,776,1597,-1.26173,-3.33248
-441,-573,0.108582,5.06726,0,0,0,0,0,0,0,-1,783,1597,0.108584,-5.06721
-434,-573,1.61768,7.05444,0,0,0,0,0,0,0,-1,790,1597,1.61767,-7.05446
-427,-573,-0.339539,22.1222,0,0,0,0,0,0,0,-1,797,1597,-0.339546,-22.1222
-420,-573,0.300354,22.3167,0,0,0,0,0,0,0,-1,804,1597,0.300329,-22.3166
-413,-573,-0.234314,24.0536,0,0,0,0,0,0,0,-1,811,1597,-0.234301,-24.0536
-406,-573,-0.202271,24.8065,-0.00368339,0.00225022,0.000546732,0.00230017,-0.00373335,1.47968,0.00351606,0.0361529,818,1597,-0.202259,-24.8065
-399,-573,-0.248047,25.481,-0.00415026,0.000367699,-0.000174277,0.000374412,-0.00415698,-1.5323,0.00290418,0.015453,825,1597,-0.248036,-25.4809
-392,-573,-0.265808,26.0951,-0.00358405,0.000119366,-0.000119059,0.00012319,-0.00358787,-1.53869,0.00243402,0.0134646,832,1597,-0.265825,-26.0951
-385,-573,-0.319336,26.6945,-0.00264041,0.000167362,1.65841e-05,0.00016746,-0.00264051,1.56489,0.00181873,0.0155291,839,1597,-0.319361,-26.6945
-378,-573,-0.336243,27.2771,-0.00162748,0.000486331,0.000341995,0.000540285,-0.00168144,1.41432,0.00133792,0.0159694,846,1597,-0.336249,-27.2771
-371,-573,-0.354126,27.8628,-0.000619589,0.00074875,0.000620544,0.000988249,-0.000859088,1.20246,0.00106743,0.016774,853,1597,-0.354137,-27.8628
-364,-573,-0.367798,28.4214,0.000462552,0.00127098,0.0010123,0.00195678,-0.000223252,0.97535,0.00138495,0.0200132,860,1597,-0.367784,-28.4214
-357,-573,-0.379028,28.9873,0.00160382,0.00194338,0.00143478,0.00321839,0.000328805,0.844289,0.00204482,0.023393,867,1597,-0.379058,-28.9873
-350,-573,-0.378479,29.5895,0.00284493,0.00262667,0.0019195,0.0046584,0.000813201,0.757003,0.00287315,0.0184611,874,1597,-0.378491,-29.5895
-343,-573,-0.390137,30.1494,0.00407117,0.00356414,0.00256834,0.00639848,0.00123683,0.736203,0.00391898,0.0220122,881,1597,-0.390106,-30.1494
-336,-573,-0.422974,30.7375,0.00522345,0.00496906,0.0034087,0.00850733,0.00168518,0.76675,0.00520163,0.0169502,888,1597,-0.422991,-30.7376
-329,-573,-0.421509,31.2946,0.0063469,0.0064273,0.00425952,0.0106468,0.00212738,0.790117,0.00650574,0.017918,895,1597,-0.421532,-31.2945
-322,-573,-0.434387,31.8698,0.00765418,0.00848906,0.00545923,0.0135468,0.00259645,0.823556,0.00830217,0.0163815,902,1597,-0.434407,-31.8697
-315,-573,-0.289856,32.627,0.00919017,0.0116667,0.00702125,0.017558,0.00329882,0.87268,0.0107754,0.0371362,909,1597,-0.289829,-32.627
-308,-573,0.0249634,33.4393,0,0,0,0,0,0,0,-1,916,1597,0.02494,-33.4393
-301,-573,-0.156189,33.748,0,0,0,0,0,0,0,-1,923,1597,-0.156181,-33.7481
-294,-573,1.00702,24.802,0,0,0,0,0,0,0,-1,930,1597,1.00701,-24.802
-287,-573,1.27222,30.7164,0,0,0,0,0,0,0,-1,937,1597,1.27222,-30.7164
-280,-573,1.19684,26.4906,0,0,0,0,0,0,0,-1,944,1597,1.19685,-26.4906
-273,-573,2.24805,25.4375,0,0,0,0,0,0,0,-1,951,1597,2.24803,-25.4374
-266,-573,1.31116,7.1814,0,0,0,0,0,0,0,-1,958,1597,1.31118,-7.18142
-259,-573,1.2514,6.70959,0,0,0,0,0,0,0,-1,965,1597,1.25137,-6.70965
-252,-573,2.07874,5.27161,0,0,0,0,0,0,0,-1,972,1597,2.07875,-5.27157
-245,-573,-10.2592,1.09827,0,0,0,0,0,0,0,-1,979,1597,-10.2592,-1.09823
-238,-573,-11.5463,4.44141,0,0,0,0,0,0,0,-1,986,1597,-11.5463,-4.44146
-231,-573,-9.23431,4.14539,0,0,0,0,0,0,0,-1,993,1597,-9.23431,-4.14534
-224,-573,-6.70044,7.40857,0,0,0,0,0,0,0,-1,1000,1597,-6.70045,-7.40851
-217,-573,-4.25824,8.59119,0,0,0,0,0,0,0,-1,1007,1597,-4.25824,-8.59122
-210,-573,-2.39661,9.73914,0,0,0,0,0,0,0,-1,1014,1597,-2.39658,-9.73915
-203,-573,-0.557373,10.9005,0,0,0,0,0,0,0,-1,1021,1597,-0.557387,-10.9006
-196,-573,-1.65344,9.02246,0,0,0,0,0,0,0,-1,1028,1597,-1.65349,-9.02241
-189,-573,-6.12915,6.66882,0,0,0,0,0,0,0,-1,1035,1597,-6.12913,-6.66884
-182,-573,0,0,0,0,0,0,0,0,0,-1,1042,1597,0,0
-175,-573,0,0,0,0,0,0,0,0,0,-1,1049,1597,0,0
-168,-573,0,0,0,0,0,0,0,0,0,-1,1056,1597,0,0
-161,-573,0,0,0,0,0,0,0,0,0,-1,1063,1597,0,0
-154,-573,0,0,0,0,0,0,0,0,0,-1,1070,1597,0,0
-147,-573,0,0,0,0,0,0,0,0,0,-1,1077,1597,0,0
-140,-573,0,0,0,0,0,0,0,0,0,-1,1084,1597,0,0
-133,-573,0,0,0,0,0,0,0,0,0,-1,1091,1597,0,0
-126,-573,0,0,0,0,0,0,0,0,0,-1,1098,1597,0,0
-119,-573,0,0,0,0,0,0,0,0,0,-1,1105,1597,0,0
-112,-573,0,0,0,0,0,0,0,0,0,-1,1112,1597,0,0
-105,-573,0,0,0,0,0,0,0,0,0,-1,1119,1597,0,0
-98,-573,0,0,0,0,0,0,0,0,0,-1,1126,1597,0,0
-91,-573,0,0,0,0,0,0,0,0,0,-1,1133,1597,0,0
-84,-573,0,0,0,0,0,0,0,0,0,-1,1140,1597,0,0
-77,-573,0,0,0,0,0,0,0,0,0,-1,1147,1597,0,0
-70,-573,0,0,0,0,0,0,0,0,0,-1,1154,1597,0,0
-63,-573,0,0,0,0,0,0,0,0,0,-1,1161,1597,0,0
-56,-573,0,0,0,0,0,0,0,0,0,-1,1168,1597,0,0
-49,-573,0,0,0,0,0,0,0,0,0,-1,1175,1597,0,0
-42,-573,0,0,0,0,0,0,0,0,0,-1,1182,1597,0,0
-35,-573,0,0,0,0,0,0,0,0,0,-1,1189,1597,0,0
-28,-573,0,0,0,0,0,0,0,0,0,-1,1196,1597,0,0
-21,-573,0,0,0,0,0,0,0,0,0,-1,1203,1597,0,0
-14,-573,0,0,0,0,0,0,0,0,0,-1,1210,1597,0,0
-7,-573,0,0,0,0,0,0,0,0,0,-1,1217,1597,0,0
0,-573,0,0,0,0,0,0,0,0,0,-1,1224,1597,0,0
7,-573,0,0,0,0,0,0,0,0,0,-1,1231,1597,0,0
14,-573,0,0,0,0,0,0,0,0,0,-1,1238,1597,0,0
21,-573,0,0,0,0,0,0,0,0,0,-1,1245,1597,0,0
28,-573,0,0,0,0,0,0,0,0,0,-1,1252,1597,0,0
35,-573,0,0,0,0,0,0,0,0,0,-1,1259,1597,0,0
42,-573,0,0,0,0,0,0,0,0,0,-1,1266,1597,0,0
49,-573,0,0,0,0,0,0,0,0,0,-1,1273,1597,0,0
56,-573,0,0,0,0,0,0,0,0,0,-1,1280,1597,0,0
63,-573,0,0,0,0,0,0,0,0,0,-1,1287,1597,0,0
70,-573,0,0,0,0,0,0,0,0,0,-1,1294,1597,0,0
77,-573,0,0,0,0,0,0,0,0,0,-1,1301,1597,0,0
84,-573,0,0,0,0,0,0,0,0,0,-1,1308,1597,0,0
91,-573,0,0,0,0,0,0,0,0,0,-1,1315,1597,0,0
98,-573,0,0,0,0,0,0,0,0,0,-1,1322,1597,0,0
105,-573,0,0,0,0,0,0,0,0,0,-1,1329,1597,0,0
112,-573,0,0,0,0,0,0,0,0,0,-1,1336,1597,0,0
119,-573,0,0,0,0,0,0,0,0,0,-1,1343,1597,0,0
126,-573,0,0,0,0,0,0,0,0,0,-1,1350,1597,0,0
133,-573,0,0,0,0,0,0,0,0,0,-1,1357,1597,0,0
140,-573,0,0,0,0,0,0,0,0,0,-1,1364,1597,0,0
147,-573,0,0,0,0,0,0,0,0,0,-1,1371,1597,0,0
154,-573,0,0,0,0,0,0,0,0,0,-1,1378,1597,0,0
161,-573,0,0,0,0,0,0,0,0,0,-1,1385,1597,0,0
168,-573,0,0,0,0,0,0,0,0,0,-1,1392,1597,0,0
175,-573,0,0,0,0,0,0,0,0,0,-1,1399,1597,0,0
182,-573,0,0,0,0,0,0,0,0,0,-1,1406,1597,0,0
189,-573,0,0,0,0,0,0,0,0,0,-1,1413,1597,0,0
196,-573,0,0,0,0,0,0,0,0,0,-1,1420,1597,0,0
203,-573,0,0,0,0,0,0,0,0,0,-1,1427,1597,0,0
210,-573,0,0,0,0,0,0,0,0,0,-1,1434,1597,0,0
217,-573,0,0,0,0,0,0,0,0,0,-1,1441,1597,0,0
224,-573,0,0,0,0,0,0,0,0,0,-1,1448,1597,0,0
231,-573,0,0,0,0,0,0,0,0,0,-1,1455,1597,0,0
238,-573,0,0,0,0,0,0,0,0,0,-1,1462,1597,0,0
245,-573,0,0,0,0,0,0,0,0,0,-1,1469,1597,0,0
252,-573,0,0,0,0,0,0,0,0,0,-1,1476,1597,0,0
259,-573,0,0,0,0,0,0,0,0,0,-1,1483,1597,0,0
266,-573,0,0,0,0,0,0,0,0,0,-1,1490,1597,0,0
273,-573,0,0,0,0,0,0,0,0,0,-1,1497,1597,0,0
280,-573,0,0,0,0,0,0,0,0,0,-1,1504,1597,0,0
287,-573,0,0,0,0,0,0,0,0,0,-1,1511,1597,0,0
294,-573,0,0,0,0,0,0,0,0,0,-1,1518,1597,0,0
301,-573,0,0,0,0,0,0,0,0,0,-1,1525,1597,0,0
308,-573,5.93042,9.71143,0,0,0,0,0,0,0,-1,1532,1597,5.93046,-9.71144
315,-573,4.34204,11.719,0,0,0,0,0,0,0,-1,1539,1597,4.34205,-11.719
322,-573,10.3269,7.77563,0,0,0,0,0,0,0,-1,1546,1597,10.327,-7.77565
329,-573,4.99573,3.80273,0,0,0,0,0,0,0,-1,1553,1597,4.9957,-3.80273
336,-573,4.85693,2.53455,0,0,0,0,0,0,0,-1,1560,1597,4.8569,-2.53459
343,-573,5.5946,2.15894,0,0,0,0,0,0,0,-1,1567,1597,5.59456,-2.1589
350,-573,2.53748,1.56433,0,0,0,0,0,0,0,-1,1574,1597,2.53753,-1.5643
357,-573,7.40247,4.03613,0,0,0,0,0,0,0,-1,1581,1597,7.40244,-4.03614
364,-573,7.14551,3.02087,0,0,0,0,0,0,0,-1,1588,1597,7.14556,-3.02084
371,-573,6.88867,2.00549,0,0,0,0,0,0,0,-1,1595,1597,6.88868,-2.00553
378,-573,8.62012,6.09106,0,0,0,0,0,0,0,-1,1602,1597,8.62012,-6.09103
385,-573,6.54346,-0.951904,0,0,0,0,0,0,0,-1,1609,1597,6.54349,0.951901
392,-573,17.795,36.7909,0,0,0,0,0,0,0,-1,1616,1597,17.7951,-36.7909
399,-573,17.6506,36.3021,0,0,0,0,0,0,0,-1,1623,1597,17.6506,-36.3021
406,-573,17.1672,35.6445,0,0,0,0,0,0,0,-1,1630,1597,17.1672,-35.6446
413,-573,18.2855,33.5858,0,0,0,0,0,0,0,-1,1637,1597,18.2855,-33.5858
420,-573,18.5062,36.0178,0,0,0,0,0,0,0,-1,1644,1597,18.5063,-36.0179
427,-573,18.0959,35.9343,0,0,0,0,0,0,0,-1,1651,1597,18.096,-35.9343
434,-573,17.7323,34.3994,0,0,0,0,0,0,0,-1,1658,1597,17.7323,-34.3994
441,-573,17.6344,33.9492,0,0,0,0,0,0,0,-1,1665,1597,17.6343,-33.9493
448,-573,17.5547,33.2793,0.00637741,0.0206281,-0.00861219,0.0246804,0.00232508,-1.131,0.0157359,0.0445402,1672,1597,17.5547,-33.2793
455,-573,17.6183,32.5155,0.0058403,0.0174543,-0.00776213,0.0213412,0.00195338,-1.10655,0.0136231,0.0334743,1679,1597,17.6183,-32.5155
462,-573,17.7316,31.787,0.00511411,0.0147443,-0.00670778,0.0181863,0.00167212,-1.0967,0.0116071,0.0223867,1686,1597,17.7316,-31.787
469,-573,17.7032,31.267,0.00466902,0.0116285,-0.00571507,0.0148399,0.00145767,-1.05886,0.00944491,0.014359,1693,1597,17.7032,-31.2669
476,-573,17.6888,30.7418,0.00415185,0.00880709,-0.00462249,0.0116549,0.00130402,-1.01864,0.0073738,0.0130504,1700,1597,17.6888,-30.7418
483,-573,17.7062,30.2145,0.00353086,0.00584942,-0.00367083,0.00853967,0.000840607,-0.938347,0.00543463,0.0126882,1707,1597,17.7062,-30.2145
490,-573,17.6774,29.6652,0.00271862,0.00374599,-0.00263048,0.00591247,0.000552141,-0.881826,0.0037711,0.0138248,1714,1597,17.6773,-29.6652
497,-573,17.6888,29.1023,0.00180322,0.0023231,-0.00183032,0.00391184,0.000214478,-0.855937,0.00253942,0.0212139,1721,1597,17.6889,-29.1023
504,-573,17.6564,28.568,0.000763111,0.00105152,-0.000902744,0.0018215,-6.87322e-06,-0.864599,0.00121663,0.0186065,1728,1597,17.6563,-28.568
511,-573,17.6429,28.0122,-0.000338566,0.000212213,0.000250891,0.000309363,-0.000435716,1.20136,0.000432229,0.0182861,1735,1597,17.6429,-28.0122
518,-573,17.588,27.4879,-0.00144873,-0.000500115,0.00134607,0.000452767,-0.00240161,0.954788,0.00177139,0.0139864,1742,1597,17.588,-27.4879
525,-573,17.5725,26.9288,-0.0026104,-0.0010316,0.00265309,0.000947044,-0.00458904,0.929997,0.00341905,0.0173967,1749,1597,17.5725,-26.9289
532,-573,17.5824,26.3654,-0.00384394,-0.00152701,0.00434549,0.00181178,-0.00718273,0.915663,0.00549293,0.0174967,1756,1597,17.5824,-26.3653
539,-573,17.5112,25.8203,-0.00522624,-0.00199845,0.00646771,0.00305369,-0.0102784,0.907667,0.00806521,0.0258006,1763,1597,17.5112,-25.8203
546,-573,17.5905,25.2726,-0.00680197,-0.00248319,0.00924998,0.00485611,-0.0141413,0.900069,0.0113965,0.0395942,1770,1597,17.5905,-25.2726
553,-573,17.0488,24.8563,-0.00855999,-0.00284113,0.0126335,0.00725253,-0.0186536,0.896691,0.0154322,0.0457014,1777,1597,17.0488,-24.8563
560,-573,16.8823,24.4391,-0.0105491,-0.00306978,0.0167049,0.0103089,-0.0239278,0.895516,0.0202812,0.0455397,1784,1597,16.8824,-24.439
567,-573,16.8137,24.2159,0,0,0,0,0,0,0,-1,1791,1597,16.8137,-24.216
574,-573,0.83374,5.7041,0,0,0,0,0,0,0,-1,1798,1597,0.833718,-5.70405
581,-573,-0.224854,7.41602,0,0,0,0,0,0,0,-1,1805,1597,-0.224904,-7.41596
588,-573,-0.134033,7.67065,0,0,0,0,0,0,0,-1,1812,1597,-0.134037,-7.67063
595,-573,-0.0825195,8.35083,0,0,0,0,0,0,0,-1,1819,1597,-0.0824684,-8.35088
602,-573,0,0,0,0,0,0,0,0,0,-1,1826,1597,0,0
609,-573,0,0,0,0,0,0,0,0,0,-1,1833,1597,0,0
616,-573,0,0,0,0,0,0,0,0,0,-1,1840,1597,0,0
623,-573,0,0,0,0,0,0,0,0,0,-1,1847,1597,0,0
630,-573,0,0,0,0,0,0,0,0,0,-1,1854,1597,0,0
637,-573,0,0,0,0,0,0,0,0,0,-1,1861,1597,0,0
644,-573,0,0,0,0,0,0,0,0,0,-1,1868,1597,0,0
651,-573,0,0,0,0,0,0,0,0,0,-1,1875,1597,0,0
658,-573,0,0,0,0,0,0,0,0,0,-1,1882,1597,0,0
665,-573,0,0,0,0,0,0,0,0,0,-1,1889,1597,0,0
672,-573,0,0,0,0,0,0,0,0,0,-1,1896,1597,0,0
679,-573,0,0,0,0,0,0,0,0,0,-1,1903,1597,0,0
686,-573,0,0,0,0,0,0,0,0,0,-1,1910,1597,0,0
693,-573,0,0,0,0,0,0,0,0,0,-1,1917,1597,0,0
700,-573,0,0,0,0,0,0,0,0,0,-1,1924,1597,0,0
707,-573,0,0,0,0,0,0,0,0,0,-1,1931,1597,0,0
714,-573,0,0,0,0,0,0,0,0,0,-1,1938,1597,0,0
721,-573,0,0,0,0,0,0,0,0,0,-1,1945,1597,0,0
728,-573,0,0,0,0,0,0,0,0,0,-1,1952,1597,0,0
735,-573,0,0,0,0,0,0,0,0,0,-1,1959,1597,0,0
742,-573,0,0,0,0,0,0,0,0,0,-1,1966,1597,0,0
749,-573,0,0,0,0,0,0,0,0,0,-1,1973,1597,0,0
756,-573,0,0,0,0,0,0,0,0,0,-1,1980,1597,0,0
763,-573,0,0,0,0,0,0,0,0,0,-1,1987,1597,0,0
770,-573,0,0,0,0,0,0,0,0,0,-1,1994,1597,0,0
777,-573,0,0,0,0,0,0,0,0,0,-1,2001,1597,0,0
784,-573,0,0,0,0,0,0,0,0,0,-1,2008,1597,0,0
791,-573,0,0,0,0,0,0,0,0,0,-1,2015,1597,0,0
798,-573,0,0,0,0,0,0,0,0,0,-1,2022,1597,0,0
805,-573,0,0,0,0,0,0,0,0,0,-1,2029,1597,0,0
812,-573,0,0,0,0,0,0,0,0,0,-1,2036,1597,0,0
-700,-580,0,0,0,0,0,0,0,0,0,-1,524,1604,0,0
-693,-580,0,0,0,0,0,0,0,0,0,-1,531,1604,0,0
-686,-580,0,0,0,0,0,0,0,0,0,-1,538,1604,0,0
-679,-580,0,0,0,0,0,0,0,0,0,-1,545,1604,0,0
-672,-580,0,0,0,0,0,0,0,0,0,-1,552,1604,0,0
-665,-580,0,0,0,0,0,0,0,0,0,-1,559,1604,0,0
-658,-580,0,0,0,0,0,0,0,0,0,-1,566,1604,0,0
-651,-580,0,0,0,0,0,0,0,0,0,-1,573,1604,0,0
-644,-580,0,0,0,0,0,0,0,0,0,-1,580,1604,0,0
-637,-580,0,0,0,0,0,0,0,0,0,-1,587,1604,0,0
-630,-580,0,0,0,0,0,0,0,0,0,-1,594,1604,0,0
-623,-580,0,0,0,0,0,0,0,0,0,-1,601,1604,0,0
-616,-580,0,0,0,0,0,0,0,0,0,-1,608,1604,0,0
-609,-580,0,0,0,0,0,0,0,0,0,-1,615,1604,0,0
-602,-580,0,0,0,0,0,0,0,0,0,-1,622,1604,0,0
-595,-580,0,0,0,0,0,0,0,0,0,-1,629,1604,0,0
-588,-580,0,0,0,0,0,0,0,0,0,-1,636,1604,0,0
-581,-580,0,0,0,0,0,0,0,0,0,-1,643,1604,0,0
-574,-580,0,0,0,0,0,0,0,0,0,-1,650,1604,0,0
-567,-580,0,0,0,0,0,0,0,0,0,-1,657,1604,0,0
-560,-580,0,0,0,0,0,0,0,0,0,-1,664,1604,0,0
-553,-580,0,0,0,0,0,0,0,0,0,-1,671,1604,0,0
-546,-580,0,0,0,0,0,0,0,0,0,-1,678,1604,0,0
-539,-580,0,0,0,0,0,0,0,0,0,-1,685,1604,0,0
-532,-580,0,0,0,0,0,0,0,0,0,-1,692,1604,0,0
-525,-580,0,0,0,0,0,0,0,0,0,-1,699,1604,0,0
-518,-580,0,0,0,0,0,0,0,0,0,-1,706,1604,0,0
-511,-580,0,0,0,0,0,0,0,0,0,-1,713,1604,0,0
-504,-580,0,0,0,0,0,0,0,0,0,-1,720,1604,0,0
-497,-580,0,0,0,0,0,0,0,0,0,-1,727,1604,0,0
-490,-580,0,0,0,0,0,0,0,0,0,-1,734,1604,0,0
-483,-580,0,0,0,0,0,0,0,0,0,-1,741,1604,0,0
-476,-580,0,0,0,0,0,0,0,0,0,-1,748,1604,0,0
-469,-580,-1.69189,-0.38916,0,0,0,0,0,0,0,-1,755,1604,-1.69192,0.389188
-462,-580,-0.859863,0.675293,0,0,0,0,0,0,0,-1,762,1604,-0.859834,-0.675245
-455,-580,-0.730164,0.651978,0,0,0,0,0,0,0,-1,769,1604,-0.730153,-0.651957
-448,-580,-3.31891,2.07544,0,0,0,0,0,0,0,-1,776,1604,-3.3189,-2.07539
-441,-580,-1.63843,3.9469,0,0,0,0,0,0,0,-1,783,1604,-1.63842,-3.94695
-434,-580,0.23291,5.97876,0,0,0,0,0,0,0,-1,790,1604,0.232901,-5.97878
-427,-580,1.62756,8.05493,0,0,0,0,0,0,0,-1,797,1604,1.62758,-8.05488
-420,-580,0.986572,11.2383,0,0,0,0,0,0,0,-1,804,1604,0.986544,-11.2382
-413,-580,0.922913,21.5701,0,0,0,0,0,0,0,-1,811,1604,0.922905,-21.5701
-406,-580,0.380615,24.7654,0,0,0,0,0,0,0,-1,818,1604,0.380613,-24.7654
-399,-580,0.351929,25.5178,-0.00616184,0.000246594,-0.000530559,0.000290222,-0.00620546,-1.48875,0.00423703,0.0362103,825,1604,0.351922,-25.5178
-392,-580,0.32428,26.1166,-0.00532901,-0.000100485,-0.000411159,-6.835e-05,-0.00536115,-1.4928,0.00355154,0.0174268,832,1604,0.324277,-26.1166
-385,-580,0.281677,26.7135,-0.00419725,-0.00011309,-0.000235413,-9.95656e-05,-0.00421077,-1.51341,0.00277459,0.0132189,839,1604,0.281702,-26.7134
-378,-580,0.243469,27.3059,-0.00306598,3.81647e-05,7.49676e-05,3.99742e-05,-0.00306779,1.54666,0.00205865,0.0162135,846,1604,0.243494,-27.3059
-371,-580,0.222534,27.9053,-0.00195549,0.000203525,0.000333318,0.000253813,-0.00200578,1.42106,0.00142932,0.0149041,853,1604,0.222506,-27.9053
-364,-580,0.225159,28.4766,-0.000820178,0.000588979,0.000670596,0.000857092,-0.00108829,1.19045,0.00112581,0.0211287,860,1604,0.225171,-28.4765
-357,-580,0.208801,29.0065,0.000335383,0.00112462,0.00103224,0.0018351,-0.000375099,0.967972,0.00136571,0.0147151,867,1604,0.208799,-29.0065
-350,-580,0.168335,29.5999,0.00154894,0.00166748,0.00143723,0.00304666,0.000169756,0.806006,0.00197695,0.0118794,874,1604,0.168326,-29.5999
-343,-580,0.196167,30.1906,0.00270255,0.00244134,0.00196594,0.00454221,0.000601672,0.75223,0.00284884,0.0118947,881,1604,0.196169,-30.1906
-336,-580,0.191956,30.7389,0.00377262,0.00359565,0.00264862,0.00633424,0.00103404,0.768701,0.00392383,0.0191199,888,1604,0.191948,-30.7389
-329,-580,0.150696,31.3149,0.00479985,0.00482596,0.00331411,0.00812704,0.00149877,0.787367,0.00499397,0.0176537,895,1604,0.150716,-31.315
-322,-580,0.128418,31.8687,0.00589874,0.00656927,0.00422532,0.0104726,0.00199541,0.824989,0.0064208,0.0193815,902,1604,0.128423,-31.8687
-315,-580,0.143494,32.4264,0.00714022,0.00919271,0.00544042,0.0137028,0.00263009,0.878619,0.00839697,0.0220227,909,1604,0.143464,-32.4264
-308,-580,0.207458,33.1373,0.00860918,0.0115998,0.00670955,0.0169787,0.00323033,0.895038,0.0104107,0.0331395,916,1604,0.207459,-33.1373
-301,-580,0.296387,33.5167,0.0109253,0.0146748,0.00873773,0.0217366,0.00386346,0.891075,0.0133904,0.0305333,923,1604,0.296367,-33.5167
-294,-580,0.358765,34.2722,0,0,0,0,0,0,0,-1,930,1604,0.358784,-34.2723
-287,-580,0.464844,35.5021,0,0,0,0,0,0,0,-1,937,1604,0.464844,-35.502
-280,-580,0.702209,36.517,0,0,0,0,0,0,0,-1,944,1604,0.702229,-36.5169
-273,-580,1.39575,28.6672,0,0,0,0,0,0,0,-1,951,1604,1.39577,-28.6672
-266,-580,1.71777,25.6515,0,0,0,0,0,0,0,-1,958,1604,1.71775,-25.6515
-259,-580,1.31091,9.11536,0,0,0,0,0,0,0,-1,965,1604,1.31092,-9.11539
-252,-580,1.07629,7.74097,0,0,0,0,0,0,0,-1,972,1604,1.07627,-7.74101
-245,-580,3.80304,9.16028,0,0,0,0,0,0,0,-1,979,1604,3.80306,-9.16034
-238,-580,-10.3588,1.57556,0,0,0,0,0,0,0,-1,986,1604,-10.3588,-1.5755
-231,-580,-10.576,6.43787,0,0,0,0,0,0,0,-1,993,1604,-10.576,-6.43783
-224,-580,-8.27435,7.58972,0,0,0,0,0,0,0,-1,1000,1604,-8.27435,-7.5897
-217,-580,-5.85632,9.51221,0,0,0,0,0,0,0,-1,1007,1604,-5.85632,-9.5122
-210,-580,-3.6684,11.1569,0,0,0,0,0,0,0,-1,1014,1604,-3.66839,-11.1569
-203,-580,-1.92474,12.7845,0,0,0,0,0,0,0,-1,1021,1604,-1.92477,-12.7845
-196,-580,-2.28552,10.3289,0,0,0,0,0,0,0,-1,1028,1604,-2.28552,-10.3288
-189,-580,-4.58252,7.59058,0,0,0,0,0,0,0,-1,1035,1604,-4.58256,-7.59057
-182,-580,-5.45874,7.65942,0,0,0,0,0,0,0,-1,1042,1604,-5.45876,-7.65939
-175,-580,-6.38977,7.55005,0,0,0,0,0,0,0,-1,1049,1604,-6.38981,-7.5501
-168,-580,0,0,0,0,0,0,0,0,0,-1,1056,1604,0,0
-161,-580,0,0,0,0,0,0,0,0,0,-1,1063,1604,0,0
-154,-580,0,0,0,0,0,0,0,0,0,-1,1070,1604,0,0
-147,-580,0,0,0,0,0,0,0,0,0,-1,1077,1604,0,0
-140,-580,0,0,0,0,0,0,0,0,0,-1,1084,1604,0,0
-133,-580,0,0,0,0,0,0,0,0,0,-1,1091,1604,0,0
-126,-580,0,0,0,0,0,0,0,0,0,-1,1098,1604,0,0
-119,-580,0,0,0,0,0,0,0,0,0,-1,1105,1604,0,0
-112,-580,0,0,0,0,0,0,0,0,0,-1,1112,1604,0,0
-105,-580,0,0,0,0,0,0,0,0,0,-1,1119,1604,0,0
-98,-580,0,0,0,0,0,0,0,0,0,-1,1126,1604,0,0
-91,-580,0,0,0,0,0,0,0,0,0,-1,1133,1604,0,0
-84,-580,0,0,0,0,0,0,0,0,0,-1,1140,1604,0,0
-77,-580,0,0,0,0,0,0,0,0,0,-1,1147,1604,0,0
-70,-580,0,0,0,0,0,0,0,0,0,-1,1154,1604,0,0
-63,-580,0,0,0,0,0,0,0,0,0,-1,1161,1604,0,0
-56,-580,0,0,0,0,0,0,0,0,0,-1,1168,1604,0,0
-49,-580,0,0,0,0,0,0,0,0,0,-1,1175,1604,0,0
-42,-580,0,0,0,0,0,0,0,0,0,-1,1182,1604,0,0
-35,-580,0,0,0,0,0,0,0,0,0,-1,1189,1604,0,0
-28,-580,0,0,0,0,0,0,0,0,0,-1,1196,1604,0,0
-21,-580,0,0,0,0,0,0,0,0,0,-1,1203,1604,0,0
-14,-580,0,0,0,0,0,0,0,0,0,-1,1210,1604,0,0
-7,-580,0,0,0,0,0,0,0,0,0,-1,1217,1604,0,0
0,-580,0,0,0,0,0,0,0,0,0,-1,1224,1604,0,0
7,-580,0,0,0,0,0,0,0,0,0,-1,1231,1604,0,0
14,-580,0,0,0,0,0,0,0,0,0,-1,1238,1604,0,0
21,-580,0,0,0,0,0,0,0,0,0,-1,1245,1604,0,0
28,-580,0,0,0,0,0,0,0,0,0,-1,1252,1604,0,0
35,-580,0,0,0,0,0,0,0,0,0,-1,1259,1604,0,0
42,-580,0,0,0,0,0,0,0,0,0,-1,1266,1604,0,0
49,-580,0,0,0,0,0,0,0,0,0,-1,1273,1604,0,0
56,-580,0,0,0,0,0,0,0,0,0,-1,1280,1604,0,0
63,-580,0,0,0,0,0,0,0,0,0,-1,1287,1604,0,0
70,-580,0,0,0,0,0,0,0,0,0,-1,1294,1604,0,0
77,-580,0,0,0,0,0,0,0,0,0,-1,1301,1604,0,0
84,-580,0,0,0,0,0,0,0,0,0,-1,1308,1604,0,0
91,-580,0,0,0,0,0,0,0,0,0,-1,1315,1604,0,0
98,-580,0,0,0,0,0,0,0,0,0,-1,1322,1604,0,0
105,-580,0,0,0,0,0,0,0,0,0,-1,1329,1604,0,0
112,-580,0,0,0,0,0,0,0,0,0,-1,1336,1604,0,0
119,-580,0,0,0,0,0,0,0,0,0,-1,1343,1604,0,0
126,-580,0,0,0,0,0,0,0,0,0,-1,1350,1604,0,0
133,-580,0,0,0,0,0,0,0,0,0,-1,1357,1604,0,0
140,-580,0,0,0,0,0,0,0,0,0,-1,1364,1604,0,0
147,-580,0,0,0,0,0,0,0,0,0,-1,1371,1604,0,0
154,-580,0,0,0,0,0,0,0,0,0,-1,1378,1604,0,0
161,-580,0,0,0,0,0,0,0,0,0,-1,1385,1604,0,0
168,-580,0,0,0,0,0,0,0,0,0,-1,1392,1604,0,0
175,-580,0,0,0,0,0,0,0,0,0,-1,1399,1604,0,0
182,-580,0,0,0,0,0,0,0,0,0,-1,1406,1604,0,0
189,-580,0,0,0,0,0,0,0,0,0,-1,1413,1604,0,0
196,-580,0,0,0,0,0,0,0,0,0,-1,1420,1604,0,0
203,-580,0,0,0,0,0,0,0,0,0,-1,1427,1604,0,0
210,-580,0,0,0,0,0,0,0,0,0,-1,1434,1604,0,0
217,-580,0,0,0,0,0,0,0,0,0,-1,1441,1604,0,0
224,-580,0,0,0,0,0,0,0,0,0,-1,1448,1604,0,0
231,-580,0,0,0,0,0,0,0,0,0,-1,1455,1604,0,0
238,-580,0,0,0,0,0,0,0,0,0,-1,1462,1604,0,0
245,-580,0,0,0,0,0,0,0,0,0,-1,1469,1604,0,0
252,-580,0,0,0,0,0,0,0,0,0,-1,1476,1604,0,0
259,-580,0,0,0,0,0,0,0,0,0,-1,1483,1604,0,0
266,-580,0,0,0,0,0,0,0,0,0,-1,1490,1604,0,0
273,-580,0,0,0,0,0,0,0,0,0,-1,1497,1604,0,0
280,-580,0,0,0,0,0,0,0,0,0,-1,1504,1604,0,0
287,-580,0,0,0,0,0,0,0,0,0,-1,1511,1604,0,0
294,-580,4.0437,0.177368,0,0,0,0,0,0,0,-1,1518,1604,4.04369,-0.177371
301,-580,7.55164,8.05798,0,0,0,0,0,0,0,-1,1525,1604,7.55158,-8.05802
308,-580,5.9126,9.99341,0,0,0,0,0,0,0,-1,1532,1604,5.91255,-9.99337
315,-580,4.27356,11.9287,0,0,0,0,0,0,0,-1,1539,1604,4.27352,-11.9287
322,-580,10.2366,7.50281,0,0,0,0,0,0,0,-1,1546,1604,10.2366,-7.50282
329,-580,10.5962,8.69641,0,0,0,0,0,0,0,-1,1553,1604,10.5962,-8.69642
336,-580,3.66431,1.58862,0,0,0,0,0,0,0,-1,1560,1604,3.6643,-1.58864
343,-580,3.32227,1.39636,0,0,0,0,0,0,0,-1,1567,1604,3.32222,-1.39633
350,-580,8.71277,4.0564,0,0,0,0,0,0,0,-1,1574,1604,8.71271,-4.05638
357,-580,8.52332,3.08154,0,0,0,0,0,0,0,-1,1581,1604,8.52332,-3.08157
364,-580,8.25818,2.07605,0,0,0,0,0,0,0,-1,1588,1604,8.25812,-2.07608
371,-580,7.42114,7.14282,0,0,0,0,0,0,0,-1,1595,1604,7.42119,-7.14281
378,-580,7.9718,6.6731,0,0,0,0,0,0,0,-1,1602,1604,7.9718,-6.67307
385,-580,8.52246,6.20337,0,0,0,0,0,0,0,-1,1609,1604,8.52241,-6.20334
392,-580,16.9742,36.5361,0,0,0,0,0,0,0,-1,1616,1604,16.9743,-36.5361
399,-580,16.8099,36.213,0,0,0,0,0,0,0,-1,1623,1604,16.8099,-36.213
406,-580,16.7189,35.7031,0,0,0,0,0,0,0,-1,1630,1604,16.7189,-35.7031
413,-580,17.1982,35.4146,0,0,0,0,0,0,0,-1,1637,1604,17.1983,-35.4146
420,-580,17.5684,35.6896,0,0,0,0,0,0,0,-1,1644,1604,17.5684,-35.6896
427,-580,17.4591,35.0222,0.0063025,0.0216021,-0.00771052,0.0248138,0.00309083,-1.17612,0.0156145,0.0434697,1651,1604,17.4591,-35.0222
434,-580,17.2266,34.2784,0.00548768,0.0200408,-0.00729546,0.0230682,0.00246026,-1.17745,0.0146279,0.0409441,1658,1604,17.2266,-34.2785
441,-580,17.0688,33.4797,0.00505596,0.0178946,-0.00685469,0.0208665,0.00208409,-1.1617,0.013271,0.0232616,1665,1604,17.0688,-33.4797
448,-580,17.1533,32.8547,0.00467821,0.0157326,-0.0063036,0.018589,0.00182177,-1.14533,0.0118323,0.0170822,1672,1604,17.1533,-32.8547
455,-580,17.212,32.3612,0.00424025,0.0133516,-0.0057617,0.0161411,0.00145077,-1.11992,0.0103112,0.0207174,1679,1604,17.212,-32.3612
462,-580,17.1895,31.808,0.00368272,0.0112072,-0.00501981,0.0137181,0.00117176,-1.10698,0.00878092,0.0224221,1686,1604,17.1894,-31.808
469,-580,17.189,31.274,0.00339303,0.00873448,-0.00432815,0.0111496,0.000977923,-1.06183,0.00712948,0.0183655,1693,1604,17.1889,-31.2741
476,-580,17.158,30.7432,0.00302591,0.0064639,-0.00348089,0.00862711,0.000862693,-1.01475,0.0054865,0.0136878,1700,1604,17.1579,-30.7431
483,-580,17.1511,30.2245,0.00250797,0.00401009,-0.0027084,0.00606964,0.000448418,-0.920654,0.00390555,0.0139419,1707,1604,17.1512,-30.2245
490,-580,17.1239,29.7197,0.00183092,0.00225831,-0.00187024,0.00392703,0.000162204,-0.842281,0.00256566,0.0183697,1714,1604,17.1238,-29.7197
497,-580,17.1005,29.1541,0.00101354,0.00106444,-0.00125099,0.00229024,-0.000212255,-0.795569,0.00160227,0.0146146,1721,1604,17.1005,-29.154
504,-580,17.0629,28.5883,1.11146e-05,2.47187e-05,-0.000381336,0.000399313,-0.00036348,-0.794316,0.000440561,0.0175122,1728,1604,17.0629,-28.5883
511,-580,17.0515,28.0326,-0.00109247,-0.000646578,0.000811823,-2.76461e-05,-0.00171141,0.919408,0.00113184,0.0174066,1735,1604,17.0516,-28.0326
518,-580,17.0258,27.4888,-0.00222435,-0.00115256,0.00190312,0.000288675,-0.00366559,0.922638,0.00254542,0.0161054,1742,1604,17.0258,-27.4888
525,-580,17.0236,26.9388,-0.003537,-0.00159762,0.00333783,0.000908528,-0.00604315,0.926764,0.00436325,0.021071,1749,1604,17.0236,-26.9389
532,-580,16.9613,26.4375,-0.0050507,-0.00195546,0.00530597,0.00202398,-0.00903014,0.927299,0.00679597,0.0308755,1756,1604,16.9613,-26.4375
539,-580,17.1165,25.8197,0,0,0,0,0,0,0,-1,1763,1604,17.1164,-25.8197
546,-580,17.4141,25.2264,0,0,0,0,0,0,0,-1,1770,1604,17.4141,-25.2265
553,-580,16.0699,24.91,0,0,0,0,0,0,0,-1,1777,1604,16.0699,-24.91
560,-580,15.9314,24.3282,0,0,0,0,0,0,0,-1,1784,1604,15.9314,-24.3282
567,-580,3.87708,4.0647,0,0,0,0,0,0,0,-1,1791,1604,3.87711,-4.06471
574,-580,2.31653,5.62952,0,0,0,0,0,0,0,-1,1798,1604,2.31654,-5.62947
581,-580,1.60876,6.67664,0,0,0,0,0,0,0,-1,1805,1604,1.60873,-6.67667
588,-580,1.38684,7.14441,0,0,0,0,0,0,0,-1,1812,1604,1.38689,-7.14443
595,-580,0,0,0,0,0,0,0,0,0,-1,1819,1604,0,0
602,-580,0,0,0,0,0,0,0,0,0,-1,1826,1604,0,0
609,-580,0,0,0,0,0,0,0,0,0,-1,1833,1604,0,0
616,-580,0,0,0,0,0,0,0,0,0,-1,1840,1604,0,0
623,-580,0,0,0,0,0,0,0,0,0,-1,1847,1604,0,0
630,-580,0,0,0,0,0,0,0,0,0,-1,1854,1604,0,0
637,-580,0,0,0,0,0,0,0,0,0,-1,1861,1604,0,0
644,-580,0,0,0,0,0,0,0,0,0,-1,1868,1604,0,0
651,-580,0,0,0,0,0,0,0,0,0,-1,1875,1604,0,0
658,-580,0,0,0,0,0,0,0,0,0,-1,1882,1604,0,0
665,-580,0,0,0,0,0,0,0,0,0,-1,1889,1604,0,0
672,-580,0,0,0,0,0,0,0,0,0,-1,1896,1604,0,0
679,-580,0,0,0,0,0,0,0,0,0,-1,1903,1604,0,0
686,-580,0,0,0,0,0,0,0,0,0,-1,1910,1604,0,0
693,-580,0,0,0,0,0,0,0,0,0,-1,1917,1604,0,0
700,-580,0,0,0,0,0,0,0,0,0,-1,1924,1604,0,0
707,-580,0,0,0,0,0,0,0,0,0,-1,1931,1604,0,0
714,-580,0,0,0,0,0,0,0,0,0,-1,1938,1604,0,0
721,-580,0,0,0,0,0,0,0,0,0,-1,1945,1604,0,0
728,-580,0,0,0,0,0,0,0,0,0,-1,1952,1604,0,0
735,-580,0,0,0,0,0,0,0,0,0,-1,1959,1604,0,0
742,-580,0,0,0,0,0,0,0,0,0,-1,1966,1604,0,0
749,-580,0,0,0,0,0,0,0,0,0,-1,1973,1604,0,0
756,-580,0,0,0,0,0,0,0,0,0,-1,1980,1604,0,0
763,-580,0,0,0,0,0,0,0,0,0,-1,1987,1604,0,0
770,-580,0,0,0,0,0,0,0,0,0,-1,1994,1604,0,0
777,-580,0,0,0,0,0,0,0,0,0,-1,2001,1604,0,0
784,-580,0,0,0,0,0,0,0,0,0,-1,2008,1604,0,0
791,-580,0,0,0,0,0,0,0,0,0,-1,2015,1604,0,0
798,-580,0,0,0,0,0,0,0,0,0,-1,2022,1604,0,0
805,-580,0,0,0,0,0,0,0,0,0,-1,2029,1604,0,0
812,-580,0,0,0,0,0,0,0,0,0,-1,2036,1604,0,0
-700,-587,0,0,0,0,0,0,0,0,0,-1,524,1611,0,0
-693,-587,0,0,0,0,0,0,0,0,0,-1,531,1611,0,0
-686,-587,0,0,0,0,0,0,0,0,0,-1,538,1611,0,0
-679,-587,0,0,0,0,0,0,0,0,0,-1,545,1611,0,0
-672,-587,0,0,0,0,0,0,0,0,0,-1,552,1611,0,0
-665,-587,0,0,0,0,0,0,0,0,0,-1,559,1611,0,0
-658,-587,0,0,0,0,0,0,0,0,0,-1,566,1611,0,0
-651,-587,0,0,0,0,0,0,0,0,0,-1,573,1611,0,0
-644,-587,0,0,0,0,0,0,0,0,0,-1,580,1611,0,0
-637,-587,0,0,0,0,0,0,0,0,0,-1,587,1611,0,0
-630,-587,0,0,0,0,0,0,0,0,0,-1,594,1611,0,0
-623,-587,0,0,0,0,0,0,0,0,0,-1,601,1611,0,0
-616,-587,0,0,0,0,0,0,0,0,0,-1,608,1611,0,0
-609,-587,0,0,0,0,0,0,0,0,0,-1,615,1611,0,0
-602,-587,0,0,0,0,0,0,0,0,0,-1,622,1611,0,0
-595,-587,0,0,0,0,0,0,0,0,0,-1,629,1611,0,0
-588,-587,0,0,0,0,0,0,0,0,0,-1,636,1611,0,0
-581,-587,0,0,0,0,0,0,0,0,0,-1,643,1611,0,0
-574,-587,0,0,0,0,0,0,0,0,0,-1,650,1611,0,0
-567,-587,0,0,0,0,0,0,0,0,0,-1,657,1611,0,0
-560,-587,0,0,0,0,0,0,0,0,0,-1,664,1611,0,0
-553,-587,0,0,0,0,0,0,0,0,0,-1,671,1611,0,0
-546,-587,0,0,0,0,0,0,0,0,0,-1,678,1611,0,0
-539,-587,0,0,0,0,0,0,0,0,0,-1,685,1611,0,0
-532,-587,0,0,0,0,0,0,0,0,0,-1,692,1611,0,0
-525,-587,0,0,0,0,0,0,0,0,0,-1,699,1611,0,0
-518,-587,0,0,0,0,0,0,0,0,0,-1,706,1611,0,0
-511,-587,0,0,0,0,0,0,0,0,0,-1,713,1611,0,0
-504,-587,0,0,0,0,0,0,0,0,0,-1,720,1611,0,0
-497,-587,0,0,0,0,0,0,0,0,0,-1,727,1611,0,0
-490,-587,0,0,0,0,0,0,0,0,0,-1,734,1611,0,0
-483,-587,0,0,0,0,0,0,0,0,0,-1,741,1611,0,0
-476,-587,0,0,0,0,0,0,0,0,0,-1,748,1611,0,0
-469,-587,0,0,0,0,0,0,0,0,0,-1,755,1611,0,0
-462,-587,-0.714355,-0.418457,0,0,0,0,0,0,0,-1,762,1611,-0.714359,0.418483
-455,-587,-0.619812,-0.522461,0,0,0,0,0,0,0,-1,769,1611,-0.619802,0.522515
-448,-587,-0.461731,-0.686523,0,0,0,0,0,0,0,-1,776,1611,-0.461739,0.686559
-441,-587,-3.56555,2.72253,0,0,0,0,0,0,0,-1,783,1611,-3.56555,-2.72259
-434,-587,-1.77319,4.76318,0,0,0,0,0,0,0,-1,790,1611,-1.77318,-4.76323
-427,-587,0.0346069,6.92944,0,0,0,0,0,0,0,-1,797,1611,0.034587,-6.92941
-420,-587,-0.647156,10.1157,0,0,0,0,0,0,0,-1,804,1611,-0.647128,-10.1158
-413,-587,2.13971,10.3901,0,0,0,0,0,0,0,-1,811,1611,2.13971,-10.3902
-406,-587,2.2525,19.7814,0,0,0,0,0,0,0,-1,818,1611,2.25253,-19.7814
-399,-587,1.11475,25.5175,0,0,0,0,0,0,0,-1,825,1611,1.11475,-25.5175
-392,-587,1.03442,26.075,-0.00754252,-0.000392292,-0.000869533,-0.000288069,-0.00764674,-1.4515,0.00500457,0.0463629,832,1611,1.03442,-26.075
-385,-587,0.808594,26.6854,-0.00609741,-0.00036466,-0.000543318,-0.000313622,-0.00614845,-1.47713,0.00399852,0.0228385,839,1611,0.808613,-26.6854
-378,-587,0.802612,27.3383,-0.00474244,-0.00030113,-0.000166657,-0.000294886,-0.00474869,-1.53334,0.00307222,0.0148344,846,1611,0.802584,-27.3383
-371,-587,0.785278,27.9299,-0.00344881,-0.000171601,0.000131435,-0.000166338,-0.00345407,1.53078,0.00224932,0.0152237,853,1611,0.785283,-27.9299
-364,-587,0.777405,28.4856,-0.00219631,0.00010603,0.000454767,0.000192602,-0.00228288,1.38268,0.00159001,0.0180653,860,1611,0.777434,-28.4855
-357,-587,0.744568,29.0149,-0.000969361,0.000524563,0.000788583,0.000863794,-0.00130859,1.16455,0.00126296,0.0165539,867,1611,0.744548,-29.0149
-350,-587,0.710571,29.6401,0.000265854,0.000956046,0.00113916,0.00180124,-0.000579336,0.932473,0.0014335,0.010406,874,1611,0.710586,-29.6402
-343,-587,0.697754,30.2223,0.00140186,0.00158285,0.00156262,0.00305759,-7.28881e-05,0.814323,0.00206312,0.0128687,881,1611,0.697768,-30.2223
-336,-587,0.690063,30.7571,0.00244664,0.00249899,0.00209192,0.0045649,0.000380737,0.791655,0.00292463,0.0119577,888,1611,0.69009,-30.757
-329,-587,0.664124,31.3002,0.00343971,0.00350007,0.00258398,0.00605405,0.000885729,0.791238,0.00377558,0.0138908,895,1611,0.664146,-31.3002
-322,-587,0.682373,31.8551,0.00439213,0.00495062,0.0032328,0.00791621,0.00142654,0.82848,0.00487208,0.0183148,902,1611,0.682386,-31.8551
-315,-587,0.648193,32.4197,0.00541702,0.00707584,0.00413557,0.0104644,0.00202851,0.884363,0.006408,0.0158995,909,1611,0.648181,-32.4197
-308,-587,0.636353,32.9702,0.0066459,0.00898909,0.00506122,0.0130126,0.00262244,0.899137,0.00794646,0.0165197,916,1611,0.636334,-32.9703
-301,-587,0.705627,33.5201,0.00857984,0.0114838,0.00662129,0.0168105,0.00325321,0.893336,0.0102953,0.016288,923,1611,0.705613,-33.5201
-294,-587,0.763428,34.1219,0.0106957,0.0142444,0.00852233,0.0211751,0.00376498,0.888031,0.0130442,0.0283708,930,1611,0.763405,-34.1219
-287,-587,0.747498,34.8843,0.01319,0.0181025,0.0109034,0.0268228,0.00446964,0.896186,0.0165939,0.0447542,937,1611,0.747507,-34.8843
-280,-587,1.01257,35.9991,0,0,0,0,0,0,0,-1,944,1611,1.01256,-35.9991
-273,-587,0.926697,36.5901,0,0,0,0,0,0,0,-1,951,1611,0.926685,-36.5901
-266,-587,1.19897,37.3323,0,0,0,0,0,0,0,-1,958,1611,1.19895,-37.3323
-259,-587,1.76306,28.5784,0,0,0,0,0,0,0,-1,965,1611,1.76307,-28.5784
-252,-587,1.30188,10.3103,0,0,0,0,0,0,0,-1,972,1611,1.30188,-10.3104
-245,-587,1.52075,27.4791,0,0,0,0,0,0,0,-1,979,1611,1.52076,-27.4791
-238,-587,2.87799,9.53821,0,0,0,0,0,0,0,-1,986,1611,2.87797,-9.53823
-231,-587,2.49548,9.14465,0,0,0,0,0,0,0,-1,993,1611,2.49551,-9.14468
-224,-587,-9.72528,9.21069,0,0,0,0,0,0,0,-1,1000,1611,-9.72529,-9.21072
-217,-587,-7.07495,10.7847,0,0,0,0,0,0,0,-1,1007,1611,-7.07495,-10.7847
-210,-587,-4.72308,12.5889,0,0,0,0,0,0,0,-1,1014,1611,-4.72307,-12.5888
-203,-587,-3.2583,13.7289,0,0,0,0,0,0,0,-1,1021,1611,-3.25828,-13.7289
-196,-587,-1.953,14.8145,0,0,0,0,0,0,0,-1,1028,1611,-1.95302,-14.8144
-189,-587,-3.04138,8.66638,0,0,0,0,0,0,0,-1,1035,1611,-3.04136,-8.66635
-182,-587,-3.97095,9.7146,0,0,0,0,0,0,0,-1,1042,1611,-3.97093,-9.71461
-175,-587,-4.80969,8.37878,0,0,0,0,0,0,0,-1,1049,1611,-4.80964,-8.37883
-168,-587,-5.91394,8.72546,0,0,0,0,0,0,0,-1,1056,1611,-5.91398,-8.72542
-161,-587,-7.06946,8.88501,0,0,0,0,0,0,0,-1,1063,1611,-7.06947,-8.885
-154,-587,-2.24731,6.56519,0,0,0,0,0,0,0,-1,1070,1611,-2.24728,-6.56517
-147,-587,0,0,0,0,0,0,0,0,0,-1,1077,1611,0,0
-140,-587,0,0,0,0,0,0,0,0,0,-1,1084,1611,0,0
-133,-587,0,0,0,0,0,0,0,0,0,-1,1091,1611,0,0
-126,-587,0,0,0,0,0,0,0,0,0,-1,1098,1611,0,0
-119,-587,0,0,0,0,0,0,0,0,0,-1,1105,1611,0,0
-112,-587,0,0,0,0,0,0,0,0,0,-1,1112,1611,0,0
-105,-587,0,0,0,0,0,0,0,0,0,-1,1119,1611,0,0
-98,-587,0,0,0,0,0,0,0,0,0,-1,1126,1611,0,0
-91,-587,0,0,0,0,0,0,0,0,0,-1,1133,1611,0,0
-84,-587,0,0,0,0,0,0,0,0,0,-1,1140,1611,0,0
-77,-587,0,0,0,0,0,0,0,0,0,-1,1147,1611,0,0
-70,-587,0,0,0,0,0,0,0,0,0,-1,1154,1611,0,0
-63,-587,0,0,0,0,0,0,0,0,0,-1,1161,1611,0,0
-56,-587,0,0,0,0,0,0,0,0,0,-1,1168,1611,0,0
-49,-587,0,0,0,0,0,0,0,0,0,-1,1175,1611,0,0
-42,-587,0,0,0,0,0,0,0,0,0,-1,1182,1611,0,0
-35,-587,0,0,0,0,0,0,0,0,0,-1,1189,1611,0,0
-28,-587,0,0,0,0,0,0,0,0,0,-1,1196,1611,0,0
-21,-587,0,0,0,0,0,0,0,0,0,-1,1203,1611,0,0
-14,-587,0,0,0,0,0,0,0,0,0,-1,1210,1611,0,0
-7,-587,0,0,0,0,0,0,0,0,0,-1,1217,1611,0,0
0,-587,0,0,0,0,0,0,0,0,0,-1,1224,1611,0,0
7,-587,0,0,0,0,0,0,0,0,0,-1,1231,1611,0,0
14,-587,0,0,0,0,0,0,0,0,0,-1,1238,1611,0,0
21,-587,0,0,0,0,0,0,0,0,0,-1,1245,1611,0,0
28,-587,0,0,0,0,0,0,0,0,0,-1,1252,1611,0,0
35,-587,0,0,0,0,0,0,0,0,0,-1,1259,1611,0,0
42,-587,0,0,0,0,0,0,0,0,0,-1,1266,1611,0,0
49,-587,0,0,0,0,0,0,0,0,0,-1,1273,1611,0,0
56,-587,0,0,0,0,0,0,0,0,0,-1,1280,1611,0,0
63,-587,0,0,0,0,0,0,0,0,0,-1,1287,1611,0,0
70,-587,0,0,0,0,0,0,0,0,0,-1,1294,1611,0,0
77,-587,0,0,0,0,0,0,0,0,0,-1,1301,1611,0,0
84,-587,0,0,0,0,0,0,0,0,0,-1,1308,1611,0,0
91,-587,0,0,0,0,0,0,0,0,0,-1,1315,1611,0,0
98,-587,0,0,0,0,0,0,0,0,0,-1,1322,1611,0,0
105,-587,0,0,0,0,0,0,0,0,0,-1,1329,1611,0,0
112,-587,0,0,0,0,0,0,0,0,0,-1,1336,1611,0,0
119,-587,0,0,0,0,0,0,0,0,0,-1,1343,1611,0,0
126,-587,0,0,0,0,0,0,0,0,0,-1,1350,1611,0,0
133,-587,0,0,0,0,0,0,0,0,0,-1,1357,1611,0,0
140,-587,0,0,0,0,0,0,0,0,0,-1,1364,1611,0,0
147,-587,0,0,0,0,0,0,0,0,0,-1,1371,1611,0,0
154,-587,0,0,0,0,0,0,0,0,0,-1,1378,1611,0,0
161,-587,0,0,0,0,0,0,0,0,0,-1,1385,1611,0,0
168,-587,0,0,0,0,0,0,0,0,0,-1,1392,1611,0,0
175,-587,0,0,0,0,0,0,0,0,0,-1,1399,1611,0,0
182,-587,0,0,0,0,0,0,0,0,0,-1,1406,1611,0,0
189,-587,0,0,0,0,0,0,0,0,0,-1,1413,1611,0,0
196,-587,0,0,0,0,0,0,0,0,0,-1,1420,1611,0,0
203,-587,0,0,0,0,0,0,0,0,0,-1,1427,1611,0,0
210,-587,0,0,0,0,0,0,0,0,0,-1,1434,1611,0,0
217,-587,0,0,0,0,0,0,0,0,0,-1,1441,1611,0,0
224,-587,0,0,0,0,0,0,0,0,0,-1,1448,1611,0,0
231,-587,0,0,0,0,0,0,0,0,0,-1,1455,1611,0,0
238,-587,0,0,0,0,0,0,0,0,0,-1,1462,1611,0,0
245,-587,0,0,0,0,0,0,0,0,0,-1,1469,1611,0,0
252,-587,0,0,0,0,0,0,0,0,0,-1,1476,1611,0,0
259,-587,0,0,0,0,0,0,0,0,0,-1,1483,1611,0,0
266,-587,0,0,0,0,0,0,0,0,0,-1,1490,1611,0,0
273,-587,10.2936,6.35083,0,0,0,0,0,0,0,-1,1497,1611,10.2936,-6.35087
280,-587,2.09204,1.1217,0,0,0,0,0,0,0,-1,1504,1611,2.092,-1.12176
287,-587,3.2865,0.671509,0,0,0,0,0,0,0,-1,1511,1611,3.28656,-0.671538
294,-587,4.24646,1.58765,0,0,0,0,0,0,0,-1,1518,1611,4.24648,-1.58761
301,-587,7.60474,8.37085,0,0,0,0,0,0,0,-1,1525,1611,7.60478,-8.37084
308,-587,5.99316,10.2291,0,0,0,0,0,0,0,-1,1532,1611,5.99315,-10.2291
315,-587,4.34558,12.3289,0,0,0,0,0,0,0,-1,1539,1611,4.34556,-12.3288
322,-587,10.4526,6.38245,0,0,0,0,0,0,0,-1,1546,1611,10.4526,-6.38245
329,-587,10.7738,8.42444,0,0,0,0,0,0,0,-1,1553,1611,10.7738,-8.42438
336,-587,7.5531,5.96619,0,0,0,0,0,0,0,-1,1560,1611,7.55311,-5.96617
343,-587,9.57495,4.38391,0,0,0,0,0,0,0,-1,1567,1611,9.57494,-4.38397
350,-587,9.50378,3.45093,0,0,0,0,0,0,0,-1,1574,1611,9.50376,-3.4509
357,-587,9.40027,2.50806,0,0,0,0,0,0,0,-1,1581,1611,9.40022,-2.50803
364,-587,9.26477,1.34131,0,0,0,0,0,0,0,-1,1588,1611,9.26479,-1.34126
371,-587,6.98926,7.87561,0,0,0,0,0,0,0,-1,1595,1611,6.98928,-7.87564
378,-587,9.25146,13.8358,0,0,0,0,0,0,0,-1,1602,1611,9.2515,-13.8359
385,-587,15.0664,38.1605,0,0,0,0,0,0,0,-1,1609,1611,15.0664,-38.1606
392,-587,17.2643,36.8208,0,0,0,0,0,0,0,-1,1616,1611,17.2643,-36.8208
399,-587,16.699,36.6268,0,0,0,0,0,0,0,-1,1623,1611,16.699,-36.6269
406,-587,16.4373,35.8201,0.00982872,0.0183294,-0.00761032,0.0227958,0.00536227,-1.04007,0.0137625,0.0438947,1630,1611,16.4373,-35.82
413,-587,16.7516,35.4517,0.00808508,0.0176986,-0.00676005,0.0211866,0.00459708,-1.09445,0.0128687,0.0405144,1637,1611,16.7515,-35.4517
420,-587,16.5771,34.9178,0.00648579,0.016927,-0.00613298,0.0197605,0.00365232,-1.138,0.0121407,0.0364286,1644,1611,16.5772,-34.9178
427,-587,16.55,34.4984,0.00523514,0.0159644,-0.00544831,0.0182459,0.00295364,-1.17423,0.0113087,0.0313616,1651,1611,16.55,-34.4984
434,-587,16.6613,33.828,0.00443494,0.014732,-0.00508946,0.0168229,0.002344,-1.18098,0.0105214,0.0232818,1658,1611,16.6612,-33.828
441,-587,16.6733,33.2496,0.00396674,0.0131783,-0.00484716,0.0152589,0.00188611,-1.16533,0.00960585,0.0259519,1665,1611,16.6734,-33.2496
448,-587,16.678,32.8934,0.00358486,0.0115793,-0.004509,0.0136078,0.0015564,-1.14805,0.00860014,0.0164837,1672,1611,16.678,-32.8934
455,-587,16.6572,32.3962,0.00317005,0.00975872,-0.0041677,0.0117769,0.00115191,-1.11984,0.00749683,0.0149679,1679,1611,16.6572,-32.3962
462,-587,16.6519,31.8507,0.00268922,0.0080275,-0.00365897,0.00988742,0.000829304,-1.10052,0.0063333,0.0186516,1686,1611,16.6518,-31.8507
469,-587,16.6483,31.3389,0.00243629,0.00603493,-0.00318106,0.00789029,0.000580929,-1.04278,0.00507764,0.0158334,1693,1611,16.6484,-31.3389
476,-587,16.6211,30.8125,0.00211432,0.00421212,-0.0025392,0.00591054,0.000415905,-0.981264,0.0038093,0.00988504,1700,1611,16.6212,-30.8125
483,-587,16.5955,30.2607,0.00162501,0.00222074,-0.00191868,0.00386454,-1.87923e-05,-0.862405,0.00258265,0.0138638,1707,1611,16.5954,-30.2607
490,-587,16.5715,29.7273,0.00101927,0.000797576,-0.00126338,0.00217666,-0.000359816,-0.741642,0.00158472,0.0169956,1714,1611,16.5716,-29.7273
497,-587,16.5426,29.189,0.000265918,-0.000187157,-0.000809031,0.00087953,-0.000800768,-0.648889,0.000970475,0.0132396,1721,1611,16.5427,-29.189
504,-587,16.5056,28.6581,-0.000689518,-0.000990374,-2.38662e-05,-0.000687636,-0.000992256,-0.078672,0.000586933,0.012261,1728,1611,16.5057,-28.6581
511,-587,16.48,28.1053,-0.00176728,-0.00148216,0.00116697,-0.000449067,-0.00280037,0.846178,0.00173668,0.014552,1735,1611,16.48,-28.1054
518,-587,16.5013,27.5353,-0.00289352,-0.00174223,0.00224136,-3.77418e-06,-0.00463197,0.911096,0.00308672,0.0150798,1742,1611,16.5014,-27.5353
525,-587,16.5361,27.0491,-0.00434835,-0.00206876,0.00380754,0.000765926,-0.00718304,0.930829,0.00506335,0.0257852,1749,1611,16.5362,-27.0491
532,-587,16.4865,26.5212,0,0,0,0,0,0,0,-1,1756,1611,16.4865,-26.5212
539,-587,16.9572,25.7003,0,0,0,0,0,0,0,-1,1763,1611,16.9572,-25.7003
546,-587,17.2634,24.9921,0,0,0,0,0,0,0,-1,1770,1611,17.2635,-24.9921
553,-587,7.5813,8.45068,0,0,0,0,0,0,0,-1,1777,1611,7.58125,-8.45068
560,-587,4.21179,5.23547,0,0,0,0,0,0,0,-1,1784,1611,4.21185,-5.23553
567,-587,4.03711,5.46387,0,0,0,0,0,0,0,-1,1791,1611,4.03715,-5.46382
574,-587,3.83142,5.68884,0,0,0,0,0,0,0,-1,1798,1611,3.83141,-5.68881
581,-587,3.47168,6.00977,0,0,0,0,0,0,0,-1,1805,1611,3.47167,-6.00983
588,-587,0,0,0,0,0,0,0,0,0,-1,1812,1611,0,0
595,-587,0,0,0,0,0,0,0,0,0,-1,1819,1611,0,0
602,-587,0,0,0,0,0,0,0,0,0,-1,1826,1611,0,0
609,-587,0,0,0,0,0,0,0,0,0,-1,1833,1611,0,0
616,-587,0,0,0,0,0,0,0,0,0,-1,1840,1611,0,0
623,-587,0,0,0,0,0,0,0,0,0,-1,1847,1611,0,0
630,-587,0,0,0,0,0,0,0,0,0,-1,1854,1611,0,0
637,-587,0,0,0,0,0,0,0,0,0,-1,1861,1611,0,0
644,-587,0,0,0,0,0,0,0,0,0,-1,1868,1611,0,0
651,-587,0,0,0,0,0,0,0,0,0,-1,1875,1611,0,0
658,-587,0,0,0,0,0,0,0,0,0,-1,1882,1611,0,0
665,-587,0,0,0,0,0,0,0,0,0,-1,1889,1611,0,0
672,-587,0,0,0,0,0,0,0,0,0,-1,1896,1611,0,0
679,-587,0,0,0,0,0,0,0,0,0,-1,1903,1611,0,0
686,-587,0,0,0,0,0,0,0,0,0,-1,1910,1611,0,0
693,-587,0,0,0,0,0,0,0,0,0,-1,1917,1611,0,0
700,-587,0,0,0,0,0,0,0,0,0,-1,1924,1611,0,0
707,-587,0,0,0,0,0,0,0,0,0,-1,1931,1611,0,0
714,-587,0,0,0,0,0,0,0,0,0,-1,1938,1611,0,0
721,-587,0,0,0,0,0,0,0,0,0,-1,1945,1611,0,0
728,-587,0,0,0,0,0,0,0,0,0,-1,1952,1611,0,0
735,-587,0,0,0,0,0,0,0,0,0,-1,1959,1611,0,0
742,-587,0,0,0,0,0,0,0,0,0,-1,1966,1611,0,0
749,-587,0,0,0,0,0,0,0,0,0,-1,1973,1611,0,0
756,-587,0,0,0,0,0,0,0,0,0,-1,1980,1611,0,0
763,-587,0,0,0,0,0,0,0,0,0,-1,1987,1611,0,0
770,-587,0,0,0,0,0,0,0,0,0,-1,1994,1611,0,0
777,-587,0,0,0,0,0,0,0,0,0,-1,2001,1611,0,0
784,-587,0,0,0,0,0,0,0,0,0,-1,2008,1611,0,0
791,-587,0,0,0,0,0,0,0,0,0,-1,2015,1611,0,0
798,-587,0,0,0,0,0,0,0,0,0,-1,2022,1611,0,0
805,-587,0,0,0,0,0,0,0,0,0,-1,2029,1611,0,0
812,-587,0,0,0,0,0,0,0,0,0,-1,2036,1611,0,0
-700,-594,0,0,0,0,0,0,0,0,0,-1,524,1618,0,0
-693,-594,0,0,0,0,0,0,0,0,0,-1,531,1618,0,0
-686,-594,0,0,0,0,0,0,0,0,0,-1,538,1618,0,0
-679,-594,0,0,0,0,0,0,0,0,0,-1,545,1618,0,0
-672,-594,0,0,0,0,0,0,0,0,0,-1,552,1618,0,0
-665,-594,0,0,0,0,0,0,0,0,0,-1,559,1618,0,0
-658,-594,0,0,0,0,0,0,0,0,0,-1,566,1618,0,0
-651,-594,0,0,0,0,0,0,0,0,0,-1,573,1618,0,0
-644,-594,0,0,0,0,0,0,0,0,0,-1,580,1618,0,0
-637,-594,0,0,0,0,0,0,0,0,0,-1,587,1618,0,0
-630,-594,0,0,0,0,0,0,0,0,0,-1,594,1618,0,0
-623,-594,0,0,0,0,0,0,0,0,0,-1,601,1618,0,0
-616,-594,0,0,0,0,0,0,0,0,0,-1,608,1618,0,0
-609,-594,0,0,0,0,0,0,0,0,0,-1,615,1618,0,0
-602,-594,0,0,0,0,0,0,0,0,0,-1,622,1618,0,0
-595,-594,0,0,0,0,0,0,0,0,0,-1,629,1618,0,0
-588,-594,0,0,0,0,0,0,0,0,0,-1,636,1618,0,0
-581,-594,0,0,0,0,0,0,0,0,0,-1,643,1618,0,0
-574,-594,0,0,0,0,0,0,0,0,0,-1,650,1618,0,0
-567,-594,0,0,0,0,0,0,0,0,0,-1,657,1618,0,0
-560,-594,0,0,0,0,0,0,0,0,0,-1,664,1618,0,0
-553,-594,0,0,0,0,0,0,0,0,0,-1,671,1618,0,0
-546,-594,0,0,0,0,0,0,0,0,0,-1,678,1618,0,0
-539,-594,0,0,0,0,0,0,0,0,0,-1,685,1618,0,0
-532,-594,0,0,0,0,0,0,0,0,0,-1,692,1618,0,0
-525,-594,0,0,0,0,0,0,0,0,0,-1,699,1618,0,0
-518,-594,0,0,0,0,0,0,0,0,0,-1,706,1618,0,0
-511,-594,0,0,0,0,0,0,0,0,0,-1,713,1618,0,0
-504,-594,0,0,0,0,0,0,0,0,0,-1,720,1618,0,0
-497,-594,0,0,0,0,0,0,0,0,0,-1,727,1618,0,0
-490,-594,0,0,0,0,0,0,0,0,0,-1,734,1618,0,0
-483,-594,0,0,0,0,0,0,0,0,0,-1,741,1618,0,0
-476,-594,0,0,0,0,0,0,0,0,0,-1,748,1618,0,0
-469,-594,0,0,0,0,0,0,0,0,0,-1,755,1618,0,0
-462,-594,0,0,0,0,0,0,0,0,0,-1,762,1618,0,0
-455,-594,-0.509216,-1.58411,0,0,0,0,0,0,0,-1,769,1618,-0.509245,1.58415
-448,-594,-7.71887,-0.0559082,0,0,0,0,0,0,0,-1,776,1618,-7.71885,0.055939
-441,-594,-5.78473,1.18298,0,0,0,0,0,0,0,-1,783,1618,-5.78474,-1.18295
-434,-594,-3.93628,3.06213,0,0,0,0,0,0,0,-1,790,1618,-3.93631,-3.06208
-427,-594,-3.97693,6.77759,0,0,0,0,0,0,0,-1,797,1618,-3.97695,-6.77764
-420,-594,-2.53046,7.71606,0,0,0,0,0,0,0,-1,804,1618,-2.53047,-7.71609
-413,-594,-0.860413,8.00391,0,0,0,0,0,0,0,-1,811,1618,-0.860423,-8.00389
-406,-594,2.45746,13.6218,0,0,0,0,0,0,0,-1,818,1618,2.45747,-13.6218
-399,-594,1.30414,24.9963,0,0,0,0,0,0,0,-1,825,1618,1.30415,-24.9963
-392,-594,1.85724,26.0527,0,0,0,0,0,0,0,-1,832,1618,1.85726,-26.0528
-385,-594,1.47052,26.9088,-0.008316,-0.000462029,-0.000797802,-0.000381808,-0.00839622,-1.47058,0.00547465,0.0359604,839,1618,1.47049,-26.9088
-378,-594,1.32318,27.354,-0.00657038,-0.000514515,-0.000316072,-0.000498063,-0.00658683,-1.51879,0.00423498,0.0162262,846,1618,1.32319,-27.354
-371,-594,1.34167,27.9762,-0.00497796,-0.000418275,3.88718e-05,-0.000417943,-0.00497829,1.56227,0.00318869,0.0127278,853,1618,1.34168,-27.9762
-364,-594,1.32941,28.538,-0.00352445,-0.000232291,0.000349868,-0.00019552,-0.00356122,1.46608,0.00231173,0.0112784,860,1618,1.3294,-28.538
-357,-594,1.3186,29.0831,-0.00216169,8.70977e-05,0.000660496,0.000266742,-0.00234133,1.30524,0.00165697,0.0106473,867,1618,1.31861,-29.0832
-350,-594,1.26758,29.6976,-0.00086471,0.000433605,0.000967894,0.000949876,-0.00138098,1.08079,0.00135337,0.0158024,874,1618,1.26756,-29.6977
-343,-594,1.22894,30.2816,0.00028763,0.000943406,0.00130133,0.00195752,-0.000726489,0.908811,0.00160303,0.0181074,881,1618,1.22897,-30.2816
-336,-594,1.20288,30.8009,0.00133333,0.00165342,0.00169911,0.00320001,-0.000213257,0.832356,0.00220786,0.0144256,888,1618,1.20287,-30.8009
-329,-594,1.20825,31.342,0.00230928,0.00246802,0.0020618,0.00445198,0.000325325,0.804637,0.0028657,0.0142687,895,1618,1.20826,-31.342
-322,-594,1.23712,31.8998,0.00313207,0.00366367,0.00250585,0.00591778,0.000877966,0.838237,0.00368753,0.0172827,902,1618,1.23711,-31.8997
-315,-594,1.21838,32.4434,0.00395972,0.00533501,0.00315034,0.00787188,0.00142285,0.892851,0.0048438,0.0179632,909,1618,1.21839,-32.4433
-308,-594,1.21661,32.9785,0.00497223,0.00683566,0.00380952,0.00982575,0.00198214,0.905331,0.00599994,0.0163593,916,1618,1.21661,-32.9785
-301,-594,1.19135,33.4908,0.00656589,0.00882743,0.00499443,0.0128175,0.00257583,0.896725,0.00782893,0.0125339,923,1618,1.19136,-33.4908
-294,-594,1.21399,34.0062,0.00829662,0.0110014,0.00645722,0.0162463,0.00305169,0.888626,0.00997057,0.0137242,930,1618,1.21397,-34.0062
-287,-594,1.15564,34.5394,0.0102434,0.013932,0.0081939,0.0204866,0.00368876,0.896095,0.0126093,0.0242517,937,1618,1.15561,-34.5395
-280,-594,1.1405,35.1564,0,0,0,0,0,0,0,-1,944,1618,1.1405,-35.1564
-273,-594,1.26062,35.9253,0.0156836,0.0203425,0.0127286,0.0309531,0.005073,0.875901,0.0191695,0.0351832,951,1618,1.2606,-35.9253
-266,-594,1.43109,36.6761,0.0191684,0.0239653,0.0154884,0.0372398,0.00589386,0.862215,0.0231138,0.0429391,958,1618,1.4311,-36.6761
-259,-594,1.35846,36.6107,0,0,0,0,0,0,0,-1,965,1618,1.35844,-36.6108
-252,-594,2.00244,37.5179,0,0,0,0,0,0,0,-1,972,1618,2.00244,-37.5179
-245,-594,2.27759,35.1766,0,0,0,0,0,0,0,-1,979,1618,2.27756,-35.1766
-238,-594,2.09015,28.0121,0,0,0,0,0,0,0,-1,986,1618,2.09012,-28.0121
-231,-594,1.93774,9.35388,0,0,0,0,0,0,0,-1,993,1618,1.93776,-9.35393
-224,-594,1.81824,8.62744,0,0,0,0,0,0,0,-1,1000,1618,1.81822,-8.62745
-217,-594,-8.24066,12.0752,0,0,0,0,0,0,0,-1,1007,1618,-8.24068,-12.0751
-210,-594,-5.61438,14.2119,0,0,0,0,0,0,0,-1,1014,1618,-5.6144,-14.212
-203,-594,-3.94507,15.5768,0,0,0,0,0,0,0,-1,1021,1618,-3.94506,-15.5768
-196,-594,2.78613,10.5815,0,0,0,0,0,0,0,-1,1028,1618,2.78612,-10.5815
-189,-594,2.60913,9.48865,0,0,0,0,0,0,0,-1,1035,1618,2.6091,-9.48871
-182,-594,1.2395,9.38806,0,0,0,0,0,0,0,-1,1042,1618,1.23951,-9.38804
-175,-594,0.234863,8.73792,0,0,0,0,0,0,0,-1,1049,1618,0.234812,-8.73786
-168,-594,-0.495483,8.46289,0,0,0,0,0,0,0,-1,1056,1618,-0.495513,-8.46285
-161,-594,-1.39734,8.28699,0,0,0,0,0,0,0,-1,1063,1618,-1.39729,-8.28699
-154,-594,-0.000854492,7.68445,0,0,0,0,0,0,0,-1,1070,1618,-0.000805755,-7.6845
-147,-594,0.348267,9.3385,0,0,0,0,0,0,0,-1,1077,1618,0.348237,-9.33849
-140,-594,0.675171,11.5884,0,0,0,0,0,0,0,-1,1084,1618,0.675204,-11.5884
-133,-594,0,0,0,0,0,0,0,0,0,-1,1091,1618,0,0
-126,-594,0,0,0,0,0,0,0,0,0,-1,1098,1618,0,0
-119,-594,0,0,0,0,0,0,0,0,0,-1,1105,1618,0,0
-112,-594,0,0,0,0,0,0,0,0,0,-1,1112,1618,0,0
-105,-594,0,0,0,0,0,0,0,0,0,-1,1119,1618,0,0
-98,-594,0,0,0,0,0,0,0,0,0,-1,1126,1618,0,0
-91,-594,0,0,0,0,0,0,0,0,0,-1,1133,1618,0,0
-84,-594,0,0,0,0,0,0,0,0,0,-1,1140,1618,0,0
-77,-594,0,0,0,0,0,0,0,0,0,-1,1147,1618,0,0
-70,-594,0,0,0,0,0,0,0,0,0,-1,1154,1618,0,0
-63,-594,0,0,0,0,0,0,0,0,0,-1,1161,1618,0,0
-56,-594,0,0,0,0,0,0,0,0,0,-1,1168,1618,0,0
-49,-594,0,0,0,0,0,0,0,0,0,-1,1175,1618,0,0
-42,-594,0,0,0,0,0,0,0,0,0,-1,1182,1618,0,0
-35,-594,0,0,0,0,0,0,0,0,0,-1,1189,1618,0,0
-28,-594,0,0,0,0,0,0,0,0,0,-1,1196,1618,0,0
-21,-594,0,0,0,0,0,0,0,0,0,-1,1203,1618,0,0
-14,-594,0,0,0,0,0,0,0,0,0,-1,1210,1618,0,0
-7,-594,0,0,0,0,0,0,0,0,0,-1,1217,1618,0,0
0,-594,0,0,0,0,0,0,0,0,0,-1,1224,1618,0,0
7,-594,0,0,0,0,0,0,0,0,0,-1,1231,1618,0,0
14,-594,0,0,0,0,0,0,0,0,0,-1,1238,1618,0,0
21,-594,0,0,0,0,0,0,0,0,0,-1,1245,1618,0,0
28,-594,0,0,0,0,0,0,0,0,0,-1,1252,1618,0,0
35,-594,0,0,0,0,0,0,0,0,0,-1,1259,1618,0,0
42,-594,0,0,0,0,0,0,0,0,0,-1,1266,1618,0,0
49,-594,0,0,0,0,0,0,0,0,0,-1,1273,1618,0,0
56,-594,0,0,0,0,0,0,0,0,0,-1,1280,1618,0,0
63,-594,0,0,0,0,0,0,0,0,0,-1,1287,1618,0,0
70,-594,0,0,0,0,0,0,0,0,0,-1,1294,1618,0,0
77,-594,0,0,0,0,0,0,0,0,0,-1,1301,1618,0,0
84,-594,0,0,0,0,0,0,0,0,0,-1,1308,1618,0,0
91,-594,0,0,0,0,0,0,0,0,0,-1,1315,1618,0,0
98,-594,0,0,0,0,0,0,0,0,0,-1,1322,1618,0,0
105,-594,0,0,0,0,0,0,0,0,0,-1,1329,1618,0,0
112,-594,0,0,0,0,0,0,0,0,0,-1,1336,1618,0,0
119,-594,0,0,0,0,0,0,0,0,0,-1,1343,1618,0,0
126,-594,0,0,0,0,0,0,0,0,0,-1,1350,1618,0,0
133,-594,0,0,0,0,0,0,0,0,0,-1,1357,1618,0,0
140,-594,0,0,0,0,0,0,0,0,0,-1,1364,1618,0,0
147,-594,0,0,0,0,0,0,0,0,0,-1,1371,1618,0,0
154,-594,0,0,0,0,0,0,0,0,0,-1,1378,1618,0,0
161,-594,0,0,0,0,0,0,0,0,0,-1,1385,1618,0,0
168,-594,0,0,0,0,0,0,0,0,0,-1,1392,1618,0,0
175,-594,0,0,0,0,0,0,0,0,0,-1,1399,1618,0,0
182,-594,0,0,0,0,0,0,0,0,0,-1,1406,1618,0,0
189,-594,0,0,0,0,0,0,0,0,0,-1,1413,1618,0,0
196,-594,0,0,0,0,0,0,0,0,0,-1,1420,1618,0,0
203,-594,0,0,0,0,0,0,0,0,0,-1,1427,1618,0,0
210,-594,0,0,0,0,0,0,0,0,0,-1,1434,1618,0,0
217,-594,0,0,0,0,0,0,0,0,0,-1,1441,1618,0,0
224,-594,0,0,0,0,0,0,0,0,0,-1,1448,1618,0,0
231,-594,0,0,0,0,0,0,0,0,0,-1,1455,1618,0,0
238,-594,0,0,0,0,0,0,0,0,0,-1,1462,1618,0,0
245,-594,0,0,0,0,0,0,0,0,0,-1,1469,1618,0,0
252,-594,3.03674,1.20996,0,0,0,0,0,0,0,-1,1476,1618,3.0368,-1.20999
259,-594,4.79834,1.53113,0,0,0,0,0,0,0,-1,1483,1618,4.79837,-1.53118
266,-594,3.71606,2.68152,0,0,0,0,0,0,0,-1,1490,1618,3.71609,-2.68149
273,-594,9.7655,6.33557,0,0,0,0,0,0,0,-1,1497,1618,9.76555,-6.33554
280,-594,3.13281,0.911255,0,0,0,0,0,0,0,-1,1504,1618,3.13277,-0.911207
287,-594,4.42749,1.51563,0,0,0,0,0,0,0,-1,1511,1618,4.42747,-1.51564
294,-594,5.36475,3.34937,0,0,0,0,0,0,0,-1,1518,1618,5.36475,-3.3494
301,-594,7.97144,9.04333,0,0,0,0,0,0,0,-1,1525,1618,7.9714,-9.04328
308,-594,6.30347,10.4633,0,0,0,0,0,0,0,-1,1532,1618,6.30351,-10.4633
315,-594,4.62012,11.934,0,0,0,0,0,0,0,-1,1539,1618,4.62006,-11.934
322,-594,2.91528,13.3134,0,0,0,0,0,0,0,-1,1546,1618,2.91523,-13.3133
329,-594,4.19861,9.77258,0,0,0,0,0,0,0,-1,1553,1618,4.19865,-9.77264
336,-594,10.1353,4.66528,0,0,0,0,0,0,0,-1,1560,1618,10.1353,-4.66533
343,-594,10.5729,3.71228,0,0,0,0,0,0,0,-1,1567,1618,10.5729,-3.71232
350,-594,10.219,2.98792,0,0,0,0,0,0,0,-1,1574,1618,10.219,-2.98797
357,-594,9.83154,1.96326,0,0,0,0,0,0,0,-1,1581,1618,9.8315,-1.96321
364,-594,9.74939,0.700562,0,0,0,0,0,0,0,-1,1588,1618,9.74939,-0.700615
371,-594,8.54297,14.3988,0,0,0,0,0,0,0,-1,1595,1618,8.54296,-14.3989
378,-594,15.6027,39.1576,0,0,0,0,0,0,0,-1,1602,1618,15.6026,-39.1575
385,-594,16.099,37.7424,0,0,0,0,0,0,0,-1,1609,1618,16.099,-37.7424
392,-594,15.7584,36.8961,0,0,0,0,0,0,0,-1,1616,1618,15.7584,-36.8961
399,-594,16.14,36.5057,0.0102236,0.0166929,-0.00784244,0.0219416,0.00497497,-0.980996,0.0132837,0.0448041,1623,1618,16.14,-36.5057
406,-594,16.2343,36.052,0.00823302,0.0149481,-0.00624192,0.0186782,0.00450291,-1.03215,0.0112555,0.0294709,1630,1618,16.2343,-36.0521
413,-594,16.2113,35.5297,0.00670019,0.0136828,-0.00525267,0.0164986,0.00388439,-1.07871,0.00996005,0.0200138,1637,1618,16.2113,-35.5297
420,-594,16.1794,35.0107,0.00538763,0.0127144,-0.00458756,0.0149218,0.00318024,-1.12233,0.00907548,0.0160334,1644,1618,16.1794,-35.0107
427,-594,16.2008,34.4738,0.00430575,0.0117206,-0.00392079,0.0134092,0.0026171,-1.16411,0.0082074,0.0133574,1651,1618,16.2008,-34.4737
434,-594,16.1875,33.9454,0.00357264,0.010654,-0.00359558,0.0121596,0.00206708,-1.17425,0.00751277,0.0182347,1658,1618,16.1875,-33.9454
441,-594,16.1565,33.4182,0.00313048,0.00944609,-0.00345778,0.010971,0.00160556,-1.15544,0.00684191,0.0162896,1665,1618,16.1565,-33.4183
448,-594,16.171,32.9246,0.00279028,0.00818939,-0.00324278,0.00970922,0.00127045,-1.13252,0.00609364,0.0168587,1672,1618,16.171,-32.9245
455,-594,16.1263,32.3955,0.00246499,0.00675195,-0.00304101,0.00832899,0.00088795,-1.09239,0.00528162,0.0126428,1679,1618,16.1263,-32.3955
462,-594,16.1095,31.8647,0.00209879,0.00529023,-0.00269243,0.00682429,0.000564737,-1.0529,0.00437345,0.0143561,1686,1618,16.1095,-31.8647
469,-594,16.106,31.3612,0.00189597,0.00364245,-0.00235647,0.00528228,0.000256146,-0.962839,0.00343932,0.0128,1693,1618,16.106,-31.3612
476,-594,16.0916,30.8394,0.00161622,0.00215612,-0.00186602,0.00377162,7.16303e-07,-0.857233,0.00251417,0.0118739,1700,1618,16.0916,-30.8393
483,-594,16.0713,30.2968,0.00114391,0.000567416,-0.0013571,0.00224304,-0.000531705,-0.680752,0.00170053,0.0151028,1707,1618,16.0713,-30.2968
490,-594,16.0497,29.7488,0.000567952,-0.000574172,-0.000847546,0.00101887,-0.00102509,-0.488942,0.00118008,0.01385,1714,1618,16.0497,-29.7488
497,-594,16.0221,29.2001,-0.000177535,-0.00139439,-0.000512203,9.35874e-06,-0.00158128,-0.349871,0.00105732,0.0107564,1721,1618,16.0221,-29.2
504,-594,16.0055,28.6537,-0.00114754,-0.00198753,0.000202959,-0.00110107,-0.00203399,0.225077,0.00117566,0.0107055,1728,1618,16.0055,-28.6537
511,-594,15.9832,28.0787,-0.0023097,-0.00234388,0.00138565,-0.000941032,-0.00371255,0.779232,0.00222859,0.0168595,1735,1618,15.9832,-28.0788
518,-594,15.9128,27.5056,-0.00360515,-0.00239054,0.00248299,-0.000441664,-0.00555403,0.905337,0.00356459,0.0238254,1742,1618,15.9129,-27.5056
525,-594,15.8773,26.9066,-0.0053184,-0.00259545,0.00419104,0.000449709,-0.00836356,0.942448,0.00573149,0.0395558,1749,1618,15.8774,-26.9066
532,-594,15.9456,26.3328,0,0,0,0,0,0,0,-1,1756,1618,15.9455,-26.3327
539,-594,18.8223,24.2756,0,0,0,0,0,0,0,-1,1763,1618,18.8223,-24.2756
546,-594,7.48645,8.54785,0,0,0,0,0,0,0,-1,1770,1618,7.48639,-8.54789
553,-594,3.69714,5.68762,0,0,0,0,0,0,0,-1,1777,1618,3.69715,-5.68764
560,-594,6.06616,4.44482,0,0,0,0,0,0,0,-1,1784,1618,6.06621,-4.44477
567,-594,5.97266,4.73303,0,0,0,0,0,0,0,-1,1791,1618,5.97271,-4.73309
574,-594,5.9906,4.96326,0,0,0,0,0,0,0,-1,1798,1618,5.99065,-4.96326
581,-594,0,0,0,0,0,0,0,0,0,-1,1805,1618,0,0
588,-594,0,0,0,0,0,0,0,0,0,-1,1812,1618,0,0
595,-594,0,0,0,0,0,0,0,0,0,-1,1819,1618,0,0
602,-594,0,0,0,0,0,0,0,0,0,-1,1826,1618,0,0
609,-594,0,0,0,0,0,0,0,0,0,-1,1833,1618,0,0
616,-594,0,0,0,0,0,0,0,0,0,-1,1840,1618,0,0
623,-594,0,0,0,0,0,0,0,0,0,-1,1847,1618,0,0
630,-594,0,0,0,0,0,0,0,0,0,-1,1854,1618,0,0
637,-594,0,0,0,0,0,0,0,0,0,-1,1861,1618,0,0
644,-594,0,0,0,0,0,0,0,0,0,-1,1868,1618,0,0
651,-594,0,0,0,0,0,0,0,0,0,-1,1875,1618,0,0
658,-594,0,0,0,0,0,0,0,0,0,-1,1882,1618,0,0
665,-594,0,0,0,0,0,0,0,0,0,-1,1889,1618,0,0
672,-594,0,0,0,0,0,0,0,0,0,-1,1896,1618,0,0
679,-594,0,0,0,0,0,0,0,0,0,-1,1903,1618,0,0
686,-594,0,0,0,0,0,0,0,0,0,-1,1910,1618,0,0
693,-594,0,0,0,0,0,0,0,0,0,-1,1917,1618,0,0
700,-594,0,0,0,0,0,0,0,0,0,-1,1924,1618,0,0
707,-594,0,0,0,0,0,0,0,0,0,-1,1931,1618,0,0
714,-594,0,0,0,0,0,0,0,0,0,-1,1938,1618,0,0
721,-594,0,0,0,0,0,0,0,0,0,-1,1945,1618,0,0
728,-594,0,0,0,0,0,0,0,0,0,-1,1952,1618,0,0
735,-594,0,0,0,0,0,0,0,0,0,-1,1959,1618,0,0
742,-594,0,0,0,0,0,0,0,0,0,-1,1966,1618,0,0
749,-594,0,0,0,0,0,0,0,0,0,-1,1973,1618,0,0
756,-594,0,0,0,0,0,0,0,0,0,-1,1980,1618,0,0
763,-594,0,0,0,0,0,0,0,0,0,-1,1987,1618,0,0
770,-594,0,0,0,0,0,0,0,0,0,-1,1994,1618,0,0
777,-594,0,0,0,0,0,0,0,0,0,-1,2001,1618,0,0
784,-594,0,0,0,0,0,0,0,0,0,-1,2008,1618,0,0
791,-594,0,0,0,0,0,0,0,0,0,-1,2015,1618,0,0
798,-594,0,0,0,0,0,0,0,0,0,-1,2022,1618,0,0
805,-594,0,0,0,0,0,0,0,0,0,-1,2029,1618,0,0
812,-594,0,0,0,0,0,0,0,0,0,-1,2036,1618,0,0
-700,-601,0,0,0,0,0,0,0,0,0,-1,524,1625,0,0
-693,-601,0,0,0,0,0,0,0,0,0,-1,531,1625,0,0
-686,-601,0,0,0,0,0,0,0,0,0,-1,538,1625,0,0
-679,-601,0,0,0,0,0,0,0,0,0,-1,545,1625,0,0
-672,-601,0,0,0,0,0,0,0,0,0,-1,552,1625,0,0
-665,-601,0,0,0,0,0,0,0,0,0,-1,559,1625,0,0
-658,-601,0,0,0,0,0,0,0,0,0,-1,566,1625,0,0
-651,-601,0,0,0,0,0,0,0,0,0,-1,573,1625,0,0
-644,-601,0,0,0,0,0,0,0,0,0,-1,580,1625,0,0
-637,-601,0,0,0,0,0,0,0,0,0,-1,587,1625,0,0
-630,-601,0,0,0,0,0,0,0,0,0,-1,594,1625,0,0
-623,-601,0,0,0,0,0,0,0,0,0,-1,601,1625,0,0
-616,-601,0,0,0,0,0,0,0,0,0,-1,608,1625,0,0
-609,-601,0,0,0,0,0,0,0,0,0,-1,615,1625,0,0
-602,-601,0,0,0,0,0,0,0,0,0,-1,622,1625,0,0
-595,-601,0,0,0,0,0,0,0,0,0,-1,629,1625,0,0
-588,-601,0,0,0,0,0,0,0,0,0,-1,636,1625,0,0
-581,-601,0,0,0,0,0,0,0,0,0,-1,643,1625,0,0
-574,-601,0,0,0,0,0,0,0,0,0,-1,650,1625,0,0
-567,-601,0,0,0,0,0,0,0,0,0,-1,657,1625,0,0
-560,-601,0,0,0,0,0,0,0,0,0,-1,664,1625,0,0
-553,-601,0,0,0,0,0,0,0,0,0,-1,671,1625,0,0
-546,-601,0,0,0,0,0,0,0,0,0,-1,678,1625,0,0
-539,-601,0,0,0,0,0,0,0,0,0,-1,685,1625,0,0
-532,-601,0,0,0,0,0,0,0,0,0,-1,692,1625,0,0
-525,-601,0,0,0,0,0,0,0,0,0,-1,699,1625,0,0
-518,-601,0,0,0,0,0,0,0,0,0,-1,706,1625,0,0
-511,-601,0,0,0,0,0,0,0,0,0,-1,713,1625,0,0
-504,-601,0,0,0,0,0,0,0,0,0,-1,720,1625,0,0
-497,-601,0,0,0,0,0,0,0,0,0,-1,727,1625,0,0
-490,-601,0,0,0,0,0,0,0,0,0,-1,734,1625,0,0
-483,-601,0,0,0,0,0,0,0,0,0,-1,741,1625,0,0
-476,-601,0,0,0,0,0,0,0,0,0,-1,748,1625,0,0
-469,-601,0,0,0,0,0,0,0,0,0,-1,755,1625,0,0
-462,-601,0,0,0,0,0,0,0,0,0,-1,762,1625,0,0
-455,-601,0,0,0,0,0,0,0,0,0,-1,769,1625,0,0
-448,-601,-7.07623,2.7616,0,0,0,0,0,0,0,-1,776,1625,-7.07626,-2.76161
-441,-601,-6.06689,3.33447,0,0,0,0,0,0,0,-1,783,1625,-6.06691,-3.33448
-434,-601,-5.02655,3.8468,0,0,0,0,0,0,0,-1,790,1625,-5.02657,-3.84674
-427,-601,-5.78601,4.2406,0,0,0,0,0,0,0,-1,797,1625,-5.786,-4.24058
-420,-601,-5.5191,5.60364,0,0,0,0,0,0,0,-1,804,1625,-5.51907,-5.60368
-413,-601,-4.30756,5.86047,0,0,0,0,0,0,0,-1,811,1625,-4.30757,-5.86046
-406,-601,-1.67493,7.20422,0,0,0,0,0,0,0,-1,818,1625,-1.67493,-7.20428
-399,-601,1.40094,15.3108,0,0,0,0,0,0,0,-1,825,1625,1.40096,-15.3107
-392,-601,2.39362,26.1361,0,0,0,0,0,0,0,-1,832,1625,2.39363,-26.1361
-385,-601,2.24475,26.897,-0.0108857,-0.000226134,-0.000971462,-0.000138322,-0.0109735,-1.48065,0.00726999,0.0494628,839,1625,2.24476,-26.8969
-378,-601,1.91223,27.5377,-0.0086025,-0.000449315,-0.000376238,-0.00043199,-0.00861983,-1.52478,0.0056081,0.0452124,846,1625,1.91226,-27.5378
-371,-601,1.88867,27.9213,-0.00657396,-0.000382447,-5.69468e-05,-0.000381923,-0.00657448,-1.5616,0.00426139,0.0253642,853,1625,1.88867,-27.9213
-364,-601,1.88458,28.546,-0.00482538,-0.000197936,0.000201822,-0.00018915,-0.00483417,1.52729,0.00316161,0.0139118,860,1625,1.88457,-28.546
-357,-601,1.84491,29.1392,-0.00326347,3.38596e-05,0.000494053,0.000106295,-0.00333591,1.42522,0.0022602,0.0114845,867,1625,1.84493,-29.1392
-350,-601,1.85352,29.7621,-0.00187038,0.000306075,0.000765718,0.000548474,-0.00211277,1.26421,0.00162254,0.0226453,874,1625,1.8535,-29.7621
-343,-601,1.79327,30.3416,-0.000663814,0.000702362,0.00102132,0.00124798,-0.00120943,1.08015,0.00141884,0.0234778,881,1625,1.79329,-30.3415
-336,-601,1.72833,30.8802,0.000420858,0.00120929,0.00131681,0.00218963,-0.000559479,0.930839,0.00167764,0.0203018,888,1625,1.72835,-30.8803
-329,-601,1.75,31.4164,0.00141179,0.00184993,0.00160722,0.00325295,8.77748e-06,0.853133,0.00216571,0.0170654,895,1625,1.75002,-31.4163
-322,-601,1.77637,31.9478,0.00214492,0.00279301,0.00192393,0.00441999,0.000517935,0.86883,0.00279008,0.0133907,902,1625,1.77634,-31.9478
-315,-601,1.76288,32.4465,0.00282239,0.00403987,0.00239725,0.00590446,0.0009578,0.909737,0.00365907,0.0133578,909,1625,1.76291,-32.4466
-308,-601,1.73578,32.9806,0.00366198,0.00516542,0.0028807,0.00739086,0.00143654,0.913028,0.00452505,0.0122807,916,1625,1.73579,-32.9807
-301,-601,1.71484,33.5018,0.00497066,0.0067009,0.00378825,0.00972156,0.00195001,0.897658,0.00593873,0.0101443,923,1625,1.71486,-33.5018
-294,-601,1.7124,34.0304,0.0063902,0.00838888,0.00493256,0.0124223,0.00235676,0.885345,0.00761845,0.0101172,930,1625,1.71241,-34.0304
-287,-601,1.66962,34.5801,0.00791846,0.0105945,0.00620324,0.0156024,0.00291058,0.891619,0.00957993,0.0115197,937,1625,1.66963,-34.5801
-280,-601,1.67877,35.1077,0.00985456,0.0129282,0.00772909,0.0192718,0.00351097,0.883535,0.0118521,0.0154476,944,1625,1.67878,-35.1077
-273,-601,1.69159,35.6569,0.0121246,0.0153346,0.00948929,0.0233537,0.00410554,0.869175,0.0143971,0.0172118,951,1625,1.69156,-35.6569
-266,-601,1.74268,36.2119,0.0147463,0.0180326,0.011403,0.0279102,0.00486872,0.856955,0.017215,0.0201116,958,1625,1.74266,-36.2119
-259,-601,1.80933,36.6216,0.0177221,0.0208732,0.0135107,0.0328999,0.00569538,0.843444,0.0203029,0.0297234,965,1625,1.8093,-36.6215
-252,-601,2.2226,37.4113,0.020955,0.0236359,0.0158627,0.0382147,0.00637618,0.827551,0.0236395,0.0474834,972,1625,2.22259,-37.4113
-245,-601,2.53436,38.2887,0,0,0,0,0,0,0,-1,979,1625,2.53435,-38.2886
-238,-601,2.75482,35.777,0,0,0,0,0,0,0,-1,986,1625,2.75481,-35.777
-231,-601,2.66772,13.7051,0,0,0,0,0,0,0,-1,993,1625,2.6677,-13.7051
-224,-601,-0.0305176,9.13684,0,0,0,0,0,0,0,-1,1000,1625,-0.030498,-9.13681
-217,-601,3.39429,10.3898,0,0,0,0,0,0,0,-1,1007,1625,3.39431,-10.3898
-210,-601,-6.53699,15.7931,0,0,0,0,0,0,0,-1,1014,1625,-6.53697,-15.7931
-203,-601,2.69348,15.9099,0,0,0,0,0,0,0,-1,1021,1625,2.69351,-15.91
-196,-601,2.66992,16.1815,0,0,0,0,0,0,0,-1,1028,1625,2.66995,-16.1815
-189,-601,2.849,16.6105,0,0,0,0,0,0,0,-1,1035,1625,2.84902,-16.6104
-182,-601,1.82153,13.9752,0,0,0,0,0,0,0,-1,1042,1625,1.82155,-13.9752
-175,-601,0.544922,9.28687,0,0,0,0,0,0,0,-1,1049,1625,0.544879,-9.28685
-168,-601,-0.247559,8.97461,0,0,0,0,0,0,0,-1,1056,1625,-0.247598,-8.97466
-161,-601,-1.16833,8.80078,0,0,0,0,0,0,0,-1,1063,1625,-1.16837,-8.80081
-154,-601,1.12756,7.94861,0,0,0,0,0,0,0,-1,1070,1625,1.12762,-7.94855
-147,-601,1.35352,9.55432,0,0,0,0,0,0,0,-1,1077,1625,1.35351,-9.55429
-140,-601,1.72437,11.1498,0,0,0,0,0,0,0,-1,1084,1625,1.72432,-11.1498
-133,-601,2.13281,12.8347,0,0,0,0,0,0,0,-1,1091,1625,2.13287,-12.8348
-126,-601,3.09534,15.427,0,0,0,0,0,0,0,-1,1098,1625,3.0953,-15.4271
-119,-601,1.22485,9.43457,0,0,0,0,0,0,0,-1,1105,1625,1.22489,-9.43456
-112,-601,0,0,0,0,0,0,0,0,0,-1,1112,1625,0,0
-105,-601,0,0,0,0,0,0,0,0,0,-1,1119,1625,0,0
-98,-601,0,0,0,0,0,0,0,0,0,-1,1126,1625,0,0
-91,-601,0,0,0,0,0,0,0,0,0,-1,1133,1625,0,0
-84,-601,0,0,0,0,0,0,0,0,0,-1,1140,1625,0,0
-77,-601,0,0,0,0,0,0,0,0,0,-1,1147,1625,0,0
-70,-601,0,0,0,0,0,0,0,0,0,-1,1154,1625,0,0
-63,-601,0,0,0,0,0,0,0,0,0,-1,1161,1625,0,0
-56,-601,0,0,0,0,0,0,0,0,0,-1,1168,1625,0,0
-49,-601,0,0,0,0,0,0,0,0,0,-1,1175,1625,0,0
-42,-601,0,0,0,0,0,0,0,0,0,-1,1182,1625,0,0
-35,-601,0,0,0,0,0,0,0,0,0,-1,1189,1625,0,0
-28,-601,0,0,0,0,0,0,0,0,0,-1,1196,1625,0,0
-21,-601,0,0,0,0,0,0,0,0,0,-1,1203,1625,0,0
-14,-601,0,0,0,0,0,0,0,0,0,-1,1210,1625,0,0
-7,-601,0,0,0,0,0,0,0,0,0,-1,1217,1625,0,0
0,-601,0,0,0,0,0,0,0,0,0,-1,1224,1625,0,0
7,-601,0,0,0,0,0,0,0,0,0,-1,1231,1625,0,0
14,-601,0,0,0,0,0,0,0,0,0,-1,1238,1625,0,0
21,-601,0,0,0,0,0,0,0,0,0,-1,1245,1625,0,0
28,-601,0,0,0,0,0,0,0,0,0,-1,1252,1625,0,0
35,-601,0,0,0,0,0,0,0,0,0,-1,1259,1625,0,0
42,-601,0,0,0,0,0,0,0,0,0,-1,1266,1625,0,0
49,-601,0,0,0,0,0,0,0,0,0,-1,1273,1625,0,0
56,-601,0,0,0,0,0,0,0,0,0,-1,1280,1625,0,0
63,-601,0,0,0,0,0,0,0,0,0,-1,1287,1625,0,0
70,-601,0,0,0,0,0,0,0,0,0,-1,1294,1625,0,0
77,-601,0,0,0,0,0,0,0,0,0,-1,1301,1625,0,0
84,-601,0,0,0,0,0,0,0,0,0,-1,1308,1625,0,0
91,-601,0,0,0,0,0,0,0,0,0,-1,1315,1625,0,0
98,-601,0,0,0,0,0,0,0,0,0,-1,1322,1625,0,0
105,-601,0,0,0,0,0,0,0,0,0,-1,1329,1625,0,0
112,-601,0,0,0,0,0,0,0,0,0,-1,1336,1625,0,0
119,-601,0,0,0,0,0,0,0,0,0,-1,1343,1625,0,0
126,-601,0,0,0,0,0,0,0,0,0,-1,1350,1625,0,0
133,-601,0,0,0,0,0,0,0,0,0,-1,1357,1625,0,0
140,-601,0,0,0,0,0,0,0,0,0,-1,1364,1625,0,0
147,-601,0,0,0,0,0,0,0,0,0,-1,1371,1625,0,0
154,-601,0,0,0,0,0,0,0,0,0,-1,1378,1625,0,0
161,-601,0,0,0,0,0,0,0,0,0,-1,1385,1625,0,0
168,-601,0,0,0,0,0,0,0,0,0,-1,1392,1625,0,0
175,-601,0,0,0,0,0,0,0,0,0,-1,1399,1625,0,0
182,-601,0,0,0,0,0,0,0,0,0,-1,1406,1625,0,0
189,-601,0,0,0,0,0,0,0,0,0,-1,1413,1625,0,0
196,-601,0,0,0,0,0,0,0,0,0,-1,1420,1625,0,0
203,-601,0,0,0,0,0,0,0,0,0,-1,1427,1625,0,0
210,-601,0,0,0,0,0,0,0,0,0,-1,1434,1625,0,0
217,-601,0,0,0,0,0,0,0,0,0,-1,1441,1625,0,0
224,-601,0,0,0,0,0,0,0,0,0,-1,1448,1625,0,0
231,-601,-0.0371094,0.525879,0,0,0,0,0,0,0,-1,1455,1625,-0.0371518,-0.525824
238,-601,2.03369,-1.32861,0,0,0,0,0,0,0,-1,1462,1625,2.03364,1.32858
245,-601,2.71375,2.44983,0,0,0,0,0,0,0,-1,1469,1625,2.71371,-2.44979
252,-601,4.66943,2.28381,0,0,0,0,0,0,0,-1,1476,1625,4.66947,-2.28376
259,-601,6.42712,2.61987,0,0,0,0,0,0,0,-1,1483,1625,6.42711,-2.61985
266,-601,6.75317,1.68701,0,0,0,0,0,0,0,-1,1490,1625,6.75323,-1.687
273,-601,5.4314,2.92053,0,0,0,0,0,0,0,-1,1497,1625,5.43144,-2.92051
280,-601,4.64722,1.17786,0,0,0,0,0,0,0,-1,1504,1625,4.64722,-1.1779
287,-601,5.32532,2.6217,0,0,0,0,0,0,0,-1,1511,1625,5.32535,-2.62171
294,-601,5.97693,4.22693,0,0,0,0,0,0,0,-1,1518,1625,5.97697,-4.22694
301,-601,7.28162,9.50024,0,0,0,0,0,0,0,-1,1525,1625,7.28162,-9.50025
308,-601,6.53528,10.3927,0,0,0,0,0,0,0,-1,1532,1625,6.53529,-10.3927
315,-601,4.88013,11.7184,0,0,0,0,0,0,0,-1,1539,1625,4.88015,-11.7184
322,-601,3.38098,12.7864,0,0,0,0,0,0,0,-1,1546,1625,3.38104,-12.7864
329,-601,1.8772,13.8768,0,0,0,0,0,0,0,-1,1553,1625,1.87716,-13.8768
336,-601,4.67847,9.53308,0,0,0,0,0,0,0,-1,1560,1625,4.67848,-9.53309
343,-601,11.1404,3.14575,0,0,0,0,0,0,0,-1,1567,1625,11.1404,-3.1458
350,-601,10.9462,2.37769,0,0,0,0,0,0,0,-1,1574,1625,10.9461,-2.37764
357,-601,10.7518,1.6095,0,0,0,0,0,0,0,-1,1581,1625,10.7518,-1.60948
364,-601,5.33643,9.74426,0,0,0,0,0,0,0,-1,1588,1625,5.33637,-9.74429
371,-601,15.1158,39.0189,0,0,0,0,0,0,0,-1,1595,1625,15.1159,-39.0189
378,-601,15.2133,38.6063,0,0,0,0,0,0,0,-1,1602,1625,15.2133,-38.6063
385,-601,15.4961,37.4927,0,0,0,0,0,0,0,-1,1609,1625,15.4961,-37.4927
392,-601,15.4587,36.9629,0.0103204,0.0164179,-0.00859156,0.0224856,0.00425269,-0.955896,0.0137931,0.0421286,1616,1625,15.4588,-36.9629
399,-601,15.5936,36.501,0.00843246,0.0138802,-0.00647558,0.0181815,0.00413118,-0.984483,0.0110055,0.0220559,1623,1625,15.5937,-36.501
406,-601,15.7035,35.9279,0.00684657,0.0120022,-0.00506469,0.0151073,0.00374141,-1.0208,0.00908497,0.0149401,1630,1625,15.7035,-35.9278
413,-601,15.6761,35.4357,0.00561177,0.0104963,-0.00412569,0.0128484,0.00325966,-1.05264,0.0077122,0.0133574,1637,1625,15.6762,-35.4356
420,-601,15.6578,34.9277,0.00454474,0.00944743,-0.00348862,0.0112598,0.00273233,-1.09166,0.0067818,0.0108203,1644,1625,15.6579,-34.9278
427,-601,15.6765,34.4441,0.00362666,0.00843796,-0.00287312,0.00977957,0.00228505,-1.13393,0.00590723,0.0146956,1651,1625,15.6765,-34.444
434,-601,15.6693,33.9139,0.0029572,0.00746852,-0.00258621,0.00864455,0.00178117,-1.14402,0.00527061,0.0151494,1658,1625,15.6693,-33.9139
441,-601,15.6774,33.3949,0.00253039,0.00647351,-0.0025137,0.00769659,0.00130731,-1.11795,0.00475557,0.0162252,1665,1625,15.6774,-33.3949
448,-601,15.656,32.9231,0.00220434,0.00542245,-0.00237481,0.00668198,0.000944809,-1.08315,0.0041755,0.0145608,1672,1625,15.656,-32.9232
455,-601,15.6243,32.3759,0.00191689,0.00422734,-0.00226136,0.00561147,0.000532766,-1.02155,0.00357664,0.0132483,1679,1625,15.6243,-32.3758
462,-601,15.5988,31.8547,0.00161867,0.00291844,-0.00202041,0.00439092,0.0001462,-0.941002,0.00287978,0.012181,1686,1625,15.5987,-31.8548
469,-601,15.6013,31.3663,0.0014272,0.0014955,-0.00177382,0.0032355,-0.0003128,-0.795023,0.00226847,0.012358,1693,1625,15.6014,-31.3664
476,-601,15.5726,30.8502,0.00116375,0.000234862,-0.00139148,0.00216625,-0.000767641,-0.624323,0.00175687,0.0144179,1700,1625,15.5727,-30.8502
483,-601,15.5304,30.3204,0.000708088,-0.00102681,-0.000965829,0.00113883,-0.00145755,-0.419505,0.00150278,0.017422,1707,1625,15.5304,-30.3204
490,-601,15.5122,29.7837,0.000170533,-0.00194146,-0.000580721,0.000319679,-0.0020906,-0.251394,0.0015116,0.0127634,1714,1625,15.5121,-29.7837
497,-601,15.5029,29.2344,-0.000531294,-0.00262532,-0.000348104,-0.000474942,-0.00268167,-0.160488,0.00165238,0.0107439,1721,1625,15.5029,-29.2343
504,-601,15.5398,28.6614,-0.00145662,-0.00299834,0.000271579,-0.00141018,-0.00304478,0.169364,0.00175949,0.0212457,1728,1625,15.5398,-28.6614
511,-601,15.4302,28.215,-0.00265239,-0.00322688,0.0014028,-0.00150773,-0.00437154,0.684411,0.00256407,0.0369519,1735,1625,15.4302,-28.215
518,-601,15.3468,27.557,-0.00410971,-0.00303719,0.00246452,-0.00105126,-0.00609564,0.892525,0.00376262,0.0477928,1742,1625,15.3468,-27.557
525,-601,15.4192,26.9572,0,0,0,0,0,0,0,-1,1749,1625,15.4192,-26.9571
532,-601,16.1193,20.8458,0,0,0,0,0,0,0,-1,1756,1625,16.1192,-20.8458
539,-601,7.77112,11.4299,0,0,0,0,0,0,0,-1,1763,1625,7.77116,-11.4299
546,-601,6.56873,3.62354,0,0,0,0,0,0,0,-1,1770,1625,6.56867,-3.62352
553,-601,7.03015,4.25049,0,0,0,0,0,0,0,-1,1777,1625,7.03011,-4.25048
560,-601,7.50745,4.83374,0,0,0,0,0,0,0,-1,1784,1625,7.50744,-4.83376
567,-601,7.82043,3.83301,0,0,0,0,0,0,0,-1,1791,1625,7.82041,-3.83303
574,-601,0,0,0,0,0,0,0,0,0,-1,1798,1625,0,0
581,-601,0,0,0,0,0,0,0,0,0,-1,1805,1625,0,0
588,-601,0,0,0,0,0,0,0,0,0,-1,1812,1625,0,0
595,-601,0,0,0,0,0,0,0,0,0,-1,1819,1625,0,0
602,-601,0,0,0,0,0,0,0,0,0,-1,1826,1625,0,0
609,-601,0,0,0,0,0,0,0,0,0,-1,1833,1625,0,0
616,-601,0,0,0,0,0,0,0,0,0,-1,1840,1625,0,0
623,-601,0,0,0,0,0,0,0,0,0,-1,1847,1625,0,0
630,-601,0,0,0,0,0,0,0,0,0,-1,1854,1625,0,0
637,-601,0,0,0,0,0,0,0,0,0,-1,1861,1625,0,0
644,-601,0,0,0,0,0,0,0,0,0,-1,1868,1625,0,0
651,-601,0,0,0,0,0,0,0,0,0,-1,1875,1625,0,0
658,-601,0,0,0,0,0,0,0,0,0,-1,1882,1625,0,0
665,-601,0,0,0,0,0,0,0,0,0,-1,1889,1625,0,0
672,-601,0,0,0,0,0,0,0,0,0,-1,1896,1625,0,0
679,-601,0,0,0,0,0,0,0,0,0,-1,1903,1625,0,0
686,-601,0,0,0,0,0,0,0,0,0,-1,1910,1625,0,0
693,-601,0,0,0,0,0,0,0,0,0,-1,1917,1625,0,0
700,-601,0,0,0,0,0,0,0,0,0,-1,1924,1625,0,0
707,-601,0,0,0,0,0,0,0,0,0,-1,1931,1625,0,0
714,-601,0,0,0,0,0,0,0,0,0,-1,1938,1625,0,0
721,-601,0,0,0,0,0,0,0,0,0,-1,1945,1625,0,0
728,-601,0,0,0,0,0,0,0,0,0,-1,1952,1625,0,0
735,-601,0,0,0,0,0,0,0,0,0,-1,1959,1625,0,0
742,-601,0,0,0,0,0,0,0,0,0,-1,1966,1625,0,0
749,-601,0,0,0,0,0,0,0,0,0,-1,1973,1625,0,0
756,-601,0,0,0,0,0,0,0,0,0,-1,1980,1625,0,0
763,-601,0,0,0,0,0,0,0,0,0,-1,1987,1625,0,0
770,-601,0,0,0,0,0,0,0,0,0,-1,1994,1625,0,0
777,-601,0,0,0,0,0,0,0,0,0,-1,2001,1625,0,0
784,-601,0,0,0,0,0,0,0,0,0,-1,2008,1625,0,0
791,-601,0,0,0,0,0,0,0,0,0,-1,2015,1625,0,0
798,-601,0,0,0,0,0,0,0,0,0,-1,2022,1625,0,0
805,-601,0,0,0,0,0,0,0,0,0,-1,2029,1625,0,0
812,-601,0,0,0,0,0,0,0,0,0,-1,2036,1625,0,0
-700,-608,0,0,0,0,0,0,0,0,0,-1,524,1632,0,0
-693,-608,0,0,0,0,0,0,0,0,0,-1,531,1632,0,0
-686,-608,0,0,0,0,0,0,0,0,0,-1,538,1632,0,0
-679,-608,0,0,0,0,0,0,0,0,0,-1,545,1632,0,0
-672,-608,0,0,0,0,0,0,0,0,0,-1,552,1632,0,0
-665,-608,0,0,0,0,0,0,0,0,0,-1,559,1632,0,0
-658,-608,0,0,0,0,0,0,0,0,0,-1,566,1632,0,0
-651,-608,0,0,0,0,0,0,0,0,0,-1,573,1632,0,0
-644,-608,0,0,0,0,0,0,0,0,0,-1,580,1632,0,0
-637,-608,0,0,0,0,0,0,0,0,0,-1,587,1632,0,0
-630,-608,0,0,0,0,0,0,0,0,0,-1,594,1632,0,0
-623,-608,0,0,0,0,0,0,0,0,0,-1,601,1632,0,0
-616,-608,0,0,0,0,0,0,0,0,0,-1,608,1632,0,0
-609,-608,0,0,0,0,0,0,0,0,0,-1,615,1632,0,0
-602,-608,0,0,0,0,0,0,0,0,0,-1,622,1632,0,0
-595,-608,0,0,0,0,0,0,0,0,0,-1,629,1632,0,0
-588,-608,0,0,0,0,0,0,0,0,0,-1,636,1632,0,0
-581,-608,0,0,0,0,0,0,0,0,0,-1,643,1632,0,0
-574,-608,0,0,0,0,0,0,0,0,0,-1,650,1632,0,0
-567,-608,0,0,0,0,0,0,0,0,0,-1,657,1632,0,0
-560,-608,0,0,0,0,0,0,0,0,0,-1,664,1632,0,0
-553,-608,0,0,0,0,0,0,0,0,0,-1,671,1632,0,0
-546,-608,0,0,0,0,0,0,0,0,0,-1,678,1632,0,0
-539,-608,0,0,0,0,0,0,0,0,0,-1,685,1632,0,0
-532,-608,0,0,0,0,0,0,0,0,0,-1,692,1632,0,0
-525,-608,0,0,0,0,0,0,0,0,0,-1,699,1632,0,0
-518,-608,0,0,0,0,0,0,0,0,0,-1,706,1632,0,0
-511,-608,0,0,0,0,0,0,0,0,0,-1,713,1632,0,0
-504,-608,0,0,0,0,0,0,0,0,0,-1,720,1632,0,0
-497,-608,0,0,0,0,0,0,0,0,0,-1,727,1632,0,0
-490,-608,0,0,0,0,0,0,0,0,0,-1,734,1632,0,0
-483,-608,0,0,0,0,0,0,0,0,0,-1,741,1632,0,0
-476,-608,0,0,0,0,0,0,0,0,0,-1,748,1632,0,0
-469,-608,0,0,0,0,0,0,0,0,0,-1,755,1632,0,0
-462,-608,0,0,0,0,0,0,0,0,0,-1,762,1632,0,0
-455,-608,0,0,0,0,0,0,0,0,0,-1,769,1632,0,0
-448,-608,0,0,0,0,0,0,0,0,0,-1,776,1632,0,0
-441,-608,-7.34601,2.78052,0,0,0,0,0,0,0,-1,783,1632,-7.346,-2.78056
-434,-608,-6.34558,3.27405,0,0,0,0,0,0,0,-1,790,1632,-6.34555,-3.27406
-427,-608,-7.74335,4.17688,0,0,0,0,0,0,0,-1,797,1632,-7.74334,-4.17693
-420,-608,-6.82794,4.34839,0,0,0,0,0,0,0,-1,804,1632,-6.82794,-4.34838
-413,-608,-5.41919,5.66138,0,0,0,0,0,0,0,-1,811,1632,-5.41917,-5.66133
-406,-608,-4.79681,4.98999,0,0,0,0,0,0,0,-1,818,1632,-4.79684,-4.98997
-399,-608,-2.60645,6.34167,0,0,0,0,0,0,0,-1,825,1632,-2.60643,-6.34169
-392,-608,2.08356,15.437,0,0,0,0,0,0,0,-1,832,1632,2.08354,-15.437
-385,-608,2.96106,26.924,0,0,0,0,0,0,0,-1,839,1632,2.96105,-26.924
-378,-608,2.50873,27.6262,0,0,0,0,0,0,0,-1,846,1632,2.50873,-27.6262
-371,-608,2.63544,27.7709,0,0,0,0,0,0,0,-1,853,1632,2.63545,-27.7709
-364,-608,2.53662,28.4307,-0.00649748,0.000410287,-0.0005091,0.000447606,-0.0065348,-1.49762,0.00451314,0.0309961,860,1632,2.53661,-28.4306
-357,-608,2.41302,29.0959,-0.00469036,0.00058142,-0.000139027,0.000585084,-0.00469403,-1.54445,0.0033415,0.0207751,867,1632,2.41302,-29.0959
-350,-608,2.39703,29.7242,-0.00317055,0.000810471,0.000147842,0.000815954,-0.00317603,1.53373,0.00243534,0.0206237,874,1632,2.39702,-29.7242
-343,-608,2.37097,30.2993,-0.00187498,0.00111181,0.000376128,0.00115844,-0.00192162,1.44743,0.00179638,0.023987,881,1632,2.37096,-30.2993
-336,-608,2.31763,30.9019,-0.000709947,0.00142258,0.000630561,0.00159508,-0.000882443,1.30377,0.00144999,0.0169308,888,1632,2.31762,-30.9019
-329,-608,2.28015,31.4591,0.000343138,0.00188975,0.000928049,0.00232445,-9.1562e-05,1.13275,0.00158104,0.0162433,895,1632,2.28015,-31.4591
-322,-608,2.27667,31.9681,0.00106651,0.00256118,0.00121168,0.00323746,0.000390229,1.06173,0.0020407,0.0164452,902,1632,2.27666,-31.9681
-315,-608,2.28827,32.4772,0.00170079,0.00338468,0.00162008,0.00436853,0.000716934,1.02504,0.00270523,0.0146429,909,1632,2.28828,-32.4772
-308,-608,2.23932,33.0071,0.00247739,0.00414199,0.0020365,0.0055097,0.00110967,0.979386,0.0033648,0.0147102,916,1632,2.2393,-33.007
-301,-608,2.23029,33.5326,0.00361537,0.00522525,0.00277595,0.00731061,0.00153001,0.926513,0.00445224,0.0105273,923,1632,2.23028,-33.5327
-294,-608,2.24097,34.0527,0.00484552,0.00645674,0.00371159,0.00944914,0.00185312,0.892267,0.00578158,0.010916,930,1632,2.24094,-34.0527
-287,-608,2.20142,34.5806,0.00611402,0.00805365,0.00467026,0.0118537,0.00231394,0.887772,0.00725523,0.0111099,937,1632,2.20141,-34.5805
-280,-608,2.20453,35.0741,0.00767056,0.00969253,0.00579475,0.0145638,0.00279927,0.871762,0.0089237,0.00881923,944,1632,2.20455,-35.0741
-273,-608,2.18866,35.5887,0.00942403,0.0114788,0.00708253,0.0176081,0.00329477,0.857426,0.0108092,0.01015,951,1632,2.18865,-35.5887
-266,-608,2.21832,36.1545,0.0113135,0.0134888,0.0083389,0.0208106,0.00399158,0.850248,0.0127532,0.0111445,958,1632,2.21832,-36.1545
-259,-608,2.27374,36.6548,0.0134453,0.0158186,0.00975926,0.0244631,0.00480084,0.845896,0.0149673,0.0152946,965,1632,2.27377,-36.6547
-252,-608,2.4306,37.1722,0.0157452,0.0179316,0.0114422,0.0283327,0.0053441,0.833024,0.0173831,0.0303722,972,1632,2.43058,-37.1722
-245,-608,2.69531,37.8584,0.0178913,0.0200031,0.01306,0.0320498,0.00584458,0.825736,0.0197093,0.0454233,979,1632,2.6953,-37.8583
-238,-608,2.40472,38.9279,0,0,0,0,0,0,0,-1,986,1632,2.40474,-38.9279
-231,-608,3.26025,27.5262,0,0,0,0,0,0,0,-1,993,1632,3.26023,-27.5263
-224,-608,2.51642,15.3452,0,0,0,0,0,0,0,-1,1000,1632,2.5164,-15.3452
-217,-608,1.04419,12.8451,0,0,0,0,0,0,0,-1,1007,1632,1.04418,-12.8451
-210,-608,2.75903,15.9414,0,0,0,0,0,0,0,-1,1014,1632,2.75903,-15.9414
-203,-608,2.76776,16.217,0,0,0,0,0,0,0,-1,1021,1632,2.76773,-16.217
-196,-608,1.53955,18.6058,0,0,0,0,0,0,0,-1,1028,1632,1.53959,-18.6058
-189,-608,1.37634,19.119,0,0,0,0,0,0,0,-1,1035,1632,1.37634,-19.1191
-182,-608,2.89221,16.7092,0,0,0,0,0,0,0,-1,1042,1632,2.89224,-16.7093
-175,-608,0.219116,15.1643,0,0,0,0,0,0,0,-1,1049,1632,0.219173,-15.1644
-168,-608,0.000366211,9.48645,0,0,0,0,0,0,0,-1,1056,1632,0.000317105,-9.48648
-161,-608,2.27832,15.4423,0,0,0,0,0,0,0,-1,1063,1632,2.27826,-15.4423
-154,-608,1.3999,16.4037,0,0,0,0,0,0,0,-1,1070,1632,1.39987,-16.4037
-147,-608,2.4386,9.50317,0,0,0,0,0,0,0,-1,1077,1632,2.43858,-9.50313
-140,-608,2.60132,10.8401,0,0,0,0,0,0,0,-1,1084,1632,2.60134,-10.8401
-133,-608,3.2312,12.4738,0,0,0,0,0,0,0,-1,1091,1632,3.23116,-12.4738
-126,-608,3.76465,13.9644,0,0,0,0,0,0,0,-1,1098,1632,3.76466,-13.9644
-119,-608,4.28906,15.4196,0,0,0,0,0,0,0,-1,1105,1632,4.28911,-15.4195
-112,-608,0.745117,10.5587,0,0,0,0,0,0,0,-1,1112,1632,0.745145,-10.5587
-105,-608,-0.252319,1.42419,0,0,0,0,0,0,0,-1,1119,1632,-0.252331,-1.42418
-98,-608,-2.8595,3.0863,0,0,0,0,0,0,0,-1,1126,1632,-2.85948,-3.08625
-91,-608,-3.71948,1.73608,0,0,0,0,0,0,0,-1,1133,1632,-3.7195,-1.73607
-84,-608,0,0,0,0,0,0,0,0,0,-1,1140,1632,0,0
-77,-608,0,0,0,0,0,0,0,0,0,-1,1147,1632,0,0
-70,-608,0,0,0,0,0,0,0,0,0,-1,1154,1632,0,0
-63,-608,0,0,0,0,0,0,0,0,0,-1,1161,1632,0,0
-56,-608,0,0,0,0,0,0,0,0,0,-1,1168,1632,0,0
-49,-608,0,0,0,0,0,0,0,0,0,-1,1175,1632,0,0
-42,-608,0,0,0,0,0,0,0,0,0,-1,1182,1632,0,0
-35,-608,0,0,0,0,0,0,0,0,0,-1,1189,1632,0,0
-28,-608,0,0,0,0,0,0,0,0,0,-1,1196,1632,0,0
-21,-608,0,0,0,0,0,0,0,0,0,-1,1203,1632,0,0
-14,-608,0,0,0,0,0,0,0,0,0,-1,1210,1632,0,0
-7,-608,0,0,0,0,0,0,0,0,0,-1,1217,1632,0,0
0,-608,0,0,0,0,0,0,0,0,0,-1,1224,1632,0,0
7,-608,0,0,0,0,0,0,0,0,0,-1,1231,1632,0,0
14,-608,0,0,0,0,0,0,0,0,0,-1,1238,1632,0,0
21,-608,0,0,0,0,0,0,0,0,0,-1,1245,1632,0,0
28,-608,0,0,0,0,0,0,0,0,0,-1,1252,1632,0,0
35,-608,0,0,0,0,0,0,0,0,0,-1,1259,1632,0,0
42,-608,0,0,0,0,0,0,0,0,0,-1,1266,1632,0,0
49,-608,0,0,0,0,0,0,0,0,0,-1,1273,1632,0,0
56,-608,0,0,0,0,0,0,0,0,0,-1,1280,1632,0,0
63,-608,0,0,0,0,0,0,0,0,0,-1,1287,1632,0,0
70,-608,0,0,0,0,0,0,0,0,0,-1,1294,1632,0,0
77,-608,0,0,0,0,0,0,0,0,0,-1,1301,1632,0,0
84,-608,0,0,0,0,0,0,0,0,0,-1,1308,1632,0,0
91,-608,0,0,0,0,0,0,0,0,0,-1,1315,1632,0,0
98,-608,0,0,0,0,0,0,0,0,0,-1,1322,1632,0,0
105,-608,0,0,0,0,0,0,0,0,0,-1,1329,1632,0,0
112,-608,0,0,0,0,0,0,0,0,0,-1,1336,1632,0,0
119,-608,0,0,0,0,0,0,0,0,0,-1,1343,1632,0,0
126,-608,0,0,0,0,0,0,0,0,0,-1,1350,1632,0,0
133,-608,0,0,0,0,0,0,0,0,0,-1,1357,1632,0,0
140,-608,0,0,0,0,0,0,0,0,0,-1,1364,1632,0,0
147,-608,0,0,0,0,0,0,0,0,0,-1,1371,1632,0,0
154,-608,0,0,0,0,0,0,0,0,0,-1,1378,1632,0,0
161,-608,0,0,0,0,0,0,0,0,0,-1,1385,1632,0,0
168,-608,0,0,0,0,0,0,0,0,0,-1,1392,1632,0,0
175,-608,0,0,0,0,0,0,0,0,0,-1,1399,1632,0,0
182,-608,0,0,0,0,0,0,0,0,0,-1,1406,1632,0,0
189,-608,0,0,0,0,0,0,0,0,0,-1,1413,1632,0,0
196,-608,0,0,0,0,0,0,0,0,0,-1,1420,1632,0,0
203,-608,0,0,0,0,0,0,0,0,0,-1,1427,1632,0,0
210,-608,5.7157,-0.333008,0,0,0,0,0,0,0,-1,1434,1632,5.71566,0.333004
217,-608,4.49402,-0.831787,0,0,0,0,0,0,0,-1,1441,1632,4.49396,0.831738
224,-608,4.18018,-1.11792,0,0,0,0,0,0,0,-1,1448,1632,4.1802,1.11796
231,-608,0.361816,0.825195,0,0,0,0,0,0,0,-1,1455,1632,0.36185,-0.825226
238,-608,2.85388,-0.28833,0,0,0,0,0,0,0,-1,1462,1632,2.85391,0.288282
245,-608,3.87537,4.02173,0,0,0,0,0,0,0,-1,1469,1632,3.87538,-4.02168
252,-608,5.66956,3.5282,0,0,0,0,0,0,0,-1,1476,1632,5.6696,-3.52815
259,-608,7.47437,3.07178,0,0,0,0,0,0,0,-1,1483,1632,7.4744,-3.07172
266,-608,9.46936,2.34766,0,0,0,0,0,0,0,-1,1490,1632,9.46932,-2.34764
273,-608,6.03003,3.34241,0,0,0,0,0,0,0,-1,1497,1632,6.02997,-3.34245
280,-608,5.72461,2.0769,0,0,0,0,0,0,0,-1,1504,1632,5.72457,-2.07688
287,-608,6.20581,3.59338,0,0,0,0,0,0,0,-1,1511,1632,6.20585,-3.59341
294,-608,6.94922,5.17151,0,0,0,0,0,0,0,-1,1518,1632,6.94925,-5.17151
301,-608,7.60083,6.68018,0,0,0,0,0,0,0,-1,1525,1632,7.60086,-6.68013
308,-608,7.64746,9.93848,0,0,0,0,0,0,0,-1,1532,1632,7.64745,-9.93842
315,-608,5.30688,11.2054,0,0,0,0,0,0,0,-1,1539,1632,5.30694,-11.2054
322,-608,5.32617,13.7581,0,0,0,0,0,0,0,-1,1546,1632,5.32613,-13.758
329,-608,7.12231,13.9607,0,0,0,0,0,0,0,-1,1553,1632,7.12231,-13.9607
336,-608,5.48633,7.82446,0,0,0,0,0,0,0,-1,1560,1632,5.48634,-7.82446
343,-608,5.47192,5.61047,0,0,0,0,0,0,0,-1,1567,1632,5.47192,-5.61045
350,-608,11.6957,1.71387,0,0,0,0,0,0,0,-1,1574,1632,11.6957,-1.71388
357,-608,3.77002,5.10046,0,0,0,0,0,0,0,-1,1581,1632,3.77002,-5.10043
364,-608,14.8247,39.5535,0,0,0,0,0,0,0,-1,1588,1632,14.8247,-39.5534
371,-608,14.8423,38.8694,0.0137064,0.0243363,-0.014112,0.0341011,0.00394163,-0.965496,0.0215407,0.0483448,1595,1632,14.8423,-38.8694
378,-608,14.9044,38.1177,0.0116256,0.0204593,-0.011216,0.0280968,0.00398809,-0.972972,0.0175535,0.0370981,1602,1632,14.9044,-38.1176
385,-608,15.0791,37.5431,0.00983724,0.0169149,-0.00889402,0.0229483,0.00380389,-0.974742,0.0142017,0.0338795,1609,1632,15.0791,-37.5431
392,-608,15.1106,36.9595,0.00825723,0.0138705,-0.00691582,0.0185275,0.00360024,-0.978158,0.0113436,0.0251965,1616,1632,15.1106,-36.9595
399,-608,15.151,36.3756,0.00674637,0.0113931,-0.00519376,0.0147595,0.00337999,-0.995718,0.00892885,0.0115188,1623,1632,15.1511,-36.3756
406,-608,15.1951,35.8712,0.00549143,0.00954864,-0.00405126,0.0120508,0.00298926,-1.01752,0.00724598,0.0104298,1630,1632,15.1951,-35.8712
413,-608,15.1602,35.4091,0.00452586,0.00794064,-0.00325221,0.0099064,0.0025601,-1.02712,0.00593781,0.0110845,1637,1632,15.1602,-35.4091
420,-608,15.1215,34.942,0.00369517,0.00683933,-0.00271111,0.00840118,0.00213331,-1.04814,0.00504242,0.0174763,1644,1632,15.1215,-34.942
427,-608,15.1423,34.4363,0.00296994,0.00579526,-0.00219784,0.00699528,0.00176991,-1.07103,0.00419976,0.0186757,1651,1632,15.1423,-34.4363
434,-608,15.1274,33.9266,0.00241218,0.0048536,-0.00197805,0.00595729,0.00130849,-1.06186,0.00361518,0.0150103,1658,1632,15.1274,-33.9266
441,-608,15.131,33.4244,0.00206099,0.00395984,-0.00197005,0.00519731,0.000823525,-1.00994,0.0032256,0.0132067,1665,1632,15.131,-33.4244
448,-608,15.1339,32.9409,0.00181122,0.00300535,-0.00189929,0.00439921,0.000417355,-0.937689,0.00280406,0.0153269,1672,1632,15.1339,-32.9409
455,-608,15.1401,32.3899,0.00161581,0.00195189,-0.00185112,0.00364258,-7.48858e-05,-0.830663,0.00245373,0.0122043,1679,1632,15.1401,-32.3899
462,-608,15.1122,31.8768,0.00142201,0.000729151,-0.00169104,0.00280174,-0.000650579,-0.684365,0.00211825,0.011941,1686,1632,15.1121,-31.8769
469,-608,15.078,31.386,0.00126954,-0.000537236,-0.00149987,0.00211707,-0.00138476,-0.514339,0.00203647,0.00916875,1693,1632,15.078,-31.3859
476,-608,15.0444,30.8668,0.00103731,-0.00163801,-0.00118745,0.00148832,-0.00208903,-0.36299,0.00207507,0.00964885,1700,1632,15.0444,-30.8668
483,-608,15.0269,30.3361,0.000601915,-0.00259931,-0.000799631,0.00079054,-0.00278793,-0.231655,0.00217066,0.00955269,1707,1632,15.0268,-30.336
490,-608,15.0284,29.8041,8.06939e-05,-0.00330806,-0.000472312,0.000145292,-0.00337266,-0.135926,0.0022984,0.0104246,1714,1632,15.0285,-29.8041
497,-608,15.0336,29.2408,-0.000606287,-0.00383721,-0.000271442,-0.000583641,-0.00385985,-0.0832363,0.00240244,0.0226533,1721,1632,15.0335,-29.2408
504,-608,15.1208,28.6444,0,0,0,0,0,0,0,-1,1728,1632,15.1208,-28.6445
511,-608,14.8854,28.4458,0,0,0,0,0,0,0,-1,1735,1632,14.8853,-28.4458
518,-608,14.932,27.522,0,0,0,0,0,0,0,-1,1742,1632,14.932,-27.522
525,-608,11.2109,16.2579,0,0,0,0,0,0,0,-1,1749,1632,11.2109,-16.2579
532,-608,8.27917,11.6693,0,0,0,0,0,0,0,-1,1756,1632,8.27919,-11.6694
539,-608,9.40796,1.43457,0,0,0,0,0,0,0,-1,1763,1632,9.40801,-1.43463
546,-608,9.94031,2.1134,0,0,0,0,0,0,0,-1,1770,1632,9.94031,-2.11346
553,-608,10.363,2.81335,0,0,0,0,0,0,0,-1,1777,1632,10.3631,-2.81333
560,-608,9.23999,4.5636,0,0,0,0,0,0,0,-1,1784,1632,9.24,-4.56354
567,-608,0,0,0,0,0,0,0,0,0,-1,1791,1632,0,0
574,-608,0,0,0,0,0,0,0,0,0,-1,1798,1632,0,0
581,-608,0,0,0,0,0,0,0,0,0,-1,1805,1632,0,0
588,-608,0,0,0,0,0,0,0,0,0,-1,1812,1632,0,0
595,-608,0,0,0,0,0,0,0,0,0,-1,1819,1632,0,0
602,-608,0,0,0,0,0,0,0,0,0,-1,1826,1632,0,0
609,-608,0,0,0,0,0,0,0,0,0,-1,1833,1632,0,0
616,-608,0,0,0,0,0,0,0,0,0,-1,1840,1632,0,0
623,-608,0,0,0,0,0,0,0,0,0,-1,1847,1632,0,0
630,-608,0,0,0,0,0,0,0,0,0,-1,1854,1632,0,0
637,-608,0,0,0,0,0,0,0,0,0,-1,1861,1632,0,0
644,-608,0,0,0,0,0,0,0,0,0,-1,1868,1632,0,0
651,-608,0,0,0,0,0,0,0,0,0,-1,1875,1632,0,0
658,-608,0,0,0,0,0,0,0,0,0,-1,1882,1632,0,0
665,-608,0,0,0,0,0,0,0,0,0,-1,1889,1632,0,0
672,-608,0,0,0,0,0,0,0,0,0,-1,1896,1632,0,0
679,-608,0,0,0,0,0,0,0,0,0,-1,1903,1632,0,0
686,-608,0,0,0,0,0,0,0,0,0,-1,1910,1632,0,0
693,-608,0,0,0,0,0,0,0,0,0,-1,1917,1632,0,0
700,-608,0,0,0,0,0,0,0,0,0,-1,1924,1632,0,0
707,-608,0,0,0,0,0,0,0,0,0,-1,1931,1632,0,0
714,-608,0,0,0,0,0,0,0,0,0,-1,1938,1632,0,0
721,-608,0,0,0,0,0,0,0,0,0,-1,1945,1632,0,0
728,-608,0,0,0,0,0,0,0,0,0,-1,1952,1632,0,0
735,-608,0,0,0,0,0,0,0,0,0,-1,1959,1632,0,0
742,-608,0,0,0,0,0,0,0,0,0,-1,1966,1632,0,0
749,-608,0,0,0,0,0,0,0,0,0,-1,1973,1632,0,0
756,-608,0,0,0,0,0,0,0,0,0,-1,1980,1632,0,0
763,-608,0,0,0,0,0,0,0,0,0,-1,1987,1632,0,0
770,-608,0,0,0,0,0,0,0,0,0,-1,1994,1632,0,0
777,-608,0,0,0,0,0,0,0,0,0,-1,2001,1632,0,0
784,-608,0,0,0,0,0,0,0,0,0,-1,2008,1632,0,0
791,-608,0,0,0,0,0,0,0,0,0,-1,2015,1632,0,0
798,-608,0,0,0,0,0,0,0,0,0,-1,2022,1632,0,0
805,-608,0,0,0,0,0,0,0,0,0,-1,2029,1632,0,0
812,-608,0,0,0,0,0,0,0,0,0,-1,2036,1632,0,0
-700,-615,0,0,0,0,0,0,0,0,0,-1,524,1639,0,0
-693,-615,0,0,0,0,0,0,0,0,0,-1,531,1639,0,0
-686,-615,0,0,0,0,0,0,0,0,0,-1,538,1639,0,0
-679,-615,0,0,0,0,0,0,0,0,0,-1,545,1639,0,0
-672,-615,0,0,0,0,0,0,0,0,0,-1,552,1639,0,0
-665,-615,0,0,0,0,0,0,0,0,0,-1,559,1639,0,0
-658,-615,0,0,0,0,0,0,0,0,0,-1,566,1639,0,0
-651,-615,0,0,0,0,0,0,0,0,0,-1,573,1639,0,0
-644,-615,0,0,0,0,0,0,0,0,0,-1,580,1639,0,0
-637,-615,0,0,0,0,0,0,0,0,0,-1,587,1639,0,0
-630,-615,0,0,0,0,0,0,0,0,0,-1,594,1639,0,0
-623,-615,0,0,0,0,0,0,0,0,0,-1,601,1639,0,0
-616,-615,0,0,0,0,0,0,0,0,0,-1,608,1639,0,0
-609,-615,0,0,0,0,0,0,0,0,0,-1,615,1639,0,0
-602,-615,0,0,0,0,0,0,0,0,0,-1,622,1639,0,0
-595,-615,0,0,0,0,0,0,0,0,0,-1,629,1639,0,0
-588,-615,0,0,0,0,0,0,0,0,0,-1,636,1639,0,0
-581,-615,0,0,0,0,0,0,0,0,0,-1,643,1639,0,0
-574,-615,0,0,0,0,0,0,0,0,0,-1,650,1639,0,0
-567,-615,0,0,0,0,0,0,0,0,0,-1,657,1639,0,0
-560,-615,0,0,0,0,0,0,0,0,0,-1,664,1639,0,0
-553,-615,0,0,0,0,0,0,0,0,0,-1,671,1639,0,0
-546,-615,0,0,0,0,0,0,0,0,0,-1,678,1639,0,0
-539,-615,0,0,0,0,0,0,0,0,0,-1,685,1639,0,0
-532,-615,0,0,0,0,0,0,0,0,0,-1,692,1639,0,0
-525,-615,0,0,0,0,0,0,0,0,0,-1,699,1639,0,0
-518,-615,0,0,0,0,0,0,0,0,0,-1,706,1639,0,0
-511,-615,0,0,0,0,0,0,0,0,0,-1,713,1639,0,0
-504,-615,0,0,0,0,0,0,0,0,0,-1,720,1639,0,0
-497,-615,0,0,0,0,0,0,0,0,0,-1,727,1639,0,0
-490,-615,0,0,0,0,0,0,0,0,0,-1,734,1639,0,0
-483,-615,0,0,0,0,0,0,0,0,0,-1,741,1639,0,0
-476,-615,0,0,0,0,0,0,0,0,0,-1,748,1639,0,0
-469,-615,0,0,0,0,0,0,0,0,0,-1,755,1639,0,0
-462,-615,0,0,0,0,0,0,0,0,0,-1,762,1639,0,0
-455,-615,0,0,0,0,0,0,0,0,0,-1,769,1639,0,0
-448,-615,0,0,0,0,0,0,0,0,0,-1,776,1639,0,0
-441,-615,0,0,0,0,0,0,0,0,0,-1,783,1639,0,0
-434,-615,-7.64508,2.98596,0,0,0,0,0,0,0,-1,790,1639,-7.64505,-2.98594
-427,-615,-9.0011,2.89404,0,0,0,0,0,0,0,-1,797,1639,-9.00107,-2.89399
-420,-615,-8.07568,3.0752,0,0,0,0,0,0,0,-1,804,1639,-8.07569,-3.07514
-413,-615,-7.09149,3.396,0,0,0,0,0,0,0,-1,811,1639,-7.09147,-3.39599
-406,-615,-6.21368,3.7312,0,0,0,0,0,0,0,-1,818,1639,-6.21366,-3.73114
-399,-615,-4.84875,3.91907,0,0,0,0,0,0,0,-1,825,1639,-4.84877,-3.91901
-392,-615,1.7395,13.3127,0,0,0,0,0,0,0,-1,832,1639,1.73953,-13.3128
-385,-615,3.42297,14.9401,0,0,0,0,0,0,0,-1,839,1639,3.42296,-14.94
-378,-615,2.54102,17.2609,0,0,0,0,0,0,0,-1,846,1639,2.54099,-17.2608
-371,-615,3.25763,27.7533,0,0,0,0,0,0,0,-1,853,1639,3.25763,-27.7533
-364,-615,3.05316,28.6313,0,0,0,0,0,0,0,-1,860,1639,3.05315,-28.6313
-357,-615,2.91608,29.1299,0,0,0,0,0,0,0,-1,867,1639,2.9161,-29.1299
-350,-615,2.95294,29.792,-0.00473286,0.00237958,-0.00104694,0.00253049,-0.00488377,-1.42764,0.0043519,0.0324423,874,1639,2.95297,-29.792
-343,-615,2.90442,30.2887,-0.00333298,0.0024809,-0.000828812,0.00259675,-0.00344883,-1.43192,0.00350195,0.0207543,881,1639,2.90439,-30.2887
-336,-615,2.88483,30.8663,-0.00208715,0.00249174,-0.000575202,0.0025629,-0.0021583,-1.44772,0.00272912,0.0107917,888,1639,2.88485,-30.8663
-329,-615,2.83496,31.4299,-0.000982305,0.00270096,-0.000230628,0.00271535,-0.000996689,-1.50851,0.00221839,0.0112983,895,1639,2.83496,-31.43
-322,-615,2.82513,31.989,-0.000251374,0.0030121,9.00484e-05,0.00301458,-0.000253857,1.54323,0.00209946,0.0122818,902,1639,2.82512,-31.9891
-315,-615,2.82288,32.5397,0.000376575,0.00336391,0.000517159,0.00345091,0.000289579,1.40414,0.00221041,0.0141893,909,1639,2.82286,-32.5397
-308,-615,2.7605,33.0432,0.00113257,0.00372663,0.000958602,0.00404242,0.000816778,1.25256,0.00246816,0.0214562,916,1639,2.7605,-33.0432
-301,-615,2.78113,33.5464,0.00216194,0.00434191,0.00163153,0.00521405,0.00128979,1.07989,0.00313581,0.0130071,923,1639,2.78112,-33.5464
-294,-615,2.77515,34.0756,0.00328243,0.00511676,0.00246519,0.00682987,0.00156932,0.963487,0.00413073,0.0107455,930,1639,2.77513,-34.0755
-287,-615,2.72552,34.6001,0.00439606,0.00618287,0.00326271,0.00867228,0.00190665,0.919034,0.00526239,0.0084412,937,1639,2.72551,-34.6001
-280,-615,2.72058,35.0944,0.00570242,0.0072677,0.00416503,0.010723,0.00224713,0.878269,0.00652979,0.00950746,944,1639,2.72058,-35.0944
-273,-615,2.70386,35.616,0.00711321,0.00855284,0.00516482,0.0130478,0.00261828,0.854636,0.00797041,0.0112149,951,1639,2.70385,-35.6159
-266,-615,2.69757,36.129,0.00854634,0.00999226,0.00604258,0.015355,0.00318363,0.844937,0.00935773,0.0113311,958,1639,2.69757,-36.129
-259,-615,2.72198,36.6123,0.0100734,0.0118001,0.00702096,0.0180106,0.0038629,0.846574,0.010949,0.013016,965,1639,2.72199,-36.6124
-252,-615,2.72522,37.1672,0.0116769,0.0134039,0.00825702,0.0208424,0.00423833,0.837497,0.0127198,0.0178957,972,1639,2.72519,-37.1672
-245,-615,2.85272,37.821,0.0132024,0.0149249,0.00931275,0.0234162,0.00471118,0.831507,0.0143014,0.029466,979,1639,2.85269,-37.8211
-238,-615,2.83496,38.397,0.0145142,0.0160848,0.010137,0.0254669,0.00513208,0.824053,0.0155521,0.0449368,986,1639,2.83494,-38.397
-231,-615,2.86841,39.0387,0,0,0,0,0,0,0,-1,993,1639,2.86842,-39.0387
-224,-615,3.11151,39.1581,0,0,0,0,0,0,0,-1,1000,1639,3.11149,-39.1581
-217,-615,3.99097,27.3737,0,0,0,0,0,0,0,-1,1007,1639,3.99096,-27.3736
-210,-615,2.48901,18.9324,0,0,0,0,0,0,0,-1,1014,1639,2.48902,-18.9323
-203,-615,2.13684,18.6173,0,0,0,0,0,0,0,-1,1021,1639,2.13683,-18.6173
-196,-615,4.27161,21.3264,0,0,0,0,0,0,0,-1,1028,1639,4.27165,-21.3264
-189,-615,1.8269,19.6761,0,0,0,0,0,0,0,-1,1035,1639,1.82691,-19.6761
-182,-615,1.63489,20.2278,0,0,0,0,0,0,0,-1,1042,1639,1.63492,-20.2277
-175,-615,-0.609985,13.8434,0,0,0,0,0,0,0,-1,1049,1639,-0.610016,-13.8434
-168,-615,3.85754,15.472,0,0,0,0,0,0,0,-1,1056,1639,3.85757,-15.472
-161,-615,6.29199,42.7927,0,0,0,0,0,0,0,-1,1063,1639,6.29198,-42.7928
-154,-615,6.18787,42.3624,0,0,0,0,0,0,0,-1,1070,1639,6.18788,-42.3624
-147,-615,1.52502,17.3442,0,0,0,0,0,0,0,-1,1077,1639,1.52501,-17.3442
-140,-615,3.73401,10.2349,0,0,0,0,0,0,0,-1,1084,1639,3.73402,-10.2348
-133,-615,2.6178,17.45,0,0,0,0,0,0,0,-1,1091,1639,2.61776,-17.4499
-126,-615,4.43408,12.5017,0,0,0,0,0,0,0,-1,1098,1639,4.43403,-12.5018
-119,-615,4.82983,13.9279,0,0,0,0,0,0,0,-1,1105,1639,4.82986,-13.9278
-112,-615,3.65698,14.4874,0,0,0,0,0,0,0,-1,1112,1639,3.65695,-14.4875
-105,-615,0.958496,2.45398,0,0,0,0,0,0,0,-1,1119,1639,0.958452,-2.45398
-98,-615,-0.647705,2.12109,0,0,0,0,0,0,0,-1,1126,1639,-0.647756,-2.12105
-91,-615,-3.07983,2.97375,0,0,0,0,0,0,0,-1,1133,1639,-3.07989,-2.97376
-84,-615,-2.46509,0.703247,0,0,0,0,0,0,0,-1,1140,1639,-2.46505,-0.703273
-77,-615,-3.17859,1.23755,0,0,0,0,0,0,0,-1,1147,1639,-3.17865,-1.23752
-70,-615,-4.03943,1.43335,0,0,0,0,0,0,0,-1,1154,1639,-4.03942,-1.43339
-63,-615,-4.8877,1.45544,0,0,0,0,0,0,0,-1,1161,1639,-4.88766,-1.45549
-56,-615,0,0,0,0,0,0,0,0,0,-1,1168,1639,0,0
-49,-615,0,0,0,0,0,0,0,0,0,-1,1175,1639,0,0
-42,-615,0,0,0,0,0,0,0,0,0,-1,1182,1639,0,0
-35,-615,0,0,0,0,0,0,0,0,0,-1,1189,1639,0,0
-28,-615,0,0,0,0,0,0,0,0,0,-1,1196,1639,0,0
-21,-615,0,0,0,0,0,0,0,0,0,-1,1203,1639,0,0
-14,-615,0,0,0,0,0,0,0,0,0,-1,1210,1639,0,0
-7,-615,0,0,0,0,0,0,0,0,0,-1,1217,1639,0,0
0,-615,0,0,0,0,0,0,0,0,0,-1,1224,1639,0,0
7,-615,0,0,0,0,0,0,0,0,0,-1,1231,1639,0,0
14,-615,0,0,0,0,0,0,0,0,0,-1,1238,1639,0,0
21,-615,0,0,0,0,0,0,0,0,0,-1,1245,1639,0,0
28,-615,0,0,0,0,0,0,0,0,0,-1,1252,1639,0,0
35,-615,0,0,0,0,0,0,0,0,0,-1,1259,1639,0,0
42,-615,0,0,0,0,0,0,0,0,0,-1,1266,1639,0,0
49,-615,0,0,0,0,0,0,0,0,0,-1,1273,1639,0,0
56,-615,0,0,0,0,0,0,0,0,0,-1,1280,1639,0,0
63,-615,0,0,0,0,0,0,0,0,0,-1,1287,1639,0,0
70,-615,0,0,0,0,0,0,0,0,0,-1,1294,1639,0,0
77,-615,0,0,0,0,0,0,0,0,0,-1,1301,1639,0,0
84,-615,0,0,0,0,0,0,0,0,0,-1,1308,1639,0,0
91,-615,0,0,0,0,0,0,0,0,0,-1,1315,1639,0,0
98,-615,0,0,0,0,0,0,0,0,0,-1,1322,1639,0,0
105,-615,0,0,0,0,0,0,0,0,0,-1,1329,1639,0,0
112,-615,0,0,0,0,0,0,0,0,0,-1,1336,1639,0,0
119,-615,0,0,0,0,0,0,0,0,0,-1,1343,1639,0,0
126,-615,0,0,0,0,0,0,0,0,0,-1,1350,1639,0,0
133,-615,0,0,0,0,0,0,0,0,0,-1,1357,1639,0,0
140,-615,0,0,0,0,0,0,0,0,0,-1,1364,1639,0,0
147,-615,0,0,0,0,0,0,0,0,0,-1,1371,1639,0,0
154,-615,0,0,0,0,0,0,0,0,0,-1,1378,1639,0,0
161,-615,0,0,0,0,0,0,0,0,0,-1,1385,1639,0,0
168,-615,0,0,0,0,0,0,0,0,0,-1,1392,1639,0,0
175,-615,5.39648,-2.00879,0,0,0,0,0,0,0,-1,1399,1639,5.3965,2.00881
182,-615,5.65393,-1.51025,0,0,0,0,0,0,0,-1,1406,1639,5.65388,1.51028
189,-615,5.58972,-1.35608,0,0,0,0,0,0,0,-1,1413,1639,5.58967,1.35607
196,-615,5.49915,-0.693604,0,0,0,0,0,0,0,-1,1420,1639,5.4991,0.693602
203,-615,5.33411,-0.226685,0,0,0,0,0,0,0,-1,1427,1639,5.33414,0.226689
210,-615,5.60278,0.108276,0,0,0,0,0,0,0,-1,1434,1639,5.60284,-0.10831
217,-615,6.26331,-0.307373,0,0,0,0,0,0,0,-1,1441,1639,6.26331,0.307372
224,-615,5.45422,-0.333984,0,0,0,0,0,0,0,-1,1448,1639,5.45422,0.333992
231,-615,4.92542,1.80298,0,0,0,0,0,0,0,-1,1455,1639,4.92537,-1.80297
238,-615,4.76355,1.96729,0,0,0,0,0,0,0,-1,1462,1639,4.76357,-1.96734
245,-615,4.08643,3.15906,0,0,0,0,0,0,0,-1,1469,1639,4.08638,-3.159
252,-615,6.37805,3.73889,0,0,0,0,0,0,0,-1,1476,1639,6.37806,-3.73891
259,-615,8.35974,3.16443,0,0,0,0,0,0,0,-1,1483,1639,8.35975,-3.16444
266,-615,10.3414,2.58997,0,0,0,0,0,0,0,-1,1490,1639,10.3414,-2.58996
273,-615,6.57043,1.84766,0,0,0,0,0,0,0,-1,1497,1639,6.5704,-1.84771
280,-615,7.10449,3.23438,0,0,0,0,0,0,0,-1,1504,1639,7.10447,-3.23435
287,-615,7.35779,4.68542,0,0,0,0,0,0,0,-1,1511,1639,7.35776,-4.68546
294,-615,7.63733,6.29114,0,0,0,0,0,0,0,-1,1518,1639,7.63735,-6.29109
301,-615,8.47925,11.452,0,0,0,0,0,0,0,-1,1525,1639,8.47922,-11.452
308,-615,6.8114,10.9059,0,0,0,0,0,0,0,-1,1532,1639,6.81137,-10.9058
315,-615,5.1427,14.7251,0,0,0,0,0,0,0,-1,1539,1639,5.14269,-14.7251
322,-615,7.17981,17.6864,0,0,0,0,0,0,0,-1,1546,1639,7.17985,-17.6864
329,-615,7.62134,20.4354,0,0,0,0,0,0,0,-1,1553,1639,7.62139,-20.4354
336,-615,6.45007,14.1138,0,0,0,0,0,0,0,-1,1560,1639,6.45011,-14.1138
343,-615,2.40491,6.50134,0,0,0,0,0,0,0,-1,1567,1639,2.40489,-6.50137
350,-615,13.4233,40.7233,0,0,0,0,0,0,0,-1,1574,1639,13.4234,-40.7233
357,-615,14.651,40.1298,0,0,0,0,0,0,0,-1,1581,1639,14.651,-40.1297
364,-615,14.3612,39.411,0,0,0,0,0,0,0,-1,1588,1639,14.3612,-39.411
371,-615,14.561,38.7332,0.0105958,0.0201948,-0.0108724,0.0272798,0.0035107,-0.993254,0.0171366,0.0405521,1595,1639,14.561,-38.7331
378,-615,14.6678,37.8419,0.00894688,0.0170258,-0.00877937,0.0226504,0.00332226,-1.00101,0.0141237,0.0201952,1602,1639,14.6678,-37.8419
385,-615,14.6548,37.3131,0.00757357,0.0140583,-0.00701817,0.0185469,0.00308497,-1.00179,0.0114753,0.0123737,1609,1639,14.6548,-37.3131
392,-615,14.6847,36.8387,0.00640545,0.0114429,-0.00551608,0.0149881,0.00286026,-0.999569,0.00918827,0.0113842,1616,1639,14.6847,-36.8387
399,-615,14.6879,36.3544,0.00523711,0.00910256,-0.00415612,0.0117534,0.0025863,-1.00304,0.00713155,0.0123691,1623,1639,14.6878,-36.3544
406,-615,14.6857,35.8936,0.00430524,0.00732386,-0.00327209,0.00941796,0.00221114,-1.00149,0.00568674,0.0125027,1630,1639,14.6856,-35.8936
413,-615,14.6727,35.4384,0.00362829,0.00567232,-0.00264791,0.0074886,0.00181201,-0.969576,0.00451137,0.0133899,1637,1639,14.6727,-35.4383
420,-615,14.6633,34.955,0.00306016,0.00450958,-0.00223614,0.00613551,0.00143423,-0.942103,0.00370596,0.0134638,1644,1639,14.6634,-34.955
427,-615,14.66,34.4437,0.00256356,0.00340429,-0.00185135,0.0048824,0.00108546,-0.897035,0.00296021,0.0146729,1651,1639,14.66,-34.4437
434,-615,14.6506,33.9468,0.00215906,0.00244333,-0.00172105,0.00402811,0.000574284,-0.826598,0.00251592,0.014631,1658,1639,14.6507,-33.9468
441,-615,14.6533,33.4432,0.00192778,0.00158004,-0.00178249,0.00354486,-3.70338e-05,-0.73678,0.00237568,0.0153718,1665,1639,14.6533,-33.4432
448,-615,14.6395,32.9335,0.0017805,0.000656884,-0.00178052,0.00308574,-0.00064836,-0.632577,0.00230389,0.0159151,1672,1639,14.6395,-32.9335
455,-615,14.6361,32.4124,0.00168966,-0.000309695,-0.00178944,0.00273972,-0.00135976,-0.530667,0.00241112,0.014743,1679,1639,14.6362,-32.4123
462,-615,14.5909,31.9246,0.00160437,-0.00147288,-0.00169898,0.00235789,-0.00222639,-0.417443,0.0026471,0.0156363,1686,1639,14.5909,-31.9245
469,-615,14.5597,31.4183,0.00149683,-0.00261668,-0.00155084,0.002016,-0.00313584,-0.323036,0.00299775,0.0128747,1693,1639,14.5597,-31.4183
476,-615,14.5566,30.8788,0.00129315,-0.00359555,-0.0013049,0.00161965,-0.00392205,-0.245177,0.00329026,0.0123119,1700,1639,14.5567,-30.8788
483,-615,14.593,30.2821,0.000846276,-0.0042608,-0.000931886,0.001011,-0.00442553,-0.17496,0.00333877,0.0245492,1707,1639,14.593,-30.2821
490,-615,14.5446,29.7753,0.00031896,-0.00475912,-0.000589292,0.000386448,-0.00482661,-0.114027,0.00335399,0.0366252,1714,1639,14.5445,-29.7753
497,-615,14.464,29.3778,-0.0003053,-0.00506423,-0.00035804,-0.000278514,-0.00509101,-0.0746753,0.00330508,0.0461911,1721,1639,14.464,-29.3778
504,-615,14.4939,28.8616,0,0,0,0,0,0,0,-1,1728,1639,14.4939,-28.8616
511,-615,14.4052,28.6218,0,0,0,0,0,0,0,-1,1735,1639,14.4052,-28.6218
518,-615,13.2416,9.81812,0,0,0,0,0,0,0,-1,1742,1639,13.2416,-9.81813
525,-615,4.37524,3.90491,0,0,0,0,0,0,0,-1,1749,1639,4.37518,-3.90495
532,-615,7.3645,0.848145,0,0,0,0,0,0,0,-1,1756,1639,7.36451,-0.848093
539,-615,12.8112,-0.0476074,0,0,0,0,0,0,0,-1,1763,1639,12.8111,0.0475553
546,-615,8.33813,2.94556,0,0,0,0,0,0,0,-1,1770,1639,8.33813,-2.9455
553,-615,5.82532,-2.04199,0,0,0,0,0,0,0,-1,1777,1639,5.82534,2.04195
560,-615,0,0,0,0,0,0,0,0,0,-1,1784,1639,0,0
567,-615,0,0,0,0,0,0,0,0,0,-1,1791,1639,0,0
574,-615,0,0,0,0,0,0,0,0,0,-1,1798,1639,0,0
581,-615,0,0,0,0,0,0,0,0,0,-1,1805,1639,0,0
588,-615,0,0,0,0,0,0,0,0,0,-1,1812,1639,0,0
595,-615,0,0,0,0,0,0,0,0,0,-1,1819,1639,0,0
602,-615,0,0,0,0,0,0,0,0,0,-1,1826,1639,0,0
609,-615,0,0,0,0,0,0,0,0,0,-1,1833,1639,0,0
616,-615,0,0,0,0,0,0,0,0,0,-1,1840,1639,0,0
623,-615,0,0,0,0,0,0,0,0,0,-1,1847,1639,0,0
630,-615,0,0,0,0,0,0,0,0,0,-1,1854,1639,0,0
637,-615,0,0,0,0,0,0,0,0,0,-1,1861,1639,0,0
644,-615,0,0,0,0,0,0,0,0,0,-1,1868,1639,0,0
651,-615,0,0,0,0,0,0,0,0,0,-1,1875,1639,0,0
658,-615,0,0,0,0,0,0,0,0,0,-1,1882,1639,0,0
665,-615,0,0,0,0,0,0,0,0,0,-1,1889,1639,0,0
672,-615,0,0,0,0,0,0,0,0,0,-1,1896,1639,0,0
679,-615,0,0,0,0,0,0,0,0,0,-1,1903,1639,0,0
686,-615,0,0,0,0,0,0,0,0,0,-1,1910,1639,0,0
693,-615,0,0,0,0,0,0,0,0,0,-1,1917,1639,0,0
700,-615,0,0,0,0,0,0,0,0,0,-1,1924,1639,0,0
707,-615,0,0,0,0,0,0,0,0,0,-1,1931,1639,0,0
714,-615,0,0,0,0,0,0,0,0,0,-1,1938,1639,0,0
721,-615,0,0,0,0,0,0,0,0,0,-1,1945,1639,0,0
728,-615,0,0,0,0,0,0,0,0,0,-1,1952,1639,0,0
735,-615,0,0,0,0,0,0,0,0,0,-1,1959,1639,0,0
742,-615,0,0,0,0,0,0,0,0,0,-1,1966,1639,0,0
749,-615,0,0,0,0,0,0,0,0,0,-1,1973,1639,0,0
756,-615,0,0,0,0,0,0,0,0,0,-1,1980,1639,0,0
763,-615,0,0,0,0,0,0,0,0,0,-1,1987,1639,0,0
770,-615,0,0,0,0,0,0,0,0,0,-1,1994,1639,0,0
777,-615,0,0,0,0,0,0,0,0,0,-1,2001,1639,0,0
784,-615,0,0,0,0,0,0,0,0,0,-1,2008,1639,0,0
791,-615,0,0,0,0,0,0,0,0,0,-1,2015,1639,0,0
798,-615,0,0,0,0,0,0,0,0,0,-1,2022,1639,0,0
805,-615,0,0,0,0,0,0,0,0,0,-1,2029,1639,0,0
812,-615,0,0,0,0,0,0,0,0,0,-1,2036,1639,0,0
-700,-622,0,0,0,0,0,0,0,0,0,-1,524,1646,0,0
-693,-622,0,0,0,0,0,0,0,0,0,-1,531,1646,0,0
-686,-622,0,0,0,0,0,0,0,0,0,-1,538,1646,0,0
-679,-622,0,0,0,0,0,0,0,0,0,-1,545,1646,0,0
-672,-622,0,0,0,0,0,0,0,0,0,-1,552,1646,0,0
-665,-622,0,0,0,0,0,0,0,0,0,-1,559,1646,0,0
-658,-622,0,0,0,0,0,0,0,0,0,-1,566,1646,0,0
-651,-622,0,0,0,0,0,0,0,0,0,-1,573,1646,0,0
-644,-622,0,0,0,0,0,0,0,0,0,-1,580,1646,0,0
-637,-622,0,0,0,0,0,0,0,0,0,-1,587,1646,0,0
-630,-622,0,0,0,0,0,0,0,0,0,-1,594,1646,0,0
-623,-622,0,0,0,0,0,0,0,0,0,-1,601,1646,0,0
-616,-622,0,0,0,0,0,0,0,0,0,-1,608,1646,0,0
-609,-622,0,0,0,0,0,0,0,0,0,-1,615,1646,0,0
-602,-622,0,0,0,0,0,0,0,0,0,-1,622,1646,0,0
-595,-622,0,0,0,0,0,0,0,0,0,-1,629,1646,0,0
-588,-622,0,0,0,0,0,0,0,0,0,-1,636,1646,0,0
-581,-622,0,0,0,0,0,0,0,0,0,-1,643,1646,0,0
-574,-622,0,0,0,0,0,0,0,0,0,-1,650,1646,0,0
-567,-622,0,0,0,0,0,0,0,0,0,-1,657,1646,0,0
-560,-622,0,0,0,0,0,0,0,0,0,-1,664,1646,0,0
-553,-622,0,0,0,0,0,0,0,0,0,-1,671,1646,0,0
-546,-622,0,0,0,0,0,0,0,0,0,-1,678,1646,0,0
-539,-622,0,0,0,0,0,0,0,0,0,-1,685,1646,0,0
-532,-622,0,0,0,0,0,0,0,0,0,-1,692,1646,0,0
-525,-622,0,0,0,0,0,0,0,0,0,-1,699,1646,0,0
-518,-622,0,0,0,0,0,0,0,0,0,-1,706,1646,0,0
-511,-622,0,0,0,0,0,0,0,0,0,-1,713,1646,0,0
-504,-622,0,0,0,0,0,0,0,0,0,-1,720,1646,0,0
-497,-622,0,0,0,0,0,0,0,0,0,-1,727,1646,0,0
-490,-622,0,0,0,0,0,0,0,0,0,-1,734,1646,0,0
-483,-622,0,0,0,0,0,0,0,0,0,-1,741,1646,0,0
-476,-622,0,0,0,0,0,0,0,0,0,-1,748,1646,0,0
-469,-622,0,0,0,0,0,0,0,0,0,-1,755,1646,0,0
-462,-622,0,0,0,0,0,0,0,0,0,-1,762,1646,0,0
-455,-622,0,0,0,0,0,0,0,0,0,-1,769,1646,0,0
-448,-622,0,0,0,0,0,0,0,0,0,-1,776,1646,0,0
-441,-622,0,0,0,0,0,0,0,0,0,-1,783,1646,0,0
-434,-622,0,0,0,0,0,0,0,0,0,-1,790,1646,0,0
-427,-622,-7.62891,3.48096,0,0,0,0,0,0,0,-1,797,1646,-7.62892,-3.48092
-420,-622,-9.35791,1.77185,0,0,0,0,0,0,0,-1,804,1646,-9.35789,-1.77183
-413,-622,-8.46075,1.96777,0,0,0,0,0,0,0,-1,811,1646,-8.46074,-1.96774
-406,-622,-4.44318,2.16858,0,0,0,0,0,0,0,-1,818,1646,-4.44315,-2.16859
-399,-622,-7.06976,1.51001,0,0,0,0,0,0,0,-1,825,1646,-7.06976,-1.51005
-392,-622,3.89551,5.85376,0,0,0,0,0,0,0,-1,832,1646,3.8955,-5.85379
-385,-622,2.00543,14.0448,0,0,0,0,0,0,0,-1,839,1646,2.00544,-14.0448
-378,-622,1.49036,15.3436,0,0,0,0,0,0,0,-1,846,1646,1.49033,-15.3436
-371,-622,3.23883,20.4496,0,0,0,0,0,0,0,-1,853,1646,3.23886,-20.4496
-364,-622,3.35059,28.5515,0,0,0,0,0,0,0,-1,860,1646,3.35058,-28.5515
-357,-622,3.60553,29.1117,0,0,0,0,0,0,0,-1,867,1646,3.60551,-29.1117
-350,-622,3.3916,29.7775,0,0,0,0,0,0,0,-1,874,1646,3.39157,-29.7775
-343,-622,3.41443,30.3407,-0.0046544,0.00412975,-0.00206253,0.00458993,-0.00511458,-1.35128,0.00560563,0.0249498,881,1646,3.41445,-30.3408
-336,-622,3.41998,30.8845,-0.0032952,0.0038767,-0.00174595,0.00427916,-0.00369766,-1.34425,0.00460949,0.00905586,888,1646,3.42001,-30.8845
-329,-622,3.37415,31.4193,-0.00219828,0.00386926,-0.00129899,0.00413566,-0.00246469,-1.36852,0.0038512,0.00825498,895,1646,3.37415,-31.4194
-322,-622,3.34412,31.983,-0.00150975,0.00385909,-0.000914048,0.00401044,-0.0016611,-1.4067,0.0033668,0.00987182,902,1646,3.34409,-31.983
-315,-622,3.33582,32.5322,-0.000931631,0.003787,-0.000456599,0.00383078,-0.000975407,-1.47521,0.00293355,0.0138952,909,1646,3.3358,-32.5323
-308,-622,3.31335,33.0325,-0.000251585,0.00379653,2.0278e-05,0.00379663,-0.000251687,1.56579,0.00261902,0.0156645,916,1646,3.31338,-33.0324
-301,-622,3.30499,33.5435,0.000628835,0.00398499,0.000645338,0.0041048,0.000509023,1.38723,0.00258363,0.0145684,923,1646,3.30501,-33.5435
-294,-622,3.28729,34.0806,0.00162273,0.00434472,0.00139933,0.00493576,0.0010317,1.17115,0.00300621,0.0101669,930,1646,3.28726,-34.0805
-287,-622,3.25891,34.6064,0.00261031,0.00495125,0.00208556,0.00617234,0.00138922,1.04111,0.00373886,0.00799731,937,1646,3.25891,-34.6064
-280,-622,3.237,35.1106,0.0037345,0.00559024,0.00281783,0.00762903,0.0016957,0.94445,0.00462558,0.00946768,944,1646,3.23698,-35.1106
-273,-622,3.24158,35.6012,0.00492311,0.00643573,0.0035918,0.00934998,0.00200886,0.889165,0.00568331,0.0145866,951,1646,3.24158,-35.6012
-266,-622,3.22827,36.106,0.0061193,0.00738089,0.0043196,0.0111155,0.00238468,0.857901,0.0067572,0.0139048,958,1646,3.22829,-36.106
-259,-622,3.23419,36.6311,0.00737669,0.00862189,0.00500351,0.0130414,0.00295719,0.847297,0.00789534,0.0125567,965,1646,3.23418,-36.6311
-252,-622,3.21246,37.0925,0.00863976,0.00985662,0.00578542,0.0150655,0.00343086,0.837789,0.00911781,0.013248,972,1646,3.21249,-37.0925
-245,-622,3.26251,37.5747,0.00980988,0.0110033,0.00642771,0.0168619,0.00395124,0.831682,0.010183,0.011749,979,1646,3.26249,-37.5747
-238,-622,3.26404,38.061,0.0108142,0.0118741,0.00690873,0.0182732,0.00441516,0.823677,0.0110096,0.0163813,986,1646,3.26402,-38.061
-231,-622,3.34021,38.6561,0,0,0,0,0,0,0,-1,993,1646,3.34022,-38.6561
-224,-622,3.43024,39.0482,0,0,0,0,0,0,0,-1,1000,1646,3.43026,-39.0482
-217,-622,3.55737,39.6227,0,0,0,0,0,0,0,-1,1007,1646,3.55738,-39.6227
-210,-622,3.87927,28.0903,0,0,0,0,0,0,0,-1,1014,1646,3.87925,-28.0903
-203,-622,4.21375,20.9574,0,0,0,0,0,0,0,-1,1021,1646,4.21375,-20.9574
-196,-622,4.18518,21.2491,0,0,0,0,0,0,0,-1,1028,1646,4.18521,-21.2491
-189,-622,4.98254,25.8979,0,0,0,0,0,0,0,-1,1035,1646,4.98255,-25.8979
-182,-622,2.21411,20.6752,0,0,0,0,0,0,0,-1,1042,1646,2.21416,-20.6751
-175,-622,3.69177,41.6937,0,0,0,0,0,0,0,-1,1049,1646,3.69179,-41.6937
-168,-622,6.59314,42.4806,0,0,0,0,0,0,0,-1,1056,1646,6.59313,-42.4805
-161,-622,6.42615,42.9493,0,0,0,0,0,0,0,-1,1063,1646,6.42617,-42.9493
-154,-622,6.46863,42.6807,0,0,0,0,0,0,0,-1,1070,1646,6.46865,-42.6807
-147,-622,6.60779,42.2427,0,0,0,0,0,0,0,-1,1077,1646,6.60781,-42.2427
-140,-622,3.27515,16.0353,0,0,0,0,0,0,0,-1,1084,1646,3.27519,-16.0353
-133,-622,3.09644,17.677,0,0,0,0,0,0,0,-1,1091,1646,3.09638,-17.677
-126,-622,3.5061,19.5251,0,0,0,0,0,0,0,-1,1098,1646,3.50616,-19.5252
-119,-622,4.06384,13.1715,0,0,0,0,0,0,0,-1,1105,1646,4.06379,-13.1716
-112,-622,4.33276,14.6605,0,0,0,0,0,0,0,-1,1112,1646,4.33281,-14.6605
-105,-622,0.306519,4.38159,0,0,0,0,0,0,0,-1,1119,1646,0.306536,-4.38159
-98,-622,-0.510376,3.5033,0,0,0,0,0,0,0,-1,1126,1646,-0.510393,-3.50324
-91,-622,-1.146,0.975952,0,0,0,0,0,0,0,-1,1133,1646,-1.14599,-0.97597
-84,-622,-2.04895,1.31787,0,0,0,0,0,0,0,-1,1140,1646,-2.0489,-1.31781
-77,-622,-1.80627,0.332275,0,0,0,0,0,0,0,-1,1147,1646,-1.80622,-0.33223
-70,-622,-3.65588,2.28149,0,0,0,0,0,0,0,-1,1154,1646,-3.65589,-2.28155
-63,-622,-2.49683,1.27087,0,0,0,0,0,0,0,-1,1161,1646,-2.49679,-1.27093
-56,-622,-2.44238,-0.575562,0,0,0,0,0,0,0,-1,1168,1646,-2.44242,0.575508
-49,-622,-2.41089,1.38818,0,0,0,0,0,0,0,-1,1175,1646,-2.41088,-1.38815
-42,-622,-2.71497,2.85242,0,0,0,0,0,0,0,-1,1182,1646,-2.71491,-2.85247
-35,-622,-3.0177,4.25842,0,0,0,0,0,0,0,-1,1189,1646,-3.01773,-4.25838
-28,-622,-0.896606,0.678833,0,0,0,0,0,0,0,-1,1196,1646,-0.89661,-0.678835
-21,-622,16.4141,36.2849,0,0,0,0,0,0,0,-1,1203,1646,16.4141,-36.285
-14,-622,12.7726,35.3608,0,0,0,0,0,0,0,-1,1210,1646,12.7726,-35.3609
-7,-622,5.90784,51.5118,0,0,0,0,0,0,0,-1,1217,1646,5.90783,-51.5119
0,-622,0,0,0,0,0,0,0,0,0,-1,1224,1646,0,0
7,-622,0,0,0,0,0,0,0,0,0,-1,1231,1646,0,0
14,-622,0,0,0,0,0,0,0,0,0,-1,1238,1646,0,0
21,-622,0,0,0,0,0,0,0,0,0,-1,1245,1646,0,0
28,-622,0,0,0,0,0,0,0,0,0,-1,1252,1646,0,0
35,-622,0,0,0,0,0,0,0,0,0,-1,1259,1646,0,0
42,-622,0,0,0,0,0,0,0,0,0,-1,1266,1646,0,0
49,-622,0,0,0,0,0,0,0,0,0,-1,1273,1646,0,0
56,-622,0,0,0,0,0,0,0,0,0,-1,1280,1646,0,0
63,-622,0,0,0,0,0,0,0,0,0,-1,1287,1646,0,0
70,-622,0,0,0,0,0,0,0,0,0,-1,1294,1646,0,0
77,-622,0,0,0,0,0,0,0,0,0,-1,1301,1646,0,0
84,-622,0,0,0,0,0,0,0,0,0,-1,1308,1646,0,0
91,-622,0,0,0,0,0,0,0,0,0,-1,1315,1646,0,0
98,-622,0,0,0,0,0,0,0,0,0,-1,1322,1646,0,0
105,-622,0,0,0,0,0,0,0,0,0,-1,1329,1646,0,0
112,-622,0,0,0,0,0,0,0,0,0,-1,1336,1646,0,0
119,-622,0,0,0,0,0,0,0,0,0,-1,1343,1646,0,0
126,-622,9.57373,57.0475,0,0,0,0,0,0,0,-1,1350,1646,9.57367,-57.0475
133,-622,5.92029,35.7479,0,0,0,0,0,0,0,-1,1357,1646,5.9203,-35.7479
140,-622,4.89063,34.3976,0,0,0,0,0,0,0,-1,1364,1646,4.89059,-34.3976
147,-622,4.76929,32.9276,0,0,0,0,0,0,0,-1,1371,1646,4.76923,-32.9276
154,-622,4.68335,31.5724,0,0,0,0,0,0,0,-1,1378,1646,4.68332,-31.5723
161,-622,10.6884,6.46448,0,0,0,0,0,0,0,-1,1385,1646,10.6883,-6.46442
168,-622,12.2402,5.18091,0,0,0,0,0,0,0,-1,1392,1646,12.2403,-5.1809
175,-622,5.64355,-1.77075,0,0,0,0,0,0,0,-1,1399,1646,5.64351,1.77077
182,-622,5.88586,-1.32251,0,0,0,0,0,0,0,-1,1406,1646,5.88587,1.32256
189,-622,5.97986,-1.18005,0,0,0,0,0,0,0,-1,1413,1646,5.97986,1.18003
196,-622,5.85022,-0.244507,0,0,0,0,0,0,0,-1,1420,1646,5.85026,0.244478
203,-622,5.25159,0.138794,0,0,0,0,0,0,0,-1,1427,1646,5.25162,-0.138822
210,-622,6.66833,0.0397949,0,0,0,0,0,0,0,-1,1434,1646,6.6684,-0.0398278
217,-622,6.12061,0.0506592,0,0,0,0,0,0,0,-1,1441,1646,6.12058,-0.0507181
224,-622,5.57275,0.0616455,0,0,0,0,0,0,0,-1,1448,1646,5.57276,-0.0616084
231,-622,5.31348,1.3949,0,0,0,0,0,0,0,-1,1455,1646,5.31342,-1.39495
238,-622,3.76477,2.90686,0,0,0,0,0,0,0,-1,1462,1646,3.7648,-2.90686
245,-622,5.13794,2.67993,0,0,0,0,0,0,0,-1,1469,1646,5.13796,-2.67992
252,-622,6.66528,2.53992,0,0,0,0,0,0,0,-1,1476,1646,6.66522,-2.53991
259,-622,8.93787,3.31458,0,0,0,0,0,0,0,-1,1483,1646,8.93791,-3.31454
266,-622,5.72644,3.11926,0,0,0,0,0,0,0,-1,1490,1646,5.72647,-3.1192
273,-622,7.28076,3.61218,0,0,0,0,0,0,0,-1,1497,1646,7.28071,-3.61212
280,-622,8.43127,4.4447,0,0,0,0,0,0,0,-1,1504,1646,8.43123,-4.44467
287,-622,8.60315,5.94617,0,0,0,0,0,0,0,-1,1511,1646,8.60319,-5.94622
294,-622,7.62756,11.5143,0,0,0,0,0,0,0,-1,1518,1646,7.62762,-11.5143
301,-622,7.36548,11.6569,0,0,0,0,0,0,0,-1,1525,1646,7.36549,-11.6569
308,-622,7.10339,11.7994,0,0,0,0,0,0,0,-1,1532,1646,7.10335,-11.7995
315,-622,8.28687,16.5842,0,0,0,0,0,0,0,-1,1539,1646,8.28689,-16.5843
322,-622,7.43689,20.5786,0,0,0,0,0,0,0,-1,1546,1646,7.43685,-20.5786
329,-622,9.76477,26.4202,0,0,0,0,0,0,0,-1,1553,1646,9.7648,-26.4202
336,-622,10.4526,28.8552,0,0,0,0,0,0,0,-1,1560,1646,10.4526,-28.8552
343,-622,13.5216,40.7902,0,0,0,0,0,0,0,-1,1567,1646,13.5216,-40.7901
350,-622,14.2457,39.8175,0,0,0,0,0,0,0,-1,1574,1646,14.2457,-39.8175
357,-622,14.2365,39.6727,0.0103092,0.0226788,-0.0110945,0.029196,0.00379205,-1.03967,0.0183312,0.0443623,1581,1646,14.2364,-39.6727
364,-622,14.1804,38.9733,0.00938166,0.0194923,-0.00958605,0.0252744,0.00359962,-1.02805,0.0157871,0.0360435,1588,1646,14.1804,-38.9732
371,-622,14.2042,38.3262,0.00819718,0.0162762,-0.0082014,0.0213789,0.00309445,-1.01423,0.0133413,0.0222778,1595,1646,14.2042,-38.3262
378,-622,14.2123,37.791,0.00697341,0.013713,-0.00675385,0.0178911,0.00279536,-1.0168,0.0111134,0.0117164,1602,1646,14.2123,-37.791
385,-622,14.2085,37.299,0.00595091,0.0112432,-0.00550487,0.0147049,0.00248922,-1.00944,0.00908789,0.00981826,1609,1646,14.2085,-37.299
392,-622,14.2097,36.8523,0.0050594,0.00896978,-0.00441135,0.0118398,0.00218937,-0.993998,0.00727409,0.0105895,1616,1646,14.2097,-36.8523
399,-622,14.1943,36.3792,0.00411106,0.00681971,-0.00335199,0.00908064,0.00185013,-0.977389,0.00554098,0.0116453,1623,1646,14.1943,-36.3792
406,-622,14.1779,35.8801,0.00338191,0.0051625,-0.00267932,0.00709557,0.00144884,-0.945801,0.00432902,0.0148416,1630,1646,14.1778,-35.8801
413,-622,14.1737,35.4075,0.0028777,0.003538,-0.0021911,0.00542368,0.000992017,-0.860174,0.00333467,0.0151805,1637,1646,14.1737,-35.4075
420,-622,14.177,34.9448,0.00247046,0.00237168,-0.00188293,0.00430465,0.000537489,-0.772286,0.00270844,0.0149944,1644,1646,14.177,-34.9448
427,-622,14.1804,34.4515,0.00214757,0.00124956,-0.00162362,0.00338313,1.40059e-05,-0.650497,0.00225076,0.0131407,1651,1646,14.1804,-34.4516
434,-622,14.1765,33.9542,0.00186831,0.000280852,-0.00157414,0.00283751,-0.000688351,-0.551886,0.00215803,0.0149599,1658,1646,14.1766,-33.9543
441,-622,14.1715,33.4677,0.00174855,-0.000553715,-0.00169322,0.00264488,-0.00145004,-0.486862,0.00239752,0.0162857,1665,1646,14.1715,-33.4677
448,-622,14.1313,32.9843,0.00171723,-0.0014461,-0.00176189,0.00250325,-0.00223212,-0.419624,0.00273546,0.0148198,1672,1646,14.1313,-32.9842
455,-622,14.0839,32.4297,0.00176913,-0.00232429,-0.00184835,0.00248021,-0.00303537,-0.367258,0.00318979,0.0164573,1679,1646,14.0838,-32.4296
462,-622,14.062,31.9233,0.00186154,-0.00340853,-0.00187368,0.00245979,-0.00400678,-0.309057,0.00376892,0.0187403,1686,1646,14.062,-31.9234
469,-622,14.0393,31.4308,0.00190306,-0.00440823,-0.00184474,0.00240271,-0.00490787,-0.264504,0.00430258,0.0204447,1693,1646,14.0393,-31.4308
476,-622,14.153,30.9082,0.00185791,-0.00522876,-0.00176668,0.00227392,-0.00564477,-0.231261,0.0047079,0.0312392,1700,1646,14.153,-30.9082
483,-622,14.0284,30.4478,0.00153576,-0.00555817,-0.00150973,0.00184369,-0.00586611,-0.201206,0.00464881,0.0472447,1707,1646,14.0285,-30.4477
490,-622,14.0872,29.8053,0,0,0,0,0,0,0,-1,1714,1646,14.0872,-29.8053
497,-622,14.0734,29.6736,0,0,0,0,0,0,0,-1,1721,1646,14.0734,-29.6736
504,-622,10.8306,19.8021,0,0,0,0,0,0,0,-1,1728,1646,10.8306,-19.8022
511,-622,5.29004,4.14587,0,0,0,0,0,0,0,-1,1735,1646,5.29008,-4.14589
518,-622,5.6001,1.55359,0,0,0,0,0,0,0,-1,1742,1646,5.60015,-1.5536
525,-622,5.83093,2.01807,0,0,0,0,0,0,0,-1,1749,1646,5.83097,-2.01802
532,-622,5.44202,0.57373,0,0,0,0,0,0,0,-1,1756,1646,5.44196,-0.573705
539,-622,9.32129,1.06116,0,0,0,0,0,0,0,-1,1763,1646,9.32131,-1.0612
546,-622,6.50977,-3.45618,0,0,0,0,0,0,0,-1,1770,1646,6.50981,3.4562
553,-622,0,0,0,0,0,0,0,0,0,-1,1777,1646,0,0
560,-622,0,0,0,0,0,0,0,0,0,-1,1784,1646,0,0
567,-622,0,0,0,0,0,0,0,0,0,-1,1791,1646,0,0
574,-622,0,0,0,0,0,0,0,0,0,-1,1798,1646,0,0
581,-622,0,0,0,0,0,0,0,0,0,-1,1805,1646,0,0
588,-622,0,0,0,0,0,0,0,0,0,-1,1812,1646,0,0
595,-622,0,0,0,0,0,0,0,0,0,-1,1819,1646,0,0
602,-622,0,0,0,0,0,0,0,0,0,-1,1826,1646,0,0
609,-622,0,0,0,0,0,0,0,0,0,-1,1833,1646,0,0
616,-622,0,0,0,0,0,0,0,0,0,-1,1840,1646,0,0
623,-622,0,0,0,0,0,0,0,0,0,-1,1847,1646,0,0
630,-622,0,0,0,0,0,0,0,0,0,-1,1854,1646,0,0
637,-622,0,0,0,0,0,0,0,0,0,-1,1861,1646,0,0
644,-622,0,0,0,0,0,0,0,0,0,-1,1868,1646,0,0
651,-622,0,0,0,0,0,0,0,0,0,-1,1875,1646,0,0
658,-622,0,0,0,0,0,0,0,0,0,-1,1882,1646,0,0
665,-622,0,0,0,0,0,0,0,0,0,-1,1889,1646,0,0
672,-622,0,0,0,0,0,0,0,0,0,-1,1896,1646,0,0
679,-622,0,0,0,0,0,0,0,0,0,-1,1903,1646,0,0
686,-622,0,0,0,0,0,0,0,0,0,-1,1910,1646,0,0
693,-622,0,0,0,0,0,0,0,0,0,-1,1917,1646,0,0
700,-622,0,0,0,0,0,0,0,0,0,-1,1924,1646,0,0
707,-622,0,0,0,0,0,0,0,0,0,-1,1931,1646,0,0
714,-622,0,0,0,0,0,0,0,0,0,-1,1938,1646,0,0
721,-622,0,0,0,0,0,0,0,0,0,-1,1945,1646,0,0
728,-622,0,0,0,0,0,0,0,0,0,-1,1952,1646,0,0
735,-622,0,0,0,0,0,0,0,0,0,-1,1959,1646,0,0
742,-622,0,0,0,0,0,0,0,0,0,-1,1966,1646,0,0
749,-622,0,0,0,0,0,0,0,0,0,-1,1973,1646,0,0
756,-622,0,0,0,0,0,0,0,0,0,-1,1980,1646,0,0
763,-622,0,0,0,0,0,0,0,0,0,-1,1987,1646,0,0
770,-622,0,0,0,0,0,0,0,0,0,-1,1994,1646,0,0
777,-622,0,0,0,0,0,0,0,0,0,-1,2001,1646,0,0
784,-622,0,0,0,0,0,0,0,0,0,-1,2008,1646,0,0
791,-622,0,0,0,0,0,0,0,0,0,-1,2015,1646,0,0
798,-622,0,0,0,0,0,0,0,0,0,-1,2022,1646,0,0
805,-622,0,0,0,0,0,0,0,0,0,-1,2029,1646,0,0
812,-622,0,0,0,0,0,0,0,0,0,-1,2036,1646,0,0
-700,-629,0,0,0,0,0,0,0,0,0,-1,524,1653,0,0
-693,-629,0,0,0,0,0,0,0,0,0,-1,531,1653,0,0
-686,-629,0,0,0,0,0,0,0,0,0,-1,538,1653,0,0
-679,-629,0,0,0,0,0,0,0,0,0,-1,545,1653,0,0
-672,-629,0,0,0,0,0,0,0,0,0,-1,552,1653,0,0
-665,-629,0,0,0,0,0,0,0,0,0,-1,559,1653,0,0
-658,-629,0,0,0,0,0,0,0,0,0,-1,566,1653,0,0
-651,-629,0,0,0,0,0,0,0,0,0,-1,573,1653,0,0
-644,-629,0,0,0,0,0,0,0,0,0,-1,580,1653,0,0
-637,-629,0,0,0,0,0,0,0,0,0,-1,587,1653,0,0
-630,-629,0,0,0,0,0,0,0,0,0,-1,594,1653,0,0
-623,-629,0,0,0,0,0,0,0,0,0,-1,601,1653,0,0
-616,-629,0,0,0,0,0,0,0,0,0,-1,608,1653,0,0
-609,-629,0,0,0,0,0,0,0,0,0,-1,615,1653,0,0
-602,-629,0,0,0,0,0,0,0,0,0,-1,622,1653,0,0
-595,-629,0,0,0,0,0,0,0,0,0,-1,629,1653,0,0
-588,-629,0,0,0,0,0,0,0,0,0,-1,636,1653,0,0
-581,-629,0,0,0,0,0,0,0,0,0,-1,643,1653,0,0
-574,-629,0,0,0,0,0,0,0,0,0,-1,650,1653,0,0
-567,-629,0,0,0,0,0,0,0,0,0,-1,657,1653,0,0
-560,-629,0,0,0,0,0,0,0,0,0,-1,664,1653,0,0
-553,-629,0,0,0,0,0,0,0,0,0,-1,671,1653,0,0
-546,-629,0,0,0,0,0,0,0,0,0,-1,678,1653,0,0
-539,-629,0,0,0,0,0,0,0,0,0,-1,685,1653,0,0
-532,-629,0,0,0,0,0,0,0,0,0,-1,692,1653,0,0
-525,-629,0,0,0,0,0,0,0,0,0,-1,699,1653,0,0
-518,-629,0,0,0,0,0,0,0,0,0,-1,706,1653,0,0
-511,-629,0,0,0,0,0,0,0,0,0,-1,713,1653,0,0
-504,-629,0,0,0,0,0,0,0,0,0,-1,720,1653,0,0
-497,-629,0,0,0,0,0,0,0,0,0,-1,727,1653,0,0
-490,-629,0,0,0,0,0,0,0,0,0,-1,734,1653,0,0
-483,-629,0,0,0,0,0,0,0,0,0,-1,741,1653,0,0
-476,-629,0,0,0,0,0,0,0,0,0,-1,748,1653,0,0
-469,-629,0,0,0,0,0,0,0,0,0,-1,755,1653,0,0
-462,-629,0,0,0,0,0,0,0,0,0,-1,762,1653,0,0
-455,-629,0,0,0,0,0,0,0,0,0,-1,769,1653,0,0
-448,-629,0,0,0,0,0,0,0,0,0,-1,776,1653,0,0
-441,-629,0,0,0,0,0,0,0,0,0,-1,783,1653,0,0
-434,-629,0,0,0,0,0,0,0,0,0,-1,790,1653,0,0
-427,-629,0,0,0,0,0,0,0,0,0,-1,797,1653,0,0
-420,-629,-3.87103,3.37634,0,0,0,0,0,0,0,-1,804,1653,-3.87101,-3.37633
-413,-629,-5.69751,1.33582,0,0,0,0,0,0,0,-1,811,1653,-5.69754,-1.3358
-406,-629,2.85406,6.01501,0,0,0,0,0,0,0,-1,818,1653,2.85405,-6.01507
-399,-629,-0.455627,10.8687,0,0,0,0,0,0,0,-1,825,1653,-0.455625,-10.8687
-392,-629,1.15369,11.1295,0,0,0,0,0,0,0,-1,832,1653,1.1537,-11.1295
-385,-629,1.81976,11.6935,0,0,0,0,0,0,0,-1,839,1653,1.81975,-11.6935
-378,-629,2.19452,14.7941,0,0,0,0,0,0,0,-1,846,1653,2.19451,-14.7941
-371,-629,3.60114,14.7299,0,0,0,0,0,0,0,-1,853,1653,3.60113,-14.7299
-364,-629,3.26898,21.0801,0,0,0,0,0,0,0,-1,860,1653,3.26895,-21.08
-357,-629,4.38782,16.3444,0,0,0,0,0,0,0,-1,867,1653,4.38783,-16.3443
-350,-629,3.99353,29.7234,0,0,0,0,0,0,0,-1,874,1653,3.99352,-29.7234
-343,-629,3.96503,30.3397,-0.0062254,0.0067276,-0.00398854,0.00785725,-0.00735505,-1.2948,0.00878442,0.0378636,881,1653,3.96501,-30.3397
-336,-629,3.90955,30.922,-0.00470334,0.00612268,-0.00344932,0.00712827,-0.00570893,-1.28712,0.00742665,0.0181001,888,1653,3.90957,-30.9219
-329,-629,3.90839,31.4576,-0.00354854,0.00580355,-0.00272653,0.00654039,-0.00428539,-1.30685,0.0062953,0.0115314,895,1653,3.90836,-31.4577
-322,-629,3.87506,32.0061,-0.00281828,0.00537942,-0.00212749,0.00589866,-0.00333752,-1.33141,0.00540042,0.0120506,902,1653,3.87506,-32.0061
-315,-629,3.84943,32.5364,-0.00221697,0.00482756,-0.00149841,0.00513304,-0.00252244,-1.36969,0.00450474,0.0158405,909,1653,3.84943,-32.5363
-308,-629,3.83008,33.05,-0.00155368,0.00441722,-0.000861022,0.0045389,-0.00167537,-1.4304,0.00371261,0.0140364,916,1653,3.83006,-33.05
-301,-629,3.82532,33.6002,-0.00076192,0.00414555,-0.000171379,0.00415152,-0.000767898,-1.53593,0.00305598,0.0124439,923,1653,3.8253,-33.6002
-294,-629,3.80988,34.1268,0.000145126,0.0040774,0.000586748,0.00416309,5.94431e-05,1.42579,0.00275579,0.0120411,930,1653,3.80989,-34.1268
-287,-629,3.7746,34.6284,0.00104564,0.0042406,0.00123636,0.00466315,0.000623087,1.24147,0.00292329,0.00963463,937,1653,3.77458,-34.6284
-280,-629,3.75836,35.1259,0.00201383,0.00447612,0.00186524,0.00547988,0.00101007,1.0771,0.00336745,0.0108655,944,1653,3.75837,-35.1259
-273,-629,3.74878,35.6034,0.00299093,0.00491484,0.00246498,0.00659891,0.00130685,0.971435,0.00403483,0.0145213,951,1653,3.74876,-35.6034
-266,-629,3.73993,36.1213,0.00397653,0.00542765,0.00311196,0.00789752,0.00150667,0.899928,0.00484157,0.0144484,958,1653,3.73992,-36.1214
-259,-629,3.73328,36.6611,0.00500036,0.00614049,0.00357009,0.00918574,0.00195511,0.864569,0.00558733,0.0154672,965,1653,3.73327,-36.6612
-252,-629,3.72522,37.1024,0.00596419,0.00705409,0.00396828,0.0105147,0.00250362,0.853635,0.00634215,0.0120012,972,1653,3.7252,-37.1024
-245,-629,3.73633,37.5828,0.00684668,0.00789986,0.00431741,0.0117227,0.00302386,0.846083,0.00702747,0.0084439,979,1653,3.73634,-37.5828
-238,-629,3.73315,38.0554,0.0076439,0.00854203,0.00458714,0.012702,0.00348389,0.834191,0.00757853,0.0106371,986,1653,3.73317,-38.0555
-231,-629,3.71045,38.5383,0.00857272,0.00934289,0.00493104,0.0139039,0.00401175,0.824366,0.00826324,0.017286,993,1653,3.71044,-38.5383
-224,-629,3.79822,39.1129,0.0092812,0.0106059,0.00555473,0.0155376,0.00434947,0.844739,0.00925576,0.0228972,1000,1653,3.79821,-39.1129
-217,-629,3.75372,39.5333,0.00945276,0.0123161,0.00592543,0.0169803,0.00478849,0.903933,0.0101094,0.0382686,1007,1653,3.75374,-39.5334
-210,-629,3.62238,40.5385,0,0,0,0,0,0,0,-1,1014,1653,3.62238,-40.5384
-203,-629,4.10999,41.1306,0,0,0,0,0,0,0,-1,1021,1653,4.11003,-41.1306
-196,-629,4.26123,41.0465,0,0,0,0,0,0,0,-1,1028,1653,4.26125,-41.0465
-189,-629,4.14844,41.2664,0,0,0,0,0,0,0,-1,1035,1653,4.14845,-41.2664
-182,-629,4.06787,42.132,0,0,0,0,0,0,0,-1,1042,1653,4.0679,-42.1319
-175,-629,4.17822,42.6604,0,0,0,0,0,0,0,-1,1049,1653,4.17821,-42.6604
-168,-629,6.17102,42.424,0,0,0,0,0,0,0,-1,1056,1653,6.17102,-42.424
-161,-629,3.69287,43.1746,0,0,0,0,0,0,0,-1,1063,1653,3.69285,-43.1746
-154,-629,6.58826,43.6951,0,0,0,0,0,0,0,-1,1070,1653,6.58822,-43.6951
-147,-629,2.15466,41.2965,0,0,0,0,0,0,0,-1,1077,1653,2.15468,-41.2965
-140,-629,2.10181,41.6577,0,0,0,0,0,0,0,-1,1084,1653,2.10175,-41.6577
-133,-629,3.41248,17.6686,0,0,0,0,0,0,0,-1,1091,1653,3.41243,-17.6686
-126,-629,4.01025,19.5328,0,0,0,0,0,0,0,-1,1098,1653,4.01022,-19.5328
-119,-629,4.94177,13.5525,0,0,0,0,0,0,0,-1,1105,1653,4.94172,-13.5525
-112,-629,5.63123,15.9187,0,0,0,0,0,0,0,-1,1112,1653,5.63118,-15.9187
-105,-629,2.15881,4.38342,0,0,0,0,0,0,0,-1,1119,1653,2.15878,-4.38347
-98,-629,0.825806,4.19385,0,0,0,0,0,0,0,-1,1126,1653,0.825779,-4.1939
-91,-629,-0.452271,3.64465,0,0,0,0,0,0,0,-1,1133,1653,-0.452278,-3.6446
-84,-629,-2.6084,0.466797,0,0,0,0,0,0,0,-1,1140,1653,-2.6084,-0.466786
-77,-629,-3.50903,2.10706,0,0,0,0,0,0,0,-1,1147,1653,-3.509,-2.10707
-70,-629,-1.20886,2.52502,0,0,0,0,0,0,0,-1,1154,1653,-1.20886,-2.525
-63,-629,-0.960693,4.30212,0,0,0,0,0,0,0,-1,1161,1653,-0.960691,-4.30215
-56,-629,-1.31934,5.64343,0,0,0,0,0,0,0,-1,1168,1653,-1.31928,-5.6434
-49,-629,-2.15662,2.57458,0,0,0,0,0,0,0,-1,1175,1653,-2.15656,-2.57459
-42,-629,-2.46326,3.91467,0,0,0,0,0,0,0,-1,1182,1653,-2.4633,-3.91466
-35,-629,-2.67261,5.24292,0,0,0,0,0,0,0,-1,1189,1653,-2.67257,-5.24298
-28,-629,-0.402954,-0.866577,0,0,0,0,0,0,0,-1,1196,1653,-0.402943,0.866612
-21,-629,3.45508,27.0596,0,0,0,0,0,0,0,-1,1203,1653,3.45508,-27.0596
-14,-629,6.25012,50.6627,0,0,0,0,0,0,0,-1,1210,1653,6.25017,-50.6627
-7,-629,5.97583,47.6949,0,0,0,0,0,0,0,-1,1217,1653,5.97584,-47.6949
0,-629,6.33484,48.2867,0,0,0,0,0,0,0,-1,1224,1653,6.33481,-48.2868
7,-629,8.87317,56.6356,0,0,0,0,0,0,0,-1,1231,1653,8.87319,-56.6356
14,-629,9.34167,56.8004,0.109436,0.143765,0.0625473,0.19146,0.0617407,0.919311,0.112838,0.0481995,1238,1653,9.34167,-56.8004
21,-629,9.67749,57.1106,0.089522,0.141555,0.0540019,0.17548,0.0555963,1.00988,0.103555,0.0483769,1245,1653,9.67745,-57.1105
28,-629,10.1265,57.2892,0.0715088,0.13159,0.0458825,0.156391,0.0467074,1.07524,0.0927007,0.0490313,1252,1653,10.1264,-57.2892
35,-629,10.9525,58.3802,0,0,0,0,0,0,0,-1,1259,1653,10.9525,-58.3802
42,-629,10.0563,49.9023,0,0,0,0,0,0,0,-1,1266,1653,10.0563,-49.9023
49,-629,9.70874,50.2135,0.0310227,0.0922988,0.0281655,0.103278,0.0200437,1.19911,0.0632385,0.0452019,1273,1653,9.70879,-50.2135
56,-629,9.70349,50.1598,0.0195477,0.0800559,0.0243571,0.0886423,0.0109614,1.23188,0.0558011,0.0454327,1280,1653,9.70352,-50.1598
63,-629,9.26404,50.7288,0.0128309,0.0702043,0.0230289,0.0783042,0.00473096,1.23258,0.0506994,0.0432852,1287,1653,9.26407,-50.7287
70,-629,9.20789,50.9589,0.0192187,0.0744242,0.0136965,0.0776355,0.0160074,1.34049,0.0473323,0.0406309,1294,1653,9.20787,-50.9589
77,-629,9.37915,51.1908,0,0,0,0,0,0,0,-1,1301,1653,9.37912,-51.1908
84,-629,9.10938,52.3802,0.0351767,0.0790934,-0.00025104,0.0790949,0.0351753,-1.56508,0.0457584,0.0442272,1308,1653,9.10933,-52.3802
91,-629,9.21643,53.3503,0.0507288,0.0874785,-0.00903073,0.0895777,0.0486296,-1.34239,0.0517811,0.0435011,1315,1653,9.2164,-53.3504
98,-629,9.06641,54.4247,0.0728154,0.099222,-0.0193639,0.109456,0.0625819,-1.08462,0.0634107,0.0459175,1322,1653,9.06644,-54.4247
105,-629,8.86755,55.2699,0,0,0,0,0,0,0,-1,1329,1653,8.86759,-55.2699
112,-629,9.0094,55.981,0.126326,0.117747,-0.0463621,0.168597,0.0754765,-0.739266,0.097517,0.0457664,1336,1653,9.00943,-55.981
119,-629,9.40906,56.7686,0.155327,0.113383,-0.0635649,0.201291,0.06742,-0.626054,0.118307,0.0453225,1343,1653,9.40902,-56.7685
126,-629,9.80029,57.5244,0,0,0,0,0,0,0,-1,1350,1653,9.80034,-57.5244
133,-629,10.1719,58.3231,0,0,0,0,0,0,0,-1,1357,1653,10.1718,-58.3231
140,-629,5.30042,35.1256,0,0,0,0,0,0,0,-1,1364,1653,5.30036,-35.1256
147,-629,4.6012,33.7866,0,0,0,0,0,0,0,-1,1371,1653,4.6012,-33.7866
154,-629,1.58569,52.5651,0,0,0,0,0,0,0,-1,1378,1653,1.58564,-52.5651
161,-629,10.5461,6.83752,0,0,0,0,0,0,0,-1,1385,1653,10.5461,-6.83758
168,-629,12.0059,5.56348,0,0,0,0,0,0,0,-1,1392,1653,12.0059,-5.56352
175,-629,5.84485,-1.78845,0,0,0,0,0,0,0,-1,1399,1653,5.84479,1.7884
182,-629,5.99036,-1.27783,0,0,0,0,0,0,0,-1,1406,1653,5.99041,1.27778
189,-629,5.97668,-0.748535,0,0,0,0,0,0,0,-1,1413,1653,5.97671,0.748544
196,-629,4.52869,9.24695,0,0,0,0,0,0,0,-1,1420,1653,4.52869,-9.2469
203,-629,3.75085,6.88037,0,0,0,0,0,0,0,-1,1427,1653,3.75087,-6.88032
210,-629,3.5907,6.52637,0,0,0,0,0,0,0,-1,1434,1653,3.59067,-6.52642
217,-629,2.4585,4.84448,0,0,0,0,0,0,0,-1,1441,1653,2.45855,-4.84448
224,-629,1.31982,3.68481,0,0,0,0,0,0,0,-1,1448,1653,1.31986,-3.68487
231,-629,3.63025,1.73499,0,0,0,0,0,0,0,-1,1455,1653,3.6303,-1.735
238,-629,4.26428,2.11255,0,0,0,0,0,0,0,-1,1462,1653,4.26429,-2.11253
245,-629,5.61816,1.95361,0,0,0,0,0,0,0,-1,1469,1653,5.61815,-1.95359
252,-629,7.27136,2.18982,0,0,0,0,0,0,0,-1,1476,1653,7.27131,-2.18985
259,-629,8.67334,2.18628,0,0,0,0,0,0,0,-1,1483,1653,8.6733,-2.18633
266,-629,6.86475,3.72058,0,0,0,0,0,0,0,-1,1490,1653,6.86479,-3.72063
273,-629,7.9021,3.8717,0,0,0,0,0,0,0,-1,1497,1653,7.90205,-3.87171
280,-629,9.70837,4.39087,0,0,0,0,0,0,0,-1,1504,1653,9.7084,-4.39082
287,-629,9.82947,7.19348,0,0,0,0,0,0,0,-1,1511,1653,9.8295,-7.19347
294,-629,6.56555,11.6359,0,0,0,0,0,0,0,-1,1518,1653,6.5656,-11.6358
301,-629,14.6523,43.5507,0,0,0,0,0,0,0,-1,1525,1653,14.6523,-43.5507
308,-629,6.08264,12.1423,0,0,0,0,0,0,0,-1,1532,1653,6.08263,-12.1423
315,-629,6.82043,18.2764,0,0,0,0,0,0,0,-1,1539,1653,6.82049,-18.2764
322,-629,10.3922,29.9829,0,0,0,0,0,0,0,-1,1546,1653,10.3922,-29.9829
329,-629,13.6879,41.0706,0,0,0,0,0,0,0,-1,1553,1653,13.6879,-41.0706
336,-629,13.3524,40.9976,0,0,0,0,0,0,0,-1,1560,1653,13.3524,-40.9976
343,-629,13.399,40.4059,0.00803662,0.0237969,-0.00875789,0.027698,0.00413553,-1.15174,0.0172528,0.0420706,1567,1653,13.399,-40.4059
350,-629,13.7233,39.6959,0.00810935,0.0206197,-0.00857515,0.0249787,0.00375036,-1.10051,0.0155538,0.0279709,1574,1653,13.7233,-39.6959
357,-629,13.7762,39.146,0.00786406,0.0174412,-0.00793566,0.0219211,0.00338413,-1.05686,0.0136268,0.0166148,1581,1653,13.7762,-39.146
364,-629,13.7273,38.6786,0.00716212,0.015101,-0.00697544,0.0191573,0.00310578,-1.04408,0.0118725,0.0139306,1588,1653,13.7273,-38.6785
371,-629,13.7263,38.2316,0.00625349,0.0126991,-0.00605463,0.0163352,0.00261734,-1.02997,0.010131,0.0116121,1595,1653,13.7263,-38.2316
378,-629,13.7334,37.7494,0.00533999,0.0106358,-0.0050852,0.0137212,0.0022546,-1.02544,0.00849624,0.0105694,1602,1653,13.7334,-37.7494
385,-629,13.7417,37.2988,0.00457604,0.00859075,-0.00424528,0.0112793,0.00188745,-1.00624,0.00697605,0.0122173,1609,1653,13.7418,-37.2989
392,-629,13.7325,36.8621,0.00388716,0.0066119,-0.00349504,0.00900071,0.00149835,-0.97124,0.00556863,0.0106535,1616,1653,13.7325,-36.8621
399,-629,13.7212,36.3959,0.00311068,0.0046374,-0.00269689,0.00667688,0.00107119,-0.923317,0.00414064,0.0114329,1623,1653,13.7212,-36.3958
406,-629,13.7085,35.9021,0.00253682,0.00309672,-0.00220682,0.00504128,0.000592266,-0.84849,0.00318186,0.0147474,1630,1653,13.7084,-35.9021
413,-629,13.6991,35.4092,0.00218897,0.00156113,-0.00188339,0.00378442,-3.43164e-05,-0.702818,0.00253447,0.0217346,1637,1653,13.6991,-35.4092
420,-629,13.6714,34.963,0.00193794,0.000408853,-0.0017081,0.00304479,-0.000698003,-0.574971,0.00229814,0.0195053,1644,1653,13.6714,-34.9631
427,-629,13.6874,34.4869,0.00179629,-0.000720155,-0.00160339,0.0025762,-0.00150007,-0.45272,0.00238062,0.0141756,1651,1653,13.6873,-34.487
434,-629,13.6792,33.9883,0.0016661,-0.00170526,-0.00166933,0.0023528,-0.00239196,-0.390263,0.00273942,0.0125439,1658,1653,13.6792,-33.9883
441,-629,13.6844,33.5046,0.00168942,-0.00252135,-0.00188387,0.00240921,-0.00324114,-0.364964,0.00327399,0.0158843,1665,1653,13.6844,-33.5046
448,-629,13.6427,32.9944,0.00181643,-0.00336829,-0.00206436,0.00253797,-0.00408983,-0.336248,0.00386136,0.0150208,1672,1653,13.6427,-32.9944
455,-629,13.5896,32.4506,0.00207264,-0.00415103,-0.00227376,0.00281483,-0.00489322,-0.315511,0.00450385,0.0144652,1679,1653,13.5896,-32.4505
462,-629,13.5614,31.9513,0.00241653,-0.00516015,-0.00247201,0.00315173,-0.00589534,-0.289076,0.00530278,0.019621,1686,1653,13.5614,-31.9513
469,-629,13.5536,31.421,0.00269044,-0.0059879,-0.00262628,0.00342332,-0.00672079,-0.272135,0.00595895,0.0250037,1693,1653,13.5536,-31.421
476,-629,13.7698,31.0421,0.0028507,-0.00660879,-0.00275602,0.00359509,-0.00735318,-0.263801,0.00644392,0.049576,1700,1653,13.7698,-31.0421
483,-629,13.4817,30.6162,0,0,0,0,0,0,0,-1,1707,1653,13.4817,-30.6162
490,-629,13.9072,28.8588,0,0,0,0,0,0,0,-1,1714,1653,13.9072,-28.8587
497,-629,10.3662,19.8605,0,0,0,0,0,0,0,-1,1721,1653,10.3662,-19.8605
504,-629,7.89453,15.5316,0,0,0,0,0,0,0,-1,1728,1653,7.89447,-15.5316
511,-629,6.29138,3.40295,0,0,0,0,0,0,0,-1,1735,1653,6.29137,-3.403
518,-629,5.84387,1.41858,0,0,0,0,0,0,0,-1,1742,1653,5.84391,-1.4186
525,-629,6.4729,1.02319,0,0,0,0,0,0,0,-1,1749,1653,6.47284,-1.02316
532,-629,6.86511,0.903687,0,0,0,0,0,0,0,-1,1756,1653,6.86514,-0.903691
539,-629,6.60803,0.746704,0,0,0,0,0,0,0,-1,1763,1653,6.60809,-0.746691
546,-629,0,0,0,0,0,0,0,0,0,-1,1770,1653,0,0
553,-629,0,0,0,0,0,0,0,0,0,-1,1777,1653,0,0
560,-629,0,0,0,0,0,0,0,0,0,-1,1784,1653,0,0
567,-629,0,0,0,0,0,0,0,0,0,-1,1791,1653,0,0
574,-629,0,0,0,0,0,0,0,0,0,-1,1798,1653,0,0
581,-629,0,0,0,0,0,0,0,0,0,-1,1805,1653,0,0
588,-629,0,0,0,0,0,0,0,0,0,-1,1812,1653,0,0
595,-629,0,0,0,0,0,0,0,0,0,-1,1819,1653,0,0
602,-629,0,0,0,0,0,0,0,0,0,-1,1826,1653,0,0
609,-629,0,0,0,0,0,0,0,0,0,-1,1833,1653,0,0
616,-629,0,0,0,0,0,0,0,0,0,-1,1840,1653,0,0
623,-629,0,0,0,0,0,0,0,0,0,-1,1847,1653,0,0
630,-629,0,0,0,0,0,0,0,0,0,-1,1854,1653,0,0
637,-629,0,0,0,0,0,0,0,0,0,-1,1861,1653,0,0
644,-629,0,0,0,0,0,0,0,0,0,-1,1868,1653,0,0
651,-629,0,0,0,0,0,0,0,0,0,-1,1875,1653,0,0
658,-629,0,0,0,0,0,0,0,0,0,-1,1882,1653,0,0
665,-629,0,0,0,0,0,0,0,0,0,-1,1889,1653,0,0
672,-629,0,0,0,0,0,0,0,0,0,-1,1896,1653,0,0
679,-629,0,0,0,0,0,0,0,0,0,-1,1903,1653,0,0
686,-629,0,0,0,0,0,0,0,0,0,-1,1910,1653,0,0
693,-629,0,0,0,0,0,0,0,0,0,-1,1917,1653,0,0
700,-629,0,0,0,0,0,0,0,0,0,-1,1924,1653,0,0
707,-629,0,0,0,0,0,0,0,0,0,-1,1931,1653,0,0
714,-629,0,0,0,0,0,0,0,0,0,-1,1938,1653,0,0
721,-629,0,0,0,0,0,0,0,0,0,-1,1945,1653,0,0
728,-629,0,0,0,0,0,0,0,0,0,-1,1952,1653,0,0
735,-629,0,0,0,0,0,0,0,0,0,-1,1959,1653,0,0
742,-629,0,0,0,0,0,0,0,0,0,-1,1966,1653,0,0
749,-629,0,0,0,0,0,0,0,0,0,-1,1973,1653,0,0
756,-629,0,0,0,0,0,0,0,0,0,-1,1980,1653,0,0
763,-629,0,0,0,0,0,0,0,0,0,-1,1987,1653,0,0
770,-629,0,0,0,0,0,0,0,0,0,-1,1994,1653,0,0
777,-629,0,0,0,0,0,0,0,0,0,-1,2001,1653,0,0
784,-629,0,0,0,0,0,0,0,0,0,-1,2008,1653,0,0
791,-629,0,0,0,0,0,0,0,0,0,-1,2015,1653,0,0
798,-629,0,0,0,0,0,0,0,0,0,-1,2022,1653,0,0
805,-629,0,0,0,0,0,0,0,0,0,-1,2029,1653,0,0
812,-629,0,0,0,0,0,0,0,0,0,-1,2036,1653,0,0
-700,-636,0,0,0,0,0,0,0,0,0,-1,524,1660,0,0
-693,-636,0,0,0,0,0,0,0,0,0,-1,531,1660,0,0
-686,-636,0,0,0,0,0,0,0,0,0,-1,538,1660,0,0
-679,-636,0,0,0,0,0,0,0,0,0,-1,545,1660,0,0
-672,-636,0,0,0,0,0,0,0,0,0,-1,552,1660,0,0
-665,-636,0,0,0,0,0,0,0,0,0,-1,559,1660,0,0
-658,-636,0,0,0,0,0,0,0,0,0,-1,566,1660,0,0
-651,-636,0,0,0,0,0,0,0,0,0,-1,573,1660,0,0
-644,-636,0,0,0,0,0,0,0,0,0,-1,580,1660,0,0
-637,-636,0,0,0,0,0,0,0,0,0,-1,587,1660,0,0
-630,-636,0,0,0,0,0,0,0,0,0,-1,594,1660,0,0
-623,-636,0,0,0,0,0,0,0,0,0,-1,601,1660,0,0
-616,-636,0,0,0,0,0,0,0,0,0,-1,608,1660,0,0
-609,-636,0,0,0,0,0,0,0,0,0,-1,615,1660,0,0
-602,-636,0,0,0,0,0,0,0,0,0,-1,622,1660,0,0
-595,-636,0,0,0,0,0,0,0,0,0,-1,629,1660,0,0
-588,-636,0,0,0,0,0,0,0,0,0,-1,636,1660,0,0
-581,-636,0,0,0,0,0,0,0,0,0,-1,643,1660,0,0
-574,-636,0,0,0,0,0,0,0,0,0,-1,650,1660,0,0
-567,-636,0,0,0,0,0,0,0,0,0,-1,657,1660,0,0
-560,-636,0,0,0,0,0,0,0,0,0,-1,664,1660,0,0
-553,-636,0,0,0,0,0,0,0,0,0,-1,671,1660,0,0
-546,-636,0,0,0,0,0,0,0,0,0,-1,678,1660,0,0
-539,-636,0,0,0,0,0,0,0,0,0,-1,685,1660,0,0
-532,-636,0,0,0,0,0,0,0,0,0,-1,692,1660,0,0
-525,-636,0,0,0,0,0,0,0,0,0,-1,699,1660,0,0
-518,-636,0,0,0,0,0,0,0,0,0,-1,706,1660,0,0
-511,-636,0,0,0,0,0,0,0,0,0,-1,713,1660,0,0
-504,-636,0,0,0,0,0,0,0,0,0,-1,720,1660,0,0
-497,-636,0,0,0,0,0,0,0,0,0,-1,727,1660,0,0
-490,-636,0,0,0,0,0,0,0,0,0,-1,734,1660,0,0
-483,-636,0,0,0,0,0,0,0,0,0,-1,741,1660,0,0
-476,-636,0,0,0,0,0,0,0,0,0,-1,748,1660,0,0
-469,-636,0,0,0,0,0,0,0,0,0,-1,755,1660,0,0
-462,-636,0,0,0,0,0,0,0,0,0,-1,762,1660,0,0
-455,-636,0,0,0,0,0,0,0,0,0,-1,769,1660,0,0
-448,-636,0,0,0,0,0,0,0,0,0,-1,776,1660,0,0
-441,-636,0,0,0,0,0,0,0,0,0,-1,783,1660,0,0
-434,-636,0,0,0,0,0,0,0,0,0,-1,790,1660,0,0
-427,-636,0,0,0,0,0,0,0,0,0,-1,797,1660,0,0
-420,-636,0,0,0,0,0,0,0,0,0,-1,804,1660,0,0
-413,-636,0,0,0,0,0,0,0,0,0,-1,811,1660,0,0
-406,-636,-0.591125,10.6943,0,0,0,0,0,0,0,-1,818,1660,-0.59115,-10.6943
-399,-636,0.0766602,11.2408,0,0,0,0,0,0,0,-1,825,1660,0.076685,-11.2409
-392,-636,0.75946,11.9233,0,0,0,0,0,0,0,-1,832,1660,0.759481,-11.9233
-385,-636,1.68878,12.517,0,0,0,0,0,0,0,-1,839,1660,1.6888,-12.5169
-378,-636,2.22107,13.0013,0,0,0,0,0,0,0,-1,846,1660,2.22107,-13.0014
-371,-636,2.52185,11.9684,0,0,0,0,0,0,0,-1,853,1660,2.52184,-11.9684
-364,-636,4.51947,14.8503,0,0,0,0,0,0,0,-1,860,1660,4.51949,-14.8504
-357,-636,4.55682,15.8809,0,0,0,0,0,0,0,-1,867,1660,4.55681,-15.8808
-350,-636,4.61591,29.6963,0,0,0,0,0,0,0,-1,874,1660,4.61593,-29.6963
-343,-636,4.53888,30.3168,-0.00836584,0.010708,-0.0071498,0.0130905,-0.0107483,-1.24914,0.0137855,0.0466393,881,1660,4.53888,-30.3168
-336,-636,4.39886,30.9491,-0.00656071,0.00956733,-0.00615337,0.0116469,-0.00864028,-1.24489,0.0117556,0.0334878,888,1660,4.39884,-30.949
-329,-636,4.41797,31.4761,-0.00529193,0.00874795,-0.00495828,0.0103224,-0.00686642,-1.26332,0.00999063,0.0198431,895,1660,4.41796,-31.4761
-322,-636,4.39532,32.0234,-0.00446449,0.00771745,-0.00394087,0.00888116,-0.0056282,-1.28366,0.00844687,0.0123788,902,1660,4.39533,-32.0234
-315,-636,4.35913,32.5568,-0.00382389,0.0065723,-0.00293356,0.00734295,-0.00459454,-1.3139,0.00695274,0.0130485,909,1660,4.35912,-32.5568
-308,-636,4.34692,33.085,-0.00316332,0.00561769,-0.00196798,0.00603858,-0.0035842,-1.3601,0.00561563,0.0115014,916,1660,4.34691,-33.0849
-301,-636,4.34827,33.6311,-0.00242076,0.00481544,-0.00107655,0.00497221,-0.00257752,-1.42619,0.00443133,0.0114646,923,1660,4.34829,-33.6311
-294,-636,4.31799,34.1735,-0.00155835,0.00430329,-0.000212222,0.00431096,-0.00156602,-1.53465,0.00351428,0.014549,930,1660,4.318,-34.1735
-287,-636,4.27484,34.6506,-0.000696305,0.00403574,0.000492148,0.00408639,-0.000746948,1.46826,0.00300435,0.013605,937,1660,4.27483,-34.6506
-280,-636,4.26337,35.1161,0.000186938,0.00390811,0.00111022,0.00421418,-0.000119126,1.3018,0.00284999,0.01313,944,1660,4.26337,-35.1161
-273,-636,4.24792,35.6235,0.00105717,0.00400545,0.0016294,0.00472858,0.000334034,1.1531,0.00304715,0.0129069,951,1660,4.24792,-35.6235
-266,-636,4.2442,36.1479,0.00197144,0.00415778,0.00231277,0.00562272,0.000506493,1.00617,0.00359157,0.0139571,958,1660,4.24422,-36.1479
-259,-636,4.2439,36.6638,0.00292835,0.00440151,0.00264168,0.00640738,0.000922478,0.92136,0.00399971,0.0153933,965,1660,4.24392,-36.6638
-252,-636,4.23639,37.1179,0.00378938,0.00507994,0.00277322,0.00728196,0.00158736,0.899706,0.00442154,0.0122279,972,1660,4.23637,-37.1179
-245,-636,4.22858,37.614,0.00457498,0.00567975,0.00295108,0.0081297,0.00212503,0.877918,0.00486858,0.0108683,979,1660,4.22855,-37.6141
-238,-636,4.23413,38.0933,0.00532115,0.00611375,0.00311236,0.00885494,0.00257996,0.848723,0.00525868,0.0119094,986,1660,4.23412,-38.0933
-231,-636,4.22681,38.5479,0.00614559,0.00670328,0.00335583,0.00979183,0.00305704,0.82685,0.00578471,0.011456,993,1660,4.22681,-38.5479
-224,-636,4.23602,39.0023,0.00682225,0.00764669,0.00380936,0.0110661,0.00340287,0.839294,0.00654493,0.00982065,1000,1660,4.23603,-39.0023
-217,-636,4.21875,39.5181,0.00703401,0.0090242,0.0040712,0.0122202,0.00383806,0.90526,0.00721607,0.0186657,1007,1660,4.21876,-39.5181
-210,-636,4.21808,40.0315,0.00693224,0.0100996,0.00383221,0.0126625,0.00436938,0.98134,0.00742676,0.0338285,1014,1660,4.21807,-40.0315
-203,-636,4.29626,40.499,0.00703925,0.011624,0.0039114,0.0138653,0.00479797,1.05046,0.00813063,0.0366349,1021,1660,4.29632,-40.499
-196,-636,4.42505,40.8333,0.00666976,0.0132074,0.0035821,0.0147879,0.00508918,1.15525,0.00867498,0.0342964,1028,1660,4.42502,-40.8332
-189,-636,4.43408,41.1975,0.00654347,0.0152105,0.00318992,0.016258,0.005496,1.25352,0.00954926,0.0302858,1035,1660,4.43407,-41.1975
-182,-636,4.47754,41.8568,0.00669136,0.0169206,0.00321162,0.0178454,0.00576662,1.29045,0.0105157,0.0416377,1042,1660,4.4775,-41.8568
-175,-636,4.64172,42.4506,0.00630081,0.0193149,0.00310651,0.0200184,0.0055973,1.34809,0.011926,0.0458614,1049,1660,4.64167,-42.4506
-168,-636,4.87146,42.9583,0,0,0,0,0,0,0,-1,1056,1660,4.87148,-42.9583
-161,-636,4.14673,43.0684,0,0,0,0,0,0,0,-1,1063,1660,4.14672,-43.0683
-154,-636,4.12878,43.433,0,0,0,0,0,0,0,-1,1070,1660,4.12874,-43.433
-147,-636,3.18225,41.7345,0,0,0,0,0,0,0,-1,1077,1660,3.18228,-41.7345
-140,-636,3.4729,27.1271,0,0,0,0,0,0,0,-1,1084,1660,3.47287,-27.1271
-133,-636,4.68311,18.0922,0,0,0,0,0,0,0,-1,1091,1660,4.68316,-18.0921
-126,-636,3.79028,18.2225,0,0,0,0,0,0,0,-1,1098,1660,3.79025,-18.2226
-119,-636,1.8667,13.8916,0,0,0,0,0,0,0,-1,1105,1660,1.86668,-13.8916
-112,-636,-1.24963,9.7998,0,0,0,0,0,0,0,-1,1112,1660,-1.24968,-9.79978
-105,-636,3.51624,4.72791,0,0,0,0,0,0,0,-1,1119,1660,3.51618,-4.7279
-98,-636,1.54504,5.11914,0,0,0,0,0,0,0,-1,1126,1660,1.54503,-5.11912
-91,-636,-1.87964,-2.25012,0,0,0,0,0,0,0,-1,1133,1660,-1.87966,2.25016
-84,-636,-2.84143,0.133667,0,0,0,0,0,0,0,-1,1140,1660,-2.84144,-0.133701
-77,-636,-3.57349,2.45935,0,0,0,0,0,0,0,-1,1147,1660,-3.57345,-2.45939
-70,-636,-4.23682,4.82312,0,0,0,0,0,0,0,-1,1154,1660,-4.23681,-4.82307
-63,-636,-2.21033,6.97168,0,0,0,0,0,0,0,-1,1161,1660,-2.21034,-6.97165
-56,-636,-2.51917,8.80359,0,0,0,0,0,0,0,-1,1168,1660,-2.51916,-8.80361
-49,-636,-3.13,10.4113,0,0,0,0,0,0,0,-1,1175,1660,-3.12996,-10.4112
-42,-636,-2.27771,4.90173,0,0,0,0,0,0,0,-1,1182,1660,-2.27775,-4.90173
-35,-636,-2.27698,5.89685,0,0,0,0,0,0,0,-1,1189,1660,-2.27695,-5.89686
-28,-636,-1.70654,4.83936,0,0,0,0,0,0,0,-1,1196,1660,-1.70656,-4.8393
-21,-636,4.24683,27.7834,0,0,0,0,0,0,0,-1,1203,1660,4.24687,-27.7835
-14,-636,4.78516,47.0372,0,0,0,0,0,0,0,-1,1210,1660,4.78514,-47.0373
-7,-636,5.77319,47.8689,0,0,0,0,0,0,0,-1,1217,1660,5.7732,-47.8689
0,-636,6.55005,48.6556,0,0,0,0,0,0,0,-1,1224,1660,6.55003,-48.6556
7,-636,7.39453,49.4833,0,0,0,0,0,0,0,-1,1231,1660,7.3945,-49.4833
14,-636,8.99951,55.5814,0.111688,0.12826,0.0564084,0.176988,0.06296,0.858325,0.103592,0.046035,1238,1660,8.99948,-55.5815
21,-636,9.45093,55.8729,0.0923927,0.130195,0.0483995,0.163253,0.0593345,0.971552,0.0954186,0.0447355,1245,1660,9.45088,-55.8729
28,-636,9.89697,56.0933,0.075009,0.12575,0.0406584,0.148304,0.0524549,1.06434,0.0868366,0.048728,1252,1660,9.89694,-56.0933
35,-636,10.4043,57.0118,0.0600885,0.11722,0.0336126,0.132766,0.0445429,1.1376,0.0780228,0.0472287,1259,1660,10.4044,-57.0118
42,-636,11.0436,57.0394,0,0,0,0,0,0,0,-1,1266,1660,11.0436,-57.0394
49,-636,9.94604,50.2317,0.03392,0.100833,0.0221691,0.107511,0.0272417,1.2782,0.0645392,0.0472663,1273,1660,9.94608,-50.2317
56,-636,9.72607,50.4468,0.0228935,0.0912281,0.0178335,0.0956022,0.0185194,1.33027,0.0585463,0.0458073,1280,1660,9.72608,-50.4468
63,-636,9.59827,50.6088,0.0161151,0.0821254,0.0154769,0.085574,0.0126665,1.35156,0.0533309,0.0433135,1287,1660,9.59833,-50.6088
70,-636,9.49377,51.0704,0.0205998,0.0862009,0.00621339,0.0867843,0.0200165,1.47719,0.0524724,0.0417073,1294,1660,9.49372,-51.0704
77,-636,9.5929,51.8679,0.0281191,0.0864042,-0.000792012,0.0864149,0.0281084,-1.55721,0.050897,0.0442782,1301,1660,9.59288,-51.8679
84,-636,9.53296,52.4839,0.0363134,0.0881036,-0.00665086,0.0889441,0.0354729,-1.44509,0.0517012,0.045292,1308,1660,9.53295,-52.4838
91,-636,9.71191,53.5233,0.0502244,0.0930776,-0.013731,0.0970998,0.0462023,-1.28584,0.0560824,0.0416875,1315,1660,9.71191,-53.5233
98,-636,9.61633,54.6062,0.0695265,0.101086,-0.0219297,0.112323,0.0582894,-1.09726,0.0648653,0.0457944,1322,1660,9.61636,-54.6062
105,-636,9.20105,56.0699,0,0,0,0,0,0,0,-1,1329,1660,9.20109,-56.0699
112,-636,9.37854,56.2185,0.117185,0.114792,-0.042698,0.158703,0.0732736,-0.771393,0.0917168,0.0475866,1336,1660,9.37858,-56.2185
119,-636,9.6748,57.2686,0.142488,0.110191,-0.0553546,0.184001,0.0686775,-0.643474,0.107365,0.0473566,1343,1660,9.67486,-57.2686
126,-636,10.027,58.0013,0,0,0,0,0,0,0,-1,1350,1660,10.027,-58.0014
133,-636,12.3159,47.7982,0,0,0,0,0,0,0,-1,1357,1660,12.316,-47.7982
140,-636,12.7152,47.4406,0,0,0,0,0,0,0,-1,1364,1660,12.7152,-47.4406
147,-636,5.07129,34.6466,0,0,0,0,0,0,0,-1,1371,1660,5.07129,-34.6466
154,-636,3.10242,43.2155,0,0,0,0,0,0,0,-1,1378,1660,3.10236,-43.2155
161,-636,10.2961,7.13025,0,0,0,0,0,0,0,-1,1385,1660,10.2961,-7.13021
168,-636,11.7659,5.83899,0,0,0,0,0,0,0,-1,1392,1660,11.7658,-5.83899
175,-636,5.94592,-1.72888,0,0,0,0,0,0,0,-1,1399,1660,5.94598,1.72886
182,-636,5.93994,-1.11938,0,0,0,0,0,0,0,-1,1406,1660,5.93998,1.11936
189,-636,5.32544,11.9595,0,0,0,0,0,0,0,-1,1413,1660,5.32542,-11.9595
196,-636,5.3623,9.38025,0,0,0,0,0,0,0,-1,1420,1660,5.36225,-9.38027
203,-636,5.18542,9.02429,0,0,0,0,0,0,0,-1,1427,1660,5.18547,-9.0243
210,-636,4.09167,7.17041,0,0,0,0,0,0,0,-1,1434,1660,4.09173,-7.17041
217,-636,2.94897,5.28992,0,0,0,0,0,0,0,-1,1441,1660,2.94899,-5.28991
224,-636,1.49194,3.63916,0,0,0,0,0,0,0,-1,1448,1660,1.49197,-3.63918
231,-636,0.17749,2.24854,0,0,0,0,0,0,0,-1,1455,1660,0.177501,-2.24855
238,-636,-0.764648,1.00598,0,0,0,0,0,0,0,-1,1462,1660,-0.764704,-1.00595
245,-636,6.21204,1.18005,0,0,0,0,0,0,0,-1,1469,1660,6.21206,-1.18001
252,-636,7.70251,0.865723,0,0,0,0,0,0,0,-1,1476,1660,7.7025,-0.865692
259,-636,9.03601,0.787231,0,0,0,0,0,0,0,-1,1483,1660,9.03598,-0.787243
266,-636,10.1071,3.24109,0,0,0,0,0,0,0,-1,1490,1660,10.1071,-3.24103
273,-636,8.48535,5.02466,0,0,0,0,0,0,0,-1,1497,1660,8.48533,-5.02472
280,-636,11.908,32.0698,0,0,0,0,0,0,0,-1,1504,1660,11.9079,-32.0698
287,-636,12.1218,36.4158,0,0,0,0,0,0,0,-1,1511,1660,12.1218,-36.4158
294,-636,13.7479,43.4808,0,0,0,0,0,0,0,-1,1518,1660,13.7479,-43.4809
301,-636,13.8418,43.2527,0,0,0,0,0,0,0,-1,1525,1660,13.8418,-43.2526
308,-636,13.223,42.175,0,0,0,0,0,0,0,-1,1532,1660,13.223,-42.1751
315,-636,12.9794,41.8987,0,0,0,0,0,0,0,-1,1539,1660,12.9794,-41.8987
322,-636,13.2891,41.4241,0,0,0,0,0,0,0,-1,1546,1660,13.2891,-41.424
329,-636,13.2118,40.9004,0.00585568,0.0220088,-0.00512168,0.0234958,0.00436864,-1.28822,0.0144298,0.0341215,1553,1660,13.2117,-40.9004
336,-636,13.224,40.4564,0.00601291,0.0200333,-0.00557808,0.0219818,0.00406444,-1.23474,0.0135052,0.0235302,1560,1660,13.224,-40.4564
343,-636,13.2351,40.0703,0.0060659,0.0176517,-0.005987,0.0201896,0.00352803,-1.16986,0.0124514,0.0197391,1567,1660,13.2352,-40.0703
350,-636,13.2211,39.5903,0.00607277,0.0153306,-0.00603379,0.0183065,0.00309685,-1.1126,0.0113142,0.0127375,1574,1660,13.2211,-39.5904
357,-636,13.2623,39.1102,0.00585991,0.0130528,-0.00569638,0.016193,0.00271964,-1.06697,0.0100127,0.0107618,1581,1660,13.2623,-39.1102
364,-636,13.2753,38.6691,0.00532539,0.0113693,-0.00508044,0.0142586,0.00243608,-1.0537,0.00880675,0.0107635,1588,1660,13.2753,-38.6691
371,-636,13.2719,38.2299,0.00464167,0.00956408,-0.00443718,0.0121769,0.00202881,-1.03861,0.00753331,0.0098663,1595,1660,13.2719,-38.2299
378,-636,13.2771,37.7728,0.00402226,0.00782779,-0.00377665,0.0101539,0.00169612,-1.01875,0.00628072,0.0100557,1602,1660,13.2771,-37.7728
385,-636,13.2902,37.3108,0.00351673,0.00605019,-0.00320546,0.00823013,0.00133679,-0.97357,0.0050999,0.0152098,1609,1660,13.2901,-37.3108
392,-636,13.2668,36.8516,0.00303122,0.00422837,-0.00268771,0.00638335,0.000876237,-0.894964,0.00399564,0.0174692,1616,1660,13.2668,-36.8515
399,-636,13.2454,36.4169,0.00244239,0.00239469,-0.00211418,0.00453285,0.000304228,-0.779758,0.00292577,0.013601,1623,1660,13.2453,-36.4168
406,-636,13.2484,35.9415,0.00203548,0.000930972,-0.00179999,0.00336603,-0.000399574,-0.636552,0.00238838,0.0148021,1630,1660,13.2484,-35.9416
413,-636,13.252,35.413,0.00184523,-0.000514352,-0.0016576,0.00270002,-0.00136915,-0.476116,0.00239086,0.0219542,1637,1660,13.252,-35.413
420,-636,13.2208,34.9362,0.00173216,-0.00164671,-0.00164543,0.00240104,-0.00231559,-0.386102,0.00272329,0.0211341,1644,1660,13.2209,-34.9361
427,-636,13.1927,34.5155,0.0017473,-0.00274959,-0.00173701,0.0023401,-0.0033424,-0.328885,0.00329776,0.01392,1651,1660,13.1928,-34.5155
434,-636,13.1654,34.0205,0.00174208,-0.00369701,-0.00197215,0.00238189,-0.00433682,-0.313712,0.00393341,0.0132534,1658,1660,13.1654,-34.0206
441,-636,13.1683,33.5171,0.00186586,-0.00442448,-0.00234588,0.00264437,-0.00520299,-0.320426,0.00461025,0.0125255,1665,1660,13.1683,-33.5171
448,-636,13.1821,33.0441,0.00208847,-0.00512581,-0.00270674,0.00299108,-0.00602843,-0.321873,0.00530493,0.0144113,1672,1660,13.1821,-33.0441
455,-636,13.1156,32.5261,0.00251023,-0.00572581,-0.00308115,0.00353532,-0.0067509,-0.321178,0.0060347,0.0139345,1679,1660,13.1156,-32.5262
462,-636,13.1062,31.9971,0.00307089,-0.00656387,-0.00348101,0.00419696,-0.00768993,-0.312865,0.00696097,0.0197348,1686,1660,13.1062,-31.9971
469,-636,13.1285,31.4055,0.00355127,-0.00717566,-0.00382324,0.00477445,-0.00839884,-0.309643,0.00770096,0.0347654,1693,1660,13.1286,-31.4055
476,-636,13.3416,31.1625,0,0,0,0,0,0,0,-1,1700,1660,13.3416,-31.1624
483,-636,11.3833,24.3958,0,0,0,0,0,0,0,-1,1707,1660,11.3833,-24.3957
490,-636,10.8951,23.9569,0,0,0,0,0,0,0,-1,1714,1660,10.8951,-23.9569
497,-636,9.55579,18.0111,0,0,0,0,0,0,0,-1,1721,1660,9.55574,-18.0111
504,-636,6.26428,19.4268,0,0,0,0,0,0,0,-1,1728,1660,6.26433,-19.4268
511,-636,5.65466,9.23218,0,0,0,0,0,0,0,-1,1735,1660,5.65461,-9.23216
518,-636,6.72791,1.07605,0,0,0,0,0,0,0,-1,1742,1660,6.7279,-1.0761
525,-636,7.04309,0.93335,0,0,0,0,0,0,0,-1,1749,1660,7.04308,-0.933298
532,-636,0,0,0,0,0,0,0,0,0,-1,1756,1660,0,0
539,-636,0,0,0,0,0,0,0,0,0,-1,1763,1660,0,0
546,-636,0,0,0,0,0,0,0,0,0,-1,1770,1660,0,0
553,-636,0,0,0,0,0,0,0,0,0,-1,1777,1660,0,0
560,-636,0,0,0,0,0,0,0,0,0,-1,1784,1660,0,0
567,-636,0,0,0,0,0,0,0,0,0,-1,1791,1660,0,0
574,-636,0,0,0,0,0,0,0,0,0,-1,1798,1660,0,0
581,-636,0,0,0,0,0,0,0,0,0,-1,1805,1660,0,0
588,-636,0,0,0,0,0,0,0,0,0,-1,1812,1660,0,0
595,-636,0,0,0,0,0,0,0,0,0,-1,1819,1660,0,0
602,-636,0,0,0,0,0,0,0,0,0,-1,1826,1660,0,0
609,-636,0,0,0,0,0,0,0,0,0,-1,1833,1660,0,0
616,-636,0,0,0,0,0,0,0,0,0,-1,1840,1660,0,0
623,-636,0,0,0,0,0,0,0,0,0,-1,1847,1660,0,0
630,-636,0,0,0,0,0,0,0,0,0,-1,1854,1660,0,0
637,-636,0,0,0,0,0,0,0,0,0,-1,1861,1660,0,0
644,-636,0,0,0,0,0,0,0,0,0,-1,1868,1660,0,0
651,-636,0,0,0,0,0,0,0,0,0,-1,1875,1660,0,0
658,-636,0,0,0,0,0,0,0,0,0,-1,1882,1660,0,0
665,-636,0,0,0,0,0,0,0,0,0,-1,1889,1660,0,0
672,-636,0,0,0,0,0,0,0,0,0,-1,1896,1660,0,0
679,-636,0,0,0,0,0,0,0,0,0,-1,1903,1660,0,0
686,-636,0,0,0,0,0,0,0,0,0,-1,1910,1660,0,0
693,-636,0,0,0,0,0,0,0,0,0,-1,1917,1660,0,0
700,-636,0,0,0,0,0,0,0,0,0,-1,1924,1660,0,0
707,-636,0,0,0,0,0,0,0,0,0,-1,1931,1660,0,0
714,-636,0,0,0,0,0,0,0,0,0,-1,1938,1660,0,0
721,-636,0,0,0,0,0,0,0,0,0,-1,1945,1660,0,0
728,-636,0,0,0,0,0,0,0,0,0,-1,1952,1660,0,0
735,-636,0,0,0,0,0,0,0,0,0,-1,1959,1660,0,0
742,-636,0,0,0,0,0,0,0,0,0,-1,1966,1660,0,0
749,-636,0,0,0,0,0,0,0,0,0,-1,1973,1660,0,0
756,-636,0,0,0,0,0,0,0,0,0,-1,1980,1660,0,0
763,-636,0,0,0,0,0,0,0,0,0,-1,1987,1660,0,0
770,-636,0,0,0,0,0,0,0,0,0,-1,1994,1660,0,0
777,-636,0,0,0,0,0,0,0,0,0,-1,2001,1660,0,0
784,-636,0,0,0,0,0,0,0,0,0,-1,2008,1660,0,0
791,-636,0,0,0,0,0,0,0,0,0,-1,2015,1660,0,0
798,-636,0,0,0,0,0,0,0,0,0,-1,2022,1660,0,0
805,-636,0,0,0,0,0,0,0,0,0,-1,2029,1660,0,0
812,-636,0,0,0,0,0,0,0,0,0,-1,2036,1660,0,0
-700,-643,0,0,0,0,0,0,0,0,0,-1,524,1667,0,0
-693,-643,0,0,0,0,0,0,0,0,0,-1,531,1667,0,0
-686,-643,0,0,0,0,0,0,0,0,0,-1,538,1667,0,0
-679,-643,0,0,0,0,0,0,0,0,0,-1,545,1667,0,0
-672,-643,0,0,0,0,0,0,0,0,0,-1,552,1667,0,0
-665,-643,0,0,0,0,0,0,0,0,0,-1,559,1667,0,0
-658,-643,0,0,0,0,0,0,0,0,0,-1,566,1667,0,0
-651,-643,0,0,0,0,0,0,0,0,0,-1,573,1667,0,0
-644,-643,0,0,0,0,0,0,0,0,0,-1,580,1667,0,0
-637,-643,0,0,0,0,0,0,0,0,0,-1,587,1667,0,0
-630,-643,0,0,0,0,0,0,0,0,0,-1,594,1667,0,0
-623,-643,0,0,0,0,0,0,0,0,0,-1,601,1667,0,0
-616,-643,0,0,0,0,0,0,0,0,0,-1,608,1667,0,0
-609,-643,0,0,0,0,0,0,0,0,0,-1,615,1667,0,0
-602,-643,0,0,0,0,0,0,0,0,0,-1,622,1667,0,0
-595,-643,0,0,0,0,0,0,0,0,0,-1,629,1667,0,0
-588,-643,0,0,0,0,0,0,0,0,0,-1,636,1667,0,0
-581,-643,0,0,0,0,0,0,0,0,0,-1,643,1667,0,0
-574,-643,0,0,0,0,0,0,0,0,0,-1,650,1667,0,0
-567,-643,0,0,0,0,0,0,0,0,0,-1,657,1667,0,0
-560,-643,0,0,0,0,0,0,0,0,0,-1,664,1667,0,0
-553,-643,0,0,0,0,0,0,0,0,0,-1,671,1667,0,0
-546,-643,0,0,0,0,0,0,0,0,0,-1,678,1667,0,0
-539,-643,0,0,0,0,0,0,0,0,0,-1,685,1667,0,0
-532,-643,0,0,0,0,0,0,0,0,0,-1,692,1667,0,0
-525,-643,0,0,0,0,0,0,0,0,0,-1,699,1667,0,0
-518,-643,0,0,0,0,0,0,0,0,0,-1,706,1667,0,0
-511,-643,0,0,0,0,0,0,0,0,0,-1,713,1667,0,0
-504,-643,0,0,0,0,0,0,0,0,0,-1,720,1667,0,0
-497,-643,0,0,0,0,0,0,0,0,0,-1,727,1667,0,0
-490,-643,0,0,0,0,0,0,0,0,0,-1,734,1667,0,0
-483,-643,0,0,0,0,0,0,0,0,0,-1,741,1667,0,0
-476,-643,0,0,0,0,0,0,0,0,0,-1,748,1667,0,0
-469,-643,0,0,0,0,0,0,0,0,0,-1,755,1667,0,0
-462,-643,0,0,0,0,0,0,0,0,0,-1,762,1667,0,0
-455,-643,0,0,0,0,0,0,0,0,0,-1,769,1667,0,0
-448,-643,0,0,0,0,0,0,0,0,0,-1,776,1667,0,0
-441,-643,0,0,0,0,0,0,0,0,0,-1,783,1667,0,0
-434,-643,0,0,0,0,0,0,0,0,0,-1,790,1667,0,0
-427,-643,0,0,0,0,0,0,0,0,0,-1,797,1667,0,0
-420,-643,0,0,0,0,0,0,0,0,0,-1,804,1667,0,0
-413,-643,0,0,0,0,0,0,0,0,0,-1,811,1667,0,0
-406,-643,0,0,0,0,0,0,0,0,0,-1,818,1667,0,0
-399,-643,0.589417,11.6465,0,0,0,0,0,0,0,-1,825,1667,0.58939,-11.6465
-392,-643,0.865295,12.6523,0,0,0,0,0,0,0,-1,832,1667,0.865315,-12.6523
-385,-643,1.72968,13.2692,0,0,0,0,0,0,0,-1,839,1667,1.72967,-13.2692
-378,-643,2.66522,13.8193,0,0,0,0,0,0,0,-1,846,1667,2.66524,-13.8193
-371,-643,0.466125,3.35095,0,0,0,0,0,0,0,-1,853,1667,0.466148,-3.351
-364,-643,1.69513,9.922,0,0,0,0,0,0,0,-1,860,1667,1.69511,-9.92205
-357,-643,1.14227,10.8429,0,0,0,0,0,0,0,-1,867,1667,1.14228,-10.8429
-350,-643,2.50061,9.96948,0,0,0,0,0,0,0,-1,874,1667,2.50059,-9.96954
-343,-643,5.10919,30.3336,0,0,0,0,0,0,0,-1,881,1667,5.10922,-30.3337
-336,-643,4.74786,30.967,0,0,0,0,0,0,0,-1,888,1667,4.74788,-30.9671
-329,-643,4.77527,31.4778,-0.0076634,0.0131254,-0.00811012,0.015915,-0.010453,-1.23951,0.0153321,0.043199,895,1667,4.77528,-31.4778
-322,-643,4.84497,32.0762,-0.00660539,0.0112279,-0.00636878,0.0132688,-0.0086463,-1.26068,0.0127461,0.027839,902,1667,4.845,-32.0762
-315,-643,4.82373,32.6097,-0.0057961,0.00925183,-0.00475048,0.010626,-0.00717029,-1.28921,0.0103391,0.0188014,909,1667,4.82373,-32.6098
-308,-643,4.87335,33.0934,-0.00503013,0.00754514,-0.00328304,0.00835065,-0.00583564,-1.33019,0.00823325,0.0132457,916,1667,4.87333,-33.0934
-301,-643,4.87457,33.6227,-0.00423558,0.00604727,-0.00205796,0.00644385,-0.00463216,-1.38043,0.00642319,0.0136768,923,1667,4.87457,-33.6226
-294,-643,4.82935,34.1471,-0.00335316,0.00502255,-0.000986962,0.00513728,-0.00346789,-1.45507,0.00499926,0.0133617,930,1667,4.82933,-34.1472
-287,-643,4.78912,34.635,-0.00247882,0.0042796,-0.000150927,0.00428297,-0.00248219,-1.54848,0.00395172,0.0114409,937,1667,4.78912,-34.6351
-280,-643,4.77448,35.1311,-0.00163574,0.00376879,0.000515668,0.00381755,-0.0016845,1.47652,0.00325521,0.0152832,944,1667,4.77448,-35.1311
-273,-643,4.75482,35.6406,-0.000827246,0.00354066,0.00100491,0.00376076,-0.00104735,1.35517,0.0029196,0.0132424,951,1667,4.75483,-35.6407
-266,-643,4.74133,36.1658,6.27096e-05,0.00337524,0.00180407,0.00416803,-0.00073008,1.15675,0.0030513,0.0124027,958,1667,4.74132,-36.1658
-259,-643,4.74292,36.6566,0.000998076,0.00319827,0.00205364,0.0044279,-0.000231554,1.03129,0.00303207,0.012291,965,1667,4.74291,-36.6567
-252,-643,4.72028,37.1483,0.00179922,0.00372368,0.00196464,0.00494908,0.000573822,1.01312,0.00312572,0.0137804,972,1667,4.72029,-37.1483
-245,-643,4.69904,37.6371,0.00253727,0.00417776,0.00203937,0.00555566,0.00115938,0.976602,0.00338417,0.0123059,979,1667,4.69902,-37.6371
-238,-643,4.72858,38.1014,0.00328831,0.00447322,0.00213226,0.0060938,0.00166773,0.920907,0.00363641,0.0150523,986,1667,4.7286,-38.1014
-231,-643,4.68719,38.5693,0.00408329,0.00491018,0.00230497,0.00683849,0.00215498,0.87414,0.00403716,0.01122,993,1667,4.68719,-38.5694
-224,-643,4.69031,39.002,0.00480574,0.00557259,0.00260662,0.00782384,0.00255449,0.858423,0.00460685,0.00934613,1000,1667,4.69032,-39.0019
-217,-643,4.6803,39.4159,0.00512063,0.0066402,0.00278259,0.00876487,0.00299596,0.918674,0.00514413,0.00844503,1007,1667,4.68033,-39.4159
-210,-643,4.67688,39.8981,0.00520373,0.00751297,0.00259184,0.00919574,0.00352096,0.994943,0.00535748,0.0118885,1014,1667,4.67686,-39.8981
-203,-643,4.68604,40.4238,0.00548312,0.00864799,0.00263639,0.0101404,0.00399071,1.05569,0.00589863,0.0167048,1021,1667,4.68598,-40.4238
-196,-643,4.71606,40.8453,0.0054369,0.00988946,0.00247651,0.0109933,0.0043331,1.15152,0.00639419,0.0166929,1028,1667,4.71608,-40.8453
-189,-643,4.81763,41.224,0.00544765,0.0114753,0.00226319,0.0122304,0.0046925,1.24875,0.00712466,0.0156737,1035,1667,4.81761,-41.224
-182,-643,4.90051,41.6953,0.00556524,0.0128583,0.00224163,0.0134922,0.00493134,1.29521,0.00788312,0.0228711,1042,1667,4.90053,-41.6953
-175,-643,5.06409,42.3112,0.00538857,0.0145741,0.00214644,0.0150509,0.00491175,1.3522,0.00886263,0.0341847,1049,1667,5.06411,-42.3111
-168,-643,4.94373,42.8943,0.00508485,0.0162633,0.00183642,0.0165573,0.00479089,1.41207,0.00983805,0.0388303,1056,1667,4.94373,-42.8942
-161,-643,4.64661,42.9135,0.0047964,0.0178867,0.0014088,0.0180366,0.0046465,1.46479,0.0108136,0.0436121,1063,1667,4.64666,-42.9135
-154,-643,4.61145,43.3295,0,0,0,0,0,0,0,-1,1070,1667,4.6115,-43.3294
-147,-643,4.16162,42.2175,0,0,0,0,0,0,0,-1,1077,1667,4.16159,-42.2175
-140,-643,4.30322,22.9166,0,0,0,0,0,0,0,-1,1084,1667,4.30327,-22.9167
-133,-643,3.66748,21.6034,0,0,0,0,0,0,0,-1,1091,1667,3.66743,-21.6034
-126,-643,3.13904,17.689,0,0,0,0,0,0,0,-1,1098,1667,3.13909,-17.689
-119,-643,3.76282,14.1458,0,0,0,0,0,0,0,-1,1105,1667,3.76283,-14.1458
-112,-643,3.81458,16.2069,0,0,0,0,0,0,0,-1,1112,1667,3.81463,-16.2069
-105,-643,-2.23413,10.0996,0,0,0,0,0,0,0,-1,1119,1667,-2.23415,-10.0996
-98,-643,3.11035,4.68066,0,0,0,0,0,0,0,-1,1126,1667,3.11041,-4.68071
-91,-643,-1.74146,-2.5885,0,0,0,0,0,0,0,-1,1133,1667,-1.74146,2.58856
-84,-643,-3.07446,-0.199341,0,0,0,0,0,0,0,-1,1140,1667,-3.07449,0.199383
-77,-643,-3.63794,2.81165,0,0,0,0,0,0,0,-1,1147,1667,-3.63791,-2.8117
-70,-643,-3.36938,4.45203,0,0,0,0,0,0,0,-1,1154,1667,-3.36941,-4.452
-63,-643,-3.67822,6.26855,0,0,0,0,0,0,0,-1,1161,1667,-3.67823,-6.26856
-56,-643,-3.95142,8.1073,0,0,0,0,0,0,0,-1,1168,1667,-3.95139,-8.10732
-49,-643,-4.23535,9.90552,0,0,0,0,0,0,0,-1,1175,1667,-4.23537,-9.90557
-42,-643,-4.25195,10.7059,0,0,0,0,0,0,0,-1,1182,1667,-4.25192,-10.706
-35,-643,-4.10986,11.6588,0,0,0,0,0,0,0,-1,1189,1667,-4.10982,-11.6589
-28,-643,-1.38513,5.604,0,0,0,0,0,0,0,-1,1196,1667,-1.3851,-5.60403
-21,-643,1.61011,23.1276,0,0,0,0,0,0,0,-1,1203,1667,1.61011,-23.1275
-14,-643,5.81958,51.3976,0,0,0,0,0,0,0,-1,1210,1667,5.8196,-51.3975
-7,-643,5.80981,48.2142,0,0,0,0,0,0,0,-1,1217,1667,5.80977,-48.2142
0,-643,6.75916,49.1213,0,0,0,0,0,0,0,-1,1224,1667,6.75914,-49.1213
7,-643,8.18982,50.3136,0,0,0,0,0,0,0,-1,1231,1667,8.18977,-50.3136
14,-643,8.62659,54.2003,0,0,0,0,0,0,0,-1,1238,1667,8.62659,-54.2003
21,-643,9.15247,54.5791,0.0894565,0.118879,0.0426366,0.149271,0.0590645,0.951523,0.0868046,0.0439985,1245,1667,9.15252,-54.5791
28,-643,9.68018,54.8082,0.0734004,0.118337,0.0354354,0.137827,0.0539106,1.06795,0.0802007,0.0448164,1252,1667,9.6802,-54.8082
35,-643,9.90442,55.4924,0.0592159,0.114315,0.0286036,0.126479,0.0470521,1.16871,0.0738156,0.0422146,1259,1667,9.90442,-55.4924
42,-643,10.5007,55.5789,0.046409,0.107319,0.0223492,0.114639,0.0390884,1.25425,0.0672937,0.0468398,1266,1667,10.5007,-55.5789
49,-643,11.1105,55.6151,0,0,0,0,0,0,0,-1,1273,1667,11.1104,-55.6152
56,-643,10.1438,50.5132,0.0239594,0.0963715,0.0124117,0.0984398,0.0218911,1.40567,0.0596831,0.0446032,1280,1667,10.1438,-50.5131
63,-643,9.92029,50.6271,0.0178429,0.0878421,0.00943884,0.0890925,0.0165925,1.43909,0.0547094,0.0452934,1287,1667,9.92027,-50.6271
70,-643,10.6277,50.7169,0.0209181,0.0909388,0.000767696,0.0909472,0.0209097,1.55983,0.0550027,0.0445033,1294,1667,10.6277,-50.7169
77,-643,9.86279,51.7617,0.0279784,0.0898153,-0.00547507,0.0902963,0.0274974,-1.48316,0.0534441,0.0439523,1301,1667,9.86275,-51.7617
84,-643,10.2679,52.6561,0.0356432,0.0894998,-0.010229,0.0913772,0.0337658,-1.38928,0.0533521,0.0442905,1308,1667,10.268,-52.6561
91,-643,10.6455,53.5674,0,0,0,0,0,0,0,-1,1315,1667,10.6455,-53.5673
98,-643,8.81384,48.8295,0.0639115,0.0951195,-0.0212469,0.105877,0.0531542,-1.10212,0.0611281,0.0482648,1322,1667,8.81378,-48.8294
105,-643,8.56604,49.0719,0.0833287,0.100155,-0.0279652,0.120945,0.0625384,-0.931511,0.0698412,0.0465095,1329,1667,8.5661,-49.0718
112,-643,10.1113,56.5386,0,0,0,0,0,0,0,-1,1336,1667,10.1113,-56.5385
119,-643,10.1121,58.1758,0.124689,0.0978696,-0.0432789,0.156588,0.0659704,-0.635168,0.0907786,0.046535,1343,1667,10.1121,-58.1757
126,-643,11.8131,48.1232,0.142846,0.084819,-0.0492997,0.171036,0.0566289,-0.519435,0.100608,0.0452855,1350,1667,11.8131,-48.1232
133,-643,11.8925,47.6923,0.154584,0.0647401,-0.0510295,0.177648,0.0416769,-0.424482,0.107273,0.0463179,1357,1667,11.8925,-47.6923
140,-643,11.9962,47.3649,0,0,0,0,0,0,0,-1,1364,1667,11.9962,-47.3649
147,-643,5.06055,35.0499,0,0,0,0,0,0,0,-1,1371,1667,5.06052,-35.0499
154,-643,11.8787,39.6199,0,0,0,0,0,0,0,-1,1378,1667,11.8786,-39.6199
161,-643,5.57935,26.2754,0,0,0,0,0,0,0,-1,1385,1667,5.57931,-26.2754
168,-643,10.5563,10.9818,0,0,0,0,0,0,0,-1,1392,1667,10.5562,-10.9819
175,-643,5.88525,-1.1698,0,0,0,0,0,0,0,-1,1399,1667,5.88526,1.16977
182,-643,5.80945,-0.418701,0,0,0,0,0,0,0,-1,1406,1667,5.80949,0.418712
189,-643,5.42297,12.9208,0,0,0,0,0,0,0,-1,1413,1667,5.42298,-12.9208
196,-643,5.51953,11.2415,0,0,0,0,0,0,0,-1,1420,1667,5.51948,-11.2414
203,-643,5.60828,9.82153,0,0,0,0,0,0,0,-1,1427,1667,5.60833,-9.82148
210,-643,4.73218,7.58728,0,0,0,0,0,0,0,-1,1434,1667,4.73222,-7.58728
217,-643,3.8031,5.28955,0,0,0,0,0,0,0,-1,1441,1667,3.80305,-5.28955
224,-643,2.96436,2.97095,0,0,0,0,0,0,0,-1,1448,1667,2.96432,-2.97095
231,-643,2.13403,1.08472,0,0,0,0,0,0,0,-1,1455,1667,2.13403,-1.08467
238,-643,1.18152,-0.261963,0,0,0,0,0,0,0,-1,1462,1667,1.18152,0.26192
245,-643,-0.157471,-1.79016,0,0,0,0,0,0,0,-1,1469,1667,-0.157517,1.7901
252,-643,8.08789,0.0202637,0,0,0,0,0,0,0,-1,1476,1667,8.08791,-0.0203056
259,-643,9.02979,-0.46936,0,0,0,0,0,0,0,-1,1483,1667,9.02974,0.46933
266,-643,4.55066,5.17554,0,0,0,0,0,0,0,-1,1490,1667,4.55063,-5.17556
273,-643,10.74,31.432,0,0,0,0,0,0,0,-1,1497,1667,10.7399,-31.4319
280,-643,12.1675,42.5023,0,0,0,0,0,0,0,-1,1504,1667,12.1675,-42.5023
287,-643,13.1945,43.868,0,0,0,0,0,0,0,-1,1511,1667,13.1945,-43.868
294,-643,13.1125,43.3158,0.00269226,0.0270231,0.00151576,0.0271172,0.0025982,1.50882,0.0172773,0.0497849,1518,1667,13.1126,-43.3158
301,-643,13.0099,42.8932,0.00326616,0.0241088,0.000564338,0.0241241,0.00325089,1.54375,0.0151161,0.0356667,1525,1667,13.0099,-42.8932
308,-643,12.77,42.1171,0.00364785,0.0221315,-0.000461533,0.022143,0.00363633,-1.54585,0.0137116,0.0337125,1532,1667,12.77,-42.1171
315,-643,12.6858,41.7386,0.00401952,0.0199316,-0.00138475,0.0200512,0.00389991,-1.48463,0.0122757,0.0269064,1539,1667,12.6858,-41.7386
322,-643,12.7521,41.2444,0.00447448,0.0179831,-0.00255417,0.0184499,0.00400768,-1.39003,0.0112056,0.0165422,1546,1667,12.7521,-41.2444
329,-643,12.7937,40.7675,0.00467843,0.0161305,-0.00327377,0.0170003,0.00380863,-1.31111,0.0103014,0.012113,1553,1667,12.7938,-40.7675
336,-643,12.7694,40.4012,0.0046639,0.0146526,-0.00364344,0.0158404,0.00347617,-1.25567,0.00961336,0.0114697,1560,1667,12.7694,-40.4012
343,-643,12.8058,40.0166,0.0045641,0.0128532,-0.00403809,0.0144952,0.00292217,-1.1846,0.00885165,0.0134284,1567,1667,12.8058,-40.0166
350,-643,12.8297,39.5538,0.00451216,0.0110985,-0.00418397,0.0131299,0.00248081,-1.11881,0.00805468,0.012981,1574,1667,12.8298,-39.5539
357,-643,12.8174,39.1241,0.0042863,0.0094891,-0.00402054,0.0116764,0.00209896,-1.07254,0.00718754,0.0112207,1581,1667,12.8174,-39.1242
364,-643,12.829,38.6984,0.00386733,0.00828875,-0.00363191,0.0103299,0.00182622,-1.05879,0.00636576,0.010019,1588,1667,12.8289,-38.6983
371,-643,12.823,38.2709,0.00337772,0.00694328,-0.00316636,0.00879425,0.00152676,-1.0418,0.00542599,0.00844813,1595,1667,12.823,-38.2708
378,-643,12.8201,37.8293,0.00297815,0.00551978,-0.00270864,0.0072409,0.00125703,-1.00474,0.0044676,0.0102177,1602,1667,12.8201,-37.8293
385,-643,12.8414,37.3718,0.00266801,0.0040122,-0.00234543,0.00577993,0.000900282,-0.924936,0.00359101,0.0163481,1609,1667,12.8414,-37.3718
392,-643,12.806,36.889,0.00234849,0.00234236,-0.00202799,0.00437342,0.000317429,-0.784642,0.00281577,0.0186121,1616,1667,12.806,-36.889
399,-643,12.7688,36.4496,0.00193645,0.000669049,-0.00166133,0.00308084,-0.000475342,-0.603196,0.0022293,0.0165036,1623,1667,12.7689,-36.4496
406,-643,12.7927,35.9572,0.00168511,-0.000729309,-0.00151299,0.00241348,-0.00145768,-0.448669,0.00225761,0.0139274,1630,1667,12.7927,-35.9571
413,-643,12.8024,35.4348,0.00164737,-0.00212316,-0.00154924,0.00220226,-0.00267805,-0.343935,0.00282211,0.0184682,1637,1667,12.8024,-35.4348
420,-643,12.7546,34.9973,0.00168096,-0.00330919,-0.00171832,0.00221541,-0.00384364,-0.301547,0.00354005,0.0175038,1644,1667,12.7546,-34.9973
427,-643,12.7599,34.5437,0.00187409,-0.00451456,-0.00203373,0.00246656,-0.00510703,-0.283473,0.00446031,0.0151326,1651,1667,12.7599,-34.5437
434,-643,12.7344,34.0435,0.00204014,-0.00559754,-0.00246516,0.00276669,-0.00632409,-0.286612,0.00538085,0.0162209,1658,1667,12.7344,-34.0434
441,-643,12.6996,33.5524,0.00234116,-0.00645337,-0.00300873,0.00327197,-0.00738418,-0.300031,0.00630318,0.0157535,1665,1667,12.6996,-33.5523
448,-643,12.6422,33.0433,0.00266944,-0.0072581,-0.00357291,0.00382161,-0.00841027,-0.311945,0.00722582,0.0192083,1672,1667,12.6423,-33.0433
455,-643,12.5671,32.4963,0.00339664,-0.00796743,-0.0040989,0.00472078,-0.00929157,-0.312465,0.00823226,0.0253965,1679,1667,12.5672,-32.4963
462,-643,12.7734,31.9482,0.00420391,-0.00885468,-0.00463733,0.00568314,-0.0103339,-0.308781,0.00937649,0.0402465,1686,1667,12.7735,-31.9483
469,-643,12.7148,31.4248,0,0,0,0,0,0,0,-1,1693,1667,12.7149,-31.4248
476,-643,10.5598,24.5066,0,0,0,0,0,0,0,-1,1700,1667,10.5598,-24.5065
483,-643,10.4502,24.3062,0,0,0,0,0,0,0,-1,1707,1667,10.4502,-24.3062
490,-643,10.6885,24.1522,0,0,0,0,0,0,0,-1,1714,1667,10.6884,-24.1522
497,-643,10.9073,23.9465,0,0,0,0,0,0,0,-1,1721,1667,10.9074,-23.9465
504,-643,8.05591,19.0656,0,0,0,0,0,0,0,-1,1728,1667,8.0559,-19.0655
511,-643,7.74719,18.1564,0,0,0,0,0,0,0,-1,1735,1667,7.74724,-18.1563
518,-643,7.40564,0.922607,0,0,0,0,0,0,0,-1,1742,1667,7.4057,-0.922598
525,-643,0,0,0,0,0,0,0,0,0,-1,1749,1667,0,0
532,-643,0,0,0,0,0,0,0,0,0,-1,1756,1667,0,0
539,-643,0,0,0,0,0,0,0,0,0,-1,1763,1667,0,0
546,-643,0,0,0,0,0,0,0,0,0,-1,1770,1667,0,0
553,-643,0,0,0,0,0,0,0,0,0,-1,1777,1667,0,0
560,-643,0,0,0,0,0,0,0,0,0,-1,1784,1667,0,0
567,-643,0,0,0,0,0,0,0,0,0,-1,1791,1667,0,0
574,-643,0,0,0,0,0,0,0,0,0,-1,1798,1667,0,0
581,-643,0,0,0,0,0,0,0,0,0,-1,1805,1667,0,0
588,-643,0,0,0,0,0,0,0,0,0,-1,1812,1667,0,0
595,-643,0,0,0,0,0,0,0,0,0,-1,1819,1667,0,0
602,-643,0,0,0,0,0,0,0,0,0,-1,1826,1667,0,0
609,-643,0,0,0,0,0,0,0,0,0,-1,1833,1667,0,0
616,-643,0,0,0,0,0,0,0,0,0,-1,1840,1667,0,0
623,-643,0,0,0,0,0,0,0,0,0,-1,1847,1667,0,0
630,-643,0,0,0,0,0,0,0,0,0,-1,1854,1667,0,0
637,-643,0,0,0,0,0,0,0,0,0,-1,1861,1667,0,0
644,-643,0,0,0,0,0,0,0,0,0,-1,1868,1667,0,0
651,-643,0,0,0,0,0,0,0,0,0,-1,1875,1667,0,0
658,-643,0,0,0,0,0,0,0,0,0,-1,1882,1667,0,0
665,-643,0,0,0,0,0,0,0,0,0,-1,1889,1667,0,0
672,-643,0,0,0,0,0,0,0,0,0,-1,1896,1667,0,0
679,-643,0,0,0,0,0,0,0,0,0,-1,1903,1667,0,0
686,-643,0,0,0,0,0,0,0,0,0,-1,1910,1667,0,0
693,-643,0,0,0,0,0,0,0,0,0,-1,1917,1667,0,0
700,-643,0,0,0,0,0,0,0,0,0,-1,1924,1667,0,0
707,-643,0,0,0,0,0,0,0,0,0,-1,1931,1667,0,0
714,-643,0,0,0,0,0,0,0,0,0,-1,1938,1667,0,0
721,-643,0,0,0,0,0,0,0,0,0,-1,1945,1667,0,0
728,-643,0,0,0,0,0,0,0,0,0,-1,1952,1667,0,0
735,-643,0,0,0,0,0,0,0,0,0,-1,1959,1667,0,0
742,-643,0,0,0,0,0,0,0,0,0,-1,1966,1667,0,0
749,-643,0,0,0,0,0,0,0,0,0,-1,1973,1667,0,0
756,-643,0,0,0,0,0,0,0,0,0,-1,1980,1667,0,0
763,-643,0,0,0,0,0,0,0,0,0,-1,1987,1667,0,0
770,-643,0,0,0,0,0,0,0,0,0,-1,1994,1667,0,0
777,-643,0,0,0,0,0,0,0,0,0,-1,2001,1667,0,0
784,-643,0,0,0,0,0,0,0,0,0,-1,2008,1667,0,0
791,-643,0,0,0,0,0,0,0,0,0,-1,2015,1667,0,0
798,-643,0,0,0,0,0,0,0,0,0,-1,2022,1667,0,0
805,-643,0,0,0,0,0,0,0,0,0,-1,2029,1667,0,0
812,-643,0,0,0,0,0,0,0,0,0,-1,2036,1667,0,0
-700,-650,0,0,0,0,0,0,0,0,0,-1,524,1674,0,0
-693,-650,0,0,0,0,0,0,0,0,0,-1,531,1674,0,0
-686,-650,0,0,0,0,0,0,0,0,0,-1,538,1674,0,0
-679,-650,0,0,0,0,0,0,0,0,0,-1,545,1674,0,0
-672,-650,0,0,0,0,0,0,0,0,0,-1,552,1674,0,0
-665,-650,0,0,0,0,0,0,0,0,0,-1,559,1674,0,0
-658,-650,0,0,0,0,0,0,0,0,0,-1,566,1674,0,0
-651,-650,0,0,0,0,0,0,0,0,0,-1,573,1674,0,0
-644,-650,0,0,0,0,0,0,0,0,0,-1,580,1674,0,0
-637,-650,0,0,0,0,0,0,0,0,0,-1,587,1674,0,0
-630,-650,0,0,0,0,0,0,0,0,0,-1,594,1674,0,0
-623,-650,0,0,0,0,0,0,0,0,0,-1,601,1674,0,0
-616,-650,0,0,0,0,0,0,0,0,0,-1,608,1674,0,0
-609,-650,0,0,0,0,0,0,0,0,0,-1,615,1674,0,0
-602,-650,0,0,0,0,0,0,0,0,0,-1,622,1674,0,0
-595,-650,0,0,0,0,0,0,0,0,0,-1,629,1674,0,0
-588,-650,0,0,0,0,0,0,0,0,0,-1,636,1674,0,0
-581,-650,0,0,0,0,0,0,0,0,0,-1,643,1674,0,0
-574,-650,0,0,0,0,0,0,0,0,0,-1,650,1674,0,0
-567,-650,0,0,0,0,0,0,0,0,0,-1,657,1674,0,0
-560,-650,0,0,0,0,0,0,0,0,0,-1,664,1674,0,0
-553,-650,0,0,0,0,0,0,0,0,0,-1,671,1674,0,0
-546,-650,0,0,0,0,0,0,0,0,0,-1,678,1674,0,0
-539,-650,0,0,0,0,0,0,0,0,0,-1,685,1674,0,0
-532,-650,0,0,0,0,0,0,0,0,0,-1,692,1674,0,0
-525,-650,0,0,0,0,0,0,0,0,0,-1,699,1674,0,0
-518,-650,0,0,0,0,0,0,0,0,0,-1,706,1674,0,0
-511,-650,0,0,0,0,0,0,0,0,0,-1,713,1674,0,0
-504,-650,0,0,0,0,0,0,0,0,0,-1,720,1674,0,0
-497,-650,0,0,0,0,0,0,0,0,0,-1,727,1674,0,0
-490,-650,0,0,0,0,0,0,0,0,0,-1,734,1674,0,0
-483,-650,0,0,0,0,0,0,0,0,0,-1,741,1674,0,0
-476,-650,0,0,0,0,0,0,0,0,0,-1,748,1674,0,0
-469,-650,0,0,0,0,0,0,0,0,0,-1,755,1674,0,0
-462,-650,0,0,0,0,0,0,0,0,0,-1,762,1674,0,0
-455,-650,0,0,0,0,0,0,0,0,0,-1,769,1674,0,0
-448,-650,0,0,0,0,0,0,0,0,0,-1,776,1674,0,0
-441,-650,0,0,0,0,0,0,0,0,0,-1,783,1674,0,0
-434,-650,0,0,0,0,0,0,0,0,0,-1,790,1674,0,0
-427,-650,0,0,0,0,0,0,0,0,0,-1,797,1674,0,0
-420,-650,0,0,0,0,0,0,0,0,0,-1,804,1674,0,0
-413,-650,0,0,0,0,0,0,0,0,0,-1,811,1674,0,0
-406,-650,0,0,0,0,0,0,0,0,0,-1,818,1674,0,0
-399,-650,0,0,0,0,0,0,0,0,0,-1,825,1674,0,0
-392,-650,5.44415,6.85669,0,0,0,0,0,0,0,-1,832,1674,5.44414,-6.85674
-385,-650,1.74451,14.0183,0,0,0,0,0,0,0,-1,839,1674,1.74453,-14.0183
-378,-650,0.997986,4.11108,0,0,0,0,0,0,0,-1,846,1674,0.998006,-4.11113
-371,-650,-1.80096,3.78625,0,0,0,0,0,0,0,-1,853,1674,-1.80094,-3.78625
-364,-650,-2.95679,2.57507,0,0,0,0,0,0,0,-1,860,1674,-2.95681,-2.57506
-357,-650,1.97833,10.8362,0,0,0,0,0,0,0,-1,867,1674,1.97835,-10.8362
-350,-650,-5.30243,0.159912,0,0,0,0,0,0,0,-1,874,1674,-5.30244,-0.159866
-343,-650,-6.21338,-1.4425,0,0,0,0,0,0,0,-1,881,1674,-6.21341,1.44248
-336,-650,5.01526,30.5874,0,0,0,0,0,0,0,-1,888,1674,5.01526,-30.5874
-329,-650,5.13696,31.4886,0,0,0,0,0,0,0,-1,895,1674,5.13699,-31.4886
-322,-650,5.27667,32.0023,-0.00947244,0.0159313,-0.00981664,0.0192826,-0.0128237,-1.24181,0.0186612,0.049378,902,1674,5.27665,-32.0023
-315,-650,5.30859,32.3807,-0.00830911,0.013098,-0.00711058,0.0152446,-0.0104557,-1.27761,0.0149237,0.0440557,909,1674,5.3086,-32.3807
-308,-650,5.39673,32.9623,-0.0073123,0.0104234,-0.00481288,0.0116452,-0.00853418,-1.32217,0.0116967,0.0269137,916,1674,5.39675,-32.9622
-301,-650,5.38843,33.6592,-0.00634753,0.00806651,-0.00302608,0.00867603,-0.00695704,-1.37203,0.00904393,0.0149711,923,1674,5.38841,-33.6591
-294,-650,5.32159,34.1517,-0.00534965,0.00639382,-0.00161451,0.00661174,-0.00556757,-1.43663,0.00704034,0.0121396,930,1674,5.32157,-34.1518
-287,-650,5.30884,34.6553,-0.00438709,0.00507104,-0.000566659,0.00510487,-0.00442092,-1.51117,0.00550444,0.0136435,937,1674,5.30886,-34.6553
-280,-650,5.28217,35.1606,-0.00352489,0.00408183,0.000168045,0.00408554,-0.0035286,1.54872,0.00439994,0.0152221,944,1674,5.28218,-35.1606
-273,-650,5.24738,35.6788,-0.00272398,0.00345941,0.000623044,0.00352156,-0.00278613,1.47137,0.00364999,0.014809,951,1674,5.24738,-35.6789
-266,-650,5.21289,36.1925,-0.0018103,0.00291868,0.0015558,0.00338462,-0.00227624,1.27981,0.00328911,0.0115803,958,1674,5.21287,-36.1925
-259,-650,5.20618,36.6747,-0.000849944,0.00229357,0.00171967,0.00305155,-0.00160793,1.15564,0.00273285,0.0142436,965,1674,5.20618,-36.6747
-252,-650,5.18872,37.1527,-7.73171e-05,0.00267196,0.00140406,0.00326226,-0.000667623,1.1728,0.00242817,0.0132093,972,1674,5.1887,-37.1527
-245,-650,5.15906,37.6257,0.000626419,0.00302442,0.00139058,0.00366153,-1.06966e-05,1.14117,0.00244459,0.0119668,979,1674,5.15906,-37.6257
-238,-650,5.16376,38.1244,0.00139117,0.00324015,0.00143466,0.00402239,0.000608933,1.07161,0.00250343,0.0132266,986,1674,5.16378,-38.1244
-231,-650,5.1275,38.6074,0.00217128,0.00357011,0.00155353,0.0045744,0.00116698,0.996912,0.00274459,0.0174523,993,1674,5.12748,-38.6074
-224,-650,5.1275,39.0465,0.00294731,0.00405021,0.00175024,0.00533382,0.0016637,0.938012,0.00315127,0.013937,1000,1674,5.12753,-39.0465
-217,-650,5.12866,39.4493,0.00337316,0.00491011,0.00190018,0.00619133,0.00209194,0.977555,0.00363666,0.00929517,1007,1674,5.12866,-39.4493
-210,-650,5.1308,39.9021,0.00363414,0.00564969,0.00179548,0.00670088,0.00258295,1.04113,0.00390245,0.00935647,1014,1674,5.13077,-39.9021
-203,-650,5.16797,40.3457,0.00403723,0.00649989,0.0018288,0.00747325,0.00306387,1.08169,0.00433793,0.0147812,1021,1674,5.16796,-40.3457
-196,-650,5.18176,40.7618,0.00418662,0.00743945,0.00175926,0.00820891,0.00341716,1.15849,0.00476151,0.0136914,1028,1674,5.1818,-40.7619
-189,-650,5.18152,41.1842,0.00433199,0.008552,0.00162708,0.00910648,0.00377751,1.24235,0.005283,0.0114274,1035,1674,5.18149,-41.1842
-182,-650,5.24207,41.6444,0.0045174,0.00956593,0.00156547,0.010012,0.00407138,1.29324,0.00581389,0.0120698,1042,1674,5.24201,-41.6444
-175,-650,5.2677,42.0184,0.00453642,0.0107635,0.0014694,0.0110928,0.00420711,1.35032,0.00646637,0.0179873,1049,1674,5.26774,-42.0184
-168,-650,5.24353,42.4167,0.00447513,0.0120142,0.00125634,0.012218,0.00427128,1.40994,0.00715968,0.0204069,1056,1674,5.24347,-42.4168
-161,-650,5.16943,42.8044,0.00444129,0.0131169,0.000996515,0.0132299,0.0043283,1.45789,0.00778893,0.0294372,1063,1674,5.16942,-42.8045
-154,-650,5.3103,43.1691,0.00441281,0.0140395,0.000656621,0.014084,0.00436822,1.50301,0.00832451,0.0382851,1070,1674,5.31025,-43.1691
-147,-650,5.39514,43.7454,0,0,0,0,0,0,0,-1,1077,1674,5.39515,-43.7453
-140,-650,4.9696,36.0964,0,0,0,0,0,0,0,-1,1084,1674,4.96957,-36.0964
-133,-650,4.69751,37.2125,0,0,0,0,0,0,0,-1,1091,1674,4.69756,-37.2125
-126,-650,4.56946,39.0813,0,0,0,0,0,0,0,-1,1098,1674,4.5695,-39.0813
-119,-650,5.16663,20.6232,0,0,0,0,0,0,0,-1,1105,1674,5.16665,-20.6232
-112,-650,3.86292,14.4513,0,0,0,0,0,0,0,-1,1112,1674,3.8629,-14.4513
-105,-650,7.92102,38.1313,0,0,0,0,0,0,0,-1,1119,1674,7.92104,-38.1314
-98,-650,3.3761,6.78003,0,0,0,0,0,0,0,-1,1126,1674,3.37611,-6.78009
-91,-650,3.66809,7.04443,0,0,0,0,0,0,0,-1,1133,1674,3.66806,-7.04439
-84,-650,-3.82666,-1.59521,0,0,0,0,0,0,0,-1,1140,1674,-3.82661,1.59517
-77,-650,-4.70557,1.90198,0,0,0,0,0,0,0,-1,1147,1674,-4.7056,-1.90194
-70,-650,-4.88171,3.81653,0,0,0,0,0,0,0,-1,1154,1674,-4.88176,-3.81651
-63,-650,-5.14612,5.56543,0,0,0,0,0,0,0,-1,1161,1674,-5.14612,-5.56547
-56,-650,-5.38367,7.41101,0,0,0,0,0,0,0,-1,1168,1674,-5.38361,-7.41102
-49,-650,-5.11316,8.23706,0,0,0,0,0,0,0,-1,1175,1674,-5.11317,-8.23708
-42,-650,-4.99487,9.6792,0,0,0,0,0,0,0,-1,1182,1674,-4.99484,-9.67921
-35,-650,-4.77771,11.3369,0,0,0,0,0,0,0,-1,1189,1674,-4.77769,-11.3369
-28,-650,-4.1936,13.1501,0,0,0,0,0,0,0,-1,1196,1674,-4.19358,-13.1501
-21,-650,7.49512,36.2162,0,0,0,0,0,0,0,-1,1203,1674,7.49515,-36.2162
-14,-650,4.87512,47.0822,0,0,0,0,0,0,0,-1,1210,1674,4.87513,-47.0822
-7,-650,5.81067,48.1484,0.141852,0.0513093,0.0523752,0.16581,0.0273517,0.42901,0.102645,0.0481854,1217,1674,5.81065,-48.1484
0,-650,6.84924,49.2728,0.128662,0.0721817,0.0505937,0.158363,0.0424803,0.530849,0.0946484,0.0401477,1224,1674,6.84921,-49.2728
7,-650,8.11743,50.0789,0.112891,0.0894208,0.0480049,0.150574,0.0517374,0.665521,0.0883404,0.0400409,1231,1674,8.11742,-50.0788
14,-650,9.29712,50.7955,0.0968277,0.100905,0.0429585,0.141873,0.0558597,0.80911,0.082525,0.042632,1238,1674,9.2971,-50.7955
21,-650,8.76282,53.5621,0,0,0,0,0,0,0,-1,1245,1674,8.76276,-53.5621
28,-650,9.16418,53.7815,0.0677091,0.107934,0.0304387,0.124305,0.0513384,1.07735,0.0721287,0.0454187,1252,1674,9.16414,-53.7815
35,-650,9.60242,53.8486,0.054888,0.106791,0.0240828,0.116244,0.0454353,1.19677,0.0676444,0.0441008,1259,1674,9.60239,-53.8486
42,-650,10.0356,54.0582,0.0434759,0.102505,0.0183228,0.10773,0.038251,1.29301,0.0630629,0.0429774,1266,1674,10.0356,-54.0582
49,-650,10.3218,53.7786,0,0,0,0,0,0,0,-1,1273,1674,10.3218,-53.7786
56,-650,10.5568,54.1559,0.0233325,0.0941349,0.00858943,0.095162,0.0223053,1.45178,0.0574678,0.0480844,1280,1674,10.5567,-54.1559
63,-650,9.82813,50.6538,0.0182356,0.0862373,0.00543653,0.0866692,0.0178037,1.49152,0.0528541,0.0457892,1287,1674,9.82817,-50.6538
70,-650,10.1246,50.1968,0.0203517,0.0879942,-0.00227187,0.0880704,0.0202755,-1.53726,0.0532575,0.0463345,1294,1674,10.1247,-50.1968
77,-650,10.5182,50.301,0.0266443,0.0855287,-0.00748203,0.0864646,0.0257085,-1.44637,0.0512691,0.0444093,1301,1674,10.5181,-50.301
84,-650,9.71399,48.9949,0.0334565,0.0833835,-0.0110669,0.0857267,0.0311134,-1.36215,0.0501104,0.0469508,1308,1674,9.71394,-48.9949
91,-650,9.36548,48.8389,0.0434315,0.0821581,-0.014562,0.0870227,0.0385669,-1.24839,0.0503506,0.0490535,1315,1674,9.36551,-48.8389
98,-650,8.99036,49.0905,0.0567197,0.0831284,-0.0183591,0.0925384,0.0473097,-1.09716,0.0534316,0.0473599,1322,1674,8.9904,-49.0905
105,-650,8.70203,49.4541,0.0725738,0.0853032,-0.0227081,0.102522,0.0553553,-0.922034,0.0592538,0.0450155,1329,1674,8.70197,-49.4541
112,-650,8.46033,49.7976,0,0,0,0,0,0,0,-1,1336,1674,8.46028,-49.7976
119,-650,11.4979,47.9761,0.105269,0.0814075,-0.0313886,0.126918,0.0597586,-0.603784,0.0733174,0.0420054,1343,1674,11.498,-47.9761
126,-650,11.6992,48.3055,0.118985,0.0709218,-0.0344505,0.136958,0.0529492,-0.480852,0.0797475,0.0477845,1350,1674,11.6992,-48.3055
133,-650,11.5908,48.7075,0.12751,0.0560079,-0.0345333,0.141465,0.0420529,-0.384038,0.0838827,0.0492601,1357,1674,11.5909,-48.7076
140,-650,11.6484,49.1494,0.129072,0.0389134,-0.0315138,0.138995,0.0289903,-0.305052,0.0846708,0.0455366,1364,1674,11.6484,-49.1494
147,-650,11.7572,49.5813,0,0,0,0,0,0,0,-1,1371,1674,11.7572,-49.5813
154,-650,4.61719,34.5209,0,0,0,0,0,0,0,-1,1378,1674,4.61721,-34.5208
161,-650,4.09106,30.3021,0,0,0,0,0,0,0,-1,1385,1674,4.09104,-30.3021
168,-650,11.2113,7.87231,0,0,0,0,0,0,0,-1,1392,1674,11.2113,-7.87236
175,-650,5.62537,-0.230713,0,0,0,0,0,0,0,-1,1399,1674,5.62538,0.230745
182,-650,5.56006,0.421631,0,0,0,0,0,0,0,-1,1406,1674,5.56,-0.421652
189,-650,4.81543,11.0654,0,0,0,0,0,0,0,-1,1413,1674,4.81542,-11.0654
196,-650,5.39575,11.9077,0,0,0,0,0,0,0,-1,1420,1674,5.39575,-11.9078
203,-650,3.93628,11.8215,0,0,0,0,0,0,0,-1,1427,1674,3.93624,-11.8216
210,-650,5.40955,8.08594,0,0,0,0,0,0,0,-1,1434,1674,5.40958,-8.086
217,-650,5.12451,4.69739,0,0,0,0,0,0,0,-1,1441,1674,5.12451,-4.69738
224,-650,4.79041,1.45813,0,0,0,0,0,0,0,-1,1448,1674,4.79046,-1.45816
231,-650,4.04102,-0.642212,0,0,0,0,0,0,0,-1,1455,1674,4.04101,0.642209
238,-650,3.23022,-1.43396,0,0,0,0,0,0,0,-1,1462,1674,3.23023,1.43394
245,-650,1.65894,-2.55042,0,0,0,0,0,0,0,-1,1469,1674,1.65889,2.55036
252,-650,8.75342,0.355103,0,0,0,0,0,0,0,-1,1476,1674,8.75337,-0.355147
259,-650,5.61255,3.17566,0,0,0,0,0,0,0,-1,1483,1674,5.61257,-3.17572
266,-650,4.00403,6.10229,0,0,0,0,0,0,0,-1,1490,1674,4.00401,-6.10225
273,-650,11.9524,42.7109,0,0,0,0,0,0,0,-1,1497,1674,11.9524,-42.7109
280,-650,12.4147,43.9883,0,0,0,0,0,0,0,-1,1504,1674,12.4147,-43.9883
287,-650,12.4835,43.4667,0.00356187,0.0213255,0.00171421,0.0214894,0.00339796,1.47547,0.0133387,0.0467413,1511,1674,12.4835,-43.4666
294,-650,12.3822,42.9951,0.00358028,0.0197567,0.000943663,0.0198116,0.00352542,1.51272,0.0122035,0.0437177,1518,1674,12.3822,-42.9951
301,-650,12.2605,42.5216,0.00365043,0.0177127,0.000378058,0.0177229,0.00364027,1.54394,0.0108082,0.0330745,1525,1674,12.2604,-42.5216
308,-650,12.3018,42.0437,0.0036806,0.0162334,-0.00027886,0.0162396,0.00367441,-1.5486,0.00983314,0.0187174,1532,1674,12.3018,-42.0438
315,-650,12.3752,41.6254,0.00375022,0.0145969,-0.000906523,0.0146722,0.00367498,-1.48799,0.00881558,0.0116971,1539,1674,12.3752,-41.6254
322,-650,12.3527,41.2135,0.00382824,0.0131571,-0.00165438,0.0134418,0.00354354,-1.40038,0.00804449,0.0108062,1546,1674,12.3527,-41.2135
329,-650,12.3867,40.7581,0.00377075,0.0117416,-0.00213137,0.0122758,0.00323662,-1.32525,0.0073466,0.0153715,1553,1674,12.3868,-40.7581
336,-650,12.3896,40.3832,0.00361165,0.0105969,-0.00239293,0.011338,0.00287053,-1.27046,0.00680667,0.0140435,1560,1674,12.3897,-40.3832
343,-650,12.4069,39.9794,0.00346116,0.00916856,-0.00270361,0.0102459,0.00238381,-1.1916,0.00619092,0.0135012,1567,1674,12.4069,-39.9794
350,-650,12.3989,39.5541,0.00332489,0.00779156,-0.00286874,0.00919381,0.00192265,-1.11615,0.00559945,0.0159948,1574,1674,12.3989,-39.5541
357,-650,12.3768,39.1213,0.00308944,0.00655921,-0.00278013,0.00810136,0.00154729,-1.06435,0.00496615,0.0135797,1581,1674,12.3768,-39.1213
364,-650,12.3888,38.6962,0.00272492,0.00561406,-0.00250867,0.00706435,0.00127463,-1.04663,0.00434743,0.0092813,1588,1674,12.3888,-38.6962
371,-650,12.3774,38.2654,0.00234363,0.00452717,-0.00214626,0.00584339,0.00102741,-1.02068,0.0036023,0.0109426,1595,1674,12.3775,-38.2654
378,-650,12.3679,37.8136,0.00211209,0.00331387,-0.00181865,0.00462833,0.000797636,-0.944955,0.00285703,0.0123126,1602,1674,12.368,-37.8136
385,-650,12.3641,37.3761,0.00197044,0.00199927,-0.0016164,0.00360132,0.000368393,-0.789857,0.00228799,0.0138749,1609,1674,12.3641,-37.3761
392,-650,12.3518,36.9359,0.00179509,0.00042617,-0.00146319,0.00272599,-0.000504736,-0.566625,0.00200684,0.0186551,1616,1674,12.3518,-36.9359
399,-650,12.3379,36.4623,0.00156083,-0.00112893,-0.00127755,0.0020709,-0.00163901,-0.379865,0.00214675,0.0179915,1623,1674,12.3378,-36.4623
406,-650,12.3156,35.9847,0.0014701,-0.00248852,-0.00127949,0.00184765,-0.00286606,-0.286931,0.00274255,0.0152496,1630,1674,12.3155,-35.9847
413,-650,12.3068,35.5115,0.00159923,-0.00384579,-0.00149165,0.00198109,-0.00422764,-0.250614,0.003662,0.0153015,1637,1674,12.3067,-35.5114
420,-650,12.2694,35.0511,0.00179921,-0.00511498,-0.00186209,0.0022688,-0.00558457,-0.247035,0.00466691,0.0163335,1644,1674,12.2694,-35.0512
427,-650,12.2802,34.5757,0.00215638,-0.00649844,-0.00241913,0.00278666,-0.00712872,-0.254873,0.00590478,0.015044,1651,1674,12.2802,-34.5756
434,-650,12.2542,34.101,0.00249412,-0.0078355,-0.00308625,0.00334597,-0.00868735,-0.269309,0.00717196,0.0168841,1658,1674,12.2541,-34.101
441,-650,12.2087,33.6663,0.00296514,-0.00897594,-0.00386029,0.00410439,-0.0101152,-0.286975,0.00845064,0.0269405,1665,1674,12.2088,-33.6663
448,-650,12.0874,33.1848,0.00339494,-0.0100648,-0.00471131,0.00488015,-0.0115501,-0.305382,0.00974305,0.0383788,1672,1674,12.0874,-33.1848
455,-650,11.9849,32.5065,0.00439302,-0.0110777,-0.00548468,0.00614015,-0.0128249,-0.308383,0.0111739,0.045199,1679,1674,11.9848,-32.5064
462,-650,12.3558,31.9171,0,0,0,0,0,0,0,-1,1686,1674,12.3559,-31.9171
469,-650,11.3628,29.8889,0,0,0,0,0,0,0,-1,1693,1674,11.3628,-29.8889
476,-650,10.9189,27.1289,0,0,0,0,0,0,0,-1,1700,1674,10.919,-27.1289
483,-650,10.2426,24.5127,0,0,0,0,0,0,0,-1,1707,1674,10.2425,-24.5127
490,-650,10.4818,24.3475,0,0,0,0,0,0,0,-1,1714,1674,10.4818,-24.3475
497,-650,10.4985,20.1362,0,0,0,0,0,0,0,-1,1721,1674,10.4986,-20.1362
504,-650,9.69458,18.7721,0,0,0,0,0,0,0,-1,1728,1674,9.6946,-18.772
511,-650,9.37158,17.7506,0,0,0,0,0,0,0,-1,1735,1674,9.37159,-17.7506
518,-650,0,0,0,0,0,0,0,0,0,-1,1742,1674,0,0
525,-650,0,0,0,0,0,0,0,0,0,-1,1749,1674,0,0
532,-650,0,0,0,0,0,0,0,0,0,-1,1756,1674,0,0
539,-650,0,0,0,0,0,0,0,0,0,-1,1763,1674,0,0
546,-650,0,0,0,0,0,0,0,0,0,-1,1770,1674,0,0
553,-650,0,0,0,0,0,0,0,0,0,-1,1777,1674,0,0
560,-650,0,0,0,0,0,0,0,0,0,-1,1784,1674,0,0
567,-650,0,0,0,0,0,0,0,0,0,-1,1791,1674,0,0
574,-650,0,0,0,0,0,0,0,0,0,-1,1798,1674,0,0
581,-650,0,0,0,0,0,0,0,0,0,-1,1805,1674,0,0
588,-650,0,0,0,0,0,0,0,0,0,-1,1812,1674,0,0
595,-650,0,0,0,0,0,0,0,0,0,-1,1819,1674,0,0
602,-650,0,0,0,0,0,0,0,0,0,-1,1826,1674,0,0
609,-650,0,0,0,0,0,0,0,0,0,-1,1833,1674,0,0
616,-650,0,0,0,0,0,0,0,0,0,-1,1840,1674,0,0
623,-650,0,0,0,0,0,0,0,0,0,-1,1847,1674,0,0
630,-650,0,0,0,0,0,0,0,0,0,-1,1854,1674,0,0
637,-650,0,0,0,0,0,0,0,0,0,-1,1861,1674,0,0
644,-650,0,0,0,0,0,0,0,0,0,-1,1868,1674,0,0
651,-650,0,0,0,0,0,0,0,0,0,-1,1875,1674,0,0
658,-650,0,0,0,0,0,0,0,0,0,-1,1882,1674,0,0
665,-650,0,0,0,0,0,0,0,0,0,-1,1889,1674,0,0
672,-650,0,0,0,0,0,0,0,0,0,-1,1896,1674,0,0
679,-650,0,0,0,0,0,0,0,0,0,-1,1903,1674,0,0
686,-650,0,0,0,0,0,0,0,0,0,-1,1910,1674,0,0
693,-650,0,0,0,0,0,0,0,0,0,-1,1917,1674,0,0
700,-650,0,0,0,0,0,0,0,0,0,-1,1924,1674,0,0
707,-650,0,0,0,0,0,0,0,0,0,-1,1931,1674,0,0
714,-650,0,0,0,0,0,0,0,0,0,-1,1938,1674,0,0
721,-650,0,0,0,0,0,0,0,0,0,-1,1945,1674,0,0
728,-650,0,0,0,0,0,0,0,0,0,-1,1952,1674,0,0
735,-650,0,0,0,0,0,0,0,0,0,-1,1959,1674,0,0
742,-650,0,0,0,0,0,0,0,0,0,-1,1966,1674,0,0
749,-650,0,0,0,0,0,0,0,0,0,-1,1973,1674,0,0
756,-650,0,0,0,0,0,0,0,0,0,-1,1980,1674,0,0
763,-650,0,0,0,0,0,0,0,0,0,-1,1987,1674,0,0
770,-650,0,0,0,0,0,0,0,0,0,-1,1994,1674,0,0
777,-650,0,0,0,0,0,0,0,0,0,-1,2001,1674,0,0
784,-650,0,0,0,0,0,0,0,0,0,-1,2008,1674,0,0
791,-650,0,0,0,0,0,0,0,0,0,-1,2015,1674,0,0
798,-650,0,0,0,0,0,0,0,0,0,-1,2022,1674,0,0
805,-650,0,0,0,0,0,0,0,0,0,-1,2029,1674,0,0
812,-650,0,0,0,0,0,0,0,0,0,-1,2036,1674,0,0
-700,-657,0,0,0,0,0,0,0,0,0,-1,524,1681,0,0
-693,-657,0,0,0,0,0,0,0,0,0,-1,531,1681,0,0
-686,-657,0,0,0,0,0,0,0,0,0,-1,538,1681,0,0
-679,-657,0,0,0,0,0,0,0,0,0,-1,545,1681,0,0
-672,-657,0,0,0,0,0,0,0,0,0,-1,552,1681,0,0
-665,-657,0,0,0,0,0,0,0,0,0,-1,559,1681,0,0
-658,-657,0,0,0,0,0,0,0,0,0,-1,566,1681,0,0
-651,-657,0,0,0,0,0,0,0,0,0,-1,573,1681,0,0
-644,-657,0,0,0,0,0,0,0,0,0,-1,580,1681,0,0
-637,-657,0,0,0,0,0,0,0,0,0,-1,587,1681,0,0
-630,-657,0,0,0,0,0,0,0,0,0,-1,594,1681,0,0
-623,-657,0,0,0,0,0,0,0,0,0,-1,601,1681,0,0
-616,-657,0,0,0,0,0,0,0,0,0,-1,608,1681,0,0
-609,-657,0,0,0,0,0,0,0,0,0,-1,615,1681,0,0
-602,-657,0,0,0,0,0,0,0,0,0,-1,622,1681,0,0
-595,-657,0,0,0,0,0,0,0,0,0,-1,629,1681,0,0
-588,-657,0,0,0,0,0,0,0,0,0,-1,636,1681,0,0
-581,-657,0,0,0,0,0,0,0,0,0,-1,643,1681,0,0
-574,-657,0,0,0,0,0,0,0,0,0,-1,650,1681,0,0
-567,-657,0,0,0,0,0,0,0,0,0,-1,657,1681,0,0
-560,-657,0,0,0,0,0,0,0,0,0,-1,664,1681,0,0
-553,-657,0,0,0,0,0,0,0,0,0,-1,671,1681,0,0
-546,-657,0,0,0,0,0,0,0,0,0,-1,678,1681,0,0
-539,-657,0,0,0,0,0,0,0,0,0,-1,685,1681,0,0
-532,-657,0,0,0,0,0,0,0,0,0,-1,692,1681,0,0
-525,-657,0,0,0,0,0,0,0,0,0,-1,699,1681,0,0
-518,-657,0,0,0,0,0,0,0,0,0,-1,706,1681,0,0
-511,-657,0,0,0,0,0,0,0,0,0,-1,713,1681,0,0
-504,-657,0,0,0,0,0,0,0,0,0,-1,720,1681,0,0
-497,-657,0,0,0,0,0,0,0,0,0,-1,727,1681,0,0
-490,-657,0,0,0,0,0,0,0,0,0,-1,734,1681,0,0
-483,-657,0,0,0,0,0,0,0,0,0,-1,741,1681,0,0
-476,-657,0,0,0,0,0,0,0,0,0,-1,748,1681,0,0
-469,-657,0,0,0,0,0,0,0,0,0,-1,755,1681,0,0
-462,-657,0,0,0,0,0,0,0,0,0,-1,762,1681,0,0
-455,-657,0,0,0,0,0,0,0,0,0,-1,769,1681,0,0
-448,-657,0,0,0,0,0,0,0,0,0,-1,776,1681,0,0
-441,-657,0,0,0,0,0,0,0,0,0,-1,783,1681,0,0
-434,-657,0,0,0,0,0,0,0,0,0,-1,790,1681,0,0
-427,-657,0,0,0,0,0,0,0,0,0,-1,797,1681,0,0
-420,-657,0,0,0,0,0,0,0,0,0,-1,804,1681,0,0
-413,-657,0,0,0,0,0,0,0,0,0,-1,811,1681,0,0
-406,-657,0,0,0,0,0,0,0,0,0,-1,818,1681,0,0
-399,-657,0,0,0,0,0,0,0,0,0,-1,825,1681,0,0
-392,-657,0,0,0,0,0,0,0,0,0,-1,832,1681,0,0
-385,-657,1.09814,6.18896,0,0,0,0,0,0,0,-1,839,1681,1.09814,-6.18894
-378,-657,0.31488,4.46753,0,0,0,0,0,0,0,-1,846,1681,0.31487,-4.46755
-371,-657,-0.519043,2.69421,0,0,0,0,0,0,0,-1,853,1681,-0.519064,-2.69422
-364,-657,-3.42017,4.18323,0,0,0,0,0,0,0,-1,860,1681,-3.42019,-4.18319
-357,-657,-4.41913,2.97168,0,0,0,0,0,0,0,-1,867,1681,-4.41913,-2.97165
-350,-657,-5.42291,1.70276,0,0,0,0,0,0,0,-1,874,1681,-5.42291,-1.70277
-343,-657,-6.51294,0.397339,0,0,0,0,0,0,0,-1,881,1681,-6.51295,-0.397335
-336,-657,3.08527,26.0612,0,0,0,0,0,0,0,-1,888,1681,3.08528,-26.0611
-329,-657,6.04987,30.9829,0,0,0,0,0,0,0,-1,895,1681,6.04987,-30.983
-322,-657,6.45575,32.0677,-0.0133472,0.0218337,-0.0146289,0.0271218,-0.0186353,-1.22393,0.0265688,0.0475683,902,1681,6.45577,-32.0677
-315,-657,6.11035,31.8907,-0.0116669,0.0179613,-0.0103336,0.0212093,-0.0149149,-1.26625,0.0209616,0.0474866,909,1681,6.11037,-31.8907
-308,-657,5.89368,32.9506,-0.010203,0.0141382,-0.00678918,0.0159038,-0.0119686,-1.31638,0.0161455,0.0401328,916,1681,5.8937,-32.9505
-301,-657,5.89838,33.7059,-0.00881525,0.0108599,-0.00409003,0.0116763,-0.0096316,-1.37379,0.012321,0.0334119,923,1681,5.89835,-33.7059
-294,-657,5.80646,34.2463,-0.00757292,0.00849237,-0.0021378,0.00877198,-0.00785253,-1.44074,0.00960306,0.0202261,930,1681,5.80643,-34.2463
-287,-657,5.77301,34.7181,-0.00643159,0.00655388,-0.000748424,0.00659687,-0.00647458,-1.51341,0.00754692,0.0126603,937,1681,5.77299,-34.7181
-280,-657,5.745,35.1865,-0.0054796,0.00507657,0.00013033,0.00507818,-0.00548121,1.55845,0.00609795,0.0139855,944,1681,5.74498,-35.1865
-273,-657,5.71375,35.6947,-0.00463169,0.00405595,0.000591579,0.00409605,-0.00467179,1.50312,0.00506575,0.01074,951,1681,5.71375,-35.6947
-266,-657,5.67969,36.1998,-0.00362513,0.00311218,0.00169024,0.00351245,-0.00402539,1.33827,0.00435533,0.0146056,958,1681,5.6797,-36.1998
-259,-657,5.64032,36.6938,-0.00258265,0.00202617,0.00175893,0.00262075,-0.00317723,1.24482,0.0033526,0.0182557,965,1681,5.64035,-36.6938
-252,-657,5.61725,37.1461,-0.00180427,0.00223623,0.00119711,0.00256427,-0.00213231,1.30333,0.00271539,0.012816,972,1681,5.61727,-37.1461
-245,-657,5.62274,37.6188,-0.00112293,0.00244629,0.00107899,0.00274712,-0.00142376,1.2989,0.00244813,0.0153142,979,1681,5.62277,-37.6187
-238,-657,5.64429,38.1373,-0.000339244,0.00254546,0.00105258,0.00288869,-0.000682476,1.25558,0.00218904,0.0211415,986,1681,5.64429,-38.1374
-231,-657,5.62433,38.6115,0.000438382,0.00272664,0.00109786,0.00316818,-3.15532e-06,1.18841,0.00211317,0.0212466,993,1681,5.62431,-38.6115
-224,-657,5.58838,39.053,0.00126436,0.00301298,0.00117402,0.00360249,0.000674861,1.10545,0.0022113,0.0162494,1000,1681,5.58835,-39.053
-217,-657,5.59259,39.491,0.001766,0.00363938,0.00127382,0.00428383,0.00112155,1.10242,0.00256511,0.0104137,1007,1681,5.59261,-39.491
-210,-657,5.59772,39.9395,0.00215867,0.00418501,0.00121425,0.00475327,0.00159042,1.13308,0.00279391,0.0106284,1014,1681,5.59772,-39.9395
-203,-657,5.59131,40.3839,0.00266377,0.00481995,0.00125605,0.00539714,0.00208658,1.14005,0.00314264,0.0134054,1021,1681,5.59136,-40.3839
-196,-657,5.60425,40.7922,0.00296033,0.00552945,0.00126817,0.00604998,0.0024398,1.18131,0.00351468,0.0141834,1028,1681,5.60429,-40.7922
-189,-657,5.62097,41.1971,0.00318214,0.00626173,0.00117744,0.00666032,0.00278355,1.24438,0.00386256,0.010021,1035,1681,5.62101,-41.1972
-182,-657,5.61963,41.6122,0.00342284,0.00696622,0.00109027,0.00727481,0.00311425,1.29497,0.00421457,0.00845361,1042,1681,5.61958,-41.6122
-175,-657,5.64917,42.0111,0.00358947,0.00776661,0.00101309,0.00799935,0.00335673,1.34498,0.00463827,0.0108892,1049,1681,5.64919,-42.0111
-168,-657,5.63306,42.4225,0.00370229,0.00863399,0.00088216,0.00878704,0.00354924,1.39901,0.00510433,0.0136273,1056,1681,5.63302,-42.4225
-161,-657,5.64832,42.8447,0.00386789,0.00929644,0.000715465,0.00938915,0.00377518,1.44193,0.00545537,0.0142276,1063,1681,5.64834,-42.8447
-154,-657,5.72229,43.1777,0.00410032,0.00985225,0.000498263,0.0098951,0.00405747,1.48502,0.00574367,0.01755,1070,1681,5.72234,-43.1777
-147,-657,5.72058,43.5804,0.00442591,0.010385,0.000283549,0.0103984,0.00441245,1.52336,0.00602641,0.0353627,1077,1681,5.72056,-43.5805
-140,-657,5.79138,44.1641,0,0,0,0,0,0,0,-1,1084,1681,5.79135,-44.1641
-133,-657,5.65381,44.6499,0,0,0,0,0,0,0,-1,1091,1681,5.65383,-44.6499
-126,-657,5.75061,45.0548,0,0,0,0,0,0,0,-1,1098,1681,5.75067,-45.0548
-119,-657,5.86487,45.1371,0,0,0,0,0,0,0,-1,1105,1681,5.86487,-45.1371
-112,-657,6.24219,42.9092,0,0,0,0,0,0,0,-1,1112,1681,6.24217,-42.9092
-105,-657,7.37256,41.0361,0,0,0,0,0,0,0,-1,1119,1681,7.37254,-41.0362
-98,-657,8.14404,38.4435,0,0,0,0,0,0,0,-1,1126,1681,8.14405,-38.4435
-91,-657,3.6521,16.6017,0,0,0,0,0,0,0,-1,1133,1681,3.65215,-16.6017
-84,-657,4.08008,10.4579,0,0,0,0,0,0,0,-1,1140,1681,4.08006,-10.4579
-77,-657,-5.29846,0.396606,0,0,0,0,0,0,0,-1,1147,1681,-5.29842,-0.396573
-70,-657,-4.14893,2.14575,0,0,0,0,0,0,0,-1,1154,1681,-4.14893,-2.1458
-63,-657,-4.1239,3.177,0,0,0,0,0,0,0,-1,1161,1681,-4.12391,-3.17698
-56,-657,-6.40576,5.73987,0,0,0,0,0,0,0,-1,1168,1681,-6.40577,-5.7399
-49,-657,-5.98462,7.54053,0,0,0,0,0,0,0,-1,1175,1681,-5.98466,-7.5405
-42,-657,-5.71948,9.28955,0,0,0,0,0,0,0,-1,1182,1681,-5.71951,-9.2895
-35,-657,-5.44556,11.015,0,0,0,0,0,0,0,-1,1189,1681,-5.44555,-11.015
-28,-657,-1.3446,8.92847,0,0,0,0,0,0,0,-1,1196,1681,-1.34459,-8.92848
-21,-657,4.26318,45.9429,0,0,0,0,0,0,0,-1,1203,1681,4.26324,-45.9429
-14,-657,5.09009,46.8396,0.126633,0.0357771,0.044532,0.144819,0.0175906,0.38772,0.0912495,0.0470479,1210,1681,5.09005,-46.8396
-7,-657,5.77429,47.9363,0.119602,0.0483909,0.0444242,0.140929,0.0270644,0.447574,0.0863563,0.0444448,1217,1681,5.77428,-47.9363
0,-657,6.82727,49.0178,0.109656,0.06409,0.0432649,0.13577,0.0379759,0.543053,0.0808829,0.040408,1224,1681,6.82732,-49.0178
7,-657,8.06091,49.8634,0.0972659,0.0777186,0.0407908,0.129438,0.0455469,0.667813,0.075816,0.0423958,1231,1681,8.06093,-49.8635
14,-657,9.46277,50.4673,0.084368,0.0876392,0.0363701,0.12241,0.0495967,0.807868,0.0710962,0.0411659,1238,1681,9.46274,-50.4672
21,-657,8.70703,52.4097,0,0,0,0,0,0,0,-1,1245,1681,8.70699,-52.4097
28,-657,9.01062,52.5067,0.0599929,0.0959451,0.0257632,0.109384,0.0465543,1.09,0.0633853,0.0472428,1252,1681,9.01063,-52.5067
35,-657,9.31165,52.5205,0.0488529,0.09651,0.020078,0.103841,0.0415218,1.2207,0.0603522,0.042748,1259,1681,9.31164,-52.5205
42,-657,9.62134,52.5378,0.0390462,0.0939348,0.0149538,0.0977444,0.0352366,1.32134,0.0571602,0.04192,1266,1681,9.62137,-52.5379
49,-657,9.93823,52.4619,0.0291312,0.0923658,0.010158,0.0939575,0.0275395,1.41536,0.0557729,0.045163,1273,1681,9.93817,-52.462
56,-657,10.2026,52.8237,0.0216766,0.0872056,0.00595521,0.0877424,0.0211398,1.4809,0.0528762,0.0458667,1280,1681,10.2027,-52.8237
63,-657,9.5127,50.3754,0.0176674,0.0799577,0.00292069,0.0800943,0.0175307,1.52404,0.0486178,0.0483732,1287,1681,9.51266,-50.3753
70,-657,9.66785,49.8728,0.0191337,0.0803769,-0.00366057,0.0805949,0.0189157,-1.51131,0.0486659,0.0476615,1294,1681,9.66787,-49.8729
77,-657,9.73022,49.4336,0.024516,0.0768425,-0.0077795,0.0779746,0.0233839,-1.42629,0.0462048,0.0438034,1301,1681,9.73022,-49.4335
84,-657,9.49231,49.1445,0.0303443,0.0733503,-0.0103152,0.0756964,0.0279982,-1.34715,0.0441939,0.0428399,1308,1681,9.49236,-49.1446
91,-657,9.24646,48.8552,0.0384798,0.0702701,-0.0124824,0.0745855,0.0341644,-1.23794,0.0431125,0.0457683,1315,1681,9.24649,-48.8552
98,-657,9.39392,48.4744,0.049059,0.0690374,-0.0146982,0.0768195,0.0412769,-1.08386,0.0443929,0.0454471,1322,1681,9.3939,-48.4744
105,-657,8.73438,49.9543,0.0616152,0.0691482,-0.0172316,0.0830202,0.0477432,-0.892996,0.0481115,0.0467828,1329,1681,8.73443,-49.9543
112,-657,11.217,47.8191,0.0745207,0.0686347,-0.0192621,0.0910634,0.052092,-0.70959,0.0527571,0.0461038,1336,1681,11.2171,-47.8191
119,-657,11.2814,48.0753,0.0868327,0.0646674,-0.0213095,0.0997692,0.0517309,-0.545607,0.0576149,0.0470593,1343,1681,11.2814,-48.0754
126,-657,11.3602,48.3364,0,0,0,0,0,0,0,-1,1350,1681,11.3602,-48.3364
133,-657,10.9758,49.4933,0.103425,0.0461293,-0.0219091,0.110842,0.0387118,-0.326444,0.0649572,0.0465742,1357,1681,10.9759,-49.4933
140,-657,11.1545,49.959,0.10512,0.0348279,-0.0198309,0.110329,0.0296192,-0.256855,0.0659359,0.0453573,1364,1681,11.1546,-49.959
147,-657,11.2498,50.4014,0,0,0,0,0,0,0,-1,1371,1681,11.2498,-50.4014
154,-657,11.218,41.4247,0,0,0,0,0,0,0,-1,1378,1681,11.218,-41.4247
161,-657,4.2926,24.9226,0,0,0,0,0,0,0,-1,1385,1681,4.29264,-24.9226
168,-657,5.21643,0.70105,0,0,0,0,0,0,0,-1,1392,1681,5.21648,-0.7011
175,-657,5.52771,0.649048,0,0,0,0,0,0,0,-1,1399,1681,5.52774,-0.649019
182,-657,5.73999,1.02612,0,0,0,0,0,0,0,-1,1406,1681,5.73995,-1.02611
189,-657,5.92126,1.44116,0,0,0,0,0,0,0,-1,1413,1681,5.92126,-1.44115
196,-657,4.92834,9.59021,0,0,0,0,0,0,0,-1,1420,1681,4.9284,-9.59018
203,-657,6.26343,5.16492,0,0,0,0,0,0,0,-1,1427,1681,6.26345,-5.16488
210,-657,3.9856,5.28088,0,0,0,0,0,0,0,-1,1434,1681,3.98555,-5.28084
217,-657,3.95178,5.2843,0,0,0,0,0,0,0,-1,1441,1681,3.95174,-5.28431
224,-657,6.66736,-0.250244,0,0,0,0,0,0,0,-1,1448,1681,6.66737,0.250229
231,-657,6.85498,-1.70752,0,0,0,0,0,0,0,-1,1455,1681,6.855,1.70758
238,-657,5.34143,-2.89819,0,0,0,0,0,0,0,-1,1462,1681,5.34143,2.89813
245,-657,8.66003,-0.102783,0,0,0,0,0,0,0,-1,1469,1681,8.66,0.102824
252,-657,4.78955,0.623779,0,0,0,0,0,0,0,-1,1476,1681,4.7895,-0.623826
259,-657,2.61523,4.31909,0,0,0,0,0,0,0,-1,1483,1681,2.61523,-4.31908
266,-657,5.35437,11.4742,0,0,0,0,0,0,0,-1,1490,1681,5.35441,-11.4742
273,-657,11.6058,43.7333,0,0,0,0,0,0,0,-1,1497,1681,11.6058,-43.7333
280,-657,11.5673,43.5193,0.0046884,0.0160635,0.00102109,0.0161544,0.00459747,1.48198,0.00961091,0.0494052,1504,1681,11.5672,-43.5193
287,-657,11.7125,43.1868,0.00403346,0.0151249,0.000979793,0.0152108,0.00394757,1.48336,0.00911426,0.0370318,1511,1681,11.7125,-43.1868
294,-657,11.7889,42.8297,0.00378396,0.0140263,0.00048028,0.0140487,0.00376149,1.52404,0.00839767,0.0317023,1518,1681,11.7889,-42.8297
301,-657,11.8727,42.4543,0.00356925,0.0126457,0.000105664,0.0126469,0.00356803,1.55916,0.00752925,0.023387,1525,1681,11.8727,-42.4543
308,-657,11.9104,42.0316,0.00336425,0.0116283,-0.000329101,0.0116414,0.00335116,-1.53106,0.00691986,0.0152825,1532,1681,11.9104,-42.0316
315,-657,11.9521,41.6166,0.00320148,0.0104594,-0.000716392,0.0105295,0.00313144,-1.47335,0.00624334,0.0116489,1539,1681,11.9521,-41.6166
322,-657,11.9869,41.1887,0.00304417,0.00943808,-0.00116115,0.00964242,0.00283983,-1.3966,0.00572162,0.013149,1546,1681,11.987,-41.1887
329,-657,11.9733,40.8046,0.00282575,0.00838826,-0.00143502,0.00873665,0.00247736,-1.33263,0.00519926,0.018641,1553,1681,11.9732,-40.8045
336,-657,11.9681,40.3878,0.00258736,0.00751484,-0.00156968,0.00797238,0.00212981,-1.28717,0.00476633,0.0170697,1560,1681,11.9681,-40.3878
343,-657,11.9941,39.9749,0.00244282,0.00637636,-0.00175019,0.00704234,0.00177684,-1.2072,0.00422893,0.0134473,1567,1681,11.9941,-39.9748
350,-657,11.9803,39.5532,0.0022751,0.00526467,-0.0018484,0.00614706,0.00139271,-1.12541,0.0037217,0.0157432,1574,1681,11.9803,-39.5532
357,-657,11.9708,39.1147,0.00206373,0.00428258,-0.0017633,0.00525643,0.00108988,-1.0662,0.0032034,0.015201,1581,1681,11.9708,-39.1147
364,-657,11.9789,38.6901,0.00177222,0.00347472,-0.00153883,0.00438206,0.000864887,-1.03804,0.00268001,0.0108659,1588,1681,11.9789,-38.6901
371,-657,11.9569,38.2798,0.001514,0.00252702,-0.00123133,0.00335195,0.000689075,-0.980526,0.00204403,0.0146874,1595,1681,11.9569,-38.2797
378,-657,11.9128,37.8245,0.00145614,0.00139514,-0.000990755,0.00241686,0.000434413,-0.770012,0.00148773,0.0145852,1602,1681,11.9129,-37.8245
385,-657,11.8826,37.3691,0.00149339,0.000170844,-0.000909189,0.00195635,-0.000292119,-0.470984,0.00141172,0.0128143,1609,1681,11.8825,-37.3692
392,-657,11.8909,36.9462,0.00146791,-0.00139062,-0.000906233,0.001731,-0.00165371,-0.282542,0.00195433,0.0133454,1616,1681,11.8908,-36.9462
399,-657,11.896,36.4612,0.00142768,-0.00291999,-0.000914956,0.00161239,-0.00310469,-0.199194,0.00276846,0.0137548,1623,1681,11.896,-36.4612
406,-657,11.876,35.9821,0.0015162,-0.00429512,-0.00107637,0.00170916,-0.00448808,-0.177383,0.00369594,0.0147197,1630,1681,11.876,-35.9821
413,-657,11.8458,35.5208,0.0018349,-0.00564089,-0.001469,0.0021132,-0.00591919,-0.18723,0.0048079,0.0144197,1637,1681,11.8458,-35.5207
420,-657,11.8108,35.0282,0.0022203,-0.00704248,-0.00203921,0.00264936,-0.00747154,-0.20738,0.00606036,0.0156524,1644,1681,11.8108,-35.0282
427,-657,11.7953,34.5319,0.00276686,-0.00866656,-0.00285338,0.0034394,-0.0093391,-0.231476,0.00763527,0.0191677,1651,1681,11.7953,-34.5318
434,-657,11.8505,34.077,0.00331552,-0.0103362,-0.00378517,0.00429478,-0.0113155,-0.253158,0.00931146,0.02662,1658,1681,11.8504,-34.077
441,-657,11.8729,33.8124,0.00399678,-0.0118504,-0.00483189,0.00535383,-0.0132074,-0.273801,0.0110315,0.0417729,1665,1681,11.8729,-33.8124
448,-657,11.5251,33.345,0,0,0,0,0,0,0,-1,1672,1681,11.5251,-33.3449
455,-657,11.3997,32.5209,0,0,0,0,0,0,0,-1,1679,1681,11.3997,-32.5208
462,-657,10.2832,30.1719,0,0,0,0,0,0,0,-1,1686,1681,10.2831,-30.1718
469,-657,9.22205,26.4175,0,0,0,0,0,0,0,-1,1693,1681,9.2221,-26.4175
476,-657,8.9519,20.5712,0,0,0,0,0,0,0,-1,1700,1681,8.95194,-20.5712
483,-657,10.0663,21.8628,0,0,0,0,0,0,0,-1,1707,1681,10.0663,-21.8628
490,-657,11.6039,21.2185,0,0,0,0,0,0,0,-1,1714,1681,11.6038,-21.2185
497,-657,9.20862,17.8127,0,0,0,0,0,0,0,-1,1721,1681,9.2086,-17.8127
504,-657,0,0,0,0,0,0,0,0,0,-1,1728,1681,0,0
511,-657,0,0,0,0,0,0,0,0,0,-1,1735,1681,0,0
518,-657,0,0,0,0,0,0,0,0,0,-1,1742,1681,0,0
525,-657,0,0,0,0,0,0,0,0,0,-1,1749,1681,0,0
532,-657,0,0,0,0,0,0,0,0,0,-1,1756,1681,0,0
539,-657,0,0,0,0,0,0,0,0,0,-1,1763,1681,0,0
546,-657,0,0,0,0,0,0,0,0,0,-1,1770,1681,0,0
553,-657,0,0,0,0,0,0,0,0,0,-1,1777,1681,0,0
560,-657,0,0,0,0,0,0,0,0,0,-1,1784,1681,0,0
567,-657,0,0,0,0,0,0,0,0,0,-1,1791,1681,0,0
574,-657,0,0,0,0,0,0,0,0,0,-1,1798,1681,0,0
581,-657,0,0,0,0,0,0,0,0,0,-1,1805,1681,0,0
588,-657,0,0,0,0,0,0,0,0,0,-1,1812,1681,0,0
595,-657,0,0,0,0,0,0,0,0,0,-1,1819,1681,0,0
602,-657,0,0,0,0,0,0,0,0,0,-1,1826,1681,0,0
609,-657,0,0,0,0,0,0,0,0,0,-1,1833,1681,0,0
616,-657,0,0,0,0,0,0,0,0,0,-1,1840,1681,0,0
623,-657,0,0,0,0,0,0,0,0,0,-1,1847,1681,0,0
630,-657,0,0,0,0,0,0,0,0,0,-1,1854,1681,0,0
637,-657,0,0,0,0,0,0,0,0,0,-1,1861,1681,0,0
644,-657,0,0,0,0,0,0,0,0,0,-1,1868,1681,0,0
651,-657,0,0,0,0,0,0,0,0,0,-1,1875,1681,0,0
658,-657,0,0,0,0,0,0,0,0,0,-1,1882,1681,0,0
665,-657,0,0,0,0,0,0,0,0,0,-1,1889,1681,0,0
672,-657,0,0,0,0,0,0,0,0,0,-1,1896,1681,0,0
679,-657,0,0,0,0,0,0,0,0,0,-1,1903,1681,0,0
686,-657,0,0,0,0,0,0,0,0,0,-1,1910,1681,0,0
693,-657,0,0,0,0,0,0,0,0,0,-1,1917,1681,0,0
700,-657,0,0,0,0,0,0,0,0,0,-1,1924,1681,0,0
707,-657,0,0,0,0,0,0,0,0,0,-1,1931,1681,0,0
714,-657,0,0,0,0,0,0,0,0,0,-1,1938,1681,0,0
721,-657,0,0,0,0,0,0,0,0,0,-1,1945,1681,0,0
728,-657,0,0,0,0,0,0,0,0,0,-1,1952,1681,0,0
735,-657,0,0,0,0,0,0,0,0,0,-1,1959,1681,0,0
742,-657,0,0,0,0,0,0,0,0,0,-1,1966,1681,0,0
749,-657,0,0,0,0,0,0,0,0,0,-1,1973,1681,0,0
756,-657,0,0,0,0,0,0,0,0,0,-1,1980,1681,0,0
763,-657,0,0,0,0,0,0,0,0,0,-1,1987,1681,0,0
770,-657,0,0,0,0,0,0,0,0,0,-1,1994,1681,0,0
777,-657,0,0,0,0,0,0,0,0,0,-1,2001,1681,0,0
784,-657,0,0,0,0,0,0,0,0,0,-1,2008,1681,0,0
791,-657,0,0,0,0,0,0,0,0,0,-1,2015,1681,0,0
798,-657,0,0,0,0,0,0,0,0,0,-1,2022,1681,0,0
805,-657,0,0,0,0,0,0,0,0,0,-1,2029,1681,0,0
812,-657,0,0,0,0,0,0,0,0,0,-1,2036,1681,0,0
-700,-664,0,0,0,0,0,0,0,0,0,-1,524,1688,0,0
-693,-664,0,0,0,0,0,0,0,0,0,-1,531,1688,0,0
-686,-664,0,0,0,0,0,0,0,0,0,-1,538,1688,0,0
-679,-664,0,0,0,0,0,0,0,0,0,-1,545,1688,0,0
-672,-664,0,0,0,0,0,0,0,0,0,-1,552,1688,0,0
-665,-664,0,0,0,0,0,0,0,0,0,-1,559,1688,0,0
-658,-664,0,0,0,0,0,0,0,0,0,-1,566,1688,0,0
-651,-664,0,0,0,0,0,0,0,0,0,-1,573,1688,0,0
-644,-664,0,0,0,0,0,0,0,0,0,-1,580,1688,0,0
-637,-664,0,0,0,0,0,0,0,0,0,-1,587,1688,0,0
-630,-664,0,0,0,0,0,0,0,0,0,-1,594,1688,0,0
-623,-664,0,0,0,0,0,0,0,0,0,-1,601,1688,0,0
-616,-664,0,0,0,0,0,0,0,0,0,-1,608,1688,0,0
-609,-664,0,0,0,0,0,0,0,0,0,-1,615,1688,0,0
-602,-664,0,0,0,0,0,0,0,0,0,-1,622,1688,0,0
-595,-664,0,0,0,0,0,0,0,0,0,-1,629,1688,0,0
-588,-664,0,0,0,0,0,0,0,0,0,-1,636,1688,0,0
-581,-664,0,0,0,0,0,0,0,0,0,-1,643,1688,0,0
-574,-664,0,0,0,0,0,0,0,0,0,-1,650,1688,0,0
-567,-664,0,0,0,0,0,0,0,0,0,-1,657,1688,0,0
-560,-664,0,0,0,0,0,0,0,0,0,-1,664,1688,0,0
-553,-664,0,0,0,0,0,0,0,0,0,-1,671,1688,0,0
-546,-664,0,0,0,0,0,0,0,0,0,-1,678,1688,0,0
-539,-664,0,0,0,0,0,0,0,0,0,-1,685,1688,0,0
-532,-664,0,0,0,0,0,0,0,0,0,-1,692,1688,0,0
-525,-664,0,0,0,0,0,0,0,0,0,-1,699,1688,0,0
-518,-664,0,0,0,0,0,0,0,0,0,-1,706,1688,0,0
-511,-664,0,0,0,0,0,0,0,0,0,-1,713,1688,0,0
-504,-664,0,0,0,0,0,0,0,0,0,-1,720,1688,0,0
-497,-664,0,0,0,0,0,0,0,0,0,-1,727,1688,0,0
-490,-664,0,0,0,0,0,0,0,0,0,-1,734,1688,0,0
-483,-664,0,0,0,0,0,0,0,0,0,-1,741,1688,0,0
-476,-664,0,0,0,0,0,0,0,0,0,-1,748,1688,0,0
-469,-664,0,0,0,0,0,0,0,0,0,-1,755,1688,0,0
-462,-664,0,0,0,0,0,0,0,0,0,-1,762,1688,0,0
-455,-664,0,0,0,0,0,0,0,0,0,-1,769,1688,0,0
-448,-664,0,0,0,0,0,0,0,0,0,-1,776,1688,0,0
-441,-664,0,0,0,0,0,0,0,0,0,-1,783,1688,0,0
-434,-664,0,0,0,0,0,0,0,0,0,-1,790,1688,0,0
-427,-664,0,0,0,0,0,0,0,0,0,-1,797,1688,0,0
-420,-664,0,0,0,0,0,0,0,0,0,-1,804,1688,0,0
-413,-664,0,0,0,0,0,0,0,0,0,-1,811,1688,0,0
-406,-664,0,0,0,0,0,0,0,0,0,-1,818,1688,0,0
-399,-664,0,0,0,0,0,0,0,0,0,-1,825,1688,0,0
-392,-664,0,0,0,0,0,0,0,0,0,-1,832,1688,0,0
-385,-664,0,0,0,0,0,0,0,0,0,-1,839,1688,0,0
-378,-664,0,0,0,0,0,0,0,0,0,-1,846,1688,0,0
-371,-664,-1.61676,5.92737,0,0,0,0,0,0,0,-1,853,1688,-1.61675,-5.92735
-364,-664,-3.901,5.87024,0,0,0,0,0,0,0,-1,860,1688,-3.90097,-5.87027
-357,-664,-4.81012,4.53479,0,0,0,0,0,0,0,-1,867,1688,-4.81012,-4.5348
-350,-664,-5.7193,3.19934,0,0,0,0,0,0,0,-1,874,1688,-5.71927,-3.19932
-343,-664,2.13544,25.5537,0,0,0,0,0,0,0,-1,881,1688,2.13546,-25.5537
-336,-664,6.96832,29.8765,0,0,0,0,0,0,0,-1,888,1688,6.96834,-29.8765
-329,-664,7.26031,30.7985,0,0,0,0,0,0,0,-1,895,1688,7.26034,-30.7985
-322,-664,7.60266,31.8204,-0.0183989,0.0292659,-0.0210641,0.0372405,-0.0263734,-1.20889,0.0369057,0.0474002,902,1688,7.60264,-31.8204
-315,-664,7.45844,31.2644,-0.0159856,0.0239571,-0.0145141,0.0286741,-0.0207026,-1.25657,0.0286312,0.0458037,909,1688,7.45842,-31.2644
-308,-664,6.30981,33.0676,-0.0138787,0.0186906,-0.00924663,0.0211326,-0.0163208,-1.31259,0.0216831,0.049885,916,1688,6.3098,-33.0676
-301,-664,6.52942,33.838,-0.0118596,0.0143356,-0.00529981,0.0153673,-0.0128912,-1.37855,0.0163359,0.0464436,923,1688,6.52942,-33.838
-294,-664,6.37671,34.3013,-0.0101554,0.0112607,-0.00254108,0.0115581,-0.0104528,-1.4543,0.0127133,0.0425047,930,1688,6.37672,-34.3012
-287,-664,6.35754,34.79,-0.00870651,0.00864798,-0.000670205,0.00867383,-0.00873236,-1.53225,0.0100495,0.0291014,937,1688,6.35752,-34.79
-280,-664,6.21173,35.2307,-0.00756114,0.00664652,0.000408761,0.00665827,-0.0075729,1.54206,0.00822202,0.0193815,944,1688,6.21171,-35.2307
-273,-664,6.17542,35.719,-0.00657732,0.00521815,0.000892007,0.00528523,-0.00664439,1.49574,0.00690245,0.0148507,951,1688,6.17539,-35.719
-266,-664,6.17004,36.2227,-0.00541145,0.00386745,0.0021615,0.00434626,-0.00589026,1.3528,0.00593242,0.0210022,958,1688,6.17005,-36.2227
-259,-664,6.11462,36.7161,-0.00423498,0.00233602,0.00210546,0.00295276,-0.00485172,1.28584,0.00455016,0.0192757,965,1688,6.1146,-36.7161
-252,-664,6.09448,37.1832,-0.00341543,0.00237107,0.00127223,0.00263843,-0.00368279,1.36366,0.00366612,0.0160196,972,1688,6.09446,-37.1832
-245,-664,6.09344,37.646,-0.00273259,0.00240212,0.00101885,0.0025969,-0.00292737,1.3819,0.00319134,0.0202462,979,1688,6.09344,-37.646
-238,-664,6.12585,38.1346,-0.00192209,0.00236249,0.0008924,0.00254093,-0.00210053,1.37344,0.00268376,0.0245976,986,1688,6.12584,-38.1346
-231,-664,6.11096,38.5806,-0.00113152,0.00236522,0.000846218,0.00255924,-0.00132554,1.34541,0.00228027,0.020983,993,1688,6.11098,-38.5806
-224,-664,6.04987,39.0403,-0.000227662,0.00242813,0.000791655,0.0026462,-0.000445737,1.302,0.00192995,0.0140959,1000,1688,6.04986,-39.0403
-217,-664,6.05389,39.4978,0.000366115,0.00279102,0.000843888,0.00305579,0.000101344,1.26677,0.00200427,0.0105544,1007,1688,6.05387,-39.4979
-210,-664,6.04877,39.9553,0.000891422,0.00311405,0.000839208,0.00339532,0.000610152,1.2474,0.00209006,0.011298,1014,1688,6.04876,-39.9553
-203,-664,6.03259,40.3934,0.00146597,0.00359226,0.00090061,0.00392244,0.00113578,1.21939,0.00233052,0.0138164,1021,1688,6.03256,-40.3934
-196,-664,6.04309,40.796,0.00183787,0.0040986,0.000956138,0.00444875,0.00148772,1.21975,0.00261501,0.0150319,1028,1688,6.04308,-40.796
-189,-664,6.03467,41.2047,0.00216082,0.00453796,0.000927796,0.0048572,0.00184157,1.2394,0.00283148,0.00996209,1035,1688,6.03467,-41.2048
-182,-664,6.02515,41.6157,0.00245983,0.00502331,0.00083477,0.00527118,0.00221196,1.28216,0.00305639,0.00913588,1042,1688,6.0251,-41.6157
-175,-664,6.03772,41.985,0.00272604,0.00556819,0.000777845,0.00576714,0.00252709,1.32039,0.00333813,0.0124866,1049,1688,6.03769,-41.985
-168,-664,6.05078,42.3757,0.00293982,0.00618582,0.000698852,0.00632988,0.00279575,1.3675,0.00366284,0.0142048,1056,1688,6.05073,-42.3757
-161,-664,6.04456,42.7673,0.00318546,0.0065901,0.00056183,0.00668041,0.00309514,1.41141,0.0038604,0.0108871,1063,1688,6.04456,-42.7673
-154,-664,6.09875,43.1279,0.00351804,0.00692513,0.000390909,0.0069694,0.00347376,1.45801,0.00402379,0.0117462,1070,1688,6.09876,-43.1279
-147,-664,6.08997,43.4972,0.0039358,0.00723832,0.000229556,0.0072542,0.00391992,1.50173,0.00419276,0.0208503,1077,1688,6.09,-43.4972
-140,-664,6.1366,43.8444,0,0,0,0,0,0,0,-1,1084,1688,6.13659,-43.8444
-133,-664,6.14685,44.2092,0,0,0,0,0,0,0,-1,1091,1688,6.14687,-44.2093
-126,-664,6.19348,44.6914,0,0,0,0,0,0,0,-1,1098,1688,6.19342,-44.6914
-119,-664,6.34399,44.8781,0,0,0,0,0,0,0,-1,1105,1688,6.34403,-44.878
-112,-664,6.51074,45.4307,0,0,0,0,0,0,0,-1,1112,1688,6.51074,-45.4307
-105,-664,6.87256,43.2527,0,0,0,0,0,0,0,-1,1119,1688,6.87258,-43.2527
-98,-664,7.69324,41.3359,0,0,0,0,0,0,0,-1,1126,1688,7.69321,-41.3359
-91,-664,5.41931,25.6302,0,0,0,0,0,0,0,-1,1133,1688,5.41932,-25.6302
-84,-664,3.48389,16.6913,0,0,0,0,0,0,0,-1,1140,1688,3.4839,-16.6913
-77,-664,4.52014,11.2122,0,0,0,0,0,0,0,-1,1147,1688,4.5202,-11.2122
-70,-664,4.20374,8.24524,0,0,0,0,0,0,0,-1,1154,1688,4.20379,-8.24519
-63,-664,-4.677,2.40503,0,0,0,0,0,0,0,-1,1161,1688,-4.67702,-2.40498
-56,-664,-4.66504,3.32727,0,0,0,0,0,0,0,-1,1168,1688,-4.6651,-3.32724
-49,-664,-2.54297,3.31848,0,0,0,0,0,0,0,-1,1175,1688,-2.54297,-3.31852
-42,-664,-0.359253,4.38684,0,0,0,0,0,0,0,-1,1182,1688,-0.359261,-4.38685
-35,-664,-0.705566,3.55017,0,0,0,0,0,0,0,-1,1189,1688,-0.705567,-3.55023
-28,-664,-1.54236,10.2538,0,0,0,0,0,0,0,-1,1196,1688,-1.54236,-10.2538
-21,-664,4.44177,46.066,0,0,0,0,0,0,0,-1,1203,1688,4.44173,-46.066
-14,-664,5.1499,46.8861,0.103312,0.0338992,0.0367499,0.119153,0.0180577,0.406994,0.074153,0.0448755,1210,1688,5.14996,-46.8861
-7,-664,5.81934,47.7733,0.0982974,0.0437409,0.0368054,0.116831,0.0252071,0.466492,0.0709928,0.0453931,1217,1688,5.81936,-47.7733
0,-664,7.68445,49.2096,0.0908728,0.0557718,0.0361315,0.113491,0.0331538,0.559311,0.0673851,0.0471215,1224,1688,7.6845,-49.2096
7,-664,8.11938,49.6997,0.0813514,0.0665441,0.033937,0.108683,0.0392126,0.678002,0.0635536,0.0436441,1231,1688,8.11941,-49.6997
14,-664,9.04736,50.0635,0.0712667,0.0748546,0.0302109,0.103325,0.0427965,0.815054,0.0599467,0.0429081,1238,1688,9.04731,-50.0635
21,-664,9.78931,50.6659,0,0,0,0,0,0,0,-1,1245,1688,9.7893,-50.6658
28,-664,9.1311,51.2657,0,0,0,0,0,0,0,-1,1252,1688,9.13108,-51.2658
35,-664,9.09595,51.3864,0,0,0,0,0,0,0,-1,1259,1688,9.09592,-51.3863
42,-664,9.06079,51.507,0,0,0,0,0,0,0,-1,1266,1688,9.06077,-51.5069
49,-664,9.32935,50.7721,0.0255257,0.082037,0.00786381,0.0831109,0.0244518,1.43508,0.0493203,0.0425358,1273,1688,9.3293,-50.7722
56,-664,9.38818,50.4951,0.0194728,0.0776316,0.00414002,0.0779248,0.0191796,1.50009,0.0468832,0.0463596,1280,1688,9.38814,-50.4951
63,-664,9.37915,50.0571,0.0164979,0.0710591,0.00140476,0.0710953,0.0164617,1.54507,0.0429738,0.0495601,1287,1688,9.3791,-50.0572
70,-664,9.39832,49.6078,0.0175395,0.0703596,-0.00402586,0.0706647,0.0172344,-1.49516,0.0425449,0.0490374,1294,1688,9.39827,-49.6078
77,-664,9.43408,49.1052,0.021988,0.0661462,-0.00712496,0.0672674,0.0208669,-1.41472,0.0397585,0.0447237,1301,1688,9.43409,-49.1052
84,-664,9.37512,48.629,0.0268126,0.0618355,-0.0087968,0.0639208,0.0247272,-1.33804,0.0372184,0.0439282,1308,1688,9.37514,-48.629
91,-664,9.37476,48.2291,0.0333163,0.0576778,-0.00998841,0.0612494,0.0297446,-1.22738,0.0353673,0.0408469,1315,1688,9.37478,-48.2292
98,-664,9.4519,47.723,0.041549,0.0550484,-0.0110591,0.0612549,0.0353425,-1.05939,0.0355049,0.0490307,1322,1688,9.45186,-47.723
105,-664,9.51123,47.509,0.0512184,0.0537944,-0.0122946,0.0648683,0.0401445,-0.837589,0.0378028,0.0499763,1329,1688,9.51121,-47.509
112,-664,10.9601,48.0959,0.0610149,0.0525273,-0.0128495,0.0703032,0.0432389,-0.625903,0.0409461,0.0478502,1336,1688,10.96,-48.096
119,-664,10.9611,48.1644,0,0,0,0,0,0,0,-1,1343,1688,10.9611,-48.1644
126,-664,9.04089,49.0969,0,0,0,0,0,0,0,-1,1350,1688,9.04086,-49.0969
133,-664,10.4381,49.5994,0.0825794,0.0361762,-0.0125487,0.0857556,0.0330001,-0.247898,0.049947,0.0494796,1357,1688,10.4381,-49.5994
140,-664,10.7479,50.4551,0.0844112,0.0285498,-0.0110221,0.0865073,0.0264537,-0.187931,0.0511854,0.0463486,1364,1688,10.7479,-50.4551
147,-664,11.2164,50.8417,0.0837192,0.0206476,-0.00944228,0.0851025,0.0192644,-0.14546,0.0515282,0.0493625,1371,1688,11.2164,-50.8417
154,-664,11.4288,51.0769,0,0,0,0,0,0,0,-1,1378,1688,11.4288,-51.0769
161,-664,4.60132,1.56238,0,0,0,0,0,0,0,-1,1385,1688,4.60134,-1.56233
168,-664,5.172,1.25488,0,0,0,0,0,0,0,-1,1392,1688,5.17203,-1.25484
175,-664,5.58313,1.16467,0,0,0,0,0,0,0,-1,1399,1688,5.58317,-1.16466
182,-664,5.74268,1.41113,0,0,0,0,0,0,0,-1,1406,1688,5.74263,-1.41115
189,-664,5.87744,1.87061,0,0,0,0,0,0,0,-1,1413,1688,5.87745,-1.87065
196,-664,6.7594,5.97473,0,0,0,0,0,0,0,-1,1420,1688,6.75943,-5.97478
203,-664,5.38452,5.22034,0,0,0,0,0,0,0,-1,1427,1688,5.38453,-5.2203
210,-664,5.25549,6.45715,0,0,0,0,0,0,0,-1,1434,1688,5.25549,-6.45721
217,-664,5.72009,6.73975,0,0,0,0,0,0,0,-1,1441,1688,5.72014,-6.73972
224,-664,5.05725,7.42908,0,0,0,0,0,0,0,-1,1448,1688,5.05723,-7.42912
231,-664,5.13318,7.60864,0,0,0,0,0,0,0,-1,1455,1688,5.13313,-7.60862
238,-664,4.23193,6.45471,0,0,0,0,0,0,0,-1,1462,1688,4.23197,-6.45476
245,-664,4.42004,6.80896,0,0,0,0,0,0,0,-1,1469,1688,4.4201,-6.80901
252,-664,3.67346,6.85461,0,0,0,0,0,0,0,-1,1476,1688,3.6734,-6.85462
259,-664,4.55823,11.7435,0,0,0,0,0,0,0,-1,1483,1688,4.55826,-11.7435
266,-664,11.1581,43.8713,0,0,0,0,0,0,0,-1,1490,1688,11.1581,-43.8714
273,-664,11.1902,43.9077,0.00492319,0.0111597,0.000529893,0.0112044,0.00487849,1.48663,0.00648686,0.0495264,1497,1688,11.1902,-43.9078
280,-664,11.3672,43.5897,0.00434498,0.0108946,0.000558543,0.0109419,0.00429769,1.48633,0.00636556,0.0303725,1504,1688,11.3672,-43.5897
287,-664,11.3491,43.1631,0.00377765,0.0104132,0.00052874,0.0104551,0.00373578,1.49178,0.00611763,0.0296686,1511,1688,11.3492,-43.1631
294,-664,11.4487,42.7637,0.00344829,0.00982179,0.000195074,0.00982775,0.00344232,1.54023,0.00575824,0.0211367,1518,1688,11.4488,-42.7636
301,-664,11.5201,42.3701,0.00313165,0.00899333,-8.15027e-05,0.00899447,0.00313051,-1.5569,0.00527229,0.0131466,1525,1688,11.5202,-42.3701
308,-664,11.5513,41.9904,0.00283479,0.00835445,-0.000403547,0.0083838,0.00280544,-1.4982,0.00492785,0.0117375,1532,1688,11.5513,-41.9904
315,-664,11.5634,41.6124,0.00256279,0.00754555,-0.000663915,0.0076325,0.00247585,-1.44058,0.00449632,0.0121297,1539,1688,11.5634,-41.6124
322,-664,11.599,41.2144,0.00228375,0.0068329,-0.000906864,0.00700702,0.00210963,-1.38111,0.00415086,0.0150901,1546,1688,11.599,-41.2144
329,-664,11.5834,40.8414,0.00197322,0.006021,-0.00102734,0.00626681,0.00172741,-1.33594,0.00373759,0.0174687,1553,1688,11.5833,-40.8414
336,-664,11.569,40.4314,0.00168447,0.00529177,-0.00105156,0.00557592,0.00140032,-1.30688,0.00334954,0.0146354,1560,1688,11.569,-40.4314
343,-664,11.5602,39.9967,0.00158564,0.0042802,-0.00108875,0.00466513,0.00120071,-1.23096,0.00279711,0.011746,1567,1688,11.5602,-39.9967
350,-664,11.5487,39.5825,0.00141198,0.00329038,-0.00108824,0.00378866,0.000913699,-1.14141,0.00228299,0.0144447,1574,1688,11.5487,-39.5826
357,-664,11.5472,39.1327,0.001235,0.00243865,-0.000967459,0.0029762,0.000697456,-1.06364,0.00179734,0.0140111,1581,1688,11.5473,-39.1326
364,-664,11.5587,38.6985,0.00102071,0.00168077,-0.000750469,0.00217057,0.00053091,-0.992553,0.00130654,0.0113431,1588,1688,11.5587,-38.6985
371,-664,11.5367,38.2896,0.000890466,0.000805769,-0.000451361,0.00130146,0.000394774,-0.738623,0.000770531,0.0137336,1595,1688,11.5367,-38.2895
378,-664,11.4916,37.8428,0.001012,-0.000334531,-0.00023556,0.00105202,-0.00037455,-0.168283,0.000854028,0.0127741,1602,1688,11.4916,-37.8427
385,-664,11.4655,37.3865,0.00126217,-0.00147767,-0.000270001,0.00128852,-0.00150402,-0.0972995,0.00161387,0.0135484,1609,1688,11.4654,-37.3865
392,-664,11.4285,36.9559,0.00142544,-0.00302929,-0.000416103,0.00146397,-0.00306782,-0.0923427,0.00267049,0.0166412,1616,1688,11.4285,-36.9559
399,-664,11.4288,36.4882,0.00162656,-0.00452625,-0.000627799,0.00168997,-0.00458965,-0.100653,0.00375217,0.0140785,1623,1688,11.4288,-36.4881
406,-664,11.4261,36.0076,0.00193267,-0.00593861,-0.00096768,0.00204989,-0.00605583,-0.120547,0.00486662,0.0119604,1630,1688,11.4261,-36.0076
413,-664,11.3981,35.519,0.00247889,-0.00731518,-0.00156597,0.00272318,-0.00755947,-0.154751,0.00615168,0.0111167,1637,1688,11.3981,-35.5191
420,-664,11.3856,35.0349,0.00308804,-0.00892401,-0.00238378,0.00354381,-0.00937978,-0.188915,0.00771086,0.0255588,1644,1688,11.3856,-35.0349
427,-664,11.5585,34.8044,0.00379673,-0.0109496,-0.00344729,0.00456281,-0.0117157,-0.218674,0.00969613,0.0444107,1651,1688,11.5585,-34.8044
434,-664,11.9608,34.3246,0.00450542,-0.0132303,-0.00462416,0.00563865,-0.0143635,-0.240331,0.0119088,0.044461,1658,1688,11.9608,-34.3246
441,-664,11.9783,34.2234,0.00533654,-0.0154606,-0.00597156,0.00692921,-0.0170533,-0.260642,0.0142516,0.0493442,1665,1688,11.9783,-34.2234
448,-664,11.9281,34.1836,0,0,0,0,0,0,0,-1,1672,1688,11.9281,-34.1836
455,-664,7.53198,11.3838,0,0,0,0,0,0,0,-1,1679,1688,7.53195,-11.3838
462,-664,4.3147,4.25439,0,0,0,0,0,0,0,-1,1686,1688,4.31467,-4.25435
469,-664,6.05469,7.49341,0,0,0,0,0,0,0,-1,1693,1688,6.05474,-7.49339
476,-664,10.2377,22.7128,0,0,0,0,0,0,0,-1,1700,1688,10.2377,-22.7128
483,-664,8.41895,10.9768,0,0,0,0,0,0,0,-1,1707,1688,8.41897,-10.9769
490,-664,3.90771,13.2842,0,0,0,0,0,0,0,-1,1714,1688,3.90776,-13.2841
497,-664,0,0,0,0,0,0,0,0,0,-1,1721,1688,0,0
504,-664,0,0,0,0,0,0,0,0,0,-1,1728,1688,0,0
511,-664,0,0,0,0,0,0,0,0,0,-1,1735,1688,0,0
518,-664,0,0,0,0,0,0,0,0,0,-1,1742,1688,0,0
525,-664,0,0,0,0,0,0,0,0,0,-1,1749,1688,0,0
532,-664,0,0,0,0,0,0,0,0,0,-1,1756,1688,0,0
539,-664,0,0,0,0,0,0,0,0,0,-1,1763,1688,0,0
546,-664,0,0,0,0,0,0,0,0,0,-1,1770,1688,0,0
553,-664,0,0,0,0,0,0,0,0,0,-1,1777,1688,0,0
560,-664,0,0,0,0,0,0,0,0,0,-1,1784,1688,0,0
567,-664,0,0,0,0,0,0,0,0,0,-1,1791,1688,0,0
574,-664,0,0,0,0,0,0,0,0,0,-1,1798,1688,0,0
581,-664,0,0,0,0,0,0,0,0,0,-1,1805,1688,0,0
588,-664,0,0,0,0,0,0,0,0,0,-1,1812,1688,0,0
595,-664,0,0,0,0,0,0,0,0,0,-1,1819,1688,0,0
602,-664,0,0,0,0,0,0,0,0,0,-1,1826,1688,0,0
609,-664,0,0,0,0,0,0,0,0,0,-1,1833,1688,0,0
616,-664,0,0,0,0,0,0,0,0,0,-1,1840,1688,0,0
623,-664,0,0,0,0,0,0,0,0,0,-1,1847,1688,0,0
630,-664,0,0,0,0,0,0,0,0,0,-1,1854,1688,0,0
637,-664,0,0,0,0,0,0,0,0,0,-1,1861,1688,0,0
644,-664,0,0,0,0,0,0,0,0,0,-1,1868,1688,0,0
651,-664,0,0,0,0,0,0,0,0,0,-1,1875,1688,0,0
658,-664,0,0,0,0,0,0,0,0,0,-1,1882,1688,0,0
665,-664,0,0,0,0,0,0,0,0,0,-1,1889,1688,0,0
672,-664,0,0,0,0,0,0,0,0,0,-1,1896,1688,0,0
679,-664,0,0,0,0,0,0,0,0,0,-1,1903,1688,0,0
686,-664,0,0,0,0,0,0,0,0,0,-1,1910,1688,0,0
693,-664,0,0,0,0,0,0,0,0,0,-1,1917,1688,0,0
700,-664,0,0,0,0,0,0,0,0,0,-1,1924,1688,0,0
707,-664,0,0,0,0,0,0,0,0,0,-1,1931,1688,0,0
714,-664,0,0,0,0,0,0,0,0,0,-1,1938,1688,0,0
721,-664,0,0,0,0,0,0,0,0,0,-1,1945,1688,0,0
728,-664,0,0,0,0,0,0,0,0,0,-1,1952,1688,0,0
735,-664,0,0,0,0,0,0,0,0,0,-1,1959,1688,0,0
742,-664,0,0,0,0,0,0,0,0,0,-1,1966,1688,0,0
749,-664,0,0,0,0,0,0,0,0,0,-1,1973,1688,0,0
756,-664,0,0,0,0,0,0,0,0,0,-1,1980,1688,0,0
763,-664,0,0,0,0,0,0,0,0,0,-1,1987,1688,0,0
770,-664,0,0,0,0,0,0,0,0,0,-1,1994,1688,0,0
777,-664,0,0,0,0,0,0,0,0,0,-1,2001,1688,0,0
784,-664,0,0,0,0,0,0,0,0,0,-1,2008,1688,0,0
791,-664,0,0,0,0,0,0,0,0,0,-1,2015,1688,0,0
798,-664,0,0,0,0,0,0,0,0,0,-1,2022,1688,0,0
805,-664,0,0,0,0,0,0,0,0,0,-1,2029,1688,0,0
812,-664,0,0,0,0,0,0,0,0,0,-1,2036,1688,0,0
-700,-671,0,0,0,0,0,0,0,0,0,-1,524,1695,0,0
-693,-671,0,0,0,0,0,0,0,0,0,-1,531,1695,0,0
-686,-671,0,0,0,0,0,0,0,0,0,-1,538,1695,0,0
-679,-671,0,0,0,0,0,0,0,0,0,-1,545,1695,0,0
-672,-671,0,0,0,0,0,0,0,0,0,-1,552,1695,0,0
-665,-671,0,0,0,0,0,0,0,0,0,-1,559,1695,0,0
-658,-671,0,0,0,0,0,0,0,0,0,-1,566,1695,0,0
-651,-671,0,0,0,0,0,0,0,0,0,-1,573,1695,0,0
-644,-671,0,0,0,0,0,0,0,0,0,-1,580,1695,0,0
-637,-671,0,0,0,0,0,0,0,0,0,-1,587,1695,0,0
-630,-671,0,0,0,0,0,0,0,0,0,-1,594,1695,0,0
-623,-671,0,0,0,0,0,0,0,0,0,-1,601,1695,0,0
-616,-671,0,0,0,0,0,0,0,0,0,-1,608,1695,0,0
-609,-671,0,0,0,0,0,0,0,0,0,-1,615,1695,0,0
-602,-671,0,0,0,0,0,0,0,0,0,-1,622,1695,0,0
-595,-671,0,0,0,0,0,0,0,0,0,-1,629,1695,0,0
-588,-671,0,0,0,0,0,0,0,0,0,-1,636,1695,0,0
-581,-671,0,0,0,0,0,0,0,0,0,-1,643,1695,0,0
-574,-671,0,0,0,0,0,0,0,0,0,-1,650,1695,0,0
-567,-671,0,0,0,0,0,0,0,0,0,-1,657,1695,0,0
-560,-671,0,0,0,0,0,0,0,0,0,-1,664,1695,0,0
-553,-671,0,0,0,0,0,0,0,0,0,-1,671,1695,0,0
-546,-671,0,0,0,0,0,0,0,0,0,-1,678,1695,0,0
-539,-671,0,0,0,0,0,0,0,0,0,-1,685,1695,0,0
-532,-671,0,0,0,0,0,0,0,0,0,-1,692,1695,0,0
-525,-671,0,0,0,0,0,0,0,0,0,-1,699,1695,0,0
-518,-671,0,0,0,0,0,0,0,0,0,-1,706,1695,0,0
-511,-671,0,0,0,0,0,0,0,0,0,-1,713,1695,0,0
-504,-671,0,0,0,0,0,0,0,0,0,-1,720,1695,0,0
-497,-671,0,0,0,0,0,0,0,0,0,-1,727,1695,0,0
-490,-671,0,0,0,0,0,0,0,0,0,-1,734,1695,0,0
-483,-671,0,0,0,0,0,0,0,0,0,-1,741,1695,0,0
-476,-671,0,0,0,0,0,0,0,0,0,-1,748,1695,0,0
-469,-671,0,0,0,0,0,0,0,0,0,-1,755,1695,0,0
-462,-671,0,0,0,0,0,0,0,0,0,-1,762,1695,0,0
-455,-671,0,0,0,0,0,0,0,0,0,-1,769,1695,0,0
-448,-671,0,0,0,0,0,0,0,0,0,-1,776,1695,0,0
-441,-671,0,0,0,0,0,0,0,0,0,-1,783,1695,0,0
-434,-671,0,0,0,0,0,0,0,0,0,-1,790,1695,0,0
-427,-671,0,0,0,0,0,0,0,0,0,-1,797,1695,0,0
-420,-671,0,0,0,0,0,0,0,0,0,-1,804,1695,0,0
-413,-671,0,0,0,0,0,0,0,0,0,-1,811,1695,0,0
-406,-671,0,0,0,0,0,0,0,0,0,-1,818,1695,0,0
-399,-671,0,0,0,0,0,0,0,0,0,-1,825,1695,0,0
-392,-671,0,0,0,0,0,0,0,0,0,-1,832,1695,0,0
-385,-671,0,0,0,0,0,0,0,0,0,-1,839,1695,0,0
-378,-671,0,0,0,0,0,0,0,0,0,-1,846,1695,0,0
-371,-671,0,0,0,0,0,0,0,0,0,-1,853,1695,0,0
-364,-671,-4.18738,7.51416,0,0,0,0,0,0,0,-1,860,1695,-4.18739,-7.51419
-357,-671,-5.02393,6.07129,0,0,0,0,0,0,0,-1,867,1695,-5.0239,-6.07135
-350,-671,-5.72333,4.58386,0,0,0,0,0,0,0,-1,874,1695,-5.72333,-4.58386
-343,-671,2.99432,25.8125,0,0,0,0,0,0,0,-1,881,1695,2.9943,-25.8125
-336,-671,4.1355,26.2717,0,0,0,0,0,0,0,-1,888,1695,4.13547,-26.2718
-329,-671,8.21753,30.4089,0,0,0,0,0,0,0,-1,895,1695,8.21751,-30.409
-322,-671,8.63391,31.4996,0,0,0,0,0,0,0,-1,902,1695,8.63389,-31.4996
-315,-671,8.65594,30.8582,0,0,0,0,0,0,0,-1,909,1695,8.65595,-30.8581
-308,-671,7.33899,33.4025,0,0,0,0,0,0,0,-1,916,1695,7.339,-33.4025
-301,-671,7.15466,33.9578,0,0,0,0,0,0,0,-1,923,1695,7.15465,-33.9578
-294,-671,6.59271,34.0743,0,0,0,0,0,0,0,-1,930,1695,6.59269,-34.0743
-287,-671,6.58862,34.5656,0,0,0,0,0,0,0,-1,937,1695,6.58859,-34.5656
-280,-671,7.12885,35.15,-0.0100655,0.00903612,0.00101467,0.00908987,-0.0101192,1.51788,0.0110957,0.0354906,944,1695,7.12885,-35.15
-273,-671,6.67859,35.7384,-0.00883745,0.00711152,0.00151454,0.00725407,-0.00898,1.47695,0.00939038,0.0310943,951,1695,6.67859,-35.7384
-266,-671,6.71375,36.2784,-0.00740242,0.00525196,0.00294805,0.00590505,-0.00805551,1.35278,0.00809195,0.0236589,958,1695,6.71377,-36.2784
-259,-671,6.60791,36.7224,-0.00598674,0.003213,0.0027306,0.00396243,-0.00673617,1.30294,0.00624566,0.0238699,965,1695,6.60793,-36.7224
-252,-671,6.56561,37.2045,-0.00503398,0.00298574,0.00160587,0.00329535,-0.00534359,1.38034,0.0050342,0.018212,972,1695,6.56563,-37.2044
-245,-671,6.54663,37.6675,-0.00427895,0.00274266,0.00119819,0.00294149,-0.00447778,1.40635,0.00431402,0.0199092,979,1695,6.54665,-37.6674
-238,-671,6.55676,38.1414,-0.00339085,0.00247887,0.000952194,0.00262947,-0.00354145,1.41393,0.00357573,0.019904,986,1695,6.55673,-38.1413
-231,-671,6.51831,38.6152,-0.00251831,0.00223683,0.000805652,0.00236962,-0.00265111,1.40744,0.00290024,0.0156642,993,1695,6.5183,-38.6153
-224,-671,6.48535,39.0573,-0.00149198,0.00202592,0.000612221,0.00212942,-0.00159548,1.40332,0.00215793,0.0115913,1000,1695,6.48538,-39.0572
-217,-671,6.47217,39.5067,-0.000809676,0.00208425,0.000613652,0.002209,-0.000934422,1.37024,0.00186392,0.0108637,1007,1695,6.4722,-39.5067
-210,-671,6.47217,39.9685,-0.000166134,0.00215734,0.000673456,0.00233843,-0.000347221,1.30812,0.00168665,0.0111203,1014,1695,6.47218,-39.9685
-203,-671,6.45898,40.3749,0.000466563,0.00249629,0.000758109,0.00274819,0.000214668,1.25001,0.00176492,0.0193963,1021,1695,6.45902,-40.3749
-196,-671,6.44653,40.8024,0.000876681,0.00282245,0.000844877,0.0031381,0.000561031,1.21325,0.0019324,0.0172255,1028,1695,6.44651,-40.8023
-189,-671,6.45264,41.2667,0.00125207,0.00304902,0.000857867,0.0033928,0.000908289,1.18966,0.00202807,0.0119156,1035,1695,6.4527,-41.2667
-182,-671,6.4231,41.6412,0.00159406,0.00342005,0.000780763,0.00370837,0.00130574,1.21705,0.00217202,0.00962963,1042,1695,6.42311,-41.6412
-175,-671,6.4314,42.0012,0.0019168,0.00383423,0.000746116,0.00409035,0.00166068,1.24013,0.00237543,0.012545,1049,1695,6.43139,-42.0012
-168,-671,6.43481,42.381,0.00217314,0.00433239,0.000695561,0.00453706,0.00196848,1.28463,0.0026271,0.0136517,1056,1695,6.43482,-42.3809
-161,-671,6.42639,42.7919,0.00243462,0.00465967,0.000553073,0.00478956,0.00230473,1.34012,0.00276591,0.00942892,1063,1695,6.42645,-42.7918
-154,-671,6.44092,43.1478,0.00278948,0.00495556,0.000379183,0.00502002,0.00272502,1.40241,0.00290185,0.00862552,1070,1695,6.44088,-43.1478
-147,-671,6.45715,43.5255,0.00322516,0.00523322,0.000211105,0.00525517,0.0032032,1.46718,0.00305825,0.0105043,1077,1695,6.45717,-43.5255
-140,-671,6.50049,43.8801,0.00371506,0.0053856,6.45987e-05,0.00538809,0.00371257,1.5322,0.00318406,0.0133831,1084,1695,6.5005,-43.8802
-133,-671,6.50574,44.2041,0.00426003,0.00565957,-3.0106e-05,0.00566021,0.00425938,-1.5493,0.00340401,0.0172585,1091,1695,6.50574,-44.2041
-126,-671,6.57849,44.6317,0.00490808,0.00570502,-0.000113065,0.00572075,0.00489235,-1.43256,0.00356989,0.0274137,1098,1695,6.57852,-44.6317
-119,-671,6.6665,45.1631,0,0,0,0,0,0,0,-1,1105,1695,6.66651,-45.1631
-112,-671,6.58704,44.6255,0,0,0,0,0,0,0,-1,1112,1695,6.58701,-44.6255
-105,-671,7.33252,41.3418,0,0,0,0,0,0,0,-1,1119,1695,7.33247,-41.3418
-98,-671,6.34534,45.6299,0,0,0,0,0,0,0,-1,1126,1695,6.34533,-45.6299
-91,-671,6.40063,38.2443,0,0,0,0,0,0,0,-1,1133,1695,6.40059,-38.2442
-84,-671,5.4209,26.2415,0,0,0,0,0,0,0,-1,1140,1695,5.42096,-26.2414
-77,-671,4.31763,16.489,0,0,0,0,0,0,0,-1,1147,1695,4.31757,-16.489
-70,-671,3.06067,10.7737,0,0,0,0,0,0,0,-1,1154,1695,3.0607,-10.7737
-63,-671,2.94592,6.90198,0,0,0,0,0,0,0,-1,1161,1695,2.94594,-6.90198
-56,-671,-3.07678,2.87976,0,0,0,0,0,0,0,-1,1168,1695,-3.07675,-2.87979
-49,-671,-1.05957,4.76917,0,0,0,0,0,0,0,-1,1175,1695,-1.05958,-4.76921
-42,-671,0.539307,3.7865,0,0,0,0,0,0,0,-1,1182,1695,0.539266,-3.78648
-35,-671,-0.272461,0.347534,0,0,0,0,0,0,0,-1,1189,1695,-0.272434,-0.347569
-28,-671,-10.4878,17.2009,0,0,0,0,0,0,0,-1,1196,1695,-10.4878,-17.2009
-21,-671,6.99121,48.3428,0,0,0,0,0,0,0,-1,1203,1695,6.99123,-48.3428
-14,-671,7.92749,48.2185,0,0,0,0,0,0,0,-1,1210,1695,7.9275,-48.2185
-7,-671,8.03687,48.5145,0,0,0,0,0,0,0,-1,1217,1695,8.03685,-48.5145
0,-671,7.90369,49.0751,0.0732628,0.0473217,0.0294525,0.0924743,0.0281103,0.577982,0.0547406,0.0491322,1224,1695,7.90372,-49.0751
7,-671,7.91125,49.1991,0.0661363,0.0558908,0.0276202,0.0891048,0.0329224,0.693705,0.0520257,0.04355,1231,1695,7.91131,-49.1991
14,-671,8.57129,50.0632,0.0584717,0.0627096,0.0245878,0.0852696,0.0359117,0.828382,0.049434,0.0439011,1238,1695,8.57135,-50.0633
21,-671,8.56958,49.5992,0,0,0,0,0,0,0,-1,1245,1695,8.56962,-49.5992
28,-671,8.92236,50.1195,0,0,0,0,0,0,0,-1,1252,1695,8.92237,-50.1195
35,-671,9.01709,50.5702,0.03528,0.0725601,0.0134483,0.076905,0.0309351,1.2583,0.0446831,0.0496,1259,1695,9.01711,-50.5701
42,-671,8.81567,50.6512,0.0286772,0.071686,0.00970746,0.0737755,0.0265877,1.35878,0.0431443,0.0482381,1266,1695,8.8157,-50.6513
49,-671,9.01245,50.5593,0.0217827,0.0706144,0.00608071,0.0713602,0.0210369,1.44876,0.0423406,0.0437954,1273,1695,9.01244,-50.5593
56,-671,8.39661,50.9761,0.0170435,0.0668173,0.00290137,0.0669858,0.0168749,1.51277,0.0402298,0.041996,1280,1695,8.39664,-50.976
63,-671,9.2644,49.6902,0.0149753,0.0609498,0.000559932,0.0609566,0.0149685,1.55862,0.0366808,0.0473539,1287,1695,9.26441,-49.6902
70,-671,9.35925,49.167,0.0157372,0.0594249,-0.00377734,0.0597491,0.015413,-1.48518,0.0358181,0.0454148,1294,1695,9.35921,-49.167
77,-671,9.40503,48.427,0.0193005,0.0549335,-0.00599852,0.0559162,0.0183178,-1.40841,0.0329167,0.0465597,1301,1695,9.405,-48.427
84,-671,9.50684,48.0198,0.0231734,0.0502842,-0.00700656,0.051988,0.0214696,-1.33227,0.0301664,0.0474616,1308,1695,9.50681,-48.0198
91,-671,9.46045,47.6167,0.0282695,0.0456669,-0.00752864,0.0484725,0.0254639,-1.21409,0.0279976,0.0412291,1315,1695,9.46047,-47.6166
98,-671,10.0933,49.151,0.0345291,0.0422834,-0.00783174,0.0471451,0.0296673,-1.01524,0.0275209,0.0416393,1322,1695,10.0932,-49.1509
105,-671,9.39282,49.163,0.041771,0.0402181,-0.00821088,0.049242,0.032747,-0.738256,0.0289414,0.0460685,1329,1695,9.39283,-49.163
112,-671,10.5861,48.339,0.049017,0.0385247,-0.00786293,0.0532232,0.0343184,-0.491212,0.031155,0.0444481,1336,1695,10.586,-48.339
119,-671,10.6519,48.1656,0.0557177,0.0359419,-0.00743765,0.0582027,0.0334568,-0.322453,0.0337285,0.0459808,1343,1695,10.6519,-48.1656
126,-671,10.491,48.4058,0,0,0,0,0,0,0,-1,1350,1695,10.491,-48.4057
133,-671,10.2566,50.3882,0,0,0,0,0,0,0,-1,1357,1695,10.2566,-50.3882
140,-671,10.5055,50.9465,0.066504,0.0214375,-0.00461091,0.066971,0.0209705,-0.10092,0.0395556,0.0483493,1364,1695,10.5055,-50.9466
147,-671,10.8309,51.1733,0.0664435,0.0167455,-0.0033712,0.0666711,0.0165179,-0.0674223,0.0400922,0.0454712,1371,1695,10.831,-51.1733
154,-671,11.0342,51.3718,0,0,0,0,0,0,0,-1,1378,1695,11.0342,-51.3719
161,-671,4.49292,4.91272,0,0,0,0,0,0,0,-1,1385,1695,4.49297,-4.91273
168,-671,5.17639,6.1416,0,0,0,0,0,0,0,-1,1392,1695,5.1764,-6.14164
175,-671,5.6731,1.64685,0,0,0,0,0,0,0,-1,1399,1695,5.67313,-1.64691
182,-671,5.56812,1.71692,0,0,0,0,0,0,0,-1,1406,1695,5.56809,-1.71686
189,-671,6.98315,6.36169,0,0,0,0,0,0,0,-1,1413,1695,6.98312,-6.36175
196,-671,5.38123,5.69775,0,0,0,0,0,0,0,-1,1420,1695,5.38125,-5.69769
203,-671,5.95117,8.11658,0,0,0,0,0,0,0,-1,1427,1695,5.9512,-8.11662
210,-671,4.73596,8.39624,0,0,0,0,0,0,0,-1,1434,1695,4.736,-8.39618
217,-671,5.37097,11.863,0,0,0,0,0,0,0,-1,1441,1695,5.37094,-11.863
224,-671,5.08167,13.6694,0,0,0,0,0,0,0,-1,1448,1695,5.08165,-13.6695
231,-671,5.66663,15.3348,0,0,0,0,0,0,0,-1,1455,1695,5.66667,-15.3349
238,-671,6.32959,16.2036,0,0,0,0,0,0,0,-1,1462,1695,6.32961,-16.2037
245,-671,11.2096,44.603,0,0,0,0,0,0,0,-1,1469,1695,11.2096,-44.603
252,-671,11.0084,44.5854,0,0,0,0,0,0,0,-1,1476,1695,11.0085,-44.5855
259,-671,10.9008,44.2478,0,0,0,0,0,0,0,-1,1483,1695,10.9008,-44.2478
266,-671,11.0177,44.0942,0.00485893,0.00753868,-8.14727e-05,0.00754115,0.00485645,-1.54043,0.00441366,0.0333379,1490,1695,11.0177,-44.0943
273,-671,11.0885,43.8085,0.00433812,0.00743797,1.22598e-05,0.00743802,0.00433807,1.56684,0.00431413,0.00976232,1497,1695,11.0885,-43.8085
280,-671,11.0979,43.4777,0.00381571,0.007406,1.35743e-05,0.00740605,0.00381566,1.56702,0.00427654,0.00982325,1504,1695,11.0979,-43.4777
287,-671,11.1002,43.0457,0.00331627,0.00721165,-1.80662e-05,0.00721174,0.00331619,-1.56616,0.00416817,0.012106,1511,1695,11.1003,-43.0457
294,-671,11.1016,42.6705,0.00295183,0.00695259,-0.000230229,0.0069658,0.00293862,-1.5135,0.00403804,0.0117858,1518,1695,11.1015,-42.6706
301,-671,11.1392,42.3418,0.00258184,0.0064895,-0.000418216,0.00653376,0.00253759,-1.46536,0.00380347,0.01064,1525,1695,11.1392,-42.3419
308,-671,11.1484,41.994,0.0022233,0.00609865,-0.000633344,0.00619953,0.00212242,-1.41284,0.00363812,0.0121993,1532,1695,11.1485,-41.994
315,-671,11.1532,41.6157,0.00186698,0.00552854,-0.000767683,0.00568298,0.00171254,-1.37227,0.00336629,0.0135613,1539,1695,11.1531,-41.6157
322,-671,11.1499,41.2404,0.0015015,0.00501249,-0.000841494,0.00520375,0.00131023,-1.3473,0.00312535,0.0152924,1546,1695,11.1498,-41.2404
329,-671,11.129,40.8761,0.00113834,0.00437641,-0.000828859,0.00457624,0.000938506,-1.33422,0.00279109,0.0145273,1553,1695,11.1291,-40.8761
336,-671,11.153,40.4404,0.000827208,0.00374668,-0.000745642,0.0039261,0.000647795,-1.33467,0.00243041,0.0112574,1560,1695,11.1529,-40.4405
343,-671,11.1764,39.9878,0.000804094,0.00279685,-0.000640067,0.00298473,0.000616219,-1.28529,0.00181953,0.0113547,1567,1695,11.1764,-39.9878
350,-671,11.1471,39.6176,0.000656392,0.00187239,-0.000536054,0.00207496,0.000453826,-1.2095,0.00125958,0.011958,1574,1695,11.1471,-39.6176
357,-671,11.116,39.157,0.000551088,0.00109496,-0.000376474,0.00128744,0.000358607,-1.09817,0.000767219,0.0110965,1581,1695,11.116,-39.157
364,-671,11.1112,38.713,0.000448628,0.000354622,-0.000168585,0.000576639,0.00022661,-0.649447,0.000335455,0.0124189,1588,1695,11.1113,-38.713
371,-671,11.0809,38.3098,0.000480263,-0.000489545,0.000135214,0.000498762,-0.000508044,0.135969,0.000581288,0.0139638,1595,1695,11.0809,-38.3098
378,-671,11.0657,37.8557,0.000811002,-0.0016771,0.000348968,0.00085902,-0.00172511,0.136741,0.00151963,0.0116066,1602,1695,11.0657,-37.8557
385,-671,11.0358,37.3835,0.00130627,-0.00279477,0.000244205,0.00132076,-0.00280926,0.0592679,0.00243555,0.0137575,1609,1695,11.0358,-37.3835
392,-671,11.0043,36.9456,0.00169205,-0.00438794,-1.44776e-05,0.00169208,-0.00438798,-0.00238116,0.00362352,0.0182294,1616,1695,11.0043,-36.9456
399,-671,10.986,36.5148,0.00217626,-0.00593021,-0.000400318,0.00219598,-0.00594993,-0.0492229,0.00486666,0.0137342,1623,1695,10.9859,-36.5147
406,-671,10.9641,36.0261,0.00273759,-0.0074569,-0.000891321,0.00281493,-0.00753425,-0.0865565,0.00617871,0.0172723,1630,1695,10.9641,-36.0261
413,-671,10.907,35.5527,0.00355861,-0.00893788,-0.00167039,0.00377803,-0.0091573,-0.130614,0.00768046,0.0280595,1637,1695,10.9069,-35.5528
420,-671,10.8348,35.1483,0.00444406,-0.0108627,-0.00273321,0.00491747,-0.0113361,-0.171504,0.00962482,0.0481632,1644,1695,10.8348,-35.1483
427,-671,10.85,34.7048,0,0,0,0,0,0,0,-1,1651,1695,10.85,-34.7049
434,-671,11.9923,34.7244,0,0,0,0,0,0,0,-1,1658,1695,11.9924,-34.7243
441,-671,11.9645,34.5192,0,0,0,0,0,0,0,-1,1665,1695,11.9645,-34.5192
448,-671,7.44873,20.2306,0,0,0,0,0,0,0,-1,1672,1695,7.44872,-20.2306
455,-671,6.62805,19.8612,0,0,0,0,0,0,0,-1,1679,1695,6.62811,-19.8612
462,-671,5.86255,4.47961,0,0,0,0,0,0,0,-1,1686,1695,5.8625,-4.4796
469,-671,3.71301,3.76978,0,0,0,0,0,0,0,-1,1693,1695,3.71297,-3.76974
476,-671,3.75574,3.18848,0,0,0,0,0,0,0,-1,1700,1695,3.7558,-3.18847
483,-671,7.81824,12.1041,0,0,0,0,0,0,0,-1,1707,1695,7.81826,-12.1041
490,-671,0,0,0,0,0,0,0,0,0,-1,1714,1695,0,0
497,-671,0,0,0,0,0,0,0,0,0,-1,1721,1695,0,0
504,-671,0,0,0,0,0,0,0,0,0,-1,1728,1695,0,0
511,-671,0,0,0,0,0,0,0,0,0,-1,1735,1695,0,0
518,-671,0,0,0,0,0,0,0,0,0,-1,1742,1695,0,0
525,-671,0,0,0,0,0,0,0,0,0,-1,1749,1695,0,0
532,-671,0,0,0,0,0,0,0,0,0,-1,1756,1695,0,0
539,-671,0,0,0,0,0,0,0,0,0,-1,1763,1695,0,0
546,-671,0,0,0,0,0,0,0,0,0,-1,1770,1695,0,0
553,-671,0,0,0,0,0,0,0,0,0,-1,1777,1695,0,0
560,-671,0,0,0,0,0,0,0,0,0,-1,1784,1695,0,0
567,-671,0,0,0,0,0,0,0,0,0,-1,1791,1695,0,0
574,-671,0,0,0,0,0,0,0,0,0,-1,1798,1695,0,0
581,-671,0,0,0,0,0,0,0,0,0,-1,1805,1695,0,0
588,-671,0,0,0,0,0,0,0,0,0,-1,1812,1695,0,0
595,-671,0,0,0,0,0,0,0,0,0,-1,1819,1695,0,0
602,-671,0,0,0,0,0,0,0,0,0,-1,1826,1695,0,0
609,-671,0,0,0,0,0,0,0,0,0,-1,1833,1695,0,0
616,-671,0,0,0,0,0,0,0,0,0,-1,1840,1695,0,0
623,-671,0,0,0,0,0,0,0,0,0,-1,1847,1695,0,0
630,-671,0,0,0,0,0,0,0,0,0,-1,1854,1695,0,0
637,-671,0,0,0,0,0,0,0,0,0,-1,1861,1695,0,0
644,-671,0,0,0,0,0,0,0,0,0,-1,1868,1695,0,0
651,-671,0,0,0,0,0,0,0,0,0,-1,1875,1695,0,0
658,-671,0,0,0,0,0,0,0,0,0,-1,1882,1695,0,0
665,-671,0,0,0,0,0,0,0,0,0,-1,1889,1695,0,0
672,-671,0,0,0,0,0,0,0,0,0,-1,1896,1695,0,0
679,-671,0,0,0,0,0,0,0,0,0,-1,1903,1695,0,0
686,-671,0,0,0,0,0,0,0,0,0,-1,1910,1695,0,0
693,-671,0,0,0,0,0,0,0,0,0,-1,1917,1695,0,0
700,-671,0,0,0,0,0,0,0,0,0,-1,1924,1695,0,0
707,-671,0,0,0,0,0,0,0,0,0,-1,1931,1695,0,0
714,-671,0,0,0,0,0,0,0,0,0,-1,1938,1695,0,0
721,-671,0,0,0,0,0,0,0,0,0,-1,1945,1695,0,0
728,-671,0,0,0,0,0,0,0,0,0,-1,1952,1695,0,0
735,-671,0,0,0,0,0,0,0,0,0,-1,1959,1695,0,0
742,-671,0,0,0,0,0,0,0,0,0,-1,1966,1695,0,0
749,-671,0,0,0,0,0,0,0,0,0,-1,1973,1695,0,0
756,-671,0,0,0,0,0,0,0,0,0,-1,1980,1695,0,0
763,-671,0,0,0,0,0,0,0,0,0,-1,1987,1695,0,0
770,-671,0,0,0,0,0,0,0,0,0,-1,1994,1695,0,0
777,-671,0,0,0,0,0,0,0,0,0,-1,2001,1695,0,0
784,-671,0,0,0,0,0,0,0,0,0,-1,2008,1695,0,0
791,-671,0,0,0,0,0,0,0,0,0,-1,2015,1695,0,0
798,-671,0,0,0,0,0,0,0,0,0,-1,2022,1695,0,0
805,-671,0,0,0,0,0,0,0,0,0,-1,2029,1695,0,0
812,-671,0,0,0,0,0,0,0,0,0,-1,2036,1695,0,0
-700,-678,0,0,0,0,0,0,0,0,0,-1,524,1702,0,0
-693,-678,0,0,0,0,0,0,0,0,0,-1,531,1702,0,0
-686,-678,0,0,0,0,0,0,0,0,0,-1,538,1702,0,0
-679,-678,0,0,0,0,0,0,0,0,0,-1,545,1702,0,0
-672,-678,0,0,0,0,0,0,0,0,0,-1,552,1702,0,0
-665,-678,0,0,0,0,0,0,0,0,0,-1,559,1702,0,0
-658,-678,0,0,0,0,0,0,0,0,0,-1,566,1702,0,0
-651,-678,0,0,0,0,0,0,0,0,0,-1,573,1702,0,0
-644,-678,0,0,0,0,0,0,0,0,0,-1,580,1702,0,0
-637,-678,0,0,0,0,0,0,0,0,0,-1,587,1702,0,0
-630,-678,0,0,0,0,0,0,0,0,0,-1,594,1702,0,0
-623,-678,0,0,0,0,0,0,0,0,0,-1,601,1702,0,0
-616,-678,0,0,0,0,0,0,0,0,0,-1,608,1702,0,0
-609,-678,0,0,0,0,0,0,0,0,0,-1,615,1702,0,0
-602,-678,0,0,0,0,0,0,0,0,0,-1,622,1702,0,0
-595,-678,0,0,0,0,0,0,0,0,0,-1,629,1702,0,0
-588,-678,0,0,0,0,0,0,0,0,0,-1,636,1702,0,0
-581,-678,0,0,0,0,0,0,0,0,0,-1,643,1702,0,0
-574,-678,0,0,0,0,0,0,0,0,0,-1,650,1702,0,0
-567,-678,0,0,0,0,0,0,0,0,0,-1,657,1702,0,0
-560,-678,0,0,0,0,0,0,0,0,0,-1,664,1702,0,0
-553,-678,0,0,0,0,0,0,0,0,0,-1,671,1702,0,0
-546,-678,0,0,0,0,0,0,0,0,0,-1,678,1702,0,0
-539,-678,0,0,0,0,0,0,0,0,0,-1,685,1702,0,0
-532,-678,0,0,0,0,0,0,0,0,0,-1,692,1702,0,0
-525,-678,0,0,0,0,0,0,0,0,0,-1,699,1702,0,0
-518,-678,0,0,0,0,0,0,0,0,0,-1,706,1702,0,0
-511,-678,0,0,0,0,0,0,0,0,0,-1,713,1702,0,0
-504,-678,0,0,0,0,0,0,0,0,0,-1,720,1702,0,0
-497,-678,0,0,0,0,0,0,0,0,0,-1,727,1702,0,0
-490,-678,0,0,0,0,0,0,0,0,0,-1,734,1702,0,0
-483,-678,0,0,0,0,0,0,0,0,0,-1,741,1702,0,0
-476,-678,0,0,0,0,0,0,0,0,0,-1,748,1702,0,0
-469,-678,0,0,0,0,0,0,0,0,0,-1,755,1702,0,0
-462,-678,0,0,0,0,0,0,0,0,0,-1,762,1702,0,0
-455,-678,0,0,0,0,0,0,0,0,0,-1,769,1702,0,0
-448,-678,0,0,0,0,0,0,0,0,0,-1,776,1702,0,0
-441,-678,0,0,0,0,0,0,0,0,0,-1,783,1702,0,0
-434,-678,0,0,0,0,0,0,0,0,0,-1,790,1702,0,0
-427,-678,0,0,0,0,0,0,0,0,0,-1,797,1702,0,0
-420,-678,0,0,0,0,0,0,0,0,0,-1,804,1702,0,0
-413,-678,0,0,0,0,0,0,0,0,0,-1,811,1702,0,0
-406,-678,0,0,0,0,0,0,0,0,0,-1,818,1702,0,0
-399,-678,0,0,0,0,0,0,0,0,0,-1,825,1702,0,0
-392,-678,0,0,0,0,0,0,0,0,0,-1,832,1702,0,0
-385,-678,0,0,0,0,0,0,0,0,0,-1,839,1702,0,0
-378,-678,0,0,0,0,0,0,0,0,0,-1,846,1702,0,0
-371,-678,0,0,0,0,0,0,0,0,0,-1,853,1702,0,0
-364,-678,0,0,0,0,0,0,0,0,0,-1,860,1702,0,0
-357,-678,0,0,0,0,0,0,0,0,0,-1,867,1702,0,0
-350,-678,-5.79944,6.11865,0,0,0,0,0,0,0,-1,874,1702,-5.79942,-6.11864
-343,-678,-6.44891,4.52759,0,0,0,0,0,0,0,-1,881,1702,-6.4489,-4.52758
-336,-678,4.8537,26.4368,0,0,0,0,0,0,0,-1,888,1702,4.85368,-26.4368
-329,-678,5.70953,26.5249,0,0,0,0,0,0,0,-1,895,1702,5.70955,-26.5249
-322,-678,3.78455,20.3917,0,0,0,0,0,0,0,-1,902,1702,3.78457,-20.3917
-315,-678,4.74176,22.3245,0,0,0,0,0,0,0,-1,909,1702,4.74178,-22.3244
-308,-678,6.89911,31.2765,0,0,0,0,0,0,0,-1,916,1702,6.89914,-31.2765
-301,-678,6.9032,33.3568,0,0,0,0,0,0,0,-1,923,1702,6.9032,-33.3569
-294,-678,6.98132,33.9791,0,0,0,0,0,0,0,-1,930,1702,6.98134,-33.9792
-287,-678,7.0191,34.5199,-0.0149175,0.0157832,0.000308844,0.0157863,-0.0149206,1.56074,0.017731,0.0475975,937,1702,7.01909,-34.5198
-280,-678,7.02301,35.08,-0.0130654,0.0123108,0.00181908,0.0124405,-0.0131951,1.4996,0.0148028,0.0479,944,1702,7.02299,-35.0799
-273,-678,7.10876,35.6456,-0.011521,0.00977948,0.00228555,0.010022,-0.0117635,1.4651,0.0125912,0.0435637,951,1702,7.10873,-35.6456
-266,-678,7.20807,36.323,-0.00973118,0.00728017,0.00384791,0.00811007,-0.0105611,1.35838,0.0108107,0.0378611,958,1702,7.2081,-36.3229
-259,-678,7.09308,36.8247,-0.00799978,0.00468222,0.00343655,0.00555358,-0.00887115,1.32247,0.00840122,0.0247048,965,1702,7.09305,-36.8247
-252,-678,7.03845,37.2572,-0.00684692,0.00411498,0.00203018,0.00447889,-0.00721084,1.39343,0.00681023,0.0192398,972,1702,7.03848,-37.2572
-245,-678,6.9967,37.6934,-0.0059652,0.00352125,0.00147677,0.00374582,-0.00618977,1.41988,0.00579387,0.0191485,979,1702,6.99671,-37.6933
-238,-678,6.9624,38.1561,-0.00495598,0.0029922,0.00112115,0.00314732,-0.0051111,1.43331,0.00481272,0.0146989,986,1702,6.96238,-38.1561
-231,-678,6.92828,38.6412,-0.00395907,0.00247352,0.000888404,0.00259397,-0.00407951,1.43605,0.00388462,0.0114426,993,1702,6.92831,-38.6412
-224,-678,6.90417,39.0823,-0.00277415,0.00197571,0.000568119,0.00204272,-0.00284116,1.4534,0.00283224,0.0115558,1000,1702,6.9042,-39.0822
-217,-678,6.8924,39.5245,-0.00212381,0.00166408,0.000522871,0.00173493,-0.00219466,1.43611,0.00227392,0.0128226,1007,1702,6.89242,-39.5245
-210,-678,6.87128,39.9937,-0.00152553,0.00141369,0.00062692,0.00154183,-0.00165367,1.36919,0.0018453,0.0138736,1014,1702,6.87127,-39.9936
-203,-678,6.85669,40.3929,-0.000916174,0.00158106,0.000724914,0.00177624,-0.00111135,1.30779,0.00168182,0.0185149,1021,1702,6.85666,-40.393
-196,-678,6.84204,40.8053,-0.000551552,0.00170146,0.000824926,0.00197121,-0.000821297,1.25476,0.00165719,0.0179125,1028,1702,6.84207,-40.8053
-189,-678,6.8396,41.2623,-0.000179134,0.00172161,0.000866905,0.0020576,-0.000515126,1.20105,0.00157184,0.0104547,1035,1702,6.83963,-41.2623
-182,-678,6.83093,41.661,0.000180994,0.00197518,0.000812752,0.0022886,-0.000132425,1.20274,0.00157174,0.0098366,1042,1702,6.83097,-41.661
-175,-678,6.83093,42.0393,0.000563547,0.00231662,0.000820709,0.00264087,0.000239301,1.19454,0.00168648,0.0112715,1049,1702,6.83097,-42.0394
-168,-678,6.82068,42.4353,0.000932495,0.00274697,0.000814693,0.00305908,0.000620387,1.20494,0.00186727,0.010802,1056,1702,6.82062,-42.4353
-161,-678,6.80945,42.8167,0.00134915,0.00307101,0.00069036,0.00331362,0.00110654,1.23285,0.00194797,0.00875225,1063,1702,6.80942,-42.8166
-154,-678,6.80884,43.1832,0.00191932,0.0033872,0.000545032,0.00356744,0.00173908,1.25142,0.00205988,0.00835046,1070,1702,6.80889,-43.1832
-147,-678,6.81421,43.5575,0.00260003,0.00367532,0.00040089,0.00380833,0.00246703,1.25044,0.00223053,0.0108299,1077,1702,6.81419,-43.5574
-140,-678,6.85608,43.9143,0.0033239,0.00382031,0.000241267,0.00391825,0.00322596,1.18519,0.00241471,0.0119202,1084,1702,6.85614,-43.9144
-133,-678,6.87427,44.2391,0.00405253,0.00398759,0.000108112,0.00413295,0.00390718,0.639518,0.00268321,0.0122381,1091,1702,6.87425,-44.2391
-126,-678,6.88208,44.587,0.00478132,0.00394947,-1.49e-05,0.00478159,0.00394921,-0.0179042,0.00294968,0.0132157,1098,1702,6.88207,-44.587
-119,-678,6.93945,45.1626,0.00559221,0.00372401,-0.000158949,0.00560563,0.00371058,-0.0842745,0.00329251,0.0401137,1105,1702,6.93947,-45.1626
-112,-678,7.0094,45.708,0,0,0,0,0,0,0,-1,1112,1702,7.00946,-45.708
-105,-678,6.8855,45.6339,0,0,0,0,0,0,0,-1,1119,1702,6.88556,-45.6339
-98,-678,6.98047,45.9501,0,0,0,0,0,0,0,-1,1126,1702,6.98045,-45.9501
-91,-678,7.11951,46.0332,0,0,0,0,0,0,0,-1,1133,1702,7.11955,-46.0333
-84,-678,6.58545,36.5073,0,0,0,0,0,0,0,-1,1140,1702,6.58544,-36.5073
-77,-678,5.95154,29.1879,0,0,0,0,0,0,0,-1,1147,1702,5.95156,-29.1878
-70,-678,4.75891,19.6552,0,0,0,0,0,0,0,-1,1154,1702,4.75895,-19.6551
-63,-678,3.41687,11.0365,0,0,0,0,0,0,0,-1,1161,1702,3.41682,-11.0365
-56,-678,1.72388,6.13159,0,0,0,0,0,0,0,-1,1168,1702,1.72388,-6.13157
-49,-678,-0.241699,5.29895,0,0,0,0,0,0,0,-1,1175,1702,-0.241682,-5.29897
-42,-678,0.297119,3.90649,0,0,0,0,0,0,0,-1,1182,1702,0.297139,-3.90655
-35,-678,0.498413,3.64038,0,0,0,0,0,0,0,-1,1189,1702,0.498471,-3.64038
-28,-678,0.132446,3.55994,0,0,0,0,0,0,0,-1,1196,1702,0.132432,-3.55993
-21,-678,7.97144,47.9762,0,0,0,0,0,0,0,-1,1203,1702,7.97146,-47.9762
-14,-678,8.03467,48.15,0.063366,0.0248784,0.0230162,0.0741234,0.014121,0.437214,0.0454459,0.0443236,1210,1702,8.03469,-48.15
-7,-678,8.04675,48.4631,0.0611166,0.0315154,0.0233605,0.0739705,0.0186616,0.503027,0.0444196,0.0466409,1217,1702,8.0467,-48.4631
0,-678,8.0459,48.788,0.0573441,0.0389393,0.0233424,0.0732326,0.0230508,0.597634,0.0432373,0.0489436,1224,1702,8.04589,-48.7879
7,-678,7.9386,48.8519,0.0521959,0.0457905,0.0219185,0.0711444,0.026842,0.712853,0.0414855,0.0481177,1231,1702,7.93859,-48.8519
14,-678,8.07898,49.0148,0.0465649,0.0512956,0.0195541,0.0686269,0.0292336,0.845587,0.0397662,0.0463783,1238,1702,8.07899,-49.0148
21,-678,8.72046,49.9042,0,0,0,0,0,0,0,-1,1245,1702,8.72048,-49.9042
28,-678,8.7627,50.0419,0,0,0,0,0,0,0,-1,1252,1702,8.7627,-50.0419
35,-678,8.94397,49.8435,0.0287668,0.0603728,0.0107748,0.0636965,0.0254431,1.27159,0.0370223,0.0460209,1259,1702,8.94391,-49.8435
42,-678,8.71387,49.7471,0.0236077,0.0598857,0.0077047,0.0614542,0.0220392,1.36996,0.0359502,0.0458862,1266,1702,8.71387,-49.747
49,-678,8.80347,49.7653,0.0181554,0.0589149,0.00471451,0.0594531,0.0176172,1.45713,0.0352618,0.0436683,1273,1702,8.80352,-49.7652
56,-678,8.75208,49.8253,0.0145906,0.0556509,0.00209309,0.0557573,0.0144841,1.52,0.0334071,0.0435314,1280,1702,8.75204,-49.8253
63,-678,8.92908,49.5641,0.0132652,0.050518,0.000173028,0.0505188,0.0132644,1.56615,0.0302434,0.0433505,1287,1702,8.92902,-49.564
70,-678,8.7041,49.3854,0.0138334,0.0484686,-0.00317994,0.0487582,0.0135438,-1.48,0.0290626,0.0428321,1294,1702,8.7041,-49.3854
77,-678,9.14319,47.9481,0,0,0,0,0,0,0,-1,1301,1702,9.14314,-47.9481
84,-678,10.0442,49.2067,0,0,0,0,0,0,0,-1,1308,1702,10.0442,-49.2067
91,-678,9.72693,49.1653,0.0235309,0.0348476,-0.00532814,0.0369614,0.0214171,-1.19312,0.0214293,0.0480844,1315,1702,9.72691,-49.1653
98,-678,9.44458,49.1139,0.0281732,0.0312092,-0.00516341,0.0350731,0.0243093,-0.928364,0.0207468,0.0437352,1322,1702,9.44463,-49.1139
105,-678,9.17517,49.0502,0.0334339,0.0287576,-0.00502861,0.0366414,0.0255501,-0.56778,0.021697,0.0428783,1329,1702,9.17514,-49.0502
112,-678,10.089,48.3619,0.0386332,0.0268656,-0.0041958,0.039976,0.0255228,-0.309734,0.0233733,0.0448012,1336,1702,10.089,-48.3619
119,-678,10.306,48.1193,0.043352,0.0247964,-0.00327932,0.0439145,0.0242339,-0.169877,0.0253994,0.0430566,1343,1702,10.306,-48.1193
126,-678,10.2782,48.2172,0.0472218,0.0219798,-0.00252306,0.0474716,0.0217301,-0.098654,0.0274403,0.045417,1350,1702,10.2782,-48.2171
133,-678,10.2706,47.9698,0,0,0,0,0,0,0,-1,1357,1702,10.2706,-47.9699
140,-678,10.2372,51.4359,0,0,0,0,0,0,0,-1,1364,1702,10.2372,-51.4359
147,-678,10.6759,51.4117,0,0,0,0,0,0,0,-1,1371,1702,10.6759,-51.4117
154,-678,11.149,51.7607,0,0,0,0,0,0,0,-1,1378,1702,11.149,-51.7608
161,-678,8.81226,34.8624,0,0,0,0,0,0,0,-1,1385,1702,8.81229,-34.8624
168,-678,4.21863,5.25781,0,0,0,0,0,0,0,-1,1392,1702,4.21865,-5.25781
175,-678,5.21899,5.9635,0,0,0,0,0,0,0,-1,1399,1702,5.21894,-5.96346
182,-678,7.31262,6.75122,0,0,0,0,0,0,0,-1,1406,1702,7.3126,-6.75123
189,-678,5.96021,6.36853,0,0,0,0,0,0,0,-1,1413,1702,5.96018,-6.36851
196,-678,5.01599,8.15771,0,0,0,0,0,0,0,-1,1420,1702,5.01596,-8.15767
203,-678,4.64771,13.0559,0,0,0,0,0,0,0,-1,1427,1702,4.64766,-13.0559
210,-678,5.6532,18.5957,0,0,0,0,0,0,0,-1,1434,1702,5.65318,-18.5958
217,-678,6.88049,23.4835,0,0,0,0,0,0,0,-1,1441,1702,6.88047,-23.4835
224,-678,8.521,32.0977,0,0,0,0,0,0,0,-1,1448,1702,8.52098,-32.0977
231,-678,9.96838,42.3734,0,0,0,0,0,0,0,-1,1455,1702,9.96844,-42.3734
238,-678,10.5577,45.5476,0,0,0,0,0,0,0,-1,1462,1702,10.5577,-45.5476
245,-678,10.7057,45.1597,0.00557842,0.00396387,0.000546167,0.00574582,0.00379647,0.297409,0.003374,0.0366892,1469,1702,10.7057,-45.1596
252,-678,10.7123,44.7614,0.00504367,0.00477076,0.000306327,0.00524256,0.00457187,0.575864,0.00329431,0.0270515,1476,1702,10.7123,-44.7614
259,-678,10.7023,44.5078,0.00452437,0.00501589,-5.82953e-05,0.00502271,0.00451755,-1.45435,0.00319343,0.017718,1483,1702,10.7023,-44.5079
266,-678,10.7439,44.1511,0.00405128,0.00520054,-0.000269568,0.00526063,0.00399119,-1.35148,0.00316983,0.0122177,1490,1702,10.7439,-44.1511
273,-678,10.7635,43.829,0.00353221,0.0051234,-0.000315925,0.00518383,0.00347178,-1.3818,0.00304983,0.0114542,1497,1702,10.7636,-43.8289
280,-678,10.7524,43.504,0.00301405,0.00508821,-0.000403765,0.00516403,0.00293823,-1.38516,0.0029909,0.0118045,1504,1702,10.7525,-43.5041
287,-678,10.77,43.1112,0.00254621,0.00497231,-0.000487848,0.00506673,0.00245179,-1.37961,0.00292579,0.0113137,1511,1702,10.77,-43.1112
294,-678,10.7711,42.7205,0.002174,0.00487852,-0.000652234,0.0050276,0.00202492,-1.34609,0.00292092,0.0118802,1518,1702,10.7711,-42.7204
301,-678,10.7743,42.3597,0.00180131,0.00464021,-0.000798452,0.00484937,0.00159215,-1.3146,0.00285427,0.012034,1525,1702,10.7743,-42.3598
308,-678,10.7607,42.0074,0.0014364,0.0043807,-0.000935863,0.00465299,0.00116411,-1.28766,0.00279594,0.014061,1532,1702,10.7608,-42.0075
315,-678,10.7415,41.6355,0.00104542,0.003979,-0.000963641,0.00426722,0.0007572,-1.28017,0.00262902,0.014993,1539,1702,10.7415,-41.6355
322,-678,10.7159,41.2845,0.000665665,0.00365333,-0.000927644,0.00391793,0.000401073,-1.29294,0.00248905,0.0177055,1546,1702,10.716,-41.2846
329,-678,10.7043,40.8628,0.000319702,0.00322589,-0.000812833,0.00343778,0.00010781,-1.31579,0.00225678,0.0161769,1553,1702,10.7044,-40.8628
336,-678,10.7235,40.4379,4.55224e-05,0.00271528,-0.000656768,0.00286809,-0.000107297,-1.34218,0.00194881,0.0135949,1560,1702,10.7235,-40.4379
343,-678,10.7341,40.0194,0.000123398,0.00183008,-0.000419565,0.00192765,2.58308e-05,-1.34231,0.00127657,0.0129465,1567,1702,10.7342,-40.0194
350,-678,10.7264,39.6119,1.52252e-05,0.000979527,-0.00020701,0.00102209,-2.73359e-05,-1.36802,0.000690684,0.012775,1574,1702,10.7264,-39.6119
357,-678,10.6976,39.183,-1.01998e-05,0.000282686,1.72792e-05,0.000283702,-1.12157e-05,1.51207,0.000192982,0.00991784,1581,1702,10.6976,-39.183
364,-678,10.6775,38.7528,6.97874e-06,-0.000433371,0.000252498,0.000121815,-0.000548207,0.426838,0.000412122,0.0111637,1588,1702,10.6775,-38.7528
371,-678,10.6482,38.3344,0.000211482,-0.00125187,0.000606865,0.000430403,-0.00147079,0.346211,0.00115114,0.0119183,1595,1702,10.6482,-38.3344
378,-678,10.6229,37.8815,0.000759917,-0.00253582,0.00089716,0.000988312,-0.00276422,0.249281,0.00224594,0.0119669,1602,1702,10.6229,-37.8814
385,-678,10.6154,37.4243,0.00154335,-0.00364817,0.000788646,0.00166051,-0.00376533,0.147479,0.00321022,0.0122271,1609,1702,10.6154,-37.4244
392,-678,10.6604,37.0323,0.00220978,-0.0053136,0.000467319,0.00223869,-0.00534252,0.061799,0.00449763,0.0213417,1616,1702,10.6604,-37.0324
399,-678,10.6206,36.5955,0.00305182,-0.0069878,-4.73858e-05,0.00305204,-0.00698802,-0.00471974,0.00594325,0.0322143,1623,1702,10.6206,-36.5954
406,-678,10.5037,36.016,0.00394829,-0.00872256,-0.000642921,0.00398083,-0.0087551,-0.050567,0.00752334,0.036341,1630,1702,10.5037,-36.016
413,-678,10.4004,35.5668,0.00514192,-0.0105674,-0.00149747,0.00528339,-0.0107089,-0.094193,0.00940859,0.0441734,1637,1702,10.4003,-35.5668
420,-678,10.3177,35.0797,0,0,0,0,0,0,0,-1,1644,1702,10.3178,-35.0797
427,-678,4.57483,10.1555,0,0,0,0,0,0,0,-1,1651,1702,4.57485,-10.1555
434,-678,9.48169,21.6665,0,0,0,0,0,0,0,-1,1658,1702,9.48169,-21.6665
441,-678,8.64539,21.1864,0,0,0,0,0,0,0,-1,1665,1702,8.64536,-21.1865
448,-678,7.62244,20.7195,0,0,0,0,0,0,0,-1,1672,1702,7.6224,-20.7195
455,-678,5.44678,5.54297,0,0,0,0,0,0,0,-1,1679,1702,5.44676,-5.54294
462,-678,3.86792,2.87402,0,0,0,0,0,0,0,-1,1686,1702,3.86796,-2.87406
469,-678,2.26587,1.98755,0,0,0,0,0,0,0,-1,1693,1702,2.26592,-1.98755
476,-678,0,0,0,0,0,0,0,0,0,-1,1700,1702,0,0
483,-678,0,0,0,0,0,0,0,0,0,-1,1707,1702,0,0
490,-678,0,0,0,0,0,0,0,0,0,-1,1714,1702,0,0
497,-678,0,0,0,0,0,0,0,0,0,-1,1721,1702,0,0
504,-678,0,0,0,0,0,0,0,0,0,-1,1728,1702,0,0
511,-678,0,0,0,0,0,0,0,0,0,-1,1735,1702,0,0
518,-678,0,0,0,0,0,0,0,0,0,-1,1742,1702,0,0
525,-678,0,0,0,0,0,0,0,0,0,-1,1749,1702,0,0
532,-678,0,0,0,0,0,0,0,0,0,-1,1756,1702,0,0
539,-678,0,0,0,0,0,0,0,0,0,-1,1763,1702,0,0
546,-678,0,0,0,0,0,0,0,0,0,-1,1770,1702,0,0
553,-678,0,0,0,0,0,0,0,0,0,-1,1777,1702,0,0
560,-678,0,0,0,0,0,0,0,0,0,-1,1784,1702,0,0
567,-678,0,0,0,0,0,0,0,0,0,-1,1791,1702,0,0
574,-678,0,0,0,0,0,0,0,0,0,-1,1798,1702,0,0
581,-678,0,0,0,0,0,0,0,0,0,-1,1805,1702,0,0
588,-678,0,0,0,0,0,0,0,0,0,-1,1812,1702,0,0
595,-678,0,0,0,0,0,0,0,0,0,-1,1819,1702,0,0
602,-678,0,0,0,0,0,0,0,0,0,-1,1826,1702,0,0
609,-678,0,0,0,0,0,0,0,0,0,-1,1833,1702,0,0
616,-678,0,0,0,0,0,0,0,0,0,-1,1840,1702,0,0
623,-678,0,0,0,0,0,0,0,0,0,-1,1847,1702,0,0
630,-678,0,0,0,0,0,0,0,0,0,-1,1854,1702,0,0
637,-678,0,0,0,0,0,0,0,0,0,-1,1861,1702,0,0
644,-678,0,0,0,0,0,0,0,0,0,-1,1868,1702,0,0
651,-678,0,0,0,0,0,0,0,0,0,-1,1875,1702,0,0
658,-678,0,0,0,0,0,0,0,0,0,-1,1882,1702,0,0
665,-678,0,0,0,0,0,0,0,0,0,-1,1889,1702,0,0
672,-678,0,0,0,0,0,0,0,0,0,-1,1896,1702,0,0
679,-678,0,0,0,0,0,0,0,0,0,-1,1903,1702,0,0
686,-678,0,0,0,0,0,0,0,0,0,-1,1910,1702,0,0
693,-678,0,0,0,0,0,0,0,0,0,-1,1917,1702,0,0
700,-678,0,0,0,0,0,0,0,0,0,-1,1924,1702,0,0
707,-678,0,0,0,0,0,0,0,0,0,-1,1931,1702,0,0
714,-678,0,0,0,0,0,0,0,0,0,-1,1938,1702,0,0
721,-678,0,0,0,0,0,0,0,0,0,-1,1945,1702,0,0
728,-678,0,0,0,0,0,0,0,0,0,-1,1952,1702,0,0
735,-678,0,0,0,0,0,0,0,0,0,-1,1959,1702,0,0
742,-678,0,0,0,0,0,0,0,0,0,-1,1966,1702,0,0
749,-678,0,0,0,0,0,0,0,0,0,-1,1973,1702,0,0
756,-678,0,0,0,0,0,0,0,0,0,-1,1980,1702,0,0
763,-678,0,0,0,0,0,0,0,0,0,-1,1987,1702,0,0
770,-678,0,0,0,0,0,0,0,0,0,-1,1994,1702,0,0
777,-678,0,0,0,0,0,0,0,0,0,-1,2001,1702,0,0
784,-678,0,0,0,0,0,0,0,0,0,-1,2008,1702,0,0
791,-678,0,0,0,0,0,0,0,0,0,-1,2015,1702,0,0
798,-678,0,0,0,0,0,0,0,0,0,-1,2022,1702,0,0
805,-678,0,0,0,0,0,0,0,0,0,-1,2029,1702,0,0
812,-678,0,0,0,0,0,0,0,0,0,-1,2036,1702,0,0
-700,-685,0,0,0,0,0,0,0,0,0,-1,524,1709,0,0
-693,-685,0,0,0,0,0,0,0,0,0,-1,531,1709,0,0
-686,-685,0,0,0,0,0,0,0,0,0,-1,538,1709,0,0
-679,-685,0,0,0,0,0,0,0,0,0,-1,545,1709,0,0
-672,-685,0,0,0,0,0,0,0,0,0,-1,552,1709,0,0
-665,-685,0,0,0,0,0,0,0,0,0,-1,559,1709,0,0
-658,-685,0,0,0,0,0,0,0,0,0,-1,566,1709,0,0
-651,-685,0,0,0,0,0,0,0,0,0,-1,573,1709,0,0
-644,-685,0,0,0,0,0,0,0,0,0,-1,580,1709,0,0
-637,-685,0,0,0,0,0,0,0,0,0,-1,587,1709,0,0
-630,-685,0,0,0,0,0,0,0,0,0,-1,594,1709,0,0
-623,-685,0,0,0,0,0,0,0,0,0,-1,601,1709,0,0
-616,-685,0,0,0,0,0,0,0,0,0,-1,608,1709,0,0
-609,-685,0,0,0,0,0,0,0,0,0,-1,615,1709,0,0
-602,-685,0,0,0,0,0,0,0,0,0,-1,622,1709,0,0
-595,-685,0,0,0,0,0,0,0,0,0,-1,629,1709,0,0
-588,-685,0,0,0,0,0,0,0,0,0,-1,636,1709,0,0
-581,-685,0,0,0,0,0,0,0,0,0,-1,643,1709,0,0
-574,-685,0,0,0,0,0,0,0,0,0,-1,650,1709,0,0
-567,-685,0,0,0,0,0,0,0,0,0,-1,657,1709,0,0
-560,-685,0,0,0,0,0,0,0,0,0,-1,664,1709,0,0
-553,-685,0,0,0,0,0,0,0,0,0,-1,671,1709,0,0
-546,-685,0,0,0,0,0,0,0,0,0,-1,678,1709,0,0
-539,-685,0,0,0,0,0,0,0,0,0,-1,685,1709,0,0
-532,-685,0,0,0,0,0,0,0,0,0,-1,692,1709,0,0
-525,-685,0,0,0,0,0,0,0,0,0,-1,699,1709,0,0
-518,-685,0,0,0,0,0,0,0,0,0,-1,706,1709,0,0
-511,-685,0,0,0,0,0,0,0,0,0,-1,713,1709,0,0
-504,-685,0,0,0,0,0,0,0,0,0,-1,720,1709,0,0
-497,-685,0,0,0,0,0,0,0,0,0,-1,727,1709,0,0
-490,-685,0,0,0,0,0,0,0,0,0,-1,734,1709,0,0
-483,-685,0,0,0,0,0,0,0,0,0,-1,741,1709,0,0
-476,-685,0,0,0,0,0,0,0,0,0,-1,748,1709,0,0
-469,-685,0,0,0,0,0,0,0,0,0,-1,755,1709,0,0
-462,-685,0,0,0,0,0,0,0,0,0,-1,762,1709,0,0
-455,-685,0,0,0,0,0,0,0,0,0,-1,769,1709,0,0
-448,-685,0,0,0,0,0,0,0,0,0,-1,776,1709,0,0
-441,-685,0,0,0,0,0,0,0,0,0,-1,783,1709,0,0
-434,-685,0,0,0,0,0,0,0,0,0,-1,790,1709,0,0
-427,-685,0,0,0,0,0,0,0,0,0,-1,797,1709,0,0
-420,-685,0,0,0,0,0,0,0,0,0,-1,804,1709,0,0
-413,-685,0,0,0,0,0,0,0,0,0,-1,811,1709,0,0
-406,-685,0,0,0,0,0,0,0,0,0,-1,818,1709,0,0
-399,-685,0,0,0,0,0,0,0,0,0,-1,825,1709,0,0
-392,-685,0,0,0,0,0,0,0,0,0,-1,832,1709,0,0
-385,-685,0,0,0,0,0,0,0,0,0,-1,839,1709,0,0
-378,-685,0,0,0,0,0,0,0,0,0,-1,846,1709,0,0
-371,-685,0,0,0,0,0,0,0,0,0,-1,853,1709,0,0
-364,-685,0,0,0,0,0,0,0,0,0,-1,860,1709,0,0
-357,-685,0,0,0,0,0,0,0,0,0,-1,867,1709,0,0
-350,-685,0,0,0,0,0,0,0,0,0,-1,874,1709,0,0
-343,-685,-5.98505,6.56335,0,0,0,0,0,0,0,-1,881,1709,-5.98505,-6.56329
-336,-685,-6.51312,5.10571,0,0,0,0,0,0,0,-1,888,1709,-6.51311,-5.10575
-329,-685,-6.81384,3.34106,0,0,0,0,0,0,0,-1,895,1709,-6.81385,-3.341
-322,-685,3.83191,16.7219,0,0,0,0,0,0,0,-1,902,1709,3.8319,-16.7219
-315,-685,5.15784,21.4388,0,0,0,0,0,0,0,-1,909,1709,5.15783,-21.4389
-308,-685,6.36969,21.0303,0,0,0,0,0,0,0,-1,916,1709,6.36968,-21.0302
-301,-685,7.61694,31.947,0,0,0,0,0,0,0,-1,923,1709,7.61696,-31.9471
-294,-685,7.37,33.884,0,0,0,0,0,0,0,-1,930,1709,7.37,-33.884
-287,-685,7.43146,34.4681,0,0,0,0,0,0,0,-1,937,1709,7.43148,-34.4682
-280,-685,7.48529,34.9823,0,0,0,0,0,0,0,-1,944,1709,7.48527,-34.9823
-273,-685,7.57874,35.5433,0,0,0,0,0,0,0,-1,951,1709,7.57872,-35.5434
-266,-685,7.92303,36.083,-0.0125666,0.00995469,0.00494333,0.010992,-0.0136039,1.36397,0.0142271,0.0473407,958,1709,7.92301,-36.083
-259,-685,7.56061,36.9045,-0.0104069,0.00668526,0.0042369,0.00767789,-0.0113995,1.34067,0.011084,0.0457087,965,1709,7.56063,-36.9046
-252,-685,7.46698,37.2085,-0.00895904,0.00566892,0.002493,0.00608212,-0.00937224,1.40654,0.00898973,0.0401846,972,1709,7.46697,-37.2085
-245,-685,7.56207,37.6621,-0.00786808,0.00462559,0.00175965,0.00486869,-0.00811118,1.43351,0.00757147,0.0351923,979,1709,7.56209,-37.6621
-238,-685,7.45587,38.1865,-0.00666952,0.00378658,0.00128144,0.00394134,-0.00682428,1.45061,0.00628938,0.026317,986,1709,7.45589,-38.1866
-231,-685,7.37677,38.6812,-0.00545723,0.00296098,0.000977795,0.00307306,-0.00556931,1.45667,0.00505858,0.0162581,993,1709,7.37677,-38.6811
-224,-685,7.33386,39.1038,-0.00404125,0.00216441,0.000552037,0.00221314,-0.00408998,1.48276,0.00369249,0.0141427,1000,1709,7.33385,-39.1037
-217,-685,7.32434,39.5465,-0.00341082,0.00138416,0.000452549,0.0014265,-0.00345316,1.47751,0.00289714,0.0111214,1007,1709,7.32436,-39.5465
-210,-685,7.30975,40.0051,-0.00285114,0.000731155,0.000516881,0.000804243,-0.00292423,1.43033,0.00226566,0.0150223,1014,1709,7.30974,-40.0051
-203,-685,7.29126,40.4222,-0.00225163,0.000697082,0.00060575,0.00081667,-0.00237122,1.37588,0.00191208,0.0156048,1021,1709,7.29122,-40.4223
-196,-685,7.26782,40.8368,-0.0019352,0.000583227,0.0006939,0.00076176,-0.00211373,1.31897,0.00172025,0.0140034,1028,1709,7.26784,-40.8369
-189,-685,7.25952,41.2538,-0.00158812,0.000371115,0.000734135,0.000615673,-0.00183268,1.24923,0.00147061,0.00982929,1035,1709,7.25948,-41.2537
-182,-685,7.22754,41.6444,-0.00126517,0.000499419,0.000680981,0.000731655,-0.0014974,1.24213,0.00131202,0.0138846,1042,1709,7.22749,-41.6445
-175,-685,7.20239,42.0308,-0.000903905,0.000796574,0.000724243,0.00106322,-0.00117055,1.21802,0.00129017,0.0141154,1049,1709,7.2024,-42.0308
-168,-685,7.20032,42.4425,-0.000526409,0.00119057,0.000771962,0.00148661,-0.000822445,1.20461,0.00135139,0.0110766,1056,1709,7.20026,-42.4425
-161,-685,7.20276,42.8374,-9.72784e-05,0.00156122,0.000694846,0.00181385,-0.000349909,1.22208,0.00134117,0.0104664,1063,1709,7.20277,-42.8374
-154,-685,7.21155,43.22,0.000512574,0.00195679,0.000634595,0.00219601,0.000273355,1.2103,0.00138193,0.0100692,1070,1709,7.21152,-43.2199
-147,-685,7.19214,43.5728,0.00125599,0.00233011,0.000590221,0.00259105,0.000995058,1.15454,0.00150929,0.00991309,1077,1709,7.19216,-43.5727
-140,-685,7.19226,43.9115,0.00205187,0.00256797,0.000508972,0.00288057,0.00173927,1.02002,0.001675,0.01149,1084,1709,7.19228,-43.9115
-133,-685,7.21741,44.2518,0.00284338,0.00275577,0.000430996,0.00323279,0.00236636,0.734754,0.00193226,0.0106995,1091,1709,7.21737,-44.2518
-126,-685,7.22827,44.5782,0.00357682,0.00276536,0.000339388,0.00370005,0.00264213,0.3483,0.00220053,0.00913486,1098,1709,7.22821,-44.5783
-119,-685,7.24268,44.8992,0.00430179,0.0026178,0.000231969,0.00433316,0.00258643,0.134416,0.00251736,0.0127619,1105,1709,7.24268,-44.8992
-112,-685,7.26196,45.2096,0.00475078,0.00181744,9.66269e-05,0.00475396,0.00181426,0.0328933,0.00277022,0.0137739,1112,1709,7.26196,-45.2096
-105,-685,7.25024,45.5085,0.00499809,0.00106547,0.000169964,0.00500542,0.00105814,0.0431118,0.00304612,0.0155062,1119,1709,7.25029,-45.5085
-98,-685,7.33325,45.767,0.00538018,0.000746429,0.000136623,0.0053842,0.000742404,0.0294502,0.00336938,0.0214153,1126,1709,7.33319,-45.767
-91,-685,7.37598,45.9468,0.00600047,0.000292468,-9.58976e-06,0.00600049,0.000292452,-0.00168005,0.00390649,0.0400037,1133,1709,7.37599,-45.9467
-84,-685,7.39087,46.262,0,0,0,0,0,0,0,-1,1140,1709,7.39085,-46.2619
-77,-685,7.36902,46.6772,0,0,0,0,0,0,0,-1,1147,1709,7.36906,-46.6772
-70,-685,7.56409,47.2496,0,0,0,0,0,0,0,-1,1154,1709,7.56412,-47.2497
-63,-685,6.03015,29.7728,0,0,0,0,0,0,0,-1,1161,1709,6.0302,-29.7728
-56,-685,3.93909,15.8704,0,0,0,0,0,0,0,-1,1168,1709,3.93905,-15.8704
-49,-685,3.07471,9.86011,0,0,0,0,0,0,0,-1,1175,1709,3.07467,-9.86009
-42,-685,2.70618,7.54504,0,0,0,0,0,0,0,-1,1182,1709,2.7062,-7.54504
-35,-685,2.95264,7.91516,0,0,0,0,0,0,0,-1,1189,1709,2.95262,-7.91517
-28,-685,7.88257,48.2609,0,0,0,0,0,0,0,-1,1196,1709,7.88255,-48.2609
-21,-685,8.04443,48.0427,0,0,0,0,0,0,0,-1,1203,1709,8.0444,-48.0427
-14,-685,8.06641,48.261,0.0479331,0.0186369,0.0174063,0.0560346,0.0105354,0.435617,0.0343869,0.0300341,1210,1709,8.06646,-48.261
-7,-685,8.09058,48.4692,0.0466669,0.0241402,0.0178661,0.0565237,0.0142834,0.50415,0.0339384,0.0437792,1217,1709,8.09054,-48.4692
0,-685,7.92468,48.652,0,0,0,0,0,0,0,-1,1224,1709,7.92468,-48.652
7,-685,8.15149,48.7361,0,0,0,0,0,0,0,-1,1231,1709,8.15144,-48.7361
14,-685,8.69238,49.3958,0,0,0,0,0,0,0,-1,1238,1709,8.69234,-49.3957
21,-685,8.66064,49.3986,0.0323805,0.0442098,0.013413,0.0529543,0.023636,0.993055,0.0306318,0.0462809,1245,1709,8.66065,-49.3986
28,-685,8.69507,49.4104,0.027933,0.0472863,0.0111993,0.0524104,0.022809,1.14169,0.0303437,0.0485601,1252,1709,8.69503,-49.4103
35,-685,8.81775,49.3661,0.0234645,0.0496113,0.00853894,0.0521529,0.020923,1.2815,0.0303059,0.0480623,1259,1709,8.81772,-49.3661
42,-685,8.88281,49.5249,0,0,0,0,0,0,0,-1,1266,1709,8.88279,-49.5249
49,-685,8.88013,48.3651,0,0,0,0,0,0,0,-1,1273,1709,8.88014,-48.3651
56,-685,8.67102,49.0103,0.0126271,0.0464211,0.00140292,0.0464792,0.012569,1.52938,0.0277617,0.0467919,1280,1709,8.67104,-49.0102
63,-685,8.74182,49.2262,0.0118251,0.0421447,-0.000186878,0.0421458,0.011824,-1.56463,0.025102,0.045653,1287,1709,8.74185,-49.2262
70,-685,8.81372,49.2268,0.0122829,0.0401063,-0.00284321,0.0403938,0.0119954,-1.47,0.0239538,0.0496033,1294,1709,8.81367,-49.2268
77,-685,9.33276,49.4767,0,0,0,0,0,0,0,-1,1301,1709,9.33278,-49.4767
84,-685,8.5105,47.2998,0,0,0,0,0,0,0,-1,1308,1709,8.51052,-47.2998
91,-685,9.61487,48.9539,0,0,0,0,0,0,0,-1,1315,1709,9.61492,-48.9538
98,-685,9.37195,48.9091,0,0,0,0,0,0,0,-1,1322,1709,9.37196,-48.9091
105,-685,9.50476,48.6443,0,0,0,0,0,0,0,-1,1329,1709,9.50474,-48.6442
112,-685,9.69861,48.3806,0.0306194,0.0192525,-0.00231272,0.031072,0.0188,-0.193229,0.0180709,0.0443842,1336,1709,9.69863,-48.3806
119,-685,9.86438,48.2521,0.0338206,0.0174879,-0.00117558,0.0339048,0.0174037,-0.0714857,0.0195773,0.0423238,1343,1709,9.8644,-48.2521
126,-685,9.82751,48.1792,0.036437,0.0153244,-0.000274207,0.0364406,0.0153208,-0.0129849,0.0211276,0.0477538,1350,1709,9.82756,-48.1792
133,-685,9.87048,48.266,0,0,0,0,0,0,0,-1,1357,1709,9.87047,-48.266
140,-685,9.86731,48.3284,0,0,0,0,0,0,0,-1,1364,1709,9.86731,-48.3284
147,-685,9.96692,48.4669,0,0,0,0,0,0,0,-1,1371,1709,9.96686,-48.4669
154,-685,9.84277,48.1791,0,0,0,0,0,0,0,-1,1378,1709,9.84283,-48.1791
161,-685,10.1392,48.1376,0,0,0,0,0,0,0,-1,1385,1709,10.1392,-48.1375
168,-685,4.37524,10.8778,0,0,0,0,0,0,0,-1,1392,1709,4.37525,-10.8778
175,-685,3.97522,8.94324,0,0,0,0,0,0,0,-1,1399,1709,3.97519,-8.94328
182,-685,3.98218,9.19739,0,0,0,0,0,0,0,-1,1406,1709,3.98221,-9.1974
189,-685,4.53479,15.2343,0,0,0,0,0,0,0,-1,1413,1709,4.53474,-15.2343
196,-685,10.1083,47.1884,0,0,0,0,0,0,0,-1,1420,1709,10.1083,-47.1883
203,-685,10.1689,46.8912,0,0,0,0,0,0,0,-1,1427,1709,10.1689,-46.8913
210,-685,10.3534,46.5306,0,0,0,0,0,0,0,-1,1434,1709,10.3534,-46.5306
217,-685,10.281,46.1621,0,0,0,0,0,0,0,-1,1441,1709,10.2811,-46.1621
224,-685,10.2296,45.9672,0,0,0,0,0,0,0,-1,1448,1709,10.2296,-45.9671
231,-685,10.2069,45.892,0,0,0,0,0,0,0,-1,1455,1709,10.2069,-45.892
238,-685,10.3463,45.4005,0.00377229,0.00221563,0.000584794,0.0039675,0.00202042,0.322181,0.00229077,0.024025,1462,1709,10.3464,-45.4005
245,-685,10.3555,45.0692,0.00354431,0.0028782,0.00038785,0.00372249,0.00270003,0.430631,0.00222073,0.0203462,1469,1709,10.3554,-45.0692
252,-685,10.3942,44.7988,0.00329828,0.00335489,6.47179e-05,0.00339722,0.00325595,0.991572,0.00221922,0.014999,1476,1709,10.3941,-44.7989
259,-685,10.4008,44.5033,0.00307089,0.0034273,-0.000303624,0.00360115,0.00289704,-1.05077,0.00220388,0.0108601,1483,1709,10.4008,-44.5033
266,-685,10.4076,44.1719,0.00284558,0.0034136,-0.000559123,0.00375671,0.00250247,-1.02039,0.00220849,0.0123161,1490,1709,10.4076,-44.1718
273,-685,10.4186,43.8337,0.00254989,0.00333354,-0.000709086,0.00375186,0.00213158,-1.03781,0.00217283,0.0158358,1497,1709,10.4186,-43.8338
280,-685,10.4001,43.4951,0.00219179,0.00327159,-0.00086497,0.00375133,0.00171205,-1.0644,0.00216858,0.0174414,1504,1709,10.4001,-43.4951
287,-685,10.4066,43.146,0.0018453,0.0032127,-0.000994552,0.00373589,0.00132211,-1.08652,0.0021874,0.0118906,1511,1709,10.4067,-43.146
294,-685,10.4083,42.7709,0.00149924,0.00326705,-0.00110499,0.00379817,0.000968127,-1.12274,0.00227901,0.0107394,1518,1709,10.4083,-42.7709
301,-685,10.4092,42.379,0.00113291,0.00322586,-0.00120775,0.00377744,0.000581325,-1.14239,0.00234862,0.0132439,1525,1709,10.4092,-42.379
308,-685,10.4038,42.0125,0.000735282,0.00313194,-0.00129587,0.00369863,0.000168597,-1.15855,0.00241152,0.0150162,1532,1709,10.4038,-42.0125
315,-685,10.3984,41.6571,0.000273831,0.00294597,-0.0012513,0.00344043,-0.00022063,-1.19447,0.00237059,0.0137364,1539,1709,10.3985,-41.6571
322,-685,10.3538,41.2644,-0.000156922,0.00288783,-0.00114852,0.00327247,-0.00054157,-1.24763,0.00238278,0.0209039,1546,1709,10.3537,-41.2644
329,-685,10.3384,40.8699,-0.000534827,0.00279322,-0.000948022,0.00304433,-0.000785933,-1.31187,0.00233602,0.0191695,1553,1709,10.3384,-40.8698
336,-685,10.3347,40.4382,-0.000751138,0.00243253,-0.00074157,0.00259679,-0.000915396,-1.35281,0.00210379,0.0136655,1560,1709,10.3347,-40.4382
343,-685,10.3077,40.0228,-0.000535205,0.0016245,-0.000377547,0.0016886,-0.000599303,-1.40262,0.00136992,0.0122389,1567,1709,10.3077,-40.0228
350,-685,10.3009,39.6061,-0.000559436,0.00083887,-3.75029e-05,0.000839875,-0.000560441,-1.544,0.000813821,0.0128496,1574,1709,10.3008,-39.6061
357,-685,10.2827,39.2063,-0.000445718,0.000182859,0.000289051,0.000295569,-0.000558428,1.199,0.00050078,0.0107821,1581,1709,10.2827,-39.2064
364,-685,10.2506,38.806,-0.000238566,-0.000553667,0.000600458,0.000224667,-0.0010169,0.657098,0.000763915,0.0111578,1588,1709,10.2506,-38.8061
371,-685,10.2603,38.3754,0.000215972,-0.00142942,0.00108583,0.000755571,-0.00196902,0.461203,0.00162421,0.0191681,1595,1709,10.2602,-38.3753
378,-685,10.2576,37.8981,0.00106119,-0.00297778,0.00157764,0.00160437,-0.00352096,0.331589,0.00302729,0.0224258,1602,1709,10.2575,-37.898
385,-685,10.2268,37.4988,0.00225963,-0.00420036,0.00156202,0.0026175,-0.00455823,0.22522,0.00419311,0.0322342,1609,1709,10.2268,-37.4988
392,-685,10.3958,37.3009,0.00333998,-0.00604991,0.00124745,0.00350288,-0.0062128,0.12985,0.00568162,0.035216,1616,1709,10.3957,-37.3009
399,-685,10.0802,36.3977,0,0,0,0,0,0,0,-1,1623,1709,10.0802,-36.3976
406,-685,9.98596,35.6792,0,0,0,0,0,0,0,-1,1630,1709,9.98594,-35.6792
413,-685,9.90112,35.5156,0,0,0,0,0,0,0,-1,1637,1709,9.90111,-35.5156
420,-685,4.84631,10.3781,0,0,0,0,0,0,0,-1,1644,1709,4.84634,-10.378
427,-685,6.05151,9.21155,0,0,0,0,0,0,0,-1,1651,1709,6.05156,-9.21156
434,-685,4.87769,8.91418,0,0,0,0,0,0,0,-1,1658,1709,4.87768,-8.91413
441,-685,5.62,8.75549,0,0,0,0,0,0,0,-1,1665,1709,5.61996,-8.75545
448,-685,6.4043,8.58972,0,0,0,0,0,0,0,-1,1672,1709,6.40435,-8.58971
455,-685,2.31958,4.09802,0,0,0,0,0,0,0,-1,1679,1709,2.31957,-4.09803
462,-685,0,0,0,0,0,0,0,0,0,-1,1686,1709,0,0
469,-685,0,0,0,0,0,0,0,0,0,-1,1693,1709,0,0
476,-685,0,0,0,0,0,0,0,0,0,-1,1700,1709,0,0
483,-685,0,0,0,0,0,0,0,0,0,-1,1707,1709,0,0
490,-685,0,0,0,0,0,0,0,0,0,-1,1714,1709,0,0
497,-685,0,0,0,0,0,0,0,0,0,-1,1721,1709,0,0
504,-685,0,0,0,0,0,0,0,0,0,-1,1728,1709,0,0
511,-685,0,0,0,0,0,0,0,0,0,-1,1735,1709,0,0
518,-685,0,0,0,0,0,0,0,0,0,-1,1742,1709,0,0
525,-685,0,0,0,0,0,0,0,0,0,-1,1749,1709,0,0
532,-685,0,0,0,0,0,0,0,0,0,-1,1756,1709,0,0
539,-685,0,0,0,0,0,0,0,0,0,-1,1763,1709,0,0
546,-685,0,0,0,0,0,0,0,0,0,-1,1770,1709,0,0
553,-685,0,0,0,0,0,0,0,0,0,-1,1777,1709,0,0
560,-685,0,0,0,0,0,0,0,0,0,-1,1784,1709,0,0
567,-685,0,0,0,0,0,0,0,0,0,-1,1791,1709,0,0
574,-685,0,0,0,0,0,0,0,0,0,-1,1798,1709,0,0
581,-685,0,0,0,0,0,0,0,0,0,-1,1805,1709,0,0
588,-685,0,0,0,0,0,0,0,0,0,-1,1812,1709,0,0
595,-685,0,0,0,0,0,0,0,0,0,-1,1819,1709,0,0
602,-685,0,0,0,0,0,0,0,0,0,-1,1826,1709,0,0
609,-685,0,0,0,0,0,0,0,0,0,-1,1833,1709,0,0
616,-685,0,0,0,0,0,0,0,0,0,-1,1840,1709,0,0
623,-685,0,0,0,0,0,0,0,0,0,-1,1847,1709,0,0
630,-685,0,0,0,0,0,0,0,0,0,-1,1854,1709,0,0
637,-685,0,0,0,0,0,0,0,0,0,-1,1861,1709,0,0
644,-685,0,0,0,0,0,0,0,0,0,-1,1868,1709,0,0
651,-685,0,0,0,0,0,0,0,0,0,-1,1875,1709,0,0
658,-685,0,0,0,0,0,0,0,0,0,-1,1882,1709,0,0
665,-685,0,0,0,0,0,0,0,0,0,-1,1889,1709,0,0
672,-685,0,0,0,0,0,0,0,0,0,-1,1896,1709,0,0
679,-685,0,0,0,0,0,0,0,0,0,-1,1903,1709,0,0
686,-685,0,0,0,0,0,0,0,0,0,-1,1910,1709,0,0
693,-685,0,0,0,0,0,0,0,0,0,-1,1917,1709,0,0
700,-685,0,0,0,0,0,0,0,0,0,-1,1924,1709,0,0
707,-685,0,0,0,0,0,0,0,0,0,-1,1931,1709,0,0
714,-685,0,0,0,0,0,0,0,0,0,-1,1938,1709,0,0
721,-685,0,0,0,0,0,0,0,0,0,-1,1945,1709,0,0
728,-685,0,0,0,0,0,0,0,0,0,-1,1952,1709,0,0
735,-685,0,0,0,0,0,0,0,0,0,-1,1959,1709,0,0
742,-685,0,0,0,0,0,0,0,0,0,-1,1966,1709,0,0
749,-685,0,0,0,0,0,0,0,0,0,-1,1973,1709,0,0
756,-685,0,0,0,0,0,0,0,0,0,-1,1980,1709,0,0
763,-685,0,0,0,0,0,0,0,0,0,-1,1987,1709,0,0
770,-685,0,0,0,0,0,0,0,0,0,-1,1994,1709,0,0
777,-685,0,0,0,0,0,0,0,0,0,-1,2001,1709,0,0
784,-685,0,0,0,0,0,0,0,0,0,-1,2008,1709,0,0
791,-685,0,0,0,0,0,0,0,0,0,-1,2015,1709,0,0
798,-685,0,0,0,0,0,0,0,0,0,-1,2022,1709,0,0
805,-685,0,0,0,0,0,0,0,0,0,-1,2029,1709,0,0
812,-685,0,0,0,0,0,0,0,0,0,-1,2036,1709,0,0
-700,-692,0,0,0,0,0,0,0,0,0,-1,524,1716,0,0
-693,-692,0,0,0,0,0,0,0,0,0,-1,531,1716,0,0
-686,-692,0,0,0,0,0,0,0,0,0,-1,538,1716,0,0
-679,-692,0,0,0,0,0,0,0,0,0,-1,545,1716,0,0
-672,-692,0,0,0,0,0,0,0,0,0,-1,552,1716,0,0
-665,-692,0,0,0,0,0,0,0,0,0,-1,559,1716,0,0
-658,-692,0,0,0,0,0,0,0,0,0,-1,566,1716,0,0
-651,-692,0,0,0,0,0,0,0,0,0,-1,573,1716,0,0
-644,-692,0,0,0,0,0,0,0,0,0,-1,580,1716,0,0
-637,-692,0,0,0,0,0,0,0,0,0,-1,587,1716,0,0
-630,-692,0,0,0,0,0,0,0,0,0,-1,594,1716,0,0
-623,-692,0,0,0,0,0,0,0,0,0,-1,601,1716,0,0
-616,-692,0,0,0,0,0,0,0,0,0,-1,608,1716,0,0
-609,-692,0,0,0,0,0,0,0,0,0,-1,615,1716,0,0
-602,-692,0,0,0,0,0,0,0,0,0,-1,622,1716,0,0
-595,-692,0,0,0,0,0,0,0,0,0,-1,629,1716,0,0
-588,-692,0,0,0,0,0,0,0,0,0,-1,636,1716,0,0
-581,-692,0,0,0,0,0,0,0,0,0,-1,643,1716,0,0
-574,-692,0,0,0,0,0,0,0,0,0,-1,650,1716,0,0
-567,-692,0,0,0,0,0,0,0,0,0,-1,657,1716,0,0
-560,-692,0,0,0,0,0,0,0,0,0,-1,664,1716,0,0
-553,-692,0,0,0,0,0,0,0,0,0,-1,671,1716,0,0
-546,-692,0,0,0,0,0,0,0,0,0,-1,678,1716,0,0
-539,-692,0,0,0,0,0,0,0,0,0,-1,685,1716,0,0
-532,-692,0,0,0,0,0,0,0,0,0,-1,692,1716,0,0
-525,-692,0,0,0,0,0,0,0,0,0,-1,699,1716,0,0
-518,-692,0,0,0,0,0,0,0,0,0,-1,706,1716,0,0
-511,-692,0,0,0,0,0,0,0,0,0,-1,713,1716,0,0
-504,-692,0,0,0,0,0,0,0,0,0,-1,720,1716,0,0
-497,-692,0,0,0,0,0,0,0,0,0,-1,727,1716,0,0
-490,-692,0,0,0,0,0,0,0,0,0,-1,734,1716,0,0
-483,-692,0,0,0,0,0,0,0,0,0,-1,741,1716,0,0
-476,-692,0,0,0,0,0,0,0,0,0,-1,748,1716,0,0
-469,-692,0,0,0,0,0,0,0,0,0,-1,755,1716,0,0
-462,-692,0,0,0,0,0,0,0,0,0,-1,762,1716,0,0
-455,-692,0,0,0,0,0,0,0,0,0,-1,769,1716,0,0
-448,-692,0,0,0,0,0,0,0,0,0,-1,776,1716,0,0
-441,-692,0,0,0,0,0,0,0,0,0,-1,783,1716,0,0
-434,-692,0,0,0,0,0,0,0,0,0,-1,790,1716,0,0
-427,-692,0,0,0,0,0,0,0,0,0,-1,797,1716,0,0
-420,-692,0,0,0,0,0,0,0,0,0,-1,804,1716,0,0
-413,-692,0,0,0,0,0,0,0,0,0,-1,811,1716,0,0
-406,-692,0,0,0,0,0,0,0,0,0,-1,818,1716,0,0
-399,-692,0,0,0,0,0,0,0,0,0,-1,825,1716,0,0
-392,-692,0,0,0,0,0,0,0,0,0,-1,832,1716,0,0
-385,-692,0,0,0,0,0,0,0,0,0,-1,839,1716,0,0
-378,-692,0,0,0,0,0,0,0,0,0,-1,846,1716,0,0
-371,-692,0,0,0,0,0,0,0,0,0,-1,853,1716,0,0
-364,-692,0,0,0,0,0,0,0,0,0,-1,860,1716,0,0
-357,-692,0,0,0,0,0,0,0,0,0,-1,867,1716,0,0
-350,-692,0,0,0,0,0,0,0,0,0,-1,874,1716,0,0
-343,-692,0,0,0,0,0,0,0,0,0,-1,881,1716,0,0
-336,-692,0,0,0,0,0,0,0,0,0,-1,888,1716,0,0
-329,-692,3.03107,4.10266,0,0,0,0,0,0,0,-1,895,1716,3.03105,-4.10267
-322,-692,4.43713,18.5242,0,0,0,0,0,0,0,-1,902,1716,4.43711,-18.5241
-315,-692,5.38965,17.975,0,0,0,0,0,0,0,-1,909,1716,5.38963,-17.975
-308,-692,5.86938,17.4392,0,0,0,0,0,0,0,-1,916,1716,5.86937,-17.4392
-301,-692,8.65558,20.7662,0,0,0,0,0,0,0,-1,923,1716,8.65556,-20.7663
-294,-692,9.79822,33.7345,0,0,0,0,0,0,0,-1,930,1716,9.79822,-33.7345
-287,-692,7.73743,34.0745,0,0,0,0,0,0,0,-1,937,1716,7.73745,-34.0745
-280,-692,8.31543,34.6213,0,0,0,0,0,0,0,-1,944,1716,8.31541,-34.6213
-273,-692,7.6499,34.1681,0,0,0,0,0,0,0,-1,951,1716,7.64991,-34.1681
-266,-692,8.96228,35.873,0,0,0,0,0,0,0,-1,958,1716,8.96227,-35.873
-259,-692,8.05859,37.0052,0,0,0,0,0,0,0,-1,965,1716,8.05859,-37.0053
-252,-692,7.86115,37.1293,0,0,0,0,0,0,0,-1,972,1716,7.86114,-37.1292
-245,-692,8.31561,37.2878,-0.00995631,0.00624218,0.00209262,0.00650815,-0.0102223,1.44437,0.00973834,0.0467402,979,1716,8.31562,-37.2878
-238,-692,8.08777,38.1042,-0.00849866,0.00499815,0.00148934,0.00516054,-0.00866105,1.46219,0.00806476,0.0430754,986,1716,8.08779,-38.1043
-231,-692,7.90332,38.7307,-0.0069429,0.00382465,0.00114836,0.00394576,-0.00706401,1.46572,0.00644092,0.0374122,993,1716,7.90331,-38.7307
-224,-692,7.78265,39.1357,-0.00518475,0.00268492,0.000634638,0.00273577,-0.0052356,1.49084,0.0046771,0.018947,1000,1716,7.78264,-39.1357
-217,-692,7.75922,39.5499,-0.00464538,0.0013292,0.000487786,0.00136876,-0.00468494,1.48987,0.00366574,0.0125627,1007,1716,7.75922,-39.5499
-210,-692,7.73883,39.999,-0.00420724,0.00020669,0.000531753,0.000269848,-0.0042704,1.45258,0.00294101,0.0130151,1014,1716,7.73881,-39.999
-203,-692,7.71851,40.4247,-0.00365642,-5.25031e-05,0.000614407,4.93637e-05,-0.00375829,1.40649,0.00252214,0.0151074,1021,1716,7.71855,-40.4247
-196,-692,7.67542,40.8669,-0.00343723,-0.000414364,0.000689453,-0.000264539,-0.00358705,1.35681,0.00230825,0.0181222,1028,1716,7.67537,-40.8669
-189,-692,7.63342,41.2543,-0.00315956,-0.000841965,0.000722557,-0.000635149,-0.00336638,1.29202,0.00206535,0.0097149,1035,1716,7.63337,-41.2542
-182,-692,7.60071,41.6635,-0.00291791,-0.000831571,0.000658016,-0.000641376,-0.0031081,1.28942,0.00189481,0.0139886,1042,1716,7.6007,-41.6635
-175,-692,7.56287,42.0778,-0.00262455,-0.000587374,0.00071296,-0.000362646,-0.00284928,1.26545,0.00179092,0.0149171,1049,1716,7.56289,-42.0777
-168,-692,7.58252,42.4354,-0.00228092,-0.00026332,0.000773489,-9.15024e-07,-0.00254332,1.24373,0.00169524,0.0115767,1056,1716,7.58249,-42.4355
-161,-692,7.5979,42.8406,-0.00187272,0.000129295,0.000698098,0.00034868,-0.00209211,1.26631,0.00152432,0.0130053,1063,1716,7.59795,-42.8406
-154,-692,7.57825,43.2424,-0.00125643,0.000568673,0.00066647,0.000786136,-0.00147389,1.2554,0.00132481,0.0144737,1070,1716,7.5782,-43.2424
-147,-692,7.55457,43.5894,-0.000469638,0.00100778,0.000662734,0.0012615,-0.000723354,1.20518,0.00115991,0.0142094,1077,1716,7.55457,-43.5894
-140,-692,7.54163,43.9237,0.000388705,0.00135063,0.000613875,0.00164952,8.98167e-05,1.11769,0.001071,0.0103558,1084,1716,7.54159,-43.9238
-133,-692,7.55115,44.2629,0.00124405,0.00161703,0.000564627,0.00202517,0.000835915,0.944902,0.00117515,0.0094607,1091,1716,7.55109,-44.2629
-126,-692,7.55933,44.5867,0.00199743,0.00178413,0.000501774,0.00240376,0.0013778,0.68068,0.00139276,0.00756119,1098,1716,7.55929,-44.5867
-119,-692,7.55432,44.92,0.00270165,0.001839,0.000446686,0.00289126,0.00164938,0.401446,0.00167479,0.0108313,1105,1716,7.55431,-44.92
-112,-692,7.57349,45.2059,0.00322099,0.00144545,0.000340303,0.00328398,0.00138246,0.183023,0.00190389,0.0109354,1112,1716,7.57344,-45.206
-105,-692,7.61523,45.4818,0.00352381,0.000941806,0.000286902,0.00355531,0.000910311,0.109339,0.00213255,0.0164066,1119,1716,7.61521,-45.4818
-98,-692,7.64563,45.7776,0.0038782,0.000662132,0.000225216,0.0038939,0.000646437,0.0695759,0.00240953,0.0187946,1126,1716,7.64567,-45.7775
-91,-692,7.62085,46.0375,0.00437102,0.000317931,9.95962e-05,0.00437346,0.000315485,0.0245532,0.00281638,0.0204484,1133,1716,7.62079,-46.0374
-84,-692,7.66956,46.2998,0.00484869,0.000263998,2.97967e-05,0.00484888,0.000263804,0.0064988,0.00314834,0.0239357,1140,1716,7.66955,-46.2998
-77,-692,7.65991,46.6357,0.00525796,0.000611864,-0.000333858,0.00528183,0.000587996,-0.0713691,0.0033425,0.0189998,1147,1716,7.65991,-46.6358
-70,-692,7.73889,46.9821,0.00555649,0.000457097,-0.000776571,0.00567213,0.000341458,-0.147824,0.0036729,0.035631,1154,1716,7.7389,-46.982
-63,-692,7.79785,47.0288,0,0,0,0,0,0,0,-1,1161,1716,7.79789,-47.0288
-56,-692,7.76746,47.2189,0,0,0,0,0,0,0,-1,1168,1716,7.76749,-47.2188
-49,-692,7.77991,47.5293,0,0,0,0,0,0,0,-1,1175,1716,7.77996,-47.5292
-42,-692,7.87415,47.8572,0,0,0,0,0,0,0,-1,1182,1716,7.87417,-47.8572
-35,-692,8.10486,48.2286,0,0,0,0,0,0,0,-1,1189,1716,8.10482,-48.2286
-28,-692,8.00574,48.2136,0.0323547,0.00700613,0.010715,0.0362771,0.00308375,0.350913,0.0232252,0.0488575,1196,1716,8.00568,-48.2136
-21,-692,8.08191,48.1642,0.0338427,0.00944654,0.011566,0.0384543,0.00483493,0.379403,0.0241862,0.0332627,1203,1716,8.08196,-48.1642
-14,-692,8.13086,48.2826,0.0341612,0.0127035,0.0122254,0.0396979,0.00716675,0.425251,0.0244293,0.0165548,1210,1716,8.13089,-48.2826
-7,-692,8.16772,48.4795,0.033715,0.0170141,0.0127482,0.0406042,0.0101249,0.495448,0.0244049,0.0156846,1217,1716,8.16776,-48.4795
0,-692,8.20386,48.6306,0.0324303,0.0218683,0.0131561,0.0413258,0.0129728,0.594539,0.024404,0.019564,1224,1716,8.20382,-48.6306
7,-692,8.27942,48.6964,0.0302454,0.0266271,0.0124976,0.0410641,0.0158084,0.713519,0.0239166,0.0238697,1231,1716,8.27941,-48.6964
14,-692,8.42395,48.9712,0.0276525,0.0305013,0.011225,0.0403919,0.0177619,0.848507,0.0233766,0.028335,1238,1716,8.42392,-48.9712
21,-692,8.56567,49.0955,0.0245933,0.0335232,0.00985045,0.0398734,0.0182431,0.998185,0.0230486,0.028897,1245,1716,8.56563,-49.0954
28,-692,8.60791,49.0328,0.0214821,0.0364043,0.00822734,0.0400498,0.0178366,1.1537,0.0231688,0.0297086,1252,1716,8.60788,-49.0328
35,-692,8.63062,49.1064,0.0183069,0.0387911,0.00621095,0.0405272,0.0165709,1.29823,0.0235275,0.0281605,1259,1716,8.63063,-49.1064
42,-692,8.68335,49.296,0.0154345,0.0391857,0.00422951,0.0399164,0.0147038,1.39972,0.0233104,0.0265535,1266,1716,8.68331,-49.296
49,-692,8.76624,49.3207,0.0122905,0.0386041,0.00226135,0.038797,0.0120976,1.48569,0.0229222,0.0350833,1273,1716,8.76628,-49.3206
56,-692,8.80542,49.2045,0.0104766,0.0364779,0.000577979,0.0364907,0.0104638,1.54858,0.0216972,0.0468904,1280,1716,8.80538,-49.2044
63,-692,8.83521,49.1592,0.0101007,0.0329142,-0.000675912,0.0329342,0.0100807,-1.5412,0.0194854,0.048069,1287,1716,8.83516,-49.1592
70,-692,8.98914,49.2581,0.0104872,0.030876,-0.00268918,0.0312247,0.0101385,-1.44184,0.0183932,0.0405868,1294,1716,8.98919,-49.258
77,-692,9.10291,49.2672,0.0121671,0.0272005,-0.00337239,0.0279224,0.0114452,-1.35993,0.016208,0.044016,1301,1716,9.10294,-49.2672
84,-692,8.94153,49.0306,0,0,0,0,0,0,0,-1,1308,1716,8.94157,-49.0306
91,-692,9.1062,49.0568,0.016191,0.0193173,-0.00321824,0.0213319,0.0141764,-1.01147,0.0125364,0.0479151,1315,1716,9.10616,-49.0567
98,-692,9.24658,48.9504,0.0186018,0.015858,-0.00277119,0.0203221,0.0141377,-0.555549,0.0120288,0.0372579,1322,1716,9.24657,-48.9504
105,-692,9.32642,48.8066,0.021139,0.0132409,-0.00229432,0.0217571,0.0126228,-0.263158,0.0126152,0.0424374,1329,1716,9.32638,-48.8067
112,-692,9.45471,48.7056,0.0235506,0.0112487,-0.00121643,0.0236697,0.0111296,-0.0976219,0.0136738,0.0427921,1336,1716,9.45474,-48.7056
119,-692,9.45313,48.6046,0.0255586,0.00978519,-4.36591e-05,0.0255588,0.00978507,-0.00276786,0.0148908,0.037436,1343,1716,9.45309,-48.6046
126,-692,9.51477,48.4706,0.0271512,0.00820406,0.000907065,0.0271945,0.00816074,0.0477281,0.0161136,0.0396314,1350,1716,9.51473,-48.4706
133,-692,9.60547,48.4009,0.0279833,0.00613324,0.00202754,0.0281699,0.00594669,0.0917495,0.017145,0.0306892,1357,1716,9.60549,-48.4009
140,-692,9.60767,48.426,0.0281551,0.00398819,0.00313694,0.0285557,0.00358765,0.126999,0.0179611,0.0347797,1364,1716,9.60761,-48.426
147,-692,9.68457,48.3676,0.0276083,0.00308138,0.0040842,0.0282705,0.00241916,0.160743,0.0180946,0.0401773,1371,1716,9.68459,-48.3675
154,-692,9.63184,48.1375,0.0269274,0.00111269,0.0046566,0.0277417,0.000298396,0.173119,0.0183958,0.0341388,1378,1716,9.63181,-48.1374
161,-692,9.81616,48.0601,0.0245462,-0.000137443,0.00563427,0.0257715,-0.0013627,0.214131,0.0176527,0.0420699,1385,1716,9.81618,-48.06
168,-692,9.79248,47.868,0,0,0,0,0,0,0,-1,1392,1716,9.79243,-47.8681
175,-692,9.92261,47.6598,0,0,0,0,0,0,0,-1,1399,1716,9.92257,-47.6598
182,-692,9.89026,47.4279,0,0,0,0,0,0,0,-1,1406,1716,9.89023,-47.4278
189,-692,10.0138,47.2401,0,0,0,0,0,0,0,-1,1413,1716,10.0138,-47.2402
196,-692,9.88843,46.9656,0.0071383,-0.000338832,0.00421319,0.00903248,-0.00223302,0.422508,0.00688773,0.0374839,1420,1716,9.88842,-46.9656
203,-692,9.92017,46.7662,0.004695,0.00076709,0.00236177,0.0058027,-0.000340615,0.438553,0.00398686,0.0255207,1427,1716,9.92011,-46.7663
210,-692,10.0017,46.5244,0.00396639,0.000662485,0.00210469,0.00499,-0.000361132,0.452668,0.00345335,0.0208226,1434,1716,10.0017,-46.5244
217,-692,9.98523,46.2322,0.00311025,0.000334883,0.00154,0.00379555,-0.000350417,0.418688,0.00265489,0.0174092,1441,1716,9.98526,-46.2322
224,-692,10.0017,45.9921,0.002791,0.00100008,0.00113259,0.00333936,0.000451723,0.450898,0.00209199,0.0133674,1448,1716,10.0017,-45.992
231,-692,10.005,45.7233,0.00277734,0.00118522,0.000545336,0.00294622,0.00101634,0.300309,0.00172804,0.0114791,1455,1716,10.005,-45.7233
238,-692,10.0161,45.3641,0.00263928,0.00158716,0.000186966,0.00267152,0.00155492,0.170742,0.00154931,0.0173714,1462,1716,10.0161,-45.3641
245,-692,10.0181,45.0747,0.00248497,0.00189785,-8.19497e-05,0.00249619,0.00188662,-0.136114,0.00150273,0.0202032,1469,1716,10.0181,-45.0747
252,-692,10.0652,44.8124,0.0022996,0.00210421,-0.000403446,0.00261701,0.0017868,-0.666613,0.00154421,0.0184726,1476,1716,10.0652,-44.8123
259,-692,10.0586,44.5087,0.00212071,0.00202739,-0.000711708,0.00278729,0.00136081,-0.752666,0.00160939,0.0100228,1483,1716,10.0586,-44.5087
266,-692,10.0488,44.1887,0.00193023,0.00187677,-0.000952396,0.00285627,0.000950732,-0.771369,0.0016795,0.0101837,1490,1716,10.0488,-44.1887
273,-692,10.0585,43.8492,0.00168785,0.0018705,-0.00116657,0.00294931,0.000609029,-0.824461,0.00179792,0.0156504,1497,1716,10.0585,-43.8492
280,-692,10.0553,43.4973,0.00136232,0.00184782,-0.00136183,0.00298836,0.000221773,-0.873598,0.00192259,0.0150292,1504,1716,10.0553,-43.4973
287,-692,10.0475,43.1678,0.00105682,0.00190349,-0.00152568,0.00306347,-0.000103166,-0.920731,0.00207756,0.0109662,1511,1716,10.0475,-43.1679
294,-692,10.0435,42.8013,0.000748903,0.0021851,-0.00162055,0.00323953,-0.000305525,-0.993957,0.0022684,0.0107092,1518,1716,10.0435,-42.8012
301,-692,10.0313,42.4158,0.000422099,0.00238533,-0.0017042,0.0033704,-0.000562971,-1.04669,0.00245619,0.013532,1525,1716,10.0312,-42.4158
308,-692,10.0137,42.0638,2.56184e-05,0.00249526,-0.00176556,0.00341496,-0.000894091,-1.09056,0.00262591,0.0173948,1532,1716,10.0136,-42.0639
315,-692,10.0267,41.6841,-0.000472552,0.00255155,-0.0016748,0.00329588,-0.00121688,-1.15258,0.00269603,0.0167897,1539,1716,10.0267,-41.6841
322,-692,9.96118,41.2567,-0.000919433,0.00278318,-0.00152228,0.00332868,-0.00146493,-1.22671,0.00283646,0.0209545,1546,1716,9.96124,-41.2567
329,-692,9.94641,40.8555,-0.00129917,0.00305091,-0.00123456,0.00337686,-0.00162511,-1.31267,0.00294633,0.0184721,1553,1716,9.94645,-40.8555
336,-692,9.93201,40.4352,-0.0014506,0.00286376,-0.000972731,0.00307293,-0.00165977,-1.35898,0.00277274,0.0126877,1560,1716,9.93198,-40.4352
343,-692,9.92017,40.0612,-0.00111842,0.00211384,-0.000444604,0.00217388,-0.00117846,-1.43657,0.00196371,0.0138606,1567,1716,9.92018,-40.0612
350,-692,9.91199,39.6692,-0.0010876,0.00133154,9.69068e-05,0.00133542,-0.00109147,1.53082,0.00140353,0.0191922,1574,1716,9.91202,-39.6692
357,-692,9.86536,39.1587,-0.000852271,0.000603892,0.000616694,0.000829967,-0.00107835,1.21942,0.00110487,0.0273279,1581,1716,9.86531,-39.1587
364,-692,9.81323,38.6729,-0.000454286,-0.000271219,0.00109594,0.000737006,-0.00146251,0.827062,0.00129271,0.0307474,1588,1716,9.81322,-38.6728
371,-692,9.7478,38.2869,0.000272207,-0.00137029,0.00183956,0.00146551,-0.00256359,0.575454,0.00235482,0.03874,1595,1716,9.74783,-38.2868
378,-692,9.80896,37.8983,0.00146025,-0.00347299,0.00270895,0.00265732,-0.00467006,0.416092,0.00428334,0.0482513,1602,1716,9.80901,-37.8983
385,-692,9.69482,37.3735,0,0,0,0,0,0,0,-1,1609,1716,9.69485,-37.3735
392,-692,9.95508,37.4489,0.00486353,-0.00723681,0.0026207,0.00540674,-0.00778002,0.204382,0.00765437,0.0496282,1616,1716,9.95514,-37.4489
399,-692,10.3873,37.123,0,0,0,0,0,0,0,-1,1623,1716,10.3873,-37.123
406,-692,9.48035,35.4695,0,0,0,0,0,0,0,-1,1630,1716,9.48029,-35.4694
413,-692,8.43213,35.196,0,0,0,0,0,0,0,-1,1637,1716,8.43216,-35.1961
420,-692,5.48901,10.4845,0,0,0,0,0,0,0,-1,1644,1716,5.48906,-10.4845
427,-692,3.79578,8.60339,0,0,0,0,0,0,0,-1,1651,1716,3.79577,-8.6034
434,-692,4.78516,8.64636,0,0,0,0,0,0,0,-1,1658,1716,4.78512,-8.64634
441,-692,5.8208,8.74036,0,0,0,0,0,0,0,-1,1665,1716,5.82084,-8.7404
448,-692,6.73792,8.51013,0,0,0,0,0,0,0,-1,1672,1716,6.73793,-8.5101
455,-692,0,0,0,0,0,0,0,0,0,-1,1679,1716,0,0
462,-692,0,0,0,0,0,0,0,0,0,-1,1686,1716,0,0
469,-692,0,0,0,0,0,0,0,0,0,-1,1693,1716,0,0
476,-692,0,0,0,0,0,0,0,0,0,-1,1700,1716,0,0
483,-692,0,0,0,0,0,0,0,0,0,-1,1707,1716,0,0
490,-692,0,0,0,0,0,0,0,0,0,-1,1714,1716,0,0
497,-692,0,0,0,0,0,0,0,0,0,-1,1721,1716,0,0
504,-692,0,0,0,0,0,0,0,0,0,-1,1728,1716,0,0
511,-692,0,0,0,0,0,0,0,0,0,-1,1735,1716,0,0
518,-692,0,0,0,0,0,0,0,0,0,-1,1742,1716,0,0
525,-692,0,0,0,0,0,0,0,0,0,-1,1749,1716,0,0
532,-692,0,0,0,0,0,0,0,0,0,-1,1756,1716,0,0
539,-692,0,0,0,0,0,0,0,0,0,-1,1763,1716,0,0
546,-692,0,0,0,0,0,0,0,0,0,-1,1770,1716,0,0
553,-692,0,0,0,0,0,0,0,0,0,-1,1777,1716,0,0
560,-692,0,0,0,0,0,0,0,0,0,-1,1784,1716,0,0
567,-692,0,0,0,0,0,0,0,0,0,-1,1791,1716,0,0
574,-692,0,0,0,0,0,0,0,0,0,-1,1798,1716,0,0
581,-692,0,0,0,0,0,0,0,0,0,-1,1805,1716,0,0
588,-692,0,0,0,0,0,0,0,0,0,-1,1812,1716,0,0
595,-692,0,0,0,0,0,0,0,0,0,-1,1819,1716,0,0
602,-692,0,0,0,0,0,0,0,0,0,-1,1826,1716,0,0
609,-692,0,0,0,0,0,0,0,0,0,-1,1833,1716,0,0
616,-692,0,0,0,0,0,0,0,0,0,-1,1840,1716,0,0
623,-692,0,0,0,0,0,0,0,0,0,-1,1847,1716,0,0
630,-692,0,0,0,0,0,0,0,0,0,-1,1854,1716,0,0
637,-692,0,0,0,0,0,0,0,0,0,-1,1861,1716,0,0
644,-692,0,0,0,0,0,0,0,0,0,-1,1868,1716,0,0
651,-692,0,0,0,0,0,0,0,0,0,-1,1875,1716,0,0
658,-692,0,0,0,0,0,0,0,0,0,-1,1882,1716,0,0
665,-692,0,0,0,0,0,0,0,0,0,-1,1889,1716,0,0
672,-692,0,0,0,0,0,0,0,0,0,-1,1896,1716,0,0
679,-692,0,0,0,0,0,0,0,0,0,-1,1903,1716,0,0
686,-692,0,0,0,0,0,0,0,0,0,-1,1910,1716,0,0
693,-692,0,0,0,0,0,0,0,0,0,-1,1917,1716,0,0
700,-692,0,0,0,0,0,0,0,0,0,-1,1924,1716,0,0
707,-692,0,0,0,0,0,0,0,0,0,-1,1931,1716,0,0
714,-692,0,0,0,0,0,0,0,0,0,-1,1938,1716,0,0
721,-692,0,0,0,0,0,0,0,0,0,-1,1945,1716,0,0
728,-692,0,0,0,0,0,0,0,0,0,-1,1952,1716,0,0
735,-692,0,0,0,0,0,0,0,0,0,-1,1959,1716,0,0
742,-692,0,0,0,0,0,0,0,0,0,-1,1966,1716,0,0
749,-692,0,0,0,0,0,0,0,0,0,-1,1973,1716,0,0
756,-692,0,0,0,0,0,0,0,0,0,-1,1980,1716,0,0
763,-692,0,0,0,0,0,0,0,0,0,-1,1987,1716,0,0
770,-692,0,0,0,0,0,0,0,0,0,-1,1994,1716,0,0
777,-692,0,0,0,0,0,0,0,0,0,-1,2001,1716,0,0
784,-692,0,0,0,0,0,0,0,0,0,-1,2008,1716,0,0
791,-692,0,0,0,0,0,0,0,0,0,-1,2015,1716,0,0
798,-692,0,0,0,0,0,0,0,0,0,-1,2022,1716,0,0
805,-692,0,0,0,0,0,0,0,0,0,-1,2029,1716,0,0
812,-692,0,0,0,0,0,0,0,0,0,-1,2036,1716,0,0
-700,-699,0,0,0,0,0,0,0,0,0,-1,524,1723,0,0
-693,-699,0,0,0,0,0,0,0,0,0,-1,531,1723,0,0
-686,-699,0,0,0,0,0,0,0,0,0,-1,538,1723,0,0
-679,-699,0,0,0,0,0,0,0,0,0,-1,545,1723,0,0
-672,-699,0,0,0,0,0,0,0,0,0,-1,552,1723,0,0
-665,-699,0,0,0,0,0,0,0,0,0,-1,559,1723,0,0
-658,-699,0,0,0,0,0,0,0,0,0,-1,566,1723,0,0
-651,-699,0,0,0,0,0,0,0,0,0,-1,573,1723,0,0
-644,-699,0,0,0,0,0,0,0,0,0,-1,580,1723,0,0
-637,-699,0,0,0,0,0,0,0,0,0,-1,587,1723,0,0
-630,-699,0,0,0,0,0,0,0,0,0,-1,594,1723,0,0
-623,-699,0,0,0,0,0,0,0,0,0,-1,601,1723,0,0
-616,-699,0,0,0,0,0,0,0,0,0,-1,608,1723,0,0
-609,-699,0,0,0,0,0,0,0,0,0,-1,615,1723,0,0
-602,-699,0,0,0,0,0,0,0,0,0,-1,622,1723,0,0
-595,-699,0,0,0,0,0,0,0,0,0,-1,629,1723,0,0
-588,-699,0,0,0,0,0,0,0,0,0,-1,636,1723,0,0
-581,-699,0,0,0,0,0,0,0,0,0,-1,643,1723,0,0
-574,-699,0,0,0,0,0,0,0,0,0,-1,650,1723,0,0
-567,-699,0,0,0,0,0,0,0,0,0,-1,657,1723,0,0
-560,-699,0,0,0,0,0,0,0,0,0,-1,664,1723,0,0
-553,-699,0,0,0,0,0,0,0,0,0,-1,671,1723,0,0
-546,-699,0,0,0,0,0,0,0,0,0,-1,678,1723,0,0
-539,-699,0,0,0,0,0,0,0,0,0,-1,685,1723,0,0
-532,-699,0,0,0,0,0,0,0,0,0,-1,692,1723,0,0
-525,-699,0,0,0,0,0,0,0,0,0,-1,699,1723,0,0
-518,-699,0,0,0,0,0,0,0,0,0,-1,706,1723,0,0
-511,-699,0,0,0,0,0,0,0,0,0,-1,713,1723,0,0
-504,-699,0,0,0,0,0,0,0,0,0,-1,720,1723,0,0
-497,-699,0,0,0,0,0,0,0,0,0,-1,727,1723,0,0
-490,-699,0,0,0,0,0,0,0,0,0,-1,734,1723,0,0
-483,-699,0,0,0,0,0,0,0,0,0,-1,741,1723,0,0
-476,-699,0,0,0,0,0,0,0,0,0,-1,748,1723,0,0
-469,-699,0,0,0,0,0,0,0,0,0,-1,755,1723,0,0
-462,-699,0,0,0,0,0,0,0,0,0,-1,762,1723,0,0
-455,-699,0,0,0,0,0,0,0,0,0,-1,769,1723,0,0
-448,-699,0,0,0,0,0,0,0,0,0,-1,776,1723,0,0
-441,-699,0,0,0,0,0,0,0,0,0,-1,783,1723,0,0
-434,-699,0,0,0,0,0,0,0,0,0,-1,790,1723,0,0
-427,-699,0,0,0,0,0,0,0,0,0,-1,797,1723,0,0
-420,-699,0,0,0,0,0,0,0,0,0,-1,804,1723,0,0
-413,-699,0,0,0,0,0,0,0,0,0,-1,811,1723,0,0
-406,-699,0,0,0,0,0,0,0,0,0,-1,818,1723,0,0
-399,-699,0,0,0,0,0,0,0,0,0,-1,825,1723,0,0
-392,-699,0,0,0,0,0,0,0,0,0,-1,832,1723,0,0
-385,-699,0,0,0,0,0,0,0,0,0,-1,839,1723,0,0
-378,-699,0,0,0,0,0,0,0,0,0,-1,846,1723,0,0
-371,-699,0,0,0,0,0,0,0,0,0,-1,853,1723,0,0
-364,-699,0,0,0,0,0,0,0,0,0,-1,860,1723,0,0
-357,-699,0,0,0,0,0,0,0,0,0,-1,867,1723,0,0
-350,-699,0,0,0,0,0,0,0,0,0,-1,874,1723,0,0
-343,-699,0,0,0,0,0,0,0,0,0,-1,881,1723,0,0
-336,-699,0,0,0,0,0,0,0,0,0,-1,888,1723,0,0
-329,-699,0,0,0,0,0,0,0,0,0,-1,895,1723,0,0
-322,-699,0,0,0,0,0,0,0,0,0,-1,902,1723,0,0
-315,-699,6.20001,19.5193,0,0,0,0,0,0,0,-1,909,1723,6.20001,-19.5193
-308,-699,6.98151,18.9218,0,0,0,0,0,0,0,-1,916,1723,6.98151,-18.9217
-301,-699,4.72729,12.8752,0,0,0,0,0,0,0,-1,923,1723,4.72732,-12.8752
-294,-699,6.90332,19.8601,0,0,0,0,0,0,0,-1,930,1723,6.90332,-19.8601
-287,-699,10.0234,34.0942,0,0,0,0,0,0,0,-1,937,1723,10.0234,-34.0943
-280,-699,9.43286,34.5581,0,0,0,0,0,0,0,-1,944,1723,9.43286,-34.5581
-273,-699,10.2987,33.8755,0,0,0,0,0,0,0,-1,951,1723,10.2987,-33.8755
-266,-699,6.81915,20.8951,0,0,0,0,0,0,0,-1,958,1723,6.81914,-20.8952
-259,-699,5.39758,14.5466,0,0,0,0,0,0,0,-1,965,1723,5.39759,-14.5466
-252,-699,8.3866,31.6284,0,0,0,0,0,0,0,-1,972,1723,8.38657,-31.6284
-245,-699,9.10895,37.0629,0,0,0,0,0,0,0,-1,979,1723,9.10897,-37.0629
-238,-699,8.44885,38.6345,0,0,0,0,0,0,0,-1,986,1723,8.44882,-38.6345
-231,-699,8.42981,38.8267,-0.00837621,0.00497518,0.00136598,0.0051135,-0.00851453,1.46988,0.0079494,0.0465167,993,1723,8.42981,-38.8267
-224,-699,8.30328,39.1425,-0.00616682,0.00352895,0.000822933,0.0035983,-0.00623617,1.48672,0.00574561,0.0399488,1000,1723,8.30331,-39.1425
-217,-699,8.22394,39.5168,-0.00595704,0.00153811,0.000624524,0.00158979,-0.00600872,1.48823,0.00462768,0.0258674,1007,1723,8.22391,-39.5169
-210,-699,8.13446,40.0057,-0.00585477,-0.000167052,0.000547437,-0.000114841,-0.00590698,1.47571,0.00390027,0.0173993,1014,1723,8.13445,-40.0057
-203,-699,8.13196,40.4221,-0.0053852,-0.000714509,0.000622174,-0.000633051,-0.00546665,1.44061,0.00345282,0.0201593,1021,1723,8.13197,-40.4221
-196,-699,8.09338,40.8726,-0.00529786,-0.00139628,0.000682093,-0.00128047,-0.00541367,1.40262,0.00326703,0.0174168,1028,1723,8.09344,-40.8725
-189,-699,8.02612,41.2876,-0.00510618,-0.00207674,0.000709752,-0.0019187,-0.00526422,1.3517,0.00307629,0.0094568,1035,1723,8.02608,-41.2876
-182,-699,7.98962,41.6843,-0.00495309,-0.00222381,0.000639668,-0.00208133,-0.00509557,1.35163,0.00295832,0.012493,1042,1723,7.98968,-41.6843
-175,-699,7.97913,42.0947,-0.00471774,-0.00205978,0.00071375,-0.00188024,-0.00489728,1.32437,0.00285272,0.0145078,1049,1723,7.97908,-42.0947
-168,-699,7.98999,42.4639,-0.00437106,-0.00182559,0.000791679,-0.00159945,-0.00459719,1.29257,0.0026948,0.0156705,1056,1723,7.98995,-42.4639
-161,-699,7.96704,42.8409,-0.00393699,-0.00139939,0.000727865,-0.00120544,-0.00413094,1.31038,0.00245295,0.0135002,1063,1723,7.96706,-42.8409
-154,-699,7.92053,43.2299,-0.00326685,-0.000891969,0.000740598,-0.000679945,-0.00347887,1.29197,0.0021291,0.0132682,1070,1723,7.92058,-43.2299
-147,-699,7.88306,43.575,-0.00239365,-0.000339271,0.000791174,-6.98975e-05,-0.00266302,1.24263,0.00175251,0.0152307,1077,1723,7.88311,-43.5749
-140,-699,7.86658,43.9214,-0.0014313,0.000175364,0.00078644,0.000496234,-0.00175217,1.18341,0.00136396,0.0104567,1084,1723,7.86655,-43.9213
-133,-699,7.87573,44.2756,-0.00047007,0.000592505,0.000772374,0.000998676,-0.000876241,1.08667,0.00108325,0.00910024,1091,1723,7.87567,-44.2757
-126,-699,7.89246,44.6117,0.000319669,0.000950698,0.000732643,0.00143288,-0.00016251,0.988723,0.00101377,0.0108218,1098,1723,7.8925,-44.6117
-119,-699,7.89575,44.9335,0.00101174,0.00123024,0.000721193,0.00185041,0.000391569,0.860572,0.00112601,0.0154699,1105,1723,7.89572,-44.9335
-112,-699,7.87805,45.2222,0.00168937,0.00131802,0.000668368,0.00219738,0.000810016,0.649911,0.00128317,0.0111458,1112,1723,7.87809,-45.2222
-105,-699,7.89111,45.5081,0.00210956,0.0011198,0.000546937,0.00235227,0.000877081,0.417662,0.00137264,0.012227,1119,1723,7.8911,-45.5081
-98,-699,7.91577,45.8021,0.00242156,0.000885002,0.000468913,0.00255336,0.000753208,0.273994,0.00151493,0.0146496,1126,1723,7.91573,-45.8021
-91,-699,7.91663,46.0648,0.00281681,0.000630844,0.000355777,0.00287326,0.000574397,0.157346,0.00175565,0.020353,1133,1723,7.9166,-46.0648
-84,-699,7.95239,46.3518,0.00321807,0.000519391,0.000269413,0.0032447,0.000492758,0.098536,0.00201903,0.0261663,1140,1723,7.95236,-46.3519
-77,-699,7.95129,46.5981,0.00360187,0.000721053,6.03198e-06,0.00360189,0.00072104,0.00209383,0.00220064,0.0176929,1147,1723,7.95131,-46.5982
-70,-699,7.96631,46.8634,0.00391913,0.000600843,-0.00030536,0.00394699,0.000572977,-0.0910049,0.00246266,0.017522,1154,1723,7.96627,-46.8634
-63,-699,7.99316,47.1033,0.00576232,-0.000607484,6.86773e-05,0.00576306,-0.000608224,0.01078,0.00406,0.0143578,1161,1723,7.99317,-47.1033
-56,-699,7.98669,47.2871,0.00933067,-8.73174e-05,0.00214554,0.00979642,-0.000553068,0.213762,0.00672289,0.01053,1168,1723,7.98671,-47.2871
-49,-699,7.9989,47.5583,0.0126407,0.000718331,0.00318524,0.0134383,-7.92947e-05,0.245367,0.0089854,0.0242959,1175,1723,7.99886,-47.5583
-42,-699,8.05237,47.7791,0.0157333,0.00186463,0.00440893,0.0170162,0.000581682,0.283169,0.0111553,0.0297779,1182,1723,8.05232,-47.7791
-35,-699,8.11267,47.9359,0.018924,0.00379097,0.00603986,0.021039,0.00167595,0.336833,0.0135021,0.0275369,1189,1723,8.11272,-47.936
-28,-699,8.18018,48.0874,0.0207597,0.00470141,0.00681211,0.0232601,0.00220097,0.351789,0.0148276,0.0217789,1196,1723,8.18016,-48.0874
-21,-699,8.20776,48.1837,0.0222019,0.00622678,0.00751937,0.0251844,0.00324429,0.377607,0.0158195,0.0141786,1203,1723,8.20782,-48.1837
-14,-699,8.22717,48.3383,0.0228086,0.00839459,0.0081253,0.0264626,0.00474059,0.42261,0.0162931,0.0119671,1210,1723,8.22712,-48.3383
-7,-699,8.25269,48.5065,0.0228811,0.0113477,0.00863966,0.0275018,0.00672699,0.49112,0.0165543,0.00903504,1217,1723,8.2527,-48.5065
0,-699,8.31152,48.6426,0.0222882,0.0148566,0.00907175,0.0283757,0.00876912,0.591018,0.0167763,0.0107812,1224,1723,8.31153,-48.6426
7,-699,8.38647,48.719,0.0210932,0.0185952,0.00874498,0.0286779,0.0110104,0.714466,0.0167052,0.0164967,1231,1723,8.38644,-48.719
14,-699,8.45447,48.8295,0.0195033,0.0216165,0.00792961,0.0285596,0.0125602,0.851632,0.0165287,0.0179455,1238,1723,8.45443,-48.8295
21,-699,8.50098,48.8943,0.0175016,0.0240262,0.00699548,0.0284827,0.0130451,1.00358,0.0164638,0.0163179,1245,1723,8.50103,-48.8943
28,-699,8.5542,48.9341,0.0154686,0.026391,0.00586041,0.0289403,0.0129192,1.16047,0.0167407,0.0159469,1252,1723,8.55414,-48.934
35,-699,8.58435,49.0437,0.0133285,0.0283159,0.00435783,0.0294909,0.0121535,1.30743,0.017114,0.0140414,1259,1723,8.58432,-49.0437
42,-699,8.65417,49.1235,0.011353,0.0286938,0.00285863,0.0291529,0.0108939,1.41156,0.0170095,0.013534,1266,1723,8.65421,-49.1236
49,-699,8.72986,49.1685,0.00918575,0.0279789,0.00136096,0.028077,0.00908771,1.49888,0.0165428,0.0165293,1273,1723,8.72985,-49.1684
56,-699,8.81152,49.1902,0.0080764,0.0262741,8.10162e-05,0.0262744,0.00807603,1.56634,0.0155403,0.016987,1280,1723,8.81154,-49.1902
63,-699,8.86011,49.1674,0.00804173,0.0232855,-0.000843578,0.0233321,0.00799519,-1.51568,0.0136913,0.0153521,1287,1723,8.86012,-49.1674
70,-699,8.88049,49.1564,0.00765073,0.0205182,-0.00152789,0.0206972,0.00747179,-1.45422,0.0121024,0.0132632,1294,1723,8.88043,-49.1564
77,-699,8.90466,49.1449,0.00827062,0.0170665,-0.00134986,0.017269,0.00806812,-1.42189,0.00997738,0.0120955,1301,1723,8.90463,-49.145
84,-699,8.92932,49.0879,0.00907318,0.0134174,-0.000744893,0.0135416,0.00894901,-1.40561,0.00795195,0.0140729,1308,1723,8.9293,-49.0878
91,-699,9.02808,49.0339,0.0101134,0.00963171,0.000161397,0.0101625,0.00958264,0.295178,0.00659023,0.0135737,1315,1723,9.02811,-49.0339
98,-699,9.10254,49.0161,0.0111045,0.00627343,0.00133487,0.0114488,0.00592913,0.252426,0.00661138,0.0117216,1322,1723,9.10253,-49.0161
105,-699,9.1582,48.973,0.0119996,0.0035507,0.00256157,0.0127156,0.00283474,0.272544,0.0077079,0.0158891,1329,1723,9.15823,-48.973
112,-699,9.25537,48.8934,0.012741,0.00137044,0.00425929,0.0141595,-4.80874e-05,0.321489,0.00945572,0.0218453,1336,1723,9.25536,-48.8934
119,-699,9.25049,48.7845,0.0132211,7.19722e-06,0.00597542,0.0155225,-0.00229412,0.367623,0.0111917,0.0173138,1343,1723,9.25053,-48.7846
126,-699,9.30493,48.6708,0.0135502,-0.0011072,0.00732518,0.0165833,-0.00414036,0.392579,0.0126634,0.0194199,1350,1723,9.30487,-48.6707
133,-699,9.38733,48.5631,0.0135178,-0.00230943,0.00849617,0.0172149,-0.0060066,0.410442,0.0139178,0.0170189,1357,1723,9.38731,-48.5631
140,-699,9.42224,48.4355,0.0132953,-0.003199,0.00938557,0.0175423,-0.00744603,0.424937,0.0148143,0.0176213,1364,1723,9.42219,-48.4356
147,-699,9.45667,48.3041,0.0128492,-0.00312143,0.0098008,0.0175059,-0.00777815,0.44356,0.0149535,0.0147787,1371,1723,9.45665,-48.304
154,-699,9.45862,48.1385,0.0124153,-0.00322728,0.00969412,0.0170499,-0.00786186,0.445959,0.0147053,0.0147566,1378,1723,9.45859,-48.1386
161,-699,9.50647,47.9697,0.0108549,-0.00345645,0.00966762,0.015727,-0.00832851,0.466808,0.0141057,0.0109008,1385,1723,9.50643,-47.9698
168,-699,9.56091,47.8165,0.00832548,-0.00295181,0.00904185,0.0133428,-0.00796912,0.506596,0.0124341,0.0124752,1392,1723,9.56086,-47.8165
175,-699,9.60522,47.6525,0.00794614,-0.00550747,0.00805654,0.0117149,-0.00927627,0.437553,0.0121465,0.0190485,1399,1723,9.60526,-47.6524
182,-699,9.65222,47.449,0.0074369,-0.00417713,0.00664325,0.0104534,-0.00719362,0.426232,0.0102463,0.0201067,1406,1723,9.65218,-47.4489
189,-699,9.6178,47.2306,0.00632958,-0.00230434,0.00453317,0.00827247,-0.00424723,0.404912,0.00735173,0.0167716,1413,1723,9.61775,-47.2306
196,-699,9.64819,46.9907,0.00484193,0.000303613,0.00259695,0.00602142,-0.000875881,0.426329,0.00433583,0.0156247,1420,1723,9.64814,-46.9907
203,-699,9.67407,46.7623,0.00338481,0.000810178,0.00150045,0.00407449,0.000120496,0.430851,0.00267706,0.0136487,1427,1723,9.67409,-46.7624
210,-699,9.68005,46.5243,0.00283321,0.000768341,0.00126042,0.00343006,0.000171487,0.442253,0.00223174,0.0143181,1434,1723,9.68005,-46.5243
217,-699,9.68616,46.2738,0.00220813,0.000576889,0.00080022,0.00253514,0.000249887,0.387933,0.00161326,0.0143099,1441,1723,9.68618,-46.2738
224,-699,9.72998,45.9928,0.0019403,0.00092192,0.000423303,0.00209328,0.000768947,0.346775,0.00122265,0.0154006,1448,1723,9.72993,-45.9928
231,-699,9.74658,45.7148,0.00182511,0.00097222,-3.15553e-05,0.00182628,0.000971054,-0.0369307,0.00105511,0.0125634,1455,1723,9.74661,-45.7149
238,-699,9.72449,45.396,0.00171097,0.00108411,-0.00038719,0.00189569,0.000899389,-0.445143,0.00109496,0.0104836,1462,1723,9.72453,-45.396
245,-699,9.72754,45.0897,0.00162624,0.00106908,-0.000710578,0.0021109,0.000584428,-0.598582,0.00125853,0.0118955,1469,1723,9.72753,-45.0897
252,-699,9.72192,44.8097,0.00150044,0.00100688,-0.00102182,0.00230485,0.000202464,-0.666913,0.00147372,0.0106126,1476,1723,9.72189,-44.8097
259,-699,9.70557,44.5256,0.00136636,0.000765218,-0.00125481,0.0023561,-0.000224518,-0.667845,0.00165067,0.0106632,1483,1723,9.70557,-44.5257
266,-699,9.69849,44.2159,0.00120263,0.000472979,-0.00146286,0.00234547,-0.000669861,-0.663195,0.00182831,0.0127917,1490,1723,9.69853,-44.216
273,-699,9.71313,43.8549,0.000999905,0.000558749,-0.00172713,0.00252049,-0.000961835,-0.721885,0.00207657,0.0120812,1497,1723,9.71309,-43.8549
280,-699,9.7218,43.5065,0.000678397,0.00061203,-0.00194792,0.00259341,-0.00130298,-0.776881,0.00229034,0.0120785,1504,1723,9.72178,-43.5065
287,-699,9.69934,43.1459,0.00037345,0.000832832,-0.0021337,0.00274917,-0.00154288,-0.839016,0.00251043,0.0105157,1511,1723,9.69935,-43.1459
294,-699,9.69043,42.78,5.53892e-05,0.00143225,-0.00221339,0.0030618,-0.00157416,-0.936171,0.00272212,0.0110919,1518,1723,9.69042,-42.78
301,-699,9.68103,42.4181,-0.00027602,0.00196667,-0.00227478,0.00338147,-0.00169082,-1.01439,0.00298222,0.0132582,1525,1723,9.68109,-42.4181
308,-699,9.66992,42.0535,-0.000715528,0.00236224,-0.00230845,0.00359772,-0.00195101,-1.07939,0.00325025,0.0176192,1532,1723,9.66986,-42.0535
315,-699,9.66821,41.666,-0.00129925,0.00275735,-0.00217773,0.00370504,-0.00224694,-1.16034,0.00347057,0.0196092,1539,1723,9.66816,-41.666
322,-699,9.61694,41.2825,-0.00180931,0.00338374,-0.00198447,0.00405525,-0.00248083,-1.24451,0.00380992,0.020028,1546,1723,9.61692,-41.2825
329,-699,9.57056,40.8961,-0.00222662,0.00417017,-0.00158863,0.00454298,-0.00259943,-1.3403,0.00417425,0.0180364,1553,1723,9.57053,-40.8961
336,-699,9.34229,40.4305,0,0,0,0,0,0,0,-1,1560,1723,9.34224,-40.4306
343,-699,9.6178,40.1328,-0.00181938,0.00346864,-0.000537312,0.00352269,-0.00187343,-1.47055,0.00316358,0.0318324,1567,1723,9.61784,-40.1328
350,-699,9.55688,39.653,-0.00169045,0.00253128,0.000259414,0.00254716,-0.00170633,1.50966,0.0024717,0.0473539,1574,1723,9.55683,-39.6529
357,-699,9.50256,39.1825,-0.00124956,0.00150052,0.00105488,0.00185854,-0.00160759,1.2436,0.00200292,0.0482264,1581,1723,9.50261,-39.1825
364,-699,9.2937,38.8668,-0.000557817,0.000361024,0.0018133,0.0017722,-0.00196899,0.909468,0.00216097,0.042284,1588,1723,9.29368,-38.8668
371,-699,9.25562,38.496,0,0,0,0,0,0,0,-1,1595,1723,9.25557,-38.496
378,-699,9.28406,38.0052,0,0,0,0,0,0,0,-1,1602,1723,9.28401,-38.0053
385,-699,8.08582,36.6664,0,0,0,0,0,0,0,-1,1609,1723,8.0858,-36.6663
392,-699,9.27881,37.5869,0,0,0,0,0,0,0,-1,1616,1723,9.27883,-37.5869
399,-699,9.64819,37.3085,0,0,0,0,0,0,0,-1,1623,1723,9.64825,-37.3084
406,-699,8.26465,35.9393,0,0,0,0,0,0,0,-1,1630,1723,8.26467,-35.9394
413,-699,9.31396,23.2781,0,0,0,0,0,0,0,-1,1637,1723,9.31396,-23.278
420,-699,2.15076,7.65527,0,0,0,0,0,0,0,-1,1644,1723,2.15079,-7.65522
427,-699,3.36328,8.2428,0,0,0,0,0,0,0,-1,1651,1723,3.36332,-8.24283
434,-699,4.66455,8.90222,0,0,0,0,0,0,0,-1,1658,1723,4.66456,-8.90223
441,-699,0,0,0,0,0,0,0,0,0,-1,1665,1723,0,0
448,-699,0,0,0,0,0,0,0,0,0,-1,1672,1723,0,0
455,-699,0,0,0,0,0,0,0,0,0,-1,1679,1723,0,0
462,-699,0,0,0,0,0,0,0,0,0,-1,1686,1723,0,0
469,-699,0,0,0,0,0,0,0,0,0,-1,1693,1723,0,0
476,-699,0,0,0,0,0,0,0,0,0,-1,1700,1723,0,0
483,-699,0,0,0,0,0,0,0,0,0,-1,1707,1723,0,0
490,-699,0,0,0,0,0,0,0,0,0,-1,1714,1723,0,0
497,-699,0,0,0,0,0,0,0,0,0,-1,1721,1723,0,0
504,-699,0,0,0,0,0,0,0,0,0,-1,1728,1723,0,0
511,-699,0,0,0,0,0,0,0,0,0,-1,1735,1723,0,0
518,-699,0,0,0,0,0,0,0,0,0,-1,1742,1723,0,0
525,-699,0,0,0,0,0,0,0,0,0,-1,1749,1723,0,0
532,-699,0,0,0,0,0,0,0,0,0,-1,1756,1723,0,0
539,-699,0,0,0,0,0,0,0,0,0,-1,1763,1723,0,0
546,-699,0,0,0,0,0,0,0,0,0,-1,1770,1723,0,0
553,-699,0,0,0,0,0,0,0,0,0,-1,1777,1723,0,0
560,-699,0,0,0,0,0,0,0,0,0,-1,1784,1723,0,0
567,-699,0,0,0,0,0,0,0,0,0,-1,1791,1723,0,0
574,-699,0,0,0,0,0,0,0,0,0,-1,1798,1723,0,0
581,-699,0,0,0,0,0,0,0,0,0,-1,1805,1723,0,0
588,-699,0,0,0,0,0,0,0,0,0,-1,1812,1723,0,0
595,-699,0,0,0,0,0,0,0,0,0,-1,1819,1723,0,0
602,-699,0,0,0,0,0,0,0,0,0,-1,1826,1723,0,0
609,-699,0,0,0,0,0,0,0,0,0,-1,1833,1723,0,0
616,-699,0,0,0,0,0,0,0,0,0,-1,1840,1723,0,0
623,-699,0,0,0,0,0,0,0,0,0,-1,1847,1723,0,0
630,-699,0,0,0,0,0,0,0,0,0,-1,1854,1723,0,0
637,-699,0,0,0,0,0,0,0,0,0,-1,1861,1723,0,0
644,-699,0,0,0,0,0,0,0,0,0,-1,1868,1723,0,0
651,-699,0,0,0,0,0,0,0,0,0,-1,1875,1723,0,0
658,-699,0,0,0,0,0,0,0,0,0,-1,1882,1723,0,0
665,-699,0,0,0,0,0,0,0,0,0,-1,1889,1723,0,0
672,-699,0,0,0,0,0,0,0,0,0,-1,1896,1723,0,0
679,-699,0,0,0,0,0,0,0,0,0,-1,1903,1723,0,0
686,-699,0,0,0,0,0,0,0,0,0,-1,1910,1723,0,0
693,-699,0,0,0,0,0,0,0,0,0,-1,1917,1723,0,0
700,-699,0,0,0,0,0,0,0,0,0,-1,1924,1723,0,0
707,-699,0,0,0,0,0,0,0,0,0,-1,1931,1723,0,0
714,-699,0,0,0,0,0,0,0,0,0,-1,1938,1723,0,0
721,-699,0,0,0,0,0,0,0,0,0,-1,1945,1723,0,0
728,-699,0,0,0,0,0,0,0,0,0,-1,1952,1723,0,0
735,-699,0,0,0,0,0,0,0,0,0,-1,1959,1723,0,0
742,-699,0,0,0,0,0,0,0,0,0,-1,1966,1723,0,0
749,-699,0,0,0,0,0,0,0,0,0,-1,1973,1723,0,0
756,-699,0,0,0,0,0,0,0,0,0,-1,1980,1723,0,0
763,-699,0,0,0,0,0,0,0,0,0,-1,1987,1723,0,0
770,-699,0,0,0,0,0,0,0,0,0,-1,1994,1723,0,0
777,-699,0,0,0,0,0,0,0,0,0,-1,2001,1723,0,0
784,-699,0,0,0,0,0,0,0,0,0,-1,2008,1723,0,0
791,-699,0,0,0,0,0,0,0,0,0,-1,2015,1723,0,0
798,-699,0,0,0,0,0,0,0,0,0,-1,2022,1723,0,0
805,-699,0,0,0,0,0,0,0,0,0,-1,2029,1723,0,0
812,-699,0,0,0,0,0,0,0,0,0,-1,2036,1723,0,0
-700,-706,0,0,0,0,0,0,0,0,0,-1,524,1730,0,0
-693,-706,0,0,0,0,0,0,0,0,0,-1,531,1730,0,0
-686,-706,0,0,0,0,0,0,0,0,0,-1,538,1730,0,0
-679,-706,0,0,0,0,0,0,0,0,0,-1,545,1730,0,0
-672,-706,0,0,0,0,0,0,0,0,0,-1,552,1730,0,0
-665,-706,0,0,0,0,0,0,0,0,0,-1,559,1730,0,0
-658,-706,0,0,0,0,0,0,0,0,0,-1,566,1730,0,0
-651,-706,0,0,0,0,0,0,0,0,0,-1,573,1730,0,0
-644,-706,0,0,0,0,0,0,0,0,0,-1,580,1730,0,0
-637,-706,0,0,0,0,0,0,0,0,0,-1,587,1730,0,0
-630,-706,0,0,0,0,0,0,0,0,0,-1,594,1730,0,0
-623,-706,0,0,0,0,0,0,0,0,0,-1,601,1730,0,0
-616,-706,0,0,0,0,0,0,0,0,0,-1,608,1730,0,0
-609,-706,0,0,0,0,0,0,0,0,0,-1,615,1730,0,0
-602,-706,0,0,0,0,0,0,0,0,0,-1,622,1730,0,0
-595,-706,0,0,0,0,0,0,0,0,0,-1,629,1730,0,0
-588,-706,0,0,0,0,0,0,0,0,0,-1,636,1730,0,0
-581,-706,0,0,0,0,0,0,0,0,0,-1,643,1730,0,0
-574,-706,0,0,0,0,0,0,0,0,0,-1,650,1730,0,0
-567,-706,0,0,0,0,0,0,0,0,0,-1,657,1730,0,0
-560,-706,0,0,0,0,0,0,0,0,0,-1,664,1730,0,0
-553,-706,0,0,0,0,0,0,0,0,0,-1,671,1730,0,0
-546,-706,0,0,0,0,0,0,0,0,0,-1,678,1730,0,0
-539,-706,0,0,0,0,0,0,0,0,0,-1,685,1730,0,0
-532,-706,0,0,0,0,0,0,0,0,0,-1,692,1730,0,0
-525,-706,0,0,0,0,0,0,0,0,0,-1,699,1730,0,0
-518,-706,0,0,0,0,0,0,0,0,0,-1,706,1730,0,0
-511,-706,0,0,0,0,0,0,0,0,0,-1,713,1730,0,0
-504,-706,0,0,0,0,0,0,0,0,0,-1,720,1730,0,0
-497,-706,0,0,0,0,0,0,0,0,0,-1,727,1730,0,0
-490,-706,0,0,0,0,0,0,0,0,0,-1,734,1730,0,0
-483,-706,0,0,0,0,0,0,0,0,0,-1,741,1730,0,0
-476,-706,0,0,0,0,0,0,0,0,0,-1,748,1730,0,0
-469,-706,0,0,0,0,0,0,0,0,0,-1,755,1730,0,0
-462,-706,0,0,0,0,0,0,0,0,0,-1,762,1730,0,0
-455,-706,0,0,0,0,0,0,0,0,0,-1,769,1730,0,0
-448,-706,0,0,0,0,0,0,0,0,0,-1,776,1730,0,0
-441,-706,0,0,0,0,0,0,0,0,0,-1,783,1730,0,0
-434,-706,0,0,0,0,0,0,0,0,0,-1,790,1730,0,0
-427,-706,0,0,0,0,0,0,0,0,0,-1,797,1730,0,0
-420,-706,0,0,0,0,0,0,0,0,0,-1,804,1730,0,0
-413,-706,0,0,0,0,0,0,0,0,0,-1,811,1730,0,0
-406,-706,0,0,0,0,0,0,0,0,0,-1,818,1730,0,0
-399,-706,0,0,0,0,0,0,0,0,0,-1,825,1730,0,0
-392,-706,0,0,0,0,0,0,0,0,0,-1,832,1730,0,0
-385,-706,0,0,0,0,0,0,0,0,0,-1,839,1730,0,0
-378,-706,0,0,0,0,0,0,0,0,0,-1,846,1730,0,0
-371,-706,0,0,0,0,0,0,0,0,0,-1,853,1730,0,0
-364,-706,0,0,0,0,0,0,0,0,0,-1,860,1730,0,0
-357,-706,0,0,0,0,0,0,0,0,0,-1,867,1730,0,0
-350,-706,0,0,0,0,0,0,0,0,0,-1,874,1730,0,0
-343,-706,0,0,0,0,0,0,0,0,0,-1,881,1730,0,0
-336,-706,0,0,0,0,0,0,0,0,0,-1,888,1730,0,0
-329,-706,0,0,0,0,0,0,0,0,0,-1,895,1730,0,0
-322,-706,0,0,0,0,0,0,0,0,0,-1,902,1730,0,0
-315,-706,0,0,0,0,0,0,0,0,0,-1,909,1730,0,0
-308,-706,5.08191,14.6245,0,0,0,0,0,0,0,-1,916,1730,5.08188,-14.6245
-301,-706,7.45007,21.1975,0,0,0,0,0,0,0,-1,923,1730,7.45005,-21.1976
-294,-706,11.8603,21.026,0,0,0,0,0,0,0,-1,930,1730,11.8603,-21.026
-287,-706,10.3292,20.8425,0,0,0,0,0,0,0,-1,937,1730,10.3292,-20.8425
-280,-706,7.9162,21.8951,0,0,0,0,0,0,0,-1,944,1730,7.9162,-21.8952
-273,-706,7.38953,20.6355,0,0,0,0,0,0,0,-1,951,1730,7.38955,-20.6355
-266,-706,9.66724,22.8231,0,0,0,0,0,0,0,-1,958,1730,9.66722,-22.8231
-259,-706,3.47852,20.7363,0,0,0,0,0,0,0,-1,965,1730,3.47851,-20.7364
-252,-706,3.84259,20.1979,0,0,0,0,0,0,0,-1,972,1730,3.84256,-20.1979
-245,-706,4.698,19.2992,0,0,0,0,0,0,0,-1,979,1730,4.69799,-19.2991
-238,-706,8.12567,36.8694,0,0,0,0,0,0,0,-1,986,1730,8.12568,-36.8694
-231,-706,9.13129,38.8799,0,0,0,0,0,0,0,-1,993,1730,9.13132,-38.8798
-224,-706,8.83069,39.1895,0,0,0,0,0,0,0,-1,1000,1730,8.83066,-39.1894
-217,-706,8.38477,39.6954,-0.00741884,0.00151449,0.000688907,0.00156731,-0.00747166,1.49428,0.00557743,0.0392464,1007,1730,8.38474,-39.6954
-210,-706,8.47778,40.0406,-0.00785995,-0.000912114,0.000409332,-0.000888082,-0.00788398,1.51215,0.00498639,0.0375664,1014,1730,8.47776,-40.0407
-203,-706,8.57263,40.4117,-0.00751913,-0.00175689,0.000472844,-0.00171835,-0.00755767,1.48946,0.00457454,0.032444,1021,1730,8.57266,-40.4118
-196,-706,8.51404,40.7999,-0.00765509,-0.00276157,0.000519533,-0.00270703,-0.00770964,1.46618,0.00451645,0.0242539,1028,1730,8.51407,-40.7999
-189,-706,8.40723,41.2513,-0.00763053,-0.00364819,0.000545311,-0.00357487,-0.00770385,1.43714,0.00445166,0.020918,1035,1730,8.40726,-41.2514
-182,-706,8.3595,41.6908,-0.00764483,-0.00389539,0.000472495,-0.00383677,-0.00770346,1.44735,0.0044476,0.0167369,1042,1730,8.35948,-41.6908
-175,-706,8.3728,42.1044,-0.00752058,-0.0037397,0.000567791,-0.00365627,-0.00760401,1.42491,0.00439125,0.0155306,1049,1730,8.37279,-42.1043
-168,-706,8.36438,42.4712,-0.00718913,-0.00351732,0.000663658,-0.00340105,-0.0073054,1.39736,0.00422111,0.0163745,1056,1730,8.36441,-42.4712
-161,-706,8.32861,42.8463,-0.00672123,-0.00296571,0.000618971,-0.00286632,-0.00682061,1.41159,0.00395455,0.0133807,1063,1730,8.32862,-42.8463
-154,-706,8.27332,43.2473,-0.00596574,-0.00229553,0.000689924,-0.00217012,-0.00609114,1.39099,0.00356482,0.013313,1070,1730,8.27326,-43.2473
-147,-706,8.22498,43.5973,-0.00495033,-0.00153913,0.000810733,-0.00135625,-0.00513321,1.34894,0.00307154,0.0131181,1077,1730,8.22493,-43.5973
-140,-706,8.22693,43.9525,-0.00381754,-0.00077037,0.0008744,-0.000537286,-0.00405062,1.31029,0.00254033,0.0115114,1084,1730,8.22688,-43.9526
-133,-706,8.22314,44.2738,-0.00267598,-0.000129416,0.000922999,0.000169935,-0.00297533,1.25718,0.00204256,0.00891778,1091,1730,8.22318,-44.2738
-126,-706,8.23462,44.6094,-0.00177509,0.000455927,0.000927158,0.00079093,-0.00211009,1.22407,0.00173166,0.0136351,1098,1730,8.23463,-44.6094
-119,-706,8.20361,44.9496,-0.000993044,0.000955354,0.000963745,0.00135151,-0.0013892,1.18079,0.0015824,0.0186097,1105,1730,8.20361,-44.9496
-112,-706,8.20728,45.2611,2.3082e-05,0.00148436,0.00100362,0.00199513,-0.000487686,1.10004,0.00151897,0.013586,1112,1730,8.20732,-45.2611
-105,-706,8.18762,45.5403,0.000742903,0.00160537,0.000947961,0.00221558,0.000132699,0.998862,0.00143487,0.00975571,1119,1730,8.18757,-45.5402
-98,-706,8.18091,45.8098,0.00101218,0.00141433,0.000857209,0.00209373,0.000332774,0.9006,0.00129918,0.0116521,1126,1730,8.18086,-45.8098
-91,-706,8.18762,46.0925,0.00133319,0.00122889,0.000747253,0.00203011,0.000531972,0.75056,0.00121553,0.0150671,1133,1730,8.18765,-46.0925
-84,-706,8.20105,46.3591,0.0016674,0.00104237,0.000630567,0.00205865,0.000651124,0.555333,0.00121501,0.0179681,1140,1730,8.20101,-46.3591
-77,-706,8.21082,46.6023,0.00203772,0.00108878,0.000431747,0.00220476,0.000921746,0.369144,0.0012786,0.0169616,1147,1730,8.21079,-46.6024
-70,-706,8.20154,46.902,0.00234917,0.000920802,0.00018313,0.00237228,0.000897697,0.125505,0.00138307,0.0189264,1154,1730,8.20155,-46.902
-63,-706,8.18982,47.1301,0.0032899,0.000246537,0.000285435,0.00331644,0.000219998,0.0927117,0.0021414,0.0137558,1161,1730,8.18987,-47.1302
-56,-706,8.2074,47.3263,0.00481358,0.000335804,0.00107633,0.00505886,9.05232e-05,0.224061,0.00334281,0.0127159,1168,1730,8.20738,-47.3263
-49,-706,8.19983,47.5839,0.00636702,0.000624445,0.00146244,0.00671801,0.000273465,0.235542,0.00439036,0.0138463,1175,1730,8.1998,-47.5839
-42,-706,8.23132,47.78,0.00799333,0.00116428,0.00204341,0.00855806,0.000599544,0.269639,0.0055164,0.0195932,1182,1730,8.23137,-47.7801
-35,-706,8.26782,47.9095,0.00986643,0.00233509,0.00302922,0.0109336,0.00126791,0.338718,0.00690535,0.0193349,1189,1730,8.26782,-47.9095
-28,-706,8.3175,48.0636,0.0110742,0.00296347,0.00353433,0.0123982,0.00163947,0.358428,0.00777677,0.0121726,1196,1730,8.31756,-48.0636
-21,-706,8.35168,48.2235,0.0121419,0.00386091,0.00406028,0.0138005,0.00220231,0.387807,0.0085612,0.0120191,1203,1730,8.35172,-48.2236
-14,-706,8.38733,48.3679,0.0127299,0.00523985,0.00458655,0.0149062,0.0030636,0.44303,0.00909,0.0113163,1210,1730,8.38739,-48.368
-7,-706,8.41321,48.5197,0.0130176,0.00715598,0.00506152,0.0159356,0.00423797,0.522967,0.00953051,0.0095836,1217,1730,8.41324,-48.5197
0,-706,8.46118,48.6506,0.012879,0.00963043,0.00552768,0.0170161,0.00549334,0.642497,0.0100277,0.012506,1224,1730,8.46122,-48.6506
7,-706,8.49207,48.7612,0.0123858,0.0123999,0.0056225,0.0180153,0.00677035,0.786027,0.0105076,0.0139838,1231,1730,8.49209,-48.7612
14,-706,8.53223,48.8488,0.0116205,0.014633,0.00536381,0.018698,0.00755546,0.922282,0.0108613,0.0143882,1238,1730,8.5322,-48.8488
21,-706,8.57666,48.915,0.0105321,0.0164304,0.00493597,0.0192312,0.0077314,1.05468,0.011174,0.0117988,1245,1730,8.5766,-48.9151
28,-706,8.59619,48.9926,0.00945323,0.0181616,0.00440609,0.020002,0.00761286,1.17513,0.0116574,0.0119453,1252,1730,8.59618,-48.9926
35,-706,8.62683,49.0762,0.00834721,0.0195005,0.0035782,0.0205497,0.00729796,1.28556,0.0120292,0.0141549,1259,1730,8.62681,-49.0762
42,-706,8.67908,49.1299,0.00729807,0.0197654,0.0026623,0.0203101,0.00675335,1.36898,0.0119433,0.012957,1266,1730,8.67908,-49.1299
49,-706,8.73071,49.1743,0.00616363,0.019178,0.00176078,0.019412,0.00592962,1.43867,0.0114868,0.0151917,1273,1730,8.73077,-49.1743
56,-706,8.79663,49.1964,0.00581056,0.0178934,0.000937381,0.0179657,0.00573827,1.49383,0.0105956,0.0144872,1280,1730,8.79665,-49.1964
63,-706,8.82837,49.1868,0.00617275,0.0156015,0.000327725,0.0156129,0.00616137,1.53609,0.00908057,0.0124411,1287,1730,8.82842,-49.1868
70,-706,8.8446,49.1691,0.00616086,0.0126733,-0.00017422,0.012678,0.0061562,-1.54407,0.00732066,0.0129312,1294,1730,8.84464,-49.169
77,-706,8.87097,49.1659,0.00676723,0.0097615,-0.000119164,0.00976623,0.00676249,-1.53108,0.00577606,0.0107881,1301,1730,8.87099,-49.1658
84,-706,8.9093,49.1361,0.00751184,0.00671857,0.000211626,0.00756476,0.00666565,0.245065,0.00477179,0.00877892,1308,1730,8.90927,-49.1361
91,-706,8.96777,49.1057,0.00839981,0.00355895,0.000742528,0.00851114,0.00344762,0.148831,0.00494334,0.00976214,1315,1730,8.96777,-49.1057
98,-706,9.00159,49.0785,0.0091655,0.000675849,0.00149857,0.00942225,0.000419091,0.169688,0.00614657,0.0135076,1322,1730,9.00156,-49.0784
105,-706,9.03491,49.0304,0.0097782,-0.00180535,0.00223833,0.0101957,-0.00222282,0.184393,0.00764652,0.0152852,1329,1730,9.03489,-49.0304
112,-706,9.08057,48.9554,0.0102357,-0.00378903,0.00325011,0.0109523,-0.0045056,0.217005,0.00917967,0.0143904,1336,1730,9.08054,-48.9555
119,-706,9.11536,48.8748,0.010448,-0.00489729,0.00431479,0.011578,-0.00602731,0.256141,0.0103315,0.012929,1343,1730,9.11541,-48.8748
126,-706,9.15076,48.7559,0.0105349,-0.00556224,0.00516748,0.0120509,-0.00707832,0.285379,0.011168,0.01521,1350,1730,9.15076,-48.7558
133,-706,9.21313,48.595,0.0102654,-0.00598484,0.00580117,0.0121238,-0.00784327,0.310024,0.0116159,0.01313,1357,1730,9.21317,-48.595
140,-706,9.25769,48.4305,0.00981091,-0.00589619,0.00622045,0.011976,-0.00806123,0.334939,0.0116418,0.0121658,1364,1730,9.25768,-48.4305
147,-706,9.3302,48.2875,0.00922521,-0.0051774,0.00632249,0.0116068,-0.00755903,0.360253,0.0111474,0.0208365,1371,1730,9.33023,-48.2875
154,-706,9.35767,48.1599,0.00865302,-0.00452982,0.00601958,0.0109881,-0.00686489,0.370042,0.0103986,0.020323,1378,1730,9.35771,-48.1599
161,-706,9.31213,47.9878,0.00733653,-0.00398453,0.00578903,0.00977258,-0.00642057,0.39831,0.00941565,0.0106187,1385,1730,9.3121,-47.9878
168,-706,9.34399,47.8052,0.00557565,-0.00298311,0.00518454,0.00801881,-0.00542627,0.440376,0.00781048,0.0103085,1392,1730,9.34394,-47.8051
175,-706,9.39014,47.6198,0.00519799,-0.00203966,0.00435282,0.00723981,-0.00408148,0.438608,0.00662059,0.0110229,1399,1730,9.39012,-47.6197
182,-706,9.39368,47.4222,0.00469167,-0.00119751,0.00341581,0.00625688,-0.00276273,0.429675,0.00533614,0.0118108,1406,1730,9.3937,-47.4222
189,-706,9.38635,47.223,0.00383107,-0.000388615,0.00226311,0.00481527,-0.00137282,0.410217,0.00375245,0.0144392,1413,1730,9.38638,-47.223
196,-706,9.4248,46.9822,0.00288566,0.000677745,0.00128953,0.00347924,8.41687e-05,0.431388,0.00229195,0.0118359,1420,1730,9.42484,-46.9821
203,-706,9.44055,46.7566,0.00208695,0.000938416,0.00064812,0.00237862,0.00064675,0.42287,0.00142013,0.0126059,1427,1730,9.44051,-46.7565
210,-706,9.4209,46.5168,0.00172925,0.00100535,0.000382757,0.00189409,0.000840507,0.406666,0.00109586,0.013083,1434,1730,9.4209,-46.5169
217,-706,9.40417,46.2747,0.00137169,0.000932442,-1.92844e-05,0.00137253,0.000931596,-0.0437912,0.000809134,0.0141013,1441,1730,9.40414,-46.2746
224,-706,9.44446,46.0037,0.00123642,0.000928543,-0.000423884,0.00153345,0.000631511,-0.611223,0.000889916,0.0192497,1448,1730,9.44443,-46.0037
231,-706,9.45972,45.7041,0.001066,0.000811387,-0.000788807,0.00173771,0.00013968,-0.705392,0.00111483,0.0149173,1455,1730,9.45968,-45.7041
238,-706,9.43604,45.4138,0.00100761,0.000638015,-0.00114815,0.00198574,-0.000340111,-0.705606,0.00145055,0.00927512,1462,1730,9.43605,-45.4138
245,-706,9.43335,45.0969,0.000968678,0.000399625,-0.00148669,0.00219783,-0.000829525,-0.69085,0.00180637,0.0112041,1469,1730,9.43333,-45.097
252,-706,9.42773,44.8092,0.000859532,0.00016107,-0.00177386,0.00231821,-0.00129761,-0.688203,0.00211513,0.0113404,1476,1730,9.42768,-44.8091
259,-706,9.42957,44.5271,0.000717655,-0.000235434,-0.00193219,0.0022312,-0.00174898,-0.664494,0.00230357,0.0126511,1483,1730,9.42955,-44.5271
266,-706,9.39722,44.224,0.000548318,-0.000650029,-0.00210185,0.00213473,-0.00223644,-0.646546,0.00252392,0.0133142,1490,1730,9.39717,-44.224
273,-706,9.3877,43.8649,0.000360041,-0.00044958,-0.00240657,0.00239561,-0.00248515,-0.702073,0.00281806,0.0123927,1497,1730,9.3877,-43.8649
280,-706,9.38672,43.4921,9.83388e-06,-0.000278092,-0.00263681,0.00250661,-0.00277487,-0.758127,0.00305057,0.0105342,1504,1730,9.3867,-43.4921
287,-706,9.3512,43.1473,-0.000327771,0.000162187,-0.0028313,0.00275909,-0.00292467,-0.828553,0.00328198,0.0110977,1511,1730,9.35124,-43.1473
294,-706,9.35437,42.8162,-0.000676712,0.00115467,-0.00288431,0.00326516,-0.0027872,-0.939102,0.00349796,0.0112154,1518,1730,9.35436,-42.8162
301,-706,9.34802,42.4333,-0.00101466,0.002099,-0.00290678,0.0038396,-0.00275527,-1.03125,0.00382467,0.0112034,1525,1730,9.34805,-42.4334
308,-706,9.3241,42.0393,-0.00149462,0.0028346,-0.00289426,0.00428417,-0.00294419,-1.10647,0.00419713,0.012353,1532,1730,9.32412,-42.0393
315,-706,9.30872,41.6862,-0.0021652,0.00363683,-0.00270933,0.00470525,-0.00323361,-1.19517,0.00460968,0.0185433,1539,1730,9.30876,-41.6862
322,-706,9.2467,41.342,-0.00274884,0.00474245,-0.00246806,0.00548247,-0.00348886,-1.27949,0.00522206,0.0244105,1546,1730,9.24675,-41.342
329,-706,9.27405,40.8517,-0.00322162,0.00624691,-0.00191731,0.00662042,-0.00359513,-1.3784,0.00598354,0.0288308,1553,1730,9.27408,-40.8516
336,-706,9.04346,40.2361,0,0,0,0,0,0,0,-1,1560,1730,9.04343,-40.2361
343,-706,9.06726,39.854,-0.00246237,0.00567529,-0.000601085,0.00571945,-0.00250653,-1.49746,0.00486853,0.0429607,1567,1730,9.06724,-39.854
350,-706,9.06567,39.6232,-0.0022075,0.00444973,0.000533459,0.00449221,-0.00224997,1.49134,0.00396371,0.0471811,1574,1730,9.06566,-39.6231
357,-706,9.03809,39.3398,-0.00155862,0.00297097,0.00170584,0.00354152,-0.00212917,1.24802,0.00330765,0.0497542,1581,1730,9.03813,-39.3398
364,-706,8.65955,39.1434,0,0,0,0,0,0,0,-1,1588,1730,8.65956,-39.1434
371,-706,8.43396,38.317,0,0,0,0,0,0,0,-1,1595,1730,8.43391,-38.317
378,-706,7.25085,37.1644,0,0,0,0,0,0,0,-1,1602,1730,7.25091,-37.1644
385,-706,6.88086,36.769,0,0,0,0,0,0,0,-1,1609,1730,6.88088,-36.7691
392,-706,6.43359,36.5219,0,0,0,0,0,0,0,-1,1616,1730,6.43354,-36.5218
399,-706,6.06824,36.3298,0,0,0,0,0,0,0,-1,1623,1730,6.06819,-36.3299
406,-706,5.74524,36.2214,0,0,0,0,0,0,0,-1,1630,1730,5.74521,-36.2215
413,-706,1.17773,29.6584,0,0,0,0,0,0,0,-1,1637,1730,1.17772,-29.6585
420,-706,6.51294,21.9171,0,0,0,0,0,0,0,-1,1644,1730,6.51292,-21.9171
427,-706,0,0,0,0,0,0,0,0,0,-1,1651,1730,0,0
434,-706,0,0,0,0,0,0,0,0,0,-1,1658,1730,0,0
441,-706,0,0,0,0,0,0,0,0,0,-1,1665,1730,0,0
448,-706,0,0,0,0,0,0,0,0,0,-1,1672,1730,0,0
455,-706,0,0,0,0,0,0,0,0,0,-1,1679,1730,0,0
462,-706,0,0,0,0,0,0,0,0,0,-1,1686,1730,0,0
469,-706,0,0,0,0,0,0,0,0,0,-1,1693,1730,0,0
476,-706,0,0,0,0,0,0,0,0,0,-1,1700,1730,0,0
483,-706,0,0,0,0,0,0,0,0,0,-1,1707,1730,0,0
490,-706,0,0,0,0,0,0,0,0,0,-1,1714,1730,0,0
497,-706,0,0,0,0,0,0,0,0,0,-1,1721,1730,0,0
504,-706,0,0,0,0,0,0,0,0,0,-1,1728,1730,0,0
511,-706,0,0,0,0,0,0,0,0,0,-1,1735,1730,0,0
518,-706,0,0,0,0,0,0,0,0,0,-1,1742,1730,0,0
525,-706,0,0,0,0,0,0,0,0,0,-1,1749,1730,0,0
532,-706,0,0,0,0,0,0,0,0,0,-1,1756,1730,0,0
539,-706,0,0,0,0,0,0,0,0,0,-1,1763,1730,0,0
546,-706,0,0,0,0,0,0,0,0,0,-1,1770,1730,0,0
553,-706,0,0,0,0,0,0,0,0,0,-1,1777,1730,0,0
560,-706,0,0,0,0,0,0,0,0,0,-1,1784,1730,0,0
567,-706,0,0,0,0,0,0,0,0,0,-1,1791,1730,0,0
574,-706,0,0,0,0,0,0,0,0,0,-1,1798,1730,0,0
581,-706,0,0,0,0,0,0,0,0,0,-1,1805,1730,0,0
588,-706,0,0,0,0,0,0,0,0,0,-1,1812,1730,0,0
595,-706,0,0,0,0,0,0,0,0,0,-1,1819,1730,0,0
602,-706,0,0,0,0,0,0,0,0,0,-1,1826,1730,0,0
609,-706,0,0,0,0,0,0,0,0,0,-1,1833,1730,0,0
616,-706,0,0,0,0,0,0,0,0,0,-1,1840,1730,0,0
623,-706,0,0,0,0,0,0,0,0,0,-1,1847,1730,0,0
630,-706,0,0,0,0,0,0,0,0,0,-1,1854,1730,0,0
637,-706,0,0,0,0,0,0,0,0,0,-1,1861,1730,0,0
644,-706,0,0,0,0,0,0,0,0,0,-1,1868,1730,0,0
651,-706,0,0,0,0,0,0,0,0,0,-1,1875,1730,0,0
658,-706,0,0,0,0,0,0,0,0,0,-1,1882,1730,0,0
665,-706,0,0,0,0,0,0,0,0,0,-1,1889,1730,0,0
672,-706,0,0,0,0,0,0,0,0,0,-1,1896,1730,0,0
679,-706,0,0,0,0,0,0,0,0,0,-1,1903,1730,0,0
686,-706,0,0,0,0,0,0,0,0,0,-1,1910,1730,0,0
693,-706,0,0,0,0,0,0,0,0,0,-1,1917,1730,0,0
700,-706,0,0,0,0,0,0,0,0,0,-1,1924,1730,0,0
707,-706,0,0,0,0,0,0,0,0,0,-1,1931,1730,0,0
714,-706,0,0,0,0,0,0,0,0,0,-1,1938,1730,0,0
721,-706,0,0,0,0,0,0,0,0,0,-1,1945,1730,0,0
728,-706,0,0,0,0,0,0,0,0,0,-1,1952,1730,0,0
735,-706,0,0,0,0,0,0,0,0,0,-1,1959,1730,0,0
742,-706,0,0,0,0,0,0,0,0,0,-1,1966,1730,0,0
749,-706,0,0,0,0,0,0,0,0,0,-1,1973,1730,0,0
756,-706,0,0,0,0,0,0,0,0,0,-1,1980,1730,0,0
763,-706,0,0,0,0,0,0,0,0,0,-1,1987,1730,0,0
770,-706,0,0,0,0,0,0,0,0,0,-1,1994,1730,0,0
777,-706,0,0,0,0,0,0,0,0,0,-1,2001,1730,0,0
784,-706,0,0,0,0,0,0,0,0,0,-1,2008,1730,0,0
791,-706,0,0,0,0,0,0,0,0,0,-1,2015,1730,0,0
798,-706,0,0,0,0,0,0,0,0,0,-1,2022,1730,0,0
805,-706,0,0,0,0,0,0,0,0,0,-1,2029,1730,0,0
812,-706,0,0,0,0,0,0,0,0,0,-1,2036,1730,0,0
-700,-713,0,0,0,0,0,0,0,0,0,-1,524,1737,0,0
-693,-713,0,0,0,0,0,0,0,0,0,-1,531,1737,0,0
-686,-713,0,0,0,0,0,0,0,0,0,-1,538,1737,0,0
-679,-713,0,0,0,0,0,0,0,0,0,-1,545,1737,0,0
-672,-713,0,0,0,0,0,0,0,0,0,-1,552,1737,0,0
-665,-713,0,0,0,0,0,0,0,0,0,-1,559,1737,0,0
-658,-713,0,0,0,0,0,0,0,0,0,-1,566,1737,0,0
-651,-713,0,0,0,0,0,0,0,0,0,-1,573,1737,0,0
-644,-713,0,0,0,0,0,0,0,0,0,-1,580,1737,0,0
-637,-713,0,0,0,0,0,0,0,0,0,-1,587,1737,0,0
-630,-713,0,0,0,0,0,0,0,0,0,-1,594,1737,0,0
-623,-713,0,0,0,0,0,0,0,0,0,-1,601,1737,0,0
-616,-713,0,0,0,0,0,0,0,0,0,-1,608,1737,0,0
-609,-713,0,0,0,0,0,0,0,0,0,-1,615,1737,0,0
-602,-713,0,0,0,0,0,0,0,0,0,-1,622,1737,0,0
-595,-713,0,0,0,0,0,0,0,0,0,-1,629,1737,0,0
-588,-713,0,0,0,0,0,0,0,0,0,-1,636,1737,0,0
-581,-713,0,0,0,0,0,0,0,0,0,-1,643,1737,0,0
-574,-713,0,0,0,0,0,0,0,0,0,-1,650,1737,0,0
-567,-713,0,0,0,0,0,0,0,0,0,-1,657,1737,0,0
-560,-713,0,0,0,0,0,0,0,0,0,-1,664,1737,0,0
-553,-713,0,0,0,0,0,0,0,0,0,-1,671,1737,0,0
-546,-713,0,0,0,0,0,0,0,0,0,-1,678,1737,0,0
-539,-713,0,0,0,0,0,0,0,0,0,-1,685,1737,0,0
-532,-713,0,0,0,0,0,0,0,0,0,-1,692,1737,0,0
-525,-713,0,0,0,0,0,0,0,0,0,-1,699,1737,0,0
-518,-713,0,0,0,0,0,0,0,0,0,-1,706,1737,0,0
-511,-713,0,0,0,0,0,0,0,0,0,-1,713,1737,0,0
-504,-713,0,0,0,0,0,0,0,0,0,-1,720,1737,0,0
-497,-713,0,0,0,0,0,0,0,0,0,-1,727,1737,0,0
-490,-713,0,0,0,0,0,0,0,0,0,-1,734,1737,0,0
-483,-713,0,0,0,0,0,0,0,0,0,-1,741,1737,0,0
-476,-713,0,0,0,0,0,0,0,0,0,-1,748,1737,0,0
-469,-713,0,0,0,0,0,0,0,0,0,-1,755,1737,0,0
-462,-713,0,0,0,0,0,0,0,0,0,-1,762,1737,0,0
-455,-713,0,0,0,0,0,0,0,0,0,-1,769,1737,0,0
-448,-713,0,0,0,0,0,0,0,0,0,-1,776,1737,0,0
-441,-713,0,0,0,0,0,0,0,0,0,-1,783,1737,0,0
-434,-713,0,0,0,0,0,0,0,0,0,-1,790,1737,0,0
-427,-713,0,0,0,0,0,0,0,0,0,-1,797,1737,0,0
-420,-713,0,0,0,0,0,0,0,0,0,-1,804,1737,0,0
-413,-713,0,0,0,0,0,0,0,0,0,-1,811,1737,0,0
-406,-713,0,0,0,0,0,0,0,0,0,-1,818,1737,0,0
-399,-713,0,0,0,0,0,0,0,0,0,-1,825,1737,0,0
-392,-713,0,0,0,0,0,0,0,0,0,-1,832,1737,0,0
-385,-713,0,0,0,0,0,0,0,0,0,-1,839,1737,0,0
-378,-713,0,0,0,0,0,0,0,0,0,-1,846,1737,0,0
-371,-713,0,0,0,0,0,0,0,0,0,-1,853,1737,0,0
-364,-713,0,0,0,0,0,0,0,0,0,-1,860,1737,0,0
-357,-713,0,0,0,0,0,0,0,0,0,-1,867,1737,0,0
-350,-713,0,0,0,0,0,0,0,0,0,-1,874,1737,0,0
-343,-713,0,0,0,0,0,0,0,0,0,-1,881,1737,0,0
-336,-713,0,0,0,0,0,0,0,0,0,-1,888,1737,0,0
-329,-713,0,0,0,0,0,0,0,0,0,-1,895,1737,0,0
-322,-713,0,0,0,0,0,0,0,0,0,-1,902,1737,0,0
-315,-713,0,0,0,0,0,0,0,0,0,-1,909,1737,0,0
-308,-713,0,0,0,0,0,0,0,0,0,-1,916,1737,0,0
-301,-713,0,0,0,0,0,0,0,0,0,-1,923,1737,0,0
-294,-713,7.17883,22.0453,0,0,0,0,0,0,0,-1,930,1737,7.17881,-22.0453
-287,-713,11.8916,21.5834,0,0,0,0,0,0,0,-1,937,1737,11.8916,-21.5833
-280,-713,10.2786,21.3551,0,0,0,0,0,0,0,-1,944,1737,10.2787,-21.3551
-273,-713,11.1981,23.8683,0,0,0,0,0,0,0,-1,951,1737,11.198,-23.8683
-266,-713,3.17981,19.8851,0,0,0,0,0,0,0,-1,958,1737,3.17983,-19.8851
-259,-713,3.5921,19.6868,0,0,0,0,0,0,0,-1,965,1737,3.59207,-19.6868
-252,-713,4.55469,20.5758,0,0,0,0,0,0,0,-1,972,1737,4.55466,-20.5758
-245,-713,3.89014,25.9825,0,0,0,0,0,0,0,-1,979,1737,3.89013,-25.9826
-238,-713,6.62506,30.5463,0,0,0,0,0,0,0,-1,986,1737,6.62509,-30.5462
-231,-713,7.31439,35.574,0,0,0,0,0,0,0,-1,993,1737,7.31436,-35.574
-224,-713,8.51831,39.5012,0,0,0,0,0,0,0,-1,1000,1737,8.5183,-39.5012
-217,-713,8.62335,39.7986,0,0,0,0,0,0,0,-1,1007,1737,8.62334,-39.7986
-210,-713,8.72839,40.0959,0,0,0,0,0,0,0,-1,1014,1737,8.72838,-40.0959
-203,-713,8.91699,40.2844,0,0,0,0,0,0,0,-1,1021,1737,8.91702,-40.2845
-196,-713,8.80115,40.8268,-0.0108794,-0.00516153,-3.50218e-05,-0.00516131,-0.0108796,-1.56467,0.00628409,0.0481911,1028,1737,8.80112,-40.8268
-189,-713,8.75366,41.0909,-0.0110947,-0.00619071,8.55918e-07,-0.00619071,-0.0110947,1.57062,0.00641985,0.0423967,1035,1737,8.75361,-41.0909
-182,-713,8.63794,41.5231,-0.0113111,-0.00644445,-5.11222e-05,-0.00644391,-0.0113116,-1.56029,0.00655187,0.028393,1042,1737,8.63792,-41.5231
-175,-713,8.76978,41.9536,-0.0112799,-0.00617522,9.75378e-05,-0.00617335,-0.0112817,1.5517,0.00652318,0.0276767,1049,1737,8.76977,-41.9537
-168,-713,8.87622,42.3556,-0.0108899,-0.00583001,0.000247503,-0.00581793,-0.0109019,1.52204,0.00629899,0.0354689,1056,1737,8.87617,-42.3556
-161,-713,8.70935,42.8503,-0.0102828,-0.00499948,0.000269446,-0.00498577,-0.0102965,1.51997,0.00594565,0.0166591,1063,1737,8.70929,-42.8504
-154,-713,8.60266,43.2454,-0.0093172,-0.00400588,0.000452853,-0.00396754,-0.00935554,1.48635,0.00542213,0.0125529,1070,1737,8.60261,-43.2454
-147,-713,8.56958,43.6218,-0.00802663,-0.00289498,0.000694425,-0.00280266,-0.00811894,1.43864,0.00476177,0.0203125,1077,1737,8.56963,-43.6219
-140,-713,8.59619,43.9788,-0.00659915,-0.00173661,0.000878243,-0.00158285,-0.00675291,1.39748,0.00407804,0.0186819,1084,1737,8.59624,-43.9787
-133,-713,8.57544,44.2742,-0.00516703,-0.000751963,0.00103645,-0.00052076,-0.00539823,1.35132,0.0034384,0.012055,1091,1737,8.57549,-44.2742
-126,-713,8.54907,44.5712,-0.0040586,0.000144278,0.00112495,0.00042644,-0.00434076,1.32504,0.00304595,0.0190363,1098,1737,8.54913,-44.5711
-119,-713,8.51929,44.8884,-0.00309296,0.000906292,0.00123473,0.00125679,-0.00344345,1.29421,0.00280987,0.028156,1105,1737,8.51925,-44.8884
-112,-713,8.48755,45.2592,-0.00163536,0.00193332,0.00140029,0.00241717,-0.00211921,1.2381,0.00262096,0.0146226,1112,1737,8.48756,-45.2592
-105,-713,8.48877,45.5499,-0.000560082,0.00241142,0.00148201,0.00302419,-0.00117285,1.17873,0.00250051,0.0111653,1119,1737,8.48876,-45.5499
-98,-713,8.46448,45.8289,-0.000349229,0.00225026,0.00138077,0.00284679,-0.000945757,1.16299,0.00227948,0.0102365,1126,1737,8.46444,-45.8288
-91,-713,8.44604,46.1033,-8.31776e-05,0.0021099,0.00126479,0.00268731,-0.000660583,1.14253,0.00204757,0.0103943,1133,1737,8.44607,-46.1033
-84,-713,8.45288,46.3651,0.000194149,0.00182614,0.00110429,0.00238321,-0.000362923,1.10359,0.00172257,0.0100523,1140,1737,8.45292,-46.3651
-77,-713,8.45972,46.632,0.000566073,0.00170614,0.000940956,0.00223626,3.59525e-05,1.05774,0.001479,0.0128916,1147,1737,8.45974,-46.6319
-70,-713,8.44153,46.8931,0.000861425,0.0014277,0.000707798,0.00190689,0.000382235,0.975663,0.00116494,0.014625,1154,1737,8.44155,-46.8931
-63,-713,8.42517,47.1213,0.00116863,0.00100875,0.000512961,0.00160784,0.000569535,0.708102,0.000941346,0.0130283,1161,1737,8.42516,-47.1214
-56,-713,8.453,47.34,0.00170167,0.000889621,0.000622124,0.00203854,0.000552749,0.496283,0.00121735,0.0126342,1168,1737,8.45305,-47.34
-49,-713,8.41492,47.5607,0.00229963,0.000875919,0.00065455,0.00255482,0.00062073,0.371742,0.00153862,0.0150668,1175,1737,8.41494,-47.5606
-42,-713,8.42188,47.7631,0.00298615,0.000986994,0.000789668,0.00326044,0.000712707,0.334307,0.0019793,0.0178901,1182,1737,8.42187,-47.7631
-35,-713,8.46826,47.8981,0.00384664,0.001485,0.00119809,0.00434801,0.000983632,0.396329,0.00263277,0.0148316,1189,1737,8.46827,-47.8981
-28,-713,8.50537,48.0742,0.00449699,0.00181518,0.0014518,0.00513239,0.00117979,0.412543,0.00310399,0.0138224,1196,1737,8.50543,-48.0742
-21,-713,8.48877,48.2444,0.0051181,0.00221199,0.00179204,0.00597216,0.00135792,0.444741,0.00361484,0.00980734,1203,1737,8.48876,-48.2444
-14,-713,8.51367,48.3784,0.00553143,0.00297279,0.00219823,0.00679551,0.00170871,0.521867,0.00408178,0.0110122,1210,1737,8.51368,-48.3784
-7,-713,8.55273,48.5188,0.00578723,0.00404832,0.00259899,0.00765834,0.00217721,0.623982,0.00455663,0.0108121,1217,1737,8.5528,-48.5189
0,-713,8.57654,48.6515,0.0058334,0.00553257,0.00302454,0.00871126,0.00265471,0.760553,0.00515569,0.0149856,1224,1737,8.5765,-48.6515
7,-713,8.5968,48.7625,0.00574897,0.0071812,0.00326704,0.00980968,0.00312048,0.893289,0.0057872,0.0165734,1231,1737,8.59685,-48.7624
14,-713,8.61877,48.8674,0.00554348,0.00857443,0.00330221,0.0106923,0.0034256,1.00052,0.00630459,0.0121986,1238,1737,8.6188,-48.8675
21,-713,8.64783,48.9503,0.00513328,0.00969217,0.00317802,0.0113237,0.00350175,1.0965,0.00669446,0.0104887,1245,1737,8.64783,-48.9503
28,-713,8.64587,49.0332,0.00475699,0.0107597,0.00296609,0.0119781,0.00353865,1.18105,0.00710587,0.0107304,1252,1737,8.6459,-49.0332
35,-713,8.672,49.0951,0.00440872,0.0116364,0.00252539,0.0124314,0.00361378,1.26583,0.00738389,0.0109836,1259,1737,8.67199,-49.0951
42,-713,8.71973,49.1493,0.00409257,0.0117366,0.00203169,0.0122431,0.00358613,1.3265,0.00726782,0.0111641,1266,1737,8.71973,-49.1493
49,-713,8.74231,49.1714,0.00369638,0.0112884,0.00149854,0.0115735,0.0034113,1.3828,0.00686707,0.0115503,1273,1737,8.74226,-49.1714
56,-713,8.77026,49.1888,0.00369875,0.0103451,0.00100889,0.0104948,0.00354898,1.42342,0.00616409,0.0127435,1280,1737,8.77023,-49.1888
63,-713,8.79492,49.1908,0.00406096,0.00886831,0.000664972,0.0089586,0.00397067,1.43585,0.00518335,0.0133862,1287,1737,8.79492,-49.1908
70,-713,8.83569,49.1689,0.00414477,0.00693778,0.000337867,0.00697807,0.00410448,1.45211,0.00404963,0.0125358,1294,1737,8.83572,-49.169
77,-713,8.8678,49.1779,0.00451109,0.00497955,0.000383814,0.00519496,0.00429568,1.05937,0.00320587,0.0122846,1301,1737,8.86778,-49.1779
84,-713,8.89038,49.181,0.00493166,0.00300247,0.000565072,0.00508499,0.00284915,0.264961,0.00294293,0.0122618,1308,1737,8.8904,-49.181
91,-713,8.91443,49.1368,0.00542426,0.000885904,0.000900756,0.0055965,0.000713663,0.188938,0.00351733,0.0120388,1315,1737,8.91442,-49.1369
98,-713,8.94458,49.0662,0.00580864,-0.000990843,0.0013967,0.00608436,-0.00126656,0.194902,0.00453774,0.0115208,1322,1737,8.94454,-49.0661
105,-713,8.96838,49.0107,0.00604756,-0.00256062,0.00185999,0.00643226,-0.00294532,0.203953,0.00553751,0.0126892,1329,1737,8.96834,-49.0108
112,-713,8.98157,48.9628,0.0061641,-0.00371159,0.00244049,0.00673428,-0.00428177,0.229516,0.00641244,0.0131631,1336,1737,8.98161,-48.9628
119,-713,9.00964,48.8854,0.00612056,-0.00430797,0.00300813,0.00692604,-0.00511346,0.261632,0.00697722,0.014444,1343,1737,9.00966,-48.8853
126,-713,9.03247,48.7848,0.00605001,-0.00451635,0.00344809,0.00707566,-0.00554199,0.289119,0.00730272,0.0142003,1350,1737,9.03251,-48.7848
133,-713,9.05872,48.6256,0.00576057,-0.00448286,0.00371362,0.00696522,-0.00568751,0.313678,0.00731747,0.0128203,1357,1737,9.05874,-48.6257
140,-713,9.08826,48.4417,0.0053637,-0.00410178,0.00382382,0.0067154,-0.00545348,0.339785,0.00703829,0.0133483,1364,1737,9.08823,-48.4416
147,-713,9.11206,48.2947,0.00491947,-0.00331891,0.00372045,0.00635091,-0.00475035,0.36729,0.00643148,0.0141967,1371,1737,9.11204,-48.2947
154,-713,9.10889,48.2089,0.00448258,-0.00259981,0.00338113,0.00583751,-0.00395475,0.38114,0.0056883,0.0143936,1378,1737,9.10883,-48.2088
161,-713,9.11987,48.0143,0.003763,-0.00190873,0.00302868,0.00507624,-0.00322196,0.409132,0.00483067,0.010285,1385,1737,9.11989,-48.0142
168,-713,9.14343,47.8146,0.00288372,-0.0012094,0.00248612,0.00405729,-0.00238297,0.441036,0.00375993,0.0093306,1392,1737,9.14343,-47.8146
175,-713,9.17566,47.6161,0.00255683,-0.000568823,0.00191905,0.00346892,-0.00148091,0.443676,0.00293361,0.012796,1399,1737,9.17567,-47.6161
182,-713,9.16833,47.4253,0.00217726,-3.4259e-05,0.00133241,0.00280298,-0.000659982,0.439046,0.00212312,0.0123917,1406,1737,9.16828,-47.4253
189,-713,9.17224,47.2164,0.0016581,0.000362612,0.000748797,0.00200045,2.02717e-05,0.428815,0.00132692,0.0115063,1413,1737,9.17226,-47.2164
196,-713,9.19446,46.99,0.00114582,0.000831528,0.000222244,0.00126087,0.000716485,0.477661,0.000730219,0.0113961,1420,1737,9.1945,-46.9899
203,-713,9.20422,46.7721,0.000793411,0.00112511,-0.000199347,0.00121858,0.000699944,-1.13237,0.000706139,0.0157237,1427,1737,9.2042,-46.7722
210,-713,9.17773,46.5127,0.000663601,0.00136868,-0.000537728,0.00165913,0.000373151,-1.07555,0.00100506,0.015143,1434,1737,9.17778,-46.5127
217,-713,9.18152,46.2595,0.000606887,0.00139862,-0.000917135,0.00200168,3.83018e-06,-0.989136,0.00133318,0.0121407,1441,1737,9.18148,-46.2596
224,-713,9.17212,46.0109,0.000682813,0.0010085,-0.00139757,0.00225268,-0.000561366,-0.843397,0.00171973,0.0124734,1448,1737,9.17209,-46.0108
231,-713,9.17273,45.7347,0.000500682,0.000698678,-0.00170859,0.00231114,-0.00111178,-0.814336,0.00201625,0.0120524,1455,1737,9.17278,-45.7348
238,-713,9.15479,45.4319,0.000509143,0.000308231,-0.00206118,0.00247232,-0.00165494,-0.761049,0.0023984,0.00892199,1462,1737,9.15474,-45.4319
245,-713,9.14441,45.1173,0.000525979,-0.00012,-0.00241061,0.00263514,-0.00222916,-0.718801,0.00281166,0.0110422,1469,1737,9.14445,-45.1173
252,-713,9.13928,44.8063,0.000450084,-0.000524104,-0.00267579,0.00268275,-0.00275677,-0.695365,0.00314061,0.0116484,1476,1737,9.13928,-44.8063
259,-713,9.14282,44.498,0.000317495,-0.00110072,-0.00276107,0.00245906,-0.00324229,-0.659703,0.00330201,0.0120751,1483,1737,9.14284,-44.498
266,-713,9.11072,44.2052,0.000157996,-0.00166621,-0.00288742,0.00227395,-0.00378216,-0.632413,0.00353245,0.0112345,1490,1737,9.11074,-44.2052
273,-713,9.08289,43.8727,-6.69557e-08,-0.00138413,-0.00322264,0.002604,-0.0039882,-0.679634,0.00383388,0.00953954,1497,1737,9.0829,-43.8727
280,-713,9.047,43.5217,-0.000352796,-0.00111515,-0.00345322,0.00274022,-0.00420817,-0.730429,0.00404139,0.0105595,1504,1737,9.04701,-43.5217
287,-713,9.01685,43.174,-0.000692343,-0.000462287,-0.00365761,0.00308211,-0.00423673,-0.801117,0.00424303,0.0108934,1511,1737,9.01689,-43.174
294,-713,9.00757,42.8405,-0.0010314,0.000942312,-0.00369058,0.00377569,-0.00386479,-0.916041,0.00441133,0.0147086,1518,1737,9.00762,-42.8404
301,-713,8.96741,42.4486,-0.00132025,0.0023277,-0.00367283,0.00460452,-0.00359707,-1.01587,0.00474709,0.0170858,1525,1737,8.96735,-42.4486
308,-713,8.94653,42.0649,-0.00180524,0.00344081,-0.00360703,0.00527771,-0.00364214,-1.09977,0.00517866,0.0188593,1532,1737,8.94658,-42.065
315,-713,8.94604,41.7388,-0.00256001,0.0047332,-0.00335906,0.00604452,-0.00387133,-1.19861,0.00577057,0.0274625,1539,1737,8.94599,-41.7388
322,-713,9.03821,40.8723,-0.00325801,0.00644836,-0.00306838,0.00733698,-0.00414663,-1.2889,0.00671481,0.0418393,1546,1737,9.03818,-40.8723
329,-713,9.04358,40.6476,0,0,0,0,0,0,0,-1,1553,1737,9.04353,-40.6476
336,-713,8.74463,40.0415,0,0,0,0,0,0,0,-1,1560,1737,8.74463,-40.0416
343,-713,8.18701,39.8011,0,0,0,0,0,0,0,-1,1567,1737,8.18705,-39.8012
350,-713,8.38708,39.7352,0,0,0,0,0,0,0,-1,1574,1737,8.38706,-39.7352
357,-713,8.54651,39.53,0,0,0,0,0,0,0,-1,1581,1737,8.54649,-39.5301
364,-713,7.35474,20.9537,0,0,0,0,0,0,0,-1,1588,1737,7.35472,-20.9537
371,-713,3.07507,25.4108,0,0,0,0,0,0,0,-1,1595,1737,3.07502,-25.4107
378,-713,5.16516,38.248,0,0,0,0,0,0,0,-1,1602,1737,5.16511,-38.248
385,-713,5.6416,36.8367,0,0,0,0,0,0,0,-1,1609,1737,5.64155,-36.8367
392,-713,5.11096,36.6809,0,0,0,0,0,0,0,-1,1616,1737,5.11091,-36.6809
399,-713,4.47375,36.4706,0,0,0,0,0,0,0,-1,1623,1737,4.47376,-36.4706
406,-713,2.30334,27.5551,0,0,0,0,0,0,0,-1,1630,1737,2.30332,-27.555
413,-713,1.1001,29.3845,0,0,0,0,0,0,0,-1,1637,1737,1.10012,-29.3846
420,-713,0,0,0,0,0,0,0,0,0,-1,1644,1737,0,0
427,-713,0,0,0,0,0,0,0,0,0,-1,1651,1737,0,0
434,-713,0,0,0,0,0,0,0,0,0,-1,1658,1737,0,0
441,-713,0,0,0,0,0,0,0,0,0,-1,1665,1737,0,0
448,-713,0,0,0,0,0,0,0,0,0,-1,1672,1737,0,0
455,-713,0,0,0,0,0,0,0,0,0,-1,1679,1737,0,0
462,-713,0,0,0,0,0,0,0,0,0,-1,1686,1737,0,0
469,-713,0,0,0,0,0,0,0,0,0,-1,1693,1737,0,0
476,-713,0,0,0,0,0,0,0,0,0,-1,1700,1737,0,0
483,-713,0,0,0,0,0,0,0,0,0,-1,1707,1737,0,0
490,-713,0,0,0,0,0,0,0,0,0,-1,1714,1737,0,0
497,-713,0,0,0,0,0,0,0,0,0,-1,1721,1737,0,0
504,-713,0,0,0,0,0,0,0,0,0,-1,1728,1737,0,0
511,-713,0,0,0,0,0,0,0,0,0,-1,1735,1737,0,0
518,-713,0,0,0,0,0,0,0,0,0,-1,1742,1737,0,0
525,-713,0,0,0,0,0,0,0,0,0,-1,1749,1737,0,0
532,-713,0,0,0,0,0,0,0,0,0,-1,1756,1737,0,0
539,-713,0,0,0,0,0,0,0,0,0,-1,1763,1737,0,0
546,-713,0,0,0,0,0,0,0,0,0,-1,1770,1737,0,0
553,-713,0,0,0,0,0,0,0,0,0,-1,1777,1737,0,0
560,-713,0,0,0,0,0,0,0,0,0,-1,1784,1737,0,0
567,-713,0,0,0,0,0,0,0,0,0,-1,1791,1737,0,0
574,-713,0,0,0,0,0,0,0,0,0,-1,1798,1737,0,0
581,-713,0,0,0,0,0,0,0,0,0,-1,1805,1737,0,0
588,-713,0,0,0,0,0,0,0,0,0,-1,1812,1737,0,0
595,-713,0,0,0,0,0,0,0,0,0,-1,1819,1737,0,0
602,-713,0,0,0,0,0,0,0,0,0,-1,1826,1737,0,0
609,-713,0,0,0,0,0,0,0,0,0,-1,1833,1737,0,0
616,-713,0,0,0,0,0,0,0,0,0,-1,1840,1737,0,0
623,-713,0,0,0,0,0,0,0,0,0,-1,1847,1737,0,0
630,-713,0,0,0,0,0,0,0,0,0,-1,1854,1737,0,0
637,-713,0,0,0,0,0,0,0,0,0,-1,1861,1737,0,0
644,-713,0,0,0,0,0,0,0,0,0,-1,1868,1737,0,0
651,-713,0,0,0,0,0,0,0,0,0,-1,1875,1737,0,0
658,-713,0,0,0,0,0,0,0,0,0,-1,1882,1737,0,0
665,-713,0,0,0,0,0,0,0,0,0,-1,1889,1737,0,0
672,-713,0,0,0,0,0,0,0,0,0,-1,1896,1737,0,0
679,-713,0,0,0,0,0,0,0,0,0,-1,1903,1737,0,0
686,-713,0,0,0,0,0,0,0,0,0,-1,1910,1737,0,0
693,-713,0,0,0,0,0,0,0,0,0,-1,1917,1737,0,0
700,-713,0,0,0,0,0,0,0,0,0,-1,1924,1737,0,0
707,-713,0,0,0,0,0,0,0,0,0,-1,1931,1737,0,0
714,-713,0,0,0,0,0,0,0,0,0,-1,1938,1737,0,0
721,-713,0,0,0,0,0,0,0,0,0,-1,1945,1737,0,0
728,-713,0,0,0,0,0,0,0,0,0,-1,1952,1737,0,0
735,-713,0,0,0,0,0,0,0,0,0,-1,1959,1737,0,0
742,-713,0,0,0,0,0,0,0,0,0,-1,1966,1737,0,0
749,-713,0,0,0,0,0,0,0,0,0,-1,1973,1737,0,0
756,-713,0,0,0,0,0,0,0,0,0,-1,1980,1737,0,0
763,-713,0,0,0,0,0,0,0,0,0,-1,1987,1737,0,0
770,-713,0,0,0,0,0,0,0,0,0,-1,1994,1737,0,0
777,-713,0,0,0,0,0,0,0,0,0,-1,2001,1737,0,0
784,-713,0,0,0,0,0,0,0,0,0,-1,2008,1737,0,0
791,-713,0,0,0,0,0,0,0,0,0,-1,2015,1737,0,0
798,-713,0,0,0,0,0,0,0,0,0,-1,2022,1737,0,0
805,-713,0,0,0,0,0,0,0,0,0,-1,2029,1737,0,0
812,-713,0,0,0,0,0,0,0,0,0,-1,2036,1737,0,0
-700,-720,0,0,0,0,0,0,0,0,0,-1,524,1744,0,0
-693,-720,0,0,0,0,0,0,0,0,0,-1,531,1744,0,0
-686,-720,0,0,0,0,0,0,0,0,0,-1,538,1744,0,0
-679,-720,0,0,0,0,0,0,0,0,0,-1,545,1744,0,0
-672,-720,0,0,0,0,0,0,0,0,0,-1,552,1744,0,0
-665,-720,0,0,0,0,0,0,0,0,0,-1,559,1744,0,0
-658,-720,0,0,0,0,0,0,0,0,0,-1,566,1744,0,0
-651,-720,0,0,0,0,0,0,0,0,0,-1,573,1744,0,0
-644,-720,0,0,0,0,0,0,0,0,0,-1,580,1744,0,0
-637,-720,0,0,0,0,0,0,0,0,0,-1,587,1744,0,0
-630,-720,0,0,0,0,0,0,0,0,0,-1,594,1744,0,0
-623,-720,0,0,0,0,0,0,0,0,0,-1,601,1744,0,0
-616,-720,0,0,0,0,0,0,0,0,0,-1,608,1744,0,0
-609,-720,0,0,0,0,0,0,0,0,0,-1,615,1744,0,0
-602,-720,0,0,0,0,0,0,0,0,0,-1,622,1744,0,0
-595,-720,0,0,0,0,0,0,0,0,0,-1,629,1744,0,0
-588,-720,0,0,0,0,0,0,0,0,0,-1,636,1744,0,0
-581,-720,0,0,0,0,0,0,0,0,0,-1,643,1744,0,0
-574,-720,0,0,0,0,0,0,0,0,0,-1,650,1744,0,0
-567,-720,0,0,0,0,0,0,0,0,0,-1,657,1744,0,0
-560,-720,0,0,0,0,0,0,0,0,0,-1,664,1744,0,0
-553,-720,0,0,0,0,0,0,0,0,0,-1,671,1744,0,0
-546,-720,0,0,0,0,0,0,0,0,0,-1,678,1744,0,0
-539,-720,0,0,0,0,0,0,0,0,0,-1,685,1744,0,0
-532,-720,0,0,0,0,0,0,0,0,0,-1,692,1744,0,0
-525,-720,0,0,0,0,0,0,0,0,0,-1,699,1744,0,0
-518,-720,0,0,0,0,0,0,0,0,0,-1,706,1744,0,0
-511,-720,0,0,0,0,0,0,0,0,0,-1,713,1744,0,0
-504,-720,0,0,0,0,0,0,0,0,0,-1,720,1744,0,0
-497,-720,0,0,0,0,0,0,0,0,0,-1,727,1744,0,0
-490,-720,0,0,0,0,0,0,0,0,0,-1,734,1744,0,0
-483,-720,0,0,0,0,0,0,0,0,0,-1,741,1744,0,0
-476,-720,0,0,0,0,0,0,0,0,0,-1,748,1744,0,0
-469,-720,0,0,0,0,0,0,0,0,0,-1,755,1744,0,0
-462,-720,0,0,0,0,0,0,0,0,0,-1,762,1744,0,0
-455,-720,0,0,0,0,0,0,0,0,0,-1,769,1744,0,0
-448,-720,0,0,0,0,0,0,0,0,0,-1,776,1744,0,0
-441,-720,0,0,0,0,0,0,0,0,0,-1,783,1744,0,0
-434,-720,0,0,0,0,0,0,0,0,0,-1,790,1744,0,0
-427,-720,0,0,0,0,0,0,0,0,0,-1,797,1744,0,0
-420,-720,0,0,0,0,0,0,0,0,0,-1,804,1744,0,0
-413,-720,0,0,0,0,0,0,0,0,0,-1,811,1744,0,0
-406,-720,0,0,0,0,0,0,0,0,0,-1,818,1744,0,0
-399,-720,0,0,0,0,0,0,0,0,0,-1,825,1744,0,0
-392,-720,0,0,0,0,0,0,0,0,0,-1,832,1744,0,0
-385,-720,0,0,0,0,0,0,0,0,0,-1,839,1744,0,0
-378,-720,0,0,0,0,0,0,0,0,0,-1,846,1744,0,0
-371,-720,0,0,0,0,0,0,0,0,0,-1,853,1744,0,0
-364,-720,0,0,0,0,0,0,0,0,0,-1,860,1744,0,0
-357,-720,0,0,0,0,0,0,0,0,0,-1,867,1744,0,0
-350,-720,0,0,0,0,0,0,0,0,0,-1,874,1744,0,0
-343,-720,0,0,0,0,0,0,0,0,0,-1,881,1744,0,0
-336,-720,0,0,0,0,0,0,0,0,0,-1,888,1744,0,0
-329,-720,0,0,0,0,0,0,0,0,0,-1,895,1744,0,0
-322,-720,0,0,0,0,0,0,0,0,0,-1,902,1744,0,0
-315,-720,0,0,0,0,0,0,0,0,0,-1,909,1744,0,0
-308,-720,0,0,0,0,0,0,0,0,0,-1,916,1744,0,0
-301,-720,0,0,0,0,0,0,0,0,0,-1,923,1744,0,0
-294,-720,0,0,0,0,0,0,0,0,0,-1,930,1744,0,0
-287,-720,0,0,0,0,0,0,0,0,0,-1,937,1744,0,0
-280,-720,6.46796,22.6417,0,0,0,0,0,0,0,-1,944,1744,6.46793,-22.6417
-273,-720,8.54633,13.262,0,0,0,0,0,0,0,-1,951,1744,8.54636,-13.2619
-266,-720,7.28027,13.3165,0,0,0,0,0,0,0,-1,958,1744,7.28026,-13.3166
-259,-720,3.70563,18.6372,0,0,0,0,0,0,0,-1,965,1744,3.70564,-18.6372
-252,-720,4.00989,18.5059,0,0,0,0,0,0,0,-1,972,1744,4.00988,-18.5058
-245,-720,7.05634,33.8489,0,0,0,0,0,0,0,-1,979,1744,7.05634,-33.8489
-238,-720,5.02216,24.1455,0,0,0,0,0,0,0,-1,986,1744,5.02217,-24.1455
-231,-720,7.35455,28.3225,0,0,0,0,0,0,0,-1,993,1744,7.35453,-28.3225
-224,-720,9.2887,38.2468,0,0,0,0,0,0,0,-1,1000,1744,9.28869,-38.2468
-217,-720,8.88116,39.9061,0,0,0,0,0,0,0,-1,1007,1744,8.88116,-39.9061
-210,-720,8.74036,38.6686,0,0,0,0,0,0,0,-1,1014,1744,8.74035,-38.6686
-203,-720,7.89978,34.8447,0,0,0,0,0,0,0,-1,1021,1744,7.89975,-34.8447
-196,-720,9.10339,40.9557,0,0,0,0,0,0,0,-1,1028,1744,9.10342,-40.9557
-189,-720,8.96545,41.0228,0,0,0,0,0,0,0,-1,1035,1744,8.96549,-41.0228
-182,-720,9.0614,41.5386,-0.016387,-0.0103646,-0.0011782,-0.0101423,-0.0166093,-1.38432,0.00966732,0.041279,1042,1744,9.06137,-41.5386
-175,-720,9.2002,42.0634,-0.0163674,-0.00981407,-0.000918945,-0.00968765,-0.0164939,-1.43408,0.00957105,0.0405366,1049,1744,9.20015,-42.0633
-168,-720,9.24207,42.4579,-0.0157747,-0.00914731,-0.000646631,-0.00908481,-0.0158372,-1.47444,0.00917662,0.0462056,1056,1744,9.24212,-42.4578
-161,-720,8.77002,42.906,-0.014856,-0.00781808,-0.000474383,-0.00778625,-0.0148879,-1.5038,0.00859855,0.0357686,1063,1744,8.76998,-42.906
-154,-720,8.96863,43.3033,-0.0134954,-0.00626581,-8.78347e-05,-0.00626474,-0.0134965,-1.55865,0.00779885,0.025742,1070,1744,8.96864,-43.3033
-147,-720,8.91553,43.6995,-0.0117477,-0.0045778,0.000358428,-0.00455992,-0.0117656,1.52097,0.00684988,0.0230309,1077,1744,8.91554,-43.6995
-140,-720,8.93042,44.0406,-0.00986374,-0.00283217,0.000743354,-0.00275444,-0.00994147,1.46661,0.00592683,0.019469,1084,1744,8.93038,-44.0407
-133,-720,8.8844,44.3043,-0.00800154,-0.00133284,0.00108286,-0.00116142,-0.00817297,1.41379,0.00510573,0.015174,1091,1744,8.88445,-44.3043
-126,-720,8.84326,44.6183,-0.00656262,-8.01329e-06,0.00131518,0.000246032,-0.00681667,1.37998,0.00462864,0.0153107,1098,1744,8.84332,-44.6183
-119,-720,8.79761,44.9236,-0.00530734,0.00108752,0.00153556,0.00143713,-0.00565695,1.34694,0.00433057,0.0153266,1105,1744,8.79759,-44.9236
-112,-720,8.75879,45.235,-0.00331957,0.00270046,0.0018673,0.00323262,-0.00385173,1.29317,0.00409535,0.0136008,1112,1744,8.75874,-45.235
-105,-720,8.74255,45.5386,-0.00183582,0.00356702,0.00215428,0.00432082,-0.00258963,1.2342,0.00403127,0.0134942,1119,1744,8.74261,-45.5385
-98,-720,8.73364,45.8214,-0.00167141,0.00340899,0.00203643,0.0041245,-0.00238693,1.23291,0.00380373,0.0110166,1126,1744,8.73368,-45.8215
-91,-720,8.71411,46.1002,-0.00143442,0.00327236,0.00190172,0.00394469,-0.00210675,1.23097,0.00354711,0.00998216,1133,1744,8.71405,-46.1002
-84,-720,8.70532,46.3793,-0.00120292,0.00286478,0.00168449,0.00347177,-0.00180991,1.22494,0.00309929,0.0108194,1140,1744,8.70526,-46.3793
-77,-720,8.69543,46.6442,-0.000817094,0.00255401,0.00152906,0.00314423,-0.00140731,1.20242,0.00269085,0.0133245,1147,1744,8.69546,-46.6441
-70,-720,8.67139,46.8857,-0.000549851,0.00209775,0.00127073,0.00260894,-0.00106105,1.18832,0.00218079,0.0120089,1154,1744,8.67134,-46.8858
-63,-720,8.62244,47.1062,-0.000470249,0.00169955,0.000891923,0.00201912,-0.000789819,1.22675,0.00167271,0.0119004,1161,1744,8.62239,-47.1062
-56,-720,8.6698,47.3322,-0.000269614,0.00148354,0.000745516,0.0017577,-0.000543768,1.21841,0.001389,0.013238,1168,1744,8.66982,-47.3322
-49,-720,8.64526,47.5393,-8.99956e-06,0.00125961,0.000644618,0.00152967,-0.000279059,1.17407,0.0011244,0.0181281,1175,1744,8.64525,-47.5393
-42,-720,8.62988,47.7318,0.000187125,0.00105652,0.000588438,0.00135341,-0.000109766,1.10352,0.000940998,0.0202947,1182,1744,8.62987,-47.7319
-35,-720,8.64746,47.8989,0.000402773,0.00100304,0.000635166,0.00140541,3.99072e-07,1.00611,0.000936809,0.0172443,1189,1744,8.64748,-47.8989
-28,-720,8.66956,48.0842,0.000567069,0.00104285,0.000726897,0.00156979,4.0124e-05,0.943538,0.00103341,0.0106093,1196,1744,8.6696,-48.0842
-21,-720,8.65588,48.2689,0.000772132,0.00116132,0.000926593,0.00191353,1.99213e-05,0.8889,0.0012691,0.00886468,1203,1744,8.65584,-48.2689
-14,-720,8.65137,48.3951,0.000906723,0.0016181,0.00120718,0.0025209,3.92087e-06,0.928666,0.00167929,0.0113328,1210,1744,8.65142,-48.3951
-7,-720,8.67468,48.5358,0.000959355,0.00229193,0.00146596,0.00323591,1.53729e-05,0.998696,0.00215217,0.0129419,1217,1744,8.67471,-48.5357
0,-720,8.69006,48.6815,0.000968087,0.00333173,0.00178729,0.0042926,7.22031e-06,1.07752,0.00285933,0.0134908,1224,1744,8.69003,-48.6815
7,-720,8.70251,48.7942,0.0010029,0.00450633,0.00201467,0.00542433,8.48994e-05,1.14325,0.00358826,0.0152699,1231,1744,8.70253,-48.7942
14,-720,8.72437,48.8774,0.00103834,0.00559615,0.00213025,0.00643676,0.000197735,1.19495,0.0042268,0.0144962,1238,1744,8.72439,-48.8774
21,-720,8.72949,48.9664,0.000982803,0.00653826,0.0021397,0.00726682,0.00025424,1.24261,0.00476206,0.011357,1245,1744,8.72944,-48.9665
28,-720,8.72546,49.0568,0.000986856,0.00742791,0.00209176,0.0080476,0.000367168,1.28278,0.00524696,0.010771,1252,1744,8.72543,-49.0568
35,-720,8.73584,49.1156,0.00106325,0.00817162,0.00188313,0.00863968,0.000595197,1.32718,0.00557199,0.0112706,1259,1744,8.73579,-49.1156
42,-720,8.75781,49.1534,0.00119044,0.00832231,0.00163541,0.00867944,0.00083331,1.3558,0.0055295,0.0115137,1266,1744,8.7578,-49.1534
49,-720,8.77234,49.1755,0.00128465,0.00808215,0.00141911,0.00836652,0.00100028,1.37303,0.00527595,0.0114456,1273,1744,8.77233,-49.1755
56,-720,8.77588,49.1995,0.00155277,0.00736904,0.00117378,0.00759698,0.00132483,1.37898,0.0046859,0.0108162,1280,1744,8.77583,-49.1995
63,-720,8.79993,49.198,0.00188437,0.00636763,0.000982005,0.00657329,0.00167871,1.36435,0.00394358,0.0130103,1287,1744,8.7999,-49.198
70,-720,8.84583,49.1692,0.00206766,0.00499261,0.000823665,0.0052086,0.00185167,1.31434,0.00304876,0.0130586,1294,1744,8.8458,-49.1692
77,-720,8.85217,49.188,0.00234897,0.00352048,0.000866185,0.00398038,0.00188907,1.0827,0.00229906,0.0144202,1301,1744,8.85214,-49.188
84,-720,8.86499,49.1536,0.00262431,0.00205264,0.000902401,0.00328506,0.00139189,0.632024,0.00190398,0.0143811,1308,1744,8.86498,-49.1535
91,-720,8.88501,49.1055,0.00295668,0.000496768,0.00101815,0.00332342,0.000130031,0.345731,0.00217356,0.0133109,1315,1744,8.885,-49.1055
98,-720,8.8728,49.0604,0.00314372,-0.000838565,0.00124448,0.00350063,-0.00119548,0.279303,0.00281808,0.0122882,1322,1744,8.8728,-49.0604
105,-720,8.89111,49.0046,0.00319954,-0.00186452,0.00141247,0.00356687,-0.00223184,0.254422,0.00337733,0.0116488,1329,1744,8.89114,-49.0047
112,-720,8.91309,48.9457,0.00316254,-0.00252464,0.00162338,0.0035933,-0.0029554,0.259371,0.00378687,0.0112483,1336,1744,8.91303,-48.9457
119,-720,8.91541,48.8755,0.00301414,-0.00282519,0.00177956,0.00351373,-0.00332477,0.27369,0.00394871,0.0117194,1343,1744,8.91544,-48.8755
126,-720,8.92725,48.7532,0.0028777,-0.00283735,0.00185747,0.00342835,-0.003388,0.288198,0.00393544,0.0115139,1350,1744,8.92721,-48.7531
133,-720,8.94006,48.614,0.00262085,-0.0026588,0.00183971,0.00319867,-0.00323661,0.304322,0.00371543,0.0127412,1357,1744,8.94008,-48.6141
140,-720,8.93579,48.4722,0.0022943,-0.00225446,0.00176224,0.00289713,-0.00285728,0.3296,0.00332234,0.0188916,1364,1744,8.93581,-48.4721
147,-720,8.9342,48.309,0.00194942,-0.00167277,0.00158327,0.0025439,-0.00226725,0.35919,0.00277925,0.0191653,1371,1744,8.93423,-48.309
154,-720,8.93762,48.1746,0.00161385,-0.00114197,0.0012991,0.0021297,-0.00165782,0.377983,0.00219237,0.0126012,1378,1744,8.93761,-48.1746
161,-720,8.9613,48.0052,0.00120018,-0.000595077,0.0010311,0.00166963,-0.00106453,0.427245,0.0015914,0.00936964,1385,1744,8.96133,-48.0053
168,-720,8.96936,47.8322,0.000822544,-0.000221152,0.000707553,0.00117987,-0.000578483,0.467659,0.00103479,0.00951972,1392,1744,8.96932,-47.8321
175,-720,8.95349,47.6218,0.000583537,7.64043e-05,0.000369535,0.000778136,-0.000118195,0.484704,0.000562312,0.0157773,1399,1744,8.95349,-47.6218
182,-720,8.96948,47.4309,0.000322875,0.000382565,3.33596e-05,0.000397481,0.000307958,1.15032,0.00024076,0.0170621,1406,1744,8.96952,-47.4309
189,-720,8.97534,47.2228,-4.11022e-05,0.000557458,-0.000285659,0.000671905,-0.000155549,-1.18974,0.000507791,0.0142139,1413,1744,8.97537,-47.2228
196,-720,8.96094,46.9877,-0.000421789,0.000853161,-0.000674268,0.00114359,-0.000712221,-1.16408,0.00108106,0.0128342,1420,1744,8.96098,-46.9877
203,-720,8.93542,46.7577,-0.000489183,0.00137624,-0.0010482,0.00184662,-0.000959564,-1.14898,0.00164691,0.0149518,1427,1744,8.93547,-46.7576
210,-720,8.94189,46.5347,-0.000362551,0.00185051,-0.00150194,0.00260952,-0.00112156,-1.10288,0.0022105,0.0146135,1434,1744,8.94189,-46.5346
217,-720,8.93311,46.2603,-7.93437e-05,0.00197276,-0.00189348,0.00310032,-0.00120691,-1.03369,0.00256562,0.013533,1441,1744,8.93315,-46.2603
224,-720,8.90527,45.9789,0.000301598,0.00116244,-0.00250177,0.00327054,-0.0018065,-0.870587,0.00297158,0.0100362,1448,1744,8.90525,-45.9789
231,-720,8.90503,45.7222,0.000179951,0.000641581,-0.00281326,0.00323348,-0.00241195,-0.826329,0.00327088,0.0103602,1455,1744,8.90498,-45.7222
238,-720,8.8905,45.4318,0.000329744,3.30767e-05,-0.00319496,0.00337981,-0.00301699,-0.762201,0.00369517,0.00890446,1462,1744,8.89044,-45.4318
245,-720,8.86145,45.1315,0.000482545,-0.00061315,-0.00359133,0.00356757,-0.00369818,-0.709708,0.00419511,0.0110756,1469,1744,8.86145,-45.1315
252,-720,8.84485,44.812,0.000514833,-0.00123545,-0.00387462,0.00361191,-0.00433253,-0.67433,0.00459301,0.0109628,1476,1744,8.84488,-44.812
259,-720,8.82397,44.4985,0.00044729,-0.00205679,-0.00392341,0.00331359,-0.00492309,-0.630946,0.00478562,0.00983449,1483,1744,8.82398,-44.4985
266,-720,8.80322,44.2008,0.000342539,-0.00283947,-0.00403058,0.00308476,-0.00558169,-0.597419,0.00507233,0.00861499,1490,1744,8.80319,-44.2008
273,-720,8.76721,43.8732,0.000242757,-0.00254479,-0.00440723,0.00347135,-0.00577338,-0.632251,0.00539233,0.0133677,1497,1744,8.76719,-43.8732
280,-720,8.69165,43.5455,-9.33747e-05,-0.0022017,-0.00465438,0.00362473,-0.0059198,-0.674033,0.00556339,0.0164248,1504,1744,8.69164,-43.5455
287,-720,8.6416,43.1472,-0.000436221,-0.00131787,-0.00489633,0.00403909,-0.00579317,-0.740504,0.00570669,0.0269976,1511,1744,8.64161,-43.1472
294,-720,8.67969,42.6847,-0.000772537,0.000564614,-0.00494145,0.00488251,-0.00509043,-0.85264,0.0057583,0.0358366,1518,1744,8.67967,-42.6846
301,-720,8.59192,42.2712,-0.00100872,0.00248594,-0.0048963,0.00593735,-0.00446013,-0.956788,0.00602315,0.0434015,1525,1744,8.59192,-42.2712
308,-720,8.53198,42.0924,-0.00151939,0.00408718,-0.0047595,0.0068076,-0.00423981,-1.05154,0.0064354,0.0440756,1532,1744,8.53203,-42.0924
315,-720,8.51538,41.8281,0,0,0,0,0,0,0,-1,1539,1744,8.51542,-41.8281
322,-720,8.89551,40.2716,0,0,0,0,0,0,0,-1,1546,1744,8.8955,-40.2717
329,-720,9.15906,34.7668,0,0,0,0,0,0,0,-1,1553,1744,9.1591,-34.7669
336,-720,6.14148,26.5682,0,0,0,0,0,0,0,-1,1560,1744,6.14151,-26.5683
343,-720,6.78552,21.3625,0,0,0,0,0,0,0,-1,1567,1744,6.78551,-21.3625
350,-720,4.0741,11.1836,0,0,0,0,0,0,0,-1,1574,1744,4.07412,-11.1836
357,-720,6.90833,21.4504,0,0,0,0,0,0,0,-1,1581,1744,6.90827,-21.4505
364,-720,5.83777,24.1599,0,0,0,0,0,0,0,-1,1588,1744,5.83773,-24.1599
371,-720,5.46997,23.6176,0,0,0,0,0,0,0,-1,1595,1744,5.47001,-23.6176
378,-720,3.88257,25.5404,0,0,0,0,0,0,0,-1,1602,1744,3.88262,-25.5404
385,-720,4.672,37.3854,0,0,0,0,0,0,0,-1,1609,1744,4.67202,-37.3854
392,-720,4.89319,36.2684,0,0,0,0,0,0,0,-1,1616,1744,4.89323,-36.2684
399,-720,2.37317,24.7166,0,0,0,0,0,0,0,-1,1623,1744,2.37317,-24.7166
406,-720,0,0,0,0,0,0,0,0,0,-1,1630,1744,0,0
413,-720,0,0,0,0,0,0,0,0,0,-1,1637,1744,0,0
420,-720,0,0,0,0,0,0,0,0,0,-1,1644,1744,0,0
427,-720,0,0,0,0,0,0,0,0,0,-1,1651,1744,0,0
434,-720,0,0,0,0,0,0,0,0,0,-1,1658,1744,0,0
441,-720,0,0,0,0,0,0,0,0,0,-1,1665,1744,0,0
448,-720,0,0,0,0,0,0,0,0,0,-1,1672,1744,0,0
455,-720,0,0,0,0,0,0,0,0,0,-1,1679,1744,0,0
462,-720,0,0,0,0,0,0,0,0,0,-1,1686,1744,0,0
469,-720,0,0,0,0,0,0,0,0,0,-1,1693,1744,0,0
476,-720,0,0,0,0,0,0,0,0,0,-1,1700,1744,0,0
483,-720,0,0,0,0,0,0,0,0,0,-1,1707,1744,0,0
490,-720,0,0,0,0,0,0,0,0,0,-1,1714,1744,0,0
497,-720,0,0,0,0,0,0,0,0,0,-1,1721,1744,0,0
504,-720,0,0,0,0,0,0,0,0,0,-1,1728,1744,0,0
511,-720,0,0,0,0,0,0,0,0,0,-1,1735,1744,0,0
518,-720,0,0,0,0,0,0,0,0,0,-1,1742,1744,0,0
525,-720,0,0,0,0,0,0,0,0,0,-1,1749,1744,0,0
532,-720,0,0,0,0,0,0,0,0,0,-1,1756,1744,0,0
539,-720,0,0,0,0,0,0,0,0,0,-1,1763,1744,0,0
546,-720,0,0,0,0,0,0,0,0,0,-1,1770,1744,0,0
553,-720,0,0,0,0,0,0,0,0,0,-1,1777,1744,0,0
560,-720,0,0,0,0,0,0,0,0,0,-1,1784,1744,0,0
567,-720,0,0,0,0,0,0,0,0,0,-1,1791,1744,0,0
574,-720,0,0,0,0,0,0,0,0,0,-1,1798,1744,0,0
581,-720,0,0,0,0,0,0,0,0,0,-1,1805,1744,0,0
588,-720,0,0,0,0,0,0,0,0,0,-1,1812,1744,0,0
595,-720,0,0,0,0,0,0,0,0,0,-1,1819,1744,0,0
602,-720,0,0,0,0,0,0,0,0,0,-1,1826,1744,0,0
609,-720,0,0,0,0,0,0,0,0,0,-1,1833,1744,0,0
616,-720,0,0,0,0,0,0,0,0,0,-1,1840,1744,0,0
623,-720,0,0,0,0,0,0,0,0,0,-1,1847,1744,0,0
630,-720,0,0,0,0,0,0,0,0,0,-1,1854,1744,0,0
637,-720,0,0,0,0,0,0,0,0,0,-1,1861,1744,0,0
644,-720,0,0,0,0,0,0,0,0,0,-1,1868,1744,0,0
651,-720,0,0,0,0,0,0,0,0,0,-1,1875,1744,0,0
658,-720,0,0,0,0,0,0,0,0,0,-1,1882,1744,0,0
665,-720,0,0,0,0,0,0,0,0,0,-1,1889,1744,0,0
672,-720,0,0,0,0,0,0,0,0,0,-1,1896,1744,0,0
679,-720,0,0,0,0,0,0,0,0,0,-1,1903,1744,0,0
686,-720,0,0,0,0,0,0,0,0,0,-1,1910,1744,0,0
693,-720,0,0,0,0,0,0,0,0,0,-1,1917,1744,0,0
700,-720,0,0,0,0,0,0,0,0,0,-1,1924,1744,0,0
707,-720,0,0,0,0,0,0,0,0,0,-1,1931,1744,0,0
714,-720,0,0,0,0,0,0,0,0,0,-1,1938,1744,0,0
721,-720,0,0,0,0,0,0,0,0,0,-1,1945,1744,0,0
728,-720,0,0,0,0,0,0,0,0,0,-1,1952,1744,0,0
735,-720,0,0,0,0,0,0,0,0,0,-1,1959,1744,0,0
742,-720,0,0,0,0,0,0,0,0,0,-1,1966,1744,0,0
749,-720,0,0,0,0,0,0,0,0,0,-1,1973,1744,0,0
756,-720,0,0,0,0,0,0,0,0,0,-1,1980,1744,0,0
763,-720,0,0,0,0,0,0,0,0,0,-1,1987,1744,0,0
770,-720,0,0,0,0,0,0,0,0,0,-1,1994,1744,0,0
777,-720,0,0,0,0,0,0,0,0,0,-1,2001,1744,0,0
784,-720,0,0,0,0,0,0,0,0,0,-1,2008,1744,0,0
791,-720,0,0,0,0,0,0,0,0,0,-1,2015,1744,0,0
798,-720,0,0,0,0,0,0,0,0,0,-1,2022,1744,0,0
805,-720,0,0,0,0,0,0,0,0,0,-1,2029,1744,0,0
812,-720,0,0,0,0,0,0,0,0,0,-1,2036,1744,0,0
-700,-727,0,0,0,0,0,0,0,0,0,-1,524,1751,0,0
-693,-727,0,0,0,0,0,0,0,0,0,-1,531,1751,0,0
-686,-727,0,0,0,0,0,0,0,0,0,-1,538,1751,0,0
-679,-727,0,0,0,0,0,0,0,0,0,-1,545,1751,0,0
-672,-727,0,0,0,0,0,0,0,0,0,-1,552,1751,0,0
-665,-727,0,0,0,0,0,0,0,0,0,-1,559,1751,0,0
-658,-727,0,0,0,0,0,0,0,0,0,-1,566,1751,0,0
-651,-727,0,0,0,0,0,0,0,0,0,-1,573,1751,0,0
-644,-727,0,0,0,0,0,0,0,0,0,-1,580,1751,0,0
-637,-727,0,0,0,0,0,0,0,0,0,-1,587,1751,0,0
-630,-727,0,0,0,0,0,0,0,0,0,-1,594,1751,0,0
-623,-727,0,0,0,0,0,0,0,0,0,-1,601,1751,0,0
-616,-727,0,0,0,0,0,0,0,0,0,-1,608,1751,0,0
-609,-727,0,0,0,0,0,0,0,0,0,-1,615,1751,0,0
-602,-727,0,0,0,0,0,0,0,0,0,-1,622,1751,0,0
-595,-727,0,0,0,0,0,0,0,0,0,-1,629,1751,0,0
-588,-727,0,0,0,0,0,0,0,0,0,-1,636,1751,0,0
-581,-727,0,0,0,0,0,0,0,0,0,-1,643,1751,0,0
-574,-727,0,0,0,0,0,0,0,0,0,-1,650,1751,0,0
-567,-727,0,0,0,0,0,0,0,0,0,-1,657,1751,0,0
-560,-727,0,0,0,0,0,0,0,0,0,-1,664,1751,0,0
-553,-727,0,0,0,0,0,0,0,0,0,-1,671,1751,0,0
-546,-727,0,0,0,0,0,0,0,0,0,-1,678,1751,0,0
-539,-727,0,0,0,0,0,0,0,0,0,-1,685,1751,0,0
-532,-727,0,0,0,0,0,0,0,0,0,-1,692,1751,0,0
-525,-727,0,0,0,0,0,0,0,0,0,-1,699,1751,0,0
-518,-727,0,0,0,0,0,0,0,0,0,-1,706,1751,0,0
-511,-727,0,0,0,0,0,0,0,0,0,-1,713,1751,0,0
-504,-727,0,0,0,0,0,0,0,0,0,-1,720,1751,0,0
-497,-727,0,0,0,0,0,0,0,0,0,-1,727,1751,0,0
-490,-727,0,0,0,0,0,0,0,0,0,-1,734,1751,0,0
-483,-727,0,0,0,0,0,0,0,0,0,-1,741,1751,0,0
-476,-727,0,0,0,0,0,0,0,0,0,-1,748,1751,0,0
-469,-727,0,0,0,0,0,0,0,0,0,-1,755,1751,0,0
-462,-727,0,0,0,0,0,0,0,0,0,-1,762,1751,0,0
-455,-727,0,0,0,0,0,0,0,0,0,-1,769,1751,0,0
-448,-727,0,0,0,0,0,0,0,0,0,-1,776,1751,0,0
-441,-727,0,0,0,0,0,0,0,0,0,-1,783,1751,0,0
-434,-727,0,0,0,0,0,0,0,0,0,-1,790,1751,0,0
-427,-727,0,0,0,0,0,0,0,0,0,-1,797,1751,0,0
-420,-727,0,0,0,0,0,0,0,0,0,-1,804,1751,0,0
-413,-727,0,0,0,0,0,0,0,0,0,-1,811,1751,0,0
-406,-727,0,0,0,0,0,0,0,0,0,-1,818,1751,0,0
-399,-727,0,0,0,0,0,0,0,0,0,-1,825,1751,0,0
-392,-727,0,0,0,0,0,0,0,0,0,-1,832,1751,0,0
-385,-727,0,0,0,0,0,0,0,0,0,-1,839,1751,0,0
-378,-727,0,0,0,0,0,0,0,0,0,-1,846,1751,0,0
-371,-727,0,0,0,0,0,0,0,0,0,-1,853,1751,0,0
-364,-727,0,0,0,0,0,0,0,0,0,-1,860,1751,0,0
-357,-727,0,0,0,0,0,0,0,0,0,-1,867,1751,0,0
-350,-727,0,0,0,0,0,0,0,0,0,-1,874,1751,0,0
-343,-727,0,0,0,0,0,0,0,0,0,-1,881,1751,0,0
-336,-727,0,0,0,0,0,0,0,0,0,-1,888,1751,0,0
-329,-727,0,0,0,0,0,0,0,0,0,-1,895,1751,0,0
-322,-727,0,0,0,0,0,0,0,0,0,-1,902,1751,0,0
-315,-727,0,0,0,0,0,0,0,0,0,-1,909,1751,0,0
-308,-727,0,0,0,0,0,0,0,0,0,-1,916,1751,0,0
-301,-727,0,0,0,0,0,0,0,0,0,-1,923,1751,0,0
-294,-727,0,0,0,0,0,0,0,0,0,-1,930,1751,0,0
-287,-727,0,0,0,0,0,0,0,0,0,-1,937,1751,0,0
-280,-727,0,0,0,0,0,0,0,0,0,-1,944,1751,0,0
-273,-727,0,0,0,0,0,0,0,0,0,-1,951,1751,0,0
-266,-727,4.24805,7.61145,0,0,0,0,0,0,0,-1,958,1751,4.24802,-7.6115
-259,-727,3.65228,5.4082,0,0,0,0,0,0,0,-1,965,1751,3.65229,-5.40818
-252,-727,5.8797,32.9292,0,0,0,0,0,0,0,-1,972,1751,5.87972,-32.9292
-245,-727,6.59198,32.2588,0,0,0,0,0,0,0,-1,979,1751,6.59195,-32.2587
-238,-727,6.6189,30.4597,0,0,0,0,0,0,0,-1,986,1751,6.61889,-30.4598
-231,-727,6.70105,28.9473,0,0,0,0,0,0,0,-1,993,1751,6.70103,-28.9472
-224,-727,7.0614,27.79,0,0,0,0,0,0,0,-1,1000,1751,7.06139,-27.79
-217,-727,9.07013,38.8207,0,0,0,0,0,0,0,-1,1007,1751,9.07015,-38.8207
-210,-727,5.0921,32.4524,0,0,0,0,0,0,0,-1,1014,1751,5.09209,-32.4523
-203,-727,9.05786,39.0233,0,0,0,0,0,0,0,-1,1021,1751,9.05789,-39.0233
-196,-727,8.6228,40.259,0,0,0,0,0,0,0,-1,1028,1751,8.6228,-40.2591
-189,-727,8.34546,41.1653,0,0,0,0,0,0,0,-1,1035,1751,8.3455,-41.1653
-182,-727,9.51526,41.6918,0,0,0,0,0,0,0,-1,1042,1751,9.51527,-41.6917
-175,-727,9.65771,42.2639,0,0,0,0,0,0,0,-1,1049,1751,9.65772,-42.2639
-168,-727,9.61023,42.8285,-0.022363,-0.0143526,-0.0023052,-0.0137366,-0.022979,-1.30967,0.0133512,0.0468612,1056,1751,9.61024,-42.8285
-161,-727,8.63367,43.2817,-0.0208608,-0.0121392,-0.00184388,-0.0117654,-0.0212346,-1.37078,0.0122837,0.0480078,1063,1751,8.63371,-43.2817
-154,-727,9.30347,43.3452,0,0,0,0,0,0,0,-1,1070,1751,9.30343,-43.3452
-147,-727,8.93933,43.5288,0,0,0,0,0,0,0,-1,1077,1751,8.93929,-43.5288
-140,-727,9.12891,43.8208,-0.0137212,-0.00430727,0.000412108,-0.00428927,-0.0137392,1.52713,0.0081167,0.0310206,1084,1751,9.12886,-43.8209
-133,-727,9.19971,44.1909,-0.0112172,-0.00201231,0.00104598,-0.00189495,-0.0113345,1.45906,0.00701059,0.0240302,1091,1751,9.19971,-44.1909
-126,-727,9.0907,44.5902,-0.00926662,-6.53461e-05,0.00151523,0.000177752,-0.00950972,1.41172,0.00639988,0.0166559,1098,1751,9.09073,-44.5902
-119,-727,9.07104,44.9489,-0.00758051,0.00147752,0.00190053,0.00186012,-0.00796311,1.37214,0.00602526,0.0125224,1105,1751,9.07104,-44.9489
-112,-727,9.06677,45.2181,-0.00497553,0.00379987,0.00245006,0.00443758,-0.00561323,1.31616,0.00581606,0.013395,1112,1751,9.06675,-45.2182
-105,-727,9.00488,45.5228,-0.00304117,0.00509526,0.00301992,0.00609363,-0.00403954,1.25151,0.00589032,0.0145892,1119,1751,9.00488,-45.5228
-98,-727,8.99854,45.8347,-0.0029185,0.00491597,0.00286905,0.00585427,-0.00385679,1.25472,0.00564608,0.012499,1126,1751,8.99852,-45.8347
-91,-727,8.98352,46.092,-0.00270427,0.00475226,0.00269692,0.00562545,-0.00357745,1.25768,0.00535697,0.0119145,1133,1751,8.98355,-46.0921
-84,-727,8.94238,46.3646,-0.00250842,0.00417969,0.00239637,0.00494967,-0.0032784,1.2599,0.00478303,0.0118351,1140,1751,8.94243,-46.3646
-77,-727,8.91711,46.6276,-0.00210682,0.00362832,0.00220792,0.00437985,-0.00285835,1.24272,0.00420964,0.0127305,1147,1751,8.91716,-46.6275
-70,-727,8.92163,46.8895,-0.00189112,0.00290659,0.00187292,0.00355114,-0.00253567,1.23935,0.00353049,0.0142907,1154,1751,8.92161,-46.8896
-63,-727,8.88171,47.1376,-0.00233294,0.00263041,0.00161858,0.00311159,-0.00281412,1.28183,0.00342265,0.0118962,1161,1751,8.88173,-47.1375
-56,-727,8.85974,47.339,-0.00257111,0.00240996,0.00165068,0.00290731,-0.00306847,1.27814,0.00345054,0.0113582,1168,1751,8.85969,-47.3389
-49,-727,8.85242,47.5352,-0.00256422,0.00202194,0.00171253,0.00259085,-0.00313313,1.25006,0.00330968,0.0129312,1175,1751,8.85246,-47.5352
-42,-727,8.83496,47.7341,-0.00253294,0.00157011,0.00169623,0.00218053,-0.00314336,1.22536,0.00309046,0.0164413,1182,1751,8.83496,-47.7342
-35,-727,8.79358,47.9041,-0.00252841,0.00106443,0.0016094,0.00167992,-0.0031439,1.20553,0.00282746,0.0147218,1189,1751,8.79353,-47.9041
-28,-727,8.8136,48.0743,-0.00256655,0.000742327,0.00158943,0.00138211,-0.00320634,1.18812,0.00271804,0.00894897,1196,1751,8.8136,-48.0743
-21,-727,8.80542,48.2615,-0.00250559,0.000467313,0.00168619,0.0012287,-0.00326698,1.14666,0.00268303,0.010325,1203,1751,8.80546,-48.2615
-14,-727,8.79541,48.4041,-0.00228946,0.000532362,0.00189547,0.00148439,-0.00324148,1.10534,0.00279064,0.01156,1210,1751,8.79546,-48.4041
-7,-727,8.80591,48.5522,-0.002125,0.000734271,0.00199685,0.0017605,-0.00315123,1.09607,0.00287343,0.0146821,1217,1751,8.80596,-48.5523
0,-727,8.80823,48.6929,-0.00204194,0.00134267,0.00216931,0.00240169,-0.00310096,1.11665,0.0031855,0.0148133,1224,1751,8.80828,-48.6928
7,-727,8.81409,48.7833,-0.00186908,0.00214472,0.00230193,0.00319176,-0.00291612,1.14392,0.00352758,0.0142323,1231,1751,8.8141,-48.7834
14,-727,8.81836,48.8806,-0.00164882,0.0029993,0.00235138,0.00398133,-0.00263085,1.17518,0.003844,0.0143222,1238,1751,8.81836,-48.8806
21,-727,8.80615,48.9679,-0.00146551,0.00389798,0.00230935,0.00475528,-0.00232281,1.21533,0.0041662,0.0123626,1245,1751,8.8061,-48.9679
28,-727,8.80737,49.0315,-0.00124684,0.00474363,0.00225503,0.0054976,-0.00200082,1.24813,0.00448338,0.0104613,1252,1751,8.80735,-49.0315
35,-727,8.82971,49.0913,-0.000968206,0.00551976,0.00208821,0.00613376,-0.00158221,1.28482,0.00470609,0.0125078,1259,1751,8.82973,-49.0913
42,-727,8.80249,49.1274,-0.000683756,0.00593989,0.00186476,0.00642879,-0.00117266,1.31439,0.0047255,0.0129958,1266,1751,8.80252,-49.1274
49,-727,8.78064,49.1544,-0.000435616,0.00604509,0.00165757,0.00644444,-0.000834964,1.33438,0.00459995,0.011355,1273,1751,8.7806,-49.1545
56,-727,8.7782,49.1995,-0.00012435,0.00582722,0.00142795,0.00615209,-0.000449221,1.3471,0.00425904,0.0100471,1280,1751,8.77819,-49.1994
63,-727,8.79651,49.199,0.000144313,0.00541555,0.00126717,0.00570435,-0.000144482,1.34672,0.00385196,0.0124533,1287,1751,8.79655,-49.199
70,-727,8.83032,49.1724,0.000348812,0.00468464,0.00114122,0.00496667,6.67784e-05,1.32852,0.00328908,0.0147586,1294,1751,8.83031,-49.1723
77,-727,8.83521,49.2159,0.000577352,0.00373564,0.00108987,0.00407522,0.000237772,1.26875,0.00264113,0.0165177,1301,1751,8.83517,-49.2159
84,-727,8.84265,49.1371,0.000829206,0.00280006,0.000980626,0.00320485,0.000424419,1.17932,0.00201008,0.0153844,1308,1751,8.84264,-49.1371
91,-727,8.85132,49.0724,0.00104628,0.00178322,0.000883817,0.0023723,0.0004572,0.982896,0.00145331,0.0156357,1315,1751,8.85131,-49.0724
98,-727,8.83301,49.0491,0.0011811,0.000852665,0.000942269,0.00197335,6.04119e-05,0.699125,0.0012959,0.0138612,1322,1751,8.83298,-49.049
105,-727,8.83997,49.0022,0.00135373,8.62524e-05,0.000937722,0.00185178,-0.000411798,0.488239,0.00139224,0.0132842,1329,1751,8.83999,-49.0022
112,-727,8.85645,48.9376,0.00144115,-0.000406279,0.000929947,0.00182818,-0.000793308,0.39438,0.00155233,0.0113057,1336,1751,8.85645,-48.9377
119,-727,8.84644,48.8578,0.00141686,-0.000659527,0.000898179,0.00175146,-0.00099413,0.356608,0.00160515,0.00940448,1343,1751,8.84639,-48.8577
126,-727,8.8335,48.7244,0.00137975,-0.000749535,0.000850651,0.00167785,-0.00104764,0.337066,0.00158752,0.0111272,1350,1751,8.83344,-48.7244
133,-727,8.83093,48.6199,0.00126224,-0.000641463,0.00073163,0.00151093,-0.000890154,0.327662,0.00140163,0.0156871,1357,1751,8.83094,-48.6199
140,-727,8.82971,48.4941,0.00106026,-0.000420339,0.000598402,0.00127187,-0.000631948,0.339898,0.00111967,0.0212428,1364,1751,8.82969,-48.4942
147,-727,8.82495,48.3245,0.000825845,-0.000195341,0.000418056,0.000975158,-0.000344654,0.343039,0.000790446,0.017402,1371,1751,8.82493,-48.3245
154,-727,8.8053,48.1444,0.000547754,0.000133362,0.000176651,0.000612836,6.82787e-05,0.352995,0.000387807,0.0110295,1378,1751,8.80536,-48.1444
161,-727,8.79517,47.9902,0.000244102,0.000471092,-3.90584e-05,0.000477625,0.000237569,-1.40507,0.000275758,0.00905429,1385,1751,8.79514,-47.9903
168,-727,8.77893,47.834,2.83888e-05,0.000539605,-0.000269564,0.000655481,-8.74872e-05,-1.16481,0.000468879,0.0116298,1392,1751,8.77895,-47.8339
175,-727,8.75891,47.6398,-0.000206538,0.000482366,-0.000494905,0.000740888,-0.00046506,-1.08942,0.000702299,0.0181346,1399,1751,8.75887,-47.6398
182,-727,8.76611,47.4337,-0.000488221,0.000595212,-0.000736087,0.000967433,-0.000860442,-1.10262,0.00105593,0.0211639,1406,1751,8.7661,-47.4337
189,-727,8.75696,47.2125,-0.00108872,0.000475706,-0.000962215,0.00093354,-0.00154655,-1.12669,0.00144639,0.0129928,1413,1751,8.75699,-47.2126
196,-727,8.72546,46.9884,-0.00182451,0.000706652,-0.00138645,0.00131829,-0.00243615,-1.15532,0.00219942,0.0135503,1420,1751,8.72549,-46.9884
203,-727,8.70044,46.7555,-0.0017709,0.00167413,-0.00189159,0.00250997,-0.00260674,-1.15472,0.00295431,0.0163849,1427,1751,8.70039,-46.7555
210,-727,8.6897,46.5216,-0.00134798,0.00244471,-0.00251099,0.00369498,-0.00259826,-1.10881,0.00365175,0.0164372,1434,1751,8.68976,-46.5216
217,-727,8.67944,46.2692,-0.00066943,0.00264325,-0.00295456,0.00437408,-0.00240026,-1.04087,0.00396612,0.0127451,1441,1751,8.67949,-46.2692
224,-727,8.64197,45.9642,0.000108926,0.00137003,-0.00373834,0.00453062,-0.00305167,-0.868947,0.00440531,0.0131938,1448,1751,8.64195,-45.9642
231,-727,8.62683,45.7073,0.000101686,0.000637157,-0.00409168,0.00446985,-0.00373101,-0.818069,0.00474117,0.0106428,1455,1751,8.62682,-45.7072
238,-727,8.62781,45.4008,0.000456947,-0.000220604,-0.00455619,0.00468694,-0.0044506,-0.748289,0.00527615,0.0108261,1462,1751,8.62786,-45.4008
245,-727,8.60559,45.1151,0.000821212,-0.00115277,-0.00504512,0.00497497,-0.00530653,-0.688802,0.00593706,0.0105373,1469,1751,8.60565,-45.1151
252,-727,8.56067,44.8102,0.00104173,-0.00209919,-0.00539164,0.00508697,-0.00614443,-0.643681,0.00649403,0.0113166,1476,1751,8.56071,-44.8102
259,-727,8.55164,44.4923,0.00109999,-0.00329119,-0.00544595,0.00477628,-0.00696748,-0.593784,0.00681949,0.0145216,1483,1751,8.55163,-44.4923
266,-727,8.57214,44.2375,0.00108938,-0.00443177,-0.00555042,0.00452783,-0.00787022,-0.55463,0.0072442,0.0197264,1490,1751,8.57212,-44.2375
273,-727,8.58972,43.9536,0.00105825,-0.00429032,-0.00595002,0.00490735,-0.00813941,-0.574197,0.00760921,0.0329853,1497,1751,8.58977,-43.9536
280,-727,8.2655,43.6693,0.000735772,-0.0039786,-0.00618872,0.00500101,-0.00824384,-0.603438,0.00772294,0.0494617,1504,1751,8.26548,-43.6694
287,-727,8.25403,43.1436,0,0,0,0,0,0,0,-1,1511,1751,8.25402,-43.1436
294,-727,8.32593,42.4567,0,0,0,0,0,0,0,-1,1518,1751,8.32588,-42.4567
301,-727,8.20129,42.1517,0,0,0,0,0,0,0,-1,1525,1751,8.20126,-42.1517
308,-727,8.13196,42.2234,0,0,0,0,0,0,0,-1,1532,1751,8.13201,-42.2233
315,-727,8.10571,41.24,0,0,0,0,0,0,0,-1,1539,1751,8.10567,-41.2399
322,-727,8.24133,40.2081,0,0,0,0,0,0,0,-1,1546,1751,8.24136,-40.2082
329,-727,5.54419,31.0325,0,0,0,0,0,0,0,-1,1553,1751,5.54425,-31.0325
336,-727,5.55823,20.2439,0,0,0,0,0,0,0,-1,1560,1751,5.55829,-20.2438
343,-727,2.41699,8.72095,0,0,0,0,0,0,0,-1,1567,1751,2.41702,-8.72098
350,-727,3.89783,7.50195,0,0,0,0,0,0,0,-1,1574,1751,3.89782,-7.50193
357,-727,4.48462,10.2948,0,0,0,0,0,0,0,-1,1581,1751,4.48464,-10.2948
364,-727,6.96729,17.2365,0,0,0,0,0,0,0,-1,1588,1751,6.96732,-17.2365
371,-727,5.04565,23.2227,0,0,0,0,0,0,0,-1,1595,1751,5.04564,-23.2227
378,-727,4.56726,23.0574,0,0,0,0,0,0,0,-1,1602,1751,4.56727,-23.0574
385,-727,3.52307,22.6431,0,0,0,0,0,0,0,-1,1609,1751,3.52303,-22.643
392,-727,0,0,0,0,0,0,0,0,0,-1,1616,1751,0,0
399,-727,0,0,0,0,0,0,0,0,0,-1,1623,1751,0,0
406,-727,0,0,0,0,0,0,0,0,0,-1,1630,1751,0,0
413,-727,0,0,0,0,0,0,0,0,0,-1,1637,1751,0,0
420,-727,0,0,0,0,0,0,0,0,0,-1,1644,1751,0,0
427,-727,0,0,0,0,0,0,0,0,0,-1,1651,1751,0,0
434,-727,0,0,0,0,0,0,0,0,0,-1,1658,1751,0,0
441,-727,0,0,0,0,0,0,0,0,0,-1,1665,1751,0,0
448,-727,0,0,0,0,0,0,0,0,0,-1,1672,1751,0,0
455,-727,0,0,0,0,0,0,0,0,0,-1,1679,1751,0,0
462,-727,0,0,0,0,0,0,0,0,0,-1,1686,1751,0,0
469,-727,0,0,0,0,0,0,0,0,0,-1,1693,1751,0,0
476,-727,0,0,0,0,0,0,0,0,0,-1,1700,1751,0,0
483,-727,0,0,0,0,0,0,0,0,0,-1,1707,1751,0,0
490,-727,0,0,0,0,0,0,0,0,0,-1,1714,1751,0,0
497,-727,0,0,0,0,0,0,0,0,0,-1,1721,1751,0,0
504,-727,0,0,0,0,0,0,0,0,0,-1,1728,1751,0,0
511,-727,0,0,0,0,0,0,0,0,0,-1,1735,1751,0,0
518,-727,0,0,0,0,0,0,0,0,0,-1,1742,1751,0,0
525,-727,0,0,0,0,0,0,0,0,0,-1,1749,1751,0,0
532,-727,0,0,0,0,0,0,0,0,0,-1,1756,1751,0,0
539,-727,0,0,0,0,0,0,0,0,0,-1,1763,1751,0,0
546,-727,0,0,0,0,0,0,0,0,0,-1,1770,1751,0,0
553,-727,0,0,0,0,0,0,0,0,0,-1,1777,1751,0,0
560,-727,0,0,0,0,0,0,0,0,0,-1,1784,1751,0,0
567,-727,0,0,0,0,0,0,0,0,0,-1,1791,1751,0,0
574,-727,0,0,0,0,0,0,0,0,0,-1,1798,1751,0,0
581,-727,0,0,0,0,0,0,0,0,0,-1,1805,1751,0,0
588,-727,0,0,0,0,0,0,0,0,0,-1,1812,1751,0,0
595,-727,0,0,0,0,0,0,0,0,0,-1,1819,1751,0,0
602,-727,0,0,0,0,0,0,0,0,0,-1,1826,1751,0,0
609,-727,0,0,0,0,0,0,0,0,0,-1,1833,1751,0,0
616,-727,0,0,0,0,0,0,0,0,0,-1,1840,1751,0,0
623,-727,0,0,0,0,0,0,0,0,0,-1,1847,1751,0,0
630,-727,0,0,0,0,0,0,0,0,0,-1,1854,1751,0,0
637,-727,0,0,0,0,0,0,0,0,0,-1,1861,1751,0,0
644,-727,0,0,0,0,0,0,0,0,0,-1,1868,1751,0,0
651,-727,0,0,0,0,0,0,0,0,0,-1,1875,1751,0,0
658,-727,0,0,0,0,0,0,0,0,0,-1,1882,1751,0,0
665,-727,0,0,0,0,0,0,0,0,0,-1,1889,1751,0,0
672,-727,0,0,0,0,0,0,0,0,0,-1,1896,1751,0,0
679,-727,0,0,0,0,0,0,0,0,0,-1,1903,1751,0,0
686,-727,0,0,0,0,0,0,0,0,0,-1,1910,1751,0,0
693,-727,0,0,0,0,0,0,0,0,0,-1,1917,1751,0,0
700,-727,0,0,0,0,0,0,0,0,0,-1,1924,1751,0,0
707,-727,0,0,0,0,0,0,0,0,0,-1,1931,1751,0,0
714,-727,0,0,0,0,0,0,0,0,0,-1,1938,1751,0,0
721,-727,0,0,0,0,0,0,0,0,0,-1,1945,1751,0,0
728,-727,0,0,0,0,0,0,0,0,0,-1,1952,1751,0,0
735,-727,0,0,0,0,0,0,0,0,0,-1,1959,1751,0,0
742,-727,0,0,0,0,0,0,0,0,0,-1,1966,1751,0,0
749,-727,0,0,0,0,0,0,0,0,0,-1,1973,1751,0,0
756,-727,0,0,0,0,0,0,0,0,0,-1,1980,1751,0,0
763,-727,0,0,0,0,0,0,0,0,0,-1,1987,1751,0,0
770,-727,0,0,0,0,0,0,0,0,0,-1,1994,1751,0,0
777,-727,0,0,0,0,0,0,0,0,0,-1,2001,1751,0,0
784,-727,0,0,0,0,0,0,0,0,0,-1,2008,1751,0,0
791,-727,0,0,0,0,0,0,0,0,0,-1,2015,1751,0,0
798,-727,0,0,0,0,0,0,0,0,0,-1,2022,1751,0,0
805,-727,0,0,0,0,0,0,0,0,0,-1,2029,1751,0,0
812,-727,0,0,0,0,0,0,0,0,0,-1,2036,1751,0,0
-700,-734,0,0,0,0,0,0,0,0,0,-1,524,1758,0,0
-693,-734,0,0,0,0,0,0,0,0,0,-1,531,1758,0,0
-686,-734,0,0,0,0,0,0,0,0,0,-1,538,1758,0,0
-679,-734,0,0,0,0,0,0,0,0,0,-1,545,1758,0,0
-672,-734,0,0,0,0,0,0,0,0,0,-1,552,1758,0,0
-665,-734,0,0,0,0,0,0,0,0,0,-1,559,1758,0,0
-658,-734,0,0,0,0,0,0,0,0,0,-1,566,1758,0,0
-651,-734,0,0,0,0,0,0,0,0,0,-1,573,1758,0,0
-644,-734,0,0,0,0,0,0,0,0,0,-1,580,1758,0,0
-637,-734,0,0,0,0,0,0,0,0,0,-1,587,1758,0,0
-630,-734,0,0,0,0,0,0,0,0,0,-1,594,1758,0,0
-623,-734,0,0,0,0,0,0,0,0,0,-1,601,1758,0,0
-616,-734,0,0,0,0,0,0,0,0,0,-1,608,1758,0,0
-609,-734,0,0,0,0,0,0,0,0,0,-1,615,1758,0,0
-602,-734,0,0,0,0,0,0,0,0,0,-1,622,1758,0,0
-595,-734,0,0,0,0,0,0,0,0,0,-1,629,1758,0,0
-588,-734,0,0,0,0,0,0,0,0,0,-1,636,1758,0,0
-581,-734,0,0,0,0,0,0,0,0,0,-1,643,1758,0,0
-574,-734,0,0,0,0,0,0,0,0,0,-1,650,1758,0,0
-567,-734,0,0,0,0,0,0,0,0,0,-1,657,1758,0,0
-560,-734,0,0,0,0,0,0,0,0,0,-1,664,1758,0,0
-553,-734,0,0,0,0,0,0,0,0,0,-1,671,1758,0,0
-546,-734,0,0,0,0,0,0,0,0,0,-1,678,1758,0,0
-539,-734,0,0,0,0,0,0,0,0,0,-1,685,1758,0,0
-532,-734,0,0,0,0,0,0,0,0,0,-1,692,1758,0,0
-525,-734,0,0,0,0,0,0,0,0,0,-1,699,1758,0,0
-518,-734,0,0,0,0,0,0,0,0,0,-1,706,1758,0,0
-511,-734,0,0,0,0,0,0,0,0,0,-1,713,1758,0,0
-504,-734,0,0,0,0,0,0,0,0,0,-1,720,1758,0,0
-497,-734,0,0,0,0,0,0,0,0,0,-1,727,1758,0,0
-490,-734,0,0,0,0,0,0,0,0,0,-1,734,1758,0,0
-483,-734,0,0,0,0,0,0,0,0,0,-1,741,1758,0,0
-476,-734,0,0,0,0,0,0,0,0,0,-1,748,1758,0,0
-469,-734,0,0,0,0,0,0,0,0,0,-1,755,1758,0,0
-462,-734,0,0,0,0,0,0,0,0,0,-1,762,1758,0,0
-455,-734,0,0,0,0,0,0,0,0,0,-1,769,1758,0,0
-448,-734,0,0,0,0,0,0,0,0,0,-1,776,1758,0,0
-441,-734,0,0,0,0,0,0,0,0,0,-1,783,1758,0,0
-434,-734,0,0,0,0,0,0,0,0,0,-1,790,1758,0,0
-427,-734,0,0,0,0,0,0,0,0,0,-1,797,1758,0,0
-420,-734,0,0,0,0,0,0,0,0,0,-1,804,1758,0,0
-413,-734,0,0,0,0,0,0,0,0,0,-1,811,1758,0,0
-406,-734,0,0,0,0,0,0,0,0,0,-1,818,1758,0,0
-399,-734,0,0,0,0,0,0,0,0,0,-1,825,1758,0,0
-392,-734,0,0,0,0,0,0,0,0,0,-1,832,1758,0,0
-385,-734,0,0,0,0,0,0,0,0,0,-1,839,1758,0,0
-378,-734,0,0,0,0,0,0,0,0,0,-1,846,1758,0,0
-371,-734,0,0,0,0,0,0,0,0,0,-1,853,1758,0,0
-364,-734,0,0,0,0,0,0,0,0,0,-1,860,1758,0,0
-357,-734,0,0,0,0,0,0,0,0,0,-1,867,1758,0,0
-350,-734,0,0,0,0,0,0,0,0,0,-1,874,1758,0,0
-343,-734,0,0,0,0,0,0,0,0,0,-1,881,1758,0,0
-336,-734,0,0,0,0,0,0,0,0,0,-1,888,1758,0,0
-329,-734,0,0,0,0,0,0,0,0,0,-1,895,1758,0,0
-322,-734,0,0,0,0,0,0,0,0,0,-1,902,1758,0,0
-315,-734,0,0,0,0,0,0,0,0,0,-1,909,1758,0,0
-308,-734,0,0,0,0,0,0,0,0,0,-1,916,1758,0,0
-301,-734,0,0,0,0,0,0,0,0,0,-1,923,1758,0,0
-294,-734,0,0,0,0,0,0,0,0,0,-1,930,1758,0,0
-287,-734,0,0,0,0,0,0,0,0,0,-1,937,1758,0,0
-280,-734,0,0,0,0,0,0,0,0,0,-1,944,1758,0,0
-273,-734,0,0,0,0,0,0,0,0,0,-1,951,1758,0,0
-266,-734,0,0,0,0,0,0,0,0,0,-1,958,1758,0,0
-259,-734,0,0,0,0,0,0,0,0,0,-1,965,1758,0,0
-252,-734,5.73883,31.5245,0,0,0,0,0,0,0,-1,972,1758,5.73884,-31.5246
-245,-734,6.32513,30.9761,0,0,0,0,0,0,0,-1,979,1758,6.32511,-30.9761
-238,-734,6.82385,30.0449,0,0,0,0,0,0,0,-1,986,1758,6.82387,-30.0449
-231,-734,7.1958,29.1666,0,0,0,0,0,0,0,-1,993,1758,7.19578,-29.1666
-224,-734,7.36169,28.5652,0,0,0,0,0,0,0,-1,1000,1758,7.36172,-28.5651
-217,-734,7.45984,28.4386,0,0,0,0,0,0,0,-1,1007,1758,7.45986,-28.4386
-210,-734,7.45483,28.4388,0,0,0,0,0,0,0,-1,1014,1758,7.45482,-28.4388
-203,-734,7.93079,29.6151,0,0,0,0,0,0,0,-1,1021,1758,7.93076,-29.6151
-196,-734,8.15393,41.4897,0,0,0,0,0,0,0,-1,1028,1758,8.15399,-41.4897
-189,-734,10.6561,42.229,0,0,0,0,0,0,0,-1,1035,1758,10.6561,-42.2291
-182,-734,11.406,43.0802,0,0,0,0,0,0,0,-1,1042,1758,11.406,-43.0802
-175,-734,10.8606,43.1718,0,0,0,0,0,0,0,-1,1049,1758,10.8606,-43.1717
-168,-734,10.2936,43.2905,-0.0313364,-0.0218302,-0.00515033,-0.0195749,-0.0335917,-1.15805,0.0194825,0.0455367,1056,1758,10.2936,-43.2905
-161,-734,10.0544,43.7701,-0.0288148,-0.0181458,-0.00413423,-0.0167313,-0.0302293,-1.24114,0.0174861,0.0443768,1063,1758,10.0545,-43.7702
-154,-734,9.72095,44.6002,0,0,0,0,0,0,0,-1,1070,1758,9.72098,-44.6002
-147,-734,9.61768,43.187,0,0,0,0,0,0,0,-1,1077,1758,9.61767,-43.187
-140,-734,9.46777,43.7966,0,0,0,0,0,0,0,-1,1084,1758,9.46781,-43.7966
-133,-734,9.45288,44.1823,-0.0148724,-0.00238936,0.00101984,-0.00230659,-0.0149552,1.48981,0.00929714,0.0451959,1091,1758,9.45282,-44.1822
-126,-734,9.31067,44.4421,-0.0121632,0.000435154,0.00187293,0.000707696,-0.0124357,1.42629,0.00853616,0.0414319,1098,1758,9.31062,-44.4421
-119,-734,9.30029,44.8434,-0.00986144,0.00256038,0.00250511,0.00304656,-0.0103476,1.37911,0.00810704,0.0429894,1105,1758,9.30028,-44.8433
-112,-734,9.36658,45.1638,-0.0065639,0.00571194,0.00334503,0.00656425,-0.00741621,1.32131,0.00807662,0.042935,1112,1758,9.36652,-45.1638
-105,-734,9.28821,45.4807,-0.00415561,0.00743042,0.00428673,0.008844,-0.00556919,1.25227,0.00839275,0.047621,1119,1758,9.28821,-45.4807
-98,-734,9.24146,45.5391,0,0,0,0,0,0,0,-1,1126,1758,9.24141,-45.5391
-91,-734,9.24683,46.0836,0,0,0,0,0,0,0,-1,1133,1758,9.24685,-46.0836
-84,-734,9.17517,46.3278,0,0,0,0,0,0,0,-1,1140,1758,9.17521,-46.3278
-77,-734,9.14722,46.6267,0,0,0,0,0,0,0,-1,1147,1758,9.14725,-46.6267
-70,-734,9.17859,46.9064,0,0,0,0,0,0,0,-1,1154,1758,9.17857,-46.9064
-63,-734,9.0343,46.9232,-0.00451127,0.00374064,0.00308009,0.00476352,-0.00553414,1.25016,0.0059509,0.0360886,1161,1758,9.0343,-46.9232
-56,-734,9.06274,47.2917,-0.00544525,0.00352493,0.00392178,0.00499772,-0.00691804,1.21155,0.00690928,0.017173,1168,1758,9.06279,-47.2918
-49,-734,9.02905,47.5297,-0.00586719,0.00289619,0.00447073,0.00477442,-0.00774542,1.17307,0.00729586,0.0127276,1175,1758,9.02909,-47.5297
-42,-734,9.00525,47.7389,-0.0060045,0.00226139,0.0044929,0.00423315,-0.00797626,1.15724,0.00715867,0.0142451,1182,1758,9.00523,-47.7389
-35,-734,8.98743,47.9065,-0.00621941,0.00153388,0.00427976,0.00343172,-0.00811725,1.15341,0.00684828,0.0145723,1189,1758,8.98742,-47.9065
-28,-734,8.98022,48.0706,-0.00640987,0.00083164,0.00404184,0.00263734,-0.00821557,1.15065,0.006536,0.0104192,1196,1758,8.98026,-48.0705
-21,-734,8.99048,48.2458,-0.006418,0.000132101,0.0039203,0.00196535,-0.00825125,1.13338,0.00625965,0.016827,1203,1758,8.99042,-48.2459
-14,-734,8.93726,48.4353,-0.00595662,7.00213e-05,0.00385354,0.00194851,-0.00783512,1.11722,0.00597969,0.0161429,1210,1758,8.93724,-48.4352
-7,-734,8.93396,48.5697,-0.00548676,-7.65778e-05,0.00369676,0.00179911,-0.00736245,1.10126,0.00560509,0.0172879,1217,1758,8.93402,-48.5697
0,-734,8.91284,48.6927,-0.00519567,0.000285304,0.00360188,0.00207072,-0.00698109,1.1106,0.00547639,0.0168483,1224,1758,8.91285,-48.6927
7,-734,8.88672,48.8031,-0.00475032,0.000895109,0.00348102,0.00255405,-0.00640926,1.12607,0.00533214,0.0123668,1231,1758,8.88675,-48.8031
14,-734,8.87915,48.9052,-0.00419831,0.00169074,0.00326945,0.00314617,-0.00565373,1.15198,0.00514892,0.0126674,1238,1758,8.87909,-48.9051
21,-734,8.8595,48.97,-0.00364677,0.00273497,0.00295524,0.00389325,-0.00480505,1.19726,0.00503116,0.0114106,1245,1758,8.85946,-48.97
28,-734,8.85437,49.0345,-0.00309448,0.00381642,0.00264593,0.0047131,-0.00399116,1.24405,0.00503117,0.0108969,1252,1758,8.85436,-49.0345
35,-734,8.86292,49.1185,-0.00252131,0.00488266,0.00228994,0.00553367,-0.00317231,1.29382,0.00508765,0.0150281,1259,1758,8.8629,-49.1185
42,-734,8.85596,49.1417,-0.00193918,0.00581201,0.00189798,0.0062518,-0.00237897,1.3431,0.00514748,0.0125759,1266,1758,8.85592,-49.1417
49,-734,8.80945,49.1658,-0.00140058,0.00634346,0.0015479,0.00664139,-0.00169852,1.38064,0.00508915,0.0104963,1273,1758,8.80946,-49.1658
56,-734,8.79675,49.2034,-0.000908737,0.00660675,0.00119465,0.00679208,-0.00109407,1.41689,0.00493334,0.00976126,1280,1758,8.7968,-49.2034
63,-734,8.80054,49.2001,-0.00059576,0.00670501,0.000962643,0.0068298,-0.000720557,1.44188,0.00481141,0.012788,1287,1758,8.80049,-49.2001
70,-734,8.79871,49.2002,-0.000305243,0.0065121,0.000800001,0.00660472,-0.000397863,1.45553,0.00454158,0.014032,1294,1758,8.79868,-49.2002
77,-734,8.80334,49.2565,-3.41396e-05,0.00588716,0.000672644,0.00596261,-0.000109589,1.4591,0.0040121,0.0185908,1301,1758,8.80332,-49.2564
84,-734,8.79749,49.1885,0.00023203,0.00518738,0.000488586,0.0052351,0.000184316,1.47345,0.00343028,0.0162753,1308,1758,8.79749,-49.1885
91,-734,8.79736,49.1138,0.000327982,0.00417891,0.000342121,0.00420907,0.000297824,1.48287,0.00271223,0.0178572,1315,1758,8.7974,-49.1137
98,-734,8.80652,49.0691,0.000361691,0.00329212,0.000344793,0.00333214,0.00032167,1.45524,0.00212235,0.0140726,1322,1758,8.80648,-49.0691
105,-734,8.80151,49.011,0.0006223,0.00239767,0.00029883,0.00244662,0.00057335,1.40843,0.00147752,0.0152905,1329,1758,8.80153,-49.011
112,-734,8.80054,48.9204,0.000774631,0.0017457,0.000228369,0.00179673,0.000723606,1.35098,0.00104386,0.0130004,1336,1758,8.80056,-48.9204
119,-734,8.77332,48.8231,0.000801497,0.00126496,0.000173023,0.00132243,0.000744029,1.25012,0.000765497,0.0142196,1343,1758,8.77331,-48.8231
126,-734,8.72998,48.6929,0.000825959,0.000873966,0.000140079,0.000992084,0.000707842,0.870252,0.000589927,0.016999,1350,1758,8.72993,-48.6929
133,-734,8.6991,48.5697,0.000807348,0.000755124,2.63997e-05,0.000818368,0.000744104,0.395437,0.000522586,0.0150297,1357,1758,8.69911,-48.5697
140,-734,8.70618,48.4396,0.000701339,0.000804476,-0.000145292,0.000907079,0.000598735,-0.955928,0.000532573,0.0187151,1364,1758,8.70615,-48.4395
147,-734,8.68164,48.2786,0.000536052,0.000845366,-0.000346016,0.00106972,0.000311702,-0.995561,0.000635266,0.013097,1371,1758,8.68168,-48.2785
154,-734,8.65601,48.1602,0.000265343,0.00112324,-0.000625898,0.00145307,-6.44874e-05,-1.08581,0.000990909,0.0091809,1378,1758,8.65602,-48.1602
161,-734,8.63782,48.0114,-7.43218e-05,0.00139584,-0.000793768,0.00174262,-0.000421095,-1.15891,0.00132461,0.00825637,1385,1758,8.63776,-48.0113
168,-734,8.6012,47.8413,-0.000312662,0.00124548,-0.000956953,0.00170039,-0.000767572,-1.12704,0.00145841,0.0133972,1392,1758,8.60116,-47.8414
175,-734,8.57874,47.6539,-0.00062373,0.000911043,-0.00114914,0.00152547,-0.00123815,-1.07979,0.00159845,0.017551,1399,1758,8.57873,-47.6539
182,-734,8.58228,47.4335,-0.00098045,0.000903489,-0.00142154,0.00166683,-0.0017438,-1.078,0.00196929,0.0159991,1406,1758,8.58229,-47.4335
189,-734,8.5575,47.2111,-0.00198,0.00047176,-0.00157023,0.00123797,-0.00274621,-1.11683,0.00235457,0.012015,1413,1758,8.55755,-47.2111
196,-734,8.52478,46.9934,-0.00326651,0.000554288,-0.00205136,0.00144705,-0.00415927,-1.16031,0.0033607,0.014867,1420,1758,8.52483,-46.9934
203,-734,8.52063,46.728,-0.00308367,0.00201979,-0.00273852,0.00321116,-0.00427504,-1.16045,0.00433668,0.0210956,1427,1758,8.52059,-46.7281
210,-734,8.52234,46.4614,-0.00231835,0.00319796,-0.00360978,0.00498271,-0.00410309,-1.11162,0.00525387,0.0353385,1434,1758,8.52229,-46.4615
217,-734,8.48779,46.2061,0,0,0,0,0,0,0,-1,1441,1758,8.48777,-46.206
224,-734,8.39624,46.0204,0,0,0,0,0,0,0,-1,1448,1758,8.3962,-46.0204
231,-734,8.3269,45.7128,0,0,0,0,0,0,0,-1,1455,1758,8.32686,-45.7128
238,-734,8.62024,45.0961,0,0,0,0,0,0,0,-1,1462,1758,8.62023,-45.096
245,-734,8.47998,44.9698,0.00163869,-0.00178163,-0.00686425,0.0070026,-0.00714555,-0.663314,0.00816858,0.0433805,1469,1758,8.47992,-44.9698
252,-734,8.41174,44.6826,0.00218293,-0.00328043,-0.00733389,0.00727736,-0.00837487,-0.607121,0.00904422,0.0379846,1476,1758,8.41171,-44.6826
259,-734,8.54468,44.4926,0.0024774,-0.00510538,-0.00744697,0.00704257,-0.00967055,-0.54994,0.009689,0.0416587,1483,1758,8.54462,-44.4926
266,-734,8.63147,44.354,0.00264028,-0.00689411,-0.00756486,0.00681474,-0.0110686,-0.504242,0.0104218,0.0459845,1490,1758,8.63144,-44.354
273,-734,9.03235,44.5782,0.00272336,-0.00721505,-0.00796771,0.00714444,-0.0116361,-0.506578,0.0109458,0.0485301,1497,1758,9.03229,-44.5782
280,-734,7.87097,43.9952,0,0,0,0,0,0,0,-1,1504,1758,7.87094,-43.9952
287,-734,7.25867,43.0227,0,0,0,0,0,0,0,-1,1511,1758,7.25868,-43.0228
294,-734,7.31262,42.9679,0,0,0,0,0,0,0,-1,1518,1758,7.31266,-42.9679
301,-734,7.21814,42.6078,0,0,0,0,0,0,0,-1,1525,1758,7.21809,-42.6078
308,-734,8.0509,41.5156,0,0,0,0,0,0,0,-1,1532,1758,8.05087,-41.5157
315,-734,7.93787,40.8274,0,0,0,0,0,0,0,-1,1539,1758,7.93784,-40.8273
322,-734,7.82483,40.139,0,0,0,0,0,0,0,-1,1546,1758,7.82481,-40.139
329,-734,5.73267,19.656,0,0,0,0,0,0,0,-1,1553,1758,5.73262,-19.656
336,-734,6.71375,23.7469,0,0,0,0,0,0,0,-1,1560,1758,6.71372,-23.7469
343,-734,5.54968,5.14221,0,0,0,0,0,0,0,-1,1567,1758,5.54973,-5.14225
350,-734,5.07397,6.73242,0,0,0,0,0,0,0,-1,1574,1758,5.07402,-6.73243
357,-734,5.05542,7.19189,0,0,0,0,0,0,0,-1,1581,1758,5.05541,-7.19184
364,-734,4.43896,10.4904,0,0,0,0,0,0,0,-1,1588,1758,4.43893,-10.4904
371,-734,7.36975,17.4751,0,0,0,0,0,0,0,-1,1595,1758,7.36972,-17.4752
378,-734,0,0,0,0,0,0,0,0,0,-1,1602,1758,0,0
385,-734,0,0,0,0,0,0,0,0,0,-1,1609,1758,0,0
392,-734,0,0,0,0,0,0,0,0,0,-1,1616,1758,0,0
399,-734,0,0,0,0,0,0,0,0,0,-1,1623,1758,0,0
406,-734,0,0,0,0,0,0,0,0,0,-1,1630,1758,0,0
413,-734,0,0,0,0,0,0,0,0,0,-1,1637,1758,0,0
420,-734,0,0,0,0,0,0,0,0,0,-1,1644,1758,0,0
427,-734,0,0,0,0,0,0,0,0,0,-1,1651,1758,0,0
434,-734,0,0,0,0,0,0,0,0,0,-1,1658,1758,0,0
441,-734,0,0,0,0,0,0,0,0,0,-1,1665,1758,0,0
448,-734,0,0,0,0,0,0,0,0,0,-1,1672,1758,0,0
455,-734,0,0,0,0,0,0,0,0,0,-1,1679,1758,0,0
462,-734,0,0,0,0,0,0,0,0,0,-1,1686,1758,0,0
469,-734,0,0,0,0,0,0,0,0,0,-1,1693,1758,0,0
476,-734,0,0,0,0,0,0,0,0,0,-1,1700,1758,0,0
483,-734,0,0,0,0,0,0,0,0,0,-1,1707,1758,0,0
490,-734,0,0,0,0,0,0,0,0,0,-1,1714,1758,0,0
497,-734,0,0,0,0,0,0,0,0,0,-1,1721,1758,0,0
504,-734,0,0,0,0,0,0,0,0,0,-1,1728,1758,0,0
511,-734,0,0,0,0,0,0,0,0,0,-1,1735,1758,0,0
518,-734,0,0,0,0,0,0,0,0,0,-1,1742,1758,0,0
525,-734,0,0,0,0,0,0,0,0,0,-1,1749,1758,0,0
532,-734,0,0,0,0,0,0,0,0,0,-1,1756,1758,0,0
539,-734,0,0,0,0,0,0,0,0,0,-1,1763,1758,0,0
546,-734,0,0,0,0,0,0,0,0,0,-1,1770,1758,0,0
553,-734,0,0,0,0,0,0,0,0,0,-1,1777,1758,0,0
560,-734,0,0,0,0,0,0,0,0,0,-1,1784,1758,0,0
567,-734,0,0,0,0,0,0,0,0,0,-1,1791,1758,0,0
574,-734,0,0,0,0,0,0,0,0,0,-1,1798,1758,0,0
581,-734,0,0,0,0,0,0,0,0,0,-1,1805,1758,0,0
588,-734,0,0,0,0,0,0,0,0,0,-1,1812,1758,0,0
595,-734,0,0,0,0,0,0,0,0,0,-1,1819,1758,0,0
602,-734,0,0,0,0,0,0,0,0,0,-1,1826,1758,0,0
609,-734,0,0,0,0,0,0,0,0,0,-1,1833,1758,0,0
616,-734,0,0,0,0,0,0,0,0,0,-1,1840,1758,0,0
623,-734,0,0,0,0,0,0,0,0,0,-1,1847,1758,0,0
630,-734,0,0,0,0,0,0,0,0,0,-1,1854,1758,0,0
637,-734,0,0,0,0,0,0,0,0,0,-1,1861,1758,0,0
644,-734,0,0,0,0,0,0,0,0,0,-1,1868,1758,0,0
651,-734,0,0,0,0,0,0,0,0,0,-1,1875,1758,0,0
658,-734,0,0,0,0,0,0,0,0,0,-1,1882,1758,0,0
665,-734,0,0,0,0,0,0,0,0,0,-1,1889,1758,0,0
672,-734,0,0,0,0,0,0,0,0,0,-1,1896,1758,0,0
679,-734,0,0,0,0,0,0,0,0,0,-1,1903,1758,0,0
686,-734,0,0,0,0,0,0,0,0,0,-1,1910,1758,0,0
693,-734,0,0,0,0,0,0,0,0,0,-1,1917,1758,0,0
700,-734,0,0,0,0,0,0,0,0,0,-1,1924,1758,0,0
707,-734,0,0,0,0,0,0,0,0,0,-1,1931,1758,0,0
714,-734,0,0,0,0,0,0,0,0,0,-1,1938,1758,0,0
721,-734,0,0,0,0,0,0,0,0,0,-1,1945,1758,0,0
728,-734,0,0,0,0,0,0,0,0,0,-1,1952,1758,0,0
735,-734,0,0,0,0,0,0,0,0,0,-1,1959,1758,0,0
742,-734,0,0,0,0,0,0,0,0,0,-1,1966,1758,0,0
749,-734,0,0,0,0,0,0,0,0,0,-1,1973,1758,0,0
756,-734,0,0,0,0,0,0,0,0,0,-1,1980,1758,0,0
763,-734,0,0,0,0,0,0,0,0,0,-1,1987,1758,0,0
770,-734,0,0,0,0,0,0,0,0,0,-1,1994,1758,0,0
777,-734,0,0,0,0,0,0,0,0,0,-1,2001,1758,0,0
784,-734,0,0,0,0,0,0,0,0,0,-1,2008,1758,0,0
791,-734,0,0,0,0,0,0,0,0,0,-1,2015,1758,0,0
798,-734,0,0,0,0,0,0,0,0,0,-1,2022,1758,0,0
805,-734,0,0,0,0,0,0,0,0,0,-1,2029,1758,0,0
812,-734,0,0,0,0,0,0,0,0,0,-1,2036,1758,0,0
-700,-741,0,0,0,0,0,0,0,0,0,-1,524,1765,0,0
-693,-741,0,0,0,0,0,0,0,0,0,-1,531,1765,0,0
-686,-741,0,0,0,0,0,0,0,0,0,-1,538,1765,0,0
-679,-741,0,0,0,0,0,0,0,0,0,-1,545,1765,0,0
-672,-741,0,0,0,0,0,0,0,0,0,-1,552,1765,0,0
-665,-741,0,0,0,0,0,0,0,0,0,-1,559,1765,0,0
-658,-741,0,0,0,0,0,0,0,0,0,-1,566,1765,0,0
-651,-741,0,0,0,0,0,0,0,0,0,-1,573,1765,0,0
-644,-741,0,0,0,0,0,0,0,0,0,-1,580,1765,0,0
-637,-741,0,0,0,0,0,0,0,0,0,-1,587,1765,0,0
-630,-741,0,0,0,0,0,0,0,0,0,-1,594,1765,0,0
-623,-741,0,0,0,0,0,0,0,0,0,-1,601,1765,0,0
-616,-741,0,0,0,0,0,0,0,0,0,-1,608,1765,0,0
-609,-741,0,0,0,0,0,0,0,0,0,-1,615,1765,0,0
-602,-741,0,0,0,0,0,0,0,0,0,-1,622,1765,0,0
-595,-741,0,0,0,0,0,0,0,0,0,-1,629,1765,0,0
-588,-741,0,0,0,0,0,0,0,0,0,-1,636,1765,0,0
-581,-741,0,0,0,0,0,0,0,0,0,-1,643,1765,0,0
-574,-741,0,0,0,0,0,0,0,0,0,-1,650,1765,0,0
-567,-741,0,0,0,0,0,0,0,0,0,-1,657,1765,0,0
-560,-741,0,0,0,0,0,0,0,0,0,-1,664,1765,0,0
-553,-741,0,0,0,0,0,0,0,0,0,-1,671,1765,0,0
-546,-741,0,0,0,0,0,0,0,0,0,-1,678,1765,0,0
-539,-741,0,0,0,0,0,0,0,0,0,-1,685,1765,0,0
-532,-741,0,0,0,0,0,0,0,0,0,-1,692,1765,0,0
-525,-741,0,0,0,0,0,0,0,0,0,-1,699,1765,0,0
-518,-741,0,0,0,0,0,0,0,0,0,-1,706,1765,0,0
-511,-741,0,0,0,0,0,0,0,0,0,-1,713,1765,0,0
-504,-741,0,0,0,0,0,0,0,0,0,-1,720,1765,0,0
-497,-741,0,0,0,0,0,0,0,0,0,-1,727,1765,0,0
-490,-741,0,0,0,0,0,0,0,0,0,-1,734,1765,0,0
-483,-741,0,0,0,0,0,0,0,0,0,-1,741,1765,0,0
-476,-741,0,0,0,0,0,0,0,0,0,-1,748,1765,0,0
-469,-741,0,0,0,0,0,0,0,0,0,-1,755,1765,0,0
-462,-741,0,0,0,0,0,0,0,0,0,-1,762,1765,0,0
-455,-741,0,0,0,0,0,0,0,0,0,-1,769,1765,0,0
-448,-741,0,0,0,0,0,0,0,0,0,-1,776,1765,0,0
-441,-741,0,0,0,0,0,0,0,0,0,-1,783,1765,0,0
-434,-741,0,0,0,0,0,0,0,0,0,-1,790,1765,0,0
-427,-741,0,0,0,0,0,0,0,0,0,-1,797,1765,0,0
-420,-741,0,0,0,0,0,0,0,0,0,-1,804,1765,0,0
-413,-741,0,0,0,0,0,0,0,0,0,-1,811,1765,0,0
-406,-741,0,0,0,0,0,0,0,0,0,-1,818,1765,0,0
-399,-741,0,0,0,0,0,0,0,0,0,-1,825,1765,0,0
-392,-741,0,0,0,0,0,0,0,0,0,-1,832,1765,0,0
-385,-741,0,0,0,0,0,0,0,0,0,-1,839,1765,0,0
-378,-741,0,0,0,0,0,0,0,0,0,-1,846,1765,0,0
-371,-741,0,0,0,0,0,0,0,0,0,-1,853,1765,0,0
-364,-741,0,0,0,0,0,0,0,0,0,-1,860,1765,0,0
-357,-741,0,0,0,0,0,0,0,0,0,-1,867,1765,0,0
-350,-741,0,0,0,0,0,0,0,0,0,-1,874,1765,0,0
-343,-741,0,0,0,0,0,0,0,0,0,-1,881,1765,0,0
-336,-741,0,0,0,0,0,0,0,0,0,-1,888,1765,0,0
-329,-741,0,0,0,0,0,0,0,0,0,-1,895,1765,0,0
-322,-741,0,0,0,0,0,0,0,0,0,-1,902,1765,0,0
-315,-741,0,0,0,0,0,0,0,0,0,-1,909,1765,0,0
-308,-741,0,0,0,0,0,0,0,0,0,-1,916,1765,0,0
-301,-741,0,0,0,0,0,0,0,0,0,-1,923,1765,0,0
-294,-741,0,0,0,0,0,0,0,0,0,-1,930,1765,0,0
-287,-741,0,0,0,0,0,0,0,0,0,-1,937,1765,0,0
-280,-741,0,0,0,0,0,0,0,0,0,-1,944,1765,0,0
-273,-741,0,0,0,0,0,0,0,0,0,-1,951,1765,0,0
-266,-741,0,0,0,0,0,0,0,0,0,-1,958,1765,0,0
-259,-741,0,0,0,0,0,0,0,0,0,-1,965,1765,0,0
-252,-741,0,0,0,0,0,0,0,0,0,-1,972,1765,0,0
-245,-741,0,0,0,0,0,0,0,0,0,-1,979,1765,0,0
-238,-741,7.13855,29.8348,0,0,0,0,0,0,0,-1,986,1765,7.13856,-29.8348
-231,-741,7.74182,29.3066,0,0,0,0,0,0,0,-1,993,1765,7.74183,-29.3066
-224,-741,7.80078,29.0964,0,0,0,0,0,0,0,-1,1000,1765,7.80079,-29.0964
-217,-741,8.15863,29.113,0,0,0,0,0,0,0,-1,1007,1765,8.15863,-29.1131
-210,-741,8.37024,29.3896,0,0,0,0,0,0,0,-1,1014,1765,8.37022,-29.3896
-203,-741,8.33801,29.8871,0,0,0,0,0,0,0,-1,1021,1765,8.33805,-29.8871
-196,-741,8.75513,30.84,0,0,0,0,0,0,0,-1,1028,1765,8.75516,-30.8399
-189,-741,7.80798,42.0374,0,0,0,0,0,0,0,-1,1035,1765,7.80804,-42.0373
-182,-741,11.657,43.093,0,0,0,0,0,0,0,-1,1042,1765,11.657,-43.0931
-175,-741,11.5657,43.605,0,0,0,0,0,0,0,-1,1049,1765,11.5657,-43.605
-168,-741,11.0245,43.7799,0,0,0,0,0,0,0,-1,1056,1765,11.0246,-43.7799
-161,-741,10.4402,43.9268,0,0,0,0,0,0,0,-1,1063,1765,10.4402,-43.9268
-154,-741,8.78027,44.6383,0,0,0,0,0,0,0,-1,1070,1765,8.78026,-44.6383
-147,-741,8.98962,45.8148,0,0,0,0,0,0,0,-1,1077,1765,8.9896,-45.8148
-140,-741,9.34033,43.6924,0,0,0,0,0,0,0,-1,1084,1765,9.34031,-43.6924
-133,-741,9.77612,44.3879,0,0,0,0,0,0,0,-1,1091,1765,9.77614,-44.388
-126,-741,9.56189,44.4529,0,0,0,0,0,0,0,-1,1098,1765,9.56194,-44.4529
-119,-741,9.52881,44.7834,0,0,0,0,0,0,0,-1,1105,1765,9.52875,-44.7835
-112,-741,9.68103,45.017,0,0,0,0,0,0,0,-1,1112,1765,9.681,-45.0169
-105,-741,9.64429,45.3068,0,0,0,0,0,0,0,-1,1119,1765,9.64434,-45.3068
-98,-741,9.19971,40.25,0,0,0,0,0,0,0,-1,1126,1765,9.19971,-40.25
-91,-741,8.40002,36.3687,0,0,0,0,0,0,0,-1,1133,1765,8.40002,-36.3687
-84,-741,7.8877,35.0892,0,0,0,0,0,0,0,-1,1140,1765,7.88776,-35.0892
-77,-741,7.73303,34.1174,0,0,0,0,0,0,0,-1,1147,1765,7.73304,-34.1174
-70,-741,7.5437,32.0275,0,0,0,0,0,0,0,-1,1154,1765,7.5437,-32.0275
-63,-741,9.01758,46.5471,0,0,0,0,0,0,0,-1,1161,1765,9.01762,-46.5471
-56,-741,9.2887,47.1899,0,0,0,0,0,0,0,-1,1168,1765,9.28871,-47.1899
-49,-741,9.21729,47.5657,0,0,0,0,0,0,0,-1,1175,1765,9.21728,-47.5657
-42,-741,9.16162,47.7633,0,0,0,0,0,0,0,-1,1182,1765,9.16167,-47.7634
-35,-741,9.17407,47.9199,-0.0106427,0.00094829,0.00899044,0.00584933,-0.0155437,1.07169,0.012767,0.0248127,1189,1765,9.17413,-47.9199
-28,-741,9.16748,48.0959,-0.0108744,6.50737e-05,0.00848275,0.00468866,-0.015498,1.07176,0.012199,0.0151558,1196,1765,9.16754,-48.096
-21,-741,9.13208,48.2635,-0.0105978,-0.000442168,0.00755851,0.00358579,-0.0146258,1.08117,0.0111399,0.0198571,1203,1765,9.13204,-48.2635
-14,-741,9.07312,48.421,-0.00964164,-0.000165836,0.00662892,0.00324429,-0.0130518,1.09567,0.00996031,0.0191661,1210,1765,9.07314,-48.4211
-7,-741,9.04956,48.5502,-0.00874801,-0.000237345,0.00582629,0.00272213,-0.0117075,1.10081,0.00885299,0.0150963,1217,1765,9.0496,-48.5502
0,-741,9.02332,48.6738,-0.00802661,0.000495581,0.0050501,0.00284209,-0.0103731,1.13583,0.00803217,0.0146219,1224,1765,9.02333,-48.6738
7,-741,8.97156,48.7909,-0.00710402,0.00156299,0.00425766,0.00330459,-0.00884562,1.18251,0.00725401,0.0163105,1231,1765,8.97161,-48.791
14,-741,8.95508,48.8829,-0.00608681,0.0028536,0.0034087,0.00400496,-0.00723816,1.24506,0.00658008,0.0154342,1238,1765,8.95505,-48.883
21,-741,8.93384,48.9597,-0.00507479,0.00453741,0.00249968,0.0051486,-0.00568598,1.331,0.00625791,0.0130475,1245,1765,8.93383,-48.9597
28,-741,8.89954,49.0409,-0.00412194,0.00625656,0.00170513,0.00652953,-0.00439491,1.41206,0.00634723,0.0137727,1252,1765,8.8995,-49.0409
35,-741,8.89966,49.0951,-0.00324939,0.00790052,0.00105211,0.00799893,-0.0033478,1.47753,0.006732,0.0155622,1259,1765,8.89961,-49.0951
42,-741,8.8905,49.136,-0.00239038,0.00938044,0.000425944,0.00939583,-0.00240577,1.53467,0.00720104,0.0157875,1266,1765,8.89055,-49.136
49,-741,8.854,49.1705,-0.0015738,0.0102435,1.21819e-05,0.0102436,-0.00157382,1.56977,0.00740957,0.0103837,1273,1765,8.85395,-49.1706
56,-741,8.81396,49.1952,-0.000903781,0.010718,-0.00035718,0.010729,-0.000914747,-1.5401,0.00747623,0.00973988,1280,1765,8.81396,-49.1952
63,-741,8.80322,49.1945,-0.000515258,0.0109807,-0.000539772,0.011006,-0.000540547,-1.52398,0.00752397,0.0140986,1287,1765,8.80323,-49.1944
70,-741,8.78149,49.223,-0.00015155,0.010739,-0.000588418,0.0107707,-0.00018325,-1.51698,0.00724234,0.0167387,1294,1765,8.78152,-49.223
77,-741,8.75903,49.229,0.000204052,0.00996477,-0.000603916,0.010002,0.000166828,-1.50924,0.00661309,0.0140955,1301,1765,8.75907,-49.2289
84,-741,8.72754,49.2043,0.00047011,0.00889607,-0.000549353,0.00893174,0.000434445,-1.50596,0.00581509,0.0163204,1308,1765,8.72754,-49.2044
91,-741,8.70093,49.1543,0.000529981,0.00740274,-0.000546321,0.00744589,0.000486824,-1.49197,0.00480987,0.0140148,1315,1765,8.70092,-49.1543
98,-741,8.70374,49.0732,0.000631831,0.00619704,-0.000631378,0.00626777,0.000561099,-1.45923,0.0040046,0.0112824,1322,1765,8.70373,-49.0733
105,-741,8.70825,48.9832,0.00105835,0.00486138,-0.000775014,0.00501326,0.00090648,-1.37729,0.00308473,0.0115071,1329,1765,8.70821,-48.9832
112,-741,8.71704,48.8961,0.0013288,0.00388682,-0.000928531,0.00418832,0.00102729,-1.25682,0.00252056,0.0112905,1336,1765,8.71706,-48.8961
119,-741,8.67871,48.7834,0.00145419,0.00317868,-0.001003,0.00363911,0.000993755,-1.14044,0.00217197,0.0142453,1343,1765,8.67876,-48.7834
126,-741,8.64099,48.6481,0.00153387,0.00247312,-0.000969613,0.00308085,0.000926135,-1.01092,0.00182526,0.0198352,1350,1765,8.64095,-48.6481
133,-741,8.61462,48.5283,0.0015441,0.00214619,-0.00101668,0.00290546,0.000784826,-0.929339,0.00173556,0.0148918,1357,1765,8.61467,-48.5283
140,-741,8.57373,48.4257,0.00146282,0.00209316,-0.00119878,0.0030175,0.000538471,-0.913944,0.00185837,0.0111687,1364,1765,8.57367,-48.4257
147,-741,8.56299,48.2942,0.0012968,0.00201909,-0.0013841,0.00308838,0.00022751,-0.913015,0.00198743,0.0101888,1371,1765,8.56304,-48.2941
154,-741,8.5365,48.173,0.00079792,0.00227342,-0.00172731,0.00341393,-0.000342592,-0.987226,0.00239832,0.00857074,1378,1765,8.5365,-48.1729
161,-741,8.49512,48.0203,0.000272095,0.00253982,-0.00175091,0.00349194,-0.000680028,-1.07274,0.00258463,0.0102588,1385,1765,8.49509,-48.0203
168,-741,8.46472,47.8528,-8.71078e-07,0.00222715,-0.00173479,0.00317482,-0.000948537,-1.07082,0.0024936,0.0252302,1392,1765,8.46468,-47.8528
175,-741,8.39404,47.679,0,0,0,0,0,0,0,-1,1399,1765,8.39404,-47.6789
182,-741,8.41882,47.4495,0,0,0,0,0,0,0,-1,1406,1765,8.41881,-47.4494
189,-741,8.34937,47.256,0,0,0,0,0,0,0,-1,1413,1765,8.34942,-47.2559
196,-741,8.31018,47.0251,0,0,0,0,0,0,0,-1,1420,1765,8.31019,-47.0251
203,-741,8.30786,46.6566,0,0,0,0,0,0,0,-1,1427,1765,8.30785,-46.6566
210,-741,8.29333,46.1764,0,0,0,0,0,0,0,-1,1434,1765,8.29336,-46.1764
217,-741,8.4032,40.1213,0,0,0,0,0,0,0,-1,1441,1765,8.40325,-40.1214
224,-741,8.0719,38.4249,0,0,0,0,0,0,0,-1,1448,1765,8.07187,-38.4249
231,-741,7.95923,39.0671,0,0,0,0,0,0,0,-1,1455,1765,7.9592,-39.0671
238,-741,7.96619,42.4865,0,0,0,0,0,0,0,-1,1462,1765,7.96621,-42.4864
245,-741,8.42395,44.7197,0,0,0,0,0,0,0,-1,1469,1765,8.42401,-44.7197
252,-741,8.29565,44.472,0,0,0,0,0,0,0,-1,1476,1765,8.29564,-44.472
259,-741,8.50415,44.5819,0,0,0,0,0,0,0,-1,1483,1765,8.50414,-44.582
266,-741,8.63672,44.5592,0,0,0,0,0,0,0,-1,1490,1765,8.63666,-44.5592
273,-741,9.09314,45.0895,0,0,0,0,0,0,0,-1,1497,1765,9.09308,-45.0895
280,-741,6.59326,43.824,0,0,0,0,0,0,0,-1,1504,1765,6.5933,-43.824
287,-741,6.29468,43.7202,0,0,0,0,0,0,0,-1,1511,1765,6.29464,-43.7202
294,-741,5.91187,43.7742,0,0,0,0,0,0,0,-1,1518,1765,5.91188,-43.7742
301,-741,6.20667,38.5165,0,0,0,0,0,0,0,-1,1525,1765,6.20667,-38.5165
308,-741,7.99036,42.5969,0,0,0,0,0,0,0,-1,1532,1765,7.99037,-42.5969
315,-741,7.83838,41.6693,0,0,0,0,0,0,0,-1,1539,1765,7.83835,-41.6694
322,-741,7.68628,40.7418,0,0,0,0,0,0,0,-1,1546,1765,7.68633,-40.7418
329,-741,4.74414,17.928,0,0,0,0,0,0,0,-1,1553,1765,4.74414,-17.928
336,-741,5.74304,22.0945,0,0,0,0,0,0,0,-1,1560,1765,5.74306,-22.0945
343,-741,7.09888,26.501,0,0,0,0,0,0,0,-1,1567,1765,7.09885,-26.501
350,-741,4.90369,5.44666,0,0,0,0,0,0,0,-1,1574,1765,4.90368,-5.44664
357,-741,4.02063,5.16626,0,0,0,0,0,0,0,-1,1581,1765,4.02058,-5.1662
364,-741,0,0,0,0,0,0,0,0,0,-1,1588,1765,0,0
371,-741,0,0,0,0,0,0,0,0,0,-1,1595,1765,0,0
378,-741,0,0,0,0,0,0,0,0,0,-1,1602,1765,0,0
385,-741,0,0,0,0,0,0,0,0,0,-1,1609,1765,0,0
392,-741,0,0,0,0,0,0,0,0,0,-1,1616,1765,0,0
399,-741,0,0,0,0,0,0,0,0,0,-1,1623,1765,0,0
406,-741,0,0,0,0,0,0,0,0,0,-1,1630,1765,0,0
413,-741,0,0,0,0,0,0,0,0,0,-1,1637,1765,0,0
420,-741,0,0,0,0,0,0,0,0,0,-1,1644,1765,0,0
427,-741,0,0,0,0,0,0,0,0,0,-1,1651,1765,0,0
434,-741,0,0,0,0,0,0,0,0,0,-1,1658,1765,0,0
441,-741,0,0,0,0,0,0,0,0,0,-1,1665,1765,0,0
448,-741,0,0,0,0,0,0,0,0,0,-1,1672,1765,0,0
455,-741,0,0,0,0,0,0,0,0,0,-1,1679,1765,0,0
462,-741,0,0,0,0,0,0,0,0,0,-1,1686,1765,0,0
469,-741,0,0,0,0,0,0,0,0,0,-1,1693,1765,0,0
476,-741,0,0,0,0,0,0,0,0,0,-1,1700,1765,0,0
483,-741,0,0,0,0,0,0,0,0,0,-1,1707,1765,0,0
490,-741,0,0,0,0,0,0,0,0,0,-1,1714,1765,0,0
497,-741,0,0,0,0,0,0,0,0,0,-1,1721,1765,0,0
504,-741,0,0,0,0,0,0,0,0,0,-1,1728,1765,0,0
511,-741,0,0,0,0,0,0,0,0,0,-1,1735,1765,0,0
518,-741,0,0,0,0,0,0,0,0,0,-1,1742,1765,0,0
525,-741,0,0,0,0,0,0,0,0,0,-1,1749,1765,0,0
532,-741,0,0,0,0,0,0,0,0,0,-1,1756,1765,0,0
539,-741,0,0,0,0,0,0,0,0,0,-1,1763,1765,0,0
546,-741,0,0,0,0,0,0,0,0,0,-1,1770,1765,0,0
553,-741,0,0,0,0,0,0,0,0,0,-1,1777,1765,0,0
560,-741,0,0,0,0,0,0,0,0,0,-1,1784,1765,0,0
567,-741,0,0,0,0,0,0,0,0,0,-1,1791,1765,0,0
574,-741,0,0,0,0,0,0,0,0,0,-1,1798,1765,0,0
581,-741,0,0,0,0,0,0,0,0,0,-1,1805,1765,0,0
588,-741,0,0,0,0,0,0,0,0,0,-1,1812,1765,0,0
595,-741,0,0,0,0,0,0,0,0,0,-1,1819,1765,0,0
602,-741,0,0,0,0,0,0,0,0,0,-1,1826,1765,0,0
609,-741,0,0,0,0,0,0,0,0,0,-1,1833,1765,0,0
616,-741,0,0,0,0,0,0,0,0,0,-1,1840,1765,0,0
623,-741,0,0,0,0,0,0,0,0,0,-1,1847,1765,0,0
630,-741,0,0,0,0,0,0,0,0,0,-1,1854,1765,0,0
637,-741,0,0,0,0,0,0,0,0,0,-1,1861,1765,0,0
644,-741,0,0,0,0,0,0,0,0,0,-1,1868,1765,0,0
651,-741,0,0,0,0,0,0,0,0,0,-1,1875,1765,0,0
658,-741,0,0,0,0,0,0,0,0,0,-1,1882,1765,0,0
665,-741,0,0,0,0,0,0,0,0,0,-1,1889,1765,0,0
672,-741,0,0,0,0,0,0,0,0,0,-1,1896,1765,0,0
679,-741,0,0,0,0,0,0,0,0,0,-1,1903,1765,0,0
686,-741,0,0,0,0,0,0,0,0,0,-1,1910,1765,0,0
693,-741,0,0,0,0,0,0,0,0,0,-1,1917,1765,0,0
700,-741,0,0,0,0,0,0,0,0,0,-1,1924,1765,0,0
707,-741,0,0,0,0,0,0,0,0,0,-1,1931,1765,0,0
714,-741,0,0,0,0,0,0,0,0,0,-1,1938,1765,0,0
721,-741,0,0,0,0,0,0,0,0,0,-1,1945,1765,0,0
728,-741,0,0,0,0,0,0,0,0,0,-1,1952,1765,0,0
735,-741,0,0,0,0,0,0,0,0,0,-1,1959,1765,0,0
742,-741,0,0,0,0,0,0,0,0,0,-1,1966,1765,0,0
749,-741,0,0,0,0,0,0,0,0,0,-1,1973,1765,0,0
756,-741,0,0,0,0,0,0,0,0,0,-1,1980,1765,0,0
763,-741,0,0,0,0,0,0,0,0,0,-1,1987,1765,0,0
770,-741,0,0,0,0,0,0,0,0,0,-1,1994,1765,0,0
777,-741,0,0,0,0,0,0,0,0,0,-1,2001,1765,0,0
784,-741,0,0,0,0,0,0,0,0,0,-1,2008,1765,0,0
791,-741,0,0,0,0,0,0,0,0,0,-1,2015,1765,0,0
798,-741,0,0,0,0,0,0,0,0,0,-1,2022,1765,0,0
805,-741,0,0,0,0,0,0,0,0,0,-1,2029,1765,0,0
812,-741,0,0,0,0,0,0,0,0,0,-1,2036,1765,0,0
-700,-748,0,0,0,0,0,0,0,0,0,-1,524,1772,0,0
-693,-748,0,0,0,0,0,0,0,0,0,-1,531,1772,0,0
-686,-748,0,0,0,0,0,0,0,0,0,-1,538,1772,0,0
-679,-748,0,0,0,0,0,0,0,0,0,-1,545,1772,0,0
-672,-748,0,0,0,0,0,0,0,0,0,-1,552,1772,0,0
-665,-748,0,0,0,0,0,0,0,0,0,-1,559,1772,0,0
-658,-748,0,0,0,0,0,0,0,0,0,-1,566,1772,0,0
-651,-748,0,0,0,0,0,0,0,0,0,-1,573,1772,0,0
-644,-748,0,0,0,0,0,0,0,0,0,-1,580,1772,0,0
-637,-748,0,0,0,0,0,0,0,0,0,-1,587,1772,0,0
-630,-748,0,0,0,0,0,0,0,0,0,-1,594,1772,0,0
-623,-748,0,0,0,0,0,0,0,0,0,-1,601,1772,0,0
-616,-748,0,0,0,0,0,0,0,0,0,-1,608,1772,0,0
-609,-748,0,0,0,0,0,0,0,0,0,-1,615,1772,0,0
-602,-748,0,0,0,0,0,0,0,0,0,-1,622,1772,0,0
-595,-748,0,0,0,0,0,0,0,0,0,-1,629,1772,0,0
-588,-748,0,0,0,0,0,0,0,0,0,-1,636,1772,0,0
-581,-748,0,0,0,0,0,0,0,0,0,-1,643,1772,0,0
-574,-748,0,0,0,0,0,0,0,0,0,-1,650,1772,0,0
-567,-748,0,0,0,0,0,0,0,0,0,-1,657,1772,0,0
-560,-748,0,0,0,0,0,0,0,0,0,-1,664,1772,0,0
-553,-748,0,0,0,0,0,0,0,0,0,-1,671,1772,0,0
-546,-748,0,0,0,0,0,0,0,0,0,-1,678,1772,0,0
-539,-748,0,0,0,0,0,0,0,0,0,-1,685,1772,0,0
-532,-748,0,0,0,0,0,0,0,0,0,-1,692,1772,0,0
-525,-748,0,0,0,0,0,0,0,0,0,-1,699,1772,0,0
-518,-748,0,0,0,0,0,0,0,0,0,-1,706,1772,0,0
-511,-748,0,0,0,0,0,0,0,0,0,-1,713,1772,0,0
-504,-748,0,0,0,0,0,0,0,0,0,-1,720,1772,0,0
-497,-748,0,0,0,0,0,0,0,0,0,-1,727,1772,0,0
-490,-748,0,0,0,0,0,0,0,0,0,-1,734,1772,0,0
-483,-748,0,0,0,0,0,0,0,0,0,-1,741,1772,0,0
-476,-748,0,0,0,0,0,0,0,0,0,-1,748,1772,0,0
-469,-748,0,0,0,0,0,0,0,0,0,-1,755,1772,0,0
-462,-748,0,0,0,0,0,0,0,0,0,-1,762,1772,0,0
-455,-748,0,0,0,0,0,0,0,0,0,-1,769,1772,0,0
-448,-748,0,0,0,0,0,0,0,0,0,-1,776,1772,0,0
-441,-748,0,0,0,0,0,0,0,0,0,-1,783,1772,0,0
-434,-748,0,0,0,0,0,0,0,0,0,-1,790,1772,0,0
-427,-748,0,0,0,0,0,0,0,0,0,-1,797,1772,0,0
-420,-748,0,0,0,0,0,0,0,0,0,-1,804,1772,0,0
-413,-748,0,0,0,0,0,0,0,0,0,-1,811,1772,0,0
-406,-748,0,0,0,0,0,0,0,0,0,-1,818,1772,0,0
-399,-748,0,0,0,0,0,0,0,0,0,-1,825,1772,0,0
-392,-748,0,0,0,0,0,0,0,0,0,-1,832,1772,0,0
-385,-748,0,0,0,0,0,0,0,0,0,-1,839,1772,0,0
-378,-748,0,0,0,0,0,0,0,0,0,-1,846,1772,0,0
-371,-748,0,0,0,0,0,0,0,0,0,-1,853,1772,0,0
-364,-748,0,0,0,0,0,0,0,0,0,-1,860,1772,0,0
-357,-748,0,0,0,0,0,0,0,0,0,-1,867,1772,0,0
-350,-748,0,0,0,0,0,0,0,0,0,-1,874,1772,0,0
-343,-748,0,0,0,0,0,0,0,0,0,-1,881,1772,0,0
-336,-748,0,0,0,0,0,0,0,0,0,-1,888,1772,0,0
-329,-748,0,0,0,0,0,0,0,0,0,-1,895,1772,0,0
-322,-748,0,0,0,0,0,0,0,0,0,-1,902,1772,0,0
-315,-748,0,0,0,0,0,0,0,0,0,-1,909,1772,0,0
-308,-748,0,0,0,0,0,0,0,0,0,-1,916,1772,0,0
-301,-748,0,0,0,0,0,0,0,0,0,-1,923,1772,0,0
-294,-748,0,0,0,0,0,0,0,0,0,-1,930,1772,0,0
-287,-748,0,0,0,0,0,0,0,0,0,-1,937,1772,0,0
-280,-748,0,0,0,0,0,0,0,0,0,-1,944,1772,0,0
-273,-748,0,0,0,0,0,0,0,0,0,-1,951,1772,0,0
-266,-748,0,0,0,0,0,0,0,0,0,-1,958,1772,0,0
-259,-748,0,0,0,0,0,0,0,0,0,-1,965,1772,0,0
-252,-748,0,0,0,0,0,0,0,0,0,-1,972,1772,0,0
-245,-748,0,0,0,0,0,0,0,0,0,-1,979,1772,0,0
-238,-748,0,0,0,0,0,0,0,0,0,-1,986,1772,0,0
-231,-748,0,0,0,0,0,0,0,0,0,-1,993,1772,0,0
-224,-748,0,0,0,0,0,0,0,0,0,-1,1000,1772,0,0
-217,-748,8.97742,29.9884,0,0,0,0,0,0,0,-1,1007,1772,8.97744,-29.9884
-210,-748,8.8941,30.14,0,0,0,0,0,0,0,-1,1014,1772,8.8941,-30.14
-203,-748,8.57703,30.2961,0,0,0,0,0,0,0,-1,1021,1772,8.57706,-30.2962
-196,-748,8.01953,29.9611,0,0,0,0,0,0,0,-1,1028,1772,8.01957,-29.9611
-189,-748,9.63245,31.4406,0,0,0,0,0,0,0,-1,1035,1772,9.6325,-31.4406
-182,-748,3.94958,20.8662,0,0,0,0,0,0,0,-1,1042,1772,3.94959,-20.8662
-175,-748,3.56726,19.4518,0,0,0,0,0,0,0,-1,1049,1772,3.5673,-19.4518
-168,-748,11.6345,44.1538,0,0,0,0,0,0,0,-1,1056,1772,11.6346,-44.1539
-161,-748,3.50562,13.2729,0,0,0,0,0,0,0,-1,1063,1772,3.5056,-13.2729
-154,-748,8.47375,45.3986,0,0,0,0,0,0,0,-1,1070,1772,8.47374,-45.3985
-147,-748,11.772,42.0261,0,0,0,0,0,0,0,-1,1077,1772,11.772,-42.0262
-140,-748,10.9395,41.1906,0,0,0,0,0,0,0,-1,1084,1772,10.9395,-41.1905
-133,-748,7.44727,22.0308,0,0,0,0,0,0,0,-1,1091,1772,7.44728,-22.0308
-126,-748,5.98035,22.6067,0,0,0,0,0,0,0,-1,1098,1772,5.9803,-22.6067
-119,-748,6.63342,26.309,0,0,0,0,0,0,0,-1,1105,1772,6.6334,-26.3089
-112,-748,6.91333,24.923,0,0,0,0,0,0,0,-1,1112,1772,6.91339,-24.923
-105,-748,6.83313,25.0537,0,0,0,0,0,0,0,-1,1119,1772,6.83311,-25.0537
-98,-748,8.13623,30.8743,0,0,0,0,0,0,0,-1,1126,1772,8.13628,-30.8742
-91,-748,4.85352,15.3033,0,0,0,0,0,0,0,-1,1133,1772,4.85351,-15.3033
-84,-748,-0.192017,7.26196,0,0,0,0,0,0,0,-1,1140,1772,-0.192047,-7.26201
-77,-748,4.42615,13.5537,0,0,0,0,0,0,0,-1,1147,1772,4.4261,-13.5538
-70,-748,4.46191,13.7446,0,0,0,0,0,0,0,-1,1154,1772,4.4619,-13.7446
-63,-748,4.49768,13.9355,0,0,0,0,0,0,0,-1,1161,1772,4.49769,-13.9355
-56,-748,3.05762,7.87817,0,0,0,0,0,0,0,-1,1168,1772,3.05768,-7.87822
-49,-748,3.04102,7.82471,0,0,0,0,0,0,0,-1,1175,1772,3.04096,-7.82468
-42,-748,0.793457,14.9474,0,0,0,0,0,0,0,-1,1182,1772,0.793413,-14.9474
-35,-748,9.39795,47.86,0,0,0,0,0,0,0,-1,1189,1772,9.39791,-47.86
-28,-748,9.34424,48.1331,-0.0160929,-0.000734005,0.014179,0.00771164,-0.0245385,1.03359,0.0194461,0.0496546,1196,1772,9.34428,-48.133
-21,-748,9.28186,48.293,-0.0156022,-0.000242807,0.0122298,0.00651859,-0.0223636,1.06576,0.0174916,0.0233406,1203,1772,9.28183,-48.293
-14,-748,9.20361,48.384,-0.0142295,0.000384744,0.0103383,0.00573757,-0.0195823,1.09304,0.0153296,0.0167029,1210,1772,9.20356,-48.384
-7,-748,9.17712,48.5066,-0.012908,0.000555808,0.00868429,0.00481188,-0.017164,1.11511,0.0133392,0.0154066,1217,1772,9.1771,-48.5066
0,-748,9.13574,48.6339,-0.0117552,0.00177099,0.00707113,0.00479259,-0.0147768,1.16697,0.0117784,0.015022,1224,1772,9.13573,-48.6339
7,-748,9.09167,48.7313,-0.010301,0.00348776,0.00545349,0.00538389,-0.0121971,1.23618,0.0104014,0.0147927,1231,1772,9.09162,-48.7313
14,-748,9.04236,48.844,-0.00872392,0.00546994,0.00384827,0.00644615,-0.00970013,1.32236,0.00938494,0.0161401,1238,1772,9.04236,-48.844
21,-748,9.02124,48.9363,-0.00715209,0.00789236,0.00226079,0.00822475,-0.00748449,1.42482,0.00907309,0.0122124,1245,1772,9.02119,-48.9362
28,-748,8.98364,49.0226,-0.00566937,0.0103018,0.000889673,0.0103512,-0.00571878,1.51532,0.00940564,0.0123119,1252,1772,8.98366,-49.0226
35,-748,8.95178,49.0718,-0.00431603,0.0125448,-0.000174579,0.0125466,-0.00431784,-1.56044,0.0101156,0.0127616,1259,1772,8.95176,-49.0718
42,-748,8.94336,49.1185,-0.00301685,0.0145494,-0.00113368,0.0146223,-0.00308971,-1.50661,0.0109247,0.0152301,1266,1772,8.9433,-49.1185
49,-748,8.89844,49.1431,-0.00179509,0.0156759,-0.0016996,0.0158397,-0.00195889,-1.47472,0.0112697,0.0112292,1273,1772,8.8985,-49.1431
56,-748,8.8418,49.1855,-0.000812548,0.0162608,-0.00214723,0.0165267,-0.00107845,-1.44759,0.0113943,0.00992415,1280,1772,8.84174,-49.1855
63,-748,8.81494,49.1877,-0.000228937,0.0165997,-0.00240817,0.0169375,-0.000566765,-1.43142,0.0114852,0.0120031,1287,1772,8.81495,-49.1878
70,-748,8.78955,49.1859,0.000251801,0.0161186,-0.00239429,0.0164721,-0.000101624,-1.42424,0.0110154,0.0134988,1294,1772,8.78956,-49.1859
77,-748,8.76074,49.1738,0.000705206,0.0150249,-0.00233327,0.0153955,0.000334611,-1.41328,0.010154,0.012936,1301,1772,8.76077,-49.1738
84,-748,8.68103,49.1837,0.00102481,0.0131941,-0.00208571,0.0135417,0.000677265,-1.40568,0.00881072,0.0143918,1308,1772,8.68108,-49.1837
91,-748,8.64905,49.1486,0.001044,0.011249,-0.00198529,0.0116216,0.000671379,-1.38527,0.00753391,0.011899,1315,1772,8.64909,-49.1486
98,-748,8.6178,49.0616,0.00112795,0.0096609,-0.00210244,0.0101508,0.000638054,-1.34187,0.00656485,0.0117999,1322,1772,8.61775,-49.0617
105,-748,8.61035,48.962,0.00162702,0.00781786,-0.00231407,0.00858722,0.000857658,-1.24982,0.00546142,0.0128778,1329,1772,8.61029,-48.962
112,-748,8.61768,48.8882,0.00190385,0.0063621,-0.00251576,0.00749423,0.000771716,-1.14793,0.00475982,0.0155379,1336,1772,8.61769,-48.8882
119,-748,8.58093,48.7977,0.00205952,0.00529128,-0.00258892,0.00672721,0.00062359,-1.06439,0.00429207,0.013986,1343,1772,8.5809,-48.7978
126,-748,8.54492,48.7189,0.00219936,0.00418789,-0.00248456,0.00586974,0.000517503,-0.975728,0.00375257,0.0163339,1350,1772,8.54496,-48.7188
133,-748,8.47302,48.5852,0.00231318,0.00359496,-0.00245346,0.00548986,0.000418286,-0.913153,0.00352875,0.00999021,1357,1772,8.47305,-48.5852
140,-748,8.45728,48.4656,0.00238356,0.00342815,-0.00260886,0.00556648,0.000245226,-0.884193,0.003632,0.0126086,1364,1772,8.45723,-48.4656
147,-748,8.43774,48.3113,0.00239187,0.00331417,-0.00276633,0.00565752,4.8521e-05,-0.867989,0.00375561,0.0146249,1371,1772,8.43769,-48.3112
154,-748,8.37183,48.1631,0.0019041,0.00364734,-0.00315691,0.00605075,-0.000499309,-0.920092,0.00421015,0.0132708,1378,1772,8.37178,-48.1631
161,-748,8.31763,48.0325,0.00139901,0.00408633,-0.00302309,0.00605091,-0.000565571,-0.99452,0.00423507,0.0196952,1385,1772,8.31763,-48.0325
168,-748,8.33386,47.864,0,0,0,0,0,0,0,-1,1392,1772,8.33384,-47.864
175,-748,11.6235,16.8242,0,0,0,0,0,0,0,-1,1399,1772,11.6236,-16.8242
182,-748,7.62476,10.3058,0,0,0,0,0,0,0,-1,1406,1772,7.62476,-10.3058
189,-748,6.15857,6.95898,0,0,0,0,0,0,0,-1,1413,1772,6.15862,-6.95896
196,-748,3.9425,8.46021,0,0,0,0,0,0,0,-1,1420,1772,3.9425,-8.46026
203,-748,3.9668,12.9835,0,0,0,0,0,0,0,-1,1427,1772,3.96678,-12.9836
210,-748,4.71472,16.8318,0,0,0,0,0,0,0,-1,1434,1772,4.71471,-16.8317
217,-748,5.38452,21.5551,0,0,0,0,0,0,0,-1,1441,1772,5.38455,-21.555
224,-748,6.14258,25.2345,0,0,0,0,0,0,0,-1,1448,1772,6.14263,-25.2345
231,-748,6.46045,29.7867,0,0,0,0,0,0,0,-1,1455,1772,6.46049,-29.7867
238,-748,7.41565,32.8574,0,0,0,0,0,0,0,-1,1462,1772,7.41562,-32.8574
245,-748,7.84912,32.0914,0,0,0,0,0,0,0,-1,1469,1772,7.84914,-32.0914
252,-748,7.57336,29.4369,0,0,0,0,0,0,0,-1,1476,1772,7.57337,-29.4369
259,-748,8.2019,43.6465,0,0,0,0,0,0,0,-1,1483,1772,8.2019,-43.6465
266,-748,8.25952,39.3665,0,0,0,0,0,0,0,-1,1490,1772,8.25952,-39.3664
273,-748,7.1991,43.2549,0,0,0,0,0,0,0,-1,1497,1772,7.1991,-43.2549
280,-748,8.76538,40.4501,0,0,0,0,0,0,0,-1,1504,1772,8.76537,-40.45
287,-748,14.161,8.32813,0,0,0,0,0,0,0,-1,1511,1772,14.161,-8.32808
294,-748,6.38525,32.4724,0,0,0,0,0,0,0,-1,1518,1772,6.38521,-32.4725
301,-748,5.40393,38.9807,0,0,0,0,0,0,0,-1,1525,1772,5.40397,-38.9807
308,-748,5.95227,37.1827,0,0,0,0,0,0,0,-1,1532,1772,5.95229,-37.1827
315,-748,7.71741,42.637,0,0,0,0,0,0,0,-1,1539,1772,7.71738,-42.637
322,-748,4.26538,29.0557,0,0,0,0,0,0,0,-1,1546,1772,4.26537,-29.0556
329,-748,3.87256,16.1473,0,0,0,0,0,0,0,-1,1553,1772,3.87259,-16.1474
336,-748,4.81006,19.6141,0,0,0,0,0,0,0,-1,1560,1772,4.81011,-19.6141
343,-748,0,0,0,0,0,0,0,0,0,-1,1567,1772,0,0
350,-748,0,0,0,0,0,0,0,0,0,-1,1574,1772,0,0
357,-748,0,0,0,0,0,0,0,0,0,-1,1581,1772,0,0
364,-748,0,0,0,0,0,0,0,0,0,-1,1588,1772,0,0
371,-748,0,0,0,0,0,0,0,0,0,-1,1595,1772,0,0
378,-748,0,0,0,0,0,0,0,0,0,-1,1602,1772,0,0
385,-748,0,0,0,0,0,0,0,0,0,-1,1609,1772,0,0
392,-748,0,0,0,0,0,0,0,0,0,-1,1616,1772,0,0
399,-748,0,0,0,0,0,0,0,0,0,-1,1623,1772,0,0
406,-748,0,0,0,0,0,0,0,0,0,-1,1630,1772,0,0
413,-748,0,0,0,0,0,0,0,0,0,-1,1637,1772,0,0
420,-748,0,0,0,0,0,0,0,0,0,-1,1644,1772,0,0
427,-748,0,0,0,0,0,0,0,0,0,-1,1651,1772,0,0
434,-748,0,0,0,0,0,0,0,0,0,-1,1658,1772,0,0
441,-748,0,0,0,0,0,0,0,0,0,-1,1665,1772,0,0
448,-748,0,0,0,0,0,0,0,0,0,-1,1672,1772,0,0
455,-748,0,0,0,0,0,0,0,0,0,-1,1679,1772,0,0
462,-748,0,0,0,0,0,0,0,0,0,-1,1686,1772,0,0
469,-748,0,0,0,0,0,0,0,0,0,-1,1693,1772,0,0
476,-748,0,0,0,0,0,0,0,0,0,-1,1700,1772,0,0
483,-748,0,0,0,0,0,0,0,0,0,-1,1707,1772,0,0
490,-748,0,0,0,0,0,0,0,0,0,-1,1714,1772,0,0
497,-748,0,0,0,0,0,0,0,0,0,-1,1721,1772,0,0
504,-748,0,0,0,0,0,0,0,0,0,-1,1728,1772,0,0
511,-748,0,0,0,0,0,0,0,0,0,-1,1735,1772,0,0
518,-748,0,0,0,0,0,0,0,0,0,-1,1742,1772,0,0
525,-748,0,0,0,0,0,0,0,0,0,-1,1749,1772,0,0
532,-748,0,0,0,0,0,0,0,0,0,-1,1756,1772,0,0
539,-748,0,0,0,0,0,0,0,0,0,-1,1763,1772,0,0
546,-748,0,0,0,0,0,0,0,0,0,-1,1770,1772,0,0
553,-748,0,0,0,0,0,0,0,0,0,-1,1777,1772,0,0
560,-748,0,0,0,0,0,0,0,0,0,-1,1784,1772,0,0
567,-748,0,0,0,0,0,0,0,0,0,-1,1791,1772,0,0
574,-748,0,0,0,0,0,0,0,0,0,-1,1798,1772,0,0
581,-748,0,0,0,0,0,0,0,0,0,-1,1805,1772,0,0
588,-748,0,0,0,0,0,0,0,0,0,-1,1812,1772,0,0
595,-748,0,0,0,0,0,0,0,0,0,-1,1819,1772,0,0
602,-748,0,0,0,0,0,0,0,0,0,-1,1826,1772,0,0
609,-748,0,0,0,0,0,0,0,0,0,-1,1833,1772,0,0
616,-748,0,0,0,0,0,0,0,0,0,-1,1840,1772,0,0
623,-748,0,0,0,0,0,0,0,0,0,-1,1847,1772,0,0
630,-748,0,0,0,0,0,0,0,0,0,-1,1854,1772,0,0
637,-748,0,0,0,0,0,0,0,0,0,-1,1861,1772,0,0
644,-748,0,0,0,0,0,0,0,0,0,-1,1868,1772,0,0
651,-748,0,0,0,0,0,0,0,0,0,-1,1875,1772,0,0
658,-748,0,0,0,0,0,0,0,0,0,-1,1882,1772,0,0
665,-748,0,0,0,0,0,0,0,0,0,-1,1889,1772,0,0
672,-748,0,0,0,0,0,0,0,0,0,-1,1896,1772,0,0
679,-748,0,0,0,0,0,0,0,0,0,-1,1903,1772,0,0
686,-748,0,0,0,0,0,0,0,0,0,-1,1910,1772,0,0
693,-748,0,0,0,0,0,0,0,0,0,-1,1917,1772,0,0
700,-748,0,0,0,0,0,0,0,0,0,-1,1924,1772,0,0
707,-748,0,0,0,0,0,0,0,0,0,-1,1931,1772,0,0
714,-748,0,0,0,0,0,0,0,0,0,-1,1938,1772,0,0
721,-748,0,0,0,0,0,0,0,0,0,-1,1945,1772,0,0
728,-748,0,0,0,0,0,0,0,0,0,-1,1952,1772,0,0
735,-748,0,0,0,0,0,0,0,0,0,-1,1959,1772,0,0
742,-748,0,0,0,0,0,0,0,0,0,-1,1966,1772,0,0
749,-748,0,0,0,0,0,0,0,0,0,-1,1973,1772,0,0
756,-748,0,0,0,0,0,0,0,0,0,-1,1980,1772,0,0
763,-748,0,0,0,0,0,0,0,0,0,-1,1987,1772,0,0
770,-748,0,0,0,0,0,0,0,0,0,-1,1994,1772,0,0
777,-748,0,0,0,0,0,0,0,0,0,-1,2001,1772,0,0
784,-748,0,0,0,0,0,0,0,0,0,-1,2008,1772,0,0
791,-748,0,0,0,0,0,0,0,0,0,-1,2015,1772,0,0
798,-748,0,0,0,0,0,0,0,0,0,-1,2022,1772,0,0
805,-748,0,0,0,0,0,0,0,0,0,-1,2029,1772,0,0
812,-748,0,0,0,0,0,0,0,0,0,-1,2036,1772,0,0
-700,-755,0,0,0,0,0,0,0,0,0,-1,524,1779,0,0
-693,-755,0,0,0,0,0,0,0,0,0,-1,531,1779,0,0
-686,-755,0,0,0,0,0,0,0,0,0,-1,538,1779,0,0
-679,-755,0,0,0,0,0,0,0,0,0,-1,545,1779,0,0
-672,-755,0,0,0,0,0,0,0,0,0,-1,552,1779,0,0
-665,-755,0,0,0,0,0,0,0,0,0,-1,559,1779,0,0
-658,-755,0,0,0,0,0,0,0,0,0,-1,566,1779,0,0
-651,-755,0,0,0,0,0,0,0,0,0,-1,573,1779,0,0
-644,-755,0,0,0,0,0,0,0,0,0,-1,580,1779,0,0
-637,-755,0,0,0,0,0,0,0,0,0,-1,587,1779,0,0
-630,-755,0,0,0,0,0,0,0,0,0,-1,594,1779,0,0
-623,-755,0,0,0,0,0,0,0,0,0,-1,601,1779,0,0
-616,-755,0,0,0,0,0,0,0,0,0,-1,608,1779,0,0
-609,-755,0,0,0,0,0,0,0,0,0,-1,615,1779,0,0
-602,-755,0,0,0,0,0,0,0,0,0,-1,622,1779,0,0
-595,-755,0,0,0,0,0,0,0,0,0,-1,629,1779,0,0
-588,-755,0,0,0,0,0,0,0,0,0,-1,636,1779,0,0
-581,-755,0,0,0,0,0,0,0,0,0,-1,643,1779,0,0
-574,-755,0,0,0,0,0,0,0,0,0,-1,650,1779,0,0
-567,-755,0,0,0,0,0,0,0,0,0,-1,657,1779,0,0
-560,-755,0,0,0,0,0,0,0,0,0,-1,664,1779,0,0
-553,-755,0,0,0,0,0,0,0,0,0,-1,671,1779,0,0
-546,-755,0,0,0,0,0,0,0,0,0,-1,678,1779,0,0
-539,-755,0,0,0,0,0,0,0,0,0,-1,685,1779,0,0
-532,-755,0,0,0,0,0,0,0,0,0,-1,692,1779,0,0
-525,-755,0,0,0,0,0,0,0,0,0,-1,699,1779,0,0
-518,-755,0,0,0,0,0,0,0,0,0,-1,706,1779,0,0
-511,-755,0,0,0,0,0,0,0,0,0,-1,713,1779,0,0
-504,-755,0,0,0,0,0,0,0,0,0,-1,720,1779,0,0
-497,-755,0,0,0,0,0,0,0,0,0,-1,727,1779,0,0
-490,-755,0,0,0,0,0,0,0,0,0,-1,734,1779,0,0
-483,-755,0,0,0,0,0,0,0,0,0,-1,741,1779,0,0
-476,-755,0,0,0,0,0,0,0,0,0,-1,748,1779,0,0
-469,-755,0,0,0,0,0,0,0,0,0,-1,755,1779,0,0
-462,-755,0,0,0,0,0,0,0,0,0,-1,762,1779,0,0
-455,-755,0,0,0,0,0,0,0,0,0,-1,769,1779,0,0
-448,-755,0,0,0,0,0,0,0,0,0,-1,776,1779,0,0
-441,-755,0,0,0,0,0,0,0,0,0,-1,783,1779,0,0
-434,-755,0,0,0,0,0,0,0,0,0,-1,790,1779,0,0
-427,-755,0,0,0,0,0,0,0,0,0,-1,797,1779,0,0
-420,-755,0,0,0,0,0,0,0,0,0,-1,804,1779,0,0
-413,-755,0,0,0,0,0,0,0,0,0,-1,811,1779,0,0
-406,-755,0,0,0,0,0,0,0,0,0,-1,818,1779,0,0
-399,-755,0,0,0,0,0,0,0,0,0,-1,825,1779,0,0
-392,-755,0,0,0,0,0,0,0,0,0,-1,832,1779,0,0
-385,-755,0,0,0,0,0,0,0,0,0,-1,839,1779,0,0
-378,-755,0,0,0,0,0,0,0,0,0,-1,846,1779,0,0
-371,-755,0,0,0,0,0,0,0,0,0,-1,853,1779,0,0
-364,-755,0,0,0,0,0,0,0,0,0,-1,860,1779,0,0
-357,-755,0,0,0,0,0,0,0,0,0,-1,867,1779,0,0
-350,-755,0,0,0,0,0,0,0,0,0,-1,874,1779,0,0
-343,-755,0,0,0,0,0,0,0,0,0,-1,881,1779,0,0
-336,-755,0,0,0,0,0,0,0,0,0,-1,888,1779,0,0
-329,-755,0,0,0,0,0,0,0,0,0,-1,895,1779,0,0
-322,-755,0,0,0,0,0,0,0,0,0,-1,902,1779,0,0
-315,-755,0,0,0,0,0,0,0,0,0,-1,909,1779,0,0
-308,-755,0,0,0,0,0,0,0,0,0,-1,916,1779,0,0
-301,-755,0,0,0,0,0,0,0,0,0,-1,923,1779,0,0
-294,-755,0,0,0,0,0,0,0,0,0,-1,930,1779,0,0
-287,-755,0,0,0,0,0,0,0,0,0,-1,937,1779,0,0
-280,-755,0,0,0,0,0,0,0,0,0,-1,944,1779,0,0
-273,-755,0,0,0,0,0,0,0,0,0,-1,951,1779,0,0
-266,-755,0,0,0,0,0,0,0,0,0,-1,958,1779,0,0
-259,-755,0,0,0,0,0,0,0,0,0,-1,965,1779,0,0
-252,-755,0,0,0,0,0,0,0,0,0,-1,972,1779,0,0
-245,-755,0,0,0,0,0,0,0,0,0,-1,979,1779,0,0
-238,-755,0,0,0,0,0,0,0,0,0,-1,986,1779,0,0
-231,-755,0,0,0,0,0,0,0,0,0,-1,993,1779,0,0
-224,-755,0,0,0,0,0,0,0,0,0,-1,1000,1779,0,0
-217,-755,0,0,0,0,0,0,0,0,0,-1,1007,1779,0,0
-210,-755,0,0,0,0,0,0,0,0,0,-1,1014,1779,0,0
-203,-755,8.97363,30.5414,0,0,0,0,0,0,0,-1,1021,1779,8.97362,-30.5414
-196,-755,8.34436,29.0909,0,0,0,0,0,0,0,-1,1028,1779,8.3443,-29.091
-189,-755,4.8175,22.4788,0,0,0,0,0,0,0,-1,1035,1779,4.81745,-22.4788
-182,-755,4.021,20.8032,0,0,0,0,0,0,0,-1,1042,1779,4.02094,-20.8032
-175,-755,3.79993,18.8242,0,0,0,0,0,0,0,-1,1049,1779,3.79995,-18.8242
-168,-755,3.14294,16.9865,0,0,0,0,0,0,0,-1,1056,1779,3.14291,-16.9864
-161,-755,-2.85889,11.5868,0,0,0,0,0,0,0,-1,1063,1779,-2.85887,-11.5868
-154,-755,-5.39026,8.51416,0,0,0,0,0,0,0,-1,1070,1779,-5.3903,-8.51417
-147,-755,-6.45593,10.2422,0,0,0,0,0,0,0,-1,1077,1779,-6.45594,-10.2422
-140,-755,1.33521,21.3856,0,0,0,0,0,0,0,-1,1084,1779,1.33522,-21.3857
-133,-755,2.89417,21.0964,0,0,0,0,0,0,0,-1,1091,1779,2.89422,-21.0964
-126,-755,3.26404,20.9304,0,0,0,0,0,0,0,-1,1098,1779,3.26399,-20.9305
-119,-755,5.17761,21.9325,0,0,0,0,0,0,0,-1,1105,1779,5.17761,-21.9325
-112,-755,5.40247,24.5646,0,0,0,0,0,0,0,-1,1112,1779,5.40244,-24.5646
-105,-755,7.01294,20.1539,0,0,0,0,0,0,0,-1,1119,1779,7.01295,-20.154
-98,-755,5.50708,16.9628,0,0,0,0,0,0,0,-1,1126,1779,5.5071,-16.9628
-91,-755,5.51025,12.0438,0,0,0,0,0,0,0,-1,1133,1779,5.51022,-12.0439
-84,-755,0.169312,8.66443,0,0,0,0,0,0,0,-1,1140,1779,0.16932,-8.66446
-77,-755,-0.0491943,6.87439,0,0,0,0,0,0,0,-1,1147,1779,-0.0491385,-6.87443
-70,-755,4.5686,13.2169,0,0,0,0,0,0,0,-1,1154,1779,4.56865,-13.2169
-63,-755,-1.36316,7.3147,0,0,0,0,0,0,0,-1,1161,1779,-1.36312,-7.31473
-56,-755,0.0483398,5.06079,0,0,0,0,0,0,0,-1,1168,1779,0.0483138,-5.06084
-49,-755,-1.32263,5.33716,0,0,0,0,0,0,0,-1,1175,1779,-1.32264,-5.33718
-42,-755,-2.03613,4.01672,0,0,0,0,0,0,0,-1,1182,1779,-2.0361,-4.01671
-35,-755,-2.72498,2.37476,0,0,0,0,0,0,0,-1,1189,1779,-2.72502,-2.37473
-28,-755,9.39636,48.2146,0,0,0,0,0,0,0,-1,1196,1779,9.39634,-48.2146
-21,-755,9.33887,48.396,0,0,0,0,0,0,0,-1,1203,1779,9.33887,-48.396
-14,-755,9.33203,48.3833,-0.0196269,0.000388662,0.0153868,0.00873599,-0.0279743,1.07373,0.0221436,0.033174,1210,1779,9.33208,-48.3834
-7,-755,9.28784,48.457,-0.0178096,0.000794429,0.0125514,0.00711498,-0.0241301,1.10429,0.01891,0.0243941,1217,1779,9.2878,-48.457
0,-755,9.22485,48.5968,-0.0160448,0.00256289,0.00978529,0.00676139,-0.0202434,1.16549,0.0162259,0.015705,1224,1779,9.2249,-48.5968
7,-755,9.19092,48.7236,-0.0138586,0.00507999,0.00702399,0.00740069,-0.0161793,1.25169,0.0139249,0.0138574,1231,1779,9.19086,-48.7237
14,-755,9.15881,48.839,-0.0115253,0.00792578,0.00439258,0.00887173,-0.0124713,1.35868,0.0123807,0.0120261,1238,1779,9.15877,-48.8391
21,-755,9.06604,48.959,-0.00920252,0.0112538,0.00191832,0.0114321,-0.00938086,1.4781,0.0120358,0.0170075,1245,1779,9.066,-48.959
28,-755,9.03223,49.0063,-0.00702611,0.0144932,-0.000162779,0.0144944,-0.00702734,-1.56323,0.0126724,0.0204611,1252,1779,9.03221,-49.0064
35,-755,9.04456,49.0746,-0.00504783,0.0174514,-0.00173797,0.0175848,-0.00518129,-1.49416,0.013779,0.0201806,1259,1779,9.04454,-49.0745
42,-755,8.99695,49.0988,-0.00318334,0.0200791,-0.00312353,0.0204912,-0.00359545,-1.43962,0.0150036,0.0153446,1266,1779,8.997,-49.0988
49,-755,8.93152,49.0884,-0.00145155,0.0215767,-0.00387696,0.0222119,-0.00208674,-1.4084,0.0155502,0.0106552,1273,1779,8.93154,-49.0883
56,-755,8.87317,49.1459,-6.99782e-05,0.0223686,-0.00440534,0.0232025,-0.000903882,-1.38372,0.0157783,0.00947094,1280,1779,8.87319,-49.1458
63,-755,8.84045,49.1838,0.00079196,0.0227992,-0.00468819,0.0237563,-0.000165137,-1.36941,0.0158929,0.00983472,1287,1779,8.84046,-49.1838
70,-755,8.82178,49.1456,0.00146536,0.022103,-0.00457572,0.023072,0.000496339,-1.36211,0.0152186,0.0129433,1294,1779,8.82181,-49.1457
77,-755,8.76318,49.1049,0.00209091,0.0206745,-0.00440232,0.0216646,0.00110079,-1.34957,0.0140905,0.012362,1301,1779,8.76317,-49.1048
84,-755,8.68982,49.116,0.00253521,0.0182262,-0.00395138,0.0191651,0.00159634,-1.33751,0.0122793,0.0125945,1308,1779,8.68979,-49.116
91,-755,8.64685,49.0582,0.00264237,0.0157919,-0.00368569,0.0167545,0.00167977,-1.31533,0.010654,0.0126105,1315,1779,8.64689,-49.0582
98,-755,8.58618,49.0051,0.00279481,0.0137693,-0.00380073,0.014957,0.00160707,-1.26791,0.00948117,0.0145143,1322,1779,8.58618,-49.0052
105,-755,8.5675,48.9392,0.00338878,0.0113179,-0.00405804,0.0130265,0.00168012,-1.17227,0.00818201,0.0186539,1329,1779,8.56746,-48.9392
112,-755,8.54004,48.8381,0.00371101,0.0093064,-0.00427413,0.0116171,0.00140035,-1.07519,0.00732269,0.0241549,1336,1779,8.54,-48.8381
119,-755,8.45239,48.7633,0.00392344,0.00780773,-0.0043378,0.0106183,0.00111286,-0.995878,0.00673863,0.0241206,1343,1779,8.45238,-48.7634
126,-755,8.40442,48.7961,0.00414929,0.0062602,-0.00416612,0.00950248,0.000907007,-0.909459,0.00605534,0.0284119,1350,1779,8.40436,-48.7961
133,-755,8.2998,48.6487,0.00441068,0.00539001,-0.00407967,0.0090093,0.000791398,-0.845125,0.00576055,0.0282393,1357,1779,8.29984,-48.6487
140,-755,8.23108,48.4921,0.00468322,0.00520831,-0.00425406,0.00920791,0.000683607,-0.816217,0.0059239,0.034213,1364,1779,8.23107,-48.492
147,-755,8.30115,48.3988,0.00495711,0.00524716,-0.00446274,0.00956723,0.000637037,-0.801641,0.00617677,0.0383499,1371,1779,8.30111,-48.3988
154,-755,8.17334,48.3046,0.00454003,0.00584712,-0.0050577,0.0102933,9.38294e-05,-0.849651,0.00683116,0.0394344,1378,1779,8.1734,-48.3046
161,-755,8.15112,48.0708,0,0,0,0,0,0,0,-1,1385,1779,8.15114,-48.0708
168,-755,3.98181,7.35901,0,0,0,0,0,0,0,-1,1392,1779,3.98184,-7.35904
175,-755,8.17065,1.34363,0,0,0,0,0,0,0,-1,1399,1779,8.1706,-1.34368
182,-755,8.09216,2.96924,0,0,0,0,0,0,0,-1,1406,1779,8.09213,-2.9693
189,-755,8.04419,4.68042,0,0,0,0,0,0,0,-1,1413,1779,8.04419,-4.68046
196,-755,7.74841,7.4541,0,0,0,0,0,0,0,-1,1420,1779,7.74842,-7.45405
203,-755,4.80554,6.88696,0,0,0,0,0,0,0,-1,1427,1779,4.80554,-6.88697
210,-755,25.1694,7.35693,0,0,0,0,0,0,0,-1,1434,1779,25.1694,-7.35688
217,-755,5.01648,16.411,0,0,0,0,0,0,0,-1,1441,1779,5.01646,-16.411
224,-755,5.18103,22.6283,0,0,0,0,0,0,0,-1,1448,1779,5.18101,-22.6283
231,-755,5.7489,30.15,0,0,0,0,0,0,0,-1,1455,1779,5.74885,-30.15
238,-755,6.56323,29.2726,0,0,0,0,0,0,0,-1,1462,1779,6.56327,-29.2726
245,-755,8.29639,28.2113,0,0,0,0,0,0,0,-1,1469,1779,8.29639,-28.2113
252,-755,6.8877,28.8699,0,0,0,0,0,0,0,-1,1476,1779,6.88774,-28.8698
259,-755,5.47913,29.5283,0,0,0,0,0,0,0,-1,1483,1779,5.4791,-29.5283
266,-755,17.255,7.86096,0,0,0,0,0,0,0,-1,1490,1779,17.255,-7.86092
273,-755,15.7932,7.59778,0,0,0,0,0,0,0,-1,1497,1779,15.7932,-7.59777
280,-755,14.6255,7.34802,0,0,0,0,0,0,0,-1,1504,1779,14.6254,-7.34806
287,-755,13.8279,7.83105,0,0,0,0,0,0,0,-1,1511,1779,13.8279,-7.83104
294,-755,12.5695,7.96814,0,0,0,0,0,0,0,-1,1518,1779,12.5694,-7.9682
301,-755,11.2659,8.27087,0,0,0,0,0,0,0,-1,1525,1779,11.2658,-8.27087
308,-755,5.17737,37.2896,0,0,0,0,0,0,0,-1,1532,1779,5.17742,-37.2896
315,-755,0.828613,31.032,0,0,0,0,0,0,0,-1,1539,1779,0.828668,-31.032
322,-755,0,0,0,0,0,0,0,0,0,-1,1546,1779,0,0
329,-755,0,0,0,0,0,0,0,0,0,-1,1553,1779,0,0
336,-755,0,0,0,0,0,0,0,0,0,-1,1560,1779,0,0
343,-755,0,0,0,0,0,0,0,0,0,-1,1567,1779,0,0
350,-755,0,0,0,0,0,0,0,0,0,-1,1574,1779,0,0
357,-755,0,0,0,0,0,0,0,0,0,-1,1581,1779,0,0
364,-755,0,0,0,0,0,0,0,0,0,-1,1588,1779,0,0
371,-755,0,0,0,0,0,0,0,0,0,-1,1595,1779,0,0
378,-755,0,0,0,0,0,0,0,0,0,-1,1602,1779,0,0
385,-755,0,0,0,0,0,0,0,0,0,-1,1609,1779,0,0
392,-755,0,0,0,0,0,0,0,0,0,-1,1616,1779,0,0
399,-755,0,0,0,0,0,0,0,0,0,-1,1623,1779,0,0
406,-755,0,0,0,0,0,0,0,0,0,-1,1630,1779,0,0
413,-755,0,0,0,0,0,0,0,0,0,-1,1637,1779,0,0
420,-755,0,0,0,0,0,0,0,0,0,-1,1644,1779,0,0
427,-755,0,0,0,0,0,0,0,0,0,-1,1651,1779,0,0
434,-755,0,0,0,0,0,0,0,0,0,-1,1658,1779,0,0
441,-755,0,0,0,0,0,0,0,0,0,-1,1665,1779,0,0
448,-755,0,0,0,0,0,0,0,0,0,-1,1672,1779,0,0
455,-755,0,0,0,0,0,0,0,0,0,-1,1679,1779,0,0
462,-755,0,0,0,0,0,0,0,0,0,-1,1686,1779,0,0
469,-755,0,0,0,0,0,0,0,0,0,-1,1693,1779,0,0
476,-755,0,0,0,0,0,0,0,0,0,-1,1700,1779,0,0
483,-755,0,0,0,0,0,0,0,0,0,-1,1707,1779,0,0
490,-755,0,0,0,0,0,0,0,0,0,-1,1714,1779,0,0
497,-755,0,0,0,0,0,0,0,0,0,-1,1721,1779,0,0
504,-755,0,0,0,0,0,0,0,0,0,-1,1728,1779,0,0
511,-755,0,0,0,0,0,0,0,0,0,-1,1735,1779,0,0
518,-755,0,0,0,0,0,0,0,0,0,-1,1742,1779,0,0
525,-755,0,0,0,0,0,0,0,0,0,-1,1749,1779,0,0
532,-755,0,0,0,0,0,0,0,0,0,-1,1756,1779,0,0
539,-755,0,0,0,0,0,0,0,0,0,-1,1763,1779,0,0
546,-755,0,0,0,0,0,0,0,0,0,-1,1770,1779,0,0
553,-755,0,0,0,0,0,0,0,0,0,-1,1777,1779,0,0
560,-755,0,0,0,0,0,0,0,0,0,-1,1784,1779,0,0
567,-755,0,0,0,0,0,0,0,0,0,-1,1791,1779,0,0
574,-755,0,0,0,0,0,0,0,0,0,-1,1798,1779,0,0
581,-755,0,0,0,0,0,0,0,0,0,-1,1805,1779,0,0
588,-755,0,0,0,0,0,0,0,0,0,-1,1812,1779,0,0
595,-755,0,0,0,0,0,0,0,0,0,-1,1819,1779,0,0
602,-755,0,0,0,0,0,0,0,0,0,-1,1826,1779,0,0
609,-755,0,0,0,0,0,0,0,0,0,-1,1833,1779,0,0
616,-755,0,0,0,0,0,0,0,0,0,-1,1840,1779,0,0
623,-755,0,0,0,0,0,0,0,0,0,-1,1847,1779,0,0
630,-755,0,0,0,0,0,0,0,0,0,-1,1854,1779,0,0
637,-755,0,0,0,0,0,0,0,0,0,-1,1861,1779,0,0
644,-755,0,0,0,0,0,0,0,0,0,-1,1868,1779,0,0
651,-755,0,0,0,0,0,0,0,0,0,-1,1875,1779,0,0
658,-755,0,0,0,0,0,0,0,0,0,-1,1882,1779,0,0
665,-755,0,0,0,0,0,0,0,0,0,-1,1889,1779,0,0
672,-755,0,0,0,0,0,0,0,0,0,-1,1896,1779,0,0
679,-755,0,0,0,0,0,0,0,0,0,-1,1903,1779,0,0
686,-755,0,0,0,0,0,0,0,0,0,-1,1910,1779,0,0
693,-755,0,0,0,0,0,0,0,0,0,-1,1917,1779,0,0
700,-755,0,0,0,0,0,0,0,0,0,-1,1924,1779,0,0
707,-755,0,0,0,0,0,0,0,0,0,-1,1931,1779,0,0
714,-755,0,0,0,0,0,0,0,0,0,-1,1938,1779,0,0
721,-755,0,0,0,0,0,0,0,0,0,-1,1945,1779,0,0
728,-755,0,0,0,0,0,0,0,0,0,-1,1952,1779,0,0
735,-755,0,0,0,0,0,0,0,0,0,-1,1959,1779,0,0
742,-755,0,0,0,0,0,0,0,0,0,-1,1966,1779,0,0
749,-755,0,0,0,0,0,0,0,0,0,-1,1973,1779,0,0
756,-755,0,0,0,0,0,0,0,0,0,-1,1980,1779,0,0
763,-755,0,0,0,0,0,0,0,0,0,-1,1987,1779,0,0
770,-755,0,0,0,0,0,0,0,0,0,-1,1994,1779,0,0
777,-755,0,0,0,0,0,0,0,0,0,-1,2001,1779,0,0
784,-755,0,0,0,0,0,0,0,0,0,-1,2008,1779,0,0
791,-755,0,0,0,0,0,0,0,0,0,-1,2015,1779,0,0
798,-755,0,0,0,0,0,0,0,0,0,-1,2022,1779,0,0
805,-755,0,0,0,0,0,0,0,0,0,-1,2029,1779,0,0
812,-755,0,0,0,0,0,0,0,0,0,-1,2036,1779,0,0
-700,-762,0,0,0,0,0,0,0,0,0,-1,524,1786,0,0
-693,-762,0,0,0,0,0,0,0,0,0,-1,531,1786,0,0
-686,-762,0,0,0,0,0,0,0,0,0,-1,538,1786,0,0
-679,-762,0,0,0,0,0,0,0,0,0,-1,545,1786,0,0
-672,-762,0,0,0,0,0,0,0,0,0,-1,552,1786,0,0
-665,-762,0,0,0,0,0,0,0,0,0,-1,559,1786,0,0
-658,-762,0,0,0,0,0,0,0,0,0,-1,566,1786,0,0
-651,-762,0,0,0,0,0,0,0,0,0,-1,573,1786,0,0
-644,-762,0,0,0,0,0,0,0,0,0,-1,580,1786,0,0
-637,-762,0,0,0,0,0,0,0,0,0,-1,587,1786,0,0
-630,-762,0,0,0,0,0,0,0,0,0,-1,594,1786,0,0
-623,-762,0,0,0,0,0,0,0,0,0,-1,601,1786,0,0
-616,-762,0,0,0,0,0,0,0,0,0,-1,608,1786,0,0
-609,-762,0,0,0,0,0,0,0,0,0,-1,615,1786,0,0
-602,-762,0,0,0,0,0,0,0,0,0,-1,622,1786,0,0
-595,-762,0,0,0,0,0,0,0,0,0,-1,629,1786,0,0
-588,-762,0,0,0,0,0,0,0,0,0,-1,636,1786,0,0
-581,-762,0,0,0,0,0,0,0,0,0,-1,643,1786,0,0
-574,-762,0,0,0,0,0,0,0,0,0,-1,650,1786,0,0
-567,-762,0,0,0,0,0,0,0,0,0,-1,657,1786,0,0
-560,-762,0,0,0,0,0,0,0,0,0,-1,664,1786,0,0
-553,-762,0,0,0,0,0,0,0,0,0,-1,671,1786,0,0
-546,-762,0,0,0,0,0,0,0,0,0,-1,678,1786,0,0
-539,-762,0,0,0,0,0,0,0,0,0,-1,685,1786,0,0
-532,-762,0,0,0,0,0,0,0,0,0,-1,692,1786,0,0
-525,-762,0,0,0,0,0,0,0,0,0,-1,699,1786,0,0
-518,-762,0,0,0,0,0,0,0,0,0,-1,706,1786,0,0
-511,-762,0,0,0,0,0,0,0,0,0,-1,713,1786,0,0
-504,-762,0,0,0,0,0,0,0,0,0,-1,720,1786,0,0
-497,-762,0,0,0,0,0,0,0,0,0,-1,727,1786,0,0
-490,-762,0,0,0,0,0,0,0,0,0,-1,734,1786,0,0
-483,-762,0,0,0,0,0,0,0,0,0,-1,741,1786,0,0
-476,-762,0,0,0,0,0,0,0,0,0,-1,748,1786,0,0
-469,-762,0,0,0,0,0,0,0,0,0,-1,755,1786,0,0
-462,-762,0,0,0,0,0,0,0,0,0,-1,762,1786,0,0
-455,-762,0,0,0,0,0,0,0,0,0,-1,769,1786,0,0
-448,-762,0,0,0,0,0,0,0,0,0,-1,776,1786,0,0
-441,-762,0,0,0,0,0,0,0,0,0,-1,783,1786,0,0
-434,-762,0,0,0,0,0,0,0,0,0,-1,790,1786,0,0
-427,-762,0,0,0,0,0,0,0,0,0,-1,797,1786,0,0
-420,-762,0,0,0,0,0,0,0,0,0,-1,804,1786,0,0
-413,-762,0,0,0,0,0,0,0,0,0,-1,811,1786,0,0
-406,-762,0,0,0,0,0,0,0,0,0,-1,818,1786,0,0
-399,-762,0,0,0,0,0,0,0,0,0,-1,825,1786,0,0
-392,-762,0,0,0,0,0,0,0,0,0,-1,832,1786,0,0
-385,-762,0,0,0,0,0,0,0,0,0,-1,839,1786,0,0
-378,-762,0,0,0,0,0,0,0,0,0,-1,846,1786,0,0
-371,-762,0,0,0,0,0,0,0,0,0,-1,853,1786,0,0
-364,-762,0,0,0,0,0,0,0,0,0,-1,860,1786,0,0
-357,-762,0,0,0,0,0,0,0,0,0,-1,867,1786,0,0
-350,-762,0,0,0,0,0,0,0,0,0,-1,874,1786,0,0
-343,-762,0,0,0,0,0,0,0,0,0,-1,881,1786,0,0
-336,-762,0,0,0,0,0,0,0,0,0,-1,888,1786,0,0
-329,-762,0,0,0,0,0,0,0,0,0,-1,895,1786,0,0
-322,-762,0,0,0,0,0,0,0,0,0,-1,902,1786,0,0
-315,-762,0,0,0,0,0,0,0,0,0,-1,909,1786,0,0
-308,-762,0,0,0,0,0,0,0,0,0,-1,916,1786,0,0
-301,-762,0,0,0,0,0,0,0,0,0,-1,923,1786,0,0
-294,-762,0,0,0,0,0,0,0,0,0,-1,930,1786,0,0
-287,-762,0,0,0,0,0,0,0,0,0,-1,937,1786,0,0
-280,-762,0,0,0,0,0,0,0,0,0,-1,944,1786,0,0
-273,-762,0,0,0,0,0,0,0,0,0,-1,951,1786,0,0
-266,-762,0,0,0,0,0,0,0,0,0,-1,958,1786,0,0
-259,-762,0,0,0,0,0,0,0,0,0,-1,965,1786,0,0
-252,-762,0,0,0,0,0,0,0,0,0,-1,972,1786,0,0
-245,-762,0,0,0,0,0,0,0,0,0,-1,979,1786,0,0
-238,-762,0,0,0,0,0,0,0,0,0,-1,986,1786,0,0
-231,-762,0,0,0,0,0,0,0,0,0,-1,993,1786,0,0
-224,-762,0,0,0,0,0,0,0,0,0,-1,1000,1786,0,0
-217,-762,0,0,0,0,0,0,0,0,0,-1,1007,1786,0,0
-210,-762,0,0,0,0,0,0,0,0,0,-1,1014,1786,0,0
-203,-762,0,0,0,0,0,0,0,0,0,-1,1021,1786,0,0
-196,-762,0,0,0,0,0,0,0,0,0,-1,1028,1786,0,0
-189,-762,0,0,0,0,0,0,0,0,0,-1,1035,1786,0,0
-182,-762,4.44226,13.2462,0,0,0,0,0,0,0,-1,1042,1786,4.44227,-13.2462
-175,-762,4.3219,18.3975,0,0,0,0,0,0,0,-1,1049,1786,4.32192,-18.3974
-168,-762,-2.08618,13.0768,0,0,0,0,0,0,0,-1,1056,1786,-2.08623,-13.0768
-161,-762,-3.29077,11.9508,0,0,0,0,0,0,0,-1,1063,1786,-3.29076,-11.9508
-154,-762,-4.55823,11.1176,0,0,0,0,0,0,0,-1,1070,1786,-4.55828,-11.1175
-147,-762,-6.52454,9.41418,0,0,0,0,0,0,0,-1,1077,1786,-6.52458,-9.41419
-140,-762,4.99792,5.28589,0,0,0,0,0,0,0,-1,1084,1786,4.99793,-5.28587
-133,-762,0.689819,19.2172,0,0,0,0,0,0,0,-1,1091,1786,0.689867,-19.2171
-126,-762,1.48743,19.9288,0,0,0,0,0,0,0,-1,1098,1786,1.48738,-19.9289
-119,-762,2.65637,20.208,0,0,0,0,0,0,0,-1,1105,1786,2.65632,-20.208
-112,-762,6.84705,25.5554,0,0,0,0,0,0,0,-1,1112,1786,6.84706,-25.5554
-105,-762,5.57947,21.618,0,0,0,0,0,0,0,-1,1119,1786,5.57948,-21.618
-98,-762,5.0636,17.9901,0,0,0,0,0,0,0,-1,1126,1786,5.06361,-17.9901
-91,-762,4.54773,14.3622,0,0,0,0,0,0,0,-1,1133,1786,4.54774,-14.3622
-84,-762,3.96375,10.4547,0,0,0,0,0,0,0,-1,1140,1786,3.96371,-10.4548
-77,-762,0.305054,8.49365,0,0,0,0,0,0,0,-1,1147,1786,0.305008,-8.49362
-70,-762,0.183716,6.74622,0,0,0,0,0,0,0,-1,1154,1786,0.183696,-6.74621
-63,-762,-0.883057,9.08813,0,0,0,0,0,0,0,-1,1161,1786,-0.88311,-9.08808
-56,-762,-0.578979,5.10254,0,0,0,0,0,0,0,-1,1168,1786,-0.578951,-5.10249
-49,-762,-2.04541,3.66321,0,0,0,0,0,0,0,-1,1175,1786,-2.0454,-3.66319
-42,-762,-2.23462,3.474,0,0,0,0,0,0,0,-1,1182,1786,-2.23459,-3.47399
-35,-762,-3.28992,1.68164,0,0,0,0,0,0,0,-1,1189,1786,-3.28998,-1.68164
-28,-762,-3.75378,1.37769,0,0,0,0,0,0,0,-1,1196,1786,-3.75373,-1.37767
-21,-762,9.81067,48.4696,0,0,0,0,0,0,0,-1,1203,1786,9.8107,-48.4697
-14,-762,9.57263,48.4364,-0.0257942,5.16329e-05,0.0222936,0.012897,-0.0386396,1.04807,0.0309673,0.0477614,1210,1786,9.57264,-48.4364
-7,-762,9.32239,48.3705,-0.0233811,0.00090252,0.0178508,0.0103495,-0.0328281,1.08405,0.0260303,0.0493166,1217,1786,9.32244,-48.3704
0,-762,9.25867,48.6,-0.020738,0.00352669,0.013447,0.00950553,-0.0267169,1.15242,0.0216857,0.0390814,1224,1786,9.25867,-48.6
7,-762,9.26599,48.8091,-0.0175819,0.00719318,0.00911833,0.0101873,-0.020576,1.25353,0.0180956,0.0230935,1231,1786,9.26603,-48.8091
14,-762,9.23511,49.1113,-0.0142734,0.0112467,0.00511035,0.012232,-0.0152587,1.38033,0.0159038,0.0376541,1238,1786,9.23513,-49.1114
21,-762,9.01721,48.9913,-0.011004,0.0157743,0.00147808,0.0158557,-0.0110854,1.51582,0.0156355,0.0484582,1245,1786,9.01718,-48.9913
28,-762,8.76819,49.0878,-0.00797249,0.0200677,-0.00151349,0.0201492,-0.00805394,-1.51703,0.0167748,0.0497874,1252,1786,8.76823,-49.0878
35,-762,8.83813,49.2959,-0.00524624,0.0239099,-0.00373375,0.0243804,-0.00571679,-1.44543,0.0184567,0.0497488,1259,1786,8.83814,-49.2959
42,-762,9.31067,49.0745,0,0,0,0,0,0,0,-1,1266,1786,9.31068,-49.0744
49,-762,9.03162,49.059,0,0,0,0,0,0,0,-1,1273,1786,9.03165,-49.0589
56,-762,8.91736,49.1492,0.00145074,0.0301053,-0.00722218,0.0318226,-0.000266636,-1.33734,0.0213045,0.0303503,1280,1786,8.91735,-49.1492
63,-762,8.8916,49.1653,0.00258868,0.0304972,-0.00750887,0.0323892,0.000696663,-1.32396,0.0213644,0.0271915,1287,1786,8.8916,-49.1653
70,-762,8.83228,49.1514,0.00342311,0.029321,-0.00724458,0.0312098,0.0015343,-1.31575,0.0203145,0.0273933,1294,1786,8.83227,-49.1514
77,-762,8.68994,49.0531,0.00420414,0.0272795,-0.00690901,0.02919,0.00229369,-1.30102,0.0187423,0.0342727,1301,1786,8.68997,-49.0531
84,-762,8.71973,49.0573,0.00476789,0.0238652,-0.00617856,0.0256898,0.00294327,-1.28364,0.0162346,0.0414758,1308,1786,8.71976,-49.0573
91,-762,8.72986,49.1606,0.00492623,0.02074,-0.00572775,0.0225966,0.00306962,-1.25734,0.0141526,0.0492083,1315,1786,8.72989,-49.1606
98,-762,8.63501,49.1311,0.00514968,0.0181438,-0.00590499,0.0204263,0.00286718,-1.20195,0.0127696,0.0497548,1322,1786,8.63505,-49.1311
105,-762,8.66211,49.0745,0.00585723,0.0149531,-0.0062691,0.0181501,0.00266013,-1.0992,0.0113181,0.0451009,1329,1786,8.66206,-49.0744
112,-762,8.52661,48.8325,0.0062503,0.012343,-0.0065608,0.0165302,0.0020631,-1.00275,0.0104009,0.0446247,1336,1786,8.52656,-48.8325
119,-762,8.36414,48.6727,0.00656206,0.0104456,-0.00667997,0.0154603,0.00154735,-0.926842,0.00983175,0.0486681,1343,1786,8.36408,-48.6727
126,-762,8.37854,48.6493,0,0,0,0,0,0,0,-1,1350,1786,8.3786,-48.6493
133,-762,8.68079,48.569,0,0,0,0,0,0,0,-1,1357,1786,8.68084,-48.569
140,-762,9.31116,48.5596,0,0,0,0,0,0,0,-1,1364,1786,9.31121,-48.5596
147,-762,7.92554,48.571,0,0,0,0,0,0,0,-1,1371,1786,7.92558,-48.5711
154,-762,7.88904,48.517,0,0,0,0,0,0,0,-1,1378,1786,7.88904,-48.517
161,-762,8.65051,34.8102,0,0,0,0,0,0,0,-1,1385,1786,8.65054,-34.8101
168,-762,8.19287,0.880615,0,0,0,0,0,0,0,-1,1392,1786,8.19291,-0.880603
175,-762,8.33997,1.95947,0,0,0,0,0,0,0,-1,1399,1786,8.33997,-1.95942
182,-762,8.28418,3.56482,0,0,0,0,0,0,0,-1,1406,1786,8.28415,-3.56485
189,-762,8.21179,5.23389,0,0,0,0,0,0,0,-1,1413,1786,8.21183,-5.23383
196,-762,8.05969,6.95483,0,0,0,0,0,0,0,-1,1420,1786,8.05972,-6.9548
203,-762,24.0077,7.10425,0,0,0,0,0,0,0,-1,1427,1786,24.0077,-7.10426
210,-762,23.8073,7.6499,0,0,0,0,0,0,0,-1,1434,1786,23.8073,-7.64987
217,-762,23.3193,8.24426,0,0,0,0,0,0,0,-1,1441,1786,23.3194,-8.2442
224,-762,2.65149,20.6106,0,0,0,0,0,0,0,-1,1448,1786,2.65153,-20.6106
231,-762,5.46655,23.521,0,0,0,0,0,0,0,-1,1455,1786,5.46653,-23.521
238,-762,5.35632,29.7203,0,0,0,0,0,0,0,-1,1462,1786,5.35629,-29.7203
245,-762,6.93054,27.8312,0,0,0,0,0,0,0,-1,1469,1786,6.93058,-27.8312
252,-762,6.20215,28.3027,0,0,0,0,0,0,0,-1,1476,1786,6.20211,-28.3027
259,-762,5.46472,28.8762,0,0,0,0,0,0,0,-1,1483,1786,5.46476,-28.8762
266,-762,16.451,7.67773,0,0,0,0,0,0,0,-1,1490,1786,16.4511,-7.67773
273,-762,15.287,7.5304,0,0,0,0,0,0,0,-1,1497,1786,15.2869,-7.53044
280,-762,14.1501,7.38379,0,0,0,0,0,0,0,-1,1504,1786,14.1502,-7.38376
287,-762,12.6891,7.99133,0,0,0,0,0,0,0,-1,1511,1786,12.6891,-7.99135
294,-762,12.6959,8.30371,0,0,0,0,0,0,0,-1,1518,1786,12.6959,-8.30368
301,-762,11.4222,8.84143,0,0,0,0,0,0,0,-1,1525,1786,11.4223,-8.84149
308,-762,0,0,0,0,0,0,0,0,0,-1,1532,1786,0,0
315,-762,0,0,0,0,0,0,0,0,0,-1,1539,1786,0,0
322,-762,0,0,0,0,0,0,0,0,0,-1,1546,1786,0,0
329,-762,0,0,0,0,0,0,0,0,0,-1,1553,1786,0,0
336,-762,0,0,0,0,0,0,0,0,0,-1,1560,1786,0,0
343,-762,0,0,0,0,0,0,0,0,0,-1,1567,1786,0,0
350,-762,0,0,0,0,0,0,0,0,0,-1,1574,1786,0,0
357,-762,0,0,0,0,0,0,0,0,0,-1,1581,1786,0,0
364,-762,0,0,0,0,0,0,0,0,0,-1,1588,1786,0,0
371,-762,0,0,0,0,0,0,0,0,0,-1,1595,1786,0,0
378,-762,0,0,0,0,0,0,0,0,0,-1,1602,1786,0,0
385,-762,0,0,0,0,0,0,0,0,0,-1,1609,1786,0,0
392,-762,0,0,0,0,0,0,0,0,0,-1,1616,1786,0,0
399,-762,0,0,0,0,0,0,0,0,0,-1,1623,1786,0,0
406,-762,0,0,0,0,0,0,0,0,0,-1,1630,1786,0,0
413,-762,0,0,0,0,0,0,0,0,0,-1,1637,1786,0,0
420,-762,0,0,0,0,0,0,0,0,0,-1,1644,1786,0,0
427,-762,0,0,0,0,0,0,0,0,0,-1,1651,1786,0,0
434,-762,0,0,0,0,0,0,0,0,0,-1,1658,1786,0,0
441,-762,0,0,0,0,0,0,0,0,0,-1,1665,1786,0,0
448,-762,0,0,0,0,0,0,0,0,0,-1,1672,1786,0,0
455,-762,0,0,0,0,0,0,0,0,0,-1,1679,1786,0,0
462,-762,0,0,0,0,0,0,0,0,0,-1,1686,1786,0,0
469,-762,0,0,0,0,0,0,0,0,0,-1,1693,1786,0,0
476,-762,0,0,0,0,0,0,0,0,0,-1,1700,1786,0,0
483,-762,0,0,0,0,0,0,0,0,0,-1,1707,1786,0,0
490,-762,0,0,0,0,0,0,0,0,0,-1,1714,1786,0,0
497,-762,0,0,0,0,0,0,0,0,0,-1,1721,1786,0,0
504,-762,0,0,0,0,0,0,0,0,0,-1,1728,1786,0,0
511,-762,0,0,0,0,0,0,0,0,0,-1,1735,1786,0,0
518,-762,0,0,0,0,0,0,0,0,0,-1,1742,1786,0,0
525,-762,0,0,0,0,0,0,0,0,0,-1,1749,1786,0,0
532,-762,0,0,0,0,0,0,0,0,0,-1,1756,1786,0,0
539,-762,0,0,0,0,0,0,0,0,0,-1,1763,1786,0,0
546,-762,0,0,0,0,0,0,0,0,0,-1,1770,1786,0,0
553,-762,0,0,0,0,0,0,0,0,0,-1,1777,1786,0,0
560,-762,0,0,0,0,0,0,0,0,0,-1,1784,1786,0,0
567,-762,0,0,0,0,0,0,0,0,0,-1,1791,1786,0,0
574,-762,0,0,0,0,0,0,0,0,0,-1,1798,1786,0,0
581,-762,0,0,0,0,0,0,0,0,0,-1,1805,1786,0,0
588,-762,0,0,0,0,0,0,0,0,0,-1,1812,1786,0,0
595,-762,0,0,0,0,0,0,0,0,0,-1,1819,1786,0,0
602,-762,0,0,0,0,0,0,0,0,0,-1,1826,1786,0,0
609,-762,0,0,0,0,0,0,0,0,0,-1,1833,1786,0,0
616,-762,0,0,0,0,0,0,0,0,0,-1,1840,1786,0,0
623,-762,0,0,0,0,0,0,0,0,0,-1,1847,1786,0,0
630,-762,0,0,0,0,0,0,0,0,0,-1,1854,1786,0,0
637,-762,0,0,0,0,0,0,0,0,0,-1,1861,1786,0,0
644,-762,0,0,0,0,0,0,0,0,0,-1,1868,1786,0,0
651,-762,0,0,0,0,0,0,0,0,0,-1,1875,1786,0,0
658,-762,0,0,0,0,0,0,0,0,0,-1,1882,1786,0,0
665,-762,0,0,0,0,0,0,0,0,0,-1,1889,1786,0,0
672,-762,0,0,0,0,0,0,0,0,0,-1,1896,1786,0,0
679,-762,0,0,0,0,0,0,0,0,0,-1,1903,1786,0,0
686,-762,0,0,0,0,0,0,0,0,0,-1,1910,1786,0,0
693,-762,0,0,0,0,0,0,0,0,0,-1,1917,1786,0,0
700,-762,0,0,0,0,0,0,0,0,0,-1,1924,1786,0,0
707,-762,0,0,0,0,0,0,0,0,0,-1,1931,1786,0,0
714,-762,0,0,0,0,0,0,0,0,0,-1,1938,1786,0,0
721,-762,0,0,0,0,0,0,0,0,0,-1,1945,1786,0,0
728,-762,0,0,0,0,0,0,0,0,0,-1,1952,1786,0,0
735,-762,0,0,0,0,0,0,0,0,0,-1,1959,1786,0,0
742,-762,0,0,0,0,0,0,0,0,0,-1,1966,1786,0,0
749,-762,0,0,0,0,0,0,0,0,0,-1,1973,1786,0,0
756,-762,0,0,0,0,0,0,0,0,0,-1,1980,1786,0,0
763,-762,0,0,0,0,0,0,0,0,0,-1,1987,1786,0,0
770,-762,0,0,0,0,0,0,0,0,0,-1,1994,1786,0,0
777,-762,0,0,0,0,0,0,0,0,0,-1,2001,1786,0,0
784,-762,0,0,0,0,0,0,0,0,0,-1,2008,1786,0,0
791,-762,0,0,0,0,0,0,0,0,0,-1,2015,1786,0,0
798,-762,0,0,0,0,0,0,0,0,0,-1,2022,1786,0,0
805,-762,0,0,0,0,0,0,0,0,0,-1,2029,1786,0,0
812,-762,0,0,0,0,0,0,0,0,0,-1,2036,1786,0,0
-700,-769,0,0,0,0,0,0,0,0,0,-1,524,1793,0,0
-693,-769,0,0,0,0,0,0,0,0,0,-1,531,1793,0,0
-686,-769,0,0,0,0,0,0,0,0,0,-1,538,1793,0,0
-679,-769,0,0,0,0,0,0,0,0,0,-1,545,1793,0,0
-672,-769,0,0,0,0,0,0,0,0,0,-1,552,1793,0,0
-665,-769,0,0,0,0,0,0,0,0,0,-1,559,1793,0,0
-658,-769,0,0,0,0,0,0,0,0,0,-1,566,1793,0,0
-651,-769,0,0,0,0,0,0,0,0,0,-1,573,1793,0,0
-644,-769,0,0,0,0,0,0,0,0,0,-1,580,1793,0,0
-637,-769,0,0,0,0,0,0,0,0,0,-1,587,1793,0,0
-630,-769,0,0,0,0,0,0,0,0,0,-1,594,1793,0,0
-623,-769,0,0,0,0,0,0,0,0,0,-1,601,1793,0,0
-616,-769,0,0,0,0,0,0,0,0,0,-1,608,1793,0,0
-609,-769,0,0,0,0,0,0,0,0,0,-1,615,1793,0,0
-602,-769,0,0,0,0,0,0,0,0,0,-1,622,1793,0,0
-595,-769,0,0,0,0,0,0,0,0,0,-1,629,1793,0,0
-588,-769,0,0,0,0,0,0,0,0,0,-1,636,1793,0,0
-581,-769,0,0,0,0,0,0,0,0,0,-1,643,1793,0,0
-574,-769,0,0,0,0,0,0,0,0,0,-1,650,1793,0,0
-567,-769,0,0,0,0,0,0,0,0,0,-1,657,1793,0,0
-560,-769,0,0,0,0,0,0,0,0,0,-1,664,1793,0,0
-553,-769,0,0,0,0,0,0,0,0,0,-1,671,1793,0,0
-546,-769,0,0,0,0,0,0,0,0,0,-1,678,1793,0,0
-539,-769,0,0,0,0,0,0,0,0,0,-1,685,1793,0,0
-532,-769,0,0,0,0,0,0,0,0,0,-1,692,1793,0,0
-525,-769,0,0,0,0,0,0,0,0,0,-1,699,1793,0,0
-518,-769,0,0,0,0,0,0,0,0,0,-1,706,1793,0,0
-511,-769,0,0,0,0,0,0,0,0,0,-1,713,1793,0,0
-504,-769,0,0,0,0,0,0,0,0,0,-1,720,1793,0,0
-497,-769,0,0,0,0,0,0,0,0,0,-1,727,1793,0,0
-490,-769,0,0,0,0,0,0,0,0,0,-1,734,1793,0,0
-483,-769,0,0,0,0,0,0,0,0,0,-1,741,1793,0,0
-476,-769,0,0,0,0,0,0,0,0,0,-1,748,1793,0,0
-469,-769,0,0,0,0,0,0,0,0,0,-1,755,1793,0,0
-462,-769,0,0,0,0,0,0,0,0,0,-1,762,1793,0,0
-455,-769,0,0,0,0,0,0,0,0,0,-1,769,1793,0,0
-448,-769,0,0,0,0,0,0,0,0,0,-1,776,1793,0,0
-441,-769,0,0,0,0,0,0,0,0,0,-1,783,1793,0,0
-434,-769,0,0,0,0,0,0,0,0,0,-1,790,1793,0,0
-427,-769,0,0,0,0,0,0,0,0,0,-1,797,1793,0,0
-420,-769,0,0,0,0,0,0,0,0,0,-1,804,1793,0,0
-413,-769,0,0,0,0,0,0,0,0,0,-1,811,1793,0,0
-406,-769,0,0,0,0,0,0,0,0,0,-1,818,1793,0,0
-399,-769,0,0,0,0,0,0,0,0,0,-1,825,1793,0,0
-392,-769,0,0,0,0,0,0,0,0,0,-1,832,1793,0,0
-385,-769,0,0,0,0,0,0,0,0,0,-1,839,1793,0,0
-378,-769,0,0,0,0,0,0,0,0,0,-1,846,1793,0,0
-371,-769,0,0,0,0,0,0,0,0,0,-1,853,1793,0,0
-364,-769,0,0,0,0,0,0,0,0,0,-1,860,1793,0,0
-357,-769,0,0,0,0,0,0,0,0,0,-1,867,1793,0,0
-350,-769,0,0,0,0,0,0,0,0,0,-1,874,1793,0,0
-343,-769,0,0,0,0,0,0,0,0,0,-1,881,1793,0,0
-336,-769,0,0,0,0,0,0,0,0,0,-1,888,1793,0,0
-329,-769,0,0,0,0,0,0,0,0,0,-1,895,1793,0,0
-322,-769,0,0,0,0,0,0,0,0,0,-1,902,1793,0,0
-315,-769,0,0,0,0,0,0,0,0,0,-1,909,1793,0,0
-308,-769,0,0,0,0,0,0,0,0,0,-1,916,1793,0,0
-301,-769,0,0,0,0,0,0,0,0,0,-1,923,1793,0,0
-294,-769,0,0,0,0,0,0,0,0,0,-1,930,1793,0,0
-287,-769,0,0,0,0,0,0,0,0,0,-1,937,1793,0,0
-280,-769,0,0,0,0,0,0,0,0,0,-1,944,1793,0,0
-273,-769,0,0,0,0,0,0,0,0,0,-1,951,1793,0,0
-266,-769,0,0,0,0,0,0,0,0,0,-1,958,1793,0,0
-259,-769,0,0,0,0,0,0,0,0,0,-1,965,1793,0,0
-252,-769,0,0,0,0,0,0,0,0,0,-1,972,1793,0,0
-245,-769,0,0,0,0,0,0,0,0,0,-1,979,1793,0,0
-238,-769,0,0,0,0,0,0,0,0,0,-1,986,1793,0,0
-231,-769,0,0,0,0,0,0,0,0,0,-1,993,1793,0,0
-224,-769,0,0,0,0,0,0,0,0,0,-1,1000,1793,0,0
-217,-769,0,0,0,0,0,0,0,0,0,-1,1007,1793,0,0
-210,-769,0,0,0,0,0,0,0,0,0,-1,1014,1793,0,0
-203,-769,0,0,0,0,0,0,0,0,0,-1,1021,1793,0,0
-196,-769,0,0,0,0,0,0,0,0,0,-1,1028,1793,0,0
-189,-769,0,0,0,0,0,0,0,0,0,-1,1035,1793,0,0
-182,-769,0,0,0,0,0,0,0,0,0,-1,1042,1793,0,0
-175,-769,0,0,0,0,0,0,0,0,0,-1,1049,1793,0,0
-168,-769,0,0,0,0,0,0,0,0,0,-1,1056,1793,0,0
-161,-769,-3.61145,12.4761,0,0,0,0,0,0,0,-1,1063,1793,-3.6114,-12.476
-154,-769,-0.813232,5.32874,0,0,0,0,0,0,0,-1,1070,1793,-0.813269,-5.32872
-147,-769,4.26587,4.7002,0,0,0,0,0,0,0,-1,1077,1793,4.26593,-4.70022
-140,-769,4.10376,5.28589,0,0,0,0,0,0,0,-1,1084,1793,4.10371,-5.28584
-133,-769,6.422,8.21777,0,0,0,0,0,0,0,-1,1091,1793,6.42198,-8.21773
-126,-769,-0.352295,19.326,0,0,0,0,0,0,0,-1,1098,1793,-0.352235,-19.326
-119,-769,6.01685,16.2577,0,0,0,0,0,0,0,-1,1105,1793,6.01689,-16.2576
-112,-769,5.76416,27.2615,0,0,0,0,0,0,0,-1,1112,1793,5.7642,-27.2615
-105,-769,4.97009,22.8479,0,0,0,0,0,0,0,-1,1119,1793,4.97006,-22.8479
-98,-769,4.69373,18.9142,0,0,0,0,0,0,0,-1,1126,1793,4.69376,-18.9142
-91,-769,4.41748,14.9805,0,0,0,0,0,0,0,-1,1133,1793,4.41746,-14.9805
-84,-769,3.2207,12.4565,0,0,0,0,0,0,0,-1,1140,1793,3.22066,-12.4565
-77,-769,2.48816,8.98486,0,0,0,0,0,0,0,-1,1147,1793,2.48815,-8.98489
-70,-769,1.04944,11.9852,0,0,0,0,0,0,0,-1,1154,1793,1.04947,-11.9852
-63,-769,-2.39709,9.60339,0,0,0,0,0,0,0,-1,1161,1793,-2.39706,-9.6034
-56,-769,-5.84363,7.22156,0,0,0,0,0,0,0,-1,1168,1793,-5.84359,-7.22157
-49,-769,-2.41443,3.95471,0,0,0,0,0,0,0,-1,1175,1793,-2.41446,-3.95471
-42,-769,-3.1991,2.64941,0,0,0,0,0,0,0,-1,1182,1793,-3.19914,-2.64944
-35,-769,-3.50183,1.73389,0,0,0,0,0,0,0,-1,1189,1793,-3.50189,-1.7339
-28,-769,-3.96985,1.14075,0,0,0,0,0,0,0,-1,1196,1793,-3.96985,-1.14078
-21,-769,9.71558,46.531,0,0,0,0,0,0,0,-1,1203,1793,9.71561,-46.5311
-14,-769,9.66467,48.4315,0,0,0,0,0,0,0,-1,1210,1793,9.66466,-48.4315
-7,-769,9.35669,48.2502,0,0,0,0,0,0,0,-1,1217,1793,9.35666,-48.2502
0,-769,9.27539,48.5988,0,0,0,0,0,0,0,-1,1224,1793,9.27543,-48.5987
7,-769,9.41284,48.9703,-0.0214594,0.00988402,0.0113652,0.0135713,-0.0251466,1.25708,0.0226843,0.0438387,1231,1793,9.41279,-48.9703
14,-769,9.11401,49.0995,-0.016933,0.0154869,0.00551117,0.0163981,-0.0178442,1.40693,0.0197757,0.0436757,1238,1793,9.11396,-49.0995
21,-769,8.71777,48.9091,-0.0124986,0.0214473,0.000387638,0.0214518,-0.012503,1.55938,0.0198294,0.0445622,1245,1793,8.7178,-48.909
28,-769,8.4845,49.0419,0,0,0,0,0,0,0,-1,1252,1793,8.48454,-49.0418
35,-769,10.2139,48.3544,-0.00478555,0.0317369,-0.00675274,0.0329455,-0.00599409,-1.3937,0.0242103,0.0474713,1259,1793,10.2139,-48.3544
42,-769,9.55164,48.5548,-0.00142366,0.0358892,-0.00932764,0.0380911,-0.0036255,-1.33899,0.0266848,0.0470786,1266,1793,9.55169,-48.5548
49,-769,9.20166,48.514,0.00161624,0.0381578,-0.0105096,0.0409648,-0.00119074,-1.3098,0.0277153,0.0459921,1273,1793,9.20164,-48.514
56,-769,8.82678,48.8267,0.00398692,0.0391939,-0.0111244,0.0424143,0.000766529,-1.28901,0.0280242,0.0457276,1280,1793,8.82674,-48.8266
63,-769,8.80078,48.8936,0.0054481,0.0394207,-0.0113549,0.0428665,0.00200235,-1.27617,0.0279341,0.0440155,1287,1793,8.80075,-48.8936
70,-769,8.63245,48.7959,0.00643305,0.0375395,-0.01085,0.0409501,0.00302251,-1.26624,0.0263504,0.0414589,1294,1793,8.63244,-48.7959
77,-769,8.55359,48.688,0.0073572,0.0346733,-0.010277,0.0381079,0.00392261,-1.24826,0.0242039,0.0426644,1301,1793,8.55353,-48.688
84,-769,8.5481,48.6566,0.00803134,0.0300641,-0.00919857,0.0333996,0.00469592,-1.22294,0.0208779,0.045408,1308,1793,8.54807,-48.6566
91,-769,8.53687,48.6658,0.00826222,0.0262013,-0.00851707,0.0296008,0.00486271,-1.19103,0.0183292,0.0468857,1315,1793,8.53683,-48.6658
98,-769,8.60693,49.1798,0.00855909,0.0229666,-0.00878136,0.0271209,0.00440475,-1.12891,0.0168059,0.0452134,1322,1793,8.60698,-49.1798
105,-769,8.71826,49.2368,0.00927154,0.0189502,-0.00928142,0.0245781,0.00364359,-1.02571,0.015316,0.0428042,1329,1793,8.7183,-49.2369
112,-769,8.59644,48.7054,0,0,0,0,0,0,0,-1,1336,1793,8.59649,-48.7055
119,-769,8.44324,48.4081,0.00995922,0.0133935,-0.00990191,0.021726,0.00162665,-0.871251,0.0139734,0.0472627,1343,1793,8.44322,-48.4081
126,-769,8.52173,48.3866,0,0,0,0,0,0,0,-1,1350,1793,8.52177,-48.3866
133,-769,8.8324,48.1864,0.0111574,0.0104383,-0.00991701,0.0207214,0.000874349,-0.767278,0.0135322,0.049298,1357,1793,8.83245,-48.1865
140,-769,9.27271,48.0258,0.0121935,0.0110133,-0.0104042,0.0220244,0.00118248,-0.757068,0.014305,0.0472077,1364,1793,9.27268,-48.0257
147,-769,9.61499,47.6793,0,0,0,0,0,0,0,-1,1371,1793,9.61498,-47.6794
154,-769,7.76904,34.4832,0,0,0,0,0,0,0,-1,1378,1793,7.7691,-34.4832
161,-769,6.57019,1.53223,0,0,0,0,0,0,0,-1,1385,1793,6.57019,-1.53226
168,-769,8.27637,0.756958,0,0,0,0,0,0,0,-1,1392,1793,8.27639,-0.756944
175,-769,8.47144,2.41174,0,0,0,0,0,0,0,-1,1399,1793,8.47147,-2.4118
182,-769,8.41479,4.05994,0,0,0,0,0,0,0,-1,1406,1793,8.41479,-4.05997
189,-769,8.25049,5.68433,0,0,0,0,0,0,0,-1,1413,1793,8.25054,-5.68428
196,-769,7.97729,7.42847,0,0,0,0,0,0,0,-1,1420,1793,7.9773,-7.42848
203,-769,22.0977,6.73889,0,0,0,0,0,0,0,-1,1427,1793,22.0977,-6.7389
210,-769,22.1115,7.77246,0,0,0,0,0,0,0,-1,1434,1793,22.1115,-7.77248
217,-769,22.4723,8.79102,0,0,0,0,0,0,0,-1,1441,1793,22.4723,-8.79099
224,-769,22.1348,9.35278,0,0,0,0,0,0,0,-1,1448,1793,22.1348,-9.35283
231,-769,3.13318,19.7184,0,0,0,0,0,0,0,-1,1455,1793,3.13323,-19.7184
238,-769,5.74512,18.6597,0,0,0,0,0,0,0,-1,1462,1793,5.74512,-18.6596
245,-769,5.80798,22.87,0,0,0,0,0,0,0,-1,1469,1793,5.80796,-22.87
252,-769,6.20837,28.394,0,0,0,0,0,0,0,-1,1476,1793,6.20833,-28.3941
259,-769,10.974,17.7698,0,0,0,0,0,0,0,-1,1483,1793,10.974,-17.7698
266,-769,15.8488,7.3905,0,0,0,0,0,0,0,-1,1490,1793,15.8488,-7.39046
273,-769,14.8075,7.56152,0,0,0,0,0,0,0,-1,1497,1793,14.8075,-7.56152
280,-769,13.6519,7.43054,0,0,0,0,0,0,0,-1,1504,1793,13.6518,-7.43058
287,-769,0,0,0,0,0,0,0,0,0,-1,1511,1793,0,0
294,-769,0,0,0,0,0,0,0,0,0,-1,1518,1793,0,0
301,-769,0,0,0,0,0,0,0,0,0,-1,1525,1793,0,0
308,-769,0,0,0,0,0,0,0,0,0,-1,1532,1793,0,0
315,-769,0,0,0,0,0,0,0,0,0,-1,1539,1793,0,0
322,-769,0,0,0,0,0,0,0,0,0,-1,1546,1793,0,0
329,-769,0,0,0,0,0,0,0,0,0,-1,1553,1793,0,0
336,-769,0,0,0,0,0,0,0,0,0,-1,1560,1793,0,0
343,-769,0,0,0,0,0,0,0,0,0,-1,1567,1793,0,0
350,-769,0,0,0,0,0,0,0,0,0,-1,1574,1793,0,0
357,-769,0,0,0,0,0,0,0,0,0,-1,1581,1793,0,0
364,-769,0,0,0,0,0,0,0,0,0,-1,1588,1793,0,0
371,-769,0,0,0,0,0,0,0,0,0,-1,1595,1793,0,0
378,-769,0,0,0,0,0,0,0,0,0,-1,1602,1793,0,0
385,-769,0,0,0,0,0,0,0,0,0,-1,1609,1793,0,0
392,-769,0,0,0,0,0,0,0,0,0,-1,1616,1793,0,0
399,-769,0,0,0,0,0,0,0,0,0,-1,1623,1793,0,0
406,-769,0,0,0,0,0,0,0,0,0,-1,1630,1793,0,0
413,-769,0,0,0,0,0,0,0,0,0,-1,1637,1793,0,0
420,-769,0,0,0,0,0,0,0,0,0,-1,1644,1793,0,0
427,-769,0,0,0,0,0,0,0,0,0,-1,1651,1793,0,0
434,-769,0,0,0,0,0,0,0,0,0,-1,1658,1793,0,0
441,-769,0,0,0,0,0,0,0,0,0,-1,1665,1793,0,0
448,-769,0,0,0,0,0,0,0,0,0,-1,1672,1793,0,0
455,-769,0,0,0,0,0,0,0,0,0,-1,1679,1793,0,0
462,-769,0,0,0,0,0,0,0,0,0,-1,1686,1793,0,0
469,-769,0,0,0,0,0,0,0,0,0,-1,1693,1793,0,0
476,-769,0,0,0,0,0,0,0,0,0,-1,1700,1793,0,0
483,-769,0,0,0,0,0,0,0,0,0,-1,1707,1793,0,0
490,-769,0,0,0,0,0,0,0,0,0,-1,1714,1793,0,0
497,-769,0,0,0,0,0,0,0,0,0,-1,1721,1793,0,0
504,-769,0,0,0,0,0,0,0,0,0,-1,1728,1793,0,0
511,-769,0,0,0,0,0,0,0,0,0,-1,1735,1793,0,0
518,-769,0,0,0,0,0,0,0,0,0,-1,1742,1793,0,0
525,-769,0,0,0,0,0,0,0,0,0,-1,1749,1793,0,0
532,-769,0,0,0,0,0,0,0,0,0,-1,1756,1793,0,0
539,-769,0,0,0,0,0,0,0,0,0,-1,1763,1793,0,0
546,-769,0,0,0,0,0,0,0,0,0,-1,1770,1793,0,0
553,-769,0,0,0,0,0,0,0,0,0,-1,1777,1793,0,0
560,-769,0,0,0,0,0,0,0,0,0,-1,1784,1793,0,0
567,-769,0,0,0,0,0,0,0,0,0,-1,1791,1793,0,0
574,-769,0,0,0,0,0,0,0,0,0,-1,1798,1793,0,0
581,-769,0,0,0,0,0,0,0,0,0,-1,1805,1793,0,0
588,-769,0,0,0,0,0,0,0,0,0,-1,1812,1793,0,0
595,-769,0,0,0,0,0,0,0,0,0,-1,1819,1793,0,0
602,-769,0,0,0,0,0,0,0,0,0,-1,1826,1793,0,0
609,-769,0,0,0,0,0,0,0,0,0,-1,1833,1793,0,0
616,-769,0,0,0,0,0,0,0,0,0,-1,1840,1793,0,0
623,-769,0,0,0,0,0,0,0,0,0,-1,1847,1793,0,0
630,-769,0,0,0,0,0,0,0,0,0,-1,1854,1793,0,0
637,-769,0,0,0,0,0,0,0,0,0,-1,1861,1793,0,0
644,-769,0,0,0,0,0,0,0,0,0,-1,1868,1793,0,0
651,-769,0,0,0,0,0,0,0,0,0,-1,1875,1793,0,0
658,-769,0,0,0,0,0,0,0,0,0,-1,1882,1793,0,0
665,-769,0,0,0,0,0,0,0,0,0,-1,1889,1793,0,0
672,-769,0,0,0,0,0,0,0,0,0,-1,1896,1793,0,0
679,-769,0,0,0,0,0,0,0,0,0,-1,1903,1793,0,0
686,-769,0,0,0,0,0,0,0,0,0,-1,1910,1793,0,0
693,-769,0,0,0,0,0,0,0,0,0,-1,1917,1793,0,0
700,-769,0,0,0,0,0,0,0,0,0,-1,1924,1793,0,0
707,-769,0,0,0,0,0,0,0,0,0,-1,1931,1793,0,0
714,-769,0,0,0,0,0,0,0,0,0,-1,1938,1793,0,0
721,-769,0,0,0,0,0,0,0,0,0,-1,1945,1793,0,0
728,-769,0,0,0,0,0,0,0,0,0,-1,1952,1793,0,0
735,-769,0,0,0,0,0,0,0,0,0,-1,1959,1793,0,0
742,-769,0,0,0,0,0,0,0,0,0,-1,1966,1793,0,0
749,-769,0,0,0,0,0,0,0,0,0,-1,1973,1793,0,0
756,-769,0,0,0,0,0,0,0,0,0,-1,1980,1793,0,0
763,-769,0,0,0,0,0,0,0,0,0,-1,1987,1793,0,0
770,-769,0,0,0,0,0,0,0,0,0,-1,1994,1793,0,0
777,-769,0,0,0,0,0,0,0,0,0,-1,2001,1793,0,0
784,-769,0,0,0,0,0,0,0,0,0,-1,2008,1793,0,0
791,-769,0,0,0,0,0,0,0,0,0,-1,2015,1793,0,0
798,-769,0,0,0,0,0,0,0,0,0,-1,2022,1793,0,0
805,-769,0,0,0,0,0,0,0,0,0,-1,2029,1793,0,0
812,-769,0,0,0,0,0,0,0,0,0,-1,2036,1793,0,0
-700,-776,0,0,0,0,0,0,0,0,0,-1,524,1800,0,0
-693,-776,0,0,0,0,0,0,0,0,0,-1,531,1800,0,0
-686,-776,0,0,0,0,0,0,0,0,0,-1,538,1800,0,0
-679,-776,0,0,0,0,0,0,0,0,0,-1,545,1800,0,0
-672,-776,0,0,0,0,0,0,0,0,0,-1,552,1800,0,0
-665,-776,0,0,0,0,0,0,0,0,0,-1,559,1800,0,0
-658,-776,0,0,0,0,0,0,0,0,0,-1,566,1800,0,0
-651,-776,0,0,0,0,0,0,0,0,0,-1,573,1800,0,0
-644,-776,0,0,0,0,0,0,0,0,0,-1,580,1800,0,0
-637,-776,0,0,0,0,0,0,0,0,0,-1,587,1800,0,0
-630,-776,0,0,0,0,0,0,0,0,0,-1,594,1800,0,0
-623,-776,0,0,0,0,0,0,0,0,0,-1,601,1800,0,0
-616,-776,0,0,0,0,0,0,0,0,0,-1,608,1800,0,0
-609,-776,0,0,0,0,0,0,0,0,0,-1,615,1800,0,0
-602,-776,0,0,0,0,0,0,0,0,0,-1,622,1800,0,0
-595,-776,0,0,0,0,0,0,0,0,0,-1,629,1800,0,0
-588,-776,0,0,0,0,0,0,0,0,0,-1,636,1800,0,0
-581,-776,0,0,0,0,0,0,0,0,0,-1,643,1800,0,0
-574,-776,0,0,0,0,0,0,0,0,0,-1,650,1800,0,0
-567,-776,0,0,0,0,0,0,0,0,0,-1,657,1800,0,0
-560,-776,0,0,0,0,0,0,0,0,0,-1,664,1800,0,0
-553,-776,0,0,0,0,0,0,0,0,0,-1,671,1800,0,0
-546,-776,0,0,0,0,0,0,0,0,0,-1,678,1800,0,0
-539,-776,0,0,0,0,0,0,0,0,0,-1,685,1800,0,0
-532,-776,0,0,0,0,0,0,0,0,0,-1,692,1800,0,0
-525,-776,0,0,0,0,0,0,0,0,0,-1,699,1800,0,0
-518,-776,0,0,0,0,0,0,0,0,0,-1,706,1800,0,0
-511,-776,0,0,0,0,0,0,0,0,0,-1,713,1800,0,0
-504,-776,0,0,0,0,0,0,0,0,0,-1,720,1800,0,0
-497,-776,0,0,0,0,0,0,0,0,0,-1,727,1800,0,0
-490,-776,0,0,0,0,0,0,0,0,0,-1,734,1800,0,0
-483,-776,0,0,0,0,0,0,0,0,0,-1,741,1800,0,0
-476,-776,0,0,0,0,0,0,0,0,0,-1,748,1800,0,0
-469,-776,0,0,0,0,0,0,0,0,0,-1,755,1800,0,0
-462,-776,0,0,0,0,0,0,0,0,0,-1,762,1800,0,0
-455,-776,0,0,0,0,0,0,0,0,0,-1,769,1800,0,0
-448,-776,0,0,0,0,0,0,0,0,0,-1,776,1800,0,0
-441,-776,0,0,0,0,0,0,0,0,0,-1,783,1800,0,0
-434,-776,0,0,0,0,0,0,0,0,0,-1,790,1800,0,0
-427,-776,0,0,0,0,0,0,0,0,0,-1,797,1800,0,0
-420,-776,0,0,0,0,0,0,0,0,0,-1,804,1800,0,0
-413,-776,0,0,0,0,0,0,0,0,0,-1,811,1800,0,0
-406,-776,0,0,0,0,0,0,0,0,0,-1,818,1800,0,0
-399,-776,0,0,0,0,0,0,0,0,0,-1,825,1800,0,0
-392,-776,0,0,0,0,0,0,0,0,0,-1,832,1800,0,0
-385,-776,0,0,0,0,0,0,0,0,0,-1,839,1800,0,0
-378,-776,0,0,0,0,0,0,0,0,0,-1,846,1800,0,0
-371,-776,0,0,0,0,0,0,0,0,0,-1,853,1800,0,0
-364,-776,0,0,0,0,0,0,0,0,0,-1,860,1800,0,0
-357,-776,0,0,0,0,0,0,0,0,0,-1,867,1800,0,0
-350,-776,0,0,0,0,0,0,0,0,0,-1,874,1800,0,0
-343,-776,0,0,0,0,0,0,0,0,0,-1,881,1800,0,0
-336,-776,0,0,0,0,0,0,0,0,0,-1,888,1800,0,0
-329,-776,0,0,0,0,0,0,0,0,0,-1,895,1800,0,0
-322,-776,0,0,0,0,0,0,0,0,0,-1,902,1800,0,0
-315,-776,0,0,0,0,0,0,0,0,0,-1,909,1800,0,0
-308,-776,0,0,0,0,0,0,0,0,0,-1,916,1800,0,0
-301,-776,0,0,0,0,0,0,0,0,0,-1,923,1800,0,0
-294,-776,0,0,0,0,0,0,0,0,0,-1,930,1800,0,0
-287,-776,0,0,0,0,0,0,0,0,0,-1,937,1800,0,0
-280,-776,0,0,0,0,0,0,0,0,0,-1,944,1800,0,0
-273,-776,0,0,0,0,0,0,0,0,0,-1,951,1800,0,0
-266,-776,0,0,0,0,0,0,0,0,0,-1,958,1800,0,0
-259,-776,0,0,0,0,0,0,0,0,0,-1,965,1800,0,0
-252,-776,0,0,0,0,0,0,0,0,0,-1,972,1800,0,0
-245,-776,0,0,0,0,0,0,0,0,0,-1,979,1800,0,0
-238,-776,0,0,0,0,0,0,0,0,0,-1,986,1800,0,0
-231,-776,0,0,0,0,0,0,0,0,0,-1,993,1800,0,0
-224,-776,0,0,0,0,0,0,0,0,0,-1,1000,1800,0,0
-217,-776,0,0,0,0,0,0,0,0,0,-1,1007,1800,0,0
-210,-776,0,0,0,0,0,0,0,0,0,-1,1014,1800,0,0
-203,-776,0,0,0,0,0,0,0,0,0,-1,1021,1800,0,0
-196,-776,0,0,0,0,0,0,0,0,0,-1,1028,1800,0,0
-189,-776,0,0,0,0,0,0,0,0,0,-1,1035,1800,0,0
-182,-776,0,0,0,0,0,0,0,0,0,-1,1042,1800,0,0
-175,-776,0,0,0,0,0,0,0,0,0,-1,1049,1800,0,0
-168,-776,0,0,0,0,0,0,0,0,0,-1,1056,1800,0,0
-161,-776,0,0,0,0,0,0,0,0,0,-1,1063,1800,0,0
-154,-776,0,0,0,0,0,0,0,0,0,-1,1070,1800,0,0
-147,-776,0,0,0,0,0,0,0,0,0,-1,1077,1800,0,0
-140,-776,2.98499,5.20911,0,0,0,0,0,0,0,-1,1084,1800,2.98493,-5.2091
-133,-776,6.72363,9.35828,0,0,0,0,0,0,0,-1,1091,1800,6.72358,-9.35824
-126,-776,6.55029,13.7832,0,0,0,0,0,0,0,-1,1098,1800,6.55029,-13.7832
-119,-776,5.72107,13.7787,0,0,0,0,0,0,0,-1,1105,1800,5.72106,-13.7787
-112,-776,6.84998,20.4421,0,0,0,0,0,0,0,-1,1112,1800,6.84993,-20.4421
-105,-776,4.46863,24.6742,0,0,0,0,0,0,0,-1,1119,1800,4.46868,-24.6742
-98,-776,4.31616,19.7659,0,0,0,0,0,0,0,-1,1126,1800,4.31619,-19.7659
-91,-776,3.30225,18.134,0,0,0,0,0,0,0,-1,1133,1800,3.30222,-18.134
-84,-776,2.67932,14.3162,0,0,0,0,0,0,0,-1,1140,1800,2.67926,-14.3161
-77,-776,0.580078,11.1272,0,0,0,0,0,0,0,-1,1147,1800,0.58002,-11.1272
-70,-776,-0.562866,12.3163,0,0,0,0,0,0,0,-1,1154,1800,-0.562897,-12.3163
-63,-776,-3.96106,9.97656,0,0,0,0,0,0,0,-1,1161,1800,-3.961,-9.97654
-56,-776,-7.35913,7.63672,0,0,0,0,0,0,0,-1,1168,1800,-7.3591,-7.63676
-49,-776,-7.62952,3.1908,0,0,0,0,0,0,0,-1,1175,1800,-7.62955,-3.19076
-42,-776,-3.41272,3.0249,0,0,0,0,0,0,0,-1,1182,1800,-3.41269,-3.02488
-35,-776,-3.71753,1.63635,0,0,0,0,0,0,0,-1,1189,1800,-3.71755,-1.63631
-28,-776,-4.03979,0.716064,0,0,0,0,0,0,0,-1,1196,1800,-4.03977,-0.716055
-21,-776,11.4921,48.1086,0,0,0,0,0,0,0,-1,1203,1800,11.4921,-48.1087
-14,-776,10.994,48.2595,-0.0402167,-0.002345,0.0426582,0.0253913,-0.067953,0.994282,0.0557285,0.0495416,1210,1800,10.994,-48.2595
-7,-776,10.429,48.3805,-0.0364835,0.000583251,0.0327831,0.0197091,-0.0556093,1.04267,0.0451016,0.0486985,1217,1800,10.4289,-48.3805
0,-776,9.61499,48.6354,-0.0312429,0.00615137,0.0228708,0.016995,-0.0420865,1.12806,0.0351212,0.0470742,1224,1800,9.61498,-48.6353
7,-776,9.26587,49.1896,-0.0253547,0.0133879,0.0135142,0.017636,-0.0296029,1.26623,0.0275636,0.0445355,1231,1800,9.26582,-49.1896
14,-776,9.07764,49.2902,-0.019388,0.0208926,0.00529268,0.0215765,-0.0200718,1.44231,0.0240509,0.0425474,1238,1800,9.07762,-49.2902
21,-776,8.56006,49.119,-0.0135925,0.02848,-0.00167158,0.0285463,-0.0136588,-1.53115,0.0248673,0.042436,1245,1800,8.56012,-49.1191
28,-776,8.05554,48.9277,-0.00830819,0.0352643,-0.00716942,0.0364136,-0.00945754,-1.41184,0.0279665,0.0428756,1252,1800,8.05557,-48.9277
35,-776,7.67017,48.7159,-0.00360512,0.040994,-0.0110866,0.0435979,-0.00620903,-1.34011,0.0313406,0.0466202,1259,1800,7.67013,-48.7159
42,-776,10.129,47.9991,0.00072252,0.0458877,-0.0143952,0.0500856,-0.00347538,-1.28705,0.0346071,0.0415631,1266,1800,10.129,-47.9991
49,-776,9.5636,48.0359,0.00459381,0.0485041,-0.0157855,0.0535898,-0.00049193,-1.25912,0.0358917,0.0449453,1273,1800,9.56358,-48.0359
56,-776,8.69409,48.5354,0.00760243,0.0495609,-0.0163309,0.0551679,0.00199543,-1.24007,0.0361318,0.045584,1280,1800,8.69406,-48.5354
63,-776,8.60742,48.6038,0.00943351,0.0494565,-0.0164143,0.0553272,0.00356277,-1.22731,0.0357565,0.0455234,1287,1800,8.6074,-48.6037
70,-776,8.58887,48.3331,0.0105435,0.0466106,-0.0155502,0.0523892,0.00476487,-1.215,0.0334512,0.0469001,1294,1800,8.58883,-48.3331
77,-776,8.4425,48.2423,0,0,0,0,0,0,0,-1,1301,1800,8.44249,-48.2423
84,-776,8.42346,48.2174,0,0,0,0,0,0,0,-1,1308,1800,8.42346,-48.2174
91,-776,8.39722,49.2441,0,0,0,0,0,0,0,-1,1315,1800,8.3972,-49.2441
98,-776,8.40698,49.3688,0.0129865,0.0281076,-0.0125799,0.035224,0.00587,-1.05598,0.0217912,0.0452716,1322,1800,8.40694,-49.3688
105,-776,8.43286,49.4862,0.013504,0.0231784,-0.0132296,0.0324274,0.00425502,-0.960664,0.0203487,0.0415876,1329,1800,8.43283,-49.4862
112,-776,8.47131,48.6132,0,0,0,0,0,0,0,-1,1336,1800,8.47135,-48.6132
119,-776,8.52734,48.4314,0,0,0,0,0,0,0,-1,1343,1800,8.52731,-48.4314
126,-776,8.59741,48.328,0,0,0,0,0,0,0,-1,1350,1800,8.59744,-48.328
133,-776,8.97217,47.8336,0.0151434,0.0137484,-0.0147176,0.02918,-0.0002882,-0.76172,0.0195501,0.049248,1357,1800,8.97216,-47.8336
140,-776,9.32898,47.6796,0.0166151,0.0151103,-0.0155462,0.0314271,0.000298312,-0.761218,0.0208526,0.0498614,1364,1800,9.32903,-47.6796
147,-776,9.67432,47.4432,0,0,0,0,0,0,0,-1,1371,1800,9.67428,-47.4432
154,-776,38.4338,21.854,0,0,0,0,0,0,0,-1,1378,1800,38.4339,-21.854
161,-776,6.50293,1.1731,0,0,0,0,0,0,0,-1,1385,1800,6.5029,-1.17313
168,-776,8.44971,1.22913,0,0,0,0,0,0,0,-1,1392,1800,8.44974,-1.22915
175,-776,8.61523,2.87061,0,0,0,0,0,0,0,-1,1399,1800,8.6152,-2.87063
182,-776,8.54065,4.60645,0,0,0,0,0,0,0,-1,1406,1800,8.5407,-4.60643
189,-776,8.35303,6.28223,0,0,0,0,0,0,0,-1,1413,1800,8.35297,-6.28225
196,-776,8.0387,8.21704,0,0,0,0,0,0,0,-1,1420,1800,8.03865,-8.217
203,-776,7.91736,9.79919,0,0,0,0,0,0,0,-1,1427,1800,7.91735,-9.79922
210,-776,20.2479,7.85718,0,0,0,0,0,0,0,-1,1434,1800,20.248,-7.85719
217,-776,21.5171,9.3418,0,0,0,0,0,0,0,-1,1441,1800,21.5171,-9.34182
224,-776,3.09253,14.9313,0,0,0,0,0,0,0,-1,1448,1800,3.09254,-14.9313
231,-776,20.8671,9.21057,0,0,0,0,0,0,0,-1,1455,1800,20.867,-9.21054
238,-776,20.7511,9.05847,0,0,0,0,0,0,0,-1,1462,1800,20.7511,-9.05848
245,-776,3.80823,15.4108,0,0,0,0,0,0,0,-1,1469,1800,3.80826,-15.4108
252,-776,8.57837,20.2009,0,0,0,0,0,0,0,-1,1476,1800,8.57841,-20.2009
259,-776,14.1882,7.69055,0,0,0,0,0,0,0,-1,1483,1800,14.1882,-7.69061
266,-776,0,0,0,0,0,0,0,0,0,-1,1490,1800,0,0
273,-776,0,0,0,0,0,0,0,0,0,-1,1497,1800,0,0
280,-776,0,0,0,0,0,0,0,0,0,-1,1504,1800,0,0
287,-776,0,0,0,0,0,0,0,0,0,-1,1511,1800,0,0
294,-776,0,0,0,0,0,0,0,0,0,-1,1518,1800,0,0
301,-776,0,0,0,0,0,0,0,0,0,-1,1525,1800,0,0
308,-776,0,0,0,0,0,0,0,0,0,-1,1532,1800,0,0
315,-776,0,0,0,0,0,0,0,0,0,-1,1539,1800,0,0
322,-776,0,0,0,0,0,0,0,0,0,-1,1546,1800,0,0
329,-776,0,0,0,0,0,0,0,0,0,-1,1553,1800,0,0
336,-776,0,0,0,0,0,0,0,0,0,-1,1560,1800,0,0
343,-776,0,0,0,0,0,0,0,0,0,-1,1567,1800,0,0
350,-776,0,0,0,0,0,0,0,0,0,-1,1574,1800,0,0
357,-776,0,0,0,0,0,0,0,0,0,-1,1581,1800,0,0
364,-776,0,0,0,0,0,0,0,0,0,-1,1588,1800,0,0
371,-776,0,0,0,0,0,0,0,0,0,-1,1595,1800,0,0
378,-776,0,0,0,0,0,0,0,0,0,-1,1602,1800,0,0
385,-776,0,0,0,0,0,0,0,0,0,-1,1609,1800,0,0
392,-776,0,0,0,0,0,0,0,0,0,-1,1616,1800,0,0
399,-776,0,0,0,0,0,0,0,0,0,-1,1623,1800,0,0
406,-776,0,0,0,0,0,0,0,0,0,-1,1630,1800,0,0
413,-776,0,0,0,0,0,0,0,0,0,-1,1637,1800,0,0
420,-776,0,0,0,0,0,0,0,0,0,-1,1644,1800,0,0
427,-776,0,0,0,0,0,0,0,0,0,-1,1651,1800,0,0
434,-776,0,0,0,0,0,0,0,0,0,-1,1658,1800,0,0
441,-776,0,0,0,0,0,0,0,0,0,-1,1665,1800,0,0
448,-776,0,0,0,0,0,0,0,0,0,-1,1672,1800,0,0
455,-776,0,0,0,0,0,0,0,0,0,-1,1679,1800,0,0
462,-776,0,0,0,0,0,0,0,0,0,-1,1686,1800,0,0
469,-776,0,0,0,0,0,0,0,0,0,-1,1693,1800,0,0
476,-776,0,0,0,0,0,0,0,0,0,-1,1700,1800,0,0
483,-776,0,0,0,0,0,0,0,0,0,-1,1707,1800,0,0
490,-776,0,0,0,0,0,0,0,0,0,-1,1714,1800,0,0
497,-776,0,0,0,0,0,0,0,0,0,-1,1721,1800,0,0
504,-776,0,0,0,0,0,0,0,0,0,-1,1728,1800,0,0
511,-776,0,0,0,0,0,0,0,0,0,-1,1735,1800,0,0
518,-776,0,0,0,0,0,0,0,0,0,-1,1742,1800,0,0
525,-776,0,0,0,0,0,0,0,0,0,-1,1749,1800,0,0
532,-776,0,0,0,0,0,0,0,0,0,-1,1756,1800,0,0
539,-776,0,0,0,0,0,0,0,0,0,-1,1763,1800,0,0
546,-776,0,0,0,0,0,0,0,0,0,-1,1770,1800,0,0
553,-776,0,0,0,0,0,0,0,0,0,-1,1777,1800,0,0
560,-776,0,0,0,0,0,0,0,0,0,-1,1784,1800,0,0
567,-776,0,0,0,0,0,0,0,0,0,-1,1791,1800,0,0
574,-776,0,0,0,0,0,0,0,0,0,-1,1798,1800,0,0
581,-776,0,0,0,0,0,0,0,0,0,-1,1805,1800,0,0
588,-776,0,0,0,0,0,0,0,0,0,-1,1812,1800,0,0
595,-776,0,0,0,0,0,0,0,0,0,-1,1819,1800,0,0
602,-776,0,0,0,0,0,0,0,0,0,-1,1826,1800,0,0
609,-776,0,0,0,0,0,0,0,0,0,-1,1833,1800,0,0
616,-776,0,0,0,0,0,0,0,0,0,-1,1840,1800,0,0
623,-776,0,0,0,0,0,0,0,0,0,-1,1847,1800,0,0
630,-776,0,0,0,0,0,0,0,0,0,-1,1854,1800,0,0
637,-776,0,0,0,0,0,0,0,0,0,-1,1861,1800,0,0
644,-776,0,0,0,0,0,0,0,0,0,-1,1868,1800,0,0
651,-776,0,0,0,0,0,0,0,0,0,-1,1875,1800,0,0
658,-776,0,0,0,0,0,0,0,0,0,-1,1882,1800,0,0
665,-776,0,0,0,0,0,0,0,0,0,-1,1889,1800,0,0
672,-776,0,0,0,0,0,0,0,0,0,-1,1896,1800,0,0
679,-776,0,0,0,0,0,0,0,0,0,-1,1903,1800,0,0
686,-776,0,0,0,0,0,0,0,0,0,-1,1910,1800,0,0
693,-776,0,0,0,0,0,0,0,0,0,-1,1917,1800,0,0
700,-776,0,0,0,0,0,0,0,0,0,-1,1924,1800,0,0
707,-776,0,0,0,0,0,0,0,0,0,-1,1931,1800,0,0
714,-776,0,0,0,0,0,0,0,0,0,-1,1938,1800,0,0
721,-776,0,0,0,0,0,0,0,0,0,-1,1945,1800,0,0
728,-776,0,0,0,0,0,0,0,0,0,-1,1952,1800,0,0
735,-776,0,0,0,0,0,0,0,0,0,-1,1959,1800,0,0
742,-776,0,0,0,0,0,0,0,0,0,-1,1966,1800,0,0
749,-776,0,0,0,0,0,0,0,0,0,-1,1973,1800,0,0
756,-776,0,0,0,0,0,0,0,0,0,-1,1980,1800,0,0
763,-776,0,0,0,0,0,0,0,0,0,-1,1987,1800,0,0
770,-776,0,0,0,0,0,0,0,0,0,-1,1994,1800,0,0
777,-776,0,0,0,0,0,0,0,0,0,-1,2001,1800,0,0
784,-776,0,0,0,0,0,0,0,0,0,-1,2008,1800,0,0
791,-776,0,0,0,0,0,0,0,0,0,-1,2015,1800,0,0
798,-776,0,0,0,0,0,0,0,0,0,-1,2022,1800,0,0
805,-776,0,0,0,0,0,0,0,0,0,-1,2029,1800,0,0
812,-776,0,0,0,0,0,0,0,0,0,-1,2036,1800,0,0
-700,-783,0,0,0,0,0,0,0,0,0,-1,524,1807,0,0
-693,-783,0,0,0,0,0,0,0,0,0,-1,531,1807,0,0
-686,-783,0,0,0,0,0,0,0,0,0,-1,538,1807,0,0
-679,-783,0,0,0,0,0,0,0,0,0,-1,545,1807,0,0
-672,-783,0,0,0,0,0,0,0,0,0,-1,552,1807,0,0
-665,-783,0,0,0,0,0,0,0,0,0,-1,559,1807,0,0
-658,-783,0,0,0,0,0,0,0,0,0,-1,566,1807,0,0
-651,-783,0,0,0,0,0,0,0,0,0,-1,573,1807,0,0
-644,-783,0,0,0,0,0,0,0,0,0,-1,580,1807,0,0
-637,-783,0,0,0,0,0,0,0,0,0,-1,587,1807,0,0
-630,-783,0,0,0,0,0,0,0,0,0,-1,594,1807,0,0
-623,-783,0,0,0,0,0,0,0,0,0,-1,601,1807,0,0
-616,-783,0,0,0,0,0,0,0,0,0,-1,608,1807,0,0
-609,-783,0,0,0,0,0,0,0,0,0,-1,615,1807,0,0
-602,-783,0,0,0,0,0,0,0,0,0,-1,622,1807,0,0
-595,-783,0,0,0,0,0,0,0,0,0,-1,629,1807,0,0
-588,-783,0,0,0,0,0,0,0,0,0,-1,636,1807,0,0
-581,-783,0,0,0,0,0,0,0,0,0,-1,643,1807,0,0
-574,-783,0,0,0,0,0,0,0,0,0,-1,650,1807,0,0
-567,-783,0,0,0,0,0,0,0,0,0,-1,657,1807,0,0
-560,-783,0,0,0,0,0,0,0,0,0,-1,664,1807,0,0
-553,-783,0,0,0,0,0,0,0,0,0,-1,671,1807,0,0
-546,-783,0,0,0,0,0,0,0,0,0,-1,678,1807,0,0
-539,-783,0,0,0,0,0,0,0,0,0,-1,685,1807,0,0
-532,-783,0,0,0,0,0,0,0,0,0,-1,692,1807,0,0
-525,-783,0,0,0,0,0,0,0,0,0,-1,699,1807,0,0
-518,-783,0,0,0,0,0,0,0,0,0,-1,706,1807,0,0
-511,-783,0,0,0,0,0,0,0,0,0,-1,713,1807,0,0
-504,-783,0,0,0,0,0,0,0,0,0,-1,720,1807,0,0
-497,-783,0,0,0,0,0,0,0,0,0,-1,727,1807,0,0
-490,-783,0,0,0,0,0,0,0,0,0,-1,734,1807,0,0
-483,-783,0,0,0,0,0,0,0,0,0,-1,741,1807,0,0
-476,-783,0,0,0,0,0,0,0,0,0,-1,748,1807,0,0
-469,-783,0,0,0,0,0,0,0,0,0,-1,755,1807,0,0
-462,-783,0,0,0,0,0,0,0,0,0,-1,762,1807,0,0
-455,-783,0,0,0,0,0,0,0,0,0,-1,769,1807,0,0
-448,-783,0,0,0,0,0,0,0,0,0,-1,776,1807,0,0
-441,-783,0,0,0,0,0,0,0,0,0,-1,783,1807,0,0
-434,-783,0,0,0,0,0,0,0,0,0,-1,790,1807,0,0
-427,-783,0,0,0,0,0,0,0,0,0,-1,797,1807,0,0
-420,-783,0,0,0,0,0,0,0,0,0,-1,804,1807,0,0
-413,-783,0,0,0,0,0,0,0,0,0,-1,811,1807,0,0
-406,-783,0,0,0,0,0,0,0,0,0,-1,818,1807,0,0
-399,-783,0,0,0,0,0,0,0,0,0,-1,825,1807,0,0
-392,-783,0,0,0,0,0,0,0,0,0,-1,832,1807,0,0
-385,-783,0,0,0,0,0,0,0,0,0,-1,839,1807,0,0
-378,-783,0,0,0,0,0,0,0,0,0,-1,846,1807,0,0
-371,-783,0,0,0,0,0,0,0,0,0,-1,853,1807,0,0
-364,-783,0,0,0,0,0,0,0,0,0,-1,860,1807,0,0
-357,-783,0,0,0,0,0,0,0,0,0,-1,867,1807,0,0
-350,-783,0,0,0,0,0,0,0,0,0,-1,874,1807,0,0
-343,-783,0,0,0,0,0,0,0,0,0,-1,881,1807,0,0
-336,-783,0,0,0,0,0,0,0,0,0,-1,888,1807,0,0
-329,-783,0,0,0,0,0,0,0,0,0,-1,895,1807,0,0
-322,-783,0,0,0,0,0,0,0,0,0,-1,902,1807,0,0
-315,-783,0,0,0,0,0,0,0,0,0,-1,909,1807,0,0
-308,-783,0,0,0,0,0,0,0,0,0,-1,916,1807,0,0
-301,-783,0,0,0,0,0,0,0,0,0,-1,923,1807,0,0
-294,-783,0,0,0,0,0,0,0,0,0,-1,930,1807,0,0
-287,-783,0,0,0,0,0,0,0,0,0,-1,937,1807,0,0
-280,-783,0,0,0,0,0,0,0,0,0,-1,944,1807,0,0
-273,-783,0,0,0,0,0,0,0,0,0,-1,951,1807,0,0
-266,-783,0,0,0,0,0,0,0,0,0,-1,958,1807,0,0
-259,-783,0,0,0,0,0,0,0,0,0,-1,965,1807,0,0
-252,-783,0,0,0,0,0,0,0,0,0,-1,972,1807,0,0
-245,-783,0,0,0,0,0,0,0,0,0,-1,979,1807,0,0
-238,-783,0,0,0,0,0,0,0,0,0,-1,986,1807,0,0
-231,-783,0,0,0,0,0,0,0,0,0,-1,993,1807,0,0
-224,-783,0,0,0,0,0,0,0,0,0,-1,1000,1807,0,0
-217,-783,0,0,0,0,0,0,0,0,0,-1,1007,1807,0,0
-210,-783,0,0,0,0,0,0,0,0,0,-1,1014,1807,0,0
-203,-783,0,0,0,0,0,0,0,0,0,-1,1021,1807,0,0
-196,-783,0,0,0,0,0,0,0,0,0,-1,1028,1807,0,0
-189,-783,0,0,0,0,0,0,0,0,0,-1,1035,1807,0,0
-182,-783,0,0,0,0,0,0,0,0,0,-1,1042,1807,0,0
-175,-783,0,0,0,0,0,0,0,0,0,-1,1049,1807,0,0
-168,-783,0,0,0,0,0,0,0,0,0,-1,1056,1807,0,0
-161,-783,0,0,0,0,0,0,0,0,0,-1,1063,1807,0,0
-154,-783,0,0,0,0,0,0,0,0,0,-1,1070,1807,0,0
-147,-783,0,0,0,0,0,0,0,0,0,-1,1077,1807,0,0
-140,-783,0,0,0,0,0,0,0,0,0,-1,1084,1807,0,0
-133,-783,0,0,0,0,0,0,0,0,0,-1,1091,1807,0,0
-126,-783,0,0,0,0,0,0,0,0,0,-1,1098,1807,0,0
-119,-783,0,0,0,0,0,0,0,0,0,-1,1105,1807,0,0
-112,-783,5.33936,14.7699,0,0,0,0,0,0,0,-1,1112,1807,5.33931,-14.7699
-105,-783,6.44263,21.2224,0,0,0,0,0,0,0,-1,1119,1807,6.44263,-21.2224
-98,-783,5.54773,20.5695,0,0,0,0,0,0,0,-1,1126,1807,5.54772,-20.5695
-91,-783,2.6106,20.2491,0,0,0,0,0,0,0,-1,1133,1807,2.61056,-20.2492
-84,-783,-0.0491943,14.5743,0,0,0,0,0,0,0,-1,1140,1807,-0.0491562,-14.5743
-77,-783,0.332764,12.7788,0,0,0,0,0,0,0,-1,1147,1807,0.332743,-12.7788
-70,-783,-1.93176,5.12817,0,0,0,0,0,0,0,-1,1154,1807,-1.93171,-5.12813
-63,-783,-5.31702,10.54,0,0,0,0,0,0,0,-1,1161,1807,-5.31703,-10.54
-56,-783,-6.26135,6.9679,0,0,0,0,0,0,0,-1,1168,1807,-6.26136,-6.96785
-49,-783,-3.17688,4.59705,0,0,0,0,0,0,0,-1,1175,1807,-3.17685,-4.5971
-42,-783,-3.72876,3.1405,0,0,0,0,0,0,0,-1,1182,1807,-3.72874,-3.14055
-35,-783,-3.97046,1.59399,0,0,0,0,0,0,0,-1,1189,1807,-3.97041,-1.59401
-28,-783,-4.12195,0.270386,0,0,0,0,0,0,0,-1,1196,1807,-4.12197,-0.270408
-21,-783,10.0598,47.4294,0,0,0,0,0,0,0,-1,1203,1807,10.0598,-47.4294
-14,-783,9.75684,47.9271,-0.0481835,-0.00499201,0.0566694,0.0340571,-0.0872326,0.967445,0.0722351,0.0440041,1210,1807,9.75689,-47.9271
-7,-783,9.45081,48.3405,-0.0436772,0.000230757,0.0423221,0.0259542,-0.0694006,1.02466,0.0569261,0.0458829,1217,1807,9.45083,-48.3405
0,-783,9.06592,48.8043,-0.0366832,0.00825297,0.0281482,0.0218006,-0.0502308,1.12222,0.0426535,0.0454563,1224,1807,9.06596,-48.8044
7,-783,9.49792,49.5795,0,0,0,0,0,0,0,-1,1231,1807,9.49794,-49.5795
14,-783,9.03076,49.4293,-0.0214999,0.0277735,0.0040421,0.0281029,-0.0218293,1.48949,0.0289041,0.047481,1238,1807,9.03079,-49.4293
21,-783,8.46082,49.3835,-0.0142051,0.0370936,-0.00509276,0.0375943,-0.0147058,-1.47279,0.0311445,0.0481769,1245,1807,8.46084,-49.3836
28,-783,7.78247,49.3921,-0.00759119,0.0451494,-0.0121451,0.0478118,-0.0102536,-1.355,0.0357854,0.0469718,1252,1807,7.78244,-49.3921
35,-783,7.14587,49.3545,-0.00171108,0.0516759,-0.0170447,0.0566536,-0.00668881,-1.28666,0.0401847,0.0461724,1259,1807,7.14587,-49.3545
42,-783,8.94775,48.4193,0.00370993,0.057172,-0.0211277,0.0645134,-0.00363139,-1.23637,0.0442691,0.0428472,1266,1807,8.94771,-48.4193
49,-783,8.70569,48.2723,0.00852624,0.0600518,-0.0226886,0.0686182,-4.01661e-05,-1.20978,0.0457588,0.0461272,1273,1807,8.70568,-48.2723
56,-783,8.82642,48.1085,0.0122792,0.0610068,-0.0230282,0.0701675,0.00311849,-1.19218,0.0457743,0.0474731,1280,1807,8.8264,-48.1085
63,-783,8.69019,48.1099,0.0145319,0.0603611,-0.022835,0.0697964,0.00509654,-1.17897,0.0449286,0.0475824,1287,1807,8.69023,-48.1099
70,-783,8.89624,47.478,0.0157323,0.0562553,-0.0214596,0.0655073,0.00648037,-1.16374,0.0416797,0.0435852,1294,1807,8.89629,-47.478
77,-783,9.07263,47.0208,0.0168154,0.05104,-0.0201051,0.0603293,0.00752604,-1.13798,0.0379604,0.0468818,1301,1807,9.07261,-47.0208
84,-783,9.14136,46.636,0,0,0,0,0,0,0,-1,1308,1807,9.1413,-46.636
91,-783,8.10059,49.2423,0,0,0,0,0,0,0,-1,1315,1807,8.10061,-49.2424
98,-783,8.11145,49.3781,0.018335,0.0332887,-0.0174185,0.0447673,0.0068564,-0.98813,0.0278422,0.0468097,1322,1807,8.11145,-49.378
105,-783,8.25415,49.5221,0.0183553,0.0273539,-0.0182192,0.0416211,0.00408804,-0.906453,0.0264901,0.0453567,1329,1807,8.2541,-49.522
112,-783,8.48645,48.7225,0,0,0,0,0,0,0,-1,1336,1807,8.48646,-48.7226
119,-783,8.60791,48.5052,0,0,0,0,0,0,0,-1,1343,1807,8.60787,-48.5052
126,-783,8.67871,48.2056,0,0,0,0,0,0,0,-1,1350,1807,8.67867,-48.2056
133,-783,9.08594,47.5127,0,0,0,0,0,0,0,-1,1357,1807,9.08597,-47.5126
140,-783,9.37781,47.3782,0,0,0,0,0,0,0,-1,1364,1807,9.37782,-47.3782
147,-783,8.47156,45.3552,0,0,0,0,0,0,0,-1,1371,1807,8.47151,-45.3552
154,-783,38.2109,17.545,0,0,0,0,0,0,0,-1,1378,1807,38.2109,-17.545
161,-783,39.5087,17.5449,0,0,0,0,0,0,0,-1,1385,1807,39.5087,-17.545
168,-783,8.62561,1.79944,0,0,0,0,0,0,0,-1,1392,1807,8.62561,-1.79946
175,-783,8.78699,3.40857,0,0,0,0,0,0,0,-1,1399,1807,8.78697,-3.40854
182,-783,8.70984,5.14661,0,0,0,0,0,0,0,-1,1406,1807,8.70989,-5.14666
189,-783,8.55762,6.79871,0,0,0,0,0,0,0,-1,1413,1807,8.55766,-6.79872
196,-783,8.25488,8.66626,0,0,0,0,0,0,0,-1,1420,1807,8.25492,-8.66628
203,-783,7.86755,10.5735,0,0,0,0,0,0,0,-1,1427,1807,7.8676,-10.5734
210,-783,5.6969,8.99231,0,0,0,0,0,0,0,-1,1434,1807,5.69693,-8.99234
217,-783,5.28503,3.80872,0,0,0,0,0,0,0,-1,1441,1807,5.285,-3.80868
224,-783,3.22571,6.62903,0,0,0,0,0,0,0,-1,1448,1807,3.2257,-6.62907
231,-783,4.27942,4.56262,0,0,0,0,0,0,0,-1,1455,1807,4.27948,-4.56267
238,-783,0,0,0,0,0,0,0,0,0,-1,1462,1807,0,0
245,-783,0,0,0,0,0,0,0,0,0,-1,1469,1807,0,0
252,-783,0,0,0,0,0,0,0,0,0,-1,1476,1807,0,0
259,-783,0,0,0,0,0,0,0,0,0,-1,1483,1807,0,0
266,-783,0,0,0,0,0,0,0,0,0,-1,1490,1807,0,0
273,-783,0,0,0,0,0,0,0,0,0,-1,1497,1807,0,0
280,-783,0,0,0,0,0,0,0,0,0,-1,1504,1807,0,0
287,-783,0,0,0,0,0,0,0,0,0,-1,1511,1807,0,0
294,-783,0,0,0,0,0,0,0,0,0,-1,1518,1807,0,0
301,-783,0,0,0,0,0,0,0,0,0,-1,1525,1807,0,0
308,-783,0,0,0,0,0,0,0,0,0,-1,1532,1807,0,0
315,-783,0,0,0,0,0,0,0,0,0,-1,1539,1807,0,0
322,-783,0,0,0,0,0,0,0,0,0,-1,1546,1807,0,0
329,-783,0,0,0,0,0,0,0,0,0,-1,1553,1807,0,0
336,-783,0,0,0,0,0,0,0,0,0,-1,1560,1807,0,0
343,-783,0,0,0,0,0,0,0,0,0,-1,1567,1807,0,0
350,-783,0,0,0,0,0,0,0,0,0,-1,1574,1807,0,0
357,-783,0,0,0,0,0,0,0,0,0,-1,1581,1807,0,0
364,-783,0,0,0,0,0,0,0,0,0,-1,1588,1807,0,0
371,-783,0,0,0,0,0,0,0,0,0,-1,1595,1807,0,0
378,-783,0,0,0,0,0,0,0,0,0,-1,1602,1807,0,0
385,-783,0,0,0,0,0,0,0,0,0,-1,1609,1807,0,0
392,-783,0,0,0,0,0,0,0,0,0,-1,1616,1807,0,0
399,-783,0,0,0,0,0,0,0,0,0,-1,1623,1807,0,0
406,-783,0,0,0,0,0,0,0,0,0,-1,1630,1807,0,0
413,-783,0,0,0,0,0,0,0,0,0,-1,1637,1807,0,0
420,-783,0,0,0,0,0,0,0,0,0,-1,1644,1807,0,0
427,-783,0,0,0,0,0,0,0,0,0,-1,1651,1807,0,0
434,-783,0,0,0,0,0,0,0,0,0,-1,1658,1807,0,0
441,-783,0,0,0,0,0,0,0,0,0,-1,1665,1807,0,0
448,-783,0,0,0,0,0,0,0,0,0,-1,1672,1807,0,0
455,-783,0,0,0,0,0,0,0,0,0,-1,1679,1807,0,0
462,-783,0,0,0,0,0,0,0,0,0,-1,1686,1807,0,0
469,-783,0,0,0,0,0,0,0,0,0,-1,1693,1807,0,0
476,-783,0,0,0,0,0,0,0,0,0,-1,1700,1807,0,0
483,-783,0,0,0,0,0,0,0,0,0,-1,1707,1807,0,0
490,-783,0,0,0,0,0,0,0,0,0,-1,1714,1807,0,0
497,-783,0,0,0,0,0,0,0,0,0,-1,1721,1807,0,0
504,-783,0,0,0,0,0,0,0,0,0,-1,1728,1807,0,0
511,-783,0,0,0,0,0,0,0,0,0,-1,1735,1807,0,0
518,-783,0,0,0,0,0,0,0,0,0,-1,1742,1807,0,0
525,-783,0,0,0,0,0,0,0,0,0,-1,1749,1807,0,0
532,-783,0,0,0,0,0,0,0,0,0,-1,1756,1807,0,0
539,-783,0,0,0,0,0,0,0,0,0,-1,1763,1807,0,0
546,-783,0,0,0,0,0,0,0,0,0,-1,1770,1807,0,0
553,-783,0,0,0,0,0,0,0,0,0,-1,1777,1807,0,0
560,-783,0,0,0,0,0,0,0,0,0,-1,1784,1807,0,0
567,-783,0,0,0,0,0,0,0,0,0,-1,1791,1807,0,0
574,-783,0,0,0,0,0,0,0,0,0,-1,1798,1807,0,0
581,-783,0,0,0,0,0,0,0,0,0,-1,1805,1807,0,0
588,-783,0,0,0,0,0,0,0,0,0,-1,1812,1807,0,0
595,-783,0,0,0,0,0,0,0,0,0,-1,1819,1807,0,0
602,-783,0,0,0,0,0,0,0,0,0,-1,1826,1807,0,0
609,-783,0,0,0,0,0,0,0,0,0,-1,1833,1807,0,0
616,-783,0,0,0,0,0,0,0,0,0,-1,1840,1807,0,0
623,-783,0,0,0,0,0,0,0,0,0,-1,1847,1807,0,0
630,-783,0,0,0,0,0,0,0,0,0,-1,1854,1807,0,0
637,-783,0,0,0,0,0,0,0,0,0,-1,1861,1807,0,0
644,-783,0,0,0,0,0,0,0,0,0,-1,1868,1807,0,0
651,-783,0,0,0,0,0,0,0,0,0,-1,1875,1807,0,0
658,-783,0,0,0,0,0,0,0,0,0,-1,1882,1807,0,0
665,-783,0,0,0,0,0,0,0,0,0,-1,1889,1807,0,0
672,-783,0,0,0,0,0,0,0,0,0,-1,1896,1807,0,0
679,-783,0,0,0,0,0,0,0,0,0,-1,1903,1807,0,0
686,-783,0,0,0,0,0,0,0,0,0,-1,1910,1807,0,0
693,-783,0,0,0,0,0,0,0,0,0,-1,1917,1807,0,0
700,-783,0,0,0,0,0,0,0,0,0,-1,1924,1807,0,0
707,-783,0,0,0,0,0,0,0,0,0,-1,1931,1807,0,0
714,-783,0,0,0,0,0,0,0,0,0,-1,1938,1807,0,0
721,-783,0,0,0,0,0,0,0,0,0,-1,1945,1807,0,0
728,-783,0,0,0,0,0,0,0,0,0,-1,1952,1807,0,0
735,-783,0,0,0,0,0,0,0,0,0,-1,1959,1807,0,0
742,-783,0,0,0,0,0,0,0,0,0,-1,1966,1807,0,0
749,-783,0,0,0,0,0,0,0,0,0,-1,1973,1807,0,0
756,-783,0,0,0,0,0,0,0,0,0,-1,1980,1807,0,0
763,-783,0,0,0,0,0,0,0,0,0,-1,1987,1807,0,0
770,-783,0,0,0,0,0,0,0,0,0,-1,1994,1807,0,0
777,-783,0,0,0,0,0,0,0,0,0,-1,2001,1807,0,0
784,-783,0,0,0,0,0,0,0,0,0,-1,2008,1807,0,0
791,-783,0,0,0,0,0,0,0,0,0,-1,2015,1807,0,0
798,-783,0,0,0,0,0,0,0,0,0,-1,2022,1807,0,0
805,-783,0,0,0,0,0,0,0,0,0,-1,2029,1807,0,0
812,-783,0,0,0,0,0,0,0,0,0,-1,2036,1807,0,0
-700,-790,0,0,0,0,0,0,0,0,0,-1,524,1814,0,0
-693,-790,0,0,0,0,0,0,0,0,0,-1,531,1814,0,0
-686,-790,0,0,0,0,0,0,0,0,0,-1,538,1814,0,0
-679,-790,0,0,0,0,0,0,0,0,0,-1,545,1814,0,0
-672,-790,0,0,0,0,0,0,0,0,0,-1,552,1814,0,0
-665,-790,0,0,0,0,0,0,0,0,0,-1,559,1814,0,0
-658,-790,0,0,0,0,0,0,0,0,0,-1,566,1814,0,0
-651,-790,0,0,0,0,0,0,0,0,0,-1,573,1814,0,0
-644,-790,0,0,0,0,0,0,0,0,0,-1,580,1814,0,0
-637,-790,0,0,0,0,0,0,0,0,0,-1,587,1814,0,0
-630,-790,0,0,0,0,0,0,0,0,0,-1,594,1814,0,0
-623,-790,0,0,0,0,0,0,0,0,0,-1,601,1814,0,0
-616,-790,0,0,0,0,0,0,0,0,0,-1,608,1814,0,0
-609,-790,0,0,0,0,0,0,0,0,0,-1,615,1814,0,0
-602,-790,0,0,0,0,0,0,0,0,0,-1,622,1814,0,0
-595,-790,0,0,0,0,0,0,0,0,0,-1,629,1814,0,0
-588,-790,0,0,0,0,0,0,0,0,0,-1,636,1814,0,0
-581,-790,0,0,0,0,0,0,0,0,0,-1,643,1814,0,0
-574,-790,0,0,0,0,0,0,0,0,0,-1,650,1814,0,0
-567,-790,0,0,0,0,0,0,0,0,0,-1,657,1814,0,0
-560,-790,0,0,0,0,0,0,0,0,0,-1,664,1814,0,0
-553,-790,0,0,0,0,0,0,0,0,0,-1,671,1814,0,0
-546,-790,0,0,0,0,0,0,0,0,0,-1,678,1814,0,0
-539,-790,0,0,0,0,0,0,0,0,0,-1,685,1814,0,0
-532,-790,0,0,0,0,0,0,0,0,0,-1,692,1814,0,0
-525,-790,0,0,0,0,0,0,0,0,0,-1,699,1814,0,0
-518,-790,0,0,0,0,0,0,0,0,0,-1,706,1814,0,0
-511,-790,0,0,0,0,0,0,0,0,0,-1,713,1814,0,0
-504,-790,0,0,0,0,0,0,0,0,0,-1,720,1814,0,0
-497,-790,0,0,0,0,0,0,0,0,0,-1,727,1814,0,0
-490,-790,0,0,0,0,0,0,0,0,0,-1,734,1814,0,0
-483,-790,0,0,0,0,0,0,0,0,0,-1,741,1814,0,0
-476,-790,0,0,0,0,0,0,0,0,0,-1,748,1814,0,0
-469,-790,0,0,0,0,0,0,0,0,0,-1,755,1814,0,0
-462,-790,0,0,0,0,0,0,0,0,0,-1,762,1814,0,0
-455,-790,0,0,0,0,0,0,0,0,0,-1,769,1814,0,0
-448,-790,0,0,0,0,0,0,0,0,0,-1,776,1814,0,0
-441,-790,0,0,0,0,0,0,0,0,0,-1,783,1814,0,0
-434,-790,0,0,0,0,0,0,0,0,0,-1,790,1814,0,0
-427,-790,0,0,0,0,0,0,0,0,0,-1,797,1814,0,0
-420,-790,0,0,0,0,0,0,0,0,0,-1,804,1814,0,0
-413,-790,0,0,0,0,0,0,0,0,0,-1,811,1814,0,0
-406,-790,0,0,0,0,0,0,0,0,0,-1,818,1814,0,0
-399,-790,0,0,0,0,0,0,0,0,0,-1,825,1814,0,0
-392,-790,0,0,0,0,0,0,0,0,0,-1,832,1814,0,0
-385,-790,0,0,0,0,0,0,0,0,0,-1,839,1814,0,0
-378,-790,0,0,0,0,0,0,0,0,0,-1,846,1814,0,0
-371,-790,0,0,0,0,0,0,0,0,0,-1,853,1814,0,0
-364,-790,0,0,0,0,0,0,0,0,0,-1,860,1814,0,0
-357,-790,0,0,0,0,0,0,0,0,0,-1,867,1814,0,0
-350,-790,0,0,0,0,0,0,0,0,0,-1,874,1814,0,0
-343,-790,0,0,0,0,0,0,0,0,0,-1,881,1814,0,0
-336,-790,0,0,0,0,0,0,0,0,0,-1,888,1814,0,0
-329,-790,0,0,0,0,0,0,0,0,0,-1,895,1814,0,0
-322,-790,0,0,0,0,0,0,0,0,0,-1,902,1814,0,0
-315,-790,0,0,0,0,0,0,0,0,0,-1,909,1814,0,0
-308,-790,0,0,0,0,0,0,0,0,0,-1,916,1814,0,0
-301,-790,0,0,0,0,0,0,0,0,0,-1,923,1814,0,0
-294,-790,0,0,0,0,0,0,0,0,0,-1,930,1814,0,0
-287,-790,0,0,0,0,0,0,0,0,0,-1,937,1814,0,0
-280,-790,0,0,0,0,0,0,0,0,0,-1,944,1814,0,0
-273,-790,0,0,0,0,0,0,0,0,0,-1,951,1814,0,0
-266,-790,0,0,0,0,0,0,0,0,0,-1,958,1814,0,0
-259,-790,0,0,0,0,0,0,0,0,0,-1,965,1814,0,0
-252,-790,0,0,0,0,0,0,0,0,0,-1,972,1814,0,0
-245,-790,0,0,0,0,0,0,0,0,0,-1,979,1814,0,0
-238,-790,0,0,0,0,0,0,0,0,0,-1,986,1814,0,0
-231,-790,0,0,0,0,0,0,0,0,0,-1,993,1814,0,0
-224,-790,0,0,0,0,0,0,0,0,0,-1,1000,1814,0,0
-217,-790,0,0,0,0,0,0,0,0,0,-1,1007,1814,0,0
-210,-790,0,0,0,0,0,0,0,0,0,-1,1014,1814,0,0
-203,-790,0,0,0,0,0,0,0,0,0,-1,1021,1814,0,0
-196,-790,0,0,0,0,0,0,0,0,0,-1,1028,1814,0,0
-189,-790,0,0,0,0,0,0,0,0,0,-1,1035,1814,0,0
-182,-790,0,0,0,0,0,0,0,0,0,-1,1042,1814,0,0
-175,-790,0,0,0,0,0,0,0,0,0,-1,1049,1814,0,0
-168,-790,0,0,0,0,0,0,0,0,0,-1,1056,1814,0,0
-161,-790,0,0,0,0,0,0,0,0,0,-1,1063,1814,0,0
-154,-790,0,0,0,0,0,0,0,0,0,-1,1070,1814,0,0
-147,-790,0,0,0,0,0,0,0,0,0,-1,1077,1814,0,0
-140,-790,0,0,0,0,0,0,0,0,0,-1,1084,1814,0,0
-133,-790,0,0,0,0,0,0,0,0,0,-1,1091,1814,0,0
-126,-790,0,0,0,0,0,0,0,0,0,-1,1098,1814,0,0
-119,-790,0,0,0,0,0,0,0,0,0,-1,1105,1814,0,0
-112,-790,0,0,0,0,0,0,0,0,0,-1,1112,1814,0,0
-105,-790,0,0,0,0,0,0,0,0,0,-1,1119,1814,0,0
-98,-790,0,0,0,0,0,0,0,0,0,-1,1126,1814,0,0
-91,-790,0,0,0,0,0,0,0,0,0,-1,1133,1814,0,0
-84,-790,0,0,0,0,0,0,0,0,0,-1,1140,1814,0,0
-77,-790,-0.969238,5.30847,0,0,0,0,0,0,0,-1,1147,1814,-0.969277,-5.3085
-70,-790,-1.23169,4.98914,0,0,0,0,0,0,0,-1,1154,1814,-1.23163,-4.98916
-63,-790,-1.69128,4.32263,0,0,0,0,0,0,0,-1,1161,1814,-1.69128,-4.32258
-56,-790,-2.24756,3.75305,0,0,0,0,0,0,0,-1,1168,1814,-2.24758,-3.75302
-49,-790,-3.11011,3.35779,0,0,0,0,0,0,0,-1,1175,1814,-3.11006,-3.35781
-42,-790,0.593262,1.19165,0,0,0,0,0,0,0,-1,1182,1814,0.593225,-1.19165
-35,-790,0.307129,-0.20105,0,0,0,0,0,0,0,-1,1189,1814,0.307178,0.201006
-28,-790,-2.78467,0.785156,0,0,0,0,0,0,0,-1,1196,1814,-2.78471,-0.785183
-21,-790,9.46216,47.2809,0,0,0,0,0,0,0,-1,1203,1814,9.46217,-47.2809
-14,-790,9.27673,47.9794,-0.0565101,-0.00900721,0.0734045,0.0443929,-0.10991,0.941867,0.0917247,0.0426291,1210,1814,9.27668,-47.9794
-7,-790,8.77417,48.4686,-0.0507956,0.000183534,0.0526238,0.033166,-0.0837781,1.01093,0.0695936,0.0467483,1217,1814,8.7742,-48.4686
0,-790,8.67322,49.2772,-0.0417489,0.0115927,0.0329356,0.0273021,-0.0574583,1.12574,0.0499582,0.0464922,1224,1814,8.67317,-49.2772
7,-790,8.53015,50.0171,-0.0322913,0.02441,0.0156124,0.0284246,-0.0363059,1.31911,0.0374644,0.0449898,1231,1814,8.53013,-50.017
14,-790,8.95874,49.6045,0,0,0,0,0,0,0,-1,1238,1814,8.9587,-49.6045
21,-790,8.35522,49.6316,0,0,0,0,0,0,0,-1,1245,1814,8.35523,-49.6316
28,-790,7.60815,49.5992,-0.00631435,0.0566112,-0.0190715,0.0619402,-0.0116433,-1.29833,0.045672,0.0466477,1252,1814,7.60819,-49.5992
35,-790,7.98108,46.5349,0.000790599,0.0636197,-0.0249363,0.0723137,-0.00790339,-1.23533,0.0510479,0.0449982,1259,1814,7.98112,-46.5349
42,-790,8.20801,46.3871,0,0,0,0,0,0,0,-1,1266,1814,8.20805,-46.387
49,-790,8.70679,47.0892,0.0132813,0.0724387,-0.0314148,0.0860085,-0.000288434,-1.16305,0.0574354,0.0488724,1273,1814,8.70677,-47.0893
56,-790,8.97412,47.4207,0.0179024,0.0731191,-0.0313461,0.0872816,0.00373989,-1.14644,0.056982,0.048464,1280,1814,8.97415,-47.4207
63,-790,8.83362,47.5454,0,0,0,0,0,0,0,-1,1287,1814,8.83356,-47.5454
70,-790,9.32629,46.7631,0.0219127,0.0660148,-0.0286391,0.0801086,0.0078189,-1.11348,0.0509996,0.0397598,1294,1814,9.32627,-46.763
77,-790,9.50977,46.397,0.0229835,0.0592742,-0.0267048,0.0734151,0.00884261,-1.08381,0.0462783,0.0429115,1301,1814,9.50982,-46.397
84,-790,9.5769,45.9149,0,0,0,0,0,0,0,-1,1308,1814,9.57694,-45.915
91,-790,7.84033,49.2433,0,0,0,0,0,0,0,-1,1315,1814,7.84032,-49.2433
98,-790,7.8844,49.3419,0.0244498,0.0382035,-0.0233813,0.0556983,0.00695498,-0.928424,0.0350447,0.0451798,1322,1814,7.8844,-49.3419
105,-790,8.71143,49.4807,0.023538,0.0311995,-0.0243091,0.0519779,0.00275967,-0.863548,0.0337696,0.0447114,1329,1814,8.71137,-49.4807
112,-790,8.8208,49.1521,0.0221731,0.025531,-0.0251204,0.0490285,-0.00132439,-0.818766,0.033136,0.0444275,1336,1814,8.82085,-49.1521
119,-790,8.64124,48.6289,0.0211089,0.0217554,-0.0260986,0.0475328,-0.00466845,-0.791591,0.0333538,0.0451383,1343,1814,8.64124,-48.6289
126,-790,8.51331,48.1642,0,0,0,0,0,0,0,-1,1350,1814,8.51328,-48.1642
133,-790,8.70422,47.6473,0,0,0,0,0,0,0,-1,1357,1814,8.70422,-47.6473
140,-790,9.0282,47.1235,0,0,0,0,0,0,0,-1,1364,1814,9.02817,-47.1235
147,-790,8.62134,46.2317,0,0,0,0,0,0,0,-1,1371,1814,8.62131,-46.2316
154,-790,40.215,13.2396,0,0,0,0,0,0,0,-1,1378,1814,40.2149,-13.2396
161,-790,39.3429,13.0336,0,0,0,0,0,0,0,-1,1385,1814,39.3429,-13.0336
168,-790,7.04077,2.23279,0,0,0,0,0,0,0,-1,1392,1814,7.04082,-2.23275
175,-790,9.03918,3.98535,0,0,0,0,0,0,0,-1,1399,1814,9.0392,-3.98535
182,-790,8.96997,5.67896,0,0,0,0,0,0,0,-1,1406,1814,8.97001,-5.6789
189,-790,8.59729,6.86975,0,0,0,0,0,0,0,-1,1413,1814,8.59728,-6.86972
196,-790,8.21924,9.29053,0,0,0,0,0,0,0,-1,1420,1814,8.21924,-9.29048
203,-790,0,0,0,0,0,0,0,0,0,-1,1427,1814,0,0
210,-790,0,0,0,0,0,0,0,0,0,-1,1434,1814,0,0
217,-790,0,0,0,0,0,0,0,0,0,-1,1441,1814,0,0
224,-790,0,0,0,0,0,0,0,0,0,-1,1448,1814,0,0
231,-790,0,0,0,0,0,0,0,0,0,-1,1455,1814,0,0
238,-790,0,0,0,0,0,0,0,0,0,-1,1462,1814,0,0
245,-790,0,0,0,0,0,0,0,0,0,-1,1469,1814,0,0
252,-790,0,0,0,0,0,0,0,0,0,-1,1476,1814,0,0
259,-790,0,0,0,0,0,0,0,0,0,-1,1483,1814,0,0
266,-790,0,0,0,0,0,0,0,0,0,-1,1490,1814,0,0
273,-790,0,0,0,0,0,0,0,0,0,-1,1497,1814,0,0
280,-790,0,0,0,0,0,0,0,0,0,-1,1504,1814,0,0
287,-790,0,0,0,0,0,0,0,0,0,-1,1511,1814,0,0
294,-790,0,0,0,0,0,0,0,0,0,-1,1518,1814,0,0
301,-790,0,0,0,0,0,0,0,0,0,-1,1525,1814,0,0
308,-790,0,0,0,0,0,0,0,0,0,-1,1532,1814,0,0
315,-790,0,0,0,0,0,0,0,0,0,-1,1539,1814,0,0
322,-790,0,0,0,0,0,0,0,0,0,-1,1546,1814,0,0
329,-790,0,0,0,0,0,0,0,0,0,-1,1553,1814,0,0
336,-790,0,0,0,0,0,0,0,0,0,-1,1560,1814,0,0
343,-790,0,0,0,0,0,0,0,0,0,-1,1567,1814,0,0
350,-790,0,0,0,0,0,0,0,0,0,-1,1574,1814,0,0
357,-790,0,0,0,0,0,0,0,0,0,-1,1581,1814,0,0
364,-790,0,0,0,0,0,0,0,0,0,-1,1588,1814,0,0
371,-790,0,0,0,0,0,0,0,0,0,-1,1595,1814,0,0
378,-790,0,0,0,0,0,0,0,0,0,-1,1602,1814,0,0
385,-790,0,0,0,0,0,0,0,0,0,-1,1609,1814,0,0
392,-790,0,0,0,0,0,0,0,0,0,-1,1616,1814,0,0
399,-790,0,0,0,0,0,0,0,0,0,-1,1623,1814,0,0
406,-790,0,0,0,0,0,0,0,0,0,-1,1630,1814,0,0
413,-790,0,0,0,0,0,0,0,0,0,-1,1637,1814,0,0
420,-790,0,0,0,0,0,0,0,0,0,-1,1644,1814,0,0
427,-790,0,0,0,0,0,0,0,0,0,-1,1651,1814,0,0
434,-790,0,0,0,0,0,0,0,0,0,-1,1658,1814,0,0
441,-790,0,0,0,0,0,0,0,0,0,-1,1665,1814,0,0
448,-790,0,0,0,0,0,0,0,0,0,-1,1672,1814,0,0
455,-790,0,0,0,0,0,0,0,0,0,-1,1679,1814,0,0
462,-790,0,0,0,0,0,0,0,0,0,-1,1686,1814,0,0
469,-790,0,0,0,0,0,0,0,0,0,-1,1693,1814,0,0
476,-790,0,0,0,0,0,0,0,0,0,-1,1700,1814,0,0
483,-790,0,0,0,0,0,0,0,0,0,-1,1707,1814,0,0
490,-790,0,0,0,0,0,0,0,0,0,-1,1714,1814,0,0
497,-790,0,0,0,0,0,0,0,0,0,-1,1721,1814,0,0
504,-790,0,0,0,0,0,0,0,0,0,-1,1728,1814,0,0
511,-790,0,0,0,0,0,0,0,0,0,-1,1735,1814,0,0
518,-790,0,0,0,0,0,0,0,0,0,-1,1742,1814,0,0
525,-790,0,0,0,0,0,0,0,0,0,-1,1749,1814,0,0
532,-790,0,0,0,0,0,0,0,0,0,-1,1756,1814,0,0
539,-790,0,0,0,0,0,0,0,0,0,-1,1763,1814,0,0
546,-790,0,0,0,0,0,0,0,0,0,-1,1770,1814,0,0
553,-790,0,0,0,0,0,0,0,0,0,-1,1777,1814,0,0
560,-790,0,0,0,0,0,0,0,0,0,-1,1784,1814,0,0
567,-790,0,0,0,0,0,0,0,0,0,-1,1791,1814,0,0
574,-790,0,0,0,0,0,0,0,0,0,-1,1798,1814,0,0
581,-790,0,0,0,0,0,0,0,0,0,-1,1805,1814,0,0
588,-790,0,0,0,0,0,0,0,0,0,-1,1812,1814,0,0
595,-790,0,0,0,0,0,0,0,0,0,-1,1819,1814,0,0
602,-790,0,0,0,0,0,0,0,0,0,-1,1826,1814,0,0
609,-790,0,0,0,0,0,0,0,0,0,-1,1833,1814,0,0
616,-790,0,0,0,0,0,0,0,0,0,-1,1840,1814,0,0
623,-790,0,0,0,0,0,0,0,0,0,-1,1847,1814,0,0
630,-790,0,0,0,0,0,0,0,0,0,-1,1854,1814,0,0
637,-790,0,0,0,0,0,0,0,0,0,-1,1861,1814,0,0
644,-790,0,0,0,0,0,0,0,0,0,-1,1868,1814,0,0
651,-790,0,0,0,0,0,0,0,0,0,-1,1875,1814,0,0
658,-790,0,0,0,0,0,0,0,0,0,-1,1882,1814,0,0
665,-790,0,0,0,0,0,0,0,0,0,-1,1889,1814,0,0
672,-790,0,0,0,0,0,0,0,0,0,-1,1896,1814,0,0
679,-790,0,0,0,0,0,0,0,0,0,-1,1903,1814,0,0
686,-790,0,0,0,0,0,0,0,0,0,-1,1910,1814,0,0
693,-790,0,0,0,0,0,0,0,0,0,-1,1917,1814,0,0
700,-790,0,0,0,0,0,0,0,0,0,-1,1924,1814,0,0
707,-790,0,0,0,0,0,0,0,0,0,-1,1931,1814,0,0
714,-790,0,0,0,0,0,0,0,0,0,-1,1938,1814,0,0
721,-790,0,0,0,0,0,0,0,0,0,-1,1945,1814,0,0
728,-790,0,0,0,0,0,0,0,0,0,-1,1952,1814,0,0
735,-790,0,0,0,0,0,0,0,0,0,-1,1959,1814,0,0
742,-790,0,0,0,0,0,0,0,0,0,-1,1966,1814,0,0
749,-790,0,0,0,0,0,0,0,0,0,-1,1973,1814,0,0
756,-790,0,0,0,0,0,0,0,0,0,-1,1980,1814,0,0
763,-790,0,0,0,0,0,0,0,0,0,-1,1987,1814,0,0
770,-790,0,0,0,0,0,0,0,0,0,-1,1994,1814,0,0
777,-790,0,0,0,0,0,0,0,0,0,-1,2001,1814,0,0
784,-790,0,0,0,0,0,0,0,0,0,-1,2008,1814,0,0
791,-790,0,0,0,0,0,0,0,0,0,-1,2015,1814,0,0
798,-790,0,0,0,0,0,0,0,0,0,-1,2022,1814,0,0
805,-790,0,0,0,0,0,0,0,0,0,-1,2029,1814,0,0
812,-790,0,0,0,0,0,0,0,0,0,-1,2036,1814,0,0
-700,-797,0,0,0,0,0,0,0,0,0,-1,524,1821,0,0
-693,-797,0,0,0,0,0,0,0,0,0,-1,531,1821,0,0
-686,-797,0,0,0,0,0,0,0,0,0,-1,538,1821,0,0
-679,-797,0,0,0,0,0,0,0,0,0,-1,545,1821,0,0
-672,-797,0,0,0,0,0,0,0,0,0,-1,552,1821,0,0
-665,-797,0,0,0,0,0,0,0,0,0,-1,559,1821,0,0
-658,-797,0,0,0,0,0,0,0,0,0,-1,566,1821,0,0
-651,-797,0,0,0,0,0,0,0,0,0,-1,573,1821,0,0
-644,-797,0,0,0,0,0,0,0,0,0,-1,580,1821,0,0
-637,-797,0,0,0,0,0,0,0,0,0,-1,587,1821,0,0
-630,-797,0,0,0,0,0,0,0,0,0,-1,594,1821,0,0
-623,-797,0,0,0,0,0,0,0,0,0,-1,601,1821,0,0
-616,-797,0,0,0,0,0,0,0,0,0,-1,608,1821,0,0
-609,-797,0,0,0,0,0,0,0,0,0,-1,615,1821,0,0
-602,-797,0,0,0,0,0,0,0,0,0,-1,622,1821,0,0
-595,-797,0,0,0,0,0,0,0,0,0,-1,629,1821,0,0
-588,-797,0,0,0,0,0,0,0,0,0,-1,636,1821,0,0
-581,-797,0,0,0,0,0,0,0,0,0,-1,643,1821,0,0
-574,-797,0,0,0,0,0,0,0,0,0,-1,650,1821,0,0
-567,-797,0,0,0,0,0,0,0,0,0,-1,657,1821,0,0
-560,-797,0,0,0,0,0,0,0,0,0,-1,664,1821,0,0
-553,-797,0,0,0,0,0,0,0,0,0,-1,671,1821,0,0
-546,-797,0,0,0,0,0,0,0,0,0,-1,678,1821,0,0
-539,-797,0,0,0,0,0,0,0,0,0,-1,685,1821,0,0
-532,-797,0,0,0,0,0,0,0,0,0,-1,692,1821,0,0
-525,-797,0,0,0,0,0,0,0,0,0,-1,699,1821,0,0
-518,-797,0,0,0,0,0,0,0,0,0,-1,706,1821,0,0
-511,-797,0,0,0,0,0,0,0,0,0,-1,713,1821,0,0
-504,-797,0,0,0,0,0,0,0,0,0,-1,720,1821,0,0
-497,-797,0,0,0,0,0,0,0,0,0,-1,727,1821,0,0
-490,-797,0,0,0,0,0,0,0,0,0,-1,734,1821,0,0
-483,-797,0,0,0,0,0,0,0,0,0,-1,741,1821,0,0
-476,-797,0,0,0,0,0,0,0,0,0,-1,748,1821,0,0
-469,-797,0,0,0,0,0,0,0,0,0,-1,755,1821,0,0
-462,-797,0,0,0,0,0,0,0,0,0,-1,762,1821,0,0
-455,-797,0,0,0,0,0,0,0,0,0,-1,769,1821,0,0
-448,-797,0,0,0,0,0,0,0,0,0,-1,776,1821,0,0
-441,-797,0,0,0,0,0,0,0,0,0,-1,783,1821,0,0
-434,-797,0,0,0,0,0,0,0,0,0,-1,790,1821,0,0
-427,-797,0,0,0,0,0,0,0,0,0,-1,797,1821,0,0
-420,-797,0,0,0,0,0,0,0,0,0,-1,804,1821,0,0
-413,-797,0,0,0,0,0,0,0,0,0,-1,811,1821,0,0
-406,-797,0,0,0,0,0,0,0,0,0,-1,818,1821,0,0
-399,-797,0,0,0,0,0,0,0,0,0,-1,825,1821,0,0
-392,-797,0,0,0,0,0,0,0,0,0,-1,832,1821,0,0
-385,-797,0,0,0,0,0,0,0,0,0,-1,839,1821,0,0
-378,-797,0,0,0,0,0,0,0,0,0,-1,846,1821,0,0
-371,-797,0,0,0,0,0,0,0,0,0,-1,853,1821,0,0
-364,-797,0,0,0,0,0,0,0,0,0,-1,860,1821,0,0
-357,-797,0,0,0,0,0,0,0,0,0,-1,867,1821,0,0
-350,-797,0,0,0,0,0,0,0,0,0,-1,874,1821,0,0
-343,-797,0,0,0,0,0,0,0,0,0,-1,881,1821,0,0
-336,-797,0,0,0,0,0,0,0,0,0,-1,888,1821,0,0
-329,-797,0,0,0,0,0,0,0,0,0,-1,895,1821,0,0
-322,-797,0,0,0,0,0,0,0,0,0,-1,902,1821,0,0
-315,-797,0,0,0,0,0,0,0,0,0,-1,909,1821,0,0
-308,-797,0,0,0,0,0,0,0,0,0,-1,916,1821,0,0
-301,-797,0,0,0,0,0,0,0,0,0,-1,923,1821,0,0
-294,-797,0,0,0,0,0,0,0,0,0,-1,930,1821,0,0
-287,-797,0,0,0,0,0,0,0,0,0,-1,937,1821,0,0
-280,-797,0,0,0,0,0,0,0,0,0,-1,944,1821,0,0
-273,-797,0,0,0,0,0,0,0,0,0,-1,951,1821,0,0
-266,-797,0,0,0,0,0,0,0,0,0,-1,958,1821,0,0
-259,-797,0,0,0,0,0,0,0,0,0,-1,965,1821,0,0
-252,-797,0,0,0,0,0,0,0,0,0,-1,972,1821,0,0
-245,-797,0,0,0,0,0,0,0,0,0,-1,979,1821,0,0
-238,-797,0,0,0,0,0,0,0,0,0,-1,986,1821,0,0
-231,-797,0,0,0,0,0,0,0,0,0,-1,993,1821,0,0
-224,-797,0,0,0,0,0,0,0,0,0,-1,1000,1821,0,0
-217,-797,0,0,0,0,0,0,0,0,0,-1,1007,1821,0,0
-210,-797,0,0,0,0,0,0,0,0,0,-1,1014,1821,0,0
-203,-797,0,0,0,0,0,0,0,0,0,-1,1021,1821,0,0
-196,-797,0,0,0,0,0,0,0,0,0,-1,1028,1821,0,0
-189,-797,0,0,0,0,0,0,0,0,0,-1,1035,1821,0,0
-182,-797,0,0,0,0,0,0,0,0,0,-1,1042,1821,0,0
-175,-797,0,0,0,0,0,0,0,0,0,-1,1049,1821,0,0
-168,-797,0,0,0,0,0,0,0,0,0,-1,1056,1821,0,0
-161,-797,0,0,0,0,0,0,0,0,0,-1,1063,1821,0,0
-154,-797,0,0,0,0,0,0,0,0,0,-1,1070,1821,0,0
-147,-797,0,0,0,0,0,0,0,0,0,-1,1077,1821,0,0
-140,-797,0,0,0,0,0,0,0,0,0,-1,1084,1821,0,0
-133,-797,0,0,0,0,0,0,0,0,0,-1,1091,1821,0,0
-126,-797,0,0,0,0,0,0,0,0,0,-1,1098,1821,0,0
-119,-797,0,0,0,0,0,0,0,0,0,-1,1105,1821,0,0
-112,-797,0,0,0,0,0,0,0,0,0,-1,1112,1821,0,0
-105,-797,0,0,0,0,0,0,0,0,0,-1,1119,1821,0,0
-98,-797,0,0,0,0,0,0,0,0,0,-1,1126,1821,0,0
-91,-797,0,0,0,0,0,0,0,0,0,-1,1133,1821,0,0
-84,-797,0,0,0,0,0,0,0,0,0,-1,1140,1821,0,0
-77,-797,0,0,0,0,0,0,0,0,0,-1,1147,1821,0,0
-70,-797,0,0,0,0,0,0,0,0,0,-1,1154,1821,0,0
-63,-797,0,0,0,0,0,0,0,0,0,-1,1161,1821,0,0
-56,-797,0,0,0,0,0,0,0,0,0,-1,1168,1821,0,0
-49,-797,0,0,0,0,0,0,0,0,0,-1,1175,1821,0,0
-42,-797,0.579834,0.692871,0,0,0,0,0,0,0,-1,1182,1821,0.579856,-0.692816
-35,-797,-0.185425,5.55396,0,0,0,0,0,0,0,-1,1189,1821,-0.18542,-5.55396
-28,-797,-0.310181,4.71509,0,0,0,0,0,0,0,-1,1196,1821,-0.310228,-4.71503
-21,-797,9.11646,47.4148,0,0,0,0,0,0,0,-1,1203,1821,9.11645,-47.4148
-14,-797,8.97412,48.145,0,0,0,0,0,0,0,-1,1210,1821,8.97415,-48.145
-7,-797,8.2085,48.6462,0,0,0,0,0,0,0,-1,1217,1821,8.20849,-48.6463
0,-797,8.33179,50.0094,0,0,0,0,0,0,0,-1,1224,1821,8.33177,-50.0094
7,-797,8.23816,50.6486,-0.0345648,0.0336072,0.013524,0.0361921,-0.0371497,1.38194,0.0423451,0.0499156,1231,1821,8.23816,-50.6485
14,-797,7.98096,51.5774,0,0,0,0,0,0,0,-1,1238,1821,7.98093,-51.5774
21,-797,9.76831,46.5684,0,0,0,0,0,0,0,-1,1245,1821,9.76833,-46.5683
28,-797,9.40234,46.4628,-0.00465459,0.0696714,-0.0285171,0.079352,-0.0143351,-1.24354,0.0582704,0.0434096,1252,1821,9.40229,-46.4628
35,-797,9.15027,46.4647,0.00362227,0.0765955,-0.0351693,0.0907858,-0.0105681,-1.18729,0.0643366,0.0473827,1259,1821,9.15031,-46.4647
42,-797,8.83301,46.3627,0.0115027,0.0822768,-0.0405912,0.10074,-0.00696084,-1.1439,0.0695967,0.0499687,1266,1821,8.83306,-46.3627
49,-797,8.53674,47.0546,0,0,0,0,0,0,0,-1,1273,1821,8.53678,-47.0545
56,-797,8.87,46.7987,0.0241885,0.0853639,-0.0414203,0.106267,0.00328591,-1.10344,0.0697748,0.0476679,1280,1821,8.87001,-46.7988
63,-797,9.26599,46.4995,0.0275509,0.0829043,-0.0401347,0.10398,0.00647523,-1.08725,0.0672655,0.0419347,1287,1821,9.26595,-46.4995
70,-797,9.66687,46.2356,0.0288736,0.0753465,-0.0371417,0.0959214,0.00829867,-1.06492,0.0613687,0.0416575,1294,1821,9.66685,-46.2356
77,-797,9.94189,45.9556,0.0298699,0.0669041,-0.0344936,0.0875366,0.0092374,-1.03173,0.0555353,0.0432688,1301,1821,9.94185,-45.9556
84,-797,10.1571,45.4503,0.030319,0.0555367,-0.0315856,0.0769372,0.00891858,-0.975305,0.0485922,0.0463867,1308,1821,10.1572,-45.4503
91,-797,7.66418,49.238,0,0,0,0,0,0,0,-1,1315,1821,7.66419,-49.238
98,-797,7.71509,49.3147,0,0,0,0,0,0,0,-1,1322,1821,7.71513,-49.3147
105,-797,7.76611,49.3914,0,0,0,0,0,0,0,-1,1329,1821,7.76607,-49.3913
112,-797,9.03064,49.0831,0.0256929,0.027802,-0.0325582,0.0593227,-0.00582781,-0.801588,0.0416273,0.0429015,1336,1821,9.03065,-49.0832
119,-797,8.71936,48.6399,0.0231733,0.0232548,-0.0339851,0.0571992,-0.010771,-0.785998,0.042184,0.044621,1343,1821,8.71932,-48.6399
126,-797,8.69189,48.2534,0,0,0,0,0,0,0,-1,1350,1821,8.69195,-48.2535
133,-797,9.16235,47.7649,0,0,0,0,0,0,0,-1,1357,1821,9.16235,-47.7648
140,-797,9.42712,47.2477,0,0,0,0,0,0,0,-1,1364,1821,9.42717,-47.2477
147,-797,9.67285,46.7201,0,0,0,0,0,0,0,-1,1371,1821,9.67281,-46.7201
154,-797,40.2623,8.88733,0,0,0,0,0,0,0,-1,1378,1821,40.2623,-8.88731
161,-797,42.2798,8.17371,0,0,0,0,0,0,0,-1,1385,1821,42.2798,-8.17367
168,-797,0,0,0,0,0,0,0,0,0,-1,1392,1821,0,0
175,-797,0,0,0,0,0,0,0,0,0,-1,1399,1821,0,0
182,-797,0,0,0,0,0,0,0,0,0,-1,1406,1821,0,0
189,-797,0,0,0,0,0,0,0,0,0,-1,1413,1821,0,0
196,-797,0,0,0,0,0,0,0,0,0,-1,1420,1821,0,0
203,-797,0,0,0,0,0,0,0,0,0,-1,1427,1821,0,0
210,-797,0,0,0,0,0,0,0,0,0,-1,1434,1821,0,0
217,-797,0,0,0,0,0,0,0,0,0,-1,1441,1821,0,0
224,-797,0,0,0,0,0,0,0,0,0,-1,1448,1821,0,0
231,-797,0,0,0,0,0,0,0,0,0,-1,1455,1821,0,0
238,-797,0,0,0,0,0,0,0,0,0,-1,1462,1821,0,0
245,-797,0,0,0,0,0,0,0,0,0,-1,1469,1821,0,0
252,-797,0,0,0,0,0,0,0,0,0,-1,1476,1821,0,0
259,-797,0,0,0,0,0,0,0,0,0,-1,1483,1821,0,0
266,-797,0,0,0,0,0,0,0,0,0,-1,1490,1821,0,0
273,-797,0,0,0,0,0,0,0,0,0,-1,1497,1821,0,0
280,-797,0,0,0,0,0,0,0,0,0,-1,1504,1821,0,0
287,-797,0,0,0,0,0,0,0,0,0,-1,1511,1821,0,0
294,-797,0,0,0,0,0,0,0,0,0,-1,1518,1821,0,0
301,-797,0,0,0,0,0,0,0,0,0,-1,1525,1821,0,0
308,-797,0,0,0,0,0,0,0,0,0,-1,1532,1821,0,0
315,-797,0,0,0,0,0,0,0,0,0,-1,1539,1821,0,0
322,-797,0,0,0,0,0,0,0,0,0,-1,1546,1821,0,0
329,-797,0,0,0,0,0,0,0,0,0,-1,1553,1821,0,0
336,-797,0,0,0,0,0,0,0,0,0,-1,1560,1821,0,0
343,-797,0,0,0,0,0,0,0,0,0,-1,1567,1821,0,0
350,-797,0,0,0,0,0,0,0,0,0,-1,1574,1821,0,0
357,-797,0,0,0,0,0,0,0,0,0,-1,1581,1821,0,0
364,-797,0,0,0,0,0,0,0,0,0,-1,1588,1821,0,0
371,-797,0,0,0,0,0,0,0,0,0,-1,1595,1821,0,0
378,-797,0,0,0,0,0,0,0,0,0,-1,1602,1821,0,0
385,-797,0,0,0,0,0,0,0,0,0,-1,1609,1821,0,0
392,-797,0,0,0,0,0,0,0,0,0,-1,1616,1821,0,0
399,-797,0,0,0,0,0,0,0,0,0,-1,1623,1821,0,0
406,-797,0,0,0,0,0,0,0,0,0,-1,1630,1821,0,0
413,-797,0,0,0,0,0,0,0,0,0,-1,1637,1821,0,0
420,-797,0,0,0,0,0,0,0,0,0,-1,1644,1821,0,0
427,-797,0,0,0,0,0,0,0,0,0,-1,1651,1821,0,0
434,-797,0,0,0,0,0,0,0,0,0,-1,1658,1821,0,0
441,-797,0,0,0,0,0,0,0,0,0,-1,1665,1821,0,0
448,-797,0,0,0,0,0,0,0,0,0,-1,1672,1821,0,0
455,-797,0,0,0,0,0,0,0,0,0,-1,1679,1821,0,0
462,-797,0,0,0,0,0,0,0,0,0,-1,1686,1821,0,0
469,-797,0,0,0,0,0,0,0,0,0,-1,1693,1821,0,0
476,-797,0,0,0,0,0,0,0,0,0,-1,1700,1821,0,0
483,-797,0,0,0,0,0,0,0,0,0,-1,1707,1821,0,0
490,-797,0,0,0,0,0,0,0,0,0,-1,1714,1821,0,0
497,-797,0,0,0,0,0,0,0,0,0,-1,1721,1821,0,0
504,-797,0,0,0,0,0,0,0,0,0,-1,1728,1821,0,0
511,-797,0,0,0,0,0,0,0,0,0,-1,1735,1821,0,0
518,-797,0,0,0,0,0,0,0,0,0,-1,1742,1821,0,0
525,-797,0,0,0,0,0,0,0,0,0,-1,1749,1821,0,0
532,-797,0,0,0,0,0,0,0,0,0,-1,1756,1821,0,0
539,-797,0,0,0,0,0,0,0,0,0,-1,1763,1821,0,0
546,-797,0,0,0,0,0,0,0,0,0,-1,1770,1821,0,0
553,-797,0,0,0,0,0,0,0,0,0,-1,1777,1821,0,0
560,-797,0,0,0,0,0,0,0,0,0,-1,1784,1821,0,0
567,-797,0,0,0,0,0,0,0,0,0,-1,1791,1821,0,0
574,-797,0,0,0,0,0,0,0,0,0,-1,1798,1821,0,0
581,-797,0,0,0,0,0,0,0,0,0,-1,1805,1821,0,0
588,-797,0,0,0,0,0,0,0,0,0,-1,1812,1821,0,0
595,-797,0,0,0,0,0,0,0,0,0,-1,1819,1821,0,0
602,-797,0,0,0,0,0,0,0,0,0,-1,1826,1821,0,0
609,-797,0,0,0,0,0,0,0,0,0,-1,1833,1821,0,0
616,-797,0,0,0,0,0,0,0,0,0,-1,1840,1821,0,0
623,-797,0,0,0,0,0,0,0,0,0,-1,1847,1821,0,0
630,-797,0,0,0,0,0,0,0,0,0,-1,1854,1821,0,0
637,-797,0,0,0,0,0,0,0,0,0,-1,1861,1821,0,0
644,-797,0,0,0,0,0,0,0,0,0,-1,1868,1821,0,0
651,-797,0,0,0,0,0,0,0,0,0,-1,1875,1821,0,0
658,-797,0,0,0,0,0,0,0,0,0,-1,1882,1821,0,0
665,-797,0,0,0,0,0,0,0,0,0,-1,1889,1821,0,0
672,-797,0,0,0,0,0,0,0,0,0,-1,1896,1821,0,0
679,-797,0,0,0,0,0,0,0,0,0,-1,1903,1821,0,0
686,-797,0,0,0,0,0,0,0,0,0,-1,1910,1821,0,0
693,-797,0,0,0,0,0,0,0,0,0,-1,1917,1821,0,0
700,-797,0,0,0,0,0,0,0,0,0,-1,1924,1821,0,0
707,-797,0,0,0,0,0,0,0,0,0,-1,1931,1821,0,0
714,-797,0,0,0,0,0,0,0,0,0,-1,1938,1821,0,0
721,-797,0,0,0,0,0,0,0,0,0,-1,1945,1821,0,0
728,-797,0,0,0,0,0,0,0,0,0,-1,1952,1821,0,0
735,-797,0,0,0,0,0,0,0,0,0,-1,1959,1821,0,0
742,-797,0,0,0,0,0,0,0,0,0,-1,1966,1821,0,0
749,-797,0,0,0,0,0,0,0,0,0,-1,1973,1821,0,0
756,-797,0,0,0,0,0,0,0,0,0,-1,1980,1821,0,0
763,-797,0,0,0,0,0,0,0,0,0,-1,1987,1821,0,0
770,-797,0,0,0,0,0,0,0,0,0,-1,1994,1821,0,0
777,-797,0,0,0,0,0,0,0,0,0,-1,2001,1821,0,0
784,-797,0,0,0,0,0,0,0,0,0,-1,2008,1821,0,0
791,-797,0,0,0,0,0,0,0,0,0,-1,2015,1821,0,0
798,-797,0,0,0,0,0,0,0,0,0,-1,2022,1821,0,0
805,-797,0,0,0,0,0,0,0,0,0,-1,2029,1821,0,0
812,-797,0,0,0,0,0,0,0,0,0,-1,2036,1821,0,0
-700,-804,0,0,0,0,0,0,0,0,0,-1,524,1828,0,0
-693,-804,0,0,0,0,0,0,0,0,0,-1,531,1828,0,0
-686,-804,0,0,0,0,0,0,0,0,0,-1,538,1828,0,0
-679,-804,0,0,0,0,0,0,0,0,0,-1,545,1828,0,0
-672,-804,0,0,0,0,0,0,0,0,0,-1,552,1828,0,0
-665,-804,0,0,0,0,0,0,0,0,0,-1,559,1828,0,0
-658,-804,0,0,0,0,0,0,0,0,0,-1,566,1828,0,0
-651,-804,0,0,0,0,0,0,0,0,0,-1,573,1828,0,0
-644,-804,0,0,0,0,0,0,0,0,0,-1,580,1828,0,0
-637,-804,0,0,0,0,0,0,0,0,0,-1,587,1828,0,0
-630,-804,0,0,0,0,0,0,0,0,0,-1,594,1828,0,0
-623,-804,0,0,0,0,0,0,0,0,0,-1,601,1828,0,0
-616,-804,0,0,0,0,0,0,0,0,0,-1,608,1828,0,0
-609,-804,0,0,0,0,0,0,0,0,0,-1,615,1828,0,0
-602,-804,0,0,0,0,0,0,0,0,0,-1,622,1828,0,0
-595,-804,0,0,0,0,0,0,0,0,0,-1,629,1828,0,0
-588,-804,0,0,0,0,0,0,0,0,0,-1,636,1828,0,0
-581,-804,0,0,0,0,0,0,0,0,0,-1,643,1828,0,0
-574,-804,0,0,0,0,0,0,0,0,0,-1,650,1828,0,0
-567,-804,0,0,0,0,0,0,0,0,0,-1,657,1828,0,0
-560,-804,0,0,0,0,0,0,0,0,0,-1,664,1828,0,0
-553,-804,0,0,0,0,0,0,0,0,0,-1,671,1828,0,0
-546,-804,0,0,0,0,0,0,0,0,0,-1,678,1828,0,0
-539,-804,0,0,0,0,0,0,0,0,0,-1,685,1828,0,0
-532,-804,0,0,0,0,0,0,0,0,0,-1,692,1828,0,0
-525,-804,0,0,0,0,0,0,0,0,0,-1,699,1828,0,0
-518,-804,0,0,0,0,0,0,0,0,0,-1,706,1828,0,0
-511,-804,0,0,0,0,0,0,0,0,0,-1,713,1828,0,0
-504,-804,0,0,0,0,0,0,0,0,0,-1,720,1828,0,0
-497,-804,0,0,0,0,0,0,0,0,0,-1,727,1828,0,0
-490,-804,0,0,0,0,0,0,0,0,0,-1,734,1828,0,0
-483,-804,0,0,0,0,0,0,0,0,0,-1,741,1828,0,0
-476,-804,0,0,0,0,0,0,0,0,0,-1,748,1828,0,0
-469,-804,0,0,0,0,0,0,0,0,0,-1,755,1828,0,0
-462,-804,0,0,0,0,0,0,0,0,0,-1,762,1828,0,0
-455,-804,0,0,0,0,0,0,0,0,0,-1,769,1828,0,0
-448,-804,0,0,0,0,0,0,0,0,0,-1,776,1828,0,0
-441,-804,0,0,0,0,0,0,0,0,0,-1,783,1828,0,0
-434,-804,0,0,0,0,0,0,0,0,0,-1,790,1828,0,0
-427,-804,0,0,0,0,0,0,0,0,0,-1,797,1828,0,0
-420,-804,0,0,0,0,0,0,0,0,0,-1,804,1828,0,0
-413,-804,0,0,0,0,0,0,0,0,0,-1,811,1828,0,0
-406,-804,0,0,0,0,0,0,0,0,0,-1,818,1828,0,0
-399,-804,0,0,0,0,0,0,0,0,0,-1,825,1828,0,0
-392,-804,0,0,0,0,0,0,0,0,0,-1,832,1828,0,0
-385,-804,0,0,0,0,0,0,0,0,0,-1,839,1828,0,0
-378,-804,0,0,0,0,0,0,0,0,0,-1,846,1828,0,0
-371,-804,0,0,0,0,0,0,0,0,0,-1,853,1828,0,0
-364,-804,0,0,0,0,0,0,0,0,0,-1,860,1828,0,0
-357,-804,0,0,0,0,0,0,0,0,0,-1,867,1828,0,0
-350,-804,0,0,0,0,0,0,0,0,0,-1,874,1828,0,0
-343,-804,0,0,0,0,0,0,0,0,0,-1,881,1828,0,0
-336,-804,0,0,0,0,0,0,0,0,0,-1,888,1828,0,0
-329,-804,0,0,0,0,0,0,0,0,0,-1,895,1828,0,0
-322,-804,0,0,0,0,0,0,0,0,0,-1,902,1828,0,0
-315,-804,0,0,0,0,0,0,0,0,0,-1,909,1828,0,0
-308,-804,0,0,0,0,0,0,0,0,0,-1,916,1828,0,0
-301,-804,0,0,0,0,0,0,0,0,0,-1,923,1828,0,0
-294,-804,0,0,0,0,0,0,0,0,0,-1,930,1828,0,0
-287,-804,0,0,0,0,0,0,0,0,0,-1,937,1828,0,0
-280,-804,0,0,0,0,0,0,0,0,0,-1,944,1828,0,0
-273,-804,0,0,0,0,0,0,0,0,0,-1,951,1828,0,0
-266,-804,0,0,0,0,0,0,0,0,0,-1,958,1828,0,0
-259,-804,0,0,0,0,0,0,0,0,0,-1,965,1828,0,0
-252,-804,0,0,0,0,0,0,0,0,0,-1,972,1828,0,0
-245,-804,0,0,0,0,0,0,0,0,0,-1,979,1828,0,0
-238,-804,0,0,0,0,0,0,0,0,0,-1,986,1828,0,0
-231,-804,0,0,0,0,0,0,0,0,0,-1,993,1828,0,0
-224,-804,0,0,0,0,0,0,0,0,0,-1,1000,1828,0,0
-217,-804,0,0,0,0,0,0,0,0,0,-1,1007,1828,0,0
-210,-804,0,0,0,0,0,0,0,0,0,-1,1014,1828,0,0
-203,-804,0,0,0,0,0,0,0,0,0,-1,1021,1828,0,0
-196,-804,0,0,0,0,0,0,0,0,0,-1,1028,1828,0,0
-189,-804,0,0,0,0,0,0,0,0,0,-1,1035,1828,0,0
-182,-804,0,0,0,0,0,0,0,0,0,-1,1042,1828,0,0
-175,-804,0,0,0,0,0,0,0,0,0,-1,1049,1828,0,0
-168,-804,0,0,0,0,0,0,0,0,0,-1,1056,1828,0,0
-161,-804,0,0,0,0,0,0,0,0,0,-1,1063,1828,0,0
-154,-804,0,0,0,0,0,0,0,0,0,-1,1070,1828,0,0
-147,-804,0,0,0,0,0,0,0,0,0,-1,1077,1828,0,0
-140,-804,0,0,0,0,0,0,0,0,0,-1,1084,1828,0,0
-133,-804,0,0,0,0,0,0,0,0,0,-1,1091,1828,0,0
-126,-804,0,0,0,0,0,0,0,0,0,-1,1098,1828,0,0
-119,-804,0,0,0,0,0,0,0,0,0,-1,1105,1828,0,0
-112,-804,0,0,0,0,0,0,0,0,0,-1,1112,1828,0,0
-105,-804,0,0,0,0,0,0,0,0,0,-1,1119,1828,0,0
-98,-804,0,0,0,0,0,0,0,0,0,-1,1126,1828,0,0
-91,-804,0,0,0,0,0,0,0,0,0,-1,1133,1828,0,0
-84,-804,0,0,0,0,0,0,0,0,0,-1,1140,1828,0,0
-77,-804,0,0,0,0,0,0,0,0,0,-1,1147,1828,0,0
-70,-804,0,0,0,0,0,0,0,0,0,-1,1154,1828,0,0
-63,-804,0,0,0,0,0,0,0,0,0,-1,1161,1828,0,0
-56,-804,0,0,0,0,0,0,0,0,0,-1,1168,1828,0,0
-49,-804,0,0,0,0,0,0,0,0,0,-1,1175,1828,0,0
-42,-804,0,0,0,0,0,0,0,0,0,-1,1182,1828,0,0
-35,-804,0,0,0,0,0,0,0,0,0,-1,1189,1828,0,0
-28,-804,0,0,0,0,0,0,0,0,0,-1,1196,1828,0,0
-21,-804,0,0,0,0,0,0,0,0,0,-1,1203,1828,0,0
-14,-804,0,0,0,0,0,0,0,0,0,-1,1210,1828,0,0
-7,-804,0,0,0,0,0,0,0,0,0,-1,1217,1828,0,0
0,-804,0,0,0,0,0,0,0,0,0,-1,1224,1828,0,0
7,-804,0,0,0,0,0,0,0,0,0,-1,1231,1828,0,0
14,-804,0,0,0,0,0,0,0,0,0,-1,1238,1828,0,0
21,-804,0,0,0,0,0,0,0,0,0,-1,1245,1828,0,0
28,-804,0,0,0,0,0,0,0,0,0,-1,1252,1828,0,0
35,-804,9.9679,46.4058,0.00622278,0.0897952,-0.0482996,0.111876,-0.0158576,-1.14201,0.0803926,0.0439626,1259,1828,9.96794,-46.4057
42,-804,9.44336,46.3419,0.0153612,0.0946847,-0.054014,0.122035,-0.0119887,-1.10208,0.0856328,0.0455976,1266,1828,9.44332,-46.3419
49,-804,9.17444,46.2655,0,0,0,0,0,0,0,-1,1273,1828,9.17444,-46.2654
56,-804,9.10254,46.2628,0.030552,0.0966997,-0.0534442,0.126476,0.000775509,-1.06248,0.0840602,0.0452282,1280,1828,9.10251,-46.2629
63,-804,9.37207,46.0598,0.0347294,0.0929953,-0.0512616,0.122824,0.00490071,-1.0438,0.080299,0.0427446,1287,1828,9.37201,-46.0598
70,-804,9.71497,45.7427,0.036173,0.0832963,-0.0470818,0.112383,0.0070863,-1.0174,0.0726752,0.0447423,1294,1828,9.715,-45.7427
77,-804,9.97424,45.3916,0.0370413,0.0730643,-0.0436081,0.102234,0.00787144,-0.981243,0.0656897,0.0466419,1301,1828,9.97428,-45.3916
84,-804,10.207,45.0448,0.0371457,0.0598135,-0.0402891,0.0903325,0.00662671,-0.922512,0.0581388,0.0452927,1308,1828,10.207,-45.0449
91,-804,0,0,0,0,0,0,0,0,0,-1,1315,1828,0,0
98,-804,0,0,0,0,0,0,0,0,0,-1,1322,1828,0,0
105,-804,0,0,0,0,0,0,0,0,0,-1,1329,1828,0,0
112,-804,0,0,0,0,0,0,0,0,0,-1,1336,1828,0,0
119,-804,0,0,0,0,0,0,0,0,0,-1,1343,1828,0,0
126,-804,0,0,0,0,0,0,0,0,0,-1,1350,1828,0,0
133,-804,0,0,0,0,0,0,0,0,0,-1,1357,1828,0,0
140,-804,0,0,0,0,0,0,0,0,0,-1,1364,1828,0,0
147,-804,0,0,0,0,0,0,0,0,0,-1,1371,1828,0,0
154,-804,0,0,0,0,0,0,0,0,0,-1,1378,1828,0,0
161,-804,0,0,0,0,0,0,0,0,0,-1,1385,1828,0,0
168,-804,0,0,0,0,0,0,0,0,0,-1,1392,1828,0,0
175,-804,0,0,0,0,0,0,0,0,0,-1,1399,1828,0,0
182,-804,0,0,0,0,0,0,0,0,0,-1,1406,1828,0,0
189,-804,0,0,0,0,0,0,0,0,0,-1,1413,1828,0,0
196,-804,0,0,0,0,0,0,0,0,0,-1,1420,1828,0,0
203,-804,0,0,0,0,0,0,0,0,0,-1,1427,1828,0,0
210,-804,0,0,0,0,0,0,0,0,0,-1,1434,1828,0,0
217,-804,0,0,0,0,0,0,0,0,0,-1,1441,1828,0,0
224,-804,0,0,0,0,0,0,0,0,0,-1,1448,1828,0,0
231,-804,0,0,0,0,0,0,0,0,0,-1,1455,1828,0,0
238,-804,0,0,0,0,0,0,0,0,0,-1,1462,1828,0,0
245,-804,0,0,0,0,0,0,0,0,0,-1,1469,1828,0,0
252,-804,0,0,0,0,0,0,0,0,0,-1,1476,1828,0,0
259,-804,0,0,0,0,0,0,0,0,0,-1,1483,1828,0,0
266,-804,0,0,0,0,0,0,0,0,0,-1,1490,1828,0,0
273,-804,0,0,0,0,0,0,0,0,0,-1,1497,1828,0,0
280,-804,0,0,0,0,0,0,0,0,0,-1,1504,1828,0,0
287,-804,0,0,0,0,0,0,0,0,0,-1,1511,1828,0,0
294,-804,0,0,0,0,0,0,0,0,0,-1,1518,1828,0,0
301,-804,0,0,0,0,0,0,0,0,0,-1,1525,1828,0,0
308,-804,0,0,0,0,0,0,0,0,0,-1,1532,1828,0,0
315,-804,0,0,0,0,0,0,0,0,0,-1,1539,1828,0,0
322,-804,0,0,0,0,0,0,0,0,0,-1,1546,1828,0,0
329,-804,0,0,0,0,0,0,0,0,0,-1,1553,1828,0,0
336,-804,0,0,0,0,0,0,0,0,0,-1,1560,1828,0,0
343,-804,0,0,0,0,0,0,0,0,0,-1,1567,1828,0,0
350,-804,0,0,0,0,0,0,0,0,0,-1,1574,1828,0,0
357,-804,0,0,0,0,0,0,0,0,0,-1,1581,1828,0,0
364,-804,0,0,0,0,0,0,0,0,0,-1,1588,1828,0,0
371,-804,0,0,0,0,0,0,0,0,0,-1,1595,1828,0,0
378,-804,0,0,0,0,0,0,0,0,0,-1,1602,1828,0,0
385,-804,0,0,0,0,0,0,0,0,0,-1,1609,1828,0,0
392,-804,0,0,0,0,0,0,0,0,0,-1,1616,1828,0,0
399,-804,0,0,0,0,0,0,0,0,0,-1,1623,1828,0,0
406,-804,0,0,0,0,0,0,0,0,0,-1,1630,1828,0,0
413,-804,0,0,0,0,0,0,0,0,0,-1,1637,1828,0,0
420,-804,0,0,0,0,0,0,0,0,0,-1,1644,1828,0,0
427,-804,0,0,0,0,0,0,0,0,0,-1,1651,1828,0,0
434,-804,0,0,0,0,0,0,0,0,0,-1,1658,1828,0,0
441,-804,0,0,0,0,0,0,0,0,0,-1,1665,1828,0,0
448,-804,0,0,0,0,0,0,0,0,0,-1,1672,1828,0,0
455,-804,0,0,0,0,0,0,0,0,0,-1,1679,1828,0,0
462,-804,0,0,0,0,0,0,0,0,0,-1,1686,1828,0,0
469,-804,0,0,0,0,0,0,0,0,0,-1,1693,1828,0,0
476,-804,0,0,0,0,0,0,0,0,0,-1,1700,1828,0,0
483,-804,0,0,0,0,0,0,0,0,0,-1,1707,1828,0,0
490,-804,0,0,0,0,0,0,0,0,0,-1,1714,1828,0,0
497,-804,0,0,0,0,0,0,0,0,0,-1,1721,1828,0,0
504,-804,0,0,0,0,0,0,0,0,0,-1,1728,1828,0,0
511,-804,0,0,0,0,0,0,0,0,0,-1,1735,1828,0,0
518,-804,0,0,0,0,0,0,0,0,0,-1,1742,1828,0,0
525,-804,0,0,0,0,0,0,0,0,0,-1,1749,1828,0,0
532,-804,0,0,0,0,0,0,0,0,0,-1,1756,1828,0,0
539,-804,0,0,0,0,0,0,0,0,0,-1,1763,1828,0,0
546,-804,0,0,0,0,0,0,0,0,0,-1,1770,1828,0,0
553,-804,0,0,0,0,0,0,0,0,0,-1,1777,1828,0,0
560,-804,0,0,0,0,0,0,0,0,0,-1,1784,1828,0,0
567,-804,0,0,0,0,0,0,0,0,0,-1,1791,1828,0,0
574,-804,0,0,0,0,0,0,0,0,0,-1,1798,1828,0,0
581,-804,0,0,0,0,0,0,0,0,0,-1,1805,1828,0,0
588,-804,0,0,0,0,0,0,0,0,0,-1,1812,1828,0,0
595,-804,0,0,0,0,0,0,0,0,0,-1,1819,1828,0,0
602,-804,0,0,0,0,0,0,0,0,0,-1,1826,1828,0,0
609,-804,0,0,0,0,0,0,0,0,0,-1,1833,1828,0,0
616,-804,0,0,0,0,0,0,0,0,0,-1,1840,1828,0,0
623,-804,0,0,0,0,0,0,0,0,0,-1,1847,1828,0,0
630,-804,0,0,0,0,0,0,0,0,0,-1,1854,1828,0,0
637,-804,0,0,0,0,0,0,0,0,0,-1,1861,1828,0,0
644,-804,0,0,0,0,0,0,0,0,0,-1,1868,1828,0,0
651,-804,0,0,0,0,0,0,0,0,0,-1,1875,1828,0,0
658,-804,0,0,0,0,0,0,0,0,0,-1,1882,1828,0,0
665,-804,0,0,0,0,0,0,0,0,0,-1,1889,1828,0,0
672,-804,0,0,0,0,0,0,0,0,0,-1,1896,1828,0,0
679,-804,0,0,0,0,0,0,0,0,0,-1,1903,1828,0,0
686,-804,0,0,0,0,0,0,0,0,0,-1,1910,1828,0,0
693,-804,0,0,0,0,0,0,0,0,0,-1,1917,1828,0,0
700,-804,0,0,0,0,0,0,0,0,0,-1,1924,1828,0,0
707,-804,0,0,0,0,0,0,0,0,0,-1,1931,1828,0,0
714,-804,0,0,0,0,0,0,0,0,0,-1,1938,1828,0,0
721,-804,0,0,0,0,0,0,0,0,0,-1,1945,1828,0,0
728,-804,0,0,0,0,0,0,0,0,0,-1,1952,1828,0,0
735,-804,0,0,0,0,0,0,0,0,0,-1,1959,1828,0,0
742,-804,0,0,0,0,0,0,0,0,0,-1,1966,1828,0,0
749,-804,0,0,0,0,0,0,0,0,0,-1,1973,1828,0,0
756,-804,0,0,0,0,0,0,0,0,0,-1,1980,1828,0,0
763,-804,0,0,0,0,0,0,0,0,0,-1,1987,1828,0,0
770,-804,0,0,0,0,0,0,0,0,0,-1,1994,1828,0,0
777,-804,0,0,0,0,0,0,0,0,0,-1,2001,1828,0,0
784,-804,0,0,0,0,0,0,0,0,0,-1,2008,1828,0,0
791,-804,0,0,0,0,0,0,0,0,0,-1,2015,1828,0,0
798,-804,0,0,0,0,0,0,0,0,0,-1,2022,1828,0,0
805,-804,0,0,0,0,0,0,0,0,0,-1,2029,1828,0,0
812,-804,0,0,0,0,0,0,0,0,0,-1,2036,1828,0,0

