 "x_c",  "y_c",  "u_c",  "v_c",  "exx",  "eyy",  "exy",  "e1",  "e2",  "gamma",  "e_vonmises",  "sigma",  "x",  "y",  "u",  "v"
-700,715,0,0,0,0,0,0,0,0,0,-1,524,309,0,0
-693,715,0,0,0,0,0,0,0,0,0,-1,531,309,0,0
-686,715,0,0,0,0,0,0,0,0,0,-1,538,309,0,0
-679,715,0,0,0,0,0,0,0,0,0,-1,545,309,0,0
-672,715,0,0,0,0,0,0,0,0,0,-1,552,309,0,0
-665,715,0,0,0,0,0,0,0,0,0,-1,559,309,0,0
-658,715,0,0,0,0,0,0,0,0,0,-1,566,309,0,0
-651,715,0,0,0,0,0,0,0,0,0,-1,573,309,0,0
-644,715,0,0,0,0,0,0,0,0,0,-1,580,309,0,0
-637,715,0,0,0,0,0,0,0,0,0,-1,587,309,0,0
-630,715,0,0,0,0,0,0,0,0,0,-1,594,309,0,0
-623,715,0,0,0,0,0,0,0,0,0,-1,601,309,0,0
-616,715,0,0,0,0,0,0,0,0,0,-1,608,309,0,0
-609,715,0,0,0,0,0,0,0,0,0,-1,615,309,0,0
-602,715,0,0,0,0,0,0,0,0,0,-1,622,309,0,0
-595,715,0,0,0,0,0,0,0,0,0,-1,629,309,0,0
-588,715,0,0,0,0,0,0,0,0,0,-1,636,309,0,0
-581,715,0,0,0,0,0,0,0,0,0,-1,643,309,0,0
-574,715,0,0,0,0,0,0,0,0,0,-1,650,309,0,0
-567,715,0,0,0,0,0,0,0,0,0,-1,657,309,0,0
-560,715,0,0,0,0,0,0,0,0,0,-1,664,309,0,0
-553,715,0,0,0,0,0,0,0,0,0,-1,671,309,0,0
-546,715,0,0,0,0,0,0,0,0,0,-1,678,309,0,0
-539,715,0,0,0,0,0,0,0,0,0,-1,685,309,0,0
-532,715,0,0,0,0,0,0,0,0,0,-1,692,309,0,0
-525,715,0,0,0,0,0,0,0,0,0,-1,699,309,0,0
-518,715,0,0,0,0,0,0,0,0,0,-1,706,309,0,0
-511,715,0,0,0,0,0,0,0,0,0,-1,713,309,0,0
-504,715,0,0,0,0,0,0,0,0,0,-1,720,309,0,0
-497,715,0,0,0,0,0,0,0,0,0,-1,727,309,0,0
-490,715,0,0,0,0,0,0,0,0,0,-1,734,309,0,0
-483,715,0,0,0,0,0,0,0,0,0,-1,741,309,0,0
-476,715,0,0,0,0,0,0,0,0,0,-1,748,309,0,0
-469,715,0,0,0,0,0,0,0,0,0,-1,755,309,0,0
-462,715,0,0,0,0,0,0,0,0,0,-1,762,309,0,0
-455,715,0,0,0,0,0,0,0,0,0,-1,769,309,0,0
-448,715,0,0,0,0,0,0,0,0,0,-1,776,309,0,0
-441,715,0,0,0,0,0,0,0,0,0,-1,783,309,0,0
-434,715,0,0,0,0,0,0,0,0,0,-1,790,309,0,0
-427,715,0,0,0,0,0,0,0,0,0,-1,797,309,0,0
-420,715,0,0,0,0,0,0,0,0,0,-1,804,309,0,0
-413,715,0,0,0,0,0,0,0,0,0,-1,811,309,0,0
-406,715,0,0,0,0,0,0,0,0,0,-1,818,309,0,0
-399,715,0,0,0,0,0,0,0,0,0,-1,825,309,0,0
-392,715,0,0,0,0,0,0,0,0,0,-1,832,309,0,0
-385,715,0,0,0,0,0,0,0,0,0,-1,839,309,0,0
-378,715,0,0,0,0,0,0,0,0,0,-1,846,309,0,0
-371,715,0,0,0,0,0,0,0,0,0,-1,853,309,0,0
-364,715,0,0,0,0,0,0,0,0,0,-1,860,309,0,0
-357,715,0,0,0,0,0,0,0,0,0,-1,867,309,0,0
-350,715,0,0,0,0,0,0,0,0,0,-1,874,309,0,0
-343,715,0,0,0,0,0,0,0,0,0,-1,881,309,0,0
-336,715,0,0,0,0,0,0,0,0,0,-1,888,309,0,0
-329,715,0,0,0,0,0,0,0,0,0,-1,895,309,0,0
-322,715,0,0,0,0,0,0,0,0,0,-1,902,309,0,0
-315,715,0,0,0,0,0,0,0,0,0,-1,909,309,0,0
-308,715,0,0,0,0,0,0,0,0,0,-1,916,309,0,0
-301,715,0,0,0,0,0,0,0,0,0,-1,923,309,0,0
-294,715,0,0,0,0,0,0,0,0,0,-1,930,309,0,0
-287,715,0,0,0,0,0,0,0,0,0,-1,937,309,0,0
-280,715,0,0,0,0,0,0,0,0,0,-1,944,309,0,0
-273,715,0,0,0,0,0,0,0,0,0,-1,951,309,0,0
-266,715,0,0,0,0,0,0,0,0,0,-1,958,309,0,0
-259,715,0,0,0,0,0,0,0,0,0,-1,965,309,0,0
-252,715,0,0,0,0,0,0,0,0,0,-1,972,309,0,0
-245,715,0,0,0,0,0,0,0,0,0,-1,979,309,0,0
-238,715,0,0,0,0,0,0,0,0,0,-1,986,309,0,0
-231,715,0,0,0,0,0,0,0,0,0,-1,993,309,0,0
-224,715,0,0,0,0,0,0,0,0,0,-1,1000,309,0,0
-217,715,0,0,0,0,0,0,0,0,0,-1,1007,309,0,0
-210,715,0,0,0,0,0,0,0,0,0,-1,1014,309,0,0
-203,715,0,0,0,0,0,0,0,0,0,-1,1021,309,0,0
-196,715,0,0,0,0,0,0,0,0,0,-1,1028,309,0,0
-189,715,0,0,0,0,0,0,0,0,0,-1,1035,309,0,0
-182,715,0,0,0,0,0,0,0,0,0,-1,1042,309,0,0
-175,715,0,0,0,0,0,0,0,0,0,-1,1049,309,0,0
-168,715,0,0,0,0,0,0,0,0,0,-1,1056,309,0,0
-161,715,0,0,0,0,0,0,0,0,0,-1,1063,309,0,0
-154,715,0,0,0,0,0,0,0,0,0,-1,1070,309,0,0
-147,715,0,0,0,0,0,0,0,0,0,-1,1077,309,0,0
-140,715,0,0,0,0,0,0,0,0,0,-1,1084,309,0,0
-133,715,0,0,0,0,0,0,0,0,0,-1,1091,309,0,0
-126,715,0,0,0,0,0,0,0,0,0,-1,1098,309,0,0
-119,715,0,0,0,0,0,0,0,0,0,-1,1105,309,0,0
-112,715,0,0,0,0,0,0,0,0,0,-1,1112,309,0,0
-105,715,0,0,0,0,0,0,0,0,0,-1,1119,309,0,0
-98,715,0,0,0,0,0,0,0,0,0,-1,1126,309,0,0
-91,715,0,0,0,0,0,0,0,0,0,-1,1133,309,0,0
-84,715,0,0,0,0,0,0,0,0,0,-1,1140,309,0,0
-77,715,0,0,0,0,0,0,0,0,0,-1,1147,309,0,0
-70,715,0,0,0,0,0,0,0,0,0,-1,1154,309,0,0
-63,715,0,0,0,0,0,0,0,0,0,-1,1161,309,0,0
-56,715,0,0,0,0,0,0,0,0,0,-1,1168,309,0,0
-49,715,0,0,0,0,0,0,0,0,0,-1,1175,309,0,0
-42,715,0,0,0,0,0,0,0,0,0,-1,1182,309,0,0
-35,715,0,0,0,0,0,0,0,0,0,-1,1189,309,0,0
-28,715,0,0,0,0,0,0,0,0,0,-1,1196,309,0,0
-21,715,0,0,0,0,0,0,0,0,0,-1,1203,309,0,0
-14,715,0,0,0,0,0,0,0,0,0,-1,1210,309,0,0
-7,715,0,0,0,0,0,0,0,0,0,-1,1217,309,0,0
0,715,0,0,0,0,0,0,0,0,0,-1,1224,309,0,0
7,715,0,0,0,0,0,0,0,0,0,-1,1231,309,0,0
14,715,0,0,0,0,0,0,0,0,0,-1,1238,309,0,0
21,715,0,0,0,0,0,0,0,0,0,-1,1245,309,0,0
28,715,0,0,0,0,0,0,0,0,0,-1,1252,309,0,0
35,715,0,0,0,0,0,0,0,0,0,-1,1259,309,0,0
42,715,0,0,0,0,0,0,0,0,0,-1,1266,309,0,0
49,715,0,0,0,0,0,0,0,0,0,-1,1273,309,0,0
56,715,0,0,0,0,0,0,0,0,0,-1,1280,309,0,0
63,715,8.30847,-41.2302,0,0,0,0,0,0,0,-1,1287,309,8.30852,41.2302
70,715,8.38672,-41.4025,0,0,0,0,0,0,0,-1,1294,309,8.38674,41.4025
77,715,0,0,0,0,0,0,0,0,0,-1,1301,309,0,0
84,715,0,0,0,0,0,0,0,0,0,-1,1308,309,0,0
91,715,0,0,0,0,0,0,0,0,0,-1,1315,309,0,0
98,715,0,0,0,0,0,0,0,0,0,-1,1322,309,0,0
105,715,0,0,0,0,0,0,0,0,0,-1,1329,309,0,0
112,715,0,0,0,0,0,0,0,0,0,-1,1336,309,0,0
119,715,0,0,0,0,0,0,0,0,0,-1,1343,309,0,0
126,715,0,0,0,0,0,0,0,0,0,-1,1350,309,0,0
133,715,0,0,0,0,0,0,0,0,0,-1,1357,309,0,0
140,715,0,0,0,0,0,0,0,0,0,-1,1364,309,0,0
147,715,0,0,0,0,0,0,0,0,0,-1,1371,309,0,0
154,715,0,0,0,0,0,0,0,0,0,-1,1378,309,0,0
161,715,0,0,0,0,0,0,0,0,0,-1,1385,309,0,0
168,715,0,0,0,0,0,0,0,0,0,-1,1392,309,0,0
175,715,0,0,0,0,0,0,0,0,0,-1,1399,309,0,0
182,715,0,0,0,0,0,0,0,0,0,-1,1406,309,0,0
189,715,0,0,0,0,0,0,0,0,0,-1,1413,309,0,0
196,715,0,0,0,0,0,0,0,0,0,-1,1420,309,0,0
203,715,0,0,0,0,0,0,0,0,0,-1,1427,309,0,0
210,715,0,0,0,0,0,0,0,0,0,-1,1434,309,0,0
217,715,0,0,0,0,0,0,0,0,0,-1,1441,309,0,0
224,715,0,0,0,0,0,0,0,0,0,-1,1448,309,0,0
231,715,0,0,0,0,0,0,0,0,0,-1,1455,309,0,0
238,715,0,0,0,0,0,0,0,0,0,-1,1462,309,0,0
245,715,0,0,0,0,0,0,0,0,0,-1,1469,309,0,0
252,715,0,0,0,0,0,0,0,0,0,-1,1476,309,0,0
259,715,0,0,0,0,0,0,0,0,0,-1,1483,309,0,0
266,715,0,0,0,0,0,0,0,0,0,-1,1490,309,0,0
273,715,0,0,0,0,0,0,0,0,0,-1,1497,309,0,0
280,715,0,0,0,0,0,0,0,0,0,-1,1504,309,0,0
287,715,0,0,0,0,0,0,0,0,0,-1,1511,309,0,0
294,715,0,0,0,0,0,0,0,0,0,-1,1518,309,0,0
301,715,0,0,0,0,0,0,0,0,0,-1,1525,309,0,0
308,715,0,0,0,0,0,0,0,0,0,-1,1532,309,0,0
315,715,0,0,0,0,0,0,0,0,0,-1,1539,309,0,0
322,715,0,0,0,0,0,0,0,0,0,-1,1546,309,0,0
329,715,0,0,0,0,0,0,0,0,0,-1,1553,309,0,0
336,715,0,0,0,0,0,0,0,0,0,-1,1560,309,0,0
343,715,0,0,0,0,0,0,0,0,0,-1,1567,309,0,0
350,715,0,0,0,0,0,0,0,0,0,-1,1574,309,0,0
357,715,0,0,0,0,0,0,0,0,0,-1,1581,309,0,0
364,715,0,0,0,0,0,0,0,0,0,-1,1588,309,0,0
371,715,0,0,0,0,0,0,0,0,0,-1,1595,309,0,0
378,715,0,0,0,0,0,0,0,0,0,-1,1602,309,0,0
385,715,0,0,0,0,0,0,0,0,0,-1,1609,309,0,0
392,715,0,0,0,0,0,0,0,0,0,-1,1616,309,0,0
399,715,0,0,0,0,0,0,0,0,0,-1,1623,309,0,0
406,715,0,0,0,0,0,0,0,0,0,-1,1630,309,0,0
413,715,0,0,0,0,0,0,0,0,0,-1,1637,309,0,0
420,715,0,0,0,0,0,0,0,0,0,-1,1644,309,0,0
427,715,0,0,0,0,0,0,0,0,0,-1,1651,309,0,0
434,715,0,0,0,0,0,0,0,0,0,-1,1658,309,0,0
441,715,0,0,0,0,0,0,0,0,0,-1,1665,309,0,0
448,715,0,0,0,0,0,0,0,0,0,-1,1672,309,0,0
455,715,0,0,0,0,0,0,0,0,0,-1,1679,309,0,0
462,715,0,0,0,0,0,0,0,0,0,-1,1686,309,0,0
469,715,0,0,0,0,0,0,0,0,0,-1,1693,309,0,0
476,715,0,0,0,0,0,0,0,0,0,-1,1700,309,0,0
483,715,0,0,0,0,0,0,0,0,0,-1,1707,309,0,0
490,715,0,0,0,0,0,0,0,0,0,-1,1714,309,0,0
497,715,0,0,0,0,0,0,0,0,0,-1,1721,309,0,0
504,715,0,0,0,0,0,0,0,0,0,-1,1728,309,0,0
511,715,0,0,0,0,0,0,0,0,0,-1,1735,309,0,0
518,715,0,0,0,0,0,0,0,0,0,-1,1742,309,0,0
525,715,0,0,0,0,0,0,0,0,0,-1,1749,309,0,0
532,715,0,0,0,0,0,0,0,0,0,-1,1756,309,0,0
539,715,0,0,0,0,0,0,0,0,0,-1,1763,309,0,0
546,715,0,0,0,0,0,0,0,0,0,-1,1770,309,0,0
553,715,0,0,0,0,0,0,0,0,0,-1,1777,309,0,0
560,715,0,0,0,0,0,0,0,0,0,-1,1784,309,0,0
567,715,0,0,0,0,0,0,0,0,0,-1,1791,309,0,0
574,715,0,0,0,0,0,0,0,0,0,-1,1798,309,0,0
581,715,0,0,0,0,0,0,0,0,0,-1,1805,309,0,0
588,715,0,0,0,0,0,0,0,0,0,-1,1812,309,0,0
595,715,0,0,0,0,0,0,0,0,0,-1,1819,309,0,0
602,715,0,0,0,0,0,0,0,0,0,-1,1826,309,0,0
609,715,0,0,0,0,0,0,0,0,0,-1,1833,309,0,0
616,715,0,0,0,0,0,0,0,0,0,-1,1840,309,0,0
623,715,0,0,0,0,0,0,0,0,0,-1,1847,309,0,0
630,715,0,0,0,0,0,0,0,0,0,-1,1854,309,0,0
637,715,0,0,0,0,0,0,0,0,0,-1,1861,309,0,0
644,715,0,0,0,0,0,0,0,0,0,-1,1868,309,0,0
651,715,0,0,0,0,0,0,0,0,0,-1,1875,309,0,0
658,715,0,0,0,0,0,0,0,0,0,-1,1882,309,0,0
665,715,0,0,0,0,0,0,0,0,0,-1,1889,309,0,0
672,715,0,0,0,0,0,0,0,0,0,-1,1896,309,0,0
679,715,0,0,0,0,0,0,0,0,0,-1,1903,309,0,0
686,715,0,0,0,0,0,0,0,0,0,-1,1910,309,0,0
693,715,0,0,0,0,0,0,0,0,0,-1,1917,309,0,0
700,715,0,0,0,0,0,0,0,0,0,-1,1924,309,0,0
707,715,0,0,0,0,0,0,0,0,0,-1,1931,309,0,0
714,715,0,0,0,0,0,0,0,0,0,-1,1938,309,0,0
721,715,0,0,0,0,0,0,0,0,0,-1,1945,309,0,0
728,715,0,0,0,0,0,0,0,0,0,-1,1952,309,0,0
735,715,0,0,0,0,0,0,0,0,0,-1,1959,309,0,0
742,715,0,0,0,0,0,0,0,0,0,-1,1966,309,0,0
749,715,0,0,0,0,0,0,0,0,0,-1,1973,309,0,0
756,715,0,0,0,0,0,0,0,0,0,-1,1980,309,0,0
763,715,0,0,0,0,0,0,0,0,0,-1,1987,309,0,0
770,715,0,0,0,0,0,0,0,0,0,-1,1994,309,0,0
777,715,0,0,0,0,0,0,0,0,0,-1,2001,309,0,0
784,715,0,0,0,0,0,0,0,0,0,-1,2008,309,0,0
791,715,0,0,0,0,0,0,0,0,0,-1,2015,309,0,0
798,715,0,0,0,0,0,0,0,0,0,-1,2022,309,0,0
805,715,0,0,0,0,0,0,0,0,0,-1,2029,309,0,0
812,715,0,0,0,0,0,0,0,0,0,-1,2036,309,0,0
-700,708,0,0,0,0,0,0,0,0,0,-1,524,316,0,0
-693,708,0,0,0,0,0,0,0,0,0,-1,531,316,0,0
-686,708,0,0,0,0,0,0,0,0,0,-1,538,316,0,0
-679,708,0,0,0,0,0,0,0,0,0,-1,545,316,0,0
-672,708,0,0,0,0,0,0,0,0,0,-1,552,316,0,0
-665,708,0,0,0,0,0,0,0,0,0,-1,559,316,0,0
-658,708,0,0,0,0,0,0,0,0,0,-1,566,316,0,0
-651,708,0,0,0,0,0,0,0,0,0,-1,573,316,0,0
-644,708,0,0,0,0,0,0,0,0,0,-1,580,316,0,0
-637,708,0,0,0,0,0,0,0,0,0,-1,587,316,0,0
-630,708,0,0,0,0,0,0,0,0,0,-1,594,316,0,0
-623,708,0,0,0,0,0,0,0,0,0,-1,601,316,0,0
-616,708,0,0,0,0,0,0,0,0,0,-1,608,316,0,0
-609,708,0,0,0,0,0,0,0,0,0,-1,615,316,0,0
-602,708,0,0,0,0,0,0,0,0,0,-1,622,316,0,0
-595,708,0,0,0,0,0,0,0,0,0,-1,629,316,0,0
-588,708,0,0,0,0,0,0,0,0,0,-1,636,316,0,0
-581,708,0,0,0,0,0,0,0,0,0,-1,643,316,0,0
-574,708,0,0,0,0,0,0,0,0,0,-1,650,316,0,0
-567,708,0,0,0,0,0,0,0,0,0,-1,657,316,0,0
-560,708,0,0,0,0,0,0,0,0,0,-1,664,316,0,0
-553,708,0,0,0,0,0,0,0,0,0,-1,671,316,0,0
-546,708,0,0,0,0,0,0,0,0,0,-1,678,316,0,0
-539,708,0,0,0,0,0,0,0,0,0,-1,685,316,0,0
-532,708,0,0,0,0,0,0,0,0,0,-1,692,316,0,0
-525,708,0,0,0,0,0,0,0,0,0,-1,699,316,0,0
-518,708,0,0,0,0,0,0,0,0,0,-1,706,316,0,0
-511,708,0,0,0,0,0,0,0,0,0,-1,713,316,0,0
-504,708,0,0,0,0,0,0,0,0,0,-1,720,316,0,0
-497,708,0,0,0,0,0,0,0,0,0,-1,727,316,0,0
-490,708,0,0,0,0,0,0,0,0,0,-1,734,316,0,0
-483,708,0,0,0,0,0,0,0,0,0,-1,741,316,0,0
-476,708,0,0,0,0,0,0,0,0,0,-1,748,316,0,0
-469,708,0,0,0,0,0,0,0,0,0,-1,755,316,0,0
-462,708,0,0,0,0,0,0,0,0,0,-1,762,316,0,0
-455,708,0,0,0,0,0,0,0,0,0,-1,769,316,0,0
-448,708,0,0,0,0,0,0,0,0,0,-1,776,316,0,0
-441,708,0,0,0,0,0,0,0,0,0,-1,783,316,0,0
-434,708,0,0,0,0,0,0,0,0,0,-1,790,316,0,0
-427,708,0,0,0,0,0,0,0,0,0,-1,797,316,0,0
-420,708,0,0,0,0,0,0,0,0,0,-1,804,316,0,0
-413,708,0,0,0,0,0,0,0,0,0,-1,811,316,0,0
-406,708,0,0,0,0,0,0,0,0,0,-1,818,316,0,0
-399,708,0,0,0,0,0,0,0,0,0,-1,825,316,0,0
-392,708,0,0,0,0,0,0,0,0,0,-1,832,316,0,0
-385,708,0,0,0,0,0,0,0,0,0,-1,839,316,0,0
-378,708,0,0,0,0,0,0,0,0,0,-1,846,316,0,0
-371,708,0,0,0,0,0,0,0,0,0,-1,853,316,0,0
-364,708,0,0,0,0,0,0,0,0,0,-1,860,316,0,0
-357,708,0,0,0,0,0,0,0,0,0,-1,867,316,0,0
-350,708,0,0,0,0,0,0,0,0,0,-1,874,316,0,0
-343,708,0,0,0,0,0,0,0,0,0,-1,881,316,0,0
-336,708,0,0,0,0,0,0,0,0,0,-1,888,316,0,0
-329,708,0,0,0,0,0,0,0,0,0,-1,895,316,0,0
-322,708,0,0,0,0,0,0,0,0,0,-1,902,316,0,0
-315,708,0,0,0,0,0,0,0,0,0,-1,909,316,0,0
-308,708,0,0,0,0,0,0,0,0,0,-1,916,316,0,0
-301,708,0,0,0,0,0,0,0,0,0,-1,923,316,0,0
-294,708,0,0,0,0,0,0,0,0,0,-1,930,316,0,0
-287,708,0,0,0,0,0,0,0,0,0,-1,937,316,0,0
-280,708,0,0,0,0,0,0,0,0,0,-1,944,316,0,0
-273,708,0,0,0,0,0,0,0,0,0,-1,951,316,0,0
-266,708,0,0,0,0,0,0,0,0,0,-1,958,316,0,0
-259,708,0,0,0,0,0,0,0,0,0,-1,965,316,0,0
-252,708,0,0,0,0,0,0,0,0,0,-1,972,316,0,0
-245,708,0,0,0,0,0,0,0,0,0,-1,979,316,0,0
-238,708,0,0,0,0,0,0,0,0,0,-1,986,316,0,0
-231,708,0,0,0,0,0,0,0,0,0,-1,993,316,0,0
-224,708,0,0,0,0,0,0,0,0,0,-1,1000,316,0,0
-217,708,0,0,0,0,0,0,0,0,0,-1,1007,316,0,0
-210,708,0,0,0,0,0,0,0,0,0,-1,1014,316,0,0
-203,708,0,0,0,0,0,0,0,0,0,-1,1021,316,0,0
-196,708,0,0,0,0,0,0,0,0,0,-1,1028,316,0,0
-189,708,0,0,0,0,0,0,0,0,0,-1,1035,316,0,0
-182,708,0,0,0,0,0,0,0,0,0,-1,1042,316,0,0
-175,708,0,0,0,0,0,0,0,0,0,-1,1049,316,0,0
-168,708,0,0,0,0,0,0,0,0,0,-1,1056,316,0,0
-161,708,0,0,0,0,0,0,0,0,0,-1,1063,316,0,0
-154,708,0,0,0,0,0,0,0,0,0,-1,1070,316,0,0
-147,708,0,0,0,0,0,0,0,0,0,-1,1077,316,0,0
-140,708,0,0,0,0,0,0,0,0,0,-1,1084,316,0,0
-133,708,0,0,0,0,0,0,0,0,0,-1,1091,316,0,0
-126,708,0,0,0,0,0,0,0,0,0,-1,1098,316,0,0
-119,708,0,0,0,0,0,0,0,0,0,-1,1105,316,0,0
-112,708,0,0,0,0,0,0,0,0,0,-1,1112,316,0,0
-105,708,0,0,0,0,0,0,0,0,0,-1,1119,316,0,0
-98,708,0,0,0,0,0,0,0,0,0,-1,1126,316,0,0
-91,708,0,0,0,0,0,0,0,0,0,-1,1133,316,0,0
-84,708,0,0,0,0,0,0,0,0,0,-1,1140,316,0,0
-77,708,0,0,0,0,0,0,0,0,0,-1,1147,316,0,0
-70,708,0,0,0,0,0,0,0,0,0,-1,1154,316,0,0
-63,708,0,0,0,0,0,0,0,0,0,-1,1161,316,0,0
-56,708,0,0,0,0,0,0,0,0,0,-1,1168,316,0,0
-49,708,0,0,0,0,0,0,0,0,0,-1,1175,316,0,0
-42,708,0,0,0,0,0,0,0,0,0,-1,1182,316,0,0
-35,708,-2.71204,-6.31558,0,0,0,0,0,0,0,-1,1189,316,-2.712,6.3156
-28,708,-2.92371,-5.53253,0,0,0,0,0,0,0,-1,1196,316,-2.92375,5.53254
-21,708,-0.417969,-24.5911,0,0,0,0,0,0,0,-1,1203,316,-0.418022,24.5911
-14,708,6.90906,-40.5268,0,0,0,0,0,0,0,-1,1210,316,6.90901,40.5268
-7,708,7.80627,-41.2392,0,0,0,0,0,0,0,-1,1217,316,7.80631,41.2392
0,708,9.13025,-42.1725,0,0,0,0,0,0,0,-1,1224,316,9.1303,42.1725
7,708,5.27637,-38.3592,0,0,0,0,0,0,0,-1,1231,316,5.27635,38.3592
14,708,5.76831,-38.2422,0.106961,0.0578633,0.0330813,0.123607,0.0412173,0.466193,0.0726723,0.0457024,1238,316,5.76829,38.2422
21,708,6.60889,-38.9989,0.0855905,0.0495712,0.0415494,0.112866,0.0222962,0.580895,0.0690226,0.0468476,1245,316,6.60891,38.9989
28,708,9.85608,-42.0331,0.0642375,0.0459493,0.0483851,0.104335,0.00585186,0.692006,0.0676904,0.0490335,1252,316,9.85612,42.0331
35,708,8.91516,-41.4297,0.0446527,0.0470832,0.053719,0.0996007,-0.0078648,0.796707,0.0691712,0.0469095,1259,316,8.91513,41.4297
42,708,7.93213,-40.911,0.0282347,0.0526062,0.0570146,0.0987228,-0.0178819,0.890679,0.0725145,0.0434568,1266,316,7.93213,40.911
49,708,6.97278,-40.3061,0.0162079,0.0622405,0.0549792,0.0988268,-0.0203784,0.983632,0.0736235,0.0420777,1273,316,6.97278,40.3061
56,708,5.88611,-39.5812,0.0137303,0.0832834,0.0451848,0.105525,-0.00851132,1.11338,0.0733519,0.0434123,1280,316,5.88608,39.5812
63,708,4.82629,-39.0261,0,0,0,0,0,0,0,-1,1287,316,4.8263,39.0261
70,708,5.18005,-36.5108,0,0,0,0,0,0,0,-1,1294,316,5.18006,36.5108
77,708,5.66357,-37.012,0,0,0,0,0,0,0,-1,1301,316,5.66356,37.012
84,708,5.75537,-36.4212,0,0,0,0,0,0,0,-1,1308,316,5.75535,36.4212
91,708,5.84717,-35.8304,0,0,0,0,0,0,0,-1,1315,316,5.84715,35.8304
98,708,4.66772,-35.7694,0.0476382,0.145976,-0.0104483,0.147074,0.0465403,-1.4661,0.0867995,0.0464636,1322,316,4.66769,35.7694
105,708,4.97717,-35.5037,0.0558326,0.14687,-0.0183106,0.150415,0.0522878,-1.37957,0.0881761,0.0453233,1329,316,4.97716,35.5037
112,708,6.91309,-39.7615,0.0585761,0.140305,-0.0214467,0.145591,0.0532901,-1.32914,0.085057,0.0466553,1336,316,6.91309,39.7615
119,708,6.69922,-39.1227,0.0561186,0.12487,-0.0208712,0.13071,0.0502787,-1.29797,0.076132,0.0472607,1343,316,6.69923,39.1227
126,708,6.43384,-38.6019,0,0,0,0,0,0,0,-1,1350,316,6.4338,38.6019
133,708,6.0863,-42.4435,0,0,0,0,0,0,0,-1,1357,316,6.08627,42.4435
140,708,0.190186,-31.9322,0,0,0,0,0,0,0,-1,1364,316,0.190191,31.9322
147,708,3.00623,-35.412,0,0,0,0,0,0,0,-1,1371,316,3.00623,35.412
154,708,0,0,0,0,0,0,0,0,0,-1,1378,316,0,0
161,708,0,0,0,0,0,0,0,0,0,-1,1385,316,0,0
168,708,0,0,0,0,0,0,0,0,0,-1,1392,316,0,0
175,708,0,0,0,0,0,0,0,0,0,-1,1399,316,0,0
182,708,0,0,0,0,0,0,0,0,0,-1,1406,316,0,0
189,708,0,0,0,0,0,0,0,0,0,-1,1413,316,0,0
196,708,0,0,0,0,0,0,0,0,0,-1,1420,316,0,0
203,708,0,0,0,0,0,0,0,0,0,-1,1427,316,0,0
210,708,0,0,0,0,0,0,0,0,0,-1,1434,316,0,0
217,708,0,0,0,0,0,0,0,0,0,-1,1441,316,0,0
224,708,0,0,0,0,0,0,0,0,0,-1,1448,316,0,0
231,708,0,0,0,0,0,0,0,0,0,-1,1455,316,0,0
238,708,0,0,0,0,0,0,0,0,0,-1,1462,316,0,0
245,708,0,0,0,0,0,0,0,0,0,-1,1469,316,0,0
252,708,0,0,0,0,0,0,0,0,0,-1,1476,316,0,0
259,708,0,0,0,0,0,0,0,0,0,-1,1483,316,0,0
266,708,0,0,0,0,0,0,0,0,0,-1,1490,316,0,0
273,708,0,0,0,0,0,0,0,0,0,-1,1497,316,0,0
280,708,0,0,0,0,0,0,0,0,0,-1,1504,316,0,0
287,708,0,0,0,0,0,0,0,0,0,-1,1511,316,0,0
294,708,0,0,0,0,0,0,0,0,0,-1,1518,316,0,0
301,708,0,0,0,0,0,0,0,0,0,-1,1525,316,0,0
308,708,0,0,0,0,0,0,0,0,0,-1,1532,316,0,0
315,708,0,0,0,0,0,0,0,0,0,-1,1539,316,0,0
322,708,0,0,0,0,0,0,0,0,0,-1,1546,316,0,0
329,708,0,0,0,0,0,0,0,0,0,-1,1553,316,0,0
336,708,0,0,0,0,0,0,0,0,0,-1,1560,316,0,0
343,708,0,0,0,0,0,0,0,0,0,-1,1567,316,0,0
350,708,0,0,0,0,0,0,0,0,0,-1,1574,316,0,0
357,708,0,0,0,0,0,0,0,0,0,-1,1581,316,0,0
364,708,0,0,0,0,0,0,0,0,0,-1,1588,316,0,0
371,708,0,0,0,0,0,0,0,0,0,-1,1595,316,0,0
378,708,0,0,0,0,0,0,0,0,0,-1,1602,316,0,0
385,708,0,0,0,0,0,0,0,0,0,-1,1609,316,0,0
392,708,0,0,0,0,0,0,0,0,0,-1,1616,316,0,0
399,708,0,0,0,0,0,0,0,0,0,-1,1623,316,0,0
406,708,0,0,0,0,0,0,0,0,0,-1,1630,316,0,0
413,708,0,0,0,0,0,0,0,0,0,-1,1637,316,0,0
420,708,0,0,0,0,0,0,0,0,0,-1,1644,316,0,0
427,708,0,0,0,0,0,0,0,0,0,-1,1651,316,0,0
434,708,0,0,0,0,0,0,0,0,0,-1,1658,316,0,0
441,708,0,0,0,0,0,0,0,0,0,-1,1665,316,0,0
448,708,0,0,0,0,0,0,0,0,0,-1,1672,316,0,0
455,708,0,0,0,0,0,0,0,0,0,-1,1679,316,0,0
462,708,0,0,0,0,0,0,0,0,0,-1,1686,316,0,0
469,708,0,0,0,0,0,0,0,0,0,-1,1693,316,0,0
476,708,0,0,0,0,0,0,0,0,0,-1,1700,316,0,0
483,708,0,0,0,0,0,0,0,0,0,-1,1707,316,0,0
490,708,0,0,0,0,0,0,0,0,0,-1,1714,316,0,0
497,708,0,0,0,0,0,0,0,0,0,-1,1721,316,0,0
504,708,0,0,0,0,0,0,0,0,0,-1,1728,316,0,0
511,708,0,0,0,0,0,0,0,0,0,-1,1735,316,0,0
518,708,0,0,0,0,0,0,0,0,0,-1,1742,316,0,0
525,708,0,0,0,0,0,0,0,0,0,-1,1749,316,0,0
532,708,0,0,0,0,0,0,0,0,0,-1,1756,316,0,0
539,708,0,0,0,0,0,0,0,0,0,-1,1763,316,0,0
546,708,0,0,0,0,0,0,0,0,0,-1,1770,316,0,0
553,708,0,0,0,0,0,0,0,0,0,-1,1777,316,0,0
560,708,0,0,0,0,0,0,0,0,0,-1,1784,316,0,0
567,708,0,0,0,0,0,0,0,0,0,-1,1791,316,0,0
574,708,0,0,0,0,0,0,0,0,0,-1,1798,316,0,0
581,708,0,0,0,0,0,0,0,0,0,-1,1805,316,0,0
588,708,0,0,0,0,0,0,0,0,0,-1,1812,316,0,0
595,708,0,0,0,0,0,0,0,0,0,-1,1819,316,0,0
602,708,0,0,0,0,0,0,0,0,0,-1,1826,316,0,0
609,708,0,0,0,0,0,0,0,0,0,-1,1833,316,0,0
616,708,0,0,0,0,0,0,0,0,0,-1,1840,316,0,0
623,708,0,0,0,0,0,0,0,0,0,-1,1847,316,0,0
630,708,0,0,0,0,0,0,0,0,0,-1,1854,316,0,0
637,708,0,0,0,0,0,0,0,0,0,-1,1861,316,0,0
644,708,0,0,0,0,0,0,0,0,0,-1,1868,316,0,0
651,708,0,0,0,0,0,0,0,0,0,-1,1875,316,0,0
658,708,0,0,0,0,0,0,0,0,0,-1,1882,316,0,0
665,708,0,0,0,0,0,0,0,0,0,-1,1889,316,0,0
672,708,0,0,0,0,0,0,0,0,0,-1,1896,316,0,0
679,708,0,0,0,0,0,0,0,0,0,-1,1903,316,0,0
686,708,0,0,0,0,0,0,0,0,0,-1,1910,316,0,0
693,708,0,0,0,0,0,0,0,0,0,-1,1917,316,0,0
700,708,0,0,0,0,0,0,0,0,0,-1,1924,316,0,0
707,708,0,0,0,0,0,0,0,0,0,-1,1931,316,0,0
714,708,0,0,0,0,0,0,0,0,0,-1,1938,316,0,0
721,708,0,0,0,0,0,0,0,0,0,-1,1945,316,0,0
728,708,0,0,0,0,0,0,0,0,0,-1,1952,316,0,0
735,708,0,0,0,0,0,0,0,0,0,-1,1959,316,0,0
742,708,0,0,0,0,0,0,0,0,0,-1,1966,316,0,0
749,708,0,0,0,0,0,0,0,0,0,-1,1973,316,0,0
756,708,0,0,0,0,0,0,0,0,0,-1,1980,316,0,0
763,708,0,0,0,0,0,0,0,0,0,-1,1987,316,0,0
770,708,0,0,0,0,0,0,0,0,0,-1,1994,316,0,0
777,708,0,0,0,0,0,0,0,0,0,-1,2001,316,0,0
784,708,0,0,0,0,0,0,0,0,0,-1,2008,316,0,0
791,708,0,0,0,0,0,0,0,0,0,-1,2015,316,0,0
798,708,0,0,0,0,0,0,0,0,0,-1,2022,316,0,0
805,708,0,0,0,0,0,0,0,0,0,-1,2029,316,0,0
812,708,0,0,0,0,0,0,0,0,0,-1,2036,316,0,0
-700,701,0,0,0,0,0,0,0,0,0,-1,524,323,0,0
-693,701,0,0,0,0,0,0,0,0,0,-1,531,323,0,0
-686,701,0,0,0,0,0,0,0,0,0,-1,538,323,0,0
-679,701,0,0,0,0,0,0,0,0,0,-1,545,323,0,0
-672,701,0,0,0,0,0,0,0,0,0,-1,552,323,0,0
-665,701,0,0,0,0,0,0,0,0,0,-1,559,323,0,0
-658,701,0,0,0,0,0,0,0,0,0,-1,566,323,0,0
-651,701,0,0,0,0,0,0,0,0,0,-1,573,323,0,0
-644,701,0,0,0,0,0,0,0,0,0,-1,580,323,0,0
-637,701,0,0,0,0,0,0,0,0,0,-1,587,323,0,0
-630,701,0,0,0,0,0,0,0,0,0,-1,594,323,0,0
-623,701,0,0,0,0,0,0,0,0,0,-1,601,323,0,0
-616,701,0,0,0,0,0,0,0,0,0,-1,608,323,0,0
-609,701,0,0,0,0,0,0,0,0,0,-1,615,323,0,0
-602,701,0,0,0,0,0,0,0,0,0,-1,622,323,0,0
-595,701,0,0,0,0,0,0,0,0,0,-1,629,323,0,0
-588,701,0,0,0,0,0,0,0,0,0,-1,636,323,0,0
-581,701,0,0,0,0,0,0,0,0,0,-1,643,323,0,0
-574,701,0,0,0,0,0,0,0,0,0,-1,650,323,0,0
-567,701,0,0,0,0,0,0,0,0,0,-1,657,323,0,0
-560,701,0,0,0,0,0,0,0,0,0,-1,664,323,0,0
-553,701,0,0,0,0,0,0,0,0,0,-1,671,323,0,0
-546,701,0,0,0,0,0,0,0,0,0,-1,678,323,0,0
-539,701,0,0,0,0,0,0,0,0,0,-1,685,323,0,0
-532,701,0,0,0,0,0,0,0,0,0,-1,692,323,0,0
-525,701,0,0,0,0,0,0,0,0,0,-1,699,323,0,0
-518,701,0,0,0,0,0,0,0,0,0,-1,706,323,0,0
-511,701,0,0,0,0,0,0,0,0,0,-1,713,323,0,0
-504,701,0,0,0,0,0,0,0,0,0,-1,720,323,0,0
-497,701,0,0,0,0,0,0,0,0,0,-1,727,323,0,0
-490,701,0,0,0,0,0,0,0,0,0,-1,734,323,0,0
-483,701,0,0,0,0,0,0,0,0,0,-1,741,323,0,0
-476,701,0,0,0,0,0,0,0,0,0,-1,748,323,0,0
-469,701,0,0,0,0,0,0,0,0,0,-1,755,323,0,0
-462,701,0,0,0,0,0,0,0,0,0,-1,762,323,0,0
-455,701,0,0,0,0,0,0,0,0,0,-1,769,323,0,0
-448,701,0,0,0,0,0,0,0,0,0,-1,776,323,0,0
-441,701,0,0,0,0,0,0,0,0,0,-1,783,323,0,0
-434,701,0,0,0,0,0,0,0,0,0,-1,790,323,0,0
-427,701,0,0,0,0,0,0,0,0,0,-1,797,323,0,0
-420,701,0,0,0,0,0,0,0,0,0,-1,804,323,0,0
-413,701,0,0,0,0,0,0,0,0,0,-1,811,323,0,0
-406,701,0,0,0,0,0,0,0,0,0,-1,818,323,0,0
-399,701,0,0,0,0,0,0,0,0,0,-1,825,323,0,0
-392,701,0,0,0,0,0,0,0,0,0,-1,832,323,0,0
-385,701,0,0,0,0,0,0,0,0,0,-1,839,323,0,0
-378,701,0,0,0,0,0,0,0,0,0,-1,846,323,0,0
-371,701,0,0,0,0,0,0,0,0,0,-1,853,323,0,0
-364,701,0,0,0,0,0,0,0,0,0,-1,860,323,0,0
-357,701,0,0,0,0,0,0,0,0,0,-1,867,323,0,0
-350,701,0,0,0,0,0,0,0,0,0,-1,874,323,0,0
-343,701,0,0,0,0,0,0,0,0,0,-1,881,323,0,0
-336,701,0,0,0,0,0,0,0,0,0,-1,888,323,0,0
-329,701,0,0,0,0,0,0,0,0,0,-1,895,323,0,0
-322,701,0,0,0,0,0,0,0,0,0,-1,902,323,0,0
-315,701,0,0,0,0,0,0,0,0,0,-1,909,323,0,0
-308,701,0,0,0,0,0,0,0,0,0,-1,916,323,0,0
-301,701,0,0,0,0,0,0,0,0,0,-1,923,323,0,0
-294,701,0,0,0,0,0,0,0,0,0,-1,930,323,0,0
-287,701,0,0,0,0,0,0,0,0,0,-1,937,323,0,0
-280,701,0,0,0,0,0,0,0,0,0,-1,944,323,0,0
-273,701,0,0,0,0,0,0,0,0,0,-1,951,323,0,0
-266,701,0,0,0,0,0,0,0,0,0,-1,958,323,0,0
-259,701,0,0,0,0,0,0,0,0,0,-1,965,323,0,0
-252,701,0,0,0,0,0,0,0,0,0,-1,972,323,0,0
-245,701,0,0,0,0,0,0,0,0,0,-1,979,323,0,0
-238,701,0,0,0,0,0,0,0,0,0,-1,986,323,0,0
-231,701,0,0,0,0,0,0,0,0,0,-1,993,323,0,0
-224,701,0,0,0,0,0,0,0,0,0,-1,1000,323,0,0
-217,701,0,0,0,0,0,0,0,0,0,-1,1007,323,0,0
-210,701,0,0,0,0,0,0,0,0,0,-1,1014,323,0,0
-203,701,0,0,0,0,0,0,0,0,0,-1,1021,323,0,0
-196,701,0,0,0,0,0,0,0,0,0,-1,1028,323,0,0
-189,701,0,0,0,0,0,0,0,0,0,-1,1035,323,0,0
-182,701,0,0,0,0,0,0,0,0,0,-1,1042,323,0,0
-175,701,0,0,0,0,0,0,0,0,0,-1,1049,323,0,0
-168,701,0,0,0,0,0,0,0,0,0,-1,1056,323,0,0
-161,701,0,0,0,0,0,0,0,0,0,-1,1063,323,0,0
-154,701,0,0,0,0,0,0,0,0,0,-1,1070,323,0,0
-147,701,0,0,0,0,0,0,0,0,0,-1,1077,323,0,0
-140,701,0,0,0,0,0,0,0,0,0,-1,1084,323,0,0
-133,701,0,0,0,0,0,0,0,0,0,-1,1091,323,0,0
-126,701,0,0,0,0,0,0,0,0,0,-1,1098,323,0,0
-119,701,0,0,0,0,0,0,0,0,0,-1,1105,323,0,0
-112,701,0,0,0,0,0,0,0,0,0,-1,1112,323,0,0
-105,701,0,0,0,0,0,0,0,0,0,-1,1119,323,0,0
-98,701,0,0,0,0,0,0,0,0,0,-1,1126,323,0,0
-91,701,0,0,0,0,0,0,0,0,0,-1,1133,323,0,0
-84,701,0,0,0,0,0,0,0,0,0,-1,1140,323,0,0
-77,701,0,0,0,0,0,0,0,0,0,-1,1147,323,0,0
-70,701,-12.7566,-30.413,0,0,0,0,0,0,0,-1,1154,323,-12.7566,30.413
-63,701,-18.3169,-21.2322,0,0,0,0,0,0,0,-1,1161,323,-18.3169,21.2322
-56,701,-0.420166,-0.101776,0,0,0,0,0,0,0,-1,1168,323,-0.420119,0.101777
-49,701,-1.09021,-0.155762,0,0,0,0,0,0,0,-1,1175,323,-1.09024,0.155768
-42,701,-0.210327,-0.299133,0,0,0,0,0,0,0,-1,1182,323,-0.210379,0.29914
-35,701,-2.9635,-7.98676,0,0,0,0,0,0,0,-1,1189,323,-2.9635,7.98676
-28,701,-6.64417,-5.4917,0,0,0,0,0,0,0,-1,1196,323,-6.64411,5.4917
-21,701,5.77478,-39.884,0,0,0,0,0,0,0,-1,1203,323,5.77475,39.884
-14,701,6.76697,-40.3613,0,0,0,0,0,0,0,-1,1210,323,6.76697,40.3613
-7,701,7.86108,-40.8187,0,0,0,0,0,0,0,-1,1217,323,7.86112,40.8187
0,701,4.80164,-39.4579,0,0,0,0,0,0,0,-1,1224,323,4.8016,39.4579
7,701,5.26111,-39.1331,0.0907563,0.0637821,0.023109,0.104026,0.0505124,0.52125,0.0600678,0.0459716,1231,323,5.26115,39.1332
14,701,5.70923,-38.9045,0.0766539,0.0557279,0.0287961,0.0968289,0.0355529,0.61114,0.0565579,0.0460496,1238,323,5.70922,38.9045
21,701,6.12256,-39.2396,0.0617363,0.0501243,0.0344796,0.0908954,0.0209652,0.701986,0.054958,0.0484294,1245,323,6.12252,39.2396
28,701,6.63428,-39.5836,0.0465259,0.0478365,0.0392164,0.0864031,0.00795925,0.793752,0.0551408,0.0476475,1252,323,6.63429,39.5836
35,701,9.46887,-42.3192,0.0325741,0.0493121,0.0430887,0.084837,-0.00295075,0.881317,0.0575668,0.0440999,1259,323,9.46891,42.3192
42,701,8.42175,-41.993,0.020901,0.0542603,0.0456353,0.0861686,-0.0110074,0.960606,0.0614444,0.0457387,1266,323,8.42178,41.993
49,701,5.52197,-40.2018,0.012019,0.0625056,0.0442801,0.0882324,-0.0137079,1.04446,0.063883,0.0439896,1273,323,5.52194,40.2018
56,701,5.73877,-39.6543,0.00960682,0.0802789,0.0373393,0.0963515,-0.00646586,1.16432,0.0664945,0.0449546,1280,323,5.73873,39.6543
63,701,5.57678,-39.0461,0,0,0,0,0,0,0,-1,1287,323,5.57682,39.0461
70,701,5.26807,-37.357,0.0108828,0.0983763,0.0265918,0.105824,0.00343477,1.29771,0.0694329,0.0452579,1294,323,5.26812,37.357
77,701,4.9989,-37.4107,0.0110432,0.109942,0.0203045,0.113949,0.00703693,1.37599,0.0737322,0.0478344,1301,323,4.99896,37.4107
84,701,5.58716,-37.3353,0.0134014,0.122262,0.0105195,0.123269,0.0123942,1.47534,0.0783752,0.0462638,1308,323,5.58718,37.3353
91,701,5.6377,-36.9694,0.0212583,0.128516,0.00254912,0.128577,0.0211978,1.54705,0.0795984,0.0447922,1315,323,5.63774,36.9694
98,701,5.6355,-36.7258,0.0299016,0.131527,-0.00487133,0.13176,0.0296686,-1.52301,0.07981,0.0431061,1322,323,5.63544,36.7258
105,701,5.63306,-36.4738,0.0344044,0.131251,-0.0110361,0.132493,0.0331627,-1.45876,0.0796112,0.045226,1329,323,5.63302,36.4739
112,701,6.03467,-39.8969,0.0350611,0.125777,-0.0141369,0.127929,0.0329091,-1.41973,0.0767066,0.0462153,1336,323,6.03464,39.8969
119,701,5.8678,-39.3596,0.032333,0.114111,-0.0147107,0.116677,0.0297672,-1.39812,0.0700046,0.0462125,1343,323,5.86776,39.3596
126,701,4.52332,-39.7575,0,0,0,0,0,0,0,-1,1350,323,4.52329,39.7575
133,701,3.59717,-37.0651,0,0,0,0,0,0,0,-1,1357,323,3.59712,37.0651
140,701,7.55957,-42.1592,0,0,0,0,0,0,0,-1,1364,323,7.55952,42.1592
147,701,3.81213,-37.8745,0,0,0,0,0,0,0,-1,1371,323,3.81218,37.8746
154,701,3.59387,-36.0523,0,0,0,0,0,0,0,-1,1378,323,3.59391,36.0523
161,701,4.09717,-35.8294,0,0,0,0,0,0,0,-1,1385,323,4.09715,35.8294
168,701,30.7272,1.76184,0,0,0,0,0,0,0,-1,1392,323,30.7272,-1.76184
175,701,31.5035,2.25711,0,0,0,0,0,0,0,-1,1399,323,31.5036,-2.25712
182,701,8.80652,5.42807,0,0,0,0,0,0,0,-1,1406,323,8.8065,-5.42808
189,701,8.58081,4.24493,0,0,0,0,0,0,0,-1,1413,323,8.58082,-4.24494
196,701,0,0,0,0,0,0,0,0,0,-1,1420,323,0,0
203,701,0,0,0,0,0,0,0,0,0,-1,1427,323,0,0
210,701,0,0,0,0,0,0,0,0,0,-1,1434,323,0,0
217,701,0,0,0,0,0,0,0,0,0,-1,1441,323,0,0
224,701,0,0,0,0,0,0,0,0,0,-1,1448,323,0,0
231,701,0,0,0,0,0,0,0,0,0,-1,1455,323,0,0
238,701,0,0,0,0,0,0,0,0,0,-1,1462,323,0,0
245,701,0,0,0,0,0,0,0,0,0,-1,1469,323,0,0
252,701,0,0,0,0,0,0,0,0,0,-1,1476,323,0,0
259,701,0,0,0,0,0,0,0,0,0,-1,1483,323,0,0
266,701,0,0,0,0,0,0,0,0,0,-1,1490,323,0,0
273,701,0,0,0,0,0,0,0,0,0,-1,1497,323,0,0
280,701,0,0,0,0,0,0,0,0,0,-1,1504,323,0,0
287,701,0,0,0,0,0,0,0,0,0,-1,1511,323,0,0
294,701,0,0,0,0,0,0,0,0,0,-1,1518,323,0,0
301,701,0,0,0,0,0,0,0,0,0,-1,1525,323,0,0
308,701,0,0,0,0,0,0,0,0,0,-1,1532,323,0,0
315,701,0,0,0,0,0,0,0,0,0,-1,1539,323,0,0
322,701,0,0,0,0,0,0,0,0,0,-1,1546,323,0,0
329,701,0,0,0,0,0,0,0,0,0,-1,1553,323,0,0
336,701,0,0,0,0,0,0,0,0,0,-1,1560,323,0,0
343,701,0,0,0,0,0,0,0,0,0,-1,1567,323,0,0
350,701,0,0,0,0,0,0,0,0,0,-1,1574,323,0,0
357,701,0,0,0,0,0,0,0,0,0,-1,1581,323,0,0
364,701,0,0,0,0,0,0,0,0,0,-1,1588,323,0,0
371,701,0,0,0,0,0,0,0,0,0,-1,1595,323,0,0
378,701,0,0,0,0,0,0,0,0,0,-1,1602,323,0,0
385,701,0,0,0,0,0,0,0,0,0,-1,1609,323,0,0
392,701,0,0,0,0,0,0,0,0,0,-1,1616,323,0,0
399,701,0,0,0,0,0,0,0,0,0,-1,1623,323,0,0
406,701,0,0,0,0,0,0,0,0,0,-1,1630,323,0,0
413,701,0,0,0,0,0,0,0,0,0,-1,1637,323,0,0
420,701,0,0,0,0,0,0,0,0,0,-1,1644,323,0,0
427,701,0,0,0,0,0,0,0,0,0,-1,1651,323,0,0
434,701,0,0,0,0,0,0,0,0,0,-1,1658,323,0,0
441,701,0,0,0,0,0,0,0,0,0,-1,1665,323,0,0
448,701,0,0,0,0,0,0,0,0,0,-1,1672,323,0,0
455,701,0,0,0,0,0,0,0,0,0,-1,1679,323,0,0
462,701,0,0,0,0,0,0,0,0,0,-1,1686,323,0,0
469,701,0,0,0,0,0,0,0,0,0,-1,1693,323,0,0
476,701,0,0,0,0,0,0,0,0,0,-1,1700,323,0,0
483,701,0,0,0,0,0,0,0,0,0,-1,1707,323,0,0
490,701,0,0,0,0,0,0,0,0,0,-1,1714,323,0,0
497,701,0,0,0,0,0,0,0,0,0,-1,1721,323,0,0
504,701,0,0,0,0,0,0,0,0,0,-1,1728,323,0,0
511,701,0,0,0,0,0,0,0,0,0,-1,1735,323,0,0
518,701,0,0,0,0,0,0,0,0,0,-1,1742,323,0,0
525,701,0,0,0,0,0,0,0,0,0,-1,1749,323,0,0
532,701,0,0,0,0,0,0,0,0,0,-1,1756,323,0,0
539,701,0,0,0,0,0,0,0,0,0,-1,1763,323,0,0
546,701,0,0,0,0,0,0,0,0,0,-1,1770,323,0,0
553,701,0,0,0,0,0,0,0,0,0,-1,1777,323,0,0
560,701,0,0,0,0,0,0,0,0,0,-1,1784,323,0,0
567,701,0,0,0,0,0,0,0,0,0,-1,1791,323,0,0
574,701,0,0,0,0,0,0,0,0,0,-1,1798,323,0,0
581,701,0,0,0,0,0,0,0,0,0,-1,1805,323,0,0
588,701,0,0,0,0,0,0,0,0,0,-1,1812,323,0,0
595,701,0,0,0,0,0,0,0,0,0,-1,1819,323,0,0
602,701,0,0,0,0,0,0,0,0,0,-1,1826,323,0,0
609,701,0,0,0,0,0,0,0,0,0,-1,1833,323,0,0
616,701,0,0,0,0,0,0,0,0,0,-1,1840,323,0,0
623,701,0,0,0,0,0,0,0,0,0,-1,1847,323,0,0
630,701,0,0,0,0,0,0,0,0,0,-1,1854,323,0,0
637,701,0,0,0,0,0,0,0,0,0,-1,1861,323,0,0
644,701,0,0,0,0,0,0,0,0,0,-1,1868,323,0,0
651,701,0,0,0,0,0,0,0,0,0,-1,1875,323,0,0
658,701,0,0,0,0,0,0,0,0,0,-1,1882,323,0,0
665,701,0,0,0,0,0,0,0,0,0,-1,1889,323,0,0
672,701,0,0,0,0,0,0,0,0,0,-1,1896,323,0,0
679,701,0,0,0,0,0,0,0,0,0,-1,1903,323,0,0
686,701,0,0,0,0,0,0,0,0,0,-1,1910,323,0,0
693,701,0,0,0,0,0,0,0,0,0,-1,1917,323,0,0
700,701,0,0,0,0,0,0,0,0,0,-1,1924,323,0,0
707,701,0,0,0,0,0,0,0,0,0,-1,1931,323,0,0
714,701,0,0,0,0,0,0,0,0,0,-1,1938,323,0,0
721,701,0,0,0,0,0,0,0,0,0,-1,1945,323,0,0
728,701,0,0,0,0,0,0,0,0,0,-1,1952,323,0,0
735,701,0,0,0,0,0,0,0,0,0,-1,1959,323,0,0
742,701,0,0,0,0,0,0,0,0,0,-1,1966,323,0,0
749,701,0,0,0,0,0,0,0,0,0,-1,1973,323,0,0
756,701,0,0,0,0,0,0,0,0,0,-1,1980,323,0,0
763,701,0,0,0,0,0,0,0,0,0,-1,1987,323,0,0
770,701,0,0,0,0,0,0,0,0,0,-1,1994,323,0,0
777,701,0,0,0,0,0,0,0,0,0,-1,2001,323,0,0
784,701,0,0,0,0,0,0,0,0,0,-1,2008,323,0,0
791,701,0,0,0,0,0,0,0,0,0,-1,2015,323,0,0
798,701,0,0,0,0,0,0,0,0,0,-1,2022,323,0,0
805,701,0,0,0,0,0,0,0,0,0,-1,2029,323,0,0
812,701,0,0,0,0,0,0,0,0,0,-1,2036,323,0,0
-700,694,0,0,0,0,0,0,0,0,0,-1,524,330,0,0
-693,694,0,0,0,0,0,0,0,0,0,-1,531,330,0,0
-686,694,0,0,0,0,0,0,0,0,0,-1,538,330,0,0
-679,694,0,0,0,0,0,0,0,0,0,-1,545,330,0,0
-672,694,0,0,0,0,0,0,0,0,0,-1,552,330,0,0
-665,694,0,0,0,0,0,0,0,0,0,-1,559,330,0,0
-658,694,0,0,0,0,0,0,0,0,0,-1,566,330,0,0
-651,694,0,0,0,0,0,0,0,0,0,-1,573,330,0,0
-644,694,0,0,0,0,0,0,0,0,0,-1,580,330,0,0
-637,694,0,0,0,0,0,0,0,0,0,-1,587,330,0,0
-630,694,0,0,0,0,0,0,0,0,0,-1,594,330,0,0
-623,694,0,0,0,0,0,0,0,0,0,-1,601,330,0,0
-616,694,0,0,0,0,0,0,0,0,0,-1,608,330,0,0
-609,694,0,0,0,0,0,0,0,0,0,-1,615,330,0,0
-602,694,0,0,0,0,0,0,0,0,0,-1,622,330,0,0
-595,694,0,0,0,0,0,0,0,0,0,-1,629,330,0,0
-588,694,0,0,0,0,0,0,0,0,0,-1,636,330,0,0
-581,694,0,0,0,0,0,0,0,0,0,-1,643,330,0,0
-574,694,0,0,0,0,0,0,0,0,0,-1,650,330,0,0
-567,694,0,0,0,0,0,0,0,0,0,-1,657,330,0,0
-560,694,0,0,0,0,0,0,0,0,0,-1,664,330,0,0
-553,694,0,0,0,0,0,0,0,0,0,-1,671,330,0,0
-546,694,0,0,0,0,0,0,0,0,0,-1,678,330,0,0
-539,694,0,0,0,0,0,0,0,0,0,-1,685,330,0,0
-532,694,0,0,0,0,0,0,0,0,0,-1,692,330,0,0
-525,694,0,0,0,0,0,0,0,0,0,-1,699,330,0,0
-518,694,0,0,0,0,0,0,0,0,0,-1,706,330,0,0
-511,694,0,0,0,0,0,0,0,0,0,-1,713,330,0,0
-504,694,0,0,0,0,0,0,0,0,0,-1,720,330,0,0
-497,694,0,0,0,0,0,0,0,0,0,-1,727,330,0,0
-490,694,0,0,0,0,0,0,0,0,0,-1,734,330,0,0
-483,694,0,0,0,0,0,0,0,0,0,-1,741,330,0,0
-476,694,0,0,0,0,0,0,0,0,0,-1,748,330,0,0
-469,694,0,0,0,0,0,0,0,0,0,-1,755,330,0,0
-462,694,0,0,0,0,0,0,0,0,0,-1,762,330,0,0
-455,694,0,0,0,0,0,0,0,0,0,-1,769,330,0,0
-448,694,0,0,0,0,0,0,0,0,0,-1,776,330,0,0
-441,694,0,0,0,0,0,0,0,0,0,-1,783,330,0,0
-434,694,0,0,0,0,0,0,0,0,0,-1,790,330,0,0
-427,694,0,0,0,0,0,0,0,0,0,-1,797,330,0,0
-420,694,0,0,0,0,0,0,0,0,0,-1,804,330,0,0
-413,694,0,0,0,0,0,0,0,0,0,-1,811,330,0,0
-406,694,0,0,0,0,0,0,0,0,0,-1,818,330,0,0
-399,694,0,0,0,0,0,0,0,0,0,-1,825,330,0,0
-392,694,0,0,0,0,0,0,0,0,0,-1,832,330,0,0
-385,694,0,0,0,0,0,0,0,0,0,-1,839,330,0,0
-378,694,0,0,0,0,0,0,0,0,0,-1,846,330,0,0
-371,694,0,0,0,0,0,0,0,0,0,-1,853,330,0,0
-364,694,0,0,0,0,0,0,0,0,0,-1,860,330,0,0
-357,694,0,0,0,0,0,0,0,0,0,-1,867,330,0,0
-350,694,0,0,0,0,0,0,0,0,0,-1,874,330,0,0
-343,694,0,0,0,0,0,0,0,0,0,-1,881,330,0,0
-336,694,0,0,0,0,0,0,0,0,0,-1,888,330,0,0
-329,694,0,0,0,0,0,0,0,0,0,-1,895,330,0,0
-322,694,0,0,0,0,0,0,0,0,0,-1,902,330,0,0
-315,694,0,0,0,0,0,0,0,0,0,-1,909,330,0,0
-308,694,0,0,0,0,0,0,0,0,0,-1,916,330,0,0
-301,694,0,0,0,0,0,0,0,0,0,-1,923,330,0,0
-294,694,0,0,0,0,0,0,0,0,0,-1,930,330,0,0
-287,694,0,0,0,0,0,0,0,0,0,-1,937,330,0,0
-280,694,0,0,0,0,0,0,0,0,0,-1,944,330,0,0
-273,694,0,0,0,0,0,0,0,0,0,-1,951,330,0,0
-266,694,0,0,0,0,0,0,0,0,0,-1,958,330,0,0
-259,694,0,0,0,0,0,0,0,0,0,-1,965,330,0,0
-252,694,0,0,0,0,0,0,0,0,0,-1,972,330,0,0
-245,694,0,0,0,0,0,0,0,0,0,-1,979,330,0,0
-238,694,0,0,0,0,0,0,0,0,0,-1,986,330,0,0
-231,694,0,0,0,0,0,0,0,0,0,-1,993,330,0,0
-224,694,0,0,0,0,0,0,0,0,0,-1,1000,330,0,0
-217,694,0,0,0,0,0,0,0,0,0,-1,1007,330,0,0
-210,694,0,0,0,0,0,0,0,0,0,-1,1014,330,0,0
-203,694,0,0,0,0,0,0,0,0,0,-1,1021,330,0,0
-196,694,0,0,0,0,0,0,0,0,0,-1,1028,330,0,0
-189,694,0,0,0,0,0,0,0,0,0,-1,1035,330,0,0
-182,694,0,0,0,0,0,0,0,0,0,-1,1042,330,0,0
-175,694,0,0,0,0,0,0,0,0,0,-1,1049,330,0,0
-168,694,0,0,0,0,0,0,0,0,0,-1,1056,330,0,0
-161,694,0,0,0,0,0,0,0,0,0,-1,1063,330,0,0
-154,694,0,0,0,0,0,0,0,0,0,-1,1070,330,0,0
-147,694,0,0,0,0,0,0,0,0,0,-1,1077,330,0,0
-140,694,0,0,0,0,0,0,0,0,0,-1,1084,330,0,0
-133,694,0,0,0,0,0,0,0,0,0,-1,1091,330,0,0
-126,694,0,0,0,0,0,0,0,0,0,-1,1098,330,0,0
-119,694,0,0,0,0,0,0,0,0,0,-1,1105,330,0,0
-112,694,0,0,0,0,0,0,0,0,0,-1,1112,330,0,0
-105,694,2.5188,-19.3963,0,0,0,0,0,0,0,-1,1119,330,2.51882,19.3963
-98,694,1.34875,-10.1051,0,0,0,0,0,0,0,-1,1126,330,1.34874,10.1051
-91,694,6.62366,-46.8039,0,0,0,0,0,0,0,-1,1133,330,6.62363,46.8039
-84,694,0.0577393,-40.8823,0,0,0,0,0,0,0,-1,1140,330,0.0577026,40.8823
-77,694,-5.51379,-31.2714,0,0,0,0,0,0,0,-1,1147,330,-5.51383,31.2714
-70,694,-11.9945,-25.5143,0,0,0,0,0,0,0,-1,1154,330,-11.9945,25.5143
-63,694,-18.4752,-19.7572,0,0,0,0,0,0,0,-1,1161,330,-18.4752,19.7572
-56,694,-6.50623,-0.649139,0,0,0,0,0,0,0,-1,1168,330,-6.5062,0.649126
-49,694,-1.11426,0.0341797,0,0,0,0,0,0,0,-1,1175,330,-1.11424,-0.0341846
-42,694,-0.346313,-0.709595,0,0,0,0,0,0,0,-1,1182,330,-0.346298,0.709581
-35,694,-0.459106,-1.24713,0,0,0,0,0,0,0,-1,1189,330,-0.459142,1.24714
-28,694,-6.48413,-3.95972,0,0,0,0,0,0,0,-1,1196,330,-6.48414,3.9597
-21,694,5.77185,-39.7137,0,0,0,0,0,0,0,-1,1203,330,5.77182,39.7137
-14,694,6.5802,-40.1691,0,0,0,0,0,0,0,-1,1210,330,6.58024,40.1691
-7,694,6.29187,-39.5312,0,0,0,0,0,0,0,-1,1217,330,6.29183,39.5312
0,694,4.67261,-40.1317,0,0,0,0,0,0,0,-1,1224,330,4.67256,40.1317
7,694,5.15955,-39.941,0,0,0,0,0,0,0,-1,1231,330,5.15959,39.941
14,694,5.47729,-39.3842,0,0,0,0,0,0,0,-1,1238,330,5.47735,39.3843
21,694,5.80859,-39.5794,0.0427526,0.0480533,0.0278964,0.0734249,0.0173809,0.83276,0.0443076,0.0474116,1245,330,5.80856,39.5794
28,694,6.1123,-39.7449,0.0321674,0.0468079,0.0311123,0.0714495,0.00752578,0.900939,0.0453331,0.0496516,1252,330,6.11231,39.7449
35,694,5.11182,-40.5932,0.022496,0.0484704,0.033878,0.0717652,-0.000798833,0.968435,0.048112,0.0440208,1259,330,5.11182,40.5932
42,694,5.13293,-40.5844,0.014436,0.0527648,0.0358336,0.0742368,-0.00703603,1.03095,0.0519955,0.0456376,1266,330,5.13288,40.5844
49,694,5.21265,-40.3637,0.00808639,0.0596383,0.0349287,0.0772722,-0.0095475,1.10327,0.0549744,0.0454349,1273,330,5.21261,40.3637
56,694,5.4801,-39.8598,0.006033,0.0741875,0.0300564,0.0855486,-0.00532814,1.2094,0.0588888,0.0426052,1280,330,5.48016,39.8598
63,694,5.46655,-38.9946,0.00685128,0.0820793,0.0252292,0.0897569,-0.000826292,1.27539,0.0601152,0.0420603,1287,330,5.4666,38.9946
70,694,5.36328,-38.2549,0.00672053,0.0901069,0.0221843,0.0956415,0.00118592,1.3263,0.0633694,0.0439298,1294,330,5.36332,38.2549
77,694,5.53259,-38.1745,0.00650183,0.0993053,0.0175172,0.102502,0.00330545,1.39031,0.0672597,0.0483376,1301,330,5.53255,38.1745
84,694,5.34546,-38.2685,0.00754262,0.108291,0.0103729,0.109347,0.00648573,1.46926,0.0708355,0.0481572,1308,330,5.34552,38.2685
91,694,5.6062,-37.7997,0.0122967,0.112788,0.00413793,0.112958,0.0121266,1.52971,0.0716063,0.0465188,1315,330,5.60619,37.7997
98,694,5.6272,-37.3607,0,0,0,0,0,0,0,-1,1322,330,5.62722,37.3607
105,694,5.3103,-40.3044,0.0199057,0.113846,-0.00644477,0.114286,0.0194656,-1.50262,0.0706023,0.0467233,1329,330,5.31032,40.3043
112,694,5.25122,-39.9771,0.0194391,0.109433,-0.00930355,0.110384,0.0184874,-1.46885,0.0682667,0.0441289,1336,330,5.2512,39.9771
119,694,5.17944,-39.6311,0,0,0,0,0,0,0,-1,1343,330,5.17939,39.6311
126,694,4.26233,-39.8814,0,0,0,0,0,0,0,-1,1350,330,4.26239,39.8814
133,694,3.80652,-39.9474,0,0,0,0,0,0,0,-1,1357,330,3.80646,39.9474
140,694,3.45581,-37.6683,0,0,0,0,0,0,0,-1,1364,330,3.45576,37.6683
147,694,3.40063,-38.0327,0,0,0,0,0,0,0,-1,1371,330,3.40063,38.0327
154,694,3.06482,-38.0461,0,0,0,0,0,0,0,-1,1378,330,3.06478,38.0461
161,694,4.76746,-36.9827,0,0,0,0,0,0,0,-1,1385,330,4.76745,36.9827
168,694,30.451,0.196686,0,0,0,0,0,0,0,-1,1392,330,30.4511,-0.196674
175,694,31.0701,0.869873,0,0,0,0,0,0,0,-1,1399,330,31.07,-0.869874
182,694,8.29028,5.75238,0,0,0,0,0,0,0,-1,1406,330,8.29034,-5.75237
189,694,7.9801,4.46118,0,0,0,0,0,0,0,-1,1413,330,7.9801,-4.46118
196,694,7.39331,3.32632,0,0,0,0,0,0,0,-1,1420,330,7.39329,-3.32633
203,694,7.04492,2.20529,0,0,0,0,0,0,0,-1,1427,330,7.04496,-2.20529
210,694,6.44714,0.646912,0,0,0,0,0,0,0,-1,1434,330,6.44717,-0.646903
217,694,7.12061,-0.644958,0,0,0,0,0,0,0,-1,1441,330,7.12059,0.644961
224,694,6.74011,-1.70544,0,0,0,0,0,0,0,-1,1448,330,6.74013,1.70546
231,694,0,0,0,0,0,0,0,0,0,-1,1455,330,0,0
238,694,0,0,0,0,0,0,0,0,0,-1,1462,330,0,0
245,694,0,0,0,0,0,0,0,0,0,-1,1469,330,0,0
252,694,0,0,0,0,0,0,0,0,0,-1,1476,330,0,0
259,694,0,0,0,0,0,0,0,0,0,-1,1483,330,0,0
266,694,0,0,0,0,0,0,0,0,0,-1,1490,330,0,0
273,694,0,0,0,0,0,0,0,0,0,-1,1497,330,0,0
280,694,0,0,0,0,0,0,0,0,0,-1,1504,330,0,0
287,694,0,0,0,0,0,0,0,0,0,-1,1511,330,0,0
294,694,0,0,0,0,0,0,0,0,0,-1,1518,330,0,0
301,694,0,0,0,0,0,0,0,0,0,-1,1525,330,0,0
308,694,0,0,0,0,0,0,0,0,0,-1,1532,330,0,0
315,694,0,0,0,0,0,0,0,0,0,-1,1539,330,0,0
322,694,0,0,0,0,0,0,0,0,0,-1,1546,330,0,0
329,694,0,0,0,0,0,0,0,0,0,-1,1553,330,0,0
336,694,0,0,0,0,0,0,0,0,0,-1,1560,330,0,0
343,694,0,0,0,0,0,0,0,0,0,-1,1567,330,0,0
350,694,0,0,0,0,0,0,0,0,0,-1,1574,330,0,0
357,694,0,0,0,0,0,0,0,0,0,-1,1581,330,0,0
364,694,0,0,0,0,0,0,0,0,0,-1,1588,330,0,0
371,694,0,0,0,0,0,0,0,0,0,-1,1595,330,0,0
378,694,0,0,0,0,0,0,0,0,0,-1,1602,330,0,0
385,694,0,0,0,0,0,0,0,0,0,-1,1609,330,0,0
392,694,0,0,0,0,0,0,0,0,0,-1,1616,330,0,0
399,694,0,0,0,0,0,0,0,0,0,-1,1623,330,0,0
406,694,0,0,0,0,0,0,0,0,0,-1,1630,330,0,0
413,694,0,0,0,0,0,0,0,0,0,-1,1637,330,0,0
420,694,0,0,0,0,0,0,0,0,0,-1,1644,330,0,0
427,694,0,0,0,0,0,0,0,0,0,-1,1651,330,0,0
434,694,0,0,0,0,0,0,0,0,0,-1,1658,330,0,0
441,694,0,0,0,0,0,0,0,0,0,-1,1665,330,0,0
448,694,0,0,0,0,0,0,0,0,0,-1,1672,330,0,0
455,694,0,0,0,0,0,0,0,0,0,-1,1679,330,0,0
462,694,0,0,0,0,0,0,0,0,0,-1,1686,330,0,0
469,694,0,0,0,0,0,0,0,0,0,-1,1693,330,0,0
476,694,0,0,0,0,0,0,0,0,0,-1,1700,330,0,0
483,694,0,0,0,0,0,0,0,0,0,-1,1707,330,0,0
490,694,0,0,0,0,0,0,0,0,0,-1,1714,330,0,0
497,694,0,0,0,0,0,0,0,0,0,-1,1721,330,0,0
504,694,0,0,0,0,0,0,0,0,0,-1,1728,330,0,0
511,694,0,0,0,0,0,0,0,0,0,-1,1735,330,0,0
518,694,0,0,0,0,0,0,0,0,0,-1,1742,330,0,0
525,694,0,0,0,0,0,0,0,0,0,-1,1749,330,0,0
532,694,0,0,0,0,0,0,0,0,0,-1,1756,330,0,0
539,694,0,0,0,0,0,0,0,0,0,-1,1763,330,0,0
546,694,0,0,0,0,0,0,0,0,0,-1,1770,330,0,0
553,694,0,0,0,0,0,0,0,0,0,-1,1777,330,0,0
560,694,0,0,0,0,0,0,0,0,0,-1,1784,330,0,0
567,694,0,0,0,0,0,0,0,0,0,-1,1791,330,0,0
574,694,0,0,0,0,0,0,0,0,0,-1,1798,330,0,0
581,694,0,0,0,0,0,0,0,0,0,-1,1805,330,0,0
588,694,0,0,0,0,0,0,0,0,0,-1,1812,330,0,0
595,694,0,0,0,0,0,0,0,0,0,-1,1819,330,0,0
602,694,0,0,0,0,0,0,0,0,0,-1,1826,330,0,0
609,694,0,0,0,0,0,0,0,0,0,-1,1833,330,0,0
616,694,0,0,0,0,0,0,0,0,0,-1,1840,330,0,0
623,694,0,0,0,0,0,0,0,0,0,-1,1847,330,0,0
630,694,0,0,0,0,0,0,0,0,0,-1,1854,330,0,0
637,694,0,0,0,0,0,0,0,0,0,-1,1861,330,0,0
644,694,0,0,0,0,0,0,0,0,0,-1,1868,330,0,0
651,694,0,0,0,0,0,0,0,0,0,-1,1875,330,0,0
658,694,0,0,0,0,0,0,0,0,0,-1,1882,330,0,0
665,694,0,0,0,0,0,0,0,0,0,-1,1889,330,0,0
672,694,0,0,0,0,0,0,0,0,0,-1,1896,330,0,0
679,694,0,0,0,0,0,0,0,0,0,-1,1903,330,0,0
686,694,0,0,0,0,0,0,0,0,0,-1,1910,330,0,0
693,694,0,0,0,0,0,0,0,0,0,-1,1917,330,0,0
700,694,0,0,0,0,0,0,0,0,0,-1,1924,330,0,0
707,694,0,0,0,0,0,0,0,0,0,-1,1931,330,0,0
714,694,0,0,0,0,0,0,0,0,0,-1,1938,330,0,0
721,694,0,0,0,0,0,0,0,0,0,-1,1945,330,0,0
728,694,0,0,0,0,0,0,0,0,0,-1,1952,330,0,0
735,694,0,0,0,0,0,0,0,0,0,-1,1959,330,0,0
742,694,0,0,0,0,0,0,0,0,0,-1,1966,330,0,0
749,694,0,0,0,0,0,0,0,0,0,-1,1973,330,0,0
756,694,0,0,0,0,0,0,0,0,0,-1,1980,330,0,0
763,694,0,0,0,0,0,0,0,0,0,-1,1987,330,0,0
770,694,0,0,0,0,0,0,0,0,0,-1,1994,330,0,0
777,694,0,0,0,0,0,0,0,0,0,-1,2001,330,0,0
784,694,0,0,0,0,0,0,0,0,0,-1,2008,330,0,0
791,694,0,0,0,0,0,0,0,0,0,-1,2015,330,0,0
798,694,0,0,0,0,0,0,0,0,0,-1,2022,330,0,0
805,694,0,0,0,0,0,0,0,0,0,-1,2029,330,0,0
812,694,0,0,0,0,0,0,0,0,0,-1,2036,330,0,0
-700,687,0,0,0,0,0,0,0,0,0,-1,524,337,0,0
-693,687,0,0,0,0,0,0,0,0,0,-1,531,337,0,0
-686,687,0,0,0,0,0,0,0,0,0,-1,538,337,0,0
-679,687,0,0,0,0,0,0,0,0,0,-1,545,337,0,0
-672,687,0,0,0,0,0,0,0,0,0,-1,552,337,0,0
-665,687,0,0,0,0,0,0,0,0,0,-1,559,337,0,0
-658,687,0,0,0,0,0,0,0,0,0,-1,566,337,0,0
-651,687,0,0,0,0,0,0,0,0,0,-1,573,337,0,0
-644,687,0,0,0,0,0,0,0,0,0,-1,580,337,0,0
-637,687,0,0,0,0,0,0,0,0,0,-1,587,337,0,0
-630,687,0,0,0,0,0,0,0,0,0,-1,594,337,0,0
-623,687,0,0,0,0,0,0,0,0,0,-1,601,337,0,0
-616,687,0,0,0,0,0,0,0,0,0,-1,608,337,0,0
-609,687,0,0,0,0,0,0,0,0,0,-1,615,337,0,0
-602,687,0,0,0,0,0,0,0,0,0,-1,622,337,0,0
-595,687,0,0,0,0,0,0,0,0,0,-1,629,337,0,0
-588,687,0,0,0,0,0,0,0,0,0,-1,636,337,0,0
-581,687,0,0,0,0,0,0,0,0,0,-1,643,337,0,0
-574,687,0,0,0,0,0,0,0,0,0,-1,650,337,0,0
-567,687,0,0,0,0,0,0,0,0,0,-1,657,337,0,0
-560,687,0,0,0,0,0,0,0,0,0,-1,664,337,0,0
-553,687,0,0,0,0,0,0,0,0,0,-1,671,337,0,0
-546,687,0,0,0,0,0,0,0,0,0,-1,678,337,0,0
-539,687,0,0,0,0,0,0,0,0,0,-1,685,337,0,0
-532,687,0,0,0,0,0,0,0,0,0,-1,692,337,0,0
-525,687,0,0,0,0,0,0,0,0,0,-1,699,337,0,0
-518,687,0,0,0,0,0,0,0,0,0,-1,706,337,0,0
-511,687,0,0,0,0,0,0,0,0,0,-1,713,337,0,0
-504,687,0,0,0,0,0,0,0,0,0,-1,720,337,0,0
-497,687,0,0,0,0,0,0,0,0,0,-1,727,337,0,0
-490,687,0,0,0,0,0,0,0,0,0,-1,734,337,0,0
-483,687,0,0,0,0,0,0,0,0,0,-1,741,337,0,0
-476,687,0,0,0,0,0,0,0,0,0,-1,748,337,0,0
-469,687,0,0,0,0,0,0,0,0,0,-1,755,337,0,0
-462,687,0,0,0,0,0,0,0,0,0,-1,762,337,0,0
-455,687,0,0,0,0,0,0,0,0,0,-1,769,337,0,0
-448,687,0,0,0,0,0,0,0,0,0,-1,776,337,0,0
-441,687,0,0,0,0,0,0,0,0,0,-1,783,337,0,0
-434,687,0,0,0,0,0,0,0,0,0,-1,790,337,0,0
-427,687,0,0,0,0,0,0,0,0,0,-1,797,337,0,0
-420,687,0,0,0,0,0,0,0,0,0,-1,804,337,0,0
-413,687,0,0,0,0,0,0,0,0,0,-1,811,337,0,0
-406,687,0,0,0,0,0,0,0,0,0,-1,818,337,0,0
-399,687,0,0,0,0,0,0,0,0,0,-1,825,337,0,0
-392,687,0,0,0,0,0,0,0,0,0,-1,832,337,0,0
-385,687,0,0,0,0,0,0,0,0,0,-1,839,337,0,0
-378,687,0,0,0,0,0,0,0,0,0,-1,846,337,0,0
-371,687,0,0,0,0,0,0,0,0,0,-1,853,337,0,0
-364,687,0,0,0,0,0,0,0,0,0,-1,860,337,0,0
-357,687,0,0,0,0,0,0,0,0,0,-1,867,337,0,0
-350,687,0,0,0,0,0,0,0,0,0,-1,874,337,0,0
-343,687,0,0,0,0,0,0,0,0,0,-1,881,337,0,0
-336,687,0,0,0,0,0,0,0,0,0,-1,888,337,0,0
-329,687,0,0,0,0,0,0,0,0,0,-1,895,337,0,0
-322,687,0,0,0,0,0,0,0,0,0,-1,902,337,0,0
-315,687,0,0,0,0,0,0,0,0,0,-1,909,337,0,0
-308,687,0,0,0,0,0,0,0,0,0,-1,916,337,0,0
-301,687,0,0,0,0,0,0,0,0,0,-1,923,337,0,0
-294,687,0,0,0,0,0,0,0,0,0,-1,930,337,0,0
-287,687,0,0,0,0,0,0,0,0,0,-1,937,337,0,0
-280,687,0,0,0,0,0,0,0,0,0,-1,944,337,0,0
-273,687,0,0,0,0,0,0,0,0,0,-1,951,337,0,0
-266,687,0,0,0,0,0,0,0,0,0,-1,958,337,0,0
-259,687,0,0,0,0,0,0,0,0,0,-1,965,337,0,0
-252,687,0,0,0,0,0,0,0,0,0,-1,972,337,0,0
-245,687,0,0,0,0,0,0,0,0,0,-1,979,337,0,0
-238,687,0,0,0,0,0,0,0,0,0,-1,986,337,0,0
-231,687,0,0,0,0,0,0,0,0,0,-1,993,337,0,0
-224,687,0,0,0,0,0,0,0,0,0,-1,1000,337,0,0
-217,687,0,0,0,0,0,0,0,0,0,-1,1007,337,0,0
-210,687,0,0,0,0,0,0,0,0,0,-1,1014,337,0,0
-203,687,0,0,0,0,0,0,0,0,0,-1,1021,337,0,0
-196,687,0,0,0,0,0,0,0,0,0,-1,1028,337,0,0
-189,687,0,0,0,0,0,0,0,0,0,-1,1035,337,0,0
-182,687,0,0,0,0,0,0,0,0,0,-1,1042,337,0,0
-175,687,0,0,0,0,0,0,0,0,0,-1,1049,337,0,0
-168,687,0,0,0,0,0,0,0,0,0,-1,1056,337,0,0
-161,687,0,0,0,0,0,0,0,0,0,-1,1063,337,0,0
-154,687,0,0,0,0,0,0,0,0,0,-1,1070,337,0,0
-147,687,0,0,0,0,0,0,0,0,0,-1,1077,337,0,0
-140,687,0,0,0,0,0,0,0,0,0,-1,1084,337,0,0
-133,687,7.93958,-37.548,0,0,0,0,0,0,0,-1,1091,337,7.93957,37.548
-126,687,7.81189,-35.631,0,0,0,0,0,0,0,-1,1098,337,7.81194,35.631
-119,687,7.70825,-33.9236,0,0,0,0,0,0,0,-1,1105,337,7.70826,33.9236
-112,687,7.99866,-32.2983,0,0,0,0,0,0,0,-1,1112,337,7.99866,32.2983
-105,687,1.3208,-29.8313,0,0,0,0,0,0,0,-1,1119,337,1.3208,29.8313
-98,687,13.7111,-47.5645,0,0,0,0,0,0,0,-1,1126,337,13.711,47.5645
-91,687,7.22083,-41.1667,0,0,0,0,0,0,0,-1,1133,337,7.22079,41.1666
-84,687,0.745117,-35.0345,0,0,0,0,0,0,0,-1,1140,337,0.745155,35.0345
-77,687,-5.74353,-28.9553,0,0,0,0,0,0,0,-1,1147,337,-5.74357,28.9553
-70,687,-11.6842,-19.8473,0,0,0,0,0,0,0,-1,1154,337,-11.6842,19.8473
-63,687,-17.6757,-14.8966,0,0,0,0,0,0,0,-1,1161,337,-17.6756,14.8966
-56,687,-18.104,7.81931,0,0,0,0,0,0,0,-1,1168,337,-18.104,-7.81931
-49,687,-15.6449,-9.94391,0,0,0,0,0,0,0,-1,1175,337,-15.6449,9.94392
-42,687,-4.2019,-0.405609,0,0,0,0,0,0,0,-1,1182,337,-4.20192,0.405614
-35,687,-4.42273,-0.688171,0,0,0,0,0,0,0,-1,1189,337,-4.42276,0.688178
-28,687,-1.14038,-1.39072,0,0,0,0,0,0,0,-1,1196,337,-1.14035,1.3907
-21,687,5.95581,-39.3589,0,0,0,0,0,0,0,-1,1203,337,5.95582,39.3589
-14,687,6.21448,-39.6678,0,0,0,0,0,0,0,-1,1210,337,6.2145,39.6678
-7,687,6.302,-38.9415,0,0,0,0,0,0,0,-1,1217,337,6.30198,38.9415
0,687,4.91052,-40.7654,0,0,0,0,0,0,0,-1,1224,337,4.9105,40.7653
7,687,5.20935,-40.5198,0.0407646,0.0500782,0.0167207,0.0627785,0.0280643,0.921209,0.0363129,0.0467931,1231,337,5.2094,40.5198
14,687,5.15955,-39.6506,0.034929,0.046374,0.019356,0.0608357,0.0204673,0.929126,0.0357445,0.0440675,1238,337,5.15951,39.6506
21,687,5.55115,-40.032,0.0281621,0.0443115,0.0219057,0.0595833,0.0128903,0.961977,0.0361987,0.046652,1245,337,5.55121,40.032
28,687,5.99316,-40.4775,0,0,0,0,0,0,0,-1,1252,337,5.99322,40.4775
35,687,5.60791,-40.6332,0.0145229,0.045583,0.026038,0.0603706,-0.000264691,1.0543,0.0403356,0.0474205,1259,337,5.60793,40.6332
42,687,5.28247,-40.5594,0.0091564,0.0492079,0.0275476,0.0632395,-0.00487516,1.09969,0.0438751,0.0473985,1266,337,5.2825,40.5593
49,687,5.11646,-40.3977,0.00477295,0.0547938,0.0269644,0.0665611,-0.00699437,1.15931,0.0468798,0.047505,1273,337,5.11643,40.3977
56,687,5.22095,-39.9001,0.00316376,0.0663692,0.0236134,0.0742167,-0.00468377,1.24994,0.0511106,0.0431238,1280,337,5.22094,39.9002
63,687,5.54956,-39.2986,0.00362266,0.0729604,0.0202171,0.0784246,-0.00184154,1.30683,0.0529076,0.0413756,1287,337,5.54953,39.2986
70,687,5.41321,-39.1837,0.00353178,0.0796804,0.0180525,0.0837433,-0.00053113,1.34942,0.0560068,0.0424475,1294,337,5.41315,39.1837
77,687,5.18933,-39.0644,0.00307231,0.0867666,0.0146752,0.0892652,0.000573713,1.40215,0.0593199,0.0461826,1301,337,5.18938,39.0644
84,687,5.10266,-38.8719,0.00327982,0.093181,0.00949282,0.0941724,0.00228839,1.46673,0.0620329,0.0487513,1308,337,5.10271,38.8719
91,687,5.45251,-38.5959,0.00602746,0.0962996,0.00464897,0.0965384,0.00578867,1.51948,0.0625188,0.0467658,1315,337,5.45255,38.5959
98,687,5.61365,-38.3963,0.00918249,0.0973318,0.000253672,0.0973325,0.00918176,1.56792,0.0620546,0.0468991,1322,337,5.61367,38.3963
105,687,5.72815,-38.067,0,0,0,0,0,0,0,-1,1329,337,5.72812,38.0671
112,687,4.59094,-40.0389,0.00910714,0.0927668,-0.00603962,0.0932005,0.00867337,-1.4991,0.0594538,0.0451405,1336,337,4.59092,40.0389
119,687,4.51941,-40.0322,0.00665236,0.0859428,-0.00736399,0.086621,0.00597424,-1.47897,0.0558625,0.044661,1343,337,4.51945,40.0322
126,687,4.04761,-40.0053,0.004002,0.0785172,-0.00797346,0.0793608,0.00315835,-1.46538,0.0518865,0.0435622,1350,337,4.04762,40.0053
133,687,3.55554,-40.0144,0.000747308,0.0715884,-0.00806052,0.072494,-0.000158269,-1.45892,0.0483822,0.0464261,1357,337,3.55549,40.0144
140,687,3.23901,-39.8651,0,0,0,0,0,0,0,-1,1364,337,3.23903,39.8651
147,687,3.29138,-39.4177,0,0,0,0,0,0,0,-1,1371,337,3.29144,39.4177
154,687,2.5741,-38.1589,0,0,0,0,0,0,0,-1,1378,337,2.57405,38.1589
161,687,29.3895,-1.90628,0,0,0,0,0,0,0,-1,1385,337,29.3895,1.90628
168,687,29.8564,-1.19434,0,0,0,0,0,0,0,-1,1392,337,29.8564,1.19434
175,687,30.3419,-0.453583,0,0,0,0,0,0,0,-1,1399,337,30.3419,0.45357
182,687,6.67249,0.289917,0,0,0,0,0,0,0,-1,1406,337,6.67247,-0.289916
189,687,7.76062,4.53635,0,0,0,0,0,0,0,-1,1413,337,7.76064,-4.53636
196,687,6.99048,3.2966,0,0,0,0,0,0,0,-1,1420,337,6.99046,-3.2966
203,687,6.36499,2.1445,0,0,0,0,0,0,0,-1,1427,337,6.36499,-2.14451
210,687,6.68066,0.674652,0,0,0,0,0,0,0,-1,1434,337,6.68062,-0.674655
217,687,5.99683,-0.630493,0,0,0,0,0,0,0,-1,1441,337,5.99684,0.630497
224,687,5.52917,0.524902,0,0,0,0,0,0,0,-1,1448,337,5.5292,-0.524915
231,687,5.85583,-1.73651,0,0,0,0,0,0,0,-1,1455,337,5.85577,1.73651
238,687,5.96582,-2.96774,0,0,0,0,0,0,0,-1,1462,337,5.96577,2.96773
245,687,1.28259,2.32211,0,0,0,0,0,0,0,-1,1469,337,1.28258,-2.32211
252,687,1.97278,3.88422,0,0,0,0,0,0,0,-1,1476,337,1.97281,-3.88421
259,687,0,0,0,0,0,0,0,0,0,-1,1483,337,0,0
266,687,0,0,0,0,0,0,0,0,0,-1,1490,337,0,0
273,687,0,0,0,0,0,0,0,0,0,-1,1497,337,0,0
280,687,0,0,0,0,0,0,0,0,0,-1,1504,337,0,0
287,687,0,0,0,0,0,0,0,0,0,-1,1511,337,0,0
294,687,0,0,0,0,0,0,0,0,0,-1,1518,337,0,0
301,687,0,0,0,0,0,0,0,0,0,-1,1525,337,0,0
308,687,0,0,0,0,0,0,0,0,0,-1,1532,337,0,0
315,687,0,0,0,0,0,0,0,0,0,-1,1539,337,0,0
322,687,0,0,0,0,0,0,0,0,0,-1,1546,337,0,0
329,687,0,0,0,0,0,0,0,0,0,-1,1553,337,0,0
336,687,0,0,0,0,0,0,0,0,0,-1,1560,337,0,0
343,687,0,0,0,0,0,0,0,0,0,-1,1567,337,0,0
350,687,0,0,0,0,0,0,0,0,0,-1,1574,337,0,0
357,687,0,0,0,0,0,0,0,0,0,-1,1581,337,0,0
364,687,0,0,0,0,0,0,0,0,0,-1,1588,337,0,0
371,687,0,0,0,0,0,0,0,0,0,-1,1595,337,0,0
378,687,0,0,0,0,0,0,0,0,0,-1,1602,337,0,0
385,687,0,0,0,0,0,0,0,0,0,-1,1609,337,0,0
392,687,0,0,0,0,0,0,0,0,0,-1,1616,337,0,0
399,687,0,0,0,0,0,0,0,0,0,-1,1623,337,0,0
406,687,0,0,0,0,0,0,0,0,0,-1,1630,337,0,0
413,687,0,0,0,0,0,0,0,0,0,-1,1637,337,0,0
420,687,0,0,0,0,0,0,0,0,0,-1,1644,337,0,0
427,687,0,0,0,0,0,0,0,0,0,-1,1651,337,0,0
434,687,0,0,0,0,0,0,0,0,0,-1,1658,337,0,0
441,687,0,0,0,0,0,0,0,0,0,-1,1665,337,0,0
448,687,0,0,0,0,0,0,0,0,0,-1,1672,337,0,0
455,687,0,0,0,0,0,0,0,0,0,-1,1679,337,0,0
462,687,0,0,0,0,0,0,0,0,0,-1,1686,337,0,0
469,687,0,0,0,0,0,0,0,0,0,-1,1693,337,0,0
476,687,0,0,0,0,0,0,0,0,0,-1,1700,337,0,0
483,687,0,0,0,0,0,0,0,0,0,-1,1707,337,0,0
490,687,0,0,0,0,0,0,0,0,0,-1,1714,337,0,0
497,687,0,0,0,0,0,0,0,0,0,-1,1721,337,0,0
504,687,0,0,0,0,0,0,0,0,0,-1,1728,337,0,0
511,687,0,0,0,0,0,0,0,0,0,-1,1735,337,0,0
518,687,0,0,0,0,0,0,0,0,0,-1,1742,337,0,0
525,687,0,0,0,0,0,0,0,0,0,-1,1749,337,0,0
532,687,0,0,0,0,0,0,0,0,0,-1,1756,337,0,0
539,687,0,0,0,0,0,0,0,0,0,-1,1763,337,0,0
546,687,0,0,0,0,0,0,0,0,0,-1,1770,337,0,0
553,687,0,0,0,0,0,0,0,0,0,-1,1777,337,0,0
560,687,0,0,0,0,0,0,0,0,0,-1,1784,337,0,0
567,687,0,0,0,0,0,0,0,0,0,-1,1791,337,0,0
574,687,0,0,0,0,0,0,0,0,0,-1,1798,337,0,0
581,687,0,0,0,0,0,0,0,0,0,-1,1805,337,0,0
588,687,0,0,0,0,0,0,0,0,0,-1,1812,337,0,0
595,687,0,0,0,0,0,0,0,0,0,-1,1819,337,0,0
602,687,0,0,0,0,0,0,0,0,0,-1,1826,337,0,0
609,687,0,0,0,0,0,0,0,0,0,-1,1833,337,0,0
616,687,0,0,0,0,0,0,0,0,0,-1,1840,337,0,0
623,687,0,0,0,0,0,0,0,0,0,-1,1847,337,0,0
630,687,0,0,0,0,0,0,0,0,0,-1,1854,337,0,0
637,687,0,0,0,0,0,0,0,0,0,-1,1861,337,0,0
644,687,0,0,0,0,0,0,0,0,0,-1,1868,337,0,0
651,687,0,0,0,0,0,0,0,0,0,-1,1875,337,0,0
658,687,0,0,0,0,0,0,0,0,0,-1,1882,337,0,0
665,687,0,0,0,0,0,0,0,0,0,-1,1889,337,0,0
672,687,0,0,0,0,0,0,0,0,0,-1,1896,337,0,0
679,687,0,0,0,0,0,0,0,0,0,-1,1903,337,0,0
686,687,0,0,0,0,0,0,0,0,0,-1,1910,337,0,0
693,687,0,0,0,0,0,0,0,0,0,-1,1917,337,0,0
700,687,0,0,0,0,0,0,0,0,0,-1,1924,337,0,0
707,687,0,0,0,0,0,0,0,0,0,-1,1931,337,0,0
714,687,0,0,0,0,0,0,0,0,0,-1,1938,337,0,0
721,687,0,0,0,0,0,0,0,0,0,-1,1945,337,0,0
728,687,0,0,0,0,0,0,0,0,0,-1,1952,337,0,0
735,687,0,0,0,0,0,0,0,0,0,-1,1959,337,0,0
742,687,0,0,0,0,0,0,0,0,0,-1,1966,337,0,0
749,687,0,0,0,0,0,0,0,0,0,-1,1973,337,0,0
756,687,0,0,0,0,0,0,0,0,0,-1,1980,337,0,0
763,687,0,0,0,0,0,0,0,0,0,-1,1987,337,0,0
770,687,0,0,0,0,0,0,0,0,0,-1,1994,337,0,0
777,687,0,0,0,0,0,0,0,0,0,-1,2001,337,0,0
784,687,0,0,0,0,0,0,0,0,0,-1,2008,337,0,0
791,687,0,0,0,0,0,0,0,0,0,-1,2015,337,0,0
798,687,0,0,0,0,0,0,0,0,0,-1,2022,337,0,0
805,687,0,0,0,0,0,0,0,0,0,-1,2029,337,0,0
812,687,0,0,0,0,0,0,0,0,0,-1,2036,337,0,0
-700,680,0,0,0,0,0,0,0,0,0,-1,524,344,0,0
-693,680,0,0,0,0,0,0,0,0,0,-1,531,344,0,0
-686,680,0,0,0,0,0,0,0,0,0,-1,538,344,0,0
-679,680,0,0,0,0,0,0,0,0,0,-1,545,344,0,0
-672,680,0,0,0,0,0,0,0,0,0,-1,552,344,0,0
-665,680,0,0,0,0,0,0,0,0,0,-1,559,344,0,0
-658,680,0,0,0,0,0,0,0,0,0,-1,566,344,0,0
-651,680,0,0,0,0,0,0,0,0,0,-1,573,344,0,0
-644,680,0,0,0,0,0,0,0,0,0,-1,580,344,0,0
-637,680,0,0,0,0,0,0,0,0,0,-1,587,344,0,0
-630,680,0,0,0,0,0,0,0,0,0,-1,594,344,0,0
-623,680,0,0,0,0,0,0,0,0,0,-1,601,344,0,0
-616,680,0,0,0,0,0,0,0,0,0,-1,608,344,0,0
-609,680,0,0,0,0,0,0,0,0,0,-1,615,344,0,0
-602,680,0,0,0,0,0,0,0,0,0,-1,622,344,0,0
-595,680,0,0,0,0,0,0,0,0,0,-1,629,344,0,0
-588,680,0,0,0,0,0,0,0,0,0,-1,636,344,0,0
-581,680,0,0,0,0,0,0,0,0,0,-1,643,344,0,0
-574,680,0,0,0,0,0,0,0,0,0,-1,650,344,0,0
-567,680,0,0,0,0,0,0,0,0,0,-1,657,344,0,0
-560,680,0,0,0,0,0,0,0,0,0,-1,664,344,0,0
-553,680,0,0,0,0,0,0,0,0,0,-1,671,344,0,0
-546,680,0,0,0,0,0,0,0,0,0,-1,678,344,0,0
-539,680,0,0,0,0,0,0,0,0,0,-1,685,344,0,0
-532,680,0,0,0,0,0,0,0,0,0,-1,692,344,0,0
-525,680,0,0,0,0,0,0,0,0,0,-1,699,344,0,0
-518,680,0,0,0,0,0,0,0,0,0,-1,706,344,0,0
-511,680,0,0,0,0,0,0,0,0,0,-1,713,344,0,0
-504,680,0,0,0,0,0,0,0,0,0,-1,720,344,0,0
-497,680,0,0,0,0,0,0,0,0,0,-1,727,344,0,0
-490,680,0,0,0,0,0,0,0,0,0,-1,734,344,0,0
-483,680,0,0,0,0,0,0,0,0,0,-1,741,344,0,0
-476,680,0,0,0,0,0,0,0,0,0,-1,748,344,0,0
-469,680,0,0,0,0,0,0,0,0,0,-1,755,344,0,0
-462,680,0,0,0,0,0,0,0,0,0,-1,762,344,0,0
-455,680,0,0,0,0,0,0,0,0,0,-1,769,344,0,0
-448,680,0,0,0,0,0,0,0,0,0,-1,776,344,0,0
-441,680,0,0,0,0,0,0,0,0,0,-1,783,344,0,0
-434,680,0,0,0,0,0,0,0,0,0,-1,790,344,0,0
-427,680,0,0,0,0,0,0,0,0,0,-1,797,344,0,0
-420,680,0,0,0,0,0,0,0,0,0,-1,804,344,0,0
-413,680,0,0,0,0,0,0,0,0,0,-1,811,344,0,0
-406,680,0,0,0,0,0,0,0,0,0,-1,818,344,0,0
-399,680,0,0,0,0,0,0,0,0,0,-1,825,344,0,0
-392,680,0,0,0,0,0,0,0,0,0,-1,832,344,0,0
-385,680,0,0,0,0,0,0,0,0,0,-1,839,344,0,0
-378,680,0,0,0,0,0,0,0,0,0,-1,846,344,0,0
-371,680,0,0,0,0,0,0,0,0,0,-1,853,344,0,0
-364,680,0,0,0,0,0,0,0,0,0,-1,860,344,0,0
-357,680,0,0,0,0,0,0,0,0,0,-1,867,344,0,0
-350,680,0,0,0,0,0,0,0,0,0,-1,874,344,0,0
-343,680,0,0,0,0,0,0,0,0,0,-1,881,344,0,0
-336,680,0,0,0,0,0,0,0,0,0,-1,888,344,0,0
-329,680,0,0,0,0,0,0,0,0,0,-1,895,344,0,0
-322,680,0,0,0,0,0,0,0,0,0,-1,902,344,0,0
-315,680,0,0,0,0,0,0,0,0,0,-1,909,344,0,0
-308,680,0,0,0,0,0,0,0,0,0,-1,916,344,0,0
-301,680,0,0,0,0,0,0,0,0,0,-1,923,344,0,0
-294,680,0,0,0,0,0,0,0,0,0,-1,930,344,0,0
-287,680,0,0,0,0,0,0,0,0,0,-1,937,344,0,0
-280,680,0,0,0,0,0,0,0,0,0,-1,944,344,0,0
-273,680,0,0,0,0,0,0,0,0,0,-1,951,344,0,0
-266,680,0,0,0,0,0,0,0,0,0,-1,958,344,0,0
-259,680,0,0,0,0,0,0,0,0,0,-1,965,344,0,0
-252,680,0,0,0,0,0,0,0,0,0,-1,972,344,0,0
-245,680,0,0,0,0,0,0,0,0,0,-1,979,344,0,0
-238,680,0,0,0,0,0,0,0,0,0,-1,986,344,0,0
-231,680,0,0,0,0,0,0,0,0,0,-1,993,344,0,0
-224,680,0,0,0,0,0,0,0,0,0,-1,1000,344,0,0
-217,680,0,0,0,0,0,0,0,0,0,-1,1007,344,0,0
-210,680,0,0,0,0,0,0,0,0,0,-1,1014,344,0,0
-203,680,0,0,0,0,0,0,0,0,0,-1,1021,344,0,0
-196,680,0,0,0,0,0,0,0,0,0,-1,1028,344,0,0
-189,680,0,0,0,0,0,0,0,0,0,-1,1035,344,0,0
-182,680,0,0,0,0,0,0,0,0,0,-1,1042,344,0,0
-175,680,0,0,0,0,0,0,0,0,0,-1,1049,344,0,0
-168,680,0,0,0,0,0,0,0,0,0,-1,1056,344,0,0
-161,680,0,0,0,0,0,0,0,0,0,-1,1063,344,0,0
-154,680,2.25244,-29.1442,0,0,0,0,0,0,0,-1,1070,344,2.25241,29.1442
-147,680,9.29614,-33.0369,0,0,0,0,0,0,0,-1,1077,344,9.29612,33.0369
-140,680,6.98022,-36.6899,0,0,0,0,0,0,0,-1,1084,344,6.98023,36.6899
-133,680,5.89795,-35.7619,0,0,0,0,0,0,0,-1,1091,344,5.89789,35.7619
-126,680,7.58716,-35.439,0,0,0,0,0,0,0,-1,1098,344,7.58714,35.439
-119,680,7.4646,-34.0222,0,0,0,0,0,0,0,-1,1105,344,7.46462,34.0222
-112,680,7.7467,-32.4407,0,0,0,0,0,0,0,-1,1112,344,7.74668,32.4407
-105,680,20.6371,-48.461,0,0,0,0,0,0,0,-1,1119,344,20.6371,48.461
-98,680,14.2684,-41.9997,0,0,0,0,0,0,0,-1,1126,344,14.2685,41.9997
-91,680,7.89648,-35.5147,0,0,0,0,0,0,0,-1,1133,344,7.8965,35.5147
-84,680,1.47168,-29.471,0,0,0,0,0,0,0,-1,1140,344,1.47163,29.471
-77,680,-4.95337,-23.3355,0,0,0,0,0,0,0,-1,1147,344,-4.9534,23.3356
-70,680,-11.5099,-17.4337,0,0,0,0,0,0,0,-1,1154,344,-11.5098,17.4338
-63,680,-17.2391,-1.43134,0,0,0,0,0,0,0,-1,1161,344,-17.2392,1.43133
-56,680,-6.96912,-8.83356,0,0,0,0,0,0,0,-1,1168,344,-6.96907,8.83354
-49,680,-6.7677,-2.24063,0,0,0,0,0,0,0,-1,1175,344,-6.76772,2.24063
-42,680,-1.02368,0.618805,0,0,0,0,0,0,0,-1,1182,344,-1.0237,-0.618797
-35,680,-0.947876,-0.942719,0,0,0,0,0,0,0,-1,1189,344,-0.947842,0.942731
-28,680,-1.46118,-1.10574,0,0,0,0,0,0,0,-1,1196,344,-1.4612,1.10575
-21,680,5.70227,-39.002,0,0,0,0,0,0,0,-1,1203,344,5.70232,39.002
-14,680,6.26697,-39.6716,0,0,0,0,0,0,0,-1,1210,344,6.26695,39.6716
-7,680,6.27234,-39.5562,0,0,0,0,0,0,0,-1,1217,344,6.27236,39.5561
0,680,6.42456,-39.7114,0,0,0,0,0,0,0,-1,1224,344,6.42461,39.7114
7,680,5.17517,-41.2644,0.0251619,0.0427631,0.0130051,0.0496655,0.0182595,1.08286,0.0290073,0.0459561,1231,344,5.17519,41.2644
14,680,5.27136,-40.7399,0.0216971,0.0404896,0.0148833,0.0486945,0.0134922,1.06697,0.0290303,0.0450169,1238,344,5.27137,40.7399
21,680,5.47351,-40.5664,0.0173754,0.0395218,0.0166363,0.0484331,0.00846404,1.07903,0.0298699,0.0477225,1245,344,5.4735,40.5664
28,680,5.86377,-40.7628,0.0127143,0.0396253,0.0181123,0.0487331,0.00360642,1.10487,0.0313558,0.0495966,1252,344,5.86374,40.7627
35,680,5.93237,-40.8372,0.00854895,0.0413258,0.0195158,0.0504216,-0.000546873,1.13466,0.0337981,0.0488813,1259,344,5.93242,40.8372
42,680,5.47693,-40.7799,0.00513345,0.0443133,0.020695,0.0532198,-0.00377312,1.16438,0.0368021,0.0469062,1266,344,5.47696,40.7799
49,680,5.30408,-40.7318,0.00221779,0.0487426,0.0203467,0.0563853,-0.00542491,1.21148,0.0395228,0.0441159,1273,344,5.30411,40.7318
56,680,5.14636,-40.4595,0.00103448,0.0576921,0.0181036,0.0629827,-0.0042561,1.28648,0.0434766,0.0415939,1280,344,5.14631,40.4595
63,680,5.41223,-40.1221,0.00129727,0.0629866,0.0157948,0.0667955,-0.00251163,1.33417,0.0453907,0.039753,1287,344,5.41223,40.1221
70,680,5.35767,-40.0266,0.00123809,0.068373,0.0143478,0.0713108,-0.00169972,1.36883,0.0481171,0.039582,1294,344,5.35765,40.0265
77,680,5.16431,-39.8931,0.000650726,0.0736791,0.0119776,0.0755934,-0.00126359,1.41231,0.050822,0.0419207,1301,344,5.1643,39.8931
84,680,4.99097,-39.7293,0.000371726,0.0781596,0.00825569,0.0790261,-0.000494808,1.46622,0.0528498,0.0465977,1308,344,4.99103,39.7293
91,680,5.33789,-39.4093,0.00184491,0.0802355,0.00452987,0.0804964,0.00158402,1.51327,0.0531441,0.0465501,1315,344,5.33786,39.4093
98,680,6.00195,-38.9861,0.00361028,0.0807006,0.00120847,0.0807195,0.00359134,1.55513,0.0526567,0.0438013,1322,344,6.00199,38.9861
105,680,4.55334,-40.3155,0.00379558,0.0796178,-0.00170696,0.0796562,0.00375717,-1.5483,0.0518971,0.0446489,1329,344,4.5533,40.3155
112,680,4.38306,-40.3687,0.00254115,0.0767174,-0.00382166,0.0769138,0.00234477,-1.51946,0.0505124,0.0467585,1336,344,4.383,40.3687
119,680,4.31934,-40.3016,0.000411473,0.071392,-0.00513823,0.0717621,4.14513e-05,-1.49891,0.0478276,0.0448719,1343,344,4.31931,40.3016
126,680,4.07642,-40.2971,-0.00170558,0.0655093,-0.00590813,0.0660246,-0.00222095,-1.48379,0.0447751,0.0424358,1350,344,4.0764,40.2972
133,680,3.39453,-39.963,-0.00421646,0.0600227,-0.00627076,0.0606292,-0.00482286,-1.47439,0.0421192,0.0442817,1357,344,3.39455,39.963
140,680,2.86145,-39.9182,-0.00669009,0.0551973,-0.00671151,0.0559168,-0.00740957,-1.464,0.0399773,0.045136,1364,344,2.86145,39.9182
147,680,2.61194,-39.9302,0,0,0,0,0,0,0,-1,1371,344,2.61197,39.9302
154,680,2.38306,-39.9535,0,0,0,0,0,0,0,-1,1378,344,2.38302,39.9535
161,680,4.0426,-37.049,0,0,0,0,0,0,0,-1,1385,344,4.04261,37.049
168,680,29.4142,-2.51651,0,0,0,0,0,0,0,-1,1392,344,29.4142,2.51652
175,680,6.66541,0.942078,0,0,0,0,0,0,0,-1,1399,344,6.66538,-0.942088
182,680,6.52917,0.532379,0,0,0,0,0,0,0,-1,1406,344,6.52922,-0.532385
189,680,7.55884,4.77695,0,0,0,0,0,0,0,-1,1413,344,7.55886,-4.77694
196,680,6.55627,3.35254,0,0,0,0,0,0,0,-1,1420,344,6.55622,-3.35255
203,680,5.7334,1.90753,0,0,0,0,0,0,0,-1,1427,344,5.73341,-1.90754
210,680,5.27515,0.493622,0,0,0,0,0,0,0,-1,1434,344,5.27514,-0.493632
217,680,6.56384,-0.374176,0,0,0,0,0,0,0,-1,1441,344,6.56379,0.374176
224,680,3.9491,-0.640228,0,0,0,0,0,0,0,-1,1448,344,3.94908,0.64024
231,680,4.24866,-1.96881,0,0,0,0,0,0,0,-1,1455,344,4.2486,1.96882
238,680,4.29333,-3.23984,0,0,0,0,0,0,0,-1,1462,344,4.29332,3.23984
245,680,2.44397,0.985382,0,0,0,0,0,0,0,-1,1469,344,2.44402,-0.985394
252,680,3.07349,2.18951,0,0,0,0,0,0,0,-1,1476,344,3.0735,-2.18952
259,680,2.82971,1.30682,0,0,0,0,0,0,0,-1,1483,344,2.82972,-1.30684
266,680,2.67554,1.44067,0,0,0,0,0,0,0,-1,1490,344,2.67551,-1.44066
273,680,2.46411,1.54666,0,0,0,0,0,0,0,-1,1497,344,2.46407,-1.54666
280,680,0,0,0,0,0,0,0,0,0,-1,1504,344,0,0
287,680,0,0,0,0,0,0,0,0,0,-1,1511,344,0,0
294,680,0,0,0,0,0,0,0,0,0,-1,1518,344,0,0
301,680,0,0,0,0,0,0,0,0,0,-1,1525,344,0,0
308,680,0,0,0,0,0,0,0,0,0,-1,1532,344,0,0
315,680,0,0,0,0,0,0,0,0,0,-1,1539,344,0,0
322,680,0,0,0,0,0,0,0,0,0,-1,1546,344,0,0
329,680,0,0,0,0,0,0,0,0,0,-1,1553,344,0,0
336,680,0,0,0,0,0,0,0,0,0,-1,1560,344,0,0
343,680,0,0,0,0,0,0,0,0,0,-1,1567,344,0,0
350,680,0,0,0,0,0,0,0,0,0,-1,1574,344,0,0
357,680,0,0,0,0,0,0,0,0,0,-1,1581,344,0,0
364,680,0,0,0,0,0,0,0,0,0,-1,1588,344,0,0
371,680,0,0,0,0,0,0,0,0,0,-1,1595,344,0,0
378,680,0,0,0,0,0,0,0,0,0,-1,1602,344,0,0
385,680,0,0,0,0,0,0,0,0,0,-1,1609,344,0,0
392,680,0,0,0,0,0,0,0,0,0,-1,1616,344,0,0
399,680,0,0,0,0,0,0,0,0,0,-1,1623,344,0,0
406,680,0,0,0,0,0,0,0,0,0,-1,1630,344,0,0
413,680,0,0,0,0,0,0,0,0,0,-1,1637,344,0,0
420,680,0,0,0,0,0,0,0,0,0,-1,1644,344,0,0
427,680,0,0,0,0,0,0,0,0,0,-1,1651,344,0,0
434,680,0,0,0,0,0,0,0,0,0,-1,1658,344,0,0
441,680,0,0,0,0,0,0,0,0,0,-1,1665,344,0,0
448,680,0,0,0,0,0,0,0,0,0,-1,1672,344,0,0
455,680,0,0,0,0,0,0,0,0,0,-1,1679,344,0,0
462,680,0,0,0,0,0,0,0,0,0,-1,1686,344,0,0
469,680,0,0,0,0,0,0,0,0,0,-1,1693,344,0,0
476,680,0,0,0,0,0,0,0,0,0,-1,1700,344,0,0
483,680,0,0,0,0,0,0,0,0,0,-1,1707,344,0,0
490,680,0,0,0,0,0,0,0,0,0,-1,1714,344,0,0
497,680,0,0,0,0,0,0,0,0,0,-1,1721,344,0,0
504,680,0,0,0,0,0,0,0,0,0,-1,1728,344,0,0
511,680,0,0,0,0,0,0,0,0,0,-1,1735,344,0,0
518,680,0,0,0,0,0,0,0,0,0,-1,1742,344,0,0
525,680,0,0,0,0,0,0,0,0,0,-1,1749,344,0,0
532,680,0,0,0,0,0,0,0,0,0,-1,1756,344,0,0
539,680,0,0,0,0,0,0,0,0,0,-1,1763,344,0,0
546,680,0,0,0,0,0,0,0,0,0,-1,1770,344,0,0
553,680,0,0,0,0,0,0,0,0,0,-1,1777,344,0,0
560,680,0,0,0,0,0,0,0,0,0,-1,1784,344,0,0
567,680,0,0,0,0,0,0,0,0,0,-1,1791,344,0,0
574,680,0,0,0,0,0,0,0,0,0,-1,1798,344,0,0
581,680,0,0,0,0,0,0,0,0,0,-1,1805,344,0,0
588,680,0,0,0,0,0,0,0,0,0,-1,1812,344,0,0
595,680,0,0,0,0,0,0,0,0,0,-1,1819,344,0,0
602,680,0,0,0,0,0,0,0,0,0,-1,1826,344,0,0
609,680,0,0,0,0,0,0,0,0,0,-1,1833,344,0,0
616,680,0,0,0,0,0,0,0,0,0,-1,1840,344,0,0
623,680,0,0,0,0,0,0,0,0,0,-1,1847,344,0,0
630,680,0,0,0,0,0,0,0,0,0,-1,1854,344,0,0
637,680,0,0,0,0,0,0,0,0,0,-1,1861,344,0,0
644,680,0,0,0,0,0,0,0,0,0,-1,1868,344,0,0
651,680,0,0,0,0,0,0,0,0,0,-1,1875,344,0,0
658,680,0,0,0,0,0,0,0,0,0,-1,1882,344,0,0
665,680,0,0,0,0,0,0,0,0,0,-1,1889,344,0,0
672,680,0,0,0,0,0,0,0,0,0,-1,1896,344,0,0
679,680,0,0,0,0,0,0,0,0,0,-1,1903,344,0,0
686,680,0,0,0,0,0,0,0,0,0,-1,1910,344,0,0
693,680,0,0,0,0,0,0,0,0,0,-1,1917,344,0,0
700,680,0,0,0,0,0,0,0,0,0,-1,1924,344,0,0
707,680,0,0,0,0,0,0,0,0,0,-1,1931,344,0,0
714,680,0,0,0,0,0,0,0,0,0,-1,1938,344,0,0
721,680,0,0,0,0,0,0,0,0,0,-1,1945,344,0,0
728,680,0,0,0,0,0,0,0,0,0,-1,1952,344,0,0
735,680,0,0,0,0,0,0,0,0,0,-1,1959,344,0,0
742,680,0,0,0,0,0,0,0,0,0,-1,1966,344,0,0
749,680,0,0,0,0,0,0,0,0,0,-1,1973,344,0,0
756,680,0,0,0,0,0,0,0,0,0,-1,1980,344,0,0
763,680,0,0,0,0,0,0,0,0,0,-1,1987,344,0,0
770,680,0,0,0,0,0,0,0,0,0,-1,1994,344,0,0
777,680,0,0,0,0,0,0,0,0,0,-1,2001,344,0,0
784,680,0,0,0,0,0,0,0,0,0,-1,2008,344,0,0
791,680,0,0,0,0,0,0,0,0,0,-1,2015,344,0,0
798,680,0,0,0,0,0,0,0,0,0,-1,2022,344,0,0
805,680,0,0,0,0,0,0,0,0,0,-1,2029,344,0,0
812,680,0,0,0,0,0,0,0,0,0,-1,2036,344,0,0
-700,673,0,0,0,0,0,0,0,0,0,-1,524,351,0,0
-693,673,0,0,0,0,0,0,0,0,0,-1,531,351,0,0
-686,673,0,0,0,0,0,0,0,0,0,-1,538,351,0,0
-679,673,0,0,0,0,0,0,0,0,0,-1,545,351,0,0
-672,673,0,0,0,0,0,0,0,0,0,-1,552,351,0,0
-665,673,0,0,0,0,0,0,0,0,0,-1,559,351,0,0
-658,673,0,0,0,0,0,0,0,0,0,-1,566,351,0,0
-651,673,0,0,0,0,0,0,0,0,0,-1,573,351,0,0
-644,673,0,0,0,0,0,0,0,0,0,-1,580,351,0,0
-637,673,0,0,0,0,0,0,0,0,0,-1,587,351,0,0
-630,673,0,0,0,0,0,0,0,0,0,-1,594,351,0,0
-623,673,0,0,0,0,0,0,0,0,0,-1,601,351,0,0
-616,673,0,0,0,0,0,0,0,0,0,-1,608,351,0,0
-609,673,0,0,0,0,0,0,0,0,0,-1,615,351,0,0
-602,673,0,0,0,0,0,0,0,0,0,-1,622,351,0,0
-595,673,0,0,0,0,0,0,0,0,0,-1,629,351,0,0
-588,673,0,0,0,0,0,0,0,0,0,-1,636,351,0,0
-581,673,0,0,0,0,0,0,0,0,0,-1,643,351,0,0
-574,673,0,0,0,0,0,0,0,0,0,-1,650,351,0,0
-567,673,0,0,0,0,0,0,0,0,0,-1,657,351,0,0
-560,673,0,0,0,0,0,0,0,0,0,-1,664,351,0,0
-553,673,0,0,0,0,0,0,0,0,0,-1,671,351,0,0
-546,673,0,0,0,0,0,0,0,0,0,-1,678,351,0,0
-539,673,0,0,0,0,0,0,0,0,0,-1,685,351,0,0
-532,673,0,0,0,0,0,0,0,0,0,-1,692,351,0,0
-525,673,0,0,0,0,0,0,0,0,0,-1,699,351,0,0
-518,673,0,0,0,0,0,0,0,0,0,-1,706,351,0,0
-511,673,0,0,0,0,0,0,0,0,0,-1,713,351,0,0
-504,673,0,0,0,0,0,0,0,0,0,-1,720,351,0,0
-497,673,0,0,0,0,0,0,0,0,0,-1,727,351,0,0
-490,673,0,0,0,0,0,0,0,0,0,-1,734,351,0,0
-483,673,0,0,0,0,0,0,0,0,0,-1,741,351,0,0
-476,673,0,0,0,0,0,0,0,0,0,-1,748,351,0,0
-469,673,0,0,0,0,0,0,0,0,0,-1,755,351,0,0
-462,673,0,0,0,0,0,0,0,0,0,-1,762,351,0,0
-455,673,0,0,0,0,0,0,0,0,0,-1,769,351,0,0
-448,673,0,0,0,0,0,0,0,0,0,-1,776,351,0,0
-441,673,0,0,0,0,0,0,0,0,0,-1,783,351,0,0
-434,673,0,0,0,0,0,0,0,0,0,-1,790,351,0,0
-427,673,0,0,0,0,0,0,0,0,0,-1,797,351,0,0
-420,673,0,0,0,0,0,0,0,0,0,-1,804,351,0,0
-413,673,0,0,0,0,0,0,0,0,0,-1,811,351,0,0
-406,673,0,0,0,0,0,0,0,0,0,-1,818,351,0,0
-399,673,0,0,0,0,0,0,0,0,0,-1,825,351,0,0
-392,673,0,0,0,0,0,0,0,0,0,-1,832,351,0,0
-385,673,0,0,0,0,0,0,0,0,0,-1,839,351,0,0
-378,673,0,0,0,0,0,0,0,0,0,-1,846,351,0,0
-371,673,0,0,0,0,0,0,0,0,0,-1,853,351,0,0
-364,673,0,0,0,0,0,0,0,0,0,-1,860,351,0,0
-357,673,0,0,0,0,0,0,0,0,0,-1,867,351,0,0
-350,673,0,0,0,0,0,0,0,0,0,-1,874,351,0,0
-343,673,0,0,0,0,0,0,0,0,0,-1,881,351,0,0
-336,673,0,0,0,0,0,0,0,0,0,-1,888,351,0,0
-329,673,0,0,0,0,0,0,0,0,0,-1,895,351,0,0
-322,673,0,0,0,0,0,0,0,0,0,-1,902,351,0,0
-315,673,0,0,0,0,0,0,0,0,0,-1,909,351,0,0
-308,673,0,0,0,0,0,0,0,0,0,-1,916,351,0,0
-301,673,0,0,0,0,0,0,0,0,0,-1,923,351,0,0
-294,673,0,0,0,0,0,0,0,0,0,-1,930,351,0,0
-287,673,0,0,0,0,0,0,0,0,0,-1,937,351,0,0
-280,673,0,0,0,0,0,0,0,0,0,-1,944,351,0,0
-273,673,0,0,0,0,0,0,0,0,0,-1,951,351,0,0
-266,673,0,0,0,0,0,0,0,0,0,-1,958,351,0,0
-259,673,0,0,0,0,0,0,0,0,0,-1,965,351,0,0
-252,673,0,0,0,0,0,0,0,0,0,-1,972,351,0,0
-245,673,0,0,0,0,0,0,0,0,0,-1,979,351,0,0
-238,673,0,0,0,0,0,0,0,0,0,-1,986,351,0,0
-231,673,0,0,0,0,0,0,0,0,0,-1,993,351,0,0
-224,673,0,0,0,0,0,0,0,0,0,-1,1000,351,0,0
-217,673,0,0,0,0,0,0,0,0,0,-1,1007,351,0,0
-210,673,0,0,0,0,0,0,0,0,0,-1,1014,351,0,0
-203,673,0,0,0,0,0,0,0,0,0,-1,1021,351,0,0
-196,673,0,0,0,0,0,0,0,0,0,-1,1028,351,0,0
-189,673,0,0,0,0,0,0,0,0,0,-1,1035,351,0,0
-182,673,0,0,0,0,0,0,0,0,0,-1,1042,351,0,0
-175,673,7.10449,-31.8279,0,0,0,0,0,0,0,-1,1049,351,7.10448,31.8279
-168,673,7.33081,-32.7122,0,0,0,0,0,0,0,-1,1056,351,7.33085,32.7122
-161,673,7.8938,-33.5352,0,0,0,0,0,0,0,-1,1063,351,7.89385,33.5352
-154,673,8.80566,-35.3518,0,0,0,0,0,0,0,-1,1070,351,8.80563,35.3518
-147,673,6.83533,-35.4857,0,0,0,0,0,0,0,-1,1077,351,6.83532,35.4858
-140,673,6.99841,-35.4937,0,0,0,0,0,0,0,-1,1084,351,6.99841,35.4937
-133,673,6.18286,-35.1225,0,0,0,0,0,0,0,-1,1091,351,6.18281,35.1225
-126,673,6.0929,-35.0725,0,0,0,0,0,0,0,-1,1098,351,6.09293,35.0725
-119,673,6.98071,-34.0173,0,0,0,0,0,0,0,-1,1105,351,6.98074,34.0173
-112,673,7.27234,-32.5801,0,0,0,0,0,0,0,-1,1112,351,7.27231,32.5801
-105,673,21.1144,-43.3143,0,0,0,0,0,0,0,-1,1119,351,21.1143,43.3143
-98,673,14.8014,-36.7519,0,0,0,0,0,0,0,-1,1126,351,14.8014,36.7519
-91,673,8.54944,-29.9639,0,0,0,0,0,0,0,-1,1133,351,8.54949,29.9639
-84,673,2.17102,-24.3204,0,0,0,0,0,0,0,-1,1140,351,2.17107,24.3204
-77,673,-4.25378,-18.8346,0,0,0,0,0,0,0,-1,1147,351,-4.25381,18.8346
-70,673,-10.7933,-13.6681,0,0,0,0,0,0,0,-1,1154,351,-10.7934,13.6681
-63,673,-17.3896,-8.24469,0,0,0,0,0,0,0,-1,1161,351,-17.3896,8.2447
-56,673,-18.0282,2.79053,0,0,0,0,0,0,0,-1,1168,351,-18.0283,-2.79052
-49,673,-0.926758,-0.115448,0,0,0,0,0,0,0,-1,1175,351,-0.926732,0.115444
-42,673,-1.15015,0.289917,0,0,0,0,0,0,0,-1,1182,351,-1.15017,-0.289932
-35,673,-0.919556,-1.00711,0,0,0,0,0,0,0,-1,1189,351,-0.919514,1.00711
-28,673,5.28918,-39.2331,0,0,0,0,0,0,0,-1,1196,351,5.28924,39.2331
-21,673,6.20532,-40.0991,0,0,0,0,0,0,0,-1,1203,351,6.20528,40.0991
-14,673,6.10571,-40.0553,0.0184238,0.0388645,0.00508348,0.040059,0.0172293,1.34002,0.0232033,0.0472607,1210,351,6.10577,40.0553
-7,673,6.03455,-40.3292,0.0171575,0.0384209,0.00657902,0.0402918,0.0152865,1.29373,0.023487,0.0448779,1217,351,6.03451,40.3292
0,673,5.9635,-40.5767,0,0,0,0,0,0,0,-1,1224,351,5.96347,40.5767
7,673,6.29419,-40.4856,0,0,0,0,0,0,0,-1,1231,351,6.29421,40.4856
14,673,6.09436,-40.5248,0.0124424,0.0343489,0.0109372,0.0388745,0.00791679,1.17846,0.0237219,0.0423716,1238,351,6.0943,40.5249
21,673,5.68896,-40.8762,0.00981349,0.034119,0.0121791,0.0391714,0.00476104,1.17756,0.0246808,0.0314218,1245,351,5.68899,40.8762
28,673,5.72852,-40.9412,0.00691189,0.0345818,0.0132072,0.0398737,0.00162,1.1897,0.0260592,0.0225353,1252,351,5.72852,40.9412
35,673,5.70313,-40.9463,0.00437625,0.0361824,0.0142245,0.0416158,-0.00105711,1.20593,0.0281028,0.0332495,1259,351,5.70315,40.9463
42,673,5.48328,-40.9704,0.00232361,0.0385929,0.0151578,0.0440935,-0.00317697,1.22269,0.0305099,0.0351084,1266,351,5.48331,40.9704
49,673,5.36218,-41.0248,0.000463016,0.0420241,0.01498,0.0468606,-0.00437347,1.2585,0.0327956,0.0204486,1273,351,5.36216,41.0248
56,673,5.32556,-41.0103,-0.000359048,0.0487455,0.0135289,0.0522262,-0.00383973,1.31898,0.0361654,0.0160763,1280,351,5.32555,41.0103
63,673,5.38208,-40.8537,-0.000203139,0.0528433,0.0120202,0.0554399,-0.00279978,1.35804,0.0379277,0.020259,1287,351,5.38214,40.8537
70,673,5.30786,-40.7212,-0.000245366,0.0569924,0.0111223,0.0590776,-0.00233064,1.38546,0.0401845,0.032502,1294,351,5.30791,40.7212
77,673,5.2251,-40.4626,-0.000871575,0.0608587,0.00951684,0.0622926,-0.00230546,1.42125,0.0423178,0.0375819,1301,351,5.22514,40.4627
84,673,5.24414,-40.3873,-0.00139192,0.0639188,0.00688054,0.0646358,-0.00210892,1.46696,0.0438105,0.0451838,1308,351,5.2442,40.3873
91,673,5.08862,-41.0538,0,0,0,0,0,0,0,-1,1315,351,5.08865,41.0538
98,673,4.8501,-41.0243,0,0,0,0,0,0,0,-1,1322,351,4.85004,41.0243
105,673,4.62366,-40.7662,0,0,0,0,0,0,0,-1,1329,351,4.6236,40.7662
112,673,4.51123,-40.6484,0,0,0,0,0,0,0,-1,1336,351,4.51127,40.6484
119,673,4.17627,-40.6503,0,0,0,0,0,0,0,-1,1343,351,4.17631,40.6503
126,673,4.49023,-40.3106,-0.00471279,0.0530158,-0.00427467,0.0533306,-0.0050276,-1.49728,0.0373426,0.0431748,1350,351,4.49023,40.3106
133,673,4.14648,-40.1688,-0.00660905,0.0486051,-0.00472527,0.0490065,-0.00701052,-1.48604,0.0352411,0.0451698,1357,351,4.14644,40.1688
140,673,4.18701,-40.1269,-0.00856107,0.0445558,-0.00524131,0.045068,-0.00907331,-1.47337,0.0334821,0.0442626,1364,351,4.18707,40.1269
147,673,1.9325,-40.4427,0,0,0,0,0,0,0,-1,1371,351,1.9325,40.4428
154,673,4.28528,-38.9786,0,0,0,0,0,0,0,-1,1378,351,4.28523,38.9786
161,673,4.28223,-38.6197,0,0,0,0,0,0,0,-1,1385,351,4.28217,38.6197
168,673,6.87061,1.83954,0,0,0,0,0,0,0,-1,1392,351,6.87063,-1.83953
175,673,6.6228,1.1459,0,0,0,0,0,0,0,-1,1399,351,6.62276,-1.14591
182,673,6.37244,0.796112,0,0,0,0,0,0,0,-1,1406,351,6.3724,-0.796102
189,673,6.12097,0.265472,0,0,0,0,0,0,0,-1,1413,351,6.121,-0.265482
196,673,6.02173,3.12717,0,0,0,0,0,0,0,-1,1420,351,6.02176,-3.12717
203,673,5.04456,1.6351,0,0,0,0,0,0,0,-1,1427,351,5.04455,-1.63509
210,673,4.79224,0.447479,0,0,0,0,0,0,0,-1,1434,351,4.79229,-0.447469
217,673,2.01648,0.972687,0,0,0,0,0,0,0,-1,1441,351,2.01644,-0.972691
224,673,2.3689,-1.80539,0,0,0,0,0,0,0,-1,1448,351,2.36896,1.80539
231,673,2.65857,-2.18497,0,0,0,0,0,0,0,-1,1455,351,2.65852,2.18496
238,673,3.77844,-2.06088,0,0,0,0,0,0,0,-1,1462,351,3.77839,2.06088
245,673,3.5376,-0.190399,0,0,0,0,0,0,0,-1,1469,351,3.53759,0.1904
252,673,3.80518,0.55603,0,0,0,0,0,0,0,-1,1476,351,3.80519,-0.556022
259,673,3.88562,1.29617,0,0,0,0,0,0,0,-1,1483,351,3.88562,-1.29618
266,673,4.22424,2.04834,0,0,0,0,0,0,0,-1,1490,351,4.22429,-2.04834
273,673,6.07886,0.385895,0,0,0,0,0,0,0,-1,1497,351,6.0789,-0.385906
280,673,6.97534,-0.0820007,0,0,0,0,0,0,0,-1,1504,351,6.97536,0.0820122
287,673,7.66968,-0.348541,0,0,0,0,0,0,0,-1,1511,351,7.66969,0.348534
294,673,8.20996,0.28537,0,0,0,0,0,0,0,-1,1518,351,8.20993,-0.28536
301,673,0,0,0,0,0,0,0,0,0,-1,1525,351,0,0
308,673,0,0,0,0,0,0,0,0,0,-1,1532,351,0,0
315,673,0,0,0,0,0,0,0,0,0,-1,1539,351,0,0
322,673,0,0,0,0,0,0,0,0,0,-1,1546,351,0,0
329,673,0,0,0,0,0,0,0,0,0,-1,1553,351,0,0
336,673,0,0,0,0,0,0,0,0,0,-1,1560,351,0,0
343,673,0,0,0,0,0,0,0,0,0,-1,1567,351,0,0
350,673,0,0,0,0,0,0,0,0,0,-1,1574,351,0,0
357,673,0,0,0,0,0,0,0,0,0,-1,1581,351,0,0
364,673,0,0,0,0,0,0,0,0,0,-1,1588,351,0,0
371,673,0,0,0,0,0,0,0,0,0,-1,1595,351,0,0
378,673,0,0,0,0,0,0,0,0,0,-1,1602,351,0,0
385,673,0,0,0,0,0,0,0,0,0,-1,1609,351,0,0
392,673,0,0,0,0,0,0,0,0,0,-1,1616,351,0,0
399,673,0,0,0,0,0,0,0,0,0,-1,1623,351,0,0
406,673,0,0,0,0,0,0,0,0,0,-1,1630,351,0,0
413,673,0,0,0,0,0,0,0,0,0,-1,1637,351,0,0
420,673,0,0,0,0,0,0,0,0,0,-1,1644,351,0,0
427,673,0,0,0,0,0,0,0,0,0,-1,1651,351,0,0
434,673,0,0,0,0,0,0,0,0,0,-1,1658,351,0,0
441,673,0,0,0,0,0,0,0,0,0,-1,1665,351,0,0
448,673,0,0,0,0,0,0,0,0,0,-1,1672,351,0,0
455,673,0,0,0,0,0,0,0,0,0,-1,1679,351,0,0
462,673,0,0,0,0,0,0,0,0,0,-1,1686,351,0,0
469,673,0,0,0,0,0,0,0,0,0,-1,1693,351,0,0
476,673,0,0,0,0,0,0,0,0,0,-1,1700,351,0,0
483,673,0,0,0,0,0,0,0,0,0,-1,1707,351,0,0
490,673,0,0,0,0,0,0,0,0,0,-1,1714,351,0,0
497,673,0,0,0,0,0,0,0,0,0,-1,1721,351,0,0
504,673,0,0,0,0,0,0,0,0,0,-1,1728,351,0,0
511,673,0,0,0,0,0,0,0,0,0,-1,1735,351,0,0
518,673,0,0,0,0,0,0,0,0,0,-1,1742,351,0,0
525,673,0,0,0,0,0,0,0,0,0,-1,1749,351,0,0
532,673,0,0,0,0,0,0,0,0,0,-1,1756,351,0,0
539,673,0,0,0,0,0,0,0,0,0,-1,1763,351,0,0
546,673,0,0,0,0,0,0,0,0,0,-1,1770,351,0,0
553,673,0,0,0,0,0,0,0,0,0,-1,1777,351,0,0
560,673,0,0,0,0,0,0,0,0,0,-1,1784,351,0,0
567,673,0,0,0,0,0,0,0,0,0,-1,1791,351,0,0
574,673,0,0,0,0,0,0,0,0,0,-1,1798,351,0,0
581,673,0,0,0,0,0,0,0,0,0,-1,1805,351,0,0
588,673,0,0,0,0,0,0,0,0,0,-1,1812,351,0,0
595,673,0,0,0,0,0,0,0,0,0,-1,1819,351,0,0
602,673,0,0,0,0,0,0,0,0,0,-1,1826,351,0,0
609,673,0,0,0,0,0,0,0,0,0,-1,1833,351,0,0
616,673,0,0,0,0,0,0,0,0,0,-1,1840,351,0,0
623,673,0,0,0,0,0,0,0,0,0,-1,1847,351,0,0
630,673,0,0,0,0,0,0,0,0,0,-1,1854,351,0,0
637,673,0,0,0,0,0,0,0,0,0,-1,1861,351,0,0
644,673,0,0,0,0,0,0,0,0,0,-1,1868,351,0,0
651,673,0,0,0,0,0,0,0,0,0,-1,1875,351,0,0
658,673,0,0,0,0,0,0,0,0,0,-1,1882,351,0,0
665,673,0,0,0,0,0,0,0,0,0,-1,1889,351,0,0
672,673,0,0,0,0,0,0,0,0,0,-1,1896,351,0,0
679,673,0,0,0,0,0,0,0,0,0,-1,1903,351,0,0
686,673,0,0,0,0,0,0,0,0,0,-1,1910,351,0,0
693,673,0,0,0,0,0,0,0,0,0,-1,1917,351,0,0
700,673,0,0,0,0,0,0,0,0,0,-1,1924,351,0,0
707,673,0,0,0,0,0,0,0,0,0,-1,1931,351,0,0
714,673,0,0,0,0,0,0,0,0,0,-1,1938,351,0,0
721,673,0,0,0,0,0,0,0,0,0,-1,1945,351,0,0
728,673,0,0,0,0,0,0,0,0,0,-1,1952,351,0,0
735,673,0,0,0,0,0,0,0,0,0,-1,1959,351,0,0
742,673,0,0,0,0,0,0,0,0,0,-1,1966,351,0,0
749,673,0,0,0,0,0,0,0,0,0,-1,1973,351,0,0
756,673,0,0,0,0,0,0,0,0,0,-1,1980,351,0,0
763,673,0,0,0,0,0,0,0,0,0,-1,1987,351,0,0
770,673,0,0,0,0,0,0,0,0,0,-1,1994,351,0,0
777,673,0,0,0,0,0,0,0,0,0,-1,2001,351,0,0
784,673,0,0,0,0,0,0,0,0,0,-1,2008,351,0,0
791,673,0,0,0,0,0,0,0,0,0,-1,2015,351,0,0
798,673,0,0,0,0,0,0,0,0,0,-1,2022,351,0,0
805,673,0,0,0,0,0,0,0,0,0,-1,2029,351,0,0
812,673,0,0,0,0,0,0,0,0,0,-1,2036,351,0,0
-700,666,0,0,0,0,0,0,0,0,0,-1,524,358,0,0
-693,666,0,0,0,0,0,0,0,0,0,-1,531,358,0,0
-686,666,0,0,0,0,0,0,0,0,0,-1,538,358,0,0
-679,666,0,0,0,0,0,0,0,0,0,-1,545,358,0,0
-672,666,0,0,0,0,0,0,0,0,0,-1,552,358,0,0
-665,666,0,0,0,0,0,0,0,0,0,-1,559,358,0,0
-658,666,0,0,0,0,0,0,0,0,0,-1,566,358,0,0
-651,666,0,0,0,0,0,0,0,0,0,-1,573,358,0,0
-644,666,0,0,0,0,0,0,0,0,0,-1,580,358,0,0
-637,666,0,0,0,0,0,0,0,0,0,-1,587,358,0,0
-630,666,0,0,0,0,0,0,0,0,0,-1,594,358,0,0
-623,666,0,0,0,0,0,0,0,0,0,-1,601,358,0,0
-616,666,0,0,0,0,0,0,0,0,0,-1,608,358,0,0
-609,666,0,0,0,0,0,0,0,0,0,-1,615,358,0,0
-602,666,0,0,0,0,0,0,0,0,0,-1,622,358,0,0
-595,666,0,0,0,0,0,0,0,0,0,-1,629,358,0,0
-588,666,0,0,0,0,0,0,0,0,0,-1,636,358,0,0
-581,666,0,0,0,0,0,0,0,0,0,-1,643,358,0,0
-574,666,0,0,0,0,0,0,0,0,0,-1,650,358,0,0
-567,666,0,0,0,0,0,0,0,0,0,-1,657,358,0,0
-560,666,0,0,0,0,0,0,0,0,0,-1,664,358,0,0
-553,666,0,0,0,0,0,0,0,0,0,-1,671,358,0,0
-546,666,0,0,0,0,0,0,0,0,0,-1,678,358,0,0
-539,666,0,0,0,0,0,0,0,0,0,-1,685,358,0,0
-532,666,0,0,0,0,0,0,0,0,0,-1,692,358,0,0
-525,666,0,0,0,0,0,0,0,0,0,-1,699,358,0,0
-518,666,0,0,0,0,0,0,0,0,0,-1,706,358,0,0
-511,666,0,0,0,0,0,0,0,0,0,-1,713,358,0,0
-504,666,0,0,0,0,0,0,0,0,0,-1,720,358,0,0
-497,666,0,0,0,0,0,0,0,0,0,-1,727,358,0,0
-490,666,0,0,0,0,0,0,0,0,0,-1,734,358,0,0
-483,666,0,0,0,0,0,0,0,0,0,-1,741,358,0,0
-476,666,0,0,0,0,0,0,0,0,0,-1,748,358,0,0
-469,666,0,0,0,0,0,0,0,0,0,-1,755,358,0,0
-462,666,0,0,0,0,0,0,0,0,0,-1,762,358,0,0
-455,666,0,0,0,0,0,0,0,0,0,-1,769,358,0,0
-448,666,0,0,0,0,0,0,0,0,0,-1,776,358,0,0
-441,666,0,0,0,0,0,0,0,0,0,-1,783,358,0,0
-434,666,0,0,0,0,0,0,0,0,0,-1,790,358,0,0
-427,666,0,0,0,0,0,0,0,0,0,-1,797,358,0,0
-420,666,0,0,0,0,0,0,0,0,0,-1,804,358,0,0
-413,666,0,0,0,0,0,0,0,0,0,-1,811,358,0,0
-406,666,0,0,0,0,0,0,0,0,0,-1,818,358,0,0
-399,666,0,0,0,0,0,0,0,0,0,-1,825,358,0,0
-392,666,0,0,0,0,0,0,0,0,0,-1,832,358,0,0
-385,666,0,0,0,0,0,0,0,0,0,-1,839,358,0,0
-378,666,0,0,0,0,0,0,0,0,0,-1,846,358,0,0
-371,666,0,0,0,0,0,0,0,0,0,-1,853,358,0,0
-364,666,0,0,0,0,0,0,0,0,0,-1,860,358,0,0
-357,666,0,0,0,0,0,0,0,0,0,-1,867,358,0,0
-350,666,0,0,0,0,0,0,0,0,0,-1,874,358,0,0
-343,666,0,0,0,0,0,0,0,0,0,-1,881,358,0,0
-336,666,0,0,0,0,0,0,0,0,0,-1,888,358,0,0
-329,666,0,0,0,0,0,0,0,0,0,-1,895,358,0,0
-322,666,0,0,0,0,0,0,0,0,0,-1,902,358,0,0
-315,666,0,0,0,0,0,0,0,0,0,-1,909,358,0,0
-308,666,0,0,0,0,0,0,0,0,0,-1,916,358,0,0
-301,666,0,0,0,0,0,0,0,0,0,-1,923,358,0,0
-294,666,0,0,0,0,0,0,0,0,0,-1,930,358,0,0
-287,666,0,0,0,0,0,0,0,0,0,-1,937,358,0,0
-280,666,0,0,0,0,0,0,0,0,0,-1,944,358,0,0
-273,666,0,0,0,0,0,0,0,0,0,-1,951,358,0,0
-266,666,0,0,0,0,0,0,0,0,0,-1,958,358,0,0
-259,666,0,0,0,0,0,0,0,0,0,-1,965,358,0,0
-252,666,0,0,0,0,0,0,0,0,0,-1,972,358,0,0
-245,666,0,0,0,0,0,0,0,0,0,-1,979,358,0,0
-238,666,0,0,0,0,0,0,0,0,0,-1,986,358,0,0
-231,666,0,0,0,0,0,0,0,0,0,-1,993,358,0,0
-224,666,0,0,0,0,0,0,0,0,0,-1,1000,358,0,0
-217,666,0,0,0,0,0,0,0,0,0,-1,1007,358,0,0
-210,666,0,0,0,0,0,0,0,0,0,-1,1014,358,0,0
-203,666,0,0,0,0,0,0,0,0,0,-1,1021,358,0,0
-196,666,4.03418,-28.8724,0,0,0,0,0,0,0,-1,1028,358,4.03422,28.8724
-189,666,5.00366,-29.597,0,0,0,0,0,0,0,-1,1035,358,5.00363,29.597
-182,666,6.83252,-30.9843,0,0,0,0,0,0,0,-1,1042,358,6.83247,30.9844
-175,666,7.01611,-31.8763,0,0,0,0,0,0,0,-1,1049,358,7.01617,31.8762
-168,666,7.21545,-32.7414,0,0,0,0,0,0,0,-1,1056,358,7.2154,32.7414
-161,666,7.69116,-33.6269,0,0,0,0,0,0,0,-1,1063,358,7.69121,33.6269
-154,666,8.37183,-35.0303,0,0,0,0,0,0,0,-1,1070,358,8.37179,35.0303
-147,666,7.16418,-35.2599,0,0,0,0,0,0,0,-1,1077,358,7.16414,35.2599
-140,666,6.81665,-34.9268,0,0,0,0,0,0,0,-1,1084,358,6.81667,34.9268
-133,666,6.47253,-34.7932,0,0,0,0,0,0,0,-1,1091,358,6.47249,34.7932
-126,666,6.04785,-34.7825,0,0,0,0,0,0,0,-1,1098,358,6.04791,34.7825
-119,666,5.62927,-34.7841,0,0,0,0,0,0,0,-1,1105,358,5.62923,34.7841
-112,666,6.77014,-32.8165,0,0,0,0,0,0,0,-1,1112,358,6.77013,32.8165
-105,666,6.30908,-29.0855,0,0,0,0,0,0,0,-1,1119,358,6.30905,29.0855
-98,666,15.4427,-31.5168,0,0,0,0,0,0,0,-1,1126,358,15.4428,31.5168
-91,666,9.5127,-25.1347,0,0,0,0,0,0,0,-1,1133,358,9.51269,25.1347
-84,666,2.91589,-19.4071,0,0,0,0,0,0,0,-1,1140,358,2.91592,19.4071
-77,666,-3.48083,-14.0782,0,0,0,0,0,0,0,-1,1147,358,-3.48081,14.0782
-70,666,-9.99438,-8.90146,0,0,0,0,0,0,0,-1,1154,358,-9.99433,8.90146
-63,666,-11.7778,-0.975189,0,0,0,0,0,0,0,-1,1161,358,-11.7778,0.97519
-56,666,0.424683,-2.04132,0,0,0,0,0,0,0,-1,1168,358,0.424665,2.04132
-49,666,0.754395,-2.23169,0,0,0,0,0,0,0,-1,1175,358,0.754383,2.23169
-42,666,1.34473,-3.53897,0,0,0,0,0,0,0,-1,1182,358,1.34476,3.53896
-35,666,5.8208,-40.3145,0,0,0,0,0,0,0,-1,1189,358,5.82075,40.3144
-28,666,6.1145,-40.114,0,0,0,0,0,0,0,-1,1196,358,6.11456,40.114
-21,666,6.01074,-40.3236,0.00784178,0.0297838,0.00252643,0.0300709,0.00755464,1.45763,0.0180636,0.0371465,1203,358,6.01074,40.3236
-14,666,5.84119,-40.4581,0.00889271,0.030266,0.00336195,0.0307824,0.00837636,1.4184,0.0183772,0.031596,1210,358,5.84123,40.4581
-7,666,5.80811,-40.6288,0.00839896,0.0302258,0.00447867,0.031109,0.00751572,1.37608,0.0187433,0.0194703,1217,358,5.80816,40.6288
0,666,5.80042,-40.7965,0.00785965,0.0295173,0.00563393,0.0308952,0.00648173,1.33093,0.0188122,0.014244,1224,358,5.80041,40.7965
7,666,5.7334,-40.8582,0.00730644,0.0287838,0.00667542,0.0306895,0.00540073,1.29271,0.0189181,0.0194338,1231,358,5.73335,40.8583
14,666,5.67273,-40.9012,0.00639745,0.0282345,0.00766974,0.0306591,0.00397284,1.26461,0.0192522,0.0183639,1238,358,5.67278,40.9012
21,666,5.57495,-41.0706,0.004896,0.0284407,0.00856434,0.0312264,0.00211032,1.25633,0.020151,0.0145696,1245,358,5.57494,41.0706
28,666,5.52466,-41.1811,0.0031933,0.0290797,0.0092959,0.032072,0.000201002,1.25938,0.0213146,0.0157371,1252,358,5.52464,41.1811
35,666,5.53516,-41.1859,0.00175661,0.0305085,0.0100406,0.0336677,-0.00140259,1.26596,0.022927,0.0153792,1259,358,5.53512,41.1859
42,666,5.45044,-41.2373,0.000613329,0.0323996,0.010782,0.0357118,-0.00269885,1.27275,0.0247566,0.01605,1266,358,5.45048,41.2374
49,666,5.36206,-41.2709,-0.000519286,0.0349883,0.0107234,0.0379755,-0.00350649,1.29912,0.0265631,0.0126973,1273,358,5.36208,41.2709
56,666,5.32495,-41.3063,-0.00105981,0.0398838,0.00982406,0.042119,-0.00329498,1.34708,0.0292396,0.0133404,1280,358,5.32498,41.3064
63,666,5.27344,-41.3755,-0.00096211,0.0429377,0.00888284,0.044667,-0.00269138,1.37853,0.0307144,0.0164928,1287,358,5.27342,41.3755
70,666,5.25439,-41.3293,-0.000998506,0.0460092,0.00837736,0.0474575,-0.00244684,1.3996,0.0324847,0.0166171,1294,358,5.25445,41.3293
77,666,5.19836,-41.1949,-0.00159969,0.0487489,0.00733117,0.0497947,-0.00264545,1.42911,0.0341125,0.021153,1301,358,5.19834,41.195
84,666,5.16919,-41.237,-0.00219844,0.050792,0.00549429,0.0513557,-0.00276211,1.46856,0.035194,0.0303785,1308,358,5.16924,41.237
91,666,5.09851,-41.2587,-0.00197392,0.0515767,0.00338804,0.0517902,-0.00218742,1.50786,0.0352785,0.028223,1315,358,5.09855,41.2587
98,666,4.9541,-41.1681,-0.00161527,0.0514386,0.00159627,0.0514866,-0.00166326,1.54074,0.034892,0.0228727,1322,358,4.95413,41.1681
105,666,4.84888,-41.0208,-0.00203477,0.0504538,-2.36949e-05,0.0504538,-0.00203478,-1.57034,0.0343342,0.0254921,1329,358,4.84891,41.0208
112,666,4.80164,-40.9016,0,0,0,0,0,0,0,-1,1336,358,4.80169,40.9016
119,666,4.81226,-40.763,0,0,0,0,0,0,0,-1,1343,358,4.81222,40.763
126,666,4.66333,-40.4156,-0.00580465,0.0415984,-0.00299803,0.0417872,-0.00599352,-1.50788,0.0300559,0.0323331,1350,358,4.66334,40.4156
133,666,4.61951,-40.3049,-0.00718815,0.0381104,-0.00341249,0.038366,-0.00744378,-1.49603,0.0283858,0.028582,1357,358,4.61951,40.3049
140,666,4.59534,-40.2707,-0.00863557,0.0348274,-0.00383782,0.0351636,-0.00897185,-1.4834,0.0269358,0.0263919,1364,358,4.59537,40.2707
147,666,4.44995,-40.0842,-0.00998638,0.0319545,-0.00412509,0.0323564,-0.0103883,-1.47368,0.0257421,0.0247308,1371,358,4.44989,40.0842
154,666,4.45496,-39.7093,-0.0106306,0.0293297,-0.00320953,0.0295858,-0.0108868,-1.49116,0.0241839,0.0229805,1378,358,4.45491,39.7093
161,666,4.49146,-39.4655,-0.0121321,0.0226063,-0.00127059,0.0226527,-0.0121785,-1.53429,0.0204106,0.0294273,1385,358,4.4914,39.4656
168,666,4.49231,-39.5322,0,0,0,0,0,0,0,-1,1392,358,4.49228,39.5322
175,666,4.57544,-39.3928,0,0,0,0,0,0,0,-1,1399,358,4.5754,39.3928
182,666,2.60876,-5.17068,0,0,0,0,0,0,0,-1,1406,358,2.6088,5.17068
189,666,2.46973,-5.49979,0,0,0,0,0,0,0,-1,1413,358,2.46975,5.49979
196,666,2.32458,-5.23651,0,0,0,0,0,0,0,-1,1420,358,2.32461,5.23653
203,666,2.28064,-3.88004,0,0,0,0,0,0,0,-1,1427,358,2.28059,3.88003
210,666,3.02576,-5.83548,0,0,0,0,0,0,0,-1,1434,358,3.02581,5.83547
217,666,2.30444,-5.36011,0,0,0,0,0,0,0,-1,1441,358,2.30447,5.3601
224,666,1.82324,-6.03101,0,0,0,0,0,0,0,-1,1448,358,1.82322,6.031
231,666,2.29797,-10.1093,0,0,0,0,0,0,0,-1,1455,358,2.29801,10.1093
238,666,2.52429,-6.10568,0,0,0,0,0,0,0,-1,1462,358,2.52423,6.10567
245,666,4.53345,-1.38205,0,0,0,0,0,0,0,-1,1469,358,4.53349,1.38204
252,666,4.77405,-0.246979,0,0,0,0,0,0,0,-1,1476,358,4.77405,0.246993
259,666,4.83655,1.14087,0,0,0,0,0,0,0,-1,1483,358,4.83652,-1.14087
266,666,6.14148,0.749512,0,0,0,0,0,0,0,-1,1490,358,6.14144,-0.749519
273,666,2.75732,-31.3823,0,0,0,0,0,0,0,-1,1497,358,2.75737,31.3823
280,666,-8.74878,-17.2596,0,0,0,0,0,0,0,-1,1504,358,-8.74875,17.2596
287,666,-7.06934,-20.3464,0,0,0,0,0,0,0,-1,1511,358,-7.06933,20.3464
294,666,-5.74683,-22.5017,0,0,0,0,0,0,0,-1,1518,358,-5.74685,22.5017
301,666,-6.6886,-23.5144,0,0,0,0,0,0,0,-1,1525,358,-6.68864,23.5144
308,666,-7.45471,-24.766,0,0,0,0,0,0,0,-1,1532,358,-7.45475,24.766
315,666,1.76294,-0.284027,0,0,0,0,0,0,0,-1,1539,358,1.76291,0.284016
322,666,0,0,0,0,0,0,0,0,0,-1,1546,358,0,0
329,666,0,0,0,0,0,0,0,0,0,-1,1553,358,0,0
336,666,0,0,0,0,0,0,0,0,0,-1,1560,358,0,0
343,666,0,0,0,0,0,0,0,0,0,-1,1567,358,0,0
350,666,0,0,0,0,0,0,0,0,0,-1,1574,358,0,0
357,666,0,0,0,0,0,0,0,0,0,-1,1581,358,0,0
364,666,0,0,0,0,0,0,0,0,0,-1,1588,358,0,0
371,666,0,0,0,0,0,0,0,0,0,-1,1595,358,0,0
378,666,0,0,0,0,0,0,0,0,0,-1,1602,358,0,0
385,666,0,0,0,0,0,0,0,0,0,-1,1609,358,0,0
392,666,0,0,0,0,0,0,0,0,0,-1,1616,358,0,0
399,666,0,0,0,0,0,0,0,0,0,-1,1623,358,0,0
406,666,0,0,0,0,0,0,0,0,0,-1,1630,358,0,0
413,666,0,0,0,0,0,0,0,0,0,-1,1637,358,0,0
420,666,0,0,0,0,0,0,0,0,0,-1,1644,358,0,0
427,666,0,0,0,0,0,0,0,0,0,-1,1651,358,0,0
434,666,0,0,0,0,0,0,0,0,0,-1,1658,358,0,0
441,666,0,0,0,0,0,0,0,0,0,-1,1665,358,0,0
448,666,0,0,0,0,0,0,0,0,0,-1,1672,358,0,0
455,666,0,0,0,0,0,0,0,0,0,-1,1679,358,0,0
462,666,0,0,0,0,0,0,0,0,0,-1,1686,358,0,0
469,666,0,0,0,0,0,0,0,0,0,-1,1693,358,0,0
476,666,0,0,0,0,0,0,0,0,0,-1,1700,358,0,0
483,666,0,0,0,0,0,0,0,0,0,-1,1707,358,0,0
490,666,0,0,0,0,0,0,0,0,0,-1,1714,358,0,0
497,666,0,0,0,0,0,0,0,0,0,-1,1721,358,0,0
504,666,0,0,0,0,0,0,0,0,0,-1,1728,358,0,0
511,666,0,0,0,0,0,0,0,0,0,-1,1735,358,0,0
518,666,0,0,0,0,0,0,0,0,0,-1,1742,358,0,0
525,666,0,0,0,0,0,0,0,0,0,-1,1749,358,0,0
532,666,0,0,0,0,0,0,0,0,0,-1,1756,358,0,0
539,666,0,0,0,0,0,0,0,0,0,-1,1763,358,0,0
546,666,0,0,0,0,0,0,0,0,0,-1,1770,358,0,0
553,666,0,0,0,0,0,0,0,0,0,-1,1777,358,0,0
560,666,0,0,0,0,0,0,0,0,0,-1,1784,358,0,0
567,666,0,0,0,0,0,0,0,0,0,-1,1791,358,0,0
574,666,0,0,0,0,0,0,0,0,0,-1,1798,358,0,0
581,666,0,0,0,0,0,0,0,0,0,-1,1805,358,0,0
588,666,0,0,0,0,0,0,0,0,0,-1,1812,358,0,0
595,666,0,0,0,0,0,0,0,0,0,-1,1819,358,0,0
602,666,0,0,0,0,0,0,0,0,0,-1,1826,358,0,0
609,666,0,0,0,0,0,0,0,0,0,-1,1833,358,0,0
616,666,0,0,0,0,0,0,0,0,0,-1,1840,358,0,0
623,666,0,0,0,0,0,0,0,0,0,-1,1847,358,0,0
630,666,0,0,0,0,0,0,0,0,0,-1,1854,358,0,0
637,666,0,0,0,0,0,0,0,0,0,-1,1861,358,0,0
644,666,0,0,0,0,0,0,0,0,0,-1,1868,358,0,0
651,666,0,0,0,0,0,0,0,0,0,-1,1875,358,0,0
658,666,0,0,0,0,0,0,0,0,0,-1,1882,358,0,0
665,666,0,0,0,0,0,0,0,0,0,-1,1889,358,0,0
672,666,0,0,0,0,0,0,0,0,0,-1,1896,358,0,0
679,666,0,0,0,0,0,0,0,0,0,-1,1903,358,0,0
686,666,0,0,0,0,0,0,0,0,0,-1,1910,358,0,0
693,666,0,0,0,0,0,0,0,0,0,-1,1917,358,0,0
700,666,0,0,0,0,0,0,0,0,0,-1,1924,358,0,0
707,666,0,0,0,0,0,0,0,0,0,-1,1931,358,0,0
714,666,0,0,0,0,0,0,0,0,0,-1,1938,358,0,0
721,666,0,0,0,0,0,0,0,0,0,-1,1945,358,0,0
728,666,0,0,0,0,0,0,0,0,0,-1,1952,358,0,0
735,666,0,0,0,0,0,0,0,0,0,-1,1959,358,0,0
742,666,0,0,0,0,0,0,0,0,0,-1,1966,358,0,0
749,666,0,0,0,0,0,0,0,0,0,-1,1973,358,0,0
756,666,0,0,0,0,0,0,0,0,0,-1,1980,358,0,0
763,666,0,0,0,0,0,0,0,0,0,-1,1987,358,0,0
770,666,0,0,0,0,0,0,0,0,0,-1,1994,358,0,0
777,666,0,0,0,0,0,0,0,0,0,-1,2001,358,0,0
784,666,0,0,0,0,0,0,0,0,0,-1,2008,358,0,0
791,666,0,0,0,0,0,0,0,0,0,-1,2015,358,0,0
798,666,0,0,0,0,0,0,0,0,0,-1,2022,358,0,0
805,666,0,0,0,0,0,0,0,0,0,-1,2029,358,0,0
812,666,0,0,0,0,0,0,0,0,0,-1,2036,358,0,0
-700,659,0,0,0,0,0,0,0,0,0,-1,524,365,0,0
-693,659,0,0,0,0,0,0,0,0,0,-1,531,365,0,0
-686,659,0,0,0,0,0,0,0,0,0,-1,538,365,0,0
-679,659,0,0,0,0,0,0,0,0,0,-1,545,365,0,0
-672,659,0,0,0,0,0,0,0,0,0,-1,552,365,0,0
-665,659,0,0,0,0,0,0,0,0,0,-1,559,365,0,0
-658,659,0,0,0,0,0,0,0,0,0,-1,566,365,0,0
-651,659,0,0,0,0,0,0,0,0,0,-1,573,365,0,0
-644,659,0,0,0,0,0,0,0,0,0,-1,580,365,0,0
-637,659,0,0,0,0,0,0,0,0,0,-1,587,365,0,0
-630,659,0,0,0,0,0,0,0,0,0,-1,594,365,0,0
-623,659,0,0,0,0,0,0,0,0,0,-1,601,365,0,0
-616,659,0,0,0,0,0,0,0,0,0,-1,608,365,0,0
-609,659,0,0,0,0,0,0,0,0,0,-1,615,365,0,0
-602,659,0,0,0,0,0,0,0,0,0,-1,622,365,0,0
-595,659,0,0,0,0,0,0,0,0,0,-1,629,365,0,0
-588,659,0,0,0,0,0,0,0,0,0,-1,636,365,0,0
-581,659,0,0,0,0,0,0,0,0,0,-1,643,365,0,0
-574,659,0,0,0,0,0,0,0,0,0,-1,650,365,0,0
-567,659,0,0,0,0,0,0,0,0,0,-1,657,365,0,0
-560,659,0,0,0,0,0,0,0,0,0,-1,664,365,0,0
-553,659,0,0,0,0,0,0,0,0,0,-1,671,365,0,0
-546,659,0,0,0,0,0,0,0,0,0,-1,678,365,0,0
-539,659,0,0,0,0,0,0,0,0,0,-1,685,365,0,0
-532,659,0,0,0,0,0,0,0,0,0,-1,692,365,0,0
-525,659,0,0,0,0,0,0,0,0,0,-1,699,365,0,0
-518,659,0,0,0,0,0,0,0,0,0,-1,706,365,0,0
-511,659,0,0,0,0,0,0,0,0,0,-1,713,365,0,0
-504,659,0,0,0,0,0,0,0,0,0,-1,720,365,0,0
-497,659,0,0,0,0,0,0,0,0,0,-1,727,365,0,0
-490,659,0,0,0,0,0,0,0,0,0,-1,734,365,0,0
-483,659,0,0,0,0,0,0,0,0,0,-1,741,365,0,0
-476,659,0,0,0,0,0,0,0,0,0,-1,748,365,0,0
-469,659,0,0,0,0,0,0,0,0,0,-1,755,365,0,0
-462,659,0,0,0,0,0,0,0,0,0,-1,762,365,0,0
-455,659,0,0,0,0,0,0,0,0,0,-1,769,365,0,0
-448,659,0,0,0,0,0,0,0,0,0,-1,776,365,0,0
-441,659,0,0,0,0,0,0,0,0,0,-1,783,365,0,0
-434,659,0,0,0,0,0,0,0,0,0,-1,790,365,0,0
-427,659,0,0,0,0,0,0,0,0,0,-1,797,365,0,0
-420,659,0,0,0,0,0,0,0,0,0,-1,804,365,0,0
-413,659,0,0,0,0,0,0,0,0,0,-1,811,365,0,0
-406,659,0,0,0,0,0,0,0,0,0,-1,818,365,0,0
-399,659,0,0,0,0,0,0,0,0,0,-1,825,365,0,0
-392,659,0,0,0,0,0,0,0,0,0,-1,832,365,0,0
-385,659,0,0,0,0,0,0,0,0,0,-1,839,365,0,0
-378,659,0,0,0,0,0,0,0,0,0,-1,846,365,0,0
-371,659,0,0,0,0,0,0,0,0,0,-1,853,365,0,0
-364,659,0,0,0,0,0,0,0,0,0,-1,860,365,0,0
-357,659,0,0,0,0,0,0,0,0,0,-1,867,365,0,0
-350,659,0,0,0,0,0,0,0,0,0,-1,874,365,0,0
-343,659,0,0,0,0,0,0,0,0,0,-1,881,365,0,0
-336,659,0,0,0,0,0,0,0,0,0,-1,888,365,0,0
-329,659,0,0,0,0,0,0,0,0,0,-1,895,365,0,0
-322,659,0,0,0,0,0,0,0,0,0,-1,902,365,0,0
-315,659,0,0,0,0,0,0,0,0,0,-1,909,365,0,0
-308,659,0,0,0,0,0,0,0,0,0,-1,916,365,0,0
-301,659,0,0,0,0,0,0,0,0,0,-1,923,365,0,0
-294,659,0,0,0,0,0,0,0,0,0,-1,930,365,0,0
-287,659,0,0,0,0,0,0,0,0,0,-1,937,365,0,0
-280,659,0,0,0,0,0,0,0,0,0,-1,944,365,0,0
-273,659,0,0,0,0,0,0,0,0,0,-1,951,365,0,0
-266,659,0,0,0,0,0,0,0,0,0,-1,958,365,0,0
-259,659,0,0,0,0,0,0,0,0,0,-1,965,365,0,0
-252,659,0,0,0,0,0,0,0,0,0,-1,972,365,0,0
-245,659,0,0,0,0,0,0,0,0,0,-1,979,365,0,0
-238,659,0,0,0,0,0,0,0,0,0,-1,986,365,0,0
-231,659,0,0,0,0,0,0,0,0,0,-1,993,365,0,0
-224,659,0,0,0,0,0,0,0,0,0,-1,1000,365,0,0
-217,659,10.1305,-25.2622,0,0,0,0,0,0,0,-1,1007,365,10.1305,25.2622
-210,659,9.65643,-25.515,0,0,0,0,0,0,0,-1,1014,365,9.65642,25.515
-203,659,8.58911,-25.7432,0,0,0,0,0,0,0,-1,1021,365,8.58916,25.7432
-196,659,2.68323,-27.8121,0,0,0,0,0,0,0,-1,1028,365,2.6832,27.8121
-189,659,6.88049,-28.9412,0,0,0,0,0,0,0,-1,1035,365,6.88045,28.9412
-182,659,6.94189,-30.6316,0,0,0,0,0,0,0,-1,1042,365,6.94189,30.6316
-175,659,6.948,-32.0092,0,0,0,0,0,0,0,-1,1049,365,6.94798,32.0093
-168,659,7.1416,-32.7405,0,0,0,0,0,0,0,-1,1056,365,7.14157,32.7405
-161,659,7.57361,-33.7099,0,0,0,0,0,0,0,-1,1063,365,7.57355,33.7099
-154,659,7.71448,-34.8995,0,0,0,0,0,0,0,-1,1070,365,7.7145,34.8995
-147,659,7.4491,-35.1653,0,0,0,0,0,0,0,-1,1077,365,7.44909,35.1653
-140,659,7.25598,-34.575,0,0,0,0,0,0,0,-1,1084,365,7.256,34.5749
-133,659,6.36145,-34.6414,0,0,0,0,0,0,0,-1,1091,365,6.3614,34.6414
-126,659,6.49487,-35.682,0,0,0,0,0,0,0,-1,1098,365,6.49493,35.682
-119,659,6.56091,-35.7425,0,0,0,0,0,0,0,-1,1105,365,6.56091,35.7425
-112,659,6.24353,-35.0562,0,0,0,0,0,0,0,-1,1112,365,6.24349,35.0562
-105,659,5.38696,-30.5854,0,0,0,0,0,0,0,-1,1119,365,5.387,30.5854
-98,659,4.68042,-26.2438,0,0,0,0,0,0,0,-1,1126,365,4.68041,26.2438
-91,659,4.20776,-20.8654,0,0,0,0,0,0,0,-1,1133,365,4.20777,20.8654
-84,659,2.8584,-17.8303,0,0,0,0,0,0,0,-1,1140,365,2.85836,17.8303
-77,659,2.80139,-15.3457,0,0,0,0,0,0,0,-1,1147,365,2.80139,15.3457
-70,659,2.9353,-12.7028,0,0,0,0,0,0,0,-1,1154,365,2.93533,12.7028
-63,659,2.11267,-9.7796,0,0,0,0,0,0,0,-1,1161,365,2.11266,9.7796
-56,659,2.11182,-9.91541,0,0,0,0,0,0,0,-1,1168,365,2.11178,9.91541
-49,659,5.95215,-39.7017,0,0,0,0,0,0,0,-1,1175,365,5.95217,39.7017
-42,659,5.69519,-40.1937,0,0,0,0,0,0,0,-1,1182,365,5.69523,40.1937
-35,659,5.86169,-40.1948,-0.00421117,0.0202366,0.000888496,0.0202689,-0.00424342,1.53452,0.0151268,0.0423859,1189,365,5.86171,40.1948
-28,659,5.87708,-40.3051,-0.000666602,0.0223096,0.000508949,0.0223209,-0.00067787,1.54866,0.0151116,0.0165982,1196,365,5.8771,40.3051
-21,659,5.83203,-40.486,0.00237316,0.0224024,0.00141845,0.0225023,0.00227321,1.50045,0.0143041,0.0139708,1203,365,5.832,40.486
-14,659,5.75085,-40.6787,0.00333015,0.0230173,0.00206056,0.0232306,0.00311679,1.46762,0.0145598,0.0111412,1210,365,5.75085,40.6787
-7,659,5.69946,-40.8233,0.00330009,0.0231287,0.00286677,0.0235348,0.00289394,1.43006,0.0148197,0.0103683,1217,365,5.69945,40.8233
0,659,5.67297,-40.9422,0.00324215,0.0227439,0.00367335,0.0234128,0.00257318,1.39066,0.0148255,0.00931121,1224,365,5.67303,40.9422
7,659,5.64319,-41.0427,0.00319956,0.0223591,0.00442629,0.0233322,0.00222642,1.35438,0.0148684,0.00921583,1231,365,5.64315,41.0427
14,659,5.57678,-41.1123,0.00286926,0.022119,0.00513874,0.0234049,0.00158337,1.3256,0.0151032,0.011066,1238,365,5.57683,41.1123
21,659,5.52991,-41.2104,0.00208099,0.0224485,0.00578826,0.0239785,0.00055096,1.31237,0.0158052,0.01101,1245,365,5.52987,41.2104
28,659,5.47302,-41.2952,0.00115898,0.0230672,0.00631583,0.0247575,-0.000531364,1.30929,0.016685,0.0106112,1252,365,5.473,41.2952
35,659,5.44958,-41.3576,0.000425923,0.0242522,0.00685993,0.0260861,-0.00140799,1.30957,0.0178786,0.0126891,1259,365,5.44964,41.3576
42,659,5.40857,-41.4147,-0.000147305,0.0256957,0.00744002,0.0276846,-0.00213617,1.30958,0.0192081,0.013654,1266,365,5.40859,41.4147
49,659,5.33923,-41.4402,-0.000800635,0.0276265,0.00745307,0.029462,-0.00263618,1.32932,0.0205764,0.0123569,1273,365,5.33927,41.4402
56,659,5.28064,-41.4459,-0.00113382,0.0311268,0.0069185,0.0325479,-0.00255493,1.36821,0.0225984,0.0145408,1280,365,5.28066,41.4459
63,659,5.26758,-41.4827,-0.00107063,0.033365,0.00635106,0.034499,-0.00220462,1.39411,0.0237683,0.015199,1287,365,5.26761,41.4827
70,659,5.21692,-41.4872,-0.00110409,0.0355989,0.00609047,0.0365832,-0.00208834,1.41058,0.0251139,0.0165379,1294,365,5.21692,41.4873
77,659,5.14001,-41.471,-0.00162913,0.0375291,0.00542546,0.0382669,-0.00236694,1.43564,0.0263357,0.0179191,1301,365,5.13999,41.471
84,659,5.13855,-41.4384,-0.00220582,0.0388798,0.00415552,0.0392958,-0.00262191,1.471,0.0271135,0.0133689,1308,365,5.13861,41.4384
91,659,5.10547,-41.3903,-0.00223856,0.0393218,0.00260674,0.0394847,-0.00240142,1.5084,0.027159,0.0119269,1315,365,5.1055,41.3903
98,659,5.04443,-41.2807,-0.00218863,0.0390627,0.00132893,0.0391055,-0.0022314,1.53863,0.026845,0.00891463,1322,365,5.04439,41.2807
105,659,5,-41.1605,-0.00266157,0.0381922,0.000170495,0.038193,-0.00266228,1.56662,0.0263942,0.0101581,1329,365,5.00001,41.1605
112,659,4.95679,-41.0456,-0.00360868,0.0366549,-0.000804322,0.036671,-0.00362474,-1.55083,0.0257408,0.0152932,1336,365,4.9568,41.0456
119,659,4.91711,-40.9176,-0.00467414,0.0342001,-0.00155838,0.0342625,-0.00473651,-1.53079,0.0245731,0.0175744,1343,365,4.91707,40.9176
126,659,4.86487,-40.7412,-0.00557769,0.0314109,-0.00208427,0.031528,-0.00569476,-1.51468,0.0231516,0.0148425,1350,365,4.86488,40.7412
133,659,4.80188,-40.5863,-0.00655175,0.028795,-0.00239459,0.0289565,-0.00671323,-1.50346,0.021888,0.0128546,1357,365,4.80192,40.5863
140,659,4.74048,-40.4731,-0.00755758,0.026339,-0.00265906,0.0265463,-0.00776491,-1.49298,0.0207753,0.010188,1364,365,4.7405,40.4731
147,659,4.7085,-40.3043,-0.00844998,0.0243384,-0.00281008,0.0245775,-0.00868907,-1.48592,0.0199233,0.00949939,1371,365,4.70849,40.3043
154,659,4.66541,-40.0788,-0.00868725,0.0226199,-0.00204718,0.0227532,-0.00882055,-1.50578,0.0188114,0.0106327,1378,365,4.66539,40.0788
161,659,4.62158,-39.86,-0.00922297,0.0185534,-0.00073212,0.0185726,-0.00924226,-1.54446,0.0163573,0.0118503,1385,365,4.6216,39.86
168,659,4.60864,-39.6157,-0.0100768,0.0186075,-0.000587154,0.0186196,-0.0100888,-1.55034,0.0168169,0.0190104,1392,365,4.60859,39.6157
175,659,4.57849,-39.3773,-0.00927729,0.0182973,-0.00108358,0.0183398,-0.00931981,-1.53158,0.0162498,0.041948,1399,365,4.57847,39.3773
182,659,4.43323,-39.2163,0,0,0,0,0,0,0,-1,1406,365,4.43319,39.2164
189,659,4.5304,-38.708,0,0,0,0,0,0,0,-1,1413,365,4.53039,38.708
196,659,2.41248,-13.4371,0,0,0,0,0,0,0,-1,1420,365,2.41243,13.4371
203,659,2.38623,-12.2163,0,0,0,0,0,0,0,-1,1427,365,2.38617,12.2163
210,659,2.20789,-13.9792,0,0,0,0,0,0,0,-1,1434,365,2.20794,13.9792
217,659,2.24121,-13.487,0,0,0,0,0,0,0,-1,1441,365,2.24116,13.487
224,659,2.3479,-15.2926,0,0,0,0,0,0,0,-1,1448,365,2.34793,15.2926
231,659,2.47974,-17.8629,0,0,0,0,0,0,0,-1,1455,365,2.47976,17.8628
238,659,3.57886,-21.1258,0,0,0,0,0,0,0,-1,1462,365,3.57889,21.1258
245,659,3.29883,-25.0283,0,0,0,0,0,0,0,-1,1469,365,3.29889,25.0283
252,659,2.81909,-24.1604,0,0,0,0,0,0,0,-1,1476,365,2.81905,24.1604
259,659,2.33069,-3.36703,0,0,0,0,0,0,0,-1,1483,365,2.33073,3.36702
266,659,3.05481,-31.8676,0,0,0,0,0,0,0,-1,1490,365,3.05479,31.8675
273,659,4.23792,-34.6475,0,0,0,0,0,0,0,-1,1497,365,4.23787,34.6475
280,659,2.72314,-33.9092,0,0,0,0,0,0,0,-1,1504,365,2.7231,33.9092
287,659,-3.52539,-20.0682,0,0,0,0,0,0,0,-1,1511,365,-3.52544,20.0682
294,659,-3.79968,-21.585,0,0,0,0,0,0,0,-1,1518,365,-3.79972,21.585
301,659,-4.07397,-23.1018,0,0,0,0,0,0,0,-1,1525,365,-4.074,23.1018
308,659,-5.40295,-24.1075,0,0,0,0,0,0,0,-1,1532,365,-5.4029,24.1075
315,659,-6.55835,-24.4516,0,0,0,0,0,0,0,-1,1539,365,-6.55841,24.4516
322,659,-7.44983,-23.6558,0,0,0,0,0,0,0,-1,1546,365,-7.44988,23.6558
329,659,-7.67749,-23.0449,0,0,0,0,0,0,0,-1,1553,365,-7.67745,23.0449
336,659,-7.71436,-22.4188,0,0,0,0,0,0,0,-1,1560,365,-7.71432,22.4188
343,659,0,0,0,0,0,0,0,0,0,-1,1567,365,0,0
350,659,0,0,0,0,0,0,0,0,0,-1,1574,365,0,0
357,659,0,0,0,0,0,0,0,0,0,-1,1581,365,0,0
364,659,0,0,0,0,0,0,0,0,0,-1,1588,365,0,0
371,659,0,0,0,0,0,0,0,0,0,-1,1595,365,0,0
378,659,0,0,0,0,0,0,0,0,0,-1,1602,365,0,0
385,659,0,0,0,0,0,0,0,0,0,-1,1609,365,0,0
392,659,0,0,0,0,0,0,0,0,0,-1,1616,365,0,0
399,659,0,0,0,0,0,0,0,0,0,-1,1623,365,0,0
406,659,0,0,0,0,0,0,0,0,0,-1,1630,365,0,0
413,659,0,0,0,0,0,0,0,0,0,-1,1637,365,0,0
420,659,0,0,0,0,0,0,0,0,0,-1,1644,365,0,0
427,659,0,0,0,0,0,0,0,0,0,-1,1651,365,0,0
434,659,0,0,0,0,0,0,0,0,0,-1,1658,365,0,0
441,659,0,0,0,0,0,0,0,0,0,-1,1665,365,0,0
448,659,0,0,0,0,0,0,0,0,0,-1,1672,365,0,0
455,659,0,0,0,0,0,0,0,0,0,-1,1679,365,0,0
462,659,0,0,0,0,0,0,0,0,0,-1,1686,365,0,0
469,659,0,0,0,0,0,0,0,0,0,-1,1693,365,0,0
476,659,0,0,0,0,0,0,0,0,0,-1,1700,365,0,0
483,659,0,0,0,0,0,0,0,0,0,-1,1707,365,0,0
490,659,0,0,0,0,0,0,0,0,0,-1,1714,365,0,0
497,659,0,0,0,0,0,0,0,0,0,-1,1721,365,0,0
504,659,0,0,0,0,0,0,0,0,0,-1,1728,365,0,0
511,659,0,0,0,0,0,0,0,0,0,-1,1735,365,0,0
518,659,0,0,0,0,0,0,0,0,0,-1,1742,365,0,0
525,659,0,0,0,0,0,0,0,0,0,-1,1749,365,0,0
532,659,0,0,0,0,0,0,0,0,0,-1,1756,365,0,0
539,659,0,0,0,0,0,0,0,0,0,-1,1763,365,0,0
546,659,0,0,0,0,0,0,0,0,0,-1,1770,365,0,0
553,659,0,0,0,0,0,0,0,0,0,-1,1777,365,0,0
560,659,0,0,0,0,0,0,0,0,0,-1,1784,365,0,0
567,659,0,0,0,0,0,0,0,0,0,-1,1791,365,0,0
574,659,0,0,0,0,0,0,0,0,0,-1,1798,365,0,0
581,659,0,0,0,0,0,0,0,0,0,-1,1805,365,0,0
588,659,0,0,0,0,0,0,0,0,0,-1,1812,365,0,0
595,659,0,0,0,0,0,0,0,0,0,-1,1819,365,0,0
602,659,0,0,0,0,0,0,0,0,0,-1,1826,365,0,0
609,659,0,0,0,0,0,0,0,0,0,-1,1833,365,0,0
616,659,0,0,0,0,0,0,0,0,0,-1,1840,365,0,0
623,659,0,0,0,0,0,0,0,0,0,-1,1847,365,0,0
630,659,0,0,0,0,0,0,0,0,0,-1,1854,365,0,0
637,659,0,0,0,0,0,0,0,0,0,-1,1861,365,0,0
644,659,0,0,0,0,0,0,0,0,0,-1,1868,365,0,0
651,659,0,0,0,0,0,0,0,0,0,-1,1875,365,0,0
658,659,0,0,0,0,0,0,0,0,0,-1,1882,365,0,0
665,659,0,0,0,0,0,0,0,0,0,-1,1889,365,0,0
672,659,0,0,0,0,0,0,0,0,0,-1,1896,365,0,0
679,659,0,0,0,0,0,0,0,0,0,-1,1903,365,0,0
686,659,0,0,0,0,0,0,0,0,0,-1,1910,365,0,0
693,659,0,0,0,0,0,0,0,0,0,-1,1917,365,0,0
700,659,0,0,0,0,0,0,0,0,0,-1,1924,365,0,0
707,659,0,0,0,0,0,0,0,0,0,-1,1931,365,0,0
714,659,0,0,0,0,0,0,0,0,0,-1,1938,365,0,0
721,659,0,0,0,0,0,0,0,0,0,-1,1945,365,0,0
728,659,0,0,0,0,0,0,0,0,0,-1,1952,365,0,0
735,659,0,0,0,0,0,0,0,0,0,-1,1959,365,0,0
742,659,0,0,0,0,0,0,0,0,0,-1,1966,365,0,0
749,659,0,0,0,0,0,0,0,0,0,-1,1973,365,0,0
756,659,0,0,0,0,0,0,0,0,0,-1,1980,365,0,0
763,659,0,0,0,0,0,0,0,0,0,-1,1987,365,0,0
770,659,0,0,0,0,0,0,0,0,0,-1,1994,365,0,0
777,659,0,0,0,0,0,0,0,0,0,-1,2001,365,0,0
784,659,0,0,0,0,0,0,0,0,0,-1,2008,365,0,0
791,659,0,0,0,0,0,0,0,0,0,-1,2015,365,0,0
798,659,0,0,0,0,0,0,0,0,0,-1,2022,365,0,0
805,659,0,0,0,0,0,0,0,0,0,-1,2029,365,0,0
812,659,0,0,0,0,0,0,0,0,0,-1,2036,365,0,0
-700,652,0,0,0,0,0,0,0,0,0,-1,524,372,0,0
-693,652,0,0,0,0,0,0,0,0,0,-1,531,372,0,0
-686,652,0,0,0,0,0,0,0,0,0,-1,538,372,0,0
-679,652,0,0,0,0,0,0,0,0,0,-1,545,372,0,0
-672,652,0,0,0,0,0,0,0,0,0,-1,552,372,0,0
-665,652,0,0,0,0,0,0,0,0,0,-1,559,372,0,0
-658,652,0,0,0,0,0,0,0,0,0,-1,566,372,0,0
-651,652,0,0,0,0,0,0,0,0,0,-1,573,372,0,0
-644,652,0,0,0,0,0,0,0,0,0,-1,580,372,0,0
-637,652,0,0,0,0,0,0,0,0,0,-1,587,372,0,0
-630,652,0,0,0,0,0,0,0,0,0,-1,594,372,0,0
-623,652,0,0,0,0,0,0,0,0,0,-1,601,372,0,0
-616,652,0,0,0,0,0,0,0,0,0,-1,608,372,0,0
-609,652,0,0,0,0,0,0,0,0,0,-1,615,372,0,0
-602,652,0,0,0,0,0,0,0,0,0,-1,622,372,0,0
-595,652,0,0,0,0,0,0,0,0,0,-1,629,372,0,0
-588,652,0,0,0,0,0,0,0,0,0,-1,636,372,0,0
-581,652,0,0,0,0,0,0,0,0,0,-1,643,372,0,0
-574,652,0,0,0,0,0,0,0,0,0,-1,650,372,0,0
-567,652,0,0,0,0,0,0,0,0,0,-1,657,372,0,0
-560,652,0,0,0,0,0,0,0,0,0,-1,664,372,0,0
-553,652,0,0,0,0,0,0,0,0,0,-1,671,372,0,0
-546,652,0,0,0,0,0,0,0,0,0,-1,678,372,0,0
-539,652,0,0,0,0,0,0,0,0,0,-1,685,372,0,0
-532,652,0,0,0,0,0,0,0,0,0,-1,692,372,0,0
-525,652,0,0,0,0,0,0,0,0,0,-1,699,372,0,0
-518,652,0,0,0,0,0,0,0,0,0,-1,706,372,0,0
-511,652,0,0,0,0,0,0,0,0,0,-1,713,372,0,0
-504,652,0,0,0,0,0,0,0,0,0,-1,720,372,0,0
-497,652,0,0,0,0,0,0,0,0,0,-1,727,372,0,0
-490,652,0,0,0,0,0,0,0,0,0,-1,734,372,0,0
-483,652,0,0,0,0,0,0,0,0,0,-1,741,372,0,0
-476,652,0,0,0,0,0,0,0,0,0,-1,748,372,0,0
-469,652,0,0,0,0,0,0,0,0,0,-1,755,372,0,0
-462,652,0,0,0,0,0,0,0,0,0,-1,762,372,0,0
-455,652,0,0,0,0,0,0,0,0,0,-1,769,372,0,0
-448,652,0,0,0,0,0,0,0,0,0,-1,776,372,0,0
-441,652,0,0,0,0,0,0,0,0,0,-1,783,372,0,0
-434,652,0,0,0,0,0,0,0,0,0,-1,790,372,0,0
-427,652,0,0,0,0,0,0,0,0,0,-1,797,372,0,0
-420,652,0,0,0,0,0,0,0,0,0,-1,804,372,0,0
-413,652,0,0,0,0,0,0,0,0,0,-1,811,372,0,0
-406,652,0,0,0,0,0,0,0,0,0,-1,818,372,0,0
-399,652,0,0,0,0,0,0,0,0,0,-1,825,372,0,0
-392,652,0,0,0,0,0,0,0,0,0,-1,832,372,0,0
-385,652,0,0,0,0,0,0,0,0,0,-1,839,372,0,0
-378,652,0,0,0,0,0,0,0,0,0,-1,846,372,0,0
-371,652,0,0,0,0,0,0,0,0,0,-1,853,372,0,0
-364,652,0,0,0,0,0,0,0,0,0,-1,860,372,0,0
-357,652,0,0,0,0,0,0,0,0,0,-1,867,372,0,0
-350,652,0,0,0,0,0,0,0,0,0,-1,874,372,0,0
-343,652,0,0,0,0,0,0,0,0,0,-1,881,372,0,0
-336,652,0,0,0,0,0,0,0,0,0,-1,888,372,0,0
-329,652,0,0,0,0,0,0,0,0,0,-1,895,372,0,0
-322,652,0,0,0,0,0,0,0,0,0,-1,902,372,0,0
-315,652,0,0,0,0,0,0,0,0,0,-1,909,372,0,0
-308,652,0,0,0,0,0,0,0,0,0,-1,916,372,0,0
-301,652,0,0,0,0,0,0,0,0,0,-1,923,372,0,0
-294,652,0,0,0,0,0,0,0,0,0,-1,930,372,0,0
-287,652,0,0,0,0,0,0,0,0,0,-1,937,372,0,0
-280,652,0,0,0,0,0,0,0,0,0,-1,944,372,0,0
-273,652,0,0,0,0,0,0,0,0,0,-1,951,372,0,0
-266,652,0,0,0,0,0,0,0,0,0,-1,958,372,0,0
-259,652,0,0,0,0,0,0,0,0,0,-1,965,372,0,0
-252,652,0,0,0,0,0,0,0,0,0,-1,972,372,0,0
-245,652,0,0,0,0,0,0,0,0,0,-1,979,372,0,0
-238,652,0,0,0,0,0,0,0,0,0,-1,986,372,0,0
-231,652,8.79358,-27.1656,0,0,0,0,0,0,0,-1,993,372,8.79357,27.1656
-224,652,8.84552,-27.675,0,0,0,0,0,0,0,-1,1000,372,8.84555,27.675
-217,652,9.03113,-27.7474,0,0,0,0,0,0,0,-1,1007,372,9.0311,27.7474
-210,652,9.72803,-30.4624,0,0,0,0,0,0,0,-1,1014,372,9.72805,30.4624
-203,652,7.2677,-26.0732,0,0,0,0,0,0,0,-1,1021,372,7.26775,26.0732
-196,652,5.90686,-26.957,0,0,0,0,0,0,0,-1,1028,372,5.9068,26.957
-189,652,6.21326,-28.3035,0,0,0,0,0,0,0,-1,1035,372,6.21331,28.3035
-182,652,6.45068,-29.9377,0,0,0,0,0,0,0,-1,1042,372,6.45074,29.9377
-175,652,6.72559,-31.6948,0,0,0,0,0,0,0,-1,1049,372,6.72563,31.6948
-168,652,7.08533,-32.8669,0,0,0,0,0,0,0,-1,1056,372,7.08532,32.8669
-161,652,7.22534,-33.8635,0,0,0,0,0,0,0,-1,1063,372,7.22529,33.8635
-154,652,6.80151,-35.3329,0,0,0,0,0,0,0,-1,1070,372,6.80147,35.3329
-147,652,6.66138,-35.3285,0,0,0,0,0,0,0,-1,1077,372,6.66142,35.3285
-140,652,5.6842,-33.9781,0,0,0,0,0,0,0,-1,1084,372,5.68421,33.9781
-133,652,6.3009,-35.2887,0,0,0,0,0,0,0,-1,1091,372,6.30093,35.2887
-126,652,6.16138,-35.8505,0,0,0,0,0,0,0,-1,1098,372,6.16144,35.8505
-119,652,6.19531,-36.3853,0,0,0,0,0,0,0,-1,1105,372,6.19526,36.3853
-112,652,6.1947,-36.8357,0,0,0,0,0,0,0,-1,1112,372,6.19469,36.8357
-105,652,6.20337,-36.9959,0,0,0,0,0,0,0,-1,1119,372,6.20343,36.9959
-98,652,5.84302,-35.2455,0,0,0,0,0,0,0,-1,1126,372,5.84307,35.2455
-91,652,5.66296,-32.9003,0,0,0,0,0,0,0,-1,1133,372,5.66297,32.9003
-84,652,5.46057,-34.9186,0,0,0,0,0,0,0,-1,1140,372,5.46057,34.9186
-77,652,5.97083,-38.5659,0,0,0,0,0,0,0,-1,1147,372,5.97077,38.5659
-70,652,5.9436,-38.9241,0,0,0,0,0,0,0,-1,1154,372,5.9436,38.9241
-63,652,5.92285,-39.2166,0,0,0,0,0,0,0,-1,1161,372,5.92283,39.2167
-56,652,5.8385,-39.5002,0,0,0,0,0,0,0,-1,1168,372,5.83856,39.5001
-49,652,5.81079,-39.7326,-0.00601505,0.00899173,-0.000964678,0.00905348,-0.0060768,-1.50686,0.00879165,0.0372824,1175,372,5.81079,39.7326
-42,652,5.76343,-39.9215,-0.00510431,0.0116939,0.000177034,0.0116958,-0.00510617,1.56026,0.00994619,0.0123581,1182,372,5.76346,39.9215
-35,652,5.73828,-40.1201,-0.0044324,0.0141613,0.000346461,0.0141678,-0.00443886,1.55217,0.0112214,0.0100933,1189,372,5.73826,40.1201
-28,652,5.698,-40.3285,-0.00320397,0.0157137,0.000463376,0.0157251,-0.00321531,1.54632,0.0117033,0.0083238,1196,372,5.69794,40.3285
-21,652,5.64148,-40.5228,-0.00185221,0.0164196,0.000789874,0.0164536,-0.00188629,1.52767,0.0116489,0.00900146,1203,372,5.64154,40.5228
-14,652,5.61377,-40.6963,-0.00110902,0.0168944,0.00127371,0.016984,-0.00119868,1.50051,0.0117427,0.0111169,1210,372,5.61372,40.6963
-7,652,5.57788,-40.8591,-0.000899377,0.0168958,0.00184585,0.0170853,-0.00108882,1.46852,0.0117699,0.0138109,1217,372,5.57787,40.8591
0,652,5.52979,-40.982,-0.000620063,0.0166344,0.00229748,0.0169351,-0.00092074,1.44066,0.0116092,0.013781,1224,372,5.52974,40.982
7,652,5.50513,-41.059,-0.000240764,0.0163768,0.00276332,0.0168243,-0.000688225,1.41026,0.0114525,0.0139203,1231,372,5.50516,41.059
14,652,5.49438,-41.1714,-9.69285e-05,0.0162074,0.00321492,0.0168184,-0.000707953,1.38298,0.0114555,0.0116274,1238,372,5.49434,41.1714
21,652,5.44031,-41.2987,-0.000263384,0.0164786,0.00361451,0.0172256,-0.00101041,1.36699,0.0118349,0.0102443,1245,372,5.44025,41.2987
28,652,5.40674,-41.3883,-0.000476227,0.0169718,0.00391748,0.017811,-0.00131543,1.35977,0.0123359,0.0093369,1252,372,5.40669,41.3884
35,652,5.37219,-41.4378,-0.000553726,0.0179025,0.00424194,0.0188308,-0.001482,1.35536,0.0130759,0.0102366,1259,372,5.37213,41.4378
42,652,5.33191,-41.4791,-0.000570919,0.0189825,0.00462684,0.020022,-0.00161048,1.34979,0.0139159,0.0115101,1266,372,5.33186,41.4791
49,652,5.32959,-41.5008,-0.000757084,0.0203766,0.00465188,0.0213553,-0.00173572,1.36345,0.0148493,0.0134291,1273,372,5.32958,41.5008
56,652,5.31104,-41.5065,-0.000939962,0.0228019,0.00443347,0.0236028,-0.00174084,1.39208,0.0163464,0.0144502,1280,372,5.31099,41.5065
63,652,5.25916,-41.5217,-0.000983438,0.0243805,0.00420149,0.0250583,-0.00166129,1.41084,0.0172859,0.0177695,1287,372,5.25911,41.5217
70,652,5.23035,-41.5101,-0.00105728,0.0259455,0.00413571,0.0265647,-0.0016765,1.42218,0.0182943,0.0165902,1294,372,5.23038,41.5101
77,652,5.1825,-41.5023,-0.00153935,0.0272033,0.00382646,0.027704,-0.00204004,1.44069,0.0191855,0.0165788,1301,372,5.18247,41.5023
84,652,5.18774,-41.4631,-0.00219893,0.0279331,0.00316549,0.0282621,-0.00252788,1.46725,0.019738,0.014221,1308,372,5.18777,41.4631
91,652,5.15063,-41.4527,-0.00266341,0.028186,0.00215251,0.0283355,-0.00281288,1.50147,0.0198944,0.0169112,1315,372,5.15065,41.4527
98,652,5.13684,-41.3629,-0.00305158,0.0279434,0.00135631,0.0280027,-0.00311082,1.52715,0.0197871,0.0135442,1322,372,5.13686,41.3629
105,652,5.11023,-41.2439,-0.00370955,0.0272326,0.000648273,0.0272462,-0.00372313,1.54986,0.0195239,0.0115363,1329,372,5.11023,41.2439
112,652,5.06506,-41.1239,-0.00460666,0.0261035,-3.93558e-05,0.0261035,-0.00460671,-1.56951,0.0191238,0.0100514,1336,372,5.06505,41.1239
119,652,5.02905,-41.0009,-0.00541895,0.0243786,-0.000644901,0.0243926,-0.0054329,-1.54917,0.0183429,0.0109008,1343,372,5.02903,41.0009
126,652,4.98303,-40.8329,-0.00602859,0.022404,-0.00111194,0.0224474,-0.00607201,-1.53177,0.0173469,0.0120722,1350,372,4.98306,40.8329
133,652,4.93738,-40.6687,-0.00663126,0.0205782,-0.00140401,0.0206504,-0.00670351,-1.51938,0.0164629,0.0121747,1357,372,4.93735,40.6687
140,652,4.89697,-40.5185,-0.00718945,0.018888,-0.00160841,0.0189868,-0.00728828,-1.50943,0.0156631,0.0095186,1364,372,4.89691,40.5185
147,652,4.88586,-40.3401,-0.00757396,0.0176554,-0.00170599,0.0177702,-0.00768879,-1.50358,0.015078,0.00926136,1371,372,4.88585,40.3402
154,652,4.84998,-40.134,-0.00732711,0.0167724,-0.0011462,0.0168268,-0.0073815,-1.52338,0.0143269,0.00915502,1378,372,4.84994,40.134
161,652,4.78833,-39.9175,-0.00693045,0.0146039,-0.000431061,0.0146125,-0.00693908,-1.55079,0.012703,0.0108258,1385,372,4.78839,39.9175
168,652,4.75232,-39.6812,-0.00679396,0.0146559,-0.000170135,0.0146573,-0.00679531,-1.56287,0.0126599,0.0125983,1392,372,4.75232,39.6812
175,652,4.72302,-39.4208,-0.006269,0.0144916,0.000143015,0.0144926,-0.00626999,1.56391,0.0122966,0.013072,1399,372,4.72305,39.4208
182,652,4.69421,-39.1893,-0.00530292,0.0143127,0.00102459,0.0143661,-0.00535629,1.51875,0.0117761,0.0187585,1406,372,4.69419,39.1893
189,652,4.68945,-38.9123,-0.00422806,0.014119,0.00205717,0.0143469,-0.00445589,1.4605,0.0113454,0.0309933,1413,372,4.68951,38.9123
196,652,4.64148,-38.5678,0,0,0,0,0,0,0,-1,1420,372,4.64153,38.5678
203,652,4.58081,-38.3327,0,0,0,0,0,0,0,-1,1427,372,4.58087,38.3327
210,652,4.60962,-37.9437,0,0,0,0,0,0,0,-1,1434,372,4.60957,37.9437
217,652,4.5127,-37.6797,0,0,0,0,0,0,0,-1,1441,372,4.51275,37.6797
224,652,3.63794,-31.2791,0,0,0,0,0,0,0,-1,1448,372,3.63799,31.2791
231,652,3.83936,-30.4812,0,0,0,0,0,0,0,-1,1455,372,3.8393,30.4812
238,652,4.42358,-36.4103,0,0,0,0,0,0,0,-1,1462,372,4.4236,36.4103
245,652,4.20032,-36.2369,0,0,0,0,0,0,0,-1,1469,372,4.20028,36.2369
252,652,4.36011,-35.802,0,0,0,0,0,0,0,-1,1476,372,4.36005,35.802
259,652,3.44922,-31.2655,0,0,0,0,0,0,0,-1,1483,372,3.44921,31.2655
266,652,3.93335,-34.5372,0,0,0,0,0,0,0,-1,1490,372,3.93332,34.5372
273,652,4.39575,-34.5511,0,0,0,0,0,0,0,-1,1497,372,4.39579,34.5511
280,652,4.19653,-34.1597,0,0,0,0,0,0,0,-1,1504,372,4.1965,34.1597
287,652,-2.05725,-19.2955,0,0,0,0,0,0,0,-1,1511,372,-2.05725,19.2955
294,652,-2.12427,-20.7218,0,0,0,0,0,0,0,-1,1518,372,-2.1243,20.7218
301,652,-2.34216,-22.0416,0,0,0,0,0,0,0,-1,1525,372,-2.34221,22.0416
308,652,-2.79175,-23.0318,0.00803534,0.035169,-0.178763,0.200879,-0.157675,-0.823272,0.207512,0.0427812,1532,372,-2.79174,23.0318
315,652,-3.1134,-23.446,0.00715261,0.0416592,-0.205705,0.230833,-0.182022,-0.827237,0.238917,0.0469055,1539,372,-3.11341,23.4459
322,652,-3.39624,-23.2068,0.00575002,0.0494549,-0.232365,0.260992,-0.205788,-0.832282,0.270123,0.042077,1546,372,-3.39618,23.2068
329,652,-3.54065,-22.8907,0.00388311,0.0594408,-0.257813,0.290967,-0.227643,-0.839065,0.300163,0.0416545,1553,372,-3.54059,22.8907
336,652,-3.56519,-22.3688,0,0,0,0,0,0,0,-1,1560,372,-3.56517,22.3688
343,652,-3.58069,-21.9185,0,0,0,0,0,0,0,-1,1567,372,-3.58069,21.9185
350,652,5.28394,-25.6715,0,0,0,0,0,0,0,-1,1574,372,5.28393,25.6715
357,652,0,0,0,0,0,0,0,0,0,-1,1581,372,0,0
364,652,0,0,0,0,0,0,0,0,0,-1,1588,372,0,0
371,652,0,0,0,0,0,0,0,0,0,-1,1595,372,0,0
378,652,0,0,0,0,0,0,0,0,0,-1,1602,372,0,0
385,652,0,0,0,0,0,0,0,0,0,-1,1609,372,0,0
392,652,0,0,0,0,0,0,0,0,0,-1,1616,372,0,0
399,652,0,0,0,0,0,0,0,0,0,-1,1623,372,0,0
406,652,0,0,0,0,0,0,0,0,0,-1,1630,372,0,0
413,652,0,0,0,0,0,0,0,0,0,-1,1637,372,0,0
420,652,0,0,0,0,0,0,0,0,0,-1,1644,372,0,0
427,652,0,0,0,0,0,0,0,0,0,-1,1651,372,0,0
434,652,0,0,0,0,0,0,0,0,0,-1,1658,372,0,0
441,652,0,0,0,0,0,0,0,0,0,-1,1665,372,0,0
448,652,0,0,0,0,0,0,0,0,0,-1,1672,372,0,0
455,652,0,0,0,0,0,0,0,0,0,-1,1679,372,0,0
462,652,0,0,0,0,0,0,0,0,0,-1,1686,372,0,0
469,652,0,0,0,0,0,0,0,0,0,-1,1693,372,0,0
476,652,0,0,0,0,0,0,0,0,0,-1,1700,372,0,0
483,652,0,0,0,0,0,0,0,0,0,-1,1707,372,0,0
490,652,0,0,0,0,0,0,0,0,0,-1,1714,372,0,0
497,652,0,0,0,0,0,0,0,0,0,-1,1721,372,0,0
504,652,0,0,0,0,0,0,0,0,0,-1,1728,372,0,0
511,652,0,0,0,0,0,0,0,0,0,-1,1735,372,0,0
518,652,0,0,0,0,0,0,0,0,0,-1,1742,372,0,0
525,652,0,0,0,0,0,0,0,0,0,-1,1749,372,0,0
532,652,0,0,0,0,0,0,0,0,0,-1,1756,372,0,0
539,652,0,0,0,0,0,0,0,0,0,-1,1763,372,0,0
546,652,0,0,0,0,0,0,0,0,0,-1,1770,372,0,0
553,652,0,0,0,0,0,0,0,0,0,-1,1777,372,0,0
560,652,0,0,0,0,0,0,0,0,0,-1,1784,372,0,0
567,652,0,0,0,0,0,0,0,0,0,-1,1791,372,0,0
574,652,0,0,0,0,0,0,0,0,0,-1,1798,372,0,0
581,652,0,0,0,0,0,0,0,0,0,-1,1805,372,0,0
588,652,0,0,0,0,0,0,0,0,0,-1,1812,372,0,0
595,652,0,0,0,0,0,0,0,0,0,-1,1819,372,0,0
602,652,0,0,0,0,0,0,0,0,0,-1,1826,372,0,0
609,652,0,0,0,0,0,0,0,0,0,-1,1833,372,0,0
616,652,0,0,0,0,0,0,0,0,0,-1,1840,372,0,0
623,652,0,0,0,0,0,0,0,0,0,-1,1847,372,0,0
630,652,0,0,0,0,0,0,0,0,0,-1,1854,372,0,0
637,652,0,0,0,0,0,0,0,0,0,-1,1861,372,0,0
644,652,0,0,0,0,0,0,0,0,0,-1,1868,372,0,0
651,652,0,0,0,0,0,0,0,0,0,-1,1875,372,0,0
658,652,0,0,0,0,0,0,0,0,0,-1,1882,372,0,0
665,652,0,0,0,0,0,0,0,0,0,-1,1889,372,0,0
672,652,0,0,0,0,0,0,0,0,0,-1,1896,372,0,0
679,652,0,0,0,0,0,0,0,0,0,-1,1903,372,0,0
686,652,0,0,0,0,0,0,0,0,0,-1,1910,372,0,0
693,652,0,0,0,0,0,0,0,0,0,-1,1917,372,0,0
700,652,0,0,0,0,0,0,0,0,0,-1,1924,372,0,0
707,652,0,0,0,0,0,0,0,0,0,-1,1931,372,0,0
714,652,0,0,0,0,0,0,0,0,0,-1,1938,372,0,0
721,652,0,0,0,0,0,0,0,0,0,-1,1945,372,0,0
728,652,0,0,0,0,0,0,0,0,0,-1,1952,372,0,0
735,652,0,0,0,0,0,0,0,0,0,-1,1959,372,0,0
742,652,0,0,0,0,0,0,0,0,0,-1,1966,372,0,0
749,652,0,0,0,0,0,0,0,0,0,-1,1973,372,0,0
756,652,0,0,0,0,0,0,0,0,0,-1,1980,372,0,0
763,652,0,0,0,0,0,0,0,0,0,-1,1987,372,0,0
770,652,0,0,0,0,0,0,0,0,0,-1,1994,372,0,0
777,652,0,0,0,0,0,0,0,0,0,-1,2001,372,0,0
784,652,0,0,0,0,0,0,0,0,0,-1,2008,372,0,0
791,652,0,0,0,0,0,0,0,0,0,-1,2015,372,0,0
798,652,0,0,0,0,0,0,0,0,0,-1,2022,372,0,0
805,652,0,0,0,0,0,0,0,0,0,-1,2029,372,0,0
812,652,0,0,0,0,0,0,0,0,0,-1,2036,372,0,0
-700,645,0,0,0,0,0,0,0,0,0,-1,524,379,0,0
-693,645,0,0,0,0,0,0,0,0,0,-1,531,379,0,0
-686,645,0,0,0,0,0,0,0,0,0,-1,538,379,0,0
-679,645,0,0,0,0,0,0,0,0,0,-1,545,379,0,0
-672,645,0,0,0,0,0,0,0,0,0,-1,552,379,0,0
-665,645,0,0,0,0,0,0,0,0,0,-1,559,379,0,0
-658,645,0,0,0,0,0,0,0,0,0,-1,566,379,0,0
-651,645,0,0,0,0,0,0,0,0,0,-1,573,379,0,0
-644,645,0,0,0,0,0,0,0,0,0,-1,580,379,0,0
-637,645,0,0,0,0,0,0,0,0,0,-1,587,379,0,0
-630,645,0,0,0,0,0,0,0,0,0,-1,594,379,0,0
-623,645,0,0,0,0,0,0,0,0,0,-1,601,379,0,0
-616,645,0,0,0,0,0,0,0,0,0,-1,608,379,0,0
-609,645,0,0,0,0,0,0,0,0,0,-1,615,379,0,0
-602,645,0,0,0,0,0,0,0,0,0,-1,622,379,0,0
-595,645,0,0,0,0,0,0,0,0,0,-1,629,379,0,0
-588,645,0,0,0,0,0,0,0,0,0,-1,636,379,0,0
-581,645,0,0,0,0,0,0,0,0,0,-1,643,379,0,0
-574,645,0,0,0,0,0,0,0,0,0,-1,650,379,0,0
-567,645,0,0,0,0,0,0,0,0,0,-1,657,379,0,0
-560,645,0,0,0,0,0,0,0,0,0,-1,664,379,0,0
-553,645,0,0,0,0,0,0,0,0,0,-1,671,379,0,0
-546,645,0,0,0,0,0,0,0,0,0,-1,678,379,0,0
-539,645,0,0,0,0,0,0,0,0,0,-1,685,379,0,0
-532,645,0,0,0,0,0,0,0,0,0,-1,692,379,0,0
-525,645,0,0,0,0,0,0,0,0,0,-1,699,379,0,0
-518,645,0,0,0,0,0,0,0,0,0,-1,706,379,0,0
-511,645,0,0,0,0,0,0,0,0,0,-1,713,379,0,0
-504,645,0,0,0,0,0,0,0,0,0,-1,720,379,0,0
-497,645,0,0,0,0,0,0,0,0,0,-1,727,379,0,0
-490,645,0,0,0,0,0,0,0,0,0,-1,734,379,0,0
-483,645,0,0,0,0,0,0,0,0,0,-1,741,379,0,0
-476,645,0,0,0,0,0,0,0,0,0,-1,748,379,0,0
-469,645,0,0,0,0,0,0,0,0,0,-1,755,379,0,0
-462,645,0,0,0,0,0,0,0,0,0,-1,762,379,0,0
-455,645,0,0,0,0,0,0,0,0,0,-1,769,379,0,0
-448,645,0,0,0,0,0,0,0,0,0,-1,776,379,0,0
-441,645,0,0,0,0,0,0,0,0,0,-1,783,379,0,0
-434,645,0,0,0,0,0,0,0,0,0,-1,790,379,0,0
-427,645,0,0,0,0,0,0,0,0,0,-1,797,379,0,0
-420,645,0,0,0,0,0,0,0,0,0,-1,804,379,0,0
-413,645,0,0,0,0,0,0,0,0,0,-1,811,379,0,0
-406,645,0,0,0,0,0,0,0,0,0,-1,818,379,0,0
-399,645,0,0,0,0,0,0,0,0,0,-1,825,379,0,0
-392,645,0,0,0,0,0,0,0,0,0,-1,832,379,0,0
-385,645,0,0,0,0,0,0,0,0,0,-1,839,379,0,0
-378,645,0,0,0,0,0,0,0,0,0,-1,846,379,0,0
-371,645,0,0,0,0,0,0,0,0,0,-1,853,379,0,0
-364,645,0,0,0,0,0,0,0,0,0,-1,860,379,0,0
-357,645,0,0,0,0,0,0,0,0,0,-1,867,379,0,0
-350,645,0,0,0,0,0,0,0,0,0,-1,874,379,0,0
-343,645,0,0,0,0,0,0,0,0,0,-1,881,379,0,0
-336,645,0,0,0,0,0,0,0,0,0,-1,888,379,0,0
-329,645,0,0,0,0,0,0,0,0,0,-1,895,379,0,0
-322,645,0,0,0,0,0,0,0,0,0,-1,902,379,0,0
-315,645,0,0,0,0,0,0,0,0,0,-1,909,379,0,0
-308,645,0,0,0,0,0,0,0,0,0,-1,916,379,0,0
-301,645,0,0,0,0,0,0,0,0,0,-1,923,379,0,0
-294,645,0,0,0,0,0,0,0,0,0,-1,930,379,0,0
-287,645,0,0,0,0,0,0,0,0,0,-1,937,379,0,0
-280,645,0,0,0,0,0,0,0,0,0,-1,944,379,0,0
-273,645,0,0,0,0,0,0,0,0,0,-1,951,379,0,0
-266,645,0,0,0,0,0,0,0,0,0,-1,958,379,0,0
-259,645,0,0,0,0,0,0,0,0,0,-1,965,379,0,0
-252,645,2.95691,-26.9133,0,0,0,0,0,0,0,-1,972,379,2.9569,26.9133
-245,645,2.73169,-27.0215,0,0,0,0,0,0,0,-1,979,379,2.73172,27.0215
-238,645,2.6665,-26.9464,0,0,0,0,0,0,0,-1,986,379,2.66649,26.9464
-231,645,7.26807,-29.1054,0,0,0,0,0,0,0,-1,993,379,7.26806,29.1054
-224,645,7.69073,-29.5737,0,0,0,0,0,0,0,-1,1000,379,7.69071,29.5737
-217,645,8.65485,-33.4136,0,0,0,0,0,0,0,-1,1007,379,8.65487,33.4136
-210,645,9.21594,-32.5157,0,0,0,0,0,0,0,-1,1014,379,9.21591,32.5156
-203,645,9.77698,-31.6176,0,0,0,0,0,0,0,-1,1021,379,9.77696,31.6177
-196,645,10.2664,-29.7741,0,0,0,0,0,0,0,-1,1028,379,10.2664,29.7741
-189,645,5.88062,-28.2191,0,0,0,0,0,0,0,-1,1035,379,5.88062,28.2191
-182,645,6.34167,-29.2525,0,0,0,0,0,0,0,-1,1042,379,6.3417,29.2525
-175,645,6.1416,-34.1797,0,0,0,0,0,0,0,-1,1049,379,6.14161,34.1797
-168,645,6.38269,-34.4297,0,0,0,0,0,0,0,-1,1056,379,6.38267,34.4297
-161,645,6.47949,-34.6393,0,0,0,0,0,0,0,-1,1063,379,6.47952,34.6393
-154,645,6.34827,-34.9826,-0.00332368,0.0136984,-0.00306619,0.0142339,-0.00385915,-1.3979,0.0110036,0.0464487,1070,379,6.34824,34.9826
-147,645,6.25891,-35.1075,-0.00383713,0.0141332,-0.00244298,0.0144593,-0.00416332,-1.43806,0.0112863,0.0452964,1077,379,6.25888,35.1075
-140,645,6.09473,-35.3267,0,0,0,0,0,0,0,-1,1084,379,6.09477,35.3267
-133,645,6.08777,-35.9114,0,0,0,0,0,0,0,-1,1091,379,6.08774,35.9114
-126,645,5.98657,-36.098,-0.00466345,0.0154661,-0.00225166,0.0157149,-0.00491225,-1.46075,0.0124416,0.0468182,1098,379,5.98653,36.098
-119,645,5.95386,-36.6219,-0.00501028,0.0155119,-0.001969,0.0156991,-0.00519749,-1.476,0.0125622,0.0253313,1105,379,5.95385,36.622
-112,645,5.92151,-37.003,-0.00512149,0.0151297,-0.00204287,0.0153337,-0.00532552,-1.47126,0.0123854,0.0172569,1112,379,5.92147,37.003
-105,645,5.88708,-37.2628,-0.00506249,0.0143116,-0.00219476,0.0145572,-0.00530801,-1.45939,0.0118763,0.0354997,1119,379,5.88708,37.2628
-98,645,5.85608,-37.4255,0,0,0,0,0,0,0,-1,1126,379,5.8561,37.4255
-91,645,5.76587,-38.1373,0,0,0,0,0,0,0,-1,1133,379,5.76582,38.1373
-84,645,5.7041,-38.4736,0,0,0,0,0,0,0,-1,1140,379,5.70404,38.4736
-77,645,5.76477,-38.7498,-0.0045309,0.00736227,-0.00166302,0.00759043,-0.00475906,-1.43445,0.00719218,0.0376834,1147,379,5.7648,38.7498
-70,645,5.70349,-39.0161,-0.00465446,0.00587751,-0.00118457,0.0060091,-0.00478605,-1.46016,0.0062459,0.0157376,1154,379,5.70347,39.016
-63,645,5.6626,-39.2505,-0.00463672,0.0060964,-0.000968635,0.00618312,-0.00472343,-1.48151,0.00631567,0.0125561,1161,379,5.66255,39.2505
-56,645,5.61975,-39.4752,-0.00443535,0.00646032,-0.000883027,0.00653142,-0.00450645,-1.49045,0.00640836,0.0135686,1168,379,5.61969,39.4752
-49,645,5.60938,-39.7091,-0.00416948,0.0064529,-0.000788004,0.00651104,-0.00422761,-1.49715,0.00624651,0.0109963,1175,379,5.60938,39.7091
-42,645,5.58093,-39.9303,-0.00377393,0.00774695,-0.000133789,0.0077485,-0.00377548,-1.55919,0.0067839,0.0107903,1182,379,5.58098,39.9303
-35,645,5.54163,-40.1664,-0.00350074,0.00904369,3.37499e-05,0.00904378,-0.00350083,1.56811,0.00747459,0.0110667,1189,379,5.5416,40.1664
-28,645,5.5,-40.3951,-0.00285799,0.00990729,0.00015125,0.00990908,-0.00285978,1.55895,0.00773753,0.00864747,1196,379,5.49995,40.3951
-21,645,5.45251,-40.5756,-0.00238242,0.0103973,0.000301455,0.0104044,-0.00238953,1.54723,0.00785489,0.0104375,1203,379,5.4525,40.5756
-14,645,5.45313,-40.7407,-0.00216102,0.0106044,0.000547654,0.0106279,-0.00218447,1.528,0.00791453,0.0105905,1210,379,5.45315,40.7407
-7,645,5.44897,-40.8925,-0.00190696,0.0105123,0.000767806,0.0105596,-0.00195425,1.50928,0.00777349,0.0143957,1217,379,5.44893,40.8925
0,645,5.41199,-41.0045,-0.00161537,0.0102928,0.000898977,0.0103603,-0.00168285,1.49587,0.00753076,0.0270591,1224,379,5.41193,41.0045
7,645,5.38647,-41.1172,-0.00131646,0.0101082,0.00108632,0.0102105,-0.00141884,1.47683,0.00732592,0.0176579,1231,379,5.38645,41.1172
14,645,5.3844,-41.1942,-0.00111297,0.0100013,0.0012936,0.0101499,-0.00126155,1.45644,0.00722394,0.0167227,1238,379,5.38442,41.1942
21,645,5.33838,-41.3368,-0.00106328,0.0101847,0.00150266,0.010382,-0.00126056,1.44025,0.00737747,0.0111088,1245,379,5.33836,41.3368
28,645,5.3418,-41.4283,-0.000998538,0.0105389,0.00168059,0.0107787,-0.00123835,1.42906,0.00763217,0.00929302,1252,379,5.34175,41.4283
35,645,5.32117,-41.4792,-0.000834054,0.0111984,0.00187271,0.0114831,-0.00111878,1.41991,0.00805429,0.00885725,1259,379,5.32117,41.4792
42,645,5.30029,-41.5254,-0.00064657,0.0119306,0.00215333,0.0122891,-0.00100502,1.40584,0.00854746,0.00944042,1266,379,5.30034,41.5254
49,645,5.31982,-41.5473,-0.000606864,0.0128586,0.00224627,0.0132235,-0.000971694,1.40979,0.00915675,0.0128163,1273,379,5.31978,41.5473
56,645,5.32153,-41.5557,-0.000628183,0.0142726,0.00226262,0.0146086,-0.000964174,1.42338,0.0100759,0.0122826,1280,379,5.32151,41.5557
63,645,5.2887,-41.5768,-0.00059444,0.0152558,0.0022595,0.0155717,-0.000910246,1.43193,0.0106974,0.0119629,1287,379,5.28871,41.5768
70,645,5.23438,-41.5652,-0.000606916,0.016198,0.0023271,0.0165143,-0.000923215,1.4357,0.0113298,0.0168255,1294,379,5.23442,41.5652
77,645,5.22705,-41.5404,-0.000942239,0.0168992,0.0022636,0.0171819,-0.00122495,1.44655,0.011884,0.0190605,1301,379,5.22705,41.5404
84,645,5.24304,-41.4857,-0.00135946,0.0171955,0.00193121,0.0173943,-0.00155833,1.46818,0.012149,0.0142601,1308,379,5.24303,41.4857
91,645,5.21326,-41.4552,-0.00172579,0.0172454,0.00132136,0.017337,-0.00181738,1.50159,0.012209,0.0166566,1315,379,5.2133,41.4552
98,645,5.19897,-41.3603,-0.00218305,0.0169585,0.000894333,0.0170002,-0.00222475,1.52421,0.0121432,0.0140729,1322,379,5.19896,41.3603
105,645,5.18799,-41.2578,-0.00271341,0.0164098,0.000488986,0.0164223,-0.00272591,1.54525,0.0119608,0.0106065,1329,379,5.18803,41.2578
112,645,5.15967,-41.1513,-0.00329151,0.0156815,2.32702e-05,0.0156815,-0.00329154,1.56957,0.0117068,0.00873814,1336,379,5.15972,41.1513
119,645,5.15002,-41.0394,-0.00381834,0.0146251,-0.000422,0.0146348,-0.00382799,-1.54793,0.0112517,0.00864058,1343,379,5.15002,41.0394
126,645,5.10706,-40.8893,-0.00419195,0.0134897,-0.000798098,0.0135257,-0.0042279,-1.52578,0.0107083,0.0111169,1350,379,5.10703,40.8893
133,645,5.08691,-40.7093,-0.00453713,0.0125066,-0.00103883,0.0125697,-0.00460021,-1.51014,0.0102628,0.0123254,1357,379,5.08693,40.7093
140,645,5.073,-40.5376,-0.0048223,0.0116697,-0.00113023,0.0117468,-0.0048994,-1.50269,0.00987802,0.0120991,1364,379,5.073,40.5376
147,645,5.05396,-40.357,-0.00498066,0.0112134,-0.00114928,0.0112946,-0.00506182,-1.5003,0.00966922,0.0133377,1371,379,5.05396,40.357
154,645,5.03625,-40.1639,-0.0047142,0.0110181,-0.00077249,0.011056,-0.00475204,-1.52185,0.00936553,0.0121051,1378,379,5.03625,40.1639
161,645,4.9967,-39.9451,-0.00430266,0.0103628,-0.000357584,0.0103715,-0.00431137,-1.54643,0.00871451,0.0143172,1385,379,4.99675,39.9451
168,645,4.9718,-39.7144,-0.00412132,0.010504,-6.97341e-05,0.0105044,-0.00412166,-1.56603,0.00870825,0.0173587,1392,379,4.97185,39.7144
175,645,4.98547,-39.4844,-0.00387731,0.0105375,0.000417126,0.0105496,-0.00388937,1.54189,0.00862689,0.0154562,1399,379,4.98546,39.4844
182,645,4.94275,-39.2393,-0.00339766,0.0105369,0.00106891,0.0106184,-0.00347918,1.49468,0.00847998,0.0110992,1406,379,4.9427,39.2394
189,645,4.90527,-38.9389,-0.00287729,0.0104762,0.00182448,0.010721,-0.00312208,1.43742,0.0083841,0.0113134,1413,379,4.90528,38.9389
196,645,4.85767,-38.6919,-0.002764,0.0100625,0.0031617,0.0107995,-0.003501,1.34178,0.00860739,0.0118729,1420,379,4.85762,38.6919
203,645,4.82727,-38.3679,-0.00281396,0.0102817,0.00360259,0.0112073,-0.0037396,1.3193,0.00898145,0.0121723,1427,379,4.82723,38.3679
210,645,4.83936,-37.9874,-0.00297235,0.0101317,0.0038539,0.0111811,-0.00402175,1.30495,0.00909598,0.0212292,1434,379,4.83937,37.9874
217,645,4.80579,-37.7258,-0.0027081,0.0107664,0.00372554,0.0117278,-0.00366957,1.31823,0.00928664,0.0459784,1441,379,4.80573,37.7258
224,645,4.61011,-37.6103,0,0,0,0,0,0,0,-1,1448,379,4.6101,37.6103
231,645,4.64197,-37.003,0,0,0,0,0,0,0,-1,1455,379,4.642,37.003
238,645,4.57458,-36.6431,-1.6149e-06,0.0148954,0.00509484,0.0164711,-0.00157739,1.27084,0.0115425,0.0483679,1462,379,4.57454,36.6431
245,645,4.57117,-36.2884,0.000856117,0.0165079,0.00565826,0.0183392,-0.000975137,1.25779,0.0125638,0.0253497,1469,379,4.57113,36.2884
252,645,4.599,-35.745,0.00201809,0.0181358,0.00643661,0.0203908,-0.000236882,1.23382,0.0136735,0.0352331,1476,379,4.59895,35.745
259,645,4.3335,-35.2036,0,0,0,0,0,0,0,-1,1483,379,4.33355,35.2036
266,645,4.349,-34.8451,0.00493128,0.0150753,-0.0116609,0.0227195,-0.00271293,-0.990535,0.0161269,0.0382054,1490,379,4.34897,34.8451
273,645,4.4718,-34.5941,0.00615397,0.0173809,-0.0277477,0.0400773,-0.0165424,-0.885203,0.0336176,0.0233969,1497,379,4.47181,34.5941
280,645,4.5365,-34.2083,0.00657955,0.0203219,-0.0474714,0.0614169,-0.0345154,-0.857271,0.0561077,0.0439854,1504,379,4.53653,34.2083
287,645,4.64526,-33.7819,0,0,0,0,0,0,0,-1,1511,379,4.64532,33.7818
294,645,-0.0905762,-19.8206,0,0,0,0,0,0,0,-1,1518,379,-0.0905623,19.8206
301,645,-0.00219727,-21.3215,0,0,0,0,0,0,0,-1,1525,379,-0.00220324,21.3215
308,645,-0.351807,-21.8966,0.0077256,0.0310735,-0.131434,0.151351,-0.112552,-0.829692,0.152913,0.0437389,1532,379,-0.351807,21.8966
315,645,-0.00427246,-22.7372,0.00723394,0.0362308,-0.153604,0.176019,-0.132554,-0.832453,0.178743,0.0405808,1539,379,-0.00424457,22.7372
322,645,0.717163,-22.771,0.00628558,0.0421945,-0.175696,0.200851,-0.152371,-0.836317,0.204572,0.040962,1546,379,0.717186,22.771
329,645,0.637939,-22.3888,0.00494018,0.0493385,-0.196722,0.22511,-0.170831,-0.841583,0.229311,0.0408654,1553,379,0.637921,22.3888
336,645,3.54895,-30.4362,0,0,0,0,0,0,0,-1,1560,379,3.54894,30.4362
343,645,4.77185,-23.7191,0,0,0,0,0,0,0,-1,1567,379,4.77184,23.7191
350,645,4.76404,-22.1987,0,0,0,0,0,0,0,-1,1574,379,4.76399,22.1987
357,645,4.61316,-21.967,0,0,0,0,0,0,0,-1,1581,379,4.61316,21.967
364,645,-0.0794678,-3.22021,0,0,0,0,0,0,0,-1,1588,379,-0.0794987,3.22021
371,645,0,0,0,0,0,0,0,0,0,-1,1595,379,0,0
378,645,0,0,0,0,0,0,0,0,0,-1,1602,379,0,0
385,645,0,0,0,0,0,0,0,0,0,-1,1609,379,0,0
392,645,0,0,0,0,0,0,0,0,0,-1,1616,379,0,0
399,645,0,0,0,0,0,0,0,0,0,-1,1623,379,0,0
406,645,0,0,0,0,0,0,0,0,0,-1,1630,379,0,0
413,645,0,0,0,0,0,0,0,0,0,-1,1637,379,0,0
420,645,0,0,0,0,0,0,0,0,0,-1,1644,379,0,0
427,645,0,0,0,0,0,0,0,0,0,-1,1651,379,0,0
434,645,0,0,0,0,0,0,0,0,0,-1,1658,379,0,0
441,645,0,0,0,0,0,0,0,0,0,-1,1665,379,0,0
448,645,0,0,0,0,0,0,0,0,0,-1,1672,379,0,0
455,645,0,0,0,0,0,0,0,0,0,-1,1679,379,0,0
462,645,0,0,0,0,0,0,0,0,0,-1,1686,379,0,0
469,645,0,0,0,0,0,0,0,0,0,-1,1693,379,0,0
476,645,0,0,0,0,0,0,0,0,0,-1,1700,379,0,0
483,645,0,0,0,0,0,0,0,0,0,-1,1707,379,0,0
490,645,0,0,0,0,0,0,0,0,0,-1,1714,379,0,0
497,645,0,0,0,0,0,0,0,0,0,-1,1721,379,0,0
504,645,0,0,0,0,0,0,0,0,0,-1,1728,379,0,0
511,645,0,0,0,0,0,0,0,0,0,-1,1735,379,0,0
518,645,0,0,0,0,0,0,0,0,0,-1,1742,379,0,0
525,645,0,0,0,0,0,0,0,0,0,-1,1749,379,0,0
532,645,0,0,0,0,0,0,0,0,0,-1,1756,379,0,0
539,645,0,0,0,0,0,0,0,0,0,-1,1763,379,0,0
546,645,0,0,0,0,0,0,0,0,0,-1,1770,379,0,0
553,645,0,0,0,0,0,0,0,0,0,-1,1777,379,0,0
560,645,0,0,0,0,0,0,0,0,0,-1,1784,379,0,0
567,645,0,0,0,0,0,0,0,0,0,-1,1791,379,0,0
574,645,0,0,0,0,0,0,0,0,0,-1,1798,379,0,0
581,645,0,0,0,0,0,0,0,0,0,-1,1805,379,0,0
588,645,0,0,0,0,0,0,0,0,0,-1,1812,379,0,0
595,645,0,0,0,0,0,0,0,0,0,-1,1819,379,0,0
602,645,0,0,0,0,0,0,0,0,0,-1,1826,379,0,0
609,645,0,0,0,0,0,0,0,0,0,-1,1833,379,0,0
616,645,0,0,0,0,0,0,0,0,0,-1,1840,379,0,0
623,645,0,0,0,0,0,0,0,0,0,-1,1847,379,0,0
630,645,0,0,0,0,0,0,0,0,0,-1,1854,379,0,0
637,645,0,0,0,0,0,0,0,0,0,-1,1861,379,0,0
644,645,0,0,0,0,0,0,0,0,0,-1,1868,379,0,0
651,645,0,0,0,0,0,0,0,0,0,-1,1875,379,0,0
658,645,0,0,0,0,0,0,0,0,0,-1,1882,379,0,0
665,645,0,0,0,0,0,0,0,0,0,-1,1889,379,0,0
672,645,0,0,0,0,0,0,0,0,0,-1,1896,379,0,0
679,645,0,0,0,0,0,0,0,0,0,-1,1903,379,0,0
686,645,0,0,0,0,0,0,0,0,0,-1,1910,379,0,0
693,645,0,0,0,0,0,0,0,0,0,-1,1917,379,0,0
700,645,0,0,0,0,0,0,0,0,0,-1,1924,379,0,0
707,645,0,0,0,0,0,0,0,0,0,-1,1931,379,0,0
714,645,0,0,0,0,0,0,0,0,0,-1,1938,379,0,0
721,645,0,0,0,0,0,0,0,0,0,-1,1945,379,0,0
728,645,0,0,0,0,0,0,0,0,0,-1,1952,379,0,0
735,645,0,0,0,0,0,0,0,0,0,-1,1959,379,0,0
742,645,0,0,0,0,0,0,0,0,0,-1,1966,379,0,0
749,645,0,0,0,0,0,0,0,0,0,-1,1973,379,0,0
756,645,0,0,0,0,0,0,0,0,0,-1,1980,379,0,0
763,645,0,0,0,0,0,0,0,0,0,-1,1987,379,0,0
770,645,0,0,0,0,0,0,0,0,0,-1,1994,379,0,0
777,645,0,0,0,0,0,0,0,0,0,-1,2001,379,0,0
784,645,0,0,0,0,0,0,0,0,0,-1,2008,379,0,0
791,645,0,0,0,0,0,0,0,0,0,-1,2015,379,0,0
798,645,0,0,0,0,0,0,0,0,0,-1,2022,379,0,0
805,645,0,0,0,0,0,0,0,0,0,-1,2029,379,0,0
812,645,0,0,0,0,0,0,0,0,0,-1,2036,379,0,0
-700,638,0,0,0,0,0,0,0,0,0,-1,524,386,0,0
-693,638,0,0,0,0,0,0,0,0,0,-1,531,386,0,0
-686,638,0,0,0,0,0,0,0,0,0,-1,538,386,0,0
-679,638,0,0,0,0,0,0,0,0,0,-1,545,386,0,0
-672,638,0,0,0,0,0,0,0,0,0,-1,552,386,0,0
-665,638,0,0,0,0,0,0,0,0,0,-1,559,386,0,0
-658,638,0,0,0,0,0,0,0,0,0,-1,566,386,0,0
-651,638,0,0,0,0,0,0,0,0,0,-1,573,386,0,0
-644,638,0,0,0,0,0,0,0,0,0,-1,580,386,0,0
-637,638,0,0,0,0,0,0,0,0,0,-1,587,386,0,0
-630,638,0,0,0,0,0,0,0,0,0,-1,594,386,0,0
-623,638,0,0,0,0,0,0,0,0,0,-1,601,386,0,0
-616,638,0,0,0,0,0,0,0,0,0,-1,608,386,0,0
-609,638,0,0,0,0,0,0,0,0,0,-1,615,386,0,0
-602,638,0,0,0,0,0,0,0,0,0,-1,622,386,0,0
-595,638,0,0,0,0,0,0,0,0,0,-1,629,386,0,0
-588,638,0,0,0,0,0,0,0,0,0,-1,636,386,0,0
-581,638,0,0,0,0,0,0,0,0,0,-1,643,386,0,0
-574,638,0,0,0,0,0,0,0,0,0,-1,650,386,0,0
-567,638,0,0,0,0,0,0,0,0,0,-1,657,386,0,0
-560,638,0,0,0,0,0,0,0,0,0,-1,664,386,0,0
-553,638,0,0,0,0,0,0,0,0,0,-1,671,386,0,0
-546,638,0,0,0,0,0,0,0,0,0,-1,678,386,0,0
-539,638,0,0,0,0,0,0,0,0,0,-1,685,386,0,0
-532,638,0,0,0,0,0,0,0,0,0,-1,692,386,0,0
-525,638,0,0,0,0,0,0,0,0,0,-1,699,386,0,0
-518,638,0,0,0,0,0,0,0,0,0,-1,706,386,0,0
-511,638,0,0,0,0,0,0,0,0,0,-1,713,386,0,0
-504,638,0,0,0,0,0,0,0,0,0,-1,720,386,0,0
-497,638,0,0,0,0,0,0,0,0,0,-1,727,386,0,0
-490,638,0,0,0,0,0,0,0,0,0,-1,734,386,0,0
-483,638,0,0,0,0,0,0,0,0,0,-1,741,386,0,0
-476,638,0,0,0,0,0,0,0,0,0,-1,748,386,0,0
-469,638,0,0,0,0,0,0,0,0,0,-1,755,386,0,0
-462,638,0,0,0,0,0,0,0,0,0,-1,762,386,0,0
-455,638,0,0,0,0,0,0,0,0,0,-1,769,386,0,0
-448,638,0,0,0,0,0,0,0,0,0,-1,776,386,0,0
-441,638,0,0,0,0,0,0,0,0,0,-1,783,386,0,0
-434,638,0,0,0,0,0,0,0,0,0,-1,790,386,0,0
-427,638,0,0,0,0,0,0,0,0,0,-1,797,386,0,0
-420,638,0,0,0,0,0,0,0,0,0,-1,804,386,0,0
-413,638,0,0,0,0,0,0,0,0,0,-1,811,386,0,0
-406,638,0,0,0,0,0,0,0,0,0,-1,818,386,0,0
-399,638,0,0,0,0,0,0,0,0,0,-1,825,386,0,0
-392,638,0,0,0,0,0,0,0,0,0,-1,832,386,0,0
-385,638,0,0,0,0,0,0,0,0,0,-1,839,386,0,0
-378,638,0,0,0,0,0,0,0,0,0,-1,846,386,0,0
-371,638,0,0,0,0,0,0,0,0,0,-1,853,386,0,0
-364,638,0,0,0,0,0,0,0,0,0,-1,860,386,0,0
-357,638,0,0,0,0,0,0,0,0,0,-1,867,386,0,0
-350,638,0,0,0,0,0,0,0,0,0,-1,874,386,0,0
-343,638,0,0,0,0,0,0,0,0,0,-1,881,386,0,0
-336,638,0,0,0,0,0,0,0,0,0,-1,888,386,0,0
-329,638,0,0,0,0,0,0,0,0,0,-1,895,386,0,0
-322,638,0,0,0,0,0,0,0,0,0,-1,902,386,0,0
-315,638,0,0,0,0,0,0,0,0,0,-1,909,386,0,0
-308,638,0,0,0,0,0,0,0,0,0,-1,916,386,0,0
-301,638,0,0,0,0,0,0,0,0,0,-1,923,386,0,0
-294,638,0,0,0,0,0,0,0,0,0,-1,930,386,0,0
-287,638,0,0,0,0,0,0,0,0,0,-1,937,386,0,0
-280,638,0,0,0,0,0,0,0,0,0,-1,944,386,0,0
-273,638,0,0,0,0,0,0,0,0,0,-1,951,386,0,0
-266,638,8.15143,-32.1175,0,0,0,0,0,0,0,-1,958,386,8.15144,32.1175
-259,638,8.31427,-32.4462,0,0,0,0,0,0,0,-1,965,386,8.31425,32.4462
-252,638,10.8915,-29.4076,0,0,0,0,0,0,0,-1,972,386,10.8916,29.4076
-245,638,3.35309,-26.4681,0,0,0,0,0,0,0,-1,979,386,3.35311,26.4681
-238,638,2.93518,-26.3649,0,0,0,0,0,0,0,-1,986,386,2.93516,26.3649
-231,638,2.36829,-26.0088,0,0,0,0,0,0,0,-1,993,386,2.3683,26.0088
-224,638,6.3465,-30.9124,0,0,0,0,0,0,0,-1,1000,386,6.34648,30.9124
-217,638,7.41205,-32.7263,0,0,0,0,0,0,0,-1,1007,386,7.41204,32.7262
-210,638,8.7038,-34.5688,0,0,0,0,0,0,0,-1,1014,386,8.70378,34.5689
-203,638,4.32593,-27.5803,0,0,0,0,0,0,0,-1,1021,386,4.32594,27.5803
-196,638,6.0614,-28.4651,0,0,0,0,0,0,0,-1,1028,386,6.06143,28.4651
-189,638,11.4561,-30.1556,0,0,0,0,0,0,0,-1,1035,386,11.456,30.1556
-182,638,5.49121,-32.6628,0,0,0,0,0,0,0,-1,1042,386,5.4912,32.6628
-175,638,5.74011,-33.5314,-0.00198265,0.0163481,-0.00721796,0.018849,-0.0044836,-1.23725,0.0142969,0.0494955,1049,386,5.74011,33.5314
-168,638,5.89368,-34.134,-0.00240577,0.0141141,-0.00563895,0.0158553,-0.00414705,-1.27129,0.01219,0.0451206,1056,386,5.89364,34.134
-161,638,5.91357,-34.609,-0.00270547,0.0126208,-0.00432424,0.0137567,-0.00384135,-1.31392,0.0106843,0.0469387,1063,386,5.91358,34.609
-154,638,5.89124,-34.8422,-0.00299647,0.0122243,-0.00332697,0.0129197,-0.00369191,-1.36473,0.0100719,0.0414292,1070,386,5.89118,34.8422
-147,638,5.81934,-35.0494,-0.00325033,0.0120674,-0.00270219,0.0125301,-0.00371304,-1.4012,0.00982776,0.0333871,1077,386,5.8193,35.0494
-140,638,5.79504,-35.483,-0.00334186,0.0119197,-0.00241763,0.0122935,-0.00371568,-1.41739,0.00967507,0.0300728,1084,386,5.79504,35.483
-133,638,5.7439,-36.0555,-0.00342961,0.0119376,-0.00227213,0.0122665,-0.00375852,-1.42704,0.00967696,0.027155,1091,386,5.74385,36.0556
-126,638,5.698,-36.4297,-0.00352815,0.0118849,-0.00211932,0.012171,-0.00381425,-1.43661,0.00964031,0.0199156,1098,386,5.69804,36.4298
-119,638,5.65491,-36.793,-0.00367666,0.0118077,-0.00178268,0.0120103,-0.00387925,-1.45764,0.00956581,0.0167279,1105,386,5.65491,36.793
-112,638,5.65112,-37.1425,-0.00365455,0.0114569,-0.00176624,0.0116606,-0.00385825,-1.45598,0.00932964,0.0157501,1112,386,5.65111,37.1425
-105,638,5.58008,-37.4977,-0.00352572,0.0107969,-0.00185049,0.0110321,-0.00376094,-1.44436,0.00887801,0.0174025,1119,386,5.58012,37.4977
-98,638,5.53894,-37.8234,-0.00332387,0.00990697,-0.00207882,0.0102259,-0.0036428,-1.41856,0.00830234,0.0163399,1126,386,5.53899,37.8234
-91,638,5.50171,-38.1442,-0.00318311,0.00858304,-0.00208771,0.00894249,-0.00354256,-1.40029,0.00742958,0.01301,1133,386,5.50169,38.1442
-84,638,5.45508,-38.457,-0.00305105,0.00675272,-0.00169615,0.00703788,-0.0033362,-1.40423,0.00611526,0.0146563,1140,386,5.45511,38.457
-77,638,5.4259,-38.7484,-0.00289256,0.00560221,-0.00136624,0.00581653,-0.00310689,-1.41519,0.00523051,0.0125306,1147,386,5.4259,38.7484
-70,638,5.42554,-39.022,-0.00289358,0.00444998,-0.000998504,0.00458333,-0.00302693,-1.43804,0.00442431,0.0118361,1154,386,5.42559,39.022
-63,638,5.40649,-39.286,-0.00280443,0.00435679,-0.000798575,0.00444476,-0.0028924,-1.46108,0.0042676,0.0119198,1161,386,5.40649,39.286
-56,638,5.39197,-39.523,-0.00257654,0.00438845,-0.000675943,0.00445344,-0.00264154,-1.47494,0.00414057,0.0151127,1168,386,5.39192,39.523
-49,638,5.38965,-39.7394,-0.00231836,0.00417069,-0.000536689,0.00421478,-0.00236244,-1.48883,0.00384723,0.012597,1175,386,5.3896,39.7394
-42,638,5.37085,-39.9746,-0.00199248,0.00467839,-0.000109539,0.00468019,-0.00199428,-1.55438,0.00395615,0.0113941,1182,386,5.37082,39.9746
-35,638,5.33618,-40.1978,-0.00173437,0.00515361,7.03008e-05,0.00515433,-0.00173509,1.56059,0.00413768,0.011139,1189,386,5.33618,40.1979
-28,638,5.31714,-40.4074,-0.00134142,0.00533591,0.000201571,0.00534199,-0.0013475,1.54065,0.00408525,0.0109698,1196,386,5.31715,40.4074
-21,638,5.29126,-40.5858,-0.000946093,0.00531036,0.000325053,0.0053272,-0.000962936,1.51903,0.00391215,0.0121232,1203,386,5.29125,40.5858
-14,638,5.28333,-40.7636,-0.000661074,0.00512332,0.0004197,0.00515362,-0.000691368,1.49874,0.00368787,0.0118323,1210,386,5.28336,40.7636
-7,638,5.29822,-40.9338,-0.00037706,0.00480167,0.000447003,0.00483997,-0.000415359,1.48532,0.00337363,0.0180968,1217,386,5.2982,40.9338
0,638,5.34912,-40.9861,-0.000104398,0.00443922,0.000426946,0.00447899,-0.000144168,1.47791,0.00303519,0.0344759,1224,386,5.3491,40.9861
7,638,5.26843,-41.122,0.000126012,0.00411257,0.000428094,0.00415802,8.05599e-05,1.46502,0.00274555,0.0258222,1231,386,5.26838,41.1221
14,638,5.24707,-41.2369,0.000279012,0.00388059,0.000439289,0.0039334,0.000226205,1.45116,0.00255021,0.0137331,1238,386,5.24708,41.2369
21,638,5.25,-41.3552,0.000323782,0.0038405,0.000474371,0.00390337,0.000260918,1.43904,0.00251978,0.012026,1245,386,5.25005,41.3552
28,638,5.27917,-41.4412,0.000402844,0.00396197,0.000507105,0.00403281,0.000332002,1.43199,0.00258499,0.00949074,1252,386,5.27917,41.4412
35,638,5.28406,-41.4845,0.000458608,0.00436928,0.000577133,0.00445267,0.000375214,1.42729,0.00285162,0.0110042,1259,386,5.28403,41.4845
42,638,5.29309,-41.5388,0.000441182,0.00486617,0.000744009,0.00498791,0.000319435,1.4086,0.00322408,0.0107964,1266,386,5.29314,41.5388
49,638,5.31165,-41.5724,0.000359782,0.00553108,0.000817572,0.00565726,0.000233604,1.41767,0.0036961,0.00943997,1273,386,5.31162,41.5724
56,638,5.2915,-41.5858,0.000243882,0.00625687,0.000837965,0.00637146,0.000129288,1.43489,0.00420521,0.0120672,1280,386,5.29151,41.5858
63,638,5.2605,-41.5828,7.68218e-05,0.00692058,0.00076012,0.00700399,-6.58655e-06,1.4615,0.00467152,0.0144152,1287,386,5.26052,41.5827
70,638,5.22852,-41.5845,-0.000139471,0.00762251,0.000696918,0.00768459,-0.000201548,1.48196,0.00519155,0.0195825,1294,386,5.22847,41.5845
77,638,5.25037,-41.5673,-0.000460867,0.0081311,0.000612485,0.00817454,-0.000504309,1.49999,0.00562534,0.019361,1301,386,5.25034,41.5673
84,638,5.29761,-41.5133,-0.000840419,0.00832609,0.000304533,0.00833619,-0.000850525,1.53762,0.00586157,0.0138613,1308,386,5.29764,41.5133
91,638,5.29871,-41.4399,-0.00121351,0.00822677,-0.000178439,0.00823015,-0.00121688,-1.5519,0.00593413,0.0149854,1315,386,5.29868,41.4399
98,638,5.28308,-41.338,-0.00157735,0.00781169,-0.000513283,0.00783966,-0.00160533,-1.51634,0.00583562,0.013668,1322,386,5.28307,41.3381
105,638,5.25549,-41.2564,-0.00188065,0.00732266,-0.000840803,0.00739885,-0.00195684,-1.48043,0.00569797,0.0105198,1329,386,5.25549,41.2564
112,638,5.26917,-41.1529,-0.00216493,0.00682544,-0.00117705,0.00697699,-0.00231648,-1.44275,0.00558596,0.00968462,1336,386,5.26922,41.1529
119,638,5.28674,-41.0452,-0.00238316,0.00613218,-0.00144791,0.00637164,-0.00262262,-1.4069,0.00534109,0.0117581,1343,386,5.28676,41.0452
126,638,5.27002,-40.9022,-0.00248361,0.00553244,-0.0016459,0.00585723,-0.00280839,-1.37597,0.00510527,0.0158471,1350,386,5.26997,40.9022
133,638,5.2373,-40.7358,-0.00258748,0.00512289,-0.00169134,0.00547758,-0.00294217,-1.36408,0.00493406,0.016191,1357,386,5.23725,40.7359
140,638,5.22058,-40.5699,-0.00260587,0.00488701,-0.00156716,0.00520158,-0.00292044,-1.3727,0.0047505,0.016063,1364,386,5.22053,40.5699
147,638,5.2113,-40.382,-0.00251931,0.00500766,-0.00136569,0.00524779,-0.00275944,-1.39675,0.00469679,0.0177617,1371,386,5.21126,40.382
154,638,5.22351,-40.1974,-0.0022515,0.0053403,-0.000943233,0.00545574,-0.00236693,-1.44902,0.00463229,0.0157076,1378,386,5.22357,40.1974
161,638,5.22266,-39.9534,-0.00193542,0.00587243,-0.000462263,0.0058997,-0.00196269,-1.51187,0.00472525,0.0185003,1385,386,5.22271,39.9534
168,638,5.23914,-39.682,-0.00181952,0.00635945,-5.99999e-05,0.00635989,-0.00181996,-1.56346,0.00495918,0.0240682,1392,386,5.23908,39.682
175,638,5.23584,-39.4855,-0.00175294,0.00681459,0.000333795,0.00682757,-0.00176593,1.53191,0.00524049,0.0201811,1399,386,5.23588,39.4855
182,638,5.177,-39.2725,-0.00159158,0.00718039,0.000799618,0.00725269,-0.00166387,1.48063,0.00547469,0.0133968,1406,386,5.17705,39.2725
189,638,5.15771,-38.9846,-0.0014318,0.00742923,0.001337,0.00762657,-0.00162914,1.42426,0.00570549,0.0109879,1413,386,5.15766,38.9846
196,638,5.12378,-38.7221,-0.00150965,0.00729875,0.00216914,0.00780394,-0.00201485,1.34197,0.00598832,0.0138157,1420,386,5.12375,38.7221
203,638,5.1106,-38.4293,-0.00168742,0.00750834,0.00255346,0.0081698,-0.00234888,1.31732,0.0063754,0.019852,1427,386,5.11057,38.4293
210,638,5.09839,-38.1145,-0.00191361,0.00761844,0.0028045,0.00838236,-0.00267752,1.30486,0.00666256,0.0166872,1434,386,5.09841,38.1145
217,638,5.05566,-37.7724,-0.00181592,0.00828088,0.00279732,0.00900408,-0.00253912,1.3178,0.00700422,0.0131484,1441,386,5.0557,37.7724
224,638,5.02234,-37.425,-0.00148175,0.00928733,0.00296115,0.0100478,-0.00224226,1.3194,0.00755768,0.0114114,1448,386,5.0223,37.425
231,638,4.96362,-37.0662,-0.000837816,0.0101588,0.00334739,0.0110976,-0.00177662,1.29736,0.00805615,0.0121431,1455,386,4.96365,37.0662
238,638,4.92969,-36.72,-7.86074e-05,0.0115283,0.00413213,0.0128491,-0.00139937,1.26143,0.00906859,0.0132618,1462,386,4.92967,36.72
245,638,4.90942,-36.3297,0.000464406,0.0127827,0.00464632,0.0143387,-0.00109158,1.24765,0.009943,0.0154069,1469,386,4.90948,36.3297
252,638,4.89026,-35.9341,0.00123843,0.0140941,0.00531763,0.0160086,-0.000676056,1.22522,0.0109047,0.020843,1476,386,4.89028,35.9341
259,638,4.82935,-35.5618,0.00221016,0.0128628,0.00081757,0.0129252,0.00214778,1.49464,0.0079976,0.0207106,1483,386,4.8294,35.5618
266,638,4.75439,-35.1558,0.00350234,0.0128363,-0.00629323,0.0160042,0.000334435,-1.10445,0.0105597,0.0131021,1490,386,4.75437,35.1557
273,638,4.74353,-34.7726,0.00453328,0.0147435,-0.0171178,0.0275013,-0.00822448,-0.930316,0.021604,0.0115644,1497,386,4.74353,34.7726
280,638,4.81836,-34.2828,0.00505815,0.0171596,-0.0309406,0.0426356,-0.0204178,-0.881959,0.0371496,0.0219997,1504,386,4.8184,34.2828
287,638,5.03772,-33.554,0.00578644,0.0186896,-0.0438913,0.056601,-0.0321249,-0.858371,0.0518716,0.0404988,1511,386,5.0377,33.554
294,638,5.12415,-32.9473,0,0,0,0,0,0,0,-1,1518,386,5.1241,32.9473
301,638,4.46448,-32.787,0,0,0,0,0,0,0,-1,1525,386,4.46443,32.787
308,638,4.92273,-31.9053,0,0,0,0,0,0,0,-1,1532,386,4.92273,31.9053
315,638,5.18982,-31.3156,0,0,0,0,0,0,0,-1,1539,386,5.18986,31.3157
322,638,4.79968,-22.3213,0,0,0,0,0,0,0,-1,1546,386,4.79968,22.3213
329,638,3.65576,-30.9963,0,0,0,0,0,0,0,-1,1553,386,3.65577,30.9963
336,638,4.0127,-30.2043,0,0,0,0,0,0,0,-1,1560,386,4.01265,30.2043
343,638,4.41357,-29.7545,0,0,0,0,0,0,0,-1,1567,386,4.41359,29.7545
350,638,5.91162,-19.0222,0,0,0,0,0,0,0,-1,1574,386,5.91165,19.0222
357,638,0.387329,-3.01077,0,0,0,0,0,0,0,-1,1581,386,0.387332,3.01077
364,638,3.78149,-6.45215,0,0,0,0,0,0,0,-1,1588,386,3.78155,6.45216
371,638,4.18604,-6.71164,0,0,0,0,0,0,0,-1,1595,386,4.18598,6.71164
378,638,4.59045,-6.97113,0,0,0,0,0,0,0,-1,1602,386,4.5904,6.97112
385,638,0,0,0,0,0,0,0,0,0,-1,1609,386,0,0
392,638,0,0,0,0,0,0,0,0,0,-1,1616,386,0,0
399,638,0,0,0,0,0,0,0,0,0,-1,1623,386,0,0
406,638,0,0,0,0,0,0,0,0,0,-1,1630,386,0,0
413,638,0,0,0,0,0,0,0,0,0,-1,1637,386,0,0
420,638,0,0,0,0,0,0,0,0,0,-1,1644,386,0,0
427,638,0,0,0,0,0,0,0,0,0,-1,1651,386,0,0
434,638,0,0,0,0,0,0,0,0,0,-1,1658,386,0,0
441,638,0,0,0,0,0,0,0,0,0,-1,1665,386,0,0
448,638,0,0,0,0,0,0,0,0,0,-1,1672,386,0,0
455,638,0,0,0,0,0,0,0,0,0,-1,1679,386,0,0
462,638,0,0,0,0,0,0,0,0,0,-1,1686,386,0,0
469,638,0,0,0,0,0,0,0,0,0,-1,1693,386,0,0
476,638,0,0,0,0,0,0,0,0,0,-1,1700,386,0,0
483,638,0,0,0,0,0,0,0,0,0,-1,1707,386,0,0
490,638,0,0,0,0,0,0,0,0,0,-1,1714,386,0,0
497,638,0,0,0,0,0,0,0,0,0,-1,1721,386,0,0
504,638,0,0,0,0,0,0,0,0,0,-1,1728,386,0,0
511,638,0,0,0,0,0,0,0,0,0,-1,1735,386,0,0
518,638,0,0,0,0,0,0,0,0,0,-1,1742,386,0,0
525,638,0,0,0,0,0,0,0,0,0,-1,1749,386,0,0
532,638,0,0,0,0,0,0,0,0,0,-1,1756,386,0,0
539,638,0,0,0,0,0,0,0,0,0,-1,1763,386,0,0
546,638,0,0,0,0,0,0,0,0,0,-1,1770,386,0,0
553,638,0,0,0,0,0,0,0,0,0,-1,1777,386,0,0
560,638,0,0,0,0,0,0,0,0,0,-1,1784,386,0,0
567,638,0,0,0,0,0,0,0,0,0,-1,1791,386,0,0
574,638,0,0,0,0,0,0,0,0,0,-1,1798,386,0,0
581,638,0,0,0,0,0,0,0,0,0,-1,1805,386,0,0
588,638,0,0,0,0,0,0,0,0,0,-1,1812,386,0,0
595,638,0,0,0,0,0,0,0,0,0,-1,1819,386,0,0
602,638,0,0,0,0,0,0,0,0,0,-1,1826,386,0,0
609,638,0,0,0,0,0,0,0,0,0,-1,1833,386,0,0
616,638,0,0,0,0,0,0,0,0,0,-1,1840,386,0,0
623,638,0,0,0,0,0,0,0,0,0,-1,1847,386,0,0
630,638,0,0,0,0,0,0,0,0,0,-1,1854,386,0,0
637,638,0,0,0,0,0,0,0,0,0,-1,1861,386,0,0
644,638,0,0,0,0,0,0,0,0,0,-1,1868,386,0,0
651,638,0,0,0,0,0,0,0,0,0,-1,1875,386,0,0
658,638,0,0,0,0,0,0,0,0,0,-1,1882,386,0,0
665,638,0,0,0,0,0,0,0,0,0,-1,1889,386,0,0
672,638,0,0,0,0,0,0,0,0,0,-1,1896,386,0,0
679,638,0,0,0,0,0,0,0,0,0,-1,1903,386,0,0
686,638,0,0,0,0,0,0,0,0,0,-1,1910,386,0,0
693,638,0,0,0,0,0,0,0,0,0,-1,1917,386,0,0
700,638,0,0,0,0,0,0,0,0,0,-1,1924,386,0,0
707,638,0,0,0,0,0,0,0,0,0,-1,1931,386,0,0
714,638,0,0,0,0,0,0,0,0,0,-1,1938,386,0,0
721,638,0,0,0,0,0,0,0,0,0,-1,1945,386,0,0
728,638,0,0,0,0,0,0,0,0,0,-1,1952,386,0,0
735,638,0,0,0,0,0,0,0,0,0,-1,1959,386,0,0
742,638,0,0,0,0,0,0,0,0,0,-1,1966,386,0,0
749,638,0,0,0,0,0,0,0,0,0,-1,1973,386,0,0
756,638,0,0,0,0,0,0,0,0,0,-1,1980,386,0,0
763,638,0,0,0,0,0,0,0,0,0,-1,1987,386,0,0
770,638,0,0,0,0,0,0,0,0,0,-1,1994,386,0,0
777,638,0,0,0,0,0,0,0,0,0,-1,2001,386,0,0
784,638,0,0,0,0,0,0,0,0,0,-1,2008,386,0,0
791,638,0,0,0,0,0,0,0,0,0,-1,2015,386,0,0
798,638,0,0,0,0,0,0,0,0,0,-1,2022,386,0,0
805,638,0,0,0,0,0,0,0,0,0,-1,2029,386,0,0
812,638,0,0,0,0,0,0,0,0,0,-1,2036,386,0,0
-700,631,0,0,0,0,0,0,0,0,0,-1,524,393,0,0
-693,631,0,0,0,0,0,0,0,0,0,-1,531,393,0,0
-686,631,0,0,0,0,0,0,0,0,0,-1,538,393,0,0
-679,631,0,0,0,0,0,0,0,0,0,-1,545,393,0,0
-672,631,0,0,0,0,0,0,0,0,0,-1,552,393,0,0
-665,631,0,0,0,0,0,0,0,0,0,-1,559,393,0,0
-658,631,0,0,0,0,0,0,0,0,0,-1,566,393,0,0
-651,631,0,0,0,0,0,0,0,0,0,-1,573,393,0,0
-644,631,0,0,0,0,0,0,0,0,0,-1,580,393,0,0
-637,631,0,0,0,0,0,0,0,0,0,-1,587,393,0,0
-630,631,0,0,0,0,0,0,0,0,0,-1,594,393,0,0
-623,631,0,0,0,0,0,0,0,0,0,-1,601,393,0,0
-616,631,0,0,0,0,0,0,0,0,0,-1,608,393,0,0
-609,631,0,0,0,0,0,0,0,0,0,-1,615,393,0,0
-602,631,0,0,0,0,0,0,0,0,0,-1,622,393,0,0
-595,631,0,0,0,0,0,0,0,0,0,-1,629,393,0,0
-588,631,0,0,0,0,0,0,0,0,0,-1,636,393,0,0
-581,631,0,0,0,0,0,0,0,0,0,-1,643,393,0,0
-574,631,0,0,0,0,0,0,0,0,0,-1,650,393,0,0
-567,631,0,0,0,0,0,0,0,0,0,-1,657,393,0,0
-560,631,0,0,0,0,0,0,0,0,0,-1,664,393,0,0
-553,631,0,0,0,0,0,0,0,0,0,-1,671,393,0,0
-546,631,0,0,0,0,0,0,0,0,0,-1,678,393,0,0
-539,631,0,0,0,0,0,0,0,0,0,-1,685,393,0,0
-532,631,0,0,0,0,0,0,0,0,0,-1,692,393,0,0
-525,631,0,0,0,0,0,0,0,0,0,-1,699,393,0,0
-518,631,0,0,0,0,0,0,0,0,0,-1,706,393,0,0
-511,631,0,0,0,0,0,0,0,0,0,-1,713,393,0,0
-504,631,0,0,0,0,0,0,0,0,0,-1,720,393,0,0
-497,631,0,0,0,0,0,0,0,0,0,-1,727,393,0,0
-490,631,0,0,0,0,0,0,0,0,0,-1,734,393,0,0
-483,631,0,0,0,0,0,0,0,0,0,-1,741,393,0,0
-476,631,0,0,0,0,0,0,0,0,0,-1,748,393,0,0
-469,631,0,0,0,0,0,0,0,0,0,-1,755,393,0,0
-462,631,0,0,0,0,0,0,0,0,0,-1,762,393,0,0
-455,631,0,0,0,0,0,0,0,0,0,-1,769,393,0,0
-448,631,0,0,0,0,0,0,0,0,0,-1,776,393,0,0
-441,631,0,0,0,0,0,0,0,0,0,-1,783,393,0,0
-434,631,0,0,0,0,0,0,0,0,0,-1,790,393,0,0
-427,631,0,0,0,0,0,0,0,0,0,-1,797,393,0,0
-420,631,0,0,0,0,0,0,0,0,0,-1,804,393,0,0
-413,631,0,0,0,0,0,0,0,0,0,-1,811,393,0,0
-406,631,0,0,0,0,0,0,0,0,0,-1,818,393,0,0
-399,631,0,0,0,0,0,0,0,0,0,-1,825,393,0,0
-392,631,0,0,0,0,0,0,0,0,0,-1,832,393,0,0
-385,631,0,0,0,0,0,0,0,0,0,-1,839,393,0,0
-378,631,0,0,0,0,0,0,0,0,0,-1,846,393,0,0
-371,631,0,0,0,0,0,0,0,0,0,-1,853,393,0,0
-364,631,0,0,0,0,0,0,0,0,0,-1,860,393,0,0
-357,631,0,0,0,0,0,0,0,0,0,-1,867,393,0,0
-350,631,0,0,0,0,0,0,0,0,0,-1,874,393,0,0
-343,631,0,0,0,0,0,0,0,0,0,-1,881,393,0,0
-336,631,0,0,0,0,0,0,0,0,0,-1,888,393,0,0
-329,631,0,0,0,0,0,0,0,0,0,-1,895,393,0,0
-322,631,0,0,0,0,0,0,0,0,0,-1,902,393,0,0
-315,631,0,0,0,0,0,0,0,0,0,-1,909,393,0,0
-308,631,0,0,0,0,0,0,0,0,0,-1,916,393,0,0
-301,631,0,0,0,0,0,0,0,0,0,-1,923,393,0,0
-294,631,0,0,0,0,0,0,0,0,0,-1,930,393,0,0
-287,631,0,0,0,0,0,0,0,0,0,-1,937,393,0,0
-280,631,6.36176,-30.1803,0,0,0,0,0,0,0,-1,944,393,6.36176,30.1803
-273,631,6.90314,-30.164,0,0,0,0,0,0,0,-1,951,393,6.90311,30.164
-266,631,7.0769,-30.7342,0,0,0,0,0,0,0,-1,958,393,7.07692,30.7342
-259,631,7.37976,-31.3754,0,0,0,0,0,0,0,-1,965,393,7.37977,31.3754
-252,631,10.028,-29.6031,0,0,0,0,0,0,0,-1,972,393,10.028,29.6031
-245,631,4.03546,-32.3832,0,0,0,0,0,0,0,-1,979,393,4.03548,32.3832
-238,631,3.82007,-31.4595,0,0,0,0,0,0,0,-1,986,393,3.82005,31.4595
-231,631,2.14966,-25.2306,0,0,0,0,0,0,0,-1,993,393,2.14968,25.2306
-224,631,6.83575,-19.7909,0,0,0,0,0,0,0,-1,1000,393,6.83575,19.7909
-217,631,5.05188,-18.3867,0,0,0,0,0,0,0,-1,1007,393,5.0519,18.3866
-210,631,3.37842,-26.3769,0,0,0,0,0,0,0,-1,1014,393,3.37839,26.3769
-203,631,5.05298,-26.4169,0,0,0,0,0,0,0,-1,1021,393,5.05302,26.4169
-196,631,5.86462,-31.6705,0,0,0,0,0,0,0,-1,1028,393,5.8646,31.6705
-189,631,5.70605,-31.8275,0,0,0,0,0,0,0,-1,1035,393,5.70607,31.8275
-182,631,5.56982,-32.8688,0,0,0,0,0,0,0,-1,1042,393,5.56977,32.8688
-175,631,5.60803,-33.4829,-0.00210336,0.0149916,-0.00646059,0.0171585,-0.0042703,-1.24718,0.0130966,0.0463966,1049,393,5.60804,33.483
-168,631,5.55762,-34.0674,-0.00227845,0.0129955,-0.00520099,0.0145983,-0.00388126,-1.27186,0.0112514,0.0224461,1056,393,5.55766,34.0674
-161,631,5.50623,-34.5475,-0.00235574,0.0115211,-0.0041129,0.0126486,-0.00348315,-1.30325,0.00980193,0.0128349,1063,393,5.50628,34.5475
-154,631,5.46155,-34.9717,-0.00243663,0.0108447,-0.00326111,0.0116022,-0.00319416,-1.34255,0.0089907,0.0128328,1070,393,5.46152,34.9717
-147,631,5.42615,-35.3591,-0.00250942,0.0103468,-0.00268049,0.0108833,-0.00304591,-1.37326,0.00845572,0.0128096,1077,393,5.42615,35.3591
-140,631,5.40271,-35.7382,-0.00245648,0.00983696,-0.00236954,0.0102779,-0.00289739,-1.38683,0.00799468,0.0106101,1084,393,5.40274,35.7382
-133,631,5.36938,-36.1181,-0.00240643,0.00950274,-0.00215531,0.0098808,-0.0027845,-1.39715,0.00768539,0.00871111,1091,393,5.36938,36.1181
-126,631,5.33997,-36.4783,-0.00237239,0.00925242,-0.00194582,0.00956947,-0.00268945,-1.40928,0.00743997,0.0127165,1098,393,5.33995,36.4783
-119,631,5.31531,-36.8274,-0.00235471,0.00908351,-0.00161778,0.00930792,-0.00257912,-1.43296,0.0072202,0.0157539,1105,393,5.31534,36.8274
-112,631,5.3175,-37.1819,-0.00222153,0.00872351,-0.00155364,0.00893978,-0.0024378,-1.43249,0.00691716,0.0155973,1112,393,5.31748,37.1819
-105,631,5.31787,-37.5222,-0.00202795,0.00813233,-0.00158571,0.00837406,-0.00226968,-1.41952,0.00647329,0.0209265,1119,393,5.31781,37.5222
-98,631,5.27026,-37.84,-0.00178852,0.00733684,-0.00170884,0.00764634,-0.00209803,-1.39162,0.00592211,0.0175032,1126,393,5.27021,37.84
-91,631,5.23279,-38.1525,-0.00161065,0.00624884,-0.00165981,0.00658499,-0.0019468,-1.37098,0.00516277,0.0186529,1133,393,5.23276,38.1525
-84,631,5.21533,-38.4751,-0.0014486,0.0048636,-0.00134084,0.00513662,-0.00172162,-1.36993,0.00411998,0.0177305,1140,393,5.21529,38.4751
-77,631,5.17139,-38.7742,-0.00126049,0.00394406,-0.00106194,0.0041524,-0.00146883,-1.37707,0.00336644,0.0119992,1147,393,5.17138,38.7742
-70,631,5.17322,-39.0267,-0.00115634,0.00303591,-0.000758523,0.00316893,-0.00128936,-1.39719,0.00264915,0.0126897,1154,393,5.17323,39.0267
-63,631,5.17566,-39.2924,-0.000980269,0.00274578,-0.000565584,0.00282974,-0.00106423,-1.42343,0.00232394,0.0132831,1161,393,5.17565,39.2925
-56,631,5.15479,-39.5665,-0.000714293,0.00249763,-0.000391728,0.00254471,-0.000761379,-1.45117,0.00199919,0.0144478,1168,393,5.1548,39.5665
-49,631,5.14612,-39.775,-0.00047172,0.00202115,-0.000173431,0.00203315,-0.000483728,-1.50167,0.00154218,0.0112256,1175,393,5.14616,39.775
-42,631,5.13525,-39.9953,-0.000198564,0.00181575,0.000131606,0.00182431,-0.000207126,1.50583,0.0012908,0.00911673,1182,393,5.13531,39.9953
-35,631,5.12402,-40.2107,3.84783e-05,0.00149675,0.000359857,0.00158071,-4.54889e-05,1.34156,0.0010693,0.0107259,1189,393,5.12406,40.2107
-28,631,5.13599,-40.3936,0.00031495,0.00100067,0.000532464,0.00129111,2.45093e-05,1.07144,0.00085269,0.0140887,1196,393,5.13595,40.3936
-21,631,5.12268,-40.5841,0.000651932,0.000375825,0.000609405,0.00113873,-0.000110968,0.674009,0.000798713,0.0118517,1203,393,5.12263,40.5841
-14,631,5.0946,-40.7737,0.000966067,-0.000350036,0.00064903,0.00123228,-0.000616253,0.389248,0.00108683,0.0138361,1210,393,5.09456,40.7737
-7,631,5.14771,-40.9467,0.00130553,-0.00111462,0.000562439,0.00142985,-0.00123894,0.217546,0.00154214,0.0219005,1217,393,5.14769,40.9467
0,631,5.15662,-41.067,0.00161317,-0.00181671,0.00036221,0.00165101,-0.00185454,0.104075,0.00202507,0.0252068,1224,393,5.15666,41.067
7,631,5.11279,-41.1449,0.0018376,-0.00250967,0.000162294,0.00184365,-0.00251572,0.0372632,0.00252684,0.0199802,1231,393,5.11275,41.1449
14,631,5.14368,-41.2835,0.00199398,-0.00304246,-3.2036e-05,0.00199418,-0.00304266,-0.00636051,0.00292895,0.0107064,1238,393,5.14362,41.2835
21,631,5.19263,-41.3835,0.00208972,-0.00339525,-0.00020139,0.00209711,-0.00340264,-0.0366508,0.00320496,0.0137656,1245,393,5.19261,41.3835
28,631,5.18762,-41.4379,0.00222011,-0.00354637,-0.000370677,0.00224384,-0.0035701,-0.0639307,0.00338567,0.015848,1252,393,5.18768,41.4379
35,631,5.22217,-41.4829,0.00212947,-0.00334088,-0.00042395,0.00216213,-0.00337354,-0.0768878,0.00322143,0.0151273,1259,393,5.22218,41.4829
42,631,5.27441,-41.5247,0.00187517,-0.0029288,-0.000361919,0.00190228,-0.00295592,-0.074775,0.00282679,0.0130434,1266,393,5.27446,41.5247
49,631,5.28406,-41.5814,0.00162944,-0.00235583,-0.000321544,0.00165522,-0.00238161,-0.0799936,0.00234321,0.0116821,1273,393,5.28408,41.5814
56,631,5.29163,-41.6239,0.00138408,-0.00171433,-0.000373162,0.00142839,-0.00175864,-0.118185,0.00184332,0.0138515,1280,393,5.29165,41.6239
63,631,5.26855,-41.647,0.000985722,-0.00100339,-0.000567631,0.00113631,-0.00115397,-0.259313,0.00132231,0.0161239,1287,393,5.26857,41.647
70,631,5.26208,-41.606,0.000569577,-0.000122109,-0.000881098,0.00117028,-0.000722808,-0.59838,0.0011031,0.0159329,1294,393,5.26203,41.606
77,631,5.27747,-41.5636,0.000248433,0.000448621,-0.00115691,0.00150976,-0.000812701,-0.82855,0.00136085,0.0160796,1301,393,5.27745,41.5636
84,631,5.32336,-41.5263,-9.89731e-05,0.000827872,-0.00156805,0.00199955,-0.00127065,-0.929079,0.00190361,0.0135944,1308,393,5.3234,41.5263
91,631,5.35034,-41.4447,-0.000490155,0.000687147,-0.00216854,0.00234551,-0.00214852,-0.91793,0.00259546,0.0159219,1315,393,5.35033,41.4447
98,631,5.36353,-41.3527,-0.000823737,0.000221892,-0.00259418,0.00234542,-0.00294726,-0.884833,0.00306231,0.0139806,1322,393,5.3635,41.3527
105,631,5.35876,-41.2674,-0.00101631,-0.000201781,-0.00291458,0.00233385,-0.00355194,-0.854815,0.00342234,0.0117639,1329,393,5.35876,41.2674
112,631,5.38635,-41.1727,-0.00112593,-0.000586458,-0.00324555,0.00240054,-0.00411293,-0.826858,0.00380363,0.011809,1336,393,5.38638,41.1727
119,631,5.40735,-41.07,-0.00115437,-0.00115636,-0.00341926,0.00226389,-0.00457462,-0.785253,0.00402265,0.0125914,1343,393,5.40731,41.07
126,631,5.39392,-40.9017,-0.00113256,-0.00156715,-0.00345202,0.00210899,-0.0048087,-0.753966,0.00409406,0.0173186,1350,393,5.39389,40.9017
133,631,5.39233,-40.752,-0.001148,-0.00174612,-0.00325121,0.00181787,-0.00471199,-0.739535,0.00389149,0.0185388,1357,393,5.39235,40.752
140,631,5.38098,-40.5965,-0.00102109,-0.00173197,-0.0028952,0.00154042,-0.00429347,-0.72432,0.00349097,0.0186975,1364,393,5.38094,40.5965
147,631,5.36414,-40.3905,-0.000824147,-0.00135896,-0.00243171,0.00135482,-0.00353792,-0.730635,0.00291705,0.0214054,1371,393,5.36418,40.3905
154,631,5.396,-40.165,-0.000599469,-0.000656439,-0.00181343,0.00118569,-0.0024416,-0.777545,0.00213565,0.0212581,1378,393,5.39598,40.165
161,631,5.47522,-39.9189,-0.000382023,0.000316118,-0.00115226,0.00117102,-0.00123692,-0.932476,0.0013904,0.0236672,1385,393,5.47525,39.9188
168,631,5.48291,-39.6584,-0.000230578,0.00127297,-0.000582251,0.00147208,-0.000429687,-1.2413,0.00115165,0.0289421,1392,393,5.48294,39.6583
175,631,5.453,-39.5105,-0.000156462,0.00219789,-0.000102579,0.00220235,-0.000160923,-1.52734,0.00152471,0.0223111,1399,393,5.45303,39.5105
182,631,5.41528,-39.2915,-0.000150732,0.00312563,0.000245235,0.00314389,-0.000168986,1.4965,0.00215446,0.0115746,1406,393,5.4153,39.2915
189,631,5.40344,-39.0023,-0.000166237,0.00385653,0.000625481,0.00395154,-0.000261246,1.42005,0.00272562,0.0106617,1413,393,5.40346,39.0023
196,631,5.38147,-38.7281,-0.000250228,0.0043644,0.00115641,0.00463797,-0.000523801,1.3385,0.00328055,0.0119443,1420,393,5.38147,38.7281
203,631,5.38062,-38.4391,-0.000453371,0.0049138,0.00149187,0.00530061,-0.000840176,1.31711,0.00384452,0.0138542,1427,393,5.38056,38.4392
210,631,5.37036,-38.139,-0.000760688,0.00523527,0.00175448,0.00571092,-0.00123633,1.30606,0.00427934,0.0163568,1434,393,5.37037,38.139
217,631,5.35266,-37.8442,-0.000815767,0.00589194,0.00185225,0.00636942,-0.00129325,1.3185,0.00473659,0.0183371,1441,393,5.35262,37.8442
224,631,5.33655,-37.4867,-0.00069437,0.00670677,0.00206528,0.00724408,-0.00123167,1.31628,0.00528798,0.0143357,1448,393,5.33652,37.4867
231,631,5.29602,-37.1344,-0.000353384,0.00743736,0.00245733,0.00814768,-0.0010637,1.2894,0.00581885,0.0113142,1455,393,5.29603,37.1344
238,631,5.26721,-36.7536,0.000103923,0.00853449,0.00312797,0.00956829,-0.000929869,1.2516,0.00671032,0.0170214,1462,393,5.26719,36.7536
245,631,5.24146,-36.3699,0.000423202,0.00954693,0.00358141,0.0107848,-0.000814686,1.23801,0.00747625,0.0187863,1469,393,5.24143,36.3699
252,631,5.21802,-36.0128,0.000904865,0.0106391,0.00415043,0.0121685,-0.000624491,1.21775,0.00832827,0.0185022,1476,393,5.21799,36.0128
259,631,5.17175,-35.6233,0.00158309,0.0102118,0.00151643,0.0104706,0.00132434,1.4018,0.00658348,0.0133641,1483,393,5.17172,35.6233
266,631,5.14905,-35.2213,0.00252373,0.0105588,-0.00285751,0.0114714,0.00161116,-1.26168,0.00717114,0.0117598,1490,393,5.14902,35.2213
273,631,5.13855,-34.8075,0.00331789,0.0121096,-0.00985259,0.0185025,-0.00307501,-0.995226,0.0134774,0.0139618,1497,393,5.13858,34.8075
280,631,5.12024,-34.3635,0.0038138,0.0140547,-0.0191809,0.0287869,-0.0109183,-0.915835,0.023685,0.0136986,1504,393,5.12027,34.3635
287,631,5.10388,-33.8805,0.0044582,0.0154444,-0.0279576,0.0384435,-0.0185409,-0.882402,0.0335621,0.0159566,1511,393,5.10386,33.8805
294,631,5.00195,-33.3969,0.00496556,0.0171416,-0.03847,0.0500024,-0.0278952,-0.863874,0.0455739,0.0193146,1518,393,5.00199,33.3969
301,631,4.92041,-32.8866,0.00528875,0.0191949,-0.0501544,0.0628759,-0.0383922,-0.854276,0.059034,0.0282726,1525,393,4.92039,32.8866
308,631,5.16199,-32.2231,0.00546525,0.0216456,-0.0628918,0.0769655,-0.0498546,-0.849365,0.0737752,0.0373257,1532,393,5.16196,32.2231
315,631,5.30371,-31.6874,0.0054261,0.0246889,-0.0754453,0.0911151,-0.0610001,-0.848885,0.0883956,0.0467195,1539,393,5.30377,31.6874
322,631,4.0752,-31.4358,0,0,0,0,0,0,0,-1,1546,393,4.07517,31.4358
329,631,4.3385,-30.8421,0,0,0,0,0,0,0,-1,1553,393,4.33853,30.8421
336,631,4.63135,-30.2152,0,0,0,0,0,0,0,-1,1560,393,4.63132,30.2152
343,631,4.90247,-29.5851,0,0,0,0,0,0,0,-1,1567,393,4.90251,29.5851
350,631,2.1344,-9.23401,0,0,0,0,0,0,0,-1,1574,393,2.13439,9.23401
357,631,2.6449,-9.60303,0,0,0,0,0,0,0,-1,1581,393,2.64491,9.60304
364,631,3.39136,-5.7594,0,0,0,0,0,0,0,-1,1588,393,3.39137,5.75939
371,631,3.72839,-6.0574,0,0,0,0,0,0,0,-1,1595,393,3.72845,6.05742
378,631,4.06555,-6.35544,0,0,0,0,0,0,0,-1,1602,393,4.06553,6.35544
385,631,3.90442,-3.58298,0,0,0,0,0,0,0,-1,1609,393,3.90437,3.58299
392,631,0.352295,-2.21301,0,0,0,0,0,0,0,-1,1616,393,0.352345,2.213
399,631,0,0,0,0,0,0,0,0,0,-1,1623,393,0,0
406,631,0,0,0,0,0,0,0,0,0,-1,1630,393,0,0
413,631,0,0,0,0,0,0,0,0,0,-1,1637,393,0,0
420,631,0,0,0,0,0,0,0,0,0,-1,1644,393,0,0
427,631,0,0,0,0,0,0,0,0,0,-1,1651,393,0,0
434,631,0,0,0,0,0,0,0,0,0,-1,1658,393,0,0
441,631,0,0,0,0,0,0,0,0,0,-1,1665,393,0,0
448,631,0,0,0,0,0,0,0,0,0,-1,1672,393,0,0
455,631,0,0,0,0,0,0,0,0,0,-1,1679,393,0,0
462,631,0,0,0,0,0,0,0,0,0,-1,1686,393,0,0
469,631,0,0,0,0,0,0,0,0,0,-1,1693,393,0,0
476,631,0,0,0,0,0,0,0,0,0,-1,1700,393,0,0
483,631,0,0,0,0,0,0,0,0,0,-1,1707,393,0,0
490,631,0,0,0,0,0,0,0,0,0,-1,1714,393,0,0
497,631,0,0,0,0,0,0,0,0,0,-1,1721,393,0,0
504,631,0,0,0,0,0,0,0,0,0,-1,1728,393,0,0
511,631,0,0,0,0,0,0,0,0,0,-1,1735,393,0,0
518,631,0,0,0,0,0,0,0,0,0,-1,1742,393,0,0
525,631,0,0,0,0,0,0,0,0,0,-1,1749,393,0,0
532,631,0,0,0,0,0,0,0,0,0,-1,1756,393,0,0
539,631,0,0,0,0,0,0,0,0,0,-1,1763,393,0,0
546,631,0,0,0,0,0,0,0,0,0,-1,1770,393,0,0
553,631,0,0,0,0,0,0,0,0,0,-1,1777,393,0,0
560,631,0,0,0,0,0,0,0,0,0,-1,1784,393,0,0
567,631,0,0,0,0,0,0,0,0,0,-1,1791,393,0,0
574,631,0,0,0,0,0,0,0,0,0,-1,1798,393,0,0
581,631,0,0,0,0,0,0,0,0,0,-1,1805,393,0,0
588,631,0,0,0,0,0,0,0,0,0,-1,1812,393,0,0
595,631,0,0,0,0,0,0,0,0,0,-1,1819,393,0,0
602,631,0,0,0,0,0,0,0,0,0,-1,1826,393,0,0
609,631,0,0,0,0,0,0,0,0,0,-1,1833,393,0,0
616,631,0,0,0,0,0,0,0,0,0,-1,1840,393,0,0
623,631,0,0,0,0,0,0,0,0,0,-1,1847,393,0,0
630,631,0,0,0,0,0,0,0,0,0,-1,1854,393,0,0
637,631,0,0,0,0,0,0,0,0,0,-1,1861,393,0,0
644,631,0,0,0,0,0,0,0,0,0,-1,1868,393,0,0
651,631,0,0,0,0,0,0,0,0,0,-1,1875,393,0,0
658,631,0,0,0,0,0,0,0,0,0,-1,1882,393,0,0
665,631,0,0,0,0,0,0,0,0,0,-1,1889,393,0,0
672,631,0,0,0,0,0,0,0,0,0,-1,1896,393,0,0
679,631,0,0,0,0,0,0,0,0,0,-1,1903,393,0,0
686,631,0,0,0,0,0,0,0,0,0,-1,1910,393,0,0
693,631,0,0,0,0,0,0,0,0,0,-1,1917,393,0,0
700,631,0,0,0,0,0,0,0,0,0,-1,1924,393,0,0
707,631,0,0,0,0,0,0,0,0,0,-1,1931,393,0,0
714,631,0,0,0,0,0,0,0,0,0,-1,1938,393,0,0
721,631,0,0,0,0,0,0,0,0,0,-1,1945,393,0,0
728,631,0,0,0,0,0,0,0,0,0,-1,1952,393,0,0
735,631,0,0,0,0,0,0,0,0,0,-1,1959,393,0,0
742,631,0,0,0,0,0,0,0,0,0,-1,1966,393,0,0
749,631,0,0,0,0,0,0,0,0,0,-1,1973,393,0,0
756,631,0,0,0,0,0,0,0,0,0,-1,1980,393,0,0
763,631,0,0,0,0,0,0,0,0,0,-1,1987,393,0,0
770,631,0,0,0,0,0,0,0,0,0,-1,1994,393,0,0
777,631,0,0,0,0,0,0,0,0,0,-1,2001,393,0,0
784,631,0,0,0,0,0,0,0,0,0,-1,2008,393,0,0
791,631,0,0,0,0,0,0,0,0,0,-1,2015,393,0,0
798,631,0,0,0,0,0,0,0,0,0,-1,2022,393,0,0
805,631,0,0,0,0,0,0,0,0,0,-1,2029,393,0,0
812,631,0,0,0,0,0,0,0,0,0,-1,2036,393,0,0
-700,624,0,0,0,0,0,0,0,0,0,-1,524,400,0,0
-693,624,0,0,0,0,0,0,0,0,0,-1,531,400,0,0
-686,624,0,0,0,0,0,0,0,0,0,-1,538,400,0,0
-679,624,0,0,0,0,0,0,0,0,0,-1,545,400,0,0
-672,624,0,0,0,0,0,0,0,0,0,-1,552,400,0,0
-665,624,0,0,0,0,0,0,0,0,0,-1,559,400,0,0
-658,624,0,0,0,0,0,0,0,0,0,-1,566,400,0,0
-651,624,0,0,0,0,0,0,0,0,0,-1,573,400,0,0
-644,624,0,0,0,0,0,0,0,0,0,-1,580,400,0,0
-637,624,0,0,0,0,0,0,0,0,0,-1,587,400,0,0
-630,624,0,0,0,0,0,0,0,0,0,-1,594,400,0,0
-623,624,0,0,0,0,0,0,0,0,0,-1,601,400,0,0
-616,624,0,0,0,0,0,0,0,0,0,-1,608,400,0,0
-609,624,0,0,0,0,0,0,0,0,0,-1,615,400,0,0
-602,624,0,0,0,0,0,0,0,0,0,-1,622,400,0,0
-595,624,0,0,0,0,0,0,0,0,0,-1,629,400,0,0
-588,624,0,0,0,0,0,0,0,0,0,-1,636,400,0,0
-581,624,0,0,0,0,0,0,0,0,0,-1,643,400,0,0
-574,624,0,0,0,0,0,0,0,0,0,-1,650,400,0,0
-567,624,0,0,0,0,0,0,0,0,0,-1,657,400,0,0
-560,624,0,0,0,0,0,0,0,0,0,-1,664,400,0,0
-553,624,0,0,0,0,0,0,0,0,0,-1,671,400,0,0
-546,624,0,0,0,0,0,0,0,0,0,-1,678,400,0,0
-539,624,0,0,0,0,0,0,0,0,0,-1,685,400,0,0
-532,624,0,0,0,0,0,0,0,0,0,-1,692,400,0,0
-525,624,0,0,0,0,0,0,0,0,0,-1,699,400,0,0
-518,624,0,0,0,0,0,0,0,0,0,-1,706,400,0,0
-511,624,0,0,0,0,0,0,0,0,0,-1,713,400,0,0
-504,624,0,0,0,0,0,0,0,0,0,-1,720,400,0,0
-497,624,0,0,0,0,0,0,0,0,0,-1,727,400,0,0
-490,624,0,0,0,0,0,0,0,0,0,-1,734,400,0,0
-483,624,0,0,0,0,0,0,0,0,0,-1,741,400,0,0
-476,624,0,0,0,0,0,0,0,0,0,-1,748,400,0,0
-469,624,0,0,0,0,0,0,0,0,0,-1,755,400,0,0
-462,624,0,0,0,0,0,0,0,0,0,-1,762,400,0,0
-455,624,0,0,0,0,0,0,0,0,0,-1,769,400,0,0
-448,624,0,0,0,0,0,0,0,0,0,-1,776,400,0,0
-441,624,0,0,0,0,0,0,0,0,0,-1,783,400,0,0
-434,624,0,0,0,0,0,0,0,0,0,-1,790,400,0,0
-427,624,0,0,0,0,0,0,0,0,0,-1,797,400,0,0
-420,624,0,0,0,0,0,0,0,0,0,-1,804,400,0,0
-413,624,0,0,0,0,0,0,0,0,0,-1,811,400,0,0
-406,624,0,0,0,0,0,0,0,0,0,-1,818,400,0,0
-399,624,0,0,0,0,0,0,0,0,0,-1,825,400,0,0
-392,624,0,0,0,0,0,0,0,0,0,-1,832,400,0,0
-385,624,0,0,0,0,0,0,0,0,0,-1,839,400,0,0
-378,624,0,0,0,0,0,0,0,0,0,-1,846,400,0,0
-371,624,0,0,0,0,0,0,0,0,0,-1,853,400,0,0
-364,624,0,0,0,0,0,0,0,0,0,-1,860,400,0,0
-357,624,0,0,0,0,0,0,0,0,0,-1,867,400,0,0
-350,624,0,0,0,0,0,0,0,0,0,-1,874,400,0,0
-343,624,0,0,0,0,0,0,0,0,0,-1,881,400,0,0
-336,624,0,0,0,0,0,0,0,0,0,-1,888,400,0,0
-329,624,0,0,0,0,0,0,0,0,0,-1,895,400,0,0
-322,624,0,0,0,0,0,0,0,0,0,-1,902,400,0,0
-315,624,0,0,0,0,0,0,0,0,0,-1,909,400,0,0
-308,624,0,0,0,0,0,0,0,0,0,-1,916,400,0,0
-301,624,0,0,0,0,0,0,0,0,0,-1,923,400,0,0
-294,624,5.3858,-27.8827,0,0,0,0,0,0,0,-1,930,400,5.38582,27.8827
-287,624,5.18011,-28.3315,0,0,0,0,0,0,0,-1,937,400,5.18009,28.3315
-280,624,5.47681,-28.4916,0,0,0,0,0,0,0,-1,944,400,5.47681,28.4916
-273,624,5.85431,-28.7075,0,0,0,0,0,0,0,-1,951,400,5.8543,28.7075
-266,624,6.07153,-29.3421,0,0,0,0,0,0,0,-1,958,400,6.07155,29.3421
-259,624,6.3399,-29.9514,0,0,0,0,0,0,0,-1,965,400,6.33989,29.9514
-252,624,3.99158,-32.007,0,0,0,0,0,0,0,-1,972,400,3.99157,32.0071
-245,624,3.98663,-31.2989,0,0,0,0,0,0,0,-1,979,400,3.98662,31.2989
-238,624,3.95471,-30.4832,0,0,0,0,0,0,0,-1,986,400,3.95468,30.4832
-231,624,3.86121,-29.6032,0,0,0,0,0,0,0,-1,993,400,3.86122,29.6032
-224,624,4.59351,-27.4048,0,0,0,0,0,0,0,-1,1000,400,4.59353,27.4048
-217,624,5.71564,-30.4414,0,0,0,0,0,0,0,-1,1007,400,5.71563,30.4414
-210,624,5.4538,-31.3432,0,0,0,0,0,0,0,-1,1014,400,5.45378,31.3432
-203,624,5.46143,-31.5725,0,0,0,0,0,0,0,-1,1021,400,5.4614,31.5725
-196,624,5.38354,-32.0008,-0.00197032,0.0215604,-0.00897322,0.0245918,-0.00500166,-1.24501,0.0182911,0.0459123,1028,400,5.3836,32.0008
-189,624,5.26306,-32.3452,-0.00187492,0.0185179,-0.00793379,0.0212409,-0.00459795,-1.24018,0.0159162,0.0421643,1035,400,5.26304,32.3452
-182,624,5.23657,-32.9344,-0.00179643,0.0156094,-0.00675367,0.0179225,-0.00410954,-1.24082,0.0135279,0.0358742,1042,400,5.23658,32.9344
-175,624,5.27869,-33.6341,-0.00184453,0.0132011,-0.00558342,0.0150467,-0.00369013,-1.25155,0.011461,0.0252878,1049,400,5.27868,33.6341
-168,624,5.19177,-34.1212,-0.00189058,0.0113647,-0.00457437,0.01279,-0.00331592,-1.26874,0.0098204,0.0135699,1056,400,5.19182,34.1212
-161,624,5.14575,-34.5769,-0.00186764,0.00985897,-0.00366377,0.0109095,-0.0029182,-1.29155,0.00841612,0.0106394,1063,400,5.14581,34.5769
-154,624,5.1095,-34.9687,-0.00182882,0.00891295,-0.00291841,0.00965464,-0.00257051,-1.32192,0.00744272,0.0104516,1070,400,5.10948,34.9687
-147,624,5.0813,-35.3626,-0.00179184,0.00807232,-0.00236015,0.00860794,-0.00232746,-1.34763,0.00665159,0.011725,1077,400,5.08126,35.3626
-140,624,5.04407,-35.7499,-0.00165483,0.00720797,-0.00201724,0.00764551,-0.00209237,-1.35721,0.00591905,0.0103491,1084,400,5.04404,35.7499
-133,624,5.01746,-36.1288,-0.00151757,0.00652589,-0.00175255,0.00689116,-0.00188284,-1.36532,0.00533367,0.0111726,1091,400,5.01745,36.1288
-126,624,4.97839,-36.4771,-0.00139245,0.00602812,-0.00151145,0.00632417,-0.0016885,-1.37738,0.00487736,0.0133327,1098,400,4.97838,36.4771
-119,624,4.95361,-36.8404,-0.00125415,0.00568669,-0.00121202,0.00589225,-0.00145971,-1.4028,0.00449445,0.0152922,1105,400,4.95366,36.8404
-112,624,4.95984,-37.1867,-0.00103835,0.00523966,-0.00112179,0.00543408,-0.00123277,-1.39918,0.00409596,0.0182967,1112,400,4.95987,37.1867
-105,624,4.99329,-37.5208,-0.000788608,0.00465762,-0.00111503,0.00487706,-0.00100805,-1.37648,0.00363429,0.0140604,1119,400,4.99333,37.5207
-98,624,4.95142,-37.8336,-0.000505422,0.00393339,-0.00114836,0.00421288,-0.000784913,-1.33205,0.00310349,0.0139661,1126,400,4.95144,37.8336
-91,624,4.94397,-38.1494,-0.000265316,0.00308665,-0.00105763,0.00339245,-0.000571124,-1.28933,0.00247408,0.0207458,1133,400,4.94395,38.1494
-84,624,4.98608,-38.4853,-2.28687e-05,0.00215033,-0.000810737,0.00241945,-0.000291995,-1.25029,0.00171859,0.0198112,1140,400,4.98602,38.4853
-77,624,4.94116,-38.7837,0.000250182,0.00158854,-0.000606534,0.00182251,1.62082e-05,-1.20263,0.00120964,0.0140673,1147,400,4.94121,38.7837
-70,624,4.94568,-39.0137,0.000512659,0.00113766,-0.000408942,0.00133983,0.000310484,-1.11165,0.000809815,0.014719,1154,400,4.9457,39.0137
-63,624,4.96399,-39.2905,0.000754147,0.000848109,-0.000175914,0.000983208,0.000619048,-0.915887,0.000573978,0.0168987,1161,400,4.96397,39.2905
-56,624,4.92786,-39.5524,0.000983805,0.000483705,0.00014172,0.00102117,0.000446336,0.257813,0.000591129,0.0141548,1168,400,4.92786,39.5524
-49,624,4.93274,-39.7962,0.00110644,-0.000310546,0.000502367,0.00126647,-0.000470577,0.308392,0.00103738,0.0107923,1175,400,4.93278,39.7962
-42,624,4.93481,-40.001,0.00122953,-0.000989979,0.000892364,0.00154381,-0.00130426,0.33862,0.00164627,0.00979729,1182,400,4.93484,40.001
-35,624,4.93359,-40.2072,0.00139572,-0.00180815,0.00123311,0.00181536,-0.00222779,0.328015,0.00233836,0.015533,1189,400,4.93365,40.2072
-28,624,4.94116,-40.4272,0.00165972,-0.00284945,0.00140825,0.00206339,-0.00325312,0.279161,0.003095,0.0198685,1196,400,4.94122,40.4272
-21,624,4.96033,-40.5872,0.00201947,-0.00397273,0.00135747,0.00231264,-0.00426591,0.212706,0.00385353,0.0138571,1203,400,4.96031,40.5872
-14,624,4.94775,-40.7523,0.00236131,-0.00514194,0.00129044,0.00257704,-0.00535767,0.165646,0.00467394,0.0148496,1210,400,4.94781,40.7523
-7,624,4.99536,-40.8882,0.0028233,-0.00630692,0.00100041,0.00293163,-0.00641525,0.107866,0.00551994,0.0191307,1217,400,4.9954,40.8883
0,624,5.04126,-41.0263,0.00329218,-0.00729266,0.000488392,0.00331466,-0.00731514,0.0460104,0.00628032,0.0201993,1224,400,5.04121,41.0263
7,624,5.01599,-41.1642,0.0036946,-0.00842316,-4.2836e-05,0.00369475,-0.00842331,-0.00353492,0.00717171,0.0152088,1231,400,5.016,41.1642
14,624,5.06628,-41.3161,0.00406545,-0.00931839,-0.000533468,0.00408668,-0.00933962,-0.039775,0.00794698,0.011832,1238,400,5.06623,41.3161
21,624,5.09741,-41.3793,0.00438473,-0.0100221,-0.00101177,0.00445543,-0.0100929,-0.0697721,0.0086071,0.0135265,1245,400,5.0974,41.3793
28,624,5.09583,-41.4341,0.00472802,-0.0104932,-0.00146485,0.00486771,-0.0106329,-0.095075,0.00915326,0.0131512,1252,400,5.09581,41.4341
35,624,5.13989,-41.4849,0.00466012,-0.0105425,-0.00169557,0.00484693,-0.0107293,-0.109735,0.00920421,0.01604,1259,400,5.13994,41.4849
42,624,5.19641,-41.5351,0.00434277,-0.0102754,-0.00178221,0.00455691,-0.0104895,-0.119584,0.00890929,0.0176076,1266,400,5.19641,41.5351
49,624,5.22937,-41.5702,0.00403653,-0.00984199,-0.00196297,0.00430883,-0.0101143,-0.137838,0.00854909,0.0195,1273,400,5.22932,41.5702
56,624,5.28357,-41.6068,0.00368158,-0.00936532,-0.0022572,0.00406105,-0.00974479,-0.166559,0.00819288,0.0197796,1280,400,5.28354,41.6068
63,624,5.31628,-41.6185,0.00299425,-0.00876035,-0.00274235,0.00360257,-0.00936866,-0.218287,0.00773165,0.0153271,1287,400,5.3163,41.6185
70,624,5.29956,-41.6179,0.00218628,-0.00785465,-0.00343738,0.00325027,-0.00891864,-0.300183,0.00727536,0.0134172,1294,400,5.2996,41.6179
77,624,5.32434,-41.5666,0.00155715,-0.00741339,-0.00407167,0.00312961,-0.00898585,-0.36855,0.00726215,0.0147205,1301,400,5.32431,41.5666
84,624,5.37097,-41.5259,0.000963074,-0.0070394,-0.00472225,0.0031513,-0.00922763,-0.433931,0.00742844,0.0131333,1308,400,5.37092,41.5259
91,624,5.40833,-41.4447,0.000293341,-0.00752662,-0.00557133,0.00318981,-0.0104231,-0.479431,0.00822093,0.0129656,1315,400,5.40829,41.4447
98,624,5.43848,-41.3506,-0.000365875,-0.00834385,-0.00620038,0.00301784,-0.0117276,-0.499557,0.00899469,0.0133134,1322,400,5.43843,41.3507
105,624,5.46741,-41.2864,-0.000830485,-0.0090577,-0.0065759,0.00281247,-0.0127007,-0.505898,0.00954374,0.0147561,1329,400,5.46739,41.2864
112,624,5.49609,-41.2126,-0.00109225,-0.00954096,-0.00695948,0.00282462,-0.0134578,-0.512626,0.0100467,0.014259,1336,400,5.49604,41.2127
119,624,5.51794,-41.1422,-0.00120182,-0.010229,-0.007046,0.00265229,-0.0140831,-0.500532,0.0103864,0.014119,1343,400,5.51795,41.1422
126,624,5.50598,-40.9528,-0.00124371,-0.0106969,-0.00685032,0.0023524,-0.014293,-0.483412,0.0104019,0.016997,1350,400,5.50601,40.9528
133,624,5.55725,-40.7563,-0.0013388,-0.0108321,-0.00634666,0.00183989,-0.0140107,-0.464322,0.0100103,0.0181525,1357,400,5.55729,40.7563
140,624,5.57385,-40.5929,-0.00124113,-0.0107009,-0.00571592,0.00144811,-0.0133902,-0.439756,0.00944657,0.0173048,1364,400,5.5738,40.5929
147,624,5.55151,-40.3943,-0.00103731,-0.0101245,-0.00492142,0.0011172,-0.012279,-0.412647,0.00858268,0.0213242,1371,400,5.55153,40.3943
154,624,5.63123,-40.1949,-0.000854162,-0.00899016,-0.00389747,0.000711566,-0.0105559,-0.381996,0.00728604,0.0255712,1378,400,5.6312,40.1949
161,624,5.67419,-39.9692,-0.000644254,-0.00740196,-0.00286451,0.000406575,-0.00845279,-0.351601,0.00577549,0.0249827,1385,400,5.67419,39.9692
168,624,5.68225,-39.7335,-0.000310719,-0.00577303,-0.0019611,0.000320436,-0.00640419,-0.311368,0.00438018,0.024813,1392,400,5.68221,39.7335
175,624,5.70032,-39.5576,1.24682e-05,-0.00414723,-0.00115579,0.000312037,-0.0044468,-0.253608,0.00307383,0.018619,1399,400,5.70037,39.5576
182,624,5.6864,-39.3053,0.000168516,-0.00221795,-0.000679113,0.000348236,-0.00239767,-0.258709,0.00172627,0.0105383,1406,400,5.68635,39.3053
189,624,5.65613,-39.0181,0.000329211,-0.000686274,-0.000334906,0.000429716,-0.000786778,-0.291546,0.000712356,0.0107418,1413,400,5.65614,39.0181
196,624,5.64746,-38.7267,0.000580633,0.000987947,0.000106338,0.00101404,0.000554542,1.3302,0.000586312,0.0125215,1420,400,5.64741,38.7266
203,624,5.68506,-38.4189,0.000643769,0.00235526,0.000452372,0.00246748,0.000531558,1.32765,0.00149954,0.01427,1427,400,5.68511,38.4189
210,624,5.70789,-38.1234,0.000429052,0.00298354,0.000695547,0.00316064,0.000251944,1.32146,0.00202834,0.0180677,1434,400,5.70788,38.1234
217,624,5.67419,-37.8154,0.000202258,0.00366664,0.000895961,0.00388463,-1.5739e-05,1.33212,0.00259502,0.0219873,1441,400,5.67423,37.8154
224,624,5.65393,-37.493,0.000111713,0.00440676,0.00116427,0.00470206,-0.000183587,1.3224,0.00319766,0.0179439,1448,400,5.6539,37.4929
231,624,5.65063,-37.1623,0.000164953,0.00510371,0.00156882,0.00555992,-0.000291251,1.28781,0.00380741,0.0123989,1455,400,5.65069,37.1623
238,624,5.63049,-36.822,0.000365641,0.0060362,0.00213884,0.00675246,-0.000350622,1.24765,0.00462295,0.0167823,1462,400,5.63045,36.822
245,624,5.61096,-36.4558,0.000523042,0.00691728,0.00254123,0.00780421,-0.000363883,1.235,0.00532824,0.01786,1469,400,5.61095,36.4559
252,624,5.57751,-36.0432,0.00078581,0.00787809,0.0030283,0.00899518,-0.000331279,1.2174,0.00611021,0.0137269,1476,400,5.57754,36.0432
259,624,5.5564,-35.6521,0.00120888,0.00797547,0.00167766,0.00836858,0.000815775,1.34063,0.00532799,0.00959114,1483,400,5.55642,35.6521
266,624,5.54932,-35.2349,0.00184897,0.00850185,-0.000825935,0.00860285,0.00174797,-1.44911,0.00525048,0.0133502,1490,400,5.54934,35.2349
273,624,5.53076,-34.8169,0.00242947,0.00973939,-0.00514117,0.0123924,-0.000223524,-1.09441,0.0083371,0.0159468,1497,400,5.53073,34.8168
280,624,5.4856,-34.4247,0.00285066,0.0112711,-0.0111934,0.0190199,-0.0048981,-0.965281,0.0145893,0.0144217,1504,400,5.48556,34.4247
287,624,5.45239,-34.0059,0.0033785,0.0124755,-0.0169432,0.0254702,-0.00961615,-0.916534,0.0209351,0.0112525,1511,400,5.4524,34.0059
294,624,5.40295,-33.5538,0.00380103,0.0138705,-0.0240102,0.0333682,-0.0156966,-0.888747,0.0289335,0.00969437,1518,400,5.40298,33.5538
301,624,5.3728,-33.0604,0.00408477,0.0154635,-0.031949,0.0422257,-0.0226774,-0.873513,0.0380342,0.0116308,1525,400,5.37286,33.0604
308,624,5.38013,-32.5674,0.00427398,0.0173155,-0.0406234,0.0519381,-0.0303487,-0.864978,0.0480503,0.0160596,1532,400,5.38019,32.5674
315,624,5.40991,-32.1004,0.00429938,0.0195629,-0.0491336,0.0616539,-0.0377917,-0.862446,0.0579633,0.0211565,1539,400,5.40996,32.1004
322,624,5.37292,-31.6306,0.00407347,0.021858,-0.0577217,0.0713683,-0.0454369,-0.861824,0.0679892,0.0368084,1546,400,5.37296,31.6306
329,624,5.16626,-30.8677,0,0,0,0,0,0,0,-1,1553,400,5.16625,30.8677
336,624,5.29333,-30.397,0,0,0,0,0,0,0,-1,1560,400,5.29332,30.397
343,624,5.42041,-29.9262,0,0,0,0,0,0,0,-1,1567,400,5.4204,29.9262
350,624,1.99194,-7.29742,0,0,0,0,0,0,0,-1,1574,400,1.99198,7.29741
357,624,2.64075,-3.13092,0,0,0,0,0,0,0,-1,1581,400,2.64076,3.13091
364,624,3.16565,-4.9458,0,0,0,0,0,0,0,-1,1588,400,3.16564,4.94579
371,624,3.37561,-5.23529,0,0,0,0,0,0,0,-1,1595,400,3.37563,5.23529
378,624,1.50439,-5.22165,0,0,0,0,0,0,0,-1,1602,400,1.50438,5.22164
385,624,1.2301,-10.5866,0,0,0,0,0,0,0,-1,1609,400,1.2301,10.5866
392,624,4.26819,-5.14236,0,0,0,0,0,0,0,-1,1616,400,4.26818,5.14236
399,624,2.22168,-9.19293,0,0,0,0,0,0,0,-1,1623,400,2.22173,9.19294
406,624,2.68213,-9.91171,0,0,0,0,0,0,0,-1,1630,400,2.68213,9.91171
413,624,0,0,0,0,0,0,0,0,0,-1,1637,400,0,0
420,624,0,0,0,0,0,0,0,0,0,-1,1644,400,0,0
427,624,0,0,0,0,0,0,0,0,0,-1,1651,400,0,0
434,624,0,0,0,0,0,0,0,0,0,-1,1658,400,0,0
441,624,0,0,0,0,0,0,0,0,0,-1,1665,400,0,0
448,624,0,0,0,0,0,0,0,0,0,-1,1672,400,0,0
455,624,0,0,0,0,0,0,0,0,0,-1,1679,400,0,0
462,624,0,0,0,0,0,0,0,0,0,-1,1686,400,0,0
469,624,0,0,0,0,0,0,0,0,0,-1,1693,400,0,0
476,624,0,0,0,0,0,0,0,0,0,-1,1700,400,0,0
483,624,0,0,0,0,0,0,0,0,0,-1,1707,400,0,0
490,624,0,0,0,0,0,0,0,0,0,-1,1714,400,0,0
497,624,0,0,0,0,0,0,0,0,0,-1,1721,400,0,0
504,624,0,0,0,0,0,0,0,0,0,-1,1728,400,0,0
511,624,0,0,0,0,0,0,0,0,0,-1,1735,400,0,0
518,624,0,0,0,0,0,0,0,0,0,-1,1742,400,0,0
525,624,0,0,0,0,0,0,0,0,0,-1,1749,400,0,0
532,624,0,0,0,0,0,0,0,0,0,-1,1756,400,0,0
539,624,0,0,0,0,0,0,0,0,0,-1,1763,400,0,0
546,624,0,0,0,0,0,0,0,0,0,-1,1770,400,0,0
553,624,0,0,0,0,0,0,0,0,0,-1,1777,400,0,0
560,624,0,0,0,0,0,0,0,0,0,-1,1784,400,0,0
567,624,0,0,0,0,0,0,0,0,0,-1,1791,400,0,0
574,624,0,0,0,0,0,0,0,0,0,-1,1798,400,0,0
581,624,0,0,0,0,0,0,0,0,0,-1,1805,400,0,0
588,624,0,0,0,0,0,0,0,0,0,-1,1812,400,0,0
595,624,0,0,0,0,0,0,0,0,0,-1,1819,400,0,0
602,624,0,0,0,0,0,0,0,0,0,-1,1826,400,0,0
609,624,0,0,0,0,0,0,0,0,0,-1,1833,400,0,0
616,624,0,0,0,0,0,0,0,0,0,-1,1840,400,0,0
623,624,0,0,0,0,0,0,0,0,0,-1,1847,400,0,0
630,624,0,0,0,0,0,0,0,0,0,-1,1854,400,0,0
637,624,0,0,0,0,0,0,0,0,0,-1,1861,400,0,0
644,624,0,0,0,0,0,0,0,0,0,-1,1868,400,0,0
651,624,0,0,0,0,0,0,0,0,0,-1,1875,400,0,0
658,624,0,0,0,0,0,0,0,0,0,-1,1882,400,0,0
665,624,0,0,0,0,0,0,0,0,0,-1,1889,400,0,0
672,624,0,0,0,0,0,0,0,0,0,-1,1896,400,0,0
679,624,0,0,0,0,0,0,0,0,0,-1,1903,400,0,0
686,624,0,0,0,0,0,0,0,0,0,-1,1910,400,0,0
693,624,0,0,0,0,0,0,0,0,0,-1,1917,400,0,0
700,624,0,0,0,0,0,0,0,0,0,-1,1924,400,0,0
707,624,0,0,0,0,0,0,0,0,0,-1,1931,400,0,0
714,624,0,0,0,0,0,0,0,0,0,-1,1938,400,0,0
721,624,0,0,0,0,0,0,0,0,0,-1,1945,400,0,0
728,624,0,0,0,0,0,0,0,0,0,-1,1952,400,0,0
735,624,0,0,0,0,0,0,0,0,0,-1,1959,400,0,0
742,624,0,0,0,0,0,0,0,0,0,-1,1966,400,0,0
749,624,0,0,0,0,0,0,0,0,0,-1,1973,400,0,0
756,624,0,0,0,0,0,0,0,0,0,-1,1980,400,0,0
763,624,0,0,0,0,0,0,0,0,0,-1,1987,400,0,0
770,624,0,0,0,0,0,0,0,0,0,-1,1994,400,0,0
777,624,0,0,0,0,0,0,0,0,0,-1,2001,400,0,0
784,624,0,0,0,0,0,0,0,0,0,-1,2008,400,0,0
791,624,0,0,0,0,0,0,0,0,0,-1,2015,400,0,0
798,624,0,0,0,0,0,0,0,0,0,-1,2022,400,0,0
805,624,0,0,0,0,0,0,0,0,0,-1,2029,400,0,0
812,624,0,0,0,0,0,0,0,0,0,-1,2036,400,0,0
-700,617,0,0,0,0,0,0,0,0,0,-1,524,407,0,0
-693,617,0,0,0,0,0,0,0,0,0,-1,531,407,0,0
-686,617,0,0,0,0,0,0,0,0,0,-1,538,407,0,0
-679,617,0,0,0,0,0,0,0,0,0,-1,545,407,0,0
-672,617,0,0,0,0,0,0,0,0,0,-1,552,407,0,0
-665,617,0,0,0,0,0,0,0,0,0,-1,559,407,0,0
-658,617,0,0,0,0,0,0,0,0,0,-1,566,407,0,0
-651,617,0,0,0,0,0,0,0,0,0,-1,573,407,0,0
-644,617,0,0,0,0,0,0,0,0,0,-1,580,407,0,0
-637,617,0,0,0,0,0,0,0,0,0,-1,587,407,0,0
-630,617,0,0,0,0,0,0,0,0,0,-1,594,407,0,0
-623,617,0,0,0,0,0,0,0,0,0,-1,601,407,0,0
-616,617,0,0,0,0,0,0,0,0,0,-1,608,407,0,0
-609,617,0,0,0,0,0,0,0,0,0,-1,615,407,0,0
-602,617,0,0,0,0,0,0,0,0,0,-1,622,407,0,0
-595,617,0,0,0,0,0,0,0,0,0,-1,629,407,0,0
-588,617,0,0,0,0,0,0,0,0,0,-1,636,407,0,0
-581,617,0,0,0,0,0,0,0,0,0,-1,643,407,0,0
-574,617,0,0,0,0,0,0,0,0,0,-1,650,407,0,0
-567,617,0,0,0,0,0,0,0,0,0,-1,657,407,0,0
-560,617,0,0,0,0,0,0,0,0,0,-1,664,407,0,0
-553,617,0,0,0,0,0,0,0,0,0,-1,671,407,0,0
-546,617,0,0,0,0,0,0,0,0,0,-1,678,407,0,0
-539,617,0,0,0,0,0,0,0,0,0,-1,685,407,0,0
-532,617,0,0,0,0,0,0,0,0,0,-1,692,407,0,0
-525,617,0,0,0,0,0,0,0,0,0,-1,699,407,0,0
-518,617,0,0,0,0,0,0,0,0,0,-1,706,407,0,0
-511,617,0,0,0,0,0,0,0,0,0,-1,713,407,0,0
-504,617,0,0,0,0,0,0,0,0,0,-1,720,407,0,0
-497,617,0,0,0,0,0,0,0,0,0,-1,727,407,0,0
-490,617,0,0,0,0,0,0,0,0,0,-1,734,407,0,0
-483,617,0,0,0,0,0,0,0,0,0,-1,741,407,0,0
-476,617,0,0,0,0,0,0,0,0,0,-1,748,407,0,0
-469,617,0,0,0,0,0,0,0,0,0,-1,755,407,0,0
-462,617,0,0,0,0,0,0,0,0,0,-1,762,407,0,0
-455,617,0,0,0,0,0,0,0,0,0,-1,769,407,0,0
-448,617,0,0,0,0,0,0,0,0,0,-1,776,407,0,0
-441,617,0,0,0,0,0,0,0,0,0,-1,783,407,0,0
-434,617,0,0,0,0,0,0,0,0,0,-1,790,407,0,0
-427,617,0,0,0,0,0,0,0,0,0,-1,797,407,0,0
-420,617,0,0,0,0,0,0,0,0,0,-1,804,407,0,0
-413,617,0,0,0,0,0,0,0,0,0,-1,811,407,0,0
-406,617,0,0,0,0,0,0,0,0,0,-1,818,407,0,0
-399,617,0,0,0,0,0,0,0,0,0,-1,825,407,0,0
-392,617,0,0,0,0,0,0,0,0,0,-1,832,407,0,0
-385,617,0,0,0,0,0,0,0,0,0,-1,839,407,0,0
-378,617,0,0,0,0,0,0,0,0,0,-1,846,407,0,0
-371,617,0,0,0,0,0,0,0,0,0,-1,853,407,0,0
-364,617,0,0,0,0,0,0,0,0,0,-1,860,407,0,0
-357,617,0,0,0,0,0,0,0,0,0,-1,867,407,0,0
-350,617,0,0,0,0,0,0,0,0,0,-1,874,407,0,0
-343,617,0,0,0,0,0,0,0,0,0,-1,881,407,0,0
-336,617,0,0,0,0,0,0,0,0,0,-1,888,407,0,0
-329,617,0,0,0,0,0,0,0,0,0,-1,895,407,0,0
-322,617,0,0,0,0,0,0,0,0,0,-1,902,407,0,0
-315,617,0,0,0,0,0,0,0,0,0,-1,909,407,0,0
-308,617,0,0,0,0,0,0,0,0,0,-1,916,407,0,0
-301,617,4.52472,-26.171,0,0,0,0,0,0,0,-1,923,407,4.52473,26.171
-294,617,4.45184,-26.2752,0,0,0,0,0,0,0,-1,930,407,4.45182,26.2752
-287,617,4.33594,-26.3119,0,0,0,0,0,0,0,-1,937,407,4.33592,26.3119
-280,617,4.48065,-26.4772,0,0,0,0,0,0,0,-1,944,407,4.48068,26.4772
-273,617,5.05353,-26.9861,0,0,0,0,0,0,0,-1,951,407,5.0535,26.986
-266,617,5.33197,-27.7284,0,0,0,0,0,0,0,-1,958,407,5.33198,27.7284
-259,617,6.36328,-28.8583,0,0,0,0,0,0,0,-1,965,407,6.36327,28.8583
-252,617,5.9342,-29.2473,0,0,0,0,0,0,0,-1,972,407,5.93419,29.2472
-245,617,5.45508,-28.7953,0,0,0,0,0,0,0,-1,979,407,5.4551,28.7953
-238,617,4.10608,-29.5901,0,0,0,0,0,0,0,-1,986,407,4.1061,29.5901
-231,617,4.80286,-29.1844,0,0,0,0,0,0,0,-1,993,407,4.80289,29.1844
-224,617,4.78748,-29.9363,0,0,0,0,0,0,0,-1,1000,407,4.78748,29.9363
-217,617,5.11353,-30.6332,-0.00164298,0.0265534,-0.01013,0.0298154,-0.00490496,-1.25927,0.0216975,0.0464851,1007,407,5.11353,30.6332
-210,617,5.01111,-31.4273,-0.00168562,0.0229711,-0.00934902,0.0261151,-0.00482957,-1.24639,0.0192232,0.0318231,1014,407,5.01111,31.4273
-203,617,4.91882,-31.9019,-0.00176962,0.019601,-0.00808444,0.0223147,-0.00448333,-1.24694,0.0165743,0.0221844,1021,407,4.91886,31.9019
-196,617,4.89978,-32.3376,-0.00178713,0.0175624,-0.00714725,0.0199161,-0.00414085,-1.25266,0.0148514,0.0175747,1028,407,4.89977,32.3376
-189,617,4.84363,-32.7722,-0.00158793,0.0151366,-0.00641095,0.0173113,-0.00376263,-1.24376,0.0129782,0.0163931,1035,407,4.84369,32.7722
-182,617,4.85803,-33.2391,-0.00139839,0.0126456,-0.00548477,0.0145338,-0.00328656,-1.23925,0.0109504,0.0189063,1042,407,4.85804,33.2391
-175,617,4.84912,-33.6638,-0.00134983,0.0104985,-0.00451212,0.0120212,-0.00287247,-1.24534,0.00912358,0.0163791,1049,407,4.84907,33.6638
-168,617,4.80334,-34.151,-0.00133534,0.00865172,-0.00363012,0.00983177,-0.0025154,-1.2565,0.00753427,0.0117314,1056,407,4.8033,34.151
-161,617,4.75867,-34.611,-0.00128242,0.0069931,-0.00281961,0.00786246,-0.00215178,-1.27172,0.00608702,0.0113585,1063,407,4.75867,34.611
-154,617,4.72583,-34.9913,-0.00121342,0.00581662,-0.00212258,0.00640778,-0.00180458,-1.29917,0.00498351,0.011654,1070,407,4.72579,34.9913
-147,617,4.68762,-35.3647,-0.00115107,0.00467882,-0.00155016,0.00506538,-0.00153762,-1.32642,0.00398948,0.0161942,1077,407,4.68761,35.3647
-140,617,4.6886,-35.778,-0.00100441,0.0035028,-0.00115068,0.00377957,-0.00128118,-1.33475,0.00303819,0.0125489,1084,407,4.68865,35.778
-133,617,4.67737,-36.153,-0.000844636,0.00250723,-0.000828555,0.00270086,-0.00103826,-1.34122,0.00222879,0.0144929,1091,407,4.67734,36.153
-126,617,4.64038,-36.4968,-0.00068007,0.00175819,-0.000558837,0.00188017,-0.00080205,-1.35589,0.00158973,0.0146753,1098,407,4.64036,36.4968
-119,617,4.62256,-36.8599,-0.000465189,0.00120208,-0.000292603,0.00125194,-0.000515049,-1.40202,0.00104933,0.0145324,1105,407,4.62251,36.8599
-112,617,4.62439,-37.1792,-0.000190401,0.000642755,-0.000201216,0.000688805,-0.000236451,-1.34581,0.00055507,0.0158118,1112,407,4.62433,37.1792
-105,617,4.6217,-37.5069,0.000103673,6.90601e-05,-0.000186488,0.000273656,-0.000100923,-0.73913,0.000223797,0.0165115,1119,407,4.62169,37.5069
-98,617,4.62097,-37.8408,0.000427788,-0.0005453,-0.000172111,0.000457332,-0.000574845,-0.170002,0.000597213,0.0132315,1126,407,4.621,37.8408
-91,617,4.62219,-38.1545,0.00075328,-0.0010712,-9.1848e-05,0.000757892,-0.00107582,-0.0501729,0.00106398,0.0190068,1133,407,4.62215,38.1545
-84,617,4.65564,-38.4935,0.00115691,-0.00145282,3.23018e-06,0.00115692,-0.00145282,0.00123774,0.00150996,0.0190577,1140,407,4.65562,38.4935
-77,617,4.65906,-38.7644,0.00162713,-0.00152819,5.04125e-05,0.00162793,-0.00152899,0.0159716,0.00182295,0.0149547,1147,407,4.65907,38.7644
-70,617,4.69592,-39.0217,0.0021329,-0.00112543,2.60276e-05,0.00213311,-0.00112564,0.00798733,0.00191117,0.0161971,1154,407,4.69598,39.0217
-63,617,4.73853,-39.3021,0.00231673,-0.00126902,0.000439298,0.00236976,-0.00132206,0.120145,0.00215989,0.0191651,1161,407,4.73857,39.3021
-56,617,4.6936,-39.5544,0.00236619,-0.00161087,0.00105296,0.00262777,-0.00187245,0.243492,0.00261037,0.0148282,1168,407,4.69366,39.5544
-49,617,4.70471,-39.8048,0.00222894,-0.00272771,0.00164552,0.00272548,-0.00322425,0.293065,0.0034391,0.0109647,1175,407,4.70471,39.8048
-42,617,4.73669,-40.0244,0.00207687,-0.0037026,0.00220344,0.0028211,-0.00444683,0.325729,0.00423099,0.0114756,1182,407,4.73667,40.0243
-35,617,4.78186,-40.2114,0.00199969,-0.0048004,0.00265096,0.00291102,-0.00571172,0.331114,0.00506512,0.0174787,1189,407,4.78187,40.2114
-28,617,4.76575,-40.4172,0.00222223,-0.00619412,0.00282647,0.00308334,-0.00705523,0.295726,0.00600137,0.0197169,1196,407,4.76573,40.4172
-21,617,4.81042,-40.5653,0.00249922,-0.00770145,0.00266087,0.0031516,-0.00835382,0.24043,0.00686527,0.0136963,1203,407,4.81037,40.5653
-14,617,4.84216,-40.7105,0.00275463,-0.00920046,0.0023515,0.00320052,-0.00964636,0.187398,0.00772209,0.0154198,1210,407,4.84216,40.7106
-7,617,4.83862,-40.8478,0.00337297,-0.0108533,0.00166537,0.00356532,-0.0110456,0.114992,0.00879641,0.0178563,1217,407,4.83865,40.8478
0,617,4.89648,-40.9799,0.00420877,-0.0120429,0.000582122,0.00422959,-0.0120637,0.0357582,0.00976266,0.0154769,1224,407,4.89649,40.9799
7,617,4.93677,-41.1559,0.004901,-0.0135912,-0.000438737,0.00491141,-0.0136016,-0.0237078,0.011074,0.0115824,1231,407,4.93671,41.156
14,617,4.9657,-41.2776,0.00563773,-0.0148997,-0.0014417,0.00573845,-0.0150004,-0.0697429,0.0123652,0.0127573,1238,407,4.96565,41.2776
21,617,5.00134,-41.347,0.0063453,-0.0160403,-0.00247067,0.00661474,-0.0163097,-0.108627,0.0136243,0.0121429,1245,407,5.0014,41.347
28,617,5.04883,-41.4426,0.00703714,-0.0169917,-0.00345931,0.00752525,-0.0174798,-0.140173,0.0148131,0.0116884,1252,407,5.04884,41.4426
35,617,5.06714,-41.5273,0.00713468,-0.0174291,-0.00415116,0.00781724,-0.0181116,-0.162968,0.0153583,0.0141949,1259,407,5.06711,41.5273
42,617,5.16553,-41.5268,0.00700463,-0.0175015,-0.00477283,0.00790137,-0.0183983,-0.18572,0.015582,0.0210303,1266,407,5.16547,41.5268
49,617,5.2196,-41.5342,0.00690946,-0.0174177,-0.00552353,0.00810485,-0.0186131,-0.213131,0.0158183,0.0212594,1273,407,5.21965,41.5342
56,617,5.25,-41.567,0.00659272,-0.0172355,-0.00622537,0.00812112,-0.0187639,-0.24075,0.0159223,0.0147965,1280,407,5.24998,41.567
63,617,5.29871,-41.5953,0.00576406,-0.0168302,-0.00704496,0.0077807,-0.0188468,-0.278798,0.0158098,0.0108041,1287,407,5.29866,41.5953
70,617,5.28467,-41.5968,0.0046873,-0.0159766,-0.0080674,0.00746383,-0.0187531,-0.331469,0.0155971,0.0158533,1294,407,5.28468,41.5968
77,617,5.3689,-41.5535,0.00375981,-0.0156266,-0.00899237,0.00728859,-0.0191554,-0.373954,0.0157715,0.0136347,1301,407,5.36895,41.5535
84,617,5.45264,-41.5172,0.00291152,-0.0152341,-0.00988021,0.00725267,-0.0195753,-0.413986,0.0160245,0.0107962,1308,407,5.45269,41.5172
91,617,5.48438,-41.4451,0.00171131,-0.016112,-0.0107975,0.00679975,-0.0212005,-0.440395,0.0168636,0.0105009,1315,407,5.48432,41.4451
98,617,5.51941,-41.3614,0.000305327,-0.0172737,-0.0114628,0.00596061,-0.022929,-0.45832,0.0176124,0.0121341,1322,407,5.51945,41.3614
105,617,5.57422,-41.275,-0.00102348,-0.0185833,-0.011736,0.00485337,-0.0244602,-0.46425,0.0181423,0.0137482,1329,407,5.57421,41.275
112,617,5.62122,-41.2061,-0.00176795,-0.0193694,-0.0121541,0.00443715,-0.0255745,-0.47204,0.018705,0.0157841,1336,407,5.62118,41.2061
119,617,5.62415,-41.0911,-0.00240158,-0.0204247,-0.012104,0.00367706,-0.0265033,-0.465408,0.0190134,0.0183009,1343,407,5.6241,41.0911
126,617,5.64575,-40.9601,-0.00291452,-0.0212445,-0.0115939,0.00269935,-0.0268584,-0.450936,0.0188699,0.0203116,1350,407,5.64578,40.96
133,617,5.68835,-40.7757,-0.00340988,-0.0216434,-0.0107117,0.00153952,-0.0265928,-0.432833,0.0182633,0.0174883,1357,407,5.68836,40.7757
140,617,5.7467,-40.604,-0.00361263,-0.0217702,-0.00972632,0.00061369,-0.0259965,-0.40991,0.0175391,0.0150303,1364,407,5.74668,40.604
147,617,5.78003,-40.4196,-0.00368207,-0.0212873,-0.00851411,-0.000238212,-0.0247311,-0.38437,0.0164086,0.0196105,1371,407,5.78003,40.4196
154,617,5.82336,-40.2391,-0.00369958,-0.0199071,-0.00700659,-0.00109058,-0.0225161,-0.356457,0.0146607,0.0235929,1378,407,5.82336,40.2391
161,617,5.85889,-40.0422,-0.00343725,-0.0177933,-0.00559181,-0.00151624,-0.0197143,-0.330908,0.0126677,0.0254301,1385,407,5.85883,40.0422
168,617,5.89819,-39.8311,-0.00284004,-0.0155122,-0.00433995,-0.00149621,-0.016856,-0.300279,0.0107733,0.0229556,1392,407,5.89818,39.8311
175,617,5.91846,-39.5826,-0.00211518,-0.0131137,-0.00313132,-0.00128617,-0.0139427,-0.258811,0.00889746,0.0185847,1399,407,5.91849,39.5826
182,617,5.94434,-39.319,-0.00152862,-0.00986322,-0.00237663,-0.000898547,-0.0104933,-0.259149,0.00671608,0.0121277,1406,407,5.94436,39.319
189,617,5.91467,-39.0297,-0.000798017,-0.00717545,-0.00190581,-0.000271893,-0.00770157,-0.269354,0.00504619,0.0116894,1413,407,5.91466,39.0297
196,617,5.89941,-38.7332,0.000331011,-0.00363197,-0.00119137,0.00066159,-0.00396255,-0.270669,0.0028876,0.0162034,1420,407,5.8994,38.7332
203,617,5.93811,-38.4592,0.00124358,-0.000620611,-0.00067545,0.00146258,-0.000839617,-0.313542,0.0013453,0.0154769,1427,407,5.93806,38.4592
210,617,5.98755,-38.134,0.00165,0.000830357,-0.000386155,0.00180326,0.000677089,-0.377838,0.00105182,0.0149484,1434,407,5.98753,38.134
217,617,5.97253,-37.7966,0.00124961,0.00156737,-8.28501e-05,0.00158768,0.0012293,-1.33046,0.00096152,0.0201417,1441,407,5.97256,37.7966
224,617,5.98315,-37.5044,0.000960428,0.00230655,0.000247492,0.00235061,0.000916368,1.39461,0.00136806,0.0197326,1448,407,5.98313,37.5044
231,617,6.00574,-37.1893,0.000738156,0.00302066,0.000670416,0.003203,0.000555809,1.30523,0.00197629,0.0147903,1455,407,6.00579,37.1893
238,617,5.99866,-36.8501,0.000712941,0.00384503,0.00115478,0.00422475,0.000333216,1.25311,0.00271226,0.0151449,1462,407,5.99867,36.8501
245,617,5.99817,-36.4846,0.000743336,0.00462676,0.0015087,0.005144,0.000226098,1.24052,0.00335651,0.0131552,1469,407,5.99823,36.4846
252,617,5.96509,-36.0647,0.000824569,0.0054773,0.00193004,0.00617369,0.000128185,1.22452,0.00407373,0.0142693,1476,407,5.96509,36.0647
259,617,5.93933,-35.6607,0.00100861,0.00590133,0.0014892,0.00631895,0.000590984,1.29739,0.00403011,0.0117101,1483,407,5.93931,35.6607
266,617,5.91992,-35.2443,0.00137561,0.00648114,0.000308809,0.00649975,0.00135699,1.5106,0.00395913,0.0144705,1490,407,5.9199,35.2443
273,617,5.91479,-34.8272,0.001762,0.0074425,-0.00207141,0.00811761,0.00108689,-1.25573,0.00508829,0.0151819,1497,407,5.91483,34.8272
280,617,5.87781,-34.4266,0.00209284,0.00861893,-0.00570371,0.011927,-0.00121525,-1.04522,0.00838583,0.0131158,1504,407,5.87782,34.4266
287,617,5.84314,-33.9899,0.00250191,0.00963323,-0.00927775,0.0160069,-0.00387177,-0.968858,0.0121689,0.0121093,1511,407,5.84312,33.9899
294,617,5.8147,-33.5514,0.00283173,0.010766,-0.0138203,0.0211773,-0.00757958,-0.925166,0.0172104,0.00993882,1518,407,5.81464,33.5514
301,617,5.79736,-33.11,0.00305743,0.0120019,-0.0189959,0.0270449,-0.0119856,-0.901008,0.0230866,0.0081003,1525,407,5.79736,33.11
308,617,5.7771,-32.6467,0.00322383,0.0134034,-0.0246328,0.0334667,-0.0168395,-0.887277,0.0295684,0.00867039,1532,407,5.77712,32.6467
315,617,5.7439,-32.1862,0.00326379,0.0150846,-0.0301197,0.0398683,-0.02152,-0.882282,0.0359664,0.0101796,1539,407,5.74394,32.1862
322,617,5.70264,-31.7036,0.00309175,0.0167217,-0.0355901,0.0461434,-0.0263299,-0.879996,0.0423605,0.0148732,1546,407,5.70258,31.7036
329,617,5.67651,-31.1952,0.00271394,0.018393,-0.0405,0.0518053,-0.0306983,-0.881,0.0481502,0.0181206,1553,407,5.67652,31.1952
336,617,5.72009,-30.6171,0.00206002,0.0200511,-0.0446995,0.0566512,-0.0345401,-0.884694,0.0531627,0.032561,1560,407,5.72008,30.6171
343,617,5.78052,-30.1064,0,0,0,0,0,0,0,-1,1567,407,5.78053,30.1064
350,617,5.5376,-29.6736,0,0,0,0,0,0,0,-1,1574,407,5.53762,29.6736
357,617,2.1748,-7.16504,0,0,0,0,0,0,0,-1,1581,407,2.1748,7.16505
364,617,2.30127,-7.60257,0,0,0,0,0,0,0,-1,1588,407,2.30125,7.60258
371,617,2.60266,-6.20667,0,0,0,0,0,0,0,-1,1595,407,2.60261,6.20668
378,617,1.56921,-10.3601,0,0,0,0,0,0,0,-1,1602,407,1.56918,10.3601
385,617,1.74146,-10.3561,0,0,0,0,0,0,0,-1,1609,407,1.7414,10.3561
392,617,1.96936,-5.10449,0,0,0,0,0,0,0,-1,1616,407,1.96931,5.10451
399,617,2.48889,-5.81256,0,0,0,0,0,0,0,-1,1623,407,2.48888,5.81255
406,617,3.01465,-6.51642,0,0,0,0,0,0,0,-1,1630,407,3.01461,6.51643
413,617,3.6427,-7.2074,0,0,0,0,0,0,0,-1,1637,407,3.64274,7.20739
420,617,3.42737,-4.47391,0,0,0,0,0,0,0,-1,1644,407,3.42737,4.47391
427,617,0,0,0,0,0,0,0,0,0,-1,1651,407,0,0
434,617,0,0,0,0,0,0,0,0,0,-1,1658,407,0,0
441,617,0,0,0,0,0,0,0,0,0,-1,1665,407,0,0
448,617,0,0,0,0,0,0,0,0,0,-1,1672,407,0,0
455,617,0,0,0,0,0,0,0,0,0,-1,1679,407,0,0
462,617,0,0,0,0,0,0,0,0,0,-1,1686,407,0,0
469,617,0,0,0,0,0,0,0,0,0,-1,1693,407,0,0
476,617,0,0,0,0,0,0,0,0,0,-1,1700,407,0,0
483,617,0,0,0,0,0,0,0,0,0,-1,1707,407,0,0
490,617,0,0,0,0,0,0,0,0,0,-1,1714,407,0,0
497,617,0,0,0,0,0,0,0,0,0,-1,1721,407,0,0
504,617,0,0,0,0,0,0,0,0,0,-1,1728,407,0,0
511,617,0,0,0,0,0,0,0,0,0,-1,1735,407,0,0
518,617,0,0,0,0,0,0,0,0,0,-1,1742,407,0,0
525,617,0,0,0,0,0,0,0,0,0,-1,1749,407,0,0
532,617,0,0,0,0,0,0,0,0,0,-1,1756,407,0,0
539,617,0,0,0,0,0,0,0,0,0,-1,1763,407,0,0
546,617,0,0,0,0,0,0,0,0,0,-1,1770,407,0,0
553,617,0,0,0,0,0,0,0,0,0,-1,1777,407,0,0
560,617,0,0,0,0,0,0,0,0,0,-1,1784,407,0,0
567,617,0,0,0,0,0,0,0,0,0,-1,1791,407,0,0
574,617,0,0,0,0,0,0,0,0,0,-1,1798,407,0,0
581,617,0,0,0,0,0,0,0,0,0,-1,1805,407,0,0
588,617,0,0,0,0,0,0,0,0,0,-1,1812,407,0,0
595,617,0,0,0,0,0,0,0,0,0,-1,1819,407,0,0
602,617,0,0,0,0,0,0,0,0,0,-1,1826,407,0,0
609,617,0,0,0,0,0,0,0,0,0,-1,1833,407,0,0
616,617,0,0,0,0,0,0,0,0,0,-1,1840,407,0,0
623,617,0,0,0,0,0,0,0,0,0,-1,1847,407,0,0
630,617,0,0,0,0,0,0,0,0,0,-1,1854,407,0,0
637,617,0,0,0,0,0,0,0,0,0,-1,1861,407,0,0
644,617,0,0,0,0,0,0,0,0,0,-1,1868,407,0,0
651,617,0,0,0,0,0,0,0,0,0,-1,1875,407,0,0
658,617,0,0,0,0,0,0,0,0,0,-1,1882,407,0,0
665,617,0,0,0,0,0,0,0,0,0,-1,1889,407,0,0
672,617,0,0,0,0,0,0,0,0,0,-1,1896,407,0,0
679,617,0,0,0,0,0,0,0,0,0,-1,1903,407,0,0
686,617,0,0,0,0,0,0,0,0,0,-1,1910,407,0,0
693,617,0,0,0,0,0,0,0,0,0,-1,1917,407,0,0
700,617,0,0,0,0,0,0,0,0,0,-1,1924,407,0,0
707,617,0,0,0,0,0,0,0,0,0,-1,1931,407,0,0
714,617,0,0,0,0,0,0,0,0,0,-1,1938,407,0,0
721,617,0,0,0,0,0,0,0,0,0,-1,1945,407,0,0
728,617,0,0,0,0,0,0,0,0,0,-1,1952,407,0,0
735,617,0,0,0,0,0,0,0,0,0,-1,1959,407,0,0
742,617,0,0,0,0,0,0,0,0,0,-1,1966,407,0,0
749,617,0,0,0,0,0,0,0,0,0,-1,1973,407,0,0
756,617,0,0,0,0,0,0,0,0,0,-1,1980,407,0,0
763,617,0,0,0,0,0,0,0,0,0,-1,1987,407,0,0
770,617,0,0,0,0,0,0,0,0,0,-1,1994,407,0,0
777,617,0,0,0,0,0,0,0,0,0,-1,2001,407,0,0
784,617,0,0,0,0,0,0,0,0,0,-1,2008,407,0,0
791,617,0,0,0,0,0,0,0,0,0,-1,2015,407,0,0
798,617,0,0,0,0,0,0,0,0,0,-1,2022,407,0,0
805,617,0,0,0,0,0,0,0,0,0,-1,2029,407,0,0
812,617,0,0,0,0,0,0,0,0,0,-1,2036,407,0,0
-700,610,0,0,0,0,0,0,0,0,0,-1,524,414,0,0
-693,610,0,0,0,0,0,0,0,0,0,-1,531,414,0,0
-686,610,0,0,0,0,0,0,0,0,0,-1,538,414,0,0
-679,610,0,0,0,0,0,0,0,0,0,-1,545,414,0,0
-672,610,0,0,0,0,0,0,0,0,0,-1,552,414,0,0
-665,610,0,0,0,0,0,0,0,0,0,-1,559,414,0,0
-658,610,0,0,0,0,0,0,0,0,0,-1,566,414,0,0
-651,610,0,0,0,0,0,0,0,0,0,-1,573,414,0,0
-644,610,0,0,0,0,0,0,0,0,0,-1,580,414,0,0
-637,610,0,0,0,0,0,0,0,0,0,-1,587,414,0,0
-630,610,0,0,0,0,0,0,0,0,0,-1,594,414,0,0
-623,610,0,0,0,0,0,0,0,0,0,-1,601,414,0,0
-616,610,0,0,0,0,0,0,0,0,0,-1,608,414,0,0
-609,610,0,0,0,0,0,0,0,0,0,-1,615,414,0,0
-602,610,0,0,0,0,0,0,0,0,0,-1,622,414,0,0
-595,610,0,0,0,0,0,0,0,0,0,-1,629,414,0,0
-588,610,0,0,0,0,0,0,0,0,0,-1,636,414,0,0
-581,610,0,0,0,0,0,0,0,0,0,-1,643,414,0,0
-574,610,0,0,0,0,0,0,0,0,0,-1,650,414,0,0
-567,610,0,0,0,0,0,0,0,0,0,-1,657,414,0,0
-560,610,0,0,0,0,0,0,0,0,0,-1,664,414,0,0
-553,610,0,0,0,0,0,0,0,0,0,-1,671,414,0,0
-546,610,0,0,0,0,0,0,0,0,0,-1,678,414,0,0
-539,610,0,0,0,0,0,0,0,0,0,-1,685,414,0,0
-532,610,0,0,0,0,0,0,0,0,0,-1,692,414,0,0
-525,610,0,0,0,0,0,0,0,0,0,-1,699,414,0,0
-518,610,0,0,0,0,0,0,0,0,0,-1,706,414,0,0
-511,610,0,0,0,0,0,0,0,0,0,-1,713,414,0,0
-504,610,0,0,0,0,0,0,0,0,0,-1,720,414,0,0
-497,610,0,0,0,0,0,0,0,0,0,-1,727,414,0,0
-490,610,0,0,0,0,0,0,0,0,0,-1,734,414,0,0
-483,610,0,0,0,0,0,0,0,0,0,-1,741,414,0,0
-476,610,0,0,0,0,0,0,0,0,0,-1,748,414,0,0
-469,610,0,0,0,0,0,0,0,0,0,-1,755,414,0,0
-462,610,0,0,0,0,0,0,0,0,0,-1,762,414,0,0
-455,610,0,0,0,0,0,0,0,0,0,-1,769,414,0,0
-448,610,0,0,0,0,0,0,0,0,0,-1,776,414,0,0
-441,610,0,0,0,0,0,0,0,0,0,-1,783,414,0,0
-434,610,0,0,0,0,0,0,0,0,0,-1,790,414,0,0
-427,610,0,0,0,0,0,0,0,0,0,-1,797,414,0,0
-420,610,0,0,0,0,0,0,0,0,0,-1,804,414,0,0
-413,610,0,0,0,0,0,0,0,0,0,-1,811,414,0,0
-406,610,0,0,0,0,0,0,0,0,0,-1,818,414,0,0
-399,610,0,0,0,0,0,0,0,0,0,-1,825,414,0,0
-392,610,0,0,0,0,0,0,0,0,0,-1,832,414,0,0
-385,610,0,0,0,0,0,0,0,0,0,-1,839,414,0,0
-378,610,0,0,0,0,0,0,0,0,0,-1,846,414,0,0
-371,610,0,0,0,0,0,0,0,0,0,-1,853,414,0,0
-364,610,0,0,0,0,0,0,0,0,0,-1,860,414,0,0
-357,610,0,0,0,0,0,0,0,0,0,-1,867,414,0,0
-350,610,0,0,0,0,0,0,0,0,0,-1,874,414,0,0
-343,610,0,0,0,0,0,0,0,0,0,-1,881,414,0,0
-336,610,0,0,0,0,0,0,0,0,0,-1,888,414,0,0
-329,610,0,0,0,0,0,0,0,0,0,-1,895,414,0,0
-322,610,0,0,0,0,0,0,0,0,0,-1,902,414,0,0
-315,610,7.68475,-21.5402,0,0,0,0,0,0,0,-1,909,414,7.68475,21.5402
-308,610,3.97211,-23.4133,0,0,0,0,0,0,0,-1,916,414,3.9721,23.4133
-301,610,4.01996,-23.7828,0,0,0,0,0,0,0,-1,923,414,4.01993,23.7828
-294,610,3.85504,-23.923,0,0,0,0,0,0,0,-1,930,414,3.85503,23.923
-287,610,3.32306,-24.1302,0,0,0,0,0,0,0,-1,937,414,3.32303,24.1302
-280,610,3.29846,-24.3871,0,0,0,0,0,0,0,-1,944,414,3.29846,24.3871
-273,610,5.23193,-26.1248,0,0,0,0,0,0,0,-1,951,414,5.23192,26.1248
-266,610,5.42297,-27.9453,0,0,0,0,0,0,0,-1,958,414,5.42299,27.9454
-259,610,5.20978,-28.3688,0,0,0,0,0,0,0,-1,965,414,5.20979,28.3688
-252,610,4.80389,-29.224,0,0,0,0,0,0,0,-1,972,414,4.80387,29.224
-245,610,5.1297,-29.1404,0,0,0,0,0,0,0,-1,979,414,5.12969,29.1405
-238,610,4.52081,-28.9899,0,0,0,0,0,0,0,-1,986,414,4.52084,28.9899
-231,610,4.48438,-29.5682,-0.00127723,0.0247769,-0.00825049,0.0271698,-0.00367012,-1.28851,0.0194523,0.0397127,993,414,4.4844,29.5682
-224,610,4.50476,-30.2506,-0.00134943,0.0228497,-0.00808223,0.0253008,-0.00380053,-1.27634,0.0182663,0.0282877,1000,414,4.50474,30.2506
-217,610,4.59326,-30.9034,-0.00131423,0.0205988,-0.0077382,0.0230559,-0.00377133,-1.26334,0.0167697,0.018632,1007,414,4.59328,30.9034
-210,610,4.56421,-31.4912,-0.00132632,0.0177899,-0.00713056,0.0201567,-0.00369307,-1.25032,0.0148229,0.013119,1014,414,4.56419,31.4912
-203,610,4.53931,-31.9678,-0.00133057,0.0152103,-0.00621668,0.0172862,-0.0034065,-1.24851,0.0128115,0.0152716,1021,414,4.53935,31.9678
-196,610,4.5116,-32.4369,-0.00128956,0.013634,-0.00553152,0.0154607,-0.00311627,-1.25184,0.0114876,0.0149585,1028,414,4.51158,32.4369
-189,610,4.48828,-32.8886,-0.00115893,0.0116118,-0.00492857,0.0132927,-0.00283977,-1.24213,0.00994446,0.0119277,1035,414,4.48829,32.8886
-182,610,4.46021,-33.3111,-0.000953472,0.00937994,-0.00415478,0.0108432,-0.00241678,-1.23216,0.00815468,0.0124444,1042,414,4.46023,33.3111
-175,610,4.43372,-33.7155,-0.000844718,0.00736912,-0.00330732,0.00853526,-0.00201085,-1.23181,0.00646554,0.0133901,1049,414,4.43377,33.7155
-168,610,4.3833,-34.1746,-0.000834973,0.00552211,-0.00247325,0.00637098,-0.00168385,-1.24017,0.00490589,0.0121612,1056,414,4.38332,34.1746
-161,610,4.36682,-34.6456,-0.000820781,0.00375393,-0.00168403,0.00430699,-0.00137384,-1.25348,0.00342246,0.0111946,1063,414,4.3668,34.6456
-154,610,4.34436,-35.0208,-0.000805803,0.00241374,-0.000952807,0.00267459,-0.00106665,-1.30358,0.00222551,0.0136181,1070,414,4.3443,35.0207
-147,610,4.32117,-35.3608,-0.000813876,0.00104213,-0.000283034,0.00108433,-0.000856079,-1.42278,0.00112288,0.0155447,1077,414,4.32112,35.3608
-140,610,4.32751,-35.7629,-0.000764939,-0.000396789,0.000258711,-0.00026335,-0.000898378,1.0946,0.00053327,0.0126906,1084,414,4.32747,35.7629
-133,610,4.31592,-36.1322,-0.000698766,-0.00168074,0.000721903,-0.000316706,-0.0020628,0.486765,0.00128273,0.0144125,1091,414,4.31595,36.1322
-126,610,4.29907,-36.4863,-0.000599916,-0.00270031,0.00110053,-0.000128904,-0.00317132,0.404398,0.00207258,0.0135298,1098,414,4.29905,36.4863
-119,610,4.3125,-36.8441,-0.000408429,-0.0035358,0.00140092,0.000127334,-0.00407156,0.365275,0.0027578,0.0117652,1105,414,4.31254,36.8441
-112,610,4.29065,-37.1561,-0.000153362,-0.00429443,0.00153474,0.000353413,-0.0048012,0.318931,0.00332487,0.0193139,1112,414,4.29068,37.1561
-105,610,4.25732,-37.4849,0.000133611,-0.00495615,0.00157948,0.000583924,-0.00540647,0.277733,0.00381388,0.0188566,1119,414,4.25728,37.4849
-98,610,4.31079,-37.8318,0.000479081,-0.00552979,0.00163456,0.000894943,-0.00594566,0.249132,0.00429329,0.0134437,1126,414,4.31078,37.8318
-91,610,4.3175,-38.1631,0.000901571,-0.00581351,0.00168155,0.00129912,-0.00621106,0.232155,0.00463484,0.014708,1133,414,4.31755,38.1632
-84,610,4.33337,-38.4785,0.00140222,-0.0057623,0.00162221,0.00175241,-0.00611249,0.212609,0.00476772,0.0153119,1140,414,4.33339,38.4785
-77,610,4.35107,-38.7835,0.00229871,-0.00582242,0.00140435,0.0025347,-0.00605841,0.166487,0.00509838,0.0128582,1147,414,4.35106,38.7835
-70,610,4.40869,-39.0532,0.0036724,-0.00391838,0.000560806,0.00371361,-0.00395959,0.0733491,0.00443088,0.0156502,1154,414,4.4087,39.0532
-63,610,4.43323,-39.3081,0.00345715,-0.00363917,0.00140579,0.00372549,-0.00390751,0.188615,0.00440733,0.0150642,1161,414,4.43322,39.3081
-56,610,4.44397,-39.5475,0.00299061,-0.00355933,0.00261103,0.00390407,-0.00447278,0.336537,0.00484009,0.0135198,1168,414,4.44394,39.5475
-49,610,4.46851,-39.7765,0.00245151,-0.00493314,0.00354281,0.00387629,-0.00635792,0.382368,0.00596634,0.0127376,1175,414,4.46851,39.7765
-42,610,4.48645,-40.0028,0.0018061,-0.00604241,0.00424934,0.00366602,-0.00790233,0.412575,0.00682663,0.0149054,1182,414,4.48642,40.0028
-35,610,4.52954,-40.2027,0.00132869,-0.00716707,0.00474514,0.00344955,-0.00928793,0.420318,0.00760714,0.0163419,1189,414,4.52952,40.2027
-28,610,4.58154,-40.3951,0.00149496,-0.00877583,0.00487473,0.0034402,-0.0107211,0.379682,0.00852861,0.0137396,1196,414,4.5815,40.395
-21,610,4.62573,-40.5472,0.00172632,-0.0106119,0.00445602,0.00316734,-0.0120529,0.312773,0.00927312,0.0112901,1203,414,4.62577,40.5472
-14,610,4.67896,-40.693,0.00193608,-0.0124088,0.00380297,0.00288192,-0.0133547,0.243765,0.0100031,0.0126451,1210,414,4.67891,40.693
-7,610,4.72998,-40.8283,0.00269642,-0.0148668,0.00261771,0.00307827,-0.0152487,0.144851,0.0113321,0.014492,1217,414,4.73004,40.8283
0,610,4.75281,-40.9721,0.00383281,-0.0165204,0.000959305,0.00387793,-0.0165655,0.046994,0.0125379,0.0107398,1224,414,4.75284,40.9721
7,610,4.79199,-41.1241,0.00486455,-0.0187348,-0.000622849,0.00488098,-0.0187513,-0.0263681,0.0144062,0.0123684,1231,414,4.79202,41.1242
14,610,4.92114,-41.1973,0.00600524,-0.0207432,-0.00215878,0.00617835,-0.0209163,-0.0800167,0.0163964,0.0166728,1238,414,4.92113,41.1973
21,610,4.98523,-41.2369,0.00711916,-0.0226026,-0.00371304,0.007576,-0.0230595,-0.12242,0.018425,0.0158737,1245,414,4.98524,41.2369
28,610,4.97583,-41.3509,0.00821931,-0.0243216,-0.00521522,0.0090347,-0.025137,-0.155093,0.0204461,0.0165219,1252,414,4.97587,41.3509
35,610,5.12756,-41.429,0.00865979,-0.0253798,-0.00636766,0.00981197,-0.0265319,-0.179005,0.0217107,0.0190873,1259,414,5.12754,41.4291
42,610,5.1571,-41.4614,0.0089394,-0.0260337,-0.00751085,0.0104842,-0.0275785,-0.202847,0.0227022,0.0177022,1266,414,5.15706,41.4614
49,610,5.20215,-41.5215,0.00930243,-0.0264834,-0.00881946,0.0113579,-0.0285389,-0.228976,0.0237357,0.0171663,1273,414,5.20217,41.5214
56,610,5.24841,-41.5298,0.00935406,-0.0266421,-0.00987878,0.011887,-0.029175,-0.250991,0.0243974,0.0159713,1280,414,5.24843,41.5298
63,610,5.23633,-41.48,0.00876272,-0.026464,-0.0110672,0.0119511,-0.0296524,-0.280499,0.0247339,0.0224889,1287,414,5.23629,41.48
70,610,5.27112,-41.4159,0.00782082,-0.0257385,-0.0124526,0.0119367,-0.0298544,-0.319222,0.0248564,0.0314777,1294,414,5.27116,41.4159
77,610,5.41907,-41.3876,0.00692693,-0.0254903,-0.0137161,0.0119516,-0.0305149,-0.351149,0.0252868,0.0354714,1301,414,5.41908,41.3876
84,610,5.5304,-41.4122,0.00613102,-0.0251208,-0.0149454,0.0121277,-0.0311174,-0.381572,0.0257575,0.0351716,1308,414,5.53039,41.4122
91,610,5.60437,-41.424,0.00471519,-0.0261615,-0.0160899,0.0115754,-0.0330217,-0.40303,0.0267222,0.0299699,1315,414,5.60432,41.4241
98,610,5.66394,-41.3726,0.00271491,-0.0273993,-0.0168952,0.0102888,-0.0349732,-0.421429,0.0273968,0.0274887,1322,414,5.6639,41.3726
105,610,5.71716,-41.2464,0.000526871,-0.0292116,-0.0171989,0.00839297,-0.0370777,-0.428958,0.0279396,0.0214205,1329,414,5.71714,41.2464
112,610,5.7428,-41.1522,-0.000966003,-0.0303745,-0.0177583,0.00738556,-0.0387261,-0.4396,0.0285989,0.014197,1336,414,5.74279,41.1522
119,610,5.74902,-41.0446,-0.00252665,-0.031921,-0.0177223,0.0057998,-0.0402474,-0.439221,0.0289591,0.0203409,1343,414,5.74907,41.0446
126,610,5.8905,-40.898,-0.00398592,-0.0332611,-0.0170292,0.00383208,-0.0410791,-0.43039,0.0287487,0.028518,1350,414,5.89046,40.898
133,610,5.93604,-40.7608,-0.00540743,-0.0341142,-0.0158484,0.0016212,-0.0411429,-0.417429,0.0279846,0.021345,1357,414,5.93608,40.7608
140,610,5.96802,-40.599,-0.00646961,-0.034705,-0.0145403,-0.000320846,-0.0408537,-0.400072,0.0271295,0.0175469,1364,414,5.96796,40.599
147,610,5.96899,-40.3855,-0.00733186,-0.0344986,-0.0129578,-0.00214255,-0.0396879,-0.380917,0.0257741,0.0194149,1371,414,5.96897,40.3855
154,610,6.00024,-40.1682,-0.00800784,-0.033077,-0.0110008,-0.00386512,-0.0372198,-0.360159,0.0236304,0.0233476,1378,414,6.00023,40.1682
161,610,6.06677,-39.9836,-0.00813313,-0.0306078,-0.0092234,-0.00483263,-0.0339083,-0.343642,0.0211793,0.0270284,1385,414,6.06676,39.9836
168,610,6.07764,-39.7736,-0.00745702,-0.0277723,-0.00760527,-0.00492538,-0.0303039,-0.321342,0.0187774,0.0270725,1392,414,6.0776,39.7736
175,610,6.10828,-39.5495,-0.00654097,-0.0246424,-0.00592971,-0.00477148,-0.0264119,-0.289999,0.0162526,0.0236498,1399,414,6.10828,39.5495
182,610,6.2041,-39.3014,-0.00557782,-0.0199685,-0.00473629,-0.00415891,-0.0213874,-0.291075,0.013094,0.017077,1406,414,6.20408,39.3014
189,610,6.20728,-39.0051,-0.00400933,-0.0159202,-0.00403529,-0.00277097,-0.0171586,-0.29776,0.0106364,0.0147578,1413,414,6.20731,39.0051
196,610,6.20105,-38.7284,-0.00171083,-0.0101453,-0.00290317,-0.000808152,-0.0110479,-0.301452,0.00711123,0.014391,1420,414,6.20103,38.7284
203,610,6.21863,-38.4673,0.000915932,-0.00440188,-0.00200658,0.00158811,-0.00507406,-0.32324,0.00401809,0.0144449,1427,414,6.21858,38.4673
210,610,6.245,-38.1705,0.00288196,-0.00118767,-0.00150088,0.0033756,-0.00168131,-0.317759,0.00297373,0.0110839,1434,414,6.24497,38.1705
217,610,6.3064,-37.8196,0.00229973,-0.000378951,-0.00109448,0.00269004,-0.000769268,-0.342564,0.00209735,0.0162678,1441,414,6.30635,37.8197
224,610,6.34131,-37.4847,0.00182404,0.00043202,-0.000694252,0.00211109,0.000144966,-0.392067,0.00136165,0.0194568,1448,414,6.34137,37.4847
231,610,6.32605,-37.1621,0.00134275,0.00120815,-0.000243565,0.00152814,0.00102276,-0.650602,0.000898971,0.0158073,1455,414,6.32607,37.1621
238,610,6.32117,-36.8055,0.00112762,0.00197346,0.000175038,0.00200826,0.00109283,1.37459,0.00116097,0.0115042,1462,414,6.32112,36.8054
245,610,6.35168,-36.4347,0.00106522,0.00267998,0.000488604,0.00281631,0.000928884,1.29869,0.00165709,0.0130021,1469,414,6.35173,36.4347
252,610,6.33289,-36.0445,0.00102924,0.00339179,0.000867754,0.00367626,0.000744766,1.25401,0.00224416,0.0144961,1476,414,6.33285,36.0445
259,610,6.31799,-35.6447,0.00102389,0.003964,0.00104957,0.00430023,0.000687657,1.26078,0.00266731,0.0127671,1483,414,6.318,35.6447
266,610,6.29504,-35.2365,0.00116769,0.00448732,0.000771803,0.00465799,0.000997026,1.35317,0.0028321,0.0129771,1490,414,6.295,35.2366
273,610,6.29211,-34.8344,0.00139776,0.00519109,-0.000251214,0.00520765,0.0013812,-1.50495,0.00311516,0.0103205,1497,414,6.29212,34.8344
280,610,6.28052,-34.413,0.00164824,0.00604836,-0.00215028,0.00692466,0.000771938,-1.18382,0.00438185,0.00978465,1504,414,6.28053,34.413
287,610,6.24365,-33.9692,0.00195455,0.00686677,-0.00420988,0.00928463,-0.000463315,-1.04947,0.00634983,0.012658,1511,414,6.24369,33.9692
294,610,6.23291,-33.5377,0.0021952,0.00777373,-0.00697108,0.0124929,-0.00252392,-0.975703,0.00928493,0.0111566,1518,414,6.23291,33.5377
301,610,6.2312,-33.1233,0.00235114,0.0087391,-0.0101971,0.0162307,-0.00514046,-0.937171,0.0128805,0.0104924,1525,414,6.23115,33.1233
308,610,6.21106,-32.653,0.00246293,0.00981009,-0.0136829,0.020304,-0.00803094,-0.916545,0.0168629,0.0124153,1532,414,6.21103,32.653
315,610,6.16992,-32.2007,0.0024618,0.0111022,-0.0170473,0.0243682,-0.0108042,-0.909498,0.020804,0.0133782,1539,414,6.16997,32.2006
322,610,6.13232,-31.7181,0.00226601,0.012318,-0.020333,0.028237,-0.013653,-0.906561,0.0246689,0.0127849,1546,414,6.1323,31.7181
329,610,6.0979,-31.233,0.00188142,0.0134961,-0.023133,0.0315396,-0.016162,-0.908378,0.0280135,0.0116078,1553,414,6.09786,31.233
336,610,6.08423,-30.751,0.00127195,0.0146214,-0.0253041,0.0341164,-0.018223,-0.914351,0.030679,0.0107124,1560,414,6.08419,30.751
343,610,6.05005,-30.2437,0.000620637,0.0157081,-0.0266238,0.0358363,-0.0195075,-0.923453,0.032413,0.0174205,1567,414,6.05004,30.2437
350,610,5.98401,-29.7705,8.12372e-05,0.0172204,-0.026648,0.0366428,-0.0193412,-0.940968,0.0328329,0.0411137,1574,414,5.98399,29.7705
357,610,5.98657,-28.9525,0,0,0,0,0,0,0,-1,1581,414,5.98661,28.9525
364,610,6.21777,-28.4473,0,0,0,0,0,0,0,-1,1588,414,6.21782,28.4473
371,610,3.54138,-13.3788,0,0,0,0,0,0,0,-1,1595,414,3.54137,13.3788
378,610,3.5752,-12.1958,0,0,0,0,0,0,0,-1,1602,414,3.57517,12.1958
385,610,2.57104,-10.3878,0,0,0,0,0,0,0,-1,1609,414,2.57109,10.3878
392,610,1.99744,-1.83582,0,0,0,0,0,0,0,-1,1616,414,1.99741,1.8358
399,610,2.77136,-2.60333,0,0,0,0,0,0,0,-1,1623,414,2.77133,2.60332
406,610,3.54529,-3.37085,0,0,0,0,0,0,0,-1,1630,414,3.54525,3.37084
413,610,3.01929,-3.20306,0,0,0,0,0,0,0,-1,1637,414,3.01929,3.20306
420,610,4.78149,-3.64041,0,0,0,0,0,0,0,-1,1644,414,4.78152,3.64042
427,610,8.85168,-23.3853,0,0,0,0,0,0,0,-1,1651,414,8.85174,23.3853
434,610,8.73706,-22.6227,0,0,0,0,0,0,0,-1,1658,414,8.73703,22.6227
441,610,0,0,0,0,0,0,0,0,0,-1,1665,414,0,0
448,610,0,0,0,0,0,0,0,0,0,-1,1672,414,0,0
455,610,0,0,0,0,0,0,0,0,0,-1,1679,414,0,0
462,610,0,0,0,0,0,0,0,0,0,-1,1686,414,0,0
469,610,0,0,0,0,0,0,0,0,0,-1,1693,414,0,0
476,610,0,0,0,0,0,0,0,0,0,-1,1700,414,0,0
483,610,0,0,0,0,0,0,0,0,0,-1,1707,414,0,0
490,610,0,0,0,0,0,0,0,0,0,-1,1714,414,0,0
497,610,0,0,0,0,0,0,0,0,0,-1,1721,414,0,0
504,610,0,0,0,0,0,0,0,0,0,-1,1728,414,0,0
511,610,0,0,0,0,0,0,0,0,0,-1,1735,414,0,0
518,610,0,0,0,0,0,0,0,0,0,-1,1742,414,0,0
525,610,0,0,0,0,0,0,0,0,0,-1,1749,414,0,0
532,610,0,0,0,0,0,0,0,0,0,-1,1756,414,0,0
539,610,0,0,0,0,0,0,0,0,0,-1,1763,414,0,0
546,610,0,0,0,0,0,0,0,0,0,-1,1770,414,0,0
553,610,0,0,0,0,0,0,0,0,0,-1,1777,414,0,0
560,610,0,0,0,0,0,0,0,0,0,-1,1784,414,0,0
567,610,0,0,0,0,0,0,0,0,0,-1,1791,414,0,0
574,610,0,0,0,0,0,0,0,0,0,-1,1798,414,0,0
581,610,0,0,0,0,0,0,0,0,0,-1,1805,414,0,0
588,610,0,0,0,0,0,0,0,0,0,-1,1812,414,0,0
595,610,0,0,0,0,0,0,0,0,0,-1,1819,414,0,0
602,610,0,0,0,0,0,0,0,0,0,-1,1826,414,0,0
609,610,0,0,0,0,0,0,0,0,0,-1,1833,414,0,0
616,610,0,0,0,0,0,0,0,0,0,-1,1840,414,0,0
623,610,0,0,0,0,0,0,0,0,0,-1,1847,414,0,0
630,610,0,0,0,0,0,0,0,0,0,-1,1854,414,0,0
637,610,0,0,0,0,0,0,0,0,0,-1,1861,414,0,0
644,610,0,0,0,0,0,0,0,0,0,-1,1868,414,0,0
651,610,0,0,0,0,0,0,0,0,0,-1,1875,414,0,0
658,610,0,0,0,0,0,0,0,0,0,-1,1882,414,0,0
665,610,0,0,0,0,0,0,0,0,0,-1,1889,414,0,0
672,610,0,0,0,0,0,0,0,0,0,-1,1896,414,0,0
679,610,0,0,0,0,0,0,0,0,0,-1,1903,414,0,0
686,610,0,0,0,0,0,0,0,0,0,-1,1910,414,0,0
693,610,0,0,0,0,0,0,0,0,0,-1,1917,414,0,0
700,610,0,0,0,0,0,0,0,0,0,-1,1924,414,0,0
707,610,0,0,0,0,0,0,0,0,0,-1,1931,414,0,0
714,610,0,0,0,0,0,0,0,0,0,-1,1938,414,0,0
721,610,0,0,0,0,0,0,0,0,0,-1,1945,414,0,0
728,610,0,0,0,0,0,0,0,0,0,-1,1952,414,0,0
735,610,0,0,0,0,0,0,0,0,0,-1,1959,414,0,0
742,610,0,0,0,0,0,0,0,0,0,-1,1966,414,0,0
749,610,0,0,0,0,0,0,0,0,0,-1,1973,414,0,0
756,610,0,0,0,0,0,0,0,0,0,-1,1980,414,0,0
763,610,0,0,0,0,0,0,0,0,0,-1,1987,414,0,0
770,610,0,0,0,0,0,0,0,0,0,-1,1994,414,0,0
777,610,0,0,0,0,0,0,0,0,0,-1,2001,414,0,0
784,610,0,0,0,0,0,0,0,0,0,-1,2008,414,0,0
791,610,0,0,0,0,0,0,0,0,0,-1,2015,414,0,0
798,610,0,0,0,0,0,0,0,0,0,-1,2022,414,0,0
805,610,0,0,0,0,0,0,0,0,0,-1,2029,414,0,0
812,610,0,0,0,0,0,0,0,0,0,-1,2036,414,0,0
-700,603,0,0,0,0,0,0,0,0,0,-1,524,421,0,0
-693,603,0,0,0,0,0,0,0,0,0,-1,531,421,0,0
-686,603,0,0,0,0,0,0,0,0,0,-1,538,421,0,0
-679,603,0,0,0,0,0,0,0,0,0,-1,545,421,0,0
-672,603,0,0,0,0,0,0,0,0,0,-1,552,421,0,0
-665,603,0,0,0,0,0,0,0,0,0,-1,559,421,0,0
-658,603,0,0,0,0,0,0,0,0,0,-1,566,421,0,0
-651,603,0,0,0,0,0,0,0,0,0,-1,573,421,0,0
-644,603,0,0,0,0,0,0,0,0,0,-1,580,421,0,0
-637,603,0,0,0,0,0,0,0,0,0,-1,587,421,0,0
-630,603,0,0,0,0,0,0,0,0,0,-1,594,421,0,0
-623,603,0,0,0,0,0,0,0,0,0,-1,601,421,0,0
-616,603,0,0,0,0,0,0,0,0,0,-1,608,421,0,0
-609,603,0,0,0,0,0,0,0,0,0,-1,615,421,0,0
-602,603,0,0,0,0,0,0,0,0,0,-1,622,421,0,0
-595,603,0,0,0,0,0,0,0,0,0,-1,629,421,0,0
-588,603,0,0,0,0,0,0,0,0,0,-1,636,421,0,0
-581,603,0,0,0,0,0,0,0,0,0,-1,643,421,0,0
-574,603,0,0,0,0,0,0,0,0,0,-1,650,421,0,0
-567,603,0,0,0,0,0,0,0,0,0,-1,657,421,0,0
-560,603,0,0,0,0,0,0,0,0,0,-1,664,421,0,0
-553,603,0,0,0,0,0,0,0,0,0,-1,671,421,0,0
-546,603,0,0,0,0,0,0,0,0,0,-1,678,421,0,0
-539,603,0,0,0,0,0,0,0,0,0,-1,685,421,0,0
-532,603,0,0,0,0,0,0,0,0,0,-1,692,421,0,0
-525,603,0,0,0,0,0,0,0,0,0,-1,699,421,0,0
-518,603,0,0,0,0,0,0,0,0,0,-1,706,421,0,0
-511,603,0,0,0,0,0,0,0,0,0,-1,713,421,0,0
-504,603,0,0,0,0,0,0,0,0,0,-1,720,421,0,0
-497,603,0,0,0,0,0,0,0,0,0,-1,727,421,0,0
-490,603,0,0,0,0,0,0,0,0,0,-1,734,421,0,0
-483,603,0,0,0,0,0,0,0,0,0,-1,741,421,0,0
-476,603,0,0,0,0,0,0,0,0,0,-1,748,421,0,0
-469,603,0,0,0,0,0,0,0,0,0,-1,755,421,0,0
-462,603,0,0,0,0,0,0,0,0,0,-1,762,421,0,0
-455,603,0,0,0,0,0,0,0,0,0,-1,769,421,0,0
-448,603,0,0,0,0,0,0,0,0,0,-1,776,421,0,0
-441,603,0,0,0,0,0,0,0,0,0,-1,783,421,0,0
-434,603,0,0,0,0,0,0,0,0,0,-1,790,421,0,0
-427,603,0,0,0,0,0,0,0,0,0,-1,797,421,0,0
-420,603,0,0,0,0,0,0,0,0,0,-1,804,421,0,0
-413,603,0,0,0,0,0,0,0,0,0,-1,811,421,0,0
-406,603,0,0,0,0,0,0,0,0,0,-1,818,421,0,0
-399,603,0,0,0,0,0,0,0,0,0,-1,825,421,0,0
-392,603,0,0,0,0,0,0,0,0,0,-1,832,421,0,0
-385,603,0,0,0,0,0,0,0,0,0,-1,839,421,0,0
-378,603,0,0,0,0,0,0,0,0,0,-1,846,421,0,0
-371,603,0,0,0,0,0,0,0,0,0,-1,853,421,0,0
-364,603,0,0,0,0,0,0,0,0,0,-1,860,421,0,0
-357,603,0,0,0,0,0,0,0,0,0,-1,867,421,0,0
-350,603,0,0,0,0,0,0,0,0,0,-1,874,421,0,0
-343,603,0,0,0,0,0,0,0,0,0,-1,881,421,0,0
-336,603,0,0,0,0,0,0,0,0,0,-1,888,421,0,0
-329,603,4.09686,-17.9702,0,0,0,0,0,0,0,-1,895,421,4.09687,17.9702
-322,603,5.98431,-20.9071,0,0,0,0,0,0,0,-1,902,421,5.98431,20.9071
-315,603,5.99744,-20.4501,0,0,0,0,0,0,0,-1,909,421,5.99745,20.4501
-308,603,5.92249,-20.778,0,0,0,0,0,0,0,-1,916,421,5.92248,20.778
-301,603,2.72424,-20.9059,0,0,0,0,0,0,0,-1,923,421,2.72424,20.9059
-294,603,2.41553,-20.6767,0,0,0,0,0,0,0,-1,930,421,2.41554,20.6767
-287,603,1.91766,-21.2242,0,0,0,0,0,0,0,-1,937,421,1.91767,21.2242
-280,603,2.1037,-22.259,0,0,0,0,0,0,0,-1,944,421,2.10372,22.259
-273,603,4.45172,-26.0901,0,0,0,0,0,0,0,-1,951,421,4.45169,26.0901
-266,603,4.37006,-26.4824,0,0,0,0,0,0,0,-1,958,421,4.37005,26.4824
-259,603,4.53442,-27.1904,0,0,0,0,0,0,0,-1,965,421,4.5344,27.1904
-252,603,4.39215,-28.7907,0.000997685,0.0209724,-0.00857458,0.0241483,-0.00217819,-1.21608,0.0168719,0.0429849,972,421,4.39216,28.7907
-245,603,4.42181,-29.0205,0.000101112,0.020124,-0.00776841,0.0227845,-0.00255935,-1.24084,0.0161107,0.0329324,979,421,4.42181,29.0205
-238,603,4.25916,-29.4436,-0.000511449,0.0194957,-0.00713946,0.0217821,-0.00279784,-1.26087,0.0155382,0.0223864,986,421,4.25916,29.4436
-231,603,4.18866,-29.9849,-0.00108653,0.018792,-0.00641845,0.0206843,-0.00297881,-1.2841,0.0148822,0.0141695,993,421,4.18869,29.9849
-224,603,4.1554,-30.5235,-0.00116101,0.0173381,-0.00613047,0.0191853,-0.00300816,-1.27814,0.0139018,0.0142683,1000,421,4.15538,30.5235
-217,603,4.1452,-31.0164,-0.00108174,0.0155645,-0.00579846,0.0173851,-0.00290241,-1.26655,0.0126689,0.0128055,1007,421,4.14519,31.0164
-210,603,4.14172,-31.4988,-0.000999616,0.0132372,-0.00529162,0.0149885,-0.00275099,-1.25117,0.0110244,0.0109321,1014,421,4.14173,31.4988
-203,603,4.12463,-31.9876,-0.000868993,0.0111041,-0.00459654,0.0126652,-0.00243009,-1.24339,0.00935925,0.0168711,1021,421,4.12459,31.9876
-196,603,4.14124,-32.4966,-0.000707974,0.0097433,-0.00406693,0.0111394,-0.00210406,-1.24012,0.00821789,0.0190112,1028,421,4.14123,32.4966
-189,603,4.12366,-32.8788,-0.00048034,0.0079553,-0.00356145,0.00925781,-0.00178284,-1.22018,0.006844,0.0158087,1035,421,4.12369,32.8788
-182,603,4.05493,-33.302,-0.000260648,0.00605951,-0.00287692,0.00717293,-0.00137407,-1.20153,0.00529969,0.0111185,1042,421,4.05498,33.302
-175,603,4.01147,-33.7297,-0.000214695,0.00401558,-0.00198623,0.00480198,-0.00100109,-1.19381,0.00358195,0.0119739,1049,421,4.01143,33.7297
-168,603,3.98633,-34.1639,-0.000232311,0.00211981,-0.00115177,0.00258986,-0.000702367,-1.18331,0.00200219,0.0148227,1056,421,3.98636,34.1639
-161,603,3.96948,-34.6039,-0.000295468,0.00019961,-0.000342309,0.000374505,-0.000470364,-1.09844,0.000488831,0.0140763,1063,421,3.96954,34.6039
-154,603,3.95996,-35.015,-0.000385992,-0.00133329,0.000455592,-0.000202445,-0.00151684,0.382984,0.000950955,0.0134813,1070,421,3.95996,35.015
-147,603,3.95313,-35.3751,-0.000518686,-0.00296619,0.00124401,2.59292e-06,-0.00348747,0.396804,0.00232584,0.0145789,1077,421,3.95316,35.3751
-140,603,3.98206,-35.7303,-0.000627371,-0.004719,0.00194793,0.000151668,-0.00549804,0.380447,0.00371695,0.012654,1084,421,3.982,35.7303
-133,603,3.9491,-36.0953,-0.00072722,-0.00634595,0.00257424,0.000273831,-0.007347,0.370876,0.00499178,0.0130295,1091,421,3.94907,36.0953
-126,603,3.9541,-36.4449,-0.000765382,-0.00771067,0.00309563,0.000414093,-0.00889014,0.364031,0.0060695,0.0116455,1098,421,3.95411,36.4448
-119,603,3.9906,-36.802,-0.000624767,-0.00892013,0.00344472,0.000619153,-0.0101641,0.346537,0.00699156,0.0114605,1105,421,3.99059,36.802
-112,603,4.00208,-37.1625,-0.000401209,-0.00996261,0.00361627,0.000812462,-0.0111763,0.323802,0.00773591,0.0158249,1112,421,4.00213,37.1625
-105,603,3.99121,-37.5186,-0.000122717,-0.010783,0.00367662,0.00102232,-0.011928,0.301917,0.00831376,0.0159753,1119,421,3.99125,37.5186
-98,603,3.99585,-37.8183,0.000251829,-0.0113686,0.00374628,0.00135488,-0.0124717,0.286346,0.0088009,0.0133986,1126,421,3.99584,37.8183
-91,603,4.01575,-38.1161,0.000787271,-0.0114597,0.00373877,0.00183843,-0.0125109,0.274075,0.00901608,0.00968045,1133,421,4.01576,38.1161
-84,603,4.04333,-38.4519,0.00141355,-0.0110514,0.00351418,0.00233602,-0.0119738,0.256708,0.00886443,0.0108704,1140,421,4.04331,38.4519
-77,603,4.09717,-38.8051,0.00278326,-0.011196,0.00302099,0.00340817,-0.0118209,0.203981,0.00922885,0.0181645,1147,421,4.09714,38.8051
-70,603,4.13928,-39.147,0,0,0,0,0,0,0,-1,1154,421,4.13925,39.147
-63,603,4.07898,-39.2509,0,0,0,0,0,0,0,-1,1161,421,4.07894,39.2509
-56,603,4.15686,-39.5181,0,0,0,0,0,0,0,-1,1168,421,4.15687,39.5181
-49,603,4.24609,-39.7446,0,0,0,0,0,0,0,-1,1175,421,4.24611,39.7446
-42,603,4.25916,-39.9455,0,0,0,0,0,0,0,-1,1182,421,4.25916,39.9455
-35,603,4.26379,-40.1107,0.000131627,-0.00958842,0.00680723,0.00363571,-0.0130925,0.475385,0.0101595,0.04193,1189,421,4.26383,40.1106
-28,603,4.3186,-40.2691,0.000285613,-0.0112501,0.00679759,0.00343265,-0.0143971,0.433583,0.0109236,0.0282463,1196,421,4.31856,40.2691
-21,603,4.38062,-40.4567,0.000440933,-0.0132687,0.00599328,0.0026915,-0.0155193,0.359222,0.0113502,0.0243415,1203,421,4.38056,40.4567
-14,603,4.49463,-40.5979,0.000594072,-0.0152459,0.00489312,0.00198369,-0.0166356,0.276709,0.0118073,0.0226377,1210,421,4.4946,40.5979
-7,603,4.55078,-40.7149,0.00154249,-0.0182049,0.0032092,0.00205093,-0.0187134,0.157127,0.0132124,0.025409,1217,421,4.55078,40.7149
0,603,4.56433,-40.8882,0.00300258,-0.0202082,0.00095986,0.00304221,-0.0202479,0.0412601,0.0146185,0.0296896,1224,421,4.56434,40.8882
7,603,4.63696,-40.8795,0.00442759,-0.0229717,-0.00117813,0.00447815,-0.0230223,-0.042893,0.0170382,0.03938,1231,421,4.637,40.8795
14,603,4.85938,-40.7222,0.00603721,-0.0255949,-0.00322466,0.00636259,-0.0259203,-0.100564,0.0197457,0.0422027,1238,421,4.85933,40.7222
21,603,4.90356,-40.8029,0.00765643,-0.0281073,-0.00525862,0.00841362,-0.0288645,-0.143006,0.0225763,0.0336309,1245,421,4.90356,40.803
28,603,4.97778,-40.864,0.00929155,-0.0305431,-0.00723703,0.0105656,-0.0318171,-0.174261,0.0254744,0.0367556,1252,421,4.97775,40.864
35,603,5.06213,-40.8264,0.0101751,-0.032222,-0.00881449,0.0119346,-0.0339815,-0.197029,0.0275095,0.0437628,1259,421,5.06218,40.8264
42,603,5.12769,-41.1577,0.0108786,-0.0334697,-0.0103754,0.0131859,-0.035777,-0.218822,0.0292546,0.0399786,1266,421,5.1277,41.1577
49,603,5.17456,-41.4005,0.0117196,-0.0344694,-0.0120871,0.0146914,-0.0374412,-0.241086,0.0310394,0.0216256,1273,421,5.17451,41.4005
56,603,5.11389,-41.2673,0.0121917,-0.0351061,-0.013433,0.0157405,-0.038655,-0.258286,0.0323207,0.0446493,1280,421,5.11386,41.2673
63,603,5.13306,-41.2742,0,0,0,0,0,0,0,-1,1287,421,5.13308,41.2742
70,603,5.21057,-41.1802,0,0,0,0,0,0,0,-1,1294,421,5.21056,41.1802
77,603,5.47046,-41.1791,0,0,0,0,0,0,0,-1,1301,421,5.47044,41.1791
84,603,5.61243,-41.2939,0,0,0,0,0,0,0,-1,1308,421,5.61249,41.2939
91,603,5.71875,-41.3793,0,0,0,0,0,0,0,-1,1315,421,5.71873,41.3793
98,603,5.81812,-41.392,0,0,0,0,0,0,0,-1,1322,421,5.81817,41.392
105,603,5.87061,-41.1867,0,0,0,0,0,0,0,-1,1329,421,5.8706,41.1867
112,603,5.98975,-40.9243,0.000885957,-0.0412566,-0.0233787,0.0112879,-0.0516585,-0.418631,0.0387536,0.0455195,1336,421,5.9898,40.9243
119,603,6.14172,-40.8249,-0.00156561,-0.0433988,-0.0235111,0.00898646,-0.0539508,-0.421865,0.0393066,0.0479334,1343,421,6.14178,40.8249
126,603,6.24036,-40.5995,0,0,0,0,0,0,0,-1,1350,421,6.24031,40.5995
133,603,6.23889,-40.3348,-0.00661213,-0.0469593,-0.0214352,0.00264965,-0.0562211,-0.407854,0.0383944,0.0452842,1357,421,6.23886,40.3348
140,603,6.28101,-40.2243,-0.00877968,-0.0482354,-0.0198761,-0.000503115,-0.056512,-0.39457,0.0375081,0.0327754,1364,421,6.28104,40.2243
147,603,6.18726,-40.1451,-0.0107606,-0.0485802,-0.018022,-0.00354815,-0.0557926,-0.380682,0.0360706,0.026226,1371,421,6.18725,40.1451
154,603,6.13123,-40.0725,-0.0125308,-0.0475408,-0.0157581,-0.00648288,-0.0535888,-0.366464,0.0337729,0.0312358,1378,421,6.13124,40.0725
161,603,6.27478,-39.9076,-0.0135321,-0.0451313,-0.01371,-0.00841296,-0.0502504,-0.357352,0.0310779,0.0311226,1385,421,6.27484,39.9076
168,603,6.34814,-39.6819,-0.0133041,-0.0421283,-0.0117416,-0.00912659,-0.0463058,-0.341821,0.0283228,0.034937,1392,421,6.3482,39.6819
175,603,6.57117,-39.4528,-0.0126698,-0.0386236,-0.00961748,-0.00949444,-0.041799,-0.318897,0.0253021,0.0399593,1399,421,6.57122,39.4528
182,603,6.67822,-39.2368,-0.0117528,-0.0327929,-0.00787662,-0.00913083,-0.0354149,-0.321342,0.0212312,0.0449143,1406,421,6.67823,39.2368
189,603,6.61328,-38.9336,-0.00921523,-0.0272773,-0.00687253,-0.00689764,-0.0295949,-0.325249,0.0178799,0.0383923,1413,421,6.61327,38.9336
196,603,6.53455,-38.5878,-0.00554787,-0.0189401,-0.00518509,-0.00377504,-0.0207129,-0.329449,0.0127381,0.0289997,1420,421,6.53453,38.5878
203,603,6.53369,-38.3867,-0.00074351,-0.00970672,-0.00373546,0.000609132,-0.0110594,-0.347421,0.00758411,0.016704,1427,421,6.53368,38.3867
210,603,6.57324,-38.19,0.00408927,-0.00306475,-0.00264822,0.00496289,-0.00393837,-0.318646,0.00515048,0.0131889,1434,421,6.57322,38.19
217,603,6.62097,-37.8311,0.00332425,-0.00214166,-0.00214132,0.00406322,-0.00288063,-0.332305,0.00402837,0.0132442,1441,421,6.62097,37.8311
224,603,6.66833,-37.4637,0.00267309,-0.00118981,-0.0016686,0.00329404,-0.00181076,-0.356258,0.00298844,0.0168673,1448,421,6.6683,37.4637
231,603,6.65454,-37.1242,0.00194681,-0.000314968,-0.00118342,0.00245281,-0.000820965,-0.404047,0.00196683,0.0149077,1455,421,6.65451,37.1242
238,603,6.67566,-36.7857,0.00157739,0.000436009,-0.0008065,0.00199469,1.87064e-05,-0.47749,0.0013236,0.0111398,1462,421,6.67569,36.7857
245,603,6.7074,-36.4258,0.00145249,0.00107765,-0.000523777,0.00182137,0.00070877,-0.613582,0.00106015,0.012422,1469,421,6.70743,36.4259
252,603,6.71521,-36.0309,0.00133375,0.00164286,-0.000166886,0.00171576,0.00126085,-1.15892,0.00102638,0.0109185,1476,421,6.71527,36.0309
259,603,6.70569,-35.638,0.00117364,0.00223327,0.000422955,0.00238139,0.00102552,1.23394,0.0013793,0.0105713,1483,421,6.70572,35.638
266,603,6.68689,-35.241,0.0011363,0.00262312,0.000736291,0.00292603,0.000833391,1.1805,0.00174071,0.0117425,1490,421,6.68685,35.241
273,603,6.68042,-34.8335,0.00124114,0.00308503,0.000639003,0.00328483,0.00104134,1.26776,0.00193837,0.010688,1497,421,6.68048,34.8335
280,603,6.69031,-34.4056,0.00141774,0.00363645,-5.56081e-05,0.00363784,0.00141634,-1.54575,0.00211739,0.0117914,1504,421,6.69032,34.4056
287,603,6.68225,-33.9586,0.00163729,0.00424939,-0.00108025,0.00463824,0.00124843,-1.22527,0.00277139,0.0110567,1511,421,6.68228,33.9586
294,603,6.66089,-33.5439,0.00180913,0.00496103,-0.00261302,0.00643655,0.000333611,-1.05675,0.00418426,0.00965944,1518,421,6.6609,33.5439
301,603,6.66187,-33.116,0.00191734,0.00571783,-0.00450776,0.0087095,-0.00107433,-0.98487,0.00619557,0.0116607,1525,421,6.6619,33.116
308,603,6.64563,-32.6472,0.00199583,0.00654345,-0.0065576,0.0112103,-0.00267099,-0.952284,0.00850482,0.0164957,1532,421,6.64557,32.6472
315,603,6.59851,-32.2082,0.00197603,0.00757146,-0.0085688,0.0137877,-0.00424021,-0.943192,0.0108841,0.0149048,1539,421,6.59849,32.2082
322,603,6.58057,-31.7378,0.00178366,0.00853368,-0.0105181,0.016205,-0.00588768,-0.940646,0.0132107,0.0151168,1546,421,6.58051,31.7378
329,603,6.55396,-31.2377,0.00142485,0.0094349,-0.012104,0.0181793,-0.00731951,-0.945171,0.0151602,0.0112958,1553,421,6.55393,31.2377
336,603,6.5332,-30.7632,0.000892296,0.0102746,-0.0131852,0.0195783,-0.00841141,-0.956309,0.016583,0.00953195,1560,421,6.53319,30.7632
343,603,6.52417,-30.2736,0.000330447,0.0110949,-0.0136487,0.0203843,-0.00895893,-0.973207,0.0173641,0.0115611,1567,421,6.52417,30.2736
350,603,6.48315,-29.7593,-0.000155387,0.0122791,-0.0131388,0.0205974,-0.00847372,-1.00639,0.0172639,0.0200023,1574,421,6.4832,29.7594
357,603,6.47131,-29.1749,-0.000715276,0.0132309,-0.0120481,0.0201783,-0.00766266,-1.04773,0.0166066,0.0272382,1581,421,6.47127,29.1749
364,603,6.45923,-28.5703,-0.00151547,0.014822,-0.00936791,0.0190825,-0.00577598,-1.14396,0.0150218,0.0381588,1588,421,6.45922,28.5703
371,603,6.37842,-27.8531,0,0,0,0,0,0,0,-1,1595,421,6.37836,27.8531
378,603,6.24609,-27.7319,0,0,0,0,0,0,0,-1,1602,421,6.24612,27.7319
385,603,5.99683,-27.0573,0,0,0,0,0,0,0,-1,1609,421,5.99683,27.0574
392,603,4.90527,-19.605,0,0,0,0,0,0,0,-1,1616,421,4.90526,19.605
399,603,2.94299,0.638214,0,0,0,0,0,0,0,-1,1623,421,2.94293,-0.638215
406,603,3.01917,-2.37219,0,0,0,0,0,0,0,-1,1630,421,3.01915,2.37219
413,603,2.38928,-2.41275,0,0,0,0,0,0,0,-1,1637,421,2.38926,2.41274
420,603,8.22217,-23.7068,0,0,0,0,0,0,0,-1,1644,421,8.22215,23.7068
427,603,8.20386,-23.1278,0,0,0,0,0,0,0,-1,1651,421,8.2039,23.1278
434,603,8.01489,-22.5655,0,0,0,0,0,0,0,-1,1658,421,8.01493,22.5655
441,603,8.00122,-22.3072,0,0,0,0,0,0,0,-1,1665,421,8.00116,22.3071
448,603,1.14355,-4.59842,0,0,0,0,0,0,0,-1,1672,421,1.14355,4.59841
455,603,0,0,0,0,0,0,0,0,0,-1,1679,421,0,0
462,603,0,0,0,0,0,0,0,0,0,-1,1686,421,0,0
469,603,0,0,0,0,0,0,0,0,0,-1,1693,421,0,0
476,603,0,0,0,0,0,0,0,0,0,-1,1700,421,0,0
483,603,0,0,0,0,0,0,0,0,0,-1,1707,421,0,0
490,603,0,0,0,0,0,0,0,0,0,-1,1714,421,0,0
497,603,0,0,0,0,0,0,0,0,0,-1,1721,421,0,0
504,603,0,0,0,0,0,0,0,0,0,-1,1728,421,0,0
511,603,0,0,0,0,0,0,0,0,0,-1,1735,421,0,0
518,603,0,0,0,0,0,0,0,0,0,-1,1742,421,0,0
525,603,0,0,0,0,0,0,0,0,0,-1,1749,421,0,0
532,603,0,0,0,0,0,0,0,0,0,-1,1756,421,0,0
539,603,0,0,0,0,0,0,0,0,0,-1,1763,421,0,0
546,603,0,0,0,0,0,0,0,0,0,-1,1770,421,0,0
553,603,0,0,0,0,0,0,0,0,0,-1,1777,421,0,0
560,603,0,0,0,0,0,0,0,0,0,-1,1784,421,0,0
567,603,0,0,0,0,0,0,0,0,0,-1,1791,421,0,0
574,603,0,0,0,0,0,0,0,0,0,-1,1798,421,0,0
581,603,0,0,0,0,0,0,0,0,0,-1,1805,421,0,0
588,603,0,0,0,0,0,0,0,0,0,-1,1812,421,0,0
595,603,0,0,0,0,0,0,0,0,0,-1,1819,421,0,0
602,603,0,0,0,0,0,0,0,0,0,-1,1826,421,0,0
609,603,0,0,0,0,0,0,0,0,0,-1,1833,421,0,0
616,603,0,0,0,0,0,0,0,0,0,-1,1840,421,0,0
623,603,0,0,0,0,0,0,0,0,0,-1,1847,421,0,0
630,603,0,0,0,0,0,0,0,0,0,-1,1854,421,0,0
637,603,0,0,0,0,0,0,0,0,0,-1,1861,421,0,0
644,603,0,0,0,0,0,0,0,0,0,-1,1868,421,0,0
651,603,0,0,0,0,0,0,0,0,0,-1,1875,421,0,0
658,603,0,0,0,0,0,0,0,0,0,-1,1882,421,0,0
665,603,0,0,0,0,0,0,0,0,0,-1,1889,421,0,0
672,603,0,0,0,0,0,0,0,0,0,-1,1896,421,0,0
679,603,0,0,0,0,0,0,0,0,0,-1,1903,421,0,0
686,603,0,0,0,0,0,0,0,0,0,-1,1910,421,0,0
693,603,0,0,0,0,0,0,0,0,0,-1,1917,421,0,0
700,603,0,0,0,0,0,0,0,0,0,-1,1924,421,0,0
707,603,0,0,0,0,0,0,0,0,0,-1,1931,421,0,0
714,603,0,0,0,0,0,0,0,0,0,-1,1938,421,0,0
721,603,0,0,0,0,0,0,0,0,0,-1,1945,421,0,0
728,603,0,0,0,0,0,0,0,0,0,-1,1952,421,0,0
735,603,0,0,0,0,0,0,0,0,0,-1,1959,421,0,0
742,603,0,0,0,0,0,0,0,0,0,-1,1966,421,0,0
749,603,0,0,0,0,0,0,0,0,0,-1,1973,421,0,0
756,603,0,0,0,0,0,0,0,0,0,-1,1980,421,0,0
763,603,0,0,0,0,0,0,0,0,0,-1,1987,421,0,0
770,603,0,0,0,0,0,0,0,0,0,-1,1994,421,0,0
777,603,0,0,0,0,0,0,0,0,0,-1,2001,421,0,0
784,603,0,0,0,0,0,0,0,0,0,-1,2008,421,0,0
791,603,0,0,0,0,0,0,0,0,0,-1,2015,421,0,0
798,603,0,0,0,0,0,0,0,0,0,-1,2022,421,0,0
805,603,0,0,0,0,0,0,0,0,0,-1,2029,421,0,0
812,603,0,0,0,0,0,0,0,0,0,-1,2036,421,0,0
-700,596,0,0,0,0,0,0,0,0,0,-1,524,428,0,0
-693,596,0,0,0,0,0,0,0,0,0,-1,531,428,0,0
-686,596,0,0,0,0,0,0,0,0,0,-1,538,428,0,0
-679,596,0,0,0,0,0,0,0,0,0,-1,545,428,0,0
-672,596,0,0,0,0,0,0,0,0,0,-1,552,428,0,0
-665,596,0,0,0,0,0,0,0,0,0,-1,559,428,0,0
-658,596,0,0,0,0,0,0,0,0,0,-1,566,428,0,0
-651,596,0,0,0,0,0,0,0,0,0,-1,573,428,0,0
-644,596,0,0,0,0,0,0,0,0,0,-1,580,428,0,0
-637,596,0,0,0,0,0,0,0,0,0,-1,587,428,0,0
-630,596,0,0,0,0,0,0,0,0,0,-1,594,428,0,0
-623,596,0,0,0,0,0,0,0,0,0,-1,601,428,0,0
-616,596,0,0,0,0,0,0,0,0,0,-1,608,428,0,0
-609,596,0,0,0,0,0,0,0,0,0,-1,615,428,0,0
-602,596,0,0,0,0,0,0,0,0,0,-1,622,428,0,0
-595,596,0,0,0,0,0,0,0,0,0,-1,629,428,0,0
-588,596,0,0,0,0,0,0,0,0,0,-1,636,428,0,0
-581,596,0,0,0,0,0,0,0,0,0,-1,643,428,0,0
-574,596,0,0,0,0,0,0,0,0,0,-1,650,428,0,0
-567,596,0,0,0,0,0,0,0,0,0,-1,657,428,0,0
-560,596,0,0,0,0,0,0,0,0,0,-1,664,428,0,0
-553,596,0,0,0,0,0,0,0,0,0,-1,671,428,0,0
-546,596,0,0,0,0,0,0,0,0,0,-1,678,428,0,0
-539,596,0,0,0,0,0,0,0,0,0,-1,685,428,0,0
-532,596,0,0,0,0,0,0,0,0,0,-1,692,428,0,0
-525,596,0,0,0,0,0,0,0,0,0,-1,699,428,0,0
-518,596,0,0,0,0,0,0,0,0,0,-1,706,428,0,0
-511,596,0,0,0,0,0,0,0,0,0,-1,713,428,0,0
-504,596,0,0,0,0,0,0,0,0,0,-1,720,428,0,0
-497,596,0,0,0,0,0,0,0,0,0,-1,727,428,0,0
-490,596,0,0,0,0,0,0,0,0,0,-1,734,428,0,0
-483,596,0,0,0,0,0,0,0,0,0,-1,741,428,0,0
-476,596,0,0,0,0,0,0,0,0,0,-1,748,428,0,0
-469,596,0,0,0,0,0,0,0,0,0,-1,755,428,0,0
-462,596,0,0,0,0,0,0,0,0,0,-1,762,428,0,0
-455,596,0,0,0,0,0,0,0,0,0,-1,769,428,0,0
-448,596,0,0,0,0,0,0,0,0,0,-1,776,428,0,0
-441,596,0,0,0,0,0,0,0,0,0,-1,783,428,0,0
-434,596,0,0,0,0,0,0,0,0,0,-1,790,428,0,0
-427,596,0,0,0,0,0,0,0,0,0,-1,797,428,0,0
-420,596,0,0,0,0,0,0,0,0,0,-1,804,428,0,0
-413,596,0,0,0,0,0,0,0,0,0,-1,811,428,0,0
-406,596,0,0,0,0,0,0,0,0,0,-1,818,428,0,0
-399,596,0,0,0,0,0,0,0,0,0,-1,825,428,0,0
-392,596,0,0,0,0,0,0,0,0,0,-1,832,428,0,0
-385,596,0,0,0,0,0,0,0,0,0,-1,839,428,0,0
-378,596,0,0,0,0,0,0,0,0,0,-1,846,428,0,0
-371,596,0,0,0,0,0,0,0,0,0,-1,853,428,0,0
-364,596,0,0,0,0,0,0,0,0,0,-1,860,428,0,0
-357,596,0,0,0,0,0,0,0,0,0,-1,867,428,0,0
-350,596,0,0,0,0,0,0,0,0,0,-1,874,428,0,0
-343,596,0,0,0,0,0,0,0,0,0,-1,881,428,0,0
-336,596,-0.98291,-20.0836,0,0,0,0,0,0,0,-1,888,428,-0.982933,20.0836
-329,596,4.43048,-20.1666,0,0,0,0,0,0,0,-1,895,428,4.43045,20.1666
-322,596,4.29657,-19.996,0,0,0,0,0,0,0,-1,902,428,4.29655,19.996
-315,596,4.20044,-19.8317,0,0,0,0,0,0,0,-1,909,428,4.20045,19.8317
-308,596,0.254761,-20.841,0,0,0,0,0,0,0,-1,916,428,0.254731,20.841
-301,596,4.46637,-24.1416,0,0,0,0,0,0,0,-1,923,428,4.46636,24.1416
-294,596,3.50983,-25.2827,0,0,0,0,0,0,0,-1,930,428,3.50982,25.2827
-287,596,3.62207,-25.9794,0,0,0,0,0,0,0,-1,937,428,3.62205,25.9794
-280,596,3.64838,-26.6506,0,0,0,0,0,0,0,-1,944,428,3.64835,26.6506
-273,596,3.85199,-26.4624,0,0,0,0,0,0,0,-1,951,428,3.85197,26.4624
-266,596,3.86194,-26.9612,0.00254176,0.018456,-0.00878338,0.0223507,-0.00135284,-1.15344,0.0153712,0.0458227,958,428,3.86192,26.9612
-259,596,3.901,-27.5906,0.00144972,0.0168275,-0.00802111,0.0202498,-0.00197252,-1.16753,0.0142031,0.0397265,965,428,3.90102,27.5906
-252,596,3.81671,-28.4338,0.000716886,0.0161663,-0.00696193,0.0188406,-0.00195742,-1.20404,0.0132611,0.0205278,972,428,3.81669,28.4338
-245,596,3.80951,-29.06,0.000139453,0.0153077,-0.00624187,0.017546,-0.00209884,-1.22649,0.012456,0.0143867,979,428,3.80951,29.06
-238,596,3.79779,-29.5768,-0.000211662,0.0145644,-0.00563179,0.0164662,-0.00211341,-1.24514,0.0117455,0.0125609,986,428,3.79782,29.5768
-231,596,3.74042,-30.0786,-0.000573668,0.0137694,-0.00495201,0.015313,-0.00211726,-1.26863,0.0109826,0.0136719,993,428,3.74044,30.0786
-224,596,3.71375,-30.5954,-0.00059242,0.0124848,-0.00456895,0.013923,-0.00203057,-1.26585,0.0100276,0.0141311,1000,428,3.71372,30.5954
-217,596,3.69226,-31.0738,-0.000458326,0.0109139,-0.00420141,0.0122977,-0.00184213,-1.25262,0.00887646,0.0143328,1007,428,3.69226,31.0738
-210,596,3.6994,-31.5226,-0.000300946,0.00885195,-0.00372197,0.0101744,-0.00162339,-1.2294,0.00738379,0.0126007,1014,428,3.69937,31.5226
-203,596,3.68103,-31.972,-8.39613e-05,0.00697108,-0.00314049,0.00816649,-0.00127937,-1.20709,0.00591707,0.0158978,1021,428,3.68106,31.972
-196,596,3.69324,-32.4287,0.000138004,0.00569637,-0.00268424,0.006781,-0.000946624,-1.18678,0.00486699,0.0160769,1028,428,3.69327,32.4287
-189,596,3.6698,-32.8554,0.000413817,0.00407345,-0.00221824,0.00511918,-0.000631919,-1.13027,0.00364175,0.0133772,1035,428,3.6698,32.8554
-182,596,3.62341,-33.2743,0.000574963,0.00252464,-0.00157181,0.00339936,-0.000299762,-1.06297,0.00237248,0.0125472,1042,428,3.62345,33.2743
-175,596,3.58899,-33.718,0.000454813,0.000414801,-0.000557252,0.000992418,-0.000122804,-0.767455,0.000706115,0.0151185,1049,428,3.58898,33.7179
-168,596,3.59326,-34.166,0.000342167,-0.00152938,0.000328326,0.000398094,-0.0015853,0.168721,0.00121157,0.017567,1056,428,3.59325,34.166
-161,596,3.59753,-34.5801,0.000137619,-0.00360396,0.00120911,0.000494339,-0.00396068,0.286888,0.00281971,0.0164016,1063,428,3.5975,34.5801
-154,596,3.57153,-34.9888,-0.000127543,-0.00533548,0.00212909,0.000632069,-0.00609509,0.3427,0.00428963,0.0135274,1070,428,3.57152,34.9888
-147,596,3.60193,-35.3479,-0.000456453,-0.00723712,0.0030929,0.000742376,-0.00843595,0.369777,0.00588705,0.0141152,1077,428,3.60194,35.3479
-140,596,3.61035,-35.692,-0.000801437,-0.00937425,0.0040355,0.000799306,-0.010975,0.377629,0.00759713,0.0153094,1084,428,3.61041,35.6921
-133,596,3.59045,-36.0683,-0.00115058,-0.0114333,0.00490235,0.000812055,-0.0133959,0.380804,0.00921322,0.0152748,1091,428,3.59047,36.0683
-126,596,3.61035,-36.4254,-0.00140462,-0.0132538,0.00563954,0.000850357,-0.0155087,0.380378,0.0106339,0.0118166,1098,428,3.61039,36.4254
-119,596,3.64417,-36.8007,-0.00139707,-0.0149624,0.00610667,0.00094693,-0.0173064,0.366501,0.0118658,0.0141574,1105,428,3.64412,36.8007
-112,596,3.6344,-37.1606,-0.00126766,-0.0164122,0.00635952,0.00104859,-0.0187284,0.349284,0.0128494,0.0150792,1112,428,3.63443,37.1606
-105,596,3.65344,-37.5273,-0.00104047,-0.0175039,0.00645909,0.00119113,-0.0197355,0.332658,0.0135715,0.0178118,1119,428,3.65338,37.5273
-98,596,3.70203,-37.8243,-0.000652743,-0.0181715,0.00653669,0.00151742,-0.0203417,0.320548,0.0140942,0.0178575,1126,428,3.70204,37.8243
-91,596,3.63342,-38.1859,0,0,0,0,0,0,0,-1,1133,428,3.63343,38.1859
-84,596,3.72766,-38.4411,0,0,0,0,0,0,0,-1,1140,428,3.72769,38.4411
-77,596,3.86035,-38.8692,0,0,0,0,0,0,0,-1,1147,428,3.8604,38.8692
-70,596,3.50696,-32.137,0,0,0,0,0,0,0,-1,1154,428,3.50696,32.137
-63,596,1.95569,-12.2758,0,0,0,0,0,0,0,-1,1161,428,1.95563,12.2759
-56,596,1.60107,-10.5827,0,0,0,0,0,0,0,-1,1168,428,1.60108,10.5827
-49,596,1.59473,-10.0393,0,0,0,0,0,0,0,-1,1175,428,1.59472,10.0393
-42,596,1.99585,-6.6246,0,0,0,0,0,0,0,-1,1182,428,1.99586,6.62459
-35,596,3.85229,-39.8449,0,0,0,0,0,0,0,-1,1189,428,3.85224,39.8449
-28,596,4.09058,-40.1044,0,0,0,0,0,0,0,-1,1196,428,4.09052,40.1044
-21,596,4.12305,-40.3151,0,0,0,0,0,0,0,-1,1203,428,4.12309,40.3151
-14,596,4.30029,-40.4529,0,0,0,0,0,0,0,-1,1210,428,4.30032,40.4529
-7,596,4.34961,-40.4942,0,0,0,0,0,0,0,-1,1217,428,4.34961,40.4942
0,596,4.36035,-40.7597,0,0,0,0,0,0,0,-1,1224,428,4.36033,40.7597
7,596,4.48889,-40.5918,0,0,0,0,0,0,0,-1,1231,428,4.48885,40.5918
14,596,4.82898,-40.132,0,0,0,0,0,0,0,-1,1238,428,4.82896,40.132
21,596,4.85974,-40.1392,0,0,0,0,0,0,0,-1,1245,428,4.85972,40.1391
28,596,4.94812,-40.2064,0,0,0,0,0,0,0,-1,1252,428,4.94818,40.2063
35,596,4.98438,-40.193,0,0,0,0,0,0,0,-1,1259,428,4.98442,40.193
42,596,5.11682,-40.244,0,0,0,0,0,0,0,-1,1266,428,5.11684,40.244
49,596,5.33069,-41.3993,0,0,0,0,0,0,0,-1,1273,428,5.33068,41.3993
56,596,4.72656,-41.5208,0,0,0,0,0,0,0,-1,1280,428,4.72662,41.5208
63,596,6.98474,-44.0702,0,0,0,0,0,0,0,-1,1287,428,6.98476,44.0702
70,596,7.21338,-45.9104,0,0,0,0,0,0,0,-1,1294,428,7.21335,45.9104
77,596,4.35864,-39.7874,0,0,0,0,0,0,0,-1,1301,428,4.35863,39.7874
84,596,13.204,-47.3958,0,0,0,0,0,0,0,-1,1308,428,13.2039,47.3959
91,596,12.5405,-49.1078,0,0,0,0,0,0,0,-1,1315,428,12.5405,49.1077
98,596,4.80737,-36.2957,0,0,0,0,0,0,0,-1,1322,428,4.80741,36.2957
105,596,1.75916,-37.2017,0,0,0,0,0,0,0,-1,1329,428,1.7592,37.2017
112,596,6.23291,-40.6639,0,0,0,0,0,0,0,-1,1336,428,6.23288,40.6639
119,596,6.56274,-40.4436,0,0,0,0,0,0,0,-1,1343,428,6.56272,40.4436
126,596,4.38953,-37.0392,0,0,0,0,0,0,0,-1,1350,428,4.38957,37.0392
133,596,6.56323,-39.7746,0,0,0,0,0,0,0,-1,1357,428,6.56328,39.7746
140,596,6.62573,-39.6154,0,0,0,0,0,0,0,-1,1364,428,6.62574,39.6154
147,596,6.39136,-39.5683,0,0,0,0,0,0,0,-1,1371,428,6.39134,39.5683
154,596,6.10132,-39.7697,0,0,0,0,0,0,0,-1,1378,428,6.10131,39.7697
161,596,6.49402,-39.6862,0,0,0,0,0,0,0,-1,1385,428,6.49404,39.6862
168,596,6.79724,-39.3217,0,0,0,0,0,0,0,-1,1392,428,6.79727,39.3217
175,596,6.98657,-39.07,0,0,0,0,0,0,0,-1,1399,428,6.98652,39.07
182,596,7.08655,-39.0862,0,0,0,0,0,0,0,-1,1406,428,7.08651,39.0862
189,596,6.95776,-38.8594,0,0,0,0,0,0,0,-1,1413,428,6.9578,38.8594
196,596,6.88538,-38.3814,0,0,0,0,0,0,0,-1,1420,428,6.88534,38.3814
203,596,6.81299,-38.3285,0,0,0,0,0,0,0,-1,1427,428,6.81304,38.3285
210,596,6.8728,-38.1875,0,0,0,0,0,0,0,-1,1434,428,6.87278,38.1875
217,596,6.9458,-37.8029,0,0,0,0,0,0,0,-1,1441,428,6.94584,37.8029
224,596,7.00281,-37.4499,0,0,0,0,0,0,0,-1,1448,428,7.00281,37.4499
231,596,7.05737,-37.15,0.00251659,-0.00153089,-0.00216108,0.00345356,-0.00246786,-0.409103,0.00343449,0.0220648,1455,428,7.05734,37.15
238,596,7.06421,-36.7856,0.00202683,-0.000755498,-0.00179693,0.00290818,-0.00163684,-0.455996,0.00265807,0.0152556,1462,428,7.06421,36.7857
245,596,7.07861,-36.4188,0.00186585,-0.000183988,-0.00153536,0.00268695,-0.00100509,-0.491093,0.00220409,0.0135468,1469,428,7.07862,36.4188
252,596,7.08606,-36.0189,0.00171352,0.000190586,-0.0011752,0.00235238,-0.000448281,-0.497934,0.00173707,0.0104429,1476,428,7.0861,36.0189
259,596,7.09668,-35.6239,0.00140402,0.000571858,-0.000545243,0.0016738,0.000302071,-0.45948,0.00103005,0.00863219,1483,428,7.09672,35.6239
266,596,7.08545,-35.2381,0.00120683,0.000756541,-2.55702e-05,0.00120828,0.000755093,-0.0565438,0.000704821,0.00996169,1490,428,7.08546,35.2381
273,596,7.09985,-34.8425,0.0012255,0.00105204,0.000413338,0.00156111,0.00071643,0.681982,0.00090232,0.0119967,1497,428,7.09985,34.8425
280,596,7.10767,-34.4274,0.00138062,0.00137437,0.000619339,0.00199684,0.000758146,0.782875,0.00116395,0.0130944,1504,428,7.10766,34.4274
287,596,7.09302,-33.991,0.00158786,0.00180168,0.000559054,0.00226395,0.00112559,0.87987,0.0013071,0.0116643,1511,428,7.09303,33.991
294,596,7.08118,-33.5573,0.00176934,0.00238816,0.000250704,0.00247698,0.00168052,1.23031,0.00146013,0.00874124,1518,428,7.08118,33.5573
301,596,7.08765,-33.1084,0.00191368,0.00300649,-0.000263386,0.00306666,0.00185351,-1.34621,0.00178336,0.0100959,1525,428,7.0876,33.1084
308,596,7.09607,-32.6508,0.00204064,0.00363407,-0.000853842,0.00400517,0.00166954,-1.1608,0.00232302,0.0157697,1532,428,7.09607,32.6508
315,596,7.04504,-32.2103,0.00207401,0.00444445,-0.00147221,0.00514925,0.00136922,-1.12431,0.00307961,0.0162804,1539,428,7.045,32.2103
322,596,7.04224,-31.7366,0.0019469,0.0051863,-0.00207991,0.00620278,0.000930413,-1.11622,0.00386258,0.0138974,1546,428,7.04226,31.7366
329,596,7.01733,-31.245,0.00165818,0.00584767,-0.00254729,0.0070509,0.000454949,-1.12951,0.00455653,0.0106495,1553,428,7.01728,31.245
336,596,6.98279,-30.7849,0.00122382,0.00644898,-0.00279741,0.00766407,8.72812e-06,-1.16102,0.00510647,0.00914188,1560,428,6.98285,30.7849
343,596,6.98596,-30.2958,0.000745892,0.0070466,-0.00278054,0.00809817,-0.000305676,-1.20923,0.0055035,0.0113787,1567,428,6.98592,30.2959
350,596,6.97937,-29.7648,0.000301835,0.00799741,-0.0022448,0.00860435,-0.000305105,-1.30673,0.00584059,0.0119762,1574,428,6.97943,29.7648
357,596,6.93457,-29.2558,-0.000209528,0.00879386,-0.0014319,0.0090161,-0.000431772,-1.41682,0.0061597,0.00986153,1581,428,6.93459,29.2558
364,596,6.90625,-28.7084,-0.000929107,0.00972528,-6.46515e-05,0.00972567,-0.0009295,-1.56473,0.00681478,0.0125113,1588,428,6.90625,28.7084
371,596,6.88806,-28.2026,-0.00170222,0.0105618,0.00155117,0.010755,-0.00189537,1.44691,0.00787816,0.0174655,1595,428,6.88811,28.2026
378,596,6.79871,-27.748,-0.0023178,0.0115051,0.0033595,0.0122783,-0.00309104,1.34457,0.00938708,0.0246465,1602,428,6.79866,27.748
385,596,6.67578,-27.1355,-0.00281575,0.0132465,0.00492396,0.0146358,-0.00420505,1.29579,0.0114199,0.0444664,1609,428,6.67582,27.1355
392,596,6.53125,-26.567,0,0,0,0,0,0,0,-1,1616,428,6.53119,26.567
399,596,6.60474,-25.3487,0,0,0,0,0,0,0,-1,1623,428,6.60478,25.3487
406,596,3.60034,-10.1525,0,0,0,0,0,0,0,-1,1630,428,3.60028,10.1525
413,596,3.39124,-2.63528,0,0,0,0,0,0,0,-1,1637,428,3.39122,2.6353
420,596,2.6344,-3.06308,0,0,0,0,0,0,0,-1,1644,428,2.63439,3.06308
427,596,7.61975,-22.7222,0,0,0,0,0,0,0,-1,1651,428,7.61974,22.7222
434,596,5.09753,-22.5213,0,0,0,0,0,0,0,-1,1658,428,5.09755,22.5213
441,596,7.19043,-22.087,0,0,0,0,0,0,0,-1,1665,428,7.19046,22.087
448,596,1.0769,0.0083313,0,0,0,0,0,0,0,-1,1672,428,1.07684,-0.00832231
455,596,2.00769,-1.43329,0,0,0,0,0,0,0,-1,1679,428,2.00765,1.4333
462,596,0,0,0,0,0,0,0,0,0,-1,1686,428,0,0
469,596,0,0,0,0,0,0,0,0,0,-1,1693,428,0,0
476,596,0,0,0,0,0,0,0,0,0,-1,1700,428,0,0
483,596,0,0,0,0,0,0,0,0,0,-1,1707,428,0,0
490,596,0,0,0,0,0,0,0,0,0,-1,1714,428,0,0
497,596,0,0,0,0,0,0,0,0,0,-1,1721,428,0,0
504,596,0,0,0,0,0,0,0,0,0,-1,1728,428,0,0
511,596,0,0,0,0,0,0,0,0,0,-1,1735,428,0,0
518,596,0,0,0,0,0,0,0,0,0,-1,1742,428,0,0
525,596,0,0,0,0,0,0,0,0,0,-1,1749,428,0,0
532,596,0,0,0,0,0,0,0,0,0,-1,1756,428,0,0
539,596,0,0,0,0,0,0,0,0,0,-1,1763,428,0,0
546,596,0,0,0,0,0,0,0,0,0,-1,1770,428,0,0
553,596,0,0,0,0,0,0,0,0,0,-1,1777,428,0,0
560,596,0,0,0,0,0,0,0,0,0,-1,1784,428,0,0
567,596,0,0,0,0,0,0,0,0,0,-1,1791,428,0,0
574,596,0,0,0,0,0,0,0,0,0,-1,1798,428,0,0
581,596,0,0,0,0,0,0,0,0,0,-1,1805,428,0,0
588,596,0,0,0,0,0,0,0,0,0,-1,1812,428,0,0
595,596,0,0,0,0,0,0,0,0,0,-1,1819,428,0,0
602,596,0,0,0,0,0,0,0,0,0,-1,1826,428,0,0
609,596,0,0,0,0,0,0,0,0,0,-1,1833,428,0,0
616,596,0,0,0,0,0,0,0,0,0,-1,1840,428,0,0
623,596,0,0,0,0,0,0,0,0,0,-1,1847,428,0,0
630,596,0,0,0,0,0,0,0,0,0,-1,1854,428,0,0
637,596,0,0,0,0,0,0,0,0,0,-1,1861,428,0,0
644,596,0,0,0,0,0,0,0,0,0,-1,1868,428,0,0
651,596,0,0,0,0,0,0,0,0,0,-1,1875,428,0,0
658,596,0,0,0,0,0,0,0,0,0,-1,1882,428,0,0
665,596,0,0,0,0,0,0,0,0,0,-1,1889,428,0,0
672,596,0,0,0,0,0,0,0,0,0,-1,1896,428,0,0
679,596,0,0,0,0,0,0,0,0,0,-1,1903,428,0,0
686,596,0,0,0,0,0,0,0,0,0,-1,1910,428,0,0
693,596,0,0,0,0,0,0,0,0,0,-1,1917,428,0,0
700,596,0,0,0,0,0,0,0,0,0,-1,1924,428,0,0
707,596,0,0,0,0,0,0,0,0,0,-1,1931,428,0,0
714,596,0,0,0,0,0,0,0,0,0,-1,1938,428,0,0
721,596,0,0,0,0,0,0,0,0,0,-1,1945,428,0,0
728,596,0,0,0,0,0,0,0,0,0,-1,1952,428,0,0
735,596,0,0,0,0,0,0,0,0,0,-1,1959,428,0,0
742,596,0,0,0,0,0,0,0,0,0,-1,1966,428,0,0
749,596,0,0,0,0,0,0,0,0,0,-1,1973,428,0,0
756,596,0,0,0,0,0,0,0,0,0,-1,1980,428,0,0
763,596,0,0,0,0,0,0,0,0,0,-1,1987,428,0,0
770,596,0,0,0,0,0,0,0,0,0,-1,1994,428,0,0
777,596,0,0,0,0,0,0,0,0,0,-1,2001,428,0,0
784,596,0,0,0,0,0,0,0,0,0,-1,2008,428,0,0
791,596,0,0,0,0,0,0,0,0,0,-1,2015,428,0,0
798,596,0,0,0,0,0,0,0,0,0,-1,2022,428,0,0
805,596,0,0,0,0,0,0,0,0,0,-1,2029,428,0,0
812,596,0,0,0,0,0,0,0,0,0,-1,2036,428,0,0
-700,589,0,0,0,0,0,0,0,0,0,-1,524,435,0,0
-693,589,0,0,0,0,0,0,0,0,0,-1,531,435,0,0
-686,589,0,0,0,0,0,0,0,0,0,-1,538,435,0,0
-679,589,0,0,0,0,0,0,0,0,0,-1,545,435,0,0
-672,589,0,0,0,0,0,0,0,0,0,-1,552,435,0,0
-665,589,0,0,0,0,0,0,0,0,0,-1,559,435,0,0
-658,589,0,0,0,0,0,0,0,0,0,-1,566,435,0,0
-651,589,0,0,0,0,0,0,0,0,0,-1,573,435,0,0
-644,589,0,0,0,0,0,0,0,0,0,-1,580,435,0,0
-637,589,0,0,0,0,0,0,0,0,0,-1,587,435,0,0
-630,589,0,0,0,0,0,0,0,0,0,-1,594,435,0,0
-623,589,0,0,0,0,0,0,0,0,0,-1,601,435,0,0
-616,589,0,0,0,0,0,0,0,0,0,-1,608,435,0,0
-609,589,0,0,0,0,0,0,0,0,0,-1,615,435,0,0
-602,589,0,0,0,0,0,0,0,0,0,-1,622,435,0,0
-595,589,0,0,0,0,0,0,0,0,0,-1,629,435,0,0
-588,589,0,0,0,0,0,0,0,0,0,-1,636,435,0,0
-581,589,0,0,0,0,0,0,0,0,0,-1,643,435,0,0
-574,589,0,0,0,0,0,0,0,0,0,-1,650,435,0,0
-567,589,0,0,0,0,0,0,0,0,0,-1,657,435,0,0
-560,589,0,0,0,0,0,0,0,0,0,-1,664,435,0,0
-553,589,0,0,0,0,0,0,0,0,0,-1,671,435,0,0
-546,589,0,0,0,0,0,0,0,0,0,-1,678,435,0,0
-539,589,0,0,0,0,0,0,0,0,0,-1,685,435,0,0
-532,589,0,0,0,0,0,0,0,0,0,-1,692,435,0,0
-525,589,0,0,0,0,0,0,0,0,0,-1,699,435,0,0
-518,589,0,0,0,0,0,0,0,0,0,-1,706,435,0,0
-511,589,0,0,0,0,0,0,0,0,0,-1,713,435,0,0
-504,589,0,0,0,0,0,0,0,0,0,-1,720,435,0,0
-497,589,0,0,0,0,0,0,0,0,0,-1,727,435,0,0
-490,589,0,0,0,0,0,0,0,0,0,-1,734,435,0,0
-483,589,0,0,0,0,0,0,0,0,0,-1,741,435,0,0
-476,589,0,0,0,0,0,0,0,0,0,-1,748,435,0,0
-469,589,0,0,0,0,0,0,0,0,0,-1,755,435,0,0
-462,589,0,0,0,0,0,0,0,0,0,-1,762,435,0,0
-455,589,0,0,0,0,0,0,0,0,0,-1,769,435,0,0
-448,589,0,0,0,0,0,0,0,0,0,-1,776,435,0,0
-441,589,0,0,0,0,0,0,0,0,0,-1,783,435,0,0
-434,589,0,0,0,0,0,0,0,0,0,-1,790,435,0,0
-427,589,0,0,0,0,0,0,0,0,0,-1,797,435,0,0
-420,589,0,0,0,0,0,0,0,0,0,-1,804,435,0,0
-413,589,0,0,0,0,0,0,0,0,0,-1,811,435,0,0
-406,589,0,0,0,0,0,0,0,0,0,-1,818,435,0,0
-399,589,0,0,0,0,0,0,0,0,0,-1,825,435,0,0
-392,589,0,0,0,0,0,0,0,0,0,-1,832,435,0,0
-385,589,0,0,0,0,0,0,0,0,0,-1,839,435,0,0
-378,589,0,0,0,0,0,0,0,0,0,-1,846,435,0,0
-371,589,0,0,0,0,0,0,0,0,0,-1,853,435,0,0
-364,589,0,0,0,0,0,0,0,0,0,-1,860,435,0,0
-357,589,0,0,0,0,0,0,0,0,0,-1,867,435,0,0
-350,589,-0.799927,-20.664,0,0,0,0,0,0,0,-1,874,435,-0.799952,20.664
-343,589,-0.370911,-19.1543,0,0,0,0,0,0,0,-1,881,435,-0.370922,19.1543
-336,589,-0.836914,-18.9103,0,0,0,0,0,0,0,-1,888,435,-0.836925,18.9103
-329,589,2.58252,-16.902,0,0,0,0,0,0,0,-1,895,435,2.58251,16.902
-322,589,5.25903,-22.0762,0,0,0,0,0,0,0,-1,902,435,5.25906,22.0762
-315,589,4.62878,-22.8981,0,0,0,0,0,0,0,-1,909,435,4.62879,22.8981
-308,589,4.18768,-23.3427,0,0,0,0,0,0,0,-1,916,435,4.18768,23.3428
-301,589,2.93829,-24.3639,0,0,0,0,0,0,0,-1,923,435,2.93831,24.3639
-294,589,3.1084,-25.0854,0,0,0,0,0,0,0,-1,930,435,3.10841,25.0855
-287,589,3.25519,-25.805,0.00723963,0.0189184,-0.00836973,0.0232844,0.00287359,-1.08998,0.0146593,0.0440954,937,435,3.25518,25.805
-280,589,3.34283,-26.4489,0.00509993,0.0173078,-0.00804237,0.0213003,0.00110744,-1.11001,0.0138458,0.0356156,944,435,3.34285,26.4489
-273,589,3.41577,-26.9897,0.00321712,0.0156692,-0.00763694,0.0192964,-0.000410073,-1.12739,0.0130031,0.0217604,951,435,3.41575,26.9896
-266,589,3.38336,-27.4848,0.00167618,0.0142693,-0.00715364,0.0175028,-0.00155728,-1.14628,0.0122207,0.0200771,958,435,3.38339,27.4848
-259,589,3.34253,-28.0092,0.000962438,0.0126997,-0.00651013,0.0155959,-0.00193379,-1.15221,0.0110982,0.017841,965,435,3.34252,28.0092
-252,589,3.35547,-28.6042,0.000548823,0.0120309,-0.00549529,0.014237,-0.00165733,-1.18903,0.0100893,0.0112269,972,435,3.35547,28.6043
-245,589,3.3656,-29.1347,0.000217898,0.0111176,-0.00481749,0.0129416,-0.00160612,-1.20885,0.0092099,0.00982119,979,435,3.36558,29.1347
-238,589,3.33221,-29.6251,9.01273e-05,0.0102356,-0.00420919,0.0117545,-0.00142879,-1.22448,0.00835346,0.0130614,986,435,3.33221,29.6251
-231,589,3.28809,-30.0912,-5.74486e-05,0.00929695,-0.00356523,0.0105008,-0.00126133,-1.24515,0.00745664,0.0152893,993,435,3.28807,30.0912
-224,589,3.25287,-30.5901,2.32266e-05,0.00803669,-0.00311752,0.00910665,-0.00104673,-1.24018,0.0064484,0.0155959,1000,435,3.25285,30.5901
-217,589,3.23987,-31.0631,0.000245788,0.00654075,-0.00271607,0.00755063,-0.000764094,-1.21482,0.00530682,0.0161336,1007,435,3.23989,31.0631
-210,589,3.23157,-31.5087,0.000508212,0.00464656,-0.00225387,0.00563702,-0.000482257,-1.15675,0.00392865,0.0151204,1014,435,3.23156,31.5087
-203,589,3.22339,-31.9518,0.000841292,0.00294804,-0.00178133,0.00396415,-0.000174812,-1.05241,0.00270292,0.0114181,1021,435,3.22345,31.9518
-196,589,3.22229,-32.4007,0.00114883,0.00170237,-0.00140509,0.00285769,-6.49411e-06,-0.882642,0.0019073,0.0137471,1028,435,3.22228,32.4007
-189,589,3.19153,-32.8689,0.00150266,0.000192723,-0.00097679,0.00202375,-0.000328361,-0.490061,0.00147089,0.018207,1035,435,3.19151,32.8689
-182,589,3.18835,-33.2566,0.00159194,-0.000997045,-0.000350669,0.0016386,-0.0010437,-0.132272,0.00156127,0.0140345,1042,435,3.18833,33.2566
-175,589,3.18213,-33.6893,0.00123481,-0.00325462,0.000864341,0.00139547,-0.00341528,0.183779,0.00285793,0.0179608,1049,435,3.18218,33.6893
-168,589,3.19678,-34.1519,0.00097763,-0.00528531,0.00185268,0.00148464,-0.00579232,0.267122,0.00443995,0.0149282,1056,435,3.19679,34.1519
-161,589,3.20117,-34.5614,0.000561219,-0.00755301,0.00287249,0.00147516,-0.00846695,0.308042,0.00619517,0.0132824,1063,435,3.20115,34.5614
-154,589,3.19092,-34.9525,2.0518e-05,-0.00952497,0.00401195,0.00148274,-0.0109872,0.349505,0.00786577,0.0124278,1070,435,3.19096,34.9525
-147,589,3.20911,-35.326,-0.000605681,-0.0117636,0.00525769,0.0014814,-0.0138506,0.377881,0.00976508,0.0121217,1077,435,3.20917,35.3259
-140,589,3.21802,-35.6742,-0.00130868,-0.0143821,0.00655845,0.00141429,-0.0171051,0.393528,0.0119029,0.013369,1084,435,3.21805,35.6742
-133,589,3.21289,-36.042,-0.00205494,-0.0170035,0.00780676,0.00127865,-0.0203371,0.403575,0.0140038,0.0139587,1091,435,3.21295,36.042
-126,589,3.25916,-36.4345,-0.00268114,-0.0194433,0.00891435,0.00117331,-0.0232977,0.408111,0.0159373,0.0119766,1098,435,3.2591,36.4345
-119,589,3.24841,-36.7843,-0.00295131,-0.0218455,0.00964432,0.00110198,-0.0258988,0.397864,0.0176447,0.0177619,1105,435,3.24841,36.7843
-112,589,3.25598,-37.133,-0.00305068,-0.023897,0.0100978,0.00103848,-0.0279862,0.384772,0.0190131,0.0186302,1112,435,3.25596,37.133
-105,589,3.2876,-37.6017,-0.00299397,-0.0254324,0.0103332,0.00103953,-0.0294659,0.372155,0.0199994,0.0332247,1119,435,3.28754,37.6016
-98,589,3.24573,-38.1134,0,0,0,0,0,0,0,-1,1126,435,3.24567,38.1134
-91,589,3.39563,-37.8231,0,0,0,0,0,0,0,-1,1133,435,3.39565,37.8231
-84,589,2.76538,-22.6013,0,0,0,0,0,0,0,-1,1140,435,2.76539,22.6014
-77,589,2.18152,-14.8023,0,0,0,0,0,0,0,-1,1147,435,2.18155,14.8023
-70,589,1.48267,-9.90961,0,0,0,0,0,0,0,-1,1154,435,1.48264,9.9096
-63,589,0.880127,-5.50586,0,0,0,0,0,0,0,-1,1161,435,0.880186,5.50587
-56,589,-2.78052,-7.28082,0,0,0,0,0,0,0,-1,1168,435,-2.78053,7.28082
-49,589,-0.525757,-2.76703,0,0,0,0,0,0,0,-1,1175,435,-0.525771,2.76702
-42,589,-2.7738,-2.87921,0,0,0,0,0,0,0,-1,1182,435,-2.77383,2.87922
-35,589,-2.55225,-3.27551,0,0,0,0,0,0,0,-1,1189,435,-2.55223,3.27552
-28,589,-0.0632324,-3.42938,0,0,0,0,0,0,0,-1,1196,435,-0.063241,3.42938
-21,589,1.48206,-38.5571,0,0,0,0,0,0,0,-1,1203,435,1.48207,38.5571
-14,589,4.38867,-42.835,0,0,0,0,0,0,0,-1,1210,435,4.38867,42.835
-7,589,4.36816,-42.262,0,0,0,0,0,0,0,-1,1217,435,4.36817,42.2619
0,589,4.55725,-41.1282,0,0,0,0,0,0,0,-1,1224,435,4.55726,41.1282
7,589,4.48254,-40.6314,0,0,0,0,0,0,0,-1,1231,435,4.4826,40.6314
14,589,4.19275,-37.289,0,0,0,0,0,0,0,-1,1238,435,4.1927,37.289
21,589,4.49695,-38.0486,0,0,0,0,0,0,0,-1,1245,435,4.49698,38.0486
28,589,4.703,-39.4691,0,0,0,0,0,0,0,-1,1252,435,4.70303,39.4692
35,589,4.9314,-39.7565,0,0,0,0,0,0,0,-1,1259,435,4.93135,39.7565
42,589,5.15967,-40.0439,0,0,0,0,0,0,0,-1,1266,435,5.15968,40.0439
49,589,5.43335,-41.4817,0,0,0,0,0,0,0,-1,1273,435,5.43335,41.4817
56,589,6.13843,-42.3158,0.018567,-0.0530884,-0.0221766,0.0248751,-0.0593965,-0.277129,0.0499965,0.0444256,1280,435,6.13843,42.3158
63,589,6.17822,-43.5699,0,0,0,0,0,0,0,-1,1287,435,6.17827,43.5699
70,589,6.30212,-45.029,0,0,0,0,0,0,0,-1,1294,435,6.30207,45.029
77,589,11.71,-45.2445,0,0,0,0,0,0,0,-1,1301,435,11.71,45.2445
84,589,11.0336,-46.981,0.0176199,-0.0545911,-0.0312195,0.0292456,-0.0662168,-0.356476,0.0564762,0.0444343,1308,435,11.0335,46.981
91,589,10.3705,-48.7035,0.0159142,-0.0564988,-0.0332674,0.0288771,-0.0694617,-0.371559,0.0583654,0.0476887,1315,435,10.3705,48.7035
98,589,9.69434,-50.4797,0,0,0,0,0,0,0,-1,1322,435,9.69436,50.4797
105,589,4.75684,-52.7298,0,0,0,0,0,0,0,-1,1329,435,4.75686,52.7298
112,589,4.90442,-53.9691,0.00464774,-0.0644723,-0.0364317,0.0203039,-0.0801285,-0.405879,0.0613179,0.0438272,1336,435,4.90446,53.9691
119,589,4.27686,-55.11,0.000140509,-0.0682881,-0.0367725,0.0161541,-0.0843016,-0.41071,0.062288,0.0429921,1343,435,4.27689,55.11
126,589,4.76685,-58.652,0,0,0,0,0,0,0,-1,1350,435,4.7669,58.652
133,589,4.88086,-61.8599,0,0,0,0,0,0,0,-1,1357,435,4.88086,61.8599
140,589,4.41968,-63.039,-0.0157498,-0.0790568,-0.0314828,-0.00275907,-0.0920475,-0.391347,0.0604663,0.0495437,1364,435,4.41972,63.039
147,589,4.11401,-64.3374,-0.0209755,-0.0810198,-0.0288184,-0.0093824,-0.092613,-0.382472,0.0588643,0.049788,1371,435,4.11404,64.3374
154,589,3.71851,-65.5449,0,0,0,0,0,0,0,-1,1378,435,3.71855,65.5448
161,589,-7.01355,-34.818,0,0,0,0,0,0,0,-1,1385,435,-7.01359,34.818
168,589,10.0815,-34.5519,0,0,0,0,0,0,0,-1,1392,435,10.0815,34.5519
175,589,8.66992,-7.65527,0,0,0,0,0,0,0,-1,1399,435,8.66994,7.65528
182,589,3.8136,-2.45389,0,0,0,0,0,0,0,-1,1406,435,3.81363,2.4539
189,589,3.69983,-3.68149,0,0,0,0,0,0,0,-1,1413,435,3.69987,3.68147
196,589,3.31055,-5.31677,0,0,0,0,0,0,0,-1,1420,435,3.31059,5.31678
203,589,2.72559,-8.84338,0,0,0,0,0,0,0,-1,1427,435,2.72558,8.84338
210,589,3.62378,-14.4032,0,0,0,0,0,0,0,-1,1434,435,3.62378,14.4032
217,589,4.65601,-22.3745,0,0,0,0,0,0,0,-1,1441,435,4.65607,22.3745
224,589,6.79028,-33.9412,0,0,0,0,0,0,0,-1,1448,435,6.79028,33.9412
231,589,7.46326,-37.2045,0,0,0,0,0,0,0,-1,1455,435,7.46325,37.2045
238,589,7.45093,-36.7963,0,0,0,0,0,0,0,-1,1462,435,7.45088,36.7963
245,589,7.44214,-36.403,0,0,0,0,0,0,0,-1,1469,435,7.44216,36.403
252,589,7.45081,-35.9605,0.00245206,-0.000640157,-0.00222553,0.00361582,-0.00180392,-0.481813,0.00318685,0.0148014,1476,435,7.45078,35.9605
259,589,7.48254,-35.613,0.0021117,-0.000805809,-0.0019522,0.00308996,-0.00178407,-0.464533,0.00284749,0.00972916,1483,435,7.48257,35.613
266,589,7.50342,-35.2261,0.00186809,-0.00102504,-0.00173036,0.0026769,-0.00183385,-0.437245,0.0026194,0.00985584,1490,435,7.50346,35.2261
273,589,7.52893,-34.8542,0.00180955,-0.000919929,-0.00136587,0.00237564,-0.00148602,-0.392905,0.00224916,0.0119635,1497,435,7.52891,34.8542
280,589,7.52734,-34.4463,0.00182711,-0.000814307,-0.000940197,0.00212758,-0.00111478,-0.30933,0.00190218,0.0138809,1504,435,7.52733,34.4463
287,589,7.51672,-34.0207,0.00187795,-0.000594637,-0.000482756,0.00196887,-0.000685549,-0.186139,0.00159111,0.0127317,1511,435,7.51675,34.0207
294,589,7.51819,-33.565,0.00187695,-0.000108456,-2.60949e-05,0.0018773,-0.000108799,-0.0131403,0.00128933,0.0104529,1518,435,7.51813,33.565
301,589,7.52075,-33.1049,0.00183611,0.000431529,0.000408079,0.00194606,0.000321575,0.263192,0.00120458,0.010686,1525,435,7.52079,33.1049
308,589,7.52283,-32.6562,0.00175834,0.000925749,0.000812158,0.00225468,0.000429411,0.548567,0.0013824,0.0104856,1532,435,7.52284,32.6562
315,589,7.52148,-32.1949,0.00160225,0.00160648,0.00118116,0.00278553,0.0004232,0.786294,0.00173326,0.0107118,1539,435,7.52145,32.1949
322,589,7.52258,-31.7308,0.00133813,0.00226681,0.00152824,0.0033997,0.000205242,0.932884,0.00220124,0.011722,1546,435,7.52261,31.7308
329,589,7.50012,-31.2547,0.000980141,0.00285636,0.00183696,0.00398089,-0.000144387,1.02148,0.00270334,0.0106503,1553,435,7.50008,31.2547
336,589,7.47644,-30.796,0.000577982,0.00341128,0.00209809,0.00452621,-0.000536949,1.08234,0.00321145,0.0097903,1560,435,7.47646,30.796
343,589,7.45825,-30.3036,0.000171919,0.00399499,0.00232792,0.00509562,-0.000928715,1.12915,0.00374523,0.0103571,1567,435,7.45831,30.3036
350,589,7.43982,-29.7701,-0.000168985,0.0049323,0.00270446,0.00609917,-0.00133585,1.16347,0.00457685,0.0158441,1574,435,7.43979,29.7701
357,589,7.42798,-29.2591,-0.000530833,0.0058174,0.00312455,0.00709725,-0.00181069,1.18203,0.00543652,0.0134319,1581,435,7.42793,29.2591
364,589,7.4248,-28.7511,-0.000897802,0.00665317,0.00349288,0.00802108,-0.00226571,1.19753,0.00624125,0.0103176,1588,435,7.42485,28.7511
371,589,7.37891,-28.2277,-0.00121209,0.00764341,0.00387116,0.00909706,-0.00266574,1.21158,0.00712158,0.0103979,1595,435,7.3789,28.2277
378,589,7.33862,-27.6946,-0.00152027,0.00893264,0.00409836,0.0103479,-0.00293553,1.23829,0.00805738,0.0121401,1602,435,7.33856,27.6946
385,589,7.31189,-27.1208,-0.00192834,0.0108423,0.00407018,0.0120292,-0.00311525,1.28705,0.00923473,0.0175281,1609,435,7.31185,27.1208
392,589,7.26636,-26.438,-0.00219967,0.0125005,0.00408652,0.0135601,-0.00325931,1.31708,0.0102999,0.0239811,1616,435,7.26639,26.438
399,589,7.25269,-25.7202,-0.00219389,0.014435,0.00418107,0.0154271,-0.00318596,1.33783,0.0114948,0.0380288,1623,435,7.25265,25.7203
406,589,7.23511,-25.1998,0,0,0,0,0,0,0,-1,1630,435,7.23506,25.1998
413,589,5.61377,-19.0606,0,0,0,0,0,0,0,-1,1637,435,5.61372,19.0606
420,589,2.79724,-5.79956,0,0,0,0,0,0,0,-1,1644,435,2.7973,5.79955
427,589,6.08496,-23.9099,0,0,0,0,0,0,0,-1,1651,435,6.08496,23.9099
434,589,5.97327,-22.6799,0,0,0,0,0,0,0,-1,1658,435,5.97322,22.6799
441,589,5.7854,-22.2304,0,0,0,0,0,0,0,-1,1665,435,5.78543,22.2304
448,589,0.453735,-3.2868,0,0,0,0,0,0,0,-1,1672,435,0.453701,3.28681
455,589,0.664307,-3.46848,0,0,0,0,0,0,0,-1,1679,435,0.66425,3.46846
462,589,3.46716,-4.41891,0,0,0,0,0,0,0,-1,1686,435,3.4672,4.41891
469,589,0.0238037,-3.81497,0,0,0,0,0,0,0,-1,1693,435,0.0237965,3.81498
476,589,0,0,0,0,0,0,0,0,0,-1,1700,435,0,0
483,589,0,0,0,0,0,0,0,0,0,-1,1707,435,0,0
490,589,0,0,0,0,0,0,0,0,0,-1,1714,435,0,0
497,589,0,0,0,0,0,0,0,0,0,-1,1721,435,0,0
504,589,0,0,0,0,0,0,0,0,0,-1,1728,435,0,0
511,589,0,0,0,0,0,0,0,0,0,-1,1735,435,0,0
518,589,0,0,0,0,0,0,0,0,0,-1,1742,435,0,0
525,589,0,0,0,0,0,0,0,0,0,-1,1749,435,0,0
532,589,0,0,0,0,0,0,0,0,0,-1,1756,435,0,0
539,589,0,0,0,0,0,0,0,0,0,-1,1763,435,0,0
546,589,0,0,0,0,0,0,0,0,0,-1,1770,435,0,0
553,589,0,0,0,0,0,0,0,0,0,-1,1777,435,0,0
560,589,0,0,0,0,0,0,0,0,0,-1,1784,435,0,0
567,589,0,0,0,0,0,0,0,0,0,-1,1791,435,0,0
574,589,0,0,0,0,0,0,0,0,0,-1,1798,435,0,0
581,589,0,0,0,0,0,0,0,0,0,-1,1805,435,0,0
588,589,0,0,0,0,0,0,0,0,0,-1,1812,435,0,0
595,589,0,0,0,0,0,0,0,0,0,-1,1819,435,0,0
602,589,0,0,0,0,0,0,0,0,0,-1,1826,435,0,0
609,589,0,0,0,0,0,0,0,0,0,-1,1833,435,0,0
616,589,0,0,0,0,0,0,0,0,0,-1,1840,435,0,0
623,589,0,0,0,0,0,0,0,0,0,-1,1847,435,0,0
630,589,0,0,0,0,0,0,0,0,0,-1,1854,435,0,0
637,589,0,0,0,0,0,0,0,0,0,-1,1861,435,0,0
644,589,0,0,0,0,0,0,0,0,0,-1,1868,435,0,0
651,589,0,0,0,0,0,0,0,0,0,-1,1875,435,0,0
658,589,0,0,0,0,0,0,0,0,0,-1,1882,435,0,0
665,589,0,0,0,0,0,0,0,0,0,-1,1889,435,0,0
672,589,0,0,0,0,0,0,0,0,0,-1,1896,435,0,0
679,589,0,0,0,0,0,0,0,0,0,-1,1903,435,0,0
686,589,0,0,0,0,0,0,0,0,0,-1,1910,435,0,0
693,589,0,0,0,0,0,0,0,0,0,-1,1917,435,0,0
700,589,0,0,0,0,0,0,0,0,0,-1,1924,435,0,0
707,589,0,0,0,0,0,0,0,0,0,-1,1931,435,0,0
714,589,0,0,0,0,0,0,0,0,0,-1,1938,435,0,0
721,589,0,0,0,0,0,0,0,0,0,-1,1945,435,0,0
728,589,0,0,0,0,0,0,0,0,0,-1,1952,435,0,0
735,589,0,0,0,0,0,0,0,0,0,-1,1959,435,0,0
742,589,0,0,0,0,0,0,0,0,0,-1,1966,435,0,0
749,589,0,0,0,0,0,0,0,0,0,-1,1973,435,0,0
756,589,0,0,0,0,0,0,0,0,0,-1,1980,435,0,0
763,589,0,0,0,0,0,0,0,0,0,-1,1987,435,0,0
770,589,0,0,0,0,0,0,0,0,0,-1,1994,435,0,0
777,589,0,0,0,0,0,0,0,0,0,-1,2001,435,0,0
784,589,0,0,0,0,0,0,0,0,0,-1,2008,435,0,0
791,589,0,0,0,0,0,0,0,0,0,-1,2015,435,0,0
798,589,0,0,0,0,0,0,0,0,0,-1,2022,435,0,0
805,589,0,0,0,0,0,0,0,0,0,-1,2029,435,0,0
812,589,0,0,0,0,0,0,0,0,0,-1,2036,435,0,0
-700,582,0,0,0,0,0,0,0,0,0,-1,524,442,0,0
-693,582,0,0,0,0,0,0,0,0,0,-1,531,442,0,0
-686,582,0,0,0,0,0,0,0,0,0,-1,538,442,0,0
-679,582,0,0,0,0,0,0,0,0,0,-1,545,442,0,0
-672,582,0,0,0,0,0,0,0,0,0,-1,552,442,0,0
-665,582,0,0,0,0,0,0,0,0,0,-1,559,442,0,0
-658,582,0,0,0,0,0,0,0,0,0,-1,566,442,0,0
-651,582,0,0,0,0,0,0,0,0,0,-1,573,442,0,0
-644,582,0,0,0,0,0,0,0,0,0,-1,580,442,0,0
-637,582,0,0,0,0,0,0,0,0,0,-1,587,442,0,0
-630,582,0,0,0,0,0,0,0,0,0,-1,594,442,0,0
-623,582,0,0,0,0,0,0,0,0,0,-1,601,442,0,0
-616,582,0,0,0,0,0,0,0,0,0,-1,608,442,0,0
-609,582,0,0,0,0,0,0,0,0,0,-1,615,442,0,0
-602,582,0,0,0,0,0,0,0,0,0,-1,622,442,0,0
-595,582,0,0,0,0,0,0,0,0,0,-1,629,442,0,0
-588,582,0,0,0,0,0,0,0,0,0,-1,636,442,0,0
-581,582,0,0,0,0,0,0,0,0,0,-1,643,442,0,0
-574,582,0,0,0,0,0,0,0,0,0,-1,650,442,0,0
-567,582,0,0,0,0,0,0,0,0,0,-1,657,442,0,0
-560,582,0,0,0,0,0,0,0,0,0,-1,664,442,0,0
-553,582,0,0,0,0,0,0,0,0,0,-1,671,442,0,0
-546,582,0,0,0,0,0,0,0,0,0,-1,678,442,0,0
-539,582,0,0,0,0,0,0,0,0,0,-1,685,442,0,0
-532,582,0,0,0,0,0,0,0,0,0,-1,692,442,0,0
-525,582,0,0,0,0,0,0,0,0,0,-1,699,442,0,0
-518,582,0,0,0,0,0,0,0,0,0,-1,706,442,0,0
-511,582,0,0,0,0,0,0,0,0,0,-1,713,442,0,0
-504,582,0,0,0,0,0,0,0,0,0,-1,720,442,0,0
-497,582,0,0,0,0,0,0,0,0,0,-1,727,442,0,0
-490,582,0,0,0,0,0,0,0,0,0,-1,734,442,0,0
-483,582,0,0,0,0,0,0,0,0,0,-1,741,442,0,0
-476,582,0,0,0,0,0,0,0,0,0,-1,748,442,0,0
-469,582,0,0,0,0,0,0,0,0,0,-1,755,442,0,0
-462,582,0,0,0,0,0,0,0,0,0,-1,762,442,0,0
-455,582,0,0,0,0,0,0,0,0,0,-1,769,442,0,0
-448,582,0,0,0,0,0,0,0,0,0,-1,776,442,0,0
-441,582,0,0,0,0,0,0,0,0,0,-1,783,442,0,0
-434,582,0,0,0,0,0,0,0,0,0,-1,790,442,0,0
-427,582,0,0,0,0,0,0,0,0,0,-1,797,442,0,0
-420,582,0,0,0,0,0,0,0,0,0,-1,804,442,0,0
-413,582,0,0,0,0,0,0,0,0,0,-1,811,442,0,0
-406,582,0,0,0,0,0,0,0,0,0,-1,818,442,0,0
-399,582,0,0,0,0,0,0,0,0,0,-1,825,442,0,0
-392,582,0,0,0,0,0,0,0,0,0,-1,832,442,0,0
-385,582,0,0,0,0,0,0,0,0,0,-1,839,442,0,0
-378,582,0,0,0,0,0,0,0,0,0,-1,846,442,0,0
-371,582,0,0,0,0,0,0,0,0,0,-1,853,442,0,0
-364,582,0,0,0,0,0,0,0,0,0,-1,860,442,0,0
-357,582,-1.4903,-21.5295,0,0,0,0,0,0,0,-1,867,442,-1.49031,21.5295
-350,582,-0.880859,-19.7966,0,0,0,0,0,0,0,-1,874,442,-0.880885,19.7966
-343,582,-0.208557,-18.0078,0,0,0,0,0,0,0,-1,881,442,-0.208576,18.0078
-336,582,-0.167114,-18.7637,0,0,0,0,0,0,0,-1,888,442,-0.167108,18.7637
-329,582,4.35913,-21.6647,0,0,0,0,0,0,0,-1,895,442,4.35915,21.6647
-322,582,3.87134,-22.3497,0,0,0,0,0,0,0,-1,902,442,3.87131,22.3497
-315,582,3.45166,-22.9264,0,0,0,0,0,0,0,-1,909,442,3.45167,22.9264
-308,582,2.88861,-24.0591,0,0,0,0,0,0,0,-1,916,442,2.88864,24.059
-301,582,3.39935,-24.5706,0,0,0,0,0,0,0,-1,923,442,3.39935,24.5706
-294,582,2.70703,-24.8882,0,0,0,0,0,0,0,-1,930,442,2.70701,24.8882
-287,582,2.93439,-25.7498,0.00503417,0.0155871,-0.00657572,0.0187416,0.00187967,-1.1235,0.0119173,0.0376813,937,442,2.93436,25.7498
-280,582,3.01727,-26.3655,0.00357301,0.0139142,-0.00635395,0.0169355,0.000551676,-1.12694,0.011111,0.0188332,944,442,3.01729,26.3655
-273,582,2.99561,-26.9745,0.00221727,0.0122891,-0.0060558,0.0151293,-0.000622918,-1.13225,0.0103001,0.0114004,951,442,2.99558,26.9745
-266,582,2.953,-27.5451,0.00111756,0.0108162,-0.00567114,0.0134286,-0.00149487,-1.13912,0.00949005,0.0105003,958,442,2.95297,27.5451
-259,582,2.92194,-28.084,0.000729476,0.00925182,-0.00512474,0.0116555,-0.00167422,-1.13222,0.00838432,0.00867057,965,442,2.92191,28.084
-252,582,2.89923,-28.6158,0.000561769,0.0085143,-0.00415478,0.0102889,-0.00121287,-1.16712,0.00729725,0.00856303,972,442,2.89925,28.6158
-245,582,2.88818,-29.0993,0.000428135,0.00752623,-0.00349868,0.00896081,-0.00100644,-1.18167,0.00633606,0.011542,979,442,2.8882,29.0993
-238,582,2.8634,-29.5673,0.000488223,0.00649042,-0.0028865,0.00765327,-0.000674631,-1.18783,0.00534128,0.0160833,986,442,2.8634,29.5673
-231,582,2.83575,-30.0616,0.000548973,0.00536204,-0.00227996,0.00627057,-0.000359551,-1.1916,0.00430524,0.0136295,993,442,2.83578,30.0616
-224,582,2.81793,-30.5533,0.00072435,0.00403194,-0.00176918,0.00479994,-4.36411e-05,-1.16125,0.0032146,0.011597,1000,442,2.81796,30.5533
-217,582,2.77734,-31.0107,0.0010246,0.00251672,-0.00132337,0.00328984,0.000251476,-1.04207,0.00211439,0.0133161,1007,442,2.77735,31.0107
-210,582,2.78247,-31.4738,0.00138499,0.000711556,-0.000866399,0.00197781,0.000118745,-0.600059,0.00128079,0.0128958,1014,442,2.78246,31.4738
-203,582,2.8028,-31.9488,0.00182433,-0.000931123,-0.000452259,0.00189666,-0.00100345,-0.158591,0.00170065,0.0101886,1021,442,2.80281,31.9488
-196,582,2.78003,-32.4257,0.00221654,-0.00227261,-0.000108794,0.00221918,-0.00227525,-0.0242159,0.00259492,0.0168096,1028,442,2.78002,32.4256
-189,582,2.74536,-32.8589,0.00267023,-0.00377739,0.000304156,0.00268455,-0.0037917,0.0470341,0.00375723,0.02524,1035,442,2.74536,32.8589
-182,582,2.73315,-33.2908,0.00266851,-0.00462309,0.000945652,0.00278916,-0.00474374,0.126894,0.00439765,0.0180887,1042,442,2.73311,33.2908
-175,582,2.7522,-33.6804,0.00201211,-0.00711642,0.00244327,0.00262491,-0.00772923,0.245745,0.00621538,0.015684,1049,442,2.75226,33.6804
-168,582,2.76404,-34.1077,0.00158006,-0.00926624,0.00358626,0.00265858,-0.0103448,0.292135,0.00793262,0.01265,1056,442,2.76406,34.1077
-161,582,2.77576,-34.5132,0.000902098,-0.011753,0.00481657,0.00252673,-0.0133777,0.325317,0.00986909,0.0132501,1063,442,2.77576,34.5132
-154,582,2.78735,-34.9149,-1.12904e-07,-0.0139847,0.00627159,0.00240041,-0.0163852,0.365558,0.0118053,0.0122844,1070,442,2.78731,34.915
-147,582,2.80981,-35.3108,-0.00105119,-0.0165867,0.0079129,0.00226942,-0.0199073,0.397327,0.0140891,0.0112638,1077,442,2.80979,35.3108
-140,582,2.7887,-35.6624,-0.00228173,-0.0197887,0.00972155,0.00204653,-0.024117,0.418874,0.0168017,0.0122187,1084,442,2.78867,35.6623
-133,582,2.84985,-36.0208,-0.00364013,-0.0231317,0.0115352,0.00171509,-0.0284869,0.434642,0.019588,0.0171119,1091,442,2.8499,36.0208
-126,582,2.88208,-36.3093,-0.00488173,-0.0264322,0.0132327,0.00140791,-0.0327218,0.443702,0.0222987,0.0164979,1098,442,2.88206,36.3093
-119,582,2.82251,-36.5457,-0.00568314,-0.029805,0.0144499,0.00107791,-0.0365661,0.437635,0.0247445,0.0207742,1105,442,2.82255,36.5457
-112,582,2.75171,-36.9825,-0.00627278,-0.0327769,0.0153017,0.000717686,-0.0397674,0.428529,0.026754,0.0308001,1112,442,2.75175,36.9825
-105,582,2.86609,-37.7,0,0,0,0,0,0,0,-1,1119,442,2.86609,37.7001
-98,582,2.61938,-32.8673,0,0,0,0,0,0,0,-1,1126,442,2.61944,32.8673
-91,582,2.16492,-24.1119,0,0,0,0,0,0,0,-1,1133,442,2.16496,24.1119
-84,582,2.10278,-16.7533,0,0,0,0,0,0,0,-1,1140,442,2.10279,16.7533
-77,582,2.30212,-11.4907,0,0,0,0,0,0,0,-1,1147,442,2.30207,11.4907
-70,582,1.49255,-6.36548,0,0,0,0,0,0,0,-1,1154,442,1.49251,6.36549
-63,582,-4.62915,-4.0347,0,0,0,0,0,0,0,-1,1161,442,-4.6292,4.03471
-56,582,-5.81714,-5.24149,0,0,0,0,0,0,0,-1,1168,442,-5.81718,5.24149
-49,582,-3.88672,-10.1064,0,0,0,0,0,0,0,-1,1175,442,-3.88678,10.1064
-42,582,-0.948975,1.13968,0,0,0,0,0,0,0,-1,1182,442,-0.949003,-1.13969
-35,582,-2.58435,-3.86911,0,0,0,0,0,0,0,-1,1189,442,-2.58437,3.86912
-28,582,-0.825317,-3.45941,0,0,0,0,0,0,0,-1,1196,442,-0.825377,3.45942
-21,582,4.52686,-43.0675,0,0,0,0,0,0,0,-1,1203,442,4.52682,43.0676
-14,582,4.45166,-42.5293,-0.00814515,-0.0204008,0.0118996,-0.000888268,-0.0276577,0.547625,0.0181496,0.0480243,1210,442,4.45166,42.5293
-7,582,4.43323,-41.9695,-0.00626803,-0.0249354,0.00826107,-0.00313724,-0.0280661,0.362256,0.0177576,0.0481454,1217,442,4.43328,41.9695
0,582,4.35205,-41.4478,0,0,0,0,0,0,0,-1,1224,442,4.35199,41.4478
7,582,4.25854,-40.9051,0,0,0,0,0,0,0,-1,1231,442,4.2585,40.9051
14,582,3.90149,-36.8334,0,0,0,0,0,0,0,-1,1238,442,3.9015,36.8335
21,582,4.14856,-37.5852,0.00766092,-0.0442308,-0.0102624,0.00961676,-0.0461867,-0.188324,0.0344471,0.0434748,1245,442,4.1485,37.5852
28,582,4.38147,-38.2962,0.0116295,-0.0495742,-0.0143174,0.0148132,-0.0527579,-0.218803,0.0410113,0.0447865,1252,442,4.3815,38.2962
35,582,4.67761,-39.065,0,0,0,0,0,0,0,-1,1259,442,4.67757,39.065
42,582,4.96765,-39.8104,0.0170608,-0.0572445,-0.0210753,0.0226222,-0.0628059,-0.258,0.0511084,0.0492803,1266,442,4.96771,39.8104
49,582,4.98706,-40.649,0.0197902,-0.0603411,-0.024501,0.026688,-0.0672388,-0.274424,0.0558879,0.0442213,1273,442,4.98704,40.649
56,582,5.05042,-41.7897,0.0219628,-0.0626439,-0.0269532,0.0298197,-0.0705008,-0.283641,0.0594863,0.0443334,1280,442,5.05039,41.7897
63,582,5.89819,-42.1788,0,0,0,0,0,0,0,-1,1287,442,5.89819,42.1788
70,582,10.2052,-43.1028,0,0,0,0,0,0,0,-1,1294,442,10.2052,43.1028
77,582,9.54431,-44.8153,0,0,0,0,0,0,0,-1,1301,442,9.5443,44.8153
84,582,8.87158,-46.5718,0.0224006,-0.0655806,-0.0373831,0.0361393,-0.0793193,-0.352188,0.0681963,0.0443339,1308,442,8.87163,46.5718
91,582,8.21619,-48.2964,0.0206823,-0.0678159,-0.0397796,0.0359344,-0.083068,-0.366129,0.0704795,0.0478444,1315,442,8.21622,48.2964
98,582,4.474,-50.0762,0,0,0,0,0,0,0,-1,1322,442,4.474,50.0762
105,582,4.47156,-51.9952,0.0114299,-0.0739346,-0.041989,0.0286212,-0.0911259,-0.388605,0.0722072,0.0450088,1329,442,4.4715,51.9952
112,582,4.5708,-53.8279,0.00701822,-0.0773746,-0.0433495,0.0253174,-0.0956738,-0.399438,0.073686,0.0432166,1336,442,4.57081,53.8279
119,582,4.15088,-55.4159,0.00119342,-0.0821458,-0.0437215,0.0199219,-0.100874,-0.404712,0.07478,0.0415265,1343,442,4.15093,55.4159
126,582,4.23486,-57.3761,-0.00564429,-0.087321,-0.0425407,0.0124875,-0.105453,-0.402906,0.0748126,0.0490031,1350,442,4.23488,57.3761
133,582,3.97876,-59.0426,0,0,0,0,0,0,0,-1,1357,442,3.9787,59.0426
140,582,3.58765,-61.7343,-0.020825,-0.0965748,-0.0372829,-0.00555365,-0.111846,-0.388761,0.0727835,0.041186,1364,442,3.58761,61.7343
147,582,3.09082,-63.031,-0.0284269,-0.099543,-0.0340705,-0.0147389,-0.113231,-0.382019,0.0710855,0.043529,1371,442,3.09086,63.031
154,582,2.68921,-64.3158,-0.0351769,-0.100849,-0.0311208,-0.0227724,-0.113254,-0.379293,0.0691726,0.0435607,1378,442,2.68927,64.3158
161,582,2.4502,-65.4892,0,0,0,0,0,0,0,-1,1385,442,2.4502,65.4892
168,582,-6.51233,-33.5053,0,0,0,0,0,0,0,-1,1392,442,-6.51232,33.5053
175,582,6.50549,-2.00424,0,0,0,0,0,0,0,-1,1399,442,6.50546,2.00425
182,582,5.18958,-2.18652,0,0,0,0,0,0,0,-1,1406,442,5.1896,2.18652
189,582,6.19751,-0.880951,0,0,0,0,0,0,0,-1,1413,442,6.19754,0.88096
196,582,4.87354,-2.22327,0,0,0,0,0,0,0,-1,1420,442,4.87348,2.22325
203,582,3.11401,-4.48257,0,0,0,0,0,0,0,-1,1427,442,3.11404,4.48259
210,582,2.93115,-11.0731,0,0,0,0,0,0,0,-1,1434,442,2.93113,11.0731
217,582,4.94092,-16.5476,0,0,0,0,0,0,0,-1,1441,442,4.94087,16.5476
224,582,5.21008,-20.9908,0,0,0,0,0,0,0,-1,1448,442,5.21006,20.9908
231,582,5.70032,-25.622,0,0,0,0,0,0,0,-1,1455,442,5.70026,25.6221
238,582,6.44189,-30.7028,0,0,0,0,0,0,0,-1,1462,442,6.44195,30.7028
245,582,8.07556,-36.5317,0,0,0,0,0,0,0,-1,1469,442,8.07551,36.5317
252,582,7.96594,-36.055,0.00334425,-0.000778209,-0.00282325,0.00477864,-0.0022126,-0.47008,0.00412603,0.0376227,1476,442,7.96595,36.055
259,582,7.89258,-35.6295,0.00304528,-0.00154466,-0.00260389,0.00422121,-0.00272058,-0.424187,0.00403894,0.0225422,1483,442,7.89253,35.6295
266,582,7.89404,-35.2509,0.0027666,-0.00228766,-0.00249829,0.00379304,-0.0033141,-0.38983,0.00410641,0.0152467,1490,442,7.89399,35.2509
273,582,7.94739,-34.8581,0.00267446,-0.00254639,-0.00221471,0.00348738,-0.00335931,-0.351786,0.00395316,0.0131404,1497,442,7.94744,34.8581
280,582,7.96252,-34.4547,0.00263695,-0.00281857,-0.00188489,0.00322483,-0.00340646,-0.302332,0.00382906,0.0123317,1504,442,7.96255,34.4547
287,582,7.9873,-34.008,0.00261469,-0.00287892,-0.00152418,0.00300923,-0.00327347,-0.253296,0.00362839,0.0122524,1511,442,7.98725,34.008
294,582,7.97449,-33.5499,0.00253155,-0.00249516,-0.00114478,0.00277998,-0.0027436,-0.213701,0.00318906,0.00973503,1518,442,7.97446,33.5499
301,582,7.97253,-33.0983,0.00242272,-0.00199834,-0.000756329,0.00254853,-0.00212415,-0.164831,0.00270148,0.0100874,1525,442,7.97257,33.0983
308,582,7.97827,-32.6454,0.00225999,-0.00157833,-0.000412556,0.00230384,-0.00162218,-0.105872,0.00227804,0.0125618,1532,442,7.97823,32.6454
315,582,7.97156,-32.1747,0.00195647,-0.000909376,-0.000126738,0.00196206,-0.00091497,-0.0441089,0.00169733,0.0124547,1539,442,7.97152,32.1747
322,582,7.98157,-31.711,0.00158381,-0.000196659,0.000200838,0.00160618,-0.000219033,0.110943,0.00115077,0.0100272,1546,442,7.98152,31.711
329,582,7.96997,-31.2591,0.00118251,0.000496656,0.000532147,0.00147266,0.000206512,0.499176,0.000920686,0.0103007,1553,442,7.96994,31.2591
336,582,7.96143,-30.7839,0.000804928,0.00117596,0.000850469,0.00186091,0.000119978,0.892784,0.00120261,0.0109257,1560,442,7.96143,30.7839
343,582,7.94263,-30.2588,0.000422879,0.00187393,0.00114114,0.00250066,-0.00020385,1.06856,0.00173904,0.0130905,1567,442,7.94258,30.2588
350,582,7.93018,-29.753,8.93018e-05,0.00283419,0.00153177,0.00351842,-0.000594928,1.1507,0.00256701,0.0167316,1574,442,7.93021,29.753
357,582,7.92505,-29.2403,-0.000239646,0.00378503,0.00195901,0.00458111,-0.00103573,1.18481,0.00345151,0.0143935,1581,442,7.92503,29.2403
364,582,7.90417,-28.7364,-0.000505441,0.00465343,0.00239201,0.00559183,-0.00144385,1.19694,0.00429092,0.0105762,1588,442,7.90416,28.7364
371,582,7.86755,-28.2301,-0.000694981,0.00562428,0.00285103,0.00672043,-0.00179113,1.20375,0.00518157,0.0141729,1595,442,7.86752,28.2301
378,582,7.83301,-27.7136,-0.00090533,0.00675059,0.0031445,0.00787653,-0.00203127,1.22695,0.006043,0.0153142,1602,442,7.83303,27.7136
385,582,7.80176,-27.1696,-0.00118702,0.00836091,0.00321377,0.00934187,-0.00216797,1.27454,0.00706237,0.0115489,1609,442,7.80177,27.1697
392,582,7.77283,-26.6106,-0.00133395,0.00970909,0.00332134,0.0106311,-0.00225592,1.30003,0.0079468,0.0111528,1616,442,7.77283,26.6106
399,582,7.74658,-26.0833,-0.00127474,0.0111311,0.00348155,0.0120414,-0.00218501,1.31507,0.00884634,0.0208349,1623,442,7.74662,26.0833
406,582,7.74695,-25.3794,-0.00126989,0.0126778,0.00354484,0.013527,-0.00211912,1.33566,0.00980103,0.037913,1630,442,7.74689,25.3794
413,582,7.65466,-24.9531,0,0,0,0,0,0,0,-1,1637,442,7.65464,24.9531
420,582,7.56335,-24.3458,0,0,0,0,0,0,0,-1,1644,442,7.5634,24.3458
427,582,7.13477,-23.7824,-0.00582264,0.0139281,0.00211222,0.0141515,-0.006046,1.46544,0.0119699,0.0464889,1651,442,7.13474,23.7825
434,582,7.02502,-22.9481,-0.0101216,0.0127258,0.00199824,0.0128993,-0.010295,1.48421,0.0134193,0.0473103,1658,442,7.02498,22.9481
441,582,6.88367,-22.4068,0,0,0,0,0,0,0,-1,1665,442,6.88371,22.4068
448,582,8.15295,-21.6339,0,0,0,0,0,0,0,-1,1672,442,8.15291,21.6339
455,582,6.4585,-19.4734,0,0,0,0,0,0,0,-1,1679,442,6.45854,19.4734
462,582,5.35022,-19.2616,0,0,0,0,0,0,0,-1,1686,442,5.35025,19.2616
469,582,6.20471,-20.7091,0,0,0,0,0,0,0,-1,1693,442,6.20476,20.7091
476,582,1.93579,-8.53891,0,0,0,0,0,0,0,-1,1700,442,1.93579,8.53892
483,582,0,0,0,0,0,0,0,0,0,-1,1707,442,0,0
490,582,0,0,0,0,0,0,0,0,0,-1,1714,442,0,0
497,582,0,0,0,0,0,0,0,0,0,-1,1721,442,0,0
504,582,0,0,0,0,0,0,0,0,0,-1,1728,442,0,0
511,582,0,0,0,0,0,0,0,0,0,-1,1735,442,0,0
518,582,0,0,0,0,0,0,0,0,0,-1,1742,442,0,0
525,582,0,0,0,0,0,0,0,0,0,-1,1749,442,0,0
532,582,0,0,0,0,0,0,0,0,0,-1,1756,442,0,0
539,582,0,0,0,0,0,0,0,0,0,-1,1763,442,0,0
546,582,0,0,0,0,0,0,0,0,0,-1,1770,442,0,0
553,582,0,0,0,0,0,0,0,0,0,-1,1777,442,0,0
560,582,0,0,0,0,0,0,0,0,0,-1,1784,442,0,0
567,582,0,0,0,0,0,0,0,0,0,-1,1791,442,0,0
574,582,0,0,0,0,0,0,0,0,0,-1,1798,442,0,0
581,582,0,0,0,0,0,0,0,0,0,-1,1805,442,0,0
588,582,0,0,0,0,0,0,0,0,0,-1,1812,442,0,0
595,582,0,0,0,0,0,0,0,0,0,-1,1819,442,0,0
602,582,0,0,0,0,0,0,0,0,0,-1,1826,442,0,0
609,582,0,0,0,0,0,0,0,0,0,-1,1833,442,0,0
616,582,0,0,0,0,0,0,0,0,0,-1,1840,442,0,0
623,582,0,0,0,0,0,0,0,0,0,-1,1847,442,0,0
630,582,0,0,0,0,0,0,0,0,0,-1,1854,442,0,0
637,582,0,0,0,0,0,0,0,0,0,-1,1861,442,0,0
644,582,0,0,0,0,0,0,0,0,0,-1,1868,442,0,0
651,582,0,0,0,0,0,0,0,0,0,-1,1875,442,0,0
658,582,0,0,0,0,0,0,0,0,0,-1,1882,442,0,0
665,582,0,0,0,0,0,0,0,0,0,-1,1889,442,0,0
672,582,0,0,0,0,0,0,0,0,0,-1,1896,442,0,0
679,582,0,0,0,0,0,0,0,0,0,-1,1903,442,0,0
686,582,0,0,0,0,0,0,0,0,0,-1,1910,442,0,0
693,582,0,0,0,0,0,0,0,0,0,-1,1917,442,0,0
700,582,0,0,0,0,0,0,0,0,0,-1,1924,442,0,0
707,582,0,0,0,0,0,0,0,0,0,-1,1931,442,0,0
714,582,0,0,0,0,0,0,0,0,0,-1,1938,442,0,0
721,582,0,0,0,0,0,0,0,0,0,-1,1945,442,0,0
728,582,0,0,0,0,0,0,0,0,0,-1,1952,442,0,0
735,582,0,0,0,0,0,0,0,0,0,-1,1959,442,0,0
742,582,0,0,0,0,0,0,0,0,0,-1,1966,442,0,0
749,582,0,0,0,0,0,0,0,0,0,-1,1973,442,0,0
756,582,0,0,0,0,0,0,0,0,0,-1,1980,442,0,0
763,582,0,0,0,0,0,0,0,0,0,-1,1987,442,0,0
770,582,0,0,0,0,0,0,0,0,0,-1,1994,442,0,0
777,582,0,0,0,0,0,0,0,0,0,-1,2001,442,0,0
784,582,0,0,0,0,0,0,0,0,0,-1,2008,442,0,0
791,582,0,0,0,0,0,0,0,0,0,-1,2015,442,0,0
798,582,0,0,0,0,0,0,0,0,0,-1,2022,442,0,0
805,582,0,0,0,0,0,0,0,0,0,-1,2029,442,0,0
812,582,0,0,0,0,0,0,0,0,0,-1,2036,442,0,0
-700,575,0,0,0,0,0,0,0,0,0,-1,524,449,0,0
-693,575,0,0,0,0,0,0,0,0,0,-1,531,449,0,0
-686,575,0,0,0,0,0,0,0,0,0,-1,538,449,0,0
-679,575,0,0,0,0,0,0,0,0,0,-1,545,449,0,0
-672,575,0,0,0,0,0,0,0,0,0,-1,552,449,0,0
-665,575,0,0,0,0,0,0,0,0,0,-1,559,449,0,0
-658,575,0,0,0,0,0,0,0,0,0,-1,566,449,0,0
-651,575,0,0,0,0,0,0,0,0,0,-1,573,449,0,0
-644,575,0,0,0,0,0,0,0,0,0,-1,580,449,0,0
-637,575,0,0,0,0,0,0,0,0,0,-1,587,449,0,0
-630,575,0,0,0,0,0,0,0,0,0,-1,594,449,0,0
-623,575,0,0,0,0,0,0,0,0,0,-1,601,449,0,0
-616,575,0,0,0,0,0,0,0,0,0,-1,608,449,0,0
-609,575,0,0,0,0,0,0,0,0,0,-1,615,449,0,0
-602,575,0,0,0,0,0,0,0,0,0,-1,622,449,0,0
-595,575,0,0,0,0,0,0,0,0,0,-1,629,449,0,0
-588,575,0,0,0,0,0,0,0,0,0,-1,636,449,0,0
-581,575,0,0,0,0,0,0,0,0,0,-1,643,449,0,0
-574,575,0,0,0,0,0,0,0,0,0,-1,650,449,0,0
-567,575,0,0,0,0,0,0,0,0,0,-1,657,449,0,0
-560,575,0,0,0,0,0,0,0,0,0,-1,664,449,0,0
-553,575,0,0,0,0,0,0,0,0,0,-1,671,449,0,0
-546,575,0,0,0,0,0,0,0,0,0,-1,678,449,0,0
-539,575,0,0,0,0,0,0,0,0,0,-1,685,449,0,0
-532,575,0,0,0,0,0,0,0,0,0,-1,692,449,0,0
-525,575,0,0,0,0,0,0,0,0,0,-1,699,449,0,0
-518,575,0,0,0,0,0,0,0,0,0,-1,706,449,0,0
-511,575,0,0,0,0,0,0,0,0,0,-1,713,449,0,0
-504,575,0,0,0,0,0,0,0,0,0,-1,720,449,0,0
-497,575,0,0,0,0,0,0,0,0,0,-1,727,449,0,0
-490,575,0,0,0,0,0,0,0,0,0,-1,734,449,0,0
-483,575,0,0,0,0,0,0,0,0,0,-1,741,449,0,0
-476,575,0,0,0,0,0,0,0,0,0,-1,748,449,0,0
-469,575,0,0,0,0,0,0,0,0,0,-1,755,449,0,0
-462,575,0,0,0,0,0,0,0,0,0,-1,762,449,0,0
-455,575,0,0,0,0,0,0,0,0,0,-1,769,449,0,0
-448,575,0,0,0,0,0,0,0,0,0,-1,776,449,0,0
-441,575,0,0,0,0,0,0,0,0,0,-1,783,449,0,0
-434,575,0,0,0,0,0,0,0,0,0,-1,790,449,0,0
-427,575,0,0,0,0,0,0,0,0,0,-1,797,449,0,0
-420,575,0,0,0,0,0,0,0,0,0,-1,804,449,0,0
-413,575,0,0,0,0,0,0,0,0,0,-1,811,449,0,0
-406,575,0,0,0,0,0,0,0,0,0,-1,818,449,0,0
-399,575,0,0,0,0,0,0,0,0,0,-1,825,449,0,0
-392,575,0,0,0,0,0,0,0,0,0,-1,832,449,0,0
-385,575,0,0,0,0,0,0,0,0,0,-1,839,449,0,0
-378,575,0,0,0,0,0,0,0,0,0,-1,846,449,0,0
-371,575,0.56897,-3.52304,0,0,0,0,0,0,0,-1,853,449,0.568955,3.52306
-364,575,1.49805,-4.67191,0,0,0,0,0,0,0,-1,860,449,1.49803,4.6719
-357,575,3.15521,-8.29892,0,0,0,0,0,0,0,-1,867,449,3.15521,8.29891
-350,575,-0.825928,-18.5347,0,0,0,0,0,0,0,-1,874,449,-0.825948,18.5347
-343,575,0.465393,-16.3569,0,0,0,0,0,0,0,-1,881,449,0.465397,16.3569
-336,575,3.1994,-17.5725,0,0,0,0,0,0,0,-1,888,449,3.19941,17.5725
-329,575,2.46985,-22.3622,0,0,0,0,0,0,0,-1,895,449,2.46983,22.3622
-322,575,2.77087,-22.4004,0,0,0,0,0,0,0,-1,902,449,2.77087,22.4004
-315,575,2.19434,-23.6159,0,0,0,0,0,0,0,-1,909,449,2.19432,23.6159
-308,575,2.42108,-24.2262,0.00889833,0.0223412,-0.00459494,0.0237617,0.00747783,-1.27097,0.0140294,0.0479656,916,449,2.42106,24.2262
-301,575,2.69867,-24.7161,0.00676835,0.0182849,-0.00513176,0.0202398,0.00481347,-1.20683,0.0122092,0.0335016,923,449,2.6987,24.7161
-294,575,2.60156,-25.321,0.00499508,0.0150938,-0.00522685,0.0173119,0.00277698,-1.16946,0.010736,0.0250769,930,449,2.60156,25.3211
-287,575,2.51367,-25.9094,0.00353778,0.0126177,-0.00503856,0.0148599,0.00129553,-1.15209,0.00950425,0.0191783,937,449,2.51365,25.9094
-280,575,2.53094,-26.4562,0.00255629,0.0109924,-0.00487322,0.0132196,0.000329172,-1.14213,0.00870539,0.015054,944,449,2.53096,26.4562
-273,575,2.51666,-27.0194,0.00159795,0.00943119,-0.00463374,0.0115818,-0.000552674,-1.13626,0.00791187,0.011735,951,449,2.51668,27.0194
-266,575,2.50153,-27.5612,0.000840869,0.00793903,-0.00430685,0.00997072,-0.00119082,-1.13002,0.00707755,0.0125059,958,449,2.50152,27.5612
-259,575,2.45148,-28.0845,0.00069412,0.0063745,-0.00382672,0.00829986,-0.00123124,-1.10464,0.00598601,0.0121059,965,449,2.45147,28.0845
-252,575,2.38831,-28.5865,0.000713065,0.00550368,-0.0029079,0.00687578,-0.000659036,-1.12992,0.00481858,0.011629,972,449,2.38831,28.5865
-245,575,2.35156,-29.0591,0.000738348,0.00440388,-0.00225982,0.00548072,-0.000338491,-1.12611,0.00377171,0.0150228,979,449,2.35156,29.059
-238,575,2.35748,-29.5483,0.000960268,0.00317873,-0.00163822,0.00404792,9.10775e-05,-1.08299,0.00266877,0.0156286,986,449,2.35746,29.5483
-231,575,2.35944,-30.0472,0.00122924,0.00180475,-0.00107051,0.00262551,0.000408482,-0.916694,0.00163132,0.0138219,993,449,2.35945,30.0472
-224,575,2.32916,-30.5235,0.00154355,0.000282315,-0.000519791,0.00173016,9.57049e-05,-0.344678,0.0011229,0.0135493,1000,449,2.32917,30.5235
-217,575,2.32184,-30.9951,0.00196337,-0.00138307,-2.88871e-05,0.00196362,-0.00138332,-0.00863134,0.00194201,0.0116297,1007,449,2.32182,30.9951
-210,575,2.35236,-31.4781,0.00245575,-0.00322647,0.000439161,0.00248949,-0.00326021,0.0766799,0.00332952,0.00985317,1014,449,2.35236,31.4781
-203,575,2.36902,-31.9436,0.00303085,-0.00493333,0.00082305,0.00311502,-0.0050175,0.101909,0.00473794,0.0123486,1021,449,2.36905,31.9436
-196,575,2.33777,-32.3979,0.00353643,-0.00646121,0.00114746,0.00366644,-0.00659122,0.112819,0.00600197,0.0168742,1028,449,2.33779,32.3979
-189,575,2.29688,-32.8343,0.00413414,-0.00802894,0.00154979,0.0043285,-0.00822331,0.124762,0.00736216,0.0183436,1035,449,2.29684,32.8343
-182,575,2.29749,-33.2569,0.00403245,-0.00849525,0.00221778,0.00441348,-0.00887628,0.170144,0.00781572,0.0164007,1042,449,2.29753,33.2569
-175,575,2.33643,-33.6699,0.00297909,-0.0112883,0.00408832,0.00406756,-0.0123767,0.260203,0.00988988,0.0134149,1049,449,2.33645,33.6699
-168,575,2.32104,-34.0747,0.00229464,-0.0135437,0.00544419,0.00398549,-0.0152345,0.301134,0.0117131,0.011559,1056,449,2.32104,34.0747
-161,575,2.33496,-34.4746,0.0012358,-0.0162219,0.00697406,0.0036797,-0.0186658,0.337056,0.0138345,0.0162784,1063,449,2.33494,34.4746
-154,575,2.38501,-34.8577,-0.000210856,-0.0186891,0.00888213,0.00336616,-0.0222662,0.38285,0.016084,0.0191593,1070,449,2.38503,34.8577
-147,575,2.41357,-35.21,-0.00191251,-0.0216378,0.0110881,0.00306455,-0.0266148,0.421911,0.018848,0.0163378,1077,449,2.41356,35.21
-140,575,2.39478,-35.5095,-0.00395874,-0.0255239,0.0136299,0.00263794,-0.0321206,0.450754,0.022345,0.0217139,1084,449,2.39477,35.5095
-133,575,2.46204,-35.667,-0.00628139,-0.0297867,0.0162867,0.00205034,-0.0381185,0.472857,0.0261226,0.0334216,1091,449,2.46206,35.667
-126,575,2.31201,-35.6547,-0.00851512,-0.0342916,0.0189117,0.00148244,-0.0442891,0.486299,0.0300324,0.0397241,1098,449,2.31198,35.6547
-119,575,2.29187,-35.7675,-0.0101161,-0.039109,0.0209217,0.000840668,-0.0500657,0.482429,0.0336609,0.0402881,1105,449,2.29188,35.7675
-112,575,2.35205,-36.1193,-0.0114483,-0.0435779,0.0224822,0.000118934,-0.0551451,0.475184,0.0368031,0.0492599,1112,449,2.35208,36.1193
-105,575,2.18347,-36.5414,0,0,0,0,0,0,0,-1,1119,449,2.18351,36.5414
-98,575,1.521,-25.6961,0,0,0,0,0,0,0,-1,1126,449,1.52105,25.6961
-91,575,1.60803,-16.4247,0,0,0,0,0,0,0,-1,1133,449,1.60802,16.4247
-84,575,1.16553,-11.9056,0,0,0,0,0,0,0,-1,1140,449,1.16558,11.9056
-77,575,0.205078,-11.2584,0,0,0,0,0,0,0,-1,1147,449,0.205117,11.2584
-70,575,-4.2467,-1.78738,0,0,0,0,0,0,0,-1,1154,449,-4.24674,1.78739
-63,575,-4.52209,-3.48798,0,0,0,0,0,0,0,-1,1161,449,-4.5221,3.48796
-56,575,-5.5968,-5.4928,0,0,0,0,0,0,0,-1,1168,449,-5.59683,5.49281
-49,575,-5.96863,-7.17612,0,0,0,0,0,0,0,-1,1175,449,-5.96868,7.1761
-42,575,-0.830322,0.773499,0,0,0,0,0,0,0,-1,1182,449,-0.83038,-0.77351
-35,575,-0.62085,0.205139,0,0,0,0,0,0,0,-1,1189,449,-0.620855,-0.205126
-28,575,0.49292,-3.87988,0,0,0,0,0,0,0,-1,1196,449,0.492941,3.87989
-21,575,4.75903,-42.77,0,0,0,0,0,0,0,-1,1203,449,4.75898,42.77
-14,575,4.61792,-42.1336,-0.0129581,-0.0198922,0.0158268,-0.000223082,-0.0326272,0.677569,0.0216775,0.0486057,1210,449,4.61789,42.1336
-7,575,4.48132,-41.7348,-0.0108644,-0.0247733,0.0112441,-0.00459789,-0.0310398,0.508444,0.0193436,0.0439611,1217,449,4.4813,41.7348
0,575,4.37854,-41.5329,-0.00749955,-0.0298466,0.00527122,-0.00631858,-0.0310276,0.2204,0.0189336,0.0454527,1224,449,4.37852,41.5329
7,575,4.15637,-41.1337,-0.00343729,-0.0358548,-0.000979179,-0.00340775,-0.0358843,-0.0301686,0.0228717,0.0448585,1231,449,4.1564,41.1337
14,575,3.62329,-36.2848,0,0,0,0,0,0,0,-1,1238,449,3.62333,36.2848
21,575,3.82983,-37.0818,0.00616472,-0.0486027,-0.011823,0.00860802,-0.051046,-0.203788,0.0372332,0.0446714,1245,449,3.82977,37.0818
28,575,4.30505,-37.8737,0.011162,-0.0552284,-0.016657,0.0151068,-0.0591731,-0.232539,0.0453313,0.0414884,1252,449,4.305,37.8736
35,575,4.26917,-38.5051,0,0,0,0,0,0,0,-1,1259,449,4.26919,38.5051
42,575,4.60461,-39.2799,0.0186195,-0.0652078,-0.0249326,0.0254746,-0.0720629,-0.268315,0.0584154,0.0474739,1266,449,4.60464,39.2799
49,575,4.89685,-40.0934,0.0223274,-0.0693268,-0.0290056,0.0307354,-0.0777348,-0.282143,0.0645552,0.0462207,1273,449,4.89689,40.0934
56,575,5.16504,-40.8772,0.0254552,-0.0724704,-0.031843,0.034899,-0.0819142,-0.288311,0.069239,0.0455688,1280,449,5.16509,40.8772
63,575,5.44763,-41.6293,0.0274976,-0.0749221,-0.0349641,0.0382954,-0.0857198,-0.299532,0.0733245,0.0449135,1287,449,5.44759,41.6293
70,575,5.76379,-42.3535,0,0,0,0,0,0,0,-1,1294,449,5.76377,42.3535
77,575,6.42542,-44.3785,0,0,0,0,0,0,0,-1,1301,449,6.42536,44.3785
84,575,6.6637,-45.8755,0,0,0,0,0,0,0,-1,1308,449,6.66372,45.8755
91,575,4.03271,-48.0533,0,0,0,0,0,0,0,-1,1315,449,4.03267,48.0533
98,575,4.63232,-49.4043,0.0223974,-0.0819756,-0.048188,0.0412426,-0.100821,-0.372792,0.0843904,0.0437394,1322,449,4.63237,49.4043
105,575,4.40662,-51.2625,0.015853,-0.0866698,-0.0488284,0.0353867,-0.106203,-0.380547,0.0850871,0.0429466,1329,449,4.40656,51.2626
112,575,4.24927,-53.0241,0.0103838,-0.0908525,-0.0502534,0.0310931,-0.111562,-0.390891,0.0866195,0.0432207,1336,449,4.24922,53.0242
119,575,4.04053,-54.4596,0.0030572,-0.0965461,-0.0505466,0.0242144,-0.117703,-0.396411,0.0876623,0.042975,1343,449,4.04051,54.4596
126,575,3.70398,-56.0732,-0.00584057,-0.102908,-0.0490928,0.0146592,-0.123408,-0.395562,0.0875682,0.0496813,1350,449,3.70398,56.0732
133,575,3.41418,-58.1945,0,0,0,0,0,0,0,-1,1357,449,3.41416,58.1946
140,575,2.84875,-60.2921,-0.0265909,-0.114891,-0.0427183,-0.00930739,-0.132175,-0.384459,0.0851836,0.0441644,1364,449,2.84874,60.2921
147,575,2.03381,-62.0831,-0.0373343,-0.119022,-0.0388492,-0.021809,-0.134548,-0.380186,0.0833848,0.0464812,1371,449,2.03376,62.0831
154,575,1.03882,-63.9339,-0.0464835,-0.121294,-0.0358072,-0.0321074,-0.13567,-0.381788,0.0818702,0.0472704,1378,449,1.03881,63.9339
161,575,0.116821,-65.6454,0,0,0,0,0,0,0,-1,1385,449,0.116793,65.6454
168,575,7.5509,-35.3165,0,0,0,0,0,0,0,-1,1392,449,7.5509,35.3165
175,575,4.32617,1.93634,0,0,0,0,0,0,0,-1,1399,449,4.32612,-1.93634
182,575,6.3147,-2.88345,0,0,0,0,0,0,0,-1,1406,449,6.31466,2.88346
189,575,6.10449,-1.30817,0,0,0,0,0,0,0,-1,1413,449,6.10455,1.30817
196,575,5.79895,0.818359,0,0,0,0,0,0,0,-1,1420,449,5.79895,-0.81837
203,575,3.29724,-1.46378,0,0,0,0,0,0,0,-1,1427,449,3.29722,1.46377
210,575,2.32739,-7.74503,0,0,0,0,0,0,0,-1,1434,449,2.32741,7.74502
217,575,3.33618,-11.5521,0,0,0,0,0,0,0,-1,1441,449,3.3362,11.5521
224,575,5.51709,-16.3903,0,0,0,0,0,0,0,-1,1448,449,5.51713,16.3903
231,575,5.48572,-20.4595,0,0,0,0,0,0,0,-1,1455,449,5.48571,20.4595
238,575,5.33484,-22.3575,0,0,0,0,0,0,0,-1,1462,449,5.33478,22.3575
245,575,5.59741,-23.513,0,0,0,0,0,0,0,-1,1469,449,5.5974,23.513
252,575,8.48767,-36.3244,0,0,0,0,0,0,0,-1,1476,449,8.48769,36.3244
259,575,8.34863,-35.746,0,0,0,0,0,0,0,-1,1483,449,8.34869,35.746
266,575,8.28394,-35.3437,0,0,0,0,0,0,0,-1,1490,449,8.28389,35.3437
273,575,8.3269,-34.8904,0,0,0,0,0,0,0,-1,1497,449,8.32691,34.8904
280,575,8.45972,-34.3881,0.00381913,-0.0043406,-0.00249861,0.00452344,-0.00504491,-0.274753,0.00552703,0.0445433,1504,449,8.45968,34.3881
287,575,8.37683,-34.036,0.00378797,-0.00475255,-0.00221803,0.00432965,-0.00529423,-0.239528,0.00556564,0.0279841,1511,449,8.37681,34.036
294,575,8.41956,-33.5769,0.00362942,-0.00448243,-0.0019201,0.00406095,-0.00491397,-0.221074,0.00518947,0.0134453,1518,449,8.4195,33.5769
301,575,8.43433,-33.1045,0.00342337,-0.00406348,-0.00159695,0.00374977,-0.00438988,-0.201613,0.00470427,0.010054,1525,449,8.43435,33.1045
308,575,8.44934,-32.6249,0.00310584,-0.00379126,-0.0013647,0.00336605,-0.00405147,-0.188411,0.0042886,0.0102282,1532,449,8.44937,32.6249
315,575,8.43457,-32.1524,0.00257735,-0.00320504,-0.00121565,0.00282252,-0.00345022,-0.199012,0.0036276,0.0102442,1539,449,8.43455,32.1524
322,575,8.45374,-31.7134,0.0020234,-0.00250525,-0.000953127,0.00221582,-0.00269768,-0.19921,0.00284135,0.00939587,1546,449,8.45368,31.7134
329,575,8.45532,-31.2584,0.00150228,-0.00175402,-0.00064739,0.00162627,-0.001878,-0.189228,0.00202493,0.0106241,1553,449,8.45533,31.2584
336,575,8.43738,-30.7617,0.0010633,-0.000985752,-0.000324687,0.00111352,-0.00103597,-0.15345,0.00124128,0.0125615,1560,449,8.43734,30.7617
343,575,8.44409,-30.2498,0.000600831,-0.000212077,-3.99706e-05,0.000602791,-0.000214038,-0.0490124,0.000489076,0.0134128,1567,449,8.44408,30.2497
350,575,8.42932,-29.7406,0.00021716,0.000765868,0.000350479,0.000936604,4.64237e-05,1.11748,0.000609518,0.0128579,1574,449,8.42936,29.7406
357,575,8.40771,-29.2175,-0.000133572,0.00177856,0.000768863,0.00204936,-0.000404378,1.23215,0.00151908,0.0120202,1581,449,8.40768,29.2175
364,575,8.37207,-28.7308,-0.000353878,0.00268078,0.00124839,0.00312833,-0.000801431,1.22657,0.00239777,0.0111114,1588,449,8.37201,28.7308
371,575,8.38464,-28.239,-0.00047179,0.00363755,0.00176443,0.00429118,-0.00112542,1.21602,0.00330052,0.0201981,1595,449,8.38465,28.239
378,575,8.37378,-27.704,-0.000619661,0.00463879,0.00210907,0.00538017,-0.00136104,1.23277,0.00411616,0.018354,1602,449,8.37382,27.704
385,575,8.31702,-27.1697,-0.000802229,0.0060233,0.00226824,0.00670832,-0.00148725,1.2775,0.00504163,0.0115569,1609,449,8.31704,27.1697
392,575,8.28528,-26.6409,-0.000849716,0.00715382,0.00245109,0.00784481,-0.00154071,1.29602,0.00581192,0.0107261,1616,449,8.28524,26.6409
399,575,8.26685,-26.121,-0.000729149,0.00824087,0.00267448,0.00897775,-0.00146603,1.30194,0.00652894,0.0110242,1623,449,8.26684,26.121
406,575,8.24304,-25.5496,-0.000660361,0.00941607,0.00282622,0.0101546,-0.00139892,1.31519,0.007281,0.0122564,1630,449,8.24299,25.5496
413,575,8.20911,-24.9658,-0.000701917,0.0103026,0.00270902,0.0109333,-0.00133266,1.34204,0.00777126,0.0158223,1637,449,8.20905,24.9658
420,575,8.15527,-24.3794,-0.00204458,0.010722,0.00240699,0.0111607,-0.00248332,1.3905,0.00839164,0.0155088,1644,449,8.15532,24.3794
427,575,8.08301,-23.7521,-0.0042146,0.0102196,0.00224116,0.0105596,-0.00455457,1.42025,0.0089528,0.0173427,1651,449,8.08297,23.7521
434,575,7.9696,-23.2415,-0.00764433,0.00916587,0.0023592,0.00949069,-0.00796915,1.43397,0.0100932,0.0275255,1658,449,7.96964,23.2414
441,575,8.05176,-22.7224,0,0,0,0,0,0,0,-1,1665,449,8.0517,22.7224
448,575,8.45154,-21.9138,0,0,0,0,0,0,0,-1,1672,449,8.45153,21.9138
455,575,8.22839,-21.4565,0,0,0,0,0,0,0,-1,1679,449,8.22844,21.4565
462,575,6.42517,-19.7967,0,0,0,0,0,0,0,-1,1686,449,6.42519,19.7967
469,575,7.7926,-20.386,0,0,0,0,0,0,0,-1,1693,449,7.79262,20.3859
476,575,7.33948,-20.2097,0,0,0,0,0,0,0,-1,1700,449,7.33942,20.2097
483,575,6.84009,-19.5308,0,0,0,0,0,0,0,-1,1707,449,6.84012,19.5308
490,575,6.78235,-18.917,0,0,0,0,0,0,0,-1,1714,449,6.7824,18.917
497,575,0,0,0,0,0,0,0,0,0,-1,1721,449,0,0
504,575,0,0,0,0,0,0,0,0,0,-1,1728,449,0,0
511,575,0,0,0,0,0,0,0,0,0,-1,1735,449,0,0
518,575,0,0,0,0,0,0,0,0,0,-1,1742,449,0,0
525,575,0,0,0,0,0,0,0,0,0,-1,1749,449,0,0
532,575,0,0,0,0,0,0,0,0,0,-1,1756,449,0,0
539,575,0,0,0,0,0,0,0,0,0,-1,1763,449,0,0
546,575,0,0,0,0,0,0,0,0,0,-1,1770,449,0,0
553,575,0,0,0,0,0,0,0,0,0,-1,1777,449,0,0
560,575,0,0,0,0,0,0,0,0,0,-1,1784,449,0,0
567,575,0,0,0,0,0,0,0,0,0,-1,1791,449,0,0
574,575,0,0,0,0,0,0,0,0,0,-1,1798,449,0,0
581,575,0,0,0,0,0,0,0,0,0,-1,1805,449,0,0
588,575,0,0,0,0,0,0,0,0,0,-1,1812,449,0,0
595,575,0,0,0,0,0,0,0,0,0,-1,1819,449,0,0
602,575,0,0,0,0,0,0,0,0,0,-1,1826,449,0,0
609,575,0,0,0,0,0,0,0,0,0,-1,1833,449,0,0
616,575,0,0,0,0,0,0,0,0,0,-1,1840,449,0,0
623,575,0,0,0,0,0,0,0,0,0,-1,1847,449,0,0
630,575,0,0,0,0,0,0,0,0,0,-1,1854,449,0,0
637,575,0,0,0,0,0,0,0,0,0,-1,1861,449,0,0
644,575,0,0,0,0,0,0,0,0,0,-1,1868,449,0,0
651,575,0,0,0,0,0,0,0,0,0,-1,1875,449,0,0
658,575,0,0,0,0,0,0,0,0,0,-1,1882,449,0,0
665,575,0,0,0,0,0,0,0,0,0,-1,1889,449,0,0
672,575,0,0,0,0,0,0,0,0,0,-1,1896,449,0,0
679,575,0,0,0,0,0,0,0,0,0,-1,1903,449,0,0
686,575,0,0,0,0,0,0,0,0,0,-1,1910,449,0,0
693,575,0,0,0,0,0,0,0,0,0,-1,1917,449,0,0
700,575,0,0,0,0,0,0,0,0,0,-1,1924,449,0,0
707,575,0,0,0,0,0,0,0,0,0,-1,1931,449,0,0
714,575,0,0,0,0,0,0,0,0,0,-1,1938,449,0,0
721,575,0,0,0,0,0,0,0,0,0,-1,1945,449,0,0
728,575,0,0,0,0,0,0,0,0,0,-1,1952,449,0,0
735,575,0,0,0,0,0,0,0,0,0,-1,1959,449,0,0
742,575,0,0,0,0,0,0,0,0,0,-1,1966,449,0,0
749,575,0,0,0,0,0,0,0,0,0,-1,1973,449,0,0
756,575,0,0,0,0,0,0,0,0,0,-1,1980,449,0,0
763,575,0,0,0,0,0,0,0,0,0,-1,1987,449,0,0
770,575,0,0,0,0,0,0,0,0,0,-1,1994,449,0,0
777,575,0,0,0,0,0,0,0,0,0,-1,2001,449,0,0
784,575,0,0,0,0,0,0,0,0,0,-1,2008,449,0,0
791,575,0,0,0,0,0,0,0,0,0,-1,2015,449,0,0
798,575,0,0,0,0,0,0,0,0,0,-1,2022,449,0,0
805,575,0,0,0,0,0,0,0,0,0,-1,2029,449,0,0
812,575,0,0,0,0,0,0,0,0,0,-1,2036,449,0,0
-700,568,0,0,0,0,0,0,0,0,0,-1,524,456,0,0
-693,568,0,0,0,0,0,0,0,0,0,-1,531,456,0,0
-686,568,0,0,0,0,0,0,0,0,0,-1,538,456,0,0
-679,568,0,0,0,0,0,0,0,0,0,-1,545,456,0,0
-672,568,0,0,0,0,0,0,0,0,0,-1,552,456,0,0
-665,568,0,0,0,0,0,0,0,0,0,-1,559,456,0,0
-658,568,0,0,0,0,0,0,0,0,0,-1,566,456,0,0
-651,568,0,0,0,0,0,0,0,0,0,-1,573,456,0,0
-644,568,0,0,0,0,0,0,0,0,0,-1,580,456,0,0
-637,568,0,0,0,0,0,0,0,0,0,-1,587,456,0,0
-630,568,0,0,0,0,0,0,0,0,0,-1,594,456,0,0
-623,568,0,0,0,0,0,0,0,0,0,-1,601,456,0,0
-616,568,0,0,0,0,0,0,0,0,0,-1,608,456,0,0
-609,568,0,0,0,0,0,0,0,0,0,-1,615,456,0,0
-602,568,0,0,0,0,0,0,0,0,0,-1,622,456,0,0
-595,568,0,0,0,0,0,0,0,0,0,-1,629,456,0,0
-588,568,0,0,0,0,0,0,0,0,0,-1,636,456,0,0
-581,568,0,0,0,0,0,0,0,0,0,-1,643,456,0,0
-574,568,0,0,0,0,0,0,0,0,0,-1,650,456,0,0
-567,568,0,0,0,0,0,0,0,0,0,-1,657,456,0,0
-560,568,0,0,0,0,0,0,0,0,0,-1,664,456,0,0
-553,568,0,0,0,0,0,0,0,0,0,-1,671,456,0,0
-546,568,0,0,0,0,0,0,0,0,0,-1,678,456,0,0
-539,568,0,0,0,0,0,0,0,0,0,-1,685,456,0,0
-532,568,0,0,0,0,0,0,0,0,0,-1,692,456,0,0
-525,568,0,0,0,0,0,0,0,0,0,-1,699,456,0,0
-518,568,0,0,0,0,0,0,0,0,0,-1,706,456,0,0
-511,568,0,0,0,0,0,0,0,0,0,-1,713,456,0,0
-504,568,0,0,0,0,0,0,0,0,0,-1,720,456,0,0
-497,568,0,0,0,0,0,0,0,0,0,-1,727,456,0,0
-490,568,0,0,0,0,0,0,0,0,0,-1,734,456,0,0
-483,568,0,0,0,0,0,0,0,0,0,-1,741,456,0,0
-476,568,0,0,0,0,0,0,0,0,0,-1,748,456,0,0
-469,568,0,0,0,0,0,0,0,0,0,-1,755,456,0,0
-462,568,0,0,0,0,0,0,0,0,0,-1,762,456,0,0
-455,568,0,0,0,0,0,0,0,0,0,-1,769,456,0,0
-448,568,0,0,0,0,0,0,0,0,0,-1,776,456,0,0
-441,568,0,0,0,0,0,0,0,0,0,-1,783,456,0,0
-434,568,0,0,0,0,0,0,0,0,0,-1,790,456,0,0
-427,568,0,0,0,0,0,0,0,0,0,-1,797,456,0,0
-420,568,0,0,0,0,0,0,0,0,0,-1,804,456,0,0
-413,568,0,0,0,0,0,0,0,0,0,-1,811,456,0,0
-406,568,0,0,0,0,0,0,0,0,0,-1,818,456,0,0
-399,568,0,0,0,0,0,0,0,0,0,-1,825,456,0,0
-392,568,0,0,0,0,0,0,0,0,0,-1,832,456,0,0
-385,568,0,0,0,0,0,0,0,0,0,-1,839,456,0,0
-378,568,0.321777,-7.29929,0,0,0,0,0,0,0,-1,846,456,0.321806,7.29927
-371,568,1.09595,-7.46707,0,0,0,0,0,0,0,-1,853,456,1.09597,7.46707
-364,568,1.87787,-7.61115,0,0,0,0,0,0,0,-1,860,456,1.87784,7.61116
-357,568,2.14166,-7.67645,0,0,0,0,0,0,0,-1,867,456,2.14167,7.67646
-350,568,2.7467,-11.2507,0,0,0,0,0,0,0,-1,874,456,2.7467,11.2507
-343,568,2.16516,-11.3762,0,0,0,0,0,0,0,-1,881,456,2.16514,11.3762
-336,568,1.37335,-21.9817,0,0,0,0,0,0,0,-1,888,456,1.37333,21.9817
-329,568,1.97992,-22.4093,0.0120132,0.0294022,-0.00133669,0.0295043,0.011911,-1.49452,0.0171393,0.0492914,895,456,1.97994,22.4093
-322,568,2.33051,-22.6234,0.00977507,0.0246634,-0.00200653,0.0249291,0.00950939,-1.43915,0.014527,0.0449019,902,456,2.3305,22.6234
-315,568,3.03302,-22.898,0.00787096,0.0212296,-0.00278428,0.0217867,0.00731388,-1.37332,0.0128029,0.0369761,909,456,3.03302,22.898
-308,568,2.21143,-24.1654,0.00608668,0.0182393,-0.00343075,0.019141,0.00518506,-1.3138,0.0114312,0.0336037,916,456,2.21144,24.1654
-301,568,2.15845,-24.8336,0.00464818,0.0149304,-0.00380359,0.0161845,0.00339411,-1.25231,0.00985506,0.0190612,923,456,2.15844,24.8336
-294,568,2.09467,-25.3815,0.0034724,0.0121506,-0.00386652,0.0136234,0.00199964,-1.20686,0.00849452,0.0132343,930,456,2.09465,25.3815
-287,568,2.05811,-25.9468,0.00251583,0.00995231,-0.00370683,0.0114844,0.000983747,-1.17887,0.00735032,0.0115454,937,456,2.0581,25.9468
-280,568,2.05066,-26.5126,0.00188107,0.00842312,-0.00356499,0.00999036,0.000313836,-1.15661,0.00655813,0.0114789,944,456,2.05067,26.5126
-273,568,2.02625,-27.0476,0.00123667,0.00695301,-0.00334905,0.00849771,-0.000308034,-1.13864,0.00577056,0.0127081,951,456,2.02623,27.0476
-266,568,1.99023,-27.5482,0.000765298,0.00548329,-0.003046,0.00697696,-0.000728364,-1.11488,0.00491212,0.0119614,958,456,1.99023,27.5482
-259,568,1.95068,-28.0629,0.000806239,0.00392854,-0.00260532,0.00540464,-0.000669863,-1.05532,0.00384588,0.0124635,965,456,1.95071,28.0629
-252,568,1.88416,-28.5577,0.000969975,0.00287938,-0.00174219,0.00391131,-6.19505e-05,-1.03605,0.00262843,0.0131849,972,456,1.88416,28.5577
-245,568,1.85809,-29.0173,0.00114064,0.00162325,-0.00109856,0.00250669,0.000257194,-0.893509,0.00159233,0.0155504,979,456,1.85808,29.0173
-238,568,1.88159,-29.5118,0.00151684,0.00015534,-0.000460077,0.00165773,1.44502e-05,-0.297163,0.00110037,0.0141946,986,456,1.88158,29.5118
-231,568,1.87543,-30.028,0.00199861,-0.00152607,7.78496e-05,0.00200033,-0.00152779,0.0220726,0.00204304,0.0129326,993,456,1.87546,30.028
-224,568,1.83618,-30.4906,0.00245552,-0.00332281,0.000666208,0.00253133,-0.00339863,0.113314,0.00343585,0.0143715,1000,456,1.83621,30.4906
-217,568,1.85956,-30.9537,0.00300028,-0.00522828,0.0012092,0.0031743,-0.00540229,0.142927,0.00500708,0.0122372,1007,456,1.85955,30.9537
-210,568,1.87775,-31.4376,0.00363331,-0.0071748,0.00169651,0.00389335,-0.00743483,0.152095,0.00664601,0.0121893,1014,456,1.87773,31.4376
-203,568,1.88788,-31.9053,0.00435741,-0.00899254,0.00206215,0.00466869,-0.00930382,0.149818,0.00821366,0.0105578,1021,456,1.88789,31.9053
-196,568,1.90393,-32.3314,0.00499788,-0.0107345,0.00237493,0.00534858,-0.0110852,0.146607,0.00967883,0.0141288,1028,456,1.90388,32.3314
-189,568,1.87146,-32.754,0.00578955,-0.0123872,0.00276785,0.00620168,-0.0127993,0.147813,0.0111885,0.0144299,1035,456,1.87148,32.754
-182,568,1.89221,-33.2212,0.0055884,-0.0123715,0.00347312,0.00623664,-0.0130197,0.184522,0.0113452,0.0152298,1042,456,1.89219,33.2212
-175,568,1.922,-33.6248,0.00403768,-0.0155145,0.00582292,0.00564045,-0.0171173,0.2686,0.0136848,0.0156365,1049,456,1.922,33.6247
-168,568,1.91394,-33.9255,0.00302632,-0.0178508,0.00746518,0.00542102,-0.0202455,0.310412,0.0156208,0.0219147,1056,456,1.91395,33.9255
-161,568,1.91638,-34.2825,0.00145319,-0.0207005,0.00941406,0.00491323,-0.0241605,0.352215,0.01797,0.0348039,1063,456,1.91637,34.2825
-154,568,2.09753,-34.7894,-0.000761599,-0.023402,0.0119708,0.00439388,-0.0285575,0.406663,0.0206593,0.040867,1070,456,2.09749,34.7894
-147,568,2.17163,-35.0453,-0.00340179,-0.0266954,0.0149858,0.00393093,-0.0340281,0.45506,0.0241028,0.0404761,1077,456,2.17166,35.0453
-140,568,2.11975,-35.2199,-0.0065945,-0.0314421,0.0185372,0.00329715,-0.0413337,0.490173,0.028718,0.039946,1084,456,2.11979,35.2199
-133,568,1.57397,-34.5389,-0.0103093,-0.0369277,0.0223963,0.00243392,-0.0496709,0.517304,0.0339543,0.0441017,1091,456,1.57401,34.5389
-126,568,1.43994,-34.802,-0.014034,-0.0430696,0.0264119,0.00158717,-0.0586907,0.534104,0.0396668,0.0453782,1098,456,1.43989,34.802
-119,568,1.70374,-34.8224,0,0,0,0,0,0,0,-1,1105,456,1.70379,34.8224
-112,568,1.98242,-35.0942,0,0,0,0,0,0,0,-1,1112,456,1.98247,35.0942
-105,568,2.02454,-25.038,0,0,0,0,0,0,0,-1,1119,456,2.02459,25.038
-98,568,1.58618,-14.7874,0,0,0,0,0,0,0,-1,1126,456,1.58617,14.7874
-91,568,1.11621,-11.1853,0,0,0,0,0,0,0,-1,1133,456,1.11626,11.1853
-84,568,0.461792,-9.7959,0,0,0,0,0,0,0,-1,1140,456,0.461793,9.7959
-77,568,-1.13806,-8.57822,0,0,0,0,0,0,0,-1,1147,456,-1.13807,8.57821
-70,568,-4.09766,-1.42911,0,0,0,0,0,0,0,-1,1154,456,-4.09767,1.4291
-63,568,-5.92273,-3.70752,0,0,0,0,0,0,0,-1,1161,456,-5.92272,3.70751
-56,568,-5.24158,-6.01385,0,0,0,0,0,0,0,-1,1168,456,-5.24161,6.01386
-49,568,-5.24365,-8.33557,0,0,0,0,0,0,0,-1,1175,456,-5.24371,8.33557
-42,568,-0.664795,0.521973,0,0,0,0,0,0,0,-1,1182,456,-0.664829,-0.521984
-35,568,-0.153076,-1.67731,0,0,0,0,0,0,0,-1,1189,456,-0.153068,1.67731
-28,568,1.25439,-4.48798,0,0,0,0,0,0,0,-1,1196,456,1.2544,4.48797
-21,568,4.59729,-42.2669,0,0,0,0,0,0,0,-1,1203,456,4.5973,42.2669
-14,568,4.53369,-41.8322,-0.0189816,-0.0175719,0.0210625,0.0027976,-0.039351,0.802124,0.0272145,0.0460643,1210,456,4.53372,41.8322
-7,568,4.43396,-41.4407,-0.016792,-0.022578,0.0151291,-0.00428177,-0.0350882,0.690928,0.0221035,0.0454975,1217,456,4.43398,41.4407
0,568,4.36877,-41.362,-0.0130827,-0.0292654,0.00766662,-0.0100274,-0.0323206,0.379226,0.019103,0.0491625,1224,456,4.36872,41.362
7,568,4.28345,-41.0576,-0.00814278,-0.0364891,-0.000232229,-0.00814087,-0.036491,-0.00819182,0.0221189,0.0474316,1231,456,4.28347,41.0576
14,568,4.02246,-40.6772,-0.00255304,-0.04414,-0.0070833,-0.00137969,-0.0453134,-0.16416,0.0297597,0.0453347,1238,456,4.02249,40.6772
21,568,3.44873,-36.5796,0,0,0,0,0,0,0,-1,1245,456,3.44871,36.5796
28,568,4.54492,-37.4169,0.00955271,-0.0599512,-0.0187194,0.0142737,-0.0646722,-0.247047,0.0485768,0.0403471,1252,456,4.54496,37.4169
35,568,4.23071,-37.0939,0.0147758,-0.0667468,-0.0237166,0.0211734,-0.0731444,-0.26348,0.0571436,0.041624,1259,456,4.23066,37.0939
42,568,4.02454,-38.9881,0.0195781,-0.072757,-0.0286475,0.027744,-0.0809229,-0.277683,0.0651949,0.0442228,1266,456,4.02454,38.9881
49,568,5.05396,-40.43,0.0245292,-0.078124,-0.0333746,0.0344258,-0.0880206,-0.288272,0.0729168,0.04397,1273,456,5.05395,40.43
56,568,4.77869,-40.3408,0,0,0,0,0,0,0,-1,1280,456,4.77865,40.3408
63,568,4.63892,-41.0548,0.0324426,-0.0858341,-0.0401291,0.0447723,-0.0981639,-0.298096,0.0844215,0.0437916,1287,456,4.63896,41.0548
70,568,4.82178,-42.1696,0.0344583,-0.0881916,-0.0433082,0.0482089,-0.101942,-0.30744,0.0885208,0.0430885,1294,456,4.82178,42.1696
77,568,4.86072,-43.7523,0.0345187,-0.088821,-0.0462601,0.0499408,-0.104243,-0.321791,0.0908398,0.045347,1301,456,4.86069,43.7523
84,568,4.48657,-45.1812,0.0355328,-0.0895239,-0.0496495,0.0528472,-0.106838,-0.335545,0.0939346,0.0470826,1308,456,4.48655,45.1812
91,568,4.28943,-47.234,0.0344205,-0.0920452,-0.0527394,0.0535274,-0.111152,-0.347581,0.0969986,0.0449251,1315,456,4.28945,47.234
98,568,4.67224,-48.9261,0.0298192,-0.0942619,-0.0547224,0.0505046,-0.114947,-0.361403,0.0979091,0.045974,1322,456,4.67227,48.9261
105,568,6.5166,-50.5988,0,0,0,0,0,0,0,-1,1329,456,6.51658,50.5988
112,568,4.11194,-52.1129,0,0,0,0,0,0,0,-1,1336,456,4.11193,52.1129
119,568,5.77429,-54.2499,0,0,0,0,0,0,0,-1,1343,456,5.77426,54.2499
126,568,5.88538,-55.942,0,0,0,0,0,0,0,-1,1350,456,5.88537,55.942
133,568,2.95959,-56.6732,0,0,0,0,0,0,0,-1,1357,456,2.95963,56.6732
140,568,2.12427,-58.7275,-0.0326676,-0.133274,-0.0474207,-0.0138394,-0.152102,-0.377956,0.0971172,0.0473201,1364,456,2.12424,58.7275
147,568,1.13647,-60.6725,-0.0476293,-0.138839,-0.0428207,-0.0306768,-0.155792,-0.376961,0.0952958,0.0445834,1371,456,1.13645,60.6726
154,568,-0.107788,-62.4071,-0.0599037,-0.142223,-0.0397766,-0.0438244,-0.158302,-0.384155,0.0943816,0.0417642,1378,456,-0.107793,62.4071
161,568,-1.3634,-64.0081,0,0,0,0,0,0,0,-1,1385,456,-1.36346,64.0081
168,568,11.2393,-28.6589,0,0,0,0,0,0,0,-1,1392,456,11.2393,28.6589
175,568,10.5151,0.747498,0,0,0,0,0,0,0,-1,1399,456,10.5152,-0.747501
182,568,6.35095,-3.63361,0,0,0,0,0,0,0,-1,1406,456,6.35093,3.63359
189,568,6.17493,-1.70911,0,0,0,0,0,0,0,-1,1413,456,6.17497,1.70911
196,568,6.04724,0.200836,0,0,0,0,0,0,0,-1,1420,456,6.04724,-0.200835
203,568,5.9281,2.08649,0,0,0,0,0,0,0,-1,1427,456,5.92812,-2.08648
210,568,1.46216,-2.50446,0,0,0,0,0,0,0,-1,1434,456,1.46219,2.50446
217,568,2.62366,-7.86703,0,0,0,0,0,0,0,-1,1441,456,2.62365,7.86704
224,568,3.43494,-12.1555,0,0,0,0,0,0,0,-1,1448,456,3.43492,12.1555
231,568,4.38245,-9.3205,0,0,0,0,0,0,0,-1,1455,456,4.38244,9.32048
238,568,5.88879,-20.7448,0,0,0,0,0,0,0,-1,1462,456,5.88876,20.7449
245,568,3.34387,-10.6774,0,0,0,0,0,0,0,-1,1469,456,3.34389,10.6774
252,568,3.56946,-9.28928,0,0,0,0,0,0,0,-1,1476,456,3.56948,9.28928
259,568,3.38843,-8.73068,0,0,0,0,0,0,0,-1,1483,456,3.38842,8.73068
266,568,3.104,-9.16876,0,0,0,0,0,0,0,-1,1490,456,3.10397,9.16876
273,568,3.77869,-13.1147,0,0,0,0,0,0,0,-1,1497,456,3.77869,13.1147
280,568,8.60559,-34.8944,0,0,0,0,0,0,0,-1,1504,456,8.60561,34.8944
287,568,8.82629,-34.1836,0,0,0,0,0,0,0,-1,1511,456,8.82628,34.1836
294,568,8.901,-33.4196,0.00478967,-0.00664904,-0.00265328,0.00537515,-0.00723451,-0.217182,0.00730653,0.0440978,1518,456,8.90098,33.4196
301,568,8.88062,-33.0421,0.00451674,-0.00614984,-0.00234313,0.00500876,-0.00664186,-0.206977,0.00674848,0.0213153,1525,456,8.88061,33.0421
308,568,8.90979,-32.5937,0.00403466,-0.00593802,-0.00221362,0.00450393,-0.00640729,-0.2089,0.00633146,0.0141001,1532,456,8.90974,32.5937
315,568,8.90015,-32.1467,0.00323129,-0.00536111,-0.00221636,0.0037693,-0.00589912,-0.238139,0.00562703,0.00847495,1539,456,8.90015,32.1467
322,568,8.91162,-31.7082,0.00247274,-0.00462549,-0.00201332,0.00300402,-0.00515677,-0.258004,0.00476597,0.00995774,1546,456,8.9116,31.7082
329,568,8.92444,-31.2321,0.00182492,-0.00378949,-0.00173257,0.00231653,-0.00428111,-0.27648,0.00386503,0.010867,1553,456,8.92446,31.2322
336,568,8.92822,-30.7278,0.00131,-0.00293547,-0.00142205,0.0017423,-0.00336777,-0.295124,0.00299965,0.0114205,1560,456,8.92825,30.7277
343,568,8.94666,-30.2336,0.000750471,-0.00211981,-0.00116719,0.00116519,-0.00253453,-0.341397,0.00218425,0.0121236,1567,456,8.94668,30.2336
350,568,8.94153,-29.759,0.000300568,-0.00116028,-0.000792819,0.000648142,-0.00150786,-0.413168,0.00127733,0.0110217,1574,456,8.94148,29.759
357,568,8.91541,-29.2405,-9.70518e-05,-0.000114294,-0.000393847,0.000288269,-0.000499615,-0.774455,0.000460308,0.0102084,1581,456,8.91536,29.2405
364,568,8.91077,-28.7284,-0.000310857,0.00078769,0.000106412,0.000797902,-0.000321069,1.47512,0.000665304,0.0124356,1588,456,8.91074,28.7284
371,568,8.91162,-28.1934,-0.000386123,0.00170929,0.000655555,0.00189748,-0.000574314,1.29124,0.00149369,0.0227775,1595,456,8.91157,28.1934
378,568,8.91028,-27.6677,-0.000466122,0.00265117,0.00107,0.0029831,-0.000798052,1.26999,0.00230134,0.0199634,1602,456,8.91024,27.6677
385,568,8.84473,-27.1549,-0.000559087,0.0038961,0.00133948,0.00426781,-0.000930799,1.3001,0.00320091,0.00942337,1609,456,8.84478,27.1549
392,568,8.797,-26.6361,-0.00053736,0.00490624,0.00161084,0.00534719,-0.00097831,1.3036,0.00393168,0.0114219,1616,456,8.79699,26.6361
399,568,8.76233,-26.1455,-0.000390159,0.00579899,0.00190783,0.00633982,-0.000930992,1.29456,0.00456861,0.0189368,1623,456,8.76233,26.1455
406,568,8.75696,-25.5833,-0.000300106,0.00676958,0.00214831,0.0073712,-0.000901728,1.29775,0.00524063,0.0157418,1630,456,8.75696,25.5833
413,568,8.72766,-24.9867,-0.000301017,0.00753213,0.00221047,0.00811286,-0.000881747,1.31388,0.00572517,0.0123939,1637,456,8.7277,24.9867
420,568,8.71118,-24.4067,-0.0013477,0.00788527,0.00215982,0.00836553,-0.00182795,1.352,0.00627571,0.011158,1644,456,8.71119,24.4067
427,568,8.69055,-23.8009,-0.00306748,0.00751074,0.002202,0.00795081,-0.00350755,1.37355,0.00677925,0.013015,1651,456,8.69049,23.8009
434,568,8.68811,-23.1787,-0.00577458,0.00667926,0.00246251,0.0071485,-0.00624381,1.3825,0.00773793,0.0194109,1658,456,8.68811,23.1787
441,568,8.67554,-22.6577,-0.00861757,0.0056543,0.00267201,0.00613816,-0.00910142,1.39165,0.00885385,0.0296023,1665,456,8.67552,22.6577
448,568,8.83691,-22.0822,-0.0127774,0.00405445,0.00293981,0.00455313,-0.0132761,1.40276,0.0106965,0.0458728,1672,456,8.83688,22.0822
455,568,8.93237,-21.2458,0,0,0,0,0,0,0,-1,1679,456,8.93241,21.2458
462,568,8.40662,-20.88,0,0,0,0,0,0,0,-1,1686,456,8.40665,20.88
469,568,8.37891,-20.3623,-0.0319408,-0.00429797,0.00498416,-0.00342676,-0.032812,1.39775,0.0208266,0.0441214,1693,456,8.37885,20.3623
476,568,7.93652,-19.9847,-0.0402917,-0.00776408,0.00624313,-0.00660697,-0.0414488,1.38754,0.0257147,0.0464746,1700,456,7.93653,19.9847
483,568,7.4082,-19.3379,-0.0493845,-0.0116226,0.0079104,-0.0100324,-0.0509746,1.37242,0.0311816,0.0498584,1707,456,7.40823,19.3379
490,568,6.91711,-18.7321,0,0,0,0,0,0,0,-1,1714,456,6.91706,18.7321
497,568,7.45508,-18.4313,0,0,0,0,0,0,0,-1,1721,456,7.45512,18.4313
504,568,0,0,0,0,0,0,0,0,0,-1,1728,456,0,0
511,568,0,0,0,0,0,0,0,0,0,-1,1735,456,0,0
518,568,0,0,0,0,0,0,0,0,0,-1,1742,456,0,0
525,568,0,0,0,0,0,0,0,0,0,-1,1749,456,0,0
532,568,0,0,0,0,0,0,0,0,0,-1,1756,456,0,0
539,568,0,0,0,0,0,0,0,0,0,-1,1763,456,0,0
546,568,0,0,0,0,0,0,0,0,0,-1,1770,456,0,0
553,568,0,0,0,0,0,0,0,0,0,-1,1777,456,0,0
560,568,0,0,0,0,0,0,0,0,0,-1,1784,456,0,0
567,568,0,0,0,0,0,0,0,0,0,-1,1791,456,0,0
574,568,0,0,0,0,0,0,0,0,0,-1,1798,456,0,0
581,568,0,0,0,0,0,0,0,0,0,-1,1805,456,0,0
588,568,0,0,0,0,0,0,0,0,0,-1,1812,456,0,0
595,568,0,0,0,0,0,0,0,0,0,-1,1819,456,0,0
602,568,0,0,0,0,0,0,0,0,0,-1,1826,456,0,0
609,568,0,0,0,0,0,0,0,0,0,-1,1833,456,0,0
616,568,0,0,0,0,0,0,0,0,0,-1,1840,456,0,0
623,568,0,0,0,0,0,0,0,0,0,-1,1847,456,0,0
630,568,0,0,0,0,0,0,0,0,0,-1,1854,456,0,0
637,568,0,0,0,0,0,0,0,0,0,-1,1861,456,0,0
644,568,0,0,0,0,0,0,0,0,0,-1,1868,456,0,0
651,568,0,0,0,0,0,0,0,0,0,-1,1875,456,0,0
658,568,0,0,0,0,0,0,0,0,0,-1,1882,456,0,0
665,568,0,0,0,0,0,0,0,0,0,-1,1889,456,0,0
672,568,0,0,0,0,0,0,0,0,0,-1,1896,456,0,0
679,568,0,0,0,0,0,0,0,0,0,-1,1903,456,0,0
686,568,0,0,0,0,0,0,0,0,0,-1,1910,456,0,0
693,568,0,0,0,0,0,0,0,0,0,-1,1917,456,0,0
700,568,0,0,0,0,0,0,0,0,0,-1,1924,456,0,0
707,568,0,0,0,0,0,0,0,0,0,-1,1931,456,0,0
714,568,0,0,0,0,0,0,0,0,0,-1,1938,456,0,0
721,568,0,0,0,0,0,0,0,0,0,-1,1945,456,0,0
728,568,0,0,0,0,0,0,0,0,0,-1,1952,456,0,0
735,568,0,0,0,0,0,0,0,0,0,-1,1959,456,0,0
742,568,0,0,0,0,0,0,0,0,0,-1,1966,456,0,0
749,568,0,0,0,0,0,0,0,0,0,-1,1973,456,0,0
756,568,0,0,0,0,0,0,0,0,0,-1,1980,456,0,0
763,568,0,0,0,0,0,0,0,0,0,-1,1987,456,0,0
770,568,0,0,0,0,0,0,0,0,0,-1,1994,456,0,0
777,568,0,0,0,0,0,0,0,0,0,-1,2001,456,0,0
784,568,0,0,0,0,0,0,0,0,0,-1,2008,456,0,0
791,568,0,0,0,0,0,0,0,0,0,-1,2015,456,0,0
798,568,0,0,0,0,0,0,0,0,0,-1,2022,456,0,0
805,568,0,0,0,0,0,0,0,0,0,-1,2029,456,0,0
812,568,0,0,0,0,0,0,0,0,0,-1,2036,456,0,0
-700,561,0,0,0,0,0,0,0,0,0,-1,524,463,0,0
-693,561,0,0,0,0,0,0,0,0,0,-1,531,463,0,0
-686,561,0,0,0,0,0,0,0,0,0,-1,538,463,0,0
-679,561,0,0,0,0,0,0,0,0,0,-1,545,463,0,0
-672,561,0,0,0,0,0,0,0,0,0,-1,552,463,0,0
-665,561,0,0,0,0,0,0,0,0,0,-1,559,463,0,0
-658,561,0,0,0,0,0,0,0,0,0,-1,566,463,0,0
-651,561,0,0,0,0,0,0,0,0,0,-1,573,463,0,0
-644,561,0,0,0,0,0,0,0,0,0,-1,580,463,0,0
-637,561,0,0,0,0,0,0,0,0,0,-1,587,463,0,0
-630,561,0,0,0,0,0,0,0,0,0,-1,594,463,0,0
-623,561,0,0,0,0,0,0,0,0,0,-1,601,463,0,0
-616,561,0,0,0,0,0,0,0,0,0,-1,608,463,0,0
-609,561,0,0,0,0,0,0,0,0,0,-1,615,463,0,0
-602,561,0,0,0,0,0,0,0,0,0,-1,622,463,0,0
-595,561,0,0,0,0,0,0,0,0,0,-1,629,463,0,0
-588,561,0,0,0,0,0,0,0,0,0,-1,636,463,0,0
-581,561,0,0,0,0,0,0,0,0,0,-1,643,463,0,0
-574,561,0,0,0,0,0,0,0,0,0,-1,650,463,0,0
-567,561,0,0,0,0,0,0,0,0,0,-1,657,463,0,0
-560,561,0,0,0,0,0,0,0,0,0,-1,664,463,0,0
-553,561,0,0,0,0,0,0,0,0,0,-1,671,463,0,0
-546,561,0,0,0,0,0,0,0,0,0,-1,678,463,0,0
-539,561,0,0,0,0,0,0,0,0,0,-1,685,463,0,0
-532,561,0,0,0,0,0,0,0,0,0,-1,692,463,0,0
-525,561,0,0,0,0,0,0,0,0,0,-1,699,463,0,0
-518,561,0,0,0,0,0,0,0,0,0,-1,706,463,0,0
-511,561,0,0,0,0,0,0,0,0,0,-1,713,463,0,0
-504,561,0,0,0,0,0,0,0,0,0,-1,720,463,0,0
-497,561,0,0,0,0,0,0,0,0,0,-1,727,463,0,0
-490,561,0,0,0,0,0,0,0,0,0,-1,734,463,0,0
-483,561,0,0,0,0,0,0,0,0,0,-1,741,463,0,0
-476,561,0,0,0,0,0,0,0,0,0,-1,748,463,0,0
-469,561,0,0,0,0,0,0,0,0,0,-1,755,463,0,0
-462,561,0,0,0,0,0,0,0,0,0,-1,762,463,0,0
-455,561,0,0,0,0,0,0,0,0,0,-1,769,463,0,0
-448,561,0,0,0,0,0,0,0,0,0,-1,776,463,0,0
-441,561,0,0,0,0,0,0,0,0,0,-1,783,463,0,0
-434,561,0,0,0,0,0,0,0,0,0,-1,790,463,0,0
-427,561,0,0,0,0,0,0,0,0,0,-1,797,463,0,0
-420,561,0,0,0,0,0,0,0,0,0,-1,804,463,0,0
-413,561,0,0,0,0,0,0,0,0,0,-1,811,463,0,0
-406,561,0,0,0,0,0,0,0,0,0,-1,818,463,0,0
-399,561,0,0,0,0,0,0,0,0,0,-1,825,463,0,0
-392,561,4.92407,-2.54578,0,0,0,0,0,0,0,-1,832,463,4.92408,2.54576
-385,561,5.55634,-1.02338,0,0,0,0,0,0,0,-1,839,463,5.55634,1.02338
-378,561,0.160522,-4.51785,0,0,0,0,0,0,0,-1,846,463,0.160542,4.51785
-371,561,1.06299,-7.56818,0,0,0,0,0,0,0,-1,853,463,1.06297,7.56817
-364,561,1.45264,-7.57684,0,0,0,0,0,0,0,-1,860,463,1.45264,7.57684
-357,561,0.948242,-12.2803,0,0,0,0,0,0,0,-1,867,463,0.948262,12.2803
-350,561,1.33124,-11.9406,0,0,0,0,0,0,0,-1,874,463,1.33127,11.9406
-343,561,1.13214,-14.1837,0,0,0,0,0,0,0,-1,881,463,1.13217,14.1837
-336,561,1.67651,-22.1056,0,0,0,0,0,0,0,-1,888,463,1.67649,22.1056
-329,561,1.6524,-22.6802,0.00766539,0.0238819,-0.00189793,0.0241011,0.00744622,-1.45583,0.0142493,0.0442303,895,463,1.6524,22.6802
-322,561,1.70203,-22.9852,0.00632255,0.0200833,-0.00198851,0.0203649,0.00604096,-1.43012,0.0120775,0.0365248,902,463,1.702,22.9852
-315,561,1.78571,-23.4239,0.00519793,0.0171406,-0.00229214,0.0175654,0.00477311,-1.38754,0.0104878,0.0242625,909,463,1.78573,23.4239
-308,561,1.71075,-24.1344,0.00406126,0.0145917,-0.00256785,0.0151845,0.00346846,-1.34392,0.00918776,0.0210483,916,463,1.71076,24.1344
-301,561,1.63837,-24.8646,0.00312583,0.011876,-0.00276768,0.0126779,0.0023239,-1.28877,0.00779366,0.0145021,923,463,1.63836,24.8646
-294,561,1.58234,-25.4235,0.00239788,0.00947133,-0.00275842,0.0104198,0.00144937,-1.2396,0.00651737,0.0113517,930,463,1.58232,25.4235
-287,561,1.55054,-25.9387,0.00183064,0.00753508,-0.00258805,0.00853424,0.000831477,-1.20236,0.00543358,0.0100156,937,463,1.55051,25.9387
-280,561,1.50354,-26.4643,0.00147172,0.0061255,-0.0024413,0.0071712,0.00042602,-1.1661,0.00464531,0.0126202,944,463,1.50353,26.4643
-273,561,1.46643,-26.9977,0.00109987,0.00476362,-0.00221747,0.00580801,5.54796e-05,-1.13063,0.00385365,0.0154214,951,463,1.46642,26.9977
-266,561,1.4577,-27.5043,0.000893887,0.0033301,-0.00189333,0.00436332,-0.000139332,-1.07125,0.00295642,0.00981581,958,463,1.4577,27.5043
-259,561,1.46191,-28.0399,0.00109861,0.00179793,-0.00145288,0.00294263,-4.60955e-05,-0.903486,0.0019773,0.0104993,965,463,1.46192,28.0399
-252,561,1.4104,-28.5269,0.00138023,0.000538355,-0.000639575,0.00172496,0.000193625,-0.494356,0.00109117,0.0154902,972,463,1.4104,28.5269
-245,561,1.37665,-29.0026,0.0016667,-0.000872099,2.47168e-05,0.00166694,-0.00087234,0.00973441,0.00148979,0.0177584,979,463,1.37666,29.0026
-238,561,1.40051,-29.5094,0.00217694,-0.00256576,0.000694996,0.00227669,-0.00266551,0.142548,0.00285632,0.0139853,986,463,1.40052,29.5094
-231,561,1.38043,-30.0193,0.00286269,-0.00454283,0.00120179,0.00305284,-0.00473298,0.156919,0.0045299,0.0122104,993,463,1.38046,30.0193
-224,561,1.37201,-30.493,0.00344575,-0.00664376,0.00183834,0.00377026,-0.00696828,0.174725,0.00629088,0.0119779,1000,463,1.37203,30.493
-217,561,1.39551,-30.9441,0.00412584,-0.00882854,0.00243118,0.00456708,-0.00926978,0.179536,0.00814106,0.0114742,1007,463,1.3955,30.9441
-210,561,1.39581,-31.4191,0.00491746,-0.0109434,0.0029396,0.00544474,-0.0114707,0.177486,0.00997057,0.0125703,1014,463,1.3958,31.4191
-203,561,1.40485,-31.8722,0.0058197,-0.012959,0.00329218,0.00638014,-0.0135194,0.168618,0.0117329,0.0143822,1021,463,1.40485,31.8721
-196,561,1.39197,-32.2625,0.0066427,-0.015025,0.00359327,0.00722305,-0.0156053,0.160127,0.0134729,0.01572,1028,463,1.39196,32.2625
-189,561,1.42566,-32.6631,0.00771769,-0.0168787,0.00397446,0.00834396,-0.017505,0.15629,0.0152331,0.0192043,1035,463,1.42561,32.6632
-182,561,1.51428,-33.0585,0.00742975,-0.0163024,0.00474033,0.00834156,-0.0172143,0.190031,0.0150482,0.0224902,1042,463,1.51433,33.0585
-175,561,1.41187,-33.4399,0.00523039,-0.0199333,0.00775238,0.00742699,-0.0221299,0.276107,0.0177545,0.0356854,1049,463,1.41188,33.4399
-168,561,1.42188,-33.8548,0.00378853,-0.0223652,0.00980668,0.00705717,-0.0256338,0.321727,0.019864,0.0493962,1056,463,1.42186,33.8548
-161,561,1.44836,-34.2316,0.00154117,-0.0253755,0.0123537,0.00635138,-0.0301857,0.371314,0.0225412,0.0491157,1063,463,1.44841,34.2316
-154,561,1.40088,-34.6924,0,0,0,0,0,0,0,-1,1070,463,1.40087,34.6924
-147,561,1.93542,-34.9057,0,0,0,0,0,0,0,-1,1077,463,1.93538,34.9057
-140,561,1.75635,-35.071,-0.0104358,-0.0372637,0.0248159,0.00435952,-0.052059,0.537623,0.0362467,0.0444529,1084,463,1.75629,35.071
-133,561,2.27026,-35.665,-0.0161558,-0.0440846,0.0303531,0.00329108,-0.0635315,0.569802,0.0434929,0.0456361,1091,463,2.27026,35.665
-126,561,0.643066,-33.6286,-0.0220653,-0.0521548,0.036328,0.00221006,-0.0764301,0.589082,0.0517059,0.044828,1098,463,0.643086,33.6286
-119,561,0.195801,-33.9274,0,0,0,0,0,0,0,-1,1105,463,0.195809,33.9274
-112,561,1.24365,-29.1982,0,0,0,0,0,0,0,-1,1112,463,1.2437,29.1981
-105,561,0.530518,-13.5379,0,0,0,0,0,0,0,-1,1119,463,0.530477,13.5379
-98,561,1.5387,-7.54352,0,0,0,0,0,0,0,-1,1126,463,1.53871,7.54351
-91,561,1.29553,-6.57968,0,0,0,0,0,0,0,-1,1133,463,1.29549,6.5797
-84,561,1.23364,-5.84555,0,0,0,0,0,0,0,-1,1140,463,1.23363,5.84556
-77,561,-2.36023,1.00204,0,0,0,0,0,0,0,-1,1147,463,-2.3602,-1.00205
-70,561,-3.90015,-1.41541,0,0,0,0,0,0,0,-1,1154,463,-3.90009,1.4154
-63,561,-6.95691,-4.02756,0,0,0,0,0,0,0,-1,1161,463,-6.95696,4.02756
-56,561,-5.37988,-6.66855,0,0,0,0,0,0,0,-1,1168,463,-5.37988,6.66854
-49,561,-5.7439,-9.11029,0,0,0,0,0,0,0,-1,1175,463,-5.74387,9.1103
-42,561,-1.72644,-5.63065,0,0,0,0,0,0,0,-1,1182,463,-1.72648,5.63064
-35,561,-1.65674,-4.87994,0,0,0,0,0,0,0,-1,1189,463,-1.6567,4.87993
-28,561,-1.91418,-3.86896,0,0,0,0,0,0,0,-1,1196,463,-1.91414,3.86895
-21,561,4.44348,-42.2064,0,0,0,0,0,0,0,-1,1203,463,4.44351,42.2064
-14,561,4.33386,-41.7767,-0.0266614,-0.0122935,0.0278149,0.00925026,-0.0482051,0.911775,0.0356228,0.0475829,1210,463,4.33389,41.7767
-7,561,4.10962,-41.4035,-0.024545,-0.0172058,0.0197681,-0.000769531,-0.0409812,0.87717,0.027068,0.0476758,1217,463,4.10961,41.4035
0,561,4.40491,-41.403,0,0,0,0,0,0,0,-1,1224,463,4.40491,41.403
7,561,4.61194,-40.8783,-0.0148024,-0.0348128,0.000675367,-0.0147796,-0.0348356,0.0336997,0.0201891,0.0472841,1231,463,4.61196,40.8783
14,561,4.38635,-40.6249,-0.00835196,-0.0439196,-0.0072954,-0.00691373,-0.0453579,-0.194646,0.0282177,0.0434443,1238,463,4.38635,40.6249
21,561,4.93323,-36.8195,0,0,0,0,0,0,0,-1,1245,463,4.93325,36.8195
28,561,4.85938,-36.7343,0.00593302,-0.0627474,-0.0200951,0.0113806,-0.0681949,-0.264725,0.0496931,0.0457132,1252,463,4.85943,36.7343
35,561,4.76709,-36.5904,0.012814,-0.0713093,-0.0259191,0.0201587,-0.0786539,-0.27613,0.0602896,0.0413196,1259,463,4.7671,36.5904
42,561,4.67615,-36.4555,0.0193592,-0.079153,-0.0317219,0.0286901,-0.0884839,-0.28608,0.0705255,0.0440901,1266,463,4.67612,36.4555
49,561,4.58215,-36.3512,0,0,0,0,0,0,0,-1,1273,463,4.58219,36.3512
56,561,3.57581,-39.0498,0.0323694,-0.0916278,-0.0405027,0.0444268,-0.103685,-0.289341,0.0877643,0.0420822,1280,463,3.57575,39.0498
63,561,3.74524,-40.2764,0.0381629,-0.0966364,-0.0444173,0.0514826,-0.109956,-0.291343,0.0952228,0.0421599,1287,463,3.74524,40.2764
70,561,3.97302,-41.4114,0.0422275,-0.100464,-0.0476968,0.0567025,-0.114939,-0.294646,0.100981,0.042843,1294,463,3.97307,41.4114
77,561,4.02759,-42.7488,0.0433731,-0.101139,-0.0508509,0.0594728,-0.117238,-0.306623,0.103825,0.0445708,1301,463,4.02758,42.7489
84,561,4.17615,-44.5429,0.0455619,-0.102028,-0.0545222,0.0635186,-0.119985,-0.318158,0.107605,0.0452515,1308,463,4.1761,44.5429
91,561,4.57886,-46.4235,0.0453919,-0.104117,-0.0579182,0.0652035,-0.123929,-0.329586,0.110936,0.0453119,1315,463,4.57888,46.4235
98,561,4.88965,-47.953,0.0406516,-0.10593,-0.0600844,0.0621326,-0.127411,-0.343352,0.111575,0.0454797,1322,463,4.88964,47.953
105,561,5.27661,-49.8394,0.0317528,-0.111411,-0.0607062,0.0540283,-0.133686,-0.351685,0.111582,0.0484528,1329,463,5.2766,49.8394
112,561,5.67151,-51.6366,0,0,0,0,0,0,0,-1,1336,463,5.67148,51.6366
119,561,5.17529,-53.5823,0.0126428,-0.123794,-0.0614752,0.0362555,-0.147407,-0.366726,0.112324,0.0473347,1343,463,5.17523,53.5824
126,561,5.21008,-55.1437,-0.001415,-0.132082,-0.0593564,0.0215218,-0.155019,-0.368749,0.111216,0.0487066,1350,463,5.21007,55.1437
133,561,5.38477,-56.8516,0,0,0,0,0,0,0,-1,1357,463,5.38473,56.8516
140,561,1.51184,-57.0831,0,0,0,0,0,0,0,-1,1364,463,1.51181,57.0831
147,561,0.222168,-59.1354,-0.0585717,-0.157521,-0.0454389,-0.0408717,-0.175221,-0.371451,0.105854,0.0464782,1371,463,0.222147,59.1354
154,561,-0.992065,-60.8503,-0.0752975,-0.162644,-0.0426208,-0.0579471,-0.179994,-0.386602,0.106094,0.0429284,1378,463,-0.992031,60.8503
161,561,-2.14795,-62.5436,0,0,0,0,0,0,0,-1,1385,463,-2.14793,62.5436
168,561,6.89502,-32.5841,0,0,0,0,0,0,0,-1,1392,463,6.89503,32.5841
175,561,10.4185,0.276398,0,0,0,0,0,0,0,-1,1399,463,10.4185,-0.276394
182,561,6.45703,-4.02127,0,0,0,0,0,0,0,-1,1406,463,6.45704,4.02127
189,561,6.50854,-2.08685,0,0,0,0,0,0,0,-1,1413,463,6.50851,2.08686
196,561,6.44775,-0.27182,0,0,0,0,0,0,0,-1,1420,463,6.44773,0.271814
203,561,6.18591,1.1301,0,0,0,0,0,0,0,-1,1427,463,6.18592,-1.13009
210,561,5.68713,2.68427,0,0,0,0,0,0,0,-1,1434,463,5.6871,-2.68425
217,561,3.61743,-7.33582,0,0,0,0,0,0,0,-1,1441,463,3.61738,7.33581
224,561,4.27466,-8.59171,0,0,0,0,0,0,0,-1,1448,463,4.27466,8.59171
231,561,4.93188,-9.8476,0,0,0,0,0,0,0,-1,1455,463,4.93193,9.84761
238,561,2.18018,-5.18359,0,0,0,0,0,0,0,-1,1462,463,2.18023,5.18359
245,561,3.07568,-3.50238,0,0,0,0,0,0,0,-1,1469,463,3.0757,3.50238
252,561,3.47412,-3.71109,0,0,0,0,0,0,0,-1,1476,463,3.47413,3.71109
259,561,3.42212,-3.2334,0,0,0,0,0,0,0,-1,1483,463,3.42214,3.2334
266,561,4.44373,-5.90027,0,0,0,0,0,0,0,-1,1490,463,4.44372,5.90026
273,561,2.59485,-3.65268,0,0,0,0,0,0,0,-1,1497,463,2.5948,3.65268
280,561,3.10767,-6.38235,0,0,0,0,0,0,0,-1,1504,463,3.10766,6.38235
287,561,4.91809,-14.429,0,0,0,0,0,0,0,-1,1511,463,4.9181,14.429
294,561,9.14124,-33.3797,0,0,0,0,0,0,0,-1,1518,463,9.1413,33.3797
301,561,9.13782,-32.7678,0.00582912,-0.00891735,-0.00306665,0.00644143,-0.00952967,-0.197076,0.0092782,0.0498357,1525,463,9.13777,32.7678
308,561,9.32178,-32.4611,0.00508349,-0.00855717,-0.00305907,0.00573811,-0.00921179,-0.210812,0.00870865,0.0326528,1532,463,9.32184,32.4611
315,561,9.38647,-32.0931,0.0038428,-0.00780465,-0.00326075,0.00469353,-0.00865537,-0.255209,0.00781932,0.0192321,1539,463,9.38648,32.0931
322,561,9.37878,-31.6809,0.00278787,-0.00690195,-0.00311691,0.00370389,-0.00781796,-0.285838,0.00679203,0.0170951,1546,463,9.37875,31.681
329,561,9.39514,-31.2022,0.00197508,-0.00589081,-0.00285633,0.00290286,-0.00681859,-0.314066,0.00576245,0.0126145,1553,463,9.39512,31.2022
336,561,9.4281,-30.6925,0.00135846,-0.00490374,-0.00256599,0.00227557,-0.00582086,-0.343264,0.00482155,0.0109321,1560,463,9.42814,30.6925
343,561,9.43762,-30.2191,0.000677517,-0.00401757,-0.0023489,0.00165086,-0.00499092,-0.392843,0.00399299,0.0102349,1567,463,9.4376,30.2191
350,561,9.42468,-29.7303,0.000154244,-0.00307165,-0.00199216,0.00110456,-0.00402196,-0.4451,0.00311546,0.00994116,1574,463,9.42465,29.7303
357,561,9.42749,-29.2159,-0.000288733,-0.00199575,-0.00161145,0.000681288,-0.00296577,-0.541855,0.00223909,0.0107104,1581,463,9.42748,29.2159
364,561,9.43542,-28.7185,-0.000487513,-0.00109647,-0.00108962,0.000339373,-0.00192336,-0.649156,0.00140905,0.0102944,1588,463,9.43543,28.7185
371,561,9.39209,-28.1804,-0.000497664,-0.00018129,-0.000499709,0.000184672,-0.000863627,-0.938687,0.000646166,0.0168345,1595,463,9.39209,28.1804
378,561,9.36316,-27.6685,-0.000479418,0.000768683,6.05799e-06,0.000768712,-0.000479447,1.56594,0.000727047,0.0124098,1602,463,9.3632,27.6685
385,561,9.33533,-27.1321,-0.000458334,0.0019531,0.000412649,0.00202176,-0.000526992,1.40592,0.00155359,0.0104615,1609,463,9.33537,27.1321
392,561,9.32214,-26.5878,-0.000347664,0.00292959,0.000794049,0.00311185,-0.000529919,1.34518,0.0022719,0.013948,1616,463,9.32217,26.5878
399,561,9.32361,-26.0862,-0.00016048,0.00373323,0.00117222,0.00405889,-0.000486146,1.29981,0.00288168,0.0208537,1623,463,9.32362,26.0862
406,561,9.30737,-25.548,-3.80092e-05,0.00461309,0.00149623,0.00505284,-0.000477759,1.28494,0.00353858,0.0179124,1630,463,9.30743,25.548
413,561,9.2738,-24.9679,1.00457e-05,0.00535119,0.00170651,0.00584986,-0.000488629,1.28649,0.00407257,0.0164012,1637,463,9.27378,24.9679
420,561,9.25391,-24.3985,-0.000744241,0.00572398,0.00184447,0.00621297,-0.00123324,1.31164,0.0046084,0.0136238,1644,463,9.25389,24.3985
427,561,9.24902,-23.8073,-0.00205886,0.00553116,0.00202208,0.00603626,-0.00256395,1.32602,0.00509845,0.0107994,1651,463,9.24901,23.8073
434,561,9.24268,-23.1942,-0.004151,0.00494428,0.00235569,0.00551819,-0.00472491,1.33182,0.00591977,0.0129692,1658,463,9.24271,23.1942
441,561,9.23865,-22.6344,-0.00636644,0.0041785,0.00269468,0.00482719,-0.00701514,1.33456,0.00687596,0.0170827,1665,463,9.23871,22.6344
448,561,9.22437,-22.0525,-0.00954779,0.00318487,0.00310877,0.00390335,-0.0102663,1.34367,0.00845131,0.0245172,1672,463,9.22439,22.0525
455,561,9.28052,-21.3881,-0.0134876,0.00148317,0.00361248,0.00230928,-0.0143137,1.34598,0.0103981,0.0427278,1679,463,9.28049,21.3881
462,561,9.38879,-20.8611,0,0,0,0,0,0,0,-1,1686,463,9.38884,20.861
469,561,8.9646,-20.3554,-0.0234362,-0.00235652,0.00538215,-0.00106185,-0.0247309,1.33473,0.0161449,0.025362,1693,463,8.96461,20.3554
476,561,8.505,-19.7828,-0.0295118,-0.00460011,0.0066445,-0.00293869,-0.0311733,1.32577,0.0198752,0.0411854,1700,463,8.505,19.7828
483,561,7.88965,-19.1378,-0.036065,-0.00710757,0.00826222,-0.00491603,-0.0382565,1.31152,0.0240338,0.0483094,1707,463,7.88969,19.1378
490,561,7.42285,-18.5533,0,0,0,0,0,0,0,-1,1714,463,7.42281,18.5534
497,561,10.5774,-12.9104,0,0,0,0,0,0,0,-1,1721,463,10.5774,12.9104
504,561,10.0769,-0.811401,0,0,0,0,0,0,0,-1,1728,463,10.0769,0.8114
511,561,0,0,0,0,0,0,0,0,0,-1,1735,463,0,0
518,561,0,0,0,0,0,0,0,0,0,-1,1742,463,0,0
525,561,0,0,0,0,0,0,0,0,0,-1,1749,463,0,0
532,561,0,0,0,0,0,0,0,0,0,-1,1756,463,0,0
539,561,0,0,0,0,0,0,0,0,0,-1,1763,463,0,0
546,561,0,0,0,0,0,0,0,0,0,-1,1770,463,0,0
553,561,0,0,0,0,0,0,0,0,0,-1,1777,463,0,0
560,561,0,0,0,0,0,0,0,0,0,-1,1784,463,0,0
567,561,0,0,0,0,0,0,0,0,0,-1,1791,463,0,0
574,561,0,0,0,0,0,0,0,0,0,-1,1798,463,0,0
581,561,0,0,0,0,0,0,0,0,0,-1,1805,463,0,0
588,561,0,0,0,0,0,0,0,0,0,-1,1812,463,0,0
595,561,0,0,0,0,0,0,0,0,0,-1,1819,463,0,0
602,561,0,0,0,0,0,0,0,0,0,-1,1826,463,0,0
609,561,0,0,0,0,0,0,0,0,0,-1,1833,463,0,0
616,561,0,0,0,0,0,0,0,0,0,-1,1840,463,0,0
623,561,0,0,0,0,0,0,0,0,0,-1,1847,463,0,0
630,561,0,0,0,0,0,0,0,0,0,-1,1854,463,0,0
637,561,0,0,0,0,0,0,0,0,0,-1,1861,463,0,0
644,561,0,0,0,0,0,0,0,0,0,-1,1868,463,0,0
651,561,0,0,0,0,0,0,0,0,0,-1,1875,463,0,0
658,561,0,0,0,0,0,0,0,0,0,-1,1882,463,0,0
665,561,0,0,0,0,0,0,0,0,0,-1,1889,463,0,0
672,561,0,0,0,0,0,0,0,0,0,-1,1896,463,0,0
679,561,0,0,0,0,0,0,0,0,0,-1,1903,463,0,0
686,561,0,0,0,0,0,0,0,0,0,-1,1910,463,0,0
693,561,0,0,0,0,0,0,0,0,0,-1,1917,463,0,0
700,561,0,0,0,0,0,0,0,0,0,-1,1924,463,0,0
707,561,0,0,0,0,0,0,0,0,0,-1,1931,463,0,0
714,561,0,0,0,0,0,0,0,0,0,-1,1938,463,0,0
721,561,0,0,0,0,0,0,0,0,0,-1,1945,463,0,0
728,561,0,0,0,0,0,0,0,0,0,-1,1952,463,0,0
735,561,0,0,0,0,0,0,0,0,0,-1,1959,463,0,0
742,561,0,0,0,0,0,0,0,0,0,-1,1966,463,0,0
749,561,0,0,0,0,0,0,0,0,0,-1,1973,463,0,0
756,561,0,0,0,0,0,0,0,0,0,-1,1980,463,0,0
763,561,0,0,0,0,0,0,0,0,0,-1,1987,463,0,0
770,561,0,0,0,0,0,0,0,0,0,-1,1994,463,0,0
777,561,0,0,0,0,0,0,0,0,0,-1,2001,463,0,0
784,561,0,0,0,0,0,0,0,0,0,-1,2008,463,0,0
791,561,0,0,0,0,0,0,0,0,0,-1,2015,463,0,0
798,561,0,0,0,0,0,0,0,0,0,-1,2022,463,0,0
805,561,0,0,0,0,0,0,0,0,0,-1,2029,463,0,0
812,561,0,0,0,0,0,0,0,0,0,-1,2036,463,0,0
-700,554,0,0,0,0,0,0,0,0,0,-1,524,470,0,0
-693,554,0,0,0,0,0,0,0,0,0,-1,531,470,0,0
-686,554,0,0,0,0,0,0,0,0,0,-1,538,470,0,0
-679,554,0,0,0,0,0,0,0,0,0,-1,545,470,0,0
-672,554,0,0,0,0,0,0,0,0,0,-1,552,470,0,0
-665,554,0,0,0,0,0,0,0,0,0,-1,559,470,0,0
-658,554,0,0,0,0,0,0,0,0,0,-1,566,470,0,0
-651,554,0,0,0,0,0,0,0,0,0,-1,573,470,0,0
-644,554,0,0,0,0,0,0,0,0,0,-1,580,470,0,0
-637,554,0,0,0,0,0,0,0,0,0,-1,587,470,0,0
-630,554,0,0,0,0,0,0,0,0,0,-1,594,470,0,0
-623,554,0,0,0,0,0,0,0,0,0,-1,601,470,0,0
-616,554,0,0,0,0,0,0,0,0,0,-1,608,470,0,0
-609,554,0,0,0,0,0,0,0,0,0,-1,615,470,0,0
-602,554,0,0,0,0,0,0,0,0,0,-1,622,470,0,0
-595,554,0,0,0,0,0,0,0,0,0,-1,629,470,0,0
-588,554,0,0,0,0,0,0,0,0,0,-1,636,470,0,0
-581,554,0,0,0,0,0,0,0,0,0,-1,643,470,0,0
-574,554,0,0,0,0,0,0,0,0,0,-1,650,470,0,0
-567,554,0,0,0,0,0,0,0,0,0,-1,657,470,0,0
-560,554,0,0,0,0,0,0,0,0,0,-1,664,470,0,0
-553,554,0,0,0,0,0,0,0,0,0,-1,671,470,0,0
-546,554,0,0,0,0,0,0,0,0,0,-1,678,470,0,0
-539,554,0,0,0,0,0,0,0,0,0,-1,685,470,0,0
-532,554,0,0,0,0,0,0,0,0,0,-1,692,470,0,0
-525,554,0,0,0,0,0,0,0,0,0,-1,699,470,0,0
-518,554,0,0,0,0,0,0,0,0,0,-1,706,470,0,0
-511,554,0,0,0,0,0,0,0,0,0,-1,713,470,0,0
-504,554,0,0,0,0,0,0,0,0,0,-1,720,470,0,0
-497,554,0,0,0,0,0,0,0,0,0,-1,727,470,0,0
-490,554,0,0,0,0,0,0,0,0,0,-1,734,470,0,0
-483,554,0,0,0,0,0,0,0,0,0,-1,741,470,0,0
-476,554,0,0,0,0,0,0,0,0,0,-1,748,470,0,0
-469,554,0,0,0,0,0,0,0,0,0,-1,755,470,0,0
-462,554,0,0,0,0,0,0,0,0,0,-1,762,470,0,0
-455,554,0,0,0,0,0,0,0,0,0,-1,769,470,0,0
-448,554,0,0,0,0,0,0,0,0,0,-1,776,470,0,0
-441,554,0,0,0,0,0,0,0,0,0,-1,783,470,0,0
-434,554,0,0,0,0,0,0,0,0,0,-1,790,470,0,0
-427,554,0,0,0,0,0,0,0,0,0,-1,797,470,0,0
-420,554,0,0,0,0,0,0,0,0,0,-1,804,470,0,0
-413,554,0,0,0,0,0,0,0,0,0,-1,811,470,0,0
-406,554,0,0,0,0,0,0,0,0,0,-1,818,470,0,0
-399,554,-1.32275,-3.95142,0,0,0,0,0,0,0,-1,825,470,-1.32275,3.95141
-392,554,-1.35632,-3.7406,0,0,0,0,0,0,0,-1,832,470,-1.35632,3.7406
-385,554,-0.849243,-4.14447,0,0,0,0,0,0,0,-1,839,470,-0.849262,4.14446
-378,554,-0.982666,-4.55084,0,0,0,0,0,0,0,-1,846,470,-0.982671,4.55084
-371,554,-1.74542,-4.63467,0,0,0,0,0,0,0,-1,853,470,-1.74541,4.63468
-364,554,1.04883,-7.68756,0,0,0,0,0,0,0,-1,860,470,1.0488,7.68757
-357,554,1.62164,-19.1316,0,0,0,0,0,0,0,-1,867,470,1.62162,19.1316
-350,554,1.17157,-18.1341,0,0,0,0,0,0,0,-1,874,470,1.17156,18.1341
-343,554,1.30267,-21.0351,0,0,0,0,0,0,0,-1,881,470,1.30266,21.0351
-336,554,1.30371,-22.0385,0.00572092,0.0230918,-0.00282223,0.0235388,0.0052739,-1.41371,0.0142634,0.0444929,888,470,1.30369,22.0385
-329,554,1.18439,-22.6029,0.0048559,0.0191541,-0.00217598,0.0194779,0.00453208,-1.42306,0.0117691,0.0219203,895,470,1.18439,22.6029
-322,554,1.12659,-23.16,0.00405586,0.0160297,-0.00191157,0.0163275,0.00375809,-1.41627,0.00987365,0.0137645,902,470,1.12656,23.16
-315,554,1.13324,-23.7066,0.003423,0.013493,-0.00190282,0.0138406,0.00307544,-1.39013,0.00839189,0.0134041,909,470,1.13324,23.7066
-308,554,1.10223,-24.2835,0.00271602,0.0113188,-0.00191711,0.0117267,0.00230813,-1.36116,0.00717328,0.0149272,916,470,1.10225,24.2835
-301,554,1.09271,-24.8572,0.00212419,0.00907059,-0.00196657,0.00958869,0.00160609,-1.31319,0.00593005,0.0145724,923,470,1.0927,24.8572
-294,554,1.05219,-25.3982,0.00171208,0.00700825,-0.00187246,0.00760339,0.00111695,-1.26306,0.00474067,0.012086,930,470,1.05218,25.3981
-287,554,1.01318,-25.92,0.00143369,0.00532461,-0.00166917,0.00594254,0.000815765,-1.21624,0.00371971,0.0120592,937,470,1.01321,25.92
-280,554,0.967407,-26.4446,0.00127759,0.00402247,-0.00147882,0.00466758,0.00063248,-1.15945,0.00292378,0.0123307,944,470,0.967399,26.4446
-273,554,0.936584,-26.9806,0.00112618,0.00276307,-0.00120357,0.00340011,0.000489142,-1.08399,0.00212257,0.0152335,951,470,0.936604,26.9806
-266,554,0.936157,-27.5087,0.00114718,0.00140307,-0.000829009,0.00211395,0.0004363,-0.861963,0.00128872,0.0119096,958,470,0.936185,27.5087
-259,554,0.93158,-27.9916,0.0014857,-8.61852e-05,-0.000364817,0.00156624,-0.000166728,-0.217291,0.00110394,0.0122689,965,470,0.931564,27.9916
-252,554,0.90686,-28.4663,0.0018583,-0.00156049,0.000398687,0.00190418,-0.00160637,0.114568,0.00202924,0.0153883,972,470,0.906884,28.4663
-245,554,0.89032,-28.9704,0.00225449,-0.0031129,0.00108772,0.00246655,-0.00332495,0.192537,0.00335594,0.0165974,979,470,0.890307,28.9704
-238,554,0.890991,-29.4954,0.00290289,-0.00499658,0.00178032,0.00328559,-0.00537927,0.211737,0.0050511,0.0122243,986,470,0.891005,29.4954
-231,554,0.878662,-30.0076,0.00381985,-0.0072459,0.00224446,0.00425776,-0.00768381,0.192688,0.00698841,0.0108422,993,470,0.878639,30.0076
-224,554,0.891113,-30.4609,0.00457887,-0.00966752,0.00291739,0.00515314,-0.0102418,0.194361,0.00904867,0.0103429,1000,470,0.891111,30.4609
-217,554,0.918823,-30.9192,0.00545787,-0.0121995,0.00355714,0.00614753,-0.0128892,0.191505,0.0112182,0.00999918,1007,470,0.91883,30.9192
-210,554,0.932068,-31.3884,0.00648242,-0.0145789,0.00408844,0.00724823,-0.0153447,0.185164,0.0133203,0.0142338,1014,470,0.932064,31.3884
-203,554,0.933228,-31.7788,0.00764627,-0.0169314,0.00443964,0.00842364,-0.0177088,0.173341,0.0154017,0.0240976,1021,470,0.9332,31.7788
-196,554,0.910645,-32.0826,0.00875009,-0.0195153,0.00473606,0.00952254,-0.0202877,0.161676,0.0175811,0.0305172,1028,470,0.910638,32.0826
-189,554,1.02148,-32.3733,0.0102422,-0.0217878,0.00510648,0.0110366,-0.0225822,0.154333,0.0197877,0.0367665,1035,470,1.0215,32.3733
-182,554,1.43054,-32.735,0.00986631,-0.0205964,0.00597127,0.010995,-0.0217251,0.186812,0.0192265,0.0497322,1042,470,1.43052,32.735
-175,554,0.88269,-33.2166,0,0,0,0,0,0,0,-1,1049,470,0.882668,33.2166
-168,554,0.910522,-33.7049,0,0,0,0,0,0,0,-1,1056,470,0.910566,33.7049
-161,554,0.919067,-34.0088,0,0,0,0,0,0,0,-1,1063,470,0.919125,34.0088
-154,554,1.22852,-33.9865,0,0,0,0,0,0,0,-1,1070,470,1.22851,33.9865
-147,554,0.781738,-31.8032,0,0,0,0,0,0,0,-1,1077,470,0.78169,31.8032
-140,554,1.27649,-34.7928,0,0,0,0,0,0,0,-1,1084,470,1.27647,34.7928
-133,554,2.00049,-35.3737,0,0,0,0,0,0,0,-1,1091,470,2.00055,35.3737
-126,554,-0.266968,-32.0629,0,0,0,0,0,0,0,-1,1098,470,-0.266965,32.0629
-119,554,-1.03479,-32.1628,0,0,0,0,0,0,0,-1,1105,470,-1.03476,32.1628
-112,554,1.03162,-24.5784,0,0,0,0,0,0,0,-1,1112,470,1.03156,24.5784
-105,554,0.608765,-21.0475,0,0,0,0,0,0,0,-1,1119,470,0.608728,21.0475
-98,554,1.51929,-7.3624,0,0,0,0,0,0,0,-1,1126,470,1.51928,7.36241
-91,554,1.41089,-6.5864,0,0,0,0,0,0,0,-1,1133,470,1.41093,6.58638
-84,554,1.62305,-5.87186,0,0,0,0,0,0,0,-1,1140,470,1.62299,5.87186
-77,554,-2.56958,1.33258,0,0,0,0,0,0,0,-1,1147,470,-2.56959,-1.33257
-70,554,-3.68164,-1.18332,0,0,0,0,0,0,0,-1,1154,470,-3.68158,1.18331
-63,554,-4.86853,-3.88708,0,0,0,0,0,0,0,-1,1161,470,-4.86853,3.88708
-56,554,-5.69958,-6.45422,0,0,0,0,0,0,0,-1,1168,470,-5.69955,6.45422
-49,554,-6.23645,-8.8569,0,0,0,0,0,0,0,-1,1175,470,-6.23643,8.85689
-42,554,-6.62524,-11.5382,0,0,0,0,0,0,0,-1,1182,470,-6.62522,11.5382
-35,554,-2.40173,-4.59482,0,0,0,0,0,0,0,-1,1189,470,-2.40169,4.59481
-28,554,-0.760132,-1.65555,0,0,0,0,0,0,0,-1,1196,470,-0.760095,1.65556
-21,554,-6.11462,-31.9121,0,0,0,0,0,0,0,-1,1203,470,-6.11458,31.9122
-14,554,3.54956,-42.1287,0,0,0,0,0,0,0,-1,1210,470,3.54955,42.1287
-7,554,3.72729,-41.4203,0,0,0,0,0,0,0,-1,1217,470,3.72725,41.4203
0,554,5.03101,-40.87,0,0,0,0,0,0,0,-1,1224,470,5.03095,40.87
7,554,4.96021,-40.743,-0.0250192,-0.0302986,0.00164748,-0.0245472,-0.0307705,0.278982,0.018786,0.0491537,1231,470,4.96025,40.743
14,554,4.89294,-40.6493,-0.0180871,-0.0409599,-0.00679116,-0.0162227,-0.0428243,-0.267932,0.0249655,0.0465785,1238,470,4.8929,40.6493
21,554,5.54248,-36.3632,0,0,0,0,0,0,0,-1,1245,470,5.54243,36.3632
28,554,5.41992,-36.2807,-0.00218903,-0.0627499,-0.0192007,0.0033854,-0.0683243,-0.282557,0.0467189,0.0463357,1252,470,5.41989,36.2807
35,554,5.13818,-36.0525,0.00699272,-0.0735703,-0.0256964,0.0144909,-0.0810685,-0.283918,0.0594674,0.0417479,1259,470,5.13819,36.0525
42,554,5.13098,-35.9663,0,0,0,0,0,0,0,-1,1266,470,5.13103,35.9663
49,554,2.36584,-37.2044,0,0,0,0,0,0,0,-1,1273,470,2.36582,37.2044
56,554,2.72705,-38.34,0.0351322,-0.0999147,-0.0410659,0.0466393,-0.111422,-0.273204,0.0937767,0.0430298,1280,470,2.72702,38.34
63,554,2.97644,-39.4563,0.0453858,-0.107038,-0.0451874,0.057775,-0.119428,-0.267597,0.104352,0.0429194,1287,470,2.97643,39.4563
70,554,3.20935,-40.5658,0.0535687,-0.113104,-0.0483051,0.0665564,-0.126091,-0.262657,0.112982,0.0436776,1294,470,3.20935,40.5658
77,554,3.58728,-41.7901,0.0571748,-0.113292,-0.0515434,0.0715479,-0.127665,-0.271946,0.116527,0.0429791,1301,470,3.58731,41.7901
84,554,3.802,-43.5917,0.0616051,-0.114162,-0.0553908,0.0776045,-0.130161,-0.281192,0.121226,0.0441002,1308,470,3.80196,43.5918
91,554,3.76001,-45.4183,0.0632622,-0.114582,-0.0592449,0.0811909,-0.132511,-0.293859,0.124561,0.0422691,1315,470,3.76006,45.4182
98,554,3.71973,-47.1846,0.0587972,-0.11505,-0.0617975,0.0785256,-0.134779,-0.309015,0.124571,0.0442942,1322,470,3.71973,47.1846
105,554,4.05298,-48.934,0.0486897,-0.12009,-0.0625853,0.0693645,-0.140765,-0.319059,0.123631,0.0455009,1329,470,4.05296,48.934
112,554,4.28162,-50.8266,0.0389839,-0.125611,-0.0631937,0.0604473,-0.147075,-0.32742,0.123243,0.0427331,1336,470,4.28158,50.8266
119,554,4.42761,-52.6234,0.0255685,-0.13247,-0.0623346,0.0471954,-0.154097,-0.333953,0.121557,0.0437746,1343,470,4.42758,52.6234
126,554,4.58081,-54.3663,0.00832267,-0.141077,-0.0600914,0.0294927,-0.162247,-0.33872,0.119218,0.0458654,1350,470,4.5808,54.3663
133,554,4.7522,-56.1191,0,0,0,0,0,0,0,-1,1357,470,4.75224,56.1191
140,554,-3.09998,-36.2898,0,0,0,0,0,0,0,-1,1364,470,-3.09998,36.2898
147,554,-0.574463,-57.607,0,0,0,0,0,0,0,-1,1371,470,-0.574505,57.607
154,554,-1.68652,-59.3949,-0.0907853,-0.180627,-0.0434064,-0.0732402,-0.198172,-0.384127,0.115705,0.0438681,1378,470,-1.68654,59.3949
161,554,-2.48462,-61.1617,0,0,0,0,0,0,0,-1,1385,470,-2.48463,61.1618
168,554,-3.2738,-62.8416,0,0,0,0,0,0,0,-1,1392,470,-3.27385,62.8416
175,554,10.663,0.286957,0,0,0,0,0,0,0,-1,1399,470,10.663,-0.286966
182,554,6.71106,-4.50217,0,0,0,0,0,0,0,-1,1406,470,6.71107,4.50215
189,554,6.90479,-2.50348,0,0,0,0,0,0,0,-1,1413,470,6.90477,2.50348
196,554,6.96216,-0.740906,0,0,0,0,0,0,0,-1,1420,470,6.96214,0.740912
203,554,6.43518,0.414154,0,0,0,0,0,0,0,-1,1427,470,6.43523,-0.414141
210,554,6.21167,1.96707,0,0,0,0,0,0,0,-1,1434,470,6.21165,-1.96706
217,554,5.64551,3.4989,0,0,0,0,0,0,0,-1,1441,470,5.64555,-3.49891
224,554,4.85144,-8.85172,0,0,0,0,0,0,0,-1,1448,470,4.85146,8.85173
231,554,3.25073,-5.29642,0,0,0,0,0,0,0,-1,1455,470,3.25078,5.29642
238,554,4.28625,-3.25253,0,0,0,0,0,0,0,-1,1462,470,4.28622,3.25252
245,554,4.0752,-2.90033,0,0,0,0,0,0,0,-1,1469,470,4.07515,2.90032
252,554,3.52112,-0.934998,0,0,0,0,0,0,0,-1,1476,470,3.52113,0.934996
259,554,3.96448,-2.16425,0,0,0,0,0,0,0,-1,1483,470,3.96446,2.16424
266,554,3.0592,-2.71716,0,0,0,0,0,0,0,-1,1490,470,3.05923,2.71718
273,554,2.58521,-3.06876,0,0,0,0,0,0,0,-1,1497,470,2.58524,3.06874
280,554,2.83301,-0.991699,0,0,0,0,0,0,0,-1,1504,470,2.83303,0.991704
287,554,3.54126,-4.12277,0,0,0,0,0,0,0,-1,1511,470,3.54123,4.12277
294,554,3.62036,-8.50146,0,0,0,0,0,0,0,-1,1518,470,3.62031,8.50145
301,554,9.31323,-32.2134,0,0,0,0,0,0,0,-1,1525,470,9.31327,32.2134
308,554,9.74377,-32.3182,0,0,0,0,0,0,0,-1,1532,470,9.74373,32.3182
315,554,9.89832,-32.0411,0,0,0,0,0,0,0,-1,1539,470,9.89831,32.0411
322,554,9.86719,-31.6398,0,0,0,0,0,0,0,-1,1546,470,9.86724,31.6398
329,554,9.90405,-30.9766,0.00164125,-0.00834528,-0.00428842,0.00323003,-0.00993406,-0.354802,0.007922,0.0375988,1553,470,9.90402,30.9766
336,554,9.90759,-30.6266,0.000960355,-0.00713556,-0.00396997,0.00258219,-0.0087574,-0.387836,0.00686288,0.0239195,1560,470,9.90756,30.6267
343,554,9.91309,-30.2067,0.00019395,-0.0060948,-0.00374178,0.00193711,-0.00783796,-0.435968,0.00597659,0.0140548,1567,470,9.91313,30.2067
350,554,9.94373,-29.6922,-0.000351802,-0.00510491,-0.00335072,0.0013796,-0.00683632,-0.476939,0.00508024,0.0101972,1574,470,9.94369,29.6922
357,554,9.94446,-29.1866,-0.000775002,-0.00394964,-0.00293856,0.000977546,-0.00570219,-0.537766,0.00416572,0.011628,1581,470,9.94446,29.1866
364,554,9.93176,-28.7065,-0.00090272,-0.00300034,-0.00235694,0.000628229,-0.00453129,-0.576059,0.00325057,0.00974641,1588,470,9.93178,28.7065
371,554,9.91211,-28.1906,-0.000799915,-0.00203628,-0.00169623,0.000387263,-0.00322346,-0.610655,0.00228901,0.00893102,1595,470,9.91206,28.1906
378,554,9.87769,-27.6489,-0.000644279,-0.000989455,-0.00105999,0.000257083,-0.00189082,-0.704696,0.0013544,0.0102932,1602,470,9.87769,27.6489
385,554,9.87537,-27.1172,-0.000486694,0.000212464,-0.000481029,0.000457523,-0.000731753,-1.09962,0.000692687,0.00998468,1609,470,9.87536,27.1172
392,554,9.87769,-26.5562,-0.000281076,0.00122167,2.55509e-05,0.0012221,-0.00028151,1.5538,0.000922995,0.0133385,1616,470,9.87766,26.5562
399,554,9.85876,-26.0239,-4.50959e-05,0.00202014,0.000494038,0.00213224,-0.000157193,1.34767,0.00147668,0.0182613,1623,470,9.85878,26.0239
406,554,9.83032,-25.4901,0.00011265,0.00288839,0.000897202,0.00315314,-0.000152101,1.28386,0.00215459,0.0157354,1630,470,9.83036,25.4901
413,554,9.82935,-24.9279,0.000211596,0.00367213,0.0012341,0.00406715,-0.00018342,1.26102,0.00277459,0.0149008,1637,470,9.82937,24.9279
420,554,9.82202,-24.3699,-0.000261256,0.00412118,0.00151598,0.00459447,-0.00073455,1.26818,0.00333491,0.0162709,1644,470,9.82207,24.3699
427,554,9.79944,-23.7975,-0.00121395,0.00413495,0.00177384,0.00466974,-0.00174873,1.27798,0.00383149,0.0116727,1651,470,9.79941,23.7975
434,554,9.76648,-23.2456,-0.00277831,0.00379257,0.00212894,0.00442204,-0.00340778,1.28331,0.00453317,0.0102605,1658,470,9.76653,23.2456
441,554,9.76074,-22.6518,-0.00447222,0.00326119,0.00252512,0.00401267,-0.0052237,1.28154,0.00534788,0.0119519,1665,470,9.76077,22.6518
448,554,9.72729,-22.0122,-0.00686377,0.00271675,0.00299811,0.00357762,-0.00772464,1.29118,0.00667017,0.0180468,1672,470,9.72732,22.0122
455,554,9.67908,-21.4458,-0.00972513,0.00163613,0.00354986,0.00265409,-0.0107431,1.29153,0.00819136,0.0195356,1679,470,9.67904,21.4458
462,554,9.61487,-20.8947,-0.0128828,0.000463301,0.00438536,0.0017753,-0.0141948,1.28009,0.010107,0.0209967,1686,470,9.61487,20.8947
469,554,9.52087,-20.3288,-0.0166594,-0.000800588,0.0053157,0.000816324,-0.0182763,1.27551,0.0124652,0.0243045,1693,470,9.52087,20.3288
476,554,9.36694,-19.3553,-0.0208889,-0.00214866,0.00654341,-9.00682e-05,-0.0229475,1.266,0.0152684,0.0430258,1700,470,9.36689,19.3553
483,554,9.19482,-18.3742,0,0,0,0,0,0,0,-1,1707,470,9.19487,18.3742
490,554,11.1191,-11.7417,0,0,0,0,0,0,0,-1,1714,470,11.1192,11.7417
497,554,10.9613,1.60983,0,0,0,0,0,0,0,-1,1721,470,10.9613,-1.60982
504,554,2.13257,-3.81628,0,0,0,0,0,0,0,-1,1728,470,2.1326,3.8163
511,554,1.31396,-4.02713,0,0,0,0,0,0,0,-1,1735,470,1.31398,4.02712
518,554,5.04236,-5.9472,0,0,0,0,0,0,0,-1,1742,470,5.04231,5.94721
525,554,0,0,0,0,0,0,0,0,0,-1,1749,470,0,0
532,554,0,0,0,0,0,0,0,0,0,-1,1756,470,0,0
539,554,0,0,0,0,0,0,0,0,0,-1,1763,470,0,0
546,554,0,0,0,0,0,0,0,0,0,-1,1770,470,0,0
553,554,0,0,0,0,0,0,0,0,0,-1,1777,470,0,0
560,554,0,0,0,0,0,0,0,0,0,-1,1784,470,0,0
567,554,0,0,0,0,0,0,0,0,0,-1,1791,470,0,0
574,554,0,0,0,0,0,0,0,0,0,-1,1798,470,0,0
581,554,0,0,0,0,0,0,0,0,0,-1,1805,470,0,0
588,554,0,0,0,0,0,0,0,0,0,-1,1812,470,0,0
595,554,0,0,0,0,0,0,0,0,0,-1,1819,470,0,0
602,554,0,0,0,0,0,0,0,0,0,-1,1826,470,0,0
609,554,0,0,0,0,0,0,0,0,0,-1,1833,470,0,0
616,554,0,0,0,0,0,0,0,0,0,-1,1840,470,0,0
623,554,0,0,0,0,0,0,0,0,0,-1,1847,470,0,0
630,554,0,0,0,0,0,0,0,0,0,-1,1854,470,0,0
637,554,0,0,0,0,0,0,0,0,0,-1,1861,470,0,0
644,554,0,0,0,0,0,0,0,0,0,-1,1868,470,0,0
651,554,0,0,0,0,0,0,0,0,0,-1,1875,470,0,0
658,554,0,0,0,0,0,0,0,0,0,-1,1882,470,0,0
665,554,0,0,0,0,0,0,0,0,0,-1,1889,470,0,0
672,554,0,0,0,0,0,0,0,0,0,-1,1896,470,0,0
679,554,0,0,0,0,0,0,0,0,0,-1,1903,470,0,0
686,554,0,0,0,0,0,0,0,0,0,-1,1910,470,0,0
693,554,0,0,0,0,0,0,0,0,0,-1,1917,470,0,0
700,554,0,0,0,0,0,0,0,0,0,-1,1924,470,0,0
707,554,0,0,0,0,0,0,0,0,0,-1,1931,470,0,0
714,554,0,0,0,0,0,0,0,0,0,-1,1938,470,0,0
721,554,0,0,0,0,0,0,0,0,0,-1,1945,470,0,0
728,554,0,0,0,0,0,0,0,0,0,-1,1952,470,0,0
735,554,0,0,0,0,0,0,0,0,0,-1,1959,470,0,0
742,554,0,0,0,0,0,0,0,0,0,-1,1966,470,0,0
749,554,0,0,0,0,0,0,0,0,0,-1,1973,470,0,0
756,554,0,0,0,0,0,0,0,0,0,-1,1980,470,0,0
763,554,0,0,0,0,0,0,0,0,0,-1,1987,470,0,0
770,554,0,0,0,0,0,0,0,0,0,-1,1994,470,0,0
777,554,0,0,0,0,0,0,0,0,0,-1,2001,470,0,0
784,554,0,0,0,0,0,0,0,0,0,-1,2008,470,0,0
791,554,0,0,0,0,0,0,0,0,0,-1,2015,470,0,0
798,554,0,0,0,0,0,0,0,0,0,-1,2022,470,0,0
805,554,0,0,0,0,0,0,0,0,0,-1,2029,470,0,0
812,554,0,0,0,0,0,0,0,0,0,-1,2036,470,0,0
-700,547,0,0,0,0,0,0,0,0,0,-1,524,477,0,0
-693,547,0,0,0,0,0,0,0,0,0,-1,531,477,0,0
-686,547,0,0,0,0,0,0,0,0,0,-1,538,477,0,0
-679,547,0,0,0,0,0,0,0,0,0,-1,545,477,0,0
-672,547,0,0,0,0,0,0,0,0,0,-1,552,477,0,0
-665,547,0,0,0,0,0,0,0,0,0,-1,559,477,0,0
-658,547,0,0,0,0,0,0,0,0,0,-1,566,477,0,0
-651,547,0,0,0,0,0,0,0,0,0,-1,573,477,0,0
-644,547,0,0,0,0,0,0,0,0,0,-1,580,477,0,0
-637,547,0,0,0,0,0,0,0,0,0,-1,587,477,0,0
-630,547,0,0,0,0,0,0,0,0,0,-1,594,477,0,0
-623,547,0,0,0,0,0,0,0,0,0,-1,601,477,0,0
-616,547,0,0,0,0,0,0,0,0,0,-1,608,477,0,0
-609,547,0,0,0,0,0,0,0,0,0,-1,615,477,0,0
-602,547,0,0,0,0,0,0,0,0,0,-1,622,477,0,0
-595,547,0,0,0,0,0,0,0,0,0,-1,629,477,0,0
-588,547,0,0,0,0,0,0,0,0,0,-1,636,477,0,0
-581,547,0,0,0,0,0,0,0,0,0,-1,643,477,0,0
-574,547,0,0,0,0,0,0,0,0,0,-1,650,477,0,0
-567,547,0,0,0,0,0,0,0,0,0,-1,657,477,0,0
-560,547,0,0,0,0,0,0,0,0,0,-1,664,477,0,0
-553,547,0,0,0,0,0,0,0,0,0,-1,671,477,0,0
-546,547,0,0,0,0,0,0,0,0,0,-1,678,477,0,0
-539,547,0,0,0,0,0,0,0,0,0,-1,685,477,0,0
-532,547,0,0,0,0,0,0,0,0,0,-1,692,477,0,0
-525,547,0,0,0,0,0,0,0,0,0,-1,699,477,0,0
-518,547,0,0,0,0,0,0,0,0,0,-1,706,477,0,0
-511,547,0,0,0,0,0,0,0,0,0,-1,713,477,0,0
-504,547,0,0,0,0,0,0,0,0,0,-1,720,477,0,0
-497,547,0,0,0,0,0,0,0,0,0,-1,727,477,0,0
-490,547,0,0,0,0,0,0,0,0,0,-1,734,477,0,0
-483,547,0,0,0,0,0,0,0,0,0,-1,741,477,0,0
-476,547,0,0,0,0,0,0,0,0,0,-1,748,477,0,0
-469,547,0,0,0,0,0,0,0,0,0,-1,755,477,0,0
-462,547,0,0,0,0,0,0,0,0,0,-1,762,477,0,0
-455,547,0,0,0,0,0,0,0,0,0,-1,769,477,0,0
-448,547,0,0,0,0,0,0,0,0,0,-1,776,477,0,0
-441,547,0,0,0,0,0,0,0,0,0,-1,783,477,0,0
-434,547,0,0,0,0,0,0,0,0,0,-1,790,477,0,0
-427,547,0,0,0,0,0,0,0,0,0,-1,797,477,0,0
-420,547,0,0,0,0,0,0,0,0,0,-1,804,477,0,0
-413,547,0,0,0,0,0,0,0,0,0,-1,811,477,0,0
-406,547,0.144592,-11.0292,0,0,0,0,0,0,0,-1,818,477,0.144583,11.0292
-399,547,0.775513,-10.0294,0,0,0,0,0,0,0,-1,825,477,0.775482,10.0295
-392,547,-1.52271,-4.41675,0,0,0,0,0,0,0,-1,832,477,-1.52273,4.41674
-385,547,-1.73743,-4.6431,0,0,0,0,0,0,0,-1,839,477,-1.73743,4.64308
-378,547,-2.41339,-4.60071,0,0,0,0,0,0,0,-1,846,477,-2.41337,4.60071
-371,547,1.64569,-11.1445,0,0,0,0,0,0,0,-1,853,477,1.64569,11.1445
-364,547,0.998169,-19.0624,0,0,0,0,0,0,0,-1,860,477,0.998159,19.0624
-357,547,0.864136,-19.7345,0,0,0,0,0,0,0,-1,867,477,0.864163,19.7345
-350,547,0.730164,-20.4065,0,0,0,0,0,0,0,-1,874,477,0.730167,20.4065
-343,547,0.741699,-21.1473,0.00382046,0.0216592,-0.00409553,0.0225545,0.00292511,-1.35557,0.0141623,0.0486311,881,477,0.741691,21.1473
-336,547,0.720215,-21.9868,0.00340351,0.0183792,-0.00315497,0.0190167,0.00276598,-1.37141,0.0118638,0.0198358,888,477,0.72023,21.9868
-329,547,0.640259,-22.5931,0.00292591,0.0149966,-0.00228471,0.0154146,0.00250794,-1.38985,0.00955082,0.011485,895,477,0.640236,22.5931
-322,547,0.606018,-23.159,0.00249668,0.0123972,-0.00180318,0.0127154,0.0021785,-1.39613,0.00785214,0.0119204,902,477,0.606038,23.159
-315,547,0.57666,-23.7459,0.00221426,0.0102215,-0.0015868,0.0105245,0.00191127,-1.38212,0.00647399,0.010874,909,477,0.576634,23.7459
-308,547,0.56842,-24.2971,0.0018355,0.00838156,-0.00141975,0.00867622,0.00154085,-1.36616,0.00534508,0.0124525,916,477,0.568394,24.2972
-301,547,0.552429,-24.8507,0.00151461,0.0065661,-0.00137053,0.00691398,0.00116673,-1.32222,0.00427383,0.0120666,923,477,0.55245,24.8507
-294,547,0.504761,-25.3876,0.00135887,0.0048358,-0.00122159,0.00522208,0.000972593,-1.26453,0.00320673,0.0102296,930,477,0.504739,25.3876
-287,547,0.481201,-25.9051,0.00132284,0.00339242,-0.000996392,0.00379415,0.000921111,-1.18755,0.00228514,0.0118279,937,477,0.481219,25.9051
-280,547,0.469604,-26.435,0.00133912,0.00223132,-0.000774019,0.00267859,0.000891852,-1.04682,0.00157499,0.0143674,944,477,0.469612,26.435
-273,547,0.454773,-26.9568,0.00138994,0.00109838,-0.000443039,0.00171057,0.000777754,-0.626457,0.000988947,0.0131943,951,477,0.454758,26.9568
-266,547,0.433289,-27.4771,0.00162924,-0.000159345,1.31323e-05,0.00162934,-0.000159442,0.00734177,0.00114308,0.0120634,958,477,0.433271,27.4771
-259,547,0.406311,-27.9661,0.00209062,-0.00158694,0.000550417,0.00217123,-0.00166755,0.145425,0.00222267,0.0112534,965,477,0.406334,27.9661
-252,547,0.419983,-28.4626,0.00252715,-0.00330214,0.00130965,0.00280787,-0.00358286,0.21115,0.00369872,0.0113784,972,477,0.419964,28.4626
-245,547,0.424866,-28.9728,0.00300792,-0.00505135,0.00209138,0.00351831,-0.00556174,0.239366,0.00528644,0.0121435,979,477,0.424882,28.9728
-238,547,0.418579,-29.4945,0.0037827,-0.00718701,0.00286926,0.00448786,-0.00789217,0.240988,0.00723713,0.00865229,986,477,0.418556,29.4945
-231,547,0.395386,-29.9842,0.00492503,-0.00979819,0.00336217,0.00565647,-0.0105296,0.214213,0.00948518,0.00843182,993,477,0.395364,29.9842
-224,547,0.403564,-30.4248,0.00585575,-0.0126961,0.00416107,0.0067463,-0.0135866,0.21084,0.0119586,0.010877,1000,477,0.403535,30.4248
-217,547,0.437012,-30.8596,0.00696007,-0.0157842,0.00492776,0.00798181,-0.016806,0.204448,0.0146104,0.0169624,1007,477,0.437037,30.8596
-210,547,0.490845,-31.1672,0.00825973,-0.0186472,0.00554971,0.00935944,-0.0197469,0.195623,0.0171575,0.0302085,1014,477,0.490828,31.1672
-203,547,0.502502,-31.2609,0.00974019,-0.0215908,0.0059659,0.0108377,-0.0226884,0.181936,0.0197553,0.0437261,1021,477,0.50253,31.2609
-196,547,0.434448,-31.7635,0,0,0,0,0,0,0,-1,1028,477,0.434439,31.7635
-189,547,0.612915,-31.9649,0,0,0,0,0,0,0,-1,1035,477,0.612955,31.9649
-182,547,1.40637,-32.3914,0,0,0,0,0,0,0,-1,1042,477,1.40638,32.3914
-175,547,-0.350098,-12.3584,0,0,0,0,0,0,0,-1,1049,477,-0.350098,12.3584
-168,547,0.761719,-32.9387,0,0,0,0,0,0,0,-1,1056,477,0.761738,32.9387
-161,547,0.587402,-32.7245,0,0,0,0,0,0,0,-1,1063,477,0.587446,32.7245
-154,547,-0.284424,-31.1176,0,0,0,0,0,0,0,-1,1070,477,-0.284395,31.1176
-147,547,3.69434,-26.413,0,0,0,0,0,0,0,-1,1077,477,3.69437,26.413
-140,547,1.55676,-22.5229,0,0,0,0,0,0,0,-1,1084,477,1.5568,22.5229
-133,547,2.31665,-17.9421,0,0,0,0,0,0,0,-1,1091,477,2.31667,17.9421
-126,547,-1.15271,-30.6984,0,0,0,0,0,0,0,-1,1098,477,-1.15267,30.6984
-119,547,0.967651,-24.9351,0,0,0,0,0,0,0,-1,1105,477,0.967657,24.9351
-112,547,1.15674,-22.2276,0,0,0,0,0,0,0,-1,1112,477,1.15677,22.2276
-105,547,0.966797,-20.5777,0,0,0,0,0,0,0,-1,1119,477,0.966804,20.5777
-98,547,0.70166,-18.9755,0,0,0,0,0,0,0,-1,1126,477,0.701713,18.9755
-91,547,1.37805,-7.12024,0,0,0,0,0,0,0,-1,1133,477,1.37804,7.12025
-84,547,1.94202,-6.66241,0,0,0,0,0,0,0,-1,1140,477,1.94201,6.66241
-77,547,-2.28357,1.8588,0,0,0,0,0,0,0,-1,1147,477,-2.28356,-1.85879
-70,547,-3.70178,-0.874908,0,0,0,0,0,0,0,-1,1154,477,-3.70182,0.874918
-63,547,-5.12012,-3.60861,0,0,0,0,0,0,0,-1,1161,477,-5.12009,3.60862
-56,547,-6.01917,-6.2399,0,0,0,0,0,0,0,-1,1168,477,-6.01921,6.23991
-49,547,-6.729,-8.60349,0,0,0,0,0,0,0,-1,1175,477,-6.72899,8.60348
-42,547,-2.41736,-5.53012,0,0,0,0,0,0,0,-1,1182,477,-2.41734,5.53011
-35,547,-2.96838,-4.45734,0,0,0,0,0,0,0,-1,1189,477,-2.96839,4.45734
-28,547,-0.869141,-1.29901,0,0,0,0,0,0,0,-1,1196,477,-0.869135,1.29901
-21,547,-7.68262,-30.8089,0,0,0,0,0,0,0,-1,1203,477,-7.68256,30.8089
-14,547,12.0903,-44.6413,0,0,0,0,0,0,0,-1,1210,477,12.0903,44.6413
-7,547,3.39807,-41.4561,0,0,0,0,0,0,0,-1,1217,477,3.39804,41.4561
0,547,9.93286,-44.7479,0,0,0,0,0,0,0,-1,1224,477,9.9329,44.7479
7,547,5.3717,-40.8576,0,0,0,0,0,0,0,-1,1231,477,5.37165,40.8576
14,547,0,0,0,0,0,0,0,0,0,-1,1238,477,0,0
21,547,0,0,0,0,0,0,0,0,0,-1,1245,477,0,0
28,547,0,0,0,0,0,0,0,0,0,-1,1252,477,0,0
35,547,0,0,0,0,0,0,0,0,0,-1,1259,477,0,0
42,547,0,0,0,0,0,0,0,0,0,-1,1266,477,0,0
49,547,0,0,0,0,0,0,0,0,0,-1,1273,477,0,0
56,547,0,0,0,0,0,0,0,0,0,-1,1280,477,0,0
63,547,0,0,0,0,0,0,0,0,0,-1,1287,477,0,0
70,547,0,0,0,0,0,0,0,0,0,-1,1294,477,0,0
77,547,0,0,0,0,0,0,0,0,0,-1,1301,477,0,0
84,547,0,0,0,0,0,0,0,0,0,-1,1308,477,0,0
91,547,0,0,0,0,0,0,0,0,0,-1,1315,477,0,0
98,547,0,0,0,0,0,0,0,0,0,-1,1322,477,0,0
105,547,3.16577,-47.9815,0.0717691,-0.124792,-0.0612065,0.0892698,-0.142293,-0.278498,0.134856,0.0445503,1329,477,3.16572,47.9815
112,547,3.56433,-50.1407,0.0624259,-0.1289,-0.0615734,0.0805289,-0.147003,-0.285949,0.133221,0.0443701,1336,477,3.56438,50.1407
119,547,3.76868,-51.9366,0.0486457,-0.134208,-0.060193,0.0666815,-0.152243,-0.29112,0.129574,0.0451624,1343,477,3.76862,51.9367
126,547,3.91724,-53.5948,0,0,0,0,0,0,0,-1,1350,477,3.91729,53.5948
133,547,-1.30994,-36.8137,0,0,0,0,0,0,0,-1,1357,477,-1.30998,36.8137
140,547,-2.22473,-36.2463,0,0,0,0,0,0,0,-1,1364,477,-2.22472,36.2463
147,547,-1.55994,-56.3242,0,0,0,0,0,0,0,-1,1371,477,-1.55995,56.3242
154,547,-2.35352,-58.0763,0,0,0,0,0,0,0,-1,1378,477,-2.35352,58.0763
161,547,-3.14709,-59.8283,0,0,0,0,0,0,0,-1,1385,477,-3.1471,59.8283
168,547,13.4181,-26.3557,0,0,0,0,0,0,0,-1,1392,477,13.4181,26.3557
175,547,3.35034,-0.26532,0,0,0,0,0,0,0,-1,1399,477,3.3503,0.265306
182,547,4.26038,3.72672,0,0,0,0,0,0,0,-1,1406,477,4.26039,-3.7267
189,547,3.40454,1.28671,0,0,0,0,0,0,0,-1,1413,477,3.40457,-1.28673
196,547,3.53931,1.87793,0,0,0,0,0,0,0,-1,1420,477,3.53928,-1.87794
203,547,6.49414,-0.425842,0,0,0,0,0,0,0,-1,1427,477,6.4941,0.425844
210,547,4.82092,0.53595,0,0,0,0,0,0,0,-1,1434,477,4.82096,-0.535942
217,547,4.68579,0.480072,0,0,0,0,0,0,0,-1,1441,477,4.68577,-0.480069
224,547,4.55615,0.739807,0,0,0,0,0,0,0,-1,1448,477,4.55613,-0.73981
231,547,5.90869,-3.57721,0,0,0,0,0,0,0,-1,1455,477,5.90871,3.57722
238,547,5.50049,-3.15356,0,0,0,0,0,0,0,-1,1462,477,5.50045,3.15356
245,547,5.13708,-2.65213,0,0,0,0,0,0,0,-1,1469,477,5.13708,2.65212
252,547,3.73511,-0.645233,0,0,0,0,0,0,0,-1,1476,477,3.73515,0.645237
259,547,5.86816,-3.20816,0,0,0,0,0,0,0,-1,1483,477,5.86815,3.20816
266,547,5.40222,-2.45731,0,0,0,0,0,0,0,-1,1490,477,5.40221,2.45732
273,547,3.05737,0.495789,0,0,0,0,0,0,0,-1,1497,477,3.05742,-0.49578
280,547,2.0885,1.47797,0,0,0,0,0,0,0,-1,1504,477,2.08848,-1.47795
287,547,2.31177,-2.21716,0,0,0,0,0,0,0,-1,1511,477,2.31174,2.21717
294,547,2.4823,-3.03659,0,0,0,0,0,0,0,-1,1518,477,2.48229,3.0366
301,547,4.72119,-3.93454,0,0,0,0,0,0,0,-1,1525,477,4.72119,3.93453
308,547,4.07471,-5.42175,0,0,0,0,0,0,0,-1,1532,477,4.07468,5.42174
315,547,3.58496,-6.62112,0,0,0,0,0,0,0,-1,1539,477,3.58497,6.62113
322,547,5.73926,-14.1878,0,0,0,0,0,0,0,-1,1546,477,5.73926,14.1878
329,547,10.3325,-30.9313,0,0,0,0,0,0,0,-1,1553,477,10.3325,30.9313
336,547,10.4291,-30.7421,0,0,0,0,0,0,0,-1,1560,477,10.429,30.7421
343,547,10.5613,-30.3136,-0.000782661,-0.00832231,-0.00534269,0.00198632,-0.0110913,-0.47816,0.00813752,0.0489582,1567,477,10.5613,30.3136
350,547,10.4816,-29.709,-0.0013141,-0.00724804,-0.00488407,0.00143357,-0.0099957,-0.512448,0.00718946,0.0295386,1574,477,10.4815,29.7089
357,547,10.4597,-29.195,-0.00164693,-0.00597616,-0.00440303,0.0010948,-0.00871789,-0.556938,0.00620912,0.0153615,1581,477,10.4598,29.195
364,547,10.4388,-28.6865,-0.0016378,-0.00493209,-0.0037328,0.000795117,-0.007365,-0.577616,0.00519536,0.0104073,1588,477,10.4388,28.6865
371,547,10.4423,-28.1617,-0.00135903,-0.00385575,-0.00297152,0.0006157,-0.00583048,-0.586538,0.00410763,0.0095982,1595,477,10.4423,28.1617
378,547,10.4364,-27.6411,-0.0010093,-0.00265561,-0.00218011,0.000497879,-0.00416279,-0.604885,0.00295517,0.0108019,1602,477,10.4364,27.6411
385,547,10.4231,-27.1044,-0.000640646,-0.00137446,-0.00138267,0.000422974,-0.00243808,-0.655707,0.00178318,0.0111111,1609,477,10.4232,27.1044
392,547,10.4131,-26.5482,-0.00028766,-0.000274525,-0.000724906,0.000443843,-0.00100603,-0.789928,0.000857803,0.0116473,1616,477,10.4131,26.5482
399,547,10.3864,-25.9984,3.14401e-05,0.000587916,-0.000149181,0.000625386,-6.0297e-06,-1.32472,0.000418948,0.0136851,1623,477,10.3864,25.9984
406,547,10.3853,-25.4503,0.000251495,0.00150642,0.000343139,0.00159412,0.000163798,1.32058,0.00101257,0.0125239,1630,477,10.3852,25.4503
413,547,10.384,-24.9221,0.000417738,0.00238534,0.000802349,0.00267104,0.000132039,1.22872,0.00173835,0.0125895,1637,477,10.384,24.9222
420,547,10.3779,-24.3821,0.000216193,0.00294755,0.00120982,0.00340636,-0.000242613,1.20832,0.00235594,0.0156145,1644,477,10.378,24.3821
427,547,10.3577,-23.8018,-0.00042683,0.00316079,0.00151548,0.00371527,-0.000981305,1.22005,0.00286061,0.0153183,1651,477,10.3576,23.8017
434,547,10.3018,-23.2533,-0.00156436,0.00303525,0.0018643,0.00369597,-0.00222508,1.2302,0.0034535,0.0102837,1658,477,10.3018,23.2533
441,547,10.281,-22.6814,-0.00285627,0.00269891,0.00227463,0.00351144,-0.0036688,1.22771,0.00414585,0.0105994,1665,477,10.281,22.6814
448,547,10.2433,-22.0784,-0.00464447,0.00246617,0.00275473,0.0034085,-0.0055868,1.2412,0.00524395,0.0108908,1672,477,10.2433,22.0784
455,547,10.2233,-21.4849,-0.0067014,0.00181822,0.00329852,0.00294601,-0.00782919,1.24135,0.00643048,0.011286,1679,477,10.2233,21.4849
462,547,10.1735,-20.914,-0.00883193,0.00111536,0.00411505,0.00259701,-0.0103136,1.22519,0.00788525,0.011846,1686,477,10.1734,20.914
469,547,10.1031,-20.2984,-0.0114371,0.000359966,0.00498586,0.00218487,-0.013262,1.21993,0.00965241,0.0193974,1693,477,10.1032,20.2984
476,547,10.0862,-19.4009,-0.0143492,-0.00038151,0.00613697,0.00193176,-0.0166625,1.21033,0.011805,0.0339117,1700,477,10.0862,19.4009
483,547,10.1012,-18.4736,0,0,0,0,0,0,0,-1,1707,477,10.1013,18.4736
490,547,3.65271,-3.71707,0,0,0,0,0,0,0,-1,1714,477,3.65277,3.71708
497,547,2.55481,-3.81421,0,0,0,0,0,0,0,-1,1721,477,2.55476,3.8142
504,547,4.01953,-2.22714,0,0,0,0,0,0,0,-1,1728,477,4.0195,2.22713
511,547,5.2146,-6.9552,0,0,0,0,0,0,0,-1,1735,477,5.21464,6.95521
518,547,5.24243,-6.56122,0,0,0,0,0,0,0,-1,1742,477,5.24241,6.56121
525,547,5.89368,-5.49866,0,0,0,0,0,0,0,-1,1749,477,5.89372,5.49866
532,547,0,0,0,0,0,0,0,0,0,-1,1756,477,0,0
539,547,0,0,0,0,0,0,0,0,0,-1,1763,477,0,0
546,547,0,0,0,0,0,0,0,0,0,-1,1770,477,0,0
553,547,0,0,0,0,0,0,0,0,0,-1,1777,477,0,0
560,547,0,0,0,0,0,0,0,0,0,-1,1784,477,0,0
567,547,0,0,0,0,0,0,0,0,0,-1,1791,477,0,0
574,547,0,0,0,0,0,0,0,0,0,-1,1798,477,0,0
581,547,0,0,0,0,0,0,0,0,0,-1,1805,477,0,0
588,547,0,0,0,0,0,0,0,0,0,-1,1812,477,0,0
595,547,0,0,0,0,0,0,0,0,0,-1,1819,477,0,0
602,547,0,0,0,0,0,0,0,0,0,-1,1826,477,0,0
609,547,0,0,0,0,0,0,0,0,0,-1,1833,477,0,0
616,547,0,0,0,0,0,0,0,0,0,-1,1840,477,0,0
623,547,0,0,0,0,0,0,0,0,0,-1,1847,477,0,0
630,547,0,0,0,0,0,0,0,0,0,-1,1854,477,0,0
637,547,0,0,0,0,0,0,0,0,0,-1,1861,477,0,0
644,547,0,0,0,0,0,0,0,0,0,-1,1868,477,0,0
651,547,0,0,0,0,0,0,0,0,0,-1,1875,477,0,0
658,547,0,0,0,0,0,0,0,0,0,-1,1882,477,0,0
665,547,0,0,0,0,0,0,0,0,0,-1,1889,477,0,0
672,547,0,0,0,0,0,0,0,0,0,-1,1896,477,0,0
679,547,0,0,0,0,0,0,0,0,0,-1,1903,477,0,0
686,547,0,0,0,0,0,0,0,0,0,-1,1910,477,0,0
693,547,0,0,0,0,0,0,0,0,0,-1,1917,477,0,0
700,547,0,0,0,0,0,0,0,0,0,-1,1924,477,0,0
707,547,0,0,0,0,0,0,0,0,0,-1,1931,477,0,0
714,547,0,0,0,0,0,0,0,0,0,-1,1938,477,0,0
721,547,0,0,0,0,0,0,0,0,0,-1,1945,477,0,0
728,547,0,0,0,0,0,0,0,0,0,-1,1952,477,0,0
735,547,0,0,0,0,0,0,0,0,0,-1,1959,477,0,0
742,547,0,0,0,0,0,0,0,0,0,-1,1966,477,0,0
749,547,0,0,0,0,0,0,0,0,0,-1,1973,477,0,0
756,547,0,0,0,0,0,0,0,0,0,-1,1980,477,0,0
763,547,0,0,0,0,0,0,0,0,0,-1,1987,477,0,0
770,547,0,0,0,0,0,0,0,0,0,-1,1994,477,0,0
777,547,0,0,0,0,0,0,0,0,0,-1,2001,477,0,0
784,547,0,0,0,0,0,0,0,0,0,-1,2008,477,0,0
791,547,0,0,0,0,0,0,0,0,0,-1,2015,477,0,0
798,547,0,0,0,0,0,0,0,0,0,-1,2022,477,0,0
805,547,0,0,0,0,0,0,0,0,0,-1,2029,477,0,0
812,547,0,0,0,0,0,0,0,0,0,-1,2036,477,0,0
-700,540,0,0,0,0,0,0,0,0,0,-1,524,484,0,0
-693,540,0,0,0,0,0,0,0,0,0,-1,531,484,0,0
-686,540,0,0,0,0,0,0,0,0,0,-1,538,484,0,0
-679,540,0,0,0,0,0,0,0,0,0,-1,545,484,0,0
-672,540,0,0,0,0,0,0,0,0,0,-1,552,484,0,0
-665,540,0,0,0,0,0,0,0,0,0,-1,559,484,0,0
-658,540,0,0,0,0,0,0,0,0,0,-1,566,484,0,0
-651,540,0,0,0,0,0,0,0,0,0,-1,573,484,0,0
-644,540,0,0,0,0,0,0,0,0,0,-1,580,484,0,0
-637,540,0,0,0,0,0,0,0,0,0,-1,587,484,0,0
-630,540,0,0,0,0,0,0,0,0,0,-1,594,484,0,0
-623,540,0,0,0,0,0,0,0,0,0,-1,601,484,0,0
-616,540,0,0,0,0,0,0,0,0,0,-1,608,484,0,0
-609,540,0,0,0,0,0,0,0,0,0,-1,615,484,0,0
-602,540,0,0,0,0,0,0,0,0,0,-1,622,484,0,0
-595,540,0,0,0,0,0,0,0,0,0,-1,629,484,0,0
-588,540,0,0,0,0,0,0,0,0,0,-1,636,484,0,0
-581,540,0,0,0,0,0,0,0,0,0,-1,643,484,0,0
-574,540,0,0,0,0,0,0,0,0,0,-1,650,484,0,0
-567,540,0,0,0,0,0,0,0,0,0,-1,657,484,0,0
-560,540,0,0,0,0,0,0,0,0,0,-1,664,484,0,0
-553,540,0,0,0,0,0,0,0,0,0,-1,671,484,0,0
-546,540,0,0,0,0,0,0,0,0,0,-1,678,484,0,0
-539,540,0,0,0,0,0,0,0,0,0,-1,685,484,0,0
-532,540,0,0,0,0,0,0,0,0,0,-1,692,484,0,0
-525,540,0,0,0,0,0,0,0,0,0,-1,699,484,0,0
-518,540,0,0,0,0,0,0,0,0,0,-1,706,484,0,0
-511,540,0,0,0,0,0,0,0,0,0,-1,713,484,0,0
-504,540,0,0,0,0,0,0,0,0,0,-1,720,484,0,0
-497,540,0,0,0,0,0,0,0,0,0,-1,727,484,0,0
-490,540,0,0,0,0,0,0,0,0,0,-1,734,484,0,0
-483,540,0,0,0,0,0,0,0,0,0,-1,741,484,0,0
-476,540,0,0,0,0,0,0,0,0,0,-1,748,484,0,0
-469,540,0,0,0,0,0,0,0,0,0,-1,755,484,0,0
-462,540,0,0,0,0,0,0,0,0,0,-1,762,484,0,0
-455,540,0,0,0,0,0,0,0,0,0,-1,769,484,0,0
-448,540,0,0,0,0,0,0,0,0,0,-1,776,484,0,0
-441,540,0,0,0,0,0,0,0,0,0,-1,783,484,0,0
-434,540,0,0,0,0,0,0,0,0,0,-1,790,484,0,0
-427,540,0,0,0,0,0,0,0,0,0,-1,797,484,0,0
-420,540,0.227051,-10.0402,0,0,0,0,0,0,0,-1,804,484,0.227063,10.0402
-413,540,-0.0393677,-10.3862,0,0,0,0,0,0,0,-1,811,484,-0.0393683,10.3862
-406,540,-0.518372,-11.5288,0,0,0,0,0,0,0,-1,818,484,-0.518402,11.5288
-399,540,0.0863037,-11.3801,0,0,0,0,0,0,0,-1,825,484,0.0863201,11.3801
-392,540,-0.517395,-10.6735,0,0,0,0,0,0,0,-1,832,484,-0.517377,10.6735
-385,540,-2.29407,-5.03418,0,0,0,0,0,0,0,-1,839,484,-2.29408,5.03418
-378,540,1.06445,-10.5824,0,0,0,0,0,0,0,-1,846,484,1.06446,10.5824
-371,540,1.14825,-10.7452,0,0,0,0,0,0,0,-1,853,484,1.14827,10.7452
-364,540,0.310791,-19.3269,0,0,0,0,0,0,0,-1,860,484,0.310762,19.3269
-357,540,0.25238,-20.0284,0.00311824,0.0254938,-0.00813061,0.0281362,0.000475856,-1.25657,0.0186008,0.047473,867,484,0.252353,20.0285
-350,540,0.239319,-20.4726,0.00260435,0.0207719,-0.00586581,0.0225012,0.000875036,-1.28411,0.0147178,0.0368935,874,484,0.239291,20.4726
-343,540,0.169983,-21.3164,0.00227585,0.017305,-0.00428244,0.0184396,0.00114125,-1.31181,0.0119308,0.0195231,881,484,0.170006,21.3164
-336,540,0.114319,-22.0542,0.00203573,0.014452,-0.00322401,0.0152392,0.00124849,-1.3313,0.00976993,0.0128548,888,484,0.114311,22.0542
-329,540,0.0775146,-22.606,0.00176701,0.0114698,-0.0022445,0.0119638,0.00127295,-1.35413,0.00758724,0.0109189,895,484,0.0774851,22.606
-322,540,0.0317993,-23.1539,0.00154948,0.00923977,-0.00163482,0.00957288,0.00121638,-1.36979,0.00601758,0.0159492,902,484,0.0317981,23.1539
-315,540,0.0258789,-23.7328,0.00147293,0.00729495,-0.00127296,0.00756111,0.00120677,-1.36468,0.00469052,0.0141542,909,484,0.0258532,23.7328
-308,540,0.0302124,-24.2719,0.00131645,0.00566763,-0.00097506,0.00587614,0.00110794,-1.36013,0.00360532,0.013223,916,484,0.030234,24.272
-301,540,-0.0188599,-24.7945,0.00119372,0.00412668,-0.000811228,0.0043361,0.000984292,-1.31816,0.00262489,0.0134256,923,484,-0.0188603,24.7945
-294,540,-0.0246582,-25.3449,0.00122262,0.00266141,-0.000582761,0.00286783,0.00101619,-1.23037,0.001679,0.0118956,930,484,-0.0246377,25.3449
-287,540,-0.013855,-25.8917,0.00137306,0.00142935,-0.0003261,0.00172852,0.00107389,-0.82845,0.0010077,0.00902727,937,484,-0.0138709,25.8917
-280,540,-0.0411377,-26.4172,0.00153403,0.000431201,-6.69137e-05,0.00153808,0.000427156,-0.0603793,0.000916793,0.0109085,944,484,-0.0411521,26.4172
-273,540,-0.0471802,-26.9317,0.00177467,-0.000506759,0.000315067,0.00181738,-0.00054947,0.134742,0.00143037,0.0123743,951,484,-0.0471582,26.9317
-266,540,-0.0548096,-27.4629,0.00223829,-0.00154692,0.000839321,0.00241605,-0.00172468,0.208707,0.00240174,0.012603,958,484,-0.0548182,27.4629
-259,540,-0.0874634,-27.9947,0.00284543,-0.00275896,0.00143148,0.00318989,-0.00310342,0.236142,0.00363356,0.0122191,965,484,-0.0874668,27.9947
-252,540,-0.0808105,-28.4588,0.00336769,-0.00459544,0.0021434,0.00390797,-0.00513571,0.24692,0.00523739,0.0119512,972,484,-0.0807956,28.4588
-245,540,-0.0598145,-28.9393,0.00397042,-0.00646811,0.00298292,0.00476268,-0.00726038,0.259608,0.00699127,0.0122203,979,484,-0.0598056,28.9393
-238,540,-0.0928955,-29.4296,0.00490831,-0.00884938,0.00383043,0.00590288,-0.00984395,0.25404,0.00918586,0.00976463,986,484,-0.0929252,29.4296
-231,540,-0.0881348,-29.9003,0.00632388,-0.011883,0.00435176,0.00731055,-0.0128697,0.22296,0.0117975,0.0153422,993,484,-0.0881175,29.9003
-224,540,-0.0880127,-30.3276,0.00746707,-0.0154397,0.00532729,0.00864539,-0.016618,0.217682,0.014826,0.0270485,1000,484,-0.0880323,30.3277
-217,540,-0.0585327,-30.5592,0.00887902,-0.0193815,0.00629383,0.0102173,-0.0207198,0.209518,0.0182014,0.0375633,1007,484,-0.0585439,30.5592
-210,540,0.0913696,-30.9266,0.0104884,-0.0232103,0.00711523,0.0119291,-0.024651,0.199784,0.0215411,0.0465919,1014,484,0.091358,30.9266
-203,540,0.0513916,-30.9019,0,0,0,0,0,0,0,-1,1021,484,0.0514215,30.9019
-196,540,-0.120728,-30.1882,0,0,0,0,0,0,0,-1,1028,484,-0.120715,30.1882
-189,540,-0.726807,-22.826,0,0,0,0,0,0,0,-1,1035,484,-0.72684,22.8259
-182,540,0.109375,-15.2948,0,0,0,0,0,0,0,-1,1042,484,0.109331,15.2948
-175,540,1.73413,-10.728,0,0,0,0,0,0,0,-1,1049,484,1.73414,10.728
-168,540,1.18164,-7.65347,0,0,0,0,0,0,0,-1,1056,484,1.18163,7.65347
-161,540,-0.405884,-9.86481,0,0,0,0,0,0,0,-1,1063,484,-0.405886,9.8648
-154,540,1.96863,-22.0727,0,0,0,0,0,0,0,-1,1070,484,1.96859,22.0727
-147,540,1.32764,-21.9952,0,0,0,0,0,0,0,-1,1077,484,1.32762,21.9952
-140,540,1.40735,-15.6289,0,0,0,0,0,0,0,-1,1084,484,1.4073,15.6289
-133,540,2.28345,-17.6413,0,0,0,0,0,0,0,-1,1091,484,2.2835,17.6413
-126,540,1.25293,-23.9108,0,0,0,0,0,0,0,-1,1098,484,1.25288,23.9108
-119,540,1.55969,-23.0125,0,0,0,0,0,0,0,-1,1105,484,1.55968,23.0125
-112,540,1.4801,-21.6515,0,0,0,0,0,0,0,-1,1112,484,1.4801,21.6515
-105,540,1.30078,-19.8938,0,0,0,0,0,0,0,-1,1119,484,1.30077,19.8938
-98,540,1.08105,-18.1304,0,0,0,0,0,0,0,-1,1126,484,1.08101,18.1304
-91,540,1.56519,-7.48666,0,0,0,0,0,0,0,-1,1133,484,1.56514,7.48667
-84,540,-0.945923,4.43073,0,0,0,0,0,0,0,-1,1140,484,-0.945891,-4.43074
-77,540,-2.28894,2.14368,0,0,0,0,0,0,0,-1,1147,484,-2.28894,-2.14368
-70,540,-3.75244,-0.452576,0,0,0,0,0,0,0,-1,1154,484,-3.75244,0.452576
-63,540,-5.26257,-3.04767,0,0,0,0,0,0,0,-1,1161,484,-5.26262,3.04766
-56,540,-5.19055,-6.12595,0,0,0,0,0,0,0,-1,1168,484,-5.19057,6.12595
-49,540,-5.63867,-8.52298,0,0,0,0,0,0,0,-1,1175,484,-5.63871,8.52298
-42,540,0,0,0,0,0,0,0,0,0,-1,1182,484,0,0
-35,540,0,0,0,0,0,0,0,0,0,-1,1189,484,0,0
-28,540,0,0,0,0,0,0,0,0,0,-1,1196,484,0,0
-21,540,0,0,0,0,0,0,0,0,0,-1,1203,484,0,0
-14,540,0,0,0,0,0,0,0,0,0,-1,1210,484,0,0
-7,540,0,0,0,0,0,0,0,0,0,-1,1217,484,0,0
0,540,0,0,0,0,0,0,0,0,0,-1,1224,484,0,0
7,540,0,0,0,0,0,0,0,0,0,-1,1231,484,0,0
14,540,0,0,0,0,0,0,0,0,0,-1,1238,484,0,0
21,540,0,0,0,0,0,0,0,0,0,-1,1245,484,0,0
28,540,0,0,0,0,0,0,0,0,0,-1,1252,484,0,0
35,540,0,0,0,0,0,0,0,0,0,-1,1259,484,0,0
42,540,0,0,0,0,0,0,0,0,0,-1,1266,484,0,0
49,540,0,0,0,0,0,0,0,0,0,-1,1273,484,0,0
56,540,0,0,0,0,0,0,0,0,0,-1,1280,484,0,0
63,540,0,0,0,0,0,0,0,0,0,-1,1287,484,0,0
70,540,0,0,0,0,0,0,0,0,0,-1,1294,484,0,0
77,540,0,0,0,0,0,0,0,0,0,-1,1301,484,0,0
84,540,0,0,0,0,0,0,0,0,0,-1,1308,484,0,0
91,540,0,0,0,0,0,0,0,0,0,-1,1315,484,0,0
98,540,0,0,0,0,0,0,0,0,0,-1,1322,484,0,0
105,540,0,0,0,0,0,0,0,0,0,-1,1329,484,0,0
112,540,0,0,0,0,0,0,0,0,0,-1,1336,484,0,0
119,540,0,0,0,0,0,0,0,0,0,-1,1343,484,0,0
126,540,0,0,0,0,0,0,0,0,0,-1,1350,484,0,0
133,540,0,0,0,0,0,0,0,0,0,-1,1357,484,0,0
140,540,0,0,0,0,0,0,0,0,0,-1,1364,484,0,0
147,540,0,0,0,0,0,0,0,0,0,-1,1371,484,0,0
154,540,0,0,0,0,0,0,0,0,0,-1,1378,484,0,0
161,540,0,0,0,0,0,0,0,0,0,-1,1385,484,0,0
168,540,3.05078,-0.0010376,0,0,0,0,0,0,0,-1,1392,484,3.05084,0.00102554
175,540,3.37708,0.617035,0,0,0,0,0,0,0,-1,1399,484,3.37707,-0.617046
182,540,3.32678,1.23267,0,0,0,0,0,0,0,-1,1406,484,3.32678,-1.23266
189,540,3.5813,2.15619,0,0,0,0,0,0,0,-1,1413,484,3.58129,-2.1562
196,540,1.84448,-0.801483,0,0,0,0,0,0,0,-1,1420,484,1.84446,0.80148
203,540,4.14648,0.702087,0,0,0,0,0,0,0,-1,1427,484,4.14645,-0.702089
210,540,4.50671,-0.56076,0,0,0,0,0,0,0,-1,1434,484,4.50667,0.560771
217,540,5.00452,-0.278717,0,0,0,0,0,0,0,-1,1441,484,5.00452,0.278709
224,540,6.44458,-2.83527,0,0,0,0,0,0,0,-1,1448,484,6.44457,2.83525
231,540,6.9231,-3.10504,0,0,0,0,0,0,0,-1,1455,484,6.92307,3.10505
238,540,6.4823,-2.58365,0,0,0,0,0,0,0,-1,1462,484,6.48225,2.58363
245,540,6.02087,-1.97916,0,0,0,0,0,0,0,-1,1469,484,6.02088,1.97915
252,540,6.50647,-3.56006,0,0,0,0,0,0,0,-1,1476,484,6.50649,3.56006
259,540,6.01941,-2.798,0,0,0,0,0,0,0,-1,1483,484,6.01941,2.79801
266,540,5.5332,-2.02853,0,0,0,0,0,0,0,-1,1490,484,5.53323,2.02855
273,540,5.06787,-1.28137,0,0,0,0,0,0,0,-1,1497,484,5.06786,1.28136
280,540,1.62903,-2.14609,0,0,0,0,0,0,0,-1,1504,484,1.62906,2.1461
287,540,1.97156,-2.45053,0,0,0,0,0,0,0,-1,1511,484,1.97159,2.45053
294,540,2.44165,-2.6185,0,0,0,0,0,0,0,-1,1518,484,2.44167,2.6185
301,540,4.36169,-2.54272,0,0,0,0,0,0,0,-1,1525,484,4.36165,2.54272
308,540,4.2019,-4.30469,0,0,0,0,0,0,0,-1,1532,484,4.20193,4.3047
315,540,4.45923,-5.32101,0,0,0,0,0,0,0,-1,1539,484,4.45923,5.32103
322,540,4.71655,-6.33737,0,0,0,0,0,0,0,-1,1546,484,4.71653,6.33736
329,540,5.8949,-12.9383,0,0,0,0,0,0,0,-1,1553,484,5.89492,12.9383
336,540,7.16467,-17.7826,0,0,0,0,0,0,0,-1,1560,484,7.16469,17.7826
343,540,11.2316,-30.5375,0,0,0,0,0,0,0,-1,1567,484,11.2315,30.5375
350,540,10.9539,-29.7946,0,0,0,0,0,0,0,-1,1574,484,10.9538,29.7946
357,540,11.0996,-28.9305,-0.003321,-0.00833649,-0.00629515,0.000947517,-0.012605,-0.595852,0.00873632,0.0421766,1581,484,11.0996,28.9305
364,540,10.943,-28.5916,-0.00300023,-0.00707745,-0.00542002,0.000751885,-0.0108296,-0.60552,0.00748294,0.0236354,1588,484,10.9429,28.5916
371,540,10.9261,-28.1173,-0.00237673,-0.00574273,-0.00444765,0.000695689,-0.00881515,-0.604523,0.00612186,0.0150472,1595,484,10.9262,28.1173
378,540,10.938,-27.6077,-0.00168669,-0.00424085,-0.00339622,0.000664625,-0.00659216,-0.605561,0.00463224,0.0131555,1602,484,10.938,27.6077
385,540,10.948,-27.0897,-0.00100279,-0.0027852,-0.00230823,0.000580301,-0.0043683,-0.601165,0.00312365,0.0150643,1609,484,10.9479,27.0897
392,540,10.933,-26.5357,-0.000436247,-0.00152219,-0.00146208,0.000580425,-0.00253886,-0.607606,0.00191559,0.0138243,1616,484,10.933,26.5357
399,540,10.9292,-26.0133,1.33059e-05,-0.000524388,-0.000752841,0.000543864,-0.00105495,-0.613901,0.000938662,0.0177961,1623,484,10.9292,26.0133
406,540,10.9413,-25.468,0.000331722,0.000483321,-0.000164086,0.00058827,0.000226774,-1.00177,0.000342594,0.016573,1630,484,10.9413,25.468
413,540,10.9282,-24.924,0.000590935,0.00147425,0.000406542,0.00163287,0.00043231,1.19878,0.0009769,0.0130526,1637,484,10.9282,24.924
420,540,10.9175,-24.358,0.000660493,0.0021452,0.000915775,0.00258172,0.000223978,1.12599,0.00165156,0.0125141,1644,484,10.9175,24.358
427,540,10.8781,-23.7861,0.00029495,0.0025214,0.00124594,0.00307899,-0.000262646,1.15,0.00214558,0.0136849,1651,484,10.878,23.7861
434,540,10.8352,-23.232,-0.000490602,0.00255703,0.00157252,0.00322292,-0.00115649,1.17023,0.0026206,0.0165241,1658,484,10.8352,23.232
441,540,10.8392,-22.6552,-0.00145907,0.00235962,0.00197096,0.00319441,-0.00229386,1.17016,0.00318285,0.0194373,1665,484,10.8392,22.6552
448,540,10.8292,-22.0722,-0.00276504,0.0023098,0.00243151,0.00328674,-0.00374198,1.18875,0.00406087,0.0114457,1672,484,10.8292,22.0722
455,540,10.7953,-21.4717,-0.00421804,0.00194204,0.00293966,0.00311973,-0.00539572,1.18976,0.00497459,0.0102768,1679,484,10.7953,21.4717
462,540,10.7305,-20.8829,-0.00561791,0.00154844,0.00370549,0.00311986,-0.00718932,1.16971,0.00610463,0.0110691,1686,484,10.7304,20.8829
469,540,10.6815,-20.2881,-0.00739252,0.00112375,0.00450623,0.00306544,-0.00933421,1.16395,0.00745767,0.0140677,1693,484,10.6815,20.2881
476,540,10.6708,-19.6794,-0.0093911,0.000769521,0.00556614,0.00322522,-0.0118468,1.1553,0.00916412,0.019163,1700,484,10.6708,19.6794
483,540,10.6859,-19.0286,-0.0113588,0.000394397,0.00679374,0.00350053,-0.0144649,1.14197,0.0109974,0.0328306,1707,484,10.6859,19.0286
490,540,10.8229,-18.2867,0,0,0,0,0,0,0,-1,1714,484,10.8229,18.2867
497,540,10.3452,-16.9359,0,0,0,0,0,0,0,-1,1721,484,10.3453,16.9359
504,540,5.96704,-6.98599,0,0,0,0,0,0,0,-1,1728,484,5.96708,6.98598
511,540,5.82471,-6.83521,0,0,0,0,0,0,0,-1,1735,484,5.82465,6.83522
518,540,9.98181,-12.4608,0,0,0,0,0,0,0,-1,1742,484,9.98187,12.4608
525,540,11.2628,-13.8818,0,0,0,0,0,0,0,-1,1749,484,11.2629,13.8818
532,540,2.84265,-1.07925,0,0,0,0,0,0,0,-1,1756,484,2.84269,1.07927
539,540,0,0,0,0,0,0,0,0,0,-1,1763,484,0,0
546,540,0,0,0,0,0,0,0,0,0,-1,1770,484,0,0
553,540,0,0,0,0,0,0,0,0,0,-1,1777,484,0,0
560,540,0,0,0,0,0,0,0,0,0,-1,1784,484,0,0
567,540,0,0,0,0,0,0,0,0,0,-1,1791,484,0,0
574,540,0,0,0,0,0,0,0,0,0,-1,1798,484,0,0
581,540,0,0,0,0,0,0,0,0,0,-1,1805,484,0,0
588,540,0,0,0,0,0,0,0,0,0,-1,1812,484,0,0
595,540,0,0,0,0,0,0,0,0,0,-1,1819,484,0,0
602,540,0,0,0,0,0,0,0,0,0,-1,1826,484,0,0
609,540,0,0,0,0,0,0,0,0,0,-1,1833,484,0,0
616,540,0,0,0,0,0,0,0,0,0,-1,1840,484,0,0
623,540,0,0,0,0,0,0,0,0,0,-1,1847,484,0,0
630,540,0,0,0,0,0,0,0,0,0,-1,1854,484,0,0
637,540,0,0,0,0,0,0,0,0,0,-1,1861,484,0,0
644,540,0,0,0,0,0,0,0,0,0,-1,1868,484,0,0
651,540,0,0,0,0,0,0,0,0,0,-1,1875,484,0,0
658,540,0,0,0,0,0,0,0,0,0,-1,1882,484,0,0
665,540,0,0,0,0,0,0,0,0,0,-1,1889,484,0,0
672,540,0,0,0,0,0,0,0,0,0,-1,1896,484,0,0
679,540,0,0,0,0,0,0,0,0,0,-1,1903,484,0,0
686,540,0,0,0,0,0,0,0,0,0,-1,1910,484,0,0
693,540,0,0,0,0,0,0,0,0,0,-1,1917,484,0,0
700,540,0,0,0,0,0,0,0,0,0,-1,1924,484,0,0
707,540,0,0,0,0,0,0,0,0,0,-1,1931,484,0,0
714,540,0,0,0,0,0,0,0,0,0,-1,1938,484,0,0
721,540,0,0,0,0,0,0,0,0,0,-1,1945,484,0,0
728,540,0,0,0,0,0,0,0,0,0,-1,1952,484,0,0
735,540,0,0,0,0,0,0,0,0,0,-1,1959,484,0,0
742,540,0,0,0,0,0,0,0,0,0,-1,1966,484,0,0
749,540,0,0,0,0,0,0,0,0,0,-1,1973,484,0,0
756,540,0,0,0,0,0,0,0,0,0,-1,1980,484,0,0
763,540,0,0,0,0,0,0,0,0,0,-1,1987,484,0,0
770,540,0,0,0,0,0,0,0,0,0,-1,1994,484,0,0
777,540,0,0,0,0,0,0,0,0,0,-1,2001,484,0,0
784,540,0,0,0,0,0,0,0,0,0,-1,2008,484,0,0
791,540,0,0,0,0,0,0,0,0,0,-1,2015,484,0,0
798,540,0,0,0,0,0,0,0,0,0,-1,2022,484,0,0
805,540,0,0,0,0,0,0,0,0,0,-1,2029,484,0,0
812,540,0,0,0,0,0,0,0,0,0,-1,2036,484,0,0
-700,533,0,0,0,0,0,0,0,0,0,-1,524,491,0,0
-693,533,0,0,0,0,0,0,0,0,0,-1,531,491,0,0
-686,533,0,0,0,0,0,0,0,0,0,-1,538,491,0,0
-679,533,0,0,0,0,0,0,0,0,0,-1,545,491,0,0
-672,533,0,0,0,0,0,0,0,0,0,-1,552,491,0,0
-665,533,0,0,0,0,0,0,0,0,0,-1,559,491,0,0
-658,533,0,0,0,0,0,0,0,0,0,-1,566,491,0,0
-651,533,0,0,0,0,0,0,0,0,0,-1,573,491,0,0
-644,533,0,0,0,0,0,0,0,0,0,-1,580,491,0,0
-637,533,0,0,0,0,0,0,0,0,0,-1,587,491,0,0
-630,533,0,0,0,0,0,0,0,0,0,-1,594,491,0,0
-623,533,0,0,0,0,0,0,0,0,0,-1,601,491,0,0
-616,533,0,0,0,0,0,0,0,0,0,-1,608,491,0,0
-609,533,0,0,0,0,0,0,0,0,0,-1,615,491,0,0
-602,533,0,0,0,0,0,0,0,0,0,-1,622,491,0,0
-595,533,0,0,0,0,0,0,0,0,0,-1,629,491,0,0
-588,533,0,0,0,0,0,0,0,0,0,-1,636,491,0,0
-581,533,0,0,0,0,0,0,0,0,0,-1,643,491,0,0
-574,533,0,0,0,0,0,0,0,0,0,-1,650,491,0,0
-567,533,0,0,0,0,0,0,0,0,0,-1,657,491,0,0
-560,533,0,0,0,0,0,0,0,0,0,-1,664,491,0,0
-553,533,0,0,0,0,0,0,0,0,0,-1,671,491,0,0
-546,533,0,0,0,0,0,0,0,0,0,-1,678,491,0,0
-539,533,0,0,0,0,0,0,0,0,0,-1,685,491,0,0
-532,533,0,0,0,0,0,0,0,0,0,-1,692,491,0,0
-525,533,0,0,0,0,0,0,0,0,0,-1,699,491,0,0
-518,533,0,0,0,0,0,0,0,0,0,-1,706,491,0,0
-511,533,0,0,0,0,0,0,0,0,0,-1,713,491,0,0
-504,533,0,0,0,0,0,0,0,0,0,-1,720,491,0,0
-497,533,0,0,0,0,0,0,0,0,0,-1,727,491,0,0
-490,533,0,0,0,0,0,0,0,0,0,-1,734,491,0,0
-483,533,0,0,0,0,0,0,0,0,0,-1,741,491,0,0
-476,533,0,0,0,0,0,0,0,0,0,-1,748,491,0,0
-469,533,0,0,0,0,0,0,0,0,0,-1,755,491,0,0
-462,533,0,0,0,0,0,0,0,0,0,-1,762,491,0,0
-455,533,0,0,0,0,0,0,0,0,0,-1,769,491,0,0
-448,533,0,0,0,0,0,0,0,0,0,-1,776,491,0,0
-441,533,0,0,0,0,0,0,0,0,0,-1,783,491,0,0
-434,533,0,0,0,0,0,0,0,0,0,-1,790,491,0,0
-427,533,0.559814,-4.40222,0,0,0,0,0,0,0,-1,797,491,0.559816,4.40222
-420,533,-1.11127,-10.9054,0,0,0,0,0,0,0,-1,804,491,-1.11124,10.9054
-413,533,-0.704773,-11.0942,0,0,0,0,0,0,0,-1,811,491,-0.704742,11.0942
-406,533,-0.670898,-12.0899,0,0,0,0,0,0,0,-1,818,491,-0.670908,12.0899
-399,533,-0.455017,-12.4423,0,0,0,0,0,0,0,-1,825,491,-0.455032,12.4423
-392,533,-1.89661,-10.3905,0,0,0,0,0,0,0,-1,832,491,-1.89661,10.3905
-385,533,-1.69116,-6.64645,0,0,0,0,0,0,0,-1,839,491,-1.69115,6.64645
-378,533,-0.269531,-16.8001,0,0,0,0,0,0,0,-1,846,491,-0.269511,16.8001
-371,533,-0.406067,-18.7676,0,0,0,0,0,0,0,-1,853,491,-0.406091,18.7676
-364,533,-0.364197,-19.46,0.00253994,0.0255951,-0.00986098,0.0292373,-0.00110233,-1.21698,0.0198692,0.0403357,860,491,-0.364226,19.46
-357,533,-0.306152,-20.1336,0.00204588,0.0207843,-0.00765589,0.0235144,-0.000684287,-1.22825,0.0159093,0.0259983,867,491,-0.306167,20.1336
-350,533,-0.325745,-20.8108,0.0016085,0.016607,-0.00555577,0.0184407,-0.000225278,-1.25199,0.0123696,0.0154888,874,491,-0.325757,20.8108
-343,533,-0.378235,-21.4485,0.00137019,0.0135302,-0.00407142,0.0147675,0.000132883,-1.27577,0.00980099,0.0130306,881,491,-0.378227,21.4485
-336,533,-0.42627,-22.0401,0.00121331,0.0110507,-0.0029863,0.0118862,0.000377739,-1.29797,0.00780129,0.0161683,888,491,-0.426263,22.0401
-329,533,-0.460449,-22.5944,0.00106824,0.00844461,-0.00198957,0.00894702,0.00056583,-1.32344,0.0057853,0.0149498,895,491,-0.460425,22.5943
-322,533,-0.507874,-23.1451,0.000982401,0.0065364,-0.00133292,0.00683973,0.000679074,-1.34704,0.00435116,0.0131323,902,491,-0.507855,23.1451
-315,533,-0.528687,-23.7172,0.00104205,0.00484748,-0.000907164,0.00505267,0.000836863,-1.34835,0.00312705,0.0140671,909,491,-0.528695,23.7172
-308,533,-0.540771,-24.2576,0.00105437,0.0034421,-0.000556146,0.00356529,0.000931185,-1.35282,0.00213525,0.0128418,916,491,-0.540748,24.2576
-301,533,-0.585449,-24.7606,0.0010939,0.00213239,-0.000337536,0.00223245,0.000993831,-1.28259,0.00129149,0.014482,923,491,-0.585476,24.7606
-294,533,-0.567688,-25.3011,0.00128564,0.000912377,-7.76563e-05,0.00130115,0.000896865,-0.197152,0.000768954,0.0135524,930,491,-0.567695,25.3011
-287,533,-0.544678,-25.8621,0.00161645,-0.000135478,0.000166154,0.00163207,-0.000151096,0.093727,0.00114175,0.0101938,937,491,-0.54467,25.862
-280,533,-0.555359,-26.4022,0.00193821,-0.00101548,0.000430407,0.00199965,-0.00107692,0.141791,0.00180269,0.00957702,944,491,-0.55536,26.4022
-273,533,-0.571106,-26.902,0.00240323,-0.00179589,0.000832408,0.00256222,-0.00195489,0.188729,0.0026158,0.0125441,951,491,-0.571092,26.902
-266,533,-0.576843,-27.4257,0.00313713,-0.00264526,0.0014193,0.00346671,-0.00297484,0.228172,0.00372264,0.0122161,958,491,-0.576833,27.4257
-259,533,-0.578308,-27.9555,0.00394832,-0.00363963,0.00209112,0.00448643,-0.00417775,0.25187,0.00500332,0.013022,965,491,-0.578337,27.9555
-252,533,-0.578979,-28.4417,0.00459084,-0.00565029,0.00277362,0.00529377,-0.00635322,0.24821,0.00673366,0.0180178,972,491,-0.578999,28.4417
-245,533,-0.638,-28.9008,0.00534637,-0.00774906,0.00373376,0.00633613,-0.00873882,0.259125,0.0087403,0.0319973,979,491,-0.638026,28.9008
-238,533,-0.52478,-29.3313,0.0064807,-0.0104967,0.00471888,0.00770415,-0.0117202,0.253681,0.0112942,0.0370926,986,491,-0.524804,29.3313
-231,533,-0.358765,-29.7041,0,0,0,0,0,0,0,-1,993,491,-0.358757,29.7041
-224,533,-0.556396,-30.2869,0,0,0,0,0,0,0,-1,1000,491,-0.556405,30.2868
-217,533,-0.527161,-30.4819,0,0,0,0,0,0,0,-1,1007,491,-0.527143,30.4819
-210,533,-0.541809,-30.8348,0,0,0,0,0,0,0,-1,1014,491,-0.541809,30.8348
-203,533,-0.292786,-31.1553,0,0,0,0,0,0,0,-1,1021,491,-0.29279,31.1553
-196,533,0.688354,-19.5743,0,0,0,0,0,0,0,-1,1028,491,0.688406,19.5743
-189,533,-0.169189,-15.0303,0,0,0,0,0,0,0,-1,1035,491,-0.169241,15.0303
-182,533,1.26123,-11.4969,0,0,0,0,0,0,0,-1,1042,491,1.26128,11.4969
-175,533,0.937744,-7.36966,0,0,0,0,0,0,0,-1,1049,491,0.937769,7.36965
-168,533,2.64807,-2.7543,0,0,0,0,0,0,0,-1,1056,491,2.64812,2.7543
-161,533,1.91833,-1.76553,0,0,0,0,0,0,0,-1,1063,491,1.91836,1.76554
-154,533,0.376709,-11.0633,0,0,0,0,0,0,0,-1,1070,491,0.376715,11.0632
-147,533,0.383789,-12.1586,0,0,0,0,0,0,0,-1,1077,491,0.383829,12.1586
-140,533,1.14001,-15.4608,0,0,0,0,0,0,0,-1,1084,491,1.14005,15.4608
-133,533,0.189941,-16.0795,0,0,0,0,0,0,0,-1,1091,491,0.18994,16.0795
-126,533,2.89612,-2.59003,0,0,0,0,0,0,0,-1,1098,491,2.89608,2.59003
-119,533,1.78284,-22.5394,0,0,0,0,0,0,0,-1,1105,491,1.78279,22.5394
-112,533,1.83862,-21.2401,0,0,0,0,0,0,0,-1,1112,491,1.83859,21.24
-105,533,1.67554,-19.4018,0,0,0,0,0,0,0,-1,1119,491,1.6755,19.4018
-98,533,-1.39392,-5.16367,0,0,0,0,0,0,0,-1,1126,491,-1.39394,5.16367
-91,533,0.367432,4.49753,0,0,0,0,0,0,0,-1,1133,491,0.367468,-4.49754
-84,533,-0.88623,3.03604,0,0,0,0,0,0,0,-1,1140,491,-0.886288,-3.03605
-77,533,0,0,0,0,0,0,0,0,0,-1,1147,491,0,0
-70,533,0,0,0,0,0,0,0,0,0,-1,1154,491,0,0
-63,533,0,0,0,0,0,0,0,0,0,-1,1161,491,0,0
-56,533,0,0,0,0,0,0,0,0,0,-1,1168,491,0,0
-49,533,0,0,0,0,0,0,0,0,0,-1,1175,491,0,0
-42,533,0,0,0,0,0,0,0,0,0,-1,1182,491,0,0
-35,533,0,0,0,0,0,0,0,0,0,-1,1189,491,0,0
-28,533,0,0,0,0,0,0,0,0,0,-1,1196,491,0,0
-21,533,0,0,0,0,0,0,0,0,0,-1,1203,491,0,0
-14,533,0,0,0,0,0,0,0,0,0,-1,1210,491,0,0
-7,533,0,0,0,0,0,0,0,0,0,-1,1217,491,0,0
0,533,0,0,0,0,0,0,0,0,0,-1,1224,491,0,0
7,533,0,0,0,0,0,0,0,0,0,-1,1231,491,0,0
14,533,0,0,0,0,0,0,0,0,0,-1,1238,491,0,0
21,533,0,0,0,0,0,0,0,0,0,-1,1245,491,0,0
28,533,0,0,0,0,0,0,0,0,0,-1,1252,491,0,0
35,533,0,0,0,0,0,0,0,0,0,-1,1259,491,0,0
42,533,0,0,0,0,0,0,0,0,0,-1,1266,491,0,0
49,533,0,0,0,0,0,0,0,0,0,-1,1273,491,0,0
56,533,0,0,0,0,0,0,0,0,0,-1,1280,491,0,0
63,533,0,0,0,0,0,0,0,0,0,-1,1287,491,0,0
70,533,0,0,0,0,0,0,0,0,0,-1,1294,491,0,0
77,533,0,0,0,0,0,0,0,0,0,-1,1301,491,0,0
84,533,0,0,0,0,0,0,0,0,0,-1,1308,491,0,0
91,533,0,0,0,0,0,0,0,0,0,-1,1315,491,0,0
98,533,0,0,0,0,0,0,0,0,0,-1,1322,491,0,0
105,533,0,0,0,0,0,0,0,0,0,-1,1329,491,0,0
112,533,0,0,0,0,0,0,0,0,0,-1,1336,491,0,0
119,533,0,0,0,0,0,0,0,0,0,-1,1343,491,0,0
126,533,0,0,0,0,0,0,0,0,0,-1,1350,491,0,0
133,533,0,0,0,0,0,0,0,0,0,-1,1357,491,0,0
140,533,0,0,0,0,0,0,0,0,0,-1,1364,491,0,0
147,533,0,0,0,0,0,0,0,0,0,-1,1371,491,0,0
154,533,0,0,0,0,0,0,0,0,0,-1,1378,491,0,0
161,533,0,0,0,0,0,0,0,0,0,-1,1385,491,0,0
168,533,0,0,0,0,0,0,0,0,0,-1,1392,491,0,0
175,533,0,0,0,0,0,0,0,0,0,-1,1399,491,0,0
182,533,0,0,0,0,0,0,0,0,0,-1,1406,491,0,0
189,533,0,0,0,0,0,0,0,0,0,-1,1413,491,0,0
196,533,0,0,0,0,0,0,0,0,0,-1,1420,491,0,0
203,533,3.7887,1.16193,0,0,0,0,0,0,0,-1,1427,491,3.78872,-1.16193
210,533,5.09558,-0.216034,0,0,0,0,0,0,0,-1,1434,491,5.09559,0.216028
217,533,6.91614,-2.46814,0,0,0,0,0,0,0,-1,1441,491,6.91618,2.46814
224,533,7.23621,-2.1857,0,0,0,0,0,0,0,-1,1448,491,7.23621,2.1857
231,533,7.23474,-1.92282,0,0,0,0,0,0,0,-1,1455,491,7.2347,1.92282
238,533,7.23535,-1.67258,0,0,0,0,0,0,0,-1,1462,491,7.23539,1.67258
245,533,6.86682,-1.2301,0,0,0,0,0,0,0,-1,1469,491,6.86686,1.23011
252,533,6.63354,-3.07825,0,0,0,0,0,0,0,-1,1476,491,6.6335,3.07824
259,533,6.16431,-2.35037,0,0,0,0,0,0,0,-1,1483,491,6.1643,2.35037
266,533,5.68884,-1.6214,0,0,0,0,0,0,0,-1,1490,491,5.68885,1.6214
273,533,5.21399,-0.864227,0,0,0,0,0,0,0,-1,1497,491,5.21403,0.864227
280,533,1.41089,-1.97946,0,0,0,0,0,0,0,-1,1504,491,1.41087,1.97946
287,533,1.6814,-2.44443,0,0,0,0,0,0,0,-1,1511,491,1.6814,2.44444
294,533,2.2384,-2.57626,0,0,0,0,0,0,0,-1,1518,491,2.23839,2.57625
301,533,3.39941,-4.0817,0,0,0,0,0,0,0,-1,1525,491,3.3994,4.08171
308,533,4.13733,-4.14752,0,0,0,0,0,0,0,-1,1532,491,4.13727,4.14752
315,533,4.80762,-5.29349,0,0,0,0,0,0,0,-1,1539,491,4.80762,5.29347
322,533,5.47803,-6.43942,0,0,0,0,0,0,0,-1,1546,491,5.47798,6.43943
329,533,3.88477,-3.86301,0,0,0,0,0,0,0,-1,1553,491,3.88475,3.86299
336,533,6.70923,-13.2003,0,0,0,0,0,0,0,-1,1560,491,6.70926,13.2004
343,533,7.06677,-17.1133,0,0,0,0,0,0,0,-1,1567,491,7.06673,17.1133
350,533,10.0876,-23.7254,0,0,0,0,0,0,0,-1,1574,491,10.0877,23.7254
357,533,11.6882,-28.6758,0,0,0,0,0,0,0,-1,1581,491,11.6883,28.6758
364,533,11.7351,-28.232,-0.00489407,-0.00899584,-0.00720225,0.000543606,-0.0144335,-0.646692,0.00980857,0.0469363,1588,491,11.7351,28.232
371,533,11.4238,-27.9433,-0.00375783,-0.00724045,-0.00592571,0.000677122,-0.0116754,-0.642492,0.00801884,0.0425808,1595,491,11.4238,27.9433
378,533,11.3608,-27.4985,-0.0026015,-0.0053226,-0.00453692,0.000774479,-0.00869858,-0.639723,0.0060737,0.0312081,1602,491,11.3608,27.4985
385,533,11.4882,-27.0366,-0.00150278,-0.00369371,-0.00310412,0.000693501,-0.00588999,-0.615767,0.00417706,0.0235383,1609,491,11.4882,27.0366
392,533,11.4856,-26.5242,-0.000676496,-0.00230028,-0.00207474,0.000739549,-0.00371632,-0.598897,0.00275732,0.0149481,1616,491,11.4856,26.5242
399,533,11.4951,-26.026,-7.46021e-05,-0.00122666,-0.00126576,0.000740038,-0.0020413,-0.571861,0.00166336,0.0132179,1623,491,11.4952,26.026
406,533,11.4889,-25.4854,0.000361883,-0.000199637,-0.000615361,0.000757507,-0.000595261,-0.571377,0.000782891,0.0148831,1630,491,11.4889,25.4854
413,533,11.4673,-24.8965,0.000729834,0.000839934,3.01626e-05,0.000847656,0.000722113,1.32018,0.000528253,0.0132457,1637,491,11.4673,24.8966
420,533,11.454,-24.3327,0.00105765,0.00156441,0.00060734,0.0019691,0.000652953,0.983018,0.00115816,0.0125699,1644,491,11.454,24.3327
427,533,11.4232,-23.7555,0.000930283,0.00204445,0.000936499,0.00257703,0.000397701,1.05371,0.001602,0.0137476,1651,491,11.4232,23.7555
434,533,11.3873,-23.2148,0.000428443,0.0021984,0.00122773,0.00282687,-0.000200022,1.09768,0.00195467,0.0134059,1658,491,11.3873,23.2148
441,533,11.4015,-22.6176,-0.000282143,0.00210737,0.00159982,0.00290932,-0.0010841,1.10613,0.00238453,0.0149963,1665,491,11.4015,22.6176
448,533,11.4033,-22.0427,-0.00121258,0.0021558,0.00203093,0.00311002,-0.0021668,1.13157,0.00306275,0.0163396,1672,491,11.4033,22.0427
455,533,11.3615,-21.4673,-0.00222938,0.00199077,0.00249504,0.00314836,-0.00338697,1.1364,0.00377402,0.0157837,1679,491,11.3615,21.4673
462,533,11.3013,-20.8434,-0.00314167,0.00179767,0.00318675,0.0033597,-0.0047037,1.11505,0.00467692,0.0146436,1686,491,11.3012,20.8434
469,533,11.2855,-20.2834,-0.00435419,0.0015841,0.00391266,0.00352665,-0.00629674,1.10997,0.00574621,0.00977683,1693,491,11.2855,20.2834
476,533,11.2871,-19.6658,-0.00575162,0.00146657,0.00487618,0.00392399,-0.00820905,1.10398,0.00714916,0.0112572,1700,491,11.2872,19.6658
483,533,11.2965,-19.0078,-0.00704686,0.00134493,0.00595202,0.00443135,-0.0101333,1.09242,0.00862101,0.0181947,1707,491,11.2965,19.0078
490,533,11.3497,-18.4709,-0.00831272,0.00105685,0.00731185,0.00505598,-0.0123119,1.07031,0.0103149,0.0442653,1714,491,11.3497,18.4709
497,533,11.0618,-17.4746,-0.00946796,0.00091615,0.00884221,0.00597797,-0.0145298,1.05087,0.0121785,0.0489424,1721,491,11.0618,17.4746
504,533,10.813,-16.6259,0,0,0,0,0,0,0,-1,1728,491,10.813,16.6258
511,533,12.1942,-16.3866,0,0,0,0,0,0,0,-1,1735,491,12.1942,16.3866
518,533,11.4374,-16.03,0,0,0,0,0,0,0,-1,1742,491,11.4374,16.03
525,533,11.7816,-15.4487,0,0,0,0,0,0,0,-1,1749,491,11.7817,15.4487
532,533,10.1688,-13.4953,0,0,0,0,0,0,0,-1,1756,491,10.1689,13.4953
539,533,3.61609,1.62427,0,0,0,0,0,0,0,-1,1763,491,3.61606,-1.62426
546,533,3.59607,1.65799,0,0,0,0,0,0,0,-1,1770,491,3.59605,-1.658
553,533,0,0,0,0,0,0,0,0,0,-1,1777,491,0,0
560,533,0,0,0,0,0,0,0,0,0,-1,1784,491,0,0
567,533,0,0,0,0,0,0,0,0,0,-1,1791,491,0,0
574,533,0,0,0,0,0,0,0,0,0,-1,1798,491,0,0
581,533,0,0,0,0,0,0,0,0,0,-1,1805,491,0,0
588,533,0,0,0,0,0,0,0,0,0,-1,1812,491,0,0
595,533,0,0,0,0,0,0,0,0,0,-1,1819,491,0,0
602,533,0,0,0,0,0,0,0,0,0,-1,1826,491,0,0
609,533,0,0,0,0,0,0,0,0,0,-1,1833,491,0,0
616,533,0,0,0,0,0,0,0,0,0,-1,1840,491,0,0
623,533,0,0,0,0,0,0,0,0,0,-1,1847,491,0,0
630,533,0,0,0,0,0,0,0,0,0,-1,1854,491,0,0
637,533,0,0,0,0,0,0,0,0,0,-1,1861,491,0,0
644,533,0,0,0,0,0,0,0,0,0,-1,1868,491,0,0
651,533,0,0,0,0,0,0,0,0,0,-1,1875,491,0,0
658,533,0,0,0,0,0,0,0,0,0,-1,1882,491,0,0
665,533,0,0,0,0,0,0,0,0,0,-1,1889,491,0,0
672,533,0,0,0,0,0,0,0,0,0,-1,1896,491,0,0
679,533,0,0,0,0,0,0,0,0,0,-1,1903,491,0,0
686,533,0,0,0,0,0,0,0,0,0,-1,1910,491,0,0
693,533,0,0,0,0,0,0,0,0,0,-1,1917,491,0,0
700,533,0,0,0,0,0,0,0,0,0,-1,1924,491,0,0
707,533,0,0,0,0,0,0,0,0,0,-1,1931,491,0,0
714,533,0,0,0,0,0,0,0,0,0,-1,1938,491,0,0
721,533,0,0,0,0,0,0,0,0,0,-1,1945,491,0,0
728,533,0,0,0,0,0,0,0,0,0,-1,1952,491,0,0
735,533,0,0,0,0,0,0,0,0,0,-1,1959,491,0,0
742,533,0,0,0,0,0,0,0,0,0,-1,1966,491,0,0
749,533,0,0,0,0,0,0,0,0,0,-1,1973,491,0,0
756,533,0,0,0,0,0,0,0,0,0,-1,1980,491,0,0
763,533,0,0,0,0,0,0,0,0,0,-1,1987,491,0,0
770,533,0,0,0,0,0,0,0,0,0,-1,1994,491,0,0
777,533,0,0,0,0,0,0,0,0,0,-1,2001,491,0,0
784,533,0,0,0,0,0,0,0,0,0,-1,2008,491,0,0
791,533,0,0,0,0,0,0,0,0,0,-1,2015,491,0,0
798,533,0,0,0,0,0,0,0,0,0,-1,2022,491,0,0
805,533,0,0,0,0,0,0,0,0,0,-1,2029,491,0,0
812,533,0,0,0,0,0,0,0,0,0,-1,2036,491,0,0
-700,526,0,0,0,0,0,0,0,0,0,-1,524,498,0,0
-693,526,0,0,0,0,0,0,0,0,0,-1,531,498,0,0
-686,526,0,0,0,0,0,0,0,0,0,-1,538,498,0,0
-679,526,0,0,0,0,0,0,0,0,0,-1,545,498,0,0
-672,526,0,0,0,0,0,0,0,0,0,-1,552,498,0,0
-665,526,0,0,0,0,0,0,0,0,0,-1,559,498,0,0
-658,526,0,0,0,0,0,0,0,0,0,-1,566,498,0,0
-651,526,0,0,0,0,0,0,0,0,0,-1,573,498,0,0
-644,526,0,0,0,0,0,0,0,0,0,-1,580,498,0,0
-637,526,0,0,0,0,0,0,0,0,0,-1,587,498,0,0
-630,526,0,0,0,0,0,0,0,0,0,-1,594,498,0,0
-623,526,0,0,0,0,0,0,0,0,0,-1,601,498,0,0
-616,526,0,0,0,0,0,0,0,0,0,-1,608,498,0,0
-609,526,0,0,0,0,0,0,0,0,0,-1,615,498,0,0
-602,526,0,0,0,0,0,0,0,0,0,-1,622,498,0,0
-595,526,0,0,0,0,0,0,0,0,0,-1,629,498,0,0
-588,526,0,0,0,0,0,0,0,0,0,-1,636,498,0,0
-581,526,0,0,0,0,0,0,0,0,0,-1,643,498,0,0
-574,526,0,0,0,0,0,0,0,0,0,-1,650,498,0,0
-567,526,0,0,0,0,0,0,0,0,0,-1,657,498,0,0
-560,526,0,0,0,0,0,0,0,0,0,-1,664,498,0,0
-553,526,0,0,0,0,0,0,0,0,0,-1,671,498,0,0
-546,526,0,0,0,0,0,0,0,0,0,-1,678,498,0,0
-539,526,0,0,0,0,0,0,0,0,0,-1,685,498,0,0
-532,526,0,0,0,0,0,0,0,0,0,-1,692,498,0,0
-525,526,0,0,0,0,0,0,0,0,0,-1,699,498,0,0
-518,526,0,0,0,0,0,0,0,0,0,-1,706,498,0,0
-511,526,0,0,0,0,0,0,0,0,0,-1,713,498,0,0
-504,526,0,0,0,0,0,0,0,0,0,-1,720,498,0,0
-497,526,0,0,0,0,0,0,0,0,0,-1,727,498,0,0
-490,526,0,0,0,0,0,0,0,0,0,-1,734,498,0,0
-483,526,0,0,0,0,0,0,0,0,0,-1,741,498,0,0
-476,526,0,0,0,0,0,0,0,0,0,-1,748,498,0,0
-469,526,0,0,0,0,0,0,0,0,0,-1,755,498,0,0
-462,526,0,0,0,0,0,0,0,0,0,-1,762,498,0,0
-455,526,0,0,0,0,0,0,0,0,0,-1,769,498,0,0
-448,526,0,0,0,0,0,0,0,0,0,-1,776,498,0,0
-441,526,0,0,0,0,0,0,0,0,0,-1,783,498,0,0
-434,526,-0.153564,-5.96649,0,0,0,0,0,0,0,-1,790,498,-0.153589,5.9665
-427,526,1.23206,-4.59808,0,0,0,0,0,0,0,-1,797,498,1.23208,4.59809
-420,526,-1.76373,-11.6241,0,0,0,0,0,0,0,-1,804,498,-1.76373,11.6241
-413,526,-1.38965,-11.7916,0,0,0,0,0,0,0,-1,811,498,-1.38963,11.7916
-406,526,-1.35187,-12.5182,0,0,0,0,0,0,0,-1,818,498,-1.35185,12.5181
-399,526,-1.32715,-13.2116,0,0,0,0,0,0,0,-1,825,498,-1.32713,13.2116
-392,526,-2.27356,-11.5593,0,0,0,0,0,0,0,-1,832,498,-2.27357,11.5593
-385,526,-1.18073,-16.4186,0,0,0,0,0,0,0,-1,839,498,-1.18072,16.4187
-378,526,-1.1106,-17.6579,0,0,0,0,0,0,0,-1,846,498,-1.11058,17.6579
-371,526,-0.594604,-18.5931,0.00217067,0.0252772,-0.0115327,0.0300482,-0.00260033,-1.17854,0.0209528,0.0367276,853,498,-0.59463,18.5932
-364,526,-0.913391,-19.5019,0.00172655,0.020745,-0.00878138,0.0241794,-0.00170787,-1.19798,0.016718,0.0195302,860,498,-0.913409,19.5019
-357,526,-0.872925,-20.2131,0.00136042,0.0166316,-0.00681004,0.0192272,-0.00123527,-1.20664,0.0132491,0.0133719,867,498,-0.872899,20.2131
-350,526,-0.893433,-20.8156,0.00103537,0.0129483,-0.0049469,0.0147347,-0.000750988,-1.22426,0.0100828,0.0124444,874,498,-0.893433,20.8155
-343,526,-0.942749,-21.4268,0.000898355,0.0102276,-0.00362046,0.0114678,-0.000341799,-1.24078,0.00776164,0.0164229,881,498,-0.94274,21.4268
-336,526,-0.979248,-21.9962,0.000836998,0.00803539,-0.00260488,0.00887912,-6.73393e-06,-1.25756,0.00592166,0.0155661,888,498,-0.979262,21.9961
-329,526,-1.0058,-22.5604,0.00081844,0.00575137,-0.00168345,0.00627112,0.000298693,-1.27134,0.00408482,0.0142393,895,498,-1.00581,22.5604
-322,526,-1.02551,-23.1289,0.000851396,0.00410086,-0.00104738,0.00440919,0.000543061,-1.2845,0.0027762,0.0100248,902,498,-1.02554,23.1289
-315,526,-1.05688,-23.7041,0.0010118,0.00265134,-0.000610324,0.00285359,0.000809555,-1.25081,0.00169813,0.00939575,909,498,-1.05688,23.7041
-308,526,-1.07703,-24.2603,0.00116407,0.00144732,-0.000255492,0.00159782,0.00101358,-1.03847,0.000933535,0.00913878,916,498,-1.07703,24.2603
-301,526,-1.11694,-24.7695,0.00134581,0.000353367,-1.82257e-05,0.00134615,0.000353032,-0.0183562,0.000805953,0.011087,923,498,-1.11692,24.7695
-294,526,-1.11475,-25.3004,0.00166506,-0.000624383,0.000242311,0.00169043,-0.000649748,0.104299,0.00139492,0.0108292,930,498,-1.11474,25.3004
-287,526,-1.11725,-25.824,0.00213348,-0.00149535,0.000449222,0.00218826,-0.00155014,0.121352,0.00216882,0.0105955,937,498,-1.11723,25.824
-280,526,-1.1095,-26.3379,0.00257836,-0.00228859,0.000714495,0.00268108,-0.00239131,0.142793,0.00293014,0.013273,944,498,-1.1095,26.3379
-273,526,-1.11957,-26.8727,0.00326402,-0.00295073,0.00111024,0.0034564,-0.00314312,0.171578,0.00381167,0.0111313,951,498,-1.11955,26.8727
-266,526,-1.12885,-27.3956,0.00428027,-0.00365868,0.00174547,0.00464708,-0.00402549,0.207137,0.0050114,0.0130278,958,498,-1.12882,27.3956
-259,526,-1.078,-27.8859,0.00533436,-0.00447873,0.00250449,0.00593659,-0.00508097,0.235982,0.00636738,0.031407,965,498,-1.078,27.8859
-252,526,-1.05286,-28.4277,0,0,0,0,0,0,0,-1,972,498,-1.05287,28.4277
-245,526,-1.11963,-28.9638,0,0,0,0,0,0,0,-1,979,498,-1.11965,28.9638
-238,526,-0.993652,-29.3849,0,0,0,0,0,0,0,-1,986,498,-0.993669,29.385
-231,526,-0.547424,-25.8486,0,0,0,0,0,0,0,-1,993,498,-0.547419,25.8486
-224,526,-0.292603,-23.2656,0,0,0,0,0,0,0,-1,1000,498,-0.292617,23.2656
-217,526,-0.809448,-30.6235,0,0,0,0,0,0,0,-1,1007,498,-0.809449,30.6235
-210,526,-1.23547,-31.1414,0,0,0,0,0,0,0,-1,1014,498,-1.23548,31.1414
-203,526,-0.659302,-18.8818,0,0,0,0,0,0,0,-1,1021,498,-0.659273,18.8818
-196,526,-0.328247,-12.179,0,0,0,0,0,0,0,-1,1028,498,-0.328238,12.179
-189,526,0.401245,-5.96826,0,0,0,0,0,0,0,-1,1035,498,0.401197,5.96826
-182,526,1.7323,-2.99405,0,0,0,0,0,0,0,-1,1042,498,1.73226,2.99404
-175,526,2.27637,-2.07983,0,0,0,0,0,0,0,-1,1049,498,2.27639,2.07984
-168,526,2.12036,-1.66049,0,0,0,0,0,0,0,-1,1056,498,2.12035,1.66048
-161,526,2.09082,-1.20572,0,0,0,0,0,0,0,-1,1063,498,2.09086,1.2057
-154,526,-1.3446,-5.37799,0,0,0,0,0,0,0,-1,1070,498,-1.34457,5.37799
-147,526,-0.472656,-6.64996,0,0,0,0,0,0,0,-1,1077,498,-0.472659,6.64997
-140,526,0.422852,-8.03339,0,0,0,0,0,0,0,-1,1084,498,0.422844,8.0334
-133,526,1.09583,-9.2215,0,0,0,0,0,0,0,-1,1091,498,1.09581,9.2215
-126,526,3.42529,-2.36053,0,0,0,0,0,0,0,-1,1098,498,3.42523,2.36052
-119,526,2.7771,-0.764099,0,0,0,0,0,0,0,-1,1105,498,2.7771,0.764107
-112,526,2.57715,-1.1893,0,0,0,0,0,0,0,-1,1112,498,2.57718,1.1893
-105,526,0,0,0,0,0,0,0,0,0,-1,1119,498,0,0
-98,526,0,0,0,0,0,0,0,0,0,-1,1126,498,0,0
-91,526,0,0,0,0,0,0,0,0,0,-1,1133,498,0,0
-84,526,0,0,0,0,0,0,0,0,0,-1,1140,498,0,0
-77,526,0,0,0,0,0,0,0,0,0,-1,1147,498,0,0
-70,526,0,0,0,0,0,0,0,0,0,-1,1154,498,0,0
-63,526,0,0,0,0,0,0,0,0,0,-1,1161,498,0,0
-56,526,0,0,0,0,0,0,0,0,0,-1,1168,498,0,0
-49,526,0,0,0,0,0,0,0,0,0,-1,1175,498,0,0
-42,526,0,0,0,0,0,0,0,0,0,-1,1182,498,0,0
-35,526,0,0,0,0,0,0,0,0,0,-1,1189,498,0,0
-28,526,0,0,0,0,0,0,0,0,0,-1,1196,498,0,0
-21,526,0,0,0,0,0,0,0,0,0,-1,1203,498,0,0
-14,526,0,0,0,0,0,0,0,0,0,-1,1210,498,0,0
-7,526,0,0,0,0,0,0,0,0,0,-1,1217,498,0,0
0,526,0,0,0,0,0,0,0,0,0,-1,1224,498,0,0
7,526,0,0,0,0,0,0,0,0,0,-1,1231,498,0,0
14,526,0,0,0,0,0,0,0,0,0,-1,1238,498,0,0
21,526,0,0,0,0,0,0,0,0,0,-1,1245,498,0,0
28,526,0,0,0,0,0,0,0,0,0,-1,1252,498,0,0
35,526,0,0,0,0,0,0,0,0,0,-1,1259,498,0,0
42,526,0,0,0,0,0,0,0,0,0,-1,1266,498,0,0
49,526,0,0,0,0,0,0,0,0,0,-1,1273,498,0,0
56,526,0,0,0,0,0,0,0,0,0,-1,1280,498,0,0
63,526,0,0,0,0,0,0,0,0,0,-1,1287,498,0,0
70,526,0,0,0,0,0,0,0,0,0,-1,1294,498,0,0
77,526,0,0,0,0,0,0,0,0,0,-1,1301,498,0,0
84,526,0,0,0,0,0,0,0,0,0,-1,1308,498,0,0
91,526,0,0,0,0,0,0,0,0,0,-1,1315,498,0,0
98,526,0,0,0,0,0,0,0,0,0,-1,1322,498,0,0
105,526,0,0,0,0,0,0,0,0,0,-1,1329,498,0,0
112,526,0,0,0,0,0,0,0,0,0,-1,1336,498,0,0
119,526,0,0,0,0,0,0,0,0,0,-1,1343,498,0,0
126,526,0,0,0,0,0,0,0,0,0,-1,1350,498,0,0
133,526,0,0,0,0,0,0,0,0,0,-1,1357,498,0,0
140,526,0,0,0,0,0,0,0,0,0,-1,1364,498,0,0
147,526,0,0,0,0,0,0,0,0,0,-1,1371,498,0,0
154,526,0,0,0,0,0,0,0,0,0,-1,1378,498,0,0
161,526,0,0,0,0,0,0,0,0,0,-1,1385,498,0,0
168,526,0,0,0,0,0,0,0,0,0,-1,1392,498,0,0
175,526,0,0,0,0,0,0,0,0,0,-1,1399,498,0,0
182,526,0,0,0,0,0,0,0,0,0,-1,1406,498,0,0
189,526,0,0,0,0,0,0,0,0,0,-1,1413,498,0,0
196,526,0,0,0,0,0,0,0,0,0,-1,1420,498,0,0
203,526,0,0,0,0,0,0,0,0,0,-1,1427,498,0,0
210,526,0,0,0,0,0,0,0,0,0,-1,1434,498,0,0
217,526,0,0,0,0,0,0,0,0,0,-1,1441,498,0,0
224,526,0,0,0,0,0,0,0,0,0,-1,1448,498,0,0
231,526,7.93237,-1.30618,0,0,0,0,0,0,0,-1,1455,498,7.93238,1.30618
238,526,7.97717,-1.08197,0,0,0,0,0,0,0,-1,1462,498,7.97723,1.08196
245,526,7.2793,-0.792938,0,0,0,0,0,0,0,-1,1469,498,7.27931,0.792926
252,526,6.73523,-2.23608,0,0,0,0,0,0,0,-1,1476,498,6.73525,2.23608
259,526,6.22949,-1.84967,0,0,0,0,0,0,0,-1,1483,498,6.22953,1.84968
266,526,5.72375,-1.46329,0,0,0,0,0,0,0,-1,1490,498,5.72381,1.46328
273,526,4.33984,0.49173,0,0,0,0,0,0,0,-1,1497,498,4.33979,-0.491727
280,526,1.4585,-1.59897,0,0,0,0,0,0,0,-1,1504,498,1.45846,1.59895
287,526,1.46411,-2.40134,0,0,0,0,0,0,0,-1,1511,498,1.46406,2.40133
294,526,5.57471,-4.59085,0,0,0,0,0,0,0,-1,1518,498,5.57466,4.59084
301,526,4.42786,-3.99677,0,0,0,0,0,0,0,-1,1525,498,4.42788,3.99676
308,526,5.79529,-4.19366,0,0,0,0,0,0,0,-1,1532,498,5.79528,4.19368
315,526,5.09851,-5.20068,0,0,0,0,0,0,0,-1,1539,498,5.09851,5.20068
322,526,5.50708,-4.72348,0,0,0,0,0,0,0,-1,1546,498,5.50713,4.72347
329,526,3.88672,-4.345,0,0,0,0,0,0,0,-1,1553,498,3.88674,4.34501
336,526,4.97876,-2.23828,0,0,0,0,0,0,0,-1,1560,498,4.97877,2.23828
343,526,3.31665,-2.69696,0,0,0,0,0,0,0,-1,1567,498,3.31667,2.69696
350,526,6.06287,-6.12015,0,0,0,0,0,0,0,-1,1574,498,6.06286,6.12014
357,526,12.9944,-29.1665,0,0,0,0,0,0,0,-1,1581,498,12.9943,29.1665
364,526,12.3785,-28.3573,0,0,0,0,0,0,0,-1,1588,498,12.3786,28.3573
371,526,12.0344,-28.0846,0,0,0,0,0,0,0,-1,1595,498,12.0345,28.0846
378,526,11.8098,-27.6888,0,0,0,0,0,0,0,-1,1602,498,11.8099,27.6888
385,526,12.0189,-27.0901,0,0,0,0,0,0,0,-1,1609,498,12.0189,27.0901
392,526,12.1401,-26.5417,-0.00105402,-0.00242475,-0.00263824,0.000986421,-0.0044652,-0.658317,0.00335431,0.0366659,1616,498,12.1401,26.5418
399,526,12.0267,-26.0092,-0.000233904,-0.00128327,-0.00170026,0.00102079,-0.00253796,-0.635739,0.00211597,0.0198971,1623,498,12.0267,26.0092
406,526,12.0461,-25.4334,0.000373964,-0.000287504,-0.000975337,0.00107312,-0.000986658,-0.621934,0.00118956,0.012197,1630,498,12.0462,25.4334
413,526,12.0239,-24.8766,0.000886156,0.000727311,-0.000252587,0.00107151,0.000541954,-0.633075,0.000618652,0.0129241,1637,498,12.024,24.8766
420,526,12.0044,-24.3235,0.00147058,0.00140898,0.000384316,0.00182533,0.00105423,0.745417,0.00105807,0.0134492,1644,498,12.0045,24.3236
427,526,11.9918,-23.7584,0.00154433,0.00187082,0.00069407,0.00242059,0.000994568,0.9009,0.00140491,0.0142444,1651,498,11.9919,23.7583
434,526,11.9578,-23.196,0.00124717,0.00203179,0.000939061,0.0026572,0.000621767,0.983264,0.00160487,0.0127338,1658,498,11.9578,23.196
441,526,11.9584,-22.5995,0.000720232,0.00195707,0.00126791,0.00274934,-7.20345e-05,1.0123,0.00185737,0.0113433,1665,498,11.9584,22.5996
448,526,11.9573,-22.0225,6.86096e-05,0.00197766,0.00164723,0.00292694,-0.000880671,1.04799,0.00230172,0.0107843,1672,498,11.9573,22.0225
455,526,11.9138,-21.4586,-0.000657029,0.00189997,0.00204065,0.00302954,-0.0017866,1.06524,0.0028113,0.0134513,1679,498,11.9139,21.4586
462,526,11.8982,-20.8563,-0.00126867,0.00183945,0.00263441,0.00334401,-0.00277324,1.05188,0.00353692,0.0100528,1686,498,11.8982,20.8563
469,526,11.896,-20.2889,-0.00212029,0.0017578,0.00326869,0.00361931,-0.0039818,1.05311,0.00439016,0.00770003,1693,498,11.896,20.2888
476,526,11.8638,-19.6827,-0.00314148,0.00177576,0.00411106,0.0041073,-0.00547302,1.05489,0.0055499,0.00979245,1700,498,11.8638,19.6827
483,526,11.8514,-19.0159,-0.0040364,0.0017913,0.00501613,0.00467849,-0.00692359,1.04853,0.00674014,0.0127311,1707,498,11.8514,19.0159
490,526,11.9137,-18.3115,-0.00493277,0.00172889,0.00613839,0.00538192,-0.0085858,1.03398,0.00813467,0.0260378,1714,498,11.9137,18.3115
497,526,11.8171,-17.8687,-0.00579884,0.00170265,0.00741316,0.00625992,-0.0103561,1.0196,0.00968995,0.0323747,1721,498,11.8171,17.8687
504,526,11.8575,-17.2214,-0.00673202,0.00162049,0.00884743,0.0072278,-0.0123393,1.00591,0.0114249,0.0351667,1728,498,11.8575,17.2214
511,526,12.2356,-16.5436,-0.00769493,0.00128653,0.0104084,0.00813164,-0.01454,0.98906,0.0132627,0.0456237,1735,498,12.2356,16.5436
518,526,12.4979,-16.7606,0,0,0,0,0,0,0,-1,1742,498,12.4979,16.7606
525,526,12.0156,-15.188,0,0,0,0,0,0,0,-1,1749,498,12.0157,15.188
532,526,11.6227,-14.0115,0,0,0,0,0,0,0,-1,1756,498,11.6226,14.0115
539,526,10.6063,-12.9149,0,0,0,0,0,0,0,-1,1763,498,10.6063,12.9149
546,526,3.36731,1.07721,0,0,0,0,0,0,0,-1,1770,498,3.36735,-1.07719
553,526,3.40796,1.37137,0,0,0,0,0,0,0,-1,1777,498,3.40792,-1.37138
560,526,0,0,0,0,0,0,0,0,0,-1,1784,498,0,0
567,526,0,0,0,0,0,0,0,0,0,-1,1791,498,0,0
574,526,0,0,0,0,0,0,0,0,0,-1,1798,498,0,0
581,526,0,0,0,0,0,0,0,0,0,-1,1805,498,0,0
588,526,0,0,0,0,0,0,0,0,0,-1,1812,498,0,0
595,526,0,0,0,0,0,0,0,0,0,-1,1819,498,0,0
602,526,0,0,0,0,0,0,0,0,0,-1,1826,498,0,0
609,526,0,0,0,0,0,0,0,0,0,-1,1833,498,0,0
616,526,0,0,0,0,0,0,0,0,0,-1,1840,498,0,0
623,526,0,0,0,0,0,0,0,0,0,-1,1847,498,0,0
630,526,0,0,0,0,0,0,0,0,0,-1,1854,498,0,0
637,526,0,0,0,0,0,0,0,0,0,-1,1861,498,0,0
644,526,0,0,0,0,0,0,0,0,0,-1,1868,498,0,0
651,526,0,0,0,0,0,0,0,0,0,-1,1875,498,0,0
658,526,0,0,0,0,0,0,0,0,0,-1,1882,498,0,0
665,526,0,0,0,0,0,0,0,0,0,-1,1889,498,0,0
672,526,0,0,0,0,0,0,0,0,0,-1,1896,498,0,0
679,526,0,0,0,0,0,0,0,0,0,-1,1903,498,0,0
686,526,0,0,0,0,0,0,0,0,0,-1,1910,498,0,0
693,526,0,0,0,0,0,0,0,0,0,-1,1917,498,0,0
700,526,0,0,0,0,0,0,0,0,0,-1,1924,498,0,0
707,526,0,0,0,0,0,0,0,0,0,-1,1931,498,0,0
714,526,0,0,0,0,0,0,0,0,0,-1,1938,498,0,0
721,526,0,0,0,0,0,0,0,0,0,-1,1945,498,0,0
728,526,0,0,0,0,0,0,0,0,0,-1,1952,498,0,0
735,526,0,0,0,0,0,0,0,0,0,-1,1959,498,0,0
742,526,0,0,0,0,0,0,0,0,0,-1,1966,498,0,0
749,526,0,0,0,0,0,0,0,0,0,-1,1973,498,0,0
756,526,0,0,0,0,0,0,0,0,0,-1,1980,498,0,0
763,526,0,0,0,0,0,0,0,0,0,-1,1987,498,0,0
770,526,0,0,0,0,0,0,0,0,0,-1,1994,498,0,0
777,526,0,0,0,0,0,0,0,0,0,-1,2001,498,0,0
784,526,0,0,0,0,0,0,0,0,0,-1,2008,498,0,0
791,526,0,0,0,0,0,0,0,0,0,-1,2015,498,0,0
798,526,0,0,0,0,0,0,0,0,0,-1,2022,498,0,0
805,526,0,0,0,0,0,0,0,0,0,-1,2029,498,0,0
812,526,0,0,0,0,0,0,0,0,0,-1,2036,498,0,0
-700,519,0,0,0,0,0,0,0,0,0,-1,524,505,0,0
-693,519,0,0,0,0,0,0,0,0,0,-1,531,505,0,0
-686,519,0,0,0,0,0,0,0,0,0,-1,538,505,0,0
-679,519,0,0,0,0,0,0,0,0,0,-1,545,505,0,0
-672,519,0,0,0,0,0,0,0,0,0,-1,552,505,0,0
-665,519,0,0,0,0,0,0,0,0,0,-1,559,505,0,0
-658,519,0,0,0,0,0,0,0,0,0,-1,566,505,0,0
-651,519,0,0,0,0,0,0,0,0,0,-1,573,505,0,0
-644,519,0,0,0,0,0,0,0,0,0,-1,580,505,0,0
-637,519,0,0,0,0,0,0,0,0,0,-1,587,505,0,0
-630,519,0,0,0,0,0,0,0,0,0,-1,594,505,0,0
-623,519,0,0,0,0,0,0,0,0,0,-1,601,505,0,0
-616,519,0,0,0,0,0,0,0,0,0,-1,608,505,0,0
-609,519,0,0,0,0,0,0,0,0,0,-1,615,505,0,0
-602,519,0,0,0,0,0,0,0,0,0,-1,622,505,0,0
-595,519,0,0,0,0,0,0,0,0,0,-1,629,505,0,0
-588,519,0,0,0,0,0,0,0,0,0,-1,636,505,0,0
-581,519,0,0,0,0,0,0,0,0,0,-1,643,505,0,0
-574,519,0,0,0,0,0,0,0,0,0,-1,650,505,0,0
-567,519,0,0,0,0,0,0,0,0,0,-1,657,505,0,0
-560,519,0,0,0,0,0,0,0,0,0,-1,664,505,0,0
-553,519,0,0,0,0,0,0,0,0,0,-1,671,505,0,0
-546,519,0,0,0,0,0,0,0,0,0,-1,678,505,0,0
-539,519,0,0,0,0,0,0,0,0,0,-1,685,505,0,0
-532,519,0,0,0,0,0,0,0,0,0,-1,692,505,0,0
-525,519,0,0,0,0,0,0,0,0,0,-1,699,505,0,0
-518,519,0,0,0,0,0,0,0,0,0,-1,706,505,0,0
-511,519,0,0,0,0,0,0,0,0,0,-1,713,505,0,0
-504,519,0,0,0,0,0,0,0,0,0,-1,720,505,0,0
-497,519,0,0,0,0,0,0,0,0,0,-1,727,505,0,0
-490,519,0,0,0,0,0,0,0,0,0,-1,734,505,0,0
-483,519,0,0,0,0,0,0,0,0,0,-1,741,505,0,0
-476,519,0,0,0,0,0,0,0,0,0,-1,748,505,0,0
-469,519,0,0,0,0,0,0,0,0,0,-1,755,505,0,0
-462,519,0,0,0,0,0,0,0,0,0,-1,762,505,0,0
-455,519,0,0,0,0,0,0,0,0,0,-1,769,505,0,0
-448,519,0,0,0,0,0,0,0,0,0,-1,776,505,0,0
-441,519,1.34839,-5.29346,0,0,0,0,0,0,0,-1,783,505,1.3484,5.29347
-434,519,0.949585,-5.77313,0,0,0,0,0,0,0,-1,790,505,0.949598,5.77315
-427,519,-0.0523682,-9.31567,0,0,0,0,0,0,0,-1,797,505,-0.0523854,9.31568
-420,519,-2.38867,-12.1938,0,0,0,0,0,0,0,-1,804,505,-2.38867,12.1938
-413,519,-2.2298,-12.4998,0,0,0,0,0,0,0,-1,811,505,-2.22979,12.4998
-406,519,-1.44373,-12.3475,0,0,0,0,0,0,0,-1,818,505,-1.44376,12.3475
-399,519,-1.41022,-14.1157,0,0,0,0,0,0,0,-1,825,505,-1.41019,14.1157
-392,519,-1.16113,-17.071,0,0,0,0,0,0,0,-1,832,505,-1.16113,17.071
-385,519,-1.56512,-17.0474,0.00285539,0.0312463,-0.0153232,0.0379388,-0.0038372,-1.159,0.0266638,0.0450316,839,505,-1.56513,17.0474
-378,519,-1.53412,-17.9908,0.00211618,0.0252746,-0.0123266,0.0306076,-0.0032168,-1.16247,0.0215575,0.0333697,846,505,-1.53412,17.9908
-371,519,-1.42566,-18.81,0.00173114,0.0204587,-0.00981282,0.0246586,-0.0024687,-1.16639,0.0173207,0.0190117,853,505,-1.42565,18.81
-364,519,-1.42096,-19.5749,0.00136871,0.016455,-0.00755678,0.0195892,-0.00176541,-1.17765,0.0136859,0.0117067,860,505,-1.42096,19.5749
-357,519,-1.42261,-20.2258,0.00106212,0.0129696,-0.00581459,0.0153379,-0.00130618,-1.18401,0.0106873,0.0109191,867,505,-1.42262,20.2257
-350,519,-1.45288,-20.801,0.000806102,0.00974978,-0.00418383,0.0114018,-0.000845932,-1.19473,0.0078983,0.0128245,874,505,-1.4529,20.801
-343,519,-1.52179,-21.3739,0.000734471,0.00736127,-0.0030087,0.00852346,-0.000427721,-1.20218,0.00583011,0.0162207,881,505,-1.52181,21.3739
-336,519,-1.56873,-21.9529,0.000746607,0.00541292,-0.0020866,0.00620986,-5.03326e-05,-1.20596,0.00415678,0.016018,888,505,-1.56872,21.953
-329,519,-1.56317,-22.5268,0.000834308,0.0034312,-0.00128259,0.00395786,0.000307651,-1.18117,0.00254224,0.0128683,895,505,-1.5632,22.5268
-322,519,-1.5799,-23.1058,0.000970549,0.00199783,-0.000712462,0.0023625,0.000605879,-1.09772,0.0014169,0.0103457,902,505,-1.5799,23.1058
-315,519,-1.60626,-23.6813,0.00122169,0.000749064,-0.000311178,0.00137611,0.00059464,-0.460649,0.000796936,0.00905402,909,505,-1.60624,23.6813
-308,519,-1.61328,-24.2487,0.00152512,-0.000302279,-9.96808e-06,0.00152518,-0.000302334,-0.00545457,0.00113111,0.00837087,916,505,-1.61329,24.2487
-301,519,-1.63013,-24.7731,0.00187755,-0.00121958,0.000198054,0.00189016,-0.00123219,0.0636022,0.00181599,0.0132451,923,505,-1.63015,24.7732
-294,519,-1.66211,-25.254,0.00233701,-0.00197949,0.000419746,0.00237744,-0.00201993,0.0960433,0.00254162,0.0160954,930,505,-1.66213,25.254
-287,519,-1.69019,-25.8051,0.00294231,-0.00267997,0.000550791,0.00299576,-0.00273342,0.0967402,0.0033089,0.012062,937,505,-1.69021,25.8051
-280,519,-1.69238,-26.3326,0.00355214,-0.00339423,0.000789048,0.00364064,-0.00348273,0.111696,0.00411302,0.0174402,944,505,-1.69235,26.3327
-273,519,-1.66174,-26.8881,0.00450121,-0.00392809,0.00116646,0.00465965,-0.00408653,0.135002,0.00505322,0.0332013,951,505,-1.66177,26.8881
-266,519,-1.70282,-27.4493,0,0,0,0,0,0,0,-1,958,505,-1.70281,27.4494
-259,519,-1.56171,-27.9883,0,0,0,0,0,0,0,-1,965,505,-1.56172,27.9883
-252,519,-1.84009,-26.8372,0,0,0,0,0,0,0,-1,972,505,-1.8401,26.8372
-245,519,-1.23254,-23.2696,0,0,0,0,0,0,0,-1,979,505,-1.23256,23.2696
-238,519,-1.06903,-23.1753,0,0,0,0,0,0,0,-1,986,505,-1.06904,23.1753
-231,519,0.337585,-11.2798,0,0,0,0,0,0,0,-1,993,505,0.337568,11.2798
-224,519,-0.0494995,-7.97394,0,0,0,0,0,0,0,-1,1000,505,-0.0495123,7.97392
-217,519,-0.283691,-23.8409,0,0,0,0,0,0,0,-1,1007,505,-0.283683,23.8409
-210,519,-2.14398,-4.74774,0,0,0,0,0,0,0,-1,1014,505,-2.14397,4.74775
-203,519,-0.513611,-5.39017,0,0,0,0,0,0,0,-1,1021,505,-0.513585,5.39017
-196,519,-0.374023,-5.41635,0,0,0,0,0,0,0,-1,1028,505,-0.374047,5.41635
-189,519,-0.234497,-5.44254,0,0,0,0,0,0,0,-1,1035,505,-0.234508,5.44253
-182,519,2.76697,-1.19659,0,0,0,0,0,0,0,-1,1042,505,2.76696,1.19661
-175,519,2.31323,-0.960938,0,0,0,0,0,0,0,-1,1049,505,2.31319,0.960941
-168,519,2.01074,-0.721405,0,0,0,0,0,0,0,-1,1056,505,2.01072,0.721407
-161,519,2.32056,-0.522339,0,0,0,0,0,0,0,-1,1063,505,2.32057,0.522328
-154,519,2.55566,0.116669,0,0,0,0,0,0,0,-1,1070,505,2.55563,-0.116661
-147,519,-0.55127,-6.14001,0,0,0,0,0,0,0,-1,1077,505,-0.551252,6.14001
-140,519,0.240601,-7.53503,0,0,0,0,0,0,0,-1,1084,505,0.240653,7.53501
-133,519,2.70911,-4.4516,0,0,0,0,0,0,0,-1,1091,505,2.70915,4.45161
-126,519,0,0,0,0,0,0,0,0,0,-1,1098,505,0,0
-119,519,0,0,0,0,0,0,0,0,0,-1,1105,505,0,0
-112,519,0,0,0,0,0,0,0,0,0,-1,1112,505,0,0
-105,519,0,0,0,0,0,0,0,0,0,-1,1119,505,0,0
-98,519,0,0,0,0,0,0,0,0,0,-1,1126,505,0,0
-91,519,0,0,0,0,0,0,0,0,0,-1,1133,505,0,0
-84,519,0,0,0,0,0,0,0,0,0,-1,1140,505,0,0
-77,519,0,0,0,0,0,0,0,0,0,-1,1147,505,0,0
-70,519,0,0,0,0,0,0,0,0,0,-1,1154,505,0,0
-63,519,0,0,0,0,0,0,0,0,0,-1,1161,505,0,0
-56,519,0,0,0,0,0,0,0,0,0,-1,1168,505,0,0
-49,519,0,0,0,0,0,0,0,0,0,-1,1175,505,0,0
-42,519,0,0,0,0,0,0,0,0,0,-1,1182,505,0,0
-35,519,0,0,0,0,0,0,0,0,0,-1,1189,505,0,0
-28,519,0,0,0,0,0,0,0,0,0,-1,1196,505,0,0
-21,519,0,0,0,0,0,0,0,0,0,-1,1203,505,0,0
-14,519,0,0,0,0,0,0,0,0,0,-1,1210,505,0,0
-7,519,0,0,0,0,0,0,0,0,0,-1,1217,505,0,0
0,519,0,0,0,0,0,0,0,0,0,-1,1224,505,0,0
7,519,0,0,0,0,0,0,0,0,0,-1,1231,505,0,0
14,519,0,0,0,0,0,0,0,0,0,-1,1238,505,0,0
21,519,0,0,0,0,0,0,0,0,0,-1,1245,505,0,0
28,519,0,0,0,0,0,0,0,0,0,-1,1252,505,0,0
35,519,0,0,0,0,0,0,0,0,0,-1,1259,505,0,0
42,519,0,0,0,0,0,0,0,0,0,-1,1266,505,0,0
49,519,0,0,0,0,0,0,0,0,0,-1,1273,505,0,0
56,519,0,0,0,0,0,0,0,0,0,-1,1280,505,0,0
63,519,0,0,0,0,0,0,0,0,0,-1,1287,505,0,0
70,519,0,0,0,0,0,0,0,0,0,-1,1294,505,0,0
77,519,0,0,0,0,0,0,0,0,0,-1,1301,505,0,0
84,519,0,0,0,0,0,0,0,0,0,-1,1308,505,0,0
91,519,0,0,0,0,0,0,0,0,0,-1,1315,505,0,0
98,519,0,0,0,0,0,0,0,0,0,-1,1322,505,0,0
105,519,0,0,0,0,0,0,0,0,0,-1,1329,505,0,0
112,519,0,0,0,0,0,0,0,0,0,-1,1336,505,0,0
119,519,0,0,0,0,0,0,0,0,0,-1,1343,505,0,0
126,519,0,0,0,0,0,0,0,0,0,-1,1350,505,0,0
133,519,0,0,0,0,0,0,0,0,0,-1,1357,505,0,0
140,519,0,0,0,0,0,0,0,0,0,-1,1364,505,0,0
147,519,0,0,0,0,0,0,0,0,0,-1,1371,505,0,0
154,519,0,0,0,0,0,0,0,0,0,-1,1378,505,0,0
161,519,0,0,0,0,0,0,0,0,0,-1,1385,505,0,0
168,519,0,0,0,0,0,0,0,0,0,-1,1392,505,0,0
175,519,0,0,0,0,0,0,0,0,0,-1,1399,505,0,0
182,519,0,0,0,0,0,0,0,0,0,-1,1406,505,0,0
189,519,0,0,0,0,0,0,0,0,0,-1,1413,505,0,0
196,519,0,0,0,0,0,0,0,0,0,-1,1420,505,0,0
203,519,0,0,0,0,0,0,0,0,0,-1,1427,505,0,0
210,519,0,0,0,0,0,0,0,0,0,-1,1434,505,0,0
217,519,0,0,0,0,0,0,0,0,0,-1,1441,505,0,0
224,519,0,0,0,0,0,0,0,0,0,-1,1448,505,0,0
231,519,0,0,0,0,0,0,0,0,0,-1,1455,505,0,0
238,519,0,0,0,0,0,0,0,0,0,-1,1462,505,0,0
245,519,0,0,0,0,0,0,0,0,0,-1,1469,505,0,0
252,519,5.26208,0.0938416,0,0,0,0,0,0,0,-1,1476,505,5.26207,-0.0938493
259,519,6.14246,-1.36441,0,0,0,0,0,0,0,-1,1483,505,6.14241,1.36441
266,519,5.31909,-0.400787,0,0,0,0,0,0,0,-1,1490,505,5.31912,0.400773
273,519,4.02393,0.325531,0,0,0,0,0,0,0,-1,1497,505,4.0239,-0.325522
280,519,4.68848,0.53006,0,0,0,0,0,0,0,-1,1504,505,4.68842,-0.530073
287,519,7.9519,-3.80801,0,0,0,0,0,0,0,-1,1511,505,7.95193,3.808
294,519,6.92273,-3.38889,0,0,0,0,0,0,0,-1,1518,505,6.92268,3.38888
301,519,5.35669,-2.92661,0,0,0,0,0,0,0,-1,1525,505,5.35675,2.9266
308,519,7.37549,-5.64529,0,0,0,0,0,0,0,-1,1532,505,7.3755,5.64529
315,519,6.30029,-4.53754,0,0,0,0,0,0,0,-1,1539,505,6.30024,4.53753
322,519,5.84302,-5.45117,0,0,0,0,0,0,0,-1,1546,505,5.84303,5.45116
329,519,4.92407,0.62384,0,0,0,0,0,0,0,-1,1553,505,4.92403,-0.623832
336,519,3.10095,-0.329285,0,0,0,0,0,0,0,-1,1560,505,3.1009,0.329283
343,519,2.49146,-2.31119,0,0,0,0,0,0,0,-1,1567,505,2.49145,2.31119
350,519,3.47729,-2.22516,0,0,0,0,0,0,0,-1,1574,505,3.47726,2.22515
357,519,13.271,-29.6344,0,0,0,0,0,0,0,-1,1581,505,13.271,29.6344
364,519,12.8292,-28.3627,0,0,0,0,0,0,0,-1,1588,505,12.8292,28.3627
371,519,12.3875,-27.0911,0,0,0,0,0,0,0,-1,1595,505,12.3874,27.091
378,519,6.36597,-10.0967,0,0,0,0,0,0,0,-1,1602,505,6.36597,10.0967
385,519,6.24756,-9.72186,0,0,0,0,0,0,0,-1,1609,505,6.24752,9.72183
392,519,12.599,-26.7305,0,0,0,0,0,0,0,-1,1616,505,12.599,26.7305
399,519,12.5153,-25.9741,0,0,0,0,0,0,0,-1,1623,505,12.5153,25.974
406,519,12.5729,-25.4101,0.000281503,-1.67798e-05,-0.00138611,0.00152647,-0.00126174,-0.731806,0.00161219,0.0335423,1630,505,12.5729,25.4101
413,519,12.6255,-24.8676,0.00100653,0.000983317,-0.000551112,0.00154616,0.000443689,-0.77487,0.000919287,0.0157886,1637,505,12.6255,24.8676
420,519,12.5907,-24.2979,0.00186955,0.00161027,0.000166388,0.00195084,0.00152898,0.454456,0.00118524,0.015499,1644,505,12.5907,24.2979
427,519,12.5896,-23.7525,0.00212417,0.00199967,0.000468586,0.00253462,0.00158922,0.719362,0.00147902,0.0139979,1651,505,12.5896,23.7525
434,519,12.5773,-23.1848,0.00196051,0.00211722,0.000678327,0.0027217,0.00135603,0.842897,0.00157138,0.0131394,1658,505,12.5772,23.1848
441,519,12.5289,-22.5792,0.00155381,0.00202238,0.000961114,0.00277735,0.000798839,0.90495,0.00165102,0.0130743,1665,505,12.5289,22.5792
448,519,12.515,-21.997,0.00110444,0.00193394,0.00128364,0.00286817,0.000170211,0.941658,0.00185798,0.0100294,1672,505,12.515,21.997
455,519,12.4858,-21.4399,0.000553271,0.00186884,0.00159023,0.00293196,-0.000509852,0.981503,0.00214489,0.010704,1679,505,12.4859,21.4399
462,519,12.4783,-20.8561,9.12e-05,0.00186416,0.00205685,0.00321743,-0.00126207,0.988865,0.0026671,0.00981876,1686,505,12.4783,20.8562
469,519,12.4767,-20.2571,-0.000531395,0.00184679,0.00259289,0.00351024,-0.00219485,1.00039,0.00332289,0.0103713,1693,505,12.4767,20.2571
476,519,12.4523,-19.6313,-0.00131313,0.00192291,0.00330457,0.00398432,-0.00337454,1.01306,0.0042535,0.013556,1700,505,12.4523,19.6313
483,519,12.4329,-19.0179,-0.00198145,0.00198787,0.00404206,0.00450622,-0.0044998,1.01361,0.00519963,0.0148985,1707,505,12.4329,19.0179
490,519,12.4259,-18.3774,-0.00268895,0.00200962,0.00493138,0.00512271,-0.00580205,1.00769,0.00631148,0.012436,1714,505,12.426,18.3775
497,519,12.4037,-17.8307,-0.00340104,0.00203666,0.00597822,0.00588525,-0.00724963,0.998814,0.00759705,0.0174341,1721,505,12.4037,17.8307
504,519,12.3239,-17.1821,-0.00419128,0.00199462,0.00713891,0.00668179,-0.00887846,0.989818,0.0090135,0.0182947,1728,505,12.3238,17.1821
511,519,12.3409,-16.4971,-0.00508295,0.00172273,0.00834538,0.00733236,-0.0106926,0.978983,0.0104668,0.0244183,1735,505,12.341,16.497
518,519,12.3333,-15.9362,-0.00623549,0.00125001,0.00955911,0.00777296,-0.0127584,0.971993,0.0119697,0.0401311,1742,505,12.3332,15.9362
525,519,12.0745,-15.1447,-0.00746371,0.000471759,0.0107236,0.00793809,-0.01493,0.962589,0.0134071,0.0445923,1749,505,12.0744,15.1447
532,519,11.9419,-13.9323,0,0,0,0,0,0,0,-1,1756,505,11.9419,13.9323
539,519,11.9464,-12.8305,0,0,0,0,0,0,0,-1,1763,505,11.9464,12.8305
546,519,4.62024,-2.89774,0,0,0,0,0,0,0,-1,1770,505,4.62023,2.89775
553,519,4.14136,0.0667419,0,0,0,0,0,0,0,-1,1777,505,4.14141,-0.0667503
560,519,3.77856,0.279724,0,0,0,0,0,0,0,-1,1784,505,3.77861,-0.279731
567,519,0,0,0,0,0,0,0,0,0,-1,1791,505,0,0
574,519,0,0,0,0,0,0,0,0,0,-1,1798,505,0,0
581,519,0,0,0,0,0,0,0,0,0,-1,1805,505,0,0
588,519,0,0,0,0,0,0,0,0,0,-1,1812,505,0,0
595,519,0,0,0,0,0,0,0,0,0,-1,1819,505,0,0
602,519,0,0,0,0,0,0,0,0,0,-1,1826,505,0,0
609,519,0,0,0,0,0,0,0,0,0,-1,1833,505,0,0
616,519,0,0,0,0,0,0,0,0,0,-1,1840,505,0,0
623,519,0,0,0,0,0,0,0,0,0,-1,1847,505,0,0
630,519,0,0,0,0,0,0,0,0,0,-1,1854,505,0,0
637,519,0,0,0,0,0,0,0,0,0,-1,1861,505,0,0
644,519,0,0,0,0,0,0,0,0,0,-1,1868,505,0,0
651,519,0,0,0,0,0,0,0,0,0,-1,1875,505,0,0
658,519,0,0,0,0,0,0,0,0,0,-1,1882,505,0,0
665,519,0,0,0,0,0,0,0,0,0,-1,1889,505,0,0
672,519,0,0,0,0,0,0,0,0,0,-1,1896,505,0,0
679,519,0,0,0,0,0,0,0,0,0,-1,1903,505,0,0
686,519,0,0,0,0,0,0,0,0,0,-1,1910,505,0,0
693,519,0,0,0,0,0,0,0,0,0,-1,1917,505,0,0
700,519,0,0,0,0,0,0,0,0,0,-1,1924,505,0,0
707,519,0,0,0,0,0,0,0,0,0,-1,1931,505,0,0
714,519,0,0,0,0,0,0,0,0,0,-1,1938,505,0,0
721,519,0,0,0,0,0,0,0,0,0,-1,1945,505,0,0
728,519,0,0,0,0,0,0,0,0,0,-1,1952,505,0,0
735,519,0,0,0,0,0,0,0,0,0,-1,1959,505,0,0
742,519,0,0,0,0,0,0,0,0,0,-1,1966,505,0,0
749,519,0,0,0,0,0,0,0,0,0,-1,1973,505,0,0
756,519,0,0,0,0,0,0,0,0,0,-1,1980,505,0,0
763,519,0,0,0,0,0,0,0,0,0,-1,1987,505,0,0
770,519,0,0,0,0,0,0,0,0,0,-1,1994,505,0,0
777,519,0,0,0,0,0,0,0,0,0,-1,2001,505,0,0
784,519,0,0,0,0,0,0,0,0,0,-1,2008,505,0,0
791,519,0,0,0,0,0,0,0,0,0,-1,2015,505,0,0
798,519,0,0,0,0,0,0,0,0,0,-1,2022,505,0,0
805,519,0,0,0,0,0,0,0,0,0,-1,2029,505,0,0
812,519,0,0,0,0,0,0,0,0,0,-1,2036,505,0,0
-700,512,0,0,0,0,0,0,0,0,0,-1,524,512,0,0
-693,512,0,0,0,0,0,0,0,0,0,-1,531,512,0,0
-686,512,0,0,0,0,0,0,0,0,0,-1,538,512,0,0
-679,512,0,0,0,0,0,0,0,0,0,-1,545,512,0,0
-672,512,0,0,0,0,0,0,0,0,0,-1,552,512,0,0
-665,512,0,0,0,0,0,0,0,0,0,-1,559,512,0,0
-658,512,0,0,0,0,0,0,0,0,0,-1,566,512,0,0
-651,512,0,0,0,0,0,0,0,0,0,-1,573,512,0,0
-644,512,0,0,0,0,0,0,0,0,0,-1,580,512,0,0
-637,512,0,0,0,0,0,0,0,0,0,-1,587,512,0,0
-630,512,0,0,0,0,0,0,0,0,0,-1,594,512,0,0
-623,512,0,0,0,0,0,0,0,0,0,-1,601,512,0,0
-616,512,0,0,0,0,0,0,0,0,0,-1,608,512,0,0
-609,512,0,0,0,0,0,0,0,0,0,-1,615,512,0,0
-602,512,0,0,0,0,0,0,0,0,0,-1,622,512,0,0
-595,512,0,0,0,0,0,0,0,0,0,-1,629,512,0,0
-588,512,0,0,0,0,0,0,0,0,0,-1,636,512,0,0
-581,512,0,0,0,0,0,0,0,0,0,-1,643,512,0,0
-574,512,0,0,0,0,0,0,0,0,0,-1,650,512,0,0
-567,512,0,0,0,0,0,0,0,0,0,-1,657,512,0,0
-560,512,0,0,0,0,0,0,0,0,0,-1,664,512,0,0
-553,512,0,0,0,0,0,0,0,0,0,-1,671,512,0,0
-546,512,0,0,0,0,0,0,0,0,0,-1,678,512,0,0
-539,512,0,0,0,0,0,0,0,0,0,-1,685,512,0,0
-532,512,0,0,0,0,0,0,0,0,0,-1,692,512,0,0
-525,512,0,0,0,0,0,0,0,0,0,-1,699,512,0,0
-518,512,0,0,0,0,0,0,0,0,0,-1,706,512,0,0
-511,512,0,0,0,0,0,0,0,0,0,-1,713,512,0,0
-504,512,0,0,0,0,0,0,0,0,0,-1,720,512,0,0
-497,512,0,0,0,0,0,0,0,0,0,-1,727,512,0,0
-490,512,0,0,0,0,0,0,0,0,0,-1,734,512,0,0
-483,512,0,0,0,0,0,0,0,0,0,-1,741,512,0,0
-476,512,0,0,0,0,0,0,0,0,0,-1,748,512,0,0
-469,512,0,0,0,0,0,0,0,0,0,-1,755,512,0,0
-462,512,0,0,0,0,0,0,0,0,0,-1,762,512,0,0
-455,512,0,0,0,0,0,0,0,0,0,-1,769,512,0,0
-448,512,1.96283,-4.15674,0,0,0,0,0,0,0,-1,776,512,1.96285,4.15677
-441,512,1.78198,-4.88824,0,0,0,0,0,0,0,-1,783,512,1.78201,4.88826
-434,512,0.0726929,-9.85822,0,0,0,0,0,0,0,-1,790,512,0.0727008,9.85819
-427,512,-0.384583,-9.94824,0,0,0,0,0,0,0,-1,797,512,-0.384552,9.94823
-420,512,-2.93219,-12.4855,0,0,0,0,0,0,0,-1,804,512,-2.93219,12.4855
-413,512,-2.22711,-11.4485,0,0,0,0,0,0,0,-1,811,512,-2.22712,11.4485
-406,512,-2.38037,-13.5743,0,0,0,0,0,0,0,-1,818,512,-2.38034,13.5743
-399,512,-2.07422,-16.4517,0,0,0,0,0,0,0,-1,825,512,-2.07423,16.4517
-392,512,-1.93958,-17.0957,0.00335594,0.0305829,-0.0152052,0.0373784,-0.00343951,-1.15051,0.026141,0.0421737,832,512,-1.93957,17.0957
-385,512,-1.93146,-17.6998,0.00237886,0.0249159,-0.0124557,0.030444,-0.00314919,-1.1531,0.021423,0.0214855,839,512,-1.93145,17.6998
-378,512,-1.97168,-18.3025,0.00174397,0.0201021,-0.0101324,0.0245949,-0.00274886,-1.15343,0.0173855,0.01618,846,512,-1.97171,18.3025
-371,512,-1.9718,-18.9713,0.00131591,0.0160244,-0.00818404,0.019673,-0.00233273,-1.15142,0.0139581,0.0124086,853,512,-1.97179,18.9713
-364,512,-1.98059,-19.635,0.00101924,0.0124554,-0.00638054,0.0153052,-0.00183051,-1.15075,0.0108651,0.00994123,860,512,-1.98061,19.635
-357,512,-2.00391,-20.2085,0.000858475,0.00946468,-0.00487377,0.0116631,-0.00133998,-1.14704,0.00825841,0.0107527,867,512,-2.00391,20.2085
-350,512,-2.03033,-20.7888,0.000719642,0.00666313,-0.00347987,0.0082675,-0.000884718,-1.1388,0.00582899,0.0114998,874,512,-2.03031,20.7888
-343,512,-2.07941,-21.3728,0.000744463,0.00457848,-0.00245881,0.00577928,-0.00045633,-1.1165,0.00401362,0.013077,881,512,-2.07938,21.3728
-336,512,-2.12762,-21.9601,0.000874619,0.00287701,-0.00162705,0.00378623,-3.46029e-05,-1.06121,0.00253577,0.0142353,888,512,-2.1276,21.9601
-329,512,-2.11786,-22.5233,0.0011271,0.00126187,-0.00093484,0.00213175,0.000257219,-0.821378,0.00134366,0.0155471,895,512,-2.11785,22.5233
-322,512,-2.14069,-23.079,0.00143231,0.000130484,-0.000421218,0.00155671,6.08218e-06,-0.287174,0.00103578,0.0128712,902,512,-2.14066,23.079
-315,512,-2.16235,-23.6417,0.0018267,-0.000797653,-3.99828e-05,0.00182731,-0.000798262,-0.0152306,0.0015542,0.0107224,909,512,-2.16234,23.6417
-308,512,-2.17584,-24.2001,0.00232264,-0.00156982,0.000215713,0.00233456,-0.00158174,0.055193,0.00227495,0.010658,916,512,-2.17584,24.2002
-301,512,-2.18787,-24.7292,0.00285753,-0.00217095,0.000412109,0.00289108,-0.0022045,0.0812326,0.00295083,0.0161489,923,512,-2.18788,24.7292
-294,512,-2.19141,-25.2234,0.00339551,-0.0025897,0.000622947,0.00345966,-0.00265385,0.102616,0.00353984,0.016023,930,512,-2.19139,25.2234
-287,512,-2.30078,-25.7045,0.00407224,-0.00302635,0.000655091,0.00413219,-0.0030863,0.0912577,0.00418215,0.0260169,937,512,-2.30075,25.7045
-280,512,-2.17651,-26.3077,0.00476862,-0.00365387,0.000857735,0.00485508,-0.00374033,0.100464,0.00497646,0.046037,944,512,-2.1765,26.3078
-273,512,-1.81946,-26.9771,0,0,0,0,0,0,0,-1,951,512,-1.81948,26.9771
-266,512,-2.33594,-25.9839,0,0,0,0,0,0,0,-1,958,512,-2.33592,25.9839
-259,512,-0.525452,-14.0815,0,0,0,0,0,0,0,-1,965,512,-0.525475,14.0815
-252,512,1.45941,-3.43475,0,0,0,0,0,0,0,-1,972,512,1.45938,3.43475
-245,512,-1.6731,-22.8959,0,0,0,0,0,0,0,-1,979,512,-1.67312,22.8959
-238,512,0.227051,-8.92969,0,0,0,0,0,0,0,-1,986,512,0.227073,8.92968
-231,512,-2.54437,-10.169,0,0,0,0,0,0,0,-1,993,512,-2.54439,10.169
-224,512,-4.84601,-7.52783,0,0,0,0,0,0,0,-1,1000,512,-4.84602,7.52786
-217,512,-7.37274,-3.89563,0,0,0,0,0,0,0,-1,1007,512,-7.37274,3.89561
-210,512,-3.76642,-1.94702,0,0,0,0,0,0,0,-1,1014,512,-3.76641,1.94702
-203,512,-2.48328,-5.19061,0,0,0,0,0,0,0,-1,1021,512,-2.48328,5.19059
-196,512,-1.14929,-4.63202,0,0,0,0,0,0,0,-1,1028,512,-1.14934,4.632
-189,512,0.197998,4.55505,0,0,0,0,0,0,0,-1,1035,512,0.197996,-4.55506
-182,512,2.73938,0.0778503,0,0,0,0,0,0,0,-1,1042,512,2.73944,-0.077852
-175,512,2.29565,0.209808,0,0,0,0,0,0,0,-1,1049,512,2.29565,-0.209813
-168,512,2.09399,-0.302856,0,0,0,0,0,0,0,-1,1056,512,2.09403,0.302826
-161,512,2.76636,0.0921021,0,0,0,0,0,0,0,-1,1063,512,2.76633,-0.0921104
-154,512,3.41382,0.466187,0,0,0,0,0,0,0,-1,1070,512,3.41382,-0.466178
-147,512,0,0,0,0,0,0,0,0,0,-1,1077,512,0,0
-140,512,0,0,0,0,0,0,0,0,0,-1,1084,512,0,0
-133,512,0,0,0,0,0,0,0,0,0,-1,1091,512,0,0
-126,512,0,0,0,0,0,0,0,0,0,-1,1098,512,0,0
-119,512,0,0,0,0,0,0,0,0,0,-1,1105,512,0,0
-112,512,0,0,0,0,0,0,0,0,0,-1,1112,512,0,0
-105,512,0,0,0,0,0,0,0,0,0,-1,1119,512,0,0
-98,512,0,0,0,0,0,0,0,0,0,-1,1126,512,0,0
-91,512,0,0,0,0,0,0,0,0,0,-1,1133,512,0,0
-84,512,0,0,0,0,0,0,0,0,0,-1,1140,512,0,0
-77,512,0,0,0,0,0,0,0,0,0,-1,1147,512,0,0
-70,512,0,0,0,0,0,0,0,0,0,-1,1154,512,0,0
-63,512,0,0,0,0,0,0,0,0,0,-1,1161,512,0,0
-56,512,0,0,0,0,0,0,0,0,0,-1,1168,512,0,0
-49,512,0,0,0,0,0,0,0,0,0,-1,1175,512,0,0
-42,512,0,0,0,0,0,0,0,0,0,-1,1182,512,0,0
-35,512,0,0,0,0,0,0,0,0,0,-1,1189,512,0,0
-28,512,0,0,0,0,0,0,0,0,0,-1,1196,512,0,0
-21,512,0,0,0,0,0,0,0,0,0,-1,1203,512,0,0
-14,512,0,0,0,0,0,0,0,0,0,-1,1210,512,0,0
-7,512,0,0,0,0,0,0,0,0,0,-1,1217,512,0,0
0,512,0,0,0,0,0,0,0,0,0,-1,1224,512,0,0
7,512,0,0,0,0,0,0,0,0,0,-1,1231,512,0,0
14,512,0,0,0,0,0,0,0,0,0,-1,1238,512,0,0
21,512,0,0,0,0,0,0,0,0,0,-1,1245,512,0,0
28,512,0,0,0,0,0,0,0,0,0,-1,1252,512,0,0
35,512,0,0,0,0,0,0,0,0,0,-1,1259,512,0,0
42,512,0,0,0,0,0,0,0,0,0,-1,1266,512,0,0
49,512,0,0,0,0,0,0,0,0,0,-1,1273,512,0,0
56,512,0,0,0,0,0,0,0,0,0,-1,1280,512,0,0
63,512,0,0,0,0,0,0,0,0,0,-1,1287,512,0,0
70,512,0,0,0,0,0,0,0,0,0,-1,1294,512,0,0
77,512,0,0,0,0,0,0,0,0,0,-1,1301,512,0,0
84,512,0,0,0,0,0,0,0,0,0,-1,1308,512,0,0
91,512,0,0,0,0,0,0,0,0,0,-1,1315,512,0,0
98,512,0,0,0,0,0,0,0,0,0,-1,1322,512,0,0
105,512,0,0,0,0,0,0,0,0,0,-1,1329,512,0,0
112,512,0,0,0,0,0,0,0,0,0,-1,1336,512,0,0
119,512,0,0,0,0,0,0,0,0,0,-1,1343,512,0,0
126,512,0,0,0,0,0,0,0,0,0,-1,1350,512,0,0
133,512,0,0,0,0,0,0,0,0,0,-1,1357,512,0,0
140,512,0,0,0,0,0,0,0,0,0,-1,1364,512,0,0
147,512,0,0,0,0,0,0,0,0,0,-1,1371,512,0,0
154,512,0,0,0,0,0,0,0,0,0,-1,1378,512,0,0
161,512,0,0,0,0,0,0,0,0,0,-1,1385,512,0,0
168,512,0,0,0,0,0,0,0,0,0,-1,1392,512,0,0
175,512,0,0,0,0,0,0,0,0,0,-1,1399,512,0,0
182,512,0,0,0,0,0,0,0,0,0,-1,1406,512,0,0
189,512,0,0,0,0,0,0,0,0,0,-1,1413,512,0,0
196,512,0,0,0,0,0,0,0,0,0,-1,1420,512,0,0
203,512,0,0,0,0,0,0,0,0,0,-1,1427,512,0,0
210,512,0,0,0,0,0,0,0,0,0,-1,1434,512,0,0
217,512,0,0,0,0,0,0,0,0,0,-1,1441,512,0,0
224,512,0,0,0,0,0,0,0,0,0,-1,1448,512,0,0
231,512,0,0,0,0,0,0,0,0,0,-1,1455,512,0,0
238,512,0,0,0,0,0,0,0,0,0,-1,1462,512,0,0
245,512,0,0,0,0,0,0,0,0,0,-1,1469,512,0,0
252,512,0,0,0,0,0,0,0,0,0,-1,1476,512,0,0
259,512,0,0,0,0,0,0,0,0,0,-1,1483,512,0,0
266,512,0,0,0,0,0,0,0,0,0,-1,1490,512,0,0
273,512,4.00745,0.618622,0,0,0,0,0,0,0,-1,1497,512,4.00747,-0.618611
280,512,4.49609,0.649841,0,0,0,0,0,0,0,-1,1504,512,4.49612,-0.649834
287,512,4.77234,0.458069,0,0,0,0,0,0,0,-1,1511,512,4.77233,-0.458083
294,512,8.54956,-2.36273,0,0,0,0,0,0,0,-1,1518,512,8.54952,2.36274
301,512,6.302,-1.69092,0,0,0,0,0,0,0,-1,1525,512,6.30196,1.69093
308,512,8.2439,-6.22754,0,0,0,0,0,0,0,-1,1532,512,8.24394,6.22757
315,512,7.53687,-6.04211,0,0,0,0,0,0,0,-1,1539,512,7.53691,6.04211
322,512,6.82983,-5.85663,0,0,0,0,0,0,0,-1,1546,512,6.82988,5.85666
329,512,4.38147,-0.329651,0,0,0,0,0,0,0,-1,1553,512,4.38144,0.329662
336,512,4.41467,-0.741455,0,0,0,0,0,0,0,-1,1560,512,4.41467,0.741442
343,512,4.44727,-1.21667,0,0,0,0,0,0,0,-1,1567,512,4.44732,1.21666
350,512,4.55469,-1.65082,0,0,0,0,0,0,0,-1,1574,512,4.5547,1.65083
357,512,5.79993,-2.67456,0,0,0,0,0,0,0,-1,1581,512,5.79991,2.67454
364,512,13.118,-28.5485,0,0,0,0,0,0,0,-1,1588,512,13.1181,28.5485
371,512,5.28467,-7.69269,0,0,0,0,0,0,0,-1,1595,512,5.28464,7.69269
378,512,6.29407,-9.88055,0,0,0,0,0,0,0,-1,1602,512,6.29412,9.88057
385,512,6.45569,-9.32233,0,0,0,0,0,0,0,-1,1609,512,6.45565,9.3223
392,512,6.35522,-8.98425,0,0,0,0,0,0,0,-1,1616,512,6.35526,8.98422
399,512,7.5304,-12.1449,0,0,0,0,0,0,0,-1,1623,512,7.53042,12.1449
406,512,13.1705,-25.4799,0,0,0,0,0,0,0,-1,1630,512,13.1706,25.4799
413,512,13.17,-25.0544,0,0,0,0,0,0,0,-1,1637,512,13.1701,25.0545
420,512,13.2054,-24.3482,0.00251865,0.0019131,0.000108622,0.00253755,0.00189421,0.172226,0.00152323,0.0260257,1644,512,13.2055,24.3482
427,512,13.1908,-23.7448,0.002699,0.00218266,0.000318857,0.0028511,0.00203056,0.445095,0.00169478,0.0148871,1651,512,13.1908,23.7448
434,512,13.1508,-23.1718,0.00244616,0.00221852,0.00044889,0.00279544,0.00186924,0.661232,0.00164427,0.0114892,1658,512,13.1507,23.1718
441,512,13.1027,-22.5856,0.00206333,0.00212121,0.000652013,0.00274492,0.00143961,0.807578,0.00158541,0.0131924,1665,512,13.1026,22.5856
448,512,13.0803,-22.0111,0.00176609,0.00189778,0.000902442,0.00273678,0.000927094,0.821815,0.00160723,0.00947557,1672,512,13.0803,22.0111
455,512,13.0634,-21.4132,0.00136334,0.00184429,0.00111752,0.00274692,0.000460716,0.891375,0.00169866,0.00890545,1679,512,13.0633,21.4132
462,512,13.0468,-20.8193,0.00104212,0.00188097,0.00145929,0.00297991,-5.68219e-05,0.925336,0.00200582,0.00906549,1686,512,13.0468,20.8194
469,512,13.0339,-20.2213,0.000674618,0.0019221,0.00192078,0.00331788,-0.000721157,0.942394,0.0024874,0.0109354,1693,512,13.034,20.2213
476,512,13.0123,-19.6208,0.000168646,0.0020439,0.00252887,0.00380337,-0.00159083,0.962926,0.00320047,0.0144036,1700,512,13.0123,19.6208
483,512,13.0051,-19.0024,-0.000248851,0.00215001,0.00315164,0.00432274,-0.00242158,0.967222,0.00394507,0.0138191,1707,512,13.0051,19.0024
490,512,13.0078,-18.3943,-0.00075938,0.00222696,0.00386638,0.00487848,-0.0034109,0.969672,0.00481081,0.0108122,1714,512,13.0078,18.3944
497,512,12.9921,-17.7687,-0.00132022,0.00229995,0.00471719,0.00554242,-0.00456269,0.968595,0.00584332,0.0116125,1721,512,12.9921,17.7687
504,512,12.9353,-17.1164,-0.001988,0.00228238,0.00565154,0.00618862,-0.00589424,0.966013,0.00697673,0.0135345,1728,512,12.9353,17.1164
511,512,12.879,-16.4664,-0.00286203,0.00208041,0.00657566,0.00663388,-0.0074155,0.96514,0.0081156,0.0158393,1735,512,12.879,16.4665
518,512,12.8915,-15.8331,-0.00406821,0.00172844,0.00742206,0.006798,-0.00913777,0.971544,0.00923352,0.0197371,1742,512,12.8914,15.8331
525,512,12.6622,-15.1082,-0.00553133,0.00113136,0.0081059,0.00656377,-0.0109637,0.980365,0.0102252,0.0394521,1749,512,12.6622,15.1082
532,512,12.5566,-14.1776,0,0,0,0,0,0,0,-1,1756,512,12.5566,14.1776
539,512,7.05908,-7.00647,0,0,0,0,0,0,0,-1,1763,512,7.05909,7.00647
546,512,2.77551,-0.66449,0,0,0,0,0,0,0,-1,1770,512,2.77548,0.664503
553,512,3.927,-0.448853,0,0,0,0,0,0,0,-1,1777,512,3.92704,0.448843
560,512,3.55762,-0.201233,0,0,0,0,0,0,0,-1,1784,512,3.55768,0.201259
567,512,3.09045,0.191193,0,0,0,0,0,0,0,-1,1791,512,3.09045,-0.191203
574,512,0,0,0,0,0,0,0,0,0,-1,1798,512,0,0
581,512,0,0,0,0,0,0,0,0,0,-1,1805,512,0,0
588,512,0,0,0,0,0,0,0,0,0,-1,1812,512,0,0
595,512,0,0,0,0,0,0,0,0,0,-1,1819,512,0,0
602,512,0,0,0,0,0,0,0,0,0,-1,1826,512,0,0
609,512,0,0,0,0,0,0,0,0,0,-1,1833,512,0,0
616,512,0,0,0,0,0,0,0,0,0,-1,1840,512,0,0
623,512,0,0,0,0,0,0,0,0,0,-1,1847,512,0,0
630,512,0,0,0,0,0,0,0,0,0,-1,1854,512,0,0
637,512,0,0,0,0,0,0,0,0,0,-1,1861,512,0,0
644,512,0,0,0,0,0,0,0,0,0,-1,1868,512,0,0
651,512,0,0,0,0,0,0,0,0,0,-1,1875,512,0,0
658,512,0,0,0,0,0,0,0,0,0,-1,1882,512,0,0
665,512,0,0,0,0,0,0,0,0,0,-1,1889,512,0,0
672,512,0,0,0,0,0,0,0,0,0,-1,1896,512,0,0
679,512,0,0,0,0,0,0,0,0,0,-1,1903,512,0,0
686,512,0,0,0,0,0,0,0,0,0,-1,1910,512,0,0
693,512,0,0,0,0,0,0,0,0,0,-1,1917,512,0,0
700,512,0,0,0,0,0,0,0,0,0,-1,1924,512,0,0
707,512,0,0,0,0,0,0,0,0,0,-1,1931,512,0,0
714,512,0,0,0,0,0,0,0,0,0,-1,1938,512,0,0
721,512,0,0,0,0,0,0,0,0,0,-1,1945,512,0,0
728,512,0,0,0,0,0,0,0,0,0,-1,1952,512,0,0
735,512,0,0,0,0,0,0,0,0,0,-1,1959,512,0,0
742,512,0,0,0,0,0,0,0,0,0,-1,1966,512,0,0
749,512,0,0,0,0,0,0,0,0,0,-1,1973,512,0,0
756,512,0,0,0,0,0,0,0,0,0,-1,1980,512,0,0
763,512,0,0,0,0,0,0,0,0,0,-1,1987,512,0,0
770,512,0,0,0,0,0,0,0,0,0,-1,1994,512,0,0
777,512,0,0,0,0,0,0,0,0,0,-1,2001,512,0,0
784,512,0,0,0,0,0,0,0,0,0,-1,2008,512,0,0
791,512,0,0,0,0,0,0,0,0,0,-1,2015,512,0,0
798,512,0,0,0,0,0,0,0,0,0,-1,2022,512,0,0
805,512,0,0,0,0,0,0,0,0,0,-1,2029,512,0,0
812,512,0,0,0,0,0,0,0,0,0,-1,2036,512,0,0
-700,505,0,0,0,0,0,0,0,0,0,-1,524,519,0,0
-693,505,0,0,0,0,0,0,0,0,0,-1,531,519,0,0
-686,505,0,0,0,0,0,0,0,0,0,-1,538,519,0,0
-679,505,0,0,0,0,0,0,0,0,0,-1,545,519,0,0
-672,505,0,0,0,0,0,0,0,0,0,-1,552,519,0,0
-665,505,0,0,0,0,0,0,0,0,0,-1,559,519,0,0
-658,505,0,0,0,0,0,0,0,0,0,-1,566,519,0,0
-651,505,0,0,0,0,0,0,0,0,0,-1,573,519,0,0
-644,505,0,0,0,0,0,0,0,0,0,-1,580,519,0,0
-637,505,0,0,0,0,0,0,0,0,0,-1,587,519,0,0
-630,505,0,0,0,0,0,0,0,0,0,-1,594,519,0,0
-623,505,0,0,0,0,0,0,0,0,0,-1,601,519,0,0
-616,505,0,0,0,0,0,0,0,0,0,-1,608,519,0,0
-609,505,0,0,0,0,0,0,0,0,0,-1,615,519,0,0
-602,505,0,0,0,0,0,0,0,0,0,-1,622,519,0,0
-595,505,0,0,0,0,0,0,0,0,0,-1,629,519,0,0
-588,505,0,0,0,0,0,0,0,0,0,-1,636,519,0,0
-581,505,0,0,0,0,0,0,0,0,0,-1,643,519,0,0
-574,505,0,0,0,0,0,0,0,0,0,-1,650,519,0,0
-567,505,0,0,0,0,0,0,0,0,0,-1,657,519,0,0
-560,505,0,0,0,0,0,0,0,0,0,-1,664,519,0,0
-553,505,0,0,0,0,0,0,0,0,0,-1,671,519,0,0
-546,505,0,0,0,0,0,0,0,0,0,-1,678,519,0,0
-539,505,0,0,0,0,0,0,0,0,0,-1,685,519,0,0
-532,505,0,0,0,0,0,0,0,0,0,-1,692,519,0,0
-525,505,0,0,0,0,0,0,0,0,0,-1,699,519,0,0
-518,505,0,0,0,0,0,0,0,0,0,-1,706,519,0,0
-511,505,0,0,0,0,0,0,0,0,0,-1,713,519,0,0
-504,505,0,0,0,0,0,0,0,0,0,-1,720,519,0,0
-497,505,0,0,0,0,0,0,0,0,0,-1,727,519,0,0
-490,505,0,0,0,0,0,0,0,0,0,-1,734,519,0,0
-483,505,0,0,0,0,0,0,0,0,0,-1,741,519,0,0
-476,505,0,0,0,0,0,0,0,0,0,-1,748,519,0,0
-469,505,0,0,0,0,0,0,0,0,0,-1,755,519,0,0
-462,505,0,0,0,0,0,0,0,0,0,-1,762,519,0,0
-455,505,2.72137,-3.26379,0,0,0,0,0,0,0,-1,769,519,2.72135,3.26377
-448,505,2.51111,-3.94989,0,0,0,0,0,0,0,-1,776,519,2.51112,3.94986
-441,505,2.80212,-6.8902,0,0,0,0,0,0,0,-1,783,519,2.80209,6.89019
-434,505,-0.155212,-10.6374,0,0,0,0,0,0,0,-1,790,519,-0.155194,10.6374
-427,505,-0.474426,-10.4702,0,0,0,0,0,0,0,-1,797,519,-0.474433,10.4702
-420,505,-0.922546,-10.1928,0,0,0,0,0,0,0,-1,804,519,-0.92257,10.1928
-413,505,-3.33948,-13.6183,0,0,0,0,0,0,0,-1,811,519,-3.33949,13.6184
-406,505,-2.67914,-14.764,0,0,0,0,0,0,0,-1,818,519,-2.67914,14.764
-399,505,-2.52728,-16.3365,0,0,0,0,0,0,0,-1,825,519,-2.52731,16.3365
-392,505,-2.50433,-17.0656,0.00273902,0.0241158,-0.0121647,0.0296207,-0.00276587,-1.14584,0.0207307,0.0244469,832,519,-2.5043,17.0656
-385,505,-2.51392,-17.7561,0.00207344,0.0195643,-0.00998758,0.0240942,-0.00245646,-1.14499,0.0169411,0.0100987,839,519,-2.51391,17.7561
-378,505,-2.55786,-18.3776,0.00164554,0.0156384,-0.00813113,0.0193689,-0.00208487,-1.14066,0.0136607,0.0112292,846,519,-2.55787,18.3776
-371,505,-2.56439,-19.0126,0.00135835,0.0121883,-0.00656112,0.0152804,-0.00173375,-1.13039,0.0108113,0.0143208,853,519,-2.56441,19.0127
-364,505,-2.58539,-19.6277,0.00117685,0.00906072,-0.00507755,0.0115469,-0.00130931,-1.11547,0.00816941,0.0148336,860,519,-2.58539,19.6277
-357,505,-2.58441,-20.2116,0.00112983,0.00648797,-0.00380009,0.00845842,-0.000840621,-1.09244,0.00593902,0.0117757,867,519,-2.58444,20.2116
-350,505,-2.60699,-20.7858,0.00111288,0.00409442,-0.00263177,0.00562831,-0.000421017,-1.04309,0.00390013,0.0115085,874,519,-2.60702,20.7857
-343,505,-2.63654,-21.364,0.00121375,0.00230091,-0.00176409,0.00360327,-8.8611e-05,-0.93485,0.00243226,0.00963206,881,519,-2.63656,21.364
-336,505,-2.68597,-21.924,0.00142013,0.000826218,-0.00103283,0.00219785,4.85003e-05,-0.645416,0.00144933,0.0122095,888,519,-2.68597,21.924
-329,505,-2.67236,-22.4778,0.00178115,-0.000410715,-0.00047259,0.0018787,-0.000508269,-0.203565,0.00145186,0.0175909,895,519,-2.67238,22.4779
-322,505,-2.67218,-23.0683,0.00218434,-0.00124929,-3.87625e-05,0.00218478,-0.00124973,-0.0112872,0.00200726,0.0201919,902,519,-2.67218,23.0683
-315,505,-2.70819,-23.6262,0.00263627,-0.00186862,0.000305708,0.00265693,-0.00188927,0.0674492,0.00263719,0.0145138,909,519,-2.70816,23.6262
-308,505,-2.74072,-24.1439,0.00325296,-0.00237983,0.000501472,0.00329726,-0.00242412,0.088104,0.00331604,0.0115904,916,519,-2.7407,24.1438
-301,505,-2.73621,-24.7172,0.00392387,-0.00267364,0.000702914,0.00399793,-0.0027477,0.104972,0.00391683,0.0175049,923,519,-2.73621,24.7172
-294,505,-2.71582,-25.1984,0,0,0,0,0,0,0,-1,930,519,-2.7158,25.1985
-287,505,-2.81421,-25.7839,0,0,0,0,0,0,0,-1,937,519,-2.8142,25.784
-280,505,-2.61859,-26.5393,0,0,0,0,0,0,0,-1,944,519,-2.6186,26.5393
-273,505,-0.0680542,-9.44867,0,0,0,0,0,0,0,-1,951,519,-0.0680462,9.44866
-266,505,-0.036377,-9.07922,0,0,0,0,0,0,0,-1,958,519,-0.0364055,9.0792
-259,505,0.10321,-6.69824,0,0,0,0,0,0,0,-1,965,519,0.103235,6.69826
-252,505,6.82312,-15.6972,0,0,0,0,0,0,0,-1,972,519,6.82314,15.6972
-245,505,4.26727,-12.9861,0,0,0,0,0,0,0,-1,979,519,4.2673,12.9861
-238,505,1.67432,-11.2307,0,0,0,0,0,0,0,-1,986,519,1.67429,11.2307
-231,505,-0.958435,-8.3075,0,0,0,0,0,0,0,-1,993,519,-0.958421,8.30751
-224,505,-3.69653,-5.12732,0,0,0,0,0,0,0,-1,1000,519,-3.69653,5.12733
-217,505,-6.34302,-1.65533,0,0,0,0,0,0,0,-1,1007,519,-6.34299,1.65535
-210,505,-3.06128,-0.396301,0,0,0,0,0,0,0,-1,1014,519,-3.06129,0.396294
-203,505,-4.26465,2.03607,0,0,0,0,0,0,0,-1,1021,519,-4.26462,-2.03606
-196,505,-5.47595,4.27295,0,0,0,0,0,0,0,-1,1028,519,-5.47597,-4.27292
-189,505,1.51526,5.56207,0,0,0,0,0,0,0,-1,1035,519,1.51523,-5.56209
-182,505,2.97815,7.5097,0,0,0,0,0,0,0,-1,1042,519,2.97812,-7.5097
-175,505,-2.38416,-2.17548,0,0,0,0,0,0,0,-1,1049,519,-2.38411,2.1755
-168,505,0,0,0,0,0,0,0,0,0,-1,1056,519,0,0
-161,505,0,0,0,0,0,0,0,0,0,-1,1063,519,0,0
-154,505,0,0,0,0,0,0,0,0,0,-1,1070,519,0,0
-147,505,0,0,0,0,0,0,0,0,0,-1,1077,519,0,0
-140,505,0,0,0,0,0,0,0,0,0,-1,1084,519,0,0
-133,505,0,0,0,0,0,0,0,0,0,-1,1091,519,0,0
-126,505,0,0,0,0,0,0,0,0,0,-1,1098,519,0,0
-119,505,0,0,0,0,0,0,0,0,0,-1,1105,519,0,0
-112,505,0,0,0,0,0,0,0,0,0,-1,1112,519,0,0
-105,505,0,0,0,0,0,0,0,0,0,-1,1119,519,0,0
-98,505,0,0,0,0,0,0,0,0,0,-1,1126,519,0,0
-91,505,0,0,0,0,0,0,0,0,0,-1,1133,519,0,0
-84,505,0,0,0,0,0,0,0,0,0,-1,1140,519,0,0
-77,505,0,0,0,0,0,0,0,0,0,-1,1147,519,0,0
-70,505,0,0,0,0,0,0,0,0,0,-1,1154,519,0,0
-63,505,0,0,0,0,0,0,0,0,0,-1,1161,519,0,0
-56,505,0,0,0,0,0,0,0,0,0,-1,1168,519,0,0
-49,505,0,0,0,0,0,0,0,0,0,-1,1175,519,0,0
-42,505,0,0,0,0,0,0,0,0,0,-1,1182,519,0,0
-35,505,0,0,0,0,0,0,0,0,0,-1,1189,519,0,0
-28,505,0,0,0,0,0,0,0,0,0,-1,1196,519,0,0
-21,505,0,0,0,0,0,0,0,0,0,-1,1203,519,0,0
-14,505,0,0,0,0,0,0,0,0,0,-1,1210,519,0,0
-7,505,0,0,0,0,0,0,0,0,0,-1,1217,519,0,0
0,505,0,0,0,0,0,0,0,0,0,-1,1224,519,0,0
7,505,0,0,0,0,0,0,0,0,0,-1,1231,519,0,0
14,505,0,0,0,0,0,0,0,0,0,-1,1238,519,0,0
21,505,0,0,0,0,0,0,0,0,0,-1,1245,519,0,0
28,505,0,0,0,0,0,0,0,0,0,-1,1252,519,0,0
35,505,0,0,0,0,0,0,0,0,0,-1,1259,519,0,0
42,505,0,0,0,0,0,0,0,0,0,-1,1266,519,0,0
49,505,0,0,0,0,0,0,0,0,0,-1,1273,519,0,0
56,505,0,0,0,0,0,0,0,0,0,-1,1280,519,0,0
63,505,0,0,0,0,0,0,0,0,0,-1,1287,519,0,0
70,505,0,0,0,0,0,0,0,0,0,-1,1294,519,0,0
77,505,0,0,0,0,0,0,0,0,0,-1,1301,519,0,0
84,505,0,0,0,0,0,0,0,0,0,-1,1308,519,0,0
91,505,0,0,0,0,0,0,0,0,0,-1,1315,519,0,0
98,505,0,0,0,0,0,0,0,0,0,-1,1322,519,0,0
105,505,0,0,0,0,0,0,0,0,0,-1,1329,519,0,0
112,505,0,0,0,0,0,0,0,0,0,-1,1336,519,0,0
119,505,0,0,0,0,0,0,0,0,0,-1,1343,519,0,0
126,505,0,0,0,0,0,0,0,0,0,-1,1350,519,0,0
133,505,0,0,0,0,0,0,0,0,0,-1,1357,519,0,0
140,505,0,0,0,0,0,0,0,0,0,-1,1364,519,0,0
147,505,0,0,0,0,0,0,0,0,0,-1,1371,519,0,0
154,505,0,0,0,0,0,0,0,0,0,-1,1378,519,0,0
161,505,0,0,0,0,0,0,0,0,0,-1,1385,519,0,0
168,505,0,0,0,0,0,0,0,0,0,-1,1392,519,0,0
175,505,0,0,0,0,0,0,0,0,0,-1,1399,519,0,0
182,505,0,0,0,0,0,0,0,0,0,-1,1406,519,0,0
189,505,0,0,0,0,0,0,0,0,0,-1,1413,519,0,0
196,505,0,0,0,0,0,0,0,0,0,-1,1420,519,0,0
203,505,0,0,0,0,0,0,0,0,0,-1,1427,519,0,0
210,505,0,0,0,0,0,0,0,0,0,-1,1434,519,0,0
217,505,0,0,0,0,0,0,0,0,0,-1,1441,519,0,0
224,505,0,0,0,0,0,0,0,0,0,-1,1448,519,0,0
231,505,0,0,0,0,0,0,0,0,0,-1,1455,519,0,0
238,505,0,0,0,0,0,0,0,0,0,-1,1462,519,0,0
245,505,0,0,0,0,0,0,0,0,0,-1,1469,519,0,0
252,505,0,0,0,0,0,0,0,0,0,-1,1476,519,0,0
259,505,0,0,0,0,0,0,0,0,0,-1,1483,519,0,0
266,505,0,0,0,0,0,0,0,0,0,-1,1490,519,0,0
273,505,0,0,0,0,0,0,0,0,0,-1,1497,519,0,0
280,505,0,0,0,0,0,0,0,0,0,-1,1504,519,0,0
287,505,4.39478,0.499512,0,0,0,0,0,0,0,-1,1511,519,4.39476,-0.499506
294,505,4.88867,0.0822754,0,0,0,0,0,0,0,-1,1518,519,4.88871,-0.0822748
301,505,4.82153,-0.0704346,0,0,0,0,0,0,0,-1,1525,519,4.82156,0.0704312
308,505,4.67761,-0.29187,0,0,0,0,0,0,0,-1,1532,519,4.67762,0.291845
315,505,8.44055,-6.54352,0,0,0,0,0,0,0,-1,1539,519,8.44059,6.54349
322,505,4.78955,-0.594116,0,0,0,0,0,0,0,-1,1546,519,4.78957,0.594096
329,505,5.16321,0.434631,0,0,0,0,0,0,0,-1,1553,519,5.16316,-0.434614
336,505,4.94495,-0.920471,0,0,0,0,0,0,0,-1,1560,519,4.945,0.920495
343,505,5.01855,-1.4823,0,0,0,0,0,0,0,-1,1567,519,5.01851,1.48227
350,505,5.33154,-1.77838,0,0,0,0,0,0,0,-1,1574,519,5.33152,1.77838
357,505,5.56567,-1.9425,0,0,0,0,0,0,0,-1,1581,519,5.56562,1.94248
364,505,5.85205,-2.6579,0,0,0,0,0,0,0,-1,1588,519,5.85211,2.65788
371,505,5.88477,-7.00922,0,0,0,0,0,0,0,-1,1595,519,5.88473,7.00924
378,505,5.44104,-7.10162,0,0,0,0,0,0,0,-1,1602,519,5.44099,7.10162
385,505,6.64661,-8.65015,0,0,0,0,0,0,0,-1,1609,519,6.64662,8.65014
392,505,6.34558,-8.3429,0,0,0,0,0,0,0,-1,1616,519,6.34554,8.34288
399,505,7.45898,-9.70386,0,0,0,0,0,0,0,-1,1623,519,7.45899,9.70388
406,505,7.08679,-9.4928,0,0,0,0,0,0,0,-1,1630,519,7.08678,9.49278
413,505,8.4032,-14.0308,0,0,0,0,0,0,0,-1,1637,519,8.4032,14.0308
420,505,13.7467,-24.5267,0,0,0,0,0,0,0,-1,1644,519,13.7467,24.5267
427,505,13.7605,-23.843,0.00318881,0.00241187,0.000518176,0.00344797,0.00215272,0.463745,0.0020111,0.0318479,1651,519,13.7605,23.843
434,505,13.7157,-23.1804,0.00263532,0.00228952,0.000489751,0.00298179,0.00194304,0.61571,0.00174773,0.0127703,1658,519,13.7157,23.1803
441,505,13.7053,-22.543,0.0022105,0.00215239,0.000522861,0.00270511,0.00165778,0.757646,0.001575,0.0106752,1665,519,13.7053,22.543
448,505,13.6909,-21.9683,0.00201278,0.00172831,0.00062185,0.00250846,0.00123264,0.672969,0.00144833,0.0103848,1672,519,13.691,21.9683
455,505,13.6744,-21.3816,0.00169336,0.00165429,0.000680699,0.0023548,0.000992844,0.771051,0.0013651,0.0109763,1679,519,13.6744,21.3816
462,505,13.6495,-20.7831,0.00143293,0.00169667,0.000838231,0.00241334,0.000716259,0.863417,0.00143118,0.0108088,1686,519,13.6496,20.7832
469,505,13.6216,-20.1952,0.00125614,0.00176982,0.00119024,0.00273061,0.000295342,0.891662,0.00173038,0.0117023,1693,519,13.6216,20.1952
476,505,13.6013,-19.616,0.000974515,0.0019079,0.00167338,0.00317845,-0.000296033,0.921389,0.00222422,0.0120575,1700,519,13.6013,19.616
483,505,13.6002,-19.0176,0.000728538,0.00203222,0.00218878,0.00366416,-0.000903404,0.930121,0.00279304,0.0126552,1707,519,13.6003,19.0177
490,505,13.5896,-18.3925,0.000331532,0.00215554,0.00275762,0.00414805,-0.00166098,0.945098,0.00345479,0.0118755,1714,519,13.5896,18.3925
497,505,13.5748,-17.7646,-0.000160968,0.00225741,0.0034568,0.00471041,-0.00261396,0.953647,0.00428608,0.0117565,1721,519,13.5748,17.7647
504,505,13.5354,-17.1204,-0.00078901,0.00225428,0.00421795,0.00521666,-0.00375139,0.95851,0.00520069,0.0130152,1728,519,13.5354,17.1204
511,505,13.4937,-16.4872,-0.00164577,0.00211942,0.00494703,0.00552996,-0.00505631,0.967212,0.00611402,0.0149032,1735,519,13.4937,16.4872
518,505,13.5151,-15.8447,-0.0028428,0.00187154,0.0055526,0.00554659,-0.00651785,0.986128,0.00697293,0.0218457,1742,519,13.5152,15.8446
525,505,13.3048,-15.1536,-0.00434794,0.00141624,0.00598129,0.0051736,-0.0081053,1.00991,0.00772861,0.0321893,1749,519,13.3048,15.1537
532,505,13.2012,-14.2058,0,0,0,0,0,0,0,-1,1756,519,13.2012,14.2058
539,505,7.90369,-7.11932,0,0,0,0,0,0,0,-1,1763,519,7.90373,7.11932
546,505,7.94946,-6.64539,0,0,0,0,0,0,0,-1,1770,519,7.94947,6.64539
553,505,2.82837,0.162659,0,0,0,0,0,0,0,-1,1777,519,2.82841,-0.162672
560,505,3.66223,-0.479797,0,0,0,0,0,0,0,-1,1784,519,3.66219,0.47982
567,505,4.65271,-0.950256,0,0,0,0,0,0,0,-1,1791,519,4.65274,0.95028
574,505,5.54443,-1.19977,0,0,0,0,0,0,0,-1,1798,519,5.54443,1.19974
581,505,0,0,0,0,0,0,0,0,0,-1,1805,519,0,0
588,505,0,0,0,0,0,0,0,0,0,-1,1812,519,0,0
595,505,0,0,0,0,0,0,0,0,0,-1,1819,519,0,0
602,505,0,0,0,0,0,0,0,0,0,-1,1826,519,0,0
609,505,0,0,0,0,0,0,0,0,0,-1,1833,519,0,0
616,505,0,0,0,0,0,0,0,0,0,-1,1840,519,0,0
623,505,0,0,0,0,0,0,0,0,0,-1,1847,519,0,0
630,505,0,0,0,0,0,0,0,0,0,-1,1854,519,0,0
637,505,0,0,0,0,0,0,0,0,0,-1,1861,519,0,0
644,505,0,0,0,0,0,0,0,0,0,-1,1868,519,0,0
651,505,0,0,0,0,0,0,0,0,0,-1,1875,519,0,0
658,505,0,0,0,0,0,0,0,0,0,-1,1882,519,0,0
665,505,0,0,0,0,0,0,0,0,0,-1,1889,519,0,0
672,505,0,0,0,0,0,0,0,0,0,-1,1896,519,0,0
679,505,0,0,0,0,0,0,0,0,0,-1,1903,519,0,0
686,505,0,0,0,0,0,0,0,0,0,-1,1910,519,0,0
693,505,0,0,0,0,0,0,0,0,0,-1,1917,519,0,0
700,505,0,0,0,0,0,0,0,0,0,-1,1924,519,0,0
707,505,0,0,0,0,0,0,0,0,0,-1,1931,519,0,0
714,505,0,0,0,0,0,0,0,0,0,-1,1938,519,0,0
721,505,0,0,0,0,0,0,0,0,0,-1,1945,519,0,0
728,505,0,0,0,0,0,0,0,0,0,-1,1952,519,0,0
735,505,0,0,0,0,0,0,0,0,0,-1,1959,519,0,0
742,505,0,0,0,0,0,0,0,0,0,-1,1966,519,0,0
749,505,0,0,0,0,0,0,0,0,0,-1,1973,519,0,0
756,505,0,0,0,0,0,0,0,0,0,-1,1980,519,0,0
763,505,0,0,0,0,0,0,0,0,0,-1,1987,519,0,0
770,505,0,0,0,0,0,0,0,0,0,-1,1994,519,0,0
777,505,0,0,0,0,0,0,0,0,0,-1,2001,519,0,0
784,505,0,0,0,0,0,0,0,0,0,-1,2008,519,0,0
791,505,0,0,0,0,0,0,0,0,0,-1,2015,519,0,0
798,505,0,0,0,0,0,0,0,0,0,-1,2022,519,0,0
805,505,0,0,0,0,0,0,0,0,0,-1,2029,519,0,0
812,505,0,0,0,0,0,0,0,0,0,-1,2036,519,0,0
-700,498,0,0,0,0,0,0,0,0,0,-1,524,526,0,0
-693,498,0,0,0,0,0,0,0,0,0,-1,531,526,0,0
-686,498,0,0,0,0,0,0,0,0,0,-1,538,526,0,0
-679,498,0,0,0,0,0,0,0,0,0,-1,545,526,0,0
-672,498,0,0,0,0,0,0,0,0,0,-1,552,526,0,0
-665,498,0,0,0,0,0,0,0,0,0,-1,559,526,0,0
-658,498,0,0,0,0,0,0,0,0,0,-1,566,526,0,0
-651,498,0,0,0,0,0,0,0,0,0,-1,573,526,0,0
-644,498,0,0,0,0,0,0,0,0,0,-1,580,526,0,0
-637,498,0,0,0,0,0,0,0,0,0,-1,587,526,0,0
-630,498,0,0,0,0,0,0,0,0,0,-1,594,526,0,0
-623,498,0,0,0,0,0,0,0,0,0,-1,601,526,0,0
-616,498,0,0,0,0,0,0,0,0,0,-1,608,526,0,0
-609,498,0,0,0,0,0,0,0,0,0,-1,615,526,0,0
-602,498,0,0,0,0,0,0,0,0,0,-1,622,526,0,0
-595,498,0,0,0,0,0,0,0,0,0,-1,629,526,0,0
-588,498,0,0,0,0,0,0,0,0,0,-1,636,526,0,0
-581,498,0,0,0,0,0,0,0,0,0,-1,643,526,0,0
-574,498,0,0,0,0,0,0,0,0,0,-1,650,526,0,0
-567,498,0,0,0,0,0,0,0,0,0,-1,657,526,0,0
-560,498,0,0,0,0,0,0,0,0,0,-1,664,526,0,0
-553,498,0,0,0,0,0,0,0,0,0,-1,671,526,0,0
-546,498,0,0,0,0,0,0,0,0,0,-1,678,526,0,0
-539,498,0,0,0,0,0,0,0,0,0,-1,685,526,0,0
-532,498,0,0,0,0,0,0,0,0,0,-1,692,526,0,0
-525,498,0,0,0,0,0,0,0,0,0,-1,699,526,0,0
-518,498,0,0,0,0,0,0,0,0,0,-1,706,526,0,0
-511,498,0,0,0,0,0,0,0,0,0,-1,713,526,0,0
-504,498,0,0,0,0,0,0,0,0,0,-1,720,526,0,0
-497,498,0,0,0,0,0,0,0,0,0,-1,727,526,0,0
-490,498,0,0,0,0,0,0,0,0,0,-1,734,526,0,0
-483,498,0,0,0,0,0,0,0,0,0,-1,741,526,0,0
-476,498,0,0,0,0,0,0,0,0,0,-1,748,526,0,0
-469,498,0,0,0,0,0,0,0,0,0,-1,755,526,0,0
-462,498,6.81024,1.15515,0,0,0,0,0,0,0,-1,762,526,6.81026,-1.15514
-455,498,3.25757,-3.0592,0,0,0,0,0,0,0,-1,769,526,3.25754,3.05921
-448,498,3.05939,-3.74298,0,0,0,0,0,0,0,-1,776,526,3.05939,3.74296
-441,498,2.77191,-6.08209,0,0,0,0,0,0,0,-1,783,526,2.77189,6.08207
-434,498,2.10681,-6.95929,0,0,0,0,0,0,0,-1,790,526,2.10682,6.9593
-427,498,-0.368042,-10.7726,0,0,0,0,0,0,0,-1,797,526,-0.36807,10.7726
-420,498,-1.05035,-10.5142,0,0,0,0,0,0,0,-1,804,526,-1.05034,10.5142
-413,498,-3.34375,-14.2648,0,0,0,0,0,0,0,-1,811,526,-3.34374,14.2648
-406,498,-3.17963,-15.2616,0.00366947,0.0269252,-0.0132445,0.0329219,-0.00232719,-1.14564,0.0227633,0.0499425,818,526,-3.17962,15.2616
-399,498,-3.02332,-16.3685,0.00284779,0.0225305,-0.0112696,0.027651,-0.00227267,-1.14432,0.0192363,0.0278187,825,526,-3.02329,16.3685
-392,498,-3.0838,-17.1267,0.00221061,0.0185559,-0.00945546,0.0228811,-0.00211466,-1.14178,0.0160056,0.0134068,832,526,-3.08383,17.1267
-385,498,-3.09991,-17.7542,0.00182993,0.0149372,-0.00776526,0.0185447,-0.00177761,-1.13589,0.0129963,0.00906448,839,526,-3.09993,17.7542
-378,498,-3.10559,-18.3586,0.00161249,0.0117311,-0.0062791,0.0147355,-0.00139193,-1.12451,0.010319,0.0101192,846,526,-3.10556,18.3586
-371,498,-3.13074,-18.9705,0.0014861,0.00883789,-0.00500308,0.0113703,-0.00104631,-1.10223,0.00795195,0.0165451,853,526,-3.13075,18.9705
-364,498,-3.16327,-19.5927,0.00144138,0.00615326,-0.00376687,0.00824027,-0.000645628,-1.06485,0.00572088,0.016638,860,526,-3.16329,19.5926
-357,498,-3.15887,-20.1915,0.00151982,0.00395828,-0.00269765,0.00569943,-0.000221328,-0.997639,0.00387551,0.0110634,867,526,-3.15886,20.1915
-350,498,-3.18958,-20.7521,0.00164172,0.00195963,-0.00175363,0.0035615,3.98519e-05,-0.830597,0.00236116,0.0115235,874,526,-3.18956,20.7521
-343,498,-3.19861,-21.3098,0.00182954,0.000423135,-0.00103801,0.00238012,-0.000127443,-0.487682,0.00163089,0.0113748,881,526,-3.19859,21.3098
-336,498,-3.22955,-21.8693,0.00210856,-0.000879997,-0.00041473,0.00216505,-0.000936483,-0.135366,0.0018369,0.014614,888,526,-3.22957,21.8693
-329,498,-3.2326,-22.4391,0.00256562,-0.00178927,-6.45779e-06,0.00256563,-0.00178928,-0.00148288,0.00252759,0.0223132,895,526,-3.23262,22.4391
-322,498,-3.24384,-23.0449,0.00305131,-0.00241271,0.000315294,0.00306945,-0.00243085,0.0574494,0.00318272,0.0239309,902,526,-3.24385,23.0449
-315,498,-3.27002,-23.6135,0.00353641,-0.0028162,0.000582354,0.00358935,-0.00286914,0.0906647,0.00373653,0.0173261,909,526,-3.27003,23.6135
-308,498,-3.29077,-24.1321,0.00425737,-0.00317005,0.000660317,0.00431562,-0.00322829,0.0879832,0.00437053,0.0196389,916,526,-3.29077,24.1321
-301,498,-3.22504,-24.7325,0.00505783,-0.00325485,0.000822487,0.00513843,-0.00333545,0.0976816,0.00492917,0.0404791,923,526,-3.22504,24.7325
-294,498,-3.16107,-25.3342,0,0,0,0,0,0,0,-1,930,526,-3.16104,25.3342
-287,498,-0.91394,-13.4327,0,0,0,0,0,0,0,-1,937,526,-0.913935,13.4327
-280,498,-0.341614,-8.66608,0,0,0,0,0,0,0,-1,944,526,-0.341589,8.66606
-273,498,-0.988892,-8.62921,0,0,0,0,0,0,0,-1,951,526,-0.988906,8.62922
-266,498,0.362488,-6.33545,0,0,0,0,0,0,0,-1,958,526,0.362478,6.33547
-259,498,10.9454,-17.3615,0,0,0,0,0,0,0,-1,965,526,10.9454,17.3614
-252,498,8.56586,-14.6886,0,0,0,0,0,0,0,-1,972,526,8.56584,14.6886
-245,498,5.97382,-11.928,0,0,0,0,0,0,0,-1,979,526,5.97381,11.928
-238,498,2.24841,-13.8145,0,0,0,0,0,0,0,-1,986,526,2.24838,13.8145
-231,498,0.665894,-10.4898,0,0,0,0,0,0,0,-1,993,526,0.665863,10.4898
-224,498,-2.11243,-4.76312,0,0,0,0,0,0,0,-1,1000,526,-2.11245,4.76314
-217,498,-3.82239,-1.42841,0,0,0,0,0,0,0,-1,1007,526,-3.82241,1.42843
-210,498,-1.80591,-0.358215,0,0,0,0,0,0,0,-1,1014,526,-1.8059,0.3582
-203,498,-3.17316,1.06641,0,0,0,0,0,0,0,-1,1021,526,-3.17313,-1.0664
-196,498,-0.103271,5.40527,0,0,0,0,0,0,0,-1,1028,526,-0.103285,-5.40528
-189,498,3.00256,6.47137,0,0,0,0,0,0,0,-1,1035,526,3.00256,-6.47139
-182,498,0,0,0,0,0,0,0,0,0,-1,1042,526,0,0
-175,498,0,0,0,0,0,0,0,0,0,-1,1049,526,0,0
-168,498,0,0,0,0,0,0,0,0,0,-1,1056,526,0,0
-161,498,0,0,0,0,0,0,0,0,0,-1,1063,526,0,0
-154,498,0,0,0,0,0,0,0,0,0,-1,1070,526,0,0
-147,498,0,0,0,0,0,0,0,0,0,-1,1077,526,0,0
-140,498,0,0,0,0,0,0,0,0,0,-1,1084,526,0,0
-133,498,0,0,0,0,0,0,0,0,0,-1,1091,526,0,0
-126,498,0,0,0,0,0,0,0,0,0,-1,1098,526,0,0
-119,498,0,0,0,0,0,0,0,0,0,-1,1105,526,0,0
-112,498,0,0,0,0,0,0,0,0,0,-1,1112,526,0,0
-105,498,0,0,0,0,0,0,0,0,0,-1,1119,526,0,0
-98,498,0,0,0,0,0,0,0,0,0,-1,1126,526,0,0
-91,498,0,0,0,0,0,0,0,0,0,-1,1133,526,0,0
-84,498,0,0,0,0,0,0,0,0,0,-1,1140,526,0,0
-77,498,0,0,0,0,0,0,0,0,0,-1,1147,526,0,0
-70,498,0,0,0,0,0,0,0,0,0,-1,1154,526,0,0
-63,498,0,0,0,0,0,0,0,0,0,-1,1161,526,0,0
-56,498,0,0,0,0,0,0,0,0,0,-1,1168,526,0,0
-49,498,0,0,0,0,0,0,0,0,0,-1,1175,526,0,0
-42,498,0,0,0,0,0,0,0,0,0,-1,1182,526,0,0
-35,498,0,0,0,0,0,0,0,0,0,-1,1189,526,0,0
-28,498,0,0,0,0,0,0,0,0,0,-1,1196,526,0,0
-21,498,0,0,0,0,0,0,0,0,0,-1,1203,526,0,0
-14,498,0,0,0,0,0,0,0,0,0,-1,1210,526,0,0
-7,498,0,0,0,0,0,0,0,0,0,-1,1217,526,0,0
0,498,0,0,0,0,0,0,0,0,0,-1,1224,526,0,0
7,498,0,0,0,0,0,0,0,0,0,-1,1231,526,0,0
14,498,0,0,0,0,0,0,0,0,0,-1,1238,526,0,0
21,498,0,0,0,0,0,0,0,0,0,-1,1245,526,0,0
28,498,0,0,0,0,0,0,0,0,0,-1,1252,526,0,0
35,498,0,0,0,0,0,0,0,0,0,-1,1259,526,0,0
42,498,0,0,0,0,0,0,0,0,0,-1,1266,526,0,0
49,498,0,0,0,0,0,0,0,0,0,-1,1273,526,0,0
56,498,0,0,0,0,0,0,0,0,0,-1,1280,526,0,0
63,498,0,0,0,0,0,0,0,0,0,-1,1287,526,0,0
70,498,0,0,0,0,0,0,0,0,0,-1,1294,526,0,0
77,498,0,0,0,0,0,0,0,0,0,-1,1301,526,0,0
84,498,0,0,0,0,0,0,0,0,0,-1,1308,526,0,0
91,498,0,0,0,0,0,0,0,0,0,-1,1315,526,0,0
98,498,0,0,0,0,0,0,0,0,0,-1,1322,526,0,0
105,498,0,0,0,0,0,0,0,0,0,-1,1329,526,0,0
112,498,0,0,0,0,0,0,0,0,0,-1,1336,526,0,0
119,498,0,0,0,0,0,0,0,0,0,-1,1343,526,0,0
126,498,0,0,0,0,0,0,0,0,0,-1,1350,526,0,0
133,498,0,0,0,0,0,0,0,0,0,-1,1357,526,0,0
140,498,0,0,0,0,0,0,0,0,0,-1,1364,526,0,0
147,498,0,0,0,0,0,0,0,0,0,-1,1371,526,0,0
154,498,0,0,0,0,0,0,0,0,0,-1,1378,526,0,0
161,498,0,0,0,0,0,0,0,0,0,-1,1385,526,0,0
168,498,0,0,0,0,0,0,0,0,0,-1,1392,526,0,0
175,498,0,0,0,0,0,0,0,0,0,-1,1399,526,0,0
182,498,0,0,0,0,0,0,0,0,0,-1,1406,526,0,0
189,498,0,0,0,0,0,0,0,0,0,-1,1413,526,0,0
196,498,0,0,0,0,0,0,0,0,0,-1,1420,526,0,0
203,498,0,0,0,0,0,0,0,0,0,-1,1427,526,0,0
210,498,0,0,0,0,0,0,0,0,0,-1,1434,526,0,0
217,498,0,0,0,0,0,0,0,0,0,-1,1441,526,0,0
224,498,0,0,0,0,0,0,0,0,0,-1,1448,526,0,0
231,498,0,0,0,0,0,0,0,0,0,-1,1455,526,0,0
238,498,0,0,0,0,0,0,0,0,0,-1,1462,526,0,0
245,498,0,0,0,0,0,0,0,0,0,-1,1469,526,0,0
252,498,0,0,0,0,0,0,0,0,0,-1,1476,526,0,0
259,498,0,0,0,0,0,0,0,0,0,-1,1483,526,0,0
266,498,0,0,0,0,0,0,0,0,0,-1,1490,526,0,0
273,498,0,0,0,0,0,0,0,0,0,-1,1497,526,0,0
280,498,0,0,0,0,0,0,0,0,0,-1,1504,526,0,0
287,498,0,0,0,0,0,0,0,0,0,-1,1511,526,0,0
294,498,0,0,0,0,0,0,0,0,0,-1,1518,526,0,0
301,498,0,0,0,0,0,0,0,0,0,-1,1525,526,0,0
308,498,4.77942,-0.293884,0,0,0,0,0,0,0,-1,1532,526,4.77939,0.293899
315,498,4.56091,-0.564148,0,0,0,0,0,0,0,-1,1539,526,4.56097,0.564142
322,498,4.52344,-0.447266,0,0,0,0,0,0,0,-1,1546,526,4.52341,0.447295
329,498,4.63232,-0.156982,0,0,0,0,0,0,0,-1,1553,526,4.63238,0.156991
336,498,5.22644,0.0925903,0,0,0,0,0,0,0,-1,1560,526,5.22648,-0.0926188
343,498,6.22607,-1.67615,0,0,0,0,0,0,0,-1,1567,526,6.22605,1.67617
350,498,6.19373,-1.59906,0,0,0,0,0,0,0,-1,1574,526,6.19367,1.59906
357,498,6.21472,-1.58929,0,0,0,0,0,0,0,-1,1581,526,6.21476,1.58927
364,498,5.73547,-1.2019,0,0,0,0,0,0,0,-1,1588,526,5.73547,1.20192
371,498,3.27087,-4.55334,0,0,0,0,0,0,0,-1,1595,526,3.27089,4.55332
378,498,8.42944,-4.70624,0,0,0,0,0,0,0,-1,1602,526,8.42942,4.70624
385,498,4.7793,-5.15314,0,0,0,0,0,0,0,-1,1609,526,4.77935,5.15311
392,498,9.12439,-8.57953,0,0,0,0,0,0,0,-1,1616,526,9.12443,8.57955
399,498,7.98938,-9.46021,0,0,0,0,0,0,0,-1,1623,526,7.98936,9.4602
406,498,7.58081,-9.26819,0,0,0,0,0,0,0,-1,1630,526,7.58085,9.26817
413,498,7.17236,-9.07611,0,0,0,0,0,0,0,-1,1637,526,7.17234,9.07614
420,498,11.4314,-16.1147,0,0,0,0,0,0,0,-1,1644,526,11.4313,16.1147
427,498,14.198,-23.8902,0,0,0,0,0,0,0,-1,1651,526,14.198,23.8902
434,498,14.1654,-23.1608,0.00306267,0.00261283,0.000839343,0.00370671,0.00196879,0.654487,0.00214145,0.0405466,1658,526,14.1654,23.1608
441,498,14.2761,-22.5238,0.00250369,0.00237262,0.000643119,0.00308461,0.00179171,0.734621,0.00178864,0.0141394,1665,526,14.2761,22.5238
448,498,14.3008,-21.9252,0.00229697,0.00165444,0.000541219,0.00260509,0.00134632,0.517551,0.00150433,0.0102662,1672,526,14.3008,21.9252
455,498,14.2771,-21.3427,0.00190498,0.00149532,0.000395232,0.0021453,0.00125499,0.546327,0.00124454,0.0143349,1679,526,14.2771,21.3427
462,498,14.2666,-20.7641,0.00153083,0.00148434,0.000333736,0.00184213,0.00117304,0.750629,0.00107674,0.0162478,1686,526,14.2666,20.7641
469,498,14.2311,-20.191,0.00137169,0.00152501,0.000551774,0.00200543,0.000891279,0.854423,0.00116021,0.0142605,1693,526,14.2311,20.191
476,498,14.2129,-19.5975,0.00116089,0.00161487,0.000893496,0.00230975,0.000465999,0.90979,0.0014104,0.0106684,1700,526,14.2129,19.5975
483,498,14.1973,-18.9973,0.000930383,0.00170575,0.00130611,0.0026805,-4.43674e-05,0.929668,0.00180197,0.00864918,1707,526,14.1972,18.9973
490,498,14.1714,-18.3947,0.000535721,0.00183609,0.00174774,0.00305066,-0.000678851,0.963474,0.00229379,0.010651,1714,526,14.1714,18.3947
497,498,14.158,-17.7541,5.67809e-05,0.00193794,0.00232509,0.0035055,-0.00151078,0.977603,0.00297149,0.0126431,1721,526,14.158,17.7541
504,498,14.1344,-17.108,-0.000525685,0.00193947,0.00295024,0.00390426,-0.00249047,0.983272,0.00372195,0.0148161,1728,526,14.1344,17.108
511,498,14.1021,-16.4775,-0.00130518,0.00184769,0.00353797,0.00414454,-0.00360203,0.994983,0.00447614,0.0164407,1735,526,14.1021,16.4775
518,498,14.1218,-15.8364,-0.00236458,0.00167856,0.00399385,0.00413333,-0.00481934,1.01968,0.00517389,0.0170012,1742,526,14.1218,15.8364
525,498,13.9929,-15.2143,-0.00362069,0.00134717,0.00431178,0.00383932,-0.00611283,1.04672,0.00579564,0.0256185,1749,526,13.9929,15.2143
532,498,13.881,-14.6298,-0.00505768,0.00086961,0.00445672,0.00325812,-0.00744618,1.07882,0.00633584,0.0450654,1756,526,13.881,14.6298
539,498,13.9546,-14.0276,0,0,0,0,0,0,0,-1,1763,526,13.9546,14.0277
546,498,10.2014,-8.47589,0,0,0,0,0,0,0,-1,1770,526,10.2014,8.47589
553,498,5.93958,-1.71448,0,0,0,0,0,0,0,-1,1777,526,5.93956,1.71447
560,498,3.69385,-0.615112,0,0,0,0,0,0,0,-1,1784,526,3.69381,0.615118
567,498,5.12695,-0.581604,0,0,0,0,0,0,0,-1,1791,526,5.12699,0.58159
574,498,3.88,0.0286255,0,0,0,0,0,0,0,-1,1798,526,3.87999,-0.0286535
581,498,10.8722,2.58551,0,0,0,0,0,0,0,-1,1805,526,10.8723,-2.58551
588,498,0,0,0,0,0,0,0,0,0,-1,1812,526,0,0
595,498,0,0,0,0,0,0,0,0,0,-1,1819,526,0,0
602,498,0,0,0,0,0,0,0,0,0,-1,1826,526,0,0
609,498,0,0,0,0,0,0,0,0,0,-1,1833,526,0,0
616,498,0,0,0,0,0,0,0,0,0,-1,1840,526,0,0
623,498,0,0,0,0,0,0,0,0,0,-1,1847,526,0,0
630,498,0,0,0,0,0,0,0,0,0,-1,1854,526,0,0
637,498,0,0,0,0,0,0,0,0,0,-1,1861,526,0,0
644,498,0,0,0,0,0,0,0,0,0,-1,1868,526,0,0
651,498,0,0,0,0,0,0,0,0,0,-1,1875,526,0,0
658,498,0,0,0,0,0,0,0,0,0,-1,1882,526,0,0
665,498,0,0,0,0,0,0,0,0,0,-1,1889,526,0,0
672,498,0,0,0,0,0,0,0,0,0,-1,1896,526,0,0
679,498,0,0,0,0,0,0,0,0,0,-1,1903,526,0,0
686,498,0,0,0,0,0,0,0,0,0,-1,1910,526,0,0
693,498,0,0,0,0,0,0,0,0,0,-1,1917,526,0,0
700,498,0,0,0,0,0,0,0,0,0,-1,1924,526,0,0
707,498,0,0,0,0,0,0,0,0,0,-1,1931,526,0,0
714,498,0,0,0,0,0,0,0,0,0,-1,1938,526,0,0
721,498,0,0,0,0,0,0,0,0,0,-1,1945,526,0,0
728,498,0,0,0,0,0,0,0,0,0,-1,1952,526,0,0
735,498,0,0,0,0,0,0,0,0,0,-1,1959,526,0,0
742,498,0,0,0,0,0,0,0,0,0,-1,1966,526,0,0
749,498,0,0,0,0,0,0,0,0,0,-1,1973,526,0,0
756,498,0,0,0,0,0,0,0,0,0,-1,1980,526,0,0
763,498,0,0,0,0,0,0,0,0,0,-1,1987,526,0,0
770,498,0,0,0,0,0,0,0,0,0,-1,1994,526,0,0
777,498,0,0,0,0,0,0,0,0,0,-1,2001,526,0,0
784,498,0,0,0,0,0,0,0,0,0,-1,2008,526,0,0
791,498,0,0,0,0,0,0,0,0,0,-1,2015,526,0,0
798,498,0,0,0,0,0,0,0,0,0,-1,2022,526,0,0
805,498,0,0,0,0,0,0,0,0,0,-1,2029,526,0,0
812,498,0,0,0,0,0,0,0,0,0,-1,2036,526,0,0
-700,491,0,0,0,0,0,0,0,0,0,-1,524,533,0,0
-693,491,0,0,0,0,0,0,0,0,0,-1,531,533,0,0
-686,491,0,0,0,0,0,0,0,0,0,-1,538,533,0,0
-679,491,0,0,0,0,0,0,0,0,0,-1,545,533,0,0
-672,491,0,0,0,0,0,0,0,0,0,-1,552,533,0,0
-665,491,0,0,0,0,0,0,0,0,0,-1,559,533,0,0
-658,491,0,0,0,0,0,0,0,0,0,-1,566,533,0,0
-651,491,0,0,0,0,0,0,0,0,0,-1,573,533,0,0
-644,491,0,0,0,0,0,0,0,0,0,-1,580,533,0,0
-637,491,0,0,0,0,0,0,0,0,0,-1,587,533,0,0
-630,491,0,0,0,0,0,0,0,0,0,-1,594,533,0,0
-623,491,0,0,0,0,0,0,0,0,0,-1,601,533,0,0
-616,491,0,0,0,0,0,0,0,0,0,-1,608,533,0,0
-609,491,0,0,0,0,0,0,0,0,0,-1,615,533,0,0
-602,491,0,0,0,0,0,0,0,0,0,-1,622,533,0,0
-595,491,0,0,0,0,0,0,0,0,0,-1,629,533,0,0
-588,491,0,0,0,0,0,0,0,0,0,-1,636,533,0,0
-581,491,0,0,0,0,0,0,0,0,0,-1,643,533,0,0
-574,491,0,0,0,0,0,0,0,0,0,-1,650,533,0,0
-567,491,0,0,0,0,0,0,0,0,0,-1,657,533,0,0
-560,491,0,0,0,0,0,0,0,0,0,-1,664,533,0,0
-553,491,0,0,0,0,0,0,0,0,0,-1,671,533,0,0
-546,491,0,0,0,0,0,0,0,0,0,-1,678,533,0,0
-539,491,0,0,0,0,0,0,0,0,0,-1,685,533,0,0
-532,491,0,0,0,0,0,0,0,0,0,-1,692,533,0,0
-525,491,0,0,0,0,0,0,0,0,0,-1,699,533,0,0
-518,491,0,0,0,0,0,0,0,0,0,-1,706,533,0,0
-511,491,0,0,0,0,0,0,0,0,0,-1,713,533,0,0
-504,491,0,0,0,0,0,0,0,0,0,-1,720,533,0,0
-497,491,0,0,0,0,0,0,0,0,0,-1,727,533,0,0
-490,491,0,0,0,0,0,0,0,0,0,-1,734,533,0,0
-483,491,0,0,0,0,0,0,0,0,0,-1,741,533,0,0
-476,491,0,0,0,0,0,0,0,0,0,-1,748,533,0,0
-469,491,-5.85913,4.55011,0,0,0,0,0,0,0,-1,755,533,-5.8591,-4.55009
-462,491,-9.93713,4.90381,0,0,0,0,0,0,0,-1,762,533,-9.93716,-4.9038
-455,491,1.9494,-0.27887,0,0,0,0,0,0,0,-1,769,533,1.94941,0.27885
-448,491,2.68909,-1.8999,0,0,0,0,0,0,0,-1,776,533,2.6891,1.89988
-441,491,3.46069,-3.51855,0,0,0,0,0,0,0,-1,783,533,3.46071,3.51854
-434,491,2.67145,-7.44061,0,0,0,0,0,0,0,-1,790,533,2.67146,7.44061
-427,491,2.27136,-8.34546,0,0,0,0,0,0,0,-1,797,533,2.27136,8.34546
-420,491,-3.50403,-13.9624,0,0,0,0,0,0,0,-1,804,533,-3.50403,13.9624
-413,491,-3.60028,-15.0739,0,0,0,0,0,0,0,-1,811,533,-3.60027,15.0739
-406,491,-3.58081,-15.8713,0.00279945,0.0205546,-0.0100532,0.0250889,-0.00173487,-1.14709,0.0173332,0.0253701,818,533,-3.58078,15.8713
-399,491,-3.60846,-16.5691,0.00219478,0.0171061,-0.00854613,0.0209916,-0.00169079,-1.14408,0.0145907,0.012064,825,533,-3.60849,16.5691
-392,491,-3.67139,-17.1908,0.00179603,0.0138699,-0.00711491,0.0171639,-0.00149799,-1.13721,0.0119732,0.0100189,832,533,-3.67141,17.1908
-385,491,-3.68982,-17.7741,0.00162906,0.0109301,-0.00578528,0.0137023,-0.00114314,-1.12394,0.00953878,0.00943736,839,533,-3.68979,17.7741
-378,491,-3.6814,-18.3549,0.0015773,0.00826311,-0.00458613,0.0105954,-0.000754969,-1.10033,0.00732822,0.0133363,846,533,-3.6814,18.3549
-371,491,-3.70477,-18.9556,0.00159694,0.00581279,-0.00354171,0.0078264,-0.000416675,-1.05383,0.00536189,0.014847,853,533,-3.70475,18.9557
-364,491,-3.72668,-19.5665,0.00168866,0.0035117,-0.00251542,0.00527567,-7.53023e-05,-0.959225,0.00354248,0.0138158,860,533,-3.72667,19.5664
-357,491,-3.74512,-20.1342,0.00190037,0.00164368,-0.00163882,0.00341586,0.000128183,-0.74632,0.00223574,0.0118553,867,533,-3.74513,20.1342
-350,491,-3.76343,-20.6966,0.00218932,2.97872e-05,-0.000932162,0.00253603,-0.000316917,-0.356082,0.00180562,0.015007,874,533,-3.76345,20.6966
-343,491,-3.76654,-21.2752,0.00250508,-0.00126216,-0.000389112,0.00254485,-0.00130193,-0.101856,0.00225925,0.0228012,881,533,-3.76657,21.2752
-336,491,-3.78705,-21.8453,0.00290371,-0.00240572,9.29211e-05,0.00290534,-0.00240735,0.017494,0.00307177,0.0239484,888,533,-3.78703,21.8453
-329,491,-3.83844,-22.4119,0.00351313,-0.00298043,0.000305397,0.00352746,-0.00299476,0.0468928,0.00376979,0.0258819,895,533,-3.83844,22.4119
-322,491,-3.86438,-22.9745,0.00415455,-0.0033778,0.000454431,0.00418187,-0.00340512,0.0600403,0.004388,0.0221318,902,533,-3.86438,22.9745
-315,491,-3.86792,-23.4996,0.00474552,-0.00357185,0.000571758,0.00478464,-0.00361097,0.0683144,0.00486297,0.0200404,909,533,-3.86793,23.4997
-308,491,-3.83606,-24.2312,0,0,0,0,0,0,0,-1,916,533,-3.83605,24.2312
-301,491,-3.82074,-25.1022,0,0,0,0,0,0,0,-1,923,533,-3.82073,25.1021
-294,491,-0.777283,-8.60913,0,0,0,0,0,0,0,-1,930,533,-0.777288,8.6091
-287,491,-0.26123,-8.69055,0,0,0,0,0,0,0,-1,937,533,-0.261204,8.69053
-280,491,0.2948,-5.99219,0,0,0,0,0,0,0,-1,944,533,0.294811,5.99221
-273,491,0.369995,-5.33691,0,0,0,0,0,0,0,-1,951,533,0.369985,5.33693
-266,491,1.1167,-5.0321,0,0,0,0,0,0,0,-1,958,533,1.11668,5.0321
-259,491,12.0862,-16.9615,0,0,0,0,0,0,0,-1,965,533,12.0862,16.9615
-252,491,9.72443,-13.8417,0,0,0,0,0,0,0,-1,972,533,9.72444,13.8418
-245,491,5.27258,-14.3619,0,0,0,0,0,0,0,-1,979,533,5.27255,14.3619
-238,491,3.65381,-11.1472,0,0,0,0,0,0,0,-1,986,533,3.6538,11.1472
-231,491,2.17719,-7.86835,0,0,0,0,0,0,0,-1,993,533,2.17719,7.86832
-224,491,0.554626,-4.61725,0,0,0,0,0,0,0,-1,1000,533,0.554608,4.61727
-217,491,-2.92743,-1.0766,0,0,0,0,0,0,0,-1,1007,533,-2.92743,1.07659
-210,491,-0.92395,0.374512,0,0,0,0,0,0,0,-1,1014,533,-0.923959,-0.374531
-203,491,0.417419,4.77161,0,0,0,0,0,0,0,-1,1021,533,0.417446,-4.77162
-196,491,0,0,0,0,0,0,0,0,0,-1,1028,533,0,0
-189,491,0,0,0,0,0,0,0,0,0,-1,1035,533,0,0
-182,491,0,0,0,0,0,0,0,0,0,-1,1042,533,0,0
-175,491,0,0,0,0,0,0,0,0,0,-1,1049,533,0,0
-168,491,0,0,0,0,0,0,0,0,0,-1,1056,533,0,0
-161,491,0,0,0,0,0,0,0,0,0,-1,1063,533,0,0
-154,491,0,0,0,0,0,0,0,0,0,-1,1070,533,0,0
-147,491,0,0,0,0,0,0,0,0,0,-1,1077,533,0,0
-140,491,0,0,0,0,0,0,0,0,0,-1,1084,533,0,0
-133,491,0,0,0,0,0,0,0,0,0,-1,1091,533,0,0
-126,491,0,0,0,0,0,0,0,0,0,-1,1098,533,0,0
-119,491,0,0,0,0,0,0,0,0,0,-1,1105,533,0,0
-112,491,0,0,0,0,0,0,0,0,0,-1,1112,533,0,0
-105,491,0,0,0,0,0,0,0,0,0,-1,1119,533,0,0
-98,491,0,0,0,0,0,0,0,0,0,-1,1126,533,0,0
-91,491,0,0,0,0,0,0,0,0,0,-1,1133,533,0,0
-84,491,0,0,0,0,0,0,0,0,0,-1,1140,533,0,0
-77,491,0,0,0,0,0,0,0,0,0,-1,1147,533,0,0
-70,491,0,0,0,0,0,0,0,0,0,-1,1154,533,0,0
-63,491,0,0,0,0,0,0,0,0,0,-1,1161,533,0,0
-56,491,0,0,0,0,0,0,0,0,0,-1,1168,533,0,0
-49,491,0,0,0,0,0,0,0,0,0,-1,1175,533,0,0
-42,491,0,0,0,0,0,0,0,0,0,-1,1182,533,0,0
-35,491,0,0,0,0,0,0,0,0,0,-1,1189,533,0,0
-28,491,0,0,0,0,0,0,0,0,0,-1,1196,533,0,0
-21,491,0,0,0,0,0,0,0,0,0,-1,1203,533,0,0
-14,491,0,0,0,0,0,0,0,0,0,-1,1210,533,0,0
-7,491,0,0,0,0,0,0,0,0,0,-1,1217,533,0,0
0,491,0,0,0,0,0,0,0,0,0,-1,1224,533,0,0
7,491,0,0,0,0,0,0,0,0,0,-1,1231,533,0,0
14,491,0,0,0,0,0,0,0,0,0,-1,1238,533,0,0
21,491,0,0,0,0,0,0,0,0,0,-1,1245,533,0,0
28,491,0,0,0,0,0,0,0,0,0,-1,1252,533,0,0
35,491,0,0,0,0,0,0,0,0,0,-1,1259,533,0,0
42,491,0,0,0,0,0,0,0,0,0,-1,1266,533,0,0
49,491,0,0,0,0,0,0,0,0,0,-1,1273,533,0,0
56,491,0,0,0,0,0,0,0,0,0,-1,1280,533,0,0
63,491,0,0,0,0,0,0,0,0,0,-1,1287,533,0,0
70,491,0,0,0,0,0,0,0,0,0,-1,1294,533,0,0
77,491,0,0,0,0,0,0,0,0,0,-1,1301,533,0,0
84,491,0,0,0,0,0,0,0,0,0,-1,1308,533,0,0
91,491,0,0,0,0,0,0,0,0,0,-1,1315,533,0,0
98,491,0,0,0,0,0,0,0,0,0,-1,1322,533,0,0
105,491,0,0,0,0,0,0,0,0,0,-1,1329,533,0,0
112,491,0,0,0,0,0,0,0,0,0,-1,1336,533,0,0
119,491,0,0,0,0,0,0,0,0,0,-1,1343,533,0,0
126,491,0,0,0,0,0,0,0,0,0,-1,1350,533,0,0
133,491,0,0,0,0,0,0,0,0,0,-1,1357,533,0,0
140,491,0,0,0,0,0,0,0,0,0,-1,1364,533,0,0
147,491,0,0,0,0,0,0,0,0,0,-1,1371,533,0,0
154,491,0,0,0,0,0,0,0,0,0,-1,1378,533,0,0
161,491,0,0,0,0,0,0,0,0,0,-1,1385,533,0,0
168,491,0,0,0,0,0,0,0,0,0,-1,1392,533,0,0
175,491,0,0,0,0,0,0,0,0,0,-1,1399,533,0,0
182,491,0,0,0,0,0,0,0,0,0,-1,1406,533,0,0
189,491,0,0,0,0,0,0,0,0,0,-1,1413,533,0,0
196,491,0,0,0,0,0,0,0,0,0,-1,1420,533,0,0
203,491,0,0,0,0,0,0,0,0,0,-1,1427,533,0,0
210,491,0,0,0,0,0,0,0,0,0,-1,1434,533,0,0
217,491,0,0,0,0,0,0,0,0,0,-1,1441,533,0,0
224,491,0,0,0,0,0,0,0,0,0,-1,1448,533,0,0
231,491,0,0,0,0,0,0,0,0,0,-1,1455,533,0,0
238,491,0,0,0,0,0,0,0,0,0,-1,1462,533,0,0
245,491,0,0,0,0,0,0,0,0,0,-1,1469,533,0,0
252,491,0,0,0,0,0,0,0,0,0,-1,1476,533,0,0
259,491,0,0,0,0,0,0,0,0,0,-1,1483,533,0,0
266,491,0,0,0,0,0,0,0,0,0,-1,1490,533,0,0
273,491,0,0,0,0,0,0,0,0,0,-1,1497,533,0,0
280,491,0,0,0,0,0,0,0,0,0,-1,1504,533,0,0
287,491,0,0,0,0,0,0,0,0,0,-1,1511,533,0,0
294,491,0,0,0,0,0,0,0,0,0,-1,1518,533,0,0
301,491,0,0,0,0,0,0,0,0,0,-1,1525,533,0,0
308,491,0,0,0,0,0,0,0,0,0,-1,1532,533,0,0
315,491,0,0,0,0,0,0,0,0,0,-1,1539,533,0,0
322,491,4.26331,-0.734314,0,0,0,0,0,0,0,-1,1546,533,4.26326,0.734324
329,491,4.25354,-0.783752,0,0,0,0,0,0,0,-1,1553,533,4.25359,0.783734
336,491,4.81604,-0.722107,0,0,0,0,0,0,0,-1,1560,533,4.81605,0.722115
343,491,6.14478,-1.44281,0,0,0,0,0,0,0,-1,1567,533,6.14474,1.44281
350,491,6.36353,-1.30792,0,0,0,0,0,0,0,-1,1574,533,6.36352,1.3079
357,491,6.69482,-1.06018,0,0,0,0,0,0,0,-1,1581,533,6.69489,1.06018
364,491,8.01086,-1.69604,0,0,0,0,0,0,0,-1,1588,533,8.01087,1.69607
371,491,8.2135,-0.539307,0,0,0,0,0,0,0,-1,1595,533,8.21348,0.53929
378,491,13.3589,2.17267,0,0,0,0,0,0,0,-1,1602,533,13.3589,-2.17264
385,491,8.08228,-4.95471,0,0,0,0,0,0,0,-1,1609,533,8.08227,4.95474
392,491,2.88721,-4.30988,0,0,0,0,0,0,0,-1,1616,533,2.88716,4.30986
399,491,8.95862,-8.55518,0,0,0,0,0,0,0,-1,1623,533,8.95864,8.55516
406,491,8.16541,-9.00806,0,0,0,0,0,0,0,-1,1630,533,8.16535,9.00807
413,491,5.31848,-3.7124,0,0,0,0,0,0,0,-1,1637,533,5.31849,3.7124
420,491,4.86389,-3.95892,0,0,0,0,0,0,0,-1,1644,533,4.86387,3.95893
427,491,11.5096,-15.2742,0,0,0,0,0,0,0,-1,1651,533,11.5096,15.2742
434,491,14.687,-23.1419,0,0,0,0,0,0,0,-1,1658,533,14.6871,23.1419
441,491,14.903,-22.654,0,0,0,0,0,0,0,-1,1665,533,14.903,22.654
448,491,14.8596,-21.9623,0.00262922,0.00193532,0.000671975,0.00303853,0.00152601,0.54709,0.0017543,0.0351517,1672,533,14.8596,21.9623
455,491,14.8468,-21.332,0.00212102,0.00163102,0.000277185,0.00224597,0.00150608,0.423478,0.00132162,0.0184797,1679,533,14.8468,21.332
462,491,14.8619,-20.7421,0.00163291,0.00152345,1.05211e-05,0.00163391,0.00152244,0.0949591,0.00105408,0.0156095,1686,533,14.862,20.7421
469,491,14.8247,-20.1664,0.00148998,0.00146866,9.85663e-05,0.00157846,0.00138018,0.731539,0.000992837,0.0149511,1693,533,14.8247,20.1664
476,491,14.8206,-19.5741,0.0013584,0.00144327,0.00030746,0.00171121,0.00109046,0.853975,0.0010003,0.0104871,1700,533,14.8206,19.5741
483,491,14.7972,-18.9646,0.00115144,0.00145518,0.000643552,0.00196454,0.000642084,0.90127,0.00115668,0.0117539,1707,533,14.7973,18.9646
490,491,14.7744,-18.3838,0.000776944,0.00156087,0.000988341,0.00223214,0.000105681,0.97418,0.00145415,0.0105888,1714,533,14.7744,18.3838
497,491,14.7476,-17.756,0.000329767,0.00163445,0.00147074,0.00259103,-0.000626815,0.994135,0.00196982,0.0123406,1721,533,14.7475,17.756
504,491,14.7529,-17.1032,-0.000190222,0.0016211,0.00198889,0.00290083,-0.00146995,0.999049,0.00256815,0.0139635,1728,533,14.7529,17.1032
511,491,14.7173,-16.4712,-0.000881693,0.00154951,0.00246829,0.00308529,-0.00241748,1.01421,0.00318481,0.0132252,1735,533,14.7173,16.4712
518,491,14.6824,-15.8559,-0.00180552,0.0014315,0.00281686,0.00306173,-0.00343575,1.04616,0.00375339,0.010533,1742,533,14.6823,15.8559
525,491,14.662,-15.2208,-0.00284179,0.00119114,0.00305431,0.00283459,-0.00448524,1.07715,0.00426177,0.0102463,1749,533,14.662,15.2207
532,491,14.6453,-14.5917,-0.00395709,0.000919031,0.00317405,0.00248331,-0.00552137,1.1129,0.00473116,0.0231633,1756,533,14.6453,14.5917
539,491,14.5049,-14.0546,-0.00519748,0.000670504,0.00314557,0.00203801,-0.00656499,1.1607,0.00519111,0.0411051,1763,533,14.5049,14.0546
546,491,14.2328,-13.2808,0,0,0,0,0,0,0,-1,1770,533,14.2328,13.2807
553,491,10.5021,-7.77869,0,0,0,0,0,0,0,-1,1777,533,10.502,7.77871
560,491,6.28455,-1.43585,0,0,0,0,0,0,0,-1,1784,533,6.28458,1.43586
567,491,5.67651,-1.3562,0,0,0,0,0,0,0,-1,1791,533,5.67649,1.3562
574,491,8.0719,1.58325,0,0,0,0,0,0,0,-1,1798,533,8.07195,-1.58326
581,491,9.44812,1.60931,0,0,0,0,0,0,0,-1,1805,533,9.44808,-1.60933
588,491,11.0497,1.54962,0,0,0,0,0,0,0,-1,1812,533,11.0496,-1.54963
595,491,0,0,0,0,0,0,0,0,0,-1,1819,533,0,0
602,491,0,0,0,0,0,0,0,0,0,-1,1826,533,0,0
609,491,0,0,0,0,0,0,0,0,0,-1,1833,533,0,0
616,491,0,0,0,0,0,0,0,0,0,-1,1840,533,0,0
623,491,0,0,0,0,0,0,0,0,0,-1,1847,533,0,0
630,491,0,0,0,0,0,0,0,0,0,-1,1854,533,0,0
637,491,0,0,0,0,0,0,0,0,0,-1,1861,533,0,0
644,491,0,0,0,0,0,0,0,0,0,-1,1868,533,0,0
651,491,0,0,0,0,0,0,0,0,0,-1,1875,533,0,0
658,491,0,0,0,0,0,0,0,0,0,-1,1882,533,0,0
665,491,0,0,0,0,0,0,0,0,0,-1,1889,533,0,0
672,491,0,0,0,0,0,0,0,0,0,-1,1896,533,0,0
679,491,0,0,0,0,0,0,0,0,0,-1,1903,533,0,0
686,491,0,0,0,0,0,0,0,0,0,-1,1910,533,0,0
693,491,0,0,0,0,0,0,0,0,0,-1,1917,533,0,0
700,491,0,0,0,0,0,0,0,0,0,-1,1924,533,0,0
707,491,0,0,0,0,0,0,0,0,0,-1,1931,533,0,0
714,491,0,0,0,0,0,0,0,0,0,-1,1938,533,0,0
721,491,0,0,0,0,0,0,0,0,0,-1,1945,533,0,0
728,491,0,0,0,0,0,0,0,0,0,-1,1952,533,0,0
735,491,0,0,0,0,0,0,0,0,0,-1,1959,533,0,0
742,491,0,0,0,0,0,0,0,0,0,-1,1966,533,0,0
749,491,0,0,0,0,0,0,0,0,0,-1,1973,533,0,0
756,491,0,0,0,0,0,0,0,0,0,-1,1980,533,0,0
763,491,0,0,0,0,0,0,0,0,0,-1,1987,533,0,0
770,491,0,0,0,0,0,0,0,0,0,-1,1994,533,0,0
777,491,0,0,0,0,0,0,0,0,0,-1,2001,533,0,0
784,491,0,0,0,0,0,0,0,0,0,-1,2008,533,0,0
791,491,0,0,0,0,0,0,0,0,0,-1,2015,533,0,0
798,491,0,0,0,0,0,0,0,0,0,-1,2022,533,0,0
805,491,0,0,0,0,0,0,0,0,0,-1,2029,533,0,0
812,491,0,0,0,0,0,0,0,0,0,-1,2036,533,0,0
-700,484,0,0,0,0,0,0,0,0,0,-1,524,540,0,0
-693,484,0,0,0,0,0,0,0,0,0,-1,531,540,0,0
-686,484,0,0,0,0,0,0,0,0,0,-1,538,540,0,0
-679,484,0,0,0,0,0,0,0,0,0,-1,545,540,0,0
-672,484,0,0,0,0,0,0,0,0,0,-1,552,540,0,0
-665,484,0,0,0,0,0,0,0,0,0,-1,559,540,0,0
-658,484,0,0,0,0,0,0,0,0,0,-1,566,540,0,0
-651,484,0,0,0,0,0,0,0,0,0,-1,573,540,0,0
-644,484,0,0,0,0,0,0,0,0,0,-1,580,540,0,0
-637,484,0,0,0,0,0,0,0,0,0,-1,587,540,0,0
-630,484,0,0,0,0,0,0,0,0,0,-1,594,540,0,0
-623,484,0,0,0,0,0,0,0,0,0,-1,601,540,0,0
-616,484,0,0,0,0,0,0,0,0,0,-1,608,540,0,0
-609,484,0,0,0,0,0,0,0,0,0,-1,615,540,0,0
-602,484,0,0,0,0,0,0,0,0,0,-1,622,540,0,0
-595,484,0,0,0,0,0,0,0,0,0,-1,629,540,0,0
-588,484,0,0,0,0,0,0,0,0,0,-1,636,540,0,0
-581,484,0,0,0,0,0,0,0,0,0,-1,643,540,0,0
-574,484,0,0,0,0,0,0,0,0,0,-1,650,540,0,0
-567,484,0,0,0,0,0,0,0,0,0,-1,657,540,0,0
-560,484,0,0,0,0,0,0,0,0,0,-1,664,540,0,0
-553,484,0,0,0,0,0,0,0,0,0,-1,671,540,0,0
-546,484,0,0,0,0,0,0,0,0,0,-1,678,540,0,0
-539,484,0,0,0,0,0,0,0,0,0,-1,685,540,0,0
-532,484,0,0,0,0,0,0,0,0,0,-1,692,540,0,0
-525,484,0,0,0,0,0,0,0,0,0,-1,699,540,0,0
-518,484,0,0,0,0,0,0,0,0,0,-1,706,540,0,0
-511,484,0,0,0,0,0,0,0,0,0,-1,713,540,0,0
-504,484,0,0,0,0,0,0,0,0,0,-1,720,540,0,0
-497,484,0,0,0,0,0,0,0,0,0,-1,727,540,0,0
-490,484,0,0,0,0,0,0,0,0,0,-1,734,540,0,0
-483,484,0,0,0,0,0,0,0,0,0,-1,741,540,0,0
-476,484,-8.46552,1.44702,0,0,0,0,0,0,0,-1,748,540,-8.46554,-1.44702
-469,484,-7.82343,1.70355,0,0,0,0,0,0,0,-1,755,540,-7.82345,-1.70355
-462,484,-8.36987,3.08612,0,0,0,0,0,0,0,-1,762,540,-8.36988,-3.0861
-455,484,-6.77197,2.07092,0,0,0,0,0,0,0,-1,769,540,-6.77197,-2.07094
-448,484,3.54895,-1.40106,0,0,0,0,0,0,0,-1,776,540,3.54897,1.40106
-441,484,4.28906,-3.05884,0,0,0,0,0,0,0,-1,783,540,4.28905,3.05883
-434,484,-2.17548,-5.07245,0,0,0,0,0,0,0,-1,790,540,-2.17546,5.07243
-427,484,-4.01721,-13.5152,0,0,0,0,0,0,0,-1,797,540,-4.01724,13.5152
-420,484,-3.97351,-13.9133,0,0,0,0,0,0,0,-1,804,540,-3.97349,13.9134
-413,484,-4.02393,-15.179,0.00247721,0.0181078,-0.00850099,0.0218401,-0.00125503,-1.1571,0.0149959,0.0302172,811,540,-4.02391,15.179
-406,484,-4.12494,-15.9079,0.00213302,0.0153145,-0.00748633,0.0186979,-0.00125037,-1.14633,0.0129022,0.0155458,818,540,-4.12496,15.9079
-399,484,-4.20056,-16.5405,0.00171972,0.0125664,-0.0063156,0.0154677,-0.00118157,-1.14017,0.0107273,0.0163022,825,540,-4.20055,16.5405
-392,484,-4.2207,-17.1291,0.00151464,0.00990899,-0.00517229,0.0123728,-0.000949176,-1.12625,0.00858245,0.0187925,832,540,-4.22073,17.1291
-385,484,-4.26251,-17.7493,0.00151502,0.00749073,-0.00412125,0.00959325,-0.000587504,-1.09905,0.00660006,0.013528,839,540,-4.26249,17.7494
-378,484,-4.28119,-18.3449,0.00159663,0.00524365,-0.00314129,0.00705234,-0.000212061,-1.04838,0.00477382,0.0143084,846,540,-4.2812,18.3449
-371,484,-4.29889,-18.9351,0.00174558,0.00315052,-0.00226955,0.00482382,7.22741e-05,-0.935483,0.00319206,0.0159226,853,540,-4.29888,18.9351
-364,484,-4.34045,-19.5186,0.00196673,0.00118817,-0.00141242,0.00304253,0.000112363,-0.650931,0.00199196,0.0116702,860,540,-4.34048,19.5186
-357,484,-4.35028,-20.0956,0.00231122,-0.00039099,-0.000696835,0.00248033,-0.000560103,-0.238085,0.00186845,0.0121121,867,540,-4.3503,20.0956
-350,484,-4.36761,-20.6663,0.00278281,-0.00160564,-0.000215645,0.00279338,-0.00161621,-0.0489818,0.00257594,0.0148985,874,540,-4.36762,20.6663
-343,484,-4.36621,-21.2633,0.00325497,-0.00263059,0.000167589,0.00325973,-0.00263536,0.0284439,0.00340989,0.0234946,881,540,-4.3662,21.2633
-336,484,-4.35547,-21.8439,0.00381178,-0.00358047,0.000516167,0.00384765,-0.00361634,0.0693767,0.00431003,0.0274597,888,540,-4.35548,21.8439
-329,484,-4.39832,-22.3541,0.00463883,-0.00374053,0.000522577,0.00467129,-0.00377299,0.0620444,0.0048845,0.0380915,895,540,-4.39831,22.3541
-322,484,-4.34576,-22.9926,0,0,0,0,0,0,0,-1,902,540,-4.34578,22.9926
-315,484,-4.26605,-23.5004,0,0,0,0,0,0,0,-1,909,540,-4.26605,23.5004
-308,484,-1.32623,-8.9317,0,0,0,0,0,0,0,-1,916,540,-1.32626,8.93173
-301,484,-1.33453,-6.52667,0,0,0,0,0,0,0,-1,923,540,-1.33454,6.5267
-294,484,-1.61224,-8.17059,0,0,0,0,0,0,0,-1,930,540,-1.61227,8.17058
-287,484,-0.715759,-5.62103,0,0,0,0,0,0,0,-1,937,540,-0.715772,5.62105
-280,484,2.66742,-1.6795,0,0,0,0,0,0,0,-1,944,540,2.6674,1.67949
-273,484,2.53125,-2.22296,0,0,0,0,0,0,0,-1,951,540,2.53128,2.22295
-266,484,2.6778,-2.72058,0,0,0,0,0,0,0,-1,958,540,2.6778,2.72061
-259,484,2.41718,-2.59894,0,0,0,0,0,0,0,-1,965,540,2.41717,2.59892
-252,484,10.6069,-11.696,0,0,0,0,0,0,0,-1,972,540,10.6069,11.696
-245,484,6.34106,-11.6107,0,0,0,0,0,0,0,-1,979,540,6.34104,11.6107
-238,484,4.89319,-8.54059,0,0,0,0,0,0,0,-1,986,540,4.89321,8.5406
-231,484,3.47675,-5.22064,0,0,0,0,0,0,0,-1,993,540,3.47676,5.22067
-224,484,1.71344,-2.03473,0,0,0,0,0,0,0,-1,1000,540,1.71342,2.03472
-217,484,-0.745056,1.17358,0,0,0,0,0,0,0,-1,1007,540,-0.745043,-1.17359
-210,484,0,0,0,0,0,0,0,0,0,-1,1014,540,0,0
-203,484,0,0,0,0,0,0,0,0,0,-1,1021,540,0,0
-196,484,0,0,0,0,0,0,0,0,0,-1,1028,540,0,0
-189,484,0,0,0,0,0,0,0,0,0,-1,1035,540,0,0
-182,484,0,0,0,0,0,0,0,0,0,-1,1042,540,0,0
-175,484,0,0,0,0,0,0,0,0,0,-1,1049,540,0,0
-168,484,0,0,0,0,0,0,0,0,0,-1,1056,540,0,0
-161,484,0,0,0,0,0,0,0,0,0,-1,1063,540,0,0
-154,484,0,0,0,0,0,0,0,0,0,-1,1070,540,0,0
-147,484,0,0,0,0,0,0,0,0,0,-1,1077,540,0,0
-140,484,0,0,0,0,0,0,0,0,0,-1,1084,540,0,0
-133,484,0,0,0,0,0,0,0,0,0,-1,1091,540,0,0
-126,484,0,0,0,0,0,0,0,0,0,-1,1098,540,0,0
-119,484,0,0,0,0,0,0,0,0,0,-1,1105,540,0,0
-112,484,0,0,0,0,0,0,0,0,0,-1,1112,540,0,0
-105,484,0,0,0,0,0,0,0,0,0,-1,1119,540,0,0
-98,484,0,0,0,0,0,0,0,0,0,-1,1126,540,0,0
-91,484,0,0,0,0,0,0,0,0,0,-1,1133,540,0,0
-84,484,0,0,0,0,0,0,0,0,0,-1,1140,540,0,0
-77,484,0,0,0,0,0,0,0,0,0,-1,1147,540,0,0
-70,484,0,0,0,0,0,0,0,0,0,-1,1154,540,0,0
-63,484,0,0,0,0,0,0,0,0,0,-1,1161,540,0,0
-56,484,0,0,0,0,0,0,0,0,0,-1,1168,540,0,0
-49,484,0,0,0,0,0,0,0,0,0,-1,1175,540,0,0
-42,484,0,0,0,0,0,0,0,0,0,-1,1182,540,0,0
-35,484,0,0,0,0,0,0,0,0,0,-1,1189,540,0,0
-28,484,0,0,0,0,0,0,0,0,0,-1,1196,540,0,0
-21,484,0,0,0,0,0,0,0,0,0,-1,1203,540,0,0
-14,484,0,0,0,0,0,0,0,0,0,-1,1210,540,0,0
-7,484,0,0,0,0,0,0,0,0,0,-1,1217,540,0,0
0,484,0,0,0,0,0,0,0,0,0,-1,1224,540,0,0
7,484,0,0,0,0,0,0,0,0,0,-1,1231,540,0,0
14,484,0,0,0,0,0,0,0,0,0,-1,1238,540,0,0
21,484,0,0,0,0,0,0,0,0,0,-1,1245,540,0,0
28,484,0,0,0,0,0,0,0,0,0,-1,1252,540,0,0
35,484,0,0,0,0,0,0,0,0,0,-1,1259,540,0,0
42,484,0,0,0,0,0,0,0,0,0,-1,1266,540,0,0
49,484,0,0,0,0,0,0,0,0,0,-1,1273,540,0,0
56,484,0,0,0,0,0,0,0,0,0,-1,1280,540,0,0
63,484,0,0,0,0,0,0,0,0,0,-1,1287,540,0,0
70,484,0,0,0,0,0,0,0,0,0,-1,1294,540,0,0
77,484,0,0,0,0,0,0,0,0,0,-1,1301,540,0,0
84,484,0,0,0,0,0,0,0,0,0,-1,1308,540,0,0
91,484,0,0,0,0,0,0,0,0,0,-1,1315,540,0,0
98,484,0,0,0,0,0,0,0,0,0,-1,1322,540,0,0
105,484,0,0,0,0,0,0,0,0,0,-1,1329,540,0,0
112,484,0,0,0,0,0,0,0,0,0,-1,1336,540,0,0
119,484,0,0,0,0,0,0,0,0,0,-1,1343,540,0,0
126,484,0,0,0,0,0,0,0,0,0,-1,1350,540,0,0
133,484,0,0,0,0,0,0,0,0,0,-1,1357,540,0,0
140,484,0,0,0,0,0,0,0,0,0,-1,1364,540,0,0
147,484,0,0,0,0,0,0,0,0,0,-1,1371,540,0,0
154,484,0,0,0,0,0,0,0,0,0,-1,1378,540,0,0
161,484,0,0,0,0,0,0,0,0,0,-1,1385,540,0,0
168,484,0,0,0,0,0,0,0,0,0,-1,1392,540,0,0
175,484,0,0,0,0,0,0,0,0,0,-1,1399,540,0,0
182,484,0,0,0,0,0,0,0,0,0,-1,1406,540,0,0
189,484,0,0,0,0,0,0,0,0,0,-1,1413,540,0,0
196,484,0,0,0,0,0,0,0,0,0,-1,1420,540,0,0
203,484,0,0,0,0,0,0,0,0,0,-1,1427,540,0,0
210,484,0,0,0,0,0,0,0,0,0,-1,1434,540,0,0
217,484,0,0,0,0,0,0,0,0,0,-1,1441,540,0,0
224,484,0,0,0,0,0,0,0,0,0,-1,1448,540,0,0
231,484,0,0,0,0,0,0,0,0,0,-1,1455,540,0,0
238,484,0,0,0,0,0,0,0,0,0,-1,1462,540,0,0
245,484,0,0,0,0,0,0,0,0,0,-1,1469,540,0,0
252,484,0,0,0,0,0,0,0,0,0,-1,1476,540,0,0
259,484,0,0,0,0,0,0,0,0,0,-1,1483,540,0,0
266,484,0,0,0,0,0,0,0,0,0,-1,1490,540,0,0
273,484,0,0,0,0,0,0,0,0,0,-1,1497,540,0,0
280,484,0,0,0,0,0,0,0,0,0,-1,1504,540,0,0
287,484,0,0,0,0,0,0,0,0,0,-1,1511,540,0,0
294,484,0,0,0,0,0,0,0,0,0,-1,1518,540,0,0
301,484,0,0,0,0,0,0,0,0,0,-1,1525,540,0,0
308,484,0,0,0,0,0,0,0,0,0,-1,1532,540,0,0
315,484,0,0,0,0,0,0,0,0,0,-1,1539,540,0,0
322,484,0,0,0,0,0,0,0,0,0,-1,1546,540,0,0
329,484,0,0,0,0,0,0,0,0,0,-1,1553,540,0,0
336,484,4.38708,-1.64136,0,0,0,0,0,0,0,-1,1560,540,4.38704,1.64138
343,484,7.57996,-1.05457,0,0,0,0,0,0,0,-1,1567,540,7.57995,1.05454
350,484,8.10425,-1.18878,0,0,0,0,0,0,0,-1,1574,540,8.1043,1.18877
357,484,7.74902,-3.80286,0,0,0,0,0,0,0,-1,1581,540,7.74901,3.80287
364,484,6.31262,-3.87213,0,0,0,0,0,0,0,-1,1588,540,6.31263,3.87215
371,484,7.21008,0.973511,0,0,0,0,0,0,0,-1,1595,540,7.21014,-0.973541
378,484,11.0563,1.5014,0,0,0,0,0,0,0,-1,1602,540,11.0563,-1.5014
385,484,14.3469,2.5545,0,0,0,0,0,0,0,-1,1609,540,14.3469,-2.55453
392,484,7.39453,-4.95026,0,0,0,0,0,0,0,-1,1616,540,7.39448,4.95023
399,484,7.14417,-2.5639,0,0,0,0,0,0,0,-1,1623,540,7.14417,2.56391
406,484,7.88953,-2.47321,0,0,0,0,0,0,0,-1,1630,540,7.88954,2.47323
413,484,4.4895,-1.08673,0,0,0,0,0,0,0,-1,1637,540,4.48952,1.08674
420,484,4.50012,-2.11255,0,0,0,0,0,0,0,-1,1644,540,4.50012,2.11256
427,484,5.28601,-3.54053,0,0,0,0,0,0,0,-1,1651,540,5.28599,3.54051
434,484,11.1488,-13.5359,0,0,0,0,0,0,0,-1,1658,540,11.1489,13.5359
441,484,13.205,-18.1697,0,0,0,0,0,0,0,-1,1665,540,13.205,18.1697
448,484,15.3506,-22.1785,0,0,0,0,0,0,0,-1,1672,540,15.3505,22.1785
455,484,15.4448,-21.3884,0,0,0,0,0,0,0,-1,1679,540,15.4448,21.3884
462,484,15.4725,-20.7175,0.00172459,0.00169861,-0.000335834,0.00204768,0.00137551,-0.766069,0.00120525,0.0280873,1686,540,15.4726,20.7175
469,484,15.4559,-20.1335,0.00159962,0.00155393,-0.000314815,0.00189242,0.00126113,-0.749177,0.00111258,0.0182994,1693,540,15.4559,20.1335
476,484,15.4325,-19.5159,0.00156781,0.00139588,-0.00017718,0.00167878,0.00128491,-0.55954,0.00101373,0.015334,1700,540,15.4325,19.5158
483,484,15.4155,-18.9146,0.00140258,0.00132603,0.000146399,0.00151563,0.00121299,0.657529,0.000926169,0.0122074,1707,540,15.4155,18.9146
490,484,15.3905,-18.3454,0.00106865,0.00141465,0.000452081,0.0017257,0.000757596,0.968139,0.000998801,0.012493,1714,540,15.3905,18.3454
497,484,15.3661,-17.7269,0.000667391,0.00145445,0.000884809,0.0020293,9.25446e-05,0.994643,0.0013231,0.0141302,1721,540,15.3661,17.7269
504,484,15.3553,-17.1005,0.000215476,0.0014174,0.00133291,0.00227856,-0.000645683,0.997185,0.00177388,0.016462,1728,540,15.3553,17.1005
511,484,15.3358,-16.474,-0.00038227,0.00135697,0.001744,0.00243614,-0.00146143,1.01668,0.0022736,0.019288,1735,540,15.3358,16.474
518,484,15.2968,-15.8455,-0.00116309,0.00127616,0.00203262,0.00242699,-0.00231391,1.05562,0.00273742,0.0160962,1742,540,15.2967,15.8454
525,484,15.2643,-15.22,-0.00200257,0.00111216,0.00222332,0.00226931,-0.00315971,1.09092,0.00314847,0.0133817,1749,540,15.2642,15.22
532,484,15.261,-14.5545,-0.00287141,0.000978508,0.00232797,0.0020743,-0.0039672,1.13086,0.00354467,0.0155694,1756,540,15.261,14.5545
539,484,15.2058,-13.8798,-0.00379052,0.000840736,0.00231128,0.00179683,-0.00474661,1.17857,0.00390372,0.0382751,1763,540,15.2058,13.8798
546,484,15.163,-13.092,0,0,0,0,0,0,0,-1,1770,540,15.1629,13.092
553,484,12.4246,-8.96423,0,0,0,0,0,0,0,-1,1777,540,12.4246,8.96422
560,484,10.0549,-5.47931,0,0,0,0,0,0,0,-1,1784,540,10.055,5.47928
567,484,7.78223,-1.38312,0,0,0,0,0,0,0,-1,1791,540,7.78224,1.38311
574,484,5.74463,1.50922,0,0,0,0,0,0,0,-1,1798,540,5.74463,-1.50924
581,484,10.34,2.9491,0,0,0,0,0,0,0,-1,1805,540,10.34,-2.94912
588,484,10.6669,2.88568,0,0,0,0,0,0,0,-1,1812,540,10.6669,-2.88567
595,484,10.7233,1.04767,0,0,0,0,0,0,0,-1,1819,540,10.7233,-1.04766
602,484,0,0,0,0,0,0,0,0,0,-1,1826,540,0,0
609,484,0,0,0,0,0,0,0,0,0,-1,1833,540,0,0
616,484,0,0,0,0,0,0,0,0,0,-1,1840,540,0,0
623,484,0,0,0,0,0,0,0,0,0,-1,1847,540,0,0
630,484,0,0,0,0,0,0,0,0,0,-1,1854,540,0,0
637,484,0,0,0,0,0,0,0,0,0,-1,1861,540,0,0
644,484,0,0,0,0,0,0,0,0,0,-1,1868,540,0,0
651,484,0,0,0,0,0,0,0,0,0,-1,1875,540,0,0
658,484,0,0,0,0,0,0,0,0,0,-1,1882,540,0,0
665,484,0,0,0,0,0,0,0,0,0,-1,1889,540,0,0
672,484,0,0,0,0,0,0,0,0,0,-1,1896,540,0,0
679,484,0,0,0,0,0,0,0,0,0,-1,1903,540,0,0
686,484,0,0,0,0,0,0,0,0,0,-1,1910,540,0,0
693,484,0,0,0,0,0,0,0,0,0,-1,1917,540,0,0
700,484,0,0,0,0,0,0,0,0,0,-1,1924,540,0,0
707,484,0,0,0,0,0,0,0,0,0,-1,1931,540,0,0
714,484,0,0,0,0,0,0,0,0,0,-1,1938,540,0,0
721,484,0,0,0,0,0,0,0,0,0,-1,1945,540,0,0
728,484,0,0,0,0,0,0,0,0,0,-1,1952,540,0,0
735,484,0,0,0,0,0,0,0,0,0,-1,1959,540,0,0
742,484,0,0,0,0,0,0,0,0,0,-1,1966,540,0,0
749,484,0,0,0,0,0,0,0,0,0,-1,1973,540,0,0
756,484,0,0,0,0,0,0,0,0,0,-1,1980,540,0,0
763,484,0,0,0,0,0,0,0,0,0,-1,1987,540,0,0
770,484,0,0,0,0,0,0,0,0,0,-1,1994,540,0,0
777,484,0,0,0,0,0,0,0,0,0,-1,2001,540,0,0
784,484,0,0,0,0,0,0,0,0,0,-1,2008,540,0,0
791,484,0,0,0,0,0,0,0,0,0,-1,2015,540,0,0
798,484,0,0,0,0,0,0,0,0,0,-1,2022,540,0,0
805,484,0,0,0,0,0,0,0,0,0,-1,2029,540,0,0
812,484,0,0,0,0,0,0,0,0,0,-1,2036,540,0,0
-700,477,0,0,0,0,0,0,0,0,0,-1,524,547,0,0
-693,477,0,0,0,0,0,0,0,0,0,-1,531,547,0,0
-686,477,0,0,0,0,0,0,0,0,0,-1,538,547,0,0
-679,477,0,0,0,0,0,0,0,0,0,-1,545,547,0,0
-672,477,0,0,0,0,0,0,0,0,0,-1,552,547,0,0
-665,477,0,0,0,0,0,0,0,0,0,-1,559,547,0,0
-658,477,0,0,0,0,0,0,0,0,0,-1,566,547,0,0
-651,477,0,0,0,0,0,0,0,0,0,-1,573,547,0,0
-644,477,0,0,0,0,0,0,0,0,0,-1,580,547,0,0
-637,477,0,0,0,0,0,0,0,0,0,-1,587,547,0,0
-630,477,0,0,0,0,0,0,0,0,0,-1,594,547,0,0
-623,477,0,0,0,0,0,0,0,0,0,-1,601,547,0,0
-616,477,0,0,0,0,0,0,0,0,0,-1,608,547,0,0
-609,477,0,0,0,0,0,0,0,0,0,-1,615,547,0,0
-602,477,0,0,0,0,0,0,0,0,0,-1,622,547,0,0
-595,477,0,0,0,0,0,0,0,0,0,-1,629,547,0,0
-588,477,0,0,0,0,0,0,0,0,0,-1,636,547,0,0
-581,477,0,0,0,0,0,0,0,0,0,-1,643,547,0,0
-574,477,0,0,0,0,0,0,0,0,0,-1,650,547,0,0
-567,477,0,0,0,0,0,0,0,0,0,-1,657,547,0,0
-560,477,0,0,0,0,0,0,0,0,0,-1,664,547,0,0
-553,477,0,0,0,0,0,0,0,0,0,-1,671,547,0,0
-546,477,0,0,0,0,0,0,0,0,0,-1,678,547,0,0
-539,477,0,0,0,0,0,0,0,0,0,-1,685,547,0,0
-532,477,0,0,0,0,0,0,0,0,0,-1,692,547,0,0
-525,477,0,0,0,0,0,0,0,0,0,-1,699,547,0,0
-518,477,0,0,0,0,0,0,0,0,0,-1,706,547,0,0
-511,477,0,0,0,0,0,0,0,0,0,-1,713,547,0,0
-504,477,0,0,0,0,0,0,0,0,0,-1,720,547,0,0
-497,477,0,0,0,0,0,0,0,0,0,-1,727,547,0,0
-490,477,0,0,0,0,0,0,0,0,0,-1,734,547,0,0
-483,477,-7.73151,-0.224182,0,0,0,0,0,0,0,-1,741,547,-7.73152,0.224176
-476,477,-6.25806,-0.310547,0,0,0,0,0,0,0,-1,748,547,-6.25804,0.310549
-469,477,-7.26617,0.525085,0,0,0,0,0,0,0,-1,755,547,-7.2662,-0.525111
-462,477,-6.65143,1.06042,0,0,0,0,0,0,0,-1,762,547,-6.65143,-1.06043
-455,477,-5.31757,0.429016,0,0,0,0,0,0,0,-1,769,547,-5.31756,-0.42902
-448,477,-4.0697,0.273376,0,0,0,0,0,0,0,-1,776,547,-4.06971,-0.273363
-441,477,-2.47504,-4.76971,0,0,0,0,0,0,0,-1,783,547,-2.47505,4.76973
-434,477,-4.39331,-13.5826,0,0,0,0,0,0,0,-1,790,547,-4.39331,13.5826
-427,477,-4.63098,-13.8213,0.00351845,0.0178839,-0.00770106,0.021232,0.000170372,-1.16069,0.0140982,0.0435406,797,547,-4.63097,13.8213
-420,477,-4.68787,-14.2881,0.00231465,0.0155612,-0.00679697,0.0184283,-0.000552413,-1.17163,0.0124737,0.035293,804,547,-4.68784,14.2882
-413,477,-4.68793,-15.1751,0.00185224,0.0133598,-0.00617772,0.0160482,-0.000836156,-1.16034,0.0109881,0.0205091,811,547,-4.68792,15.1751
-406,477,-4.77295,-15.8774,0.00161784,0.0111182,-0.00536422,0.0135332,-0.000797103,-1.14778,0.00929921,0.0116989,818,547,-4.77297,15.8774
-399,477,-4.78979,-16.4742,0.00135842,0.00891567,-0.00443517,0.0109636,-0.000689504,-1.13822,0.00754941,0.0197904,825,547,-4.78981,16.4742
-392,477,-4.82153,-17.0969,0.00130899,0.00671769,-0.00351972,0.00845203,-0.000425349,-1.11297,0.00578169,0.0180906,832,547,-4.82155,17.0969
-385,477,-4.83087,-17.6963,0.00144969,0.00471789,-0.00269185,0.00623281,-6.52347e-05,-1.05819,0.00417712,0.0143853,839,547,-4.83087,17.6963
-378,477,-4.85785,-18.3013,0.00165447,0.00280994,-0.00189449,0.00421283,0.000251586,-0.933397,0.00272856,0.0131076,846,547,-4.85785,18.3014
-371,477,-4.89178,-18.8934,0.00194162,0.0010135,-0.00116929,0.00273557,0.000219547,-0.596496,0.00175512,0.0136936,853,547,-4.89179,18.8934
-364,477,-4.91022,-19.462,0.00231646,-0.00065426,-0.000473813,0.0023902,-0.000728,-0.154392,0.00188363,0.0138644,860,547,-4.91023,19.462
-357,477,-4.95435,-20.0539,0.00282663,-0.00201073,7.95201e-05,0.00282794,-0.00201203,0.0164328,0.00280756,0.0111734,867,547,-4.95433,20.0539
-350,477,-4.97131,-20.6376,0.00353248,-0.00287558,0.000315549,0.00354799,-0.00289109,0.0490842,0.00372404,0.0106839,874,547,-4.9713,20.6376
-343,477,-4.90479,-21.2447,0.00422652,-0.00372166,0.000522935,0.00426077,-0.00375592,0.0654172,0.0046315,0.0207812,881,547,-4.90478,21.2447
-336,477,-4.79047,-21.8422,0.00502048,-0.00458254,0.000716498,0.00507364,-0.0046357,0.0740652,0.00560759,0.0442659,888,547,-4.79049,21.8422
-329,477,-4.81555,-22.4347,0,0,0,0,0,0,0,-1,895,547,-4.81553,22.4347
-322,477,-2.04822,-12.0026,0,0,0,0,0,0,0,-1,902,547,-2.04819,12.0026
-315,477,-1.67358,-9.15253,0,0,0,0,0,0,0,-1,909,547,-1.67356,9.15253
-308,477,-1.30127,-6.55188,0,0,0,0,0,0,0,-1,916,547,-1.30128,6.55185
-301,477,-1.21185,-6.28351,0,0,0,0,0,0,0,-1,923,547,-1.21184,6.28352
-294,477,-0.352905,3.27142,0,0,0,0,0,0,0,-1,930,547,-0.35292,-3.27144
-287,477,3.54364,2.15399,0,0,0,0,0,0,0,-1,937,547,3.54362,-2.15396
-280,477,1.97308,-0.954163,0,0,0,0,0,0,0,-1,944,547,1.9731,0.954178
-273,477,2.11621,-3.76709,0,0,0,0,0,0,0,-1,951,547,2.11619,3.76706
-266,477,2.04669,-3.42389,0,0,0,0,0,0,0,-1,958,547,2.04671,3.42391
-259,477,-1.33478,-3.41205,0,0,0,0,0,0,0,-1,965,547,-1.3348,3.41206
-252,477,0.597168,-5.32922,0,0,0,0,0,0,0,-1,972,547,0.597144,5.32924
-245,477,8.2309,-8.48492,0,0,0,0,0,0,0,-1,979,547,8.23091,8.48494
-238,477,6.60938,-5.64063,0,0,0,0,0,0,0,-1,986,547,6.60938,5.64063
-231,477,4.71716,-2.52484,0,0,0,0,0,0,0,-1,993,547,4.71716,2.52483
-224,477,0,0,0,0,0,0,0,0,0,-1,1000,547,0,0
-217,477,0,0,0,0,0,0,0,0,0,-1,1007,547,0,0
-210,477,0,0,0,0,0,0,0,0,0,-1,1014,547,0,0
-203,477,0,0,0,0,0,0,0,0,0,-1,1021,547,0,0
-196,477,0,0,0,0,0,0,0,0,0,-1,1028,547,0,0
-189,477,0,0,0,0,0,0,0,0,0,-1,1035,547,0,0
-182,477,0,0,0,0,0,0,0,0,0,-1,1042,547,0,0
-175,477,0,0,0,0,0,0,0,0,0,-1,1049,547,0,0
-168,477,0,0,0,0,0,0,0,0,0,-1,1056,547,0,0
-161,477,0,0,0,0,0,0,0,0,0,-1,1063,547,0,0
-154,477,0,0,0,0,0,0,0,0,0,-1,1070,547,0,0
-147,477,0,0,0,0,0,0,0,0,0,-1,1077,547,0,0
-140,477,0,0,0,0,0,0,0,0,0,-1,1084,547,0,0
-133,477,0,0,0,0,0,0,0,0,0,-1,1091,547,0,0
-126,477,0,0,0,0,0,0,0,0,0,-1,1098,547,0,0
-119,477,0,0,0,0,0,0,0,0,0,-1,1105,547,0,0
-112,477,0,0,0,0,0,0,0,0,0,-1,1112,547,0,0
-105,477,0,0,0,0,0,0,0,0,0,-1,1119,547,0,0
-98,477,0,0,0,0,0,0,0,0,0,-1,1126,547,0,0
-91,477,0,0,0,0,0,0,0,0,0,-1,1133,547,0,0
-84,477,0,0,0,0,0,0,0,0,0,-1,1140,547,0,0
-77,477,0,0,0,0,0,0,0,0,0,-1,1147,547,0,0
-70,477,0,0,0,0,0,0,0,0,0,-1,1154,547,0,0
-63,477,0,0,0,0,0,0,0,0,0,-1,1161,547,0,0
-56,477,0,0,0,0,0,0,0,0,0,-1,1168,547,0,0
-49,477,0,0,0,0,0,0,0,0,0,-1,1175,547,0,0
-42,477,0,0,0,0,0,0,0,0,0,-1,1182,547,0,0
-35,477,0,0,0,0,0,0,0,0,0,-1,1189,547,0,0
-28,477,0,0,0,0,0,0,0,0,0,-1,1196,547,0,0
-21,477,0,0,0,0,0,0,0,0,0,-1,1203,547,0,0
-14,477,0,0,0,0,0,0,0,0,0,-1,1210,547,0,0
-7,477,0,0,0,0,0,0,0,0,0,-1,1217,547,0,0
0,477,0,0,0,0,0,0,0,0,0,-1,1224,547,0,0
7,477,0,0,0,0,0,0,0,0,0,-1,1231,547,0,0
14,477,0,0,0,0,0,0,0,0,0,-1,1238,547,0,0
21,477,0,0,0,0,0,0,0,0,0,-1,1245,547,0,0
28,477,0,0,0,0,0,0,0,0,0,-1,1252,547,0,0
35,477,0,0,0,0,0,0,0,0,0,-1,1259,547,0,0
42,477,0,0,0,0,0,0,0,0,0,-1,1266,547,0,0
49,477,0,0,0,0,0,0,0,0,0,-1,1273,547,0,0
56,477,0,0,0,0,0,0,0,0,0,-1,1280,547,0,0
63,477,0,0,0,0,0,0,0,0,0,-1,1287,547,0,0
70,477,0,0,0,0,0,0,0,0,0,-1,1294,547,0,0
77,477,0,0,0,0,0,0,0,0,0,-1,1301,547,0,0
84,477,0,0,0,0,0,0,0,0,0,-1,1308,547,0,0
91,477,0,0,0,0,0,0,0,0,0,-1,1315,547,0,0
98,477,0,0,0,0,0,0,0,0,0,-1,1322,547,0,0
105,477,0,0,0,0,0,0,0,0,0,-1,1329,547,0,0
112,477,0,0,0,0,0,0,0,0,0,-1,1336,547,0,0
119,477,0,0,0,0,0,0,0,0,0,-1,1343,547,0,0
126,477,0,0,0,0,0,0,0,0,0,-1,1350,547,0,0
133,477,0,0,0,0,0,0,0,0,0,-1,1357,547,0,0
140,477,0,0,0,0,0,0,0,0,0,-1,1364,547,0,0
147,477,0,0,0,0,0,0,0,0,0,-1,1371,547,0,0
154,477,0,0,0,0,0,0,0,0,0,-1,1378,547,0,0
161,477,0,0,0,0,0,0,0,0,0,-1,1385,547,0,0
168,477,0,0,0,0,0,0,0,0,0,-1,1392,547,0,0
175,477,0,0,0,0,0,0,0,0,0,-1,1399,547,0,0
182,477,0,0,0,0,0,0,0,0,0,-1,1406,547,0,0
189,477,0,0,0,0,0,0,0,0,0,-1,1413,547,0,0
196,477,0,0,0,0,0,0,0,0,0,-1,1420,547,0,0
203,477,0,0,0,0,0,0,0,0,0,-1,1427,547,0,0
210,477,0,0,0,0,0,0,0,0,0,-1,1434,547,0,0
217,477,0,0,0,0,0,0,0,0,0,-1,1441,547,0,0
224,477,0,0,0,0,0,0,0,0,0,-1,1448,547,0,0
231,477,0,0,0,0,0,0,0,0,0,-1,1455,547,0,0
238,477,0,0,0,0,0,0,0,0,0,-1,1462,547,0,0
245,477,0,0,0,0,0,0,0,0,0,-1,1469,547,0,0
252,477,0,0,0,0,0,0,0,0,0,-1,1476,547,0,0
259,477,0,0,0,0,0,0,0,0,0,-1,1483,547,0,0
266,477,0,0,0,0,0,0,0,0,0,-1,1490,547,0,0
273,477,0,0,0,0,0,0,0,0,0,-1,1497,547,0,0
280,477,0,0,0,0,0,0,0,0,0,-1,1504,547,0,0
287,477,0,0,0,0,0,0,0,0,0,-1,1511,547,0,0
294,477,0,0,0,0,0,0,0,0,0,-1,1518,547,0,0
301,477,0,0,0,0,0,0,0,0,0,-1,1525,547,0,0
308,477,0,0,0,0,0,0,0,0,0,-1,1532,547,0,0
315,477,0,0,0,0,0,0,0,0,0,-1,1539,547,0,0
322,477,0,0,0,0,0,0,0,0,0,-1,1546,547,0,0
329,477,0,0,0,0,0,0,0,0,0,-1,1553,547,0,0
336,477,0,0,0,0,0,0,0,0,0,-1,1560,547,0,0
343,477,0,0,0,0,0,0,0,0,0,-1,1567,547,0,0
350,477,1.7699,-3.32275,0,0,0,0,0,0,0,-1,1574,547,1.7699,3.32272
357,477,3.073,-4.83313,0,0,0,0,0,0,0,-1,1581,547,3.07303,4.83316
364,477,4.30127,-4.22864,0,0,0,0,0,0,0,-1,1588,547,4.30125,4.22865
371,477,4.57703,0.283264,0,0,0,0,0,0,0,-1,1595,547,4.57706,-0.283262
378,477,8.57947,1.05969,0,0,0,0,0,0,0,-1,1602,547,8.5795,-1.05972
385,477,12.3726,2.02356,0,0,0,0,0,0,0,-1,1609,547,12.3725,-2.02355
392,477,16.4678,2.76843,0,0,0,0,0,0,0,-1,1616,547,16.4678,-2.76845
399,477,8.00037,-2.29523,0,0,0,0,0,0,0,-1,1623,547,8.00031,2.2952
406,477,4.82495,2.7475,0,0,0,0,0,0,0,-1,1630,547,4.825,-2.74752
413,477,4.88171,-0.336426,0,0,0,0,0,0,0,-1,1637,547,4.88169,0.336398
420,477,3.34875,0.102722,0,0,0,0,0,0,0,-1,1644,547,3.34871,-0.1027
427,477,1.66772,-0.373108,0,0,0,0,0,0,0,-1,1651,547,1.66768,0.373104
434,477,3.76978,-2.30798,0,0,0,0,0,0,0,-1,1658,547,3.76974,2.30801
441,477,4.05444,-2.80402,0,0,0,0,0,0,0,-1,1665,547,4.05444,2.804
448,477,10.4247,-11.7421,0,0,0,0,0,0,0,-1,1672,547,10.4247,11.7421
455,477,13.3054,-16.8109,0,0,0,0,0,0,0,-1,1679,547,13.3054,16.8109
462,477,16.0433,-20.8351,0,0,0,0,0,0,0,-1,1686,547,16.0433,20.8351
469,477,16.0365,-20.2322,0,0,0,0,0,0,0,-1,1693,547,16.0365,20.2322
476,477,16.0587,-19.5306,0.00168929,0.00160747,-0.000402462,0.00205291,0.00124384,-0.734751,0.00119408,0.0215535,1700,547,16.0587,19.5306
483,477,16.0576,-18.9124,0.00165818,0.0014182,-0.000105645,0.00169806,0.00137832,-0.360958,0.00104194,0.0117777,1707,547,16.0576,18.9124
490,477,16.0044,-18.3088,0.00144093,0.00145409,0.000144263,0.00159192,0.00130309,0.808187,0.000979306,0.0122658,1714,547,16.0043,18.3088
497,477,15.9794,-17.6653,0.00113321,0.00141498,0.000513926,0.00180698,0.00074121,0.919176,0.00104886,0.0131789,1721,547,15.9794,17.6654
504,477,15.9611,-17.0679,0.000771056,0.00130779,0.000880517,0.00195993,0.000118916,0.933317,0.00126884,0.0175793,1728,547,15.9611,17.0679
511,477,15.9866,-16.5029,0.000270207,0.00121244,0.00122271,0.00205166,-0.000569005,0.969286,0.00159171,0.0229075,1735,547,15.9866,16.5029
518,477,15.9587,-15.8654,-0.000387485,0.00112521,0.001466,0.00201847,-0.00128075,1.02355,0.00192061,0.0203268,1742,547,15.9587,15.8654
525,477,15.8965,-15.1937,-0.00109098,0.000994849,0.00163077,0.00188768,-0.0019838,1.06988,0.00223543,0.0169075,1749,547,15.8965,15.1937
532,477,15.8575,-14.5555,-0.00181109,0.000918961,0.00174395,0.00176858,-0.00266071,1.11746,0.00257448,0.0188105,1756,547,15.8576,14.5555
539,477,15.8395,-13.867,-0.00254697,0.00084897,0.00177041,0.00160405,-0.00330205,1.16766,0.00288854,0.0170083,1763,547,15.8395,13.867
546,477,15.7588,-13.2928,-0.00324589,0.000987692,0.00180446,0.00165243,-0.00391063,1.21784,0.00329886,0.0401243,1770,547,15.7588,13.2928
553,477,15.8119,-12.514,0,0,0,0,0,0,0,-1,1777,547,15.8119,12.514
560,477,15.7545,-11.2979,0,0,0,0,0,0,0,-1,1784,547,15.7545,11.2979
567,477,13.9529,-8.70972,0,0,0,0,0,0,0,-1,1791,547,13.9529,8.7097
574,477,6.82593,-0.916992,0,0,0,0,0,0,0,-1,1798,547,6.82598,0.916977
581,477,9.29321,-0.557007,0,0,0,0,0,0,0,-1,1805,547,9.29324,0.55703
588,477,9.75195,0.422729,0,0,0,0,0,0,0,-1,1812,547,9.75198,-0.42273
595,477,9.89172,1.21326,0,0,0,0,0,0,0,-1,1819,547,9.89174,-1.21328
602,477,6.5271,-0.964417,0,0,0,0,0,0,0,-1,1826,547,6.52706,0.964427
609,477,0,0,0,0,0,0,0,0,0,-1,1833,547,0,0
616,477,0,0,0,0,0,0,0,0,0,-1,1840,547,0,0
623,477,0,0,0,0,0,0,0,0,0,-1,1847,547,0,0
630,477,0,0,0,0,0,0,0,0,0,-1,1854,547,0,0
637,477,0,0,0,0,0,0,0,0,0,-1,1861,547,0,0
644,477,0,0,0,0,0,0,0,0,0,-1,1868,547,0,0
651,477,0,0,0,0,0,0,0,0,0,-1,1875,547,0,0
658,477,0,0,0,0,0,0,0,0,0,-1,1882,547,0,0
665,477,0,0,0,0,0,0,0,0,0,-1,1889,547,0,0
672,477,0,0,0,0,0,0,0,0,0,-1,1896,547,0,0
679,477,0,0,0,0,0,0,0,0,0,-1,1903,547,0,0
686,477,0,0,0,0,0,0,0,0,0,-1,1910,547,0,0
693,477,0,0,0,0,0,0,0,0,0,-1,1917,547,0,0
700,477,0,0,0,0,0,0,0,0,0,-1,1924,547,0,0
707,477,0,0,0,0,0,0,0,0,0,-1,1931,547,0,0
714,477,0,0,0,0,0,0,0,0,0,-1,1938,547,0,0
721,477,0,0,0,0,0,0,0,0,0,-1,1945,547,0,0
728,477,0,0,0,0,0,0,0,0,0,-1,1952,547,0,0
735,477,0,0,0,0,0,0,0,0,0,-1,1959,547,0,0
742,477,0,0,0,0,0,0,0,0,0,-1,1966,547,0,0
749,477,0,0,0,0,0,0,0,0,0,-1,1973,547,0,0
756,477,0,0,0,0,0,0,0,0,0,-1,1980,547,0,0
763,477,0,0,0,0,0,0,0,0,0,-1,1987,547,0,0
770,477,0,0,0,0,0,0,0,0,0,-1,1994,547,0,0
777,477,0,0,0,0,0,0,0,0,0,-1,2001,547,0,0
784,477,0,0,0,0,0,0,0,0,0,-1,2008,547,0,0
791,477,0,0,0,0,0,0,0,0,0,-1,2015,547,0,0
798,477,0,0,0,0,0,0,0,0,0,-1,2022,547,0,0
805,477,0,0,0,0,0,0,0,0,0,-1,2029,547,0,0
812,477,0,0,0,0,0,0,0,0,0,-1,2036,547,0,0
-700,470,0,0,0,0,0,0,0,0,0,-1,524,554,0,0
-693,470,0,0,0,0,0,0,0,0,0,-1,531,554,0,0
-686,470,0,0,0,0,0,0,0,0,0,-1,538,554,0,0
-679,470,0,0,0,0,0,0,0,0,0,-1,545,554,0,0
-672,470,0,0,0,0,0,0,0,0,0,-1,552,554,0,0
-665,470,0,0,0,0,0,0,0,0,0,-1,559,554,0,0
-658,470,0,0,0,0,0,0,0,0,0,-1,566,554,0,0
-651,470,0,0,0,0,0,0,0,0,0,-1,573,554,0,0
-644,470,0,0,0,0,0,0,0,0,0,-1,580,554,0,0
-637,470,0,0,0,0,0,0,0,0,0,-1,587,554,0,0
-630,470,0,0,0,0,0,0,0,0,0,-1,594,554,0,0
-623,470,0,0,0,0,0,0,0,0,0,-1,601,554,0,0
-616,470,0,0,0,0,0,0,0,0,0,-1,608,554,0,0
-609,470,0,0,0,0,0,0,0,0,0,-1,615,554,0,0
-602,470,0,0,0,0,0,0,0,0,0,-1,622,554,0,0
-595,470,0,0,0,0,0,0,0,0,0,-1,629,554,0,0
-588,470,0,0,0,0,0,0,0,0,0,-1,636,554,0,0
-581,470,0,0,0,0,0,0,0,0,0,-1,643,554,0,0
-574,470,0,0,0,0,0,0,0,0,0,-1,650,554,0,0
-567,470,0,0,0,0,0,0,0,0,0,-1,657,554,0,0
-560,470,0,0,0,0,0,0,0,0,0,-1,664,554,0,0
-553,470,0,0,0,0,0,0,0,0,0,-1,671,554,0,0
-546,470,0,0,0,0,0,0,0,0,0,-1,678,554,0,0
-539,470,0,0,0,0,0,0,0,0,0,-1,685,554,0,0
-532,470,0,0,0,0,0,0,0,0,0,-1,692,554,0,0
-525,470,0,0,0,0,0,0,0,0,0,-1,699,554,0,0
-518,470,0,0,0,0,0,0,0,0,0,-1,706,554,0,0
-511,470,0,0,0,0,0,0,0,0,0,-1,713,554,0,0
-504,470,0,0,0,0,0,0,0,0,0,-1,720,554,0,0
-497,470,0,0,0,0,0,0,0,0,0,-1,727,554,0,0
-490,470,-9.13263,-1.03125,0,0,0,0,0,0,0,-1,734,554,-9.1326,1.03127
-483,470,-7.68677,-1.03955,0,0,0,0,0,0,0,-1,741,554,-7.68678,1.03958
-476,470,-6.17969,-1.03394,0,0,0,0,0,0,0,-1,748,554,-6.17971,1.03395
-469,470,-6.23016,-0.651855,0,0,0,0,0,0,0,-1,755,554,-6.23014,0.651829
-462,470,-4.87915,-1.03705,0,0,0,0,0,0,0,-1,762,554,-4.87914,1.03702
-455,470,-4.14777,-1.37079,0,0,0,0,0,0,0,-1,769,554,-4.14779,1.37078
-448,470,-2.9314,-5.74518,0,0,0,0,0,0,0,-1,776,554,-2.93137,5.74518
-441,470,-4.83759,-12.0768,0,0,0,0,0,0,0,-1,783,554,-4.83758,12.0768
-434,470,-5.2901,-13.2496,0,0,0,0,0,0,0,-1,790,554,-5.29008,13.2496
-427,470,-5.32599,-13.9103,0.00289946,0.0131844,-0.00572628,0.0157384,0.000345487,-1.15127,0.010379,0.0225752,797,554,-5.32599,13.9103
-420,470,-5.2998,-14.5746,0.00191316,0.0112815,-0.00486931,0.0133539,-0.000159268,-1.16841,0.00895618,0.016023,804,554,-5.2998,14.5746
-413,470,-5.33368,-15.24,0.00155299,0.00956004,-0.00435632,0.0114731,-0.000360051,-1.15701,0.00777152,0.0140242,811,554,-5.3337,15.24
-406,470,-5.35736,-15.8447,0.00141327,0.00774548,-0.00367557,0.00943057,-0.000271813,-1.14093,0.00637958,0.0116754,818,554,-5.35736,15.8447
-399,470,-5.38641,-16.4545,0.00129246,0.00598011,-0.00292687,0.00738596,-0.00011339,-1.12301,0.0049622,0.0151077,825,554,-5.38641,16.4545
-392,470,-5.40179,-17.0674,0.00137237,0.00415614,-0.00218266,0.00535295,0.000175559,-1.06924,0.00351158,0.013773,832,554,-5.4018,17.0674
-385,470,-5.42316,-17.6617,0.00161529,0.00249686,-0.00152539,0.00364388,0.000468272,-0.926048,0.00228918,0.0107391,839,554,-5.42313,17.6618
-378,470,-5.44305,-18.265,0.00189654,0.000871938,-0.000874155,0.00239745,0.000371026,-0.520348,0.0014901,0.0153446,846,554,-5.44308,18.2649
-371,470,-5.46088,-18.8644,0.00226481,-0.000665527,-0.000269329,0.00228936,-0.000690075,-0.090896,0.00180089,0.0144702,853,554,-5.46088,18.8644
-364,470,-5.48749,-19.4175,0.00272639,-0.00205523,0.000270801,0.00274168,-0.00207052,0.0563933,0.00278732,0.0152724,860,554,-5.48749,19.4175
-357,470,-5.53784,-19.9926,0.00332434,-0.00323349,0.000657615,0.00338963,-0.00329878,0.0989664,0.00386168,0.0149778,867,554,-5.53782,19.9926
-350,470,-5.54126,-20.6089,0.00418548,-0.00379069,0.00062981,0.0042349,-0.00384011,0.0783148,0.00466397,0.0118351,874,554,-5.54128,20.6089
-343,470,-5.42731,-21.1876,0.00503056,-0.00453839,0.000646624,0.00507406,-0.00458189,0.0671682,0.00557728,0.0446131,881,554,-5.42729,21.1876
-336,470,-5.18738,-21.8688,0,0,0,0,0,0,0,-1,888,554,-5.18739,21.8688
-329,470,-2.78516,-12.3594,0,0,0,0,0,0,0,-1,895,554,-2.78517,12.3594
-322,470,-2.30829,-11.4527,0,0,0,0,0,0,0,-1,902,554,-2.30827,11.4527
-315,470,-1.04797,-8.29529,0,0,0,0,0,0,0,-1,909,554,-1.04797,8.29526
-308,470,-1.39368,-6.68152,0,0,0,0,0,0,0,-1,916,554,-1.39369,6.68149
-301,470,-0.0340576,3.34888,0,0,0,0,0,0,0,-1,923,554,-0.0340496,-3.3489
-294,470,-1.18378,3.22266,0,0,0,0,0,0,0,-1,930,554,-1.18376,-3.22268
-287,470,-2.15454,3.2204,0,0,0,0,0,0,0,-1,937,554,-2.15452,-3.22037
-280,470,-3.00537,3.099,0,0,0,0,0,0,0,-1,944,554,-3.00536,-3.09898
-273,470,-12.3932,3.65009,0,0,0,0,0,0,0,-1,951,554,-12.3932,-3.65011
-266,470,-11.5706,1.16028,0,0,0,0,0,0,0,-1,958,554,-11.5706,-1.16031
-259,470,-7.50415,-2.77167,0,0,0,0,0,0,0,-1,965,554,-7.50413,2.7717
-252,470,-0.371155,-5.87823,0,0,0,0,0,0,0,-1,972,554,-0.37114,5.87821
-245,470,1.33221,-6.81122,0,0,0,0,0,0,0,-1,979,554,1.33223,6.8112
-238,470,0,0,0,0,0,0,0,0,0,-1,986,554,0,0
-231,470,0,0,0,0,0,0,0,0,0,-1,993,554,0,0
-224,470,0,0,0,0,0,0,0,0,0,-1,1000,554,0,0
-217,470,0,0,0,0,0,0,0,0,0,-1,1007,554,0,0
-210,470,0,0,0,0,0,0,0,0,0,-1,1014,554,0,0
-203,470,0,0,0,0,0,0,0,0,0,-1,1021,554,0,0
-196,470,0,0,0,0,0,0,0,0,0,-1,1028,554,0,0
-189,470,0,0,0,0,0,0,0,0,0,-1,1035,554,0,0
-182,470,0,0,0,0,0,0,0,0,0,-1,1042,554,0,0
-175,470,0,0,0,0,0,0,0,0,0,-1,1049,554,0,0
-168,470,0,0,0,0,0,0,0,0,0,-1,1056,554,0,0
-161,470,0,0,0,0,0,0,0,0,0,-1,1063,554,0,0
-154,470,0,0,0,0,0,0,0,0,0,-1,1070,554,0,0
-147,470,0,0,0,0,0,0,0,0,0,-1,1077,554,0,0
-140,470,0,0,0,0,0,0,0,0,0,-1,1084,554,0,0
-133,470,0,0,0,0,0,0,0,0,0,-1,1091,554,0,0
-126,470,0,0,0,0,0,0,0,0,0,-1,1098,554,0,0
-119,470,0,0,0,0,0,0,0,0,0,-1,1105,554,0,0
-112,470,0,0,0,0,0,0,0,0,0,-1,1112,554,0,0
-105,470,0,0,0,0,0,0,0,0,0,-1,1119,554,0,0
-98,470,0,0,0,0,0,0,0,0,0,-1,1126,554,0,0
-91,470,0,0,0,0,0,0,0,0,0,-1,1133,554,0,0
-84,470,0,0,0,0,0,0,0,0,0,-1,1140,554,0,0
-77,470,0,0,0,0,0,0,0,0,0,-1,1147,554,0,0
-70,470,0,0,0,0,0,0,0,0,0,-1,1154,554,0,0
-63,470,0,0,0,0,0,0,0,0,0,-1,1161,554,0,0
-56,470,0,0,0,0,0,0,0,0,0,-1,1168,554,0,0
-49,470,0,0,0,0,0,0,0,0,0,-1,1175,554,0,0
-42,470,0,0,0,0,0,0,0,0,0,-1,1182,554,0,0
-35,470,0,0,0,0,0,0,0,0,0,-1,1189,554,0,0
-28,470,0,0,0,0,0,0,0,0,0,-1,1196,554,0,0
-21,470,0,0,0,0,0,0,0,0,0,-1,1203,554,0,0
-14,470,0,0,0,0,0,0,0,0,0,-1,1210,554,0,0
-7,470,0,0,0,0,0,0,0,0,0,-1,1217,554,0,0
0,470,0,0,0,0,0,0,0,0,0,-1,1224,554,0,0
7,470,0,0,0,0,0,0,0,0,0,-1,1231,554,0,0
14,470,0,0,0,0,0,0,0,0,0,-1,1238,554,0,0
21,470,0,0,0,0,0,0,0,0,0,-1,1245,554,0,0
28,470,0,0,0,0,0,0,0,0,0,-1,1252,554,0,0
35,470,0,0,0,0,0,0,0,0,0,-1,1259,554,0,0
42,470,0,0,0,0,0,0,0,0,0,-1,1266,554,0,0
49,470,0,0,0,0,0,0,0,0,0,-1,1273,554,0,0
56,470,0,0,0,0,0,0,0,0,0,-1,1280,554,0,0
63,470,0,0,0,0,0,0,0,0,0,-1,1287,554,0,0
70,470,0,0,0,0,0,0,0,0,0,-1,1294,554,0,0
77,470,0,0,0,0,0,0,0,0,0,-1,1301,554,0,0
84,470,0,0,0,0,0,0,0,0,0,-1,1308,554,0,0
91,470,0,0,0,0,0,0,0,0,0,-1,1315,554,0,0
98,470,0,0,0,0,0,0,0,0,0,-1,1322,554,0,0
105,470,0,0,0,0,0,0,0,0,0,-1,1329,554,0,0
112,470,0,0,0,0,0,0,0,0,0,-1,1336,554,0,0
119,470,0,0,0,0,0,0,0,0,0,-1,1343,554,0,0
126,470,0,0,0,0,0,0,0,0,0,-1,1350,554,0,0
133,470,0,0,0,0,0,0,0,0,0,-1,1357,554,0,0
140,470,0,0,0,0,0,0,0,0,0,-1,1364,554,0,0
147,470,0,0,0,0,0,0,0,0,0,-1,1371,554,0,0
154,470,0,0,0,0,0,0,0,0,0,-1,1378,554,0,0
161,470,0,0,0,0,0,0,0,0,0,-1,1385,554,0,0
168,470,0,0,0,0,0,0,0,0,0,-1,1392,554,0,0
175,470,0,0,0,0,0,0,0,0,0,-1,1399,554,0,0
182,470,0,0,0,0,0,0,0,0,0,-1,1406,554,0,0
189,470,0,0,0,0,0,0,0,0,0,-1,1413,554,0,0
196,470,0,0,0,0,0,0,0,0,0,-1,1420,554,0,0
203,470,0,0,0,0,0,0,0,0,0,-1,1427,554,0,0
210,470,0,0,0,0,0,0,0,0,0,-1,1434,554,0,0
217,470,0,0,0,0,0,0,0,0,0,-1,1441,554,0,0
224,470,0,0,0,0,0,0,0,0,0,-1,1448,554,0,0
231,470,0,0,0,0,0,0,0,0,0,-1,1455,554,0,0
238,470,0,0,0,0,0,0,0,0,0,-1,1462,554,0,0
245,470,0,0,0,0,0,0,0,0,0,-1,1469,554,0,0
252,470,0,0,0,0,0,0,0,0,0,-1,1476,554,0,0
259,470,0,0,0,0,0,0,0,0,0,-1,1483,554,0,0
266,470,0,0,0,0,0,0,0,0,0,-1,1490,554,0,0
273,470,0,0,0,0,0,0,0,0,0,-1,1497,554,0,0
280,470,0,0,0,0,0,0,0,0,0,-1,1504,554,0,0
287,470,0,0,0,0,0,0,0,0,0,-1,1511,554,0,0
294,470,0,0,0,0,0,0,0,0,0,-1,1518,554,0,0
301,470,0,0,0,0,0,0,0,0,0,-1,1525,554,0,0
308,470,0,0,0,0,0,0,0,0,0,-1,1532,554,0,0
315,470,0,0,0,0,0,0,0,0,0,-1,1539,554,0,0
322,470,0,0,0,0,0,0,0,0,0,-1,1546,554,0,0
329,470,0,0,0,0,0,0,0,0,0,-1,1553,554,0,0
336,470,0,0,0,0,0,0,0,0,0,-1,1560,554,0,0
343,470,0,0,0,0,0,0,0,0,0,-1,1567,554,0,0
350,470,0,0,0,0,0,0,0,0,0,-1,1574,554,0,0
357,470,0,0,0,0,0,0,0,0,0,-1,1581,554,0,0
364,470,1.33423,0.293335,0,0,0,0,0,0,0,-1,1588,554,1.33422,-0.293348
371,470,2.22498,-0.0305176,0,0,0,0,0,0,0,-1,1595,554,2.22494,0.0305046
378,470,6.27051,0.710083,0,0,0,0,0,0,0,-1,1602,554,6.27054,-0.710093
385,470,10.3657,1.47296,0,0,0,0,0,0,0,-1,1609,554,10.3657,-1.47299
392,470,15.3881,3.01935,0,0,0,0,0,0,0,-1,1616,554,15.388,-3.01937
399,470,18.4479,2.93793,0,0,0,0,0,0,0,-1,1623,554,18.4479,-2.93792
406,470,15.1896,1.36676,0,0,0,0,0,0,0,-1,1630,554,15.1896,-1.36679
413,470,6.55383,1.99207,0,0,0,0,0,0,0,-1,1637,554,6.5538,-1.99208
420,470,4.47095,0.845703,0,0,0,0,0,0,0,-1,1644,554,4.47098,-0.845718
427,470,3.51038,1.19684,0,0,0,0,0,0,0,-1,1651,554,3.51039,-1.19684
434,470,3.31775,-1.37427,0,0,0,0,0,0,0,-1,1658,554,3.31781,1.37426
441,470,2.55457,-2.05902,0,0,0,0,0,0,0,-1,1665,554,2.55461,2.05904
448,470,3.27258,-2.64032,0,0,0,0,0,0,0,-1,1672,554,3.27257,2.64029
455,470,10.3658,-9.82233,0,0,0,0,0,0,0,-1,1679,554,10.3659,9.82233
462,470,11.0651,-11.9958,0,0,0,0,0,0,0,-1,1686,554,11.0651,11.9958
469,470,15.4242,-19.0521,0,0,0,0,0,0,0,-1,1693,554,15.4242,19.0521
476,470,16.6528,-19.5881,0,0,0,0,0,0,0,-1,1700,554,16.6528,19.5881
483,470,16.6871,-18.9193,0.00271795,0.00158763,3.0724e-05,0.00271878,0.00158679,0.0271549,0.00157699,0.0169991,1707,554,16.6872,18.9193
490,470,16.6279,-18.2849,0.00243781,0.00161551,0.000224245,0.00249499,0.00155833,0.249655,0.00145531,0.0117105,1714,554,16.6279,18.2849
497,470,16.6006,-17.6356,0.00200961,0.00153543,0.000521379,0.00234528,0.00119977,0.572005,0.00135417,0.0122138,1721,554,16.6006,17.6355
504,470,16.5955,-17.0828,0.00152417,0.00138917,0.000775263,0.00223486,0.000678474,0.741976,0.00132307,0.0181074,1728,554,16.5954,17.0828
511,470,16.5945,-16.5412,0.000935372,0.00127077,0.00101093,0.00212782,7.83271e-05,0.867593,0.00139317,0.0253698,1735,554,16.5944,16.5412
518,470,16.6094,-15.8874,0.000249026,0.00116762,0.00117579,0.00197063,-0.000553992,0.971598,0.00153218,0.0254885,1742,554,16.6093,15.8874
525,470,16.5565,-15.1848,-0.000456138,0.00104961,0.00127717,0.0017793,-0.00118582,1.05172,0.00172331,0.0159271,1749,554,16.5565,15.1847
532,470,16.474,-14.4991,-0.00114321,0.000994976,0.0013517,0.00164927,-0.0017975,1.11999,0.00199061,0.0138547,1756,554,16.474,14.4991
539,470,16.4558,-13.8567,-0.00179149,0.000956116,0.00136974,0.0015223,-0.00235767,1.17884,0.00225734,0.0162469,1763,554,16.4558,13.8567
546,470,16.4408,-13.2309,-0.00236812,0.00111413,0.00139631,0.00160486,-0.00285885,1.23283,0.00261081,0.0149595,1770,554,16.4408,13.2309
553,470,16.4391,-12.559,-0.002793,0.00137164,0.00147278,0.00183984,-0.0032612,1.263,0.00298295,0.0250751,1777,554,16.4391,12.559
560,470,16.4231,-11.8338,-0.00296267,0.00179959,0.00156261,0.00226653,-0.00342962,1.28042,0.00331145,0.0448743,1784,554,16.4231,11.8338
567,470,16.2827,-10.9238,0,0,0,0,0,0,0,-1,1791,554,16.2827,10.9238
574,470,14.2793,-8.07147,0,0,0,0,0,0,0,-1,1798,554,14.2793,8.07147
581,470,8.24646,-4.06317,0,0,0,0,0,0,0,-1,1805,554,8.24648,4.06318
588,470,11.1803,1.74927,0,0,0,0,0,0,0,-1,1812,554,11.1803,-1.74926
595,470,4.72192,3.44116,0,0,0,0,0,0,0,-1,1819,554,4.72191,-3.44116
602,470,14.4307,2.76141,0,0,0,0,0,0,0,-1,1826,554,14.4306,-2.76139
609,470,20.9181,4.41058,0,0,0,0,0,0,0,-1,1833,554,20.9181,-4.4106
616,470,0,0,0,0,0,0,0,0,0,-1,1840,554,0,0
623,470,0,0,0,0,0,0,0,0,0,-1,1847,554,0,0
630,470,0,0,0,0,0,0,0,0,0,-1,1854,554,0,0
637,470,0,0,0,0,0,0,0,0,0,-1,1861,554,0,0
644,470,0,0,0,0,0,0,0,0,0,-1,1868,554,0,0
651,470,0,0,0,0,0,0,0,0,0,-1,1875,554,0,0
658,470,0,0,0,0,0,0,0,0,0,-1,1882,554,0,0
665,470,0,0,0,0,0,0,0,0,0,-1,1889,554,0,0
672,470,0,0,0,0,0,0,0,0,0,-1,1896,554,0,0
679,470,0,0,0,0,0,0,0,0,0,-1,1903,554,0,0
686,470,0,0,0,0,0,0,0,0,0,-1,1910,554,0,0
693,470,0,0,0,0,0,0,0,0,0,-1,1917,554,0,0
700,470,0,0,0,0,0,0,0,0,0,-1,1924,554,0,0
707,470,0,0,0,0,0,0,0,0,0,-1,1931,554,0,0
714,470,0,0,0,0,0,0,0,0,0,-1,1938,554,0,0
721,470,0,0,0,0,0,0,0,0,0,-1,1945,554,0,0
728,470,0,0,0,0,0,0,0,0,0,-1,1952,554,0,0
735,470,0,0,0,0,0,0,0,0,0,-1,1959,554,0,0
742,470,0,0,0,0,0,0,0,0,0,-1,1966,554,0,0
749,470,0,0,0,0,0,0,0,0,0,-1,1973,554,0,0
756,470,0,0,0,0,0,0,0,0,0,-1,1980,554,0,0
763,470,0,0,0,0,0,0,0,0,0,-1,1987,554,0,0
770,470,0,0,0,0,0,0,0,0,0,-1,1994,554,0,0
777,470,0,0,0,0,0,0,0,0,0,-1,2001,554,0,0
784,470,0,0,0,0,0,0,0,0,0,-1,2008,554,0,0
791,470,0,0,0,0,0,0,0,0,0,-1,2015,554,0,0
798,470,0,0,0,0,0,0,0,0,0,-1,2022,554,0,0
805,470,0,0,0,0,0,0,0,0,0,-1,2029,554,0,0
812,470,0,0,0,0,0,0,0,0,0,-1,2036,554,0,0
-700,463,0,0,0,0,0,0,0,0,0,-1,524,561,0,0
-693,463,0,0,0,0,0,0,0,0,0,-1,531,561,0,0
-686,463,0,0,0,0,0,0,0,0,0,-1,538,561,0,0
-679,463,0,0,0,0,0,0,0,0,0,-1,545,561,0,0
-672,463,0,0,0,0,0,0,0,0,0,-1,552,561,0,0
-665,463,0,0,0,0,0,0,0,0,0,-1,559,561,0,0
-658,463,0,0,0,0,0,0,0,0,0,-1,566,561,0,0
-651,463,0,0,0,0,0,0,0,0,0,-1,573,561,0,0
-644,463,0,0,0,0,0,0,0,0,0,-1,580,561,0,0
-637,463,0,0,0,0,0,0,0,0,0,-1,587,561,0,0
-630,463,0,0,0,0,0,0,0,0,0,-1,594,561,0,0
-623,463,0,0,0,0,0,0,0,0,0,-1,601,561,0,0
-616,463,0,0,0,0,0,0,0,0,0,-1,608,561,0,0
-609,463,0,0,0,0,0,0,0,0,0,-1,615,561,0,0
-602,463,0,0,0,0,0,0,0,0,0,-1,622,561,0,0
-595,463,0,0,0,0,0,0,0,0,0,-1,629,561,0,0
-588,463,0,0,0,0,0,0,0,0,0,-1,636,561,0,0
-581,463,0,0,0,0,0,0,0,0,0,-1,643,561,0,0
-574,463,0,0,0,0,0,0,0,0,0,-1,650,561,0,0
-567,463,0,0,0,0,0,0,0,0,0,-1,657,561,0,0
-560,463,0,0,0,0,0,0,0,0,0,-1,664,561,0,0
-553,463,0,0,0,0,0,0,0,0,0,-1,671,561,0,0
-546,463,0,0,0,0,0,0,0,0,0,-1,678,561,0,0
-539,463,0,0,0,0,0,0,0,0,0,-1,685,561,0,0
-532,463,0,0,0,0,0,0,0,0,0,-1,692,561,0,0
-525,463,0,0,0,0,0,0,0,0,0,-1,699,561,0,0
-518,463,0,0,0,0,0,0,0,0,0,-1,706,561,0,0
-511,463,0,0,0,0,0,0,0,0,0,-1,713,561,0,0
-504,463,0,0,0,0,0,0,0,0,0,-1,720,561,0,0
-497,463,-9.81451,-1.67126,0,0,0,0,0,0,0,-1,727,561,-9.81452,1.67127
-490,463,-8.57043,-1.58942,0,0,0,0,0,0,0,-1,734,561,-8.57045,1.58944
-483,463,-7.29224,-1.7226,0,0,0,0,0,0,0,-1,741,561,-7.29226,1.72261
-476,463,-5.77704,-1.7312,0,0,0,0,0,0,0,-1,748,561,-5.77703,1.73121
-469,463,-5.14545,-2.138,0,0,0,0,0,0,0,-1,755,561,-5.14546,2.13799
-462,463,-3.13672,-3.07977,0,0,0,0,0,0,0,-1,762,561,-3.13672,3.07974
-455,463,-2.91406,-5.61798,0,0,0,0,0,0,0,-1,769,561,-2.91406,5.61801
-448,463,-4.00177,-8.54681,0,0,0,0,0,0,0,-1,776,561,-4.00175,8.54683
-441,463,-5.96429,-12.5019,0,0,0,0,0,0,0,-1,783,561,-5.96428,12.5019
-434,463,-5.86896,-13.3146,0.00372772,0.0109362,-0.00486355,0.0133855,0.00127849,-1.10428,0.00852949,0.0296167,790,561,-5.86897,13.3146
-427,463,-5.89813,-13.9581,0.00257666,0.00942866,-0.00412602,0.0113656,0.000639686,-1.13188,0.00737312,0.0112698,797,561,-5.8981,13.958
-420,463,-5.90387,-14.5835,0.00160889,0.0077885,-0.0033093,0.0092262,0.000171184,-1.16095,0.00609454,0.0109567,804,561,-5.90386,14.5835
-413,463,-5.9361,-15.2056,0.00125127,0.00634385,-0.00284851,0.00761824,-2.3121e-05,-1.15012,0.00508655,0.0100721,811,561,-5.9361,15.2056
-406,463,-5.96527,-15.8124,0.00115035,0.00482071,-0.00225502,0.00589293,7.81196e-05,-1.12695,0.00390284,0.00978119,818,561,-5.96528,15.8124
-399,463,-5.98413,-16.4252,0.00112621,0.00338365,-0.00164766,0.00425212,0.000257739,-1.08571,0.00275286,0.0109347,825,561,-5.9841,16.4252
-392,463,-6.02319,-17.0427,0.00131251,0.0018914,-0.00105733,0.00269818,0.000505727,-0.919,0.00165615,0.0104065,832,561,-6.02318,17.0426
-385,463,-6.04144,-17.6522,0.00166333,0.000577653,-0.000570828,0.00190822,0.000332762,-0.405263,0.00117701,0.0113592,839,561,-6.04146,17.6522
-378,463,-6.05511,-18.2463,0.00207082,-0.000705243,-9.11708e-05,0.00207381,-0.000708234,-0.0327947,0.00166947,0.012161,846,561,-6.05511,18.2463
-371,463,-6.06146,-18.8515,0.0026147,-0.00187034,0.000346164,0.00264126,-0.0018969,0.0765774,0.00263183,0.0118905,853,561,-6.06143,18.8515
-364,463,-6.08221,-19.3949,0.00329802,-0.00281384,0.000661664,0.00336883,-0.00288465,0.106613,0.00361405,0.0150201,860,561,-6.08222,19.3949
-357,463,-6.1402,-19.9364,0.00414604,-0.00365021,0.000803622,0.00422802,-0.00373218,0.101654,0.00459879,0.0207211,867,561,-6.1402,19.9364
-350,463,-6.03107,-20.6078,0.00537522,-0.00364828,0.000399824,0.0053929,-0.00366596,0.0441938,0.00526172,0.0416241,874,561,-6.03108,20.6078
-343,463,-5.7085,-21.2341,0,0,0,0,0,0,0,-1,881,561,-5.70852,21.234
-336,463,-2.94928,-12.2127,0,0,0,0,0,0,0,-1,888,561,-2.94925,12.2127
-329,463,-2.64307,-12.7037,0,0,0,0,0,0,0,-1,895,561,-2.64307,12.7038
-322,463,-1.82898,-9.11957,0,0,0,0,0,0,0,-1,902,561,-1.829,9.11957
-315,463,-0.944763,-5.96234,0,0,0,0,0,0,0,-1,909,561,-0.94479,5.96237
-308,463,-1.1535,-3.17889,0,0,0,0,0,0,0,-1,916,561,-1.15352,3.17889
-301,463,-1.50366,-3.15338,0,0,0,0,0,0,0,-1,923,561,-1.50364,3.15341
-294,463,-2.35889,-3.93463,0,0,0,0,0,0,0,-1,930,561,-2.35886,3.93465
-287,463,-2.80322,2.73999,0,0,0,0,0,0,0,-1,937,561,-2.80322,-2.74
-280,463,-12.864,5.25146,0,0,0,0,0,0,0,-1,944,561,-12.864,-5.25149
-273,463,-12.4598,3.39178,0,0,0,0,0,0,0,-1,951,561,-12.4598,-3.3918
-266,463,-8.78101,-3.7356,0,0,0,0,0,0,0,-1,958,561,-8.78098,3.73562
-259,463,-6.23285,-5.68842,0,0,0,0,0,0,0,-1,965,561,-6.23288,5.68843
-252,463,0,0,0,0,0,0,0,0,0,-1,972,561,0,0
-245,463,0,0,0,0,0,0,0,0,0,-1,979,561,0,0
-238,463,0,0,0,0,0,0,0,0,0,-1,986,561,0,0
-231,463,0,0,0,0,0,0,0,0,0,-1,993,561,0,0
-224,463,0,0,0,0,0,0,0,0,0,-1,1000,561,0,0
-217,463,0,0,0,0,0,0,0,0,0,-1,1007,561,0,0
-210,463,0,0,0,0,0,0,0,0,0,-1,1014,561,0,0
-203,463,0,0,0,0,0,0,0,0,0,-1,1021,561,0,0
-196,463,0,0,0,0,0,0,0,0,0,-1,1028,561,0,0
-189,463,0,0,0,0,0,0,0,0,0,-1,1035,561,0,0
-182,463,0,0,0,0,0,0,0,0,0,-1,1042,561,0,0
-175,463,0,0,0,0,0,0,0,0,0,-1,1049,561,0,0
-168,463,0,0,0,0,0,0,0,0,0,-1,1056,561,0,0
-161,463,0,0,0,0,0,0,0,0,0,-1,1063,561,0,0
-154,463,0,0,0,0,0,0,0,0,0,-1,1070,561,0,0
-147,463,0,0,0,0,0,0,0,0,0,-1,1077,561,0,0
-140,463,0,0,0,0,0,0,0,0,0,-1,1084,561,0,0
-133,463,0,0,0,0,0,0,0,0,0,-1,1091,561,0,0
-126,463,0,0,0,0,0,0,0,0,0,-1,1098,561,0,0
-119,463,0,0,0,0,0,0,0,0,0,-1,1105,561,0,0
-112,463,0,0,0,0,0,0,0,0,0,-1,1112,561,0,0
-105,463,0,0,0,0,0,0,0,0,0,-1,1119,561,0,0
-98,463,0,0,0,0,0,0,0,0,0,-1,1126,561,0,0
-91,463,0,0,0,0,0,0,0,0,0,-1,1133,561,0,0
-84,463,0,0,0,0,0,0,0,0,0,-1,1140,561,0,0
-77,463,0,0,0,0,0,0,0,0,0,-1,1147,561,0,0
-70,463,0,0,0,0,0,0,0,0,0,-1,1154,561,0,0
-63,463,0,0,0,0,0,0,0,0,0,-1,1161,561,0,0
-56,463,0,0,0,0,0,0,0,0,0,-1,1168,561,0,0
-49,463,0,0,0,0,0,0,0,0,0,-1,1175,561,0,0
-42,463,0,0,0,0,0,0,0,0,0,-1,1182,561,0,0
-35,463,0,0,0,0,0,0,0,0,0,-1,1189,561,0,0
-28,463,0,0,0,0,0,0,0,0,0,-1,1196,561,0,0
-21,463,0,0,0,0,0,0,0,0,0,-1,1203,561,0,0
-14,463,0,0,0,0,0,0,0,0,0,-1,1210,561,0,0
-7,463,0,0,0,0,0,0,0,0,0,-1,1217,561,0,0
0,463,0,0,0,0,0,0,0,0,0,-1,1224,561,0,0
7,463,0,0,0,0,0,0,0,0,0,-1,1231,561,0,0
14,463,0,0,0,0,0,0,0,0,0,-1,1238,561,0,0
21,463,0,0,0,0,0,0,0,0,0,-1,1245,561,0,0
28,463,0,0,0,0,0,0,0,0,0,-1,1252,561,0,0
35,463,0,0,0,0,0,0,0,0,0,-1,1259,561,0,0
42,463,0,0,0,0,0,0,0,0,0,-1,1266,561,0,0
49,463,0,0,0,0,0,0,0,0,0,-1,1273,561,0,0
56,463,0,0,0,0,0,0,0,0,0,-1,1280,561,0,0
63,463,0,0,0,0,0,0,0,0,0,-1,1287,561,0,0
70,463,0,0,0,0,0,0,0,0,0,-1,1294,561,0,0
77,463,0,0,0,0,0,0,0,0,0,-1,1301,561,0,0
84,463,0,0,0,0,0,0,0,0,0,-1,1308,561,0,0
91,463,0,0,0,0,0,0,0,0,0,-1,1315,561,0,0
98,463,0,0,0,0,0,0,0,0,0,-1,1322,561,0,0
105,463,0,0,0,0,0,0,0,0,0,-1,1329,561,0,0
112,463,0,0,0,0,0,0,0,0,0,-1,1336,561,0,0
119,463,0,0,0,0,0,0,0,0,0,-1,1343,561,0,0
126,463,0,0,0,0,0,0,0,0,0,-1,1350,561,0,0
133,463,0,0,0,0,0,0,0,0,0,-1,1357,561,0,0
140,463,0,0,0,0,0,0,0,0,0,-1,1364,561,0,0
147,463,0,0,0,0,0,0,0,0,0,-1,1371,561,0,0
154,463,0,0,0,0,0,0,0,0,0,-1,1378,561,0,0
161,463,0,0,0,0,0,0,0,0,0,-1,1385,561,0,0
168,463,0,0,0,0,0,0,0,0,0,-1,1392,561,0,0
175,463,0,0,0,0,0,0,0,0,0,-1,1399,561,0,0
182,463,0,0,0,0,0,0,0,0,0,-1,1406,561,0,0
189,463,0,0,0,0,0,0,0,0,0,-1,1413,561,0,0
196,463,0,0,0,0,0,0,0,0,0,-1,1420,561,0,0
203,463,0,0,0,0,0,0,0,0,0,-1,1427,561,0,0
210,463,0,0,0,0,0,0,0,0,0,-1,1434,561,0,0
217,463,0,0,0,0,0,0,0,0,0,-1,1441,561,0,0
224,463,0,0,0,0,0,0,0,0,0,-1,1448,561,0,0
231,463,0,0,0,0,0,0,0,0,0,-1,1455,561,0,0
238,463,0,0,0,0,0,0,0,0,0,-1,1462,561,0,0
245,463,0,0,0,0,0,0,0,0,0,-1,1469,561,0,0
252,463,0,0,0,0,0,0,0,0,0,-1,1476,561,0,0
259,463,0,0,0,0,0,0,0,0,0,-1,1483,561,0,0
266,463,0,0,0,0,0,0,0,0,0,-1,1490,561,0,0
273,463,0,0,0,0,0,0,0,0,0,-1,1497,561,0,0
280,463,0,0,0,0,0,0,0,0,0,-1,1504,561,0,0
287,463,0,0,0,0,0,0,0,0,0,-1,1511,561,0,0
294,463,0,0,0,0,0,0,0,0,0,-1,1518,561,0,0
301,463,0,0,0,0,0,0,0,0,0,-1,1525,561,0,0
308,463,0,0,0,0,0,0,0,0,0,-1,1532,561,0,0
315,463,0,0,0,0,0,0,0,0,0,-1,1539,561,0,0
322,463,0,0,0,0,0,0,0,0,0,-1,1546,561,0,0
329,463,0,0,0,0,0,0,0,0,0,-1,1553,561,0,0
336,463,0,0,0,0,0,0,0,0,0,-1,1560,561,0,0
343,463,0,0,0,0,0,0,0,0,0,-1,1567,561,0,0
350,463,0,0,0,0,0,0,0,0,0,-1,1574,561,0,0
357,463,0,0,0,0,0,0,0,0,0,-1,1581,561,0,0
364,463,0,0,0,0,0,0,0,0,0,-1,1588,561,0,0
371,463,1.75842,0.152588,0,0,0,0,0,0,0,-1,1595,561,1.75844,-0.152558
378,463,4.58813,-0.0444336,0,0,0,0,0,0,0,-1,1602,561,4.58809,0.0444505
385,463,8.88574,1.65057,0,0,0,0,0,0,0,-1,1609,561,8.88575,-1.65055
392,463,14.0912,2.50513,0,0,0,0,0,0,0,-1,1616,561,14.0912,-2.5051
399,463,21.4769,2.7002,0,0,0,0,0,0,0,-1,1623,561,21.477,-2.70017
406,463,26.2987,4.32318,0,0,0,0,0,0,0,-1,1630,561,26.2987,-4.3232
413,463,26.5011,2.65222,0,0,0,0,0,0,0,-1,1637,561,26.5011,-2.65224
420,463,8.849,2.26611,0,0,0,0,0,0,0,-1,1644,561,8.84899,-2.26613
427,463,5.12207,1.69183,0,0,0,0,0,0,0,-1,1651,561,5.12206,-1.69184
434,463,4.59814,1.81995,0,0,0,0,0,0,0,-1,1658,561,4.59812,-1.81994
441,463,1.76392,-5.99225,0,0,0,0,0,0,0,-1,1665,561,1.7639,5.99225
448,463,2.49939,-4.30536,0,0,0,0,0,0,0,-1,1672,561,2.49941,4.30536
455,463,4.40295,-3.02557,0,0,0,0,0,0,0,-1,1679,561,4.40299,3.02558
462,463,5.38293,-4.06445,0,0,0,0,0,0,0,-1,1686,561,5.38289,4.06444
469,463,5.94373,-4.50647,0,0,0,0,0,0,0,-1,1693,561,5.94368,4.50646
476,463,15.2559,-17.3189,0,0,0,0,0,0,0,-1,1700,561,15.2558,17.3189
483,463,17.3029,-18.9753,0,0,0,0,0,0,0,-1,1707,561,17.3028,18.9754
490,463,17.2896,-18.3292,0.00316716,0.00169951,0.000754026,0.0034855,0.00138117,0.399487,0.00202674,0.0260518,1714,561,17.2896,18.3292
497,463,17.2207,-17.6116,0.00278438,0.00164157,0.000924119,0.00329949,0.00112647,0.508506,0.00193664,0.0130776,1721,561,17.2207,17.6116
504,463,17.2175,-17.0319,0.00232131,0.00150182,0.0010037,0.00299568,0.000827441,0.591606,0.00178637,0.0157433,1728,561,17.2176,17.0318
511,463,17.2297,-16.4843,0.00177816,0.00138134,0.00107727,0.00267514,0.000484366,0.694329,0.0016459,0.0220704,1735,561,17.2297,16.4843
518,463,17.2393,-15.8135,0.00117275,0.00126425,0.00112421,0.00234364,9.33626e-05,0.805735,0.00153226,0.0235165,1742,561,17.2392,15.8135
525,463,17.1687,-15.1573,0.00053666,0.0011636,0.00112361,0.00201665,-0.000316391,0.921431,0.00146136,0.018983,1749,561,17.1687,15.1573
532,463,17.1443,-14.4851,-7.85207e-05,0.00112935,0.00112286,0.00180038,-0.000749554,1.03213,0.0015133,0.0167757,1756,561,17.1443,14.4851
539,463,17.0981,-13.8162,-0.000641236,0.00111377,0.00110361,0.00164622,-0.00117369,1.12128,0.00163567,0.018014,1763,561,17.0981,13.8162
546,463,17.0507,-13.2173,-0.00112638,0.00128374,0.00111398,0.00171975,-0.0015624,1.19772,0.00189568,0.0139381,1770,561,17.0506,13.2173
553,463,17.0454,-12.5386,-0.00150291,0.00155165,0.00119641,0.00196447,-0.00191573,1.23854,0.00224029,0.0113044,1777,561,17.0454,12.5386
560,463,17.066,-11.7722,-0.00167736,0.00195841,0.00134949,0.00240456,-0.0021235,1.25151,0.00261595,0.0224725,1784,561,17.066,11.7722
567,463,16.9155,-11.1422,-0.00157333,0.00262813,0.00174377,0.00325756,-0.00220277,1.22439,0.00317207,0.0320441,1791,561,16.9155,11.1422
574,463,16.9951,-10.5204,0,0,0,0,0,0,0,-1,1798,561,16.9951,10.5204
581,463,9.4939,-3.88245,0,0,0,0,0,0,0,-1,1805,561,9.49392,3.88245
588,463,1.97424,2.16016,0,0,0,0,0,0,0,-1,1812,561,1.97422,-2.16013
595,463,9.98657,2.99854,0,0,0,0,0,0,0,-1,1819,561,9.98662,-2.99856
602,463,17.2202,4.91302,0,0,0,0,0,0,0,-1,1826,561,17.2202,-4.91305
609,463,17.96,4.03131,0,0,0,0,0,0,0,-1,1833,561,17.96,-4.03132
616,463,20.8352,3.15131,0,0,0,0,0,0,0,-1,1840,561,20.8352,-3.1513
623,463,0,0,0,0,0,0,0,0,0,-1,1847,561,0,0
630,463,0,0,0,0,0,0,0,0,0,-1,1854,561,0,0
637,463,0,0,0,0,0,0,0,0,0,-1,1861,561,0,0
644,463,0,0,0,0,0,0,0,0,0,-1,1868,561,0,0
651,463,0,0,0,0,0,0,0,0,0,-1,1875,561,0,0
658,463,0,0,0,0,0,0,0,0,0,-1,1882,561,0,0
665,463,0,0,0,0,0,0,0,0,0,-1,1889,561,0,0
672,463,0,0,0,0,0,0,0,0,0,-1,1896,561,0,0
679,463,0,0,0,0,0,0,0,0,0,-1,1903,561,0,0
686,463,0,0,0,0,0,0,0,0,0,-1,1910,561,0,0
693,463,0,0,0,0,0,0,0,0,0,-1,1917,561,0,0
700,463,0,0,0,0,0,0,0,0,0,-1,1924,561,0,0
707,463,0,0,0,0,0,0,0,0,0,-1,1931,561,0,0
714,463,0,0,0,0,0,0,0,0,0,-1,1938,561,0,0
721,463,0,0,0,0,0,0,0,0,0,-1,1945,561,0,0
728,463,0,0,0,0,0,0,0,0,0,-1,1952,561,0,0
735,463,0,0,0,0,0,0,0,0,0,-1,1959,561,0,0
742,463,0,0,0,0,0,0,0,0,0,-1,1966,561,0,0
749,463,0,0,0,0,0,0,0,0,0,-1,1973,561,0,0
756,463,0,0,0,0,0,0,0,0,0,-1,1980,561,0,0
763,463,0,0,0,0,0,0,0,0,0,-1,1987,561,0,0
770,463,0,0,0,0,0,0,0,0,0,-1,1994,561,0,0
777,463,0,0,0,0,0,0,0,0,0,-1,2001,561,0,0
784,463,0,0,0,0,0,0,0,0,0,-1,2008,561,0,0
791,463,0,0,0,0,0,0,0,0,0,-1,2015,561,0,0
798,463,0,0,0,0,0,0,0,0,0,-1,2022,561,0,0
805,463,0,0,0,0,0,0,0,0,0,-1,2029,561,0,0
812,463,0,0,0,0,0,0,0,0,0,-1,2036,561,0,0
-700,456,0,0,0,0,0,0,0,0,0,-1,524,568,0,0
-693,456,0,0,0,0,0,0,0,0,0,-1,531,568,0,0
-686,456,0,0,0,0,0,0,0,0,0,-1,538,568,0,0
-679,456,0,0,0,0,0,0,0,0,0,-1,545,568,0,0
-672,456,0,0,0,0,0,0,0,0,0,-1,552,568,0,0
-665,456,0,0,0,0,0,0,0,0,0,-1,559,568,0,0
-658,456,0,0,0,0,0,0,0,0,0,-1,566,568,0,0
-651,456,0,0,0,0,0,0,0,0,0,-1,573,568,0,0
-644,456,0,0,0,0,0,0,0,0,0,-1,580,568,0,0
-637,456,0,0,0,0,0,0,0,0,0,-1,587,568,0,0
-630,456,0,0,0,0,0,0,0,0,0,-1,594,568,0,0
-623,456,0,0,0,0,0,0,0,0,0,-1,601,568,0,0
-616,456,0,0,0,0,0,0,0,0,0,-1,608,568,0,0
-609,456,0,0,0,0,0,0,0,0,0,-1,615,568,0,0
-602,456,0,0,0,0,0,0,0,0,0,-1,622,568,0,0
-595,456,0,0,0,0,0,0,0,0,0,-1,629,568,0,0
-588,456,0,0,0,0,0,0,0,0,0,-1,636,568,0,0
-581,456,0,0,0,0,0,0,0,0,0,-1,643,568,0,0
-574,456,0,0,0,0,0,0,0,0,0,-1,650,568,0,0
-567,456,0,0,0,0,0,0,0,0,0,-1,657,568,0,0
-560,456,0,0,0,0,0,0,0,0,0,-1,664,568,0,0
-553,456,0,0,0,0,0,0,0,0,0,-1,671,568,0,0
-546,456,0,0,0,0,0,0,0,0,0,-1,678,568,0,0
-539,456,0,0,0,0,0,0,0,0,0,-1,685,568,0,0
-532,456,0,0,0,0,0,0,0,0,0,-1,692,568,0,0
-525,456,0,0,0,0,0,0,0,0,0,-1,699,568,0,0
-518,456,0,0,0,0,0,0,0,0,0,-1,706,568,0,0
-511,456,0,0,0,0,0,0,0,0,0,-1,713,568,0,0
-504,456,-10.3994,-2.34839,0,0,0,0,0,0,0,-1,720,568,-10.3994,2.3484
-497,456,-9.21375,-2.38068,0,0,0,0,0,0,0,-1,727,568,-9.21372,2.38069
-490,456,-8.09058,-2.31824,0,0,0,0,0,0,0,-1,734,568,-8.09057,2.31821
-483,456,-6.66119,-2.24329,0,0,0,0,0,0,0,-1,741,568,-6.66121,2.24331
-476,456,-5.1499,-2.21185,0,0,0,0,0,0,0,-1,748,568,-5.14992,2.21184
-469,456,-2.81238,-3.51501,0,0,0,0,0,0,0,-1,755,568,-2.81237,3.51501
-462,456,-4.2431,-5.27478,0,0,0,0,0,0,0,-1,762,568,-4.24312,5.27476
-455,456,-5.98364,-8.72119,0,0,0,0,0,0,0,-1,769,568,-5.98364,8.72122
-448,456,-6.56311,-11.6046,0,0,0,0,0,0,0,-1,776,568,-6.56311,11.6046
-441,456,-6.5863,-12.6002,0,0,0,0,0,0,0,-1,783,568,-6.58631,12.6002
-434,456,-6.50305,-13.3086,0.0035653,0.00821749,-0.00396388,0.0104874,0.00129541,-1.05074,0.00660228,0.0174778,790,568,-6.50302,13.3086
-427,456,-6.5116,-13.9404,0.00248932,0.00683254,-0.00320018,0.00852837,0.000793495,-1.0835,0.0054404,0.00908868,797,568,-6.51159,13.9404
-420,456,-6.53314,-14.5679,0.00153638,0.00534838,-0.00235526,0.00647224,0.000412515,-1.12558,0.00418411,0.00970177,804,568,-6.53316,14.5679
-413,456,-6.56689,-15.1844,0.00116351,0.00406592,-0.0018863,0.00499465,0.00023477,-1.11328,0.00325434,0.00901056,811,568,-6.56688,15.1844
-406,456,-6.60468,-15.7884,0.00106795,0.00271803,-0.0013138,0.00344437,0.000341612,-1.06577,0.00219127,0.00894113,818,568,-6.60465,15.7884
-399,456,-6.60791,-16.3848,0.00109594,0.00148058,-0.000768972,0.00208092,0.000495605,-0.907936,0.00125513,0.0108221,825,568,-6.60788,16.3848
-392,456,-6.62158,-16.9962,0.0013432,0.000199954,-0.000252584,0.00139652,0.000146636,-0.208037,0.000886185,0.0105927,832,568,-6.6216,16.9961
-385,456,-6.6463,-17.6028,0.00175466,-0.000907241,0.000158021,0.00176401,-0.000916589,0.0590875,0.00157321,0.0105761,839,568,-6.64632,17.6029
-378,456,-6.68073,-18.2234,0.00224293,-0.00197716,0.000567238,0.00231784,-0.00205207,0.131309,0.00252453,0.0111766,846,568,-6.68071,18.2234
-371,456,-6.6889,-18.8054,0.00292005,-0.00287855,0.000945203,0.00307023,-0.00302873,0.157573,0.00352127,0.011659,853,568,-6.68893,18.8054
-364,456,-6.68683,-19.3462,0.00378758,-0.00344919,0.00114037,0.00396303,-0.00362464,0.152653,0.00438219,0.0268125,860,568,-6.6868,19.3462
-357,456,-6.64941,-19.9665,0,0,0,0,0,0,0,-1,867,568,-6.6494,19.9665
-350,456,-6.4361,-20.8271,0,0,0,0,0,0,0,-1,874,568,-6.43608,20.8272
-343,456,-3.39081,-12.0217,0,0,0,0,0,0,0,-1,881,568,-3.39078,12.0217
-336,456,-3.04517,-12.4623,0,0,0,0,0,0,0,-1,888,568,-3.04519,12.4624
-329,456,-1.06183,-10.7184,0,0,0,0,0,0,0,-1,895,568,-1.06184,10.7184
-322,456,-0.662537,-7.66632,0,0,0,0,0,0,0,-1,902,568,-0.662564,7.66633
-315,456,-0.675476,-3.38397,0,0,0,0,0,0,0,-1,909,568,-0.675473,3.38399
-308,456,-1.1618,-3.15314,0,0,0,0,0,0,0,-1,916,568,-1.16178,3.15314
-301,456,-1.83551,-3.26447,0,0,0,0,0,0,0,-1,923,568,-1.8355,3.26449
-294,456,-2.93414,-3.35449,0,0,0,0,0,0,0,-1,930,568,-2.93413,3.35451
-287,456,-3.7569,-3.53101,0,0,0,0,0,0,0,-1,937,568,-3.75692,3.53101
-280,456,-13.072,4.52856,0,0,0,0,0,0,0,-1,944,568,-13.072,-4.52855
-273,456,-8.26538,-6.66748,0,0,0,0,0,0,0,-1,951,568,-8.26536,6.66745
-266,456,-5.71527,-9.36884,0,0,0,0,0,0,0,-1,958,568,-5.71529,9.36885
-259,456,0,0,0,0,0,0,0,0,0,-1,965,568,0,0
-252,456,0,0,0,0,0,0,0,0,0,-1,972,568,0,0
-245,456,0,0,0,0,0,0,0,0,0,-1,979,568,0,0
-238,456,0,0,0,0,0,0,0,0,0,-1,986,568,0,0
-231,456,0,0,0,0,0,0,0,0,0,-1,993,568,0,0
-224,456,0,0,0,0,0,0,0,0,0,-1,1000,568,0,0
-217,456,0,0,0,0,0,0,0,0,0,-1,1007,568,0,0
-210,456,0,0,0,0,0,0,0,0,0,-1,1014,568,0,0
-203,456,0,0,0,0,0,0,0,0,0,-1,1021,568,0,0
-196,456,0,0,0,0,0,0,0,0,0,-1,1028,568,0,0
-189,456,0,0,0,0,0,0,0,0,0,-1,1035,568,0,0
-182,456,0,0,0,0,0,0,0,0,0,-1,1042,568,0,0
-175,456,0,0,0,0,0,0,0,0,0,-1,1049,568,0,0
-168,456,0,0,0,0,0,0,0,0,0,-1,1056,568,0,0
-161,456,0,0,0,0,0,0,0,0,0,-1,1063,568,0,0
-154,456,0,0,0,0,0,0,0,0,0,-1,1070,568,0,0
-147,456,0,0,0,0,0,0,0,0,0,-1,1077,568,0,0
-140,456,0,0,0,0,0,0,0,0,0,-1,1084,568,0,0
-133,456,0,0,0,0,0,0,0,0,0,-1,1091,568,0,0
-126,456,0,0,0,0,0,0,0,0,0,-1,1098,568,0,0
-119,456,0,0,0,0,0,0,0,0,0,-1,1105,568,0,0
-112,456,0,0,0,0,0,0,0,0,0,-1,1112,568,0,0
-105,456,0,0,0,0,0,0,0,0,0,-1,1119,568,0,0
-98,456,0,0,0,0,0,0,0,0,0,-1,1126,568,0,0
-91,456,0,0,0,0,0,0,0,0,0,-1,1133,568,0,0
-84,456,0,0,0,0,0,0,0,0,0,-1,1140,568,0,0
-77,456,0,0,0,0,0,0,0,0,0,-1,1147,568,0,0
-70,456,0,0,0,0,0,0,0,0,0,-1,1154,568,0,0
-63,456,0,0,0,0,0,0,0,0,0,-1,1161,568,0,0
-56,456,0,0,0,0,0,0,0,0,0,-1,1168,568,0,0
-49,456,0,0,0,0,0,0,0,0,0,-1,1175,568,0,0
-42,456,0,0,0,0,0,0,0,0,0,-1,1182,568,0,0
-35,456,0,0,0,0,0,0,0,0,0,-1,1189,568,0,0
-28,456,0,0,0,0,0,0,0,0,0,-1,1196,568,0,0
-21,456,0,0,0,0,0,0,0,0,0,-1,1203,568,0,0
-14,456,0,0,0,0,0,0,0,0,0,-1,1210,568,0,0
-7,456,0,0,0,0,0,0,0,0,0,-1,1217,568,0,0
0,456,0,0,0,0,0,0,0,0,0,-1,1224,568,0,0
7,456,0,0,0,0,0,0,0,0,0,-1,1231,568,0,0
14,456,0,0,0,0,0,0,0,0,0,-1,1238,568,0,0
21,456,0,0,0,0,0,0,0,0,0,-1,1245,568,0,0
28,456,0,0,0,0,0,0,0,0,0,-1,1252,568,0,0
35,456,0,0,0,0,0,0,0,0,0,-1,1259,568,0,0
42,456,0,0,0,0,0,0,0,0,0,-1,1266,568,0,0
49,456,0,0,0,0,0,0,0,0,0,-1,1273,568,0,0
56,456,0,0,0,0,0,0,0,0,0,-1,1280,568,0,0
63,456,0,0,0,0,0,0,0,0,0,-1,1287,568,0,0
70,456,0,0,0,0,0,0,0,0,0,-1,1294,568,0,0
77,456,0,0,0,0,0,0,0,0,0,-1,1301,568,0,0
84,456,0,0,0,0,0,0,0,0,0,-1,1308,568,0,0
91,456,0,0,0,0,0,0,0,0,0,-1,1315,568,0,0
98,456,0,0,0,0,0,0,0,0,0,-1,1322,568,0,0
105,456,0,0,0,0,0,0,0,0,0,-1,1329,568,0,0
112,456,0,0,0,0,0,0,0,0,0,-1,1336,568,0,0
119,456,0,0,0,0,0,0,0,0,0,-1,1343,568,0,0
126,456,0,0,0,0,0,0,0,0,0,-1,1350,568,0,0
133,456,0,0,0,0,0,0,0,0,0,-1,1357,568,0,0
140,456,0,0,0,0,0,0,0,0,0,-1,1364,568,0,0
147,456,0,0,0,0,0,0,0,0,0,-1,1371,568,0,0
154,456,0,0,0,0,0,0,0,0,0,-1,1378,568,0,0
161,456,0,0,0,0,0,0,0,0,0,-1,1385,568,0,0
168,456,0,0,0,0,0,0,0,0,0,-1,1392,568,0,0
175,456,0,0,0,0,0,0,0,0,0,-1,1399,568,0,0
182,456,0,0,0,0,0,0,0,0,0,-1,1406,568,0,0
189,456,0,0,0,0,0,0,0,0,0,-1,1413,568,0,0
196,456,0,0,0,0,0,0,0,0,0,-1,1420,568,0,0
203,456,0,0,0,0,0,0,0,0,0,-1,1427,568,0,0
210,456,0,0,0,0,0,0,0,0,0,-1,1434,568,0,0
217,456,0,0,0,0,0,0,0,0,0,-1,1441,568,0,0
224,456,0,0,0,0,0,0,0,0,0,-1,1448,568,0,0
231,456,0,0,0,0,0,0,0,0,0,-1,1455,568,0,0
238,456,0,0,0,0,0,0,0,0,0,-1,1462,568,0,0
245,456,0,0,0,0,0,0,0,0,0,-1,1469,568,0,0
252,456,0,0,0,0,0,0,0,0,0,-1,1476,568,0,0
259,456,0,0,0,0,0,0,0,0,0,-1,1483,568,0,0
266,456,0,0,0,0,0,0,0,0,0,-1,1490,568,0,0
273,456,0,0,0,0,0,0,0,0,0,-1,1497,568,0,0
280,456,0,0,0,0,0,0,0,0,0,-1,1504,568,0,0
287,456,0,0,0,0,0,0,0,0,0,-1,1511,568,0,0
294,456,0,0,0,0,0,0,0,0,0,-1,1518,568,0,0
301,456,0,0,0,0,0,0,0,0,0,-1,1525,568,0,0
308,456,0,0,0,0,0,0,0,0,0,-1,1532,568,0,0
315,456,0,0,0,0,0,0,0,0,0,-1,1539,568,0,0
322,456,0,0,0,0,0,0,0,0,0,-1,1546,568,0,0
329,456,0,0,0,0,0,0,0,0,0,-1,1553,568,0,0
336,456,0,0,0,0,0,0,0,0,0,-1,1560,568,0,0
343,456,0,0,0,0,0,0,0,0,0,-1,1567,568,0,0
350,456,0,0,0,0,0,0,0,0,0,-1,1574,568,0,0
357,456,0,0,0,0,0,0,0,0,0,-1,1581,568,0,0
364,456,0,0,0,0,0,0,0,0,0,-1,1588,568,0,0
371,456,0,0,0,0,0,0,0,0,0,-1,1595,568,0,0
378,456,0,0,0,0,0,0,0,0,0,-1,1602,568,0,0
385,456,5.66284,0.660645,0,0,0,0,0,0,0,-1,1609,568,5.66285,-0.660615
392,456,17.5027,4.32971,0,0,0,0,0,0,0,-1,1616,568,17.5026,-4.32971
399,456,24.1917,5.99652,0,0,0,0,0,0,0,-1,1623,568,24.1916,-5.99651
406,456,24.446,4.53003,0,0,0,0,0,0,0,-1,1630,568,24.446,-4.53005
413,456,24.9418,2.90521,0,0,0,0,0,0,0,-1,1637,568,24.9418,-2.90524
420,456,25.3048,1.04712,0,0,0,0,0,0,0,-1,1644,568,25.3048,-1.04713
427,456,6.21375,2.02905,0,0,0,0,0,0,0,-1,1651,568,6.21372,-2.02904
434,456,3.0719,-4.86285,0,0,0,0,0,0,0,-1,1658,568,3.07184,4.86287
441,456,2.90344,-4.70459,0,0,0,0,0,0,0,-1,1665,568,2.90346,4.7046
448,456,3.06995,-4.93689,0,0,0,0,0,0,0,-1,1672,568,3.06991,4.93687
455,456,3.46582,-3.43701,0,0,0,0,0,0,0,-1,1679,568,3.46585,3.43698
462,456,4.68445,-4.45831,0,0,0,0,0,0,0,-1,1686,568,4.68439,4.45833
469,456,4.93201,-2.289,0,0,0,0,0,0,0,-1,1693,568,4.93197,2.28903
476,456,4.8363,-2.79364,0,0,0,0,0,0,0,-1,1700,568,4.83636,2.79363
483,456,12.8522,-13.692,0,0,0,0,0,0,0,-1,1707,568,12.8522,13.6919
490,456,17.8256,-18.5448,0,0,0,0,0,0,0,-1,1714,568,17.8255,18.5448
497,456,17.8304,-17.5972,0,0,0,0,0,0,0,-1,1721,568,17.8304,17.5972
504,456,17.8046,-17.0082,0.00304801,0.00178835,0.00137618,0.00393164,0.000904725,0.570793,0.00237761,0.0140227,1728,568,17.8045,17.0083
511,456,17.8458,-16.3797,0.00253704,0.00157923,0.00131786,0.00346032,0.000655952,0.61112,0.00212229,0.0150315,1735,568,17.8458,16.3797
518,456,17.8422,-15.7249,0.00200324,0.00136925,0.00128878,0.00301344,0.00035906,0.664809,0.00190061,0.018393,1742,568,17.8422,15.7249
525,456,17.7848,-15.1069,0.00141239,0.00122903,0.00122017,0.00254432,9.70947e-05,0.747899,0.00166479,0.0176902,1749,568,17.7848,15.1069
532,456,17.7732,-14.4424,0.000843052,0.00116623,0.00116873,0.00218449,-0.000175203,0.854093,0.0015181,0.0168527,1756,568,17.7732,14.4425
539,456,17.7255,-13.7709,0.00034052,0.00113645,0.00112633,0.00193306,-0.000456087,0.955217,0.0014646,0.0215341,1763,568,17.7254,13.7709
546,456,17.6692,-13.1357,-8.05983e-05,0.00128215,0.00112198,0.00191345,-0.000711901,1.05828,0.00156777,0.0239435,1770,568,17.6692,13.1357
553,456,17.6328,-12.4558,-0.000430511,0.00153829,0.00120262,0.00210803,-0.00100025,1.12837,0.00183216,0.0147223,1777,568,17.6328,12.4558
560,456,17.6383,-11.8517,-0.000621918,0.00191401,0.00137971,0.0025199,-0.00122781,1.15701,0.00220619,0.0114993,1784,568,17.6383,11.8517
567,456,17.6143,-11.1935,-0.000542315,0.00254108,0.00179014,0.00336189,-0.00136313,1.14088,0.00280817,0.0192403,1791,568,17.6143,11.1935
574,456,17.6014,-10.5475,0,0,0,0,0,0,0,-1,1798,568,17.6014,10.5476
581,456,16.2228,-9.08563,0,0,0,0,0,0,0,-1,1805,568,16.2228,9.08562
588,456,5.23901,-0.0901489,0,0,0,0,0,0,0,-1,1812,568,5.23906,0.0901656
595,456,6.90063,3.14886,0,0,0,0,0,0,0,-1,1819,568,6.90066,-3.14887
602,456,16.894,4.10938,0,0,0,0,0,0,0,-1,1826,568,16.8941,-4.1094
609,456,14.9966,3.5708,0,0,0,0,0,0,0,-1,1833,568,14.9966,-3.57083
616,456,17.7407,2.6579,0,0,0,0,0,0,0,-1,1840,568,17.7408,-2.6579
623,456,20.6838,1.7121,0,0,0,0,0,0,0,-1,1847,568,20.6838,-1.71208
630,456,0,0,0,0,0,0,0,0,0,-1,1854,568,0,0
637,456,0,0,0,0,0,0,0,0,0,-1,1861,568,0,0
644,456,0,0,0,0,0,0,0,0,0,-1,1868,568,0,0
651,456,0,0,0,0,0,0,0,0,0,-1,1875,568,0,0
658,456,0,0,0,0,0,0,0,0,0,-1,1882,568,0,0
665,456,0,0,0,0,0,0,0,0,0,-1,1889,568,0,0
672,456,0,0,0,0,0,0,0,0,0,-1,1896,568,0,0
679,456,0,0,0,0,0,0,0,0,0,-1,1903,568,0,0
686,456,0,0,0,0,0,0,0,0,0,-1,1910,568,0,0
693,456,0,0,0,0,0,0,0,0,0,-1,1917,568,0,0
700,456,0,0,0,0,0,0,0,0,0,-1,1924,568,0,0
707,456,0,0,0,0,0,0,0,0,0,-1,1931,568,0,0
714,456,0,0,0,0,0,0,0,0,0,-1,1938,568,0,0
721,456,0,0,0,0,0,0,0,0,0,-1,1945,568,0,0
728,456,0,0,0,0,0,0,0,0,0,-1,1952,568,0,0
735,456,0,0,0,0,0,0,0,0,0,-1,1959,568,0,0
742,456,0,0,0,0,0,0,0,0,0,-1,1966,568,0,0
749,456,0,0,0,0,0,0,0,0,0,-1,1973,568,0,0
756,456,0,0,0,0,0,0,0,0,0,-1,1980,568,0,0
763,456,0,0,0,0,0,0,0,0,0,-1,1987,568,0,0
770,456,0,0,0,0,0,0,0,0,0,-1,1994,568,0,0
777,456,0,0,0,0,0,0,0,0,0,-1,2001,568,0,0
784,456,0,0,0,0,0,0,0,0,0,-1,2008,568,0,0
791,456,0,0,0,0,0,0,0,0,0,-1,2015,568,0,0
798,456,0,0,0,0,0,0,0,0,0,-1,2022,568,0,0
805,456,0,0,0,0,0,0,0,0,0,-1,2029,568,0,0
812,456,0,0,0,0,0,0,0,0,0,-1,2036,568,0,0
-700,449,0,0,0,0,0,0,0,0,0,-1,524,575,0,0
-693,449,0,0,0,0,0,0,0,0,0,-1,531,575,0,0
-686,449,0,0,0,0,0,0,0,0,0,-1,538,575,0,0
-679,449,0,0,0,0,0,0,0,0,0,-1,545,575,0,0
-672,449,0,0,0,0,0,0,0,0,0,-1,552,575,0,0
-665,449,0,0,0,0,0,0,0,0,0,-1,559,575,0,0
-658,449,0,0,0,0,0,0,0,0,0,-1,566,575,0,0
-651,449,0,0,0,0,0,0,0,0,0,-1,573,575,0,0
-644,449,0,0,0,0,0,0,0,0,0,-1,580,575,0,0
-637,449,0,0,0,0,0,0,0,0,0,-1,587,575,0,0
-630,449,0,0,0,0,0,0,0,0,0,-1,594,575,0,0
-623,449,0,0,0,0,0,0,0,0,0,-1,601,575,0,0
-616,449,0,0,0,0,0,0,0,0,0,-1,608,575,0,0
-609,449,0,0,0,0,0,0,0,0,0,-1,615,575,0,0
-602,449,0,0,0,0,0,0,0,0,0,-1,622,575,0,0
-595,449,0,0,0,0,0,0,0,0,0,-1,629,575,0,0
-588,449,0,0,0,0,0,0,0,0,0,-1,636,575,0,0
-581,449,0,0,0,0,0,0,0,0,0,-1,643,575,0,0
-574,449,0,0,0,0,0,0,0,0,0,-1,650,575,0,0
-567,449,0,0,0,0,0,0,0,0,0,-1,657,575,0,0
-560,449,0,0,0,0,0,0,0,0,0,-1,664,575,0,0
-553,449,0,0,0,0,0,0,0,0,0,-1,671,575,0,0
-546,449,0,0,0,0,0,0,0,0,0,-1,678,575,0,0
-539,449,0,0,0,0,0,0,0,0,0,-1,685,575,0,0
-532,449,0,0,0,0,0,0,0,0,0,-1,692,575,0,0
-525,449,0,0,0,0,0,0,0,0,0,-1,699,575,0,0
-518,449,0,0,0,0,0,0,0,0,0,-1,706,575,0,0
-511,449,-0.941345,-4.4519,0,0,0,0,0,0,0,-1,713,575,-0.941356,4.45191
-504,449,-14.1078,0.318237,0,0,0,0,0,0,0,-1,720,575,-14.1078,-0.318231
-497,449,-8.61292,-3.09009,0,0,0,0,0,0,0,-1,727,575,-8.61291,3.09011
-490,449,-7.50995,-2.96252,0,0,0,0,0,0,0,-1,734,575,-7.50995,2.96251
-483,449,-5.77789,-2.50061,0,0,0,0,0,0,0,-1,741,575,-5.77792,2.50059
-476,449,-4.1723,-2.07739,0,0,0,0,0,0,0,-1,748,575,-4.17228,2.0774
-469,449,-5.0976,-5.78448,0,0,0,0,0,0,0,-1,755,575,-5.09758,5.78451
-462,449,-6.54181,-9.54535,0,0,0,0,0,0,0,-1,762,575,-6.54178,9.54536
-455,449,-7.29797,-10.9537,0,0,0,0,0,0,0,-1,769,575,-7.29795,10.9538
-448,449,-7.03064,-11.8658,0.00703203,0.00908489,-0.00545052,0.0136048,0.00251213,-0.878467,0.00835926,0.0429617,776,575,-7.03065,11.8658
-441,449,-7.03259,-12.7241,0.00484237,0.00738182,-0.00414751,0.0104496,0.00177458,-0.933939,0.00645668,0.0213458,783,575,-7.03258,12.7241
-434,449,-7.12524,-13.2916,0.00336258,0.00596546,-0.00316249,0.00808382,0.00124422,-0.980599,0.00502608,0.0140412,790,575,-7.12522,13.2916
-427,449,-7.13538,-13.9098,0.00236019,0.00474681,-0.00239683,0.00623096,0.000876041,-1.01637,0.00389494,0.0132816,797,575,-7.13539,13.9098
-420,449,-7.16095,-14.5515,0.00145012,0.003448,-0.00156092,0.00430226,0.000595859,-1.07004,0.00269163,0.013151,804,575,-7.16093,14.5515
-413,449,-7.17615,-15.1663,0.00107616,0.00233805,-0.0010922,0.00296845,0.000445759,-1.04732,0.00184839,0.0105247,811,575,-7.17612,15.1663
-406,449,-7.20465,-15.7844,0.000982012,0.00116184,-0.000544164,0.00162347,0.000520384,-0.867274,0.000957223,0.00953661,818,575,-7.20466,15.7844
-399,449,-7.22717,-16.3802,0.00105871,8.74468e-05,-5.84385e-05,0.00106221,8.39433e-05,-0.0598797,0.000681884,0.00937941,825,575,-7.22718,16.3802
-392,449,-7.23669,-16.972,0.00136036,-0.00102574,0.000387151,0.0014216,-0.00108699,0.156892,0.00145262,0.0103785,832,575,-7.23667,16.9721
-385,449,-7.25409,-17.5576,0.00181725,-0.0020229,0.00073762,0.00195406,-0.0021597,0.183389,0.00237607,0.0110439,839,575,-7.25407,17.5575
-378,449,-7.29071,-18.1566,0.002373,-0.00300055,0.0010964,0.00258809,-0.00321564,0.193723,0.00335731,0.0101668,846,575,-7.29073,18.1566
-371,449,-7.29077,-18.7744,0.00317764,-0.00379099,0.00144422,0.00346509,-0.00407845,0.196469,0.00436006,0.0174097,853,575,-7.29076,18.7744
-364,449,-7.27924,-19.3607,0,0,0,0,0,0,0,-1,860,575,-7.27926,19.3607
-357,449,-5.88049,-15.8704,0,0,0,0,0,0,0,-1,867,575,-5.88051,15.8704
-350,449,-2.8764,-9.90204,0,0,0,0,0,0,0,-1,874,575,-2.87638,9.90203
-343,449,-2.98492,-9.2254,0,0,0,0,0,0,0,-1,881,575,-2.98491,9.22541
-336,449,-1.29523,-9.54626,0,0,0,0,0,0,0,-1,888,575,-1.29525,9.54626
-329,449,-0.733398,-7.78937,0,0,0,0,0,0,0,-1,895,575,-0.733398,7.78937
-322,449,-0.628845,-3.16669,0,0,0,0,0,0,0,-1,902,575,-0.628861,3.16667
-315,449,-0.540344,-3.21918,0,0,0,0,0,0,0,-1,909,575,-0.540336,3.21917
-308,449,-1.04413,-2.99341,0,0,0,0,0,0,0,-1,916,575,-1.04415,2.99338
-301,449,-1.58691,-2.80725,0,0,0,0,0,0,0,-1,923,575,-1.58692,2.80728
-294,449,-3.71118,-2.76086,0,0,0,0,0,0,0,-1,930,575,-3.71119,2.76087
-287,449,-4.4082,-2.69525,0,0,0,0,0,0,0,-1,937,575,-4.40822,2.69526
-280,449,0.422119,-14.0788,0,0,0,0,0,0,0,-1,944,575,0.422122,14.0788
-273,449,0,0,0,0,0,0,0,0,0,-1,951,575,0,0
-266,449,0,0,0,0,0,0,0,0,0,-1,958,575,0,0
-259,449,0,0,0,0,0,0,0,0,0,-1,965,575,0,0
-252,449,0,0,0,0,0,0,0,0,0,-1,972,575,0,0
-245,449,0,0,0,0,0,0,0,0,0,-1,979,575,0,0
-238,449,0,0,0,0,0,0,0,0,0,-1,986,575,0,0
-231,449,0,0,0,0,0,0,0,0,0,-1,993,575,0,0
-224,449,0,0,0,0,0,0,0,0,0,-1,1000,575,0,0
-217,449,0,0,0,0,0,0,0,0,0,-1,1007,575,0,0
-210,449,0,0,0,0,0,0,0,0,0,-1,1014,575,0,0
-203,449,0,0,0,0,0,0,0,0,0,-1,1021,575,0,0
-196,449,0,0,0,0,0,0,0,0,0,-1,1028,575,0,0
-189,449,0,0,0,0,0,0,0,0,0,-1,1035,575,0,0
-182,449,0,0,0,0,0,0,0,0,0,-1,1042,575,0,0
-175,449,0,0,0,0,0,0,0,0,0,-1,1049,575,0,0
-168,449,0,0,0,0,0,0,0,0,0,-1,1056,575,0,0
-161,449,0,0,0,0,0,0,0,0,0,-1,1063,575,0,0
-154,449,0,0,0,0,0,0,0,0,0,-1,1070,575,0,0
-147,449,0,0,0,0,0,0,0,0,0,-1,1077,575,0,0
-140,449,0,0,0,0,0,0,0,0,0,-1,1084,575,0,0
-133,449,0,0,0,0,0,0,0,0,0,-1,1091,575,0,0
-126,449,0,0,0,0,0,0,0,0,0,-1,1098,575,0,0
-119,449,0,0,0,0,0,0,0,0,0,-1,1105,575,0,0
-112,449,0,0,0,0,0,0,0,0,0,-1,1112,575,0,0
-105,449,0,0,0,0,0,0,0,0,0,-1,1119,575,0,0
-98,449,0,0,0,0,0,0,0,0,0,-1,1126,575,0,0
-91,449,0,0,0,0,0,0,0,0,0,-1,1133,575,0,0
-84,449,0,0,0,0,0,0,0,0,0,-1,1140,575,0,0
-77,449,0,0,0,0,0,0,0,0,0,-1,1147,575,0,0
-70,449,0,0,0,0,0,0,0,0,0,-1,1154,575,0,0
-63,449,0,0,0,0,0,0,0,0,0,-1,1161,575,0,0
-56,449,0,0,0,0,0,0,0,0,0,-1,1168,575,0,0
-49,449,0,0,0,0,0,0,0,0,0,-1,1175,575,0,0
-42,449,0,0,0,0,0,0,0,0,0,-1,1182,575,0,0
-35,449,0,0,0,0,0,0,0,0,0,-1,1189,575,0,0
-28,449,0,0,0,0,0,0,0,0,0,-1,1196,575,0,0
-21,449,0,0,0,0,0,0,0,0,0,-1,1203,575,0,0
-14,449,0,0,0,0,0,0,0,0,0,-1,1210,575,0,0
-7,449,0,0,0,0,0,0,0,0,0,-1,1217,575,0,0
0,449,0,0,0,0,0,0,0,0,0,-1,1224,575,0,0
7,449,0,0,0,0,0,0,0,0,0,-1,1231,575,0,0
14,449,0,0,0,0,0,0,0,0,0,-1,1238,575,0,0
21,449,0,0,0,0,0,0,0,0,0,-1,1245,575,0,0
28,449,0,0,0,0,0,0,0,0,0,-1,1252,575,0,0
35,449,0,0,0,0,0,0,0,0,0,-1,1259,575,0,0
42,449,0,0,0,0,0,0,0,0,0,-1,1266,575,0,0
49,449,0,0,0,0,0,0,0,0,0,-1,1273,575,0,0
56,449,0,0,0,0,0,0,0,0,0,-1,1280,575,0,0
63,449,0,0,0,0,0,0,0,0,0,-1,1287,575,0,0
70,449,0,0,0,0,0,0,0,0,0,-1,1294,575,0,0
77,449,0,0,0,0,0,0,0,0,0,-1,1301,575,0,0
84,449,0,0,0,0,0,0,0,0,0,-1,1308,575,0,0
91,449,0,0,0,0,0,0,0,0,0,-1,1315,575,0,0
98,449,0,0,0,0,0,0,0,0,0,-1,1322,575,0,0
105,449,0,0,0,0,0,0,0,0,0,-1,1329,575,0,0
112,449,0,0,0,0,0,0,0,0,0,-1,1336,575,0,0
119,449,0,0,0,0,0,0,0,0,0,-1,1343,575,0,0
126,449,0,0,0,0,0,0,0,0,0,-1,1350,575,0,0
133,449,0,0,0,0,0,0,0,0,0,-1,1357,575,0,0
140,449,0,0,0,0,0,0,0,0,0,-1,1364,575,0,0
147,449,0,0,0,0,0,0,0,0,0,-1,1371,575,0,0
154,449,0,0,0,0,0,0,0,0,0,-1,1378,575,0,0
161,449,0,0,0,0,0,0,0,0,0,-1,1385,575,0,0
168,449,0,0,0,0,0,0,0,0,0,-1,1392,575,0,0
175,449,0,0,0,0,0,0,0,0,0,-1,1399,575,0,0
182,449,0,0,0,0,0,0,0,0,0,-1,1406,575,0,0
189,449,0,0,0,0,0,0,0,0,0,-1,1413,575,0,0
196,449,0,0,0,0,0,0,0,0,0,-1,1420,575,0,0
203,449,0,0,0,0,0,0,0,0,0,-1,1427,575,0,0
210,449,0,0,0,0,0,0,0,0,0,-1,1434,575,0,0
217,449,0,0,0,0,0,0,0,0,0,-1,1441,575,0,0
224,449,0,0,0,0,0,0,0,0,0,-1,1448,575,0,0
231,449,0,0,0,0,0,0,0,0,0,-1,1455,575,0,0
238,449,0,0,0,0,0,0,0,0,0,-1,1462,575,0,0
245,449,0,0,0,0,0,0,0,0,0,-1,1469,575,0,0
252,449,0,0,0,0,0,0,0,0,0,-1,1476,575,0,0
259,449,0,0,0,0,0,0,0,0,0,-1,1483,575,0,0
266,449,0,0,0,0,0,0,0,0,0,-1,1490,575,0,0
273,449,0,0,0,0,0,0,0,0,0,-1,1497,575,0,0
280,449,0,0,0,0,0,0,0,0,0,-1,1504,575,0,0
287,449,0,0,0,0,0,0,0,0,0,-1,1511,575,0,0
294,449,0,0,0,0,0,0,0,0,0,-1,1518,575,0,0
301,449,0,0,0,0,0,0,0,0,0,-1,1525,575,0,0
308,449,0,0,0,0,0,0,0,0,0,-1,1532,575,0,0
315,449,0,0,0,0,0,0,0,0,0,-1,1539,575,0,0
322,449,0,0,0,0,0,0,0,0,0,-1,1546,575,0,0
329,449,0,0,0,0,0,0,0,0,0,-1,1553,575,0,0
336,449,0,0,0,0,0,0,0,0,0,-1,1560,575,0,0
343,449,0,0,0,0,0,0,0,0,0,-1,1567,575,0,0
350,449,0,0,0,0,0,0,0,0,0,-1,1574,575,0,0
357,449,0,0,0,0,0,0,0,0,0,-1,1581,575,0,0
364,449,0,0,0,0,0,0,0,0,0,-1,1588,575,0,0
371,449,0,0,0,0,0,0,0,0,0,-1,1595,575,0,0
378,449,0,0,0,0,0,0,0,0,0,-1,1602,575,0,0
385,449,0,0,0,0,0,0,0,0,0,-1,1609,575,0,0
392,449,7.95471,3.66217,0,0,0,0,0,0,0,-1,1616,575,7.95471,-3.66218
399,449,19.9791,5.565,0,0,0,0,0,0,0,-1,1623,575,19.9791,-5.56499
406,449,24.9847,4.55969,0,0,0,0,0,0,0,-1,1630,575,24.9848,-4.55968
413,449,30.4159,3.15027,0,0,0,0,0,0,0,-1,1637,575,30.4159,-3.15028
420,449,23.9675,1.29718,0,0,0,0,0,0,0,-1,1644,575,23.9675,-1.29721
427,449,24.4276,-0.596558,0,0,0,0,0,0,0,-1,1651,575,24.4277,0.596569
434,449,25.61,-2.96594,0,0,0,0,0,0,0,-1,1658,575,25.61,2.96595
441,449,3.89856,-6.06458,0,0,0,0,0,0,0,-1,1665,575,3.89855,6.06459
448,449,4.03198,-5.18207,0,0,0,0,0,0,0,-1,1672,575,4.03197,5.18207
455,449,4.21948,-4.09467,0,0,0,0,0,0,0,-1,1679,575,4.21952,4.09465
462,449,4.23181,-2.96924,0,0,0,0,0,0,0,-1,1686,575,4.23185,2.96926
469,449,4.51672,-2.95135,0,0,0,0,0,0,0,-1,1693,575,4.51672,2.95135
476,449,4.71838,-1.86688,0,0,0,0,0,0,0,-1,1700,575,4.71842,1.86689
483,449,4.87878,-1.73126,0,0,0,0,0,0,0,-1,1707,575,4.87875,1.73128
490,449,5.73279,-2.74573,0,0,0,0,0,0,0,-1,1714,575,5.73282,2.74575
497,449,17.2095,-16.4381,0,0,0,0,0,0,0,-1,1721,575,17.2094,16.4381
504,449,18.3669,-17.0264,0,0,0,0,0,0,0,-1,1728,575,18.3669,17.0264
511,449,18.4451,-16.3375,0.00334769,0.00198708,0.00167911,0.00447908,0.000855696,0.592926,0.00274563,0.0136028,1735,575,18.445,16.3376
518,449,18.4539,-15.6931,0.00285133,0.00159633,0.00155974,0.00390507,0.0005426,0.594149,0.00244268,0.0151591,1742,575,18.4539,15.6931
525,449,18.3995,-15.0807,0.00225467,0.00136075,0.00140583,0.00328288,0.000332541,0.631485,0.00208659,0.0144301,1749,575,18.3996,15.0807
532,449,18.3544,-14.45,0.0016775,0.00121926,0.00128304,0.00275172,0.000145042,0.697042,0.0017881,0.0118721,1756,575,18.3543,14.45
539,449,18.3181,-13.7845,0.00117807,0.0011446,0.00119833,0.00235978,-3.71155e-05,0.778417,0.00158571,0.0152384,1763,575,18.3182,13.7845
546,449,18.3014,-13.1143,0.000755228,0.00123234,0.0011538,0.00217199,-0.000184414,0.887341,0.00151321,0.0263027,1770,575,18.3014,13.1143
553,449,18.2599,-12.4958,0.000369454,0.00144776,0.00119664,0.0022211,-0.000403885,0.997056,0.00163211,0.0183168,1777,575,18.2599,12.4958
560,449,18.2751,-11.8561,9.38118e-05,0.00176799,0.00133831,0.00250944,-0.000647639,1.06487,0.0019255,0.0133312,1784,575,18.2752,11.8561
567,449,18.2373,-11.2109,4.22045e-05,0.00230918,0.00167097,0.00319484,-0.000843453,1.08342,0.00245973,0.0099837,1791,575,18.2373,11.2109
574,449,18.2427,-10.5229,1.95942e-05,0.00295833,0.00207395,0.00403068,-0.00105275,1.0936,0.00309824,0.0239189,1798,575,18.2427,10.523
581,449,18.2697,-9.75659,0,0,0,0,0,0,0,-1,1805,575,18.2697,9.75659
588,449,12.3274,-4.5672,0,0,0,0,0,0,0,-1,1812,575,12.3274,4.5672
595,449,15.9352,-5.65479,0,0,0,0,0,0,0,-1,1819,575,15.9352,5.65478
602,449,9.46167,4.17444,0,0,0,0,0,0,0,-1,1826,575,9.46164,-4.17442
609,449,12.2028,3.18652,0,0,0,0,0,0,0,-1,1833,575,12.2027,-3.18655
616,449,14.9438,2.19867,0,0,0,0,0,0,0,-1,1840,575,14.9438,-2.19867
623,449,9.83789,-0.0820313,0,0,0,0,0,0,0,-1,1847,575,9.83794,0.0820443
630,449,8.90686,4.99329,0,0,0,0,0,0,0,-1,1854,575,8.90685,-4.99327
637,449,0,0,0,0,0,0,0,0,0,-1,1861,575,0,0
644,449,0,0,0,0,0,0,0,0,0,-1,1868,575,0,0
651,449,0,0,0,0,0,0,0,0,0,-1,1875,575,0,0
658,449,0,0,0,0,0,0,0,0,0,-1,1882,575,0,0
665,449,0,0,0,0,0,0,0,0,0,-1,1889,575,0,0
672,449,0,0,0,0,0,0,0,0,0,-1,1896,575,0,0
679,449,0,0,0,0,0,0,0,0,0,-1,1903,575,0,0
686,449,0,0,0,0,0,0,0,0,0,-1,1910,575,0,0
693,449,0,0,0,0,0,0,0,0,0,-1,1917,575,0,0
700,449,0,0,0,0,0,0,0,0,0,-1,1924,575,0,0
707,449,0,0,0,0,0,0,0,0,0,-1,1931,575,0,0
714,449,0,0,0,0,0,0,0,0,0,-1,1938,575,0,0
721,449,0,0,0,0,0,0,0,0,0,-1,1945,575,0,0
728,449,0,0,0,0,0,0,0,0,0,-1,1952,575,0,0
735,449,0,0,0,0,0,0,0,0,0,-1,1959,575,0,0
742,449,0,0,0,0,0,0,0,0,0,-1,1966,575,0,0
749,449,0,0,0,0,0,0,0,0,0,-1,1973,575,0,0
756,449,0,0,0,0,0,0,0,0,0,-1,1980,575,0,0
763,449,0,0,0,0,0,0,0,0,0,-1,1987,575,0,0
770,449,0,0,0,0,0,0,0,0,0,-1,1994,575,0,0
777,449,0,0,0,0,0,0,0,0,0,-1,2001,575,0,0
784,449,0,0,0,0,0,0,0,0,0,-1,2008,575,0,0
791,449,0,0,0,0,0,0,0,0,0,-1,2015,575,0,0
798,449,0,0,0,0,0,0,0,0,0,-1,2022,575,0,0
805,449,0,0,0,0,0,0,0,0,0,-1,2029,575,0,0
812,449,0,0,0,0,0,0,0,0,0,-1,2036,575,0,0
-700,442,0,0,0,0,0,0,0,0,0,-1,524,582,0,0
-693,442,0,0,0,0,0,0,0,0,0,-1,531,582,0,0
-686,442,0,0,0,0,0,0,0,0,0,-1,538,582,0,0
-679,442,0,0,0,0,0,0,0,0,0,-1,545,582,0,0
-672,442,0,0,0,0,0,0,0,0,0,-1,552,582,0,0
-665,442,0,0,0,0,0,0,0,0,0,-1,559,582,0,0
-658,442,0,0,0,0,0,0,0,0,0,-1,566,582,0,0
-651,442,0,0,0,0,0,0,0,0,0,-1,573,582,0,0
-644,442,0,0,0,0,0,0,0,0,0,-1,580,582,0,0
-637,442,0,0,0,0,0,0,0,0,0,-1,587,582,0,0
-630,442,0,0,0,0,0,0,0,0,0,-1,594,582,0,0
-623,442,0,0,0,0,0,0,0,0,0,-1,601,582,0,0
-616,442,0,0,0,0,0,0,0,0,0,-1,608,582,0,0
-609,442,0,0,0,0,0,0,0,0,0,-1,615,582,0,0
-602,442,0,0,0,0,0,0,0,0,0,-1,622,582,0,0
-595,442,0,0,0,0,0,0,0,0,0,-1,629,582,0,0
-588,442,0,0,0,0,0,0,0,0,0,-1,636,582,0,0
-581,442,0,0,0,0,0,0,0,0,0,-1,643,582,0,0
-574,442,0,0,0,0,0,0,0,0,0,-1,650,582,0,0
-567,442,0,0,0,0,0,0,0,0,0,-1,657,582,0,0
-560,442,0,0,0,0,0,0,0,0,0,-1,664,582,0,0
-553,442,0,0,0,0,0,0,0,0,0,-1,671,582,0,0
-546,442,0,0,0,0,0,0,0,0,0,-1,678,582,0,0
-539,442,0,0,0,0,0,0,0,0,0,-1,685,582,0,0
-532,442,0,0,0,0,0,0,0,0,0,-1,692,582,0,0
-525,442,0,0,0,0,0,0,0,0,0,-1,699,582,0,0
-518,442,-0.493774,-5.72943,0,0,0,0,0,0,0,-1,706,582,-0.493791,5.72946
-511,442,-1.33008,-6.18512,0,0,0,0,0,0,0,-1,713,582,-1.33006,6.18511
-504,442,-3.20807,-6.34082,0,0,0,0,0,0,0,-1,720,582,-3.2081,6.34083
-497,442,-13.6886,-0.250122,0,0,0,0,0,0,0,-1,727,582,-13.6886,0.250143
-490,442,-9.09039,-3.64862,0,0,0,0,0,0,0,-1,734,582,-9.09037,3.64861
-483,442,-7.36499,-1.01892,0,0,0,0,0,0,0,-1,741,582,-7.365,1.01895
-476,442,-4.84784,-4.44141,0,0,0,0,0,0,0,-1,748,582,-4.84787,4.44138
-469,442,-7.84454,-9.26538,0,0,0,0,0,0,0,-1,755,582,-7.84452,9.2654
-462,442,-7.91815,-10.5306,0,0,0,0,0,0,0,-1,762,582,-7.91815,10.5306
-455,442,-7.77185,-11.345,0.00874276,0.00855432,-0.0060841,0.0147334,0.00256371,-0.777655,0.00908901,0.0491063,769,582,-7.77186,11.3449
-448,442,-7.6355,-11.9927,0.00610488,0.00668191,-0.00443124,0.010834,0.00195277,-0.817907,0.00666777,0.0188823,776,582,-7.63552,11.9927
-441,442,-7.67285,-12.6556,0.00422001,0.00510806,-0.00317364,0.00786858,0.00145949,-0.854902,0.00483325,0.0155198,783,582,-7.67288,12.6556
-434,442,-7.72058,-13.2679,0.00290807,0.00385162,-0.00222641,0.0056557,0.001104,-0.889804,0.00346165,0.0149795,790,582,-7.72059,13.2679
-427,442,-7.75897,-13.8911,0.00201643,0.00277153,-0.00149851,0.00393933,0.000848636,-0.908806,0.00239401,0.0142501,797,582,-7.75898,13.8911
-420,442,-7.77234,-14.5397,0.00121319,0.00165803,-0.000730006,0.00219875,0.000672474,-0.93327,0.00130096,0.0139938,804,582,-7.77236,14.5397
-413,442,-7.78528,-15.1517,0.000895596,0.000736213,-0.000306055,0.00113216,0.000499644,-0.658036,0.000655155,0.011466,811,582,-7.78528,15.1517
-406,442,-7.80719,-15.7633,0.000849759,-0.000212222,0.000155313,0.000872008,-0.00023447,0.14228,0.000673245,0.00983645,818,582,-7.80719,15.7633
-399,442,-7.83582,-16.3715,0.0010301,-0.00105086,0.00050505,0.00114619,-0.00116696,0.22595,0.00133552,0.00861359,825,582,-7.83584,16.3715
-392,442,-7.84613,-16.9398,0.00144764,-0.00187648,0.000784147,0.00162333,-0.00205217,0.220414,0.00212686,0.0107078,832,582,-7.84616,16.9398
-385,442,-7.87329,-17.5225,0.00201082,-0.00264883,0.000975502,0.0022068,-0.00284481,0.198262,0.00292429,0.0128109,839,582,-7.87331,17.5224
-378,442,-7.87933,-18.1414,0.00270185,-0.00340532,0.00117347,0.00291957,-0.00362303,0.183447,0.00378464,0.015649,846,582,-7.87934,18.1414
-371,442,-7.89954,-18.8365,0,0,0,0,0,0,0,-1,853,582,-7.89952,18.8365
-364,442,-6.89764,-17.5333,0,0,0,0,0,0,0,-1,860,582,-6.89765,17.5333
-357,442,-4.9115,-11.2649,0,0,0,0,0,0,0,-1,867,582,-4.91147,11.2649
-350,442,-1.75372,-6.27618,0,0,0,0,0,0,0,-1,874,582,-1.75371,6.27618
-343,442,-1.4599,-4.63605,0,0,0,0,0,0,0,-1,881,582,-1.4599,4.63607
-336,442,-1.4054,-2.64313,0,0,0,0,0,0,0,-1,888,582,-1.40539,2.64315
-329,442,-0.952576,-2.76923,0,0,0,0,0,0,0,-1,895,582,-0.952571,2.7692
-322,442,-0.972534,-2.63208,0,0,0,0,0,0,0,-1,902,582,-0.972512,2.6321
-315,442,-0.445557,-2.89764,0,0,0,0,0,0,0,-1,909,582,-0.445582,2.89765
-308,442,-0.654175,-3.07831,0,0,0,0,0,0,0,-1,916,582,-0.654145,3.07832
-301,442,-1.37427,-2.41455,0,0,0,0,0,0,0,-1,923,582,-1.37425,2.41453
-294,442,-2.99963,-2.07855,0,0,0,0,0,0,0,-1,930,582,-2.99964,2.07857
-287,442,2.69476,-8.19238,0,0,0,0,0,0,0,-1,937,582,2.69476,8.1924
-280,442,0,0,0,0,0,0,0,0,0,-1,944,582,0,0
-273,442,0,0,0,0,0,0,0,0,0,-1,951,582,0,0
-266,442,0,0,0,0,0,0,0,0,0,-1,958,582,0,0
-259,442,0,0,0,0,0,0,0,0,0,-1,965,582,0,0
-252,442,0,0,0,0,0,0,0,0,0,-1,972,582,0,0
-245,442,0,0,0,0,0,0,0,0,0,-1,979,582,0,0
-238,442,0,0,0,0,0,0,0,0,0,-1,986,582,0,0
-231,442,0,0,0,0,0,0,0,0,0,-1,993,582,0,0
-224,442,0,0,0,0,0,0,0,0,0,-1,1000,582,0,0
-217,442,0,0,0,0,0,0,0,0,0,-1,1007,582,0,0
-210,442,0,0,0,0,0,0,0,0,0,-1,1014,582,0,0
-203,442,0,0,0,0,0,0,0,0,0,-1,1021,582,0,0
-196,442,0,0,0,0,0,0,0,0,0,-1,1028,582,0,0
-189,442,0,0,0,0,0,0,0,0,0,-1,1035,582,0,0
-182,442,0,0,0,0,0,0,0,0,0,-1,1042,582,0,0
-175,442,0,0,0,0,0,0,0,0,0,-1,1049,582,0,0
-168,442,0,0,0,0,0,0,0,0,0,-1,1056,582,0,0
-161,442,0,0,0,0,0,0,0,0,0,-1,1063,582,0,0
-154,442,0,0,0,0,0,0,0,0,0,-1,1070,582,0,0
-147,442,0,0,0,0,0,0,0,0,0,-1,1077,582,0,0
-140,442,0,0,0,0,0,0,0,0,0,-1,1084,582,0,0
-133,442,0,0,0,0,0,0,0,0,0,-1,1091,582,0,0
-126,442,0,0,0,0,0,0,0,0,0,-1,1098,582,0,0
-119,442,0,0,0,0,0,0,0,0,0,-1,1105,582,0,0
-112,442,0,0,0,0,0,0,0,0,0,-1,1112,582,0,0
-105,442,0,0,0,0,0,0,0,0,0,-1,1119,582,0,0
-98,442,0,0,0,0,0,0,0,0,0,-1,1126,582,0,0
-91,442,0,0,0,0,0,0,0,0,0,-1,1133,582,0,0
-84,442,0,0,0,0,0,0,0,0,0,-1,1140,582,0,0
-77,442,0,0,0,0,0,0,0,0,0,-1,1147,582,0,0
-70,442,0,0,0,0,0,0,0,0,0,-1,1154,582,0,0
-63,442,0,0,0,0,0,0,0,0,0,-1,1161,582,0,0
-56,442,0,0,0,0,0,0,0,0,0,-1,1168,582,0,0
-49,442,0,0,0,0,0,0,0,0,0,-1,1175,582,0,0
-42,442,0,0,0,0,0,0,0,0,0,-1,1182,582,0,0
-35,442,0,0,0,0,0,0,0,0,0,-1,1189,582,0,0
-28,442,0,0,0,0,0,0,0,0,0,-1,1196,582,0,0
-21,442,0,0,0,0,0,0,0,0,0,-1,1203,582,0,0
-14,442,0,0,0,0,0,0,0,0,0,-1,1210,582,0,0
-7,442,0,0,0,0,0,0,0,0,0,-1,1217,582,0,0
0,442,0,0,0,0,0,0,0,0,0,-1,1224,582,0,0
7,442,0,0,0,0,0,0,0,0,0,-1,1231,582,0,0
14,442,0,0,0,0,0,0,0,0,0,-1,1238,582,0,0
21,442,0,0,0,0,0,0,0,0,0,-1,1245,582,0,0
28,442,0,0,0,0,0,0,0,0,0,-1,1252,582,0,0
35,442,0,0,0,0,0,0,0,0,0,-1,1259,582,0,0
42,442,0,0,0,0,0,0,0,0,0,-1,1266,582,0,0
49,442,0,0,0,0,0,0,0,0,0,-1,1273,582,0,0
56,442,0,0,0,0,0,0,0,0,0,-1,1280,582,0,0
63,442,0,0,0,0,0,0,0,0,0,-1,1287,582,0,0
70,442,0,0,0,0,0,0,0,0,0,-1,1294,582,0,0
77,442,0,0,0,0,0,0,0,0,0,-1,1301,582,0,0
84,442,0,0,0,0,0,0,0,0,0,-1,1308,582,0,0
91,442,0,0,0,0,0,0,0,0,0,-1,1315,582,0,0
98,442,0,0,0,0,0,0,0,0,0,-1,1322,582,0,0
105,442,0,0,0,0,0,0,0,0,0,-1,1329,582,0,0
112,442,0,0,0,0,0,0,0,0,0,-1,1336,582,0,0
119,442,0,0,0,0,0,0,0,0,0,-1,1343,582,0,0
126,442,0,0,0,0,0,0,0,0,0,-1,1350,582,0,0
133,442,0,0,0,0,0,0,0,0,0,-1,1357,582,0,0
140,442,0,0,0,0,0,0,0,0,0,-1,1364,582,0,0
147,442,0,0,0,0,0,0,0,0,0,-1,1371,582,0,0
154,442,0,0,0,0,0,0,0,0,0,-1,1378,582,0,0
161,442,0,0,0,0,0,0,0,0,0,-1,1385,582,0,0
168,442,0,0,0,0,0,0,0,0,0,-1,1392,582,0,0
175,442,0,0,0,0,0,0,0,0,0,-1,1399,582,0,0
182,442,0,0,0,0,0,0,0,0,0,-1,1406,582,0,0
189,442,0,0,0,0,0,0,0,0,0,-1,1413,582,0,0
196,442,0,0,0,0,0,0,0,0,0,-1,1420,582,0,0
203,442,0,0,0,0,0,0,0,0,0,-1,1427,582,0,0
210,442,0,0,0,0,0,0,0,0,0,-1,1434,582,0,0
217,442,0,0,0,0,0,0,0,0,0,-1,1441,582,0,0
224,442,0,0,0,0,0,0,0,0,0,-1,1448,582,0,0
231,442,0,0,0,0,0,0,0,0,0,-1,1455,582,0,0
238,442,0,0,0,0,0,0,0,0,0,-1,1462,582,0,0
245,442,0,0,0,0,0,0,0,0,0,-1,1469,582,0,0
252,442,0,0,0,0,0,0,0,0,0,-1,1476,582,0,0
259,442,0,0,0,0,0,0,0,0,0,-1,1483,582,0,0
266,442,0,0,0,0,0,0,0,0,0,-1,1490,582,0,0
273,442,0,0,0,0,0,0,0,0,0,-1,1497,582,0,0
280,442,0,0,0,0,0,0,0,0,0,-1,1504,582,0,0
287,442,0,0,0,0,0,0,0,0,0,-1,1511,582,0,0
294,442,0,0,0,0,0,0,0,0,0,-1,1518,582,0,0
301,442,0,0,0,0,0,0,0,0,0,-1,1525,582,0,0
308,442,0,0,0,0,0,0,0,0,0,-1,1532,582,0,0
315,442,0,0,0,0,0,0,0,0,0,-1,1539,582,0,0
322,442,0,0,0,0,0,0,0,0,0,-1,1546,582,0,0
329,442,0,0,0,0,0,0,0,0,0,-1,1553,582,0,0
336,442,0,0,0,0,0,0,0,0,0,-1,1560,582,0,0
343,442,0,0,0,0,0,0,0,0,0,-1,1567,582,0,0
350,442,0,0,0,0,0,0,0,0,0,-1,1574,582,0,0
357,442,0,0,0,0,0,0,0,0,0,-1,1581,582,0,0
364,442,0,0,0,0,0,0,0,0,0,-1,1588,582,0,0
371,442,0,0,0,0,0,0,0,0,0,-1,1595,582,0,0
378,442,0,0,0,0,0,0,0,0,0,-1,1602,582,0,0
385,442,0,0,0,0,0,0,0,0,0,-1,1609,582,0,0
392,442,0,0,0,0,0,0,0,0,0,-1,1616,582,0,0
399,442,0,0,0,0,0,0,0,0,0,-1,1623,582,0,0
406,442,17.6321,4.08295,0,0,0,0,0,0,0,-1,1630,582,17.6321,-4.08293
413,442,25.4768,2.74445,0,0,0,0,0,0,0,-1,1637,582,25.4768,-2.74444
420,442,22.7478,1.55011,0,0,0,0,0,0,0,-1,1644,582,22.7478,-1.55009
427,442,23.2969,-0.456787,0,0,0,0,0,0,0,-1,1651,582,23.2968,0.456769
434,442,23.9512,-2.49365,0,0,0,0,0,0,0,-1,1658,582,23.9512,2.49366
441,442,24.8251,-4.43958,0,0,0,0,0,0,0,-1,1665,582,24.8251,4.43956
448,442,4.7749,-5.88562,0,0,0,0,0,0,0,-1,1672,582,4.7749,5.8856
455,442,4.87024,-4.60687,0,0,0,0,0,0,0,-1,1679,582,4.87019,4.60686
462,442,5.02307,-3.72821,0,0,0,0,0,0,0,-1,1686,582,5.02311,3.7282
469,442,5.12976,-2.98834,0,0,0,0,0,0,0,-1,1693,582,5.12971,2.98834
476,442,5.4624,1.76947,0,0,0,0,0,0,0,-1,1700,582,5.46234,-1.76944
483,442,5.98486,1.87042,0,0,0,0,0,0,0,-1,1707,582,5.98492,-1.87045
490,442,5.04407,-2.35834,0,0,0,0,0,0,0,-1,1714,582,5.04411,2.35837
497,442,6.20984,-3.07831,0,0,0,0,0,0,0,-1,1721,582,6.2098,3.07833
504,442,18.9065,-17.2861,0,0,0,0,0,0,0,-1,1728,582,18.9065,17.2861
511,442,19.0054,-16.4096,0.00420169,0.00260635,0.00197461,0.00553366,0.00127438,0.593439,0.00334621,0.0412875,1735,582,19.0054,16.4096
518,442,19.0645,-15.6705,0.00368612,0.00198228,0.00180279,0.00482814,0.000840259,0.564672,0.00297845,0.0132489,1742,582,19.0644,15.6705
525,442,19.0057,-15.0579,0.00302575,0.00161962,0.00158444,0.00405611,0.000589266,0.576583,0.00253062,0.011645,1749,582,19.0058,15.0579
532,442,18.9889,-14.4186,0.00239544,0.00137031,0.00140597,0.00337936,0.000386385,0.610603,0.0021358,0.0119278,1756,582,18.9889,14.4186
539,442,18.9733,-13.7552,0.00187005,0.00124174,0.00129342,0.00288692,0.000224871,0.666263,0.00185421,0.0135185,1763,582,18.9732,13.7552
546,442,18.9659,-13.1346,0.0014243,0.0012534,0.00121733,0.00255918,0.000118524,0.750358,0.00166802,0.0173629,1770,582,18.9659,13.1346
553,442,18.9114,-12.4966,0.00100215,0.00140389,0.00122299,0.00244239,-3.63557e-05,0.866795,0.00164051,0.0172731,1777,582,18.9114,12.4966
560,442,18.908,-11.8301,0.000664902,0.00164644,0.00131655,0.00256071,-0.000249372,0.963805,0.00179605,0.0135123,1784,582,18.908,11.8301
567,442,18.8802,-11.1909,0.000527766,0.00207214,0.00155967,0.00304031,-0.000440405,1.01526,0.0021885,0.0100268,1791,582,18.8803,11.1909
574,442,18.879,-10.5328,0.000482655,0.00262734,0.00188317,0.00372208,-0.000612087,1.04422,0.00270857,0.0132281,1798,582,18.879,10.5328
581,442,18.9231,-9.78412,0.000503649,0.00325928,0.00229491,0.00455822,-0.000795288,1.05575,0.00333566,0.0281766,1805,582,18.9231,9.78413
588,442,19.0098,-9.00464,0,0,0,0,0,0,0,-1,1812,582,19.0097,9.00461
595,442,16.27,-6.47083,0,0,0,0,0,0,0,-1,1819,582,16.27,6.47082
602,442,16.2213,-4.49225,0,0,0,0,0,0,0,-1,1826,582,16.2213,4.49223
609,442,12.761,2.97223,0,0,0,0,0,0,0,-1,1833,582,12.761,-2.97221
616,442,9.78345,-0.103394,0,0,0,0,0,0,0,-1,1840,582,9.78341,0.103424
623,442,9.23828,0.326721,0,0,0,0,0,0,0,-1,1847,582,9.23829,-0.326727
630,442,7.74304,2.3924,0,0,0,0,0,0,0,-1,1854,582,7.7431,-2.39238
637,442,5.87805,1.84027,0,0,0,0,0,0,0,-1,1861,582,5.87807,-1.84025
644,442,0,0,0,0,0,0,0,0,0,-1,1868,582,0,0
651,442,0,0,0,0,0,0,0,0,0,-1,1875,582,0,0
658,442,0,0,0,0,0,0,0,0,0,-1,1882,582,0,0
665,442,0,0,0,0,0,0,0,0,0,-1,1889,582,0,0
672,442,0,0,0,0,0,0,0,0,0,-1,1896,582,0,0
679,442,0,0,0,0,0,0,0,0,0,-1,1903,582,0,0
686,442,0,0,0,0,0,0,0,0,0,-1,1910,582,0,0
693,442,0,0,0,0,0,0,0,0,0,-1,1917,582,0,0
700,442,0,0,0,0,0,0,0,0,0,-1,1924,582,0,0
707,442,0,0,0,0,0,0,0,0,0,-1,1931,582,0,0
714,442,0,0,0,0,0,0,0,0,0,-1,1938,582,0,0
721,442,0,0,0,0,0,0,0,0,0,-1,1945,582,0,0
728,442,0,0,0,0,0,0,0,0,0,-1,1952,582,0,0
735,442,0,0,0,0,0,0,0,0,0,-1,1959,582,0,0
742,442,0,0,0,0,0,0,0,0,0,-1,1966,582,0,0
749,442,0,0,0,0,0,0,0,0,0,-1,1973,582,0,0
756,442,0,0,0,0,0,0,0,0,0,-1,1980,582,0,0
763,442,0,0,0,0,0,0,0,0,0,-1,1987,582,0,0
770,442,0,0,0,0,0,0,0,0,0,-1,1994,582,0,0
777,442,0,0,0,0,0,0,0,0,0,-1,2001,582,0,0
784,442,0,0,0,0,0,0,0,0,0,-1,2008,582,0,0
791,442,0,0,0,0,0,0,0,0,0,-1,2015,582,0,0
798,442,0,0,0,0,0,0,0,0,0,-1,2022,582,0,0
805,442,0,0,0,0,0,0,0,0,0,-1,2029,582,0,0
812,442,0,0,0,0,0,0,0,0,0,-1,2036,582,0,0
-700,435,0,0,0,0,0,0,0,0,0,-1,524,589,0,0
-693,435,0,0,0,0,0,0,0,0,0,-1,531,589,0,0
-686,435,0,0,0,0,0,0,0,0,0,-1,538,589,0,0
-679,435,0,0,0,0,0,0,0,0,0,-1,545,589,0,0
-672,435,0,0,0,0,0,0,0,0,0,-1,552,589,0,0
-665,435,0,0,0,0,0,0,0,0,0,-1,559,589,0,0
-658,435,0,0,0,0,0,0,0,0,0,-1,566,589,0,0
-651,435,0,0,0,0,0,0,0,0,0,-1,573,589,0,0
-644,435,0,0,0,0,0,0,0,0,0,-1,580,589,0,0
-637,435,0,0,0,0,0,0,0,0,0,-1,587,589,0,0
-630,435,0,0,0,0,0,0,0,0,0,-1,594,589,0,0
-623,435,0,0,0,0,0,0,0,0,0,-1,601,589,0,0
-616,435,0,0,0,0,0,0,0,0,0,-1,608,589,0,0
-609,435,0,0,0,0,0,0,0,0,0,-1,615,589,0,0
-602,435,0,0,0,0,0,0,0,0,0,-1,622,589,0,0
-595,435,0,0,0,0,0,0,0,0,0,-1,629,589,0,0
-588,435,0,0,0,0,0,0,0,0,0,-1,636,589,0,0
-581,435,0,0,0,0,0,0,0,0,0,-1,643,589,0,0
-574,435,0,0,0,0,0,0,0,0,0,-1,650,589,0,0
-567,435,0,0,0,0,0,0,0,0,0,-1,657,589,0,0
-560,435,0,0,0,0,0,0,0,0,0,-1,664,589,0,0
-553,435,0,0,0,0,0,0,0,0,0,-1,671,589,0,0
-546,435,0,0,0,0,0,0,0,0,0,-1,678,589,0,0
-539,435,0,0,0,0,0,0,0,0,0,-1,685,589,0,0
-532,435,0,0,0,0,0,0,0,0,0,-1,692,589,0,0
-525,435,-10.0776,10.0547,0,0,0,0,0,0,0,-1,699,589,-10.0776,-10.0547
-518,435,-1.83093,-5.82367,0,0,0,0,0,0,0,-1,706,589,-1.83093,5.8237
-511,435,-2.45154,-5.33118,0,0,0,0,0,0,0,-1,713,589,-2.45151,5.33115
-504,435,-3.07208,-4.83862,0,0,0,0,0,0,0,-1,720,589,-3.0721,4.8386
-497,435,-6.31012,-5.84698,0,0,0,0,0,0,0,-1,727,589,-6.31012,5.84697
-490,435,-5.81903,-0.458679,0,0,0,0,0,0,0,-1,734,589,-5.81902,0.458684
-483,435,-6.96503,-3.01624,0,0,0,0,0,0,0,-1,741,589,-6.96505,3.01623
-476,435,-8.63501,-8.86157,0,0,0,0,0,0,0,-1,748,589,-8.63498,8.86155
-469,435,-8.30487,-9.6618,0,0,0,0,0,0,0,-1,755,589,-8.30485,9.66181
-462,435,-8.27759,-10.4694,0,0,0,0,0,0,0,-1,762,589,-8.27757,10.4694
-455,435,-8.3078,-11.325,0.0074186,0.0066646,-0.00506273,0.0121183,0.00196485,-0.748234,0.00751012,0.0241417,769,589,-8.30777,11.3249
-448,435,-8.28406,-12.0094,0.00528418,0.00500447,-0.00363908,0.00878609,0.00150256,-0.766192,0.00542633,0.0143975,776,589,-8.28407,12.0094
-441,435,-8.29358,-12.6339,0.003708,0.00356858,-0.00250714,0.0061464,0.00113018,-0.771499,0.00377765,0.012508,783,589,-8.2936,12.6338
-434,435,-8.32721,-13.2281,0.00258269,0.00244149,-0.00163792,0.00415153,0.000872648,-0.763859,0.00252753,0.0136009,790,589,-8.32723,13.2281
-427,435,-8.3717,-13.893,0.00181099,0.00145004,-0.000960247,0.00260757,0.000653453,-0.692508,0.00156667,0.0111961,797,589,-8.37169,13.893
-420,435,-8.37939,-14.5078,0.00113219,0.000460657,-0.000265343,0.00122438,0.000368468,-0.334387,0.000725329,0.0108163,804,589,-8.3794,14.5078
-413,435,-8.3952,-15.1266,0.000854298,-0.000365106,0.000156592,0.000874086,-0.000384894,0.1257,0.000744939,0.0117132,811,589,-8.39522,15.1267
-406,435,-8.42035,-15.7341,0.000794875,-0.00118922,0.000595904,0.000960091,-0.00135443,0.27046,0.00134274,0.0119448,818,589,-8.42034,15.734
-399,435,-8.44897,-16.3359,0.000997372,-0.00192084,0.000898578,0.00125187,-0.00217534,0.275993,0.0020025,0.00931109,825,589,-8.44898,16.3359
-392,435,-8.46924,-16.9264,0.00143348,-0.00258442,0.00111958,0.00172439,-0.00287533,0.254214,0.00268322,0.010492,832,589,-8.46924,16.9264
-385,435,-8.47229,-17.5121,0.0019873,-0.00329343,0.00128448,0.00228316,-0.00358929,0.226386,0.0034183,0.0209092,839,589,-8.4723,17.5121
-378,435,-8.50085,-18.0082,0.00268956,-0.00398881,0.00147039,0.00299897,-0.00429821,0.207398,0.00423523,0.0452927,846,589,-8.50085,18.0082
-371,435,-8.72394,-18.5749,0,0,0,0,0,0,0,-1,853,589,-8.72395,18.5749
-364,435,-5.62848,-11.5937,0,0,0,0,0,0,0,-1,860,589,-5.62847,11.5937
-357,435,-5.57343,-10.9666,0,0,0,0,0,0,0,-1,867,589,-5.57342,10.9666
-350,435,-0.86676,-3.69836,0,0,0,0,0,0,0,-1,874,589,-0.866784,3.69834
-343,435,-1.60706,-2.36835,0,0,0,0,0,0,0,-1,881,589,-1.60706,2.36838
-336,435,-2.07263,-1.94012,0,0,0,0,0,0,0,-1,888,589,-2.07265,1.94014
-329,435,-2.55963,-1.5517,0,0,0,0,0,0,0,-1,895,589,-2.5596,1.55168
-322,435,-3.08545,-1.55255,0,0,0,0,0,0,0,-1,902,589,-3.08544,1.55254
-315,435,-0.404297,-2.63763,0,0,0,0,0,0,0,-1,909,589,-0.404276,2.63761
-308,435,-1.70056,-1.90369,0,0,0,0,0,0,0,-1,916,589,-1.70056,1.90367
-301,435,-1.25232,-2.05511,0,0,0,0,0,0,0,-1,923,589,-1.25234,2.05514
-294,435,-1.79974,-1.97321,0,0,0,0,0,0,0,-1,930,589,-1.79973,1.97322
-287,435,0,0,0,0,0,0,0,0,0,-1,937,589,0,0
-280,435,0,0,0,0,0,0,0,0,0,-1,944,589,0,0
-273,435,0,0,0,0,0,0,0,0,0,-1,951,589,0,0
-266,435,0,0,0,0,0,0,0,0,0,-1,958,589,0,0
-259,435,0,0,0,0,0,0,0,0,0,-1,965,589,0,0
-252,435,0,0,0,0,0,0,0,0,0,-1,972,589,0,0
-245,435,0,0,0,0,0,0,0,0,0,-1,979,589,0,0
-238,435,0,0,0,0,0,0,0,0,0,-1,986,589,0,0
-231,435,0,0,0,0,0,0,0,0,0,-1,993,589,0,0
-224,435,0,0,0,0,0,0,0,0,0,-1,1000,589,0,0
-217,435,0,0,0,0,0,0,0,0,0,-1,1007,589,0,0
-210,435,0,0,0,0,0,0,0,0,0,-1,1014,589,0,0
-203,435,0,0,0,0,0,0,0,0,0,-1,1021,589,0,0
-196,435,0,0,0,0,0,0,0,0,0,-1,1028,589,0,0
-189,435,0,0,0,0,0,0,0,0,0,-1,1035,589,0,0
-182,435,0,0,0,0,0,0,0,0,0,-1,1042,589,0,0
-175,435,0,0,0,0,0,0,0,0,0,-1,1049,589,0,0
-168,435,0,0,0,0,0,0,0,0,0,-1,1056,589,0,0
-161,435,0,0,0,0,0,0,0,0,0,-1,1063,589,0,0
-154,435,0,0,0,0,0,0,0,0,0,-1,1070,589,0,0
-147,435,0,0,0,0,0,0,0,0,0,-1,1077,589,0,0
-140,435,0,0,0,0,0,0,0,0,0,-1,1084,589,0,0
-133,435,0,0,0,0,0,0,0,0,0,-1,1091,589,0,0
-126,435,0,0,0,0,0,0,0,0,0,-1,1098,589,0,0
-119,435,0,0,0,0,0,0,0,0,0,-1,1105,589,0,0
-112,435,0,0,0,0,0,0,0,0,0,-1,1112,589,0,0
-105,435,0,0,0,0,0,0,0,0,0,-1,1119,589,0,0
-98,435,0,0,0,0,0,0,0,0,0,-1,1126,589,0,0
-91,435,0,0,0,0,0,0,0,0,0,-1,1133,589,0,0
-84,435,0,0,0,0,0,0,0,0,0,-1,1140,589,0,0
-77,435,0,0,0,0,0,0,0,0,0,-1,1147,589,0,0
-70,435,0,0,0,0,0,0,0,0,0,-1,1154,589,0,0
-63,435,0,0,0,0,0,0,0,0,0,-1,1161,589,0,0
-56,435,0,0,0,0,0,0,0,0,0,-1,1168,589,0,0
-49,435,0,0,0,0,0,0,0,0,0,-1,1175,589,0,0
-42,435,0,0,0,0,0,0,0,0,0,-1,1182,589,0,0
-35,435,0,0,0,0,0,0,0,0,0,-1,1189,589,0,0
-28,435,0,0,0,0,0,0,0,0,0,-1,1196,589,0,0
-21,435,0,0,0,0,0,0,0,0,0,-1,1203,589,0,0
-14,435,0,0,0,0,0,0,0,0,0,-1,1210,589,0,0
-7,435,0,0,0,0,0,0,0,0,0,-1,1217,589,0,0
0,435,0,0,0,0,0,0,0,0,0,-1,1224,589,0,0
7,435,0,0,0,0,0,0,0,0,0,-1,1231,589,0,0
14,435,0,0,0,0,0,0,0,0,0,-1,1238,589,0,0
21,435,0,0,0,0,0,0,0,0,0,-1,1245,589,0,0
28,435,0,0,0,0,0,0,0,0,0,-1,1252,589,0,0
35,435,0,0,0,0,0,0,0,0,0,-1,1259,589,0,0
42,435,0,0,0,0,0,0,0,0,0,-1,1266,589,0,0
49,435,0,0,0,0,0,0,0,0,0,-1,1273,589,0,0
56,435,0,0,0,0,0,0,0,0,0,-1,1280,589,0,0
63,435,0,0,0,0,0,0,0,0,0,-1,1287,589,0,0
70,435,0,0,0,0,0,0,0,0,0,-1,1294,589,0,0
77,435,0,0,0,0,0,0,0,0,0,-1,1301,589,0,0
84,435,0,0,0,0,0,0,0,0,0,-1,1308,589,0,0
91,435,0,0,0,0,0,0,0,0,0,-1,1315,589,0,0
98,435,0,0,0,0,0,0,0,0,0,-1,1322,589,0,0
105,435,0,0,0,0,0,0,0,0,0,-1,1329,589,0,0
112,435,0,0,0,0,0,0,0,0,0,-1,1336,589,0,0
119,435,0,0,0,0,0,0,0,0,0,-1,1343,589,0,0
126,435,0,0,0,0,0,0,0,0,0,-1,1350,589,0,0
133,435,0,0,0,0,0,0,0,0,0,-1,1357,589,0,0
140,435,0,0,0,0,0,0,0,0,0,-1,1364,589,0,0
147,435,0,0,0,0,0,0,0,0,0,-1,1371,589,0,0
154,435,0,0,0,0,0,0,0,0,0,-1,1378,589,0,0
161,435,0,0,0,0,0,0,0,0,0,-1,1385,589,0,0
168,435,0,0,0,0,0,0,0,0,0,-1,1392,589,0,0
175,435,0,0,0,0,0,0,0,0,0,-1,1399,589,0,0
182,435,0,0,0,0,0,0,0,0,0,-1,1406,589,0,0
189,435,0,0,0,0,0,0,0,0,0,-1,1413,589,0,0
196,435,0,0,0,0,0,0,0,0,0,-1,1420,589,0,0
203,435,0,0,0,0,0,0,0,0,0,-1,1427,589,0,0
210,435,0,0,0,0,0,0,0,0,0,-1,1434,589,0,0
217,435,0,0,0,0,0,0,0,0,0,-1,1441,589,0,0
224,435,0,0,0,0,0,0,0,0,0,-1,1448,589,0,0
231,435,0,0,0,0,0,0,0,0,0,-1,1455,589,0,0
238,435,0,0,0,0,0,0,0,0,0,-1,1462,589,0,0
245,435,0,0,0,0,0,0,0,0,0,-1,1469,589,0,0
252,435,0,0,0,0,0,0,0,0,0,-1,1476,589,0,0
259,435,0,0,0,0,0,0,0,0,0,-1,1483,589,0,0
266,435,0,0,0,0,0,0,0,0,0,-1,1490,589,0,0
273,435,0,0,0,0,0,0,0,0,0,-1,1497,589,0,0
280,435,0,0,0,0,0,0,0,0,0,-1,1504,589,0,0
287,435,0,0,0,0,0,0,0,0,0,-1,1511,589,0,0
294,435,0,0,0,0,0,0,0,0,0,-1,1518,589,0,0
301,435,0,0,0,0,0,0,0,0,0,-1,1525,589,0,0
308,435,0,0,0,0,0,0,0,0,0,-1,1532,589,0,0
315,435,0,0,0,0,0,0,0,0,0,-1,1539,589,0,0
322,435,0,0,0,0,0,0,0,0,0,-1,1546,589,0,0
329,435,0,0,0,0,0,0,0,0,0,-1,1553,589,0,0
336,435,0,0,0,0,0,0,0,0,0,-1,1560,589,0,0
343,435,0,0,0,0,0,0,0,0,0,-1,1567,589,0,0
350,435,0,0,0,0,0,0,0,0,0,-1,1574,589,0,0
357,435,0,0,0,0,0,0,0,0,0,-1,1581,589,0,0
364,435,0,0,0,0,0,0,0,0,0,-1,1588,589,0,0
371,435,0,0,0,0,0,0,0,0,0,-1,1595,589,0,0
378,435,0,0,0,0,0,0,0,0,0,-1,1602,589,0,0
385,435,0,0,0,0,0,0,0,0,0,-1,1609,589,0,0
392,435,0,0,0,0,0,0,0,0,0,-1,1616,589,0,0
399,435,0,0,0,0,0,0,0,0,0,-1,1623,589,0,0
406,435,0,0,0,0,0,0,0,0,0,-1,1630,589,0,0
413,435,20.4565,3.49835,0,0,0,0,0,0,0,-1,1637,589,20.4565,-3.49836
420,435,21.4015,1.49609,0,0,0,0,0,0,0,-1,1644,589,21.4015,-1.49609
427,435,22.0464,-0.373962,0,0,0,0,0,0,0,-1,1651,589,22.0464,0.373972
434,435,22.1863,-1.54407,0,0,0,0,0,0,0,-1,1658,589,22.1862,1.54405
441,435,22.3992,-2.38287,0,0,0,0,0,0,0,-1,1665,589,22.3992,2.38289
448,435,7.4585,-0.00292969,0,0,0,0,0,0,0,-1,1672,589,7.45848,0.00294131
455,435,5.49915,-5.047,0,0,0,0,0,0,0,-1,1679,589,5.49914,5.04703
462,435,5.60669,-4.71466,0,0,0,0,0,0,0,-1,1686,589,5.60675,4.71469
469,435,5.87708,1.22351,0,0,0,0,0,0,0,-1,1693,589,5.87703,-1.22351
476,435,6.14136,1.37714,0,0,0,0,0,0,0,-1,1700,589,6.14138,-1.37712
483,435,6.49243,1.36169,0,0,0,0,0,0,0,-1,1707,589,6.49242,-1.36171
490,435,4.38391,-1.36218,0,0,0,0,0,0,0,-1,1714,589,4.38389,1.3622
497,435,7.23499,-3.64551,0,0,0,0,0,0,0,-1,1721,589,7.23495,3.64551
504,435,7.31189,-3.75909,0,0,0,0,0,0,0,-1,1728,589,7.31184,3.75911
511,435,19.5576,-16.5769,0,0,0,0,0,0,0,-1,1735,589,19.5577,16.5769
518,435,19.6987,-15.687,0.00464045,0.00231332,0.00205159,0.00583546,0.0011183,0.527439,0.00357631,0.0275591,1742,589,19.6987,15.687
525,435,19.6416,-15.024,0.00387953,0.00183049,0.00175226,0.0048848,0.000825217,0.520856,0.00301929,0.0133503,1749,589,19.6416,15.024
532,435,19.639,-14.3646,0.00316224,0.00148978,0.00150239,0.00404545,0.000606575,0.531451,0.00251924,0.0149099,1756,589,19.639,14.3646
539,435,19.6353,-13.7068,0.00258562,0.00134381,0.00136033,0.00346004,0.000469381,0.571301,0.00216724,0.0163931,1763,589,19.6353,13.7069
546,435,19.6075,-13.0803,0.00208602,0.00129771,0.00125593,0.00300819,0.000375532,0.633348,0.00189274,0.0157084,1770,589,19.6076,13.0802
553,435,19.5736,-12.4615,0.00160516,0.00140108,0.00122627,0.00273363,0.000272616,0.743887,0.00173868,0.0110306,1777,589,19.5737,12.4615
560,435,19.5405,-11.8187,0.00118752,0.00158619,0.00127514,0.00267748,9.62325e-05,0.862933,0.00175379,0.00907084,1784,589,19.5406,11.8187
567,435,19.5381,-11.1661,0.000931225,0.00192595,0.00144051,0.00295254,-9.53686e-05,0.951625,0.00200091,0.00831357,1791,589,19.5381,11.1661
574,435,19.517,-10.5135,0.000815469,0.00240276,0.0016918,0.00347782,-0.00025959,1.00472,0.00240974,0.00989668,1798,589,19.5169,10.5135
581,435,19.4862,-9.86798,0.000829283,0.00296239,0.00205083,0.00420742,-0.000415747,1.02518,0.0029533,0.0181751,1805,589,19.4862,9.86801
588,435,19.4452,-9.24896,0.00118972,0.00376414,0.00261678,0.00539317,-0.00043931,1.01397,0.00375047,0.0443526,1812,589,19.4452,9.24899
595,435,19.4792,-8.32855,0,0,0,0,0,0,0,-1,1819,589,19.4793,8.32855
602,435,16.8671,-6.39026,0,0,0,0,0,0,0,-1,1826,589,16.867,6.39024
609,435,15.2611,-3.42242,0,0,0,0,0,0,0,-1,1833,589,15.2611,3.42242
616,435,5.05151,-2.75269,0,0,0,0,0,0,0,-1,1840,589,5.05157,2.7527
623,435,11.7588,3.9704,0,0,0,0,0,0,0,-1,1847,589,11.7587,-3.97043
630,435,4.72742,-0.87561,0,0,0,0,0,0,0,-1,1854,589,4.7274,0.875636
637,435,5.05286,1.48792,0,0,0,0,0,0,0,-1,1861,589,5.05291,-1.48792
644,435,0,0,0,0,0,0,0,0,0,-1,1868,589,0,0
651,435,0,0,0,0,0,0,0,0,0,-1,1875,589,0,0
658,435,0,0,0,0,0,0,0,0,0,-1,1882,589,0,0
665,435,0,0,0,0,0,0,0,0,0,-1,1889,589,0,0
672,435,0,0,0,0,0,0,0,0,0,-1,1896,589,0,0
679,435,0,0,0,0,0,0,0,0,0,-1,1903,589,0,0
686,435,0,0,0,0,0,0,0,0,0,-1,1910,589,0,0
693,435,0,0,0,0,0,0,0,0,0,-1,1917,589,0,0
700,435,0,0,0,0,0,0,0,0,0,-1,1924,589,0,0
707,435,0,0,0,0,0,0,0,0,0,-1,1931,589,0,0
714,435,0,0,0,0,0,0,0,0,0,-1,1938,589,0,0
721,435,0,0,0,0,0,0,0,0,0,-1,1945,589,0,0
728,435,0,0,0,0,0,0,0,0,0,-1,1952,589,0,0
735,435,0,0,0,0,0,0,0,0,0,-1,1959,589,0,0
742,435,0,0,0,0,0,0,0,0,0,-1,1966,589,0,0
749,435,0,0,0,0,0,0,0,0,0,-1,1973,589,0,0
756,435,0,0,0,0,0,0,0,0,0,-1,1980,589,0,0
763,435,0,0,0,0,0,0,0,0,0,-1,1987,589,0,0
770,435,0,0,0,0,0,0,0,0,0,-1,1994,589,0,0
777,435,0,0,0,0,0,0,0,0,0,-1,2001,589,0,0
784,435,0,0,0,0,0,0,0,0,0,-1,2008,589,0,0
791,435,0,0,0,0,0,0,0,0,0,-1,2015,589,0,0
798,435,0,0,0,0,0,0,0,0,0,-1,2022,589,0,0
805,435,0,0,0,0,0,0,0,0,0,-1,2029,589,0,0
812,435,0,0,0,0,0,0,0,0,0,-1,2036,589,0,0
-700,428,0,0,0,0,0,0,0,0,0,-1,524,596,0,0
-693,428,0,0,0,0,0,0,0,0,0,-1,531,596,0,0
-686,428,0,0,0,0,0,0,0,0,0,-1,538,596,0,0
-679,428,0,0,0,0,0,0,0,0,0,-1,545,596,0,0
-672,428,0,0,0,0,0,0,0,0,0,-1,552,596,0,0
-665,428,0,0,0,0,0,0,0,0,0,-1,559,596,0,0
-658,428,0,0,0,0,0,0,0,0,0,-1,566,596,0,0
-651,428,0,0,0,0,0,0,0,0,0,-1,573,596,0,0
-644,428,0,0,0,0,0,0,0,0,0,-1,580,596,0,0
-637,428,0,0,0,0,0,0,0,0,0,-1,587,596,0,0
-630,428,0,0,0,0,0,0,0,0,0,-1,594,596,0,0
-623,428,0,0,0,0,0,0,0,0,0,-1,601,596,0,0
-616,428,0,0,0,0,0,0,0,0,0,-1,608,596,0,0
-609,428,0,0,0,0,0,0,0,0,0,-1,615,596,0,0
-602,428,0,0,0,0,0,0,0,0,0,-1,622,596,0,0
-595,428,0,0,0,0,0,0,0,0,0,-1,629,596,0,0
-588,428,0,0,0,0,0,0,0,0,0,-1,636,596,0,0
-581,428,0,0,0,0,0,0,0,0,0,-1,643,596,0,0
-574,428,0,0,0,0,0,0,0,0,0,-1,650,596,0,0
-567,428,0,0,0,0,0,0,0,0,0,-1,657,596,0,0
-560,428,0,0,0,0,0,0,0,0,0,-1,664,596,0,0
-553,428,0,0,0,0,0,0,0,0,0,-1,671,596,0,0
-546,428,0,0,0,0,0,0,0,0,0,-1,678,596,0,0
-539,428,0,0,0,0,0,0,0,0,0,-1,685,596,0,0
-532,428,0,0,0,0,0,0,0,0,0,-1,692,596,0,0
-525,428,-9.59918,7.58618,0,0,0,0,0,0,0,-1,699,596,-9.59918,-7.5862
-518,428,-2.92285,-4.81854,0,0,0,0,0,0,0,-1,706,596,-2.92285,4.81856
-511,428,-3.68811,-4.79474,0,0,0,0,0,0,0,-1,713,596,-3.68811,4.79474
-504,428,-4.45337,-4.77094,0,0,0,0,0,0,0,-1,720,596,-4.45337,4.77092
-497,428,-2.98108,-3.77502,0,0,0,0,0,0,0,-1,727,596,-2.98106,3.77505
-490,428,-6.39044,-2.80481,0,0,0,0,0,0,0,-1,734,596,-6.39047,2.80483
-483,428,-10.1123,-8.38806,0,0,0,0,0,0,0,-1,741,596,-10.1123,8.38806
-476,428,-9.4104,-9.17145,0.0143063,0.0111411,-0.00948962,0.0223444,0.00310303,-0.702771,0.0139772,0.0492614,748,596,-9.41037,9.17143
-469,428,-8.724,-9.94305,0.0108172,0.00866551,-0.0072222,0.0170432,0.00243946,-0.711461,0.0106426,0.0266693,755,596,-8.72399,9.94307
-462,428,-8.82861,-10.5645,0.00823034,0.00668972,-0.00551596,0.0130295,0.00189054,-0.716021,0.00812977,0.0288764,762,596,-8.82862,10.5645
-455,428,-8.90308,-11.2889,0.00611504,0.00514591,-0.00408994,0.00974902,0.00151193,-0.726435,0.00605858,0.0163586,769,596,-8.90309,11.2889
-448,428,-8.9165,-11.9539,0.00444695,0.00370364,-0.00289727,0.00699631,0.00115428,-0.721608,0.00433102,0.0124338,776,596,-8.91649,11.9539
-441,428,-8.93793,-12.596,0.00315297,0.00240352,-0.00189052,0.00470554,0.000850948,-0.68756,0.00289536,0.0148125,783,596,-8.93795,12.596
-434,428,-8.94562,-13.2415,0.00219799,0.00138541,-0.00109648,0.00296103,0.000622372,-0.607971,0.00180274,0.0113325,790,596,-8.94561,13.2415
-427,428,-8.97095,-13.8665,0.00152635,0.000454115,-0.000463036,0.00169863,0.000281837,-0.356193,0.00105114,0.0117859,797,596,-8.97095,13.8664
-420,428,-8.97998,-14.447,0.000971421,-0.000450562,0.00015148,0.000987379,-0.00046652,0.104958,0.000857176,0.0118402,804,596,-8.97996,14.4471
-413,428,-8.99579,-15.0505,0.000718431,-0.00125475,0.000595087,0.000884007,-0.00142033,0.271375,0.00134237,0.0154604,811,596,-8.99578,15.0504
-406,428,-9.03741,-15.6732,0.000601478,-0.00205553,0.00103501,0.000957069,-0.00241112,0.330928,0.00200412,0.0176401,818,596,-9.03744,15.6731
-399,428,-9.05176,-16.3065,0.000769851,-0.00283008,0.00131632,0.00119981,-0.00326004,0.315714,0.00266491,0.014338,825,596,-9.05179,16.3064
-392,428,-9.04199,-16.9512,0.00115324,-0.0035091,0.00151725,0.00160351,-0.00395937,0.288488,0.00330634,0.0272084,832,596,-9.04202,16.9512
-385,428,-9.09772,-17.6936,0,0,0,0,0,0,0,-1,839,596,-9.09772,17.6936
-378,428,-9.21527,-17.8785,0,0,0,0,0,0,0,-1,846,596,-9.21527,17.8785
-371,428,-5.96155,-11.0703,0,0,0,0,0,0,0,-1,853,596,-5.96154,11.0702
-364,428,-6.33643,-10.7223,0,0,0,0,0,0,0,-1,860,596,-6.33645,10.7223
-357,428,-3.20996,-4.70966,0,0,0,0,0,0,0,-1,867,596,-3.20997,4.70965
-350,428,-1.62793,-3.94055,0,0,0,0,0,0,0,-1,874,596,-1.62794,3.94055
-343,428,-0.0567017,-4.80994,0,0,0,0,0,0,0,-1,881,596,-0.0567096,4.80996
-336,428,-3.29175,-1.39569,0,0,0,0,0,0,0,-1,888,596,-3.29172,1.39568
-329,428,-3.71564,-0.791321,0,0,0,0,0,0,0,-1,895,596,-3.71564,0.791299
-322,428,-5.52863,-3.59827,0,0,0,0,0,0,0,-1,902,596,-5.52865,3.59829
-315,428,-4.57172,-1.22052,0,0,0,0,0,0,0,-1,909,596,-4.57171,1.22052
-308,428,-5.94324,-0.810791,0,0,0,0,0,0,0,-1,916,596,-5.94321,0.810803
-301,428,0,0,0,0,0,0,0,0,0,-1,923,596,0,0
-294,428,0,0,0,0,0,0,0,0,0,-1,930,596,0,0
-287,428,0,0,0,0,0,0,0,0,0,-1,937,596,0,0
-280,428,0,0,0,0,0,0,0,0,0,-1,944,596,0,0
-273,428,0,0,0,0,0,0,0,0,0,-1,951,596,0,0
-266,428,0,0,0,0,0,0,0,0,0,-1,958,596,0,0
-259,428,0,0,0,0,0,0,0,0,0,-1,965,596,0,0
-252,428,0,0,0,0,0,0,0,0,0,-1,972,596,0,0
-245,428,0,0,0,0,0,0,0,0,0,-1,979,596,0,0
-238,428,0,0,0,0,0,0,0,0,0,-1,986,596,0,0
-231,428,0,0,0,0,0,0,0,0,0,-1,993,596,0,0
-224,428,0,0,0,0,0,0,0,0,0,-1,1000,596,0,0
-217,428,0,0,0,0,0,0,0,0,0,-1,1007,596,0,0
-210,428,0,0,0,0,0,0,0,0,0,-1,1014,596,0,0
-203,428,0,0,0,0,0,0,0,0,0,-1,1021,596,0,0
-196,428,0,0,0,0,0,0,0,0,0,-1,1028,596,0,0
-189,428,0,0,0,0,0,0,0,0,0,-1,1035,596,0,0
-182,428,0,0,0,0,0,0,0,0,0,-1,1042,596,0,0
-175,428,0,0,0,0,0,0,0,0,0,-1,1049,596,0,0
-168,428,0,0,0,0,0,0,0,0,0,-1,1056,596,0,0
-161,428,0,0,0,0,0,0,0,0,0,-1,1063,596,0,0
-154,428,0,0,0,0,0,0,0,0,0,-1,1070,596,0,0
-147,428,0,0,0,0,0,0,0,0,0,-1,1077,596,0,0
-140,428,0,0,0,0,0,0,0,0,0,-1,1084,596,0,0
-133,428,0,0,0,0,0,0,0,0,0,-1,1091,596,0,0
-126,428,0,0,0,0,0,0,0,0,0,-1,1098,596,0,0
-119,428,0,0,0,0,0,0,0,0,0,-1,1105,596,0,0
-112,428,0,0,0,0,0,0,0,0,0,-1,1112,596,0,0
-105,428,0,0,0,0,0,0,0,0,0,-1,1119,596,0,0
-98,428,0,0,0,0,0,0,0,0,0,-1,1126,596,0,0
-91,428,0,0,0,0,0,0,0,0,0,-1,1133,596,0,0
-84,428,0,0,0,0,0,0,0,0,0,-1,1140,596,0,0
-77,428,0,0,0,0,0,0,0,0,0,-1,1147,596,0,0
-70,428,0,0,0,0,0,0,0,0,0,-1,1154,596,0,0
-63,428,0,0,0,0,0,0,0,0,0,-1,1161,596,0,0
-56,428,0,0,0,0,0,0,0,0,0,-1,1168,596,0,0
-49,428,0,0,0,0,0,0,0,0,0,-1,1175,596,0,0
-42,428,0,0,0,0,0,0,0,0,0,-1,1182,596,0,0
-35,428,0,0,0,0,0,0,0,0,0,-1,1189,596,0,0
-28,428,0,0,0,0,0,0,0,0,0,-1,1196,596,0,0
-21,428,0,0,0,0,0,0,0,0,0,-1,1203,596,0,0
-14,428,0,0,0,0,0,0,0,0,0,-1,1210,596,0,0
-7,428,0,0,0,0,0,0,0,0,0,-1,1217,596,0,0
0,428,0,0,0,0,0,0,0,0,0,-1,1224,596,0,0
7,428,0,0,0,0,0,0,0,0,0,-1,1231,596,0,0
14,428,0,0,0,0,0,0,0,0,0,-1,1238,596,0,0
21,428,0,0,0,0,0,0,0,0,0,-1,1245,596,0,0
28,428,0,0,0,0,0,0,0,0,0,-1,1252,596,0,0
35,428,0,0,0,0,0,0,0,0,0,-1,1259,596,0,0
42,428,0,0,0,0,0,0,0,0,0,-1,1266,596,0,0
49,428,0,0,0,0,0,0,0,0,0,-1,1273,596,0,0
56,428,0,0,0,0,0,0,0,0,0,-1,1280,596,0,0
63,428,0,0,0,0,0,0,0,0,0,-1,1287,596,0,0
70,428,0,0,0,0,0,0,0,0,0,-1,1294,596,0,0
77,428,0,0,0,0,0,0,0,0,0,-1,1301,596,0,0
84,428,0,0,0,0,0,0,0,0,0,-1,1308,596,0,0
91,428,0,0,0,0,0,0,0,0,0,-1,1315,596,0,0
98,428,0,0,0,0,0,0,0,0,0,-1,1322,596,0,0
105,428,0,0,0,0,0,0,0,0,0,-1,1329,596,0,0
112,428,0,0,0,0,0,0,0,0,0,-1,1336,596,0,0
119,428,0,0,0,0,0,0,0,0,0,-1,1343,596,0,0
126,428,0,0,0,0,0,0,0,0,0,-1,1350,596,0,0
133,428,0,0,0,0,0,0,0,0,0,-1,1357,596,0,0
140,428,0,0,0,0,0,0,0,0,0,-1,1364,596,0,0
147,428,0,0,0,0,0,0,0,0,0,-1,1371,596,0,0
154,428,0,0,0,0,0,0,0,0,0,-1,1378,596,0,0
161,428,0,0,0,0,0,0,0,0,0,-1,1385,596,0,0
168,428,0,0,0,0,0,0,0,0,0,-1,1392,596,0,0
175,428,0,0,0,0,0,0,0,0,0,-1,1399,596,0,0
182,428,0,0,0,0,0,0,0,0,0,-1,1406,596,0,0
189,428,0,0,0,0,0,0,0,0,0,-1,1413,596,0,0
196,428,0,0,0,0,0,0,0,0,0,-1,1420,596,0,0
203,428,0,0,0,0,0,0,0,0,0,-1,1427,596,0,0
210,428,0,0,0,0,0,0,0,0,0,-1,1434,596,0,0
217,428,0,0,0,0,0,0,0,0,0,-1,1441,596,0,0
224,428,0,0,0,0,0,0,0,0,0,-1,1448,596,0,0
231,428,0,0,0,0,0,0,0,0,0,-1,1455,596,0,0
238,428,0,0,0,0,0,0,0,0,0,-1,1462,596,0,0
245,428,0,0,0,0,0,0,0,0,0,-1,1469,596,0,0
252,428,0,0,0,0,0,0,0,0,0,-1,1476,596,0,0
259,428,0,0,0,0,0,0,0,0,0,-1,1483,596,0,0
266,428,0,0,0,0,0,0,0,0,0,-1,1490,596,0,0
273,428,0,0,0,0,0,0,0,0,0,-1,1497,596,0,0
280,428,0,0,0,0,0,0,0,0,0,-1,1504,596,0,0
287,428,0,0,0,0,0,0,0,0,0,-1,1511,596,0,0
294,428,0,0,0,0,0,0,0,0,0,-1,1518,596,0,0
301,428,0,0,0,0,0,0,0,0,0,-1,1525,596,0,0
308,428,0,0,0,0,0,0,0,0,0,-1,1532,596,0,0
315,428,0,0,0,0,0,0,0,0,0,-1,1539,596,0,0
322,428,0,0,0,0,0,0,0,0,0,-1,1546,596,0,0
329,428,0,0,0,0,0,0,0,0,0,-1,1553,596,0,0
336,428,0,0,0,0,0,0,0,0,0,-1,1560,596,0,0
343,428,0,0,0,0,0,0,0,0,0,-1,1567,596,0,0
350,428,0,0,0,0,0,0,0,0,0,-1,1574,596,0,0
357,428,0,0,0,0,0,0,0,0,0,-1,1581,596,0,0
364,428,0,0,0,0,0,0,0,0,0,-1,1588,596,0,0
371,428,0,0,0,0,0,0,0,0,0,-1,1595,596,0,0
378,428,0,0,0,0,0,0,0,0,0,-1,1602,596,0,0
385,428,0,0,0,0,0,0,0,0,0,-1,1609,596,0,0
392,428,0,0,0,0,0,0,0,0,0,-1,1616,596,0,0
399,428,0,0,0,0,0,0,0,0,0,-1,1623,596,0,0
406,428,0,0,0,0,0,0,0,0,0,-1,1630,596,0,0
413,428,0,0,0,0,0,0,0,0,0,-1,1637,596,0,0
420,428,19.8469,1.3399,0,0,0,0,0,0,0,-1,1644,596,19.8469,-1.33992
427,428,20.7299,-0.225281,0,0,0,0,0,0,0,-1,1651,596,20.7299,0.225262
434,428,19.8915,-0.583069,0,0,0,0,0,0,0,-1,1658,596,19.8915,0.583075
441,428,8.17993,0.607483,0,0,0,0,0,0,0,-1,1665,596,8.17997,-0.607513
448,428,7.84338,-0.385986,0,0,0,0,0,0,0,-1,1672,596,7.84336,0.385978
455,428,6.64038,2.1123,0,0,0,0,0,0,0,-1,1679,596,6.64037,-2.11229
462,428,4.84106,4.12341,0,0,0,0,0,0,0,-1,1686,596,4.84107,-4.12339
469,428,7.83789,3.10083,0,0,0,0,0,0,0,-1,1693,596,7.83785,-3.10086
476,428,7.61255,1.73956,0,0,0,0,0,0,0,-1,1700,596,7.61252,-1.73958
483,428,7.22766,1.05121,0,0,0,0,0,0,0,-1,1707,596,7.2277,-1.05121
490,428,5.4071,-3.2793,0,0,0,0,0,0,0,-1,1714,596,5.40707,3.27929
497,428,7.84106,-3.65491,0,0,0,0,0,0,0,-1,1721,596,7.84107,3.65491
504,428,6.92139,-2.83356,0,0,0,0,0,0,0,-1,1728,596,6.92137,2.83353
511,428,7.88501,-3.78723,0,0,0,0,0,0,0,-1,1735,596,7.88502,3.78722
518,428,20.2762,-15.7371,0,0,0,0,0,0,0,-1,1742,596,20.2763,15.737
525,428,20.2495,-14.9663,0,0,0,0,0,0,0,-1,1749,596,20.2495,14.9663
532,428,20.2546,-14.3157,0.00397151,0.00162505,0.0016553,0.00482719,0.00076937,0.477103,0.0029948,0.0222332,1756,596,20.2546,14.3157
539,428,20.2959,-13.6882,0.00326739,0.00142902,0.00142347,0.00404265,0.000653753,0.498713,0.00250578,0.0226758,1763,596,20.2959,13.6882
546,428,20.2655,-13.0719,0.00265457,0.00128247,0.00124938,0.00339386,0.000543172,0.534317,0.00210501,0.0173842,1770,596,20.2655,13.0719
553,428,20.2147,-12.4366,0.00208381,0.00131319,0.0011569,0.00291788,0.000479124,0.62465,0.00180685,0.011123,1777,596,20.2148,12.4366
560,428,20.2024,-11.7968,0.00157916,0.00142777,0.00115173,0.00265768,0.000349259,0.752583,0.0016676,0.0118387,1784,596,20.2024,11.7968
567,428,20.1969,-11.1571,0.0012292,0.00168248,0.00125379,0.00272995,0.000181736,0.874815,0.00176251,0.0112496,1791,596,20.1968,11.1571
574,428,20.1633,-10.5046,0.00106751,0.00208589,0.00146239,0.0031252,2.82039e-05,0.952929,0.00207413,0.0134551,1798,596,20.1633,10.5046
581,428,20.1107,-9.82513,0.00106921,0.00258921,0.00180975,0.00379206,-0.000133649,0.98419,0.00257375,0.0119647,1805,596,20.1107,9.82512
588,428,20.0793,-9.14685,0.00133915,0.00335186,0.00235319,0.00490486,-0.000213845,0.987457,0.00334347,0.0177474,1812,596,20.0794,9.14685
595,428,20.0242,-8.45923,0.00181318,0.0042911,0.00301506,0.00631184,-0.000207556,0.980342,0.00427875,0.0287825,1819,596,20.0242,8.4592
602,428,20.1414,-7.73029,0,0,0,0,0,0,0,-1,1826,596,20.1413,7.73031
609,428,17.2073,-4.82446,0,0,0,0,0,0,0,-1,1833,596,17.2073,4.82447
616,428,15.7817,-3.09558,0,0,0,0,0,0,0,-1,1840,596,15.7817,3.09556
623,428,9.53577,1.12518,0,0,0,0,0,0,0,-1,1847,596,9.5358,-1.1252
630,428,7.07996,6.88562,0,0,0,0,0,0,0,-1,1854,596,7.0799,-6.88565
637,428,3.95435,1.90857,0,0,0,0,0,0,0,-1,1861,596,3.95439,-1.90858
644,428,5.75476,0.888977,0,0,0,0,0,0,0,-1,1868,596,5.75472,-0.888955
651,428,0,0,0,0,0,0,0,0,0,-1,1875,596,0,0
658,428,0,0,0,0,0,0,0,0,0,-1,1882,596,0,0
665,428,0,0,0,0,0,0,0,0,0,-1,1889,596,0,0
672,428,0,0,0,0,0,0,0,0,0,-1,1896,596,0,0
679,428,0,0,0,0,0,0,0,0,0,-1,1903,596,0,0
686,428,0,0,0,0,0,0,0,0,0,-1,1910,596,0,0
693,428,0,0,0,0,0,0,0,0,0,-1,1917,596,0,0
700,428,0,0,0,0,0,0,0,0,0,-1,1924,596,0,0
707,428,0,0,0,0,0,0,0,0,0,-1,1931,596,0,0
714,428,0,0,0,0,0,0,0,0,0,-1,1938,596,0,0
721,428,0,0,0,0,0,0,0,0,0,-1,1945,596,0,0
728,428,0,0,0,0,0,0,0,0,0,-1,1952,596,0,0
735,428,0,0,0,0,0,0,0,0,0,-1,1959,596,0,0
742,428,0,0,0,0,0,0,0,0,0,-1,1966,596,0,0
749,428,0,0,0,0,0,0,0,0,0,-1,1973,596,0,0
756,428,0,0,0,0,0,0,0,0,0,-1,1980,596,0,0
763,428,0,0,0,0,0,0,0,0,0,-1,1987,596,0,0
770,428,0,0,0,0,0,0,0,0,0,-1,1994,596,0,0
777,428,0,0,0,0,0,0,0,0,0,-1,2001,596,0,0
784,428,0,0,0,0,0,0,0,0,0,-1,2008,596,0,0
791,428,0,0,0,0,0,0,0,0,0,-1,2015,596,0,0
798,428,0,0,0,0,0,0,0,0,0,-1,2022,596,0,0
805,428,0,0,0,0,0,0,0,0,0,-1,2029,596,0,0
812,428,0,0,0,0,0,0,0,0,0,-1,2036,596,0,0
-700,421,0,0,0,0,0,0,0,0,0,-1,524,603,0,0
-693,421,0,0,0,0,0,0,0,0,0,-1,531,603,0,0
-686,421,0,0,0,0,0,0,0,0,0,-1,538,603,0,0
-679,421,0,0,0,0,0,0,0,0,0,-1,545,603,0,0
-672,421,0,0,0,0,0,0,0,0,0,-1,552,603,0,0
-665,421,0,0,0,0,0,0,0,0,0,-1,559,603,0,0
-658,421,0,0,0,0,0,0,0,0,0,-1,566,603,0,0
-651,421,0,0,0,0,0,0,0,0,0,-1,573,603,0,0
-644,421,0,0,0,0,0,0,0,0,0,-1,580,603,0,0
-637,421,0,0,0,0,0,0,0,0,0,-1,587,603,0,0
-630,421,0,0,0,0,0,0,0,0,0,-1,594,603,0,0
-623,421,0,0,0,0,0,0,0,0,0,-1,601,603,0,0
-616,421,0,0,0,0,0,0,0,0,0,-1,608,603,0,0
-609,421,0,0,0,0,0,0,0,0,0,-1,615,603,0,0
-602,421,0,0,0,0,0,0,0,0,0,-1,622,603,0,0
-595,421,0,0,0,0,0,0,0,0,0,-1,629,603,0,0
-588,421,0,0,0,0,0,0,0,0,0,-1,636,603,0,0
-581,421,0,0,0,0,0,0,0,0,0,-1,643,603,0,0
-574,421,0,0,0,0,0,0,0,0,0,-1,650,603,0,0
-567,421,0,0,0,0,0,0,0,0,0,-1,657,603,0,0
-560,421,0,0,0,0,0,0,0,0,0,-1,664,603,0,0
-553,421,0,0,0,0,0,0,0,0,0,-1,671,603,0,0
-546,421,0,0,0,0,0,0,0,0,0,-1,678,603,0,0
-539,421,0,0,0,0,0,0,0,0,0,-1,685,603,0,0
-532,421,-8.97382,6.95636,0,0,0,0,0,0,0,-1,692,603,-8.97384,-6.95634
-525,421,-2.11481,-8.04272,0,0,0,0,0,0,0,-1,699,603,-2.11483,8.0427
-518,421,-3.05908,-5.07233,0,0,0,0,0,0,0,-1,706,603,-3.0591,5.07235
-511,421,-4.63525,-4.08447,0,0,0,0,0,0,0,-1,713,603,-4.63524,4.08449
-504,421,-5.17029,-4.94458,0,0,0,0,0,0,0,-1,720,603,-5.17029,4.9446
-497,421,-6.63141,-2.32501,0,0,0,0,0,0,0,-1,727,603,-6.6314,2.32498
-490,421,-6.7616,-4.14783,0,0,0,0,0,0,0,-1,734,603,-6.76159,4.1478
-483,421,-9.24048,-8.90527,0,0,0,0,0,0,0,-1,741,603,-9.24051,8.90528
-476,421,-9.32684,-9.44958,0.010917,0.00896194,-0.00756073,0.0175631,0.00231581,-0.72111,0.0110182,0.0350738,748,603,-9.32683,9.44959
-469,421,-9.4704,-9.93298,0.00845181,0.00680043,-0.00581208,0.0134966,0.00175568,-0.714838,0.00847333,0.0266473,755,603,-9.4704,9.93295
-462,421,-9.48315,-10.6582,0.00652817,0.0050886,-0.00443009,0.0102966,0.0013202,-0.704864,0.00646937,0.0218151,762,603,-9.48316,10.6582
-455,421,-9.50494,-11.2919,0.00490408,0.00370355,-0.00325043,0.00760921,0.000998424,-0.69409,0.00477492,0.0209456,769,603,-9.50493,11.2919
-448,421,-9.55261,-11.9058,0.00359406,0.00243823,-0.00224105,0.00533051,0.00070178,-0.65921,0.00334438,0.0202236,776,603,-9.55261,11.9059
-441,421,-9.55884,-12.5647,0.00252434,0.00125905,-0.00133268,0.00336692,0.000416475,-0.563791,0.00211947,0.0156116,783,603,-9.55883,12.5647
-434,421,-9.58258,-13.2069,0.00170535,0.000345003,-0.000592151,0.001927,0.000123356,-0.358163,0.00124558,0.0112093,790,603,-9.58255,13.2069
-427,421,-9.58618,-13.8248,0.00110449,-0.000514445,2.37245e-05,0.00110484,-0.000514792,0.0146502,0.000955557,0.0105105,797,603,-9.58618,13.8249
-420,421,-9.59308,-14.4253,0.000664113,-0.00130633,0.000575762,0.000820016,-0.00146223,0.264435,0.00133493,0.0115334,804,603,-9.5931,14.4253
-413,421,-9.60901,-15.0068,0.00042803,-0.00205682,0.00108579,0.000835622,-0.00246441,0.359111,0.00198112,0.0154771,811,603,-9.609,15.0068
-406,421,-9.66693,-15.6437,0.000235344,-0.00278314,0.00156563,0.000900734,-0.00344853,0.401868,0.00265078,0.020887,818,603,-9.66693,15.6437
-399,421,-9.61261,-16.3505,0.00034534,-0.003555,0.0018669,0.00109489,-0.00430455,0.381794,0.00329585,0.0311282,825,603,-9.61261,16.3504
-392,421,-9.56482,-17.06,0,0,0,0,0,0,0,-1,832,603,-9.5648,17.06
-385,421,-9.76154,-15.8135,0,0,0,0,0,0,0,-1,839,603,-9.76152,15.8135
-378,421,-4.94733,-8.87909,0,0,0,0,0,0,0,-1,846,603,-4.94731,8.87906
-371,421,-5.65082,-7.01849,0,0,0,0,0,0,0,-1,853,603,-5.65082,7.0185
-364,421,-5.94189,-7.09875,0,0,0,0,0,0,0,-1,860,603,-5.94192,7.09878
-357,421,-7.62531,-8.26337,0,0,0,0,0,0,0,-1,867,603,-7.62532,8.26337
-350,421,-5.38019,-3.75024,0,0,0,0,0,0,0,-1,874,603,-5.38017,3.75026
-343,421,-6.22797,-2.57123,0,0,0,0,0,0,0,-1,881,603,-6.22798,2.57121
-336,421,-6.22882,-2.59369,0,0,0,0,0,0,0,-1,888,603,-6.22883,2.5937
-329,421,-4.50134,-1.49469,0,0,0,0,0,0,0,-1,895,603,-4.50137,1.49468
-322,421,-7.55817,1.13263,0,0,0,0,0,0,0,-1,902,603,-7.55818,-1.13263
-315,421,-4.47821,-1.26733,0,0,0,0,0,0,0,-1,909,603,-4.47824,1.26732
-308,421,0,0,0,0,0,0,0,0,0,-1,916,603,0,0
-301,421,0,0,0,0,0,0,0,0,0,-1,923,603,0,0
-294,421,0,0,0,0,0,0,0,0,0,-1,930,603,0,0
-287,421,0,0,0,0,0,0,0,0,0,-1,937,603,0,0
-280,421,0,0,0,0,0,0,0,0,0,-1,944,603,0,0
-273,421,0,0,0,0,0,0,0,0,0,-1,951,603,0,0
-266,421,0,0,0,0,0,0,0,0,0,-1,958,603,0,0
-259,421,0,0,0,0,0,0,0,0,0,-1,965,603,0,0
-252,421,0,0,0,0,0,0,0,0,0,-1,972,603,0,0
-245,421,0,0,0,0,0,0,0,0,0,-1,979,603,0,0
-238,421,0,0,0,0,0,0,0,0,0,-1,986,603,0,0
-231,421,0,0,0,0,0,0,0,0,0,-1,993,603,0,0
-224,421,0,0,0,0,0,0,0,0,0,-1,1000,603,0,0
-217,421,0,0,0,0,0,0,0,0,0,-1,1007,603,0,0
-210,421,0,0,0,0,0,0,0,0,0,-1,1014,603,0,0
-203,421,0,0,0,0,0,0,0,0,0,-1,1021,603,0,0
-196,421,0,0,0,0,0,0,0,0,0,-1,1028,603,0,0
-189,421,0,0,0,0,0,0,0,0,0,-1,1035,603,0,0
-182,421,0,0,0,0,0,0,0,0,0,-1,1042,603,0,0
-175,421,0,0,0,0,0,0,0,0,0,-1,1049,603,0,0
-168,421,0,0,0,0,0,0,0,0,0,-1,1056,603,0,0
-161,421,0,0,0,0,0,0,0,0,0,-1,1063,603,0,0
-154,421,0,0,0,0,0,0,0,0,0,-1,1070,603,0,0
-147,421,0,0,0,0,0,0,0,0,0,-1,1077,603,0,0
-140,421,0,0,0,0,0,0,0,0,0,-1,1084,603,0,0
-133,421,0,0,0,0,0,0,0,0,0,-1,1091,603,0,0
-126,421,0,0,0,0,0,0,0,0,0,-1,1098,603,0,0
-119,421,0,0,0,0,0,0,0,0,0,-1,1105,603,0,0
-112,421,0,0,0,0,0,0,0,0,0,-1,1112,603,0,0
-105,421,0,0,0,0,0,0,0,0,0,-1,1119,603,0,0
-98,421,0,0,0,0,0,0,0,0,0,-1,1126,603,0,0
-91,421,0,0,0,0,0,0,0,0,0,-1,1133,603,0,0
-84,421,0,0,0,0,0,0,0,0,0,-1,1140,603,0,0
-77,421,0,0,0,0,0,0,0,0,0,-1,1147,603,0,0
-70,421,0,0,0,0,0,0,0,0,0,-1,1154,603,0,0
-63,421,0,0,0,0,0,0,0,0,0,-1,1161,603,0,0
-56,421,0,0,0,0,0,0,0,0,0,-1,1168,603,0,0
-49,421,0,0,0,0,0,0,0,0,0,-1,1175,603,0,0
-42,421,0,0,0,0,0,0,0,0,0,-1,1182,603,0,0
-35,421,0,0,0,0,0,0,0,0,0,-1,1189,603,0,0
-28,421,0,0,0,0,0,0,0,0,0,-1,1196,603,0,0
-21,421,0,0,0,0,0,0,0,0,0,-1,1203,603,0,0
-14,421,0,0,0,0,0,0,0,0,0,-1,1210,603,0,0
-7,421,0,0,0,0,0,0,0,0,0,-1,1217,603,0,0
0,421,0,0,0,0,0,0,0,0,0,-1,1224,603,0,0
7,421,0,0,0,0,0,0,0,0,0,-1,1231,603,0,0
14,421,0,0,0,0,0,0,0,0,0,-1,1238,603,0,0
21,421,0,0,0,0,0,0,0,0,0,-1,1245,603,0,0
28,421,0,0,0,0,0,0,0,0,0,-1,1252,603,0,0
35,421,0,0,0,0,0,0,0,0,0,-1,1259,603,0,0
42,421,0,0,0,0,0,0,0,0,0,-1,1266,603,0,0
49,421,0,0,0,0,0,0,0,0,0,-1,1273,603,0,0
56,421,0,0,0,0,0,0,0,0,0,-1,1280,603,0,0
63,421,0,0,0,0,0,0,0,0,0,-1,1287,603,0,0
70,421,0,0,0,0,0,0,0,0,0,-1,1294,603,0,0
77,421,0,0,0,0,0,0,0,0,0,-1,1301,603,0,0
84,421,0,0,0,0,0,0,0,0,0,-1,1308,603,0,0
91,421,0,0,0,0,0,0,0,0,0,-1,1315,603,0,0
98,421,0,0,0,0,0,0,0,0,0,-1,1322,603,0,0
105,421,0,0,0,0,0,0,0,0,0,-1,1329,603,0,0
112,421,0,0,0,0,0,0,0,0,0,-1,1336,603,0,0
119,421,0,0,0,0,0,0,0,0,0,-1,1343,603,0,0
126,421,0,0,0,0,0,0,0,0,0,-1,1350,603,0,0
133,421,0,0,0,0,0,0,0,0,0,-1,1357,603,0,0
140,421,0,0,0,0,0,0,0,0,0,-1,1364,603,0,0
147,421,0,0,0,0,0,0,0,0,0,-1,1371,603,0,0
154,421,0,0,0,0,0,0,0,0,0,-1,1378,603,0,0
161,421,0,0,0,0,0,0,0,0,0,-1,1385,603,0,0
168,421,0,0,0,0,0,0,0,0,0,-1,1392,603,0,0
175,421,0,0,0,0,0,0,0,0,0,-1,1399,603,0,0
182,421,0,0,0,0,0,0,0,0,0,-1,1406,603,0,0
189,421,0,0,0,0,0,0,0,0,0,-1,1413,603,0,0
196,421,0,0,0,0,0,0,0,0,0,-1,1420,603,0,0
203,421,0,0,0,0,0,0,0,0,0,-1,1427,603,0,0
210,421,0,0,0,0,0,0,0,0,0,-1,1434,603,0,0
217,421,0,0,0,0,0,0,0,0,0,-1,1441,603,0,0
224,421,0,0,0,0,0,0,0,0,0,-1,1448,603,0,0
231,421,0,0,0,0,0,0,0,0,0,-1,1455,603,0,0
238,421,0,0,0,0,0,0,0,0,0,-1,1462,603,0,0
245,421,0,0,0,0,0,0,0,0,0,-1,1469,603,0,0
252,421,0,0,0,0,0,0,0,0,0,-1,1476,603,0,0
259,421,0,0,0,0,0,0,0,0,0,-1,1483,603,0,0
266,421,0,0,0,0,0,0,0,0,0,-1,1490,603,0,0
273,421,0,0,0,0,0,0,0,0,0,-1,1497,603,0,0
280,421,0,0,0,0,0,0,0,0,0,-1,1504,603,0,0
287,421,0,0,0,0,0,0,0,0,0,-1,1511,603,0,0
294,421,0,0,0,0,0,0,0,0,0,-1,1518,603,0,0
301,421,0,0,0,0,0,0,0,0,0,-1,1525,603,0,0
308,421,0,0,0,0,0,0,0,0,0,-1,1532,603,0,0
315,421,0,0,0,0,0,0,0,0,0,-1,1539,603,0,0
322,421,0,0,0,0,0,0,0,0,0,-1,1546,603,0,0
329,421,0,0,0,0,0,0,0,0,0,-1,1553,603,0,0
336,421,0,0,0,0,0,0,0,0,0,-1,1560,603,0,0
343,421,0,0,0,0,0,0,0,0,0,-1,1567,603,0,0
350,421,0,0,0,0,0,0,0,0,0,-1,1574,603,0,0
357,421,0,0,0,0,0,0,0,0,0,-1,1581,603,0,0
364,421,0,0,0,0,0,0,0,0,0,-1,1588,603,0,0
371,421,0,0,0,0,0,0,0,0,0,-1,1595,603,0,0
378,421,0,0,0,0,0,0,0,0,0,-1,1602,603,0,0
385,421,0,0,0,0,0,0,0,0,0,-1,1609,603,0,0
392,421,0,0,0,0,0,0,0,0,0,-1,1616,603,0,0
399,421,0,0,0,0,0,0,0,0,0,-1,1623,603,0,0
406,421,0,0,0,0,0,0,0,0,0,-1,1630,603,0,0
413,421,0,0,0,0,0,0,0,0,0,-1,1637,603,0,0
420,421,0,0,0,0,0,0,0,0,0,-1,1644,603,0,0
427,421,0,0,0,0,0,0,0,0,0,-1,1651,603,0,0
434,421,3.68176,-0.0327759,0,0,0,0,0,0,0,-1,1658,603,3.6818,0.0328037
441,421,8.06689,0.527832,0,0,0,0,0,0,0,-1,1665,603,8.06693,-0.527851
448,421,6.93921,0.802246,0,0,0,0,0,0,0,-1,1672,603,6.93923,-0.802251
455,421,7.29456,2.14825,0,0,0,0,0,0,0,-1,1679,603,7.29461,-2.14827
462,421,7.86902,3.53174,0,0,0,0,0,0,0,-1,1686,603,7.869,-3.53173
469,421,8.06604,2.81213,0,0,0,0,0,0,0,-1,1693,603,8.06606,-2.81212
476,421,8.26306,2.09253,0,0,0,0,0,0,0,-1,1700,603,8.26312,-2.09251
483,421,8.05322,0.798096,0,0,0,0,0,0,0,-1,1707,603,8.05323,-0.7981
490,421,7.51233,0.213074,0,0,0,0,0,0,0,-1,1714,603,7.51235,-0.213043
497,421,7.49634,-2.86688,0,0,0,0,0,0,0,-1,1721,603,7.4963,2.86688
504,421,6.90491,-2.18671,0,0,0,0,0,0,0,-1,1728,603,6.90491,2.18669
511,421,6.31348,-1.50653,0,0,0,0,0,0,0,-1,1735,603,6.31353,1.5065
518,421,6.27588,-2.49878,0,0,0,0,0,0,0,-1,1742,603,6.2759,2.4988
525,421,20.6951,-15.2534,0,0,0,0,0,0,0,-1,1749,603,20.6951,15.2534
532,421,20.8088,-14.3657,0.00478059,0.00173804,0.0017863,0.00560562,0.000913013,0.432678,0.00347298,0.0462108,1756,603,20.8089,14.3657
539,421,20.9373,-13.6802,0.00393269,0.00150075,0.00148062,0.00463265,0.000800785,0.441613,0.00285913,0.0241042,1763,603,20.9373,13.6802
546,421,20.9043,-13.0538,0.00319226,0.00124135,0.0012471,0.00380009,0.000633526,0.45351,0.00235085,0.0140768,1770,603,20.9043,13.0538
553,421,20.8699,-12.4071,0.00252981,0.00120087,0.00109894,0.00314955,0.000581136,0.513483,0.00193529,0.0125607,1777,603,20.8698,12.4071
560,421,20.8501,-11.7587,0.00194146,0.00124667,0.00104392,0.00269427,0.00049386,0.624771,0.00165628,0.0154,1784,603,20.8501,11.7587
567,421,20.8413,-11.1307,0.00150692,0.00141506,0.0010898,0.00255176,0.000370223,0.764338,0.00159218,0.0177662,1791,603,20.8413,11.1307
574,421,20.7983,-10.453,0.00129795,0.00175112,0.0012676,0.00281223,0.000236837,0.87384,0.00180107,0.0190096,1798,603,20.7983,10.453
581,421,20.7529,-9.75476,0.0012733,0.00220085,0.00159723,0.00340027,7.38824e-05,0.926694,0.00224263,0.0171474,1805,603,20.7529,9.75477
588,421,20.7278,-9.16736,0.00145377,0.00290374,0.00209608,0.00439667,-3.91591e-05,0.951897,0.00294425,0.0126721,1812,603,20.7277,9.16736
595,421,20.7457,-8.51825,0.00187306,0.00378354,0.00274917,0.0057387,-8.21012e-05,0.952605,0.00385346,0.0198896,1819,603,20.7457,8.51823
602,421,20.7581,-7.81873,0,0,0,0,0,0,0,-1,1826,603,20.758,7.81873
609,421,19.7653,-6.67944,0,0,0,0,0,0,0,-1,1833,603,19.7652,6.67944
616,421,17.7633,-4.72491,0,0,0,0,0,0,0,-1,1840,603,17.7633,4.7249
623,421,6.19885,0.376648,0,0,0,0,0,0,0,-1,1847,603,6.19881,-0.376624
630,421,6.54993,0.778748,0,0,0,0,0,0,0,-1,1854,603,6.54991,-0.778744
637,421,3.74512,1.65405,0,0,0,0,0,0,0,-1,1861,603,3.74517,-1.65407
644,421,3.58081,0.354675,0,0,0,0,0,0,0,-1,1868,603,3.58082,-0.354704
651,421,3.28687,3.66351,0,0,0,0,0,0,0,-1,1875,603,3.28688,-3.66353
658,421,0,0,0,0,0,0,0,0,0,-1,1882,603,0,0
665,421,0,0,0,0,0,0,0,0,0,-1,1889,603,0,0
672,421,0,0,0,0,0,0,0,0,0,-1,1896,603,0,0
679,421,0,0,0,0,0,0,0,0,0,-1,1903,603,0,0
686,421,0,0,0,0,0,0,0,0,0,-1,1910,603,0,0
693,421,0,0,0,0,0,0,0,0,0,-1,1917,603,0,0
700,421,0,0,0,0,0,0,0,0,0,-1,1924,603,0,0
707,421,0,0,0,0,0,0,0,0,0,-1,1931,603,0,0
714,421,0,0,0,0,0,0,0,0,0,-1,1938,603,0,0
721,421,0,0,0,0,0,0,0,0,0,-1,1945,603,0,0
728,421,0,0,0,0,0,0,0,0,0,-1,1952,603,0,0
735,421,0,0,0,0,0,0,0,0,0,-1,1959,603,0,0
742,421,0,0,0,0,0,0,0,0,0,-1,1966,603,0,0
749,421,0,0,0,0,0,0,0,0,0,-1,1973,603,0,0
756,421,0,0,0,0,0,0,0,0,0,-1,1980,603,0,0
763,421,0,0,0,0,0,0,0,0,0,-1,1987,603,0,0
770,421,0,0,0,0,0,0,0,0,0,-1,1994,603,0,0
777,421,0,0,0,0,0,0,0,0,0,-1,2001,603,0,0
784,421,0,0,0,0,0,0,0,0,0,-1,2008,603,0,0
791,421,0,0,0,0,0,0,0,0,0,-1,2015,603,0,0
798,421,0,0,0,0,0,0,0,0,0,-1,2022,603,0,0
805,421,0,0,0,0,0,0,0,0,0,-1,2029,603,0,0
812,421,0,0,0,0,0,0,0,0,0,-1,2036,603,0,0
-700,414,0,0,0,0,0,0,0,0,0,-1,524,610,0,0
-693,414,0,0,0,0,0,0,0,0,0,-1,531,610,0,0
-686,414,0,0,0,0,0,0,0,0,0,-1,538,610,0,0
-679,414,0,0,0,0,0,0,0,0,0,-1,545,610,0,0
-672,414,0,0,0,0,0,0,0,0,0,-1,552,610,0,0
-665,414,0,0,0,0,0,0,0,0,0,-1,559,610,0,0
-658,414,0,0,0,0,0,0,0,0,0,-1,566,610,0,0
-651,414,0,0,0,0,0,0,0,0,0,-1,573,610,0,0
-644,414,0,0,0,0,0,0,0,0,0,-1,580,610,0,0
-637,414,0,0,0,0,0,0,0,0,0,-1,587,610,0,0
-630,414,0,0,0,0,0,0,0,0,0,-1,594,610,0,0
-623,414,0,0,0,0,0,0,0,0,0,-1,601,610,0,0
-616,414,0,0,0,0,0,0,0,0,0,-1,608,610,0,0
-609,414,0,0,0,0,0,0,0,0,0,-1,615,610,0,0
-602,414,0,0,0,0,0,0,0,0,0,-1,622,610,0,0
-595,414,0,0,0,0,0,0,0,0,0,-1,629,610,0,0
-588,414,0,0,0,0,0,0,0,0,0,-1,636,610,0,0
-581,414,0,0,0,0,0,0,0,0,0,-1,643,610,0,0
-574,414,0,0,0,0,0,0,0,0,0,-1,650,610,0,0
-567,414,0,0,0,0,0,0,0,0,0,-1,657,610,0,0
-560,414,0,0,0,0,0,0,0,0,0,-1,664,610,0,0
-553,414,0,0,0,0,0,0,0,0,0,-1,671,610,0,0
-546,414,0,0,0,0,0,0,0,0,0,-1,678,610,0,0
-539,414,-7.50146,5.65619,0,0,0,0,0,0,0,-1,685,610,-7.50149,-5.65617
-532,414,-8.15204,4.01605,0,0,0,0,0,0,0,-1,692,610,-8.15206,-4.01606
-525,414,-3.47137,-3.27924,0,0,0,0,0,0,0,-1,699,610,-3.47136,3.27922
-518,414,-4.12909,-4.36908,0,0,0,0,0,0,0,-1,706,610,-4.12909,4.36909
-511,414,-3.92542,-4.97021,0,0,0,0,0,0,0,-1,713,610,-3.92542,4.97023
-504,414,-9.35394,-5.49896,0,0,0,0,0,0,0,-1,720,610,-9.35394,5.49898
-497,414,-9.67627,-6.54761,0,0,0,0,0,0,0,-1,727,610,-9.6763,6.5476
-490,414,-10.0775,-7.28003,0,0,0,0,0,0,0,-1,734,610,-10.0774,7.28003
-483,414,-9.9245,-8.82544,0,0,0,0,0,0,0,-1,741,610,-9.92449,8.82542
-476,414,-10.0739,-9.40668,0.0080349,0.00700601,-0.00579706,0.0133403,0.00170061,-0.741143,0.00838435,0.0231884,748,610,-10.0738,9.40671
-469,414,-10.1225,-9.96942,0.00634373,0.00523733,-0.00448062,0.0103052,0.00127589,-0.723976,0.00648678,0.0140228,755,610,-10.1225,9.96942
-462,414,-10.0927,-10.631,0.00495552,0.00380889,-0.00339522,0.00782549,0.000938922,-0.701757,0.00493389,0.0237957,762,610,-10.0927,10.631
-455,414,-10.1412,-11.2869,0.00374274,0.00259621,-0.0024433,0.00567912,0.000659823,-0.670169,0.00358643,0.0264274,769,610,-10.1412,11.2869
-448,414,-10.2073,-11.8956,0.00275802,0.00151138,-0.0016183,0.00386889,0.000400501,-0.60157,0.00245667,0.025404,776,610,-10.2073,11.8956
-441,414,-10.1886,-12.5358,0.00190955,0.000458945,-0.00082833,0.00228524,8.32496e-05,-0.425808,0.00149652,0.0178986,783,610,-10.1886,12.5358
-434,414,-10.2064,-13.168,0.00123295,-0.00036741,-0.000161133,0.00124901,-0.000383473,-0.0993566,0.000985687,0.0101168,790,610,-10.2063,13.168
-427,414,-10.2159,-13.7852,0.000700913,-0.00118908,0.000427317,0.000793036,-0.0012812,0.212336,0.00120857,0.011028,797,610,-10.216,13.7852
-420,414,-10.2177,-14.4026,0.000381815,-0.00191852,0.000907437,0.000696683,-0.00223338,0.333987,0.00176753,0.0102665,804,610,-10.2177,14.4026
-413,414,-10.2457,-15.0264,0.000172404,-0.00269438,0.00150045,0.000814092,-0.00333606,0.404125,0.00253929,0.0112563,811,610,-10.2458,15.0264
-406,414,-10.2697,-15.736,-0.000110321,-0.0034328,0.00204103,0.000860078,-0.0044032,0.443812,0.0032602,0.0259415,818,610,-10.2697,15.736
-399,414,-10.2583,-16.4648,0,0,0,0,0,0,0,-1,825,610,-10.2583,16.4648
-392,414,-9.43781,-14.5624,0,0,0,0,0,0,0,-1,832,610,-9.43779,14.5624
-385,414,-8.14691,-13.0653,0,0,0,0,0,0,0,-1,839,610,-8.14692,13.0653
-378,414,-8.04907,-11.3331,0,0,0,0,0,0,0,-1,846,610,-8.04905,11.3331
-371,414,-5.20886,-8.05151,0,0,0,0,0,0,0,-1,853,610,-5.20887,8.05153
-364,414,-6.76282,-6.58759,0,0,0,0,0,0,0,-1,860,610,-6.7628,6.58756
-357,414,-9.08685,-8.86188,0,0,0,0,0,0,0,-1,867,610,-9.08688,8.86187
-350,414,-6.4502,-2.41821,0,0,0,0,0,0,0,-1,874,610,-6.45021,2.41822
-343,414,-6.80249,-2.32117,0,0,0,0,0,0,0,-1,881,610,-6.80252,2.32116
-336,414,-7.11017,-2.52026,0,0,0,0,0,0,0,-1,888,610,-7.11016,2.52026
-329,414,-7.59747,-2.70313,0,0,0,0,0,0,0,-1,895,610,-7.59747,2.70315
-322,414,-4.42236,-1.29163,0,0,0,0,0,0,0,-1,902,610,-4.42238,1.2916
-315,414,0,0,0,0,0,0,0,0,0,-1,909,610,0,0
-308,414,0,0,0,0,0,0,0,0,0,-1,916,610,0,0
-301,414,0,0,0,0,0,0,0,0,0,-1,923,610,0,0
-294,414,0,0,0,0,0,0,0,0,0,-1,930,610,0,0
-287,414,0,0,0,0,0,0,0,0,0,-1,937,610,0,0
-280,414,0,0,0,0,0,0,0,0,0,-1,944,610,0,0
-273,414,0,0,0,0,0,0,0,0,0,-1,951,610,0,0
-266,414,0,0,0,0,0,0,0,0,0,-1,958,610,0,0
-259,414,0,0,0,0,0,0,0,0,0,-1,965,610,0,0
-252,414,0,0,0,0,0,0,0,0,0,-1,972,610,0,0
-245,414,0,0,0,0,0,0,0,0,0,-1,979,610,0,0
-238,414,0,0,0,0,0,0,0,0,0,-1,986,610,0,0
-231,414,0,0,0,0,0,0,0,0,0,-1,993,610,0,0
-224,414,0,0,0,0,0,0,0,0,0,-1,1000,610,0,0
-217,414,0,0,0,0,0,0,0,0,0,-1,1007,610,0,0
-210,414,0,0,0,0,0,0,0,0,0,-1,1014,610,0,0
-203,414,0,0,0,0,0,0,0,0,0,-1,1021,610,0,0
-196,414,0,0,0,0,0,0,0,0,0,-1,1028,610,0,0
-189,414,0,0,0,0,0,0,0,0,0,-1,1035,610,0,0
-182,414,0,0,0,0,0,0,0,0,0,-1,1042,610,0,0
-175,414,0,0,0,0,0,0,0,0,0,-1,1049,610,0,0
-168,414,0,0,0,0,0,0,0,0,0,-1,1056,610,0,0
-161,414,0,0,0,0,0,0,0,0,0,-1,1063,610,0,0
-154,414,0,0,0,0,0,0,0,0,0,-1,1070,610,0,0
-147,414,0,0,0,0,0,0,0,0,0,-1,1077,610,0,0
-140,414,0,0,0,0,0,0,0,0,0,-1,1084,610,0,0
-133,414,0,0,0,0,0,0,0,0,0,-1,1091,610,0,0
-126,414,0,0,0,0,0,0,0,0,0,-1,1098,610,0,0
-119,414,0,0,0,0,0,0,0,0,0,-1,1105,610,0,0
-112,414,0,0,0,0,0,0,0,0,0,-1,1112,610,0,0
-105,414,0,0,0,0,0,0,0,0,0,-1,1119,610,0,0
-98,414,0,0,0,0,0,0,0,0,0,-1,1126,610,0,0
-91,414,0,0,0,0,0,0,0,0,0,-1,1133,610,0,0
-84,414,0,0,0,0,0,0,0,0,0,-1,1140,610,0,0
-77,414,0,0,0,0,0,0,0,0,0,-1,1147,610,0,0
-70,414,0,0,0,0,0,0,0,0,0,-1,1154,610,0,0
-63,414,0,0,0,0,0,0,0,0,0,-1,1161,610,0,0
-56,414,0,0,0,0,0,0,0,0,0,-1,1168,610,0,0
-49,414,0,0,0,0,0,0,0,0,0,-1,1175,610,0,0
-42,414,0,0,0,0,0,0,0,0,0,-1,1182,610,0,0
-35,414,0,0,0,0,0,0,0,0,0,-1,1189,610,0,0
-28,414,0,0,0,0,0,0,0,0,0,-1,1196,610,0,0
-21,414,0,0,0,0,0,0,0,0,0,-1,1203,610,0,0
-14,414,0,0,0,0,0,0,0,0,0,-1,1210,610,0,0
-7,414,0,0,0,0,0,0,0,0,0,-1,1217,610,0,0
0,414,0,0,0,0,0,0,0,0,0,-1,1224,610,0,0
7,414,0,0,0,0,0,0,0,0,0,-1,1231,610,0,0
14,414,0,0,0,0,0,0,0,0,0,-1,1238,610,0,0
21,414,0,0,0,0,0,0,0,0,0,-1,1245,610,0,0
28,414,0,0,0,0,0,0,0,0,0,-1,1252,610,0,0
35,414,0,0,0,0,0,0,0,0,0,-1,1259,610,0,0
42,414,0,0,0,0,0,0,0,0,0,-1,1266,610,0,0
49,414,0,0,0,0,0,0,0,0,0,-1,1273,610,0,0
56,414,0,0,0,0,0,0,0,0,0,-1,1280,610,0,0
63,414,0,0,0,0,0,0,0,0,0,-1,1287,610,0,0
70,414,0,0,0,0,0,0,0,0,0,-1,1294,610,0,0
77,414,0,0,0,0,0,0,0,0,0,-1,1301,610,0,0
84,414,0,0,0,0,0,0,0,0,0,-1,1308,610,0,0
91,414,0,0,0,0,0,0,0,0,0,-1,1315,610,0,0
98,414,0,0,0,0,0,0,0,0,0,-1,1322,610,0,0
105,414,0,0,0,0,0,0,0,0,0,-1,1329,610,0,0
112,414,0,0,0,0,0,0,0,0,0,-1,1336,610,0,0
119,414,0,0,0,0,0,0,0,0,0,-1,1343,610,0,0
126,414,0,0,0,0,0,0,0,0,0,-1,1350,610,0,0
133,414,0,0,0,0,0,0,0,0,0,-1,1357,610,0,0
140,414,0,0,0,0,0,0,0,0,0,-1,1364,610,0,0
147,414,0,0,0,0,0,0,0,0,0,-1,1371,610,0,0
154,414,0,0,0,0,0,0,0,0,0,-1,1378,610,0,0
161,414,0,0,0,0,0,0,0,0,0,-1,1385,610,0,0
168,414,0,0,0,0,0,0,0,0,0,-1,1392,610,0,0
175,414,0,0,0,0,0,0,0,0,0,-1,1399,610,0,0
182,414,0,0,0,0,0,0,0,0,0,-1,1406,610,0,0
189,414,0,0,0,0,0,0,0,0,0,-1,1413,610,0,0
196,414,0,0,0,0,0,0,0,0,0,-1,1420,610,0,0
203,414,0,0,0,0,0,0,0,0,0,-1,1427,610,0,0
210,414,0,0,0,0,0,0,0,0,0,-1,1434,610,0,0
217,414,0,0,0,0,0,0,0,0,0,-1,1441,610,0,0
224,414,0,0,0,0,0,0,0,0,0,-1,1448,610,0,0
231,414,0,0,0,0,0,0,0,0,0,-1,1455,610,0,0
238,414,0,0,0,0,0,0,0,0,0,-1,1462,610,0,0
245,414,0,0,0,0,0,0,0,0,0,-1,1469,610,0,0
252,414,0,0,0,0,0,0,0,0,0,-1,1476,610,0,0
259,414,0,0,0,0,0,0,0,0,0,-1,1483,610,0,0
266,414,0,0,0,0,0,0,0,0,0,-1,1490,610,0,0
273,414,0,0,0,0,0,0,0,0,0,-1,1497,610,0,0
280,414,0,0,0,0,0,0,0,0,0,-1,1504,610,0,0
287,414,0,0,0,0,0,0,0,0,0,-1,1511,610,0,0
294,414,0,0,0,0,0,0,0,0,0,-1,1518,610,0,0
301,414,0,0,0,0,0,0,0,0,0,-1,1525,610,0,0
308,414,0,0,0,0,0,0,0,0,0,-1,1532,610,0,0
315,414,0,0,0,0,0,0,0,0,0,-1,1539,610,0,0
322,414,0,0,0,0,0,0,0,0,0,-1,1546,610,0,0
329,414,0,0,0,0,0,0,0,0,0,-1,1553,610,0,0
336,414,0,0,0,0,0,0,0,0,0,-1,1560,610,0,0
343,414,0,0,0,0,0,0,0,0,0,-1,1567,610,0,0
350,414,0,0,0,0,0,0,0,0,0,-1,1574,610,0,0
357,414,0,0,0,0,0,0,0,0,0,-1,1581,610,0,0
364,414,0,0,0,0,0,0,0,0,0,-1,1588,610,0,0
371,414,0,0,0,0,0,0,0,0,0,-1,1595,610,0,0
378,414,0,0,0,0,0,0,0,0,0,-1,1602,610,0,0
385,414,0,0,0,0,0,0,0,0,0,-1,1609,610,0,0
392,414,0,0,0,0,0,0,0,0,0,-1,1616,610,0,0
399,414,0,0,0,0,0,0,0,0,0,-1,1623,610,0,0
406,414,0,0,0,0,0,0,0,0,0,-1,1630,610,0,0
413,414,0,0,0,0,0,0,0,0,0,-1,1637,610,0,0
420,414,0,0,0,0,0,0,0,0,0,-1,1644,610,0,0
427,414,0,0,0,0,0,0,0,0,0,-1,1651,610,0,0
434,414,0,0,0,0,0,0,0,0,0,-1,1658,610,0,0
441,414,7.84375,0.584412,0,0,0,0,0,0,0,-1,1665,610,7.84379,-0.584394
448,414,7.40808,1.25446,0,0,0,0,0,0,0,-1,1672,610,7.40807,-1.25446
455,414,6.3512,1.73846,0,0,0,0,0,0,0,-1,1679,610,6.3512,-1.73847
462,414,8.18103,3.22113,0,0,0,0,0,0,0,-1,1686,610,8.18108,-3.22112
469,414,8.38513,2.49579,0,0,0,0,0,0,0,-1,1693,610,8.38516,-2.49576
476,414,8.64099,1.71161,0,0,0,0,0,0,0,-1,1700,610,8.64097,-1.71164
483,414,8.62744,0.687622,0,0,0,0,0,0,0,-1,1707,610,8.62749,-0.687615
490,414,8.38831,-0.0302734,0,0,0,0,0,0,0,-1,1714,610,8.38835,0.0302913
497,414,4.71094,-0.110046,0,0,0,0,0,0,0,-1,1721,610,4.71089,0.110024
504,414,7.19568,-1.43835,0,0,0,0,0,0,0,-1,1728,610,7.19563,1.43836
511,414,5.94153,-1.28772,0,0,0,0,0,0,0,-1,1735,610,5.94151,1.28769
518,414,4.53381,-0.0996704,0,0,0,0,0,0,0,-1,1742,610,4.53378,0.0996819
525,414,6.18811,-1.64056,0,0,0,0,0,0,0,-1,1749,610,6.18814,1.64055
532,414,21.4675,-14.6017,0,0,0,0,0,0,0,-1,1756,610,21.4675,14.6018
539,414,21.5754,-13.7112,0,0,0,0,0,0,0,-1,1763,610,21.5754,13.7112
546,414,21.5305,-13.0272,0.00384972,0.001282,0.00140816,0.00447143,0.000660285,0.415771,0.00278705,0.0153715,1770,610,21.5306,13.0272
553,414,21.5309,-12.3918,0.00303132,0.00117366,0.00116,0.00358853,0.000616443,0.447809,0.00221565,0.0136745,1777,610,21.5309,12.3918
560,414,21.5031,-11.7252,0.00231608,0.00114596,0.00101616,0.00290357,0.000558462,0.524198,0.00177902,0.0164035,1784,610,21.503,11.7251
567,414,21.4811,-11.0686,0.00176496,0.0012161,0.000970992,0.00249956,0.000481501,0.647677,0.00153132,0.0249843,1791,610,21.4811,11.0686
574,414,21.4296,-10.4343,0.0014772,0.00147517,0.0010872,0.00256339,0.000388985,0.784932,0.00159515,0.0207678,1798,610,21.4296,10.4343
581,414,21.4243,-9.75391,0.00138768,0.00186375,0.00136261,0.00300896,0.000242465,0.87187,0.00193023,0.0173588,1805,610,21.4244,9.75388
588,414,21.3774,-9.16626,0.00146532,0.00248391,0.00178307,0.00382899,0.000120239,0.924509,0.00251354,0.0174067,1812,610,21.3775,9.16628
595,414,21.3506,-8.47583,0.00181705,0.00328574,0.00237678,0.00503903,6.37593e-05,0.935229,0.0033383,0.0223589,1819,610,21.3506,8.47584
602,414,21.3279,-7.80652,0.00240454,0.00436495,0.00315657,0.00669001,7.94842e-05,0.935942,0.00443375,0.0254019,1826,610,21.3278,7.8065
609,414,21.2949,-7.13593,0,0,0,0,0,0,0,-1,1833,610,21.295,7.13591
616,414,21.5735,-6.22235,0,0,0,0,0,0,0,-1,1840,610,21.5734,6.22235
623,414,9.6969,0.0378418,0,0,0,0,0,0,0,-1,1847,610,9.69685,-0.0378644
630,414,5.47144,0.499329,0,0,0,0,0,0,0,-1,1854,610,5.47142,-0.499303
637,414,8.36707,4.16278,0,0,0,0,0,0,0,-1,1861,610,8.36709,-4.16278
644,414,5.87073,1.51422,0,0,0,0,0,0,0,-1,1868,610,5.87076,-1.51424
651,414,3.6377,0.820557,0,0,0,0,0,0,0,-1,1875,610,3.6377,-0.820543
658,414,2.29761,3.87323,0,0,0,0,0,0,0,-1,1882,610,2.29758,-3.87325
665,414,0,0,0,0,0,0,0,0,0,-1,1889,610,0,0
672,414,0,0,0,0,0,0,0,0,0,-1,1896,610,0,0
679,414,0,0,0,0,0,0,0,0,0,-1,1903,610,0,0
686,414,0,0,0,0,0,0,0,0,0,-1,1910,610,0,0
693,414,0,0,0,0,0,0,0,0,0,-1,1917,610,0,0
700,414,0,0,0,0,0,0,0,0,0,-1,1924,610,0,0
707,414,0,0,0,0,0,0,0,0,0,-1,1931,610,0,0
714,414,0,0,0,0,0,0,0,0,0,-1,1938,610,0,0
721,414,0,0,0,0,0,0,0,0,0,-1,1945,610,0,0
728,414,0,0,0,0,0,0,0,0,0,-1,1952,610,0,0
735,414,0,0,0,0,0,0,0,0,0,-1,1959,610,0,0
742,414,0,0,0,0,0,0,0,0,0,-1,1966,610,0,0
749,414,0,0,0,0,0,0,0,0,0,-1,1973,610,0,0
756,414,0,0,0,0,0,0,0,0,0,-1,1980,610,0,0
763,414,0,0,0,0,0,0,0,0,0,-1,1987,610,0,0
770,414,0,0,0,0,0,0,0,0,0,-1,1994,610,0,0
777,414,0,0,0,0,0,0,0,0,0,-1,2001,610,0,0
784,414,0,0,0,0,0,0,0,0,0,-1,2008,610,0,0
791,414,0,0,0,0,0,0,0,0,0,-1,2015,610,0,0
798,414,0,0,0,0,0,0,0,0,0,-1,2022,610,0,0
805,414,0,0,0,0,0,0,0,0,0,-1,2029,610,0,0
812,414,0,0,0,0,0,0,0,0,0,-1,2036,610,0,0
-700,407,0,0,0,0,0,0,0,0,0,-1,524,617,0,0
-693,407,0,0,0,0,0,0,0,0,0,-1,531,617,0,0
-686,407,0,0,0,0,0,0,0,0,0,-1,538,617,0,0
-679,407,0,0,0,0,0,0,0,0,0,-1,545,617,0,0
-672,407,0,0,0,0,0,0,0,0,0,-1,552,617,0,0
-665,407,0,0,0,0,0,0,0,0,0,-1,559,617,0,0
-658,407,0,0,0,0,0,0,0,0,0,-1,566,617,0,0
-651,407,0,0,0,0,0,0,0,0,0,-1,573,617,0,0
-644,407,0,0,0,0,0,0,0,0,0,-1,580,617,0,0
-637,407,0,0,0,0,0,0,0,0,0,-1,587,617,0,0
-630,407,0,0,0,0,0,0,0,0,0,-1,594,617,0,0
-623,407,0,0,0,0,0,0,0,0,0,-1,601,617,0,0
-616,407,0,0,0,0,0,0,0,0,0,-1,608,617,0,0
-609,407,0,0,0,0,0,0,0,0,0,-1,615,617,0,0
-602,407,0,0,0,0,0,0,0,0,0,-1,622,617,0,0
-595,407,0,0,0,0,0,0,0,0,0,-1,629,617,0,0
-588,407,0,0,0,0,0,0,0,0,0,-1,636,617,0,0
-581,407,0,0,0,0,0,0,0,0,0,-1,643,617,0,0
-574,407,0,0,0,0,0,0,0,0,0,-1,650,617,0,0
-567,407,0,0,0,0,0,0,0,0,0,-1,657,617,0,0
-560,407,0,0,0,0,0,0,0,0,0,-1,664,617,0,0
-553,407,0,0,0,0,0,0,0,0,0,-1,671,617,0,0
-546,407,-8.54517,-0.658142,0,0,0,0,0,0,0,-1,678,617,-8.54515,0.658112
-539,407,-6.09442,-1.01154,0,0,0,0,0,0,0,-1,685,617,-6.09441,1.01155
-532,407,-7.75665,1.62152,0,0,0,0,0,0,0,-1,692,617,-7.75667,-1.62154
-525,407,-3.78247,-2.67639,0,0,0,0,0,0,0,-1,699,617,-3.78246,2.67638
-518,407,-5.013,-5.87323,0,0,0,0,0,0,0,-1,706,617,-5.013,5.87324
-511,407,-9.42743,-4.94189,0,0,0,0,0,0,0,-1,713,617,-9.42745,4.94191
-504,407,-9.80591,-7.48315,0,0,0,0,0,0,0,-1,720,617,-9.80588,7.48317
-497,407,-9.84467,-6.81641,0,0,0,0,0,0,0,-1,727,617,-9.84468,6.8164
-490,407,-10.7801,-7.73114,0,0,0,0,0,0,0,-1,734,617,-10.7801,7.73117
-483,407,-10.6422,-8.70715,0.00728667,0.00716764,-0.00566517,0.0128926,0.00156167,-0.780146,0.00812472,0.0333866,741,617,-10.6422,8.70718
-476,407,-10.6861,-9.32434,0.00589924,0.00544954,-0.00444741,0.0101275,0.0012213,-0.76014,0.00638362,0.0161988,748,617,-10.6861,9.32431
-469,407,-10.7264,-9.92371,0.0047622,0.00401482,-0.00345092,0.00785961,0.000917417,-0.731465,0.00496228,0.0133631,755,617,-10.7264,9.92373
-462,407,-10.7623,-10.5669,0.00376917,0.00282268,-0.00258714,0.00592598,0.000665856,-0.694937,0.00374847,0.021213,762,617,-10.7624,10.5669
-455,407,-10.7967,-11.2552,0.00287193,0.00175203,-0.0018103,0.0042069,0.00041706,-0.635408,0.00267643,0.0228462,769,617,-10.7967,11.2552
-448,407,-10.7955,-11.885,0.00214,0.000817647,-0.00113066,0.00278861,0.000169037,-0.520825,0.00180537,0.0193651,776,617,-10.7955,11.885
-441,407,-10.8062,-12.4815,0.00146529,-0.000119859,-0.000439782,0.00157913,-0.000233696,-0.25329,0.00113867,0.0145697,783,617,-10.8062,12.4815
-434,407,-10.8383,-13.095,0.000890228,-0.000885136,0.000171238,0.000906593,-0.000901501,0.0952818,0.0010439,0.0109097,790,617,-10.8383,13.095
-427,407,-10.8439,-13.7327,0.000376596,-0.00171266,0.000758747,0.00062307,-0.00195914,0.31409,0.00155594,0.0116022,797,617,-10.8439,13.7328
-420,407,-10.8354,-14.3531,0.000121444,-0.0024439,0.00119395,0.000591134,-0.00291359,0.374796,0.00216649,0.0107304,804,617,-10.8354,14.3531
-413,407,-10.8598,-14.9581,-0.00012063,-0.00333819,0.00191877,0.000774553,-0.00423337,0.436524,0.00311272,0.0133879,811,617,-10.8598,14.9581
-406,407,-10.9921,-15.3904,-0.000623215,-0.00421864,0.00258476,0.000727521,-0.00556938,0.481546,0.00397767,0.0405492,818,617,-10.9921,15.3905
-399,407,-10.8823,-15.8026,0,0,0,0,0,0,0,-1,825,617,-10.8823,15.8025
-392,407,-8.33612,-12.195,0,0,0,0,0,0,0,-1,832,617,-8.33611,12.195
-385,407,-7.65765,-10.7744,0,0,0,0,0,0,0,-1,839,617,-7.65767,10.7744
-378,407,-6.08655,-7.42291,0,0,0,0,0,0,0,-1,846,617,-6.08652,7.42292
-371,407,-7.4007,-5.79449,0,0,0,0,0,0,0,-1,853,617,-7.40072,5.79447
-364,407,-10.0638,-6.6228,0,0,0,0,0,0,0,-1,860,617,-10.0639,6.62279
-357,407,-6.64447,-1.83337,0,0,0,0,0,0,0,-1,867,617,-6.64446,1.8334
-350,407,-7.03351,-1.77551,0,0,0,0,0,0,0,-1,874,617,-7.03349,1.77551
-343,407,-7.40967,-1.95026,0,0,0,0,0,0,0,-1,881,617,-7.40969,1.95026
-336,407,-8.10229,-2.40662,0,0,0,0,0,0,0,-1,888,617,-8.10229,2.40664
-329,407,-8.81232,-2.76331,0,0,0,0,0,0,0,-1,895,617,-8.81235,2.76331
-322,407,0,0,0,0,0,0,0,0,0,-1,902,617,0,0
-315,407,0,0,0,0,0,0,0,0,0,-1,909,617,0,0
-308,407,0,0,0,0,0,0,0,0,0,-1,916,617,0,0
-301,407,0,0,0,0,0,0,0,0,0,-1,923,617,0,0
-294,407,0,0,0,0,0,0,0,0,0,-1,930,617,0,0
-287,407,0,0,0,0,0,0,0,0,0,-1,937,617,0,0
-280,407,0,0,0,0,0,0,0,0,0,-1,944,617,0,0
-273,407,0,0,0,0,0,0,0,0,0,-1,951,617,0,0
-266,407,0,0,0,0,0,0,0,0,0,-1,958,617,0,0
-259,407,0,0,0,0,0,0,0,0,0,-1,965,617,0,0
-252,407,0,0,0,0,0,0,0,0,0,-1,972,617,0,0
-245,407,0,0,0,0,0,0,0,0,0,-1,979,617,0,0
-238,407,0,0,0,0,0,0,0,0,0,-1,986,617,0,0
-231,407,0,0,0,0,0,0,0,0,0,-1,993,617,0,0
-224,407,0,0,0,0,0,0,0,0,0,-1,1000,617,0,0
-217,407,0,0,0,0,0,0,0,0,0,-1,1007,617,0,0
-210,407,0,0,0,0,0,0,0,0,0,-1,1014,617,0,0
-203,407,0,0,0,0,0,0,0,0,0,-1,1021,617,0,0
-196,407,0,0,0,0,0,0,0,0,0,-1,1028,617,0,0
-189,407,0,0,0,0,0,0,0,0,0,-1,1035,617,0,0
-182,407,0,0,0,0,0,0,0,0,0,-1,1042,617,0,0
-175,407,0,0,0,0,0,0,0,0,0,-1,1049,617,0,0
-168,407,0,0,0,0,0,0,0,0,0,-1,1056,617,0,0
-161,407,0,0,0,0,0,0,0,0,0,-1,1063,617,0,0
-154,407,0,0,0,0,0,0,0,0,0,-1,1070,617,0,0
-147,407,0,0,0,0,0,0,0,0,0,-1,1077,617,0,0
-140,407,0,0,0,0,0,0,0,0,0,-1,1084,617,0,0
-133,407,0,0,0,0,0,0,0,0,0,-1,1091,617,0,0
-126,407,0,0,0,0,0,0,0,0,0,-1,1098,617,0,0
-119,407,0,0,0,0,0,0,0,0,0,-1,1105,617,0,0
-112,407,0,0,0,0,0,0,0,0,0,-1,1112,617,0,0
-105,407,0,0,0,0,0,0,0,0,0,-1,1119,617,0,0
-98,407,0,0,0,0,0,0,0,0,0,-1,1126,617,0,0
-91,407,0,0,0,0,0,0,0,0,0,-1,1133,617,0,0
-84,407,0,0,0,0,0,0,0,0,0,-1,1140,617,0,0
-77,407,0,0,0,0,0,0,0,0,0,-1,1147,617,0,0
-70,407,0,0,0,0,0,0,0,0,0,-1,1154,617,0,0
-63,407,0,0,0,0,0,0,0,0,0,-1,1161,617,0,0
-56,407,0,0,0,0,0,0,0,0,0,-1,1168,617,0,0
-49,407,0,0,0,0,0,0,0,0,0,-1,1175,617,0,0
-42,407,0,0,0,0,0,0,0,0,0,-1,1182,617,0,0
-35,407,0,0,0,0,0,0,0,0,0,-1,1189,617,0,0
-28,407,0,0,0,0,0,0,0,0,0,-1,1196,617,0,0
-21,407,0,0,0,0,0,0,0,0,0,-1,1203,617,0,0
-14,407,0,0,0,0,0,0,0,0,0,-1,1210,617,0,0
-7,407,0,0,0,0,0,0,0,0,0,-1,1217,617,0,0
0,407,0,0,0,0,0,0,0,0,0,-1,1224,617,0,0
7,407,0,0,0,0,0,0,0,0,0,-1,1231,617,0,0
14,407,0,0,0,0,0,0,0,0,0,-1,1238,617,0,0
21,407,0,0,0,0,0,0,0,0,0,-1,1245,617,0,0
28,407,0,0,0,0,0,0,0,0,0,-1,1252,617,0,0
35,407,0,0,0,0,0,0,0,0,0,-1,1259,617,0,0
42,407,0,0,0,0,0,0,0,0,0,-1,1266,617,0,0
49,407,0,0,0,0,0,0,0,0,0,-1,1273,617,0,0
56,407,0,0,0,0,0,0,0,0,0,-1,1280,617,0,0
63,407,0,0,0,0,0,0,0,0,0,-1,1287,617,0,0
70,407,0,0,0,0,0,0,0,0,0,-1,1294,617,0,0
77,407,0,0,0,0,0,0,0,0,0,-1,1301,617,0,0
84,407,0,0,0,0,0,0,0,0,0,-1,1308,617,0,0
91,407,0,0,0,0,0,0,0,0,0,-1,1315,617,0,0
98,407,0,0,0,0,0,0,0,0,0,-1,1322,617,0,0
105,407,0,0,0,0,0,0,0,0,0,-1,1329,617,0,0
112,407,0,0,0,0,0,0,0,0,0,-1,1336,617,0,0
119,407,0,0,0,0,0,0,0,0,0,-1,1343,617,0,0
126,407,0,0,0,0,0,0,0,0,0,-1,1350,617,0,0
133,407,0,0,0,0,0,0,0,0,0,-1,1357,617,0,0
140,407,0,0,0,0,0,0,0,0,0,-1,1364,617,0,0
147,407,0,0,0,0,0,0,0,0,0,-1,1371,617,0,0
154,407,0,0,0,0,0,0,0,0,0,-1,1378,617,0,0
161,407,0,0,0,0,0,0,0,0,0,-1,1385,617,0,0
168,407,0,0,0,0,0,0,0,0,0,-1,1392,617,0,0
175,407,0,0,0,0,0,0,0,0,0,-1,1399,617,0,0
182,407,0,0,0,0,0,0,0,0,0,-1,1406,617,0,0
189,407,0,0,0,0,0,0,0,0,0,-1,1413,617,0,0
196,407,0,0,0,0,0,0,0,0,0,-1,1420,617,0,0
203,407,0,0,0,0,0,0,0,0,0,-1,1427,617,0,0
210,407,0,0,0,0,0,0,0,0,0,-1,1434,617,0,0
217,407,0,0,0,0,0,0,0,0,0,-1,1441,617,0,0
224,407,0,0,0,0,0,0,0,0,0,-1,1448,617,0,0
231,407,0,0,0,0,0,0,0,0,0,-1,1455,617,0,0
238,407,0,0,0,0,0,0,0,0,0,-1,1462,617,0,0
245,407,0,0,0,0,0,0,0,0,0,-1,1469,617,0,0
252,407,0,0,0,0,0,0,0,0,0,-1,1476,617,0,0
259,407,0,0,0,0,0,0,0,0,0,-1,1483,617,0,0
266,407,0,0,0,0,0,0,0,0,0,-1,1490,617,0,0
273,407,0,0,0,0,0,0,0,0,0,-1,1497,617,0,0
280,407,0,0,0,0,0,0,0,0,0,-1,1504,617,0,0
287,407,0,0,0,0,0,0,0,0,0,-1,1511,617,0,0
294,407,0,0,0,0,0,0,0,0,0,-1,1518,617,0,0
301,407,0,0,0,0,0,0,0,0,0,-1,1525,617,0,0
308,407,0,0,0,0,0,0,0,0,0,-1,1532,617,0,0
315,407,0,0,0,0,0,0,0,0,0,-1,1539,617,0,0
322,407,0,0,0,0,0,0,0,0,0,-1,1546,617,0,0
329,407,0,0,0,0,0,0,0,0,0,-1,1553,617,0,0
336,407,0,0,0,0,0,0,0,0,0,-1,1560,617,0,0
343,407,0,0,0,0,0,0,0,0,0,-1,1567,617,0,0
350,407,0,0,0,0,0,0,0,0,0,-1,1574,617,0,0
357,407,0,0,0,0,0,0,0,0,0,-1,1581,617,0,0
364,407,0,0,0,0,0,0,0,0,0,-1,1588,617,0,0
371,407,0,0,0,0,0,0,0,0,0,-1,1595,617,0,0
378,407,0,0,0,0,0,0,0,0,0,-1,1602,617,0,0
385,407,0,0,0,0,0,0,0,0,0,-1,1609,617,0,0
392,407,0,0,0,0,0,0,0,0,0,-1,1616,617,0,0
399,407,0,0,0,0,0,0,0,0,0,-1,1623,617,0,0
406,407,0,0,0,0,0,0,0,0,0,-1,1630,617,0,0
413,407,0,0,0,0,0,0,0,0,0,-1,1637,617,0,0
420,407,0,0,0,0,0,0,0,0,0,-1,1644,617,0,0
427,407,0,0,0,0,0,0,0,0,0,-1,1651,617,0,0
434,407,0,0,0,0,0,0,0,0,0,-1,1658,617,0,0
441,407,0,0,0,0,0,0,0,0,0,-1,1665,617,0,0
448,407,7.02893,2.13843,0,0,0,0,0,0,0,-1,1672,617,7.02899,-2.13844
455,407,7.55237,2.29242,0,0,0,0,0,0,0,-1,1679,617,7.55236,-2.29244
462,407,8.2926,2.46173,0,0,0,0,0,0,0,-1,1686,617,8.29261,-2.46174
469,407,8.71509,2.22681,0,0,0,0,0,0,0,-1,1693,617,8.71511,-2.22681
476,407,8.89917,1.47766,0,0,0,0,0,0,0,-1,1700,617,8.89914,-1.47768
483,407,9.02612,0.682983,0,0,0,0,0,0,0,-1,1707,617,9.02608,-0.683004
490,407,9.12659,0.000671387,0,0,0,0,0,0,0,-1,1714,617,9.12653,-0.000675931
497,407,7.76819,0.855835,0,0,0,0,0,0,0,-1,1721,617,7.7682,-0.855865
504,407,4.69336,0.160706,0,0,0,0,0,0,0,-1,1728,617,4.69337,-0.1607
511,407,4.07104,-0.00140381,0,0,0,0,0,0,0,-1,1735,617,4.07109,0.00141425
518,407,6.09534,1.9411,0,0,0,0,0,0,0,-1,1742,617,6.09532,-1.94113
525,407,5.72534,-1.35986,0,0,0,0,0,0,0,-1,1749,617,5.72529,1.35988
532,407,18.5767,-10.6388,0,0,0,0,0,0,0,-1,1756,617,18.5766,10.6388
539,407,22.1116,-13.6987,0,0,0,0,0,0,0,-1,1763,617,22.1116,13.6987
546,407,22.1855,-13.003,0.00441728,0.0015232,0.00164677,0.00516245,0.000778029,0.424934,0.00321383,0.0218899,1770,617,22.1855,13.003
553,407,22.1588,-12.3752,0.00346951,0.00130253,0.00128204,0.00406459,0.000707453,0.434568,0.0025074,0.0167763,1777,617,22.1588,12.3752
560,407,22.1564,-11.7004,0.00266496,0.00116097,0.00103261,0.00319037,0.000635556,0.470682,0.0019499,0.0186076,1784,617,22.1564,11.7004
567,407,22.1216,-11.0406,0.00202631,0.00109331,0.000881934,0.00255753,0.000562102,0.542128,0.00155196,0.0321565,1791,617,22.1216,11.0406
574,407,22.0912,-10.399,0.0016794,0.00125082,0.000933565,0.00242296,0.000507268,0.672582,0.00147557,0.0254954,1798,617,22.0912,10.399
581,407,22.0543,-9.72339,0.0015363,0.00156428,0.0011525,0.00270288,0.000397703,0.791465,0.00168507,0.0177304,1805,617,22.0543,9.72339
588,407,21.994,-9.12225,0.00153864,0.00208764,0.00150464,0.00334262,0.000283669,0.875623,0.00214013,0.0123611,1812,617,21.994,9.12225
595,407,22.0115,-8.47504,0.00185606,0.00278244,0.00205216,0.00442304,0.000215467,0.896392,0.00287956,0.0238223,1819,617,22.0115,8.47503
602,407,21.99,-7.7644,0.00247488,0.00372705,0.00281699,0.00598669,0.000215234,0.894747,0.00392135,0.0203356,1826,617,21.99,7.7644
609,407,21.9235,-7.07037,0.00340945,0.00495168,0.00385132,0.00810833,0.000252801,0.884202,0.00532329,0.0174669,1833,617,21.9235,7.07038
616,407,21.9768,-6.28571,0.00469481,0.0066121,0.00517781,0.0109193,0.00038765,0.876934,0.00715379,0.0304275,1840,617,21.9768,6.28569
623,407,22.251,-5.38831,0,0,0,0,0,0,0,-1,1847,617,22.2509,5.38833
630,407,7.06177,0.814575,0,0,0,0,0,0,0,-1,1854,617,7.06178,-0.814579
637,407,9.76819,-0.110657,0,0,0,0,0,0,0,-1,1861,617,9.76814,0.11064
644,407,5.09766,2.27747,0,0,0,0,0,0,0,-1,1868,617,5.09764,-2.27746
651,407,7.37524,0.0513916,0,0,0,0,0,0,0,-1,1875,617,7.3752,-0.0513923
658,407,3.76685,0.594177,0,0,0,0,0,0,0,-1,1882,617,3.76683,-0.594184
665,407,5.76123,0.375061,0,0,0,0,0,0,0,-1,1889,617,5.76118,-0.37509
672,407,0,0,0,0,0,0,0,0,0,-1,1896,617,0,0
679,407,0,0,0,0,0,0,0,0,0,-1,1903,617,0,0
686,407,0,0,0,0,0,0,0,0,0,-1,1910,617,0,0
693,407,0,0,0,0,0,0,0,0,0,-1,1917,617,0,0
700,407,0,0,0,0,0,0,0,0,0,-1,1924,617,0,0
707,407,0,0,0,0,0,0,0,0,0,-1,1931,617,0,0
714,407,0,0,0,0,0,0,0,0,0,-1,1938,617,0,0
721,407,0,0,0,0,0,0,0,0,0,-1,1945,617,0,0
728,407,0,0,0,0,0,0,0,0,0,-1,1952,617,0,0
735,407,0,0,0,0,0,0,0,0,0,-1,1959,617,0,0
742,407,0,0,0,0,0,0,0,0,0,-1,1966,617,0,0
749,407,0,0,0,0,0,0,0,0,0,-1,1973,617,0,0
756,407,0,0,0,0,0,0,0,0,0,-1,1980,617,0,0
763,407,0,0,0,0,0,0,0,0,0,-1,1987,617,0,0
770,407,0,0,0,0,0,0,0,0,0,-1,1994,617,0,0
777,407,0,0,0,0,0,0,0,0,0,-1,2001,617,0,0
784,407,0,0,0,0,0,0,0,0,0,-1,2008,617,0,0
791,407,0,0,0,0,0,0,0,0,0,-1,2015,617,0,0
798,407,0,0,0,0,0,0,0,0,0,-1,2022,617,0,0
805,407,0,0,0,0,0,0,0,0,0,-1,2029,617,0,0
812,407,0,0,0,0,0,0,0,0,0,-1,2036,617,0,0
-700,400,0,0,0,0,0,0,0,0,0,-1,524,624,0,0
-693,400,0,0,0,0,0,0,0,0,0,-1,531,624,0,0
-686,400,0,0,0,0,0,0,0,0,0,-1,538,624,0,0
-679,400,0,0,0,0,0,0,0,0,0,-1,545,624,0,0
-672,400,0,0,0,0,0,0,0,0,0,-1,552,624,0,0
-665,400,0,0,0,0,0,0,0,0,0,-1,559,624,0,0
-658,400,0,0,0,0,0,0,0,0,0,-1,566,624,0,0
-651,400,0,0,0,0,0,0,0,0,0,-1,573,624,0,0
-644,400,0,0,0,0,0,0,0,0,0,-1,580,624,0,0
-637,400,0,0,0,0,0,0,0,0,0,-1,587,624,0,0
-630,400,0,0,0,0,0,0,0,0,0,-1,594,624,0,0
-623,400,0,0,0,0,0,0,0,0,0,-1,601,624,0,0
-616,400,0,0,0,0,0,0,0,0,0,-1,608,624,0,0
-609,400,0,0,0,0,0,0,0,0,0,-1,615,624,0,0
-602,400,0,0,0,0,0,0,0,0,0,-1,622,624,0,0
-595,400,0,0,0,0,0,0,0,0,0,-1,629,624,0,0
-588,400,0,0,0,0,0,0,0,0,0,-1,636,624,0,0
-581,400,0,0,0,0,0,0,0,0,0,-1,643,624,0,0
-574,400,0,0,0,0,0,0,0,0,0,-1,650,624,0,0
-567,400,0,0,0,0,0,0,0,0,0,-1,657,624,0,0
-560,400,0,0,0,0,0,0,0,0,0,-1,664,624,0,0
-553,400,0,0,0,0,0,0,0,0,0,-1,671,624,0,0
-546,400,-8.41174,-1.4599,0,0,0,0,0,0,0,-1,678,624,-8.41173,1.45989
-539,400,-5.69104,-1.7337,0,0,0,0,0,0,0,-1,685,624,-5.69103,1.7337
-532,400,-3.03632,-2.03912,0,0,0,0,0,0,0,-1,692,624,-3.03632,2.03909
-525,400,-6.20813,-7.04071,0,0,0,0,0,0,0,-1,699,624,-6.20814,7.04071
-518,400,-5.26544,-1.58661,0,0,0,0,0,0,0,-1,706,624,-5.26544,1.58658
-511,400,-10.6307,-6.7121,0,0,0,0,0,0,0,-1,713,624,-10.6307,6.71209
-504,400,-10.2663,-6.55109,0,0,0,0,0,0,0,-1,720,624,-10.2663,6.55106
-497,400,-11.4355,-7.14771,0,0,0,0,0,0,0,-1,727,624,-11.4355,7.14769
-490,400,-11.26,-7.91498,0.00645194,0.00718275,-0.00539124,0.012221,0.00141373,-0.819235,0.00771933,0.0337523,734,624,-11.26,7.915
-483,400,-11.2869,-8.66608,0.00532715,0.00550872,-0.00431549,0.00973438,0.00110149,-0.795915,0.00615536,0.0173158,741,624,-11.2868,8.66606
-476,400,-11.3162,-9.27185,0.00438743,0.00415458,-0.0034124,0.00768539,0.000856617,-0.768346,0.00486327,0.014007,748,624,-11.3162,9.27182
-469,400,-11.3494,-9.90735,0.00360895,0.00301209,-0.00265799,0.00598522,0.00063583,-0.729494,0.00379599,0.0152732,755,624,-11.3494,9.90738
-462,400,-11.3551,-10.5777,0.00288215,0.00202932,-0.00196851,0.0044699,0.000441563,-0.678737,0.00284419,0.0208129,762,624,-11.3551,10.5777
-455,400,-11.3735,-11.2034,0.00221115,0.0010926,-0.00133277,0.00309724,0.000206512,-0.58674,0.00199954,0.0217706,769,624,-11.3735,11.2034
-448,400,-11.4063,-11.8408,0.00166688,0.000289326,-0.000772537,0.0020131,-5.68986e-05,-0.421327,0.00136143,0.0156044,776,624,-11.4063,11.8408
-441,400,-11.4424,-12.4386,0.00113341,-0.000525083,-0.000178673,0.00115245,-0.000544114,-0.10611,0.00100028,0.0144022,783,624,-11.4424,12.4386
-434,400,-11.4613,-13.0439,0.00064058,-0.00123542,0.000380582,0.000714848,-0.00130969,0.192722,0.00118556,0.012904,790,624,-11.4613,13.0439
-427,400,-11.4731,-13.6578,0.00012676,-0.00208232,0.0009875,0.000503828,-0.00245939,0.364755,0.00183079,0.0111322,797,624,-11.4731,13.6578
-420,400,-11.4434,-14.3251,-0.000100329,-0.0028439,0.00140907,0.000494426,-0.00343866,0.399403,0.00247377,0.0155727,804,624,-11.4434,14.3251
-413,400,-11.5818,-14.8343,-0.000432114,-0.00389665,0.00231404,0.00072621,-0.00505498,0.464099,0.00363631,0.0375423,811,624,-11.5818,14.8343
-406,400,-11.7578,-15.2947,0,0,0,0,0,0,0,-1,818,624,-11.7578,15.2947
-399,400,-11.0176,-13.2944,0,0,0,0,0,0,0,-1,825,624,-11.0176,13.2944
-392,400,-4.92285,-6.63354,0,0,0,0,0,0,0,-1,832,624,-4.92285,6.63354
-385,400,-3.68738,-5.04205,0,0,0,0,0,0,0,-1,839,624,-3.68736,5.04207
-378,400,-6.84064,-1.28662,0,0,0,0,0,0,0,-1,846,624,-6.84062,1.28662
-371,400,-6.98865,-1.2572,0,0,0,0,0,0,0,-1,853,624,-6.98865,1.25721
-364,400,-6.97247,-1.24133,0,0,0,0,0,0,0,-1,860,624,-6.97249,1.24135
-357,400,-7.18329,-1.23218,0,0,0,0,0,0,0,-1,867,624,-7.18327,1.2322
-350,400,-7.40186,-1.19409,0,0,0,0,0,0,0,-1,874,624,-7.40187,1.19407
-343,400,-8.09357,-1.51147,0,0,0,0,0,0,0,-1,881,624,-8.09355,1.51148
-336,400,0,0,0,0,0,0,0,0,0,-1,888,624,0,0
-329,400,0,0,0,0,0,0,0,0,0,-1,895,624,0,0
-322,400,0,0,0,0,0,0,0,0,0,-1,902,624,0,0
-315,400,0,0,0,0,0,0,0,0,0,-1,909,624,0,0
-308,400,0,0,0,0,0,0,0,0,0,-1,916,624,0,0
-301,400,0,0,0,0,0,0,0,0,0,-1,923,624,0,0
-294,400,0,0,0,0,0,0,0,0,0,-1,930,624,0,0
-287,400,0,0,0,0,0,0,0,0,0,-1,937,624,0,0
-280,400,0,0,0,0,0,0,0,0,0,-1,944,624,0,0
-273,400,0,0,0,0,0,0,0,0,0,-1,951,624,0,0
-266,400,0,0,0,0,0,0,0,0,0,-1,958,624,0,0
-259,400,0,0,0,0,0,0,0,0,0,-1,965,624,0,0
-252,400,0,0,0,0,0,0,0,0,0,-1,972,624,0,0
-245,400,0,0,0,0,0,0,0,0,0,-1,979,624,0,0
-238,400,0,0,0,0,0,0,0,0,0,-1,986,624,0,0
-231,400,0,0,0,0,0,0,0,0,0,-1,993,624,0,0
-224,400,0,0,0,0,0,0,0,0,0,-1,1000,624,0,0
-217,400,0,0,0,0,0,0,0,0,0,-1,1007,624,0,0
-210,400,0,0,0,0,0,0,0,0,0,-1,1014,624,0,0
-203,400,0,0,0,0,0,0,0,0,0,-1,1021,624,0,0
-196,400,0,0,0,0,0,0,0,0,0,-1,1028,624,0,0
-189,400,0,0,0,0,0,0,0,0,0,-1,1035,624,0,0
-182,400,0,0,0,0,0,0,0,0,0,-1,1042,624,0,0
-175,400,0,0,0,0,0,0,0,0,0,-1,1049,624,0,0
-168,400,0,0,0,0,0,0,0,0,0,-1,1056,624,0,0
-161,400,0,0,0,0,0,0,0,0,0,-1,1063,624,0,0
-154,400,0,0,0,0,0,0,0,0,0,-1,1070,624,0,0
-147,400,0,0,0,0,0,0,0,0,0,-1,1077,624,0,0
-140,400,0,0,0,0,0,0,0,0,0,-1,1084,624,0,0
-133,400,0,0,0,0,0,0,0,0,0,-1,1091,624,0,0
-126,400,0,0,0,0,0,0,0,0,0,-1,1098,624,0,0
-119,400,0,0,0,0,0,0,0,0,0,-1,1105,624,0,0
-112,400,0,0,0,0,0,0,0,0,0,-1,1112,624,0,0
-105,400,0,0,0,0,0,0,0,0,0,-1,1119,624,0,0
-98,400,0,0,0,0,0,0,0,0,0,-1,1126,624,0,0
-91,400,0,0,0,0,0,0,0,0,0,-1,1133,624,0,0
-84,400,0,0,0,0,0,0,0,0,0,-1,1140,624,0,0
-77,400,0,0,0,0,0,0,0,0,0,-1,1147,624,0,0
-70,400,0,0,0,0,0,0,0,0,0,-1,1154,624,0,0
-63,400,0,0,0,0,0,0,0,0,0,-1,1161,624,0,0
-56,400,0,0,0,0,0,0,0,0,0,-1,1168,624,0,0
-49,400,0,0,0,0,0,0,0,0,0,-1,1175,624,0,0
-42,400,0,0,0,0,0,0,0,0,0,-1,1182,624,0,0
-35,400,0,0,0,0,0,0,0,0,0,-1,1189,624,0,0
-28,400,0,0,0,0,0,0,0,0,0,-1,1196,624,0,0
-21,400,0,0,0,0,0,0,0,0,0,-1,1203,624,0,0
-14,400,0,0,0,0,0,0,0,0,0,-1,1210,624,0,0
-7,400,0,0,0,0,0,0,0,0,0,-1,1217,624,0,0
0,400,0,0,0,0,0,0,0,0,0,-1,1224,624,0,0
7,400,0,0,0,0,0,0,0,0,0,-1,1231,624,0,0
14,400,0,0,0,0,0,0,0,0,0,-1,1238,624,0,0
21,400,0,0,0,0,0,0,0,0,0,-1,1245,624,0,0
28,400,0,0,0,0,0,0,0,0,0,-1,1252,624,0,0
35,400,0,0,0,0,0,0,0,0,0,-1,1259,624,0,0
42,400,0,0,0,0,0,0,0,0,0,-1,1266,624,0,0
49,400,0,0,0,0,0,0,0,0,0,-1,1273,624,0,0
56,400,0,0,0,0,0,0,0,0,0,-1,1280,624,0,0
63,400,0,0,0,0,0,0,0,0,0,-1,1287,624,0,0
70,400,0,0,0,0,0,0,0,0,0,-1,1294,624,0,0
77,400,0,0,0,0,0,0,0,0,0,-1,1301,624,0,0
84,400,0,0,0,0,0,0,0,0,0,-1,1308,624,0,0
91,400,0,0,0,0,0,0,0,0,0,-1,1315,624,0,0
98,400,0,0,0,0,0,0,0,0,0,-1,1322,624,0,0
105,400,0,0,0,0,0,0,0,0,0,-1,1329,624,0,0
112,400,0,0,0,0,0,0,0,0,0,-1,1336,624,0,0
119,400,0,0,0,0,0,0,0,0,0,-1,1343,624,0,0
126,400,0,0,0,0,0,0,0,0,0,-1,1350,624,0,0
133,400,0,0,0,0,0,0,0,0,0,-1,1357,624,0,0
140,400,0,0,0,0,0,0,0,0,0,-1,1364,624,0,0
147,400,0,0,0,0,0,0,0,0,0,-1,1371,624,0,0
154,400,0,0,0,0,0,0,0,0,0,-1,1378,624,0,0
161,400,0,0,0,0,0,0,0,0,0,-1,1385,624,0,0
168,400,0,0,0,0,0,0,0,0,0,-1,1392,624,0,0
175,400,0,0,0,0,0,0,0,0,0,-1,1399,624,0,0
182,400,0,0,0,0,0,0,0,0,0,-1,1406,624,0,0
189,400,0,0,0,0,0,0,0,0,0,-1,1413,624,0,0
196,400,0,0,0,0,0,0,0,0,0,-1,1420,624,0,0
203,400,0,0,0,0,0,0,0,0,0,-1,1427,624,0,0
210,400,0,0,0,0,0,0,0,0,0,-1,1434,624,0,0
217,400,0,0,0,0,0,0,0,0,0,-1,1441,624,0,0
224,400,0,0,0,0,0,0,0,0,0,-1,1448,624,0,0
231,400,0,0,0,0,0,0,0,0,0,-1,1455,624,0,0
238,400,0,0,0,0,0,0,0,0,0,-1,1462,624,0,0
245,400,0,0,0,0,0,0,0,0,0,-1,1469,624,0,0
252,400,0,0,0,0,0,0,0,0,0,-1,1476,624,0,0
259,400,0,0,0,0,0,0,0,0,0,-1,1483,624,0,0
266,400,0,0,0,0,0,0,0,0,0,-1,1490,624,0,0
273,400,0,0,0,0,0,0,0,0,0,-1,1497,624,0,0
280,400,0,0,0,0,0,0,0,0,0,-1,1504,624,0,0
287,400,0,0,0,0,0,0,0,0,0,-1,1511,624,0,0
294,400,0,0,0,0,0,0,0,0,0,-1,1518,624,0,0
301,400,0,0,0,0,0,0,0,0,0,-1,1525,624,0,0
308,400,0,0,0,0,0,0,0,0,0,-1,1532,624,0,0
315,400,0,0,0,0,0,0,0,0,0,-1,1539,624,0,0
322,400,0,0,0,0,0,0,0,0,0,-1,1546,624,0,0
329,400,0,0,0,0,0,0,0,0,0,-1,1553,624,0,0
336,400,0,0,0,0,0,0,0,0,0,-1,1560,624,0,0
343,400,0,0,0,0,0,0,0,0,0,-1,1567,624,0,0
350,400,0,0,0,0,0,0,0,0,0,-1,1574,624,0,0
357,400,0,0,0,0,0,0,0,0,0,-1,1581,624,0,0
364,400,0,0,0,0,0,0,0,0,0,-1,1588,624,0,0
371,400,0,0,0,0,0,0,0,0,0,-1,1595,624,0,0
378,400,0,0,0,0,0,0,0,0,0,-1,1602,624,0,0
385,400,0,0,0,0,0,0,0,0,0,-1,1609,624,0,0
392,400,0,0,0,0,0,0,0,0,0,-1,1616,624,0,0
399,400,0,0,0,0,0,0,0,0,0,-1,1623,624,0,0
406,400,0,0,0,0,0,0,0,0,0,-1,1630,624,0,0
413,400,0,0,0,0,0,0,0,0,0,-1,1637,624,0,0
420,400,0,0,0,0,0,0,0,0,0,-1,1644,624,0,0
427,400,0,0,0,0,0,0,0,0,0,-1,1651,624,0,0
434,400,0,0,0,0,0,0,0,0,0,-1,1658,624,0,0
441,400,0,0,0,0,0,0,0,0,0,-1,1665,624,0,0
448,400,0,0,0,0,0,0,0,0,0,-1,1672,624,0,0
455,400,8.91309,2.75885,0,0,0,0,0,0,0,-1,1679,624,8.91312,-2.75885
462,400,8.90356,2.37878,0,0,0,0,0,0,0,-1,1686,624,8.90353,-2.37878
469,400,9.14429,1.76849,0,0,0,0,0,0,0,-1,1693,624,9.14432,-1.76847
476,400,9.23254,1.25995,0,0,0,0,0,0,0,-1,1700,624,9.23252,-1.25994
483,400,9.59766,0.562439,0,0,0,0,0,0,0,-1,1707,624,9.59771,-0.56242
490,400,9.92578,-0.213745,0,0,0,0,0,0,0,-1,1714,624,9.92579,0.21376
497,400,9.19141,0.175232,0,0,0,0,0,0,0,-1,1721,624,9.19138,-0.175209
504,400,9.23438,0.00823975,0,0,0,0,0,0,0,-1,1728,624,9.23436,-0.00823766
511,400,6.16687,3.3501,0,0,0,0,0,0,0,-1,1735,624,6.16682,-3.35007
518,400,6.55237,1.74994,0,0,0,0,0,0,0,-1,1742,624,6.55236,-1.74993
525,400,6.99731,1.08783,0,0,0,0,0,0,0,-1,1749,624,6.99736,-1.08785
532,400,6.96582,-1.74982,0,0,0,0,0,0,0,-1,1756,624,6.96585,1.74983
539,400,21.2305,-10.5841,0,0,0,0,0,0,0,-1,1763,624,21.2304,10.5841
546,400,22.8702,-12.9683,0,0,0,0,0,0,0,-1,1770,624,22.8702,12.9684
553,400,22.7395,-12.3594,0.00402984,0.00163024,0.00147745,0.00473329,0.00092679,0.444368,0.00289645,0.0397652,1777,624,22.7395,12.3594
560,400,22.7948,-11.6512,0.0030898,0.00136247,0.00112643,0.00364556,0.000806707,0.458338,0.00221108,0.0172086,1784,624,22.7948,11.6513
567,400,22.7844,-11.0137,0.00230387,0.00113992,0.000858284,0.00275889,0.000684906,0.487471,0.00165878,0.0197117,1791,624,22.7844,11.0137
574,400,22.7666,-10.3775,0.0018421,0.00118335,0.000833079,0.00240855,0.000616899,0.597145,0.00144466,0.0202841,1798,624,22.7665,10.3775
581,400,22.6984,-9.71332,0.00159818,0.00140824,0.000977417,0.00248523,0.000521193,0.736968,0.00151331,0.0199557,1805,624,22.6983,9.71329
588,400,22.6355,-9.03912,0.00150547,0.00181396,0.00124959,0.00291878,0.000400639,0.846806,0.00182701,0.0158343,1812,624,22.6355,9.03911
595,400,22.6387,-8.40735,0.00174596,0.00237494,0.00171722,0.00380623,0.000314673,0.875963,0.00243937,0.015803,1819,624,22.6387,8.40736
602,400,22.6444,-7.75073,0.00228908,0.00315099,0.0024016,0.00516,0.000280074,0.874175,0.00335054,0.0156557,1826,624,22.6444,7.75072
609,400,22.5637,-7.06494,0.00298849,0.00412228,0.0032533,0.00685771,0.000253058,0.871658,0.00448983,0.0146685,1833,624,22.5637,7.06493
616,400,22.5328,-6.38483,0.00373349,0.00529644,0.00420005,0.00878709,0.000242834,0.877379,0.00577882,0.0191118,1840,624,22.5329,6.38484
623,400,22.6055,-5.69025,0,0,0,0,0,0,0,-1,1847,624,22.6055,5.69022
630,400,11.9432,0.09021,0,0,0,0,0,0,0,-1,1854,624,11.9432,-0.0902007
637,400,6.92896,1.01917,0,0,0,0,0,0,0,-1,1861,624,6.92899,-1.01918
644,400,8.65381,1.4599,0,0,0,0,0,0,0,-1,1868,624,8.65379,-1.45991
651,400,7.90601,0.424072,0,0,0,0,0,0,0,-1,1875,624,7.90598,-0.424097
658,400,8.69031,1.0484,0,0,0,0,0,0,0,-1,1882,624,8.6903,-1.0484
665,400,5.98438,0.522522,0,0,0,0,0,0,0,-1,1889,624,5.98442,-0.522552
672,400,0,0,0,0,0,0,0,0,0,-1,1896,624,0,0
679,400,0,0,0,0,0,0,0,0,0,-1,1903,624,0,0
686,400,0,0,0,0,0,0,0,0,0,-1,1910,624,0,0
693,400,0,0,0,0,0,0,0,0,0,-1,1917,624,0,0
700,400,0,0,0,0,0,0,0,0,0,-1,1924,624,0,0
707,400,0,0,0,0,0,0,0,0,0,-1,1931,624,0,0
714,400,0,0,0,0,0,0,0,0,0,-1,1938,624,0,0
721,400,0,0,0,0,0,0,0,0,0,-1,1945,624,0,0
728,400,0,0,0,0,0,0,0,0,0,-1,1952,624,0,0
735,400,0,0,0,0,0,0,0,0,0,-1,1959,624,0,0
742,400,0,0,0,0,0,0,0,0,0,-1,1966,624,0,0
749,400,0,0,0,0,0,0,0,0,0,-1,1973,624,0,0
756,400,0,0,0,0,0,0,0,0,0,-1,1980,624,0,0
763,400,0,0,0,0,0,0,0,0,0,-1,1987,624,0,0
770,400,0,0,0,0,0,0,0,0,0,-1,1994,624,0,0
777,400,0,0,0,0,0,0,0,0,0,-1,2001,624,0,0
784,400,0,0,0,0,0,0,0,0,0,-1,2008,624,0,0
791,400,0,0,0,0,0,0,0,0,0,-1,2015,624,0,0
798,400,0,0,0,0,0,0,0,0,0,-1,2022,624,0,0
805,400,0,0,0,0,0,0,0,0,0,-1,2029,624,0,0
812,400,0,0,0,0,0,0,0,0,0,-1,2036,624,0,0
-700,393,0,0,0,0,0,0,0,0,0,-1,524,631,0,0
-693,393,0,0,0,0,0,0,0,0,0,-1,531,631,0,0
-686,393,0,0,0,0,0,0,0,0,0,-1,538,631,0,0
-679,393,0,0,0,0,0,0,0,0,0,-1,545,631,0,0
-672,393,0,0,0,0,0,0,0,0,0,-1,552,631,0,0
-665,393,0,0,0,0,0,0,0,0,0,-1,559,631,0,0
-658,393,0,0,0,0,0,0,0,0,0,-1,566,631,0,0
-651,393,0,0,0,0,0,0,0,0,0,-1,573,631,0,0
-644,393,0,0,0,0,0,0,0,0,0,-1,580,631,0,0
-637,393,0,0,0,0,0,0,0,0,0,-1,587,631,0,0
-630,393,0,0,0,0,0,0,0,0,0,-1,594,631,0,0
-623,393,0,0,0,0,0,0,0,0,0,-1,601,631,0,0
-616,393,0,0,0,0,0,0,0,0,0,-1,608,631,0,0
-609,393,0,0,0,0,0,0,0,0,0,-1,615,631,0,0
-602,393,0,0,0,0,0,0,0,0,0,-1,622,631,0,0
-595,393,0,0,0,0,0,0,0,0,0,-1,629,631,0,0
-588,393,0,0,0,0,0,0,0,0,0,-1,636,631,0,0
-581,393,0,0,0,0,0,0,0,0,0,-1,643,631,0,0
-574,393,0,0,0,0,0,0,0,0,0,-1,650,631,0,0
-567,393,0,0,0,0,0,0,0,0,0,-1,657,631,0,0
-560,393,0,0,0,0,0,0,0,0,0,-1,664,631,0,0
-553,393,-2.35107,3.92633,0,0,0,0,0,0,0,-1,671,631,-2.35108,-3.92634
-546,393,-1.78778,2.4856,0,0,0,0,0,0,0,-1,678,631,-1.78778,-2.48557
-539,393,-5.2113,-2.20245,0,0,0,0,0,0,0,-1,685,631,-5.21128,2.20247
-532,393,-2.83643,-2.01624,0,0,0,0,0,0,0,-1,692,631,-2.83642,2.01626
-525,393,-5.9505,-0.952698,0,0,0,0,0,0,0,-1,699,631,-5.95053,0.95268
-518,393,-5.80219,-1.57739,0,0,0,0,0,0,0,-1,706,631,-5.80219,1.57738
-511,393,-6.15527,-2.09906,0,0,0,0,0,0,0,-1,713,631,-6.15526,2.09903
-504,393,-12.3115,-5.99719,0,0,0,0,0,0,0,-1,720,631,-12.3115,5.99718
-497,393,-11.942,-6.99994,0.00569616,0.00692866,-0.00495721,0.0113078,0.00131705,-0.847238,0.00714011,0.0428223,727,631,-11.9419,6.99993
-490,393,-11.889,-7.97131,0.00483522,0.00545241,-0.00404743,0.00920299,0.00108465,-0.823447,0.00580764,0.0205386,734,631,-11.889,7.97132
-483,393,-11.9088,-8.64355,0.00403425,0.00416621,-0.00324949,0.0073504,0.000850069,-0.795549,0.00464292,0.0185788,741,631,-11.9088,8.64355
-476,393,-11.9341,-9.24249,0.00338542,0.00310948,-0.00258376,0.00583489,0.000660002,-0.758725,0.00368966,0.016142,748,631,-11.9341,9.24249
-469,393,-11.95,-9.86865,0.00284032,0.00220821,-0.00201696,0.00456583,0.000482698,-0.707682,0.00289643,0.0128317,755,631,-11.95,9.86866
-462,393,-11.9752,-10.5588,0.00230562,0.00142255,-0.00148128,0.00340978,0.000318398,-0.640553,0.00217483,0.0152625,762,631,-11.9751,10.5588
-455,393,-12.0077,-11.1988,0.00180826,0.000626587,-0.000981763,0.00236326,7.15842e-05,-0.514523,0.0015522,0.0152963,769,631,-12.0077,11.1988
-448,393,-12.0472,-11.8164,0.00140919,-4.03051e-05,-0.000543746,0.00159049,-0.000221603,-0.321832,0.00114139,0.0137033,776,631,-12.0473,11.8164
-441,393,-12.0796,-12.4233,0.00100053,-0.000686,-8.4793e-05,0.00100478,-0.000690253,-0.0501082,0.000984228,0.0126675,783,631,-12.0796,12.4233
-434,393,-12.0987,-13.0134,0.000573403,-0.00131368,0.00037653,0.000645758,-0.00138604,0.189848,0.00119873,0.0127943,790,631,-12.0987,13.0134
-427,393,-12.064,-13.6601,2.95433e-05,-0.00216793,0.000972028,0.000397797,-0.00253618,0.362143,0.0018378,0.0208388,797,631,-12.0639,13.6601
-420,393,-12.1222,-14.2711,-0.000225513,-0.00296377,0.00136666,0.000339853,-0.00352913,0.392248,0.00247383,0.0455283,804,631,-12.1222,14.271
-413,393,-12.3945,-14.8813,0,0,0,0,0,0,0,-1,811,631,-12.3945,14.8813
-406,393,-11.826,-12.7987,0,0,0,0,0,0,0,-1,818,631,-11.8261,12.7987
-399,393,-5.07343,-5.92365,0,0,0,0,0,0,0,-1,825,631,-5.07344,5.92364
-392,393,-2.08063,-3.02386,0,0,0,0,0,0,0,-1,832,631,-2.08063,3.02384
-385,393,-3.16931,-0.624756,0,0,0,0,0,0,0,-1,839,631,-3.16928,0.624764
-378,393,-7.33081,-0.872314,0,0,0,0,0,0,0,-1,846,631,-7.33081,0.872325
-371,393,-7.47858,-0.811096,0,0,0,0,0,0,0,-1,853,631,-7.47859,0.811075
-364,393,-7.64917,-0.662415,0,0,0,0,0,0,0,-1,860,631,-7.64917,0.662406
-357,393,-8.09686,-0.726013,0,0,0,0,0,0,0,-1,867,631,-8.09689,0.726029
-350,393,-8.38788,-0.511841,0,0,0,0,0,0,0,-1,874,631,-8.38785,0.511811
-343,393,0,0,0,0,0,0,0,0,0,-1,881,631,0,0
-336,393,0,0,0,0,0,0,0,0,0,-1,888,631,0,0
-329,393,0,0,0,0,0,0,0,0,0,-1,895,631,0,0
-322,393,0,0,0,0,0,0,0,0,0,-1,902,631,0,0
-315,393,0,0,0,0,0,0,0,0,0,-1,909,631,0,0
-308,393,0,0,0,0,0,0,0,0,0,-1,916,631,0,0
-301,393,0,0,0,0,0,0,0,0,0,-1,923,631,0,0
-294,393,0,0,0,0,0,0,0,0,0,-1,930,631,0,0
-287,393,0,0,0,0,0,0,0,0,0,-1,937,631,0,0
-280,393,0,0,0,0,0,0,0,0,0,-1,944,631,0,0
-273,393,0,0,0,0,0,0,0,0,0,-1,951,631,0,0
-266,393,0,0,0,0,0,0,0,0,0,-1,958,631,0,0
-259,393,0,0,0,0,0,0,0,0,0,-1,965,631,0,0
-252,393,0,0,0,0,0,0,0,0,0,-1,972,631,0,0
-245,393,0,0,0,0,0,0,0,0,0,-1,979,631,0,0
-238,393,0,0,0,0,0,0,0,0,0,-1,986,631,0,0
-231,393,0,0,0,0,0,0,0,0,0,-1,993,631,0,0
-224,393,0,0,0,0,0,0,0,0,0,-1,1000,631,0,0
-217,393,0,0,0,0,0,0,0,0,0,-1,1007,631,0,0
-210,393,0,0,0,0,0,0,0,0,0,-1,1014,631,0,0
-203,393,0,0,0,0,0,0,0,0,0,-1,1021,631,0,0
-196,393,0,0,0,0,0,0,0,0,0,-1,1028,631,0,0
-189,393,0,0,0,0,0,0,0,0,0,-1,1035,631,0,0
-182,393,0,0,0,0,0,0,0,0,0,-1,1042,631,0,0
-175,393,0,0,0,0,0,0,0,0,0,-1,1049,631,0,0
-168,393,0,0,0,0,0,0,0,0,0,-1,1056,631,0,0
-161,393,0,0,0,0,0,0,0,0,0,-1,1063,631,0,0
-154,393,0,0,0,0,0,0,0,0,0,-1,1070,631,0,0
-147,393,0,0,0,0,0,0,0,0,0,-1,1077,631,0,0
-140,393,0,0,0,0,0,0,0,0,0,-1,1084,631,0,0
-133,393,0,0,0,0,0,0,0,0,0,-1,1091,631,0,0
-126,393,0,0,0,0,0,0,0,0,0,-1,1098,631,0,0
-119,393,0,0,0,0,0,0,0,0,0,-1,1105,631,0,0
-112,393,0,0,0,0,0,0,0,0,0,-1,1112,631,0,0
-105,393,0,0,0,0,0,0,0,0,0,-1,1119,631,0,0
-98,393,0,0,0,0,0,0,0,0,0,-1,1126,631,0,0
-91,393,0,0,0,0,0,0,0,0,0,-1,1133,631,0,0
-84,393,0,0,0,0,0,0,0,0,0,-1,1140,631,0,0
-77,393,0,0,0,0,0,0,0,0,0,-1,1147,631,0,0
-70,393,0,0,0,0,0,0,0,0,0,-1,1154,631,0,0
-63,393,0,0,0,0,0,0,0,0,0,-1,1161,631,0,0
-56,393,0,0,0,0,0,0,0,0,0,-1,1168,631,0,0
-49,393,0,0,0,0,0,0,0,0,0,-1,1175,631,0,0
-42,393,0,0,0,0,0,0,0,0,0,-1,1182,631,0,0
-35,393,0,0,0,0,0,0,0,0,0,-1,1189,631,0,0
-28,393,0,0,0,0,0,0,0,0,0,-1,1196,631,0,0
-21,393,0,0,0,0,0,0,0,0,0,-1,1203,631,0,0
-14,393,0,0,0,0,0,0,0,0,0,-1,1210,631,0,0
-7,393,0,0,0,0,0,0,0,0,0,-1,1217,631,0,0
0,393,0,0,0,0,0,0,0,0,0,-1,1224,631,0,0
7,393,0,0,0,0,0,0,0,0,0,-1,1231,631,0,0
14,393,0,0,0,0,0,0,0,0,0,-1,1238,631,0,0
21,393,0,0,0,0,0,0,0,0,0,-1,1245,631,0,0
28,393,0,0,0,0,0,0,0,0,0,-1,1252,631,0,0
35,393,0,0,0,0,0,0,0,0,0,-1,1259,631,0,0
42,393,0,0,0,0,0,0,0,0,0,-1,1266,631,0,0
49,393,0,0,0,0,0,0,0,0,0,-1,1273,631,0,0
56,393,0,0,0,0,0,0,0,0,0,-1,1280,631,0,0
63,393,0,0,0,0,0,0,0,0,0,-1,1287,631,0,0
70,393,0,0,0,0,0,0,0,0,0,-1,1294,631,0,0
77,393,0,0,0,0,0,0,0,0,0,-1,1301,631,0,0
84,393,0,0,0,0,0,0,0,0,0,-1,1308,631,0,0
91,393,0,0,0,0,0,0,0,0,0,-1,1315,631,0,0
98,393,0,0,0,0,0,0,0,0,0,-1,1322,631,0,0
105,393,0,0,0,0,0,0,0,0,0,-1,1329,631,0,0
112,393,0,0,0,0,0,0,0,0,0,-1,1336,631,0,0
119,393,0,0,0,0,0,0,0,0,0,-1,1343,631,0,0
126,393,0,0,0,0,0,0,0,0,0,-1,1350,631,0,0
133,393,0,0,0,0,0,0,0,0,0,-1,1357,631,0,0
140,393,0,0,0,0,0,0,0,0,0,-1,1364,631,0,0
147,393,0,0,0,0,0,0,0,0,0,-1,1371,631,0,0
154,393,0,0,0,0,0,0,0,0,0,-1,1378,631,0,0
161,393,0,0,0,0,0,0,0,0,0,-1,1385,631,0,0
168,393,0,0,0,0,0,0,0,0,0,-1,1392,631,0,0
175,393,0,0,0,0,0,0,0,0,0,-1,1399,631,0,0
182,393,0,0,0,0,0,0,0,0,0,-1,1406,631,0,0
189,393,0,0,0,0,0,0,0,0,0,-1,1413,631,0,0
196,393,0,0,0,0,0,0,0,0,0,-1,1420,631,0,0
203,393,0,0,0,0,0,0,0,0,0,-1,1427,631,0,0
210,393,0,0,0,0,0,0,0,0,0,-1,1434,631,0,0
217,393,0,0,0,0,0,0,0,0,0,-1,1441,631,0,0
224,393,0,0,0,0,0,0,0,0,0,-1,1448,631,0,0
231,393,0,0,0,0,0,0,0,0,0,-1,1455,631,0,0
238,393,0,0,0,0,0,0,0,0,0,-1,1462,631,0,0
245,393,0,0,0,0,0,0,0,0,0,-1,1469,631,0,0
252,393,0,0,0,0,0,0,0,0,0,-1,1476,631,0,0
259,393,0,0,0,0,0,0,0,0,0,-1,1483,631,0,0
266,393,0,0,0,0,0,0,0,0,0,-1,1490,631,0,0
273,393,0,0,0,0,0,0,0,0,0,-1,1497,631,0,0
280,393,0,0,0,0,0,0,0,0,0,-1,1504,631,0,0
287,393,0,0,0,0,0,0,0,0,0,-1,1511,631,0,0
294,393,0,0,0,0,0,0,0,0,0,-1,1518,631,0,0
301,393,0,0,0,0,0,0,0,0,0,-1,1525,631,0,0
308,393,0,0,0,0,0,0,0,0,0,-1,1532,631,0,0
315,393,0,0,0,0,0,0,0,0,0,-1,1539,631,0,0
322,393,0,0,0,0,0,0,0,0,0,-1,1546,631,0,0
329,393,0,0,0,0,0,0,0,0,0,-1,1553,631,0,0
336,393,0,0,0,0,0,0,0,0,0,-1,1560,631,0,0
343,393,0,0,0,0,0,0,0,0,0,-1,1567,631,0,0
350,393,0,0,0,0,0,0,0,0,0,-1,1574,631,0,0
357,393,0,0,0,0,0,0,0,0,0,-1,1581,631,0,0
364,393,0,0,0,0,0,0,0,0,0,-1,1588,631,0,0
371,393,0,0,0,0,0,0,0,0,0,-1,1595,631,0,0
378,393,0,0,0,0,0,0,0,0,0,-1,1602,631,0,0
385,393,0,0,0,0,0,0,0,0,0,-1,1609,631,0,0
392,393,0,0,0,0,0,0,0,0,0,-1,1616,631,0,0
399,393,0,0,0,0,0,0,0,0,0,-1,1623,631,0,0
406,393,0,0,0,0,0,0,0,0,0,-1,1630,631,0,0
413,393,0,0,0,0,0,0,0,0,0,-1,1637,631,0,0
420,393,0,0,0,0,0,0,0,0,0,-1,1644,631,0,0
427,393,0,0,0,0,0,0,0,0,0,-1,1651,631,0,0
434,393,0,0,0,0,0,0,0,0,0,-1,1658,631,0,0
441,393,0,0,0,0,0,0,0,0,0,-1,1665,631,0,0
448,393,0,0,0,0,0,0,0,0,0,-1,1672,631,0,0
455,393,0,0,0,0,0,0,0,0,0,-1,1679,631,0,0
462,393,8.51099,1.89502,0,0,0,0,0,0,0,-1,1686,631,8.51103,-1.89504
469,393,9.39465,1.51703,0,0,0,0,0,0,0,-1,1693,631,9.39465,-1.51703
476,393,9.95569,1.185,0,0,0,0,0,0,0,-1,1700,631,9.95575,-1.18497
483,393,10.5267,0.887329,0,0,0,0,0,0,0,-1,1707,631,10.5267,-0.887321
490,393,10.9303,0.761414,0,0,0,0,0,0,0,-1,1714,631,10.9303,-0.761386
497,393,8.32153,1.88104,0,0,0,0,0,0,0,-1,1721,631,8.32148,-1.88103
504,393,9.46985,1.78711,0,0,0,0,0,0,0,-1,1728,631,9.46986,-1.78713
511,393,9.66565,-0.375977,0,0,0,0,0,0,0,-1,1735,631,9.66571,0.375949
518,393,7.01599,1.62482,0,0,0,0,0,0,0,-1,1742,631,7.01597,-1.62483
525,393,7.88245,-1.13422,0,0,0,0,0,0,0,-1,1749,631,7.88246,1.13423
532,393,7.06335,-1.18103,0,0,0,0,0,0,0,-1,1756,631,7.06332,1.18101
539,393,9.91626,-2.46301,0,0,0,0,0,0,0,-1,1763,631,9.91625,2.46302
546,393,16.4094,-8.04651,0,0,0,0,0,0,0,-1,1770,631,16.4094,8.04649
553,393,23.2578,-12.3813,0,0,0,0,0,0,0,-1,1777,631,23.2579,12.3813
560,393,23.4386,-11.7006,0.00345265,0.00152761,0.0011853,0.00401702,0.000963243,0.444378,0.00242165,0.0423591,1784,631,23.4386,11.7005
567,393,23.42,-10.9939,0.00245952,0.0011623,0.000778759,0.0028244,0.000797418,0.438164,0.00168138,0.0163284,1791,631,23.4201,10.9939
574,393,23.4231,-10.3628,0.00184612,0.00109865,0.000668428,0.0022382,0.000706567,0.530486,0.00132117,0.0157034,1798,631,23.4231,10.3628
581,393,23.3534,-9.67578,0.00148754,0.00125268,0.000734655,0.00211409,0.000626132,0.706148,0.00125392,0.0161484,1805,631,23.3534,9.67579
588,393,23.3053,-8.98773,0.00133142,0.00156574,0.000942833,0.00239866,0.000498494,0.847212,0.00146156,0.0189484,1812,631,23.3053,8.98773
595,393,23.3094,-8.37549,0.00153632,0.00203959,0.00135188,0.00316306,0.000412853,0.877412,0.00198545,0.0166257,1819,631,23.3094,8.3755
602,393,23.2893,-7.73462,0.00205802,0.00270973,0.0019789,0.00438943,0.000378327,0.866999,0.00280868,0.0183286,1826,631,23.2893,7.73461
609,393,23.2472,-7.04822,0.00267075,0.00353557,0.0027195,0.00585682,0.000349499,0.864241,0.00379342,0.0169203,1833,631,23.2472,7.04823
616,393,23.1945,-6.36481,0.0032251,0.00443627,0.00345496,0.00733832,0.000323053,0.872156,0.00478816,0.0166053,1840,631,23.1945,6.36479
623,393,23.2151,-5.60016,0.00411228,0.0055534,0.00448211,0.0093725,0.000293181,0.865098,0.00615293,0.0332392,1847,631,23.2151,5.60018
630,393,23.5216,-4.87701,0,0,0,0,0,0,0,-1,1854,631,23.5217,4.87702
637,393,11.4626,0.608887,0,0,0,0,0,0,0,-1,1861,631,11.4627,-0.608904
644,393,8.97583,1.30585,0,0,0,0,0,0,0,-1,1868,631,8.97586,-1.30584
651,393,11.348,0.53302,0,0,0,0,0,0,0,-1,1875,631,11.348,-0.53305
658,393,9.21338,1.50836,0,0,0,0,0,0,0,-1,1882,631,9.21338,-1.50834
665,393,6.1001,2.32129,0,0,0,0,0,0,0,-1,1889,631,6.10012,-2.3213
672,393,7.14575,2.43225,0,0,0,0,0,0,0,-1,1896,631,7.14572,-2.43222
679,393,0,0,0,0,0,0,0,0,0,-1,1903,631,0,0
686,393,0,0,0,0,0,0,0,0,0,-1,1910,631,0,0
693,393,0,0,0,0,0,0,0,0,0,-1,1917,631,0,0
700,393,0,0,0,0,0,0,0,0,0,-1,1924,631,0,0
707,393,0,0,0,0,0,0,0,0,0,-1,1931,631,0,0
714,393,0,0,0,0,0,0,0,0,0,-1,1938,631,0,0
721,393,0,0,0,0,0,0,0,0,0,-1,1945,631,0,0
728,393,0,0,0,0,0,0,0,0,0,-1,1952,631,0,0
735,393,0,0,0,0,0,0,0,0,0,-1,1959,631,0,0
742,393,0,0,0,0,0,0,0,0,0,-1,1966,631,0,0
749,393,0,0,0,0,0,0,0,0,0,-1,1973,631,0,0
756,393,0,0,0,0,0,0,0,0,0,-1,1980,631,0,0
763,393,0,0,0,0,0,0,0,0,0,-1,1987,631,0,0
770,393,0,0,0,0,0,0,0,0,0,-1,1994,631,0,0
777,393,0,0,0,0,0,0,0,0,0,-1,2001,631,0,0
784,393,0,0,0,0,0,0,0,0,0,-1,2008,631,0,0
791,393,0,0,0,0,0,0,0,0,0,-1,2015,631,0,0
798,393,0,0,0,0,0,0,0,0,0,-1,2022,631,0,0
805,393,0,0,0,0,0,0,0,0,0,-1,2029,631,0,0
812,393,0,0,0,0,0,0,0,0,0,-1,2036,631,0,0
-700,386,0,0,0,0,0,0,0,0,0,-1,524,638,0,0
-693,386,0,0,0,0,0,0,0,0,0,-1,531,638,0,0
-686,386,0,0,0,0,0,0,0,0,0,-1,538,638,0,0
-679,386,0,0,0,0,0,0,0,0,0,-1,545,638,0,0
-672,386,0,0,0,0,0,0,0,0,0,-1,552,638,0,0
-665,386,0,0,0,0,0,0,0,0,0,-1,559,638,0,0
-658,386,0,0,0,0,0,0,0,0,0,-1,566,638,0,0
-651,386,0,0,0,0,0,0,0,0,0,-1,573,638,0,0
-644,386,0,0,0,0,0,0,0,0,0,-1,580,638,0,0
-637,386,0,0,0,0,0,0,0,0,0,-1,587,638,0,0
-630,386,0,0,0,0,0,0,0,0,0,-1,594,638,0,0
-623,386,0,0,0,0,0,0,0,0,0,-1,601,638,0,0
-616,386,0,0,0,0,0,0,0,0,0,-1,608,638,0,0
-609,386,0,0,0,0,0,0,0,0,0,-1,615,638,0,0
-602,386,0,0,0,0,0,0,0,0,0,-1,622,638,0,0
-595,386,0,0,0,0,0,0,0,0,0,-1,629,638,0,0
-588,386,0,0,0,0,0,0,0,0,0,-1,636,638,0,0
-581,386,0,0,0,0,0,0,0,0,0,-1,643,638,0,0
-574,386,0,0,0,0,0,0,0,0,0,-1,650,638,0,0
-567,386,0,0,0,0,0,0,0,0,0,-1,657,638,0,0
-560,386,-3.97229,-5.13898,0,0,0,0,0,0,0,-1,664,638,-3.97232,5.13897
-553,386,-4.94244,-5.54309,0,0,0,0,0,0,0,-1,671,638,-4.94242,5.5431
-546,386,-1.78668,1.72827,0,0,0,0,0,0,0,-1,678,638,-1.78668,-1.72829
-539,386,-0.879456,-2.90009,0,0,0,0,0,0,0,-1,685,638,-0.879442,2.90008
-532,386,-5.4884,1.73328,0,0,0,0,0,0,0,-1,692,638,-5.4884,-1.73325
-525,386,-6.64148,-1.50604,0,0,0,0,0,0,0,-1,699,638,-6.64149,1.50603
-518,386,-9.71906,-3.39722,0,0,0,0,0,0,0,-1,706,638,-9.71906,3.3972
-511,386,-12.2236,-4.81763,0,0,0,0,0,0,0,-1,713,638,-12.2236,4.81763
-504,386,-12.5908,-6.50562,0,0,0,0,0,0,0,-1,720,638,-12.5908,6.50562
-497,386,-12.5604,-7.27386,0.00414667,0.00536293,-0.00378608,0.00858942,0.00092019,-0.865029,0.00544553,0.0206058,727,638,-12.5604,7.27386
-490,386,-12.515,-8.01221,0.00358016,0.0041717,-0.00307437,0.00696449,0.000787364,-0.833353,0.00440406,0.0129167,734,638,-12.5149,8.01219
-483,386,-12.5192,-8.66058,0.00306063,0.00311872,-0.0024542,0.00554404,0.000635305,-0.791315,0.00350351,0.016276,741,638,-12.5192,8.66055
-476,386,-12.5426,-9.26428,0.00266226,0.00231322,-0.00199373,0.0044891,0.000486382,-0.741742,0.0028445,0.0157573,748,638,-12.5426,9.26428
-469,386,-12.5873,-9.88013,0.00231852,0.00161562,-0.00159183,0.00359724,0.000336905,-0.676749,0.00229412,0.0115942,755,638,-12.5873,9.88012
-462,386,-12.6152,-10.5265,0.00196041,0.0010063,-0.00119964,0.00277437,0.000192343,-0.596153,0.00178892,0.0106708,762,638,-12.6152,10.5265
-455,386,-12.6383,-11.1656,0.0016389,0.000343259,-0.000824833,0.0020399,-5.77382e-05,-0.452511,0.00137958,0.0124936,769,638,-12.6383,11.1656
-448,386,-12.6669,-11.7886,0.00139742,-0.000192812,-0.000497113,0.00154003,-0.000335423,-0.279374,0.00115485,0.0129682,776,638,-12.6669,11.7887
-441,386,-12.7078,-12.3997,0.00116551,-0.00062406,-0.000189922,0.00118544,-0.000643994,-0.104576,0.00107153,0.0137638,783,638,-12.7078,12.3997
-434,386,-12.6827,-13.0641,0.000868028,-0.00114595,0.000165247,0.000881497,-0.00115941,0.0813252,0.00118196,0.0343285,790,638,-12.6828,13.0641
-427,386,-12.574,-13.8187,0,0,0,0,0,0,0,-1,797,638,-12.574,13.8187
-420,386,-12.7987,-14.2789,0,0,0,0,0,0,0,-1,804,638,-12.7987,14.2789
-413,386,-5.45691,-5.35785,0,0,0,0,0,0,0,-1,811,638,-5.45691,5.35783
-406,386,-4.51135,-4.10999,0,0,0,0,0,0,0,-1,818,638,-4.51135,4.10996
-399,386,-3.57117,-3.42126,0,0,0,0,0,0,0,-1,825,638,-3.57116,3.42129
-392,386,-4.00977,0.403625,0,0,0,0,0,0,0,-1,832,638,-4.0098,-0.403616
-385,386,-3.2406,-0.118469,0,0,0,0,0,0,0,-1,839,638,-3.24058,0.118485
-378,386,-2.55243,-1.22748,0,0,0,0,0,0,0,-1,846,638,-2.55243,1.22748
-371,386,-7.95807,-0.330261,0,0,0,0,0,0,0,-1,853,638,-7.95806,0.330284
-364,386,-8.90637,-0.665955,0,0,0,0,0,0,0,-1,860,638,-8.90635,0.665951
-357,386,-9.10364,-0.388733,0,0,0,0,0,0,0,-1,867,638,-9.10364,0.388744
-350,386,0,0,0,0,0,0,0,0,0,-1,874,638,0,0
-343,386,0,0,0,0,0,0,0,0,0,-1,881,638,0,0
-336,386,0,0,0,0,0,0,0,0,0,-1,888,638,0,0
-329,386,0,0,0,0,0,0,0,0,0,-1,895,638,0,0
-322,386,0,0,0,0,0,0,0,0,0,-1,902,638,0,0
-315,386,0,0,0,0,0,0,0,0,0,-1,909,638,0,0
-308,386,0,0,0,0,0,0,0,0,0,-1,916,638,0,0
-301,386,0,0,0,0,0,0,0,0,0,-1,923,638,0,0
-294,386,0,0,0,0,0,0,0,0,0,-1,930,638,0,0
-287,386,0,0,0,0,0,0,0,0,0,-1,937,638,0,0
-280,386,0,0,0,0,0,0,0,0,0,-1,944,638,0,0
-273,386,0,0,0,0,0,0,0,0,0,-1,951,638,0,0
-266,386,0,0,0,0,0,0,0,0,0,-1,958,638,0,0
-259,386,0,0,0,0,0,0,0,0,0,-1,965,638,0,0
-252,386,0,0,0,0,0,0,0,0,0,-1,972,638,0,0
-245,386,0,0,0,0,0,0,0,0,0,-1,979,638,0,0
-238,386,0,0,0,0,0,0,0,0,0,-1,986,638,0,0
-231,386,0,0,0,0,0,0,0,0,0,-1,993,638,0,0
-224,386,0,0,0,0,0,0,0,0,0,-1,1000,638,0,0
-217,386,0,0,0,0,0,0,0,0,0,-1,1007,638,0,0
-210,386,0,0,0,0,0,0,0,0,0,-1,1014,638,0,0
-203,386,0,0,0,0,0,0,0,0,0,-1,1021,638,0,0
-196,386,0,0,0,0,0,0,0,0,0,-1,1028,638,0,0
-189,386,0,0,0,0,0,0,0,0,0,-1,1035,638,0,0
-182,386,0,0,0,0,0,0,0,0,0,-1,1042,638,0,0
-175,386,0,0,0,0,0,0,0,0,0,-1,1049,638,0,0
-168,386,0,0,0,0,0,0,0,0,0,-1,1056,638,0,0
-161,386,0,0,0,0,0,0,0,0,0,-1,1063,638,0,0
-154,386,0,0,0,0,0,0,0,0,0,-1,1070,638,0,0
-147,386,0,0,0,0,0,0,0,0,0,-1,1077,638,0,0
-140,386,0,0,0,0,0,0,0,0,0,-1,1084,638,0,0
-133,386,0,0,0,0,0,0,0,0,0,-1,1091,638,0,0
-126,386,0,0,0,0,0,0,0,0,0,-1,1098,638,0,0
-119,386,0,0,0,0,0,0,0,0,0,-1,1105,638,0,0
-112,386,0,0,0,0,0,0,0,0,0,-1,1112,638,0,0
-105,386,0,0,0,0,0,0,0,0,0,-1,1119,638,0,0
-98,386,0,0,0,0,0,0,0,0,0,-1,1126,638,0,0
-91,386,0,0,0,0,0,0,0,0,0,-1,1133,638,0,0
-84,386,0,0,0,0,0,0,0,0,0,-1,1140,638,0,0
-77,386,0,0,0,0,0,0,0,0,0,-1,1147,638,0,0
-70,386,0,0,0,0,0,0,0,0,0,-1,1154,638,0,0
-63,386,0,0,0,0,0,0,0,0,0,-1,1161,638,0,0
-56,386,0,0,0,0,0,0,0,0,0,-1,1168,638,0,0
-49,386,0,0,0,0,0,0,0,0,0,-1,1175,638,0,0
-42,386,0,0,0,0,0,0,0,0,0,-1,1182,638,0,0
-35,386,0,0,0,0,0,0,0,0,0,-1,1189,638,0,0
-28,386,0,0,0,0,0,0,0,0,0,-1,1196,638,0,0
-21,386,0,0,0,0,0,0,0,0,0,-1,1203,638,0,0
-14,386,0,0,0,0,0,0,0,0,0,-1,1210,638,0,0
-7,386,0,0,0,0,0,0,0,0,0,-1,1217,638,0,0
0,386,0,0,0,0,0,0,0,0,0,-1,1224,638,0,0
7,386,0,0,0,0,0,0,0,0,0,-1,1231,638,0,0
14,386,0,0,0,0,0,0,0,0,0,-1,1238,638,0,0
21,386,0,0,0,0,0,0,0,0,0,-1,1245,638,0,0
28,386,0,0,0,0,0,0,0,0,0,-1,1252,638,0,0
35,386,0,0,0,0,0,0,0,0,0,-1,1259,638,0,0
42,386,0,0,0,0,0,0,0,0,0,-1,1266,638,0,0
49,386,0,0,0,0,0,0,0,0,0,-1,1273,638,0,0
56,386,0,0,0,0,0,0,0,0,0,-1,1280,638,0,0
63,386,0,0,0,0,0,0,0,0,0,-1,1287,638,0,0
70,386,0,0,0,0,0,0,0,0,0,-1,1294,638,0,0
77,386,0,0,0,0,0,0,0,0,0,-1,1301,638,0,0
84,386,0,0,0,0,0,0,0,0,0,-1,1308,638,0,0
91,386,0,0,0,0,0,0,0,0,0,-1,1315,638,0,0
98,386,0,0,0,0,0,0,0,0,0,-1,1322,638,0,0
105,386,0,0,0,0,0,0,0,0,0,-1,1329,638,0,0
112,386,0,0,0,0,0,0,0,0,0,-1,1336,638,0,0
119,386,0,0,0,0,0,0,0,0,0,-1,1343,638,0,0
126,386,0,0,0,0,0,0,0,0,0,-1,1350,638,0,0
133,386,0,0,0,0,0,0,0,0,0,-1,1357,638,0,0
140,386,0,0,0,0,0,0,0,0,0,-1,1364,638,0,0
147,386,0,0,0,0,0,0,0,0,0,-1,1371,638,0,0
154,386,0,0,0,0,0,0,0,0,0,-1,1378,638,0,0
161,386,0,0,0,0,0,0,0,0,0,-1,1385,638,0,0
168,386,0,0,0,0,0,0,0,0,0,-1,1392,638,0,0
175,386,0,0,0,0,0,0,0,0,0,-1,1399,638,0,0
182,386,0,0,0,0,0,0,0,0,0,-1,1406,638,0,0
189,386,0,0,0,0,0,0,0,0,0,-1,1413,638,0,0
196,386,0,0,0,0,0,0,0,0,0,-1,1420,638,0,0
203,386,0,0,0,0,0,0,0,0,0,-1,1427,638,0,0
210,386,0,0,0,0,0,0,0,0,0,-1,1434,638,0,0
217,386,0,0,0,0,0,0,0,0,0,-1,1441,638,0,0
224,386,0,0,0,0,0,0,0,0,0,-1,1448,638,0,0
231,386,0,0,0,0,0,0,0,0,0,-1,1455,638,0,0
238,386,0,0,0,0,0,0,0,0,0,-1,1462,638,0,0
245,386,0,0,0,0,0,0,0,0,0,-1,1469,638,0,0
252,386,0,0,0,0,0,0,0,0,0,-1,1476,638,0,0
259,386,0,0,0,0,0,0,0,0,0,-1,1483,638,0,0
266,386,0,0,0,0,0,0,0,0,0,-1,1490,638,0,0
273,386,0,0,0,0,0,0,0,0,0,-1,1497,638,0,0
280,386,0,0,0,0,0,0,0,0,0,-1,1504,638,0,0
287,386,0,0,0,0,0,0,0,0,0,-1,1511,638,0,0
294,386,0,0,0,0,0,0,0,0,0,-1,1518,638,0,0
301,386,0,0,0,0,0,0,0,0,0,-1,1525,638,0,0
308,386,0,0,0,0,0,0,0,0,0,-1,1532,638,0,0
315,386,0,0,0,0,0,0,0,0,0,-1,1539,638,0,0
322,386,0,0,0,0,0,0,0,0,0,-1,1546,638,0,0
329,386,0,0,0,0,0,0,0,0,0,-1,1553,638,0,0
336,386,0,0,0,0,0,0,0,0,0,-1,1560,638,0,0
343,386,0,0,0,0,0,0,0,0,0,-1,1567,638,0,0
350,386,0,0,0,0,0,0,0,0,0,-1,1574,638,0,0
357,386,0,0,0,0,0,0,0,0,0,-1,1581,638,0,0
364,386,0,0,0,0,0,0,0,0,0,-1,1588,638,0,0
371,386,0,0,0,0,0,0,0,0,0,-1,1595,638,0,0
378,386,0,0,0,0,0,0,0,0,0,-1,1602,638,0,0
385,386,0,0,0,0,0,0,0,0,0,-1,1609,638,0,0
392,386,0,0,0,0,0,0,0,0,0,-1,1616,638,0,0
399,386,0,0,0,0,0,0,0,0,0,-1,1623,638,0,0
406,386,0,0,0,0,0,0,0,0,0,-1,1630,638,0,0
413,386,0,0,0,0,0,0,0,0,0,-1,1637,638,0,0
420,386,0,0,0,0,0,0,0,0,0,-1,1644,638,0,0
427,386,0,0,0,0,0,0,0,0,0,-1,1651,638,0,0
434,386,0,0,0,0,0,0,0,0,0,-1,1658,638,0,0
441,386,0,0,0,0,0,0,0,0,0,-1,1665,638,0,0
448,386,0,0,0,0,0,0,0,0,0,-1,1672,638,0,0
455,386,0,0,0,0,0,0,0,0,0,-1,1679,638,0,0
462,386,0,0,0,0,0,0,0,0,0,-1,1686,638,0,0
469,386,9.84692,1.55804,0,0,0,0,0,0,0,-1,1693,638,9.84691,-1.55807
476,386,10.6145,0.986511,0,0,0,0,0,0,0,-1,1700,638,10.6145,-0.986529
483,386,11.4113,0.732971,0,0,0,0,0,0,0,-1,1707,638,11.4112,-0.732958
490,386,7.79785,1.79572,0,0,0,0,0,0,0,-1,1714,638,7.79788,-1.7957
497,386,8.96362,1.77081,0,0,0,0,0,0,0,-1,1721,638,8.96357,-1.77081
504,386,10.0555,1.69427,0,0,0,0,0,0,0,-1,1728,638,10.0555,-1.69426
511,386,11.2172,1.534,0,0,0,0,0,0,0,-1,1735,638,11.2172,-1.53398
518,386,7.41553,1.75238,0,0,0,0,0,0,0,-1,1742,638,7.41547,-1.75238
525,386,8.82422,-1.1449,0,0,0,0,0,0,0,-1,1749,638,8.82426,1.14492
532,386,10.6432,0.617371,0,0,0,0,0,0,0,-1,1756,638,10.6432,-0.617359
539,386,9.62061,-0.393616,0,0,0,0,0,0,0,-1,1763,638,9.62059,0.393634
546,386,10.7963,-2.854,0,0,0,0,0,0,0,-1,1770,638,10.7962,2.854
553,386,16.9939,-7.27942,0,0,0,0,0,0,0,-1,1777,638,16.9939,7.27944
560,386,23.802,-11.7455,0,0,0,0,0,0,0,-1,1784,638,23.802,11.7455
567,386,23.955,-10.9916,0.00269901,0.00135742,0.000809643,0.00307964,0.000976795,0.439456,0.00181722,0.04106,1791,638,23.955,10.9916
574,386,24.0485,-10.3128,0.00188562,0.00115434,0.000584092,0.00220908,0.00083088,0.505739,0.00128839,0.0145665,1798,638,24.0485,10.3128
581,386,23.9994,-9.66602,0.00137642,0.00120521,0.000538581,0.00183616,0.000745475,0.706584,0.00106633,0.0146362,1805,638,23.9993,9.66601
588,386,23.9883,-9.01709,0.00114147,0.00138523,0.00065874,0.00193327,0.00059343,0.876875,0.00114357,0.0139888,1812,638,23.9883,9.01712
595,386,23.9553,-8.38611,0.00127944,0.00174861,0.000982828,0.00252446,0.000503593,0.902549,0.00154276,0.0150413,1819,638,23.9554,8.38608
602,386,23.9255,-7.72107,0.00173591,0.00229323,0.00151945,0.00355936,0.000469782,0.876088,0.00223285,0.0164824,1826,638,23.9256,7.72109
609,386,23.9226,-7.05048,0.00224587,0.00296909,0.0021341,0.00477199,0.00044296,0.869323,0.00304444,0.0163101,1833,638,23.9227,7.05049
616,386,23.8889,-6.36682,0.00264504,0.00365402,0.00268485,0.00588137,0.000417694,0.878267,0.00378936,0.0131411,1840,638,23.8889,6.36683
623,386,23.8457,-5.69189,0.00329689,0.00453589,0.00346352,0.00743488,0.000397902,0.873894,0.00482942,0.0115482,1847,638,23.8457,5.69191
630,386,23.9691,-4.9895,0.00379246,0.00534661,0.00414049,0.00878231,0.000356758,0.878157,0.00573965,0.0383327,1854,638,23.9691,4.98949
637,386,24.1726,-4.25201,0,0,0,0,0,0,0,-1,1861,638,24.1726,4.25201
644,386,11.6521,0.723328,0,0,0,0,0,0,0,-1,1868,638,11.6521,-0.723355
651,386,9.3866,1.31097,0,0,0,0,0,0,0,-1,1875,638,9.3866,-1.31095
658,386,12.0731,-0.00415039,0,0,0,0,0,0,0,-1,1882,638,12.0731,0.00412803
665,386,6.33167,1.78601,0,0,0,0,0,0,0,-1,1889,638,6.33171,-1.78601
672,386,7.23352,2.14435,0,0,0,0,0,0,0,-1,1896,638,7.23353,-2.14433
679,386,8.07764,2.57104,0,0,0,0,0,0,0,-1,1903,638,8.07758,-2.57103
686,386,0,0,0,0,0,0,0,0,0,-1,1910,638,0,0
693,386,0,0,0,0,0,0,0,0,0,-1,1917,638,0,0
700,386,0,0,0,0,0,0,0,0,0,-1,1924,638,0,0
707,386,0,0,0,0,0,0,0,0,0,-1,1931,638,0,0
714,386,0,0,0,0,0,0,0,0,0,-1,1938,638,0,0
721,386,0,0,0,0,0,0,0,0,0,-1,1945,638,0,0
728,386,0,0,0,0,0,0,0,0,0,-1,1952,638,0,0
735,386,0,0,0,0,0,0,0,0,0,-1,1959,638,0,0
742,386,0,0,0,0,0,0,0,0,0,-1,1966,638,0,0
749,386,0,0,0,0,0,0,0,0,0,-1,1973,638,0,0
756,386,0,0,0,0,0,0,0,0,0,-1,1980,638,0,0
763,386,0,0,0,0,0,0,0,0,0,-1,1987,638,0,0
770,386,0,0,0,0,0,0,0,0,0,-1,1994,638,0,0
777,386,0,0,0,0,0,0,0,0,0,-1,2001,638,0,0
784,386,0,0,0,0,0,0,0,0,0,-1,2008,638,0,0
791,386,0,0,0,0,0,0,0,0,0,-1,2015,638,0,0
798,386,0,0,0,0,0,0,0,0,0,-1,2022,638,0,0
805,386,0,0,0,0,0,0,0,0,0,-1,2029,638,0,0
812,386,0,0,0,0,0,0,0,0,0,-1,2036,638,0,0
-700,379,0,0,0,0,0,0,0,0,0,-1,524,645,0,0
-693,379,0,0,0,0,0,0,0,0,0,-1,531,645,0,0
-686,379,0,0,0,0,0,0,0,0,0,-1,538,645,0,0
-679,379,0,0,0,0,0,0,0,0,0,-1,545,645,0,0
-672,379,0,0,0,0,0,0,0,0,0,-1,552,645,0,0
-665,379,0,0,0,0,0,0,0,0,0,-1,559,645,0,0
-658,379,0,0,0,0,0,0,0,0,0,-1,566,645,0,0
-651,379,0,0,0,0,0,0,0,0,0,-1,573,645,0,0
-644,379,0,0,0,0,0,0,0,0,0,-1,580,645,0,0
-637,379,0,0,0,0,0,0,0,0,0,-1,587,645,0,0
-630,379,0,0,0,0,0,0,0,0,0,-1,594,645,0,0
-623,379,0,0,0,0,0,0,0,0,0,-1,601,645,0,0
-616,379,0,0,0,0,0,0,0,0,0,-1,608,645,0,0
-609,379,0,0,0,0,0,0,0,0,0,-1,615,645,0,0
-602,379,0,0,0,0,0,0,0,0,0,-1,622,645,0,0
-595,379,0,0,0,0,0,0,0,0,0,-1,629,645,0,0
-588,379,0,0,0,0,0,0,0,0,0,-1,636,645,0,0
-581,379,0,0,0,0,0,0,0,0,0,-1,643,645,0,0
-574,379,0,0,0,0,0,0,0,0,0,-1,650,645,0,0
-567,379,-8.78058,0.59668,0,0,0,0,0,0,0,-1,657,645,-8.7806,-0.596692
-560,379,-9.53485,-0.211304,0,0,0,0,0,0,0,-1,664,645,-9.53487,0.211282
-553,379,-5.17108,-4.53119,0,0,0,0,0,0,0,-1,671,645,-5.17106,4.53117
-546,379,-6.23053,-4.92102,0,0,0,0,0,0,0,-1,678,645,-6.23054,4.92105
-539,379,-0.71698,-2.19427,0,0,0,0,0,0,0,-1,685,645,-0.716959,2.19427
-532,379,-7.69611,0.217224,0,0,0,0,0,0,0,-1,692,645,-7.69614,-0.217204
-525,379,-7.09833,-1.13043,0,0,0,0,0,0,0,-1,699,645,-7.0983,1.13041
-518,379,-10.5613,-3.82849,0,0,0,0,0,0,0,-1,706,645,-10.5613,3.82849
-511,379,-13.1091,-5.96167,0,0,0,0,0,0,0,-1,713,645,-13.1091,5.96166
-504,379,-13.0903,-6.68597,0.00361205,0.0056107,-0.00374211,0.00848463,0.000738128,-0.915877,0.00542713,0.0299942,720,645,-13.0902,6.68596
-497,379,-13.1617,-7.30066,0.00315343,0.00420801,-0.00290822,0.00663636,0.000725085,-0.875079,0.00420344,0.0142201,727,645,-13.1617,7.30068
-490,379,-13.1648,-7.96423,0.00280274,0.00310794,-0.00231879,0.00527914,0.000631536,-0.818256,0.00332894,0.011545,734,645,-13.1648,7.96424
-483,379,-13.1666,-8.6037,0.00251786,0.00226506,-0.00185247,0.00424824,0.000534678,-0.751335,0.00267183,0.013369,741,645,-13.1666,8.60372
-476,379,-13.1678,-9.21704,0.00231613,0.00167272,-0.00156216,0.00358937,0.000399491,-0.68385,0.00227149,0.0139153,748,645,-13.1678,9.21705
-469,379,-13.2161,-9.84302,0.00212578,0.00116448,-0.00130954,0.0030401,0.000250165,-0.609512,0.0019487,0.0119754,755,645,-13.2161,9.84302
-462,379,-13.2571,-10.4822,0.00192028,0.000730038,-0.00106253,0.002543,0.000107312,-0.530118,0.00166072,0.00894537,762,645,-13.2571,10.4822
-455,379,-13.2878,-11.1158,0.00175073,0.000206727,-0.000818253,0.00210368,-0.000146227,-0.407237,0.00145365,0.00980822,769,645,-13.2878,11.1158
-448,379,-13.2943,-11.7304,0.00163977,-0.000191664,-0.000613423,0.00182625,-0.000378138,-0.295113,0.00136117,0.0125294,776,645,-13.2942,11.7304
-441,379,-13.3087,-12.4061,0.00157791,-0.000360628,-0.000502426,0.00170039,-0.000483107,-0.239112,0.00132434,0.0231026,783,645,-13.3087,12.406
-434,379,-13.2482,-13.2475,0,0,0,0,0,0,0,-1,790,645,-13.2482,13.2475
-427,379,-4.16113,-4.13452,0,0,0,0,0,0,0,-1,797,645,-4.16116,4.1345
-420,379,-4.63953,-3.46869,0,0,0,0,0,0,0,-1,804,645,-4.63953,3.46872
-413,379,-4.62543,-3.7912,0,0,0,0,0,0,0,-1,811,645,-4.62541,3.79123
-406,379,-4.64063,-4.38489,0,0,0,0,0,0,0,-1,818,645,-4.64065,4.3849
-399,379,-2.93536,-1.40118,0,0,0,0,0,0,0,-1,825,645,-2.93534,1.40119
-392,379,-4.16711,-0.466003,0,0,0,0,0,0,0,-1,832,645,-4.16714,0.465992
-385,379,-3.51862,0.441101,0,0,0,0,0,0,0,-1,839,645,-3.51859,-0.441072
-378,379,-5.3504,0.212219,0,0,0,0,0,0,0,-1,846,645,-5.35038,-0.212241
-371,379,-4.32092,-0.186707,0,0,0,0,0,0,0,-1,853,645,-4.3209,0.186707
-364,379,-3.40887,-0.549805,0,0,0,0,0,0,0,-1,860,645,-3.4089,0.549802
-357,379,0,0,0,0,0,0,0,0,0,-1,867,645,0,0
-350,379,0,0,0,0,0,0,0,0,0,-1,874,645,0,0
-343,379,0,0,0,0,0,0,0,0,0,-1,881,645,0,0
-336,379,0,0,0,0,0,0,0,0,0,-1,888,645,0,0
-329,379,0,0,0,0,0,0,0,0,0,-1,895,645,0,0
-322,379,0,0,0,0,0,0,0,0,0,-1,902,645,0,0
-315,379,0,0,0,0,0,0,0,0,0,-1,909,645,0,0
-308,379,0,0,0,0,0,0,0,0,0,-1,916,645,0,0
-301,379,0,0,0,0,0,0,0,0,0,-1,923,645,0,0
-294,379,0,0,0,0,0,0,0,0,0,-1,930,645,0,0
-287,379,0,0,0,0,0,0,0,0,0,-1,937,645,0,0
-280,379,0,0,0,0,0,0,0,0,0,-1,944,645,0,0
-273,379,0,0,0,0,0,0,0,0,0,-1,951,645,0,0
-266,379,0,0,0,0,0,0,0,0,0,-1,958,645,0,0
-259,379,0,0,0,0,0,0,0,0,0,-1,965,645,0,0
-252,379,0,0,0,0,0,0,0,0,0,-1,972,645,0,0
-245,379,0,0,0,0,0,0,0,0,0,-1,979,645,0,0
-238,379,0,0,0,0,0,0,0,0,0,-1,986,645,0,0
-231,379,0,0,0,0,0,0,0,0,0,-1,993,645,0,0
-224,379,0,0,0,0,0,0,0,0,0,-1,1000,645,0,0
-217,379,0,0,0,0,0,0,0,0,0,-1,1007,645,0,0
-210,379,0,0,0,0,0,0,0,0,0,-1,1014,645,0,0
-203,379,0,0,0,0,0,0,0,0,0,-1,1021,645,0,0
-196,379,0,0,0,0,0,0,0,0,0,-1,1028,645,0,0
-189,379,0,0,0,0,0,0,0,0,0,-1,1035,645,0,0
-182,379,0,0,0,0,0,0,0,0,0,-1,1042,645,0,0
-175,379,0,0,0,0,0,0,0,0,0,-1,1049,645,0,0
-168,379,0,0,0,0,0,0,0,0,0,-1,1056,645,0,0
-161,379,0,0,0,0,0,0,0,0,0,-1,1063,645,0,0
-154,379,0,0,0,0,0,0,0,0,0,-1,1070,645,0,0
-147,379,0,0,0,0,0,0,0,0,0,-1,1077,645,0,0
-140,379,0,0,0,0,0,0,0,0,0,-1,1084,645,0,0
-133,379,0,0,0,0,0,0,0,0,0,-1,1091,645,0,0
-126,379,0,0,0,0,0,0,0,0,0,-1,1098,645,0,0
-119,379,0,0,0,0,0,0,0,0,0,-1,1105,645,0,0
-112,379,0,0,0,0,0,0,0,0,0,-1,1112,645,0,0
-105,379,0,0,0,0,0,0,0,0,0,-1,1119,645,0,0
-98,379,0,0,0,0,0,0,0,0,0,-1,1126,645,0,0
-91,379,0,0,0,0,0,0,0,0,0,-1,1133,645,0,0
-84,379,0,0,0,0,0,0,0,0,0,-1,1140,645,0,0
-77,379,0,0,0,0,0,0,0,0,0,-1,1147,645,0,0
-70,379,0,0,0,0,0,0,0,0,0,-1,1154,645,0,0
-63,379,0,0,0,0,0,0,0,0,0,-1,1161,645,0,0
-56,379,0,0,0,0,0,0,0,0,0,-1,1168,645,0,0
-49,379,0,0,0,0,0,0,0,0,0,-1,1175,645,0,0
-42,379,0,0,0,0,0,0,0,0,0,-1,1182,645,0,0
-35,379,0,0,0,0,0,0,0,0,0,-1,1189,645,0,0
-28,379,0,0,0,0,0,0,0,0,0,-1,1196,645,0,0
-21,379,0,0,0,0,0,0,0,0,0,-1,1203,645,0,0
-14,379,0,0,0,0,0,0,0,0,0,-1,1210,645,0,0
-7,379,0,0,0,0,0,0,0,0,0,-1,1217,645,0,0
0,379,0,0,0,0,0,0,0,0,0,-1,1224,645,0,0
7,379,0,0,0,0,0,0,0,0,0,-1,1231,645,0,0
14,379,0,0,0,0,0,0,0,0,0,-1,1238,645,0,0
21,379,0,0,0,0,0,0,0,0,0,-1,1245,645,0,0
28,379,0,0,0,0,0,0,0,0,0,-1,1252,645,0,0
35,379,0,0,0,0,0,0,0,0,0,-1,1259,645,0,0
42,379,0,0,0,0,0,0,0,0,0,-1,1266,645,0,0
49,379,0,0,0,0,0,0,0,0,0,-1,1273,645,0,0
56,379,0,0,0,0,0,0,0,0,0,-1,1280,645,0,0
63,379,0,0,0,0,0,0,0,0,0,-1,1287,645,0,0
70,379,0,0,0,0,0,0,0,0,0,-1,1294,645,0,0
77,379,0,0,0,0,0,0,0,0,0,-1,1301,645,0,0
84,379,0,0,0,0,0,0,0,0,0,-1,1308,645,0,0
91,379,0,0,0,0,0,0,0,0,0,-1,1315,645,0,0
98,379,0,0,0,0,0,0,0,0,0,-1,1322,645,0,0
105,379,0,0,0,0,0,0,0,0,0,-1,1329,645,0,0
112,379,0,0,0,0,0,0,0,0,0,-1,1336,645,0,0
119,379,0,0,0,0,0,0,0,0,0,-1,1343,645,0,0
126,379,0,0,0,0,0,0,0,0,0,-1,1350,645,0,0
133,379,0,0,0,0,0,0,0,0,0,-1,1357,645,0,0
140,379,0,0,0,0,0,0,0,0,0,-1,1364,645,0,0
147,379,0,0,0,0,0,0,0,0,0,-1,1371,645,0,0
154,379,0,0,0,0,0,0,0,0,0,-1,1378,645,0,0
161,379,0,0,0,0,0,0,0,0,0,-1,1385,645,0,0
168,379,0,0,0,0,0,0,0,0,0,-1,1392,645,0,0
175,379,0,0,0,0,0,0,0,0,0,-1,1399,645,0,0
182,379,0,0,0,0,0,0,0,0,0,-1,1406,645,0,0
189,379,0,0,0,0,0,0,0,0,0,-1,1413,645,0,0
196,379,0,0,0,0,0,0,0,0,0,-1,1420,645,0,0
203,379,0,0,0,0,0,0,0,0,0,-1,1427,645,0,0
210,379,0,0,0,0,0,0,0,0,0,-1,1434,645,0,0
217,379,0,0,0,0,0,0,0,0,0,-1,1441,645,0,0
224,379,0,0,0,0,0,0,0,0,0,-1,1448,645,0,0
231,379,0,0,0,0,0,0,0,0,0,-1,1455,645,0,0
238,379,0,0,0,0,0,0,0,0,0,-1,1462,645,0,0
245,379,0,0,0,0,0,0,0,0,0,-1,1469,645,0,0
252,379,0,0,0,0,0,0,0,0,0,-1,1476,645,0,0
259,379,0,0,0,0,0,0,0,0,0,-1,1483,645,0,0
266,379,0,0,0,0,0,0,0,0,0,-1,1490,645,0,0
273,379,0,0,0,0,0,0,0,0,0,-1,1497,645,0,0
280,379,0,0,0,0,0,0,0,0,0,-1,1504,645,0,0
287,379,0,0,0,0,0,0,0,0,0,-1,1511,645,0,0
294,379,0,0,0,0,0,0,0,0,0,-1,1518,645,0,0
301,379,0,0,0,0,0,0,0,0,0,-1,1525,645,0,0
308,379,0,0,0,0,0,0,0,0,0,-1,1532,645,0,0
315,379,0,0,0,0,0,0,0,0,0,-1,1539,645,0,0
322,379,0,0,0,0,0,0,0,0,0,-1,1546,645,0,0
329,379,0,0,0,0,0,0,0,0,0,-1,1553,645,0,0
336,379,0,0,0,0,0,0,0,0,0,-1,1560,645,0,0
343,379,0,0,0,0,0,0,0,0,0,-1,1567,645,0,0
350,379,0,0,0,0,0,0,0,0,0,-1,1574,645,0,0
357,379,0,0,0,0,0,0,0,0,0,-1,1581,645,0,0
364,379,0,0,0,0,0,0,0,0,0,-1,1588,645,0,0
371,379,0,0,0,0,0,0,0,0,0,-1,1595,645,0,0
378,379,0,0,0,0,0,0,0,0,0,-1,1602,645,0,0
385,379,0,0,0,0,0,0,0,0,0,-1,1609,645,0,0
392,379,0,0,0,0,0,0,0,0,0,-1,1616,645,0,0
399,379,0,0,0,0,0,0,0,0,0,-1,1623,645,0,0
406,379,0,0,0,0,0,0,0,0,0,-1,1630,645,0,0
413,379,0,0,0,0,0,0,0,0,0,-1,1637,645,0,0
420,379,0,0,0,0,0,0,0,0,0,-1,1644,645,0,0
427,379,0,0,0,0,0,0,0,0,0,-1,1651,645,0,0
434,379,0,0,0,0,0,0,0,0,0,-1,1658,645,0,0
441,379,0,0,0,0,0,0,0,0,0,-1,1665,645,0,0
448,379,0,0,0,0,0,0,0,0,0,-1,1672,645,0,0
455,379,0,0,0,0,0,0,0,0,0,-1,1679,645,0,0
462,379,0,0,0,0,0,0,0,0,0,-1,1686,645,0,0
469,379,0,0,0,0,0,0,0,0,0,-1,1693,645,0,0
476,379,11.1787,0.830383,0,0,0,0,0,0,0,-1,1700,645,11.1787,-0.830365
483,379,7.4231,1.54321,0,0,0,0,0,0,0,-1,1707,645,7.42314,-1.54324
490,379,8.52881,1.56677,0,0,0,0,0,0,0,-1,1714,645,8.52878,-1.56677
497,379,9.63599,1.49573,0,0,0,0,0,0,0,-1,1721,645,9.63604,-1.4957
504,379,10.0833,1.35229,0,0,0,0,0,0,0,-1,1728,645,10.0832,-1.35227
511,379,8.14343,1.59912,0,0,0,0,0,0,0,-1,1735,645,8.14347,-1.59912
518,379,12.7955,-0.324097,0,0,0,0,0,0,0,-1,1742,645,12.7955,0.324101
525,379,6.03711,1.10352,0,0,0,0,0,0,0,-1,1749,645,6.03711,-1.10351
532,379,8.70947,0.887817,0,0,0,0,0,0,0,-1,1756,645,8.70953,-0.887808
539,379,9.87097,0.111389,0,0,0,0,0,0,0,-1,1763,645,9.87095,-0.111395
546,379,8.42383,-0.730652,0,0,0,0,0,0,0,-1,1770,645,8.42378,0.730638
553,379,19.2905,-7.67834,0,0,0,0,0,0,0,-1,1777,645,19.2905,7.67837
560,379,22.5734,-10.4749,0,0,0,0,0,0,0,-1,1784,645,22.5734,10.4749
567,379,24.5238,-11.0788,0,0,0,0,0,0,0,-1,1791,645,24.5238,11.0788
574,379,24.7078,-10.28,0.00189831,0.00123443,0.000500911,0.00216728,0.000965454,0.492782,0.00125376,0.0149335,1798,645,24.7078,10.28
581,379,24.6853,-9.63281,0.00129668,0.00121525,0.000389401,0.00164749,0.000864439,0.73331,0.000951563,0.0156372,1805,645,24.6853,9.63283
588,379,24.6417,-8.97211,0.00103722,0.00127844,0.000456677,0.00163017,0.000685498,0.914502,0.000945135,0.0181885,1812,645,24.6418,8.97208
595,379,24.5959,-8.3396,0.00112584,0.00155855,0.000712726,0.00208703,0.000597353,0.932757,0.00124112,0.0149249,1819,645,24.596,8.33962
602,379,24.5862,-7.69519,0.00150756,0.00199018,0.00115648,0.00293026,0.00056748,0.888251,0.00179451,0.0158112,1826,645,24.5862,7.69521
609,379,24.5485,-7.05267,0.00190781,0.00252595,0.00165473,0.00390022,0.000533533,0.877725,0.00244181,0.0174419,1833,645,24.5485,7.0527
616,379,24.5065,-6.38306,0.00214774,0.00301919,0.0020495,0.00467877,0.000488164,0.890139,0.00296986,0.0140544,1840,645,24.5065,6.38305
623,379,24.5078,-5.66779,0.00248921,0.003664,0.00261218,0.00575401,0.000399199,0.895993,0.00371011,0.0127587,1847,645,24.5079,5.66778
630,379,24.4941,-5.01282,0.00245734,0.00423435,0.00302384,0.00649752,0.000194167,0.928293,0.00426843,0.0144088,1854,645,24.4942,5.01281
637,379,24.4958,-4.23749,0.00198647,0.00481328,0.0033025,0.00699212,-0.000192374,0.987594,0.00472684,0.0454286,1861,645,24.4959,4.23751
644,379,24.7294,-3.3299,0,0,0,0,0,0,0,-1,1868,645,24.7294,3.32987
651,379,12.9515,0.220825,0,0,0,0,0,0,0,-1,1875,645,12.9515,-0.220814
658,379,13.7498,0.37439,0,0,0,0,0,0,0,-1,1882,645,13.7498,-0.374371
665,379,11.9719,0.353333,0,0,0,0,0,0,0,-1,1889,645,11.9719,-0.353321
672,379,7.57605,2.15326,0,0,0,0,0,0,0,-1,1896,645,7.57599,-2.15326
679,379,8.55078,2.50409,0,0,0,0,0,0,0,-1,1903,645,8.55073,-2.50406
686,379,0,0,0,0,0,0,0,0,0,-1,1910,645,0,0
693,379,0,0,0,0,0,0,0,0,0,-1,1917,645,0,0
700,379,0,0,0,0,0,0,0,0,0,-1,1924,645,0,0
707,379,0,0,0,0,0,0,0,0,0,-1,1931,645,0,0
714,379,0,0,0,0,0,0,0,0,0,-1,1938,645,0,0
721,379,0,0,0,0,0,0,0,0,0,-1,1945,645,0,0
728,379,0,0,0,0,0,0,0,0,0,-1,1952,645,0,0
735,379,0,0,0,0,0,0,0,0,0,-1,1959,645,0,0
742,379,0,0,0,0,0,0,0,0,0,-1,1966,645,0,0
749,379,0,0,0,0,0,0,0,0,0,-1,1973,645,0,0
756,379,0,0,0,0,0,0,0,0,0,-1,1980,645,0,0
763,379,0,0,0,0,0,0,0,0,0,-1,1987,645,0,0
770,379,0,0,0,0,0,0,0,0,0,-1,1994,645,0,0
777,379,0,0,0,0,0,0,0,0,0,-1,2001,645,0,0
784,379,0,0,0,0,0,0,0,0,0,-1,2008,645,0,0
791,379,0,0,0,0,0,0,0,0,0,-1,2015,645,0,0
798,379,0,0,0,0,0,0,0,0,0,-1,2022,645,0,0
805,379,0,0,0,0,0,0,0,0,0,-1,2029,645,0,0
812,379,0,0,0,0,0,0,0,0,0,-1,2036,645,0,0
-700,372,0,0,0,0,0,0,0,0,0,-1,524,652,0,0
-693,372,0,0,0,0,0,0,0,0,0,-1,531,652,0,0
-686,372,0,0,0,0,0,0,0,0,0,-1,538,652,0,0
-679,372,0,0,0,0,0,0,0,0,0,-1,545,652,0,0
-672,372,0,0,0,0,0,0,0,0,0,-1,552,652,0,0
-665,372,0,0,0,0,0,0,0,0,0,-1,559,652,0,0
-658,372,0,0,0,0,0,0,0,0,0,-1,566,652,0,0
-651,372,0,0,0,0,0,0,0,0,0,-1,573,652,0,0
-644,372,0,0,0,0,0,0,0,0,0,-1,580,652,0,0
-637,372,0,0,0,0,0,0,0,0,0,-1,587,652,0,0
-630,372,0,0,0,0,0,0,0,0,0,-1,594,652,0,0
-623,372,0,0,0,0,0,0,0,0,0,-1,601,652,0,0
-616,372,0,0,0,0,0,0,0,0,0,-1,608,652,0,0
-609,372,0,0,0,0,0,0,0,0,0,-1,615,652,0,0
-602,372,0,0,0,0,0,0,0,0,0,-1,622,652,0,0
-595,372,0,0,0,0,0,0,0,0,0,-1,629,652,0,0
-588,372,0,0,0,0,0,0,0,0,0,-1,636,652,0,0
-581,372,0,0,0,0,0,0,0,0,0,-1,643,652,0,0
-574,372,0,0,0,0,0,0,0,0,0,-1,650,652,0,0
-567,372,-7.93744,0.73407,0,0,0,0,0,0,0,-1,657,652,-7.93741,-0.734076
-560,372,-8.78552,-0.158203,0,0,0,0,0,0,0,-1,664,652,-8.78552,0.158216
-553,372,-7.95551,1.61694,0,0,0,0,0,0,0,-1,671,652,-7.95552,-1.61697
-546,372,-4.2403,-3.75372,0,0,0,0,0,0,0,-1,678,652,-4.24028,3.75369
-539,372,-7.92285,-0.0650024,0,0,0,0,0,0,0,-1,685,652,-7.92287,0.0649772
-532,372,-8.59589,-0.419556,0,0,0,0,0,0,0,-1,692,652,-8.59591,0.419539
-525,372,-8.03674,-1.36804,0,0,0,0,0,0,0,-1,699,652,-8.03676,1.36806
-518,372,-13.7892,-5.28961,0,0,0,0,0,0,0,-1,706,652,-13.7892,5.28963
-511,372,-13.725,-6.05554,0.0024388,0.00582575,-0.00337403,0.00790745,0.000357104,-1.01799,0.00515672,0.0369173,713,652,-13.725,6.05557
-504,372,-13.7564,-6.6391,0.0021113,0.00424754,-0.00253466,0.00592994,0.000428899,-0.98481,0.00381836,0.0164783,720,652,-13.7564,6.63911
-497,372,-13.7619,-7.29608,0.00190207,0.00303273,-0.00192643,0.00447507,0.000459726,-0.928121,0.00284255,0.011292,727,652,-13.7619,7.2961
-490,372,-13.7966,-7.93408,0.00179405,0.00207863,-0.00153306,0.00347599,0.000396697,-0.831673,0.00219707,0.0131366,734,652,-13.7966,7.93409
-483,372,-13.8144,-8.55688,0.00180611,0.00145023,-0.00125316,0.0028939,0.000362437,-0.714875,0.00182052,0.0134695,741,652,-13.8144,8.55687
-476,372,-13.8176,-9.14874,0.00192545,0.00108495,-0.0011637,0.00274246,0.000267946,-0.612118,0.00174586,0.0141398,748,652,-13.8176,9.14873
-469,372,-13.8423,-9.77039,0.00207019,0.000812861,-0.00112648,0.00273155,0.000151496,-0.530886,0.0017727,0.0113091,755,652,-13.8423,9.77041
-462,372,-13.8765,-10.4256,0.00223175,0.000627503,-0.00111163,0.00280044,5.88142e-05,-0.472869,0.00184767,0.0104463,762,652,-13.8764,10.4256
-455,372,-13.9232,-11.0609,0.00245057,0.000336042,-0.00109384,0.00291459,-0.000127978,-0.401201,0.00198709,0.0112245,769,652,-13.9232,11.0608
-448,372,-13.9303,-11.6824,0.00270766,0.000175501,-0.00111341,0.0031276,-0.000244432,-0.360662,0.00217113,0.013331,776,652,-13.9303,11.6824
-441,372,-13.7744,-12.5037,0,0,0,0,0,0,0,-1,783,652,-13.7744,12.5037
-434,372,-9.86865,-9.68494,0,0,0,0,0,0,0,-1,790,652,-9.86863,9.68492
-427,372,-4.54248,-3.56268,0,0,0,0,0,0,0,-1,797,652,-4.54247,3.56266
-420,372,-4.66168,-2.93597,0,0,0,0,0,0,0,-1,804,652,-4.66166,2.93599
-413,372,-4.74762,-3.29541,0,0,0,0,0,0,0,-1,811,652,-4.74763,3.29542
-406,372,-0.885437,-0.583923,0,0,0,0,0,0,0,-1,818,652,-0.885437,0.5839
-399,372,-3.97357,-0.825012,0,0,0,0,0,0,0,-1,825,652,-3.97359,0.825037
-392,372,-7.64337,0.173035,0,0,0,0,0,0,0,-1,832,652,-7.64337,-0.173019
-385,372,-6.48871,-0.0271606,0,0,0,0,0,0,0,-1,839,652,-6.48874,0.0271353
-378,372,-5.33044,-0.242432,0,0,0,0,0,0,0,-1,846,652,-5.33042,0.242457
-371,372,-4.40802,-0.495667,0,0,0,0,0,0,0,-1,853,652,-4.40802,0.495661
-364,372,0,0,0,0,0,0,0,0,0,-1,860,652,0,0
-357,372,0,0,0,0,0,0,0,0,0,-1,867,652,0,0
-350,372,0,0,0,0,0,0,0,0,0,-1,874,652,0,0
-343,372,0,0,0,0,0,0,0,0,0,-1,881,652,0,0
-336,372,0,0,0,0,0,0,0,0,0,-1,888,652,0,0
-329,372,0,0,0,0,0,0,0,0,0,-1,895,652,0,0
-322,372,0,0,0,0,0,0,0,0,0,-1,902,652,0,0
-315,372,0,0,0,0,0,0,0,0,0,-1,909,652,0,0
-308,372,0,0,0,0,0,0,0,0,0,-1,916,652,0,0
-301,372,0,0,0,0,0,0,0,0,0,-1,923,652,0,0
-294,372,0,0,0,0,0,0,0,0,0,-1,930,652,0,0
-287,372,0,0,0,0,0,0,0,0,0,-1,937,652,0,0
-280,372,0,0,0,0,0,0,0,0,0,-1,944,652,0,0
-273,372,0,0,0,0,0,0,0,0,0,-1,951,652,0,0
-266,372,0,0,0,0,0,0,0,0,0,-1,958,652,0,0
-259,372,0,0,0,0,0,0,0,0,0,-1,965,652,0,0
-252,372,0,0,0,0,0,0,0,0,0,-1,972,652,0,0
-245,372,0,0,0,0,0,0,0,0,0,-1,979,652,0,0
-238,372,0,0,0,0,0,0,0,0,0,-1,986,652,0,0
-231,372,0,0,0,0,0,0,0,0,0,-1,993,652,0,0
-224,372,0,0,0,0,0,0,0,0,0,-1,1000,652,0,0
-217,372,0,0,0,0,0,0,0,0,0,-1,1007,652,0,0
-210,372,0,0,0,0,0,0,0,0,0,-1,1014,652,0,0
-203,372,0,0,0,0,0,0,0,0,0,-1,1021,652,0,0
-196,372,0,0,0,0,0,0,0,0,0,-1,1028,652,0,0
-189,372,0,0,0,0,0,0,0,0,0,-1,1035,652,0,0
-182,372,0,0,0,0,0,0,0,0,0,-1,1042,652,0,0
-175,372,0,0,0,0,0,0,0,0,0,-1,1049,652,0,0
-168,372,0,0,0,0,0,0,0,0,0,-1,1056,652,0,0
-161,372,0,0,0,0,0,0,0,0,0,-1,1063,652,0,0
-154,372,0,0,0,0,0,0,0,0,0,-1,1070,652,0,0
-147,372,0,0,0,0,0,0,0,0,0,-1,1077,652,0,0
-140,372,0,0,0,0,0,0,0,0,0,-1,1084,652,0,0
-133,372,0,0,0,0,0,0,0,0,0,-1,1091,652,0,0
-126,372,0,0,0,0,0,0,0,0,0,-1,1098,652,0,0
-119,372,0,0,0,0,0,0,0,0,0,-1,1105,652,0,0
-112,372,0,0,0,0,0,0,0,0,0,-1,1112,652,0,0
-105,372,0,0,0,0,0,0,0,0,0,-1,1119,652,0,0
-98,372,0,0,0,0,0,0,0,0,0,-1,1126,652,0,0
-91,372,0,0,0,0,0,0,0,0,0,-1,1133,652,0,0
-84,372,0,0,0,0,0,0,0,0,0,-1,1140,652,0,0
-77,372,0,0,0,0,0,0,0,0,0,-1,1147,652,0,0
-70,372,0,0,0,0,0,0,0,0,0,-1,1154,652,0,0
-63,372,0,0,0,0,0,0,0,0,0,-1,1161,652,0,0
-56,372,0,0,0,0,0,0,0,0,0,-1,1168,652,0,0
-49,372,0,0,0,0,0,0,0,0,0,-1,1175,652,0,0
-42,372,0,0,0,0,0,0,0,0,0,-1,1182,652,0,0
-35,372,0,0,0,0,0,0,0,0,0,-1,1189,652,0,0
-28,372,0,0,0,0,0,0,0,0,0,-1,1196,652,0,0
-21,372,0,0,0,0,0,0,0,0,0,-1,1203,652,0,0
-14,372,0,0,0,0,0,0,0,0,0,-1,1210,652,0,0
-7,372,0,0,0,0,0,0,0,0,0,-1,1217,652,0,0
0,372,0,0,0,0,0,0,0,0,0,-1,1224,652,0,0
7,372,0,0,0,0,0,0,0,0,0,-1,1231,652,0,0
14,372,0,0,0,0,0,0,0,0,0,-1,1238,652,0,0
21,372,0,0,0,0,0,0,0,0,0,-1,1245,652,0,0
28,372,0,0,0,0,0,0,0,0,0,-1,1252,652,0,0
35,372,0,0,0,0,0,0,0,0,0,-1,1259,652,0,0
42,372,0,0,0,0,0,0,0,0,0,-1,1266,652,0,0
49,372,0,0,0,0,0,0,0,0,0,-1,1273,652,0,0
56,372,0,0,0,0,0,0,0,0,0,-1,1280,652,0,0
63,372,0,0,0,0,0,0,0,0,0,-1,1287,652,0,0
70,372,0,0,0,0,0,0,0,0,0,-1,1294,652,0,0
77,372,0,0,0,0,0,0,0,0,0,-1,1301,652,0,0
84,372,0,0,0,0,0,0,0,0,0,-1,1308,652,0,0
91,372,0,0,0,0,0,0,0,0,0,-1,1315,652,0,0
98,372,0,0,0,0,0,0,0,0,0,-1,1322,652,0,0
105,372,0,0,0,0,0,0,0,0,0,-1,1329,652,0,0
112,372,0,0,0,0,0,0,0,0,0,-1,1336,652,0,0
119,372,0,0,0,0,0,0,0,0,0,-1,1343,652,0,0
126,372,0,0,0,0,0,0,0,0,0,-1,1350,652,0,0
133,372,0,0,0,0,0,0,0,0,0,-1,1357,652,0,0
140,372,0,0,0,0,0,0,0,0,0,-1,1364,652,0,0
147,372,0,0,0,0,0,0,0,0,0,-1,1371,652,0,0
154,372,0,0,0,0,0,0,0,0,0,-1,1378,652,0,0
161,372,0,0,0,0,0,0,0,0,0,-1,1385,652,0,0
168,372,0,0,0,0,0,0,0,0,0,-1,1392,652,0,0
175,372,0,0,0,0,0,0,0,0,0,-1,1399,652,0,0
182,372,0,0,0,0,0,0,0,0,0,-1,1406,652,0,0
189,372,0,0,0,0,0,0,0,0,0,-1,1413,652,0,0
196,372,0,0,0,0,0,0,0,0,0,-1,1420,652,0,0
203,372,0,0,0,0,0,0,0,0,0,-1,1427,652,0,0
210,372,0,0,0,0,0,0,0,0,0,-1,1434,652,0,0
217,372,0,0,0,0,0,0,0,0,0,-1,1441,652,0,0
224,372,0,0,0,0,0,0,0,0,0,-1,1448,652,0,0
231,372,0,0,0,0,0,0,0,0,0,-1,1455,652,0,0
238,372,0,0,0,0,0,0,0,0,0,-1,1462,652,0,0
245,372,0,0,0,0,0,0,0,0,0,-1,1469,652,0,0
252,372,0,0,0,0,0,0,0,0,0,-1,1476,652,0,0
259,372,0,0,0,0,0,0,0,0,0,-1,1483,652,0,0
266,372,0,0,0,0,0,0,0,0,0,-1,1490,652,0,0
273,372,0,0,0,0,0,0,0,0,0,-1,1497,652,0,0
280,372,0,0,0,0,0,0,0,0,0,-1,1504,652,0,0
287,372,0,0,0,0,0,0,0,0,0,-1,1511,652,0,0
294,372,0,0,0,0,0,0,0,0,0,-1,1518,652,0,0
301,372,0,0,0,0,0,0,0,0,0,-1,1525,652,0,0
308,372,0,0,0,0,0,0,0,0,0,-1,1532,652,0,0
315,372,0,0,0,0,0,0,0,0,0,-1,1539,652,0,0
322,372,0,0,0,0,0,0,0,0,0,-1,1546,652,0,0
329,372,0,0,0,0,0,0,0,0,0,-1,1553,652,0,0
336,372,0,0,0,0,0,0,0,0,0,-1,1560,652,0,0
343,372,0,0,0,0,0,0,0,0,0,-1,1567,652,0,0
350,372,0,0,0,0,0,0,0,0,0,-1,1574,652,0,0
357,372,0,0,0,0,0,0,0,0,0,-1,1581,652,0,0
364,372,0,0,0,0,0,0,0,0,0,-1,1588,652,0,0
371,372,0,0,0,0,0,0,0,0,0,-1,1595,652,0,0
378,372,0,0,0,0,0,0,0,0,0,-1,1602,652,0,0
385,372,0,0,0,0,0,0,0,0,0,-1,1609,652,0,0
392,372,0,0,0,0,0,0,0,0,0,-1,1616,652,0,0
399,372,0,0,0,0,0,0,0,0,0,-1,1623,652,0,0
406,372,0,0,0,0,0,0,0,0,0,-1,1630,652,0,0
413,372,0,0,0,0,0,0,0,0,0,-1,1637,652,0,0
420,372,0,0,0,0,0,0,0,0,0,-1,1644,652,0,0
427,372,0,0,0,0,0,0,0,0,0,-1,1651,652,0,0
434,372,0,0,0,0,0,0,0,0,0,-1,1658,652,0,0
441,372,0,0,0,0,0,0,0,0,0,-1,1665,652,0,0
448,372,0,0,0,0,0,0,0,0,0,-1,1672,652,0,0
455,372,0,0,0,0,0,0,0,0,0,-1,1679,652,0,0
462,372,0,0,0,0,0,0,0,0,0,-1,1686,652,0,0
469,372,0,0,0,0,0,0,0,0,0,-1,1693,652,0,0
476,372,0,0,0,0,0,0,0,0,0,-1,1700,652,0,0
483,372,8.74182,1.53125,0,0,0,0,0,0,0,-1,1707,652,8.74186,-1.53126
490,372,9.78455,1.67096,0,0,0,0,0,0,0,-1,1714,652,9.7846,-1.67093
497,372,9.97644,1.46069,0,0,0,0,0,0,0,-1,1721,652,9.97647,-1.46071
504,372,10.1216,1.28375,0,0,0,0,0,0,0,-1,1728,652,10.1216,-1.28376
511,372,11.7367,-0.0272217,0,0,0,0,0,0,0,-1,1735,652,11.7367,0.0272326
518,372,12.0657,-0.0995483,0,0,0,0,0,0,0,-1,1742,652,12.0657,0.0995285
525,372,12.3947,-0.171814,0,0,0,0,0,0,0,-1,1749,652,12.3946,0.171824
532,372,9.36597,1.72034,0,0,0,0,0,0,0,-1,1756,652,9.36597,-1.72036
539,372,7.82886,-0.0865479,0,0,0,0,0,0,0,-1,1763,652,7.82882,0.0865771
546,372,10.953,-0.187195,0,0,0,0,0,0,0,-1,1770,652,10.953,0.187181
553,372,14.1201,-4.83234,0,0,0,0,0,0,0,-1,1777,652,14.1201,4.83235
560,372,20.1057,-8.06934,0,0,0,0,0,0,0,-1,1784,652,20.1058,8.06936
567,372,25.4099,-10.9695,0,0,0,0,0,0,0,-1,1791,652,25.4099,10.9695
574,372,25.3911,-10.1816,0.00168241,0.00142548,0.000389314,0.00196391,0.00114398,0.626038,0.001139,0.0397321,1798,652,25.3912,10.1816
581,372,25.3604,-9.60388,0.00103818,0.00131136,0.000206056,0.00142198,0.000927553,1.07808,0.000833581,0.0219212,1805,652,25.3603,9.60387
588,372,25.3014,-8.94281,0.000809921,0.00122373,0.00022457,0.00132218,0.000711471,1.15764,0.000764099,0.0180294,1812,652,25.3014,8.94278
595,372,25.2609,-8.30304,0.000875864,0.00139787,0.000416467,0.00162836,0.000645371,1.06531,0.000946846,0.0154857,1819,652,25.2608,8.30304
602,372,25.2645,-7.66858,0.00120239,0.00169222,0.000772439,0.00225764,0.00063697,0.938917,0.00134406,0.0158808,1826,652,25.2646,7.66859
609,372,25.1709,-7.0235,0.00155452,0.00208441,0.00119346,0.00304198,0.000596942,0.894625,0.00186119,0.0171637,1833,652,25.1709,7.02348
616,372,25.156,-6.33282,0.0017245,0.00241735,0.00150102,0.00361141,0.000530446,0.898808,0.00225171,0.0163608,1840,652,25.156,6.33283
623,372,25.179,-5.63538,0.0018822,0.00287124,0.00192683,0.004366,0.000387443,0.911012,0.0027905,0.012556,1847,652,25.179,5.63537
630,372,25.1545,-4.99097,0.00159569,0.00325832,0.00218468,0.0047645,8.95013e-05,0.967199,0.00314693,0.016964,1854,652,25.1546,4.99096
637,372,25.1288,-4.36749,0.000917373,0.00360051,0.00230721,0.00492784,-0.000409961,1.04874,0.00343006,0.0285566,1861,652,25.1288,4.36751
644,372,25.1361,-3.65436,0,0,0,0,0,0,0,-1,1868,652,25.1361,3.65435
651,372,21.3998,-0.888,0,0,0,0,0,0,0,-1,1875,652,21.3998,0.887992
658,372,14.157,0.280273,0,0,0,0,0,0,0,-1,1882,652,14.157,-0.280264
665,372,15.2286,0.463867,0,0,0,0,0,0,0,-1,1889,652,15.2287,-0.463854
672,372,9.34106,1.48444,0,0,0,0,0,0,0,-1,1896,652,9.34109,-1.48444
679,372,10.7308,2.32391,0,0,0,0,0,0,0,-1,1903,652,10.7309,-2.3239
686,372,11.6295,2.52997,0,0,0,0,0,0,0,-1,1910,652,11.6296,-2.52996
693,372,0,0,0,0,0,0,0,0,0,-1,1917,652,0,0
700,372,0,0,0,0,0,0,0,0,0,-1,1924,652,0,0
707,372,0,0,0,0,0,0,0,0,0,-1,1931,652,0,0
714,372,0,0,0,0,0,0,0,0,0,-1,1938,652,0,0
721,372,0,0,0,0,0,0,0,0,0,-1,1945,652,0,0
728,372,0,0,0,0,0,0,0,0,0,-1,1952,652,0,0
735,372,0,0,0,0,0,0,0,0,0,-1,1959,652,0,0
742,372,0,0,0,0,0,0,0,0,0,-1,1966,652,0,0
749,372,0,0,0,0,0,0,0,0,0,-1,1973,652,0,0
756,372,0,0,0,0,0,0,0,0,0,-1,1980,652,0,0
763,372,0,0,0,0,0,0,0,0,0,-1,1987,652,0,0
770,372,0,0,0,0,0,0,0,0,0,-1,1994,652,0,0
777,372,0,0,0,0,0,0,0,0,0,-1,2001,652,0,0
784,372,0,0,0,0,0,0,0,0,0,-1,2008,652,0,0
791,372,0,0,0,0,0,0,0,0,0,-1,2015,652,0,0
798,372,0,0,0,0,0,0,0,0,0,-1,2022,652,0,0
805,372,0,0,0,0,0,0,0,0,0,-1,2029,652,0,0
812,372,0,0,0,0,0,0,0,0,0,-1,2036,652,0,0
-700,365,0,0,0,0,0,0,0,0,0,-1,524,659,0,0
-693,365,0,0,0,0,0,0,0,0,0,-1,531,659,0,0
-686,365,0,0,0,0,0,0,0,0,0,-1,538,659,0,0
-679,365,0,0,0,0,0,0,0,0,0,-1,545,659,0,0
-672,365,0,0,0,0,0,0,0,0,0,-1,552,659,0,0
-665,365,0,0,0,0,0,0,0,0,0,-1,559,659,0,0
-658,365,0,0,0,0,0,0,0,0,0,-1,566,659,0,0
-651,365,0,0,0,0,0,0,0,0,0,-1,573,659,0,0
-644,365,0,0,0,0,0,0,0,0,0,-1,580,659,0,0
-637,365,0,0,0,0,0,0,0,0,0,-1,587,659,0,0
-630,365,0,0,0,0,0,0,0,0,0,-1,594,659,0,0
-623,365,0,0,0,0,0,0,0,0,0,-1,601,659,0,0
-616,365,0,0,0,0,0,0,0,0,0,-1,608,659,0,0
-609,365,0,0,0,0,0,0,0,0,0,-1,615,659,0,0
-602,365,0,0,0,0,0,0,0,0,0,-1,622,659,0,0
-595,365,0,0,0,0,0,0,0,0,0,-1,629,659,0,0
-588,365,0,0,0,0,0,0,0,0,0,-1,636,659,0,0
-581,365,0,0,0,0,0,0,0,0,0,-1,643,659,0,0
-574,365,-7.69281,1.59015,0,0,0,0,0,0,0,-1,650,659,-7.69282,-1.59018
-567,365,-8.2583,1.72638,0,0,0,0,0,0,0,-1,657,659,-8.25827,-1.72637
-560,365,-7.17767,0.275757,0,0,0,0,0,0,0,-1,664,659,-7.17768,-0.27577
-553,365,-10.0349,-0.169617,0,0,0,0,0,0,0,-1,671,659,-10.0349,0.169593
-546,365,-10.6303,-1.51642,0,0,0,0,0,0,0,-1,678,659,-10.6303,1.5164
-539,365,-8.38599,1.52936,0,0,0,0,0,0,0,-1,685,659,-8.38598,-1.52935
-532,365,-8.52863,0.166504,0,0,0,0,0,0,0,-1,692,659,-8.52863,-0.166501
-525,365,-9.28229,-2.62726,0,0,0,0,0,0,0,-1,699,659,-9.28227,2.62724
-518,365,-14.4214,-5.21277,0,0,0,0,0,0,0,-1,706,659,-14.4214,5.21274
-511,365,-14.3855,-5.96741,0.0023719,0.00478341,-0.0027015,0.00653603,0.000619286,-0.995297,0.00416629,0.0357437,713,659,-14.3855,5.96738
-504,365,-14.371,-6.61292,0.00213153,0.00333698,-0.00201136,0.00483398,0.000634534,-0.93097,0.00303335,0.0120443,720,659,-14.371,6.61292
-497,365,-14.3906,-7.25629,0.00199973,0.00227478,-0.00152987,0.0036733,0.000601216,-0.830224,0.0022751,0.0129331,727,659,-14.3906,7.25626
-490,365,-14.4259,-7.90387,0.00192242,0.00144621,-0.00123026,0.0029374,0.00043123,-0.689809,0.00183153,0.0147521,734,659,-14.4259,7.90385
-483,365,-14.4627,-8.53253,0.00198999,0.000972159,-0.00104687,0.00264509,0.000317058,-0.559152,0.00166779,0.0138865,741,659,-14.4627,8.53252
-476,365,-14.4192,-9.13336,0.00215299,0.000776864,-0.00106348,0.00273158,0.000198271,-0.498269,0.00175869,0.0165845,748,659,-14.4192,9.13337
-469,365,-14.4478,-9.75525,0.00233345,0.000692255,-0.00114708,0.00292323,0.000102467,-0.474913,0.00191558,0.0167962,755,659,-14.4478,9.75524
-462,365,-14.5218,-10.4037,0.00255332,0.000710878,-0.0012738,0.00320411,6.00929e-05,-0.472331,0.00211632,0.0154144,762,659,-14.5218,10.4037
-455,365,-14.5438,-11.0296,0.0028534,0.000604723,-0.00139196,0.00351839,-6.02658e-05,-0.445677,0.00236594,0.0175166,769,659,-14.5438,11.0296
-448,365,-14.4604,-11.7652,0.00316371,0.000648354,-0.00154821,0.0039007,-8.86371e-05,-0.444287,0.00263051,0.0405818,776,659,-14.4605,11.7652
-441,365,-14.2319,-12.6138,0,0,0,0,0,0,0,-1,783,659,-14.2319,12.6138
-434,365,-5.45056,-3.98041,0,0,0,0,0,0,0,-1,790,659,-5.45055,3.98042
-427,365,-5.05377,-4.74689,0,0,0,0,0,0,0,-1,797,659,-5.05376,4.7469
-420,365,-4.58813,-3.16376,0,0,0,0,0,0,0,-1,804,659,-4.58816,3.16374
-413,365,0.141357,0.672729,0,0,0,0,0,0,0,-1,811,659,0.141365,-0.672714
-406,365,-1.75067,-0.934448,0,0,0,0,0,0,0,-1,818,659,-1.7507,0.934424
-399,365,-4.10242,-1.25439,0,0,0,0,0,0,0,-1,825,659,-4.10244,1.25438
-392,365,-7.46545,-0.779724,0,0,0,0,0,0,0,-1,832,659,-7.46543,0.779744
-385,365,-6.27875,-0.887573,0,0,0,0,0,0,0,-1,839,659,-6.27874,0.887545
-378,365,-5.34503,-0.263306,0,0,0,0,0,0,0,-1,846,659,-5.34504,0.263275
-371,365,0,0,0,0,0,0,0,0,0,-1,853,659,0,0
-364,365,0,0,0,0,0,0,0,0,0,-1,860,659,0,0
-357,365,0,0,0,0,0,0,0,0,0,-1,867,659,0,0
-350,365,0,0,0,0,0,0,0,0,0,-1,874,659,0,0
-343,365,0,0,0,0,0,0,0,0,0,-1,881,659,0,0
-336,365,0,0,0,0,0,0,0,0,0,-1,888,659,0,0
-329,365,0,0,0,0,0,0,0,0,0,-1,895,659,0,0
-322,365,0,0,0,0,0,0,0,0,0,-1,902,659,0,0
-315,365,0,0,0,0,0,0,0,0,0,-1,909,659,0,0
-308,365,0,0,0,0,0,0,0,0,0,-1,916,659,0,0
-301,365,0,0,0,0,0,0,0,0,0,-1,923,659,0,0
-294,365,0,0,0,0,0,0,0,0,0,-1,930,659,0,0
-287,365,0,0,0,0,0,0,0,0,0,-1,937,659,0,0
-280,365,0,0,0,0,0,0,0,0,0,-1,944,659,0,0
-273,365,0,0,0,0,0,0,0,0,0,-1,951,659,0,0
-266,365,0,0,0,0,0,0,0,0,0,-1,958,659,0,0
-259,365,0,0,0,0,0,0,0,0,0,-1,965,659,0,0
-252,365,0,0,0,0,0,0,0,0,0,-1,972,659,0,0
-245,365,0,0,0,0,0,0,0,0,0,-1,979,659,0,0
-238,365,0,0,0,0,0,0,0,0,0,-1,986,659,0,0
-231,365,0,0,0,0,0,0,0,0,0,-1,993,659,0,0
-224,365,0,0,0,0,0,0,0,0,0,-1,1000,659,0,0
-217,365,0,0,0,0,0,0,0,0,0,-1,1007,659,0,0
-210,365,0,0,0,0,0,0,0,0,0,-1,1014,659,0,0
-203,365,0,0,0,0,0,0,0,0,0,-1,1021,659,0,0
-196,365,0,0,0,0,0,0,0,0,0,-1,1028,659,0,0
-189,365,0,0,0,0,0,0,0,0,0,-1,1035,659,0,0
-182,365,0,0,0,0,0,0,0,0,0,-1,1042,659,0,0
-175,365,0,0,0,0,0,0,0,0,0,-1,1049,659,0,0
-168,365,0,0,0,0,0,0,0,0,0,-1,1056,659,0,0
-161,365,0,0,0,0,0,0,0,0,0,-1,1063,659,0,0
-154,365,0,0,0,0,0,0,0,0,0,-1,1070,659,0,0
-147,365,0,0,0,0,0,0,0,0,0,-1,1077,659,0,0
-140,365,0,0,0,0,0,0,0,0,0,-1,1084,659,0,0
-133,365,0,0,0,0,0,0,0,0,0,-1,1091,659,0,0
-126,365,0,0,0,0,0,0,0,0,0,-1,1098,659,0,0
-119,365,0,0,0,0,0,0,0,0,0,-1,1105,659,0,0
-112,365,0,0,0,0,0,0,0,0,0,-1,1112,659,0,0
-105,365,0,0,0,0,0,0,0,0,0,-1,1119,659,0,0
-98,365,0,0,0,0,0,0,0,0,0,-1,1126,659,0,0
-91,365,0,0,0,0,0,0,0,0,0,-1,1133,659,0,0
-84,365,0,0,0,0,0,0,0,0,0,-1,1140,659,0,0
-77,365,0,0,0,0,0,0,0,0,0,-1,1147,659,0,0
-70,365,0,0,0,0,0,0,0,0,0,-1,1154,659,0,0
-63,365,0,0,0,0,0,0,0,0,0,-1,1161,659,0,0
-56,365,0,0,0,0,0,0,0,0,0,-1,1168,659,0,0
-49,365,0,0,0,0,0,0,0,0,0,-1,1175,659,0,0
-42,365,0,0,0,0,0,0,0,0,0,-1,1182,659,0,0
-35,365,0,0,0,0,0,0,0,0,0,-1,1189,659,0,0
-28,365,0,0,0,0,0,0,0,0,0,-1,1196,659,0,0
-21,365,0,0,0,0,0,0,0,0,0,-1,1203,659,0,0
-14,365,0,0,0,0,0,0,0,0,0,-1,1210,659,0,0
-7,365,0,0,0,0,0,0,0,0,0,-1,1217,659,0,0
0,365,0,0,0,0,0,0,0,0,0,-1,1224,659,0,0
7,365,0,0,0,0,0,0,0,0,0,-1,1231,659,0,0
14,365,0,0,0,0,0,0,0,0,0,-1,1238,659,0,0
21,365,0,0,0,0,0,0,0,0,0,-1,1245,659,0,0
28,365,0,0,0,0,0,0,0,0,0,-1,1252,659,0,0
35,365,0,0,0,0,0,0,0,0,0,-1,1259,659,0,0
42,365,0,0,0,0,0,0,0,0,0,-1,1266,659,0,0
49,365,0,0,0,0,0,0,0,0,0,-1,1273,659,0,0
56,365,0,0,0,0,0,0,0,0,0,-1,1280,659,0,0
63,365,0,0,0,0,0,0,0,0,0,-1,1287,659,0,0
70,365,0,0,0,0,0,0,0,0,0,-1,1294,659,0,0
77,365,0,0,0,0,0,0,0,0,0,-1,1301,659,0,0
84,365,0,0,0,0,0,0,0,0,0,-1,1308,659,0,0
91,365,0,0,0,0,0,0,0,0,0,-1,1315,659,0,0
98,365,0,0,0,0,0,0,0,0,0,-1,1322,659,0,0
105,365,0,0,0,0,0,0,0,0,0,-1,1329,659,0,0
112,365,0,0,0,0,0,0,0,0,0,-1,1336,659,0,0
119,365,0,0,0,0,0,0,0,0,0,-1,1343,659,0,0
126,365,0,0,0,0,0,0,0,0,0,-1,1350,659,0,0
133,365,0,0,0,0,0,0,0,0,0,-1,1357,659,0,0
140,365,0,0,0,0,0,0,0,0,0,-1,1364,659,0,0
147,365,0,0,0,0,0,0,0,0,0,-1,1371,659,0,0
154,365,0,0,0,0,0,0,0,0,0,-1,1378,659,0,0
161,365,0,0,0,0,0,0,0,0,0,-1,1385,659,0,0
168,365,0,0,0,0,0,0,0,0,0,-1,1392,659,0,0
175,365,0,0,0,0,0,0,0,0,0,-1,1399,659,0,0
182,365,0,0,0,0,0,0,0,0,0,-1,1406,659,0,0
189,365,0,0,0,0,0,0,0,0,0,-1,1413,659,0,0
196,365,0,0,0,0,0,0,0,0,0,-1,1420,659,0,0
203,365,0,0,0,0,0,0,0,0,0,-1,1427,659,0,0
210,365,0,0,0,0,0,0,0,0,0,-1,1434,659,0,0
217,365,0,0,0,0,0,0,0,0,0,-1,1441,659,0,0
224,365,0,0,0,0,0,0,0,0,0,-1,1448,659,0,0
231,365,0,0,0,0,0,0,0,0,0,-1,1455,659,0,0
238,365,0,0,0,0,0,0,0,0,0,-1,1462,659,0,0
245,365,0,0,0,0,0,0,0,0,0,-1,1469,659,0,0
252,365,0,0,0,0,0,0,0,0,0,-1,1476,659,0,0
259,365,0,0,0,0,0,0,0,0,0,-1,1483,659,0,0
266,365,0,0,0,0,0,0,0,0,0,-1,1490,659,0,0
273,365,0,0,0,0,0,0,0,0,0,-1,1497,659,0,0
280,365,0,0,0,0,0,0,0,0,0,-1,1504,659,0,0
287,365,0,0,0,0,0,0,0,0,0,-1,1511,659,0,0
294,365,0,0,0,0,0,0,0,0,0,-1,1518,659,0,0
301,365,0,0,0,0,0,0,0,0,0,-1,1525,659,0,0
308,365,0,0,0,0,0,0,0,0,0,-1,1532,659,0,0
315,365,0,0,0,0,0,0,0,0,0,-1,1539,659,0,0
322,365,0,0,0,0,0,0,0,0,0,-1,1546,659,0,0
329,365,0,0,0,0,0,0,0,0,0,-1,1553,659,0,0
336,365,0,0,0,0,0,0,0,0,0,-1,1560,659,0,0
343,365,0,0,0,0,0,0,0,0,0,-1,1567,659,0,0
350,365,0,0,0,0,0,0,0,0,0,-1,1574,659,0,0
357,365,0,0,0,0,0,0,0,0,0,-1,1581,659,0,0
364,365,0,0,0,0,0,0,0,0,0,-1,1588,659,0,0
371,365,0,0,0,0,0,0,0,0,0,-1,1595,659,0,0
378,365,0,0,0,0,0,0,0,0,0,-1,1602,659,0,0
385,365,0,0,0,0,0,0,0,0,0,-1,1609,659,0,0
392,365,0,0,0,0,0,0,0,0,0,-1,1616,659,0,0
399,365,0,0,0,0,0,0,0,0,0,-1,1623,659,0,0
406,365,0,0,0,0,0,0,0,0,0,-1,1630,659,0,0
413,365,0,0,0,0,0,0,0,0,0,-1,1637,659,0,0
420,365,0,0,0,0,0,0,0,0,0,-1,1644,659,0,0
427,365,0,0,0,0,0,0,0,0,0,-1,1651,659,0,0
434,365,0,0,0,0,0,0,0,0,0,-1,1658,659,0,0
441,365,0,0,0,0,0,0,0,0,0,-1,1665,659,0,0
448,365,0,0,0,0,0,0,0,0,0,-1,1672,659,0,0
455,365,0,0,0,0,0,0,0,0,0,-1,1679,659,0,0
462,365,0,0,0,0,0,0,0,0,0,-1,1686,659,0,0
469,365,0,0,0,0,0,0,0,0,0,-1,1693,659,0,0
476,365,0,0,0,0,0,0,0,0,0,-1,1700,659,0,0
483,365,0,0,0,0,0,0,0,0,0,-1,1707,659,0,0
490,365,8.39551,0.471252,0,0,0,0,0,0,0,-1,1714,659,8.39551,-0.471241
497,365,9.89233,1.35394,0,0,0,0,0,0,0,-1,1721,659,9.89237,-1.35396
504,365,10.1414,1.18005,0,0,0,0,0,0,0,-1,1728,659,10.1413,-1.18004
511,365,10.5151,0.993896,0,0,0,0,0,0,0,-1,1735,659,10.5152,-0.993894
518,365,11.2029,0.398132,0,0,0,0,0,0,0,-1,1742,659,11.2029,-0.398136
525,365,15.5748,3.85303,0,0,0,0,0,0,0,-1,1749,659,15.5748,-3.85303
532,365,11.2446,1.00629,0,0,0,0,0,0,0,-1,1756,659,11.2446,-1.00631
539,365,12.6301,1.03204,0,0,0,0,0,0,0,-1,1763,659,12.6302,-1.03204
546,365,11.647,0.84198,0,0,0,0,0,0,0,-1,1770,659,11.6469,-0.841955
553,365,12.028,-0.558899,0,0,0,0,0,0,0,-1,1777,659,12.028,0.558873
560,365,14.5372,-4.55548,0,0,0,0,0,0,0,-1,1784,659,14.5373,4.55547
567,365,20.5676,-7.53888,0,0,0,0,0,0,0,-1,1791,659,20.5676,7.53887
574,365,26.2485,-10.103,0,0,0,0,0,0,0,-1,1798,659,26.2485,10.103
581,365,26.0209,-9.50879,0,0,0,0,0,0,0,-1,1805,659,26.0209,9.50879
588,365,25.9375,-8.97687,0.000585183,0.00129204,4.10868e-05,0.00129442,0.000582803,1.51293,0.000748568,0.0249651,1812,659,25.9375,8.97689
595,365,25.9237,-8.27557,0.000611609,0.0013571,0.00018486,0.00140042,0.000568287,1.3406,0.000813302,0.0147006,1819,659,25.9238,8.27558
602,365,25.8943,-7.61084,0.000854006,0.00149836,0.000445017,0.00172558,0.000626784,1.09871,0.00100861,0.0161884,1826,659,25.8943,7.61086
609,365,25.8229,-6.93585,0.00118185,0.00174773,0.0008037,0.00231684,0.000612743,0.954645,0.00138621,0.0173329,1833,659,25.8229,6.93584
616,365,25.8253,-6.24506,0.00132963,0.00194437,0.00106022,0.00274087,0.000533126,0.926488,0.00167801,0.0185265,1840,659,25.8253,6.24508
623,365,25.8575,-5.60431,0.00136123,0.00222233,0.00137701,0.00323454,0.000349031,0.936918,0.00204994,0.0117442,1847,659,25.8576,5.60428
630,365,25.8147,-4.97534,0.000941078,0.00245582,0.00153813,0.00341293,-1.6036e-05,1.01417,0.00228065,0.0157897,1854,659,25.8147,4.97534
637,365,25.7682,-4.35144,0.000165631,0.00261374,0.00155851,0.00337142,-0.000592048,1.11829,0.00246874,0.0212651,1861,659,25.7682,4.35144
644,365,25.7667,-3.68536,-0.00127464,0.00270953,0.00135659,0.00312758,-0.00169269,1.27187,0.00282379,0.0253252,1868,659,25.7667,3.68534
651,365,26.0123,-2.68939,0,0,0,0,0,0,0,-1,1875,659,26.0123,2.68938
658,365,24.745,-2.13275,0,0,0,0,0,0,0,-1,1882,659,24.745,2.13277
665,365,14.0961,0.769043,0,0,0,0,0,0,0,-1,1889,659,14.0961,-0.769063
672,365,10.0579,2.15088,0,0,0,0,0,0,0,-1,1896,659,10.0579,-2.15088
679,365,10.9718,2.19208,0,0,0,0,0,0,0,-1,1903,659,10.9718,-2.19211
686,365,12.2134,2.17108,0,0,0,0,0,0,0,-1,1910,659,12.2134,-2.17109
693,365,13.7141,1.98279,0,0,0,0,0,0,0,-1,1917,659,13.7141,-1.98278
700,365,0,0,0,0,0,0,0,0,0,-1,1924,659,0,0
707,365,0,0,0,0,0,0,0,0,0,-1,1931,659,0,0
714,365,0,0,0,0,0,0,0,0,0,-1,1938,659,0,0
721,365,0,0,0,0,0,0,0,0,0,-1,1945,659,0,0
728,365,0,0,0,0,0,0,0,0,0,-1,1952,659,0,0
735,365,0,0,0,0,0,0,0,0,0,-1,1959,659,0,0
742,365,0,0,0,0,0,0,0,0,0,-1,1966,659,0,0
749,365,0,0,0,0,0,0,0,0,0,-1,1973,659,0,0
756,365,0,0,0,0,0,0,0,0,0,-1,1980,659,0,0
763,365,0,0,0,0,0,0,0,0,0,-1,1987,659,0,0
770,365,0,0,0,0,0,0,0,0,0,-1,1994,659,0,0
777,365,0,0,0,0,0,0,0,0,0,-1,2001,659,0,0
784,365,0,0,0,0,0,0,0,0,0,-1,2008,659,0,0
791,365,0,0,0,0,0,0,0,0,0,-1,2015,659,0,0
798,365,0,0,0,0,0,0,0,0,0,-1,2022,659,0,0
805,365,0,0,0,0,0,0,0,0,0,-1,2029,659,0,0
812,365,0,0,0,0,0,0,0,0,0,-1,2036,659,0,0
-700,358,0,0,0,0,0,0,0,0,0,-1,524,666,0,0
-693,358,0,0,0,0,0,0,0,0,0,-1,531,666,0,0
-686,358,0,0,0,0,0,0,0,0,0,-1,538,666,0,0
-679,358,0,0,0,0,0,0,0,0,0,-1,545,666,0,0
-672,358,0,0,0,0,0,0,0,0,0,-1,552,666,0,0
-665,358,0,0,0,0,0,0,0,0,0,-1,559,666,0,0
-658,358,0,0,0,0,0,0,0,0,0,-1,566,666,0,0
-651,358,0,0,0,0,0,0,0,0,0,-1,573,666,0,0
-644,358,0,0,0,0,0,0,0,0,0,-1,580,666,0,0
-637,358,0,0,0,0,0,0,0,0,0,-1,587,666,0,0
-630,358,0,0,0,0,0,0,0,0,0,-1,594,666,0,0
-623,358,0,0,0,0,0,0,0,0,0,-1,601,666,0,0
-616,358,0,0,0,0,0,0,0,0,0,-1,608,666,0,0
-609,358,0,0,0,0,0,0,0,0,0,-1,615,666,0,0
-602,358,0,0,0,0,0,0,0,0,0,-1,622,666,0,0
-595,358,0,0,0,0,0,0,0,0,0,-1,629,666,0,0
-588,358,0,0,0,0,0,0,0,0,0,-1,636,666,0,0
-581,358,-8.31616,1.61993,0,0,0,0,0,0,0,-1,643,666,-8.31614,-1.61993
-574,358,-8.22406,1.75385,0,0,0,0,0,0,0,-1,650,666,-8.22408,-1.75383
-567,358,-8.14215,1.91577,0,0,0,0,0,0,0,-1,657,666,-8.14214,-1.91579
-560,358,-10.6086,2.18872,0,0,0,0,0,0,0,-1,664,666,-10.6086,-2.18873
-553,358,-13.4767,1.09552,0,0,0,0,0,0,0,-1,671,666,-13.4767,-1.09551
-546,358,-13.3743,-0.185059,0,0,0,0,0,0,0,-1,678,666,-13.3743,0.185037
-539,358,-9.43884,-2.04785,0,0,0,0,0,0,0,-1,685,666,-9.43884,2.04785
-532,358,-12.4141,-2.36572,0,0,0,0,0,0,0,-1,692,666,-12.4141,2.3657
-525,358,-12.731,-3.88031,0,0,0,0,0,0,0,-1,699,666,-12.731,3.88029
-518,358,-14.9912,-5.31177,0,0,0,0,0,0,0,-1,706,666,-14.9912,5.31176
-511,358,-15.0027,-5.94415,0.00218277,0.0040798,-0.00224553,0.00556893,0.000693643,-0.985232,0.00350436,0.0160868,713,666,-15.0027,5.94418
-504,358,-15.0194,-6.56891,0.00201888,0.00273825,-0.00165181,0.00406909,0.000688046,-0.892602,0.00251495,0.0120689,720,666,-15.0194,6.5689
-497,358,-15.0228,-7.22229,0.00195935,0.00179132,-0.00125269,0.00313084,0.000619826,-0.751913,0.00191436,0.0118958,727,666,-15.0228,7.22231
-490,358,-15.0409,-7.85797,0.00192583,0.0010581,-0.00101,0.00259121,0.000392723,-0.582531,0.00161259,0.0114967,734,666,-15.0409,7.85799
-483,358,-15.081,-8.47229,0.0020635,0.000708346,-0.000899096,0.00251175,0.000260097,-0.462491,0.00159489,0.0107628,741,666,-15.081,8.47227
-476,358,-15.0482,-9.06683,0.00229798,0.000629426,-0.000988239,0.00275701,0.000170399,-0.434838,0.00178392,0.0133776,748,666,-15.0482,9.06684
-469,358,-15.1013,-9.70313,0.00257114,0.000682376,-0.00116773,0.00312857,0.000124943,-0.445377,0.00204534,0.0168588,755,666,-15.1013,9.70315
-462,358,-15.1672,-10.3685,0.00291701,0.000850186,-0.00141151,0.00363297,0.000134224,-0.469415,0.0023785,0.0181425,762,666,-15.1672,10.3685
-455,358,-15.0734,-11.0533,0.00339019,0.000915641,-0.00165121,0.00421625,8.95848e-05,-0.463867,0.00278145,0.0450654,769,666,-15.0735,11.0533
-448,358,-14.9085,-12.0134,0,0,0,0,0,0,0,-1,776,666,-14.9085,12.0134
-441,358,-5.56293,-3.98041,0,0,0,0,0,0,0,-1,783,666,-5.56291,3.98043
-434,358,-5.21558,-4.43127,0,0,0,0,0,0,0,-1,790,666,-5.21559,4.43125
-427,358,-3.56189,-3.15729,0,0,0,0,0,0,0,-1,797,666,-3.56192,3.15729
-420,358,0.200195,1.08234,0,0,0,0,0,0,0,-1,804,666,0.200174,-1.08231
-413,358,0.0325317,0.161072,0,0,0,0,0,0,0,-1,811,666,0.0325501,-0.161098
-406,358,-3.85846,0.753113,0,0,0,0,0,0,0,-1,818,666,-3.85846,-0.753129
-399,358,-1.31213,0.190735,0,0,0,0,0,0,0,-1,825,666,-1.31215,-0.190763
-392,358,-3.73914,-0.832214,0,0,0,0,0,0,0,-1,832,666,-3.73915,0.832202
-385,358,-5.95178,-1.69141,0,0,0,0,0,0,0,-1,839,666,-5.9518,1.69143
-378,358,0,0,0,0,0,0,0,0,0,-1,846,666,0,0
-371,358,0,0,0,0,0,0,0,0,0,-1,853,666,0,0
-364,358,0,0,0,0,0,0,0,0,0,-1,860,666,0,0
-357,358,0,0,0,0,0,0,0,0,0,-1,867,666,0,0
-350,358,0,0,0,0,0,0,0,0,0,-1,874,666,0,0
-343,358,0,0,0,0,0,0,0,0,0,-1,881,666,0,0
-336,358,0,0,0,0,0,0,0,0,0,-1,888,666,0,0
-329,358,0,0,0,0,0,0,0,0,0,-1,895,666,0,0
-322,358,0,0,0,0,0,0,0,0,0,-1,902,666,0,0
-315,358,0,0,0,0,0,0,0,0,0,-1,909,666,0,0
-308,358,0,0,0,0,0,0,0,0,0,-1,916,666,0,0
-301,358,0,0,0,0,0,0,0,0,0,-1,923,666,0,0
-294,358,0,0,0,0,0,0,0,0,0,-1,930,666,0,0
-287,358,0,0,0,0,0,0,0,0,0,-1,937,666,0,0
-280,358,0,0,0,0,0,0,0,0,0,-1,944,666,0,0
-273,358,0,0,0,0,0,0,0,0,0,-1,951,666,0,0
-266,358,0,0,0,0,0,0,0,0,0,-1,958,666,0,0
-259,358,0,0,0,0,0,0,0,0,0,-1,965,666,0,0
-252,358,0,0,0,0,0,0,0,0,0,-1,972,666,0,0
-245,358,0,0,0,0,0,0,0,0,0,-1,979,666,0,0
-238,358,0,0,0,0,0,0,0,0,0,-1,986,666,0,0
-231,358,0,0,0,0,0,0,0,0,0,-1,993,666,0,0
-224,358,0,0,0,0,0,0,0,0,0,-1,1000,666,0,0
-217,358,0,0,0,0,0,0,0,0,0,-1,1007,666,0,0
-210,358,0,0,0,0,0,0,0,0,0,-1,1014,666,0,0
-203,358,0,0,0,0,0,0,0,0,0,-1,1021,666,0,0
-196,358,0,0,0,0,0,0,0,0,0,-1,1028,666,0,0
-189,358,0,0,0,0,0,0,0,0,0,-1,1035,666,0,0
-182,358,0,0,0,0,0,0,0,0,0,-1,1042,666,0,0
-175,358,0,0,0,0,0,0,0,0,0,-1,1049,666,0,0
-168,358,0,0,0,0,0,0,0,0,0,-1,1056,666,0,0
-161,358,0,0,0,0,0,0,0,0,0,-1,1063,666,0,0
-154,358,0,0,0,0,0,0,0,0,0,-1,1070,666,0,0
-147,358,0,0,0,0,0,0,0,0,0,-1,1077,666,0,0
-140,358,0,0,0,0,0,0,0,0,0,-1,1084,666,0,0
-133,358,0,0,0,0,0,0,0,0,0,-1,1091,666,0,0
-126,358,0,0,0,0,0,0,0,0,0,-1,1098,666,0,0
-119,358,0,0,0,0,0,0,0,0,0,-1,1105,666,0,0
-112,358,0,0,0,0,0,0,0,0,0,-1,1112,666,0,0
-105,358,0,0,0,0,0,0,0,0,0,-1,1119,666,0,0
-98,358,0,0,0,0,0,0,0,0,0,-1,1126,666,0,0
-91,358,0,0,0,0,0,0,0,0,0,-1,1133,666,0,0
-84,358,0,0,0,0,0,0,0,0,0,-1,1140,666,0,0
-77,358,0,0,0,0,0,0,0,0,0,-1,1147,666,0,0
-70,358,0,0,0,0,0,0,0,0,0,-1,1154,666,0,0
-63,358,0,0,0,0,0,0,0,0,0,-1,1161,666,0,0
-56,358,0,0,0,0,0,0,0,0,0,-1,1168,666,0,0
-49,358,0,0,0,0,0,0,0,0,0,-1,1175,666,0,0
-42,358,0,0,0,0,0,0,0,0,0,-1,1182,666,0,0
-35,358,0,0,0,0,0,0,0,0,0,-1,1189,666,0,0
-28,358,0,0,0,0,0,0,0,0,0,-1,1196,666,0,0
-21,358,0,0,0,0,0,0,0,0,0,-1,1203,666,0,0
-14,358,0,0,0,0,0,0,0,0,0,-1,1210,666,0,0
-7,358,0,0,0,0,0,0,0,0,0,-1,1217,666,0,0
0,358,0,0,0,0,0,0,0,0,0,-1,1224,666,0,0
7,358,0,0,0,0,0,0,0,0,0,-1,1231,666,0,0
14,358,0,0,0,0,0,0,0,0,0,-1,1238,666,0,0
21,358,0,0,0,0,0,0,0,0,0,-1,1245,666,0,0
28,358,0,0,0,0,0,0,0,0,0,-1,1252,666,0,0
35,358,0,0,0,0,0,0,0,0,0,-1,1259,666,0,0
42,358,0,0,0,0,0,0,0,0,0,-1,1266,666,0,0
49,358,0,0,0,0,0,0,0,0,0,-1,1273,666,0,0
56,358,0,0,0,0,0,0,0,0,0,-1,1280,666,0,0
63,358,0,0,0,0,0,0,0,0,0,-1,1287,666,0,0
70,358,0,0,0,0,0,0,0,0,0,-1,1294,666,0,0
77,358,0,0,0,0,0,0,0,0,0,-1,1301,666,0,0
84,358,0,0,0,0,0,0,0,0,0,-1,1308,666,0,0
91,358,0,0,0,0,0,0,0,0,0,-1,1315,666,0,0
98,358,0,0,0,0,0,0,0,0,0,-1,1322,666,0,0
105,358,0,0,0,0,0,0,0,0,0,-1,1329,666,0,0
112,358,0,0,0,0,0,0,0,0,0,-1,1336,666,0,0
119,358,0,0,0,0,0,0,0,0,0,-1,1343,666,0,0
126,358,0,0,0,0,0,0,0,0,0,-1,1350,666,0,0
133,358,0,0,0,0,0,0,0,0,0,-1,1357,666,0,0
140,358,0,0,0,0,0,0,0,0,0,-1,1364,666,0,0
147,358,0,0,0,0,0,0,0,0,0,-1,1371,666,0,0
154,358,0,0,0,0,0,0,0,0,0,-1,1378,666,0,0
161,358,0,0,0,0,0,0,0,0,0,-1,1385,666,0,0
168,358,0,0,0,0,0,0,0,0,0,-1,1392,666,0,0
175,358,0,0,0,0,0,0,0,0,0,-1,1399,666,0,0
182,358,0,0,0,0,0,0,0,0,0,-1,1406,666,0,0
189,358,0,0,0,0,0,0,0,0,0,-1,1413,666,0,0
196,358,0,0,0,0,0,0,0,0,0,-1,1420,666,0,0
203,358,0,0,0,0,0,0,0,0,0,-1,1427,666,0,0
210,358,0,0,0,0,0,0,0,0,0,-1,1434,666,0,0
217,358,0,0,0,0,0,0,0,0,0,-1,1441,666,0,0
224,358,0,0,0,0,0,0,0,0,0,-1,1448,666,0,0
231,358,0,0,0,0,0,0,0,0,0,-1,1455,666,0,0
238,358,0,0,0,0,0,0,0,0,0,-1,1462,666,0,0
245,358,0,0,0,0,0,0,0,0,0,-1,1469,666,0,0
252,358,0,0,0,0,0,0,0,0,0,-1,1476,666,0,0
259,358,0,0,0,0,0,0,0,0,0,-1,1483,666,0,0
266,358,0,0,0,0,0,0,0,0,0,-1,1490,666,0,0
273,358,0,0,0,0,0,0,0,0,0,-1,1497,666,0,0
280,358,0,0,0,0,0,0,0,0,0,-1,1504,666,0,0
287,358,0,0,0,0,0,0,0,0,0,-1,1511,666,0,0
294,358,0,0,0,0,0,0,0,0,0,-1,1518,666,0,0
301,358,0,0,0,0,0,0,0,0,0,-1,1525,666,0,0
308,358,0,0,0,0,0,0,0,0,0,-1,1532,666,0,0
315,358,0,0,0,0,0,0,0,0,0,-1,1539,666,0,0
322,358,0,0,0,0,0,0,0,0,0,-1,1546,666,0,0
329,358,0,0,0,0,0,0,0,0,0,-1,1553,666,0,0
336,358,0,0,0,0,0,0,0,0,0,-1,1560,666,0,0
343,358,0,0,0,0,0,0,0,0,0,-1,1567,666,0,0
350,358,0,0,0,0,0,0,0,0,0,-1,1574,666,0,0
357,358,0,0,0,0,0,0,0,0,0,-1,1581,666,0,0
364,358,0,0,0,0,0,0,0,0,0,-1,1588,666,0,0
371,358,0,0,0,0,0,0,0,0,0,-1,1595,666,0,0
378,358,0,0,0,0,0,0,0,0,0,-1,1602,666,0,0
385,358,0,0,0,0,0,0,0,0,0,-1,1609,666,0,0
392,358,0,0,0,0,0,0,0,0,0,-1,1616,666,0,0
399,358,0,0,0,0,0,0,0,0,0,-1,1623,666,0,0
406,358,0,0,0,0,0,0,0,0,0,-1,1630,666,0,0
413,358,0,0,0,0,0,0,0,0,0,-1,1637,666,0,0
420,358,0,0,0,0,0,0,0,0,0,-1,1644,666,0,0
427,358,0,0,0,0,0,0,0,0,0,-1,1651,666,0,0
434,358,0,0,0,0,0,0,0,0,0,-1,1658,666,0,0
441,358,0,0,0,0,0,0,0,0,0,-1,1665,666,0,0
448,358,0,0,0,0,0,0,0,0,0,-1,1672,666,0,0
455,358,0,0,0,0,0,0,0,0,0,-1,1679,666,0,0
462,358,0,0,0,0,0,0,0,0,0,-1,1686,666,0,0
469,358,0,0,0,0,0,0,0,0,0,-1,1693,666,0,0
476,358,0,0,0,0,0,0,0,0,0,-1,1700,666,0,0
483,358,0,0,0,0,0,0,0,0,0,-1,1707,666,0,0
490,358,0,0,0,0,0,0,0,0,0,-1,1714,666,0,0
497,358,8.57239,1.1322,0,0,0,0,0,0,0,-1,1721,666,8.57234,-1.13219
504,358,10.5972,0.832947,0,0,0,0,0,0,0,-1,1728,666,10.5972,-0.832968
511,358,10.6873,0.868469,0,0,0,0,0,0,0,-1,1735,666,10.6872,-0.868484
518,358,16.5884,2.34894,0,0,0,0,0,0,0,-1,1742,666,16.5884,-2.34894
525,358,15.7626,3.65344,0,0,0,0,0,0,0,-1,1749,666,15.7626,-3.65342
532,358,14.9368,4.95789,0,0,0,0,0,0,0,-1,1756,666,14.9367,-4.9579
539,358,15.1597,3.42694,0,0,0,0,0,0,0,-1,1763,666,15.1597,-3.42692
546,358,12.3792,1.53558,0,0,0,0,0,0,0,-1,1770,666,12.3792,-1.5356
553,358,11.6584,1.26172,0,0,0,0,0,0,0,-1,1777,666,11.6585,-1.26175
560,358,10.8234,1.43042,0,0,0,0,0,0,0,-1,1784,666,10.8233,-1.43041
567,358,10.1333,-0.955139,0,0,0,0,0,0,0,-1,1791,666,10.1333,0.955132
574,358,14.7886,-2.69293,0,0,0,0,0,0,0,-1,1798,666,14.7885,2.6929
581,358,20.1738,-6.76135,0,0,0,0,0,0,0,-1,1805,666,20.1738,6.76137
588,358,26.5406,-9.01495,0,0,0,0,0,0,0,-1,1812,666,26.5406,9.01496
595,358,26.5686,-8.24329,0.000401332,0.00143172,0.000132387,0.00144846,0.000384594,1.44503,0.000866378,0.0175914,1819,666,26.5686,8.24332
602,358,26.5287,-7.5625,0.000578693,0.00142122,0.000260759,0.0014954,0.000504519,1.29366,0.000878457,0.0136795,1826,666,26.5286,7.56248
609,358,26.4762,-6.91541,0.000931315,0.00153965,0.000552781,0.00186642,0.000604543,1.03692,0.00109963,0.0172317,1833,666,26.4762,6.91542
616,358,26.4506,-6.24658,0.00110522,0.0016331,0.000780503,0.00219308,0.000545235,0.948447,0.00131844,0.0162263,1840,666,26.4506,6.2466
623,358,26.4941,-5.60315,0.00104696,0.00176072,0.000992722,0.00245876,0.00034892,0.957952,0.00153613,0.0143504,1847,666,26.4941,5.60314
630,358,26.4752,-4.96948,0.000528769,0.00187999,0.00107362,0.00247289,-6.41244e-05,1.06624,0.00167038,0.0182394,1854,666,26.4753,4.9695
637,358,26.3832,-4.34491,-0.000358386,0.00196533,0.00101567,0.00234668,-0.000739736,1.21162,0.00186071,0.0248165,1861,666,26.3832,4.34493
644,358,26.3844,-3.70496,-0.00183845,0.00197288,0.000753113,0.0021163,-0.00198187,1.38262,0.0023665,0.0210209,1868,666,26.3844,3.70497
651,358,26.5476,-2.84827,-0.00409212,0.00201242,0.000254178,0.00202298,-0.00410268,1.52925,0.00360395,0.0424108,1875,666,26.5476,2.84828
658,358,26.5544,-1.82941,0,0,0,0,0,0,0,-1,1882,666,26.5545,1.82939
665,358,25.4957,-1.35315,0,0,0,0,0,0,0,-1,1889,666,25.4957,1.35314
672,358,12.4299,1.47272,0,0,0,0,0,0,0,-1,1896,666,12.4299,-1.4727
679,358,12.1294,2.19702,0,0,0,0,0,0,0,-1,1903,666,12.1294,-2.19703
686,358,11.9557,2.2002,0,0,0,0,0,0,0,-1,1910,666,11.9557,-2.20021
693,358,13.188,2.52203,0,0,0,0,0,0,0,-1,1917,666,13.188,-2.52202
700,358,0,0,0,0,0,0,0,0,0,-1,1924,666,0,0
707,358,0,0,0,0,0,0,0,0,0,-1,1931,666,0,0
714,358,0,0,0,0,0,0,0,0,0,-1,1938,666,0,0
721,358,0,0,0,0,0,0,0,0,0,-1,1945,666,0,0
728,358,0,0,0,0,0,0,0,0,0,-1,1952,666,0,0
735,358,0,0,0,0,0,0,0,0,0,-1,1959,666,0,0
742,358,0,0,0,0,0,0,0,0,0,-1,1966,666,0,0
749,358,0,0,0,0,0,0,0,0,0,-1,1973,666,0,0
756,358,0,0,0,0,0,0,0,0,0,-1,1980,666,0,0
763,358,0,0,0,0,0,0,0,0,0,-1,1987,666,0,0
770,358,0,0,0,0,0,0,0,0,0,-1,1994,666,0,0
777,358,0,0,0,0,0,0,0,0,0,-1,2001,666,0,0
784,358,0,0,0,0,0,0,0,0,0,-1,2008,666,0,0
791,358,0,0,0,0,0,0,0,0,0,-1,2015,666,0,0
798,358,0,0,0,0,0,0,0,0,0,-1,2022,666,0,0
805,358,0,0,0,0,0,0,0,0,0,-1,2029,666,0,0
812,358,0,0,0,0,0,0,0,0,0,-1,2036,666,0,0
-700,351,0,0,0,0,0,0,0,0,0,-1,524,673,0,0
-693,351,0,0,0,0,0,0,0,0,0,-1,531,673,0,0
-686,351,0,0,0,0,0,0,0,0,0,-1,538,673,0,0
-679,351,0,0,0,0,0,0,0,0,0,-1,545,673,0,0
-672,351,0,0,0,0,0,0,0,0,0,-1,552,673,0,0
-665,351,0,0,0,0,0,0,0,0,0,-1,559,673,0,0
-658,351,0,0,0,0,0,0,0,0,0,-1,566,673,0,0
-651,351,0,0,0,0,0,0,0,0,0,-1,573,673,0,0
-644,351,0,0,0,0,0,0,0,0,0,-1,580,673,0,0
-637,351,0,0,0,0,0,0,0,0,0,-1,587,673,0,0
-630,351,0,0,0,0,0,0,0,0,0,-1,594,673,0,0
-623,351,0,0,0,0,0,0,0,0,0,-1,601,673,0,0
-616,351,0,0,0,0,0,0,0,0,0,-1,608,673,0,0
-609,351,0,0,0,0,0,0,0,0,0,-1,615,673,0,0
-602,351,0,0,0,0,0,0,0,0,0,-1,622,673,0,0
-595,351,0,0,0,0,0,0,0,0,0,-1,629,673,0,0
-588,351,0,0,0,0,0,0,0,0,0,-1,636,673,0,0
-581,351,-9.0647,1.71906,0,0,0,0,0,0,0,-1,643,673,-9.06472,-1.71908
-574,351,-8.23584,2.64764,0,0,0,0,0,0,0,-1,650,673,-8.23584,-2.64764
-567,351,-10.8027,4.56836,0,0,0,0,0,0,0,-1,657,673,-10.8027,-4.56839
-560,351,-14.2001,2.17084,0,0,0,0,0,0,0,-1,664,673,-14.2002,-2.17086
-553,351,-13.4979,0.779541,0,0,0,0,0,0,0,-1,671,673,-13.4978,-0.779519
-546,351,-14.0065,0.73645,0,0,0,0,0,0,0,-1,678,673,-14.0065,-0.736473
-539,351,-12.8123,-1.46393,0,0,0,0,0,0,0,-1,685,673,-12.8123,1.46395
-532,351,-15.3184,-3.89856,0,0,0,0,0,0,0,-1,692,673,-15.3183,3.89859
-525,351,-15.6851,-4.63293,0,0,0,0,0,0,0,-1,699,673,-15.6851,4.63295
-518,351,-15.6188,-5.22375,0.00218994,0.00521309,-0.00252017,0.00664024,0.000762791,-1.05553,0.00419574,0.0211091,706,673,-15.6188,5.22374
-511,351,-15.612,-5.89142,0.00203862,0.00349354,-0.00183479,0.00473982,0.000792342,-0.974134,0.00293168,0.0123045,713,673,-15.612,5.89143
-504,351,-15.6412,-6.54309,0.00192434,0.00221972,-0.00131323,0.00339354,0.00075052,-0.841393,0.00205831,0.0112676,720,673,-15.6412,6.54307
-497,351,-15.6468,-7.19543,0.00190561,0.00134094,-0.000968882,0.00263245,0.000614092,-0.643623,0.0015903,0.0111595,727,673,-15.6468,7.19541
-490,351,-15.6718,-7.82751,0.00191277,0.00068913,-0.000776451,0.00228948,0.000312415,-0.451718,0.00143358,0.0107416,734,673,-15.6718,7.82754
-483,351,-15.6973,-8.4389,0.00209948,0.000450277,-0.000741499,0.00238383,0.000165919,-0.366193,0.0015369,0.0124264,741,673,-15.6972,8.43888
-476,351,-15.7361,-9.05237,0.00237418,0.000463413,-0.000901613,0.00273244,0.000105152,-0.378225,0.00178761,0.0112534,748,673,-15.7361,9.05234
-469,351,-15.7514,-9.65741,0.00273613,0.000655517,-0.00120018,0.00328411,0.000107533,-0.428317,0.00215446,0.0131082,755,673,-15.7514,9.65741
-462,351,-15.754,-10.3496,0.00324164,0.0010022,-0.00163106,0.00410033,0.000143497,-0.484595,0.002687,0.0314049,762,673,-15.754,10.3496
-455,351,-15.4869,-11.1689,0,0,0,0,0,0,0,-1,769,673,-15.4869,11.1689
-448,351,-6.61456,-4.38654,0,0,0,0,0,0,0,-1,776,673,-6.61456,4.38654
-441,351,-4.31567,-2.3009,0,0,0,0,0,0,0,-1,783,673,-4.31565,2.30089
-434,351,-3.81708,-2.28003,0,0,0,0,0,0,0,-1,790,673,-3.81706,2.28006
-427,351,-2.05157,-2.7785,0,0,0,0,0,0,0,-1,797,673,-2.05157,2.77848
-420,351,-1.06989,-2.43665,0,0,0,0,0,0,0,-1,804,673,-1.06991,2.43663
-413,351,-0.392334,-2.06671,0,0,0,0,0,0,0,-1,811,673,-0.392363,2.06672
-406,351,-1.86316,-2.58105,0,0,0,0,0,0,0,-1,818,673,-1.86313,2.58106
-399,351,1.00952,-1.53455,0,0,0,0,0,0,0,-1,825,673,1.00954,1.53457
-392,351,-1.02197,0.877136,0,0,0,0,0,0,0,-1,832,673,-1.02195,-0.877143
-385,351,-1.47205,1.04437,0,0,0,0,0,0,0,-1,839,673,-1.47207,-1.04435
-378,351,0,0,0,0,0,0,0,0,0,-1,846,673,0,0
-371,351,0,0,0,0,0,0,0,0,0,-1,853,673,0,0
-364,351,0,0,0,0,0,0,0,0,0,-1,860,673,0,0
-357,351,0,0,0,0,0,0,0,0,0,-1,867,673,0,0
-350,351,0,0,0,0,0,0,0,0,0,-1,874,673,0,0
-343,351,0,0,0,0,0,0,0,0,0,-1,881,673,0,0
-336,351,0,0,0,0,0,0,0,0,0,-1,888,673,0,0
-329,351,0,0,0,0,0,0,0,0,0,-1,895,673,0,0
-322,351,0,0,0,0,0,0,0,0,0,-1,902,673,0,0
-315,351,0,0,0,0,0,0,0,0,0,-1,909,673,0,0
-308,351,0,0,0,0,0,0,0,0,0,-1,916,673,0,0
-301,351,0,0,0,0,0,0,0,0,0,-1,923,673,0,0
-294,351,0,0,0,0,0,0,0,0,0,-1,930,673,0,0
-287,351,0,0,0,0,0,0,0,0,0,-1,937,673,0,0
-280,351,0,0,0,0,0,0,0,0,0,-1,944,673,0,0
-273,351,0,0,0,0,0,0,0,0,0,-1,951,673,0,0
-266,351,0,0,0,0,0,0,0,0,0,-1,958,673,0,0
-259,351,0,0,0,0,0,0,0,0,0,-1,965,673,0,0
-252,351,0,0,0,0,0,0,0,0,0,-1,972,673,0,0
-245,351,0,0,0,0,0,0,0,0,0,-1,979,673,0,0
-238,351,0,0,0,0,0,0,0,0,0,-1,986,673,0,0
-231,351,0,0,0,0,0,0,0,0,0,-1,993,673,0,0
-224,351,0,0,0,0,0,0,0,0,0,-1,1000,673,0,0
-217,351,0,0,0,0,0,0,0,0,0,-1,1007,673,0,0
-210,351,0,0,0,0,0,0,0,0,0,-1,1014,673,0,0
-203,351,0,0,0,0,0,0,0,0,0,-1,1021,673,0,0
-196,351,0,0,0,0,0,0,0,0,0,-1,1028,673,0,0
-189,351,0,0,0,0,0,0,0,0,0,-1,1035,673,0,0
-182,351,0,0,0,0,0,0,0,0,0,-1,1042,673,0,0
-175,351,0,0,0,0,0,0,0,0,0,-1,1049,673,0,0
-168,351,0,0,0,0,0,0,0,0,0,-1,1056,673,0,0
-161,351,0,0,0,0,0,0,0,0,0,-1,1063,673,0,0
-154,351,0,0,0,0,0,0,0,0,0,-1,1070,673,0,0
-147,351,0,0,0,0,0,0,0,0,0,-1,1077,673,0,0
-140,351,0,0,0,0,0,0,0,0,0,-1,1084,673,0,0
-133,351,0,0,0,0,0,0,0,0,0,-1,1091,673,0,0
-126,351,0,0,0,0,0,0,0,0,0,-1,1098,673,0,0
-119,351,0,0,0,0,0,0,0,0,0,-1,1105,673,0,0
-112,351,0,0,0,0,0,0,0,0,0,-1,1112,673,0,0
-105,351,0,0,0,0,0,0,0,0,0,-1,1119,673,0,0
-98,351,0,0,0,0,0,0,0,0,0,-1,1126,673,0,0
-91,351,0,0,0,0,0,0,0,0,0,-1,1133,673,0,0
-84,351,0,0,0,0,0,0,0,0,0,-1,1140,673,0,0
-77,351,0,0,0,0,0,0,0,0,0,-1,1147,673,0,0
-70,351,0,0,0,0,0,0,0,0,0,-1,1154,673,0,0
-63,351,0,0,0,0,0,0,0,0,0,-1,1161,673,0,0
-56,351,0,0,0,0,0,0,0,0,0,-1,1168,673,0,0
-49,351,0,0,0,0,0,0,0,0,0,-1,1175,673,0,0
-42,351,0,0,0,0,0,0,0,0,0,-1,1182,673,0,0
-35,351,0,0,0,0,0,0,0,0,0,-1,1189,673,0,0
-28,351,0,0,0,0,0,0,0,0,0,-1,1196,673,0,0
-21,351,0,0,0,0,0,0,0,0,0,-1,1203,673,0,0
-14,351,0,0,0,0,0,0,0,0,0,-1,1210,673,0,0
-7,351,0,0,0,0,0,0,0,0,0,-1,1217,673,0,0
0,351,0,0,0,0,0,0,0,0,0,-1,1224,673,0,0
7,351,0,0,0,0,0,0,0,0,0,-1,1231,673,0,0
14,351,0,0,0,0,0,0,0,0,0,-1,1238,673,0,0
21,351,0,0,0,0,0,0,0,0,0,-1,1245,673,0,0
28,351,0,0,0,0,0,0,0,0,0,-1,1252,673,0,0
35,351,0,0,0,0,0,0,0,0,0,-1,1259,673,0,0
42,351,0,0,0,0,0,0,0,0,0,-1,1266,673,0,0
49,351,0,0,0,0,0,0,0,0,0,-1,1273,673,0,0
56,351,0,0,0,0,0,0,0,0,0,-1,1280,673,0,0
63,351,0,0,0,0,0,0,0,0,0,-1,1287,673,0,0
70,351,0,0,0,0,0,0,0,0,0,-1,1294,673,0,0
77,351,0,0,0,0,0,0,0,0,0,-1,1301,673,0,0
84,351,0,0,0,0,0,0,0,0,0,-1,1308,673,0,0
91,351,0,0,0,0,0,0,0,0,0,-1,1315,673,0,0
98,351,0,0,0,0,0,0,0,0,0,-1,1322,673,0,0
105,351,0,0,0,0,0,0,0,0,0,-1,1329,673,0,0
112,351,0,0,0,0,0,0,0,0,0,-1,1336,673,0,0
119,351,0,0,0,0,0,0,0,0,0,-1,1343,673,0,0
126,351,0,0,0,0,0,0,0,0,0,-1,1350,673,0,0
133,351,0,0,0,0,0,0,0,0,0,-1,1357,673,0,0
140,351,0,0,0,0,0,0,0,0,0,-1,1364,673,0,0
147,351,0,0,0,0,0,0,0,0,0,-1,1371,673,0,0
154,351,0,0,0,0,0,0,0,0,0,-1,1378,673,0,0
161,351,0,0,0,0,0,0,0,0,0,-1,1385,673,0,0
168,351,0,0,0,0,0,0,0,0,0,-1,1392,673,0,0
175,351,0,0,0,0,0,0,0,0,0,-1,1399,673,0,0
182,351,0,0,0,0,0,0,0,0,0,-1,1406,673,0,0
189,351,0,0,0,0,0,0,0,0,0,-1,1413,673,0,0
196,351,0,0,0,0,0,0,0,0,0,-1,1420,673,0,0
203,351,0,0,0,0,0,0,0,0,0,-1,1427,673,0,0
210,351,0,0,0,0,0,0,0,0,0,-1,1434,673,0,0
217,351,0,0,0,0,0,0,0,0,0,-1,1441,673,0,0
224,351,0,0,0,0,0,0,0,0,0,-1,1448,673,0,0
231,351,0,0,0,0,0,0,0,0,0,-1,1455,673,0,0
238,351,0,0,0,0,0,0,0,0,0,-1,1462,673,0,0
245,351,0,0,0,0,0,0,0,0,0,-1,1469,673,0,0
252,351,0,0,0,0,0,0,0,0,0,-1,1476,673,0,0
259,351,0,0,0,0,0,0,0,0,0,-1,1483,673,0,0
266,351,0,0,0,0,0,0,0,0,0,-1,1490,673,0,0
273,351,0,0,0,0,0,0,0,0,0,-1,1497,673,0,0
280,351,0,0,0,0,0,0,0,0,0,-1,1504,673,0,0
287,351,0,0,0,0,0,0,0,0,0,-1,1511,673,0,0
294,351,0,0,0,0,0,0,0,0,0,-1,1518,673,0,0
301,351,0,0,0,0,0,0,0,0,0,-1,1525,673,0,0
308,351,0,0,0,0,0,0,0,0,0,-1,1532,673,0,0
315,351,0,0,0,0,0,0,0,0,0,-1,1539,673,0,0
322,351,0,0,0,0,0,0,0,0,0,-1,1546,673,0,0
329,351,0,0,0,0,0,0,0,0,0,-1,1553,673,0,0
336,351,0,0,0,0,0,0,0,0,0,-1,1560,673,0,0
343,351,0,0,0,0,0,0,0,0,0,-1,1567,673,0,0
350,351,0,0,0,0,0,0,0,0,0,-1,1574,673,0,0
357,351,0,0,0,0,0,0,0,0,0,-1,1581,673,0,0
364,351,0,0,0,0,0,0,0,0,0,-1,1588,673,0,0
371,351,0,0,0,0,0,0,0,0,0,-1,1595,673,0,0
378,351,0,0,0,0,0,0,0,0,0,-1,1602,673,0,0
385,351,0,0,0,0,0,0,0,0,0,-1,1609,673,0,0
392,351,0,0,0,0,0,0,0,0,0,-1,1616,673,0,0
399,351,0,0,0,0,0,0,0,0,0,-1,1623,673,0,0
406,351,0,0,0,0,0,0,0,0,0,-1,1630,673,0,0
413,351,0,0,0,0,0,0,0,0,0,-1,1637,673,0,0
420,351,0,0,0,0,0,0,0,0,0,-1,1644,673,0,0
427,351,0,0,0,0,0,0,0,0,0,-1,1651,673,0,0
434,351,0,0,0,0,0,0,0,0,0,-1,1658,673,0,0
441,351,0,0,0,0,0,0,0,0,0,-1,1665,673,0,0
448,351,0,0,0,0,0,0,0,0,0,-1,1672,673,0,0
455,351,0,0,0,0,0,0,0,0,0,-1,1679,673,0,0
462,351,0,0,0,0,0,0,0,0,0,-1,1686,673,0,0
469,351,0,0,0,0,0,0,0,0,0,-1,1693,673,0,0
476,351,0,0,0,0,0,0,0,0,0,-1,1700,673,0,0
483,351,0,0,0,0,0,0,0,0,0,-1,1707,673,0,0
490,351,0,0,0,0,0,0,0,0,0,-1,1714,673,0,0
497,351,0,0,0,0,0,0,0,0,0,-1,1721,673,0,0
504,351,10.8842,1.61615,0,0,0,0,0,0,0,-1,1728,673,10.8842,-1.61618
511,351,15.4548,0.0236816,0,0,0,0,0,0,0,-1,1735,673,15.4549,-0.0236664
518,351,16.7448,2.49268,0,0,0,0,0,0,0,-1,1742,673,16.7448,-2.49269
525,351,16.0701,3.43225,0,0,0,0,0,0,0,-1,1749,673,16.07,-3.43227
532,351,32.3822,3.03021,0,0,0,0,0,0,0,-1,1756,673,32.3822,-3.03019
539,351,15.3387,3.54486,0,0,0,0,0,0,0,-1,1763,673,15.3387,-3.54485
546,351,13.9387,4.59357,0,0,0,0,0,0,0,-1,1770,673,13.9388,-4.59359
553,351,12.0682,2.02832,0,0,0,0,0,0,0,-1,1777,673,12.0683,-2.02831
560,351,12.0173,0.55304,0,0,0,0,0,0,0,-1,1784,673,12.0174,-0.553028
567,351,10.7827,0.130188,0,0,0,0,0,0,0,-1,1791,673,10.7827,-0.130183
574,351,13.405,-1.09204,0,0,0,0,0,0,0,-1,1798,673,13.405,1.09207
581,351,15.2351,-3.06049,0,0,0,0,0,0,0,-1,1805,673,15.2351,3.06046
588,351,26.9575,-9.07318,0,0,0,0,0,0,0,-1,1812,673,26.9575,9.0732
595,351,27.2247,-8.3869,0.000223906,0.00166619,0.000274967,0.00171684,0.000173263,1.38866,0.0010914,0.0474426,1819,673,27.2247,8.3869
602,351,27.2197,-7.57288,0.000309062,0.00144173,0.000193021,0.00147372,0.000277072,1.40656,0.000904382,0.0184484,1826,673,27.2198,7.5729
609,351,27.2068,-6.92822,0.000714769,0.0013953,0.000394035,0.00157565,0.000534415,1.14155,0.000925258,0.0172982,1833,673,27.2068,6.92823
616,351,27.1461,-6.25317,0.000949213,0.00138934,0.000602412,0.00181063,0.000527929,0.960521,0.00107522,0.0142332,1840,673,27.1461,6.25319
623,351,27.1827,-5.5946,0.000838877,0.00138649,0.000715338,0.00187863,0.000346734,0.968178,0.00115433,0.015025,1847,673,27.1827,5.59459
630,351,27.155,-4.96198,0.000297339,0.00141366,0.000734837,0.00177828,-6.72843e-05,1.1102,0.00120857,0.0243441,1854,673,27.1551,4.96196
637,351,27.0934,-4.26636,-0.00059674,0.00145447,0.000626038,0.00163044,-0.000772713,1.29678,0.00141661,0.0283174,1861,673,27.0934,4.26636
644,351,27.0491,-3.6095,-0.00201304,0.00142405,0.000342729,0.00145789,-0.00204689,1.47237,0.00203299,0.0225263,1868,673,27.0491,3.60949
651,351,27.0676,-2.9093,-0.0040807,0.00143106,-0.000138593,0.00143455,-0.00408418,-1.54567,0.00330638,0.0190528,1875,673,27.0676,2.90931
658,351,26.9913,-2.21167,-0.00705931,0.0012945,-0.00103152,0.00141998,-0.00718479,-1.44974,0.00532666,0.0368748,1882,673,26.9914,2.21166
665,351,26.5314,-1.7597,-0.0110738,0.000998972,-0.00222871,0.00139727,-0.0114721,-1.39395,0.00815383,0.0484334,1889,673,26.5313,1.75969
672,351,26.249,-1.0274,0,0,0,0,0,0,0,-1,1896,673,26.249,1.02738
679,351,14.1252,1.85681,0,0,0,0,0,0,0,-1,1903,673,14.1253,-1.85682
686,351,13.0294,2.1189,0,0,0,0,0,0,0,-1,1910,673,13.0294,-2.11892
693,351,13.5187,2.34595,0,0,0,0,0,0,0,-1,1917,673,13.5187,-2.34596
700,351,14.5629,-2.40173,0,0,0,0,0,0,0,-1,1924,673,14.5629,2.40172
707,351,0,0,0,0,0,0,0,0,0,-1,1931,673,0,0
714,351,0,0,0,0,0,0,0,0,0,-1,1938,673,0,0
721,351,0,0,0,0,0,0,0,0,0,-1,1945,673,0,0
728,351,0,0,0,0,0,0,0,0,0,-1,1952,673,0,0
735,351,0,0,0,0,0,0,0,0,0,-1,1959,673,0,0
742,351,0,0,0,0,0,0,0,0,0,-1,1966,673,0,0
749,351,0,0,0,0,0,0,0,0,0,-1,1973,673,0,0
756,351,0,0,0,0,0,0,0,0,0,-1,1980,673,0,0
763,351,0,0,0,0,0,0,0,0,0,-1,1987,673,0,0
770,351,0,0,0,0,0,0,0,0,0,-1,1994,673,0,0
777,351,0,0,0,0,0,0,0,0,0,-1,2001,673,0,0
784,351,0,0,0,0,0,0,0,0,0,-1,2008,673,0,0
791,351,0,0,0,0,0,0,0,0,0,-1,2015,673,0,0
798,351,0,0,0,0,0,0,0,0,0,-1,2022,673,0,0
805,351,0,0,0,0,0,0,0,0,0,-1,2029,673,0,0
812,351,0,0,0,0,0,0,0,0,0,-1,2036,673,0,0
-700,344,0,0,0,0,0,0,0,0,0,-1,524,680,0,0
-693,344,0,0,0,0,0,0,0,0,0,-1,531,680,0,0
-686,344,0,0,0,0,0,0,0,0,0,-1,538,680,0,0
-679,344,0,0,0,0,0,0,0,0,0,-1,545,680,0,0
-672,344,0,0,0,0,0,0,0,0,0,-1,552,680,0,0
-665,344,0,0,0,0,0,0,0,0,0,-1,559,680,0,0
-658,344,0,0,0,0,0,0,0,0,0,-1,566,680,0,0
-651,344,0,0,0,0,0,0,0,0,0,-1,573,680,0,0
-644,344,0,0,0,0,0,0,0,0,0,-1,580,680,0,0
-637,344,0,0,0,0,0,0,0,0,0,-1,587,680,0,0
-630,344,0,0,0,0,0,0,0,0,0,-1,594,680,0,0
-623,344,0,0,0,0,0,0,0,0,0,-1,601,680,0,0
-616,344,0,0,0,0,0,0,0,0,0,-1,608,680,0,0
-609,344,0,0,0,0,0,0,0,0,0,-1,615,680,0,0
-602,344,0,0,0,0,0,0,0,0,0,-1,622,680,0,0
-595,344,0,0,0,0,0,0,0,0,0,-1,629,680,0,0
-588,344,-9.27826,1.47302,0,0,0,0,0,0,0,-1,636,680,-9.27829,-1.473
-581,344,-10.0098,1.71753,0,0,0,0,0,0,0,-1,643,680,-10.0098,-1.7175
-574,344,-10.2208,3.04871,0,0,0,0,0,0,0,-1,650,680,-10.2208,-3.04869
-567,344,-14.3779,2.29016,0,0,0,0,0,0,0,-1,657,680,-14.3779,-2.29014
-560,344,-14.1238,1.8374,0,0,0,0,0,0,0,-1,664,680,-14.1238,-1.83743
-553,344,-14.7884,2.00116,0,0,0,0,0,0,0,-1,671,680,-14.7884,-2.00115
-546,344,-17.4192,0.157654,0,0,0,0,0,0,0,-1,678,680,-17.4192,-0.157635
-539,344,-16.1655,-2.7793,0,0,0,0,0,0,0,-1,685,680,-16.1655,2.7793
-532,344,-16.178,-3.83899,0,0,0,0,0,0,0,-1,692,680,-16.178,3.83896
-525,344,-16.2883,-4.51624,0.00222005,0.00670503,-0.0027473,0.00800887,0.000916212,-1.12768,0.00506156,0.0438803,699,680,-16.2883,4.51622
-518,344,-16.2392,-5.23358,0.0020274,0.00450716,-0.00200993,0.00562887,0.000905686,-1.06177,0.00349008,0.0220129,706,680,-16.2392,5.23357
-511,344,-16.2546,-5.84113,0.00186202,0.00285111,-0.0013968,0.00383833,0.000874805,-0.955541,0.00232286,0.0183024,713,680,-16.2546,5.84114
-504,344,-16.2509,-6.51624,0.0017747,0.00161422,-0.000937747,0.00263563,0.000753283,-0.742718,0.00156753,0.017355,720,680,-16.2509,6.51622
-497,344,-16.2865,-7.20001,0.00178511,0.000772752,-0.00064252,0.00209688,0.000460977,-0.451769,0.00127241,0.0157706,727,680,-16.2865,7.20001
-490,344,-16.3154,-7.82458,0.00183392,0.000197791,-0.000502531,0.00197594,5.57685e-05,-0.275432,0.0012991,0.0149164,734,680,-16.3154,7.82456
-483,344,-16.3162,-8.43079,0.00205479,6.8909e-05,-0.000562712,0.00220315,-7.94552e-05,-0.257792,0.00149596,0.0143446,741,680,-16.3162,8.4308
-476,344,-16.3528,-9.04749,0.0023494,0.000162609,-0.000810483,0.00261703,-0.000105023,-0.31894,0.00178073,0.0141347,748,680,-16.3528,9.04748
-469,344,-16.3652,-9.69934,0.00283642,0.000532784,-0.00128946,0.00341359,-4.43843e-05,-0.42086,0.00229067,0.0192024,755,680,-16.3652,9.69935
-462,344,-16.305,-10.3719,0,0,0,0,0,0,0,-1,762,680,-16.305,10.372
-455,344,-12.1653,-7.99176,0,0,0,0,0,0,0,-1,769,680,-12.1653,7.99174
-448,344,-5.67657,-2.72864,0,0,0,0,0,0,0,-1,776,680,-5.6766,2.72863
-441,344,-5.09229,-2.34167,0,0,0,0,0,0,0,-1,783,680,-5.09229,2.34168
-434,344,-4.28778,-2.08807,0,0,0,0,0,0,0,-1,790,680,-4.28778,2.08809
-427,344,-3.06506,-1.45404,0,0,0,0,0,0,0,-1,797,680,-3.06505,1.45402
-420,344,-1.96582,-1.57574,0,0,0,0,0,0,0,-1,804,680,-1.96579,1.57574
-413,344,-0.817993,-1.4751,0,0,0,0,0,0,0,-1,811,680,-0.818017,1.47511
-406,344,-0.00714111,-1.25189,0,0,0,0,0,0,0,-1,818,680,-0.00714956,1.25191
-399,344,0.240051,-1.75769,0,0,0,0,0,0,0,-1,825,680,0.240079,1.75767
-392,344,1.11353,-2.05615,0,0,0,0,0,0,0,-1,832,680,1.11351,2.05616
-385,344,0,0,0,0,0,0,0,0,0,-1,839,680,0,0
-378,344,0,0,0,0,0,0,0,0,0,-1,846,680,0,0
-371,344,0,0,0,0,0,0,0,0,0,-1,853,680,0,0
-364,344,0,0,0,0,0,0,0,0,0,-1,860,680,0,0
-357,344,0,0,0,0,0,0,0,0,0,-1,867,680,0,0
-350,344,0,0,0,0,0,0,0,0,0,-1,874,680,0,0
-343,344,0,0,0,0,0,0,0,0,0,-1,881,680,0,0
-336,344,0,0,0,0,0,0,0,0,0,-1,888,680,0,0
-329,344,0,0,0,0,0,0,0,0,0,-1,895,680,0,0
-322,344,0,0,0,0,0,0,0,0,0,-1,902,680,0,0
-315,344,0,0,0,0,0,0,0,0,0,-1,909,680,0,0
-308,344,0,0,0,0,0,0,0,0,0,-1,916,680,0,0
-301,344,0,0,0,0,0,0,0,0,0,-1,923,680,0,0
-294,344,0,0,0,0,0,0,0,0,0,-1,930,680,0,0
-287,344,0,0,0,0,0,0,0,0,0,-1,937,680,0,0
-280,344,0,0,0,0,0,0,0,0,0,-1,944,680,0,0
-273,344,0,0,0,0,0,0,0,0,0,-1,951,680,0,0
-266,344,0,0,0,0,0,0,0,0,0,-1,958,680,0,0
-259,344,0,0,0,0,0,0,0,0,0,-1,965,680,0,0
-252,344,0,0,0,0,0,0,0,0,0,-1,972,680,0,0
-245,344,0,0,0,0,0,0,0,0,0,-1,979,680,0,0
-238,344,0,0,0,0,0,0,0,0,0,-1,986,680,0,0
-231,344,0,0,0,0,0,0,0,0,0,-1,993,680,0,0
-224,344,0,0,0,0,0,0,0,0,0,-1,1000,680,0,0
-217,344,0,0,0,0,0,0,0,0,0,-1,1007,680,0,0
-210,344,0,0,0,0,0,0,0,0,0,-1,1014,680,0,0
-203,344,0,0,0,0,0,0,0,0,0,-1,1021,680,0,0
-196,344,0,0,0,0,0,0,0,0,0,-1,1028,680,0,0
-189,344,0,0,0,0,0,0,0,0,0,-1,1035,680,0,0
-182,344,0,0,0,0,0,0,0,0,0,-1,1042,680,0,0
-175,344,0,0,0,0,0,0,0,0,0,-1,1049,680,0,0
-168,344,0,0,0,0,0,0,0,0,0,-1,1056,680,0,0
-161,344,0,0,0,0,0,0,0,0,0,-1,1063,680,0,0
-154,344,0,0,0,0,0,0,0,0,0,-1,1070,680,0,0
-147,344,0,0,0,0,0,0,0,0,0,-1,1077,680,0,0
-140,344,0,0,0,0,0,0,0,0,0,-1,1084,680,0,0
-133,344,0,0,0,0,0,0,0,0,0,-1,1091,680,0,0
-126,344,0,0,0,0,0,0,0,0,0,-1,1098,680,0,0
-119,344,0,0,0,0,0,0,0,0,0,-1,1105,680,0,0
-112,344,0,0,0,0,0,0,0,0,0,-1,1112,680,0,0
-105,344,0,0,0,0,0,0,0,0,0,-1,1119,680,0,0
-98,344,0,0,0,0,0,0,0,0,0,-1,1126,680,0,0
-91,344,0,0,0,0,0,0,0,0,0,-1,1133,680,0,0
-84,344,0,0,0,0,0,0,0,0,0,-1,1140,680,0,0
-77,344,0,0,0,0,0,0,0,0,0,-1,1147,680,0,0
-70,344,0,0,0,0,0,0,0,0,0,-1,1154,680,0,0
-63,344,0,0,0,0,0,0,0,0,0,-1,1161,680,0,0
-56,344,0,0,0,0,0,0,0,0,0,-1,1168,680,0,0
-49,344,0,0,0,0,0,0,0,0,0,-1,1175,680,0,0
-42,344,0,0,0,0,0,0,0,0,0,-1,1182,680,0,0
-35,344,0,0,0,0,0,0,0,0,0,-1,1189,680,0,0
-28,344,0,0,0,0,0,0,0,0,0,-1,1196,680,0,0
-21,344,0,0,0,0,0,0,0,0,0,-1,1203,680,0,0
-14,344,0,0,0,0,0,0,0,0,0,-1,1210,680,0,0
-7,344,0,0,0,0,0,0,0,0,0,-1,1217,680,0,0
0,344,0,0,0,0,0,0,0,0,0,-1,1224,680,0,0
7,344,0,0,0,0,0,0,0,0,0,-1,1231,680,0,0
14,344,0,0,0,0,0,0,0,0,0,-1,1238,680,0,0
21,344,0,0,0,0,0,0,0,0,0,-1,1245,680,0,0
28,344,0,0,0,0,0,0,0,0,0,-1,1252,680,0,0
35,344,0,0,0,0,0,0,0,0,0,-1,1259,680,0,0
42,344,0,0,0,0,0,0,0,0,0,-1,1266,680,0,0
49,344,0,0,0,0,0,0,0,0,0,-1,1273,680,0,0
56,344,0,0,0,0,0,0,0,0,0,-1,1280,680,0,0
63,344,0,0,0,0,0,0,0,0,0,-1,1287,680,0,0
70,344,0,0,0,0,0,0,0,0,0,-1,1294,680,0,0
77,344,0,0,0,0,0,0,0,0,0,-1,1301,680,0,0
84,344,0,0,0,0,0,0,0,0,0,-1,1308,680,0,0
91,344,0,0,0,0,0,0,0,0,0,-1,1315,680,0,0
98,344,0,0,0,0,0,0,0,0,0,-1,1322,680,0,0
105,344,0,0,0,0,0,0,0,0,0,-1,1329,680,0,0
112,344,0,0,0,0,0,0,0,0,0,-1,1336,680,0,0
119,344,0,0,0,0,0,0,0,0,0,-1,1343,680,0,0
126,344,0,0,0,0,0,0,0,0,0,-1,1350,680,0,0
133,344,0,0,0,0,0,0,0,0,0,-1,1357,680,0,0
140,344,0,0,0,0,0,0,0,0,0,-1,1364,680,0,0
147,344,0,0,0,0,0,0,0,0,0,-1,1371,680,0,0
154,344,0,0,0,0,0,0,0,0,0,-1,1378,680,0,0
161,344,0,0,0,0,0,0,0,0,0,-1,1385,680,0,0
168,344,0,0,0,0,0,0,0,0,0,-1,1392,680,0,0
175,344,0,0,0,0,0,0,0,0,0,-1,1399,680,0,0
182,344,0,0,0,0,0,0,0,0,0,-1,1406,680,0,0
189,344,0,0,0,0,0,0,0,0,0,-1,1413,680,0,0
196,344,0,0,0,0,0,0,0,0,0,-1,1420,680,0,0
203,344,0,0,0,0,0,0,0,0,0,-1,1427,680,0,0
210,344,0,0,0,0,0,0,0,0,0,-1,1434,680,0,0
217,344,0,0,0,0,0,0,0,0,0,-1,1441,680,0,0
224,344,0,0,0,0,0,0,0,0,0,-1,1448,680,0,0
231,344,0,0,0,0,0,0,0,0,0,-1,1455,680,0,0
238,344,0,0,0,0,0,0,0,0,0,-1,1462,680,0,0
245,344,0,0,0,0,0,0,0,0,0,-1,1469,680,0,0
252,344,0,0,0,0,0,0,0,0,0,-1,1476,680,0,0
259,344,0,0,0,0,0,0,0,0,0,-1,1483,680,0,0
266,344,0,0,0,0,0,0,0,0,0,-1,1490,680,0,0
273,344,0,0,0,0,0,0,0,0,0,-1,1497,680,0,0
280,344,0,0,0,0,0,0,0,0,0,-1,1504,680,0,0
287,344,0,0,0,0,0,0,0,0,0,-1,1511,680,0,0
294,344,0,0,0,0,0,0,0,0,0,-1,1518,680,0,0
301,344,0,0,0,0,0,0,0,0,0,-1,1525,680,0,0
308,344,0,0,0,0,0,0,0,0,0,-1,1532,680,0,0
315,344,0,0,0,0,0,0,0,0,0,-1,1539,680,0,0
322,344,0,0,0,0,0,0,0,0,0,-1,1546,680,0,0
329,344,0,0,0,0,0,0,0,0,0,-1,1553,680,0,0
336,344,0,0,0,0,0,0,0,0,0,-1,1560,680,0,0
343,344,0,0,0,0,0,0,0,0,0,-1,1567,680,0,0
350,344,0,0,0,0,0,0,0,0,0,-1,1574,680,0,0
357,344,0,0,0,0,0,0,0,0,0,-1,1581,680,0,0
364,344,0,0,0,0,0,0,0,0,0,-1,1588,680,0,0
371,344,0,0,0,0,0,0,0,0,0,-1,1595,680,0,0
378,344,0,0,0,0,0,0,0,0,0,-1,1602,680,0,0
385,344,0,0,0,0,0,0,0,0,0,-1,1609,680,0,0
392,344,0,0,0,0,0,0,0,0,0,-1,1616,680,0,0
399,344,0,0,0,0,0,0,0,0,0,-1,1623,680,0,0
406,344,0,0,0,0,0,0,0,0,0,-1,1630,680,0,0
413,344,0,0,0,0,0,0,0,0,0,-1,1637,680,0,0
420,344,0,0,0,0,0,0,0,0,0,-1,1644,680,0,0
427,344,0,0,0,0,0,0,0,0,0,-1,1651,680,0,0
434,344,0,0,0,0,0,0,0,0,0,-1,1658,680,0,0
441,344,0,0,0,0,0,0,0,0,0,-1,1665,680,0,0
448,344,0,0,0,0,0,0,0,0,0,-1,1672,680,0,0
455,344,0,0,0,0,0,0,0,0,0,-1,1679,680,0,0
462,344,0,0,0,0,0,0,0,0,0,-1,1686,680,0,0
469,344,0,0,0,0,0,0,0,0,0,-1,1693,680,0,0
476,344,0,0,0,0,0,0,0,0,0,-1,1700,680,0,0
483,344,0,0,0,0,0,0,0,0,0,-1,1707,680,0,0
490,344,0,0,0,0,0,0,0,0,0,-1,1714,680,0,0
497,344,0,0,0,0,0,0,0,0,0,-1,1721,680,0,0
504,344,0,0,0,0,0,0,0,0,0,-1,1728,680,0,0
511,344,15.4819,0.452637,0,0,0,0,0,0,0,-1,1735,680,15.4819,-0.452656
518,344,17.1357,2.31207,0,0,0,0,0,0,0,-1,1742,680,17.1358,-2.31207
525,344,31.5201,2.6217,0,0,0,0,0,0,0,-1,1749,680,31.5201,-2.62168
532,344,31.9766,2.61047,0,0,0,0,0,0,0,-1,1756,680,31.9765,-2.6105
539,344,32.4379,2.65314,0,0,0,0,0,0,0,-1,1763,680,32.4378,-2.65316
546,344,14.6722,4.30243,0,0,0,0,0,0,0,-1,1770,680,14.6722,-4.30241
553,344,14.8136,4.35681,0,0,0,0,0,0,0,-1,1777,680,14.8136,-4.35679
560,344,11.9363,2.14185,0,0,0,0,0,0,0,-1,1784,680,11.9362,-2.14182
567,344,11.397,0.925842,0,0,0,0,0,0,0,-1,1791,680,11.397,-0.92583
574,344,10.0004,0.504639,0,0,0,0,0,0,0,-1,1798,680,10.0004,-0.504645
581,344,13.6709,-0.969604,0,0,0,0,0,0,0,-1,1805,680,13.6709,0.969629
588,344,16.1447,-3.15948,0,0,0,0,0,0,0,-1,1812,680,16.1447,3.15946
595,344,27.8009,-8.31854,0,0,0,0,0,0,0,-1,1819,680,27.8009,8.31853
602,344,28.0251,-7.53931,-6.99371e-05,0.00157735,0.000184422,0.00159775,-9.03316e-05,1.46066,0.00109652,0.0430013,1826,680,28.0251,7.53928
609,344,27.8723,-6.88531,0.000514269,0.00136411,0.000352245,0.00149113,0.000387252,1.22472,0.000893429,0.01598,1833,680,27.8724,6.8853
616,344,27.8461,-6.20581,0.000881285,0.00127833,0.000588488,0.00170088,0.000458736,0.948076,0.00101613,0.0215538,1840,680,27.8461,6.20581
623,344,27.8525,-5.54498,0.000781726,0.00116268,0.000631698,0.00163199,0.000312411,0.931828,0.00100025,0.0193187,1847,680,27.8525,5.54497
630,344,27.8181,-4.92944,0.000285884,0.00110838,0.000619135,0.0014404,-4.61408e-05,1.07855,0.000976011,0.0237808,1854,680,27.8181,4.92944
637,344,27.7798,-4.26202,-0.000564765,0.00110795,0.000488508,0.00124016,-0.000696981,1.30648,0.00113297,0.0229297,1861,680,27.7798,4.26205
644,344,27.7539,-3.56512,-0.00187189,0.00106127,0.000211423,0.00107644,-0.00188705,1.49921,0.00173218,0.0171007,1868,680,27.7539,3.56514
651,344,27.7064,-2.89777,-0.00372037,0.00106307,-0.000227315,0.00107385,-0.00373115,-1.52342,0.00291215,0.0122152,1875,680,27.7065,2.89777
658,344,27.6896,-2.1593,-0.00627633,0.00105255,-0.000942591,0.00117184,-0.00639562,-1.44491,0.00470328,0.0244884,1882,680,27.6895,2.15932
665,344,27.5293,-1.50684,-0.00963798,0.000998874,-0.00188702,0.00132372,-0.00996282,-1.40032,0.00712423,0.0400916,1889,680,27.5293,1.50686
672,344,27.5532,-0.895874,0,0,0,0,0,0,0,-1,1896,680,27.5532,0.895858
679,344,27.9651,-0.626709,0,0,0,0,0,0,0,-1,1903,680,27.9651,0.626713
686,344,15.024,1.82709,0,0,0,0,0,0,0,-1,1910,680,15.024,-1.82706
693,344,12.4362,-1.42346,0,0,0,0,0,0,0,-1,1917,680,12.4361,1.42348
700,344,17.5396,2.61206,0,0,0,0,0,0,0,-1,1924,680,17.5396,-2.61204
707,344,18.5829,3.29352,0,0,0,0,0,0,0,-1,1931,680,18.5828,-3.2935
714,344,0,0,0,0,0,0,0,0,0,-1,1938,680,0,0
721,344,0,0,0,0,0,0,0,0,0,-1,1945,680,0,0
728,344,0,0,0,0,0,0,0,0,0,-1,1952,680,0,0
735,344,0,0,0,0,0,0,0,0,0,-1,1959,680,0,0
742,344,0,0,0,0,0,0,0,0,0,-1,1966,680,0,0
749,344,0,0,0,0,0,0,0,0,0,-1,1973,680,0,0
756,344,0,0,0,0,0,0,0,0,0,-1,1980,680,0,0
763,344,0,0,0,0,0,0,0,0,0,-1,1987,680,0,0
770,344,0,0,0,0,0,0,0,0,0,-1,1994,680,0,0
777,344,0,0,0,0,0,0,0,0,0,-1,2001,680,0,0
784,344,0,0,0,0,0,0,0,0,0,-1,2008,680,0,0
791,344,0,0,0,0,0,0,0,0,0,-1,2015,680,0,0
798,344,0,0,0,0,0,0,0,0,0,-1,2022,680,0,0
805,344,0,0,0,0,0,0,0,0,0,-1,2029,680,0,0
812,344,0,0,0,0,0,0,0,0,0,-1,2036,680,0,0
-700,337,0,0,0,0,0,0,0,0,0,-1,524,687,0,0
-693,337,0,0,0,0,0,0,0,0,0,-1,531,687,0,0
-686,337,0,0,0,0,0,0,0,0,0,-1,538,687,0,0
-679,337,0,0,0,0,0,0,0,0,0,-1,545,687,0,0
-672,337,0,0,0,0,0,0,0,0,0,-1,552,687,0,0
-665,337,0,0,0,0,0,0,0,0,0,-1,559,687,0,0
-658,337,0,0,0,0,0,0,0,0,0,-1,566,687,0,0
-651,337,0,0,0,0,0,0,0,0,0,-1,573,687,0,0
-644,337,0,0,0,0,0,0,0,0,0,-1,580,687,0,0
-637,337,0,0,0,0,0,0,0,0,0,-1,587,687,0,0
-630,337,0,0,0,0,0,0,0,0,0,-1,594,687,0,0
-623,337,0,0,0,0,0,0,0,0,0,-1,601,687,0,0
-616,337,0,0,0,0,0,0,0,0,0,-1,608,687,0,0
-609,337,0,0,0,0,0,0,0,0,0,-1,615,687,0,0
-602,337,0,0,0,0,0,0,0,0,0,-1,622,687,0,0
-595,337,0,0,0,0,0,0,0,0,0,-1,629,687,0,0
-588,337,-10.8413,1.27863,0,0,0,0,0,0,0,-1,636,687,-10.8413,-1.27861
-581,337,-11.2157,1.31567,0,0,0,0,0,0,0,-1,643,687,-11.2157,-1.3157
-574,337,-6.03339,2.0321,0,0,0,0,0,0,0,-1,650,687,-6.03337,-2.03213
-567,337,-13.8102,1.56787,0,0,0,0,0,0,0,-1,657,687,-13.8102,-1.56789
-560,337,-15.5435,2.34247,0,0,0,0,0,0,0,-1,664,687,-15.5435,-2.34247
-553,337,-18.0128,1.12927,0,0,0,0,0,0,0,-1,671,687,-18.0128,-1.12926
-546,337,-16.8721,-2.13422,0,0,0,0,0,0,0,-1,678,687,-16.8721,2.13422
-539,337,-16.6941,-3.08063,0.00229781,0.0109964,-0.0036566,0.0123293,0.000964935,-1.22125,0.0079175,0.0452856,685,687,-16.6941,3.0806
-532,337,-16.7464,-3.93225,0.00200711,0.00797666,-0.00284226,0.00911345,0.000870317,-1.19032,0.00580731,0.033118,692,687,-16.7464,3.93224
-525,337,-16.9005,-4.59106,0.00182946,0.00549108,-0.00209548,0.00644288,0.000877664,-1.14444,0.00403465,0.0162652,699,687,-16.9004,4.59107
-518,337,-16.8791,-5.23468,0.0016755,0.00351306,-0.00142644,0.00429101,0.00089755,-1.07151,0.00261338,0.0245916,706,687,-16.8791,5.2347
-511,337,-16.9437,-5.84332,0.00158524,0.00197605,-0.000875418,0.00267761,0.000883685,-0.895204,0.00157541,0.0250831,713,687,-16.9437,5.84331
-504,337,-16.9225,-6.51868,0.00148543,0.000774447,-0.000494753,0.00173916,0.000520714,-0.473873,0.00103069,0.0232746,720,687,-16.9225,6.51869
-497,337,-16.9237,-7.16779,0.00117221,-0.000150473,-0.000490304,0.00133414,-0.000312399,-0.31898,0.0010098,0.0175611,727,687,-16.9237,7.1678
-490,337,-16.9478,-7.79053,0.000718018,-0.000866511,-0.000783941,0.00104031,-0.00118881,-0.390059,0.00128794,0.0157805,734,687,-16.9477,7.79052
-483,337,-16.9578,-8.42517,1.18062e-05,-0.00131444,-0.00158136,0.00106346,-0.00236609,-0.586867,0.0020271,0.0149405,741,687,-16.9578,8.42515
-476,337,-16.9704,-9.06451,-0.00118774,-0.001832,-0.0029108,0.0014187,-0.00443844,-0.730289,0.00352825,0.015487,748,687,-16.9704,9.06453
-469,337,-16.9736,-9.75531,0,0,0,0,0,0,0,-1,755,687,-16.9736,9.75533
-462,337,-14.186,-8.89264,0,0,0,0,0,0,0,-1,762,687,-14.186,8.89266
-455,337,-6.00574,-3.12933,0,0,0,0,0,0,0,-1,769,687,-6.00576,3.12934
-448,337,-5.30627,-2.07202,0,0,0,0,0,0,0,-1,776,687,-5.30628,2.07205
-441,337,-4.24762,-1.49597,0,0,0,0,0,0,0,-1,783,687,-4.24762,1.49598
-434,337,-6.86908,1.37531,0,0,0,0,0,0,0,-1,790,687,-6.86908,-1.3753
-427,337,-9.92004,2.487,0,0,0,0,0,0,0,-1,797,687,-9.92002,-2.48701
-420,337,-2.95996,-1.76697,0,0,0,0,0,0,0,-1,804,687,-2.95998,1.76696
-413,337,-1.29169,-1.99487,0,0,0,0,0,0,0,-1,811,687,-1.29171,1.9949
-406,337,-1.02356,-1.89563,0,0,0,0,0,0,0,-1,818,687,-1.02357,1.89564
-399,337,-0.472839,-2.21338,0,0,0,0,0,0,0,-1,825,687,-0.472837,2.2134
-392,337,0,0,0,0,0,0,0,0,0,-1,832,687,0,0
-385,337,0,0,0,0,0,0,0,0,0,-1,839,687,0,0
-378,337,0,0,0,0,0,0,0,0,0,-1,846,687,0,0
-371,337,0,0,0,0,0,0,0,0,0,-1,853,687,0,0
-364,337,0,0,0,0,0,0,0,0,0,-1,860,687,0,0
-357,337,0,0,0,0,0,0,0,0,0,-1,867,687,0,0
-350,337,0,0,0,0,0,0,0,0,0,-1,874,687,0,0
-343,337,0,0,0,0,0,0,0,0,0,-1,881,687,0,0
-336,337,0,0,0,0,0,0,0,0,0,-1,888,687,0,0
-329,337,0,0,0,0,0,0,0,0,0,-1,895,687,0,0
-322,337,0,0,0,0,0,0,0,0,0,-1,902,687,0,0
-315,337,0,0,0,0,0,0,0,0,0,-1,909,687,0,0
-308,337,0,0,0,0,0,0,0,0,0,-1,916,687,0,0
-301,337,0,0,0,0,0,0,0,0,0,-1,923,687,0,0
-294,337,0,0,0,0,0,0,0,0,0,-1,930,687,0,0
-287,337,0,0,0,0,0,0,0,0,0,-1,937,687,0,0
-280,337,0,0,0,0,0,0,0,0,0,-1,944,687,0,0
-273,337,0,0,0,0,0,0,0,0,0,-1,951,687,0,0
-266,337,0,0,0,0,0,0,0,0,0,-1,958,687,0,0
-259,337,0,0,0,0,0,0,0,0,0,-1,965,687,0,0
-252,337,0,0,0,0,0,0,0,0,0,-1,972,687,0,0
-245,337,0,0,0,0,0,0,0,0,0,-1,979,687,0,0
-238,337,0,0,0,0,0,0,0,0,0,-1,986,687,0,0
-231,337,0,0,0,0,0,0,0,0,0,-1,993,687,0,0
-224,337,0,0,0,0,0,0,0,0,0,-1,1000,687,0,0
-217,337,0,0,0,0,0,0,0,0,0,-1,1007,687,0,0
-210,337,0,0,0,0,0,0,0,0,0,-1,1014,687,0,0
-203,337,0,0,0,0,0,0,0,0,0,-1,1021,687,0,0
-196,337,0,0,0,0,0,0,0,0,0,-1,1028,687,0,0
-189,337,0,0,0,0,0,0,0,0,0,-1,1035,687,0,0
-182,337,0,0,0,0,0,0,0,0,0,-1,1042,687,0,0
-175,337,0,0,0,0,0,0,0,0,0,-1,1049,687,0,0
-168,337,0,0,0,0,0,0,0,0,0,-1,1056,687,0,0
-161,337,0,0,0,0,0,0,0,0,0,-1,1063,687,0,0
-154,337,0,0,0,0,0,0,0,0,0,-1,1070,687,0,0
-147,337,0,0,0,0,0,0,0,0,0,-1,1077,687,0,0
-140,337,0,0,0,0,0,0,0,0,0,-1,1084,687,0,0
-133,337,0,0,0,0,0,0,0,0,0,-1,1091,687,0,0
-126,337,0,0,0,0,0,0,0,0,0,-1,1098,687,0,0
-119,337,0,0,0,0,0,0,0,0,0,-1,1105,687,0,0
-112,337,0,0,0,0,0,0,0,0,0,-1,1112,687,0,0
-105,337,0,0,0,0,0,0,0,0,0,-1,1119,687,0,0
-98,337,0,0,0,0,0,0,0,0,0,-1,1126,687,0,0
-91,337,0,0,0,0,0,0,0,0,0,-1,1133,687,0,0
-84,337,0,0,0,0,0,0,0,0,0,-1,1140,687,0,0
-77,337,0,0,0,0,0,0,0,0,0,-1,1147,687,0,0
-70,337,0,0,0,0,0,0,0,0,0,-1,1154,687,0,0
-63,337,0,0,0,0,0,0,0,0,0,-1,1161,687,0,0
-56,337,0,0,0,0,0,0,0,0,0,-1,1168,687,0,0
-49,337,0,0,0,0,0,0,0,0,0,-1,1175,687,0,0
-42,337,0,0,0,0,0,0,0,0,0,-1,1182,687,0,0
-35,337,0,0,0,0,0,0,0,0,0,-1,1189,687,0,0
-28,337,0,0,0,0,0,0,0,0,0,-1,1196,687,0,0
-21,337,0,0,0,0,0,0,0,0,0,-1,1203,687,0,0
-14,337,0,0,0,0,0,0,0,0,0,-1,1210,687,0,0
-7,337,0,0,0,0,0,0,0,0,0,-1,1217,687,0,0
0,337,0,0,0,0,0,0,0,0,0,-1,1224,687,0,0
7,337,0,0,0,0,0,0,0,0,0,-1,1231,687,0,0
14,337,0,0,0,0,0,0,0,0,0,-1,1238,687,0,0
21,337,0,0,0,0,0,0,0,0,0,-1,1245,687,0,0
28,337,0,0,0,0,0,0,0,0,0,-1,1252,687,0,0
35,337,0,0,0,0,0,0,0,0,0,-1,1259,687,0,0
42,337,0,0,0,0,0,0,0,0,0,-1,1266,687,0,0
49,337,0,0,0,0,0,0,0,0,0,-1,1273,687,0,0
56,337,0,0,0,0,0,0,0,0,0,-1,1280,687,0,0
63,337,0,0,0,0,0,0,0,0,0,-1,1287,687,0,0
70,337,0,0,0,0,0,0,0,0,0,-1,1294,687,0,0
77,337,0,0,0,0,0,0,0,0,0,-1,1301,687,0,0
84,337,0,0,0,0,0,0,0,0,0,-1,1308,687,0,0
91,337,0,0,0,0,0,0,0,0,0,-1,1315,687,0,0
98,337,0,0,0,0,0,0,0,0,0,-1,1322,687,0,0
105,337,0,0,0,0,0,0,0,0,0,-1,1329,687,0,0
112,337,0,0,0,0,0,0,0,0,0,-1,1336,687,0,0
119,337,0,0,0,0,0,0,0,0,0,-1,1343,687,0,0
126,337,0,0,0,0,0,0,0,0,0,-1,1350,687,0,0
133,337,0,0,0,0,0,0,0,0,0,-1,1357,687,0,0
140,337,0,0,0,0,0,0,0,0,0,-1,1364,687,0,0
147,337,0,0,0,0,0,0,0,0,0,-1,1371,687,0,0
154,337,0,0,0,0,0,0,0,0,0,-1,1378,687,0,0
161,337,0,0,0,0,0,0,0,0,0,-1,1385,687,0,0
168,337,0,0,0,0,0,0,0,0,0,-1,1392,687,0,0
175,337,0,0,0,0,0,0,0,0,0,-1,1399,687,0,0
182,337,0,0,0,0,0,0,0,0,0,-1,1406,687,0,0
189,337,0,0,0,0,0,0,0,0,0,-1,1413,687,0,0
196,337,0,0,0,0,0,0,0,0,0,-1,1420,687,0,0
203,337,0,0,0,0,0,0,0,0,0,-1,1427,687,0,0
210,337,0,0,0,0,0,0,0,0,0,-1,1434,687,0,0
217,337,0,0,0,0,0,0,0,0,0,-1,1441,687,0,0
224,337,0,0,0,0,0,0,0,0,0,-1,1448,687,0,0
231,337,0,0,0,0,0,0,0,0,0,-1,1455,687,0,0
238,337,0,0,0,0,0,0,0,0,0,-1,1462,687,0,0
245,337,0,0,0,0,0,0,0,0,0,-1,1469,687,0,0
252,337,0,0,0,0,0,0,0,0,0,-1,1476,687,0,0
259,337,0,0,0,0,0,0,0,0,0,-1,1483,687,0,0
266,337,0,0,0,0,0,0,0,0,0,-1,1490,687,0,0
273,337,0,0,0,0,0,0,0,0,0,-1,1497,687,0,0
280,337,0,0,0,0,0,0,0,0,0,-1,1504,687,0,0
287,337,0,0,0,0,0,0,0,0,0,-1,1511,687,0,0
294,337,0,0,0,0,0,0,0,0,0,-1,1518,687,0,0
301,337,0,0,0,0,0,0,0,0,0,-1,1525,687,0,0
308,337,0,0,0,0,0,0,0,0,0,-1,1532,687,0,0
315,337,0,0,0,0,0,0,0,0,0,-1,1539,687,0,0
322,337,0,0,0,0,0,0,0,0,0,-1,1546,687,0,0
329,337,0,0,0,0,0,0,0,0,0,-1,1553,687,0,0
336,337,0,0,0,0,0,0,0,0,0,-1,1560,687,0,0
343,337,0,0,0,0,0,0,0,0,0,-1,1567,687,0,0
350,337,0,0,0,0,0,0,0,0,0,-1,1574,687,0,0
357,337,0,0,0,0,0,0,0,0,0,-1,1581,687,0,0
364,337,0,0,0,0,0,0,0,0,0,-1,1588,687,0,0
371,337,0,0,0,0,0,0,0,0,0,-1,1595,687,0,0
378,337,0,0,0,0,0,0,0,0,0,-1,1602,687,0,0
385,337,0,0,0,0,0,0,0,0,0,-1,1609,687,0,0
392,337,0,0,0,0,0,0,0,0,0,-1,1616,687,0,0
399,337,0,0,0,0,0,0,0,0,0,-1,1623,687,0,0
406,337,0,0,0,0,0,0,0,0,0,-1,1630,687,0,0
413,337,0,0,0,0,0,0,0,0,0,-1,1637,687,0,0
420,337,0,0,0,0,0,0,0,0,0,-1,1644,687,0,0
427,337,0,0,0,0,0,0,0,0,0,-1,1651,687,0,0
434,337,0,0,0,0,0,0,0,0,0,-1,1658,687,0,0
441,337,0,0,0,0,0,0,0,0,0,-1,1665,687,0,0
448,337,0,0,0,0,0,0,0,0,0,-1,1672,687,0,0
455,337,0,0,0,0,0,0,0,0,0,-1,1679,687,0,0
462,337,0,0,0,0,0,0,0,0,0,-1,1686,687,0,0
469,337,0,0,0,0,0,0,0,0,0,-1,1693,687,0,0
476,337,0,0,0,0,0,0,0,0,0,-1,1700,687,0,0
483,337,0,0,0,0,0,0,0,0,0,-1,1707,687,0,0
490,337,0,0,0,0,0,0,0,0,0,-1,1714,687,0,0
497,337,0,0,0,0,0,0,0,0,0,-1,1721,687,0,0
504,337,0,0,0,0,0,0,0,0,0,-1,1728,687,0,0
511,337,0,0,0,0,0,0,0,0,0,-1,1735,687,0,0
518,337,18.0369,1.64581,0,0,0,0,0,0,0,-1,1742,687,18.0368,-1.64581
525,337,31.0717,2.13745,0,0,0,0,0,0,0,-1,1749,687,31.0717,-2.13747
532,337,31.5126,2.13904,0,0,0,0,0,0,0,-1,1756,687,31.5125,-2.13905
539,337,31.9684,2.15594,0,0,0,0,0,0,0,-1,1763,687,31.9684,-2.15596
546,337,32.3584,1.43719,0,0,0,0,0,0,0,-1,1770,687,32.3585,-1.43722
553,337,32.1809,1.36395,0,0,0,0,0,0,0,-1,1777,687,32.181,-1.36396
560,337,18.4053,3.62793,0,0,0,0,0,0,0,-1,1784,687,18.4052,-3.6279
567,337,11.9288,1.38776,0,0,0,0,0,0,0,-1,1791,687,11.9288,-1.38777
574,337,10.704,1.19476,0,0,0,0,0,0,0,-1,1798,687,10.704,-1.19478
581,337,8.50427,0.561768,0,0,0,0,0,0,0,-1,1805,687,8.5043,-0.561754
588,337,8.5885,-0.0536499,0,0,0,0,0,0,0,-1,1812,687,8.58844,0.0536788
595,337,13.8816,-1.70703,0,0,0,0,0,0,0,-1,1819,687,13.8816,1.70702
602,337,28.5182,-7.56512,0,0,0,0,0,0,0,-1,1826,687,28.5182,7.56515
609,337,28.5315,-6.81946,0.000512807,0.0013929,0.000362297,0.00152285,0.000382853,1.2264,0.000914725,0.0259856,1833,687,28.5314,6.81945
616,337,28.4945,-6.16797,0.00096213,0.00122401,0.00064086,0.00174717,0.00043897,0.886171,0.00104952,0.018583,1840,687,28.4945,6.16797
623,337,28.4894,-5.53058,0.000855843,0.00100073,0.000622557,0.00155504,0.000301528,0.84332,0.000952235,0.0158538,1847,687,28.4894,5.53057
630,337,28.4608,-4.88373,0.000404429,0.000873788,0.000589735,0.00127382,4.39415e-06,0.974763,0.000847754,0.0191455,1854,687,28.4609,4.88371
637,337,28.4337,-4.21814,-0.000414429,0.000844232,0.000451113,0.000989214,-0.000559411,1.25984,0.000905505,0.0166317,1861,687,28.4337,4.21813
644,337,28.3994,-3.51782,-0.00160633,0.000823264,0.000208374,0.000841006,-0.00162408,1.48586,0.00144695,0.0113014,1868,687,28.3995,3.51784
651,337,28.3652,-2.8559,-0.00324361,0.000861409,-0.000160671,0.000867688,-0.00324989,-1.53174,0.0025064,0.0100645,1875,687,28.3652,2.85587
658,337,28.3508,-2.18579,-0.00541101,0.000980293,-0.000695904,0.00105519,-0.00548591,-1.46359,0.00405503,0.0115486,1882,687,28.3508,2.18576
665,337,28.3368,-1.52863,-0.00818392,0.00114583,-0.00139136,0.0013489,-0.008387,-1.42587,0.00609096,0.0153371,1889,687,28.3368,1.52861
672,337,28.3535,-0.86145,0,0,0,0,0,0,0,-1,1896,687,28.3536,0.861438
679,337,27.8282,-0.12085,0,0,0,0,0,0,0,-1,1903,687,27.8283,0.120829
686,337,18.5614,1.68597,0,0,0,0,0,0,0,-1,1910,687,18.5614,-1.68598
693,337,16.5415,2.21411,0,0,0,0,0,0,0,-1,1917,687,16.5415,-2.2141
700,337,17.2661,2.44379,0,0,0,0,0,0,0,-1,1924,687,17.2661,-2.44378
707,337,17.3544,5.61853,0,0,0,0,0,0,0,-1,1931,687,17.3543,-5.61851
714,337,0,0,0,0,0,0,0,0,0,-1,1938,687,0,0
721,337,0,0,0,0,0,0,0,0,0,-1,1945,687,0,0
728,337,0,0,0,0,0,0,0,0,0,-1,1952,687,0,0
735,337,0,0,0,0,0,0,0,0,0,-1,1959,687,0,0
742,337,0,0,0,0,0,0,0,0,0,-1,1966,687,0,0
749,337,0,0,0,0,0,0,0,0,0,-1,1973,687,0,0
756,337,0,0,0,0,0,0,0,0,0,-1,1980,687,0,0
763,337,0,0,0,0,0,0,0,0,0,-1,1987,687,0,0
770,337,0,0,0,0,0,0,0,0,0,-1,1994,687,0,0
777,337,0,0,0,0,0,0,0,0,0,-1,2001,687,0,0
784,337,0,0,0,0,0,0,0,0,0,-1,2008,687,0,0
791,337,0,0,0,0,0,0,0,0,0,-1,2015,687,0,0
798,337,0,0,0,0,0,0,0,0,0,-1,2022,687,0,0
805,337,0,0,0,0,0,0,0,0,0,-1,2029,687,0,0
812,337,0,0,0,0,0,0,0,0,0,-1,2036,687,0,0
-700,330,0,0,0,0,0,0,0,0,0,-1,524,694,0,0
-693,330,0,0,0,0,0,0,0,0,0,-1,531,694,0,0
-686,330,0,0,0,0,0,0,0,0,0,-1,538,694,0,0
-679,330,0,0,0,0,0,0,0,0,0,-1,545,694,0,0
-672,330,0,0,0,0,0,0,0,0,0,-1,552,694,0,0
-665,330,0,0,0,0,0,0,0,0,0,-1,559,694,0,0
-658,330,0,0,0,0,0,0,0,0,0,-1,566,694,0,0
-651,330,0,0,0,0,0,0,0,0,0,-1,573,694,0,0
-644,330,0,0,0,0,0,0,0,0,0,-1,580,694,0,0
-637,330,0,0,0,0,0,0,0,0,0,-1,587,694,0,0
-630,330,0,0,0,0,0,0,0,0,0,-1,594,694,0,0
-623,330,0,0,0,0,0,0,0,0,0,-1,601,694,0,0
-616,330,0,0,0,0,0,0,0,0,0,-1,608,694,0,0
-609,330,0,0,0,0,0,0,0,0,0,-1,615,694,0,0
-602,330,0,0,0,0,0,0,0,0,0,-1,622,694,0,0
-595,330,-4.67883,1.65515,0,0,0,0,0,0,0,-1,629,694,-4.67881,-1.65515
-588,330,-8.5047,2.67346,0,0,0,0,0,0,0,-1,636,694,-8.50469,-2.67348
-581,330,-12.4227,0.947083,0,0,0,0,0,0,0,-1,643,694,-12.4227,-0.947109
-574,330,-9.02118,1.87952,0,0,0,0,0,0,0,-1,650,694,-9.02115,-1.87953
-567,330,-8.35577,0.909973,0,0,0,0,0,0,0,-1,657,694,-8.35575,-0.909945
-560,330,-13.1036,-0.584656,0,0,0,0,0,0,0,-1,664,694,-13.1035,0.584658
-553,330,-17.3652,-1.40656,0,0,0,0,0,0,0,-1,671,694,-17.3652,1.40659
-546,330,-17.2861,-2.35901,0.00201218,0.0120311,-0.00339063,0.0130707,0.000972586,-1.27329,0.00840838,0.0493726,678,694,-17.2861,2.35899
-539,330,-17.2936,-3.27997,0.00188271,0.00909525,-0.00279054,0.0100488,0.000929121,-1.24152,0.006412,0.0247711,685,694,-17.2936,3.27997
-532,330,-17.5149,-3.87787,0.00171185,0.00656581,-0.00216975,0.00739429,0.000883366,-1.20605,0.00466305,0.0171532,692,694,-17.5149,3.87785
-525,330,-17.4968,-4.58374,0.00157445,0.00441603,-0.00155616,0.00510244,0.000888043,-1.15538,0.00314765,0.0106978,699,694,-17.4968,4.58373
-518,330,-17.5029,-5.19745,0.00145236,0.0026516,-0.00098757,0.00320734,0.00089663,-1.05824,0.00191081,0.0155572,706,694,-17.5029,5.19747
-511,330,-17.5717,-5.83063,0.00137189,0.00122858,-0.000504368,0.00180967,0.000790803,-0.714838,0.00104757,0.0217246,713,694,-17.5717,5.83064
-504,330,-17.5672,-6.48669,0.00105808,-4.55781e-05,-0.000346263,0.00115772,-0.00014522,-0.280192,0.000824493,0.0197154,720,694,-17.5672,6.48672
-497,330,-17.5938,-7.1004,0.000202642,-0.00116479,-0.000970026,0.000705693,-0.00166784,-0.478413,0.00140739,0.014616,727,694,-17.5938,7.10038
-490,330,-17.5832,-7.74451,-0.000911845,-0.00217561,-0.00204432,0.000596019,-0.00368348,-0.635509,0.00267654,0.0147503,734,694,-17.5832,7.74451
-483,330,-17.5861,-8.39294,-0.00271824,-0.00318799,-0.00407905,0.00113269,-0.00703892,-0.756639,0.00511218,0.0144124,741,694,-17.5861,8.39294
-476,330,-17.5827,-9.0741,0,0,0,0,0,0,0,-1,748,694,-17.5827,9.07413
-469,330,-16.1478,-9.23303,0,0,0,0,0,0,0,-1,755,694,-16.1478,9.23301
-462,330,-7.26733,-3.84833,0,0,0,0,0,0,0,-1,762,694,-7.26731,3.84832
-455,330,-5.04254,-1.79303,0,0,0,0,0,0,0,-1,769,694,-5.04252,1.79305
-448,330,-4.89886,-1.66156,0,0,0,0,0,0,0,-1,776,694,-4.89886,1.66157
-441,330,-5.30676,-2.34045,0,0,0,0,0,0,0,-1,783,694,-5.30679,2.34048
-434,330,-7.20428,1.00024,0,0,0,0,0,0,0,-1,790,694,-7.20431,-1.00027
-427,330,-16.0428,2.89258,0,0,0,0,0,0,0,-1,797,694,-16.0428,-2.89259
-420,330,-29.0331,0.271606,0,0,0,0,0,0,0,-1,804,694,-29.0331,-0.27158
-413,330,-29.0896,0.56366,0,0,0,0,0,0,0,-1,811,694,-29.0896,-0.563671
-406,330,-1.65375,-1.74371,0,0,0,0,0,0,0,-1,818,694,-1.65375,1.74371
-399,330,0,0,0,0,0,0,0,0,0,-1,825,694,0,0
-392,330,0,0,0,0,0,0,0,0,0,-1,832,694,0,0
-385,330,0,0,0,0,0,0,0,0,0,-1,839,694,0,0
-378,330,0,0,0,0,0,0,0,0,0,-1,846,694,0,0
-371,330,0,0,0,0,0,0,0,0,0,-1,853,694,0,0
-364,330,0,0,0,0,0,0,0,0,0,-1,860,694,0,0
-357,330,0,0,0,0,0,0,0,0,0,-1,867,694,0,0
-350,330,0,0,0,0,0,0,0,0,0,-1,874,694,0,0
-343,330,0,0,0,0,0,0,0,0,0,-1,881,694,0,0
-336,330,0,0,0,0,0,0,0,0,0,-1,888,694,0,0
-329,330,0,0,0,0,0,0,0,0,0,-1,895,694,0,0
-322,330,0,0,0,0,0,0,0,0,0,-1,902,694,0,0
-315,330,0,0,0,0,0,0,0,0,0,-1,909,694,0,0
-308,330,0,0,0,0,0,0,0,0,0,-1,916,694,0,0
-301,330,0,0,0,0,0,0,0,0,0,-1,923,694,0,0
-294,330,0,0,0,0,0,0,0,0,0,-1,930,694,0,0
-287,330,0,0,0,0,0,0,0,0,0,-1,937,694,0,0
-280,330,0,0,0,0,0,0,0,0,0,-1,944,694,0,0
-273,330,0,0,0,0,0,0,0,0,0,-1,951,694,0,0
-266,330,0,0,0,0,0,0,0,0,0,-1,958,694,0,0
-259,330,0,0,0,0,0,0,0,0,0,-1,965,694,0,0
-252,330,0,0,0,0,0,0,0,0,0,-1,972,694,0,0
-245,330,0,0,0,0,0,0,0,0,0,-1,979,694,0,0
-238,330,0,0,0,0,0,0,0,0,0,-1,986,694,0,0
-231,330,0,0,0,0,0,0,0,0,0,-1,993,694,0,0
-224,330,0,0,0,0,0,0,0,0,0,-1,1000,694,0,0
-217,330,0,0,0,0,0,0,0,0,0,-1,1007,694,0,0
-210,330,0,0,0,0,0,0,0,0,0,-1,1014,694,0,0
-203,330,0,0,0,0,0,0,0,0,0,-1,1021,694,0,0
-196,330,0,0,0,0,0,0,0,0,0,-1,1028,694,0,0
-189,330,0,0,0,0,0,0,0,0,0,-1,1035,694,0,0
-182,330,0,0,0,0,0,0,0,0,0,-1,1042,694,0,0
-175,330,0,0,0,0,0,0,0,0,0,-1,1049,694,0,0
-168,330,0,0,0,0,0,0,0,0,0,-1,1056,694,0,0
-161,330,0,0,0,0,0,0,0,0,0,-1,1063,694,0,0
-154,330,0,0,0,0,0,0,0,0,0,-1,1070,694,0,0
-147,330,0,0,0,0,0,0,0,0,0,-1,1077,694,0,0
-140,330,0,0,0,0,0,0,0,0,0,-1,1084,694,0,0
-133,330,0,0,0,0,0,0,0,0,0,-1,1091,694,0,0
-126,330,0,0,0,0,0,0,0,0,0,-1,1098,694,0,0
-119,330,0,0,0,0,0,0,0,0,0,-1,1105,694,0,0
-112,330,0,0,0,0,0,0,0,0,0,-1,1112,694,0,0
-105,330,0,0,0,0,0,0,0,0,0,-1,1119,694,0,0
-98,330,0,0,0,0,0,0,0,0,0,-1,1126,694,0,0
-91,330,0,0,0,0,0,0,0,0,0,-1,1133,694,0,0
-84,330,0,0,0,0,0,0,0,0,0,-1,1140,694,0,0
-77,330,0,0,0,0,0,0,0,0,0,-1,1147,694,0,0
-70,330,0,0,0,0,0,0,0,0,0,-1,1154,694,0,0
-63,330,0,0,0,0,0,0,0,0,0,-1,1161,694,0,0
-56,330,0,0,0,0,0,0,0,0,0,-1,1168,694,0,0
-49,330,0,0,0,0,0,0,0,0,0,-1,1175,694,0,0
-42,330,0,0,0,0,0,0,0,0,0,-1,1182,694,0,0
-35,330,0,0,0,0,0,0,0,0,0,-1,1189,694,0,0
-28,330,0,0,0,0,0,0,0,0,0,-1,1196,694,0,0
-21,330,0,0,0,0,0,0,0,0,0,-1,1203,694,0,0
-14,330,0,0,0,0,0,0,0,0,0,-1,1210,694,0,0
-7,330,0,0,0,0,0,0,0,0,0,-1,1217,694,0,0
0,330,0,0,0,0,0,0,0,0,0,-1,1224,694,0,0
7,330,0,0,0,0,0,0,0,0,0,-1,1231,694,0,0
14,330,0,0,0,0,0,0,0,0,0,-1,1238,694,0,0
21,330,0,0,0,0,0,0,0,0,0,-1,1245,694,0,0
28,330,0,0,0,0,0,0,0,0,0,-1,1252,694,0,0
35,330,0,0,0,0,0,0,0,0,0,-1,1259,694,0,0
42,330,0,0,0,0,0,0,0,0,0,-1,1266,694,0,0
49,330,0,0,0,0,0,0,0,0,0,-1,1273,694,0,0
56,330,0,0,0,0,0,0,0,0,0,-1,1280,694,0,0
63,330,0,0,0,0,0,0,0,0,0,-1,1287,694,0,0
70,330,0,0,0,0,0,0,0,0,0,-1,1294,694,0,0
77,330,0,0,0,0,0,0,0,0,0,-1,1301,694,0,0
84,330,0,0,0,0,0,0,0,0,0,-1,1308,694,0,0
91,330,0,0,0,0,0,0,0,0,0,-1,1315,694,0,0
98,330,0,0,0,0,0,0,0,0,0,-1,1322,694,0,0
105,330,0,0,0,0,0,0,0,0,0,-1,1329,694,0,0
112,330,0,0,0,0,0,0,0,0,0,-1,1336,694,0,0
119,330,0,0,0,0,0,0,0,0,0,-1,1343,694,0,0
126,330,0,0,0,0,0,0,0,0,0,-1,1350,694,0,0
133,330,0,0,0,0,0,0,0,0,0,-1,1357,694,0,0
140,330,0,0,0,0,0,0,0,0,0,-1,1364,694,0,0
147,330,0,0,0,0,0,0,0,0,0,-1,1371,694,0,0
154,330,0,0,0,0,0,0,0,0,0,-1,1378,694,0,0
161,330,0,0,0,0,0,0,0,0,0,-1,1385,694,0,0
168,330,0,0,0,0,0,0,0,0,0,-1,1392,694,0,0
175,330,0,0,0,0,0,0,0,0,0,-1,1399,694,0,0
182,330,0,0,0,0,0,0,0,0,0,-1,1406,694,0,0
189,330,0,0,0,0,0,0,0,0,0,-1,1413,694,0,0
196,330,0,0,0,0,0,0,0,0,0,-1,1420,694,0,0
203,330,0,0,0,0,0,0,0,0,0,-1,1427,694,0,0
210,330,0,0,0,0,0,0,0,0,0,-1,1434,694,0,0
217,330,0,0,0,0,0,0,0,0,0,-1,1441,694,0,0
224,330,0,0,0,0,0,0,0,0,0,-1,1448,694,0,0
231,330,0,0,0,0,0,0,0,0,0,-1,1455,694,0,0
238,330,0,0,0,0,0,0,0,0,0,-1,1462,694,0,0
245,330,0,0,0,0,0,0,0,0,0,-1,1469,694,0,0
252,330,0,0,0,0,0,0,0,0,0,-1,1476,694,0,0
259,330,0,0,0,0,0,0,0,0,0,-1,1483,694,0,0
266,330,0,0,0,0,0,0,0,0,0,-1,1490,694,0,0
273,330,0,0,0,0,0,0,0,0,0,-1,1497,694,0,0
280,330,0,0,0,0,0,0,0,0,0,-1,1504,694,0,0
287,330,0,0,0,0,0,0,0,0,0,-1,1511,694,0,0
294,330,0,0,0,0,0,0,0,0,0,-1,1518,694,0,0
301,330,0,0,0,0,0,0,0,0,0,-1,1525,694,0,0
308,330,0,0,0,0,0,0,0,0,0,-1,1532,694,0,0
315,330,0,0,0,0,0,0,0,0,0,-1,1539,694,0,0
322,330,0,0,0,0,0,0,0,0,0,-1,1546,694,0,0
329,330,0,0,0,0,0,0,0,0,0,-1,1553,694,0,0
336,330,0,0,0,0,0,0,0,0,0,-1,1560,694,0,0
343,330,0,0,0,0,0,0,0,0,0,-1,1567,694,0,0
350,330,0,0,0,0,0,0,0,0,0,-1,1574,694,0,0
357,330,0,0,0,0,0,0,0,0,0,-1,1581,694,0,0
364,330,0,0,0,0,0,0,0,0,0,-1,1588,694,0,0
371,330,0,0,0,0,0,0,0,0,0,-1,1595,694,0,0
378,330,0,0,0,0,0,0,0,0,0,-1,1602,694,0,0
385,330,0,0,0,0,0,0,0,0,0,-1,1609,694,0,0
392,330,0,0,0,0,0,0,0,0,0,-1,1616,694,0,0
399,330,0,0,0,0,0,0,0,0,0,-1,1623,694,0,0
406,330,0,0,0,0,0,0,0,0,0,-1,1630,694,0,0
413,330,0,0,0,0,0,0,0,0,0,-1,1637,694,0,0
420,330,0,0,0,0,0,0,0,0,0,-1,1644,694,0,0
427,330,0,0,0,0,0,0,0,0,0,-1,1651,694,0,0
434,330,0,0,0,0,0,0,0,0,0,-1,1658,694,0,0
441,330,0,0,0,0,0,0,0,0,0,-1,1665,694,0,0
448,330,0,0,0,0,0,0,0,0,0,-1,1672,694,0,0
455,330,0,0,0,0,0,0,0,0,0,-1,1679,694,0,0
462,330,0,0,0,0,0,0,0,0,0,-1,1686,694,0,0
469,330,0,0,0,0,0,0,0,0,0,-1,1693,694,0,0
476,330,0,0,0,0,0,0,0,0,0,-1,1700,694,0,0
483,330,0,0,0,0,0,0,0,0,0,-1,1707,694,0,0
490,330,0,0,0,0,0,0,0,0,0,-1,1714,694,0,0
497,330,0,0,0,0,0,0,0,0,0,-1,1721,694,0,0
504,330,0,0,0,0,0,0,0,0,0,-1,1728,694,0,0
511,330,0,0,0,0,0,0,0,0,0,-1,1735,694,0,0
518,330,0,0,0,0,0,0,0,0,0,-1,1742,694,0,0
525,330,30.6694,0.69519,0,0,0,0,0,0,0,-1,1749,694,30.6694,-0.695206
532,330,30.9469,1.32501,0,0,0,0,0,0,0,-1,1756,694,30.9469,-1.32501
539,330,31.5155,1.62506,0,0,0,0,0,0,0,-1,1763,694,31.5155,-1.62507
546,330,31.4187,1.85651,0,0,0,0,0,0,0,-1,1770,694,31.4187,-1.85651
553,330,31.8452,1.81476,0,0,0,0,0,0,0,-1,1777,694,31.8452,-1.81475
560,330,32.2401,2.43225,0,0,0,0,0,0,0,-1,1784,694,32.2401,-2.43227
567,330,18.0321,3.98578,0,0,0,0,0,0,0,-1,1791,694,18.0321,-3.98576
574,330,12.0454,2.1662,0,0,0,0,0,0,0,-1,1798,694,12.0455,-2.16618
581,330,11.4215,4.50836,0,0,0,0,0,0,0,-1,1805,694,11.4215,-4.50837
588,330,6.45667,-0.0630493,0,0,0,0,0,0,0,-1,1812,694,6.45661,0.0630695
595,330,8.23193,-0.258484,0,0,0,0,0,0,0,-1,1819,694,8.23188,0.258459
602,330,28.9641,-7.59851,0,0,0,0,0,0,0,-1,1826,694,28.9641,7.59852
609,330,29.071,-6.82599,0.000564446,0.00153779,0.000472627,0.00172952,0.000372719,1.18542,0.00105104,0.0359628,1833,694,29.0711,6.82598
616,330,29.1261,-6.14398,0.00107803,0.00125392,0.00076846,0.00193945,0.000392497,0.842371,0.00118402,0.0128487,1840,694,29.1262,6.14399
623,330,29.1224,-5.49933,0.000985204,0.000935404,0.00068602,0.00164678,0.000273833,0.767258,0.00101891,0.0141281,1847,694,29.1224,5.49935
630,330,29.1115,-4.84082,0.000593969,0.000748863,0.000633736,0.00130987,3.29654e-05,0.8462,0.000862466,0.0141861,1854,694,29.1114,4.8408
637,330,29.084,-4.17603,-0.00018807,0.000697328,0.000483296,0.000910036,-0.000400777,1.15619,0.000775603,0.0129732,1861,694,29.084,4.176
644,330,29.0518,-3.49817,-0.00126743,0.000711676,0.00026901,0.00074759,-0.00130335,1.43808,0.00119851,0.00827737,1868,694,29.0517,3.4982
651,330,29.0387,-2.82599,-0.00268963,0.000797125,-3.30804e-05,0.000797439,-0.00268994,-1.56131,0.00210995,0.0109641,1875,694,29.0387,2.82602
658,330,28.9973,-2.159,-0.00449735,0.00102077,-0.000425709,0.00105342,-0.00453,-1.49425,0.00342556,0.0112123,1882,694,28.9973,2.15898
665,330,28.9481,-1.5036,-0.00674372,0.00134364,-0.00092685,0.0014485,-0.00684858,-1.45814,0.00511735,0.0106697,1889,694,28.9482,1.50362
672,330,29.0016,-0.828552,-0.00953644,0.00187165,-0.00161218,0.00209511,-0.0097599,-1.43307,0.0073058,0.0282353,1896,694,29.0016,0.828528
679,330,28.546,-0.199646,-0.0132803,0.00256535,-0.00258224,0.00297554,-0.0136905,-1.41326,0.0102636,0.0459582,1903,694,28.546,0.19967
686,330,28.1504,0.629211,0,0,0,0,0,0,0,-1,1910,694,28.1504,-0.62922
693,330,17.3999,2.5976,0,0,0,0,0,0,0,-1,1917,694,17.4,-2.59759
700,330,17.1072,4.13,0,0,0,0,0,0,0,-1,1924,694,17.1071,-4.13002
707,330,16.663,4.88672,0,0,0,0,0,0,0,-1,1931,694,16.6629,-4.88673
714,330,16.5454,5.80896,0,0,0,0,0,0,0,-1,1938,694,16.5454,-5.80899
721,330,0,0,0,0,0,0,0,0,0,-1,1945,694,0,0
728,330,0,0,0,0,0,0,0,0,0,-1,1952,694,0,0
735,330,0,0,0,0,0,0,0,0,0,-1,1959,694,0,0
742,330,0,0,0,0,0,0,0,0,0,-1,1966,694,0,0
749,330,0,0,0,0,0,0,0,0,0,-1,1973,694,0,0
756,330,0,0,0,0,0,0,0,0,0,-1,1980,694,0,0
763,330,0,0,0,0,0,0,0,0,0,-1,1987,694,0,0
770,330,0,0,0,0,0,0,0,0,0,-1,1994,694,0,0
777,330,0,0,0,0,0,0,0,0,0,-1,2001,694,0,0
784,330,0,0,0,0,0,0,0,0,0,-1,2008,694,0,0
791,330,0,0,0,0,0,0,0,0,0,-1,2015,694,0,0
798,330,0,0,0,0,0,0,0,0,0,-1,2022,694,0,0
805,330,0,0,0,0,0,0,0,0,0,-1,2029,694,0,0
812,330,0,0,0,0,0,0,0,0,0,-1,2036,694,0,0
-700,323,0,0,0,0,0,0,0,0,0,-1,524,701,0,0
-693,323,0,0,0,0,0,0,0,0,0,-1,531,701,0,0
-686,323,0,0,0,0,0,0,0,0,0,-1,538,701,0,0
-679,323,0,0,0,0,0,0,0,0,0,-1,545,701,0,0
-672,323,0,0,0,0,0,0,0,0,0,-1,552,701,0,0
-665,323,0,0,0,0,0,0,0,0,0,-1,559,701,0,0
-658,323,0,0,0,0,0,0,0,0,0,-1,566,701,0,0
-651,323,0,0,0,0,0,0,0,0,0,-1,573,701,0,0
-644,323,0,0,0,0,0,0,0,0,0,-1,580,701,0,0
-637,323,0,0,0,0,0,0,0,0,0,-1,587,701,0,0
-630,323,0,0,0,0,0,0,0,0,0,-1,594,701,0,0
-623,323,0,0,0,0,0,0,0,0,0,-1,601,701,0,0
-616,323,0,0,0,0,0,0,0,0,0,-1,608,701,0,0
-609,323,0,0,0,0,0,0,0,0,0,-1,615,701,0,0
-602,323,-4.15833,2.12256,0,0,0,0,0,0,0,-1,622,701,-4.1583,-2.12257
-595,323,-4.052,1.79156,0,0,0,0,0,0,0,-1,629,701,-4.05198,-1.79158
-588,323,-4.07019,1.94543,0,0,0,0,0,0,0,-1,636,701,-4.07019,-1.94542
-581,323,-6.63727,0.562805,0,0,0,0,0,0,0,-1,643,701,-6.63728,-0.56279
-574,323,-6.15887,0.426697,0,0,0,0,0,0,0,-1,650,701,-6.15887,-0.426727
-567,323,-10.0015,0.0371094,0,0,0,0,0,0,0,-1,657,701,-10.0015,-0.037126
-560,323,-16.3503,-1.16956,0,0,0,0,0,0,0,-1,664,701,-16.3503,1.16957
-553,323,-18.0892,-2.14008,0,0,0,0,0,0,0,-1,671,701,-18.0893,2.14005
-546,323,-18.0549,-2.64587,0.00154186,0.00969631,-0.00249443,0.0103988,0.000839341,-1.29627,0.0066704,0.0260072,678,701,-18.0549,2.6459
-539,323,-18.0482,-3.19629,0.00157137,0.00738767,-0.00206312,0.00804516,0.000913871,-1.26228,0.00508626,0.0207289,685,701,-18.0482,3.19627
-532,323,-18.0903,-3.87628,0.00149598,0.00529003,-0.00158873,0.00586743,0.00091858,-1.22221,0.00364422,0.0112629,692,701,-18.0903,3.8763
-525,323,-18.1214,-4.53766,0.00138545,0.00344411,-0.00108867,0.00391301,0.000916544,-1.16409,0.00236317,0.0081091,699,701,-18.1214,4.53764
-518,323,-18.13,-5.15076,0.0012711,0.0018334,-0.000606799,0.00222102,0.000883484,-1.00234,0.00129121,0.0103358,706,701,-18.13,5.15075
-511,323,-18.1758,-5.78314,0.00113755,0.000449401,-0.000217909,0.00120074,0.000386202,-0.282282,0.000707801,0.0148124,713,701,-18.1758,5.78315
-504,323,-18.2224,-6.42816,0.000418234,-0.00106409,-0.000507806,0.000575508,-0.00122137,-0.300344,0.00105953,0.0157363,720,701,-18.2223,6.42816
-497,323,-18.2289,-7.0517,-0.00109405,-0.002489,-0.00185951,0.000194485,-0.00377754,-0.605974,0.00258563,0.0123225,727,701,-18.2289,7.0517
-490,323,-18.2475,-7.69409,-0.00294692,-0.00393899,-0.00378286,0.000372286,-0.00725819,-0.720207,0.00496754,0.0136842,734,701,-18.2475,7.69412
-483,323,-18.231,-8.32349,-0.00577693,-0.00559153,-0.00698184,0.00129823,-0.0126667,-0.792036,0.00890878,0.0286232,741,701,-18.231,8.32346
-476,323,-18.2462,-8.93042,0,0,0,0,0,0,0,-1,748,701,-18.2462,8.93044
-469,323,-8.33301,-3.64001,0,0,0,0,0,0,0,-1,755,701,-8.33298,3.64
-462,323,-5.29431,-1.45697,0,0,0,0,0,0,0,-1,762,701,-5.29431,1.45699
-455,323,-5.0658,-1.36639,0,0,0,0,0,0,0,-1,769,701,-5.06578,1.3664
-448,323,-4.91608,-1.59601,0,0,0,0,0,0,0,-1,776,701,-4.91606,1.59604
-441,323,-14.4006,0.535217,0,0,0,0,0,0,0,-1,783,701,-14.4006,-0.535203
-434,323,-15.3158,2.479,0,0,0,0,0,0,0,-1,790,701,-15.3158,-2.47898
-427,323,-28.3923,1.16797,0,0,0,0,0,0,0,-1,797,701,-28.3923,-1.16796
-420,323,-28.7292,1.09302,0,0,0,0,0,0,0,-1,804,701,-28.7292,-1.09304
-413,323,-28.7955,1.22418,0,0,0,0,0,0,0,-1,811,701,-28.7956,-1.22419
-406,323,0,0,0,0,0,0,0,0,0,-1,818,701,0,0
-399,323,0,0,0,0,0,0,0,0,0,-1,825,701,0,0
-392,323,0,0,0,0,0,0,0,0,0,-1,832,701,0,0
-385,323,0,0,0,0,0,0,0,0,0,-1,839,701,0,0
-378,323,0,0,0,0,0,0,0,0,0,-1,846,701,0,0
-371,323,0,0,0,0,0,0,0,0,0,-1,853,701,0,0
-364,323,0,0,0,0,0,0,0,0,0,-1,860,701,0,0
-357,323,0,0,0,0,0,0,0,0,0,-1,867,701,0,0
-350,323,0,0,0,0,0,0,0,0,0,-1,874,701,0,0
-343,323,0,0,0,0,0,0,0,0,0,-1,881,701,0,0
-336,323,0,0,0,0,0,0,0,0,0,-1,888,701,0,0
-329,323,0,0,0,0,0,0,0,0,0,-1,895,701,0,0
-322,323,0,0,0,0,0,0,0,0,0,-1,902,701,0,0
-315,323,0,0,0,0,0,0,0,0,0,-1,909,701,0,0
-308,323,0,0,0,0,0,0,0,0,0,-1,916,701,0,0
-301,323,0,0,0,0,0,0,0,0,0,-1,923,701,0,0
-294,323,0,0,0,0,0,0,0,0,0,-1,930,701,0,0
-287,323,0,0,0,0,0,0,0,0,0,-1,937,701,0,0
-280,323,0,0,0,0,0,0,0,0,0,-1,944,701,0,0
-273,323,0,0,0,0,0,0,0,0,0,-1,951,701,0,0
-266,323,0,0,0,0,0,0,0,0,0,-1,958,701,0,0
-259,323,0,0,0,0,0,0,0,0,0,-1,965,701,0,0
-252,323,0,0,0,0,0,0,0,0,0,-1,972,701,0,0
-245,323,0,0,0,0,0,0,0,0,0,-1,979,701,0,0
-238,323,0,0,0,0,0,0,0,0,0,-1,986,701,0,0
-231,323,0,0,0,0,0,0,0,0,0,-1,993,701,0,0
-224,323,0,0,0,0,0,0,0,0,0,-1,1000,701,0,0
-217,323,0,0,0,0,0,0,0,0,0,-1,1007,701,0,0
-210,323,0,0,0,0,0,0,0,0,0,-1,1014,701,0,0
-203,323,0,0,0,0,0,0,0,0,0,-1,1021,701,0,0
-196,323,0,0,0,0,0,0,0,0,0,-1,1028,701,0,0
-189,323,0,0,0,0,0,0,0,0,0,-1,1035,701,0,0
-182,323,0,0,0,0,0,0,0,0,0,-1,1042,701,0,0
-175,323,0,0,0,0,0,0,0,0,0,-1,1049,701,0,0
-168,323,0,0,0,0,0,0,0,0,0,-1,1056,701,0,0
-161,323,0,0,0,0,0,0,0,0,0,-1,1063,701,0,0
-154,323,0,0,0,0,0,0,0,0,0,-1,1070,701,0,0
-147,323,0,0,0,0,0,0,0,0,0,-1,1077,701,0,0
-140,323,0,0,0,0,0,0,0,0,0,-1,1084,701,0,0
-133,323,0,0,0,0,0,0,0,0,0,-1,1091,701,0,0
-126,323,0,0,0,0,0,0,0,0,0,-1,1098,701,0,0
-119,323,0,0,0,0,0,0,0,0,0,-1,1105,701,0,0
-112,323,0,0,0,0,0,0,0,0,0,-1,1112,701,0,0
-105,323,0,0,0,0,0,0,0,0,0,-1,1119,701,0,0
-98,323,0,0,0,0,0,0,0,0,0,-1,1126,701,0,0
-91,323,0,0,0,0,0,0,0,0,0,-1,1133,701,0,0
-84,323,0,0,0,0,0,0,0,0,0,-1,1140,701,0,0
-77,323,0,0,0,0,0,0,0,0,0,-1,1147,701,0,0
-70,323,0,0,0,0,0,0,0,0,0,-1,1154,701,0,0
-63,323,0,0,0,0,0,0,0,0,0,-1,1161,701,0,0
-56,323,0,0,0,0,0,0,0,0,0,-1,1168,701,0,0
-49,323,0,0,0,0,0,0,0,0,0,-1,1175,701,0,0
-42,323,0,0,0,0,0,0,0,0,0,-1,1182,701,0,0
-35,323,0,0,0,0,0,0,0,0,0,-1,1189,701,0,0
-28,323,0,0,0,0,0,0,0,0,0,-1,1196,701,0,0
-21,323,0,0,0,0,0,0,0,0,0,-1,1203,701,0,0
-14,323,0,0,0,0,0,0,0,0,0,-1,1210,701,0,0
-7,323,0,0,0,0,0,0,0,0,0,-1,1217,701,0,0
0,323,0,0,0,0,0,0,0,0,0,-1,1224,701,0,0
7,323,0,0,0,0,0,0,0,0,0,-1,1231,701,0,0
14,323,0,0,0,0,0,0,0,0,0,-1,1238,701,0,0
21,323,0,0,0,0,0,0,0,0,0,-1,1245,701,0,0
28,323,0,0,0,0,0,0,0,0,0,-1,1252,701,0,0
35,323,0,0,0,0,0,0,0,0,0,-1,1259,701,0,0
42,323,0,0,0,0,0,0,0,0,0,-1,1266,701,0,0
49,323,0,0,0,0,0,0,0,0,0,-1,1273,701,0,0
56,323,0,0,0,0,0,0,0,0,0,-1,1280,701,0,0
63,323,0,0,0,0,0,0,0,0,0,-1,1287,701,0,0
70,323,0,0,0,0,0,0,0,0,0,-1,1294,701,0,0
77,323,0,0,0,0,0,0,0,0,0,-1,1301,701,0,0
84,323,0,0,0,0,0,0,0,0,0,-1,1308,701,0,0
91,323,0,0,0,0,0,0,0,0,0,-1,1315,701,0,0
98,323,0,0,0,0,0,0,0,0,0,-1,1322,701,0,0
105,323,0,0,0,0,0,0,0,0,0,-1,1329,701,0,0
112,323,0,0,0,0,0,0,0,0,0,-1,1336,701,0,0
119,323,0,0,0,0,0,0,0,0,0,-1,1343,701,0,0
126,323,0,0,0,0,0,0,0,0,0,-1,1350,701,0,0
133,323,0,0,0,0,0,0,0,0,0,-1,1357,701,0,0
140,323,0,0,0,0,0,0,0,0,0,-1,1364,701,0,0
147,323,0,0,0,0,0,0,0,0,0,-1,1371,701,0,0
154,323,0,0,0,0,0,0,0,0,0,-1,1378,701,0,0
161,323,0,0,0,0,0,0,0,0,0,-1,1385,701,0,0
168,323,0,0,0,0,0,0,0,0,0,-1,1392,701,0,0
175,323,0,0,0,0,0,0,0,0,0,-1,1399,701,0,0
182,323,0,0,0,0,0,0,0,0,0,-1,1406,701,0,0
189,323,0,0,0,0,0,0,0,0,0,-1,1413,701,0,0
196,323,0,0,0,0,0,0,0,0,0,-1,1420,701,0,0
203,323,0,0,0,0,0,0,0,0,0,-1,1427,701,0,0
210,323,0,0,0,0,0,0,0,0,0,-1,1434,701,0,0
217,323,0,0,0,0,0,0,0,0,0,-1,1441,701,0,0
224,323,0,0,0,0,0,0,0,0,0,-1,1448,701,0,0
231,323,0,0,0,0,0,0,0,0,0,-1,1455,701,0,0
238,323,0,0,0,0,0,0,0,0,0,-1,1462,701,0,0
245,323,0,0,0,0,0,0,0,0,0,-1,1469,701,0,0
252,323,0,0,0,0,0,0,0,0,0,-1,1476,701,0,0
259,323,0,0,0,0,0,0,0,0,0,-1,1483,701,0,0
266,323,0,0,0,0,0,0,0,0,0,-1,1490,701,0,0
273,323,0,0,0,0,0,0,0,0,0,-1,1497,701,0,0
280,323,0,0,0,0,0,0,0,0,0,-1,1504,701,0,0
287,323,0,0,0,0,0,0,0,0,0,-1,1511,701,0,0
294,323,0,0,0,0,0,0,0,0,0,-1,1518,701,0,0
301,323,0,0,0,0,0,0,0,0,0,-1,1525,701,0,0
308,323,0,0,0,0,0,0,0,0,0,-1,1532,701,0,0
315,323,0,0,0,0,0,0,0,0,0,-1,1539,701,0,0
322,323,0,0,0,0,0,0,0,0,0,-1,1546,701,0,0
329,323,0,0,0,0,0,0,0,0,0,-1,1553,701,0,0
336,323,0,0,0,0,0,0,0,0,0,-1,1560,701,0,0
343,323,0,0,0,0,0,0,0,0,0,-1,1567,701,0,0
350,323,0,0,0,0,0,0,0,0,0,-1,1574,701,0,0
357,323,0,0,0,0,0,0,0,0,0,-1,1581,701,0,0
364,323,0,0,0,0,0,0,0,0,0,-1,1588,701,0,0
371,323,0,0,0,0,0,0,0,0,0,-1,1595,701,0,0
378,323,0,0,0,0,0,0,0,0,0,-1,1602,701,0,0
385,323,0,0,0,0,0,0,0,0,0,-1,1609,701,0,0
392,323,0,0,0,0,0,0,0,0,0,-1,1616,701,0,0
399,323,0,0,0,0,0,0,0,0,0,-1,1623,701,0,0
406,323,0,0,0,0,0,0,0,0,0,-1,1630,701,0,0
413,323,0,0,0,0,0,0,0,0,0,-1,1637,701,0,0
420,323,0,0,0,0,0,0,0,0,0,-1,1644,701,0,0
427,323,0,0,0,0,0,0,0,0,0,-1,1651,701,0,0
434,323,0,0,0,0,0,0,0,0,0,-1,1658,701,0,0
441,323,0,0,0,0,0,0,0,0,0,-1,1665,701,0,0
448,323,0,0,0,0,0,0,0,0,0,-1,1672,701,0,0
455,323,0,0,0,0,0,0,0,0,0,-1,1679,701,0,0
462,323,0,0,0,0,0,0,0,0,0,-1,1686,701,0,0
469,323,0,0,0,0,0,0,0,0,0,-1,1693,701,0,0
476,323,0,0,0,0,0,0,0,0,0,-1,1700,701,0,0
483,323,0,0,0,0,0,0,0,0,0,-1,1707,701,0,0
490,323,0,0,0,0,0,0,0,0,0,-1,1714,701,0,0
497,323,0,0,0,0,0,0,0,0,0,-1,1721,701,0,0
504,323,0,0,0,0,0,0,0,0,0,-1,1728,701,0,0
511,323,0,0,0,0,0,0,0,0,0,-1,1735,701,0,0
518,323,0,0,0,0,0,0,0,0,0,-1,1742,701,0,0
525,323,0,0,0,0,0,0,0,0,0,-1,1749,701,0,0
532,323,33.6193,1.69446,0,0,0,0,0,0,0,-1,1756,701,33.6193,-1.69444
539,323,32.2698,2.44037,0,0,0,0,0,0,0,-1,1763,701,32.2697,-2.44036
546,323,31.1644,3.9444,0,0,0,0,0,0,0,-1,1770,701,31.1644,-3.94438
553,323,30.2488,5.8775,0,0,0,0,0,0,0,-1,1777,701,30.2487,-5.87752
560,323,40.6711,1.25153,0,0,0,0,0,0,0,-1,1784,701,40.6711,-1.25154
567,323,42.1637,2.01208,0,0,0,0,0,0,0,-1,1791,701,42.1637,-2.01207
574,323,12.514,5.89685,0,0,0,0,0,0,0,-1,1798,701,12.5141,-5.89683
581,323,11.821,5.3476,0,0,0,0,0,0,0,-1,1805,701,11.821,-5.34762
588,323,11.7933,7.00818,0,0,0,0,0,0,0,-1,1812,701,11.7933,-7.00819
595,323,6.67847,0.06604,0,0,0,0,0,0,0,-1,1819,701,6.67841,-0.0660418
602,323,11.2856,-0.595459,0,0,0,0,0,0,0,-1,1826,701,11.2856,0.595433
609,323,29.6034,-6.85352,0,0,0,0,0,0,0,-1,1833,701,29.6034,6.85349
616,323,29.7982,-6.0943,0.00354744,0.000753094,0.000371516,0.00359599,0.000704543,0.129946,0.00220041,0.0137278,1840,701,29.7983,6.0943
623,323,29.7787,-5.4425,0.00213201,0.000493536,0.000593145,0.00232419,0.000301352,0.313334,0.00145942,0.013403,1847,701,29.7787,5.4425
630,323,29.7554,-4.78412,0.00117279,0.000420254,0.000684079,0.00157726,1.57917e-05,0.533962,0.00104628,0.0143641,1854,701,29.7554,4.7841
637,323,29.7451,-4.12799,0.000192231,0.000547696,0.000548864,0.000946887,-0.00020696,0.94198,0.000710366,0.0108946,1861,701,29.7452,4.12801
644,323,29.7167,-3.48853,-0.000767713,0.000607258,0.000356174,0.000694044,-0.000854499,1.33179,0.00089565,0.00785981,1868,701,29.7167,3.48852
651,323,29.6995,-2.8103,-0.00199298,0.000761484,0.000110576,0.000765916,-0.00199741,1.53074,0.00164737,0.0104034,1875,701,29.6994,2.81031
658,323,29.6281,-2.12256,-0.00350298,0.00110252,-0.00017536,0.00110919,-0.00350965,-1.53279,0.00278415,0.0154911,1882,701,29.628,2.12253
665,323,29.571,-1.47284,-0.00533236,0.00157252,-0.000527977,0.00161265,-0.00537249,-1.49492,0.00422313,0.013208,1889,701,29.5711,1.47283
672,323,29.606,-0.773499,-0.00752602,0.00227082,-0.000963004,0.00236458,-0.00761978,-1.47374,0.00602476,0.0163387,1896,701,29.6059,0.773517
679,323,29.4395,-0.134277,-0.0103677,0.00319025,-0.00154886,0.00336494,-0.0105424,-1.45848,0.00837826,0.0451617,1903,701,29.4395,0.134258
686,323,29.2777,0.321411,0,0,0,0,0,0,0,-1,1910,701,29.2778,-0.321415
693,323,23.8806,1.08844,0,0,0,0,0,0,0,-1,1917,701,23.8806,-1.08845
700,323,10.7705,0.828613,0,0,0,0,0,0,0,-1,1924,701,10.7705,-0.828591
707,323,16.9005,4.79193,0,0,0,0,0,0,0,-1,1931,701,16.9005,-4.7919
714,323,16.2346,6.25958,0,0,0,0,0,0,0,-1,1938,701,16.2346,-6.25956
721,323,0,0,0,0,0,0,0,0,0,-1,1945,701,0,0
728,323,0,0,0,0,0,0,0,0,0,-1,1952,701,0,0
735,323,0,0,0,0,0,0,0,0,0,-1,1959,701,0,0
742,323,0,0,0,0,0,0,0,0,0,-1,1966,701,0,0
749,323,0,0,0,0,0,0,0,0,0,-1,1973,701,0,0
756,323,0,0,0,0,0,0,0,0,0,-1,1980,701,0,0
763,323,0,0,0,0,0,0,0,0,0,-1,1987,701,0,0
770,323,0,0,0,0,0,0,0,0,0,-1,1994,701,0,0
777,323,0,0,0,0,0,0,0,0,0,-1,2001,701,0,0
784,323,0,0,0,0,0,0,0,0,0,-1,2008,701,0,0
791,323,0,0,0,0,0,0,0,0,0,-1,2015,701,0,0
798,323,0,0,0,0,0,0,0,0,0,-1,2022,701,0,0
805,323,0,0,0,0,0,0,0,0,0,-1,2029,701,0,0
812,323,0,0,0,0,0,0,0,0,0,-1,2036,701,0,0
-700,316,0,0,0,0,0,0,0,0,0,-1,524,708,0,0
-693,316,0,0,0,0,0,0,0,0,0,-1,531,708,0,0
-686,316,0,0,0,0,0,0,0,0,0,-1,538,708,0,0
-679,316,0,0,0,0,0,0,0,0,0,-1,545,708,0,0
-672,316,0,0,0,0,0,0,0,0,0,-1,552,708,0,0
-665,316,0,0,0,0,0,0,0,0,0,-1,559,708,0,0
-658,316,0,0,0,0,0,0,0,0,0,-1,566,708,0,0
-651,316,0,0,0,0,0,0,0,0,0,-1,573,708,0,0
-644,316,0,0,0,0,0,0,0,0,0,-1,580,708,0,0
-637,316,0,0,0,0,0,0,0,0,0,-1,587,708,0,0
-630,316,0,0,0,0,0,0,0,0,0,-1,594,708,0,0
-623,316,0,0,0,0,0,0,0,0,0,-1,601,708,0,0
-616,316,0,0,0,0,0,0,0,0,0,-1,608,708,0,0
-609,316,0,0,0,0,0,0,0,0,0,-1,615,708,0,0
-602,316,-0.451782,-0.0494995,0,0,0,0,0,0,0,-1,622,708,-0.451768,0.0495022
-595,316,-3.3761,2.17188,0,0,0,0,0,0,0,-1,629,708,-3.37609,-2.17189
-588,316,-5.00177,2.60675,0,0,0,0,0,0,0,-1,636,708,-5.00175,-2.60676
-581,316,-3.94653,0.393433,0,0,0,0,0,0,0,-1,643,708,-3.94655,-0.39342
-574,316,-9.67395,1.06067,0,0,0,0,0,0,0,-1,650,708,-9.67396,-1.06065
-567,316,-10.1962,0.448425,0,0,0,0,0,0,0,-1,657,708,-10.1962,-0.448411
-560,316,-18.4048,-1.67334,0,0,0,0,0,0,0,-1,664,708,-18.4048,1.67336
-553,316,-18.5524,-2.1236,0,0,0,0,0,0,0,-1,671,708,-18.5525,2.1236
-546,316,-18.7682,-2.54877,0.00109351,0.00772557,-0.00185467,0.008209,0.000610087,-1.31582,0.00528106,0.0297643,678,708,-18.7683,2.54879
-539,316,-18.6757,-3.2226,0.00122685,0.00583471,-0.00151227,0.00628669,0.000774871,-1.28037,0.0039582,0.0127861,685,708,-18.6756,3.22261
-532,316,-18.7157,-3.86249,0.00121411,0.00403648,-0.00111102,0.00442135,0.000829238,-1.23732,0.00271372,0.0106943,692,708,-18.7157,3.86249
-525,316,-18.7409,-4.49261,0.00111272,0.00238237,-0.000658627,0.00266231,0.000832779,-1.1689,0.00157258,0.00972261,699,708,-18.7409,4.49263
-518,316,-18.7441,-5.12335,0.000925665,0.000870502,-0.000197886,0.00109788,0.000698285,-0.716154,0.000641634,0.00965942,706,708,-18.7441,5.12336
-511,316,-18.7883,-5.76782,0.000394285,-0.00049509,0.000129323,0.000412708,-0.000513514,0.141506,0.000535809,0.0110674,713,708,-18.7883,5.76783
-504,316,-18.8558,-6.40845,-0.00114853,-0.00224638,-0.000544164,-0.000924513,-0.00247039,-0.390521,0.00144124,0.0148874,720,708,-18.8558,6.40843
-497,316,-18.8508,-7.00476,-0.00382307,-0.00390613,-0.00250587,-0.00135839,-0.00637081,-0.777113,0.00387462,0.0135805,727,708,-18.8508,7.00473
-490,316,-18.8721,-7.64215,-0.00706539,-0.00563638,-0.00502062,-0.00127968,-0.0114221,-0.856081,0.00722604,0.0173942,734,708,-18.8721,7.64212
-483,316,-18.8419,-8.27271,0,0,0,0,0,0,0,-1,741,708,-18.8419,8.27271
-476,316,-8.90894,-3.31207,0,0,0,0,0,0,0,-1,748,708,-8.90896,3.31206
-469,316,-6.24194,-1.42725,0,0,0,0,0,0,0,-1,755,708,-6.24192,1.42725
-462,316,-5.74237,-1.40039,0,0,0,0,0,0,0,-1,762,708,-5.74238,1.40039
-455,316,-5.44745,-1.21899,0,0,0,0,0,0,0,-1,769,708,-5.44746,1.21898
-448,316,-14.8945,0.655396,0,0,0,0,0,0,0,-1,776,708,-14.8946,-0.655396
-441,316,-14.9626,0.576111,0,0,0,0,0,0,0,-1,783,708,-14.9626,-0.576115
-434,316,-27.7723,1.15576,0,0,0,0,0,0,0,-1,790,708,-27.7723,-1.15579
-427,316,-28.0504,1.31427,0,0,0,0,0,0,0,-1,797,708,-28.0504,-1.31427
-420,316,-28.198,1.62891,0,0,0,0,0,0,0,-1,804,708,-28.198,-1.62889
-413,316,0,0,0,0,0,0,0,0,0,-1,811,708,0,0
-406,316,0,0,0,0,0,0,0,0,0,-1,818,708,0,0
-399,316,0,0,0,0,0,0,0,0,0,-1,825,708,0,0
-392,316,0,0,0,0,0,0,0,0,0,-1,832,708,0,0
-385,316,0,0,0,0,0,0,0,0,0,-1,839,708,0,0
-378,316,0,0,0,0,0,0,0,0,0,-1,846,708,0,0
-371,316,0,0,0,0,0,0,0,0,0,-1,853,708,0,0
-364,316,0,0,0,0,0,0,0,0,0,-1,860,708,0,0
-357,316,0,0,0,0,0,0,0,0,0,-1,867,708,0,0
-350,316,0,0,0,0,0,0,0,0,0,-1,874,708,0,0
-343,316,0,0,0,0,0,0,0,0,0,-1,881,708,0,0
-336,316,0,0,0,0,0,0,0,0,0,-1,888,708,0,0
-329,316,0,0,0,0,0,0,0,0,0,-1,895,708,0,0
-322,316,0,0,0,0,0,0,0,0,0,-1,902,708,0,0
-315,316,0,0,0,0,0,0,0,0,0,-1,909,708,0,0
-308,316,0,0,0,0,0,0,0,0,0,-1,916,708,0,0
-301,316,0,0,0,0,0,0,0,0,0,-1,923,708,0,0
-294,316,0,0,0,0,0,0,0,0,0,-1,930,708,0,0
-287,316,0,0,0,0,0,0,0,0,0,-1,937,708,0,0
-280,316,0,0,0,0,0,0,0,0,0,-1,944,708,0,0
-273,316,0,0,0,0,0,0,0,0,0,-1,951,708,0,0
-266,316,0,0,0,0,0,0,0,0,0,-1,958,708,0,0
-259,316,0,0,0,0,0,0,0,0,0,-1,965,708,0,0
-252,316,0,0,0,0,0,0,0,0,0,-1,972,708,0,0
-245,316,0,0,0,0,0,0,0,0,0,-1,979,708,0,0
-238,316,0,0,0,0,0,0,0,0,0,-1,986,708,0,0
-231,316,0,0,0,0,0,0,0,0,0,-1,993,708,0,0
-224,316,0,0,0,0,0,0,0,0,0,-1,1000,708,0,0
-217,316,0,0,0,0,0,0,0,0,0,-1,1007,708,0,0
-210,316,0,0,0,0,0,0,0,0,0,-1,1014,708,0,0
-203,316,0,0,0,0,0,0,0,0,0,-1,1021,708,0,0
-196,316,0,0,0,0,0,0,0,0,0,-1,1028,708,0,0
-189,316,0,0,0,0,0,0,0,0,0,-1,1035,708,0,0
-182,316,0,0,0,0,0,0,0,0,0,-1,1042,708,0,0
-175,316,0,0,0,0,0,0,0,0,0,-1,1049,708,0,0
-168,316,0,0,0,0,0,0,0,0,0,-1,1056,708,0,0
-161,316,0,0,0,0,0,0,0,0,0,-1,1063,708,0,0
-154,316,0,0,0,0,0,0,0,0,0,-1,1070,708,0,0
-147,316,0,0,0,0,0,0,0,0,0,-1,1077,708,0,0
-140,316,0,0,0,0,0,0,0,0,0,-1,1084,708,0,0
-133,316,0,0,0,0,0,0,0,0,0,-1,1091,708,0,0
-126,316,0,0,0,0,0,0,0,0,0,-1,1098,708,0,0
-119,316,0,0,0,0,0,0,0,0,0,-1,1105,708,0,0
-112,316,0,0,0,0,0,0,0,0,0,-1,1112,708,0,0
-105,316,0,0,0,0,0,0,0,0,0,-1,1119,708,0,0
-98,316,0,0,0,0,0,0,0,0,0,-1,1126,708,0,0
-91,316,0,0,0,0,0,0,0,0,0,-1,1133,708,0,0
-84,316,0,0,0,0,0,0,0,0,0,-1,1140,708,0,0
-77,316,0,0,0,0,0,0,0,0,0,-1,1147,708,0,0
-70,316,0,0,0,0,0,0,0,0,0,-1,1154,708,0,0
-63,316,0,0,0,0,0,0,0,0,0,-1,1161,708,0,0
-56,316,0,0,0,0,0,0,0,0,0,-1,1168,708,0,0
-49,316,0,0,0,0,0,0,0,0,0,-1,1175,708,0,0
-42,316,0,0,0,0,0,0,0,0,0,-1,1182,708,0,0
-35,316,0,0,0,0,0,0,0,0,0,-1,1189,708,0,0
-28,316,0,0,0,0,0,0,0,0,0,-1,1196,708,0,0
-21,316,0,0,0,0,0,0,0,0,0,-1,1203,708,0,0
-14,316,0,0,0,0,0,0,0,0,0,-1,1210,708,0,0
-7,316,0,0,0,0,0,0,0,0,0,-1,1217,708,0,0
0,316,0,0,0,0,0,0,0,0,0,-1,1224,708,0,0
7,316,0,0,0,0,0,0,0,0,0,-1,1231,708,0,0
14,316,0,0,0,0,0,0,0,0,0,-1,1238,708,0,0
21,316,0,0,0,0,0,0,0,0,0,-1,1245,708,0,0
28,316,0,0,0,0,0,0,0,0,0,-1,1252,708,0,0
35,316,0,0,0,0,0,0,0,0,0,-1,1259,708,0,0
42,316,0,0,0,0,0,0,0,0,0,-1,1266,708,0,0
49,316,0,0,0,0,0,0,0,0,0,-1,1273,708,0,0
56,316,0,0,0,0,0,0,0,0,0,-1,1280,708,0,0
63,316,0,0,0,0,0,0,0,0,0,-1,1287,708,0,0
70,316,0,0,0,0,0,0,0,0,0,-1,1294,708,0,0
77,316,0,0,0,0,0,0,0,0,0,-1,1301,708,0,0
84,316,0,0,0,0,0,0,0,0,0,-1,1308,708,0,0
91,316,0,0,0,0,0,0,0,0,0,-1,1315,708,0,0
98,316,0,0,0,0,0,0,0,0,0,-1,1322,708,0,0
105,316,0,0,0,0,0,0,0,0,0,-1,1329,708,0,0
112,316,0,0,0,0,0,0,0,0,0,-1,1336,708,0,0
119,316,0,0,0,0,0,0,0,0,0,-1,1343,708,0,0
126,316,0,0,0,0,0,0,0,0,0,-1,1350,708,0,0
133,316,0,0,0,0,0,0,0,0,0,-1,1357,708,0,0
140,316,0,0,0,0,0,0,0,0,0,-1,1364,708,0,0
147,316,0,0,0,0,0,0,0,0,0,-1,1371,708,0,0
154,316,0,0,0,0,0,0,0,0,0,-1,1378,708,0,0
161,316,0,0,0,0,0,0,0,0,0,-1,1385,708,0,0
168,316,0,0,0,0,0,0,0,0,0,-1,1392,708,0,0
175,316,0,0,0,0,0,0,0,0,0,-1,1399,708,0,0
182,316,0,0,0,0,0,0,0,0,0,-1,1406,708,0,0
189,316,0,0,0,0,0,0,0,0,0,-1,1413,708,0,0
196,316,0,0,0,0,0,0,0,0,0,-1,1420,708,0,0
203,316,0,0,0,0,0,0,0,0,0,-1,1427,708,0,0
210,316,0,0,0,0,0,0,0,0,0,-1,1434,708,0,0
217,316,0,0,0,0,0,0,0,0,0,-1,1441,708,0,0
224,316,0,0,0,0,0,0,0,0,0,-1,1448,708,0,0
231,316,0,0,0,0,0,0,0,0,0,-1,1455,708,0,0
238,316,0,0,0,0,0,0,0,0,0,-1,1462,708,0,0
245,316,0,0,0,0,0,0,0,0,0,-1,1469,708,0,0
252,316,0,0,0,0,0,0,0,0,0,-1,1476,708,0,0
259,316,0,0,0,0,0,0,0,0,0,-1,1483,708,0,0
266,316,0,0,0,0,0,0,0,0,0,-1,1490,708,0,0
273,316,0,0,0,0,0,0,0,0,0,-1,1497,708,0,0
280,316,0,0,0,0,0,0,0,0,0,-1,1504,708,0,0
287,316,0,0,0,0,0,0,0,0,0,-1,1511,708,0,0
294,316,0,0,0,0,0,0,0,0,0,-1,1518,708,0,0
301,316,0,0,0,0,0,0,0,0,0,-1,1525,708,0,0
308,316,0,0,0,0,0,0,0,0,0,-1,1532,708,0,0
315,316,0,0,0,0,0,0,0,0,0,-1,1539,708,0,0
322,316,0,0,0,0,0,0,0,0,0,-1,1546,708,0,0
329,316,0,0,0,0,0,0,0,0,0,-1,1553,708,0,0
336,316,0,0,0,0,0,0,0,0,0,-1,1560,708,0,0
343,316,0,0,0,0,0,0,0,0,0,-1,1567,708,0,0
350,316,0,0,0,0,0,0,0,0,0,-1,1574,708,0,0
357,316,0,0,0,0,0,0,0,0,0,-1,1581,708,0,0
364,316,0,0,0,0,0,0,0,0,0,-1,1588,708,0,0
371,316,0,0,0,0,0,0,0,0,0,-1,1595,708,0,0
378,316,0,0,0,0,0,0,0,0,0,-1,1602,708,0,0
385,316,0,0,0,0,0,0,0,0,0,-1,1609,708,0,0
392,316,0,0,0,0,0,0,0,0,0,-1,1616,708,0,0
399,316,0,0,0,0,0,0,0,0,0,-1,1623,708,0,0
406,316,0,0,0,0,0,0,0,0,0,-1,1630,708,0,0
413,316,0,0,0,0,0,0,0,0,0,-1,1637,708,0,0
420,316,0,0,0,0,0,0,0,0,0,-1,1644,708,0,0
427,316,0,0,0,0,0,0,0,0,0,-1,1651,708,0,0
434,316,0,0,0,0,0,0,0,0,0,-1,1658,708,0,0
441,316,0,0,0,0,0,0,0,0,0,-1,1665,708,0,0
448,316,0,0,0,0,0,0,0,0,0,-1,1672,708,0,0
455,316,0,0,0,0,0,0,0,0,0,-1,1679,708,0,0
462,316,0,0,0,0,0,0,0,0,0,-1,1686,708,0,0
469,316,0,0,0,0,0,0,0,0,0,-1,1693,708,0,0
476,316,0,0,0,0,0,0,0,0,0,-1,1700,708,0,0
483,316,0,0,0,0,0,0,0,0,0,-1,1707,708,0,0
490,316,0,0,0,0,0,0,0,0,0,-1,1714,708,0,0
497,316,0,0,0,0,0,0,0,0,0,-1,1721,708,0,0
504,316,0,0,0,0,0,0,0,0,0,-1,1728,708,0,0
511,316,0,0,0,0,0,0,0,0,0,-1,1735,708,0,0
518,316,0,0,0,0,0,0,0,0,0,-1,1742,708,0,0
525,316,0,0,0,0,0,0,0,0,0,-1,1749,708,0,0
532,316,33.8604,0.531128,0,0,0,0,0,0,0,-1,1756,708,33.8604,-0.531151
539,316,44.4543,2.73468,0,0,0,0,0,0,0,-1,1763,708,44.4543,-2.7347
546,316,44.713,3.35498,0,0,0,0,0,0,0,-1,1770,708,44.7131,-3.35501
553,316,39.9031,6.57275,0,0,0,0,0,0,0,-1,1777,708,39.9031,-6.57274
560,316,39.1196,1.10046,0,0,0,0,0,0,0,-1,1784,708,39.1197,-1.10048
567,316,47.3683,6.04919,0,0,0,0,0,0,0,-1,1791,708,47.3683,-6.04918
574,316,45.9872,6.7655,0,0,0,0,0,0,0,-1,1798,708,45.9871,-6.76552
581,316,24.6815,7.77496,0,0,0,0,0,0,0,-1,1805,708,24.6815,-7.77499
588,316,19.7659,2.90198,0,0,0,0,0,0,0,-1,1812,708,19.7659,-2.902
595,316,12.5363,1.50702,0,0,0,0,0,0,0,-1,1819,708,12.5363,-1.50701
602,316,7.79919,0.0422363,0,0,0,0,0,0,0,-1,1826,708,7.79923,-0.0422066
609,316,30.4677,-6.77704,0,0,0,0,0,0,0,-1,1833,708,30.4677,6.77701
616,316,30.4714,-6.06647,0.00545948,-0.000183417,0.000284134,0.00547375,-0.000197688,0.0501832,0.00371682,0.0140981,1840,708,30.4715,6.06645
623,316,30.448,-5.40228,0.00306497,-0.000370368,0.000603899,0.00316804,-0.000473436,0.169041,0.00228624,0.0109334,1847,708,30.448,5.40231
630,316,30.4033,-4.77948,0.00163504,-0.00021492,0.000700911,0.0018706,-0.000450485,0.324224,0.00142123,0.0135645,1854,708,30.4033,4.77947
637,316,30.3939,-4.10388,0.000507546,0.000312518,0.000524176,0.000943201,-0.000123137,0.693433,0.000673609,0.0124374,1861,708,30.394,4.10387
644,316,30.394,-3.43707,-0.000299495,0.000465177,0.000406459,0.000640864,-0.000475182,1.16281,0.000646712,0.0111993,1868,708,30.394,3.4371
651,316,30.3331,-2.77905,-0.00130179,0.000729388,0.000264426,0.000763248,-0.00133565,1.44344,0.00122673,0.0147438,1875,708,30.3331,2.77908
658,316,30.26,-2.11951,-0.00248929,0.00119889,0.000110307,0.00120218,-0.00249258,1.54092,0.00217611,0.0267357,1882,708,30.26,2.11952
665,316,30.2178,-1.44635,-0.00384182,0.00180888,-6.56185e-05,0.00180964,-0.00384258,-1.55919,0.00333293,0.0188988,1889,708,30.2178,1.44635
672,316,30.2244,-0.776428,-0.00541559,0.00263675,-0.000264678,0.00264544,-0.00542428,-1.53797,0.00475024,0.0135012,1896,708,30.2243,0.776424
679,316,30.2152,-0.00671387,-0.00732765,0.00370144,-0.000515841,0.00372551,-0.00735172,-1.52416,0.00650867,0.0404554,1903,708,30.2152,0.00672531
686,316,30.2386,0.699402,0,0,0,0,0,0,0,-1,1910,708,30.2386,-0.699398
693,316,26.4315,1.80652,0,0,0,0,0,0,0,-1,1917,708,26.4315,-1.80651
700,316,12.8749,2.89136,0,0,0,0,0,0,0,-1,1924,708,12.8748,-2.89137
707,316,15.7089,5.41486,0,0,0,0,0,0,0,-1,1931,708,15.7088,-5.41487
714,316,16.1727,5.52045,0,0,0,0,0,0,0,-1,1938,708,16.1728,-5.52042
721,316,16.7094,6.53351,0,0,0,0,0,0,0,-1,1945,708,16.7094,-6.5335
728,316,0,0,0,0,0,0,0,0,0,-1,1952,708,0,0
735,316,0,0,0,0,0,0,0,0,0,-1,1959,708,0,0
742,316,0,0,0,0,0,0,0,0,0,-1,1966,708,0,0
749,316,0,0,0,0,0,0,0,0,0,-1,1973,708,0,0
756,316,0,0,0,0,0,0,0,0,0,-1,1980,708,0,0
763,316,0,0,0,0,0,0,0,0,0,-1,1987,708,0,0
770,316,0,0,0,0,0,0,0,0,0,-1,1994,708,0,0
777,316,0,0,0,0,0,0,0,0,0,-1,2001,708,0,0
784,316,0,0,0,0,0,0,0,0,0,-1,2008,708,0,0
791,316,0,0,0,0,0,0,0,0,0,-1,2015,708,0,0
798,316,0,0,0,0,0,0,0,0,0,-1,2022,708,0,0
805,316,0,0,0,0,0,0,0,0,0,-1,2029,708,0,0
812,316,0,0,0,0,0,0,0,0,0,-1,2036,708,0,0
-700,309,0,0,0,0,0,0,0,0,0,-1,524,715,0,0
-693,309,0,0,0,0,0,0,0,0,0,-1,531,715,0,0
-686,309,0,0,0,0,0,0,0,0,0,-1,538,715,0,0
-679,309,0,0,0,0,0,0,0,0,0,-1,545,715,0,0
-672,309,0,0,0,0,0,0,0,0,0,-1,552,715,0,0
-665,309,0,0,0,0,0,0,0,0,0,-1,559,715,0,0
-658,309,0,0,0,0,0,0,0,0,0,-1,566,715,0,0
-651,309,0,0,0,0,0,0,0,0,0,-1,573,715,0,0
-644,309,0,0,0,0,0,0,0,0,0,-1,580,715,0,0
-637,309,0,0,0,0,0,0,0,0,0,-1,587,715,0,0
-630,309,0,0,0,0,0,0,0,0,0,-1,594,715,0,0
-623,309,0,0,0,0,0,0,0,0,0,-1,601,715,0,0
-616,309,0,0,0,0,0,0,0,0,0,-1,608,715,0,0
-609,309,-5.95392,-3.93689,0,0,0,0,0,0,0,-1,615,715,-5.95392,3.93686
-602,309,-4.99786,-3.31287,0,0,0,0,0,0,0,-1,622,715,-4.99786,3.31284
-595,309,-6.80847,2.4046,0,0,0,0,0,0,0,-1,629,715,-6.80845,-2.40458
-588,309,-6.08795,2.19324,0,0,0,0,0,0,0,-1,636,715,-6.08793,-2.19325
-581,309,-5.97552,1.3277,0,0,0,0,0,0,0,-1,643,715,-5.97552,-1.32769
-574,309,-8.73602,0.208435,0,0,0,0,0,0,0,-1,650,715,-8.73604,-0.208437
-567,309,-10.3909,0.85968,0,0,0,0,0,0,0,-1,657,715,-10.3909,-0.859696
-560,309,-18.6088,-1.73389,0,0,0,0,0,0,0,-1,664,715,-18.6088,1.73389
-553,309,-19.134,-1.80981,0,0,0,0,0,0,0,-1,671,715,-19.134,1.80982
-546,309,-19.3924,-2.5545,0.000843725,0.00575727,-0.00112924,0.00600436,0.000596629,-1.35537,0.0038196,0.0246971,678,715,-19.3924,2.55452
-539,309,-19.3176,-3.20526,0.000946282,0.00424367,-0.000888928,0.00446805,0.000721907,-1.32355,0.0027696,0.0151562,685,715,-19.3175,3.20525
-532,309,-19.332,-3.83179,0.000884876,0.00276617,-0.000568869,0.00292481,0.000726237,-1.29884,0.00175851,0.0118938,692,715,-19.332,3.83181
-525,309,-19.3691,-4.48718,0.000775161,0.00129395,-0.000185958,0.00135372,0.000715391,-1.25981,0.000781992,0.0149722,699,715,-19.3691,4.48718
-518,309,-19.3868,-5.12061,0.000444557,-4.96459e-05,0.00024899,0.000548248,-0.000153337,0.394603,0.000425913,0.0161729,706,715,-19.3869,5.12059
-511,309,-19.4167,-5.7348,-0.000496888,-0.00126737,0.000494155,-0.000255551,-0.00150871,0.45431,0.00093237,0.0127284,713,715,-19.4167,5.73483
-504,309,-19.4706,-6.362,-0.00281015,-0.00306058,-0.00056341,-0.00235821,-0.00351252,-0.676053,0.00206728,0.0103631,720,715,-19.4706,6.36203
-497,309,-19.4795,-6.95892,-0.00642487,-0.00474155,-0.00302263,-0.00244559,-0.00872083,-0.921186,0.00519428,0.0146935,727,715,-19.4795,6.95893
-490,309,-19.4785,-7.599,0,0,0,0,0,0,0,-1,734,715,-19.4784,7.59898
-483,309,-17.7261,-7.75836,0,0,0,0,0,0,0,-1,741,715,-17.7261,7.75839
-476,309,-5.29486,-1.2262,0,0,0,0,0,0,0,-1,748,715,-5.29484,1.22622
-469,309,-4.22717,-0.592896,0,0,0,0,0,0,0,-1,755,715,-4.2272,0.592905
-462,309,-10.428,2.46948,0,0,0,0,0,0,0,-1,762,715,-10.428,-2.46947
-455,309,-15.8216,0.00915527,0,0,0,0,0,0,0,-1,769,715,-15.8216,-0.00913359
-448,309,-37.3543,-1.02441,0,0,0,0,0,0,0,-1,776,715,-37.3543,1.02444
-441,309,-19.8181,1.4425,0,0,0,0,0,0,0,-1,783,715,-19.8181,-1.44249
-434,309,-28.3196,0.95105,0,0,0,0,0,0,0,-1,790,715,-28.3196,-0.951068
-427,309,-27.8553,1.40332,0,0,0,0,0,0,0,-1,797,715,-27.8553,-1.40334
-420,309,-27.3148,1.90747,0,0,0,0,0,0,0,-1,804,715,-27.3148,-1.90745
-413,309,0,0,0,0,0,0,0,0,0,-1,811,715,0,0
-406,309,0,0,0,0,0,0,0,0,0,-1,818,715,0,0
-399,309,0,0,0,0,0,0,0,0,0,-1,825,715,0,0
-392,309,0,0,0,0,0,0,0,0,0,-1,832,715,0,0
-385,309,0,0,0,0,0,0,0,0,0,-1,839,715,0,0
-378,309,0,0,0,0,0,0,0,0,0,-1,846,715,0,0
-371,309,0,0,0,0,0,0,0,0,0,-1,853,715,0,0
-364,309,0,0,0,0,0,0,0,0,0,-1,860,715,0,0
-357,309,0,0,0,0,0,0,0,0,0,-1,867,715,0,0
-350,309,0,0,0,0,0,0,0,0,0,-1,874,715,0,0
-343,309,0,0,0,0,0,0,0,0,0,-1,881,715,0,0
-336,309,0,0,0,0,0,0,0,0,0,-1,888,715,0,0
-329,309,0,0,0,0,0,0,0,0,0,-1,895,715,0,0
-322,309,0,0,0,0,0,0,0,0,0,-1,902,715,0,0
-315,309,0,0,0,0,0,0,0,0,0,-1,909,715,0,0
-308,309,0,0,0,0,0,0,0,0,0,-1,916,715,0,0
-301,309,0,0,0,0,0,0,0,0,0,-1,923,715,0,0
-294,309,0,0,0,0,0,0,0,0,0,-1,930,715,0,0
-287,309,0,0,0,0,0,0,0,0,0,-1,937,715,0,0
-280,309,0,0,0,0,0,0,0,0,0,-1,944,715,0,0
-273,309,0,0,0,0,0,0,0,0,0,-1,951,715,0,0
-266,309,0,0,0,0,0,0,0,0,0,-1,958,715,0,0
-259,309,0,0,0,0,0,0,0,0,0,-1,965,715,0,0
-252,309,0,0,0,0,0,0,0,0,0,-1,972,715,0,0
-245,309,0,0,0,0,0,0,0,0,0,-1,979,715,0,0
-238,309,0,0,0,0,0,0,0,0,0,-1,986,715,0,0
-231,309,0,0,0,0,0,0,0,0,0,-1,993,715,0,0
-224,309,0,0,0,0,0,0,0,0,0,-1,1000,715,0,0
-217,309,0,0,0,0,0,0,0,0,0,-1,1007,715,0,0
-210,309,0,0,0,0,0,0,0,0,0,-1,1014,715,0,0
-203,309,0,0,0,0,0,0,0,0,0,-1,1021,715,0,0
-196,309,0,0,0,0,0,0,0,0,0,-1,1028,715,0,0
-189,309,0,0,0,0,0,0,0,0,0,-1,1035,715,0,0
-182,309,0,0,0,0,0,0,0,0,0,-1,1042,715,0,0
-175,309,0,0,0,0,0,0,0,0,0,-1,1049,715,0,0
-168,309,0,0,0,0,0,0,0,0,0,-1,1056,715,0,0
-161,309,0,0,0,0,0,0,0,0,0,-1,1063,715,0,0
-154,309,0,0,0,0,0,0,0,0,0,-1,1070,715,0,0
-147,309,0,0,0,0,0,0,0,0,0,-1,1077,715,0,0
-140,309,0,0,0,0,0,0,0,0,0,-1,1084,715,0,0
-133,309,0,0,0,0,0,0,0,0,0,-1,1091,715,0,0
-126,309,0,0,0,0,0,0,0,0,0,-1,1098,715,0,0
-119,309,0,0,0,0,0,0,0,0,0,-1,1105,715,0,0
-112,309,0,0,0,0,0,0,0,0,0,-1,1112,715,0,0
-105,309,0,0,0,0,0,0,0,0,0,-1,1119,715,0,0
-98,309,0,0,0,0,0,0,0,0,0,-1,1126,715,0,0
-91,309,0,0,0,0,0,0,0,0,0,-1,1133,715,0,0
-84,309,0,0,0,0,0,0,0,0,0,-1,1140,715,0,0
-77,309,0,0,0,0,0,0,0,0,0,-1,1147,715,0,0
-70,309,0,0,0,0,0,0,0,0,0,-1,1154,715,0,0
-63,309,0,0,0,0,0,0,0,0,0,-1,1161,715,0,0
-56,309,0,0,0,0,0,0,0,0,0,-1,1168,715,0,0
-49,309,0,0,0,0,0,0,0,0,0,-1,1175,715,0,0
-42,309,0,0,0,0,0,0,0,0,0,-1,1182,715,0,0
-35,309,0,0,0,0,0,0,0,0,0,-1,1189,715,0,0
-28,309,0,0,0,0,0,0,0,0,0,-1,1196,715,0,0
-21,309,0,0,0,0,0,0,0,0,0,-1,1203,715,0,0
-14,309,0,0,0,0,0,0,0,0,0,-1,1210,715,0,0
-7,309,0,0,0,0,0,0,0,0,0,-1,1217,715,0,0
0,309,0,0,0,0,0,0,0,0,0,-1,1224,715,0,0
7,309,0,0,0,0,0,0,0,0,0,-1,1231,715,0,0
14,309,0,0,0,0,0,0,0,0,0,-1,1238,715,0,0
21,309,0,0,0,0,0,0,0,0,0,-1,1245,715,0,0
28,309,0,0,0,0,0,0,0,0,0,-1,1252,715,0,0
35,309,0,0,0,0,0,0,0,0,0,-1,1259,715,0,0
42,309,0,0,0,0,0,0,0,0,0,-1,1266,715,0,0
49,309,0,0,0,0,0,0,0,0,0,-1,1273,715,0,0
56,309,0,0,0,0,0,0,0,0,0,-1,1280,715,0,0
63,309,0,0,0,0,0,0,0,0,0,-1,1287,715,0,0
70,309,0,0,0,0,0,0,0,0,0,-1,1294,715,0,0
77,309,0,0,0,0,0,0,0,0,0,-1,1301,715,0,0
84,309,0,0,0,0,0,0,0,0,0,-1,1308,715,0,0
91,309,0,0,0,0,0,0,0,0,0,-1,1315,715,0,0
98,309,0,0,0,0,0,0,0,0,0,-1,1322,715,0,0
105,309,0,0,0,0,0,0,0,0,0,-1,1329,715,0,0
112,309,0,0,0,0,0,0,0,0,0,-1,1336,715,0,0
119,309,0,0,0,0,0,0,0,0,0,-1,1343,715,0,0
126,309,0,0,0,0,0,0,0,0,0,-1,1350,715,0,0
133,309,0,0,0,0,0,0,0,0,0,-1,1357,715,0,0
140,309,0,0,0,0,0,0,0,0,0,-1,1364,715,0,0
147,309,0,0,0,0,0,0,0,0,0,-1,1371,715,0,0
154,309,0,0,0,0,0,0,0,0,0,-1,1378,715,0,0
161,309,0,0,0,0,0,0,0,0,0,-1,1385,715,0,0
168,309,0,0,0,0,0,0,0,0,0,-1,1392,715,0,0
175,309,0,0,0,0,0,0,0,0,0,-1,1399,715,0,0
182,309,0,0,0,0,0,0,0,0,0,-1,1406,715,0,0
189,309,0,0,0,0,0,0,0,0,0,-1,1413,715,0,0
196,309,0,0,0,0,0,0,0,0,0,-1,1420,715,0,0
203,309,0,0,0,0,0,0,0,0,0,-1,1427,715,0,0
210,309,0,0,0,0,0,0,0,0,0,-1,1434,715,0,0
217,309,0,0,0,0,0,0,0,0,0,-1,1441,715,0,0
224,309,0,0,0,0,0,0,0,0,0,-1,1448,715,0,0
231,309,0,0,0,0,0,0,0,0,0,-1,1455,715,0,0
238,309,0,0,0,0,0,0,0,0,0,-1,1462,715,0,0
245,309,0,0,0,0,0,0,0,0,0,-1,1469,715,0,0
252,309,0,0,0,0,0,0,0,0,0,-1,1476,715,0,0
259,309,0,0,0,0,0,0,0,0,0,-1,1483,715,0,0
266,309,0,0,0,0,0,0,0,0,0,-1,1490,715,0,0
273,309,0,0,0,0,0,0,0,0,0,-1,1497,715,0,0
280,309,0,0,0,0,0,0,0,0,0,-1,1504,715,0,0
287,309,0,0,0,0,0,0,0,0,0,-1,1511,715,0,0
294,309,0,0,0,0,0,0,0,0,0,-1,1518,715,0,0
301,309,0,0,0,0,0,0,0,0,0,-1,1525,715,0,0
308,309,0,0,0,0,0,0,0,0,0,-1,1532,715,0,0
315,309,0,0,0,0,0,0,0,0,0,-1,1539,715,0,0
322,309,0,0,0,0,0,0,0,0,0,-1,1546,715,0,0
329,309,0,0,0,0,0,0,0,0,0,-1,1553,715,0,0
336,309,0,0,0,0,0,0,0,0,0,-1,1560,715,0,0
343,309,0,0,0,0,0,0,0,0,0,-1,1567,715,0,0
350,309,0,0,0,0,0,0,0,0,0,-1,1574,715,0,0
357,309,0,0,0,0,0,0,0,0,0,-1,1581,715,0,0
364,309,0,0,0,0,0,0,0,0,0,-1,1588,715,0,0
371,309,0,0,0,0,0,0,0,0,0,-1,1595,715,0,0
378,309,0,0,0,0,0,0,0,0,0,-1,1602,715,0,0
385,309,0,0,0,0,0,0,0,0,0,-1,1609,715,0,0
392,309,0,0,0,0,0,0,0,0,0,-1,1616,715,0,0
399,309,0,0,0,0,0,0,0,0,0,-1,1623,715,0,0
406,309,0,0,0,0,0,0,0,0,0,-1,1630,715,0,0
413,309,0,0,0,0,0,0,0,0,0,-1,1637,715,0,0
420,309,0,0,0,0,0,0,0,0,0,-1,1644,715,0,0
427,309,0,0,0,0,0,0,0,0,0,-1,1651,715,0,0
434,309,0,0,0,0,0,0,0,0,0,-1,1658,715,0,0
441,309,0,0,0,0,0,0,0,0,0,-1,1665,715,0,0
448,309,0,0,0,0,0,0,0,0,0,-1,1672,715,0,0
455,309,0,0,0,0,0,0,0,0,0,-1,1679,715,0,0
462,309,0,0,0,0,0,0,0,0,0,-1,1686,715,0,0
469,309,0,0,0,0,0,0,0,0,0,-1,1693,715,0,0
476,309,0,0,0,0,0,0,0,0,0,-1,1700,715,0,0
483,309,0,0,0,0,0,0,0,0,0,-1,1707,715,0,0
490,309,0,0,0,0,0,0,0,0,0,-1,1714,715,0,0
497,309,0,0,0,0,0,0,0,0,0,-1,1721,715,0,0
504,309,0,0,0,0,0,0,0,0,0,-1,1728,715,0,0
511,309,0,0,0,0,0,0,0,0,0,-1,1735,715,0,0
518,309,0,0,0,0,0,0,0,0,0,-1,1742,715,0,0
525,309,0,0,0,0,0,0,0,0,0,-1,1749,715,0,0
532,309,0,0,0,0,0,0,0,0,0,-1,1756,715,0,0
539,309,44.2073,2.66235,0,0,0,0,0,0,0,-1,1763,715,44.2073,-2.66238
546,309,44.4976,3.25531,0,0,0,0,0,0,0,-1,1770,715,44.4976,-3.25533
553,309,47.9611,4.06433,0,0,0,0,0,0,0,-1,1777,715,47.9611,-4.06434
560,309,47.9784,4.64801,0,0,0,0,0,0,0,-1,1784,715,47.9784,-4.64799
567,309,47.0073,5.43121,0,0,0,0,0,0,0,-1,1791,715,47.0073,-5.43121
574,309,45.8746,6.53271,0,0,0,0,0,0,0,-1,1798,715,45.8747,-6.53269
581,309,45.0629,7.73468,0,0,0,0,0,0,0,-1,1805,715,45.0629,-7.73471
588,309,26.2064,7.76422,0,0,0,0,0,0,0,-1,1812,715,26.2064,-7.7642
595,309,19.585,3.71558,0,0,0,0,0,0,0,-1,1819,715,19.5849,-3.71555
602,309,11.0811,3.47772,0,0,0,0,0,0,0,-1,1826,715,11.0811,-3.47772
609,309,31.1029,-6.8537,0,0,0,0,0,0,0,-1,1833,715,31.1029,6.85368
616,309,31.1217,-6.09369,0.00742768,-0.00102332,-8.91898e-05,0.00742862,-0.00102426,-0.0105522,0.00532676,0.023909,1840,715,31.1217,6.09369
623,309,31.1213,-5.38098,0.0040491,-0.00118517,0.000461546,0.00408949,-0.00122555,0.0872803,0.00321371,0.0113603,1847,715,31.1214,5.38099
630,309,31.066,-4.74072,0.00205072,-0.000827117,0.000671059,0.0021995,-0.000975903,0.218189,0.00187814,0.0116728,1854,715,31.0661,4.7407
637,309,31.0402,-4.05988,0.000702002,6.2416e-05,0.000483574,0.00096196,-0.000197542,0.493255,0.000716292,0.0141495,1861,715,31.0401,4.0599
644,309,31.012,-3.39417,4.01941e-05,0.000275691,0.000420536,0.000594652,-0.000278767,0.921901,0.000515145,0.0144002,1868,715,31.012,3.39416
651,309,30.9684,-2.75043,-0.00075995,0.000608957,0.000354036,0.000695099,-0.000846092,1.33212,0.00089123,0.0140938,1875,715,30.9683,2.75041
658,309,30.929,-2.10541,-0.00167217,0.00114709,0.00028926,0.00117646,-0.00170155,1.4696,0.00167081,0.0202841,1882,715,30.9289,2.10539
665,309,30.9368,-1.42401,-0.00264682,0.00182569,0.000228784,0.00183737,-0.00265849,1.51982,0.00261007,0.0166381,1889,715,30.9368,1.424
672,309,30.8904,-0.747192,-0.00375077,0.00269549,0.000173335,0.00270015,-0.00375542,1.54393,0.00374369,0.0151217,1896,715,30.8903,0.7472
679,309,30.8987,-0.0449829,-0.00499956,0.00379007,0.000112998,0.00379152,-0.00500101,1.55794,0.00509236,0.0222488,1903,715,30.8987,0.044983
686,309,30.6401,0.775757,-0.00627468,0.00508476,8.52197e-05,0.0050854,-0.00627532,1.56329,0.00657109,0.0426902,1910,715,30.6401,-0.775729
693,309,30.0471,1.47382,0,0,0,0,0,0,0,-1,1917,715,30.0471,-1.4738
700,309,23.0179,3.08337,0,0,0,0,0,0,0,-1,1924,715,23.018,-3.08336
707,309,15.6318,4.58655,0,0,0,0,0,0,0,-1,1931,715,15.6318,-4.58657
714,309,16.7573,6.68286,0,0,0,0,0,0,0,-1,1938,715,16.7574,-6.68284
721,309,16.8337,5.4458,0,0,0,0,0,0,0,-1,1945,715,16.8338,-5.44582
728,309,0,0,0,0,0,0,0,0,0,-1,1952,715,0,0
735,309,0,0,0,0,0,0,0,0,0,-1,1959,715,0,0
742,309,0,0,0,0,0,0,0,0,0,-1,1966,715,0,0
749,309,0,0,0,0,0,0,0,0,0,-1,1973,715,0,0
756,309,0,0,0,0,0,0,0,0,0,-1,1980,715,0,0
763,309,0,0,0,0,0,0,0,0,0,-1,1987,715,0,0
770,309,0,0,0,0,0,0,0,0,0,-1,1994,715,0,0
777,309,0,0,0,0,0,0,0,0,0,-1,2001,715,0,0
784,309,0,0,0,0,0,0,0,0,0,-1,2008,715,0,0
791,309,0,0,0,0,0,0,0,0,0,-1,2015,715,0,0
798,309,0,0,0,0,0,0,0,0,0,-1,2022,715,0,0
805,309,0,0,0,0,0,0,0,0,0,-1,2029,715,0,0
812,309,0,0,0,0,0,0,0,0,0,-1,2036,715,0,0
-700,302,0,0,0,0,0,0,0,0,0,-1,524,722,0,0
-693,302,0,0,0,0,0,0,0,0,0,-1,531,722,0,0
-686,302,0,0,0,0,0,0,0,0,0,-1,538,722,0,0
-679,302,0,0,0,0,0,0,0,0,0,-1,545,722,0,0
-672,302,0,0,0,0,0,0,0,0,0,-1,552,722,0,0
-665,302,0,0,0,0,0,0,0,0,0,-1,559,722,0,0
-658,302,0,0,0,0,0,0,0,0,0,-1,566,722,0,0
-651,302,0,0,0,0,0,0,0,0,0,-1,573,722,0,0
-644,302,0,0,0,0,0,0,0,0,0,-1,580,722,0,0
-637,302,0,0,0,0,0,0,0,0,0,-1,587,722,0,0
-630,302,0,0,0,0,0,0,0,0,0,-1,594,722,0,0
-623,302,0,0,0,0,0,0,0,0,0,-1,601,722,0,0
-616,302,0,0,0,0,0,0,0,0,0,-1,608,722,0,0
-609,302,-7.79266,-3.71649,0,0,0,0,0,0,0,-1,615,722,-7.79267,3.7165
-602,302,0.92865,-1.99158,0,0,0,0,0,0,0,-1,622,722,0.928637,1.99157
-595,302,-7.89941,2.13641,0,0,0,0,0,0,0,-1,629,722,-7.89939,-2.13639
-588,302,-7.10895,1.79163,0,0,0,0,0,0,0,-1,636,722,-7.10896,-1.79163
-581,302,-9.17566,1.09448,0,0,0,0,0,0,0,-1,643,722,-9.17569,-1.09445
-574,302,-11.5183,-0.344543,0,0,0,0,0,0,0,-1,650,722,-11.5183,0.344557
-567,302,-12.1534,-0.672241,0,0,0,0,0,0,0,-1,657,722,-12.1535,0.672246
-560,302,-20.062,-1.27386,0,0,0,0,0,0,0,-1,664,722,-20.062,1.27389
-553,302,-19.9639,-1.87939,0.00061776,0.004878,-0.000524384,0.0049416,0.000554164,-1.45011,0.00312609,0.0264444,671,722,-19.9639,1.87939
-546,302,-19.9398,-2.54449,0.000733689,0.00394107,-0.000525807,0.00402507,0.000649689,-1.41238,0.00249517,0.0163662,678,722,-19.9397,2.54448
-539,302,-19.9648,-3.1618,0.00066309,0.00282964,-0.000375782,0.00289297,0.000599763,-1.40384,0.00176307,0.015552,685,722,-19.9648,3.1618
-532,302,-19.9838,-3.78925,0.000549466,0.00158892,-9.20538e-05,0.00159701,0.000541376,-1.48315,0.000937831,0.013917,692,722,-19.9838,3.78927
-525,302,-19.9863,-4.47253,0.00042876,0.000243659,0.000250354,0.000603123,6.92965e-05,0.608349,0.000381089,0.0190875,699,722,-19.9862,4.47254
-518,302,-20.0231,-5.08923,-0.000164116,-0.00089961,0.000673241,0.000235269,-0.00129899,0.535425,0.000954137,0.0220444,706,722,-20.0231,5.08926
-511,302,-20.0665,-5.6795,-0.00162823,-0.00190212,0.000818333,-0.000935464,-0.00259489,0.702495,0.00151747,0.0112003,713,722,-20.0664,5.67948
-504,302,-20.0785,-6.33209,-0.0046052,-0.00362931,-0.000608056,-0.00333762,-0.00489688,-1.12352,0.00288869,0.0101588,720,722,-20.0785,6.33208
-497,302,-20.1288,-6.94025,-0.0088861,-0.00516949,-0.00348921,-0.00307458,-0.010981,-1.03009,0.00654128,0.0153754,727,722,-20.1288,6.94027
-490,302,-20.1811,-7.54346,0,0,0,0,0,0,0,-1,734,722,-20.1811,7.54348
-483,302,-9.53412,-3.1673,0,0,0,0,0,0,0,-1,741,722,-9.53411,3.1673
-476,302,-4.29749,-0.203491,0,0,0,0,0,0,0,-1,748,722,-4.29751,0.203464
-469,302,-12.369,1.42859,0,0,0,0,0,0,0,-1,755,722,-12.3689,-1.42857
-462,302,-17.4766,0.310791,0,0,0,0,0,0,0,-1,762,722,-17.4766,-0.310788
-455,302,-36.7368,-2.97418,0,0,0,0,0,0,0,-1,769,722,-36.7368,2.97416
-448,302,-39.9575,-0.624146,0,0,0,0,0,0,0,-1,776,722,-39.9575,0.624164
-441,302,-39.4683,-0.341492,0,0,0,0,0,0,0,-1,783,722,-39.4683,0.341475
-434,302,-39.4329,-0.154724,0,0,0,0,0,0,0,-1,790,722,-39.4329,0.154743
-427,302,-27.1735,1.81506,0,0,0,0,0,0,0,-1,797,722,-27.1735,-1.81504
-420,302,0,0,0,0,0,0,0,0,0,-1,804,722,0,0
-413,302,0,0,0,0,0,0,0,0,0,-1,811,722,0,0
-406,302,0,0,0,0,0,0,0,0,0,-1,818,722,0,0
-399,302,0,0,0,0,0,0,0,0,0,-1,825,722,0,0
-392,302,0,0,0,0,0,0,0,0,0,-1,832,722,0,0
-385,302,0,0,0,0,0,0,0,0,0,-1,839,722,0,0
-378,302,0,0,0,0,0,0,0,0,0,-1,846,722,0,0
-371,302,0,0,0,0,0,0,0,0,0,-1,853,722,0,0
-364,302,0,0,0,0,0,0,0,0,0,-1,860,722,0,0
-357,302,0,0,0,0,0,0,0,0,0,-1,867,722,0,0
-350,302,0,0,0,0,0,0,0,0,0,-1,874,722,0,0
-343,302,0,0,0,0,0,0,0,0,0,-1,881,722,0,0
-336,302,0,0,0,0,0,0,0,0,0,-1,888,722,0,0
-329,302,0,0,0,0,0,0,0,0,0,-1,895,722,0,0
-322,302,0,0,0,0,0,0,0,0,0,-1,902,722,0,0
-315,302,0,0,0,0,0,0,0,0,0,-1,909,722,0,0
-308,302,0,0,0,0,0,0,0,0,0,-1,916,722,0,0
-301,302,0,0,0,0,0,0,0,0,0,-1,923,722,0,0
-294,302,0,0,0,0,0,0,0,0,0,-1,930,722,0,0
-287,302,0,0,0,0,0,0,0,0,0,-1,937,722,0,0
-280,302,0,0,0,0,0,0,0,0,0,-1,944,722,0,0
-273,302,0,0,0,0,0,0,0,0,0,-1,951,722,0,0
-266,302,0,0,0,0,0,0,0,0,0,-1,958,722,0,0
-259,302,0,0,0,0,0,0,0,0,0,-1,965,722,0,0
-252,302,0,0,0,0,0,0,0,0,0,-1,972,722,0,0
-245,302,0,0,0,0,0,0,0,0,0,-1,979,722,0,0
-238,302,0,0,0,0,0,0,0,0,0,-1,986,722,0,0
-231,302,0,0,0,0,0,0,0,0,0,-1,993,722,0,0
-224,302,0,0,0,0,0,0,0,0,0,-1,1000,722,0,0
-217,302,0,0,0,0,0,0,0,0,0,-1,1007,722,0,0
-210,302,0,0,0,0,0,0,0,0,0,-1,1014,722,0,0
-203,302,0,0,0,0,0,0,0,0,0,-1,1021,722,0,0
-196,302,0,0,0,0,0,0,0,0,0,-1,1028,722,0,0
-189,302,0,0,0,0,0,0,0,0,0,-1,1035,722,0,0
-182,302,0,0,0,0,0,0,0,0,0,-1,1042,722,0,0
-175,302,0,0,0,0,0,0,0,0,0,-1,1049,722,0,0
-168,302,0,0,0,0,0,0,0,0,0,-1,1056,722,0,0
-161,302,0,0,0,0,0,0,0,0,0,-1,1063,722,0,0
-154,302,0,0,0,0,0,0,0,0,0,-1,1070,722,0,0
-147,302,0,0,0,0,0,0,0,0,0,-1,1077,722,0,0
-140,302,0,0,0,0,0,0,0,0,0,-1,1084,722,0,0
-133,302,0,0,0,0,0,0,0,0,0,-1,1091,722,0,0
-126,302,0,0,0,0,0,0,0,0,0,-1,1098,722,0,0
-119,302,0,0,0,0,0,0,0,0,0,-1,1105,722,0,0
-112,302,0,0,0,0,0,0,0,0,0,-1,1112,722,0,0
-105,302,0,0,0,0,0,0,0,0,0,-1,1119,722,0,0
-98,302,0,0,0,0,0,0,0,0,0,-1,1126,722,0,0
-91,302,0,0,0,0,0,0,0,0,0,-1,1133,722,0,0
-84,302,0,0,0,0,0,0,0,0,0,-1,1140,722,0,0
-77,302,0,0,0,0,0,0,0,0,0,-1,1147,722,0,0
-70,302,0,0,0,0,0,0,0,0,0,-1,1154,722,0,0
-63,302,0,0,0,0,0,0,0,0,0,-1,1161,722,0,0
-56,302,0,0,0,0,0,0,0,0,0,-1,1168,722,0,0
-49,302,0,0,0,0,0,0,0,0,0,-1,1175,722,0,0
-42,302,0,0,0,0,0,0,0,0,0,-1,1182,722,0,0
-35,302,0,0,0,0,0,0,0,0,0,-1,1189,722,0,0
-28,302,0,0,0,0,0,0,0,0,0,-1,1196,722,0,0
-21,302,0,0,0,0,0,0,0,0,0,-1,1203,722,0,0
-14,302,0,0,0,0,0,0,0,0,0,-1,1210,722,0,0
-7,302,0,0,0,0,0,0,0,0,0,-1,1217,722,0,0
0,302,0,0,0,0,0,0,0,0,0,-1,1224,722,0,0
7,302,0,0,0,0,0,0,0,0,0,-1,1231,722,0,0
14,302,0,0,0,0,0,0,0,0,0,-1,1238,722,0,0
21,302,0,0,0,0,0,0,0,0,0,-1,1245,722,0,0
28,302,0,0,0,0,0,0,0,0,0,-1,1252,722,0,0
35,302,0,0,0,0,0,0,0,0,0,-1,1259,722,0,0
42,302,0,0,0,0,0,0,0,0,0,-1,1266,722,0,0
49,302,0,0,0,0,0,0,0,0,0,-1,1273,722,0,0
56,302,0,0,0,0,0,0,0,0,0,-1,1280,722,0,0
63,302,0,0,0,0,0,0,0,0,0,-1,1287,722,0,0
70,302,0,0,0,0,0,0,0,0,0,-1,1294,722,0,0
77,302,0,0,0,0,0,0,0,0,0,-1,1301,722,0,0
84,302,0,0,0,0,0,0,0,0,0,-1,1308,722,0,0
91,302,0,0,0,0,0,0,0,0,0,-1,1315,722,0,0
98,302,0,0,0,0,0,0,0,0,0,-1,1322,722,0,0
105,302,0,0,0,0,0,0,0,0,0,-1,1329,722,0,0
112,302,0,0,0,0,0,0,0,0,0,-1,1336,722,0,0
119,302,0,0,0,0,0,0,0,0,0,-1,1343,722,0,0
126,302,0,0,0,0,0,0,0,0,0,-1,1350,722,0,0
133,302,0,0,0,0,0,0,0,0,0,-1,1357,722,0,0
140,302,0,0,0,0,0,0,0,0,0,-1,1364,722,0,0
147,302,0,0,0,0,0,0,0,0,0,-1,1371,722,0,0
154,302,0,0,0,0,0,0,0,0,0,-1,1378,722,0,0
161,302,0,0,0,0,0,0,0,0,0,-1,1385,722,0,0
168,302,0,0,0,0,0,0,0,0,0,-1,1392,722,0,0
175,302,0,0,0,0,0,0,0,0,0,-1,1399,722,0,0
182,302,0,0,0,0,0,0,0,0,0,-1,1406,722,0,0
189,302,0,0,0,0,0,0,0,0,0,-1,1413,722,0,0
196,302,0,0,0,0,0,0,0,0,0,-1,1420,722,0,0
203,302,0,0,0,0,0,0,0,0,0,-1,1427,722,0,0
210,302,0,0,0,0,0,0,0,0,0,-1,1434,722,0,0
217,302,0,0,0,0,0,0,0,0,0,-1,1441,722,0,0
224,302,0,0,0,0,0,0,0,0,0,-1,1448,722,0,0
231,302,0,0,0,0,0,0,0,0,0,-1,1455,722,0,0
238,302,0,0,0,0,0,0,0,0,0,-1,1462,722,0,0
245,302,0,0,0,0,0,0,0,0,0,-1,1469,722,0,0
252,302,0,0,0,0,0,0,0,0,0,-1,1476,722,0,0
259,302,0,0,0,0,0,0,0,0,0,-1,1483,722,0,0
266,302,0,0,0,0,0,0,0,0,0,-1,1490,722,0,0
273,302,0,0,0,0,0,0,0,0,0,-1,1497,722,0,0
280,302,0,0,0,0,0,0,0,0,0,-1,1504,722,0,0
287,302,0,0,0,0,0,0,0,0,0,-1,1511,722,0,0
294,302,0,0,0,0,0,0,0,0,0,-1,1518,722,0,0
301,302,0,0,0,0,0,0,0,0,0,-1,1525,722,0,0
308,302,0,0,0,0,0,0,0,0,0,-1,1532,722,0,0
315,302,0,0,0,0,0,0,0,0,0,-1,1539,722,0,0
322,302,0,0,0,0,0,0,0,0,0,-1,1546,722,0,0
329,302,0,0,0,0,0,0,0,0,0,-1,1553,722,0,0
336,302,0,0,0,0,0,0,0,0,0,-1,1560,722,0,0
343,302,0,0,0,0,0,0,0,0,0,-1,1567,722,0,0
350,302,0,0,0,0,0,0,0,0,0,-1,1574,722,0,0
357,302,0,0,0,0,0,0,0,0,0,-1,1581,722,0,0
364,302,0,0,0,0,0,0,0,0,0,-1,1588,722,0,0
371,302,0,0,0,0,0,0,0,0,0,-1,1595,722,0,0
378,302,0,0,0,0,0,0,0,0,0,-1,1602,722,0,0
385,302,0,0,0,0,0,0,0,0,0,-1,1609,722,0,0
392,302,0,0,0,0,0,0,0,0,0,-1,1616,722,0,0
399,302,0,0,0,0,0,0,0,0,0,-1,1623,722,0,0
406,302,0,0,0,0,0,0,0,0,0,-1,1630,722,0,0
413,302,0,0,0,0,0,0,0,0,0,-1,1637,722,0,0
420,302,0,0,0,0,0,0,0,0,0,-1,1644,722,0,0
427,302,0,0,0,0,0,0,0,0,0,-1,1651,722,0,0
434,302,0,0,0,0,0,0,0,0,0,-1,1658,722,0,0
441,302,0,0,0,0,0,0,0,0,0,-1,1665,722,0,0
448,302,0,0,0,0,0,0,0,0,0,-1,1672,722,0,0
455,302,0,0,0,0,0,0,0,0,0,-1,1679,722,0,0
462,302,0,0,0,0,0,0,0,0,0,-1,1686,722,0,0
469,302,0,0,0,0,0,0,0,0,0,-1,1693,722,0,0
476,302,0,0,0,0,0,0,0,0,0,-1,1700,722,0,0
483,302,0,0,0,0,0,0,0,0,0,-1,1707,722,0,0
490,302,0,0,0,0,0,0,0,0,0,-1,1714,722,0,0
497,302,0,0,0,0,0,0,0,0,0,-1,1721,722,0,0
504,302,0,0,0,0,0,0,0,0,0,-1,1728,722,0,0
511,302,0,0,0,0,0,0,0,0,0,-1,1735,722,0,0
518,302,0,0,0,0,0,0,0,0,0,-1,1742,722,0,0
525,302,0,0,0,0,0,0,0,0,0,-1,1749,722,0,0
532,302,0,0,0,0,0,0,0,0,0,-1,1756,722,0,0
539,302,0,0,0,0,0,0,0,0,0,-1,1763,722,0,0
546,302,48.9873,1.50562,0,0,0,0,0,0,0,-1,1770,722,48.9873,-1.50562
553,302,48.5511,2.79346,0,0,0,0,0,0,0,-1,1777,722,48.5512,-2.79343
560,302,47.9004,3.90967,0,0,0,0,0,0,0,-1,1784,722,47.9004,-3.90967
567,302,46.8901,4.84912,0,0,0,0,0,0,0,-1,1791,722,46.8901,-4.84912
574,302,45.9537,6.00867,0,0,0,0,0,0,0,-1,1798,722,45.9537,-6.00864
581,302,45.137,7.38043,0,0,0,0,0,0,0,-1,1805,722,45.1369,-7.38044
588,302,26.9731,7.19983,0,0,0,0,0,0,0,-1,1812,722,26.9732,-7.19981
595,302,27.3826,8.13104,0,0,0,0,0,0,0,-1,1819,722,27.3825,-8.13102
602,302,14.7349,5.21246,0,0,0,0,0,0,0,-1,1826,722,14.7349,-5.21247
609,302,31.1039,-6.34253,0,0,0,0,0,0,0,-1,1833,722,31.1039,6.34254
616,302,31.7814,-6.11188,0,0,0,0,0,0,0,-1,1840,722,31.7814,6.11185
623,302,31.7587,-5.34436,0.00366651,-0.00108148,0.000351807,0.00369243,-0.00110741,0.0735607,0.00290207,0.0151255,1847,722,31.7586,5.34439
630,302,31.6887,-4.68683,0.00158778,-0.000960982,0.000598512,0.00172133,-0.00109453,0.219537,0.00163911,0.0119881,1854,722,31.6887,4.68682
637,302,31.6505,-4.02374,0.000330277,3.98574e-05,0.000331364,0.000546851,-0.000176717,0.578891,0.000435591,0.0147855,1861,722,31.6505,4.02373
644,302,31.652,-3.37463,-3.09585e-05,5.6331e-05,0.000330783,0.000346336,-0.000320964,0.850991,0.000385359,0.0159657,1868,722,31.652,3.37463
651,302,31.6364,-2.72247,-0.00050556,0.00039789,0.000321036,0.000500349,-0.000608018,1.26186,0.000640922,0.015329,1875,722,31.6363,2.72249
658,302,31.6245,-2.09613,-0.00111754,0.000979019,0.000321358,0.00102717,-0.0011657,1.42207,0.00126689,0.0151595,1882,722,31.6245,2.09611
665,302,31.5863,-1.40936,-0.00179392,0.00169525,0.000324091,0.0017251,-0.00182376,1.47896,0.0020492,0.014173,1889,722,31.5862,1.40934
672,302,31.5349,-0.74762,-0.00248526,0.00255483,0.00037049,0.00258192,-0.00251235,1.49781,0.00294127,0.0120795,1896,722,31.5349,0.747602
679,302,31.515,-0.0889893,-0.00318747,0.00360544,0.000432634,0.00363289,-0.00321491,1.50745,0.00395603,0.0101577,1903,722,31.515,0.088996
686,302,31.5177,0.610657,-0.00376908,0.00481085,0.000548964,0.00484583,-0.00380406,1.50716,0.00500608,0.0223322,1910,722,31.5177,-0.610651
693,302,31.4723,1.30743,0,0,0,0,0,0,0,-1,1917,722,31.4722,-1.30743
700,302,25.4069,1.97308,0,0,0,0,0,0,0,-1,1924,722,25.4068,-1.97311
707,302,16.7321,4.76685,0,0,0,0,0,0,0,-1,1931,722,16.7321,-4.76687
714,302,17.2,5.77594,0,0,0,0,0,0,0,-1,1938,722,17.2,-5.77595
721,302,17.7914,6.60394,0,0,0,0,0,0,0,-1,1945,722,17.7914,-6.60395
728,302,17.2798,4.81702,0,0,0,0,0,0,0,-1,1952,722,17.2798,-4.81703
735,302,0,0,0,0,0,0,0,0,0,-1,1959,722,0,0
742,302,0,0,0,0,0,0,0,0,0,-1,1966,722,0,0
749,302,0,0,0,0,0,0,0,0,0,-1,1973,722,0,0
756,302,0,0,0,0,0,0,0,0,0,-1,1980,722,0,0
763,302,0,0,0,0,0,0,0,0,0,-1,1987,722,0,0
770,302,0,0,0,0,0,0,0,0,0,-1,1994,722,0,0
777,302,0,0,0,0,0,0,0,0,0,-1,2001,722,0,0
784,302,0,0,0,0,0,0,0,0,0,-1,2008,722,0,0
791,302,0,0,0,0,0,0,0,0,0,-1,2015,722,0,0
798,302,0,0,0,0,0,0,0,0,0,-1,2022,722,0,0
805,302,0,0,0,0,0,0,0,0,0,-1,2029,722,0,0
812,302,0,0,0,0,0,0,0,0,0,-1,2036,722,0,0
-700,295,0,0,0,0,0,0,0,0,0,-1,524,729,0,0
-693,295,0,0,0,0,0,0,0,0,0,-1,531,729,0,0
-686,295,0,0,0,0,0,0,0,0,0,-1,538,729,0,0
-679,295,0,0,0,0,0,0,0,0,0,-1,545,729,0,0
-672,295,0,0,0,0,0,0,0,0,0,-1,552,729,0,0
-665,295,0,0,0,0,0,0,0,0,0,-1,559,729,0,0
-658,295,0,0,0,0,0,0,0,0,0,-1,566,729,0,0
-651,295,0,0,0,0,0,0,0,0,0,-1,573,729,0,0
-644,295,0,0,0,0,0,0,0,0,0,-1,580,729,0,0
-637,295,0,0,0,0,0,0,0,0,0,-1,587,729,0,0
-630,295,0,0,0,0,0,0,0,0,0,-1,594,729,0,0
-623,295,0,0,0,0,0,0,0,0,0,-1,601,729,0,0
-616,295,-13.4911,1.31738,0,0,0,0,0,0,0,-1,608,729,-13.4911,-1.3174
-609,295,-10.2864,0.832031,0,0,0,0,0,0,0,-1,615,729,-10.2863,-0.832034
-602,295,-8.19006,3.01587,0,0,0,0,0,0,0,-1,622,729,-8.19005,-3.01588
-595,295,-0.615479,-1.95447,0,0,0,0,0,0,0,-1,629,729,-0.615481,1.95445
-588,295,-7.98999,1.56903,0,0,0,0,0,0,0,-1,636,729,-7.98997,-1.56905
-581,295,-12.0404,0.150574,0,0,0,0,0,0,0,-1,643,729,-12.0404,-0.150604
-574,295,-12.1605,-0.0739746,0,0,0,0,0,0,0,-1,650,729,-12.1605,0.0739856
-567,295,-20.3073,-0.523926,0,0,0,0,0,0,0,-1,657,729,-20.3073,0.523955
-560,295,-20.5047,-1.27551,0.00127087,0.00341158,-0.000209986,0.00343198,0.00125046,-1.47393,0.00200561,0.0341633,664,729,-20.5047,1.27552
-553,295,-20.5092,-1.93109,0.00102126,0.00312023,-0.000245981,0.00314867,0.00099282,-1.45568,0.00185877,0.0193563,671,729,-20.5091,1.9311
-546,295,-20.5942,-2.55206,0.000785565,0.00241918,-0.000138607,0.00243086,0.000773888,-1.48675,0.00143399,0.0214133,678,729,-20.5942,2.55208
-539,295,-20.628,-3.15094,0.000386076,0.00156251,8.26707e-05,0.00156829,0.000380295,1.50098,0.000944631,0.0192689,685,729,-20.628,3.15092
-532,295,-20.6359,-3.76886,0.00012244,0.000430664,0.000417955,0.000722014,-0.000168911,0.962029,0.000546419,0.0156048,692,729,-20.6359,3.76886
-525,295,-20.625,-4.42395,-4.28005e-05,-0.000839993,0.000770262,0.000425888,-0.00130868,0.546631,0.00104379,0.0152602,699,729,-20.625,4.42397
-518,295,-20.6467,-5.02759,-0.000899419,-0.00173633,0.00118864,-5.77247e-05,-0.00257803,0.61615,0.00169977,0.0116293,706,729,-20.6467,5.02758
-511,295,-20.6735,-5.6366,-0.00273475,-0.00246947,0.00117008,-0.00142454,-0.00377968,0.841838,0.00220414,0.00926654,713,729,-20.6735,5.63659
-504,295,-20.6949,-6.26971,-0.00602879,-0.00405399,-0.000633981,-0.00386798,-0.0062148,-1.2854,0.00362376,0.0113608,720,729,-20.6949,6.26974
-497,295,-20.7667,-6.83423,-0.0105218,-0.00538791,-0.0038576,-0.00332125,-0.0125885,-1.07897,0.00753335,0.0228901,727,729,-20.7667,6.8342
-490,295,-20.852,-7.36328,0,0,0,0,0,0,0,-1,734,729,-20.852,7.36328
-483,295,-6.84503,-0.454651,0,0,0,0,0,0,0,-1,741,729,-6.84505,0.454639
-476,295,-13.1738,-0.836243,0,0,0,0,0,0,0,-1,748,729,-13.1738,0.836223
-469,295,-26.5608,-0.466187,0,0,0,0,0,0,0,-1,755,729,-26.5608,0.466162
-462,295,-29.7701,-0.792664,0,0,0,0,0,0,0,-1,762,729,-29.7701,0.792642
-455,295,-39.7284,-1.35437,0,0,0,0,0,0,0,-1,769,729,-39.7284,1.35437
-448,295,-40.9255,-1.80212,0,0,0,0,0,0,0,-1,776,729,-40.9255,1.80211
-441,295,-39.6894,-0.329468,0,0,0,0,0,0,0,-1,783,729,-39.6894,0.329463
-434,295,-39.6559,-0.0856934,0,0,0,0,0,0,0,-1,790,729,-39.6559,0.0856846
-427,295,0,0,0,0,0,0,0,0,0,-1,797,729,0,0
-420,295,0,0,0,0,0,0,0,0,0,-1,804,729,0,0
-413,295,0,0,0,0,0,0,0,0,0,-1,811,729,0,0
-406,295,0,0,0,0,0,0,0,0,0,-1,818,729,0,0
-399,295,0,0,0,0,0,0,0,0,0,-1,825,729,0,0
-392,295,0,0,0,0,0,0,0,0,0,-1,832,729,0,0
-385,295,0,0,0,0,0,0,0,0,0,-1,839,729,0,0
-378,295,0,0,0,0,0,0,0,0,0,-1,846,729,0,0
-371,295,0,0,0,0,0,0,0,0,0,-1,853,729,0,0
-364,295,0,0,0,0,0,0,0,0,0,-1,860,729,0,0
-357,295,0,0,0,0,0,0,0,0,0,-1,867,729,0,0
-350,295,0,0,0,0,0,0,0,0,0,-1,874,729,0,0
-343,295,0,0,0,0,0,0,0,0,0,-1,881,729,0,0
-336,295,0,0,0,0,0,0,0,0,0,-1,888,729,0,0
-329,295,0,0,0,0,0,0,0,0,0,-1,895,729,0,0
-322,295,0,0,0,0,0,0,0,0,0,-1,902,729,0,0
-315,295,0,0,0,0,0,0,0,0,0,-1,909,729,0,0
-308,295,0,0,0,0,0,0,0,0,0,-1,916,729,0,0
-301,295,0,0,0,0,0,0,0,0,0,-1,923,729,0,0
-294,295,0,0,0,0,0,0,0,0,0,-1,930,729,0,0
-287,295,0,0,0,0,0,0,0,0,0,-1,937,729,0,0
-280,295,0,0,0,0,0,0,0,0,0,-1,944,729,0,0
-273,295,0,0,0,0,0,0,0,0,0,-1,951,729,0,0
-266,295,0,0,0,0,0,0,0,0,0,-1,958,729,0,0
-259,295,0,0,0,0,0,0,0,0,0,-1,965,729,0,0
-252,295,0,0,0,0,0,0,0,0,0,-1,972,729,0,0
-245,295,0,0,0,0,0,0,0,0,0,-1,979,729,0,0
-238,295,0,0,0,0,0,0,0,0,0,-1,986,729,0,0
-231,295,0,0,0,0,0,0,0,0,0,-1,993,729,0,0
-224,295,0,0,0,0,0,0,0,0,0,-1,1000,729,0,0
-217,295,0,0,0,0,0,0,0,0,0,-1,1007,729,0,0
-210,295,0,0,0,0,0,0,0,0,0,-1,1014,729,0,0
-203,295,0,0,0,0,0,0,0,0,0,-1,1021,729,0,0
-196,295,0,0,0,0,0,0,0,0,0,-1,1028,729,0,0
-189,295,0,0,0,0,0,0,0,0,0,-1,1035,729,0,0
-182,295,0,0,0,0,0,0,0,0,0,-1,1042,729,0,0
-175,295,0,0,0,0,0,0,0,0,0,-1,1049,729,0,0
-168,295,0,0,0,0,0,0,0,0,0,-1,1056,729,0,0
-161,295,0,0,0,0,0,0,0,0,0,-1,1063,729,0,0
-154,295,0,0,0,0,0,0,0,0,0,-1,1070,729,0,0
-147,295,0,0,0,0,0,0,0,0,0,-1,1077,729,0,0
-140,295,0,0,0,0,0,0,0,0,0,-1,1084,729,0,0
-133,295,0,0,0,0,0,0,0,0,0,-1,1091,729,0,0
-126,295,0,0,0,0,0,0,0,0,0,-1,1098,729,0,0
-119,295,0,0,0,0,0,0,0,0,0,-1,1105,729,0,0
-112,295,0,0,0,0,0,0,0,0,0,-1,1112,729,0,0
-105,295,0,0,0,0,0,0,0,0,0,-1,1119,729,0,0
-98,295,0,0,0,0,0,0,0,0,0,-1,1126,729,0,0
-91,295,0,0,0,0,0,0,0,0,0,-1,1133,729,0,0
-84,295,0,0,0,0,0,0,0,0,0,-1,1140,729,0,0
-77,295,0,0,0,0,0,0,0,0,0,-1,1147,729,0,0
-70,295,0,0,0,0,0,0,0,0,0,-1,1154,729,0,0
-63,295,0,0,0,0,0,0,0,0,0,-1,1161,729,0,0
-56,295,0,0,0,0,0,0,0,0,0,-1,1168,729,0,0
-49,295,0,0,0,0,0,0,0,0,0,-1,1175,729,0,0
-42,295,0,0,0,0,0,0,0,0,0,-1,1182,729,0,0
-35,295,0,0,0,0,0,0,0,0,0,-1,1189,729,0,0
-28,295,0,0,0,0,0,0,0,0,0,-1,1196,729,0,0
-21,295,0,0,0,0,0,0,0,0,0,-1,1203,729,0,0
-14,295,0,0,0,0,0,0,0,0,0,-1,1210,729,0,0
-7,295,0,0,0,0,0,0,0,0,0,-1,1217,729,0,0
0,295,0,0,0,0,0,0,0,0,0,-1,1224,729,0,0
7,295,0,0,0,0,0,0,0,0,0,-1,1231,729,0,0
14,295,0,0,0,0,0,0,0,0,0,-1,1238,729,0,0
21,295,0,0,0,0,0,0,0,0,0,-1,1245,729,0,0
28,295,0,0,0,0,0,0,0,0,0,-1,1252,729,0,0
35,295,0,0,0,0,0,0,0,0,0,-1,1259,729,0,0
42,295,0,0,0,0,0,0,0,0,0,-1,1266,729,0,0
49,295,0,0,0,0,0,0,0,0,0,-1,1273,729,0,0
56,295,0,0,0,0,0,0,0,0,0,-1,1280,729,0,0
63,295,0,0,0,0,0,0,0,0,0,-1,1287,729,0,0
70,295,0,0,0,0,0,0,0,0,0,-1,1294,729,0,0
77,295,0,0,0,0,0,0,0,0,0,-1,1301,729,0,0
84,295,0,0,0,0,0,0,0,0,0,-1,1308,729,0,0
91,295,0,0,0,0,0,0,0,0,0,-1,1315,729,0,0
98,295,0,0,0,0,0,0,0,0,0,-1,1322,729,0,0
105,295,0,0,0,0,0,0,0,0,0,-1,1329,729,0,0
112,295,0,0,0,0,0,0,0,0,0,-1,1336,729,0,0
119,295,0,0,0,0,0,0,0,0,0,-1,1343,729,0,0
126,295,0,0,0,0,0,0,0,0,0,-1,1350,729,0,0
133,295,0,0,0,0,0,0,0,0,0,-1,1357,729,0,0
140,295,0,0,0,0,0,0,0,0,0,-1,1364,729,0,0
147,295,0,0,0,0,0,0,0,0,0,-1,1371,729,0,0
154,295,0,0,0,0,0,0,0,0,0,-1,1378,729,0,0
161,295,0,0,0,0,0,0,0,0,0,-1,1385,729,0,0
168,295,0,0,0,0,0,0,0,0,0,-1,1392,729,0,0
175,295,0,0,0,0,0,0,0,0,0,-1,1399,729,0,0
182,295,0,0,0,0,0,0,0,0,0,-1,1406,729,0,0
189,295,0,0,0,0,0,0,0,0,0,-1,1413,729,0,0
196,295,0,0,0,0,0,0,0,0,0,-1,1420,729,0,0
203,295,0,0,0,0,0,0,0,0,0,-1,1427,729,0,0
210,295,0,0,0,0,0,0,0,0,0,-1,1434,729,0,0
217,295,0,0,0,0,0,0,0,0,0,-1,1441,729,0,0
224,295,0,0,0,0,0,0,0,0,0,-1,1448,729,0,0
231,295,0,0,0,0,0,0,0,0,0,-1,1455,729,0,0
238,295,0,0,0,0,0,0,0,0,0,-1,1462,729,0,0
245,295,0,0,0,0,0,0,0,0,0,-1,1469,729,0,0
252,295,0,0,0,0,0,0,0,0,0,-1,1476,729,0,0
259,295,0,0,0,0,0,0,0,0,0,-1,1483,729,0,0
266,295,0,0,0,0,0,0,0,0,0,-1,1490,729,0,0
273,295,0,0,0,0,0,0,0,0,0,-1,1497,729,0,0
280,295,0,0,0,0,0,0,0,0,0,-1,1504,729,0,0
287,295,0,0,0,0,0,0,0,0,0,-1,1511,729,0,0
294,295,0,0,0,0,0,0,0,0,0,-1,1518,729,0,0
301,295,0,0,0,0,0,0,0,0,0,-1,1525,729,0,0
308,295,0,0,0,0,0,0,0,0,0,-1,1532,729,0,0
315,295,0,0,0,0,0,0,0,0,0,-1,1539,729,0,0
322,295,0,0,0,0,0,0,0,0,0,-1,1546,729,0,0
329,295,0,0,0,0,0,0,0,0,0,-1,1553,729,0,0
336,295,0,0,0,0,0,0,0,0,0,-1,1560,729,0,0
343,295,0,0,0,0,0,0,0,0,0,-1,1567,729,0,0
350,295,0,0,0,0,0,0,0,0,0,-1,1574,729,0,0
357,295,0,0,0,0,0,0,0,0,0,-1,1581,729,0,0
364,295,0,0,0,0,0,0,0,0,0,-1,1588,729,0,0
371,295,0,0,0,0,0,0,0,0,0,-1,1595,729,0,0
378,295,0,0,0,0,0,0,0,0,0,-1,1602,729,0,0
385,295,0,0,0,0,0,0,0,0,0,-1,1609,729,0,0
392,295,0,0,0,0,0,0,0,0,0,-1,1616,729,0,0
399,295,0,0,0,0,0,0,0,0,0,-1,1623,729,0,0
406,295,0,0,0,0,0,0,0,0,0,-1,1630,729,0,0
413,295,0,0,0,0,0,0,0,0,0,-1,1637,729,0,0
420,295,0,0,0,0,0,0,0,0,0,-1,1644,729,0,0
427,295,0,0,0,0,0,0,0,0,0,-1,1651,729,0,0
434,295,0,0,0,0,0,0,0,0,0,-1,1658,729,0,0
441,295,0,0,0,0,0,0,0,0,0,-1,1665,729,0,0
448,295,0,0,0,0,0,0,0,0,0,-1,1672,729,0,0
455,295,0,0,0,0,0,0,0,0,0,-1,1679,729,0,0
462,295,0,0,0,0,0,0,0,0,0,-1,1686,729,0,0
469,295,0,0,0,0,0,0,0,0,0,-1,1693,729,0,0
476,295,0,0,0,0,0,0,0,0,0,-1,1700,729,0,0
483,295,0,0,0,0,0,0,0,0,0,-1,1707,729,0,0
490,295,0,0,0,0,0,0,0,0,0,-1,1714,729,0,0
497,295,0,0,0,0,0,0,0,0,0,-1,1721,729,0,0
504,295,0,0,0,0,0,0,0,0,0,-1,1728,729,0,0
511,295,0,0,0,0,0,0,0,0,0,-1,1735,729,0,0
518,295,0,0,0,0,0,0,0,0,0,-1,1742,729,0,0
525,295,0,0,0,0,0,0,0,0,0,-1,1749,729,0,0
532,295,0,0,0,0,0,0,0,0,0,-1,1756,729,0,0
539,295,0,0,0,0,0,0,0,0,0,-1,1763,729,0,0
546,295,48.8486,1.93115,0,0,0,0,0,0,0,-1,1770,729,48.8486,-1.93117
553,295,48.7095,2.24249,0,0,0,0,0,0,0,-1,1777,729,48.7095,-2.24251
560,295,47.8405,3.19769,0,0,0,0,0,0,0,-1,1784,729,47.8405,-3.19772
567,295,50.6709,1.9353,0,0,0,0,0,0,0,-1,1791,729,50.6709,-1.9353
574,295,45.8945,5.06598,0,0,0,0,0,0,0,-1,1798,729,45.8945,-5.06597
581,295,37.8191,2.19592,0,0,0,0,0,0,0,-1,1805,729,37.8191,-2.19594
588,295,39.0542,2.45679,0,0,0,0,0,0,0,-1,1812,729,39.0542,-2.45676
595,295,27.2102,6.99121,0,0,0,0,0,0,0,-1,1819,729,27.2103,-6.99121
602,295,26.9065,7.82141,0,0,0,0,0,0,0,-1,1826,729,26.9064,-7.8214
609,295,11.7737,2.19989,0,0,0,0,0,0,0,-1,1833,729,11.7736,-2.19988
616,295,32.5649,-6.00281,0,0,0,0,0,0,0,-1,1840,729,32.565,6.00281
623,295,32.4279,-5.33032,0.0036006,-0.000838593,0.000301358,0.00362096,-0.000858958,0.0674732,0.00274546,0.032017,1847,729,32.4279,5.33033
630,295,32.3254,-4.65643,0.0013439,-0.000914523,0.000568772,0.00147906,-0.00104968,0.233297,0.00146696,0.0134666,1854,729,32.3254,4.65644
637,295,32.3033,-3.99445,5.35856e-05,0.000216332,0.00024714,0.000395151,-0.000125233,0.944438,0.000313627,0.014341,1861,729,32.3034,3.99443
644,295,32.3022,-3.33112,1.76304e-05,-4.58466e-05,0.000323903,0.000311346,-0.000339562,0.73656,0.00037592,0.0137956,1868,729,32.3022,3.33111
651,295,32.2849,-2.67316,-5.7805e-05,0.000241002,0.000380716,0.00050058,-0.000317384,0.972379,0.000476183,0.0142097,1875,729,32.285,2.67313
658,295,32.2701,-2.03601,-0.000290462,0.000827613,0.000486521,0.00100967,-0.000472522,1.21272,0.000874277,0.0126681,1882,729,32.2701,2.03604
665,295,32.2372,-1.39709,-0.000685061,0.00158598,0.000571049,0.00172149,-0.000820565,1.33782,0.00149806,0.0116944,1889,729,32.2372,1.3971
672,295,32.196,-0.748779,-0.00105516,0.00243636,0.000711761,0.00257588,-0.00119468,1.37723,0.00222509,0.0137255,1896,729,32.196,0.748763
679,295,32.1621,-0.0821533,-0.00139746,0.00343899,0.000860208,0.00358743,-0.0015459,1.39992,0.00304085,0.0106239,1903,729,32.1622,0.0821364
686,295,32.174,0.565735,-0.00159754,0.00455665,0.00105948,0.00473394,-0.00177483,1.405,0.00388514,0.0118586,1910,729,32.1739,-0.565708
693,295,32.1913,1.20795,0,0,0,0,0,0,0,-1,1917,729,32.1913,-1.20793
700,295,31.3757,2.06982,0,0,0,0,0,0,0,-1,1924,729,31.3758,-2.0698
707,295,22.2661,3.05206,0,0,0,0,0,0,0,-1,1931,729,22.2662,-3.05207
714,295,17.4906,4.63068,0,0,0,0,0,0,0,-1,1938,729,17.4906,-4.63066
721,295,18.3792,5.32281,0,0,0,0,0,0,0,-1,1945,729,18.3791,-5.32283
728,295,17.379,3.74866,0,0,0,0,0,0,0,-1,1952,729,17.379,-3.74863
735,295,0,0,0,0,0,0,0,0,0,-1,1959,729,0,0
742,295,0,0,0,0,0,0,0,0,0,-1,1966,729,0,0
749,295,0,0,0,0,0,0,0,0,0,-1,1973,729,0,0
756,295,0,0,0,0,0,0,0,0,0,-1,1980,729,0,0
763,295,0,0,0,0,0,0,0,0,0,-1,1987,729,0,0
770,295,0,0,0,0,0,0,0,0,0,-1,1994,729,0,0
777,295,0,0,0,0,0,0,0,0,0,-1,2001,729,0,0
784,295,0,0,0,0,0,0,0,0,0,-1,2008,729,0,0
791,295,0,0,0,0,0,0,0,0,0,-1,2015,729,0,0
798,295,0,0,0,0,0,0,0,0,0,-1,2022,729,0,0
805,295,0,0,0,0,0,0,0,0,0,-1,2029,729,0,0
812,295,0,0,0,0,0,0,0,0,0,-1,2036,729,0,0
-700,288,0,0,0,0,0,0,0,0,0,-1,524,736,0,0
-693,288,0,0,0,0,0,0,0,0,0,-1,531,736,0,0
-686,288,0,0,0,0,0,0,0,0,0,-1,538,736,0,0
-679,288,0,0,0,0,0,0,0,0,0,-1,545,736,0,0
-672,288,0,0,0,0,0,0,0,0,0,-1,552,736,0,0
-665,288,0,0,0,0,0,0,0,0,0,-1,559,736,0,0
-658,288,0,0,0,0,0,0,0,0,0,-1,566,736,0,0
-651,288,0,0,0,0,0,0,0,0,0,-1,573,736,0,0
-644,288,0,0,0,0,0,0,0,0,0,-1,580,736,0,0
-637,288,0,0,0,0,0,0,0,0,0,-1,587,736,0,0
-630,288,0,0,0,0,0,0,0,0,0,-1,594,736,0,0
-623,288,0,0,0,0,0,0,0,0,0,-1,601,736,0,0
-616,288,-11.7584,2.4425,0,0,0,0,0,0,0,-1,608,736,-11.7584,-2.44251
-609,288,-10.3007,2.32178,0,0,0,0,0,0,0,-1,615,736,-10.3007,-2.32178
-602,288,-10.1458,-1.85559,0,0,0,0,0,0,0,-1,622,736,-10.1458,1.85556
-595,288,-7.63208,1.81769,0,0,0,0,0,0,0,-1,629,736,-7.63205,-1.81766
-588,288,-8.19269,1.50598,0,0,0,0,0,0,0,-1,636,736,-8.19268,-1.50601
-581,288,-13.1915,0.659241,0,0,0,0,0,0,0,-1,643,736,-13.1915,-0.659228
-574,288,-20.7706,-0.0232544,0,0,0,0,0,0,0,-1,650,736,-20.7706,0.0232694
-567,288,-20.9187,-0.653564,0.00276527,0.00155404,-0.00052516,0.00296126,0.00135806,-0.357183,0.00171164,0.0403754,657,736,-20.9187,0.653571
-560,288,-21.159,-1.30359,0.00169908,0.0018221,-0.000317227,0.00208373,0.00143745,-0.881158,0.00123161,0.0173771,664,736,-21.159,1.30361
-553,288,-21.1418,-1.89746,0.00109032,0.00169216,-0.000107653,0.00171083,0.00107164,-1.39902,0.000998213,0.019201,671,736,-21.1418,1.89744
-546,288,-21.1999,-2.53278,0.00063117,0.00109547,0.000177972,0.00115584,0.000570801,1.24377,0.000667343,0.0206377,678,736,-21.1999,2.53275
-539,288,-21.2542,-3.13574,2.29627e-05,0.000370952,0.000556774,0.000780285,-0.000386371,0.936843,0.000686248,0.0173999,685,736,-21.2542,3.13575
-532,288,-21.2196,-3.76013,-0.000310806,-0.000721279,0.000972475,0.000477854,-0.00150994,0.681401,0.00119811,0.0142274,692,736,-21.2196,3.76011
-525,288,-21.2369,-4.39252,-0.000413743,-0.00191375,0.00133755,0.000369727,-0.00269722,0.529877,0.00193321,0.0131179,699,736,-21.2369,4.39249
-518,288,-21.2943,-5.00403,-0.00144721,-0.00254348,0.0017369,-0.000174002,-0.00381668,0.632553,0.00248848,0.0118744,706,736,-21.2943,5.00402
-511,288,-21.3293,-5.60919,-0.0034798,-0.00302691,0.00154189,-0.00169493,-0.00481179,0.858308,0.00281823,0.008799,713,736,-21.3293,5.6092
-504,288,-21.3387,-6.22528,-0.0068242,-0.00443351,-0.000459129,-0.00434837,-0.00690934,-1.38743,0.00403336,0.0107361,720,736,-21.3387,6.2253
-497,288,-21.3512,-6.65698,-0.0112372,-0.00557592,-0.00373678,-0.0037187,-0.0130945,-1.10954,0.00779171,0.0332499,727,736,-21.3512,6.65696
-490,288,-21.2883,-7.02979,0,0,0,0,0,0,0,-1,734,736,-21.2883,7.02979
-483,288,-17.3287,0.564758,0,0,0,0,0,0,0,-1,741,736,-17.3287,-0.56477
-476,288,-26.136,0.452148,0,0,0,0,0,0,0,-1,748,736,-26.136,-0.452177
-469,288,-27.7904,0.649841,0,0,0,0,0,0,0,-1,755,736,-27.7904,-0.649854
-462,288,-38.9562,0.158569,0,0,0,0,0,0,0,-1,762,736,-38.9562,-0.158541
-455,288,-39.8754,-0.7901,-0.0589907,-0.0265442,-0.0483966,0.00827593,-0.0938108,-0.947119,0.0654738,0.0459811,769,736,-39.8754,0.790118
-448,288,-40.6115,-1.45239,-0.0765544,-0.0386581,-0.069145,0.014088,-0.129301,-0.919132,0.0912595,0.0484233,776,736,-40.6115,1.45237
-441,288,-41.1157,-2.28247,0,0,0,0,0,0,0,-1,783,736,-41.1157,2.28244
-434,288,-39.9307,-0.149353,0,0,0,0,0,0,0,-1,790,736,-39.9307,0.149359
-427,288,0,0,0,0,0,0,0,0,0,-1,797,736,0,0
-420,288,0,0,0,0,0,0,0,0,0,-1,804,736,0,0
-413,288,0,0,0,0,0,0,0,0,0,-1,811,736,0,0
-406,288,0,0,0,0,0,0,0,0,0,-1,818,736,0,0
-399,288,0,0,0,0,0,0,0,0,0,-1,825,736,0,0
-392,288,0,0,0,0,0,0,0,0,0,-1,832,736,0,0
-385,288,0,0,0,0,0,0,0,0,0,-1,839,736,0,0
-378,288,0,0,0,0,0,0,0,0,0,-1,846,736,0,0
-371,288,0,0,0,0,0,0,0,0,0,-1,853,736,0,0
-364,288,0,0,0,0,0,0,0,0,0,-1,860,736,0,0
-357,288,0,0,0,0,0,0,0,0,0,-1,867,736,0,0
-350,288,0,0,0,0,0,0,0,0,0,-1,874,736,0,0
-343,288,0,0,0,0,0,0,0,0,0,-1,881,736,0,0
-336,288,0,0,0,0,0,0,0,0,0,-1,888,736,0,0
-329,288,0,0,0,0,0,0,0,0,0,-1,895,736,0,0
-322,288,0,0,0,0,0,0,0,0,0,-1,902,736,0,0
-315,288,0,0,0,0,0,0,0,0,0,-1,909,736,0,0
-308,288,0,0,0,0,0,0,0,0,0,-1,916,736,0,0
-301,288,0,0,0,0,0,0,0,0,0,-1,923,736,0,0
-294,288,0,0,0,0,0,0,0,0,0,-1,930,736,0,0
-287,288,0,0,0,0,0,0,0,0,0,-1,937,736,0,0
-280,288,0,0,0,0,0,0,0,0,0,-1,944,736,0,0
-273,288,0,0,0,0,0,0,0,0,0,-1,951,736,0,0
-266,288,0,0,0,0,0,0,0,0,0,-1,958,736,0,0
-259,288,0,0,0,0,0,0,0,0,0,-1,965,736,0,0
-252,288,0,0,0,0,0,0,0,0,0,-1,972,736,0,0
-245,288,0,0,0,0,0,0,0,0,0,-1,979,736,0,0
-238,288,0,0,0,0,0,0,0,0,0,-1,986,736,0,0
-231,288,0,0,0,0,0,0,0,0,0,-1,993,736,0,0
-224,288,0,0,0,0,0,0,0,0,0,-1,1000,736,0,0
-217,288,0,0,0,0,0,0,0,0,0,-1,1007,736,0,0
-210,288,0,0,0,0,0,0,0,0,0,-1,1014,736,0,0
-203,288,0,0,0,0,0,0,0,0,0,-1,1021,736,0,0
-196,288,0,0,0,0,0,0,0,0,0,-1,1028,736,0,0
-189,288,0,0,0,0,0,0,0,0,0,-1,1035,736,0,0
-182,288,0,0,0,0,0,0,0,0,0,-1,1042,736,0,0
-175,288,0,0,0,0,0,0,0,0,0,-1,1049,736,0,0
-168,288,0,0,0,0,0,0,0,0,0,-1,1056,736,0,0
-161,288,0,0,0,0,0,0,0,0,0,-1,1063,736,0,0
-154,288,0,0,0,0,0,0,0,0,0,-1,1070,736,0,0
-147,288,0,0,0,0,0,0,0,0,0,-1,1077,736,0,0
-140,288,0,0,0,0,0,0,0,0,0,-1,1084,736,0,0
-133,288,0,0,0,0,0,0,0,0,0,-1,1091,736,0,0
-126,288,0,0,0,0,0,0,0,0,0,-1,1098,736,0,0
-119,288,0,0,0,0,0,0,0,0,0,-1,1105,736,0,0
-112,288,0,0,0,0,0,0,0,0,0,-1,1112,736,0,0
-105,288,0,0,0,0,0,0,0,0,0,-1,1119,736,0,0
-98,288,0,0,0,0,0,0,0,0,0,-1,1126,736,0,0
-91,288,0,0,0,0,0,0,0,0,0,-1,1133,736,0,0
-84,288,0,0,0,0,0,0,0,0,0,-1,1140,736,0,0
-77,288,0,0,0,0,0,0,0,0,0,-1,1147,736,0,0
-70,288,0,0,0,0,0,0,0,0,0,-1,1154,736,0,0
-63,288,0,0,0,0,0,0,0,0,0,-1,1161,736,0,0
-56,288,0,0,0,0,0,0,0,0,0,-1,1168,736,0,0
-49,288,0,0,0,0,0,0,0,0,0,-1,1175,736,0,0
-42,288,0,0,0,0,0,0,0,0,0,-1,1182,736,0,0
-35,288,0,0,0,0,0,0,0,0,0,-1,1189,736,0,0
-28,288,0,0,0,0,0,0,0,0,0,-1,1196,736,0,0
-21,288,0,0,0,0,0,0,0,0,0,-1,1203,736,0,0
-14,288,0,0,0,0,0,0,0,0,0,-1,1210,736,0,0
-7,288,0,0,0,0,0,0,0,0,0,-1,1217,736,0,0
0,288,0,0,0,0,0,0,0,0,0,-1,1224,736,0,0
7,288,0,0,0,0,0,0,0,0,0,-1,1231,736,0,0
14,288,0,0,0,0,0,0,0,0,0,-1,1238,736,0,0
21,288,0,0,0,0,0,0,0,0,0,-1,1245,736,0,0
28,288,0,0,0,0,0,0,0,0,0,-1,1252,736,0,0
35,288,0,0,0,0,0,0,0,0,0,-1,1259,736,0,0
42,288,0,0,0,0,0,0,0,0,0,-1,1266,736,0,0
49,288,0,0,0,0,0,0,0,0,0,-1,1273,736,0,0
56,288,0,0,0,0,0,0,0,0,0,-1,1280,736,0,0
63,288,0,0,0,0,0,0,0,0,0,-1,1287,736,0,0
70,288,0,0,0,0,0,0,0,0,0,-1,1294,736,0,0
77,288,0,0,0,0,0,0,0,0,0,-1,1301,736,0,0
84,288,0,0,0,0,0,0,0,0,0,-1,1308,736,0,0
91,288,0,0,0,0,0,0,0,0,0,-1,1315,736,0,0
98,288,0,0,0,0,0,0,0,0,0,-1,1322,736,0,0
105,288,0,0,0,0,0,0,0,0,0,-1,1329,736,0,0
112,288,0,0,0,0,0,0,0,0,0,-1,1336,736,0,0
119,288,0,0,0,0,0,0,0,0,0,-1,1343,736,0,0
126,288,0,0,0,0,0,0,0,0,0,-1,1350,736,0,0
133,288,0,0,0,0,0,0,0,0,0,-1,1357,736,0,0
140,288,0,0,0,0,0,0,0,0,0,-1,1364,736,0,0
147,288,0,0,0,0,0,0,0,0,0,-1,1371,736,0,0
154,288,0,0,0,0,0,0,0,0,0,-1,1378,736,0,0
161,288,0,0,0,0,0,0,0,0,0,-1,1385,736,0,0
168,288,0,0,0,0,0,0,0,0,0,-1,1392,736,0,0
175,288,0,0,0,0,0,0,0,0,0,-1,1399,736,0,0
182,288,0,0,0,0,0,0,0,0,0,-1,1406,736,0,0
189,288,0,0,0,0,0,0,0,0,0,-1,1413,736,0,0
196,288,0,0,0,0,0,0,0,0,0,-1,1420,736,0,0
203,288,0,0,0,0,0,0,0,0,0,-1,1427,736,0,0
210,288,0,0,0,0,0,0,0,0,0,-1,1434,736,0,0
217,288,0,0,0,0,0,0,0,0,0,-1,1441,736,0,0
224,288,0,0,0,0,0,0,0,0,0,-1,1448,736,0,0
231,288,0,0,0,0,0,0,0,0,0,-1,1455,736,0,0
238,288,0,0,0,0,0,0,0,0,0,-1,1462,736,0,0
245,288,0,0,0,0,0,0,0,0,0,-1,1469,736,0,0
252,288,0,0,0,0,0,0,0,0,0,-1,1476,736,0,0
259,288,0,0,0,0,0,0,0,0,0,-1,1483,736,0,0
266,288,0,0,0,0,0,0,0,0,0,-1,1490,736,0,0
273,288,0,0,0,0,0,0,0,0,0,-1,1497,736,0,0
280,288,0,0,0,0,0,0,0,0,0,-1,1504,736,0,0
287,288,0,0,0,0,0,0,0,0,0,-1,1511,736,0,0
294,288,0,0,0,0,0,0,0,0,0,-1,1518,736,0,0
301,288,0,0,0,0,0,0,0,0,0,-1,1525,736,0,0
308,288,0,0,0,0,0,0,0,0,0,-1,1532,736,0,0
315,288,0,0,0,0,0,0,0,0,0,-1,1539,736,0,0
322,288,0,0,0,0,0,0,0,0,0,-1,1546,736,0,0
329,288,0,0,0,0,0,0,0,0,0,-1,1553,736,0,0
336,288,0,0,0,0,0,0,0,0,0,-1,1560,736,0,0
343,288,0,0,0,0,0,0,0,0,0,-1,1567,736,0,0
350,288,0,0,0,0,0,0,0,0,0,-1,1574,736,0,0
357,288,0,0,0,0,0,0,0,0,0,-1,1581,736,0,0
364,288,0,0,0,0,0,0,0,0,0,-1,1588,736,0,0
371,288,0,0,0,0,0,0,0,0,0,-1,1595,736,0,0
378,288,0,0,0,0,0,0,0,0,0,-1,1602,736,0,0
385,288,0,0,0,0,0,0,0,0,0,-1,1609,736,0,0
392,288,0,0,0,0,0,0,0,0,0,-1,1616,736,0,0
399,288,0,0,0,0,0,0,0,0,0,-1,1623,736,0,0
406,288,0,0,0,0,0,0,0,0,0,-1,1630,736,0,0
413,288,0,0,0,0,0,0,0,0,0,-1,1637,736,0,0
420,288,0,0,0,0,0,0,0,0,0,-1,1644,736,0,0
427,288,0,0,0,0,0,0,0,0,0,-1,1651,736,0,0
434,288,0,0,0,0,0,0,0,0,0,-1,1658,736,0,0
441,288,0,0,0,0,0,0,0,0,0,-1,1665,736,0,0
448,288,0,0,0,0,0,0,0,0,0,-1,1672,736,0,0
455,288,0,0,0,0,0,0,0,0,0,-1,1679,736,0,0
462,288,0,0,0,0,0,0,0,0,0,-1,1686,736,0,0
469,288,0,0,0,0,0,0,0,0,0,-1,1693,736,0,0
476,288,0,0,0,0,0,0,0,0,0,-1,1700,736,0,0
483,288,0,0,0,0,0,0,0,0,0,-1,1707,736,0,0
490,288,0,0,0,0,0,0,0,0,0,-1,1714,736,0,0
497,288,0,0,0,0,0,0,0,0,0,-1,1721,736,0,0
504,288,0,0,0,0,0,0,0,0,0,-1,1728,736,0,0
511,288,0,0,0,0,0,0,0,0,0,-1,1735,736,0,0
518,288,0,0,0,0,0,0,0,0,0,-1,1742,736,0,0
525,288,0,0,0,0,0,0,0,0,0,-1,1749,736,0,0
532,288,0,0,0,0,0,0,0,0,0,-1,1756,736,0,0
539,288,0,0,0,0,0,0,0,0,0,-1,1763,736,0,0
546,288,0,0,0,0,0,0,0,0,0,-1,1770,736,0,0
553,288,48.1055,1.96002,0,0,0,0,0,0,0,-1,1777,736,48.1055,-1.96004
560,288,50.3898,2.00574,0,0,0,0,0,0,0,-1,1784,736,50.3898,-2.00572
567,288,50.6228,2.4668,0,0,0,0,0,0,0,-1,1791,736,50.6228,-2.46679
574,288,52.084,4.13129,0,0,0,0,0,0,0,-1,1798,736,52.084,-4.13128
581,288,51.4637,2.84436,0,0,0,0,0,0,0,-1,1805,736,51.4638,-2.84434
588,288,50.0906,4.90088,0,0,0,0,0,0,0,-1,1812,736,50.0906,-4.9009
595,288,47.035,3.35156,0,0,0,0,0,0,0,-1,1819,736,47.035,-3.35157
602,288,26.7634,7.61279,0,0,0,0,0,0,0,-1,1826,736,26.7635,-7.61279
609,288,17.5223,4.86414,0,0,0,0,0,0,0,-1,1833,736,17.5223,-4.86412
616,288,13.4886,0.801331,0,0,0,0,0,0,0,-1,1840,736,13.4886,-0.80132
623,288,33.1135,-5.3476,0,0,0,0,0,0,0,-1,1847,736,33.1135,5.34757
630,288,32.9719,-4.62317,0.00149962,-0.000666496,0.00059445,0.00165203,-0.000818908,0.250985,0.00145337,0.0265916,1854,736,32.9719,4.62317
637,288,32.9735,-3.9718,-4.84267e-05,0.000566446,0.000156429,0.000603955,-8.59354e-05,1.33546,0.000434126,0.0113627,1861,736,32.9735,3.97178
644,288,32.9633,-3.31335,-4.91296e-05,-8.30949e-05,0.000242787,0.000177268,-0.000309493,0.750481,0.000284467,0.0103193,1868,736,32.9633,3.31337
651,288,32.9353,-2.6637,7.81027e-05,-1.75532e-05,0.000280877,0.000315195,-0.000254645,0.701067,0.000329616,0.0115766,1875,736,32.9353,2.66369
658,288,32.922,-1.98505,9.91246e-05,0.000451453,0.000443875,0.000752844,-0.000202267,0.974304,0.000581171,0.0162815,1882,736,32.922,1.98505
665,288,32.8929,-1.33966,-0.000135662,0.00121362,0.000579285,0.0014282,-0.000350241,1.21605,0.00108784,0.017179,1889,736,32.8929,1.33964
672,288,32.8607,-0.721375,-0.000314468,0.00203316,0.000767591,0.00226186,-0.000543164,1.28123,0.00171783,0.0164288,1896,736,32.8608,0.721398
679,288,32.8369,-0.0549316,-0.000431267,0.00297597,0.000957007,0.00322637,-0.000681664,1.31489,0.00241048,0.0137477,1903,736,32.8369,0.0549301
686,288,32.7821,0.577576,-0.000399344,0.00400986,0.00118833,0.00430973,-0.000699219,1.32361,0.00313235,0.0111485,1910,736,32.7821,-0.577561
693,288,32.7924,1.31891,-7.69457e-05,0.00501341,0.0014139,0.00537977,-0.000443303,1.31726,0.00374304,0.0234126,1917,736,32.7923,-1.31892
700,288,32.8983,1.92426,0,0,0,0,0,0,0,-1,1924,736,32.8983,-1.92425
707,288,30.9496,3.07977,0,0,0,0,0,0,0,-1,1931,736,30.9496,-3.07975
714,288,23.0149,3.82544,0,0,0,0,0,0,0,-1,1938,736,23.0149,-3.82541
721,288,18.0732,3.69385,0,0,0,0,0,0,0,-1,1945,736,18.0732,-3.69387
728,288,19.3208,3.91455,0,0,0,0,0,0,0,-1,1952,736,19.3209,-3.91455
735,288,18.7712,3.51312,0,0,0,0,0,0,0,-1,1959,736,18.7713,-3.51309
742,288,0,0,0,0,0,0,0,0,0,-1,1966,736,0,0
749,288,0,0,0,0,0,0,0,0,0,-1,1973,736,0,0
756,288,0,0,0,0,0,0,0,0,0,-1,1980,736,0,0
763,288,0,0,0,0,0,0,0,0,0,-1,1987,736,0,0
770,288,0,0,0,0,0,0,0,0,0,-1,1994,736,0,0
777,288,0,0,0,0,0,0,0,0,0,-1,2001,736,0,0
784,288,0,0,0,0,0,0,0,0,0,-1,2008,736,0,0
791,288,0,0,0,0,0,0,0,0,0,-1,2015,736,0,0
798,288,0,0,0,0,0,0,0,0,0,-1,2022,736,0,0
805,288,0,0,0,0,0,0,0,0,0,-1,2029,736,0,0
812,288,0,0,0,0,0,0,0,0,0,-1,2036,736,0,0
-700,281,0,0,0,0,0,0,0,0,0,-1,524,743,0,0
-693,281,0,0,0,0,0,0,0,0,0,-1,531,743,0,0
-686,281,0,0,0,0,0,0,0,0,0,-1,538,743,0,0
-679,281,0,0,0,0,0,0,0,0,0,-1,545,743,0,0
-672,281,0,0,0,0,0,0,0,0,0,-1,552,743,0,0
-665,281,0,0,0,0,0,0,0,0,0,-1,559,743,0,0
-658,281,0,0,0,0,0,0,0,0,0,-1,566,743,0,0
-651,281,0,0,0,0,0,0,0,0,0,-1,573,743,0,0
-644,281,0,0,0,0,0,0,0,0,0,-1,580,743,0,0
-637,281,0,0,0,0,0,0,0,0,0,-1,587,743,0,0
-630,281,0,0,0,0,0,0,0,0,0,-1,594,743,0,0
-623,281,-19.1697,5.67017,0,0,0,0,0,0,0,-1,601,743,-19.1697,-5.67019
-616,281,-11.5906,2.6853,0,0,0,0,0,0,0,-1,608,743,-11.5906,-2.68529
-609,281,-16.1972,4.14838,0,0,0,0,0,0,0,-1,615,743,-16.1972,-4.14837
-602,281,-12.7697,3.94086,0,0,0,0,0,0,0,-1,622,743,-12.7697,-3.94086
-595,281,-10.4797,-1.07404,0,0,0,0,0,0,0,-1,629,743,-10.4798,1.07402
-588,281,-13.277,1.49817,0,0,0,0,0,0,0,-1,636,743,-13.2771,-1.49817
-581,281,-21.6462,0.583496,0,0,0,0,0,0,0,-1,643,743,-21.6462,-0.58348
-574,281,-21.5822,-0.0372925,0.00566555,-0.000845834,-0.000993184,0.00581367,-0.000993955,-0.148047,0.00424606,0.0431256,650,743,-21.5822,0.0373131
-567,281,-21.7452,-0.624023,0.00359471,0.000289616,-0.000657258,0.00372062,0.000163709,-0.189271,0.00242768,0.0213313,657,743,-21.7452,0.624
-560,281,-21.8126,-1.23566,0.00213404,0.000634349,-0.000248736,0.00217421,0.00059417,-0.160148,0.00129759,0.0085753,664,743,-21.8126,1.23564
-553,281,-21.8001,-1.86713,0.00119611,0.000542773,0.000124888,0.00121917,0.000519714,0.18258,0.000706434,0.0135768,671,743,-21.8001,1.86711
-546,281,-21.8173,-2.46393,0.000500269,-9.98956e-06,0.000532104,0.000835246,-0.000344967,0.561853,0.000700721,0.0158259,678,743,-21.8173,2.46391
-539,281,-21.8487,-3.10278,-0.000328015,-0.000684015,0.00102684,0.000536136,-0.00154817,0.699577,0.00124976,0.0144462,685,743,-21.8487,3.1028
-532,281,-21.872,-3.72522,-0.000772966,-0.00174328,0.00147953,0.000298924,-0.00281517,0.626966,0.00198394,0.0139577,692,743,-21.872,3.72524
-525,281,-21.9052,-4.35028,-0.000850299,-0.00280924,0.001796,0.000215953,-0.0038755,0.53576,0.00265857,0.0156527,699,743,-21.9051,4.35027
-518,281,-21.9287,-4.97467,-0.00203179,-0.00311313,0.00212168,-0.000382976,-0.00476195,0.660638,0.00305499,0.0126721,706,743,-21.9287,4.97465
-511,281,-21.9636,-5.59833,-0.0041607,-0.00337276,0.00177098,-0.00195246,-0.005581,0.894845,0.00327027,0.0117086,713,743,-21.9635,5.59831
-504,281,-22.017,-6.22998,-0.00736835,-0.00455106,-0.000248302,-0.00452935,-0.00739007,-1.48356,0.00430276,0.015773,720,743,-22.017,6.23001
-497,281,-21.9191,-6.64825,0,0,0,0,0,0,0,-1,727,743,-21.9191,6.64828
-490,281,-21.5261,-7.20001,0,0,0,0,0,0,0,-1,734,743,-21.5261,7.2
-483,281,-22.1078,-2.34973,0,0,0,0,0,0,0,-1,741,743,-22.1078,2.3497
-476,281,-28.0016,2.17786,0,0,0,0,0,0,0,-1,748,743,-28.0016,-2.17786
-469,281,-34.6448,0.171692,0,0,0,0,0,0,0,-1,755,743,-34.6448,-0.171685
-462,281,-39.1025,0.671448,0,0,0,0,0,0,0,-1,762,743,-39.1026,-0.671425
-455,281,-39.7159,-0.294189,-0.05923,-0.024278,-0.0448392,0.00637045,-0.0898785,-0.971217,0.0621514,0.0432415,769,743,-39.7159,0.294186
-448,281,-40.2078,-1.25714,-0.0740503,-0.0331461,-0.0612144,0.0109424,-0.118139,-0.946621,0.0826485,0.0476607,776,743,-40.2078,1.25714
-441,281,-40.7106,-2.14606,0,0,0,0,0,0,0,-1,783,743,-40.7106,2.14606
-434,281,0,0,0,0,0,0,0,0,0,-1,790,743,0,0
-427,281,0,0,0,0,0,0,0,0,0,-1,797,743,0,0
-420,281,0,0,0,0,0,0,0,0,0,-1,804,743,0,0
-413,281,0,0,0,0,0,0,0,0,0,-1,811,743,0,0
-406,281,0,0,0,0,0,0,0,0,0,-1,818,743,0,0
-399,281,0,0,0,0,0,0,0,0,0,-1,825,743,0,0
-392,281,0,0,0,0,0,0,0,0,0,-1,832,743,0,0
-385,281,0,0,0,0,0,0,0,0,0,-1,839,743,0,0
-378,281,0,0,0,0,0,0,0,0,0,-1,846,743,0,0
-371,281,0,0,0,0,0,0,0,0,0,-1,853,743,0,0
-364,281,0,0,0,0,0,0,0,0,0,-1,860,743,0,0
-357,281,0,0,0,0,0,0,0,0,0,-1,867,743,0,0
-350,281,0,0,0,0,0,0,0,0,0,-1,874,743,0,0
-343,281,0,0,0,0,0,0,0,0,0,-1,881,743,0,0
-336,281,0,0,0,0,0,0,0,0,0,-1,888,743,0,0
-329,281,0,0,0,0,0,0,0,0,0,-1,895,743,0,0
-322,281,0,0,0,0,0,0,0,0,0,-1,902,743,0,0
-315,281,0,0,0,0,0,0,0,0,0,-1,909,743,0,0
-308,281,0,0,0,0,0,0,0,0,0,-1,916,743,0,0
-301,281,0,0,0,0,0,0,0,0,0,-1,923,743,0,0
-294,281,0,0,0,0,0,0,0,0,0,-1,930,743,0,0
-287,281,0,0,0,0,0,0,0,0,0,-1,937,743,0,0
-280,281,0,0,0,0,0,0,0,0,0,-1,944,743,0,0
-273,281,0,0,0,0,0,0,0,0,0,-1,951,743,0,0
-266,281,0,0,0,0,0,0,0,0,0,-1,958,743,0,0
-259,281,0,0,0,0,0,0,0,0,0,-1,965,743,0,0
-252,281,0,0,0,0,0,0,0,0,0,-1,972,743,0,0
-245,281,0,0,0,0,0,0,0,0,0,-1,979,743,0,0
-238,281,0,0,0,0,0,0,0,0,0,-1,986,743,0,0
-231,281,0,0,0,0,0,0,0,0,0,-1,993,743,0,0
-224,281,0,0,0,0,0,0,0,0,0,-1,1000,743,0,0
-217,281,0,0,0,0,0,0,0,0,0,-1,1007,743,0,0
-210,281,0,0,0,0,0,0,0,0,0,-1,1014,743,0,0
-203,281,0,0,0,0,0,0,0,0,0,-1,1021,743,0,0
-196,281,0,0,0,0,0,0,0,0,0,-1,1028,743,0,0
-189,281,0,0,0,0,0,0,0,0,0,-1,1035,743,0,0
-182,281,0,0,0,0,0,0,0,0,0,-1,1042,743,0,0
-175,281,0,0,0,0,0,0,0,0,0,-1,1049,743,0,0
-168,281,0,0,0,0,0,0,0,0,0,-1,1056,743,0,0
-161,281,0,0,0,0,0,0,0,0,0,-1,1063,743,0,0
-154,281,0,0,0,0,0,0,0,0,0,-1,1070,743,0,0
-147,281,0,0,0,0,0,0,0,0,0,-1,1077,743,0,0
-140,281,0,0,0,0,0,0,0,0,0,-1,1084,743,0,0
-133,281,0,0,0,0,0,0,0,0,0,-1,1091,743,0,0
-126,281,0,0,0,0,0,0,0,0,0,-1,1098,743,0,0
-119,281,0,0,0,0,0,0,0,0,0,-1,1105,743,0,0
-112,281,0,0,0,0,0,0,0,0,0,-1,1112,743,0,0
-105,281,0,0,0,0,0,0,0,0,0,-1,1119,743,0,0
-98,281,0,0,0,0,0,0,0,0,0,-1,1126,743,0,0
-91,281,0,0,0,0,0,0,0,0,0,-1,1133,743,0,0
-84,281,0,0,0,0,0,0,0,0,0,-1,1140,743,0,0
-77,281,0,0,0,0,0,0,0,0,0,-1,1147,743,0,0
-70,281,0,0,0,0,0,0,0,0,0,-1,1154,743,0,0
-63,281,0,0,0,0,0,0,0,0,0,-1,1161,743,0,0
-56,281,0,0,0,0,0,0,0,0,0,-1,1168,743,0,0
-49,281,0,0,0,0,0,0,0,0,0,-1,1175,743,0,0
-42,281,0,0,0,0,0,0,0,0,0,-1,1182,743,0,0
-35,281,0,0,0,0,0,0,0,0,0,-1,1189,743,0,0
-28,281,0,0,0,0,0,0,0,0,0,-1,1196,743,0,0
-21,281,0,0,0,0,0,0,0,0,0,-1,1203,743,0,0
-14,281,0,0,0,0,0,0,0,0,0,-1,1210,743,0,0
-7,281,0,0,0,0,0,0,0,0,0,-1,1217,743,0,0
0,281,0,0,0,0,0,0,0,0,0,-1,1224,743,0,0
7,281,0,0,0,0,0,0,0,0,0,-1,1231,743,0,0
14,281,0,0,0,0,0,0,0,0,0,-1,1238,743,0,0
21,281,0,0,0,0,0,0,0,0,0,-1,1245,743,0,0
28,281,0,0,0,0,0,0,0,0,0,-1,1252,743,0,0
35,281,0,0,0,0,0,0,0,0,0,-1,1259,743,0,0
42,281,0,0,0,0,0,0,0,0,0,-1,1266,743,0,0
49,281,0,0,0,0,0,0,0,0,0,-1,1273,743,0,0
56,281,0,0,0,0,0,0,0,0,0,-1,1280,743,0,0
63,281,0,0,0,0,0,0,0,0,0,-1,1287,743,0,0
70,281,0,0,0,0,0,0,0,0,0,-1,1294,743,0,0
77,281,0,0,0,0,0,0,0,0,0,-1,1301,743,0,0
84,281,0,0,0,0,0,0,0,0,0,-1,1308,743,0,0
91,281,0,0,0,0,0,0,0,0,0,-1,1315,743,0,0
98,281,0,0,0,0,0,0,0,0,0,-1,1322,743,0,0
105,281,0,0,0,0,0,0,0,0,0,-1,1329,743,0,0
112,281,0,0,0,0,0,0,0,0,0,-1,1336,743,0,0
119,281,0,0,0,0,0,0,0,0,0,-1,1343,743,0,0
126,281,0,0,0,0,0,0,0,0,0,-1,1350,743,0,0
133,281,0,0,0,0,0,0,0,0,0,-1,1357,743,0,0
140,281,0,0,0,0,0,0,0,0,0,-1,1364,743,0,0
147,281,0,0,0,0,0,0,0,0,0,-1,1371,743,0,0
154,281,0,0,0,0,0,0,0,0,0,-1,1378,743,0,0
161,281,0,0,0,0,0,0,0,0,0,-1,1385,743,0,0
168,281,0,0,0,0,0,0,0,0,0,-1,1392,743,0,0
175,281,0,0,0,0,0,0,0,0,0,-1,1399,743,0,0
182,281,0,0,0,0,0,0,0,0,0,-1,1406,743,0,0
189,281,0,0,0,0,0,0,0,0,0,-1,1413,743,0,0
196,281,0,0,0,0,0,0,0,0,0,-1,1420,743,0,0
203,281,0,0,0,0,0,0,0,0,0,-1,1427,743,0,0
210,281,0,0,0,0,0,0,0,0,0,-1,1434,743,0,0
217,281,0,0,0,0,0,0,0,0,0,-1,1441,743,0,0
224,281,0,0,0,0,0,0,0,0,0,-1,1448,743,0,0
231,281,0,0,0,0,0,0,0,0,0,-1,1455,743,0,0
238,281,0,0,0,0,0,0,0,0,0,-1,1462,743,0,0
245,281,0,0,0,0,0,0,0,0,0,-1,1469,743,0,0
252,281,0,0,0,0,0,0,0,0,0,-1,1476,743,0,0
259,281,0,0,0,0,0,0,0,0,0,-1,1483,743,0,0
266,281,0,0,0,0,0,0,0,0,0,-1,1490,743,0,0
273,281,0,0,0,0,0,0,0,0,0,-1,1497,743,0,0
280,281,0,0,0,0,0,0,0,0,0,-1,1504,743,0,0
287,281,0,0,0,0,0,0,0,0,0,-1,1511,743,0,0
294,281,0,0,0,0,0,0,0,0,0,-1,1518,743,0,0
301,281,0,0,0,0,0,0,0,0,0,-1,1525,743,0,0
308,281,0,0,0,0,0,0,0,0,0,-1,1532,743,0,0
315,281,0,0,0,0,0,0,0,0,0,-1,1539,743,0,0
322,281,0,0,0,0,0,0,0,0,0,-1,1546,743,0,0
329,281,0,0,0,0,0,0,0,0,0,-1,1553,743,0,0
336,281,0,0,0,0,0,0,0,0,0,-1,1560,743,0,0
343,281,0,0,0,0,0,0,0,0,0,-1,1567,743,0,0
350,281,0,0,0,0,0,0,0,0,0,-1,1574,743,0,0
357,281,0,0,0,0,0,0,0,0,0,-1,1581,743,0,0
364,281,0,0,0,0,0,0,0,0,0,-1,1588,743,0,0
371,281,0,0,0,0,0,0,0,0,0,-1,1595,743,0,0
378,281,0,0,0,0,0,0,0,0,0,-1,1602,743,0,0
385,281,0,0,0,0,0,0,0,0,0,-1,1609,743,0,0
392,281,0,0,0,0,0,0,0,0,0,-1,1616,743,0,0
399,281,0,0,0,0,0,0,0,0,0,-1,1623,743,0,0
406,281,0,0,0,0,0,0,0,0,0,-1,1630,743,0,0
413,281,0,0,0,0,0,0,0,0,0,-1,1637,743,0,0
420,281,0,0,0,0,0,0,0,0,0,-1,1644,743,0,0
427,281,0,0,0,0,0,0,0,0,0,-1,1651,743,0,0
434,281,0,0,0,0,0,0,0,0,0,-1,1658,743,0,0
441,281,0,0,0,0,0,0,0,0,0,-1,1665,743,0,0
448,281,0,0,0,0,0,0,0,0,0,-1,1672,743,0,0
455,281,0,0,0,0,0,0,0,0,0,-1,1679,743,0,0
462,281,0,0,0,0,0,0,0,0,0,-1,1686,743,0,0
469,281,0,0,0,0,0,0,0,0,0,-1,1693,743,0,0
476,281,0,0,0,0,0,0,0,0,0,-1,1700,743,0,0
483,281,0,0,0,0,0,0,0,0,0,-1,1707,743,0,0
490,281,0,0,0,0,0,0,0,0,0,-1,1714,743,0,0
497,281,0,0,0,0,0,0,0,0,0,-1,1721,743,0,0
504,281,0,0,0,0,0,0,0,0,0,-1,1728,743,0,0
511,281,0,0,0,0,0,0,0,0,0,-1,1735,743,0,0
518,281,0,0,0,0,0,0,0,0,0,-1,1742,743,0,0
525,281,0,0,0,0,0,0,0,0,0,-1,1749,743,0,0
532,281,0,0,0,0,0,0,0,0,0,-1,1756,743,0,0
539,281,0,0,0,0,0,0,0,0,0,-1,1763,743,0,0
546,281,0,0,0,0,0,0,0,0,0,-1,1770,743,0,0
553,281,0,0,0,0,0,0,0,0,0,-1,1777,743,0,0
560,281,51.3201,2.33319,0,0,0,0,0,0,0,-1,1784,743,51.3201,-2.3332
567,281,52.4709,3.95306,0,0,0,0,0,0,0,-1,1791,743,52.471,-3.95304
574,281,52.798,3.57861,0,0,0,0,0,0,0,-1,1798,743,52.798,-3.57861
581,281,53.125,3.20416,0,0,0,0,0,0,0,-1,1805,743,53.125,-3.20417
588,281,51.697,3.89093,0,0,0,0,0,0,0,-1,1812,743,51.6971,-3.89093
595,281,50.8323,4.19763,0,0,0,0,0,0,0,-1,1819,743,50.8323,-4.19762
602,281,45.9985,3.98254,0,0,0,0,0,0,0,-1,1826,743,45.9985,-3.98254
609,281,32.7925,1.28723,0,0,0,0,0,0,0,-1,1833,743,32.7925,-1.28722
616,281,21.3191,-0.253906,0,0,0,0,0,0,0,-1,1840,743,21.3191,0.253931
623,281,31.8741,-4.74182,0,0,0,0,0,0,0,-1,1847,743,31.8741,4.74184
630,281,33.5743,-4.56244,0,0,0,0,0,0,0,-1,1854,743,33.5744,4.56245
637,281,33.5917,-3.95026,-0.00035189,0.000973526,5.52501e-05,0.000975825,-0.000354189,1.52921,0.000795351,0.0168551,1861,743,33.5916,3.95027
644,281,33.6023,-3.30658,-0.000345878,-8.7047e-05,0.000140187,-2.56727e-05,-0.000407252,1.15813,0.000263361,0.0102854,1868,743,33.6023,3.30656
651,281,33.6068,-2.64435,-4.94631e-05,-0.000322274,0.000105093,-1.36739e-05,-0.000358064,0.328229,0.000234284,0.0116895,1875,743,33.6069,2.64434
658,281,33.5726,-1.95782,0.000232929,-8.51018e-05,0.000293324,0.000407567,-0.00025974,0.537013,0.000388409,0.0197911,1882,743,33.5726,1.95784
665,281,33.515,-1.31915,0.000111122,0.000641403,0.00045272,0.00090091,-0.000148385,1.0503,0.00065569,0.0204466,1889,743,33.5151,1.31917
672,281,33.4869,-0.678894,8.27298e-05,0.00144342,0.000672247,0.00171952,-0.000193369,1.18109,0.00121594,0.0133736,1896,743,33.4869,0.678879
679,281,33.4658,-0.0367432,0.000147661,0.00234419,0.000889174,0.00265901,-0.000167162,1.23051,0.00183094,0.0212149,1903,743,33.4659,0.0367332
686,281,33.4104,0.599365,0.000368089,0.0033178,0.00114105,0.00370767,-2.17783e-05,1.24156,0.00247907,0.0170982,1910,743,33.4104,-0.599375
693,281,33.3971,1.27075,0.000870161,0.00426556,0.00140411,0.00477098,0.000364749,1.22528,0.00306631,0.012429,1917,743,33.3971,-1.27078
700,281,33.3818,1.96136,0.00178227,0.00541034,0.00176179,0.00612507,0.00106754,1.1854,0.00377814,0.0340625,1924,743,33.3818,-1.96134
707,281,33.2462,2.69788,0,0,0,0,0,0,0,-1,1931,743,33.2462,-2.69785
714,281,25.0125,2.5105,0,0,0,0,0,0,0,-1,1938,743,25.0124,-2.51053
721,281,16.9656,3.22174,0,0,0,0,0,0,0,-1,1945,743,16.9656,-3.22172
728,281,19.0251,3.63934,0,0,0,0,0,0,0,-1,1952,743,19.0252,-3.63932
735,281,19.0869,2.50311,0,0,0,0,0,0,0,-1,1959,743,19.0869,-2.5031
742,281,0,0,0,0,0,0,0,0,0,-1,1966,743,0,0
749,281,0,0,0,0,0,0,0,0,0,-1,1973,743,0,0
756,281,0,0,0,0,0,0,0,0,0,-1,1980,743,0,0
763,281,0,0,0,0,0,0,0,0,0,-1,1987,743,0,0
770,281,0,0,0,0,0,0,0,0,0,-1,1994,743,0,0
777,281,0,0,0,0,0,0,0,0,0,-1,2001,743,0,0
784,281,0,0,0,0,0,0,0,0,0,-1,2008,743,0,0
791,281,0,0,0,0,0,0,0,0,0,-1,2015,743,0,0
798,281,0,0,0,0,0,0,0,0,0,-1,2022,743,0,0
805,281,0,0,0,0,0,0,0,0,0,-1,2029,743,0,0
812,281,0,0,0,0,0,0,0,0,0,-1,2036,743,0,0
-700,274,0,0,0,0,0,0,0,0,0,-1,524,750,0,0
-693,274,0,0,0,0,0,0,0,0,0,-1,531,750,0,0
-686,274,0,0,0,0,0,0,0,0,0,-1,538,750,0,0
-679,274,0,0,0,0,0,0,0,0,0,-1,545,750,0,0
-672,274,0,0,0,0,0,0,0,0,0,-1,552,750,0,0
-665,274,0,0,0,0,0,0,0,0,0,-1,559,750,0,0
-658,274,0,0,0,0,0,0,0,0,0,-1,566,750,0,0
-651,274,0,0,0,0,0,0,0,0,0,-1,573,750,0,0
-644,274,0,0,0,0,0,0,0,0,0,-1,580,750,0,0
-637,274,0,0,0,0,0,0,0,0,0,-1,587,750,0,0
-630,274,0,0,0,0,0,0,0,0,0,-1,594,750,0,0
-623,274,-19.6909,5.12701,0,0,0,0,0,0,0,-1,601,750,-19.6908,-5.12703
-616,274,-17.9133,3.9024,0,0,0,0,0,0,0,-1,608,750,-17.9133,-3.90239
-609,274,-22.8754,6.07513,0,0,0,0,0,0,0,-1,615,750,-22.8754,-6.07514
-602,274,-22.5925,4.8269,0,0,0,0,0,0,0,-1,622,750,-22.5925,-4.82689
-595,274,-22.2496,3.62689,0,0,0,0,0,0,0,-1,629,750,-22.2497,-3.62688
-588,274,-22.1112,1.39935,0,0,0,0,0,0,0,-1,636,750,-22.1112,-1.39933
-581,274,-22.1862,0.690491,0.0106841,-0.00403374,-0.00207223,0.0109703,-0.00431995,-0.137244,0.00910188,0.0493571,643,750,-22.1862,-0.690496
-574,274,-22.2222,-0.0523071,0.00682661,-0.00192637,-0.00129595,0.00701445,-0.00211421,-0.143945,0.00551775,0.0264234,650,750,-22.2222,0.052329
-567,274,-22.4018,-0.659302,0.00428827,-0.000773844,-0.000715773,0.00438754,-0.000873106,-0.1378,0.00325533,0.0257453,657,750,-22.4018,0.659276
-560,274,-22.4005,-1.23328,0.00246698,-0.000356576,-0.000146625,0.00247458,-0.00036417,-0.0517437,0.00178354,0.0145136,664,750,-22.4005,1.23329
-553,274,-22.4374,-1.84564,0.00120569,-0.000398803,0.000361125,0.00128322,-0.000476336,0.211486,0.00105088,0.00948181,671,750,-22.4374,1.84564
-546,274,-22.4777,-2.47369,0.000244347,-0.000891438,0.000880986,0.000724614,-0.00137171,0.49911,0.00122938,0.01144,678,750,-22.4777,2.47368
-539,274,-22.4976,-3.09747,-0.000851635,-0.00155952,0.00150088,0.000336476,-0.00274763,0.669602,0.0019536,0.0122324,685,750,-22.4976,3.09749
-532,274,-22.5165,-3.68146,-0.00143397,-0.00263908,0.00201693,6.84827e-05,-0.00414154,0.640244,0.00278413,0.0126453,692,750,-22.5165,3.68147
-525,274,-22.5306,-4.27814,-0.00150047,-0.00364502,0.00231226,-2.39606e-05,-0.00512154,0.56829,0.0034064,0.0127919,699,750,-22.5306,4.27811
-518,274,-22.5349,-4.91443,-0.00273239,-0.00373288,0.00258578,-0.000598913,-0.00586635,0.689848,0.00372734,0.0126692,706,750,-22.5349,4.91443
-511,274,-22.5649,-5.55603,-0.00478198,-0.00388846,0.00215177,-0.00213756,-0.00653288,0.887756,0.00384611,0.0132452,713,750,-22.5649,5.55605
-504,274,-22.6605,-6.2132,-0.00765918,-0.00482953,0.000280881,-0.00480192,-0.00768679,1.47281,0.00448374,0.0262688,720,750,-22.6605,6.21322
-497,274,-22.8004,-6.89734,0,0,0,0,0,0,0,-1,727,750,-22.8004,6.89735
-490,274,-13.6545,-3.58826,0,0,0,0,0,0,0,-1,734,750,-13.6546,3.58825
-483,274,-27.8608,1.30981,0,0,0,0,0,0,0,-1,741,750,-27.8608,-1.30979
-476,274,-33.7561,-0.508606,0,0,0,0,0,0,0,-1,748,750,-33.7561,0.508636
-469,274,-39.0395,1.26794,0,0,0,0,0,0,0,-1,755,750,-39.0395,-1.26792
-462,274,-39.3165,0.784241,-0.0441345,-0.0147034,-0.028237,0.00242249,-0.0612604,-1.02561,0.0416712,0.0459448,762,750,-39.3166,-0.784257
-455,274,-39.5737,-0.00701904,-0.0547054,-0.0189917,-0.0384659,0.00556008,-0.0792572,-1.00271,0.0547856,0.0450156,769,750,-39.5738,0.00700248
-448,274,-40.1221,-0.892456,0,0,0,0,0,0,0,-1,776,750,-40.1221,0.892471
-441,274,0,0,0,0,0,0,0,0,0,-1,783,750,0,0
-434,274,0,0,0,0,0,0,0,0,0,-1,790,750,0,0
-427,274,0,0,0,0,0,0,0,0,0,-1,797,750,0,0
-420,274,0,0,0,0,0,0,0,0,0,-1,804,750,0,0
-413,274,0,0,0,0,0,0,0,0,0,-1,811,750,0,0
-406,274,0,0,0,0,0,0,0,0,0,-1,818,750,0,0
-399,274,0,0,0,0,0,0,0,0,0,-1,825,750,0,0
-392,274,0,0,0,0,0,0,0,0,0,-1,832,750,0,0
-385,274,0,0,0,0,0,0,0,0,0,-1,839,750,0,0
-378,274,0,0,0,0,0,0,0,0,0,-1,846,750,0,0
-371,274,0,0,0,0,0,0,0,0,0,-1,853,750,0,0
-364,274,0,0,0,0,0,0,0,0,0,-1,860,750,0,0
-357,274,0,0,0,0,0,0,0,0,0,-1,867,750,0,0
-350,274,0,0,0,0,0,0,0,0,0,-1,874,750,0,0
-343,274,0,0,0,0,0,0,0,0,0,-1,881,750,0,0
-336,274,0,0,0,0,0,0,0,0,0,-1,888,750,0,0
-329,274,0,0,0,0,0,0,0,0,0,-1,895,750,0,0
-322,274,0,0,0,0,0,0,0,0,0,-1,902,750,0,0
-315,274,0,0,0,0,0,0,0,0,0,-1,909,750,0,0
-308,274,0,0,0,0,0,0,0,0,0,-1,916,750,0,0
-301,274,0,0,0,0,0,0,0,0,0,-1,923,750,0,0
-294,274,0,0,0,0,0,0,0,0,0,-1,930,750,0,0
-287,274,0,0,0,0,0,0,0,0,0,-1,937,750,0,0
-280,274,0,0,0,0,0,0,0,0,0,-1,944,750,0,0
-273,274,0,0,0,0,0,0,0,0,0,-1,951,750,0,0
-266,274,0,0,0,0,0,0,0,0,0,-1,958,750,0,0
-259,274,0,0,0,0,0,0,0,0,0,-1,965,750,0,0
-252,274,0,0,0,0,0,0,0,0,0,-1,972,750,0,0
-245,274,0,0,0,0,0,0,0,0,0,-1,979,750,0,0
-238,274,0,0,0,0,0,0,0,0,0,-1,986,750,0,0
-231,274,0,0,0,0,0,0,0,0,0,-1,993,750,0,0
-224,274,0,0,0,0,0,0,0,0,0,-1,1000,750,0,0
-217,274,0,0,0,0,0,0,0,0,0,-1,1007,750,0,0
-210,274,0,0,0,0,0,0,0,0,0,-1,1014,750,0,0
-203,274,0,0,0,0,0,0,0,0,0,-1,1021,750,0,0
-196,274,0,0,0,0,0,0,0,0,0,-1,1028,750,0,0
-189,274,0,0,0,0,0,0,0,0,0,-1,1035,750,0,0
-182,274,0,0,0,0,0,0,0,0,0,-1,1042,750,0,0
-175,274,0,0,0,0,0,0,0,0,0,-1,1049,750,0,0
-168,274,0,0,0,0,0,0,0,0,0,-1,1056,750,0,0
-161,274,0,0,0,0,0,0,0,0,0,-1,1063,750,0,0
-154,274,0,0,0,0,0,0,0,0,0,-1,1070,750,0,0
-147,274,0,0,0,0,0,0,0,0,0,-1,1077,750,0,0
-140,274,0,0,0,0,0,0,0,0,0,-1,1084,750,0,0
-133,274,0,0,0,0,0,0,0,0,0,-1,1091,750,0,0
-126,274,0,0,0,0,0,0,0,0,0,-1,1098,750,0,0
-119,274,0,0,0,0,0,0,0,0,0,-1,1105,750,0,0
-112,274,0,0,0,0,0,0,0,0,0,-1,1112,750,0,0
-105,274,0,0,0,0,0,0,0,0,0,-1,1119,750,0,0
-98,274,0,0,0,0,0,0,0,0,0,-1,1126,750,0,0
-91,274,0,0,0,0,0,0,0,0,0,-1,1133,750,0,0
-84,274,0,0,0,0,0,0,0,0,0,-1,1140,750,0,0
-77,274,0,0,0,0,0,0,0,0,0,-1,1147,750,0,0
-70,274,0,0,0,0,0,0,0,0,0,-1,1154,750,0,0
-63,274,0,0,0,0,0,0,0,0,0,-1,1161,750,0,0
-56,274,0,0,0,0,0,0,0,0,0,-1,1168,750,0,0
-49,274,0,0,0,0,0,0,0,0,0,-1,1175,750,0,0
-42,274,0,0,0,0,0,0,0,0,0,-1,1182,750,0,0
-35,274,0,0,0,0,0,0,0,0,0,-1,1189,750,0,0
-28,274,0,0,0,0,0,0,0,0,0,-1,1196,750,0,0
-21,274,0,0,0,0,0,0,0,0,0,-1,1203,750,0,0
-14,274,0,0,0,0,0,0,0,0,0,-1,1210,750,0,0
-7,274,0,0,0,0,0,0,0,0,0,-1,1217,750,0,0
0,274,0,0,0,0,0,0,0,0,0,-1,1224,750,0,0
7,274,0,0,0,0,0,0,0,0,0,-1,1231,750,0,0
14,274,0,0,0,0,0,0,0,0,0,-1,1238,750,0,0
21,274,0,0,0,0,0,0,0,0,0,-1,1245,750,0,0
28,274,0,0,0,0,0,0,0,0,0,-1,1252,750,0,0
35,274,0,0,0,0,0,0,0,0,0,-1,1259,750,0,0
42,274,0,0,0,0,0,0,0,0,0,-1,1266,750,0,0
49,274,0,0,0,0,0,0,0,0,0,-1,1273,750,0,0
56,274,0,0,0,0,0,0,0,0,0,-1,1280,750,0,0
63,274,0,0,0,0,0,0,0,0,0,-1,1287,750,0,0
70,274,0,0,0,0,0,0,0,0,0,-1,1294,750,0,0
77,274,0,0,0,0,0,0,0,0,0,-1,1301,750,0,0
84,274,0,0,0,0,0,0,0,0,0,-1,1308,750,0,0
91,274,0,0,0,0,0,0,0,0,0,-1,1315,750,0,0
98,274,0,0,0,0,0,0,0,0,0,-1,1322,750,0,0
105,274,0,0,0,0,0,0,0,0,0,-1,1329,750,0,0
112,274,0,0,0,0,0,0,0,0,0,-1,1336,750,0,0
119,274,0,0,0,0,0,0,0,0,0,-1,1343,750,0,0
126,274,0,0,0,0,0,0,0,0,0,-1,1350,750,0,0
133,274,0,0,0,0,0,0,0,0,0,-1,1357,750,0,0
140,274,0,0,0,0,0,0,0,0,0,-1,1364,750,0,0
147,274,0,0,0,0,0,0,0,0,0,-1,1371,750,0,0
154,274,0,0,0,0,0,0,0,0,0,-1,1378,750,0,0
161,274,0,0,0,0,0,0,0,0,0,-1,1385,750,0,0
168,274,0,0,0,0,0,0,0,0,0,-1,1392,750,0,0
175,274,0,0,0,0,0,0,0,0,0,-1,1399,750,0,0
182,274,0,0,0,0,0,0,0,0,0,-1,1406,750,0,0
189,274,0,0,0,0,0,0,0,0,0,-1,1413,750,0,0
196,274,0,0,0,0,0,0,0,0,0,-1,1420,750,0,0
203,274,0,0,0,0,0,0,0,0,0,-1,1427,750,0,0
210,274,0,0,0,0,0,0,0,0,0,-1,1434,750,0,0
217,274,0,0,0,0,0,0,0,0,0,-1,1441,750,0,0
224,274,0,0,0,0,0,0,0,0,0,-1,1448,750,0,0
231,274,0,0,0,0,0,0,0,0,0,-1,1455,750,0,0
238,274,0,0,0,0,0,0,0,0,0,-1,1462,750,0,0
245,274,0,0,0,0,0,0,0,0,0,-1,1469,750,0,0
252,274,0,0,0,0,0,0,0,0,0,-1,1476,750,0,0
259,274,0,0,0,0,0,0,0,0,0,-1,1483,750,0,0
266,274,0,0,0,0,0,0,0,0,0,-1,1490,750,0,0
273,274,0,0,0,0,0,0,0,0,0,-1,1497,750,0,0
280,274,0,0,0,0,0,0,0,0,0,-1,1504,750,0,0
287,274,0,0,0,0,0,0,0,0,0,-1,1511,750,0,0
294,274,0,0,0,0,0,0,0,0,0,-1,1518,750,0,0
301,274,0,0,0,0,0,0,0,0,0,-1,1525,750,0,0
308,274,0,0,0,0,0,0,0,0,0,-1,1532,750,0,0
315,274,0,0,0,0,0,0,0,0,0,-1,1539,750,0,0
322,274,0,0,0,0,0,0,0,0,0,-1,1546,750,0,0
329,274,0,0,0,0,0,0,0,0,0,-1,1553,750,0,0
336,274,0,0,0,0,0,0,0,0,0,-1,1560,750,0,0
343,274,0,0,0,0,0,0,0,0,0,-1,1567,750,0,0
350,274,0,0,0,0,0,0,0,0,0,-1,1574,750,0,0
357,274,0,0,0,0,0,0,0,0,0,-1,1581,750,0,0
364,274,0,0,0,0,0,0,0,0,0,-1,1588,750,0,0
371,274,0,0,0,0,0,0,0,0,0,-1,1595,750,0,0
378,274,0,0,0,0,0,0,0,0,0,-1,1602,750,0,0
385,274,0,0,0,0,0,0,0,0,0,-1,1609,750,0,0
392,274,0,0,0,0,0,0,0,0,0,-1,1616,750,0,0
399,274,0,0,0,0,0,0,0,0,0,-1,1623,750,0,0
406,274,0,0,0,0,0,0,0,0,0,-1,1630,750,0,0
413,274,0,0,0,0,0,0,0,0,0,-1,1637,750,0,0
420,274,0,0,0,0,0,0,0,0,0,-1,1644,750,0,0
427,274,0,0,0,0,0,0,0,0,0,-1,1651,750,0,0
434,274,0,0,0,0,0,0,0,0,0,-1,1658,750,0,0
441,274,0,0,0,0,0,0,0,0,0,-1,1665,750,0,0
448,274,0,0,0,0,0,0,0,0,0,-1,1672,750,0,0
455,274,0,0,0,0,0,0,0,0,0,-1,1679,750,0,0
462,274,0,0,0,0,0,0,0,0,0,-1,1686,750,0,0
469,274,0,0,0,0,0,0,0,0,0,-1,1693,750,0,0
476,274,0,0,0,0,0,0,0,0,0,-1,1700,750,0,0
483,274,0,0,0,0,0,0,0,0,0,-1,1707,750,0,0
490,274,0,0,0,0,0,0,0,0,0,-1,1714,750,0,0
497,274,0,0,0,0,0,0,0,0,0,-1,1721,750,0,0
504,274,0,0,0,0,0,0,0,0,0,-1,1728,750,0,0
511,274,0,0,0,0,0,0,0,0,0,-1,1735,750,0,0
518,274,0,0,0,0,0,0,0,0,0,-1,1742,750,0,0
525,274,0,0,0,0,0,0,0,0,0,-1,1749,750,0,0
532,274,0,0,0,0,0,0,0,0,0,-1,1756,750,0,0
539,274,0,0,0,0,0,0,0,0,0,-1,1763,750,0,0
546,274,0,0,0,0,0,0,0,0,0,-1,1770,750,0,0
553,274,0,0,0,0,0,0,0,0,0,-1,1777,750,0,0
560,274,52.7314,3.22168,0,0,0,0,0,0,0,-1,1784,750,52.7315,-3.22168
567,274,53.0024,3.15479,0.0617965,0.00234128,-0.012186,0.0641972,-5.9437e-05,-0.194515,0.042818,0.048868,1791,750,53.0024,-3.15477
574,274,53.4304,2.94672,0.05058,-0.000255486,-0.00863055,0.0520053,-0.00168077,-0.163667,0.0352438,0.0477335,1798,750,53.4304,-2.9467
581,274,54.0571,2.24835,0.0392036,-0.000603355,-0.00590151,0.0400601,-0.00145985,-0.144124,0.0272064,0.0439487,1805,750,54.0571,-2.24833
588,274,54.6335,1.66968,0,0,0,0,0,0,0,-1,1812,750,54.6335,-1.6697
595,274,51.774,4.25665,0,0,0,0,0,0,0,-1,1819,750,51.774,-4.25663
602,274,50.9858,3.85632,0,0,0,0,0,0,0,-1,1826,750,50.9858,-3.85632
609,274,44.6676,3.10461,0,0,0,0,0,0,0,-1,1833,750,44.6676,-3.1046
616,274,32.7869,1.78436,0,0,0,0,0,0,0,-1,1840,750,32.7868,-1.78437
623,274,24.8231,-1.80353,0,0,0,0,0,0,0,-1,1847,750,24.8232,1.80351
630,274,34.3512,-4.57495,0,0,0,0,0,0,0,-1,1854,750,34.3512,4.57492
637,274,34.2334,-3.95728,-0.000411233,0.00174048,-0.000154987,0.00175159,-0.000422339,-1.49926,0.00133103,0.020023,1861,750,34.2334,3.9573
644,274,34.2319,-3.27594,-0.00046255,0.000378852,-9.88298e-05,0.000390305,-0.000474002,-1.45543,0.000499787,0.0121465,1868,750,34.2319,3.27592
651,274,34.243,-2.60553,-0.000188748,-0.000243981,-0.000231335,1.66135e-05,-0.000449343,-0.725989,0.00030525,0.0135385,1875,750,34.243,2.60552
658,274,34.2123,-1.9494,0.00021002,-0.000417685,-4.96893e-05,0.000213929,-0.000421594,-0.0785085,0.000373392,0.0158043,1882,750,34.2123,1.94942
665,274,34.1659,-1.29852,0.000196236,0.000130256,0.000130359,0.000297714,2.87771e-05,0.661466,0.000189613,0.0154847,1889,750,34.1659,1.29853
672,274,34.1725,-0.658997,0.00036158,0.000857123,0.000404705,0.00108388,0.000134823,1.06008,0.000682102,0.013631,1896,750,34.1725,0.658976
679,274,34.137,-0.0153809,0.000656665,0.00170493,0.000681356,0.00204043,0.00032117,1.11325,0.00126687,0.0159839,1903,750,34.137,0.015392
686,274,34.0829,0.636475,0.0011589,0.00266119,0.000999264,0.00316015,0.000659943,1.10769,0.00192487,0.0172213,1910,750,34.0828,-0.636457
693,274,34.0383,1.30139,0.0019021,0.00358424,0.00134065,0.0043258,0.00116053,1.06555,0.00258536,0.0127936,1917,750,34.0383,-1.30139
700,274,34.026,1.98383,0.00299264,0.00459771,0.00175393,0.00572399,0.00186636,0.999961,0.00337074,0.0166811,1924,750,34.026,-1.98383
707,274,33.9124,2.63452,0.00450322,0.00556995,0.00234837,0.00744476,0.00262841,0.897064,0.00435967,0.0315314,1931,750,33.9124,-2.6345
714,274,33.7623,3.30206,0,0,0,0,0,0,0,-1,1938,750,33.7624,-3.30206
721,274,25.6215,3.91144,0,0,0,0,0,0,0,-1,1945,750,25.6214,-3.91141
728,274,19.2209,3.95154,0,0,0,0,0,0,0,-1,1952,750,19.221,-3.95151
735,274,20.6608,4.10931,0,0,0,0,0,0,0,-1,1959,750,20.6607,-4.10932
742,274,11.7815,-0.740234,0,0,0,0,0,0,0,-1,1966,750,11.7815,0.740253
749,274,0,0,0,0,0,0,0,0,0,-1,1973,750,0,0
756,274,0,0,0,0,0,0,0,0,0,-1,1980,750,0,0
763,274,0,0,0,0,0,0,0,0,0,-1,1987,750,0,0
770,274,0,0,0,0,0,0,0,0,0,-1,1994,750,0,0
777,274,0,0,0,0,0,0,0,0,0,-1,2001,750,0,0
784,274,0,0,0,0,0,0,0,0,0,-1,2008,750,0,0
791,274,0,0,0,0,0,0,0,0,0,-1,2015,750,0,0
798,274,0,0,0,0,0,0,0,0,0,-1,2022,750,0,0
805,274,0,0,0,0,0,0,0,0,0,-1,2029,750,0,0
812,274,0,0,0,0,0,0,0,0,0,-1,2036,750,0,0
-700,267,0,0,0,0,0,0,0,0,0,-1,524,757,0,0
-693,267,0,0,0,0,0,0,0,0,0,-1,531,757,0,0
-686,267,0,0,0,0,0,0,0,0,0,-1,538,757,0,0
-679,267,0,0,0,0,0,0,0,0,0,-1,545,757,0,0
-672,267,0,0,0,0,0,0,0,0,0,-1,552,757,0,0
-665,267,0,0,0,0,0,0,0,0,0,-1,559,757,0,0
-658,267,0,0,0,0,0,0,0,0,0,-1,566,757,0,0
-651,267,0,0,0,0,0,0,0,0,0,-1,573,757,0,0
-644,267,0,0,0,0,0,0,0,0,0,-1,580,757,0,0
-637,267,0,0,0,0,0,0,0,0,0,-1,587,757,0,0
-630,267,-21.3979,5.17529,0,0,0,0,0,0,0,-1,594,757,-21.3979,-5.17529
-623,267,-20.043,4.43115,0,0,0,0,0,0,0,-1,601,757,-20.043,-4.43116
-616,267,-23.9603,6.67145,0,0,0,0,0,0,0,-1,608,757,-23.9603,-6.67147
-609,267,-23.6296,5.39941,0,0,0,0,0,0,0,-1,615,757,-23.6297,-5.39942
-602,267,-23.3533,4.11847,0,0,0,0,0,0,0,-1,622,757,-23.3533,-4.11848
-595,267,-22.773,2.59302,0,0,0,0,0,0,0,-1,629,757,-22.773,-2.59302
-588,267,-22.8389,1.5127,0,0,0,0,0,0,0,-1,636,757,-22.8389,-1.5127
-581,267,-22.8754,0.774658,0.0113603,-0.0040653,-0.0027373,0.0118316,-0.00453663,-0.170518,0.00975806,0.0383454,643,757,-22.8753,-0.774657
-574,267,-22.9129,0.0465088,0.00732687,-0.00220678,-0.00172828,0.00763051,-0.00251041,-0.173912,0.00609854,0.0215816,650,757,-22.9129,-0.0464931
-567,267,-22.9929,-0.597534,0.00453289,-0.00119177,-0.00093758,0.00468253,-0.00134142,-0.158272,0.00365189,0.02595,657,757,-22.9929,0.597543
-560,267,-23.0132,-1.16638,0.00248553,-0.000825498,-0.000214689,0.00249939,-0.000839361,-0.0644807,0.00200548,0.0228484,664,757,-23.0133,1.16635
-553,267,-23.0724,-1.78839,0.000989341,-0.00092443,0.000438419,0.001085,-0.00102009,0.214815,0.00121556,0.0185558,671,757,-23.0725,1.7884
-546,267,-23.1033,-2.435,-0.000250738,-0.00143789,0.00115952,0.000458306,-0.00214693,0.548831,0.00160601,0.0117435,678,757,-23.1033,2.43498
-539,267,-23.1057,-3.06403,-0.00163608,-0.00210975,0.00198392,0.000125086,-0.00387092,0.72599,0.0026233,0.0112175,685,757,-23.1057,3.06403
-532,267,-23.1044,-3.65149,-0.00240292,-0.00315821,0.0026513,-0.00010251,-0.00545862,0.714655,0.0036054,0.0126248,692,757,-23.1044,3.65148
-525,267,-23.1431,-4.22681,-0.00249291,-0.00402254,0.00303278,-0.000129992,-0.00638545,0.661882,0.00421431,0.0119807,699,757,-23.1431,4.22681
-518,267,-23.1785,-4.85229,-0.00372359,-0.00392093,0.00331832,-0.000502478,-0.00714205,0.770535,0.00460302,0.0123362,706,757,-23.1785,4.85227
-511,267,-23.1773,-5.46161,-0.00559779,-0.00400867,0.00286717,-0.001828,-0.00777846,0.920569,0.00469643,0.0188054,713,757,-23.1773,5.4616
-504,267,-23.2774,-5.91449,-0.00806542,-0.00474199,0.00121895,-0.00434285,-0.00846456,1.25435,0.00488757,0.0334037,720,757,-23.2774,5.91447
-497,267,-23.4472,-6.36786,0,0,0,0,0,0,0,-1,727,757,-23.4472,6.36783
-490,267,-23.4949,-0.494995,0,0,0,0,0,0,0,-1,734,757,-23.4949,0.494981
-483,267,-33.2785,-0.448425,0,0,0,0,0,0,0,-1,741,757,-33.2785,0.448407
-476,267,-38.9481,1.4809,0,0,0,0,0,0,0,-1,748,757,-38.9481,-1.48092
-469,267,-38.8268,1.33948,-0.0314266,-0.00910627,-0.0167358,-0.000150872,-0.040382,-1.07946,0.0268712,0.0441404,755,757,-38.8269,-1.33945
-462,267,-39.6316,0.952698,-0.039369,-0.011392,-0.0235202,0.00198518,-0.0527462,-1.05367,0.0358442,0.0472493,762,757,-39.6316,-0.952719
-455,267,-40.0642,0.822998,0,0,0,0,0,0,0,-1,769,757,-40.0642,-0.823011
-448,267,-40.0117,0.37915,0,0,0,0,0,0,0,-1,776,757,-40.0117,-0.379158
-441,267,0,0,0,0,0,0,0,0,0,-1,783,757,0,0
-434,267,0,0,0,0,0,0,0,0,0,-1,790,757,0,0
-427,267,0,0,0,0,0,0,0,0,0,-1,797,757,0,0
-420,267,0,0,0,0,0,0,0,0,0,-1,804,757,0,0
-413,267,0,0,0,0,0,0,0,0,0,-1,811,757,0,0
-406,267,0,0,0,0,0,0,0,0,0,-1,818,757,0,0
-399,267,0,0,0,0,0,0,0,0,0,-1,825,757,0,0
-392,267,0,0,0,0,0,0,0,0,0,-1,832,757,0,0
-385,267,0,0,0,0,0,0,0,0,0,-1,839,757,0,0
-378,267,0,0,0,0,0,0,0,0,0,-1,846,757,0,0
-371,267,0,0,0,0,0,0,0,0,0,-1,853,757,0,0
-364,267,0,0,0,0,0,0,0,0,0,-1,860,757,0,0
-357,267,0,0,0,0,0,0,0,0,0,-1,867,757,0,0
-350,267,0,0,0,0,0,0,0,0,0,-1,874,757,0,0
-343,267,0,0,0,0,0,0,0,0,0,-1,881,757,0,0
-336,267,0,0,0,0,0,0,0,0,0,-1,888,757,0,0
-329,267,0,0,0,0,0,0,0,0,0,-1,895,757,0,0
-322,267,0,0,0,0,0,0,0,0,0,-1,902,757,0,0
-315,267,0,0,0,0,0,0,0,0,0,-1,909,757,0,0
-308,267,0,0,0,0,0,0,0,0,0,-1,916,757,0,0
-301,267,0,0,0,0,0,0,0,0,0,-1,923,757,0,0
-294,267,0,0,0,0,0,0,0,0,0,-1,930,757,0,0
-287,267,0,0,0,0,0,0,0,0,0,-1,937,757,0,0
-280,267,0,0,0,0,0,0,0,0,0,-1,944,757,0,0
-273,267,0,0,0,0,0,0,0,0,0,-1,951,757,0,0
-266,267,0,0,0,0,0,0,0,0,0,-1,958,757,0,0
-259,267,0,0,0,0,0,0,0,0,0,-1,965,757,0,0
-252,267,0,0,0,0,0,0,0,0,0,-1,972,757,0,0
-245,267,0,0,0,0,0,0,0,0,0,-1,979,757,0,0
-238,267,0,0,0,0,0,0,0,0,0,-1,986,757,0,0
-231,267,0,0,0,0,0,0,0,0,0,-1,993,757,0,0
-224,267,0,0,0,0,0,0,0,0,0,-1,1000,757,0,0
-217,267,0,0,0,0,0,0,0,0,0,-1,1007,757,0,0
-210,267,0,0,0,0,0,0,0,0,0,-1,1014,757,0,0
-203,267,0,0,0,0,0,0,0,0,0,-1,1021,757,0,0
-196,267,0,0,0,0,0,0,0,0,0,-1,1028,757,0,0
-189,267,0,0,0,0,0,0,0,0,0,-1,1035,757,0,0
-182,267,0,0,0,0,0,0,0,0,0,-1,1042,757,0,0
-175,267,0,0,0,0,0,0,0,0,0,-1,1049,757,0,0
-168,267,0,0,0,0,0,0,0,0,0,-1,1056,757,0,0
-161,267,0,0,0,0,0,0,0,0,0,-1,1063,757,0,0
-154,267,0,0,0,0,0,0,0,0,0,-1,1070,757,0,0
-147,267,0,0,0,0,0,0,0,0,0,-1,1077,757,0,0
-140,267,0,0,0,0,0,0,0,0,0,-1,1084,757,0,0
-133,267,0,0,0,0,0,0,0,0,0,-1,1091,757,0,0
-126,267,0,0,0,0,0,0,0,0,0,-1,1098,757,0,0
-119,267,0,0,0,0,0,0,0,0,0,-1,1105,757,0,0
-112,267,0,0,0,0,0,0,0,0,0,-1,1112,757,0,0
-105,267,0,0,0,0,0,0,0,0,0,-1,1119,757,0,0
-98,267,0,0,0,0,0,0,0,0,0,-1,1126,757,0,0
-91,267,0,0,0,0,0,0,0,0,0,-1,1133,757,0,0
-84,267,0,0,0,0,0,0,0,0,0,-1,1140,757,0,0
-77,267,0,0,0,0,0,0,0,0,0,-1,1147,757,0,0
-70,267,0,0,0,0,0,0,0,0,0,-1,1154,757,0,0
-63,267,0,0,0,0,0,0,0,0,0,-1,1161,757,0,0
-56,267,0,0,0,0,0,0,0,0,0,-1,1168,757,0,0
-49,267,0,0,0,0,0,0,0,0,0,-1,1175,757,0,0
-42,267,0,0,0,0,0,0,0,0,0,-1,1182,757,0,0
-35,267,0,0,0,0,0,0,0,0,0,-1,1189,757,0,0
-28,267,0,0,0,0,0,0,0,0,0,-1,1196,757,0,0
-21,267,0,0,0,0,0,0,0,0,0,-1,1203,757,0,0
-14,267,0,0,0,0,0,0,0,0,0,-1,1210,757,0,0
-7,267,0,0,0,0,0,0,0,0,0,-1,1217,757,0,0
0,267,0,0,0,0,0,0,0,0,0,-1,1224,757,0,0
7,267,0,0,0,0,0,0,0,0,0,-1,1231,757,0,0
14,267,0,0,0,0,0,0,0,0,0,-1,1238,757,0,0
21,267,0,0,0,0,0,0,0,0,0,-1,1245,757,0,0
28,267,0,0,0,0,0,0,0,0,0,-1,1252,757,0,0
35,267,0,0,0,0,0,0,0,0,0,-1,1259,757,0,0
42,267,0,0,0,0,0,0,0,0,0,-1,1266,757,0,0
49,267,0,0,0,0,0,0,0,0,0,-1,1273,757,0,0
56,267,0,0,0,0,0,0,0,0,0,-1,1280,757,0,0
63,267,0,0,0,0,0,0,0,0,0,-1,1287,757,0,0
70,267,0,0,0,0,0,0,0,0,0,-1,1294,757,0,0
77,267,0,0,0,0,0,0,0,0,0,-1,1301,757,0,0
84,267,0,0,0,0,0,0,0,0,0,-1,1308,757,0,0
91,267,0,0,0,0,0,0,0,0,0,-1,1315,757,0,0
98,267,0,0,0,0,0,0,0,0,0,-1,1322,757,0,0
105,267,0,0,0,0,0,0,0,0,0,-1,1329,757,0,0
112,267,0,0,0,0,0,0,0,0,0,-1,1336,757,0,0
119,267,0,0,0,0,0,0,0,0,0,-1,1343,757,0,0
126,267,0,0,0,0,0,0,0,0,0,-1,1350,757,0,0
133,267,0,0,0,0,0,0,0,0,0,-1,1357,757,0,0
140,267,0,0,0,0,0,0,0,0,0,-1,1364,757,0,0
147,267,0,0,0,0,0,0,0,0,0,-1,1371,757,0,0
154,267,0,0,0,0,0,0,0,0,0,-1,1378,757,0,0
161,267,0,0,0,0,0,0,0,0,0,-1,1385,757,0,0
168,267,0,0,0,0,0,0,0,0,0,-1,1392,757,0,0
175,267,0,0,0,0,0,0,0,0,0,-1,1399,757,0,0
182,267,0,0,0,0,0,0,0,0,0,-1,1406,757,0,0
189,267,0,0,0,0,0,0,0,0,0,-1,1413,757,0,0
196,267,0,0,0,0,0,0,0,0,0,-1,1420,757,0,0
203,267,0,0,0,0,0,0,0,0,0,-1,1427,757,0,0
210,267,0,0,0,0,0,0,0,0,0,-1,1434,757,0,0
217,267,0,0,0,0,0,0,0,0,0,-1,1441,757,0,0
224,267,0,0,0,0,0,0,0,0,0,-1,1448,757,0,0
231,267,0,0,0,0,0,0,0,0,0,-1,1455,757,0,0
238,267,0,0,0,0,0,0,0,0,0,-1,1462,757,0,0
245,267,0,0,0,0,0,0,0,0,0,-1,1469,757,0,0
252,267,0,0,0,0,0,0,0,0,0,-1,1476,757,0,0
259,267,0,0,0,0,0,0,0,0,0,-1,1483,757,0,0
266,267,0,0,0,0,0,0,0,0,0,-1,1490,757,0,0
273,267,0,0,0,0,0,0,0,0,0,-1,1497,757,0,0
280,267,0,0,0,0,0,0,0,0,0,-1,1504,757,0,0
287,267,0,0,0,0,0,0,0,0,0,-1,1511,757,0,0
294,267,0,0,0,0,0,0,0,0,0,-1,1518,757,0,0
301,267,0,0,0,0,0,0,0,0,0,-1,1525,757,0,0
308,267,0,0,0,0,0,0,0,0,0,-1,1532,757,0,0
315,267,0,0,0,0,0,0,0,0,0,-1,1539,757,0,0
322,267,0,0,0,0,0,0,0,0,0,-1,1546,757,0,0
329,267,0,0,0,0,0,0,0,0,0,-1,1553,757,0,0
336,267,0,0,0,0,0,0,0,0,0,-1,1560,757,0,0
343,267,0,0,0,0,0,0,0,0,0,-1,1567,757,0,0
350,267,0,0,0,0,0,0,0,0,0,-1,1574,757,0,0
357,267,0,0,0,0,0,0,0,0,0,-1,1581,757,0,0
364,267,0,0,0,0,0,0,0,0,0,-1,1588,757,0,0
371,267,0,0,0,0,0,0,0,0,0,-1,1595,757,0,0
378,267,0,0,0,0,0,0,0,0,0,-1,1602,757,0,0
385,267,0,0,0,0,0,0,0,0,0,-1,1609,757,0,0
392,267,0,0,0,0,0,0,0,0,0,-1,1616,757,0,0
399,267,0,0,0,0,0,0,0,0,0,-1,1623,757,0,0
406,267,0,0,0,0,0,0,0,0,0,-1,1630,757,0,0
413,267,0,0,0,0,0,0,0,0,0,-1,1637,757,0,0
420,267,0,0,0,0,0,0,0,0,0,-1,1644,757,0,0
427,267,0,0,0,0,0,0,0,0,0,-1,1651,757,0,0
434,267,0,0,0,0,0,0,0,0,0,-1,1658,757,0,0
441,267,0,0,0,0,0,0,0,0,0,-1,1665,757,0,0
448,267,0,0,0,0,0,0,0,0,0,-1,1672,757,0,0
455,267,0,0,0,0,0,0,0,0,0,-1,1679,757,0,0
462,267,0,0,0,0,0,0,0,0,0,-1,1686,757,0,0
469,267,0,0,0,0,0,0,0,0,0,-1,1693,757,0,0
476,267,0,0,0,0,0,0,0,0,0,-1,1700,757,0,0
483,267,0,0,0,0,0,0,0,0,0,-1,1707,757,0,0
490,267,0,0,0,0,0,0,0,0,0,-1,1714,757,0,0
497,267,0,0,0,0,0,0,0,0,0,-1,1721,757,0,0
504,267,0,0,0,0,0,0,0,0,0,-1,1728,757,0,0
511,267,0,0,0,0,0,0,0,0,0,-1,1735,757,0,0
518,267,0,0,0,0,0,0,0,0,0,-1,1742,757,0,0
525,267,0,0,0,0,0,0,0,0,0,-1,1749,757,0,0
532,267,0,0,0,0,0,0,0,0,0,-1,1756,757,0,0
539,267,0,0,0,0,0,0,0,0,0,-1,1763,757,0,0
546,267,0,0,0,0,0,0,0,0,0,-1,1770,757,0,0
553,267,0,0,0,0,0,0,0,0,0,-1,1777,757,0,0
560,267,0,0,0,0,0,0,0,0,0,-1,1784,757,0,0
567,267,53.131,2.94629,0.0521083,0.00483815,-0.0104867,0.0543303,0.00261616,-0.208798,0.0353804,0.0411597,1791,757,53.131,-2.94631
574,267,53.3807,2.84894,0.0428944,0.00132021,-0.00678211,0.0439728,0.000241805,-0.157688,0.029235,0.0459492,1798,757,53.3807,-2.84893
581,267,53.5619,2.76318,0.0330175,0.00093929,-0.00442598,0.0336169,0.000339821,-0.134624,0.0222989,0.0493065,1805,757,53.5619,-2.76321
588,267,53.6396,2.8656,0,0,0,0,0,0,0,-1,1812,757,53.6397,-2.86562
595,267,51.8198,3.17883,0,0,0,0,0,0,0,-1,1819,757,51.8199,-3.17885
602,267,51.5371,3.55261,0,0,0,0,0,0,0,-1,1826,757,51.5371,-3.5526
609,267,51.2544,3.92633,0,0,0,0,0,0,0,-1,1833,757,51.2544,-3.92635
616,267,44.2543,3.28918,0,0,0,0,0,0,0,-1,1840,757,44.2542,-3.28918
623,267,24.1475,-1.1391,0,0,0,0,0,0,0,-1,1847,757,24.1475,1.13913
630,267,35.1893,-4.13251,0,0,0,0,0,0,0,-1,1854,757,35.1894,4.13254
637,267,34.9581,-3.72705,-0.000953825,0.00204187,-0.000544286,0.0021377,-0.00104965,-1.39652,0.00187562,0.0412549,1861,757,34.9581,3.72703
644,267,34.8765,-3.22992,-0.00116049,0.000611138,-0.000531185,0.000758196,-0.00130755,-1.30071,0.00120663,0.0140033,1868,757,34.8765,3.22995
651,267,34.8689,-2.55597,-0.000985954,-0.000223781,-0.000718799,0.000208704,-0.00141844,-1.02914,0.00102232,0.0139687,1875,757,34.869,2.55597
658,267,34.8372,-1.93341,-0.000494199,-0.000712534,-0.000573037,-2.00233e-05,-0.00118671,-0.691273,0.00078455,0.0145434,1882,757,34.8372,1.93344
665,267,34.8293,-1.30695,-0.000353554,-0.00035499,-0.000385853,3.15821e-05,-0.000740126,-0.784468,0.000504274,0.0144079,1889,757,34.8294,1.30694
672,267,34.838,-0.651306,1.99718e-05,0.000266683,-4.83115e-05,0.000275806,1.08487e-05,-1.38415,0.000180363,0.0128786,1896,757,34.838,0.6513
679,267,34.7921,-0.00836182,0.000517391,0.00102071,0.000308491,0.00116717,0.000370931,1.12754,0.000688619,0.012775,1903,757,34.7922,0.00835649
686,267,34.7399,0.656372,0.0012339,0.00195537,0.000725425,0.0024048,0.000784467,1.01613,0.00141609,0.0140576,1910,757,34.7398,-0.656365
693,267,34.6854,1.28973,0.00210669,0.00284322,0.00114845,0.00368101,0.0012689,0.940548,0.00215913,0.0144384,1917,757,34.6854,-1.28972
700,267,34.6555,1.95538,0.00330457,0.00374848,0.0016399,0.00518138,0.00187168,0.852662,0.00302963,0.0149815,1924,757,34.6555,-1.95541
707,267,34.6249,2.59406,0.00487089,0.00461263,0.00228892,0.00703432,0.0024492,0.75722,0.0041232,0.0161002,1931,757,34.6249,-2.59408
714,267,34.8021,3.23853,0.00701082,0.00562831,0.0032894,0.00968082,0.00295832,0.681832,0.00572833,0.0388789,1938,757,34.8022,-3.23852
721,267,35.1267,3.90387,0,0,0,0,0,0,0,-1,1945,757,35.1267,-3.90388
728,267,26.7886,3.90027,0,0,0,0,0,0,0,-1,1952,757,26.7886,-3.90028
735,267,24.6713,2.82483,0,0,0,0,0,0,0,-1,1959,757,24.6713,-2.82483
742,267,18.1177,3.56561,0,0,0,0,0,0,0,-1,1966,757,18.1176,-3.56564
749,267,0,0,0,0,0,0,0,0,0,-1,1973,757,0,0
756,267,0,0,0,0,0,0,0,0,0,-1,1980,757,0,0
763,267,0,0,0,0,0,0,0,0,0,-1,1987,757,0,0
770,267,0,0,0,0,0,0,0,0,0,-1,1994,757,0,0
777,267,0,0,0,0,0,0,0,0,0,-1,2001,757,0,0
784,267,0,0,0,0,0,0,0,0,0,-1,2008,757,0,0
791,267,0,0,0,0,0,0,0,0,0,-1,2015,757,0,0
798,267,0,0,0,0,0,0,0,0,0,-1,2022,757,0,0
805,267,0,0,0,0,0,0,0,0,0,-1,2029,757,0,0
812,267,0,0,0,0,0,0,0,0,0,-1,2036,757,0,0
-700,260,0,0,0,0,0,0,0,0,0,-1,524,764,0,0
-693,260,0,0,0,0,0,0,0,0,0,-1,531,764,0,0
-686,260,0,0,0,0,0,0,0,0,0,-1,538,764,0,0
-679,260,0,0,0,0,0,0,0,0,0,-1,545,764,0,0
-672,260,0,0,0,0,0,0,0,0,0,-1,552,764,0,0
-665,260,0,0,0,0,0,0,0,0,0,-1,559,764,0,0
-658,260,0,0,0,0,0,0,0,0,0,-1,566,764,0,0
-651,260,0,0,0,0,0,0,0,0,0,-1,573,764,0,0
-644,260,0,0,0,0,0,0,0,0,0,-1,580,764,0,0
-637,260,0,0,0,0,0,0,0,0,0,-1,587,764,0,0
-630,260,-21.8905,4.49341,0,0,0,0,0,0,0,-1,594,764,-21.8905,-4.49342
-623,260,-20.3127,3.53546,0,0,0,0,0,0,0,-1,601,764,-20.3127,-3.53544
-616,260,-23.4346,3.65009,0,0,0,0,0,0,0,-1,608,764,-23.4345,-3.65008
-609,260,-24.3839,4.72369,0,0,0,0,0,0,0,-1,615,764,-24.3839,-4.7237
-602,260,-24.0854,3.5166,0,0,0,0,0,0,0,-1,622,764,-24.0855,-3.5166
-595,260,-24.0878,1.45538,0,0,0,0,0,0,0,-1,629,764,-24.0878,-1.45541
-588,260,-23.8271,1.02454,0.0168255,-0.00563897,-0.00478675,0.0178029,-0.00661641,-0.201428,0.0145833,0.0467994,636,764,-23.8271,-1.02455
-581,260,-23.5724,0.645264,0.0112614,-0.00337278,-0.00324535,0.0119488,-0.00406019,-0.208731,0.00960955,0.0284961,643,764,-23.5724,-0.645245
-574,260,-23.5869,0.0617676,0.00731744,-0.00195154,-0.00203923,0.00774624,-0.00238035,-0.207258,0.00611407,0.0173294,650,764,-23.5869,-0.0617478
-567,260,-23.5993,-0.515442,0.00442946,-0.00123608,-0.00105074,0.00461805,-0.00142467,-0.177596,0.00364754,0.0172998,657,764,-23.5993,0.515459
-560,260,-23.6364,-1.11621,0.00225114,-0.00105964,-0.000176065,0.00226048,-0.00106898,-0.0529802,0.00196286,0.020292,664,764,-23.6363,1.11623
-553,260,-23.6895,-1.73016,0.000583483,-0.00128648,0.000674353,0.0008013,-0.00150429,0.312423,0.0013516,0.0181064,671,764,-23.6895,1.73019
-546,260,-23.7184,-2.37708,-0.000799496,-0.00193022,0.00162494,0.000355628,-0.00308534,0.617985,0.0021851,0.0114126,678,764,-23.7184,2.37707
-539,260,-23.6967,-2.9978,-0.00223072,-0.00268412,0.00265207,0.000204324,-0.00511916,0.742762,0.00348288,0.0128734,685,764,-23.6967,2.99783
-532,260,-23.6972,-3.57703,-0.00289401,-0.00372975,0.00345377,0.000167075,-0.00679084,0.725196,0.00458393,0.0175996,692,764,-23.6972,3.57702
-525,260,-23.758,-4.21881,-0.00276249,-0.00445979,0.00392639,0.000405914,-0.00762819,0.678966,0.00522603,0.015306,699,764,-23.758,4.21884
-518,260,-23.8301,-4.81067,-0.00377973,-0.0042279,0.00421982,0.000221949,-0.00822958,0.758872,0.00556184,0.0196198,706,764,-23.8302,4.81069
-511,260,-23.8262,-5.37,-0.00536741,-0.00427051,0.00380241,-0.000977198,-0.00866072,0.857023,0.00547722,0.0350751,713,764,-23.8262,5.37001
-504,260,-23.8686,-5.67871,0,0,0,0,0,0,0,-1,720,764,-23.8686,5.67872
-497,260,-16.6542,-3.67334,0,0,0,0,0,0,0,-1,727,764,-16.6542,3.67331
-490,260,-29.4557,0.921387,0,0,0,0,0,0,0,-1,734,764,-29.4557,-0.921369
-483,260,-39.1829,1.43866,0,0,0,0,0,0,0,-1,741,764,-39.1829,-1.43866
-476,260,-39.1941,1.3183,0,0,0,0,0,0,0,-1,748,764,-39.1941,-1.31828
-469,260,-39.4144,1.33612,-0.0270501,-0.007023,-0.0128301,-0.000761347,-0.0333117,-1.11676,0.0219584,0.0436902,755,764,-39.4144,-1.33609
-462,260,-39.7375,0.969482,-0.0333751,-0.00817739,-0.0184213,0.00154135,-0.0430938,-1.08533,0.0292565,0.0442118,762,764,-39.7375,-0.969466
-455,260,-39.9731,0.992859,-0.0388379,-0.00916967,-0.0248462,0.00493384,-0.0529415,-1.05452,0.0370486,0.04763,769,764,-39.9731,-0.992862
-448,260,0,0,0,0,0,0,0,0,0,-1,776,764,0,0
-441,260,0,0,0,0,0,0,0,0,0,-1,783,764,0,0
-434,260,0,0,0,0,0,0,0,0,0,-1,790,764,0,0
-427,260,0,0,0,0,0,0,0,0,0,-1,797,764,0,0
-420,260,0,0,0,0,0,0,0,0,0,-1,804,764,0,0
-413,260,0,0,0,0,0,0,0,0,0,-1,811,764,0,0
-406,260,0,0,0,0,0,0,0,0,0,-1,818,764,0,0
-399,260,0,0,0,0,0,0,0,0,0,-1,825,764,0,0
-392,260,0,0,0,0,0,0,0,0,0,-1,832,764,0,0
-385,260,0,0,0,0,0,0,0,0,0,-1,839,764,0,0
-378,260,0,0,0,0,0,0,0,0,0,-1,846,764,0,0
-371,260,0,0,0,0,0,0,0,0,0,-1,853,764,0,0
-364,260,0,0,0,0,0,0,0,0,0,-1,860,764,0,0
-357,260,0,0,0,0,0,0,0,0,0,-1,867,764,0,0
-350,260,0,0,0,0,0,0,0,0,0,-1,874,764,0,0
-343,260,0,0,0,0,0,0,0,0,0,-1,881,764,0,0
-336,260,0,0,0,0,0,0,0,0,0,-1,888,764,0,0
-329,260,0,0,0,0,0,0,0,0,0,-1,895,764,0,0
-322,260,0,0,0,0,0,0,0,0,0,-1,902,764,0,0
-315,260,0,0,0,0,0,0,0,0,0,-1,909,764,0,0
-308,260,0,0,0,0,0,0,0,0,0,-1,916,764,0,0
-301,260,0,0,0,0,0,0,0,0,0,-1,923,764,0,0
-294,260,0,0,0,0,0,0,0,0,0,-1,930,764,0,0
-287,260,0,0,0,0,0,0,0,0,0,-1,937,764,0,0
-280,260,0,0,0,0,0,0,0,0,0,-1,944,764,0,0
-273,260,0,0,0,0,0,0,0,0,0,-1,951,764,0,0
-266,260,0,0,0,0,0,0,0,0,0,-1,958,764,0,0
-259,260,0,0,0,0,0,0,0,0,0,-1,965,764,0,0
-252,260,0,0,0,0,0,0,0,0,0,-1,972,764,0,0
-245,260,0,0,0,0,0,0,0,0,0,-1,979,764,0,0
-238,260,0,0,0,0,0,0,0,0,0,-1,986,764,0,0
-231,260,0,0,0,0,0,0,0,0,0,-1,993,764,0,0
-224,260,0,0,0,0,0,0,0,0,0,-1,1000,764,0,0
-217,260,0,0,0,0,0,0,0,0,0,-1,1007,764,0,0
-210,260,0,0,0,0,0,0,0,0,0,-1,1014,764,0,0
-203,260,0,0,0,0,0,0,0,0,0,-1,1021,764,0,0
-196,260,0,0,0,0,0,0,0,0,0,-1,1028,764,0,0
-189,260,0,0,0,0,0,0,0,0,0,-1,1035,764,0,0
-182,260,0,0,0,0,0,0,0,0,0,-1,1042,764,0,0
-175,260,0,0,0,0,0,0,0,0,0,-1,1049,764,0,0
-168,260,0,0,0,0,0,0,0,0,0,-1,1056,764,0,0
-161,260,0,0,0,0,0,0,0,0,0,-1,1063,764,0,0
-154,260,0,0,0,0,0,0,0,0,0,-1,1070,764,0,0
-147,260,0,0,0,0,0,0,0,0,0,-1,1077,764,0,0
-140,260,0,0,0,0,0,0,0,0,0,-1,1084,764,0,0
-133,260,0,0,0,0,0,0,0,0,0,-1,1091,764,0,0
-126,260,0,0,0,0,0,0,0,0,0,-1,1098,764,0,0
-119,260,0,0,0,0,0,0,0,0,0,-1,1105,764,0,0
-112,260,0,0,0,0,0,0,0,0,0,-1,1112,764,0,0
-105,260,0,0,0,0,0,0,0,0,0,-1,1119,764,0,0
-98,260,0,0,0,0,0,0,0,0,0,-1,1126,764,0,0
-91,260,0,0,0,0,0,0,0,0,0,-1,1133,764,0,0
-84,260,0,0,0,0,0,0,0,0,0,-1,1140,764,0,0
-77,260,0,0,0,0,0,0,0,0,0,-1,1147,764,0,0
-70,260,0,0,0,0,0,0,0,0,0,-1,1154,764,0,0
-63,260,0,0,0,0,0,0,0,0,0,-1,1161,764,0,0
-56,260,0,0,0,0,0,0,0,0,0,-1,1168,764,0,0
-49,260,0,0,0,0,0,0,0,0,0,-1,1175,764,0,0
-42,260,0,0,0,0,0,0,0,0,0,-1,1182,764,0,0
-35,260,0,0,0,0,0,0,0,0,0,-1,1189,764,0,0
-28,260,0,0,0,0,0,0,0,0,0,-1,1196,764,0,0
-21,260,0,0,0,0,0,0,0,0,0,-1,1203,764,0,0
-14,260,0,0,0,0,0,0,0,0,0,-1,1210,764,0,0
-7,260,0,0,0,0,0,0,0,0,0,-1,1217,764,0,0
0,260,0,0,0,0,0,0,0,0,0,-1,1224,764,0,0
7,260,0,0,0,0,0,0,0,0,0,-1,1231,764,0,0
14,260,0,0,0,0,0,0,0,0,0,-1,1238,764,0,0
21,260,0,0,0,0,0,0,0,0,0,-1,1245,764,0,0
28,260,0,0,0,0,0,0,0,0,0,-1,1252,764,0,0
35,260,0,0,0,0,0,0,0,0,0,-1,1259,764,0,0
42,260,0,0,0,0,0,0,0,0,0,-1,1266,764,0,0
49,260,0,0,0,0,0,0,0,0,0,-1,1273,764,0,0
56,260,0,0,0,0,0,0,0,0,0,-1,1280,764,0,0
63,260,0,0,0,0,0,0,0,0,0,-1,1287,764,0,0
70,260,0,0,0,0,0,0,0,0,0,-1,1294,764,0,0
77,260,0,0,0,0,0,0,0,0,0,-1,1301,764,0,0
84,260,0,0,0,0,0,0,0,0,0,-1,1308,764,0,0
91,260,0,0,0,0,0,0,0,0,0,-1,1315,764,0,0
98,260,0,0,0,0,0,0,0,0,0,-1,1322,764,0,0
105,260,0,0,0,0,0,0,0,0,0,-1,1329,764,0,0
112,260,0,0,0,0,0,0,0,0,0,-1,1336,764,0,0
119,260,0,0,0,0,0,0,0,0,0,-1,1343,764,0,0
126,260,0,0,0,0,0,0,0,0,0,-1,1350,764,0,0
133,260,0,0,0,0,0,0,0,0,0,-1,1357,764,0,0
140,260,0,0,0,0,0,0,0,0,0,-1,1364,764,0,0
147,260,0,0,0,0,0,0,0,0,0,-1,1371,764,0,0
154,260,0,0,0,0,0,0,0,0,0,-1,1378,764,0,0
161,260,0,0,0,0,0,0,0,0,0,-1,1385,764,0,0
168,260,0,0,0,0,0,0,0,0,0,-1,1392,764,0,0
175,260,0,0,0,0,0,0,0,0,0,-1,1399,764,0,0
182,260,0,0,0,0,0,0,0,0,0,-1,1406,764,0,0
189,260,0,0,0,0,0,0,0,0,0,-1,1413,764,0,0
196,260,0,0,0,0,0,0,0,0,0,-1,1420,764,0,0
203,260,0,0,0,0,0,0,0,0,0,-1,1427,764,0,0
210,260,0,0,0,0,0,0,0,0,0,-1,1434,764,0,0
217,260,0,0,0,0,0,0,0,0,0,-1,1441,764,0,0
224,260,0,0,0,0,0,0,0,0,0,-1,1448,764,0,0
231,260,0,0,0,0,0,0,0,0,0,-1,1455,764,0,0
238,260,0,0,0,0,0,0,0,0,0,-1,1462,764,0,0
245,260,0,0,0,0,0,0,0,0,0,-1,1469,764,0,0
252,260,0,0,0,0,0,0,0,0,0,-1,1476,764,0,0
259,260,0,0,0,0,0,0,0,0,0,-1,1483,764,0,0
266,260,0,0,0,0,0,0,0,0,0,-1,1490,764,0,0
273,260,0,0,0,0,0,0,0,0,0,-1,1497,764,0,0
280,260,0,0,0,0,0,0,0,0,0,-1,1504,764,0,0
287,260,0,0,0,0,0,0,0,0,0,-1,1511,764,0,0
294,260,0,0,0,0,0,0,0,0,0,-1,1518,764,0,0
301,260,0,0,0,0,0,0,0,0,0,-1,1525,764,0,0
308,260,0,0,0,0,0,0,0,0,0,-1,1532,764,0,0
315,260,0,0,0,0,0,0,0,0,0,-1,1539,764,0,0
322,260,0,0,0,0,0,0,0,0,0,-1,1546,764,0,0
329,260,0,0,0,0,0,0,0,0,0,-1,1553,764,0,0
336,260,0,0,0,0,0,0,0,0,0,-1,1560,764,0,0
343,260,0,0,0,0,0,0,0,0,0,-1,1567,764,0,0
350,260,0,0,0,0,0,0,0,0,0,-1,1574,764,0,0
357,260,0,0,0,0,0,0,0,0,0,-1,1581,764,0,0
364,260,0,0,0,0,0,0,0,0,0,-1,1588,764,0,0
371,260,0,0,0,0,0,0,0,0,0,-1,1595,764,0,0
378,260,0,0,0,0,0,0,0,0,0,-1,1602,764,0,0
385,260,0,0,0,0,0,0,0,0,0,-1,1609,764,0,0
392,260,0,0,0,0,0,0,0,0,0,-1,1616,764,0,0
399,260,0,0,0,0,0,0,0,0,0,-1,1623,764,0,0
406,260,0,0,0,0,0,0,0,0,0,-1,1630,764,0,0
413,260,0,0,0,0,0,0,0,0,0,-1,1637,764,0,0
420,260,0,0,0,0,0,0,0,0,0,-1,1644,764,0,0
427,260,0,0,0,0,0,0,0,0,0,-1,1651,764,0,0
434,260,0,0,0,0,0,0,0,0,0,-1,1658,764,0,0
441,260,0,0,0,0,0,0,0,0,0,-1,1665,764,0,0
448,260,0,0,0,0,0,0,0,0,0,-1,1672,764,0,0
455,260,0,0,0,0,0,0,0,0,0,-1,1679,764,0,0
462,260,0,0,0,0,0,0,0,0,0,-1,1686,764,0,0
469,260,0,0,0,0,0,0,0,0,0,-1,1693,764,0,0
476,260,0,0,0,0,0,0,0,0,0,-1,1700,764,0,0
483,260,0,0,0,0,0,0,0,0,0,-1,1707,764,0,0
490,260,0,0,0,0,0,0,0,0,0,-1,1714,764,0,0
497,260,0,0,0,0,0,0,0,0,0,-1,1721,764,0,0
504,260,0,0,0,0,0,0,0,0,0,-1,1728,764,0,0
511,260,0,0,0,0,0,0,0,0,0,-1,1735,764,0,0
518,260,0,0,0,0,0,0,0,0,0,-1,1742,764,0,0
525,260,0,0,0,0,0,0,0,0,0,-1,1749,764,0,0
532,260,0,0,0,0,0,0,0,0,0,-1,1756,764,0,0
539,260,0,0,0,0,0,0,0,0,0,-1,1763,764,0,0
546,260,0,0,0,0,0,0,0,0,0,-1,1770,764,0,0
553,260,0,0,0,0,0,0,0,0,0,-1,1777,764,0,0
560,260,0,0,0,0,0,0,0,0,0,-1,1784,764,0,0
567,260,0,0,0,0,0,0,0,0,0,-1,1791,764,0,0
574,260,53.2112,2.72321,0,0,0,0,0,0,0,-1,1798,764,53.2112,-2.72323
581,260,53.1141,2.87909,0,0,0,0,0,0,0,-1,1805,764,53.1141,-2.87911
588,260,52.9164,3.40808,0,0,0,0,0,0,0,-1,1812,764,52.9164,-3.40809
595,260,53.4822,3.01727,0,0,0,0,0,0,0,-1,1819,764,53.4822,-3.01726
602,260,52.1606,3.24829,0,0,0,0,0,0,0,-1,1826,764,52.1607,-3.24827
609,260,51.8546,3.66809,0,0,0,0,0,0,0,-1,1833,764,51.8546,-3.66807
616,260,46.0709,2.74542,0,0,0,0,0,0,0,-1,1840,764,46.0709,-2.74545
623,260,32.2268,3.25836,0,0,0,0,0,0,0,-1,1847,764,32.2268,-3.25833
630,260,24.3739,-0.536316,0,0,0,0,0,0,0,-1,1854,764,24.3739,0.536343
637,260,35.7202,-3.50903,0,0,0,0,0,0,0,-1,1861,764,35.7202,3.50904
644,260,35.63,-3.19897,-0.00155126,0.000674972,-0.000757407,0.00090822,-0.0017845,-1.27206,0.00158185,0.0365298,1868,764,35.63,3.199
651,260,35.5442,-2.50726,-0.00155876,-0.00024944,-0.00100574,0.00029594,-0.00210414,-1.07391,0.0015111,0.0162303,1875,764,35.5442,2.50727
658,260,35.4742,-1.87988,-0.00121078,-0.00093182,-0.000980634,-8.07979e-05,-0.00206181,-0.856042,0.00134841,0.0158792,1882,764,35.4742,1.87985
665,260,35.4412,-1.26489,-0.00114261,-0.000768525,-0.000896847,-3.94228e-05,-0.00187171,-0.888202,0.00123488,0.0151882,1889,764,35.4411,1.26487
672,260,35.4362,-0.617371,-0.000715354,-0.000288108,-0.000582383,0.000118596,-0.00112206,-0.961183,0.000790541,0.0132383,1896,764,35.4361,0.61739
679,260,35.3936,0.0308838,-0.000120047,0.000333218,-0.000205852,0.000412751,-0.00019958,-1.2021,0.000360599,0.0125877,1903,764,35.3936,-0.0308764
686,260,35.3362,0.680908,0.000765544,0.00120394,0.000265264,0.00132886,0.000640631,1.1307,0.00076738,0.0169581,1910,764,35.3362,-0.680888
693,260,35.3027,1.29187,0.00183854,0.00205285,0.000768016,0.00272115,0.00117024,0.854711,0.00157617,0.0172059,1917,764,35.3027,-1.29189
700,260,35.2661,1.94775,0.00317323,0.00285065,0.00130767,0.00432952,0.00169436,0.724039,0.00251925,0.0140932,1924,764,35.2662,-1.94776
707,260,35.2639,2.59021,0.00482804,0.00361868,0.00197313,0.00628706,0.00215965,0.636713,0.00368863,0.0141969,1931,764,35.264,-2.5902
714,260,35.3058,3.20703,0.00696474,0.00449834,0.00292914,0.0089097,0.00255339,0.586155,0.00529791,0.0287842,1938,764,35.3058,-3.20705
721,260,35.3678,3.83002,0,0,0,0,0,0,0,-1,1945,764,35.3678,-3.82999
728,260,33.4344,5.75409,0,0,0,0,0,0,0,-1,1952,764,33.4345,-5.75408
735,260,26.9788,4.85681,0,0,0,0,0,0,0,-1,1959,764,26.9787,-4.85678
742,260,32.1443,1.73688,0,0,0,0,0,0,0,-1,1966,764,32.1442,-1.73688
749,260,33.6013,2.94733,0,0,0,0,0,0,0,-1,1973,764,33.6013,-2.9473
756,260,0,0,0,0,0,0,0,0,0,-1,1980,764,0,0
763,260,0,0,0,0,0,0,0,0,0,-1,1987,764,0,0
770,260,0,0,0,0,0,0,0,0,0,-1,1994,764,0,0
777,260,0,0,0,0,0,0,0,0,0,-1,2001,764,0,0
784,260,0,0,0,0,0,0,0,0,0,-1,2008,764,0,0
791,260,0,0,0,0,0,0,0,0,0,-1,2015,764,0,0
798,260,0,0,0,0,0,0,0,0,0,-1,2022,764,0,0
805,260,0,0,0,0,0,0,0,0,0,-1,2029,764,0,0
812,260,0,0,0,0,0,0,0,0,0,-1,2036,764,0,0
-700,253,0,0,0,0,0,0,0,0,0,-1,524,771,0,0
-693,253,0,0,0,0,0,0,0,0,0,-1,531,771,0,0
-686,253,0,0,0,0,0,0,0,0,0,-1,538,771,0,0
-679,253,0,0,0,0,0,0,0,0,0,-1,545,771,0,0
-672,253,0,0,0,0,0,0,0,0,0,-1,552,771,0,0
-665,253,0,0,0,0,0,0,0,0,0,-1,559,771,0,0
-658,253,0,0,0,0,0,0,0,0,0,-1,566,771,0,0
-651,253,0,0,0,0,0,0,0,0,0,-1,573,771,0,0
-644,253,0,0,0,0,0,0,0,0,0,-1,580,771,0,0
-637,253,-24.7979,-0.491394,0,0,0,0,0,0,0,-1,587,771,-24.7978,0.491371
-630,253,-25.156,0.540405,0,0,0,0,0,0,0,-1,594,771,-25.156,-0.540421
-623,253,-20.808,2.84314,0,0,0,0,0,0,0,-1,601,771,-20.8081,-2.84312
-616,253,-25.0877,2.96875,0,0,0,0,0,0,0,-1,608,771,-25.0877,-2.96876
-609,253,-24.28,2.08228,0,0,0,0,0,0,0,-1,615,771,-24.2801,-2.08227
-602,253,-24.9242,2.47943,0,0,0,0,0,0,0,-1,622,771,-24.9242,-2.47945
-595,253,-24.569,1.79895,0.0223838,-0.00657269,-0.00760466,0.0242595,-0.00844835,-0.24182,0.0196056,0.0496227,629,771,-24.5691,-1.79894
-588,253,-24.1645,1.20819,0.0153946,-0.00406681,-0.00525227,0.0167216,-0.00539381,-0.247474,0.013315,0.0403585,636,771,-24.1645,-1.20821
-581,253,-24.1699,0.630493,0.0105479,-0.00249471,-0.00359284,0.0114722,-0.00341894,-0.251781,0.00900672,0.0257835,643,771,-24.1699,-0.630463
-574,253,-24.2042,0.0588989,0.0068955,-0.00155682,-0.0022448,0.00745469,-0.00211601,-0.244135,0.00580513,0.0204112,650,771,-24.2042,-0.0589018
-567,253,-24.2463,-0.556396,0.00407315,-0.00118329,-0.0010989,0.00429364,-0.00140378,-0.198012,0.00342755,0.0166615,657,771,-24.2463,0.556397
-560,253,-24.2314,-1.10028,0.00187158,-0.00124162,-0.000101406,0.00187488,-0.00124492,-0.032527,0.00181341,0.0133088,664,771,-24.2315,1.10026
-553,253,-24.2698,-1.71326,0.000126202,-0.00161839,0.00093164,0.000530172,-0.00202236,0.409142,0.00155538,0.0130582,671,771,-24.2698,1.71325
-546,253,-24.3253,-2.33459,-0.00133452,-0.00246624,0.00204932,0.000225632,-0.00402639,0.650694,0.00276254,0.0112314,678,771,-24.3253,2.3346
-539,253,-24.3509,-2.96375,-0.00275194,-0.00337638,0.0031541,0.000105349,-0.00623367,0.736065,0.00419134,0.012823,685,771,-24.3509,2.96373
-532,253,-24.3243,-3.59894,-0.00331727,-0.00448063,0.00394577,8.94694e-05,-0.00788736,0.712216,0.00528832,0.0180988,692,771,-24.3243,3.59892
-525,253,-24.3286,-4.22632,-0.00306414,-0.00517411,0.00440804,0.000413404,-0.00865166,0.667942,0.0059104,0.0171453,699,771,-24.3286,4.22634
-518,253,-24.436,-4.82947,-0.00387117,-0.00493291,0.00468312,0.000311067,-0.00911515,0.72896,0.00618307,0.0307441,706,771,-24.436,4.82946
-511,253,-24.5034,-5.32813,0,0,0,0,0,0,0,-1,713,771,-24.5034,5.32815
-504,253,-19.317,-4.1723,0,0,0,0,0,0,0,-1,720,771,-19.317,4.1723
-497,253,-21.7737,-1.76837,0,0,0,0,0,0,0,-1,727,771,-21.7738,1.7684
-490,253,-29.7674,0.438354,0,0,0,0,0,0,0,-1,734,771,-29.7674,-0.438339
-483,253,-40.694,0.77533,0,0,0,0,0,0,0,-1,741,771,-40.694,-0.77532
-476,253,-40.1744,1.29681,0,0,0,0,0,0,0,-1,748,771,-40.1743,-1.29682
-469,253,-39.9067,1.15753,-0.0219275,-0.00534595,-0.00911218,-0.00131728,-0.0259562,-1.15452,0.0168822,0.0410643,755,771,-39.9068,-1.15753
-462,253,-40.1567,0.861389,-0.0264581,-0.00543896,-0.0136065,0.00124413,-0.0331412,-1.11424,0.0225203,0.0449604,762,771,-40.1567,-0.861374
-455,253,-40.1298,0.910828,-0.029086,-0.00508039,-0.0185574,0.00501758,-0.039184,-1.07246,0.0279458,0.0347331,769,771,-40.1298,-0.91081
-448,253,0,0,0,0,0,0,0,0,0,-1,776,771,0,0
-441,253,0,0,0,0,0,0,0,0,0,-1,783,771,0,0
-434,253,0,0,0,0,0,0,0,0,0,-1,790,771,0,0
-427,253,0,0,0,0,0,0,0,0,0,-1,797,771,0,0
-420,253,0,0,0,0,0,0,0,0,0,-1,804,771,0,0
-413,253,0,0,0,0,0,0,0,0,0,-1,811,771,0,0
-406,253,0,0,0,0,0,0,0,0,0,-1,818,771,0,0
-399,253,0,0,0,0,0,0,0,0,0,-1,825,771,0,0
-392,253,0,0,0,0,0,0,0,0,0,-1,832,771,0,0
-385,253,0,0,0,0,0,0,0,0,0,-1,839,771,0,0
-378,253,0,0,0,0,0,0,0,0,0,-1,846,771,0,0
-371,253,0,0,0,0,0,0,0,0,0,-1,853,771,0,0
-364,253,0,0,0,0,0,0,0,0,0,-1,860,771,0,0
-357,253,0,0,0,0,0,0,0,0,0,-1,867,771,0,0
-350,253,0,0,0,0,0,0,0,0,0,-1,874,771,0,0
-343,253,0,0,0,0,0,0,0,0,0,-1,881,771,0,0
-336,253,0,0,0,0,0,0,0,0,0,-1,888,771,0,0
-329,253,0,0,0,0,0,0,0,0,0,-1,895,771,0,0
-322,253,0,0,0,0,0,0,0,0,0,-1,902,771,0,0
-315,253,0,0,0,0,0,0,0,0,0,-1,909,771,0,0
-308,253,0,0,0,0,0,0,0,0,0,-1,916,771,0,0
-301,253,0,0,0,0,0,0,0,0,0,-1,923,771,0,0
-294,253,0,0,0,0,0,0,0,0,0,-1,930,771,0,0
-287,253,0,0,0,0,0,0,0,0,0,-1,937,771,0,0
-280,253,0,0,0,0,0,0,0,0,0,-1,944,771,0,0
-273,253,0,0,0,0,0,0,0,0,0,-1,951,771,0,0
-266,253,0,0,0,0,0,0,0,0,0,-1,958,771,0,0
-259,253,0,0,0,0,0,0,0,0,0,-1,965,771,0,0
-252,253,0,0,0,0,0,0,0,0,0,-1,972,771,0,0
-245,253,0,0,0,0,0,0,0,0,0,-1,979,771,0,0
-238,253,0,0,0,0,0,0,0,0,0,-1,986,771,0,0
-231,253,0,0,0,0,0,0,0,0,0,-1,993,771,0,0
-224,253,0,0,0,0,0,0,0,0,0,-1,1000,771,0,0
-217,253,0,0,0,0,0,0,0,0,0,-1,1007,771,0,0
-210,253,0,0,0,0,0,0,0,0,0,-1,1014,771,0,0
-203,253,0,0,0,0,0,0,0,0,0,-1,1021,771,0,0
-196,253,0,0,0,0,0,0,0,0,0,-1,1028,771,0,0
-189,253,0,0,0,0,0,0,0,0,0,-1,1035,771,0,0
-182,253,0,0,0,0,0,0,0,0,0,-1,1042,771,0,0
-175,253,0,0,0,0,0,0,0,0,0,-1,1049,771,0,0
-168,253,0,0,0,0,0,0,0,0,0,-1,1056,771,0,0
-161,253,0,0,0,0,0,0,0,0,0,-1,1063,771,0,0
-154,253,0,0,0,0,0,0,0,0,0,-1,1070,771,0,0
-147,253,0,0,0,0,0,0,0,0,0,-1,1077,771,0,0
-140,253,0,0,0,0,0,0,0,0,0,-1,1084,771,0,0
-133,253,0,0,0,0,0,0,0,0,0,-1,1091,771,0,0
-126,253,0,0,0,0,0,0,0,0,0,-1,1098,771,0,0
-119,253,0,0,0,0,0,0,0,0,0,-1,1105,771,0,0
-112,253,0,0,0,0,0,0,0,0,0,-1,1112,771,0,0
-105,253,0,0,0,0,0,0,0,0,0,-1,1119,771,0,0
-98,253,0,0,0,0,0,0,0,0,0,-1,1126,771,0,0
-91,253,0,0,0,0,0,0,0,0,0,-1,1133,771,0,0
-84,253,0,0,0,0,0,0,0,0,0,-1,1140,771,0,0
-77,253,0,0,0,0,0,0,0,0,0,-1,1147,771,0,0
-70,253,0,0,0,0,0,0,0,0,0,-1,1154,771,0,0
-63,253,0,0,0,0,0,0,0,0,0,-1,1161,771,0,0
-56,253,0,0,0,0,0,0,0,0,0,-1,1168,771,0,0
-49,253,0,0,0,0,0,0,0,0,0,-1,1175,771,0,0
-42,253,0,0,0,0,0,0,0,0,0,-1,1182,771,0,0
-35,253,0,0,0,0,0,0,0,0,0,-1,1189,771,0,0
-28,253,0,0,0,0,0,0,0,0,0,-1,1196,771,0,0
-21,253,0,0,0,0,0,0,0,0,0,-1,1203,771,0,0
-14,253,0,0,0,0,0,0,0,0,0,-1,1210,771,0,0
-7,253,0,0,0,0,0,0,0,0,0,-1,1217,771,0,0
0,253,0,0,0,0,0,0,0,0,0,-1,1224,771,0,0
7,253,0,0,0,0,0,0,0,0,0,-1,1231,771,0,0
14,253,0,0,0,0,0,0,0,0,0,-1,1238,771,0,0
21,253,0,0,0,0,0,0,0,0,0,-1,1245,771,0,0
28,253,0,0,0,0,0,0,0,0,0,-1,1252,771,0,0
35,253,0,0,0,0,0,0,0,0,0,-1,1259,771,0,0
42,253,0,0,0,0,0,0,0,0,0,-1,1266,771,0,0
49,253,0,0,0,0,0,0,0,0,0,-1,1273,771,0,0
56,253,0,0,0,0,0,0,0,0,0,-1,1280,771,0,0
63,253,0,0,0,0,0,0,0,0,0,-1,1287,771,0,0
70,253,0,0,0,0,0,0,0,0,0,-1,1294,771,0,0
77,253,0,0,0,0,0,0,0,0,0,-1,1301,771,0,0
84,253,0,0,0,0,0,0,0,0,0,-1,1308,771,0,0
91,253,0,0,0,0,0,0,0,0,0,-1,1315,771,0,0
98,253,0,0,0,0,0,0,0,0,0,-1,1322,771,0,0
105,253,0,0,0,0,0,0,0,0,0,-1,1329,771,0,0
112,253,0,0,0,0,0,0,0,0,0,-1,1336,771,0,0
119,253,0,0,0,0,0,0,0,0,0,-1,1343,771,0,0
126,253,0,0,0,0,0,0,0,0,0,-1,1350,771,0,0
133,253,0,0,0,0,0,0,0,0,0,-1,1357,771,0,0
140,253,0,0,0,0,0,0,0,0,0,-1,1364,771,0,0
147,253,0,0,0,0,0,0,0,0,0,-1,1371,771,0,0
154,253,0,0,0,0,0,0,0,0,0,-1,1378,771,0,0
161,253,0,0,0,0,0,0,0,0,0,-1,1385,771,0,0
168,253,0,0,0,0,0,0,0,0,0,-1,1392,771,0,0
175,253,0,0,0,0,0,0,0,0,0,-1,1399,771,0,0
182,253,0,0,0,0,0,0,0,0,0,-1,1406,771,0,0
189,253,0,0,0,0,0,0,0,0,0,-1,1413,771,0,0
196,253,0,0,0,0,0,0,0,0,0,-1,1420,771,0,0
203,253,0,0,0,0,0,0,0,0,0,-1,1427,771,0,0
210,253,0,0,0,0,0,0,0,0,0,-1,1434,771,0,0
217,253,0,0,0,0,0,0,0,0,0,-1,1441,771,0,0
224,253,0,0,0,0,0,0,0,0,0,-1,1448,771,0,0
231,253,0,0,0,0,0,0,0,0,0,-1,1455,771,0,0
238,253,0,0,0,0,0,0,0,0,0,-1,1462,771,0,0
245,253,0,0,0,0,0,0,0,0,0,-1,1469,771,0,0
252,253,0,0,0,0,0,0,0,0,0,-1,1476,771,0,0
259,253,0,0,0,0,0,0,0,0,0,-1,1483,771,0,0
266,253,0,0,0,0,0,0,0,0,0,-1,1490,771,0,0
273,253,0,0,0,0,0,0,0,0,0,-1,1497,771,0,0
280,253,0,0,0,0,0,0,0,0,0,-1,1504,771,0,0
287,253,0,0,0,0,0,0,0,0,0,-1,1511,771,0,0
294,253,0,0,0,0,0,0,0,0,0,-1,1518,771,0,0
301,253,0,0,0,0,0,0,0,0,0,-1,1525,771,0,0
308,253,0,0,0,0,0,0,0,0,0,-1,1532,771,0,0
315,253,0,0,0,0,0,0,0,0,0,-1,1539,771,0,0
322,253,0,0,0,0,0,0,0,0,0,-1,1546,771,0,0
329,253,0,0,0,0,0,0,0,0,0,-1,1553,771,0,0
336,253,0,0,0,0,0,0,0,0,0,-1,1560,771,0,0
343,253,0,0,0,0,0,0,0,0,0,-1,1567,771,0,0
350,253,0,0,0,0,0,0,0,0,0,-1,1574,771,0,0
357,253,0,0,0,0,0,0,0,0,0,-1,1581,771,0,0
364,253,0,0,0,0,0,0,0,0,0,-1,1588,771,0,0
371,253,0,0,0,0,0,0,0,0,0,-1,1595,771,0,0
378,253,0,0,0,0,0,0,0,0,0,-1,1602,771,0,0
385,253,0,0,0,0,0,0,0,0,0,-1,1609,771,0,0
392,253,0,0,0,0,0,0,0,0,0,-1,1616,771,0,0
399,253,0,0,0,0,0,0,0,0,0,-1,1623,771,0,0
406,253,0,0,0,0,0,0,0,0,0,-1,1630,771,0,0
413,253,0,0,0,0,0,0,0,0,0,-1,1637,771,0,0
420,253,0,0,0,0,0,0,0,0,0,-1,1644,771,0,0
427,253,0,0,0,0,0,0,0,0,0,-1,1651,771,0,0
434,253,0,0,0,0,0,0,0,0,0,-1,1658,771,0,0
441,253,0,0,0,0,0,0,0,0,0,-1,1665,771,0,0
448,253,0,0,0,0,0,0,0,0,0,-1,1672,771,0,0
455,253,0,0,0,0,0,0,0,0,0,-1,1679,771,0,0
462,253,0,0,0,0,0,0,0,0,0,-1,1686,771,0,0
469,253,0,0,0,0,0,0,0,0,0,-1,1693,771,0,0
476,253,0,0,0,0,0,0,0,0,0,-1,1700,771,0,0
483,253,0,0,0,0,0,0,0,0,0,-1,1707,771,0,0
490,253,0,0,0,0,0,0,0,0,0,-1,1714,771,0,0
497,253,0,0,0,0,0,0,0,0,0,-1,1721,771,0,0
504,253,0,0,0,0,0,0,0,0,0,-1,1728,771,0,0
511,253,0,0,0,0,0,0,0,0,0,-1,1735,771,0,0
518,253,0,0,0,0,0,0,0,0,0,-1,1742,771,0,0
525,253,0,0,0,0,0,0,0,0,0,-1,1749,771,0,0
532,253,0,0,0,0,0,0,0,0,0,-1,1756,771,0,0
539,253,0,0,0,0,0,0,0,0,0,-1,1763,771,0,0
546,253,0,0,0,0,0,0,0,0,0,-1,1770,771,0,0
553,253,0,0,0,0,0,0,0,0,0,-1,1777,771,0,0
560,253,0,0,0,0,0,0,0,0,0,-1,1784,771,0,0
567,253,0,0,0,0,0,0,0,0,0,-1,1791,771,0,0
574,253,53.1207,2.58765,0,0,0,0,0,0,0,-1,1798,771,53.1208,-2.58767
581,253,53.1163,2.74744,0.0224311,0.00366366,-0.00315851,0.0229484,0.00314635,-0.162342,0.0143655,0.0429547,1805,771,53.1163,-2.74743
588,253,53.0577,3.01495,0.016879,0.00381912,-0.00173036,0.0171044,0.00359375,-0.129517,0.0104138,0.0469591,1812,771,53.0577,-3.01498
595,253,53.4054,2.88318,0.0121898,0.00372179,-0.00117701,0.0123504,0.00356124,-0.135572,0.00734036,0.0499188,1819,771,53.4054,-2.8832
602,253,52.757,2.97717,0.00841865,0.00353714,-0.000858146,0.00856511,0.00339067,-0.169046,0.00498069,0.0470795,1826,771,52.757,-2.97719
609,253,52.4628,3.33417,0,0,0,0,0,0,0,-1,1833,771,52.4628,-3.33414
616,253,52.2229,3.72125,0,0,0,0,0,0,0,-1,1840,771,52.2229,-3.72128
623,253,48.8328,3.01001,0,0,0,0,0,0,0,-1,1847,771,48.8328,-3.01002
630,253,33.561,2.96838,0,0,0,0,0,0,0,-1,1854,771,33.561,-2.96836
637,253,22.3192,-0.604004,0,0,0,0,0,0,0,-1,1861,771,22.3192,0.603986
644,253,36.2667,-3.07263,0,0,0,0,0,0,0,-1,1868,771,36.2667,3.07266
651,253,36.172,-2.45099,-0.00205367,-6.12589e-05,-0.00122879,0.000524416,-0.00263934,-1.12602,0.00195792,0.0317997,1875,771,36.172,2.45102
658,253,36.1102,-1.83606,-0.00188123,-0.000834091,-0.00130286,4.64651e-05,-0.00276179,-0.976454,0.00185687,0.0194299,1882,771,36.1102,1.83607
665,253,36.0394,-1.21936,-0.00188504,-0.000903469,-0.00131546,9.7804e-06,-0.00279829,-0.963946,0.0018688,0.0204334,1889,771,36.0394,1.21936
672,253,36.0267,-0.574341,-0.00142571,-0.000659362,-0.00104384,6.94093e-05,-0.00215448,-0.961304,0.00146001,0.016792,1896,771,36.0267,0.574336
679,253,36.016,0.0825806,-0.000774406,-0.00027076,-0.000667511,0.000190849,-0.00123602,-0.965772,0.00089444,0.0137833,1903,771,36.0159,-0.0826066
686,253,35.9767,0.71228,0.00021971,0.000465905,-0.000175855,0.000557465,0.00012815,-1.09076,0.000337145,0.0209757,1910,771,35.9766,-0.712304
693,253,35.9247,1.34863,0.00143821,0.00124541,0.000363688,0.00171806,0.000965566,0.655847,0.000994463,0.0206624,1917,771,35.9247,-1.34862
700,253,35.9139,1.97144,0.00277521,0.00187922,0.000872761,0.00330824,0.00134619,0.54828,0.00192101,0.0158186,1924,771,35.9139,-1.97142
707,253,35.9221,2.61157,0.00433103,0.00249946,0.00146333,0.00514151,0.00168898,0.505803,0.0030261,0.0144946,1931,771,35.9221,-2.61157
714,253,35.9139,3.21381,0.00607483,0.00283171,0.00220583,0.007191,0.00171555,0.468442,0.00433677,0.0216701,1938,771,35.914,-3.21381
721,253,36.0618,3.85693,0.00782197,0.00267031,0.00282244,0.00906728,0.001425,0.415524,0.00563029,0.0401754,1945,771,36.0618,-3.8569
728,253,36.2527,4.52435,0,0,0,0,0,0,0,-1,1952,771,36.2527,-4.52435
735,253,34.5735,6.15118,0,0,0,0,0,0,0,-1,1959,771,34.5734,-6.1512
742,253,31.0571,5.7337,0,0,0,0,0,0,0,-1,1966,771,31.0571,-5.73373
749,253,33.7754,3.21533,0,0,0,0,0,0,0,-1,1973,771,33.7754,-3.21533
756,253,0,0,0,0,0,0,0,0,0,-1,1980,771,0,0
763,253,0,0,0,0,0,0,0,0,0,-1,1987,771,0,0
770,253,0,0,0,0,0,0,0,0,0,-1,1994,771,0,0
777,253,0,0,0,0,0,0,0,0,0,-1,2001,771,0,0
784,253,0,0,0,0,0,0,0,0,0,-1,2008,771,0,0
791,253,0,0,0,0,0,0,0,0,0,-1,2015,771,0,0
798,253,0,0,0,0,0,0,0,0,0,-1,2022,771,0,0
805,253,0,0,0,0,0,0,0,0,0,-1,2029,771,0,0
812,253,0,0,0,0,0,0,0,0,0,-1,2036,771,0,0
-700,246,0,0,0,0,0,0,0,0,0,-1,524,778,0,0
-693,246,0,0,0,0,0,0,0,0,0,-1,531,778,0,0
-686,246,0,0,0,0,0,0,0,0,0,-1,538,778,0,0
-679,246,0,0,0,0,0,0,0,0,0,-1,545,778,0,0
-672,246,0,0,0,0,0,0,0,0,0,-1,552,778,0,0
-665,246,0,0,0,0,0,0,0,0,0,-1,559,778,0,0
-658,246,0,0,0,0,0,0,0,0,0,-1,566,778,0,0
-651,246,0,0,0,0,0,0,0,0,0,-1,573,778,0,0
-644,246,0,0,0,0,0,0,0,0,0,-1,580,778,0,0
-637,246,-24.1234,0.130432,0,0,0,0,0,0,0,-1,587,778,-24.1234,-0.130438
-630,246,-24.0781,1.38916,0,0,0,0,0,0,0,-1,594,778,-24.0781,-1.38913
-623,246,-23.9183,2.49573,0,0,0,0,0,0,0,-1,601,778,-23.9183,-2.49575
-616,246,-26.8182,2.0705,0,0,0,0,0,0,0,-1,608,778,-26.8182,-2.07052
-609,246,-26.0615,1.16388,0,0,0,0,0,0,0,-1,615,778,-26.0615,-1.16388
-602,246,-25.8697,2.87897,0,0,0,0,0,0,0,-1,622,778,-25.8697,-2.87897
-595,246,-25.3445,2.20209,0.0188162,-0.00385357,-0.00762927,0.0211446,-0.00618196,-0.296214,0.0165466,0.0484248,629,778,-25.3445,-2.20211
-588,246,-24.7297,1.36182,0.0133253,-0.00237667,-0.00536449,0.0149831,-0.0040344,-0.29971,0.0115704,0.0311599,636,778,-24.7296,-1.36181
-581,246,-24.8018,0.738586,0.00934511,-0.00149332,-0.00369949,0.0104875,-0.00263568,-0.299497,0.00801596,0.0177427,643,778,-24.8018,-0.738611
-574,246,-24.8032,0.0524292,0.00614331,-0.00104018,-0.00229378,0.00681326,-0.00171013,-0.284169,0.00520669,0.0185526,650,778,-24.8031,-0.0524029
-567,246,-24.8469,-0.527771,0.00352089,-0.00100924,-0.00105561,0.0037548,-0.00124314,-0.218057,0.00300456,0.0212435,657,778,-24.8468,0.52778
-560,246,-24.8762,-1.10126,0.00138132,-0.00134761,-2.57663e-06,0.00138133,-0.00134761,-0.000944191,0.00157559,0.0169991,664,778,-24.8762,1.10124
-553,246,-24.8708,-1.68408,-0.000385106,-0.00185392,0.00119317,0.000281557,-0.00252058,0.509525,0.00178167,0.0143272,671,778,-24.8708,1.68407
-546,246,-24.9376,-2.29163,-0.00187415,-0.00288234,0.00247544,0.000148006,-0.00490449,0.684952,0.0033201,0.0115443,678,778,-24.9376,2.29161
-539,246,-24.9714,-2.92316,-0.00325492,-0.0038926,0.00362231,6.25574e-05,-0.00721007,0.741501,0.0048277,0.0114305,685,778,-24.9714,2.92316
-532,246,-24.9303,-3.56506,-0.00374788,-0.00500848,0.00439414,6.09295e-05,-0.00881729,0.714163,0.00589861,0.0158619,692,778,-24.9303,3.56505
-525,246,-24.9826,-4.17554,-0.0034387,-0.00566885,0.00487563,0.000447743,-0.0095553,0.67298,0.00652457,0.0299195,699,778,-24.9826,4.17552
-518,246,-25.2514,-4.55469,-0.00403372,-0.00548802,0.00517046,0.000460467,-0.00998221,0.715539,0.00681348,0.0437417,706,778,-25.2514,4.55471
-511,246,-25.6486,-4.77319,0,0,0,0,0,0,0,-1,713,778,-25.6486,4.77318
-504,246,-20.0047,-2.88214,0,0,0,0,0,0,0,-1,720,778,-20.0047,2.88216
-497,246,-29.4669,1.82684,0,0,0,0,0,0,0,-1,727,778,-29.4669,-1.82687
-490,246,-39.2592,2.04895,0,0,0,0,0,0,0,-1,734,778,-39.2591,-2.04896
-483,246,-40.393,0.665527,0,0,0,0,0,0,0,-1,741,778,-40.393,-0.665553
-476,246,-40.3013,1.02271,-0.0139021,-0.00489813,-0.00269379,-0.00415375,-0.0146465,-1.30119,0.00871614,0.0471699,748,778,-40.3013,-1.02272
-469,246,-40.1164,0.901672,-0.0167625,-0.00428854,-0.00593025,-0.00191925,-0.0191318,-1.1907,0.0121653,0.0423232,755,778,-40.1164,-0.90167
-462,246,-40.1112,0.861938,-0.0192304,-0.00359833,-0.00948945,0.000879536,-0.0237083,-1.1299,0.0161067,0.0467904,762,778,-40.1112,-0.861915
-455,246,0,0,0,0,0,0,0,0,0,-1,769,778,0,0
-448,246,0,0,0,0,0,0,0,0,0,-1,776,778,0,0
-441,246,0,0,0,0,0,0,0,0,0,-1,783,778,0,0
-434,246,0,0,0,0,0,0,0,0,0,-1,790,778,0,0
-427,246,0,0,0,0,0,0,0,0,0,-1,797,778,0,0
-420,246,0,0,0,0,0,0,0,0,0,-1,804,778,0,0
-413,246,0,0,0,0,0,0,0,0,0,-1,811,778,0,0
-406,246,0,0,0,0,0,0,0,0,0,-1,818,778,0,0
-399,246,0,0,0,0,0,0,0,0,0,-1,825,778,0,0
-392,246,0,0,0,0,0,0,0,0,0,-1,832,778,0,0
-385,246,0,0,0,0,0,0,0,0,0,-1,839,778,0,0
-378,246,0,0,0,0,0,0,0,0,0,-1,846,778,0,0
-371,246,0,0,0,0,0,0,0,0,0,-1,853,778,0,0
-364,246,0,0,0,0,0,0,0,0,0,-1,860,778,0,0
-357,246,0,0,0,0,0,0,0,0,0,-1,867,778,0,0
-350,246,0,0,0,0,0,0,0,0,0,-1,874,778,0,0
-343,246,0,0,0,0,0,0,0,0,0,-1,881,778,0,0
-336,246,0,0,0,0,0,0,0,0,0,-1,888,778,0,0
-329,246,0,0,0,0,0,0,0,0,0,-1,895,778,0,0
-322,246,0,0,0,0,0,0,0,0,0,-1,902,778,0,0
-315,246,0,0,0,0,0,0,0,0,0,-1,909,778,0,0
-308,246,0,0,0,0,0,0,0,0,0,-1,916,778,0,0
-301,246,0,0,0,0,0,0,0,0,0,-1,923,778,0,0
-294,246,0,0,0,0,0,0,0,0,0,-1,930,778,0,0
-287,246,0,0,0,0,0,0,0,0,0,-1,937,778,0,0
-280,246,0,0,0,0,0,0,0,0,0,-1,944,778,0,0
-273,246,0,0,0,0,0,0,0,0,0,-1,951,778,0,0
-266,246,0,0,0,0,0,0,0,0,0,-1,958,778,0,0
-259,246,0,0,0,0,0,0,0,0,0,-1,965,778,0,0
-252,246,0,0,0,0,0,0,0,0,0,-1,972,778,0,0
-245,246,0,0,0,0,0,0,0,0,0,-1,979,778,0,0
-238,246,0,0,0,0,0,0,0,0,0,-1,986,778,0,0
-231,246,0,0,0,0,0,0,0,0,0,-1,993,778,0,0
-224,246,0,0,0,0,0,0,0,0,0,-1,1000,778,0,0
-217,246,0,0,0,0,0,0,0,0,0,-1,1007,778,0,0
-210,246,0,0,0,0,0,0,0,0,0,-1,1014,778,0,0
-203,246,0,0,0,0,0,0,0,0,0,-1,1021,778,0,0
-196,246,0,0,0,0,0,0,0,0,0,-1,1028,778,0,0
-189,246,0,0,0,0,0,0,0,0,0,-1,1035,778,0,0
-182,246,0,0,0,0,0,0,0,0,0,-1,1042,778,0,0
-175,246,0,0,0,0,0,0,0,0,0,-1,1049,778,0,0
-168,246,0,0,0,0,0,0,0,0,0,-1,1056,778,0,0
-161,246,0,0,0,0,0,0,0,0,0,-1,1063,778,0,0
-154,246,0,0,0,0,0,0,0,0,0,-1,1070,778,0,0
-147,246,0,0,0,0,0,0,0,0,0,-1,1077,778,0,0
-140,246,0,0,0,0,0,0,0,0,0,-1,1084,778,0,0
-133,246,0,0,0,0,0,0,0,0,0,-1,1091,778,0,0
-126,246,0,0,0,0,0,0,0,0,0,-1,1098,778,0,0
-119,246,0,0,0,0,0,0,0,0,0,-1,1105,778,0,0
-112,246,0,0,0,0,0,0,0,0,0,-1,1112,778,0,0
-105,246,0,0,0,0,0,0,0,0,0,-1,1119,778,0,0
-98,246,0,0,0,0,0,0,0,0,0,-1,1126,778,0,0
-91,246,0,0,0,0,0,0,0,0,0,-1,1133,778,0,0
-84,246,0,0,0,0,0,0,0,0,0,-1,1140,778,0,0
-77,246,0,0,0,0,0,0,0,0,0,-1,1147,778,0,0
-70,246,0,0,0,0,0,0,0,0,0,-1,1154,778,0,0
-63,246,0,0,0,0,0,0,0,0,0,-1,1161,778,0,0
-56,246,0,0,0,0,0,0,0,0,0,-1,1168,778,0,0
-49,246,0,0,0,0,0,0,0,0,0,-1,1175,778,0,0
-42,246,0,0,0,0,0,0,0,0,0,-1,1182,778,0,0
-35,246,0,0,0,0,0,0,0,0,0,-1,1189,778,0,0
-28,246,0,0,0,0,0,0,0,0,0,-1,1196,778,0,0
-21,246,0,0,0,0,0,0,0,0,0,-1,1203,778,0,0
-14,246,0,0,0,0,0,0,0,0,0,-1,1210,778,0,0
-7,246,0,0,0,0,0,0,0,0,0,-1,1217,778,0,0
0,246,0,0,0,0,0,0,0,0,0,-1,1224,778,0,0
7,246,0,0,0,0,0,0,0,0,0,-1,1231,778,0,0
14,246,0,0,0,0,0,0,0,0,0,-1,1238,778,0,0
21,246,0,0,0,0,0,0,0,0,0,-1,1245,778,0,0
28,246,0,0,0,0,0,0,0,0,0,-1,1252,778,0,0
35,246,0,0,0,0,0,0,0,0,0,-1,1259,778,0,0
42,246,0,0,0,0,0,0,0,0,0,-1,1266,778,0,0
49,246,0,0,0,0,0,0,0,0,0,-1,1273,778,0,0
56,246,0,0,0,0,0,0,0,0,0,-1,1280,778,0,0
63,246,0,0,0,0,0,0,0,0,0,-1,1287,778,0,0
70,246,0,0,0,0,0,0,0,0,0,-1,1294,778,0,0
77,246,0,0,0,0,0,0,0,0,0,-1,1301,778,0,0
84,246,0,0,0,0,0,0,0,0,0,-1,1308,778,0,0
91,246,0,0,0,0,0,0,0,0,0,-1,1315,778,0,0
98,246,0,0,0,0,0,0,0,0,0,-1,1322,778,0,0
105,246,0,0,0,0,0,0,0,0,0,-1,1329,778,0,0
112,246,0,0,0,0,0,0,0,0,0,-1,1336,778,0,0
119,246,0,0,0,0,0,0,0,0,0,-1,1343,778,0,0
126,246,0,0,0,0,0,0,0,0,0,-1,1350,778,0,0
133,246,0,0,0,0,0,0,0,0,0,-1,1357,778,0,0
140,246,0,0,0,0,0,0,0,0,0,-1,1364,778,0,0
147,246,0,0,0,0,0,0,0,0,0,-1,1371,778,0,0
154,246,0,0,0,0,0,0,0,0,0,-1,1378,778,0,0
161,246,0,0,0,0,0,0,0,0,0,-1,1385,778,0,0
168,246,0,0,0,0,0,0,0,0,0,-1,1392,778,0,0
175,246,0,0,0,0,0,0,0,0,0,-1,1399,778,0,0
182,246,0,0,0,0,0,0,0,0,0,-1,1406,778,0,0
189,246,0,0,0,0,0,0,0,0,0,-1,1413,778,0,0
196,246,0,0,0,0,0,0,0,0,0,-1,1420,778,0,0
203,246,0,0,0,0,0,0,0,0,0,-1,1427,778,0,0
210,246,0,0,0,0,0,0,0,0,0,-1,1434,778,0,0
217,246,0,0,0,0,0,0,0,0,0,-1,1441,778,0,0
224,246,0,0,0,0,0,0,0,0,0,-1,1448,778,0,0
231,246,0,0,0,0,0,0,0,0,0,-1,1455,778,0,0
238,246,0,0,0,0,0,0,0,0,0,-1,1462,778,0,0
245,246,0,0,0,0,0,0,0,0,0,-1,1469,778,0,0
252,246,0,0,0,0,0,0,0,0,0,-1,1476,778,0,0
259,246,0,0,0,0,0,0,0,0,0,-1,1483,778,0,0
266,246,0,0,0,0,0,0,0,0,0,-1,1490,778,0,0
273,246,0,0,0,0,0,0,0,0,0,-1,1497,778,0,0
280,246,0,0,0,0,0,0,0,0,0,-1,1504,778,0,0
287,246,0,0,0,0,0,0,0,0,0,-1,1511,778,0,0
294,246,0,0,0,0,0,0,0,0,0,-1,1518,778,0,0
301,246,0,0,0,0,0,0,0,0,0,-1,1525,778,0,0
308,246,0,0,0,0,0,0,0,0,0,-1,1532,778,0,0
315,246,0,0,0,0,0,0,0,0,0,-1,1539,778,0,0
322,246,0,0,0,0,0,0,0,0,0,-1,1546,778,0,0
329,246,0,0,0,0,0,0,0,0,0,-1,1553,778,0,0
336,246,0,0,0,0,0,0,0,0,0,-1,1560,778,0,0
343,246,0,0,0,0,0,0,0,0,0,-1,1567,778,0,0
350,246,0,0,0,0,0,0,0,0,0,-1,1574,778,0,0
357,246,0,0,0,0,0,0,0,0,0,-1,1581,778,0,0
364,246,0,0,0,0,0,0,0,0,0,-1,1588,778,0,0
371,246,0,0,0,0,0,0,0,0,0,-1,1595,778,0,0
378,246,0,0,0,0,0,0,0,0,0,-1,1602,778,0,0
385,246,0,0,0,0,0,0,0,0,0,-1,1609,778,0,0
392,246,0,0,0,0,0,0,0,0,0,-1,1616,778,0,0
399,246,0,0,0,0,0,0,0,0,0,-1,1623,778,0,0
406,246,0,0,0,0,0,0,0,0,0,-1,1630,778,0,0
413,246,0,0,0,0,0,0,0,0,0,-1,1637,778,0,0
420,246,0,0,0,0,0,0,0,0,0,-1,1644,778,0,0
427,246,0,0,0,0,0,0,0,0,0,-1,1651,778,0,0
434,246,0,0,0,0,0,0,0,0,0,-1,1658,778,0,0
441,246,0,0,0,0,0,0,0,0,0,-1,1665,778,0,0
448,246,0,0,0,0,0,0,0,0,0,-1,1672,778,0,0
455,246,0,0,0,0,0,0,0,0,0,-1,1679,778,0,0
462,246,0,0,0,0,0,0,0,0,0,-1,1686,778,0,0
469,246,0,0,0,0,0,0,0,0,0,-1,1693,778,0,0
476,246,0,0,0,0,0,0,0,0,0,-1,1700,778,0,0
483,246,0,0,0,0,0,0,0,0,0,-1,1707,778,0,0
490,246,0,0,0,0,0,0,0,0,0,-1,1714,778,0,0
497,246,0,0,0,0,0,0,0,0,0,-1,1721,778,0,0
504,246,0,0,0,0,0,0,0,0,0,-1,1728,778,0,0
511,246,0,0,0,0,0,0,0,0,0,-1,1735,778,0,0
518,246,0,0,0,0,0,0,0,0,0,-1,1742,778,0,0
525,246,0,0,0,0,0,0,0,0,0,-1,1749,778,0,0
532,246,0,0,0,0,0,0,0,0,0,-1,1756,778,0,0
539,246,0,0,0,0,0,0,0,0,0,-1,1763,778,0,0
546,246,0,0,0,0,0,0,0,0,0,-1,1770,778,0,0
553,246,0,0,0,0,0,0,0,0,0,-1,1777,778,0,0
560,246,0,0,0,0,0,0,0,0,0,-1,1784,778,0,0
567,246,0,0,0,0,0,0,0,0,0,-1,1791,778,0,0
574,246,0,0,0,0,0,0,0,0,0,-1,1798,778,0,0
581,246,53.1235,2.72644,0.01753,0.00384017,-0.00317719,0.0182314,0.00313874,-0.217287,0.0112549,0.0384905,1805,778,53.1235,-2.72645
588,246,53.1758,2.67737,0.0133463,0.00476003,-0.00139428,0.013567,0.00453929,-0.157012,0.00797453,0.042891,1812,778,53.1757,-2.67735
595,246,53.3304,2.72821,0.00951621,0.00465341,-0.000931395,0.0096885,0.00448112,-0.182914,0.00559889,0.0421303,1819,778,53.3304,-2.72822
602,246,53.2131,2.95331,0.00643017,0.00432776,-0.000736409,0.00666245,0.00409548,-0.305544,0.00388016,0.0461332,1826,778,53.2132,-2.9533
609,246,53.1387,3.14563,0,0,0,0,0,0,0,-1,1833,778,53.1387,-3.14561
616,246,51.0645,3.71759,0,0,0,0,0,0,0,-1,1840,778,51.0645,-3.71758
623,246,52.4462,4.06171,0,0,0,0,0,0,0,-1,1847,778,52.4462,-4.0617
630,246,49.5938,1.99902,0,0,0,0,0,0,0,-1,1854,778,49.5937,-1.999
637,246,29.5785,0.837585,0,0,0,0,0,0,0,-1,1861,778,29.5785,-0.837606
644,246,28.1232,-1.43188,0,0,0,0,0,0,0,-1,1868,778,28.1232,1.43188
651,246,36.776,-2.4104,0,0,0,0,0,0,0,-1,1875,778,36.776,2.4104
658,246,36.6152,-1.89093,-0.0024385,-0.000645613,-0.00157274,0.000268228,-0.00335234,-1.04443,0.00232946,0.0378229,1882,778,36.6153,1.89095
665,246,36.6816,-1.18616,-0.00260584,-0.000895187,-0.00171716,0.000167879,-0.00366891,-1.01646,0.00250378,0.0231128,1889,778,36.6817,1.18614
672,246,36.6516,-0.538452,-0.00227095,-0.000878262,-0.00153863,0.000114266,-0.00326348,-0.997894,0.00221472,0.0208437,1896,778,36.6517,0.538469
679,246,36.6517,0.106689,-0.00171734,-0.000721256,-0.00119178,7.23599e-05,-0.00251095,-0.983318,0.0016986,0.0215205,1903,778,36.6518,-0.106678
686,246,36.6624,0.750488,-0.000718191,-0.000113457,-0.000683882,0.00033192,-0.00116357,-0.993544,0.000906831,0.0234874,1910,778,36.6623,-0.750484
693,246,36.6272,1.35474,0.000596857,0.000658541,-7.43704e-05,0.000708211,0.000547187,-0.981958,0.000428669,0.0186472,1917,778,36.6272,-1.35473
700,246,36.5933,1.99194,0.00189489,0.00121208,0.000476609,0.00213976,0.000967213,0.474598,0.00123729,0.0150215,1924,778,36.5932,-1.99194
707,246,36.5645,2.62952,0.00327683,0.00150241,0.00105023,0.00376444,0.00101481,0.43467,0.00224901,0.0138662,1931,778,36.5644,-2.62951
714,246,36.5265,3.26788,0.00461813,0.00117579,0.0017444,0.00534754,0.00044637,0.396051,0.00342595,0.0138942,1938,778,36.5265,-3.26787
721,246,36.496,3.86285,0.00573856,0.000189351,0.00232557,0.00658427,-0.000656365,0.348791,0.00462386,0.0198571,1945,778,36.496,-3.86288
728,246,36.6604,4.69287,0,0,0,0,0,0,0,-1,1952,778,36.6604,-4.69288
735,246,36.9666,5.64124,0,0,0,0,0,0,0,-1,1959,778,36.9666,-5.64125
742,246,31.7356,6.70013,0,0,0,0,0,0,0,-1,1966,778,31.7356,-6.70011
749,246,32.3883,7.69324,0,0,0,0,0,0,0,-1,1973,778,32.3883,-7.69322
756,246,33.6919,3.45264,0,0,0,0,0,0,0,-1,1980,778,33.6919,-3.45262
763,246,0,0,0,0,0,0,0,0,0,-1,1987,778,0,0
770,246,0,0,0,0,0,0,0,0,0,-1,1994,778,0,0
777,246,0,0,0,0,0,0,0,0,0,-1,2001,778,0,0
784,246,0,0,0,0,0,0,0,0,0,-1,2008,778,0,0
791,246,0,0,0,0,0,0,0,0,0,-1,2015,778,0,0
798,246,0,0,0,0,0,0,0,0,0,-1,2022,778,0,0
805,246,0,0,0,0,0,0,0,0,0,-1,2029,778,0,0
812,246,0,0,0,0,0,0,0,0,0,-1,2036,778,0,0
-700,239,0,0,0,0,0,0,0,0,0,-1,524,785,0,0
-693,239,0,0,0,0,0,0,0,0,0,-1,531,785,0,0
-686,239,0,0,0,0,0,0,0,0,0,-1,538,785,0,0
-679,239,0,0,0,0,0,0,0,0,0,-1,545,785,0,0
-672,239,0,0,0,0,0,0,0,0,0,-1,552,785,0,0
-665,239,0,0,0,0,0,0,0,0,0,-1,559,785,0,0
-658,239,0,0,0,0,0,0,0,0,0,-1,566,785,0,0
-651,239,0,0,0,0,0,0,0,0,0,-1,573,785,0,0
-644,239,0,0,0,0,0,0,0,0,0,-1,580,785,0,0
-637,239,-23.2709,0.465088,0,0,0,0,0,0,0,-1,587,785,-23.271,-0.465116
-630,239,-23.4006,0.956299,0,0,0,0,0,0,0,-1,594,785,-23.4005,-0.956285
-623,239,-30.6328,2.52185,0,0,0,0,0,0,0,-1,601,785,-30.6328,-2.52183
-616,239,-29.1425,1.42139,0,0,0,0,0,0,0,-1,608,785,-29.1425,-1.42139
-609,239,-27.8569,0.322937,0,0,0,0,0,0,0,-1,615,785,-27.857,-0.322963
-602,239,-25.7659,3.79028,0,0,0,0,0,0,0,-1,622,785,-25.7659,-3.79028
-595,239,-25.5477,2.58368,0.0151243,-0.00146736,-0.00714474,0.0177769,-0.00411996,-0.355492,0.0134368,0.0440003,629,785,-25.5477,-2.58368
-588,239,-25.3258,1.46075,0.0110059,-0.000826873,-0.00511844,0.0129127,-0.00273366,-0.356606,0.00964963,0.0199815,636,785,-25.3258,-1.46078
-581,239,-25.4139,0.738953,0.00786168,-0.000533071,-0.00355718,0.00916626,-0.00183765,-0.351514,0.00680658,0.0116728,643,785,-25.4139,-0.738951
-574,239,-25.4144,0.0964966,0.00514628,-0.00051804,-0.00217772,0.00588674,-0.0012585,-0.327752,0.00440434,0.0127718,650,785,-25.4144,-0.0964885
-567,239,-25.4734,-0.50708,0.00277778,-0.00081091,-0.000913586,0.00299697,-0.0010301,-0.235469,0.0024157,0.0161274,657,785,-25.4734,0.507099
-560,239,-25.4943,-1.0647,0.000732662,-0.00142357,0.00011515,0.000738794,-0.0014297,0.0532016,0.00127299,0.0166136,664,785,-25.4943,1.0647
-553,239,-25.4871,-1.65826,-0.00102054,-0.00201214,0.00143115,-1.746e-06,-0.00303094,0.61865,0.00202005,0.0152112,671,785,-25.4871,1.65828
-546,239,-25.5708,-2.26331,-0.00246948,-0.00310546,0.00285032,8.05298e-05,-0.00565547,0.729846,0.00379744,0.0156109,678,785,-25.5708,2.2633
-539,239,-25.6563,-2.87848,-0.00368762,-0.00407802,0.00400299,0.000124929,-0.00789057,0.761036,0.00530251,0.0170962,685,785,-25.6563,2.87851
-532,239,-25.6559,-3.47437,-0.00410448,-0.00510054,0.00476259,0.000186047,-0.00939106,0.733302,0.00632364,0.020929,692,785,-25.6559,3.47437
-525,239,-25.7022,-3.91522,-0.00376457,-0.00569391,0.00529466,0.00065259,-0.0101111,0.695288,0.00696843,0.0336375,699,785,-25.7022,3.91525
-518,239,-25.9796,-4.28113,0,0,0,0,0,0,0,-1,706,785,-25.9796,4.28115
-511,239,-20.9849,-2.09235,0,0,0,0,0,0,0,-1,713,785,-20.9848,2.09234
-504,239,-25.5015,2.00421,0,0,0,0,0,0,0,-1,720,785,-25.5015,-2.00422
-497,239,-38.9866,1.77448,0,0,0,0,0,0,0,-1,727,785,-38.9865,-1.7745
-490,239,-40.2032,0.807068,0,0,0,0,0,0,0,-1,734,785,-40.2032,-0.80709
-483,239,-40.3165,0.667114,-0.0086366,-0.00525157,0.00184428,-0.00444089,-0.00944728,1.15665,0.00545764,0.0446918,741,785,-40.3165,-0.66712
-476,239,-40.1514,0.831482,-0.0100802,-0.00448807,-0.000432301,-0.00445484,-0.0101134,-1.4941,0.00585276,0.0424234,748,785,-40.1513,-0.831497
-469,239,-40.0674,0.912354,-0.0113081,-0.00351556,-0.00320742,-0.00236521,-0.0124585,-1.22643,0.00764028,0.0423091,755,785,-40.0674,-0.912323
-462,239,-40.0804,0.930115,-0.0112802,-0.00242651,-0.00590449,0.000526336,-0.0142331,-1.10707,0.00966893,0.0446976,762,785,-40.0804,-0.93009
-455,239,0,0,0,0,0,0,0,0,0,-1,769,785,0,0
-448,239,0,0,0,0,0,0,0,0,0,-1,776,785,0,0
-441,239,0,0,0,0,0,0,0,0,0,-1,783,785,0,0
-434,239,0,0,0,0,0,0,0,0,0,-1,790,785,0,0
-427,239,0,0,0,0,0,0,0,0,0,-1,797,785,0,0
-420,239,0,0,0,0,0,0,0,0,0,-1,804,785,0,0
-413,239,0,0,0,0,0,0,0,0,0,-1,811,785,0,0
-406,239,0,0,0,0,0,0,0,0,0,-1,818,785,0,0
-399,239,0,0,0,0,0,0,0,0,0,-1,825,785,0,0
-392,239,0,0,0,0,0,0,0,0,0,-1,832,785,0,0
-385,239,0,0,0,0,0,0,0,0,0,-1,839,785,0,0
-378,239,0,0,0,0,0,0,0,0,0,-1,846,785,0,0
-371,239,0,0,0,0,0,0,0,0,0,-1,853,785,0,0
-364,239,0,0,0,0,0,0,0,0,0,-1,860,785,0,0
-357,239,0,0,0,0,0,0,0,0,0,-1,867,785,0,0
-350,239,0,0,0,0,0,0,0,0,0,-1,874,785,0,0
-343,239,0,0,0,0,0,0,0,0,0,-1,881,785,0,0
-336,239,0,0,0,0,0,0,0,0,0,-1,888,785,0,0
-329,239,0,0,0,0,0,0,0,0,0,-1,895,785,0,0
-322,239,0,0,0,0,0,0,0,0,0,-1,902,785,0,0
-315,239,0,0,0,0,0,0,0,0,0,-1,909,785,0,0
-308,239,0,0,0,0,0,0,0,0,0,-1,916,785,0,0
-301,239,0,0,0,0,0,0,0,0,0,-1,923,785,0,0
-294,239,0,0,0,0,0,0,0,0,0,-1,930,785,0,0
-287,239,0,0,0,0,0,0,0,0,0,-1,937,785,0,0
-280,239,0,0,0,0,0,0,0,0,0,-1,944,785,0,0
-273,239,0,0,0,0,0,0,0,0,0,-1,951,785,0,0
-266,239,0,0,0,0,0,0,0,0,0,-1,958,785,0,0
-259,239,0,0,0,0,0,0,0,0,0,-1,965,785,0,0
-252,239,0,0,0,0,0,0,0,0,0,-1,972,785,0,0
-245,239,0,0,0,0,0,0,0,0,0,-1,979,785,0,0
-238,239,0,0,0,0,0,0,0,0,0,-1,986,785,0,0
-231,239,0,0,0,0,0,0,0,0,0,-1,993,785,0,0
-224,239,0,0,0,0,0,0,0,0,0,-1,1000,785,0,0
-217,239,0,0,0,0,0,0,0,0,0,-1,1007,785,0,0
-210,239,0,0,0,0,0,0,0,0,0,-1,1014,785,0,0
-203,239,0,0,0,0,0,0,0,0,0,-1,1021,785,0,0
-196,239,0,0,0,0,0,0,0,0,0,-1,1028,785,0,0
-189,239,0,0,0,0,0,0,0,0,0,-1,1035,785,0,0
-182,239,0,0,0,0,0,0,0,0,0,-1,1042,785,0,0
-175,239,0,0,0,0,0,0,0,0,0,-1,1049,785,0,0
-168,239,0,0,0,0,0,0,0,0,0,-1,1056,785,0,0
-161,239,0,0,0,0,0,0,0,0,0,-1,1063,785,0,0
-154,239,0,0,0,0,0,0,0,0,0,-1,1070,785,0,0
-147,239,0,0,0,0,0,0,0,0,0,-1,1077,785,0,0
-140,239,0,0,0,0,0,0,0,0,0,-1,1084,785,0,0
-133,239,0,0,0,0,0,0,0,0,0,-1,1091,785,0,0
-126,239,0,0,0,0,0,0,0,0,0,-1,1098,785,0,0
-119,239,0,0,0,0,0,0,0,0,0,-1,1105,785,0,0
-112,239,0,0,0,0,0,0,0,0,0,-1,1112,785,0,0
-105,239,0,0,0,0,0,0,0,0,0,-1,1119,785,0,0
-98,239,0,0,0,0,0,0,0,0,0,-1,1126,785,0,0
-91,239,0,0,0,0,0,0,0,0,0,-1,1133,785,0,0
-84,239,0,0,0,0,0,0,0,0,0,-1,1140,785,0,0
-77,239,0,0,0,0,0,0,0,0,0,-1,1147,785,0,0
-70,239,0,0,0,0,0,0,0,0,0,-1,1154,785,0,0
-63,239,0,0,0,0,0,0,0,0,0,-1,1161,785,0,0
-56,239,0,0,0,0,0,0,0,0,0,-1,1168,785,0,0
-49,239,0,0,0,0,0,0,0,0,0,-1,1175,785,0,0
-42,239,0,0,0,0,0,0,0,0,0,-1,1182,785,0,0
-35,239,0,0,0,0,0,0,0,0,0,-1,1189,785,0,0
-28,239,0,0,0,0,0,0,0,0,0,-1,1196,785,0,0
-21,239,0,0,0,0,0,0,0,0,0,-1,1203,785,0,0
-14,239,0,0,0,0,0,0,0,0,0,-1,1210,785,0,0
-7,239,0,0,0,0,0,0,0,0,0,-1,1217,785,0,0
0,239,0,0,0,0,0,0,0,0,0,-1,1224,785,0,0
7,239,0,0,0,0,0,0,0,0,0,-1,1231,785,0,0
14,239,0,0,0,0,0,0,0,0,0,-1,1238,785,0,0
21,239,0,0,0,0,0,0,0,0,0,-1,1245,785,0,0
28,239,0,0,0,0,0,0,0,0,0,-1,1252,785,0,0
35,239,0,0,0,0,0,0,0,0,0,-1,1259,785,0,0
42,239,0,0,0,0,0,0,0,0,0,-1,1266,785,0,0
49,239,0,0,0,0,0,0,0,0,0,-1,1273,785,0,0
56,239,0,0,0,0,0,0,0,0,0,-1,1280,785,0,0
63,239,0,0,0,0,0,0,0,0,0,-1,1287,785,0,0
70,239,0,0,0,0,0,0,0,0,0,-1,1294,785,0,0
77,239,0,0,0,0,0,0,0,0,0,-1,1301,785,0,0
84,239,0,0,0,0,0,0,0,0,0,-1,1308,785,0,0
91,239,0,0,0,0,0,0,0,0,0,-1,1315,785,0,0
98,239,0,0,0,0,0,0,0,0,0,-1,1322,785,0,0
105,239,0,0,0,0,0,0,0,0,0,-1,1329,785,0,0
112,239,0,0,0,0,0,0,0,0,0,-1,1336,785,0,0
119,239,0,0,0,0,0,0,0,0,0,-1,1343,785,0,0
126,239,0,0,0,0,0,0,0,0,0,-1,1350,785,0,0
133,239,0,0,0,0,0,0,0,0,0,-1,1357,785,0,0
140,239,0,0,0,0,0,0,0,0,0,-1,1364,785,0,0
147,239,0,0,0,0,0,0,0,0,0,-1,1371,785,0,0
154,239,0,0,0,0,0,0,0,0,0,-1,1378,785,0,0
161,239,0,0,0,0,0,0,0,0,0,-1,1385,785,0,0
168,239,0,0,0,0,0,0,0,0,0,-1,1392,785,0,0
175,239,0,0,0,0,0,0,0,0,0,-1,1399,785,0,0
182,239,0,0,0,0,0,0,0,0,0,-1,1406,785,0,0
189,239,0,0,0,0,0,0,0,0,0,-1,1413,785,0,0
196,239,0,0,0,0,0,0,0,0,0,-1,1420,785,0,0
203,239,0,0,0,0,0,0,0,0,0,-1,1427,785,0,0
210,239,0,0,0,0,0,0,0,0,0,-1,1434,785,0,0
217,239,0,0,0,0,0,0,0,0,0,-1,1441,785,0,0
224,239,0,0,0,0,0,0,0,0,0,-1,1448,785,0,0
231,239,0,0,0,0,0,0,0,0,0,-1,1455,785,0,0
238,239,0,0,0,0,0,0,0,0,0,-1,1462,785,0,0
245,239,0,0,0,0,0,0,0,0,0,-1,1469,785,0,0
252,239,0,0,0,0,0,0,0,0,0,-1,1476,785,0,0
259,239,0,0,0,0,0,0,0,0,0,-1,1483,785,0,0
266,239,0,0,0,0,0,0,0,0,0,-1,1490,785,0,0
273,239,0,0,0,0,0,0,0,0,0,-1,1497,785,0,0
280,239,0,0,0,0,0,0,0,0,0,-1,1504,785,0,0
287,239,0,0,0,0,0,0,0,0,0,-1,1511,785,0,0
294,239,0,0,0,0,0,0,0,0,0,-1,1518,785,0,0
301,239,0,0,0,0,0,0,0,0,0,-1,1525,785,0,0
308,239,0,0,0,0,0,0,0,0,0,-1,1532,785,0,0
315,239,0,0,0,0,0,0,0,0,0,-1,1539,785,0,0
322,239,0,0,0,0,0,0,0,0,0,-1,1546,785,0,0
329,239,0,0,0,0,0,0,0,0,0,-1,1553,785,0,0
336,239,0,0,0,0,0,0,0,0,0,-1,1560,785,0,0
343,239,0,0,0,0,0,0,0,0,0,-1,1567,785,0,0
350,239,0,0,0,0,0,0,0,0,0,-1,1574,785,0,0
357,239,0,0,0,0,0,0,0,0,0,-1,1581,785,0,0
364,239,0,0,0,0,0,0,0,0,0,-1,1588,785,0,0
371,239,0,0,0,0,0,0,0,0,0,-1,1595,785,0,0
378,239,0,0,0,0,0,0,0,0,0,-1,1602,785,0,0
385,239,0,0,0,0,0,0,0,0,0,-1,1609,785,0,0
392,239,0,0,0,0,0,0,0,0,0,-1,1616,785,0,0
399,239,0,0,0,0,0,0,0,0,0,-1,1623,785,0,0
406,239,0,0,0,0,0,0,0,0,0,-1,1630,785,0,0
413,239,0,0,0,0,0,0,0,0,0,-1,1637,785,0,0
420,239,0,0,0,0,0,0,0,0,0,-1,1644,785,0,0
427,239,0,0,0,0,0,0,0,0,0,-1,1651,785,0,0
434,239,0,0,0,0,0,0,0,0,0,-1,1658,785,0,0
441,239,0,0,0,0,0,0,0,0,0,-1,1665,785,0,0
448,239,0,0,0,0,0,0,0,0,0,-1,1672,785,0,0
455,239,0,0,0,0,0,0,0,0,0,-1,1679,785,0,0
462,239,0,0,0,0,0,0,0,0,0,-1,1686,785,0,0
469,239,0,0,0,0,0,0,0,0,0,-1,1693,785,0,0
476,239,0,0,0,0,0,0,0,0,0,-1,1700,785,0,0
483,239,0,0,0,0,0,0,0,0,0,-1,1707,785,0,0
490,239,0,0,0,0,0,0,0,0,0,-1,1714,785,0,0
497,239,0,0,0,0,0,0,0,0,0,-1,1721,785,0,0
504,239,0,0,0,0,0,0,0,0,0,-1,1728,785,0,0
511,239,0,0,0,0,0,0,0,0,0,-1,1735,785,0,0
518,239,0,0,0,0,0,0,0,0,0,-1,1742,785,0,0
525,239,0,0,0,0,0,0,0,0,0,-1,1749,785,0,0
532,239,0,0,0,0,0,0,0,0,0,-1,1756,785,0,0
539,239,0,0,0,0,0,0,0,0,0,-1,1763,785,0,0
546,239,0,0,0,0,0,0,0,0,0,-1,1770,785,0,0
553,239,0,0,0,0,0,0,0,0,0,-1,1777,785,0,0
560,239,0,0,0,0,0,0,0,0,0,-1,1784,785,0,0
567,239,0,0,0,0,0,0,0,0,0,-1,1791,785,0,0
574,239,0,0,0,0,0,0,0,0,0,-1,1798,785,0,0
581,239,53.072,2.82147,0.0129293,0.00273027,-0.00361575,0.0140811,0.00157848,-0.308384,0.00890796,0.035408,1805,785,53.072,-2.82147
588,239,53.1346,2.7467,0.0102808,0.00502909,-0.00124243,0.0105599,0.00474999,-0.220971,0.00610697,0.0382531,1812,785,53.1346,-2.74671
595,239,53.2261,2.64032,0.00727341,0.00520336,-0.000748781,0.00751586,0.0049609,-0.313143,0.00441277,0.0342237,1819,785,53.2261,-2.64032
602,239,53.3175,2.69696,0.00476218,0.00487982,-0.000634338,0.00545806,0.00418394,-0.831631,0.00329711,0.0372991,1826,785,53.3175,-2.69699
609,239,53.2802,2.92712,0,0,0,0,0,0,0,-1,1833,785,53.2802,-2.9271
616,239,52.567,3.50177,0,0,0,0,0,0,0,-1,1840,785,52.567,-3.50174
623,239,52.6694,3.71838,0,0,0,0,0,0,0,-1,1847,785,52.6694,-3.71841
630,239,52.7719,3.93506,0,0,0,0,0,0,0,-1,1854,785,52.7718,-3.93508
637,239,39.5542,2.54114,0,0,0,0,0,0,0,-1,1861,785,39.5543,-2.54114
644,239,18.3466,0.735413,0,0,0,0,0,0,0,-1,1868,785,18.3465,-0.735414
651,239,34.2471,-2.15778,0,0,0,0,0,0,0,-1,1875,785,34.2471,2.1578
658,239,37.0212,-1.99042,0,0,0,0,0,0,0,-1,1882,785,37.0213,1.99044
665,239,37.3177,-1.14355,-0.00327073,-0.000816239,-0.00187732,0.000199386,-0.00428636,-1.07489,0.0029263,0.0226314,1889,785,37.3178,1.14355
672,239,37.2754,-0.516479,-0.00306395,-0.000938366,-0.00184616,0.000129064,-0.00413138,-1.04657,0.00279827,0.0198446,1896,785,37.2754,0.516497
679,239,37.2791,0.171631,-0.00265793,-0.000970325,-0.0016147,7.75314e-06,-0.003636,-1.02617,0.00242659,0.0220232,1903,785,37.2791,-0.17164
686,239,37.2783,0.843201,-0.00168674,-0.000483017,-0.00116889,0.000229858,-0.00239962,-1.02315,0.00168161,0.0227149,1910,785,37.2783,-0.843199
693,239,37.2759,1.37848,-0.000300194,0.000257573,-0.000551173,0.000596402,-0.000639022,-1.01961,0.000713414,0.0153196,1917,785,37.2759,-1.37849
700,239,37.2365,2.01593,0.000981134,0.000771501,2.37761e-05,0.000983797,0.000768838,0.111531,0.000597248,0.0118194,1924,785,37.2364,-2.01593
707,239,37.191,2.64984,0.00228699,0.000975673,0.000616241,0.00253113,0.000731531,0.377209,0.00150409,0.0112904,1931,785,37.191,-2.64984
714,239,37.1604,3.26276,0.00341792,0.000437944,0.00127538,0.00388922,-3.33551e-05,0.353973,0.002604,0.0102445,1938,785,37.1604,-3.26274
721,239,37.1115,3.90308,0.00425947,-0.000686356,0.0018464,0.00487273,-0.00129962,0.320676,0.00375738,0.0233917,1945,785,37.1115,-3.90311
728,239,37.0146,4.5506,0,0,0,0,0,0,0,-1,1952,785,37.0147,-4.5506
735,239,37.2275,6.09485,0,0,0,0,0,0,0,-1,1959,785,37.2276,-6.09486
742,239,32.4141,7.6665,0,0,0,0,0,0,0,-1,1966,785,32.4141,-7.6665
749,239,32.1489,3.4411,0,0,0,0,0,0,0,-1,1973,785,32.149,-3.44109
756,239,32.9064,3.6687,0,0,0,0,0,0,0,-1,1980,785,32.9063,-3.66873
763,239,0,0,0,0,0,0,0,0,0,-1,1987,785,0,0
770,239,0,0,0,0,0,0,0,0,0,-1,1994,785,0,0
777,239,0,0,0,0,0,0,0,0,0,-1,2001,785,0,0
784,239,0,0,0,0,0,0,0,0,0,-1,2008,785,0,0
791,239,0,0,0,0,0,0,0,0,0,-1,2015,785,0,0
798,239,0,0,0,0,0,0,0,0,0,-1,2022,785,0,0
805,239,0,0,0,0,0,0,0,0,0,-1,2029,785,0,0
812,239,0,0,0,0,0,0,0,0,0,-1,2036,785,0,0
-700,232,0,0,0,0,0,0,0,0,0,-1,524,792,0,0
-693,232,0,0,0,0,0,0,0,0,0,-1,531,792,0,0
-686,232,0,0,0,0,0,0,0,0,0,-1,538,792,0,0
-679,232,0,0,0,0,0,0,0,0,0,-1,545,792,0,0
-672,232,0,0,0,0,0,0,0,0,0,-1,552,792,0,0
-665,232,0,0,0,0,0,0,0,0,0,-1,559,792,0,0
-658,232,0,0,0,0,0,0,0,0,0,-1,566,792,0,0
-651,232,0,0,0,0,0,0,0,0,0,-1,573,792,0,0
-644,232,-31.7343,6.23914,0,0,0,0,0,0,0,-1,580,792,-31.7343,-6.23911
-637,232,-30.1556,5.06824,0,0,0,0,0,0,0,-1,587,792,-30.1556,-5.06823
-630,232,-32.2345,1.80212,0,0,0,0,0,0,0,-1,594,792,-32.2345,-1.80211
-623,232,-31.5665,1.05115,0,0,0,0,0,0,0,-1,601,792,-31.5664,-1.05112
-616,232,-30.6812,0.432861,0,0,0,0,0,0,0,-1,608,792,-30.6812,-0.432881
-609,232,-29.7142,-0.478943,0,0,0,0,0,0,0,-1,615,792,-29.7142,0.478965
-602,232,-26.0381,3.61774,0,0,0,0,0,0,0,-1,622,792,-26.0381,-3.61773
-595,232,-25.9715,2.51312,0.0116015,0.000459959,-0.00636387,0.0144884,-0.00242695,-0.425877,0.0105613,0.0376682,629,792,-25.9715,-2.51313
-588,232,-25.9871,1.41907,0.00876464,0.000459785,-0.00464467,0.0108424,-0.001618,-0.420647,0.00782359,0.0139075,636,792,-25.9871,-1.41907
-581,232,-26.0153,0.729309,0.00643664,0.000277895,-0.00324897,0.00783369,-0.00111916,-0.406096,0.0056327,0.00901607,643,792,-26.0153,-0.729285
-574,232,-26.0219,0.143921,0.0042478,-8.55414e-05,-0.00195505,0.00499947,-0.000837205,-0.36705,0.00364424,0.0091458,650,792,-26.0218,-0.143907
-567,232,-26.0878,-0.461365,0.00219394,-0.00067302,-0.000730294,0.00236925,-0.000848327,-0.235592,0.0019256,0.0112823,657,792,-26.0879,0.46135
-560,232,-26.1165,-1.03607,0.000281752,-0.00151548,0.000187269,0.000301058,-0.00153478,0.102729,0.00113691,0.0151101,664,792,-26.1164,1.03607
-553,232,-26.128,-1.64081,-0.00141192,-0.00210636,0.00156631,-0.000154807,-0.00336347,0.676322,0.00219253,0.0147844,671,792,-26.128,1.64082
-546,232,-26.1871,-2.2569,-0.00279744,-0.00320524,0.00305202,5.74845e-05,-0.00606016,0.752043,0.0040594,0.0217688,678,792,-26.1871,2.2569
-539,232,-26.3159,-2.7948,-0.00391361,-0.00411525,0.00415943,0.000146227,-0.00817508,0.773281,0.00549945,0.033277,685,792,-26.3158,2.79482
-532,232,-26.4443,-3.35339,-0.00433105,-0.00504995,0.00489168,0.000214372,-0.00959537,0.748723,0.00646956,0.0355148,692,792,-26.4443,3.3534
-525,232,-26.4781,-3.95575,0,0,0,0,0,0,0,-1,699,792,-26.4781,3.95572
-518,232,-20.8098,-3.08154,0,0,0,0,0,0,0,-1,706,792,-20.8098,3.08155
-511,232,-21.6708,-0.962708,0,0,0,0,0,0,0,-1,713,792,-21.6708,0.962731
-504,232,-34.2155,0.346985,0,0,0,0,0,0,0,-1,720,792,-34.2155,-0.346955
-497,232,-40.1215,0.699768,0,0,0,0,0,0,0,-1,727,792,-40.1215,-0.699775
-490,232,-40.1058,0.768433,-0.0054836,-0.0056521,0.00492114,-0.000645982,-0.0104897,0.776839,0.00678807,0.0473288,734,792,-40.1058,-0.768434
-483,232,-40.1991,0.7771,-0.00577748,-0.00500558,0.00372552,-0.00164608,-0.00913699,0.837012,0.00562352,0.0441552,741,792,-40.1991,-0.777109
-476,232,-40.0884,0.84082,-0.00569528,-0.00393416,0.00184092,-0.00277404,-0.0068554,1.00848,0.00398188,0.0375969,748,792,-40.0883,-0.84084
-469,232,-40.0222,0.957825,-0.00475124,-0.00269834,-0.000372219,-0.00263293,-0.00481664,-1.39686,0.00278492,0.0343215,755,792,-40.0222,-0.957799
-462,232,0,0,0,0,0,0,0,0,0,-1,762,792,0,0
-455,232,0,0,0,0,0,0,0,0,0,-1,769,792,0,0
-448,232,0,0,0,0,0,0,0,0,0,-1,776,792,0,0
-441,232,0,0,0,0,0,0,0,0,0,-1,783,792,0,0
-434,232,0,0,0,0,0,0,0,0,0,-1,790,792,0,0
-427,232,0,0,0,0,0,0,0,0,0,-1,797,792,0,0
-420,232,0,0,0,0,0,0,0,0,0,-1,804,792,0,0
-413,232,0,0,0,0,0,0,0,0,0,-1,811,792,0,0
-406,232,0,0,0,0,0,0,0,0,0,-1,818,792,0,0
-399,232,0,0,0,0,0,0,0,0,0,-1,825,792,0,0
-392,232,0,0,0,0,0,0,0,0,0,-1,832,792,0,0
-385,232,0,0,0,0,0,0,0,0,0,-1,839,792,0,0
-378,232,0,0,0,0,0,0,0,0,0,-1,846,792,0,0
-371,232,0,0,0,0,0,0,0,0,0,-1,853,792,0,0
-364,232,0,0,0,0,0,0,0,0,0,-1,860,792,0,0
-357,232,0,0,0,0,0,0,0,0,0,-1,867,792,0,0
-350,232,0,0,0,0,0,0,0,0,0,-1,874,792,0,0
-343,232,0,0,0,0,0,0,0,0,0,-1,881,792,0,0
-336,232,0,0,0,0,0,0,0,0,0,-1,888,792,0,0
-329,232,0,0,0,0,0,0,0,0,0,-1,895,792,0,0
-322,232,0,0,0,0,0,0,0,0,0,-1,902,792,0,0
-315,232,0,0,0,0,0,0,0,0,0,-1,909,792,0,0
-308,232,0,0,0,0,0,0,0,0,0,-1,916,792,0,0
-301,232,0,0,0,0,0,0,0,0,0,-1,923,792,0,0
-294,232,0,0,0,0,0,0,0,0,0,-1,930,792,0,0
-287,232,0,0,0,0,0,0,0,0,0,-1,937,792,0,0
-280,232,0,0,0,0,0,0,0,0,0,-1,944,792,0,0
-273,232,0,0,0,0,0,0,0,0,0,-1,951,792,0,0
-266,232,0,0,0,0,0,0,0,0,0,-1,958,792,0,0
-259,232,0,0,0,0,0,0,0,0,0,-1,965,792,0,0
-252,232,0,0,0,0,0,0,0,0,0,-1,972,792,0,0
-245,232,0,0,0,0,0,0,0,0,0,-1,979,792,0,0
-238,232,0,0,0,0,0,0,0,0,0,-1,986,792,0,0
-231,232,0,0,0,0,0,0,0,0,0,-1,993,792,0,0
-224,232,0,0,0,0,0,0,0,0,0,-1,1000,792,0,0
-217,232,0,0,0,0,0,0,0,0,0,-1,1007,792,0,0
-210,232,0,0,0,0,0,0,0,0,0,-1,1014,792,0,0
-203,232,0,0,0,0,0,0,0,0,0,-1,1021,792,0,0
-196,232,0,0,0,0,0,0,0,0,0,-1,1028,792,0,0
-189,232,0,0,0,0,0,0,0,0,0,-1,1035,792,0,0
-182,232,0,0,0,0,0,0,0,0,0,-1,1042,792,0,0
-175,232,0,0,0,0,0,0,0,0,0,-1,1049,792,0,0
-168,232,0,0,0,0,0,0,0,0,0,-1,1056,792,0,0
-161,232,0,0,0,0,0,0,0,0,0,-1,1063,792,0,0
-154,232,0,0,0,0,0,0,0,0,0,-1,1070,792,0,0
-147,232,0,0,0,0,0,0,0,0,0,-1,1077,792,0,0
-140,232,0,0,0,0,0,0,0,0,0,-1,1084,792,0,0
-133,232,0,0,0,0,0,0,0,0,0,-1,1091,792,0,0
-126,232,0,0,0,0,0,0,0,0,0,-1,1098,792,0,0
-119,232,0,0,0,0,0,0,0,0,0,-1,1105,792,0,0
-112,232,0,0,0,0,0,0,0,0,0,-1,1112,792,0,0
-105,232,0,0,0,0,0,0,0,0,0,-1,1119,792,0,0
-98,232,0,0,0,0,0,0,0,0,0,-1,1126,792,0,0
-91,232,0,0,0,0,0,0,0,0,0,-1,1133,792,0,0
-84,232,0,0,0,0,0,0,0,0,0,-1,1140,792,0,0
-77,232,0,0,0,0,0,0,0,0,0,-1,1147,792,0,0
-70,232,0,0,0,0,0,0,0,0,0,-1,1154,792,0,0
-63,232,0,0,0,0,0,0,0,0,0,-1,1161,792,0,0
-56,232,0,0,0,0,0,0,0,0,0,-1,1168,792,0,0
-49,232,0,0,0,0,0,0,0,0,0,-1,1175,792,0,0
-42,232,0,0,0,0,0,0,0,0,0,-1,1182,792,0,0
-35,232,0,0,0,0,0,0,0,0,0,-1,1189,792,0,0
-28,232,0,0,0,0,0,0,0,0,0,-1,1196,792,0,0
-21,232,0,0,0,0,0,0,0,0,0,-1,1203,792,0,0
-14,232,0,0,0,0,0,0,0,0,0,-1,1210,792,0,0
-7,232,0,0,0,0,0,0,0,0,0,-1,1217,792,0,0
0,232,0,0,0,0,0,0,0,0,0,-1,1224,792,0,0
7,232,0,0,0,0,0,0,0,0,0,-1,1231,792,0,0
14,232,0,0,0,0,0,0,0,0,0,-1,1238,792,0,0
21,232,0,0,0,0,0,0,0,0,0,-1,1245,792,0,0
28,232,0,0,0,0,0,0,0,0,0,-1,1252,792,0,0
35,232,0,0,0,0,0,0,0,0,0,-1,1259,792,0,0
42,232,0,0,0,0,0,0,0,0,0,-1,1266,792,0,0
49,232,0,0,0,0,0,0,0,0,0,-1,1273,792,0,0
56,232,0,0,0,0,0,0,0,0,0,-1,1280,792,0,0
63,232,0,0,0,0,0,0,0,0,0,-1,1287,792,0,0
70,232,0,0,0,0,0,0,0,0,0,-1,1294,792,0,0
77,232,0,0,0,0,0,0,0,0,0,-1,1301,792,0,0
84,232,0,0,0,0,0,0,0,0,0,-1,1308,792,0,0
91,232,0,0,0,0,0,0,0,0,0,-1,1315,792,0,0
98,232,0,0,0,0,0,0,0,0,0,-1,1322,792,0,0
105,232,0,0,0,0,0,0,0,0,0,-1,1329,792,0,0
112,232,0,0,0,0,0,0,0,0,0,-1,1336,792,0,0
119,232,0,0,0,0,0,0,0,0,0,-1,1343,792,0,0
126,232,0,0,0,0,0,0,0,0,0,-1,1350,792,0,0
133,232,0,0,0,0,0,0,0,0,0,-1,1357,792,0,0
140,232,0,0,0,0,0,0,0,0,0,-1,1364,792,0,0
147,232,0,0,0,0,0,0,0,0,0,-1,1371,792,0,0
154,232,0,0,0,0,0,0,0,0,0,-1,1378,792,0,0
161,232,0,0,0,0,0,0,0,0,0,-1,1385,792,0,0
168,232,0,0,0,0,0,0,0,0,0,-1,1392,792,0,0
175,232,0,0,0,0,0,0,0,0,0,-1,1399,792,0,0
182,232,0,0,0,0,0,0,0,0,0,-1,1406,792,0,0
189,232,0,0,0,0,0,0,0,0,0,-1,1413,792,0,0
196,232,0,0,0,0,0,0,0,0,0,-1,1420,792,0,0
203,232,0,0,0,0,0,0,0,0,0,-1,1427,792,0,0
210,232,0,0,0,0,0,0,0,0,0,-1,1434,792,0,0
217,232,0,0,0,0,0,0,0,0,0,-1,1441,792,0,0
224,232,0,0,0,0,0,0,0,0,0,-1,1448,792,0,0
231,232,0,0,0,0,0,0,0,0,0,-1,1455,792,0,0
238,232,0,0,0,0,0,0,0,0,0,-1,1462,792,0,0
245,232,0,0,0,0,0,0,0,0,0,-1,1469,792,0,0
252,232,0,0,0,0,0,0,0,0,0,-1,1476,792,0,0
259,232,0,0,0,0,0,0,0,0,0,-1,1483,792,0,0
266,232,0,0,0,0,0,0,0,0,0,-1,1490,792,0,0
273,232,0,0,0,0,0,0,0,0,0,-1,1497,792,0,0
280,232,0,0,0,0,0,0,0,0,0,-1,1504,792,0,0
287,232,0,0,0,0,0,0,0,0,0,-1,1511,792,0,0
294,232,0,0,0,0,0,0,0,0,0,-1,1518,792,0,0
301,232,0,0,0,0,0,0,0,0,0,-1,1525,792,0,0
308,232,0,0,0,0,0,0,0,0,0,-1,1532,792,0,0
315,232,0,0,0,0,0,0,0,0,0,-1,1539,792,0,0
322,232,0,0,0,0,0,0,0,0,0,-1,1546,792,0,0
329,232,0,0,0,0,0,0,0,0,0,-1,1553,792,0,0
336,232,0,0,0,0,0,0,0,0,0,-1,1560,792,0,0
343,232,0,0,0,0,0,0,0,0,0,-1,1567,792,0,0
350,232,0,0,0,0,0,0,0,0,0,-1,1574,792,0,0
357,232,0,0,0,0,0,0,0,0,0,-1,1581,792,0,0
364,232,0,0,0,0,0,0,0,0,0,-1,1588,792,0,0
371,232,0,0,0,0,0,0,0,0,0,-1,1595,792,0,0
378,232,0,0,0,0,0,0,0,0,0,-1,1602,792,0,0
385,232,0,0,0,0,0,0,0,0,0,-1,1609,792,0,0
392,232,0,0,0,0,0,0,0,0,0,-1,1616,792,0,0
399,232,0,0,0,0,0,0,0,0,0,-1,1623,792,0,0
406,232,0,0,0,0,0,0,0,0,0,-1,1630,792,0,0
413,232,0,0,0,0,0,0,0,0,0,-1,1637,792,0,0
420,232,0,0,0,0,0,0,0,0,0,-1,1644,792,0,0
427,232,0,0,0,0,0,0,0,0,0,-1,1651,792,0,0
434,232,0,0,0,0,0,0,0,0,0,-1,1658,792,0,0
441,232,0,0,0,0,0,0,0,0,0,-1,1665,792,0,0
448,232,0,0,0,0,0,0,0,0,0,-1,1672,792,0,0
455,232,0,0,0,0,0,0,0,0,0,-1,1679,792,0,0
462,232,0,0,0,0,0,0,0,0,0,-1,1686,792,0,0
469,232,0,0,0,0,0,0,0,0,0,-1,1693,792,0,0
476,232,0,0,0,0,0,0,0,0,0,-1,1700,792,0,0
483,232,0,0,0,0,0,0,0,0,0,-1,1707,792,0,0
490,232,0,0,0,0,0,0,0,0,0,-1,1714,792,0,0
497,232,0,0,0,0,0,0,0,0,0,-1,1721,792,0,0
504,232,0,0,0,0,0,0,0,0,0,-1,1728,792,0,0
511,232,0,0,0,0,0,0,0,0,0,-1,1735,792,0,0
518,232,0,0,0,0,0,0,0,0,0,-1,1742,792,0,0
525,232,0,0,0,0,0,0,0,0,0,-1,1749,792,0,0
532,232,0,0,0,0,0,0,0,0,0,-1,1756,792,0,0
539,232,0,0,0,0,0,0,0,0,0,-1,1763,792,0,0
546,232,0,0,0,0,0,0,0,0,0,-1,1770,792,0,0
553,232,0,0,0,0,0,0,0,0,0,-1,1777,792,0,0
560,232,0,0,0,0,0,0,0,0,0,-1,1784,792,0,0
567,232,0,0,0,0,0,0,0,0,0,-1,1791,792,0,0
574,232,0,0,0,0,0,0,0,0,0,-1,1798,792,0,0
581,232,0,0,0,0,0,0,0,0,0,-1,1805,792,0,0
588,232,53.1399,2.72156,0.00783032,0.004526,-0.00123743,0.00824235,0.00411398,-0.321423,0.00475872,0.0390568,1812,792,53.1399,-2.72157
595,232,53.1182,2.67798,0.0054235,0.00524821,-0.000604667,0.00594684,0.00472487,-0.713428,0.00362652,0.0350382,1819,792,53.1181,-2.678
602,232,53.1503,2.62994,0.00332254,0.00514935,-0.000520996,0.00528749,0.0031844,-1.31162,0.00307394,0.0323794,1826,792,53.1502,-2.62996
609,232,53.1848,2.7243,0.00170317,0.00472659,-0.000468579,0.00479755,0.00163221,-1.42051,0.00281662,0.0418465,1833,792,53.1848,-2.72428
616,232,52.8256,3.13068,0,0,0,0,0,0,0,-1,1840,792,52.8256,-3.1307
623,232,52.913,3.33539,0,0,0,0,0,0,0,-1,1847,792,52.913,-3.33541
630,232,53.4663,3.00507,0,0,0,0,0,0,0,-1,1854,792,53.4663,-3.00508
637,232,47.0471,4.04309,0,0,0,0,0,0,0,-1,1861,792,47.0471,-4.04309
644,232,30.7756,4.24139,0,0,0,0,0,0,0,-1,1868,792,30.7757,-4.24141
651,232,31.6797,-0.564087,0,0,0,0,0,0,0,-1,1875,792,31.6797,0.564059
658,232,38.2024,-1.73138,0,0,0,0,0,0,0,-1,1882,792,38.2025,1.7314
665,232,38.0248,-1.10327,-0.00386886,-0.000742186,-0.00208645,0.000301636,-0.00491268,-1.10692,0.00338016,0.0278771,1889,792,38.0247,1.10329
672,232,37.9026,-0.462158,-0.0037712,-0.000973201,-0.00215603,0.000197948,-0.00494235,-1.07319,0.00336283,0.0297571,1896,792,37.9026,0.462178
679,232,37.9116,0.207764,-0.00354651,-0.00119585,-0.00201938,-3.46713e-05,-0.00470769,-1.04895,0.00312697,0.0195783,1903,792,37.9117,-0.207751
686,232,37.8959,0.879028,-0.00264851,-0.000847709,-0.00164647,0.000128478,-0.0036247,-1.03562,0.00246041,0.0182177,1910,792,37.8958,-0.879057
693,232,37.8785,1.43097,-0.00119852,-0.00013678,-0.001042,0.000501793,-0.00183709,-1.021,0.00142182,0.0109606,1917,792,37.8785,-1.43098
700,232,37.8477,2.04645,8.63683e-05,0.000397653,-0.000449137,0.000717351,-0.00023333,-0.952191,0.000572097,0.0131316,1924,792,37.8477,-2.04647
707,232,37.8241,2.67975,0.00136469,0.000574029,0.000180079,0.00140377,0.000534947,0.213715,0.000818074,0.0134349,1931,792,37.8241,-2.67975
714,232,37.813,3.29401,0.00238863,-4.77008e-05,0.000847815,0.00265462,-0.00031369,0.30401,0.00188304,0.0136775,1938,792,37.813,-3.29401
721,232,37.7753,3.9093,0.00312047,-0.00113487,0.00146178,0.00357423,-0.00158864,0.300986,0.00305338,0.0224448,1945,792,37.7752,-3.90927
728,232,37.7214,4.59436,0,0,0,0,0,0,0,-1,1952,792,37.7214,-4.59437
735,232,37.4669,5.34619,0,0,0,0,0,0,0,-1,1959,792,37.4669,-5.3462
742,232,25.6461,6.00684,0,0,0,0,0,0,0,-1,1966,792,25.6461,-6.00684
749,232,31.2874,3.74713,0,0,0,0,0,0,0,-1,1973,792,31.2874,-3.74713
756,232,32.1207,3.896,0,0,0,0,0,0,0,-1,1980,792,32.1207,-3.89597
763,232,32.7255,4.05878,0,0,0,0,0,0,0,-1,1987,792,32.7255,-4.05881
770,232,0,0,0,0,0,0,0,0,0,-1,1994,792,0,0
777,232,0,0,0,0,0,0,0,0,0,-1,2001,792,0,0
784,232,0,0,0,0,0,0,0,0,0,-1,2008,792,0,0
791,232,0,0,0,0,0,0,0,0,0,-1,2015,792,0,0
798,232,0,0,0,0,0,0,0,0,0,-1,2022,792,0,0
805,232,0,0,0,0,0,0,0,0,0,-1,2029,792,0,0
812,232,0,0,0,0,0,0,0,0,0,-1,2036,792,0,0
-700,225,0,0,0,0,0,0,0,0,0,-1,524,799,0,0
-693,225,0,0,0,0,0,0,0,0,0,-1,531,799,0,0
-686,225,0,0,0,0,0,0,0,0,0,-1,538,799,0,0
-679,225,0,0,0,0,0,0,0,0,0,-1,545,799,0,0
-672,225,0,0,0,0,0,0,0,0,0,-1,552,799,0,0
-665,225,0,0,0,0,0,0,0,0,0,-1,559,799,0,0
-658,225,0,0,0,0,0,0,0,0,0,-1,566,799,0,0
-651,225,0,0,0,0,0,0,0,0,0,-1,573,799,0,0
-644,225,-31.6232,6.26855,0,0,0,0,0,0,0,-1,580,799,-31.6231,-6.26854
-637,225,-31.4901,6.06842,0,0,0,0,0,0,0,-1,587,799,-31.4901,-6.06839
-630,225,-29.8912,5.02606,0,0,0,0,0,0,0,-1,594,799,-29.8912,-5.02606
-623,225,-32.8276,-0.00836182,0,0,0,0,0,0,0,-1,601,799,-32.8276,0.00837668
-616,225,-32.0569,-0.549255,0,0,0,0,0,0,0,-1,608,799,-32.0569,0.549265
-609,225,-26.2969,3.82703,0,0,0,0,0,0,0,-1,615,799,-26.2969,-3.827
-602,225,-26.7084,2.91125,0,0,0,0,0,0,0,-1,622,799,-26.7084,-2.91128
-595,225,-26.6696,2.10498,0.00844986,0.00177096,-0.00533603,0.0114053,-0.00118445,-0.5058,0.0080275,0.0318871,629,799,-26.6696,-2.10499
-588,225,-26.629,1.33057,0.00657702,0.00134349,-0.00392304,0.00867595,-0.000755432,-0.491273,0.00605151,0.0138832,636,799,-26.629,-1.33056
-581,225,-26.6321,0.745544,0.00488914,0.000816698,-0.00270173,0.00623605,-0.000530207,-0.462474,0.0043449,0.0113873,643,799,-26.6321,-0.745533
-574,225,-26.6375,0.171204,0.00315702,0.000157085,-0.00151563,0.00378943,-0.000475325,-0.395296,0.00269872,0.00919112,650,799,-26.6375,-0.17119
-567,225,-26.6804,-0.440796,0.0014107,-0.000648788,-0.0004,0.00148566,-0.000723749,-0.185253,0.00130064,0.0126379,657,799,-26.6804,0.440769
-560,225,-26.718,-1.03033,-0.000393276,-0.00165369,0.000307854,-0.000322102,-0.00172486,0.227202,0.001059,0.0137391,664,799,-26.7179,1.03033
-553,225,-26.7364,-1.63165,-0.00198127,-0.0021761,0.00164895,-0.000426866,-0.00373051,0.755894,0.00235763,0.0122505,671,799,-26.7364,1.63166
-546,225,-26.7834,-2.21844,-0.00313445,-0.00317159,0.00307161,-8.13557e-05,-0.00622469,0.782375,0.00412294,0.0210441,678,799,-26.7834,2.21843
-539,225,-26.828,-2.7699,-0.00408049,-0.00397504,0.00406281,3.53875e-05,-0.00809093,0.791887,0.00540578,0.0470958,685,799,-26.828,2.76987
-532,225,-27.0277,-3.26611,-0.00448184,-0.00481134,0.00473957,9.58424e-05,-0.00938902,0.768025,0.00629154,0.0481411,692,799,-27.0277,3.2661
-525,225,-27.3947,-3.52777,0,0,0,0,0,0,0,-1,699,799,-27.3947,3.52775
-518,225,-21.963,0.171326,0,0,0,0,0,0,0,-1,706,799,-21.9629,-0.171319
-511,225,-33.0002,0.660217,0,0,0,0,0,0,0,-1,713,799,-33.0002,-0.660239
-504,225,-38.6578,1.10956,0,0,0,0,0,0,0,-1,720,799,-38.6578,-1.10956
-497,225,-39.8476,0.464172,-0.00449431,-0.00598297,0.00650387,0.00130768,-0.011785,0.728424,0.00832683,0.0445479,727,799,-39.8476,-0.464187
-490,225,-40.1248,0.814758,-0.00400734,-0.00563719,0.0060932,0.00132519,-0.0109697,0.718921,0.00779252,0.0403948,734,799,-40.1248,-0.81478
-483,225,-40.0598,0.851807,-0.0032999,-0.00490376,0.00517487,0.0011348,-0.00933846,0.708527,0.00663633,0.0352152,741,799,-40.0597,-0.851779
-476,225,-40.0004,0.863159,-0.00168354,-0.00366726,0.00357002,0.00102984,-0.00638065,0.6499,0.00463534,0.0330755,748,799,-40.0004,-0.863165
-469,225,-39.9668,0.933411,0.00138596,-0.00240491,0.00169054,0.00203032,-0.00304928,0.364161,0.00295231,0.0358124,755,799,-39.9668,-0.93342
-462,225,0,0,0,0,0,0,0,0,0,-1,762,799,0,0
-455,225,0,0,0,0,0,0,0,0,0,-1,769,799,0,0
-448,225,0,0,0,0,0,0,0,0,0,-1,776,799,0,0
-441,225,0,0,0,0,0,0,0,0,0,-1,783,799,0,0
-434,225,0,0,0,0,0,0,0,0,0,-1,790,799,0,0
-427,225,0,0,0,0,0,0,0,0,0,-1,797,799,0,0
-420,225,0,0,0,0,0,0,0,0,0,-1,804,799,0,0
-413,225,0,0,0,0,0,0,0,0,0,-1,811,799,0,0
-406,225,0,0,0,0,0,0,0,0,0,-1,818,799,0,0
-399,225,0,0,0,0,0,0,0,0,0,-1,825,799,0,0
-392,225,0,0,0,0,0,0,0,0,0,-1,832,799,0,0
-385,225,0,0,0,0,0,0,0,0,0,-1,839,799,0,0
-378,225,0,0,0,0,0,0,0,0,0,-1,846,799,0,0
-371,225,0,0,0,0,0,0,0,0,0,-1,853,799,0,0
-364,225,0,0,0,0,0,0,0,0,0,-1,860,799,0,0
-357,225,0,0,0,0,0,0,0,0,0,-1,867,799,0,0
-350,225,0,0,0,0,0,0,0,0,0,-1,874,799,0,0
-343,225,0,0,0,0,0,0,0,0,0,-1,881,799,0,0
-336,225,0,0,0,0,0,0,0,0,0,-1,888,799,0,0
-329,225,0,0,0,0,0,0,0,0,0,-1,895,799,0,0
-322,225,0,0,0,0,0,0,0,0,0,-1,902,799,0,0
-315,225,0,0,0,0,0,0,0,0,0,-1,909,799,0,0
-308,225,0,0,0,0,0,0,0,0,0,-1,916,799,0,0
-301,225,0,0,0,0,0,0,0,0,0,-1,923,799,0,0
-294,225,0,0,0,0,0,0,0,0,0,-1,930,799,0,0
-287,225,0,0,0,0,0,0,0,0,0,-1,937,799,0,0
-280,225,0,0,0,0,0,0,0,0,0,-1,944,799,0,0
-273,225,0,0,0,0,0,0,0,0,0,-1,951,799,0,0
-266,225,0,0,0,0,0,0,0,0,0,-1,958,799,0,0
-259,225,0,0,0,0,0,0,0,0,0,-1,965,799,0,0
-252,225,0,0,0,0,0,0,0,0,0,-1,972,799,0,0
-245,225,0,0,0,0,0,0,0,0,0,-1,979,799,0,0
-238,225,0,0,0,0,0,0,0,0,0,-1,986,799,0,0
-231,225,0,0,0,0,0,0,0,0,0,-1,993,799,0,0
-224,225,0,0,0,0,0,0,0,0,0,-1,1000,799,0,0
-217,225,0,0,0,0,0,0,0,0,0,-1,1007,799,0,0
-210,225,0,0,0,0,0,0,0,0,0,-1,1014,799,0,0
-203,225,0,0,0,0,0,0,0,0,0,-1,1021,799,0,0
-196,225,0,0,0,0,0,0,0,0,0,-1,1028,799,0,0
-189,225,0,0,0,0,0,0,0,0,0,-1,1035,799,0,0
-182,225,0,0,0,0,0,0,0,0,0,-1,1042,799,0,0
-175,225,0,0,0,0,0,0,0,0,0,-1,1049,799,0,0
-168,225,0,0,0,0,0,0,0,0,0,-1,1056,799,0,0
-161,225,0,0,0,0,0,0,0,0,0,-1,1063,799,0,0
-154,225,0,0,0,0,0,0,0,0,0,-1,1070,799,0,0
-147,225,0,0,0,0,0,0,0,0,0,-1,1077,799,0,0
-140,225,0,0,0,0,0,0,0,0,0,-1,1084,799,0,0
-133,225,0,0,0,0,0,0,0,0,0,-1,1091,799,0,0
-126,225,0,0,0,0,0,0,0,0,0,-1,1098,799,0,0
-119,225,0,0,0,0,0,0,0,0,0,-1,1105,799,0,0
-112,225,0,0,0,0,0,0,0,0,0,-1,1112,799,0,0
-105,225,0,0,0,0,0,0,0,0,0,-1,1119,799,0,0
-98,225,0,0,0,0,0,0,0,0,0,-1,1126,799,0,0
-91,225,0,0,0,0,0,0,0,0,0,-1,1133,799,0,0
-84,225,0,0,0,0,0,0,0,0,0,-1,1140,799,0,0
-77,225,0,0,0,0,0,0,0,0,0,-1,1147,799,0,0
-70,225,0,0,0,0,0,0,0,0,0,-1,1154,799,0,0
-63,225,0,0,0,0,0,0,0,0,0,-1,1161,799,0,0
-56,225,0,0,0,0,0,0,0,0,0,-1,1168,799,0,0
-49,225,0,0,0,0,0,0,0,0,0,-1,1175,799,0,0
-42,225,0,0,0,0,0,0,0,0,0,-1,1182,799,0,0
-35,225,0,0,0,0,0,0,0,0,0,-1,1189,799,0,0
-28,225,0,0,0,0,0,0,0,0,0,-1,1196,799,0,0
-21,225,0,0,0,0,0,0,0,0,0,-1,1203,799,0,0
-14,225,0,0,0,0,0,0,0,0,0,-1,1210,799,0,0
-7,225,0,0,0,0,0,0,0,0,0,-1,1217,799,0,0
0,225,0,0,0,0,0,0,0,0,0,-1,1224,799,0,0
7,225,0,0,0,0,0,0,0,0,0,-1,1231,799,0,0
14,225,0,0,0,0,0,0,0,0,0,-1,1238,799,0,0
21,225,0,0,0,0,0,0,0,0,0,-1,1245,799,0,0
28,225,0,0,0,0,0,0,0,0,0,-1,1252,799,0,0
35,225,0,0,0,0,0,0,0,0,0,-1,1259,799,0,0
42,225,0,0,0,0,0,0,0,0,0,-1,1266,799,0,0
49,225,0,0,0,0,0,0,0,0,0,-1,1273,799,0,0
56,225,0,0,0,0,0,0,0,0,0,-1,1280,799,0,0
63,225,0,0,0,0,0,0,0,0,0,-1,1287,799,0,0
70,225,0,0,0,0,0,0,0,0,0,-1,1294,799,0,0
77,225,0,0,0,0,0,0,0,0,0,-1,1301,799,0,0
84,225,0,0,0,0,0,0,0,0,0,-1,1308,799,0,0
91,225,0,0,0,0,0,0,0,0,0,-1,1315,799,0,0
98,225,0,0,0,0,0,0,0,0,0,-1,1322,799,0,0
105,225,0,0,0,0,0,0,0,0,0,-1,1329,799,0,0
112,225,0,0,0,0,0,0,0,0,0,-1,1336,799,0,0
119,225,0,0,0,0,0,0,0,0,0,-1,1343,799,0,0
126,225,0,0,0,0,0,0,0,0,0,-1,1350,799,0,0
133,225,0,0,0,0,0,0,0,0,0,-1,1357,799,0,0
140,225,0,0,0,0,0,0,0,0,0,-1,1364,799,0,0
147,225,0,0,0,0,0,0,0,0,0,-1,1371,799,0,0
154,225,0,0,0,0,0,0,0,0,0,-1,1378,799,0,0
161,225,0,0,0,0,0,0,0,0,0,-1,1385,799,0,0
168,225,0,0,0,0,0,0,0,0,0,-1,1392,799,0,0
175,225,0,0,0,0,0,0,0,0,0,-1,1399,799,0,0
182,225,0,0,0,0,0,0,0,0,0,-1,1406,799,0,0
189,225,0,0,0,0,0,0,0,0,0,-1,1413,799,0,0
196,225,0,0,0,0,0,0,0,0,0,-1,1420,799,0,0
203,225,0,0,0,0,0,0,0,0,0,-1,1427,799,0,0
210,225,0,0,0,0,0,0,0,0,0,-1,1434,799,0,0
217,225,0,0,0,0,0,0,0,0,0,-1,1441,799,0,0
224,225,0,0,0,0,0,0,0,0,0,-1,1448,799,0,0
231,225,0,0,0,0,0,0,0,0,0,-1,1455,799,0,0
238,225,0,0,0,0,0,0,0,0,0,-1,1462,799,0,0
245,225,0,0,0,0,0,0,0,0,0,-1,1469,799,0,0
252,225,0,0,0,0,0,0,0,0,0,-1,1476,799,0,0
259,225,0,0,0,0,0,0,0,0,0,-1,1483,799,0,0
266,225,0,0,0,0,0,0,0,0,0,-1,1490,799,0,0
273,225,0,0,0,0,0,0,0,0,0,-1,1497,799,0,0
280,225,0,0,0,0,0,0,0,0,0,-1,1504,799,0,0
287,225,0,0,0,0,0,0,0,0,0,-1,1511,799,0,0
294,225,0,0,0,0,0,0,0,0,0,-1,1518,799,0,0
301,225,0,0,0,0,0,0,0,0,0,-1,1525,799,0,0
308,225,0,0,0,0,0,0,0,0,0,-1,1532,799,0,0
315,225,0,0,0,0,0,0,0,0,0,-1,1539,799,0,0
322,225,0,0,0,0,0,0,0,0,0,-1,1546,799,0,0
329,225,0,0,0,0,0,0,0,0,0,-1,1553,799,0,0
336,225,0,0,0,0,0,0,0,0,0,-1,1560,799,0,0
343,225,0,0,0,0,0,0,0,0,0,-1,1567,799,0,0
350,225,0,0,0,0,0,0,0,0,0,-1,1574,799,0,0
357,225,0,0,0,0,0,0,0,0,0,-1,1581,799,0,0
364,225,0,0,0,0,0,0,0,0,0,-1,1588,799,0,0
371,225,0,0,0,0,0,0,0,0,0,-1,1595,799,0,0
378,225,0,0,0,0,0,0,0,0,0,-1,1602,799,0,0
385,225,0,0,0,0,0,0,0,0,0,-1,1609,799,0,0
392,225,0,0,0,0,0,0,0,0,0,-1,1616,799,0,0
399,225,0,0,0,0,0,0,0,0,0,-1,1623,799,0,0
406,225,0,0,0,0,0,0,0,0,0,-1,1630,799,0,0
413,225,0,0,0,0,0,0,0,0,0,-1,1637,799,0,0
420,225,0,0,0,0,0,0,0,0,0,-1,1644,799,0,0
427,225,0,0,0,0,0,0,0,0,0,-1,1651,799,0,0
434,225,0,0,0,0,0,0,0,0,0,-1,1658,799,0,0
441,225,0,0,0,0,0,0,0,0,0,-1,1665,799,0,0
448,225,0,0,0,0,0,0,0,0,0,-1,1672,799,0,0
455,225,0,0,0,0,0,0,0,0,0,-1,1679,799,0,0
462,225,0,0,0,0,0,0,0,0,0,-1,1686,799,0,0
469,225,0,0,0,0,0,0,0,0,0,-1,1693,799,0,0
476,225,0,0,0,0,0,0,0,0,0,-1,1700,799,0,0
483,225,0,0,0,0,0,0,0,0,0,-1,1707,799,0,0
490,225,0,0,0,0,0,0,0,0,0,-1,1714,799,0,0
497,225,0,0,0,0,0,0,0,0,0,-1,1721,799,0,0
504,225,0,0,0,0,0,0,0,0,0,-1,1728,799,0,0
511,225,0,0,0,0,0,0,0,0,0,-1,1735,799,0,0
518,225,0,0,0,0,0,0,0,0,0,-1,1742,799,0,0
525,225,0,0,0,0,0,0,0,0,0,-1,1749,799,0,0
532,225,0,0,0,0,0,0,0,0,0,-1,1756,799,0,0
539,225,0,0,0,0,0,0,0,0,0,-1,1763,799,0,0
546,225,0,0,0,0,0,0,0,0,0,-1,1770,799,0,0
553,225,0,0,0,0,0,0,0,0,0,-1,1777,799,0,0
560,225,0,0,0,0,0,0,0,0,0,-1,1784,799,0,0
567,225,0,0,0,0,0,0,0,0,0,-1,1791,799,0,0
574,225,0,0,0,0,0,0,0,0,0,-1,1798,799,0,0
581,225,0,0,0,0,0,0,0,0,0,-1,1805,799,0,0
588,225,53.2756,2.67181,0.00603442,0.00323395,-0.0013656,0.00659008,0.00267829,-0.386439,0.00382694,0.0368229,1812,799,53.2757,-2.67179
595,225,53.1017,2.72284,0.00419101,0.00453666,-0.000538116,0.00492902,0.00379865,-0.940778,0.00298153,0.0344595,1819,799,53.1016,-2.72286
602,225,53.1514,2.54779,0.00239273,0.00484654,-0.000395457,0.00490869,0.00233058,-1.41489,0.00283524,0.0332829,1826,799,53.1514,-2.54777
609,225,53.1963,2.65033,0.000907343,0.00458169,-0.000382005,0.00462098,0.000868047,-1.46829,0.00283594,0.0324888,1833,799,53.1962,-2.65032
616,225,53.1433,2.7475,-0.000397795,0.00370322,-0.000617116,0.00379407,-0.000488645,-1.42463,0.002707,0.0370627,1840,799,53.1433,-2.74751
623,225,53.162,2.89154,-0.00165555,0.00264783,-0.000918617,0.00283572,-0.00184344,-1.36905,0.00272169,0.0405025,1847,799,53.162,-2.89156
630,225,53.4189,2.74487,-0.00256204,0.00189653,-0.00108092,0.00214477,-0.00281028,-1.34506,0.00286938,0.0461343,1854,799,53.419,-2.74486
637,225,53.6956,2.48468,0,0,0,0,0,0,0,-1,1861,799,53.6955,-2.48467
644,225,42.0298,2.46411,0,0,0,0,0,0,0,-1,1868,799,42.0298,-2.4641
651,225,27.9657,0.579529,0,0,0,0,0,0,0,-1,1875,799,27.9657,-0.579541
658,225,39.4882,-1.21759,0,0,0,0,0,0,0,-1,1882,799,39.4881,1.21757
665,225,38.9099,-0.845459,-0.00446316,-0.00083588,-0.00214848,0.000162109,-0.00546115,-1.13594,0.00369599,0.0325192,1889,799,38.91,0.845477
672,225,38.603,-0.302979,-0.00448559,-0.0010899,-0.00229421,6.63847e-05,-0.00564188,-1.10395,0.00378357,0.0317205,1896,799,38.603,0.302958
679,225,38.5483,0.287598,-0.00449646,-0.00142065,-0.00226512,-0.000220686,-0.00569642,-1.08363,0.00372623,0.021499,1903,799,38.5483,-0.287593
686,225,38.5284,0.866821,-0.00370288,-0.00119496,-0.0020238,-6.81283e-05,-0.00482972,-1.06275,0.00319734,0.0111119,1910,799,38.5284,-0.86683
693,225,38.5032,1.45215,-0.00216143,-0.000519338,-0.00149112,0.000361833,-0.0030426,-1.03706,0.00215914,0.0106509,1917,799,38.5031,-1.45212
700,225,38.4688,2.06775,-0.000759206,5.57304e-05,-0.000907614,0.000643146,-0.00134662,-0.996386,0.00117248,0.0118846,1924,799,38.4688,-2.06776
707,225,38.4427,2.70764,0.000760066,0.00026397,-0.0002359,0.000854329,0.000169707,-0.380151,0.000522257,0.0123871,1931,799,38.4428,-2.70763
714,225,38.4335,3.32843,0.00197836,-0.000342756,0.00047141,0.00207044,-0.000434845,0.192917,0.00154577,0.0141404,1938,799,38.4335,-3.32841
721,225,38.4382,3.94409,0.00303337,-0.00129446,0.00116018,0.00332476,-0.00158586,0.246073,0.00289379,0.0178453,1945,799,38.4382,-3.94412
728,225,38.3436,4.44086,0.00361149,-0.00335156,0.00169458,0.004002,-0.00374207,0.22649,0.00447188,0.038293,1952,799,38.3436,-4.44088
735,225,38.6255,5.44257,0,0,0,0,0,0,0,-1,1959,799,38.6255,-5.44258
742,225,29.0922,3.2132,0,0,0,0,0,0,0,-1,1966,799,29.0921,-3.21322
749,225,29.9529,4.45538,0,0,0,0,0,0,0,-1,1973,799,29.9529,-4.45537
756,225,31.8855,3.83466,0,0,0,0,0,0,0,-1,1980,799,31.8855,-3.83463
763,225,29.4901,5.14417,0,0,0,0,0,0,0,-1,1987,799,29.4902,-5.14415
770,225,0,0,0,0,0,0,0,0,0,-1,1994,799,0,0
777,225,0,0,0,0,0,0,0,0,0,-1,2001,799,0,0
784,225,0,0,0,0,0,0,0,0,0,-1,2008,799,0,0
791,225,0,0,0,0,0,0,0,0,0,-1,2015,799,0,0
798,225,0,0,0,0,0,0,0,0,0,-1,2022,799,0,0
805,225,0,0,0,0,0,0,0,0,0,-1,2029,799,0,0
812,225,0,0,0,0,0,0,0,0,0,-1,2036,799,0,0
-700,218,0,0,0,0,0,0,0,0,0,-1,524,806,0,0
-693,218,0,0,0,0,0,0,0,0,0,-1,531,806,0,0
-686,218,0,0,0,0,0,0,0,0,0,-1,538,806,0,0
-679,218,0,0,0,0,0,0,0,0,0,-1,545,806,0,0
-672,218,0,0,0,0,0,0,0,0,0,-1,552,806,0,0
-665,218,0,0,0,0,0,0,0,0,0,-1,559,806,0,0
-658,218,0,0,0,0,0,0,0,0,0,-1,566,806,0,0
-651,218,-31.2516,6.36798,0,0,0,0,0,0,0,-1,573,806,-31.2517,-6.36799
-644,218,-31.3896,6.17743,0,0,0,0,0,0,0,-1,580,806,-31.3897,-6.17743
-637,218,-31.3395,5.94513,0,0,0,0,0,0,0,-1,587,806,-31.3395,-5.94511
-630,218,-29.7347,3.06238,0,0,0,0,0,0,0,-1,594,806,-29.7347,-3.06238
-623,218,-29.4469,4.34161,0,0,0,0,0,0,0,-1,601,806,-29.4469,-4.34164
-616,218,-20.0258,1.87585,0,0,0,0,0,0,0,-1,608,806,-20.0258,-1.87585
-609,218,-26.9171,3.25427,0,0,0,0,0,0,0,-1,615,806,-26.9171,-3.25426
-602,218,-27.078,2.59814,0.00615788,0.0031048,-0.00552744,0.0103657,-0.00110302,-0.650669,0.00730595,0.0417558,622,806,-27.078,-2.59817
-595,218,-27.2453,1.97101,0.00565982,0.00256674,-0.00431834,0.0087002,-0.000473644,-0.613447,0.00596429,0.018889,629,806,-27.2453,-1.97103
-588,218,-27.2355,1.35046,0.00462788,0.00196944,-0.00304814,0.00662401,-2.66915e-05,-0.579791,0.00442493,0.0119694,636,806,-27.2355,-1.35043
-581,218,-27.2388,0.778381,0.00354237,0.00130279,-0.00187868,0.00460967,0.000235491,-0.516642,0.0029977,0.0113516,643,806,-27.2389,-0.778409
-574,218,-27.2563,0.195862,0.00229852,0.000541417,-0.000717379,0.0025542,0.000285735,-0.342374,0.001616,0.0102289,650,806,-27.2563,-0.195836
-567,218,-27.259,-0.414734,0.000912601,-0.000272025,0.000313267,0.000990341,-0.000349765,0.243245,0.000802634,0.0176084,657,806,-27.259,0.414714
-560,218,-27.2944,-0.977417,-0.000743904,-0.00125676,0.00077114,-0.000187675,-0.00181299,0.624883,0.00115121,0.018408,664,806,-27.2944,0.977445
-553,218,-27.2778,-1.66339,-0.00219154,-0.00165633,0.00192473,1.93088e-05,-0.00386718,0.854472,0.00258458,0.0180567,671,806,-27.2778,1.66339
-546,218,-27.4322,-2.37988,-0.00314359,-0.0025126,0.00313096,0.000318723,-0.00597491,0.835612,0.00409365,0.0223748,678,806,-27.4322,2.37989
-539,218,-27.4688,-2.96271,-0.00397791,-0.00325302,0.00391898,0.000320239,-0.00755116,0.831509,0.00514418,0.0356801,685,806,-27.4688,2.96269
-532,218,-27.4167,-3.33221,0,0,0,0,0,0,0,-1,692,806,-27.4167,3.33221
-525,218,-27.7809,-3.31488,0,0,0,0,0,0,0,-1,699,806,-27.7809,3.31485
-518,218,-23.61,2.54181,0,0,0,0,0,0,0,-1,706,806,-23.61,-2.54183
-511,218,-39.5214,0.34436,0,0,0,0,0,0,0,-1,713,806,-39.5213,-0.344353
-504,218,-39.3917,0.764099,-0.00473271,-0.00568047,0.00652831,0.0013389,-0.0117521,0.749168,0.00831702,0.0464325,720,806,-39.3917,-0.764126
-497,218,-39.9268,0.906616,-0.00396374,-0.00570406,0.00670358,0.00192592,-0.0115937,0.720857,0.00844464,0.048475,727,806,-39.9268,-0.906608
-490,218,-39.9897,0.901367,-0.0028868,-0.00542286,0.00645158,0.00242018,-0.0107298,0.688362,0.00808167,0.0363751,734,806,-39.9897,-0.901369
-483,218,-40.0319,0.875122,-0.00112781,-0.00475576,0.0055274,0.00287566,-0.00875924,0.626846,0.00699785,0.0341786,741,806,-40.0319,-0.875115
-476,218,-39.9374,1.07605,0.00205665,-0.00368872,0.0037467,0.0039052,-0.00553727,0.458339,0.00547869,0.0358756,748,806,-39.9374,-1.07606
-469,218,0,0,0,0,0,0,0,0,0,-1,755,806,0,0
-462,218,0,0,0,0,0,0,0,0,0,-1,762,806,0,0
-455,218,0,0,0,0,0,0,0,0,0,-1,769,806,0,0
-448,218,0,0,0,0,0,0,0,0,0,-1,776,806,0,0
-441,218,0,0,0,0,0,0,0,0,0,-1,783,806,0,0
-434,218,0,0,0,0,0,0,0,0,0,-1,790,806,0,0
-427,218,0,0,0,0,0,0,0,0,0,-1,797,806,0,0
-420,218,0,0,0,0,0,0,0,0,0,-1,804,806,0,0
-413,218,0,0,0,0,0,0,0,0,0,-1,811,806,0,0
-406,218,0,0,0,0,0,0,0,0,0,-1,818,806,0,0
-399,218,0,0,0,0,0,0,0,0,0,-1,825,806,0,0
-392,218,0,0,0,0,0,0,0,0,0,-1,832,806,0,0
-385,218,0,0,0,0,0,0,0,0,0,-1,839,806,0,0
-378,218,0,0,0,0,0,0,0,0,0,-1,846,806,0,0
-371,218,0,0,0,0,0,0,0,0,0,-1,853,806,0,0
-364,218,0,0,0,0,0,0,0,0,0,-1,860,806,0,0
-357,218,0,0,0,0,0,0,0,0,0,-1,867,806,0,0
-350,218,0,0,0,0,0,0,0,0,0,-1,874,806,0,0
-343,218,0,0,0,0,0,0,0,0,0,-1,881,806,0,0
-336,218,0,0,0,0,0,0,0,0,0,-1,888,806,0,0
-329,218,0,0,0,0,0,0,0,0,0,-1,895,806,0,0
-322,218,0,0,0,0,0,0,0,0,0,-1,902,806,0,0
-315,218,0,0,0,0,0,0,0,0,0,-1,909,806,0,0
-308,218,0,0,0,0,0,0,0,0,0,-1,916,806,0,0
-301,218,0,0,0,0,0,0,0,0,0,-1,923,806,0,0
-294,218,0,0,0,0,0,0,0,0,0,-1,930,806,0,0
-287,218,0,0,0,0,0,0,0,0,0,-1,937,806,0,0
-280,218,0,0,0,0,0,0,0,0,0,-1,944,806,0,0
-273,218,0,0,0,0,0,0,0,0,0,-1,951,806,0,0
-266,218,0,0,0,0,0,0,0,0,0,-1,958,806,0,0
-259,218,0,0,0,0,0,0,0,0,0,-1,965,806,0,0
-252,218,0,0,0,0,0,0,0,0,0,-1,972,806,0,0
-245,218,0,0,0,0,0,0,0,0,0,-1,979,806,0,0
-238,218,0,0,0,0,0,0,0,0,0,-1,986,806,0,0
-231,218,0,0,0,0,0,0,0,0,0,-1,993,806,0,0
-224,218,0,0,0,0,0,0,0,0,0,-1,1000,806,0,0
-217,218,0,0,0,0,0,0,0,0,0,-1,1007,806,0,0
-210,218,0,0,0,0,0,0,0,0,0,-1,1014,806,0,0
-203,218,0,0,0,0,0,0,0,0,0,-1,1021,806,0,0
-196,218,0,0,0,0,0,0,0,0,0,-1,1028,806,0,0
-189,218,0,0,0,0,0,0,0,0,0,-1,1035,806,0,0
-182,218,0,0,0,0,0,0,0,0,0,-1,1042,806,0,0
-175,218,0,0,0,0,0,0,0,0,0,-1,1049,806,0,0
-168,218,0,0,0,0,0,0,0,0,0,-1,1056,806,0,0
-161,218,0,0,0,0,0,0,0,0,0,-1,1063,806,0,0
-154,218,0,0,0,0,0,0,0,0,0,-1,1070,806,0,0
-147,218,0,0,0,0,0,0,0,0,0,-1,1077,806,0,0
-140,218,0,0,0,0,0,0,0,0,0,-1,1084,806,0,0
-133,218,0,0,0,0,0,0,0,0,0,-1,1091,806,0,0
-126,218,0,0,0,0,0,0,0,0,0,-1,1098,806,0,0
-119,218,0,0,0,0,0,0,0,0,0,-1,1105,806,0,0
-112,218,0,0,0,0,0,0,0,0,0,-1,1112,806,0,0
-105,218,0,0,0,0,0,0,0,0,0,-1,1119,806,0,0
-98,218,0,0,0,0,0,0,0,0,0,-1,1126,806,0,0
-91,218,0,0,0,0,0,0,0,0,0,-1,1133,806,0,0
-84,218,0,0,0,0,0,0,0,0,0,-1,1140,806,0,0
-77,218,0,0,0,0,0,0,0,0,0,-1,1147,806,0,0
-70,218,0,0,0,0,0,0,0,0,0,-1,1154,806,0,0
-63,218,0,0,0,0,0,0,0,0,0,-1,1161,806,0,0
-56,218,0,0,0,0,0,0,0,0,0,-1,1168,806,0,0
-49,218,0,0,0,0,0,0,0,0,0,-1,1175,806,0,0
-42,218,0,0,0,0,0,0,0,0,0,-1,1182,806,0,0
-35,218,0,0,0,0,0,0,0,0,0,-1,1189,806,0,0
-28,218,0,0,0,0,0,0,0,0,0,-1,1196,806,0,0
-21,218,0,0,0,0,0,0,0,0,0,-1,1203,806,0,0
-14,218,0,0,0,0,0,0,0,0,0,-1,1210,806,0,0
-7,218,0,0,0,0,0,0,0,0,0,-1,1217,806,0,0
0,218,0,0,0,0,0,0,0,0,0,-1,1224,806,0,0
7,218,0,0,0,0,0,0,0,0,0,-1,1231,806,0,0
14,218,0,0,0,0,0,0,0,0,0,-1,1238,806,0,0
21,218,0,0,0,0,0,0,0,0,0,-1,1245,806,0,0
28,218,0,0,0,0,0,0,0,0,0,-1,1252,806,0,0
35,218,0,0,0,0,0,0,0,0,0,-1,1259,806,0,0
42,218,0,0,0,0,0,0,0,0,0,-1,1266,806,0,0
49,218,0,0,0,0,0,0,0,0,0,-1,1273,806,0,0
56,218,0,0,0,0,0,0,0,0,0,-1,1280,806,0,0
63,218,0,0,0,0,0,0,0,0,0,-1,1287,806,0,0
70,218,0,0,0,0,0,0,0,0,0,-1,1294,806,0,0
77,218,0,0,0,0,0,0,0,0,0,-1,1301,806,0,0
84,218,0,0,0,0,0,0,0,0,0,-1,1308,806,0,0
91,218,0,0,0,0,0,0,0,0,0,-1,1315,806,0,0
98,218,0,0,0,0,0,0,0,0,0,-1,1322,806,0,0
105,218,0,0,0,0,0,0,0,0,0,-1,1329,806,0,0
112,218,0,0,0,0,0,0,0,0,0,-1,1336,806,0,0
119,218,0,0,0,0,0,0,0,0,0,-1,1343,806,0,0
126,218,0,0,0,0,0,0,0,0,0,-1,1350,806,0,0
133,218,0,0,0,0,0,0,0,0,0,-1,1357,806,0,0
140,218,0,0,0,0,0,0,0,0,0,-1,1364,806,0,0
147,218,0,0,0,0,0,0,0,0,0,-1,1371,806,0,0
154,218,0,0,0,0,0,0,0,0,0,-1,1378,806,0,0
161,218,0,0,0,0,0,0,0,0,0,-1,1385,806,0,0
168,218,0,0,0,0,0,0,0,0,0,-1,1392,806,0,0
175,218,0,0,0,0,0,0,0,0,0,-1,1399,806,0,0
182,218,0,0,0,0,0,0,0,0,0,-1,1406,806,0,0
189,218,0,0,0,0,0,0,0,0,0,-1,1413,806,0,0
196,218,0,0,0,0,0,0,0,0,0,-1,1420,806,0,0
203,218,0,0,0,0,0,0,0,0,0,-1,1427,806,0,0
210,218,0,0,0,0,0,0,0,0,0,-1,1434,806,0,0
217,218,0,0,0,0,0,0,0,0,0,-1,1441,806,0,0
224,218,0,0,0,0,0,0,0,0,0,-1,1448,806,0,0
231,218,0,0,0,0,0,0,0,0,0,-1,1455,806,0,0
238,218,0,0,0,0,0,0,0,0,0,-1,1462,806,0,0
245,218,0,0,0,0,0,0,0,0,0,-1,1469,806,0,0
252,218,0,0,0,0,0,0,0,0,0,-1,1476,806,0,0
259,218,0,0,0,0,0,0,0,0,0,-1,1483,806,0,0
266,218,0,0,0,0,0,0,0,0,0,-1,1490,806,0,0
273,218,0,0,0,0,0,0,0,0,0,-1,1497,806,0,0
280,218,0,0,0,0,0,0,0,0,0,-1,1504,806,0,0
287,218,0,0,0,0,0,0,0,0,0,-1,1511,806,0,0
294,218,0,0,0,0,0,0,0,0,0,-1,1518,806,0,0
301,218,0,0,0,0,0,0,0,0,0,-1,1525,806,0,0
308,218,0,0,0,0,0,0,0,0,0,-1,1532,806,0,0
315,218,0,0,0,0,0,0,0,0,0,-1,1539,806,0,0
322,218,0,0,0,0,0,0,0,0,0,-1,1546,806,0,0
329,218,0,0,0,0,0,0,0,0,0,-1,1553,806,0,0
336,218,0,0,0,0,0,0,0,0,0,-1,1560,806,0,0
343,218,0,0,0,0,0,0,0,0,0,-1,1567,806,0,0
350,218,0,0,0,0,0,0,0,0,0,-1,1574,806,0,0
357,218,0,0,0,0,0,0,0,0,0,-1,1581,806,0,0
364,218,0,0,0,0,0,0,0,0,0,-1,1588,806,0,0
371,218,0,0,0,0,0,0,0,0,0,-1,1595,806,0,0
378,218,0,0,0,0,0,0,0,0,0,-1,1602,806,0,0
385,218,0,0,0,0,0,0,0,0,0,-1,1609,806,0,0
392,218,0,0,0,0,0,0,0,0,0,-1,1616,806,0,0
399,218,0,0,0,0,0,0,0,0,0,-1,1623,806,0,0
406,218,0,0,0,0,0,0,0,0,0,-1,1630,806,0,0
413,218,0,0,0,0,0,0,0,0,0,-1,1637,806,0,0
420,218,0,0,0,0,0,0,0,0,0,-1,1644,806,0,0
427,218,0,0,0,0,0,0,0,0,0,-1,1651,806,0,0
434,218,0,0,0,0,0,0,0,0,0,-1,1658,806,0,0
441,218,0,0,0,0,0,0,0,0,0,-1,1665,806,0,0
448,218,0,0,0,0,0,0,0,0,0,-1,1672,806,0,0
455,218,0,0,0,0,0,0,0,0,0,-1,1679,806,0,0
462,218,0,0,0,0,0,0,0,0,0,-1,1686,806,0,0
469,218,0,0,0,0,0,0,0,0,0,-1,1693,806,0,0
476,218,0,0,0,0,0,0,0,0,0,-1,1700,806,0,0
483,218,0,0,0,0,0,0,0,0,0,-1,1707,806,0,0
490,218,0,0,0,0,0,0,0,0,0,-1,1714,806,0,0
497,218,0,0,0,0,0,0,0,0,0,-1,1721,806,0,0
504,218,0,0,0,0,0,0,0,0,0,-1,1728,806,0,0
511,218,0,0,0,0,0,0,0,0,0,-1,1735,806,0,0
518,218,0,0,0,0,0,0,0,0,0,-1,1742,806,0,0
525,218,0,0,0,0,0,0,0,0,0,-1,1749,806,0,0
532,218,0,0,0,0,0,0,0,0,0,-1,1756,806,0,0
539,218,0,0,0,0,0,0,0,0,0,-1,1763,806,0,0
546,218,0,0,0,0,0,0,0,0,0,-1,1770,806,0,0
553,218,0,0,0,0,0,0,0,0,0,-1,1777,806,0,0
560,218,0,0,0,0,0,0,0,0,0,-1,1784,806,0,0
567,218,0,0,0,0,0,0,0,0,0,-1,1791,806,0,0
574,218,0,0,0,0,0,0,0,0,0,-1,1798,806,0,0
581,218,0,0,0,0,0,0,0,0,0,-1,1805,806,0,0
588,218,0,0,0,0,0,0,0,0,0,-1,1812,806,0,0
595,218,53.1337,2.70306,0.0029342,0.0031744,-0.000294544,0.00337239,0.00273622,-0.978982,0.00206906,0.0379479,1819,806,53.1337,-2.70306
602,218,53.1892,2.54645,0.0014214,0.00406151,-9.80438e-05,0.00406514,0.00141777,-1.53373,0.00238253,0.0358368,1826,806,53.1892,-2.54644
609,218,53.2374,2.64594,8.17095e-05,0.00420751,-0.000135162,0.00421193,7.72865e-05,-1.53808,0.00278255,0.0311077,1833,806,53.2374,-2.64591
616,218,53.1664,2.67249,-0.00107344,0.0035468,-0.000406642,0.00358231,-0.00110895,-1.48368,0.0028312,0.0301178,1840,806,53.1663,-2.67247
623,218,53.1849,2.64532,-0.00219031,0.00250564,-0.000860881,0.00265849,-0.00234316,-1.39508,0.00288961,0.0355024,1847,806,53.1849,-2.64533
630,218,53.3225,2.69299,-0.00298185,0.00172233,-0.00111202,0.00197195,-0.00323148,-1.34998,0.00303339,0.0400418,1854,806,53.3225,-2.69302
637,218,52.8757,2.51337,-0.00354047,0.00115071,-0.00143765,0.00155623,-0.003946,-1.29586,0.00327507,0.0461173,1861,806,52.8757,-2.51336
644,218,52.4042,2.47949,0,0,0,0,0,0,0,-1,1868,806,52.4041,-2.47949
651,218,41.7338,1.99164,0,0,0,0,0,0,0,-1,1875,806,41.7338,-1.99162
658,218,28.41,0.514954,0,0,0,0,0,0,0,-1,1882,806,28.41,-0.514983
665,218,39.8749,-0.439636,0,0,0,0,0,0,0,-1,1889,806,39.8749,0.439616
672,218,39.4595,-0.198608,-0.00478485,-0.00109227,-0.00233136,3.533e-05,-0.00591246,-1.1203,0.00395347,0.0259673,1896,806,39.4595,0.198601
679,218,39.2852,0.327332,-0.00501471,-0.00144087,-0.00236973,-0.000259845,-0.00619574,-1.10845,0.00404666,0.0231875,1903,806,39.2851,-0.327309
686,218,39.1901,0.862854,-0.00437849,-0.00133743,-0.00226651,-0.000128665,-0.00558726,-1.08085,0.0036827,0.01293,1910,806,39.1901,-0.862867
693,218,39.1575,1.46564,-0.0028814,-0.000785133,-0.00186108,0.000302663,-0.00396919,-1.04185,0.00275257,0.0116967,1917,806,39.1574,-1.46562
700,218,39.1104,2.08167,-0.00146632,-0.000245047,-0.00131283,0.000592214,-0.00230358,-1.00308,0.00176653,0.00949355,1924,806,39.1103,-2.08169
707,218,39.0736,2.70679,0.000255864,-3.22889e-05,-0.000614131,0.000742592,-0.000519017,-0.670181,0.000732193,0.00782308,1931,806,39.0736,-2.70678
714,218,39.0621,3.33063,0.0017123,-0.000598773,0.000140352,0.00172079,-0.000607266,0.0604342,0.00139441,0.0106204,1938,806,39.0621,-3.33061
721,218,39.0736,3.92401,0.00313894,-0.0014323,0.000899391,0.00330952,-0.00160289,0.187445,0.00289268,0.0149108,1945,806,39.0736,-3.92402
728,218,39.0645,4.58643,0.00425235,-0.00326283,0.00153321,0.00455311,-0.00356359,0.193704,0.00469777,0.0281187,1952,806,39.0645,-4.58645
735,218,39.1488,5.36475,0.00509486,-0.00625835,0.00229149,0.00553992,-0.00670341,0.191834,0.00707932,0.0473359,1959,806,39.1488,-5.36473
742,218,39.3286,6.16406,0,0,0,0,0,0,0,-1,1966,806,39.3287,-6.16404
749,218,39.993,6.6604,0,0,0,0,0,0,0,-1,1973,806,39.9931,-6.66043
756,218,37.9641,5.3277,0,0,0,0,0,0,0,-1,1980,806,37.9641,-5.32767
763,218,39.5968,4.98688,0,0,0,0,0,0,0,-1,1987,806,39.5968,-4.98688
770,218,0,0,0,0,0,0,0,0,0,-1,1994,806,0,0
777,218,0,0,0,0,0,0,0,0,0,-1,2001,806,0,0
784,218,0,0,0,0,0,0,0,0,0,-1,2008,806,0,0
791,218,0,0,0,0,0,0,0,0,0,-1,2015,806,0,0
798,218,0,0,0,0,0,0,0,0,0,-1,2022,806,0,0
805,218,0,0,0,0,0,0,0,0,0,-1,2029,806,0,0
812,218,0,0,0,0,0,0,0,0,0,-1,2036,806,0,0
-700,211,0,0,0,0,0,0,0,0,0,-1,524,813,0,0
-693,211,0,0,0,0,0,0,0,0,0,-1,531,813,0,0
-686,211,0,0,0,0,0,0,0,0,0,-1,538,813,0,0
-679,211,0,0,0,0,0,0,0,0,0,-1,545,813,0,0
-672,211,0,0,0,0,0,0,0,0,0,-1,552,813,0,0
-665,211,0,0,0,0,0,0,0,0,0,-1,559,813,0,0
-658,211,0,0,0,0,0,0,0,0,0,-1,566,813,0,0
-651,211,-31.1189,6.23834,0,0,0,0,0,0,0,-1,573,813,-31.1189,-6.23833
-644,211,-31.1364,6.37982,0,0,0,0,0,0,0,-1,580,813,-31.1364,-6.37985
-637,211,-31.2496,6.42194,0,0,0,0,0,0,0,-1,587,813,-31.2496,-6.42195
-630,211,-26.2802,6.70776,0,0,0,0,0,0,0,-1,594,813,-26.2802,-6.70775
-623,211,-26.2827,6.96381,0,0,0,0,0,0,0,-1,601,813,-26.2827,-6.96378
-616,211,-27.5869,3.87823,0,0,0,0,0,0,0,-1,608,813,-27.5869,-3.87823
-609,211,-27.6356,3.2301,0.0027428,0.002788,-0.005116,0.00788145,-0.00235065,-0.787607,0.0061885,0.0434481,615,813,-27.6356,-3.23013
-602,211,-27.7114,2.59149,0.00334027,0.00349043,-0.00426709,0.00768311,-0.000852401,-0.794195,0.00542856,0.0220091,622,813,-27.7114,-2.59151
-595,211,-27.8105,1.98236,0.00339575,0.00324014,-0.00321646,0.00653534,0.000100541,-0.773306,0.00432377,0.0113414,629,813,-27.8105,-1.98235
-588,211,-27.8329,1.38269,0.00300057,0.0023834,-0.00211493,0.00482931,0.000554667,-0.712955,0.0030515,0.0113296,636,813,-27.8329,-1.3827
-581,211,-27.8465,0.793457,0.00245052,0.00153909,-0.00104119,0.00313136,0.000858246,-0.579116,0.00186839,0.0114863,643,813,-27.8465,-0.793471
-574,211,-27.863,0.190735,0.00170023,0.000667321,1.46169e-05,0.00170043,0.000667114,0.0141475,0.000989305,0.0128783,650,813,-27.863,-0.190718
-567,211,-27.8865,-0.393311,0.000705085,-7.41299e-05,0.00084973,0.00125027,-0.000619314,0.570445,0.0010997,0.0207406,657,813,-27.8865,0.393307
-560,211,-27.9233,-0.978271,-0.000772653,-0.000934933,0.000983614,0.000133162,-0.00184075,0.744246,0.00127387,0.0266625,664,813,-27.9233,0.9783
-553,211,-27.7539,-1.62866,-0.00207364,-0.00121541,0.00185312,0.000257624,-0.00354668,0.899175,0.00245484,0.0407643,671,813,-27.7539,1.62865
-546,211,-28.1494,-2.1037,-0.00288016,-0.00189354,0.00279645,0.000452781,-0.00522648,0.872703,0.00364464,0.0474736,678,813,-28.1494,2.10372
-539,211,-28.0714,-2.72058,-0.00365616,-0.00254383,0.00341022,0.000355285,-0.00655527,0.86623,0.00449329,0.0296516,685,813,-28.0714,2.72056
-532,211,-27.8942,-3.45966,0,0,0,0,0,0,0,-1,692,813,-27.8942,3.45966
-525,211,-14.3009,2.3233,0,0,0,0,0,0,0,-1,699,813,-14.3009,-2.3233
-518,211,-34.952,1.93011,0,0,0,0,0,0,0,-1,706,813,-34.952,-1.9301
-511,211,-40.1609,0.440735,0,0,0,0,0,0,0,-1,713,813,-40.1609,-0.440761
-504,211,-40.2974,0.446472,-0.00439227,-0.00521611,0.00586971,0.00107996,-0.0106883,0.750367,0.00751147,0.0469724,720,813,-40.2974,-0.446495
-497,211,-40.0023,0.88446,-0.00312388,-0.00535179,0.00610734,0.00197027,-0.0104459,0.695192,0.00770514,0.0474205,727,813,-40.0023,-0.884467
-490,211,-39.9896,0.927063,-0.00130686,-0.00525063,0.00583465,0.00288011,-0.0094376,0.622443,0.00743997,0.0356707,734,813,-39.9896,-0.927084
-483,211,-40.0322,0.924194,0.00179027,-0.00487333,0.00459768,0.00413646,-0.00721952,0.471852,0.00663643,0.0340873,741,813,-40.0322,-0.92418
-476,211,-40.0216,1.17822,0.00644415,-0.00433831,0.00229343,0.00691169,-0.00480585,0.201105,0.00680144,0.0359706,748,813,-40.0216,-1.17821
-469,211,0,0,0,0,0,0,0,0,0,-1,755,813,0,0
-462,211,0,0,0,0,0,0,0,0,0,-1,762,813,0,0
-455,211,0,0,0,0,0,0,0,0,0,-1,769,813,0,0
-448,211,0,0,0,0,0,0,0,0,0,-1,776,813,0,0
-441,211,0,0,0,0,0,0,0,0,0,-1,783,813,0,0
-434,211,0,0,0,0,0,0,0,0,0,-1,790,813,0,0
-427,211,0,0,0,0,0,0,0,0,0,-1,797,813,0,0
-420,211,0,0,0,0,0,0,0,0,0,-1,804,813,0,0
-413,211,0,0,0,0,0,0,0,0,0,-1,811,813,0,0
-406,211,0,0,0,0,0,0,0,0,0,-1,818,813,0,0
-399,211,0,0,0,0,0,0,0,0,0,-1,825,813,0,0
-392,211,0,0,0,0,0,0,0,0,0,-1,832,813,0,0
-385,211,0,0,0,0,0,0,0,0,0,-1,839,813,0,0
-378,211,0,0,0,0,0,0,0,0,0,-1,846,813,0,0
-371,211,0,0,0,0,0,0,0,0,0,-1,853,813,0,0
-364,211,0,0,0,0,0,0,0,0,0,-1,860,813,0,0
-357,211,0,0,0,0,0,0,0,0,0,-1,867,813,0,0
-350,211,0,0,0,0,0,0,0,0,0,-1,874,813,0,0
-343,211,0,0,0,0,0,0,0,0,0,-1,881,813,0,0
-336,211,0,0,0,0,0,0,0,0,0,-1,888,813,0,0
-329,211,0,0,0,0,0,0,0,0,0,-1,895,813,0,0
-322,211,0,0,0,0,0,0,0,0,0,-1,902,813,0,0
-315,211,0,0,0,0,0,0,0,0,0,-1,909,813,0,0
-308,211,0,0,0,0,0,0,0,0,0,-1,916,813,0,0
-301,211,0,0,0,0,0,0,0,0,0,-1,923,813,0,0
-294,211,0,0,0,0,0,0,0,0,0,-1,930,813,0,0
-287,211,0,0,0,0,0,0,0,0,0,-1,937,813,0,0
-280,211,0,0,0,0,0,0,0,0,0,-1,944,813,0,0
-273,211,0,0,0,0,0,0,0,0,0,-1,951,813,0,0
-266,211,0,0,0,0,0,0,0,0,0,-1,958,813,0,0
-259,211,0,0,0,0,0,0,0,0,0,-1,965,813,0,0
-252,211,0,0,0,0,0,0,0,0,0,-1,972,813,0,0
-245,211,0,0,0,0,0,0,0,0,0,-1,979,813,0,0
-238,211,0,0,0,0,0,0,0,0,0,-1,986,813,0,0
-231,211,0,0,0,0,0,0,0,0,0,-1,993,813,0,0
-224,211,0,0,0,0,0,0,0,0,0,-1,1000,813,0,0
-217,211,0,0,0,0,0,0,0,0,0,-1,1007,813,0,0
-210,211,0,0,0,0,0,0,0,0,0,-1,1014,813,0,0
-203,211,0,0,0,0,0,0,0,0,0,-1,1021,813,0,0
-196,211,0,0,0,0,0,0,0,0,0,-1,1028,813,0,0
-189,211,0,0,0,0,0,0,0,0,0,-1,1035,813,0,0
-182,211,0,0,0,0,0,0,0,0,0,-1,1042,813,0,0
-175,211,0,0,0,0,0,0,0,0,0,-1,1049,813,0,0
-168,211,0,0,0,0,0,0,0,0,0,-1,1056,813,0,0
-161,211,0,0,0,0,0,0,0,0,0,-1,1063,813,0,0
-154,211,0,0,0,0,0,0,0,0,0,-1,1070,813,0,0
-147,211,0,0,0,0,0,0,0,0,0,-1,1077,813,0,0
-140,211,0,0,0,0,0,0,0,0,0,-1,1084,813,0,0
-133,211,0,0,0,0,0,0,0,0,0,-1,1091,813,0,0
-126,211,0,0,0,0,0,0,0,0,0,-1,1098,813,0,0
-119,211,0,0,0,0,0,0,0,0,0,-1,1105,813,0,0
-112,211,0,0,0,0,0,0,0,0,0,-1,1112,813,0,0
-105,211,0,0,0,0,0,0,0,0,0,-1,1119,813,0,0
-98,211,0,0,0,0,0,0,0,0,0,-1,1126,813,0,0
-91,211,0,0,0,0,0,0,0,0,0,-1,1133,813,0,0
-84,211,0,0,0,0,0,0,0,0,0,-1,1140,813,0,0
-77,211,0,0,0,0,0,0,0,0,0,-1,1147,813,0,0
-70,211,0,0,0,0,0,0,0,0,0,-1,1154,813,0,0
-63,211,0,0,0,0,0,0,0,0,0,-1,1161,813,0,0
-56,211,0,0,0,0,0,0,0,0,0,-1,1168,813,0,0
-49,211,0,0,0,0,0,0,0,0,0,-1,1175,813,0,0
-42,211,0,0,0,0,0,0,0,0,0,-1,1182,813,0,0
-35,211,0,0,0,0,0,0,0,0,0,-1,1189,813,0,0
-28,211,0,0,0,0,0,0,0,0,0,-1,1196,813,0,0
-21,211,0,0,0,0,0,0,0,0,0,-1,1203,813,0,0
-14,211,0,0,0,0,0,0,0,0,0,-1,1210,813,0,0
-7,211,0,0,0,0,0,0,0,0,0,-1,1217,813,0,0
0,211,0,0,0,0,0,0,0,0,0,-1,1224,813,0,0
7,211,0,0,0,0,0,0,0,0,0,-1,1231,813,0,0
14,211,0,0,0,0,0,0,0,0,0,-1,1238,813,0,0
21,211,0,0,0,0,0,0,0,0,0,-1,1245,813,0,0
28,211,0,0,0,0,0,0,0,0,0,-1,1252,813,0,0
35,211,0,0,0,0,0,0,0,0,0,-1,1259,813,0,0
42,211,0,0,0,0,0,0,0,0,0,-1,1266,813,0,0
49,211,0,0,0,0,0,0,0,0,0,-1,1273,813,0,0
56,211,0,0,0,0,0,0,0,0,0,-1,1280,813,0,0
63,211,0,0,0,0,0,0,0,0,0,-1,1287,813,0,0
70,211,0,0,0,0,0,0,0,0,0,-1,1294,813,0,0
77,211,0,0,0,0,0,0,0,0,0,-1,1301,813,0,0
84,211,0,0,0,0,0,0,0,0,0,-1,1308,813,0,0
91,211,0,0,0,0,0,0,0,0,0,-1,1315,813,0,0
98,211,0,0,0,0,0,0,0,0,0,-1,1322,813,0,0
105,211,0,0,0,0,0,0,0,0,0,-1,1329,813,0,0
112,211,0,0,0,0,0,0,0,0,0,-1,1336,813,0,0
119,211,0,0,0,0,0,0,0,0,0,-1,1343,813,0,0
126,211,0,0,0,0,0,0,0,0,0,-1,1350,813,0,0
133,211,0,0,0,0,0,0,0,0,0,-1,1357,813,0,0
140,211,0,0,0,0,0,0,0,0,0,-1,1364,813,0,0
147,211,0,0,0,0,0,0,0,0,0,-1,1371,813,0,0
154,211,0,0,0,0,0,0,0,0,0,-1,1378,813,0,0
161,211,0,0,0,0,0,0,0,0,0,-1,1385,813,0,0
168,211,0,0,0,0,0,0,0,0,0,-1,1392,813,0,0
175,211,0,0,0,0,0,0,0,0,0,-1,1399,813,0,0
182,211,0,0,0,0,0,0,0,0,0,-1,1406,813,0,0
189,211,0,0,0,0,0,0,0,0,0,-1,1413,813,0,0
196,211,0,0,0,0,0,0,0,0,0,-1,1420,813,0,0
203,211,0,0,0,0,0,0,0,0,0,-1,1427,813,0,0
210,211,0,0,0,0,0,0,0,0,0,-1,1434,813,0,0
217,211,0,0,0,0,0,0,0,0,0,-1,1441,813,0,0
224,211,0,0,0,0,0,0,0,0,0,-1,1448,813,0,0
231,211,0,0,0,0,0,0,0,0,0,-1,1455,813,0,0
238,211,0,0,0,0,0,0,0,0,0,-1,1462,813,0,0
245,211,0,0,0,0,0,0,0,0,0,-1,1469,813,0,0
252,211,0,0,0,0,0,0,0,0,0,-1,1476,813,0,0
259,211,0,0,0,0,0,0,0,0,0,-1,1483,813,0,0
266,211,0,0,0,0,0,0,0,0,0,-1,1490,813,0,0
273,211,0,0,0,0,0,0,0,0,0,-1,1497,813,0,0
280,211,0,0,0,0,0,0,0,0,0,-1,1504,813,0,0
287,211,0,0,0,0,0,0,0,0,0,-1,1511,813,0,0
294,211,0,0,0,0,0,0,0,0,0,-1,1518,813,0,0
301,211,0,0,0,0,0,0,0,0,0,-1,1525,813,0,0
308,211,0,0,0,0,0,0,0,0,0,-1,1532,813,0,0
315,211,0,0,0,0,0,0,0,0,0,-1,1539,813,0,0
322,211,0,0,0,0,0,0,0,0,0,-1,1546,813,0,0
329,211,0,0,0,0,0,0,0,0,0,-1,1553,813,0,0
336,211,0,0,0,0,0,0,0,0,0,-1,1560,813,0,0
343,211,0,0,0,0,0,0,0,0,0,-1,1567,813,0,0
350,211,0,0,0,0,0,0,0,0,0,-1,1574,813,0,0
357,211,0,0,0,0,0,0,0,0,0,-1,1581,813,0,0
364,211,0,0,0,0,0,0,0,0,0,-1,1588,813,0,0
371,211,0,0,0,0,0,0,0,0,0,-1,1595,813,0,0
378,211,0,0,0,0,0,0,0,0,0,-1,1602,813,0,0
385,211,0,0,0,0,0,0,0,0,0,-1,1609,813,0,0
392,211,0,0,0,0,0,0,0,0,0,-1,1616,813,0,0
399,211,0,0,0,0,0,0,0,0,0,-1,1623,813,0,0
406,211,0,0,0,0,0,0,0,0,0,-1,1630,813,0,0
413,211,0,0,0,0,0,0,0,0,0,-1,1637,813,0,0
420,211,0,0,0,0,0,0,0,0,0,-1,1644,813,0,0
427,211,0,0,0,0,0,0,0,0,0,-1,1651,813,0,0
434,211,0,0,0,0,0,0,0,0,0,-1,1658,813,0,0
441,211,0,0,0,0,0,0,0,0,0,-1,1665,813,0,0
448,211,0,0,0,0,0,0,0,0,0,-1,1672,813,0,0
455,211,0,0,0,0,0,0,0,0,0,-1,1679,813,0,0
462,211,0,0,0,0,0,0,0,0,0,-1,1686,813,0,0
469,211,0,0,0,0,0,0,0,0,0,-1,1693,813,0,0
476,211,0,0,0,0,0,0,0,0,0,-1,1700,813,0,0
483,211,0,0,0,0,0,0,0,0,0,-1,1707,813,0,0
490,211,0,0,0,0,0,0,0,0,0,-1,1714,813,0,0
497,211,0,0,0,0,0,0,0,0,0,-1,1721,813,0,0
504,211,0,0,0,0,0,0,0,0,0,-1,1728,813,0,0
511,211,0,0,0,0,0,0,0,0,0,-1,1735,813,0,0
518,211,0,0,0,0,0,0,0,0,0,-1,1742,813,0,0
525,211,0,0,0,0,0,0,0,0,0,-1,1749,813,0,0
532,211,0,0,0,0,0,0,0,0,0,-1,1756,813,0,0
539,211,0,0,0,0,0,0,0,0,0,-1,1763,813,0,0
546,211,0,0,0,0,0,0,0,0,0,-1,1770,813,0,0
553,211,0,0,0,0,0,0,0,0,0,-1,1777,813,0,0
560,211,0,0,0,0,0,0,0,0,0,-1,1784,813,0,0
567,211,0,0,0,0,0,0,0,0,0,-1,1791,813,0,0
574,211,0,0,0,0,0,0,0,0,0,-1,1798,813,0,0
581,211,0,0,0,0,0,0,0,0,0,-1,1805,813,0,0
588,211,0,0,0,0,0,0,0,0,0,-1,1812,813,0,0
595,211,53.2552,2.58636,0.00316155,0.00102494,-0.0010685,0.0036042,0.000582296,-0.392745,0.00223414,0.0400896,1819,813,53.2553,-2.58634
602,211,53.1918,2.50781,0.00191154,0.00234028,-0.000572267,0.00273701,0.00151481,-0.964606,0.00158322,0.0382029,1826,813,53.1918,-2.50783
609,211,53.2837,2.65137,0.000496593,0.00308405,-0.000336832,0.00312718,0.000453463,-1.44344,0.00195128,0.0370505,1833,813,53.2837,-2.65134
616,211,53.2637,2.69781,-0.00081386,0.00302719,-0.000355786,0.00305986,-0.000846537,-1.47921,0.00237297,0.0308672,1840,813,53.2637,-2.69784
623,211,53.202,2.68811,-0.00209713,0.00225217,-0.000766711,0.00238337,-0.00222833,-1.40132,0.00266306,0.0312824,1847,813,53.2021,-2.6881
630,211,53.1721,2.69263,-0.00304438,0.00157216,-0.00102601,0.00178992,-0.00326214,-1.36166,0.0029578,0.0344654,1854,813,53.1721,-2.69261
637,211,53.1473,2.72308,-0.00367364,0.000924886,-0.00135354,0.00129371,-0.00404247,-1.30477,0.0032142,0.0408551,1861,813,53.1474,-2.72311
644,211,53.1222,2.73895,0,0,0,0,0,0,0,-1,1868,813,53.1222,-2.73898
651,211,48.5043,2.95557,0,0,0,0,0,0,0,-1,1875,813,48.5043,-2.95558
658,211,27.7909,1.52234,0,0,0,0,0,0,0,-1,1882,813,27.7909,-1.52234
665,211,40.4447,-0.556763,0,0,0,0,0,0,0,-1,1889,813,40.4448,0.556788
672,211,40.2694,-0.135376,-0.00493422,-0.000993307,-0.00230795,7.09221e-05,-0.00599845,-1.13874,0.00402281,0.0454803,1896,813,40.2694,0.135368
679,211,40.0261,0.353455,-0.00530886,-0.00133087,-0.00238445,-0.000214752,-0.00642497,-1.13301,0.00421356,0.0290562,1903,813,40.0261,-0.353439
686,211,39.8135,0.886108,-0.00482431,-0.00133294,-0.0023952,-0.000114774,-0.00604247,-1.1003,0.00399061,0.0142631,1910,813,39.8135,-0.886091
693,211,39.7615,1.48639,-0.00347698,-0.000965384,-0.00216557,0.000282162,-0.00472453,-1.04815,0.00324783,0.0118282,1917,813,39.7615,-1.48639
700,211,39.6816,2.08398,-0.00221106,-0.000521954,-0.00172347,0.000552771,-0.00328579,-1.01322,0.00239613,0.0132607,1924,813,39.6816,-2.08397
707,211,39.6855,2.72626,-0.000550424,-0.000334149,-0.0010536,0.00061685,-0.00150142,-0.836537,0.00125803,0.0197487,1931,813,39.6856,-2.72627
714,211,39.7046,3.39233,0.000964779,-0.000809693,-0.000270221,0.00100502,-0.000849931,-0.14782,0.0010722,0.0210238,1938,813,39.7046,-3.39232
721,211,39.6909,3.96997,0.00256865,-0.00150625,0.000545425,0.00264039,-0.00157799,0.130783,0.0024611,0.0179816,1945,813,39.6909,-3.96994
728,211,39.6947,4.54938,0.00398087,-0.00309665,0.00126629,0.00420061,-0.00331638,0.171818,0.00434994,0.018432,1952,813,39.6947,-4.54939
735,211,39.7662,5.23706,0.0052314,-0.00575614,0.00205035,0.00560154,-0.00612628,0.178602,0.00677332,0.0312141,1959,813,39.7662,-5.23708
742,211,39.9501,5.922,0,0,0,0,0,0,0,-1,1966,813,39.95,-5.92198
749,211,39.3903,6.24969,0,0,0,0,0,0,0,-1,1973,813,39.3903,-6.24968
756,211,40.2,6.73651,0,0,0,0,0,0,0,-1,1980,813,40.2,-6.73651
763,211,39.4379,6.60083,0,0,0,0,0,0,0,-1,1987,813,39.4378,-6.60085
770,211,39.2373,7.45868,0,0,0,0,0,0,0,-1,1994,813,39.2373,-7.45868
777,211,0,0,0,0,0,0,0,0,0,-1,2001,813,0,0
784,211,0,0,0,0,0,0,0,0,0,-1,2008,813,0,0
791,211,0,0,0,0,0,0,0,0,0,-1,2015,813,0,0
798,211,0,0,0,0,0,0,0,0,0,-1,2022,813,0,0
805,211,0,0,0,0,0,0,0,0,0,-1,2029,813,0,0
812,211,0,0,0,0,0,0,0,0,0,-1,2036,813,0,0
-700,204,0,0,0,0,0,0,0,0,0,-1,524,820,0,0
-693,204,0,0,0,0,0,0,0,0,0,-1,531,820,0,0
-686,204,0,0,0,0,0,0,0,0,0,-1,538,820,0,0
-679,204,0,0,0,0,0,0,0,0,0,-1,545,820,0,0
-672,204,0,0,0,0,0,0,0,0,0,-1,552,820,0,0
-665,204,0,0,0,0,0,0,0,0,0,-1,559,820,0,0
-658,204,0,0,0,0,0,0,0,0,0,-1,566,820,0,0
-651,204,-30.7519,6.04175,0,0,0,0,0,0,0,-1,573,820,-30.7519,-6.04178
-644,204,-30.6537,6.58057,0,0,0,0,0,0,0,-1,580,820,-30.6537,-6.58055
-637,204,-30.6819,7.18677,0,0,0,0,0,0,0,-1,587,820,-30.6819,-7.18676
-630,204,-26.3576,4.56836,0,0,0,0,0,0,0,-1,594,820,-26.3576,-4.56833
-623,204,-27.8553,4.75055,0,0,0,0,0,0,0,-1,601,820,-27.8554,-4.75058
-616,204,-28.2042,3.85828,0,0,0,0,0,0,0,-1,608,820,-28.2042,-3.85826
-609,204,-28.2464,3.22675,0.000510138,0.00178742,-0.00362955,0.00483409,-0.00253653,-0.872485,0.00432379,0.0377845,615,820,-28.2464,-3.22674
-602,204,-28.3389,2.60284,0.00127717,0.0036586,-0.00288334,0.0055874,-0.00065164,-0.981214,0.00396006,0.0167948,622,820,-28.3389,-2.60283
-595,204,-28.4045,1.99072,0.0015873,0.00368466,-0.00208143,0.00496666,0.000305295,-1.01875,0.00321418,0.0155232,629,820,-28.4045,-1.99071
-588,204,-28.4289,1.37396,0.00167809,0.00253637,-0.00123004,0.00340998,0.00080448,-0.953239,0.00205825,0.013778,636,820,-28.4289,-1.37394
-581,204,-28.4432,0.779358,0.00161403,0.00148558,-0.000338266,0.00189411,0.0012055,-0.691583,0.00110706,0.0125262,643,820,-28.4432,-0.779343
-574,204,-28.4585,0.219482,0.00135195,0.00047838,0.000510421,0.00158696,0.000243368,0.431491,0.000986905,0.0141386,650,820,-28.4585,-0.219496
-567,204,-28.4409,-0.356506,0.00076662,-0.000201292,0.00107058,0.00145755,-0.000892223,0.57312,0.00136967,0.0152736,657,820,-28.4409,0.356482
-560,204,-28.3733,-0.989319,-0.000506466,-0.000883423,0.000912236,0.000236559,-0.00162645,0.683526,0.00117114,0.0206005,664,820,-28.3733,0.989336
-553,204,-28.5343,-1.46222,-0.00169249,-0.00106296,0.00155844,0.000212184,-0.00296763,0.885046,0.00205281,0.0230191,671,820,-28.5343,1.46222
-546,204,-28.7216,-1.94519,-0.00236565,-0.00153733,0.00232729,0.000412362,-0.00431535,0.873455,0.00302374,0.0259771,678,820,-28.7216,1.94522
-539,204,-28.553,-2.58856,-0.00306603,-0.00206352,0.0028196,0.00029904,-0.00542858,0.873367,0.00372274,0.0477473,685,820,-28.553,2.58855
-532,204,-28.3755,-3.52991,0,0,0,0,0,0,0,-1,692,820,-28.3755,3.52993
-525,204,-25.7137,1.52496,0,0,0,0,0,0,0,-1,699,820,-25.7137,-1.52496
-518,204,-39.7603,0.925903,0,0,0,0,0,0,0,-1,706,820,-39.7603,-0.92588
-511,204,-40.0403,0.66156,-0.00445851,-0.00404805,0.00457175,0.000323079,-0.00882964,0.807828,0.00599702,0.0486289,713,820,-40.0403,-0.661533
-504,204,-40.2502,0.523865,-0.0040297,-0.00463521,0.00503178,0.00070843,-0.00937334,0.75535,0.00649792,0.0485702,720,820,-40.2502,-0.523843
-497,204,-39.959,0.978699,-0.00237782,-0.00486913,0.0052536,0.00177578,-0.00902274,0.668995,0.00668616,0.0411684,727,820,-39.959,-0.978688
-490,204,-39.9109,1.06,0.000136524,-0.00492856,0.00484254,0.00306878,-0.00786082,0.544468,0.00650924,0.036357,734,820,-39.9109,-1.05998
-483,204,-39.9059,1.01227,0.0048655,-0.00478619,0.00302883,0.00573725,-0.00565794,0.280243,0.00657907,0.0404543,741,820,-39.9059,-1.01224
-476,204,0,0,0,0,0,0,0,0,0,-1,748,820,0,0
-469,204,0,0,0,0,0,0,0,0,0,-1,755,820,0,0
-462,204,0,0,0,0,0,0,0,0,0,-1,762,820,0,0
-455,204,0,0,0,0,0,0,0,0,0,-1,769,820,0,0
-448,204,0,0,0,0,0,0,0,0,0,-1,776,820,0,0
-441,204,0,0,0,0,0,0,0,0,0,-1,783,820,0,0
-434,204,0,0,0,0,0,0,0,0,0,-1,790,820,0,0
-427,204,0,0,0,0,0,0,0,0,0,-1,797,820,0,0
-420,204,0,0,0,0,0,0,0,0,0,-1,804,820,0,0
-413,204,0,0,0,0,0,0,0,0,0,-1,811,820,0,0
-406,204,0,0,0,0,0,0,0,0,0,-1,818,820,0,0
-399,204,0,0,0,0,0,0,0,0,0,-1,825,820,0,0
-392,204,0,0,0,0,0,0,0,0,0,-1,832,820,0,0
-385,204,0,0,0,0,0,0,0,0,0,-1,839,820,0,0
-378,204,0,0,0,0,0,0,0,0,0,-1,846,820,0,0
-371,204,0,0,0,0,0,0,0,0,0,-1,853,820,0,0
-364,204,0,0,0,0,0,0,0,0,0,-1,860,820,0,0
-357,204,0,0,0,0,0,0,0,0,0,-1,867,820,0,0
-350,204,0,0,0,0,0,0,0,0,0,-1,874,820,0,0
-343,204,0,0,0,0,0,0,0,0,0,-1,881,820,0,0
-336,204,0,0,0,0,0,0,0,0,0,-1,888,820,0,0
-329,204,0,0,0,0,0,0,0,0,0,-1,895,820,0,0
-322,204,0,0,0,0,0,0,0,0,0,-1,902,820,0,0
-315,204,0,0,0,0,0,0,0,0,0,-1,909,820,0,0
-308,204,0,0,0,0,0,0,0,0,0,-1,916,820,0,0
-301,204,0,0,0,0,0,0,0,0,0,-1,923,820,0,0
-294,204,0,0,0,0,0,0,0,0,0,-1,930,820,0,0
-287,204,0,0,0,0,0,0,0,0,0,-1,937,820,0,0
-280,204,0,0,0,0,0,0,0,0,0,-1,944,820,0,0
-273,204,0,0,0,0,0,0,0,0,0,-1,951,820,0,0
-266,204,0,0,0,0,0,0,0,0,0,-1,958,820,0,0
-259,204,0,0,0,0,0,0,0,0,0,-1,965,820,0,0
-252,204,0,0,0,0,0,0,0,0,0,-1,972,820,0,0
-245,204,0,0,0,0,0,0,0,0,0,-1,979,820,0,0
-238,204,0,0,0,0,0,0,0,0,0,-1,986,820,0,0
-231,204,0,0,0,0,0,0,0,0,0,-1,993,820,0,0
-224,204,0,0,0,0,0,0,0,0,0,-1,1000,820,0,0
-217,204,0,0,0,0,0,0,0,0,0,-1,1007,820,0,0
-210,204,0,0,0,0,0,0,0,0,0,-1,1014,820,0,0
-203,204,0,0,0,0,0,0,0,0,0,-1,1021,820,0,0
-196,204,0,0,0,0,0,0,0,0,0,-1,1028,820,0,0
-189,204,0,0,0,0,0,0,0,0,0,-1,1035,820,0,0
-182,204,0,0,0,0,0,0,0,0,0,-1,1042,820,0,0
-175,204,0,0,0,0,0,0,0,0,0,-1,1049,820,0,0
-168,204,0,0,0,0,0,0,0,0,0,-1,1056,820,0,0
-161,204,0,0,0,0,0,0,0,0,0,-1,1063,820,0,0
-154,204,0,0,0,0,0,0,0,0,0,-1,1070,820,0,0
-147,204,0,0,0,0,0,0,0,0,0,-1,1077,820,0,0
-140,204,0,0,0,0,0,0,0,0,0,-1,1084,820,0,0
-133,204,0,0,0,0,0,0,0,0,0,-1,1091,820,0,0
-126,204,0,0,0,0,0,0,0,0,0,-1,1098,820,0,0
-119,204,0,0,0,0,0,0,0,0,0,-1,1105,820,0,0
-112,204,0,0,0,0,0,0,0,0,0,-1,1112,820,0,0
-105,204,0,0,0,0,0,0,0,0,0,-1,1119,820,0,0
-98,204,0,0,0,0,0,0,0,0,0,-1,1126,820,0,0
-91,204,0,0,0,0,0,0,0,0,0,-1,1133,820,0,0
-84,204,0,0,0,0,0,0,0,0,0,-1,1140,820,0,0
-77,204,0,0,0,0,0,0,0,0,0,-1,1147,820,0,0
-70,204,0,0,0,0,0,0,0,0,0,-1,1154,820,0,0
-63,204,0,0,0,0,0,0,0,0,0,-1,1161,820,0,0
-56,204,0,0,0,0,0,0,0,0,0,-1,1168,820,0,0
-49,204,0,0,0,0,0,0,0,0,0,-1,1175,820,0,0
-42,204,0,0,0,0,0,0,0,0,0,-1,1182,820,0,0
-35,204,0,0,0,0,0,0,0,0,0,-1,1189,820,0,0
-28,204,0,0,0,0,0,0,0,0,0,-1,1196,820,0,0
-21,204,0,0,0,0,0,0,0,0,0,-1,1203,820,0,0
-14,204,0,0,0,0,0,0,0,0,0,-1,1210,820,0,0
-7,204,0,0,0,0,0,0,0,0,0,-1,1217,820,0,0
0,204,0,0,0,0,0,0,0,0,0,-1,1224,820,0,0
7,204,0,0,0,0,0,0,0,0,0,-1,1231,820,0,0
14,204,0,0,0,0,0,0,0,0,0,-1,1238,820,0,0
21,204,0,0,0,0,0,0,0,0,0,-1,1245,820,0,0
28,204,0,0,0,0,0,0,0,0,0,-1,1252,820,0,0
35,204,0,0,0,0,0,0,0,0,0,-1,1259,820,0,0
42,204,0,0,0,0,0,0,0,0,0,-1,1266,820,0,0
49,204,0,0,0,0,0,0,0,0,0,-1,1273,820,0,0
56,204,0,0,0,0,0,0,0,0,0,-1,1280,820,0,0
63,204,0,0,0,0,0,0,0,0,0,-1,1287,820,0,0
70,204,0,0,0,0,0,0,0,0,0,-1,1294,820,0,0
77,204,0,0,0,0,0,0,0,0,0,-1,1301,820,0,0
84,204,0,0,0,0,0,0,0,0,0,-1,1308,820,0,0
91,204,0,0,0,0,0,0,0,0,0,-1,1315,820,0,0
98,204,0,0,0,0,0,0,0,0,0,-1,1322,820,0,0
105,204,0,0,0,0,0,0,0,0,0,-1,1329,820,0,0
112,204,0,0,0,0,0,0,0,0,0,-1,1336,820,0,0
119,204,0,0,0,0,0,0,0,0,0,-1,1343,820,0,0
126,204,0,0,0,0,0,0,0,0,0,-1,1350,820,0,0
133,204,0,0,0,0,0,0,0,0,0,-1,1357,820,0,0
140,204,0,0,0,0,0,0,0,0,0,-1,1364,820,0,0
147,204,0,0,0,0,0,0,0,0,0,-1,1371,820,0,0
154,204,0,0,0,0,0,0,0,0,0,-1,1378,820,0,0
161,204,0,0,0,0,0,0,0,0,0,-1,1385,820,0,0
168,204,0,0,0,0,0,0,0,0,0,-1,1392,820,0,0
175,204,0,0,0,0,0,0,0,0,0,-1,1399,820,0,0
182,204,0,0,0,0,0,0,0,0,0,-1,1406,820,0,0
189,204,0,0,0,0,0,0,0,0,0,-1,1413,820,0,0
196,204,0,0,0,0,0,0,0,0,0,-1,1420,820,0,0
203,204,0,0,0,0,0,0,0,0,0,-1,1427,820,0,0
210,204,0,0,0,0,0,0,0,0,0,-1,1434,820,0,0
217,204,0,0,0,0,0,0,0,0,0,-1,1441,820,0,0
224,204,0,0,0,0,0,0,0,0,0,-1,1448,820,0,0
231,204,0,0,0,0,0,0,0,0,0,-1,1455,820,0,0
238,204,0,0,0,0,0,0,0,0,0,-1,1462,820,0,0
245,204,0,0,0,0,0,0,0,0,0,-1,1469,820,0,0
252,204,0,0,0,0,0,0,0,0,0,-1,1476,820,0,0
259,204,0,0,0,0,0,0,0,0,0,-1,1483,820,0,0
266,204,0,0,0,0,0,0,0,0,0,-1,1490,820,0,0
273,204,0,0,0,0,0,0,0,0,0,-1,1497,820,0,0
280,204,0,0,0,0,0,0,0,0,0,-1,1504,820,0,0
287,204,0,0,0,0,0,0,0,0,0,-1,1511,820,0,0
294,204,0,0,0,0,0,0,0,0,0,-1,1518,820,0,0
301,204,0,0,0,0,0,0,0,0,0,-1,1525,820,0,0
308,204,0,0,0,0,0,0,0,0,0,-1,1532,820,0,0
315,204,0,0,0,0,0,0,0,0,0,-1,1539,820,0,0
322,204,0,0,0,0,0,0,0,0,0,-1,1546,820,0,0
329,204,0,0,0,0,0,0,0,0,0,-1,1553,820,0,0
336,204,0,0,0,0,0,0,0,0,0,-1,1560,820,0,0
343,204,0,0,0,0,0,0,0,0,0,-1,1567,820,0,0
350,204,0,0,0,0,0,0,0,0,0,-1,1574,820,0,0
357,204,0,0,0,0,0,0,0,0,0,-1,1581,820,0,0
364,204,0,0,0,0,0,0,0,0,0,-1,1588,820,0,0
371,204,0,0,0,0,0,0,0,0,0,-1,1595,820,0,0
378,204,0,0,0,0,0,0,0,0,0,-1,1602,820,0,0
385,204,0,0,0,0,0,0,0,0,0,-1,1609,820,0,0
392,204,0,0,0,0,0,0,0,0,0,-1,1616,820,0,0
399,204,0,0,0,0,0,0,0,0,0,-1,1623,820,0,0
406,204,0,0,0,0,0,0,0,0,0,-1,1630,820,0,0
413,204,0,0,0,0,0,0,0,0,0,-1,1637,820,0,0
420,204,0,0,0,0,0,0,0,0,0,-1,1644,820,0,0
427,204,0,0,0,0,0,0,0,0,0,-1,1651,820,0,0
434,204,0,0,0,0,0,0,0,0,0,-1,1658,820,0,0
441,204,0,0,0,0,0,0,0,0,0,-1,1665,820,0,0
448,204,0,0,0,0,0,0,0,0,0,-1,1672,820,0,0
455,204,0,0,0,0,0,0,0,0,0,-1,1679,820,0,0
462,204,0,0,0,0,0,0,0,0,0,-1,1686,820,0,0
469,204,0,0,0,0,0,0,0,0,0,-1,1693,820,0,0
476,204,0,0,0,0,0,0,0,0,0,-1,1700,820,0,0
483,204,0,0,0,0,0,0,0,0,0,-1,1707,820,0,0
490,204,0,0,0,0,0,0,0,0,0,-1,1714,820,0,0
497,204,0,0,0,0,0,0,0,0,0,-1,1721,820,0,0
504,204,0,0,0,0,0,0,0,0,0,-1,1728,820,0,0
511,204,0,0,0,0,0,0,0,0,0,-1,1735,820,0,0
518,204,0,0,0,0,0,0,0,0,0,-1,1742,820,0,0
525,204,0,0,0,0,0,0,0,0,0,-1,1749,820,0,0
532,204,0,0,0,0,0,0,0,0,0,-1,1756,820,0,0
539,204,0,0,0,0,0,0,0,0,0,-1,1763,820,0,0
546,204,0,0,0,0,0,0,0,0,0,-1,1770,820,0,0
553,204,0,0,0,0,0,0,0,0,0,-1,1777,820,0,0
560,204,0,0,0,0,0,0,0,0,0,-1,1784,820,0,0
567,204,0,0,0,0,0,0,0,0,0,-1,1791,820,0,0
574,204,0,0,0,0,0,0,0,0,0,-1,1798,820,0,0
581,204,0,0,0,0,0,0,0,0,0,-1,1805,820,0,0
588,204,0,0,0,0,0,0,0,0,0,-1,1812,820,0,0
595,204,0,0,0,0,0,0,0,0,0,-1,1819,820,0,0
602,204,53.2535,2.58331,0.00283494,-2.16385e-06,-0.00119014,0.00326807,-0.000435292,-0.349031,0.00233736,0.0370474,1826,820,53.2535,-2.58331
609,204,53.3191,2.64313,0.00137308,0.00106648,-0.000720069,0.00195599,0.000483575,-0.680516,0.00117641,0.0390281,1833,820,53.3191,-2.64311
616,204,53.3005,2.64368,-0.000101513,0.00168321,-0.000441206,0.00178632,-0.000204627,-1.34121,0.00126462,0.0385601,1840,820,53.3006,-2.6437
623,204,53.2148,2.72119,-0.00164652,0.00139666,-0.000698516,0.00154934,-0.00179919,-1.35561,0.00193507,0.0286937,1847,820,53.2149,-2.72121
630,204,53.1327,2.77643,-0.00286872,0.000991553,-0.00095492,0.00121486,-0.00309202,-1.34108,0.0025641,0.0270422,1854,820,53.1327,-2.7764
637,204,53.1349,2.71478,-0.00364572,0.000455411,-0.00131386,0.000840222,-0.00403053,-1.28588,0.00300649,0.0331725,1861,820,53.1349,-2.7148
644,204,53.0415,2.59186,-0.00414758,-0.000125038,-0.00155153,0.000403861,-0.00467648,-1.24226,0.00326062,0.0458514,1868,820,53.0415,-2.59186
651,204,52.9598,2.46515,0,0,0,0,0,0,0,-1,1875,820,52.9599,-2.46516
658,204,34.9631,1.64844,0,0,0,0,0,0,0,-1,1882,820,34.9631,-1.64842
665,204,21.8292,1.51099,0,0,0,0,0,0,0,-1,1889,820,21.8292,-1.51099
672,204,40.9741,-0.202332,0,0,0,0,0,0,0,-1,1896,820,40.9742,0.202311
679,204,40.4761,0.206177,-0.00540781,-0.00138322,-0.00237601,-0.000281877,-0.00650915,-1.13675,0.00424859,0.0398263,1903,820,40.4761,-0.206206
686,204,40.4226,0.897949,-0.0050457,-0.00142125,-0.00246531,-0.000173749,-0.0062932,-1.10234,0.00413877,0.0201245,1910,820,40.4226,-0.897929
693,204,40.3231,1.50977,-0.00386057,-0.00117443,-0.00239976,0.00023253,-0.00526753,-1.04052,0.00359171,0.0172687,1917,820,40.3231,-1.50976
700,204,40.3335,2.12531,-0.00276275,-0.000816948,-0.00209689,0.000521748,-0.00410145,-1.0026,0.00292377,0.0170524,1924,820,40.3335,-2.12533
707,204,40.296,2.77179,-0.00120127,-0.000631092,-0.00149038,0.000601224,-0.00243359,-0.8799,0.00185556,0.0152921,1931,820,40.296,-2.77179
714,204,40.286,3.46356,0.00038981,-0.00089242,-0.000679296,0.000682757,-0.00118537,-0.407153,0.0010915,0.0229618,1938,820,40.286,-3.46354
721,204,40.2715,4.00739,0.00220689,-0.00134494,0.000204669,0.00221864,-0.0013567,0.0573705,0.00208412,0.0227386,1945,820,40.2714,-4.00741
728,204,40.2397,4.57324,0.00396698,-0.00256031,0.00103691,0.00412774,-0.00272107,0.153814,0.00398186,0.0145904,1952,820,40.2397,-4.57327
735,204,40.1787,5.19135,0.00567703,-0.0047063,0.00188854,0.00600986,-0.00503913,0.174442,0.00638734,0.016549,1959,820,40.1787,-5.19137
742,204,40.1947,5.79077,0.00739869,-0.00851848,0.0026956,0.0078428,-0.0089626,0.163288,0.00970978,0.0332375,1966,820,40.1947,-5.79079
749,204,40.077,6.16125,0.00895823,-0.0147479,0.00352671,0.00947177,-0.0152614,0.144597,0.0144095,0.0486741,1973,820,40.077,-6.16126
756,204,40.0153,6.48328,0,0,0,0,0,0,0,-1,1980,820,40.0153,-6.48329
763,204,39.8257,7.0863,0.0110097,-0.0377618,0.00459386,0.0114386,-0.0381908,0.0931004,0.0300091,0.0478612,1987,820,39.8256,-7.0863
770,204,39.7449,7.36835,0,0,0,0,0,0,0,-1,1994,820,39.7449,-7.36834
777,204,0,0,0,0,0,0,0,0,0,-1,2001,820,0,0
784,204,0,0,0,0,0,0,0,0,0,-1,2008,820,0,0
791,204,0,0,0,0,0,0,0,0,0,-1,2015,820,0,0
798,204,0,0,0,0,0,0,0,0,0,-1,2022,820,0,0
805,204,0,0,0,0,0,0,0,0,0,-1,2029,820,0,0
812,204,0,0,0,0,0,0,0,0,0,-1,2036,820,0,0
-700,197,0,0,0,0,0,0,0,0,0,-1,524,827,0,0
-693,197,0,0,0,0,0,0,0,0,0,-1,531,827,0,0
-686,197,0,0,0,0,0,0,0,0,0,-1,538,827,0,0
-679,197,0,0,0,0,0,0,0,0,0,-1,545,827,0,0
-672,197,0,0,0,0,0,0,0,0,0,-1,552,827,0,0
-665,197,0,0,0,0,0,0,0,0,0,-1,559,827,0,0
-658,197,-29.2435,5.98602,0,0,0,0,0,0,0,-1,566,827,-29.2435,-5.986
-651,197,-27.9913,6.52899,0,0,0,0,0,0,0,-1,573,827,-27.9913,-6.529
-644,197,-27.7769,7.00751,0,0,0,0,0,0,0,-1,580,827,-27.7769,-7.00752
-637,197,-27.6712,4.42389,0,0,0,0,0,0,0,-1,587,827,-27.6712,-4.42386
-630,197,-27.0933,4.53906,0,0,0,0,0,0,0,-1,594,827,-27.0933,-4.53909
-623,197,-28.7291,4.53931,0,0,0,0,0,0,0,-1,601,827,-28.7292,-4.5393
-616,197,-28.7984,3.87817,-0.00281743,-0.00497295,-0.00376974,2.55893e-05,-0.00781597,-0.646164,0.0052192,0.0479242,608,827,-28.7984,-3.87817
-609,197,-28.8593,3.20703,-0.00150902,0.000326854,-0.00276731,0.0023245,-0.00350667,-0.945542,0.00338961,0.0334151,615,827,-28.8593,-3.20706
-602,197,-28.9457,2.57104,-0.000500162,0.00344403,-0.00194539,0.00424208,-0.00129821,-1.18151,0.00334583,0.0179052,622,827,-28.9457,-2.57102
-595,197,-28.9962,2.00635,0.000187853,0.00394417,-0.00117684,0.00428241,-0.00015039,-1.29092,0.00290637,0.0185891,629,827,-28.9961,-2.00634
-588,197,-29.0143,1.39294,0.000818297,0.00263219,-0.000436762,0.00273188,0.000718609,-1.3464,0.00163522,0.0198764,636,827,-29.0143,-1.39296
-581,197,-29.0383,0.801636,0.00128297,0.00148858,0.000345749,0.00174648,0.00102506,0.929904,0.0010134,0.011462,643,827,-29.0383,-0.801657
-574,197,-29.0457,0.248108,0.00150041,0.000485213,0.00101855,0.00213084,-0.000145213,0.554233,0.00147135,0.013034,650,827,-29.0456,-0.24812
-567,197,-28.9895,-0.326172,0.00124055,-6.68123e-05,0.00128924,0.00203236,-0.000858618,0.550771,0.00171435,0.0159399,657,827,-28.9895,0.326184
-560,197,-28.9399,-0.920044,0.000113214,-0.000596809,0.000882495,0.000709429,-0.00119302,0.594162,0.00111015,0.0283776,664,827,-28.9399,0.920042
-553,197,-29.4057,-1.39026,0,0,0,0,0,0,0,-1,671,827,-29.4057,1.39027
-546,197,-29.2875,-1.8573,0,0,0,0,0,0,0,-1,678,827,-29.2875,1.85729
-539,197,-29.1693,-2.32434,0,0,0,0,0,0,0,-1,685,827,-29.1693,2.32432
-532,197,-16.0519,0.0410156,0,0,0,0,0,0,0,-1,692,827,-16.0519,-0.0410415
-525,197,-35.3785,2.11829,0,0,0,0,0,0,0,-1,699,827,-35.3785,-2.11826
-518,197,-39.71,1.09802,0,0,0,0,0,0,0,-1,706,827,-39.71,-1.09801
-511,197,-39.9368,0.881226,-0.00398906,-0.00335169,0.00350946,-0.000146478,-0.00719427,0.830677,0.00474811,0.0439557,713,827,-39.9368,-0.881205
-504,197,-40.1782,0.667297,-0.00346495,-0.00399093,0.00387585,0.000156823,-0.00761271,0.751523,0.00512821,0.0414685,720,827,-40.1782,-0.667303
-497,197,-40.008,1.11554,-0.00147046,-0.00429174,0.00400296,0.00136314,-0.00712534,0.615993,0.00526377,0.0426506,727,827,-40.008,-1.11551
-490,197,-40.0015,1.26617,0.00172226,-0.00457444,0.00337412,0.00318876,-0.00604094,0.409999,0.00541292,0.0409577,734,827,-40.0014,-1.26619
-483,197,-40.0015,1.19373,0.00816906,-0.00491799,0.000879077,0.00822785,-0.00497678,0.0667717,0.00770033,0.0423333,741,827,-40.0015,-1.19372
-476,197,0,0,0,0,0,0,0,0,0,-1,748,827,0,0
-469,197,0,0,0,0,0,0,0,0,0,-1,755,827,0,0
-462,197,0,0,0,0,0,0,0,0,0,-1,762,827,0,0
-455,197,0,0,0,0,0,0,0,0,0,-1,769,827,0,0
-448,197,0,0,0,0,0,0,0,0,0,-1,776,827,0,0
-441,197,0,0,0,0,0,0,0,0,0,-1,783,827,0,0
-434,197,0,0,0,0,0,0,0,0,0,-1,790,827,0,0
-427,197,0,0,0,0,0,0,0,0,0,-1,797,827,0,0
-420,197,0,0,0,0,0,0,0,0,0,-1,804,827,0,0
-413,197,0,0,0,0,0,0,0,0,0,-1,811,827,0,0
-406,197,0,0,0,0,0,0,0,0,0,-1,818,827,0,0
-399,197,0,0,0,0,0,0,0,0,0,-1,825,827,0,0
-392,197,0,0,0,0,0,0,0,0,0,-1,832,827,0,0
-385,197,0,0,0,0,0,0,0,0,0,-1,839,827,0,0
-378,197,0,0,0,0,0,0,0,0,0,-1,846,827,0,0
-371,197,0,0,0,0,0,0,0,0,0,-1,853,827,0,0
-364,197,0,0,0,0,0,0,0,0,0,-1,860,827,0,0
-357,197,0,0,0,0,0,0,0,0,0,-1,867,827,0,0
-350,197,0,0,0,0,0,0,0,0,0,-1,874,827,0,0
-343,197,0,0,0,0,0,0,0,0,0,-1,881,827,0,0
-336,197,0,0,0,0,0,0,0,0,0,-1,888,827,0,0
-329,197,0,0,0,0,0,0,0,0,0,-1,895,827,0,0
-322,197,0,0,0,0,0,0,0,0,0,-1,902,827,0,0
-315,197,0,0,0,0,0,0,0,0,0,-1,909,827,0,0
-308,197,0,0,0,0,0,0,0,0,0,-1,916,827,0,0
-301,197,0,0,0,0,0,0,0,0,0,-1,923,827,0,0
-294,197,0,0,0,0,0,0,0,0,0,-1,930,827,0,0
-287,197,0,0,0,0,0,0,0,0,0,-1,937,827,0,0
-280,197,0,0,0,0,0,0,0,0,0,-1,944,827,0,0
-273,197,0,0,0,0,0,0,0,0,0,-1,951,827,0,0
-266,197,0,0,0,0,0,0,0,0,0,-1,958,827,0,0
-259,197,0,0,0,0,0,0,0,0,0,-1,965,827,0,0
-252,197,0,0,0,0,0,0,0,0,0,-1,972,827,0,0
-245,197,0,0,0,0,0,0,0,0,0,-1,979,827,0,0
-238,197,0,0,0,0,0,0,0,0,0,-1,986,827,0,0
-231,197,0,0,0,0,0,0,0,0,0,-1,993,827,0,0
-224,197,0,0,0,0,0,0,0,0,0,-1,1000,827,0,0
-217,197,0,0,0,0,0,0,0,0,0,-1,1007,827,0,0
-210,197,0,0,0,0,0,0,0,0,0,-1,1014,827,0,0
-203,197,0,0,0,0,0,0,0,0,0,-1,1021,827,0,0
-196,197,0,0,0,0,0,0,0,0,0,-1,1028,827,0,0
-189,197,0,0,0,0,0,0,0,0,0,-1,1035,827,0,0
-182,197,0,0,0,0,0,0,0,0,0,-1,1042,827,0,0
-175,197,0,0,0,0,0,0,0,0,0,-1,1049,827,0,0
-168,197,0,0,0,0,0,0,0,0,0,-1,1056,827,0,0
-161,197,0,0,0,0,0,0,0,0,0,-1,1063,827,0,0
-154,197,0,0,0,0,0,0,0,0,0,-1,1070,827,0,0
-147,197,0,0,0,0,0,0,0,0,0,-1,1077,827,0,0
-140,197,0,0,0,0,0,0,0,0,0,-1,1084,827,0,0
-133,197,0,0,0,0,0,0,0,0,0,-1,1091,827,0,0
-126,197,0,0,0,0,0,0,0,0,0,-1,1098,827,0,0
-119,197,0,0,0,0,0,0,0,0,0,-1,1105,827,0,0
-112,197,0,0,0,0,0,0,0,0,0,-1,1112,827,0,0
-105,197,0,0,0,0,0,0,0,0,0,-1,1119,827,0,0
-98,197,0,0,0,0,0,0,0,0,0,-1,1126,827,0,0
-91,197,0,0,0,0,0,0,0,0,0,-1,1133,827,0,0
-84,197,0,0,0,0,0,0,0,0,0,-1,1140,827,0,0
-77,197,0,0,0,0,0,0,0,0,0,-1,1147,827,0,0
-70,197,0,0,0,0,0,0,0,0,0,-1,1154,827,0,0
-63,197,0,0,0,0,0,0,0,0,0,-1,1161,827,0,0
-56,197,0,0,0,0,0,0,0,0,0,-1,1168,827,0,0
-49,197,0,0,0,0,0,0,0,0,0,-1,1175,827,0,0
-42,197,0,0,0,0,0,0,0,0,0,-1,1182,827,0,0
-35,197,0,0,0,0,0,0,0,0,0,-1,1189,827,0,0
-28,197,0,0,0,0,0,0,0,0,0,-1,1196,827,0,0
-21,197,0,0,0,0,0,0,0,0,0,-1,1203,827,0,0
-14,197,0,0,0,0,0,0,0,0,0,-1,1210,827,0,0
-7,197,0,0,0,0,0,0,0,0,0,-1,1217,827,0,0
0,197,0,0,0,0,0,0,0,0,0,-1,1224,827,0,0
7,197,0,0,0,0,0,0,0,0,0,-1,1231,827,0,0
14,197,0,0,0,0,0,0,0,0,0,-1,1238,827,0,0
21,197,0,0,0,0,0,0,0,0,0,-1,1245,827,0,0
28,197,0,0,0,0,0,0,0,0,0,-1,1252,827,0,0
35,197,0,0,0,0,0,0,0,0,0,-1,1259,827,0,0
42,197,0,0,0,0,0,0,0,0,0,-1,1266,827,0,0
49,197,0,0,0,0,0,0,0,0,0,-1,1273,827,0,0
56,197,0,0,0,0,0,0,0,0,0,-1,1280,827,0,0
63,197,0,0,0,0,0,0,0,0,0,-1,1287,827,0,0
70,197,0,0,0,0,0,0,0,0,0,-1,1294,827,0,0
77,197,0,0,0,0,0,0,0,0,0,-1,1301,827,0,0
84,197,0,0,0,0,0,0,0,0,0,-1,1308,827,0,0
91,197,0,0,0,0,0,0,0,0,0,-1,1315,827,0,0
98,197,0,0,0,0,0,0,0,0,0,-1,1322,827,0,0
105,197,0,0,0,0,0,0,0,0,0,-1,1329,827,0,0
112,197,0,0,0,0,0,0,0,0,0,-1,1336,827,0,0
119,197,0,0,0,0,0,0,0,0,0,-1,1343,827,0,0
126,197,0,0,0,0,0,0,0,0,0,-1,1350,827,0,0
133,197,0,0,0,0,0,0,0,0,0,-1,1357,827,0,0
140,197,0,0,0,0,0,0,0,0,0,-1,1364,827,0,0
147,197,0,0,0,0,0,0,0,0,0,-1,1371,827,0,0
154,197,0,0,0,0,0,0,0,0,0,-1,1378,827,0,0
161,197,0,0,0,0,0,0,0,0,0,-1,1385,827,0,0
168,197,0,0,0,0,0,0,0,0,0,-1,1392,827,0,0
175,197,0,0,0,0,0,0,0,0,0,-1,1399,827,0,0
182,197,0,0,0,0,0,0,0,0,0,-1,1406,827,0,0
189,197,0,0,0,0,0,0,0,0,0,-1,1413,827,0,0
196,197,0,0,0,0,0,0,0,0,0,-1,1420,827,0,0
203,197,0,0,0,0,0,0,0,0,0,-1,1427,827,0,0
210,197,0,0,0,0,0,0,0,0,0,-1,1434,827,0,0
217,197,0,0,0,0,0,0,0,0,0,-1,1441,827,0,0
224,197,0,0,0,0,0,0,0,0,0,-1,1448,827,0,0
231,197,0,0,0,0,0,0,0,0,0,-1,1455,827,0,0
238,197,0,0,0,0,0,0,0,0,0,-1,1462,827,0,0
245,197,0,0,0,0,0,0,0,0,0,-1,1469,827,0,0
252,197,0,0,0,0,0,0,0,0,0,-1,1476,827,0,0
259,197,0,0,0,0,0,0,0,0,0,-1,1483,827,0,0
266,197,0,0,0,0,0,0,0,0,0,-1,1490,827,0,0
273,197,0,0,0,0,0,0,0,0,0,-1,1497,827,0,0
280,197,0,0,0,0,0,0,0,0,0,-1,1504,827,0,0
287,197,0,0,0,0,0,0,0,0,0,-1,1511,827,0,0
294,197,0,0,0,0,0,0,0,0,0,-1,1518,827,0,0
301,197,0,0,0,0,0,0,0,0,0,-1,1525,827,0,0
308,197,0,0,0,0,0,0,0,0,0,-1,1532,827,0,0
315,197,0,0,0,0,0,0,0,0,0,-1,1539,827,0,0
322,197,0,0,0,0,0,0,0,0,0,-1,1546,827,0,0
329,197,0,0,0,0,0,0,0,0,0,-1,1553,827,0,0
336,197,0,0,0,0,0,0,0,0,0,-1,1560,827,0,0
343,197,0,0,0,0,0,0,0,0,0,-1,1567,827,0,0
350,197,0,0,0,0,0,0,0,0,0,-1,1574,827,0,0
357,197,0,0,0,0,0,0,0,0,0,-1,1581,827,0,0
364,197,0,0,0,0,0,0,0,0,0,-1,1588,827,0,0
371,197,0,0,0,0,0,0,0,0,0,-1,1595,827,0,0
378,197,0,0,0,0,0,0,0,0,0,-1,1602,827,0,0
385,197,0,0,0,0,0,0,0,0,0,-1,1609,827,0,0
392,197,0,0,0,0,0,0,0,0,0,-1,1616,827,0,0
399,197,0,0,0,0,0,0,0,0,0,-1,1623,827,0,0
406,197,0,0,0,0,0,0,0,0,0,-1,1630,827,0,0
413,197,0,0,0,0,0,0,0,0,0,-1,1637,827,0,0
420,197,0,0,0,0,0,0,0,0,0,-1,1644,827,0,0
427,197,0,0,0,0,0,0,0,0,0,-1,1651,827,0,0
434,197,0,0,0,0,0,0,0,0,0,-1,1658,827,0,0
441,197,0,0,0,0,0,0,0,0,0,-1,1665,827,0,0
448,197,0,0,0,0,0,0,0,0,0,-1,1672,827,0,0
455,197,0,0,0,0,0,0,0,0,0,-1,1679,827,0,0
462,197,0,0,0,0,0,0,0,0,0,-1,1686,827,0,0
469,197,0,0,0,0,0,0,0,0,0,-1,1693,827,0,0
476,197,0,0,0,0,0,0,0,0,0,-1,1700,827,0,0
483,197,0,0,0,0,0,0,0,0,0,-1,1707,827,0,0
490,197,0,0,0,0,0,0,0,0,0,-1,1714,827,0,0
497,197,0,0,0,0,0,0,0,0,0,-1,1721,827,0,0
504,197,0,0,0,0,0,0,0,0,0,-1,1728,827,0,0
511,197,0,0,0,0,0,0,0,0,0,-1,1735,827,0,0
518,197,0,0,0,0,0,0,0,0,0,-1,1742,827,0,0
525,197,0,0,0,0,0,0,0,0,0,-1,1749,827,0,0
532,197,0,0,0,0,0,0,0,0,0,-1,1756,827,0,0
539,197,0,0,0,0,0,0,0,0,0,-1,1763,827,0,0
546,197,0,0,0,0,0,0,0,0,0,-1,1770,827,0,0
553,197,0,0,0,0,0,0,0,0,0,-1,1777,827,0,0
560,197,0,0,0,0,0,0,0,0,0,-1,1784,827,0,0
567,197,0,0,0,0,0,0,0,0,0,-1,1791,827,0,0
574,197,0,0,0,0,0,0,0,0,0,-1,1798,827,0,0
581,197,0,0,0,0,0,0,0,0,0,-1,1805,827,0,0
588,197,0,0,0,0,0,0,0,0,0,-1,1812,827,0,0
595,197,0,0,0,0,0,0,0,0,0,-1,1819,827,0,0
602,197,53.1373,2.62567,0.00401065,-0.00283236,-0.00184337,0.00447563,-0.00329734,-0.247086,0.00450488,0.038209,1826,827,53.1373,-2.62564
609,197,53.1639,2.64563,0.0026307,-0.00153077,-0.00116466,0.00293448,-0.00183455,-0.255142,0.0027777,0.0391558,1833,827,53.1639,-2.64563
616,197,53.1449,2.60101,0.00110709,-0.00028948,-0.000605467,0.00133303,-0.00051542,-0.357162,0.00110146,0.0417517,1840,827,53.1449,-2.60104
623,197,53.2109,2.57739,-0.000639562,7.71277e-05,-0.000607966,0.000424497,-0.000986932,-1.0517,0.000836177,0.0369778,1847,827,53.211,-2.57738
630,197,53.2552,2.6059,-0.00219137,8.87275e-05,-0.00080625,0.000345013,-0.00244766,-1.26302,0.0017581,0.0301621,1854,827,53.2553,-2.60589
637,197,53.1929,2.64172,-0.0032032,-0.000236111,-0.00116427,0.000166195,-0.00360551,-1.2381,0.00246094,0.0282988,1861,827,53.1929,-2.64175
644,197,53.1555,2.63348,-0.00382455,-0.000655926,-0.00144477,-9.60825e-05,-0.0043844,-1.20112,0.00289144,0.0342112,1868,827,53.1555,-2.63347
651,197,53.1542,2.79138,0,0,0,0,0,0,0,-1,1875,827,53.1541,-2.7914
658,197,40.4694,3.05927,0,0,0,0,0,0,0,-1,1882,827,40.4694,-3.05926
665,197,14.0618,1.80304,0,0,0,0,0,0,0,-1,1889,827,14.0617,-1.80303
672,197,40.0977,-0.62207,0,0,0,0,0,0,0,-1,1896,827,40.0977,0.6221
679,197,40.8977,0.0203857,0,0,0,0,0,0,0,-1,1903,827,40.8977,-0.020368
686,197,41.038,0.967896,-0.00498037,-0.00157283,-0.00243812,-0.000302164,-0.00625103,-1.09036,0.00407037,0.0320548,1910,827,41.0379,-0.967892
693,197,40.9299,1.62604,-0.00398327,-0.00140648,-0.00248595,0.000105112,-0.00549486,-1.02448,0.00369878,0.0210509,1917,827,40.93,-1.62606
700,197,40.8911,2.17804,-0.00309765,-0.00113665,-0.00230557,0.000388244,-0.00462255,-0.98645,0.00321893,0.0236439,1924,827,40.8911,-2.17802
707,197,40.9412,2.79108,-0.00175279,-0.000956016,-0.00181235,0.000501213,-0.00321002,-0.893587,0.00232516,0.00940056,1931,827,40.9412,-2.79109
714,197,40.9054,3.38776,-0.000198894,-0.000977555,-0.00106328,0.000544096,-0.00172054,-0.6099,0.00136503,0.0116304,1938,827,40.9053,-3.38777
721,197,40.8759,3.9754,0.00175299,-0.00114669,-0.000201879,0.00176698,-0.00116068,-0.0691762,0.00170232,0.012175,1945,827,40.8759,-3.97542
728,197,40.8345,4.57983,0.00382987,-0.0019583,0.000655824,0.00390325,-0.00203168,0.111422,0.00348286,0.0107943,1952,827,40.8344,-4.57983
735,197,40.7815,5.19727,0.00597915,-0.00355663,0.0014964,0.00620846,-0.00378594,0.152057,0.0058265,0.0117959,1959,827,40.7815,-5.19726
742,197,40.7338,5.84631,0.00832402,-0.00642297,0.00231112,0.00867773,-0.00677668,0.151869,0.00894509,0.02235,1966,827,40.7338,-5.8463
749,197,40.4949,6.37225,0.0108227,-0.0111859,0.00316269,0.0112682,-0.0116314,0.139931,0.0132216,0.0473611,1973,827,40.4948,-6.37227
756,197,40.2643,6.9624,0.0135216,-0.0186143,0.00400144,0.0140123,-0.0191051,0.122034,0.0191956,0.0479606,1980,827,40.2643,-6.96241
763,197,40.1951,7.57208,0.0161413,-0.0296597,0.00440996,0.0165621,-0.0300805,0.0951207,0.0273035,0.048819,1987,827,40.1951,-7.57207
770,197,40.1252,8.19623,0,0,0,0,0,0,0,-1,1994,827,40.1252,-8.1962
777,197,0,0,0,0,0,0,0,0,0,-1,2001,827,0,0
784,197,0,0,0,0,0,0,0,0,0,-1,2008,827,0,0
791,197,0,0,0,0,0,0,0,0,0,-1,2015,827,0,0
798,197,0,0,0,0,0,0,0,0,0,-1,2022,827,0,0
805,197,0,0,0,0,0,0,0,0,0,-1,2029,827,0,0
812,197,0,0,0,0,0,0,0,0,0,-1,2036,827,0,0
-700,190,0,0,0,0,0,0,0,0,0,-1,524,834,0,0
-693,190,0,0,0,0,0,0,0,0,0,-1,531,834,0,0
-686,190,0,0,0,0,0,0,0,0,0,-1,538,834,0,0
-679,190,0,0,0,0,0,0,0,0,0,-1,545,834,0,0
-672,190,0,0,0,0,0,0,0,0,0,-1,552,834,0,0
-665,190,0,0,0,0,0,0,0,0,0,-1,559,834,0,0
-658,190,-29.7865,6.25867,0,0,0,0,0,0,0,-1,566,834,-29.7865,-6.25865
-651,190,-29.1693,7.57068,0,0,0,0,0,0,0,-1,573,834,-29.1692,-7.57068
-644,190,-28.3755,6.96173,0,0,0,0,0,0,0,-1,580,834,-28.3755,-6.96172
-637,190,-27.5817,6.35272,0,0,0,0,0,0,0,-1,587,834,-27.5817,-6.35275
-630,190,-29.1907,5.50348,0,0,0,0,0,0,0,-1,594,834,-29.1908,-5.5035
-623,190,-29.3416,4.2226,0,0,0,0,0,0,0,-1,601,834,-29.3416,-4.22259
-616,190,-29.3929,3.67975,-0.00421626,-0.00738396,-0.00247142,-0.00286473,-0.0087355,-0.500434,0.00514202,0.0461463,608,834,-29.393,-3.67972
-609,190,-29.4625,3.12024,-0.00274809,-0.00095532,-0.00161147,-7.70041e-06,-0.00369571,-1.03921,0.00246124,0.0260341,615,834,-29.4625,-3.12026
-602,190,-29.5524,2.56805,-0.00171725,0.00310797,-0.000852071,0.00325401,-0.00186329,-1.40105,0.00299063,0.0172708,622,834,-29.5523,-2.56806
-595,190,-29.59,1.99414,-0.000817287,0.00384909,-0.000162629,0.00385475,-0.000822948,-1.536,0.00288356,0.0184193,629,834,-29.59,-1.99413
-588,190,-29.6093,1.41473,0.000200863,0.00247565,0.000446317,0.00256008,0.000116428,1.38383,0.00166926,0.0182708,636,834,-29.6093,-1.41475
-581,190,-29.6147,0.83374,0.00106038,0.00137188,0.00106993,0.00229733,0.000134928,0.857674,0.00148862,0.0131979,643,834,-29.6147,-0.833714
-574,190,-29.6043,0.255493,0.00163142,0.000532317,0.00150636,0.00268534,-0.000521609,0.610491,0.00198705,0.0123234,650,834,-29.6043,-0.25548
-567,190,-29.5189,-0.38501,0.001585,0.000217458,0.00146104,0.00251436,-0.000711899,0.566536,0.00195718,0.024726,657,834,-29.5188,0.385006
-560,190,-29.6122,-0.892456,0.00054869,-0.000154437,0.000882875,0.00114742,-0.000753171,0.59592,0.00110515,0.0465482,664,834,-29.6122,0.89243
-553,190,-30.1541,-1.49292,0,0,0,0,0,0,0,-1,671,834,-30.1541,1.49292
-546,190,-29.8726,-1.85962,0,0,0,0,0,0,0,-1,678,834,-29.8726,1.85961
-539,190,-16.4624,-0.542542,0,0,0,0,0,0,0,-1,685,834,-16.4624,0.542527
-532,190,-21.6292,2.06122,0,0,0,0,0,0,0,-1,692,834,-21.6292,-2.06123
-525,190,-38.9377,1.03369,0,0,0,0,0,0,0,-1,699,834,-38.9377,-1.0337
-518,190,-39.7297,1.12463,0,0,0,0,0,0,0,-1,706,834,-39.7297,-1.12462
-511,190,-39.833,0.990112,-0.00364493,-0.0025393,0.00244927,-0.000581228,-0.005603,0.896391,0.00355745,0.0427732,713,834,-39.833,-0.990133
-504,190,-40.0599,0.851563,-0.00305002,-0.00321594,0.00273823,-0.00039349,-0.00587246,0.770255,0.00379063,0.0422456,720,834,-40.0599,-0.851567
-497,190,-40.2396,0.905823,-0.000863603,-0.00367694,0.00283412,0.00089374,-0.00543428,0.555043,0.00395458,0.0462123,727,834,-40.2396,-0.905849
-490,190,-39.9656,1.1568,0.00277072,-0.00439431,0.00214507,0.00336382,-0.00498741,0.269754,0.00485186,0.0451849,734,834,-39.9656,-1.15681
-483,190,0,0,0,0,0,0,0,0,0,-1,741,834,0,0
-476,190,0,0,0,0,0,0,0,0,0,-1,748,834,0,0
-469,190,0,0,0,0,0,0,0,0,0,-1,755,834,0,0
-462,190,0,0,0,0,0,0,0,0,0,-1,762,834,0,0
-455,190,0,0,0,0,0,0,0,0,0,-1,769,834,0,0
-448,190,0,0,0,0,0,0,0,0,0,-1,776,834,0,0
-441,190,0,0,0,0,0,0,0,0,0,-1,783,834,0,0
-434,190,0,0,0,0,0,0,0,0,0,-1,790,834,0,0
-427,190,0,0,0,0,0,0,0,0,0,-1,797,834,0,0
-420,190,0,0,0,0,0,0,0,0,0,-1,804,834,0,0
-413,190,0,0,0,0,0,0,0,0,0,-1,811,834,0,0
-406,190,0,0,0,0,0,0,0,0,0,-1,818,834,0,0
-399,190,0,0,0,0,0,0,0,0,0,-1,825,834,0,0
-392,190,0,0,0,0,0,0,0,0,0,-1,832,834,0,0
-385,190,0,0,0,0,0,0,0,0,0,-1,839,834,0,0
-378,190,0,0,0,0,0,0,0,0,0,-1,846,834,0,0
-371,190,0,0,0,0,0,0,0,0,0,-1,853,834,0,0
-364,190,0,0,0,0,0,0,0,0,0,-1,860,834,0,0
-357,190,0,0,0,0,0,0,0,0,0,-1,867,834,0,0
-350,190,0,0,0,0,0,0,0,0,0,-1,874,834,0,0
-343,190,0,0,0,0,0,0,0,0,0,-1,881,834,0,0
-336,190,0,0,0,0,0,0,0,0,0,-1,888,834,0,0
-329,190,0,0,0,0,0,0,0,0,0,-1,895,834,0,0
-322,190,0,0,0,0,0,0,0,0,0,-1,902,834,0,0
-315,190,0,0,0,0,0,0,0,0,0,-1,909,834,0,0
-308,190,0,0,0,0,0,0,0,0,0,-1,916,834,0,0
-301,190,0,0,0,0,0,0,0,0,0,-1,923,834,0,0
-294,190,0,0,0,0,0,0,0,0,0,-1,930,834,0,0
-287,190,0,0,0,0,0,0,0,0,0,-1,937,834,0,0
-280,190,0,0,0,0,0,0,0,0,0,-1,944,834,0,0
-273,190,0,0,0,0,0,0,0,0,0,-1,951,834,0,0
-266,190,0,0,0,0,0,0,0,0,0,-1,958,834,0,0
-259,190,0,0,0,0,0,0,0,0,0,-1,965,834,0,0
-252,190,0,0,0,0,0,0,0,0,0,-1,972,834,0,0
-245,190,0,0,0,0,0,0,0,0,0,-1,979,834,0,0
-238,190,0,0,0,0,0,0,0,0,0,-1,986,834,0,0
-231,190,0,0,0,0,0,0,0,0,0,-1,993,834,0,0
-224,190,0,0,0,0,0,0,0,0,0,-1,1000,834,0,0
-217,190,0,0,0,0,0,0,0,0,0,-1,1007,834,0,0
-210,190,0,0,0,0,0,0,0,0,0,-1,1014,834,0,0
-203,190,0,0,0,0,0,0,0,0,0,-1,1021,834,0,0
-196,190,0,0,0,0,0,0,0,0,0,-1,1028,834,0,0
-189,190,0,0,0,0,0,0,0,0,0,-1,1035,834,0,0
-182,190,0,0,0,0,0,0,0,0,0,-1,1042,834,0,0
-175,190,0,0,0,0,0,0,0,0,0,-1,1049,834,0,0
-168,190,0,0,0,0,0,0,0,0,0,-1,1056,834,0,0
-161,190,0,0,0,0,0,0,0,0,0,-1,1063,834,0,0
-154,190,0,0,0,0,0,0,0,0,0,-1,1070,834,0,0
-147,190,0,0,0,0,0,0,0,0,0,-1,1077,834,0,0
-140,190,0,0,0,0,0,0,0,0,0,-1,1084,834,0,0
-133,190,0,0,0,0,0,0,0,0,0,-1,1091,834,0,0
-126,190,0,0,0,0,0,0,0,0,0,-1,1098,834,0,0
-119,190,0,0,0,0,0,0,0,0,0,-1,1105,834,0,0
-112,190,0,0,0,0,0,0,0,0,0,-1,1112,834,0,0
-105,190,0,0,0,0,0,0,0,0,0,-1,1119,834,0,0
-98,190,0,0,0,0,0,0,0,0,0,-1,1126,834,0,0
-91,190,0,0,0,0,0,0,0,0,0,-1,1133,834,0,0
-84,190,0,0,0,0,0,0,0,0,0,-1,1140,834,0,0
-77,190,0,0,0,0,0,0,0,0,0,-1,1147,834,0,0
-70,190,0,0,0,0,0,0,0,0,0,-1,1154,834,0,0
-63,190,0,0,0,0,0,0,0,0,0,-1,1161,834,0,0
-56,190,0,0,0,0,0,0,0,0,0,-1,1168,834,0,0
-49,190,0,0,0,0,0,0,0,0,0,-1,1175,834,0,0
-42,190,0,0,0,0,0,0,0,0,0,-1,1182,834,0,0
-35,190,0,0,0,0,0,0,0,0,0,-1,1189,834,0,0
-28,190,0,0,0,0,0,0,0,0,0,-1,1196,834,0,0
-21,190,0,0,0,0,0,0,0,0,0,-1,1203,834,0,0
-14,190,0,0,0,0,0,0,0,0,0,-1,1210,834,0,0
-7,190,0,0,0,0,0,0,0,0,0,-1,1217,834,0,0
0,190,0,0,0,0,0,0,0,0,0,-1,1224,834,0,0
7,190,0,0,0,0,0,0,0,0,0,-1,1231,834,0,0
14,190,0,0,0,0,0,0,0,0,0,-1,1238,834,0,0
21,190,0,0,0,0,0,0,0,0,0,-1,1245,834,0,0
28,190,0,0,0,0,0,0,0,0,0,-1,1252,834,0,0
35,190,0,0,0,0,0,0,0,0,0,-1,1259,834,0,0
42,190,0,0,0,0,0,0,0,0,0,-1,1266,834,0,0
49,190,0,0,0,0,0,0,0,0,0,-1,1273,834,0,0
56,190,0,0,0,0,0,0,0,0,0,-1,1280,834,0,0
63,190,0,0,0,0,0,0,0,0,0,-1,1287,834,0,0
70,190,0,0,0,0,0,0,0,0,0,-1,1294,834,0,0
77,190,0,0,0,0,0,0,0,0,0,-1,1301,834,0,0
84,190,0,0,0,0,0,0,0,0,0,-1,1308,834,0,0
91,190,0,0,0,0,0,0,0,0,0,-1,1315,834,0,0
98,190,0,0,0,0,0,0,0,0,0,-1,1322,834,0,0
105,190,0,0,0,0,0,0,0,0,0,-1,1329,834,0,0
112,190,0,0,0,0,0,0,0,0,0,-1,1336,834,0,0
119,190,0,0,0,0,0,0,0,0,0,-1,1343,834,0,0
126,190,0,0,0,0,0,0,0,0,0,-1,1350,834,0,0
133,190,0,0,0,0,0,0,0,0,0,-1,1357,834,0,0
140,190,0,0,0,0,0,0,0,0,0,-1,1364,834,0,0
147,190,0,0,0,0,0,0,0,0,0,-1,1371,834,0,0
154,190,0,0,0,0,0,0,0,0,0,-1,1378,834,0,0
161,190,0,0,0,0,0,0,0,0,0,-1,1385,834,0,0
168,190,0,0,0,0,0,0,0,0,0,-1,1392,834,0,0
175,190,0,0,0,0,0,0,0,0,0,-1,1399,834,0,0
182,190,0,0,0,0,0,0,0,0,0,-1,1406,834,0,0
189,190,0,0,0,0,0,0,0,0,0,-1,1413,834,0,0
196,190,0,0,0,0,0,0,0,0,0,-1,1420,834,0,0
203,190,0,0,0,0,0,0,0,0,0,-1,1427,834,0,0
210,190,0,0,0,0,0,0,0,0,0,-1,1434,834,0,0
217,190,0,0,0,0,0,0,0,0,0,-1,1441,834,0,0
224,190,0,0,0,0,0,0,0,0,0,-1,1448,834,0,0
231,190,0,0,0,0,0,0,0,0,0,-1,1455,834,0,0
238,190,0,0,0,0,0,0,0,0,0,-1,1462,834,0,0
245,190,0,0,0,0,0,0,0,0,0,-1,1469,834,0,0
252,190,0,0,0,0,0,0,0,0,0,-1,1476,834,0,0
259,190,0,0,0,0,0,0,0,0,0,-1,1483,834,0,0
266,190,0,0,0,0,0,0,0,0,0,-1,1490,834,0,0
273,190,0,0,0,0,0,0,0,0,0,-1,1497,834,0,0
280,190,0,0,0,0,0,0,0,0,0,-1,1504,834,0,0
287,190,0,0,0,0,0,0,0,0,0,-1,1511,834,0,0
294,190,0,0,0,0,0,0,0,0,0,-1,1518,834,0,0
301,190,0,0,0,0,0,0,0,0,0,-1,1525,834,0,0
308,190,0,0,0,0,0,0,0,0,0,-1,1532,834,0,0
315,190,0,0,0,0,0,0,0,0,0,-1,1539,834,0,0
322,190,0,0,0,0,0,0,0,0,0,-1,1546,834,0,0
329,190,0,0,0,0,0,0,0,0,0,-1,1553,834,0,0
336,190,0,0,0,0,0,0,0,0,0,-1,1560,834,0,0
343,190,0,0,0,0,0,0,0,0,0,-1,1567,834,0,0
350,190,0,0,0,0,0,0,0,0,0,-1,1574,834,0,0
357,190,0,0,0,0,0,0,0,0,0,-1,1581,834,0,0
364,190,0,0,0,0,0,0,0,0,0,-1,1588,834,0,0
371,190,0,0,0,0,0,0,0,0,0,-1,1595,834,0,0
378,190,0,0,0,0,0,0,0,0,0,-1,1602,834,0,0
385,190,0,0,0,0,0,0,0,0,0,-1,1609,834,0,0
392,190,0,0,0,0,0,0,0,0,0,-1,1616,834,0,0
399,190,0,0,0,0,0,0,0,0,0,-1,1623,834,0,0
406,190,0,0,0,0,0,0,0,0,0,-1,1630,834,0,0
413,190,0,0,0,0,0,0,0,0,0,-1,1637,834,0,0
420,190,0,0,0,0,0,0,0,0,0,-1,1644,834,0,0
427,190,0,0,0,0,0,0,0,0,0,-1,1651,834,0,0
434,190,0,0,0,0,0,0,0,0,0,-1,1658,834,0,0
441,190,0,0,0,0,0,0,0,0,0,-1,1665,834,0,0
448,190,0,0,0,0,0,0,0,0,0,-1,1672,834,0,0
455,190,0,0,0,0,0,0,0,0,0,-1,1679,834,0,0
462,190,0,0,0,0,0,0,0,0,0,-1,1686,834,0,0
469,190,0,0,0,0,0,0,0,0,0,-1,1693,834,0,0
476,190,0,0,0,0,0,0,0,0,0,-1,1700,834,0,0
483,190,0,0,0,0,0,0,0,0,0,-1,1707,834,0,0
490,190,0,0,0,0,0,0,0,0,0,-1,1714,834,0,0
497,190,0,0,0,0,0,0,0,0,0,-1,1721,834,0,0
504,190,0,0,0,0,0,0,0,0,0,-1,1728,834,0,0
511,190,0,0,0,0,0,0,0,0,0,-1,1735,834,0,0
518,190,0,0,0,0,0,0,0,0,0,-1,1742,834,0,0
525,190,0,0,0,0,0,0,0,0,0,-1,1749,834,0,0
532,190,0,0,0,0,0,0,0,0,0,-1,1756,834,0,0
539,190,0,0,0,0,0,0,0,0,0,-1,1763,834,0,0
546,190,0,0,0,0,0,0,0,0,0,-1,1770,834,0,0
553,190,0,0,0,0,0,0,0,0,0,-1,1777,834,0,0
560,190,0,0,0,0,0,0,0,0,0,-1,1784,834,0,0
567,190,0,0,0,0,0,0,0,0,0,-1,1791,834,0,0
574,190,0,0,0,0,0,0,0,0,0,-1,1798,834,0,0
581,190,0,0,0,0,0,0,0,0,0,-1,1805,834,0,0
588,190,0,0,0,0,0,0,0,0,0,-1,1812,834,0,0
595,190,0,0,0,0,0,0,0,0,0,-1,1819,834,0,0
602,190,53.1578,2.62579,0.00530141,-0.00558097,-0.00279095,0.00597544,-0.006255,-0.236969,0.00706186,0.0427375,1826,834,53.1578,-2.62579
609,190,53.1122,2.66498,0.00399564,-0.00420826,-0.00194859,0.00443494,-0.00464757,-0.221741,0.00524427,0.042638,1833,834,53.1121,-2.66501
616,190,53.0504,2.64526,0.00240548,-0.00259609,-0.00116845,0.00266498,-0.00285559,-0.218546,0.00318794,0.0437188,1840,834,53.0504,-2.64525
623,190,53.1392,2.64703,0.000485276,-0.00160283,-0.000834595,0.000777859,-0.00189541,-0.337182,0.00158773,0.040898,1847,834,53.1392,-2.64706
630,190,53.2427,2.39221,0,0,0,0,0,0,0,-1,1854,834,53.2427,-2.39224
637,190,53.2236,2.48322,-0.00267349,-0.00102632,-0.00115011,-0.000435315,-0.00326449,-1.09612,0.00204671,0.0345365,1861,834,53.2237,-2.48324
644,190,53.1249,2.71771,-0.00346155,-0.00124135,-0.00142282,-0.000546806,-0.00415609,-1.11668,0.00260764,0.0281422,1868,834,53.1249,-2.71772
651,190,53.108,2.80615,-0.00387953,-0.00147321,-0.0016075,-0.000668473,-0.00468427,-1.10666,0.00292559,0.0481576,1875,834,53.1081,-2.80616
658,190,53.0721,2.89423,0,0,0,0,0,0,0,-1,1882,834,53.0721,-2.89423
665,190,25.9916,3.05157,0,0,0,0,0,0,0,-1,1889,834,25.9916,-3.05156
672,190,27.2662,1.70862,0,0,0,0,0,0,0,-1,1896,834,27.2662,-1.70861
679,190,41.7081,0.503296,0,0,0,0,0,0,0,-1,1903,834,41.7081,-0.503296
686,190,41.6433,1.06854,-0.0048793,-0.0015413,-0.00236954,-0.00031198,-0.00610862,-1.09222,0.00397251,0.0268638,1910,834,41.6433,-1.06853
693,190,41.6527,1.6582,-0.00405424,-0.00138925,-0.00247907,9.27397e-05,-0.00553623,-1.032,0.00372212,0.0222717,1917,834,41.6527,-1.65818
700,190,41.5234,2.22357,-0.0032978,-0.00118197,-0.00238931,0.000373154,-0.00485293,-0.993811,0.00336657,0.0156455,1924,834,41.5235,-2.22354
707,190,41.5431,2.82153,-0.00210745,-0.00105344,-0.00202632,0.000513283,-0.00367417,-0.912619,0.00263725,0.0131649,1931,834,41.5431,-2.82152
714,190,41.5127,3.39337,-0.00054969,-0.000907484,-0.0013835,0.000666434,-0.00212361,-0.721101,0.00168247,0.011504,1938,834,41.5128,-3.39334
721,190,41.489,3.98639,0.00153133,-0.00085233,-0.000590711,0.00166968,-0.000990688,-0.230074,0.00155255,0.0107347,1945,834,41.489,-3.98638
728,190,41.452,4.59491,0.00389702,-0.00128751,0.000268208,0.00391086,-0.00130135,0.0515489,0.00313246,0.0127671,1952,834,41.452,-4.59492
735,190,41.4293,5.17529,0.00645709,-0.0023572,0.00110728,0.00659406,-0.00249417,0.123076,0.00542215,0.0126847,1959,834,41.4294,-5.17528
742,190,41.3502,5.83679,0.00932503,-0.00437545,0.00193011,0.00959175,-0.00464217,0.137319,0.00838194,0.0177237,1966,834,41.3502,-5.8368
749,190,41.1184,6.48407,0,0,0,0,0,0,0,-1,1973,834,41.1184,-6.48406
756,190,40.8871,7.84448,0,0,0,0,0,0,0,-1,1980,834,40.8871,-7.84446
763,190,40.6025,8.05548,0,0,0,0,0,0,0,-1,1987,834,40.6025,-8.05549
770,190,39.8972,7.38257,0,0,0,0,0,0,0,-1,1994,834,39.8972,-7.38259
777,190,40.5735,6.99371,0,0,0,0,0,0,0,-1,2001,834,40.5735,-6.99373
784,190,0,0,0,0,0,0,0,0,0,-1,2008,834,0,0
791,190,0,0,0,0,0,0,0,0,0,-1,2015,834,0,0
798,190,0,0,0,0,0,0,0,0,0,-1,2022,834,0,0
805,190,0,0,0,0,0,0,0,0,0,-1,2029,834,0,0
812,190,0,0,0,0,0,0,0,0,0,-1,2036,834,0,0
-700,183,0,0,0,0,0,0,0,0,0,-1,524,841,0,0
-693,183,0,0,0,0,0,0,0,0,0,-1,531,841,0,0
-686,183,0,0,0,0,0,0,0,0,0,-1,538,841,0,0
-679,183,0,0,0,0,0,0,0,0,0,-1,545,841,0,0
-672,183,0,0,0,0,0,0,0,0,0,-1,552,841,0,0
-665,183,0,0,0,0,0,0,0,0,0,-1,559,841,0,0
-658,183,-40.9998,3.29688,0,0,0,0,0,0,0,-1,566,841,-40.9997,-3.29689
-651,183,-29.3162,7.48071,0,0,0,0,0,0,0,-1,573,841,-29.3162,-7.48068
-644,183,-28.9174,6.80347,0,0,0,0,0,0,0,-1,580,841,-28.9174,-6.80345
-637,183,-28.9072,5.9649,0,0,0,0,0,0,0,-1,587,841,-28.9072,-5.96492
-630,183,-29.6337,4.32288,0,0,0,0,0,0,0,-1,594,841,-29.6337,-4.32288
-623,183,-30.0099,4.16364,0,0,0,0,0,0,0,-1,601,841,-30.0099,-4.16363
-616,183,-30.0548,3.65619,-0.00458714,-0.00955935,-0.00135347,-0.00424259,-0.0099039,-0.249272,0.00573754,0.0410607,608,841,-30.0548,-3.65616
-609,183,-30.1153,3.16211,-0.00296051,-0.00229022,-0.000519026,-0.00200754,-0.00324319,-1.07208,0.00189005,0.0189003,615,841,-30.1153,-3.16209
-602,183,-30.1434,2.58569,-0.00196284,0.00239386,0.00021047,0.00240401,-0.00197299,1.52264,0.00253114,0.0119527,622,841,-30.1435,-2.58572
-595,183,-30.1574,1.99072,-0.000985103,0.00340194,0.000820109,0.00355024,-0.0011334,1.3919,0.00282155,0.0113523,629,841,-30.1574,-1.99072
-588,183,-30.167,1.41345,0.000216353,0.00206921,0.00126216,0.00270845,-0.000422882,1.10199,0.00196184,0.0139296,636,841,-30.167,-1.41344
-581,183,-30.2061,0.859436,0.00124797,0.00112811,0.00166368,0.0028528,-0.000476715,0.767394,0.00207907,0.0146306,643,841,-30.2061,-0.859419
-574,183,-30.1814,0.311035,0.00194715,0.000517855,0.00181903,0.00318688,-0.000721874,0.598225,0.00240165,0.0155352,650,841,-30.1814,-0.311038
-567,183,-29.967,-0.313843,0.00196033,0.000372027,0.00152614,0.00288658,-0.000554221,0.545494,0.00213326,0.0490213,657,841,-29.967,0.313866
-560,183,-30.2847,-0.968689,0,0,0,0,0,0,0,-1,664,841,-30.2846,0.968668
-553,183,-29.4349,-1.46356,0,0,0,0,0,0,0,-1,671,841,-29.4349,1.46358
-546,183,-27.8053,-1.91199,0,0,0,0,0,0,0,-1,678,841,-27.8053,1.91201
-539,183,-16.8032,-0.417297,0,0,0,0,0,0,0,-1,685,841,-16.8032,0.41732
-532,183,-29.9686,0.953613,0,0,0,0,0,0,0,-1,692,841,-29.9686,-0.953627
-525,183,-39.8001,1.02747,0,0,0,0,0,0,0,-1,699,841,-39.8001,-1.02745
-518,183,-39.8993,0.878906,-0.00254078,-0.00138206,0.00107095,-0.000743807,-0.00317903,1.03334,0.00192006,0.0488926,706,841,-39.8993,-0.878929
-511,183,-39.9871,0.779541,-0.00311868,-0.00191453,0.00131276,-0.00107236,-0.00396085,1.0004,0.00236557,0.0404397,713,841,-39.987,-0.779532
-504,183,-40.1248,0.757385,-0.0022663,-0.00256246,0.00150156,-0.000905541,-0.00392322,0.736248,0.00237197,0.0404824,720,841,-40.1248,-0.757364
-497,183,-40.2397,0.5578,0,0,0,0,0,0,0,-1,727,841,-40.2397,-0.557786
-490,183,-39.9117,1.10565,0,0,0,0,0,0,0,-1,734,841,-39.9117,-1.10566
-483,183,0,0,0,0,0,0,0,0,0,-1,741,841,0,0
-476,183,0,0,0,0,0,0,0,0,0,-1,748,841,0,0
-469,183,0,0,0,0,0,0,0,0,0,-1,755,841,0,0
-462,183,0,0,0,0,0,0,0,0,0,-1,762,841,0,0
-455,183,0,0,0,0,0,0,0,0,0,-1,769,841,0,0
-448,183,0,0,0,0,0,0,0,0,0,-1,776,841,0,0
-441,183,0,0,0,0,0,0,0,0,0,-1,783,841,0,0
-434,183,0,0,0,0,0,0,0,0,0,-1,790,841,0,0
-427,183,0,0,0,0,0,0,0,0,0,-1,797,841,0,0
-420,183,0,0,0,0,0,0,0,0,0,-1,804,841,0,0
-413,183,0,0,0,0,0,0,0,0,0,-1,811,841,0,0
-406,183,0,0,0,0,0,0,0,0,0,-1,818,841,0,0
-399,183,0,0,0,0,0,0,0,0,0,-1,825,841,0,0
-392,183,0,0,0,0,0,0,0,0,0,-1,832,841,0,0
-385,183,0,0,0,0,0,0,0,0,0,-1,839,841,0,0
-378,183,0,0,0,0,0,0,0,0,0,-1,846,841,0,0
-371,183,0,0,0,0,0,0,0,0,0,-1,853,841,0,0
-364,183,0,0,0,0,0,0,0,0,0,-1,860,841,0,0
-357,183,0,0,0,0,0,0,0,0,0,-1,867,841,0,0
-350,183,0,0,0,0,0,0,0,0,0,-1,874,841,0,0
-343,183,0,0,0,0,0,0,0,0,0,-1,881,841,0,0
-336,183,0,0,0,0,0,0,0,0,0,-1,888,841,0,0
-329,183,0,0,0,0,0,0,0,0,0,-1,895,841,0,0
-322,183,0,0,0,0,0,0,0,0,0,-1,902,841,0,0
-315,183,0,0,0,0,0,0,0,0,0,-1,909,841,0,0
-308,183,0,0,0,0,0,0,0,0,0,-1,916,841,0,0
-301,183,0,0,0,0,0,0,0,0,0,-1,923,841,0,0
-294,183,0,0,0,0,0,0,0,0,0,-1,930,841,0,0
-287,183,0,0,0,0,0,0,0,0,0,-1,937,841,0,0
-280,183,0,0,0,0,0,0,0,0,0,-1,944,841,0,0
-273,183,0,0,0,0,0,0,0,0,0,-1,951,841,0,0
-266,183,0,0,0,0,0,0,0,0,0,-1,958,841,0,0
-259,183,0,0,0,0,0,0,0,0,0,-1,965,841,0,0
-252,183,0,0,0,0,0,0,0,0,0,-1,972,841,0,0
-245,183,0,0,0,0,0,0,0,0,0,-1,979,841,0,0
-238,183,0,0,0,0,0,0,0,0,0,-1,986,841,0,0
-231,183,0,0,0,0,0,0,0,0,0,-1,993,841,0,0
-224,183,0,0,0,0,0,0,0,0,0,-1,1000,841,0,0
-217,183,0,0,0,0,0,0,0,0,0,-1,1007,841,0,0
-210,183,0,0,0,0,0,0,0,0,0,-1,1014,841,0,0
-203,183,0,0,0,0,0,0,0,0,0,-1,1021,841,0,0
-196,183,0,0,0,0,0,0,0,0,0,-1,1028,841,0,0
-189,183,0,0,0,0,0,0,0,0,0,-1,1035,841,0,0
-182,183,0,0,0,0,0,0,0,0,0,-1,1042,841,0,0
-175,183,0,0,0,0,0,0,0,0,0,-1,1049,841,0,0
-168,183,0,0,0,0,0,0,0,0,0,-1,1056,841,0,0
-161,183,0,0,0,0,0,0,0,0,0,-1,1063,841,0,0
-154,183,0,0,0,0,0,0,0,0,0,-1,1070,841,0,0
-147,183,0,0,0,0,0,0,0,0,0,-1,1077,841,0,0
-140,183,0,0,0,0,0,0,0,0,0,-1,1084,841,0,0
-133,183,0,0,0,0,0,0,0,0,0,-1,1091,841,0,0
-126,183,0,0,0,0,0,0,0,0,0,-1,1098,841,0,0
-119,183,0,0,0,0,0,0,0,0,0,-1,1105,841,0,0
-112,183,0,0,0,0,0,0,0,0,0,-1,1112,841,0,0
-105,183,0,0,0,0,0,0,0,0,0,-1,1119,841,0,0
-98,183,0,0,0,0,0,0,0,0,0,-1,1126,841,0,0
-91,183,0,0,0,0,0,0,0,0,0,-1,1133,841,0,0
-84,183,0,0,0,0,0,0,0,0,0,-1,1140,841,0,0
-77,183,0,0,0,0,0,0,0,0,0,-1,1147,841,0,0
-70,183,0,0,0,0,0,0,0,0,0,-1,1154,841,0,0
-63,183,0,0,0,0,0,0,0,0,0,-1,1161,841,0,0
-56,183,0,0,0,0,0,0,0,0,0,-1,1168,841,0,0
-49,183,0,0,0,0,0,0,0,0,0,-1,1175,841,0,0
-42,183,0,0,0,0,0,0,0,0,0,-1,1182,841,0,0
-35,183,0,0,0,0,0,0,0,0,0,-1,1189,841,0,0
-28,183,0,0,0,0,0,0,0,0,0,-1,1196,841,0,0
-21,183,0,0,0,0,0,0,0,0,0,-1,1203,841,0,0
-14,183,0,0,0,0,0,0,0,0,0,-1,1210,841,0,0
-7,183,0,0,0,0,0,0,0,0,0,-1,1217,841,0,0
0,183,0,0,0,0,0,0,0,0,0,-1,1224,841,0,0
7,183,0,0,0,0,0,0,0,0,0,-1,1231,841,0,0
14,183,0,0,0,0,0,0,0,0,0,-1,1238,841,0,0
21,183,0,0,0,0,0,0,0,0,0,-1,1245,841,0,0
28,183,0,0,0,0,0,0,0,0,0,-1,1252,841,0,0
35,183,0,0,0,0,0,0,0,0,0,-1,1259,841,0,0
42,183,0,0,0,0,0,0,0,0,0,-1,1266,841,0,0
49,183,0,0,0,0,0,0,0,0,0,-1,1273,841,0,0
56,183,0,0,0,0,0,0,0,0,0,-1,1280,841,0,0
63,183,0,0,0,0,0,0,0,0,0,-1,1287,841,0,0
70,183,0,0,0,0,0,0,0,0,0,-1,1294,841,0,0
77,183,0,0,0,0,0,0,0,0,0,-1,1301,841,0,0
84,183,0,0,0,0,0,0,0,0,0,-1,1308,841,0,0
91,183,0,0,0,0,0,0,0,0,0,-1,1315,841,0,0
98,183,0,0,0,0,0,0,0,0,0,-1,1322,841,0,0
105,183,0,0,0,0,0,0,0,0,0,-1,1329,841,0,0
112,183,0,0,0,0,0,0,0,0,0,-1,1336,841,0,0
119,183,0,0,0,0,0,0,0,0,0,-1,1343,841,0,0
126,183,0,0,0,0,0,0,0,0,0,-1,1350,841,0,0
133,183,0,0,0,0,0,0,0,0,0,-1,1357,841,0,0
140,183,0,0,0,0,0,0,0,0,0,-1,1364,841,0,0
147,183,0,0,0,0,0,0,0,0,0,-1,1371,841,0,0
154,183,0,0,0,0,0,0,0,0,0,-1,1378,841,0,0
161,183,0,0,0,0,0,0,0,0,0,-1,1385,841,0,0
168,183,0,0,0,0,0,0,0,0,0,-1,1392,841,0,0
175,183,0,0,0,0,0,0,0,0,0,-1,1399,841,0,0
182,183,0,0,0,0,0,0,0,0,0,-1,1406,841,0,0
189,183,0,0,0,0,0,0,0,0,0,-1,1413,841,0,0
196,183,0,0,0,0,0,0,0,0,0,-1,1420,841,0,0
203,183,0,0,0,0,0,0,0,0,0,-1,1427,841,0,0
210,183,0,0,0,0,0,0,0,0,0,-1,1434,841,0,0
217,183,0,0,0,0,0,0,0,0,0,-1,1441,841,0,0
224,183,0,0,0,0,0,0,0,0,0,-1,1448,841,0,0
231,183,0,0,0,0,0,0,0,0,0,-1,1455,841,0,0
238,183,0,0,0,0,0,0,0,0,0,-1,1462,841,0,0
245,183,0,0,0,0,0,0,0,0,0,-1,1469,841,0,0
252,183,0,0,0,0,0,0,0,0,0,-1,1476,841,0,0
259,183,0,0,0,0,0,0,0,0,0,-1,1483,841,0,0
266,183,0,0,0,0,0,0,0,0,0,-1,1490,841,0,0
273,183,0,0,0,0,0,0,0,0,0,-1,1497,841,0,0
280,183,0,0,0,0,0,0,0,0,0,-1,1504,841,0,0
287,183,0,0,0,0,0,0,0,0,0,-1,1511,841,0,0
294,183,0,0,0,0,0,0,0,0,0,-1,1518,841,0,0
301,183,0,0,0,0,0,0,0,0,0,-1,1525,841,0,0
308,183,0,0,0,0,0,0,0,0,0,-1,1532,841,0,0
315,183,0,0,0,0,0,0,0,0,0,-1,1539,841,0,0
322,183,0,0,0,0,0,0,0,0,0,-1,1546,841,0,0
329,183,0,0,0,0,0,0,0,0,0,-1,1553,841,0,0
336,183,0,0,0,0,0,0,0,0,0,-1,1560,841,0,0
343,183,0,0,0,0,0,0,0,0,0,-1,1567,841,0,0
350,183,0,0,0,0,0,0,0,0,0,-1,1574,841,0,0
357,183,0,0,0,0,0,0,0,0,0,-1,1581,841,0,0
364,183,0,0,0,0,0,0,0,0,0,-1,1588,841,0,0
371,183,0,0,0,0,0,0,0,0,0,-1,1595,841,0,0
378,183,0,0,0,0,0,0,0,0,0,-1,1602,841,0,0
385,183,0,0,0,0,0,0,0,0,0,-1,1609,841,0,0
392,183,0,0,0,0,0,0,0,0,0,-1,1616,841,0,0
399,183,0,0,0,0,0,0,0,0,0,-1,1623,841,0,0
406,183,0,0,0,0,0,0,0,0,0,-1,1630,841,0,0
413,183,0,0,0,0,0,0,0,0,0,-1,1637,841,0,0
420,183,0,0,0,0,0,0,0,0,0,-1,1644,841,0,0
427,183,0,0,0,0,0,0,0,0,0,-1,1651,841,0,0
434,183,0,0,0,0,0,0,0,0,0,-1,1658,841,0,0
441,183,0,0,0,0,0,0,0,0,0,-1,1665,841,0,0
448,183,0,0,0,0,0,0,0,0,0,-1,1672,841,0,0
455,183,0,0,0,0,0,0,0,0,0,-1,1679,841,0,0
462,183,0,0,0,0,0,0,0,0,0,-1,1686,841,0,0
469,183,0,0,0,0,0,0,0,0,0,-1,1693,841,0,0
476,183,0,0,0,0,0,0,0,0,0,-1,1700,841,0,0
483,183,0,0,0,0,0,0,0,0,0,-1,1707,841,0,0
490,183,0,0,0,0,0,0,0,0,0,-1,1714,841,0,0
497,183,0,0,0,0,0,0,0,0,0,-1,1721,841,0,0
504,183,0,0,0,0,0,0,0,0,0,-1,1728,841,0,0
511,183,0,0,0,0,0,0,0,0,0,-1,1735,841,0,0
518,183,0,0,0,0,0,0,0,0,0,-1,1742,841,0,0
525,183,0,0,0,0,0,0,0,0,0,-1,1749,841,0,0
532,183,0,0,0,0,0,0,0,0,0,-1,1756,841,0,0
539,183,0,0,0,0,0,0,0,0,0,-1,1763,841,0,0
546,183,0,0,0,0,0,0,0,0,0,-1,1770,841,0,0
553,183,0,0,0,0,0,0,0,0,0,-1,1777,841,0,0
560,183,0,0,0,0,0,0,0,0,0,-1,1784,841,0,0
567,183,0,0,0,0,0,0,0,0,0,-1,1791,841,0,0
574,183,0,0,0,0,0,0,0,0,0,-1,1798,841,0,0
581,183,0,0,0,0,0,0,0,0,0,-1,1805,841,0,0
588,183,0,0,0,0,0,0,0,0,0,-1,1812,841,0,0
595,183,0,0,0,0,0,0,0,0,0,-1,1819,841,0,0
602,183,0,0,0,0,0,0,0,0,0,-1,1826,841,0,0
609,183,53.1886,2.63684,0.00548628,-0.00597976,-0.00302686,0.00623627,-0.00672975,-0.242886,0.00748774,0.0431731,1833,841,53.1886,-2.63684
616,183,53.0889,2.6441,0.00386677,-0.00434847,-0.00207454,0.00436092,-0.00484262,-0.233838,0.00531609,0.0424502,1840,841,53.0888,-2.64409
623,183,53.2217,2.55042,0.00188174,-0.00301003,-0.00136236,0.00223556,-0.00336385,-0.254101,0.00325463,0.0453279,1847,841,53.2217,-2.5504
630,183,53.3885,2.48065,-0.000189136,-0.00203035,-0.00108227,0.000311113,-0.0025306,-0.43297,0.00179976,0.0449985,1854,841,53.3885,-2.48068
637,183,53.2148,2.51257,-0.00174484,-0.00159576,-0.00117353,-0.000494411,-0.00284619,-0.817115,0.00175601,0.0343576,1861,841,53.2148,-2.51259
644,183,53.0895,2.70123,-0.00272987,-0.00156883,-0.0013748,-0.000657016,-0.00364169,-0.985171,0.00224112,0.0273268,1868,841,53.0895,-2.70122
651,183,53.0958,2.75055,-0.00324419,-0.00167029,-0.00155331,-0.000715955,-0.00419852,-1.01987,0.00259351,0.0257044,1875,841,53.0958,-2.75053
658,183,53.1547,2.74652,0,0,0,0,0,0,0,-1,1882,841,53.1546,-2.74651
665,183,38.4337,2.66992,0,0,0,0,0,0,0,-1,1889,841,38.4337,-2.6699
672,183,29.168,1.54572,0,0,0,0,0,0,0,-1,1896,841,29.168,-1.54574
679,183,42.3634,0.637451,0,0,0,0,0,0,0,-1,1903,841,42.3634,-0.637474
686,183,42.342,1.14539,-0.00443631,-0.00144465,-0.00222991,-0.000255332,-0.00562562,-1.08083,0.00366827,0.0302807,1910,841,42.342,-1.14541
693,183,42.333,1.67419,-0.00377632,-0.00133055,-0.00236592,0.000109845,-0.00521671,-1.02393,0.003515,0.02745,1917,841,42.333,-1.67421
700,183,42.2396,2.28662,-0.00312017,-0.00117904,-0.00231675,0.000362235,-0.00466144,-0.983759,0.00323514,0.0273687,1924,841,42.2397,-2.28661
707,183,42.1324,2.8501,-0.00208993,-0.0010906,-0.00206951,0.000538715,-0.00371924,-0.903852,0.0026772,0.0122199,1931,841,42.1324,-2.85009
714,183,42.1208,3.41437,-0.000661614,-0.000807332,-0.00156854,0.000835763,-0.00230471,-0.76219,0.0018781,0.0153643,1938,841,42.1209,-3.41438
721,183,42.087,4.00385,0.00139069,-0.000547666,-0.000876982,0.00172857,-0.000885547,-0.367751,0.0015352,0.0144059,1945,841,42.0871,-4.00384
728,183,42.0472,4.61792,0.00387812,-0.000601271,-5.35234e-05,0.00387876,-0.00060191,-0.0119465,0.00280806,0.0129671,1952,841,42.0473,-4.61795
735,183,42.0392,5.18793,0.00668088,-0.00111735,0.000764113,0.00675504,-0.00119152,0.0967592,0.00494859,0.0122608,1959,841,42.0392,-5.18793
742,183,42.0419,5.79114,0.00984244,-0.00228542,0.00157259,0.010043,-0.00248602,0.126873,0.00765971,0.0135708,1966,841,42.0419,-5.79112
749,183,42.0995,6.71747,0.0134498,-0.00450873,0.0024035,0.0137659,-0.00482484,0.130771,0.0111394,0.0382251,1973,841,42.0995,-6.71747
756,183,41.6357,8.86627,0,0,0,0,0,0,0,-1,1980,841,41.6358,-8.8663
763,183,41.0309,7.7381,0,0,0,0,0,0,0,-1,1987,841,41.0309,-7.73813
770,183,41.0603,7.72028,0,0,0,0,0,0,0,-1,1994,841,41.0603,-7.72026
777,183,42.1948,7.22906,0,0,0,0,0,0,0,-1,2001,841,42.1948,-7.22905
784,183,0,0,0,0,0,0,0,0,0,-1,2008,841,0,0
791,183,0,0,0,0,0,0,0,0,0,-1,2015,841,0,0
798,183,0,0,0,0,0,0,0,0,0,-1,2022,841,0,0
805,183,0,0,0,0,0,0,0,0,0,-1,2029,841,0,0
812,183,0,0,0,0,0,0,0,0,0,-1,2036,841,0,0
-700,176,0,0,0,0,0,0,0,0,0,-1,524,848,0,0
-693,176,0,0,0,0,0,0,0,0,0,-1,531,848,0,0
-686,176,0,0,0,0,0,0,0,0,0,-1,538,848,0,0
-679,176,0,0,0,0,0,0,0,0,0,-1,545,848,0,0
-672,176,0,0,0,0,0,0,0,0,0,-1,552,848,0,0
-665,176,-41.4162,1.1582,0,0,0,0,0,0,0,-1,559,848,-41.4162,-1.15817
-658,176,-40.6947,2.85742,0,0,0,0,0,0,0,-1,566,848,-40.6947,-2.8574
-651,176,-29.4852,7.35211,0,0,0,0,0,0,0,-1,573,848,-29.4852,-7.35211
-644,176,-29.552,6.57788,0,0,0,0,0,0,0,-1,580,848,-29.552,-6.57787
-637,176,-30.3546,4.94818,0,0,0,0,0,0,0,-1,587,848,-30.3546,-4.9482
-630,176,-30.3763,4.40399,0,0,0,0,0,0,0,-1,594,848,-30.3763,-4.40399
-623,176,-30.5798,4.17987,-0.00678134,-0.0226569,-0.00177886,-0.00658446,-0.0228537,-0.110229,0.0135838,0.0441785,601,848,-30.5799,-4.17985
-616,176,-30.6423,3.68311,-0.00457224,-0.0117887,-0.000895472,-0.00446279,-0.0118982,-0.12163,0.00694052,0.0289663,608,848,-30.6423,-3.68309
-609,176,-30.7095,3.17352,-0.00280379,-0.00365974,0.000122647,-0.00278656,-0.00367696,0.139548,0.00221499,0.0130589,615,848,-30.7094,-3.1735
-602,176,-30.7312,2.59064,-0.00185205,0.0015483,0.000877336,0.00176132,-0.00206507,1.3326,0.00221149,0.0130493,622,848,-30.7312,-2.59061
-595,176,-30.7465,1.99884,-0.000846975,0.00278114,0.00145706,0.00329385,-0.00135968,1.23245,0.00276299,0.0120467,629,848,-30.7465,-1.99885
-588,176,-30.7313,1.4436,0.000436042,0.00154782,0.00178568,0.00286213,-0.000878272,0.936295,0.0022585,0.0138963,636,848,-30.7313,-1.44359
-581,176,-30.7768,0.926086,0.0015306,0.00082133,0.00203596,0.00324258,-0.000890647,0.69917,0.0025118,0.012525,643,848,-30.7768,-0.926073
-574,176,-30.8259,0.357666,0.00225585,0.000386883,0.00202506,0.00355164,-0.000908908,0.569227,0.0027218,0.0223574,650,848,-30.8259,-0.357637
-567,176,-30.5897,-0.0525513,0,0,0,0,0,0,0,-1,657,848,-30.5896,0.0525276
-560,176,-30.6071,-0.309631,0,0,0,0,0,0,0,-1,664,848,-30.607,0.309614
-553,176,-29.4605,-1.50214,0,0,0,0,0,0,0,-1,671,848,-29.4605,1.50211
-546,176,-16.657,-0.403198,0,0,0,0,0,0,0,-1,678,848,-16.657,0.403182
-539,176,-22.7061,1.48657,0,0,0,0,0,0,0,-1,685,848,-22.7061,-1.48657
-532,176,-38.8326,1.29749,0,0,0,0,0,0,0,-1,692,848,-38.8326,-1.29747
-525,176,-39.7853,1.0462,0,0,0,0,0,0,0,-1,699,848,-39.7853,-1.04621
-518,176,-39.9229,0.868042,-0.00164066,-0.00116264,0.000329009,-0.000994988,-0.00180831,1.09953,0.00104578,0.0439393,706,848,-39.9229,-0.868019
-511,176,-40.1057,0.702698,-0.00215231,-0.00171276,0.000387928,-0.00148668,-0.00237839,1.04312,0.00138741,0.0381288,713,848,-40.1057,-0.702718
-504,176,-40.2581,0.709167,-0.000882839,-0.00233697,0.000440343,-0.000759889,-0.00245992,0.272279,0.0014544,0.0397631,720,848,-40.2581,-0.709191
-497,176,-40.2705,0.743713,0.00196504,-0.00323995,0.00032485,0.00198524,-0.00326014,0.0620902,0.00305809,0.0425954,727,848,-40.2705,-0.743721
-490,176,-39.9648,0.960815,0,0,0,0,0,0,0,-1,734,848,-39.9648,-0.96084
-483,176,0,0,0,0,0,0,0,0,0,-1,741,848,0,0
-476,176,0,0,0,0,0,0,0,0,0,-1,748,848,0,0
-469,176,0,0,0,0,0,0,0,0,0,-1,755,848,0,0
-462,176,0,0,0,0,0,0,0,0,0,-1,762,848,0,0
-455,176,0,0,0,0,0,0,0,0,0,-1,769,848,0,0
-448,176,0,0,0,0,0,0,0,0,0,-1,776,848,0,0
-441,176,0,0,0,0,0,0,0,0,0,-1,783,848,0,0
-434,176,0,0,0,0,0,0,0,0,0,-1,790,848,0,0
-427,176,0,0,0,0,0,0,0,0,0,-1,797,848,0,0
-420,176,0,0,0,0,0,0,0,0,0,-1,804,848,0,0
-413,176,0,0,0,0,0,0,0,0,0,-1,811,848,0,0
-406,176,0,0,0,0,0,0,0,0,0,-1,818,848,0,0
-399,176,0,0,0,0,0,0,0,0,0,-1,825,848,0,0
-392,176,0,0,0,0,0,0,0,0,0,-1,832,848,0,0
-385,176,0,0,0,0,0,0,0,0,0,-1,839,848,0,0
-378,176,0,0,0,0,0,0,0,0,0,-1,846,848,0,0
-371,176,0,0,0,0,0,0,0,0,0,-1,853,848,0,0
-364,176,0,0,0,0,0,0,0,0,0,-1,860,848,0,0
-357,176,0,0,0,0,0,0,0,0,0,-1,867,848,0,0
-350,176,0,0,0,0,0,0,0,0,0,-1,874,848,0,0
-343,176,0,0,0,0,0,0,0,0,0,-1,881,848,0,0
-336,176,0,0,0,0,0,0,0,0,0,-1,888,848,0,0
-329,176,0,0,0,0,0,0,0,0,0,-1,895,848,0,0
-322,176,0,0,0,0,0,0,0,0,0,-1,902,848,0,0
-315,176,0,0,0,0,0,0,0,0,0,-1,909,848,0,0
-308,176,0,0,0,0,0,0,0,0,0,-1,916,848,0,0
-301,176,0,0,0,0,0,0,0,0,0,-1,923,848,0,0
-294,176,0,0,0,0,0,0,0,0,0,-1,930,848,0,0
-287,176,0,0,0,0,0,0,0,0,0,-1,937,848,0,0
-280,176,0,0,0,0,0,0,0,0,0,-1,944,848,0,0
-273,176,0,0,0,0,0,0,0,0,0,-1,951,848,0,0
-266,176,0,0,0,0,0,0,0,0,0,-1,958,848,0,0
-259,176,0,0,0,0,0,0,0,0,0,-1,965,848,0,0
-252,176,0,0,0,0,0,0,0,0,0,-1,972,848,0,0
-245,176,0,0,0,0,0,0,0,0,0,-1,979,848,0,0
-238,176,0,0,0,0,0,0,0,0,0,-1,986,848,0,0
-231,176,0,0,0,0,0,0,0,0,0,-1,993,848,0,0
-224,176,0,0,0,0,0,0,0,0,0,-1,1000,848,0,0
-217,176,0,0,0,0,0,0,0,0,0,-1,1007,848,0,0
-210,176,0,0,0,0,0,0,0,0,0,-1,1014,848,0,0
-203,176,0,0,0,0,0,0,0,0,0,-1,1021,848,0,0
-196,176,0,0,0,0,0,0,0,0,0,-1,1028,848,0,0
-189,176,0,0,0,0,0,0,0,0,0,-1,1035,848,0,0
-182,176,0,0,0,0,0,0,0,0,0,-1,1042,848,0,0
-175,176,0,0,0,0,0,0,0,0,0,-1,1049,848,0,0
-168,176,0,0,0,0,0,0,0,0,0,-1,1056,848,0,0
-161,176,0,0,0,0,0,0,0,0,0,-1,1063,848,0,0
-154,176,0,0,0,0,0,0,0,0,0,-1,1070,848,0,0
-147,176,0,0,0,0,0,0,0,0,0,-1,1077,848,0,0
-140,176,0,0,0,0,0,0,0,0,0,-1,1084,848,0,0
-133,176,0,0,0,0,0,0,0,0,0,-1,1091,848,0,0
-126,176,0,0,0,0,0,0,0,0,0,-1,1098,848,0,0
-119,176,0,0,0,0,0,0,0,0,0,-1,1105,848,0,0
-112,176,0,0,0,0,0,0,0,0,0,-1,1112,848,0,0
-105,176,0,0,0,0,0,0,0,0,0,-1,1119,848,0,0
-98,176,0,0,0,0,0,0,0,0,0,-1,1126,848,0,0
-91,176,0,0,0,0,0,0,0,0,0,-1,1133,848,0,0
-84,176,0,0,0,0,0,0,0,0,0,-1,1140,848,0,0
-77,176,0,0,0,0,0,0,0,0,0,-1,1147,848,0,0
-70,176,0,0,0,0,0,0,0,0,0,-1,1154,848,0,0
-63,176,0,0,0,0,0,0,0,0,0,-1,1161,848,0,0
-56,176,0,0,0,0,0,0,0,0,0,-1,1168,848,0,0
-49,176,0,0,0,0,0,0,0,0,0,-1,1175,848,0,0
-42,176,0,0,0,0,0,0,0,0,0,-1,1182,848,0,0
-35,176,0,0,0,0,0,0,0,0,0,-1,1189,848,0,0
-28,176,0,0,0,0,0,0,0,0,0,-1,1196,848,0,0
-21,176,0,0,0,0,0,0,0,0,0,-1,1203,848,0,0
-14,176,0,0,0,0,0,0,0,0,0,-1,1210,848,0,0
-7,176,0,0,0,0,0,0,0,0,0,-1,1217,848,0,0
0,176,0,0,0,0,0,0,0,0,0,-1,1224,848,0,0
7,176,0,0,0,0,0,0,0,0,0,-1,1231,848,0,0
14,176,0,0,0,0,0,0,0,0,0,-1,1238,848,0,0
21,176,0,0,0,0,0,0,0,0,0,-1,1245,848,0,0
28,176,0,0,0,0,0,0,0,0,0,-1,1252,848,0,0
35,176,0,0,0,0,0,0,0,0,0,-1,1259,848,0,0
42,176,0,0,0,0,0,0,0,0,0,-1,1266,848,0,0
49,176,0,0,0,0,0,0,0,0,0,-1,1273,848,0,0
56,176,0,0,0,0,0,0,0,0,0,-1,1280,848,0,0
63,176,0,0,0,0,0,0,0,0,0,-1,1287,848,0,0
70,176,0,0,0,0,0,0,0,0,0,-1,1294,848,0,0
77,176,0,0,0,0,0,0,0,0,0,-1,1301,848,0,0
84,176,0,0,0,0,0,0,0,0,0,-1,1308,848,0,0
91,176,0,0,0,0,0,0,0,0,0,-1,1315,848,0,0
98,176,0,0,0,0,0,0,0,0,0,-1,1322,848,0,0
105,176,0,0,0,0,0,0,0,0,0,-1,1329,848,0,0
112,176,0,0,0,0,0,0,0,0,0,-1,1336,848,0,0
119,176,0,0,0,0,0,0,0,0,0,-1,1343,848,0,0
126,176,0,0,0,0,0,0,0,0,0,-1,1350,848,0,0
133,176,0,0,0,0,0,0,0,0,0,-1,1357,848,0,0
140,176,0,0,0,0,0,0,0,0,0,-1,1364,848,0,0
147,176,0,0,0,0,0,0,0,0,0,-1,1371,848,0,0
154,176,0,0,0,0,0,0,0,0,0,-1,1378,848,0,0
161,176,0,0,0,0,0,0,0,0,0,-1,1385,848,0,0
168,176,0,0,0,0,0,0,0,0,0,-1,1392,848,0,0
175,176,0,0,0,0,0,0,0,0,0,-1,1399,848,0,0
182,176,0,0,0,0,0,0,0,0,0,-1,1406,848,0,0
189,176,0,0,0,0,0,0,0,0,0,-1,1413,848,0,0
196,176,0,0,0,0,0,0,0,0,0,-1,1420,848,0,0
203,176,0,0,0,0,0,0,0,0,0,-1,1427,848,0,0
210,176,0,0,0,0,0,0,0,0,0,-1,1434,848,0,0
217,176,0,0,0,0,0,0,0,0,0,-1,1441,848,0,0
224,176,0,0,0,0,0,0,0,0,0,-1,1448,848,0,0
231,176,0,0,0,0,0,0,0,0,0,-1,1455,848,0,0
238,176,0,0,0,0,0,0,0,0,0,-1,1462,848,0,0
245,176,0,0,0,0,0,0,0,0,0,-1,1469,848,0,0
252,176,0,0,0,0,0,0,0,0,0,-1,1476,848,0,0
259,176,0,0,0,0,0,0,0,0,0,-1,1483,848,0,0
266,176,0,0,0,0,0,0,0,0,0,-1,1490,848,0,0
273,176,0,0,0,0,0,0,0,0,0,-1,1497,848,0,0
280,176,0,0,0,0,0,0,0,0,0,-1,1504,848,0,0
287,176,0,0,0,0,0,0,0,0,0,-1,1511,848,0,0
294,176,0,0,0,0,0,0,0,0,0,-1,1518,848,0,0
301,176,0,0,0,0,0,0,0,0,0,-1,1525,848,0,0
308,176,0,0,0,0,0,0,0,0,0,-1,1532,848,0,0
315,176,0,0,0,0,0,0,0,0,0,-1,1539,848,0,0
322,176,0,0,0,0,0,0,0,0,0,-1,1546,848,0,0
329,176,0,0,0,0,0,0,0,0,0,-1,1553,848,0,0
336,176,0,0,0,0,0,0,0,0,0,-1,1560,848,0,0
343,176,0,0,0,0,0,0,0,0,0,-1,1567,848,0,0
350,176,0,0,0,0,0,0,0,0,0,-1,1574,848,0,0
357,176,0,0,0,0,0,0,0,0,0,-1,1581,848,0,0
364,176,0,0,0,0,0,0,0,0,0,-1,1588,848,0,0
371,176,0,0,0,0,0,0,0,0,0,-1,1595,848,0,0
378,176,0,0,0,0,0,0,0,0,0,-1,1602,848,0,0
385,176,0,0,0,0,0,0,0,0,0,-1,1609,848,0,0
392,176,0,0,0,0,0,0,0,0,0,-1,1616,848,0,0
399,176,0,0,0,0,0,0,0,0,0,-1,1623,848,0,0
406,176,0,0,0,0,0,0,0,0,0,-1,1630,848,0,0
413,176,0,0,0,0,0,0,0,0,0,-1,1637,848,0,0
420,176,0,0,0,0,0,0,0,0,0,-1,1644,848,0,0
427,176,0,0,0,0,0,0,0,0,0,-1,1651,848,0,0
434,176,0,0,0,0,0,0,0,0,0,-1,1658,848,0,0
441,176,0,0,0,0,0,0,0,0,0,-1,1665,848,0,0
448,176,0,0,0,0,0,0,0,0,0,-1,1672,848,0,0
455,176,0,0,0,0,0,0,0,0,0,-1,1679,848,0,0
462,176,0,0,0,0,0,0,0,0,0,-1,1686,848,0,0
469,176,0,0,0,0,0,0,0,0,0,-1,1693,848,0,0
476,176,0,0,0,0,0,0,0,0,0,-1,1700,848,0,0
483,176,0,0,0,0,0,0,0,0,0,-1,1707,848,0,0
490,176,0,0,0,0,0,0,0,0,0,-1,1714,848,0,0
497,176,0,0,0,0,0,0,0,0,0,-1,1721,848,0,0
504,176,0,0,0,0,0,0,0,0,0,-1,1728,848,0,0
511,176,0,0,0,0,0,0,0,0,0,-1,1735,848,0,0
518,176,0,0,0,0,0,0,0,0,0,-1,1742,848,0,0
525,176,0,0,0,0,0,0,0,0,0,-1,1749,848,0,0
532,176,0,0,0,0,0,0,0,0,0,-1,1756,848,0,0
539,176,0,0,0,0,0,0,0,0,0,-1,1763,848,0,0
546,176,0,0,0,0,0,0,0,0,0,-1,1770,848,0,0
553,176,0,0,0,0,0,0,0,0,0,-1,1777,848,0,0
560,176,0,0,0,0,0,0,0,0,0,-1,1784,848,0,0
567,176,0,0,0,0,0,0,0,0,0,-1,1791,848,0,0
574,176,0,0,0,0,0,0,0,0,0,-1,1798,848,0,0
581,176,0,0,0,0,0,0,0,0,0,-1,1805,848,0,0
588,176,0,0,0,0,0,0,0,0,0,-1,1812,848,0,0
595,176,0,0,0,0,0,0,0,0,0,-1,1819,848,0,0
602,176,0,0,0,0,0,0,0,0,0,-1,1826,848,0,0
609,176,53.0951,2.73541,0.0074156,-0.0074415,-0.00428237,0.00856155,-0.00858745,-0.261471,0.00990098,0.0403769,1833,848,53.0951,-2.73543
616,176,52.9294,2.59753,0.00560598,-0.00572474,-0.0032145,0.0064544,-0.00657316,-0.25805,0.00752157,0.0409064,1840,848,52.9294,-2.59755
623,176,53.2035,2.39215,0.00348159,-0.00411399,-0.00217581,0.00406071,-0.00469311,-0.260133,0.00505842,0.0453082,1847,848,53.2035,-2.39218
630,176,53.5237,2.43005,0.00122418,-0.00277436,-0.00154037,0.00174876,-0.00329894,-0.328236,0.00295975,0.0428935,1854,848,53.5237,-2.43006
637,176,53.3011,2.62762,-0.000623886,-0.00189253,-0.00131121,0.000198372,-0.00271479,-0.560108,0.00187948,0.0315562,1861,848,53.3011,-2.62764
644,176,53.0713,2.77313,-0.0018469,-0.00157475,-0.00135766,-0.000346362,-0.00307529,-0.835344,0.00194505,0.0318678,1868,848,53.0713,-2.77316
651,176,53.0486,2.77856,-0.0024973,-0.00153891,-0.00148379,-0.000458856,-0.00357736,-0.941588,0.00224762,0.033647,1875,848,53.0486,-2.77854
658,176,53.2085,2.63464,0,0,0,0,0,0,0,-1,1882,848,53.2085,-2.63462
665,176,52.8469,2.32629,0,0,0,0,0,0,0,-1,1889,848,52.8469,-2.3263
672,176,16.9304,2.80719,0,0,0,0,0,0,0,-1,1896,848,16.9305,-2.80719
679,176,43.1945,0.543091,0,0,0,0,0,0,0,-1,1903,848,43.1945,-0.543066
686,176,43.1201,1.22754,-0.00378848,-0.00125397,-0.00205617,-0.00010591,-0.00493655,-1.06156,0.0032563,0.0425732,1910,848,43.1201,-1.22756
693,176,42.9658,1.81763,-0.00325819,-0.00125828,-0.00218982,0.000149085,-0.00466556,-0.999579,0.00316124,0.0241818,1917,848,42.9658,-1.81764
700,176,42.7872,2.42316,-0.00263281,-0.00120301,-0.00216827,0.000365172,-0.00420099,-0.944641,0.00292998,0.0288512,1924,848,42.7872,-2.42318
707,176,42.7584,2.95117,-0.00169719,-0.00118274,-0.00201806,0.000594422,-0.00347436,-0.848787,0.00253769,0.0159914,1931,848,42.7584,-2.95117
714,176,42.7317,3.44141,-0.000492763,-0.000832248,-0.00166256,0.0010087,-0.00233371,-0.734526,0.00197964,0.0114186,1938,848,42.7317,-3.44142
721,176,42.6959,4.00928,0.00132852,-0.00040519,-0.00110634,0.00186716,-0.000943832,-0.453088,0.00165186,0.0122834,1945,848,42.6959,-4.00927
728,176,42.6322,4.64001,0.00369539,-9.73749e-05,-0.000375329,0.00373217,-0.00013416,-0.0976967,0.00253402,0.015406,1952,848,42.6322,-4.64001
735,176,42.6317,5.21942,0.00649754,-6.54319e-05,0.000377018,0.00651913,-8.70193e-05,0.0571955,0.00437538,0.014687,1959,848,42.6317,-5.21942
742,176,42.6195,5.80206,0.00969893,-0.000438174,0.00114142,0.00982586,-0.000565106,0.110751,0.00674683,0.0238983,1966,848,42.6195,-5.80209
749,176,42.9672,6.50732,0.013355,-0.00152024,0.00190513,0.0135951,-0.00176036,0.125378,0.00970359,0.036347,1973,848,42.9671,-6.50732
756,176,43.741,7.15063,0.0176566,-0.00361073,0.00268621,0.0179906,-0.00394477,0.123719,0.0135021,0.0492304,1980,848,43.741,-7.15061
763,176,44.4343,7.70581,0,0,0,0,0,0,0,-1,1987,848,44.4343,-7.70578
770,176,36.4186,4.25641,0,0,0,0,0,0,0,-1,1994,848,36.4186,-4.25639
777,176,43.8328,7.50177,0,0,0,0,0,0,0,-1,2001,848,43.8328,-7.50178
784,176,0,0,0,0,0,0,0,0,0,-1,2008,848,0,0
791,176,0,0,0,0,0,0,0,0,0,-1,2015,848,0,0
798,176,0,0,0,0,0,0,0,0,0,-1,2022,848,0,0
805,176,0,0,0,0,0,0,0,0,0,-1,2029,848,0,0
812,176,0,0,0,0,0,0,0,0,0,-1,2036,848,0,0
-700,169,0,0,0,0,0,0,0,0,0,-1,524,855,0,0
-693,169,0,0,0,0,0,0,0,0,0,-1,531,855,0,0
-686,169,0,0,0,0,0,0,0,0,0,-1,538,855,0,0
-679,169,0,0,0,0,0,0,0,0,0,-1,545,855,0,0
-672,169,0,0,0,0,0,0,0,0,0,-1,552,855,0,0
-665,169,-40.9579,0.871948,0,0,0,0,0,0,0,-1,559,855,-40.958,-0.87192
-658,169,-43.7758,-6.0213,0,0,0,0,0,0,0,-1,566,855,-43.7757,6.02132
-651,169,-43.8651,-5.43549,0,0,0,0,0,0,0,-1,573,855,-43.8651,5.43548
-644,169,-29.8557,6.54205,0,0,0,0,0,0,0,-1,580,855,-29.8557,-6.54204
-637,169,-31.7302,4.54303,0,0,0,0,0,0,0,-1,587,855,-31.7302,-4.54306
-630,169,-31.2613,4.78546,0,0,0,0,0,0,0,-1,594,855,-31.2613,-4.78545
-623,169,-31.2617,4.26428,-0.00648223,-0.0249707,-0.00212874,-0.0062403,-0.0252126,-0.113166,0.0151626,0.0406931,601,855,-31.2617,-4.26427
-616,169,-31.2526,3.74005,-0.00431549,-0.0137642,-0.00102134,-0.00420635,-0.0138733,-0.106455,0.00821398,0.0225691,608,855,-31.2525,-3.74007
-609,169,-31.2871,3.18469,-0.0025975,-0.00481257,0.000304737,-0.00255634,-0.00485373,0.134253,0.00280363,0.0141754,615,855,-31.2871,-3.1847
-602,169,-31.3137,2.60803,-0.00173264,0.000956793,0.00119036,0.00140796,-0.00218381,1.2085,0.00208977,0.0135239,622,855,-31.3136,-2.60804
-595,169,-31.3253,2.02655,-0.000668435,0.00219757,0.00175304,0.00302878,-0.00149964,1.12804,0.00266371,0.0120985,629,855,-31.3253,-2.02658
-588,169,-31.3129,1.4845,0.000656856,0.000981052,0.00198354,0.00280911,-0.0011712,0.826168,0.002362,0.0107354,636,855,-31.3129,-1.48448
-581,169,-31.356,0.970093,0.00175019,0.000428337,0.00211811,0.00330809,-0.00112957,0.634167,0.00266301,0.0172565,643,855,-31.3559,-0.970121
-574,169,-31.6086,0.378235,0.00243596,0.000158727,0.00201572,0.00361242,-0.00101773,0.528305,0.00280965,0.0317763,650,855,-31.6086,-0.378219
-567,169,-31.4181,-0.0824585,0.00257131,0.000142721,0.00157023,0.00334199,-0.000627958,0.456266,0.00246413,0.0397661,657,855,-31.4181,0.0824679
-560,169,-31.3265,-0.489868,0.00219128,-1.45067e-05,0.000996765,0.00257496,-0.000398192,0.367448,0.00186361,0.0483416,664,855,-31.3265,0.489875
-553,169,-31.1034,-0.963562,0,0,0,0,0,0,0,-1,671,855,-31.1034,0.963561
-546,169,-19.0852,-1.05609,0,0,0,0,0,0,0,-1,678,855,-19.0852,1.05612
-539,169,-33.2307,1.10706,0,0,0,0,0,0,0,-1,685,855,-33.2307,-1.10708
-532,169,-39.7957,0.895386,0,0,0,0,0,0,0,-1,692,855,-39.7957,-0.895391
-525,169,-39.8719,0.88269,0.000140401,-0.000522641,-0.000322047,0.000271071,-0.000653311,-0.385452,0.000548691,0.0451421,699,855,-39.8719,-0.882697
-518,169,-39.9597,0.816711,-0.000835067,-0.000567352,-0.000408971,-0.00027089,-0.00113153,-0.943555,0.000682225,0.0435038,706,855,-39.9597,-0.816726
-511,169,-40.0342,0.731262,-0.00122746,-0.00106622,-0.000536988,-0.000603834,-0.00168985,-0.85991,0.000988785,0.0416279,713,855,-40.0342,-0.73127
-504,169,-40.045,0.657166,0.000517024,-0.00154366,-0.000527659,0.000644278,-0.00167091,-0.236649,0.00137979,0.0401653,720,855,-40.045,-0.657176
-497,169,-40.0991,0.667419,0.00335343,-0.00272068,-0.000552429,0.00340327,-0.00277051,-0.0899645,0.00357067,0.040473,727,855,-40.0991,-0.667446
-490,169,0,0,0,0,0,0,0,0,0,-1,734,855,0,0
-483,169,0,0,0,0,0,0,0,0,0,-1,741,855,0,0
-476,169,0,0,0,0,0,0,0,0,0,-1,748,855,0,0
-469,169,0,0,0,0,0,0,0,0,0,-1,755,855,0,0
-462,169,0,0,0,0,0,0,0,0,0,-1,762,855,0,0
-455,169,0,0,0,0,0,0,0,0,0,-1,769,855,0,0
-448,169,0,0,0,0,0,0,0,0,0,-1,776,855,0,0
-441,169,0,0,0,0,0,0,0,0,0,-1,783,855,0,0
-434,169,0,0,0,0,0,0,0,0,0,-1,790,855,0,0
-427,169,0,0,0,0,0,0,0,0,0,-1,797,855,0,0
-420,169,0,0,0,0,0,0,0,0,0,-1,804,855,0,0
-413,169,0,0,0,0,0,0,0,0,0,-1,811,855,0,0
-406,169,0,0,0,0,0,0,0,0,0,-1,818,855,0,0
-399,169,0,0,0,0,0,0,0,0,0,-1,825,855,0,0
-392,169,0,0,0,0,0,0,0,0,0,-1,832,855,0,0
-385,169,0,0,0,0,0,0,0,0,0,-1,839,855,0,0
-378,169,0,0,0,0,0,0,0,0,0,-1,846,855,0,0
-371,169,0,0,0,0,0,0,0,0,0,-1,853,855,0,0
-364,169,0,0,0,0,0,0,0,0,0,-1,860,855,0,0
-357,169,0,0,0,0,0,0,0,0,0,-1,867,855,0,0
-350,169,0,0,0,0,0,0,0,0,0,-1,874,855,0,0
-343,169,0,0,0,0,0,0,0,0,0,-1,881,855,0,0
-336,169,0,0,0,0,0,0,0,0,0,-1,888,855,0,0
-329,169,0,0,0,0,0,0,0,0,0,-1,895,855,0,0
-322,169,0,0,0,0,0,0,0,0,0,-1,902,855,0,0
-315,169,0,0,0,0,0,0,0,0,0,-1,909,855,0,0
-308,169,0,0,0,0,0,0,0,0,0,-1,916,855,0,0
-301,169,0,0,0,0,0,0,0,0,0,-1,923,855,0,0
-294,169,0,0,0,0,0,0,0,0,0,-1,930,855,0,0
-287,169,0,0,0,0,0,0,0,0,0,-1,937,855,0,0
-280,169,0,0,0,0,0,0,0,0,0,-1,944,855,0,0
-273,169,0,0,0,0,0,0,0,0,0,-1,951,855,0,0
-266,169,0,0,0,0,0,0,0,0,0,-1,958,855,0,0
-259,169,0,0,0,0,0,0,0,0,0,-1,965,855,0,0
-252,169,0,0,0,0,0,0,0,0,0,-1,972,855,0,0
-245,169,0,0,0,0,0,0,0,0,0,-1,979,855,0,0
-238,169,0,0,0,0,0,0,0,0,0,-1,986,855,0,0
-231,169,0,0,0,0,0,0,0,0,0,-1,993,855,0,0
-224,169,0,0,0,0,0,0,0,0,0,-1,1000,855,0,0
-217,169,0,0,0,0,0,0,0,0,0,-1,1007,855,0,0
-210,169,0,0,0,0,0,0,0,0,0,-1,1014,855,0,0
-203,169,0,0,0,0,0,0,0,0,0,-1,1021,855,0,0
-196,169,0,0,0,0,0,0,0,0,0,-1,1028,855,0,0
-189,169,0,0,0,0,0,0,0,0,0,-1,1035,855,0,0
-182,169,0,0,0,0,0,0,0,0,0,-1,1042,855,0,0
-175,169,0,0,0,0,0,0,0,0,0,-1,1049,855,0,0
-168,169,0,0,0,0,0,0,0,0,0,-1,1056,855,0,0
-161,169,0,0,0,0,0,0,0,0,0,-1,1063,855,0,0
-154,169,0,0,0,0,0,0,0,0,0,-1,1070,855,0,0
-147,169,0,0,0,0,0,0,0,0,0,-1,1077,855,0,0
-140,169,0,0,0,0,0,0,0,0,0,-1,1084,855,0,0
-133,169,0,0,0,0,0,0,0,0,0,-1,1091,855,0,0
-126,169,0,0,0,0,0,0,0,0,0,-1,1098,855,0,0
-119,169,0,0,0,0,0,0,0,0,0,-1,1105,855,0,0
-112,169,0,0,0,0,0,0,0,0,0,-1,1112,855,0,0
-105,169,0,0,0,0,0,0,0,0,0,-1,1119,855,0,0
-98,169,0,0,0,0,0,0,0,0,0,-1,1126,855,0,0
-91,169,0,0,0,0,0,0,0,0,0,-1,1133,855,0,0
-84,169,0,0,0,0,0,0,0,0,0,-1,1140,855,0,0
-77,169,0,0,0,0,0,0,0,0,0,-1,1147,855,0,0
-70,169,0,0,0,0,0,0,0,0,0,-1,1154,855,0,0
-63,169,0,0,0,0,0,0,0,0,0,-1,1161,855,0,0
-56,169,0,0,0,0,0,0,0,0,0,-1,1168,855,0,0
-49,169,0,0,0,0,0,0,0,0,0,-1,1175,855,0,0
-42,169,0,0,0,0,0,0,0,0,0,-1,1182,855,0,0
-35,169,0,0,0,0,0,0,0,0,0,-1,1189,855,0,0
-28,169,0,0,0,0,0,0,0,0,0,-1,1196,855,0,0
-21,169,0,0,0,0,0,0,0,0,0,-1,1203,855,0,0
-14,169,0,0,0,0,0,0,0,0,0,-1,1210,855,0,0
-7,169,0,0,0,0,0,0,0,0,0,-1,1217,855,0,0
0,169,0,0,0,0,0,0,0,0,0,-1,1224,855,0,0
7,169,0,0,0,0,0,0,0,0,0,-1,1231,855,0,0
14,169,0,0,0,0,0,0,0,0,0,-1,1238,855,0,0
21,169,0,0,0,0,0,0,0,0,0,-1,1245,855,0,0
28,169,0,0,0,0,0,0,0,0,0,-1,1252,855,0,0
35,169,0,0,0,0,0,0,0,0,0,-1,1259,855,0,0
42,169,0,0,0,0,0,0,0,0,0,-1,1266,855,0,0
49,169,0,0,0,0,0,0,0,0,0,-1,1273,855,0,0
56,169,0,0,0,0,0,0,0,0,0,-1,1280,855,0,0
63,169,0,0,0,0,0,0,0,0,0,-1,1287,855,0,0
70,169,0,0,0,0,0,0,0,0,0,-1,1294,855,0,0
77,169,0,0,0,0,0,0,0,0,0,-1,1301,855,0,0
84,169,0,0,0,0,0,0,0,0,0,-1,1308,855,0,0
91,169,0,0,0,0,0,0,0,0,0,-1,1315,855,0,0
98,169,0,0,0,0,0,0,0,0,0,-1,1322,855,0,0
105,169,0,0,0,0,0,0,0,0,0,-1,1329,855,0,0
112,169,0,0,0,0,0,0,0,0,0,-1,1336,855,0,0
119,169,0,0,0,0,0,0,0,0,0,-1,1343,855,0,0
126,169,0,0,0,0,0,0,0,0,0,-1,1350,855,0,0
133,169,0,0,0,0,0,0,0,0,0,-1,1357,855,0,0
140,169,0,0,0,0,0,0,0,0,0,-1,1364,855,0,0
147,169,0,0,0,0,0,0,0,0,0,-1,1371,855,0,0
154,169,0,0,0,0,0,0,0,0,0,-1,1378,855,0,0
161,169,0,0,0,0,0,0,0,0,0,-1,1385,855,0,0
168,169,0,0,0,0,0,0,0,0,0,-1,1392,855,0,0
175,169,0,0,0,0,0,0,0,0,0,-1,1399,855,0,0
182,169,0,0,0,0,0,0,0,0,0,-1,1406,855,0,0
189,169,0,0,0,0,0,0,0,0,0,-1,1413,855,0,0
196,169,0,0,0,0,0,0,0,0,0,-1,1420,855,0,0
203,169,0,0,0,0,0,0,0,0,0,-1,1427,855,0,0
210,169,0,0,0,0,0,0,0,0,0,-1,1434,855,0,0
217,169,0,0,0,0,0,0,0,0,0,-1,1441,855,0,0
224,169,0,0,0,0,0,0,0,0,0,-1,1448,855,0,0
231,169,0,0,0,0,0,0,0,0,0,-1,1455,855,0,0
238,169,0,0,0,0,0,0,0,0,0,-1,1462,855,0,0
245,169,0,0,0,0,0,0,0,0,0,-1,1469,855,0,0
252,169,0,0,0,0,0,0,0,0,0,-1,1476,855,0,0
259,169,0,0,0,0,0,0,0,0,0,-1,1483,855,0,0
266,169,0,0,0,0,0,0,0,0,0,-1,1490,855,0,0
273,169,0,0,0,0,0,0,0,0,0,-1,1497,855,0,0
280,169,0,0,0,0,0,0,0,0,0,-1,1504,855,0,0
287,169,0,0,0,0,0,0,0,0,0,-1,1511,855,0,0
294,169,0,0,0,0,0,0,0,0,0,-1,1518,855,0,0
301,169,0,0,0,0,0,0,0,0,0,-1,1525,855,0,0
308,169,0,0,0,0,0,0,0,0,0,-1,1532,855,0,0
315,169,0,0,0,0,0,0,0,0,0,-1,1539,855,0,0
322,169,0,0,0,0,0,0,0,0,0,-1,1546,855,0,0
329,169,0,0,0,0,0,0,0,0,0,-1,1553,855,0,0
336,169,0,0,0,0,0,0,0,0,0,-1,1560,855,0,0
343,169,0,0,0,0,0,0,0,0,0,-1,1567,855,0,0
350,169,0,0,0,0,0,0,0,0,0,-1,1574,855,0,0
357,169,0,0,0,0,0,0,0,0,0,-1,1581,855,0,0
364,169,0,0,0,0,0,0,0,0,0,-1,1588,855,0,0
371,169,0,0,0,0,0,0,0,0,0,-1,1595,855,0,0
378,169,0,0,0,0,0,0,0,0,0,-1,1602,855,0,0
385,169,0,0,0,0,0,0,0,0,0,-1,1609,855,0,0
392,169,0,0,0,0,0,0,0,0,0,-1,1616,855,0,0
399,169,0,0,0,0,0,0,0,0,0,-1,1623,855,0,0
406,169,0,0,0,0,0,0,0,0,0,-1,1630,855,0,0
413,169,0,0,0,0,0,0,0,0,0,-1,1637,855,0,0
420,169,0,0,0,0,0,0,0,0,0,-1,1644,855,0,0
427,169,0,0,0,0,0,0,0,0,0,-1,1651,855,0,0
434,169,0,0,0,0,0,0,0,0,0,-1,1658,855,0,0
441,169,0,0,0,0,0,0,0,0,0,-1,1665,855,0,0
448,169,0,0,0,0,0,0,0,0,0,-1,1672,855,0,0
455,169,0,0,0,0,0,0,0,0,0,-1,1679,855,0,0
462,169,0,0,0,0,0,0,0,0,0,-1,1686,855,0,0
469,169,0,0,0,0,0,0,0,0,0,-1,1693,855,0,0
476,169,0,0,0,0,0,0,0,0,0,-1,1700,855,0,0
483,169,0,0,0,0,0,0,0,0,0,-1,1707,855,0,0
490,169,0,0,0,0,0,0,0,0,0,-1,1714,855,0,0
497,169,0,0,0,0,0,0,0,0,0,-1,1721,855,0,0
504,169,0,0,0,0,0,0,0,0,0,-1,1728,855,0,0
511,169,0,0,0,0,0,0,0,0,0,-1,1735,855,0,0
518,169,0,0,0,0,0,0,0,0,0,-1,1742,855,0,0
525,169,0,0,0,0,0,0,0,0,0,-1,1749,855,0,0
532,169,0,0,0,0,0,0,0,0,0,-1,1756,855,0,0
539,169,0,0,0,0,0,0,0,0,0,-1,1763,855,0,0
546,169,0,0,0,0,0,0,0,0,0,-1,1770,855,0,0
553,169,0,0,0,0,0,0,0,0,0,-1,1777,855,0,0
560,169,0,0,0,0,0,0,0,0,0,-1,1784,855,0,0
567,169,0,0,0,0,0,0,0,0,0,-1,1791,855,0,0
574,169,0,0,0,0,0,0,0,0,0,-1,1798,855,0,0
581,169,0,0,0,0,0,0,0,0,0,-1,1805,855,0,0
588,169,0,0,0,0,0,0,0,0,0,-1,1812,855,0,0
595,169,0,0,0,0,0,0,0,0,0,-1,1819,855,0,0
602,169,0,0,0,0,0,0,0,0,0,-1,1826,855,0,0
609,169,0,0,0,0,0,0,0,0,0,-1,1833,855,0,0
616,169,52.8516,2.77661,0.00771408,-0.00735619,-0.00477614,0.00910025,-0.00874237,-0.282469,0.0103021,0.0430358,1840,855,52.8516,-2.77662
623,169,53.2064,2.59814,0.00517728,-0.00553399,-0.00343127,0.00618219,-0.00653889,-0.284899,0.00734548,0.04582,1847,855,53.2065,-2.59812
630,169,53.3077,2.50757,0.00266252,-0.00389675,-0.00238377,0.00343731,-0.00467154,-0.314257,0.00469969,0.0420618,1854,855,53.3078,-2.50755
637,169,53.2162,2.6673,0.000525584,-0.0025333,-0.00168811,0.00127406,-0.00328177,-0.417335,0.00271411,0.0361817,1861,855,53.2162,-2.66728
644,169,53.0752,2.84753,-0.000927784,-0.00182441,-0.00144348,0.000135396,-0.00288759,-0.634832,0.00197174,0.0370188,1868,855,53.0753,-2.84754
651,169,53.0122,2.77924,-0.0017005,-0.00156032,-0.00142899,-0.000199703,-0.00306112,-0.809903,0.00197754,0.0390831,1875,855,53.0122,-2.77921
658,169,53.1498,2.63953,-0.00210312,-0.00160639,-0.00166636,-0.000169992,-0.00353952,-0.859377,0.0023051,0.0382309,1882,855,53.1498,-2.63955
665,169,53.1707,2.64966,0,0,0,0,0,0,0,-1,1889,855,53.1706,-2.64969
672,169,31.2465,2.96387,0,0,0,0,0,0,0,-1,1896,855,31.2464,-2.9639
679,169,38.4297,1.08197,0,0,0,0,0,0,0,-1,1903,855,38.4296,-1.08194
686,169,43.8374,1.35443,0,0,0,0,0,0,0,-1,1910,855,43.8373,-1.35442
693,169,43.59,1.86066,-0.00277127,-0.00108015,-0.00190499,0.000158504,-0.00400992,-0.994269,0.00272765,0.0257175,1917,855,43.59,-1.86064
700,169,43.5559,2.47632,-0.00220623,-0.00105512,-0.00191309,0.000367115,-0.00362847,-0.931517,0.00255017,0.0238645,1924,855,43.556,-2.47629
707,169,43.4609,2.99945,-0.00136234,-0.00108743,-0.00183319,0.000613451,-0.00306322,-0.822819,0.00227438,0.0228778,1931,855,43.461,-2.99942
714,169,43.3115,3.46234,-0.000415113,-0.000760861,-0.00161269,0.00103394,-0.00220991,-0.732004,0.00191342,0.0145985,1938,855,43.3116,-3.46233
721,169,43.2906,4.06097,0.00108304,-0.000266657,-0.00120726,0.00179126,-0.00097488,-0.530537,0.00162005,0.0166447,1945,855,43.2906,-4.06096
728,169,43.251,4.66931,0.00320918,0.000294453,-0.000605926,0.00333012,0.000173509,-0.197013,0.00216456,0.0139029,1952,855,43.251,-4.66931
735,169,43.224,5.2525,0.0058781,0.000745584,4.94742e-05,0.00587857,0.000745107,0.00963817,0.0036958,0.0191793,1959,855,43.224,-5.25248
742,169,43.2275,5.83551,0.00895998,0.000997582,0.000749434,0.0090299,0.000927658,0.093033,0.00573577,0.0175921,1966,855,43.2275,-5.8355
749,169,43.2268,6.3515,0.0124383,0.000783516,0.00142797,0.0126107,0.000611109,0.120154,0.00821103,0.0275596,1973,855,43.2268,-6.35153
756,169,44.1981,6.97083,0.0164902,-7.05725e-05,0.00211427,0.0167559,-0.000336234,0.124996,0.0112843,0.0483149,1980,855,44.1981,-6.9708
763,169,45.1978,7.5675,0,0,0,0,0,0,0,-1,1987,855,45.1977,-7.56751
770,169,37.2059,3.97021,0,0,0,0,0,0,0,-1,1994,855,37.2059,-3.97022
777,169,41.7505,8.7085,0,0,0,0,0,0,0,-1,2001,855,41.7505,-8.70852
784,169,39.0697,9.4693,0,0,0,0,0,0,0,-1,2008,855,39.0697,-9.46928
791,169,0,0,0,0,0,0,0,0,0,-1,2015,855,0,0
798,169,0,0,0,0,0,0,0,0,0,-1,2022,855,0,0
805,169,0,0,0,0,0,0,0,0,0,-1,2029,855,0,0
812,169,0,0,0,0,0,0,0,0,0,-1,2036,855,0,0
-700,162,0,0,0,0,0,0,0,0,0,-1,524,862,0,0
-693,162,0,0,0,0,0,0,0,0,0,-1,531,862,0,0
-686,162,0,0,0,0,0,0,0,0,0,-1,538,862,0,0
-679,162,0,0,0,0,0,0,0,0,0,-1,545,862,0,0
-672,162,0,0,0,0,0,0,0,0,0,-1,552,862,0,0
-665,162,-42.1417,-4.41602,0,0,0,0,0,0,0,-1,559,862,-42.1417,4.41603
-658,162,-43.0374,-5.06726,-0.0251669,-0.106082,-0.00844969,-0.024294,-0.106955,-0.102947,0.0647428,0.0456882,566,862,-43.0374,5.06725
-651,162,-43.1616,-4.42242,-0.0189003,-0.0880339,-0.00784574,-0.0180211,-0.0889131,-0.111596,0.054275,0.0499512,573,862,-43.1616,4.4224
-644,162,-43.3295,-3.75836,0,0,0,0,0,0,0,-1,580,862,-43.3295,3.75838
-637,162,-31.8436,5.66028,0,0,0,0,0,0,0,-1,587,862,-31.8436,-5.66029
-630,162,-31.8751,5.05603,-0.00799578,-0.0392602,-0.00390565,-0.00751526,-0.0397407,-0.122417,0.024378,0.0474073,594,862,-31.8751,-5.05605
-623,162,-31.7969,4.383,-0.00611901,-0.0257134,-0.00219141,-0.00587692,-0.0259555,-0.110027,0.0157153,0.0354076,601,862,-31.7969,-4.38301
-616,162,-31.7758,3.74786,-0.00397485,-0.0143859,-0.00101333,-0.00387713,-0.0144836,-0.0961298,0.00865777,0.0194761,608,862,-31.7758,-3.74787
-609,162,-31.8536,3.17194,-0.00225867,-0.00517437,0.000473982,-0.00218356,-0.00524949,0.157172,0.00304503,0.0132222,615,862,-31.8536,-3.17194
-602,162,-31.9008,2.61157,-0.00147327,0.000683768,0.00143745,0.00140232,-0.00219182,1.10725,0.0020917,0.0112218,622,862,-31.9008,-2.61155
-595,162,-31.8967,2.05774,-0.000439896,0.00184838,0.00198836,0.00299828,-0.0015898,1.04647,0.00269022,0.0111714,629,862,-31.8967,-2.05773
-588,162,-31.8869,1.5152,0.000802728,0.000759121,0.00212354,0.00290457,-0.00134272,0.780265,0.00250683,0.0126313,636,862,-31.8869,-1.51518
-581,162,-32.108,0.972534,0.00175465,0.000429698,0.00216618,0.00335739,-0.00117304,0.637001,0.0027151,0.0291751,643,862,-32.108,-0.972536
-574,162,-32.392,0.381775,0.00235159,0.000309903,0.00201943,0.00359354,-0.000932046,0.551375,0.00275935,0.041916,650,862,-32.392,-0.381757
-567,162,-32.3559,-0.182007,0.00253666,0.000339798,0.00158961,0.00337043,-0.000493976,0.483066,0.00242842,0.0464328,657,862,-32.3559,0.181991
-560,162,-32.0844,-0.828064,0.00238609,0.000239796,0.00111868,0.00286313,-0.000237244,0.403084,0.00199255,0.0427142,664,862,-32.0844,0.828037
-553,162,-31.6523,-1.55688,0,0,0,0,0,0,0,-1,671,862,-31.6523,1.5569
-546,162,-22.8181,-1.51154,0,0,0,0,0,0,0,-1,678,862,-22.8181,1.51155
-539,162,-39.7872,0.916199,0,0,0,0,0,0,0,-1,685,862,-39.7872,-0.916175
-532,162,-39.8663,0.867981,0.0014003,3.06703e-05,-0.000405044,0.00151112,-8.01482e-05,-0.26706,0.00103516,0.040433,692,862,-39.8663,-0.86799
-525,162,-39.9528,0.771606,0.000886743,-3.62075e-05,-0.000877336,0.00141657,-0.000566033,-0.543284,0.00117924,0.040138,699,862,-39.9528,-0.771582
-518,162,-40.0093,0.72937,-9.00803e-05,-7.36242e-05,-0.00113584,0.00105401,-0.00121772,-0.78902,0.00131272,0.0416238,706,862,-40.0093,-0.729382
-511,162,-40.0051,0.759216,-0.000338824,-0.000541724,-0.00141454,0.000977898,-0.00185845,-0.7496,0.00166366,0.0452785,713,862,-40.0051,-0.759203
-504,162,-39.8621,0.841797,0.00162581,-0.000626557,-0.00124653,0.00217955,-0.00118029,-0.418038,0.00196819,0.0433609,720,862,-39.862,-0.841809
-497,162,-39.9951,0.694763,0.00379037,-0.00146626,-0.000821463,0.00391575,-0.00159164,-0.151462,0.00327271,0.0398003,727,862,-39.995,-0.694753
-490,162,0,0,0,0,0,0,0,0,0,-1,734,862,0,0
-483,162,0,0,0,0,0,0,0,0,0,-1,741,862,0,0
-476,162,0,0,0,0,0,0,0,0,0,-1,748,862,0,0
-469,162,0,0,0,0,0,0,0,0,0,-1,755,862,0,0
-462,162,0,0,0,0,0,0,0,0,0,-1,762,862,0,0
-455,162,0,0,0,0,0,0,0,0,0,-1,769,862,0,0
-448,162,0,0,0,0,0,0,0,0,0,-1,776,862,0,0
-441,162,0,0,0,0,0,0,0,0,0,-1,783,862,0,0
-434,162,0,0,0,0,0,0,0,0,0,-1,790,862,0,0
-427,162,0,0,0,0,0,0,0,0,0,-1,797,862,0,0
-420,162,0,0,0,0,0,0,0,0,0,-1,804,862,0,0
-413,162,0,0,0,0,0,0,0,0,0,-1,811,862,0,0
-406,162,0,0,0,0,0,0,0,0,0,-1,818,862,0,0
-399,162,0,0,0,0,0,0,0,0,0,-1,825,862,0,0
-392,162,0,0,0,0,0,0,0,0,0,-1,832,862,0,0
-385,162,0,0,0,0,0,0,0,0,0,-1,839,862,0,0
-378,162,0,0,0,0,0,0,0,0,0,-1,846,862,0,0
-371,162,0,0,0,0,0,0,0,0,0,-1,853,862,0,0
-364,162,0,0,0,0,0,0,0,0,0,-1,860,862,0,0
-357,162,0,0,0,0,0,0,0,0,0,-1,867,862,0,0
-350,162,0,0,0,0,0,0,0,0,0,-1,874,862,0,0
-343,162,0,0,0,0,0,0,0,0,0,-1,881,862,0,0
-336,162,0,0,0,0,0,0,0,0,0,-1,888,862,0,0
-329,162,0,0,0,0,0,0,0,0,0,-1,895,862,0,0
-322,162,0,0,0,0,0,0,0,0,0,-1,902,862,0,0
-315,162,0,0,0,0,0,0,0,0,0,-1,909,862,0,0
-308,162,0,0,0,0,0,0,0,0,0,-1,916,862,0,0
-301,162,0,0,0,0,0,0,0,0,0,-1,923,862,0,0
-294,162,0,0,0,0,0,0,0,0,0,-1,930,862,0,0
-287,162,0,0,0,0,0,0,0,0,0,-1,937,862,0,0
-280,162,0,0,0,0,0,0,0,0,0,-1,944,862,0,0
-273,162,0,0,0,0,0,0,0,0,0,-1,951,862,0,0
-266,162,0,0,0,0,0,0,0,0,0,-1,958,862,0,0
-259,162,0,0,0,0,0,0,0,0,0,-1,965,862,0,0
-252,162,0,0,0,0,0,0,0,0,0,-1,972,862,0,0
-245,162,0,0,0,0,0,0,0,0,0,-1,979,862,0,0
-238,162,0,0,0,0,0,0,0,0,0,-1,986,862,0,0
-231,162,0,0,0,0,0,0,0,0,0,-1,993,862,0,0
-224,162,0,0,0,0,0,0,0,0,0,-1,1000,862,0,0
-217,162,0,0,0,0,0,0,0,0,0,-1,1007,862,0,0
-210,162,0,0,0,0,0,0,0,0,0,-1,1014,862,0,0
-203,162,0,0,0,0,0,0,0,0,0,-1,1021,862,0,0
-196,162,0,0,0,0,0,0,0,0,0,-1,1028,862,0,0
-189,162,0,0,0,0,0,0,0,0,0,-1,1035,862,0,0
-182,162,0,0,0,0,0,0,0,0,0,-1,1042,862,0,0
-175,162,0,0,0,0,0,0,0,0,0,-1,1049,862,0,0
-168,162,0,0,0,0,0,0,0,0,0,-1,1056,862,0,0
-161,162,0,0,0,0,0,0,0,0,0,-1,1063,862,0,0
-154,162,0,0,0,0,0,0,0,0,0,-1,1070,862,0,0
-147,162,0,0,0,0,0,0,0,0,0,-1,1077,862,0,0
-140,162,0,0,0,0,0,0,0,0,0,-1,1084,862,0,0
-133,162,0,0,0,0,0,0,0,0,0,-1,1091,862,0,0
-126,162,0,0,0,0,0,0,0,0,0,-1,1098,862,0,0
-119,162,0,0,0,0,0,0,0,0,0,-1,1105,862,0,0
-112,162,0,0,0,0,0,0,0,0,0,-1,1112,862,0,0
-105,162,0,0,0,0,0,0,0,0,0,-1,1119,862,0,0
-98,162,0,0,0,0,0,0,0,0,0,-1,1126,862,0,0
-91,162,0,0,0,0,0,0,0,0,0,-1,1133,862,0,0
-84,162,0,0,0,0,0,0,0,0,0,-1,1140,862,0,0
-77,162,0,0,0,0,0,0,0,0,0,-1,1147,862,0,0
-70,162,0,0,0,0,0,0,0,0,0,-1,1154,862,0,0
-63,162,0,0,0,0,0,0,0,0,0,-1,1161,862,0,0
-56,162,0,0,0,0,0,0,0,0,0,-1,1168,862,0,0
-49,162,0,0,0,0,0,0,0,0,0,-1,1175,862,0,0
-42,162,0,0,0,0,0,0,0,0,0,-1,1182,862,0,0
-35,162,0,0,0,0,0,0,0,0,0,-1,1189,862,0,0
-28,162,0,0,0,0,0,0,0,0,0,-1,1196,862,0,0
-21,162,0,0,0,0,0,0,0,0,0,-1,1203,862,0,0
-14,162,0,0,0,0,0,0,0,0,0,-1,1210,862,0,0
-7,162,0,0,0,0,0,0,0,0,0,-1,1217,862,0,0
0,162,0,0,0,0,0,0,0,0,0,-1,1224,862,0,0
7,162,0,0,0,0,0,0,0,0,0,-1,1231,862,0,0
14,162,0,0,0,0,0,0,0,0,0,-1,1238,862,0,0
21,162,0,0,0,0,0,0,0,0,0,-1,1245,862,0,0
28,162,0,0,0,0,0,0,0,0,0,-1,1252,862,0,0
35,162,0,0,0,0,0,0,0,0,0,-1,1259,862,0,0
42,162,0,0,0,0,0,0,0,0,0,-1,1266,862,0,0
49,162,0,0,0,0,0,0,0,0,0,-1,1273,862,0,0
56,162,0,0,0,0,0,0,0,0,0,-1,1280,862,0,0
63,162,0,0,0,0,0,0,0,0,0,-1,1287,862,0,0
70,162,0,0,0,0,0,0,0,0,0,-1,1294,862,0,0
77,162,0,0,0,0,0,0,0,0,0,-1,1301,862,0,0
84,162,0,0,0,0,0,0,0,0,0,-1,1308,862,0,0
91,162,0,0,0,0,0,0,0,0,0,-1,1315,862,0,0
98,162,0,0,0,0,0,0,0,0,0,-1,1322,862,0,0
105,162,0,0,0,0,0,0,0,0,0,-1,1329,862,0,0
112,162,0,0,0,0,0,0,0,0,0,-1,1336,862,0,0
119,162,0,0,0,0,0,0,0,0,0,-1,1343,862,0,0
126,162,0,0,0,0,0,0,0,0,0,-1,1350,862,0,0
133,162,0,0,0,0,0,0,0,0,0,-1,1357,862,0,0
140,162,0,0,0,0,0,0,0,0,0,-1,1364,862,0,0
147,162,0,0,0,0,0,0,0,0,0,-1,1371,862,0,0
154,162,0,0,0,0,0,0,0,0,0,-1,1378,862,0,0
161,162,0,0,0,0,0,0,0,0,0,-1,1385,862,0,0
168,162,0,0,0,0,0,0,0,0,0,-1,1392,862,0,0
175,162,0,0,0,0,0,0,0,0,0,-1,1399,862,0,0
182,162,0,0,0,0,0,0,0,0,0,-1,1406,862,0,0
189,162,0,0,0,0,0,0,0,0,0,-1,1413,862,0,0
196,162,0,0,0,0,0,0,0,0,0,-1,1420,862,0,0
203,162,0,0,0,0,0,0,0,0,0,-1,1427,862,0,0
210,162,0,0,0,0,0,0,0,0,0,-1,1434,862,0,0
217,162,0,0,0,0,0,0,0,0,0,-1,1441,862,0,0
224,162,0,0,0,0,0,0,0,0,0,-1,1448,862,0,0
231,162,0,0,0,0,0,0,0,0,0,-1,1455,862,0,0
238,162,0,0,0,0,0,0,0,0,0,-1,1462,862,0,0
245,162,0,0,0,0,0,0,0,0,0,-1,1469,862,0,0
252,162,0,0,0,0,0,0,0,0,0,-1,1476,862,0,0
259,162,0,0,0,0,0,0,0,0,0,-1,1483,862,0,0
266,162,0,0,0,0,0,0,0,0,0,-1,1490,862,0,0
273,162,0,0,0,0,0,0,0,0,0,-1,1497,862,0,0
280,162,0,0,0,0,0,0,0,0,0,-1,1504,862,0,0
287,162,0,0,0,0,0,0,0,0,0,-1,1511,862,0,0
294,162,0,0,0,0,0,0,0,0,0,-1,1518,862,0,0
301,162,0,0,0,0,0,0,0,0,0,-1,1525,862,0,0
308,162,0,0,0,0,0,0,0,0,0,-1,1532,862,0,0
315,162,0,0,0,0,0,0,0,0,0,-1,1539,862,0,0
322,162,0,0,0,0,0,0,0,0,0,-1,1546,862,0,0
329,162,0,0,0,0,0,0,0,0,0,-1,1553,862,0,0
336,162,0,0,0,0,0,0,0,0,0,-1,1560,862,0,0
343,162,0,0,0,0,0,0,0,0,0,-1,1567,862,0,0
350,162,0,0,0,0,0,0,0,0,0,-1,1574,862,0,0
357,162,0,0,0,0,0,0,0,0,0,-1,1581,862,0,0
364,162,0,0,0,0,0,0,0,0,0,-1,1588,862,0,0
371,162,0,0,0,0,0,0,0,0,0,-1,1595,862,0,0
378,162,0,0,0,0,0,0,0,0,0,-1,1602,862,0,0
385,162,0,0,0,0,0,0,0,0,0,-1,1609,862,0,0
392,162,0,0,0,0,0,0,0,0,0,-1,1616,862,0,0
399,162,0,0,0,0,0,0,0,0,0,-1,1623,862,0,0
406,162,0,0,0,0,0,0,0,0,0,-1,1630,862,0,0
413,162,0,0,0,0,0,0,0,0,0,-1,1637,862,0,0
420,162,0,0,0,0,0,0,0,0,0,-1,1644,862,0,0
427,162,0,0,0,0,0,0,0,0,0,-1,1651,862,0,0
434,162,0,0,0,0,0,0,0,0,0,-1,1658,862,0,0
441,162,0,0,0,0,0,0,0,0,0,-1,1665,862,0,0
448,162,0,0,0,0,0,0,0,0,0,-1,1672,862,0,0
455,162,0,0,0,0,0,0,0,0,0,-1,1679,862,0,0
462,162,0,0,0,0,0,0,0,0,0,-1,1686,862,0,0
469,162,0,0,0,0,0,0,0,0,0,-1,1693,862,0,0
476,162,0,0,0,0,0,0,0,0,0,-1,1700,862,0,0
483,162,0,0,0,0,0,0,0,0,0,-1,1707,862,0,0
490,162,0,0,0,0,0,0,0,0,0,-1,1714,862,0,0
497,162,0,0,0,0,0,0,0,0,0,-1,1721,862,0,0
504,162,0,0,0,0,0,0,0,0,0,-1,1728,862,0,0
511,162,0,0,0,0,0,0,0,0,0,-1,1735,862,0,0
518,162,0,0,0,0,0,0,0,0,0,-1,1742,862,0,0
525,162,0,0,0,0,0,0,0,0,0,-1,1749,862,0,0
532,162,0,0,0,0,0,0,0,0,0,-1,1756,862,0,0
539,162,0,0,0,0,0,0,0,0,0,-1,1763,862,0,0
546,162,0,0,0,0,0,0,0,0,0,-1,1770,862,0,0
553,162,0,0,0,0,0,0,0,0,0,-1,1777,862,0,0
560,162,0,0,0,0,0,0,0,0,0,-1,1784,862,0,0
567,162,0,0,0,0,0,0,0,0,0,-1,1791,862,0,0
574,162,0,0,0,0,0,0,0,0,0,-1,1798,862,0,0
581,162,0,0,0,0,0,0,0,0,0,-1,1805,862,0,0
588,162,0,0,0,0,0,0,0,0,0,-1,1812,862,0,0
595,162,0,0,0,0,0,0,0,0,0,-1,1819,862,0,0
602,162,0,0,0,0,0,0,0,0,0,-1,1826,862,0,0
609,162,0,0,0,0,0,0,0,0,0,-1,1833,862,0,0
616,162,53.054,2.95447,0.00956871,-0.00898538,-0.005937,0.0113058,-0.0107225,-0.284645,0.0127195,0.0468673,1840,862,53.054,-2.95448
623,162,53.2069,2.86932,0.00693028,-0.00690483,-0.00448148,0.00825507,-0.00822962,-0.287428,0.00951744,0.0456932,1847,862,53.2069,-2.86935
630,162,53.1957,2.66235,0.00436584,-0.00503757,-0.0032203,0.00536293,-0.00603467,-0.300267,0.00658422,0.0416108,1854,862,53.1957,-2.66237
637,162,53.1304,2.6402,0.00205533,-0.00327942,-0.00216286,0.00282203,-0.00404612,-0.340663,0.00398627,0.0394019,1861,862,53.1304,-2.6402
644,162,53.1334,2.62982,0.000351249,-0.00220134,-0.00162223,0.00113906,-0.00298916,-0.452092,0.00246192,0.0369555,1868,862,53.1335,-2.6298
651,162,53.1044,2.65833,-0.000637231,-0.00168842,-0.00143888,0.000369048,-0.0026947,-0.610287,0.00193127,0.0350377,1875,862,53.1043,-2.65832
658,162,53.1042,2.67035,-0.00116984,-0.00164609,-0.00158311,0.000192947,-0.00300888,-0.71075,0.00207323,0.035439,1882,862,53.1043,-2.67037
665,162,53.1396,2.64679,-0.00155556,-0.00153182,-0.00170342,0.000159776,-0.00324716,-0.788882,0.00221995,0.0454804,1889,862,53.1396,-2.64679
672,162,53.1222,2.69232,0,0,0,0,0,0,0,-1,1896,862,53.1222,-2.69233
679,162,26.5077,2.54785,0,0,0,0,0,0,0,-1,1903,862,26.5077,-2.54787
686,162,43.8522,1.13354,0,0,0,0,0,0,0,-1,1910,862,43.8522,-1.13354
693,162,44.1658,1.94745,-0.00232713,-0.00100372,-0.0016963,0.000155363,-0.00348621,-0.971364,0.00237762,0.0302947,1917,862,44.1658,-1.94746
700,162,44.1432,2.44934,-0.00179234,-0.000934288,-0.00168776,0.000378117,-0.00310474,-0.909862,0.00220669,0.0286335,1924,862,44.1432,-2.44937
707,162,44.0531,2.97607,-0.000979175,-0.000936432,-0.00162792,0.000670258,-0.00258586,-0.791962,0.00198541,0.0205657,1931,862,44.0531,-2.9761
714,162,43.912,3.48029,-0.000257938,-0.000631569,-0.00151345,0.00108018,-0.00196969,-0.72399,0.00178564,0.0231037,1938,862,43.912,-3.48028
721,162,43.8087,4.15607,0.000862866,-0.000134379,-0.00125641,0.00171598,-0.000987488,-0.596498,0.00157962,0.0290362,1945,862,43.8087,-4.15606
728,162,43.8036,4.74188,0.00255696,0.000562524,-0.000835,0.00286038,0.0002591,-0.348546,0.00182669,0.0225479,1952,862,43.8036,-4.74191
735,162,43.8242,5.28546,0.00484666,0.00128008,-0.000333163,0.00487751,0.00124923,-0.0923481,0.00292556,0.0108712,1959,862,43.8242,-5.28548
742,162,43.8044,5.82397,0.00756554,0.00198631,0.000261417,0.00757776,0.00197409,0.046719,0.00453923,0.0124806,1966,862,43.8045,-5.82396
749,162,43.7445,6.35913,0.0105999,0.00241789,0.000842653,0.0106857,0.00233201,0.101568,0.00648774,0.0187582,1973,862,43.7445,-6.35911
756,162,44.2845,6.91809,0,0,0,0,0,0,0,-1,1980,862,44.2846,-6.91806
763,162,43.885,7.60608,0,0,0,0,0,0,0,-1,1987,862,43.8851,-7.60609
770,162,43.2596,8.44946,0,0,0,0,0,0,0,-1,1994,862,43.2597,-8.44947
777,162,43.4399,9.09882,0,0,0,0,0,0,0,-1,2001,862,43.44,-9.09883
784,162,43.3364,10.054,0,0,0,0,0,0,0,-1,2008,862,43.3365,-10.054
791,162,0,0,0,0,0,0,0,0,0,-1,2015,862,0,0
798,162,0,0,0,0,0,0,0,0,0,-1,2022,862,0,0
805,162,0,0,0,0,0,0,0,0,0,-1,2029,862,0,0
812,162,0,0,0,0,0,0,0,0,0,-1,2036,862,0,0
-700,155,0,0,0,0,0,0,0,0,0,-1,524,869,0,0
-693,155,0,0,0,0,0,0,0,0,0,-1,531,869,0,0
-686,155,0,0,0,0,0,0,0,0,0,-1,538,869,0,0
-679,155,0,0,0,0,0,0,0,0,0,-1,545,869,0,0
-672,155,0,0,0,0,0,0,0,0,0,-1,552,869,0,0
-665,155,-41.9244,-3.72766,-0.0284083,-0.121678,-0.0107834,-0.0271778,-0.122908,-0.113618,0.0745497,0.0460786,559,869,-41.9244,3.72765
-658,155,-42.509,-4.02521,-0.0215219,-0.103986,-0.00983763,-0.0203645,-0.105144,-0.117106,0.0643901,0.0440862,566,869,-42.509,4.02523
-651,155,-42.4927,-3.3501,-0.0166032,-0.0865239,-0.00858627,-0.0155643,-0.0875628,-0.120417,0.0539409,0.0484494,573,869,-42.4927,3.35009
-644,155,-42.7251,-2.65259,0,0,0,0,0,0,0,-1,580,869,-42.7251,2.65259
-637,155,-32.5438,5.05939,0,0,0,0,0,0,0,-1,587,869,-32.5438,-5.05936
-630,155,-32.4608,4.7254,-0.00771128,-0.0389633,-0.00392943,-0.00722479,-0.0394498,-0.123179,0.024253,0.0474584,594,869,-32.4607,-4.72542
-623,155,-32.3005,4.35388,-0.00604953,-0.0257395,-0.00217036,-0.00581314,-0.0259759,-0.108491,0.0157415,0.0272675,601,869,-32.3005,-4.35387
-616,155,-32.3232,3.76434,-0.00399968,-0.0143197,-0.00100532,-0.00390266,-0.0144167,-0.0962089,0.0086103,0.0154412,608,869,-32.3232,-3.76436
-609,155,-32.3998,3.16058,-0.00225986,-0.00505283,0.000625408,-0.00212621,-0.00518648,0.21053,0.00301056,0.0138509,615,869,-32.3998,-3.16059
-602,155,-32.4575,2.61731,-0.00141575,0.000630785,0.00163095,0.00153289,-0.00231786,1.06556,0.00223858,0.0127135,622,869,-32.4575,-2.6173
-595,155,-32.4868,2.08789,-0.00027858,0.00162601,0.00211762,0.00299561,-0.00164817,0.996701,0.00271845,0.0126769,629,869,-32.4868,-2.08788
-588,155,-32.459,1.57971,0.000923793,0.000748564,0.00212943,0.00296741,-0.00129505,0.764837,0.00252328,0.0175031,636,869,-32.459,-1.5797
-581,155,-32.733,1.16425,0.00175353,0.000618088,0.00208966,0.00335121,-0.000979597,0.652759,0.00262239,0.0344136,643,869,-32.733,-1.16422
-574,155,-32.8356,0.712097,0.00227066,0.000599699,0.00193846,0.00354602,-0.000675661,0.581926,0.00261845,0.039382,650,869,-32.8355,-0.712111
-567,155,-32.818,-0.0455322,0.00252886,0.000604415,0.00156391,0.00340285,-0.000269575,0.509613,0.00236356,0.0496348,657,869,-32.818,0.0455234
-560,155,-32.6809,-0.699097,0.00258485,0.000518885,0.00118212,0.00312173,-1.79913e-05,0.426312,0.00208718,0.0392854,664,869,-32.6809,0.699097
-553,155,-32.3889,-1.63983,0,0,0,0,0,0,0,-1,671,869,-32.3889,1.6398
-546,155,-22.7988,0.873657,0,0,0,0,0,0,0,-1,678,869,-22.7988,-0.873645
-539,155,-39.9697,0.596008,0,0,0,0,0,0,0,-1,685,869,-39.9697,-0.596
-532,155,-39.9554,0.763062,0.00170659,0.000507861,-0.000672279,0.00200789,0.000206561,-0.421337,0.00127533,0.037714,692,869,-39.9554,-0.763084
-525,155,-39.9346,0.831421,0.0010636,0.000410546,-0.00127444,0.00205268,-0.000578536,-0.65999,0.00159663,0.0392746,699,869,-39.9345,-0.831399
-518,155,-39.9041,0.660522,1.63853e-05,0.000199259,-0.00164359,0.00175395,-0.00153831,-0.813186,0.00190215,0.0431241,706,869,-39.9041,-0.660527
-511,155,-39.7486,0.778076,2.80326e-05,-0.000552138,-0.00193282,0.00169242,-0.00221652,-0.710912,0.00226358,0.043585,713,869,-39.7486,-0.778076
-504,155,-39.6555,0.986694,0,0,0,0,0,0,0,-1,720,869,-39.6555,-0.986681
-497,155,0,0,0,0,0,0,0,0,0,-1,727,869,0,0
-490,155,0,0,0,0,0,0,0,0,0,-1,734,869,0,0
-483,155,0,0,0,0,0,0,0,0,0,-1,741,869,0,0
-476,155,0,0,0,0,0,0,0,0,0,-1,748,869,0,0
-469,155,0,0,0,0,0,0,0,0,0,-1,755,869,0,0
-462,155,0,0,0,0,0,0,0,0,0,-1,762,869,0,0
-455,155,0,0,0,0,0,0,0,0,0,-1,769,869,0,0
-448,155,0,0,0,0,0,0,0,0,0,-1,776,869,0,0
-441,155,0,0,0,0,0,0,0,0,0,-1,783,869,0,0
-434,155,0,0,0,0,0,0,0,0,0,-1,790,869,0,0
-427,155,0,0,0,0,0,0,0,0,0,-1,797,869,0,0
-420,155,0,0,0,0,0,0,0,0,0,-1,804,869,0,0
-413,155,0,0,0,0,0,0,0,0,0,-1,811,869,0,0
-406,155,0,0,0,0,0,0,0,0,0,-1,818,869,0,0
-399,155,0,0,0,0,0,0,0,0,0,-1,825,869,0,0
-392,155,0,0,0,0,0,0,0,0,0,-1,832,869,0,0
-385,155,0,0,0,0,0,0,0,0,0,-1,839,869,0,0
-378,155,0,0,0,0,0,0,0,0,0,-1,846,869,0,0
-371,155,0,0,0,0,0,0,0,0,0,-1,853,869,0,0
-364,155,0,0,0,0,0,0,0,0,0,-1,860,869,0,0
-357,155,0,0,0,0,0,0,0,0,0,-1,867,869,0,0
-350,155,0,0,0,0,0,0,0,0,0,-1,874,869,0,0
-343,155,0,0,0,0,0,0,0,0,0,-1,881,869,0,0
-336,155,0,0,0,0,0,0,0,0,0,-1,888,869,0,0
-329,155,0,0,0,0,0,0,0,0,0,-1,895,869,0,0
-322,155,0,0,0,0,0,0,0,0,0,-1,902,869,0,0
-315,155,0,0,0,0,0,0,0,0,0,-1,909,869,0,0
-308,155,0,0,0,0,0,0,0,0,0,-1,916,869,0,0
-301,155,0,0,0,0,0,0,0,0,0,-1,923,869,0,0
-294,155,0,0,0,0,0,0,0,0,0,-1,930,869,0,0
-287,155,0,0,0,0,0,0,0,0,0,-1,937,869,0,0
-280,155,0,0,0,0,0,0,0,0,0,-1,944,869,0,0
-273,155,0,0,0,0,0,0,0,0,0,-1,951,869,0,0
-266,155,0,0,0,0,0,0,0,0,0,-1,958,869,0,0
-259,155,0,0,0,0,0,0,0,0,0,-1,965,869,0,0
-252,155,0,0,0,0,0,0,0,0,0,-1,972,869,0,0
-245,155,0,0,0,0,0,0,0,0,0,-1,979,869,0,0
-238,155,0,0,0,0,0,0,0,0,0,-1,986,869,0,0
-231,155,0,0,0,0,0,0,0,0,0,-1,993,869,0,0
-224,155,0,0,0,0,0,0,0,0,0,-1,1000,869,0,0
-217,155,0,0,0,0,0,0,0,0,0,-1,1007,869,0,0
-210,155,0,0,0,0,0,0,0,0,0,-1,1014,869,0,0
-203,155,0,0,0,0,0,0,0,0,0,-1,1021,869,0,0
-196,155,0,0,0,0,0,0,0,0,0,-1,1028,869,0,0
-189,155,0,0,0,0,0,0,0,0,0,-1,1035,869,0,0
-182,155,0,0,0,0,0,0,0,0,0,-1,1042,869,0,0
-175,155,0,0,0,0,0,0,0,0,0,-1,1049,869,0,0
-168,155,0,0,0,0,0,0,0,0,0,-1,1056,869,0,0
-161,155,0,0,0,0,0,0,0,0,0,-1,1063,869,0,0
-154,155,0,0,0,0,0,0,0,0,0,-1,1070,869,0,0
-147,155,0,0,0,0,0,0,0,0,0,-1,1077,869,0,0
-140,155,0,0,0,0,0,0,0,0,0,-1,1084,869,0,0
-133,155,0,0,0,0,0,0,0,0,0,-1,1091,869,0,0
-126,155,0,0,0,0,0,0,0,0,0,-1,1098,869,0,0
-119,155,0,0,0,0,0,0,0,0,0,-1,1105,869,0,0
-112,155,0,0,0,0,0,0,0,0,0,-1,1112,869,0,0
-105,155,0,0,0,0,0,0,0,0,0,-1,1119,869,0,0
-98,155,0,0,0,0,0,0,0,0,0,-1,1126,869,0,0
-91,155,0,0,0,0,0,0,0,0,0,-1,1133,869,0,0
-84,155,0,0,0,0,0,0,0,0,0,-1,1140,869,0,0
-77,155,0,0,0,0,0,0,0,0,0,-1,1147,869,0,0
-70,155,0,0,0,0,0,0,0,0,0,-1,1154,869,0,0
-63,155,0,0,0,0,0,0,0,0,0,-1,1161,869,0,0
-56,155,0,0,0,0,0,0,0,0,0,-1,1168,869,0,0
-49,155,0,0,0,0,0,0,0,0,0,-1,1175,869,0,0
-42,155,0,0,0,0,0,0,0,0,0,-1,1182,869,0,0
-35,155,0,0,0,0,0,0,0,0,0,-1,1189,869,0,0
-28,155,0,0,0,0,0,0,0,0,0,-1,1196,869,0,0
-21,155,0,0,0,0,0,0,0,0,0,-1,1203,869,0,0
-14,155,0,0,0,0,0,0,0,0,0,-1,1210,869,0,0
-7,155,0,0,0,0,0,0,0,0,0,-1,1217,869,0,0
0,155,0,0,0,0,0,0,0,0,0,-1,1224,869,0,0
7,155,0,0,0,0,0,0,0,0,0,-1,1231,869,0,0
14,155,0,0,0,0,0,0,0,0,0,-1,1238,869,0,0
21,155,0,0,0,0,0,0,0,0,0,-1,1245,869,0,0
28,155,0,0,0,0,0,0,0,0,0,-1,1252,869,0,0
35,155,0,0,0,0,0,0,0,0,0,-1,1259,869,0,0
42,155,0,0,0,0,0,0,0,0,0,-1,1266,869,0,0
49,155,0,0,0,0,0,0,0,0,0,-1,1273,869,0,0
56,155,0,0,0,0,0,0,0,0,0,-1,1280,869,0,0
63,155,0,0,0,0,0,0,0,0,0,-1,1287,869,0,0
70,155,0,0,0,0,0,0,0,0,0,-1,1294,869,0,0
77,155,0,0,0,0,0,0,0,0,0,-1,1301,869,0,0
84,155,0,0,0,0,0,0,0,0,0,-1,1308,869,0,0
91,155,0,0,0,0,0,0,0,0,0,-1,1315,869,0,0
98,155,0,0,0,0,0,0,0,0,0,-1,1322,869,0,0
105,155,0,0,0,0,0,0,0,0,0,-1,1329,869,0,0
112,155,0,0,0,0,0,0,0,0,0,-1,1336,869,0,0
119,155,0,0,0,0,0,0,0,0,0,-1,1343,869,0,0
126,155,0,0,0,0,0,0,0,0,0,-1,1350,869,0,0
133,155,0,0,0,0,0,0,0,0,0,-1,1357,869,0,0
140,155,0,0,0,0,0,0,0,0,0,-1,1364,869,0,0
147,155,0,0,0,0,0,0,0,0,0,-1,1371,869,0,0
154,155,0,0,0,0,0,0,0,0,0,-1,1378,869,0,0
161,155,0,0,0,0,0,0,0,0,0,-1,1385,869,0,0
168,155,0,0,0,0,0,0,0,0,0,-1,1392,869,0,0
175,155,0,0,0,0,0,0,0,0,0,-1,1399,869,0,0
182,155,0,0,0,0,0,0,0,0,0,-1,1406,869,0,0
189,155,0,0,0,0,0,0,0,0,0,-1,1413,869,0,0
196,155,0,0,0,0,0,0,0,0,0,-1,1420,869,0,0
203,155,0,0,0,0,0,0,0,0,0,-1,1427,869,0,0
210,155,0,0,0,0,0,0,0,0,0,-1,1434,869,0,0
217,155,0,0,0,0,0,0,0,0,0,-1,1441,869,0,0
224,155,0,0,0,0,0,0,0,0,0,-1,1448,869,0,0
231,155,0,0,0,0,0,0,0,0,0,-1,1455,869,0,0
238,155,0,0,0,0,0,0,0,0,0,-1,1462,869,0,0
245,155,0,0,0,0,0,0,0,0,0,-1,1469,869,0,0
252,155,0,0,0,0,0,0,0,0,0,-1,1476,869,0,0
259,155,0,0,0,0,0,0,0,0,0,-1,1483,869,0,0
266,155,0,0,0,0,0,0,0,0,0,-1,1490,869,0,0
273,155,0,0,0,0,0,0,0,0,0,-1,1497,869,0,0
280,155,0,0,0,0,0,0,0,0,0,-1,1504,869,0,0
287,155,0,0,0,0,0,0,0,0,0,-1,1511,869,0,0
294,155,0,0,0,0,0,0,0,0,0,-1,1518,869,0,0
301,155,0,0,0,0,0,0,0,0,0,-1,1525,869,0,0
308,155,0,0,0,0,0,0,0,0,0,-1,1532,869,0,0
315,155,0,0,0,0,0,0,0,0,0,-1,1539,869,0,0
322,155,0,0,0,0,0,0,0,0,0,-1,1546,869,0,0
329,155,0,0,0,0,0,0,0,0,0,-1,1553,869,0,0
336,155,0,0,0,0,0,0,0,0,0,-1,1560,869,0,0
343,155,0,0,0,0,0,0,0,0,0,-1,1567,869,0,0
350,155,0,0,0,0,0,0,0,0,0,-1,1574,869,0,0
357,155,0,0,0,0,0,0,0,0,0,-1,1581,869,0,0
364,155,0,0,0,0,0,0,0,0,0,-1,1588,869,0,0
371,155,0,0,0,0,0,0,0,0,0,-1,1595,869,0,0
378,155,0,0,0,0,0,0,0,0,0,-1,1602,869,0,0
385,155,0,0,0,0,0,0,0,0,0,-1,1609,869,0,0
392,155,0,0,0,0,0,0,0,0,0,-1,1616,869,0,0
399,155,0,0,0,0,0,0,0,0,0,-1,1623,869,0,0
406,155,0,0,0,0,0,0,0,0,0,-1,1630,869,0,0
413,155,0,0,0,0,0,0,0,0,0,-1,1637,869,0,0
420,155,0,0,0,0,0,0,0,0,0,-1,1644,869,0,0
427,155,0,0,0,0,0,0,0,0,0,-1,1651,869,0,0
434,155,0,0,0,0,0,0,0,0,0,-1,1658,869,0,0
441,155,0,0,0,0,0,0,0,0,0,-1,1665,869,0,0
448,155,0,0,0,0,0,0,0,0,0,-1,1672,869,0,0
455,155,0,0,0,0,0,0,0,0,0,-1,1679,869,0,0
462,155,0,0,0,0,0,0,0,0,0,-1,1686,869,0,0
469,155,0,0,0,0,0,0,0,0,0,-1,1693,869,0,0
476,155,0,0,0,0,0,0,0,0,0,-1,1700,869,0,0
483,155,0,0,0,0,0,0,0,0,0,-1,1707,869,0,0
490,155,0,0,0,0,0,0,0,0,0,-1,1714,869,0,0
497,155,0,0,0,0,0,0,0,0,0,-1,1721,869,0,0
504,155,0,0,0,0,0,0,0,0,0,-1,1728,869,0,0
511,155,0,0,0,0,0,0,0,0,0,-1,1735,869,0,0
518,155,0,0,0,0,0,0,0,0,0,-1,1742,869,0,0
525,155,0,0,0,0,0,0,0,0,0,-1,1749,869,0,0
532,155,0,0,0,0,0,0,0,0,0,-1,1756,869,0,0
539,155,0,0,0,0,0,0,0,0,0,-1,1763,869,0,0
546,155,0,0,0,0,0,0,0,0,0,-1,1770,869,0,0
553,155,0,0,0,0,0,0,0,0,0,-1,1777,869,0,0
560,155,0,0,0,0,0,0,0,0,0,-1,1784,869,0,0
567,155,0,0,0,0,0,0,0,0,0,-1,1791,869,0,0
574,155,0,0,0,0,0,0,0,0,0,-1,1798,869,0,0
581,155,0,0,0,0,0,0,0,0,0,-1,1805,869,0,0
588,155,0,0,0,0,0,0,0,0,0,-1,1812,869,0,0
595,155,0,0,0,0,0,0,0,0,0,-1,1819,869,0,0
602,155,0,0,0,0,0,0,0,0,0,-1,1826,869,0,0
609,155,0,0,0,0,0,0,0,0,0,-1,1833,869,0,0
616,155,53.2473,3.05255,0.0121219,-0.00983582,-0.00680159,0.014058,-0.0117719,-0.277323,0.0149324,0.049934,1840,869,53.2474,-3.05258
623,155,53.1936,2.97638,0.00898358,-0.00755786,-0.00539456,0.0105874,-0.00916166,-0.288977,0.011412,0.0446466,1847,869,53.1936,-2.9764
630,155,53.1788,2.79456,0.00609392,-0.00563372,-0.00410063,0.00738549,-0.00692529,-0.305131,0.00826376,0.0429308,1854,869,53.1789,-2.79454
637,155,53.1433,2.6297,0.0034877,-0.00373391,-0.00286461,0.004486,-0.00473222,-0.335335,0.00532278,0.0409323,1861,869,53.1433,-2.62973
644,155,53.167,2.61115,0.00148179,-0.00244405,-0.00206868,0.00237062,-0.00333288,-0.405813,0.0033085,0.0345175,1868,869,53.167,-2.61112
651,155,53.1805,2.57935,0.000244113,-0.00174023,-0.00167343,0.00119739,-0.00269351,-0.517809,0.00230111,0.0320193,1875,869,53.1805,-2.57933
658,155,53.1383,2.60468,-0.000411941,-0.00162079,-0.00166029,0.000750521,-0.00278325,-0.610831,0.0021498,0.0272181,1882,869,53.1383,-2.60469
665,155,53.1121,2.633,-0.00085324,-0.00148619,-0.0016819,0.000541701,-0.00288114,-0.692402,0.00212447,0.0296158,1889,869,53.1121,-2.63297
672,155,53.085,2.68286,0,0,0,0,0,0,0,-1,1896,869,53.085,-2.68288
679,155,35.1565,2.78528,0,0,0,0,0,0,0,-1,1903,869,35.1565,-2.7853
686,155,43.6101,1.63361,0,0,0,0,0,0,0,-1,1910,869,43.6101,-1.63362
693,155,44.6429,2.08105,0,0,0,0,0,0,0,-1,1917,869,44.643,-2.08104
700,155,44.7465,2.54688,-0.00132686,-0.000880367,-0.00148859,0.000401626,-0.00260886,-0.85983,0.00188741,0.0358787,1924,869,44.7464,-2.54688
707,155,44.7511,3.10724,-0.00052255,-0.000813102,-0.00143321,0.000772732,-0.00210838,-0.734889,0.00172197,0.0249535,1931,869,44.7511,-3.10726
714,155,44.6726,3.61713,1.84778e-05,-0.000485956,-0.00138104,0.00117014,-0.00163762,-0.695079,0.00162853,0.0478752,1938,869,44.6726,-3.61712
721,155,44.408,4.14203,0.000746837,1.36536e-05,-0.00125404,0.00168677,-0.000926275,-0.643196,0.00152979,0.0320453,1945,869,44.4079,-4.14204
728,155,44.3849,4.74286,0.00189787,0.000813588,-0.00102258,0.00251314,0.000198323,-0.541653,0.00161339,0.0182767,1952,869,44.3849,-4.74283
735,155,44.4015,5.29272,0.00360468,0.00171876,-0.000724737,0.00385102,0.00147243,-0.327642,0.00224381,0.0156976,1959,869,44.4015,-5.29274
742,155,44.4048,5.84894,0.0057113,0.00276427,-0.000318133,0.00574526,0.00273032,-0.106318,0.00331838,0.0175658,1966,869,44.4048,-5.84895
749,155,44.3314,6.38135,0.0080325,0.00367398,8.80342e-05,0.00803428,0.00367221,0.0201872,0.00464429,0.0167337,1973,869,44.3315,-6.38135
756,155,44.2344,6.9765,0.0105943,0.00441282,0.000478956,0.0106311,0.00437593,0.0768714,0.00616978,0.0287035,1980,869,44.2344,-6.97652
763,155,44.1713,7.59833,0.0134658,0.00450881,0.000657706,0.0135139,0.00446077,0.072908,0.00795097,0.0481013,1987,869,44.1712,-7.59833
770,155,44.0968,8.21075,0,0,0,0,0,0,0,-1,1994,869,44.0969,-8.21074
777,155,43.5001,9.6864,0,0,0,0,0,0,0,-1,2001,869,43.5001,-9.68637
784,155,43.5391,10.9663,0,0,0,0,0,0,0,-1,2008,869,43.5391,-10.9663
791,155,0,0,0,0,0,0,0,0,0,-1,2015,869,0,0
798,155,0,0,0,0,0,0,0,0,0,-1,2022,869,0,0
805,155,0,0,0,0,0,0,0,0,0,-1,2029,869,0,0
812,155,0,0,0,0,0,0,0,0,0,-1,2036,869,0,0
-700,148,0,0,0,0,0,0,0,0,0,-1,524,876,0,0
-693,148,0,0,0,0,0,0,0,0,0,-1,531,876,0,0
-686,148,0,0,0,0,0,0,0,0,0,-1,538,876,0,0
-679,148,0,0,0,0,0,0,0,0,0,-1,545,876,0,0
-672,148,-41.2773,-3.02728,-0.0298571,-0.136555,-0.0137011,-0.0281258,-0.138286,-0.125693,0.0843926,0.0462376,552,876,-41.2772,3.02726
-665,148,-41.7772,-2.84216,-0.0229527,-0.119901,-0.0125481,-0.0213549,-0.121499,-0.126651,0.0749025,0.0474429,559,876,-41.7772,2.84217
-658,148,-41.863,-2.61908,-0.0182533,-0.102061,-0.0110032,-0.0168327,-0.103481,-0.128393,0.0641173,0.0464768,566,876,-41.8631,2.61905
-651,148,-41.9106,-2.24036,-0.0145875,-0.0846347,-0.0093324,-0.0133655,-0.0858568,-0.130205,0.0533438,0.0451106,573,876,-41.9106,2.24034
-644,148,-42.1388,-1.68457,0,0,0,0,0,0,0,-1,580,876,-42.1388,1.68456
-637,148,-34.0625,1.75256,0,0,0,0,0,0,0,-1,587,876,-34.0625,-1.75256
-630,148,-32.8117,4.30426,0,0,0,0,0,0,0,-1,594,876,-32.8117,-4.30425
-623,148,-32.7563,4.40924,-0.00593321,-0.0245412,-0.00212197,-0.0056943,-0.0247801,-0.112118,0.014987,0.0261295,601,876,-32.7563,-4.40924
-616,148,-32.8812,3.75781,-0.00400635,-0.0132432,-0.000906272,-0.00391827,-0.0133313,-0.0968837,0.00791175,0.0135945,608,876,-32.8812,-3.75779
-609,148,-32.9729,3.15839,-0.00228936,-0.00429287,0.000811761,-0.00200175,-0.00458048,0.340507,0.00265153,0.0129781,615,876,-32.9729,-3.15839
-602,148,-33.0219,2.62225,-0.00139211,0.00080779,0.00176806,0.00179013,-0.00237445,1.06366,0.0024123,0.0140213,622,876,-33.0218,-2.62225
-595,148,-33.0432,2.10504,-0.000235175,0.00144094,0.00209172,0.00285624,-0.00165048,0.975934,0.00263282,0.0126107,629,876,-33.0431,-2.10506
-588,148,-33.0672,1.5069,0.000810958,0.000639126,0.00193971,0.00266666,-0.00121657,0.763266,0.0022935,0.0246974,636,876,-33.0672,-1.50691
-581,148,-33.233,1.14325,0.00146204,0.000580651,0.00181038,0.00288459,-0.0008419,0.666007,0.00225666,0.0417719,643,876,-33.2331,-1.14325
-574,148,-32.9212,0.784363,0.00192685,0.000560722,0.00167333,0.00305116,-0.000563591,0.591618,0.00224567,0.0475157,650,876,-32.9212,-0.78438
-567,148,-33.1243,0.217834,0,0,0,0,0,0,0,-1,657,876,-33.1243,-0.217865
-560,148,-33.3057,-0.582031,0,0,0,0,0,0,0,-1,664,876,-33.3057,0.58201
-553,148,-18.3896,-0.00280762,0,0,0,0,0,0,0,-1,671,876,-18.3897,0.00278524
-546,148,-39.9573,0.670776,0,0,0,0,0,0,0,-1,678,876,-39.9573,-0.670771
-539,148,-39.9409,0.642334,0.00239189,0.000612441,-8.02923e-05,0.00239551,0.000608826,-0.045,0.0014377,0.039636,685,876,-39.9408,-0.642352
-532,148,-39.937,0.69574,0.00209918,0.000777592,-0.000689767,0.0023936,0.000483176,-0.403423,0.00146154,0.0364042,692,876,-39.937,-0.695761
-525,148,-39.8346,0.910278,0.00149677,0.000702708,-0.00120698,0.00237034,-0.000170864,-0.6265,0.00164015,0.0393795,699,876,-39.8346,-0.910249
-518,148,-39.8498,0.755066,0.000642064,0.000345784,-0.00143992,0.00194145,-0.000953598,-0.734138,0.00170358,0.0446015,706,876,-39.8498,-0.755041
-511,148,-39.7128,0.590271,0.00114384,-0.000659862,-0.00143014,0.00193274,-0.00144876,-0.504089,0.00195896,0.0435727,713,876,-39.7127,-0.59025
-504,148,-39.5431,0.554749,0,0,0,0,0,0,0,-1,720,876,-39.5431,-0.554757
-497,148,0,0,0,0,0,0,0,0,0,-1,727,876,0,0
-490,148,0,0,0,0,0,0,0,0,0,-1,734,876,0,0
-483,148,0,0,0,0,0,0,0,0,0,-1,741,876,0,0
-476,148,0,0,0,0,0,0,0,0,0,-1,748,876,0,0
-469,148,0,0,0,0,0,0,0,0,0,-1,755,876,0,0
-462,148,0,0,0,0,0,0,0,0,0,-1,762,876,0,0
-455,148,0,0,0,0,0,0,0,0,0,-1,769,876,0,0
-448,148,0,0,0,0,0,0,0,0,0,-1,776,876,0,0
-441,148,0,0,0,0,0,0,0,0,0,-1,783,876,0,0
-434,148,0,0,0,0,0,0,0,0,0,-1,790,876,0,0
-427,148,0,0,0,0,0,0,0,0,0,-1,797,876,0,0
-420,148,0,0,0,0,0,0,0,0,0,-1,804,876,0,0
-413,148,0,0,0,0,0,0,0,0,0,-1,811,876,0,0
-406,148,0,0,0,0,0,0,0,0,0,-1,818,876,0,0
-399,148,0,0,0,0,0,0,0,0,0,-1,825,876,0,0
-392,148,0,0,0,0,0,0,0,0,0,-1,832,876,0,0
-385,148,0,0,0,0,0,0,0,0,0,-1,839,876,0,0
-378,148,0,0,0,0,0,0,0,0,0,-1,846,876,0,0
-371,148,0,0,0,0,0,0,0,0,0,-1,853,876,0,0
-364,148,0,0,0,0,0,0,0,0,0,-1,860,876,0,0
-357,148,0,0,0,0,0,0,0,0,0,-1,867,876,0,0
-350,148,0,0,0,0,0,0,0,0,0,-1,874,876,0,0
-343,148,0,0,0,0,0,0,0,0,0,-1,881,876,0,0
-336,148,0,0,0,0,0,0,0,0,0,-1,888,876,0,0
-329,148,0,0,0,0,0,0,0,0,0,-1,895,876,0,0
-322,148,0,0,0,0,0,0,0,0,0,-1,902,876,0,0
-315,148,0,0,0,0,0,0,0,0,0,-1,909,876,0,0
-308,148,0,0,0,0,0,0,0,0,0,-1,916,876,0,0
-301,148,0,0,0,0,0,0,0,0,0,-1,923,876,0,0
-294,148,0,0,0,0,0,0,0,0,0,-1,930,876,0,0
-287,148,0,0,0,0,0,0,0,0,0,-1,937,876,0,0
-280,148,0,0,0,0,0,0,0,0,0,-1,944,876,0,0
-273,148,0,0,0,0,0,0,0,0,0,-1,951,876,0,0
-266,148,0,0,0,0,0,0,0,0,0,-1,958,876,0,0
-259,148,0,0,0,0,0,0,0,0,0,-1,965,876,0,0
-252,148,0,0,0,0,0,0,0,0,0,-1,972,876,0,0
-245,148,0,0,0,0,0,0,0,0,0,-1,979,876,0,0
-238,148,0,0,0,0,0,0,0,0,0,-1,986,876,0,0
-231,148,0,0,0,0,0,0,0,0,0,-1,993,876,0,0
-224,148,0,0,0,0,0,0,0,0,0,-1,1000,876,0,0
-217,148,0,0,0,0,0,0,0,0,0,-1,1007,876,0,0
-210,148,0,0,0,0,0,0,0,0,0,-1,1014,876,0,0
-203,148,0,0,0,0,0,0,0,0,0,-1,1021,876,0,0
-196,148,0,0,0,0,0,0,0,0,0,-1,1028,876,0,0
-189,148,0,0,0,0,0,0,0,0,0,-1,1035,876,0,0
-182,148,0,0,0,0,0,0,0,0,0,-1,1042,876,0,0
-175,148,0,0,0,0,0,0,0,0,0,-1,1049,876,0,0
-168,148,0,0,0,0,0,0,0,0,0,-1,1056,876,0,0
-161,148,0,0,0,0,0,0,0,0,0,-1,1063,876,0,0
-154,148,0,0,0,0,0,0,0,0,0,-1,1070,876,0,0
-147,148,0,0,0,0,0,0,0,0,0,-1,1077,876,0,0
-140,148,0,0,0,0,0,0,0,0,0,-1,1084,876,0,0
-133,148,0,0,0,0,0,0,0,0,0,-1,1091,876,0,0
-126,148,0,0,0,0,0,0,0,0,0,-1,1098,876,0,0
-119,148,0,0,0,0,0,0,0,0,0,-1,1105,876,0,0
-112,148,0,0,0,0,0,0,0,0,0,-1,1112,876,0,0
-105,148,0,0,0,0,0,0,0,0,0,-1,1119,876,0,0
-98,148,0,0,0,0,0,0,0,0,0,-1,1126,876,0,0
-91,148,0,0,0,0,0,0,0,0,0,-1,1133,876,0,0
-84,148,0,0,0,0,0,0,0,0,0,-1,1140,876,0,0
-77,148,0,0,0,0,0,0,0,0,0,-1,1147,876,0,0
-70,148,0,0,0,0,0,0,0,0,0,-1,1154,876,0,0
-63,148,0,0,0,0,0,0,0,0,0,-1,1161,876,0,0
-56,148,0,0,0,0,0,0,0,0,0,-1,1168,876,0,0
-49,148,0,0,0,0,0,0,0,0,0,-1,1175,876,0,0
-42,148,0,0,0,0,0,0,0,0,0,-1,1182,876,0,0
-35,148,0,0,0,0,0,0,0,0,0,-1,1189,876,0,0
-28,148,0,0,0,0,0,0,0,0,0,-1,1196,876,0,0
-21,148,0,0,0,0,0,0,0,0,0,-1,1203,876,0,0
-14,148,0,0,0,0,0,0,0,0,0,-1,1210,876,0,0
-7,148,0,0,0,0,0,0,0,0,0,-1,1217,876,0,0
0,148,0,0,0,0,0,0,0,0,0,-1,1224,876,0,0
7,148,0,0,0,0,0,0,0,0,0,-1,1231,876,0,0
14,148,0,0,0,0,0,0,0,0,0,-1,1238,876,0,0
21,148,0,0,0,0,0,0,0,0,0,-1,1245,876,0,0
28,148,0,0,0,0,0,0,0,0,0,-1,1252,876,0,0
35,148,0,0,0,0,0,0,0,0,0,-1,1259,876,0,0
42,148,0,0,0,0,0,0,0,0,0,-1,1266,876,0,0
49,148,0,0,0,0,0,0,0,0,0,-1,1273,876,0,0
56,148,0,0,0,0,0,0,0,0,0,-1,1280,876,0,0
63,148,0,0,0,0,0,0,0,0,0,-1,1287,876,0,0
70,148,0,0,0,0,0,0,0,0,0,-1,1294,876,0,0
77,148,0,0,0,0,0,0,0,0,0,-1,1301,876,0,0
84,148,0,0,0,0,0,0,0,0,0,-1,1308,876,0,0
91,148,0,0,0,0,0,0,0,0,0,-1,1315,876,0,0
98,148,0,0,0,0,0,0,0,0,0,-1,1322,876,0,0
105,148,0,0,0,0,0,0,0,0,0,-1,1329,876,0,0
112,148,0,0,0,0,0,0,0,0,0,-1,1336,876,0,0
119,148,0,0,0,0,0,0,0,0,0,-1,1343,876,0,0
126,148,0,0,0,0,0,0,0,0,0,-1,1350,876,0,0
133,148,0,0,0,0,0,0,0,0,0,-1,1357,876,0,0
140,148,0,0,0,0,0,0,0,0,0,-1,1364,876,0,0
147,148,0,0,0,0,0,0,0,0,0,-1,1371,876,0,0
154,148,0,0,0,0,0,0,0,0,0,-1,1378,876,0,0
161,148,0,0,0,0,0,0,0,0,0,-1,1385,876,0,0
168,148,0,0,0,0,0,0,0,0,0,-1,1392,876,0,0
175,148,0,0,0,0,0,0,0,0,0,-1,1399,876,0,0
182,148,0,0,0,0,0,0,0,0,0,-1,1406,876,0,0
189,148,0,0,0,0,0,0,0,0,0,-1,1413,876,0,0
196,148,0,0,0,0,0,0,0,0,0,-1,1420,876,0,0
203,148,0,0,0,0,0,0,0,0,0,-1,1427,876,0,0
210,148,0,0,0,0,0,0,0,0,0,-1,1434,876,0,0
217,148,0,0,0,0,0,0,0,0,0,-1,1441,876,0,0
224,148,0,0,0,0,0,0,0,0,0,-1,1448,876,0,0
231,148,0,0,0,0,0,0,0,0,0,-1,1455,876,0,0
238,148,0,0,0,0,0,0,0,0,0,-1,1462,876,0,0
245,148,0,0,0,0,0,0,0,0,0,-1,1469,876,0,0
252,148,0,0,0,0,0,0,0,0,0,-1,1476,876,0,0
259,148,0,0,0,0,0,0,0,0,0,-1,1483,876,0,0
266,148,0,0,0,0,0,0,0,0,0,-1,1490,876,0,0
273,148,0,0,0,0,0,0,0,0,0,-1,1497,876,0,0
280,148,0,0,0,0,0,0,0,0,0,-1,1504,876,0,0
287,148,0,0,0,0,0,0,0,0,0,-1,1511,876,0,0
294,148,0,0,0,0,0,0,0,0,0,-1,1518,876,0,0
301,148,0,0,0,0,0,0,0,0,0,-1,1525,876,0,0
308,148,0,0,0,0,0,0,0,0,0,-1,1532,876,0,0
315,148,0,0,0,0,0,0,0,0,0,-1,1539,876,0,0
322,148,0,0,0,0,0,0,0,0,0,-1,1546,876,0,0
329,148,0,0,0,0,0,0,0,0,0,-1,1553,876,0,0
336,148,0,0,0,0,0,0,0,0,0,-1,1560,876,0,0
343,148,0,0,0,0,0,0,0,0,0,-1,1567,876,0,0
350,148,0,0,0,0,0,0,0,0,0,-1,1574,876,0,0
357,148,0,0,0,0,0,0,0,0,0,-1,1581,876,0,0
364,148,0,0,0,0,0,0,0,0,0,-1,1588,876,0,0
371,148,0,0,0,0,0,0,0,0,0,-1,1595,876,0,0
378,148,0,0,0,0,0,0,0,0,0,-1,1602,876,0,0
385,148,0,0,0,0,0,0,0,0,0,-1,1609,876,0,0
392,148,0,0,0,0,0,0,0,0,0,-1,1616,876,0,0
399,148,0,0,0,0,0,0,0,0,0,-1,1623,876,0,0
406,148,0,0,0,0,0,0,0,0,0,-1,1630,876,0,0
413,148,0,0,0,0,0,0,0,0,0,-1,1637,876,0,0
420,148,0,0,0,0,0,0,0,0,0,-1,1644,876,0,0
427,148,0,0,0,0,0,0,0,0,0,-1,1651,876,0,0
434,148,0,0,0,0,0,0,0,0,0,-1,1658,876,0,0
441,148,0,0,0,0,0,0,0,0,0,-1,1665,876,0,0
448,148,0,0,0,0,0,0,0,0,0,-1,1672,876,0,0
455,148,0,0,0,0,0,0,0,0,0,-1,1679,876,0,0
462,148,0,0,0,0,0,0,0,0,0,-1,1686,876,0,0
469,148,0,0,0,0,0,0,0,0,0,-1,1693,876,0,0
476,148,0,0,0,0,0,0,0,0,0,-1,1700,876,0,0
483,148,0,0,0,0,0,0,0,0,0,-1,1707,876,0,0
490,148,0,0,0,0,0,0,0,0,0,-1,1714,876,0,0
497,148,0,0,0,0,0,0,0,0,0,-1,1721,876,0,0
504,148,0,0,0,0,0,0,0,0,0,-1,1728,876,0,0
511,148,0,0,0,0,0,0,0,0,0,-1,1735,876,0,0
518,148,0,0,0,0,0,0,0,0,0,-1,1742,876,0,0
525,148,0,0,0,0,0,0,0,0,0,-1,1749,876,0,0
532,148,0,0,0,0,0,0,0,0,0,-1,1756,876,0,0
539,148,0,0,0,0,0,0,0,0,0,-1,1763,876,0,0
546,148,0,0,0,0,0,0,0,0,0,-1,1770,876,0,0
553,148,0,0,0,0,0,0,0,0,0,-1,1777,876,0,0
560,148,0,0,0,0,0,0,0,0,0,-1,1784,876,0,0
567,148,0,0,0,0,0,0,0,0,0,-1,1791,876,0,0
574,148,0,0,0,0,0,0,0,0,0,-1,1798,876,0,0
581,148,0,0,0,0,0,0,0,0,0,-1,1805,876,0,0
588,148,0,0,0,0,0,0,0,0,0,-1,1812,876,0,0
595,148,0,0,0,0,0,0,0,0,0,-1,1819,876,0,0
602,148,0,0,0,0,0,0,0,0,0,-1,1826,876,0,0
609,148,0,0,0,0,0,0,0,0,0,-1,1833,876,0,0
616,148,0,0,0,0,0,0,0,0,0,-1,1840,876,0,0
623,148,53.0653,2.96722,0.0107574,-0.00702802,-0.00656838,0.0129202,-0.00919081,-0.318091,0.0128262,0.0433441,1847,876,53.0653,-2.96722
630,148,53.043,2.92456,0.00762924,-0.00530585,-0.00509633,0.00939588,-0.00707248,-0.333686,0.0095395,0.0442781,1854,876,53.043,-2.92458
637,148,53.1486,2.80939,0.00477811,-0.00361166,-0.00370165,0.0061778,-0.00501135,-0.361508,0.00647175,0.0388899,1861,876,53.1486,-2.80938
644,148,53.1655,2.67578,0.00246297,-0.0023784,-0.00267896,0.0036529,-0.00356833,-0.418,0.00416927,0.0346334,1868,876,53.1655,-2.67579
651,148,53.1353,2.57489,0.000905597,-0.00162531,-0.00206315,0.00206047,-0.00278018,-0.510306,0.00280503,0.0364689,1875,876,53.1353,-2.57486
658,148,53.1022,2.63556,6.23986e-05,-0.00145244,-0.00186154,0.00131471,-0.00270475,-0.592188,0.00236644,0.0319769,1882,876,53.1021,-2.63555
665,148,53.0632,2.72412,-0.000453348,-0.00132016,-0.00176751,0.000933116,-0.00270663,-0.665166,0.00218298,0.0234967,1889,876,53.0632,-2.72413
672,148,53.135,2.61212,-0.000879855,-0.00120711,-0.00160922,0.000574034,-0.00266099,-0.734732,0.00199309,0.0308612,1896,876,53.135,-2.61209
679,148,53.1951,2.47601,0,0,0,0,0,0,0,-1,1903,876,53.1951,-2.47602
686,148,21.6195,2.40845,0,0,0,0,0,0,0,-1,1910,876,21.6196,-2.40846
693,148,44.7784,1.91736,0,0,0,0,0,0,0,-1,1917,876,44.7785,-1.91736
700,148,45.3373,2.62982,-0.000999325,-0.000813807,-0.00135212,0.000448735,-0.00226187,-0.819646,0.00167762,0.0410354,1924,876,45.3373,-2.62984
707,148,45.42,3.33386,-0.000173582,-0.000698757,-0.00128764,0.000877973,-0.00175031,-0.684813,0.00154505,0.0308584,1931,876,45.42,-3.33389
714,148,45.2855,3.71014,0.000267078,-0.000339509,-0.00124509,0.00124528,-0.00131771,-0.665929,0.00147994,0.0309487,1938,876,45.2855,-3.71016
721,148,44.9727,4.18542,0.000703814,0.000175372,-0.0011867,0.00165535,-0.000776168,-0.675859,0.0014341,0.0230847,1945,876,44.9726,-4.18541
728,148,44.9666,4.7326,0.00140558,0.00110411,-0.00107339,0.00233877,0.000170922,-0.715639,0.00150544,0.0196415,1952,876,44.9666,-4.7326
735,148,45.0039,5.30731,0.00259489,0.00224878,-0.000925653,0.00336352,0.00148014,-0.692988,0.00194658,0.0191227,1959,876,45.0039,-5.3073
742,148,44.973,5.87524,0.00413752,0.00371506,-0.00066664,0.00462559,0.00322699,-0.631974,0.00273925,0.021052,1966,876,44.973,-5.87525
749,148,44.8741,6.39221,0.00585392,0.00522118,-0.00036399,0.00601981,0.00505528,-0.427638,0.00373346,0.0208652,1973,876,44.8742,-6.3922
756,148,44.7889,6.97638,0.00768978,0.00674517,-6.64055e-05,0.00769442,0.00674053,-0.0698421,0.00484307,0.025238,1980,876,44.789,-6.97635
763,148,44.7198,7.45258,0.00977198,0.00797142,0.000100517,0.00977758,0.00796583,0.0555949,0.00600625,0.043755,1987,876,44.7198,-7.45259
770,148,44.6498,7.9278,0,0,0,0,0,0,0,-1,1994,876,44.6497,-7.92781
777,148,44.2043,9.88892,0,0,0,0,0,0,0,-1,2001,876,44.2043,-9.88889
784,148,43.7417,11.8786,0,0,0,0,0,0,0,-1,2008,876,43.7417,-11.8786
791,148,42.936,11.5876,0,0,0,0,0,0,0,-1,2015,876,42.936,-11.5876
798,148,0,0,0,0,0,0,0,0,0,-1,2022,876,0,0
805,148,0,0,0,0,0,0,0,0,0,-1,2029,876,0,0
812,148,0,0,0,0,0,0,0,0,0,-1,2036,876,0,0
-700,141,0,0,0,0,0,0,0,0,0,-1,524,883,0,0
-693,141,0,0,0,0,0,0,0,0,0,-1,531,883,0,0
-686,141,0,0,0,0,0,0,0,0,0,-1,538,883,0,0
-679,141,0,0,0,0,0,0,0,0,0,-1,545,883,0,0
-672,141,-41.1448,-2.59656,-0.0223302,-0.1303,-0.0137223,-0.0206135,-0.132017,-0.124458,0.0820082,0.0466365,552,883,-41.1448,2.59654
-665,141,-41.4949,-2.17645,-0.0189875,-0.112847,-0.0120373,-0.0174683,-0.114366,-0.125542,0.0711399,0.0457576,559,883,-41.4949,2.17644
-658,141,-41.4716,-1.55719,-0.0161953,-0.0950313,-0.0101665,-0.0149054,-0.0963212,-0.126207,0.0598674,0.0470061,566,883,-41.4716,1.55717
-651,141,-41.4096,-1.10236,0,0,0,0,0,0,0,-1,573,883,-41.4096,1.10233
-644,141,-33.9797,4.16364,0,0,0,0,0,0,0,-1,580,883,-33.9797,-4.16365
-637,141,-34.0081,5.54474,0,0,0,0,0,0,0,-1,587,883,-34.0081,-5.54473
-630,141,-33.7008,5.06653,0,0,0,0,0,0,0,-1,594,883,-33.7008,-5.0665
-623,141,-33.2475,4.34619,-0.00640724,-0.0217579,-0.00154244,-0.00625378,-0.0219114,-0.0991595,0.0130331,0.0300656,601,883,-33.2475,-4.34619
-616,141,-33.4481,3.70721,-0.00456011,-0.0112739,-0.00047331,-0.00452691,-0.0113071,-0.0700365,0.00657122,0.0134527,608,883,-33.448,-3.70724
-609,141,-33.5399,3.16962,-0.00287287,-0.00328122,0.00112747,-0.00193124,-0.00422285,0.695823,0.00244102,0.0141342,615,883,-33.5399,-3.16963
-602,141,-33.5593,2.65454,-0.00205969,0.000858551,0.00189771,0.00179324,-0.00299439,1.11314,0.00279299,0.0145026,622,883,-33.5593,-2.65453
-595,141,-33.5438,2.10309,-0.0011508,0.00103471,0.00200421,0.00222471,-0.0023408,1.03498,0.00263618,0.0146787,629,883,-33.5438,-2.10307
-588,141,-33.8724,1.56622,-0.000404498,0.000161279,0.00168372,0.00158571,-0.00182893,0.868628,0.00197311,0.0297068,636,883,-33.8724,-1.5662
-581,141,-33.8035,1.09076,8.42848e-05,4.72622e-05,0.00146708,0.00153297,-0.00140142,0.77909,0.00169474,0.0397981,643,883,-33.8034,-1.09074
-574,141,-33.0594,0.82019,0,0,0,0,0,0,0,-1,650,883,-33.0594,-0.820205
-567,141,-30.5335,0.480103,0,0,0,0,0,0,0,-1,657,883,-30.5335,-0.480081
-560,141,-30.5542,0.23175,0,0,0,0,0,0,0,-1,664,883,-30.5542,-0.231742
-553,141,-32.0876,1.39459,0,0,0,0,0,0,0,-1,671,883,-32.0876,-1.3946
-546,141,-39.8482,0.778137,0,0,0,0,0,0,0,-1,678,883,-39.8482,-0.778156
-539,141,-39.889,0.712891,0.00220674,5.43015e-05,-0.000201107,0.00222537,3.56729e-05,-0.0923666,0.00147183,0.0292264,685,883,-39.889,-0.712863
-532,141,-39.9109,0.703308,0.00225269,0.000343727,-0.000715734,0.00249123,0.000105182,-0.321708,0.00162689,0.0301945,692,883,-39.9109,-0.703311
-525,141,-39.8105,0.78772,0.00204776,0.000362475,-0.00104697,0.00254906,-0.000138825,-0.446554,0.00174749,0.0389466,699,883,-39.8105,-0.787699
-518,141,-39.7615,0.835327,0.0017857,5.59293e-05,-0.00109331,0.00231485,-0.000473228,-0.450763,0.00172278,0.0428638,706,883,-39.7615,-0.835335
-511,141,-39.886,0.912659,0.00288548,-0.000713366,-0.000837375,0.00307078,-0.000898664,-0.217776,0.00240341,0.0398547,713,883,-39.886,-0.91263
-504,141,-40.019,1.07288,0,0,0,0,0,0,0,-1,720,883,-40.019,-1.07285
-497,141,0,0,0,0,0,0,0,0,0,-1,727,883,0,0
-490,141,0,0,0,0,0,0,0,0,0,-1,734,883,0,0
-483,141,0,0,0,0,0,0,0,0,0,-1,741,883,0,0
-476,141,0,0,0,0,0,0,0,0,0,-1,748,883,0,0
-469,141,0,0,0,0,0,0,0,0,0,-1,755,883,0,0
-462,141,0,0,0,0,0,0,0,0,0,-1,762,883,0,0
-455,141,0,0,0,0,0,0,0,0,0,-1,769,883,0,0
-448,141,0,0,0,0,0,0,0,0,0,-1,776,883,0,0
-441,141,0,0,0,0,0,0,0,0,0,-1,783,883,0,0
-434,141,0,0,0,0,0,0,0,0,0,-1,790,883,0,0
-427,141,0,0,0,0,0,0,0,0,0,-1,797,883,0,0
-420,141,0,0,0,0,0,0,0,0,0,-1,804,883,0,0
-413,141,0,0,0,0,0,0,0,0,0,-1,811,883,0,0
-406,141,0,0,0,0,0,0,0,0,0,-1,818,883,0,0
-399,141,0,0,0,0,0,0,0,0,0,-1,825,883,0,0
-392,141,0,0,0,0,0,0,0,0,0,-1,832,883,0,0
-385,141,0,0,0,0,0,0,0,0,0,-1,839,883,0,0
-378,141,0,0,0,0,0,0,0,0,0,-1,846,883,0,0
-371,141,0,0,0,0,0,0,0,0,0,-1,853,883,0,0
-364,141,0,0,0,0,0,0,0,0,0,-1,860,883,0,0
-357,141,0,0,0,0,0,0,0,0,0,-1,867,883,0,0
-350,141,0,0,0,0,0,0,0,0,0,-1,874,883,0,0
-343,141,0,0,0,0,0,0,0,0,0,-1,881,883,0,0
-336,141,0,0,0,0,0,0,0,0,0,-1,888,883,0,0
-329,141,0,0,0,0,0,0,0,0,0,-1,895,883,0,0
-322,141,0,0,0,0,0,0,0,0,0,-1,902,883,0,0
-315,141,0,0,0,0,0,0,0,0,0,-1,909,883,0,0
-308,141,0,0,0,0,0,0,0,0,0,-1,916,883,0,0
-301,141,0,0,0,0,0,0,0,0,0,-1,923,883,0,0
-294,141,0,0,0,0,0,0,0,0,0,-1,930,883,0,0
-287,141,0,0,0,0,0,0,0,0,0,-1,937,883,0,0
-280,141,0,0,0,0,0,0,0,0,0,-1,944,883,0,0
-273,141,0,0,0,0,0,0,0,0,0,-1,951,883,0,0
-266,141,0,0,0,0,0,0,0,0,0,-1,958,883,0,0
-259,141,0,0,0,0,0,0,0,0,0,-1,965,883,0,0
-252,141,0,0,0,0,0,0,0,0,0,-1,972,883,0,0
-245,141,0,0,0,0,0,0,0,0,0,-1,979,883,0,0
-238,141,0,0,0,0,0,0,0,0,0,-1,986,883,0,0
-231,141,0,0,0,0,0,0,0,0,0,-1,993,883,0,0
-224,141,0,0,0,0,0,0,0,0,0,-1,1000,883,0,0
-217,141,0,0,0,0,0,0,0,0,0,-1,1007,883,0,0
-210,141,0,0,0,0,0,0,0,0,0,-1,1014,883,0,0
-203,141,0,0,0,0,0,0,0,0,0,-1,1021,883,0,0
-196,141,0,0,0,0,0,0,0,0,0,-1,1028,883,0,0
-189,141,0,0,0,0,0,0,0,0,0,-1,1035,883,0,0
-182,141,0,0,0,0,0,0,0,0,0,-1,1042,883,0,0
-175,141,0,0,0,0,0,0,0,0,0,-1,1049,883,0,0
-168,141,0,0,0,0,0,0,0,0,0,-1,1056,883,0,0
-161,141,0,0,0,0,0,0,0,0,0,-1,1063,883,0,0
-154,141,0,0,0,0,0,0,0,0,0,-1,1070,883,0,0
-147,141,0,0,0,0,0,0,0,0,0,-1,1077,883,0,0
-140,141,0,0,0,0,0,0,0,0,0,-1,1084,883,0,0
-133,141,0,0,0,0,0,0,0,0,0,-1,1091,883,0,0
-126,141,0,0,0,0,0,0,0,0,0,-1,1098,883,0,0
-119,141,0,0,0,0,0,0,0,0,0,-1,1105,883,0,0
-112,141,0,0,0,0,0,0,0,0,0,-1,1112,883,0,0
-105,141,0,0,0,0,0,0,0,0,0,-1,1119,883,0,0
-98,141,0,0,0,0,0,0,0,0,0,-1,1126,883,0,0
-91,141,0,0,0,0,0,0,0,0,0,-1,1133,883,0,0
-84,141,0,0,0,0,0,0,0,0,0,-1,1140,883,0,0
-77,141,0,0,0,0,0,0,0,0,0,-1,1147,883,0,0
-70,141,0,0,0,0,0,0,0,0,0,-1,1154,883,0,0
-63,141,0,0,0,0,0,0,0,0,0,-1,1161,883,0,0
-56,141,0,0,0,0,0,0,0,0,0,-1,1168,883,0,0
-49,141,0,0,0,0,0,0,0,0,0,-1,1175,883,0,0
-42,141,0,0,0,0,0,0,0,0,0,-1,1182,883,0,0
-35,141,0,0,0,0,0,0,0,0,0,-1,1189,883,0,0
-28,141,0,0,0,0,0,0,0,0,0,-1,1196,883,0,0
-21,141,0,0,0,0,0,0,0,0,0,-1,1203,883,0,0
-14,141,0,0,0,0,0,0,0,0,0,-1,1210,883,0,0
-7,141,0,0,0,0,0,0,0,0,0,-1,1217,883,0,0
0,141,0,0,0,0,0,0,0,0,0,-1,1224,883,0,0
7,141,0,0,0,0,0,0,0,0,0,-1,1231,883,0,0
14,141,0,0,0,0,0,0,0,0,0,-1,1238,883,0,0
21,141,0,0,0,0,0,0,0,0,0,-1,1245,883,0,0
28,141,0,0,0,0,0,0,0,0,0,-1,1252,883,0,0
35,141,0,0,0,0,0,0,0,0,0,-1,1259,883,0,0
42,141,0,0,0,0,0,0,0,0,0,-1,1266,883,0,0
49,141,0,0,0,0,0,0,0,0,0,-1,1273,883,0,0
56,141,0,0,0,0,0,0,0,0,0,-1,1280,883,0,0
63,141,0,0,0,0,0,0,0,0,0,-1,1287,883,0,0
70,141,0,0,0,0,0,0,0,0,0,-1,1294,883,0,0
77,141,0,0,0,0,0,0,0,0,0,-1,1301,883,0,0
84,141,0,0,0,0,0,0,0,0,0,-1,1308,883,0,0
91,141,0,0,0,0,0,0,0,0,0,-1,1315,883,0,0
98,141,0,0,0,0,0,0,0,0,0,-1,1322,883,0,0
105,141,0,0,0,0,0,0,0,0,0,-1,1329,883,0,0
112,141,0,0,0,0,0,0,0,0,0,-1,1336,883,0,0
119,141,0,0,0,0,0,0,0,0,0,-1,1343,883,0,0
126,141,0,0,0,0,0,0,0,0,0,-1,1350,883,0,0
133,141,0,0,0,0,0,0,0,0,0,-1,1357,883,0,0
140,141,0,0,0,0,0,0,0,0,0,-1,1364,883,0,0
147,141,0,0,0,0,0,0,0,0,0,-1,1371,883,0,0
154,141,0,0,0,0,0,0,0,0,0,-1,1378,883,0,0
161,141,0,0,0,0,0,0,0,0,0,-1,1385,883,0,0
168,141,0,0,0,0,0,0,0,0,0,-1,1392,883,0,0
175,141,0,0,0,0,0,0,0,0,0,-1,1399,883,0,0
182,141,0,0,0,0,0,0,0,0,0,-1,1406,883,0,0
189,141,0,0,0,0,0,0,0,0,0,-1,1413,883,0,0
196,141,0,0,0,0,0,0,0,0,0,-1,1420,883,0,0
203,141,0,0,0,0,0,0,0,0,0,-1,1427,883,0,0
210,141,0,0,0,0,0,0,0,0,0,-1,1434,883,0,0
217,141,0,0,0,0,0,0,0,0,0,-1,1441,883,0,0
224,141,0,0,0,0,0,0,0,0,0,-1,1448,883,0,0
231,141,0,0,0,0,0,0,0,0,0,-1,1455,883,0,0
238,141,0,0,0,0,0,0,0,0,0,-1,1462,883,0,0
245,141,0,0,0,0,0,0,0,0,0,-1,1469,883,0,0
252,141,0,0,0,0,0,0,0,0,0,-1,1476,883,0,0
259,141,0,0,0,0,0,0,0,0,0,-1,1483,883,0,0
266,141,0,0,0,0,0,0,0,0,0,-1,1490,883,0,0
273,141,0,0,0,0,0,0,0,0,0,-1,1497,883,0,0
280,141,0,0,0,0,0,0,0,0,0,-1,1504,883,0,0
287,141,0,0,0,0,0,0,0,0,0,-1,1511,883,0,0
294,141,0,0,0,0,0,0,0,0,0,-1,1518,883,0,0
301,141,0,0,0,0,0,0,0,0,0,-1,1525,883,0,0
308,141,0,0,0,0,0,0,0,0,0,-1,1532,883,0,0
315,141,0,0,0,0,0,0,0,0,0,-1,1539,883,0,0
322,141,0,0,0,0,0,0,0,0,0,-1,1546,883,0,0
329,141,0,0,0,0,0,0,0,0,0,-1,1553,883,0,0
336,141,0,0,0,0,0,0,0,0,0,-1,1560,883,0,0
343,141,0,0,0,0,0,0,0,0,0,-1,1567,883,0,0
350,141,0,0,0,0,0,0,0,0,0,-1,1574,883,0,0
357,141,0,0,0,0,0,0,0,0,0,-1,1581,883,0,0
364,141,0,0,0,0,0,0,0,0,0,-1,1588,883,0,0
371,141,0,0,0,0,0,0,0,0,0,-1,1595,883,0,0
378,141,0,0,0,0,0,0,0,0,0,-1,1602,883,0,0
385,141,0,0,0,0,0,0,0,0,0,-1,1609,883,0,0
392,141,0,0,0,0,0,0,0,0,0,-1,1616,883,0,0
399,141,0,0,0,0,0,0,0,0,0,-1,1623,883,0,0
406,141,0,0,0,0,0,0,0,0,0,-1,1630,883,0,0
413,141,0,0,0,0,0,0,0,0,0,-1,1637,883,0,0
420,141,0,0,0,0,0,0,0,0,0,-1,1644,883,0,0
427,141,0,0,0,0,0,0,0,0,0,-1,1651,883,0,0
434,141,0,0,0,0,0,0,0,0,0,-1,1658,883,0,0
441,141,0,0,0,0,0,0,0,0,0,-1,1665,883,0,0
448,141,0,0,0,0,0,0,0,0,0,-1,1672,883,0,0
455,141,0,0,0,0,0,0,0,0,0,-1,1679,883,0,0
462,141,0,0,0,0,0,0,0,0,0,-1,1686,883,0,0
469,141,0,0,0,0,0,0,0,0,0,-1,1693,883,0,0
476,141,0,0,0,0,0,0,0,0,0,-1,1700,883,0,0
483,141,0,0,0,0,0,0,0,0,0,-1,1707,883,0,0
490,141,0,0,0,0,0,0,0,0,0,-1,1714,883,0,0
497,141,0,0,0,0,0,0,0,0,0,-1,1721,883,0,0
504,141,0,0,0,0,0,0,0,0,0,-1,1728,883,0,0
511,141,0,0,0,0,0,0,0,0,0,-1,1735,883,0,0
518,141,0,0,0,0,0,0,0,0,0,-1,1742,883,0,0
525,141,0,0,0,0,0,0,0,0,0,-1,1749,883,0,0
532,141,0,0,0,0,0,0,0,0,0,-1,1756,883,0,0
539,141,0,0,0,0,0,0,0,0,0,-1,1763,883,0,0
546,141,0,0,0,0,0,0,0,0,0,-1,1770,883,0,0
553,141,0,0,0,0,0,0,0,0,0,-1,1777,883,0,0
560,141,0,0,0,0,0,0,0,0,0,-1,1784,883,0,0
567,141,0,0,0,0,0,0,0,0,0,-1,1791,883,0,0
574,141,0,0,0,0,0,0,0,0,0,-1,1798,883,0,0
581,141,0,0,0,0,0,0,0,0,0,-1,1805,883,0,0
588,141,0,0,0,0,0,0,0,0,0,-1,1812,883,0,0
595,141,0,0,0,0,0,0,0,0,0,-1,1819,883,0,0
602,141,0,0,0,0,0,0,0,0,0,-1,1826,883,0,0
609,141,0,0,0,0,0,0,0,0,0,-1,1833,883,0,0
616,141,0,0,0,0,0,0,0,0,0,-1,1840,883,0,0
623,141,52.8718,3.30939,0.0121988,-0.00568172,-0.00717259,0.0147204,-0.00820331,-0.338064,0.0134121,0.0479869,1847,883,52.8719,-3.30939
630,141,52.8909,3.15375,0.00875418,-0.00426927,-0.00564211,0.0108585,-0.00637357,-0.356985,0.0100606,0.0487664,1854,883,52.8908,-3.15378
637,141,53.1875,2.86804,0.00572905,-0.00289806,-0.00423958,0.0074637,-0.00463271,-0.388375,0.00704733,0.0445377,1861,883,53.1874,-2.86803
644,141,53.2466,2.71167,0.00321997,-0.00187791,-0.0031004,0.00468471,-0.00334265,-0.441352,0.00465614,0.0383205,1868,883,53.2466,-2.71169
651,141,53.311,2.58057,0.00141029,-0.00119364,-0.00228905,0.00274174,-0.00252509,-0.526825,0.00304166,0.0379381,1875,883,53.311,-2.58057
658,141,53.2058,2.56281,0.000393871,-0.00100522,-0.00185796,0.00167962,-0.00229096,-0.60535,0.00230145,0.035275,1882,883,53.2058,-2.56278
665,141,53.0338,2.65955,-0.000159131,-0.000904131,-0.00160706,0.00111804,-0.0021813,-0.671515,0.00193757,0.0276814,1889,883,53.0338,-2.65954
672,141,53.0631,2.70093,-0.000533414,-0.000862194,-0.00137858,0.00069054,-0.00208615,-0.726055,0.00166925,0.0207041,1896,883,53.0632,-2.70094
679,141,53.0261,2.77802,-0.000716357,-0.000756094,-0.00127713,0.000541064,-0.00201351,-0.77762,0.00155441,0.0405299,1903,883,53.0261,-2.77804
686,141,52.9462,2.82385,0,0,0,0,0,0,0,-1,1910,883,52.9462,-2.82383
693,141,45.2555,1.76489,0,0,0,0,0,0,0,-1,1917,883,45.2555,-1.76488
700,141,45.7871,2.58704,0,0,0,0,0,0,0,-1,1924,883,45.7871,-2.58707
707,141,45.9011,3.24872,0,0,0,0,0,0,0,-1,1931,883,45.9012,-3.24872
714,141,45.535,3.69849,0.000437591,-0.000157591,-0.000976169,0.00116052,-0.000880523,-0.637445,0.00118209,0.0293849,1938,883,45.535,-3.6985
721,141,45.5144,4.18414,0.000623186,0.000340978,-0.00101529,0.00150713,-0.000542968,-0.716351,0.00122648,0.0161149,1945,883,45.5144,-4.18417
728,141,45.5951,4.68927,0.000944461,0.00134846,-0.00105326,0.00221891,7.40073e-05,-0.880141,0.00145523,0.0160353,1952,883,45.5951,-4.68926
735,141,45.6057,5.32385,0.00167467,0.0027095,-0.00109813,0.00340601,0.00097816,-1.00556,0.00202497,0.0180397,1959,883,45.6057,-5.32383
742,141,45.5212,5.88824,0.002566,0.00465036,-0.00128098,0.00525955,0.0019568,-1.12688,0.00306957,0.0185902,1966,883,45.5213,-5.88824
749,141,45.4727,6.37811,0.00342949,0.00685256,-0.00177183,0.0076045,0.00267755,-1.16944,0.00445403,0.0147595,1973,883,45.4726,-6.3781
756,141,45.4728,6.93506,0.00425456,0.0092363,-0.0025024,0.0102762,0.00321464,-1.17694,0.00606996,0.0207113,1980,883,45.4728,-6.93506
763,141,45.5096,7.54242,0.0049363,0.0116518,-0.00406499,0.0135665,0.00302161,-1.1306,0.00822427,0.0417926,1987,883,45.5096,-7.54243
770,141,45.5179,8.13654,0,0,0,0,0,0,0,-1,1994,883,45.5179,-8.13655
777,141,42.8359,8.39563,0,0,0,0,0,0,0,-1,2001,883,42.836,-8.39564
784,141,43.439,10.2161,0,0,0,0,0,0,0,-1,2008,883,43.4389,-10.2161
791,141,42.5815,7.74707,0,0,0,0,0,0,0,-1,2015,883,42.5815,-7.74706
798,141,0,0,0,0,0,0,0,0,0,-1,2022,883,0,0
805,141,0,0,0,0,0,0,0,0,0,-1,2029,883,0,0
812,141,0,0,0,0,0,0,0,0,0,-1,2036,883,0,0
-700,134,0,0,0,0,0,0,0,0,0,-1,524,890,0,0
-693,134,0,0,0,0,0,0,0,0,0,-1,531,890,0,0
-686,134,0,0,0,0,0,0,0,0,0,-1,538,890,0,0
-679,134,0,0,0,0,0,0,0,0,0,-1,545,890,0,0
-672,134,-40.8251,-2.01019,-0.0182734,-0.117596,-0.0110957,-0.017049,-0.118821,-0.109908,0.0741867,0.0484416,552,890,-40.8251,2.01022
-665,134,-41.1183,-1.6438,-0.0168207,-0.101936,-0.0099116,-0.0156818,-0.103075,-0.11441,0.0641314,0.048413,559,890,-41.1183,1.6438
-658,134,-41.2438,-1.00952,0,0,0,0,0,0,0,-1,566,890,-41.2438,1.00951
-651,134,-39.654,3.05304,0,0,0,0,0,0,0,-1,573,890,-39.654,-3.05301
-644,134,-39.9562,4.09222,0,0,0,0,0,0,0,-1,580,890,-39.9562,-4.0922
-637,134,-28.7275,0.339355,0,0,0,0,0,0,0,-1,587,890,-28.7275,-0.339377
-630,134,-33.743,4.68579,0,0,0,0,0,0,0,-1,594,890,-33.743,-4.68582
-623,134,-33.8254,4.21991,-0.00695049,-0.0189643,-0.000930259,-0.00687888,-0.0190359,-0.076822,0.0111303,0.0282247,601,890,-33.8255,-4.2199
-616,134,-33.9891,3.68652,-0.00520388,-0.00938836,-3.07394e-05,-0.00520365,-0.00938859,-0.0073455,0.00543113,0.0125396,608,890,-33.9891,-3.68654
-609,134,-34.0939,3.18042,-0.00357956,-0.00249897,0.00138018,-0.0015571,-0.00452143,0.971962,0.00265226,0.0120324,615,890,-34.0939,-3.1804
-602,134,-34.0954,2.65039,-0.00286804,0.000759122,0.00196412,0.0016189,-0.00372782,1.15818,0.00316596,0.0136748,622,890,-34.0954,-2.65037
-595,134,-34.3766,2.26501,0,0,0,0,0,0,0,-1,629,890,-34.3766,-2.26504
-588,134,-34.5104,1.73071,0,0,0,0,0,0,0,-1,636,890,-34.5104,-1.73074
-581,134,-34.6277,1.21423,0,0,0,0,0,0,0,-1,643,890,-34.6277,-1.21422
-574,134,-31.1517,0.757751,0,0,0,0,0,0,0,-1,650,890,-31.1517,-0.757758
-567,134,-30.9003,0.296326,0,0,0,0,0,0,0,-1,657,890,-30.9002,-0.296302
-560,134,-22.9123,0.106567,0,0,0,0,0,0,0,-1,664,890,-22.9123,-0.106594
-553,134,-39.7847,0.797241,0,0,0,0,0,0,0,-1,671,890,-39.7847,-0.79726
-546,134,-39.8328,0.799866,0.00139801,-0.000702096,4.91821e-05,0.00139917,-0.000703247,0.0234017,0.0012358,0.0314807,678,890,-39.8328,-0.799862
-539,134,-39.8624,0.785156,0.0017656,-0.000503694,-0.000270675,0.00179744,-0.000535533,-0.117088,0.0014111,0.0182078,685,890,-39.8624,-0.785144
-532,134,-39.8755,0.758484,0.00220231,-0.000209798,-0.000641354,0.00236224,-0.000369724,-0.244373,0.00171143,0.0234453,692,890,-39.8755,-0.758475
-525,134,-39.8254,0.74054,0.00250611,-0.000218182,-0.000716613,0.00268311,-0.000395184,-0.242151,0.00193397,0.0349369,699,890,-39.8254,-0.740525
-518,134,-39.6783,0.737122,0.00275445,-0.000639318,-0.000537723,0.00283761,-0.00072248,-0.153439,0.00217298,0.0407136,706,890,-39.6784,-0.737103
-511,134,-39.6496,0.815796,0.00411917,-0.0013485,-5.94846e-05,0.00411982,-0.00134915,-0.0108776,0.00328981,0.0413984,713,890,-39.6496,-0.81581
-504,134,0,0,0,0,0,0,0,0,0,-1,720,890,0,0
-497,134,0,0,0,0,0,0,0,0,0,-1,727,890,0,0
-490,134,0,0,0,0,0,0,0,0,0,-1,734,890,0,0
-483,134,0,0,0,0,0,0,0,0,0,-1,741,890,0,0
-476,134,0,0,0,0,0,0,0,0,0,-1,748,890,0,0
-469,134,0,0,0,0,0,0,0,0,0,-1,755,890,0,0
-462,134,0,0,0,0,0,0,0,0,0,-1,762,890,0,0
-455,134,0,0,0,0,0,0,0,0,0,-1,769,890,0,0
-448,134,0,0,0,0,0,0,0,0,0,-1,776,890,0,0
-441,134,0,0,0,0,0,0,0,0,0,-1,783,890,0,0
-434,134,0,0,0,0,0,0,0,0,0,-1,790,890,0,0
-427,134,0,0,0,0,0,0,0,0,0,-1,797,890,0,0
-420,134,0,0,0,0,0,0,0,0,0,-1,804,890,0,0
-413,134,0,0,0,0,0,0,0,0,0,-1,811,890,0,0
-406,134,0,0,0,0,0,0,0,0,0,-1,818,890,0,0
-399,134,0,0,0,0,0,0,0,0,0,-1,825,890,0,0
-392,134,0,0,0,0,0,0,0,0,0,-1,832,890,0,0
-385,134,0,0,0,0,0,0,0,0,0,-1,839,890,0,0
-378,134,0,0,0,0,0,0,0,0,0,-1,846,890,0,0
-371,134,0,0,0,0,0,0,0,0,0,-1,853,890,0,0
-364,134,0,0,0,0,0,0,0,0,0,-1,860,890,0,0
-357,134,0,0,0,0,0,0,0,0,0,-1,867,890,0,0
-350,134,0,0,0,0,0,0,0,0,0,-1,874,890,0,0
-343,134,0,0,0,0,0,0,0,0,0,-1,881,890,0,0
-336,134,0,0,0,0,0,0,0,0,0,-1,888,890,0,0
-329,134,0,0,0,0,0,0,0,0,0,-1,895,890,0,0
-322,134,0,0,0,0,0,0,0,0,0,-1,902,890,0,0
-315,134,0,0,0,0,0,0,0,0,0,-1,909,890,0,0
-308,134,0,0,0,0,0,0,0,0,0,-1,916,890,0,0
-301,134,0,0,0,0,0,0,0,0,0,-1,923,890,0,0
-294,134,0,0,0,0,0,0,0,0,0,-1,930,890,0,0
-287,134,0,0,0,0,0,0,0,0,0,-1,937,890,0,0
-280,134,0,0,0,0,0,0,0,0,0,-1,944,890,0,0
-273,134,0,0,0,0,0,0,0,0,0,-1,951,890,0,0
-266,134,0,0,0,0,0,0,0,0,0,-1,958,890,0,0
-259,134,0,0,0,0,0,0,0,0,0,-1,965,890,0,0
-252,134,0,0,0,0,0,0,0,0,0,-1,972,890,0,0
-245,134,0,0,0,0,0,0,0,0,0,-1,979,890,0,0
-238,134,0,0,0,0,0,0,0,0,0,-1,986,890,0,0
-231,134,0,0,0,0,0,0,0,0,0,-1,993,890,0,0
-224,134,0,0,0,0,0,0,0,0,0,-1,1000,890,0,0
-217,134,0,0,0,0,0,0,0,0,0,-1,1007,890,0,0
-210,134,0,0,0,0,0,0,0,0,0,-1,1014,890,0,0
-203,134,0,0,0,0,0,0,0,0,0,-1,1021,890,0,0
-196,134,0,0,0,0,0,0,0,0,0,-1,1028,890,0,0
-189,134,0,0,0,0,0,0,0,0,0,-1,1035,890,0,0
-182,134,0,0,0,0,0,0,0,0,0,-1,1042,890,0,0
-175,134,0,0,0,0,0,0,0,0,0,-1,1049,890,0,0
-168,134,0,0,0,0,0,0,0,0,0,-1,1056,890,0,0
-161,134,0,0,0,0,0,0,0,0,0,-1,1063,890,0,0
-154,134,0,0,0,0,0,0,0,0,0,-1,1070,890,0,0
-147,134,0,0,0,0,0,0,0,0,0,-1,1077,890,0,0
-140,134,0,0,0,0,0,0,0,0,0,-1,1084,890,0,0
-133,134,0,0,0,0,0,0,0,0,0,-1,1091,890,0,0
-126,134,0,0,0,0,0,0,0,0,0,-1,1098,890,0,0
-119,134,0,0,0,0,0,0,0,0,0,-1,1105,890,0,0
-112,134,0,0,0,0,0,0,0,0,0,-1,1112,890,0,0
-105,134,0,0,0,0,0,0,0,0,0,-1,1119,890,0,0
-98,134,0,0,0,0,0,0,0,0,0,-1,1126,890,0,0
-91,134,0,0,0,0,0,0,0,0,0,-1,1133,890,0,0
-84,134,0,0,0,0,0,0,0,0,0,-1,1140,890,0,0
-77,134,0,0,0,0,0,0,0,0,0,-1,1147,890,0,0
-70,134,0,0,0,0,0,0,0,0,0,-1,1154,890,0,0
-63,134,0,0,0,0,0,0,0,0,0,-1,1161,890,0,0
-56,134,0,0,0,0,0,0,0,0,0,-1,1168,890,0,0
-49,134,0,0,0,0,0,0,0,0,0,-1,1175,890,0,0
-42,134,0,0,0,0,0,0,0,0,0,-1,1182,890,0,0
-35,134,0,0,0,0,0,0,0,0,0,-1,1189,890,0,0
-28,134,0,0,0,0,0,0,0,0,0,-1,1196,890,0,0
-21,134,0,0,0,0,0,0,0,0,0,-1,1203,890,0,0
-14,134,0,0,0,0,0,0,0,0,0,-1,1210,890,0,0
-7,134,0,0,0,0,0,0,0,0,0,-1,1217,890,0,0
0,134,0,0,0,0,0,0,0,0,0,-1,1224,890,0,0
7,134,0,0,0,0,0,0,0,0,0,-1,1231,890,0,0
14,134,0,0,0,0,0,0,0,0,0,-1,1238,890,0,0
21,134,0,0,0,0,0,0,0,0,0,-1,1245,890,0,0
28,134,0,0,0,0,0,0,0,0,0,-1,1252,890,0,0
35,134,0,0,0,0,0,0,0,0,0,-1,1259,890,0,0
42,134,0,0,0,0,0,0,0,0,0,-1,1266,890,0,0
49,134,0,0,0,0,0,0,0,0,0,-1,1273,890,0,0
56,134,0,0,0,0,0,0,0,0,0,-1,1280,890,0,0
63,134,0,0,0,0,0,0,0,0,0,-1,1287,890,0,0
70,134,0,0,0,0,0,0,0,0,0,-1,1294,890,0,0
77,134,0,0,0,0,0,0,0,0,0,-1,1301,890,0,0
84,134,0,0,0,0,0,0,0,0,0,-1,1308,890,0,0
91,134,0,0,0,0,0,0,0,0,0,-1,1315,890,0,0
98,134,0,0,0,0,0,0,0,0,0,-1,1322,890,0,0
105,134,0,0,0,0,0,0,0,0,0,-1,1329,890,0,0
112,134,0,0,0,0,0,0,0,0,0,-1,1336,890,0,0
119,134,0,0,0,0,0,0,0,0,0,-1,1343,890,0,0
126,134,0,0,0,0,0,0,0,0,0,-1,1350,890,0,0
133,134,0,0,0,0,0,0,0,0,0,-1,1357,890,0,0
140,134,0,0,0,0,0,0,0,0,0,-1,1364,890,0,0
147,134,0,0,0,0,0,0,0,0,0,-1,1371,890,0,0
154,134,0,0,0,0,0,0,0,0,0,-1,1378,890,0,0
161,134,0,0,0,0,0,0,0,0,0,-1,1385,890,0,0
168,134,0,0,0,0,0,0,0,0,0,-1,1392,890,0,0
175,134,0,0,0,0,0,0,0,0,0,-1,1399,890,0,0
182,134,0,0,0,0,0,0,0,0,0,-1,1406,890,0,0
189,134,0,0,0,0,0,0,0,0,0,-1,1413,890,0,0
196,134,0,0,0,0,0,0,0,0,0,-1,1420,890,0,0
203,134,0,0,0,0,0,0,0,0,0,-1,1427,890,0,0
210,134,0,0,0,0,0,0,0,0,0,-1,1434,890,0,0
217,134,0,0,0,0,0,0,0,0,0,-1,1441,890,0,0
224,134,0,0,0,0,0,0,0,0,0,-1,1448,890,0,0
231,134,0,0,0,0,0,0,0,0,0,-1,1455,890,0,0
238,134,0,0,0,0,0,0,0,0,0,-1,1462,890,0,0
245,134,0,0,0,0,0,0,0,0,0,-1,1469,890,0,0
252,134,0,0,0,0,0,0,0,0,0,-1,1476,890,0,0
259,134,0,0,0,0,0,0,0,0,0,-1,1483,890,0,0
266,134,0,0,0,0,0,0,0,0,0,-1,1490,890,0,0
273,134,0,0,0,0,0,0,0,0,0,-1,1497,890,0,0
280,134,0,0,0,0,0,0,0,0,0,-1,1504,890,0,0
287,134,0,0,0,0,0,0,0,0,0,-1,1511,890,0,0
294,134,0,0,0,0,0,0,0,0,0,-1,1518,890,0,0
301,134,0,0,0,0,0,0,0,0,0,-1,1525,890,0,0
308,134,0,0,0,0,0,0,0,0,0,-1,1532,890,0,0
315,134,0,0,0,0,0,0,0,0,0,-1,1539,890,0,0
322,134,0,0,0,0,0,0,0,0,0,-1,1546,890,0,0
329,134,0,0,0,0,0,0,0,0,0,-1,1553,890,0,0
336,134,0,0,0,0,0,0,0,0,0,-1,1560,890,0,0
343,134,0,0,0,0,0,0,0,0,0,-1,1567,890,0,0
350,134,0,0,0,0,0,0,0,0,0,-1,1574,890,0,0
357,134,0,0,0,0,0,0,0,0,0,-1,1581,890,0,0
364,134,0,0,0,0,0,0,0,0,0,-1,1588,890,0,0
371,134,0,0,0,0,0,0,0,0,0,-1,1595,890,0,0
378,134,0,0,0,0,0,0,0,0,0,-1,1602,890,0,0
385,134,0,0,0,0,0,0,0,0,0,-1,1609,890,0,0
392,134,0,0,0,0,0,0,0,0,0,-1,1616,890,0,0
399,134,0,0,0,0,0,0,0,0,0,-1,1623,890,0,0
406,134,0,0,0,0,0,0,0,0,0,-1,1630,890,0,0
413,134,0,0,0,0,0,0,0,0,0,-1,1637,890,0,0
420,134,0,0,0,0,0,0,0,0,0,-1,1644,890,0,0
427,134,0,0,0,0,0,0,0,0,0,-1,1651,890,0,0
434,134,0,0,0,0,0,0,0,0,0,-1,1658,890,0,0
441,134,0,0,0,0,0,0,0,0,0,-1,1665,890,0,0
448,134,0,0,0,0,0,0,0,0,0,-1,1672,890,0,0
455,134,0,0,0,0,0,0,0,0,0,-1,1679,890,0,0
462,134,0,0,0,0,0,0,0,0,0,-1,1686,890,0,0
469,134,0,0,0,0,0,0,0,0,0,-1,1693,890,0,0
476,134,0,0,0,0,0,0,0,0,0,-1,1700,890,0,0
483,134,0,0,0,0,0,0,0,0,0,-1,1707,890,0,0
490,134,0,0,0,0,0,0,0,0,0,-1,1714,890,0,0
497,134,0,0,0,0,0,0,0,0,0,-1,1721,890,0,0
504,134,0,0,0,0,0,0,0,0,0,-1,1728,890,0,0
511,134,0,0,0,0,0,0,0,0,0,-1,1735,890,0,0
518,134,0,0,0,0,0,0,0,0,0,-1,1742,890,0,0
525,134,0,0,0,0,0,0,0,0,0,-1,1749,890,0,0
532,134,0,0,0,0,0,0,0,0,0,-1,1756,890,0,0
539,134,0,0,0,0,0,0,0,0,0,-1,1763,890,0,0
546,134,0,0,0,0,0,0,0,0,0,-1,1770,890,0,0
553,134,0,0,0,0,0,0,0,0,0,-1,1777,890,0,0
560,134,0,0,0,0,0,0,0,0,0,-1,1784,890,0,0
567,134,0,0,0,0,0,0,0,0,0,-1,1791,890,0,0
574,134,0,0,0,0,0,0,0,0,0,-1,1798,890,0,0
581,134,0,0,0,0,0,0,0,0,0,-1,1805,890,0,0
588,134,0,0,0,0,0,0,0,0,0,-1,1812,890,0,0
595,134,0,0,0,0,0,0,0,0,0,-1,1819,890,0,0
602,134,0,0,0,0,0,0,0,0,0,-1,1826,890,0,0
609,134,0,0,0,0,0,0,0,0,0,-1,1833,890,0,0
616,134,0,0,0,0,0,0,0,0,0,-1,1840,890,0,0
623,134,52.8137,3.29041,0.0141243,-0.00430422,-0.00754452,0.0168189,-0.00699888,-0.343047,0.0141354,0.0480119,1847,890,52.8138,-3.29038
630,134,52.9202,3.14465,0.010135,-0.00311811,-0.00604867,0.0124805,-0.00546361,-0.369919,0.0106208,0.047929,1854,890,52.9202,-3.14466
637,134,53.135,3.03754,0.00680767,-0.00199915,-0.00472159,0.00886053,-0.00405201,-0.410126,0.00762542,0.0457415,1861,890,53.135,-3.03754
644,134,53.2905,2.9043,0.00403563,-0.00121047,-0.00354073,0.00581907,-0.00299391,-0.466598,0.00517459,0.039282,1868,890,53.2905,-2.90429
651,134,53.2339,2.7027,0.00194743,-0.000674984,-0.00257337,0.00352439,-0.00225194,-0.549778,0.00336183,0.0405195,1875,890,53.2339,-2.7027
658,134,53.1104,2.67963,0.000713564,-0.000523913,-0.00190311,0.00209599,-0.00190634,-0.628228,0.00231161,0.0391692,1882,890,53.1104,-2.67961
665,134,53.0139,2.58191,0.000104577,-0.000468532,-0.00146308,0.00130891,-0.00167286,-0.688694,0.00172579,0.0340471,1889,890,53.014,-2.58193
672,134,53.0731,2.62274,-0.000236102,-0.000502208,-0.00112049,0.000759205,-0.00149752,-0.726302,0.00132596,0.021926,1896,890,53.0731,-2.62271
679,134,53.0885,2.63202,-0.000369339,-0.000486305,-0.000945211,0.000519197,-0.00137484,-0.754501,0.00113011,0.0201145,1903,890,53.0885,-2.63204
686,134,53.0715,2.61682,0,0,0,0,0,0,0,-1,1910,890,53.0715,-2.61685
693,134,34.5778,2.48096,0,0,0,0,0,0,0,-1,1917,890,34.5777,-2.48099
700,134,46.0338,2.36847,0,0,0,0,0,0,0,-1,1924,890,46.0338,-2.36847
707,134,45.9344,2.87921,0.00018949,-0.000339717,-0.000596073,0.000577051,-0.000727278,-0.576509,0.000754718,0.024662,1931,890,45.9345,-2.8792
714,134,45.9564,3.50946,0.000460315,-2.68999e-05,-0.000616747,0.000879823,-0.000446408,-0.597309,0.00077921,0.0248058,1938,890,45.9565,-3.50945
721,134,46.1224,4.14557,0.000422614,0.000388688,-0.000729557,0.00113541,-0.000324104,-0.773775,0.00088498,0.0209281,1945,890,46.1224,-4.14559
728,134,46.2074,4.685,0.000353373,0.00129321,-0.000891453,0.00183102,-0.000184435,-1.02796,0.00128657,0.0191548,1952,890,46.2074,-4.685
735,134,46.1766,5.31342,0.000520022,0.00252181,-0.00110186,0.0030095,3.23298e-05,-1.15411,0.00199564,0.0257993,1959,890,46.1766,-5.31341
742,134,46.0901,5.88043,0.000503022,0.00439125,-0.00172853,0.00504856,-0.000154286,-1.20741,0.00341829,0.017166,1966,890,46.09,-5.88042
749,134,46.0619,6.38544,0.000140571,0.00662961,-0.00302793,0.00782302,-0.00105284,-1.19536,0.00559938,0.0127719,1973,890,46.0619,-6.38542
756,134,46.0481,6.89685,-0.000404577,0.00910209,-0.00471507,0.011044,-0.00234647,-1.18012,0.00825671,0.0170158,1980,890,46.0481,-6.89685
763,134,46.026,7.47308,-0.00151773,0.0116853,-0.00773657,0.0152541,-0.00508648,-1.1386,0.0122229,0.0374434,1987,890,46.026,-7.4731
770,134,46.0093,8.06104,0,0,0,0,0,0,0,-1,1994,890,46.0092,-8.06106
777,134,43.6969,5.94574,0,0,0,0,0,0,0,-1,2001,890,43.697,-5.94577
784,134,42.3352,7.4964,0,0,0,0,0,0,0,-1,2008,890,42.3352,-7.49641
791,134,42.2061,9.63593,0,0,0,0,0,0,0,-1,2015,890,42.2061,-9.63591
798,134,0,0,0,0,0,0,0,0,0,-1,2022,890,0,0
805,134,0,0,0,0,0,0,0,0,0,-1,2029,890,0,0
812,134,0,0,0,0,0,0,0,0,0,-1,2036,890,0,0
-700,127,0,0,0,0,0,0,0,0,0,-1,524,897,0,0
-693,127,0,0,0,0,0,0,0,0,0,-1,531,897,0,0
-686,127,0,0,0,0,0,0,0,0,0,-1,538,897,0,0
-679,127,-40.2899,-1.67175,-0.0148997,-0.112431,-0.0063439,-0.0144888,-0.112842,-0.0646812,0.0708939,0.0471765,545,897,-40.2899,1.67173
-672,127,-40.3503,-1.29803,-0.0161455,-0.103642,-0.00744604,-0.0155163,-0.104272,-0.0842928,0.064963,0.0454216,552,897,-40.3503,1.29803
-665,127,-40.6053,-0.976013,-0.0157837,-0.089927,-0.00698953,-0.0151305,-0.0905801,-0.0931768,0.0560284,0.0480945,559,897,-40.6053,0.975988
-658,127,-39.7874,0.088623,0,0,0,0,0,0,0,-1,566,897,-39.7874,-0.0886148
-651,127,-39.2393,3.46112,0,0,0,0,0,0,0,-1,573,897,-39.2393,-3.46109
-644,127,-39.4974,4.52643,0,0,0,0,0,0,0,-1,580,897,-39.4974,-4.52641
-637,127,-34.9905,3.62244,0,0,0,0,0,0,0,-1,587,897,-34.9905,-3.62242
-630,127,-34.668,3.97882,0,0,0,0,0,0,0,-1,594,897,-34.668,-3.97884
-623,127,-34.4971,4.10895,-0.0075683,-0.0158015,-0.000289595,-0.00755813,-0.0158117,-0.0351162,0.00913183,0.0168517,601,897,-34.4971,-4.10894
-616,127,-34.5597,3.66254,-0.00594246,-0.00728622,0.000402508,-0.00583112,-0.00739756,0.26987,0.00450135,0.0100803,608,897,-34.5597,-3.66252
-609,127,-34.6144,3.17065,-0.00449218,-0.00166212,0.00151356,-0.00100515,-0.00514915,1.16128,0.00315161,0.0145777,615,897,-34.6144,-3.17067
-602,127,-34.6141,2.68524,-0.00400474,0.000772144,0.00192569,0.00145176,-0.00468435,1.23152,0.00370293,0.0169021,622,897,-34.6142,-2.68526
-595,127,-34.9585,2.22925,0,0,0,0,0,0,0,-1,629,897,-34.9585,-2.22927
-588,127,-34.7303,1.63361,0,0,0,0,0,0,0,-1,636,897,-34.7303,-1.63363
-581,127,-34.5021,1.03802,0,0,0,0,0,0,0,-1,643,897,-34.5021,-1.038
-574,127,-25.2603,0.511169,0,0,0,0,0,0,0,-1,650,897,-25.2603,-0.51117
-567,127,-24.5417,-0.0447388,0,0,0,0,0,0,0,-1,657,897,-24.5417,0.0447226
-560,127,-18.9678,1.21667,0,0,0,0,0,0,0,-1,664,897,-18.9677,-1.2167
-553,127,-39.7989,0.841248,0,0,0,0,0,0,0,-1,671,897,-39.7989,-0.841273
-546,127,-39.8152,0.830078,0.000176621,-0.000798969,9.13807e-05,0.000185106,-0.000807455,0.0925939,0.000609449,0.0218793,678,897,-39.8152,-0.830087
-539,127,-39.8083,0.812012,0.000918869,-0.000605474,-0.00012982,0.000929846,-0.000616451,-0.0843553,0.000898846,0.0197666,685,897,-39.8083,-0.812011
-532,127,-39.795,0.836487,0.00195011,-0.000334327,-0.000277391,0.00198331,-0.000367527,-0.11912,0.00146022,0.0176324,692,897,-39.795,-0.836485
-525,127,-39.8647,0.909058,0.00314663,-0.000398617,3.80681e-06,0.00314664,-0.000398621,0.00107377,0.00224247,0.0329533,699,897,-39.8647,-0.909055
-518,127,-39.7217,0.922668,0.00422174,-0.000917182,0.000513891,0.00427263,-0.000968067,0.0986976,0.00321998,0.0396215,706,897,-39.7218,-0.92267
-511,127,-39.5687,0.916992,0.00614556,-0.00148696,0.00137393,0.00638534,-0.00172675,0.172787,0.00493424,0.0414244,713,897,-39.5686,-0.91698
-504,127,0,0,0,0,0,0,0,0,0,-1,720,897,0,0
-497,127,0,0,0,0,0,0,0,0,0,-1,727,897,0,0
-490,127,0,0,0,0,0,0,0,0,0,-1,734,897,0,0
-483,127,0,0,0,0,0,0,0,0,0,-1,741,897,0,0
-476,127,0,0,0,0,0,0,0,0,0,-1,748,897,0,0
-469,127,0,0,0,0,0,0,0,0,0,-1,755,897,0,0
-462,127,0,0,0,0,0,0,0,0,0,-1,762,897,0,0
-455,127,0,0,0,0,0,0,0,0,0,-1,769,897,0,0
-448,127,0,0,0,0,0,0,0,0,0,-1,776,897,0,0
-441,127,0,0,0,0,0,0,0,0,0,-1,783,897,0,0
-434,127,0,0,0,0,0,0,0,0,0,-1,790,897,0,0
-427,127,0,0,0,0,0,0,0,0,0,-1,797,897,0,0
-420,127,0,0,0,0,0,0,0,0,0,-1,804,897,0,0
-413,127,0,0,0,0,0,0,0,0,0,-1,811,897,0,0
-406,127,0,0,0,0,0,0,0,0,0,-1,818,897,0,0
-399,127,0,0,0,0,0,0,0,0,0,-1,825,897,0,0
-392,127,0,0,0,0,0,0,0,0,0,-1,832,897,0,0
-385,127,0,0,0,0,0,0,0,0,0,-1,839,897,0,0
-378,127,0,0,0,0,0,0,0,0,0,-1,846,897,0,0
-371,127,0,0,0,0,0,0,0,0,0,-1,853,897,0,0
-364,127,0,0,0,0,0,0,0,0,0,-1,860,897,0,0
-357,127,0,0,0,0,0,0,0,0,0,-1,867,897,0,0
-350,127,0,0,0,0,0,0,0,0,0,-1,874,897,0,0
-343,127,0,0,0,0,0,0,0,0,0,-1,881,897,0,0
-336,127,0,0,0,0,0,0,0,0,0,-1,888,897,0,0
-329,127,0,0,0,0,0,0,0,0,0,-1,895,897,0,0
-322,127,0,0,0,0,0,0,0,0,0,-1,902,897,0,0
-315,127,0,0,0,0,0,0,0,0,0,-1,909,897,0,0
-308,127,0,0,0,0,0,0,0,0,0,-1,916,897,0,0
-301,127,0,0,0,0,0,0,0,0,0,-1,923,897,0,0
-294,127,0,0,0,0,0,0,0,0,0,-1,930,897,0,0
-287,127,0,0,0,0,0,0,0,0,0,-1,937,897,0,0
-280,127,0,0,0,0,0,0,0,0,0,-1,944,897,0,0
-273,127,0,0,0,0,0,0,0,0,0,-1,951,897,0,0
-266,127,0,0,0,0,0,0,0,0,0,-1,958,897,0,0
-259,127,0,0,0,0,0,0,0,0,0,-1,965,897,0,0
-252,127,0,0,0,0,0,0,0,0,0,-1,972,897,0,0
-245,127,0,0,0,0,0,0,0,0,0,-1,979,897,0,0
-238,127,0,0,0,0,0,0,0,0,0,-1,986,897,0,0
-231,127,0,0,0,0,0,0,0,0,0,-1,993,897,0,0
-224,127,0,0,0,0,0,0,0,0,0,-1,1000,897,0,0
-217,127,0,0,0,0,0,0,0,0,0,-1,1007,897,0,0
-210,127,0,0,0,0,0,0,0,0,0,-1,1014,897,0,0
-203,127,0,0,0,0,0,0,0,0,0,-1,1021,897,0,0
-196,127,0,0,0,0,0,0,0,0,0,-1,1028,897,0,0
-189,127,0,0,0,0,0,0,0,0,0,-1,1035,897,0,0
-182,127,0,0,0,0,0,0,0,0,0,-1,1042,897,0,0
-175,127,0,0,0,0,0,0,0,0,0,-1,1049,897,0,0
-168,127,0,0,0,0,0,0,0,0,0,-1,1056,897,0,0
-161,127,0,0,0,0,0,0,0,0,0,-1,1063,897,0,0
-154,127,0,0,0,0,0,0,0,0,0,-1,1070,897,0,0
-147,127,0,0,0,0,0,0,0,0,0,-1,1077,897,0,0
-140,127,0,0,0,0,0,0,0,0,0,-1,1084,897,0,0
-133,127,0,0,0,0,0,0,0,0,0,-1,1091,897,0,0
-126,127,0,0,0,0,0,0,0,0,0,-1,1098,897,0,0
-119,127,0,0,0,0,0,0,0,0,0,-1,1105,897,0,0
-112,127,0,0,0,0,0,0,0,0,0,-1,1112,897,0,0
-105,127,0,0,0,0,0,0,0,0,0,-1,1119,897,0,0
-98,127,0,0,0,0,0,0,0,0,0,-1,1126,897,0,0
-91,127,0,0,0,0,0,0,0,0,0,-1,1133,897,0,0
-84,127,0,0,0,0,0,0,0,0,0,-1,1140,897,0,0
-77,127,0,0,0,0,0,0,0,0,0,-1,1147,897,0,0
-70,127,0,0,0,0,0,0,0,0,0,-1,1154,897,0,0
-63,127,0,0,0,0,0,0,0,0,0,-1,1161,897,0,0
-56,127,0,0,0,0,0,0,0,0,0,-1,1168,897,0,0
-49,127,0,0,0,0,0,0,0,0,0,-1,1175,897,0,0
-42,127,0,0,0,0,0,0,0,0,0,-1,1182,897,0,0
-35,127,0,0,0,0,0,0,0,0,0,-1,1189,897,0,0
-28,127,0,0,0,0,0,0,0,0,0,-1,1196,897,0,0
-21,127,0,0,0,0,0,0,0,0,0,-1,1203,897,0,0
-14,127,0,0,0,0,0,0,0,0,0,-1,1210,897,0,0
-7,127,0,0,0,0,0,0,0,0,0,-1,1217,897,0,0
0,127,0,0,0,0,0,0,0,0,0,-1,1224,897,0,0
7,127,0,0,0,0,0,0,0,0,0,-1,1231,897,0,0
14,127,0,0,0,0,0,0,0,0,0,-1,1238,897,0,0
21,127,0,0,0,0,0,0,0,0,0,-1,1245,897,0,0
28,127,0,0,0,0,0,0,0,0,0,-1,1252,897,0,0
35,127,0,0,0,0,0,0,0,0,0,-1,1259,897,0,0
42,127,0,0,0,0,0,0,0,0,0,-1,1266,897,0,0
49,127,0,0,0,0,0,0,0,0,0,-1,1273,897,0,0
56,127,0,0,0,0,0,0,0,0,0,-1,1280,897,0,0
63,127,0,0,0,0,0,0,0,0,0,-1,1287,897,0,0
70,127,0,0,0,0,0,0,0,0,0,-1,1294,897,0,0
77,127,0,0,0,0,0,0,0,0,0,-1,1301,897,0,0
84,127,0,0,0,0,0,0,0,0,0,-1,1308,897,0,0
91,127,0,0,0,0,0,0,0,0,0,-1,1315,897,0,0
98,127,0,0,0,0,0,0,0,0,0,-1,1322,897,0,0
105,127,0,0,0,0,0,0,0,0,0,-1,1329,897,0,0
112,127,0,0,0,0,0,0,0,0,0,-1,1336,897,0,0
119,127,0,0,0,0,0,0,0,0,0,-1,1343,897,0,0
126,127,0,0,0,0,0,0,0,0,0,-1,1350,897,0,0
133,127,0,0,0,0,0,0,0,0,0,-1,1357,897,0,0
140,127,0,0,0,0,0,0,0,0,0,-1,1364,897,0,0
147,127,0,0,0,0,0,0,0,0,0,-1,1371,897,0,0
154,127,0,0,0,0,0,0,0,0,0,-1,1378,897,0,0
161,127,0,0,0,0,0,0,0,0,0,-1,1385,897,0,0
168,127,0,0,0,0,0,0,0,0,0,-1,1392,897,0,0
175,127,0,0,0,0,0,0,0,0,0,-1,1399,897,0,0
182,127,0,0,0,0,0,0,0,0,0,-1,1406,897,0,0
189,127,0,0,0,0,0,0,0,0,0,-1,1413,897,0,0
196,127,0,0,0,0,0,0,0,0,0,-1,1420,897,0,0
203,127,0,0,0,0,0,0,0,0,0,-1,1427,897,0,0
210,127,0,0,0,0,0,0,0,0,0,-1,1434,897,0,0
217,127,0,0,0,0,0,0,0,0,0,-1,1441,897,0,0
224,127,0,0,0,0,0,0,0,0,0,-1,1448,897,0,0
231,127,0,0,0,0,0,0,0,0,0,-1,1455,897,0,0
238,127,0,0,0,0,0,0,0,0,0,-1,1462,897,0,0
245,127,0,0,0,0,0,0,0,0,0,-1,1469,897,0,0
252,127,0,0,0,0,0,0,0,0,0,-1,1476,897,0,0
259,127,0,0,0,0,0,0,0,0,0,-1,1483,897,0,0
266,127,0,0,0,0,0,0,0,0,0,-1,1490,897,0,0
273,127,0,0,0,0,0,0,0,0,0,-1,1497,897,0,0
280,127,0,0,0,0,0,0,0,0,0,-1,1504,897,0,0
287,127,0,0,0,0,0,0,0,0,0,-1,1511,897,0,0
294,127,0,0,0,0,0,0,0,0,0,-1,1518,897,0,0
301,127,0,0,0,0,0,0,0,0,0,-1,1525,897,0,0
308,127,0,0,0,0,0,0,0,0,0,-1,1532,897,0,0
315,127,0,0,0,0,0,0,0,0,0,-1,1539,897,0,0
322,127,0,0,0,0,0,0,0,0,0,-1,1546,897,0,0
329,127,0,0,0,0,0,0,0,0,0,-1,1553,897,0,0
336,127,0,0,0,0,0,0,0,0,0,-1,1560,897,0,0
343,127,0,0,0,0,0,0,0,0,0,-1,1567,897,0,0
350,127,0,0,0,0,0,0,0,0,0,-1,1574,897,0,0
357,127,0,0,0,0,0,0,0,0,0,-1,1581,897,0,0
364,127,0,0,0,0,0,0,0,0,0,-1,1588,897,0,0
371,127,0,0,0,0,0,0,0,0,0,-1,1595,897,0,0
378,127,0,0,0,0,0,0,0,0,0,-1,1602,897,0,0
385,127,0,0,0,0,0,0,0,0,0,-1,1609,897,0,0
392,127,0,0,0,0,0,0,0,0,0,-1,1616,897,0,0
399,127,0,0,0,0,0,0,0,0,0,-1,1623,897,0,0
406,127,0,0,0,0,0,0,0,0,0,-1,1630,897,0,0
413,127,0,0,0,0,0,0,0,0,0,-1,1637,897,0,0
420,127,0,0,0,0,0,0,0,0,0,-1,1644,897,0,0
427,127,0,0,0,0,0,0,0,0,0,-1,1651,897,0,0
434,127,0,0,0,0,0,0,0,0,0,-1,1658,897,0,0
441,127,0,0,0,0,0,0,0,0,0,-1,1665,897,0,0
448,127,0,0,0,0,0,0,0,0,0,-1,1672,897,0,0
455,127,0,0,0,0,0,0,0,0,0,-1,1679,897,0,0
462,127,0,0,0,0,0,0,0,0,0,-1,1686,897,0,0
469,127,0,0,0,0,0,0,0,0,0,-1,1693,897,0,0
476,127,0,0,0,0,0,0,0,0,0,-1,1700,897,0,0
483,127,0,0,0,0,0,0,0,0,0,-1,1707,897,0,0
490,127,0,0,0,0,0,0,0,0,0,-1,1714,897,0,0
497,127,0,0,0,0,0,0,0,0,0,-1,1721,897,0,0
504,127,0,0,0,0,0,0,0,0,0,-1,1728,897,0,0
511,127,0,0,0,0,0,0,0,0,0,-1,1735,897,0,0
518,127,0,0,0,0,0,0,0,0,0,-1,1742,897,0,0
525,127,0,0,0,0,0,0,0,0,0,-1,1749,897,0,0
532,127,0,0,0,0,0,0,0,0,0,-1,1756,897,0,0
539,127,0,0,0,0,0,0,0,0,0,-1,1763,897,0,0
546,127,0,0,0,0,0,0,0,0,0,-1,1770,897,0,0
553,127,0,0,0,0,0,0,0,0,0,-1,1777,897,0,0
560,127,0,0,0,0,0,0,0,0,0,-1,1784,897,0,0
567,127,0,0,0,0,0,0,0,0,0,-1,1791,897,0,0
574,127,0,0,0,0,0,0,0,0,0,-1,1798,897,0,0
581,127,0,0,0,0,0,0,0,0,0,-1,1805,897,0,0
588,127,0,0,0,0,0,0,0,0,0,-1,1812,897,0,0
595,127,0,0,0,0,0,0,0,0,0,-1,1819,897,0,0
602,127,0,0,0,0,0,0,0,0,0,-1,1826,897,0,0
609,127,0,0,0,0,0,0,0,0,0,-1,1833,897,0,0
616,127,0,0,0,0,0,0,0,0,0,-1,1840,897,0,0
623,127,0,0,0,0,0,0,0,0,0,-1,1847,897,0,0
630,127,53.0184,2.7998,0.0111131,-0.00189156,-0.0061872,0.0135864,-0.00436485,-0.380285,0.0108104,0.0416922,1854,897,53.0184,-2.79979
637,127,53.186,2.5976,0.00754757,-0.00100939,-0.00495666,0.0098169,-0.00327873,-0.429351,0.00786861,0.0405482,1861,897,53.186,-2.59762
644,127,53.3719,2.67957,0.00461336,-0.00045267,-0.00378453,0.00663434,-0.00247365,-0.490484,0.00543832,0.0385144,1868,897,53.372,-2.67954
651,127,53.1178,2.77167,0.00234081,-8.55442e-05,-0.00274691,0.00413052,-0.00187525,-0.577453,0.00354799,0.0412648,1875,897,53.1178,-2.77168
658,127,52.9272,2.8382,0.000933577,1.39735e-05,-0.00191716,0.0024453,-0.00149775,-0.667704,0.00229833,0.0424799,1882,897,52.9273,-2.83821
665,127,52.9612,2.67267,0.00026937,2.75937e-05,-0.00132485,0.00147883,-0.00118187,-0.739901,0.00153934,0.038654,1889,897,52.9611,-2.67267
672,127,53.0254,2.53357,-2.34959e-05,-7.33505e-05,-0.000890348,0.000842274,-0.00093912,-0.771403,0.00102899,0.0327435,1896,897,53.0254,-2.53358
679,127,53.106,2.55756,-9.73273e-05,-0.000134952,-0.000659352,0.00054348,-0.00077576,-0.771136,0.000765589,0.0241438,1903,897,53.106,-2.55756
686,127,53.0836,2.60565,-0.000360617,-0.00021817,-0.000432482,0.000148914,-0.000727701,-0.867008,0.000541639,0.047525,1910,897,53.0836,-2.60563
693,127,53.0417,2.60498,0,0,0,0,0,0,0,-1,1917,897,53.0418,-2.605
700,127,46.5536,2.35657,0,0,0,0,0,0,0,-1,1924,897,46.5536,-2.35655
707,127,46.4194,2.90186,0.00022824,-0.00012302,-0.000370319,0.000462467,-0.000357246,-0.563973,0.000474559,0.0288474,1931,897,46.4195,-2.90184
714,127,46.6661,3.54785,0.000415486,0.000164383,-0.000406117,0.000715016,-0.000135147,-0.635483,0.000527528,0.0235676,1938,897,46.6662,-3.54787
721,127,46.8127,4.2796,0.000212351,0.000512378,-0.000569421,0.000951214,-0.000226485,-0.914196,0.000721584,0.0208099,1945,897,46.8128,-4.2796
728,127,46.7449,4.75586,-0.000135418,0.00133016,-0.000818069,0.00169565,-0.000500909,-1.15063,0.00132924,0.0182497,1952,897,46.7449,-4.75586
735,127,46.7083,5.32251,-0.000417046,0.00242715,-0.00114822,0.00283283,-0.000822728,-1.23117,0.00221434,0.021238,1959,897,46.7082,-5.32249
742,127,46.6593,5.86951,-0.00118817,0.00420091,-0.00222165,0.00499868,-0.00198595,-1.22604,0.00415574,0.0202717,1966,897,46.6593,-5.86951
749,127,46.6276,6.37732,-0.00255465,0.00649152,-0.00439101,0.00827234,-0.00433548,-1.18551,0.00739647,0.0143793,1973,897,46.6276,-6.37733
756,127,46.5807,6.86096,-0.00416242,0.00908304,-0.00707546,0.0121517,-0.00723106,-1.16158,0.0113102,0.015888,1980,897,46.5806,-6.86094
763,127,46.5586,7.3551,-0.00647972,0.0118516,-0.0114764,0.0173732,-0.0120014,-1.12236,0.0170537,0.0244949,1987,897,46.5586,-7.35508
770,127,46.6027,7.87311,0,0,0,0,0,0,0,-1,1994,897,46.6026,-7.87308
777,127,42.703,5.33789,0,0,0,0,0,0,0,-1,2001,897,42.7031,-5.33791
784,127,42.6145,8.47131,0,0,0,0,0,0,0,-1,2008,897,42.6146,-8.47131
791,127,42.5813,5.51636,0,0,0,0,0,0,0,-1,2015,897,42.5813,-5.51633
798,127,0,0,0,0,0,0,0,0,0,-1,2022,897,0,0
805,127,0,0,0,0,0,0,0,0,0,-1,2029,897,0,0
812,127,0,0,0,0,0,0,0,0,0,-1,2036,897,0,0
-700,120,0,0,0,0,0,0,0,0,0,-1,524,904,0,0
-693,120,0,0,0,0,0,0,0,0,0,-1,531,904,0,0
-686,120,0,0,0,0,0,0,0,0,0,-1,538,904,0,0
-679,120,-39.1953,-0.706543,-0.0137668,-0.0953692,-0.00167009,-0.0137327,-0.0954034,-0.0204548,0.0595548,0.0445194,545,904,-39.1952,0.706539
-672,120,-39.2109,0.0368042,-0.015878,-0.0878008,-0.00360885,-0.0156973,-0.0879815,-0.0500093,0.0541852,0.0448953,552,904,-39.2109,-0.0368301
-665,120,-38.9308,0.797424,-0.0160966,-0.0761786,-0.0039501,-0.015838,-0.0764372,-0.0653701,0.0465851,0.0469436,559,904,-38.9308,-0.797447
-658,120,-38.7188,1.73663,-0.0153713,-0.0637808,-0.00362314,-0.0151017,-0.0640505,-0.074292,0.0386624,0.0473908,566,904,-38.7187,-1.73666
-651,120,-38.4562,2.65491,0,0,0,0,0,0,0,-1,573,904,-38.4562,-2.65491
-644,120,-38.652,5.06384,0,0,0,0,0,0,0,-1,580,904,-38.652,-5.06386
-637,120,-35.6022,4.85651,0,0,0,0,0,0,0,-1,587,904,-35.6022,-4.85653
-630,120,-35.3048,4.12488,0,0,0,0,0,0,0,-1,594,904,-35.3048,-4.12487
-623,120,-35.075,4.09314,-0.00836695,-0.012226,0.000265826,-0.00834873,-0.0122442,0.0684533,0.00722337,0.0121614,601,904,-35.075,-4.09311
-616,120,-35.1149,3.63959,-0.00677627,-0.00501836,0.000723819,-0.00475868,-0.00703594,1.22634,0.00414556,0.0104795,608,904,-35.1149,-3.6396
-609,120,-35.1238,3.15912,-0.00548437,-0.000753932,0.00155664,-0.00028765,-0.00595065,1.27976,0.00387478,0.0134838,615,904,-35.1238,-3.15913
-602,120,-35.1293,2.68378,-0.00520532,0.000811309,0.0017684,0.00129258,-0.00568659,1.30508,0.00428737,0.0158757,622,904,-35.1293,-2.68379
-595,120,-35.0837,2.25806,-0.00505196,0.000465871,0.00159524,0.000893868,-0.00547996,1.30867,0.00398482,0.0309719,629,904,-35.0837,-2.25808
-588,120,-35.0537,1.63971,-0.00484843,-0.000223475,0.00113703,4.09421e-05,-0.00511285,1.34231,0.00342229,0.041534,636,904,-35.0537,-1.63968
-581,120,-34.7573,0.860901,0,0,0,0,0,0,0,-1,643,904,-34.7572,-0.860874
-574,120,-27.5438,0.505066,0,0,0,0,0,0,0,-1,650,904,-27.5438,-0.505085
-567,120,-25.2822,-0.410645,0,0,0,0,0,0,0,-1,657,904,-25.2821,0.410629
-560,120,-27.3358,1.10327,0,0,0,0,0,0,0,-1,664,904,-27.3358,-1.10324
-553,120,-39.7466,1.00623,0,0,0,0,0,0,0,-1,671,904,-39.7466,-1.0062
-546,120,-39.7624,0.934814,-0.00109586,-0.00068543,0.000108457,-0.000658532,-0.00112275,1.3277,0.00065145,0.0309765,678,904,-39.7624,-0.934818
-539,120,-39.7455,0.819092,7.6374e-05,-0.000405696,9.55913e-05,9.46373e-05,-0.000423959,0.18878,0.000318901,0.0254948,685,904,-39.7455,-0.819092
-532,120,-39.7233,0.773071,0.00182012,-7.06681e-05,0.000328052,0.00187542,-0.000125968,0.167,0.00129432,0.0275417,692,904,-39.7233,-0.773071
-525,120,-39.787,0.881409,0.00400831,-5.78272e-05,0.00112522,0.00429892,-0.000348437,0.252747,0.00298887,0.0341645,699,904,-39.787,-0.881437
-518,120,-39.7946,1.07684,0.00568802,-0.000516009,0.00205759,0.00630839,-0.00113639,0.292837,0.0046311,0.0400914,706,904,-39.7945,-1.07686
-511,120,-39.7731,0.941833,0.00814726,-0.000900092,0.00334266,0.00924826,-0.00200109,0.318188,0.00692953,0.0403862,713,904,-39.7731,-0.941827
-504,120,0,0,0,0,0,0,0,0,0,-1,720,904,0,0
-497,120,0,0,0,0,0,0,0,0,0,-1,727,904,0,0
-490,120,0,0,0,0,0,0,0,0,0,-1,734,904,0,0
-483,120,0,0,0,0,0,0,0,0,0,-1,741,904,0,0
-476,120,0,0,0,0,0,0,0,0,0,-1,748,904,0,0
-469,120,0,0,0,0,0,0,0,0,0,-1,755,904,0,0
-462,120,0,0,0,0,0,0,0,0,0,-1,762,904,0,0
-455,120,0,0,0,0,0,0,0,0,0,-1,769,904,0,0
-448,120,0,0,0,0,0,0,0,0,0,-1,776,904,0,0
-441,120,0,0,0,0,0,0,0,0,0,-1,783,904,0,0
-434,120,0,0,0,0,0,0,0,0,0,-1,790,904,0,0
-427,120,0,0,0,0,0,0,0,0,0,-1,797,904,0,0
-420,120,0,0,0,0,0,0,0,0,0,-1,804,904,0,0
-413,120,0,0,0,0,0,0,0,0,0,-1,811,904,0,0
-406,120,0,0,0,0,0,0,0,0,0,-1,818,904,0,0
-399,120,0,0,0,0,0,0,0,0,0,-1,825,904,0,0
-392,120,0,0,0,0,0,0,0,0,0,-1,832,904,0,0
-385,120,0,0,0,0,0,0,0,0,0,-1,839,904,0,0
-378,120,0,0,0,0,0,0,0,0,0,-1,846,904,0,0
-371,120,0,0,0,0,0,0,0,0,0,-1,853,904,0,0
-364,120,0,0,0,0,0,0,0,0,0,-1,860,904,0,0
-357,120,0,0,0,0,0,0,0,0,0,-1,867,904,0,0
-350,120,0,0,0,0,0,0,0,0,0,-1,874,904,0,0
-343,120,0,0,0,0,0,0,0,0,0,-1,881,904,0,0
-336,120,0,0,0,0,0,0,0,0,0,-1,888,904,0,0
-329,120,0,0,0,0,0,0,0,0,0,-1,895,904,0,0
-322,120,0,0,0,0,0,0,0,0,0,-1,902,904,0,0
-315,120,0,0,0,0,0,0,0,0,0,-1,909,904,0,0
-308,120,0,0,0,0,0,0,0,0,0,-1,916,904,0,0
-301,120,0,0,0,0,0,0,0,0,0,-1,923,904,0,0
-294,120,0,0,0,0,0,0,0,0,0,-1,930,904,0,0
-287,120,0,0,0,0,0,0,0,0,0,-1,937,904,0,0
-280,120,0,0,0,0,0,0,0,0,0,-1,944,904,0,0
-273,120,0,0,0,0,0,0,0,0,0,-1,951,904,0,0
-266,120,0,0,0,0,0,0,0,0,0,-1,958,904,0,0
-259,120,0,0,0,0,0,0,0,0,0,-1,965,904,0,0
-252,120,0,0,0,0,0,0,0,0,0,-1,972,904,0,0
-245,120,0,0,0,0,0,0,0,0,0,-1,979,904,0,0
-238,120,0,0,0,0,0,0,0,0,0,-1,986,904,0,0
-231,120,0,0,0,0,0,0,0,0,0,-1,993,904,0,0
-224,120,0,0,0,0,0,0,0,0,0,-1,1000,904,0,0
-217,120,0,0,0,0,0,0,0,0,0,-1,1007,904,0,0
-210,120,0,0,0,0,0,0,0,0,0,-1,1014,904,0,0
-203,120,0,0,0,0,0,0,0,0,0,-1,1021,904,0,0
-196,120,0,0,0,0,0,0,0,0,0,-1,1028,904,0,0
-189,120,0,0,0,0,0,0,0,0,0,-1,1035,904,0,0
-182,120,0,0,0,0,0,0,0,0,0,-1,1042,904,0,0
-175,120,0,0,0,0,0,0,0,0,0,-1,1049,904,0,0
-168,120,0,0,0,0,0,0,0,0,0,-1,1056,904,0,0
-161,120,0,0,0,0,0,0,0,0,0,-1,1063,904,0,0
-154,120,0,0,0,0,0,0,0,0,0,-1,1070,904,0,0
-147,120,0,0,0,0,0,0,0,0,0,-1,1077,904,0,0
-140,120,0,0,0,0,0,0,0,0,0,-1,1084,904,0,0
-133,120,0,0,0,0,0,0,0,0,0,-1,1091,904,0,0
-126,120,0,0,0,0,0,0,0,0,0,-1,1098,904,0,0
-119,120,0,0,0,0,0,0,0,0,0,-1,1105,904,0,0
-112,120,0,0,0,0,0,0,0,0,0,-1,1112,904,0,0
-105,120,0,0,0,0,0,0,0,0,0,-1,1119,904,0,0
-98,120,0,0,0,0,0,0,0,0,0,-1,1126,904,0,0
-91,120,0,0,0,0,0,0,0,0,0,-1,1133,904,0,0
-84,120,0,0,0,0,0,0,0,0,0,-1,1140,904,0,0
-77,120,0,0,0,0,0,0,0,0,0,-1,1147,904,0,0
-70,120,0,0,0,0,0,0,0,0,0,-1,1154,904,0,0
-63,120,0,0,0,0,0,0,0,0,0,-1,1161,904,0,0
-56,120,0,0,0,0,0,0,0,0,0,-1,1168,904,0,0
-49,120,0,0,0,0,0,0,0,0,0,-1,1175,904,0,0
-42,120,0,0,0,0,0,0,0,0,0,-1,1182,904,0,0
-35,120,0,0,0,0,0,0,0,0,0,-1,1189,904,0,0
-28,120,0,0,0,0,0,0,0,0,0,-1,1196,904,0,0
-21,120,0,0,0,0,0,0,0,0,0,-1,1203,904,0,0
-14,120,0,0,0,0,0,0,0,0,0,-1,1210,904,0,0
-7,120,0,0,0,0,0,0,0,0,0,-1,1217,904,0,0
0,120,0,0,0,0,0,0,0,0,0,-1,1224,904,0,0
7,120,0,0,0,0,0,0,0,0,0,-1,1231,904,0,0
14,120,0,0,0,0,0,0,0,0,0,-1,1238,904,0,0
21,120,0,0,0,0,0,0,0,0,0,-1,1245,904,0,0
28,120,0,0,0,0,0,0,0,0,0,-1,1252,904,0,0
35,120,0,0,0,0,0,0,0,0,0,-1,1259,904,0,0
42,120,0,0,0,0,0,0,0,0,0,-1,1266,904,0,0
49,120,0,0,0,0,0,0,0,0,0,-1,1273,904,0,0
56,120,0,0,0,0,0,0,0,0,0,-1,1280,904,0,0
63,120,0,0,0,0,0,0,0,0,0,-1,1287,904,0,0
70,120,0,0,0,0,0,0,0,0,0,-1,1294,904,0,0
77,120,0,0,0,0,0,0,0,0,0,-1,1301,904,0,0
84,120,0,0,0,0,0,0,0,0,0,-1,1308,904,0,0
91,120,0,0,0,0,0,0,0,0,0,-1,1315,904,0,0
98,120,0,0,0,0,0,0,0,0,0,-1,1322,904,0,0
105,120,0,0,0,0,0,0,0,0,0,-1,1329,904,0,0
112,120,0,0,0,0,0,0,0,0,0,-1,1336,904,0,0
119,120,0,0,0,0,0,0,0,0,0,-1,1343,904,0,0
126,120,0,0,0,0,0,0,0,0,0,-1,1350,904,0,0
133,120,0,0,0,0,0,0,0,0,0,-1,1357,904,0,0
140,120,0,0,0,0,0,0,0,0,0,-1,1364,904,0,0
147,120,0,0,0,0,0,0,0,0,0,-1,1371,904,0,0
154,120,0,0,0,0,0,0,0,0,0,-1,1378,904,0,0
161,120,0,0,0,0,0,0,0,0,0,-1,1385,904,0,0
168,120,0,0,0,0,0,0,0,0,0,-1,1392,904,0,0
175,120,0,0,0,0,0,0,0,0,0,-1,1399,904,0,0
182,120,0,0,0,0,0,0,0,0,0,-1,1406,904,0,0
189,120,0,0,0,0,0,0,0,0,0,-1,1413,904,0,0
196,120,0,0,0,0,0,0,0,0,0,-1,1420,904,0,0
203,120,0,0,0,0,0,0,0,0,0,-1,1427,904,0,0
210,120,0,0,0,0,0,0,0,0,0,-1,1434,904,0,0
217,120,0,0,0,0,0,0,0,0,0,-1,1441,904,0,0
224,120,0,0,0,0,0,0,0,0,0,-1,1448,904,0,0
231,120,0,0,0,0,0,0,0,0,0,-1,1455,904,0,0
238,120,0,0,0,0,0,0,0,0,0,-1,1462,904,0,0
245,120,0,0,0,0,0,0,0,0,0,-1,1469,904,0,0
252,120,0,0,0,0,0,0,0,0,0,-1,1476,904,0,0
259,120,0,0,0,0,0,0,0,0,0,-1,1483,904,0,0
266,120,0,0,0,0,0,0,0,0,0,-1,1490,904,0,0
273,120,0,0,0,0,0,0,0,0,0,-1,1497,904,0,0
280,120,0,0,0,0,0,0,0,0,0,-1,1504,904,0,0
287,120,0,0,0,0,0,0,0,0,0,-1,1511,904,0,0
294,120,0,0,0,0,0,0,0,0,0,-1,1518,904,0,0
301,120,0,0,0,0,0,0,0,0,0,-1,1525,904,0,0
308,120,0,0,0,0,0,0,0,0,0,-1,1532,904,0,0
315,120,0,0,0,0,0,0,0,0,0,-1,1539,904,0,0
322,120,0,0,0,0,0,0,0,0,0,-1,1546,904,0,0
329,120,0,0,0,0,0,0,0,0,0,-1,1553,904,0,0
336,120,0,0,0,0,0,0,0,0,0,-1,1560,904,0,0
343,120,0,0,0,0,0,0,0,0,0,-1,1567,904,0,0
350,120,0,0,0,0,0,0,0,0,0,-1,1574,904,0,0
357,120,0,0,0,0,0,0,0,0,0,-1,1581,904,0,0
364,120,0,0,0,0,0,0,0,0,0,-1,1588,904,0,0
371,120,0,0,0,0,0,0,0,0,0,-1,1595,904,0,0
378,120,0,0,0,0,0,0,0,0,0,-1,1602,904,0,0
385,120,0,0,0,0,0,0,0,0,0,-1,1609,904,0,0
392,120,0,0,0,0,0,0,0,0,0,-1,1616,904,0,0
399,120,0,0,0,0,0,0,0,0,0,-1,1623,904,0,0
406,120,0,0,0,0,0,0,0,0,0,-1,1630,904,0,0
413,120,0,0,0,0,0,0,0,0,0,-1,1637,904,0,0
420,120,0,0,0,0,0,0,0,0,0,-1,1644,904,0,0
427,120,0,0,0,0,0,0,0,0,0,-1,1651,904,0,0
434,120,0,0,0,0,0,0,0,0,0,-1,1658,904,0,0
441,120,0,0,0,0,0,0,0,0,0,-1,1665,904,0,0
448,120,0,0,0,0,0,0,0,0,0,-1,1672,904,0,0
455,120,0,0,0,0,0,0,0,0,0,-1,1679,904,0,0
462,120,0,0,0,0,0,0,0,0,0,-1,1686,904,0,0
469,120,0,0,0,0,0,0,0,0,0,-1,1693,904,0,0
476,120,0,0,0,0,0,0,0,0,0,-1,1700,904,0,0
483,120,0,0,0,0,0,0,0,0,0,-1,1707,904,0,0
490,120,0,0,0,0,0,0,0,0,0,-1,1714,904,0,0
497,120,0,0,0,0,0,0,0,0,0,-1,1721,904,0,0
504,120,0,0,0,0,0,0,0,0,0,-1,1728,904,0,0
511,120,0,0,0,0,0,0,0,0,0,-1,1735,904,0,0
518,120,0,0,0,0,0,0,0,0,0,-1,1742,904,0,0
525,120,0,0,0,0,0,0,0,0,0,-1,1749,904,0,0
532,120,0,0,0,0,0,0,0,0,0,-1,1756,904,0,0
539,120,0,0,0,0,0,0,0,0,0,-1,1763,904,0,0
546,120,0,0,0,0,0,0,0,0,0,-1,1770,904,0,0
553,120,0,0,0,0,0,0,0,0,0,-1,1777,904,0,0
560,120,0,0,0,0,0,0,0,0,0,-1,1784,904,0,0
567,120,0,0,0,0,0,0,0,0,0,-1,1791,904,0,0
574,120,0,0,0,0,0,0,0,0,0,-1,1798,904,0,0
581,120,0,0,0,0,0,0,0,0,0,-1,1805,904,0,0
588,120,0,0,0,0,0,0,0,0,0,-1,1812,904,0,0
595,120,0,0,0,0,0,0,0,0,0,-1,1819,904,0,0
602,120,0,0,0,0,0,0,0,0,0,-1,1826,904,0,0
609,120,0,0,0,0,0,0,0,0,0,-1,1833,904,0,0
616,120,0,0,0,0,0,0,0,0,0,-1,1840,904,0,0
623,120,0,0,0,0,0,0,0,0,0,-1,1847,904,0,0
630,120,53.0292,2.81531,0.0117152,-0.000462732,-0.00619232,0.0143107,-0.00305825,-0.396907,0.0107065,0.0397437,1854,904,53.0292,-2.81531
637,120,53.1813,2.19543,0.00790907,0.000154931,-0.00503316,0.0103853,-0.00232129,-0.457213,0.0078131,0.0411892,1861,904,53.1812,-2.19545
644,120,53.2922,2.56274,0.00489262,0.000463513,-0.00389218,0.00715616,-0.00180002,-0.526751,0.0054704,0.03952,1868,904,53.2922,-2.56277
651,120,53.0919,2.69403,0.00256435,0.000629136,-0.00285099,0.00460746,-0.00141397,-0.621801,0.0036358,0.0423683,1875,904,53.092,-2.69403
658,120,53.0181,2.76947,0.00107059,0.0006302,-0.00193261,0.00279551,-0.00109472,-0.728675,0.00231647,0.0416226,1882,904,53.0181,-2.76948
665,120,53.0293,2.7027,0.000381412,0.000567479,-0.00122577,0.00170374,-0.000754848,-0.823275,0.00145428,0.0375521,1889,904,53.0293,-2.70271
672,120,53.1174,2.48401,0.000122163,0.000378382,-0.000725366,0.000986864,-0.000486319,-0.872804,0.000866753,0.0362838,1896,904,53.1175,-2.484
679,120,53.1215,2.49615,8.63593e-05,0.000217243,-0.000439587,0.000596233,-0.000292631,-0.859291,0.000523069,0.0310291,1903,904,53.1214,-2.49614
686,120,53.0674,2.62207,-0.000149755,6.54631e-05,-0.000201779,0.000186534,-0.000270826,-1.03036,0.000265548,0.0267319,1910,904,53.0674,-2.62209
693,120,53.0005,2.73206,0,0,0,0,0,0,0,-1,1917,904,53.0005,-2.73208
700,120,42.2007,3.00946,0,0,0,0,0,0,0,-1,1924,904,42.2007,-3.00944
707,120,47.0444,3.04944,0,0,0,0,0,0,0,-1,1931,904,47.0444,-3.04941
714,120,47.3915,3.81256,5.58441e-05,0.00032703,-0.000294118,0.000515305,-0.000132431,-1.00139,0.000395149,0.02276,1938,904,47.3915,-3.81256
721,120,47.3658,4.34119,-0.000339727,0.000623461,-0.000501045,0.000836834,-0.0005531,-1.1682,0.000808033,0.0185112,1945,904,47.3659,-4.34119
728,120,47.2765,4.87024,-0.000936957,0.00136612,-0.000799388,0.00161639,-0.00118723,-1.26739,0.00162498,0.0127959,1952,904,47.2765,-4.87025
735,120,47.2408,5.33612,-0.00159115,0.00239634,-0.00121595,0.00273788,-0.00193269,-1.29697,0.00270988,0.0135251,1959,904,47.2408,-5.3361
742,120,47.2133,5.88239,-0.00298094,0.00413041,-0.00256513,0.0049591,-0.00380964,-1.25832,0.00507711,0.0151828,1966,904,47.2133,-5.88236
749,120,47.1929,6.36578,-0.00518868,0.00651102,-0.00525129,0.00852226,-0.00719992,-1.20503,0.0090879,0.0119624,1973,904,47.1928,-6.36576
756,120,47.1189,6.86298,-0.00772229,0.00927929,-0.00854788,0.0128338,-0.0112768,-1.17672,0.0139299,0.0141123,1980,904,47.1189,-6.86297
763,120,46.9924,7.37213,-0.0109914,0.0122814,-0.0136491,0.018581,-0.0172911,-1.13838,0.0207153,0.028697,1987,904,46.9924,-7.37213
770,120,46.8939,7.92511,0,0,0,0,0,0,0,-1,1994,904,46.8939,-7.92508
777,120,41.3512,6.78638,0,0,0,0,0,0,0,-1,2001,904,41.3512,-6.78635
784,120,43.5239,5.77271,0,0,0,0,0,0,0,-1,2008,904,43.524,-5.77269
791,120,41.957,6.00659,0,0,0,0,0,0,0,-1,2015,904,41.957,-6.00662
798,120,42.4553,5.6944,0,0,0,0,0,0,0,-1,2022,904,42.4552,-5.69439
805,120,0,0,0,0,0,0,0,0,0,-1,2029,904,0,0
812,120,0,0,0,0,0,0,0,0,0,-1,2036,904,0,0
-700,113,0,0,0,0,0,0,0,0,0,-1,524,911,0,0
-693,113,0,0,0,0,0,0,0,0,0,-1,531,911,0,0
-686,113,0,0,0,0,0,0,0,0,0,-1,538,911,0,0
-679,113,-38.3324,0.225281,-0.0154613,-0.0757807,0.00275725,-0.0153355,-0.0759065,0.045584,0.0463461,0.044442,545,911,-38.3324,-0.225305
-672,113,-38.3147,1.30341,-0.01735,-0.0693424,0.000265202,-0.0173487,-0.0693437,0.00510061,0.041668,0.0466664,552,911,-38.3147,-1.30341
-665,113,-37.8262,2.39917,0,0,0,0,0,0,0,-1,559,911,-37.8262,-2.39914
-658,113,-37.3701,3.21582,0,0,0,0,0,0,0,-1,566,911,-37.3701,-3.21583
-651,113,-37.0765,4.11206,0,0,0,0,0,0,0,-1,573,911,-37.0765,-4.11204
-644,113,-35.7364,5.34393,0,0,0,0,0,0,0,-1,580,911,-35.7364,-5.34393
-637,113,-35.6824,4.87042,-0.0119934,-0.0215357,-1.95602e-05,-0.0119933,-0.0215357,-0.00204983,0.0124605,0.0441971,587,911,-35.6824,-4.87041
-630,113,-35.524,4.51166,-0.0104189,-0.0143199,0.00030602,-0.010395,-0.0143437,0.0778128,0.00855558,0.021276,594,911,-35.524,-4.51164
-623,113,-35.6114,4.07526,-0.00913335,-0.00796644,0.000875811,-0.00749754,-0.00960226,1.07923,0.00582802,0.0125947,601,911,-35.6114,-4.07529
-616,113,-35.6289,3.63477,-0.00758669,-0.00246884,0.00102218,-0.00227223,-0.00778329,1.38078,0.00462156,0.0105208,608,911,-35.6289,-3.63476
-609,113,-35.6209,3.18665,-0.00651824,6.98852e-05,0.00146144,0.000379523,-0.00682788,1.36201,0.00468355,0.0108884,615,911,-35.6209,-3.18662
-602,113,-35.6222,2.68262,-0.00649484,0.000800457,0.00143016,0.0010708,-0.00676518,1.38397,0.00490616,0.0184978,622,911,-35.6222,-2.6826
-595,113,-35.6617,2.3233,-0.00656927,0.000219513,0.00109569,0.000391973,-0.00674173,1.41468,0.00463068,0.0263763,629,911,-35.6617,-2.32332
-588,113,-35.616,1.83734,-0.00649679,-0.000483615,0.000547501,-0.000434172,-0.00654624,1.48073,0.00422687,0.031042,636,911,-35.6159,-1.83732
-581,113,-35.6697,1.36005,-0.00624545,-0.000616586,0.000254231,-0.000605127,-0.00625691,1.52575,0.00398491,0.0322597,643,911,-35.6697,-1.36004
-574,113,-35.6766,0.695129,0,0,0,0,0,0,0,-1,650,911,-35.6766,-0.695136
-567,113,-21.8396,0.437378,0,0,0,0,0,0,0,-1,657,911,-21.8396,-0.437351
-560,113,-39.7872,0.893311,0,0,0,0,0,0,0,-1,664,911,-39.7872,-0.89331
-553,113,-39.7981,0.926758,-0.00344436,-0.001099,-0.000215355,-0.00107939,-0.00346397,-1.47999,0.0020467,0.0410225,671,911,-39.7981,-0.926744
-546,113,-39.7875,0.936646,-0.00256834,-0.000795275,-0.000258752,-0.000758286,-0.00260533,-1.42881,0.00154735,0.035162,678,911,-39.7876,-0.936656
-539,113,-39.7219,0.870361,-0.00092218,-0.000306804,3.03766e-05,-0.000305308,-0.000923676,1.52159,0.000543398,0.0360324,685,911,-39.7219,-0.870381
-532,113,-39.7066,0.581604,0.0016658,0.00027757,0.000798639,0.0020298,-8.64365e-05,0.427653,0.00138291,0.0375816,692,911,-39.7066,-0.581634
-525,113,-39.8016,0.656311,0.00496641,0.000669469,0.00233409,0.00599031,-0.000354423,0.413391,0.00411677,0.0360631,699,911,-39.8016,-0.656325
-518,113,-39.8448,0.788208,0.00716459,0.000603709,0.00388896,0.00897191,-0.00120361,0.435036,0.00642019,0.0405304,706,911,-39.8448,-0.788221
-511,113,-39.9228,0.780273,0.0101441,0.000601532,0.00559927,0.0127292,-0.00198361,0.432535,0.00921876,0.0420807,713,911,-39.9228,-0.780267
-504,113,0,0,0,0,0,0,0,0,0,-1,720,911,0,0
-497,113,0,0,0,0,0,0,0,0,0,-1,727,911,0,0
-490,113,0,0,0,0,0,0,0,0,0,-1,734,911,0,0
-483,113,0,0,0,0,0,0,0,0,0,-1,741,911,0,0
-476,113,0,0,0,0,0,0,0,0,0,-1,748,911,0,0
-469,113,0,0,0,0,0,0,0,0,0,-1,755,911,0,0
-462,113,0,0,0,0,0,0,0,0,0,-1,762,911,0,0
-455,113,0,0,0,0,0,0,0,0,0,-1,769,911,0,0
-448,113,0,0,0,0,0,0,0,0,0,-1,776,911,0,0
-441,113,0,0,0,0,0,0,0,0,0,-1,783,911,0,0
-434,113,0,0,0,0,0,0,0,0,0,-1,790,911,0,0
-427,113,0,0,0,0,0,0,0,0,0,-1,797,911,0,0
-420,113,0,0,0,0,0,0,0,0,0,-1,804,911,0,0
-413,113,0,0,0,0,0,0,0,0,0,-1,811,911,0,0
-406,113,0,0,0,0,0,0,0,0,0,-1,818,911,0,0
-399,113,0,0,0,0,0,0,0,0,0,-1,825,911,0,0
-392,113,0,0,0,0,0,0,0,0,0,-1,832,911,0,0
-385,113,0,0,0,0,0,0,0,0,0,-1,839,911,0,0
-378,113,0,0,0,0,0,0,0,0,0,-1,846,911,0,0
-371,113,0,0,0,0,0,0,0,0,0,-1,853,911,0,0
-364,113,0,0,0,0,0,0,0,0,0,-1,860,911,0,0
-357,113,0,0,0,0,0,0,0,0,0,-1,867,911,0,0
-350,113,0,0,0,0,0,0,0,0,0,-1,874,911,0,0
-343,113,0,0,0,0,0,0,0,0,0,-1,881,911,0,0
-336,113,0,0,0,0,0,0,0,0,0,-1,888,911,0,0
-329,113,0,0,0,0,0,0,0,0,0,-1,895,911,0,0
-322,113,0,0,0,0,0,0,0,0,0,-1,902,911,0,0
-315,113,0,0,0,0,0,0,0,0,0,-1,909,911,0,0
-308,113,0,0,0,0,0,0,0,0,0,-1,916,911,0,0
-301,113,0,0,0,0,0,0,0,0,0,-1,923,911,0,0
-294,113,0,0,0,0,0,0,0,0,0,-1,930,911,0,0
-287,113,0,0,0,0,0,0,0,0,0,-1,937,911,0,0
-280,113,0,0,0,0,0,0,0,0,0,-1,944,911,0,0
-273,113,0,0,0,0,0,0,0,0,0,-1,951,911,0,0
-266,113,0,0,0,0,0,0,0,0,0,-1,958,911,0,0
-259,113,0,0,0,0,0,0,0,0,0,-1,965,911,0,0
-252,113,0,0,0,0,0,0,0,0,0,-1,972,911,0,0
-245,113,0,0,0,0,0,0,0,0,0,-1,979,911,0,0
-238,113,0,0,0,0,0,0,0,0,0,-1,986,911,0,0
-231,113,0,0,0,0,0,0,0,0,0,-1,993,911,0,0
-224,113,0,0,0,0,0,0,0,0,0,-1,1000,911,0,0
-217,113,0,0,0,0,0,0,0,0,0,-1,1007,911,0,0
-210,113,0,0,0,0,0,0,0,0,0,-1,1014,911,0,0
-203,113,0,0,0,0,0,0,0,0,0,-1,1021,911,0,0
-196,113,0,0,0,0,0,0,0,0,0,-1,1028,911,0,0
-189,113,0,0,0,0,0,0,0,0,0,-1,1035,911,0,0
-182,113,0,0,0,0,0,0,0,0,0,-1,1042,911,0,0
-175,113,0,0,0,0,0,0,0,0,0,-1,1049,911,0,0
-168,113,0,0,0,0,0,0,0,0,0,-1,1056,911,0,0
-161,113,0,0,0,0,0,0,0,0,0,-1,1063,911,0,0
-154,113,0,0,0,0,0,0,0,0,0,-1,1070,911,0,0
-147,113,0,0,0,0,0,0,0,0,0,-1,1077,911,0,0
-140,113,0,0,0,0,0,0,0,0,0,-1,1084,911,0,0
-133,113,0,0,0,0,0,0,0,0,0,-1,1091,911,0,0
-126,113,0,0,0,0,0,0,0,0,0,-1,1098,911,0,0
-119,113,0,0,0,0,0,0,0,0,0,-1,1105,911,0,0
-112,113,0,0,0,0,0,0,0,0,0,-1,1112,911,0,0
-105,113,0,0,0,0,0,0,0,0,0,-1,1119,911,0,0
-98,113,0,0,0,0,0,0,0,0,0,-1,1126,911,0,0
-91,113,0,0,0,0,0,0,0,0,0,-1,1133,911,0,0
-84,113,0,0,0,0,0,0,0,0,0,-1,1140,911,0,0
-77,113,0,0,0,0,0,0,0,0,0,-1,1147,911,0,0
-70,113,0,0,0,0,0,0,0,0,0,-1,1154,911,0,0
-63,113,0,0,0,0,0,0,0,0,0,-1,1161,911,0,0
-56,113,0,0,0,0,0,0,0,0,0,-1,1168,911,0,0
-49,113,0,0,0,0,0,0,0,0,0,-1,1175,911,0,0
-42,113,0,0,0,0,0,0,0,0,0,-1,1182,911,0,0
-35,113,0,0,0,0,0,0,0,0,0,-1,1189,911,0,0
-28,113,0,0,0,0,0,0,0,0,0,-1,1196,911,0,0
-21,113,0,0,0,0,0,0,0,0,0,-1,1203,911,0,0
-14,113,0,0,0,0,0,0,0,0,0,-1,1210,911,0,0
-7,113,0,0,0,0,0,0,0,0,0,-1,1217,911,0,0
0,113,0,0,0,0,0,0,0,0,0,-1,1224,911,0,0
7,113,0,0,0,0,0,0,0,0,0,-1,1231,911,0,0
14,113,0,0,0,0,0,0,0,0,0,-1,1238,911,0,0
21,113,0,0,0,0,0,0,0,0,0,-1,1245,911,0,0
28,113,0,0,0,0,0,0,0,0,0,-1,1252,911,0,0
35,113,0,0,0,0,0,0,0,0,0,-1,1259,911,0,0
42,113,0,0,0,0,0,0,0,0,0,-1,1266,911,0,0
49,113,0,0,0,0,0,0,0,0,0,-1,1273,911,0,0
56,113,0,0,0,0,0,0,0,0,0,-1,1280,911,0,0
63,113,0,0,0,0,0,0,0,0,0,-1,1287,911,0,0
70,113,0,0,0,0,0,0,0,0,0,-1,1294,911,0,0
77,113,0,0,0,0,0,0,0,0,0,-1,1301,911,0,0
84,113,0,0,0,0,0,0,0,0,0,-1,1308,911,0,0
91,113,0,0,0,0,0,0,0,0,0,-1,1315,911,0,0
98,113,0,0,0,0,0,0,0,0,0,-1,1322,911,0,0
105,113,0,0,0,0,0,0,0,0,0,-1,1329,911,0,0
112,113,0,0,0,0,0,0,0,0,0,-1,1336,911,0,0
119,113,0,0,0,0,0,0,0,0,0,-1,1343,911,0,0
126,113,0,0,0,0,0,0,0,0,0,-1,1350,911,0,0
133,113,0,0,0,0,0,0,0,0,0,-1,1357,911,0,0
140,113,0,0,0,0,0,0,0,0,0,-1,1364,911,0,0
147,113,0,0,0,0,0,0,0,0,0,-1,1371,911,0,0
154,113,0,0,0,0,0,0,0,0,0,-1,1378,911,0,0
161,113,0,0,0,0,0,0,0,0,0,-1,1385,911,0,0
168,113,0,0,0,0,0,0,0,0,0,-1,1392,911,0,0
175,113,0,0,0,0,0,0,0,0,0,-1,1399,911,0,0
182,113,0,0,0,0,0,0,0,0,0,-1,1406,911,0,0
189,113,0,0,0,0,0,0,0,0,0,-1,1413,911,0,0
196,113,0,0,0,0,0,0,0,0,0,-1,1420,911,0,0
203,113,0,0,0,0,0,0,0,0,0,-1,1427,911,0,0
210,113,0,0,0,0,0,0,0,0,0,-1,1434,911,0,0
217,113,0,0,0,0,0,0,0,0,0,-1,1441,911,0,0
224,113,0,0,0,0,0,0,0,0,0,-1,1448,911,0,0
231,113,0,0,0,0,0,0,0,0,0,-1,1455,911,0,0
238,113,0,0,0,0,0,0,0,0,0,-1,1462,911,0,0
245,113,0,0,0,0,0,0,0,0,0,-1,1469,911,0,0
252,113,0,0,0,0,0,0,0,0,0,-1,1476,911,0,0
259,113,0,0,0,0,0,0,0,0,0,-1,1483,911,0,0
266,113,0,0,0,0,0,0,0,0,0,-1,1490,911,0,0
273,113,0,0,0,0,0,0,0,0,0,-1,1497,911,0,0
280,113,0,0,0,0,0,0,0,0,0,-1,1504,911,0,0
287,113,0,0,0,0,0,0,0,0,0,-1,1511,911,0,0
294,113,0,0,0,0,0,0,0,0,0,-1,1518,911,0,0
301,113,0,0,0,0,0,0,0,0,0,-1,1525,911,0,0
308,113,0,0,0,0,0,0,0,0,0,-1,1532,911,0,0
315,113,0,0,0,0,0,0,0,0,0,-1,1539,911,0,0
322,113,0,0,0,0,0,0,0,0,0,-1,1546,911,0,0
329,113,0,0,0,0,0,0,0,0,0,-1,1553,911,0,0
336,113,0,0,0,0,0,0,0,0,0,-1,1560,911,0,0
343,113,0,0,0,0,0,0,0,0,0,-1,1567,911,0,0
350,113,0,0,0,0,0,0,0,0,0,-1,1574,911,0,0
357,113,0,0,0,0,0,0,0,0,0,-1,1581,911,0,0
364,113,0,0,0,0,0,0,0,0,0,-1,1588,911,0,0
371,113,0,0,0,0,0,0,0,0,0,-1,1595,911,0,0
378,113,0,0,0,0,0,0,0,0,0,-1,1602,911,0,0
385,113,0,0,0,0,0,0,0,0,0,-1,1609,911,0,0
392,113,0,0,0,0,0,0,0,0,0,-1,1616,911,0,0
399,113,0,0,0,0,0,0,0,0,0,-1,1623,911,0,0
406,113,0,0,0,0,0,0,0,0,0,-1,1630,911,0,0
413,113,0,0,0,0,0,0,0,0,0,-1,1637,911,0,0
420,113,0,0,0,0,0,0,0,0,0,-1,1644,911,0,0
427,113,0,0,0,0,0,0,0,0,0,-1,1651,911,0,0
434,113,0,0,0,0,0,0,0,0,0,-1,1658,911,0,0
441,113,0,0,0,0,0,0,0,0,0,-1,1665,911,0,0
448,113,0,0,0,0,0,0,0,0,0,-1,1672,911,0,0
455,113,0,0,0,0,0,0,0,0,0,-1,1679,911,0,0
462,113,0,0,0,0,0,0,0,0,0,-1,1686,911,0,0
469,113,0,0,0,0,0,0,0,0,0,-1,1693,911,0,0
476,113,0,0,0,0,0,0,0,0,0,-1,1700,911,0,0
483,113,0,0,0,0,0,0,0,0,0,-1,1707,911,0,0
490,113,0,0,0,0,0,0,0,0,0,-1,1714,911,0,0
497,113,0,0,0,0,0,0,0,0,0,-1,1721,911,0,0
504,113,0,0,0,0,0,0,0,0,0,-1,1728,911,0,0
511,113,0,0,0,0,0,0,0,0,0,-1,1735,911,0,0
518,113,0,0,0,0,0,0,0,0,0,-1,1742,911,0,0
525,113,0,0,0,0,0,0,0,0,0,-1,1749,911,0,0
532,113,0,0,0,0,0,0,0,0,0,-1,1756,911,0,0
539,113,0,0,0,0,0,0,0,0,0,-1,1763,911,0,0
546,113,0,0,0,0,0,0,0,0,0,-1,1770,911,0,0
553,113,0,0,0,0,0,0,0,0,0,-1,1777,911,0,0
560,113,0,0,0,0,0,0,0,0,0,-1,1784,911,0,0
567,113,0,0,0,0,0,0,0,0,0,-1,1791,911,0,0
574,113,0,0,0,0,0,0,0,0,0,-1,1798,911,0,0
581,113,0,0,0,0,0,0,0,0,0,-1,1805,911,0,0
588,113,0,0,0,0,0,0,0,0,0,-1,1812,911,0,0
595,113,0,0,0,0,0,0,0,0,0,-1,1819,911,0,0
602,113,0,0,0,0,0,0,0,0,0,-1,1826,911,0,0
609,113,0,0,0,0,0,0,0,0,0,-1,1833,911,0,0
616,113,0,0,0,0,0,0,0,0,0,-1,1840,911,0,0
623,113,0,0,0,0,0,0,0,0,0,-1,1847,911,0,0
630,113,52.9905,2.7887,0.0114745,0.00132803,-0.00568486,0.0140206,-0.00121815,-0.421095,0.00977847,0.0409358,1854,911,52.9905,-2.78869
637,113,53.198,2.76648,0.00764144,0.00149333,-0.0046182,0.0101151,-0.000980369,-0.491753,0.00709284,0.0411788,1861,911,53.198,-2.76649
644,113,53.2374,2.80322,0.00468223,0.00144178,-0.00356571,0.00697856,-0.000854554,-0.572148,0.00496182,0.0405167,1868,911,53.2374,-2.80321
651,113,53.2202,2.76984,0.00239776,0.00132402,-0.00260564,0.00452127,-0.000799488,-0.683799,0.00331299,0.0422183,1875,911,53.2203,-2.76986
658,113,53.1377,2.61682,0.000877003,0.0011481,-0.00168927,0.00270726,-0.000682148,-0.825434,0.00207003,0.0412683,1882,911,53.1378,-2.61682
665,113,53.1262,2.61414,0.000176356,0.000966551,-0.000927648,0.00157974,-0.000436828,-0.98672,0.00122501,0.0381584,1889,911,53.1262,-2.61416
672,113,53.1029,2.49298,-6.04616e-05,0.000685069,-0.000381492,0.00084568,-0.000221072,-1.17231,0.00065013,0.0387597,1896,911,53.1029,-2.49298
679,113,53.0752,2.41956,-8.20526e-05,0.000417666,-4.80234e-05,0.000422239,-8.66258e-05,-1.47585,0.000314372,0.0333002,1903,911,53.0752,-2.41955
686,113,53.08,2.56866,-0.000266398,0.000195469,0.000186988,0.00026168,-0.000332609,1.23048,0.000343927,0.0264832,1910,911,53.0799,-2.56866
693,113,53.0048,2.68799,0,0,0,0,0,0,0,-1,1917,911,53.0048,-2.68799
700,113,43.897,2.79669,0,0,0,0,0,0,0,-1,1924,911,43.897,-2.79671
707,113,47.7206,3.25391,0,0,0,0,0,0,0,-1,1931,911,47.7206,-3.25394
714,113,47.7896,3.76025,-0.000388204,0.00040702,-5.32917e-05,0.000410575,-0.000391759,-1.50418,0.000463271,0.0247162,1938,911,47.7895,-3.76025
721,113,47.7845,4.27484,-0.000902234,0.000698712,-0.000315258,0.000758555,-0.000962078,-1.3832,0.000995722,0.023561,1945,911,47.7846,-4.27487
728,113,47.8257,4.84888,-0.00160401,0.00140905,-0.000674575,0.00155318,-0.00174814,-1.3603,0.00190712,0.024136,1952,911,47.8256,-4.84885
735,113,47.7639,5.37354,-0.00236142,0.00243886,-0.00119993,0.0027221,-0.00264466,-1.339,0.00309861,0.0203205,1959,911,47.7639,-5.37353
742,113,47.7233,5.84186,-0.00390531,0.00423823,-0.00281243,0.0051151,-0.00478218,-1.26856,0.00571528,0.0126518,1966,911,47.7233,-5.84188
749,113,47.7462,6.34631,-0.00629696,0.00691139,-0.00592048,0.00917667,-0.00856224,-1.20536,0.0102436,0.00976162,1973,911,47.7462,-6.34634
756,113,47.6711,6.87561,-0.00906911,0.0101109,-0.00971698,0.0141733,-0.0131315,-1.17481,0.0157683,0.0139426,1980,911,47.6712,-6.87561
763,113,47.4923,7.46033,-0.0124458,0.0137024,-0.0152742,0.0207339,-0.0194773,-1.13937,0.0232197,0.0309858,1987,911,47.4924,-7.46033
770,113,47.3339,8.05475,0,0,0,0,0,0,0,-1,1994,911,47.3338,-8.05476
777,113,47.5544,8.15887,0,0,0,0,0,0,0,-1,2001,911,47.5545,-8.15885
784,113,42.8354,6.22766,0,0,0,0,0,0,0,-1,2008,911,42.8355,-6.22766
791,113,41.7288,7.26263,0,0,0,0,0,0,0,-1,2015,911,41.7287,-7.26261
798,113,46.2527,8.20587,0,0,0,0,0,0,0,-1,2022,911,46.2528,-8.20587
805,113,0,0,0,0,0,0,0,0,0,-1,2029,911,0,0
812,113,0,0,0,0,0,0,0,0,0,-1,2036,911,0,0
-700,106,0,0,0,0,0,0,0,0,0,-1,524,918,0,0
-693,106,0,0,0,0,0,0,0,0,0,-1,531,918,0,0
-686,106,0,0,0,0,0,0,0,0,0,-1,538,918,0,0
-679,106,-33.5161,6.51978,0,0,0,0,0,0,0,-1,545,918,-33.5161,-6.51977
-672,106,-37.8356,2.36292,-0.0190073,-0.0507936,0.00449236,-0.0183846,-0.0514163,0.137737,0.0300841,0.0471615,552,918,-37.8356,-2.36292
-665,106,-37.8995,3.6745,0,0,0,0,0,0,0,-1,559,918,-37.8995,-3.67448
-658,106,-34.4673,6.97363,0,0,0,0,0,0,0,-1,566,918,-34.4673,-6.97362
-651,106,-35.424,6.28595,0,0,0,0,0,0,0,-1,573,918,-35.4239,-6.28593
-644,106,-35.7173,5.96667,0,0,0,0,0,0,0,-1,580,918,-35.7173,-5.96665
-637,106,-35.7736,5.09247,-0.0129868,-0.013852,0.0016968,-0.0116683,-0.0151705,0.660577,0.00917192,0.0326986,587,918,-35.7735,-5.09249
-630,106,-35.9853,4.58594,-0.0112715,-0.0084644,0.00163598,-0.0077124,-0.0120235,1.13993,0.00703373,0.0152672,594,918,-35.9853,-4.58594
-623,106,-36.1319,4.03589,-0.0098906,-0.00381713,0.00187044,-0.00328731,-0.0104204,1.29477,0.00615129,0.0152366,601,918,-36.1319,-4.0359
-616,106,-36.1656,3.58606,-0.00833328,3.62505e-05,0.00170193,0.000369097,-0.00866613,1.37766,0.0059043,0.0148724,608,918,-36.1656,-3.58605
-609,106,-36.1363,3.17487,-0.00741354,0.00111784,0.00177889,0.0014739,-0.0077696,1.37325,0.00573452,0.0122894,615,918,-36.1363,-3.17486
-602,106,-36.1511,2.70569,-0.0075286,0.00113375,0.00154672,0.00140164,-0.0077965,1.3993,0.00572239,0.0203293,622,918,-36.1511,-2.70569
-595,106,-36.2795,2.28394,-0.00775485,0.000350903,0.00109603,0.000496489,-0.00790044,1.43874,0.00544001,0.0252463,629,918,-36.2795,-2.28394
-588,106,-36.2648,1.8103,-0.00781005,-0.000331824,0.000484604,-0.000300551,-0.00784132,1.50635,0.0051303,0.0291662,636,918,-36.2647,-1.81031
-581,106,-36.0913,1.29474,-0.00762083,-0.000506589,0.000145488,-0.000503615,-0.0076238,1.55036,0.00492326,0.0174243,643,918,-36.0913,-1.29475
-574,106,-36.1024,0.804077,0,0,0,0,0,0,0,-1,650,918,-36.1024,-0.804103
-567,106,-36.2079,0.840881,0,0,0,0,0,0,0,-1,657,918,-36.208,-0.840858
-560,106,-39.7366,0.89679,0,0,0,0,0,0,0,-1,664,918,-39.7366,-0.896798
-553,106,-39.8336,0.886169,-0.00488927,-0.0008454,-0.000346499,-0.000815925,-0.00491875,-1.48594,0.00304386,0.0351089,671,918,-39.8336,-0.886179
-546,106,-39.8729,0.781494,-0.00371828,-0.0004587,-0.000288736,-0.000433321,-0.00374366,-1.48313,0.0023646,0.0376013,678,918,-39.8729,-0.781475
-539,106,-39.8405,0.723877,-0.00153413,0.000130344,0.000154346,0.000144535,-0.00154832,1.47911,0.00108361,0.0410091,685,918,-39.8405,-0.723899
-532,106,-39.869,0.527405,0.0019638,0.000787927,0.00120228,0.0027142,3.75236e-05,0.557987,0.00179709,0.0407681,692,918,-39.869,-0.527412
-525,106,-39.8992,0.578003,0.00637164,0.00136502,0.00309252,0.00784706,-0.000110393,0.445153,0.00526856,0.0385492,699,918,-39.8992,-0.578015
-518,106,-39.801,0.791504,0.00898049,0.00160682,0.0049428,0.01146,-0.000872711,0.464962,0.00794691,0.0390231,706,918,-39.801,-0.791521
-511,106,0,0,0,0,0,0,0,0,0,-1,713,918,0,0
-504,106,0,0,0,0,0,0,0,0,0,-1,720,918,0,0
-497,106,0,0,0,0,0,0,0,0,0,-1,727,918,0,0
-490,106,0,0,0,0,0,0,0,0,0,-1,734,918,0,0
-483,106,0,0,0,0,0,0,0,0,0,-1,741,918,0,0
-476,106,0,0,0,0,0,0,0,0,0,-1,748,918,0,0
-469,106,0,0,0,0,0,0,0,0,0,-1,755,918,0,0
-462,106,0,0,0,0,0,0,0,0,0,-1,762,918,0,0
-455,106,0,0,0,0,0,0,0,0,0,-1,769,918,0,0
-448,106,0,0,0,0,0,0,0,0,0,-1,776,918,0,0
-441,106,0,0,0,0,0,0,0,0,0,-1,783,918,0,0
-434,106,0,0,0,0,0,0,0,0,0,-1,790,918,0,0
-427,106,0,0,0,0,0,0,0,0,0,-1,797,918,0,0
-420,106,0,0,0,0,0,0,0,0,0,-1,804,918,0,0
-413,106,0,0,0,0,0,0,0,0,0,-1,811,918,0,0
-406,106,0,0,0,0,0,0,0,0,0,-1,818,918,0,0
-399,106,0,0,0,0,0,0,0,0,0,-1,825,918,0,0
-392,106,0,0,0,0,0,0,0,0,0,-1,832,918,0,0
-385,106,0,0,0,0,0,0,0,0,0,-1,839,918,0,0
-378,106,0,0,0,0,0,0,0,0,0,-1,846,918,0,0
-371,106,0,0,0,0,0,0,0,0,0,-1,853,918,0,0
-364,106,0,0,0,0,0,0,0,0,0,-1,860,918,0,0
-357,106,0,0,0,0,0,0,0,0,0,-1,867,918,0,0
-350,106,0,0,0,0,0,0,0,0,0,-1,874,918,0,0
-343,106,0,0,0,0,0,0,0,0,0,-1,881,918,0,0
-336,106,0,0,0,0,0,0,0,0,0,-1,888,918,0,0
-329,106,0,0,0,0,0,0,0,0,0,-1,895,918,0,0
-322,106,0,0,0,0,0,0,0,0,0,-1,902,918,0,0
-315,106,0,0,0,0,0,0,0,0,0,-1,909,918,0,0
-308,106,0,0,0,0,0,0,0,0,0,-1,916,918,0,0
-301,106,0,0,0,0,0,0,0,0,0,-1,923,918,0,0
-294,106,0,0,0,0,0,0,0,0,0,-1,930,918,0,0
-287,106,0,0,0,0,0,0,0,0,0,-1,937,918,0,0
-280,106,0,0,0,0,0,0,0,0,0,-1,944,918,0,0
-273,106,0,0,0,0,0,0,0,0,0,-1,951,918,0,0
-266,106,0,0,0,0,0,0,0,0,0,-1,958,918,0,0
-259,106,0,0,0,0,0,0,0,0,0,-1,965,918,0,0
-252,106,0,0,0,0,0,0,0,0,0,-1,972,918,0,0
-245,106,0,0,0,0,0,0,0,0,0,-1,979,918,0,0
-238,106,0,0,0,0,0,0,0,0,0,-1,986,918,0,0
-231,106,0,0,0,0,0,0,0,0,0,-1,993,918,0,0
-224,106,0,0,0,0,0,0,0,0,0,-1,1000,918,0,0
-217,106,0,0,0,0,0,0,0,0,0,-1,1007,918,0,0
-210,106,0,0,0,0,0,0,0,0,0,-1,1014,918,0,0
-203,106,0,0,0,0,0,0,0,0,0,-1,1021,918,0,0
-196,106,0,0,0,0,0,0,0,0,0,-1,1028,918,0,0
-189,106,0,0,0,0,0,0,0,0,0,-1,1035,918,0,0
-182,106,0,0,0,0,0,0,0,0,0,-1,1042,918,0,0
-175,106,0,0,0,0,0,0,0,0,0,-1,1049,918,0,0
-168,106,0,0,0,0,0,0,0,0,0,-1,1056,918,0,0
-161,106,0,0,0,0,0,0,0,0,0,-1,1063,918,0,0
-154,106,0,0,0,0,0,0,0,0,0,-1,1070,918,0,0
-147,106,0,0,0,0,0,0,0,0,0,-1,1077,918,0,0
-140,106,0,0,0,0,0,0,0,0,0,-1,1084,918,0,0
-133,106,0,0,0,0,0,0,0,0,0,-1,1091,918,0,0
-126,106,0,0,0,0,0,0,0,0,0,-1,1098,918,0,0
-119,106,0,0,0,0,0,0,0,0,0,-1,1105,918,0,0
-112,106,0,0,0,0,0,0,0,0,0,-1,1112,918,0,0
-105,106,0,0,0,0,0,0,0,0,0,-1,1119,918,0,0
-98,106,0,0,0,0,0,0,0,0,0,-1,1126,918,0,0
-91,106,0,0,0,0,0,0,0,0,0,-1,1133,918,0,0
-84,106,0,0,0,0,0,0,0,0,0,-1,1140,918,0,0
-77,106,0,0,0,0,0,0,0,0,0,-1,1147,918,0,0
-70,106,0,0,0,0,0,0,0,0,0,-1,1154,918,0,0
-63,106,0,0,0,0,0,0,0,0,0,-1,1161,918,0,0
-56,106,0,0,0,0,0,0,0,0,0,-1,1168,918,0,0
-49,106,0,0,0,0,0,0,0,0,0,-1,1175,918,0,0
-42,106,0,0,0,0,0,0,0,0,0,-1,1182,918,0,0
-35,106,0,0,0,0,0,0,0,0,0,-1,1189,918,0,0
-28,106,0,0,0,0,0,0,0,0,0,-1,1196,918,0,0
-21,106,0,0,0,0,0,0,0,0,0,-1,1203,918,0,0
-14,106,0,0,0,0,0,0,0,0,0,-1,1210,918,0,0
-7,106,0,0,0,0,0,0,0,0,0,-1,1217,918,0,0
0,106,0,0,0,0,0,0,0,0,0,-1,1224,918,0,0
7,106,0,0,0,0,0,0,0,0,0,-1,1231,918,0,0
14,106,0,0,0,0,0,0,0,0,0,-1,1238,918,0,0
21,106,0,0,0,0,0,0,0,0,0,-1,1245,918,0,0
28,106,0,0,0,0,0,0,0,0,0,-1,1252,918,0,0
35,106,0,0,0,0,0,0,0,0,0,-1,1259,918,0,0
42,106,0,0,0,0,0,0,0,0,0,-1,1266,918,0,0
49,106,0,0,0,0,0,0,0,0,0,-1,1273,918,0,0
56,106,0,0,0,0,0,0,0,0,0,-1,1280,918,0,0
63,106,0,0,0,0,0,0,0,0,0,-1,1287,918,0,0
70,106,0,0,0,0,0,0,0,0,0,-1,1294,918,0,0
77,106,0,0,0,0,0,0,0,0,0,-1,1301,918,0,0
84,106,0,0,0,0,0,0,0,0,0,-1,1308,918,0,0
91,106,0,0,0,0,0,0,0,0,0,-1,1315,918,0,0
98,106,0,0,0,0,0,0,0,0,0,-1,1322,918,0,0
105,106,0,0,0,0,0,0,0,0,0,-1,1329,918,0,0
112,106,0,0,0,0,0,0,0,0,0,-1,1336,918,0,0
119,106,0,0,0,0,0,0,0,0,0,-1,1343,918,0,0
126,106,0,0,0,0,0,0,0,0,0,-1,1350,918,0,0
133,106,0,0,0,0,0,0,0,0,0,-1,1357,918,0,0
140,106,0,0,0,0,0,0,0,0,0,-1,1364,918,0,0
147,106,0,0,0,0,0,0,0,0,0,-1,1371,918,0,0
154,106,0,0,0,0,0,0,0,0,0,-1,1378,918,0,0
161,106,0,0,0,0,0,0,0,0,0,-1,1385,918,0,0
168,106,0,0,0,0,0,0,0,0,0,-1,1392,918,0,0
175,106,0,0,0,0,0,0,0,0,0,-1,1399,918,0,0
182,106,0,0,0,0,0,0,0,0,0,-1,1406,918,0,0
189,106,0,0,0,0,0,0,0,0,0,-1,1413,918,0,0
196,106,0,0,0,0,0,0,0,0,0,-1,1420,918,0,0
203,106,0,0,0,0,0,0,0,0,0,-1,1427,918,0,0
210,106,0,0,0,0,0,0,0,0,0,-1,1434,918,0,0
217,106,0,0,0,0,0,0,0,0,0,-1,1441,918,0,0
224,106,0,0,0,0,0,0,0,0,0,-1,1448,918,0,0
231,106,0,0,0,0,0,0,0,0,0,-1,1455,918,0,0
238,106,0,0,0,0,0,0,0,0,0,-1,1462,918,0,0
245,106,0,0,0,0,0,0,0,0,0,-1,1469,918,0,0
252,106,0,0,0,0,0,0,0,0,0,-1,1476,918,0,0
259,106,0,0,0,0,0,0,0,0,0,-1,1483,918,0,0
266,106,0,0,0,0,0,0,0,0,0,-1,1490,918,0,0
273,106,0,0,0,0,0,0,0,0,0,-1,1497,918,0,0
280,106,0,0,0,0,0,0,0,0,0,-1,1504,918,0,0
287,106,0,0,0,0,0,0,0,0,0,-1,1511,918,0,0
294,106,0,0,0,0,0,0,0,0,0,-1,1518,918,0,0
301,106,0,0,0,0,0,0,0,0,0,-1,1525,918,0,0
308,106,0,0,0,0,0,0,0,0,0,-1,1532,918,0,0
315,106,0,0,0,0,0,0,0,0,0,-1,1539,918,0,0
322,106,0,0,0,0,0,0,0,0,0,-1,1546,918,0,0
329,106,0,0,0,0,0,0,0,0,0,-1,1553,918,0,0
336,106,0,0,0,0,0,0,0,0,0,-1,1560,918,0,0
343,106,0,0,0,0,0,0,0,0,0,-1,1567,918,0,0
350,106,0,0,0,0,0,0,0,0,0,-1,1574,918,0,0
357,106,0,0,0,0,0,0,0,0,0,-1,1581,918,0,0
364,106,0,0,0,0,0,0,0,0,0,-1,1588,918,0,0
371,106,0,0,0,0,0,0,0,0,0,-1,1595,918,0,0
378,106,0,0,0,0,0,0,0,0,0,-1,1602,918,0,0
385,106,0,0,0,0,0,0,0,0,0,-1,1609,918,0,0
392,106,0,0,0,0,0,0,0,0,0,-1,1616,918,0,0
399,106,0,0,0,0,0,0,0,0,0,-1,1623,918,0,0
406,106,0,0,0,0,0,0,0,0,0,-1,1630,918,0,0
413,106,0,0,0,0,0,0,0,0,0,-1,1637,918,0,0
420,106,0,0,0,0,0,0,0,0,0,-1,1644,918,0,0
427,106,0,0,0,0,0,0,0,0,0,-1,1651,918,0,0
434,106,0,0,0,0,0,0,0,0,0,-1,1658,918,0,0
441,106,0,0,0,0,0,0,0,0,0,-1,1665,918,0,0
448,106,0,0,0,0,0,0,0,0,0,-1,1672,918,0,0
455,106,0,0,0,0,0,0,0,0,0,-1,1679,918,0,0
462,106,0,0,0,0,0,0,0,0,0,-1,1686,918,0,0
469,106,0,0,0,0,0,0,0,0,0,-1,1693,918,0,0
476,106,0,0,0,0,0,0,0,0,0,-1,1700,918,0,0
483,106,0,0,0,0,0,0,0,0,0,-1,1707,918,0,0
490,106,0,0,0,0,0,0,0,0,0,-1,1714,918,0,0
497,106,0,0,0,0,0,0,0,0,0,-1,1721,918,0,0
504,106,0,0,0,0,0,0,0,0,0,-1,1728,918,0,0
511,106,0,0,0,0,0,0,0,0,0,-1,1735,918,0,0
518,106,0,0,0,0,0,0,0,0,0,-1,1742,918,0,0
525,106,0,0,0,0,0,0,0,0,0,-1,1749,918,0,0
532,106,0,0,0,0,0,0,0,0,0,-1,1756,918,0,0
539,106,0,0,0,0,0,0,0,0,0,-1,1763,918,0,0
546,106,0,0,0,0,0,0,0,0,0,-1,1770,918,0,0
553,106,0,0,0,0,0,0,0,0,0,-1,1777,918,0,0
560,106,0,0,0,0,0,0,0,0,0,-1,1784,918,0,0
567,106,0,0,0,0,0,0,0,0,0,-1,1791,918,0,0
574,106,0,0,0,0,0,0,0,0,0,-1,1798,918,0,0
581,106,0,0,0,0,0,0,0,0,0,-1,1805,918,0,0
588,106,0,0,0,0,0,0,0,0,0,-1,1812,918,0,0
595,106,0,0,0,0,0,0,0,0,0,-1,1819,918,0,0
602,106,0,0,0,0,0,0,0,0,0,-1,1826,918,0,0
609,106,0,0,0,0,0,0,0,0,0,-1,1833,918,0,0
616,106,0,0,0,0,0,0,0,0,0,-1,1840,918,0,0
623,106,0,0,0,0,0,0,0,0,0,-1,1847,918,0,0
630,106,52.8975,2.85583,0.0114484,0.00292266,-0.00491076,0.0136884,0.000682636,-0.427954,0.00890677,0.041474,1854,918,52.8975,-2.85586
637,106,53.0674,2.91882,0.00746323,0.00265241,-0.00396325,0.00969392,0.000421727,-0.512649,0.00632672,0.0420598,1861,918,53.0674,-2.91879
644,106,53.2517,2.8421,0.00449607,0.00225917,-0.00303559,0.0066127,0.000142539,-0.608893,0.00436173,0.0386166,1868,918,53.2517,-2.84209
651,106,53.2056,2.82794,0.00226045,0.00188501,-0.00220072,0.00428144,-0.00013598,-0.742851,0.00290068,0.0388267,1875,918,53.2056,-2.82794
658,106,53.1318,2.70294,0.0007459,0.00155041,-0.00135625,0.0025628,-0.000266494,-0.929562,0.00180394,0.0401841,1882,918,53.1319,-2.70294
665,106,53.1393,2.52673,3.15231e-05,0.00126948,-0.000593961,0.00150836,-0.000207359,-1.18841,0.00108134,0.0408129,1889,918,53.1393,-2.52673
672,106,53.0779,2.56732,-0.000219366,0.000916621,-2.41342e-05,0.000917133,-0.000219879,-1.54956,0.000696384,0.0418101,1896,918,53.0779,-2.56732
679,106,53.0613,2.48041,-0.000250708,0.000568682,0.000342784,0.000693169,-0.000375195,1.22244,0.000625861,0.0358671,1903,918,53.0613,-2.48038
686,106,53.1045,2.54486,-0.000384423,0.000292953,0.000552615,0.00060241,-0.00069388,1.06032,0.000749034,0.0280489,1910,918,53.1045,-2.54485
693,106,53.0311,2.67767,-0.000568565,6.93846e-05,0.00059255,0.000423359,-0.000922539,1.03231,0.00079467,0.0338043,1917,918,53.0311,-2.67766
700,106,53.037,2.77429,0,0,0,0,0,0,0,-1,1924,918,53.037,-2.77429
707,106,48.2217,3.21875,0,0,0,0,0,0,0,-1,1931,918,48.2216,-3.21877
714,106,48.3347,3.75787,-0.000587744,0.00050524,0.000174362,0.000532381,-0.000614886,1.41637,0.000662946,0.0397682,1938,918,48.3347,-3.75788
721,106,48.382,4.33337,-0.00113943,0.00082138,-0.000135789,0.000830738,-0.00114879,-1.50198,0.00114779,0.0295639,1945,918,48.3819,-4.33336
728,106,48.4215,4.89783,-0.00183144,0.00152465,-0.000557819,0.00161494,-0.00192173,-1.41033,0.00204445,0.0285298,1952,918,48.4215,-4.8978
735,106,48.3452,5.3866,-0.00249039,0.00258553,-0.00118057,0.00284668,-0.00275153,-1.3531,0.00323228,0.0248475,1959,918,48.3452,-5.38662
742,106,48.2787,5.82843,-0.00385388,0.00437206,-0.00297906,0.00533761,-0.00481943,-1.25737,0.00586671,0.012529,1966,918,48.2787,-5.82846
749,106,48.2673,6.31915,-0.00593386,0.00722749,-0.00635672,0.0097963,-0.00850267,-1.18675,0.0105737,0.00985864,1973,918,48.2673,-6.31913
756,106,48.1992,6.80518,-0.00823138,0.0108454,-0.0105603,0.0155373,-0.0129232,-1.1527,0.0164548,0.0134127,1980,918,48.1992,-6.8052
763,106,48.083,7.38251,-0.011065,0.0149454,-0.0164638,0.022921,-0.0190406,-1.11968,0.024261,0.026636,1987,918,48.083,-7.3825
770,106,47.8679,7.75171,-0.0144758,0.0195224,-0.0248585,0.0326383,-0.0275917,-1.0853,0.0348145,0.0469234,1994,918,47.8679,-7.7517
777,106,47.7454,8.04633,0,0,0,0,0,0,0,-1,2001,918,47.7454,-8.0463
784,106,47.0979,9.35815,0,0,0,0,0,0,0,-1,2008,918,47.0979,-9.35818
791,106,46.7073,9.83844,0,0,0,0,0,0,0,-1,2015,918,46.7073,-9.83841
798,106,47.1345,8.55341,0,0,0,0,0,0,0,-1,2022,918,47.1345,-8.55342
805,106,0,0,0,0,0,0,0,0,0,-1,2029,918,0,0
812,106,0,0,0,0,0,0,0,0,0,-1,2036,918,0,0
-700,99,0,0,0,0,0,0,0,0,0,-1,524,925,0,0
-693,99,0,0,0,0,0,0,0,0,0,-1,531,925,0,0
-686,99,0,0,0,0,0,0,0,0,0,-1,538,925,0,0
-679,99,-34.2079,6.27985,0,0,0,0,0,0,0,-1,545,925,-34.2079,-6.27987
-672,99,-34.2867,6.38788,0,0,0,0,0,0,0,-1,552,925,-34.2867,-6.38788
-665,99,-34.7841,6.24011,0,0,0,0,0,0,0,-1,559,925,-34.7841,-6.24012
-658,99,-35.1658,6.27112,0,0,0,0,0,0,0,-1,566,925,-35.1658,-6.27111
-651,99,-36.1457,6.07062,0,0,0,0,0,0,0,-1,573,925,-36.1457,-6.0706
-644,99,-36.2447,5.50653,-0.0155378,-0.0107022,0.00376336,-0.00864689,-0.0175931,1.07092,0.0101579,0.045931,580,925,-36.2447,-5.50655
-637,99,-36.3779,4.91461,-0.0136565,-0.00618757,0.00337895,-0.00488581,-0.0149582,1.20306,0.0088075,0.0314173,587,925,-36.3779,-4.9146
-630,99,-36.4705,4.54443,-0.0120125,-0.00275249,0.0028435,-0.00194904,-0.012816,1.29542,0.0079741,0.0161517,594,925,-36.4705,-4.54443
-623,99,-36.6423,4.04071,-0.0106273,9.15682e-05,0.00268111,0.000724785,-0.0112606,1.33887,0.00775992,0.0107468,601,925,-36.6423,-4.04073
-616,99,-36.6609,3.59155,-0.00918586,0.00226497,0.00216757,0.00266154,-0.00958243,1.38984,0.00743598,0.0122249,608,925,-36.661,-3.59157
-609,99,-36.646,3.18518,-0.00845759,0.00202909,0.00180659,0.00233159,-0.00876009,1.40489,0.00675279,0.0123103,615,925,-36.646,-3.18517
-602,99,-36.6406,2.78534,-0.00867256,0.00154055,0.00137557,0.00172257,-0.00885459,1.43923,0.00655316,0.0166575,622,925,-36.6405,-2.78531
-595,99,-36.7445,2.37323,-0.00897649,0.000627618,0.000886829,0.00070882,-0.00905769,1.47949,0.00628806,0.0222544,629,925,-36.7445,-2.37325
-588,99,-36.7358,1.90741,-0.00912768,-2.95807e-05,0.000294508,-2.00574e-05,-0.0091372,1.53847,0.00608479,0.0242455,636,925,-36.7358,-1.90744
-581,99,-36.6921,1.34369,-0.00904049,-0.000236039,-5.55076e-05,-0.000235689,-0.00904084,-1.56449,0.00595022,0.0178612,643,925,-36.6921,-1.3437
-574,99,-36.7712,0.796265,0,0,0,0,0,0,0,-1,650,925,-36.7712,-0.796289
-567,99,-37.8295,0.415283,0,0,0,0,0,0,0,-1,657,925,-37.8295,-0.415279
-560,99,-39.6992,0.823914,0,0,0,0,0,0,0,-1,664,925,-39.6992,-0.82391
-553,99,-39.7961,0.795349,-0.00639621,-0.000348275,-0.000481944,-0.000310112,-0.00643438,-1.49177,0.00419004,0.0368631,671,925,-39.7962,-0.795372
-546,99,-39.9264,0.642822,-0.00489,7.61271e-05,-0.000337668,9.89814e-05,-0.00491285,-1.50322,0.00330872,0.0397776,678,925,-39.9264,-0.642816
-539,99,-39.952,0.552002,-0.0021398,0.000644891,0.000221595,0.000662414,-0.00215733,1.49188,0.00170253,0.0394425,685,925,-39.952,-0.552032
-532,99,-40.0744,0.647949,0.0021837,0.00116492,0.00143018,0.0031925,0.000156123,0.614315,0.00207825,0.0426809,692,925,-40.0744,-0.647948
-525,99,-39.9996,0.718018,0.00731177,0.00161854,0.00334505,0.00885748,7.28238e-05,0.432863,0.00588086,0.0427876,699,925,-39.9996,-0.718027
-518,99,-39.7392,0.985474,0.00975222,0.00183154,0.00513051,0.0122731,-0.000689358,0.456707,0.00842127,0.0398914,706,925,-39.7392,-0.985486
-511,99,0,0,0,0,0,0,0,0,0,-1,713,925,0,0
-504,99,0,0,0,0,0,0,0,0,0,-1,720,925,0,0
-497,99,0,0,0,0,0,0,0,0,0,-1,727,925,0,0
-490,99,0,0,0,0,0,0,0,0,0,-1,734,925,0,0
-483,99,0,0,0,0,0,0,0,0,0,-1,741,925,0,0
-476,99,0,0,0,0,0,0,0,0,0,-1,748,925,0,0
-469,99,0,0,0,0,0,0,0,0,0,-1,755,925,0,0
-462,99,0,0,0,0,0,0,0,0,0,-1,762,925,0,0
-455,99,0,0,0,0,0,0,0,0,0,-1,769,925,0,0
-448,99,0,0,0,0,0,0,0,0,0,-1,776,925,0,0
-441,99,0,0,0,0,0,0,0,0,0,-1,783,925,0,0
-434,99,0,0,0,0,0,0,0,0,0,-1,790,925,0,0
-427,99,0,0,0,0,0,0,0,0,0,-1,797,925,0,0
-420,99,0,0,0,0,0,0,0,0,0,-1,804,925,0,0
-413,99,0,0,0,0,0,0,0,0,0,-1,811,925,0,0
-406,99,0,0,0,0,0,0,0,0,0,-1,818,925,0,0
-399,99,0,0,0,0,0,0,0,0,0,-1,825,925,0,0
-392,99,0,0,0,0,0,0,0,0,0,-1,832,925,0,0
-385,99,0,0,0,0,0,0,0,0,0,-1,839,925,0,0
-378,99,0,0,0,0,0,0,0,0,0,-1,846,925,0,0
-371,99,0,0,0,0,0,0,0,0,0,-1,853,925,0,0
-364,99,0,0,0,0,0,0,0,0,0,-1,860,925,0,0
-357,99,0,0,0,0,0,0,0,0,0,-1,867,925,0,0
-350,99,0,0,0,0,0,0,0,0,0,-1,874,925,0,0
-343,99,0,0,0,0,0,0,0,0,0,-1,881,925,0,0
-336,99,0,0,0,0,0,0,0,0,0,-1,888,925,0,0
-329,99,0,0,0,0,0,0,0,0,0,-1,895,925,0,0
-322,99,0,0,0,0,0,0,0,0,0,-1,902,925,0,0
-315,99,0,0,0,0,0,0,0,0,0,-1,909,925,0,0
-308,99,0,0,0,0,0,0,0,0,0,-1,916,925,0,0
-301,99,0,0,0,0,0,0,0,0,0,-1,923,925,0,0
-294,99,0,0,0,0,0,0,0,0,0,-1,930,925,0,0
-287,99,0,0,0,0,0,0,0,0,0,-1,937,925,0,0
-280,99,0,0,0,0,0,0,0,0,0,-1,944,925,0,0
-273,99,0,0,0,0,0,0,0,0,0,-1,951,925,0,0
-266,99,0,0,0,0,0,0,0,0,0,-1,958,925,0,0
-259,99,0,0,0,0,0,0,0,0,0,-1,965,925,0,0
-252,99,0,0,0,0,0,0,0,0,0,-1,972,925,0,0
-245,99,0,0,0,0,0,0,0,0,0,-1,979,925,0,0
-238,99,0,0,0,0,0,0,0,0,0,-1,986,925,0,0
-231,99,0,0,0,0,0,0,0,0,0,-1,993,925,0,0
-224,99,0,0,0,0,0,0,0,0,0,-1,1000,925,0,0
-217,99,0,0,0,0,0,0,0,0,0,-1,1007,925,0,0
-210,99,0,0,0,0,0,0,0,0,0,-1,1014,925,0,0
-203,99,0,0,0,0,0,0,0,0,0,-1,1021,925,0,0
-196,99,0,0,0,0,0,0,0,0,0,-1,1028,925,0,0
-189,99,0,0,0,0,0,0,0,0,0,-1,1035,925,0,0
-182,99,0,0,0,0,0,0,0,0,0,-1,1042,925,0,0
-175,99,0,0,0,0,0,0,0,0,0,-1,1049,925,0,0
-168,99,0,0,0,0,0,0,0,0,0,-1,1056,925,0,0
-161,99,0,0,0,0,0,0,0,0,0,-1,1063,925,0,0
-154,99,0,0,0,0,0,0,0,0,0,-1,1070,925,0,0
-147,99,0,0,0,0,0,0,0,0,0,-1,1077,925,0,0
-140,99,0,0,0,0,0,0,0,0,0,-1,1084,925,0,0
-133,99,0,0,0,0,0,0,0,0,0,-1,1091,925,0,0
-126,99,0,0,0,0,0,0,0,0,0,-1,1098,925,0,0
-119,99,0,0,0,0,0,0,0,0,0,-1,1105,925,0,0
-112,99,0,0,0,0,0,0,0,0,0,-1,1112,925,0,0
-105,99,0,0,0,0,0,0,0,0,0,-1,1119,925,0,0
-98,99,0,0,0,0,0,0,0,0,0,-1,1126,925,0,0
-91,99,0,0,0,0,0,0,0,0,0,-1,1133,925,0,0
-84,99,0,0,0,0,0,0,0,0,0,-1,1140,925,0,0
-77,99,0,0,0,0,0,0,0,0,0,-1,1147,925,0,0
-70,99,0,0,0,0,0,0,0,0,0,-1,1154,925,0,0
-63,99,0,0,0,0,0,0,0,0,0,-1,1161,925,0,0
-56,99,0,0,0,0,0,0,0,0,0,-1,1168,925,0,0
-49,99,0,0,0,0,0,0,0,0,0,-1,1175,925,0,0
-42,99,0,0,0,0,0,0,0,0,0,-1,1182,925,0,0
-35,99,0,0,0,0,0,0,0,0,0,-1,1189,925,0,0
-28,99,0,0,0,0,0,0,0,0,0,-1,1196,925,0,0
-21,99,0,0,0,0,0,0,0,0,0,-1,1203,925,0,0
-14,99,0,0,0,0,0,0,0,0,0,-1,1210,925,0,0
-7,99,0,0,0,0,0,0,0,0,0,-1,1217,925,0,0
0,99,0,0,0,0,0,0,0,0,0,-1,1224,925,0,0
7,99,0,0,0,0,0,0,0,0,0,-1,1231,925,0,0
14,99,0,0,0,0,0,0,0,0,0,-1,1238,925,0,0
21,99,0,0,0,0,0,0,0,0,0,-1,1245,925,0,0
28,99,0,0,0,0,0,0,0,0,0,-1,1252,925,0,0
35,99,0,0,0,0,0,0,0,0,0,-1,1259,925,0,0
42,99,0,0,0,0,0,0,0,0,0,-1,1266,925,0,0
49,99,0,0,0,0,0,0,0,0,0,-1,1273,925,0,0
56,99,0,0,0,0,0,0,0,0,0,-1,1280,925,0,0
63,99,0,0,0,0,0,0,0,0,0,-1,1287,925,0,0
70,99,0,0,0,0,0,0,0,0,0,-1,1294,925,0,0
77,99,0,0,0,0,0,0,0,0,0,-1,1301,925,0,0
84,99,0,0,0,0,0,0,0,0,0,-1,1308,925,0,0
91,99,0,0,0,0,0,0,0,0,0,-1,1315,925,0,0
98,99,0,0,0,0,0,0,0,0,0,-1,1322,925,0,0
105,99,0,0,0,0,0,0,0,0,0,-1,1329,925,0,0
112,99,0,0,0,0,0,0,0,0,0,-1,1336,925,0,0
119,99,0,0,0,0,0,0,0,0,0,-1,1343,925,0,0
126,99,0,0,0,0,0,0,0,0,0,-1,1350,925,0,0
133,99,0,0,0,0,0,0,0,0,0,-1,1357,925,0,0
140,99,0,0,0,0,0,0,0,0,0,-1,1364,925,0,0
147,99,0,0,0,0,0,0,0,0,0,-1,1371,925,0,0
154,99,0,0,0,0,0,0,0,0,0,-1,1378,925,0,0
161,99,0,0,0,0,0,0,0,0,0,-1,1385,925,0,0
168,99,0,0,0,0,0,0,0,0,0,-1,1392,925,0,0
175,99,0,0,0,0,0,0,0,0,0,-1,1399,925,0,0
182,99,0,0,0,0,0,0,0,0,0,-1,1406,925,0,0
189,99,0,0,0,0,0,0,0,0,0,-1,1413,925,0,0
196,99,0,0,0,0,0,0,0,0,0,-1,1420,925,0,0
203,99,0,0,0,0,0,0,0,0,0,-1,1427,925,0,0
210,99,0,0,0,0,0,0,0,0,0,-1,1434,925,0,0
217,99,0,0,0,0,0,0,0,0,0,-1,1441,925,0,0
224,99,0,0,0,0,0,0,0,0,0,-1,1448,925,0,0
231,99,0,0,0,0,0,0,0,0,0,-1,1455,925,0,0
238,99,0,0,0,0,0,0,0,0,0,-1,1462,925,0,0
245,99,0,0,0,0,0,0,0,0,0,-1,1469,925,0,0
252,99,0,0,0,0,0,0,0,0,0,-1,1476,925,0,0
259,99,0,0,0,0,0,0,0,0,0,-1,1483,925,0,0
266,99,0,0,0,0,0,0,0,0,0,-1,1490,925,0,0
273,99,0,0,0,0,0,0,0,0,0,-1,1497,925,0,0
280,99,0,0,0,0,0,0,0,0,0,-1,1504,925,0,0
287,99,0,0,0,0,0,0,0,0,0,-1,1511,925,0,0
294,99,0,0,0,0,0,0,0,0,0,-1,1518,925,0,0
301,99,0,0,0,0,0,0,0,0,0,-1,1525,925,0,0
308,99,0,0,0,0,0,0,0,0,0,-1,1532,925,0,0
315,99,0,0,0,0,0,0,0,0,0,-1,1539,925,0,0
322,99,0,0,0,0,0,0,0,0,0,-1,1546,925,0,0
329,99,0,0,0,0,0,0,0,0,0,-1,1553,925,0,0
336,99,0,0,0,0,0,0,0,0,0,-1,1560,925,0,0
343,99,0,0,0,0,0,0,0,0,0,-1,1567,925,0,0
350,99,0,0,0,0,0,0,0,0,0,-1,1574,925,0,0
357,99,0,0,0,0,0,0,0,0,0,-1,1581,925,0,0
364,99,0,0,0,0,0,0,0,0,0,-1,1588,925,0,0
371,99,0,0,0,0,0,0,0,0,0,-1,1595,925,0,0
378,99,0,0,0,0,0,0,0,0,0,-1,1602,925,0,0
385,99,0,0,0,0,0,0,0,0,0,-1,1609,925,0,0
392,99,0,0,0,0,0,0,0,0,0,-1,1616,925,0,0
399,99,0,0,0,0,0,0,0,0,0,-1,1623,925,0,0
406,99,0,0,0,0,0,0,0,0,0,-1,1630,925,0,0
413,99,0,0,0,0,0,0,0,0,0,-1,1637,925,0,0
420,99,0,0,0,0,0,0,0,0,0,-1,1644,925,0,0
427,99,0,0,0,0,0,0,0,0,0,-1,1651,925,0,0
434,99,0,0,0,0,0,0,0,0,0,-1,1658,925,0,0
441,99,0,0,0,0,0,0,0,0,0,-1,1665,925,0,0
448,99,0,0,0,0,0,0,0,0,0,-1,1672,925,0,0
455,99,0,0,0,0,0,0,0,0,0,-1,1679,925,0,0
462,99,0,0,0,0,0,0,0,0,0,-1,1686,925,0,0
469,99,0,0,0,0,0,0,0,0,0,-1,1693,925,0,0
476,99,0,0,0,0,0,0,0,0,0,-1,1700,925,0,0
483,99,0,0,0,0,0,0,0,0,0,-1,1707,925,0,0
490,99,0,0,0,0,0,0,0,0,0,-1,1714,925,0,0
497,99,0,0,0,0,0,0,0,0,0,-1,1721,925,0,0
504,99,0,0,0,0,0,0,0,0,0,-1,1728,925,0,0
511,99,0,0,0,0,0,0,0,0,0,-1,1735,925,0,0
518,99,0,0,0,0,0,0,0,0,0,-1,1742,925,0,0
525,99,0,0,0,0,0,0,0,0,0,-1,1749,925,0,0
532,99,0,0,0,0,0,0,0,0,0,-1,1756,925,0,0
539,99,0,0,0,0,0,0,0,0,0,-1,1763,925,0,0
546,99,0,0,0,0,0,0,0,0,0,-1,1770,925,0,0
553,99,0,0,0,0,0,0,0,0,0,-1,1777,925,0,0
560,99,0,0,0,0,0,0,0,0,0,-1,1784,925,0,0
567,99,0,0,0,0,0,0,0,0,0,-1,1791,925,0,0
574,99,0,0,0,0,0,0,0,0,0,-1,1798,925,0,0
581,99,0,0,0,0,0,0,0,0,0,-1,1805,925,0,0
588,99,0,0,0,0,0,0,0,0,0,-1,1812,925,0,0
595,99,0,0,0,0,0,0,0,0,0,-1,1819,925,0,0
602,99,0,0,0,0,0,0,0,0,0,-1,1826,925,0,0
609,99,0,0,0,0,0,0,0,0,0,-1,1833,925,0,0
616,99,0,0,0,0,0,0,0,0,0,-1,1840,925,0,0
623,99,0,0,0,0,0,0,0,0,0,-1,1847,925,0,0
630,99,0,0,0,0,0,0,0,0,0,-1,1854,925,0,0
637,99,53.2047,2.80884,0.00710801,0.00348425,-0.00334756,0.00910258,0.00148968,-0.537347,0.00563782,0.0449049,1861,925,53.2047,-2.80883
644,99,53.2825,2.61481,0.00413371,0.00285082,-0.00252614,0.00609858,0.000885955,-0.661064,0.00380494,0.037736,1868,925,53.2825,-2.61481
651,99,53.1163,2.8064,0.00200076,0.0023099,-0.00181982,0.0039817,0.00032896,-0.827765,0.00255189,0.0371998,1875,925,53.1163,-2.8064
658,99,53.0453,2.70013,0.000559898,0.00189752,-0.00108066,0.0024996,-4.21719e-05,-1.0625,0.00168063,0.0388139,1882,925,53.0453,-2.70013
665,99,53.1093,2.55383,-0.000146747,0.0015841,-0.000355732,0.00165436,-0.000217007,-1.3758,0.0011819,0.0403507,1889,925,53.1092,-2.55383
672,99,53.2351,2.76532,-0.000423344,0.00120824,0.000227149,0.00123928,-0.000454378,1.43502,0.00101223,0.0401101,1896,925,53.2351,-2.76531
679,99,53.1613,2.59406,-0.000472576,0.000822059,0.000619574,0.00107078,-0.000721301,1.18905,0.0010412,0.0352062,1903,925,53.1612,-2.59406
686,99,53.0837,2.59167,-0.000552611,0.000510472,0.000805886,0.000944326,-0.000986465,1.07694,0.00111483,0.0277812,1910,925,53.0838,-2.59168
693,99,53.0573,2.69177,-0.000682065,0.00025719,0.00081634,0.000729349,-0.00115422,1.04642,0.00109666,0.0298,1917,925,53.0572,-2.69177
700,99,53.0417,2.80768,0,0,0,0,0,0,0,-1,1924,925,53.0417,-2.8077
707,99,47.9915,3.27429,0,0,0,0,0,0,0,-1,1931,925,47.9914,-3.27427
714,99,48.9229,3.75751,0,0,0,0,0,0,0,-1,1938,925,48.9228,-3.75752
721,99,48.9026,4.31781,-0.00141984,0.00105736,-5.41982e-05,0.00105855,-0.00142103,-1.54893,0.00143667,0.033541,1945,925,48.9026,-4.31782
728,99,48.931,4.85303,-0.00207781,0.00175751,-0.000537936,0.00183153,-0.00215183,-1.43405,0.00230228,0.0266623,1952,925,48.9311,-4.853
735,99,48.8774,5.37079,-0.00260866,0.00280519,-0.00124617,0.00307827,-0.00288174,-1.35508,0.00344163,0.0217961,1959,925,48.8774,-5.37078
742,99,48.8093,5.8501,-0.00372397,0.00445465,-0.00319923,0.00555741,-0.00482673,-1.23886,0.00600023,0.0138008,1966,925,48.8094,-5.8501
749,99,48.7665,6.3089,-0.00533967,0.00733337,-0.00679959,0.0102912,-0.00829755,-1.16048,0.0107528,0.011967,1973,925,48.7664,-6.30889
756,99,48.7161,6.745,-0.00696301,0.0111466,-0.0113671,0.0166245,-0.0124409,-1.12172,0.0168388,0.0138276,1980,925,48.716,-6.74498
763,99,48.6652,7.20465,-0.00906065,0.0155329,-0.0176382,0.0247377,-0.0182654,-1.08981,0.0249214,0.017617,1987,925,48.6651,-7.20468
770,99,48.5951,7.77155,-0.0115048,0.0203997,-0.0261475,0.035077,-0.0261821,-1.0593,0.035492,0.0313403,1994,925,48.5951,-7.77153
777,99,48.4631,8.396,-0.0149272,0.0258926,-0.0380403,0.0486525,-0.0376871,-1.03162,0.049982,0.0428803,2001,925,48.463,-8.39603
784,99,48.2788,8.99292,0,0,0,0,0,0,0,-1,2008,925,48.2787,-8.99295
791,99,48.0461,9.39343,0,0,0,0,0,0,0,-1,2015,925,48.0461,-9.39341
798,99,47.7898,9.69556,0,0,0,0,0,0,0,-1,2022,925,47.7898,-9.69553
805,99,0,0,0,0,0,0,0,0,0,-1,2029,925,0,0
812,99,0,0,0,0,0,0,0,0,0,-1,2036,925,0,0
-700,92,0,0,0,0,0,0,0,0,0,-1,524,932,0,0
-693,92,0,0,0,0,0,0,0,0,0,-1,531,932,0,0
-686,92,-34.855,6.14844,0.000888974,-0.0290055,0.0179217,0.00927852,-0.0373951,0.437823,0.0285303,0.0448687,538,932,-34.855,-6.14845
-679,92,-34.8419,6.04346,-0.00871707,-0.0223538,0.0148505,0.000805531,-0.0318764,0.570186,0.0215245,0.0465994,545,932,-34.842,-6.04348
-672,92,-35.0339,5.97699,-0.0142278,-0.017484,0.0120881,-0.00365862,-0.0280532,0.718459,0.0176097,0.0487562,552,932,-35.0339,-5.97699
-665,92,-35.3658,5.86993,-0.0168174,-0.0127131,0.00994162,-0.00461403,-0.0249165,0.88718,0.0153066,0.0499575,559,932,-35.3658,-5.86992
-658,92,-35.7863,5.68622,-0.0174937,-0.00822517,0.00827514,-0.003375,-0.0223438,1.04065,0.0139081,0.0461878,566,932,-35.7863,-5.68623
-651,92,-36.2595,5.40826,-0.0169297,-0.00419542,0.00698501,-0.00111106,-0.020014,1.15498,0.0129882,0.0440931,573,932,-36.2595,-5.40826
-644,92,-36.7225,5.11053,-0.0155471,-0.000922125,0.00594729,0.00119103,-0.0176603,1.2294,0.0121899,0.0427548,580,932,-36.7225,-5.11051
-637,92,-36.9973,4.83813,-0.0138778,0.00152197,0.00507568,0.00304438,-0.0154002,1.27939,0.0114177,0.0275632,587,932,-36.9973,-4.83815
-630,92,-36.9963,4.42035,-0.0124247,0.00295313,0.00403882,0.00394935,-0.0134209,1.32896,0.0105139,0.0137852,594,932,-36.9963,-4.42037
-623,92,-37.0825,4.01636,-0.0111797,0.00392962,0.0034136,0.00466505,-0.0119152,1.3586,0.00987293,0.00891764,601,932,-37.0825,-4.01638
-616,92,-37.1028,3.61066,-0.00991812,0.00435395,0.00249771,0.00477844,-0.0103426,1.40245,0.00892499,0.00861239,608,932,-37.1028,-3.61066
-609,92,-37.1315,3.19885,-0.00934945,0.00295139,0.00170664,0.00318379,-0.00958184,1.43546,0.0076726,0.00964309,615,932,-37.1315,-3.19888
-602,92,-37.1064,2.78101,-0.00966563,0.00197311,0.00105648,0.00206824,-0.00976075,1.481,0.00729497,0.0114713,622,932,-37.1064,-2.78099
-595,92,-37.0129,2.29565,-0.0100646,0.000843714,0.000470501,0.00086397,-0.0100849,1.52777,0.00702896,0.0223022,629,932,-37.0129,-2.29563
-588,92,-37.0579,1.91718,-0.0103511,0.000142628,-0.00014649,0.000144672,-0.0103531,-1.55684,0.00695081,0.0259058,636,932,-37.0579,-1.91717
-581,92,-37.4155,1.45135,-0.0104134,-0.000118093,-0.000540586,-8.97851e-05,-0.0104417,-1.51848,0.0069314,0.0277053,643,932,-37.4155,-1.45133
-574,92,-38.1455,0.911743,-0.0100012,-0.000196399,-0.000681791,-0.000149217,-0.0100484,-1.5017,0.00664973,0.0489466,650,932,-38.1455,-0.911753
-567,92,-39.1189,0.406006,0,0,0,0,0,0,0,-1,657,932,-39.1189,-0.406011
-560,92,-39.6174,0.765991,-0.00869498,-0.000221401,-0.000910026,-0.000124771,-0.00879161,-1.46501,0.00581993,0.0396246,664,932,-39.6174,-0.765976
-553,92,-39.6441,0.765686,-0.00757899,0.000120296,-0.000908714,0.000226094,-0.00768478,-1.45489,0.00520019,0.0382767,671,932,-39.6441,-0.765705
-546,92,-39.6998,0.874451,-0.00554636,0.000650136,-0.000649554,0.000717494,-0.00561372,-1.46747,0.00400313,0.038906,678,932,-39.6998,-0.874422
-539,92,-39.7963,0.856934,-0.00212458,0.00128175,3.25796e-05,0.00128206,-0.0021249,1.56123,0.00198697,0.0363422,685,932,-39.7963,-0.856928
-532,92,-39.9538,0.771484,0.0029448,0.00179502,0.00132161,0.00381113,0.000928676,0.580246,0.00229472,0.0429336,692,932,-39.9538,-0.77151
-525,92,-39.9369,0.840088,0.00841089,0.00227468,0.00304428,0.00966493,0.00102064,0.39075,0.00613146,0.0421193,699,932,-39.9369,-0.840083
-518,92,-39.5793,1.02734,0.0103457,0.00259453,0.00457784,0.0124682,0.000472055,0.43414,0.00815934,0.0391699,706,932,-39.5794,-1.02733
-511,92,0,0,0,0,0,0,0,0,0,-1,713,932,0,0
-504,92,0,0,0,0,0,0,0,0,0,-1,720,932,0,0
-497,92,0,0,0,0,0,0,0,0,0,-1,727,932,0,0
-490,92,0,0,0,0,0,0,0,0,0,-1,734,932,0,0
-483,92,0,0,0,0,0,0,0,0,0,-1,741,932,0,0
-476,92,0,0,0,0,0,0,0,0,0,-1,748,932,0,0
-469,92,0,0,0,0,0,0,0,0,0,-1,755,932,0,0
-462,92,0,0,0,0,0,0,0,0,0,-1,762,932,0,0
-455,92,0,0,0,0,0,0,0,0,0,-1,769,932,0,0
-448,92,0,0,0,0,0,0,0,0,0,-1,776,932,0,0
-441,92,0,0,0,0,0,0,0,0,0,-1,783,932,0,0
-434,92,0,0,0,0,0,0,0,0,0,-1,790,932,0,0
-427,92,0,0,0,0,0,0,0,0,0,-1,797,932,0,0
-420,92,0,0,0,0,0,0,0,0,0,-1,804,932,0,0
-413,92,0,0,0,0,0,0,0,0,0,-1,811,932,0,0
-406,92,0,0,0,0,0,0,0,0,0,-1,818,932,0,0
-399,92,0,0,0,0,0,0,0,0,0,-1,825,932,0,0
-392,92,0,0,0,0,0,0,0,0,0,-1,832,932,0,0
-385,92,0,0,0,0,0,0,0,0,0,-1,839,932,0,0
-378,92,0,0,0,0,0,0,0,0,0,-1,846,932,0,0
-371,92,0,0,0,0,0,0,0,0,0,-1,853,932,0,0
-364,92,0,0,0,0,0,0,0,0,0,-1,860,932,0,0
-357,92,0,0,0,0,0,0,0,0,0,-1,867,932,0,0
-350,92,0,0,0,0,0,0,0,0,0,-1,874,932,0,0
-343,92,0,0,0,0,0,0,0,0,0,-1,881,932,0,0
-336,92,0,0,0,0,0,0,0,0,0,-1,888,932,0,0
-329,92,0,0,0,0,0,0,0,0,0,-1,895,932,0,0
-322,92,0,0,0,0,0,0,0,0,0,-1,902,932,0,0
-315,92,0,0,0,0,0,0,0,0,0,-1,909,932,0,0
-308,92,0,0,0,0,0,0,0,0,0,-1,916,932,0,0
-301,92,0,0,0,0,0,0,0,0,0,-1,923,932,0,0
-294,92,0,0,0,0,0,0,0,0,0,-1,930,932,0,0
-287,92,0,0,0,0,0,0,0,0,0,-1,937,932,0,0
-280,92,0,0,0,0,0,0,0,0,0,-1,944,932,0,0
-273,92,0,0,0,0,0,0,0,0,0,-1,951,932,0,0
-266,92,0,0,0,0,0,0,0,0,0,-1,958,932,0,0
-259,92,0,0,0,0,0,0,0,0,0,-1,965,932,0,0
-252,92,0,0,0,0,0,0,0,0,0,-1,972,932,0,0
-245,92,0,0,0,0,0,0,0,0,0,-1,979,932,0,0
-238,92,0,0,0,0,0,0,0,0,0,-1,986,932,0,0
-231,92,0,0,0,0,0,0,0,0,0,-1,993,932,0,0
-224,92,0,0,0,0,0,0,0,0,0,-1,1000,932,0,0
-217,92,0,0,0,0,0,0,0,0,0,-1,1007,932,0,0
-210,92,0,0,0,0,0,0,0,0,0,-1,1014,932,0,0
-203,92,0,0,0,0,0,0,0,0,0,-1,1021,932,0,0
-196,92,0,0,0,0,0,0,0,0,0,-1,1028,932,0,0
-189,92,0,0,0,0,0,0,0,0,0,-1,1035,932,0,0
-182,92,0,0,0,0,0,0,0,0,0,-1,1042,932,0,0
-175,92,0,0,0,0,0,0,0,0,0,-1,1049,932,0,0
-168,92,0,0,0,0,0,0,0,0,0,-1,1056,932,0,0
-161,92,0,0,0,0,0,0,0,0,0,-1,1063,932,0,0
-154,92,0,0,0,0,0,0,0,0,0,-1,1070,932,0,0
-147,92,0,0,0,0,0,0,0,0,0,-1,1077,932,0,0
-140,92,0,0,0,0,0,0,0,0,0,-1,1084,932,0,0
-133,92,0,0,0,0,0,0,0,0,0,-1,1091,932,0,0
-126,92,0,0,0,0,0,0,0,0,0,-1,1098,932,0,0
-119,92,0,0,0,0,0,0,0,0,0,-1,1105,932,0,0
-112,92,0,0,0,0,0,0,0,0,0,-1,1112,932,0,0
-105,92,0,0,0,0,0,0,0,0,0,-1,1119,932,0,0
-98,92,0,0,0,0,0,0,0,0,0,-1,1126,932,0,0
-91,92,0,0,0,0,0,0,0,0,0,-1,1133,932,0,0
-84,92,0,0,0,0,0,0,0,0,0,-1,1140,932,0,0
-77,92,0,0,0,0,0,0,0,0,0,-1,1147,932,0,0
-70,92,0,0,0,0,0,0,0,0,0,-1,1154,932,0,0
-63,92,0,0,0,0,0,0,0,0,0,-1,1161,932,0,0
-56,92,0,0,0,0,0,0,0,0,0,-1,1168,932,0,0
-49,92,0,0,0,0,0,0,0,0,0,-1,1175,932,0,0
-42,92,0,0,0,0,0,0,0,0,0,-1,1182,932,0,0
-35,92,0,0,0,0,0,0,0,0,0,-1,1189,932,0,0
-28,92,0,0,0,0,0,0,0,0,0,-1,1196,932,0,0
-21,92,0,0,0,0,0,0,0,0,0,-1,1203,932,0,0
-14,92,0,0,0,0,0,0,0,0,0,-1,1210,932,0,0
-7,92,0,0,0,0,0,0,0,0,0,-1,1217,932,0,0
0,92,0,0,0,0,0,0,0,0,0,-1,1224,932,0,0
7,92,0,0,0,0,0,0,0,0,0,-1,1231,932,0,0
14,92,0,0,0,0,0,0,0,0,0,-1,1238,932,0,0
21,92,0,0,0,0,0,0,0,0,0,-1,1245,932,0,0
28,92,0,0,0,0,0,0,0,0,0,-1,1252,932,0,0
35,92,0,0,0,0,0,0,0,0,0,-1,1259,932,0,0
42,92,0,0,0,0,0,0,0,0,0,-1,1266,932,0,0
49,92,0,0,0,0,0,0,0,0,0,-1,1273,932,0,0
56,92,0,0,0,0,0,0,0,0,0,-1,1280,932,0,0
63,92,0,0,0,0,0,0,0,0,0,-1,1287,932,0,0
70,92,0,0,0,0,0,0,0,0,0,-1,1294,932,0,0
77,92,0,0,0,0,0,0,0,0,0,-1,1301,932,0,0
84,92,0,0,0,0,0,0,0,0,0,-1,1308,932,0,0
91,92,0,0,0,0,0,0,0,0,0,-1,1315,932,0,0
98,92,0,0,0,0,0,0,0,0,0,-1,1322,932,0,0
105,92,0,0,0,0,0,0,0,0,0,-1,1329,932,0,0
112,92,0,0,0,0,0,0,0,0,0,-1,1336,932,0,0
119,92,0,0,0,0,0,0,0,0,0,-1,1343,932,0,0
126,92,0,0,0,0,0,0,0,0,0,-1,1350,932,0,0
133,92,0,0,0,0,0,0,0,0,0,-1,1357,932,0,0
140,92,0,0,0,0,0,0,0,0,0,-1,1364,932,0,0
147,92,0,0,0,0,0,0,0,0,0,-1,1371,932,0,0
154,92,0,0,0,0,0,0,0,0,0,-1,1378,932,0,0
161,92,0,0,0,0,0,0,0,0,0,-1,1385,932,0,0
168,92,0,0,0,0,0,0,0,0,0,-1,1392,932,0,0
175,92,0,0,0,0,0,0,0,0,0,-1,1399,932,0,0
182,92,0,0,0,0,0,0,0,0,0,-1,1406,932,0,0
189,92,0,0,0,0,0,0,0,0,0,-1,1413,932,0,0
196,92,0,0,0,0,0,0,0,0,0,-1,1420,932,0,0
203,92,0,0,0,0,0,0,0,0,0,-1,1427,932,0,0
210,92,0,0,0,0,0,0,0,0,0,-1,1434,932,0,0
217,92,0,0,0,0,0,0,0,0,0,-1,1441,932,0,0
224,92,0,0,0,0,0,0,0,0,0,-1,1448,932,0,0
231,92,0,0,0,0,0,0,0,0,0,-1,1455,932,0,0
238,92,0,0,0,0,0,0,0,0,0,-1,1462,932,0,0
245,92,0,0,0,0,0,0,0,0,0,-1,1469,932,0,0
252,92,0,0,0,0,0,0,0,0,0,-1,1476,932,0,0
259,92,0,0,0,0,0,0,0,0,0,-1,1483,932,0,0
266,92,0,0,0,0,0,0,0,0,0,-1,1490,932,0,0
273,92,0,0,0,0,0,0,0,0,0,-1,1497,932,0,0
280,92,0,0,0,0,0,0,0,0,0,-1,1504,932,0,0
287,92,0,0,0,0,0,0,0,0,0,-1,1511,932,0,0
294,92,0,0,0,0,0,0,0,0,0,-1,1518,932,0,0
301,92,0,0,0,0,0,0,0,0,0,-1,1525,932,0,0
308,92,0,0,0,0,0,0,0,0,0,-1,1532,932,0,0
315,92,0,0,0,0,0,0,0,0,0,-1,1539,932,0,0
322,92,0,0,0,0,0,0,0,0,0,-1,1546,932,0,0
329,92,0,0,0,0,0,0,0,0,0,-1,1553,932,0,0
336,92,0,0,0,0,0,0,0,0,0,-1,1560,932,0,0
343,92,0,0,0,0,0,0,0,0,0,-1,1567,932,0,0
350,92,0,0,0,0,0,0,0,0,0,-1,1574,932,0,0
357,92,0,0,0,0,0,0,0,0,0,-1,1581,932,0,0
364,92,0,0,0,0,0,0,0,0,0,-1,1588,932,0,0
371,92,0,0,0,0,0,0,0,0,0,-1,1595,932,0,0
378,92,0,0,0,0,0,0,0,0,0,-1,1602,932,0,0
385,92,0,0,0,0,0,0,0,0,0,-1,1609,932,0,0
392,92,0,0,0,0,0,0,0,0,0,-1,1616,932,0,0
399,92,0,0,0,0,0,0,0,0,0,-1,1623,932,0,0
406,92,0,0,0,0,0,0,0,0,0,-1,1630,932,0,0
413,92,0,0,0,0,0,0,0,0,0,-1,1637,932,0,0
420,92,0,0,0,0,0,0,0,0,0,-1,1644,932,0,0
427,92,0,0,0,0,0,0,0,0,0,-1,1651,932,0,0
434,92,0,0,0,0,0,0,0,0,0,-1,1658,932,0,0
441,92,0,0,0,0,0,0,0,0,0,-1,1665,932,0,0
448,92,0,0,0,0,0,0,0,0,0,-1,1672,932,0,0
455,92,0,0,0,0,0,0,0,0,0,-1,1679,932,0,0
462,92,0,0,0,0,0,0,0,0,0,-1,1686,932,0,0
469,92,0,0,0,0,0,0,0,0,0,-1,1693,932,0,0
476,92,0,0,0,0,0,0,0,0,0,-1,1700,932,0,0
483,92,0,0,0,0,0,0,0,0,0,-1,1707,932,0,0
490,92,0,0,0,0,0,0,0,0,0,-1,1714,932,0,0
497,92,0,0,0,0,0,0,0,0,0,-1,1721,932,0,0
504,92,0,0,0,0,0,0,0,0,0,-1,1728,932,0,0
511,92,0,0,0,0,0,0,0,0,0,-1,1735,932,0,0
518,92,0,0,0,0,0,0,0,0,0,-1,1742,932,0,0
525,92,0,0,0,0,0,0,0,0,0,-1,1749,932,0,0
532,92,0,0,0,0,0,0,0,0,0,-1,1756,932,0,0
539,92,0,0,0,0,0,0,0,0,0,-1,1763,932,0,0
546,92,0,0,0,0,0,0,0,0,0,-1,1770,932,0,0
553,92,0,0,0,0,0,0,0,0,0,-1,1777,932,0,0
560,92,0,0,0,0,0,0,0,0,0,-1,1784,932,0,0
567,92,0,0,0,0,0,0,0,0,0,-1,1791,932,0,0
574,92,0,0,0,0,0,0,0,0,0,-1,1798,932,0,0
581,92,0,0,0,0,0,0,0,0,0,-1,1805,932,0,0
588,92,0,0,0,0,0,0,0,0,0,-1,1812,932,0,0
595,92,0,0,0,0,0,0,0,0,0,-1,1819,932,0,0
602,92,0,0,0,0,0,0,0,0,0,-1,1826,932,0,0
609,92,0,0,0,0,0,0,0,0,0,-1,1833,932,0,0
616,92,0,0,0,0,0,0,0,0,0,-1,1840,932,0,0
623,92,0,0,0,0,0,0,0,0,0,-1,1847,932,0,0
630,92,0,0,0,0,0,0,0,0,0,-1,1854,932,0,0
637,92,53.2705,2.4187,0.00595295,0.00385543,-0.00268831,0.00778983,0.00201855,-0.599418,0.00466819,0.0489377,1861,932,53.2705,-2.41868
644,92,53.1992,2.51312,0.00325214,0.00296225,-0.00193472,0.00504733,0.00116706,-0.748009,0.0030512,0.0402945,1868,932,53.1992,-2.51313
651,92,53.2122,2.52203,0.00140482,0.00228202,-0.00134509,0.00325821,0.000428626,-0.943002,0.0020443,0.0381855,1875,932,53.2122,-2.52202
658,92,53.0563,2.59515,0.000178321,0.00182892,-0.000739848,0.00211199,-0.000104755,-1.20537,0.00144418,0.0393544,1882,932,53.0563,-2.59518
665,92,53.0269,2.54846,-0.000429302,0.00153521,-0.000110426,0.00154139,-0.000435489,-1.51482,0.00119941,0.0411858,1889,932,53.0269,-2.54846
672,92,53.1849,2.78058,-0.000685918,0.00119691,0.000437206,0.00129348,-0.000782487,1.35341,0.0012106,0.0418675,1896,932,53.185,-2.78058
679,92,53.1305,2.76917,-0.000743922,0.000816562,0.000824231,0.00117128,-0.00109864,1.16439,0.00131076,0.0359251,1903,932,53.1305,-2.76917
686,92,53.066,2.67383,-0.000772899,0.000501538,0.000978024,0.00103162,-0.00130298,1.07413,0.00135091,0.0274928,1910,932,53.066,-2.67381
693,92,53.0739,2.68427,-0.000850245,0.00024291,0.000955291,0.000796936,-0.00140427,1.04525,0.00128689,0.0210525,1917,932,53.0738,-2.68426
700,92,53.0746,2.69891,0,0,0,0,0,0,0,-1,1924,932,53.0746,-2.69893
707,92,32.9893,3.26874,0,0,0,0,0,0,0,-1,1931,932,32.9893,-3.26874
714,92,49.6591,3.83929,0,0,0,0,0,0,0,-1,1938,932,49.6591,-3.83928
721,92,49.5319,4.44757,-0.00171427,0.00117643,-1.9075e-05,0.00117655,-0.0017144,-1.5642,0.00167869,0.0352872,1945,932,49.5318,-4.44756
728,92,49.3798,4.97229,-0.00230425,0.00190257,-0.000537939,0.00197027,-0.00237195,-1.44561,0.00251056,0.0265692,1952,932,49.3798,-4.9723
735,92,49.3275,5.41522,-0.00267954,0.00295686,-0.00127378,0.00323136,-0.00295403,-1.35855,0.00357233,0.0204687,1959,932,49.3275,-5.41522
742,92,49.3486,5.83472,-0.00351719,0.00451203,-0.00321205,0.00563886,-0.00464401,-1.2334,0.00594607,0.0191285,1966,932,49.3487,-5.83469
749,92,49.2808,6.28137,-0.0046836,0.00736065,-0.00673063,0.01037,-0.00769294,-1.15035,0.0104667,0.0175095,1973,932,49.2808,-6.28137
756,92,49.1897,6.71027,-0.00570034,0.011267,-0.0113064,0.0169186,-0.011352,-1.10726,0.0164272,0.0159465,1980,932,49.1897,-6.71027
763,92,49.1917,7.16406,-0.00709339,0.0158543,-0.0175886,0.0253806,-0.0166197,-1.07441,0.0244241,0.0179717,1987,932,49.1917,-7.16405
770,92,49.1503,7.69531,-0.00870947,0.0209788,-0.0258999,0.0359868,-0.0237175,-1.04561,0.0347121,0.0269145,1994,932,49.1503,-7.69533
777,92,49.115,8.20941,-0.0109008,0.0267922,-0.0371566,0.0496087,-0.0337172,-1.0201,0.048399,0.0446426,2001,932,49.1151,-8.20939
784,92,49.2273,8.71362,0,0,0,0,0,0,0,-1,2008,932,49.2272,-8.71361
791,92,49.5215,8.96136,-0.0183436,0.0409127,-0.0732061,0.090259,-0.0676898,-0.977684,0.0915016,0.0413634,2015,932,49.5216,-8.96138
798,92,48.8599,8.08466,-0.0247324,0.0493403,-0.0997575,0.118715,-0.0941068,-0.963144,0.123146,0.0442398,2022,932,48.8599,-8.08465
805,92,0,0,0,0,0,0,0,0,0,-1,2029,932,0,0
812,92,0,0,0,0,0,0,0,0,0,-1,2036,932,0,0
-700,85,0,0,0,0,0,0,0,0,0,-1,524,939,0,0
-693,85,0,0,0,0,0,0,0,0,0,-1,531,939,0,0
-686,85,-35.6386,6.2019,0.00795288,-0.0142179,0.0208046,0.0204412,-0.0267062,0.540614,0.0273005,0.0458121,538,939,-35.6386,-6.20188
-679,85,-35.6555,5.91888,-0.00312087,-0.00711813,0.0176679,0.0126611,-0.0229001,0.729077,0.020813,0.0463193,545,939,-35.6555,-5.91891
-672,85,-35.7896,5.60211,-0.0101359,-0.00234166,0.0148662,0.00912971,-0.0216073,0.913587,0.0182269,0.0452564,552,939,-35.7895,-5.60209
-665,85,-35.9447,5.50403,-0.0140038,0.00134725,0.0125019,0.00834178,-0.0209984,1.06071,0.017457,0.0448659,559,939,-35.9447,-5.50401
-658,85,-36.2478,5.39984,-0.0156486,0.00417616,0.0105119,0.00871215,-0.0201846,1.16343,0.0171162,0.0452823,566,939,-36.2478,-5.39985
-651,85,-36.8579,5.06757,-0.0157427,0.00621015,0.00884757,0.009332,-0.0188646,1.23159,0.0165865,0.0423756,573,939,-36.8579,-5.06759
-644,85,-37.2111,4.96844,-0.0147562,0.00737378,0.00744612,0.00964591,-0.0170284,1.27463,0.0155958,0.0348456,580,939,-37.2111,-4.96842
-637,85,-37.3923,4.7605,-0.01338,0.00786187,0.00618163,0.00952982,-0.015048,1.30725,0.0143087,0.0207434,587,939,-37.3923,-4.76047
-630,85,-37.4738,4.33813,-0.0122709,0.00753776,0.00472275,0.00860613,-0.0133393,1.34832,0.0127681,0.0132817,594,939,-37.4738,-4.33811
-623,85,-37.5412,3.95483,-0.0112405,0.00691918,0.00371038,0.00764803,-0.0119694,1.37683,0.0114174,0.0100611,601,939,-37.5412,-3.95484
-616,85,-37.5433,3.58148,-0.010174,0.00589241,0.00249549,0.00627109,-0.0105527,1.4202,0.00981752,0.00973877,608,939,-37.5433,-3.58147
-609,85,-37.5648,3.19141,-0.00972293,0.00370378,0.00136348,0.00384085,-0.00986,1.47061,0.00816067,0.0122263,615,939,-37.5648,-3.1914
-602,85,-37.5815,2.8009,-0.0100166,0.00243012,0.000530072,0.00245265,-0.0100391,1.52831,0.00764264,0.0167887,622,939,-37.5815,-2.80091
-595,85,-37.4897,2.37897,-0.0103863,0.0012216,-0.000163333,0.0012239,-0.0103886,-1.55673,0.00736764,0.0200152,629,939,-37.4897,-2.37894
-588,85,-37.4943,1.97809,-0.0107146,0.000481359,-0.000826139,0.000541991,-0.0107752,-1.49754,0.00737079,0.0198819,636,939,-37.4944,-1.9781
-581,85,-37.7976,1.58038,-0.0109001,0.000181551,-0.00125926,0.000322846,-0.0110414,-1.45906,0.00747088,0.0292813,643,939,-37.7976,-1.58036
-574,85,-38.5397,1.11401,-0.0106642,0.00011646,-0.00143811,0.000305002,-0.0108528,-1.44044,0.00733896,0.0486206,650,939,-38.5397,-1.11398
-567,85,-39.4819,0.665283,0,0,0,0,0,0,0,-1,657,939,-39.4819,-0.665303
-560,85,-39.6544,0.80658,-0.0093008,0.000330605,-0.00162503,0.000597393,-0.00956759,-1.40807,0.00658656,0.0369777,664,939,-39.6544,-0.806598
-553,85,-39.651,0.883728,-0.00786887,0.000784818,-0.00151277,0.00104165,-0.0081257,-1.40263,0.00579563,0.0416935,671,939,-39.651,-0.883711
-546,85,-39.6958,1.13269,-0.00538635,0.00140036,-0.00110949,0.00157713,-0.00556313,-1.41279,0.00433126,0.0414791,678,939,-39.6958,-1.13272
-539,85,-39.6965,1.05225,-0.00149969,0.00206057,-0.000278472,0.00208222,-0.00152134,-1.49321,0.0020889,0.0372573,685,939,-39.6965,-1.05225
-532,85,-39.715,0.835205,0.00392744,0.00258379,0.00105302,0.00450469,0.00200653,0.501453,0.00260594,0.0394768,692,939,-39.715,-0.835189
-525,85,-39.7001,0.882507,0.00924025,0.00308339,0.00248753,0.0101197,0.00220398,0.339815,0.00614497,0.0394794,699,939,-39.7001,-0.882517
-518,85,-39.6868,0.993164,0.0107264,0.00350496,0.00360337,0.0122168,0.00201455,0.392188,0.00756301,0.0399736,706,939,-39.6868,-0.993151
-511,85,0,0,0,0,0,0,0,0,0,-1,713,939,0,0
-504,85,0,0,0,0,0,0,0,0,0,-1,720,939,0,0
-497,85,0,0,0,0,0,0,0,0,0,-1,727,939,0,0
-490,85,0,0,0,0,0,0,0,0,0,-1,734,939,0,0
-483,85,0,0,0,0,0,0,0,0,0,-1,741,939,0,0
-476,85,0,0,0,0,0,0,0,0,0,-1,748,939,0,0
-469,85,0,0,0,0,0,0,0,0,0,-1,755,939,0,0
-462,85,0,0,0,0,0,0,0,0,0,-1,762,939,0,0
-455,85,0,0,0,0,0,0,0,0,0,-1,769,939,0,0
-448,85,0,0,0,0,0,0,0,0,0,-1,776,939,0,0
-441,85,0,0,0,0,0,0,0,0,0,-1,783,939,0,0
-434,85,0,0,0,0,0,0,0,0,0,-1,790,939,0,0
-427,85,0,0,0,0,0,0,0,0,0,-1,797,939,0,0
-420,85,0,0,0,0,0,0,0,0,0,-1,804,939,0,0
-413,85,0,0,0,0,0,0,0,0,0,-1,811,939,0,0
-406,85,0,0,0,0,0,0,0,0,0,-1,818,939,0,0
-399,85,0,0,0,0,0,0,0,0,0,-1,825,939,0,0
-392,85,0,0,0,0,0,0,0,0,0,-1,832,939,0,0
-385,85,0,0,0,0,0,0,0,0,0,-1,839,939,0,0
-378,85,0,0,0,0,0,0,0,0,0,-1,846,939,0,0
-371,85,0,0,0,0,0,0,0,0,0,-1,853,939,0,0
-364,85,0,0,0,0,0,0,0,0,0,-1,860,939,0,0
-357,85,0,0,0,0,0,0,0,0,0,-1,867,939,0,0
-350,85,0,0,0,0,0,0,0,0,0,-1,874,939,0,0
-343,85,0,0,0,0,0,0,0,0,0,-1,881,939,0,0
-336,85,0,0,0,0,0,0,0,0,0,-1,888,939,0,0
-329,85,0,0,0,0,0,0,0,0,0,-1,895,939,0,0
-322,85,0,0,0,0,0,0,0,0,0,-1,902,939,0,0
-315,85,0,0,0,0,0,0,0,0,0,-1,909,939,0,0
-308,85,0,0,0,0,0,0,0,0,0,-1,916,939,0,0
-301,85,0,0,0,0,0,0,0,0,0,-1,923,939,0,0
-294,85,0,0,0,0,0,0,0,0,0,-1,930,939,0,0
-287,85,0,0,0,0,0,0,0,0,0,-1,937,939,0,0
-280,85,0,0,0,0,0,0,0,0,0,-1,944,939,0,0
-273,85,0,0,0,0,0,0,0,0,0,-1,951,939,0,0
-266,85,0,0,0,0,0,0,0,0,0,-1,958,939,0,0
-259,85,0,0,0,0,0,0,0,0,0,-1,965,939,0,0
-252,85,0,0,0,0,0,0,0,0,0,-1,972,939,0,0
-245,85,0,0,0,0,0,0,0,0,0,-1,979,939,0,0
-238,85,0,0,0,0,0,0,0,0,0,-1,986,939,0,0
-231,85,0,0,0,0,0,0,0,0,0,-1,993,939,0,0
-224,85,0,0,0,0,0,0,0,0,0,-1,1000,939,0,0
-217,85,0,0,0,0,0,0,0,0,0,-1,1007,939,0,0
-210,85,0,0,0,0,0,0,0,0,0,-1,1014,939,0,0
-203,85,0,0,0,0,0,0,0,0,0,-1,1021,939,0,0
-196,85,0,0,0,0,0,0,0,0,0,-1,1028,939,0,0
-189,85,0,0,0,0,0,0,0,0,0,-1,1035,939,0,0
-182,85,0,0,0,0,0,0,0,0,0,-1,1042,939,0,0
-175,85,0,0,0,0,0,0,0,0,0,-1,1049,939,0,0
-168,85,0,0,0,0,0,0,0,0,0,-1,1056,939,0,0
-161,85,0,0,0,0,0,0,0,0,0,-1,1063,939,0,0
-154,85,0,0,0,0,0,0,0,0,0,-1,1070,939,0,0
-147,85,0,0,0,0,0,0,0,0,0,-1,1077,939,0,0
-140,85,0,0,0,0,0,0,0,0,0,-1,1084,939,0,0
-133,85,0,0,0,0,0,0,0,0,0,-1,1091,939,0,0
-126,85,0,0,0,0,0,0,0,0,0,-1,1098,939,0,0
-119,85,0,0,0,0,0,0,0,0,0,-1,1105,939,0,0
-112,85,0,0,0,0,0,0,0,0,0,-1,1112,939,0,0
-105,85,0,0,0,0,0,0,0,0,0,-1,1119,939,0,0
-98,85,0,0,0,0,0,0,0,0,0,-1,1126,939,0,0
-91,85,0,0,0,0,0,0,0,0,0,-1,1133,939,0,0
-84,85,0,0,0,0,0,0,0,0,0,-1,1140,939,0,0
-77,85,0,0,0,0,0,0,0,0,0,-1,1147,939,0,0
-70,85,0,0,0,0,0,0,0,0,0,-1,1154,939,0,0
-63,85,0,0,0,0,0,0,0,0,0,-1,1161,939,0,0
-56,85,0,0,0,0,0,0,0,0,0,-1,1168,939,0,0
-49,85,0,0,0,0,0,0,0,0,0,-1,1175,939,0,0
-42,85,0,0,0,0,0,0,0,0,0,-1,1182,939,0,0
-35,85,0,0,0,0,0,0,0,0,0,-1,1189,939,0,0
-28,85,0,0,0,0,0,0,0,0,0,-1,1196,939,0,0
-21,85,0,0,0,0,0,0,0,0,0,-1,1203,939,0,0
-14,85,0,0,0,0,0,0,0,0,0,-1,1210,939,0,0
-7,85,0,0,0,0,0,0,0,0,0,-1,1217,939,0,0
0,85,0,0,0,0,0,0,0,0,0,-1,1224,939,0,0
7,85,0,0,0,0,0,0,0,0,0,-1,1231,939,0,0
14,85,0,0,0,0,0,0,0,0,0,-1,1238,939,0,0
21,85,0,0,0,0,0,0,0,0,0,-1,1245,939,0,0
28,85,0,0,0,0,0,0,0,0,0,-1,1252,939,0,0
35,85,0,0,0,0,0,0,0,0,0,-1,1259,939,0,0
42,85,0,0,0,0,0,0,0,0,0,-1,1266,939,0,0
49,85,0,0,0,0,0,0,0,0,0,-1,1273,939,0,0
56,85,0,0,0,0,0,0,0,0,0,-1,1280,939,0,0
63,85,0,0,0,0,0,0,0,0,0,-1,1287,939,0,0
70,85,0,0,0,0,0,0,0,0,0,-1,1294,939,0,0
77,85,0,0,0,0,0,0,0,0,0,-1,1301,939,0,0
84,85,0,0,0,0,0,0,0,0,0,-1,1308,939,0,0
91,85,0,0,0,0,0,0,0,0,0,-1,1315,939,0,0
98,85,0,0,0,0,0,0,0,0,0,-1,1322,939,0,0
105,85,0,0,0,0,0,0,0,0,0,-1,1329,939,0,0
112,85,0,0,0,0,0,0,0,0,0,-1,1336,939,0,0
119,85,0,0,0,0,0,0,0,0,0,-1,1343,939,0,0
126,85,0,0,0,0,0,0,0,0,0,-1,1350,939,0,0
133,85,0,0,0,0,0,0,0,0,0,-1,1357,939,0,0
140,85,0,0,0,0,0,0,0,0,0,-1,1364,939,0,0
147,85,0,0,0,0,0,0,0,0,0,-1,1371,939,0,0
154,85,0,0,0,0,0,0,0,0,0,-1,1378,939,0,0
161,85,0,0,0,0,0,0,0,0,0,-1,1385,939,0,0
168,85,0,0,0,0,0,0,0,0,0,-1,1392,939,0,0
175,85,0,0,0,0,0,0,0,0,0,-1,1399,939,0,0
182,85,0,0,0,0,0,0,0,0,0,-1,1406,939,0,0
189,85,0,0,0,0,0,0,0,0,0,-1,1413,939,0,0
196,85,0,0,0,0,0,0,0,0,0,-1,1420,939,0,0
203,85,0,0,0,0,0,0,0,0,0,-1,1427,939,0,0
210,85,0,0,0,0,0,0,0,0,0,-1,1434,939,0,0
217,85,0,0,0,0,0,0,0,0,0,-1,1441,939,0,0
224,85,0,0,0,0,0,0,0,0,0,-1,1448,939,0,0
231,85,0,0,0,0,0,0,0,0,0,-1,1455,939,0,0
238,85,0,0,0,0,0,0,0,0,0,-1,1462,939,0,0
245,85,0,0,0,0,0,0,0,0,0,-1,1469,939,0,0
252,85,0,0,0,0,0,0,0,0,0,-1,1476,939,0,0
259,85,0,0,0,0,0,0,0,0,0,-1,1483,939,0,0
266,85,0,0,0,0,0,0,0,0,0,-1,1490,939,0,0
273,85,0,0,0,0,0,0,0,0,0,-1,1497,939,0,0
280,85,0,0,0,0,0,0,0,0,0,-1,1504,939,0,0
287,85,0,0,0,0,0,0,0,0,0,-1,1511,939,0,0
294,85,0,0,0,0,0,0,0,0,0,-1,1518,939,0,0
301,85,0,0,0,0,0,0,0,0,0,-1,1525,939,0,0
308,85,0,0,0,0,0,0,0,0,0,-1,1532,939,0,0
315,85,0,0,0,0,0,0,0,0,0,-1,1539,939,0,0
322,85,0,0,0,0,0,0,0,0,0,-1,1546,939,0,0
329,85,0,0,0,0,0,0,0,0,0,-1,1553,939,0,0
336,85,0,0,0,0,0,0,0,0,0,-1,1560,939,0,0
343,85,0,0,0,0,0,0,0,0,0,-1,1567,939,0,0
350,85,0,0,0,0,0,0,0,0,0,-1,1574,939,0,0
357,85,0,0,0,0,0,0,0,0,0,-1,1581,939,0,0
364,85,0,0,0,0,0,0,0,0,0,-1,1588,939,0,0
371,85,0,0,0,0,0,0,0,0,0,-1,1595,939,0,0
378,85,0,0,0,0,0,0,0,0,0,-1,1602,939,0,0
385,85,0,0,0,0,0,0,0,0,0,-1,1609,939,0,0
392,85,0,0,0,0,0,0,0,0,0,-1,1616,939,0,0
399,85,0,0,0,0,0,0,0,0,0,-1,1623,939,0,0
406,85,0,0,0,0,0,0,0,0,0,-1,1630,939,0,0
413,85,0,0,0,0,0,0,0,0,0,-1,1637,939,0,0
420,85,0,0,0,0,0,0,0,0,0,-1,1644,939,0,0
427,85,0,0,0,0,0,0,0,0,0,-1,1651,939,0,0
434,85,0,0,0,0,0,0,0,0,0,-1,1658,939,0,0
441,85,0,0,0,0,0,0,0,0,0,-1,1665,939,0,0
448,85,0,0,0,0,0,0,0,0,0,-1,1672,939,0,0
455,85,0,0,0,0,0,0,0,0,0,-1,1679,939,0,0
462,85,0,0,0,0,0,0,0,0,0,-1,1686,939,0,0
469,85,0,0,0,0,0,0,0,0,0,-1,1693,939,0,0
476,85,0,0,0,0,0,0,0,0,0,-1,1700,939,0,0
483,85,0,0,0,0,0,0,0,0,0,-1,1707,939,0,0
490,85,0,0,0,0,0,0,0,0,0,-1,1714,939,0,0
497,85,0,0,0,0,0,0,0,0,0,-1,1721,939,0,0
504,85,0,0,0,0,0,0,0,0,0,-1,1728,939,0,0
511,85,0,0,0,0,0,0,0,0,0,-1,1735,939,0,0
518,85,0,0,0,0,0,0,0,0,0,-1,1742,939,0,0
525,85,0,0,0,0,0,0,0,0,0,-1,1749,939,0,0
532,85,0,0,0,0,0,0,0,0,0,-1,1756,939,0,0
539,85,0,0,0,0,0,0,0,0,0,-1,1763,939,0,0
546,85,0,0,0,0,0,0,0,0,0,-1,1770,939,0,0
553,85,0,0,0,0,0,0,0,0,0,-1,1777,939,0,0
560,85,0,0,0,0,0,0,0,0,0,-1,1784,939,0,0
567,85,0,0,0,0,0,0,0,0,0,-1,1791,939,0,0
574,85,0,0,0,0,0,0,0,0,0,-1,1798,939,0,0
581,85,0,0,0,0,0,0,0,0,0,-1,1805,939,0,0
588,85,0,0,0,0,0,0,0,0,0,-1,1812,939,0,0
595,85,0,0,0,0,0,0,0,0,0,-1,1819,939,0,0
602,85,0,0,0,0,0,0,0,0,0,-1,1826,939,0,0
609,85,0,0,0,0,0,0,0,0,0,-1,1833,939,0,0
616,85,0,0,0,0,0,0,0,0,0,-1,1840,939,0,0
623,85,0,0,0,0,0,0,0,0,0,-1,1847,939,0,0
630,85,0,0,0,0,0,0,0,0,0,-1,1854,939,0,0
637,85,52.9735,2.53772,0,0,0,0,0,0,0,-1,1861,939,52.9735,-2.53769
644,85,53.0979,2.60413,0.00184306,0.00268151,-0.000903131,0.00325798,0.0012666,-1.00269,0.00189645,0.0434483,1868,939,53.0979,-2.60412
651,85,53.2128,2.52307,0.000466992,0.00188805,-0.000570775,0.00208891,0.000266129,-1.23242,0.00131292,0.041719,1875,939,53.2128,-2.52309
658,85,53.1189,2.50226,-0.000363739,0.00140713,-0.000192481,0.00142781,-0.000384419,-1.46377,0.00110258,0.0407688,1882,939,53.1189,-2.50229
665,85,53.0096,2.56061,-0.000740266,0.00112615,0.000276254,0.00116618,-0.000780296,1.42689,0.00113114,0.0422876,1889,939,53.0096,-2.56059
672,85,53.0443,2.68445,-0.000923767,0.000816833,0.000745688,0.0010926,-0.00119954,1.21658,0.00132385,0.0433708,1896,939,53.0443,-2.68448
679,85,52.9973,2.75824,-0.000980311,0.000442256,0.00111236,0.0010513,-0.00158935,1.06986,0.0015351,0.0390715,1903,939,52.9974,-2.75822
686,85,52.9769,2.77728,-0.000977513,0.000126065,0.00124205,0.000933382,-0.00178483,0.994431,0.00159482,0.03176,1910,939,52.977,-2.7773
693,85,53.0115,2.68713,-0.00103163,-0.000137578,0.001207,0.000702515,-0.00187172,0.962747,0.00153648,0.0255026,1917,939,53.0115,-2.68711
700,85,53.0807,2.6911,-0.00114702,-0.000156436,0.00095684,0.000425703,-0.00172916,1.02423,0.0013178,0.0409761,1924,939,53.0807,-2.69108
707,85,53.2131,2.68475,0,0,0,0,0,0,0,-1,1931,939,53.2132,-2.68473
714,85,50.1215,3.92139,0,0,0,0,0,0,0,-1,1938,939,50.1214,-3.9214
721,85,49.986,4.50201,-0.00210895,0.000959095,0.000158089,0.000967219,-0.00211708,1.51945,0.0018215,0.0335821,1945,939,49.986,-4.50199
728,85,49.8148,5.10718,-0.00265366,0.00175134,-0.000389097,0.00178545,-0.00268777,-1.48337,0.00260007,0.028713,1952,939,49.8149,-5.10718
735,85,49.8102,5.46216,-0.00289464,0.00288711,-0.0011611,0.00311157,-0.0031191,-1.37984,0.00359728,0.0263526,1959,939,49.8102,-5.46215
742,85,49.8842,5.85638,-0.0034682,0.00443356,-0.00305488,0.00547685,-0.00451149,-1.2417,0.00577574,0.0186689,1966,939,49.8841,-5.85638
749,85,49.7991,6.27673,-0.0041825,0.0073274,-0.00641778,0.0101926,-0.00704772,-1.1509,0.0100088,0.0142788,1973,939,49.7991,-6.27673
756,85,49.6692,6.67413,-0.00443067,0.0114121,-0.0108179,0.0168987,-0.00991731,-1.10142,0.0156562,0.0136478,1980,939,49.6691,-6.67414
763,85,49.6598,7.09467,-0.00488037,0.0162603,-0.0168608,0.0255902,-0.0142103,-1.06539,0.0232898,0.0143529,1987,939,49.6598,-7.09469
770,85,49.5938,7.56628,-0.00534442,0.0217704,-0.0247492,0.0364322,-0.0200062,-1.03597,0.0330416,0.0211155,1994,939,49.5938,-7.56627
777,85,49.3567,8.03046,-0.00589498,0.0280023,-0.0351212,0.0500505,-0.0279432,-1.0102,0.0456287,0.042754,2001,939,49.3567,-8.03043
784,85,49.2271,8.44299,0,0,0,0,0,0,0,-1,2008,939,49.2271,-8.44297
791,85,50.7419,8.91516,-0.00795104,0.0435145,-0.0676515,0.0901619,-0.0545985,-0.967134,0.084414,0.0496823,2015,939,50.7419,-8.91513
798,85,50.0857,8.06873,-0.00999202,0.0531342,-0.0912815,0.118155,-0.0750133,-0.951852,0.112449,0.049022,2022,939,50.0858,-8.06875
805,85,49.3545,7.11475,0,0,0,0,0,0,0,-1,2029,939,49.3545,-7.11474
812,85,0,0,0,0,0,0,0,0,0,-1,2036,939,0,0
-700,78,0,0,0,0,0,0,0,0,0,-1,524,946,0,0
-693,78,0,0,0,0,0,0,0,0,0,-1,531,946,0,0
-686,78,-35.8215,6.24481,0,0,0,0,0,0,0,-1,538,946,-35.8215,-6.24481
-679,78,-36.046,5.90662,0.00566095,0.00461818,0.0198835,0.0250299,-0.0147508,0.77229,0.0232216,0.0475709,545,946,-36.046,-5.90664
-672,78,-36.2775,5.49365,-0.00271803,0.00941331,0.0170078,0.0214047,-0.0147094,0.956687,0.0209696,0.0458357,552,946,-36.2774,-5.49366
-665,78,-36.5295,5.17419,-0.00806237,0.0123072,0.0144696,0.019817,-0.0155722,1.09206,0.0204809,0.0458848,559,946,-36.5295,-5.17419
-658,78,-36.5256,6.98285,-0.0110836,0.0138142,0.0122345,0.0188197,-0.0160892,1.18244,0.0201752,0.0442392,566,946,-36.5256,-6.98286
-651,78,-37.0386,5.81897,-0.0123486,0.0142186,0.0102854,0.0177351,-0.0158651,1.24136,0.0194091,0.0455319,573,946,-37.0386,-5.81898
-644,78,-37.516,5.01501,-0.0122861,0.0136998,0.00860776,0.0162924,-0.0148787,1.27824,0.0180029,0.0292657,580,946,-37.516,-5.01503
-637,78,-37.7939,4.64337,-0.0117477,0.0127456,0.00699127,0.0146007,-0.0136027,1.31143,0.0162867,0.018007,587,946,-37.7939,-4.64339
-630,78,-37.948,4.28845,-0.0113177,0.0110926,0.00515983,0.0122236,-0.0124486,1.35503,0.0142447,0.0168312,594,946,-37.948,-4.28846
-623,78,-37.9656,3.92743,-0.0107159,0.00924432,0.00380491,0.00994503,-0.0114166,1.38868,0.0123429,0.013385,601,946,-37.9656,-3.92742
-616,78,-37.975,3.54004,-0.00997659,0.00713405,0.00232954,0.00744553,-0.0102881,1.43787,0.0102823,0.011394,608,946,-37.975,-3.54002
-609,78,-37.955,3.20123,-0.00966159,0.00443325,0.00087936,0.0044879,-0.00971624,1.50873,0.0083839,0.0116933,615,946,-37.955,-3.2012
-602,78,-37.9825,2.84015,-0.00990137,0.00300676,-0.000147171,0.00300844,-0.00990305,-1.5594,0.00780068,0.0158552,622,946,-37.9826,-2.84015
-595,78,-37.916,2.39642,-0.0101731,0.00167994,-0.000993651,0.00176266,-0.0102559,-1.48774,0.00749421,0.0162214,629,946,-37.916,-2.39642
-588,78,-37.8958,2.07397,-0.0104652,0.000877121,-0.00172806,0.00113456,-0.0107226,-1.42291,0.00755504,0.0140372,636,946,-37.8958,-2.07398
-581,78,-38.0653,1.72412,-0.0106937,0.000536061,-0.00218399,0.000945856,-0.0111034,-1.38532,0.00773688,0.0327833,643,946,-38.0653,-1.7241
-574,78,-38.8646,1.2558,-0.0105962,0.000514484,-0.00237101,0.000999298,-0.011081,-1.3691,0.00774198,0.0416897,650,946,-38.8646,-1.2558
-567,78,-39.7392,0.941711,0,0,0,0,0,0,0,-1,657,946,-39.7392,-0.941684
-560,78,-39.708,0.765198,-0.00917684,0.000933162,-0.00237734,0.00146429,-0.00970796,-1.35099,0.00701123,0.0339627,664,946,-39.708,-0.765172
-553,78,-39.8038,0.738464,-0.00748071,0.0014627,-0.00207602,0.0019211,-0.00793912,-1.35347,0.0060359,0.0435784,671,946,-39.8038,-0.738448
-546,78,-39.8929,0.925781,-0.00466485,0.00211279,-0.00144235,0.00240697,-0.00495903,-1.3696,0.00433701,0.0423374,678,946,-39.893,-0.925781
-539,78,-39.7945,1.04779,-0.000469745,0.00274588,-0.000361993,0.00278613,-0.000509992,-1.46007,0.00204869,0.0392632,685,946,-39.7945,-1.04776
-532,78,-39.7394,0.899231,0.00519831,0.00325588,0.00111068,0.00570251,0.00275168,0.426144,0.00329302,0.0398245,692,946,-39.7394,-0.899208
-525,78,-39.4835,0.938232,0,0,0,0,0,0,0,-1,699,946,-39.4835,-0.938207
-518,78,-39.5972,1.03217,0,0,0,0,0,0,0,-1,706,946,-39.5972,-1.03216
-511,78,0,0,0,0,0,0,0,0,0,-1,713,946,0,0
-504,78,0,0,0,0,0,0,0,0,0,-1,720,946,0,0
-497,78,0,0,0,0,0,0,0,0,0,-1,727,946,0,0
-490,78,0,0,0,0,0,0,0,0,0,-1,734,946,0,0
-483,78,0,0,0,0,0,0,0,0,0,-1,741,946,0,0
-476,78,0,0,0,0,0,0,0,0,0,-1,748,946,0,0
-469,78,0,0,0,0,0,0,0,0,0,-1,755,946,0,0
-462,78,0,0,0,0,0,0,0,0,0,-1,762,946,0,0
-455,78,0,0,0,0,0,0,0,0,0,-1,769,946,0,0
-448,78,0,0,0,0,0,0,0,0,0,-1,776,946,0,0
-441,78,0,0,0,0,0,0,0,0,0,-1,783,946,0,0
-434,78,0,0,0,0,0,0,0,0,0,-1,790,946,0,0
-427,78,0,0,0,0,0,0,0,0,0,-1,797,946,0,0
-420,78,0,0,0,0,0,0,0,0,0,-1,804,946,0,0
-413,78,0,0,0,0,0,0,0,0,0,-1,811,946,0,0
-406,78,0,0,0,0,0,0,0,0,0,-1,818,946,0,0
-399,78,0,0,0,0,0,0,0,0,0,-1,825,946,0,0
-392,78,0,0,0,0,0,0,0,0,0,-1,832,946,0,0
-385,78,0,0,0,0,0,0,0,0,0,-1,839,946,0,0
-378,78,0,0,0,0,0,0,0,0,0,-1,846,946,0,0
-371,78,0,0,0,0,0,0,0,0,0,-1,853,946,0,0
-364,78,0,0,0,0,0,0,0,0,0,-1,860,946,0,0
-357,78,0,0,0,0,0,0,0,0,0,-1,867,946,0,0
-350,78,0,0,0,0,0,0,0,0,0,-1,874,946,0,0
-343,78,0,0,0,0,0,0,0,0,0,-1,881,946,0,0
-336,78,0,0,0,0,0,0,0,0,0,-1,888,946,0,0
-329,78,0,0,0,0,0,0,0,0,0,-1,895,946,0,0
-322,78,0,0,0,0,0,0,0,0,0,-1,902,946,0,0
-315,78,0,0,0,0,0,0,0,0,0,-1,909,946,0,0
-308,78,0,0,0,0,0,0,0,0,0,-1,916,946,0,0
-301,78,0,0,0,0,0,0,0,0,0,-1,923,946,0,0
-294,78,0,0,0,0,0,0,0,0,0,-1,930,946,0,0
-287,78,0,0,0,0,0,0,0,0,0,-1,937,946,0,0
-280,78,0,0,0,0,0,0,0,0,0,-1,944,946,0,0
-273,78,0,0,0,0,0,0,0,0,0,-1,951,946,0,0
-266,78,0,0,0,0,0,0,0,0,0,-1,958,946,0,0
-259,78,0,0,0,0,0,0,0,0,0,-1,965,946,0,0
-252,78,0,0,0,0,0,0,0,0,0,-1,972,946,0,0
-245,78,0,0,0,0,0,0,0,0,0,-1,979,946,0,0
-238,78,0,0,0,0,0,0,0,0,0,-1,986,946,0,0
-231,78,0,0,0,0,0,0,0,0,0,-1,993,946,0,0
-224,78,0,0,0,0,0,0,0,0,0,-1,1000,946,0,0
-217,78,0,0,0,0,0,0,0,0,0,-1,1007,946,0,0
-210,78,0,0,0,0,0,0,0,0,0,-1,1014,946,0,0
-203,78,0,0,0,0,0,0,0,0,0,-1,1021,946,0,0
-196,78,0,0,0,0,0,0,0,0,0,-1,1028,946,0,0
-189,78,0,0,0,0,0,0,0,0,0,-1,1035,946,0,0
-182,78,0,0,0,0,0,0,0,0,0,-1,1042,946,0,0
-175,78,0,0,0,0,0,0,0,0,0,-1,1049,946,0,0
-168,78,0,0,0,0,0,0,0,0,0,-1,1056,946,0,0
-161,78,0,0,0,0,0,0,0,0,0,-1,1063,946,0,0
-154,78,0,0,0,0,0,0,0,0,0,-1,1070,946,0,0
-147,78,0,0,0,0,0,0,0,0,0,-1,1077,946,0,0
-140,78,0,0,0,0,0,0,0,0,0,-1,1084,946,0,0
-133,78,0,0,0,0,0,0,0,0,0,-1,1091,946,0,0
-126,78,0,0,0,0,0,0,0,0,0,-1,1098,946,0,0
-119,78,0,0,0,0,0,0,0,0,0,-1,1105,946,0,0
-112,78,0,0,0,0,0,0,0,0,0,-1,1112,946,0,0
-105,78,0,0,0,0,0,0,0,0,0,-1,1119,946,0,0
-98,78,0,0,0,0,0,0,0,0,0,-1,1126,946,0,0
-91,78,0,0,0,0,0,0,0,0,0,-1,1133,946,0,0
-84,78,0,0,0,0,0,0,0,0,0,-1,1140,946,0,0
-77,78,0,0,0,0,0,0,0,0,0,-1,1147,946,0,0
-70,78,0,0,0,0,0,0,0,0,0,-1,1154,946,0,0
-63,78,0,0,0,0,0,0,0,0,0,-1,1161,946,0,0
-56,78,0,0,0,0,0,0,0,0,0,-1,1168,946,0,0
-49,78,0,0,0,0,0,0,0,0,0,-1,1175,946,0,0
-42,78,0,0,0,0,0,0,0,0,0,-1,1182,946,0,0
-35,78,0,0,0,0,0,0,0,0,0,-1,1189,946,0,0
-28,78,0,0,0,0,0,0,0,0,0,-1,1196,946,0,0
-21,78,0,0,0,0,0,0,0,0,0,-1,1203,946,0,0
-14,78,0,0,0,0,0,0,0,0,0,-1,1210,946,0,0
-7,78,0,0,0,0,0,0,0,0,0,-1,1217,946,0,0
0,78,0,0,0,0,0,0,0,0,0,-1,1224,946,0,0
7,78,0,0,0,0,0,0,0,0,0,-1,1231,946,0,0
14,78,0,0,0,0,0,0,0,0,0,-1,1238,946,0,0
21,78,0,0,0,0,0,0,0,0,0,-1,1245,946,0,0
28,78,0,0,0,0,0,0,0,0,0,-1,1252,946,0,0
35,78,0,0,0,0,0,0,0,0,0,-1,1259,946,0,0
42,78,0,0,0,0,0,0,0,0,0,-1,1266,946,0,0
49,78,0,0,0,0,0,0,0,0,0,-1,1273,946,0,0
56,78,0,0,0,0,0,0,0,0,0,-1,1280,946,0,0
63,78,0,0,0,0,0,0,0,0,0,-1,1287,946,0,0
70,78,0,0,0,0,0,0,0,0,0,-1,1294,946,0,0
77,78,0,0,0,0,0,0,0,0,0,-1,1301,946,0,0
84,78,0,0,0,0,0,0,0,0,0,-1,1308,946,0,0
91,78,0,0,0,0,0,0,0,0,0,-1,1315,946,0,0
98,78,0,0,0,0,0,0,0,0,0,-1,1322,946,0,0
105,78,0,0,0,0,0,0,0,0,0,-1,1329,946,0,0
112,78,0,0,0,0,0,0,0,0,0,-1,1336,946,0,0
119,78,0,0,0,0,0,0,0,0,0,-1,1343,946,0,0
126,78,0,0,0,0,0,0,0,0,0,-1,1350,946,0,0
133,78,0,0,0,0,0,0,0,0,0,-1,1357,946,0,0
140,78,0,0,0,0,0,0,0,0,0,-1,1364,946,0,0
147,78,0,0,0,0,0,0,0,0,0,-1,1371,946,0,0
154,78,0,0,0,0,0,0,0,0,0,-1,1378,946,0,0
161,78,0,0,0,0,0,0,0,0,0,-1,1385,946,0,0
168,78,0,0,0,0,0,0,0,0,0,-1,1392,946,0,0
175,78,0,0,0,0,0,0,0,0,0,-1,1399,946,0,0
182,78,0,0,0,0,0,0,0,0,0,-1,1406,946,0,0
189,78,0,0,0,0,0,0,0,0,0,-1,1413,946,0,0
196,78,0,0,0,0,0,0,0,0,0,-1,1420,946,0,0
203,78,0,0,0,0,0,0,0,0,0,-1,1427,946,0,0
210,78,0,0,0,0,0,0,0,0,0,-1,1434,946,0,0
217,78,0,0,0,0,0,0,0,0,0,-1,1441,946,0,0
224,78,0,0,0,0,0,0,0,0,0,-1,1448,946,0,0
231,78,0,0,0,0,0,0,0,0,0,-1,1455,946,0,0
238,78,0,0,0,0,0,0,0,0,0,-1,1462,946,0,0
245,78,0,0,0,0,0,0,0,0,0,-1,1469,946,0,0
252,78,0,0,0,0,0,0,0,0,0,-1,1476,946,0,0
259,78,0,0,0,0,0,0,0,0,0,-1,1483,946,0,0
266,78,0,0,0,0,0,0,0,0,0,-1,1490,946,0,0
273,78,0,0,0,0,0,0,0,0,0,-1,1497,946,0,0
280,78,0,0,0,0,0,0,0,0,0,-1,1504,946,0,0
287,78,0,0,0,0,0,0,0,0,0,-1,1511,946,0,0
294,78,0,0,0,0,0,0,0,0,0,-1,1518,946,0,0
301,78,0,0,0,0,0,0,0,0,0,-1,1525,946,0,0
308,78,0,0,0,0,0,0,0,0,0,-1,1532,946,0,0
315,78,0,0,0,0,0,0,0,0,0,-1,1539,946,0,0
322,78,0,0,0,0,0,0,0,0,0,-1,1546,946,0,0
329,78,0,0,0,0,0,0,0,0,0,-1,1553,946,0,0
336,78,0,0,0,0,0,0,0,0,0,-1,1560,946,0,0
343,78,0,0,0,0,0,0,0,0,0,-1,1567,946,0,0
350,78,0,0,0,0,0,0,0,0,0,-1,1574,946,0,0
357,78,0,0,0,0,0,0,0,0,0,-1,1581,946,0,0
364,78,0,0,0,0,0,0,0,0,0,-1,1588,946,0,0
371,78,0,0,0,0,0,0,0,0,0,-1,1595,946,0,0
378,78,0,0,0,0,0,0,0,0,0,-1,1602,946,0,0
385,78,0,0,0,0,0,0,0,0,0,-1,1609,946,0,0
392,78,0,0,0,0,0,0,0,0,0,-1,1616,946,0,0
399,78,0,0,0,0,0,0,0,0,0,-1,1623,946,0,0
406,78,0,0,0,0,0,0,0,0,0,-1,1630,946,0,0
413,78,0,0,0,0,0,0,0,0,0,-1,1637,946,0,0
420,78,0,0,0,0,0,0,0,0,0,-1,1644,946,0,0
427,78,0,0,0,0,0,0,0,0,0,-1,1651,946,0,0
434,78,0,0,0,0,0,0,0,0,0,-1,1658,946,0,0
441,78,0,0,0,0,0,0,0,0,0,-1,1665,946,0,0
448,78,0,0,0,0,0,0,0,0,0,-1,1672,946,0,0
455,78,0,0,0,0,0,0,0,0,0,-1,1679,946,0,0
462,78,0,0,0,0,0,0,0,0,0,-1,1686,946,0,0
469,78,0,0,0,0,0,0,0,0,0,-1,1693,946,0,0
476,78,0,0,0,0,0,0,0,0,0,-1,1700,946,0,0
483,78,0,0,0,0,0,0,0,0,0,-1,1707,946,0,0
490,78,0,0,0,0,0,0,0,0,0,-1,1714,946,0,0
497,78,0,0,0,0,0,0,0,0,0,-1,1721,946,0,0
504,78,0,0,0,0,0,0,0,0,0,-1,1728,946,0,0
511,78,0,0,0,0,0,0,0,0,0,-1,1735,946,0,0
518,78,0,0,0,0,0,0,0,0,0,-1,1742,946,0,0
525,78,0,0,0,0,0,0,0,0,0,-1,1749,946,0,0
532,78,0,0,0,0,0,0,0,0,0,-1,1756,946,0,0
539,78,0,0,0,0,0,0,0,0,0,-1,1763,946,0,0
546,78,0,0,0,0,0,0,0,0,0,-1,1770,946,0,0
553,78,0,0,0,0,0,0,0,0,0,-1,1777,946,0,0
560,78,0,0,0,0,0,0,0,0,0,-1,1784,946,0,0
567,78,0,0,0,0,0,0,0,0,0,-1,1791,946,0,0
574,78,0,0,0,0,0,0,0,0,0,-1,1798,946,0,0
581,78,0,0,0,0,0,0,0,0,0,-1,1805,946,0,0
588,78,0,0,0,0,0,0,0,0,0,-1,1812,946,0,0
595,78,0,0,0,0,0,0,0,0,0,-1,1819,946,0,0
602,78,0,0,0,0,0,0,0,0,0,-1,1826,946,0,0
609,78,0,0,0,0,0,0,0,0,0,-1,1833,946,0,0
616,78,0,0,0,0,0,0,0,0,0,-1,1840,946,0,0
623,78,0,0,0,0,0,0,0,0,0,-1,1847,946,0,0
630,78,0,0,0,0,0,0,0,0,0,-1,1854,946,0,0
637,78,53.1246,2.53467,0.00173548,0.00279713,0.000305174,0.0028786,0.00165401,1.30991,0.00166811,0.0474799,1861,946,53.1246,-2.53467
644,78,53.1781,2.53009,0.00029631,0.00182061,0.000430593,0.00193383,0.000183084,1.31366,0.00123273,0.0436236,1868,946,53.1781,-2.5301
651,78,53.2067,2.52606,-0.000554831,0.00116056,0.000403371,0.00125068,-0.000644949,1.35099,0.00111291,0.04227,1875,946,53.2067,-2.52607
658,78,53.1571,2.56976,-0.000970266,0.000804202,0.00048432,0.000927784,-0.00109385,1.32096,0.0011685,0.0398293,1882,946,53.1572,-2.56974
665,78,53.173,2.5611,-0.00110147,0.000675759,0.000746911,0.000947967,-0.00137368,1.22131,0.00134789,0.0415281,1889,946,53.173,-2.56112
672,78,53.014,2.67993,-0.00119193,0.000502611,0.00110418,0.00104713,-0.00173644,1.11265,0.00162344,0.0422746,1896,946,53.014,-2.67995
679,78,52.9597,2.77167,-0.00123174,0.000230461,0.00143325,0.00110831,-0.00210959,1.02125,0.00188759,0.039489,1903,946,52.9597,-2.77164
686,78,52.9733,2.67743,-0.00120736,-3.67691e-05,0.00154393,0.00102908,-0.00227321,0.966576,0.00195116,0.0370216,1910,946,52.9733,-2.67744
693,78,52.9901,2.55609,-0.00125308,-0.000272747,0.00150589,0.00082074,-0.00234656,0.94274,0.00189806,0.029843,1917,946,52.9901,-2.55607
700,78,53.0424,2.59991,-0.00137421,-0.000282489,0.00124271,0.000528963,-0.00218566,0.992337,0.00166173,0.0241773,1924,946,53.0423,-2.59994
707,78,52.7528,3.49475,0,0,0,0,0,0,0,-1,1931,946,52.7528,-3.49478
714,78,50.3252,4.17633,0,0,0,0,0,0,0,-1,1938,946,50.3252,-4.17633
721,78,50.3134,4.60974,-0.00245697,0.000939716,0.000387629,0.00098339,-0.00250065,1.4586,0.00207412,0.0323079,1945,946,50.3134,-4.60974
728,78,50.2906,5.15271,-0.00294353,0.00178652,-0.000175714,0.00179304,-0.00295005,-1.53372,0.00276545,0.0319886,1952,946,50.2907,-5.15268
735,78,50.348,5.52075,-0.00305706,0.00296451,-0.000974835,0.00311839,-0.00321095,-1.41423,0.00365438,0.0232353,1959,946,50.348,-5.52073
742,78,50.3673,5.88123,-0.00340196,0.00448709,-0.0027723,0.00536386,-0.00427873,-1.26449,0.00557889,0.0188266,1966,946,50.3673,-5.88125
749,78,50.2476,6.26166,-0.00370509,0.00737923,-0.00590593,0.00993618,-0.00626203,-1.16221,0.00943189,0.0148746,1973,946,50.2476,-6.26168
756,78,50.1899,6.61963,-0.00329997,0.0114943,-0.0100004,0.0165361,-0.00834175,-1.10383,0.0146206,0.0143204,1980,946,50.19,-6.61961
763,78,50.1255,6.96936,-0.00281886,0.0164536,-0.0156184,0.0251692,-0.0115345,-1.0618,0.0216728,0.0164246,1987,946,50.1255,-6.96934
770,78,50.0397,7.33533,-0.00208516,0.0222433,-0.0229085,0.0360168,-0.0158587,-1.02946,0.0306948,0.022607,1994,946,50.0396,-7.33532
777,78,49.8291,7.74817,-0.00101984,0.0287687,-0.0322602,0.049407,-0.0216581,-1.00167,0.0420591,0.0430268,2001,946,49.829,-7.74818
784,78,49.8057,8.15564,0,0,0,0,0,0,0,-1,2008,946,49.8056,-8.15566
791,78,51.7224,8.85223,0.00239642,0.0452916,-0.0609824,0.088488,-0.0408,-0.954493,0.0763183,0.046185,2015,946,51.7225,-8.85222
798,78,51.2927,7.8479,0.00481302,0.0558017,-0.0816339,0.11583,-0.0552149,-0.93675,0.100798,0.0472635,2022,946,51.2928,-7.84791
805,78,50.8481,6.75513,0,0,0,0,0,0,0,-1,2029,946,50.848,-6.75512
812,78,0,0,0,0,0,0,0,0,0,-1,2036,946,0,0
-700,71,0,0,0,0,0,0,0,0,0,-1,524,953,0,0
-693,71,0,0,0,0,0,0,0,0,0,-1,531,953,0,0
-686,71,-36.1081,6.03363,0,0,0,0,0,0,0,-1,538,953,-36.1081,-6.03361
-679,71,-36.3537,5.7171,0.0147471,0.0153036,0.0228414,0.0378685,-0.00781775,0.791489,0.0282149,0.0472732,545,953,-36.3537,-5.7171
-672,71,-36.7704,5.48779,0.00536878,0.019569,0.0196357,0.0333489,-0.00841107,0.95888,0.0255029,0.0465464,552,953,-36.7704,-5.48778
-665,71,-36.8217,6.65198,0,0,0,0,0,0,0,-1,559,953,-36.8217,-6.652
-658,71,-37.2258,6.18994,-0.00581596,0.0217472,0.0141501,0.027718,-0.0117868,1.1715,0.0234182,0.0477495,566,953,-37.2258,-6.18994
-651,71,-37.5374,5.55603,-0.00845529,0.0207284,0.0118436,0.0249299,-0.0126568,1.22989,0.022083,0.0459448,573,953,-37.5373,-5.55601
-644,71,-37.9,5.00336,-0.00953726,0.0187849,0.00982947,0.021862,-0.0126144,1.26741,0.0201422,0.0335333,580,953,-37.9,-5.00333
-637,71,-38.2288,4.56805,-0.0100395,0.016726,0.00779974,0.0188331,-0.0121465,1.30695,0.0180244,0.0177577,587,953,-38.2288,-4.56803
-630,71,-38.3492,4.23877,-0.0103454,0.0139932,0.00553589,0.0151932,-0.0115454,1.35733,0.0154854,0.0165629,594,953,-38.3492,-4.23875
-623,71,-38.3732,3.88214,-0.0100202,0.0110876,0.00378548,0.011746,-0.0106786,1.3986,0.0129517,0.0147939,601,953,-38.3732,-3.88211
-616,71,-38.3846,3.47284,-0.00949532,0.00816675,0.00203777,0.00839881,-0.00972738,1.45741,0.0104745,0.0146459,608,953,-38.3846,-3.47284
-609,71,-38.3541,3.16815,-0.00919687,0.00510287,0.000275531,0.00510817,-0.00920218,1.55154,0.00837403,0.0154812,615,953,-38.354,-3.16815
-602,71,-38.3287,2.83929,-0.00931119,0.00352856,-0.000959982,0.00359994,-0.00938257,-1.49658,0.00773933,0.0162018,622,953,-38.3287,-2.83932
-595,71,-38.3337,2.51929,-0.0094145,0.00209688,-0.00198631,0.00242998,-0.00974761,-1.40464,0.00744184,0.0181672,629,953,-38.3337,-2.51929
-588,71,-38.313,2.20294,-0.00956105,0.0012021,-0.00282317,0.00189766,-0.0102566,-1.32923,0.00755021,0.0217161,636,953,-38.3131,-2.20294
-581,71,-38.5762,1.63184,-0.00974232,0.000789601,-0.00331804,0.00174776,-0.0107005,-1.28967,0.00778194,0.040264,643,953,-38.5763,-1.63183
-574,71,-39.3787,1.06421,-0.0097389,0.000775426,-0.00351368,0.00184153,-0.010805,-1.27621,0.00788915,0.0438335,650,953,-39.3787,-1.06419
-567,71,-40.0237,0.72229,0,0,0,0,0,0,0,-1,657,953,-40.0238,-0.722304
-560,71,-39.7454,0.761963,-0.00836996,0.00129581,-0.00330165,0.00231593,-0.00939008,-1.27113,0.00715802,0.0279854,664,953,-39.7454,-0.761955
-553,71,-39.8755,0.738647,-0.00657188,0.00184193,-0.00278762,0.00268169,-0.00741165,-1.27819,0.00603692,0.0396223,671,953,-39.8755,-0.738653
-546,71,-39.9833,0.720886,-0.00364754,0.00246345,-0.00190219,0.00300718,-0.00419127,-1.29238,0.00417472,0.0403627,678,953,-39.9834,-0.720898
-539,71,-39.9464,0.664917,0.000597599,0.00301031,-0.000559856,0.00313389,0.000474017,-1.35354,0.00195055,0.0408464,685,953,-39.9464,-0.664913
-532,71,-39.8879,0.81958,0.00625802,0.00347695,0.00101385,0.00658838,0.00314659,0.314997,0.00380508,0.0458172,692,953,-39.8879,-0.819565
-525,71,-39.8339,0.852112,0.0113095,0.00391184,0.00202772,0.0118288,0.00339249,0.250733,0.00703329,0.0454752,699,953,-39.8339,-0.852082
-518,71,0,0,0,0,0,0,0,0,0,-1,706,953,0,0
-511,71,0,0,0,0,0,0,0,0,0,-1,713,953,0,0
-504,71,0,0,0,0,0,0,0,0,0,-1,720,953,0,0
-497,71,0,0,0,0,0,0,0,0,0,-1,727,953,0,0
-490,71,0,0,0,0,0,0,0,0,0,-1,734,953,0,0
-483,71,0,0,0,0,0,0,0,0,0,-1,741,953,0,0
-476,71,0,0,0,0,0,0,0,0,0,-1,748,953,0,0
-469,71,0,0,0,0,0,0,0,0,0,-1,755,953,0,0
-462,71,0,0,0,0,0,0,0,0,0,-1,762,953,0,0
-455,71,0,0,0,0,0,0,0,0,0,-1,769,953,0,0
-448,71,0,0,0,0,0,0,0,0,0,-1,776,953,0,0
-441,71,0,0,0,0,0,0,0,0,0,-1,783,953,0,0
-434,71,0,0,0,0,0,0,0,0,0,-1,790,953,0,0
-427,71,0,0,0,0,0,0,0,0,0,-1,797,953,0,0
-420,71,0,0,0,0,0,0,0,0,0,-1,804,953,0,0
-413,71,0,0,0,0,0,0,0,0,0,-1,811,953,0,0
-406,71,0,0,0,0,0,0,0,0,0,-1,818,953,0,0
-399,71,0,0,0,0,0,0,0,0,0,-1,825,953,0,0
-392,71,0,0,0,0,0,0,0,0,0,-1,832,953,0,0
-385,71,0,0,0,0,0,0,0,0,0,-1,839,953,0,0
-378,71,0,0,0,0,0,0,0,0,0,-1,846,953,0,0
-371,71,0,0,0,0,0,0,0,0,0,-1,853,953,0,0
-364,71,0,0,0,0,0,0,0,0,0,-1,860,953,0,0
-357,71,0,0,0,0,0,0,0,0,0,-1,867,953,0,0
-350,71,0,0,0,0,0,0,0,0,0,-1,874,953,0,0
-343,71,0,0,0,0,0,0,0,0,0,-1,881,953,0,0
-336,71,0,0,0,0,0,0,0,0,0,-1,888,953,0,0
-329,71,0,0,0,0,0,0,0,0,0,-1,895,953,0,0
-322,71,0,0,0,0,0,0,0,0,0,-1,902,953,0,0
-315,71,0,0,0,0,0,0,0,0,0,-1,909,953,0,0
-308,71,0,0,0,0,0,0,0,0,0,-1,916,953,0,0
-301,71,0,0,0,0,0,0,0,0,0,-1,923,953,0,0
-294,71,0,0,0,0,0,0,0,0,0,-1,930,953,0,0
-287,71,0,0,0,0,0,0,0,0,0,-1,937,953,0,0
-280,71,0,0,0,0,0,0,0,0,0,-1,944,953,0,0
-273,71,0,0,0,0,0,0,0,0,0,-1,951,953,0,0
-266,71,0,0,0,0,0,0,0,0,0,-1,958,953,0,0
-259,71,0,0,0,0,0,0,0,0,0,-1,965,953,0,0
-252,71,0,0,0,0,0,0,0,0,0,-1,972,953,0,0
-245,71,0,0,0,0,0,0,0,0,0,-1,979,953,0,0
-238,71,0,0,0,0,0,0,0,0,0,-1,986,953,0,0
-231,71,0,0,0,0,0,0,0,0,0,-1,993,953,0,0
-224,71,0,0,0,0,0,0,0,0,0,-1,1000,953,0,0
-217,71,0,0,0,0,0,0,0,0,0,-1,1007,953,0,0
-210,71,0,0,0,0,0,0,0,0,0,-1,1014,953,0,0
-203,71,0,0,0,0,0,0,0,0,0,-1,1021,953,0,0
-196,71,0,0,0,0,0,0,0,0,0,-1,1028,953,0,0
-189,71,0,0,0,0,0,0,0,0,0,-1,1035,953,0,0
-182,71,0,0,0,0,0,0,0,0,0,-1,1042,953,0,0
-175,71,0,0,0,0,0,0,0,0,0,-1,1049,953,0,0
-168,71,0,0,0,0,0,0,0,0,0,-1,1056,953,0,0
-161,71,0,0,0,0,0,0,0,0,0,-1,1063,953,0,0
-154,71,0,0,0,0,0,0,0,0,0,-1,1070,953,0,0
-147,71,0,0,0,0,0,0,0,0,0,-1,1077,953,0,0
-140,71,0,0,0,0,0,0,0,0,0,-1,1084,953,0,0
-133,71,0,0,0,0,0,0,0,0,0,-1,1091,953,0,0
-126,71,0,0,0,0,0,0,0,0,0,-1,1098,953,0,0
-119,71,0,0,0,0,0,0,0,0,0,-1,1105,953,0,0
-112,71,0,0,0,0,0,0,0,0,0,-1,1112,953,0,0
-105,71,0,0,0,0,0,0,0,0,0,-1,1119,953,0,0
-98,71,0,0,0,0,0,0,0,0,0,-1,1126,953,0,0
-91,71,0,0,0,0,0,0,0,0,0,-1,1133,953,0,0
-84,71,0,0,0,0,0,0,0,0,0,-1,1140,953,0,0
-77,71,0,0,0,0,0,0,0,0,0,-1,1147,953,0,0
-70,71,0,0,0,0,0,0,0,0,0,-1,1154,953,0,0
-63,71,0,0,0,0,0,0,0,0,0,-1,1161,953,0,0
-56,71,0,0,0,0,0,0,0,0,0,-1,1168,953,0,0
-49,71,0,0,0,0,0,0,0,0,0,-1,1175,953,0,0
-42,71,0,0,0,0,0,0,0,0,0,-1,1182,953,0,0
-35,71,0,0,0,0,0,0,0,0,0,-1,1189,953,0,0
-28,71,0,0,0,0,0,0,0,0,0,-1,1196,953,0,0
-21,71,0,0,0,0,0,0,0,0,0,-1,1203,953,0,0
-14,71,0,0,0,0,0,0,0,0,0,-1,1210,953,0,0
-7,71,0,0,0,0,0,0,0,0,0,-1,1217,953,0,0
0,71,0,0,0,0,0,0,0,0,0,-1,1224,953,0,0
7,71,0,0,0,0,0,0,0,0,0,-1,1231,953,0,0
14,71,0,0,0,0,0,0,0,0,0,-1,1238,953,0,0
21,71,0,0,0,0,0,0,0,0,0,-1,1245,953,0,0
28,71,0,0,0,0,0,0,0,0,0,-1,1252,953,0,0
35,71,0,0,0,0,0,0,0,0,0,-1,1259,953,0,0
42,71,0,0,0,0,0,0,0,0,0,-1,1266,953,0,0
49,71,0,0,0,0,0,0,0,0,0,-1,1273,953,0,0
56,71,0,0,0,0,0,0,0,0,0,-1,1280,953,0,0
63,71,0,0,0,0,0,0,0,0,0,-1,1287,953,0,0
70,71,0,0,0,0,0,0,0,0,0,-1,1294,953,0,0
77,71,0,0,0,0,0,0,0,0,0,-1,1301,953,0,0
84,71,0,0,0,0,0,0,0,0,0,-1,1308,953,0,0
91,71,0,0,0,0,0,0,0,0,0,-1,1315,953,0,0
98,71,0,0,0,0,0,0,0,0,0,-1,1322,953,0,0
105,71,0,0,0,0,0,0,0,0,0,-1,1329,953,0,0
112,71,0,0,0,0,0,0,0,0,0,-1,1336,953,0,0
119,71,0,0,0,0,0,0,0,0,0,-1,1343,953,0,0
126,71,0,0,0,0,0,0,0,0,0,-1,1350,953,0,0
133,71,0,0,0,0,0,0,0,0,0,-1,1357,953,0,0
140,71,0,0,0,0,0,0,0,0,0,-1,1364,953,0,0
147,71,0,0,0,0,0,0,0,0,0,-1,1371,953,0,0
154,71,0,0,0,0,0,0,0,0,0,-1,1378,953,0,0
161,71,0,0,0,0,0,0,0,0,0,-1,1385,953,0,0
168,71,0,0,0,0,0,0,0,0,0,-1,1392,953,0,0
175,71,0,0,0,0,0,0,0,0,0,-1,1399,953,0,0
182,71,0,0,0,0,0,0,0,0,0,-1,1406,953,0,0
189,71,0,0,0,0,0,0,0,0,0,-1,1413,953,0,0
196,71,0,0,0,0,0,0,0,0,0,-1,1420,953,0,0
203,71,0,0,0,0,0,0,0,0,0,-1,1427,953,0,0
210,71,0,0,0,0,0,0,0,0,0,-1,1434,953,0,0
217,71,0,0,0,0,0,0,0,0,0,-1,1441,953,0,0
224,71,0,0,0,0,0,0,0,0,0,-1,1448,953,0,0
231,71,0,0,0,0,0,0,0,0,0,-1,1455,953,0,0
238,71,0,0,0,0,0,0,0,0,0,-1,1462,953,0,0
245,71,0,0,0,0,0,0,0,0,0,-1,1469,953,0,0
252,71,0,0,0,0,0,0,0,0,0,-1,1476,953,0,0
259,71,0,0,0,0,0,0,0,0,0,-1,1483,953,0,0
266,71,0,0,0,0,0,0,0,0,0,-1,1490,953,0,0
273,71,0,0,0,0,0,0,0,0,0,-1,1497,953,0,0
280,71,0,0,0,0,0,0,0,0,0,-1,1504,953,0,0
287,71,0,0,0,0,0,0,0,0,0,-1,1511,953,0,0
294,71,0,0,0,0,0,0,0,0,0,-1,1518,953,0,0
301,71,0,0,0,0,0,0,0,0,0,-1,1525,953,0,0
308,71,0,0,0,0,0,0,0,0,0,-1,1532,953,0,0
315,71,0,0,0,0,0,0,0,0,0,-1,1539,953,0,0
322,71,0,0,0,0,0,0,0,0,0,-1,1546,953,0,0
329,71,0,0,0,0,0,0,0,0,0,-1,1553,953,0,0
336,71,0,0,0,0,0,0,0,0,0,-1,1560,953,0,0
343,71,0,0,0,0,0,0,0,0,0,-1,1567,953,0,0
350,71,0,0,0,0,0,0,0,0,0,-1,1574,953,0,0
357,71,0,0,0,0,0,0,0,0,0,-1,1581,953,0,0
364,71,0,0,0,0,0,0,0,0,0,-1,1588,953,0,0
371,71,0,0,0,0,0,0,0,0,0,-1,1595,953,0,0
378,71,0,0,0,0,0,0,0,0,0,-1,1602,953,0,0
385,71,0,0,0,0,0,0,0,0,0,-1,1609,953,0,0
392,71,0,0,0,0,0,0,0,0,0,-1,1616,953,0,0
399,71,0,0,0,0,0,0,0,0,0,-1,1623,953,0,0
406,71,0,0,0,0,0,0,0,0,0,-1,1630,953,0,0
413,71,0,0,0,0,0,0,0,0,0,-1,1637,953,0,0
420,71,0,0,0,0,0,0,0,0,0,-1,1644,953,0,0
427,71,0,0,0,0,0,0,0,0,0,-1,1651,953,0,0
434,71,0,0,0,0,0,0,0,0,0,-1,1658,953,0,0
441,71,0,0,0,0,0,0,0,0,0,-1,1665,953,0,0
448,71,0,0,0,0,0,0,0,0,0,-1,1672,953,0,0
455,71,0,0,0,0,0,0,0,0,0,-1,1679,953,0,0
462,71,0,0,0,0,0,0,0,0,0,-1,1686,953,0,0
469,71,0,0,0,0,0,0,0,0,0,-1,1693,953,0,0
476,71,0,0,0,0,0,0,0,0,0,-1,1700,953,0,0
483,71,0,0,0,0,0,0,0,0,0,-1,1707,953,0,0
490,71,0,0,0,0,0,0,0,0,0,-1,1714,953,0,0
497,71,0,0,0,0,0,0,0,0,0,-1,1721,953,0,0
504,71,0,0,0,0,0,0,0,0,0,-1,1728,953,0,0
511,71,0,0,0,0,0,0,0,0,0,-1,1735,953,0,0
518,71,0,0,0,0,0,0,0,0,0,-1,1742,953,0,0
525,71,0,0,0,0,0,0,0,0,0,-1,1749,953,0,0
532,71,0,0,0,0,0,0,0,0,0,-1,1756,953,0,0
539,71,0,0,0,0,0,0,0,0,0,-1,1763,953,0,0
546,71,0,0,0,0,0,0,0,0,0,-1,1770,953,0,0
553,71,0,0,0,0,0,0,0,0,0,-1,1777,953,0,0
560,71,0,0,0,0,0,0,0,0,0,-1,1784,953,0,0
567,71,0,0,0,0,0,0,0,0,0,-1,1791,953,0,0
574,71,0,0,0,0,0,0,0,0,0,-1,1798,953,0,0
581,71,0,0,0,0,0,0,0,0,0,-1,1805,953,0,0
588,71,0,0,0,0,0,0,0,0,0,-1,1812,953,0,0
595,71,0,0,0,0,0,0,0,0,0,-1,1819,953,0,0
602,71,0,0,0,0,0,0,0,0,0,-1,1826,953,0,0
609,71,0,0,0,0,0,0,0,0,0,-1,1833,953,0,0
616,71,0,0,0,0,0,0,0,0,0,-1,1840,953,0,0
623,71,0,0,0,0,0,0,0,0,0,-1,1847,953,0,0
630,71,0,0,0,0,0,0,0,0,0,-1,1854,953,0,0
637,71,53.2538,2.57416,-0.000302718,0.00179528,0.0019624,0.00297145,-0.00147889,1.03085,0.00261713,0.0409172,1861,953,53.2538,-2.57415
644,71,53.3136,2.57227,-0.000991512,0.00104445,0.00165741,0.00197154,-0.0019186,1.0608,0.00224605,0.0423644,1868,953,53.3136,-2.57224
651,71,53.2881,2.60413,-0.00132466,0.000535254,0.00126856,0.00117822,-0.00196762,1.10169,0.00183521,0.0411826,1875,953,53.288,-2.60413
658,71,53.2205,2.59894,-0.00136358,0.000278117,0.00106335,0.000800591,-0.00188605,1.1141,0.00159277,0.0377151,1882,953,53.2205,-2.59896
665,71,53.1702,2.56213,-0.00130785,0.000281798,0.00112878,0.000867512,-0.00189356,1.09215,0.00163038,0.0393916,1889,953,53.1702,-2.56216
672,71,53.0886,2.69122,-0.00133547,0.000264694,0.00136988,0.00105102,-0.0021218,1.0497,0.00186628,0.0410998,1896,953,53.0887,-2.69122
679,71,53.0714,2.7088,-0.00137062,0.000156655,0.00169032,0.00124783,-0.00246179,0.997561,0.00217964,0.03985,1903,953,53.0714,-2.70883
686,71,53.1223,2.55963,-0.00134225,-1.6776e-05,0.00182215,0.00125941,-0.00261844,0.959817,0.00228425,0.0378237,1910,953,53.1223,-2.55961
693,71,53.1183,2.48651,-0.00139844,-0.000175226,0.00181225,0.00112584,-0.00269951,0.94814,0.00227001,0.0322389,1917,953,53.1182,-2.48654
700,71,53.2661,1.76111,0,0,0,0,0,0,0,-1,1924,953,53.2661,-1.7611
707,71,52.881,3.0426,0,0,0,0,0,0,0,-1,1931,953,52.881,-3.0426
714,71,51.1228,4.35626,0,0,0,0,0,0,0,-1,1938,953,51.1228,-4.35623
721,71,50.8745,4.69659,-0.00268694,0.00118315,0.000722169,0.00131351,-0.0028173,1.3922,0.00243704,0.0430308,1945,953,50.8745,-4.69662
728,71,50.7015,5.16333,-0.0031237,0.00208507,0.000163027,0.00209017,-0.0031288,1.53954,0.003033,0.0268529,1952,953,50.7015,-5.16331
735,71,50.7139,5.56873,-0.0031169,0.00328606,-0.000646816,0.00335075,-0.00318159,-1.47112,0.00377187,0.0207097,1959,953,50.7138,-5.56875
742,71,50.7463,5.90344,-0.003231,0.00476118,-0.00234655,0.00539921,-0.00386903,-1.30532,0.00537527,0.0213318,1966,953,50.7464,-5.90346
749,71,50.7102,6.25092,-0.00316155,0.00759772,-0.00525669,0.0097396,-0.00530344,-1.18388,0.00881009,0.0196186,1973,953,50.7102,-6.25089
756,71,50.6588,6.58014,-0.0021503,0.0116252,-0.00902434,0.01609,-0.00661508,-1.11136,0.0134839,0.0170596,1980,953,50.6588,-6.58012
763,71,50.5946,6.94696,-0.000749369,0.0165383,-0.0141518,0.0244772,-0.00868832,-1.05956,0.0198582,0.0202725,1987,953,50.5946,-6.94693
770,71,50.3872,7.20825,0.00124586,0.0224725,-0.0207672,0.0351812,-0.0114629,-1.02163,0.0280665,0.0248636,1994,953,50.3872,-7.20826
777,71,50.2573,7.52496,0.00394374,0.029212,-0.0290498,0.0482561,-0.0151004,-0.990517,0.0382121,0.0445217,2001,953,50.2572,-7.52495
784,71,50.3179,7.92773,0.00764638,0.0371948,-0.0398047,0.0648787,-0.0200375,-0.963101,0.0512543,0.0483994,2008,953,50.3179,-7.92776
791,71,50.1345,8.28632,0,0,0,0,0,0,0,-1,2015,953,50.1345,-8.28633
798,71,51.4243,7.35956,0,0,0,0,0,0,0,-1,2022,953,51.4244,-7.35954
805,71,45.0161,6.63287,0,0,0,0,0,0,0,-1,2029,953,45.0161,-6.63289
812,71,0,0,0,0,0,0,0,0,0,-1,2036,953,0,0
-700,64,0,0,0,0,0,0,0,0,0,-1,524,960,0,0
-693,64,0,0,0,0,0,0,0,0,0,-1,531,960,0,0
-686,64,-35.9032,6.32233,0,0,0,0,0,0,0,-1,538,960,-35.9032,-6.32235
-679,64,-36.4587,5.37128,0.0242588,0.0235859,0.0245223,0.0484469,-0.000602227,0.778538,0.0325006,0.0452647,545,960,-36.4587,-5.37128
-672,64,-37.2057,4.90851,0.0142784,0.0270726,0.021109,0.0427325,-0.00138151,0.932525,0.0289599,0.0488278,552,960,-37.2057,-4.90849
-665,64,-37.5042,4.94867,0.00641879,0.028137,0.0180368,0.0383313,-0.00377549,1.05636,0.0269012,0.0455785,559,960,-37.5042,-4.94865
-658,64,-37.6854,5.80505,0,0,0,0,0,0,0,-1,566,960,-37.6854,-5.80503
-651,64,-38.5057,5.7674,-0.00364224,0.0254479,0.012778,0.0302635,-0.00845788,1.21039,0.0235077,0.0432937,573,960,-38.5057,-5.76741
-644,64,-38.5861,4.79327,-0.00608469,0.022506,0.0105624,0.0259848,-0.00956354,1.25263,0.0212412,0.0331563,580,960,-38.5861,-4.79327
-637,64,-38.6422,4.39313,-0.00784377,0.0197866,0.00823164,0.0220531,-0.0101102,1.30212,0.0189914,0.017473,587,960,-38.6422,-4.39312
-630,64,-38.7162,4.11719,-0.0090363,0.0162894,0.00562503,0.0174826,-0.0102295,1.36178,0.0161812,0.0146268,594,960,-38.7162,-4.1172
-623,64,-38.7386,3.8233,-0.00903826,0.0125716,0.00356693,0.0131451,-0.0096118,1.41137,0.0131914,0.0148958,601,960,-38.7387,-3.82328
-616,64,-38.7532,3.47351,-0.00874359,0.00907207,0.0016159,0.00921745,-0.00888897,1.48107,0.0104543,0.0185314,608,960,-38.7532,-3.47353
-609,64,-38.7158,3.20508,-0.00843813,0.0057758,-0.000376293,0.00578576,-0.00844809,-1.54435,0.00826569,0.0178851,615,960,-38.7157,-3.20507
-602,64,-38.688,2.8999,-0.00843316,0.00404278,-0.0018098,0.00430001,-0.00869039,-1.42961,0.00764146,0.0169219,622,960,-38.688,-2.89991
-595,64,-38.7066,2.63989,-0.00836819,0.00255203,-0.00299188,0.003318,-0.00913416,-1.32016,0.00744608,0.0204843,629,960,-38.7066,-2.63989
-588,64,-38.368,2.63513,0,0,0,0,0,0,0,-1,636,960,-38.368,-2.63511
-581,64,-38.9449,1.66754,-0.00841464,0.00105921,-0.00444047,0.00281506,-0.0101705,-1.19424,0.00788795,0.0446685,643,960,-38.9449,-1.66756
-574,64,-39.5514,0.976929,-0.00845284,0.000988766,-0.00465494,0.00289778,-0.0103619,-1.18161,0.00804961,0.0448871,650,960,-39.5514,-0.976918
-567,64,-39.6718,0.725159,-0.00803464,0.0010645,-0.00459122,0.00297852,-0.00994866,-1.17582,0.00781678,0.0259922,657,960,-39.6717,-0.72513
-560,64,-39.7645,0.796021,-0.00716662,0.00139315,-0.00422379,0.0031264,-0.00889987,-1.1814,0.00720514,0.0337511,664,960,-39.7645,-0.796051
-553,64,-39.8581,0.842285,-0.00536906,0.00182941,-0.00349408,0.00324645,-0.0067861,-1.18551,0.00591125,0.0377013,671,960,-39.8581,-0.842294
-546,64,-39.9105,0.730225,-0.00246873,0.00227598,-0.00235113,0.00324367,-0.00343642,-1.18034,0.00385728,0.0405189,678,960,-39.9104,-0.730203
-539,64,-40.0477,0.424744,0.00169269,0.00256447,-0.000770462,0.0030138,0.00124336,-1.04283,0.00174887,0.042357,685,960,-40.0477,-0.424738
-532,64,-40.0618,0.48584,0.00717855,0.00283033,0.000822761,0.00732902,0.00267986,0.18089,0.00428203,0.0427778,692,960,-40.0618,-0.485866
-525,64,-40.1232,0.708313,0.0119278,0.00300435,0.00148737,0.0121692,0.00276296,0.160889,0.00736659,0.0424911,699,960,-40.1232,-0.708325
-518,64,0,0,0,0,0,0,0,0,0,-1,706,960,0,0
-511,64,0,0,0,0,0,0,0,0,0,-1,713,960,0,0
-504,64,0,0,0,0,0,0,0,0,0,-1,720,960,0,0
-497,64,0,0,0,0,0,0,0,0,0,-1,727,960,0,0
-490,64,0,0,0,0,0,0,0,0,0,-1,734,960,0,0
-483,64,0,0,0,0,0,0,0,0,0,-1,741,960,0,0
-476,64,0,0,0,0,0,0,0,0,0,-1,748,960,0,0
-469,64,0,0,0,0,0,0,0,0,0,-1,755,960,0,0
-462,64,0,0,0,0,0,0,0,0,0,-1,762,960,0,0
-455,64,0,0,0,0,0,0,0,0,0,-1,769,960,0,0
-448,64,0,0,0,0,0,0,0,0,0,-1,776,960,0,0
-441,64,0,0,0,0,0,0,0,0,0,-1,783,960,0,0
-434,64,0,0,0,0,0,0,0,0,0,-1,790,960,0,0
-427,64,0,0,0,0,0,0,0,0,0,-1,797,960,0,0
-420,64,0,0,0,0,0,0,0,0,0,-1,804,960,0,0
-413,64,0,0,0,0,0,0,0,0,0,-1,811,960,0,0
-406,64,0,0,0,0,0,0,0,0,0,-1,818,960,0,0
-399,64,0,0,0,0,0,0,0,0,0,-1,825,960,0,0
-392,64,0,0,0,0,0,0,0,0,0,-1,832,960,0,0
-385,64,0,0,0,0,0,0,0,0,0,-1,839,960,0,0
-378,64,0,0,0,0,0,0,0,0,0,-1,846,960,0,0
-371,64,0,0,0,0,0,0,0,0,0,-1,853,960,0,0
-364,64,0,0,0,0,0,0,0,0,0,-1,860,960,0,0
-357,64,0,0,0,0,0,0,0,0,0,-1,867,960,0,0
-350,64,0,0,0,0,0,0,0,0,0,-1,874,960,0,0
-343,64,0,0,0,0,0,0,0,0,0,-1,881,960,0,0
-336,64,0,0,0,0,0,0,0,0,0,-1,888,960,0,0
-329,64,0,0,0,0,0,0,0,0,0,-1,895,960,0,0
-322,64,0,0,0,0,0,0,0,0,0,-1,902,960,0,0
-315,64,0,0,0,0,0,0,0,0,0,-1,909,960,0,0
-308,64,0,0,0,0,0,0,0,0,0,-1,916,960,0,0
-301,64,0,0,0,0,0,0,0,0,0,-1,923,960,0,0
-294,64,0,0,0,0,0,0,0,0,0,-1,930,960,0,0
-287,64,0,0,0,0,0,0,0,0,0,-1,937,960,0,0
-280,64,0,0,0,0,0,0,0,0,0,-1,944,960,0,0
-273,64,0,0,0,0,0,0,0,0,0,-1,951,960,0,0
-266,64,0,0,0,0,0,0,0,0,0,-1,958,960,0,0
-259,64,0,0,0,0,0,0,0,0,0,-1,965,960,0,0
-252,64,0,0,0,0,0,0,0,0,0,-1,972,960,0,0
-245,64,0,0,0,0,0,0,0,0,0,-1,979,960,0,0
-238,64,0,0,0,0,0,0,0,0,0,-1,986,960,0,0
-231,64,0,0,0,0,0,0,0,0,0,-1,993,960,0,0
-224,64,0,0,0,0,0,0,0,0,0,-1,1000,960,0,0
-217,64,0,0,0,0,0,0,0,0,0,-1,1007,960,0,0
-210,64,0,0,0,0,0,0,0,0,0,-1,1014,960,0,0
-203,64,0,0,0,0,0,0,0,0,0,-1,1021,960,0,0
-196,64,0,0,0,0,0,0,0,0,0,-1,1028,960,0,0
-189,64,0,0,0,0,0,0,0,0,0,-1,1035,960,0,0
-182,64,0,0,0,0,0,0,0,0,0,-1,1042,960,0,0
-175,64,0,0,0,0,0,0,0,0,0,-1,1049,960,0,0
-168,64,0,0,0,0,0,0,0,0,0,-1,1056,960,0,0
-161,64,0,0,0,0,0,0,0,0,0,-1,1063,960,0,0
-154,64,0,0,0,0,0,0,0,0,0,-1,1070,960,0,0
-147,64,0,0,0,0,0,0,0,0,0,-1,1077,960,0,0
-140,64,0,0,0,0,0,0,0,0,0,-1,1084,960,0,0
-133,64,0,0,0,0,0,0,0,0,0,-1,1091,960,0,0
-126,64,0,0,0,0,0,0,0,0,0,-1,1098,960,0,0
-119,64,0,0,0,0,0,0,0,0,0,-1,1105,960,0,0
-112,64,0,0,0,0,0,0,0,0,0,-1,1112,960,0,0
-105,64,0,0,0,0,0,0,0,0,0,-1,1119,960,0,0
-98,64,0,0,0,0,0,0,0,0,0,-1,1126,960,0,0
-91,64,0,0,0,0,0,0,0,0,0,-1,1133,960,0,0
-84,64,0,0,0,0,0,0,0,0,0,-1,1140,960,0,0
-77,64,0,0,0,0,0,0,0,0,0,-1,1147,960,0,0
-70,64,0,0,0,0,0,0,0,0,0,-1,1154,960,0,0
-63,64,0,0,0,0,0,0,0,0,0,-1,1161,960,0,0
-56,64,0,0,0,0,0,0,0,0,0,-1,1168,960,0,0
-49,64,0,0,0,0,0,0,0,0,0,-1,1175,960,0,0
-42,64,0,0,0,0,0,0,0,0,0,-1,1182,960,0,0
-35,64,0,0,0,0,0,0,0,0,0,-1,1189,960,0,0
-28,64,0,0,0,0,0,0,0,0,0,-1,1196,960,0,0
-21,64,0,0,0,0,0,0,0,0,0,-1,1203,960,0,0
-14,64,0,0,0,0,0,0,0,0,0,-1,1210,960,0,0
-7,64,0,0,0,0,0,0,0,0,0,-1,1217,960,0,0
0,64,0,0,0,0,0,0,0,0,0,-1,1224,960,0,0
7,64,0,0,0,0,0,0,0,0,0,-1,1231,960,0,0
14,64,0,0,0,0,0,0,0,0,0,-1,1238,960,0,0
21,64,0,0,0,0,0,0,0,0,0,-1,1245,960,0,0
28,64,0,0,0,0,0,0,0,0,0,-1,1252,960,0,0
35,64,0,0,0,0,0,0,0,0,0,-1,1259,960,0,0
42,64,0,0,0,0,0,0,0,0,0,-1,1266,960,0,0
49,64,0,0,0,0,0,0,0,0,0,-1,1273,960,0,0
56,64,0,0,0,0,0,0,0,0,0,-1,1280,960,0,0
63,64,0,0,0,0,0,0,0,0,0,-1,1287,960,0,0
70,64,0,0,0,0,0,0,0,0,0,-1,1294,960,0,0
77,64,0,0,0,0,0,0,0,0,0,-1,1301,960,0,0
84,64,0,0,0,0,0,0,0,0,0,-1,1308,960,0,0
91,64,0,0,0,0,0,0,0,0,0,-1,1315,960,0,0
98,64,0,0,0,0,0,0,0,0,0,-1,1322,960,0,0
105,64,0,0,0,0,0,0,0,0,0,-1,1329,960,0,0
112,64,0,0,0,0,0,0,0,0,0,-1,1336,960,0,0
119,64,0,0,0,0,0,0,0,0,0,-1,1343,960,0,0
126,64,0,0,0,0,0,0,0,0,0,-1,1350,960,0,0
133,64,0,0,0,0,0,0,0,0,0,-1,1357,960,0,0
140,64,0,0,0,0,0,0,0,0,0,-1,1364,960,0,0
147,64,0,0,0,0,0,0,0,0,0,-1,1371,960,0,0
154,64,0,0,0,0,0,0,0,0,0,-1,1378,960,0,0
161,64,0,0,0,0,0,0,0,0,0,-1,1385,960,0,0
168,64,0,0,0,0,0,0,0,0,0,-1,1392,960,0,0
175,64,0,0,0,0,0,0,0,0,0,-1,1399,960,0,0
182,64,0,0,0,0,0,0,0,0,0,-1,1406,960,0,0
189,64,0,0,0,0,0,0,0,0,0,-1,1413,960,0,0
196,64,0,0,0,0,0,0,0,0,0,-1,1420,960,0,0
203,64,0,0,0,0,0,0,0,0,0,-1,1427,960,0,0
210,64,0,0,0,0,0,0,0,0,0,-1,1434,960,0,0
217,64,0,0,0,0,0,0,0,0,0,-1,1441,960,0,0
224,64,0,0,0,0,0,0,0,0,0,-1,1448,960,0,0
231,64,0,0,0,0,0,0,0,0,0,-1,1455,960,0,0
238,64,0,0,0,0,0,0,0,0,0,-1,1462,960,0,0
245,64,0,0,0,0,0,0,0,0,0,-1,1469,960,0,0
252,64,0,0,0,0,0,0,0,0,0,-1,1476,960,0,0
259,64,0,0,0,0,0,0,0,0,0,-1,1483,960,0,0
266,64,0,0,0,0,0,0,0,0,0,-1,1490,960,0,0
273,64,0,0,0,0,0,0,0,0,0,-1,1497,960,0,0
280,64,0,0,0,0,0,0,0,0,0,-1,1504,960,0,0
287,64,0,0,0,0,0,0,0,0,0,-1,1511,960,0,0
294,64,0,0,0,0,0,0,0,0,0,-1,1518,960,0,0
301,64,0,0,0,0,0,0,0,0,0,-1,1525,960,0,0
308,64,0,0,0,0,0,0,0,0,0,-1,1532,960,0,0
315,64,0,0,0,0,0,0,0,0,0,-1,1539,960,0,0
322,64,0,0,0,0,0,0,0,0,0,-1,1546,960,0,0
329,64,0,0,0,0,0,0,0,0,0,-1,1553,960,0,0
336,64,0,0,0,0,0,0,0,0,0,-1,1560,960,0,0
343,64,0,0,0,0,0,0,0,0,0,-1,1567,960,0,0
350,64,0,0,0,0,0,0,0,0,0,-1,1574,960,0,0
357,64,0,0,0,0,0,0,0,0,0,-1,1581,960,0,0
364,64,0,0,0,0,0,0,0,0,0,-1,1588,960,0,0
371,64,0,0,0,0,0,0,0,0,0,-1,1595,960,0,0
378,64,0,0,0,0,0,0,0,0,0,-1,1602,960,0,0
385,64,0,0,0,0,0,0,0,0,0,-1,1609,960,0,0
392,64,0,0,0,0,0,0,0,0,0,-1,1616,960,0,0
399,64,0,0,0,0,0,0,0,0,0,-1,1623,960,0,0
406,64,0,0,0,0,0,0,0,0,0,-1,1630,960,0,0
413,64,0,0,0,0,0,0,0,0,0,-1,1637,960,0,0
420,64,0,0,0,0,0,0,0,0,0,-1,1644,960,0,0
427,64,0,0,0,0,0,0,0,0,0,-1,1651,960,0,0
434,64,0,0,0,0,0,0,0,0,0,-1,1658,960,0,0
441,64,0,0,0,0,0,0,0,0,0,-1,1665,960,0,0
448,64,0,0,0,0,0,0,0,0,0,-1,1672,960,0,0
455,64,0,0,0,0,0,0,0,0,0,-1,1679,960,0,0
462,64,0,0,0,0,0,0,0,0,0,-1,1686,960,0,0
469,64,0,0,0,0,0,0,0,0,0,-1,1693,960,0,0
476,64,0,0,0,0,0,0,0,0,0,-1,1700,960,0,0
483,64,0,0,0,0,0,0,0,0,0,-1,1707,960,0,0
490,64,0,0,0,0,0,0,0,0,0,-1,1714,960,0,0
497,64,0,0,0,0,0,0,0,0,0,-1,1721,960,0,0
504,64,0,0,0,0,0,0,0,0,0,-1,1728,960,0,0
511,64,0,0,0,0,0,0,0,0,0,-1,1735,960,0,0
518,64,0,0,0,0,0,0,0,0,0,-1,1742,960,0,0
525,64,0,0,0,0,0,0,0,0,0,-1,1749,960,0,0
532,64,0,0,0,0,0,0,0,0,0,-1,1756,960,0,0
539,64,0,0,0,0,0,0,0,0,0,-1,1763,960,0,0
546,64,0,0,0,0,0,0,0,0,0,-1,1770,960,0,0
553,64,0,0,0,0,0,0,0,0,0,-1,1777,960,0,0
560,64,0,0,0,0,0,0,0,0,0,-1,1784,960,0,0
567,64,0,0,0,0,0,0,0,0,0,-1,1791,960,0,0
574,64,0,0,0,0,0,0,0,0,0,-1,1798,960,0,0
581,64,0,0,0,0,0,0,0,0,0,-1,1805,960,0,0
588,64,0,0,0,0,0,0,0,0,0,-1,1812,960,0,0
595,64,0,0,0,0,0,0,0,0,0,-1,1819,960,0,0
602,64,0,0,0,0,0,0,0,0,0,-1,1826,960,0,0
609,64,0,0,0,0,0,0,0,0,0,-1,1833,960,0,0
616,64,0,0,0,0,0,0,0,0,0,-1,1840,960,0,0
623,64,0,0,0,0,0,0,0,0,0,-1,1847,960,0,0
630,64,0,0,0,0,0,0,0,0,0,-1,1854,960,0,0
637,64,0,0,0,0,0,0,0,0,0,-1,1861,960,0,0
644,64,53.2156,2.6048,-0.0024443,0.00134907,0.00294238,0.0029531,-0.00404834,1.07169,0.00405874,0.0421887,1868,960,53.2155,-2.60477
651,64,53.2198,2.66888,-0.00219101,0.00067339,0.00217401,0.00184455,-0.00336218,1.07666,0.00304837,0.0414378,1875,960,53.2198,-2.66887
658,64,53.1022,2.63513,-0.00182153,0.000255878,0.00167668,0.00118952,-0.00275517,1.06272,0.0023365,0.0360183,1882,960,53.1021,-2.63514
665,64,53.0162,2.58484,-0.00149759,0.000165271,0.00155586,0.00109792,-0.00243024,1.03079,0.00208483,0.0380619,1889,960,53.0162,-2.58484
672,64,53.0737,2.59369,-0.00134345,0.000128888,0.00167749,0.00122464,-0.0024392,0.99217,0.00215371,0.0415382,1896,960,53.0738,-2.59367
679,64,53.1646,2.46313,-0.00128249,5.89709e-05,0.00196493,0.0014645,-0.00268802,0.949872,0.0024319,0.0391671,1903,960,53.1646,-2.46313
686,64,53.1478,2.45844,-0.00119191,-8.74771e-05,0.00210535,0.00153687,-0.00281626,0.913655,0.00254921,0.0355618,1910,960,53.1478,-2.45841
693,64,53.092,2.48962,-0.0012234,-0.000230476,0.00212384,0.00145416,-0.00290804,0.900215,0.00256472,0.031527,1917,960,53.092,-2.4896
700,64,53.0436,2.53534,-0.00131115,-0.000197795,0.00190176,0.00122709,-0.00273604,0.927779,0.00234274,0.0281087,1924,960,53.0435,-2.53536
707,64,52.9584,2.93921,-0.00146792,6.08771e-05,0.00157981,0.00105151,-0.00245855,1.01072,0.0020801,0.0424432,1931,960,52.9584,-2.93918
714,64,52.8185,3.69537,0,0,0,0,0,0,0,-1,1938,960,52.8185,-3.69539
721,64,51.2113,4.71448,0,0,0,0,0,0,0,-1,1945,960,51.2113,-4.71449
728,64,51.0557,5.17755,-0.00297048,0.00223831,0.000462308,0.00227903,-0.00301119,1.48296,0.00306404,0.0211029,1952,960,51.0557,-5.17755
735,64,51.0114,5.61682,-0.00289655,0.00348382,-0.000352271,0.00350321,-0.00291594,-1.51581,0.00371127,0.0299231,1959,960,51.0113,-5.61684
742,64,51.1257,5.90582,-0.00284035,0.00494672,-0.00190813,0.00538915,-0.00328277,-1.34296,0.00505573,0.0269365,1966,960,51.1257,-5.90581
749,64,51.1229,6.22614,-0.00250641,0.00775552,-0.00455193,0.00948363,-0.00423451,-1.20796,0.00811114,0.0172484,1973,960,51.1229,-6.22611
756,64,51.0526,6.55957,-0.00107526,0.011706,-0.0079113,0.0154854,-0.00485463,-1.12513,0.0122663,0.0159648,1980,960,51.0526,-6.55955
763,64,51.0168,6.92273,0.000986844,0.0165342,-0.0124249,0.0234169,-0.00589584,-1.06493,0.0179031,0.0174167,1987,960,51.0168,-6.9227
770,64,50.8152,7.16962,0.00404838,0.0225597,-0.0182202,0.0337403,-0.00713228,-1.02041,0.0252096,0.0187069,1994,960,50.8151,-7.1696
777,64,50.7207,7.44104,0.00816601,0.0294748,-0.0253617,0.0463292,-0.00868836,-0.984254,0.0341526,0.0352085,2001,960,50.7207,-7.44102
784,64,51.2102,7.43524,0.0138244,0.0376623,-0.0343916,0.0621418,-0.010655,-0.952204,0.0453982,0.0423341,2008,960,51.2103,-7.43522
791,64,51.6846,7.41766,0.0215602,0.0473875,-0.0459317,0.0821863,-0.0132387,-0.922435,0.0596951,0.0466657,2015,960,51.6845,-7.41764
798,64,52.1885,7.42731,0.0316477,0.0591724,-0.0604241,0.107382,-0.0165615,-0.897369,0.0776988,0.0498835,2022,960,52.1884,-7.42733
805,64,51.6943,7.46088,0,0,0,0,0,0,0,-1,2029,960,51.6942,-7.46085
812,64,0,0,0,0,0,0,0,0,0,-1,2036,960,0,0
-700,57,0,0,0,0,0,0,0,0,0,-1,524,967,0,0
-693,57,0,0,0,0,0,0,0,0,0,-1,531,967,0,0
-686,57,-35.5881,6.02435,0,0,0,0,0,0,0,-1,538,967,-35.5881,-6.02434
-679,57,-36.326,5.16132,0,0,0,0,0,0,0,-1,545,967,-36.326,-5.16129
-672,57,-37.5164,4.10516,0,0,0,0,0,0,0,-1,552,967,-37.5164,-4.10517
-665,57,-38.2315,3.50171,0,0,0,0,0,0,0,-1,559,967,-38.2315,-3.50174
-658,57,-38.6923,3.0874,0,0,0,0,0,0,0,-1,566,967,-38.6923,-3.08743
-651,57,-38.8953,3.68024,0.00218267,0.0258847,0.0125434,0.0312901,-0.0032227,1.16391,0.0220131,0.0457628,573,967,-38.8953,-3.68025
-644,57,-39.0073,4.31262,-0.00183248,0.0228212,0.0104022,0.0266237,-0.005635,1.22034,0.0198953,0.0353839,580,967,-39.0073,-4.31265
-637,57,-38.9871,4.23193,-0.00493806,0.0201845,0.00800722,0.0225195,-0.00727314,1.28704,0.0179359,0.0199339,587,967,-38.9871,-4.23191
-630,57,-39.0615,3.99078,-0.00712839,0.0165934,0.00527254,0.0177125,-0.0082475,1.36165,0.0153165,0.0139033,594,967,-39.0615,-3.99081
-623,57,-39.0868,3.77917,-0.00762428,0.0126707,0.0030716,0.0131254,-0.00807897,1.42383,0.0123574,0.0132623,601,967,-39.0868,-3.77916
-616,57,-39.08,3.50531,-0.00767991,0.00914228,0.00106276,0.00920915,-0.00774679,1.50795,0.00980165,0.0156138,608,967,-39.08,-3.50532
-609,57,-39.0656,3.22028,-0.00741851,0.005991,-0.00101856,0.00606793,-0.00749544,-1.49541,0.00784526,0.0153911,615,967,-39.0655,-3.22029
-602,57,-39.0519,2.92676,-0.00730676,0.00427237,-0.00259867,0.00482884,-0.00786323,-1.35985,0.00739725,0.0115294,622,967,-39.0519,-2.92676
-595,57,-39.0352,2.68494,-0.00705354,0.00272605,-0.00392597,0.00410709,-0.00843457,-1.23255,0.00738321,0.0146596,629,967,-39.0352,-2.68492
-588,57,-38.9846,2.52386,-0.00679946,0.0016482,-0.00492856,0.00391524,-0.0090665,-1.13967,0.00768919,0.0242415,636,967,-38.9845,-2.52385
-581,57,-39.1967,1.72614,0,0,0,0,0,0,0,-1,643,967,-39.1967,-1.72611
-574,57,-39.6525,0.751648,-0.0067373,0.000906771,-0.00574514,0.00398507,-0.0098156,-1.07891,0.00820142,0.0326951,650,967,-39.6525,-0.75164
-567,57,-39.657,0.682373,-0.00639493,0.000946363,-0.00561288,0.00398228,-0.00943085,-1.07498,0.0079542,0.0319095,657,967,-39.657,-0.682395
-560,57,-39.6762,0.718323,-0.00559124,0.00121151,-0.00509492,0.00393611,-0.00831584,-1.07972,0.00722275,0.0382877,664,967,-39.6762,-0.718314
-553,57,-39.6719,0.815552,-0.00390556,0.00157114,-0.00416181,0.00381468,-0.0061491,-1.07638,0.00580498,0.0395043,671,967,-39.6719,-0.815537
-546,57,-39.6698,0.780823,-0.00116924,0.00189476,-0.00278419,0.00354061,-0.00281509,-1.03692,0.00367743,0.0433491,678,967,-39.6698,-0.780807
-539,57,-39.9198,0.507019,0.00275677,0.00200068,-0.00100987,0.00345704,0.00130041,-0.606299,0.00201623,0.0429074,685,967,-39.9198,-0.507033
-532,57,-40.0054,0.321045,0.00801017,0.00215546,0.000490318,0.00805095,0.00211468,0.0829774,0.00481961,0.0392493,692,967,-40.0054,-0.321016
-525,57,-39.8461,0.515137,0.012526,0.00211699,0.000677797,0.0125699,0.00207304,0.0647522,0.00778152,0.0396869,699,967,-39.8461,-0.515114
-518,57,0,0,0,0,0,0,0,0,0,-1,706,967,0,0
-511,57,0,0,0,0,0,0,0,0,0,-1,713,967,0,0
-504,57,0,0,0,0,0,0,0,0,0,-1,720,967,0,0
-497,57,0,0,0,0,0,0,0,0,0,-1,727,967,0,0
-490,57,0,0,0,0,0,0,0,0,0,-1,734,967,0,0
-483,57,0,0,0,0,0,0,0,0,0,-1,741,967,0,0
-476,57,0,0,0,0,0,0,0,0,0,-1,748,967,0,0
-469,57,0,0,0,0,0,0,0,0,0,-1,755,967,0,0
-462,57,0,0,0,0,0,0,0,0,0,-1,762,967,0,0
-455,57,0,0,0,0,0,0,0,0,0,-1,769,967,0,0
-448,57,0,0,0,0,0,0,0,0,0,-1,776,967,0,0
-441,57,0,0,0,0,0,0,0,0,0,-1,783,967,0,0
-434,57,0,0,0,0,0,0,0,0,0,-1,790,967,0,0
-427,57,0,0,0,0,0,0,0,0,0,-1,797,967,0,0
-420,57,0,0,0,0,0,0,0,0,0,-1,804,967,0,0
-413,57,0,0,0,0,0,0,0,0,0,-1,811,967,0,0
-406,57,0,0,0,0,0,0,0,0,0,-1,818,967,0,0
-399,57,0,0,0,0,0,0,0,0,0,-1,825,967,0,0
-392,57,0,0,0,0,0,0,0,0,0,-1,832,967,0,0
-385,57,0,0,0,0,0,0,0,0,0,-1,839,967,0,0
-378,57,0,0,0,0,0,0,0,0,0,-1,846,967,0,0
-371,57,0,0,0,0,0,0,0,0,0,-1,853,967,0,0
-364,57,0,0,0,0,0,0,0,0,0,-1,860,967,0,0
-357,57,0,0,0,0,0,0,0,0,0,-1,867,967,0,0
-350,57,0,0,0,0,0,0,0,0,0,-1,874,967,0,0
-343,57,0,0,0,0,0,0,0,0,0,-1,881,967,0,0
-336,57,0,0,0,0,0,0,0,0,0,-1,888,967,0,0
-329,57,0,0,0,0,0,0,0,0,0,-1,895,967,0,0
-322,57,0,0,0,0,0,0,0,0,0,-1,902,967,0,0
-315,57,0,0,0,0,0,0,0,0,0,-1,909,967,0,0
-308,57,0,0,0,0,0,0,0,0,0,-1,916,967,0,0
-301,57,0,0,0,0,0,0,0,0,0,-1,923,967,0,0
-294,57,0,0,0,0,0,0,0,0,0,-1,930,967,0,0
-287,57,0,0,0,0,0,0,0,0,0,-1,937,967,0,0
-280,57,0,0,0,0,0,0,0,0,0,-1,944,967,0,0
-273,57,0,0,0,0,0,0,0,0,0,-1,951,967,0,0
-266,57,0,0,0,0,0,0,0,0,0,-1,958,967,0,0
-259,57,0,0,0,0,0,0,0,0,0,-1,965,967,0,0
-252,57,0,0,0,0,0,0,0,0,0,-1,972,967,0,0
-245,57,0,0,0,0,0,0,0,0,0,-1,979,967,0,0
-238,57,0,0,0,0,0,0,0,0,0,-1,986,967,0,0
-231,57,0,0,0,0,0,0,0,0,0,-1,993,967,0,0
-224,57,0,0,0,0,0,0,0,0,0,-1,1000,967,0,0
-217,57,0,0,0,0,0,0,0,0,0,-1,1007,967,0,0
-210,57,0,0,0,0,0,0,0,0,0,-1,1014,967,0,0
-203,57,0,0,0,0,0,0,0,0,0,-1,1021,967,0,0
-196,57,0,0,0,0,0,0,0,0,0,-1,1028,967,0,0
-189,57,0,0,0,0,0,0,0,0,0,-1,1035,967,0,0
-182,57,0,0,0,0,0,0,0,0,0,-1,1042,967,0,0
-175,57,0,0,0,0,0,0,0,0,0,-1,1049,967,0,0
-168,57,0,0,0,0,0,0,0,0,0,-1,1056,967,0,0
-161,57,0,0,0,0,0,0,0,0,0,-1,1063,967,0,0
-154,57,0,0,0,0,0,0,0,0,0,-1,1070,967,0,0
-147,57,0,0,0,0,0,0,0,0,0,-1,1077,967,0,0
-140,57,0,0,0,0,0,0,0,0,0,-1,1084,967,0,0
-133,57,0,0,0,0,0,0,0,0,0,-1,1091,967,0,0
-126,57,0,0,0,0,0,0,0,0,0,-1,1098,967,0,0
-119,57,0,0,0,0,0,0,0,0,0,-1,1105,967,0,0
-112,57,0,0,0,0,0,0,0,0,0,-1,1112,967,0,0
-105,57,0,0,0,0,0,0,0,0,0,-1,1119,967,0,0
-98,57,0,0,0,0,0,0,0,0,0,-1,1126,967,0,0
-91,57,0,0,0,0,0,0,0,0,0,-1,1133,967,0,0
-84,57,0,0,0,0,0,0,0,0,0,-1,1140,967,0,0
-77,57,0,0,0,0,0,0,0,0,0,-1,1147,967,0,0
-70,57,0,0,0,0,0,0,0,0,0,-1,1154,967,0,0
-63,57,0,0,0,0,0,0,0,0,0,-1,1161,967,0,0
-56,57,0,0,0,0,0,0,0,0,0,-1,1168,967,0,0
-49,57,0,0,0,0,0,0,0,0,0,-1,1175,967,0,0
-42,57,0,0,0,0,0,0,0,0,0,-1,1182,967,0,0
-35,57,0,0,0,0,0,0,0,0,0,-1,1189,967,0,0
-28,57,0,0,0,0,0,0,0,0,0,-1,1196,967,0,0
-21,57,0,0,0,0,0,0,0,0,0,-1,1203,967,0,0
-14,57,0,0,0,0,0,0,0,0,0,-1,1210,967,0,0
-7,57,0,0,0,0,0,0,0,0,0,-1,1217,967,0,0
0,57,0,0,0,0,0,0,0,0,0,-1,1224,967,0,0
7,57,0,0,0,0,0,0,0,0,0,-1,1231,967,0,0
14,57,0,0,0,0,0,0,0,0,0,-1,1238,967,0,0
21,57,0,0,0,0,0,0,0,0,0,-1,1245,967,0,0
28,57,0,0,0,0,0,0,0,0,0,-1,1252,967,0,0
35,57,0,0,0,0,0,0,0,0,0,-1,1259,967,0,0
42,57,0,0,0,0,0,0,0,0,0,-1,1266,967,0,0
49,57,0,0,0,0,0,0,0,0,0,-1,1273,967,0,0
56,57,0,0,0,0,0,0,0,0,0,-1,1280,967,0,0
63,57,0,0,0,0,0,0,0,0,0,-1,1287,967,0,0
70,57,0,0,0,0,0,0,0,0,0,-1,1294,967,0,0
77,57,0,0,0,0,0,0,0,0,0,-1,1301,967,0,0
84,57,0,0,0,0,0,0,0,0,0,-1,1308,967,0,0
91,57,0,0,0,0,0,0,0,0,0,-1,1315,967,0,0
98,57,0,0,0,0,0,0,0,0,0,-1,1322,967,0,0
105,57,0,0,0,0,0,0,0,0,0,-1,1329,967,0,0
112,57,0,0,0,0,0,0,0,0,0,-1,1336,967,0,0
119,57,0,0,0,0,0,0,0,0,0,-1,1343,967,0,0
126,57,0,0,0,0,0,0,0,0,0,-1,1350,967,0,0
133,57,0,0,0,0,0,0,0,0,0,-1,1357,967,0,0
140,57,0,0,0,0,0,0,0,0,0,-1,1364,967,0,0
147,57,0,0,0,0,0,0,0,0,0,-1,1371,967,0,0
154,57,0,0,0,0,0,0,0,0,0,-1,1378,967,0,0
161,57,0,0,0,0,0,0,0,0,0,-1,1385,967,0,0
168,57,0,0,0,0,0,0,0,0,0,-1,1392,967,0,0
175,57,0,0,0,0,0,0,0,0,0,-1,1399,967,0,0
182,57,0,0,0,0,0,0,0,0,0,-1,1406,967,0,0
189,57,0,0,0,0,0,0,0,0,0,-1,1413,967,0,0
196,57,0,0,0,0,0,0,0,0,0,-1,1420,967,0,0
203,57,0,0,0,0,0,0,0,0,0,-1,1427,967,0,0
210,57,0,0,0,0,0,0,0,0,0,-1,1434,967,0,0
217,57,0,0,0,0,0,0,0,0,0,-1,1441,967,0,0
224,57,0,0,0,0,0,0,0,0,0,-1,1448,967,0,0
231,57,0,0,0,0,0,0,0,0,0,-1,1455,967,0,0
238,57,0,0,0,0,0,0,0,0,0,-1,1462,967,0,0
245,57,0,0,0,0,0,0,0,0,0,-1,1469,967,0,0
252,57,0,0,0,0,0,0,0,0,0,-1,1476,967,0,0
259,57,0,0,0,0,0,0,0,0,0,-1,1483,967,0,0
266,57,0,0,0,0,0,0,0,0,0,-1,1490,967,0,0
273,57,0,0,0,0,0,0,0,0,0,-1,1497,967,0,0
280,57,0,0,0,0,0,0,0,0,0,-1,1504,967,0,0
287,57,0,0,0,0,0,0,0,0,0,-1,1511,967,0,0
294,57,0,0,0,0,0,0,0,0,0,-1,1518,967,0,0
301,57,0,0,0,0,0,0,0,0,0,-1,1525,967,0,0
308,57,0,0,0,0,0,0,0,0,0,-1,1532,967,0,0
315,57,0,0,0,0,0,0,0,0,0,-1,1539,967,0,0
322,57,0,0,0,0,0,0,0,0,0,-1,1546,967,0,0
329,57,0,0,0,0,0,0,0,0,0,-1,1553,967,0,0
336,57,0,0,0,0,0,0,0,0,0,-1,1560,967,0,0
343,57,0,0,0,0,0,0,0,0,0,-1,1567,967,0,0
350,57,0,0,0,0,0,0,0,0,0,-1,1574,967,0,0
357,57,0,0,0,0,0,0,0,0,0,-1,1581,967,0,0
364,57,0,0,0,0,0,0,0,0,0,-1,1588,967,0,0
371,57,0,0,0,0,0,0,0,0,0,-1,1595,967,0,0
378,57,0,0,0,0,0,0,0,0,0,-1,1602,967,0,0
385,57,0,0,0,0,0,0,0,0,0,-1,1609,967,0,0
392,57,0,0,0,0,0,0,0,0,0,-1,1616,967,0,0
399,57,0,0,0,0,0,0,0,0,0,-1,1623,967,0,0
406,57,0,0,0,0,0,0,0,0,0,-1,1630,967,0,0
413,57,0,0,0,0,0,0,0,0,0,-1,1637,967,0,0
420,57,0,0,0,0,0,0,0,0,0,-1,1644,967,0,0
427,57,0,0,0,0,0,0,0,0,0,-1,1651,967,0,0
434,57,0,0,0,0,0,0,0,0,0,-1,1658,967,0,0
441,57,0,0,0,0,0,0,0,0,0,-1,1665,967,0,0
448,57,0,0,0,0,0,0,0,0,0,-1,1672,967,0,0
455,57,0,0,0,0,0,0,0,0,0,-1,1679,967,0,0
462,57,0,0,0,0,0,0,0,0,0,-1,1686,967,0,0
469,57,0,0,0,0,0,0,0,0,0,-1,1693,967,0,0
476,57,0,0,0,0,0,0,0,0,0,-1,1700,967,0,0
483,57,0,0,0,0,0,0,0,0,0,-1,1707,967,0,0
490,57,0,0,0,0,0,0,0,0,0,-1,1714,967,0,0
497,57,0,0,0,0,0,0,0,0,0,-1,1721,967,0,0
504,57,0,0,0,0,0,0,0,0,0,-1,1728,967,0,0
511,57,0,0,0,0,0,0,0,0,0,-1,1735,967,0,0
518,57,0,0,0,0,0,0,0,0,0,-1,1742,967,0,0
525,57,0,0,0,0,0,0,0,0,0,-1,1749,967,0,0
532,57,0,0,0,0,0,0,0,0,0,-1,1756,967,0,0
539,57,0,0,0,0,0,0,0,0,0,-1,1763,967,0,0
546,57,0,0,0,0,0,0,0,0,0,-1,1770,967,0,0
553,57,0,0,0,0,0,0,0,0,0,-1,1777,967,0,0
560,57,0,0,0,0,0,0,0,0,0,-1,1784,967,0,0
567,57,0,0,0,0,0,0,0,0,0,-1,1791,967,0,0
574,57,0,0,0,0,0,0,0,0,0,-1,1798,967,0,0
581,57,0,0,0,0,0,0,0,0,0,-1,1805,967,0,0
588,57,0,0,0,0,0,0,0,0,0,-1,1812,967,0,0
595,57,0,0,0,0,0,0,0,0,0,-1,1819,967,0,0
602,57,0,0,0,0,0,0,0,0,0,-1,1826,967,0,0
609,57,0,0,0,0,0,0,0,0,0,-1,1833,967,0,0
616,57,0,0,0,0,0,0,0,0,0,-1,1840,967,0,0
623,57,0,0,0,0,0,0,0,0,0,-1,1847,967,0,0
630,57,0,0,0,0,0,0,0,0,0,-1,1854,967,0,0
637,57,0,0,0,0,0,0,0,0,0,-1,1861,967,0,0
644,57,53.0555,2.65039,-0.00375469,0.00172545,0.00367478,0.00356927,-0.00559851,1.10575,0.00533606,0.042233,1868,967,53.0555,-2.6504
651,57,53.0861,2.67096,-0.00295081,0.000862991,0.00274246,0.00229636,-0.00438417,1.08919,0.00391929,0.0351485,1875,967,53.086,-2.67099
658,57,53.0037,2.63464,-0.00221019,0.000264425,0.00208056,0.00144779,-0.00339356,1.05365,0.00286942,0.0331054,1882,967,53.0037,-2.63467
665,57,52.8336,2.56866,-0.00165096,5.64118e-05,0.001849,0.00123929,-0.00283384,1.00167,0.00241094,0.0401352,1889,967,52.8336,-2.56867
672,57,53.0017,2.45044,-0.00133299,-3.63544e-05,0.0018877,0.00131125,-0.0026806,0.95081,0.00234946,0.0433202,1896,967,53.0017,-2.45043
679,57,53.1072,2.57086,-0.00118223,-9.68073e-05,0.00214876,0.00157671,-0.00285575,0.909096,0.00259436,0.0388239,1903,967,53.1072,-2.57085
686,57,53.0676,2.55884,-0.00103926,-0.00022975,0.00232277,0.00172327,-0.00299228,0.87166,0.00275519,0.0363819,1910,967,53.0676,-2.55882
693,57,53.0286,2.54352,-0.00105651,-0.000364236,0.00238004,0.00169471,-0.00311546,0.857608,0.00281724,0.0317441,1917,967,53.0286,-2.54352
700,57,53.0317,2.55084,-0.00111473,-0.000315692,0.00218275,0.0015038,-0.00293422,0.875913,0.00260628,0.0244023,1924,967,53.0318,-2.55084
707,57,52.9965,2.8822,-0.00128402,-2.62354e-05,0.00186481,0.00131287,-0.00262312,0.94803,0.00231404,0.0453026,1931,967,52.9965,-2.88219
714,57,52.9264,3.31982,0,0,0,0,0,0,0,-1,1938,967,52.9264,-3.31984
721,57,51.5946,4.91223,0,0,0,0,0,0,0,-1,1945,967,51.5946,-4.91222
728,57,51.4192,5.30499,-0.00287657,0.00236347,0.000773526,0.00247527,-0.00298837,1.42726,0.00315907,0.0235148,1952,967,51.4192,-5.30501
735,57,51.4493,5.67426,-0.00274991,0.00365925,-1.77339e-05,0.0036593,-0.00274996,-1.56803,0.00371278,0.0285287,1959,967,51.4493,-5.67428
742,57,51.5017,5.88971,-0.00255835,0.00513167,-0.00136572,0.00536702,-0.00279369,-1.40015,0.00478903,0.0217302,1966,967,51.5017,-5.8897
749,57,51.4841,6.22131,-0.00205439,0.007911,-0.00367017,0.00911679,-0.00326019,-1.25337,0.00740772,0.0154046,1973,967,51.4841,-6.22134
756,57,51.4126,6.51794,-0.000379265,0.0117545,-0.0065552,0.0146194,-0.00324422,-1.15876,0.0109885,0.0123756,1980,967,51.4126,-6.51794
763,57,51.3369,6.81427,0.00208214,0.0164327,-0.0104017,0.0218939,-0.00337902,-1.08733,0.0158428,0.0126142,1987,967,51.3369,-6.81425
770,57,51.2177,7.0769,0.00589732,0.022456,-0.0153306,0.0316001,-0.00324677,-1.03299,0.0222282,0.0113753,1994,967,51.2177,-7.07693
777,57,51.1309,7.3252,0.0110903,0.0294894,-0.0213593,0.0435461,-0.00296643,-0.988744,0.0300683,0.0263249,2001,967,51.1309,-7.32518
784,57,51.4556,7.07239,0.0182272,0.0378285,-0.0288195,0.0584682,-0.00241246,-0.949299,0.0398073,0.0441667,2008,967,51.4556,-7.07237
791,57,51.8088,6.74652,0.0280604,0.0478309,-0.0382483,0.0774507,-0.00155945,-0.911856,0.0521614,0.0480739,2015,967,51.8087,-6.74649
798,57,52.3726,6.64185,0.0410037,0.0600387,-0.0499808,0.1014,-0.000357743,-0.879484,0.0677197,0.0493017,2022,967,52.3725,-6.64183
805,57,52.8955,6.62262,0.0574306,0.0753215,-0.0641343,0.131131,0.00162087,-0.854691,0.0868856,0.0489798,2029,967,52.8955,-6.62265
812,57,0,0,0,0,0,0,0,0,0,-1,2036,967,0,0
-700,50,0,0,0,0,0,0,0,0,0,-1,524,974,0,0
-693,50,-41.8235,2.69055,0.0801553,0.0100518,0.0327572,0.0930792,-0.00287202,0.375786,0.0630319,0.0459364,531,974,-41.8235,-2.69054
-686,50,-41.2579,2.93597,0.0643673,0.0190821,0.0271508,0.0770779,0.00637146,0.437844,0.0493986,0.0428799,538,974,-41.2579,-2.93595
-679,50,-36.2272,4.987,0,0,0,0,0,0,0,-1,545,974,-36.2272,-4.98698
-672,50,-39.5633,3.2923,0.0360972,0.0263845,0.0196029,0.0514364,0.0110453,0.663975,0.0312664,0.0474102,552,974,-39.5633,-3.29231
-665,50,-38.9436,2.07129,0,0,0,0,0,0,0,-1,559,974,-38.9436,-2.07131
-658,50,-38.5124,3.1366,0,0,0,0,0,0,0,-1,566,974,-38.5124,-3.13661
-651,50,-38.8765,3.61487,0.00808577,0.0243181,0.0119596,0.0306554,0.00174845,1.08352,0.0198798,0.0450057,573,974,-38.8765,-3.6149
-644,50,-39.1709,4.16345,0.00259284,0.0215641,0.00994845,0.0258243,-0.0016674,1.16619,0.0177981,0.03296,580,974,-39.1709,-4.16347
-637,50,-39.2846,4.09723,-0.00174229,0.0193131,0.00755617,0.0217441,-0.0041733,1.25953,0.0160688,0.0193704,587,974,-39.2846,-4.09723
-630,50,-39.3584,3.91931,-0.004855,0.0159264,0.00477846,0.0169725,-0.00590109,1.35528,0.013712,0.0115509,594,974,-39.3584,-3.91929
-623,50,-39.3952,3.74469,-0.00586217,0.0121138,0.00250254,0.0124557,-0.00620406,1.43502,0.0109729,0.0120064,601,974,-39.3952,-3.7447
-616,50,-39.401,3.52643,-0.00626855,0.00874915,0.000502693,0.00876596,-0.00628535,1.53737,0.00872913,0.0125098,608,974,-39.401,-3.5264
-609,50,-39.3875,3.20905,-0.00607379,0.00583387,-0.00162073,0.00605053,-0.00629044,-1.43791,0.00712551,0.0110218,615,974,-39.3875,-3.20906
-602,50,-39.3962,2.92914,-0.00587237,0.00420205,-0.00328794,0.00518016,-0.00685048,-1.28165,0.00696817,0.0117424,622,974,-39.3962,-2.92916
-595,50,-39.3901,2.72052,-0.00545733,0.00265457,-0.00472408,0.00482499,-0.00762775,-1.14012,0.00725004,0.0130958,629,974,-39.3901,-2.7205
-588,50,-39.3915,2.34265,-0.00498918,0.00150779,-0.0057765,0.00488657,-0.00836796,-1.04154,0.00774,0.0201686,636,974,-39.3915,-2.34264
-581,50,-39.5897,1.36371,-0.00472133,0.000841655,-0.00638286,0.00502275,-0.00890242,-0.990879,0.00814305,0.0274114,643,974,-39.5897,-1.36369
-574,50,-39.6943,0.66687,-0.00472663,0.000661618,-0.00663187,0.00512571,-0.00919072,-0.978335,0.00837593,0.027396,650,974,-39.6944,-0.666878
-567,50,-39.6661,0.591614,-0.00446744,0.000684653,-0.00642901,0.00503452,-0.00881731,-0.975949,0.00809615,0.0348942,657,974,-39.6661,-0.59164
-560,50,-39.6494,0.73114,-0.00377473,0.000927179,-0.00577026,0.00480702,-0.00765458,-0.978844,0.00725705,0.0416366,664,974,-39.6494,-0.73113
-553,50,-39.7137,0.703918,-0.00231469,0.00126705,-0.00465677,0.00446545,-0.00551309,-0.968967,0.00577168,0.0403148,671,974,-39.7137,-0.703901
-546,50,-39.7286,0.693604,8.59053e-05,0.00155099,-0.00308274,0.00398703,-0.00235014,-0.902048,0.00369923,0.0396799,678,974,-39.7286,-0.693618
-539,50,-39.7108,0.809814,0.00354345,0.0016046,-0.00118189,0.00410264,0.00104541,-0.441919,0.00246176,0.0427876,685,974,-39.7108,-0.809812
-532,50,-39.7863,0.675171,0.00826417,0.00181396,0.000138526,0.00826714,0.00181099,0.0214631,0.00501791,0.040346,692,974,-39.7863,-0.675152
-525,50,-39.5872,0.335754,0,0,0,0,0,0,0,-1,699,974,-39.5871,-0.33573
-518,50,0,0,0,0,0,0,0,0,0,-1,706,974,0,0
-511,50,0,0,0,0,0,0,0,0,0,-1,713,974,0,0
-504,50,0,0,0,0,0,0,0,0,0,-1,720,974,0,0
-497,50,0,0,0,0,0,0,0,0,0,-1,727,974,0,0
-490,50,0,0,0,0,0,0,0,0,0,-1,734,974,0,0
-483,50,0,0,0,0,0,0,0,0,0,-1,741,974,0,0
-476,50,0,0,0,0,0,0,0,0,0,-1,748,974,0,0
-469,50,0,0,0,0,0,0,0,0,0,-1,755,974,0,0
-462,50,0,0,0,0,0,0,0,0,0,-1,762,974,0,0
-455,50,0,0,0,0,0,0,0,0,0,-1,769,974,0,0
-448,50,0,0,0,0,0,0,0,0,0,-1,776,974,0,0
-441,50,0,0,0,0,0,0,0,0,0,-1,783,974,0,0
-434,50,0,0,0,0,0,0,0,0,0,-1,790,974,0,0
-427,50,0,0,0,0,0,0,0,0,0,-1,797,974,0,0
-420,50,0,0,0,0,0,0,0,0,0,-1,804,974,0,0
-413,50,0,0,0,0,0,0,0,0,0,-1,811,974,0,0
-406,50,0,0,0,0,0,0,0,0,0,-1,818,974,0,0
-399,50,0,0,0,0,0,0,0,0,0,-1,825,974,0,0
-392,50,0,0,0,0,0,0,0,0,0,-1,832,974,0,0
-385,50,0,0,0,0,0,0,0,0,0,-1,839,974,0,0
-378,50,0,0,0,0,0,0,0,0,0,-1,846,974,0,0
-371,50,0,0,0,0,0,0,0,0,0,-1,853,974,0,0
-364,50,0,0,0,0,0,0,0,0,0,-1,860,974,0,0
-357,50,0,0,0,0,0,0,0,0,0,-1,867,974,0,0
-350,50,0,0,0,0,0,0,0,0,0,-1,874,974,0,0
-343,50,0,0,0,0,0,0,0,0,0,-1,881,974,0,0
-336,50,0,0,0,0,0,0,0,0,0,-1,888,974,0,0
-329,50,0,0,0,0,0,0,0,0,0,-1,895,974,0,0
-322,50,0,0,0,0,0,0,0,0,0,-1,902,974,0,0
-315,50,0,0,0,0,0,0,0,0,0,-1,909,974,0,0
-308,50,0,0,0,0,0,0,0,0,0,-1,916,974,0,0
-301,50,0,0,0,0,0,0,0,0,0,-1,923,974,0,0
-294,50,0,0,0,0,0,0,0,0,0,-1,930,974,0,0
-287,50,0,0,0,0,0,0,0,0,0,-1,937,974,0,0
-280,50,0,0,0,0,0,0,0,0,0,-1,944,974,0,0
-273,50,0,0,0,0,0,0,0,0,0,-1,951,974,0,0
-266,50,0,0,0,0,0,0,0,0,0,-1,958,974,0,0
-259,50,0,0,0,0,0,0,0,0,0,-1,965,974,0,0
-252,50,0,0,0,0,0,0,0,0,0,-1,972,974,0,0
-245,50,0,0,0,0,0,0,0,0,0,-1,979,974,0,0
-238,50,0,0,0,0,0,0,0,0,0,-1,986,974,0,0
-231,50,0,0,0,0,0,0,0,0,0,-1,993,974,0,0
-224,50,0,0,0,0,0,0,0,0,0,-1,1000,974,0,0
-217,50,0,0,0,0,0,0,0,0,0,-1,1007,974,0,0
-210,50,0,0,0,0,0,0,0,0,0,-1,1014,974,0,0
-203,50,0,0,0,0,0,0,0,0,0,-1,1021,974,0,0
-196,50,0,0,0,0,0,0,0,0,0,-1,1028,974,0,0
-189,50,0,0,0,0,0,0,0,0,0,-1,1035,974,0,0
-182,50,0,0,0,0,0,0,0,0,0,-1,1042,974,0,0
-175,50,0,0,0,0,0,0,0,0,0,-1,1049,974,0,0
-168,50,0,0,0,0,0,0,0,0,0,-1,1056,974,0,0
-161,50,0,0,0,0,0,0,0,0,0,-1,1063,974,0,0
-154,50,0,0,0,0,0,0,0,0,0,-1,1070,974,0,0
-147,50,0,0,0,0,0,0,0,0,0,-1,1077,974,0,0
-140,50,0,0,0,0,0,0,0,0,0,-1,1084,974,0,0
-133,50,0,0,0,0,0,0,0,0,0,-1,1091,974,0,0
-126,50,0,0,0,0,0,0,0,0,0,-1,1098,974,0,0
-119,50,0,0,0,0,0,0,0,0,0,-1,1105,974,0,0
-112,50,0,0,0,0,0,0,0,0,0,-1,1112,974,0,0
-105,50,0,0,0,0,0,0,0,0,0,-1,1119,974,0,0
-98,50,0,0,0,0,0,0,0,0,0,-1,1126,974,0,0
-91,50,0,0,0,0,0,0,0,0,0,-1,1133,974,0,0
-84,50,0,0,0,0,0,0,0,0,0,-1,1140,974,0,0
-77,50,0,0,0,0,0,0,0,0,0,-1,1147,974,0,0
-70,50,0,0,0,0,0,0,0,0,0,-1,1154,974,0,0
-63,50,0,0,0,0,0,0,0,0,0,-1,1161,974,0,0
-56,50,0,0,0,0,0,0,0,0,0,-1,1168,974,0,0
-49,50,0,0,0,0,0,0,0,0,0,-1,1175,974,0,0
-42,50,0,0,0,0,0,0,0,0,0,-1,1182,974,0,0
-35,50,0,0,0,0,0,0,0,0,0,-1,1189,974,0,0
-28,50,0,0,0,0,0,0,0,0,0,-1,1196,974,0,0
-21,50,0,0,0,0,0,0,0,0,0,-1,1203,974,0,0
-14,50,0,0,0,0,0,0,0,0,0,-1,1210,974,0,0
-7,50,0,0,0,0,0,0,0,0,0,-1,1217,974,0,0
0,50,0,0,0,0,0,0,0,0,0,-1,1224,974,0,0
7,50,0,0,0,0,0,0,0,0,0,-1,1231,974,0,0
14,50,0,0,0,0,0,0,0,0,0,-1,1238,974,0,0
21,50,0,0,0,0,0,0,0,0,0,-1,1245,974,0,0
28,50,0,0,0,0,0,0,0,0,0,-1,1252,974,0,0
35,50,0,0,0,0,0,0,0,0,0,-1,1259,974,0,0
42,50,0,0,0,0,0,0,0,0,0,-1,1266,974,0,0
49,50,0,0,0,0,0,0,0,0,0,-1,1273,974,0,0
56,50,0,0,0,0,0,0,0,0,0,-1,1280,974,0,0
63,50,0,0,0,0,0,0,0,0,0,-1,1287,974,0,0
70,50,0,0,0,0,0,0,0,0,0,-1,1294,974,0,0
77,50,0,0,0,0,0,0,0,0,0,-1,1301,974,0,0
84,50,0,0,0,0,0,0,0,0,0,-1,1308,974,0,0
91,50,0,0,0,0,0,0,0,0,0,-1,1315,974,0,0
98,50,0,0,0,0,0,0,0,0,0,-1,1322,974,0,0
105,50,0,0,0,0,0,0,0,0,0,-1,1329,974,0,0
112,50,0,0,0,0,0,0,0,0,0,-1,1336,974,0,0
119,50,0,0,0,0,0,0,0,0,0,-1,1343,974,0,0
126,50,0,0,0,0,0,0,0,0,0,-1,1350,974,0,0
133,50,0,0,0,0,0,0,0,0,0,-1,1357,974,0,0
140,50,0,0,0,0,0,0,0,0,0,-1,1364,974,0,0
147,50,0,0,0,0,0,0,0,0,0,-1,1371,974,0,0
154,50,0,0,0,0,0,0,0,0,0,-1,1378,974,0,0
161,50,0,0,0,0,0,0,0,0,0,-1,1385,974,0,0
168,50,0,0,0,0,0,0,0,0,0,-1,1392,974,0,0
175,50,0,0,0,0,0,0,0,0,0,-1,1399,974,0,0
182,50,0,0,0,0,0,0,0,0,0,-1,1406,974,0,0
189,50,0,0,0,0,0,0,0,0,0,-1,1413,974,0,0
196,50,0,0,0,0,0,0,0,0,0,-1,1420,974,0,0
203,50,0,0,0,0,0,0,0,0,0,-1,1427,974,0,0
210,50,0,0,0,0,0,0,0,0,0,-1,1434,974,0,0
217,50,0,0,0,0,0,0,0,0,0,-1,1441,974,0,0
224,50,0,0,0,0,0,0,0,0,0,-1,1448,974,0,0
231,50,0,0,0,0,0,0,0,0,0,-1,1455,974,0,0
238,50,0,0,0,0,0,0,0,0,0,-1,1462,974,0,0
245,50,0,0,0,0,0,0,0,0,0,-1,1469,974,0,0
252,50,0,0,0,0,0,0,0,0,0,-1,1476,974,0,0
259,50,0,0,0,0,0,0,0,0,0,-1,1483,974,0,0
266,50,0,0,0,0,0,0,0,0,0,-1,1490,974,0,0
273,50,0,0,0,0,0,0,0,0,0,-1,1497,974,0,0
280,50,0,0,0,0,0,0,0,0,0,-1,1504,974,0,0
287,50,0,0,0,0,0,0,0,0,0,-1,1511,974,0,0
294,50,0,0,0,0,0,0,0,0,0,-1,1518,974,0,0
301,50,0,0,0,0,0,0,0,0,0,-1,1525,974,0,0
308,50,0,0,0,0,0,0,0,0,0,-1,1532,974,0,0
315,50,0,0,0,0,0,0,0,0,0,-1,1539,974,0,0
322,50,0,0,0,0,0,0,0,0,0,-1,1546,974,0,0
329,50,0,0,0,0,0,0,0,0,0,-1,1553,974,0,0
336,50,0,0,0,0,0,0,0,0,0,-1,1560,974,0,0
343,50,0,0,0,0,0,0,0,0,0,-1,1567,974,0,0
350,50,0,0,0,0,0,0,0,0,0,-1,1574,974,0,0
357,50,0,0,0,0,0,0,0,0,0,-1,1581,974,0,0
364,50,0,0,0,0,0,0,0,0,0,-1,1588,974,0,0
371,50,0,0,0,0,0,0,0,0,0,-1,1595,974,0,0
378,50,0,0,0,0,0,0,0,0,0,-1,1602,974,0,0
385,50,0,0,0,0,0,0,0,0,0,-1,1609,974,0,0
392,50,0,0,0,0,0,0,0,0,0,-1,1616,974,0,0
399,50,0,0,0,0,0,0,0,0,0,-1,1623,974,0,0
406,50,0,0,0,0,0,0,0,0,0,-1,1630,974,0,0
413,50,0,0,0,0,0,0,0,0,0,-1,1637,974,0,0
420,50,0,0,0,0,0,0,0,0,0,-1,1644,974,0,0
427,50,0,0,0,0,0,0,0,0,0,-1,1651,974,0,0
434,50,0,0,0,0,0,0,0,0,0,-1,1658,974,0,0
441,50,0,0,0,0,0,0,0,0,0,-1,1665,974,0,0
448,50,0,0,0,0,0,0,0,0,0,-1,1672,974,0,0
455,50,0,0,0,0,0,0,0,0,0,-1,1679,974,0,0
462,50,0,0,0,0,0,0,0,0,0,-1,1686,974,0,0
469,50,0,0,0,0,0,0,0,0,0,-1,1693,974,0,0
476,50,0,0,0,0,0,0,0,0,0,-1,1700,974,0,0
483,50,0,0,0,0,0,0,0,0,0,-1,1707,974,0,0
490,50,0,0,0,0,0,0,0,0,0,-1,1714,974,0,0
497,50,0,0,0,0,0,0,0,0,0,-1,1721,974,0,0
504,50,0,0,0,0,0,0,0,0,0,-1,1728,974,0,0
511,50,0,0,0,0,0,0,0,0,0,-1,1735,974,0,0
518,50,0,0,0,0,0,0,0,0,0,-1,1742,974,0,0
525,50,0,0,0,0,0,0,0,0,0,-1,1749,974,0,0
532,50,0,0,0,0,0,0,0,0,0,-1,1756,974,0,0
539,50,0,0,0,0,0,0,0,0,0,-1,1763,974,0,0
546,50,0,0,0,0,0,0,0,0,0,-1,1770,974,0,0
553,50,0,0,0,0,0,0,0,0,0,-1,1777,974,0,0
560,50,0,0,0,0,0,0,0,0,0,-1,1784,974,0,0
567,50,0,0,0,0,0,0,0,0,0,-1,1791,974,0,0
574,50,0,0,0,0,0,0,0,0,0,-1,1798,974,0,0
581,50,0,0,0,0,0,0,0,0,0,-1,1805,974,0,0
588,50,0,0,0,0,0,0,0,0,0,-1,1812,974,0,0
595,50,0,0,0,0,0,0,0,0,0,-1,1819,974,0,0
602,50,0,0,0,0,0,0,0,0,0,-1,1826,974,0,0
609,50,0,0,0,0,0,0,0,0,0,-1,1833,974,0,0
616,50,0,0,0,0,0,0,0,0,0,-1,1840,974,0,0
623,50,0,0,0,0,0,0,0,0,0,-1,1847,974,0,0
630,50,0,0,0,0,0,0,0,0,0,-1,1854,974,0,0
637,50,0,0,0,0,0,0,0,0,0,-1,1861,974,0,0
644,50,53.0739,2.64923,-0.00484144,0.00118551,0.00420253,0.00334333,-0.00699926,1.09644,0.00609438,0.0383145,1868,974,53.0738,-2.64921
651,50,52.9525,2.59619,-0.00353386,0.000493449,0.00311508,0.00218904,-0.00522945,1.07233,0.00440134,0.0312255,1875,974,52.9525,-2.59618
658,50,53.0083,2.61865,-0.00247495,-7.55094e-06,0.00229426,0.00136367,-0.00384617,1.03209,0.00311966,0.0361897,1882,974,53.0083,-2.61867
665,50,52.9496,2.47961,-0.00173012,-0.000133312,0.00196129,0.00118586,-0.00304928,0.978696,0.00252282,0.0395029,1889,974,52.9496,-2.4796
672,50,53.0413,2.32031,-0.00128333,-0.000135056,0.00192906,0.00130349,-0.00272188,0.930036,0.00237165,0.0402964,1896,974,53.0412,-2.32033
679,50,53.056,2.69781,-0.00105276,-0.000104828,0.00216834,0.00164075,-0.00279833,0.892998,0.00259179,0.0393733,1903,974,53.0561,-2.69779
686,50,53.0767,2.59839,-0.000867362,-0.000191945,0.00238464,0.00187878,-0.00293809,0.855739,0.00280335,0.0404846,1910,974,53.0767,-2.59837
693,50,53.0211,2.59747,-0.000865743,-0.000289733,0.00249211,0.00193095,-0.00308643,0.842926,0.00292228,0.0377425,1917,974,53.0211,-2.59745
700,50,52.9951,2.61719,-0.000887538,-0.000227953,0.00233326,0.0017987,-0.00291419,0.855605,0.00274628,0.0204272,1924,974,52.9951,-2.61717
707,50,53.0026,2.73895,-0.00108844,8.21726e-05,0.00205599,0.00163455,-0.00264081,0.924071,0.00249107,0.0316799,1931,974,53.0026,-2.73895
714,50,52.9707,2.91052,0,0,0,0,0,0,0,-1,1938,974,52.9707,-2.91051
721,50,51.8666,4.94452,0,0,0,0,0,0,0,-1,1945,974,51.8665,-4.9445
728,50,51.8083,5.30798,-0.00278937,0.00259079,0.00106144,0.00279263,-0.00299121,1.38289,0.00333996,0.0220717,1952,974,51.8083,-5.308
735,50,51.8368,5.60657,-0.00267467,0.00389057,0.000326698,0.00390679,-0.00269089,1.5212,0.00383068,0.0202662,1959,974,51.8367,-5.60655
742,50,51.8519,5.92078,-0.00246356,0.00535218,-0.000768951,0.00542712,-0.00253849,-1.47365,0.00469867,0.0168748,1966,974,51.8519,-5.92078
749,50,51.8035,6.16296,-0.00196212,0.00806651,-0.00269483,0.00874477,-0.00264038,-1.32423,0.00688096,0.0176859,1973,974,51.8035,-6.16296
756,50,51.7502,6.42297,-0.000282671,0.0117781,-0.00509857,0.0136446,-0.00214918,-1.21986,0.00989094,0.0142468,1980,974,51.7503,-6.42295
763,50,51.6802,6.70593,0.00223614,0.0162793,-0.00830107,0.0201302,-0.00161475,-1.13644,0.0139894,0.0143773,1987,974,51.6802,-6.70592
770,50,51.5845,6.96515,0.00635214,0.0222154,-0.0123954,0.0289996,-0.000432106,-1.07001,0.0194787,0.013273,1994,974,51.5845,-6.96515
777,50,51.5603,7.27881,0.0121129,0.02929,-0.0173891,0.0400959,0.00130702,-1.01478,0.0263058,0.0246296,2001,974,51.5603,-7.27883
784,50,51.8652,7.28979,0.0200872,0.0377023,-0.0234555,0.0539493,0.00384019,-0.965003,0.0347569,0.0398942,2008,974,51.8651,-7.2898
791,50,52.2263,7.35547,0.0312197,0.0478616,-0.0310391,0.0716757,0.00740553,-0.916358,0.0455166,0.0469284,2015,974,52.2263,-7.35548
798,50,52.9656,5.81201,0.0460388,0.0603389,-0.0403912,0.094208,0.0121697,-0.873,0.0591675,0.0467737,2022,974,52.9655,-5.812
805,50,53.6511,5.89008,0.0650946,0.0760482,-0.0515071,0.122369,0.0187739,-0.838365,0.0760972,0.0459673,2029,974,53.6511,-5.89005
812,50,0,0,0,0,0,0,0,0,0,-1,2036,974,0,0
-700,43,0,0,0,0,0,0,0,0,0,-1,524,981,0,0
-693,43,-42.187,2.836,0.0928468,0.00658139,0.0314504,0.103095,-0.00366714,0.315013,0.0699846,0.0444433,531,981,-42.187,-2.83602
-686,43,-41.5539,2.66174,0.0758985,0.0148908,0.0252656,0.0850032,0.00578614,0.345873,0.0548419,0.04285,538,981,-41.5539,-2.66175
-679,43,-40.6628,3.26233,0.059592,0.0196297,0.0209532,0.068564,0.0106578,0.40457,0.0426034,0.0424301,545,981,-40.6628,-3.2623
-672,43,-40.1078,3.23932,0.0451877,0.022148,0.0176485,0.0547433,0.0125924,0.496249,0.0331062,0.04732,552,981,-40.1078,-3.23934
-665,43,-39.608,2.75531,0,0,0,0,0,0,0,-1,559,981,-39.6079,-2.75531
-658,43,-38.9883,4.27777,0,0,0,0,0,0,0,-1,566,981,-38.9884,-4.27775
-651,43,-39.1984,4.19635,0.0135089,0.0214788,0.0106732,0.0288867,0.00610104,0.964064,0.0175806,0.0441297,573,981,-39.1984,-4.19634
-644,43,-39.4431,4.14691,0.00671815,0.0193058,0.00888469,0.0239001,0.00212392,1.09357,0.0152747,0.0267194,580,981,-39.4431,-4.14692
-637,43,-39.5672,3.99713,0.00128456,0.0176298,0.00659418,0.0199583,-0.00104401,1.23134,0.0136669,0.019923,587,981,-39.5672,-3.99715
-630,43,-39.6185,3.828,-0.00264352,0.0146718,0.003957,0.0155332,-0.00350494,1.35645,0.0117001,0.0154098,594,981,-39.6185,-3.82802
-623,43,-39.6218,3.66217,-0.00415297,0.0111254,0.00171711,0.011316,-0.00434357,1.46025,0.00933503,0.0128717,601,981,-39.6218,-3.66216
-616,43,-39.6228,3.4483,-0.00492218,0.00813611,-0.000163007,0.00813815,-0.00492421,-1.55832,0.00761727,0.0118242,608,981,-39.6228,-3.4483
-609,43,-39.6448,3.21149,-0.0048013,0.00552673,-0.00219957,0.00597566,-0.00525023,-1.36946,0.00648578,0.0136413,615,981,-39.6448,-3.21149
-602,43,-39.6201,2.99792,-0.00446186,0.00400773,-0.00386915,0.00550912,-0.00596325,-1.20064,0.00662531,0.0167286,622,981,-39.6201,-2.9979
-595,43,-39.6875,2.80658,-0.00386026,0.00251903,-0.00530125,0.00551623,-0.00685747,-1.05622,0.00715794,0.0163971,629,981,-39.6875,-2.80655
-588,43,-39.6676,2.21552,-0.00317924,0.00134054,-0.00631985,0.00579241,-0.0076311,-0.957107,0.00777426,0.025405,636,981,-39.6676,-2.21554
-581,43,-39.6689,1.19141,-0.00272652,0.000613343,-0.0068694,0.00601288,-0.00812605,-0.904634,0.00819345,0.031845,643,981,-39.669,-1.19143
-574,43,-39.6864,0.753906,-0.00268255,0.000367253,-0.00707169,0.00607658,-0.00839188,-0.89159,0.00838894,0.0271683,650,981,-39.6864,-0.753892
-567,43,-39.64,0.656616,-0.00249362,0.000341759,-0.00676489,0.00583591,-0.00798777,-0.888686,0.00801328,0.0351491,657,981,-39.64,-0.656633
-560,43,-39.6058,0.848694,-0.00193693,0.00052694,-0.00594533,0.00536663,-0.00677662,-0.887558,0.00702664,0.0417737,664,981,-39.6058,-0.848693
-553,43,-39.778,0.799927,-0.000765771,0.000792398,-0.00463226,0.00471063,-0.00468401,-0.868712,0.005424,0.0395641,671,981,-39.778,-0.799957
-546,43,-39.785,0.664551,0.00119061,0.000951034,-0.00284028,0.00391363,-0.00177199,-0.764324,0.00335932,0.0411715,678,981,-39.785,-0.664531
-539,43,-39.6799,0.74762,0.00401469,0.000827886,-0.000793004,0.00420112,0.000641461,-0.230895,0.0026133,0.0438499,685,981,-39.6799,-0.74765
-532,43,-39.5162,0.76709,0.00802538,0.000892338,0.000386677,0.00804628,0.000871437,0.0539984,0.00509859,0.0429856,692,981,-39.5162,-0.767075
-525,43,-39.5295,0.814026,0.0113502,0.000664592,-0.000383376,0.0113639,0.000650855,-0.0358164,0.00736859,0.0447234,699,981,-39.5295,-0.814008
-518,43,0,0,0,0,0,0,0,0,0,-1,706,981,0,0
-511,43,0,0,0,0,0,0,0,0,0,-1,713,981,0,0
-504,43,0,0,0,0,0,0,0,0,0,-1,720,981,0,0
-497,43,0,0,0,0,0,0,0,0,0,-1,727,981,0,0
-490,43,0,0,0,0,0,0,0,0,0,-1,734,981,0,0
-483,43,0,0,0,0,0,0,0,0,0,-1,741,981,0,0
-476,43,0,0,0,0,0,0,0,0,0,-1,748,981,0,0
-469,43,0,0,0,0,0,0,0,0,0,-1,755,981,0,0
-462,43,0,0,0,0,0,0,0,0,0,-1,762,981,0,0
-455,43,0,0,0,0,0,0,0,0,0,-1,769,981,0,0
-448,43,0,0,0,0,0,0,0,0,0,-1,776,981,0,0
-441,43,0,0,0,0,0,0,0,0,0,-1,783,981,0,0
-434,43,0,0,0,0,0,0,0,0,0,-1,790,981,0,0
-427,43,0,0,0,0,0,0,0,0,0,-1,797,981,0,0
-420,43,0,0,0,0,0,0,0,0,0,-1,804,981,0,0
-413,43,0,0,0,0,0,0,0,0,0,-1,811,981,0,0
-406,43,0,0,0,0,0,0,0,0,0,-1,818,981,0,0
-399,43,0,0,0,0,0,0,0,0,0,-1,825,981,0,0
-392,43,0,0,0,0,0,0,0,0,0,-1,832,981,0,0
-385,43,0,0,0,0,0,0,0,0,0,-1,839,981,0,0
-378,43,0,0,0,0,0,0,0,0,0,-1,846,981,0,0
-371,43,0,0,0,0,0,0,0,0,0,-1,853,981,0,0
-364,43,0,0,0,0,0,0,0,0,0,-1,860,981,0,0
-357,43,0,0,0,0,0,0,0,0,0,-1,867,981,0,0
-350,43,0,0,0,0,0,0,0,0,0,-1,874,981,0,0
-343,43,0,0,0,0,0,0,0,0,0,-1,881,981,0,0
-336,43,0,0,0,0,0,0,0,0,0,-1,888,981,0,0
-329,43,0,0,0,0,0,0,0,0,0,-1,895,981,0,0
-322,43,0,0,0,0,0,0,0,0,0,-1,902,981,0,0
-315,43,0,0,0,0,0,0,0,0,0,-1,909,981,0,0
-308,43,0,0,0,0,0,0,0,0,0,-1,916,981,0,0
-301,43,0,0,0,0,0,0,0,0,0,-1,923,981,0,0
-294,43,0,0,0,0,0,0,0,0,0,-1,930,981,0,0
-287,43,0,0,0,0,0,0,0,0,0,-1,937,981,0,0
-280,43,0,0,0,0,0,0,0,0,0,-1,944,981,0,0
-273,43,0,0,0,0,0,0,0,0,0,-1,951,981,0,0
-266,43,0,0,0,0,0,0,0,0,0,-1,958,981,0,0
-259,43,0,0,0,0,0,0,0,0,0,-1,965,981,0,0
-252,43,0,0,0,0,0,0,0,0,0,-1,972,981,0,0
-245,43,0,0,0,0,0,0,0,0,0,-1,979,981,0,0
-238,43,0,0,0,0,0,0,0,0,0,-1,986,981,0,0
-231,43,0,0,0,0,0,0,0,0,0,-1,993,981,0,0
-224,43,0,0,0,0,0,0,0,0,0,-1,1000,981,0,0
-217,43,0,0,0,0,0,0,0,0,0,-1,1007,981,0,0
-210,43,0,0,0,0,0,0,0,0,0,-1,1014,981,0,0
-203,43,0,0,0,0,0,0,0,0,0,-1,1021,981,0,0
-196,43,0,0,0,0,0,0,0,0,0,-1,1028,981,0,0
-189,43,0,0,0,0,0,0,0,0,0,-1,1035,981,0,0
-182,43,0,0,0,0,0,0,0,0,0,-1,1042,981,0,0
-175,43,0,0,0,0,0,0,0,0,0,-1,1049,981,0,0
-168,43,0,0,0,0,0,0,0,0,0,-1,1056,981,0,0
-161,43,0,0,0,0,0,0,0,0,0,-1,1063,981,0,0
-154,43,0,0,0,0,0,0,0,0,0,-1,1070,981,0,0
-147,43,0,0,0,0,0,0,0,0,0,-1,1077,981,0,0
-140,43,0,0,0,0,0,0,0,0,0,-1,1084,981,0,0
-133,43,0,0,0,0,0,0,0,0,0,-1,1091,981,0,0
-126,43,0,0,0,0,0,0,0,0,0,-1,1098,981,0,0
-119,43,0,0,0,0,0,0,0,0,0,-1,1105,981,0,0
-112,43,0,0,0,0,0,0,0,0,0,-1,1112,981,0,0
-105,43,0,0,0,0,0,0,0,0,0,-1,1119,981,0,0
-98,43,0,0,0,0,0,0,0,0,0,-1,1126,981,0,0
-91,43,0,0,0,0,0,0,0,0,0,-1,1133,981,0,0
-84,43,0,0,0,0,0,0,0,0,0,-1,1140,981,0,0
-77,43,0,0,0,0,0,0,0,0,0,-1,1147,981,0,0
-70,43,0,0,0,0,0,0,0,0,0,-1,1154,981,0,0
-63,43,0,0,0,0,0,0,0,0,0,-1,1161,981,0,0
-56,43,0,0,0,0,0,0,0,0,0,-1,1168,981,0,0
-49,43,0,0,0,0,0,0,0,0,0,-1,1175,981,0,0
-42,43,0,0,0,0,0,0,0,0,0,-1,1182,981,0,0
-35,43,0,0,0,0,0,0,0,0,0,-1,1189,981,0,0
-28,43,0,0,0,0,0,0,0,0,0,-1,1196,981,0,0
-21,43,0,0,0,0,0,0,0,0,0,-1,1203,981,0,0
-14,43,0,0,0,0,0,0,0,0,0,-1,1210,981,0,0
-7,43,0,0,0,0,0,0,0,0,0,-1,1217,981,0,0
0,43,0,0,0,0,0,0,0,0,0,-1,1224,981,0,0
7,43,0,0,0,0,0,0,0,0,0,-1,1231,981,0,0
14,43,0,0,0,0,0,0,0,0,0,-1,1238,981,0,0
21,43,0,0,0,0,0,0,0,0,0,-1,1245,981,0,0
28,43,0,0,0,0,0,0,0,0,0,-1,1252,981,0,0
35,43,0,0,0,0,0,0,0,0,0,-1,1259,981,0,0
42,43,0,0,0,0,0,0,0,0,0,-1,1266,981,0,0
49,43,0,0,0,0,0,0,0,0,0,-1,1273,981,0,0
56,43,0,0,0,0,0,0,0,0,0,-1,1280,981,0,0
63,43,0,0,0,0,0,0,0,0,0,-1,1287,981,0,0
70,43,0,0,0,0,0,0,0,0,0,-1,1294,981,0,0
77,43,0,0,0,0,0,0,0,0,0,-1,1301,981,0,0
84,43,0,0,0,0,0,0,0,0,0,-1,1308,981,0,0
91,43,0,0,0,0,0,0,0,0,0,-1,1315,981,0,0
98,43,0,0,0,0,0,0,0,0,0,-1,1322,981,0,0
105,43,0,0,0,0,0,0,0,0,0,-1,1329,981,0,0
112,43,0,0,0,0,0,0,0,0,0,-1,1336,981,0,0
119,43,0,0,0,0,0,0,0,0,0,-1,1343,981,0,0
126,43,0,0,0,0,0,0,0,0,0,-1,1350,981,0,0
133,43,0,0,0,0,0,0,0,0,0,-1,1357,981,0,0
140,43,0,0,0,0,0,0,0,0,0,-1,1364,981,0,0
147,43,0,0,0,0,0,0,0,0,0,-1,1371,981,0,0
154,43,0,0,0,0,0,0,0,0,0,-1,1378,981,0,0
161,43,0,0,0,0,0,0,0,0,0,-1,1385,981,0,0
168,43,0,0,0,0,0,0,0,0,0,-1,1392,981,0,0
175,43,0,0,0,0,0,0,0,0,0,-1,1399,981,0,0
182,43,0,0,0,0,0,0,0,0,0,-1,1406,981,0,0
189,43,0,0,0,0,0,0,0,0,0,-1,1413,981,0,0
196,43,0,0,0,0,0,0,0,0,0,-1,1420,981,0,0
203,43,0,0,0,0,0,0,0,0,0,-1,1427,981,0,0
210,43,0,0,0,0,0,0,0,0,0,-1,1434,981,0,0
217,43,0,0,0,0,0,0,0,0,0,-1,1441,981,0,0
224,43,0,0,0,0,0,0,0,0,0,-1,1448,981,0,0
231,43,0,0,0,0,0,0,0,0,0,-1,1455,981,0,0
238,43,0,0,0,0,0,0,0,0,0,-1,1462,981,0,0
245,43,0,0,0,0,0,0,0,0,0,-1,1469,981,0,0
252,43,0,0,0,0,0,0,0,0,0,-1,1476,981,0,0
259,43,0,0,0,0,0,0,0,0,0,-1,1483,981,0,0
266,43,0,0,0,0,0,0,0,0,0,-1,1490,981,0,0
273,43,0,0,0,0,0,0,0,0,0,-1,1497,981,0,0
280,43,0,0,0,0,0,0,0,0,0,-1,1504,981,0,0
287,43,0,0,0,0,0,0,0,0,0,-1,1511,981,0,0
294,43,0,0,0,0,0,0,0,0,0,-1,1518,981,0,0
301,43,0,0,0,0,0,0,0,0,0,-1,1525,981,0,0
308,43,0,0,0,0,0,0,0,0,0,-1,1532,981,0,0
315,43,0,0,0,0,0,0,0,0,0,-1,1539,981,0,0
322,43,0,0,0,0,0,0,0,0,0,-1,1546,981,0,0
329,43,0,0,0,0,0,0,0,0,0,-1,1553,981,0,0
336,43,0,0,0,0,0,0,0,0,0,-1,1560,981,0,0
343,43,0,0,0,0,0,0,0,0,0,-1,1567,981,0,0
350,43,0,0,0,0,0,0,0,0,0,-1,1574,981,0,0
357,43,0,0,0,0,0,0,0,0,0,-1,1581,981,0,0
364,43,0,0,0,0,0,0,0,0,0,-1,1588,981,0,0
371,43,0,0,0,0,0,0,0,0,0,-1,1595,981,0,0
378,43,0,0,0,0,0,0,0,0,0,-1,1602,981,0,0
385,43,0,0,0,0,0,0,0,0,0,-1,1609,981,0,0
392,43,0,0,0,0,0,0,0,0,0,-1,1616,981,0,0
399,43,0,0,0,0,0,0,0,0,0,-1,1623,981,0,0
406,43,0,0,0,0,0,0,0,0,0,-1,1630,981,0,0
413,43,0,0,0,0,0,0,0,0,0,-1,1637,981,0,0
420,43,0,0,0,0,0,0,0,0,0,-1,1644,981,0,0
427,43,0,0,0,0,0,0,0,0,0,-1,1651,981,0,0
434,43,0,0,0,0,0,0,0,0,0,-1,1658,981,0,0
441,43,0,0,0,0,0,0,0,0,0,-1,1665,981,0,0
448,43,0,0,0,0,0,0,0,0,0,-1,1672,981,0,0
455,43,0,0,0,0,0,0,0,0,0,-1,1679,981,0,0
462,43,0,0,0,0,0,0,0,0,0,-1,1686,981,0,0
469,43,0,0,0,0,0,0,0,0,0,-1,1693,981,0,0
476,43,0,0,0,0,0,0,0,0,0,-1,1700,981,0,0
483,43,0,0,0,0,0,0,0,0,0,-1,1707,981,0,0
490,43,0,0,0,0,0,0,0,0,0,-1,1714,981,0,0
497,43,0,0,0,0,0,0,0,0,0,-1,1721,981,0,0
504,43,0,0,0,0,0,0,0,0,0,-1,1728,981,0,0
511,43,0,0,0,0,0,0,0,0,0,-1,1735,981,0,0
518,43,0,0,0,0,0,0,0,0,0,-1,1742,981,0,0
525,43,0,0,0,0,0,0,0,0,0,-1,1749,981,0,0
532,43,0,0,0,0,0,0,0,0,0,-1,1756,981,0,0
539,43,0,0,0,0,0,0,0,0,0,-1,1763,981,0,0
546,43,0,0,0,0,0,0,0,0,0,-1,1770,981,0,0
553,43,0,0,0,0,0,0,0,0,0,-1,1777,981,0,0
560,43,0,0,0,0,0,0,0,0,0,-1,1784,981,0,0
567,43,0,0,0,0,0,0,0,0,0,-1,1791,981,0,0
574,43,0,0,0,0,0,0,0,0,0,-1,1798,981,0,0
581,43,0,0,0,0,0,0,0,0,0,-1,1805,981,0,0
588,43,0,0,0,0,0,0,0,0,0,-1,1812,981,0,0
595,43,0,0,0,0,0,0,0,0,0,-1,1819,981,0,0
602,43,0,0,0,0,0,0,0,0,0,-1,1826,981,0,0
609,43,0,0,0,0,0,0,0,0,0,-1,1833,981,0,0
616,43,0,0,0,0,0,0,0,0,0,-1,1840,981,0,0
623,43,0,0,0,0,0,0,0,0,0,-1,1847,981,0,0
630,43,0,0,0,0,0,0,0,0,0,-1,1854,981,0,0
637,43,0,0,0,0,0,0,0,0,0,-1,1861,981,0,0
644,43,53.0602,2.50085,-0.00490902,-6.61258e-05,0.00471983,0.00281716,-0.00779231,1.02241,0.0063459,0.0379059,1868,981,53.0601,-2.50086
651,43,52.7366,2.69531,-0.0034671,-0.000328374,0.00340076,0.00184767,-0.00564314,1.00158,0.00450607,0.0376732,1875,981,52.7366,-2.69534
658,43,52.9652,2.82471,-0.0023466,-0.00051894,0.00239547,0.00113109,-0.00399662,0.967619,0.00311076,0.0402557,1882,981,52.9652,-2.82469
665,43,53.1582,2.57941,-0.00159022,-0.000422354,0.00195033,0.00102959,-0.00304216,0.930852,0.00244467,0.0404014,1889,981,53.1582,-2.57938
672,43,53.0629,2.43164,-0.00112702,-0.000229735,0.00185267,0.00122784,-0.00258459,0.904191,0.00224709,0.0401768,1896,981,53.0629,-2.43164
679,43,53.0419,2.62195,-0.00086925,-2.97057e-05,0.00207081,0.00166345,-0.00256241,0.885398,0.00245813,0.0403169,1903,981,53.0419,-2.62195
686,43,53.1104,2.62793,-0.000675384,-9.72376e-06,0.00232485,0.002006,-0.00269111,0.856496,0.00272148,0.0398205,1910,981,53.1103,-2.62796
693,43,53.0747,2.5863,-0.00065892,-3.49962e-05,0.00248749,0.00216001,-0.00285393,0.847779,0.00290403,0.0357595,1917,981,53.0747,-2.58633
700,43,53.0181,2.52466,-0.000648818,4.74691e-05,0.00239268,0.0021172,-0.00271855,0.857643,0.00279911,0.0300178,1924,981,53.0181,-2.52463
707,43,53.0455,2.57758,-0.000889659,0.00038273,0.00217774,0.0020153,-0.00252223,0.927511,0.00262519,0.0258779,1931,981,53.0455,-2.57757
714,43,53.0242,2.68054,0,0,0,0,0,0,0,-1,1938,981,53.0242,-2.68056
721,43,52.1959,4.97113,0,0,0,0,0,0,0,-1,1945,981,52.1959,-4.97115
728,43,52.1823,5.31769,-0.00277119,0.00300643,0.00129375,0.0032829,-0.00304767,1.36027,0.00365579,0.0205148,1952,981,52.1822,-5.31767
735,43,52.1699,5.62793,-0.00273969,0.00428276,0.00062892,0.00433864,-0.00279557,1.48218,0.00415093,0.0147289,1959,981,52.1699,-5.6279
742,43,52.1366,5.90912,-0.0026252,0.00570361,-0.00021027,0.00570891,-0.00263051,-1.54557,0.0049229,0.0168897,1966,981,52.1365,-5.90911
749,43,52.0905,6.1524,-0.00229656,0.00828553,-0.00176948,0.00857357,-0.0025846,-1.40943,0.0067444,0.0188496,1973,981,52.0904,-6.15242
756,43,52.0917,6.34485,-0.000826138,0.0118165,-0.00373217,0.012836,-0.00184567,-1.30413,0.00923427,0.0206252,1980,981,52.0917,-6.34483
763,43,52.0485,6.5694,0.00147435,0.0161136,-0.00635722,0.0184889,-0.000900929,-1.21322,0.0126369,0.0247358,1987,981,52.0485,-6.56938
770,43,51.9518,6.87036,0.00551183,0.0218964,-0.00970538,0.0264048,0.00100342,-1.13593,0.0172785,0.0208757,1994,981,51.9518,-6.87034
777,43,51.9697,7.17859,0.0114257,0.0289387,-0.0137806,0.0365095,0.00385484,-1.06843,0.0231619,0.0257068,2001,981,51.9697,-7.17859
784,43,52.3518,7.48706,0.019723,0.0373596,-0.0186356,0.049158,0.00792459,-1.00639,0.0304758,0.0426939,2008,981,52.3517,-7.48708
791,43,52.7288,7.92542,0.0314657,0.0475658,-0.0246293,0.0654272,0.0136043,-0.943349,0.0398648,0.0453136,2015,981,52.7287,-7.92543
798,43,53.0017,8.46985,0,0,0,0,0,0,0,-1,2022,981,53.0018,-8.46987
805,43,54.1887,5.31128,0,0,0,0,0,0,0,-1,2029,981,54.1888,-5.31127
812,43,55.0281,5.48486,0,0,0,0,0,0,0,-1,2036,981,55.0282,-5.48484
-700,36,0,0,0,0,0,0,0,0,0,-1,524,988,0,0
-693,36,-42.4395,2.2782,0,0,0,0,0,0,0,-1,531,988,-42.4395,-2.2782
-686,36,-41.8411,2.43365,0.0868842,0.0100108,0.0232744,0.0933816,0.00351335,0.272236,0.061117,0.0440277,538,988,-41.8411,-2.43363
-679,36,-41.1679,2.96295,0.0693731,0.0149041,0.0191169,0.0754128,0.00886435,0.306012,0.0475964,0.0443274,545,988,-41.1679,-2.96295
-672,36,-40.3426,2.84259,0.0537532,0.0178225,0.015998,0.0598438,0.0117319,0.363769,0.0366172,0.0433323,552,988,-40.3426,-2.84257
-665,36,-39.682,2.50348,0.0400949,0.0192822,0.0134865,0.0467232,0.0126539,0.456803,0.0279042,0.0472867,559,988,-39.682,-2.50348
-658,36,-39.4332,4.33209,0,0,0,0,0,0,0,-1,566,988,-39.4331,-4.33209
-651,36,-39.5301,4.12872,0.0186356,0.0188095,0.00958951,0.0283124,0.00913262,0.789931,0.0166857,0.0429196,573,988,-39.5301,-4.12869
-644,36,-39.6723,3.953,0.0106608,0.0172083,0.00796068,0.0225421,0.00532701,0.980478,0.0136046,0.0289072,580,988,-39.6723,-3.95298
-637,36,-39.8208,3.82782,0.00422015,0.0160397,0.00577457,0.0183925,0.00186729,1.18388,0.0116891,0.0228279,587,988,-39.8208,-3.82782
-630,36,-39.8452,3.74213,-0.000422067,0.0134418,0.00328408,0.0141804,-0.00116065,1.34958,0.00986329,0.0169425,594,988,-39.8451,-3.74212
-623,36,-39.8575,3.60223,-0.00237238,0.0101587,0.00109863,0.0102543,-0.00246797,1.48401,0.00779027,0.0131762,601,988,-39.8575,-3.60221
-616,36,-39.8325,3.45129,-0.00343084,0.00751476,-0.000694133,0.00755861,-0.00347468,-1.50772,0.00651391,0.0105895,608,988,-39.8325,-3.45126
-609,36,-39.8171,3.30066,-0.00339797,0.00520799,-0.00264488,0.00595585,-0.00414583,-1.29523,0.00586333,0.015763,615,988,-39.8171,-3.30063
-602,36,-39.8438,3.09326,-0.00302023,0.00382013,-0.00427445,0.00587431,-0.00507441,-1.12281,0.00632687,0.0214484,622,988,-39.8438,-3.09324
-595,36,-40.0753,3.13861,0,0,0,0,0,0,0,-1,629,988,-40.0753,-3.13859
-588,36,-39.8698,2.03333,-0.00146919,0.00120748,-0.00657746,0.00658138,-0.00684309,-0.885764,0.00775111,0.0339645,636,988,-39.8698,-2.03332
-581,36,-39.6646,1.03607,-0.000835018,0.000415912,-0.00704629,0.00686444,-0.00728355,-0.829665,0.00816954,0.0340361,643,988,-39.6646,-1.03609
-574,36,-39.6509,0.800537,-0.000721008,0.000107256,-0.00717909,0.00688415,-0.0074979,-0.814209,0.008306,0.0279116,650,988,-39.6509,-0.800527
-567,36,-39.6396,0.641418,-0.000585345,3.72925e-05,-0.00677205,0.00650517,-0.00705322,-0.808368,0.00783007,0.033117,657,988,-39.6396,-0.641401
-560,36,-39.6575,0.733032,-0.000182905,0.000167967,-0.00580976,0.00580494,-0.00581988,-0.800492,0.0067116,0.0380995,664,988,-39.6575,-0.733002
-553,36,-39.7152,0.801086,0.000660676,0.000347479,-0.0043121,0.00481902,-0.00381086,-0.767248,0.00499378,0.040589,671,988,-39.7152,-0.801057
-546,36,-39.7741,0.631531,0.00210952,0.000346301,-0.00229824,0.00368944,-0.00123362,-0.602252,0.00295786,0.0447531,678,988,-39.7741,-0.631519
-539,36,-39.4511,0.630859,0.00422309,-1.17176e-05,-8.89308e-05,0.00422496,-1.3584e-05,-0.0209876,0.00282118,0.0452191,685,988,-39.4511,-0.63086
-532,36,-39.0219,0.751099,0.00750835,-0.000230698,0.00101276,0.00763869,-0.000361037,0.127993,0.00521697,0.047403,692,988,-39.0218,-0.751123
-525,36,-39.3259,0.824585,0.0103835,-0.000869419,6.8814e-06,0.0103835,-0.000869424,0.000611521,0.00722959,0.0487771,699,988,-39.3259,-0.824585
-518,36,0,0,0,0,0,0,0,0,0,-1,706,988,0,0
-511,36,0,0,0,0,0,0,0,0,0,-1,713,988,0,0
-504,36,0,0,0,0,0,0,0,0,0,-1,720,988,0,0
-497,36,0,0,0,0,0,0,0,0,0,-1,727,988,0,0
-490,36,0,0,0,0,0,0,0,0,0,-1,734,988,0,0
-483,36,0,0,0,0,0,0,0,0,0,-1,741,988,0,0
-476,36,0,0,0,0,0,0,0,0,0,-1,748,988,0,0
-469,36,0,0,0,0,0,0,0,0,0,-1,755,988,0,0
-462,36,0,0,0,0,0,0,0,0,0,-1,762,988,0,0
-455,36,0,0,0,0,0,0,0,0,0,-1,769,988,0,0
-448,36,0,0,0,0,0,0,0,0,0,-1,776,988,0,0
-441,36,0,0,0,0,0,0,0,0,0,-1,783,988,0,0
-434,36,0,0,0,0,0,0,0,0,0,-1,790,988,0,0
-427,36,0,0,0,0,0,0,0,0,0,-1,797,988,0,0
-420,36,0,0,0,0,0,0,0,0,0,-1,804,988,0,0
-413,36,0,0,0,0,0,0,0,0,0,-1,811,988,0,0
-406,36,0,0,0,0,0,0,0,0,0,-1,818,988,0,0
-399,36,0,0,0,0,0,0,0,0,0,-1,825,988,0,0
-392,36,0,0,0,0,0,0,0,0,0,-1,832,988,0,0
-385,36,0,0,0,0,0,0,0,0,0,-1,839,988,0,0
-378,36,0,0,0,0,0,0,0,0,0,-1,846,988,0,0
-371,36,0,0,0,0,0,0,0,0,0,-1,853,988,0,0
-364,36,0,0,0,0,0,0,0,0,0,-1,860,988,0,0
-357,36,0,0,0,0,0,0,0,0,0,-1,867,988,0,0
-350,36,0,0,0,0,0,0,0,0,0,-1,874,988,0,0
-343,36,0,0,0,0,0,0,0,0,0,-1,881,988,0,0
-336,36,0,0,0,0,0,0,0,0,0,-1,888,988,0,0
-329,36,0,0,0,0,0,0,0,0,0,-1,895,988,0,0
-322,36,0,0,0,0,0,0,0,0,0,-1,902,988,0,0
-315,36,0,0,0,0,0,0,0,0,0,-1,909,988,0,0
-308,36,0,0,0,0,0,0,0,0,0,-1,916,988,0,0
-301,36,0,0,0,0,0,0,0,0,0,-1,923,988,0,0
-294,36,0,0,0,0,0,0,0,0,0,-1,930,988,0,0
-287,36,0,0,0,0,0,0,0,0,0,-1,937,988,0,0
-280,36,0,0,0,0,0,0,0,0,0,-1,944,988,0,0
-273,36,0,0,0,0,0,0,0,0,0,-1,951,988,0,0
-266,36,0,0,0,0,0,0,0,0,0,-1,958,988,0,0
-259,36,0,0,0,0,0,0,0,0,0,-1,965,988,0,0
-252,36,0,0,0,0,0,0,0,0,0,-1,972,988,0,0
-245,36,0,0,0,0,0,0,0,0,0,-1,979,988,0,0
-238,36,0,0,0,0,0,0,0,0,0,-1,986,988,0,0
-231,36,0,0,0,0,0,0,0,0,0,-1,993,988,0,0
-224,36,0,0,0,0,0,0,0,0,0,-1,1000,988,0,0
-217,36,0,0,0,0,0,0,0,0,0,-1,1007,988,0,0
-210,36,0,0,0,0,0,0,0,0,0,-1,1014,988,0,0
-203,36,0,0,0,0,0,0,0,0,0,-1,1021,988,0,0
-196,36,0,0,0,0,0,0,0,0,0,-1,1028,988,0,0
-189,36,0,0,0,0,0,0,0,0,0,-1,1035,988,0,0
-182,36,0,0,0,0,0,0,0,0,0,-1,1042,988,0,0
-175,36,0,0,0,0,0,0,0,0,0,-1,1049,988,0,0
-168,36,0,0,0,0,0,0,0,0,0,-1,1056,988,0,0
-161,36,0,0,0,0,0,0,0,0,0,-1,1063,988,0,0
-154,36,0,0,0,0,0,0,0,0,0,-1,1070,988,0,0
-147,36,0,0,0,0,0,0,0,0,0,-1,1077,988,0,0
-140,36,0,0,0,0,0,0,0,0,0,-1,1084,988,0,0
-133,36,0,0,0,0,0,0,0,0,0,-1,1091,988,0,0
-126,36,0,0,0,0,0,0,0,0,0,-1,1098,988,0,0
-119,36,0,0,0,0,0,0,0,0,0,-1,1105,988,0,0
-112,36,0,0,0,0,0,0,0,0,0,-1,1112,988,0,0
-105,36,0,0,0,0,0,0,0,0,0,-1,1119,988,0,0
-98,36,0,0,0,0,0,0,0,0,0,-1,1126,988,0,0
-91,36,0,0,0,0,0,0,0,0,0,-1,1133,988,0,0
-84,36,0,0,0,0,0,0,0,0,0,-1,1140,988,0,0
-77,36,0,0,0,0,0,0,0,0,0,-1,1147,988,0,0
-70,36,0,0,0,0,0,0,0,0,0,-1,1154,988,0,0
-63,36,0,0,0,0,0,0,0,0,0,-1,1161,988,0,0
-56,36,0,0,0,0,0,0,0,0,0,-1,1168,988,0,0
-49,36,0,0,0,0,0,0,0,0,0,-1,1175,988,0,0
-42,36,0,0,0,0,0,0,0,0,0,-1,1182,988,0,0
-35,36,0,0,0,0,0,0,0,0,0,-1,1189,988,0,0
-28,36,0,0,0,0,0,0,0,0,0,-1,1196,988,0,0
-21,36,0,0,0,0,0,0,0,0,0,-1,1203,988,0,0
-14,36,0,0,0,0,0,0,0,0,0,-1,1210,988,0,0
-7,36,0,0,0,0,0,0,0,0,0,-1,1217,988,0,0
0,36,0,0,0,0,0,0,0,0,0,-1,1224,988,0,0
7,36,0,0,0,0,0,0,0,0,0,-1,1231,988,0,0
14,36,0,0,0,0,0,0,0,0,0,-1,1238,988,0,0
21,36,0,0,0,0,0,0,0,0,0,-1,1245,988,0,0
28,36,0,0,0,0,0,0,0,0,0,-1,1252,988,0,0
35,36,0,0,0,0,0,0,0,0,0,-1,1259,988,0,0
42,36,0,0,0,0,0,0,0,0,0,-1,1266,988,0,0
49,36,0,0,0,0,0,0,0,0,0,-1,1273,988,0,0
56,36,0,0,0,0,0,0,0,0,0,-1,1280,988,0,0
63,36,0,0,0,0,0,0,0,0,0,-1,1287,988,0,0
70,36,0,0,0,0,0,0,0,0,0,-1,1294,988,0,0
77,36,0,0,0,0,0,0,0,0,0,-1,1301,988,0,0
84,36,0,0,0,0,0,0,0,0,0,-1,1308,988,0,0
91,36,0,0,0,0,0,0,0,0,0,-1,1315,988,0,0
98,36,0,0,0,0,0,0,0,0,0,-1,1322,988,0,0
105,36,0,0,0,0,0,0,0,0,0,-1,1329,988,0,0
112,36,0,0,0,0,0,0,0,0,0,-1,1336,988,0,0
119,36,0,0,0,0,0,0,0,0,0,-1,1343,988,0,0
126,36,0,0,0,0,0,0,0,0,0,-1,1350,988,0,0
133,36,0,0,0,0,0,0,0,0,0,-1,1357,988,0,0
140,36,0,0,0,0,0,0,0,0,0,-1,1364,988,0,0
147,36,0,0,0,0,0,0,0,0,0,-1,1371,988,0,0
154,36,0,0,0,0,0,0,0,0,0,-1,1378,988,0,0
161,36,0,0,0,0,0,0,0,0,0,-1,1385,988,0,0
168,36,0,0,0,0,0,0,0,0,0,-1,1392,988,0,0
175,36,0,0,0,0,0,0,0,0,0,-1,1399,988,0,0
182,36,0,0,0,0,0,0,0,0,0,-1,1406,988,0,0
189,36,0,0,0,0,0,0,0,0,0,-1,1413,988,0,0
196,36,0,0,0,0,0,0,0,0,0,-1,1420,988,0,0
203,36,0,0,0,0,0,0,0,0,0,-1,1427,988,0,0
210,36,0,0,0,0,0,0,0,0,0,-1,1434,988,0,0
217,36,0,0,0,0,0,0,0,0,0,-1,1441,988,0,0
224,36,0,0,0,0,0,0,0,0,0,-1,1448,988,0,0
231,36,0,0,0,0,0,0,0,0,0,-1,1455,988,0,0
238,36,0,0,0,0,0,0,0,0,0,-1,1462,988,0,0
245,36,0,0,0,0,0,0,0,0,0,-1,1469,988,0,0
252,36,0,0,0,0,0,0,0,0,0,-1,1476,988,0,0
259,36,0,0,0,0,0,0,0,0,0,-1,1483,988,0,0
266,36,0,0,0,0,0,0,0,0,0,-1,1490,988,0,0
273,36,0,0,0,0,0,0,0,0,0,-1,1497,988,0,0
280,36,0,0,0,0,0,0,0,0,0,-1,1504,988,0,0
287,36,0,0,0,0,0,0,0,0,0,-1,1511,988,0,0
294,36,0,0,0,0,0,0,0,0,0,-1,1518,988,0,0
301,36,0,0,0,0,0,0,0,0,0,-1,1525,988,0,0
308,36,0,0,0,0,0,0,0,0,0,-1,1532,988,0,0
315,36,0,0,0,0,0,0,0,0,0,-1,1539,988,0,0
322,36,0,0,0,0,0,0,0,0,0,-1,1546,988,0,0
329,36,0,0,0,0,0,0,0,0,0,-1,1553,988,0,0
336,36,0,0,0,0,0,0,0,0,0,-1,1560,988,0,0
343,36,0,0,0,0,0,0,0,0,0,-1,1567,988,0,0
350,36,0,0,0,0,0,0,0,0,0,-1,1574,988,0,0
357,36,0,0,0,0,0,0,0,0,0,-1,1581,988,0,0
364,36,0,0,0,0,0,0,0,0,0,-1,1588,988,0,0
371,36,0,0,0,0,0,0,0,0,0,-1,1595,988,0,0
378,36,0,0,0,0,0,0,0,0,0,-1,1602,988,0,0
385,36,0,0,0,0,0,0,0,0,0,-1,1609,988,0,0
392,36,0,0,0,0,0,0,0,0,0,-1,1616,988,0,0
399,36,0,0,0,0,0,0,0,0,0,-1,1623,988,0,0
406,36,0,0,0,0,0,0,0,0,0,-1,1630,988,0,0
413,36,0,0,0,0,0,0,0,0,0,-1,1637,988,0,0
420,36,0,0,0,0,0,0,0,0,0,-1,1644,988,0,0
427,36,0,0,0,0,0,0,0,0,0,-1,1651,988,0,0
434,36,0,0,0,0,0,0,0,0,0,-1,1658,988,0,0
441,36,0,0,0,0,0,0,0,0,0,-1,1665,988,0,0
448,36,0,0,0,0,0,0,0,0,0,-1,1672,988,0,0
455,36,0,0,0,0,0,0,0,0,0,-1,1679,988,0,0
462,36,0,0,0,0,0,0,0,0,0,-1,1686,988,0,0
469,36,0,0,0,0,0,0,0,0,0,-1,1693,988,0,0
476,36,0,0,0,0,0,0,0,0,0,-1,1700,988,0,0
483,36,0,0,0,0,0,0,0,0,0,-1,1707,988,0,0
490,36,0,0,0,0,0,0,0,0,0,-1,1714,988,0,0
497,36,0,0,0,0,0,0,0,0,0,-1,1721,988,0,0
504,36,0,0,0,0,0,0,0,0,0,-1,1728,988,0,0
511,36,0,0,0,0,0,0,0,0,0,-1,1735,988,0,0
518,36,0,0,0,0,0,0,0,0,0,-1,1742,988,0,0
525,36,0,0,0,0,0,0,0,0,0,-1,1749,988,0,0
532,36,0,0,0,0,0,0,0,0,0,-1,1756,988,0,0
539,36,0,0,0,0,0,0,0,0,0,-1,1763,988,0,0
546,36,0,0,0,0,0,0,0,0,0,-1,1770,988,0,0
553,36,0,0,0,0,0,0,0,0,0,-1,1777,988,0,0
560,36,0,0,0,0,0,0,0,0,0,-1,1784,988,0,0
567,36,0,0,0,0,0,0,0,0,0,-1,1791,988,0,0
574,36,0,0,0,0,0,0,0,0,0,-1,1798,988,0,0
581,36,0,0,0,0,0,0,0,0,0,-1,1805,988,0,0
588,36,0,0,0,0,0,0,0,0,0,-1,1812,988,0,0
595,36,0,0,0,0,0,0,0,0,0,-1,1819,988,0,0
602,36,0,0,0,0,0,0,0,0,0,-1,1826,988,0,0
609,36,0,0,0,0,0,0,0,0,0,-1,1833,988,0,0
616,36,0,0,0,0,0,0,0,0,0,-1,1840,988,0,0
623,36,0,0,0,0,0,0,0,0,0,-1,1847,988,0,0
630,36,0,0,0,0,0,0,0,0,0,-1,1854,988,0,0
637,36,0,0,0,0,0,0,0,0,0,-1,1861,988,0,0
644,36,53.1329,2.46307,-0.00437605,-0.000709957,0.00490106,0.00268963,-0.00777564,0.96435,0.00627546,0.0421204,1868,988,53.1329,-2.46309
651,36,52.8589,2.7298,-0.00301196,-0.000714074,0.00344056,0.00176431,-0.00549035,0.946547,0.00436875,0.0405713,1875,988,52.8588,-2.72978
658,36,52.9585,3.07538,-0.00197325,-0.0007262,0.00231222,0.00104509,-0.00374454,0.917098,0.00290801,0.0404866,1882,988,52.9585,-3.07538
665,36,53.0974,2.85211,-0.00130434,-0.000522734,0.00179191,0.000920492,-0.00274757,0.892764,0.00220359,0.0392332,1889,988,53.0974,-2.8521
672,36,53.0504,2.7572,-0.000895935,-0.000238342,0.00165959,0.0011247,-0.00225898,0.883192,0.00198982,0.0395618,1896,988,53.0504,-2.75721
679,36,53.0834,2.75153,-0.000645095,7.526e-05,0.00187632,0.00162566,-0.0021955,0.880224,0.00221431,0.0401848,1903,988,53.0834,-2.75152
686,36,53.0223,2.68683,-0.000463461,0.00018367,0.00217719,0.00206121,-0.002341,0.859166,0.00254333,0.0371836,1910,988,53.0224,-2.68682
693,36,52.9999,2.61078,-0.000442942,0.000239677,0.00241924,0.00234156,-0.00254483,0.855476,0.00282197,0.0370918,1917,988,52.9999,-2.61081
700,36,52.9995,2.6012,-0.000399866,0.000351533,0.0024074,0.00241237,-0.0024607,0.862804,0.00281352,0.0343769,1924,988,52.9995,-2.60119
707,36,53.0657,2.58728,-0.000661586,0.000706839,0.00226394,0.0023877,-0.00234245,0.932145,0.002731,0.0266635,1931,988,53.0656,-2.58731
714,36,52.9929,2.96918,-0.00128298,0.00129992,0.00210518,0.00247821,-0.00246127,1.06053,0.00285182,0.036262,1938,988,52.9929,-2.96917
721,36,52.4786,5.03485,0,0,0,0,0,0,0,-1,1945,988,52.4786,-5.03487
728,36,52.424,5.38293,-0.00274918,0.00343799,0.00149841,0.00378177,-0.00309297,1.34527,0.00397577,0.0217556,1952,988,52.424,-5.38295
735,36,52.4117,5.69519,-0.0028226,0.00469577,0.000906501,0.00480353,-0.00293035,1.45248,0.0045086,0.0190964,1959,988,52.4118,-5.69518
742,36,52.353,5.90881,-0.0028336,0.00604291,0.000301769,0.00605316,-0.00284384,1.53685,0.0052469,0.0152967,1966,988,52.353,-5.90884
749,36,52.3302,6.13635,-0.00273159,0.00844352,-0.000922072,0.00851909,-0.00280716,-1.48902,0.00681076,0.0164469,1973,988,52.3302,-6.13633
756,36,52.3374,6.33044,-0.00156181,0.0117364,-0.00250716,0.0121934,-0.00201879,-1.39051,0.00887871,0.0165287,1980,988,52.3373,-6.33046
763,36,52.2389,6.51013,0.000449998,0.0157851,-0.00459845,0.0170583,-0.000823203,-1.30069,0.0116563,0.0204678,1987,988,52.2389,-6.51013
770,36,52.1674,6.74664,0.00430614,0.0213283,-0.00719769,0.0239638,0.00167069,-1.2198,0.0154491,0.0168686,1994,988,52.1674,-6.74664
777,36,52.2246,7.03467,0.010242,0.0281766,-0.0103192,0.0328803,0.00553823,-1.14311,0.0203272,0.0254142,2001,988,52.2247,-7.03466
784,36,52.3633,7.33063,0.0186869,0.0364115,-0.0139988,0.0441175,0.0109809,-1.06759,0.0265203,0.0462875,2008,988,52.3633,-7.33062
791,36,52.4834,7.79205,0.030701,0.0463382,-0.0186013,0.0586973,0.0183419,-0.98435,0.0346742,0.0472592,2015,988,52.4834,-7.79208
798,36,52.7354,8.30347,0,0,0,0,0,0,0,-1,2022,988,52.7354,-8.30349
805,36,54.3101,4.53912,0.0678039,0.0739425,-0.0313249,0.102348,0.0393983,-0.834233,0.0596099,0.0480759,2029,988,54.31,-4.53911
812,36,55.1179,4.3822,0,0,0,0,0,0,0,-1,2036,988,55.118,-4.3822
-700,29,0,0,0,0,0,0,0,0,0,-1,524,995,0,0
-693,29,-42.9062,2.28662,0.11249,-0.00381963,0.0271852,0.11853,-0.00985997,0.21864,0.0825033,0.0433848,531,995,-42.9062,-2.2866
-686,29,-42.2213,2.44897,0.093812,0.00521996,0.0211982,0.098623,0.000408933,0.223174,0.0656128,0.0442351,538,995,-42.2213,-2.44895
-679,29,-41.3421,2.55206,0.0756239,0.011031,0.0172325,0.0799337,0.00672112,0.245072,0.051196,0.0462218,545,995,-41.3421,-2.55209
-672,29,-40.3764,2.4342,0.0593632,0.0146763,0.0143182,0.0635572,0.0104823,0.284948,0.0393456,0.0403669,552,995,-40.3764,-2.4342
-665,29,-39.7208,2.27234,0.0450949,0.0167187,0.0120037,0.0494915,0.0123221,0.351096,0.0297501,0.0411941,559,995,-39.7208,-2.27231
-658,29,-39.3837,1.95892,0.0327706,0.0174753,0.0101045,0.0377953,0.0124506,0.461462,0.0222404,0.0458514,566,995,-39.3837,-1.95895
-651,29,-39.7096,3.80725,0,0,0,0,0,0,0,-1,573,995,-39.7096,-3.80726
-644,29,-39.7846,3.52972,0.0137318,0.0158755,0.00698118,0.0218667,0.00774069,0.86157,0.0128029,0.0443594,580,995,-39.7846,-3.52971
-637,29,-40.007,3.64246,0.00662839,0.0149746,0.00491886,0.0172521,0.00435091,1.13718,0.0103602,0.0254976,587,995,-40.0069,-3.64245
-630,29,-40.0099,3.62555,0.0015191,0.0125671,0.00260885,0.0131522,0.00093404,1.35018,0.00847394,0.0140836,594,995,-40.0099,-3.62554
-623,29,-40.0087,3.56177,-0.000794362,0.00942663,0.000510985,0.00945212,-0.000819845,1.52097,0.00659171,0.0119405,601,995,-40.0087,-3.56174
-616,29,-40.0143,3.4303,-0.00209008,0.00698292,-0.00116227,0.00712944,-0.0022366,-1.44539,0.00564809,0.0124063,608,995,-40.0143,-3.43027
-609,29,-40.0231,3.35107,-0.00218542,0.00483915,-0.00299448,0.00594238,-0.00328866,-1.2178,0.00540245,0.0193352,615,995,-40.0231,-3.35105
-602,29,-40.1093,3.17639,-0.00185277,0.00348366,-0.00455699,0.00609612,-0.00446523,-1.05025,0.00612178,0.0228544,622,995,-40.1093,-3.1764
-595,29,-40.1534,3.22382,0,0,0,0,0,0,0,-1,629,995,-40.1534,-3.22381
-588,29,-39.8904,2.11407,-0.000231555,0.000905735,-0.00666673,0.00702803,-0.00635385,-0.827943,0.0077293,0.0403006,636,995,-39.8905,-2.11409
-581,29,-39.6201,1.23334,0.000506449,8.68454e-05,-0.00706771,0.00736747,-0.00677417,-0.77056,0.00816708,0.0465193,643,995,-39.6201,-1.23331
-574,29,-39.6048,0.814148,0.00066855,-0.00026018,-0.00714555,0.00736481,-0.00695644,-0.752951,0.0082695,0.0326371,650,995,-39.6048,-0.814146
-567,29,-39.6403,0.683838,0.000770846,-0.000348197,-0.00667311,0.00690785,-0.00648521,-0.743572,0.00773377,0.0326524,657,995,-39.6403,-0.683818
-560,29,-39.7979,0.606995,0.00103226,-0.000245613,-0.00561954,0.00604907,-0.00526242,-0.728792,0.00653596,0.0358334,664,995,-39.7979,-0.606973
-553,29,-39.8932,0.636353,0.00158064,-0.000120211,-0.00399556,0.00481527,-0.00335485,-0.680542,0.00474207,0.0405513,671,995,-39.8932,-0.636346
-546,29,-39.7856,0.618774,0.00259024,-0.000232001,-0.00180925,0.0034736,-0.00111536,-0.454201,0.00276359,0.0440979,678,995,-39.7857,-0.618757
-539,29,-39.539,0.460388,0.00412132,-0.000721273,0.0005279,0.0041782,-0.000778152,0.107332,0.00307782,0.044506,685,995,-39.539,-0.460407
-532,29,-39.2719,0.6427,0.00684386,-0.00107437,0.00161432,0.00716033,-0.00139084,0.193584,0.00529837,0.0466574,692,995,-39.2719,-0.642698
-525,29,-39.0858,0.744019,0,0,0,0,0,0,0,-1,699,995,-39.0858,-0.743994
-518,29,0,0,0,0,0,0,0,0,0,-1,706,995,0,0
-511,29,0,0,0,0,0,0,0,0,0,-1,713,995,0,0
-504,29,0,0,0,0,0,0,0,0,0,-1,720,995,0,0
-497,29,0,0,0,0,0,0,0,0,0,-1,727,995,0,0
-490,29,0,0,0,0,0,0,0,0,0,-1,734,995,0,0
-483,29,0,0,0,0,0,0,0,0,0,-1,741,995,0,0
-476,29,0,0,0,0,0,0,0,0,0,-1,748,995,0,0
-469,29,0,0,0,0,0,0,0,0,0,-1,755,995,0,0
-462,29,0,0,0,0,0,0,0,0,0,-1,762,995,0,0
-455,29,0,0,0,0,0,0,0,0,0,-1,769,995,0,0
-448,29,0,0,0,0,0,0,0,0,0,-1,776,995,0,0
-441,29,0,0,0,0,0,0,0,0,0,-1,783,995,0,0
-434,29,0,0,0,0,0,0,0,0,0,-1,790,995,0,0
-427,29,0,0,0,0,0,0,0,0,0,-1,797,995,0,0
-420,29,0,0,0,0,0,0,0,0,0,-1,804,995,0,0
-413,29,0,0,0,0,0,0,0,0,0,-1,811,995,0,0
-406,29,0,0,0,0,0,0,0,0,0,-1,818,995,0,0
-399,29,0,0,0,0,0,0,0,0,0,-1,825,995,0,0
-392,29,0,0,0,0,0,0,0,0,0,-1,832,995,0,0
-385,29,0,0,0,0,0,0,0,0,0,-1,839,995,0,0
-378,29,0,0,0,0,0,0,0,0,0,-1,846,995,0,0
-371,29,0,0,0,0,0,0,0,0,0,-1,853,995,0,0
-364,29,0,0,0,0,0,0,0,0,0,-1,860,995,0,0
-357,29,0,0,0,0,0,0,0,0,0,-1,867,995,0,0
-350,29,0,0,0,0,0,0,0,0,0,-1,874,995,0,0
-343,29,0,0,0,0,0,0,0,0,0,-1,881,995,0,0
-336,29,0,0,0,0,0,0,0,0,0,-1,888,995,0,0
-329,29,0,0,0,0,0,0,0,0,0,-1,895,995,0,0
-322,29,0,0,0,0,0,0,0,0,0,-1,902,995,0,0
-315,29,0,0,0,0,0,0,0,0,0,-1,909,995,0,0
-308,29,0,0,0,0,0,0,0,0,0,-1,916,995,0,0
-301,29,0,0,0,0,0,0,0,0,0,-1,923,995,0,0
-294,29,0,0,0,0,0,0,0,0,0,-1,930,995,0,0
-287,29,0,0,0,0,0,0,0,0,0,-1,937,995,0,0
-280,29,0,0,0,0,0,0,0,0,0,-1,944,995,0,0
-273,29,0,0,0,0,0,0,0,0,0,-1,951,995,0,0
-266,29,0,0,0,0,0,0,0,0,0,-1,958,995,0,0
-259,29,0,0,0,0,0,0,0,0,0,-1,965,995,0,0
-252,29,0,0,0,0,0,0,0,0,0,-1,972,995,0,0
-245,29,0,0,0,0,0,0,0,0,0,-1,979,995,0,0
-238,29,0,0,0,0,0,0,0,0,0,-1,986,995,0,0
-231,29,0,0,0,0,0,0,0,0,0,-1,993,995,0,0
-224,29,0,0,0,0,0,0,0,0,0,-1,1000,995,0,0
-217,29,0,0,0,0,0,0,0,0,0,-1,1007,995,0,0
-210,29,0,0,0,0,0,0,0,0,0,-1,1014,995,0,0
-203,29,0,0,0,0,0,0,0,0,0,-1,1021,995,0,0
-196,29,0,0,0,0,0,0,0,0,0,-1,1028,995,0,0
-189,29,0,0,0,0,0,0,0,0,0,-1,1035,995,0,0
-182,29,0,0,0,0,0,0,0,0,0,-1,1042,995,0,0
-175,29,0,0,0,0,0,0,0,0,0,-1,1049,995,0,0
-168,29,0,0,0,0,0,0,0,0,0,-1,1056,995,0,0
-161,29,0,0,0,0,0,0,0,0,0,-1,1063,995,0,0
-154,29,0,0,0,0,0,0,0,0,0,-1,1070,995,0,0
-147,29,0,0,0,0,0,0,0,0,0,-1,1077,995,0,0
-140,29,0,0,0,0,0,0,0,0,0,-1,1084,995,0,0
-133,29,0,0,0,0,0,0,0,0,0,-1,1091,995,0,0
-126,29,0,0,0,0,0,0,0,0,0,-1,1098,995,0,0
-119,29,0,0,0,0,0,0,0,0,0,-1,1105,995,0,0
-112,29,0,0,0,0,0,0,0,0,0,-1,1112,995,0,0
-105,29,0,0,0,0,0,0,0,0,0,-1,1119,995,0,0
-98,29,0,0,0,0,0,0,0,0,0,-1,1126,995,0,0
-91,29,0,0,0,0,0,0,0,0,0,-1,1133,995,0,0
-84,29,0,0,0,0,0,0,0,0,0,-1,1140,995,0,0
-77,29,0,0,0,0,0,0,0,0,0,-1,1147,995,0,0
-70,29,0,0,0,0,0,0,0,0,0,-1,1154,995,0,0
-63,29,0,0,0,0,0,0,0,0,0,-1,1161,995,0,0
-56,29,0,0,0,0,0,0,0,0,0,-1,1168,995,0,0
-49,29,0,0,0,0,0,0,0,0,0,-1,1175,995,0,0
-42,29,0,0,0,0,0,0,0,0,0,-1,1182,995,0,0
-35,29,0,0,0,0,0,0,0,0,0,-1,1189,995,0,0
-28,29,0,0,0,0,0,0,0,0,0,-1,1196,995,0,0
-21,29,0,0,0,0,0,0,0,0,0,-1,1203,995,0,0
-14,29,0,0,0,0,0,0,0,0,0,-1,1210,995,0,0
-7,29,0,0,0,0,0,0,0,0,0,-1,1217,995,0,0
0,29,0,0,0,0,0,0,0,0,0,-1,1224,995,0,0
7,29,0,0,0,0,0,0,0,0,0,-1,1231,995,0,0
14,29,0,0,0,0,0,0,0,0,0,-1,1238,995,0,0
21,29,0,0,0,0,0,0,0,0,0,-1,1245,995,0,0
28,29,0,0,0,0,0,0,0,0,0,-1,1252,995,0,0
35,29,0,0,0,0,0,0,0,0,0,-1,1259,995,0,0
42,29,0,0,0,0,0,0,0,0,0,-1,1266,995,0,0
49,29,0,0,0,0,0,0,0,0,0,-1,1273,995,0,0
56,29,0,0,0,0,0,0,0,0,0,-1,1280,995,0,0
63,29,0,0,0,0,0,0,0,0,0,-1,1287,995,0,0
70,29,0,0,0,0,0,0,0,0,0,-1,1294,995,0,0
77,29,0,0,0,0,0,0,0,0,0,-1,1301,995,0,0
84,29,0,0,0,0,0,0,0,0,0,-1,1308,995,0,0
91,29,0,0,0,0,0,0,0,0,0,-1,1315,995,0,0
98,29,0,0,0,0,0,0,0,0,0,-1,1322,995,0,0
105,29,0,0,0,0,0,0,0,0,0,-1,1329,995,0,0
112,29,0,0,0,0,0,0,0,0,0,-1,1336,995,0,0
119,29,0,0,0,0,0,0,0,0,0,-1,1343,995,0,0
126,29,0,0,0,0,0,0,0,0,0,-1,1350,995,0,0
133,29,0,0,0,0,0,0,0,0,0,-1,1357,995,0,0
140,29,0,0,0,0,0,0,0,0,0,-1,1364,995,0,0
147,29,0,0,0,0,0,0,0,0,0,-1,1371,995,0,0
154,29,0,0,0,0,0,0,0,0,0,-1,1378,995,0,0
161,29,0,0,0,0,0,0,0,0,0,-1,1385,995,0,0
168,29,0,0,0,0,0,0,0,0,0,-1,1392,995,0,0
175,29,0,0,0,0,0,0,0,0,0,-1,1399,995,0,0
182,29,0,0,0,0,0,0,0,0,0,-1,1406,995,0,0
189,29,0,0,0,0,0,0,0,0,0,-1,1413,995,0,0
196,29,0,0,0,0,0,0,0,0,0,-1,1420,995,0,0
203,29,0,0,0,0,0,0,0,0,0,-1,1427,995,0,0
210,29,0,0,0,0,0,0,0,0,0,-1,1434,995,0,0
217,29,0,0,0,0,0,0,0,0,0,-1,1441,995,0,0
224,29,0,0,0,0,0,0,0,0,0,-1,1448,995,0,0
231,29,0,0,0,0,0,0,0,0,0,-1,1455,995,0,0
238,29,0,0,0,0,0,0,0,0,0,-1,1462,995,0,0
245,29,0,0,0,0,0,0,0,0,0,-1,1469,995,0,0
252,29,0,0,0,0,0,0,0,0,0,-1,1476,995,0,0
259,29,0,0,0,0,0,0,0,0,0,-1,1483,995,0,0
266,29,0,0,0,0,0,0,0,0,0,-1,1490,995,0,0
273,29,0,0,0,0,0,0,0,0,0,-1,1497,995,0,0
280,29,0,0,0,0,0,0,0,0,0,-1,1504,995,0,0
287,29,0,0,0,0,0,0,0,0,0,-1,1511,995,0,0
294,29,0,0,0,0,0,0,0,0,0,-1,1518,995,0,0
301,29,0,0,0,0,0,0,0,0,0,-1,1525,995,0,0
308,29,0,0,0,0,0,0,0,0,0,-1,1532,995,0,0
315,29,0,0,0,0,0,0,0,0,0,-1,1539,995,0,0
322,29,0,0,0,0,0,0,0,0,0,-1,1546,995,0,0
329,29,0,0,0,0,0,0,0,0,0,-1,1553,995,0,0
336,29,0,0,0,0,0,0,0,0,0,-1,1560,995,0,0
343,29,0,0,0,0,0,0,0,0,0,-1,1567,995,0,0
350,29,0,0,0,0,0,0,0,0,0,-1,1574,995,0,0
357,29,0,0,0,0,0,0,0,0,0,-1,1581,995,0,0
364,29,0,0,0,0,0,0,0,0,0,-1,1588,995,0,0
371,29,0,0,0,0,0,0,0,0,0,-1,1595,995,0,0
378,29,0,0,0,0,0,0,0,0,0,-1,1602,995,0,0
385,29,0,0,0,0,0,0,0,0,0,-1,1609,995,0,0
392,29,0,0,0,0,0,0,0,0,0,-1,1616,995,0,0
399,29,0,0,0,0,0,0,0,0,0,-1,1623,995,0,0
406,29,0,0,0,0,0,0,0,0,0,-1,1630,995,0,0
413,29,0,0,0,0,0,0,0,0,0,-1,1637,995,0,0
420,29,0,0,0,0,0,0,0,0,0,-1,1644,995,0,0
427,29,0,0,0,0,0,0,0,0,0,-1,1651,995,0,0
434,29,0,0,0,0,0,0,0,0,0,-1,1658,995,0,0
441,29,0,0,0,0,0,0,0,0,0,-1,1665,995,0,0
448,29,0,0,0,0,0,0,0,0,0,-1,1672,995,0,0
455,29,0,0,0,0,0,0,0,0,0,-1,1679,995,0,0
462,29,0,0,0,0,0,0,0,0,0,-1,1686,995,0,0
469,29,0,0,0,0,0,0,0,0,0,-1,1693,995,0,0
476,29,0,0,0,0,0,0,0,0,0,-1,1700,995,0,0
483,29,0,0,0,0,0,0,0,0,0,-1,1707,995,0,0
490,29,0,0,0,0,0,0,0,0,0,-1,1714,995,0,0
497,29,0,0,0,0,0,0,0,0,0,-1,1721,995,0,0
504,29,0,0,0,0,0,0,0,0,0,-1,1728,995,0,0
511,29,0,0,0,0,0,0,0,0,0,-1,1735,995,0,0
518,29,0,0,0,0,0,0,0,0,0,-1,1742,995,0,0
525,29,0,0,0,0,0,0,0,0,0,-1,1749,995,0,0
532,29,0,0,0,0,0,0,0,0,0,-1,1756,995,0,0
539,29,0,0,0,0,0,0,0,0,0,-1,1763,995,0,0
546,29,0,0,0,0,0,0,0,0,0,-1,1770,995,0,0
553,29,0,0,0,0,0,0,0,0,0,-1,1777,995,0,0
560,29,0,0,0,0,0,0,0,0,0,-1,1784,995,0,0
567,29,0,0,0,0,0,0,0,0,0,-1,1791,995,0,0
574,29,0,0,0,0,0,0,0,0,0,-1,1798,995,0,0
581,29,0,0,0,0,0,0,0,0,0,-1,1805,995,0,0
588,29,0,0,0,0,0,0,0,0,0,-1,1812,995,0,0
595,29,0,0,0,0,0,0,0,0,0,-1,1819,995,0,0
602,29,0,0,0,0,0,0,0,0,0,-1,1826,995,0,0
609,29,0,0,0,0,0,0,0,0,0,-1,1833,995,0,0
616,29,0,0,0,0,0,0,0,0,0,-1,1840,995,0,0
623,29,0,0,0,0,0,0,0,0,0,-1,1847,995,0,0
630,29,0,0,0,0,0,0,0,0,0,-1,1854,995,0,0
637,29,0,0,0,0,0,0,0,0,0,-1,1861,995,0,0
644,29,53.0708,2.51569,-0.00378992,-0.000144385,0.00500941,0.00336357,-0.00729788,0.959887,0.00629355,0.0394825,1868,995,53.0708,-2.51571
651,29,52.9468,2.80231,-0.00254519,-0.000127704,0.00350324,0.00236946,-0.00504235,0.951521,0.00437098,0.0416705,1875,995,52.9467,-2.80231
658,29,52.9385,3.14252,-0.001617,-0.000188221,0.00230008,0.00150586,-0.00331108,0.935971,0.00284542,0.0429638,1882,995,52.9384,-3.14253
665,29,52.9619,2.95331,-0.00104306,-7.04276e-05,0.00172357,0.00123412,-0.00234761,0.922902,0.00210096,0.041242,1889,995,52.9619,-2.95331
672,29,52.9779,2.77789,-0.000700218,0.000127131,0.001555,0.00132254,-0.00189562,0.915402,0.0018678,0.0396751,1896,995,52.9779,-2.7779
679,29,52.9901,2.66931,-0.000470132,0.00039871,0.00174923,0.00176666,-0.00183808,0.907111,0.00208133,0.0397097,1903,995,52.9901,-2.66931
686,29,52.9124,2.57465,-0.000333015,0.000480176,0.00206883,0.00218199,-0.00203483,0.882428,0.00243507,0.0384451,1910,995,52.9123,-2.57465
693,29,52.967,2.63184,-0.000333134,0.000516875,0.00236159,0.00249139,-0.00230765,0.874428,0.00277141,0.0390919,1917,995,52.967,-2.63187
700,29,53.0377,2.67188,-0.00027975,0.000620338,0.00242045,0.00263223,-0.00229164,0.877316,0.00284506,0.0348712,1924,995,53.0377,-2.67188
707,29,53.0183,2.63239,-0.000570205,0.000970362,0.00234318,0.00266662,-0.00226646,0.944201,0.00285124,0.0219871,1931,995,53.0183,-2.63238
714,29,52.9485,3.07831,-0.00124019,0.00154709,0.00221333,0.00276899,-0.00246209,1.06637,0.0030219,0.0395878,1938,995,52.9485,-3.07829
721,29,52.5464,5.23633,0,0,0,0,0,0,0,-1,1945,995,52.5463,-5.23631
728,29,52.5994,5.51849,-0.00288704,0.00371294,0.0016702,0.00411153,-0.00328563,1.33653,0.00427962,0.0293451,1952,995,52.5994,-5.5185
735,29,52.5883,5.77216,-0.0030765,0.00494238,0.00115662,0.00510587,-0.00324,1.43037,0.00485846,0.0162744,1959,995,52.5882,-5.77213
742,29,52.5613,5.94727,-0.00322757,0.00622713,0.000738371,0.00628444,-0.00328489,1.49333,0.0056146,0.0137205,1966,995,52.5613,-5.94725
749,29,52.528,6.13965,-0.00337872,0.00843207,-0.000203693,0.00843559,-0.00338224,-1.55356,0.00702787,0.0143737,1973,995,52.528,-6.13964
756,29,52.5233,6.32764,-0.00257358,0.0114658,-0.00148186,0.0116205,-0.00272829,-1.46677,0.00879855,0.0143156,1980,995,52.5233,-6.32762
763,29,52.4836,6.44501,-0.000956579,0.0150406,-0.00315619,0.0156407,-0.00155677,-1.38288,0.0109829,0.0139662,1987,995,52.4836,-6.445
770,29,52.4011,6.55255,0.00251219,0.0200467,-0.00515316,0.021449,0.00110989,-1.30511,0.0139441,0.0171767,1994,995,52.4011,-6.55258
777,29,52.3445,6.77734,0.00812281,0.0261954,-0.00749846,0.0289014,0.00541681,-1.22447,0.0177398,0.0276298,2001,995,52.3445,-6.77735
784,29,52.2886,6.99628,0.016071,0.0333474,-0.010235,0.0381023,0.0113162,-1.1359,0.0225947,0.0448752,2008,995,52.2885,-6.99627
791,29,51.981,7.41699,0.0272086,0.0414806,-0.0137634,0.0498479,0.0188412,-1.02456,0.029064,0.0471347,2015,995,51.9809,-7.41701
798,29,52.1323,7.87115,0,0,0,0,0,0,0,-1,2022,995,52.1324,-7.87115
805,29,54.5203,3.85535,0,0,0,0,0,0,0,-1,2029,995,54.5202,-3.85534
812,29,55.1895,3.85321,0,0,0,0,0,0,0,-1,2036,995,55.1895,-3.85322
-700,22,0,0,0,0,0,0,0,0,0,-1,524,1002,0,0
-693,22,-43.4166,2.54486,0.100074,-0.00245098,0.0251301,0.105902,-0.00827934,0.227898,0.0735167,0.041934,531,1002,-43.4166,-2.54489
-686,22,-42.653,2.52332,0.0870141,0.00568139,0.0188858,0.0911856,0.00150997,0.217386,0.0602933,0.0438581,538,1002,-42.653,-2.52332
-679,22,-41.5403,2.29498,0,0,0,0,0,0,0,-1,545,1002,-41.5403,-2.29497
-672,22,-40.2427,2.04895,0,0,0,0,0,0,0,-1,552,1002,-40.2427,-2.04897
-665,22,-39.9304,2.15546,0,0,0,0,0,0,0,-1,559,1002,-39.9304,-2.15543
-658,22,-39.5334,1.89154,0,0,0,0,0,0,0,-1,566,1002,-39.5334,-1.89154
-651,22,-39.2456,2.89783,0,0,0,0,0,0,0,-1,573,1002,-39.2456,-2.89782
-644,22,-39.7885,3.23047,0.0156044,0.0149339,0.00566723,0.0209463,0.00959197,0.755854,0.0121076,0.0398333,580,1002,-39.7885,-3.23049
-637,22,-40.1349,3.47821,0.00841854,0.0140294,0.00380545,0.0159518,0.0064962,1.10303,0.00926243,0.0246664,587,1002,-40.1349,-3.47819
-630,22,-40.1125,3.51343,0.00318225,0.0116648,0.00178734,0.012026,0.00282102,1.37138,0.00726199,0.0140308,594,1002,-40.1125,-3.51342
-623,22,-40.1418,3.47223,0.000604038,0.00856504,-9.96407e-05,0.00856629,0.000602791,-1.55828,0.00552091,0.0114757,601,1002,-40.1418,-3.47222
-616,22,-40.1367,3.35358,-0.000871353,0.006266,-0.00159602,0.00660663,-0.00121199,-1.36052,0.00485907,0.0157533,608,1002,-40.1367,-3.35359
-609,22,-40.1859,3.26434,-0.0011013,0.0042559,-0.00323133,0.00577449,-0.00261988,-1.13147,0.00495926,0.02537,615,1002,-40.1858,-3.26432
-602,22,-40.3196,3.20197,-0.000887964,0.00298187,-0.00463913,0.00607343,-0.00397952,-0.982972,0.00584589,0.0273843,622,1002,-40.3196,-3.20198
-595,22,-40.1833,3.17529,0,0,0,0,0,0,0,-1,629,1002,-40.1834,-3.17527
-588,22,-39.886,2.13989,0.000656138,0.000453901,-0.0065223,0.0070781,-0.00596806,-0.777647,0.00754129,0.0465655,636,1002,-39.8861,-2.1399
-581,22,-39.5659,1.48199,0.00143965,-0.000347813,-0.00685677,0.00746069,-0.00636886,-0.720592,0.00799278,0.0479557,643,1002,-39.5659,-1.48199
-574,22,-39.6539,0.694031,0,0,0,0,0,0,0,-1,650,1002,-39.6539,-0.694025
-567,22,-39.6384,0.68457,0.00168144,-0.000790459,-0.00634956,0.00691423,-0.00602324,-0.689274,0.00747535,0.030563,657,1002,-39.6385,-0.684585
-560,22,-39.7536,0.528931,0.0017846,-0.000679065,-0.00525277,0.00594804,-0.00484251,-0.670224,0.00624081,0.0365216,664,1002,-39.7536,-0.528939
-553,22,-39.9277,0.668274,0.00201679,-0.000562833,-0.00359287,0.00454435,-0.00309039,-0.613066,0.00443448,0.0424107,671,1002,-39.9278,-0.668277
-546,22,-39.8011,0.734436,0.00255043,-0.000726871,-0.00137783,0.00305271,-0.00122915,-0.349574,0.00254577,0.0427088,678,1002,-39.8011,-0.734425
-539,22,-39.6743,0.639587,0.00345701,-0.00125606,0.000918998,0.00362986,-0.00142891,0.185919,0.00301142,0.0410842,685,1002,-39.6743,-0.639609
-532,22,-39.4869,0.687439,0.00546069,-0.00161441,0.00189501,0.00593628,-0.00209,0.245893,0.00480806,0.0424533,692,1002,-39.4869,-0.687417
-525,22,0,0,0,0,0,0,0,0,0,-1,699,1002,0,0
-518,22,0,0,0,0,0,0,0,0,0,-1,706,1002,0,0
-511,22,0,0,0,0,0,0,0,0,0,-1,713,1002,0,0
-504,22,0,0,0,0,0,0,0,0,0,-1,720,1002,0,0
-497,22,0,0,0,0,0,0,0,0,0,-1,727,1002,0,0
-490,22,0,0,0,0,0,0,0,0,0,-1,734,1002,0,0
-483,22,0,0,0,0,0,0,0,0,0,-1,741,1002,0,0
-476,22,0,0,0,0,0,0,0,0,0,-1,748,1002,0,0
-469,22,0,0,0,0,0,0,0,0,0,-1,755,1002,0,0
-462,22,0,0,0,0,0,0,0,0,0,-1,762,1002,0,0
-455,22,0,0,0,0,0,0,0,0,0,-1,769,1002,0,0
-448,22,0,0,0,0,0,0,0,0,0,-1,776,1002,0,0
-441,22,0,0,0,0,0,0,0,0,0,-1,783,1002,0,0
-434,22,0,0,0,0,0,0,0,0,0,-1,790,1002,0,0
-427,22,0,0,0,0,0,0,0,0,0,-1,797,1002,0,0
-420,22,0,0,0,0,0,0,0,0,0,-1,804,1002,0,0
-413,22,0,0,0,0,0,0,0,0,0,-1,811,1002,0,0
-406,22,0,0,0,0,0,0,0,0,0,-1,818,1002,0,0
-399,22,0,0,0,0,0,0,0,0,0,-1,825,1002,0,0
-392,22,0,0,0,0,0,0,0,0,0,-1,832,1002,0,0
-385,22,0,0,0,0,0,0,0,0,0,-1,839,1002,0,0
-378,22,0,0,0,0,0,0,0,0,0,-1,846,1002,0,0
-371,22,0,0,0,0,0,0,0,0,0,-1,853,1002,0,0
-364,22,0,0,0,0,0,0,0,0,0,-1,860,1002,0,0
-357,22,0,0,0,0,0,0,0,0,0,-1,867,1002,0,0
-350,22,0,0,0,0,0,0,0,0,0,-1,874,1002,0,0
-343,22,0,0,0,0,0,0,0,0,0,-1,881,1002,0,0
-336,22,0,0,0,0,0,0,0,0,0,-1,888,1002,0,0
-329,22,0,0,0,0,0,0,0,0,0,-1,895,1002,0,0
-322,22,0,0,0,0,0,0,0,0,0,-1,902,1002,0,0
-315,22,0,0,0,0,0,0,0,0,0,-1,909,1002,0,0
-308,22,0,0,0,0,0,0,0,0,0,-1,916,1002,0,0
-301,22,0,0,0,0,0,0,0,0,0,-1,923,1002,0,0
-294,22,0,0,0,0,0,0,0,0,0,-1,930,1002,0,0
-287,22,0,0,0,0,0,0,0,0,0,-1,937,1002,0,0
-280,22,0,0,0,0,0,0,0,0,0,-1,944,1002,0,0
-273,22,0,0,0,0,0,0,0,0,0,-1,951,1002,0,0
-266,22,0,0,0,0,0,0,0,0,0,-1,958,1002,0,0
-259,22,0,0,0,0,0,0,0,0,0,-1,965,1002,0,0
-252,22,0,0,0,0,0,0,0,0,0,-1,972,1002,0,0
-245,22,0,0,0,0,0,0,0,0,0,-1,979,1002,0,0
-238,22,0,0,0,0,0,0,0,0,0,-1,986,1002,0,0
-231,22,0,0,0,0,0,0,0,0,0,-1,993,1002,0,0
-224,22,0,0,0,0,0,0,0,0,0,-1,1000,1002,0,0
-217,22,0,0,0,0,0,0,0,0,0,-1,1007,1002,0,0
-210,22,0,0,0,0,0,0,0,0,0,-1,1014,1002,0,0
-203,22,0,0,0,0,0,0,0,0,0,-1,1021,1002,0,0
-196,22,0,0,0,0,0,0,0,0,0,-1,1028,1002,0,0
-189,22,0,0,0,0,0,0,0,0,0,-1,1035,1002,0,0
-182,22,0,0,0,0,0,0,0,0,0,-1,1042,1002,0,0
-175,22,0,0,0,0,0,0,0,0,0,-1,1049,1002,0,0
-168,22,0,0,0,0,0,0,0,0,0,-1,1056,1002,0,0
-161,22,0,0,0,0,0,0,0,0,0,-1,1063,1002,0,0
-154,22,0,0,0,0,0,0,0,0,0,-1,1070,1002,0,0
-147,22,0,0,0,0,0,0,0,0,0,-1,1077,1002,0,0
-140,22,0,0,0,0,0,0,0,0,0,-1,1084,1002,0,0
-133,22,0,0,0,0,0,0,0,0,0,-1,1091,1002,0,0
-126,22,0,0,0,0,0,0,0,0,0,-1,1098,1002,0,0
-119,22,0,0,0,0,0,0,0,0,0,-1,1105,1002,0,0
-112,22,0,0,0,0,0,0,0,0,0,-1,1112,1002,0,0
-105,22,0,0,0,0,0,0,0,0,0,-1,1119,1002,0,0
-98,22,0,0,0,0,0,0,0,0,0,-1,1126,1002,0,0
-91,22,0,0,0,0,0,0,0,0,0,-1,1133,1002,0,0
-84,22,0,0,0,0,0,0,0,0,0,-1,1140,1002,0,0
-77,22,0,0,0,0,0,0,0,0,0,-1,1147,1002,0,0
-70,22,0,0,0,0,0,0,0,0,0,-1,1154,1002,0,0
-63,22,0,0,0,0,0,0,0,0,0,-1,1161,1002,0,0
-56,22,0,0,0,0,0,0,0,0,0,-1,1168,1002,0,0
-49,22,0,0,0,0,0,0,0,0,0,-1,1175,1002,0,0
-42,22,0,0,0,0,0,0,0,0,0,-1,1182,1002,0,0
-35,22,0,0,0,0,0,0,0,0,0,-1,1189,1002,0,0
-28,22,0,0,0,0,0,0,0,0,0,-1,1196,1002,0,0
-21,22,0,0,0,0,0,0,0,0,0,-1,1203,1002,0,0
-14,22,0,0,0,0,0,0,0,0,0,-1,1210,1002,0,0
-7,22,0,0,0,0,0,0,0,0,0,-1,1217,1002,0,0
0,22,0,0,0,0,0,0,0,0,0,-1,1224,1002,0,0
7,22,0,0,0,0,0,0,0,0,0,-1,1231,1002,0,0
14,22,0,0,0,0,0,0,0,0,0,-1,1238,1002,0,0
21,22,0,0,0,0,0,0,0,0,0,-1,1245,1002,0,0
28,22,0,0,0,0,0,0,0,0,0,-1,1252,1002,0,0
35,22,0,0,0,0,0,0,0,0,0,-1,1259,1002,0,0
42,22,0,0,0,0,0,0,0,0,0,-1,1266,1002,0,0
49,22,0,0,0,0,0,0,0,0,0,-1,1273,1002,0,0
56,22,0,0,0,0,0,0,0,0,0,-1,1280,1002,0,0
63,22,0,0,0,0,0,0,0,0,0,-1,1287,1002,0,0
70,22,0,0,0,0,0,0,0,0,0,-1,1294,1002,0,0
77,22,0,0,0,0,0,0,0,0,0,-1,1301,1002,0,0
84,22,0,0,0,0,0,0,0,0,0,-1,1308,1002,0,0
91,22,0,0,0,0,0,0,0,0,0,-1,1315,1002,0,0
98,22,0,0,0,0,0,0,0,0,0,-1,1322,1002,0,0
105,22,0,0,0,0,0,0,0,0,0,-1,1329,1002,0,0
112,22,0,0,0,0,0,0,0,0,0,-1,1336,1002,0,0
119,22,0,0,0,0,0,0,0,0,0,-1,1343,1002,0,0
126,22,0,0,0,0,0,0,0,0,0,-1,1350,1002,0,0
133,22,0,0,0,0,0,0,0,0,0,-1,1357,1002,0,0
140,22,0,0,0,0,0,0,0,0,0,-1,1364,1002,0,0
147,22,0,0,0,0,0,0,0,0,0,-1,1371,1002,0,0
154,22,0,0,0,0,0,0,0,0,0,-1,1378,1002,0,0
161,22,0,0,0,0,0,0,0,0,0,-1,1385,1002,0,0
168,22,0,0,0,0,0,0,0,0,0,-1,1392,1002,0,0
175,22,0,0,0,0,0,0,0,0,0,-1,1399,1002,0,0
182,22,0,0,0,0,0,0,0,0,0,-1,1406,1002,0,0
189,22,0,0,0,0,0,0,0,0,0,-1,1413,1002,0,0
196,22,0,0,0,0,0,0,0,0,0,-1,1420,1002,0,0
203,22,0,0,0,0,0,0,0,0,0,-1,1427,1002,0,0
210,22,0,0,0,0,0,0,0,0,0,-1,1434,1002,0,0
217,22,0,0,0,0,0,0,0,0,0,-1,1441,1002,0,0
224,22,0,0,0,0,0,0,0,0,0,-1,1448,1002,0,0
231,22,0,0,0,0,0,0,0,0,0,-1,1455,1002,0,0
238,22,0,0,0,0,0,0,0,0,0,-1,1462,1002,0,0
245,22,0,0,0,0,0,0,0,0,0,-1,1469,1002,0,0
252,22,0,0,0,0,0,0,0,0,0,-1,1476,1002,0,0
259,22,0,0,0,0,0,0,0,0,0,-1,1483,1002,0,0
266,22,0,0,0,0,0,0,0,0,0,-1,1490,1002,0,0
273,22,0,0,0,0,0,0,0,0,0,-1,1497,1002,0,0
280,22,0,0,0,0,0,0,0,0,0,-1,1504,1002,0,0
287,22,0,0,0,0,0,0,0,0,0,-1,1511,1002,0,0
294,22,0,0,0,0,0,0,0,0,0,-1,1518,1002,0,0
301,22,0,0,0,0,0,0,0,0,0,-1,1525,1002,0,0
308,22,0,0,0,0,0,0,0,0,0,-1,1532,1002,0,0
315,22,0,0,0,0,0,0,0,0,0,-1,1539,1002,0,0
322,22,0,0,0,0,0,0,0,0,0,-1,1546,1002,0,0
329,22,0,0,0,0,0,0,0,0,0,-1,1553,1002,0,0
336,22,0,0,0,0,0,0,0,0,0,-1,1560,1002,0,0
343,22,0,0,0,0,0,0,0,0,0,-1,1567,1002,0,0
350,22,0,0,0,0,0,0,0,0,0,-1,1574,1002,0,0
357,22,0,0,0,0,0,0,0,0,0,-1,1581,1002,0,0
364,22,0,0,0,0,0,0,0,0,0,-1,1588,1002,0,0
371,22,0,0,0,0,0,0,0,0,0,-1,1595,1002,0,0
378,22,0,0,0,0,0,0,0,0,0,-1,1602,1002,0,0
385,22,0,0,0,0,0,0,0,0,0,-1,1609,1002,0,0
392,22,0,0,0,0,0,0,0,0,0,-1,1616,1002,0,0
399,22,0,0,0,0,0,0,0,0,0,-1,1623,1002,0,0
406,22,0,0,0,0,0,0,0,0,0,-1,1630,1002,0,0
413,22,0,0,0,0,0,0,0,0,0,-1,1637,1002,0,0
420,22,0,0,0,0,0,0,0,0,0,-1,1644,1002,0,0
427,22,0,0,0,0,0,0,0,0,0,-1,1651,1002,0,0
434,22,0,0,0,0,0,0,0,0,0,-1,1658,1002,0,0
441,22,0,0,0,0,0,0,0,0,0,-1,1665,1002,0,0
448,22,0,0,0,0,0,0,0,0,0,-1,1672,1002,0,0
455,22,0,0,0,0,0,0,0,0,0,-1,1679,1002,0,0
462,22,0,0,0,0,0,0,0,0,0,-1,1686,1002,0,0
469,22,0,0,0,0,0,0,0,0,0,-1,1693,1002,0,0
476,22,0,0,0,0,0,0,0,0,0,-1,1700,1002,0,0
483,22,0,0,0,0,0,0,0,0,0,-1,1707,1002,0,0
490,22,0,0,0,0,0,0,0,0,0,-1,1714,1002,0,0
497,22,0,0,0,0,0,0,0,0,0,-1,1721,1002,0,0
504,22,0,0,0,0,0,0,0,0,0,-1,1728,1002,0,0
511,22,0,0,0,0,0,0,0,0,0,-1,1735,1002,0,0
518,22,0,0,0,0,0,0,0,0,0,-1,1742,1002,0,0
525,22,0,0,0,0,0,0,0,0,0,-1,1749,1002,0,0
532,22,0,0,0,0,0,0,0,0,0,-1,1756,1002,0,0
539,22,0,0,0,0,0,0,0,0,0,-1,1763,1002,0,0
546,22,0,0,0,0,0,0,0,0,0,-1,1770,1002,0,0
553,22,0,0,0,0,0,0,0,0,0,-1,1777,1002,0,0
560,22,0,0,0,0,0,0,0,0,0,-1,1784,1002,0,0
567,22,0,0,0,0,0,0,0,0,0,-1,1791,1002,0,0
574,22,0,0,0,0,0,0,0,0,0,-1,1798,1002,0,0
581,22,0,0,0,0,0,0,0,0,0,-1,1805,1002,0,0
588,22,0,0,0,0,0,0,0,0,0,-1,1812,1002,0,0
595,22,0,0,0,0,0,0,0,0,0,-1,1819,1002,0,0
602,22,0,0,0,0,0,0,0,0,0,-1,1826,1002,0,0
609,22,0,0,0,0,0,0,0,0,0,-1,1833,1002,0,0
616,22,0,0,0,0,0,0,0,0,0,-1,1840,1002,0,0
623,22,0,0,0,0,0,0,0,0,0,-1,1847,1002,0,0
630,22,0,0,0,0,0,0,0,0,0,-1,1854,1002,0,0
637,22,0,0,0,0,0,0,0,0,0,-1,1861,1002,0,0
644,22,52.9016,2.54437,-0.00344245,-0.000106399,0.00435023,0.00288463,-0.00643347,0.96847,0.00550833,0.0392055,1868,1002,52.9016,-2.54436
651,22,52.8733,2.74225,-0.00229948,6.27298e-05,0.00304945,0.00215182,-0.00438857,0.970161,0.003849,0.0434168,1875,1002,52.8732,-2.74224
658,22,52.8784,2.92993,-0.00144301,6.38966e-05,0.00196188,0.00141203,-0.00279114,0.968737,0.00246986,0.0425333,1882,1002,52.8784,-2.92996
665,22,52.8771,2.87256,-0.000914176,0.000176206,0.00146393,0.00119317,-0.00193114,0.96365,0.00182052,0.0415346,1889,1002,52.877,-2.87258
672,22,52.9719,2.76697,-0.000591862,0.000351719,0.00136977,0.00132867,-0.00156881,0.95125,0.00167478,0.0409864,1896,1002,52.972,-2.767
679,22,53.0354,2.59558,-0.000361321,0.000605581,0.00160655,0.00179984,-0.00155558,0.931551,0.00193896,0.0397516,1903,1002,53.0354,-2.59557
686,22,52.9727,2.65546,-0.00026007,0.000665967,0.00197804,0.00223445,-0.00182856,0.900368,0.00234968,0.0399201,1910,1002,52.9727,-2.65549
693,22,53.0242,2.77576,-0.00027612,0.000672733,0.00232695,0.00257313,-0.00217652,0.885961,0.0027454,0.0388652,1917,1002,53.0242,-2.77576
700,22,53.0819,2.67078,-0.000235649,0.000747046,0.00246206,0.00276631,-0.00225491,0.883888,0.00290401,0.0322186,1924,1002,53.0819,-2.67079
707,22,52.9996,2.64557,-0.000554233,0.00108275,0.00245845,0.00285538,-0.00232686,0.946091,0.00299715,0.0250477,1931,1002,52.9996,-2.64556
714,22,52.9683,2.78613,-0.00125281,0.00165774,0.0023586,0.00297389,-0.00256897,1.06181,0.00320302,0.035256,1938,1002,52.9683,-2.78611
721,22,52.7119,4.45197,0,0,0,0,0,0,0,-1,1945,1002,52.7119,-4.45196
728,22,52.6901,5.28571,-0.00308773,0.00381462,0.00186793,0.00428769,-0.0035608,1.32275,0.00453781,0.0457307,1952,1002,52.69,-5.2857
735,22,52.7552,5.87726,-0.00340045,0.00501657,0.00142584,0.00525155,-0.00363543,1.40747,0.0051591,0.0168364,1959,1002,52.7552,-5.87726
742,22,52.7571,5.98413,-0.00371501,0.0062587,0.00117185,0.00639453,-0.00385085,1.4554,0.00597563,0.0177242,1966,1002,52.7571,-5.98412
749,22,52.6899,6.12549,-0.00411471,0.00832165,0.000537156,0.00834481,-0.00413786,1.52771,0.00734204,0.0131502,1973,1002,52.6899,-6.12551
756,22,52.6925,6.22955,-0.00368245,0.0111311,-0.000362383,0.01114,-0.00369131,-1.54635,0.00891556,0.0186197,1980,1002,52.6925,-6.22953
763,22,52.6331,6.37347,-0.00249748,0.0145589,-0.00148043,0.0146865,-0.00262502,-1.48486,0.0107731,0.0206019,1987,1002,52.6331,-6.37346
770,22,52.4862,6.4425,0.000442012,0.019308,-0.00266209,0.0196764,7.35717e-05,-1.43327,0.0130931,0.0185805,1994,1002,52.4863,-6.44249
777,22,52.2361,6.46063,0.00550748,0.0252194,-0.00384962,0.0259445,0.00478235,-1.38461,0.0159432,0.0380907,2001,1002,52.2362,-6.46064
784,22,52.0251,6.52539,0,0,0,0,0,0,0,-1,2008,1002,52.0253,-6.52537
791,22,51.5823,7.0824,0,0,0,0,0,0,0,-1,2015,1002,51.5823,-7.08242
798,22,52.5498,0.129517,0,0,0,0,0,0,0,-1,2022,1002,52.5498,-0.129504
805,22,54.9314,3.43878,0,0,0,0,0,0,0,-1,2029,1002,54.9315,-3.43876
812,22,46.6714,4.56311,0,0,0,0,0,0,0,-1,2036,1002,46.6713,-4.56312
-700,15,0,0,0,0,0,0,0,0,0,-1,524,1009,0,0
-693,15,-43.7811,2.86444,0.0861231,0.00190258,0.0216819,0.0913772,-0.00335149,0.237742,0.0620654,0.0468993,531,1009,-43.7811,-2.86445
-686,15,-43.0772,2.64288,0.0791942,0.00801241,0.0158142,0.0825495,0.00465718,0.209065,0.0535481,0.0444338,538,1009,-43.0772,-2.64286
-679,15,-40.8766,1.33685,0,0,0,0,0,0,0,-1,545,1009,-40.8766,-1.33686
-672,15,-40.5619,1.60571,0,0,0,0,0,0,0,-1,552,1009,-40.5619,-1.60573
-665,15,-40.5209,1.85132,0,0,0,0,0,0,0,-1,559,1009,-40.5209,-1.85134
-658,15,-39.8012,2.07318,0,0,0,0,0,0,0,-1,566,1009,-39.8012,-2.07317
-651,15,-39.0815,2.29498,0,0,0,0,0,0,0,-1,573,1009,-39.0815,-2.29499
-644,15,-40.112,3.35712,0,0,0,0,0,0,0,-1,580,1009,-40.112,-3.35712
-637,15,-40.1078,3.41272,0.00999874,0.013032,0.00273954,0.0146467,0.00838404,1.0382,0.00848579,0.0280365,587,1009,-40.1079,-3.41269
-630,15,-40.1458,3.43835,0.00472391,0.0106764,0.00103378,0.0108508,0.00454948,1.40364,0.00629189,0.0146176,594,1009,-40.1458,-3.43833
-623,15,-40.2114,3.41107,0.00186112,0.00766697,-0.000606993,0.00772975,0.00179834,-1.46773,0.00467059,0.00966624,601,1009,-40.2114,-3.41109
-616,15,-40.2327,3.36249,0.000195105,0.00550008,-0.00189122,0.00610526,-0.000410075,-1.2611,0.00421352,0.0142783,608,1009,-40.2327,-3.36248
-609,15,-40.2772,3.32367,-0.000254848,0.00358576,-0.00333792,0.00551633,-0.00218542,-1.04643,0.00458313,0.0214395,615,1009,-40.2772,-3.3237
-602,15,-40.3251,3.26147,-0.00022184,0.00241063,-0.00455175,0.00583263,-0.00364384,-0.926144,0.00551968,0.0226035,622,1009,-40.3252,-3.26146
-595,15,-40.0353,2.59949,0,0,0,0,0,0,0,-1,629,1009,-40.0353,-2.59948
-588,15,-39.8617,1.92987,0,0,0,0,0,0,0,-1,636,1009,-39.8617,-1.92988
-581,15,-39.5427,1.58466,0,0,0,0,0,0,0,-1,643,1009,-39.5427,-1.58467
-574,15,-39.5919,0.735901,0.00224162,-0.00123123,-0.00625557,0.00699729,-0.00598691,-0.650016,0.00750399,0.0320869,650,1009,-39.5919,-0.735887
-567,15,-39.622,0.592224,0.00225619,-0.00131447,-0.00568504,0.00642964,-0.00548793,-0.633255,0.00688777,0.0307053,657,1009,-39.622,-0.592231
-560,15,-39.5859,0.524963,0.00223677,-0.0011895,-0.0045886,0.0054216,-0.00437433,-0.606738,0.00566644,0.0385564,664,1009,-39.5858,-0.524978
-553,15,-39.7189,0.850037,0.00221734,-0.00106638,-0.00298824,0.00398507,-0.00283411,-0.534191,0.0039557,0.0431993,671,1009,-39.7189,-0.850039
-546,15,-39.7461,0.89679,0.00236231,-0.00126416,-0.000924845,0.00258455,-0.0014864,-0.235829,0.0023787,0.0417262,678,1009,-39.7461,-0.89682
-539,15,-39.6426,0.783386,0.00275935,-0.00183762,0.00107821,0.00299967,-0.00207795,0.219309,0.00294762,0.0407206,685,1009,-39.6426,-0.783417
-532,15,-39.6349,0.7854,0.0041502,-0.00224044,0.00169295,0.00457098,-0.00266122,0.243609,0.00422376,0.0428569,692,1009,-39.6349,-0.785413
-525,15,0,0,0,0,0,0,0,0,0,-1,699,1009,0,0
-518,15,0,0,0,0,0,0,0,0,0,-1,706,1009,0,0
-511,15,0,0,0,0,0,0,0,0,0,-1,713,1009,0,0
-504,15,0,0,0,0,0,0,0,0,0,-1,720,1009,0,0
-497,15,0,0,0,0,0,0,0,0,0,-1,727,1009,0,0
-490,15,0,0,0,0,0,0,0,0,0,-1,734,1009,0,0
-483,15,0,0,0,0,0,0,0,0,0,-1,741,1009,0,0
-476,15,0,0,0,0,0,0,0,0,0,-1,748,1009,0,0
-469,15,0,0,0,0,0,0,0,0,0,-1,755,1009,0,0
-462,15,0,0,0,0,0,0,0,0,0,-1,762,1009,0,0
-455,15,0,0,0,0,0,0,0,0,0,-1,769,1009,0,0
-448,15,0,0,0,0,0,0,0,0,0,-1,776,1009,0,0
-441,15,0,0,0,0,0,0,0,0,0,-1,783,1009,0,0
-434,15,0,0,0,0,0,0,0,0,0,-1,790,1009,0,0
-427,15,0,0,0,0,0,0,0,0,0,-1,797,1009,0,0
-420,15,0,0,0,0,0,0,0,0,0,-1,804,1009,0,0
-413,15,0,0,0,0,0,0,0,0,0,-1,811,1009,0,0
-406,15,0,0,0,0,0,0,0,0,0,-1,818,1009,0,0
-399,15,0,0,0,0,0,0,0,0,0,-1,825,1009,0,0
-392,15,0,0,0,0,0,0,0,0,0,-1,832,1009,0,0
-385,15,0,0,0,0,0,0,0,0,0,-1,839,1009,0,0
-378,15,0,0,0,0,0,0,0,0,0,-1,846,1009,0,0
-371,15,0,0,0,0,0,0,0,0,0,-1,853,1009,0,0
-364,15,0,0,0,0,0,0,0,0,0,-1,860,1009,0,0
-357,15,0,0,0,0,0,0,0,0,0,-1,867,1009,0,0
-350,15,0,0,0,0,0,0,0,0,0,-1,874,1009,0,0
-343,15,0,0,0,0,0,0,0,0,0,-1,881,1009,0,0
-336,15,0,0,0,0,0,0,0,0,0,-1,888,1009,0,0
-329,15,0,0,0,0,0,0,0,0,0,-1,895,1009,0,0
-322,15,0,0,0,0,0,0,0,0,0,-1,902,1009,0,0
-315,15,0,0,0,0,0,0,0,0,0,-1,909,1009,0,0
-308,15,0,0,0,0,0,0,0,0,0,-1,916,1009,0,0
-301,15,0,0,0,0,0,0,0,0,0,-1,923,1009,0,0
-294,15,0,0,0,0,0,0,0,0,0,-1,930,1009,0,0
-287,15,0,0,0,0,0,0,0,0,0,-1,937,1009,0,0
-280,15,0,0,0,0,0,0,0,0,0,-1,944,1009,0,0
-273,15,0,0,0,0,0,0,0,0,0,-1,951,1009,0,0
-266,15,0,0,0,0,0,0,0,0,0,-1,958,1009,0,0
-259,15,0,0,0,0,0,0,0,0,0,-1,965,1009,0,0
-252,15,0,0,0,0,0,0,0,0,0,-1,972,1009,0,0
-245,15,0,0,0,0,0,0,0,0,0,-1,979,1009,0,0
-238,15,0,0,0,0,0,0,0,0,0,-1,986,1009,0,0
-231,15,0,0,0,0,0,0,0,0,0,-1,993,1009,0,0
-224,15,0,0,0,0,0,0,0,0,0,-1,1000,1009,0,0
-217,15,0,0,0,0,0,0,0,0,0,-1,1007,1009,0,0
-210,15,0,0,0,0,0,0,0,0,0,-1,1014,1009,0,0
-203,15,0,0,0,0,0,0,0,0,0,-1,1021,1009,0,0
-196,15,0,0,0,0,0,0,0,0,0,-1,1028,1009,0,0
-189,15,0,0,0,0,0,0,0,0,0,-1,1035,1009,0,0
-182,15,0,0,0,0,0,0,0,0,0,-1,1042,1009,0,0
-175,15,0,0,0,0,0,0,0,0,0,-1,1049,1009,0,0
-168,15,0,0,0,0,0,0,0,0,0,-1,1056,1009,0,0
-161,15,0,0,0,0,0,0,0,0,0,-1,1063,1009,0,0
-154,15,0,0,0,0,0,0,0,0,0,-1,1070,1009,0,0
-147,15,0,0,0,0,0,0,0,0,0,-1,1077,1009,0,0
-140,15,0,0,0,0,0,0,0,0,0,-1,1084,1009,0,0
-133,15,0,0,0,0,0,0,0,0,0,-1,1091,1009,0,0
-126,15,0,0,0,0,0,0,0,0,0,-1,1098,1009,0,0
-119,15,0,0,0,0,0,0,0,0,0,-1,1105,1009,0,0
-112,15,0,0,0,0,0,0,0,0,0,-1,1112,1009,0,0
-105,15,0,0,0,0,0,0,0,0,0,-1,1119,1009,0,0
-98,15,0,0,0,0,0,0,0,0,0,-1,1126,1009,0,0
-91,15,0,0,0,0,0,0,0,0,0,-1,1133,1009,0,0
-84,15,0,0,0,0,0,0,0,0,0,-1,1140,1009,0,0
-77,15,0,0,0,0,0,0,0,0,0,-1,1147,1009,0,0
-70,15,0,0,0,0,0,0,0,0,0,-1,1154,1009,0,0
-63,15,0,0,0,0,0,0,0,0,0,-1,1161,1009,0,0
-56,15,0,0,0,0,0,0,0,0,0,-1,1168,1009,0,0
-49,15,0,0,0,0,0,0,0,0,0,-1,1175,1009,0,0
-42,15,0,0,0,0,0,0,0,0,0,-1,1182,1009,0,0
-35,15,0,0,0,0,0,0,0,0,0,-1,1189,1009,0,0
-28,15,0,0,0,0,0,0,0,0,0,-1,1196,1009,0,0
-21,15,0,0,0,0,0,0,0,0,0,-1,1203,1009,0,0
-14,15,0,0,0,0,0,0,0,0,0,-1,1210,1009,0,0
-7,15,0,0,0,0,0,0,0,0,0,-1,1217,1009,0,0
0,15,0,0,0,0,0,0,0,0,0,-1,1224,1009,0,0
7,15,0,0,0,0,0,0,0,0,0,-1,1231,1009,0,0
14,15,0,0,0,0,0,0,0,0,0,-1,1238,1009,0,0
21,15,0,0,0,0,0,0,0,0,0,-1,1245,1009,0,0
28,15,0,0,0,0,0,0,0,0,0,-1,1252,1009,0,0
35,15,0,0,0,0,0,0,0,0,0,-1,1259,1009,0,0
42,15,0,0,0,0,0,0,0,0,0,-1,1266,1009,0,0
49,15,0,0,0,0,0,0,0,0,0,-1,1273,1009,0,0
56,15,0,0,0,0,0,0,0,0,0,-1,1280,1009,0,0
63,15,0,0,0,0,0,0,0,0,0,-1,1287,1009,0,0
70,15,0,0,0,0,0,0,0,0,0,-1,1294,1009,0,0
77,15,0,0,0,0,0,0,0,0,0,-1,1301,1009,0,0
84,15,0,0,0,0,0,0,0,0,0,-1,1308,1009,0,0
91,15,0,0,0,0,0,0,0,0,0,-1,1315,1009,0,0
98,15,0,0,0,0,0,0,0,0,0,-1,1322,1009,0,0
105,15,0,0,0,0,0,0,0,0,0,-1,1329,1009,0,0
112,15,0,0,0,0,0,0,0,0,0,-1,1336,1009,0,0
119,15,0,0,0,0,0,0,0,0,0,-1,1343,1009,0,0
126,15,0,0,0,0,0,0,0,0,0,-1,1350,1009,0,0
133,15,0,0,0,0,0,0,0,0,0,-1,1357,1009,0,0
140,15,0,0,0,0,0,0,0,0,0,-1,1364,1009,0,0
147,15,0,0,0,0,0,0,0,0,0,-1,1371,1009,0,0
154,15,0,0,0,0,0,0,0,0,0,-1,1378,1009,0,0
161,15,0,0,0,0,0,0,0,0,0,-1,1385,1009,0,0
168,15,0,0,0,0,0,0,0,0,0,-1,1392,1009,0,0
175,15,0,0,0,0,0,0,0,0,0,-1,1399,1009,0,0
182,15,0,0,0,0,0,0,0,0,0,-1,1406,1009,0,0
189,15,0,0,0,0,0,0,0,0,0,-1,1413,1009,0,0
196,15,0,0,0,0,0,0,0,0,0,-1,1420,1009,0,0
203,15,0,0,0,0,0,0,0,0,0,-1,1427,1009,0,0
210,15,0,0,0,0,0,0,0,0,0,-1,1434,1009,0,0
217,15,0,0,0,0,0,0,0,0,0,-1,1441,1009,0,0
224,15,0,0,0,0,0,0,0,0,0,-1,1448,1009,0,0
231,15,0,0,0,0,0,0,0,0,0,-1,1455,1009,0,0
238,15,0,0,0,0,0,0,0,0,0,-1,1462,1009,0,0
245,15,0,0,0,0,0,0,0,0,0,-1,1469,1009,0,0
252,15,0,0,0,0,0,0,0,0,0,-1,1476,1009,0,0
259,15,0,0,0,0,0,0,0,0,0,-1,1483,1009,0,0
266,15,0,0,0,0,0,0,0,0,0,-1,1490,1009,0,0
273,15,0,0,0,0,0,0,0,0,0,-1,1497,1009,0,0
280,15,0,0,0,0,0,0,0,0,0,-1,1504,1009,0,0
287,15,0,0,0,0,0,0,0,0,0,-1,1511,1009,0,0
294,15,0,0,0,0,0,0,0,0,0,-1,1518,1009,0,0
301,15,0,0,0,0,0,0,0,0,0,-1,1525,1009,0,0
308,15,0,0,0,0,0,0,0,0,0,-1,1532,1009,0,0
315,15,0,0,0,0,0,0,0,0,0,-1,1539,1009,0,0
322,15,0,0,0,0,0,0,0,0,0,-1,1546,1009,0,0
329,15,0,0,0,0,0,0,0,0,0,-1,1553,1009,0,0
336,15,0,0,0,0,0,0,0,0,0,-1,1560,1009,0,0
343,15,0,0,0,0,0,0,0,0,0,-1,1567,1009,0,0
350,15,0,0,0,0,0,0,0,0,0,-1,1574,1009,0,0
357,15,0,0,0,0,0,0,0,0,0,-1,1581,1009,0,0
364,15,0,0,0,0,0,0,0,0,0,-1,1588,1009,0,0
371,15,0,0,0,0,0,0,0,0,0,-1,1595,1009,0,0
378,15,0,0,0,0,0,0,0,0,0,-1,1602,1009,0,0
385,15,0,0,0,0,0,0,0,0,0,-1,1609,1009,0,0
392,15,0,0,0,0,0,0,0,0,0,-1,1616,1009,0,0
399,15,0,0,0,0,0,0,0,0,0,-1,1623,1009,0,0
406,15,0,0,0,0,0,0,0,0,0,-1,1630,1009,0,0
413,15,0,0,0,0,0,0,0,0,0,-1,1637,1009,0,0
420,15,0,0,0,0,0,0,0,0,0,-1,1644,1009,0,0
427,15,0,0,0,0,0,0,0,0,0,-1,1651,1009,0,0
434,15,0,0,0,0,0,0,0,0,0,-1,1658,1009,0,0
441,15,0,0,0,0,0,0,0,0,0,-1,1665,1009,0,0
448,15,0,0,0,0,0,0,0,0,0,-1,1672,1009,0,0
455,15,0,0,0,0,0,0,0,0,0,-1,1679,1009,0,0
462,15,0,0,0,0,0,0,0,0,0,-1,1686,1009,0,0
469,15,0,0,0,0,0,0,0,0,0,-1,1693,1009,0,0
476,15,0,0,0,0,0,0,0,0,0,-1,1700,1009,0,0
483,15,0,0,0,0,0,0,0,0,0,-1,1707,1009,0,0
490,15,0,0,0,0,0,0,0,0,0,-1,1714,1009,0,0
497,15,0,0,0,0,0,0,0,0,0,-1,1721,1009,0,0
504,15,0,0,0,0,0,0,0,0,0,-1,1728,1009,0,0
511,15,0,0,0,0,0,0,0,0,0,-1,1735,1009,0,0
518,15,0,0,0,0,0,0,0,0,0,-1,1742,1009,0,0
525,15,0,0,0,0,0,0,0,0,0,-1,1749,1009,0,0
532,15,0,0,0,0,0,0,0,0,0,-1,1756,1009,0,0
539,15,0,0,0,0,0,0,0,0,0,-1,1763,1009,0,0
546,15,0,0,0,0,0,0,0,0,0,-1,1770,1009,0,0
553,15,0,0,0,0,0,0,0,0,0,-1,1777,1009,0,0
560,15,0,0,0,0,0,0,0,0,0,-1,1784,1009,0,0
567,15,0,0,0,0,0,0,0,0,0,-1,1791,1009,0,0
574,15,0,0,0,0,0,0,0,0,0,-1,1798,1009,0,0
581,15,0,0,0,0,0,0,0,0,0,-1,1805,1009,0,0
588,15,0,0,0,0,0,0,0,0,0,-1,1812,1009,0,0
595,15,0,0,0,0,0,0,0,0,0,-1,1819,1009,0,0
602,15,0,0,0,0,0,0,0,0,0,-1,1826,1009,0,0
609,15,0,0,0,0,0,0,0,0,0,-1,1833,1009,0,0
616,15,0,0,0,0,0,0,0,0,0,-1,1840,1009,0,0
623,15,0,0,0,0,0,0,0,0,0,-1,1847,1009,0,0
630,15,0,0,0,0,0,0,0,0,0,-1,1854,1009,0,0
637,15,0,0,0,0,0,0,0,0,0,-1,1861,1009,0,0
644,15,53.0278,2.47247,-0.00235462,8.2966e-05,0.00362515,0.00268872,-0.00496038,0.947565,0.00448066,0.0415234,1868,1009,53.0279,-2.47248
651,15,52.9797,2.60785,-0.00159064,0.000371274,0.00248198,0.00205912,-0.00327849,0.973592,0.00310836,0.0397719,1875,1009,52.9797,-2.60784
658,15,52.9456,2.55609,-0.00098648,0.000459546,0.00150525,0.00140642,-0.00193336,1.00929,0.00193621,0.037455,1882,1009,52.9455,-2.55611
665,15,52.9615,2.52881,-0.00062237,0.000585313,0.00108227,0.0012208,-0.00125785,1.03986,0.0014311,0.0391885,1889,1009,52.9616,-2.52881
672,15,52.9781,2.7619,-0.000397122,0.0007538,0.00106538,0.00138921,-0.00103253,1.03302,0.00140323,0.0392036,1896,1009,52.9781,-2.7619
679,15,53.0049,2.79181,-0.000200942,0.000991151,0.00135322,0.00187378,-0.00108357,0.992846,0.00172763,0.0378109,1903,1009,53.0049,-2.7918
686,15,53.0552,2.72821,-0.000136008,0.00102601,0.00177845,0.00231595,-0.00142595,0.94328,0.00218066,0.0413822,1910,1009,53.0552,-2.72824
693,15,53.0179,2.76801,-0.000158344,0.000990942,0.00219118,0.00268157,-0.00184898,0.913637,0.0026304,0.0389819,1917,1009,53.0179,-2.76798
700,15,53.0154,2.59528,-0.000119204,0.00100849,0.00241455,0.00292415,-0.00203486,0.900103,0.00287839,0.030728,1924,1009,53.0154,-2.5953
707,15,52.9867,2.61194,-0.00045955,0.00129007,0.00246204,0.00302809,-0.00219758,0.956101,0.00302972,0.0247801,1931,1009,52.9866,-2.61196
714,15,52.9923,2.6983,-0.00117699,0.00184921,0.00240187,0.00317485,-0.00250263,1.06648,0.00328554,0.0227761,1938,1009,52.9923,-2.69828
721,15,52.9574,2.75769,0,0,0,0,0,0,0,-1,1945,1009,52.9574,-2.75769
728,15,52.9048,5.77979,0,0,0,0,0,0,0,-1,1952,1009,52.9048,-5.7798
735,15,52.832,5.92517,-0.00360404,0.00508536,0.00165543,0.00539006,-0.00390873,1.38878,0.00539132,0.0201389,1959,1009,52.832,-5.92515
742,15,52.8468,6.07642,-0.00406982,0.00627855,0.00148801,0.00648827,-0.00427954,1.43078,0.00626024,0.0362284,1966,1009,52.8468,-6.07643
749,15,52.8135,6.15729,-0.00470719,0.00825722,0.00107274,0.00834539,-0.00479535,1.48879,0.00767854,0.022227,1973,1009,52.8134,-6.15726
756,15,52.8508,6.13123,-0.00464959,0.011013,0.000408677,0.0110236,-0.00466025,1.54473,0.0093002,0.0175625,1980,1009,52.8509,-6.1312
763,15,52.7786,6.23657,-0.00394833,0.0145504,-0.000562339,0.0145674,-0.00396541,-1.54043,0.0112684,0.014046,1987,1009,52.7786,-6.23659
770,15,52.6361,6.26263,-0.00173218,0.0193713,-0.00148075,0.0194746,-0.00183557,-1.50109,0.0136362,0.0185819,1994,1009,52.6361,-6.26264
777,15,52.2881,6.3056,0.00248163,0.0255597,-0.00236137,0.0257989,0.00224249,-1.46987,0.0165026,0.0420134,2001,1009,52.2882,-6.30561
784,15,51.9771,6.35675,0,0,0,0,0,0,0,-1,2008,1009,51.977,-6.35673
791,15,53.0298,1.51324,0,0,0,0,0,0,0,-1,2015,1009,53.0297,-1.51328
798,15,52.1284,0.520203,0,0,0,0,0,0,0,-1,2022,1009,52.1284,-0.520198
805,15,51.2961,-0.427307,0,0,0,0,0,0,0,-1,2029,1009,51.2962,0.427277
812,15,50.1875,1.96472,0,0,0,0,0,0,0,-1,2036,1009,50.1876,-1.96475
-700,8,0,0,0,0,0,0,0,0,0,-1,524,1016,0,0
-693,8,-44.2189,3.05109,0,0,0,0,0,0,0,-1,531,1016,-44.2189,-3.05111
-686,8,-41.2781,1.41364,0,0,0,0,0,0,0,-1,538,1016,-41.2781,-1.41364
-679,8,-41.0057,1.70209,0,0,0,0,0,0,0,-1,545,1016,-41.0057,-1.70209
-672,8,-40.6556,1.98431,0.0558312,0.0139595,0.00740699,0.0571029,0.0126878,0.170025,0.0346231,0.0478187,552,1016,-40.6556,-1.98432
-665,8,-40.3837,2.19446,0.0454435,0.0146999,0.00604005,0.0465876,0.0135558,0.187199,0.0276697,0.0464538,559,1016,-40.3838,-2.19445
-658,8,-40.1238,2.45782,0.0354247,0.01469,0.00501668,0.0365747,0.0135401,0.22534,0.0213523,0.0409262,566,1016,-40.1238,-2.45785
-651,8,-39.6498,2.96887,0,0,0,0,0,0,0,-1,573,1016,-39.6498,-2.96888
-644,8,-39.9237,2.99164,0,0,0,0,0,0,0,-1,580,1016,-39.9237,-2.99163
-637,8,-39.9781,3.19165,0.0111345,0.0118233,0.00184784,0.0133586,0.00959927,0.877525,0.00795446,0.0399235,587,1016,-39.9782,-3.19166
-630,8,-40.1868,3.34741,0.00587282,0.00955685,0.00044522,0.00960989,0.00581978,1.45222,0.00558937,0.0231304,594,1016,-40.1868,-3.34742
-623,8,-40.1718,3.38525,0.00268068,0.00672157,-0.000944685,0.00693151,0.00247074,-1.35211,0.00405651,0.0153053,601,1016,-40.1717,-3.38528
-616,8,-40.2236,3.36224,0.000831765,0.00471514,-0.00201525,0.00557191,-2.50065e-05,-1.1688,0.00372297,0.0156788,608,1016,-40.2235,-3.36222
-609,8,-40.2905,3.2854,0.000183533,0.00296761,-0.00326745,0.0051272,-0.00197605,-0.986771,0.00423344,0.0188325,615,1016,-40.2905,-3.28538
-602,8,-40.2363,3.3205,4.77562e-05,0.00176937,-0.00433193,0.00532519,-0.00350806,-0.883477,0.00513572,0.0238336,622,1016,-40.2363,-3.32053
-595,8,-40.2373,3.27441,0,0,0,0,0,0,0,-1,629,1016,-40.2373,-3.2744
-588,8,-39.563,0.682861,0,0,0,0,0,0,0,-1,636,1016,-39.5631,-0.682855
-581,8,-39.5656,0.757568,0.00217327,-0.00136481,-0.00558711,0.00626472,-0.00545626,-0.632077,0.00677248,0.0315981,643,1016,-39.5656,-0.757542
-574,8,-39.5557,0.658936,0.00240859,-0.00177936,-0.00543519,0.00613922,-0.00551,-0.601529,0.00672895,0.0356465,650,1016,-39.5557,-0.658924
-567,8,-39.5668,0.533997,0.00240982,-0.00186834,-0.00479654,0.00552264,-0.00498116,-0.575652,0.00606706,0.0380135,657,1016,-39.5668,-0.533989
-560,8,-39.5289,0.611816,0.00233089,-0.00173221,-0.00367824,0.00450132,-0.00390264,-0.533088,0.00485613,0.0398334,664,1016,-39.5288,-0.611803
-553,8,-39.4062,0.742798,0.00217467,-0.00158532,-0.00211228,0.00312241,-0.00253306,-0.421758,0.00327109,0.0407768,671,1016,-39.4062,-0.742775
-546,8,-39.6764,1.0603,0.00209226,-0.00177571,-0.000170852,0.00209979,-0.00178324,-0.0440567,0.00224435,0.0399114,678,1016,-39.6764,-1.06028
-539,8,-39.6487,1.01031,0.00216427,-0.002386,0.00160343,0.00267252,-0.00289425,0.306958,0.00321482,0.0407115,685,1016,-39.6488,-1.01029
-532,8,-39.5934,0.845093,0.00306617,-0.00289685,0.00203785,0.00369607,-0.00352675,0.299781,0.00417047,0.0431887,692,1016,-39.5934,-0.845078
-525,8,0,0,0,0,0,0,0,0,0,-1,699,1016,0,0
-518,8,0,0,0,0,0,0,0,0,0,-1,706,1016,0,0
-511,8,0,0,0,0,0,0,0,0,0,-1,713,1016,0,0
-504,8,0,0,0,0,0,0,0,0,0,-1,720,1016,0,0
-497,8,0,0,0,0,0,0,0,0,0,-1,727,1016,0,0
-490,8,0,0,0,0,0,0,0,0,0,-1,734,1016,0,0
-483,8,0,0,0,0,0,0,0,0,0,-1,741,1016,0,0
-476,8,0,0,0,0,0,0,0,0,0,-1,748,1016,0,0
-469,8,0,0,0,0,0,0,0,0,0,-1,755,1016,0,0
-462,8,0,0,0,0,0,0,0,0,0,-1,762,1016,0,0
-455,8,0,0,0,0,0,0,0,0,0,-1,769,1016,0,0
-448,8,0,0,0,0,0,0,0,0,0,-1,776,1016,0,0
-441,8,0,0,0,0,0,0,0,0,0,-1,783,1016,0,0
-434,8,0,0,0,0,0,0,0,0,0,-1,790,1016,0,0
-427,8,0,0,0,0,0,0,0,0,0,-1,797,1016,0,0
-420,8,0,0,0,0,0,0,0,0,0,-1,804,1016,0,0
-413,8,0,0,0,0,0,0,0,0,0,-1,811,1016,0,0
-406,8,0,0,0,0,0,0,0,0,0,-1,818,1016,0,0
-399,8,0,0,0,0,0,0,0,0,0,-1,825,1016,0,0
-392,8,0,0,0,0,0,0,0,0,0,-1,832,1016,0,0
-385,8,0,0,0,0,0,0,0,0,0,-1,839,1016,0,0
-378,8,0,0,0,0,0,0,0,0,0,-1,846,1016,0,0
-371,8,0,0,0,0,0,0,0,0,0,-1,853,1016,0,0
-364,8,0,0,0,0,0,0,0,0,0,-1,860,1016,0,0
-357,8,0,0,0,0,0,0,0,0,0,-1,867,1016,0,0
-350,8,0,0,0,0,0,0,0,0,0,-1,874,1016,0,0
-343,8,0,0,0,0,0,0,0,0,0,-1,881,1016,0,0
-336,8,0,0,0,0,0,0,0,0,0,-1,888,1016,0,0
-329,8,0,0,0,0,0,0,0,0,0,-1,895,1016,0,0
-322,8,0,0,0,0,0,0,0,0,0,-1,902,1016,0,0
-315,8,0,0,0,0,0,0,0,0,0,-1,909,1016,0,0
-308,8,0,0,0,0,0,0,0,0,0,-1,916,1016,0,0
-301,8,0,0,0,0,0,0,0,0,0,-1,923,1016,0,0
-294,8,0,0,0,0,0,0,0,0,0,-1,930,1016,0,0
-287,8,0,0,0,0,0,0,0,0,0,-1,937,1016,0,0
-280,8,0,0,0,0,0,0,0,0,0,-1,944,1016,0,0
-273,8,0,0,0,0,0,0,0,0,0,-1,951,1016,0,0
-266,8,0,0,0,0,0,0,0,0,0,-1,958,1016,0,0
-259,8,0,0,0,0,0,0,0,0,0,-1,965,1016,0,0
-252,8,0,0,0,0,0,0,0,0,0,-1,972,1016,0,0
-245,8,0,0,0,0,0,0,0,0,0,-1,979,1016,0,0
-238,8,0,0,0,0,0,0,0,0,0,-1,986,1016,0,0
-231,8,0,0,0,0,0,0,0,0,0,-1,993,1016,0,0
-224,8,0,0,0,0,0,0,0,0,0,-1,1000,1016,0,0
-217,8,0,0,0,0,0,0,0,0,0,-1,1007,1016,0,0
-210,8,0,0,0,0,0,0,0,0,0,-1,1014,1016,0,0
-203,8,0,0,0,0,0,0,0,0,0,-1,1021,1016,0,0
-196,8,0,0,0,0,0,0,0,0,0,-1,1028,1016,0,0
-189,8,0,0,0,0,0,0,0,0,0,-1,1035,1016,0,0
-182,8,0,0,0,0,0,0,0,0,0,-1,1042,1016,0,0
-175,8,0,0,0,0,0,0,0,0,0,-1,1049,1016,0,0
-168,8,0,0,0,0,0,0,0,0,0,-1,1056,1016,0,0
-161,8,0,0,0,0,0,0,0,0,0,-1,1063,1016,0,0
-154,8,0,0,0,0,0,0,0,0,0,-1,1070,1016,0,0
-147,8,0,0,0,0,0,0,0,0,0,-1,1077,1016,0,0
-140,8,0,0,0,0,0,0,0,0,0,-1,1084,1016,0,0
-133,8,0,0,0,0,0,0,0,0,0,-1,1091,1016,0,0
-126,8,0,0,0,0,0,0,0,0,0,-1,1098,1016,0,0
-119,8,0,0,0,0,0,0,0,0,0,-1,1105,1016,0,0
-112,8,0,0,0,0,0,0,0,0,0,-1,1112,1016,0,0
-105,8,0,0,0,0,0,0,0,0,0,-1,1119,1016,0,0
-98,8,0,0,0,0,0,0,0,0,0,-1,1126,1016,0,0
-91,8,0,0,0,0,0,0,0,0,0,-1,1133,1016,0,0
-84,8,0,0,0,0,0,0,0,0,0,-1,1140,1016,0,0
-77,8,0,0,0,0,0,0,0,0,0,-1,1147,1016,0,0
-70,8,0,0,0,0,0,0,0,0,0,-1,1154,1016,0,0
-63,8,0,0,0,0,0,0,0,0,0,-1,1161,1016,0,0
-56,8,0,0,0,0,0,0,0,0,0,-1,1168,1016,0,0
-49,8,0,0,0,0,0,0,0,0,0,-1,1175,1016,0,0
-42,8,0,0,0,0,0,0,0,0,0,-1,1182,1016,0,0
-35,8,0,0,0,0,0,0,0,0,0,-1,1189,1016,0,0
-28,8,0,0,0,0,0,0,0,0,0,-1,1196,1016,0,0
-21,8,0,0,0,0,0,0,0,0,0,-1,1203,1016,0,0
-14,8,0,0,0,0,0,0,0,0,0,-1,1210,1016,0,0
-7,8,0,0,0,0,0,0,0,0,0,-1,1217,1016,0,0
0,8,0,0,0,0,0,0,0,0,0,-1,1224,1016,0,0
7,8,0,0,0,0,0,0,0,0,0,-1,1231,1016,0,0
14,8,0,0,0,0,0,0,0,0,0,-1,1238,1016,0,0
21,8,0,0,0,0,0,0,0,0,0,-1,1245,1016,0,0
28,8,0,0,0,0,0,0,0,0,0,-1,1252,1016,0,0
35,8,0,0,0,0,0,0,0,0,0,-1,1259,1016,0,0
42,8,0,0,0,0,0,0,0,0,0,-1,1266,1016,0,0
49,8,0,0,0,0,0,0,0,0,0,-1,1273,1016,0,0
56,8,0,0,0,0,0,0,0,0,0,-1,1280,1016,0,0
63,8,0,0,0,0,0,0,0,0,0,-1,1287,1016,0,0
70,8,0,0,0,0,0,0,0,0,0,-1,1294,1016,0,0
77,8,0,0,0,0,0,0,0,0,0,-1,1301,1016,0,0
84,8,0,0,0,0,0,0,0,0,0,-1,1308,1016,0,0
91,8,0,0,0,0,0,0,0,0,0,-1,1315,1016,0,0
98,8,0,0,0,0,0,0,0,0,0,-1,1322,1016,0,0
105,8,0,0,0,0,0,0,0,0,0,-1,1329,1016,0,0
112,8,0,0,0,0,0,0,0,0,0,-1,1336,1016,0,0
119,8,0,0,0,0,0,0,0,0,0,-1,1343,1016,0,0
126,8,0,0,0,0,0,0,0,0,0,-1,1350,1016,0,0
133,8,0,0,0,0,0,0,0,0,0,-1,1357,1016,0,0
140,8,0,0,0,0,0,0,0,0,0,-1,1364,1016,0,0
147,8,0,0,0,0,0,0,0,0,0,-1,1371,1016,0,0
154,8,0,0,0,0,0,0,0,0,0,-1,1378,1016,0,0
161,8,0,0,0,0,0,0,0,0,0,-1,1385,1016,0,0
168,8,0,0,0,0,0,0,0,0,0,-1,1392,1016,0,0
175,8,0,0,0,0,0,0,0,0,0,-1,1399,1016,0,0
182,8,0,0,0,0,0,0,0,0,0,-1,1406,1016,0,0
189,8,0,0,0,0,0,0,0,0,0,-1,1413,1016,0,0
196,8,0,0,0,0,0,0,0,0,0,-1,1420,1016,0,0
203,8,0,0,0,0,0,0,0,0,0,-1,1427,1016,0,0
210,8,0,0,0,0,0,0,0,0,0,-1,1434,1016,0,0
217,8,0,0,0,0,0,0,0,0,0,-1,1441,1016,0,0
224,8,0,0,0,0,0,0,0,0,0,-1,1448,1016,0,0
231,8,0,0,0,0,0,0,0,0,0,-1,1455,1016,0,0
238,8,0,0,0,0,0,0,0,0,0,-1,1462,1016,0,0
245,8,0,0,0,0,0,0,0,0,0,-1,1469,1016,0,0
252,8,0,0,0,0,0,0,0,0,0,-1,1476,1016,0,0
259,8,0,0,0,0,0,0,0,0,0,-1,1483,1016,0,0
266,8,0,0,0,0,0,0,0,0,0,-1,1490,1016,0,0
273,8,0,0,0,0,0,0,0,0,0,-1,1497,1016,0,0
280,8,0,0,0,0,0,0,0,0,0,-1,1504,1016,0,0
287,8,0,0,0,0,0,0,0,0,0,-1,1511,1016,0,0
294,8,0,0,0,0,0,0,0,0,0,-1,1518,1016,0,0
301,8,0,0,0,0,0,0,0,0,0,-1,1525,1016,0,0
308,8,0,0,0,0,0,0,0,0,0,-1,1532,1016,0,0
315,8,0,0,0,0,0,0,0,0,0,-1,1539,1016,0,0
322,8,0,0,0,0,0,0,0,0,0,-1,1546,1016,0,0
329,8,0,0,0,0,0,0,0,0,0,-1,1553,1016,0,0
336,8,0,0,0,0,0,0,0,0,0,-1,1560,1016,0,0
343,8,0,0,0,0,0,0,0,0,0,-1,1567,1016,0,0
350,8,0,0,0,0,0,0,0,0,0,-1,1574,1016,0,0
357,8,0,0,0,0,0,0,0,0,0,-1,1581,1016,0,0
364,8,0,0,0,0,0,0,0,0,0,-1,1588,1016,0,0
371,8,0,0,0,0,0,0,0,0,0,-1,1595,1016,0,0
378,8,0,0,0,0,0,0,0,0,0,-1,1602,1016,0,0
385,8,0,0,0,0,0,0,0,0,0,-1,1609,1016,0,0
392,8,0,0,0,0,0,0,0,0,0,-1,1616,1016,0,0
399,8,0,0,0,0,0,0,0,0,0,-1,1623,1016,0,0
406,8,0,0,0,0,0,0,0,0,0,-1,1630,1016,0,0
413,8,0,0,0,0,0,0,0,0,0,-1,1637,1016,0,0
420,8,0,0,0,0,0,0,0,0,0,-1,1644,1016,0,0
427,8,0,0,0,0,0,0,0,0,0,-1,1651,1016,0,0
434,8,0,0,0,0,0,0,0,0,0,-1,1658,1016,0,0
441,8,0,0,0,0,0,0,0,0,0,-1,1665,1016,0,0
448,8,0,0,0,0,0,0,0,0,0,-1,1672,1016,0,0
455,8,0,0,0,0,0,0,0,0,0,-1,1679,1016,0,0
462,8,0,0,0,0,0,0,0,0,0,-1,1686,1016,0,0
469,8,0,0,0,0,0,0,0,0,0,-1,1693,1016,0,0
476,8,0,0,0,0,0,0,0,0,0,-1,1700,1016,0,0
483,8,0,0,0,0,0,0,0,0,0,-1,1707,1016,0,0
490,8,0,0,0,0,0,0,0,0,0,-1,1714,1016,0,0
497,8,0,0,0,0,0,0,0,0,0,-1,1721,1016,0,0
504,8,0,0,0,0,0,0,0,0,0,-1,1728,1016,0,0
511,8,0,0,0,0,0,0,0,0,0,-1,1735,1016,0,0
518,8,0,0,0,0,0,0,0,0,0,-1,1742,1016,0,0
525,8,0,0,0,0,0,0,0,0,0,-1,1749,1016,0,0
532,8,0,0,0,0,0,0,0,0,0,-1,1756,1016,0,0
539,8,0,0,0,0,0,0,0,0,0,-1,1763,1016,0,0
546,8,0,0,0,0,0,0,0,0,0,-1,1770,1016,0,0
553,8,0,0,0,0,0,0,0,0,0,-1,1777,1016,0,0
560,8,0,0,0,0,0,0,0,0,0,-1,1784,1016,0,0
567,8,0,0,0,0,0,0,0,0,0,-1,1791,1016,0,0
574,8,0,0,0,0,0,0,0,0,0,-1,1798,1016,0,0
581,8,0,0,0,0,0,0,0,0,0,-1,1805,1016,0,0
588,8,0,0,0,0,0,0,0,0,0,-1,1812,1016,0,0
595,8,0,0,0,0,0,0,0,0,0,-1,1819,1016,0,0
602,8,0,0,0,0,0,0,0,0,0,-1,1826,1016,0,0
609,8,0,0,0,0,0,0,0,0,0,-1,1833,1016,0,0
616,8,0,0,0,0,0,0,0,0,0,-1,1840,1016,0,0
623,8,0,0,0,0,0,0,0,0,0,-1,1847,1016,0,0
630,8,0,0,0,0,0,0,0,0,0,-1,1854,1016,0,0
637,8,0,0,0,0,0,0,0,0,0,-1,1861,1016,0,0
644,8,53.0071,2.60889,-0.000641229,0.000428845,0.00250074,0.00245114,-0.00266353,0.890785,0.0029538,0.0440675,1868,1016,53.0071,-2.60889
651,8,53.0789,2.44427,-0.000535525,0.000917813,0.00167276,0.00201492,-0.00163263,0.990307,0.00210977,0.0407823,1875,1016,53.0789,-2.44428
658,8,52.9841,2.33154,-0.000348984,0.00115078,0.000903647,0.00157517,-0.000773367,1.13174,0.00138202,0.0393675,1882,1016,52.9842,-2.33151
665,8,52.9888,2.49475,-0.000240714,0.00131137,0.000591437,0.00151105,-0.000440397,1.24519,0.00118184,0.0406353,1889,1016,52.9888,-2.49473
672,8,53.0109,2.75061,-0.000169536,0.00146802,0.00065166,0.00169569,-0.000397209,1.23468,0.00128352,0.0405063,1896,1016,53.0109,-2.75058
679,8,52.8987,2.82373,-5.24581e-05,0.00166625,0.000976352,0.00210757,-0.000493777,1.14627,0.00159532,0.0376383,1903,1016,52.8987,-2.82376
686,8,52.8684,2.88745,-5.62386e-05,0.00163233,0.0014324,0.00245075,-0.00087466,1.0517,0.00199051,0.038002,1910,1016,52.8684,-2.88743
693,8,52.8706,2.8103,-0.000113367,0.00150378,0.00189671,0.00275707,-0.00136666,0.986886,0.00242553,0.0382881,1917,1016,52.8706,-2.8103
700,8,52.9642,2.62836,-8.26497e-05,0.0014157,0.00220053,0.00299109,-0.00165803,0.94947,0.0027207,0.0319268,1924,1016,52.9642,-2.62836
707,8,52.9913,2.51654,-0.000447932,0.00160342,0.00230637,0.00310189,-0.00194641,0.994623,0.00293998,0.0227982,1931,1016,52.9913,-2.51657
714,8,52.9983,2.53448,-0.00119811,0.00208743,0.00230075,0.00327169,-0.00238237,1.09543,0.00327781,0.0202962,1938,1016,52.9983,-2.5345
721,8,53.0242,2.62738,0,0,0,0,0,0,0,-1,1945,1016,53.0242,-2.62737
728,8,52.1681,5.36774,0,0,0,0,0,0,0,-1,1952,1016,52.168,-5.36773
735,8,52.8549,5.99957,0,0,0,0,0,0,0,-1,1959,1016,52.8548,-5.99954
742,8,52.8052,6.17792,0,0,0,0,0,0,0,-1,1966,1016,52.8051,-6.17791
749,8,52.9661,6.19208,0,0,0,0,0,0,0,-1,1973,1016,52.966,-6.19205
756,8,52.9093,6.0368,-0.00584154,0.0107575,0.000985389,0.0108158,-0.00589983,1.51171,0.00978888,0.0314082,1980,1016,52.9093,-6.03682
763,8,52.8867,6.10742,-0.00574189,0.014231,0.000228117,0.0142336,-0.00574449,1.55938,0.0118764,0.0151416,1987,1016,52.8867,-6.10745
770,8,52.7849,6.06396,-0.00447624,0.0189082,-0.000416565,0.0189156,-0.00448365,-1.55299,0.0143405,0.0201286,1994,1016,52.7849,-6.06397
777,8,52.4204,6.07623,-0.00151636,0.0249959,-0.000927069,0.0250282,-0.00154873,-1.53589,0.017225,0.0336997,2001,1016,52.4204,-6.07623
784,8,52.0371,6.08716,0,0,0,0,0,0,0,-1,2008,1016,52.0372,-6.08718
791,8,52.4839,1.98273,0,0,0,0,0,0,0,-1,2015,1016,52.484,-1.98272
798,8,51.9089,0.87384,0,0,0,0,0,0,0,-1,2022,1016,51.909,-0.87385
805,8,51.3342,-0.235046,0,0,0,0,0,0,0,-1,2029,1016,51.3341,0.235019
812,8,52.8677,-0.538086,0,0,0,0,0,0,0,-1,2036,1016,52.8676,0.538059
-700,1,0,0,0,0,0,0,0,0,0,-1,524,1023,0,0
-693,1,-41.096,3.47852,0,0,0,0,0,0,0,-1,531,1023,-41.096,-3.4785
-686,1,-39.9773,2.55328,0,0,0,0,0,0,0,-1,538,1023,-39.9773,-2.55329
-679,1,-41.1349,2.06732,0,0,0,0,0,0,0,-1,545,1023,-41.1349,-2.06731
-672,1,-40.4741,2.36292,0.0497776,0.016157,0.00496419,0.0504953,0.0154394,0.143572,0.0298778,0.0451427,552,1023,-40.4741,-2.3629
-665,1,-40.1778,2.5188,0.0414463,0.0161806,0.0038849,0.0420302,0.0155968,0.149172,0.0245335,0.0435404,559,1023,-40.1778,-2.51879
-658,1,-40.0557,2.77704,0.0329407,0.0155978,0.00315254,0.033496,0.0150425,0.174349,0.0193723,0.0341549,566,1023,-40.0557,-2.77705
-651,1,-39.9205,3.02618,0.0249467,0.0144262,0.00254949,0.025532,0.0138409,0.225654,0.0147583,0.0284475,573,1023,-39.9205,-3.02618
-644,1,-39.6891,3.24426,0,0,0,0,0,0,0,-1,580,1023,-39.6891,-3.24426
-637,1,-39.9827,3.16968,0.0113021,0.0115216,0.00070736,0.0121277,0.0106961,0.862357,0.00765269,0.0372542,587,1023,-39.9827,-3.16971
-630,1,-40.2305,3.27997,0.00634761,0.00905462,-0.000358672,0.00910134,0.00630089,-1.44128,0.00538265,0.0325855,594,1023,-40.2305,-3.27998
-623,1,-40.1337,3.36566,0.00312969,0.0061759,-0.00145078,0.00675628,0.00254932,-1.19025,0.00393968,0.0159591,601,1023,-40.1338,-3.36564
-616,1,-40.2508,3.3028,0.00118968,0.00412078,-0.00231656,0.00539645,-8.59858e-05,-1.06744,0.00362664,0.019785,608,1023,-40.2508,-3.30279
-609,1,-40.2443,3.36804,0.000333377,0.00237363,-0.0033873,0.00489108,-0.00218408,-0.931659,0.00418332,0.0205341,615,1023,-40.2442,-3.36804
-602,1,-40.0683,3.45587,-2.69828e-05,0.00113676,-0.0042914,0.00488556,-0.00377578,-0.852782,0.00501429,0.0152217,622,1023,-40.0683,-3.45588
-595,1,-39.9214,3.46118,0,0,0,0,0,0,0,-1,629,1023,-39.9214,-3.4612
-588,1,-39.5387,0.738037,0,0,0,0,0,0,0,-1,636,1023,-39.5387,-0.738032
-581,1,-39.5692,0.808472,0.00174648,-0.00177288,-0.00498247,0.00527088,-0.00529728,-0.615648,0.00610153,0.0289348,643,1023,-39.5692,-0.808455
-574,1,-39.5399,0.741455,0.00195782,-0.00215044,-0.00471242,0.00504434,-0.00523696,-0.579866,0.00593626,0.0372512,650,1023,-39.5399,-0.741451
-567,1,-39.5609,0.720276,0.00191787,-0.00215957,-0.00398689,0.00435706,-0.00459876,-0.549053,0.00517127,0.0443076,657,1023,-39.5609,-0.720272
-560,1,-39.5649,0.863892,0,0,0,0,0,0,0,-1,664,1023,-39.5649,-0.863878
-553,1,-39.4996,0.638611,0.00150482,-0.00159558,-0.0011947,0.00191177,-0.00200253,-0.328302,0.00226013,0.0393765,671,1023,-39.4996,-0.638617
-546,1,-39.47,0.888611,0.00125945,-0.00159632,0.000760513,0.00144935,-0.00178622,0.244699,0.00187143,0.0407788,678,1023,-39.47,-0.888591
-539,1,-39.4908,0.858765,0.0010728,-0.00206701,0.00250284,0.00245735,-0.00345156,0.505291,0.00342757,0.0419015,685,1023,-39.4908,-0.858755
-532,1,-39.4865,0.70697,0.00154056,-0.00251715,0.00300505,0.00313753,-0.00411412,0.488472,0.00419938,0.0449517,692,1023,-39.4865,-0.707001
-525,1,0,0,0,0,0,0,0,0,0,-1,699,1023,0,0
-518,1,0,0,0,0,0,0,0,0,0,-1,706,1023,0,0
-511,1,0,0,0,0,0,0,0,0,0,-1,713,1023,0,0
-504,1,0,0,0,0,0,0,0,0,0,-1,720,1023,0,0
-497,1,0,0,0,0,0,0,0,0,0,-1,727,1023,0,0
-490,1,0,0,0,0,0,0,0,0,0,-1,734,1023,0,0
-483,1,0,0,0,0,0,0,0,0,0,-1,741,1023,0,0
-476,1,0,0,0,0,0,0,0,0,0,-1,748,1023,0,0
-469,1,0,0,0,0,0,0,0,0,0,-1,755,1023,0,0
-462,1,0,0,0,0,0,0,0,0,0,-1,762,1023,0,0
-455,1,0,0,0,0,0,0,0,0,0,-1,769,1023,0,0
-448,1,0,0,0,0,0,0,0,0,0,-1,776,1023,0,0
-441,1,0,0,0,0,0,0,0,0,0,-1,783,1023,0,0
-434,1,0,0,0,0,0,0,0,0,0,-1,790,1023,0,0
-427,1,0,0,0,0,0,0,0,0,0,-1,797,1023,0,0
-420,1,0,0,0,0,0,0,0,0,0,-1,804,1023,0,0
-413,1,0,0,0,0,0,0,0,0,0,-1,811,1023,0,0
-406,1,0,0,0,0,0,0,0,0,0,-1,818,1023,0,0
-399,1,0,0,0,0,0,0,0,0,0,-1,825,1023,0,0
-392,1,0,0,0,0,0,0,0,0,0,-1,832,1023,0,0
-385,1,0,0,0,0,0,0,0,0,0,-1,839,1023,0,0
-378,1,0,0,0,0,0,0,0,0,0,-1,846,1023,0,0
-371,1,0,0,0,0,0,0,0,0,0,-1,853,1023,0,0
-364,1,0,0,0,0,0,0,0,0,0,-1,860,1023,0,0
-357,1,0,0,0,0,0,0,0,0,0,-1,867,1023,0,0
-350,1,0,0,0,0,0,0,0,0,0,-1,874,1023,0,0
-343,1,0,0,0,0,0,0,0,0,0,-1,881,1023,0,0
-336,1,0,0,0,0,0,0,0,0,0,-1,888,1023,0,0
-329,1,0,0,0,0,0,0,0,0,0,-1,895,1023,0,0
-322,1,0,0,0,0,0,0,0,0,0,-1,902,1023,0,0
-315,1,0,0,0,0,0,0,0,0,0,-1,909,1023,0,0
-308,1,0,0,0,0,0,0,0,0,0,-1,916,1023,0,0
-301,1,0,0,0,0,0,0,0,0,0,-1,923,1023,0,0
-294,1,0,0,0,0,0,0,0,0,0,-1,930,1023,0,0
-287,1,0,0,0,0,0,0,0,0,0,-1,937,1023,0,0
-280,1,0,0,0,0,0,0,0,0,0,-1,944,1023,0,0
-273,1,0,0,0,0,0,0,0,0,0,-1,951,1023,0,0
-266,1,0,0,0,0,0,0,0,0,0,-1,958,1023,0,0
-259,1,0,0,0,0,0,0,0,0,0,-1,965,1023,0,0
-252,1,0,0,0,0,0,0,0,0,0,-1,972,1023,0,0
-245,1,0,0,0,0,0,0,0,0,0,-1,979,1023,0,0
-238,1,0,0,0,0,0,0,0,0,0,-1,986,1023,0,0
-231,1,0,0,0,0,0,0,0,0,0,-1,993,1023,0,0
-224,1,0,0,0,0,0,0,0,0,0,-1,1000,1023,0,0
-217,1,0,0,0,0,0,0,0,0,0,-1,1007,1023,0,0
-210,1,0,0,0,0,0,0,0,0,0,-1,1014,1023,0,0
-203,1,0,0,0,0,0,0,0,0,0,-1,1021,1023,0,0
-196,1,0,0,0,0,0,0,0,0,0,-1,1028,1023,0,0
-189,1,0,0,0,0,0,0,0,0,0,-1,1035,1023,0,0
-182,1,0,0,0,0,0,0,0,0,0,-1,1042,1023,0,0
-175,1,0,0,0,0,0,0,0,0,0,-1,1049,1023,0,0
-168,1,0,0,0,0,0,0,0,0,0,-1,1056,1023,0,0
-161,1,0,0,0,0,0,0,0,0,0,-1,1063,1023,0,0
-154,1,0,0,0,0,0,0,0,0,0,-1,1070,1023,0,0
-147,1,0,0,0,0,0,0,0,0,0,-1,1077,1023,0,0
-140,1,0,0,0,0,0,0,0,0,0,-1,1084,1023,0,0
-133,1,0,0,0,0,0,0,0,0,0,-1,1091,1023,0,0
-126,1,0,0,0,0,0,0,0,0,0,-1,1098,1023,0,0
-119,1,0,0,0,0,0,0,0,0,0,-1,1105,1023,0,0
-112,1,0,0,0,0,0,0,0,0,0,-1,1112,1023,0,0
-105,1,0,0,0,0,0,0,0,0,0,-1,1119,1023,0,0
-98,1,0,0,0,0,0,0,0,0,0,-1,1126,1023,0,0
-91,1,0,0,0,0,0,0,0,0,0,-1,1133,1023,0,0
-84,1,0,0,0,0,0,0,0,0,0,-1,1140,1023,0,0
-77,1,0,0,0,0,0,0,0,0,0,-1,1147,1023,0,0
-70,1,0,0,0,0,0,0,0,0,0,-1,1154,1023,0,0
-63,1,0,0,0,0,0,0,0,0,0,-1,1161,1023,0,0
-56,1,0,0,0,0,0,0,0,0,0,-1,1168,1023,0,0
-49,1,0,0,0,0,0,0,0,0,0,-1,1175,1023,0,0
-42,1,0,0,0,0,0,0,0,0,0,-1,1182,1023,0,0
-35,1,0,0,0,0,0,0,0,0,0,-1,1189,1023,0,0
-28,1,0,0,0,0,0,0,0,0,0,-1,1196,1023,0,0
-21,1,0,0,0,0,0,0,0,0,0,-1,1203,1023,0,0
-14,1,0,0,0,0,0,0,0,0,0,-1,1210,1023,0,0
-7,1,0,0,0,0,0,0,0,0,0,-1,1217,1023,0,0
0,1,0,0,0,0,0,0,0,0,0,-1,1224,1023,0,0
7,1,0,0,0,0,0,0,0,0,0,-1,1231,1023,0,0
14,1,0,0,0,0,0,0,0,0,0,-1,1238,1023,0,0
21,1,0,0,0,0,0,0,0,0,0,-1,1245,1023,0,0
28,1,0,0,0,0,0,0,0,0,0,-1,1252,1023,0,0
35,1,0,0,0,0,0,0,0,0,0,-1,1259,1023,0,0
42,1,0,0,0,0,0,0,0,0,0,-1,1266,1023,0,0
49,1,0,0,0,0,0,0,0,0,0,-1,1273,1023,0,0
56,1,0,0,0,0,0,0,0,0,0,-1,1280,1023,0,0
63,1,0,0,0,0,0,0,0,0,0,-1,1287,1023,0,0
70,1,0,0,0,0,0,0,0,0,0,-1,1294,1023,0,0
77,1,0,0,0,0,0,0,0,0,0,-1,1301,1023,0,0
84,1,0,0,0,0,0,0,0,0,0,-1,1308,1023,0,0
91,1,0,0,0,0,0,0,0,0,0,-1,1315,1023,0,0
98,1,0,0,0,0,0,0,0,0,0,-1,1322,1023,0,0
105,1,0,0,0,0,0,0,0,0,0,-1,1329,1023,0,0
112,1,0,0,0,0,0,0,0,0,0,-1,1336,1023,0,0
119,1,0,0,0,0,0,0,0,0,0,-1,1343,1023,0,0
126,1,0,0,0,0,0,0,0,0,0,-1,1350,1023,0,0
133,1,0,0,0,0,0,0,0,0,0,-1,1357,1023,0,0
140,1,0,0,0,0,0,0,0,0,0,-1,1364,1023,0,0
147,1,0,0,0,0,0,0,0,0,0,-1,1371,1023,0,0
154,1,0,0,0,0,0,0,0,0,0,-1,1378,1023,0,0
161,1,0,0,0,0,0,0,0,0,0,-1,1385,1023,0,0
168,1,0,0,0,0,0,0,0,0,0,-1,1392,1023,0,0
175,1,0,0,0,0,0,0,0,0,0,-1,1399,1023,0,0
182,1,0,0,0,0,0,0,0,0,0,-1,1406,1023,0,0
189,1,0,0,0,0,0,0,0,0,0,-1,1413,1023,0,0
196,1,0,0,0,0,0,0,0,0,0,-1,1420,1023,0,0
203,1,0,0,0,0,0,0,0,0,0,-1,1427,1023,0,0
210,1,0,0,0,0,0,0,0,0,0,-1,1434,1023,0,0
217,1,0,0,0,0,0,0,0,0,0,-1,1441,1023,0,0
224,1,0,0,0,0,0,0,0,0,0,-1,1448,1023,0,0
231,1,0,0,0,0,0,0,0,0,0,-1,1455,1023,0,0
238,1,0,0,0,0,0,0,0,0,0,-1,1462,1023,0,0
245,1,0,0,0,0,0,0,0,0,0,-1,1469,1023,0,0
252,1,0,0,0,0,0,0,0,0,0,-1,1476,1023,0,0
259,1,0,0,0,0,0,0,0,0,0,-1,1483,1023,0,0
266,1,0,0,0,0,0,0,0,0,0,-1,1490,1023,0,0
273,1,0,0,0,0,0,0,0,0,0,-1,1497,1023,0,0
280,1,0,0,0,0,0,0,0,0,0,-1,1504,1023,0,0
287,1,0,0,0,0,0,0,0,0,0,-1,1511,1023,0,0
294,1,0,0,0,0,0,0,0,0,0,-1,1518,1023,0,0
301,1,0,0,0,0,0,0,0,0,0,-1,1525,1023,0,0
308,1,0,0,0,0,0,0,0,0,0,-1,1532,1023,0,0
315,1,0,0,0,0,0,0,0,0,0,-1,1539,1023,0,0
322,1,0,0,0,0,0,0,0,0,0,-1,1546,1023,0,0
329,1,0,0,0,0,0,0,0,0,0,-1,1553,1023,0,0
336,1,0,0,0,0,0,0,0,0,0,-1,1560,1023,0,0
343,1,0,0,0,0,0,0,0,0,0,-1,1567,1023,0,0
350,1,0,0,0,0,0,0,0,0,0,-1,1574,1023,0,0
357,1,0,0,0,0,0,0,0,0,0,-1,1581,1023,0,0
364,1,0,0,0,0,0,0,0,0,0,-1,1588,1023,0,0
371,1,0,0,0,0,0,0,0,0,0,-1,1595,1023,0,0
378,1,0,0,0,0,0,0,0,0,0,-1,1602,1023,0,0
385,1,0,0,0,0,0,0,0,0,0,-1,1609,1023,0,0
392,1,0,0,0,0,0,0,0,0,0,-1,1616,1023,0,0
399,1,0,0,0,0,0,0,0,0,0,-1,1623,1023,0,0
406,1,0,0,0,0,0,0,0,0,0,-1,1630,1023,0,0
413,1,0,0,0,0,0,0,0,0,0,-1,1637,1023,0,0
420,1,0,0,0,0,0,0,0,0,0,-1,1644,1023,0,0
427,1,0,0,0,0,0,0,0,0,0,-1,1651,1023,0,0
434,1,0,0,0,0,0,0,0,0,0,-1,1658,1023,0,0
441,1,0,0,0,0,0,0,0,0,0,-1,1665,1023,0,0
448,1,0,0,0,0,0,0,0,0,0,-1,1672,1023,0,0
455,1,0,0,0,0,0,0,0,0,0,-1,1679,1023,0,0
462,1,0,0,0,0,0,0,0,0,0,-1,1686,1023,0,0
469,1,0,0,0,0,0,0,0,0,0,-1,1693,1023,0,0
476,1,0,0,0,0,0,0,0,0,0,-1,1700,1023,0,0
483,1,0,0,0,0,0,0,0,0,0,-1,1707,1023,0,0
490,1,0,0,0,0,0,0,0,0,0,-1,1714,1023,0,0
497,1,0,0,0,0,0,0,0,0,0,-1,1721,1023,0,0
504,1,0,0,0,0,0,0,0,0,0,-1,1728,1023,0,0
511,1,0,0,0,0,0,0,0,0,0,-1,1735,1023,0,0
518,1,0,0,0,0,0,0,0,0,0,-1,1742,1023,0,0
525,1,0,0,0,0,0,0,0,0,0,-1,1749,1023,0,0
532,1,0,0,0,0,0,0,0,0,0,-1,1756,1023,0,0
539,1,0,0,0,0,0,0,0,0,0,-1,1763,1023,0,0
546,1,0,0,0,0,0,0,0,0,0,-1,1770,1023,0,0
553,1,0,0,0,0,0,0,0,0,0,-1,1777,1023,0,0
560,1,0,0,0,0,0,0,0,0,0,-1,1784,1023,0,0
567,1,0,0,0,0,0,0,0,0,0,-1,1791,1023,0,0
574,1,0,0,0,0,0,0,0,0,0,-1,1798,1023,0,0
581,1,0,0,0,0,0,0,0,0,0,-1,1805,1023,0,0
588,1,0,0,0,0,0,0,0,0,0,-1,1812,1023,0,0
595,1,0,0,0,0,0,0,0,0,0,-1,1819,1023,0,0
602,1,0,0,0,0,0,0,0,0,0,-1,1826,1023,0,0
609,1,0,0,0,0,0,0,0,0,0,-1,1833,1023,0,0
616,1,0,0,0,0,0,0,0,0,0,-1,1840,1023,0,0
623,1,0,0,0,0,0,0,0,0,0,-1,1847,1023,0,0
630,1,0,0,0,0,0,0,0,0,0,-1,1854,1023,0,0
637,1,0,0,0,0,0,0,0,0,0,-1,1861,1023,0,0
644,1,0,0,0,0,0,0,0,0,0,-1,1868,1023,0,0
651,1,53.0177,2.70325,0.000336547,0.000604491,0.00101329,0.00149262,-0.000551585,0.851125,0.0012212,0.0418036,1875,1023,53.0177,-2.70324
658,1,53.1646,2.2207,0.000151976,0.00114863,0.000434888,0.00131171,-1.11023e-05,1.21203,0.000878197,0.0434681,1882,1023,53.1646,-2.22068
665,1,53.1487,2.49597,3.44043e-05,0.00147994,0.000229927,0.00151563,-1.28656e-06,1.4168,0.00101085,0.0427528,1889,1023,53.1486,-2.49595
672,1,53.0731,2.72186,-2.30912e-05,0.00173518,0.00036473,0.00180784,-9.57474e-05,1.37417,0.00123838,0.0406363,1896,1023,53.0731,-2.72183
679,1,52.8418,2.88672,2.35352e-05,0.00197416,0.000726573,0.00221505,-0.000217353,1.25066,0.00155422,0.0367598,1903,1023,52.8418,-2.88673
686,1,52.7596,2.9668,-5.63988e-05,0.00191836,0.00121157,0.00249394,-0.000631973,1.1273,0.00190849,0.035152,1910,1023,52.7596,-2.9668
693,1,52.9208,2.88354,-0.000155476,0.00172681,0.00171289,0.00274008,-0.00116875,1.03661,0.00231675,0.0353579,1917,1023,52.9208,-2.88352
700,1,52.9968,2.65729,-0.000140262,0.00155061,0.00207361,0.00294451,-0.00153416,0.978967,0.00262815,0.0320051,1924,1023,52.9968,-2.65732
707,1,52.9691,2.53894,-0.000528721,0.00166596,0.0022304,0.00305434,-0.00191711,1.01401,0.00289519,0.0238803,1931,1023,52.9691,-2.53893
714,1,52.9811,2.48834,-0.00129569,0.00208916,0.00227768,0.00323436,-0.0024409,1.10492,0.00328727,0.0219368,1938,1023,52.9811,-2.48832
721,1,53.0376,2.51959,0,0,0,0,0,0,0,-1,1945,1023,53.0377,-2.51957
728,1,52.4639,5.59277,0,0,0,0,0,0,0,-1,1952,1023,52.4639,-5.59276
735,1,52.8008,5.99091,0,0,0,0,0,0,0,-1,1959,1023,52.8008,-5.99089
742,1,52.4393,5.81525,0,0,0,0,0,0,0,-1,1966,1023,52.4393,-5.81527
749,1,52.9994,5.9541,0,0,0,0,0,0,0,-1,1973,1023,52.9994,-5.95412
756,1,52.9166,6.07538,-0.0067516,0.0103428,0.00155822,0.0104837,-0.00689247,1.48063,0.0101033,0.0313869,1980,1023,52.9166,-6.07539
763,1,52.828,6.00098,-0.00712057,0.013765,0.000972504,0.0138102,-0.00716576,1.52437,0.0123113,0.0159109,1987,1023,52.828,-6.00095
770,1,52.7897,5.95422,-0.00668116,0.0182638,0.000577798,0.0182771,-0.00669453,1.54765,0.0149254,0.0175035,1994,1023,52.7896,-5.95423
777,1,52.5046,5.88049,-0.00492572,0.0241462,0.000420882,0.0241522,-0.00493182,1.55632,0.0179724,0.0244134,2001,1023,52.5046,-5.88051
784,1,52.2659,5.81403,-0.00201014,0.0307713,0.000223464,0.0307728,-0.00201166,1.56398,0.0212176,0.0459575,2008,1023,52.2659,-5.814
791,1,52.0798,5.79816,0,0,0,0,0,0,0,-1,2015,1023,52.0797,-5.79816
798,1,51.9602,1.24188,0,0,0,0,0,0,0,-1,2022,1023,51.9602,-1.24191
805,1,52.0181,0.535156,0,0,0,0,0,0,0,-1,2029,1023,52.018,-0.535145
812,1,52.1292,-0.135986,0,0,0,0,0,0,0,-1,2036,1023,52.1292,0.135967
-700,-6,0,0,0,0,0,0,0,0,0,-1,524,1030,0,0
-693,-6,-40.3571,3.13159,0,0,0,0,0,0,0,-1,531,1030,-40.357,-3.13154
-686,-6,-40.0514,2.54089,0.0498884,0.0182592,0.00638473,0.0511287,0.017019,0.191856,0.0300638,0.0445898,538,1030,-40.0514,-2.5409
-679,-6,-40.1735,1.90918,0,0,0,0,0,0,0,-1,545,1030,-40.1735,-1.90919
-672,-6,-40.0302,2.59546,0.0442306,0.0196183,0.00262185,0.0445068,0.0193421,0.104957,0.0257692,0.0462213,552,1030,-40.0302,-2.59544
-665,-6,-39.5924,2.60376,0.0378019,0.0190942,0.00196417,0.0380059,0.0188902,0.103489,0.0219428,0.0442008,559,1030,-39.5924,-2.60376
-658,-6,-40.2917,2.56836,0,0,0,0,0,0,0,-1,566,1030,-40.2917,-2.56835
-651,-6,-39.9979,2.70142,0,0,0,0,0,0,0,-1,573,1030,-39.9979,-2.70136
-644,-6,-39.856,3.55603,0,0,0,0,0,0,0,-1,580,1030,-39.856,-3.55606
-637,-6,-39.9351,3.26758,0.0115637,0.0121594,4.54196e-05,0.0121629,0.0115603,1.49514,0.00791536,0.0413532,587,1030,-39.9351,-3.26752
-630,-6,-40.0668,3.20886,0.00689879,0.00924714,-0.000646946,0.00941357,0.00673236,-1.319,0.00560018,0.0232418,594,1030,-40.0668,-3.20892
-623,-6,-40.0598,3.29248,0.0036619,0.00608375,-0.0014484,0.00676074,0.00298491,-1.13357,0.00391221,0.0172962,601,1030,-40.0597,-3.29253
-616,-6,-40.1119,3.31421,0.0016997,0.0038153,-0.00215021,0.00515382,0.000361176,-1.01399,0.00332204,0.0204042,608,1030,-40.112,-3.31417
-609,-6,-40.0891,3.4447,0.000666508,0.00195639,-0.0030533,0.00443212,-0.00180922,-0.889482,0.00370799,0.0198082,615,1030,-40.0891,-3.4447
-602,-6,-39.9861,3.54846,0.000103565,0.00064452,-0.00380342,0.00418707,-0.00343898,-0.820896,0.00440996,0.0137268,622,1030,-39.9861,-3.54844
-595,-6,-39.8498,3.49146,0,0,0,0,0,0,0,-1,629,1030,-39.8498,-3.49142
-588,-6,-39.715,2.02344,0,0,0,0,0,0,0,-1,636,1030,-39.715,-2.02345
-581,-6,-39.5887,0.784912,0.00137989,-0.00205685,-0.00407946,0.00408812,-0.00476508,-0.586064,0.00511637,0.0231605,643,1030,-39.5888,-0.784968
-574,-6,-39.5842,0.793213,0.00153831,-0.00231813,-0.00374618,0.00382339,-0.0046032,-0.547723,0.00487203,0.0323468,650,1030,-39.5842,-0.793154
-567,-6,-39.6393,0.831909,0.00141726,-0.00216887,-0.0030169,0.00313372,-0.00388533,-0.517274,0.00406018,0.0416301,657,1030,-39.6393,-0.83191
-560,-6,-39.7316,0.68103,0.00115015,-0.00169908,-0.00189319,0.00209486,-0.00264378,-0.46285,0.00274197,0.0413196,664,1030,-39.7316,-0.680999
-553,-6,-39.6428,0.587769,0.000731826,-0.00110632,-0.000404876,0.000817054,-0.00119154,-0.207474,0.00116636,0.0390986,671,1030,-39.6428,-0.587721
-546,-6,-39.4507,0.733032,0.000290897,-0.000739259,0.00135901,0.00122916,-0.00167753,0.604257,0.00168482,0.0383327,678,1030,-39.4508,-0.733082
-539,-6,-39.4459,1.07007,-0.000137895,-0.00085028,0.00289961,0.00242732,-0.00341549,0.724284,0.00338939,0.0420817,685,1030,-39.4459,-1.07009
-532,-6,-39.5395,1.06641,-3.77541e-05,-0.000952251,0.00342648,0.00296185,-0.00395186,0.719067,0.00400525,0.0456316,692,1030,-39.5395,-1.06644
-525,-6,0,0,0,0,0,0,0,0,0,-1,699,1030,0,0
-518,-6,0,0,0,0,0,0,0,0,0,-1,706,1030,0,0
-511,-6,0,0,0,0,0,0,0,0,0,-1,713,1030,0,0
-504,-6,0,0,0,0,0,0,0,0,0,-1,720,1030,0,0
-497,-6,0,0,0,0,0,0,0,0,0,-1,727,1030,0,0
-490,-6,0,0,0,0,0,0,0,0,0,-1,734,1030,0,0
-483,-6,0,0,0,0,0,0,0,0,0,-1,741,1030,0,0
-476,-6,0,0,0,0,0,0,0,0,0,-1,748,1030,0,0
-469,-6,0,0,0,0,0,0,0,0,0,-1,755,1030,0,0
-462,-6,0,0,0,0,0,0,0,0,0,-1,762,1030,0,0
-455,-6,0,0,0,0,0,0,0,0,0,-1,769,1030,0,0
-448,-6,0,0,0,0,0,0,0,0,0,-1,776,1030,0,0
-441,-6,0,0,0,0,0,0,0,0,0,-1,783,1030,0,0
-434,-6,0,0,0,0,0,0,0,0,0,-1,790,1030,0,0
-427,-6,0,0,0,0,0,0,0,0,0,-1,797,1030,0,0
-420,-6,0,0,0,0,0,0,0,0,0,-1,804,1030,0,0
-413,-6,0,0,0,0,0,0,0,0,0,-1,811,1030,0,0
-406,-6,0,0,0,0,0,0,0,0,0,-1,818,1030,0,0
-399,-6,0,0,0,0,0,0,0,0,0,-1,825,1030,0,0
-392,-6,0,0,0,0,0,0,0,0,0,-1,832,1030,0,0
-385,-6,0,0,0,0,0,0,0,0,0,-1,839,1030,0,0
-378,-6,0,0,0,0,0,0,0,0,0,-1,846,1030,0,0
-371,-6,0,0,0,0,0,0,0,0,0,-1,853,1030,0,0
-364,-6,0,0,0,0,0,0,0,0,0,-1,860,1030,0,0
-357,-6,0,0,0,0,0,0,0,0,0,-1,867,1030,0,0
-350,-6,0,0,0,0,0,0,0,0,0,-1,874,1030,0,0
-343,-6,0,0,0,0,0,0,0,0,0,-1,881,1030,0,0
-336,-6,0,0,0,0,0,0,0,0,0,-1,888,1030,0,0
-329,-6,0,0,0,0,0,0,0,0,0,-1,895,1030,0,0
-322,-6,0,0,0,0,0,0,0,0,0,-1,902,1030,0,0
-315,-6,0,0,0,0,0,0,0,0,0,-1,909,1030,0,0
-308,-6,0,0,0,0,0,0,0,0,0,-1,916,1030,0,0
-301,-6,0,0,0,0,0,0,0,0,0,-1,923,1030,0,0
-294,-6,0,0,0,0,0,0,0,0,0,-1,930,1030,0,0
-287,-6,0,0,0,0,0,0,0,0,0,-1,937,1030,0,0
-280,-6,0,0,0,0,0,0,0,0,0,-1,944,1030,0,0
-273,-6,0,0,0,0,0,0,0,0,0,-1,951,1030,0,0
-266,-6,0,0,0,0,0,0,0,0,0,-1,958,1030,0,0
-259,-6,0,0,0,0,0,0,0,0,0,-1,965,1030,0,0
-252,-6,0,0,0,0,0,0,0,0,0,-1,972,1030,0,0
-245,-6,0,0,0,0,0,0,0,0,0,-1,979,1030,0,0
-238,-6,0,0,0,0,0,0,0,0,0,-1,986,1030,0,0
-231,-6,0,0,0,0,0,0,0,0,0,-1,993,1030,0,0
-224,-6,0,0,0,0,0,0,0,0,0,-1,1000,1030,0,0
-217,-6,0,0,0,0,0,0,0,0,0,-1,1007,1030,0,0
-210,-6,0,0,0,0,0,0,0,0,0,-1,1014,1030,0,0
-203,-6,0,0,0,0,0,0,0,0,0,-1,1021,1030,0,0
-196,-6,0,0,0,0,0,0,0,0,0,-1,1028,1030,0,0
-189,-6,0,0,0,0,0,0,0,0,0,-1,1035,1030,0,0
-182,-6,0,0,0,0,0,0,0,0,0,-1,1042,1030,0,0
-175,-6,0,0,0,0,0,0,0,0,0,-1,1049,1030,0,0
-168,-6,0,0,0,0,0,0,0,0,0,-1,1056,1030,0,0
-161,-6,0,0,0,0,0,0,0,0,0,-1,1063,1030,0,0
-154,-6,0,0,0,0,0,0,0,0,0,-1,1070,1030,0,0
-147,-6,0,0,0,0,0,0,0,0,0,-1,1077,1030,0,0
-140,-6,0,0,0,0,0,0,0,0,0,-1,1084,1030,0,0
-133,-6,0,0,0,0,0,0,0,0,0,-1,1091,1030,0,0
-126,-6,0,0,0,0,0,0,0,0,0,-1,1098,1030,0,0
-119,-6,0,0,0,0,0,0,0,0,0,-1,1105,1030,0,0
-112,-6,0,0,0,0,0,0,0,0,0,-1,1112,1030,0,0
-105,-6,0,0,0,0,0,0,0,0,0,-1,1119,1030,0,0
-98,-6,0,0,0,0,0,0,0,0,0,-1,1126,1030,0,0
-91,-6,0,0,0,0,0,0,0,0,0,-1,1133,1030,0,0
-84,-6,0,0,0,0,0,0,0,0,0,-1,1140,1030,0,0
-77,-6,0,0,0,0,0,0,0,0,0,-1,1147,1030,0,0
-70,-6,0,0,0,0,0,0,0,0,0,-1,1154,1030,0,0
-63,-6,0,0,0,0,0,0,0,0,0,-1,1161,1030,0,0
-56,-6,0,0,0,0,0,0,0,0,0,-1,1168,1030,0,0
-49,-6,0,0,0,0,0,0,0,0,0,-1,1175,1030,0,0
-42,-6,0,0,0,0,0,0,0,0,0,-1,1182,1030,0,0
-35,-6,0,0,0,0,0,0,0,0,0,-1,1189,1030,0,0
-28,-6,0,0,0,0,0,0,0,0,0,-1,1196,1030,0,0
-21,-6,0,0,0,0,0,0,0,0,0,-1,1203,1030,0,0
-14,-6,0,0,0,0,0,0,0,0,0,-1,1210,1030,0,0
-7,-6,0,0,0,0,0,0,0,0,0,-1,1217,1030,0,0
0,-6,0,0,0,0,0,0,0,0,0,-1,1224,1030,0,0
7,-6,0,0,0,0,0,0,0,0,0,-1,1231,1030,0,0
14,-6,0,0,0,0,0,0,0,0,0,-1,1238,1030,0,0
21,-6,0,0,0,0,0,0,0,0,0,-1,1245,1030,0,0
28,-6,0,0,0,0,0,0,0,0,0,-1,1252,1030,0,0
35,-6,0,0,0,0,0,0,0,0,0,-1,1259,1030,0,0
42,-6,0,0,0,0,0,0,0,0,0,-1,1266,1030,0,0
49,-6,0,0,0,0,0,0,0,0,0,-1,1273,1030,0,0
56,-6,0,0,0,0,0,0,0,0,0,-1,1280,1030,0,0
63,-6,0,0,0,0,0,0,0,0,0,-1,1287,1030,0,0
70,-6,0,0,0,0,0,0,0,0,0,-1,1294,1030,0,0
77,-6,0,0,0,0,0,0,0,0,0,-1,1301,1030,0,0
84,-6,0,0,0,0,0,0,0,0,0,-1,1308,1030,0,0
91,-6,0,0,0,0,0,0,0,0,0,-1,1315,1030,0,0
98,-6,0,0,0,0,0,0,0,0,0,-1,1322,1030,0,0
105,-6,0,0,0,0,0,0,0,0,0,-1,1329,1030,0,0
112,-6,0,0,0,0,0,0,0,0,0,-1,1336,1030,0,0
119,-6,0,0,0,0,0,0,0,0,0,-1,1343,1030,0,0
126,-6,0,0,0,0,0,0,0,0,0,-1,1350,1030,0,0
133,-6,0,0,0,0,0,0,0,0,0,-1,1357,1030,0,0
140,-6,0,0,0,0,0,0,0,0,0,-1,1364,1030,0,0
147,-6,0,0,0,0,0,0,0,0,0,-1,1371,1030,0,0
154,-6,0,0,0,0,0,0,0,0,0,-1,1378,1030,0,0
161,-6,0,0,0,0,0,0,0,0,0,-1,1385,1030,0,0
168,-6,0,0,0,0,0,0,0,0,0,-1,1392,1030,0,0
175,-6,0,0,0,0,0,0,0,0,0,-1,1399,1030,0,0
182,-6,0,0,0,0,0,0,0,0,0,-1,1406,1030,0,0
189,-6,0,0,0,0,0,0,0,0,0,-1,1413,1030,0,0
196,-6,0,0,0,0,0,0,0,0,0,-1,1420,1030,0,0
203,-6,0,0,0,0,0,0,0,0,0,-1,1427,1030,0,0
210,-6,0,0,0,0,0,0,0,0,0,-1,1434,1030,0,0
217,-6,0,0,0,0,0,0,0,0,0,-1,1441,1030,0,0
224,-6,0,0,0,0,0,0,0,0,0,-1,1448,1030,0,0
231,-6,0,0,0,0,0,0,0,0,0,-1,1455,1030,0,0
238,-6,0,0,0,0,0,0,0,0,0,-1,1462,1030,0,0
245,-6,0,0,0,0,0,0,0,0,0,-1,1469,1030,0,0
252,-6,0,0,0,0,0,0,0,0,0,-1,1476,1030,0,0
259,-6,0,0,0,0,0,0,0,0,0,-1,1483,1030,0,0
266,-6,0,0,0,0,0,0,0,0,0,-1,1490,1030,0,0
273,-6,0,0,0,0,0,0,0,0,0,-1,1497,1030,0,0
280,-6,0,0,0,0,0,0,0,0,0,-1,1504,1030,0,0
287,-6,0,0,0,0,0,0,0,0,0,-1,1511,1030,0,0
294,-6,0,0,0,0,0,0,0,0,0,-1,1518,1030,0,0
301,-6,0,0,0,0,0,0,0,0,0,-1,1525,1030,0,0
308,-6,0,0,0,0,0,0,0,0,0,-1,1532,1030,0,0
315,-6,0,0,0,0,0,0,0,0,0,-1,1539,1030,0,0
322,-6,0,0,0,0,0,0,0,0,0,-1,1546,1030,0,0
329,-6,0,0,0,0,0,0,0,0,0,-1,1553,1030,0,0
336,-6,0,0,0,0,0,0,0,0,0,-1,1560,1030,0,0
343,-6,0,0,0,0,0,0,0,0,0,-1,1567,1030,0,0
350,-6,0,0,0,0,0,0,0,0,0,-1,1574,1030,0,0
357,-6,0,0,0,0,0,0,0,0,0,-1,1581,1030,0,0
364,-6,0,0,0,0,0,0,0,0,0,-1,1588,1030,0,0
371,-6,0,0,0,0,0,0,0,0,0,-1,1595,1030,0,0
378,-6,0,0,0,0,0,0,0,0,0,-1,1602,1030,0,0
385,-6,0,0,0,0,0,0,0,0,0,-1,1609,1030,0,0
392,-6,0,0,0,0,0,0,0,0,0,-1,1616,1030,0,0
399,-6,0,0,0,0,0,0,0,0,0,-1,1623,1030,0,0
406,-6,0,0,0,0,0,0,0,0,0,-1,1630,1030,0,0
413,-6,0,0,0,0,0,0,0,0,0,-1,1637,1030,0,0
420,-6,0,0,0,0,0,0,0,0,0,-1,1644,1030,0,0
427,-6,0,0,0,0,0,0,0,0,0,-1,1651,1030,0,0
434,-6,0,0,0,0,0,0,0,0,0,-1,1658,1030,0,0
441,-6,0,0,0,0,0,0,0,0,0,-1,1665,1030,0,0
448,-6,0,0,0,0,0,0,0,0,0,-1,1672,1030,0,0
455,-6,0,0,0,0,0,0,0,0,0,-1,1679,1030,0,0
462,-6,0,0,0,0,0,0,0,0,0,-1,1686,1030,0,0
469,-6,0,0,0,0,0,0,0,0,0,-1,1693,1030,0,0
476,-6,0,0,0,0,0,0,0,0,0,-1,1700,1030,0,0
483,-6,0,0,0,0,0,0,0,0,0,-1,1707,1030,0,0
490,-6,0,0,0,0,0,0,0,0,0,-1,1714,1030,0,0
497,-6,0,0,0,0,0,0,0,0,0,-1,1721,1030,0,0
504,-6,0,0,0,0,0,0,0,0,0,-1,1728,1030,0,0
511,-6,0,0,0,0,0,0,0,0,0,-1,1735,1030,0,0
518,-6,0,0,0,0,0,0,0,0,0,-1,1742,1030,0,0
525,-6,0,0,0,0,0,0,0,0,0,-1,1749,1030,0,0
532,-6,0,0,0,0,0,0,0,0,0,-1,1756,1030,0,0
539,-6,0,0,0,0,0,0,0,0,0,-1,1763,1030,0,0
546,-6,0,0,0,0,0,0,0,0,0,-1,1770,1030,0,0
553,-6,0,0,0,0,0,0,0,0,0,-1,1777,1030,0,0
560,-6,0,0,0,0,0,0,0,0,0,-1,1784,1030,0,0
567,-6,0,0,0,0,0,0,0,0,0,-1,1791,1030,0,0
574,-6,0,0,0,0,0,0,0,0,0,-1,1798,1030,0,0
581,-6,0,0,0,0,0,0,0,0,0,-1,1805,1030,0,0
588,-6,0,0,0,0,0,0,0,0,0,-1,1812,1030,0,0
595,-6,0,0,0,0,0,0,0,0,0,-1,1819,1030,0,0
602,-6,0,0,0,0,0,0,0,0,0,-1,1826,1030,0,0
609,-6,0,0,0,0,0,0,0,0,0,-1,1833,1030,0,0
616,-6,0,0,0,0,0,0,0,0,0,-1,1840,1030,0,0
623,-6,0,0,0,0,0,0,0,0,0,-1,1847,1030,0,0
630,-6,0,0,0,0,0,0,0,0,0,-1,1854,1030,0,0
637,-6,0,0,0,0,0,0,0,0,0,-1,1861,1030,0,0
644,-6,0,0,0,0,0,0,0,0,0,-1,1868,1030,0,0
651,-6,53.0067,2.86353,0.00127644,0.000392541,0.000468171,0.00147831,0.000190671,0.4071,0.000928533,0.0398932,1875,1030,53.0067,-2.86347
658,-6,53.1815,2.67346,0.000732538,0.00113384,2.76704e-05,0.00113574,0.000730639,1.50228,0.000664638,0.0430058,1882,1030,53.1815,-2.67348
665,-6,53.1844,2.57178,0.00038908,0.00155287,-7.37489e-05,0.00155752,0.000384425,-1.50776,0.000936877,0.0447927,1889,1030,53.1844,-2.57178
672,-6,53.1599,2.55518,0.000199359,0.00183969,0.000145455,0.00185249,0.00018656,1.48303,0.00117774,0.0396791,1896,1030,53.1599,-2.55521
679,-6,53.0139,2.50574,0.000163846,0.00206445,0.000565978,0.00222022,8.07177e-06,1.30222,0.00147746,0.0386106,1903,1030,53.0139,-2.50573
686,-6,52.7806,2.7113,6.28777e-06,0.00196461,0.00109349,0.00245326,-0.000482365,1.15054,0.00181776,0.0366761,1910,1030,52.7806,-2.71131
693,-6,52.9563,2.57434,-0.000133982,0.00171357,0.00163155,0.00266471,-0.00108512,1.04299,0.00222808,0.0366905,1917,1030,52.9563,-2.57438
700,-6,53.0145,2.6178,-0.000146889,0.00147748,0.00204031,0.00286132,-0.00153073,0.974818,0.00257425,0.0328481,1924,1030,53.0145,-2.61779
707,-6,52.9685,2.59399,-0.000561436,0.00153367,0.00224051,0.00295943,-0.00198719,1.00407,0.00287426,0.0265995,1931,1030,52.9685,-2.59401
714,-6,52.9895,2.57886,-0.00132973,0.00190359,0.00233522,0.00312715,-0.00255329,1.08817,0.00328518,0.0292723,1938,1030,52.9895,-2.57884
721,-6,53.0099,2.54822,0,0,0,0,0,0,0,-1,1945,1030,53.0099,-2.54817
728,-6,52.5836,6.1452,0,0,0,0,0,0,0,-1,1952,1030,52.5836,-6.14519
735,-6,52.7271,5.99622,0,0,0,0,0,0,0,-1,1959,1030,52.727,-5.99624
742,-6,52.8705,5.84729,0,0,0,0,0,0,0,-1,1966,1030,52.8704,-5.84729
749,-6,52.8564,5.91748,0,0,0,0,0,0,0,-1,1973,1030,52.8564,-5.91751
756,-6,52.8752,5.96594,-0.00745395,0.0100617,0.0021522,0.0103223,-0.00771452,1.45031,0.0104498,0.0257887,1980,1030,52.8753,-5.96597
763,-6,52.7749,5.8479,-0.00818271,0.0135222,0.00172346,0.0136582,-0.0083187,1.49205,0.0128126,0.0189809,1987,1030,52.7749,-5.84789
770,-6,52.6958,5.79163,-0.00844983,0.0180025,0.00159642,0.0180985,-0.00854583,1.51074,0.0157092,0.016314,1994,1030,52.6958,-5.79161
777,-6,52.561,5.77759,-0.00777516,0.0239221,0.0018261,0.024027,-0.00788001,1.51344,0.0191917,0.0184047,2001,1030,52.5609,-5.77759
784,-6,52.4509,5.67126,-0.00631388,0.0304344,0.00207826,0.0305516,-0.00643104,1.51448,0.0228155,0.0443109,2008,1030,52.4508,-5.67128
791,-6,52.3647,5.56018,0,0,0,0,0,0,0,-1,2015,1030,52.3648,-5.5602
798,-6,52.8027,5.35217,0,0,0,0,0,0,0,-1,2022,1030,52.8028,-5.35212
805,-6,51.0264,1.67712,0,0,0,0,0,0,0,-1,2029,1030,51.0264,-1.67713
812,-6,52.2251,6.52917,0,0,0,0,0,0,0,-1,2036,1030,52.2251,-6.52918
-700,-13,0,0,0,0,0,0,0,0,0,-1,524,1037,0,0
-693,-13,-40.0828,2.75171,0,0,0,0,0,0,0,-1,531,1037,-40.0828,-2.75165
-686,-13,-40.1225,2.37256,0,0,0,0,0,0,0,-1,538,1037,-40.1225,-2.37252
-679,-13,-40.1622,1.99341,0,0,0,0,0,0,0,-1,545,1037,-40.1622,-1.99338
-672,-13,-40.7474,1.56921,0,0,0,0,0,0,0,-1,552,1037,-40.7474,-1.56919
-665,-13,-40.5117,1.76172,0,0,0,0,0,0,0,-1,559,1037,-40.5117,-1.76166
-658,-13,-40.256,2.05615,0.0273758,0.0200545,0.000447235,0.0274031,0.0200273,0.060785,0.0163736,0.0494669,566,1037,-40.256,-2.05615
-651,-13,-39.9725,2.36902,0.0216741,0.0178001,0.000439822,0.0217234,0.0177508,0.111641,0.0133565,0.0435604,573,1037,-39.9725,-2.36906
-644,-13,-39.6628,2.80798,0.016467,0.0154347,0.000149048,0.0164881,0.0154136,0.140563,0.010652,0.032922,580,1037,-39.6628,-2.80799
-637,-13,-39.7576,3.01465,0.0113241,0.0126039,-0.000387954,0.0127123,0.0112157,-1.29828,0.00802265,0.0254535,587,1037,-39.7576,-3.01465
-630,-13,-39.9034,3.06042,0.0071044,0.00927923,-0.000793145,0.00953775,0.00684588,-1.25571,0.00567805,0.0165271,594,1037,-39.9034,-3.06044
-623,-13,-39.9376,3.20569,0.00400354,0.00594642,-0.00132904,0.0066212,0.00332876,-1.10099,0.00382277,0.0140174,601,1037,-39.9376,-3.20572
-616,-13,-39.9277,3.35425,0.00205597,0.00355657,-0.00187295,0.00482391,0.000788623,-0.975908,0.00298796,0.0137139,608,1037,-39.9277,-3.35421
-609,-13,-39.8983,3.49353,0.000913167,0.0016418,-0.00267318,0.00397538,-0.00142041,-0.853124,0.00322958,0.0188621,615,1037,-39.8983,-3.49356
-602,-13,-39.8712,3.59033,0.000185296,0.000276522,-0.00332224,0.00355346,-0.00309164,-0.792262,0.00383964,0.0133374,622,1037,-39.8712,-3.59029
-595,-13,-39.9042,3.68677,0,0,0,0,0,0,0,-1,629,1037,-39.9042,-3.68676
-588,-13,-39.5305,1.71301,0,0,0,0,0,0,0,-1,636,1037,-39.5305,-1.71307
-581,-13,-39.5711,0.700562,0.000991812,-0.00219037,-0.00335511,0.00311399,-0.00431255,-0.563989,0.00430629,0.0238875,643,1037,-39.5711,-0.700551
-574,-13,-39.5917,0.7854,0.00109494,-0.00235516,-0.0029922,0.00282373,-0.00408396,-0.523912,0.00401022,0.0332104,650,1037,-39.5917,-0.78544
-567,-13,-39.7592,0.738647,0.000898,-0.00208662,-0.00229438,0.00214269,-0.00333131,-0.497063,0.00318515,0.0393976,657,1037,-39.7592,-0.738591
-560,-13,-39.7231,0.524048,0.000527636,-0.00145673,-0.00126216,0.0011409,-0.00207,-0.452294,0.00187951,0.0404763,664,1037,-39.7231,-0.524028
-553,-13,-39.6041,0.669434,-8.12993e-06,-0.000649131,7.07908e-05,-4.05009e-07,-0.000656856,0.108693,0.000437769,0.0387005,671,1037,-39.6041,-0.669395
-546,-13,-39.6248,0.953003,-0.00058817,1.75559e-05,0.00160586,0.00134886,-0.00191948,0.878603,0.00189654,0.0371706,678,1037,-39.6247,-0.953019
-539,-13,-39.6734,1.37134,-0.00120227,0.000202349,0.00293473,0.00251763,-0.00351755,0.902844,0.00350032,0.0384988,685,1037,-39.6734,-1.37135
-532,-13,-39.6289,1.21509,-0.00140224,0.000386527,0.00347037,0.00307591,-0.00409163,0.911514,0.00415201,0.0412459,692,1037,-39.6289,-1.21509
-525,-13,0,0,0,0,0,0,0,0,0,-1,699,1037,0,0
-518,-13,0,0,0,0,0,0,0,0,0,-1,706,1037,0,0
-511,-13,0,0,0,0,0,0,0,0,0,-1,713,1037,0,0
-504,-13,0,0,0,0,0,0,0,0,0,-1,720,1037,0,0
-497,-13,0,0,0,0,0,0,0,0,0,-1,727,1037,0,0
-490,-13,0,0,0,0,0,0,0,0,0,-1,734,1037,0,0
-483,-13,0,0,0,0,0,0,0,0,0,-1,741,1037,0,0
-476,-13,0,0,0,0,0,0,0,0,0,-1,748,1037,0,0
-469,-13,0,0,0,0,0,0,0,0,0,-1,755,1037,0,0
-462,-13,0,0,0,0,0,0,0,0,0,-1,762,1037,0,0
-455,-13,0,0,0,0,0,0,0,0,0,-1,769,1037,0,0
-448,-13,0,0,0,0,0,0,0,0,0,-1,776,1037,0,0
-441,-13,0,0,0,0,0,0,0,0,0,-1,783,1037,0,0
-434,-13,0,0,0,0,0,0,0,0,0,-1,790,1037,0,0
-427,-13,0,0,0,0,0,0,0,0,0,-1,797,1037,0,0
-420,-13,0,0,0,0,0,0,0,0,0,-1,804,1037,0,0
-413,-13,0,0,0,0,0,0,0,0,0,-1,811,1037,0,0
-406,-13,0,0,0,0,0,0,0,0,0,-1,818,1037,0,0
-399,-13,0,0,0,0,0,0,0,0,0,-1,825,1037,0,0
-392,-13,0,0,0,0,0,0,0,0,0,-1,832,1037,0,0
-385,-13,0,0,0,0,0,0,0,0,0,-1,839,1037,0,0
-378,-13,0,0,0,0,0,0,0,0,0,-1,846,1037,0,0
-371,-13,0,0,0,0,0,0,0,0,0,-1,853,1037,0,0
-364,-13,0,0,0,0,0,0,0,0,0,-1,860,1037,0,0
-357,-13,0,0,0,0,0,0,0,0,0,-1,867,1037,0,0
-350,-13,0,0,0,0,0,0,0,0,0,-1,874,1037,0,0
-343,-13,0,0,0,0,0,0,0,0,0,-1,881,1037,0,0
-336,-13,0,0,0,0,0,0,0,0,0,-1,888,1037,0,0
-329,-13,0,0,0,0,0,0,0,0,0,-1,895,1037,0,0
-322,-13,0,0,0,0,0,0,0,0,0,-1,902,1037,0,0
-315,-13,0,0,0,0,0,0,0,0,0,-1,909,1037,0,0
-308,-13,0,0,0,0,0,0,0,0,0,-1,916,1037,0,0
-301,-13,0,0,0,0,0,0,0,0,0,-1,923,1037,0,0
-294,-13,0,0,0,0,0,0,0,0,0,-1,930,1037,0,0
-287,-13,0,0,0,0,0,0,0,0,0,-1,937,1037,0,0
-280,-13,0,0,0,0,0,0,0,0,0,-1,944,1037,0,0
-273,-13,0,0,0,0,0,0,0,0,0,-1,951,1037,0,0
-266,-13,0,0,0,0,0,0,0,0,0,-1,958,1037,0,0
-259,-13,0,0,0,0,0,0,0,0,0,-1,965,1037,0,0
-252,-13,0,0,0,0,0,0,0,0,0,-1,972,1037,0,0
-245,-13,0,0,0,0,0,0,0,0,0,-1,979,1037,0,0
-238,-13,0,0,0,0,0,0,0,0,0,-1,986,1037,0,0
-231,-13,0,0,0,0,0,0,0,0,0,-1,993,1037,0,0
-224,-13,0,0,0,0,0,0,0,0,0,-1,1000,1037,0,0
-217,-13,0,0,0,0,0,0,0,0,0,-1,1007,1037,0,0
-210,-13,0,0,0,0,0,0,0,0,0,-1,1014,1037,0,0
-203,-13,0,0,0,0,0,0,0,0,0,-1,1021,1037,0,0
-196,-13,0,0,0,0,0,0,0,0,0,-1,1028,1037,0,0
-189,-13,0,0,0,0,0,0,0,0,0,-1,1035,1037,0,0
-182,-13,0,0,0,0,0,0,0,0,0,-1,1042,1037,0,0
-175,-13,0,0,0,0,0,0,0,0,0,-1,1049,1037,0,0
-168,-13,0,0,0,0,0,0,0,0,0,-1,1056,1037,0,0
-161,-13,0,0,0,0,0,0,0,0,0,-1,1063,1037,0,0
-154,-13,0,0,0,0,0,0,0,0,0,-1,1070,1037,0,0
-147,-13,0,0,0,0,0,0,0,0,0,-1,1077,1037,0,0
-140,-13,0,0,0,0,0,0,0,0,0,-1,1084,1037,0,0
-133,-13,0,0,0,0,0,0,0,0,0,-1,1091,1037,0,0
-126,-13,0,0,0,0,0,0,0,0,0,-1,1098,1037,0,0
-119,-13,0,0,0,0,0,0,0,0,0,-1,1105,1037,0,0
-112,-13,0,0,0,0,0,0,0,0,0,-1,1112,1037,0,0
-105,-13,0,0,0,0,0,0,0,0,0,-1,1119,1037,0,0
-98,-13,0,0,0,0,0,0,0,0,0,-1,1126,1037,0,0
-91,-13,0,0,0,0,0,0,0,0,0,-1,1133,1037,0,0
-84,-13,0,0,0,0,0,0,0,0,0,-1,1140,1037,0,0
-77,-13,0,0,0,0,0,0,0,0,0,-1,1147,1037,0,0
-70,-13,0,0,0,0,0,0,0,0,0,-1,1154,1037,0,0
-63,-13,0,0,0,0,0,0,0,0,0,-1,1161,1037,0,0
-56,-13,0,0,0,0,0,0,0,0,0,-1,1168,1037,0,0
-49,-13,0,0,0,0,0,0,0,0,0,-1,1175,1037,0,0
-42,-13,0,0,0,0,0,0,0,0,0,-1,1182,1037,0,0
-35,-13,0,0,0,0,0,0,0,0,0,-1,1189,1037,0,0
-28,-13,0,0,0,0,0,0,0,0,0,-1,1196,1037,0,0
-21,-13,0,0,0,0,0,0,0,0,0,-1,1203,1037,0,0
-14,-13,0,0,0,0,0,0,0,0,0,-1,1210,1037,0,0
-7,-13,0,0,0,0,0,0,0,0,0,-1,1217,1037,0,0
0,-13,0,0,0,0,0,0,0,0,0,-1,1224,1037,0,0
7,-13,0,0,0,0,0,0,0,0,0,-1,1231,1037,0,0
14,-13,0,0,0,0,0,0,0,0,0,-1,1238,1037,0,0
21,-13,0,0,0,0,0,0,0,0,0,-1,1245,1037,0,0
28,-13,0,0,0,0,0,0,0,0,0,-1,1252,1037,0,0
35,-13,0,0,0,0,0,0,0,0,0,-1,1259,1037,0,0
42,-13,0,0,0,0,0,0,0,0,0,-1,1266,1037,0,0
49,-13,0,0,0,0,0,0,0,0,0,-1,1273,1037,0,0
56,-13,0,0,0,0,0,0,0,0,0,-1,1280,1037,0,0
63,-13,0,0,0,0,0,0,0,0,0,-1,1287,1037,0,0
70,-13,0,0,0,0,0,0,0,0,0,-1,1294,1037,0,0
77,-13,0,0,0,0,0,0,0,0,0,-1,1301,1037,0,0
84,-13,0,0,0,0,0,0,0,0,0,-1,1308,1037,0,0
91,-13,0,0,0,0,0,0,0,0,0,-1,1315,1037,0,0
98,-13,0,0,0,0,0,0,0,0,0,-1,1322,1037,0,0
105,-13,0,0,0,0,0,0,0,0,0,-1,1329,1037,0,0
112,-13,0,0,0,0,0,0,0,0,0,-1,1336,1037,0,0
119,-13,0,0,0,0,0,0,0,0,0,-1,1343,1037,0,0
126,-13,0,0,0,0,0,0,0,0,0,-1,1350,1037,0,0
133,-13,0,0,0,0,0,0,0,0,0,-1,1357,1037,0,0
140,-13,0,0,0,0,0,0,0,0,0,-1,1364,1037,0,0
147,-13,0,0,0,0,0,0,0,0,0,-1,1371,1037,0,0
154,-13,0,0,0,0,0,0,0,0,0,-1,1378,1037,0,0
161,-13,0,0,0,0,0,0,0,0,0,-1,1385,1037,0,0
168,-13,0,0,0,0,0,0,0,0,0,-1,1392,1037,0,0
175,-13,0,0,0,0,0,0,0,0,0,-1,1399,1037,0,0
182,-13,0,0,0,0,0,0,0,0,0,-1,1406,1037,0,0
189,-13,0,0,0,0,0,0,0,0,0,-1,1413,1037,0,0
196,-13,0,0,0,0,0,0,0,0,0,-1,1420,1037,0,0
203,-13,0,0,0,0,0,0,0,0,0,-1,1427,1037,0,0
210,-13,0,0,0,0,0,0,0,0,0,-1,1434,1037,0,0
217,-13,0,0,0,0,0,0,0,0,0,-1,1441,1037,0,0
224,-13,0,0,0,0,0,0,0,0,0,-1,1448,1037,0,0
231,-13,0,0,0,0,0,0,0,0,0,-1,1455,1037,0,0
238,-13,0,0,0,0,0,0,0,0,0,-1,1462,1037,0,0
245,-13,0,0,0,0,0,0,0,0,0,-1,1469,1037,0,0
252,-13,0,0,0,0,0,0,0,0,0,-1,1476,1037,0,0
259,-13,0,0,0,0,0,0,0,0,0,-1,1483,1037,0,0
266,-13,0,0,0,0,0,0,0,0,0,-1,1490,1037,0,0
273,-13,0,0,0,0,0,0,0,0,0,-1,1497,1037,0,0
280,-13,0,0,0,0,0,0,0,0,0,-1,1504,1037,0,0
287,-13,0,0,0,0,0,0,0,0,0,-1,1511,1037,0,0
294,-13,0,0,0,0,0,0,0,0,0,-1,1518,1037,0,0
301,-13,0,0,0,0,0,0,0,0,0,-1,1525,1037,0,0
308,-13,0,0,0,0,0,0,0,0,0,-1,1532,1037,0,0
315,-13,0,0,0,0,0,0,0,0,0,-1,1539,1037,0,0
322,-13,0,0,0,0,0,0,0,0,0,-1,1546,1037,0,0
329,-13,0,0,0,0,0,0,0,0,0,-1,1553,1037,0,0
336,-13,0,0,0,0,0,0,0,0,0,-1,1560,1037,0,0
343,-13,0,0,0,0,0,0,0,0,0,-1,1567,1037,0,0
350,-13,0,0,0,0,0,0,0,0,0,-1,1574,1037,0,0
357,-13,0,0,0,0,0,0,0,0,0,-1,1581,1037,0,0
364,-13,0,0,0,0,0,0,0,0,0,-1,1588,1037,0,0
371,-13,0,0,0,0,0,0,0,0,0,-1,1595,1037,0,0
378,-13,0,0,0,0,0,0,0,0,0,-1,1602,1037,0,0
385,-13,0,0,0,0,0,0,0,0,0,-1,1609,1037,0,0
392,-13,0,0,0,0,0,0,0,0,0,-1,1616,1037,0,0
399,-13,0,0,0,0,0,0,0,0,0,-1,1623,1037,0,0
406,-13,0,0,0,0,0,0,0,0,0,-1,1630,1037,0,0
413,-13,0,0,0,0,0,0,0,0,0,-1,1637,1037,0,0
420,-13,0,0,0,0,0,0,0,0,0,-1,1644,1037,0,0
427,-13,0,0,0,0,0,0,0,0,0,-1,1651,1037,0,0
434,-13,0,0,0,0,0,0,0,0,0,-1,1658,1037,0,0
441,-13,0,0,0,0,0,0,0,0,0,-1,1665,1037,0,0
448,-13,0,0,0,0,0,0,0,0,0,-1,1672,1037,0,0
455,-13,0,0,0,0,0,0,0,0,0,-1,1679,1037,0,0
462,-13,0,0,0,0,0,0,0,0,0,-1,1686,1037,0,0
469,-13,0,0,0,0,0,0,0,0,0,-1,1693,1037,0,0
476,-13,0,0,0,0,0,0,0,0,0,-1,1700,1037,0,0
483,-13,0,0,0,0,0,0,0,0,0,-1,1707,1037,0,0
490,-13,0,0,0,0,0,0,0,0,0,-1,1714,1037,0,0
497,-13,0,0,0,0,0,0,0,0,0,-1,1721,1037,0,0
504,-13,0,0,0,0,0,0,0,0,0,-1,1728,1037,0,0
511,-13,0,0,0,0,0,0,0,0,0,-1,1735,1037,0,0
518,-13,0,0,0,0,0,0,0,0,0,-1,1742,1037,0,0
525,-13,0,0,0,0,0,0,0,0,0,-1,1749,1037,0,0
532,-13,0,0,0,0,0,0,0,0,0,-1,1756,1037,0,0
539,-13,0,0,0,0,0,0,0,0,0,-1,1763,1037,0,0
546,-13,0,0,0,0,0,0,0,0,0,-1,1770,1037,0,0
553,-13,0,0,0,0,0,0,0,0,0,-1,1777,1037,0,0
560,-13,0,0,0,0,0,0,0,0,0,-1,1784,1037,0,0
567,-13,0,0,0,0,0,0,0,0,0,-1,1791,1037,0,0
574,-13,0,0,0,0,0,0,0,0,0,-1,1798,1037,0,0
581,-13,0,0,0,0,0,0,0,0,0,-1,1805,1037,0,0
588,-13,0,0,0,0,0,0,0,0,0,-1,1812,1037,0,0
595,-13,0,0,0,0,0,0,0,0,0,-1,1819,1037,0,0
602,-13,0,0,0,0,0,0,0,0,0,-1,1826,1037,0,0
609,-13,0,0,0,0,0,0,0,0,0,-1,1833,1037,0,0
616,-13,0,0,0,0,0,0,0,0,0,-1,1840,1037,0,0
623,-13,0,0,0,0,0,0,0,0,0,-1,1847,1037,0,0
630,-13,0,0,0,0,0,0,0,0,0,-1,1854,1037,0,0
637,-13,0,0,0,0,0,0,0,0,0,-1,1861,1037,0,0
644,-13,0,0,0,0,0,0,0,0,0,-1,1868,1037,0,0
651,-13,52.9556,2.7439,0.00212952,0.000892268,-4.12294e-05,0.00213089,0.000890895,-0.0332741,0.00123576,0.038216,1875,1037,52.9556,-2.74391
658,-13,53.0334,2.78015,0.00127833,0.00164887,-0.000360085,0.00186855,0.00105865,-1.02299,0.00108199,0.0454511,1882,1037,53.0334,-2.78017
665,-13,53.2218,2.89624,0.00074032,0.00202717,-0.000356036,0.00211911,0.000648383,-1.31809,0.0012538,0.047742,1889,1037,53.2218,-2.89622
672,-13,53.1448,2.59924,0.000438625,0.00223906,-5.01334e-05,0.00224045,0.00043723,-1.54298,0.00137133,0.0371656,1896,1037,53.1448,-2.59926
679,-13,53.0585,2.53186,0.000331206,0.00236401,0.000434004,0.00245279,0.000242424,1.36901,0.00156067,0.0366565,1903,1037,53.0584,-2.53184
686,-13,52.9087,2.47559,0.000100211,0.00216294,0.00100676,0.00257285,-0.000309703,1.18413,0.00182724,0.040899,1910,1037,52.9087,-2.47559
693,-13,52.9231,2.40198,-8.71152e-05,0.00181495,0.00157768,0.00270607,-0.000978238,1.05664,0.00220373,0.0406326,1917,1037,52.9231,-2.40194
700,-13,52.9796,2.40442,-0.000147285,0.00150833,0.00203729,0.00287957,-0.00151853,0.978373,0.00257945,0.0367287,1924,1037,52.9796,-2.40447
707,-13,53.0127,2.57507,-0.000585746,0.00149097,0.00228076,0.00295861,-0.00205339,0.999012,0.00290937,0.0306809,1931,1037,53.0127,-2.57508
714,-13,52.9965,2.78137,-0.00134743,0.00178624,0.00241757,0.00310031,-0.0026615,1.07292,0.00332979,0.0289423,1938,1037,52.9964,-2.7814
721,-13,52.8693,2.96106,0,0,0,0,0,0,0,-1,1945,1037,52.8693,-2.96111
728,-13,52.8617,6.19995,0,0,0,0,0,0,0,-1,1952,1037,52.8617,-6.19997
735,-13,52.7683,6.17322,-0.00431178,0.0043238,0.00231307,0.00490434,-0.00489232,1.32489,0.0056561,0.0303374,1959,1037,52.7684,-6.17321
742,-13,52.7405,6.1145,-0.0052468,0.00539237,0.00234805,0.00588754,-0.00574197,1.36296,0.00671448,0.0192102,1966,1037,52.7405,-6.11448
749,-13,52.7947,6.0105,-0.00659693,0.00715296,0.0024123,0.00756389,-0.00700787,1.40207,0.00841505,0.0253619,1973,1037,52.7946,-6.01054
756,-13,52.7903,5.91162,-0.0077287,0.009779,0.00228557,0.0100725,-0.00802216,1.4431,0.0104693,0.0183188,1980,1037,52.7902,-5.91156
763,-13,52.7496,5.80249,-0.00856937,0.0133124,0.00177066,0.0134548,-0.00871172,1.49057,0.0128951,0.0250715,1987,1037,52.7497,-5.80249
770,-13,52.6456,5.73572,-0.00906684,0.0178703,0.00147566,0.0179509,-0.00914744,1.51623,0.0159181,0.0209364,1994,1037,52.6457,-5.73574
777,-13,52.488,5.62122,-0.00871766,0.0240482,0.00140765,0.0241086,-0.00877802,1.52794,0.0196627,0.0157661,2001,1037,52.4879,-5.6212
784,-13,52.4846,5.50476,-0.00775275,0.0308384,0.00127177,0.0308802,-0.00779462,1.53789,0.0236177,0.0356464,2008,1037,52.4847,-5.5048
791,-13,52.6875,5.14453,-0.00604626,0.0386573,0.00101763,0.0386804,-0.00606942,1.54805,0.02803,0.0491842,2015,1037,52.6875,-5.14453
798,-13,52.6367,4.73523,0,0,0,0,0,0,0,-1,2022,1037,52.6367,-4.73525
805,-13,52.5662,6.61792,0,0,0,0,0,0,0,-1,2029,1037,52.5661,-6.61793
812,-13,52.4451,6.02795,0,0,0,0,0,0,0,-1,2036,1037,52.445,-6.02797
-700,-20,-39.6822,2.4187,0,0,0,0,0,0,0,-1,524,1044,-39.6822,-2.41876
-693,-20,-40.2667,2.61426,0,0,0,0,0,0,0,-1,531,1044,-40.2666,-2.61424
-686,-20,-40.2745,2.29016,0,0,0,0,0,0,0,-1,538,1044,-40.2745,-2.29011
-679,-20,-40.7024,1.89343,0,0,0,0,0,0,0,-1,545,1044,-40.7024,-1.89338
-672,-20,-40.6673,1.64868,0.0321201,0.0253423,0.000650244,0.0321819,0.0252805,0.0947859,0.0195642,0.0472434,552,1044,-40.6673,-1.64873
-665,-20,-40.5781,1.6322,0.0290121,0.0237404,0.000321737,0.0290317,0.0237209,0.0607308,0.0178495,0.0462979,559,1044,-40.5781,-1.63218
-658,-20,-40.2313,1.94763,0.0246721,0.0215127,0.000316601,0.0247035,0.0214812,0.0988971,0.0155069,0.049253,566,1044,-40.2312,-1.94765
-651,-20,-39.7872,2.30042,0.0199021,0.01878,0.000335767,0.0199949,0.0186872,0.269651,0.0129161,0.0424023,573,1044,-39.7872,-2.30045
-644,-20,-39.5258,2.59351,0.0155029,0.0160321,5.51775e-06,0.0160322,0.0155028,1.56037,0.0105161,0.0283223,580,1044,-39.5258,-2.59353
-637,-20,-39.6066,2.7489,0.0109588,0.0127829,-0.000457038,0.012891,0.0108507,-1.33853,0.00800107,0.0197971,587,1044,-39.6066,-2.74885
-630,-20,-39.7245,2.979,0.00704419,0.00911984,-0.000751184,0.00936317,0.00680086,-1.25753,0.00558741,0.0167519,594,1044,-39.7245,-2.97899
-623,-20,-39.7527,3.18396,0.00406209,0.00574348,-0.00116612,0.00634036,0.00346522,-1.09772,0.00366589,0.0151494,601,1044,-39.7527,-3.184
-616,-20,-39.742,3.33594,0.00216253,0.00332446,-0.00162988,0.00447382,0.00101316,-0.956601,0.00270874,0.0150235,608,1044,-39.742,-3.33591
-609,-20,-39.7697,3.47021,0.000984923,0.00143101,-0.00236925,0.00358769,-0.00117175,-0.832331,0.00286344,0.0165444,615,1044,-39.7696,-3.47024
-602,-20,-39.7484,3.60706,0.000123613,3.66911e-05,-0.00294389,0.00302436,-0.00286406,-0.778017,0.0034001,0.0142078,622,1044,-39.7483,-3.60703
-595,-20,-39.7293,3.71826,-0.000122363,-0.000949812,-0.00303603,0.002528,-0.00360018,-0.717679,0.00355611,0.0343827,629,1044,-39.7293,-3.71829
-588,-20,-39.5063,0.75647,0,0,0,0,0,0,0,-1,636,1044,-39.5063,-0.756493
-581,-20,-39.5629,0.643921,0.000565232,-0.00208828,-0.00280311,0.00233972,-0.00386277,-0.564362,0.00361682,0.03166,643,1044,-39.5629,-0.643979
-574,-20,-39.5569,0.828247,0.000653226,-0.00217214,-0.00242817,0.00204975,-0.00356867,-0.521937,0.00328307,0.0375205,650,1044,-39.5569,-0.828259
-567,-20,-39.6666,0.783447,0.000447987,-0.00182913,-0.00178328,0.00142518,-0.00280632,-0.501287,0.00248606,0.0431015,657,1044,-39.6666,-0.783439
-560,-20,-39.4517,0.593628,8.57278e-05,-0.0011167,-0.000867241,0.000539769,-0.00157075,-0.482307,0.00126604,0.0434657,664,1044,-39.4517,-0.59359
-553,-20,-39.3689,0.638184,-0.000393795,-0.000202752,0.000280686,-1.77891e-06,-0.000594768,0.949408,0.000395921,0.0413675,671,1044,-39.3689,-0.63823
-546,-20,-39.5111,0.850952,-0.00085183,0.000620533,0.00155408,0.00160398,-0.00183528,1.0066,0.00198715,0.0384775,678,1044,-39.5111,-0.850924
-539,-20,-39.7214,1.23914,-0.00132633,0.000951678,0.00262835,0.00267721,-0.00305186,0.98986,0.00331003,0.0392955,685,1044,-39.7214,-1.23918
-532,-20,-39.8013,1.23254,-0.00145981,0.0012995,0.00313942,0.00334904,-0.00350936,0.992426,0.00396006,0.0403737,692,1044,-39.8013,-1.23259
-525,-20,0,0,0,0,0,0,0,0,0,-1,699,1044,0,0
-518,-20,0,0,0,0,0,0,0,0,0,-1,706,1044,0,0
-511,-20,0,0,0,0,0,0,0,0,0,-1,713,1044,0,0
-504,-20,0,0,0,0,0,0,0,0,0,-1,720,1044,0,0
-497,-20,0,0,0,0,0,0,0,0,0,-1,727,1044,0,0
-490,-20,0,0,0,0,0,0,0,0,0,-1,734,1044,0,0
-483,-20,0,0,0,0,0,0,0,0,0,-1,741,1044,0,0
-476,-20,0,0,0,0,0,0,0,0,0,-1,748,1044,0,0
-469,-20,0,0,0,0,0,0,0,0,0,-1,755,1044,0,0
-462,-20,0,0,0,0,0,0,0,0,0,-1,762,1044,0,0
-455,-20,0,0,0,0,0,0,0,0,0,-1,769,1044,0,0
-448,-20,0,0,0,0,0,0,0,0,0,-1,776,1044,0,0
-441,-20,0,0,0,0,0,0,0,0,0,-1,783,1044,0,0
-434,-20,0,0,0,0,0,0,0,0,0,-1,790,1044,0,0
-427,-20,0,0,0,0,0,0,0,0,0,-1,797,1044,0,0
-420,-20,0,0,0,0,0,0,0,0,0,-1,804,1044,0,0
-413,-20,0,0,0,0,0,0,0,0,0,-1,811,1044,0,0
-406,-20,0,0,0,0,0,0,0,0,0,-1,818,1044,0,0
-399,-20,0,0,0,0,0,0,0,0,0,-1,825,1044,0,0
-392,-20,0,0,0,0,0,0,0,0,0,-1,832,1044,0,0
-385,-20,0,0,0,0,0,0,0,0,0,-1,839,1044,0,0
-378,-20,0,0,0,0,0,0,0,0,0,-1,846,1044,0,0
-371,-20,0,0,0,0,0,0,0,0,0,-1,853,1044,0,0
-364,-20,0,0,0,0,0,0,0,0,0,-1,860,1044,0,0
-357,-20,0,0,0,0,0,0,0,0,0,-1,867,1044,0,0
-350,-20,0,0,0,0,0,0,0,0,0,-1,874,1044,0,0
-343,-20,0,0,0,0,0,0,0,0,0,-1,881,1044,0,0
-336,-20,0,0,0,0,0,0,0,0,0,-1,888,1044,0,0
-329,-20,0,0,0,0,0,0,0,0,0,-1,895,1044,0,0
-322,-20,0,0,0,0,0,0,0,0,0,-1,902,1044,0,0
-315,-20,0,0,0,0,0,0,0,0,0,-1,909,1044,0,0
-308,-20,0,0,0,0,0,0,0,0,0,-1,916,1044,0,0
-301,-20,0,0,0,0,0,0,0,0,0,-1,923,1044,0,0
-294,-20,0,0,0,0,0,0,0,0,0,-1,930,1044,0,0
-287,-20,0,0,0,0,0,0,0,0,0,-1,937,1044,0,0
-280,-20,0,0,0,0,0,0,0,0,0,-1,944,1044,0,0
-273,-20,0,0,0,0,0,0,0,0,0,-1,951,1044,0,0
-266,-20,0,0,0,0,0,0,0,0,0,-1,958,1044,0,0
-259,-20,0,0,0,0,0,0,0,0,0,-1,965,1044,0,0
-252,-20,0,0,0,0,0,0,0,0,0,-1,972,1044,0,0
-245,-20,0,0,0,0,0,0,0,0,0,-1,979,1044,0,0
-238,-20,0,0,0,0,0,0,0,0,0,-1,986,1044,0,0
-231,-20,0,0,0,0,0,0,0,0,0,-1,993,1044,0,0
-224,-20,0,0,0,0,0,0,0,0,0,-1,1000,1044,0,0
-217,-20,0,0,0,0,0,0,0,0,0,-1,1007,1044,0,0
-210,-20,0,0,0,0,0,0,0,0,0,-1,1014,1044,0,0
-203,-20,0,0,0,0,0,0,0,0,0,-1,1021,1044,0,0
-196,-20,0,0,0,0,0,0,0,0,0,-1,1028,1044,0,0
-189,-20,0,0,0,0,0,0,0,0,0,-1,1035,1044,0,0
-182,-20,0,0,0,0,0,0,0,0,0,-1,1042,1044,0,0
-175,-20,0,0,0,0,0,0,0,0,0,-1,1049,1044,0,0
-168,-20,0,0,0,0,0,0,0,0,0,-1,1056,1044,0,0
-161,-20,0,0,0,0,0,0,0,0,0,-1,1063,1044,0,0
-154,-20,0,0,0,0,0,0,0,0,0,-1,1070,1044,0,0
-147,-20,0,0,0,0,0,0,0,0,0,-1,1077,1044,0,0
-140,-20,0,0,0,0,0,0,0,0,0,-1,1084,1044,0,0
-133,-20,0,0,0,0,0,0,0,0,0,-1,1091,1044,0,0
-126,-20,0,0,0,0,0,0,0,0,0,-1,1098,1044,0,0
-119,-20,0,0,0,0,0,0,0,0,0,-1,1105,1044,0,0
-112,-20,0,0,0,0,0,0,0,0,0,-1,1112,1044,0,0
-105,-20,0,0,0,0,0,0,0,0,0,-1,1119,1044,0,0
-98,-20,0,0,0,0,0,0,0,0,0,-1,1126,1044,0,0
-91,-20,0,0,0,0,0,0,0,0,0,-1,1133,1044,0,0
-84,-20,0,0,0,0,0,0,0,0,0,-1,1140,1044,0,0
-77,-20,0,0,0,0,0,0,0,0,0,-1,1147,1044,0,0
-70,-20,0,0,0,0,0,0,0,0,0,-1,1154,1044,0,0
-63,-20,0,0,0,0,0,0,0,0,0,-1,1161,1044,0,0
-56,-20,0,0,0,0,0,0,0,0,0,-1,1168,1044,0,0
-49,-20,0,0,0,0,0,0,0,0,0,-1,1175,1044,0,0
-42,-20,0,0,0,0,0,0,0,0,0,-1,1182,1044,0,0
-35,-20,0,0,0,0,0,0,0,0,0,-1,1189,1044,0,0
-28,-20,0,0,0,0,0,0,0,0,0,-1,1196,1044,0,0
-21,-20,0,0,0,0,0,0,0,0,0,-1,1203,1044,0,0
-14,-20,0,0,0,0,0,0,0,0,0,-1,1210,1044,0,0
-7,-20,0,0,0,0,0,0,0,0,0,-1,1217,1044,0,0
0,-20,0,0,0,0,0,0,0,0,0,-1,1224,1044,0,0
7,-20,0,0,0,0,0,0,0,0,0,-1,1231,1044,0,0
14,-20,0,0,0,0,0,0,0,0,0,-1,1238,1044,0,0
21,-20,0,0,0,0,0,0,0,0,0,-1,1245,1044,0,0
28,-20,0,0,0,0,0,0,0,0,0,-1,1252,1044,0,0
35,-20,0,0,0,0,0,0,0,0,0,-1,1259,1044,0,0
42,-20,0,0,0,0,0,0,0,0,0,-1,1266,1044,0,0
49,-20,0,0,0,0,0,0,0,0,0,-1,1273,1044,0,0
56,-20,0,0,0,0,0,0,0,0,0,-1,1280,1044,0,0
63,-20,0,0,0,0,0,0,0,0,0,-1,1287,1044,0,0
70,-20,0,0,0,0,0,0,0,0,0,-1,1294,1044,0,0
77,-20,0,0,0,0,0,0,0,0,0,-1,1301,1044,0,0
84,-20,0,0,0,0,0,0,0,0,0,-1,1308,1044,0,0
91,-20,0,0,0,0,0,0,0,0,0,-1,1315,1044,0,0
98,-20,0,0,0,0,0,0,0,0,0,-1,1322,1044,0,0
105,-20,0,0,0,0,0,0,0,0,0,-1,1329,1044,0,0
112,-20,0,0,0,0,0,0,0,0,0,-1,1336,1044,0,0
119,-20,0,0,0,0,0,0,0,0,0,-1,1343,1044,0,0
126,-20,0,0,0,0,0,0,0,0,0,-1,1350,1044,0,0
133,-20,0,0,0,0,0,0,0,0,0,-1,1357,1044,0,0
140,-20,0,0,0,0,0,0,0,0,0,-1,1364,1044,0,0
147,-20,0,0,0,0,0,0,0,0,0,-1,1371,1044,0,0
154,-20,0,0,0,0,0,0,0,0,0,-1,1378,1044,0,0
161,-20,0,0,0,0,0,0,0,0,0,-1,1385,1044,0,0
168,-20,0,0,0,0,0,0,0,0,0,-1,1392,1044,0,0
175,-20,0,0,0,0,0,0,0,0,0,-1,1399,1044,0,0
182,-20,0,0,0,0,0,0,0,0,0,-1,1406,1044,0,0
189,-20,0,0,0,0,0,0,0,0,0,-1,1413,1044,0,0
196,-20,0,0,0,0,0,0,0,0,0,-1,1420,1044,0,0
203,-20,0,0,0,0,0,0,0,0,0,-1,1427,1044,0,0
210,-20,0,0,0,0,0,0,0,0,0,-1,1434,1044,0,0
217,-20,0,0,0,0,0,0,0,0,0,-1,1441,1044,0,0
224,-20,0,0,0,0,0,0,0,0,0,-1,1448,1044,0,0
231,-20,0,0,0,0,0,0,0,0,0,-1,1455,1044,0,0
238,-20,0,0,0,0,0,0,0,0,0,-1,1462,1044,0,0
245,-20,0,0,0,0,0,0,0,0,0,-1,1469,1044,0,0
252,-20,0,0,0,0,0,0,0,0,0,-1,1476,1044,0,0
259,-20,0,0,0,0,0,0,0,0,0,-1,1483,1044,0,0
266,-20,0,0,0,0,0,0,0,0,0,-1,1490,1044,0,0
273,-20,0,0,0,0,0,0,0,0,0,-1,1497,1044,0,0
280,-20,0,0,0,0,0,0,0,0,0,-1,1504,1044,0,0
287,-20,0,0,0,0,0,0,0,0,0,-1,1511,1044,0,0
294,-20,0,0,0,0,0,0,0,0,0,-1,1518,1044,0,0
301,-20,0,0,0,0,0,0,0,0,0,-1,1525,1044,0,0
308,-20,0,0,0,0,0,0,0,0,0,-1,1532,1044,0,0
315,-20,0,0,0,0,0,0,0,0,0,-1,1539,1044,0,0
322,-20,0,0,0,0,0,0,0,0,0,-1,1546,1044,0,0
329,-20,0,0,0,0,0,0,0,0,0,-1,1553,1044,0,0
336,-20,0,0,0,0,0,0,0,0,0,-1,1560,1044,0,0
343,-20,0,0,0,0,0,0,0,0,0,-1,1567,1044,0,0
350,-20,0,0,0,0,0,0,0,0,0,-1,1574,1044,0,0
357,-20,0,0,0,0,0,0,0,0,0,-1,1581,1044,0,0
364,-20,0,0,0,0,0,0,0,0,0,-1,1588,1044,0,0
371,-20,0,0,0,0,0,0,0,0,0,-1,1595,1044,0,0
378,-20,0,0,0,0,0,0,0,0,0,-1,1602,1044,0,0
385,-20,0,0,0,0,0,0,0,0,0,-1,1609,1044,0,0
392,-20,0,0,0,0,0,0,0,0,0,-1,1616,1044,0,0
399,-20,0,0,0,0,0,0,0,0,0,-1,1623,1044,0,0
406,-20,0,0,0,0,0,0,0,0,0,-1,1630,1044,0,0
413,-20,0,0,0,0,0,0,0,0,0,-1,1637,1044,0,0
420,-20,0,0,0,0,0,0,0,0,0,-1,1644,1044,0,0
427,-20,0,0,0,0,0,0,0,0,0,-1,1651,1044,0,0
434,-20,0,0,0,0,0,0,0,0,0,-1,1658,1044,0,0
441,-20,0,0,0,0,0,0,0,0,0,-1,1665,1044,0,0
448,-20,0,0,0,0,0,0,0,0,0,-1,1672,1044,0,0
455,-20,0,0,0,0,0,0,0,0,0,-1,1679,1044,0,0
462,-20,0,0,0,0,0,0,0,0,0,-1,1686,1044,0,0
469,-20,0,0,0,0,0,0,0,0,0,-1,1693,1044,0,0
476,-20,0,0,0,0,0,0,0,0,0,-1,1700,1044,0,0
483,-20,0,0,0,0,0,0,0,0,0,-1,1707,1044,0,0
490,-20,0,0,0,0,0,0,0,0,0,-1,1714,1044,0,0
497,-20,0,0,0,0,0,0,0,0,0,-1,1721,1044,0,0
504,-20,0,0,0,0,0,0,0,0,0,-1,1728,1044,0,0
511,-20,0,0,0,0,0,0,0,0,0,-1,1735,1044,0,0
518,-20,0,0,0,0,0,0,0,0,0,-1,1742,1044,0,0
525,-20,0,0,0,0,0,0,0,0,0,-1,1749,1044,0,0
532,-20,0,0,0,0,0,0,0,0,0,-1,1756,1044,0,0
539,-20,0,0,0,0,0,0,0,0,0,-1,1763,1044,0,0
546,-20,0,0,0,0,0,0,0,0,0,-1,1770,1044,0,0
553,-20,0,0,0,0,0,0,0,0,0,-1,1777,1044,0,0
560,-20,0,0,0,0,0,0,0,0,0,-1,1784,1044,0,0
567,-20,0,0,0,0,0,0,0,0,0,-1,1791,1044,0,0
574,-20,0,0,0,0,0,0,0,0,0,-1,1798,1044,0,0
581,-20,0,0,0,0,0,0,0,0,0,-1,1805,1044,0,0
588,-20,0,0,0,0,0,0,0,0,0,-1,1812,1044,0,0
595,-20,0,0,0,0,0,0,0,0,0,-1,1819,1044,0,0
602,-20,0,0,0,0,0,0,0,0,0,-1,1826,1044,0,0
609,-20,0,0,0,0,0,0,0,0,0,-1,1833,1044,0,0
616,-20,0,0,0,0,0,0,0,0,0,-1,1840,1044,0,0
623,-20,0,0,0,0,0,0,0,0,0,-1,1847,1044,0,0
630,-20,0,0,0,0,0,0,0,0,0,-1,1854,1044,0,0
637,-20,0,0,0,0,0,0,0,0,0,-1,1861,1044,0,0
644,-20,0,0,0,0,0,0,0,0,0,-1,1868,1044,0,0
651,-20,52.9199,2.59131,0.00312234,0.0014355,-0.000529141,0.00327458,0.00128325,-0.280153,0.00190526,0.0377558,1875,1044,52.9199,-2.59126
658,-20,52.8683,2.76111,0.00197976,0.00205047,-0.000746413,0.00276237,0.00126787,-0.809066,0.00159664,0.0430955,1882,1044,52.8683,-2.76109
665,-20,53.0415,2.82471,0.0012391,0.00230901,-0.000656384,0.00262082,0.000927285,-1.12731,0.00153454,0.0436414,1889,1044,53.0415,-2.8247
672,-20,53.1154,2.65039,0.000806003,0.0024248,-0.000295814,0.00247716,0.00075364,-1.3956,0.00146627,0.0265473,1896,1044,53.1154,-2.65035
679,-20,53.0504,2.51453,0.000595808,0.00246382,0.000219105,0.00248917,0.000570453,1.45559,0.00150576,0.0284835,1903,1044,53.0504,-2.5145
686,-20,53.0148,2.42334,0.000272046,0.00219636,0.000819194,0.00249785,-2.94531e-05,1.21814,0.00167514,0.0399521,1910,1044,53.0148,-2.4233
693,-20,52.8771,2.43091,1.07046e-05,0.00180435,0.00140517,0.0025745,-0.000759441,1.06943,0.0020177,0.0421519,1917,1044,52.8771,-2.43096
700,-20,52.8824,2.42346,-0.000112198,0.00147744,0.00189851,0.00274079,-0.00137555,0.98364,0.00241975,0.0352358,1924,1044,52.8824,-2.42344
707,-20,53.0026,2.55811,-0.000563476,0.00142576,0.00217879,0.00282622,-0.00196394,0.999521,0.00278049,0.0280542,1931,1044,53.0025,-2.55816
714,-20,53.0201,2.80408,-0.0013189,0.00167586,0.0023684,0.00298053,-0.00262357,1.06729,0.00323771,0.0253937,1938,1044,53.0201,-2.80403
721,-20,52.8856,2.8645,0,0,0,0,0,0,0,-1,1945,1044,52.8857,-2.86449
728,-20,53.1086,6.21729,0,0,0,0,0,0,0,-1,1952,1044,53.1086,-6.21727
735,-20,52.8148,6.17151,-0.00424313,0.0039583,0.00237233,0.00459508,-0.00487991,1.30856,0.00547121,0.0303049,1959,1044,52.8148,-6.17152
742,-20,52.6088,6.0365,-0.00516395,0.0049726,0.00237541,0.00550164,-0.00569299,1.35166,0.00646354,0.0241675,1966,1044,52.6087,-6.03655
749,-20,52.6877,5.95239,-0.00646328,0.0066895,0.00243092,0.00712441,-0.00689818,1.39376,0.0080963,0.0258032,1973,1044,52.6878,-5.95234
756,-20,52.6793,5.85876,-0.00767617,0.00920475,0.00229,0.00950989,-0.00798131,1.43833,0.0101114,0.0180542,1980,1044,52.6794,-5.85875
763,-20,52.6021,5.76062,-0.00855271,0.0126496,0.00170313,0.0127855,-0.00868865,1.49115,0.0124731,0.0261363,1987,1044,52.602,-5.76056
770,-20,52.5261,5.72913,-0.00917601,0.0170725,0.0012688,0.0171337,-0.0092372,1.52261,0.0154511,0.0226958,1994,1044,52.5262,-5.72909
777,-20,52.4111,5.51086,-0.00905136,0.0231783,0.000917982,0.0232044,-0.00907749,1.54234,0.0192236,0.0151663,2001,1044,52.4112,-5.51085
784,-20,52.3857,5.41931,-0.00849186,0.0298858,0.000450262,0.0298911,-0.00849714,1.55907,0.0232825,0.0205316,2008,1044,52.3857,-5.41927
791,-20,52.5085,5.22388,-0.00745846,0.0375826,-0.000176951,0.0375833,-0.00745915,-1.56687,0.0278766,0.0393992,2015,1044,52.5085,-5.22391
798,-20,52.6111,5.01868,0,0,0,0,0,0,0,-1,2022,1044,52.6111,-5.01862
805,-20,52.5334,6.23071,-0.00253096,0.0564799,-0.00268447,0.0566018,-0.00265283,-1.52543,0.0386492,0.0426027,2029,1044,52.5335,-6.23073
812,-20,52.4663,5.78601,0.00134481,0.068099,-0.00518277,0.068499,0.000944816,-1.49377,0.0453544,0.044897,2036,1044,52.4663,-5.78597
-700,-27,-40.1004,1.84949,-0.00939619,0.0235435,0.0153824,0.0296097,-0.0154624,1.19516,0.0264462,0.049323,524,1051,-40.1004,-1.84951
-693,-27,-40.408,2.17383,0.00934158,0.0287877,0.00796446,0.0316333,0.00649601,1.22765,0.0192916,0.0450044,531,1051,-40.408,-2.1738
-686,-27,-40.6313,2.08521,0.0211747,0.0305451,0.00383624,0.0319153,0.0198045,1.22775,0.0186039,0.0435618,538,1051,-40.6314,-2.08524
-679,-27,-40.6641,1.60205,0.02609,0.0303243,0.00172087,0.0309354,0.0254789,1.22954,0.0190668,0.0465505,545,1051,-40.6641,-1.60211
-672,-27,-40.5471,1.35864,0.0268829,0.0288249,0.000827098,0.0291295,0.0265784,1.21803,0.0186276,0.0439948,552,1051,-40.5471,-1.35869
-665,-27,-40.5317,1.25134,0.0251374,0.0264622,0.000572993,0.0266757,0.024924,1.21422,0.0172296,0.042687,559,1051,-40.5317,-1.2513
-658,-27,-40.1385,1.66553,0.0219352,0.0234935,0.000578408,0.0236847,0.021744,1.2515,0.0151843,0.0448869,566,1051,-40.1385,-1.66557
-651,-27,-39.2994,2.26892,0.0180708,0.0201038,0.000561779,0.0202487,0.0179259,1.31836,0.0127954,0.0361012,573,1051,-39.2994,-2.26891
-644,-27,-39.3386,2.4707,0.0144316,0.0168528,0.000131007,0.0168599,0.0144245,1.5169,0.0105225,0.0181386,580,1051,-39.3386,-2.47076
-637,-27,-39.4119,2.61646,0.0105323,0.0130508,-0.00031586,0.0130898,0.0104933,-1.44791,0.00800268,0.0155519,587,1051,-39.4119,-2.61651
-630,-27,-39.5147,2.95337,0.00689884,0.00902678,-0.000614388,0.00919143,0.00673419,-1.30896,0.00549484,0.0203064,594,1051,-39.5147,-2.95336
-623,-27,-39.5333,3.19592,0.00405339,0.00559766,-0.00100766,0.006095,0.00355605,-1.11231,0.00353524,0.0180498,601,1051,-39.5333,-3.19595
-616,-27,-39.4986,3.39307,0.00222725,0.00314072,-0.00144002,0.0041947,0.00117327,-0.938966,0.00249894,0.0154306,608,1051,-39.4986,-3.39309
-609,-27,-39.5124,3.55286,0.00104878,0.00128752,-0.00213028,0.00330177,-0.000965468,-0.813386,0.00258384,0.0147324,615,1051,-39.5124,-3.55281
-602,-27,-39.4882,3.72864,0.000129392,-9.8495e-05,-0.00267104,0.00268892,-0.00265802,-0.764082,0.00308707,0.013156,622,1051,-39.4882,-3.72867
-595,-27,-39.5291,3.88855,-0.000200069,-0.000950207,-0.00272892,0.00217944,-0.00332971,-0.717105,0.00320374,0.0166571,629,1051,-39.5291,-3.88861
-588,-27,-39.5359,0.732056,0,0,0,0,0,0,0,-1,636,1051,-39.5359,-0.732001
-581,-27,-39.5158,0.716919,0.000310882,-0.00179244,-0.00243907,0.00191536,-0.00339691,-0.581855,0.00310654,0.0252591,643,1051,-39.5158,-0.716887
-574,-27,-39.5268,0.738647,0.000359689,-0.00175964,-0.00207457,0.00162956,-0.00302951,-0.549278,0.00273009,0.0359451,650,1051,-39.5268,-0.738644
-567,-27,-39.288,0.653564,0.000144515,-0.00132012,-0.00149419,0.0010762,-0.0022518,-0.557546,0.00196097,0.0438336,657,1051,-39.288,-0.653593
-560,-27,-39.1508,0.579102,-0.000223979,-0.00052267,-0.000694562,0.000337112,-0.00108376,-0.6795,0.000857265,0.0475429,664,1051,-39.1508,-0.579141
-553,-27,-39.1672,0.629395,-0.000676829,0.00047161,0.000284644,0.000538288,-0.000743507,1.34069,0.0007432,0.0440297,671,1051,-39.1672,-0.62938
-546,-27,-39.4567,0.857178,-0.00107019,0.00138806,0.00132609,0.00196704,-0.00164918,1.15913,0.00209051,0.0421201,678,1051,-39.4567,-0.857128
-539,-27,-39.5895,0.999634,-0.00149768,0.00179951,0.00215233,0.00286208,-0.00256025,1.11222,0.0031322,0.0417548,685,1051,-39.5895,-0.999647
-532,-27,-39.6861,1.00684,-0.0017052,0.00225672,0.00260905,0.00355163,-0.00300011,1.1101,0.00378711,0.0404646,692,1051,-39.6861,-1.00682
-525,-27,0,0,0,0,0,0,0,0,0,-1,699,1051,0,0
-518,-27,0,0,0,0,0,0,0,0,0,-1,706,1051,0,0
-511,-27,0,0,0,0,0,0,0,0,0,-1,713,1051,0,0
-504,-27,0,0,0,0,0,0,0,0,0,-1,720,1051,0,0
-497,-27,0,0,0,0,0,0,0,0,0,-1,727,1051,0,0
-490,-27,0,0,0,0,0,0,0,0,0,-1,734,1051,0,0
-483,-27,0,0,0,0,0,0,0,0,0,-1,741,1051,0,0
-476,-27,0,0,0,0,0,0,0,0,0,-1,748,1051,0,0
-469,-27,0,0,0,0,0,0,0,0,0,-1,755,1051,0,0
-462,-27,0,0,0,0,0,0,0,0,0,-1,762,1051,0,0
-455,-27,0,0,0,0,0,0,0,0,0,-1,769,1051,0,0
-448,-27,0,0,0,0,0,0,0,0,0,-1,776,1051,0,0
-441,-27,0,0,0,0,0,0,0,0,0,-1,783,1051,0,0
-434,-27,0,0,0,0,0,0,0,0,0,-1,790,1051,0,0
-427,-27,0,0,0,0,0,0,0,0,0,-1,797,1051,0,0
-420,-27,0,0,0,0,0,0,0,0,0,-1,804,1051,0,0
-413,-27,0,0,0,0,0,0,0,0,0,-1,811,1051,0,0
-406,-27,0,0,0,0,0,0,0,0,0,-1,818,1051,0,0
-399,-27,0,0,0,0,0,0,0,0,0,-1,825,1051,0,0
-392,-27,0,0,0,0,0,0,0,0,0,-1,832,1051,0,0
-385,-27,0,0,0,0,0,0,0,0,0,-1,839,1051,0,0
-378,-27,0,0,0,0,0,0,0,0,0,-1,846,1051,0,0
-371,-27,0,0,0,0,0,0,0,0,0,-1,853,1051,0,0
-364,-27,0,0,0,0,0,0,0,0,0,-1,860,1051,0,0
-357,-27,0,0,0,0,0,0,0,0,0,-1,867,1051,0,0
-350,-27,0,0,0,0,0,0,0,0,0,-1,874,1051,0,0
-343,-27,0,0,0,0,0,0,0,0,0,-1,881,1051,0,0
-336,-27,0,0,0,0,0,0,0,0,0,-1,888,1051,0,0
-329,-27,0,0,0,0,0,0,0,0,0,-1,895,1051,0,0
-322,-27,0,0,0,0,0,0,0,0,0,-1,902,1051,0,0
-315,-27,0,0,0,0,0,0,0,0,0,-1,909,1051,0,0
-308,-27,0,0,0,0,0,0,0,0,0,-1,916,1051,0,0
-301,-27,0,0,0,0,0,0,0,0,0,-1,923,1051,0,0
-294,-27,0,0,0,0,0,0,0,0,0,-1,930,1051,0,0
-287,-27,0,0,0,0,0,0,0,0,0,-1,937,1051,0,0
-280,-27,0,0,0,0,0,0,0,0,0,-1,944,1051,0,0
-273,-27,0,0,0,0,0,0,0,0,0,-1,951,1051,0,0
-266,-27,0,0,0,0,0,0,0,0,0,-1,958,1051,0,0
-259,-27,0,0,0,0,0,0,0,0,0,-1,965,1051,0,0
-252,-27,0,0,0,0,0,0,0,0,0,-1,972,1051,0,0
-245,-27,0,0,0,0,0,0,0,0,0,-1,979,1051,0,0
-238,-27,0,0,0,0,0,0,0,0,0,-1,986,1051,0,0
-231,-27,0,0,0,0,0,0,0,0,0,-1,993,1051,0,0
-224,-27,0,0,0,0,0,0,0,0,0,-1,1000,1051,0,0
-217,-27,0,0,0,0,0,0,0,0,0,-1,1007,1051,0,0
-210,-27,0,0,0,0,0,0,0,0,0,-1,1014,1051,0,0
-203,-27,0,0,0,0,0,0,0,0,0,-1,1021,1051,0,0
-196,-27,0,0,0,0,0,0,0,0,0,-1,1028,1051,0,0
-189,-27,0,0,0,0,0,0,0,0,0,-1,1035,1051,0,0
-182,-27,0,0,0,0,0,0,0,0,0,-1,1042,1051,0,0
-175,-27,0,0,0,0,0,0,0,0,0,-1,1049,1051,0,0
-168,-27,0,0,0,0,0,0,0,0,0,-1,1056,1051,0,0
-161,-27,0,0,0,0,0,0,0,0,0,-1,1063,1051,0,0
-154,-27,0,0,0,0,0,0,0,0,0,-1,1070,1051,0,0
-147,-27,0,0,0,0,0,0,0,0,0,-1,1077,1051,0,0
-140,-27,0,0,0,0,0,0,0,0,0,-1,1084,1051,0,0
-133,-27,0,0,0,0,0,0,0,0,0,-1,1091,1051,0,0
-126,-27,0,0,0,0,0,0,0,0,0,-1,1098,1051,0,0
-119,-27,0,0,0,0,0,0,0,0,0,-1,1105,1051,0,0
-112,-27,0,0,0,0,0,0,0,0,0,-1,1112,1051,0,0
-105,-27,0,0,0,0,0,0,0,0,0,-1,1119,1051,0,0
-98,-27,0,0,0,0,0,0,0,0,0,-1,1126,1051,0,0
-91,-27,0,0,0,0,0,0,0,0,0,-1,1133,1051,0,0
-84,-27,0,0,0,0,0,0,0,0,0,-1,1140,1051,0,0
-77,-27,0,0,0,0,0,0,0,0,0,-1,1147,1051,0,0
-70,-27,0,0,0,0,0,0,0,0,0,-1,1154,1051,0,0
-63,-27,0,0,0,0,0,0,0,0,0,-1,1161,1051,0,0
-56,-27,0,0,0,0,0,0,0,0,0,-1,1168,1051,0,0
-49,-27,0,0,0,0,0,0,0,0,0,-1,1175,1051,0,0
-42,-27,0,0,0,0,0,0,0,0,0,-1,1182,1051,0,0
-35,-27,0,0,0,0,0,0,0,0,0,-1,1189,1051,0,0
-28,-27,0,0,0,0,0,0,0,0,0,-1,1196,1051,0,0
-21,-27,0,0,0,0,0,0,0,0,0,-1,1203,1051,0,0
-14,-27,0,0,0,0,0,0,0,0,0,-1,1210,1051,0,0
-7,-27,0,0,0,0,0,0,0,0,0,-1,1217,1051,0,0
0,-27,0,0,0,0,0,0,0,0,0,-1,1224,1051,0,0
7,-27,0,0,0,0,0,0,0,0,0,-1,1231,1051,0,0
14,-27,0,0,0,0,0,0,0,0,0,-1,1238,1051,0,0
21,-27,0,0,0,0,0,0,0,0,0,-1,1245,1051,0,0
28,-27,0,0,0,0,0,0,0,0,0,-1,1252,1051,0,0
35,-27,0,0,0,0,0,0,0,0,0,-1,1259,1051,0,0
42,-27,0,0,0,0,0,0,0,0,0,-1,1266,1051,0,0
49,-27,0,0,0,0,0,0,0,0,0,-1,1273,1051,0,0
56,-27,0,0,0,0,0,0,0,0,0,-1,1280,1051,0,0
63,-27,0,0,0,0,0,0,0,0,0,-1,1287,1051,0,0
70,-27,0,0,0,0,0,0,0,0,0,-1,1294,1051,0,0
77,-27,0,0,0,0,0,0,0,0,0,-1,1301,1051,0,0
84,-27,0,0,0,0,0,0,0,0,0,-1,1308,1051,0,0
91,-27,0,0,0,0,0,0,0,0,0,-1,1315,1051,0,0
98,-27,0,0,0,0,0,0,0,0,0,-1,1322,1051,0,0
105,-27,0,0,0,0,0,0,0,0,0,-1,1329,1051,0,0
112,-27,0,0,0,0,0,0,0,0,0,-1,1336,1051,0,0
119,-27,0,0,0,0,0,0,0,0,0,-1,1343,1051,0,0
126,-27,0,0,0,0,0,0,0,0,0,-1,1350,1051,0,0
133,-27,0,0,0,0,0,0,0,0,0,-1,1357,1051,0,0
140,-27,0,0,0,0,0,0,0,0,0,-1,1364,1051,0,0
147,-27,0,0,0,0,0,0,0,0,0,-1,1371,1051,0,0
154,-27,0,0,0,0,0,0,0,0,0,-1,1378,1051,0,0
161,-27,0,0,0,0,0,0,0,0,0,-1,1385,1051,0,0
168,-27,0,0,0,0,0,0,0,0,0,-1,1392,1051,0,0
175,-27,0,0,0,0,0,0,0,0,0,-1,1399,1051,0,0
182,-27,0,0,0,0,0,0,0,0,0,-1,1406,1051,0,0
189,-27,0,0,0,0,0,0,0,0,0,-1,1413,1051,0,0
196,-27,0,0,0,0,0,0,0,0,0,-1,1420,1051,0,0
203,-27,0,0,0,0,0,0,0,0,0,-1,1427,1051,0,0
210,-27,0,0,0,0,0,0,0,0,0,-1,1434,1051,0,0
217,-27,0,0,0,0,0,0,0,0,0,-1,1441,1051,0,0
224,-27,0,0,0,0,0,0,0,0,0,-1,1448,1051,0,0
231,-27,0,0,0,0,0,0,0,0,0,-1,1455,1051,0,0
238,-27,0,0,0,0,0,0,0,0,0,-1,1462,1051,0,0
245,-27,0,0,0,0,0,0,0,0,0,-1,1469,1051,0,0
252,-27,0,0,0,0,0,0,0,0,0,-1,1476,1051,0,0
259,-27,0,0,0,0,0,0,0,0,0,-1,1483,1051,0,0
266,-27,0,0,0,0,0,0,0,0,0,-1,1490,1051,0,0
273,-27,0,0,0,0,0,0,0,0,0,-1,1497,1051,0,0
280,-27,0,0,0,0,0,0,0,0,0,-1,1504,1051,0,0
287,-27,0,0,0,0,0,0,0,0,0,-1,1511,1051,0,0
294,-27,0,0,0,0,0,0,0,0,0,-1,1518,1051,0,0
301,-27,0,0,0,0,0,0,0,0,0,-1,1525,1051,0,0
308,-27,0,0,0,0,0,0,0,0,0,-1,1532,1051,0,0
315,-27,0,0,0,0,0,0,0,0,0,-1,1539,1051,0,0
322,-27,0,0,0,0,0,0,0,0,0,-1,1546,1051,0,0
329,-27,0,0,0,0,0,0,0,0,0,-1,1553,1051,0,0
336,-27,0,0,0,0,0,0,0,0,0,-1,1560,1051,0,0
343,-27,0,0,0,0,0,0,0,0,0,-1,1567,1051,0,0
350,-27,0,0,0,0,0,0,0,0,0,-1,1574,1051,0,0
357,-27,0,0,0,0,0,0,0,0,0,-1,1581,1051,0,0
364,-27,0,0,0,0,0,0,0,0,0,-1,1588,1051,0,0
371,-27,0,0,0,0,0,0,0,0,0,-1,1595,1051,0,0
378,-27,0,0,0,0,0,0,0,0,0,-1,1602,1051,0,0
385,-27,0,0,0,0,0,0,0,0,0,-1,1609,1051,0,0
392,-27,0,0,0,0,0,0,0,0,0,-1,1616,1051,0,0
399,-27,0,0,0,0,0,0,0,0,0,-1,1623,1051,0,0
406,-27,0,0,0,0,0,0,0,0,0,-1,1630,1051,0,0
413,-27,0,0,0,0,0,0,0,0,0,-1,1637,1051,0,0
420,-27,0,0,0,0,0,0,0,0,0,-1,1644,1051,0,0
427,-27,0,0,0,0,0,0,0,0,0,-1,1651,1051,0,0
434,-27,0,0,0,0,0,0,0,0,0,-1,1658,1051,0,0
441,-27,0,0,0,0,0,0,0,0,0,-1,1665,1051,0,0
448,-27,0,0,0,0,0,0,0,0,0,-1,1672,1051,0,0
455,-27,0,0,0,0,0,0,0,0,0,-1,1679,1051,0,0
462,-27,0,0,0,0,0,0,0,0,0,-1,1686,1051,0,0
469,-27,0,0,0,0,0,0,0,0,0,-1,1693,1051,0,0
476,-27,0,0,0,0,0,0,0,0,0,-1,1700,1051,0,0
483,-27,0,0,0,0,0,0,0,0,0,-1,1707,1051,0,0
490,-27,0,0,0,0,0,0,0,0,0,-1,1714,1051,0,0
497,-27,0,0,0,0,0,0,0,0,0,-1,1721,1051,0,0
504,-27,0,0,0,0,0,0,0,0,0,-1,1728,1051,0,0
511,-27,0,0,0,0,0,0,0,0,0,-1,1735,1051,0,0
518,-27,0,0,0,0,0,0,0,0,0,-1,1742,1051,0,0
525,-27,0,0,0,0,0,0,0,0,0,-1,1749,1051,0,0
532,-27,0,0,0,0,0,0,0,0,0,-1,1756,1051,0,0
539,-27,0,0,0,0,0,0,0,0,0,-1,1763,1051,0,0
546,-27,0,0,0,0,0,0,0,0,0,-1,1770,1051,0,0
553,-27,0,0,0,0,0,0,0,0,0,-1,1777,1051,0,0
560,-27,0,0,0,0,0,0,0,0,0,-1,1784,1051,0,0
567,-27,0,0,0,0,0,0,0,0,0,-1,1791,1051,0,0
574,-27,0,0,0,0,0,0,0,0,0,-1,1798,1051,0,0
581,-27,0,0,0,0,0,0,0,0,0,-1,1805,1051,0,0
588,-27,0,0,0,0,0,0,0,0,0,-1,1812,1051,0,0
595,-27,0,0,0,0,0,0,0,0,0,-1,1819,1051,0,0
602,-27,0,0,0,0,0,0,0,0,0,-1,1826,1051,0,0
609,-27,0,0,0,0,0,0,0,0,0,-1,1833,1051,0,0
616,-27,0,0,0,0,0,0,0,0,0,-1,1840,1051,0,0
623,-27,0,0,0,0,0,0,0,0,0,-1,1847,1051,0,0
630,-27,0,0,0,0,0,0,0,0,0,-1,1854,1051,0,0
637,-27,0,0,0,0,0,0,0,0,0,-1,1861,1051,0,0
644,-27,0,0,0,0,0,0,0,0,0,-1,1868,1051,0,0
651,-27,53.08,2.80737,0.00386633,0.00144976,-0.00101202,0.00423416,0.00108193,-0.348615,0.00254014,0.0419715,1875,1051,53.08,-2.80739
658,-27,52.845,2.4248,0.00257633,0.00184893,-0.00107235,0.00334498,0.00108029,-0.621904,0.00197117,0.0408686,1882,1051,52.845,-2.42476
665,-27,52.8778,2.48364,0.00170492,0.00198056,-0.000877057,0.00273056,0.00095492,-0.863329,0.00160005,0.0378644,1889,1051,52.8778,-2.48364
672,-27,52.9445,2.59595,0.00116589,0.00201455,-0.000457738,0.00221438,0.000966058,-1.15917,0.00128193,0.0288914,1896,1051,52.9445,-2.59598
679,-27,52.8445,2.48938,0.000849898,0.00199128,8.39961e-05,0.00199743,0.000843749,1.49773,0.00115783,0.0280282,1903,1051,52.8445,-2.48941
686,-27,52.9661,2.47754,0.000458058,0.00170036,0.0007043,0.00201829,0.000140131,1.14677,0.00130133,0.0402934,1910,1051,52.966,-2.4775
693,-27,52.8912,2.51794,0.000153214,0.00131684,0.00129534,0.00215503,-0.000684979,0.996475,0.00171134,0.0420216,1917,1051,52.8912,-2.51795
700,-27,52.8971,2.50366,-1.42103e-06,0.00101418,0.00180261,0.00237914,-0.00136639,0.922692,0.00218868,0.0357561,1924,1051,52.8971,-2.50369
707,-27,52.9452,2.55115,-0.000435916,0.000962491,0.00210766,0.0024839,-0.00195733,0.945558,0.00257014,0.02211,1931,1051,52.9452,-2.5511
714,-27,52.9956,2.67737,-0.00117122,0.00120569,0.00235019,0.00265083,-0.00261636,1.01949,0.00304103,0.019268,1938,1051,52.9956,-2.67741
721,-27,52.963,2.85425,0,0,0,0,0,0,0,-1,1945,1051,52.963,-2.85424
728,-27,53.09,6.31897,0,0,0,0,0,0,0,-1,1952,1051,53.0899,-6.31892
735,-27,52.6422,6.25647,-0.00392329,0.00332273,0.00246495,0.00408175,-0.00468231,1.27209,0.00506389,0.0324805,1959,1051,52.6422,-6.25647
742,-27,52.4653,6.14087,-0.00475018,0.00428895,0.00245302,0.00491173,-0.00537296,1.32216,0.00593986,0.0196123,1966,1051,52.4653,-6.14083
749,-27,52.5267,5.96057,-0.0059317,0.00596655,0.00251639,0.00647686,-0.00644201,1.37072,0.00745872,0.0151203,1973,1051,52.5267,-5.96051
756,-27,52.4998,5.81604,-0.00702857,0.00845201,0.00236537,0.00880536,-0.00738193,1.42251,0.00935777,0.0142924,1980,1051,52.4998,-5.816
763,-27,52.4357,5.65417,-0.00777069,0.0118486,0.00173502,0.0120009,-0.00792295,1.48327,0.0115831,0.0145658,1987,1051,52.4357,-5.65414
770,-27,52.3688,5.50476,-0.00824396,0.0162251,0.00119737,0.0162836,-0.00830242,1.52202,0.0144419,0.0159865,1994,1051,52.3688,-5.50476
777,-27,52.2915,5.44104,-0.00792848,0.0223019,0.000611481,0.0223143,-0.00794084,1.55058,0.018113,0.0178508,2001,1051,52.2915,-5.44101
784,-27,52.2278,5.3927,-0.00716968,0.0290157,-0.000139051,0.0290163,-0.00717021,-1.56695,0.022125,0.0263166,2008,1051,52.2278,-5.39276
791,-27,52.2078,5.24939,-0.00588201,0.0366818,-0.00111327,0.0367109,-0.00591111,-1.54466,0.0266636,0.0434471,2015,1051,52.2078,-5.24944
798,-27,52.2439,5.5885,-0.00383082,0.0455088,-0.00254478,0.0456397,-0.00396172,-1.5194,0.0318293,0.0457573,2022,1051,52.2438,-5.58855
805,-27,52.2405,6.01831,-0.000686215,0.0556436,-0.00458366,0.0560141,-0.00105676,-1.49013,0.0376999,0.045504,2029,1051,52.2406,-6.01834
812,-27,52.2498,6.28296,0.00330669,0.0673444,-0.0076486,0.0682453,0.00240583,-1.45355,0.0447165,0.0460342,2036,1051,52.2497,-6.28299
-700,-34,-40.5984,2.02051,-0.0148884,0.0291742,0.016177,0.0344755,-0.0201897,1.25412,0.0319182,0.0497852,524,1058,-40.5984,-2.02049
-693,-34,-40.7949,1.97498,0.00515186,0.0336994,0.00954386,0.0365961,0.00225514,1.27612,0.0236815,0.046016,531,1058,-40.7949,-1.97494
-686,-34,-40.7744,1.60376,0.017511,0.0347768,0.00575419,0.0365188,0.0157691,1.27684,0.0211494,0.0451508,538,1058,-40.7744,-1.60379
-679,-34,-40.5485,0.953491,0.0231716,0.0337208,0.00365685,0.0348645,0.0220279,1.26769,0.0203608,0.0447098,545,1058,-40.5485,-0.953506
-672,-34,-40.2363,0.709717,0.0246447,0.0313629,0.00261285,0.0322594,0.0237482,1.24025,0.0193051,0.0444294,552,1058,-40.2363,-0.709773
-665,-34,-40.1631,0.539917,0.0234782,0.0282061,0.00211807,0.0290161,0.0226681,1.20549,0.0176136,0.0453099,559,1058,-40.1631,-0.539971
-658,-34,-38.9091,2.19812,0.0207668,0.0245625,0.00183672,0.0253058,0.0200235,1.18628,0.0154145,0.0426415,566,1058,-38.9091,-2.19818
-651,-34,-38.9926,2.22241,0.0173047,0.0206475,0.00153413,0.0212449,0.0167074,1.1995,0.0129191,0.030818,573,1058,-38.9925,-2.22237
-644,-34,-39.1721,2.35132,0.0140246,0.0170316,0.000838467,0.0172496,0.0138066,1.31643,0.0105412,0.0159587,580,1058,-39.1721,-2.35128
-637,-34,-39.2201,2.54614,0.0104791,0.0129285,0.000190702,0.0129432,0.0104643,1.49356,0.00793269,0.0169353,587,1058,-39.2201,-2.54611
-630,-34,-39.2552,2.87732,0.00695166,0.00867418,-0.000282924,0.00871946,0.00690638,-1.4121,0.00531276,0.0180812,594,1058,-39.2552,-2.87732
-623,-34,-39.2516,3.13684,0.00415857,0.00529545,-0.000776147,0.00568906,0.00376497,-1.10146,0.00334141,0.01524,601,1058,-39.2516,-3.13679
-616,-34,-39.2062,3.42639,0.00236862,0.00283909,-0.00124054,0.0038665,0.00134121,-0.879096,0.00226695,0.0222854,608,1058,-39.2063,-3.42645
-609,-34,-39.191,3.64795,0.00120412,0.00105947,-0.00191063,0.0030438,-0.000780205,-0.76648,0.00233316,0.0206341,615,1058,-39.191,-3.64793
-602,-34,-39.212,3.8147,0.000253613,-0.000272927,-0.002456,0.00246041,-0.00247972,-0.732005,0.00285219,0.014905,622,1058,-39.212,-3.8147
-595,-34,-39.3123,3.96411,-0.000120093,-0.00101686,-0.00252542,0.00199644,-0.00313339,-0.69754,0.00298586,0.0172883,629,1058,-39.3123,-3.96413
-588,-34,-39.5621,0.856689,0,0,0,0,0,0,0,-1,636,1058,-39.5621,-0.856713
-581,-34,-39.4894,0.824463,0.000262454,-0.00161042,-0.00219498,0.0017124,-0.00306037,-0.583774,0.00279195,0.0261821,643,1058,-39.4894,-0.824402
-574,-34,-39.5173,0.770142,0.000285975,-0.00147319,-0.00183266,0.0014392,-0.00262642,-0.561659,0.00238041,0.0348379,650,1058,-39.5173,-0.770163
-567,-34,-39.4573,0.589478,7.91264e-05,-0.000942518,-0.00128485,0.000950975,-0.00181437,-0.596192,0.0016223,0.0416764,657,1058,-39.4572,-0.58947
-560,-34,-39.2703,0.540283,-0.000277639,-6.00696e-05,-0.00054557,0.000387455,-0.000725164,-0.883806,0.00065216,0.0434541,664,1058,-39.2703,-0.540315
-553,-34,-39.3259,0.618042,-0.000682398,0.00103277,0.000351293,0.00110193,-0.00075156,1.37641,0.00107647,0.0455341,671,1058,-39.3259,-0.61805
-546,-34,-39.4523,0.712646,-0.000976706,0.00208856,0.00128952,0.00255888,-0.00144703,1.22106,0.00234232,0.0444853,678,1058,-39.4523,-0.712642
-539,-34,-39.4744,0.792358,-0.00125635,0.00267502,0.00201411,0.00352369,-0.00210501,1.17201,0.00328396,0.0423583,685,1058,-39.4744,-0.792373
-532,-34,-39.4493,0.64624,-0.00142751,0.00331237,0.00250037,0.00438749,-0.00250263,1.16471,0.00402733,0.0412312,692,1058,-39.4494,-0.64622
-525,-34,0,0,0,0,0,0,0,0,0,-1,699,1058,0,0
-518,-34,0,0,0,0,0,0,0,0,0,-1,706,1058,0,0
-511,-34,0,0,0,0,0,0,0,0,0,-1,713,1058,0,0
-504,-34,0,0,0,0,0,0,0,0,0,-1,720,1058,0,0
-497,-34,0,0,0,0,0,0,0,0,0,-1,727,1058,0,0
-490,-34,0,0,0,0,0,0,0,0,0,-1,734,1058,0,0
-483,-34,0,0,0,0,0,0,0,0,0,-1,741,1058,0,0
-476,-34,0,0,0,0,0,0,0,0,0,-1,748,1058,0,0
-469,-34,0,0,0,0,0,0,0,0,0,-1,755,1058,0,0
-462,-34,0,0,0,0,0,0,0,0,0,-1,762,1058,0,0
-455,-34,0,0,0,0,0,0,0,0,0,-1,769,1058,0,0
-448,-34,0,0,0,0,0,0,0,0,0,-1,776,1058,0,0
-441,-34,0,0,0,0,0,0,0,0,0,-1,783,1058,0,0
-434,-34,0,0,0,0,0,0,0,0,0,-1,790,1058,0,0
-427,-34,0,0,0,0,0,0,0,0,0,-1,797,1058,0,0
-420,-34,0,0,0,0,0,0,0,0,0,-1,804,1058,0,0
-413,-34,0,0,0,0,0,0,0,0,0,-1,811,1058,0,0
-406,-34,0,0,0,0,0,0,0,0,0,-1,818,1058,0,0
-399,-34,0,0,0,0,0,0,0,0,0,-1,825,1058,0,0
-392,-34,0,0,0,0,0,0,0,0,0,-1,832,1058,0,0
-385,-34,0,0,0,0,0,0,0,0,0,-1,839,1058,0,0
-378,-34,0,0,0,0,0,0,0,0,0,-1,846,1058,0,0
-371,-34,0,0,0,0,0,0,0,0,0,-1,853,1058,0,0
-364,-34,0,0,0,0,0,0,0,0,0,-1,860,1058,0,0
-357,-34,0,0,0,0,0,0,0,0,0,-1,867,1058,0,0
-350,-34,0,0,0,0,0,0,0,0,0,-1,874,1058,0,0
-343,-34,0,0,0,0,0,0,0,0,0,-1,881,1058,0,0
-336,-34,0,0,0,0,0,0,0,0,0,-1,888,1058,0,0
-329,-34,0,0,0,0,0,0,0,0,0,-1,895,1058,0,0
-322,-34,0,0,0,0,0,0,0,0,0,-1,902,1058,0,0
-315,-34,0,0,0,0,0,0,0,0,0,-1,909,1058,0,0
-308,-34,0,0,0,0,0,0,0,0,0,-1,916,1058,0,0
-301,-34,0,0,0,0,0,0,0,0,0,-1,923,1058,0,0
-294,-34,0,0,0,0,0,0,0,0,0,-1,930,1058,0,0
-287,-34,0,0,0,0,0,0,0,0,0,-1,937,1058,0,0
-280,-34,0,0,0,0,0,0,0,0,0,-1,944,1058,0,0
-273,-34,0,0,0,0,0,0,0,0,0,-1,951,1058,0,0
-266,-34,0,0,0,0,0,0,0,0,0,-1,958,1058,0,0
-259,-34,0,0,0,0,0,0,0,0,0,-1,965,1058,0,0
-252,-34,0,0,0,0,0,0,0,0,0,-1,972,1058,0,0
-245,-34,0,0,0,0,0,0,0,0,0,-1,979,1058,0,0
-238,-34,0,0,0,0,0,0,0,0,0,-1,986,1058,0,0
-231,-34,0,0,0,0,0,0,0,0,0,-1,993,1058,0,0
-224,-34,0,0,0,0,0,0,0,0,0,-1,1000,1058,0,0
-217,-34,0,0,0,0,0,0,0,0,0,-1,1007,1058,0,0
-210,-34,0,0,0,0,0,0,0,0,0,-1,1014,1058,0,0
-203,-34,0,0,0,0,0,0,0,0,0,-1,1021,1058,0,0
-196,-34,0,0,0,0,0,0,0,0,0,-1,1028,1058,0,0
-189,-34,0,0,0,0,0,0,0,0,0,-1,1035,1058,0,0
-182,-34,0,0,0,0,0,0,0,0,0,-1,1042,1058,0,0
-175,-34,0,0,0,0,0,0,0,0,0,-1,1049,1058,0,0
-168,-34,0,0,0,0,0,0,0,0,0,-1,1056,1058,0,0
-161,-34,0,0,0,0,0,0,0,0,0,-1,1063,1058,0,0
-154,-34,0,0,0,0,0,0,0,0,0,-1,1070,1058,0,0
-147,-34,0,0,0,0,0,0,0,0,0,-1,1077,1058,0,0
-140,-34,0,0,0,0,0,0,0,0,0,-1,1084,1058,0,0
-133,-34,0,0,0,0,0,0,0,0,0,-1,1091,1058,0,0
-126,-34,0,0,0,0,0,0,0,0,0,-1,1098,1058,0,0
-119,-34,0,0,0,0,0,0,0,0,0,-1,1105,1058,0,0
-112,-34,0,0,0,0,0,0,0,0,0,-1,1112,1058,0,0
-105,-34,0,0,0,0,0,0,0,0,0,-1,1119,1058,0,0
-98,-34,0,0,0,0,0,0,0,0,0,-1,1126,1058,0,0
-91,-34,0,0,0,0,0,0,0,0,0,-1,1133,1058,0,0
-84,-34,0,0,0,0,0,0,0,0,0,-1,1140,1058,0,0
-77,-34,0,0,0,0,0,0,0,0,0,-1,1147,1058,0,0
-70,-34,0,0,0,0,0,0,0,0,0,-1,1154,1058,0,0
-63,-34,0,0,0,0,0,0,0,0,0,-1,1161,1058,0,0
-56,-34,0,0,0,0,0,0,0,0,0,-1,1168,1058,0,0
-49,-34,0,0,0,0,0,0,0,0,0,-1,1175,1058,0,0
-42,-34,0,0,0,0,0,0,0,0,0,-1,1182,1058,0,0
-35,-34,0,0,0,0,0,0,0,0,0,-1,1189,1058,0,0
-28,-34,0,0,0,0,0,0,0,0,0,-1,1196,1058,0,0
-21,-34,0,0,0,0,0,0,0,0,0,-1,1203,1058,0,0
-14,-34,0,0,0,0,0,0,0,0,0,-1,1210,1058,0,0
-7,-34,0,0,0,0,0,0,0,0,0,-1,1217,1058,0,0
0,-34,0,0,0,0,0,0,0,0,0,-1,1224,1058,0,0
7,-34,0,0,0,0,0,0,0,0,0,-1,1231,1058,0,0
14,-34,0,0,0,0,0,0,0,0,0,-1,1238,1058,0,0
21,-34,0,0,0,0,0,0,0,0,0,-1,1245,1058,0,0
28,-34,0,0,0,0,0,0,0,0,0,-1,1252,1058,0,0
35,-34,0,0,0,0,0,0,0,0,0,-1,1259,1058,0,0
42,-34,0,0,0,0,0,0,0,0,0,-1,1266,1058,0,0
49,-34,0,0,0,0,0,0,0,0,0,-1,1273,1058,0,0
56,-34,0,0,0,0,0,0,0,0,0,-1,1280,1058,0,0
63,-34,0,0,0,0,0,0,0,0,0,-1,1287,1058,0,0
70,-34,0,0,0,0,0,0,0,0,0,-1,1294,1058,0,0
77,-34,0,0,0,0,0,0,0,0,0,-1,1301,1058,0,0
84,-34,0,0,0,0,0,0,0,0,0,-1,1308,1058,0,0
91,-34,0,0,0,0,0,0,0,0,0,-1,1315,1058,0,0
98,-34,0,0,0,0,0,0,0,0,0,-1,1322,1058,0,0
105,-34,0,0,0,0,0,0,0,0,0,-1,1329,1058,0,0
112,-34,0,0,0,0,0,0,0,0,0,-1,1336,1058,0,0
119,-34,0,0,0,0,0,0,0,0,0,-1,1343,1058,0,0
126,-34,0,0,0,0,0,0,0,0,0,-1,1350,1058,0,0
133,-34,0,0,0,0,0,0,0,0,0,-1,1357,1058,0,0
140,-34,0,0,0,0,0,0,0,0,0,-1,1364,1058,0,0
147,-34,0,0,0,0,0,0,0,0,0,-1,1371,1058,0,0
154,-34,0,0,0,0,0,0,0,0,0,-1,1378,1058,0,0
161,-34,0,0,0,0,0,0,0,0,0,-1,1385,1058,0,0
168,-34,0,0,0,0,0,0,0,0,0,-1,1392,1058,0,0
175,-34,0,0,0,0,0,0,0,0,0,-1,1399,1058,0,0
182,-34,0,0,0,0,0,0,0,0,0,-1,1406,1058,0,0
189,-34,0,0,0,0,0,0,0,0,0,-1,1413,1058,0,0
196,-34,0,0,0,0,0,0,0,0,0,-1,1420,1058,0,0
203,-34,0,0,0,0,0,0,0,0,0,-1,1427,1058,0,0
210,-34,0,0,0,0,0,0,0,0,0,-1,1434,1058,0,0
217,-34,0,0,0,0,0,0,0,0,0,-1,1441,1058,0,0
224,-34,0,0,0,0,0,0,0,0,0,-1,1448,1058,0,0
231,-34,0,0,0,0,0,0,0,0,0,-1,1455,1058,0,0
238,-34,0,0,0,0,0,0,0,0,0,-1,1462,1058,0,0
245,-34,0,0,0,0,0,0,0,0,0,-1,1469,1058,0,0
252,-34,0,0,0,0,0,0,0,0,0,-1,1476,1058,0,0
259,-34,0,0,0,0,0,0,0,0,0,-1,1483,1058,0,0
266,-34,0,0,0,0,0,0,0,0,0,-1,1490,1058,0,0
273,-34,0,0,0,0,0,0,0,0,0,-1,1497,1058,0,0
280,-34,0,0,0,0,0,0,0,0,0,-1,1504,1058,0,0
287,-34,0,0,0,0,0,0,0,0,0,-1,1511,1058,0,0
294,-34,0,0,0,0,0,0,0,0,0,-1,1518,1058,0,0
301,-34,0,0,0,0,0,0,0,0,0,-1,1525,1058,0,0
308,-34,0,0,0,0,0,0,0,0,0,-1,1532,1058,0,0
315,-34,0,0,0,0,0,0,0,0,0,-1,1539,1058,0,0
322,-34,0,0,0,0,0,0,0,0,0,-1,1546,1058,0,0
329,-34,0,0,0,0,0,0,0,0,0,-1,1553,1058,0,0
336,-34,0,0,0,0,0,0,0,0,0,-1,1560,1058,0,0
343,-34,0,0,0,0,0,0,0,0,0,-1,1567,1058,0,0
350,-34,0,0,0,0,0,0,0,0,0,-1,1574,1058,0,0
357,-34,0,0,0,0,0,0,0,0,0,-1,1581,1058,0,0
364,-34,0,0,0,0,0,0,0,0,0,-1,1588,1058,0,0
371,-34,0,0,0,0,0,0,0,0,0,-1,1595,1058,0,0
378,-34,0,0,0,0,0,0,0,0,0,-1,1602,1058,0,0
385,-34,0,0,0,0,0,0,0,0,0,-1,1609,1058,0,0
392,-34,0,0,0,0,0,0,0,0,0,-1,1616,1058,0,0
399,-34,0,0,0,0,0,0,0,0,0,-1,1623,1058,0,0
406,-34,0,0,0,0,0,0,0,0,0,-1,1630,1058,0,0
413,-34,0,0,0,0,0,0,0,0,0,-1,1637,1058,0,0
420,-34,0,0,0,0,0,0,0,0,0,-1,1644,1058,0,0
427,-34,0,0,0,0,0,0,0,0,0,-1,1651,1058,0,0
434,-34,0,0,0,0,0,0,0,0,0,-1,1658,1058,0,0
441,-34,0,0,0,0,0,0,0,0,0,-1,1665,1058,0,0
448,-34,0,0,0,0,0,0,0,0,0,-1,1672,1058,0,0
455,-34,0,0,0,0,0,0,0,0,0,-1,1679,1058,0,0
462,-34,0,0,0,0,0,0,0,0,0,-1,1686,1058,0,0
469,-34,0,0,0,0,0,0,0,0,0,-1,1693,1058,0,0
476,-34,0,0,0,0,0,0,0,0,0,-1,1700,1058,0,0
483,-34,0,0,0,0,0,0,0,0,0,-1,1707,1058,0,0
490,-34,0,0,0,0,0,0,0,0,0,-1,1714,1058,0,0
497,-34,0,0,0,0,0,0,0,0,0,-1,1721,1058,0,0
504,-34,0,0,0,0,0,0,0,0,0,-1,1728,1058,0,0
511,-34,0,0,0,0,0,0,0,0,0,-1,1735,1058,0,0
518,-34,0,0,0,0,0,0,0,0,0,-1,1742,1058,0,0
525,-34,0,0,0,0,0,0,0,0,0,-1,1749,1058,0,0
532,-34,0,0,0,0,0,0,0,0,0,-1,1756,1058,0,0
539,-34,0,0,0,0,0,0,0,0,0,-1,1763,1058,0,0
546,-34,0,0,0,0,0,0,0,0,0,-1,1770,1058,0,0
553,-34,0,0,0,0,0,0,0,0,0,-1,1777,1058,0,0
560,-34,0,0,0,0,0,0,0,0,0,-1,1784,1058,0,0
567,-34,0,0,0,0,0,0,0,0,0,-1,1791,1058,0,0
574,-34,0,0,0,0,0,0,0,0,0,-1,1798,1058,0,0
581,-34,0,0,0,0,0,0,0,0,0,-1,1805,1058,0,0
588,-34,0,0,0,0,0,0,0,0,0,-1,1812,1058,0,0
595,-34,0,0,0,0,0,0,0,0,0,-1,1819,1058,0,0
602,-34,0,0,0,0,0,0,0,0,0,-1,1826,1058,0,0
609,-34,0,0,0,0,0,0,0,0,0,-1,1833,1058,0,0
616,-34,0,0,0,0,0,0,0,0,0,-1,1840,1058,0,0
623,-34,0,0,0,0,0,0,0,0,0,-1,1847,1058,0,0
630,-34,0,0,0,0,0,0,0,0,0,-1,1854,1058,0,0
637,-34,0,0,0,0,0,0,0,0,0,-1,1861,1058,0,0
644,-34,0,0,0,0,0,0,0,0,0,-1,1868,1058,0,0
651,-34,52.9076,2.79614,0.00398414,0.000810071,-0.00102247,0.004285,0.000509216,-0.286167,0.00270296,0.0408251,1875,1058,52.9076,-2.79614
658,-34,52.9161,3.05762,0.00277511,0.00113882,-0.00104101,0.00328099,0.000632935,-0.45235,0.00200985,0.0444131,1882,1058,52.9162,-3.05765
665,-34,52.9918,2.62915,0.00191844,0.00126386,-0.000828845,0.00248227,0.000700023,-0.597356,0.00147785,0.042161,1889,1058,52.9918,-2.6292
672,-34,52.9703,2.58215,0.00136602,0.00131796,-0.000404294,0.001747,0.000936982,-0.755718,0.00100952,0.0364805,1896,1058,52.9703,-2.5822
679,-34,52.8557,2.50647,0.00100617,0.00131623,0.000119711,0.00135707,0.000965335,1.24202,0.000806498,0.0352843,1903,1058,52.8557,-2.50644
686,-34,52.8522,2.54382,0.000590932,0.00105285,0.000719835,0.00157787,6.5911e-05,0.940634,0.00103064,0.0405805,1910,1058,52.8522,-2.54377
693,-34,52.8896,2.62488,0.000281152,0.000708019,0.00128928,0.00180141,-0.000812243,0.867427,0.0015446,0.041266,1917,1058,52.8897,-2.62485
700,-34,52.9042,2.62744,0.000122493,0.000448359,0.00177388,0.00206678,-0.00149592,0.831195,0.00206571,0.0388857,1924,1058,52.9041,-2.62748
707,-34,52.9015,2.62805,-0.000285108,0.000402788,0.00207658,0.00216372,-0.00204604,0.867469,0.00243082,0.0248271,1931,1058,52.9015,-2.62803
714,-34,52.9363,2.68298,-0.000988382,0.000637542,0.00234996,0.00231119,-0.00266203,0.951928,0.00287367,0.0177774,1938,1058,52.9362,-2.68301
721,-34,52.9551,2.79443,0,0,0,0,0,0,0,-1,1945,1058,52.955,-2.79442
728,-34,52.4598,6.45679,0,0,0,0,0,0,0,-1,1952,1058,52.4598,-6.45683
735,-34,52.3114,6.33325,-0.00348967,0.00263847,0.00257986,0.00357992,-0.00443112,1.22089,0.00463387,0.0214542,1959,1058,52.3114,-6.33327
742,-34,52.2463,6.16077,-0.00419467,0.0035971,0.00260354,0.00438697,-0.00498454,1.27624,0.00541431,0.0169682,1966,1058,52.2464,-6.16077
749,-34,52.2942,5.97803,-0.00521238,0.00523894,0.00268959,0.00589047,-0.00586392,1.33313,0.00678641,0.0149763,1973,1058,52.2942,-5.97805
756,-34,52.3229,5.77417,-0.0061318,0.00768486,0.002573,0.00814846,-0.0065954,1.39253,0.0085281,0.0112403,1980,1058,52.3228,-5.77423
763,-34,52.2549,5.59888,-0.00668867,0.0110078,0.0019806,0.0112268,-0.00690763,1.46069,0.0105684,0.0115879,1987,1058,52.2549,-5.59889
770,-34,52.1482,5.42932,-0.00694845,0.0152962,0.00144331,0.0153895,-0.0070417,1.50627,0.0132462,0.0166074,1994,1058,52.1482,-5.42937
777,-34,52.0249,5.34277,-0.00638989,0.0211926,0.000788543,0.0212152,-0.00641241,1.54224,0.0166965,0.0189904,2001,1058,52.0249,-5.34275
784,-34,51.8694,5.18945,-0.00540192,0.0277138,-5.78844e-05,0.0277139,-0.00540202,-1.56905,0.020515,0.0361395,2008,1058,51.8694,-5.18942
791,-34,51.7578,5.12329,-0.0039148,0.0350919,-0.00118215,0.0351277,-0.00395059,-1.54053,0.0248403,0.0477888,2015,1058,51.7578,-5.1233
798,-34,52.0601,5.19519,-0.00174331,0.0436116,-0.00280758,0.0437847,-0.00191644,-1.50921,0.0298491,0.0477546,2022,1058,52.0601,-5.19522
805,-34,52.0383,5.85156,0.00138429,0.0534496,-0.00514332,0.0539529,0.000881067,-1.47327,0.0356785,0.0464803,2029,1058,52.0384,-5.85162
812,-34,51.8557,3.85071,0.00529334,0.0648194,-0.00863967,0.066048,0.00406473,-1.42954,0.0427416,0.0463835,2036,1058,51.8556,-3.85072
-700,-41,-40.5071,1.20801,0,0,0,0,0,0,0,-1,524,1065,-40.5071,-1.20797
-693,-41,-41.1664,1.60107,0,0,0,0,0,0,0,-1,531,1065,-41.1665,-1.60109
-686,-41,-40.8939,1.21387,0,0,0,0,0,0,0,-1,538,1065,-40.8939,-1.21392
-679,-41,-40.5405,0.474731,0.0225221,0.0345673,0.00695396,0.0377441,0.0193453,1.14227,0.0217939,0.0468368,545,1065,-40.5405,-0.47474
-672,-41,-39.7433,0.152832,0.0239419,0.0315421,0.00550014,0.0344272,0.0210568,1.0877,0.020041,0.0450067,552,1065,-39.7433,-0.152776
-665,-41,-39.4044,0.121582,0.0227643,0.0279234,0.00453148,0.0305581,0.0201296,1.04415,0.0179366,0.0450253,559,1065,-39.4044,-0.121558
-658,-41,-38.8054,1.15527,0.0200941,0.0239988,0.00376835,0.0262905,0.0178024,1.0244,0.0154931,0.0418811,566,1065,-38.8053,-1.15523
-651,-41,-38.6461,1.995,0.0167108,0.0199514,0.00303429,0.0217709,0.0148913,1.03063,0.01285,0.0321603,573,1065,-38.6461,-1.99497
-644,-41,-38.9344,2.2771,0.0135568,0.0162975,0.00199406,0.0173467,0.0125076,1.08645,0.0103362,0.0176081,580,1065,-38.9344,-2.27713
-637,-41,-38.9878,2.52087,0.0102269,0.0122373,0.00103401,0.0126742,0.00979001,1.17104,0.00767099,0.0182271,587,1065,-38.9878,-2.52091
-630,-41,-38.9757,2.8075,0.00683106,0.00797755,0.000243741,0.00802721,0.00678139,1.36978,0.00498833,0.0150248,594,1065,-38.9757,-2.80753
-623,-41,-38.971,3.08472,0.00415794,0.0047705,-0.00044091,0.00500107,0.00392737,-1.08896,0.00304002,0.0127709,601,1065,-38.971,-3.08471
-616,-41,-38.9649,3.3916,0.00246649,0.00240468,-0.00100879,0.00344485,0.00142632,-0.770084,0.00199866,0.016179,608,1065,-38.9649,-3.39161
-609,-41,-38.9059,3.66003,0.00141065,0.000744804,-0.001713,0.00282278,-0.00066733,-0.68942,0.00213928,0.0225822,615,1065,-38.906,-3.66008
-602,-41,-38.95,3.85144,0.000518792,-0.000521986,-0.0023011,0.00235762,-0.00236081,-0.674195,0.00272418,0.0139833,622,1065,-38.95,-3.85144
-595,-41,-39.0817,4.03381,0.000167274,-0.00118067,-0.0024223,0.00200761,-0.00302101,-0.649711,0.00292286,0.023423,629,1065,-39.0817,-4.0338
-588,-41,-39.5525,0.84729,0,0,0,0,0,0,0,-1,636,1065,-39.5525,-0.84727
-581,-41,-39.4766,0.9198,0.000553539,-0.00163407,-0.00212009,0.00184536,-0.00292589,-0.547246,0.00277813,0.0386969,643,1065,-39.4766,-0.919828
-574,-41,-39.5441,0.887085,0.000570785,-0.00144745,-0.00177248,0.00160128,-0.00247794,-0.526619,0.0023732,0.0396391,650,1065,-39.544,-0.887118
-567,-41,-39.665,0.789185,0.000392256,-0.000880449,-0.00125073,0.00115921,-0.0016474,-0.550072,0.00162855,0.0424903,657,1065,-39.6651,-0.789158
-560,-41,-39.5446,0.737061,7.23085e-05,4.08402e-05,-0.00054121,0.000598013,-0.000484865,-0.770866,0.000626337,0.0422843,664,1065,-39.5446,-0.737088
-553,-41,-39.4564,0.768555,-0.000250584,0.00120513,0.000331488,0.00127706,-0.000322514,1.35712,0.000976793,0.0443825,671,1065,-39.4564,-0.768554
-546,-41,-39.4678,0.754272,-0.000401362,0.00239942,0.00127534,0.00289313,-0.000895067,1.20145,0.00228627,0.0408821,678,1065,-39.4678,-0.75427
-539,-41,-39.4129,0.810181,-0.000377095,0.00321094,0.00205346,0.00414368,-0.00130984,1.14443,0.00328724,0.0396721,685,1065,-39.4129,-0.810126
-532,-41,-39.4678,0.784912,-0.000209534,0.00406838,0.00260694,0.00530155,-0.00144271,1.12895,0.00410075,0.0380881,692,1065,-39.4677,-0.784905
-525,-41,0,0,0,0,0,0,0,0,0,-1,699,1065,0,0
-518,-41,0,0,0,0,0,0,0,0,0,-1,706,1065,0,0
-511,-41,0,0,0,0,0,0,0,0,0,-1,713,1065,0,0
-504,-41,0,0,0,0,0,0,0,0,0,-1,720,1065,0,0
-497,-41,0,0,0,0,0,0,0,0,0,-1,727,1065,0,0
-490,-41,0,0,0,0,0,0,0,0,0,-1,734,1065,0,0
-483,-41,0,0,0,0,0,0,0,0,0,-1,741,1065,0,0
-476,-41,0,0,0,0,0,0,0,0,0,-1,748,1065,0,0
-469,-41,0,0,0,0,0,0,0,0,0,-1,755,1065,0,0
-462,-41,0,0,0,0,0,0,0,0,0,-1,762,1065,0,0
-455,-41,0,0,0,0,0,0,0,0,0,-1,769,1065,0,0
-448,-41,0,0,0,0,0,0,0,0,0,-1,776,1065,0,0
-441,-41,0,0,0,0,0,0,0,0,0,-1,783,1065,0,0
-434,-41,0,0,0,0,0,0,0,0,0,-1,790,1065,0,0
-427,-41,0,0,0,0,0,0,0,0,0,-1,797,1065,0,0
-420,-41,0,0,0,0,0,0,0,0,0,-1,804,1065,0,0
-413,-41,0,0,0,0,0,0,0,0,0,-1,811,1065,0,0
-406,-41,0,0,0,0,0,0,0,0,0,-1,818,1065,0,0
-399,-41,0,0,0,0,0,0,0,0,0,-1,825,1065,0,0
-392,-41,0,0,0,0,0,0,0,0,0,-1,832,1065,0,0
-385,-41,0,0,0,0,0,0,0,0,0,-1,839,1065,0,0
-378,-41,0,0,0,0,0,0,0,0,0,-1,846,1065,0,0
-371,-41,0,0,0,0,0,0,0,0,0,-1,853,1065,0,0
-364,-41,0,0,0,0,0,0,0,0,0,-1,860,1065,0,0
-357,-41,0,0,0,0,0,0,0,0,0,-1,867,1065,0,0
-350,-41,0,0,0,0,0,0,0,0,0,-1,874,1065,0,0
-343,-41,0,0,0,0,0,0,0,0,0,-1,881,1065,0,0
-336,-41,0,0,0,0,0,0,0,0,0,-1,888,1065,0,0
-329,-41,0,0,0,0,0,0,0,0,0,-1,895,1065,0,0
-322,-41,0,0,0,0,0,0,0,0,0,-1,902,1065,0,0
-315,-41,0,0,0,0,0,0,0,0,0,-1,909,1065,0,0
-308,-41,0,0,0,0,0,0,0,0,0,-1,916,1065,0,0
-301,-41,0,0,0,0,0,0,0,0,0,-1,923,1065,0,0
-294,-41,0,0,0,0,0,0,0,0,0,-1,930,1065,0,0
-287,-41,0,0,0,0,0,0,0,0,0,-1,937,1065,0,0
-280,-41,0,0,0,0,0,0,0,0,0,-1,944,1065,0,0
-273,-41,0,0,0,0,0,0,0,0,0,-1,951,1065,0,0
-266,-41,0,0,0,0,0,0,0,0,0,-1,958,1065,0,0
-259,-41,0,0,0,0,0,0,0,0,0,-1,965,1065,0,0
-252,-41,0,0,0,0,0,0,0,0,0,-1,972,1065,0,0
-245,-41,0,0,0,0,0,0,0,0,0,-1,979,1065,0,0
-238,-41,0,0,0,0,0,0,0,0,0,-1,986,1065,0,0
-231,-41,0,0,0,0,0,0,0,0,0,-1,993,1065,0,0
-224,-41,0,0,0,0,0,0,0,0,0,-1,1000,1065,0,0
-217,-41,0,0,0,0,0,0,0,0,0,-1,1007,1065,0,0
-210,-41,0,0,0,0,0,0,0,0,0,-1,1014,1065,0,0
-203,-41,0,0,0,0,0,0,0,0,0,-1,1021,1065,0,0
-196,-41,0,0,0,0,0,0,0,0,0,-1,1028,1065,0,0
-189,-41,0,0,0,0,0,0,0,0,0,-1,1035,1065,0,0
-182,-41,0,0,0,0,0,0,0,0,0,-1,1042,1065,0,0
-175,-41,0,0,0,0,0,0,0,0,0,-1,1049,1065,0,0
-168,-41,0,0,0,0,0,0,0,0,0,-1,1056,1065,0,0
-161,-41,0,0,0,0,0,0,0,0,0,-1,1063,1065,0,0
-154,-41,0,0,0,0,0,0,0,0,0,-1,1070,1065,0,0
-147,-41,0,0,0,0,0,0,0,0,0,-1,1077,1065,0,0
-140,-41,0,0,0,0,0,0,0,0,0,-1,1084,1065,0,0
-133,-41,0,0,0,0,0,0,0,0,0,-1,1091,1065,0,0
-126,-41,0,0,0,0,0,0,0,0,0,-1,1098,1065,0,0
-119,-41,0,0,0,0,0,0,0,0,0,-1,1105,1065,0,0
-112,-41,0,0,0,0,0,0,0,0,0,-1,1112,1065,0,0
-105,-41,0,0,0,0,0,0,0,0,0,-1,1119,1065,0,0
-98,-41,0,0,0,0,0,0,0,0,0,-1,1126,1065,0,0
-91,-41,0,0,0,0,0,0,0,0,0,-1,1133,1065,0,0
-84,-41,0,0,0,0,0,0,0,0,0,-1,1140,1065,0,0
-77,-41,0,0,0,0,0,0,0,0,0,-1,1147,1065,0,0
-70,-41,0,0,0,0,0,0,0,0,0,-1,1154,1065,0,0
-63,-41,0,0,0,0,0,0,0,0,0,-1,1161,1065,0,0
-56,-41,0,0,0,0,0,0,0,0,0,-1,1168,1065,0,0
-49,-41,0,0,0,0,0,0,0,0,0,-1,1175,1065,0,0
-42,-41,0,0,0,0,0,0,0,0,0,-1,1182,1065,0,0
-35,-41,0,0,0,0,0,0,0,0,0,-1,1189,1065,0,0
-28,-41,0,0,0,0,0,0,0,0,0,-1,1196,1065,0,0
-21,-41,0,0,0,0,0,0,0,0,0,-1,1203,1065,0,0
-14,-41,0,0,0,0,0,0,0,0,0,-1,1210,1065,0,0
-7,-41,0,0,0,0,0,0,0,0,0,-1,1217,1065,0,0
0,-41,0,0,0,0,0,0,0,0,0,-1,1224,1065,0,0
7,-41,0,0,0,0,0,0,0,0,0,-1,1231,1065,0,0
14,-41,0,0,0,0,0,0,0,0,0,-1,1238,1065,0,0
21,-41,0,0,0,0,0,0,0,0,0,-1,1245,1065,0,0
28,-41,0,0,0,0,0,0,0,0,0,-1,1252,1065,0,0
35,-41,0,0,0,0,0,0,0,0,0,-1,1259,1065,0,0
42,-41,0,0,0,0,0,0,0,0,0,-1,1266,1065,0,0
49,-41,0,0,0,0,0,0,0,0,0,-1,1273,1065,0,0
56,-41,0,0,0,0,0,0,0,0,0,-1,1280,1065,0,0
63,-41,0,0,0,0,0,0,0,0,0,-1,1287,1065,0,0
70,-41,0,0,0,0,0,0,0,0,0,-1,1294,1065,0,0
77,-41,0,0,0,0,0,0,0,0,0,-1,1301,1065,0,0
84,-41,0,0,0,0,0,0,0,0,0,-1,1308,1065,0,0
91,-41,0,0,0,0,0,0,0,0,0,-1,1315,1065,0,0
98,-41,0,0,0,0,0,0,0,0,0,-1,1322,1065,0,0
105,-41,0,0,0,0,0,0,0,0,0,-1,1329,1065,0,0
112,-41,0,0,0,0,0,0,0,0,0,-1,1336,1065,0,0
119,-41,0,0,0,0,0,0,0,0,0,-1,1343,1065,0,0
126,-41,0,0,0,0,0,0,0,0,0,-1,1350,1065,0,0
133,-41,0,0,0,0,0,0,0,0,0,-1,1357,1065,0,0
140,-41,0,0,0,0,0,0,0,0,0,-1,1364,1065,0,0
147,-41,0,0,0,0,0,0,0,0,0,-1,1371,1065,0,0
154,-41,0,0,0,0,0,0,0,0,0,-1,1378,1065,0,0
161,-41,0,0,0,0,0,0,0,0,0,-1,1385,1065,0,0
168,-41,0,0,0,0,0,0,0,0,0,-1,1392,1065,0,0
175,-41,0,0,0,0,0,0,0,0,0,-1,1399,1065,0,0
182,-41,0,0,0,0,0,0,0,0,0,-1,1406,1065,0,0
189,-41,0,0,0,0,0,0,0,0,0,-1,1413,1065,0,0
196,-41,0,0,0,0,0,0,0,0,0,-1,1420,1065,0,0
203,-41,0,0,0,0,0,0,0,0,0,-1,1427,1065,0,0
210,-41,0,0,0,0,0,0,0,0,0,-1,1434,1065,0,0
217,-41,0,0,0,0,0,0,0,0,0,-1,1441,1065,0,0
224,-41,0,0,0,0,0,0,0,0,0,-1,1448,1065,0,0
231,-41,0,0,0,0,0,0,0,0,0,-1,1455,1065,0,0
238,-41,0,0,0,0,0,0,0,0,0,-1,1462,1065,0,0
245,-41,0,0,0,0,0,0,0,0,0,-1,1469,1065,0,0
252,-41,0,0,0,0,0,0,0,0,0,-1,1476,1065,0,0
259,-41,0,0,0,0,0,0,0,0,0,-1,1483,1065,0,0
266,-41,0,0,0,0,0,0,0,0,0,-1,1490,1065,0,0
273,-41,0,0,0,0,0,0,0,0,0,-1,1497,1065,0,0
280,-41,0,0,0,0,0,0,0,0,0,-1,1504,1065,0,0
287,-41,0,0,0,0,0,0,0,0,0,-1,1511,1065,0,0
294,-41,0,0,0,0,0,0,0,0,0,-1,1518,1065,0,0
301,-41,0,0,0,0,0,0,0,0,0,-1,1525,1065,0,0
308,-41,0,0,0,0,0,0,0,0,0,-1,1532,1065,0,0
315,-41,0,0,0,0,0,0,0,0,0,-1,1539,1065,0,0
322,-41,0,0,0,0,0,0,0,0,0,-1,1546,1065,0,0
329,-41,0,0,0,0,0,0,0,0,0,-1,1553,1065,0,0
336,-41,0,0,0,0,0,0,0,0,0,-1,1560,1065,0,0
343,-41,0,0,0,0,0,0,0,0,0,-1,1567,1065,0,0
350,-41,0,0,0,0,0,0,0,0,0,-1,1574,1065,0,0
357,-41,0,0,0,0,0,0,0,0,0,-1,1581,1065,0,0
364,-41,0,0,0,0,0,0,0,0,0,-1,1588,1065,0,0
371,-41,0,0,0,0,0,0,0,0,0,-1,1595,1065,0,0
378,-41,0,0,0,0,0,0,0,0,0,-1,1602,1065,0,0
385,-41,0,0,0,0,0,0,0,0,0,-1,1609,1065,0,0
392,-41,0,0,0,0,0,0,0,0,0,-1,1616,1065,0,0
399,-41,0,0,0,0,0,0,0,0,0,-1,1623,1065,0,0
406,-41,0,0,0,0,0,0,0,0,0,-1,1630,1065,0,0
413,-41,0,0,0,0,0,0,0,0,0,-1,1637,1065,0,0
420,-41,0,0,0,0,0,0,0,0,0,-1,1644,1065,0,0
427,-41,0,0,0,0,0,0,0,0,0,-1,1651,1065,0,0
434,-41,0,0,0,0,0,0,0,0,0,-1,1658,1065,0,0
441,-41,0,0,0,0,0,0,0,0,0,-1,1665,1065,0,0
448,-41,0,0,0,0,0,0,0,0,0,-1,1672,1065,0,0
455,-41,0,0,0,0,0,0,0,0,0,-1,1679,1065,0,0
462,-41,0,0,0,0,0,0,0,0,0,-1,1686,1065,0,0
469,-41,0,0,0,0,0,0,0,0,0,-1,1693,1065,0,0
476,-41,0,0,0,0,0,0,0,0,0,-1,1700,1065,0,0
483,-41,0,0,0,0,0,0,0,0,0,-1,1707,1065,0,0
490,-41,0,0,0,0,0,0,0,0,0,-1,1714,1065,0,0
497,-41,0,0,0,0,0,0,0,0,0,-1,1721,1065,0,0
504,-41,0,0,0,0,0,0,0,0,0,-1,1728,1065,0,0
511,-41,0,0,0,0,0,0,0,0,0,-1,1735,1065,0,0
518,-41,0,0,0,0,0,0,0,0,0,-1,1742,1065,0,0
525,-41,0,0,0,0,0,0,0,0,0,-1,1749,1065,0,0
532,-41,0,0,0,0,0,0,0,0,0,-1,1756,1065,0,0
539,-41,0,0,0,0,0,0,0,0,0,-1,1763,1065,0,0
546,-41,0,0,0,0,0,0,0,0,0,-1,1770,1065,0,0
553,-41,0,0,0,0,0,0,0,0,0,-1,1777,1065,0,0
560,-41,0,0,0,0,0,0,0,0,0,-1,1784,1065,0,0
567,-41,0,0,0,0,0,0,0,0,0,-1,1791,1065,0,0
574,-41,0,0,0,0,0,0,0,0,0,-1,1798,1065,0,0
581,-41,0,0,0,0,0,0,0,0,0,-1,1805,1065,0,0
588,-41,0,0,0,0,0,0,0,0,0,-1,1812,1065,0,0
595,-41,0,0,0,0,0,0,0,0,0,-1,1819,1065,0,0
602,-41,0,0,0,0,0,0,0,0,0,-1,1826,1065,0,0
609,-41,0,0,0,0,0,0,0,0,0,-1,1833,1065,0,0
616,-41,0,0,0,0,0,0,0,0,0,-1,1840,1065,0,0
623,-41,0,0,0,0,0,0,0,0,0,-1,1847,1065,0,0
630,-41,0,0,0,0,0,0,0,0,0,-1,1854,1065,0,0
637,-41,0,0,0,0,0,0,0,0,0,-1,1861,1065,0,0
644,-41,0,0,0,0,0,0,0,0,0,-1,1868,1065,0,0
651,-41,52.8457,2.49744,0.00425455,0.000464773,-0.000554379,0.00433398,0.000385341,-0.142311,0.00276982,0.0354859,1875,1065,52.8457,-2.49743
658,-41,52.8846,2.65295,0.00311008,0.000724628,-0.00071994,0.00331051,0.000524188,-0.271535,0.00205469,0.0404975,1882,1065,52.8847,-2.65296
665,-41,53.1656,2.48657,0.00224737,0.000815922,-0.0006252,0.00248198,0.000581311,-0.358996,0.00149894,0.0408177,1889,1065,53.1657,-2.48654
672,-41,53.1273,2.46179,0.00165531,0.000867194,-0.000294288,0.00175308,0.000769432,-0.320729,0.00101465,0.0387065,1896,1065,53.1273,-2.46178
679,-41,52.9342,2.37085,0.00121334,0.000881912,0.000146927,0.00126909,0.000826156,0.362693,0.000743762,0.0389155,1903,1065,52.9342,-2.37089
686,-41,52.8564,2.38159,0.000745262,0.000643815,0.000697191,0.00139357,-4.49526e-06,0.749085,0.00093055,0.0391557,1910,1065,52.8565,-2.38154
693,-41,52.8267,2.50049,0.000429896,0.00034109,0.00122938,0.00161568,-0.00084469,0.767347,0.00144355,0.0409041,1917,1065,52.8266,-2.50045
700,-41,52.9257,2.57715,0.000263557,0.000128969,0.00169743,0.00189502,-0.0015025,0.765586,0.00196592,0.0399053,1924,1065,52.9256,-2.5772
707,-41,52.9315,2.59583,-0.000126344,0.000102042,0.00201123,0.00200231,-0.00202662,0.813757,0.00232612,0.0275788,1931,1065,52.9315,-2.59588
714,-41,52.9504,2.62378,-0.000790718,0.000314395,0.00233087,0.00215731,-0.00263363,0.90178,0.0027706,0.0221212,1938,1065,52.9504,-2.62378
721,-41,52.968,2.70923,0,0,0,0,0,0,0,-1,1945,1065,52.968,-2.70922
728,-41,52.2371,6.49902,0,0,0,0,0,0,0,-1,1952,1065,52.2371,-6.49901
735,-41,52.0953,6.32764,-0.00302324,0.00216861,0.00273258,0.00334175,-0.00419638,1.16528,0.00436145,0.0203609,1959,1065,52.0953,-6.32759
742,-41,52.0154,6.15295,-0.00359595,0.00314207,0.00280766,0.00415862,-0.0046125,1.22341,0.00506627,0.0168989,1966,1065,52.0153,-6.15292
749,-41,52.0535,5.98755,-0.00444047,0.00472198,0.00289633,0.00556075,-0.00527924,1.28891,0.00625917,0.0150926,1973,1065,52.0534,-5.9876
756,-41,52.1085,5.79712,-0.00515024,0.00706274,0.00278598,0.00766825,-0.00575575,1.35678,0.00777652,0.0136334,1980,1065,52.1085,-5.79708
763,-41,52.0081,5.55176,-0.00548949,0.0102412,0.00219716,0.0105424,-0.00579061,1.4346,0.00956195,0.0120149,1987,1065,52.0081,-5.55179
770,-41,51.9049,5.37146,-0.00549672,0.0143338,0.00161537,0.0144645,-0.00562745,1.49005,0.0119683,0.0130889,1994,1065,51.9049,-5.37148
777,-41,51.7834,5.18958,-0.00466061,0.0198438,0.00084358,0.0198728,-0.00468962,1.53642,0.0150572,0.015657,2001,1065,51.7836,-5.18957
784,-41,51.6436,4.94568,-0.00338709,0.0259072,-0.000153835,0.025908,-0.00338789,-1.56555,0.018505,0.0274293,2008,1065,51.6436,-4.94573
791,-41,51.4836,4.67004,-0.00160817,0.032707,-0.00147969,0.0327707,-0.00167186,-1.52778,0.0224252,0.045718,2015,1065,51.4837,-4.67
798,-41,51.3169,4.40039,0.000910927,0.0405065,-0.0033619,0.0407899,0.00062751,-1.48669,0.0269865,0.0480999,2022,1065,51.3169,-4.40041
805,-41,51.1541,4.0885,0.00440208,0.0494728,-0.0060396,0.0502681,0.00360679,-1.43987,0.0323769,0.0445074,2029,1065,51.1539,-4.08855
812,-41,51.0981,3.82861,0.00870402,0.0597109,-0.00999859,0.0616009,0.00681408,-1.38398,0.0389949,0.0497332,2036,1065,51.0981,-3.82865
-700,-48,-40.4058,1.06958,0,0,0,0,0,0,0,-1,524,1072,-40.4058,-1.06961
-693,-48,-41.5128,1.44519,0.00925582,0.0350503,0.0185158,0.044718,-0.000411835,1.0896,0.0299502,0.0444467,531,1072,-41.5129,-1.4452
-686,-48,-42.5512,1.86768,0,0,0,0,0,0,0,-1,538,1072,-42.5512,-1.86763
-679,-48,-40.558,-0.0415039,0,0,0,0,0,0,0,-1,545,1072,-40.558,0.0415079
-672,-48,-39.0913,-0.234131,0.0246309,0.0298874,0.00867766,0.0363261,0.0181922,0.932445,0.0209729,0.0476864,552,1072,-39.0913,0.234172
-665,-48,-38.7046,0.160889,0.0230087,0.0263491,0.00698269,0.0318585,0.0174992,0.90279,0.0184233,0.0463306,559,1072,-38.7046,-0.160945
-658,-48,-38.5397,0.759888,0.0200973,0.0225597,0.00559976,0.027062,0.015595,0.893609,0.0156847,0.0483912,566,1072,-38.5396,-0.759857
-651,-48,-38.4533,1.59717,0.0166131,0.0186883,0.00436319,0.0221356,0.0131658,0.902134,0.0128563,0.038649,573,1072,-38.4533,-1.59713
-644,-48,-38.5471,2.2572,0.0134449,0.0152032,0.00297306,0.0174244,0.0112237,0.929148,0.0101983,0.0213499,580,1072,-38.5471,-2.2572
-637,-48,-38.5478,2.42725,0.0101747,0.0114043,0.00170383,0.0126009,0.00897815,0.95855,0.00749094,0.0225015,587,1072,-38.5478,-2.42728
-630,-48,-38.546,2.71924,0.0068305,0.0072453,0.000609254,0.00768149,0.00639431,0.949451,0.00475042,0.0249986,594,1072,-38.5459,-2.7193
-623,-48,-38.677,3.03687,0.00426248,0.00423968,-0.00023439,0.00448574,0.00401641,-0.761098,0.00284698,0.012328,601,1072,-38.677,-3.03688
-616,-48,-38.6882,3.32886,0.00269005,0.00201908,-0.000891024,0.00330665,0.00140248,-0.60535,0.00191641,0.0105591,608,1072,-38.6882,-3.32888
-609,-48,-38.6386,3.64563,0.00174712,0.000532881,-0.00160828,0.00285906,-0.000579062,-0.60492,0.00212552,0.0123013,615,1072,-38.6386,-3.64563
-602,-48,-38.6537,3.89856,0.000883472,-0.000590494,-0.00220312,0.00246961,-0.00217663,-0.62399,0.00268429,0.0134949,622,1072,-38.6537,-3.89858
-595,-48,-38.714,4.1095,0.000540663,-0.00111121,-0.00237226,0.00222665,-0.0027972,-0.617879,0.00290675,0.030566,629,1072,-38.714,-4.10955
-588,-48,-38.936,4.29712,0,0,0,0,0,0,0,-1,636,1072,-38.936,-4.2971
-581,-48,-39.4621,1.00854,0,0,0,0,0,0,0,-1,643,1072,-39.4621,-1.00856
-574,-48,-39.4182,0.833862,0.000948061,-0.00122675,-0.00178881,0.00195405,-0.00223273,-0.512297,0.00241902,0.0461498,650,1072,-39.4182,-0.833904
-567,-48,-39.3972,0.811279,0.000805308,-0.000664833,-0.00131514,0.00157687,-0.00143639,-0.530562,0.00174034,0.0433912,657,1072,-39.3972,-0.81131
-560,-48,-39.4814,0.875732,0.00052947,0.000232694,-0.000657751,0.00105536,-0.000293199,-0.674456,0.000818994,0.0419309,664,1072,-39.4815,-0.875683
-553,-48,-39.5651,0.762817,0.00029095,0.00136066,0.00018766,0.00139263,0.000258984,1.40208,0.000855261,0.0415547,671,1072,-39.5651,-0.762774
-546,-48,-39.5483,0.825317,0.00029803,0.00253548,0.00116068,0.00302881,-0.000195297,1.1689,0.00208735,0.0385462,678,1072,-39.5484,-0.825293
-539,-48,-39.5943,0.96521,0.000707545,0.0033339,0.00204972,0.00445501,-0.000413568,1.07029,0.00311702,0.0374747,685,1072,-39.5943,-0.965212
-532,-48,-39.6414,0.963623,0.00127809,0.0041825,0.00274728,0.00583778,-0.000377185,1.02853,0.00402348,0.0374519,692,1072,-39.6414,-0.963664
-525,-48,0,0,0,0,0,0,0,0,0,-1,699,1072,0,0
-518,-48,0,0,0,0,0,0,0,0,0,-1,706,1072,0,0
-511,-48,0,0,0,0,0,0,0,0,0,-1,713,1072,0,0
-504,-48,0,0,0,0,0,0,0,0,0,-1,720,1072,0,0
-497,-48,0,0,0,0,0,0,0,0,0,-1,727,1072,0,0
-490,-48,0,0,0,0,0,0,0,0,0,-1,734,1072,0,0
-483,-48,0,0,0,0,0,0,0,0,0,-1,741,1072,0,0
-476,-48,0,0,0,0,0,0,0,0,0,-1,748,1072,0,0
-469,-48,0,0,0,0,0,0,0,0,0,-1,755,1072,0,0
-462,-48,0,0,0,0,0,0,0,0,0,-1,762,1072,0,0
-455,-48,0,0,0,0,0,0,0,0,0,-1,769,1072,0,0
-448,-48,0,0,0,0,0,0,0,0,0,-1,776,1072,0,0
-441,-48,0,0,0,0,0,0,0,0,0,-1,783,1072,0,0
-434,-48,0,0,0,0,0,0,0,0,0,-1,790,1072,0,0
-427,-48,0,0,0,0,0,0,0,0,0,-1,797,1072,0,0
-420,-48,0,0,0,0,0,0,0,0,0,-1,804,1072,0,0
-413,-48,0,0,0,0,0,0,0,0,0,-1,811,1072,0,0
-406,-48,0,0,0,0,0,0,0,0,0,-1,818,1072,0,0
-399,-48,0,0,0,0,0,0,0,0,0,-1,825,1072,0,0
-392,-48,0,0,0,0,0,0,0,0,0,-1,832,1072,0,0
-385,-48,0,0,0,0,0,0,0,0,0,-1,839,1072,0,0
-378,-48,0,0,0,0,0,0,0,0,0,-1,846,1072,0,0
-371,-48,0,0,0,0,0,0,0,0,0,-1,853,1072,0,0
-364,-48,0,0,0,0,0,0,0,0,0,-1,860,1072,0,0
-357,-48,0,0,0,0,0,0,0,0,0,-1,867,1072,0,0
-350,-48,0,0,0,0,0,0,0,0,0,-1,874,1072,0,0
-343,-48,0,0,0,0,0,0,0,0,0,-1,881,1072,0,0
-336,-48,0,0,0,0,0,0,0,0,0,-1,888,1072,0,0
-329,-48,0,0,0,0,0,0,0,0,0,-1,895,1072,0,0
-322,-48,0,0,0,0,0,0,0,0,0,-1,902,1072,0,0
-315,-48,0,0,0,0,0,0,0,0,0,-1,909,1072,0,0
-308,-48,0,0,0,0,0,0,0,0,0,-1,916,1072,0,0
-301,-48,0,0,0,0,0,0,0,0,0,-1,923,1072,0,0
-294,-48,0,0,0,0,0,0,0,0,0,-1,930,1072,0,0
-287,-48,0,0,0,0,0,0,0,0,0,-1,937,1072,0,0
-280,-48,0,0,0,0,0,0,0,0,0,-1,944,1072,0,0
-273,-48,0,0,0,0,0,0,0,0,0,-1,951,1072,0,0
-266,-48,0,0,0,0,0,0,0,0,0,-1,958,1072,0,0
-259,-48,0,0,0,0,0,0,0,0,0,-1,965,1072,0,0
-252,-48,0,0,0,0,0,0,0,0,0,-1,972,1072,0,0
-245,-48,0,0,0,0,0,0,0,0,0,-1,979,1072,0,0
-238,-48,0,0,0,0,0,0,0,0,0,-1,986,1072,0,0
-231,-48,0,0,0,0,0,0,0,0,0,-1,993,1072,0,0
-224,-48,0,0,0,0,0,0,0,0,0,-1,1000,1072,0,0
-217,-48,0,0,0,0,0,0,0,0,0,-1,1007,1072,0,0
-210,-48,0,0,0,0,0,0,0,0,0,-1,1014,1072,0,0
-203,-48,0,0,0,0,0,0,0,0,0,-1,1021,1072,0,0
-196,-48,0,0,0,0,0,0,0,0,0,-1,1028,1072,0,0
-189,-48,0,0,0,0,0,0,0,0,0,-1,1035,1072,0,0
-182,-48,0,0,0,0,0,0,0,0,0,-1,1042,1072,0,0
-175,-48,0,0,0,0,0,0,0,0,0,-1,1049,1072,0,0
-168,-48,0,0,0,0,0,0,0,0,0,-1,1056,1072,0,0
-161,-48,0,0,0,0,0,0,0,0,0,-1,1063,1072,0,0
-154,-48,0,0,0,0,0,0,0,0,0,-1,1070,1072,0,0
-147,-48,0,0,0,0,0,0,0,0,0,-1,1077,1072,0,0
-140,-48,0,0,0,0,0,0,0,0,0,-1,1084,1072,0,0
-133,-48,0,0,0,0,0,0,0,0,0,-1,1091,1072,0,0
-126,-48,0,0,0,0,0,0,0,0,0,-1,1098,1072,0,0
-119,-48,0,0,0,0,0,0,0,0,0,-1,1105,1072,0,0
-112,-48,0,0,0,0,0,0,0,0,0,-1,1112,1072,0,0
-105,-48,0,0,0,0,0,0,0,0,0,-1,1119,1072,0,0
-98,-48,0,0,0,0,0,0,0,0,0,-1,1126,1072,0,0
-91,-48,0,0,0,0,0,0,0,0,0,-1,1133,1072,0,0
-84,-48,0,0,0,0,0,0,0,0,0,-1,1140,1072,0,0
-77,-48,0,0,0,0,0,0,0,0,0,-1,1147,1072,0,0
-70,-48,0,0,0,0,0,0,0,0,0,-1,1154,1072,0,0
-63,-48,0,0,0,0,0,0,0,0,0,-1,1161,1072,0,0
-56,-48,0,0,0,0,0,0,0,0,0,-1,1168,1072,0,0
-49,-48,0,0,0,0,0,0,0,0,0,-1,1175,1072,0,0
-42,-48,0,0,0,0,0,0,0,0,0,-1,1182,1072,0,0
-35,-48,0,0,0,0,0,0,0,0,0,-1,1189,1072,0,0
-28,-48,0,0,0,0,0,0,0,0,0,-1,1196,1072,0,0
-21,-48,0,0,0,0,0,0,0,0,0,-1,1203,1072,0,0
-14,-48,0,0,0,0,0,0,0,0,0,-1,1210,1072,0,0
-7,-48,0,0,0,0,0,0,0,0,0,-1,1217,1072,0,0
0,-48,0,0,0,0,0,0,0,0,0,-1,1224,1072,0,0
7,-48,0,0,0,0,0,0,0,0,0,-1,1231,1072,0,0
14,-48,0,0,0,0,0,0,0,0,0,-1,1238,1072,0,0
21,-48,0,0,0,0,0,0,0,0,0,-1,1245,1072,0,0
28,-48,0,0,0,0,0,0,0,0,0,-1,1252,1072,0,0
35,-48,0,0,0,0,0,0,0,0,0,-1,1259,1072,0,0
42,-48,0,0,0,0,0,0,0,0,0,-1,1266,1072,0,0
49,-48,0,0,0,0,0,0,0,0,0,-1,1273,1072,0,0
56,-48,0,0,0,0,0,0,0,0,0,-1,1280,1072,0,0
63,-48,0,0,0,0,0,0,0,0,0,-1,1287,1072,0,0
70,-48,0,0,0,0,0,0,0,0,0,-1,1294,1072,0,0
77,-48,0,0,0,0,0,0,0,0,0,-1,1301,1072,0,0
84,-48,0,0,0,0,0,0,0,0,0,-1,1308,1072,0,0
91,-48,0,0,0,0,0,0,0,0,0,-1,1315,1072,0,0
98,-48,0,0,0,0,0,0,0,0,0,-1,1322,1072,0,0
105,-48,0,0,0,0,0,0,0,0,0,-1,1329,1072,0,0
112,-48,0,0,0,0,0,0,0,0,0,-1,1336,1072,0,0
119,-48,0,0,0,0,0,0,0,0,0,-1,1343,1072,0,0
126,-48,0,0,0,0,0,0,0,0,0,-1,1350,1072,0,0
133,-48,0,0,0,0,0,0,0,0,0,-1,1357,1072,0,0
140,-48,0,0,0,0,0,0,0,0,0,-1,1364,1072,0,0
147,-48,0,0,0,0,0,0,0,0,0,-1,1371,1072,0,0
154,-48,0,0,0,0,0,0,0,0,0,-1,1378,1072,0,0
161,-48,0,0,0,0,0,0,0,0,0,-1,1385,1072,0,0
168,-48,0,0,0,0,0,0,0,0,0,-1,1392,1072,0,0
175,-48,0,0,0,0,0,0,0,0,0,-1,1399,1072,0,0
182,-48,0,0,0,0,0,0,0,0,0,-1,1406,1072,0,0
189,-48,0,0,0,0,0,0,0,0,0,-1,1413,1072,0,0
196,-48,0,0,0,0,0,0,0,0,0,-1,1420,1072,0,0
203,-48,0,0,0,0,0,0,0,0,0,-1,1427,1072,0,0
210,-48,0,0,0,0,0,0,0,0,0,-1,1434,1072,0,0
217,-48,0,0,0,0,0,0,0,0,0,-1,1441,1072,0,0
224,-48,0,0,0,0,0,0,0,0,0,-1,1448,1072,0,0
231,-48,0,0,0,0,0,0,0,0,0,-1,1455,1072,0,0
238,-48,0,0,0,0,0,0,0,0,0,-1,1462,1072,0,0
245,-48,0,0,0,0,0,0,0,0,0,-1,1469,1072,0,0
252,-48,0,0,0,0,0,0,0,0,0,-1,1476,1072,0,0
259,-48,0,0,0,0,0,0,0,0,0,-1,1483,1072,0,0
266,-48,0,0,0,0,0,0,0,0,0,-1,1490,1072,0,0
273,-48,0,0,0,0,0,0,0,0,0,-1,1497,1072,0,0
280,-48,0,0,0,0,0,0,0,0,0,-1,1504,1072,0,0
287,-48,0,0,0,0,0,0,0,0,0,-1,1511,1072,0,0
294,-48,0,0,0,0,0,0,0,0,0,-1,1518,1072,0,0
301,-48,0,0,0,0,0,0,0,0,0,-1,1525,1072,0,0
308,-48,0,0,0,0,0,0,0,0,0,-1,1532,1072,0,0
315,-48,0,0,0,0,0,0,0,0,0,-1,1539,1072,0,0
322,-48,0,0,0,0,0,0,0,0,0,-1,1546,1072,0,0
329,-48,0,0,0,0,0,0,0,0,0,-1,1553,1072,0,0
336,-48,0,0,0,0,0,0,0,0,0,-1,1560,1072,0,0
343,-48,0,0,0,0,0,0,0,0,0,-1,1567,1072,0,0
350,-48,0,0,0,0,0,0,0,0,0,-1,1574,1072,0,0
357,-48,0,0,0,0,0,0,0,0,0,-1,1581,1072,0,0
364,-48,0,0,0,0,0,0,0,0,0,-1,1588,1072,0,0
371,-48,0,0,0,0,0,0,0,0,0,-1,1595,1072,0,0
378,-48,0,0,0,0,0,0,0,0,0,-1,1602,1072,0,0
385,-48,0,0,0,0,0,0,0,0,0,-1,1609,1072,0,0
392,-48,0,0,0,0,0,0,0,0,0,-1,1616,1072,0,0
399,-48,0,0,0,0,0,0,0,0,0,-1,1623,1072,0,0
406,-48,0,0,0,0,0,0,0,0,0,-1,1630,1072,0,0
413,-48,0,0,0,0,0,0,0,0,0,-1,1637,1072,0,0
420,-48,0,0,0,0,0,0,0,0,0,-1,1644,1072,0,0
427,-48,0,0,0,0,0,0,0,0,0,-1,1651,1072,0,0
434,-48,0,0,0,0,0,0,0,0,0,-1,1658,1072,0,0
441,-48,0,0,0,0,0,0,0,0,0,-1,1665,1072,0,0
448,-48,0,0,0,0,0,0,0,0,0,-1,1672,1072,0,0
455,-48,0,0,0,0,0,0,0,0,0,-1,1679,1072,0,0
462,-48,0,0,0,0,0,0,0,0,0,-1,1686,1072,0,0
469,-48,0,0,0,0,0,0,0,0,0,-1,1693,1072,0,0
476,-48,0,0,0,0,0,0,0,0,0,-1,1700,1072,0,0
483,-48,0,0,0,0,0,0,0,0,0,-1,1707,1072,0,0
490,-48,0,0,0,0,0,0,0,0,0,-1,1714,1072,0,0
497,-48,0,0,0,0,0,0,0,0,0,-1,1721,1072,0,0
504,-48,0,0,0,0,0,0,0,0,0,-1,1728,1072,0,0
511,-48,0,0,0,0,0,0,0,0,0,-1,1735,1072,0,0
518,-48,0,0,0,0,0,0,0,0,0,-1,1742,1072,0,0
525,-48,0,0,0,0,0,0,0,0,0,-1,1749,1072,0,0
532,-48,0,0,0,0,0,0,0,0,0,-1,1756,1072,0,0
539,-48,0,0,0,0,0,0,0,0,0,-1,1763,1072,0,0
546,-48,0,0,0,0,0,0,0,0,0,-1,1770,1072,0,0
553,-48,0,0,0,0,0,0,0,0,0,-1,1777,1072,0,0
560,-48,0,0,0,0,0,0,0,0,0,-1,1784,1072,0,0
567,-48,0,0,0,0,0,0,0,0,0,-1,1791,1072,0,0
574,-48,0,0,0,0,0,0,0,0,0,-1,1798,1072,0,0
581,-48,0,0,0,0,0,0,0,0,0,-1,1805,1072,0,0
588,-48,0,0,0,0,0,0,0,0,0,-1,1812,1072,0,0
595,-48,0,0,0,0,0,0,0,0,0,-1,1819,1072,0,0
602,-48,0,0,0,0,0,0,0,0,0,-1,1826,1072,0,0
609,-48,0,0,0,0,0,0,0,0,0,-1,1833,1072,0,0
616,-48,0,0,0,0,0,0,0,0,0,-1,1840,1072,0,0
623,-48,0,0,0,0,0,0,0,0,0,-1,1847,1072,0,0
630,-48,0,0,0,0,0,0,0,0,0,-1,1854,1072,0,0
637,-48,0,0,0,0,0,0,0,0,0,-1,1861,1072,0,0
644,-48,0,0,0,0,0,0,0,0,0,-1,1868,1072,0,0
651,-48,52.9009,2.56812,0.00428557,0.000674869,-0.000116344,0.00428931,0.000671124,-0.0321775,0.00266416,0.0337819,1875,1072,52.9009,-2.56816
658,-48,52.9644,2.64819,0.00333347,0.000729061,-0.00044086,0.00340607,0.000656458,-0.163219,0.0020866,0.0401394,1882,1072,52.9644,-2.64821
665,-48,52.8767,2.32739,0.00253463,0.000694089,-0.000463079,0.00264457,0.000584146,-0.233102,0.00160418,0.0406515,1889,1072,52.8767,-2.32744
672,-48,52.9,2.37695,0.00193375,0.0006711,-0.000226701,0.00197322,0.000631631,-0.172374,0.00116356,0.0377078,1896,1072,52.9001,-2.37691
679,-48,52.9109,2.40967,0.0014261,0.000649545,0.000128499,0.00144681,0.000628834,0.159799,0.000837695,0.0387009,1903,1072,52.9109,-2.4097
686,-48,52.8281,2.32678,0.000931669,0.000406856,0.00061726,0.00133998,-1.45915e-06,0.584414,0.000893809,0.0391281,1910,1072,52.8281,-2.32672
693,-48,52.925,2.46338,0.000622501,0.00011904,0.00109737,0.00149665,-0.000755105,0.672652,0.00132334,0.0384719,1917,1072,52.925,-2.46333
700,-48,52.9778,2.56897,0.000462356,-7.54452e-05,0.00151942,0.00173648,-0.00134957,0.697817,0.0017864,0.0350685,1924,1072,52.9777,-2.56899
707,-48,52.9607,2.57288,0.000103797,-9.36901e-05,0.00182601,0.00183373,-0.00182363,0.758386,0.00211158,0.0260109,1931,1072,52.9607,-2.5729
714,-48,52.9529,2.62634,-0.000513513,8.26377e-05,0.00218105,0.00198589,-0.00241676,0.85331,0.00254592,0.0358159,1938,1072,52.9528,-2.62636
721,-48,52.9711,2.76685,0,0,0,0,0,0,0,-1,1945,1072,52.9711,-2.76686
728,-48,51.9757,6.63074,0,0,0,0,0,0,0,-1,1952,1072,51.9757,-6.63078
735,-48,51.8639,6.4342,-0.00249796,0.00174904,0.00269171,0.00305404,-0.00380296,1.11937,0.00396675,0.0213895,1959,1072,51.8639,-6.43419
742,-48,51.7423,6.20886,-0.00290459,0.00272456,0.00281742,0.0038924,-0.00407243,1.17784,0.00459889,0.0171244,1966,1072,51.7422,-6.20881
749,-48,51.7705,5.98755,-0.00352912,0.00418672,0.00290723,0.00515949,-0.00450189,1.2479,0.0055823,0.0144464,1973,1072,51.7705,-5.98756
756,-48,51.7711,5.76648,-0.00400916,0.00634414,0.00280062,0.00705316,-0.00471818,1.32284,0.00684061,0.012504,1980,1072,51.7711,-5.76653
763,-48,51.6984,5.52319,-0.0041189,0.00929525,0.00224471,0.00966091,-0.00448456,1.40932,0.00834718,0.0130592,1987,1072,51.6983,-5.52322
770,-48,51.6741,5.30066,-0.0038503,0.0130942,0.00166903,0.013257,-0.00401313,1.47354,0.0104362,0.0144064,1994,1072,51.6741,-5.30062
777,-48,51.5518,5.06213,-0.0027153,0.0180364,0.000881386,0.0180738,-0.00275267,1.52843,0.0130638,0.0132182,2001,1072,51.5518,-5.06216
784,-48,51.415,4.78186,-0.00109252,0.0234075,-0.000147695,0.0234084,-0.00109341,-1.56477,0.0159826,0.0249342,2008,1072,51.4151,-4.78181
791,-48,51.3149,4.61719,0.00108909,0.0293575,-0.00154134,0.0294413,0.00100529,-1.51649,0.0193012,0.0392203,2015,1072,51.3149,-4.61713
798,-48,51.3538,4.22278,0.00413681,0.0360711,-0.00352722,0.0364561,0.00375186,-1.46209,0.023155,0.0441813,2022,1072,51.3538,-4.2228
805,-48,51.2212,3.91528,0.00827971,0.0436682,-0.00637162,0.0447804,0.00716748,-1.39798,0.0277745,0.0434521,2029,1072,51.2212,-3.91534
812,-48,51.1543,3.56848,0.0133124,0.0521672,-0.0105525,0.0548482,0.0106314,-1.322,0.0335873,0.0448789,2036,1072,51.1543,-3.56846
-700,-55,-40.3439,0.968506,0,0,0,0,0,0,0,-1,524,1079,-40.3439,-0.968507
-693,-55,-41.6644,1.1582,0,0,0,0,0,0,0,-1,531,1079,-41.6644,-1.15819
-686,-55,-38.1735,-0.973022,0,0,0,0,0,0,0,-1,538,1079,-38.1735,0.973018
-679,-55,-38.3023,-0.442505,0,0,0,0,0,0,0,-1,545,1079,-38.3023,0.44246
-672,-55,-38.3801,-0.526978,0,0,0,0,0,0,0,-1,552,1079,-38.3801,0.526977
-665,-55,-38.1456,0.477905,0,0,0,0,0,0,0,-1,559,1079,-38.1456,-0.477869
-658,-55,-38.4386,0.37207,0,0,0,0,0,0,0,-1,566,1079,-38.4386,-0.372078
-651,-55,-38.3272,1.32776,0.0163652,0.0165194,0.00546918,0.021912,0.0109725,0.792446,0.0126509,0.0435792,573,1079,-38.3272,-1.3278
-644,-55,-38.2504,2.14905,0.0131199,0.0134145,0.00377083,0.0170409,0.00949347,0.804918,0.00985992,0.0244431,580,1079,-38.2504,-2.14902
-637,-55,-38.2451,2.36609,0.00986782,0.0100827,0.0022421,0.0122199,0.0077306,0.809343,0.00713744,0.0199452,587,1079,-38.2451,-2.3661
-630,-55,-38.246,2.70093,0.00662209,0.00623961,0.000892787,0.00734389,0.00551781,0.679889,0.00441496,0.0227323,594,1079,-38.246,-2.70094
-623,-55,-38.4015,3.06494,0.00420797,0.00355971,-7.62438e-05,0.00421681,0.00355087,-0.115514,0.00261762,0.0185583,601,1079,-38.4015,-3.065
-616,-55,-38.4383,3.34473,0.00281535,0.00159455,-0.000792707,0.00320544,0.00120447,-0.457303,0.00186961,0.0161922,608,1079,-38.4383,-3.3447
-609,-55,-38.3986,3.69629,0.00206186,0.000323251,-0.0014896,0.00291725,-0.000532147,-0.521268,0.00214434,0.0166698,615,1079,-38.3986,-3.69629
-602,-55,-38.335,3.98657,0.00129661,-0.00059991,-0.00207084,0.00262598,-0.00192927,-0.570691,0.00264021,0.0150129,622,1079,-38.335,-3.98658
-595,-55,-38.2233,4.29773,0.000998763,-0.000969647,-0.00227973,0.00249767,-0.00246855,-0.581624,0.00286726,0.0307661,629,1079,-38.2233,-4.29771
-588,-55,-38.2376,4.68616,0,0,0,0,0,0,0,-1,636,1079,-38.2376,-4.68611
-581,-55,-39.4529,0.672241,0,0,0,0,0,0,0,-1,643,1079,-39.4529,-0.672285
-574,-55,-39.3827,0.756836,0.00141594,-0.000966995,-0.00182839,0.00240681,-0.00195787,-0.496632,0.00252439,0.0435287,650,1079,-39.3827,-0.756864
-567,-55,-39.4089,0.864502,0.00129189,-0.000414398,-0.00143951,0.00211208,-0.00123458,-0.517894,0.00195421,0.043279,657,1079,-39.4089,-0.864497
-560,-55,-39.6329,0.708496,0.00101818,0.000457063,-0.000873117,0.00165471,-0.000179464,-0.629943,0.00116757,0.0425914,664,1079,-39.6329,-0.708485
-553,-55,-39.6306,0.807983,0.000764443,0.00155665,-9.90216e-05,0.00156884,0.000752253,-1.44831,0.000906024,0.0406945,671,1079,-39.6306,-0.807927
-546,-55,-39.5927,0.70874,0.000793802,0.00274427,0.000866484,0.0030736,0.000464476,1.20759,0.00191313,0.0384674,678,1079,-39.5927,-0.708765
-539,-55,-39.6686,0.814575,0.00145398,0.00359843,0.00185622,0.00466985,0.000382557,1.0473,0.00299387,0.0386735,685,1079,-39.6686,-0.814581
-532,-55,-39.7302,1.00488,0.00226377,0.0045256,0.00267695,0.00630072,0.000488653,0.985259,0.00404744,0.0396453,692,1079,-39.7302,-1.00487
-525,-55,0,0,0,0,0,0,0,0,0,-1,699,1079,0,0
-518,-55,0,0,0,0,0,0,0,0,0,-1,706,1079,0,0
-511,-55,0,0,0,0,0,0,0,0,0,-1,713,1079,0,0
-504,-55,0,0,0,0,0,0,0,0,0,-1,720,1079,0,0
-497,-55,0,0,0,0,0,0,0,0,0,-1,727,1079,0,0
-490,-55,0,0,0,0,0,0,0,0,0,-1,734,1079,0,0
-483,-55,0,0,0,0,0,0,0,0,0,-1,741,1079,0,0
-476,-55,0,0,0,0,0,0,0,0,0,-1,748,1079,0,0
-469,-55,0,0,0,0,0,0,0,0,0,-1,755,1079,0,0
-462,-55,0,0,0,0,0,0,0,0,0,-1,762,1079,0,0
-455,-55,0,0,0,0,0,0,0,0,0,-1,769,1079,0,0
-448,-55,0,0,0,0,0,0,0,0,0,-1,776,1079,0,0
-441,-55,0,0,0,0,0,0,0,0,0,-1,783,1079,0,0
-434,-55,0,0,0,0,0,0,0,0,0,-1,790,1079,0,0
-427,-55,0,0,0,0,0,0,0,0,0,-1,797,1079,0,0
-420,-55,0,0,0,0,0,0,0,0,0,-1,804,1079,0,0
-413,-55,0,0,0,0,0,0,0,0,0,-1,811,1079,0,0
-406,-55,0,0,0,0,0,0,0,0,0,-1,818,1079,0,0
-399,-55,0,0,0,0,0,0,0,0,0,-1,825,1079,0,0
-392,-55,0,0,0,0,0,0,0,0,0,-1,832,1079,0,0
-385,-55,0,0,0,0,0,0,0,0,0,-1,839,1079,0,0
-378,-55,0,0,0,0,0,0,0,0,0,-1,846,1079,0,0
-371,-55,0,0,0,0,0,0,0,0,0,-1,853,1079,0,0
-364,-55,0,0,0,0,0,0,0,0,0,-1,860,1079,0,0
-357,-55,0,0,0,0,0,0,0,0,0,-1,867,1079,0,0
-350,-55,0,0,0,0,0,0,0,0,0,-1,874,1079,0,0
-343,-55,0,0,0,0,0,0,0,0,0,-1,881,1079,0,0
-336,-55,0,0,0,0,0,0,0,0,0,-1,888,1079,0,0
-329,-55,0,0,0,0,0,0,0,0,0,-1,895,1079,0,0
-322,-55,0,0,0,0,0,0,0,0,0,-1,902,1079,0,0
-315,-55,0,0,0,0,0,0,0,0,0,-1,909,1079,0,0
-308,-55,0,0,0,0,0,0,0,0,0,-1,916,1079,0,0
-301,-55,0,0,0,0,0,0,0,0,0,-1,923,1079,0,0
-294,-55,0,0,0,0,0,0,0,0,0,-1,930,1079,0,0
-287,-55,0,0,0,0,0,0,0,0,0,-1,937,1079,0,0
-280,-55,0,0,0,0,0,0,0,0,0,-1,944,1079,0,0
-273,-55,0,0,0,0,0,0,0,0,0,-1,951,1079,0,0
-266,-55,0,0,0,0,0,0,0,0,0,-1,958,1079,0,0
-259,-55,0,0,0,0,0,0,0,0,0,-1,965,1079,0,0
-252,-55,0,0,0,0,0,0,0,0,0,-1,972,1079,0,0
-245,-55,0,0,0,0,0,0,0,0,0,-1,979,1079,0,0
-238,-55,0,0,0,0,0,0,0,0,0,-1,986,1079,0,0
-231,-55,0,0,0,0,0,0,0,0,0,-1,993,1079,0,0
-224,-55,0,0,0,0,0,0,0,0,0,-1,1000,1079,0,0
-217,-55,0,0,0,0,0,0,0,0,0,-1,1007,1079,0,0
-210,-55,0,0,0,0,0,0,0,0,0,-1,1014,1079,0,0
-203,-55,0,0,0,0,0,0,0,0,0,-1,1021,1079,0,0
-196,-55,0,0,0,0,0,0,0,0,0,-1,1028,1079,0,0
-189,-55,0,0,0,0,0,0,0,0,0,-1,1035,1079,0,0
-182,-55,0,0,0,0,0,0,0,0,0,-1,1042,1079,0,0
-175,-55,0,0,0,0,0,0,0,0,0,-1,1049,1079,0,0
-168,-55,0,0,0,0,0,0,0,0,0,-1,1056,1079,0,0
-161,-55,0,0,0,0,0,0,0,0,0,-1,1063,1079,0,0
-154,-55,0,0,0,0,0,0,0,0,0,-1,1070,1079,0,0
-147,-55,0,0,0,0,0,0,0,0,0,-1,1077,1079,0,0
-140,-55,0,0,0,0,0,0,0,0,0,-1,1084,1079,0,0
-133,-55,0,0,0,0,0,0,0,0,0,-1,1091,1079,0,0
-126,-55,0,0,0,0,0,0,0,0,0,-1,1098,1079,0,0
-119,-55,0,0,0,0,0,0,0,0,0,-1,1105,1079,0,0
-112,-55,0,0,0,0,0,0,0,0,0,-1,1112,1079,0,0
-105,-55,0,0,0,0,0,0,0,0,0,-1,1119,1079,0,0
-98,-55,0,0,0,0,0,0,0,0,0,-1,1126,1079,0,0
-91,-55,0,0,0,0,0,0,0,0,0,-1,1133,1079,0,0
-84,-55,0,0,0,0,0,0,0,0,0,-1,1140,1079,0,0
-77,-55,0,0,0,0,0,0,0,0,0,-1,1147,1079,0,0
-70,-55,0,0,0,0,0,0,0,0,0,-1,1154,1079,0,0
-63,-55,0,0,0,0,0,0,0,0,0,-1,1161,1079,0,0
-56,-55,0,0,0,0,0,0,0,0,0,-1,1168,1079,0,0
-49,-55,0,0,0,0,0,0,0,0,0,-1,1175,1079,0,0
-42,-55,0,0,0,0,0,0,0,0,0,-1,1182,1079,0,0
-35,-55,0,0,0,0,0,0,0,0,0,-1,1189,1079,0,0
-28,-55,0,0,0,0,0,0,0,0,0,-1,1196,1079,0,0
-21,-55,0,0,0,0,0,0,0,0,0,-1,1203,1079,0,0
-14,-55,0,0,0,0,0,0,0,0,0,-1,1210,1079,0,0
-7,-55,0,0,0,0,0,0,0,0,0,-1,1217,1079,0,0
0,-55,0,0,0,0,0,0,0,0,0,-1,1224,1079,0,0
7,-55,0,0,0,0,0,0,0,0,0,-1,1231,1079,0,0
14,-55,0,0,0,0,0,0,0,0,0,-1,1238,1079,0,0
21,-55,0,0,0,0,0,0,0,0,0,-1,1245,1079,0,0
28,-55,0,0,0,0,0,0,0,0,0,-1,1252,1079,0,0
35,-55,0,0,0,0,0,0,0,0,0,-1,1259,1079,0,0
42,-55,0,0,0,0,0,0,0,0,0,-1,1266,1079,0,0
49,-55,0,0,0,0,0,0,0,0,0,-1,1273,1079,0,0
56,-55,0,0,0,0,0,0,0,0,0,-1,1280,1079,0,0
63,-55,0,0,0,0,0,0,0,0,0,-1,1287,1079,0,0
70,-55,0,0,0,0,0,0,0,0,0,-1,1294,1079,0,0
77,-55,0,0,0,0,0,0,0,0,0,-1,1301,1079,0,0
84,-55,0,0,0,0,0,0,0,0,0,-1,1308,1079,0,0
91,-55,0,0,0,0,0,0,0,0,0,-1,1315,1079,0,0
98,-55,0,0,0,0,0,0,0,0,0,-1,1322,1079,0,0
105,-55,0,0,0,0,0,0,0,0,0,-1,1329,1079,0,0
112,-55,0,0,0,0,0,0,0,0,0,-1,1336,1079,0,0
119,-55,0,0,0,0,0,0,0,0,0,-1,1343,1079,0,0
126,-55,0,0,0,0,0,0,0,0,0,-1,1350,1079,0,0
133,-55,0,0,0,0,0,0,0,0,0,-1,1357,1079,0,0
140,-55,0,0,0,0,0,0,0,0,0,-1,1364,1079,0,0
147,-55,0,0,0,0,0,0,0,0,0,-1,1371,1079,0,0
154,-55,0,0,0,0,0,0,0,0,0,-1,1378,1079,0,0
161,-55,0,0,0,0,0,0,0,0,0,-1,1385,1079,0,0
168,-55,0,0,0,0,0,0,0,0,0,-1,1392,1079,0,0
175,-55,0,0,0,0,0,0,0,0,0,-1,1399,1079,0,0
182,-55,0,0,0,0,0,0,0,0,0,-1,1406,1079,0,0
189,-55,0,0,0,0,0,0,0,0,0,-1,1413,1079,0,0
196,-55,0,0,0,0,0,0,0,0,0,-1,1420,1079,0,0
203,-55,0,0,0,0,0,0,0,0,0,-1,1427,1079,0,0
210,-55,0,0,0,0,0,0,0,0,0,-1,1434,1079,0,0
217,-55,0,0,0,0,0,0,0,0,0,-1,1441,1079,0,0
224,-55,0,0,0,0,0,0,0,0,0,-1,1448,1079,0,0
231,-55,0,0,0,0,0,0,0,0,0,-1,1455,1079,0,0
238,-55,0,0,0,0,0,0,0,0,0,-1,1462,1079,0,0
245,-55,0,0,0,0,0,0,0,0,0,-1,1469,1079,0,0
252,-55,0,0,0,0,0,0,0,0,0,-1,1476,1079,0,0
259,-55,0,0,0,0,0,0,0,0,0,-1,1483,1079,0,0
266,-55,0,0,0,0,0,0,0,0,0,-1,1490,1079,0,0
273,-55,0,0,0,0,0,0,0,0,0,-1,1497,1079,0,0
280,-55,0,0,0,0,0,0,0,0,0,-1,1504,1079,0,0
287,-55,0,0,0,0,0,0,0,0,0,-1,1511,1079,0,0
294,-55,0,0,0,0,0,0,0,0,0,-1,1518,1079,0,0
301,-55,0,0,0,0,0,0,0,0,0,-1,1525,1079,0,0
308,-55,0,0,0,0,0,0,0,0,0,-1,1532,1079,0,0
315,-55,0,0,0,0,0,0,0,0,0,-1,1539,1079,0,0
322,-55,0,0,0,0,0,0,0,0,0,-1,1546,1079,0,0
329,-55,0,0,0,0,0,0,0,0,0,-1,1553,1079,0,0
336,-55,0,0,0,0,0,0,0,0,0,-1,1560,1079,0,0
343,-55,0,0,0,0,0,0,0,0,0,-1,1567,1079,0,0
350,-55,0,0,0,0,0,0,0,0,0,-1,1574,1079,0,0
357,-55,0,0,0,0,0,0,0,0,0,-1,1581,1079,0,0
364,-55,0,0,0,0,0,0,0,0,0,-1,1588,1079,0,0
371,-55,0,0,0,0,0,0,0,0,0,-1,1595,1079,0,0
378,-55,0,0,0,0,0,0,0,0,0,-1,1602,1079,0,0
385,-55,0,0,0,0,0,0,0,0,0,-1,1609,1079,0,0
392,-55,0,0,0,0,0,0,0,0,0,-1,1616,1079,0,0
399,-55,0,0,0,0,0,0,0,0,0,-1,1623,1079,0,0
406,-55,0,0,0,0,0,0,0,0,0,-1,1630,1079,0,0
413,-55,0,0,0,0,0,0,0,0,0,-1,1637,1079,0,0
420,-55,0,0,0,0,0,0,0,0,0,-1,1644,1079,0,0
427,-55,0,0,0,0,0,0,0,0,0,-1,1651,1079,0,0
434,-55,0,0,0,0,0,0,0,0,0,-1,1658,1079,0,0
441,-55,0,0,0,0,0,0,0,0,0,-1,1665,1079,0,0
448,-55,0,0,0,0,0,0,0,0,0,-1,1672,1079,0,0
455,-55,0,0,0,0,0,0,0,0,0,-1,1679,1079,0,0
462,-55,0,0,0,0,0,0,0,0,0,-1,1686,1079,0,0
469,-55,0,0,0,0,0,0,0,0,0,-1,1693,1079,0,0
476,-55,0,0,0,0,0,0,0,0,0,-1,1700,1079,0,0
483,-55,0,0,0,0,0,0,0,0,0,-1,1707,1079,0,0
490,-55,0,0,0,0,0,0,0,0,0,-1,1714,1079,0,0
497,-55,0,0,0,0,0,0,0,0,0,-1,1721,1079,0,0
504,-55,0,0,0,0,0,0,0,0,0,-1,1728,1079,0,0
511,-55,0,0,0,0,0,0,0,0,0,-1,1735,1079,0,0
518,-55,0,0,0,0,0,0,0,0,0,-1,1742,1079,0,0
525,-55,0,0,0,0,0,0,0,0,0,-1,1749,1079,0,0
532,-55,0,0,0,0,0,0,0,0,0,-1,1756,1079,0,0
539,-55,0,0,0,0,0,0,0,0,0,-1,1763,1079,0,0
546,-55,0,0,0,0,0,0,0,0,0,-1,1770,1079,0,0
553,-55,0,0,0,0,0,0,0,0,0,-1,1777,1079,0,0
560,-55,0,0,0,0,0,0,0,0,0,-1,1784,1079,0,0
567,-55,0,0,0,0,0,0,0,0,0,-1,1791,1079,0,0
574,-55,0,0,0,0,0,0,0,0,0,-1,1798,1079,0,0
581,-55,0,0,0,0,0,0,0,0,0,-1,1805,1079,0,0
588,-55,0,0,0,0,0,0,0,0,0,-1,1812,1079,0,0
595,-55,0,0,0,0,0,0,0,0,0,-1,1819,1079,0,0
602,-55,0,0,0,0,0,0,0,0,0,-1,1826,1079,0,0
609,-55,0,0,0,0,0,0,0,0,0,-1,1833,1079,0,0
616,-55,0,0,0,0,0,0,0,0,0,-1,1840,1079,0,0
623,-55,0,0,0,0,0,0,0,0,0,-1,1847,1079,0,0
630,-55,0,0,0,0,0,0,0,0,0,-1,1854,1079,0,0
637,-55,0,0,0,0,0,0,0,0,0,-1,1861,1079,0,0
644,-55,0,0,0,0,0,0,0,0,0,-1,1868,1079,0,0
651,-55,52.8447,2.76123,0.00437682,0.000598547,0.000338301,0.00440687,0.000568495,0.0885996,0.00276794,0.0360557,1875,1079,52.8447,-2.76123
658,-55,52.921,2.75806,0.00356193,0.000405621,-0.000140196,0.00356814,0.000399406,-0.0443013,0.00225743,0.0358567,1882,1079,52.9211,-2.75811
665,-55,52.7859,2.40833,0.00280137,0.000241534,-0.000271772,0.0028299,0.000212998,-0.104614,0.00181976,0.039085,1889,1079,52.7858,-2.40836
672,-55,52.897,2.54285,0.00217617,0.000162112,-0.000126804,0.00218412,0.000154159,-0.0626296,0.00140751,0.0388131,1896,1079,52.897,-2.54289
679,-55,52.92,2.54504,0.00160292,0.00014536,0.000149352,0.00161807,0.000130214,0.101068,0.00103804,0.0368355,1903,1079,52.9201,-2.54498
686,-55,52.9033,2.3927,0.00110302,-4.7451e-05,0.000585137,0.00134832,-0.000292752,0.396965,0.0010107,0.0392378,1910,1079,52.9033,-2.3927
693,-55,52.9871,2.45679,0.000810167,-0.00026069,0.00101971,0.00142647,-0.000876995,0.543643,0.00134246,0.0378817,1917,1079,52.987,-2.45684
700,-55,53.0208,2.56799,0.000658124,-0.000373875,0.00138775,0.0016227,-0.00133845,0.607406,0.00171224,0.0328281,1924,1079,53.0207,-2.56794
707,-55,53.0021,2.59802,0.000346394,-0.000344183,0.00168076,0.00171696,-0.00171475,0.68409,0.0019813,0.0237082,1931,1079,53.0021,-2.59799
714,-55,52.9756,2.68762,-0.000215432,-0.000160874,0.00205633,0.00186835,-0.00224466,0.792031,0.00237796,0.0431573,1938,1079,52.9756,-2.68767
721,-55,52.9991,2.83167,0,0,0,0,0,0,0,-1,1945,1079,52.9992,-2.8317
728,-55,51.6176,6.75146,0,0,0,0,0,0,0,-1,1952,1079,51.6176,-6.7515
735,-55,51.5347,6.48743,-0.00199602,0.00144368,0.00263052,0.00286669,-0.00341902,1.07492,0.00363372,0.0201619,1959,1079,51.5346,-6.48744
742,-55,51.5419,6.24207,-0.00225328,0.00239719,0.00279567,0.00370823,-0.00356432,1.13229,0.00419909,0.0209104,1966,1079,51.5419,-6.24213
749,-55,51.5486,5.99219,-0.00266218,0.00369646,0.00291368,0.00482963,-0.00379536,1.19988,0.00499156,0.0140753,1973,1079,51.5486,-5.99217
756,-55,51.4415,5.74329,-0.00289458,0.00557075,0.00283115,0.00643032,-0.00375415,1.27603,0.00594729,0.0113862,1980,1079,51.4415,-5.74323
763,-55,51.3899,5.50391,-0.00272646,0.00816538,0.00234424,0.0086485,-0.00320958,1.36755,0.00708225,0.0149225,1987,1079,51.3899,-5.50391
770,-55,51.384,5.23901,-0.00207718,0.0114789,0.0018292,0.0117214,-0.00231966,1.439,0.00869127,0.0169366,1994,1079,51.384,-5.23903
777,-55,51.3027,4.98828,-0.000462784,0.0156093,0.00111287,0.015686,-0.000539477,1.50199,0.0106417,0.0146915,2001,1079,51.3027,-4.98825
784,-55,51.1694,4.65259,0.00175247,0.0199981,0.000158189,0.0199995,0.00175109,1.56213,0.0127893,0.0299098,2008,1079,51.1694,-4.65259
791,-55,51.1023,4.37866,0.00468187,0.0247552,-0.00116953,0.0248231,0.00461395,-1.51279,0.0152453,0.040024,2015,1079,51.1022,-4.37867
798,-55,51.0225,4.12427,0.00871795,0.0299417,-0.00309524,0.0303839,0.00827575,-1.42889,0.018138,0.0458723,2022,1079,51.0226,-4.12424
805,-55,51.0386,3.99377,0.0141067,0.0356114,-0.0059097,0.0371284,0.0125897,-1.31952,0.021803,0.0456691,2029,1079,51.0387,-3.99377
812,-55,51.3401,3.52783,0.0206468,0.0417143,-0.0100453,0.0457363,0.0166249,-1.18996,0.0267319,0.0447245,2036,1079,51.3401,-3.52789
-700,-62,-40.646,0.22998,0,0,0,0,0,0,0,-1,524,1086,-40.646,-0.23002
-693,-62,-36.8406,-1.09595,0,0,0,0,0,0,0,-1,531,1086,-36.8406,1.096
-686,-62,-36.9684,-0.638062,0.0264237,0.0260435,0.0235455,0.0497799,0.0026873,0.781361,0.0323281,0.0494735,538,1086,-36.9684,0.6381
-679,-62,-37.1322,-0.108521,0.0275956,0.0242845,0.0187965,0.0448093,0.00707084,0.741473,0.0278171,0.0450422,545,1086,-37.1322,0.108537
-672,-62,-37.3411,0.170532,0.0261484,0.0218911,0.01493,0.0391007,0.00893879,0.714589,0.0236573,0.0450909,552,1086,-37.3411,-0.170518
-665,-62,-37.4795,0.790894,0.0231436,0.0192037,0.0117447,0.0330825,0.00926487,0.702305,0.0197066,0.0443671,559,1086,-37.4795,-0.790839
-658,-62,-37.5581,1.745,0,0,0,0,0,0,0,-1,566,1086,-37.5581,-1.74504
-651,-62,-37.9399,1.3645,0.0155907,0.0135881,0.00684552,0.0215078,0.00767106,0.712778,0.0125864,0.0429753,573,1086,-37.9399,-1.3645
-644,-62,-37.9363,2.01196,0.0123384,0.0110125,0.00479773,0.0165188,0.00683213,0.716739,0.00958446,0.0163985,580,1086,-37.9363,-2.01191
-637,-62,-37.9821,2.38086,0.00916632,0.00829799,0.00296083,0.0117246,0.00573966,0.712599,0.00676972,0.0138571,587,1086,-37.9821,-2.38082
-630,-62,-38.0255,2.7196,0.00613408,0.00496257,0.00128261,0.00695836,0.00413829,0.571196,0.00404137,0.0150269,594,1086,-38.0254,-2.71966
-623,-62,-38.0813,3.09338,0.00397945,0.0027188,0.000140349,0.00399488,0.00270336,0.109544,0.00235397,0.0175552,601,1086,-38.0813,-3.09336
-616,-62,-38.0953,3.44739,0.00291072,0.0010859,-0.00066335,0.00312638,0.000870251,-0.314319,0.00186319,0.0173018,608,1086,-38.0953,-3.44741
-609,-62,-38.0641,3.76172,0.00240214,3.63189e-05,-0.00136158,0.00302289,-0.000584431,-0.427752,0.00223568,0.0172753,615,1086,-38.0641,-3.76169
-602,-62,-37.9568,4.04663,0.00176592,-0.000668943,-0.00192933,0.00282982,-0.00173284,-0.503943,0.00265951,0.0161977,622,1086,-37.9568,-4.04667
-595,-62,-37.8199,4.40186,0.00150714,-0.000950401,-0.00217563,0.00277702,-0.00222028,-0.528336,0.00289115,0.0362909,629,1086,-37.8199,-4.40182
-588,-62,-37.7533,4.80664,0,0,0,0,0,0,0,-1,636,1086,-37.7533,-4.80665
-581,-62,-39.455,0.841919,0,0,0,0,0,0,0,-1,643,1086,-39.455,-0.841865
-574,-62,-39.4525,0.997925,0.00197038,-0.000958636,-0.00189844,0.00290355,-0.00189181,-0.456862,0.00278907,0.0359075,650,1086,-39.4524,-0.997871
-567,-62,-39.4614,0.868164,0.00185367,-0.000472451,-0.00161366,0.00267973,-0.00129851,-0.473136,0.00234253,0.0401057,657,1086,-39.4614,-0.868221
-560,-62,-39.5133,0.592285,0.00156871,0.000313486,-0.00117654,0.00227457,-0.000392369,-0.540378,0.00166267,0.0425697,664,1086,-39.5133,-0.592338
-553,-62,-39.4911,0.656128,0.00124346,0.00134661,-0.000552307,0.00184975,0.000740327,-0.831956,0.00107501,0.0374411,671,1086,-39.4912,-0.656114
-546,-62,-39.509,0.719482,0.00121759,0.00253725,0.000270204,0.00259043,0.0011644,1.37646,0.00149812,0.0333649,678,1086,-39.509,-0.719532
-539,-62,-39.512,0.702515,0.00207409,0.00350941,0.00117102,0.00416518,0.00141832,1.0603,0.0024452,0.0399327,685,1086,-39.512,-0.702523
-532,-62,-39.4284,0.758545,0.00308664,0.00456867,0.00189781,0.00586501,0.0017903,0.971525,0.00347073,0.0415316,692,1086,-39.4284,-0.758565
-525,-62,0,0,0,0,0,0,0,0,0,-1,699,1086,0,0
-518,-62,0,0,0,0,0,0,0,0,0,-1,706,1086,0,0
-511,-62,0,0,0,0,0,0,0,0,0,-1,713,1086,0,0
-504,-62,0,0,0,0,0,0,0,0,0,-1,720,1086,0,0
-497,-62,0,0,0,0,0,0,0,0,0,-1,727,1086,0,0
-490,-62,0,0,0,0,0,0,0,0,0,-1,734,1086,0,0
-483,-62,0,0,0,0,0,0,0,0,0,-1,741,1086,0,0
-476,-62,0,0,0,0,0,0,0,0,0,-1,748,1086,0,0
-469,-62,0,0,0,0,0,0,0,0,0,-1,755,1086,0,0
-462,-62,0,0,0,0,0,0,0,0,0,-1,762,1086,0,0
-455,-62,0,0,0,0,0,0,0,0,0,-1,769,1086,0,0
-448,-62,0,0,0,0,0,0,0,0,0,-1,776,1086,0,0
-441,-62,0,0,0,0,0,0,0,0,0,-1,783,1086,0,0
-434,-62,0,0,0,0,0,0,0,0,0,-1,790,1086,0,0
-427,-62,0,0,0,0,0,0,0,0,0,-1,797,1086,0,0
-420,-62,0,0,0,0,0,0,0,0,0,-1,804,1086,0,0
-413,-62,0,0,0,0,0,0,0,0,0,-1,811,1086,0,0
-406,-62,0,0,0,0,0,0,0,0,0,-1,818,1086,0,0
-399,-62,0,0,0,0,0,0,0,0,0,-1,825,1086,0,0
-392,-62,0,0,0,0,0,0,0,0,0,-1,832,1086,0,0
-385,-62,0,0,0,0,0,0,0,0,0,-1,839,1086,0,0
-378,-62,0,0,0,0,0,0,0,0,0,-1,846,1086,0,0
-371,-62,0,0,0,0,0,0,0,0,0,-1,853,1086,0,0
-364,-62,0,0,0,0,0,0,0,0,0,-1,860,1086,0,0
-357,-62,0,0,0,0,0,0,0,0,0,-1,867,1086,0,0
-350,-62,0,0,0,0,0,0,0,0,0,-1,874,1086,0,0
-343,-62,0,0,0,0,0,0,0,0,0,-1,881,1086,0,0
-336,-62,0,0,0,0,0,0,0,0,0,-1,888,1086,0,0
-329,-62,0,0,0,0,0,0,0,0,0,-1,895,1086,0,0
-322,-62,0,0,0,0,0,0,0,0,0,-1,902,1086,0,0
-315,-62,0,0,0,0,0,0,0,0,0,-1,909,1086,0,0
-308,-62,0,0,0,0,0,0,0,0,0,-1,916,1086,0,0
-301,-62,0,0,0,0,0,0,0,0,0,-1,923,1086,0,0
-294,-62,0,0,0,0,0,0,0,0,0,-1,930,1086,0,0
-287,-62,0,0,0,0,0,0,0,0,0,-1,937,1086,0,0
-280,-62,0,0,0,0,0,0,0,0,0,-1,944,1086,0,0
-273,-62,0,0,0,0,0,0,0,0,0,-1,951,1086,0,0
-266,-62,0,0,0,0,0,0,0,0,0,-1,958,1086,0,0
-259,-62,0,0,0,0,0,0,0,0,0,-1,965,1086,0,0
-252,-62,0,0,0,0,0,0,0,0,0,-1,972,1086,0,0
-245,-62,0,0,0,0,0,0,0,0,0,-1,979,1086,0,0
-238,-62,0,0,0,0,0,0,0,0,0,-1,986,1086,0,0
-231,-62,0,0,0,0,0,0,0,0,0,-1,993,1086,0,0
-224,-62,0,0,0,0,0,0,0,0,0,-1,1000,1086,0,0
-217,-62,0,0,0,0,0,0,0,0,0,-1,1007,1086,0,0
-210,-62,0,0,0,0,0,0,0,0,0,-1,1014,1086,0,0
-203,-62,0,0,0,0,0,0,0,0,0,-1,1021,1086,0,0
-196,-62,0,0,0,0,0,0,0,0,0,-1,1028,1086,0,0
-189,-62,0,0,0,0,0,0,0,0,0,-1,1035,1086,0,0
-182,-62,0,0,0,0,0,0,0,0,0,-1,1042,1086,0,0
-175,-62,0,0,0,0,0,0,0,0,0,-1,1049,1086,0,0
-168,-62,0,0,0,0,0,0,0,0,0,-1,1056,1086,0,0
-161,-62,0,0,0,0,0,0,0,0,0,-1,1063,1086,0,0
-154,-62,0,0,0,0,0,0,0,0,0,-1,1070,1086,0,0
-147,-62,0,0,0,0,0,0,0,0,0,-1,1077,1086,0,0
-140,-62,0,0,0,0,0,0,0,0,0,-1,1084,1086,0,0
-133,-62,0,0,0,0,0,0,0,0,0,-1,1091,1086,0,0
-126,-62,0,0,0,0,0,0,0,0,0,-1,1098,1086,0,0
-119,-62,0,0,0,0,0,0,0,0,0,-1,1105,1086,0,0
-112,-62,0,0,0,0,0,0,0,0,0,-1,1112,1086,0,0
-105,-62,0,0,0,0,0,0,0,0,0,-1,1119,1086,0,0
-98,-62,0,0,0,0,0,0,0,0,0,-1,1126,1086,0,0
-91,-62,0,0,0,0,0,0,0,0,0,-1,1133,1086,0,0
-84,-62,0,0,0,0,0,0,0,0,0,-1,1140,1086,0,0
-77,-62,0,0,0,0,0,0,0,0,0,-1,1147,1086,0,0
-70,-62,0,0,0,0,0,0,0,0,0,-1,1154,1086,0,0
-63,-62,0,0,0,0,0,0,0,0,0,-1,1161,1086,0,0
-56,-62,0,0,0,0,0,0,0,0,0,-1,1168,1086,0,0
-49,-62,0,0,0,0,0,0,0,0,0,-1,1175,1086,0,0
-42,-62,0,0,0,0,0,0,0,0,0,-1,1182,1086,0,0
-35,-62,0,0,0,0,0,0,0,0,0,-1,1189,1086,0,0
-28,-62,0,0,0,0,0,0,0,0,0,-1,1196,1086,0,0
-21,-62,0,0,0,0,0,0,0,0,0,-1,1203,1086,0,0
-14,-62,0,0,0,0,0,0,0,0,0,-1,1210,1086,0,0
-7,-62,0,0,0,0,0,0,0,0,0,-1,1217,1086,0,0
0,-62,0,0,0,0,0,0,0,0,0,-1,1224,1086,0,0
7,-62,0,0,0,0,0,0,0,0,0,-1,1231,1086,0,0
14,-62,0,0,0,0,0,0,0,0,0,-1,1238,1086,0,0
21,-62,0,0,0,0,0,0,0,0,0,-1,1245,1086,0,0
28,-62,0,0,0,0,0,0,0,0,0,-1,1252,1086,0,0
35,-62,0,0,0,0,0,0,0,0,0,-1,1259,1086,0,0
42,-62,0,0,0,0,0,0,0,0,0,-1,1266,1086,0,0
49,-62,0,0,0,0,0,0,0,0,0,-1,1273,1086,0,0
56,-62,0,0,0,0,0,0,0,0,0,-1,1280,1086,0,0
63,-62,0,0,0,0,0,0,0,0,0,-1,1287,1086,0,0
70,-62,0,0,0,0,0,0,0,0,0,-1,1294,1086,0,0
77,-62,0,0,0,0,0,0,0,0,0,-1,1301,1086,0,0
84,-62,0,0,0,0,0,0,0,0,0,-1,1308,1086,0,0
91,-62,0,0,0,0,0,0,0,0,0,-1,1315,1086,0,0
98,-62,0,0,0,0,0,0,0,0,0,-1,1322,1086,0,0
105,-62,0,0,0,0,0,0,0,0,0,-1,1329,1086,0,0
112,-62,0,0,0,0,0,0,0,0,0,-1,1336,1086,0,0
119,-62,0,0,0,0,0,0,0,0,0,-1,1343,1086,0,0
126,-62,0,0,0,0,0,0,0,0,0,-1,1350,1086,0,0
133,-62,0,0,0,0,0,0,0,0,0,-1,1357,1086,0,0
140,-62,0,0,0,0,0,0,0,0,0,-1,1364,1086,0,0
147,-62,0,0,0,0,0,0,0,0,0,-1,1371,1086,0,0
154,-62,0,0,0,0,0,0,0,0,0,-1,1378,1086,0,0
161,-62,0,0,0,0,0,0,0,0,0,-1,1385,1086,0,0
168,-62,0,0,0,0,0,0,0,0,0,-1,1392,1086,0,0
175,-62,0,0,0,0,0,0,0,0,0,-1,1399,1086,0,0
182,-62,0,0,0,0,0,0,0,0,0,-1,1406,1086,0,0
189,-62,0,0,0,0,0,0,0,0,0,-1,1413,1086,0,0
196,-62,0,0,0,0,0,0,0,0,0,-1,1420,1086,0,0
203,-62,0,0,0,0,0,0,0,0,0,-1,1427,1086,0,0
210,-62,0,0,0,0,0,0,0,0,0,-1,1434,1086,0,0
217,-62,0,0,0,0,0,0,0,0,0,-1,1441,1086,0,0
224,-62,0,0,0,0,0,0,0,0,0,-1,1448,1086,0,0
231,-62,0,0,0,0,0,0,0,0,0,-1,1455,1086,0,0
238,-62,0,0,0,0,0,0,0,0,0,-1,1462,1086,0,0
245,-62,0,0,0,0,0,0,0,0,0,-1,1469,1086,0,0
252,-62,0,0,0,0,0,0,0,0,0,-1,1476,1086,0,0
259,-62,0,0,0,0,0,0,0,0,0,-1,1483,1086,0,0
266,-62,0,0,0,0,0,0,0,0,0,-1,1490,1086,0,0
273,-62,0,0,0,0,0,0,0,0,0,-1,1497,1086,0,0
280,-62,0,0,0,0,0,0,0,0,0,-1,1504,1086,0,0
287,-62,0,0,0,0,0,0,0,0,0,-1,1511,1086,0,0
294,-62,0,0,0,0,0,0,0,0,0,-1,1518,1086,0,0
301,-62,0,0,0,0,0,0,0,0,0,-1,1525,1086,0,0
308,-62,0,0,0,0,0,0,0,0,0,-1,1532,1086,0,0
315,-62,0,0,0,0,0,0,0,0,0,-1,1539,1086,0,0
322,-62,0,0,0,0,0,0,0,0,0,-1,1546,1086,0,0
329,-62,0,0,0,0,0,0,0,0,0,-1,1553,1086,0,0
336,-62,0,0,0,0,0,0,0,0,0,-1,1560,1086,0,0
343,-62,0,0,0,0,0,0,0,0,0,-1,1567,1086,0,0
350,-62,0,0,0,0,0,0,0,0,0,-1,1574,1086,0,0
357,-62,0,0,0,0,0,0,0,0,0,-1,1581,1086,0,0
364,-62,0,0,0,0,0,0,0,0,0,-1,1588,1086,0,0
371,-62,0,0,0,0,0,0,0,0,0,-1,1595,1086,0,0
378,-62,0,0,0,0,0,0,0,0,0,-1,1602,1086,0,0
385,-62,0,0,0,0,0,0,0,0,0,-1,1609,1086,0,0
392,-62,0,0,0,0,0,0,0,0,0,-1,1616,1086,0,0
399,-62,0,0,0,0,0,0,0,0,0,-1,1623,1086,0,0
406,-62,0,0,0,0,0,0,0,0,0,-1,1630,1086,0,0
413,-62,0,0,0,0,0,0,0,0,0,-1,1637,1086,0,0
420,-62,0,0,0,0,0,0,0,0,0,-1,1644,1086,0,0
427,-62,0,0,0,0,0,0,0,0,0,-1,1651,1086,0,0
434,-62,0,0,0,0,0,0,0,0,0,-1,1658,1086,0,0
441,-62,0,0,0,0,0,0,0,0,0,-1,1665,1086,0,0
448,-62,0,0,0,0,0,0,0,0,0,-1,1672,1086,0,0
455,-62,0,0,0,0,0,0,0,0,0,-1,1679,1086,0,0
462,-62,0,0,0,0,0,0,0,0,0,-1,1686,1086,0,0
469,-62,0,0,0,0,0,0,0,0,0,-1,1693,1086,0,0
476,-62,0,0,0,0,0,0,0,0,0,-1,1700,1086,0,0
483,-62,0,0,0,0,0,0,0,0,0,-1,1707,1086,0,0
490,-62,0,0,0,0,0,0,0,0,0,-1,1714,1086,0,0
497,-62,0,0,0,0,0,0,0,0,0,-1,1721,1086,0,0
504,-62,0,0,0,0,0,0,0,0,0,-1,1728,1086,0,0
511,-62,0,0,0,0,0,0,0,0,0,-1,1735,1086,0,0
518,-62,0,0,0,0,0,0,0,0,0,-1,1742,1086,0,0
525,-62,0,0,0,0,0,0,0,0,0,-1,1749,1086,0,0
532,-62,0,0,0,0,0,0,0,0,0,-1,1756,1086,0,0
539,-62,0,0,0,0,0,0,0,0,0,-1,1763,1086,0,0
546,-62,0,0,0,0,0,0,0,0,0,-1,1770,1086,0,0
553,-62,0,0,0,0,0,0,0,0,0,-1,1777,1086,0,0
560,-62,0,0,0,0,0,0,0,0,0,-1,1784,1086,0,0
567,-62,0,0,0,0,0,0,0,0,0,-1,1791,1086,0,0
574,-62,0,0,0,0,0,0,0,0,0,-1,1798,1086,0,0
581,-62,0,0,0,0,0,0,0,0,0,-1,1805,1086,0,0
588,-62,0,0,0,0,0,0,0,0,0,-1,1812,1086,0,0
595,-62,0,0,0,0,0,0,0,0,0,-1,1819,1086,0,0
602,-62,0,0,0,0,0,0,0,0,0,-1,1826,1086,0,0
609,-62,0,0,0,0,0,0,0,0,0,-1,1833,1086,0,0
616,-62,0,0,0,0,0,0,0,0,0,-1,1840,1086,0,0
623,-62,0,0,0,0,0,0,0,0,0,-1,1847,1086,0,0
630,-62,0,0,0,0,0,0,0,0,0,-1,1854,1086,0,0
637,-62,0,0,0,0,0,0,0,0,0,-1,1861,1086,0,0
644,-62,0,0,0,0,0,0,0,0,0,-1,1868,1086,0,0
651,-62,52.7808,2.58521,0.00463792,0.000232124,0.000738278,0.00475834,0.000111702,0.161687,0.00313566,0.0407183,1875,1086,52.7808,-2.58518
658,-62,52.7137,2.55957,0.00384849,-0.000128014,0.000166126,0.00385542,-0.000134942,0.04168,0.00261642,0.0394948,1882,1086,52.7137,-2.55957
665,-62,52.9103,2.53809,0.0030676,-0.000377504,-5.61972e-05,0.00306851,-0.00037842,-0.0163064,0.00218278,0.0382223,1889,1086,52.9103,-2.53804
672,-62,52.9171,2.64685,0.00238566,-0.000486741,-8.52753e-06,0.00238569,-0.000486766,-0.00296875,0.0017751,0.0379601,1896,1086,52.9171,-2.64681
679,-62,52.9597,2.66113,0.00173583,-0.000482272,0.000169183,0.00174866,-0.000495102,0.0756903,0.00136116,0.0383894,1903,1086,52.9597,-2.66118
686,-62,52.9554,2.43774,0.00124175,-0.000613551,0.00053413,0.00138453,-0.000756335,0.261213,0.00125364,0.0392713,1910,1086,52.9554,-2.43771
693,-62,52.9573,2.50171,0.000980359,-0.000739932,0.000909464,0.001372,-0.00113158,0.40663,0.00144766,0.0368288,1917,1086,52.9573,-2.50173
700,-62,52.9935,2.53845,0.00084481,-0.000759762,0.00120855,0.00149313,-0.00140808,0.492376,0.00167525,0.0304998,1924,1086,52.9935,-2.53845
707,-62,52.972,2.58374,0.000580325,-0.000664526,0.00148448,0.00156758,-0.00165178,0.586886,0.00185891,0.0203991,1931,1086,52.972,-2.58379
714,-62,52.9835,2.60693,7.8828e-05,-0.000450499,0.00186861,0.00170143,-0.0020731,0.715048,0.00218274,0.0367381,1938,1086,52.9836,-2.60697
721,-62,53.0365,2.69153,0,0,0,0,0,0,0,-1,1945,1086,53.0365,-2.69156
728,-62,51.3013,6.88086,0,0,0,0,0,0,0,-1,1952,1086,51.3012,-6.88086
735,-62,51.2783,6.50415,-0.0015148,0.00113779,0.00245613,0.00260284,-0.00297986,1.03296,0.00322562,0.025658,1959,1086,51.2783,-6.50416
742,-62,51.2402,6.28223,-0.00164583,0.00206376,0.002643,0.00343785,-0.00301993,1.09136,0.003731,0.0273305,1966,1086,51.2403,-6.28219
749,-62,51.2178,5.97974,-0.00189502,0.00319797,0.00277451,0.00441744,-0.00311449,1.15668,0.0043702,0.021167,1973,1086,51.2177,-5.9797
756,-62,51.1191,5.74475,-0.00187791,0.00474674,0.00270595,0.00571152,-0.0028427,1.22831,0.00503051,0.015073,1980,1086,51.1191,-5.74475
763,-62,51.0887,5.47107,-0.00137332,0.00693091,0.00224265,0.00749785,-0.00194026,1.32318,0.00575539,0.0158192,1987,1086,51.0887,-5.47108
770,-62,51.0842,5.17419,-0.000255717,0.00966559,0.00171813,0.0099547,-0.000544832,1.40409,0.00682533,0.0132777,1994,1086,51.0842,-5.17419
777,-62,50.9692,4.87024,0.00198128,0.0128978,0.000973838,0.012984,0.00189508,1.48252,0.00809855,0.0158636,2001,1086,50.9694,-4.87028
784,-62,50.8496,4.50964,0.00499971,0.0162057,-1.8008e-05,0.0162057,0.00499968,-1.56919,0.00958238,0.0293113,2008,1086,50.8497,-4.50962
791,-62,50.7866,4.14893,0.00900254,0.01965,-0.00140504,0.0198323,0.00882025,-1.44178,0.0114734,0.0425655,2015,1086,50.7867,-4.14899
798,-62,50.7668,3.89087,0.0145039,0.0231674,-0.00341701,0.0243529,0.0133184,-1.23685,0.0140808,0.0452081,2022,1086,50.7668,-3.89093
805,-62,50.7458,3.73071,0,0,0,0,0,0,0,-1,2029,1086,50.7459,-3.7307
812,-62,51.5356,3.80945,0,0,0,0,0,0,0,-1,2036,1086,51.5357,-3.80939
-700,-69,-38.6339,-2.44556,0,0,0,0,0,0,0,-1,524,1093,-38.6339,2.44555
-693,-69,-38.0457,-1.81055,0.0278568,0.0204191,0.0341658,0.0585056,-0.0102297,0.731188,0.0428228,0.0471049,531,1093,-38.0457,1.81055
-686,-69,-37.4048,-1.24121,0.0307627,0.0198688,0.0274843,0.0533346,-0.00270314,0.687574,0.0364908,0.0428324,538,1093,-37.4048,1.2412
-679,-69,-37.0841,-0.385132,0.0300213,0.0184574,0.0218365,0.0468283,0.00165036,0.655977,0.0306835,0.0455156,545,1093,-37.0841,0.385167
-672,-69,-36.8371,0.331543,0.0272656,0.0166405,0.0171619,0.0399184,0.00398771,0.635299,0.0253876,0.0459829,552,1093,-36.8371,-0.331573
-665,-69,-36.843,1.05371,0.0233536,0.01464,0.0132821,0.0329752,0.00501845,0.626917,0.0205163,0.0456475,559,1093,-36.843,-1.05372
-658,-69,-36.9503,1.9834,0,0,0,0,0,0,0,-1,566,1093,-36.9503,-1.98334
-651,-69,-37.4876,1.62805,0.0149263,0.0104589,0.00742396,0.0204453,0.00493989,0.639267,0.0123183,0.0367749,573,1093,-37.4876,-1.62809
-644,-69,-37.5481,1.98511,0.0115325,0.00847571,0.00513613,0.0153628,0.0046454,0.64078,0.00909774,0.0120293,580,1093,-37.5481,-1.98512
-637,-69,-37.5935,2.37537,0.00834145,0.00639761,0.00311699,0.0106345,0.00410452,0.634268,0.00619286,0.0132869,587,1093,-37.5935,-2.37541
-630,-69,-37.6129,2.70544,0.00549772,0.00364129,0.00127445,0.00614615,0.00299287,0.470655,0.00354888,0.0144823,594,1093,-37.6128,-2.70546
-623,-69,-37.6172,3.05029,0.00355679,0.00183179,4.24788e-05,0.00355783,0.00183074,0.0246055,0.00205441,0.0170733,601,1093,-37.6172,-3.05035
-616,-69,-37.6389,3.37244,0.00275377,0.000537984,-0.000758742,0.00298868,0.000303076,-0.300243,0.0018995,0.0206889,608,1093,-37.6389,-3.37244
-609,-69,-37.6354,3.7063,0.00249404,-0.000302856,-0.00138936,0.00306688,-0.000875698,-0.391069,0.00239056,0.0189073,615,1093,-37.6354,-3.70632
-602,-69,-37.5858,4.07666,0.002036,-0.000825662,-0.00188696,0.00297327,-0.00176293,-0.461011,0.00276405,0.0189222,622,1093,-37.5857,-4.0767
-595,-69,-37.4713,4.35999,0.00188428,-0.00106503,-0.00209774,0.00297382,-0.00215457,-0.479038,0.00297345,0.0372329,629,1093,-37.4713,-4.36003
-588,-69,-37.4423,4.66162,0,0,0,0,0,0,0,-1,636,1093,-37.4422,-4.66168
-581,-69,-39.4828,0.864624,0,0,0,0,0,0,0,-1,643,1093,-39.4828,-0.864664
-574,-69,-39.4831,0.862793,0.00242265,-0.00128266,-0.00185911,0.00319461,-0.00205462,-0.393568,0.00305438,0.0318594,650,1093,-39.4831,-0.862798
-567,-69,-39.4713,0.88147,0.00232119,-0.000943884,-0.00163299,0.00299772,-0.00162042,-0.392768,0.00270552,0.0370596,657,1093,-39.4713,-0.881418
-560,-69,-39.4924,0.64563,0.00203342,-0.000339889,-0.00128279,0.00259425,-0.000900719,-0.412155,0.0020953,0.0401539,664,1093,-39.4925,-0.645573
-553,-69,-39.486,0.630249,0.00160354,0.000497599,-0.000795513,0.00201939,8.17467e-05,-0.48168,0.00131986,0.0387157,671,1093,-39.4859,-0.630299
-546,-69,-39.528,0.625977,0.00142579,0.00152198,-0.000146666,0.00162824,0.00131953,-0.943842,0.000998623,0.0366366,678,1093,-39.528,-0.625972
-539,-69,-39.4082,0.74646,0.00223294,0.00239387,0.000558784,0.00287796,0.00174886,0.856908,0.00167438,0.0405063,685,1093,-39.4082,-0.746489
-532,-69,-39.0333,0.633667,0.003201,0.0033682,0.00106062,0.00434851,0.00222069,0.824726,0.00251081,0.0411051,692,1093,-39.0333,-0.633653
-525,-69,0,0,0,0,0,0,0,0,0,-1,699,1093,0,0
-518,-69,0,0,0,0,0,0,0,0,0,-1,706,1093,0,0
-511,-69,0,0,0,0,0,0,0,0,0,-1,713,1093,0,0
-504,-69,0,0,0,0,0,0,0,0,0,-1,720,1093,0,0
-497,-69,0,0,0,0,0,0,0,0,0,-1,727,1093,0,0
-490,-69,0,0,0,0,0,0,0,0,0,-1,734,1093,0,0
-483,-69,0,0,0,0,0,0,0,0,0,-1,741,1093,0,0
-476,-69,0,0,0,0,0,0,0,0,0,-1,748,1093,0,0
-469,-69,0,0,0,0,0,0,0,0,0,-1,755,1093,0,0
-462,-69,0,0,0,0,0,0,0,0,0,-1,762,1093,0,0
-455,-69,0,0,0,0,0,0,0,0,0,-1,769,1093,0,0
-448,-69,0,0,0,0,0,0,0,0,0,-1,776,1093,0,0
-441,-69,0,0,0,0,0,0,0,0,0,-1,783,1093,0,0
-434,-69,0,0,0,0,0,0,0,0,0,-1,790,1093,0,0
-427,-69,0,0,0,0,0,0,0,0,0,-1,797,1093,0,0
-420,-69,0,0,0,0,0,0,0,0,0,-1,804,1093,0,0
-413,-69,0,0,0,0,0,0,0,0,0,-1,811,1093,0,0
-406,-69,0,0,0,0,0,0,0,0,0,-1,818,1093,0,0
-399,-69,0,0,0,0,0,0,0,0,0,-1,825,1093,0,0
-392,-69,0,0,0,0,0,0,0,0,0,-1,832,1093,0,0
-385,-69,0,0,0,0,0,0,0,0,0,-1,839,1093,0,0
-378,-69,0,0,0,0,0,0,0,0,0,-1,846,1093,0,0
-371,-69,0,0,0,0,0,0,0,0,0,-1,853,1093,0,0
-364,-69,0,0,0,0,0,0,0,0,0,-1,860,1093,0,0
-357,-69,0,0,0,0,0,0,0,0,0,-1,867,1093,0,0
-350,-69,0,0,0,0,0,0,0,0,0,-1,874,1093,0,0
-343,-69,0,0,0,0,0,0,0,0,0,-1,881,1093,0,0
-336,-69,0,0,0,0,0,0,0,0,0,-1,888,1093,0,0
-329,-69,0,0,0,0,0,0,0,0,0,-1,895,1093,0,0
-322,-69,0,0,0,0,0,0,0,0,0,-1,902,1093,0,0
-315,-69,0,0,0,0,0,0,0,0,0,-1,909,1093,0,0
-308,-69,0,0,0,0,0,0,0,0,0,-1,916,1093,0,0
-301,-69,0,0,0,0,0,0,0,0,0,-1,923,1093,0,0
-294,-69,0,0,0,0,0,0,0,0,0,-1,930,1093,0,0
-287,-69,0,0,0,0,0,0,0,0,0,-1,937,1093,0,0
-280,-69,0,0,0,0,0,0,0,0,0,-1,944,1093,0,0
-273,-69,0,0,0,0,0,0,0,0,0,-1,951,1093,0,0
-266,-69,0,0,0,0,0,0,0,0,0,-1,958,1093,0,0
-259,-69,0,0,0,0,0,0,0,0,0,-1,965,1093,0,0
-252,-69,0,0,0,0,0,0,0,0,0,-1,972,1093,0,0
-245,-69,0,0,0,0,0,0,0,0,0,-1,979,1093,0,0
-238,-69,0,0,0,0,0,0,0,0,0,-1,986,1093,0,0
-231,-69,0,0,0,0,0,0,0,0,0,-1,993,1093,0,0
-224,-69,0,0,0,0,0,0,0,0,0,-1,1000,1093,0,0
-217,-69,0,0,0,0,0,0,0,0,0,-1,1007,1093,0,0
-210,-69,0,0,0,0,0,0,0,0,0,-1,1014,1093,0,0
-203,-69,0,0,0,0,0,0,0,0,0,-1,1021,1093,0,0
-196,-69,0,0,0,0,0,0,0,0,0,-1,1028,1093,0,0
-189,-69,0,0,0,0,0,0,0,0,0,-1,1035,1093,0,0
-182,-69,0,0,0,0,0,0,0,0,0,-1,1042,1093,0,0
-175,-69,0,0,0,0,0,0,0,0,0,-1,1049,1093,0,0
-168,-69,0,0,0,0,0,0,0,0,0,-1,1056,1093,0,0
-161,-69,0,0,0,0,0,0,0,0,0,-1,1063,1093,0,0
-154,-69,0,0,0,0,0,0,0,0,0,-1,1070,1093,0,0
-147,-69,0,0,0,0,0,0,0,0,0,-1,1077,1093,0,0
-140,-69,0,0,0,0,0,0,0,0,0,-1,1084,1093,0,0
-133,-69,0,0,0,0,0,0,0,0,0,-1,1091,1093,0,0
-126,-69,0,0,0,0,0,0,0,0,0,-1,1098,1093,0,0
-119,-69,0,0,0,0,0,0,0,0,0,-1,1105,1093,0,0
-112,-69,0,0,0,0,0,0,0,0,0,-1,1112,1093,0,0
-105,-69,0,0,0,0,0,0,0,0,0,-1,1119,1093,0,0
-98,-69,0,0,0,0,0,0,0,0,0,-1,1126,1093,0,0
-91,-69,0,0,0,0,0,0,0,0,0,-1,1133,1093,0,0
-84,-69,0,0,0,0,0,0,0,0,0,-1,1140,1093,0,0
-77,-69,0,0,0,0,0,0,0,0,0,-1,1147,1093,0,0
-70,-69,0,0,0,0,0,0,0,0,0,-1,1154,1093,0,0
-63,-69,0,0,0,0,0,0,0,0,0,-1,1161,1093,0,0
-56,-69,0,0,0,0,0,0,0,0,0,-1,1168,1093,0,0
-49,-69,0,0,0,0,0,0,0,0,0,-1,1175,1093,0,0
-42,-69,0,0,0,0,0,0,0,0,0,-1,1182,1093,0,0
-35,-69,0,0,0,0,0,0,0,0,0,-1,1189,1093,0,0
-28,-69,0,0,0,0,0,0,0,0,0,-1,1196,1093,0,0
-21,-69,0,0,0,0,0,0,0,0,0,-1,1203,1093,0,0
-14,-69,0,0,0,0,0,0,0,0,0,-1,1210,1093,0,0
-7,-69,0,0,0,0,0,0,0,0,0,-1,1217,1093,0,0
0,-69,0,0,0,0,0,0,0,0,0,-1,1224,1093,0,0
7,-69,0,0,0,0,0,0,0,0,0,-1,1231,1093,0,0
14,-69,0,0,0,0,0,0,0,0,0,-1,1238,1093,0,0
21,-69,0,0,0,0,0,0,0,0,0,-1,1245,1093,0,0
28,-69,0,0,0,0,0,0,0,0,0,-1,1252,1093,0,0
35,-69,0,0,0,0,0,0,0,0,0,-1,1259,1093,0,0
42,-69,0,0,0,0,0,0,0,0,0,-1,1266,1093,0,0
49,-69,0,0,0,0,0,0,0,0,0,-1,1273,1093,0,0
56,-69,0,0,0,0,0,0,0,0,0,-1,1280,1093,0,0
63,-69,0,0,0,0,0,0,0,0,0,-1,1287,1093,0,0
70,-69,0,0,0,0,0,0,0,0,0,-1,1294,1093,0,0
77,-69,0,0,0,0,0,0,0,0,0,-1,1301,1093,0,0
84,-69,0,0,0,0,0,0,0,0,0,-1,1308,1093,0,0
91,-69,0,0,0,0,0,0,0,0,0,-1,1315,1093,0,0
98,-69,0,0,0,0,0,0,0,0,0,-1,1322,1093,0,0
105,-69,0,0,0,0,0,0,0,0,0,-1,1329,1093,0,0
112,-69,0,0,0,0,0,0,0,0,0,-1,1336,1093,0,0
119,-69,0,0,0,0,0,0,0,0,0,-1,1343,1093,0,0
126,-69,0,0,0,0,0,0,0,0,0,-1,1350,1093,0,0
133,-69,0,0,0,0,0,0,0,0,0,-1,1357,1093,0,0
140,-69,0,0,0,0,0,0,0,0,0,-1,1364,1093,0,0
147,-69,0,0,0,0,0,0,0,0,0,-1,1371,1093,0,0
154,-69,0,0,0,0,0,0,0,0,0,-1,1378,1093,0,0
161,-69,0,0,0,0,0,0,0,0,0,-1,1385,1093,0,0
168,-69,0,0,0,0,0,0,0,0,0,-1,1392,1093,0,0
175,-69,0,0,0,0,0,0,0,0,0,-1,1399,1093,0,0
182,-69,0,0,0,0,0,0,0,0,0,-1,1406,1093,0,0
189,-69,0,0,0,0,0,0,0,0,0,-1,1413,1093,0,0
196,-69,0,0,0,0,0,0,0,0,0,-1,1420,1093,0,0
203,-69,0,0,0,0,0,0,0,0,0,-1,1427,1093,0,0
210,-69,0,0,0,0,0,0,0,0,0,-1,1434,1093,0,0
217,-69,0,0,0,0,0,0,0,0,0,-1,1441,1093,0,0
224,-69,0,0,0,0,0,0,0,0,0,-1,1448,1093,0,0
231,-69,0,0,0,0,0,0,0,0,0,-1,1455,1093,0,0
238,-69,0,0,0,0,0,0,0,0,0,-1,1462,1093,0,0
245,-69,0,0,0,0,0,0,0,0,0,-1,1469,1093,0,0
252,-69,0,0,0,0,0,0,0,0,0,-1,1476,1093,0,0
259,-69,0,0,0,0,0,0,0,0,0,-1,1483,1093,0,0
266,-69,0,0,0,0,0,0,0,0,0,-1,1490,1093,0,0
273,-69,0,0,0,0,0,0,0,0,0,-1,1497,1093,0,0
280,-69,0,0,0,0,0,0,0,0,0,-1,1504,1093,0,0
287,-69,0,0,0,0,0,0,0,0,0,-1,1511,1093,0,0
294,-69,0,0,0,0,0,0,0,0,0,-1,1518,1093,0,0
301,-69,0,0,0,0,0,0,0,0,0,-1,1525,1093,0,0
308,-69,0,0,0,0,0,0,0,0,0,-1,1532,1093,0,0
315,-69,0,0,0,0,0,0,0,0,0,-1,1539,1093,0,0
322,-69,0,0,0,0,0,0,0,0,0,-1,1546,1093,0,0
329,-69,0,0,0,0,0,0,0,0,0,-1,1553,1093,0,0
336,-69,0,0,0,0,0,0,0,0,0,-1,1560,1093,0,0
343,-69,0,0,0,0,0,0,0,0,0,-1,1567,1093,0,0
350,-69,0,0,0,0,0,0,0,0,0,-1,1574,1093,0,0
357,-69,0,0,0,0,0,0,0,0,0,-1,1581,1093,0,0
364,-69,0,0,0,0,0,0,0,0,0,-1,1588,1093,0,0
371,-69,0,0,0,0,0,0,0,0,0,-1,1595,1093,0,0
378,-69,0,0,0,0,0,0,0,0,0,-1,1602,1093,0,0
385,-69,0,0,0,0,0,0,0,0,0,-1,1609,1093,0,0
392,-69,0,0,0,0,0,0,0,0,0,-1,1616,1093,0,0
399,-69,0,0,0,0,0,0,0,0,0,-1,1623,1093,0,0
406,-69,0,0,0,0,0,0,0,0,0,-1,1630,1093,0,0
413,-69,0,0,0,0,0,0,0,0,0,-1,1637,1093,0,0
420,-69,0,0,0,0,0,0,0,0,0,-1,1644,1093,0,0
427,-69,0,0,0,0,0,0,0,0,0,-1,1651,1093,0,0
434,-69,0,0,0,0,0,0,0,0,0,-1,1658,1093,0,0
441,-69,0,0,0,0,0,0,0,0,0,-1,1665,1093,0,0
448,-69,0,0,0,0,0,0,0,0,0,-1,1672,1093,0,0
455,-69,0,0,0,0,0,0,0,0,0,-1,1679,1093,0,0
462,-69,0,0,0,0,0,0,0,0,0,-1,1686,1093,0,0
469,-69,0,0,0,0,0,0,0,0,0,-1,1693,1093,0,0
476,-69,0,0,0,0,0,0,0,0,0,-1,1700,1093,0,0
483,-69,0,0,0,0,0,0,0,0,0,-1,1707,1093,0,0
490,-69,0,0,0,0,0,0,0,0,0,-1,1714,1093,0,0
497,-69,0,0,0,0,0,0,0,0,0,-1,1721,1093,0,0
504,-69,0,0,0,0,0,0,0,0,0,-1,1728,1093,0,0
511,-69,0,0,0,0,0,0,0,0,0,-1,1735,1093,0,0
518,-69,0,0,0,0,0,0,0,0,0,-1,1742,1093,0,0
525,-69,0,0,0,0,0,0,0,0,0,-1,1749,1093,0,0
532,-69,0,0,0,0,0,0,0,0,0,-1,1756,1093,0,0
539,-69,0,0,0,0,0,0,0,0,0,-1,1763,1093,0,0
546,-69,0,0,0,0,0,0,0,0,0,-1,1770,1093,0,0
553,-69,0,0,0,0,0,0,0,0,0,-1,1777,1093,0,0
560,-69,0,0,0,0,0,0,0,0,0,-1,1784,1093,0,0
567,-69,0,0,0,0,0,0,0,0,0,-1,1791,1093,0,0
574,-69,0,0,0,0,0,0,0,0,0,-1,1798,1093,0,0
581,-69,0,0,0,0,0,0,0,0,0,-1,1805,1093,0,0
588,-69,0,0,0,0,0,0,0,0,0,-1,1812,1093,0,0
595,-69,0,0,0,0,0,0,0,0,0,-1,1819,1093,0,0
602,-69,0,0,0,0,0,0,0,0,0,-1,1826,1093,0,0
609,-69,0,0,0,0,0,0,0,0,0,-1,1833,1093,0,0
616,-69,0,0,0,0,0,0,0,0,0,-1,1840,1093,0,0
623,-69,0,0,0,0,0,0,0,0,0,-1,1847,1093,0,0
630,-69,0,0,0,0,0,0,0,0,0,-1,1854,1093,0,0
637,-69,0,0,0,0,0,0,0,0,0,-1,1861,1093,0,0
644,-69,0,0,0,0,0,0,0,0,0,-1,1868,1093,0,0
651,-69,52.7009,2.48523,0.00483241,-0.000237068,0.000833568,0.00496595,-0.000370612,0.158858,0.00344083,0.0435639,1875,1093,52.7009,-2.48525
658,-69,52.7286,2.48328,0.00401912,-0.000579567,0.000313345,0.00404037,-0.00060082,0.0677208,0.00291457,0.0444364,1882,1093,52.7287,-2.48331
665,-69,52.9445,2.52075,0.00320527,-0.000801408,8.06087e-05,0.0032069,-0.00080303,0.0201077,0.00244988,0.0402737,1889,1093,52.9444,-2.52073
672,-69,53.0278,2.56091,0.00247499,-0.000877022,7.45292e-05,0.00247665,-0.000878679,0.0222195,0.00200909,0.035525,1896,1093,53.0278,-2.56089
679,-69,53.0303,2.57361,0.00177253,-0.000828671,0.000167015,0.00178321,-0.000839351,0.0638574,0.00154648,0.0361352,1903,1093,53.0303,-2.57357
686,-69,52.9852,2.55444,0.00131018,-0.000913156,0.000457176,0.00140052,-0.00100349,0.195084,0.00139425,0.0368233,1910,1093,52.9852,-2.5544
693,-69,52.95,2.52588,0.00109702,-0.000994992,0.00076056,0.0013443,-0.00124227,0.314344,0.00149374,0.0339959,1917,1093,52.95,-2.52585
700,-69,52.9452,2.51099,0.000983796,-0.000979049,0.000991769,0.00139765,-0.0013929,0.395321,0.00161113,0.0274139,1924,1093,52.9452,-2.51101
707,-69,52.9357,2.53174,0.000756518,-0.000854971,0.00123931,0.00142899,-0.00152744,0.497156,0.00170721,0.0205036,1931,1093,52.9356,-2.53172
714,-69,52.9625,2.52771,0.00030897,-0.000625719,0.00161382,0.00152175,-0.0018385,0.644459,0.00194292,0.0293792,1938,1093,52.9626,-2.52774
721,-69,52.9913,2.55872,0,0,0,0,0,0,0,-1,1945,1093,52.9913,-2.55866
728,-69,50.6302,7.0293,0,0,0,0,0,0,0,-1,1952,1093,50.6303,-7.02935
735,-69,50.8679,6.67419,-0.00114215,0.000901014,0.00217716,0.00228436,-0.00252549,1.00476,0.00277813,0.0349763,1959,1093,50.8679,-6.67417
742,-69,50.8735,6.39612,-0.00118022,0.00179726,0.00240344,0.00313568,-0.00251865,1.06269,0.003271,0.0279034,1966,1093,50.8735,-6.39609
749,-69,50.7179,6.02917,-0.00131507,0.0027709,0.0025797,0.00401861,-0.00256278,1.1203,0.00383063,0.0295432,1973,1093,50.7179,-6.02913
756,-69,50.785,5.72791,-0.00111743,0.00406014,0.00255868,0.00511123,-0.00216852,1.18102,0.00431591,0.0172731,1980,1093,50.785,-5.72795
763,-69,50.7672,5.43457,-0.000326775,0.00589384,0.00217805,0.00658062,-0.00101356,1.26534,0.00476103,0.0172213,1987,1093,50.7672,-5.43461
770,-69,50.7025,5.17236,0.00123948,0.00808579,0.00171678,0.00849217,0.000833103,1.33837,0.00540519,0.0180648,1994,1093,50.7025,-5.17237
777,-69,50.6021,4.87622,0.00406137,0.0104777,0.00104091,0.0106423,0.00389673,1.41393,0.0062173,0.0249551,2001,1093,50.6019,-4.87622
784,-69,50.552,4.35291,0.00783291,0.0127578,0.000126208,0.012761,0.00782968,1.54519,0.00743066,0.036234,2008,1093,50.552,-4.35296
791,-69,50.5032,3.98743,0.0128675,0.0149137,-0.00117793,0.0154508,0.0123304,-1.14298,0.00943404,0.0460847,2015,1093,50.5031,-3.98737
798,-69,50.5891,3.72302,0.0197495,0.016773,-0.00310038,0.0217003,0.0148221,-0.561626,0.0128055,0.0489975,2022,1093,50.5891,-3.72297
805,-69,50.6252,3.46301,0,0,0,0,0,0,0,-1,2029,1093,50.6252,-3.46307
812,-69,51.7861,3.85449,0,0,0,0,0,0,0,-1,2036,1093,51.7862,-3.85453
-700,-76,0,0,0,0,0,0,0,0,0,-1,524,1100,0,0
-693,-76,-37.6784,-1.51672,0,0,0,0,0,0,0,-1,531,1100,-37.6784,1.51667
-686,-76,-37.1171,-1.34692,0,0,0,0,0,0,0,-1,538,1100,-37.1171,1.34689
-679,-76,-36.8449,-0.44458,0.0309055,0.0146822,0.023632,0.0477793,-0.00219154,0.620075,0.0326079,0.0492361,545,1100,-36.8449,0.444529
-672,-76,-36.5717,0.178955,0.0273266,0.0128639,0.0185814,0.0400342,0.000156309,0.59983,0.0266375,0.0481074,552,1100,-36.5717,-0.178907
-665,-76,-36.2283,1.26331,0,0,0,0,0,0,0,-1,559,1100,-36.2283,-1.26335
-658,-76,-36.968,0.88501,0,0,0,0,0,0,0,-1,566,1100,-36.968,-0.885007
-651,-76,-36.9658,1.41699,0,0,0,0,0,0,0,-1,573,1100,-36.9658,-1.41703
-644,-76,-37.0869,1.95654,0.010462,0.00627135,0.00537946,0.0141398,0.00259354,0.599686,0.00869196,0.0120074,580,1100,-37.0869,-1.95653
-637,-76,-37.1729,2.32544,0.00730362,0.00473244,0.00323155,0.00949592,0.00254015,0.596084,0.00567661,0.0146854,587,1100,-37.1729,-2.32546
-630,-76,-37.199,2.67542,0.00471482,0.00251071,0.00127734,0.00529981,0.00192572,0.429466,0.0030977,0.015297,594,1100,-37.199,-2.67537
-623,-76,-37.2153,3.026,0.00297999,0.00113373,-3.19124e-05,0.00298054,0.00113318,-0.017278,0.0017372,0.0180469,601,1100,-37.2153,-3.02596
-616,-76,-37.263,3.39978,0.00244158,0.000147334,-0.000822564,0.00270602,-0.000117103,-0.311044,0.00184429,0.0182325,608,1100,-37.263,-3.39976
-609,-76,-37.2495,3.75549,0.0024308,-0.000509859,-0.00137617,0.00297435,-0.00105341,-0.376165,0.00241197,0.0190002,615,1100,-37.2495,-3.75548
-602,-76,-37.198,4.104,0.00212862,-0.000904515,-0.00177419,0.00294609,-0.00172198,-0.431763,0.00272583,0.0188042,622,1100,-37.198,-4.104
-595,-76,-37.1595,4.38586,0.00206999,-0.00115131,-0.00190391,0.00295315,-0.00203446,-0.434323,0.00289583,0.0315617,629,1100,-37.1595,-4.38591
-588,-76,-37.1496,4.65186,0,0,0,0,0,0,0,-1,636,1100,-37.1496,-4.65186
-581,-76,-39.4446,0.659424,0,0,0,0,0,0,0,-1,643,1100,-39.4447,-0.659378
-574,-76,-39.4202,0.604614,0.00273467,-0.00169174,-0.00165208,0.00328328,-0.00224036,-0.320618,0.00320797,0.0349797,650,1100,-39.4201,-0.604648
-567,-76,-39.3866,0.562134,0.00268535,-0.00153651,-0.0014639,0.00314328,-0.00199443,-0.30317,0.00299088,0.041407,657,1100,-39.3866,-0.562107
-560,-76,-39.3361,0.619995,0.00245522,-0.00115884,-0.00118599,0.00280966,-0.00151328,-0.290403,0.00253298,0.0434793,664,1100,-39.3361,-0.619939
-553,-76,-39.4805,0.627197,0.00200083,-0.00057537,-0.000841966,0.0022516,-0.000826136,-0.289468,0.00183936,0.0438094,671,1100,-39.4805,-0.627248
-546,-76,-39.4716,0.521118,0.00175953,0.000198579,-0.000423325,0.00186694,9.11658e-05,-0.248492,0.00121538,0.0416463,678,1100,-39.4716,-0.521167
-539,-76,-39.4498,0.692749,0.00261741,0.000875202,-5.50528e-05,0.00261915,0.000873464,-0.0315574,0.00153986,0.0392182,685,1100,-39.4498,-0.692748
-532,-76,-39.1474,0.752319,0.00368457,0.00165632,3.57306e-05,0.0036852,0.00165569,0.0176092,0.0021313,0.0388919,692,1100,-39.1474,-0.752334
-525,-76,0,0,0,0,0,0,0,0,0,-1,699,1100,0,0
-518,-76,0,0,0,0,0,0,0,0,0,-1,706,1100,0,0
-511,-76,0,0,0,0,0,0,0,0,0,-1,713,1100,0,0
-504,-76,0,0,0,0,0,0,0,0,0,-1,720,1100,0,0
-497,-76,0,0,0,0,0,0,0,0,0,-1,727,1100,0,0
-490,-76,0,0,0,0,0,0,0,0,0,-1,734,1100,0,0
-483,-76,0,0,0,0,0,0,0,0,0,-1,741,1100,0,0
-476,-76,0,0,0,0,0,0,0,0,0,-1,748,1100,0,0
-469,-76,0,0,0,0,0,0,0,0,0,-1,755,1100,0,0
-462,-76,0,0,0,0,0,0,0,0,0,-1,762,1100,0,0
-455,-76,0,0,0,0,0,0,0,0,0,-1,769,1100,0,0
-448,-76,0,0,0,0,0,0,0,0,0,-1,776,1100,0,0
-441,-76,0,0,0,0,0,0,0,0,0,-1,783,1100,0,0
-434,-76,0,0,0,0,0,0,0,0,0,-1,790,1100,0,0
-427,-76,0,0,0,0,0,0,0,0,0,-1,797,1100,0,0
-420,-76,0,0,0,0,0,0,0,0,0,-1,804,1100,0,0
-413,-76,0,0,0,0,0,0,0,0,0,-1,811,1100,0,0
-406,-76,0,0,0,0,0,0,0,0,0,-1,818,1100,0,0
-399,-76,0,0,0,0,0,0,0,0,0,-1,825,1100,0,0
-392,-76,0,0,0,0,0,0,0,0,0,-1,832,1100,0,0
-385,-76,0,0,0,0,0,0,0,0,0,-1,839,1100,0,0
-378,-76,0,0,0,0,0,0,0,0,0,-1,846,1100,0,0
-371,-76,0,0,0,0,0,0,0,0,0,-1,853,1100,0,0
-364,-76,0,0,0,0,0,0,0,0,0,-1,860,1100,0,0
-357,-76,0,0,0,0,0,0,0,0,0,-1,867,1100,0,0
-350,-76,0,0,0,0,0,0,0,0,0,-1,874,1100,0,0
-343,-76,0,0,0,0,0,0,0,0,0,-1,881,1100,0,0
-336,-76,0,0,0,0,0,0,0,0,0,-1,888,1100,0,0
-329,-76,0,0,0,0,0,0,0,0,0,-1,895,1100,0,0
-322,-76,0,0,0,0,0,0,0,0,0,-1,902,1100,0,0
-315,-76,0,0,0,0,0,0,0,0,0,-1,909,1100,0,0
-308,-76,0,0,0,0,0,0,0,0,0,-1,916,1100,0,0
-301,-76,0,0,0,0,0,0,0,0,0,-1,923,1100,0,0
-294,-76,0,0,0,0,0,0,0,0,0,-1,930,1100,0,0
-287,-76,0,0,0,0,0,0,0,0,0,-1,937,1100,0,0
-280,-76,0,0,0,0,0,0,0,0,0,-1,944,1100,0,0
-273,-76,0,0,0,0,0,0,0,0,0,-1,951,1100,0,0
-266,-76,0,0,0,0,0,0,0,0,0,-1,958,1100,0,0
-259,-76,0,0,0,0,0,0,0,0,0,-1,965,1100,0,0
-252,-76,0,0,0,0,0,0,0,0,0,-1,972,1100,0,0
-245,-76,0,0,0,0,0,0,0,0,0,-1,979,1100,0,0
-238,-76,0,0,0,0,0,0,0,0,0,-1,986,1100,0,0
-231,-76,0,0,0,0,0,0,0,0,0,-1,993,1100,0,0
-224,-76,0,0,0,0,0,0,0,0,0,-1,1000,1100,0,0
-217,-76,0,0,0,0,0,0,0,0,0,-1,1007,1100,0,0
-210,-76,0,0,0,0,0,0,0,0,0,-1,1014,1100,0,0
-203,-76,0,0,0,0,0,0,0,0,0,-1,1021,1100,0,0
-196,-76,0,0,0,0,0,0,0,0,0,-1,1028,1100,0,0
-189,-76,0,0,0,0,0,0,0,0,0,-1,1035,1100,0,0
-182,-76,0,0,0,0,0,0,0,0,0,-1,1042,1100,0,0
-175,-76,0,0,0,0,0,0,0,0,0,-1,1049,1100,0,0
-168,-76,0,0,0,0,0,0,0,0,0,-1,1056,1100,0,0
-161,-76,0,0,0,0,0,0,0,0,0,-1,1063,1100,0,0
-154,-76,0,0,0,0,0,0,0,0,0,-1,1070,1100,0,0
-147,-76,0,0,0,0,0,0,0,0,0,-1,1077,1100,0,0
-140,-76,0,0,0,0,0,0,0,0,0,-1,1084,1100,0,0
-133,-76,0,0,0,0,0,0,0,0,0,-1,1091,1100,0,0
-126,-76,0,0,0,0,0,0,0,0,0,-1,1098,1100,0,0
-119,-76,0,0,0,0,0,0,0,0,0,-1,1105,1100,0,0
-112,-76,0,0,0,0,0,0,0,0,0,-1,1112,1100,0,0
-105,-76,0,0,0,0,0,0,0,0,0,-1,1119,1100,0,0
-98,-76,0,0,0,0,0,0,0,0,0,-1,1126,1100,0,0
-91,-76,0,0,0,0,0,0,0,0,0,-1,1133,1100,0,0
-84,-76,0,0,0,0,0,0,0,0,0,-1,1140,1100,0,0
-77,-76,0,0,0,0,0,0,0,0,0,-1,1147,1100,0,0
-70,-76,0,0,0,0,0,0,0,0,0,-1,1154,1100,0,0
-63,-76,0,0,0,0,0,0,0,0,0,-1,1161,1100,0,0
-56,-76,0,0,0,0,0,0,0,0,0,-1,1168,1100,0,0
-49,-76,0,0,0,0,0,0,0,0,0,-1,1175,1100,0,0
-42,-76,0,0,0,0,0,0,0,0,0,-1,1182,1100,0,0
-35,-76,0,0,0,0,0,0,0,0,0,-1,1189,1100,0,0
-28,-76,0,0,0,0,0,0,0,0,0,-1,1196,1100,0,0
-21,-76,0,0,0,0,0,0,0,0,0,-1,1203,1100,0,0
-14,-76,0,0,0,0,0,0,0,0,0,-1,1210,1100,0,0
-7,-76,0,0,0,0,0,0,0,0,0,-1,1217,1100,0,0
0,-76,0,0,0,0,0,0,0,0,0,-1,1224,1100,0,0
7,-76,0,0,0,0,0,0,0,0,0,-1,1231,1100,0,0
14,-76,0,0,0,0,0,0,0,0,0,-1,1238,1100,0,0
21,-76,0,0,0,0,0,0,0,0,0,-1,1245,1100,0,0
28,-76,0,0,0,0,0,0,0,0,0,-1,1252,1100,0,0
35,-76,0,0,0,0,0,0,0,0,0,-1,1259,1100,0,0
42,-76,0,0,0,0,0,0,0,0,0,-1,1266,1100,0,0
49,-76,0,0,0,0,0,0,0,0,0,-1,1273,1100,0,0
56,-76,0,0,0,0,0,0,0,0,0,-1,1280,1100,0,0
63,-76,0,0,0,0,0,0,0,0,0,-1,1287,1100,0,0
70,-76,0,0,0,0,0,0,0,0,0,-1,1294,1100,0,0
77,-76,0,0,0,0,0,0,0,0,0,-1,1301,1100,0,0
84,-76,0,0,0,0,0,0,0,0,0,-1,1308,1100,0,0
91,-76,0,0,0,0,0,0,0,0,0,-1,1315,1100,0,0
98,-76,0,0,0,0,0,0,0,0,0,-1,1322,1100,0,0
105,-76,0,0,0,0,0,0,0,0,0,-1,1329,1100,0,0
112,-76,0,0,0,0,0,0,0,0,0,-1,1336,1100,0,0
119,-76,0,0,0,0,0,0,0,0,0,-1,1343,1100,0,0
126,-76,0,0,0,0,0,0,0,0,0,-1,1350,1100,0,0
133,-76,0,0,0,0,0,0,0,0,0,-1,1357,1100,0,0
140,-76,0,0,0,0,0,0,0,0,0,-1,1364,1100,0,0
147,-76,0,0,0,0,0,0,0,0,0,-1,1371,1100,0,0
154,-76,0,0,0,0,0,0,0,0,0,-1,1378,1100,0,0
161,-76,0,0,0,0,0,0,0,0,0,-1,1385,1100,0,0
168,-76,0,0,0,0,0,0,0,0,0,-1,1392,1100,0,0
175,-76,0,0,0,0,0,0,0,0,0,-1,1399,1100,0,0
182,-76,0,0,0,0,0,0,0,0,0,-1,1406,1100,0,0
189,-76,0,0,0,0,0,0,0,0,0,-1,1413,1100,0,0
196,-76,0,0,0,0,0,0,0,0,0,-1,1420,1100,0,0
203,-76,0,0,0,0,0,0,0,0,0,-1,1427,1100,0,0
210,-76,0,0,0,0,0,0,0,0,0,-1,1434,1100,0,0
217,-76,0,0,0,0,0,0,0,0,0,-1,1441,1100,0,0
224,-76,0,0,0,0,0,0,0,0,0,-1,1448,1100,0,0
231,-76,0,0,0,0,0,0,0,0,0,-1,1455,1100,0,0
238,-76,0,0,0,0,0,0,0,0,0,-1,1462,1100,0,0
245,-76,0,0,0,0,0,0,0,0,0,-1,1469,1100,0,0
252,-76,0,0,0,0,0,0,0,0,0,-1,1476,1100,0,0
259,-76,0,0,0,0,0,0,0,0,0,-1,1483,1100,0,0
266,-76,0,0,0,0,0,0,0,0,0,-1,1490,1100,0,0
273,-76,0,0,0,0,0,0,0,0,0,-1,1497,1100,0,0
280,-76,0,0,0,0,0,0,0,0,0,-1,1504,1100,0,0
287,-76,0,0,0,0,0,0,0,0,0,-1,1511,1100,0,0
294,-76,0,0,0,0,0,0,0,0,0,-1,1518,1100,0,0
301,-76,0,0,0,0,0,0,0,0,0,-1,1525,1100,0,0
308,-76,0,0,0,0,0,0,0,0,0,-1,1532,1100,0,0
315,-76,0,0,0,0,0,0,0,0,0,-1,1539,1100,0,0
322,-76,0,0,0,0,0,0,0,0,0,-1,1546,1100,0,0
329,-76,0,0,0,0,0,0,0,0,0,-1,1553,1100,0,0
336,-76,0,0,0,0,0,0,0,0,0,-1,1560,1100,0,0
343,-76,0,0,0,0,0,0,0,0,0,-1,1567,1100,0,0
350,-76,0,0,0,0,0,0,0,0,0,-1,1574,1100,0,0
357,-76,0,0,0,0,0,0,0,0,0,-1,1581,1100,0,0
364,-76,0,0,0,0,0,0,0,0,0,-1,1588,1100,0,0
371,-76,0,0,0,0,0,0,0,0,0,-1,1595,1100,0,0
378,-76,0,0,0,0,0,0,0,0,0,-1,1602,1100,0,0
385,-76,0,0,0,0,0,0,0,0,0,-1,1609,1100,0,0
392,-76,0,0,0,0,0,0,0,0,0,-1,1616,1100,0,0
399,-76,0,0,0,0,0,0,0,0,0,-1,1623,1100,0,0
406,-76,0,0,0,0,0,0,0,0,0,-1,1630,1100,0,0
413,-76,0,0,0,0,0,0,0,0,0,-1,1637,1100,0,0
420,-76,0,0,0,0,0,0,0,0,0,-1,1644,1100,0,0
427,-76,0,0,0,0,0,0,0,0,0,-1,1651,1100,0,0
434,-76,0,0,0,0,0,0,0,0,0,-1,1658,1100,0,0
441,-76,0,0,0,0,0,0,0,0,0,-1,1665,1100,0,0
448,-76,0,0,0,0,0,0,0,0,0,-1,1672,1100,0,0
455,-76,0,0,0,0,0,0,0,0,0,-1,1679,1100,0,0
462,-76,0,0,0,0,0,0,0,0,0,-1,1686,1100,0,0
469,-76,0,0,0,0,0,0,0,0,0,-1,1693,1100,0,0
476,-76,0,0,0,0,0,0,0,0,0,-1,1700,1100,0,0
483,-76,0,0,0,0,0,0,0,0,0,-1,1707,1100,0,0
490,-76,0,0,0,0,0,0,0,0,0,-1,1714,1100,0,0
497,-76,0,0,0,0,0,0,0,0,0,-1,1721,1100,0,0
504,-76,0,0,0,0,0,0,0,0,0,-1,1728,1100,0,0
511,-76,0,0,0,0,0,0,0,0,0,-1,1735,1100,0,0
518,-76,0,0,0,0,0,0,0,0,0,-1,1742,1100,0,0
525,-76,0,0,0,0,0,0,0,0,0,-1,1749,1100,0,0
532,-76,0,0,0,0,0,0,0,0,0,-1,1756,1100,0,0
539,-76,0,0,0,0,0,0,0,0,0,-1,1763,1100,0,0
546,-76,0,0,0,0,0,0,0,0,0,-1,1770,1100,0,0
553,-76,0,0,0,0,0,0,0,0,0,-1,1777,1100,0,0
560,-76,0,0,0,0,0,0,0,0,0,-1,1784,1100,0,0
567,-76,0,0,0,0,0,0,0,0,0,-1,1791,1100,0,0
574,-76,0,0,0,0,0,0,0,0,0,-1,1798,1100,0,0
581,-76,0,0,0,0,0,0,0,0,0,-1,1805,1100,0,0
588,-76,0,0,0,0,0,0,0,0,0,-1,1812,1100,0,0
595,-76,0,0,0,0,0,0,0,0,0,-1,1819,1100,0,0
602,-76,0,0,0,0,0,0,0,0,0,-1,1826,1100,0,0
609,-76,0,0,0,0,0,0,0,0,0,-1,1833,1100,0,0
616,-76,0,0,0,0,0,0,0,0,0,-1,1840,1100,0,0
623,-76,0,0,0,0,0,0,0,0,0,-1,1847,1100,0,0
630,-76,0,0,0,0,0,0,0,0,0,-1,1854,1100,0,0
637,-76,0,0,0,0,0,0,0,0,0,-1,1861,1100,0,0
644,-76,0,0,0,0,0,0,0,0,0,-1,1868,1100,0,0
651,-76,52.7803,2.49585,0.00431117,-0.00090235,0.000998987,0.00449604,-0.00108722,0.182983,0.0034179,0.0444774,1875,1100,52.7803,-2.4958
658,-76,52.7729,2.53125,0.00364584,-0.00112639,0.000502868,0.00369825,-0.00117881,0.103854,0.00293834,0.0465825,1882,1100,52.7729,-2.53123
665,-76,52.9388,2.54468,0.00294239,-0.00123044,0.000244918,0.00295671,-0.00124477,0.0584262,0.00249195,0.0395649,1889,1100,52.9389,-2.54467
672,-76,53.0652,2.55188,0.00229098,-0.00120036,0.000178496,0.00230009,-0.00120946,0.0509482,0.00205859,0.0364199,1896,1100,53.0652,-2.55187
679,-76,53.1246,2.58423,0.00165607,-0.00105751,0.000181427,0.00166815,-0.00106958,0.0664647,0.00159317,0.0373928,1903,1100,53.1246,-2.58424
686,-76,53.0548,2.66821,0.00131251,-0.00106671,0.000388165,0.00137423,-0.00112844,0.157702,0.00144724,0.0362234,1910,1100,53.0548,-2.66825
693,-76,52.9886,2.64734,0.00119444,-0.00108316,0.000616321,0.00135053,-0.00123924,0.248031,0.00149566,0.0365019,1917,1100,52.9886,-2.64733
700,-76,52.9846,2.60645,0.00113876,-0.00102774,0.000779824,0.00139026,-0.00127924,0.311976,0.00154168,0.0315605,1924,1100,52.9846,-2.60647
707,-76,52.9419,2.56201,0.000968551,-0.000886314,0.000983306,0.00139279,-0.00131055,0.407316,0.00156102,0.0221956,1931,1100,52.9419,-2.56207
714,-76,52.9539,2.55701,0,0,0,0,0,0,0,-1,1938,1100,52.9538,-2.55702
721,-76,45.1713,3.04919,0,0,0,0,0,0,0,-1,1945,1100,45.1713,-3.04915
728,-76,49.7546,7.01379,0,0,0,0,0,0,0,-1,1952,1100,49.7547,-7.01374
735,-76,50.1885,6.76086,-0.000739041,0.000810091,0.00184017,0.00203207,-0.00196102,0.984603,0.00230553,0.0419914,1959,1100,50.1885,-6.76091
742,-76,50.444,6.43384,-0.000704683,0.00164204,0.00209048,0.00286594,-0.00192859,1.04113,0.00278571,0.0284105,1966,1100,50.444,-6.43382
749,-76,50.3672,6.05151,-0.000749527,0.00245673,0.00230397,0.00366043,-0.00195323,1.08935,0.00329063,0.0270515,1973,1100,50.3672,-6.05155
756,-76,50.4417,5.74329,-0.000376919,0.00347351,0.00231965,0.0045628,-0.00146621,1.13177,0.00363067,0.0167757,1980,1100,50.4417,-5.74324
763,-76,50.433,5.40576,0.000741266,0.00497043,0.00202719,0.00578518,-7.34816e-05,1.18865,0.00388151,0.0175491,1987,1100,50.433,-5.40577
770,-76,50.335,5.14734,0.00279969,0.00661047,0.0016576,0.00723058,0.00217958,1.21281,0.0042829,0.0184292,1994,1100,50.3349,-5.14734
777,-76,50.2241,4.91455,0.00622915,0.00819479,0.00109718,0.00868498,0.00573897,1.15063,0.00509997,0.0226468,2001,1100,50.224,-4.91455
784,-76,50.2419,4.40076,0.0108006,0.00954814,0.000306084,0.0108714,0.00947734,0.227316,0.00683049,0.0346088,2008,1100,50.242,-4.40079
791,-76,50.1973,3.84351,0,0,0,0,0,0,0,-1,2015,1100,50.1972,-3.84354
798,-76,50.3372,3.54773,0,0,0,0,0,0,0,-1,2022,1100,50.3371,-3.54772
805,-76,51.6375,2.79871,0,0,0,0,0,0,0,-1,2029,1100,51.6375,-2.79866
812,-76,51.9927,3.87305,0,0,0,0,0,0,0,-1,2036,1100,51.9927,-3.87301
-700,-83,0,0,0,0,0,0,0,0,0,-1,524,1107,0,0
-693,-83,-37.2456,-1.63721,0.0301476,0.0252906,0.0347893,0.0625931,-0.00715488,0.750552,0.0443067,0.0461178,531,1107,-37.2456,1.63722
-686,-83,-36.9969,-0.580811,0,0,0,0,0,0,0,-1,538,1107,-36.997,0.580861
-679,-83,-36.684,-0.545044,0.0290199,0.0152233,0.0240818,0.0471719,-0.00292875,0.645907,0.0324683,0.047976,545,1107,-36.6839,0.544985
-672,-83,-36.3514,0.132935,0.0256459,0.0119152,0.0192861,0.0392522,-0.00169105,0.614405,0.0267497,0.044334,552,1107,-36.3514,-0.13294
-665,-83,-36.685,-0.268921,0,0,0,0,0,0,0,-1,559,1107,-36.685,0.268959
-658,-83,-36.7008,0.348389,0.0167996,0.007405,0.0113271,0.0243647,-0.000160119,0.588842,0.0162968,0.0430254,566,1107,-36.7008,-0.348331
-651,-83,-36.7175,1.14783,0.0125485,0.00582879,0.00821241,0.0180618,0.000315524,0.591226,0.0119374,0.0328145,573,1107,-36.7175,-1.14777
-644,-83,-36.6769,1.84814,0.00907878,0.00450483,0.00563152,0.01287,0.000713624,0.59252,0.00835229,0.016659,580,1107,-36.677,-1.84811
-637,-83,-36.7522,2.27527,0.00610188,0.00328069,0.00337433,0.00834859,0.00103398,0.587419,0.00525509,0.0125062,587,1107,-36.7522,-2.27524
-630,-83,-36.7925,2.68152,0.00383127,0.00158057,0.0013118,0.00443427,0.000977561,0.430876,0.0026902,0.0180266,594,1107,-36.7925,-2.68153
-623,-83,-36.8141,3.03162,0.00231231,0.000645515,-7.42477e-05,0.00231561,0.000642214,-0.0444279,0.0013804,0.0171923,601,1107,-36.8142,-3.0316
-616,-83,-36.8677,3.41663,0.00204257,-8.27241e-05,-0.000853989,0.0023432,-0.000383351,-0.338479,0.00170435,0.0154597,608,1107,-36.8677,-3.41659
-609,-83,-36.8466,3.75391,0.00223802,-0.000617971,-0.00133538,0.00276512,-0.00114507,-0.375948,0.00232124,0.0196015,615,1107,-36.8465,-3.75392
-602,-83,-36.8409,4.16199,0.00207096,-0.00096046,-0.0016397,0.00278819,-0.00167768,-0.412336,0.00260481,0.0182473,622,1107,-36.8409,-4.16204
-595,-83,-36.7756,4.51477,0.00209465,-0.00125008,-0.00168359,0.00279532,-0.00195075,-0.394372,0.00275457,0.0223404,629,1107,-36.7756,-4.51472
-588,-83,-36.7715,4.75574,0,0,0,0,0,0,0,-1,636,1107,-36.7716,-4.75574
-581,-83,-39.4498,0.640747,0,0,0,0,0,0,0,-1,643,1107,-39.4498,-0.640714
-574,-83,-39.3959,0.47522,0.00284895,-0.00206461,-0.00142046,0.00323003,-0.0024457,-0.26211,0.0032873,0.0368032,650,1107,-39.3959,-0.475179
-567,-83,-39.2723,0.525635,0.0028546,-0.00206236,-0.00126637,0.00316159,-0.00236934,-0.237828,0.00320419,0.0435507,657,1107,-39.2724,-0.525587
-560,-83,-39.1921,0.577637,0.00269711,-0.0018702,-0.00104975,0.00292683,-0.00209992,-0.215437,0.00291526,0.0442126,664,1107,-39.1922,-0.577628
-553,-83,-39.2786,0.478516,0.00223009,-0.00148732,-0.000834063,0.00240865,-0.00166588,-0.2109,0.00236542,0.0436326,671,1107,-39.2786,-0.478536
-546,-83,-39.3654,0.621216,0.00192325,-0.000905853,-0.000612684,0.00205024,-0.00103284,-0.204368,0.00181203,0.0424388,678,1107,-39.3654,-0.621252
-539,-83,-39.3746,0.717285,0.0027768,-0.000372032,-0.000520352,0.00286056,-0.000455793,-0.159602,0.00207572,0.0414577,685,1107,-39.3746,-0.717299
-532,-83,-39.3351,0.827393,0.00388103,0.000249881,-0.000739377,0.00402581,0.000105101,-0.193367,0.00264953,0.0405389,692,1107,-39.3351,-0.827413
-525,-83,0,0,0,0,0,0,0,0,0,-1,699,1107,0,0
-518,-83,0,0,0,0,0,0,0,0,0,-1,706,1107,0,0
-511,-83,0,0,0,0,0,0,0,0,0,-1,713,1107,0,0
-504,-83,0,0,0,0,0,0,0,0,0,-1,720,1107,0,0
-497,-83,0,0,0,0,0,0,0,0,0,-1,727,1107,0,0
-490,-83,0,0,0,0,0,0,0,0,0,-1,734,1107,0,0
-483,-83,0,0,0,0,0,0,0,0,0,-1,741,1107,0,0
-476,-83,0,0,0,0,0,0,0,0,0,-1,748,1107,0,0
-469,-83,0,0,0,0,0,0,0,0,0,-1,755,1107,0,0
-462,-83,0,0,0,0,0,0,0,0,0,-1,762,1107,0,0
-455,-83,0,0,0,0,0,0,0,0,0,-1,769,1107,0,0
-448,-83,0,0,0,0,0,0,0,0,0,-1,776,1107,0,0
-441,-83,0,0,0,0,0,0,0,0,0,-1,783,1107,0,0
-434,-83,0,0,0,0,0,0,0,0,0,-1,790,1107,0,0
-427,-83,0,0,0,0,0,0,0,0,0,-1,797,1107,0,0
-420,-83,0,0,0,0,0,0,0,0,0,-1,804,1107,0,0
-413,-83,0,0,0,0,0,0,0,0,0,-1,811,1107,0,0
-406,-83,0,0,0,0,0,0,0,0,0,-1,818,1107,0,0
-399,-83,0,0,0,0,0,0,0,0,0,-1,825,1107,0,0
-392,-83,0,0,0,0,0,0,0,0,0,-1,832,1107,0,0
-385,-83,0,0,0,0,0,0,0,0,0,-1,839,1107,0,0
-378,-83,0,0,0,0,0,0,0,0,0,-1,846,1107,0,0
-371,-83,0,0,0,0,0,0,0,0,0,-1,853,1107,0,0
-364,-83,0,0,0,0,0,0,0,0,0,-1,860,1107,0,0
-357,-83,0,0,0,0,0,0,0,0,0,-1,867,1107,0,0
-350,-83,0,0,0,0,0,0,0,0,0,-1,874,1107,0,0
-343,-83,0,0,0,0,0,0,0,0,0,-1,881,1107,0,0
-336,-83,0,0,0,0,0,0,0,0,0,-1,888,1107,0,0
-329,-83,0,0,0,0,0,0,0,0,0,-1,895,1107,0,0
-322,-83,0,0,0,0,0,0,0,0,0,-1,902,1107,0,0
-315,-83,0,0,0,0,0,0,0,0,0,-1,909,1107,0,0
-308,-83,0,0,0,0,0,0,0,0,0,-1,916,1107,0,0
-301,-83,0,0,0,0,0,0,0,0,0,-1,923,1107,0,0
-294,-83,0,0,0,0,0,0,0,0,0,-1,930,1107,0,0
-287,-83,0,0,0,0,0,0,0,0,0,-1,937,1107,0,0
-280,-83,0,0,0,0,0,0,0,0,0,-1,944,1107,0,0
-273,-83,0,0,0,0,0,0,0,0,0,-1,951,1107,0,0
-266,-83,0,0,0,0,0,0,0,0,0,-1,958,1107,0,0
-259,-83,0,0,0,0,0,0,0,0,0,-1,965,1107,0,0
-252,-83,0,0,0,0,0,0,0,0,0,-1,972,1107,0,0
-245,-83,0,0,0,0,0,0,0,0,0,-1,979,1107,0,0
-238,-83,0,0,0,0,0,0,0,0,0,-1,986,1107,0,0
-231,-83,0,0,0,0,0,0,0,0,0,-1,993,1107,0,0
-224,-83,0,0,0,0,0,0,0,0,0,-1,1000,1107,0,0
-217,-83,0,0,0,0,0,0,0,0,0,-1,1007,1107,0,0
-210,-83,0,0,0,0,0,0,0,0,0,-1,1014,1107,0,0
-203,-83,0,0,0,0,0,0,0,0,0,-1,1021,1107,0,0
-196,-83,0,0,0,0,0,0,0,0,0,-1,1028,1107,0,0
-189,-83,0,0,0,0,0,0,0,0,0,-1,1035,1107,0,0
-182,-83,0,0,0,0,0,0,0,0,0,-1,1042,1107,0,0
-175,-83,0,0,0,0,0,0,0,0,0,-1,1049,1107,0,0
-168,-83,0,0,0,0,0,0,0,0,0,-1,1056,1107,0,0
-161,-83,0,0,0,0,0,0,0,0,0,-1,1063,1107,0,0
-154,-83,0,0,0,0,0,0,0,0,0,-1,1070,1107,0,0
-147,-83,0,0,0,0,0,0,0,0,0,-1,1077,1107,0,0
-140,-83,0,0,0,0,0,0,0,0,0,-1,1084,1107,0,0
-133,-83,0,0,0,0,0,0,0,0,0,-1,1091,1107,0,0
-126,-83,0,0,0,0,0,0,0,0,0,-1,1098,1107,0,0
-119,-83,0,0,0,0,0,0,0,0,0,-1,1105,1107,0,0
-112,-83,0,0,0,0,0,0,0,0,0,-1,1112,1107,0,0
-105,-83,0,0,0,0,0,0,0,0,0,-1,1119,1107,0,0
-98,-83,0,0,0,0,0,0,0,0,0,-1,1126,1107,0,0
-91,-83,0,0,0,0,0,0,0,0,0,-1,1133,1107,0,0
-84,-83,0,0,0,0,0,0,0,0,0,-1,1140,1107,0,0
-77,-83,0,0,0,0,0,0,0,0,0,-1,1147,1107,0,0
-70,-83,0,0,0,0,0,0,0,0,0,-1,1154,1107,0,0
-63,-83,0,0,0,0,0,0,0,0,0,-1,1161,1107,0,0
-56,-83,0,0,0,0,0,0,0,0,0,-1,1168,1107,0,0
-49,-83,0,0,0,0,0,0,0,0,0,-1,1175,1107,0,0
-42,-83,0,0,0,0,0,0,0,0,0,-1,1182,1107,0,0
-35,-83,0,0,0,0,0,0,0,0,0,-1,1189,1107,0,0
-28,-83,0,0,0,0,0,0,0,0,0,-1,1196,1107,0,0
-21,-83,0,0,0,0,0,0,0,0,0,-1,1203,1107,0,0
-14,-83,0,0,0,0,0,0,0,0,0,-1,1210,1107,0,0
-7,-83,0,0,0,0,0,0,0,0,0,-1,1217,1107,0,0
0,-83,0,0,0,0,0,0,0,0,0,-1,1224,1107,0,0
7,-83,0,0,0,0,0,0,0,0,0,-1,1231,1107,0,0
14,-83,0,0,0,0,0,0,0,0,0,-1,1238,1107,0,0
21,-83,0,0,0,0,0,0,0,0,0,-1,1245,1107,0,0
28,-83,0,0,0,0,0,0,0,0,0,-1,1252,1107,0,0
35,-83,0,0,0,0,0,0,0,0,0,-1,1259,1107,0,0
42,-83,0,0,0,0,0,0,0,0,0,-1,1266,1107,0,0
49,-83,0,0,0,0,0,0,0,0,0,-1,1273,1107,0,0
56,-83,0,0,0,0,0,0,0,0,0,-1,1280,1107,0,0
63,-83,0,0,0,0,0,0,0,0,0,-1,1287,1107,0,0
70,-83,0,0,0,0,0,0,0,0,0,-1,1294,1107,0,0
77,-83,0,0,0,0,0,0,0,0,0,-1,1301,1107,0,0
84,-83,0,0,0,0,0,0,0,0,0,-1,1308,1107,0,0
91,-83,0,0,0,0,0,0,0,0,0,-1,1315,1107,0,0
98,-83,0,0,0,0,0,0,0,0,0,-1,1322,1107,0,0
105,-83,0,0,0,0,0,0,0,0,0,-1,1329,1107,0,0
112,-83,0,0,0,0,0,0,0,0,0,-1,1336,1107,0,0
119,-83,0,0,0,0,0,0,0,0,0,-1,1343,1107,0,0
126,-83,0,0,0,0,0,0,0,0,0,-1,1350,1107,0,0
133,-83,0,0,0,0,0,0,0,0,0,-1,1357,1107,0,0
140,-83,0,0,0,0,0,0,0,0,0,-1,1364,1107,0,0
147,-83,0,0,0,0,0,0,0,0,0,-1,1371,1107,0,0
154,-83,0,0,0,0,0,0,0,0,0,-1,1378,1107,0,0
161,-83,0,0,0,0,0,0,0,0,0,-1,1385,1107,0,0
168,-83,0,0,0,0,0,0,0,0,0,-1,1392,1107,0,0
175,-83,0,0,0,0,0,0,0,0,0,-1,1399,1107,0,0
182,-83,0,0,0,0,0,0,0,0,0,-1,1406,1107,0,0
189,-83,0,0,0,0,0,0,0,0,0,-1,1413,1107,0,0
196,-83,0,0,0,0,0,0,0,0,0,-1,1420,1107,0,0
203,-83,0,0,0,0,0,0,0,0,0,-1,1427,1107,0,0
210,-83,0,0,0,0,0,0,0,0,0,-1,1434,1107,0,0
217,-83,0,0,0,0,0,0,0,0,0,-1,1441,1107,0,0
224,-83,0,0,0,0,0,0,0,0,0,-1,1448,1107,0,0
231,-83,0,0,0,0,0,0,0,0,0,-1,1455,1107,0,0
238,-83,0,0,0,0,0,0,0,0,0,-1,1462,1107,0,0
245,-83,0,0,0,0,0,0,0,0,0,-1,1469,1107,0,0
252,-83,0,0,0,0,0,0,0,0,0,-1,1476,1107,0,0
259,-83,0,0,0,0,0,0,0,0,0,-1,1483,1107,0,0
266,-83,0,0,0,0,0,0,0,0,0,-1,1490,1107,0,0
273,-83,0,0,0,0,0,0,0,0,0,-1,1497,1107,0,0
280,-83,0,0,0,0,0,0,0,0,0,-1,1504,1107,0,0
287,-83,0,0,0,0,0,0,0,0,0,-1,1511,1107,0,0
294,-83,0,0,0,0,0,0,0,0,0,-1,1518,1107,0,0
301,-83,0,0,0,0,0,0,0,0,0,-1,1525,1107,0,0
308,-83,0,0,0,0,0,0,0,0,0,-1,1532,1107,0,0
315,-83,0,0,0,0,0,0,0,0,0,-1,1539,1107,0,0
322,-83,0,0,0,0,0,0,0,0,0,-1,1546,1107,0,0
329,-83,0,0,0,0,0,0,0,0,0,-1,1553,1107,0,0
336,-83,0,0,0,0,0,0,0,0,0,-1,1560,1107,0,0
343,-83,0,0,0,0,0,0,0,0,0,-1,1567,1107,0,0
350,-83,0,0,0,0,0,0,0,0,0,-1,1574,1107,0,0
357,-83,0,0,0,0,0,0,0,0,0,-1,1581,1107,0,0
364,-83,0,0,0,0,0,0,0,0,0,-1,1588,1107,0,0
371,-83,0,0,0,0,0,0,0,0,0,-1,1595,1107,0,0
378,-83,0,0,0,0,0,0,0,0,0,-1,1602,1107,0,0
385,-83,0,0,0,0,0,0,0,0,0,-1,1609,1107,0,0
392,-83,0,0,0,0,0,0,0,0,0,-1,1616,1107,0,0
399,-83,0,0,0,0,0,0,0,0,0,-1,1623,1107,0,0
406,-83,0,0,0,0,0,0,0,0,0,-1,1630,1107,0,0
413,-83,0,0,0,0,0,0,0,0,0,-1,1637,1107,0,0
420,-83,0,0,0,0,0,0,0,0,0,-1,1644,1107,0,0
427,-83,0,0,0,0,0,0,0,0,0,-1,1651,1107,0,0
434,-83,0,0,0,0,0,0,0,0,0,-1,1658,1107,0,0
441,-83,0,0,0,0,0,0,0,0,0,-1,1665,1107,0,0
448,-83,0,0,0,0,0,0,0,0,0,-1,1672,1107,0,0
455,-83,0,0,0,0,0,0,0,0,0,-1,1679,1107,0,0
462,-83,0,0,0,0,0,0,0,0,0,-1,1686,1107,0,0
469,-83,0,0,0,0,0,0,0,0,0,-1,1693,1107,0,0
476,-83,0,0,0,0,0,0,0,0,0,-1,1700,1107,0,0
483,-83,0,0,0,0,0,0,0,0,0,-1,1707,1107,0,0
490,-83,0,0,0,0,0,0,0,0,0,-1,1714,1107,0,0
497,-83,0,0,0,0,0,0,0,0,0,-1,1721,1107,0,0
504,-83,0,0,0,0,0,0,0,0,0,-1,1728,1107,0,0
511,-83,0,0,0,0,0,0,0,0,0,-1,1735,1107,0,0
518,-83,0,0,0,0,0,0,0,0,0,-1,1742,1107,0,0
525,-83,0,0,0,0,0,0,0,0,0,-1,1749,1107,0,0
532,-83,0,0,0,0,0,0,0,0,0,-1,1756,1107,0,0
539,-83,0,0,0,0,0,0,0,0,0,-1,1763,1107,0,0
546,-83,0,0,0,0,0,0,0,0,0,-1,1770,1107,0,0
553,-83,0,0,0,0,0,0,0,0,0,-1,1777,1107,0,0
560,-83,0,0,0,0,0,0,0,0,0,-1,1784,1107,0,0
567,-83,0,0,0,0,0,0,0,0,0,-1,1791,1107,0,0
574,-83,0,0,0,0,0,0,0,0,0,-1,1798,1107,0,0
581,-83,0,0,0,0,0,0,0,0,0,-1,1805,1107,0,0
588,-83,0,0,0,0,0,0,0,0,0,-1,1812,1107,0,0
595,-83,0,0,0,0,0,0,0,0,0,-1,1819,1107,0,0
602,-83,0,0,0,0,0,0,0,0,0,-1,1826,1107,0,0
609,-83,0,0,0,0,0,0,0,0,0,-1,1833,1107,0,0
616,-83,0,0,0,0,0,0,0,0,0,-1,1840,1107,0,0
623,-83,0,0,0,0,0,0,0,0,0,-1,1847,1107,0,0
630,-83,0,0,0,0,0,0,0,0,0,-1,1854,1107,0,0
637,-83,0,0,0,0,0,0,0,0,0,-1,1861,1107,0,0
644,-83,52.9012,2.54956,0.00418349,-0.000914599,0.00284546,0.00545469,-0.0021858,0.420146,0.00454382,0.0340081,1868,1107,52.9013,-2.54957
651,-83,52.864,2.60522,0.003455,-0.00118386,0.00160092,0.00395385,-0.00168271,0.302067,0.00334116,0.0423726,1875,1107,52.864,-2.60525
658,-83,52.921,2.62439,0.00304677,-0.00135074,0.000942342,0.0032402,-0.00154417,0.202449,0.00281951,0.0460977,1882,1107,52.921,-2.62441
665,-83,52.9579,2.62549,0.00253119,-0.00139413,0.000537055,0.00260334,-0.00146629,0.133549,0.00237997,0.0417499,1889,1107,52.9578,-2.62549
672,-83,52.9712,2.68091,0.00201992,-0.00131504,0.00032776,0.00205182,-0.00134694,0.0970432,0.0019763,0.0381063,1896,1107,52.9712,-2.68093
679,-83,52.9558,2.68738,0.00149422,-0.00113339,0.000210533,0.00151098,-0.00115015,0.079448,0.0015411,0.0383238,1903,1107,52.9558,-2.6874
686,-83,52.9065,2.68201,0.00126261,-0.00111241,0.00032208,0.00130552,-0.00115531,0.132425,0.00142164,0.0356519,1910,1107,52.9065,-2.68198
693,-83,52.9513,2.64392,0.00122053,-0.00108962,0.00048099,0.00131667,-0.00118577,0.197288,0.00144544,0.0351207,1917,1107,52.9513,-2.6439
700,-83,53.0099,2.67957,0.00122498,-0.00100896,0.000584112,0.00136849,-0.00115247,0.240917,0.00145726,0.0315218,1924,1107,53.0098,-2.67959
707,-83,52.9513,2.61267,0.00109437,-0.00086022,0.000750072,0.00134903,-0.00111488,0.327303,0.00142468,0.0228547,1931,1107,52.9513,-2.61266
714,-83,52.9376,2.57495,0,0,0,0,0,0,0,-1,1938,1107,52.9376,-2.57489
721,-83,49.1162,7.36719,0,0,0,0,0,0,0,-1,1945,1107,49.1162,-7.36721
728,-83,49.6509,7.02783,0,0,0,0,0,0,0,-1,1952,1107,49.6509,-7.0278
735,-83,49.8457,6.74316,-0.000477716,0.000739199,0.00154145,0.00178793,-0.00152645,0.973376,0.00191555,0.0428426,1959,1107,49.8457,-6.74322
742,-83,50.0132,6.43347,-0.000366453,0.00147782,0.00179148,0.00257056,-0.0014592,1.02308,0.00235589,0.0256793,1966,1107,50.0131,-6.43342
749,-83,50.1104,6.09045,-0.000330165,0.00212255,0.00201658,0.00325639,-0.00146401,1.05859,0.00279004,0.0169206,1973,1107,50.1104,-6.09047
756,-83,50.1255,5.74585,0.000191118,0.00284141,0.00204134,0.00395,-0.000917479,1.07329,0.00298651,0.0162983,1980,1107,50.1255,-5.74591
763,-83,50.0831,5.39355,0.00164797,0.00383062,0.00176751,0.00481658,0.000662012,1.06197,0.00301471,0.0127017,1987,1107,50.0832,-5.3936
770,-83,49.9962,5.1106,0.00416352,0.00474027,0.00143653,0.00591709,0.0029867,0.884453,0.00341628,0.0156546,1994,1107,49.9962,-5.11058
777,-83,49.8982,4.79883,0.00809272,0.00533428,0.000941445,0.0083834,0.0050436,0.299474,0.00487336,0.0169033,2001,1107,49.8981,-4.79877
784,-83,49.7815,4.52783,0.0133121,0.00551657,0.000217937,0.0133182,0.00551048,0.0279276,0.0077273,0.0260672,2008,1107,49.7815,-4.52784
791,-83,50.2573,3.95117,0.0204225,0.005046,-0.00086772,0.0204713,0.00499719,-0.0561939,0.0123243,0.0416313,2015,1107,50.2573,-3.95116
798,-83,50.645,3.41272,0.0300192,0.00365796,-0.00253071,0.0302599,0.00341721,-0.0948469,0.0191362,0.0448289,2022,1107,50.6451,-3.41276
805,-83,51.02,2.86401,0.0423777,0.0012148,-0.00510594,0.0430016,0.000590898,-0.121588,0.0284728,0.0472856,2029,1107,51.02,-2.86398
812,-83,51.3499,2.33984,0,0,0,0,0,0,0,-1,2036,1107,51.3498,-2.3399
-700,-90,0,0,0,0,0,0,0,0,0,-1,524,1114,0,0
-693,-90,-36.6462,-1.62781,0,0,0,0,0,0,0,-1,531,1114,-36.6462,1.62785
-686,-90,-36.3067,-0.677856,0,0,0,0,0,0,0,-1,538,1114,-36.3067,0.677835
-679,-90,-36.6042,-0.490356,0.0258634,0.0147599,0.0243049,0.0452425,-0.00461922,0.673114,0.0318134,0.0445171,545,1114,-36.6042,0.49041
-672,-90,-35.9979,0.189453,0.0226655,0.0105106,0.0194858,0.0369996,-0.00382357,0.634233,0.0260347,0.0464639,552,1114,-35.9979,-0.189465
-665,-90,-36.7859,0.352051,0,0,0,0,0,0,0,-1,559,1114,-36.786,-0.352025
-658,-90,-36.5561,0.680176,0.0144876,0.00537894,0.0113318,0.0221461,-0.00227953,0.594324,0.0155796,0.0436365,566,1114,-36.5561,-0.680208
-651,-90,-36.2992,1.1134,0.0105172,0.00392486,0.00809585,0.0159622,-0.0015201,0.592073,0.0111826,0.0323005,573,1114,-36.2992,-1.11335
-644,-90,-36.3146,1.72705,0.00727456,0.00283729,0.00544734,0.0109377,-0.000825898,0.592011,0.00758214,0.0156004,580,1114,-36.3145,-1.72707
-637,-90,-36.3388,2.2511,0.00463789,0.00193272,0.00317115,0.00673287,-0.000162258,0.583816,0.00454363,0.0129964,587,1114,-36.3388,-2.25108
-630,-90,-36.3636,2.67078,0.00280276,0.000690221,0.00113534,0.00329721,0.000195779,0.410731,0.00213587,0.0123242,594,1114,-36.3636,-2.67073
-623,-90,-36.3729,3.06372,0.00158126,0.000125571,-0.000223943,0.00161494,9.18988e-05,-0.149243,0.00104734,0.0110552,601,1114,-36.3729,-3.06366
-616,-90,-36.4058,3.4729,0.00159226,-0.000390965,-0.000948088,0.00197257,-0.000771274,-0.381482,0.00163398,0.0129938,608,1114,-36.4058,-3.47291
-609,-90,-36.4165,3.82556,0.00195837,-0.000829218,-0.00133737,0.00249622,-0.00136706,-0.382372,0.002262,0.0189446,615,1114,-36.4165,-3.82557
-602,-90,-36.5067,4.1886,0.00188008,-0.00110582,-0.00155608,0.00254358,-0.00176932,-0.40305,0.00250339,0.0199188,622,1114,-36.5067,-4.18854
-595,-90,-36.3644,4.65747,0.00192768,-0.00138421,-0.00154331,0.00253535,-0.00199188,-0.375102,0.00262007,0.0168534,629,1114,-36.3644,-4.65742
-588,-90,-36.3496,4.98303,0,0,0,0,0,0,0,-1,636,1114,-36.3496,-4.983
-581,-90,-39.4705,0.814087,0,0,0,0,0,0,0,-1,643,1114,-39.4704,-0.8141
-574,-90,-39.3824,0.679199,0.0026865,-0.00223288,-0.00128272,0.00300087,-0.00254726,-0.240349,0.00320678,0.0366349,650,1114,-39.3824,-0.67925
-567,-90,-39.2751,0.639404,0.00272706,-0.00227759,-0.00116525,0.00298507,-0.0025356,-0.217903,0.00319088,0.0358817,657,1114,-39.2751,-0.639445
-560,-90,-39.3138,0.698242,0.00261575,-0.00215033,-0.00100092,0.00281742,-0.00235199,-0.198821,0.00298859,0.0383678,664,1114,-39.3138,-0.698275
-553,-90,-39.382,0.723755,0.00211063,-0.00184349,-0.000888803,0.00230123,-0.00203409,-0.211243,0.00250458,0.0391326,671,1114,-39.382,-0.723752
-546,-90,-39.4169,0.744141,0.00165242,-0.00135157,-0.000810364,0.00185708,-0.00155623,-0.247382,0.00197323,0.0419382,678,1114,-39.417,-0.744199
-539,-90,-39.411,0.733276,0.0022641,-0.000900004,-0.000878357,0.00249158,-0.00112748,-0.253414,0.00213837,0.04162,685,1114,-39.411,-0.733273
-532,-90,-39.3624,0.857544,0.00318117,-0.000392143,-0.00125766,0.00357943,-0.000790399,-0.306675,0.00268876,0.0408331,692,1114,-39.3624,-0.857602
-525,-90,0,0,0,0,0,0,0,0,0,-1,699,1114,0,0
-518,-90,0,0,0,0,0,0,0,0,0,-1,706,1114,0,0
-511,-90,0,0,0,0,0,0,0,0,0,-1,713,1114,0,0
-504,-90,0,0,0,0,0,0,0,0,0,-1,720,1114,0,0
-497,-90,0,0,0,0,0,0,0,0,0,-1,727,1114,0,0
-490,-90,0,0,0,0,0,0,0,0,0,-1,734,1114,0,0
-483,-90,0,0,0,0,0,0,0,0,0,-1,741,1114,0,0
-476,-90,0,0,0,0,0,0,0,0,0,-1,748,1114,0,0
-469,-90,0,0,0,0,0,0,0,0,0,-1,755,1114,0,0
-462,-90,0,0,0,0,0,0,0,0,0,-1,762,1114,0,0
-455,-90,0,0,0,0,0,0,0,0,0,-1,769,1114,0,0
-448,-90,0,0,0,0,0,0,0,0,0,-1,776,1114,0,0
-441,-90,0,0,0,0,0,0,0,0,0,-1,783,1114,0,0
-434,-90,0,0,0,0,0,0,0,0,0,-1,790,1114,0,0
-427,-90,0,0,0,0,0,0,0,0,0,-1,797,1114,0,0
-420,-90,0,0,0,0,0,0,0,0,0,-1,804,1114,0,0
-413,-90,0,0,0,0,0,0,0,0,0,-1,811,1114,0,0
-406,-90,0,0,0,0,0,0,0,0,0,-1,818,1114,0,0
-399,-90,0,0,0,0,0,0,0,0,0,-1,825,1114,0,0
-392,-90,0,0,0,0,0,0,0,0,0,-1,832,1114,0,0
-385,-90,0,0,0,0,0,0,0,0,0,-1,839,1114,0,0
-378,-90,0,0,0,0,0,0,0,0,0,-1,846,1114,0,0
-371,-90,0,0,0,0,0,0,0,0,0,-1,853,1114,0,0
-364,-90,0,0,0,0,0,0,0,0,0,-1,860,1114,0,0
-357,-90,0,0,0,0,0,0,0,0,0,-1,867,1114,0,0
-350,-90,0,0,0,0,0,0,0,0,0,-1,874,1114,0,0
-343,-90,0,0,0,0,0,0,0,0,0,-1,881,1114,0,0
-336,-90,0,0,0,0,0,0,0,0,0,-1,888,1114,0,0
-329,-90,0,0,0,0,0,0,0,0,0,-1,895,1114,0,0
-322,-90,0,0,0,0,0,0,0,0,0,-1,902,1114,0,0
-315,-90,0,0,0,0,0,0,0,0,0,-1,909,1114,0,0
-308,-90,0,0,0,0,0,0,0,0,0,-1,916,1114,0,0
-301,-90,0,0,0,0,0,0,0,0,0,-1,923,1114,0,0
-294,-90,0,0,0,0,0,0,0,0,0,-1,930,1114,0,0
-287,-90,0,0,0,0,0,0,0,0,0,-1,937,1114,0,0
-280,-90,0,0,0,0,0,0,0,0,0,-1,944,1114,0,0
-273,-90,0,0,0,0,0,0,0,0,0,-1,951,1114,0,0
-266,-90,0,0,0,0,0,0,0,0,0,-1,958,1114,0,0
-259,-90,0,0,0,0,0,0,0,0,0,-1,965,1114,0,0
-252,-90,0,0,0,0,0,0,0,0,0,-1,972,1114,0,0
-245,-90,0,0,0,0,0,0,0,0,0,-1,979,1114,0,0
-238,-90,0,0,0,0,0,0,0,0,0,-1,986,1114,0,0
-231,-90,0,0,0,0,0,0,0,0,0,-1,993,1114,0,0
-224,-90,0,0,0,0,0,0,0,0,0,-1,1000,1114,0,0
-217,-90,0,0,0,0,0,0,0,0,0,-1,1007,1114,0,0
-210,-90,0,0,0,0,0,0,0,0,0,-1,1014,1114,0,0
-203,-90,0,0,0,0,0,0,0,0,0,-1,1021,1114,0,0
-196,-90,0,0,0,0,0,0,0,0,0,-1,1028,1114,0,0
-189,-90,0,0,0,0,0,0,0,0,0,-1,1035,1114,0,0
-182,-90,0,0,0,0,0,0,0,0,0,-1,1042,1114,0,0
-175,-90,0,0,0,0,0,0,0,0,0,-1,1049,1114,0,0
-168,-90,0,0,0,0,0,0,0,0,0,-1,1056,1114,0,0
-161,-90,0,0,0,0,0,0,0,0,0,-1,1063,1114,0,0
-154,-90,0,0,0,0,0,0,0,0,0,-1,1070,1114,0,0
-147,-90,0,0,0,0,0,0,0,0,0,-1,1077,1114,0,0
-140,-90,0,0,0,0,0,0,0,0,0,-1,1084,1114,0,0
-133,-90,0,0,0,0,0,0,0,0,0,-1,1091,1114,0,0
-126,-90,0,0,0,0,0,0,0,0,0,-1,1098,1114,0,0
-119,-90,0,0,0,0,0,0,0,0,0,-1,1105,1114,0,0
-112,-90,0,0,0,0,0,0,0,0,0,-1,1112,1114,0,0
-105,-90,0,0,0,0,0,0,0,0,0,-1,1119,1114,0,0
-98,-90,0,0,0,0,0,0,0,0,0,-1,1126,1114,0,0
-91,-90,0,0,0,0,0,0,0,0,0,-1,1133,1114,0,0
-84,-90,0,0,0,0,0,0,0,0,0,-1,1140,1114,0,0
-77,-90,0,0,0,0,0,0,0,0,0,-1,1147,1114,0,0
-70,-90,0,0,0,0,0,0,0,0,0,-1,1154,1114,0,0
-63,-90,0,0,0,0,0,0,0,0,0,-1,1161,1114,0,0
-56,-90,0,0,0,0,0,0,0,0,0,-1,1168,1114,0,0
-49,-90,0,0,0,0,0,0,0,0,0,-1,1175,1114,0,0
-42,-90,0,0,0,0,0,0,0,0,0,-1,1182,1114,0,0
-35,-90,0,0,0,0,0,0,0,0,0,-1,1189,1114,0,0
-28,-90,0,0,0,0,0,0,0,0,0,-1,1196,1114,0,0
-21,-90,0,0,0,0,0,0,0,0,0,-1,1203,1114,0,0
-14,-90,0,0,0,0,0,0,0,0,0,-1,1210,1114,0,0
-7,-90,0,0,0,0,0,0,0,0,0,-1,1217,1114,0,0
0,-90,0,0,0,0,0,0,0,0,0,-1,1224,1114,0,0
7,-90,0,0,0,0,0,0,0,0,0,-1,1231,1114,0,0
14,-90,0,0,0,0,0,0,0,0,0,-1,1238,1114,0,0
21,-90,0,0,0,0,0,0,0,0,0,-1,1245,1114,0,0
28,-90,0,0,0,0,0,0,0,0,0,-1,1252,1114,0,0
35,-90,0,0,0,0,0,0,0,0,0,-1,1259,1114,0,0
42,-90,0,0,0,0,0,0,0,0,0,-1,1266,1114,0,0
49,-90,0,0,0,0,0,0,0,0,0,-1,1273,1114,0,0
56,-90,0,0,0,0,0,0,0,0,0,-1,1280,1114,0,0
63,-90,0,0,0,0,0,0,0,0,0,-1,1287,1114,0,0
70,-90,0,0,0,0,0,0,0,0,0,-1,1294,1114,0,0
77,-90,0,0,0,0,0,0,0,0,0,-1,1301,1114,0,0
84,-90,0,0,0,0,0,0,0,0,0,-1,1308,1114,0,0
91,-90,0,0,0,0,0,0,0,0,0,-1,1315,1114,0,0
98,-90,0,0,0,0,0,0,0,0,0,-1,1322,1114,0,0
105,-90,0,0,0,0,0,0,0,0,0,-1,1329,1114,0,0
112,-90,0,0,0,0,0,0,0,0,0,-1,1336,1114,0,0
119,-90,0,0,0,0,0,0,0,0,0,-1,1343,1114,0,0
126,-90,0,0,0,0,0,0,0,0,0,-1,1350,1114,0,0
133,-90,0,0,0,0,0,0,0,0,0,-1,1357,1114,0,0
140,-90,0,0,0,0,0,0,0,0,0,-1,1364,1114,0,0
147,-90,0,0,0,0,0,0,0,0,0,-1,1371,1114,0,0
154,-90,0,0,0,0,0,0,0,0,0,-1,1378,1114,0,0
161,-90,0,0,0,0,0,0,0,0,0,-1,1385,1114,0,0
168,-90,0,0,0,0,0,0,0,0,0,-1,1392,1114,0,0
175,-90,0,0,0,0,0,0,0,0,0,-1,1399,1114,0,0
182,-90,0,0,0,0,0,0,0,0,0,-1,1406,1114,0,0
189,-90,0,0,0,0,0,0,0,0,0,-1,1413,1114,0,0
196,-90,0,0,0,0,0,0,0,0,0,-1,1420,1114,0,0
203,-90,0,0,0,0,0,0,0,0,0,-1,1427,1114,0,0
210,-90,0,0,0,0,0,0,0,0,0,-1,1434,1114,0,0
217,-90,0,0,0,0,0,0,0,0,0,-1,1441,1114,0,0
224,-90,0,0,0,0,0,0,0,0,0,-1,1448,1114,0,0
231,-90,0,0,0,0,0,0,0,0,0,-1,1455,1114,0,0
238,-90,0,0,0,0,0,0,0,0,0,-1,1462,1114,0,0
245,-90,0,0,0,0,0,0,0,0,0,-1,1469,1114,0,0
252,-90,0,0,0,0,0,0,0,0,0,-1,1476,1114,0,0
259,-90,0,0,0,0,0,0,0,0,0,-1,1483,1114,0,0
266,-90,0,0,0,0,0,0,0,0,0,-1,1490,1114,0,0
273,-90,0,0,0,0,0,0,0,0,0,-1,1497,1114,0,0
280,-90,0,0,0,0,0,0,0,0,0,-1,1504,1114,0,0
287,-90,0,0,0,0,0,0,0,0,0,-1,1511,1114,0,0
294,-90,0,0,0,0,0,0,0,0,0,-1,1518,1114,0,0
301,-90,0,0,0,0,0,0,0,0,0,-1,1525,1114,0,0
308,-90,0,0,0,0,0,0,0,0,0,-1,1532,1114,0,0
315,-90,0,0,0,0,0,0,0,0,0,-1,1539,1114,0,0
322,-90,0,0,0,0,0,0,0,0,0,-1,1546,1114,0,0
329,-90,0,0,0,0,0,0,0,0,0,-1,1553,1114,0,0
336,-90,0,0,0,0,0,0,0,0,0,-1,1560,1114,0,0
343,-90,0,0,0,0,0,0,0,0,0,-1,1567,1114,0,0
350,-90,0,0,0,0,0,0,0,0,0,-1,1574,1114,0,0
357,-90,0,0,0,0,0,0,0,0,0,-1,1581,1114,0,0
364,-90,0,0,0,0,0,0,0,0,0,-1,1588,1114,0,0
371,-90,0,0,0,0,0,0,0,0,0,-1,1595,1114,0,0
378,-90,0,0,0,0,0,0,0,0,0,-1,1602,1114,0,0
385,-90,0,0,0,0,0,0,0,0,0,-1,1609,1114,0,0
392,-90,0,0,0,0,0,0,0,0,0,-1,1616,1114,0,0
399,-90,0,0,0,0,0,0,0,0,0,-1,1623,1114,0,0
406,-90,0,0,0,0,0,0,0,0,0,-1,1630,1114,0,0
413,-90,0,0,0,0,0,0,0,0,0,-1,1637,1114,0,0
420,-90,0,0,0,0,0,0,0,0,0,-1,1644,1114,0,0
427,-90,0,0,0,0,0,0,0,0,0,-1,1651,1114,0,0
434,-90,0,0,0,0,0,0,0,0,0,-1,1658,1114,0,0
441,-90,0,0,0,0,0,0,0,0,0,-1,1665,1114,0,0
448,-90,0,0,0,0,0,0,0,0,0,-1,1672,1114,0,0
455,-90,0,0,0,0,0,0,0,0,0,-1,1679,1114,0,0
462,-90,0,0,0,0,0,0,0,0,0,-1,1686,1114,0,0
469,-90,0,0,0,0,0,0,0,0,0,-1,1693,1114,0,0
476,-90,0,0,0,0,0,0,0,0,0,-1,1700,1114,0,0
483,-90,0,0,0,0,0,0,0,0,0,-1,1707,1114,0,0
490,-90,0,0,0,0,0,0,0,0,0,-1,1714,1114,0,0
497,-90,0,0,0,0,0,0,0,0,0,-1,1721,1114,0,0
504,-90,0,0,0,0,0,0,0,0,0,-1,1728,1114,0,0
511,-90,0,0,0,0,0,0,0,0,0,-1,1735,1114,0,0
518,-90,0,0,0,0,0,0,0,0,0,-1,1742,1114,0,0
525,-90,0,0,0,0,0,0,0,0,0,-1,1749,1114,0,0
532,-90,0,0,0,0,0,0,0,0,0,-1,1756,1114,0,0
539,-90,0,0,0,0,0,0,0,0,0,-1,1763,1114,0,0
546,-90,0,0,0,0,0,0,0,0,0,-1,1770,1114,0,0
553,-90,0,0,0,0,0,0,0,0,0,-1,1777,1114,0,0
560,-90,0,0,0,0,0,0,0,0,0,-1,1784,1114,0,0
567,-90,0,0,0,0,0,0,0,0,0,-1,1791,1114,0,0
574,-90,0,0,0,0,0,0,0,0,0,-1,1798,1114,0,0
581,-90,0,0,0,0,0,0,0,0,0,-1,1805,1114,0,0
588,-90,0,0,0,0,0,0,0,0,0,-1,1812,1114,0,0
595,-90,0,0,0,0,0,0,0,0,0,-1,1819,1114,0,0
602,-90,0,0,0,0,0,0,0,0,0,-1,1826,1114,0,0
609,-90,0,0,0,0,0,0,0,0,0,-1,1833,1114,0,0
616,-90,0,0,0,0,0,0,0,0,0,-1,1840,1114,0,0
623,-90,0,0,0,0,0,0,0,0,0,-1,1847,1114,0,0
630,-90,0,0,0,0,0,0,0,0,0,-1,1854,1114,0,0
637,-90,0,0,0,0,0,0,0,0,0,-1,1861,1114,0,0
644,-90,52.8641,2.59851,0.00289838,-0.00136803,0.00302587,0.0044674,-0.00293705,0.478365,0.00430529,0.0339312,1868,1114,52.8642,-2.59854
651,-90,52.9011,2.71619,0.00243192,-0.00152792,0.00178425,0.00311726,-0.00221326,0.366731,0.00309229,0.0372319,1875,1114,52.9011,-2.71624
658,-90,53.0186,2.7113,0.00226831,-0.00161081,0.00110899,0.00256297,-0.00190548,0.259704,0.00258915,0.0402781,1882,1114,53.0186,-2.7113
665,-90,52.9449,2.60779,0.00196179,-0.0015735,0.000664486,0.00208256,-0.00169427,0.179787,0.00218439,0.0436239,1889,1114,52.945,-2.60779
672,-90,52.8849,2.59021,0.00162548,-0.00142634,0.000401954,0.00167753,-0.00147839,0.128784,0.00182328,0.0423934,1896,1114,52.8849,-2.59017
679,-90,52.9124,2.86047,0.00122419,-0.00121962,0.000252487,0.00125,-0.00124543,0.101883,0.00144074,0.038705,1903,1114,52.9123,-2.86052
686,-90,52.8684,2.68787,0.00108903,-0.00118428,0.00032195,0.00113374,-0.001229,0.138007,0.0013645,0.0332083,1910,1114,52.8683,-2.68788
693,-90,52.8987,2.53003,0.00110644,-0.00114867,0.000437386,0.0011883,-0.00123053,0.185019,0.00139658,0.0314468,1917,1114,52.8986,-2.53001
700,-90,52.9556,2.56775,0.00113439,-0.00106531,0.00049758,0.00124171,-0.00117263,0.212427,0.00139411,0.0282389,1924,1114,52.9556,-2.56774
707,-90,52.9507,2.55823,0.0010352,-0.000913915,0.00065321,0.00123386,-0.00111258,0.295244,0.00135532,0.0222548,1931,1114,52.9507,-2.55824
714,-90,52.9573,2.51758,0,0,0,0,0,0,0,-1,1938,1114,52.9573,-2.51763
721,-90,49.7126,7.52515,0,0,0,0,0,0,0,-1,1945,1114,49.7127,-7.52512
728,-90,49.7076,7.23914,-0.000254439,0.000103145,0.00135211,0.00128824,-0.00143953,0.851133,0.00157568,0.0329063,1952,1114,49.7076,-7.23909
735,-90,49.4718,6.8291,-0.000400304,0.000573813,0.00136426,0.00153535,-0.00136184,0.956853,0.00167369,0.0348856,1959,1114,49.4718,-6.8291
742,-90,49.5947,6.45081,-0.000240315,0.0012069,0.00161202,0.00225028,-0.00128369,0.99636,0.00206562,0.0299311,1966,1114,49.5948,-6.45081
749,-90,49.8754,6.00244,-0.000175429,0.00168283,0.00185561,0.00282893,-0.00132153,1.01751,0.00244838,0.0194403,1973,1114,49.8754,-6.00248
756,-90,49.8141,5.68115,0.000434006,0.00208193,0.0019193,0.00334665,-0.000830723,0.988153,0.00255346,0.0168364,1980,1114,49.8141,-5.68118
763,-90,49.7216,5.34985,0.00214291,0.00250184,0.0017813,0.00411269,0.000532063,0.835603,0.00258277,0.0122997,1987,1114,49.7215,-5.34989
770,-90,49.6703,5.00256,0.00490937,0.00261145,0.00164363,0.00576581,0.00175501,0.480358,0.00341276,0.0160859,1994,1114,49.6703,-5.00258
777,-90,49.5818,4.71448,0.00903167,0.00218746,0.00142288,0.00931569,0.00190344,0.197022,0.00568324,0.0160588,2001,1114,49.5818,-4.71448
784,-90,49.4851,4.45581,0.0145146,0.00114074,0.00104759,0.0145961,0.00105918,0.0776995,0.00939762,0.0289454,2008,1114,49.4852,-4.45587
791,-90,49.9331,3.98779,0.0220255,-0.000897535,0.000431089,0.0220336,-0.000905639,0.0187971,0.0150001,0.0420012,2015,1114,49.9331,-3.98776
798,-90,50.1396,3.51904,0.0321299,-0.00422163,-0.000602548,0.0321399,-0.00423162,-0.0165695,0.0229674,0.0447324,2022,1114,50.1397,-3.51898
805,-90,50.5845,2.94006,0.0450885,-0.00902172,-0.00233364,0.045189,-0.00912218,-0.0430211,0.0335823,0.0474804,2029,1114,50.5844,-2.94005
812,-90,50.9678,2.51135,0,0,0,0,0,0,0,-1,2036,1114,50.9678,-2.51136
-700,-97,0,0,0,0,0,0,0,0,0,-1,524,1121,0,0
-693,-97,-36.0742,-1.56689,0,0,0,0,0,0,0,-1,531,1121,-36.0742,1.56685
-686,-97,-35.8879,-0.514771,0,0,0,0,0,0,0,-1,538,1121,-35.8879,0.514795
-679,-97,-36.5862,-0.39209,0,0,0,0,0,0,0,-1,545,1121,-36.5861,0.392089
-672,-97,-37.457,-0.492065,0,0,0,0,0,0,0,-1,552,1121,-37.457,0.492081
-665,-97,-37.2485,0.642578,0,0,0,0,0,0,0,-1,559,1121,-37.2485,-0.642535
-658,-97,-36.6855,1.06055,0.0109435,0.00473628,0.0111545,0.0194181,-0.00373835,0.649712,0.0143547,0.0441674,566,1121,-36.6855,-1.06057
-651,-97,-35.8932,1.35059,0.00775623,0.00309398,0.00786138,0.0136248,-0.00277462,0.641264,0.0101355,0.0337922,573,1121,-35.8932,-1.35062
-644,-97,-35.9069,1.75598,0.00515674,0.00200381,0.00517741,0.00899237,-0.00183182,0.637613,0.00668965,0.0125351,580,1121,-35.9069,-1.75595
-637,-97,-35.9124,2.23242,0.00309683,0.00113421,0.0029233,0.00519913,-0.000968089,0.623465,0.00382979,0.0130275,587,1121,-35.9124,-2.23242
-630,-97,-35.9362,2.63391,0.00179382,9.36538e-05,0.000952618,0.0022205,-0.000333025,0.421107,0.00160292,0.0105229,594,1121,-35.9362,-2.63392
-623,-97,-35.9603,3.03601,0.000991209,-0.000196565,-0.000338146,0.00108073,-0.000286085,-0.258799,0.000832399,0.0125976,601,1121,-35.9603,-3.03603
-616,-97,-36.0031,3.45959,0.00132359,-0.00056757,-0.000988564,0.00174599,-0.000989975,-0.40381,0.00159959,0.0193846,608,1121,-36.0031,-3.45956
-609,-97,-36.0897,3.8855,0.00183341,-0.000941596,-0.00130533,0.00235092,-0.0014591,-0.377446,0.00221971,0.0260642,615,1121,-36.0897,-3.8855
-602,-97,-36.1394,4.23096,0.00185097,-0.00114135,-0.00144565,0.00243529,-0.00172566,-0.384115,0.00241395,0.024574,622,1121,-36.1394,-4.23099
-595,-97,-35.9714,4.66345,0.00191372,-0.00134697,-0.00139808,0.00243109,-0.00186433,-0.354426,0.00248715,0.0191838,629,1121,-35.9714,-4.66344
-588,-97,-35.9807,5.06653,0,0,0,0,0,0,0,-1,636,1121,-35.9807,-5.06657
-581,-97,-38.2429,2.43774,0,0,0,0,0,0,0,-1,643,1121,-38.2429,-2.43779
-574,-97,-39.4239,0.761719,0,0,0,0,0,0,0,-1,650,1121,-39.4239,-0.761675
-567,-97,-39.3259,0.707153,0.00243592,-0.00218759,-0.00104565,0.00266141,-0.00241307,-0.21239,0.00293092,0.0345078,657,1121,-39.3259,-0.707184
-560,-97,-39.2715,0.679688,0.00226649,-0.00207953,-0.00091179,0.00245003,-0.00226307,-0.198643,0.00272182,0.0380885,664,1121,-39.2715,-0.679632
-553,-97,-39.3348,0.772095,0.00157535,-0.00180563,-0.000883295,0.00179221,-0.00202249,-0.240746,0.00220375,0.0426829,671,1121,-39.3348,-0.772144
-546,-97,-39.3647,0.855225,0.000808274,-0.00136555,-0.000933159,0.0011539,-0.00171117,-0.354716,0.00166455,0.0423192,678,1121,-39.3648,-0.855177
-539,-97,-39.3109,0.804077,0.000928804,-0.00101202,-0.00119821,0.00150027,-0.00158349,-0.445028,0.00178063,0.0390744,685,1121,-39.3108,-0.804127
-532,-97,-39.3227,0.804565,0.00141454,-0.00065561,-0.00181184,0.00246613,-0.0017072,-0.52588,0.00242271,0.039674,692,1121,-39.3227,-0.804565
-525,-97,0,0,0,0,0,0,0,0,0,-1,699,1121,0,0
-518,-97,0,0,0,0,0,0,0,0,0,-1,706,1121,0,0
-511,-97,0,0,0,0,0,0,0,0,0,-1,713,1121,0,0
-504,-97,0,0,0,0,0,0,0,0,0,-1,720,1121,0,0
-497,-97,0,0,0,0,0,0,0,0,0,-1,727,1121,0,0
-490,-97,0,0,0,0,0,0,0,0,0,-1,734,1121,0,0
-483,-97,0,0,0,0,0,0,0,0,0,-1,741,1121,0,0
-476,-97,0,0,0,0,0,0,0,0,0,-1,748,1121,0,0
-469,-97,0,0,0,0,0,0,0,0,0,-1,755,1121,0,0
-462,-97,0,0,0,0,0,0,0,0,0,-1,762,1121,0,0
-455,-97,0,0,0,0,0,0,0,0,0,-1,769,1121,0,0
-448,-97,0,0,0,0,0,0,0,0,0,-1,776,1121,0,0
-441,-97,0,0,0,0,0,0,0,0,0,-1,783,1121,0,0
-434,-97,0,0,0,0,0,0,0,0,0,-1,790,1121,0,0
-427,-97,0,0,0,0,0,0,0,0,0,-1,797,1121,0,0
-420,-97,0,0,0,0,0,0,0,0,0,-1,804,1121,0,0
-413,-97,0,0,0,0,0,0,0,0,0,-1,811,1121,0,0
-406,-97,0,0,0,0,0,0,0,0,0,-1,818,1121,0,0
-399,-97,0,0,0,0,0,0,0,0,0,-1,825,1121,0,0
-392,-97,0,0,0,0,0,0,0,0,0,-1,832,1121,0,0
-385,-97,0,0,0,0,0,0,0,0,0,-1,839,1121,0,0
-378,-97,0,0,0,0,0,0,0,0,0,-1,846,1121,0,0
-371,-97,0,0,0,0,0,0,0,0,0,-1,853,1121,0,0
-364,-97,0,0,0,0,0,0,0,0,0,-1,860,1121,0,0
-357,-97,0,0,0,0,0,0,0,0,0,-1,867,1121,0,0
-350,-97,0,0,0,0,0,0,0,0,0,-1,874,1121,0,0
-343,-97,0,0,0,0,0,0,0,0,0,-1,881,1121,0,0
-336,-97,0,0,0,0,0,0,0,0,0,-1,888,1121,0,0
-329,-97,0,0,0,0,0,0,0,0,0,-1,895,1121,0,0
-322,-97,0,0,0,0,0,0,0,0,0,-1,902,1121,0,0
-315,-97,0,0,0,0,0,0,0,0,0,-1,909,1121,0,0
-308,-97,0,0,0,0,0,0,0,0,0,-1,916,1121,0,0
-301,-97,0,0,0,0,0,0,0,0,0,-1,923,1121,0,0
-294,-97,0,0,0,0,0,0,0,0,0,-1,930,1121,0,0
-287,-97,0,0,0,0,0,0,0,0,0,-1,937,1121,0,0
-280,-97,0,0,0,0,0,0,0,0,0,-1,944,1121,0,0
-273,-97,0,0,0,0,0,0,0,0,0,-1,951,1121,0,0
-266,-97,0,0,0,0,0,0,0,0,0,-1,958,1121,0,0
-259,-97,0,0,0,0,0,0,0,0,0,-1,965,1121,0,0
-252,-97,0,0,0,0,0,0,0,0,0,-1,972,1121,0,0
-245,-97,0,0,0,0,0,0,0,0,0,-1,979,1121,0,0
-238,-97,0,0,0,0,0,0,0,0,0,-1,986,1121,0,0
-231,-97,0,0,0,0,0,0,0,0,0,-1,993,1121,0,0
-224,-97,0,0,0,0,0,0,0,0,0,-1,1000,1121,0,0
-217,-97,0,0,0,0,0,0,0,0,0,-1,1007,1121,0,0
-210,-97,0,0,0,0,0,0,0,0,0,-1,1014,1121,0,0
-203,-97,0,0,0,0,0,0,0,0,0,-1,1021,1121,0,0
-196,-97,0,0,0,0,0,0,0,0,0,-1,1028,1121,0,0
-189,-97,0,0,0,0,0,0,0,0,0,-1,1035,1121,0,0
-182,-97,0,0,0,0,0,0,0,0,0,-1,1042,1121,0,0
-175,-97,0,0,0,0,0,0,0,0,0,-1,1049,1121,0,0
-168,-97,0,0,0,0,0,0,0,0,0,-1,1056,1121,0,0
-161,-97,0,0,0,0,0,0,0,0,0,-1,1063,1121,0,0
-154,-97,0,0,0,0,0,0,0,0,0,-1,1070,1121,0,0
-147,-97,0,0,0,0,0,0,0,0,0,-1,1077,1121,0,0
-140,-97,0,0,0,0,0,0,0,0,0,-1,1084,1121,0,0
-133,-97,0,0,0,0,0,0,0,0,0,-1,1091,1121,0,0
-126,-97,0,0,0,0,0,0,0,0,0,-1,1098,1121,0,0
-119,-97,0,0,0,0,0,0,0,0,0,-1,1105,1121,0,0
-112,-97,0,0,0,0,0,0,0,0,0,-1,1112,1121,0,0
-105,-97,0,0,0,0,0,0,0,0,0,-1,1119,1121,0,0
-98,-97,0,0,0,0,0,0,0,0,0,-1,1126,1121,0,0
-91,-97,0,0,0,0,0,0,0,0,0,-1,1133,1121,0,0
-84,-97,0,0,0,0,0,0,0,0,0,-1,1140,1121,0,0
-77,-97,0,0,0,0,0,0,0,0,0,-1,1147,1121,0,0
-70,-97,0,0,0,0,0,0,0,0,0,-1,1154,1121,0,0
-63,-97,0,0,0,0,0,0,0,0,0,-1,1161,1121,0,0
-56,-97,0,0,0,0,0,0,0,0,0,-1,1168,1121,0,0
-49,-97,0,0,0,0,0,0,0,0,0,-1,1175,1121,0,0
-42,-97,0,0,0,0,0,0,0,0,0,-1,1182,1121,0,0
-35,-97,0,0,0,0,0,0,0,0,0,-1,1189,1121,0,0
-28,-97,0,0,0,0,0,0,0,0,0,-1,1196,1121,0,0
-21,-97,0,0,0,0,0,0,0,0,0,-1,1203,1121,0,0
-14,-97,0,0,0,0,0,0,0,0,0,-1,1210,1121,0,0
-7,-97,0,0,0,0,0,0,0,0,0,-1,1217,1121,0,0
0,-97,0,0,0,0,0,0,0,0,0,-1,1224,1121,0,0
7,-97,0,0,0,0,0,0,0,0,0,-1,1231,1121,0,0
14,-97,0,0,0,0,0,0,0,0,0,-1,1238,1121,0,0
21,-97,0,0,0,0,0,0,0,0,0,-1,1245,1121,0,0
28,-97,0,0,0,0,0,0,0,0,0,-1,1252,1121,0,0
35,-97,0,0,0,0,0,0,0,0,0,-1,1259,1121,0,0
42,-97,0,0,0,0,0,0,0,0,0,-1,1266,1121,0,0
49,-97,0,0,0,0,0,0,0,0,0,-1,1273,1121,0,0
56,-97,0,0,0,0,0,0,0,0,0,-1,1280,1121,0,0
63,-97,0,0,0,0,0,0,0,0,0,-1,1287,1121,0,0
70,-97,0,0,0,0,0,0,0,0,0,-1,1294,1121,0,0
77,-97,0,0,0,0,0,0,0,0,0,-1,1301,1121,0,0
84,-97,0,0,0,0,0,0,0,0,0,-1,1308,1121,0,0
91,-97,0,0,0,0,0,0,0,0,0,-1,1315,1121,0,0
98,-97,0,0,0,0,0,0,0,0,0,-1,1322,1121,0,0
105,-97,0,0,0,0,0,0,0,0,0,-1,1329,1121,0,0
112,-97,0,0,0,0,0,0,0,0,0,-1,1336,1121,0,0
119,-97,0,0,0,0,0,0,0,0,0,-1,1343,1121,0,0
126,-97,0,0,0,0,0,0,0,0,0,-1,1350,1121,0,0
133,-97,0,0,0,0,0,0,0,0,0,-1,1357,1121,0,0
140,-97,0,0,0,0,0,0,0,0,0,-1,1364,1121,0,0
147,-97,0,0,0,0,0,0,0,0,0,-1,1371,1121,0,0
154,-97,0,0,0,0,0,0,0,0,0,-1,1378,1121,0,0
161,-97,0,0,0,0,0,0,0,0,0,-1,1385,1121,0,0
168,-97,0,0,0,0,0,0,0,0,0,-1,1392,1121,0,0
175,-97,0,0,0,0,0,0,0,0,0,-1,1399,1121,0,0
182,-97,0,0,0,0,0,0,0,0,0,-1,1406,1121,0,0
189,-97,0,0,0,0,0,0,0,0,0,-1,1413,1121,0,0
196,-97,0,0,0,0,0,0,0,0,0,-1,1420,1121,0,0
203,-97,0,0,0,0,0,0,0,0,0,-1,1427,1121,0,0
210,-97,0,0,0,0,0,0,0,0,0,-1,1434,1121,0,0
217,-97,0,0,0,0,0,0,0,0,0,-1,1441,1121,0,0
224,-97,0,0,0,0,0,0,0,0,0,-1,1448,1121,0,0
231,-97,0,0,0,0,0,0,0,0,0,-1,1455,1121,0,0
238,-97,0,0,0,0,0,0,0,0,0,-1,1462,1121,0,0
245,-97,0,0,0,0,0,0,0,0,0,-1,1469,1121,0,0
252,-97,0,0,0,0,0,0,0,0,0,-1,1476,1121,0,0
259,-97,0,0,0,0,0,0,0,0,0,-1,1483,1121,0,0
266,-97,0,0,0,0,0,0,0,0,0,-1,1490,1121,0,0
273,-97,0,0,0,0,0,0,0,0,0,-1,1497,1121,0,0
280,-97,0,0,0,0,0,0,0,0,0,-1,1504,1121,0,0
287,-97,0,0,0,0,0,0,0,0,0,-1,1511,1121,0,0
294,-97,0,0,0,0,0,0,0,0,0,-1,1518,1121,0,0
301,-97,0,0,0,0,0,0,0,0,0,-1,1525,1121,0,0
308,-97,0,0,0,0,0,0,0,0,0,-1,1532,1121,0,0
315,-97,0,0,0,0,0,0,0,0,0,-1,1539,1121,0,0
322,-97,0,0,0,0,0,0,0,0,0,-1,1546,1121,0,0
329,-97,0,0,0,0,0,0,0,0,0,-1,1553,1121,0,0
336,-97,0,0,0,0,0,0,0,0,0,-1,1560,1121,0,0
343,-97,0,0,0,0,0,0,0,0,0,-1,1567,1121,0,0
350,-97,0,0,0,0,0,0,0,0,0,-1,1574,1121,0,0
357,-97,0,0,0,0,0,0,0,0,0,-1,1581,1121,0,0
364,-97,0,0,0,0,0,0,0,0,0,-1,1588,1121,0,0
371,-97,0,0,0,0,0,0,0,0,0,-1,1595,1121,0,0
378,-97,0,0,0,0,0,0,0,0,0,-1,1602,1121,0,0
385,-97,0,0,0,0,0,0,0,0,0,-1,1609,1121,0,0
392,-97,0,0,0,0,0,0,0,0,0,-1,1616,1121,0,0
399,-97,0,0,0,0,0,0,0,0,0,-1,1623,1121,0,0
406,-97,0,0,0,0,0,0,0,0,0,-1,1630,1121,0,0
413,-97,0,0,0,0,0,0,0,0,0,-1,1637,1121,0,0
420,-97,0,0,0,0,0,0,0,0,0,-1,1644,1121,0,0
427,-97,0,0,0,0,0,0,0,0,0,-1,1651,1121,0,0
434,-97,0,0,0,0,0,0,0,0,0,-1,1658,1121,0,0
441,-97,0,0,0,0,0,0,0,0,0,-1,1665,1121,0,0
448,-97,0,0,0,0,0,0,0,0,0,-1,1672,1121,0,0
455,-97,0,0,0,0,0,0,0,0,0,-1,1679,1121,0,0
462,-97,0,0,0,0,0,0,0,0,0,-1,1686,1121,0,0
469,-97,0,0,0,0,0,0,0,0,0,-1,1693,1121,0,0
476,-97,0,0,0,0,0,0,0,0,0,-1,1700,1121,0,0
483,-97,0,0,0,0,0,0,0,0,0,-1,1707,1121,0,0
490,-97,0,0,0,0,0,0,0,0,0,-1,1714,1121,0,0
497,-97,0,0,0,0,0,0,0,0,0,-1,1721,1121,0,0
504,-97,0,0,0,0,0,0,0,0,0,-1,1728,1121,0,0
511,-97,0,0,0,0,0,0,0,0,0,-1,1735,1121,0,0
518,-97,0,0,0,0,0,0,0,0,0,-1,1742,1121,0,0
525,-97,0,0,0,0,0,0,0,0,0,-1,1749,1121,0,0
532,-97,0,0,0,0,0,0,0,0,0,-1,1756,1121,0,0
539,-97,0,0,0,0,0,0,0,0,0,-1,1763,1121,0,0
546,-97,0,0,0,0,0,0,0,0,0,-1,1770,1121,0,0
553,-97,0,0,0,0,0,0,0,0,0,-1,1777,1121,0,0
560,-97,0,0,0,0,0,0,0,0,0,-1,1784,1121,0,0
567,-97,0,0,0,0,0,0,0,0,0,-1,1791,1121,0,0
574,-97,0,0,0,0,0,0,0,0,0,-1,1798,1121,0,0
581,-97,0,0,0,0,0,0,0,0,0,-1,1805,1121,0,0
588,-97,0,0,0,0,0,0,0,0,0,-1,1812,1121,0,0
595,-97,0,0,0,0,0,0,0,0,0,-1,1819,1121,0,0
602,-97,0,0,0,0,0,0,0,0,0,-1,1826,1121,0,0
609,-97,0,0,0,0,0,0,0,0,0,-1,1833,1121,0,0
616,-97,0,0,0,0,0,0,0,0,0,-1,1840,1121,0,0
623,-97,0,0,0,0,0,0,0,0,0,-1,1847,1121,0,0
630,-97,0,0,0,0,0,0,0,0,0,-1,1854,1121,0,0
637,-97,0,0,0,0,0,0,0,0,0,-1,1861,1121,0,0
644,-97,52.8473,2.68518,0.0016242,-0.00166851,0.0033378,0.00369959,-0.0037439,0.556283,0.00429753,0.036402,1868,1121,52.8473,-2.68515
651,-97,52.8671,2.80115,0.00138759,-0.00176525,0.00206329,0.00240776,-0.00278542,0.459188,0.00300092,0.0375711,1875,1121,52.8671,-2.80119
658,-97,52.8893,2.58765,0.00144288,-0.00179473,0.00132968,0.00191897,-0.00227082,0.343826,0.00242181,0.0375814,1882,1121,52.8892,-2.5877
665,-97,52.8334,2.36389,0.00135972,-0.00169191,0.000817656,0.00156499,-0.00189718,0.24597,0.00200195,0.0407899,1889,1121,52.8333,-2.36384
672,-97,52.8488,2.51514,0.00123248,-0.00148724,0.000485253,0.00131646,-0.00157123,0.171378,0.00166937,0.0421129,1896,1121,52.8488,-2.51509
679,-97,52.9867,2.68091,0.000991508,-0.0012732,0.000294081,0.00102907,-0.00131076,0.127047,0.00135416,0.0414881,1903,1121,52.9866,-2.68094
686,-97,52.885,2.66162,0.00098656,-0.00121997,0.000317484,0.00103133,-0.00126474,0.140099,0.00132792,0.0355724,1910,1121,52.885,-2.6616
693,-97,52.8973,2.52454,0.00107576,-0.00117385,0.000390689,0.00114168,-0.00123977,0.167151,0.00137532,0.031133,1917,1121,52.8973,-2.5245
700,-97,52.9164,2.57654,0.00113621,-0.00109392,0.000411346,0.00120966,-0.00116737,0.176706,0.00137245,0.0259196,1924,1121,52.9164,-2.57659
707,-97,52.9355,2.54773,0.00107097,-0.000951945,0.000536498,0.00120445,-0.00108542,0.243843,0.00132265,0.0235008,1931,1121,52.9356,-2.54771
714,-97,52.9272,2.4834,0,0,0,0,0,0,0,-1,1938,1121,52.9272,-2.48345
721,-97,49.4232,7.44287,0,0,0,0,0,0,0,-1,1945,1121,49.4232,-7.44291
728,-97,49.3752,7.21289,-0.000102401,3.63435e-05,0.0012144,0.00118335,-0.00124941,0.813929,0.00140472,0.0263025,1952,1121,49.3753,-7.21293
735,-97,49.3346,6.76318,-0.000246358,0.000441383,0.00121462,0.00135987,-0.00116485,0.923343,0.0014591,0.0265511,1959,1121,49.3346,-6.76318
742,-97,49.3361,6.42175,-7.67301e-05,0.00098711,0.0014779,0.0020259,-0.00111552,0.958139,0.00183891,0.0220016,1966,1121,49.3361,-6.42177
749,-97,49.4133,6.04211,-7.49979e-06,0.00134829,0.00178009,0.00257519,-0.0012344,0.967331,0.00224442,0.0220566,1973,1121,49.4134,-6.0421
756,-97,49.4038,5.65039,0.000691873,0.0015078,0.0019187,0.00306143,-0.000861755,0.890151,0.00238077,0.0160827,1980,1121,49.4038,-5.65039
763,-97,49.3108,5.34229,0.0026877,0.0015539,0.00188416,0.00408839,0.0001532,0.639267,0.00267599,0.0132255,1987,1121,49.3108,-5.34229
770,-97,49.2865,5.03711,0.00574727,0.00112386,0.00191203,0.00643554,0.00043559,0.345527,0.00415278,0.0120998,1994,1121,49.2865,-5.03716
777,-97,49.2458,4.68176,0.0101655,4.55191e-05,0.00187755,0.0105026,-0.000291591,0.177655,0.00710094,0.0163209,2001,1121,49.2458,-4.68173
784,-97,49.1663,4.24707,0.0160879,-0.00180412,0.00169821,0.0162477,-0.00196388,0.0937981,0.0115422,0.0361696,2008,1121,49.1662,-4.24706
791,-97,49.0176,3.50647,0.0242694,-0.00486911,0.00130017,0.0243273,-0.00492701,0.0445024,0.0180856,0.0449551,2015,1121,49.0177,-3.50644
798,-97,50.043,3.81567,0.0352526,-0.00941118,0.000478352,0.0352577,-0.0094163,0.0107084,0.0271929,0.0440627,2022,1121,50.0429,-3.8157
805,-97,50.103,3.25427,0.0493087,-0.0156256,-0.00106954,0.0493263,-0.0156432,-0.0164652,0.0391545,0.0456134,2029,1121,50.1031,-3.25425
812,-97,50.5315,2.58582,0,0,0,0,0,0,0,-1,2036,1121,50.5315,-2.58579
-700,-104,0,0,0,0,0,0,0,0,0,-1,524,1128,0,0
-693,-104,-35.4876,-1.52417,0,0,0,0,0,0,0,-1,531,1128,-35.4876,1.52413
-686,-104,-32.8737,0.258301,0,0,0,0,0,0,0,-1,538,1128,-32.8737,-0.258263
-679,-104,-35.9306,-1.50513,0,0,0,0,0,0,0,-1,545,1128,-35.9306,1.5051
-672,-104,-36.659,-0.721802,0,0,0,0,0,0,0,-1,552,1128,-36.659,0.721798
-665,-104,-35.7797,0.920166,0,0,0,0,0,0,0,-1,559,1128,-35.7797,-0.920157
-658,-104,-35.6681,1.1322,0.008426,0.00513696,0.0103813,0.0172922,-0.00372924,0.706845,0.0129514,0.0491766,566,1128,-35.6681,-1.13226
-651,-104,-35.5137,1.45898,0.00573115,0.003215,0.00720429,0.0117864,-0.00284024,0.698955,0.00895574,0.0414151,573,1128,-35.5138,-1.45895
-644,-104,-35.4797,1.75537,0.00352432,0.00199383,0.00462079,0.0074428,-0.00192466,0.703339,0.00571254,0.0160136,580,1128,-35.4796,-1.75538
-637,-104,-35.4657,2.20239,0.00177513,0.00102964,0.00250316,0.00393315,-0.00112838,0.711486,0.00306819,0.0119344,587,1128,-35.4657,-2.20234
-630,-104,-35.4906,2.56616,0.000867348,3.05682e-05,0.000681049,0.00124826,-0.00035034,0.509953,0.000970268,0.015738,594,1128,-35.4906,-2.56622
-623,-104,-35.5384,3.01428,0.000317124,-0.000175301,-0.000488294,0.000617767,-0.000475944,-0.551885,0.000633222,0.0184675,601,1128,-35.5384,-3.01427
-616,-104,-35.7742,3.5116,0.000860857,-0.000519072,-0.00104587,0.00142385,-0.00108206,-0.493815,0.00145127,0.0243515,608,1128,-35.7742,-3.51155
-609,-104,-35.918,3.80298,0.00144761,-0.000948039,-0.00129074,0.0020107,-0.00151112,-0.411358,0.00204013,0.0314239,615,1128,-35.918,-3.80294
-602,-104,-35.7181,4.26917,0.00159655,-0.00118359,-0.00138106,0.00216597,-0.00175301,-0.391073,0.00226681,0.0275375,622,1128,-35.7181,-4.26911
-595,-104,-35.4965,4.76245,0.00166235,-0.0013817,-0.00129512,0.0021388,-0.00185815,-0.352513,0.00230953,0.0192002,629,1128,-35.4965,-4.76239
-588,-104,-35.4033,5.27722,0,0,0,0,0,0,0,-1,636,1128,-35.4033,-5.27725
-581,-104,-23.9373,2.85864,0,0,0,0,0,0,0,-1,643,1128,-23.9373,-2.85861
-574,-104,-39.4221,0.861572,0,0,0,0,0,0,0,-1,650,1128,-39.4221,-0.861519
-567,-104,-39.3352,0.80603,0.00191844,-0.00227462,-0.000921965,0.0021122,-0.00246839,-0.207152,0.00264727,0.0370743,657,1128,-39.3352,-0.806079
-560,-104,-39.2927,0.728149,0.00175419,-0.00223161,-0.000791961,0.00190578,-0.0023832,-0.189128,0.00248135,0.0417148,664,1128,-39.2927,-0.728186
-553,-104,-39.2593,0.560913,0.000980004,-0.00202818,-0.000834107,0.0011958,-0.00224398,-0.253168,0.00201646,0.0454411,671,1128,-39.2593,-0.560931
-546,-104,-39.2478,0.50293,2.90978e-05,-0.00165868,-0.00102493,0.000512852,-0.00214243,-0.440986,0.00162642,0.0433208,678,1128,-39.2478,-0.502894
-539,-104,-39.321,0.703979,-0.000261532,-0.00139321,-0.00154554,0.000818498,-0.00247324,-0.609922,0.00197891,0.0371837,685,1128,-39.3211,-0.703964
-532,-104,-39.4758,0.765137,-0.000183919,-0.00117462,-0.00247077,0.00184067,-0.00319921,-0.686467,0.0029448,0.0383697,692,1128,-39.4758,-0.765194
-525,-104,-39.5268,0.704468,8.5042e-05,-0.000948616,-0.00384061,0.00344344,-0.00430702,-0.718515,0.00448398,0.0381189,699,1128,-39.5268,-0.704502
-518,-104,0,0,0,0,0,0,0,0,0,-1,706,1128,0,0
-511,-104,0,0,0,0,0,0,0,0,0,-1,713,1128,0,0
-504,-104,0,0,0,0,0,0,0,0,0,-1,720,1128,0,0
-497,-104,0,0,0,0,0,0,0,0,0,-1,727,1128,0,0
-490,-104,0,0,0,0,0,0,0,0,0,-1,734,1128,0,0
-483,-104,0,0,0,0,0,0,0,0,0,-1,741,1128,0,0
-476,-104,0,0,0,0,0,0,0,0,0,-1,748,1128,0,0
-469,-104,0,0,0,0,0,0,0,0,0,-1,755,1128,0,0
-462,-104,0,0,0,0,0,0,0,0,0,-1,762,1128,0,0
-455,-104,0,0,0,0,0,0,0,0,0,-1,769,1128,0,0
-448,-104,0,0,0,0,0,0,0,0,0,-1,776,1128,0,0
-441,-104,0,0,0,0,0,0,0,0,0,-1,783,1128,0,0
-434,-104,0,0,0,0,0,0,0,0,0,-1,790,1128,0,0
-427,-104,0,0,0,0,0,0,0,0,0,-1,797,1128,0,0
-420,-104,0,0,0,0,0,0,0,0,0,-1,804,1128,0,0
-413,-104,0,0,0,0,0,0,0,0,0,-1,811,1128,0,0
-406,-104,0,0,0,0,0,0,0,0,0,-1,818,1128,0,0
-399,-104,0,0,0,0,0,0,0,0,0,-1,825,1128,0,0
-392,-104,0,0,0,0,0,0,0,0,0,-1,832,1128,0,0
-385,-104,0,0,0,0,0,0,0,0,0,-1,839,1128,0,0
-378,-104,0,0,0,0,0,0,0,0,0,-1,846,1128,0,0
-371,-104,0,0,0,0,0,0,0,0,0,-1,853,1128,0,0
-364,-104,0,0,0,0,0,0,0,0,0,-1,860,1128,0,0
-357,-104,0,0,0,0,0,0,0,0,0,-1,867,1128,0,0
-350,-104,0,0,0,0,0,0,0,0,0,-1,874,1128,0,0
-343,-104,0,0,0,0,0,0,0,0,0,-1,881,1128,0,0
-336,-104,0,0,0,0,0,0,0,0,0,-1,888,1128,0,0
-329,-104,0,0,0,0,0,0,0,0,0,-1,895,1128,0,0
-322,-104,0,0,0,0,0,0,0,0,0,-1,902,1128,0,0
-315,-104,0,0,0,0,0,0,0,0,0,-1,909,1128,0,0
-308,-104,0,0,0,0,0,0,0,0,0,-1,916,1128,0,0
-301,-104,0,0,0,0,0,0,0,0,0,-1,923,1128,0,0
-294,-104,0,0,0,0,0,0,0,0,0,-1,930,1128,0,0
-287,-104,0,0,0,0,0,0,0,0,0,-1,937,1128,0,0
-280,-104,0,0,0,0,0,0,0,0,0,-1,944,1128,0,0
-273,-104,0,0,0,0,0,0,0,0,0,-1,951,1128,0,0
-266,-104,0,0,0,0,0,0,0,0,0,-1,958,1128,0,0
-259,-104,0,0,0,0,0,0,0,0,0,-1,965,1128,0,0
-252,-104,0,0,0,0,0,0,0,0,0,-1,972,1128,0,0
-245,-104,0,0,0,0,0,0,0,0,0,-1,979,1128,0,0
-238,-104,0,0,0,0,0,0,0,0,0,-1,986,1128,0,0
-231,-104,0,0,0,0,0,0,0,0,0,-1,993,1128,0,0
-224,-104,0,0,0,0,0,0,0,0,0,-1,1000,1128,0,0
-217,-104,0,0,0,0,0,0,0,0,0,-1,1007,1128,0,0
-210,-104,0,0,0,0,0,0,0,0,0,-1,1014,1128,0,0
-203,-104,0,0,0,0,0,0,0,0,0,-1,1021,1128,0,0
-196,-104,0,0,0,0,0,0,0,0,0,-1,1028,1128,0,0
-189,-104,0,0,0,0,0,0,0,0,0,-1,1035,1128,0,0
-182,-104,0,0,0,0,0,0,0,0,0,-1,1042,1128,0,0
-175,-104,0,0,0,0,0,0,0,0,0,-1,1049,1128,0,0
-168,-104,0,0,0,0,0,0,0,0,0,-1,1056,1128,0,0
-161,-104,0,0,0,0,0,0,0,0,0,-1,1063,1128,0,0
-154,-104,0,0,0,0,0,0,0,0,0,-1,1070,1128,0,0
-147,-104,0,0,0,0,0,0,0,0,0,-1,1077,1128,0,0
-140,-104,0,0,0,0,0,0,0,0,0,-1,1084,1128,0,0
-133,-104,0,0,0,0,0,0,0,0,0,-1,1091,1128,0,0
-126,-104,0,0,0,0,0,0,0,0,0,-1,1098,1128,0,0
-119,-104,0,0,0,0,0,0,0,0,0,-1,1105,1128,0,0
-112,-104,0,0,0,0,0,0,0,0,0,-1,1112,1128,0,0
-105,-104,0,0,0,0,0,0,0,0,0,-1,1119,1128,0,0
-98,-104,0,0,0,0,0,0,0,0,0,-1,1126,1128,0,0
-91,-104,0,0,0,0,0,0,0,0,0,-1,1133,1128,0,0
-84,-104,0,0,0,0,0,0,0,0,0,-1,1140,1128,0,0
-77,-104,0,0,0,0,0,0,0,0,0,-1,1147,1128,0,0
-70,-104,0,0,0,0,0,0,0,0,0,-1,1154,1128,0,0
-63,-104,0,0,0,0,0,0,0,0,0,-1,1161,1128,0,0
-56,-104,0,0,0,0,0,0,0,0,0,-1,1168,1128,0,0
-49,-104,0,0,0,0,0,0,0,0,0,-1,1175,1128,0,0
-42,-104,0,0,0,0,0,0,0,0,0,-1,1182,1128,0,0
-35,-104,0,0,0,0,0,0,0,0,0,-1,1189,1128,0,0
-28,-104,0,0,0,0,0,0,0,0,0,-1,1196,1128,0,0
-21,-104,0,0,0,0,0,0,0,0,0,-1,1203,1128,0,0
-14,-104,0,0,0,0,0,0,0,0,0,-1,1210,1128,0,0
-7,-104,0,0,0,0,0,0,0,0,0,-1,1217,1128,0,0
0,-104,0,0,0,0,0,0,0,0,0,-1,1224,1128,0,0
7,-104,0,0,0,0,0,0,0,0,0,-1,1231,1128,0,0
14,-104,0,0,0,0,0,0,0,0,0,-1,1238,1128,0,0
21,-104,0,0,0,0,0,0,0,0,0,-1,1245,1128,0,0
28,-104,0,0,0,0,0,0,0,0,0,-1,1252,1128,0,0
35,-104,0,0,0,0,0,0,0,0,0,-1,1259,1128,0,0
42,-104,0,0,0,0,0,0,0,0,0,-1,1266,1128,0,0
49,-104,0,0,0,0,0,0,0,0,0,-1,1273,1128,0,0
56,-104,0,0,0,0,0,0,0,0,0,-1,1280,1128,0,0
63,-104,0,0,0,0,0,0,0,0,0,-1,1287,1128,0,0
70,-104,0,0,0,0,0,0,0,0,0,-1,1294,1128,0,0
77,-104,0,0,0,0,0,0,0,0,0,-1,1301,1128,0,0
84,-104,0,0,0,0,0,0,0,0,0,-1,1308,1128,0,0
91,-104,0,0,0,0,0,0,0,0,0,-1,1315,1128,0,0
98,-104,0,0,0,0,0,0,0,0,0,-1,1322,1128,0,0
105,-104,0,0,0,0,0,0,0,0,0,-1,1329,1128,0,0
112,-104,0,0,0,0,0,0,0,0,0,-1,1336,1128,0,0
119,-104,0,0,0,0,0,0,0,0,0,-1,1343,1128,0,0
126,-104,0,0,0,0,0,0,0,0,0,-1,1350,1128,0,0
133,-104,0,0,0,0,0,0,0,0,0,-1,1357,1128,0,0
140,-104,0,0,0,0,0,0,0,0,0,-1,1364,1128,0,0
147,-104,0,0,0,0,0,0,0,0,0,-1,1371,1128,0,0
154,-104,0,0,0,0,0,0,0,0,0,-1,1378,1128,0,0
161,-104,0,0,0,0,0,0,0,0,0,-1,1385,1128,0,0
168,-104,0,0,0,0,0,0,0,0,0,-1,1392,1128,0,0
175,-104,0,0,0,0,0,0,0,0,0,-1,1399,1128,0,0
182,-104,0,0,0,0,0,0,0,0,0,-1,1406,1128,0,0
189,-104,0,0,0,0,0,0,0,0,0,-1,1413,1128,0,0
196,-104,0,0,0,0,0,0,0,0,0,-1,1420,1128,0,0
203,-104,0,0,0,0,0,0,0,0,0,-1,1427,1128,0,0
210,-104,0,0,0,0,0,0,0,0,0,-1,1434,1128,0,0
217,-104,0,0,0,0,0,0,0,0,0,-1,1441,1128,0,0
224,-104,0,0,0,0,0,0,0,0,0,-1,1448,1128,0,0
231,-104,0,0,0,0,0,0,0,0,0,-1,1455,1128,0,0
238,-104,0,0,0,0,0,0,0,0,0,-1,1462,1128,0,0
245,-104,0,0,0,0,0,0,0,0,0,-1,1469,1128,0,0
252,-104,0,0,0,0,0,0,0,0,0,-1,1476,1128,0,0
259,-104,0,0,0,0,0,0,0,0,0,-1,1483,1128,0,0
266,-104,0,0,0,0,0,0,0,0,0,-1,1490,1128,0,0
273,-104,0,0,0,0,0,0,0,0,0,-1,1497,1128,0,0
280,-104,0,0,0,0,0,0,0,0,0,-1,1504,1128,0,0
287,-104,0,0,0,0,0,0,0,0,0,-1,1511,1128,0,0
294,-104,0,0,0,0,0,0,0,0,0,-1,1518,1128,0,0
301,-104,0,0,0,0,0,0,0,0,0,-1,1525,1128,0,0
308,-104,0,0,0,0,0,0,0,0,0,-1,1532,1128,0,0
315,-104,0,0,0,0,0,0,0,0,0,-1,1539,1128,0,0
322,-104,0,0,0,0,0,0,0,0,0,-1,1546,1128,0,0
329,-104,0,0,0,0,0,0,0,0,0,-1,1553,1128,0,0
336,-104,0,0,0,0,0,0,0,0,0,-1,1560,1128,0,0
343,-104,0,0,0,0,0,0,0,0,0,-1,1567,1128,0,0
350,-104,0,0,0,0,0,0,0,0,0,-1,1574,1128,0,0
357,-104,0,0,0,0,0,0,0,0,0,-1,1581,1128,0,0
364,-104,0,0,0,0,0,0,0,0,0,-1,1588,1128,0,0
371,-104,0,0,0,0,0,0,0,0,0,-1,1595,1128,0,0
378,-104,0,0,0,0,0,0,0,0,0,-1,1602,1128,0,0
385,-104,0,0,0,0,0,0,0,0,0,-1,1609,1128,0,0
392,-104,0,0,0,0,0,0,0,0,0,-1,1616,1128,0,0
399,-104,0,0,0,0,0,0,0,0,0,-1,1623,1128,0,0
406,-104,0,0,0,0,0,0,0,0,0,-1,1630,1128,0,0
413,-104,0,0,0,0,0,0,0,0,0,-1,1637,1128,0,0
420,-104,0,0,0,0,0,0,0,0,0,-1,1644,1128,0,0
427,-104,0,0,0,0,0,0,0,0,0,-1,1651,1128,0,0
434,-104,0,0,0,0,0,0,0,0,0,-1,1658,1128,0,0
441,-104,0,0,0,0,0,0,0,0,0,-1,1665,1128,0,0
448,-104,0,0,0,0,0,0,0,0,0,-1,1672,1128,0,0
455,-104,0,0,0,0,0,0,0,0,0,-1,1679,1128,0,0
462,-104,0,0,0,0,0,0,0,0,0,-1,1686,1128,0,0
469,-104,0,0,0,0,0,0,0,0,0,-1,1693,1128,0,0
476,-104,0,0,0,0,0,0,0,0,0,-1,1700,1128,0,0
483,-104,0,0,0,0,0,0,0,0,0,-1,1707,1128,0,0
490,-104,0,0,0,0,0,0,0,0,0,-1,1714,1128,0,0
497,-104,0,0,0,0,0,0,0,0,0,-1,1721,1128,0,0
504,-104,0,0,0,0,0,0,0,0,0,-1,1728,1128,0,0
511,-104,0,0,0,0,0,0,0,0,0,-1,1735,1128,0,0
518,-104,0,0,0,0,0,0,0,0,0,-1,1742,1128,0,0
525,-104,0,0,0,0,0,0,0,0,0,-1,1749,1128,0,0
532,-104,0,0,0,0,0,0,0,0,0,-1,1756,1128,0,0
539,-104,0,0,0,0,0,0,0,0,0,-1,1763,1128,0,0
546,-104,0,0,0,0,0,0,0,0,0,-1,1770,1128,0,0
553,-104,0,0,0,0,0,0,0,0,0,-1,1777,1128,0,0
560,-104,0,0,0,0,0,0,0,0,0,-1,1784,1128,0,0
567,-104,0,0,0,0,0,0,0,0,0,-1,1791,1128,0,0
574,-104,0,0,0,0,0,0,0,0,0,-1,1798,1128,0,0
581,-104,0,0,0,0,0,0,0,0,0,-1,1805,1128,0,0
588,-104,0,0,0,0,0,0,0,0,0,-1,1812,1128,0,0
595,-104,0,0,0,0,0,0,0,0,0,-1,1819,1128,0,0
602,-104,0,0,0,0,0,0,0,0,0,-1,1826,1128,0,0
609,-104,0,0,0,0,0,0,0,0,0,-1,1833,1128,0,0
616,-104,0,0,0,0,0,0,0,0,0,-1,1840,1128,0,0
623,-104,0,0,0,0,0,0,0,0,0,-1,1847,1128,0,0
630,-104,0,0,0,0,0,0,0,0,0,-1,1854,1128,0,0
637,-104,0,0,0,0,0,0,0,0,0,-1,1861,1128,0,0
644,-104,52.8353,2.62341,0.00018394,-0.00110568,0.00365506,0.00325063,-0.00417237,0.698088,0.00429667,0.0365909,1868,1128,52.8354,-2.62339
651,-104,52.8923,2.84082,0.000242049,-0.00125054,0.00236011,0.00197105,-0.00297954,0.632266,0.00287792,0.0396007,1875,1128,52.8923,-2.84085
658,-104,52.9766,2.72852,0.000555012,-0.00132516,0.0015651,0.00144066,-0.00221081,0.514947,0.00212375,0.0409774,1882,1128,52.9766,-2.72848
665,-104,53.0162,2.57397,0.000739426,-0.00127514,0.000973569,0.00113302,-0.00166874,0.38419,0.00162742,0.0423336,1889,1128,53.0163,-2.57394
672,-104,53.014,2.52808,0.000859134,-0.00112887,0.00055933,0.0010057,-0.00127543,0.256273,0.00132008,0.0425296,1896,1128,53.014,-2.52802
679,-104,53.025,2.52563,0.000795344,-0.000995895,0.000327335,0.000853288,-0.00105384,0.175201,0.00110311,0.0414645,1903,1128,53.025,-2.52565
686,-104,52.8588,2.47473,0.000909931,-0.000998242,0.000315058,0.000960604,-0.00104892,0.159473,0.00116057,0.0384481,1910,1128,52.8588,-2.47476
693,-104,52.9073,2.55383,0.00105608,-0.000988188,0.000362386,0.00111842,-0.00105053,0.170356,0.00125245,0.0344409,1917,1128,52.9073,-2.5538
700,-104,52.9445,2.64758,0.00114222,-0.000942718,0.000369985,0.00120593,-0.00100643,0.170522,0.00127904,0.0266368,1924,1128,52.9444,-2.64757
707,-104,52.9335,2.58008,0,0,0,0,0,0,0,-1,1931,1128,52.9335,-2.58008
714,-104,45.5221,2.32166,0,0,0,0,0,0,0,-1,1938,1128,45.5221,-2.3216
721,-104,48.9255,7.5968,0,0,0,0,0,0,0,-1,1945,1128,48.9255,-7.59675
728,-104,49.0851,7.12085,-8.78481e-06,2.52224e-05,0.00113487,0.00114322,-0.00112678,0.792889,0.0013106,0.0264466,1952,1128,49.0851,-7.12084
735,-104,49.155,6.71216,-0.000193613,0.000359288,0.0011046,0.00122151,-0.00105583,0.908015,0.00131598,0.0311738,1959,1128,49.155,-6.71213
742,-104,49.0342,6.39734,-8.56889e-05,0.000817268,0.00135397,0.00179305,-0.00106147,0.946324,0.001666,0.0209213,1966,1128,49.0341,-6.39735
749,-104,48.9564,6.05676,-0.000122428,0.00110941,0.00163044,0.00223639,-0.0012494,0.965994,0.00203924,0.0206032,1973,1128,48.9564,-6.05681
756,-104,48.9519,5.66064,0.000517724,0.00117915,0.00177593,0.0026549,-0.000958026,0.877453,0.00216125,0.0166633,1980,1128,48.9519,-5.66064
763,-104,48.9141,5.30957,0.00257513,0.00102729,0.00175045,0.00371511,-0.000112692,0.577255,0.00251515,0.0164123,1987,1128,48.914,-5.30954
770,-104,48.8767,5.01563,0.00560143,0.00034231,0.00178713,0.00615124,-0.000207501,0.298461,0.00417172,0.0144271,1994,1128,48.8767,-5.01566
777,-104,48.8157,4.64917,0.00993467,-0.00102789,0.00176562,0.010212,-0.00130525,0.155812,0.00728219,0.02283,2001,1128,48.8157,-4.64914
784,-104,48.7151,4.15503,0.0158429,-0.00325356,0.00162611,0.0159804,-0.00339103,0.0843429,0.0119455,0.0407798,2008,1128,48.7151,-4.15506
791,-104,48.4719,3.60181,0.0240956,-0.00679687,0.00130915,0.024151,-0.00685225,0.0422766,0.0188056,0.0454375,2015,1128,48.4719,-3.60178
798,-104,48.7871,4.30859,0.035237,-0.0118873,0.000629203,0.0352454,-0.0118957,0.0133488,0.028308,0.0472098,2022,1128,48.7871,-4.3086
805,-104,49.5828,3.50696,0.0496004,-0.0187332,-0.000669374,0.049607,-0.0187397,-0.00979443,0.0407793,0.046264,2029,1128,49.5827,-3.50702
812,-104,50.0193,3.20959,0.067593,-0.0275204,-0.00283324,0.0676773,-0.0276047,-0.0297529,0.0566096,0.0481766,2036,1128,50.0192,-3.20956
-700,-111,0,0,0,0,0,0,0,0,0,-1,524,1135,0,0
-693,-111,-34.3995,-1.57068,0,0,0,0,0,0,0,-1,531,1135,-34.3995,1.57065
-686,-111,-34.7635,-1.2655,0,0,0,0,0,0,0,-1,538,1135,-34.7635,1.26552
-679,-111,-35.5265,-1.82788,0,0,0,0,0,0,0,-1,545,1135,-35.5265,1.82785
-672,-111,-36.0728,-0.713379,0.00681375,0.0155051,0.0164418,0.0281659,-0.005847,0.914597,0.0209994,0.0461279,552,1135,-36.0727,0.713368
-665,-111,-36.9409,0.0944824,0,0,0,0,0,0,0,-1,559,1135,-36.9409,-0.0944408
-658,-111,-35.3912,0.908936,0,0,0,0,0,0,0,-1,566,1135,-35.3912,-0.90896
-651,-111,-35.0438,1.36279,0,0,0,0,0,0,0,-1,573,1135,-35.0438,-1.36275
-644,-111,-34.9486,1.79602,0.00147613,0.00283461,0.00392776,0.00614143,-0.00183069,0.871018,0.00482178,0.0275126,580,1135,-34.9486,-1.79605
-637,-111,-35.0194,2.19812,0.000365943,0.00155123,0.00197838,0.00302382,-0.00110665,0.930925,0.00246887,0.0111915,587,1135,-35.0194,-2.19814
-630,-111,-35.0475,2.55017,-0.000143805,0.000423851,0.000339998,0.000582919,-0.000302873,1.1332,0.000519862,0.0213356,594,1135,-35.0475,-2.55023
-623,-111,-35.071,3.00378,-0.000434553,0.000157181,-0.000684037,0.000606595,-0.000883967,-0.989514,0.000865529,0.0182929,601,1135,-35.071,-3.00383
-616,-111,-35.3022,3.45007,0.000272867,-0.000278606,-0.00114758,0.00117737,-0.00118311,-0.667495,0.00136282,0.0195656,608,1135,-35.3023,-3.4501
-609,-111,-35.5692,3.82629,0.000905094,-0.000809363,-0.00132714,0.00162779,-0.00153206,-0.498648,0.00182462,0.0322415,615,1135,-35.5691,-3.82633
-602,-111,-35.4356,4.2959,0.00117251,-0.00116092,-0.00137391,0.00180825,-0.00179666,-0.433385,0.0020813,0.0380494,622,1135,-35.4356,-4.29586
-595,-111,-35.1718,4.80139,0.00121855,-0.00140529,-0.00123167,0.00170611,-0.00189286,-0.376929,0.0020788,0.0187486,629,1135,-35.1718,-4.8014
-588,-111,-34.8505,5.39209,0,0,0,0,0,0,0,-1,636,1135,-34.8505,-5.39203
-581,-111,-21.0555,3.14551,0,0,0,0,0,0,0,-1,643,1135,-21.0555,-3.14548
-574,-111,-39.4017,0.888306,0,0,0,0,0,0,0,-1,650,1135,-39.4017,-0.888367
-567,-111,-39.36,0.868774,0.00127832,-0.00221941,-0.000842664,0.00147074,-0.00241184,-0.224505,0.00226345,0.0407184,657,1135,-39.36,-0.868814
-560,-111,-39.3596,0.806396,0.00117539,-0.00220028,-0.000701252,0.00131527,-0.00234016,-0.196888,0.00213793,0.039961,664,1135,-39.3596,-0.806394
-553,-111,-39.2435,0.486328,0.000435904,-0.00200045,-0.00078028,0.000664375,-0.00222893,-0.284845,0.00174996,0.0422045,671,1135,-39.2434,-0.486384
-546,-111,-39.198,0.52356,-0.000502998,-0.00159535,-0.00105172,0.000135905,-0.00223426,-0.545906,0.00153681,0.0399558,678,1135,-39.198,-0.523537
-539,-111,-39.3429,0.674561,-0.00098858,-0.00114856,-0.00175504,0.000688298,-0.00282543,-0.762626,0.0021501,0.0387523,685,1135,-39.3429,-0.67458
-532,-111,-39.3926,0.785278,-0.00108016,-0.000637684,-0.00292729,0.00207672,-0.00379456,-0.823115,0.00343781,0.0381116,692,1135,-39.3927,-0.785321
-525,-111,-39.4316,0.556519,-0.000941229,-1.26909e-06,-0.00456938,0.00412224,-0.00506474,-0.836645,0.0053134,0.0369475,699,1135,-39.4316,-0.556514
-518,-111,0,0,0,0,0,0,0,0,0,-1,706,1135,0,0
-511,-111,0,0,0,0,0,0,0,0,0,-1,713,1135,0,0
-504,-111,0,0,0,0,0,0,0,0,0,-1,720,1135,0,0
-497,-111,0,0,0,0,0,0,0,0,0,-1,727,1135,0,0
-490,-111,0,0,0,0,0,0,0,0,0,-1,734,1135,0,0
-483,-111,0,0,0,0,0,0,0,0,0,-1,741,1135,0,0
-476,-111,0,0,0,0,0,0,0,0,0,-1,748,1135,0,0
-469,-111,0,0,0,0,0,0,0,0,0,-1,755,1135,0,0
-462,-111,0,0,0,0,0,0,0,0,0,-1,762,1135,0,0
-455,-111,0,0,0,0,0,0,0,0,0,-1,769,1135,0,0
-448,-111,0,0,0,0,0,0,0,0,0,-1,776,1135,0,0
-441,-111,0,0,0,0,0,0,0,0,0,-1,783,1135,0,0
-434,-111,0,0,0,0,0,0,0,0,0,-1,790,1135,0,0
-427,-111,0,0,0,0,0,0,0,0,0,-1,797,1135,0,0
-420,-111,0,0,0,0,0,0,0,0,0,-1,804,1135,0,0
-413,-111,0,0,0,0,0,0,0,0,0,-1,811,1135,0,0
-406,-111,0,0,0,0,0,0,0,0,0,-1,818,1135,0,0
-399,-111,0,0,0,0,0,0,0,0,0,-1,825,1135,0,0
-392,-111,0,0,0,0,0,0,0,0,0,-1,832,1135,0,0
-385,-111,0,0,0,0,0,0,0,0,0,-1,839,1135,0,0
-378,-111,0,0,0,0,0,0,0,0,0,-1,846,1135,0,0
-371,-111,0,0,0,0,0,0,0,0,0,-1,853,1135,0,0
-364,-111,0,0,0,0,0,0,0,0,0,-1,860,1135,0,0
-357,-111,0,0,0,0,0,0,0,0,0,-1,867,1135,0,0
-350,-111,0,0,0,0,0,0,0,0,0,-1,874,1135,0,0
-343,-111,0,0,0,0,0,0,0,0,0,-1,881,1135,0,0
-336,-111,0,0,0,0,0,0,0,0,0,-1,888,1135,0,0
-329,-111,0,0,0,0,0,0,0,0,0,-1,895,1135,0,0
-322,-111,0,0,0,0,0,0,0,0,0,-1,902,1135,0,0
-315,-111,0,0,0,0,0,0,0,0,0,-1,909,1135,0,0
-308,-111,0,0,0,0,0,0,0,0,0,-1,916,1135,0,0
-301,-111,0,0,0,0,0,0,0,0,0,-1,923,1135,0,0
-294,-111,0,0,0,0,0,0,0,0,0,-1,930,1135,0,0
-287,-111,0,0,0,0,0,0,0,0,0,-1,937,1135,0,0
-280,-111,0,0,0,0,0,0,0,0,0,-1,944,1135,0,0
-273,-111,0,0,0,0,0,0,0,0,0,-1,951,1135,0,0
-266,-111,0,0,0,0,0,0,0,0,0,-1,958,1135,0,0
-259,-111,0,0,0,0,0,0,0,0,0,-1,965,1135,0,0
-252,-111,0,0,0,0,0,0,0,0,0,-1,972,1135,0,0
-245,-111,0,0,0,0,0,0,0,0,0,-1,979,1135,0,0
-238,-111,0,0,0,0,0,0,0,0,0,-1,986,1135,0,0
-231,-111,0,0,0,0,0,0,0,0,0,-1,993,1135,0,0
-224,-111,0,0,0,0,0,0,0,0,0,-1,1000,1135,0,0
-217,-111,0,0,0,0,0,0,0,0,0,-1,1007,1135,0,0
-210,-111,0,0,0,0,0,0,0,0,0,-1,1014,1135,0,0
-203,-111,0,0,0,0,0,0,0,0,0,-1,1021,1135,0,0
-196,-111,0,0,0,0,0,0,0,0,0,-1,1028,1135,0,0
-189,-111,0,0,0,0,0,0,0,0,0,-1,1035,1135,0,0
-182,-111,0,0,0,0,0,0,0,0,0,-1,1042,1135,0,0
-175,-111,0,0,0,0,0,0,0,0,0,-1,1049,1135,0,0
-168,-111,0,0,0,0,0,0,0,0,0,-1,1056,1135,0,0
-161,-111,0,0,0,0,0,0,0,0,0,-1,1063,1135,0,0
-154,-111,0,0,0,0,0,0,0,0,0,-1,1070,1135,0,0
-147,-111,0,0,0,0,0,0,0,0,0,-1,1077,1135,0,0
-140,-111,0,0,0,0,0,0,0,0,0,-1,1084,1135,0,0
-133,-111,0,0,0,0,0,0,0,0,0,-1,1091,1135,0,0
-126,-111,0,0,0,0,0,0,0,0,0,-1,1098,1135,0,0
-119,-111,0,0,0,0,0,0,0,0,0,-1,1105,1135,0,0
-112,-111,0,0,0,0,0,0,0,0,0,-1,1112,1135,0,0
-105,-111,0,0,0,0,0,0,0,0,0,-1,1119,1135,0,0
-98,-111,0,0,0,0,0,0,0,0,0,-1,1126,1135,0,0
-91,-111,0,0,0,0,0,0,0,0,0,-1,1133,1135,0,0
-84,-111,0,0,0,0,0,0,0,0,0,-1,1140,1135,0,0
-77,-111,0,0,0,0,0,0,0,0,0,-1,1147,1135,0,0
-70,-111,0,0,0,0,0,0,0,0,0,-1,1154,1135,0,0
-63,-111,0,0,0,0,0,0,0,0,0,-1,1161,1135,0,0
-56,-111,0,0,0,0,0,0,0,0,0,-1,1168,1135,0,0
-49,-111,0,0,0,0,0,0,0,0,0,-1,1175,1135,0,0
-42,-111,0,0,0,0,0,0,0,0,0,-1,1182,1135,0,0
-35,-111,0,0,0,0,0,0,0,0,0,-1,1189,1135,0,0
-28,-111,0,0,0,0,0,0,0,0,0,-1,1196,1135,0,0
-21,-111,0,0,0,0,0,0,0,0,0,-1,1203,1135,0,0
-14,-111,0,0,0,0,0,0,0,0,0,-1,1210,1135,0,0
-7,-111,0,0,0,0,0,0,0,0,0,-1,1217,1135,0,0
0,-111,0,0,0,0,0,0,0,0,0,-1,1224,1135,0,0
7,-111,0,0,0,0,0,0,0,0,0,-1,1231,1135,0,0
14,-111,0,0,0,0,0,0,0,0,0,-1,1238,1135,0,0
21,-111,0,0,0,0,0,0,0,0,0,-1,1245,1135,0,0
28,-111,0,0,0,0,0,0,0,0,0,-1,1252,1135,0,0
35,-111,0,0,0,0,0,0,0,0,0,-1,1259,1135,0,0
42,-111,0,0,0,0,0,0,0,0,0,-1,1266,1135,0,0
49,-111,0,0,0,0,0,0,0,0,0,-1,1273,1135,0,0
56,-111,0,0,0,0,0,0,0,0,0,-1,1280,1135,0,0
63,-111,0,0,0,0,0,0,0,0,0,-1,1287,1135,0,0
70,-111,0,0,0,0,0,0,0,0,0,-1,1294,1135,0,0
77,-111,0,0,0,0,0,0,0,0,0,-1,1301,1135,0,0
84,-111,0,0,0,0,0,0,0,0,0,-1,1308,1135,0,0
91,-111,0,0,0,0,0,0,0,0,0,-1,1315,1135,0,0
98,-111,0,0,0,0,0,0,0,0,0,-1,1322,1135,0,0
105,-111,0,0,0,0,0,0,0,0,0,-1,1329,1135,0,0
112,-111,0,0,0,0,0,0,0,0,0,-1,1336,1135,0,0
119,-111,0,0,0,0,0,0,0,0,0,-1,1343,1135,0,0
126,-111,0,0,0,0,0,0,0,0,0,-1,1350,1135,0,0
133,-111,0,0,0,0,0,0,0,0,0,-1,1357,1135,0,0
140,-111,0,0,0,0,0,0,0,0,0,-1,1364,1135,0,0
147,-111,0,0,0,0,0,0,0,0,0,-1,1371,1135,0,0
154,-111,0,0,0,0,0,0,0,0,0,-1,1378,1135,0,0
161,-111,0,0,0,0,0,0,0,0,0,-1,1385,1135,0,0
168,-111,0,0,0,0,0,0,0,0,0,-1,1392,1135,0,0
175,-111,0,0,0,0,0,0,0,0,0,-1,1399,1135,0,0
182,-111,0,0,0,0,0,0,0,0,0,-1,1406,1135,0,0
189,-111,0,0,0,0,0,0,0,0,0,-1,1413,1135,0,0
196,-111,0,0,0,0,0,0,0,0,0,-1,1420,1135,0,0
203,-111,0,0,0,0,0,0,0,0,0,-1,1427,1135,0,0
210,-111,0,0,0,0,0,0,0,0,0,-1,1434,1135,0,0
217,-111,0,0,0,0,0,0,0,0,0,-1,1441,1135,0,0
224,-111,0,0,0,0,0,0,0,0,0,-1,1448,1135,0,0
231,-111,0,0,0,0,0,0,0,0,0,-1,1455,1135,0,0
238,-111,0,0,0,0,0,0,0,0,0,-1,1462,1135,0,0
245,-111,0,0,0,0,0,0,0,0,0,-1,1469,1135,0,0
252,-111,0,0,0,0,0,0,0,0,0,-1,1476,1135,0,0
259,-111,0,0,0,0,0,0,0,0,0,-1,1483,1135,0,0
266,-111,0,0,0,0,0,0,0,0,0,-1,1490,1135,0,0
273,-111,0,0,0,0,0,0,0,0,0,-1,1497,1135,0,0
280,-111,0,0,0,0,0,0,0,0,0,-1,1504,1135,0,0
287,-111,0,0,0,0,0,0,0,0,0,-1,1511,1135,0,0
294,-111,0,0,0,0,0,0,0,0,0,-1,1518,1135,0,0
301,-111,0,0,0,0,0,0,0,0,0,-1,1525,1135,0,0
308,-111,0,0,0,0,0,0,0,0,0,-1,1532,1135,0,0
315,-111,0,0,0,0,0,0,0,0,0,-1,1539,1135,0,0
322,-111,0,0,0,0,0,0,0,0,0,-1,1546,1135,0,0
329,-111,0,0,0,0,0,0,0,0,0,-1,1553,1135,0,0
336,-111,0,0,0,0,0,0,0,0,0,-1,1560,1135,0,0
343,-111,0,0,0,0,0,0,0,0,0,-1,1567,1135,0,0
350,-111,0,0,0,0,0,0,0,0,0,-1,1574,1135,0,0
357,-111,0,0,0,0,0,0,0,0,0,-1,1581,1135,0,0
364,-111,0,0,0,0,0,0,0,0,0,-1,1588,1135,0,0
371,-111,0,0,0,0,0,0,0,0,0,-1,1595,1135,0,0
378,-111,0,0,0,0,0,0,0,0,0,-1,1602,1135,0,0
385,-111,0,0,0,0,0,0,0,0,0,-1,1609,1135,0,0
392,-111,0,0,0,0,0,0,0,0,0,-1,1616,1135,0,0
399,-111,0,0,0,0,0,0,0,0,0,-1,1623,1135,0,0
406,-111,0,0,0,0,0,0,0,0,0,-1,1630,1135,0,0
413,-111,0,0,0,0,0,0,0,0,0,-1,1637,1135,0,0
420,-111,0,0,0,0,0,0,0,0,0,-1,1644,1135,0,0
427,-111,0,0,0,0,0,0,0,0,0,-1,1651,1135,0,0
434,-111,0,0,0,0,0,0,0,0,0,-1,1658,1135,0,0
441,-111,0,0,0,0,0,0,0,0,0,-1,1665,1135,0,0
448,-111,0,0,0,0,0,0,0,0,0,-1,1672,1135,0,0
455,-111,0,0,0,0,0,0,0,0,0,-1,1679,1135,0,0
462,-111,0,0,0,0,0,0,0,0,0,-1,1686,1135,0,0
469,-111,0,0,0,0,0,0,0,0,0,-1,1693,1135,0,0
476,-111,0,0,0,0,0,0,0,0,0,-1,1700,1135,0,0
483,-111,0,0,0,0,0,0,0,0,0,-1,1707,1135,0,0
490,-111,0,0,0,0,0,0,0,0,0,-1,1714,1135,0,0
497,-111,0,0,0,0,0,0,0,0,0,-1,1721,1135,0,0
504,-111,0,0,0,0,0,0,0,0,0,-1,1728,1135,0,0
511,-111,0,0,0,0,0,0,0,0,0,-1,1735,1135,0,0
518,-111,0,0,0,0,0,0,0,0,0,-1,1742,1135,0,0
525,-111,0,0,0,0,0,0,0,0,0,-1,1749,1135,0,0
532,-111,0,0,0,0,0,0,0,0,0,-1,1756,1135,0,0
539,-111,0,0,0,0,0,0,0,0,0,-1,1763,1135,0,0
546,-111,0,0,0,0,0,0,0,0,0,-1,1770,1135,0,0
553,-111,0,0,0,0,0,0,0,0,0,-1,1777,1135,0,0
560,-111,0,0,0,0,0,0,0,0,0,-1,1784,1135,0,0
567,-111,0,0,0,0,0,0,0,0,0,-1,1791,1135,0,0
574,-111,0,0,0,0,0,0,0,0,0,-1,1798,1135,0,0
581,-111,0,0,0,0,0,0,0,0,0,-1,1805,1135,0,0
588,-111,0,0,0,0,0,0,0,0,0,-1,1812,1135,0,0
595,-111,0,0,0,0,0,0,0,0,0,-1,1819,1135,0,0
602,-111,0,0,0,0,0,0,0,0,0,-1,1826,1135,0,0
609,-111,0,0,0,0,0,0,0,0,0,-1,1833,1135,0,0
616,-111,0,0,0,0,0,0,0,0,0,-1,1840,1135,0,0
623,-111,0,0,0,0,0,0,0,0,0,-1,1847,1135,0,0
630,-111,0,0,0,0,0,0,0,0,0,-1,1854,1135,0,0
637,-111,0,0,0,0,0,0,0,0,0,-1,1861,1135,0,0
644,-111,52.832,2.61792,-0.00128058,-0.000617306,0.00397996,0.00304481,-0.0049427,0.826965,0.00465478,0.0396797,1868,1135,52.832,-2.61788
651,-111,52.9448,2.8573,-0.000947602,-0.000776404,0.00267559,0.00181496,-0.00353897,0.801389,0.00314406,0.0417324,1875,1135,52.9448,-2.85726
658,-111,52.9685,2.9563,-0.000379101,-0.000869703,0.00181586,0.00120795,-0.00245676,0.718261,0.00215638,0.0456944,1882,1135,52.9685,-2.95629
665,-111,53.1267,2.78748,9.41858e-05,-0.000853805,0.00112938,0.000845001,-0.00160462,0.586713,0.00143678,0.045811,1889,1135,53.1268,-2.78753
672,-111,53.1128,2.63599,0.000476965,-0.000750472,0.000619839,0.000735514,-0.00100902,0.39518,0.00101133,0.0449235,1896,1135,53.1128,-2.636
679,-111,53.0264,2.48718,0.000592256,-0.000695276,0.000346723,0.000679689,-0.000782709,0.247019,0.000845014,0.0410917,1903,1135,53.0264,-2.48714
686,-111,52.8899,2.46472,0.000787715,-0.000796866,0.000316202,0.000848482,-0.000857634,0.189865,0.000985031,0.038145,1910,1135,52.8899,-2.46472
693,-111,52.8761,2.59143,0.000940729,-0.000849584,0.000347706,0.00100589,-0.000914742,0.185246,0.00110929,0.0360708,1917,1135,52.8761,-2.59144
700,-111,52.9517,2.60559,0.00103383,-0.000864354,0.000361976,0.00110051,-0.000931039,0.182182,0.00117428,0.0255628,1924,1135,52.9517,-2.6056
707,-111,52.9331,2.57336,0,0,0,0,0,0,0,-1,1931,1135,52.9331,-2.57337
714,-111,45.1654,7.39746,0,0,0,0,0,0,0,-1,1938,1135,45.1654,-7.39745
721,-111,48.5614,7.6936,0,0,0,0,0,0,0,-1,1945,1135,48.5613,-7.69355
728,-111,48.6343,7.14563,-8.50905e-05,-0.000125076,0.00111844,0.00101353,-0.0012237,0.776461,0.00129356,0.0237297,1952,1135,48.6342,-7.14564
735,-111,48.6802,6.76501,-0.000334304,0.000134217,0.00105316,0.00097886,-0.00117895,0.894834,0.00124759,0.024604,1959,1135,48.6802,-6.76497
742,-111,48.6132,6.45239,-0.000320337,0.000505103,0.00125882,0.00141713,-0.00123237,0.943808,0.00153093,0.0162471,1966,1135,48.6132,-6.4524
749,-111,48.5479,6.07397,-0.000491723,0.000775296,0.00147828,0.00175009,-0.00146652,0.987833,0.00185952,0.0176997,1973,1135,48.5479,-6.07398
756,-111,48.5408,5.68384,2.98586e-05,0.00081904,0.00158795,0.00206069,-0.00121179,0.907177,0.00191044,0.0165326,1980,1135,48.5408,-5.68387
763,-111,48.5286,5.31494,0.00200127,0.00057388,0.0015105,0.0029582,-0.000383045,0.564699,0.00211143,0.0140301,1987,1135,48.5286,-5.31491
770,-111,48.5083,4.9425,0.00480561,-0.000229216,0.00148669,0.00521183,-0.000635434,0.266726,0.00370457,0.0118188,1994,1135,48.5082,-4.94251
777,-111,48.3726,4.60669,0.00881968,-0.00173912,0.00142192,0.00900781,-0.00192726,0.131546,0.00674011,0.0260218,2001,1135,48.3725,-4.60667
784,-111,48.3044,4.18591,0.0143777,-0.00417052,0.00127725,0.0144652,-0.00425805,0.0684304,0.0113327,0.0420187,2008,1135,48.3045,-4.18588
791,-111,48.2629,3.82532,0.0222018,-0.00798029,0.00101162,0.0222356,-0.00801416,0.0334671,0.0180967,0.0455743,2015,1135,48.2629,-3.82537
798,-111,48.4397,4.0498,0,0,0,0,0,0,0,-1,2022,1135,48.4397,-4.04975
805,-111,49.2839,3.92395,0.0465766,-0.020487,-0.000528772,0.0465808,-0.0204912,-0.00788399,0.0396885,0.0467298,2029,1135,49.2841,-3.92398
812,-111,50.1538,3.32532,0.0639547,-0.0295412,-0.00213986,0.0640037,-0.0295902,-0.0228713,0.0552406,0.0492767,2036,1135,50.1539,-3.32535
-700,-118,0,0,0,0,0,0,0,0,0,-1,524,1142,0,0
-693,-118,-33.8711,-2.3363,0,0,0,0,0,0,0,-1,531,1142,-33.8711,2.33628
-686,-118,-34.2624,-1.73328,0,0,0,0,0,0,0,-1,538,1142,-34.2624,1.73331
-679,-118,-34.5176,-1.14905,0,0,0,0,0,0,0,-1,545,1142,-34.5176,1.14909
-672,-118,-35.3459,-0.703857,0,0,0,0,0,0,0,-1,552,1142,-35.3459,0.703855
-665,-118,-36.1213,0.0480957,0,0,0,0,0,0,0,-1,559,1142,-36.1213,-0.0481554
-658,-118,-34.0148,0.820313,0,0,0,0,0,0,0,-1,566,1142,-34.0148,-0.820289
-651,-118,-34.1166,1.32874,0.00245788,0.00560207,0.00566174,0.00990592,-0.00184597,0.920822,0.00729752,0.0482097,573,1142,-34.1167,-1.32879
-644,-118,-34.3751,1.79077,0.000915139,0.00382826,0.0035239,0.00618476,-0.00144136,0.981374,0.00467824,0.033446,580,1142,-34.3751,-1.79075
-637,-118,-34.541,2.21252,-0.000102903,0.00225473,0.00176568,0.00319894,-0.00104711,1.07973,0.00255424,0.0173656,587,1142,-34.541,-2.21253
-630,-118,-34.5845,2.60376,-0.000678918,0.000978444,0.000317795,0.00103729,-0.000737765,1.3877,0.00102968,0.0234062,594,1142,-34.5845,-2.6037
-623,-118,-34.583,3.03284,-0.000967021,0.000535581,-0.000628235,0.000763633,-0.00119507,-1.22258,0.00113997,0.0195177,601,1142,-34.583,-3.0328
-616,-118,-34.6948,3.45825,-0.000252359,-7.19037e-05,-0.00105644,0.000898155,-0.00122242,-0.827998,0.00122907,0.0233714,608,1142,-34.6948,-3.45829
-609,-118,-34.9295,3.72217,0.000371343,-0.000678054,-0.00119645,0.00115309,-0.0014598,-0.578753,0.00151201,0.0385186,615,1142,-34.9295,-3.72211
-602,-118,-34.8055,4.41382,0.000725445,-0.00112118,-0.00124142,0.00134927,-0.001745,-0.465652,0.00179134,0.0373101,622,1142,-34.8055,-4.41387
-595,-118,-34.8552,4.73193,0.000729177,-0.00136006,-0.0010926,0.00119618,-0.00182706,-0.403923,0.00175809,0.0288679,629,1142,-34.8552,-4.73195
-588,-118,-34.2632,5.47925,0,0,0,0,0,0,0,-1,636,1142,-34.2632,-5.47928
-581,-118,-24.6116,3.89648,0,0,0,0,0,0,0,-1,643,1142,-24.6116,-3.89645
-574,-118,-39.3214,0.673828,0,0,0,0,0,0,0,-1,650,1142,-39.3214,-0.673809
-567,-118,-39.3736,0.8396,0.000577121,-0.00201828,-0.000826117,0.000817762,-0.00225892,-0.283449,0.00184014,0.0420791,657,1142,-39.3736,-0.83956
-560,-118,-39.3604,0.790405,0.000522343,-0.00200353,-0.000683093,0.000695243,-0.00217643,-0.247906,0.00172992,0.0349832,664,1142,-39.3604,-0.790355
-553,-118,-39.2191,0.690552,-0.000160745,-0.00181061,-0.000786909,0.000154382,-0.00212574,-0.380905,0.00147132,0.0381238,671,1142,-39.2191,-0.69053
-546,-118,-39.225,0.851807,-0.00102323,-0.00142141,-0.00109194,-0.000112378,-0.00233226,-0.695223,0.00151877,0.0408872,678,1142,-39.225,-0.851855
-539,-118,-39.2909,1.11755,-0.00163026,-0.000901721,-0.00192319,0.000691392,-0.00322337,-0.878994,0.00241263,0.04241,685,1142,-39.2909,-1.11757
-532,-118,-39.3661,0.951416,-0.00184647,-0.000257699,-0.00329854,0.00234076,-0.00444493,-0.903563,0.00398001,0.0407482,692,1142,-39.3661,-0.95145
-525,-118,-39.4465,0.548706,-0.00178765,0.000568078,-0.00516197,0.00468486,-0.00590444,-0.897569,0.00612723,0.0392244,699,1142,-39.4466,-0.548752
-518,-118,0,0,0,0,0,0,0,0,0,-1,706,1142,0,0
-511,-118,0,0,0,0,0,0,0,0,0,-1,713,1142,0,0
-504,-118,0,0,0,0,0,0,0,0,0,-1,720,1142,0,0
-497,-118,0,0,0,0,0,0,0,0,0,-1,727,1142,0,0
-490,-118,0,0,0,0,0,0,0,0,0,-1,734,1142,0,0
-483,-118,0,0,0,0,0,0,0,0,0,-1,741,1142,0,0
-476,-118,0,0,0,0,0,0,0,0,0,-1,748,1142,0,0
-469,-118,0,0,0,0,0,0,0,0,0,-1,755,1142,0,0
-462,-118,0,0,0,0,0,0,0,0,0,-1,762,1142,0,0
-455,-118,0,0,0,0,0,0,0,0,0,-1,769,1142,0,0
-448,-118,0,0,0,0,0,0,0,0,0,-1,776,1142,0,0
-441,-118,0,0,0,0,0,0,0,0,0,-1,783,1142,0,0
-434,-118,0,0,0,0,0,0,0,0,0,-1,790,1142,0,0
-427,-118,0,0,0,0,0,0,0,0,0,-1,797,1142,0,0
-420,-118,0,0,0,0,0,0,0,0,0,-1,804,1142,0,0
-413,-118,0,0,0,0,0,0,0,0,0,-1,811,1142,0,0
-406,-118,0,0,0,0,0,0,0,0,0,-1,818,1142,0,0
-399,-118,0,0,0,0,0,0,0,0,0,-1,825,1142,0,0
-392,-118,0,0,0,0,0,0,0,0,0,-1,832,1142,0,0
-385,-118,0,0,0,0,0,0,0,0,0,-1,839,1142,0,0
-378,-118,0,0,0,0,0,0,0,0,0,-1,846,1142,0,0
-371,-118,0,0,0,0,0,0,0,0,0,-1,853,1142,0,0
-364,-118,0,0,0,0,0,0,0,0,0,-1,860,1142,0,0
-357,-118,0,0,0,0,0,0,0,0,0,-1,867,1142,0,0
-350,-118,0,0,0,0,0,0,0,0,0,-1,874,1142,0,0
-343,-118,0,0,0,0,0,0,0,0,0,-1,881,1142,0,0
-336,-118,0,0,0,0,0,0,0,0,0,-1,888,1142,0,0
-329,-118,0,0,0,0,0,0,0,0,0,-1,895,1142,0,0
-322,-118,0,0,0,0,0,0,0,0,0,-1,902,1142,0,0
-315,-118,0,0,0,0,0,0,0,0,0,-1,909,1142,0,0
-308,-118,0,0,0,0,0,0,0,0,0,-1,916,1142,0,0
-301,-118,0,0,0,0,0,0,0,0,0,-1,923,1142,0,0
-294,-118,0,0,0,0,0,0,0,0,0,-1,930,1142,0,0
-287,-118,0,0,0,0,0,0,0,0,0,-1,937,1142,0,0
-280,-118,0,0,0,0,0,0,0,0,0,-1,944,1142,0,0
-273,-118,0,0,0,0,0,0,0,0,0,-1,951,1142,0,0
-266,-118,0,0,0,0,0,0,0,0,0,-1,958,1142,0,0
-259,-118,0,0,0,0,0,0,0,0,0,-1,965,1142,0,0
-252,-118,0,0,0,0,0,0,0,0,0,-1,972,1142,0,0
-245,-118,0,0,0,0,0,0,0,0,0,-1,979,1142,0,0
-238,-118,0,0,0,0,0,0,0,0,0,-1,986,1142,0,0
-231,-118,0,0,0,0,0,0,0,0,0,-1,993,1142,0,0
-224,-118,0,0,0,0,0,0,0,0,0,-1,1000,1142,0,0
-217,-118,0,0,0,0,0,0,0,0,0,-1,1007,1142,0,0
-210,-118,0,0,0,0,0,0,0,0,0,-1,1014,1142,0,0
-203,-118,0,0,0,0,0,0,0,0,0,-1,1021,1142,0,0
-196,-118,0,0,0,0,0,0,0,0,0,-1,1028,1142,0,0
-189,-118,0,0,0,0,0,0,0,0,0,-1,1035,1142,0,0
-182,-118,0,0,0,0,0,0,0,0,0,-1,1042,1142,0,0
-175,-118,0,0,0,0,0,0,0,0,0,-1,1049,1142,0,0
-168,-118,0,0,0,0,0,0,0,0,0,-1,1056,1142,0,0
-161,-118,0,0,0,0,0,0,0,0,0,-1,1063,1142,0,0
-154,-118,0,0,0,0,0,0,0,0,0,-1,1070,1142,0,0
-147,-118,0,0,0,0,0,0,0,0,0,-1,1077,1142,0,0
-140,-118,0,0,0,0,0,0,0,0,0,-1,1084,1142,0,0
-133,-118,0,0,0,0,0,0,0,0,0,-1,1091,1142,0,0
-126,-118,0,0,0,0,0,0,0,0,0,-1,1098,1142,0,0
-119,-118,0,0,0,0,0,0,0,0,0,-1,1105,1142,0,0
-112,-118,0,0,0,0,0,0,0,0,0,-1,1112,1142,0,0
-105,-118,0,0,0,0,0,0,0,0,0,-1,1119,1142,0,0
-98,-118,0,0,0,0,0,0,0,0,0,-1,1126,1142,0,0
-91,-118,0,0,0,0,0,0,0,0,0,-1,1133,1142,0,0
-84,-118,0,0,0,0,0,0,0,0,0,-1,1140,1142,0,0
-77,-118,0,0,0,0,0,0,0,0,0,-1,1147,1142,0,0
-70,-118,0,0,0,0,0,0,0,0,0,-1,1154,1142,0,0
-63,-118,0,0,0,0,0,0,0,0,0,-1,1161,1142,0,0
-56,-118,0,0,0,0,0,0,0,0,0,-1,1168,1142,0,0
-49,-118,0,0,0,0,0,0,0,0,0,-1,1175,1142,0,0
-42,-118,0,0,0,0,0,0,0,0,0,-1,1182,1142,0,0
-35,-118,0,0,0,0,0,0,0,0,0,-1,1189,1142,0,0
-28,-118,0,0,0,0,0,0,0,0,0,-1,1196,1142,0,0
-21,-118,0,0,0,0,0,0,0,0,0,-1,1203,1142,0,0
-14,-118,0,0,0,0,0,0,0,0,0,-1,1210,1142,0,0
-7,-118,0,0,0,0,0,0,0,0,0,-1,1217,1142,0,0
0,-118,0,0,0,0,0,0,0,0,0,-1,1224,1142,0,0
7,-118,0,0,0,0,0,0,0,0,0,-1,1231,1142,0,0
14,-118,0,0,0,0,0,0,0,0,0,-1,1238,1142,0,0
21,-118,0,0,0,0,0,0,0,0,0,-1,1245,1142,0,0
28,-118,0,0,0,0,0,0,0,0,0,-1,1252,1142,0,0
35,-118,0,0,0,0,0,0,0,0,0,-1,1259,1142,0,0
42,-118,0,0,0,0,0,0,0,0,0,-1,1266,1142,0,0
49,-118,0,0,0,0,0,0,0,0,0,-1,1273,1142,0,0
56,-118,0,0,0,0,0,0,0,0,0,-1,1280,1142,0,0
63,-118,0,0,0,0,0,0,0,0,0,-1,1287,1142,0,0
70,-118,0,0,0,0,0,0,0,0,0,-1,1294,1142,0,0
77,-118,0,0,0,0,0,0,0,0,0,-1,1301,1142,0,0
84,-118,0,0,0,0,0,0,0,0,0,-1,1308,1142,0,0
91,-118,0,0,0,0,0,0,0,0,0,-1,1315,1142,0,0
98,-118,0,0,0,0,0,0,0,0,0,-1,1322,1142,0,0
105,-118,0,0,0,0,0,0,0,0,0,-1,1329,1142,0,0
112,-118,0,0,0,0,0,0,0,0,0,-1,1336,1142,0,0
119,-118,0,0,0,0,0,0,0,0,0,-1,1343,1142,0,0
126,-118,0,0,0,0,0,0,0,0,0,-1,1350,1142,0,0
133,-118,0,0,0,0,0,0,0,0,0,-1,1357,1142,0,0
140,-118,0,0,0,0,0,0,0,0,0,-1,1364,1142,0,0
147,-118,0,0,0,0,0,0,0,0,0,-1,1371,1142,0,0
154,-118,0,0,0,0,0,0,0,0,0,-1,1378,1142,0,0
161,-118,0,0,0,0,0,0,0,0,0,-1,1385,1142,0,0
168,-118,0,0,0,0,0,0,0,0,0,-1,1392,1142,0,0
175,-118,0,0,0,0,0,0,0,0,0,-1,1399,1142,0,0
182,-118,0,0,0,0,0,0,0,0,0,-1,1406,1142,0,0
189,-118,0,0,0,0,0,0,0,0,0,-1,1413,1142,0,0
196,-118,0,0,0,0,0,0,0,0,0,-1,1420,1142,0,0
203,-118,0,0,0,0,0,0,0,0,0,-1,1427,1142,0,0
210,-118,0,0,0,0,0,0,0,0,0,-1,1434,1142,0,0
217,-118,0,0,0,0,0,0,0,0,0,-1,1441,1142,0,0
224,-118,0,0,0,0,0,0,0,0,0,-1,1448,1142,0,0
231,-118,0,0,0,0,0,0,0,0,0,-1,1455,1142,0,0
238,-118,0,0,0,0,0,0,0,0,0,-1,1462,1142,0,0
245,-118,0,0,0,0,0,0,0,0,0,-1,1469,1142,0,0
252,-118,0,0,0,0,0,0,0,0,0,-1,1476,1142,0,0
259,-118,0,0,0,0,0,0,0,0,0,-1,1483,1142,0,0
266,-118,0,0,0,0,0,0,0,0,0,-1,1490,1142,0,0
273,-118,0,0,0,0,0,0,0,0,0,-1,1497,1142,0,0
280,-118,0,0,0,0,0,0,0,0,0,-1,1504,1142,0,0
287,-118,0,0,0,0,0,0,0,0,0,-1,1511,1142,0,0
294,-118,0,0,0,0,0,0,0,0,0,-1,1518,1142,0,0
301,-118,0,0,0,0,0,0,0,0,0,-1,1525,1142,0,0
308,-118,0,0,0,0,0,0,0,0,0,-1,1532,1142,0,0
315,-118,0,0,0,0,0,0,0,0,0,-1,1539,1142,0,0
322,-118,0,0,0,0,0,0,0,0,0,-1,1546,1142,0,0
329,-118,0,0,0,0,0,0,0,0,0,-1,1553,1142,0,0
336,-118,0,0,0,0,0,0,0,0,0,-1,1560,1142,0,0
343,-118,0,0,0,0,0,0,0,0,0,-1,1567,1142,0,0
350,-118,0,0,0,0,0,0,0,0,0,-1,1574,1142,0,0
357,-118,0,0,0,0,0,0,0,0,0,-1,1581,1142,0,0
364,-118,0,0,0,0,0,0,0,0,0,-1,1588,1142,0,0
371,-118,0,0,0,0,0,0,0,0,0,-1,1595,1142,0,0
378,-118,0,0,0,0,0,0,0,0,0,-1,1602,1142,0,0
385,-118,0,0,0,0,0,0,0,0,0,-1,1609,1142,0,0
392,-118,0,0,0,0,0,0,0,0,0,-1,1616,1142,0,0
399,-118,0,0,0,0,0,0,0,0,0,-1,1623,1142,0,0
406,-118,0,0,0,0,0,0,0,0,0,-1,1630,1142,0,0
413,-118,0,0,0,0,0,0,0,0,0,-1,1637,1142,0,0
420,-118,0,0,0,0,0,0,0,0,0,-1,1644,1142,0,0
427,-118,0,0,0,0,0,0,0,0,0,-1,1651,1142,0,0
434,-118,0,0,0,0,0,0,0,0,0,-1,1658,1142,0,0
441,-118,0,0,0,0,0,0,0,0,0,-1,1665,1142,0,0
448,-118,0,0,0,0,0,0,0,0,0,-1,1672,1142,0,0
455,-118,0,0,0,0,0,0,0,0,0,-1,1679,1142,0,0
462,-118,0,0,0,0,0,0,0,0,0,-1,1686,1142,0,0
469,-118,0,0,0,0,0,0,0,0,0,-1,1693,1142,0,0
476,-118,0,0,0,0,0,0,0,0,0,-1,1700,1142,0,0
483,-118,0,0,0,0,0,0,0,0,0,-1,1707,1142,0,0
490,-118,0,0,0,0,0,0,0,0,0,-1,1714,1142,0,0
497,-118,0,0,0,0,0,0,0,0,0,-1,1721,1142,0,0
504,-118,0,0,0,0,0,0,0,0,0,-1,1728,1142,0,0
511,-118,0,0,0,0,0,0,0,0,0,-1,1735,1142,0,0
518,-118,0,0,0,0,0,0,0,0,0,-1,1742,1142,0,0
525,-118,0,0,0,0,0,0,0,0,0,-1,1749,1142,0,0
532,-118,0,0,0,0,0,0,0,0,0,-1,1756,1142,0,0
539,-118,0,0,0,0,0,0,0,0,0,-1,1763,1142,0,0
546,-118,0,0,0,0,0,0,0,0,0,-1,1770,1142,0,0
553,-118,0,0,0,0,0,0,0,0,0,-1,1777,1142,0,0
560,-118,0,0,0,0,0,0,0,0,0,-1,1784,1142,0,0
567,-118,0,0,0,0,0,0,0,0,0,-1,1791,1142,0,0
574,-118,0,0,0,0,0,0,0,0,0,-1,1798,1142,0,0
581,-118,0,0,0,0,0,0,0,0,0,-1,1805,1142,0,0
588,-118,0,0,0,0,0,0,0,0,0,-1,1812,1142,0,0
595,-118,0,0,0,0,0,0,0,0,0,-1,1819,1142,0,0
602,-118,0,0,0,0,0,0,0,0,0,-1,1826,1142,0,0
609,-118,0,0,0,0,0,0,0,0,0,-1,1833,1142,0,0
616,-118,0,0,0,0,0,0,0,0,0,-1,1840,1142,0,0
623,-118,0,0,0,0,0,0,0,0,0,-1,1847,1142,0,0
630,-118,0,0,0,0,0,0,0,0,0,-1,1854,1142,0,0
637,-118,0,0,0,0,0,0,0,0,0,-1,1861,1142,0,0
644,-118,52.9056,2.61829,-0.0024781,-0.000588897,0.00419434,0.00276589,-0.00583288,0.896155,0.00506867,0.0413678,1868,1142,52.9056,-2.61834
651,-118,52.9969,2.75464,-0.00192841,-0.000653317,0.0028995,0.0016779,-0.00425963,0.893616,0.00353441,0.0408095,1875,1142,52.9969,-2.7546
658,-118,52.9116,2.91724,-0.00114488,-0.000679133,0.00198224,0.00108387,-0.00290788,0.84387,0.00238349,0.0413423,1882,1142,52.9117,-2.91725
665,-118,52.9955,2.90295,-0.000410091,-0.000624819,0.00120663,0.00069394,-0.00172885,0.741026,0.00144071,0.0422182,1889,1142,52.9955,-2.90301
672,-118,52.9969,2.6958,0.000199082,-0.000504318,0.000613627,0.000554651,-0.000859888,0.525177,0.000822998,0.0451927,1896,1142,52.9969,-2.69581
679,-118,52.9609,2.6615,0.000457134,-0.000486757,0.000314624,0.000552392,-0.000582016,0.293996,0.000655025,0.0417979,1903,1142,52.961,-2.66153
686,-118,52.8785,2.64709,0.000712519,-0.000647299,0.000273515,0.000765472,-0.000700252,0.191236,0.000846516,0.0351952,1910,1142,52.8786,-2.64707
693,-118,52.8248,2.5752,0.000853085,-0.00073433,0.00029431,0.000905894,-0.000787139,0.177544,0.000978274,0.0328163,1917,1142,52.8248,-2.57516
700,-118,52.9242,2.59485,0.000947484,-0.000796889,0.000312505,0.00100178,-0.000851185,0.172025,0.00107099,0.0188904,1924,1142,52.9242,-2.59484
707,-118,53.0106,2.74963,0,0,0,0,0,0,0,-1,1931,1142,53.0106,-2.7496
714,-118,44.8718,7.72693,0,0,0,0,0,0,0,-1,1938,1142,44.8719,-7.72694
721,-118,48.2607,7.72058,0,0,0,0,0,0,0,-1,1945,1142,48.2608,-7.72061
728,-118,48.2289,7.26733,-0.000119615,-0.000272543,0.00107072,0.000877368,-0.00126953,0.749752,0.00124638,0.0199424,1952,1142,48.2288,-7.26738
735,-118,48.2053,6.87122,-0.000412783,-7.64363e-05,0.000988823,0.000758412,-0.00124763,0.869629,0.00116961,0.0192878,1959,1142,48.2053,-6.87116
742,-118,48.2084,6.49255,-0.000492133,0.000222267,0.00114131,0.00106097,-0.00133084,0.937056,0.00138384,0.0274827,1966,1142,48.2084,-6.49259
749,-118,48.1383,6.07837,-0.000807751,0.000499925,0.00128771,0.00129028,-0.00159811,1.02031,0.00167077,0.0228169,1973,1142,48.1383,-6.07831
756,-118,48.1481,5.6864,-0.00043328,0.00054804,0.00135075,0.00149449,-0.00137973,0.959613,0.00165987,0.0194062,1980,1142,48.1481,-5.68642
763,-118,48.1584,5.29492,0.00136154,0.000235925,0.00118304,0.00210882,-0.000511357,0.563377,0.00160374,0.0106306,1987,1142,48.1585,-5.29498
770,-118,48.0876,4.92285,0.0038245,-0.000648397,0.00105788,0.00406208,-0.000885978,0.220915,0.00304663,0.0129605,1994,1142,48.0876,-4.92282
777,-118,47.9617,4.60266,0.00734773,-0.00225478,0.000887729,0.0074291,-0.00233616,0.0914152,0.00588802,0.0284141,2001,1142,47.9618,-4.60272
784,-118,47.9409,4.18713,0.0122534,-0.00482927,0.00063173,0.0122768,-0.00485261,0.0369135,0.0101946,0.0442539,2008,1142,47.9408,-4.18715
791,-118,47.9497,3.7655,0,0,0,0,0,0,0,-1,2015,1142,47.9497,-3.76548
798,-118,49.3096,4.16736,0,0,0,0,0,0,0,-1,2022,1142,49.3097,-4.16732
805,-118,49.1167,4.3197,0,0,0,0,0,0,0,-1,2029,1142,49.1168,-4.31974
812,-118,50.1292,3.58557,0,0,0,0,0,0,0,-1,2036,1142,50.1291,-3.58553
-700,-125,0,0,0,0,0,0,0,0,0,-1,524,1149,0,0
-693,-125,-33.5365,-2.58069,0,0,0,0,0,0,0,-1,531,1149,-33.5365,2.58072
-686,-125,-33.7596,-2.10132,0.00472181,0.0326921,0.0168814,0.0406287,-0.00321485,1.13132,0.0282185,0.0431084,538,1149,-33.7596,2.10136
-679,-125,-33.965,-1.58459,0,0,0,0,0,0,0,-1,545,1149,-33.965,1.58461
-672,-125,-34.4373,-1.1687,0,0,0,0,0,0,0,-1,552,1149,-34.4372,1.16872
-665,-125,-34.8665,-0.81189,0,0,0,0,0,0,0,-1,559,1149,-34.8664,0.811941
-658,-125,-33.5922,0.554565,0,0,0,0,0,0,0,-1,566,1149,-33.5921,-0.554543
-651,-125,-33.7081,1.19336,0.00126207,0.00657722,0.00495881,0.0095457,-0.00170641,1.03139,0.00700226,0.0447793,573,1149,-33.7081,-1.1934
-644,-125,-33.9493,1.76184,7.2436e-05,0.00457993,0.00322797,0.00626308,-0.00161072,1.09015,0.00480318,0.030908,580,1149,-33.9493,-1.7618
-637,-125,-34.0735,2.18115,-0.000564383,0.00270243,0.00173159,0.00344945,-0.0013114,1.16351,0.00283957,0.0145315,587,1149,-34.0736,-2.18111
-630,-125,-34.0878,2.62085,-0.00102996,0.00129336,0.00048884,0.00139202,-0.00112863,1.37164,0.00145794,0.0156839,594,1149,-34.0878,-2.62084
-623,-125,-34.1163,3.07898,-0.00128416,0.00067095,-0.000418858,0.000756906,-0.00137012,-1.36839,0.00124493,0.0143019,601,1149,-34.1162,-3.07894
-616,-125,-34.1477,3.49451,-0.000611332,-0.000118761,-0.000884076,0.000552693,-0.00128279,-0.921244,0.0010873,0.0237353,608,1149,-34.1477,-3.49447
-609,-125,-34.2888,3.81995,-3.87536e-05,-0.000766237,-0.00103385,0.000693478,-0.00149847,-0.616245,0.00129366,0.0442126,615,1149,-34.2887,-3.81997
-602,-125,-34.2986,4.43689,0.000362357,-0.00121926,-0.00113794,0.000957289,-0.00181419,-0.481734,0.00162541,0.0363477,622,1149,-34.2986,-4.43685
-595,-125,-34.4038,4.86328,0.000272133,-0.00136001,-0.00103698,0.000775644,-0.00186353,-0.452025,0.00156628,0.0341553,629,1149,-34.4038,-4.86333
-588,-125,-34.2033,5.41089,0,0,0,0,0,0,0,-1,636,1149,-34.2033,-5.41092
-581,-125,-26.4055,4.83203,0,0,0,0,0,0,0,-1,643,1149,-26.4055,-4.83204
-574,-125,-37.674,0.655151,0,0,0,0,0,0,0,-1,650,1149,-37.674,-0.655195
-567,-125,-39.4827,1.15808,0,0,0,0,0,0,0,-1,657,1149,-39.4827,-1.15804
-560,-125,-39.4207,0.988892,-0.000157178,-0.00186958,-0.00085517,0.000196744,-0.0022235,-0.392398,0.00155208,0.0369089,664,1149,-39.4207,-0.988942
-553,-125,-39.3301,0.88562,-0.000780984,-0.00170524,-0.000963128,-0.000174852,-0.00231137,-0.561712,0.00148606,0.040556,671,1149,-39.3301,-0.885675
-546,-125,-39.545,1.02283,-0.00152294,-0.00136501,-0.00123674,-0.000204713,-0.00268324,-0.81728,0.00172464,0.0419074,678,1149,-39.545,-1.02288
-539,-125,-39.5328,1.42603,-0.00215515,-0.000858838,-0.00208586,0.000677246,-0.00369124,-0.936038,0.00271488,0.0440911,685,1149,-39.5328,-1.42602
-532,-125,-39.4955,1.09534,-0.00235174,-0.000243613,-0.00353089,0.00238719,-0.00498254,-0.93045,0.00434197,0.0421283,692,1149,-39.4955,-1.09539
-525,-125,-39.4633,0.615234,-0.0021652,0.000521508,-0.00546309,0.00480398,-0.00644768,-0.905955,0.00651921,0.0400525,699,1149,-39.4633,-0.615286
-518,-125,0,0,0,0,0,0,0,0,0,-1,706,1149,0,0
-511,-125,0,0,0,0,0,0,0,0,0,-1,713,1149,0,0
-504,-125,0,0,0,0,0,0,0,0,0,-1,720,1149,0,0
-497,-125,0,0,0,0,0,0,0,0,0,-1,727,1149,0,0
-490,-125,0,0,0,0,0,0,0,0,0,-1,734,1149,0,0
-483,-125,0,0,0,0,0,0,0,0,0,-1,741,1149,0,0
-476,-125,0,0,0,0,0,0,0,0,0,-1,748,1149,0,0
-469,-125,0,0,0,0,0,0,0,0,0,-1,755,1149,0,0
-462,-125,0,0,0,0,0,0,0,0,0,-1,762,1149,0,0
-455,-125,0,0,0,0,0,0,0,0,0,-1,769,1149,0,0
-448,-125,0,0,0,0,0,0,0,0,0,-1,776,1149,0,0
-441,-125,0,0,0,0,0,0,0,0,0,-1,783,1149,0,0
-434,-125,0,0,0,0,0,0,0,0,0,-1,790,1149,0,0
-427,-125,0,0,0,0,0,0,0,0,0,-1,797,1149,0,0
-420,-125,0,0,0,0,0,0,0,0,0,-1,804,1149,0,0
-413,-125,0,0,0,0,0,0,0,0,0,-1,811,1149,0,0
-406,-125,0,0,0,0,0,0,0,0,0,-1,818,1149,0,0
-399,-125,0,0,0,0,0,0,0,0,0,-1,825,1149,0,0
-392,-125,0,0,0,0,0,0,0,0,0,-1,832,1149,0,0
-385,-125,0,0,0,0,0,0,0,0,0,-1,839,1149,0,0
-378,-125,0,0,0,0,0,0,0,0,0,-1,846,1149,0,0
-371,-125,0,0,0,0,0,0,0,0,0,-1,853,1149,0,0
-364,-125,0,0,0,0,0,0,0,0,0,-1,860,1149,0,0
-357,-125,0,0,0,0,0,0,0,0,0,-1,867,1149,0,0
-350,-125,0,0,0,0,0,0,0,0,0,-1,874,1149,0,0
-343,-125,0,0,0,0,0,0,0,0,0,-1,881,1149,0,0
-336,-125,0,0,0,0,0,0,0,0,0,-1,888,1149,0,0
-329,-125,0,0,0,0,0,0,0,0,0,-1,895,1149,0,0
-322,-125,0,0,0,0,0,0,0,0,0,-1,902,1149,0,0
-315,-125,0,0,0,0,0,0,0,0,0,-1,909,1149,0,0
-308,-125,0,0,0,0,0,0,0,0,0,-1,916,1149,0,0
-301,-125,0,0,0,0,0,0,0,0,0,-1,923,1149,0,0
-294,-125,0,0,0,0,0,0,0,0,0,-1,930,1149,0,0
-287,-125,0,0,0,0,0,0,0,0,0,-1,937,1149,0,0
-280,-125,0,0,0,0,0,0,0,0,0,-1,944,1149,0,0
-273,-125,0,0,0,0,0,0,0,0,0,-1,951,1149,0,0
-266,-125,0,0,0,0,0,0,0,0,0,-1,958,1149,0,0
-259,-125,0,0,0,0,0,0,0,0,0,-1,965,1149,0,0
-252,-125,0,0,0,0,0,0,0,0,0,-1,972,1149,0,0
-245,-125,0,0,0,0,0,0,0,0,0,-1,979,1149,0,0
-238,-125,0,0,0,0,0,0,0,0,0,-1,986,1149,0,0
-231,-125,0,0,0,0,0,0,0,0,0,-1,993,1149,0,0
-224,-125,0,0,0,0,0,0,0,0,0,-1,1000,1149,0,0
-217,-125,0,0,0,0,0,0,0,0,0,-1,1007,1149,0,0
-210,-125,0,0,0,0,0,0,0,0,0,-1,1014,1149,0,0
-203,-125,0,0,0,0,0,0,0,0,0,-1,1021,1149,0,0
-196,-125,0,0,0,0,0,0,0,0,0,-1,1028,1149,0,0
-189,-125,0,0,0,0,0,0,0,0,0,-1,1035,1149,0,0
-182,-125,0,0,0,0,0,0,0,0,0,-1,1042,1149,0,0
-175,-125,0,0,0,0,0,0,0,0,0,-1,1049,1149,0,0
-168,-125,0,0,0,0,0,0,0,0,0,-1,1056,1149,0,0
-161,-125,0,0,0,0,0,0,0,0,0,-1,1063,1149,0,0
-154,-125,0,0,0,0,0,0,0,0,0,-1,1070,1149,0,0
-147,-125,0,0,0,0,0,0,0,0,0,-1,1077,1149,0,0
-140,-125,0,0,0,0,0,0,0,0,0,-1,1084,1149,0,0
-133,-125,0,0,0,0,0,0,0,0,0,-1,1091,1149,0,0
-126,-125,0,0,0,0,0,0,0,0,0,-1,1098,1149,0,0
-119,-125,0,0,0,0,0,0,0,0,0,-1,1105,1149,0,0
-112,-125,0,0,0,0,0,0,0,0,0,-1,1112,1149,0,0
-105,-125,0,0,0,0,0,0,0,0,0,-1,1119,1149,0,0
-98,-125,0,0,0,0,0,0,0,0,0,-1,1126,1149,0,0
-91,-125,0,0,0,0,0,0,0,0,0,-1,1133,1149,0,0
-84,-125,0,0,0,0,0,0,0,0,0,-1,1140,1149,0,0
-77,-125,0,0,0,0,0,0,0,0,0,-1,1147,1149,0,0
-70,-125,0,0,0,0,0,0,0,0,0,-1,1154,1149,0,0
-63,-125,0,0,0,0,0,0,0,0,0,-1,1161,1149,0,0
-56,-125,0,0,0,0,0,0,0,0,0,-1,1168,1149,0,0
-49,-125,0,0,0,0,0,0,0,0,0,-1,1175,1149,0,0
-42,-125,0,0,0,0,0,0,0,0,0,-1,1182,1149,0,0
-35,-125,0,0,0,0,0,0,0,0,0,-1,1189,1149,0,0
-28,-125,0,0,0,0,0,0,0,0,0,-1,1196,1149,0,0
-21,-125,0,0,0,0,0,0,0,0,0,-1,1203,1149,0,0
-14,-125,0,0,0,0,0,0,0,0,0,-1,1210,1149,0,0
-7,-125,0,0,0,0,0,0,0,0,0,-1,1217,1149,0,0
0,-125,0,0,0,0,0,0,0,0,0,-1,1224,1149,0,0
7,-125,0,0,0,0,0,0,0,0,0,-1,1231,1149,0,0
14,-125,0,0,0,0,0,0,0,0,0,-1,1238,1149,0,0
21,-125,0,0,0,0,0,0,0,0,0,-1,1245,1149,0,0
28,-125,0,0,0,0,0,0,0,0,0,-1,1252,1149,0,0
35,-125,0,0,0,0,0,0,0,0,0,-1,1259,1149,0,0
42,-125,0,0,0,0,0,0,0,0,0,-1,1266,1149,0,0
49,-125,0,0,0,0,0,0,0,0,0,-1,1273,1149,0,0
56,-125,0,0,0,0,0,0,0,0,0,-1,1280,1149,0,0
63,-125,0,0,0,0,0,0,0,0,0,-1,1287,1149,0,0
70,-125,0,0,0,0,0,0,0,0,0,-1,1294,1149,0,0
77,-125,0,0,0,0,0,0,0,0,0,-1,1301,1149,0,0
84,-125,0,0,0,0,0,0,0,0,0,-1,1308,1149,0,0
91,-125,0,0,0,0,0,0,0,0,0,-1,1315,1149,0,0
98,-125,0,0,0,0,0,0,0,0,0,-1,1322,1149,0,0
105,-125,0,0,0,0,0,0,0,0,0,-1,1329,1149,0,0
112,-125,0,0,0,0,0,0,0,0,0,-1,1336,1149,0,0
119,-125,0,0,0,0,0,0,0,0,0,-1,1343,1149,0,0
126,-125,0,0,0,0,0,0,0,0,0,-1,1350,1149,0,0
133,-125,0,0,0,0,0,0,0,0,0,-1,1357,1149,0,0
140,-125,0,0,0,0,0,0,0,0,0,-1,1364,1149,0,0
147,-125,0,0,0,0,0,0,0,0,0,-1,1371,1149,0,0
154,-125,0,0,0,0,0,0,0,0,0,-1,1378,1149,0,0
161,-125,0,0,0,0,0,0,0,0,0,-1,1385,1149,0,0
168,-125,0,0,0,0,0,0,0,0,0,-1,1392,1149,0,0
175,-125,0,0,0,0,0,0,0,0,0,-1,1399,1149,0,0
182,-125,0,0,0,0,0,0,0,0,0,-1,1406,1149,0,0
189,-125,0,0,0,0,0,0,0,0,0,-1,1413,1149,0,0
196,-125,0,0,0,0,0,0,0,0,0,-1,1420,1149,0,0
203,-125,0,0,0,0,0,0,0,0,0,-1,1427,1149,0,0
210,-125,0,0,0,0,0,0,0,0,0,-1,1434,1149,0,0
217,-125,0,0,0,0,0,0,0,0,0,-1,1441,1149,0,0
224,-125,0,0,0,0,0,0,0,0,0,-1,1448,1149,0,0
231,-125,0,0,0,0,0,0,0,0,0,-1,1455,1149,0,0
238,-125,0,0,0,0,0,0,0,0,0,-1,1462,1149,0,0
245,-125,0,0,0,0,0,0,0,0,0,-1,1469,1149,0,0
252,-125,0,0,0,0,0,0,0,0,0,-1,1476,1149,0,0
259,-125,0,0,0,0,0,0,0,0,0,-1,1483,1149,0,0
266,-125,0,0,0,0,0,0,0,0,0,-1,1490,1149,0,0
273,-125,0,0,0,0,0,0,0,0,0,-1,1497,1149,0,0
280,-125,0,0,0,0,0,0,0,0,0,-1,1504,1149,0,0
287,-125,0,0,0,0,0,0,0,0,0,-1,1511,1149,0,0
294,-125,0,0,0,0,0,0,0,0,0,-1,1518,1149,0,0
301,-125,0,0,0,0,0,0,0,0,0,-1,1525,1149,0,0
308,-125,0,0,0,0,0,0,0,0,0,-1,1532,1149,0,0
315,-125,0,0,0,0,0,0,0,0,0,-1,1539,1149,0,0
322,-125,0,0,0,0,0,0,0,0,0,-1,1546,1149,0,0
329,-125,0,0,0,0,0,0,0,0,0,-1,1553,1149,0,0
336,-125,0,0,0,0,0,0,0,0,0,-1,1560,1149,0,0
343,-125,0,0,0,0,0,0,0,0,0,-1,1567,1149,0,0
350,-125,0,0,0,0,0,0,0,0,0,-1,1574,1149,0,0
357,-125,0,0,0,0,0,0,0,0,0,-1,1581,1149,0,0
364,-125,0,0,0,0,0,0,0,0,0,-1,1588,1149,0,0
371,-125,0,0,0,0,0,0,0,0,0,-1,1595,1149,0,0
378,-125,0,0,0,0,0,0,0,0,0,-1,1602,1149,0,0
385,-125,0,0,0,0,0,0,0,0,0,-1,1609,1149,0,0
392,-125,0,0,0,0,0,0,0,0,0,-1,1616,1149,0,0
399,-125,0,0,0,0,0,0,0,0,0,-1,1623,1149,0,0
406,-125,0,0,0,0,0,0,0,0,0,-1,1630,1149,0,0
413,-125,0,0,0,0,0,0,0,0,0,-1,1637,1149,0,0
420,-125,0,0,0,0,0,0,0,0,0,-1,1644,1149,0,0
427,-125,0,0,0,0,0,0,0,0,0,-1,1651,1149,0,0
434,-125,0,0,0,0,0,0,0,0,0,-1,1658,1149,0,0
441,-125,0,0,0,0,0,0,0,0,0,-1,1665,1149,0,0
448,-125,0,0,0,0,0,0,0,0,0,-1,1672,1149,0,0
455,-125,0,0,0,0,0,0,0,0,0,-1,1679,1149,0,0
462,-125,0,0,0,0,0,0,0,0,0,-1,1686,1149,0,0
469,-125,0,0,0,0,0,0,0,0,0,-1,1693,1149,0,0
476,-125,0,0,0,0,0,0,0,0,0,-1,1700,1149,0,0
483,-125,0,0,0,0,0,0,0,0,0,-1,1707,1149,0,0
490,-125,0,0,0,0,0,0,0,0,0,-1,1714,1149,0,0
497,-125,0,0,0,0,0,0,0,0,0,-1,1721,1149,0,0
504,-125,0,0,0,0,0,0,0,0,0,-1,1728,1149,0,0
511,-125,0,0,0,0,0,0,0,0,0,-1,1735,1149,0,0
518,-125,0,0,0,0,0,0,0,0,0,-1,1742,1149,0,0
525,-125,0,0,0,0,0,0,0,0,0,-1,1749,1149,0,0
532,-125,0,0,0,0,0,0,0,0,0,-1,1756,1149,0,0
539,-125,0,0,0,0,0,0,0,0,0,-1,1763,1149,0,0
546,-125,0,0,0,0,0,0,0,0,0,-1,1770,1149,0,0
553,-125,0,0,0,0,0,0,0,0,0,-1,1777,1149,0,0
560,-125,0,0,0,0,0,0,0,0,0,-1,1784,1149,0,0
567,-125,0,0,0,0,0,0,0,0,0,-1,1791,1149,0,0
574,-125,0,0,0,0,0,0,0,0,0,-1,1798,1149,0,0
581,-125,0,0,0,0,0,0,0,0,0,-1,1805,1149,0,0
588,-125,0,0,0,0,0,0,0,0,0,-1,1812,1149,0,0
595,-125,0,0,0,0,0,0,0,0,0,-1,1819,1149,0,0
602,-125,0,0,0,0,0,0,0,0,0,-1,1826,1149,0,0
609,-125,0,0,0,0,0,0,0,0,0,-1,1833,1149,0,0
616,-125,0,0,0,0,0,0,0,0,0,-1,1840,1149,0,0
623,-125,0,0,0,0,0,0,0,0,0,-1,1847,1149,0,0
630,-125,0,0,0,0,0,0,0,0,0,-1,1854,1149,0,0
637,-125,0,0,0,0,0,0,0,0,0,-1,1861,1149,0,0
644,-125,53.2029,2.49426,-0.00358024,-0.000837318,0.00424847,0.00225557,-0.00667313,0.941524,0.00536118,0.0410511,1868,1149,53.2029,-2.49424
651,-125,52.9789,2.47656,-0.00281601,-0.000699032,0.00297825,0.00140323,-0.00491827,0.95614,0.00383318,0.0412049,1875,1149,52.9788,-2.47654
658,-125,52.7374,2.6864,-0.0018125,-0.000579455,0.00201676,0.000912915,-0.00330487,0.933737,0.00256235,0.0416138,1882,1149,52.7374,-2.68646
665,-125,52.791,2.84851,-0.000810615,-0.000425142,0.00116756,0.00056548,-0.00180124,0.867199,0.00142716,0.0446473,1889,1149,52.791,-2.84853
672,-125,52.6902,2.69226,1.73904e-05,-0.000236144,0.000512678,0.000418741,-0.000637495,0.664197,0.000614162,0.0444313,1896,1149,52.6902,-2.69228
679,-125,52.814,2.64368,0.000408363,-0.000224216,0.000205469,0.000469243,-0.000285096,0.288055,0.000439822,0.0379724,1903,1149,52.8139,-2.64367
686,-125,52.8635,2.68176,0.000698603,-0.000417568,0.000170031,0.000723929,-0.000442895,0.147867,0.000680149,0.0345359,1910,1149,52.8636,-2.68178
693,-125,52.8114,2.57068,0.000814678,-0.000520254,0.000201245,0.000844356,-0.000549933,0.146419,0.000810953,0.0302737,1917,1149,52.8114,-2.57066
700,-125,52.9293,2.66235,0.000889851,-0.000607003,0.000241222,0.000927764,-0.000644917,0.155896,0.00091287,0.0147246,1924,1149,52.9293,-2.66239
707,-125,53.0743,2.82983,0,0,0,0,0,0,0,-1,1931,1149,53.0743,-2.82983
714,-125,47.8728,8.23071,0,0,0,0,0,0,0,-1,1938,1149,47.8728,-8.23068
721,-125,47.8096,7.75916,0.000262521,-0.000430602,0.000787892,0.000776702,-0.000944784,0.578204,0.000995478,0.033788,1945,1149,47.8096,-7.75911
728,-125,47.7725,7.34827,-8.48171e-05,-0.000293477,0.00102249,0.000838654,-0.00121695,0.734557,0.00119348,0.0206095,1952,1149,47.7724,-7.34832
735,-125,47.7616,6.95471,-0.000420283,-0.000150064,0.000936441,0.000660964,-0.00123131,0.857044,0.00110892,0.0206102,1959,1149,47.7616,-6.95468
742,-125,47.7903,6.53882,-0.000604709,0.000100542,0.00103069,0.000837261,-0.00134143,0.950219,0.00126904,0.0271511,1966,1149,47.7903,-6.53876
749,-125,47.7007,6.09387,-0.00107789,0.000415639,0.00106786,0.000971941,-0.00163419,1.09053,0.00152076,0.0268081,1973,1149,47.7007,-6.09382
756,-125,47.7316,5.68665,-0.000905027,0.000513996,0.00103625,0.00106036,-0.00145139,1.08559,0.00145601,0.0229377,1980,1149,47.7315,-5.68666
763,-125,47.7332,5.30237,0.000581414,0.000208974,0.000728408,0.00114703,-0.000356642,0.660252,0.000907242,0.0125149,1987,1149,47.7332,-5.30232
770,-125,47.6638,4.88367,0.00256109,-0.000669966,0.000441749,0.00262039,-0.000729274,0.133458,0.00203408,0.0154519,1994,1149,47.6638,-4.88362
777,-125,47.5688,4.5542,0.00541532,-0.00228016,9.75417e-05,0.00541655,-0.00228139,0.0126725,0.00456562,0.0309836,2001,1149,47.5689,-4.55417
784,-125,47.5239,4.0968,0.00940725,-0.00490035,-0.000355562,0.00941608,-0.00490918,-0.0248308,0.00840602,0.0472561,2008,1149,47.5239,-4.09681
791,-125,47.5325,3.61438,0,0,0,0,0,0,0,-1,2015,1149,47.5326,-3.6144
798,-125,46.8586,0.196289,0,0,0,0,0,0,0,-1,2022,1149,46.8587,-0.196337
805,-125,46.6167,0.449341,0,0,0,0,0,0,0,-1,2029,1149,46.6167,-0.449345
812,-125,46.3748,0.702393,0,0,0,0,0,0,0,-1,2036,1149,46.3747,-0.702353
-700,-132,0,0,0,0,0,0,0,0,0,-1,524,1156,0,0
-693,-132,-32.8781,-3.09204,0.00117181,0.0451597,0.0160941,0.0504192,-0.00408776,1.25494,0.0350549,0.0466255,531,1156,-32.8781,3.09202
-686,-132,-33.3081,-2.49597,0.00488529,0.0325403,0.0142604,0.0385763,-0.00115074,1.17039,0.0261096,0.0488626,538,1156,-33.3081,2.49603
-679,-132,-33.6282,-2.09814,0,0,0,0,0,0,0,-1,545,1156,-33.6282,2.09818
-672,-132,-33.7401,-1.47351,0,0,0,0,0,0,0,-1,552,1156,-33.7401,1.47354
-665,-132,-33.8242,-0.839722,0,0,0,0,0,0,0,-1,559,1156,-33.8242,0.839668
-658,-132,-33.2445,0.559082,0,0,0,0,0,0,0,-1,566,1156,-33.2445,-0.559094
-651,-132,-33.3723,1.1676,0.00166326,0.0062656,0.00491118,0.00938799,-0.00145914,1.00449,0.00679745,0.045201,573,1156,-33.3723,-1.16758
-644,-132,-33.5359,1.74072,0.000371883,0.00435515,0.00335418,0.00626442,-0.00153739,1.05331,0.00477202,0.0238802,580,1156,-33.536,-1.74068
-637,-132,-33.6075,2.17688,-0.000370512,0.00253233,0.00193118,0.0034967,-0.00133489,1.10765,0.00288109,0.012181,587,1156,-33.6075,-2.17692
-630,-132,-33.6234,2.62659,-0.00100199,0.0011696,0.00067639,0.00136305,-0.00119544,1.29224,0.0014782,0.0103374,594,1156,-33.6233,-2.62654
-623,-132,-33.652,3.12183,-0.00145977,0.000618827,-0.000284835,0.000657152,-0.00149809,-1.43705,0.00127552,0.015651,601,1156,-33.652,-3.12179
-616,-132,-33.6693,3.51013,-0.000973978,-0.000177476,-0.000901184,0.000409533,-0.00156099,-0.993455,0.00120068,0.030297,608,1156,-33.6693,-3.51009
-609,-132,-33.7285,4.1416,0,0,0,0,0,0,0,-1,615,1156,-33.7285,-4.14161
-602,-132,-33.6866,4.39856,-8.39151e-05,-0.00124797,-0.00127492,0.000735547,-0.00206743,-0.571266,0.0016781,0.0323411,622,1156,-33.6866,-4.39851
-595,-132,-33.8119,4.86243,-0.000257682,-0.00127997,-0.00117547,0.000512969,-0.00205062,-0.58031,0.00156632,0.0460959,629,1156,-33.8119,-4.86243
-588,-132,-33.7944,5.38708,0,0,0,0,0,0,0,-1,636,1156,-33.7944,-5.38704
-581,-132,-33.661,5.94568,0,0,0,0,0,0,0,-1,643,1156,-33.661,-5.94565
-574,-132,-33.2071,2.86963,0,0,0,0,0,0,0,-1,650,1156,-33.2071,-2.86963
-567,-132,-39.3449,0.807373,0,0,0,0,0,0,0,-1,657,1156,-39.3449,-0.807406
-560,-132,-39.4628,0.901001,-0.00100824,-0.00152747,-0.00107625,-0.000160733,-0.00237497,-0.667048,0.00153255,0.0365315,664,1156,-39.4627,-0.90099
-553,-132,-39.5957,1.01367,-0.0015902,-0.00131863,-0.00117563,-0.000270969,-0.00263786,-0.842892,0.00167557,0.0403434,671,1156,-39.5957,-1.01362
-546,-132,-39.6376,1.13489,-0.00211508,-0.000914877,-0.00139718,5.62915e-06,-0.00303558,-0.988239,0.0020256,0.0438491,678,1156,-39.6375,-1.13485
-539,-132,-39.5146,1.25732,-0.00263049,-0.000247223,-0.00225154,0.00110858,-0.0039863,-1.02879,0.00309398,0.0450082,685,1156,-39.5146,-1.25731
-532,-132,-39.3508,0.937134,-0.00274861,0.000579707,-0.00381784,0.00308032,-0.00524922,-0.990927,0.00486311,0.0428877,692,1156,-39.3508,-0.937145
-525,-132,-39.3702,0.900269,-0.0022931,0.00162057,-0.00592039,0.00589913,-0.00657167,-0.945009,0.00720351,0.0388606,699,1156,-39.3703,-0.900252
-518,-132,0,0,0,0,0,0,0,0,0,-1,706,1156,0,0
-511,-132,0,0,0,0,0,0,0,0,0,-1,713,1156,0,0
-504,-132,0,0,0,0,0,0,0,0,0,-1,720,1156,0,0
-497,-132,0,0,0,0,0,0,0,0,0,-1,727,1156,0,0
-490,-132,0,0,0,0,0,0,0,0,0,-1,734,1156,0,0
-483,-132,0,0,0,0,0,0,0,0,0,-1,741,1156,0,0
-476,-132,0,0,0,0,0,0,0,0,0,-1,748,1156,0,0
-469,-132,0,0,0,0,0,0,0,0,0,-1,755,1156,0,0
-462,-132,0,0,0,0,0,0,0,0,0,-1,762,1156,0,0
-455,-132,0,0,0,0,0,0,0,0,0,-1,769,1156,0,0
-448,-132,0,0,0,0,0,0,0,0,0,-1,776,1156,0,0
-441,-132,0,0,0,0,0,0,0,0,0,-1,783,1156,0,0
-434,-132,0,0,0,0,0,0,0,0,0,-1,790,1156,0,0
-427,-132,0,0,0,0,0,0,0,0,0,-1,797,1156,0,0
-420,-132,0,0,0,0,0,0,0,0,0,-1,804,1156,0,0
-413,-132,0,0,0,0,0,0,0,0,0,-1,811,1156,0,0
-406,-132,0,0,0,0,0,0,0,0,0,-1,818,1156,0,0
-399,-132,0,0,0,0,0,0,0,0,0,-1,825,1156,0,0
-392,-132,0,0,0,0,0,0,0,0,0,-1,832,1156,0,0
-385,-132,0,0,0,0,0,0,0,0,0,-1,839,1156,0,0
-378,-132,0,0,0,0,0,0,0,0,0,-1,846,1156,0,0
-371,-132,0,0,0,0,0,0,0,0,0,-1,853,1156,0,0
-364,-132,0,0,0,0,0,0,0,0,0,-1,860,1156,0,0
-357,-132,0,0,0,0,0,0,0,0,0,-1,867,1156,0,0
-350,-132,0,0,0,0,0,0,0,0,0,-1,874,1156,0,0
-343,-132,0,0,0,0,0,0,0,0,0,-1,881,1156,0,0
-336,-132,0,0,0,0,0,0,0,0,0,-1,888,1156,0,0
-329,-132,0,0,0,0,0,0,0,0,0,-1,895,1156,0,0
-322,-132,0,0,0,0,0,0,0,0,0,-1,902,1156,0,0
-315,-132,0,0,0,0,0,0,0,0,0,-1,909,1156,0,0
-308,-132,0,0,0,0,0,0,0,0,0,-1,916,1156,0,0
-301,-132,0,0,0,0,0,0,0,0,0,-1,923,1156,0,0
-294,-132,0,0,0,0,0,0,0,0,0,-1,930,1156,0,0
-287,-132,0,0,0,0,0,0,0,0,0,-1,937,1156,0,0
-280,-132,0,0,0,0,0,0,0,0,0,-1,944,1156,0,0
-273,-132,0,0,0,0,0,0,0,0,0,-1,951,1156,0,0
-266,-132,0,0,0,0,0,0,0,0,0,-1,958,1156,0,0
-259,-132,0,0,0,0,0,0,0,0,0,-1,965,1156,0,0
-252,-132,0,0,0,0,0,0,0,0,0,-1,972,1156,0,0
-245,-132,0,0,0,0,0,0,0,0,0,-1,979,1156,0,0
-238,-132,0,0,0,0,0,0,0,0,0,-1,986,1156,0,0
-231,-132,0,0,0,0,0,0,0,0,0,-1,993,1156,0,0
-224,-132,0,0,0,0,0,0,0,0,0,-1,1000,1156,0,0
-217,-132,0,0,0,0,0,0,0,0,0,-1,1007,1156,0,0
-210,-132,0,0,0,0,0,0,0,0,0,-1,1014,1156,0,0
-203,-132,0,0,0,0,0,0,0,0,0,-1,1021,1156,0,0
-196,-132,0,0,0,0,0,0,0,0,0,-1,1028,1156,0,0
-189,-132,0,0,0,0,0,0,0,0,0,-1,1035,1156,0,0
-182,-132,0,0,0,0,0,0,0,0,0,-1,1042,1156,0,0
-175,-132,0,0,0,0,0,0,0,0,0,-1,1049,1156,0,0
-168,-132,0,0,0,0,0,0,0,0,0,-1,1056,1156,0,0
-161,-132,0,0,0,0,0,0,0,0,0,-1,1063,1156,0,0
-154,-132,0,0,0,0,0,0,0,0,0,-1,1070,1156,0,0
-147,-132,0,0,0,0,0,0,0,0,0,-1,1077,1156,0,0
-140,-132,0,0,0,0,0,0,0,0,0,-1,1084,1156,0,0
-133,-132,0,0,0,0,0,0,0,0,0,-1,1091,1156,0,0
-126,-132,0,0,0,0,0,0,0,0,0,-1,1098,1156,0,0
-119,-132,0,0,0,0,0,0,0,0,0,-1,1105,1156,0,0
-112,-132,0,0,0,0,0,0,0,0,0,-1,1112,1156,0,0
-105,-132,0,0,0,0,0,0,0,0,0,-1,1119,1156,0,0
-98,-132,0,0,0,0,0,0,0,0,0,-1,1126,1156,0,0
-91,-132,0,0,0,0,0,0,0,0,0,-1,1133,1156,0,0
-84,-132,0,0,0,0,0,0,0,0,0,-1,1140,1156,0,0
-77,-132,0,0,0,0,0,0,0,0,0,-1,1147,1156,0,0
-70,-132,0,0,0,0,0,0,0,0,0,-1,1154,1156,0,0
-63,-132,0,0,0,0,0,0,0,0,0,-1,1161,1156,0,0
-56,-132,0,0,0,0,0,0,0,0,0,-1,1168,1156,0,0
-49,-132,0,0,0,0,0,0,0,0,0,-1,1175,1156,0,0
-42,-132,0,0,0,0,0,0,0,0,0,-1,1182,1156,0,0
-35,-132,0,0,0,0,0,0,0,0,0,-1,1189,1156,0,0
-28,-132,0,0,0,0,0,0,0,0,0,-1,1196,1156,0,0
-21,-132,0,0,0,0,0,0,0,0,0,-1,1203,1156,0,0
-14,-132,0,0,0,0,0,0,0,0,0,-1,1210,1156,0,0
-7,-132,0,0,0,0,0,0,0,0,0,-1,1217,1156,0,0
0,-132,0,0,0,0,0,0,0,0,0,-1,1224,1156,0,0
7,-132,0,0,0,0,0,0,0,0,0,-1,1231,1156,0,0
14,-132,0,0,0,0,0,0,0,0,0,-1,1238,1156,0,0
21,-132,0,0,0,0,0,0,0,0,0,-1,1245,1156,0,0
28,-132,0,0,0,0,0,0,0,0,0,-1,1252,1156,0,0
35,-132,0,0,0,0,0,0,0,0,0,-1,1259,1156,0,0
42,-132,0,0,0,0,0,0,0,0,0,-1,1266,1156,0,0
49,-132,0,0,0,0,0,0,0,0,0,-1,1273,1156,0,0
56,-132,0,0,0,0,0,0,0,0,0,-1,1280,1156,0,0
63,-132,0,0,0,0,0,0,0,0,0,-1,1287,1156,0,0
70,-132,0,0,0,0,0,0,0,0,0,-1,1294,1156,0,0
77,-132,0,0,0,0,0,0,0,0,0,-1,1301,1156,0,0
84,-132,0,0,0,0,0,0,0,0,0,-1,1308,1156,0,0
91,-132,0,0,0,0,0,0,0,0,0,-1,1315,1156,0,0
98,-132,0,0,0,0,0,0,0,0,0,-1,1322,1156,0,0
105,-132,0,0,0,0,0,0,0,0,0,-1,1329,1156,0,0
112,-132,0,0,0,0,0,0,0,0,0,-1,1336,1156,0,0
119,-132,0,0,0,0,0,0,0,0,0,-1,1343,1156,0,0
126,-132,0,0,0,0,0,0,0,0,0,-1,1350,1156,0,0
133,-132,0,0,0,0,0,0,0,0,0,-1,1357,1156,0,0
140,-132,0,0,0,0,0,0,0,0,0,-1,1364,1156,0,0
147,-132,0,0,0,0,0,0,0,0,0,-1,1371,1156,0,0
154,-132,0,0,0,0,0,0,0,0,0,-1,1378,1156,0,0
161,-132,0,0,0,0,0,0,0,0,0,-1,1385,1156,0,0
168,-132,0,0,0,0,0,0,0,0,0,-1,1392,1156,0,0
175,-132,0,0,0,0,0,0,0,0,0,-1,1399,1156,0,0
182,-132,0,0,0,0,0,0,0,0,0,-1,1406,1156,0,0
189,-132,0,0,0,0,0,0,0,0,0,-1,1413,1156,0,0
196,-132,0,0,0,0,0,0,0,0,0,-1,1420,1156,0,0
203,-132,0,0,0,0,0,0,0,0,0,-1,1427,1156,0,0
210,-132,0,0,0,0,0,0,0,0,0,-1,1434,1156,0,0
217,-132,0,0,0,0,0,0,0,0,0,-1,1441,1156,0,0
224,-132,0,0,0,0,0,0,0,0,0,-1,1448,1156,0,0
231,-132,0,0,0,0,0,0,0,0,0,-1,1455,1156,0,0
238,-132,0,0,0,0,0,0,0,0,0,-1,1462,1156,0,0
245,-132,0,0,0,0,0,0,0,0,0,-1,1469,1156,0,0
252,-132,0,0,0,0,0,0,0,0,0,-1,1476,1156,0,0
259,-132,0,0,0,0,0,0,0,0,0,-1,1483,1156,0,0
266,-132,0,0,0,0,0,0,0,0,0,-1,1490,1156,0,0
273,-132,0,0,0,0,0,0,0,0,0,-1,1497,1156,0,0
280,-132,0,0,0,0,0,0,0,0,0,-1,1504,1156,0,0
287,-132,0,0,0,0,0,0,0,0,0,-1,1511,1156,0,0
294,-132,0,0,0,0,0,0,0,0,0,-1,1518,1156,0,0
301,-132,0,0,0,0,0,0,0,0,0,-1,1525,1156,0,0
308,-132,0,0,0,0,0,0,0,0,0,-1,1532,1156,0,0
315,-132,0,0,0,0,0,0,0,0,0,-1,1539,1156,0,0
322,-132,0,0,0,0,0,0,0,0,0,-1,1546,1156,0,0
329,-132,0,0,0,0,0,0,0,0,0,-1,1553,1156,0,0
336,-132,0,0,0,0,0,0,0,0,0,-1,1560,1156,0,0
343,-132,0,0,0,0,0,0,0,0,0,-1,1567,1156,0,0
350,-132,0,0,0,0,0,0,0,0,0,-1,1574,1156,0,0
357,-132,0,0,0,0,0,0,0,0,0,-1,1581,1156,0,0
364,-132,0,0,0,0,0,0,0,0,0,-1,1588,1156,0,0
371,-132,0,0,0,0,0,0,0,0,0,-1,1595,1156,0,0
378,-132,0,0,0,0,0,0,0,0,0,-1,1602,1156,0,0
385,-132,0,0,0,0,0,0,0,0,0,-1,1609,1156,0,0
392,-132,0,0,0,0,0,0,0,0,0,-1,1616,1156,0,0
399,-132,0,0,0,0,0,0,0,0,0,-1,1623,1156,0,0
406,-132,0,0,0,0,0,0,0,0,0,-1,1630,1156,0,0
413,-132,0,0,0,0,0,0,0,0,0,-1,1637,1156,0,0
420,-132,0,0,0,0,0,0,0,0,0,-1,1644,1156,0,0
427,-132,0,0,0,0,0,0,0,0,0,-1,1651,1156,0,0
434,-132,0,0,0,0,0,0,0,0,0,-1,1658,1156,0,0
441,-132,0,0,0,0,0,0,0,0,0,-1,1665,1156,0,0
448,-132,0,0,0,0,0,0,0,0,0,-1,1672,1156,0,0
455,-132,0,0,0,0,0,0,0,0,0,-1,1679,1156,0,0
462,-132,0,0,0,0,0,0,0,0,0,-1,1686,1156,0,0
469,-132,0,0,0,0,0,0,0,0,0,-1,1693,1156,0,0
476,-132,0,0,0,0,0,0,0,0,0,-1,1700,1156,0,0
483,-132,0,0,0,0,0,0,0,0,0,-1,1707,1156,0,0
490,-132,0,0,0,0,0,0,0,0,0,-1,1714,1156,0,0
497,-132,0,0,0,0,0,0,0,0,0,-1,1721,1156,0,0
504,-132,0,0,0,0,0,0,0,0,0,-1,1728,1156,0,0
511,-132,0,0,0,0,0,0,0,0,0,-1,1735,1156,0,0
518,-132,0,0,0,0,0,0,0,0,0,-1,1742,1156,0,0
525,-132,0,0,0,0,0,0,0,0,0,-1,1749,1156,0,0
532,-132,0,0,0,0,0,0,0,0,0,-1,1756,1156,0,0
539,-132,0,0,0,0,0,0,0,0,0,-1,1763,1156,0,0
546,-132,0,0,0,0,0,0,0,0,0,-1,1770,1156,0,0
553,-132,0,0,0,0,0,0,0,0,0,-1,1777,1156,0,0
560,-132,0,0,0,0,0,0,0,0,0,-1,1784,1156,0,0
567,-132,0,0,0,0,0,0,0,0,0,-1,1791,1156,0,0
574,-132,0,0,0,0,0,0,0,0,0,-1,1798,1156,0,0
581,-132,0,0,0,0,0,0,0,0,0,-1,1805,1156,0,0
588,-132,0,0,0,0,0,0,0,0,0,-1,1812,1156,0,0
595,-132,0,0,0,0,0,0,0,0,0,-1,1819,1156,0,0
602,-132,0,0,0,0,0,0,0,0,0,-1,1826,1156,0,0
609,-132,0,0,0,0,0,0,0,0,0,-1,1833,1156,0,0
616,-132,0,0,0,0,0,0,0,0,0,-1,1840,1156,0,0
623,-132,0,0,0,0,0,0,0,0,0,-1,1847,1156,0,0
630,-132,0,0,0,0,0,0,0,0,0,-1,1854,1156,0,0
637,-132,0,0,0,0,0,0,0,0,0,-1,1861,1156,0,0
644,-132,53.2168,2.57825,-0.00428427,-0.000487429,0.00422432,0.00224544,-0.00701714,0.996577,0.00557928,0.041721,1868,1156,53.2168,-2.57822
651,-132,52.7128,2.57788,-0.0033646,-0.000293143,0.00295392,0.00150041,-0.00515815,1.02512,0.00403304,0.0424907,1875,1156,52.7127,-2.57787
658,-132,52.6195,2.69312,-0.00219792,-0.000131069,0.00193141,0.00102602,-0.003355,1.03105,0.00264584,0.0432251,1882,1156,52.6195,-2.69317
665,-132,52.6952,2.8009,-0.000983177,5.01697e-05,0.00100507,0.000663597,-0.0015966,1.02282,0.00134148,0.0461514,1889,1156,52.6952,-2.80091
672,-132,52.7069,2.65881,1.19681e-05,0.000253218,0.000294601,0.000450933,-0.000185747,0.979712,0.000378066,0.0423623,1896,1156,52.7069,-2.65885
679,-132,52.8593,2.58228,0.000508893,0.000209763,2.23317e-06,0.00050891,0.000209747,0.00746499,0.000295327,0.0388165,1903,1156,52.8592,-2.58231
686,-132,52.8788,2.76782,0.000766135,-6.98943e-05,1.05426e-05,0.000766268,-7.00272e-05,0.0126077,0.000535715,0.0356212,1910,1156,52.8787,-2.76782
693,-132,52.8464,2.65735,0.000804699,-0.000219184,8.10891e-05,0.000811081,-0.000225567,0.078545,0.000629528,0.0273561,1917,1156,52.8464,-2.65736
700,-132,52.932,2.66089,0.00083384,-0.000341167,0.000167247,0.000857182,-0.000364508,0.138669,0.000724209,0.04225,1924,1156,52.932,-2.6609
707,-132,53.0156,2.66785,0,0,0,0,0,0,0,-1,1931,1156,53.0156,-2.66788
714,-132,47.3429,8.09753,0,0,0,0,0,0,0,-1,1938,1156,47.3429,-8.09759
721,-132,47.4357,7.729,0.000314701,-0.000325141,0.000714527,0.000777659,-0.000788098,0.574912,0.000903997,0.0370728,1945,1156,47.4357,-7.72898
728,-132,47.3547,7.36401,1.81659e-05,-0.000267502,0.000994968,0.0008805,-0.00112984,0.714107,0.00116364,0.0279455,1952,1156,47.3548,-7.36405
735,-132,47.2799,6.99316,-0.000354656,-0.000208814,0.000933152,0.000654262,-0.00121773,0.824392,0.00109699,0.028076,1959,1156,47.2799,-6.99317
742,-132,47.3383,6.52051,-0.000640094,6.25272e-06,0.000983314,0.000718138,-0.00135198,0.944166,0.00121371,0.0219952,1966,1156,47.3383,-6.52057
749,-132,47.3013,6.07837,-0.00123215,0.000369792,0.000894464,0.000769496,-0.00163185,1.15055,0.0014159,0.0261072,1973,1156,47.3013,-6.0784
756,-132,47.308,5.68152,-0.00123662,0.00055887,0.000694529,0.000796166,-0.00147391,1.24157,0.00132996,0.0234269,1980,1156,47.308,-5.68154
763,-132,47.2786,5.32275,-8.66023e-05,0.000355291,0.00016683,0.000411201,-0.000142512,1.24743,0.000331995,0.0140855,1987,1156,47.2786,-5.32277
770,-132,47.2496,4.93469,0.00138006,-0.000396281,-0.000373865,0.00145554,-0.000471761,-0.199213,0.00116004,0.0146653,1994,1156,47.2496,-4.93465
777,-132,47.1975,4.51807,0.00348457,-0.00186718,-0.00100069,0.00366556,-0.00204818,-0.178933,0.00334259,0.0262659,2001,1156,47.1974,-4.51805
784,-132,47.1541,3.95422,0.0064027,-0.00437074,-0.00178099,0.00668949,-0.00465752,-0.159656,0.00658612,0.0480243,2008,1156,47.154,-3.9542
791,-132,47.1567,3.37024,0,0,0,0,0,0,0,-1,2015,1156,47.1567,-3.37018
798,-132,46.0791,0.799072,0,0,0,0,0,0,0,-1,2022,1156,46.0791,-0.799114
805,-132,45.9673,0.605835,0.0236322,-0.0206163,-0.0054884,0.0243028,-0.0212869,-0.121581,0.0263404,0.0431279,2029,1156,45.9673,-0.605803
812,-132,45.7627,0.870728,0,0,0,0,0,0,0,-1,2036,1156,45.7627,-0.870773
-700,-139,0,0,0,0,0,0,0,0,0,-1,524,1163,0,0
-693,-139,-32.3987,-3.73547,0,0,0,0,0,0,0,-1,531,1163,-32.3987,3.73544
-686,-139,-32.4917,-2.6189,0,0,0,0,0,0,0,-1,538,1163,-32.4917,2.6189
-679,-139,-32.9293,-2.229,0,0,0,0,0,0,0,-1,545,1163,-32.9293,2.22898
-672,-139,-33.0496,-1.55957,0.00431575,0.0163994,0.00929137,0.0214406,-0.000725432,1.07368,0.0145416,0.0465769,552,1163,-33.0496,1.5596
-665,-139,-33.1935,-0.961914,0.00372331,0.0115069,0.00793225,0.0164507,-0.00122042,1.01346,0.0113957,0.0446935,559,1163,-33.1935,0.961956
-658,-139,-33.2047,0.0830078,0,0,0,0,0,0,0,-1,566,1163,-33.2047,-0.0830538
-651,-139,-32.9227,1.21423,0,0,0,0,0,0,0,-1,573,1163,-32.9227,-1.21427
-644,-139,-33.0569,1.71228,0.000320573,0.0039442,0.00354869,0.00611684,-0.00185206,1.02143,0.00481547,0.0245573,580,1163,-33.057,-1.71229
-637,-139,-33.1115,2.16113,-0.000327423,0.00229777,0.00216723,0.00351891,-0.00154856,1.05768,0.00299852,0.0131822,587,1163,-33.1114,-2.16115
-630,-139,-33.1454,2.62097,-0.00103681,0.00107342,0.00085957,0.00137923,-0.00134263,1.22899,0.00157151,0.0106929,594,1163,-33.1454,-2.62094
-623,-139,-33.1575,3.09814,-0.00159692,0.000670493,-0.000212023,0.000690149,-0.00161657,-1.47836,0.00136712,0.016756,601,1163,-33.1575,-3.0982
-616,-139,-33.1819,3.53748,-0.00130652,-2.73667e-05,-0.00103665,0.000551131,-0.00188502,-1.0618,0.00147512,0.0184214,608,1163,-33.182,-3.53745
-609,-139,-32.9845,4.01123,-0.000986474,-0.000635371,-0.00136486,0.000565177,-0.00218702,-0.849358,0.00167843,0.0453366,615,1163,-32.9845,-4.01118
-602,-139,-33.1734,4.48547,-0.000552182,-0.00101169,-0.00157985,0.000814533,-0.0023784,-0.713191,0.00191573,0.0374025,622,1163,-33.1734,-4.48543
-595,-139,-33.3238,4.96753,-0.000793261,-0.000949623,-0.00147232,0.000602949,-0.00234583,-0.758873,0.00179888,0.0446976,629,1163,-33.3238,-4.96751
-588,-139,-33.5665,5.37024,0,0,0,0,0,0,0,-1,636,1163,-33.5666,-5.37028
-581,-139,-32.2208,6.02368,0,0,0,0,0,0,0,-1,643,1163,-32.2208,-6.02369
-574,-139,-23.0725,2.4043,0,0,0,0,0,0,0,-1,650,1163,-23.0725,-2.40433
-567,-139,-39.3303,0.720581,0,0,0,0,0,0,0,-1,657,1163,-39.3303,-0.720583
-560,-139,-39.4105,0.962646,-0.00169605,-0.00103548,-0.00150865,0.000178613,-0.00291015,-0.893161,0.00200229,0.0360748,664,1163,-39.4104,-0.962636
-553,-139,-39.5477,1.15125,-0.00220432,-0.000784749,-0.00161465,0.000269241,-0.00325831,-0.99248,0.00226729,0.0406644,671,1163,-39.5477,-1.15131
-546,-139,-39.5882,1.09363,-0.00236895,-0.000342654,-0.00174257,0.000659889,-0.0033715,-1.04872,0.00249686,0.0439547,678,1163,-39.5882,-1.09367
-539,-139,-39.4567,0.844727,-0.00240971,0.000362758,-0.00242777,0.00177219,-0.00381914,-1.04481,0.00329947,0.0423514,685,1163,-39.4568,-0.844729
-532,-139,-39.4139,0.812988,-0.00200313,0.00119442,-0.00385999,0.00377363,-0.00458235,-0.981739,0.00483185,0.0405058,692,1163,-39.4139,-0.812943
-525,-139,-39.4243,0.916016,-0.00085869,0.00230312,-0.0058655,0.00679703,-0.0053526,-0.917033,0.0070311,0.0398087,699,1163,-39.4243,-0.915976
-518,-139,0,0,0,0,0,0,0,0,0,-1,706,1163,0,0
-511,-139,0,0,0,0,0,0,0,0,0,-1,713,1163,0,0
-504,-139,0,0,0,0,0,0,0,0,0,-1,720,1163,0,0
-497,-139,0,0,0,0,0,0,0,0,0,-1,727,1163,0,0
-490,-139,0,0,0,0,0,0,0,0,0,-1,734,1163,0,0
-483,-139,0,0,0,0,0,0,0,0,0,-1,741,1163,0,0
-476,-139,0,0,0,0,0,0,0,0,0,-1,748,1163,0,0
-469,-139,0,0,0,0,0,0,0,0,0,-1,755,1163,0,0
-462,-139,0,0,0,0,0,0,0,0,0,-1,762,1163,0,0
-455,-139,0,0,0,0,0,0,0,0,0,-1,769,1163,0,0
-448,-139,0,0,0,0,0,0,0,0,0,-1,776,1163,0,0
-441,-139,0,0,0,0,0,0,0,0,0,-1,783,1163,0,0
-434,-139,0,0,0,0,0,0,0,0,0,-1,790,1163,0,0
-427,-139,0,0,0,0,0,0,0,0,0,-1,797,1163,0,0
-420,-139,0,0,0,0,0,0,0,0,0,-1,804,1163,0,0
-413,-139,0,0,0,0,0,0,0,0,0,-1,811,1163,0,0
-406,-139,0,0,0,0,0,0,0,0,0,-1,818,1163,0,0
-399,-139,0,0,0,0,0,0,0,0,0,-1,825,1163,0,0
-392,-139,0,0,0,0,0,0,0,0,0,-1,832,1163,0,0
-385,-139,0,0,0,0,0,0,0,0,0,-1,839,1163,0,0
-378,-139,0,0,0,0,0,0,0,0,0,-1,846,1163,0,0
-371,-139,0,0,0,0,0,0,0,0,0,-1,853,1163,0,0
-364,-139,0,0,0,0,0,0,0,0,0,-1,860,1163,0,0
-357,-139,0,0,0,0,0,0,0,0,0,-1,867,1163,0,0
-350,-139,0,0,0,0,0,0,0,0,0,-1,874,1163,0,0
-343,-139,0,0,0,0,0,0,0,0,0,-1,881,1163,0,0
-336,-139,0,0,0,0,0,0,0,0,0,-1,888,1163,0,0
-329,-139,0,0,0,0,0,0,0,0,0,-1,895,1163,0,0
-322,-139,0,0,0,0,0,0,0,0,0,-1,902,1163,0,0
-315,-139,0,0,0,0,0,0,0,0,0,-1,909,1163,0,0
-308,-139,0,0,0,0,0,0,0,0,0,-1,916,1163,0,0
-301,-139,0,0,0,0,0,0,0,0,0,-1,923,1163,0,0
-294,-139,0,0,0,0,0,0,0,0,0,-1,930,1163,0,0
-287,-139,0,0,0,0,0,0,0,0,0,-1,937,1163,0,0
-280,-139,0,0,0,0,0,0,0,0,0,-1,944,1163,0,0
-273,-139,0,0,0,0,0,0,0,0,0,-1,951,1163,0,0
-266,-139,0,0,0,0,0,0,0,0,0,-1,958,1163,0,0
-259,-139,0,0,0,0,0,0,0,0,0,-1,965,1163,0,0
-252,-139,0,0,0,0,0,0,0,0,0,-1,972,1163,0,0
-245,-139,0,0,0,0,0,0,0,0,0,-1,979,1163,0,0
-238,-139,0,0,0,0,0,0,0,0,0,-1,986,1163,0,0
-231,-139,0,0,0,0,0,0,0,0,0,-1,993,1163,0,0
-224,-139,0,0,0,0,0,0,0,0,0,-1,1000,1163,0,0
-217,-139,0,0,0,0,0,0,0,0,0,-1,1007,1163,0,0
-210,-139,0,0,0,0,0,0,0,0,0,-1,1014,1163,0,0
-203,-139,0,0,0,0,0,0,0,0,0,-1,1021,1163,0,0
-196,-139,0,0,0,0,0,0,0,0,0,-1,1028,1163,0,0
-189,-139,0,0,0,0,0,0,0,0,0,-1,1035,1163,0,0
-182,-139,0,0,0,0,0,0,0,0,0,-1,1042,1163,0,0
-175,-139,0,0,0,0,0,0,0,0,0,-1,1049,1163,0,0
-168,-139,0,0,0,0,0,0,0,0,0,-1,1056,1163,0,0
-161,-139,0,0,0,0,0,0,0,0,0,-1,1063,1163,0,0
-154,-139,0,0,0,0,0,0,0,0,0,-1,1070,1163,0,0
-147,-139,0,0,0,0,0,0,0,0,0,-1,1077,1163,0,0
-140,-139,0,0,0,0,0,0,0,0,0,-1,1084,1163,0,0
-133,-139,0,0,0,0,0,0,0,0,0,-1,1091,1163,0,0
-126,-139,0,0,0,0,0,0,0,0,0,-1,1098,1163,0,0
-119,-139,0,0,0,0,0,0,0,0,0,-1,1105,1163,0,0
-112,-139,0,0,0,0,0,0,0,0,0,-1,1112,1163,0,0
-105,-139,0,0,0,0,0,0,0,0,0,-1,1119,1163,0,0
-98,-139,0,0,0,0,0,0,0,0,0,-1,1126,1163,0,0
-91,-139,0,0,0,0,0,0,0,0,0,-1,1133,1163,0,0
-84,-139,0,0,0,0,0,0,0,0,0,-1,1140,1163,0,0
-77,-139,0,0,0,0,0,0,0,0,0,-1,1147,1163,0,0
-70,-139,0,0,0,0,0,0,0,0,0,-1,1154,1163,0,0
-63,-139,0,0,0,0,0,0,0,0,0,-1,1161,1163,0,0
-56,-139,0,0,0,0,0,0,0,0,0,-1,1168,1163,0,0
-49,-139,0,0,0,0,0,0,0,0,0,-1,1175,1163,0,0
-42,-139,0,0,0,0,0,0,0,0,0,-1,1182,1163,0,0
-35,-139,0,0,0,0,0,0,0,0,0,-1,1189,1163,0,0
-28,-139,0,0,0,0,0,0,0,0,0,-1,1196,1163,0,0
-21,-139,0,0,0,0,0,0,0,0,0,-1,1203,1163,0,0
-14,-139,0,0,0,0,0,0,0,0,0,-1,1210,1163,0,0
-7,-139,0,0,0,0,0,0,0,0,0,-1,1217,1163,0,0
0,-139,0,0,0,0,0,0,0,0,0,-1,1224,1163,0,0
7,-139,0,0,0,0,0,0,0,0,0,-1,1231,1163,0,0
14,-139,0,0,0,0,0,0,0,0,0,-1,1238,1163,0,0
21,-139,0,0,0,0,0,0,0,0,0,-1,1245,1163,0,0
28,-139,0,0,0,0,0,0,0,0,0,-1,1252,1163,0,0
35,-139,0,0,0,0,0,0,0,0,0,-1,1259,1163,0,0
42,-139,0,0,0,0,0,0,0,0,0,-1,1266,1163,0,0
49,-139,0,0,0,0,0,0,0,0,0,-1,1273,1163,0,0
56,-139,0,0,0,0,0,0,0,0,0,-1,1280,1163,0,0
63,-139,0,0,0,0,0,0,0,0,0,-1,1287,1163,0,0
70,-139,0,0,0,0,0,0,0,0,0,-1,1294,1163,0,0
77,-139,0,0,0,0,0,0,0,0,0,-1,1301,1163,0,0
84,-139,0,0,0,0,0,0,0,0,0,-1,1308,1163,0,0
91,-139,0,0,0,0,0,0,0,0,0,-1,1315,1163,0,0
98,-139,0,0,0,0,0,0,0,0,0,-1,1322,1163,0,0
105,-139,0,0,0,0,0,0,0,0,0,-1,1329,1163,0,0
112,-139,0,0,0,0,0,0,0,0,0,-1,1336,1163,0,0
119,-139,0,0,0,0,0,0,0,0,0,-1,1343,1163,0,0
126,-139,0,0,0,0,0,0,0,0,0,-1,1350,1163,0,0
133,-139,0,0,0,0,0,0,0,0,0,-1,1357,1163,0,0
140,-139,0,0,0,0,0,0,0,0,0,-1,1364,1163,0,0
147,-139,0,0,0,0,0,0,0,0,0,-1,1371,1163,0,0
154,-139,0,0,0,0,0,0,0,0,0,-1,1378,1163,0,0
161,-139,0,0,0,0,0,0,0,0,0,-1,1385,1163,0,0
168,-139,0,0,0,0,0,0,0,0,0,-1,1392,1163,0,0
175,-139,0,0,0,0,0,0,0,0,0,-1,1399,1163,0,0
182,-139,0,0,0,0,0,0,0,0,0,-1,1406,1163,0,0
189,-139,0,0,0,0,0,0,0,0,0,-1,1413,1163,0,0
196,-139,0,0,0,0,0,0,0,0,0,-1,1420,1163,0,0
203,-139,0,0,0,0,0,0,0,0,0,-1,1427,1163,0,0
210,-139,0,0,0,0,0,0,0,0,0,-1,1434,1163,0,0
217,-139,0,0,0,0,0,0,0,0,0,-1,1441,1163,0,0
224,-139,0,0,0,0,0,0,0,0,0,-1,1448,1163,0,0
231,-139,0,0,0,0,0,0,0,0,0,-1,1455,1163,0,0
238,-139,0,0,0,0,0,0,0,0,0,-1,1462,1163,0,0
245,-139,0,0,0,0,0,0,0,0,0,-1,1469,1163,0,0
252,-139,0,0,0,0,0,0,0,0,0,-1,1476,1163,0,0
259,-139,0,0,0,0,0,0,0,0,0,-1,1483,1163,0,0
266,-139,0,0,0,0,0,0,0,0,0,-1,1490,1163,0,0
273,-139,0,0,0,0,0,0,0,0,0,-1,1497,1163,0,0
280,-139,0,0,0,0,0,0,0,0,0,-1,1504,1163,0,0
287,-139,0,0,0,0,0,0,0,0,0,-1,1511,1163,0,0
294,-139,0,0,0,0,0,0,0,0,0,-1,1518,1163,0,0
301,-139,0,0,0,0,0,0,0,0,0,-1,1525,1163,0,0
308,-139,0,0,0,0,0,0,0,0,0,-1,1532,1163,0,0
315,-139,0,0,0,0,0,0,0,0,0,-1,1539,1163,0,0
322,-139,0,0,0,0,0,0,0,0,0,-1,1546,1163,0,0
329,-139,0,0,0,0,0,0,0,0,0,-1,1553,1163,0,0
336,-139,0,0,0,0,0,0,0,0,0,-1,1560,1163,0,0
343,-139,0,0,0,0,0,0,0,0,0,-1,1567,1163,0,0
350,-139,0,0,0,0,0,0,0,0,0,-1,1574,1163,0,0
357,-139,0,0,0,0,0,0,0,0,0,-1,1581,1163,0,0
364,-139,0,0,0,0,0,0,0,0,0,-1,1588,1163,0,0
371,-139,0,0,0,0,0,0,0,0,0,-1,1595,1163,0,0
378,-139,0,0,0,0,0,0,0,0,0,-1,1602,1163,0,0
385,-139,0,0,0,0,0,0,0,0,0,-1,1609,1163,0,0
392,-139,0,0,0,0,0,0,0,0,0,-1,1616,1163,0,0
399,-139,0,0,0,0,0,0,0,0,0,-1,1623,1163,0,0
406,-139,0,0,0,0,0,0,0,0,0,-1,1630,1163,0,0
413,-139,0,0,0,0,0,0,0,0,0,-1,1637,1163,0,0
420,-139,0,0,0,0,0,0,0,0,0,-1,1644,1163,0,0
427,-139,0,0,0,0,0,0,0,0,0,-1,1651,1163,0,0
434,-139,0,0,0,0,0,0,0,0,0,-1,1658,1163,0,0
441,-139,0,0,0,0,0,0,0,0,0,-1,1665,1163,0,0
448,-139,0,0,0,0,0,0,0,0,0,-1,1672,1163,0,0
455,-139,0,0,0,0,0,0,0,0,0,-1,1679,1163,0,0
462,-139,0,0,0,0,0,0,0,0,0,-1,1686,1163,0,0
469,-139,0,0,0,0,0,0,0,0,0,-1,1693,1163,0,0
476,-139,0,0,0,0,0,0,0,0,0,-1,1700,1163,0,0
483,-139,0,0,0,0,0,0,0,0,0,-1,1707,1163,0,0
490,-139,0,0,0,0,0,0,0,0,0,-1,1714,1163,0,0
497,-139,0,0,0,0,0,0,0,0,0,-1,1721,1163,0,0
504,-139,0,0,0,0,0,0,0,0,0,-1,1728,1163,0,0
511,-139,0,0,0,0,0,0,0,0,0,-1,1735,1163,0,0
518,-139,0,0,0,0,0,0,0,0,0,-1,1742,1163,0,0
525,-139,0,0,0,0,0,0,0,0,0,-1,1749,1163,0,0
532,-139,0,0,0,0,0,0,0,0,0,-1,1756,1163,0,0
539,-139,0,0,0,0,0,0,0,0,0,-1,1763,1163,0,0
546,-139,0,0,0,0,0,0,0,0,0,-1,1770,1163,0,0
553,-139,0,0,0,0,0,0,0,0,0,-1,1777,1163,0,0
560,-139,0,0,0,0,0,0,0,0,0,-1,1784,1163,0,0
567,-139,0,0,0,0,0,0,0,0,0,-1,1791,1163,0,0
574,-139,0,0,0,0,0,0,0,0,0,-1,1798,1163,0,0
581,-139,0,0,0,0,0,0,0,0,0,-1,1805,1163,0,0
588,-139,0,0,0,0,0,0,0,0,0,-1,1812,1163,0,0
595,-139,0,0,0,0,0,0,0,0,0,-1,1819,1163,0,0
602,-139,0,0,0,0,0,0,0,0,0,-1,1826,1163,0,0
609,-139,0,0,0,0,0,0,0,0,0,-1,1833,1163,0,0
616,-139,0,0,0,0,0,0,0,0,0,-1,1840,1163,0,0
623,-139,0,0,0,0,0,0,0,0,0,-1,1847,1163,0,0
630,-139,0,0,0,0,0,0,0,0,0,-1,1854,1163,0,0
637,-139,0,0,0,0,0,0,0,0,0,-1,1861,1163,0,0
644,-139,52.9808,2.62817,-0.00443239,6.38808e-05,0.00404235,0.00244119,-0.00680969,1.03917,0.00553594,0.040968,1868,1163,52.9808,-2.62822
651,-139,52.9725,2.547,-0.00346326,0.000253881,0.00278715,0.00174531,-0.00495469,1.07946,0.00401345,0.0422391,1875,1163,52.9726,-2.54704
658,-139,52.8636,2.68079,-0.00224281,0.00041172,0.00170888,0.00124822,-0.00307932,1.11558,0.00257198,0.0411229,1882,1163,52.8636,-2.68081
665,-139,52.8538,2.8606,-0.000937049,0.000581837,0.000706178,0.000859429,-0.00121464,1.19626,0.0012033,0.0413999,1889,1163,52.8537,-2.86057
672,-139,52.8556,2.77649,6.28225e-05,0.000775764,-4.26201e-05,0.000778303,6.02837e-05,-1.5113,0.000499987,0.0383687,1896,1163,52.8556,-2.77654
679,-139,52.9182,2.68457,0.000512369,0.000671595,-0.00031407,0.000915985,0.000267979,-0.909528,0.000543804,0.0356939,1903,1163,52.9182,-2.68456
686,-139,52.8368,2.69397,0.000656974,0.000322107,-0.00022879,0.000773052,0.000206029,-0.469516,0.000462258,0.0326113,1910,1163,52.8368,-2.69401
693,-139,52.881,2.66833,0.000578439,0.000144928,-0.000101865,0.000601182,0.000122185,-0.219662,0.000366905,0.0209222,1917,1163,52.8809,-2.6683
700,-139,52.9639,2.54138,0,0,0,0,0,0,0,-1,1924,1163,52.9639,-2.54143
707,-139,32.116,6.54346,0,0,0,0,0,0,0,-1,1931,1163,32.116,-6.54343
714,-139,46.8461,8.32263,0,0,0,0,0,0,0,-1,1938,1163,46.8461,-8.32268
721,-139,47.0273,7.74768,0.000133838,-0.000134187,0.000602265,0.00061682,-0.00061717,0.675925,0.000712444,0.0342556,1945,1163,47.0274,-7.74763
728,-139,46.8763,7.46179,-0.000108631,-0.000164258,0.00095032,0.000814283,-0.00108717,0.770769,0.00110157,0.0429253,1952,1163,46.8764,-7.46176
735,-139,46.7551,7.14905,-0.000469134,-0.000228027,0.000956518,0.000615504,-0.00131267,0.848084,0.00113723,0.031976,1959,1163,46.7551,-7.14906
742,-139,46.901,6.56482,-0.000788514,-5.16011e-05,0.000989161,0.000635499,-0.00147561,0.963684,0.00125061,0.0244904,1966,1163,46.901,-6.56479
749,-139,46.8909,6.08667,-0.00141581,0.000343466,0.000800335,0.000653071,-0.00172542,1.20168,0.00141898,0.0212134,1973,1163,46.8909,-6.08666
756,-139,46.8333,5.69373,-0.00159964,0.000607038,0.000410289,0.000680854,-0.00167345,1.39279,0.00139895,0.011762,1980,1163,46.8332,-5.69372
763,-139,46.8069,5.30054,-0.000868179,0.00050263,-0.000357158,0.000590104,-0.000955653,-1.33061,0.000900723,0.0119172,1987,1163,46.8069,-5.30057
770,-139,46.8062,4.9176,-1.25646e-05,-0.000116261,-0.00117294,0.00110968,-0.0012385,-0.763311,0.0013564,0.014212,1994,1163,46.8062,-4.91757
777,-139,46.7874,4.5824,0.00123437,-0.00142633,-0.00211651,0.0024039,-0.00259586,-0.504821,0.00288733,0.0268842,2001,1163,46.7873,-4.58242
784,-139,46.6995,4.06018,0.00298821,-0.00377473,-0.00326755,0.004309,-0.00509552,-0.384133,0.00543603,0.0452046,2008,1163,46.6994,-4.06024
791,-139,46.6521,3.48877,0,0,0,0,0,0,0,-1,2015,1163,46.6521,-3.48874
798,-139,45.9346,0.803467,0.00945352,-0.0126821,-0.00639631,0.0111689,-0.0143974,-0.262013,0.0147999,0.0494941,2022,1163,45.9346,-0.803438
805,-139,45.5586,0.752808,0.01424,-0.0195055,-0.00825738,0.0161522,-0.0214177,-0.227562,0.0217619,0.047041,2029,1163,45.5586,-0.752819
812,-139,0,0,0,0,0,0,0,0,0,-1,2036,1163,0,0
-700,-146,0,0,0,0,0,0,0,0,0,-1,524,1170,0,0
-693,-146,-32.0816,-3.72876,0,0,0,0,0,0,0,-1,531,1170,-32.0816,3.72878
-686,-146,-32.261,-2.99121,0.003118,0.031436,0.00985567,0.0345285,2.55797e-05,1.26675,0.0230105,0.0495371,538,1170,-32.261,2.99116
-679,-146,-32.2234,-2.2428,0,0,0,0,0,0,0,-1,545,1170,-32.2235,2.24286
-672,-146,-32.3958,-1.65747,0.00519044,0.0154933,0.00876852,0.0205116,0.000172097,1.05098,0.0136174,0.0454347,552,1170,-32.3958,1.65744
-665,-146,-32.5051,-0.858154,0.00444598,0.0108642,0.00773058,0.0160253,-0.000715093,0.982135,0.0109297,0.0477651,559,1170,-32.5051,0.858139
-658,-146,-32.5411,0.000976563,0,0,0,0,0,0,0,-1,566,1170,-32.5411,-0.000965718
-651,-146,-32.5411,0.870605,0.00197651,0.00539654,0.00515275,0.00911562,-0.00174257,0.945612,0.00673352,0.0407699,573,1170,-32.5411,-0.87062
-644,-146,-32.5355,1.66675,0.0007496,0.00382994,0.00377433,0.00636624,-0.00178671,0.979118,0.00494845,0.0226974,580,1170,-32.5355,-1.66669
-637,-146,-32.6055,2.15564,-6.17986e-05,0.00231228,0.00237235,0.003778,-0.00152752,1.01737,0.00315366,0.0117801,587,1170,-32.6055,-2.15567
-630,-146,-32.6467,2.61743,-0.000969255,0.00116389,0.000998212,0.00155814,-0.00136351,1.19465,0.00168806,0.0104242,594,1170,-32.6467,-2.61746
-623,-146,-32.6811,3.08203,-0.00170294,0.000841167,-0.000200035,0.000856799,-0.00171857,-1.49281,0.00151438,0.012742,601,1170,-32.6811,-3.08209
-616,-146,-32.7608,3.57776,-0.00161765,0.000228928,-0.00126303,0.000870158,-0.00225888,-1.10102,0.00186492,0.0183878,608,1170,-32.7608,-3.57777
-609,-146,-32.52,4.15186,-0.00142344,-0.000350686,-0.00173634,0.000930236,-0.00270436,-0.935205,0.00218017,0.0285894,615,1170,-32.52,-4.15188
-602,-146,-32.7235,4.64966,0,0,0,0,0,0,0,-1,622,1170,-32.7235,-4.64968
-595,-146,-32.8753,5.03552,0,0,0,0,0,0,0,-1,629,1170,-32.8753,-5.03552
-588,-146,-33.0854,5.38745,0,0,0,0,0,0,0,-1,636,1170,-33.0854,-5.38742
-581,-146,-31.7815,6.30347,0,0,0,0,0,0,0,-1,643,1170,-31.7815,-6.3035
-574,-146,-17.9915,3.79114,0,0,0,0,0,0,0,-1,650,1170,-17.9915,-3.79118
-567,-146,-39.3557,0.738525,0,0,0,0,0,0,0,-1,657,1170,-39.3557,-0.73848
-560,-146,-39.3766,0.899414,-0.00211774,-0.0006015,-0.00216488,0.00093417,-0.00365341,-0.95382,0.00279944,0.0432075,664,1170,-39.3766,-0.899356
-553,-146,-39.3427,0.815918,-0.00256644,-0.000370046,-0.00230062,0.00108105,-0.00401753,-1.00808,0.00310214,0.0404691,671,1170,-39.3427,-0.81596
-546,-146,-39.2447,0.683716,-0.00243519,2.87498e-05,-0.00230235,0.00140802,-0.00381446,-1.03106,0.00312007,0.0427509,678,1170,-39.2447,-0.683731
-539,-146,-39.3533,0.718628,-0.00213165,0.000662439,-0.00263526,0.00224807,-0.00371728,-1.02913,0.00347874,0.0415956,685,1170,-39.3533,-0.718679
-532,-146,-39.8754,0.991699,-0.00145226,0.00138153,-0.00358606,0.00382047,-0.00389119,-0.973541,0.00445239,0.0401228,692,1170,-39.8754,-0.991676
-525,-146,-40.0334,1.06897,0,0,0,0,0,0,0,-1,699,1170,-40.0334,-1.06896
-518,-146,0,0,0,0,0,0,0,0,0,-1,706,1170,0,0
-511,-146,0,0,0,0,0,0,0,0,0,-1,713,1170,0,0
-504,-146,0,0,0,0,0,0,0,0,0,-1,720,1170,0,0
-497,-146,0,0,0,0,0,0,0,0,0,-1,727,1170,0,0
-490,-146,0,0,0,0,0,0,0,0,0,-1,734,1170,0,0
-483,-146,0,0,0,0,0,0,0,0,0,-1,741,1170,0,0
-476,-146,0,0,0,0,0,0,0,0,0,-1,748,1170,0,0
-469,-146,0,0,0,0,0,0,0,0,0,-1,755,1170,0,0
-462,-146,0,0,0,0,0,0,0,0,0,-1,762,1170,0,0
-455,-146,0,0,0,0,0,0,0,0,0,-1,769,1170,0,0
-448,-146,0,0,0,0,0,0,0,0,0,-1,776,1170,0,0
-441,-146,0,0,0,0,0,0,0,0,0,-1,783,1170,0,0
-434,-146,0,0,0,0,0,0,0,0,0,-1,790,1170,0,0
-427,-146,0,0,0,0,0,0,0,0,0,-1,797,1170,0,0
-420,-146,0,0,0,0,0,0,0,0,0,-1,804,1170,0,0
-413,-146,0,0,0,0,0,0,0,0,0,-1,811,1170,0,0
-406,-146,0,0,0,0,0,0,0,0,0,-1,818,1170,0,0
-399,-146,0,0,0,0,0,0,0,0,0,-1,825,1170,0,0
-392,-146,0,0,0,0,0,0,0,0,0,-1,832,1170,0,0
-385,-146,0,0,0,0,0,0,0,0,0,-1,839,1170,0,0
-378,-146,0,0,0,0,0,0,0,0,0,-1,846,1170,0,0
-371,-146,0,0,0,0,0,0,0,0,0,-1,853,1170,0,0
-364,-146,0,0,0,0,0,0,0,0,0,-1,860,1170,0,0
-357,-146,0,0,0,0,0,0,0,0,0,-1,867,1170,0,0
-350,-146,0,0,0,0,0,0,0,0,0,-1,874,1170,0,0
-343,-146,0,0,0,0,0,0,0,0,0,-1,881,1170,0,0
-336,-146,0,0,0,0,0,0,0,0,0,-1,888,1170,0,0
-329,-146,0,0,0,0,0,0,0,0,0,-1,895,1170,0,0
-322,-146,0,0,0,0,0,0,0,0,0,-1,902,1170,0,0
-315,-146,0,0,0,0,0,0,0,0,0,-1,909,1170,0,0
-308,-146,0,0,0,0,0,0,0,0,0,-1,916,1170,0,0
-301,-146,0,0,0,0,0,0,0,0,0,-1,923,1170,0,0
-294,-146,0,0,0,0,0,0,0,0,0,-1,930,1170,0,0
-287,-146,0,0,0,0,0,0,0,0,0,-1,937,1170,0,0
-280,-146,0,0,0,0,0,0,0,0,0,-1,944,1170,0,0
-273,-146,0,0,0,0,0,0,0,0,0,-1,951,1170,0,0
-266,-146,0,0,0,0,0,0,0,0,0,-1,958,1170,0,0
-259,-146,0,0,0,0,0,0,0,0,0,-1,965,1170,0,0
-252,-146,0,0,0,0,0,0,0,0,0,-1,972,1170,0,0
-245,-146,0,0,0,0,0,0,0,0,0,-1,979,1170,0,0
-238,-146,0,0,0,0,0,0,0,0,0,-1,986,1170,0,0
-231,-146,0,0,0,0,0,0,0,0,0,-1,993,1170,0,0
-224,-146,0,0,0,0,0,0,0,0,0,-1,1000,1170,0,0
-217,-146,0,0,0,0,0,0,0,0,0,-1,1007,1170,0,0
-210,-146,0,0,0,0,0,0,0,0,0,-1,1014,1170,0,0
-203,-146,0,0,0,0,0,0,0,0,0,-1,1021,1170,0,0
-196,-146,0,0,0,0,0,0,0,0,0,-1,1028,1170,0,0
-189,-146,0,0,0,0,0,0,0,0,0,-1,1035,1170,0,0
-182,-146,0,0,0,0,0,0,0,0,0,-1,1042,1170,0,0
-175,-146,0,0,0,0,0,0,0,0,0,-1,1049,1170,0,0
-168,-146,0,0,0,0,0,0,0,0,0,-1,1056,1170,0,0
-161,-146,0,0,0,0,0,0,0,0,0,-1,1063,1170,0,0
-154,-146,0,0,0,0,0,0,0,0,0,-1,1070,1170,0,0
-147,-146,0,0,0,0,0,0,0,0,0,-1,1077,1170,0,0
-140,-146,0,0,0,0,0,0,0,0,0,-1,1084,1170,0,0
-133,-146,0,0,0,0,0,0,0,0,0,-1,1091,1170,0,0
-126,-146,0,0,0,0,0,0,0,0,0,-1,1098,1170,0,0
-119,-146,0,0,0,0,0,0,0,0,0,-1,1105,1170,0,0
-112,-146,0,0,0,0,0,0,0,0,0,-1,1112,1170,0,0
-105,-146,0,0,0,0,0,0,0,0,0,-1,1119,1170,0,0
-98,-146,0,0,0,0,0,0,0,0,0,-1,1126,1170,0,0
-91,-146,0,0,0,0,0,0,0,0,0,-1,1133,1170,0,0
-84,-146,0,0,0,0,0,0,0,0,0,-1,1140,1170,0,0
-77,-146,0,0,0,0,0,0,0,0,0,-1,1147,1170,0,0
-70,-146,0,0,0,0,0,0,0,0,0,-1,1154,1170,0,0
-63,-146,0,0,0,0,0,0,0,0,0,-1,1161,1170,0,0
-56,-146,0,0,0,0,0,0,0,0,0,-1,1168,1170,0,0
-49,-146,0,0,0,0,0,0,0,0,0,-1,1175,1170,0,0
-42,-146,0,0,0,0,0,0,0,0,0,-1,1182,1170,0,0
-35,-146,0,0,0,0,0,0,0,0,0,-1,1189,1170,0,0
-28,-146,0,0,0,0,0,0,0,0,0,-1,1196,1170,0,0
-21,-146,0,0,0,0,0,0,0,0,0,-1,1203,1170,0,0
-14,-146,0,0,0,0,0,0,0,0,0,-1,1210,1170,0,0
-7,-146,0,0,0,0,0,0,0,0,0,-1,1217,1170,0,0
0,-146,0,0,0,0,0,0,0,0,0,-1,1224,1170,0,0
7,-146,0,0,0,0,0,0,0,0,0,-1,1231,1170,0,0
14,-146,0,0,0,0,0,0,0,0,0,-1,1238,1170,0,0
21,-146,0,0,0,0,0,0,0,0,0,-1,1245,1170,0,0
28,-146,0,0,0,0,0,0,0,0,0,-1,1252,1170,0,0
35,-146,0,0,0,0,0,0,0,0,0,-1,1259,1170,0,0
42,-146,0,0,0,0,0,0,0,0,0,-1,1266,1170,0,0
49,-146,0,0,0,0,0,0,0,0,0,-1,1273,1170,0,0
56,-146,0,0,0,0,0,0,0,0,0,-1,1280,1170,0,0
63,-146,0,0,0,0,0,0,0,0,0,-1,1287,1170,0,0
70,-146,0,0,0,0,0,0,0,0,0,-1,1294,1170,0,0
77,-146,0,0,0,0,0,0,0,0,0,-1,1301,1170,0,0
84,-146,0,0,0,0,0,0,0,0,0,-1,1308,1170,0,0
91,-146,0,0,0,0,0,0,0,0,0,-1,1315,1170,0,0
98,-146,0,0,0,0,0,0,0,0,0,-1,1322,1170,0,0
105,-146,0,0,0,0,0,0,0,0,0,-1,1329,1170,0,0
112,-146,0,0,0,0,0,0,0,0,0,-1,1336,1170,0,0
119,-146,0,0,0,0,0,0,0,0,0,-1,1343,1170,0,0
126,-146,0,0,0,0,0,0,0,0,0,-1,1350,1170,0,0
133,-146,0,0,0,0,0,0,0,0,0,-1,1357,1170,0,0
140,-146,0,0,0,0,0,0,0,0,0,-1,1364,1170,0,0
147,-146,0,0,0,0,0,0,0,0,0,-1,1371,1170,0,0
154,-146,0,0,0,0,0,0,0,0,0,-1,1378,1170,0,0
161,-146,0,0,0,0,0,0,0,0,0,-1,1385,1170,0,0
168,-146,0,0,0,0,0,0,0,0,0,-1,1392,1170,0,0
175,-146,0,0,0,0,0,0,0,0,0,-1,1399,1170,0,0
182,-146,0,0,0,0,0,0,0,0,0,-1,1406,1170,0,0
189,-146,0,0,0,0,0,0,0,0,0,-1,1413,1170,0,0
196,-146,0,0,0,0,0,0,0,0,0,-1,1420,1170,0,0
203,-146,0,0,0,0,0,0,0,0,0,-1,1427,1170,0,0
210,-146,0,0,0,0,0,0,0,0,0,-1,1434,1170,0,0
217,-146,0,0,0,0,0,0,0,0,0,-1,1441,1170,0,0
224,-146,0,0,0,0,0,0,0,0,0,-1,1448,1170,0,0
231,-146,0,0,0,0,0,0,0,0,0,-1,1455,1170,0,0
238,-146,0,0,0,0,0,0,0,0,0,-1,1462,1170,0,0
245,-146,0,0,0,0,0,0,0,0,0,-1,1469,1170,0,0
252,-146,0,0,0,0,0,0,0,0,0,-1,1476,1170,0,0
259,-146,0,0,0,0,0,0,0,0,0,-1,1483,1170,0,0
266,-146,0,0,0,0,0,0,0,0,0,-1,1490,1170,0,0
273,-146,0,0,0,0,0,0,0,0,0,-1,1497,1170,0,0
280,-146,0,0,0,0,0,0,0,0,0,-1,1504,1170,0,0
287,-146,0,0,0,0,0,0,0,0,0,-1,1511,1170,0,0
294,-146,0,0,0,0,0,0,0,0,0,-1,1518,1170,0,0
301,-146,0,0,0,0,0,0,0,0,0,-1,1525,1170,0,0
308,-146,0,0,0,0,0,0,0,0,0,-1,1532,1170,0,0
315,-146,0,0,0,0,0,0,0,0,0,-1,1539,1170,0,0
322,-146,0,0,0,0,0,0,0,0,0,-1,1546,1170,0,0
329,-146,0,0,0,0,0,0,0,0,0,-1,1553,1170,0,0
336,-146,0,0,0,0,0,0,0,0,0,-1,1560,1170,0,0
343,-146,0,0,0,0,0,0,0,0,0,-1,1567,1170,0,0
350,-146,0,0,0,0,0,0,0,0,0,-1,1574,1170,0,0
357,-146,0,0,0,0,0,0,0,0,0,-1,1581,1170,0,0
364,-146,0,0,0,0,0,0,0,0,0,-1,1588,1170,0,0
371,-146,0,0,0,0,0,0,0,0,0,-1,1595,1170,0,0
378,-146,0,0,0,0,0,0,0,0,0,-1,1602,1170,0,0
385,-146,0,0,0,0,0,0,0,0,0,-1,1609,1170,0,0
392,-146,0,0,0,0,0,0,0,0,0,-1,1616,1170,0,0
399,-146,0,0,0,0,0,0,0,0,0,-1,1623,1170,0,0
406,-146,0,0,0,0,0,0,0,0,0,-1,1630,1170,0,0
413,-146,0,0,0,0,0,0,0,0,0,-1,1637,1170,0,0
420,-146,0,0,0,0,0,0,0,0,0,-1,1644,1170,0,0
427,-146,0,0,0,0,0,0,0,0,0,-1,1651,1170,0,0
434,-146,0,0,0,0,0,0,0,0,0,-1,1658,1170,0,0
441,-146,0,0,0,0,0,0,0,0,0,-1,1665,1170,0,0
448,-146,0,0,0,0,0,0,0,0,0,-1,1672,1170,0,0
455,-146,0,0,0,0,0,0,0,0,0,-1,1679,1170,0,0
462,-146,0,0,0,0,0,0,0,0,0,-1,1686,1170,0,0
469,-146,0,0,0,0,0,0,0,0,0,-1,1693,1170,0,0
476,-146,0,0,0,0,0,0,0,0,0,-1,1700,1170,0,0
483,-146,0,0,0,0,0,0,0,0,0,-1,1707,1170,0,0
490,-146,0,0,0,0,0,0,0,0,0,-1,1714,1170,0,0
497,-146,0,0,0,0,0,0,0,0,0,-1,1721,1170,0,0
504,-146,0,0,0,0,0,0,0,0,0,-1,1728,1170,0,0
511,-146,0,0,0,0,0,0,0,0,0,-1,1735,1170,0,0
518,-146,0,0,0,0,0,0,0,0,0,-1,1742,1170,0,0
525,-146,0,0,0,0,0,0,0,0,0,-1,1749,1170,0,0
532,-146,0,0,0,0,0,0,0,0,0,-1,1756,1170,0,0
539,-146,0,0,0,0,0,0,0,0,0,-1,1763,1170,0,0
546,-146,0,0,0,0,0,0,0,0,0,-1,1770,1170,0,0
553,-146,0,0,0,0,0,0,0,0,0,-1,1777,1170,0,0
560,-146,0,0,0,0,0,0,0,0,0,-1,1784,1170,0,0
567,-146,0,0,0,0,0,0,0,0,0,-1,1791,1170,0,0
574,-146,0,0,0,0,0,0,0,0,0,-1,1798,1170,0,0
581,-146,0,0,0,0,0,0,0,0,0,-1,1805,1170,0,0
588,-146,0,0,0,0,0,0,0,0,0,-1,1812,1170,0,0
595,-146,0,0,0,0,0,0,0,0,0,-1,1819,1170,0,0
602,-146,0,0,0,0,0,0,0,0,0,-1,1826,1170,0,0
609,-146,0,0,0,0,0,0,0,0,0,-1,1833,1170,0,0
616,-146,0,0,0,0,0,0,0,0,0,-1,1840,1170,0,0
623,-146,0,0,0,0,0,0,0,0,0,-1,1847,1170,0,0
630,-146,0,0,0,0,0,0,0,0,0,-1,1854,1170,0,0
637,-146,52.7957,2.51965,-0.00523239,-0.000144572,0.00488716,0.00282113,-0.00819809,1.02537,0.0066096,0.0384207,1861,1170,52.7956,-2.51966
644,-146,52.8323,2.59436,-0.00448389,4.51868e-05,0.00368893,0.0021092,-0.00654791,1.06068,0.00521258,0.0404679,1868,1170,52.8323,-2.59441
651,-146,52.9429,2.64294,-0.00342728,0.000287053,0.00246982,0.00152004,-0.00466027,1.10777,0.00371857,0.0394116,1875,1170,52.9429,-2.64289
658,-146,53.0082,2.71924,-0.00214508,0.000509053,0.00136254,0.00108399,-0.00272001,1.1715,0.00226294,0.0394384,1882,1170,53.0082,-2.71926
665,-146,52.9613,2.72974,-0.000768928,0.000746371,0.000309912,0.000807305,-0.000829862,1.37666,0.000945248,0.0383015,1889,1170,52.9613,-2.72973
672,-146,52.8519,2.72229,0.000208035,0.00100859,-0.000433602,0.00119842,1.81999e-05,-1.15813,0.000792952,0.0364922,1896,1170,52.8519,-2.72232
679,-146,52.8843,2.62,0.000639007,0.00090453,-0.000646346,0.00143161,0.000111929,-0.886691,0.00091937,0.0307294,1903,1170,52.8843,-2.62004
686,-146,52.8248,2.57471,0.000705064,0.000528887,-0.00044822,0.00107377,0.000160182,-0.68837,0.000668877,0.0234583,1910,1170,52.8249,-2.57469
693,-146,52.9078,2.55286,0.000527079,0.000355637,-0.000245663,0.000701547,0.000181168,-0.617534,0.000420525,0.015275,1917,1170,52.9079,-2.5528
700,-146,52.9888,2.37573,0,0,0,0,0,0,0,-1,1924,1170,52.9888,-2.37569
707,-146,29.9441,6.94653,0,0,0,0,0,0,0,-1,1931,1170,29.9441,-6.94652
714,-146,31.325,6.13245,0,0,0,0,0,0,0,-1,1938,1170,31.325,-6.1325
721,-146,46.5586,7.61707,0,0,0,0,0,0,0,-1,1945,1170,46.5586,-7.61712
728,-146,46.4031,7.63574,0,0,0,0,0,0,0,-1,1952,1170,46.4031,-7.63574
735,-146,46.3607,7.0603,-0.000371073,-0.000260813,0.00107066,0.000756133,-0.00138802,0.811121,0.00125572,0.0319941,1959,1170,46.3607,-7.06028
742,-146,46.4449,6.58154,-0.000705591,-0.000121798,0.0010873,0.000712109,-0.0015395,0.916536,0.0013289,0.0185787,1966,1170,46.4449,-6.58157
749,-146,46.4258,6.13196,-0.00134006,0.000284386,0.000789499,0.000604866,-0.00166054,1.18519,0.00135444,0.0168137,1973,1170,46.4257,-6.132
756,-146,46.3931,5.70471,-0.00169552,0.000609465,0.000155879,0.000619959,-0.00170601,1.50358,0.00139084,0.0125721,1980,1170,46.3931,-5.70471
763,-146,46.3439,5.28467,-0.00139418,0.000596409,-0.00089813,0.00094173,-0.0017395,-1.20373,0.00157068,0.0122354,1987,1170,46.3439,-5.28462
770,-146,46.3353,4.87878,-0.001141,0.000107178,-0.00204541,0.00162159,-0.00265541,-0.933471,0.00249326,0.0141801,1994,1170,46.3353,-4.87873
777,-146,46.3258,4.56396,-0.000749621,-0.00102088,-0.00337349,0.00249097,-0.00426147,-0.765306,0.00394294,0.0254024,2001,1170,46.3258,-4.56402
784,-146,46.177,4.07031,0,0,0,0,0,0,0,-1,2008,1170,46.177,-4.07037
791,-146,45.824,2.25452,0,0,0,0,0,0,0,-1,2015,1170,45.824,-2.25446
798,-146,45.5698,0.968384,0,0,0,0,0,0,0,-1,2022,1170,45.5699,-0.968324
805,-146,45.3342,-0.290527,0,0,0,0,0,0,0,-1,2029,1170,45.3342,0.290515
812,-146,0,0,0,0,0,0,0,0,0,-1,2036,1170,0,0
-700,-153,0,0,0,0,0,0,0,0,0,-1,524,1177,0,0
-693,-153,0,0,0,0,0,0,0,0,0,-1,531,1177,0,0
-686,-153,-32.046,-3.34692,0,0,0,0,0,0,0,-1,538,1177,-32.046,3.34687
-679,-153,-31.5963,-2.42346,0,0,0,0,0,0,0,-1,545,1177,-31.5962,2.42347
-672,-153,-31.6223,-1.72571,0,0,0,0,0,0,0,-1,552,1177,-31.6222,1.72576
-665,-153,-31.7988,-0.932861,0,0,0,0,0,0,0,-1,559,1177,-31.7988,0.932843
-658,-153,-31.9345,0.151245,0,0,0,0,0,0,0,-1,566,1177,-31.9345,-0.151268
-651,-153,-32.1155,0.874268,0.0037643,0.00419573,0.00600882,0.00999271,-0.00203268,0.80334,0.0074326,0.0492457,573,1177,-32.1155,-0.874208
-644,-153,-32.0622,1.64832,0.001876,0.00308212,0.00447202,0.00699156,-0.00203344,0.85242,0.00546641,0.0302857,580,1177,-32.0622,-1.64832
-637,-153,-32.1125,2.15063,0.00053594,0.00194764,0.00288708,0.00421391,-0.00173033,0.905289,0.00353034,0.0123337,587,1177,-32.1125,-2.15067
-630,-153,-32.1464,2.61438,-0.000774065,0.00104109,0.00134601,0.00175691,-0.00148989,1.08202,0.00187666,0.0101789,594,1177,-32.1464,-2.61444
-623,-153,-32.1772,3.08057,-0.00180009,0.000877716,-6.73463e-05,0.000879408,-0.00180178,-1.54567,0.00157822,0.0106186,601,1177,-32.1772,-3.08056
-616,-153,-32.2055,3.55176,-0.00189302,0.000379525,-0.0013992,0.00104571,-0.00255921,-1.12643,0.00214158,0.0135175,608,1177,-32.2055,-3.55181
-609,-153,-32.1586,4.00989,-0.00175874,-0.000194648,-0.00204662,0.00121425,-0.00316764,-0.967896,0.00261233,0.024467,615,1177,-32.1586,-4.00986
-602,-153,-32.0757,4.44177,0,0,0,0,0,0,0,-1,622,1177,-32.0757,-4.44178
-595,-153,-32.4695,5.11584,0,0,0,0,0,0,0,-1,629,1177,-32.4695,-5.11581
-588,-153,-32.348,5.51038,0,0,0,0,0,0,0,-1,636,1177,-32.348,-5.51034
-581,-153,-31.3984,6.18799,0,0,0,0,0,0,0,-1,643,1177,-31.3985,-6.18796
-574,-153,-25.4814,5.16956,0,0,0,0,0,0,0,-1,650,1177,-25.4814,-5.16961
-567,-153,-35.3121,1.09485,0,0,0,0,0,0,0,-1,657,1177,-35.3121,-1.09482
-560,-153,-39.3129,0.740723,0,0,0,0,0,0,0,-1,664,1177,-39.3129,-0.740734
-553,-153,-39.2145,0.577271,-0.00272716,-0.000506213,-0.00278806,0.00138439,-0.00461776,-0.974916,0.00362908,0.0390382,671,1177,-39.2145,-0.577314
-546,-153,-38.9859,0.397217,-0.00237528,-0.000224914,-0.00270358,0.00160944,-0.00420963,-0.974654,0.00346964,0.0412156,678,1177,-38.9859,-0.397238
-539,-153,-39.4406,0.671631,-0.00186003,0.000345015,-0.00270254,0.00216127,-0.00367628,-0.979072,0.00340794,0.0406559,685,1177,-39.4406,-0.67159
-532,-153,-40.3214,0.969604,0,0,0,0,0,0,0,-1,692,1177,-40.3214,-0.969654
-525,-153,-39.5016,1.12183,0,0,0,0,0,0,0,-1,699,1177,-39.5017,-1.12177
-518,-153,0,0,0,0,0,0,0,0,0,-1,706,1177,0,0
-511,-153,0,0,0,0,0,0,0,0,0,-1,713,1177,0,0
-504,-153,0,0,0,0,0,0,0,0,0,-1,720,1177,0,0
-497,-153,0,0,0,0,0,0,0,0,0,-1,727,1177,0,0
-490,-153,0,0,0,0,0,0,0,0,0,-1,734,1177,0,0
-483,-153,0,0,0,0,0,0,0,0,0,-1,741,1177,0,0
-476,-153,0,0,0,0,0,0,0,0,0,-1,748,1177,0,0
-469,-153,0,0,0,0,0,0,0,0,0,-1,755,1177,0,0
-462,-153,0,0,0,0,0,0,0,0,0,-1,762,1177,0,0
-455,-153,0,0,0,0,0,0,0,0,0,-1,769,1177,0,0
-448,-153,0,0,0,0,0,0,0,0,0,-1,776,1177,0,0
-441,-153,0,0,0,0,0,0,0,0,0,-1,783,1177,0,0
-434,-153,0,0,0,0,0,0,0,0,0,-1,790,1177,0,0
-427,-153,0,0,0,0,0,0,0,0,0,-1,797,1177,0,0
-420,-153,0,0,0,0,0,0,0,0,0,-1,804,1177,0,0
-413,-153,0,0,0,0,0,0,0,0,0,-1,811,1177,0,0
-406,-153,0,0,0,0,0,0,0,0,0,-1,818,1177,0,0
-399,-153,0,0,0,0,0,0,0,0,0,-1,825,1177,0,0
-392,-153,0,0,0,0,0,0,0,0,0,-1,832,1177,0,0
-385,-153,0,0,0,0,0,0,0,0,0,-1,839,1177,0,0
-378,-153,0,0,0,0,0,0,0,0,0,-1,846,1177,0,0
-371,-153,0,0,0,0,0,0,0,0,0,-1,853,1177,0,0
-364,-153,0,0,0,0,0,0,0,0,0,-1,860,1177,0,0
-357,-153,0,0,0,0,0,0,0,0,0,-1,867,1177,0,0
-350,-153,0,0,0,0,0,0,0,0,0,-1,874,1177,0,0
-343,-153,0,0,0,0,0,0,0,0,0,-1,881,1177,0,0
-336,-153,0,0,0,0,0,0,0,0,0,-1,888,1177,0,0
-329,-153,0,0,0,0,0,0,0,0,0,-1,895,1177,0,0
-322,-153,0,0,0,0,0,0,0,0,0,-1,902,1177,0,0
-315,-153,0,0,0,0,0,0,0,0,0,-1,909,1177,0,0
-308,-153,0,0,0,0,0,0,0,0,0,-1,916,1177,0,0
-301,-153,0,0,0,0,0,0,0,0,0,-1,923,1177,0,0
-294,-153,0,0,0,0,0,0,0,0,0,-1,930,1177,0,0
-287,-153,0,0,0,0,0,0,0,0,0,-1,937,1177,0,0
-280,-153,0,0,0,0,0,0,0,0,0,-1,944,1177,0,0
-273,-153,0,0,0,0,0,0,0,0,0,-1,951,1177,0,0
-266,-153,0,0,0,0,0,0,0,0,0,-1,958,1177,0,0
-259,-153,0,0,0,0,0,0,0,0,0,-1,965,1177,0,0
-252,-153,0,0,0,0,0,0,0,0,0,-1,972,1177,0,0
-245,-153,0,0,0,0,0,0,0,0,0,-1,979,1177,0,0
-238,-153,0,0,0,0,0,0,0,0,0,-1,986,1177,0,0
-231,-153,0,0,0,0,0,0,0,0,0,-1,993,1177,0,0
-224,-153,0,0,0,0,0,0,0,0,0,-1,1000,1177,0,0
-217,-153,0,0,0,0,0,0,0,0,0,-1,1007,1177,0,0
-210,-153,0,0,0,0,0,0,0,0,0,-1,1014,1177,0,0
-203,-153,0,0,0,0,0,0,0,0,0,-1,1021,1177,0,0
-196,-153,0,0,0,0,0,0,0,0,0,-1,1028,1177,0,0
-189,-153,0,0,0,0,0,0,0,0,0,-1,1035,1177,0,0
-182,-153,0,0,0,0,0,0,0,0,0,-1,1042,1177,0,0
-175,-153,0,0,0,0,0,0,0,0,0,-1,1049,1177,0,0
-168,-153,0,0,0,0,0,0,0,0,0,-1,1056,1177,0,0
-161,-153,0,0,0,0,0,0,0,0,0,-1,1063,1177,0,0
-154,-153,0,0,0,0,0,0,0,0,0,-1,1070,1177,0,0
-147,-153,0,0,0,0,0,0,0,0,0,-1,1077,1177,0,0
-140,-153,0,0,0,0,0,0,0,0,0,-1,1084,1177,0,0
-133,-153,0,0,0,0,0,0,0,0,0,-1,1091,1177,0,0
-126,-153,0,0,0,0,0,0,0,0,0,-1,1098,1177,0,0
-119,-153,0,0,0,0,0,0,0,0,0,-1,1105,1177,0,0
-112,-153,0,0,0,0,0,0,0,0,0,-1,1112,1177,0,0
-105,-153,0,0,0,0,0,0,0,0,0,-1,1119,1177,0,0
-98,-153,0,0,0,0,0,0,0,0,0,-1,1126,1177,0,0
-91,-153,0,0,0,0,0,0,0,0,0,-1,1133,1177,0,0
-84,-153,0,0,0,0,0,0,0,0,0,-1,1140,1177,0,0
-77,-153,0,0,0,0,0,0,0,0,0,-1,1147,1177,0,0
-70,-153,0,0,0,0,0,0,0,0,0,-1,1154,1177,0,0
-63,-153,0,0,0,0,0,0,0,0,0,-1,1161,1177,0,0
-56,-153,0,0,0,0,0,0,0,0,0,-1,1168,1177,0,0
-49,-153,0,0,0,0,0,0,0,0,0,-1,1175,1177,0,0
-42,-153,0,0,0,0,0,0,0,0,0,-1,1182,1177,0,0
-35,-153,0,0,0,0,0,0,0,0,0,-1,1189,1177,0,0
-28,-153,0,0,0,0,0,0,0,0,0,-1,1196,1177,0,0
-21,-153,0,0,0,0,0,0,0,0,0,-1,1203,1177,0,0
-14,-153,0,0,0,0,0,0,0,0,0,-1,1210,1177,0,0
-7,-153,0,0,0,0,0,0,0,0,0,-1,1217,1177,0,0
0,-153,0,0,0,0,0,0,0,0,0,-1,1224,1177,0,0
7,-153,0,0,0,0,0,0,0,0,0,-1,1231,1177,0,0
14,-153,0,0,0,0,0,0,0,0,0,-1,1238,1177,0,0
21,-153,0,0,0,0,0,0,0,0,0,-1,1245,1177,0,0
28,-153,0,0,0,0,0,0,0,0,0,-1,1252,1177,0,0
35,-153,0,0,0,0,0,0,0,0,0,-1,1259,1177,0,0
42,-153,0,0,0,0,0,0,0,0,0,-1,1266,1177,0,0
49,-153,0,0,0,0,0,0,0,0,0,-1,1273,1177,0,0
56,-153,0,0,0,0,0,0,0,0,0,-1,1280,1177,0,0
63,-153,0,0,0,0,0,0,0,0,0,-1,1287,1177,0,0
70,-153,0,0,0,0,0,0,0,0,0,-1,1294,1177,0,0
77,-153,0,0,0,0,0,0,0,0,0,-1,1301,1177,0,0
84,-153,0,0,0,0,0,0,0,0,0,-1,1308,1177,0,0
91,-153,0,0,0,0,0,0,0,0,0,-1,1315,1177,0,0
98,-153,0,0,0,0,0,0,0,0,0,-1,1322,1177,0,0
105,-153,0,0,0,0,0,0,0,0,0,-1,1329,1177,0,0
112,-153,0,0,0,0,0,0,0,0,0,-1,1336,1177,0,0
119,-153,0,0,0,0,0,0,0,0,0,-1,1343,1177,0,0
126,-153,0,0,0,0,0,0,0,0,0,-1,1350,1177,0,0
133,-153,0,0,0,0,0,0,0,0,0,-1,1357,1177,0,0
140,-153,0,0,0,0,0,0,0,0,0,-1,1364,1177,0,0
147,-153,0,0,0,0,0,0,0,0,0,-1,1371,1177,0,0
154,-153,0,0,0,0,0,0,0,0,0,-1,1378,1177,0,0
161,-153,0,0,0,0,0,0,0,0,0,-1,1385,1177,0,0
168,-153,0,0,0,0,0,0,0,0,0,-1,1392,1177,0,0
175,-153,0,0,0,0,0,0,0,0,0,-1,1399,1177,0,0
182,-153,0,0,0,0,0,0,0,0,0,-1,1406,1177,0,0
189,-153,0,0,0,0,0,0,0,0,0,-1,1413,1177,0,0
196,-153,0,0,0,0,0,0,0,0,0,-1,1420,1177,0,0
203,-153,0,0,0,0,0,0,0,0,0,-1,1427,1177,0,0
210,-153,0,0,0,0,0,0,0,0,0,-1,1434,1177,0,0
217,-153,0,0,0,0,0,0,0,0,0,-1,1441,1177,0,0
224,-153,0,0,0,0,0,0,0,0,0,-1,1448,1177,0,0
231,-153,0,0,0,0,0,0,0,0,0,-1,1455,1177,0,0
238,-153,0,0,0,0,0,0,0,0,0,-1,1462,1177,0,0
245,-153,0,0,0,0,0,0,0,0,0,-1,1469,1177,0,0
252,-153,0,0,0,0,0,0,0,0,0,-1,1476,1177,0,0
259,-153,0,0,0,0,0,0,0,0,0,-1,1483,1177,0,0
266,-153,0,0,0,0,0,0,0,0,0,-1,1490,1177,0,0
273,-153,0,0,0,0,0,0,0,0,0,-1,1497,1177,0,0
280,-153,0,0,0,0,0,0,0,0,0,-1,1504,1177,0,0
287,-153,0,0,0,0,0,0,0,0,0,-1,1511,1177,0,0
294,-153,0,0,0,0,0,0,0,0,0,-1,1518,1177,0,0
301,-153,0,0,0,0,0,0,0,0,0,-1,1525,1177,0,0
308,-153,0,0,0,0,0,0,0,0,0,-1,1532,1177,0,0
315,-153,0,0,0,0,0,0,0,0,0,-1,1539,1177,0,0
322,-153,0,0,0,0,0,0,0,0,0,-1,1546,1177,0,0
329,-153,0,0,0,0,0,0,0,0,0,-1,1553,1177,0,0
336,-153,0,0,0,0,0,0,0,0,0,-1,1560,1177,0,0
343,-153,0,0,0,0,0,0,0,0,0,-1,1567,1177,0,0
350,-153,0,0,0,0,0,0,0,0,0,-1,1574,1177,0,0
357,-153,0,0,0,0,0,0,0,0,0,-1,1581,1177,0,0
364,-153,0,0,0,0,0,0,0,0,0,-1,1588,1177,0,0
371,-153,0,0,0,0,0,0,0,0,0,-1,1595,1177,0,0
378,-153,0,0,0,0,0,0,0,0,0,-1,1602,1177,0,0
385,-153,0,0,0,0,0,0,0,0,0,-1,1609,1177,0,0
392,-153,0,0,0,0,0,0,0,0,0,-1,1616,1177,0,0
399,-153,0,0,0,0,0,0,0,0,0,-1,1623,1177,0,0
406,-153,0,0,0,0,0,0,0,0,0,-1,1630,1177,0,0
413,-153,0,0,0,0,0,0,0,0,0,-1,1637,1177,0,0
420,-153,0,0,0,0,0,0,0,0,0,-1,1644,1177,0,0
427,-153,0,0,0,0,0,0,0,0,0,-1,1651,1177,0,0
434,-153,0,0,0,0,0,0,0,0,0,-1,1658,1177,0,0
441,-153,0,0,0,0,0,0,0,0,0,-1,1665,1177,0,0
448,-153,0,0,0,0,0,0,0,0,0,-1,1672,1177,0,0
455,-153,0,0,0,0,0,0,0,0,0,-1,1679,1177,0,0
462,-153,0,0,0,0,0,0,0,0,0,-1,1686,1177,0,0
469,-153,0,0,0,0,0,0,0,0,0,-1,1693,1177,0,0
476,-153,0,0,0,0,0,0,0,0,0,-1,1700,1177,0,0
483,-153,0,0,0,0,0,0,0,0,0,-1,1707,1177,0,0
490,-153,0,0,0,0,0,0,0,0,0,-1,1714,1177,0,0
497,-153,0,0,0,0,0,0,0,0,0,-1,1721,1177,0,0
504,-153,0,0,0,0,0,0,0,0,0,-1,1728,1177,0,0
511,-153,0,0,0,0,0,0,0,0,0,-1,1735,1177,0,0
518,-153,0,0,0,0,0,0,0,0,0,-1,1742,1177,0,0
525,-153,0,0,0,0,0,0,0,0,0,-1,1749,1177,0,0
532,-153,0,0,0,0,0,0,0,0,0,-1,1756,1177,0,0
539,-153,0,0,0,0,0,0,0,0,0,-1,1763,1177,0,0
546,-153,0,0,0,0,0,0,0,0,0,-1,1770,1177,0,0
553,-153,0,0,0,0,0,0,0,0,0,-1,1777,1177,0,0
560,-153,0,0,0,0,0,0,0,0,0,-1,1784,1177,0,0
567,-153,0,0,0,0,0,0,0,0,0,-1,1791,1177,0,0
574,-153,0,0,0,0,0,0,0,0,0,-1,1798,1177,0,0
581,-153,0,0,0,0,0,0,0,0,0,-1,1805,1177,0,0
588,-153,0,0,0,0,0,0,0,0,0,-1,1812,1177,0,0
595,-153,0,0,0,0,0,0,0,0,0,-1,1819,1177,0,0
602,-153,0,0,0,0,0,0,0,0,0,-1,1826,1177,0,0
609,-153,0,0,0,0,0,0,0,0,0,-1,1833,1177,0,0
616,-153,0,0,0,0,0,0,0,0,0,-1,1840,1177,0,0
623,-153,0,0,0,0,0,0,0,0,0,-1,1847,1177,0,0
630,-153,0,0,0,0,0,0,0,0,0,-1,1854,1177,0,0
637,-153,52.8717,2.4917,-0.00472896,2.11277e-05,0.00459255,0.00281641,-0.00752424,1.02404,0.00617298,0.041026,1861,1177,52.8717,-2.49173
644,-153,52.8286,2.60522,-0.0040149,0.000170653,0.0034087,0.00207774,-0.00592199,1.06071,0.00479311,0.0399446,1868,1177,52.8286,-2.60519
651,-153,52.8647,2.61292,-0.00298588,0.000410189,0.00218699,0.00148095,-0.00405664,1.1155,0.0033104,0.0334591,1875,1177,52.8648,-2.61292
658,-153,52.8801,2.66272,-0.00170836,0.000639987,0.00102041,0.00102142,-0.00208979,1.21307,0.00183122,0.0368101,1882,1177,52.8801,-2.66272
665,-153,52.8622,2.69653,-0.000327404,0.000815645,-7.43924e-05,0.000820466,-0.000332226,-1.50608,0.000685117,0.0370782,1889,1177,52.8622,-2.69656
672,-153,52.7695,2.70239,0.000586687,0.000982717,-0.000776334,0.00158589,-1.64873e-05,-0.910268,0.0010628,0.0377302,1896,1177,52.7695,-2.70241
679,-153,52.7827,2.59705,0.000966119,0.000740424,-0.000915052,0.00177526,-6.87127e-05,-0.724046,0.00120706,0.0300271,1903,1177,52.7827,-2.59701
686,-153,52.8593,2.58887,0.000953778,0.000282893,-0.00062137,0.00132447,-8.77964e-05,-0.537892,0.000913651,0.0184921,1910,1177,52.8592,-2.5889
693,-153,52.9431,2.53674,0.000722898,8.8784e-05,-0.000362423,0.000887376,-7.56937e-05,-0.426033,0.000618361,0.0335744,1917,1177,52.9431,-2.53671
700,-153,53.0234,2.44739,0,0,0,0,0,0,0,-1,1924,1177,53.0235,-2.4474
707,-153,29.6483,6.6842,0,0,0,0,0,0,0,-1,1931,1177,29.6483,-6.68415
714,-153,36.0046,6.78418,0,0,0,0,0,0,0,-1,1938,1177,36.0046,-6.78418
721,-153,36.4866,6.47595,0,0,0,0,0,0,0,-1,1945,1177,36.4866,-6.47593
728,-153,45.5245,7.04651,0,0,0,0,0,0,0,-1,1952,1177,45.5245,-7.04656
735,-153,45.8541,6.81848,0,0,0,0,0,0,0,-1,1959,1177,45.8541,-6.81848
742,-153,45.9762,6.58459,-0.000541196,-0.00032764,0.00116625,0.00073671,-0.00160555,0.831049,0.00138297,0.0161801,1966,1177,45.9762,-6.58455
749,-153,45.9664,6.17273,-0.00113319,0.000163516,0.000718853,0.000483208,-0.00145288,1.15234,0.0011636,0.0169933,1973,1177,45.9664,-6.17278
756,-153,45.9451,5.7373,-0.00156883,0.000628356,-0.000184125,0.000643679,-0.00158416,-1.48777,0.00132389,0.0112815,1980,1177,45.945,-5.73729
763,-153,45.8917,5.29272,-0.00157078,0.000804688,-0.00158323,0.00159618,-0.00236228,-1.10721,0.00229964,0.0112758,1987,1177,45.8917,-5.29276
770,-153,45.8876,4.86816,-0.00178777,0.000524429,-0.00315237,0.002726,-0.00398935,-0.961153,0.00389991,0.0118623,1994,1177,45.8875,-4.86814
777,-153,45.8778,4.4906,-0.00213622,-0.000344225,-0.00498875,0.00382835,-0.00630879,-0.874253,0.00591079,0.0240744,2001,1177,45.8778,-4.49057
784,-153,45.6016,3.52356,-0.00249268,-0.00221679,-0.00710126,0.00474787,-0.00945733,-0.79511,0.00835026,0.0442435,2008,1177,45.6016,-3.52351
791,-153,45.3958,2.6814,0,0,0,0,0,0,0,-1,2015,1177,45.3957,-2.6814
798,-153,45.0642,1.18958,-0.0024991,-0.0099471,-0.0126118,0.00692706,-0.0193732,-0.641839,0.0157411,0.0453345,2022,1177,45.0643,-1.18956
805,-153,44.8267,-0.164551,0,0,0,0,0,0,0,-1,2029,1177,44.8266,0.164519
812,-153,0,0,0,0,0,0,0,0,0,-1,2036,1177,0,0
-700,-160,0,0,0,0,0,0,0,0,0,-1,524,1184,0,0
-693,-160,0,0,0,0,0,0,0,0,0,-1,531,1184,0,0
-686,-160,-31.8263,-3.64966,0,0,0,0,0,0,0,-1,538,1184,-31.8263,3.64966
-679,-160,-33.3608,-2.81128,0,0,0,0,0,0,0,-1,545,1184,-33.3608,2.81125
-672,-160,-30.8998,-1.77673,0,0,0,0,0,0,0,-1,552,1184,-30.8998,1.77677
-665,-160,-32.5068,-1.46143,0,0,0,0,0,0,0,-1,559,1184,-32.5067,1.46143
-658,-160,-32.0373,-0.609131,0,0,0,0,0,0,0,-1,566,1184,-32.0373,0.609163
-651,-160,-31.6342,1.1626,0,0,0,0,0,0,0,-1,573,1184,-31.6342,-1.16264
-644,-160,-31.5878,1.64954,0.00383528,0.00188179,0.00525911,0.00820758,-0.0024905,0.693582,0.00646385,0.0409117,580,1184,-31.5878,-1.64949
-637,-160,-31.5968,2.14136,0.00179043,0.00127025,0.00350359,0.00504357,-0.00198289,0.748348,0.00418305,0.0153602,587,1184,-31.5968,-2.1413
-630,-160,-31.6631,2.59558,-8.09214e-05,0.000711963,0.00181369,0.00217203,-0.00154099,0.892998,0.00215401,0.00917467,594,1184,-31.6631,-2.59563
-623,-160,-31.706,3.0542,-0.00159485,0.000800492,0.000202731,0.000817529,-0.00161188,1.48696,0.0014274,0.0135998,601,1184,-31.706,-3.05415
-616,-160,-31.718,3.52856,-0.00206722,0.000502537,-0.00140271,0.0011199,-0.00268458,-1.15619,0.00225759,0.0120139,608,1184,-31.7179,-3.52859
-609,-160,-31.7145,4.07898,-0.00212107,6.4393e-08,-0.00227294,0.00144769,-0.00356869,-1.00369,0.00298126,0.0147208,615,1184,-31.7145,-4.07899
-602,-160,-31.7124,4.64343,0,0,0,0,0,0,0,-1,622,1184,-31.7124,-4.64341
-595,-160,-29.6506,5.44702,0,0,0,0,0,0,0,-1,629,1184,-29.6506,-5.44707
-588,-160,-32.1693,5.48523,0,0,0,0,0,0,0,-1,636,1184,-32.1692,-5.48526
-581,-160,-25.2925,4.6272,0,0,0,0,0,0,0,-1,643,1184,-25.2925,-4.62719
-574,-160,-28.1793,4.33484,0,0,0,0,0,0,0,-1,650,1184,-28.1792,-4.33488
-567,-160,-29.5828,0.643921,0,0,0,0,0,0,0,-1,657,1184,-29.5828,-0.643968
-560,-160,-39.2256,0.657837,0,0,0,0,0,0,0,-1,664,1184,-39.2256,-0.657844
-553,-160,-39.1839,0.609375,-0.0028139,-0.000706265,-0.00321325,0.00162156,-0.00514173,-0.943852,0.00407728,0.0402794,671,1184,-39.1839,-0.60933
-546,-160,-39.1216,0.559204,-0.0022561,-0.000589683,-0.00309286,0.00178024,-0.00462602,-0.916973,0.00381836,0.0411709,678,1184,-39.1216,-0.559151
-539,-160,-39.394,0.638062,-0.00152323,-0.000145322,-0.00287821,0.00212524,-0.00379379,-0.902872,0.00346232,0.0422159,685,1184,-39.394,-0.638084
-532,-160,-39.3867,0.67334,-0.000595659,0.000551788,-0.00284476,0.0028801,-0.00292397,-0.884902,0.00335102,0.0425457,692,1184,-39.3867,-0.673368
-525,-160,-39.2164,0.646118,0.00122547,0.00207575,-0.0033083,0.00498612,-0.00168489,-0.849301,0.00400563,0.0424313,699,1184,-39.2164,-0.646158
-518,-160,-39.1445,0.644287,0.00330551,0.00374646,-0.00374118,0.00727365,-0.000221683,-0.81483,0.00492466,0.0395288,706,1184,-39.1445,-0.644332
-511,-160,0,0,0,0,0,0,0,0,0,-1,713,1184,0,0
-504,-160,0,0,0,0,0,0,0,0,0,-1,720,1184,0,0
-497,-160,0,0,0,0,0,0,0,0,0,-1,727,1184,0,0
-490,-160,0,0,0,0,0,0,0,0,0,-1,734,1184,0,0
-483,-160,0,0,0,0,0,0,0,0,0,-1,741,1184,0,0
-476,-160,0,0,0,0,0,0,0,0,0,-1,748,1184,0,0
-469,-160,0,0,0,0,0,0,0,0,0,-1,755,1184,0,0
-462,-160,0,0,0,0,0,0,0,0,0,-1,762,1184,0,0
-455,-160,0,0,0,0,0,0,0,0,0,-1,769,1184,0,0
-448,-160,0,0,0,0,0,0,0,0,0,-1,776,1184,0,0
-441,-160,0,0,0,0,0,0,0,0,0,-1,783,1184,0,0
-434,-160,0,0,0,0,0,0,0,0,0,-1,790,1184,0,0
-427,-160,0,0,0,0,0,0,0,0,0,-1,797,1184,0,0
-420,-160,0,0,0,0,0,0,0,0,0,-1,804,1184,0,0
-413,-160,0,0,0,0,0,0,0,0,0,-1,811,1184,0,0
-406,-160,0,0,0,0,0,0,0,0,0,-1,818,1184,0,0
-399,-160,0,0,0,0,0,0,0,0,0,-1,825,1184,0,0
-392,-160,0,0,0,0,0,0,0,0,0,-1,832,1184,0,0
-385,-160,0,0,0,0,0,0,0,0,0,-1,839,1184,0,0
-378,-160,0,0,0,0,0,0,0,0,0,-1,846,1184,0,0
-371,-160,0,0,0,0,0,0,0,0,0,-1,853,1184,0,0
-364,-160,0,0,0,0,0,0,0,0,0,-1,860,1184,0,0
-357,-160,0,0,0,0,0,0,0,0,0,-1,867,1184,0,0
-350,-160,0,0,0,0,0,0,0,0,0,-1,874,1184,0,0
-343,-160,0,0,0,0,0,0,0,0,0,-1,881,1184,0,0
-336,-160,0,0,0,0,0,0,0,0,0,-1,888,1184,0,0
-329,-160,0,0,0,0,0,0,0,0,0,-1,895,1184,0,0
-322,-160,0,0,0,0,0,0,0,0,0,-1,902,1184,0,0
-315,-160,0,0,0,0,0,0,0,0,0,-1,909,1184,0,0
-308,-160,0,0,0,0,0,0,0,0,0,-1,916,1184,0,0
-301,-160,0,0,0,0,0,0,0,0,0,-1,923,1184,0,0
-294,-160,0,0,0,0,0,0,0,0,0,-1,930,1184,0,0
-287,-160,0,0,0,0,0,0,0,0,0,-1,937,1184,0,0
-280,-160,0,0,0,0,0,0,0,0,0,-1,944,1184,0,0
-273,-160,0,0,0,0,0,0,0,0,0,-1,951,1184,0,0
-266,-160,0,0,0,0,0,0,0,0,0,-1,958,1184,0,0
-259,-160,0,0,0,0,0,0,0,0,0,-1,965,1184,0,0
-252,-160,0,0,0,0,0,0,0,0,0,-1,972,1184,0,0
-245,-160,0,0,0,0,0,0,0,0,0,-1,979,1184,0,0
-238,-160,0,0,0,0,0,0,0,0,0,-1,986,1184,0,0
-231,-160,0,0,0,0,0,0,0,0,0,-1,993,1184,0,0
-224,-160,0,0,0,0,0,0,0,0,0,-1,1000,1184,0,0
-217,-160,0,0,0,0,0,0,0,0,0,-1,1007,1184,0,0
-210,-160,0,0,0,0,0,0,0,0,0,-1,1014,1184,0,0
-203,-160,0,0,0,0,0,0,0,0,0,-1,1021,1184,0,0
-196,-160,0,0,0,0,0,0,0,0,0,-1,1028,1184,0,0
-189,-160,0,0,0,0,0,0,0,0,0,-1,1035,1184,0,0
-182,-160,0,0,0,0,0,0,0,0,0,-1,1042,1184,0,0
-175,-160,0,0,0,0,0,0,0,0,0,-1,1049,1184,0,0
-168,-160,0,0,0,0,0,0,0,0,0,-1,1056,1184,0,0
-161,-160,0,0,0,0,0,0,0,0,0,-1,1063,1184,0,0
-154,-160,0,0,0,0,0,0,0,0,0,-1,1070,1184,0,0
-147,-160,0,0,0,0,0,0,0,0,0,-1,1077,1184,0,0
-140,-160,0,0,0,0,0,0,0,0,0,-1,1084,1184,0,0
-133,-160,0,0,0,0,0,0,0,0,0,-1,1091,1184,0,0
-126,-160,0,0,0,0,0,0,0,0,0,-1,1098,1184,0,0
-119,-160,0,0,0,0,0,0,0,0,0,-1,1105,1184,0,0
-112,-160,0,0,0,0,0,0,0,0,0,-1,1112,1184,0,0
-105,-160,0,0,0,0,0,0,0,0,0,-1,1119,1184,0,0
-98,-160,0,0,0,0,0,0,0,0,0,-1,1126,1184,0,0
-91,-160,0,0,0,0,0,0,0,0,0,-1,1133,1184,0,0
-84,-160,0,0,0,0,0,0,0,0,0,-1,1140,1184,0,0
-77,-160,0,0,0,0,0,0,0,0,0,-1,1147,1184,0,0
-70,-160,0,0,0,0,0,0,0,0,0,-1,1154,1184,0,0
-63,-160,0,0,0,0,0,0,0,0,0,-1,1161,1184,0,0
-56,-160,0,0,0,0,0,0,0,0,0,-1,1168,1184,0,0
-49,-160,0,0,0,0,0,0,0,0,0,-1,1175,1184,0,0
-42,-160,0,0,0,0,0,0,0,0,0,-1,1182,1184,0,0
-35,-160,0,0,0,0,0,0,0,0,0,-1,1189,1184,0,0
-28,-160,0,0,0,0,0,0,0,0,0,-1,1196,1184,0,0
-21,-160,0,0,0,0,0,0,0,0,0,-1,1203,1184,0,0
-14,-160,0,0,0,0,0,0,0,0,0,-1,1210,1184,0,0
-7,-160,0,0,0,0,0,0,0,0,0,-1,1217,1184,0,0
0,-160,0,0,0,0,0,0,0,0,0,-1,1224,1184,0,0
7,-160,0,0,0,0,0,0,0,0,0,-1,1231,1184,0,0
14,-160,0,0,0,0,0,0,0,0,0,-1,1238,1184,0,0
21,-160,0,0,0,0,0,0,0,0,0,-1,1245,1184,0,0
28,-160,0,0,0,0,0,0,0,0,0,-1,1252,1184,0,0
35,-160,0,0,0,0,0,0,0,0,0,-1,1259,1184,0,0
42,-160,0,0,0,0,0,0,0,0,0,-1,1266,1184,0,0
49,-160,0,0,0,0,0,0,0,0,0,-1,1273,1184,0,0
56,-160,0,0,0,0,0,0,0,0,0,-1,1280,1184,0,0
63,-160,0,0,0,0,0,0,0,0,0,-1,1287,1184,0,0
70,-160,0,0,0,0,0,0,0,0,0,-1,1294,1184,0,0
77,-160,0,0,0,0,0,0,0,0,0,-1,1301,1184,0,0
84,-160,0,0,0,0,0,0,0,0,0,-1,1308,1184,0,0
91,-160,0,0,0,0,0,0,0,0,0,-1,1315,1184,0,0
98,-160,0,0,0,0,0,0,0,0,0,-1,1322,1184,0,0
105,-160,0,0,0,0,0,0,0,0,0,-1,1329,1184,0,0
112,-160,0,0,0,0,0,0,0,0,0,-1,1336,1184,0,0
119,-160,0,0,0,0,0,0,0,0,0,-1,1343,1184,0,0
126,-160,0,0,0,0,0,0,0,0,0,-1,1350,1184,0,0
133,-160,0,0,0,0,0,0,0,0,0,-1,1357,1184,0,0
140,-160,0,0,0,0,0,0,0,0,0,-1,1364,1184,0,0
147,-160,0,0,0,0,0,0,0,0,0,-1,1371,1184,0,0
154,-160,0,0,0,0,0,0,0,0,0,-1,1378,1184,0,0
161,-160,0,0,0,0,0,0,0,0,0,-1,1385,1184,0,0
168,-160,0,0,0,0,0,0,0,0,0,-1,1392,1184,0,0
175,-160,0,0,0,0,0,0,0,0,0,-1,1399,1184,0,0
182,-160,0,0,0,0,0,0,0,0,0,-1,1406,1184,0,0
189,-160,0,0,0,0,0,0,0,0,0,-1,1413,1184,0,0
196,-160,0,0,0,0,0,0,0,0,0,-1,1420,1184,0,0
203,-160,0,0,0,0,0,0,0,0,0,-1,1427,1184,0,0
210,-160,0,0,0,0,0,0,0,0,0,-1,1434,1184,0,0
217,-160,0,0,0,0,0,0,0,0,0,-1,1441,1184,0,0
224,-160,0,0,0,0,0,0,0,0,0,-1,1448,1184,0,0
231,-160,0,0,0,0,0,0,0,0,0,-1,1455,1184,0,0
238,-160,0,0,0,0,0,0,0,0,0,-1,1462,1184,0,0
245,-160,0,0,0,0,0,0,0,0,0,-1,1469,1184,0,0
252,-160,0,0,0,0,0,0,0,0,0,-1,1476,1184,0,0
259,-160,0,0,0,0,0,0,0,0,0,-1,1483,1184,0,0
266,-160,0,0,0,0,0,0,0,0,0,-1,1490,1184,0,0
273,-160,0,0,0,0,0,0,0,0,0,-1,1497,1184,0,0
280,-160,0,0,0,0,0,0,0,0,0,-1,1504,1184,0,0
287,-160,0,0,0,0,0,0,0,0,0,-1,1511,1184,0,0
294,-160,0,0,0,0,0,0,0,0,0,-1,1518,1184,0,0
301,-160,0,0,0,0,0,0,0,0,0,-1,1525,1184,0,0
308,-160,0,0,0,0,0,0,0,0,0,-1,1532,1184,0,0
315,-160,0,0,0,0,0,0,0,0,0,-1,1539,1184,0,0
322,-160,0,0,0,0,0,0,0,0,0,-1,1546,1184,0,0
329,-160,0,0,0,0,0,0,0,0,0,-1,1553,1184,0,0
336,-160,0,0,0,0,0,0,0,0,0,-1,1560,1184,0,0
343,-160,0,0,0,0,0,0,0,0,0,-1,1567,1184,0,0
350,-160,0,0,0,0,0,0,0,0,0,-1,1574,1184,0,0
357,-160,0,0,0,0,0,0,0,0,0,-1,1581,1184,0,0
364,-160,0,0,0,0,0,0,0,0,0,-1,1588,1184,0,0
371,-160,0,0,0,0,0,0,0,0,0,-1,1595,1184,0,0
378,-160,0,0,0,0,0,0,0,0,0,-1,1602,1184,0,0
385,-160,0,0,0,0,0,0,0,0,0,-1,1609,1184,0,0
392,-160,0,0,0,0,0,0,0,0,0,-1,1616,1184,0,0
399,-160,0,0,0,0,0,0,0,0,0,-1,1623,1184,0,0
406,-160,0,0,0,0,0,0,0,0,0,-1,1630,1184,0,0
413,-160,0,0,0,0,0,0,0,0,0,-1,1637,1184,0,0
420,-160,0,0,0,0,0,0,0,0,0,-1,1644,1184,0,0
427,-160,0,0,0,0,0,0,0,0,0,-1,1651,1184,0,0
434,-160,0,0,0,0,0,0,0,0,0,-1,1658,1184,0,0
441,-160,0,0,0,0,0,0,0,0,0,-1,1665,1184,0,0
448,-160,0,0,0,0,0,0,0,0,0,-1,1672,1184,0,0
455,-160,0,0,0,0,0,0,0,0,0,-1,1679,1184,0,0
462,-160,0,0,0,0,0,0,0,0,0,-1,1686,1184,0,0
469,-160,0,0,0,0,0,0,0,0,0,-1,1693,1184,0,0
476,-160,0,0,0,0,0,0,0,0,0,-1,1700,1184,0,0
483,-160,0,0,0,0,0,0,0,0,0,-1,1707,1184,0,0
490,-160,0,0,0,0,0,0,0,0,0,-1,1714,1184,0,0
497,-160,0,0,0,0,0,0,0,0,0,-1,1721,1184,0,0
504,-160,0,0,0,0,0,0,0,0,0,-1,1728,1184,0,0
511,-160,0,0,0,0,0,0,0,0,0,-1,1735,1184,0,0
518,-160,0,0,0,0,0,0,0,0,0,-1,1742,1184,0,0
525,-160,0,0,0,0,0,0,0,0,0,-1,1749,1184,0,0
532,-160,0,0,0,0,0,0,0,0,0,-1,1756,1184,0,0
539,-160,0,0,0,0,0,0,0,0,0,-1,1763,1184,0,0
546,-160,0,0,0,0,0,0,0,0,0,-1,1770,1184,0,0
553,-160,0,0,0,0,0,0,0,0,0,-1,1777,1184,0,0
560,-160,0,0,0,0,0,0,0,0,0,-1,1784,1184,0,0
567,-160,0,0,0,0,0,0,0,0,0,-1,1791,1184,0,0
574,-160,0,0,0,0,0,0,0,0,0,-1,1798,1184,0,0
581,-160,0,0,0,0,0,0,0,0,0,-1,1805,1184,0,0
588,-160,0,0,0,0,0,0,0,0,0,-1,1812,1184,0,0
595,-160,0,0,0,0,0,0,0,0,0,-1,1819,1184,0,0
602,-160,0,0,0,0,0,0,0,0,0,-1,1826,1184,0,0
609,-160,0,0,0,0,0,0,0,0,0,-1,1833,1184,0,0
616,-160,0,0,0,0,0,0,0,0,0,-1,1840,1184,0,0
623,-160,0,0,0,0,0,0,0,0,0,-1,1847,1184,0,0
630,-160,0,0,0,0,0,0,0,0,0,-1,1854,1184,0,0
637,-160,52.9517,2.51941,-0.00419525,0.000262707,0.00409719,0.00269798,-0.00663053,1.03452,0.00554305,0.042213,1861,1184,52.9516,-2.51937
644,-160,53.0137,2.61292,-0.00343652,0.000453714,0.00299438,0.00207928,-0.00506209,1.07344,0.00424126,0.0423324,1868,1184,53.0137,-2.61291
651,-160,52.8486,2.64526,-0.00238976,0.000711304,0.00180914,0.00154345,-0.0032219,1.13969,0.00280758,0.0412144,1875,1184,52.8486,-2.64529
658,-160,52.7362,2.82727,-0.00110996,0.000921658,0.000628816,0.00110054,-0.00128884,1.29365,0.00138093,0.0403098,1882,1184,52.7363,-2.82727
665,-160,52.8075,2.78223,0.00024401,0.000982042,-0.000451535,0.00119617,2.98824e-05,-1.12798,0.000787675,0.0376181,1889,1184,52.8074,-2.78217
672,-160,52.8124,2.66541,0.00105374,0.00100855,-0.0010652,0.00209659,-3.42984e-05,-0.774793,0.0014093,0.0341862,1896,1184,52.8124,-2.66543
679,-160,52.8468,2.58423,0.00133641,0.000632872,-0.00113635,0.00217419,-0.000204915,-0.635297,0.00152237,0.0262815,1903,1184,52.8469,-2.58422
686,-160,52.8878,2.58057,0.00124776,0.00013411,-0.000815868,0.00167871,-0.000296837,-0.485957,0.00123008,0.0160079,1910,1184,52.8878,-2.5806
693,-160,52.913,2.58154,0,0,0,0,0,0,0,-1,1917,1184,52.913,-2.5815
700,-160,42.8784,2.44617,0,0,0,0,0,0,0,-1,1924,1184,42.8785,-2.4462
707,-160,24.5115,6.27405,0,0,0,0,0,0,0,-1,1931,1184,24.5115,-6.27401
714,-160,35.6892,6.8905,0,0,0,0,0,0,0,-1,1938,1184,35.6892,-6.89048
721,-160,36.2388,6.37878,0,0,0,0,0,0,0,-1,1945,1184,36.2388,-6.37876
728,-160,45.5144,7.50891,0,0,0,0,0,0,0,-1,1952,1184,45.5144,-7.50894
735,-160,45.6648,6.9707,3.60545e-06,-0.000732359,0.00108386,0.000780244,-0.001509,0.621748,0.00134383,0.0354029,1959,1184,45.6649,-6.97069
742,-160,45.5542,6.55151,-0.000358886,-0.00043564,0.00105156,0.000654997,-0.00144952,0.767159,0.00124357,0.0175885,1966,1184,45.5543,-6.55153
749,-160,45.5211,6.1189,-0.000865389,0.000164121,0.000481958,0.00035453,-0.0010558,1.19454,0.000847142,0.0190743,1973,1184,45.5211,-6.11888
756,-160,45.5,5.73145,-0.00134605,0.000785579,-0.000584824,0.000935486,-0.00149595,-1.31987,0.00141617,0.0119239,1980,1184,45.5,-5.73143
763,-160,45.4451,5.30969,-0.00167532,0.00120384,-0.00221964,0.00240986,-0.00288133,-1.07308,0.00305891,0.0122818,1987,1184,45.445,-5.30974
770,-160,45.3737,4.82324,-0.00240111,0.0012103,-0.00414851,0.00392905,-0.00511986,-0.990665,0.00523945,0.023815,1994,1184,45.3736,-4.82327
777,-160,45.4286,4.44299,-0.00364857,0.000724693,-0.00646868,0.00536633,-0.0082902,-0.948385,0.00794461,0.0333894,2001,1184,45.4286,-4.44296
784,-160,45.2578,3.41846,-0.00535376,-0.000764283,-0.00913253,0.0063574,-0.0124754,-0.908485,0.0110627,0.0421565,2008,1184,45.2578,-3.41847
791,-160,44.9146,2.32581,0,0,0,0,0,0,0,-1,2015,1184,44.9146,-2.32578
798,-160,44.77,1.30615,0,0,0,0,0,0,0,-1,2022,1184,44.7701,-1.30619
805,-160,44.5881,0.262085,0,0,0,0,0,0,0,-1,2029,1184,44.5881,-0.262099
812,-160,0,0,0,0,0,0,0,0,0,-1,2036,1184,0,0
-700,-167,0,0,0,0,0,0,0,0,0,-1,524,1191,0,0
-693,-167,0,0,0,0,0,0,0,0,0,-1,531,1191,0,0
-686,-167,-33.3118,-3.62158,0.0334214,0.00844191,0.0105912,0.0373075,0.00455582,0.351664,0.0235007,0.0428103,538,1191,-33.3118,3.62164
-679,-167,-32.8544,-2.91187,0.0286879,0.00394202,0.0115956,0.0332722,-0.000642292,0.37649,0.0223986,0.0455154,545,1191,-32.8544,2.9119
-672,-167,-32.431,-2.37451,0.0234371,0.00172573,0.0112853,0.0282404,-0.00307756,0.402399,0.0199322,0.0471381,552,1191,-32.4311,2.37454
-665,-167,-31.7819,-1.70581,0,0,0,0,0,0,0,-1,559,1191,-31.7819,1.7058
-658,-167,-31.3754,-0.708252,0,0,0,0,0,0,0,-1,566,1191,-31.3754,0.708268
-651,-167,-31.0842,0.577881,0,0,0,0,0,0,0,-1,573,1191,-31.0842,-0.577932
-644,-167,-31.05,1.36072,0.00603519,0.000442956,0.0057157,0.00960205,-0.0031239,0.557913,0.00765808,0.0434775,580,1191,-31.05,-1.36075
-637,-167,-31.0688,2.14941,0.00327384,0.00042139,0.00390444,0.00600439,-0.00230916,0.610286,0.00495535,0.0183627,587,1191,-31.0688,-2.14943
-630,-167,-31.1557,2.60742,0.000849754,0.000263242,0.00219534,0.00277134,-0.00165835,0.719001,0.00258425,0.00925119,594,1191,-31.1557,-2.60737
-623,-167,-31.1792,3.05908,-0.00114181,0.000627265,0.000551938,0.000785341,-0.00129988,1.29186,0.00121606,0.0132587,601,1191,-31.1792,-3.05913
-616,-167,-31.171,3.54761,-0.0020222,0.000548455,-0.00117684,0.00100583,-0.00247957,-1.20011,0.00207139,0.0171793,608,1191,-31.171,-3.54756
-609,-167,-31.2045,4.0885,-0.00225378,0.000130636,-0.00221495,0.00145385,-0.003577,-1.03229,0.00298954,0.0150697,615,1191,-31.2045,-4.08849
-602,-167,-31.2322,4.59619,-0.00193577,-0.000261276,-0.00278973,0.00181414,-0.00401118,-0.93118,0.00344206,0.0190491,622,1191,-31.2321,-4.59624
-595,-167,-31.1119,5.05261,0,0,0,0,0,0,0,-1,629,1191,-31.1119,-5.05266
-588,-167,-31.4063,5.43884,0,0,0,0,0,0,0,-1,636,1191,-31.4063,-5.4388
-581,-167,-29.8755,5.31482,0,0,0,0,0,0,0,-1,643,1191,-29.8756,-5.31482
-574,-167,-24.1547,5.43677,0,0,0,0,0,0,0,-1,650,1191,-24.1547,-5.43682
-567,-167,-27.3643,2.55859,0,0,0,0,0,0,0,-1,657,1191,-27.3643,-2.55864
-560,-167,-39.2584,0.887207,0,0,0,0,0,0,0,-1,664,1191,-39.2584,-0.887191
-553,-167,-39.2615,0.83667,-0.00271829,-0.000654118,-0.00345179,0.00191658,-0.005289,-0.930668,0.00430935,0.0415836,671,1191,-39.2615,-0.836636
-546,-167,-39.2731,0.806396,-0.00206676,-0.000685141,-0.00334546,0.00204009,-0.00479199,-0.887213,0.00404976,0.0382216,678,1191,-39.2731,-0.806403
-539,-167,-39.2499,0.765381,-0.0012651,-0.000332193,-0.00300217,0.00223954,-0.00383683,-0.862468,0.00354837,0.0399965,685,1191,-39.2499,-0.765327
-532,-167,-39.1857,0.567017,-0.000430103,0.000395586,-0.00256548,0.00258123,-0.00261575,-0.865176,0.0030005,0.0440526,692,1191,-39.1856,-0.567065
-525,-167,-39.1607,0.428223,0.00140627,0.00231249,-0.0023194,0.00422263,-0.000503864,-0.881862,0.00299719,0.0478726,699,1191,-39.1607,-0.428277
-518,-167,-39.054,0.123169,0.00349681,0.00441993,-0.00199399,0.00600508,0.00191166,-0.899133,0.00354249,0.0473654,706,1191,-39.054,-0.123177
-511,-167,0,0,0,0,0,0,0,0,0,-1,713,1191,0,0
-504,-167,0,0,0,0,0,0,0,0,0,-1,720,1191,0,0
-497,-167,0,0,0,0,0,0,0,0,0,-1,727,1191,0,0
-490,-167,0,0,0,0,0,0,0,0,0,-1,734,1191,0,0
-483,-167,0,0,0,0,0,0,0,0,0,-1,741,1191,0,0
-476,-167,0,0,0,0,0,0,0,0,0,-1,748,1191,0,0
-469,-167,0,0,0,0,0,0,0,0,0,-1,755,1191,0,0
-462,-167,0,0,0,0,0,0,0,0,0,-1,762,1191,0,0
-455,-167,0,0,0,0,0,0,0,0,0,-1,769,1191,0,0
-448,-167,0,0,0,0,0,0,0,0,0,-1,776,1191,0,0
-441,-167,0,0,0,0,0,0,0,0,0,-1,783,1191,0,0
-434,-167,0,0,0,0,0,0,0,0,0,-1,790,1191,0,0
-427,-167,0,0,0,0,0,0,0,0,0,-1,797,1191,0,0
-420,-167,0,0,0,0,0,0,0,0,0,-1,804,1191,0,0
-413,-167,0,0,0,0,0,0,0,0,0,-1,811,1191,0,0
-406,-167,0,0,0,0,0,0,0,0,0,-1,818,1191,0,0
-399,-167,0,0,0,0,0,0,0,0,0,-1,825,1191,0,0
-392,-167,0,0,0,0,0,0,0,0,0,-1,832,1191,0,0
-385,-167,0,0,0,0,0,0,0,0,0,-1,839,1191,0,0
-378,-167,0,0,0,0,0,0,0,0,0,-1,846,1191,0,0
-371,-167,0,0,0,0,0,0,0,0,0,-1,853,1191,0,0
-364,-167,0,0,0,0,0,0,0,0,0,-1,860,1191,0,0
-357,-167,0,0,0,0,0,0,0,0,0,-1,867,1191,0,0
-350,-167,0,0,0,0,0,0,0,0,0,-1,874,1191,0,0
-343,-167,0,0,0,0,0,0,0,0,0,-1,881,1191,0,0
-336,-167,0,0,0,0,0,0,0,0,0,-1,888,1191,0,0
-329,-167,0,0,0,0,0,0,0,0,0,-1,895,1191,0,0
-322,-167,0,0,0,0,0,0,0,0,0,-1,902,1191,0,0
-315,-167,0,0,0,0,0,0,0,0,0,-1,909,1191,0,0
-308,-167,0,0,0,0,0,0,0,0,0,-1,916,1191,0,0
-301,-167,0,0,0,0,0,0,0,0,0,-1,923,1191,0,0
-294,-167,0,0,0,0,0,0,0,0,0,-1,930,1191,0,0
-287,-167,0,0,0,0,0,0,0,0,0,-1,937,1191,0,0
-280,-167,0,0,0,0,0,0,0,0,0,-1,944,1191,0,0
-273,-167,0,0,0,0,0,0,0,0,0,-1,951,1191,0,0
-266,-167,0,0,0,0,0,0,0,0,0,-1,958,1191,0,0
-259,-167,0,0,0,0,0,0,0,0,0,-1,965,1191,0,0
-252,-167,0,0,0,0,0,0,0,0,0,-1,972,1191,0,0
-245,-167,0,0,0,0,0,0,0,0,0,-1,979,1191,0,0
-238,-167,0,0,0,0,0,0,0,0,0,-1,986,1191,0,0
-231,-167,0,0,0,0,0,0,0,0,0,-1,993,1191,0,0
-224,-167,0,0,0,0,0,0,0,0,0,-1,1000,1191,0,0
-217,-167,0,0,0,0,0,0,0,0,0,-1,1007,1191,0,0
-210,-167,0,0,0,0,0,0,0,0,0,-1,1014,1191,0,0
-203,-167,0,0,0,0,0,0,0,0,0,-1,1021,1191,0,0
-196,-167,0,0,0,0,0,0,0,0,0,-1,1028,1191,0,0
-189,-167,0,0,0,0,0,0,0,0,0,-1,1035,1191,0,0
-182,-167,0,0,0,0,0,0,0,0,0,-1,1042,1191,0,0
-175,-167,0,0,0,0,0,0,0,0,0,-1,1049,1191,0,0
-168,-167,0,0,0,0,0,0,0,0,0,-1,1056,1191,0,0
-161,-167,0,0,0,0,0,0,0,0,0,-1,1063,1191,0,0
-154,-167,0,0,0,0,0,0,0,0,0,-1,1070,1191,0,0
-147,-167,0,0,0,0,0,0,0,0,0,-1,1077,1191,0,0
-140,-167,0,0,0,0,0,0,0,0,0,-1,1084,1191,0,0
-133,-167,0,0,0,0,0,0,0,0,0,-1,1091,1191,0,0
-126,-167,0,0,0,0,0,0,0,0,0,-1,1098,1191,0,0
-119,-167,0,0,0,0,0,0,0,0,0,-1,1105,1191,0,0
-112,-167,0,0,0,0,0,0,0,0,0,-1,1112,1191,0,0
-105,-167,0,0,0,0,0,0,0,0,0,-1,1119,1191,0,0
-98,-167,0,0,0,0,0,0,0,0,0,-1,1126,1191,0,0
-91,-167,0,0,0,0,0,0,0,0,0,-1,1133,1191,0,0
-84,-167,0,0,0,0,0,0,0,0,0,-1,1140,1191,0,0
-77,-167,0,0,0,0,0,0,0,0,0,-1,1147,1191,0,0
-70,-167,0,0,0,0,0,0,0,0,0,-1,1154,1191,0,0
-63,-167,0,0,0,0,0,0,0,0,0,-1,1161,1191,0,0
-56,-167,0,0,0,0,0,0,0,0,0,-1,1168,1191,0,0
-49,-167,0,0,0,0,0,0,0,0,0,-1,1175,1191,0,0
-42,-167,0,0,0,0,0,0,0,0,0,-1,1182,1191,0,0
-35,-167,0,0,0,0,0,0,0,0,0,-1,1189,1191,0,0
-28,-167,0,0,0,0,0,0,0,0,0,-1,1196,1191,0,0
-21,-167,0,0,0,0,0,0,0,0,0,-1,1203,1191,0,0
-14,-167,0,0,0,0,0,0,0,0,0,-1,1210,1191,0,0
-7,-167,0,0,0,0,0,0,0,0,0,-1,1217,1191,0,0
0,-167,0,0,0,0,0,0,0,0,0,-1,1224,1191,0,0
7,-167,0,0,0,0,0,0,0,0,0,-1,1231,1191,0,0
14,-167,0,0,0,0,0,0,0,0,0,-1,1238,1191,0,0
21,-167,0,0,0,0,0,0,0,0,0,-1,1245,1191,0,0
28,-167,0,0,0,0,0,0,0,0,0,-1,1252,1191,0,0
35,-167,0,0,0,0,0,0,0,0,0,-1,1259,1191,0,0
42,-167,0,0,0,0,0,0,0,0,0,-1,1266,1191,0,0
49,-167,0,0,0,0,0,0,0,0,0,-1,1273,1191,0,0
56,-167,0,0,0,0,0,0,0,0,0,-1,1280,1191,0,0
63,-167,0,0,0,0,0,0,0,0,0,-1,1287,1191,0,0
70,-167,0,0,0,0,0,0,0,0,0,-1,1294,1191,0,0
77,-167,0,0,0,0,0,0,0,0,0,-1,1301,1191,0,0
84,-167,0,0,0,0,0,0,0,0,0,-1,1308,1191,0,0
91,-167,0,0,0,0,0,0,0,0,0,-1,1315,1191,0,0
98,-167,0,0,0,0,0,0,0,0,0,-1,1322,1191,0,0
105,-167,0,0,0,0,0,0,0,0,0,-1,1329,1191,0,0
112,-167,0,0,0,0,0,0,0,0,0,-1,1336,1191,0,0
119,-167,0,0,0,0,0,0,0,0,0,-1,1343,1191,0,0
126,-167,0,0,0,0,0,0,0,0,0,-1,1350,1191,0,0
133,-167,0,0,0,0,0,0,0,0,0,-1,1357,1191,0,0
140,-167,0,0,0,0,0,0,0,0,0,-1,1364,1191,0,0
147,-167,0,0,0,0,0,0,0,0,0,-1,1371,1191,0,0
154,-167,0,0,0,0,0,0,0,0,0,-1,1378,1191,0,0
161,-167,0,0,0,0,0,0,0,0,0,-1,1385,1191,0,0
168,-167,0,0,0,0,0,0,0,0,0,-1,1392,1191,0,0
175,-167,0,0,0,0,0,0,0,0,0,-1,1399,1191,0,0
182,-167,0,0,0,0,0,0,0,0,0,-1,1406,1191,0,0
189,-167,0,0,0,0,0,0,0,0,0,-1,1413,1191,0,0
196,-167,0,0,0,0,0,0,0,0,0,-1,1420,1191,0,0
203,-167,0,0,0,0,0,0,0,0,0,-1,1427,1191,0,0
210,-167,0,0,0,0,0,0,0,0,0,-1,1434,1191,0,0
217,-167,0,0,0,0,0,0,0,0,0,-1,1441,1191,0,0
224,-167,0,0,0,0,0,0,0,0,0,-1,1448,1191,0,0
231,-167,0,0,0,0,0,0,0,0,0,-1,1455,1191,0,0
238,-167,0,0,0,0,0,0,0,0,0,-1,1462,1191,0,0
245,-167,0,0,0,0,0,0,0,0,0,-1,1469,1191,0,0
252,-167,0,0,0,0,0,0,0,0,0,-1,1476,1191,0,0
259,-167,0,0,0,0,0,0,0,0,0,-1,1483,1191,0,0
266,-167,0,0,0,0,0,0,0,0,0,-1,1490,1191,0,0
273,-167,0,0,0,0,0,0,0,0,0,-1,1497,1191,0,0
280,-167,0,0,0,0,0,0,0,0,0,-1,1504,1191,0,0
287,-167,0,0,0,0,0,0,0,0,0,-1,1511,1191,0,0
294,-167,0,0,0,0,0,0,0,0,0,-1,1518,1191,0,0
301,-167,0,0,0,0,0,0,0,0,0,-1,1525,1191,0,0
308,-167,0,0,0,0,0,0,0,0,0,-1,1532,1191,0,0
315,-167,0,0,0,0,0,0,0,0,0,-1,1539,1191,0,0
322,-167,0,0,0,0,0,0,0,0,0,-1,1546,1191,0,0
329,-167,0,0,0,0,0,0,0,0,0,-1,1553,1191,0,0
336,-167,0,0,0,0,0,0,0,0,0,-1,1560,1191,0,0
343,-167,0,0,0,0,0,0,0,0,0,-1,1567,1191,0,0
350,-167,0,0,0,0,0,0,0,0,0,-1,1574,1191,0,0
357,-167,0,0,0,0,0,0,0,0,0,-1,1581,1191,0,0
364,-167,0,0,0,0,0,0,0,0,0,-1,1588,1191,0,0
371,-167,0,0,0,0,0,0,0,0,0,-1,1595,1191,0,0
378,-167,0,0,0,0,0,0,0,0,0,-1,1602,1191,0,0
385,-167,0,0,0,0,0,0,0,0,0,-1,1609,1191,0,0
392,-167,0,0,0,0,0,0,0,0,0,-1,1616,1191,0,0
399,-167,0,0,0,0,0,0,0,0,0,-1,1623,1191,0,0
406,-167,0,0,0,0,0,0,0,0,0,-1,1630,1191,0,0
413,-167,0,0,0,0,0,0,0,0,0,-1,1637,1191,0,0
420,-167,0,0,0,0,0,0,0,0,0,-1,1644,1191,0,0
427,-167,0,0,0,0,0,0,0,0,0,-1,1651,1191,0,0
434,-167,0,0,0,0,0,0,0,0,0,-1,1658,1191,0,0
441,-167,0,0,0,0,0,0,0,0,0,-1,1665,1191,0,0
448,-167,0,0,0,0,0,0,0,0,0,-1,1672,1191,0,0
455,-167,0,0,0,0,0,0,0,0,0,-1,1679,1191,0,0
462,-167,0,0,0,0,0,0,0,0,0,-1,1686,1191,0,0
469,-167,0,0,0,0,0,0,0,0,0,-1,1693,1191,0,0
476,-167,0,0,0,0,0,0,0,0,0,-1,1700,1191,0,0
483,-167,0,0,0,0,0,0,0,0,0,-1,1707,1191,0,0
490,-167,0,0,0,0,0,0,0,0,0,-1,1714,1191,0,0
497,-167,0,0,0,0,0,0,0,0,0,-1,1721,1191,0,0
504,-167,0,0,0,0,0,0,0,0,0,-1,1728,1191,0,0
511,-167,0,0,0,0,0,0,0,0,0,-1,1735,1191,0,0
518,-167,0,0,0,0,0,0,0,0,0,-1,1742,1191,0,0
525,-167,0,0,0,0,0,0,0,0,0,-1,1749,1191,0,0
532,-167,0,0,0,0,0,0,0,0,0,-1,1756,1191,0,0
539,-167,0,0,0,0,0,0,0,0,0,-1,1763,1191,0,0
546,-167,0,0,0,0,0,0,0,0,0,-1,1770,1191,0,0
553,-167,0,0,0,0,0,0,0,0,0,-1,1777,1191,0,0
560,-167,0,0,0,0,0,0,0,0,0,-1,1784,1191,0,0
567,-167,0,0,0,0,0,0,0,0,0,-1,1791,1191,0,0
574,-167,0,0,0,0,0,0,0,0,0,-1,1798,1191,0,0
581,-167,0,0,0,0,0,0,0,0,0,-1,1805,1191,0,0
588,-167,0,0,0,0,0,0,0,0,0,-1,1812,1191,0,0
595,-167,0,0,0,0,0,0,0,0,0,-1,1819,1191,0,0
602,-167,0,0,0,0,0,0,0,0,0,-1,1826,1191,0,0
609,-167,0,0,0,0,0,0,0,0,0,-1,1833,1191,0,0
616,-167,0,0,0,0,0,0,0,0,0,-1,1840,1191,0,0
623,-167,0,0,0,0,0,0,0,0,0,-1,1847,1191,0,0
630,-167,0,0,0,0,0,0,0,0,0,-1,1854,1191,0,0
637,-167,52.9294,2.4906,-0.00364788,-6.35381e-05,0.00331802,0.00191538,-0.00562681,1.03302,0.00452682,0.0415204,1861,1191,52.9294,-2.49062
644,-167,53.0516,2.38464,-0.00274372,0.000284375,0.00237708,0.00158863,-0.00404798,1.06897,0.00335597,0.0431738,1868,1191,53.0516,-2.38467
651,-167,52.7482,2.61743,-0.00158487,0.000630506,0.00132163,0.00124726,-0.00220162,1.13418,0.00201646,0.0414728,1875,1191,52.7482,-2.61739
658,-167,52.6449,2.92883,-0.000282966,0.000890964,0.000226977,0.000933321,-0.000325323,1.3863,0.00075441,0.0413802,1882,1191,52.6449,-2.9288
665,-167,52.8694,2.81104,0.000991909,0.000934057,-0.000743981,0.00170753,0.00021844,-0.765968,0.00107297,0.0369351,1889,1191,52.8694,-2.81103
672,-167,52.9207,2.62573,0.00161977,0.000947558,-0.00121816,0.00254734,1.99854e-05,-0.650791,0.0016916,0.0281074,1896,1191,52.9207,-2.62568
679,-167,52.8822,2.55823,0.00175692,0.000617685,-0.00124304,0.00255464,-0.00018004,-0.570555,0.00176617,0.0212905,1903,1191,52.8822,-2.55817
686,-167,52.86,2.57605,0.00157445,0.000184773,-0.000957123,0.00206235,-0.000303134,-0.471428,0.00148629,0.0280568,1910,1191,52.86,-2.57609
693,-167,52.8458,2.65491,0,0,0,0,0,0,0,-1,1917,1191,52.8458,-2.65495
700,-167,28.0459,2.70508,0,0,0,0,0,0,0,-1,1924,1191,28.0459,-2.70513
707,-167,29.4708,7.10168,0,0,0,0,0,0,0,-1,1931,1191,29.4708,-7.10172
714,-167,35.9202,6.84668,0,0,0,0,0,0,0,-1,1938,1191,35.9202,-6.84664
721,-167,36.2072,6.38892,0,0,0,0,0,0,0,-1,1945,1191,36.2072,-6.38891
728,-167,45.0043,7.60474,0,0,0,0,0,0,0,-1,1952,1191,45.0043,-7.60479
735,-167,45.1283,7.15552,0.000138819,-0.000629377,0.000885412,0.000719856,-0.00121041,0.580745,0.00112637,0.0203078,1959,1191,45.1282,-7.15548
742,-167,45.087,6.60571,-0.000184134,-0.000284497,0.000849361,0.000616527,-0.00108516,0.755892,0.000994809,0.0166347,1966,1191,45.0871,-6.6057
749,-167,45.0596,6.14575,-0.000506852,0.000368616,0.000275849,0.000448283,-0.000586519,1.28964,0.000599218,0.015384,1973,1191,45.0595,-6.14571
756,-167,45.0645,5.74585,-0.000883808,0.00107191,-0.000713284,0.00130441,-0.00111631,-1.25569,0.00139901,0.0114755,1980,1191,45.0645,-5.74591
763,-167,45.0076,5.30273,-0.00140202,0.00166158,-0.00225511,0.00285593,-0.00259638,-1.08373,0.00314908,0.0131721,1987,1191,45.0076,-5.30278
770,-167,44.8667,4.9325,-0.00244742,0.00190597,-0.00416181,0.00442595,-0.00496739,-1.02634,0.00542625,0.031579,1994,1191,44.8667,-4.93245
777,-167,45.0575,4.45911,-0.00446383,0.00180874,-0.00650035,0.00588986,-0.00854494,-1.01016,0.0083808,0.0469046,2001,1191,45.0575,-4.45907
784,-167,45.2852,3.90527,0,0,0,0,0,0,0,-1,2008,1191,45.2852,-3.90528
791,-167,44.7158,2.47937,0,0,0,0,0,0,0,-1,2015,1191,44.7157,-2.47943
798,-167,44.6113,1.43188,0,0,0,0,0,0,0,-1,2022,1191,44.6114,-1.43191
805,-167,46.6208,4.40112,0,0,0,0,0,0,0,-1,2029,1191,46.621,-4.4011
812,-167,0,0,0,0,0,0,0,0,0,-1,2036,1191,0,0
-700,-174,0,0,0,0,0,0,0,0,0,-1,524,1198,0,0
-693,-174,0,0,0,0,0,0,0,0,0,-1,531,1198,0,0
-686,-174,-32.5526,-3.6604,0.0403945,-0.00132461,0.0109762,0.0431061,-0.00403619,0.242192,0.0301729,0.0471677,538,1198,-32.5527,3.66046
-679,-174,-32.3705,-2.93652,0.0340394,-0.00370644,0.012198,0.0376382,-0.00730524,0.286893,0.0278484,0.0447735,545,1198,-32.3705,2.93657
-672,-174,-31.9145,-2.48169,0.0275529,-0.00410511,0.0118898,0.031521,-0.00807319,0.322115,0.024159,0.0464771,552,1198,-31.9145,2.48166
-665,-174,-30.8698,-1.48999,0,0,0,0,0,0,0,-1,559,1198,-30.8697,1.48998
-658,-174,-30.7634,-0.589844,0,0,0,0,0,0,0,-1,566,1198,-30.7634,0.589786
-651,-174,-30.6558,0.324463,0,0,0,0,0,0,0,-1,573,1198,-30.6558,-0.324524
-644,-174,-30.5875,1.25916,0.0075066,-0.00110905,0.00601006,0.0105932,-0.0041957,0.474452,0.00880068,0.047154,580,1198,-30.5875,-1.25912
-637,-174,-30.5351,2.17517,0.0043652,-0.000526009,0.00416431,0.00674893,-0.00290974,0.519892,0.0057214,0.0246278,587,1198,-30.5351,-2.17521
-630,-174,-30.6348,2.62036,0.00163984,-0.000273683,0.00247316,0.00333486,-0.0019687,0.600835,0.00309568,0.0130132,594,1198,-30.6348,-2.6203
-623,-174,-30.6592,3.07629,-0.00058095,0.00036702,0.000880035,0.000892597,-0.00110653,1.03242,0.0011564,0.0152371,601,1198,-30.6592,-3.07634
-616,-174,-30.6412,3.59961,-0.00163178,0.000545244,-0.000849431,0.000837454,-0.00192399,-1.23947,0.00163494,0.0206662,608,1198,-30.6412,-3.59958
-609,-174,-30.6862,4.10522,-0.00190262,0.000281137,-0.00200634,0.00147347,-0.00309495,-1.03459,0.00269239,0.0215907,615,1198,-30.6862,-4.10521
-602,-174,-30.7607,4.56812,-0.00168314,-9.57771e-05,-0.00272328,0.00194712,-0.00372604,-0.927192,0.00332864,0.0172847,622,1198,-30.7608,-4.56815
-595,-174,-30.5356,5.00085,0,0,0,0,0,0,0,-1,629,1198,-30.5356,-5.0009
-588,-174,-31.1692,5.43115,0,0,0,0,0,0,0,-1,636,1198,-31.1692,-5.4312
-581,-174,-31.253,5.99536,0,0,0,0,0,0,0,-1,643,1198,-31.253,-5.9953
-574,-174,-28.9177,6.23047,0,0,0,0,0,0,0,-1,650,1198,-28.9177,-6.23053
-567,-174,-26.6597,3.04041,0,0,0,0,0,0,0,-1,657,1198,-26.6597,-3.04039
-560,-174,-39.1669,1.07666,0,0,0,0,0,0,0,-1,664,1198,-39.1669,-1.07663
-553,-174,-39.2137,0.919067,-0.00214026,-0.000504546,-0.00364549,0.0024137,-0.00505851,-0.895745,0.00440324,0.0469248,671,1198,-39.2137,-0.919081
-546,-174,-39.246,0.813843,-0.00148243,-0.000666481,-0.00355022,0.00249913,-0.00464804,-0.842605,0.00418813,0.0323099,678,1198,-39.246,-0.813798
-539,-174,-39.3022,0.773804,-0.000753466,-0.000472465,-0.00316485,0.002555,-0.00378093,-0.807581,0.0036808,0.0363551,685,1198,-39.3022,-0.773856
-532,-174,-39.3278,0.674683,-0.000148731,0.000120861,-0.00246771,0.00245746,-0.00248533,-0.812683,0.00285373,0.0448814,692,1198,-39.3278,-0.674633
-525,-174,-39.3074,0.626099,0.00132607,0.00211338,-0.00161762,0.00338456,5.48934e-05,-0.904756,0.0022383,0.0467832,699,1198,-39.3074,-0.626081
-518,-174,-39.0375,0.302368,0.00335561,0.00471463,-0.000561167,0.00491639,0.00315384,-1.22565,0.00287612,0.0475077,706,1198,-39.0375,-0.30232
-511,-174,0,0,0,0,0,0,0,0,0,-1,713,1198,0,0
-504,-174,0,0,0,0,0,0,0,0,0,-1,720,1198,0,0
-497,-174,0,0,0,0,0,0,0,0,0,-1,727,1198,0,0
-490,-174,0,0,0,0,0,0,0,0,0,-1,734,1198,0,0
-483,-174,0,0,0,0,0,0,0,0,0,-1,741,1198,0,0
-476,-174,0,0,0,0,0,0,0,0,0,-1,748,1198,0,0
-469,-174,0,0,0,0,0,0,0,0,0,-1,755,1198,0,0
-462,-174,0,0,0,0,0,0,0,0,0,-1,762,1198,0,0
-455,-174,0,0,0,0,0,0,0,0,0,-1,769,1198,0,0
-448,-174,0,0,0,0,0,0,0,0,0,-1,776,1198,0,0
-441,-174,0,0,0,0,0,0,0,0,0,-1,783,1198,0,0
-434,-174,0,0,0,0,0,0,0,0,0,-1,790,1198,0,0
-427,-174,0,0,0,0,0,0,0,0,0,-1,797,1198,0,0
-420,-174,0,0,0,0,0,0,0,0,0,-1,804,1198,0,0
-413,-174,0,0,0,0,0,0,0,0,0,-1,811,1198,0,0
-406,-174,0,0,0,0,0,0,0,0,0,-1,818,1198,0,0
-399,-174,0,0,0,0,0,0,0,0,0,-1,825,1198,0,0
-392,-174,0,0,0,0,0,0,0,0,0,-1,832,1198,0,0
-385,-174,0,0,0,0,0,0,0,0,0,-1,839,1198,0,0
-378,-174,0,0,0,0,0,0,0,0,0,-1,846,1198,0,0
-371,-174,0,0,0,0,0,0,0,0,0,-1,853,1198,0,0
-364,-174,0,0,0,0,0,0,0,0,0,-1,860,1198,0,0
-357,-174,0,0,0,0,0,0,0,0,0,-1,867,1198,0,0
-350,-174,0,0,0,0,0,0,0,0,0,-1,874,1198,0,0
-343,-174,0,0,0,0,0,0,0,0,0,-1,881,1198,0,0
-336,-174,0,0,0,0,0,0,0,0,0,-1,888,1198,0,0
-329,-174,0,0,0,0,0,0,0,0,0,-1,895,1198,0,0
-322,-174,0,0,0,0,0,0,0,0,0,-1,902,1198,0,0
-315,-174,0,0,0,0,0,0,0,0,0,-1,909,1198,0,0
-308,-174,0,0,0,0,0,0,0,0,0,-1,916,1198,0,0
-301,-174,0,0,0,0,0,0,0,0,0,-1,923,1198,0,0
-294,-174,0,0,0,0,0,0,0,0,0,-1,930,1198,0,0
-287,-174,0,0,0,0,0,0,0,0,0,-1,937,1198,0,0
-280,-174,0,0,0,0,0,0,0,0,0,-1,944,1198,0,0
-273,-174,0,0,0,0,0,0,0,0,0,-1,951,1198,0,0
-266,-174,0,0,0,0,0,0,0,0,0,-1,958,1198,0,0
-259,-174,0,0,0,0,0,0,0,0,0,-1,965,1198,0,0
-252,-174,0,0,0,0,0,0,0,0,0,-1,972,1198,0,0
-245,-174,0,0,0,0,0,0,0,0,0,-1,979,1198,0,0
-238,-174,0,0,0,0,0,0,0,0,0,-1,986,1198,0,0
-231,-174,0,0,0,0,0,0,0,0,0,-1,993,1198,0,0
-224,-174,0,0,0,0,0,0,0,0,0,-1,1000,1198,0,0
-217,-174,0,0,0,0,0,0,0,0,0,-1,1007,1198,0,0
-210,-174,0,0,0,0,0,0,0,0,0,-1,1014,1198,0,0
-203,-174,0,0,0,0,0,0,0,0,0,-1,1021,1198,0,0
-196,-174,0,0,0,0,0,0,0,0,0,-1,1028,1198,0,0
-189,-174,0,0,0,0,0,0,0,0,0,-1,1035,1198,0,0
-182,-174,0,0,0,0,0,0,0,0,0,-1,1042,1198,0,0
-175,-174,0,0,0,0,0,0,0,0,0,-1,1049,1198,0,0
-168,-174,0,0,0,0,0,0,0,0,0,-1,1056,1198,0,0
-161,-174,0,0,0,0,0,0,0,0,0,-1,1063,1198,0,0
-154,-174,0,0,0,0,0,0,0,0,0,-1,1070,1198,0,0
-147,-174,0,0,0,0,0,0,0,0,0,-1,1077,1198,0,0
-140,-174,0,0,0,0,0,0,0,0,0,-1,1084,1198,0,0
-133,-174,0,0,0,0,0,0,0,0,0,-1,1091,1198,0,0
-126,-174,0,0,0,0,0,0,0,0,0,-1,1098,1198,0,0
-119,-174,0,0,0,0,0,0,0,0,0,-1,1105,1198,0,0
-112,-174,0,0,0,0,0,0,0,0,0,-1,1112,1198,0,0
-105,-174,0,0,0,0,0,0,0,0,0,-1,1119,1198,0,0
-98,-174,0,0,0,0,0,0,0,0,0,-1,1126,1198,0,0
-91,-174,0,0,0,0,0,0,0,0,0,-1,1133,1198,0,0
-84,-174,0,0,0,0,0,0,0,0,0,-1,1140,1198,0,0
-77,-174,0,0,0,0,0,0,0,0,0,-1,1147,1198,0,0
-70,-174,0,0,0,0,0,0,0,0,0,-1,1154,1198,0,0
-63,-174,0,0,0,0,0,0,0,0,0,-1,1161,1198,0,0
-56,-174,0,0,0,0,0,0,0,0,0,-1,1168,1198,0,0
-49,-174,0,0,0,0,0,0,0,0,0,-1,1175,1198,0,0
-42,-174,0,0,0,0,0,0,0,0,0,-1,1182,1198,0,0
-35,-174,0,0,0,0,0,0,0,0,0,-1,1189,1198,0,0
-28,-174,0,0,0,0,0,0,0,0,0,-1,1196,1198,0,0
-21,-174,0,0,0,0,0,0,0,0,0,-1,1203,1198,0,0
-14,-174,0,0,0,0,0,0,0,0,0,-1,1210,1198,0,0
-7,-174,0,0,0,0,0,0,0,0,0,-1,1217,1198,0,0
0,-174,0,0,0,0,0,0,0,0,0,-1,1224,1198,0,0
7,-174,0,0,0,0,0,0,0,0,0,-1,1231,1198,0,0
14,-174,0,0,0,0,0,0,0,0,0,-1,1238,1198,0,0
21,-174,0,0,0,0,0,0,0,0,0,-1,1245,1198,0,0
28,-174,0,0,0,0,0,0,0,0,0,-1,1252,1198,0,0
35,-174,0,0,0,0,0,0,0,0,0,-1,1259,1198,0,0
42,-174,0,0,0,0,0,0,0,0,0,-1,1266,1198,0,0
49,-174,0,0,0,0,0,0,0,0,0,-1,1273,1198,0,0
56,-174,0,0,0,0,0,0,0,0,0,-1,1280,1198,0,0
63,-174,0,0,0,0,0,0,0,0,0,-1,1287,1198,0,0
70,-174,0,0,0,0,0,0,0,0,0,-1,1294,1198,0,0
77,-174,0,0,0,0,0,0,0,0,0,-1,1301,1198,0,0
84,-174,0,0,0,0,0,0,0,0,0,-1,1308,1198,0,0
91,-174,0,0,0,0,0,0,0,0,0,-1,1315,1198,0,0
98,-174,0,0,0,0,0,0,0,0,0,-1,1322,1198,0,0
105,-174,0,0,0,0,0,0,0,0,0,-1,1329,1198,0,0
112,-174,0,0,0,0,0,0,0,0,0,-1,1336,1198,0,0
119,-174,0,0,0,0,0,0,0,0,0,-1,1343,1198,0,0
126,-174,0,0,0,0,0,0,0,0,0,-1,1350,1198,0,0
133,-174,0,0,0,0,0,0,0,0,0,-1,1357,1198,0,0
140,-174,0,0,0,0,0,0,0,0,0,-1,1364,1198,0,0
147,-174,0,0,0,0,0,0,0,0,0,-1,1371,1198,0,0
154,-174,0,0,0,0,0,0,0,0,0,-1,1378,1198,0,0
161,-174,0,0,0,0,0,0,0,0,0,-1,1385,1198,0,0
168,-174,0,0,0,0,0,0,0,0,0,-1,1392,1198,0,0
175,-174,0,0,0,0,0,0,0,0,0,-1,1399,1198,0,0
182,-174,0,0,0,0,0,0,0,0,0,-1,1406,1198,0,0
189,-174,0,0,0,0,0,0,0,0,0,-1,1413,1198,0,0
196,-174,0,0,0,0,0,0,0,0,0,-1,1420,1198,0,0
203,-174,0,0,0,0,0,0,0,0,0,-1,1427,1198,0,0
210,-174,0,0,0,0,0,0,0,0,0,-1,1434,1198,0,0
217,-174,0,0,0,0,0,0,0,0,0,-1,1441,1198,0,0
224,-174,0,0,0,0,0,0,0,0,0,-1,1448,1198,0,0
231,-174,0,0,0,0,0,0,0,0,0,-1,1455,1198,0,0
238,-174,0,0,0,0,0,0,0,0,0,-1,1462,1198,0,0
245,-174,0,0,0,0,0,0,0,0,0,-1,1469,1198,0,0
252,-174,0,0,0,0,0,0,0,0,0,-1,1476,1198,0,0
259,-174,0,0,0,0,0,0,0,0,0,-1,1483,1198,0,0
266,-174,0,0,0,0,0,0,0,0,0,-1,1490,1198,0,0
273,-174,0,0,0,0,0,0,0,0,0,-1,1497,1198,0,0
280,-174,0,0,0,0,0,0,0,0,0,-1,1504,1198,0,0
287,-174,0,0,0,0,0,0,0,0,0,-1,1511,1198,0,0
294,-174,0,0,0,0,0,0,0,0,0,-1,1518,1198,0,0
301,-174,0,0,0,0,0,0,0,0,0,-1,1525,1198,0,0
308,-174,0,0,0,0,0,0,0,0,0,-1,1532,1198,0,0
315,-174,0,0,0,0,0,0,0,0,0,-1,1539,1198,0,0
322,-174,0,0,0,0,0,0,0,0,0,-1,1546,1198,0,0
329,-174,0,0,0,0,0,0,0,0,0,-1,1553,1198,0,0
336,-174,0,0,0,0,0,0,0,0,0,-1,1560,1198,0,0
343,-174,0,0,0,0,0,0,0,0,0,-1,1567,1198,0,0
350,-174,0,0,0,0,0,0,0,0,0,-1,1574,1198,0,0
357,-174,0,0,0,0,0,0,0,0,0,-1,1581,1198,0,0
364,-174,0,0,0,0,0,0,0,0,0,-1,1588,1198,0,0
371,-174,0,0,0,0,0,0,0,0,0,-1,1595,1198,0,0
378,-174,0,0,0,0,0,0,0,0,0,-1,1602,1198,0,0
385,-174,0,0,0,0,0,0,0,0,0,-1,1609,1198,0,0
392,-174,0,0,0,0,0,0,0,0,0,-1,1616,1198,0,0
399,-174,0,0,0,0,0,0,0,0,0,-1,1623,1198,0,0
406,-174,0,0,0,0,0,0,0,0,0,-1,1630,1198,0,0
413,-174,0,0,0,0,0,0,0,0,0,-1,1637,1198,0,0
420,-174,0,0,0,0,0,0,0,0,0,-1,1644,1198,0,0
427,-174,0,0,0,0,0,0,0,0,0,-1,1651,1198,0,0
434,-174,0,0,0,0,0,0,0,0,0,-1,1658,1198,0,0
441,-174,0,0,0,0,0,0,0,0,0,-1,1665,1198,0,0
448,-174,0,0,0,0,0,0,0,0,0,-1,1672,1198,0,0
455,-174,0,0,0,0,0,0,0,0,0,-1,1679,1198,0,0
462,-174,0,0,0,0,0,0,0,0,0,-1,1686,1198,0,0
469,-174,0,0,0,0,0,0,0,0,0,-1,1693,1198,0,0
476,-174,0,0,0,0,0,0,0,0,0,-1,1700,1198,0,0
483,-174,0,0,0,0,0,0,0,0,0,-1,1707,1198,0,0
490,-174,0,0,0,0,0,0,0,0,0,-1,1714,1198,0,0
497,-174,0,0,0,0,0,0,0,0,0,-1,1721,1198,0,0
504,-174,0,0,0,0,0,0,0,0,0,-1,1728,1198,0,0
511,-174,0,0,0,0,0,0,0,0,0,-1,1735,1198,0,0
518,-174,0,0,0,0,0,0,0,0,0,-1,1742,1198,0,0
525,-174,0,0,0,0,0,0,0,0,0,-1,1749,1198,0,0
532,-174,0,0,0,0,0,0,0,0,0,-1,1756,1198,0,0
539,-174,0,0,0,0,0,0,0,0,0,-1,1763,1198,0,0
546,-174,0,0,0,0,0,0,0,0,0,-1,1770,1198,0,0
553,-174,0,0,0,0,0,0,0,0,0,-1,1777,1198,0,0
560,-174,0,0,0,0,0,0,0,0,0,-1,1784,1198,0,0
567,-174,0,0,0,0,0,0,0,0,0,-1,1791,1198,0,0
574,-174,0,0,0,0,0,0,0,0,0,-1,1798,1198,0,0
581,-174,0,0,0,0,0,0,0,0,0,-1,1805,1198,0,0
588,-174,0,0,0,0,0,0,0,0,0,-1,1812,1198,0,0
595,-174,0,0,0,0,0,0,0,0,0,-1,1819,1198,0,0
602,-174,0,0,0,0,0,0,0,0,0,-1,1826,1198,0,0
609,-174,0,0,0,0,0,0,0,0,0,-1,1833,1198,0,0
616,-174,0,0,0,0,0,0,0,0,0,-1,1840,1198,0,0
623,-174,0,0,0,0,0,0,0,0,0,-1,1847,1198,0,0
630,-174,0,0,0,0,0,0,0,0,0,-1,1854,1198,0,0
637,-174,52.8796,2.67725,-0.00253534,-0.000572361,0.00233559,0.000979585,-0.00408729,0.984311,0.00310336,0.0411284,1861,1198,52.8796,-2.67722
644,-174,52.9095,2.58374,-0.00166083,-8.69577e-05,0.00152908,0.000845803,-0.00259359,1.02305,0.00206943,0.0394979,1868,1198,52.9096,-2.58378
651,-174,52.7994,2.70789,-0.00055185,0.00037576,0.000588454,0.000661216,-0.000837306,1.11914,0.000867161,0.0377426,1875,1198,52.7994,-2.7079
658,-174,52.7744,2.80359,0.000567882,0.000693787,-0.000377299,0.00101335,0.00024832,-0.868062,0.000609884,0.0373314,1882,1198,52.7744,-2.80363
665,-174,52.8931,2.67493,0.00154765,0.000723226,-0.00115962,0.00236614,-9.52655e-05,-0.614627,0.00161012,0.0342041,1889,1198,52.8931,-2.67498
672,-174,52.8959,2.56152,0.00186905,0.000752665,-0.00143773,0.00285314,-0.000231424,-0.600231,0.00198374,0.0265594,1896,1198,52.8959,-2.56149
679,-174,52.86,2.55286,0.00183382,0.000503454,-0.00137518,0.00269625,-0.000358974,-0.560134,0.00192833,0.0228996,1903,1198,52.86,-2.55291
686,-174,52.8893,2.53699,0,0,0,0,0,0,0,-1,1910,1198,52.8893,-2.53699
693,-174,51.1324,2.57349,0,0,0,0,0,0,0,-1,1917,1198,51.1325,-2.57343
700,-174,25.4004,6.11792,0,0,0,0,0,0,0,-1,1924,1198,25.4004,-6.11797
707,-174,34.7908,7.34473,0,0,0,0,0,0,0,-1,1931,1198,34.7908,-7.34475
714,-174,40.1135,7.79871,0,0,0,0,0,0,0,-1,1938,1198,40.1135,-7.79875
721,-174,40.8693,7.59863,0,0,0,0,0,0,0,-1,1945,1198,40.8693,-7.59859
728,-174,44.5784,7.54077,0,0,0,0,0,0,0,-1,1952,1198,44.5784,-7.54077
735,-174,44.614,7.09033,0.00017436,-0.000480406,0.000799366,0.000710785,-0.00101683,0.591041,0.00100264,0.0147866,1959,1198,44.614,-7.09033
742,-174,44.6188,6.60864,-1.43243e-05,-6.62241e-05,0.000732081,0.000692267,-0.000772815,0.767682,0.000846291,0.0207035,1966,1198,44.6188,-6.60862
749,-174,44.6218,6.17236,-5.28729e-05,0.00065353,0.000145438,0.000682301,-8.16444e-05,1.37549,0.000484381,0.0178237,1973,1198,44.6218,-6.1724
756,-174,44.5942,5.72827,-5.58814e-05,0.00141221,-0.000776694,0.00174685,-0.000390515,-1.16399,0.00131422,0.0104009,1980,1198,44.5942,-5.72829
763,-174,44.5695,5.2887,-0.000147501,0.00209481,-0.00229131,0.00352456,-0.00157724,-1.01293,0.0030162,0.0141315,1987,1198,44.5695,-5.28867
770,-174,44.6718,4.84875,-0.000701886,0.0024647,-0.00423084,0.0053988,-0.00363599,-0.964444,0.00524923,0.0350019,1994,1198,44.6718,-4.84873
777,-174,44.8312,4.45007,0,0,0,0,0,0,0,-1,2001,1198,44.8312,-4.45004
784,-174,45.0332,4.93396,0,0,0,0,0,0,0,-1,2008,1198,45.0332,-4.93401
791,-174,46.0781,7.20679,0,0,0,0,0,0,0,-1,2015,1198,46.078,-7.20678
798,-174,45.6082,6.08191,0,0,0,0,0,0,0,-1,2022,1198,45.6081,-6.08197
805,-174,46.0876,4.97473,0,0,0,0,0,0,0,-1,2029,1198,46.0876,-4.97479
812,-174,0,0,0,0,0,0,0,0,0,-1,2036,1198,0,0
-700,-181,0,0,0,0,0,0,0,0,0,-1,524,1205,0,0
-693,-181,0,0,0,0,0,0,0,0,0,-1,531,1205,0,0
-686,-181,-31.9374,-3.7179,0,0,0,0,0,0,0,-1,538,1205,-31.9374,3.71786
-679,-181,-31.9146,-2.83508,0.0374141,-0.0116862,0.0131243,0.040702,-0.0149741,0.245468,0.0332689,0.0474275,545,1205,-31.9145,2.83508
-672,-181,-31.2942,-2.56677,0.0301521,-0.0100309,0.0126415,0.0337982,-0.0136771,0.280805,0.0282185,0.0486521,552,1205,-31.2942,2.56671
-665,-181,-31.1266,-1.96179,0.0235124,-0.0080638,0.0114455,0.0272246,-0.0117761,0.313636,0.0230984,0.0459682,559,1205,-31.1266,1.96174
-658,-181,-30.1417,-0.566772,0,0,0,0,0,0,0,-1,566,1205,-30.1416,0.566794
-651,-181,-30.0554,1.35901,0,0,0,0,0,0,0,-1,573,1205,-30.0554,-1.35906
-644,-181,-30.0599,1.77563,0.00850174,-0.00263178,0.00616319,0.01124,-0.00537006,0.418101,0.00978741,0.0477286,580,1205,-30.0599,-1.77569
-637,-181,-30.0336,2.21521,0.00511983,-0.00143763,0.00427442,0.00722819,-0.00354599,0.458234,0.00634041,0.0264196,587,1205,-30.0336,-2.21515
-630,-181,-30.1273,2.6261,0.00216636,-0.000732171,0.00258866,0.00368384,-0.00224965,0.530211,0.0034589,0.0137314,594,1205,-30.1273,-2.62616
-623,-181,-30.1785,3.08374,-0.000149869,0.000144864,0.0010641,0.00107175,-0.00107676,0.854205,0.00124045,0.0159138,601,1205,-30.1785,-3.0837
-616,-181,-30.1619,3.6145,-0.00126715,0.000550167,-0.000637949,0.000751752,-0.00146873,-1.26474,0.00130408,0.0151566,608,1205,-30.1619,-3.61446
-609,-181,-30.17,4.13599,-0.00146861,0.000438566,-0.00188264,0.00159535,-0.00262539,-1.01982,0.00246091,0.013533,615,1205,-30.17,-4.13599
-602,-181,-30.19,4.63574,-0.00125514,3.50373e-05,-0.00269167,0.00215785,-0.00337794,-0.90301,0.00322186,0.014133,622,1205,-30.19,-4.63576
-595,-181,-30.4174,5.0166,-0.00160941,0.000105275,-0.00294028,0.00231066,-0.0038148,-0.927258,0.0035719,0.0399784,629,1205,-30.4173,-5.01658
-588,-181,-30.7098,5.57483,-0.00207278,-9.53397e-05,-0.00317507,0.0022414,-0.00440952,-0.93634,0.00390732,0.0353564,636,1205,-30.7099,-5.57479
-581,-181,-30.6103,6.16345,-0.00201074,-0.000332631,-0.00339046,0.00232106,-0.00466443,-0.906699,0.00410802,0.0315707,643,1205,-30.6103,-6.16343
-574,-181,-30.165,6.66052,0,0,0,0,0,0,0,-1,650,1205,-30.165,-6.66055
-567,-181,-25.8839,3.34485,0,0,0,0,0,0,0,-1,657,1205,-25.8839,-3.3449
-560,-181,-31.7396,1.63306,0,0,0,0,0,0,0,-1,664,1205,-31.7396,-1.63303
-553,-181,-39.151,0.98877,0,0,0,0,0,0,0,-1,671,1205,-39.151,-0.988794
-546,-181,-39.1581,0.752441,-0.000770815,-0.00110963,-0.00359346,0.00265723,-0.00453767,-0.761844,0.004201,0.0362226,678,1205,-39.1581,-0.752486
-539,-181,-39.2824,0.880249,-0.00019997,-0.00110139,-0.00317332,0.00255449,-0.00385585,-0.714854,0.00372634,0.0390986,685,1205,-39.2824,-0.880236
-532,-181,-39.3447,0.92688,5.57983e-05,-0.000768513,-0.0023224,0.00200233,-0.00271504,-0.697577,0.00273392,0.0448022,692,1205,-39.3447,-0.926926
-525,-181,-39.3165,0.940063,0,0,0,0,0,0,0,-1,699,1205,-39.3165,-0.940068
-518,-181,-39.1191,0.656006,0,0,0,0,0,0,0,-1,706,1205,-39.1191,-0.656035
-511,-181,0,0,0,0,0,0,0,0,0,-1,713,1205,0,0
-504,-181,0,0,0,0,0,0,0,0,0,-1,720,1205,0,0
-497,-181,0,0,0,0,0,0,0,0,0,-1,727,1205,0,0
-490,-181,0,0,0,0,0,0,0,0,0,-1,734,1205,0,0
-483,-181,0,0,0,0,0,0,0,0,0,-1,741,1205,0,0
-476,-181,0,0,0,0,0,0,0,0,0,-1,748,1205,0,0
-469,-181,0,0,0,0,0,0,0,0,0,-1,755,1205,0,0
-462,-181,0,0,0,0,0,0,0,0,0,-1,762,1205,0,0
-455,-181,0,0,0,0,0,0,0,0,0,-1,769,1205,0,0
-448,-181,0,0,0,0,0,0,0,0,0,-1,776,1205,0,0
-441,-181,0,0,0,0,0,0,0,0,0,-1,783,1205,0,0
-434,-181,0,0,0,0,0,0,0,0,0,-1,790,1205,0,0
-427,-181,0,0,0,0,0,0,0,0,0,-1,797,1205,0,0
-420,-181,0,0,0,0,0,0,0,0,0,-1,804,1205,0,0
-413,-181,0,0,0,0,0,0,0,0,0,-1,811,1205,0,0
-406,-181,0,0,0,0,0,0,0,0,0,-1,818,1205,0,0
-399,-181,0,0,0,0,0,0,0,0,0,-1,825,1205,0,0
-392,-181,0,0,0,0,0,0,0,0,0,-1,832,1205,0,0
-385,-181,0,0,0,0,0,0,0,0,0,-1,839,1205,0,0
-378,-181,0,0,0,0,0,0,0,0,0,-1,846,1205,0,0
-371,-181,0,0,0,0,0,0,0,0,0,-1,853,1205,0,0
-364,-181,0,0,0,0,0,0,0,0,0,-1,860,1205,0,0
-357,-181,0,0,0,0,0,0,0,0,0,-1,867,1205,0,0
-350,-181,0,0,0,0,0,0,0,0,0,-1,874,1205,0,0
-343,-181,0,0,0,0,0,0,0,0,0,-1,881,1205,0,0
-336,-181,0,0,0,0,0,0,0,0,0,-1,888,1205,0,0
-329,-181,0,0,0,0,0,0,0,0,0,-1,895,1205,0,0
-322,-181,0,0,0,0,0,0,0,0,0,-1,902,1205,0,0
-315,-181,0,0,0,0,0,0,0,0,0,-1,909,1205,0,0
-308,-181,0,0,0,0,0,0,0,0,0,-1,916,1205,0,0
-301,-181,0,0,0,0,0,0,0,0,0,-1,923,1205,0,0
-294,-181,0,0,0,0,0,0,0,0,0,-1,930,1205,0,0
-287,-181,0,0,0,0,0,0,0,0,0,-1,937,1205,0,0
-280,-181,0,0,0,0,0,0,0,0,0,-1,944,1205,0,0
-273,-181,0,0,0,0,0,0,0,0,0,-1,951,1205,0,0
-266,-181,0,0,0,0,0,0,0,0,0,-1,958,1205,0,0
-259,-181,0,0,0,0,0,0,0,0,0,-1,965,1205,0,0
-252,-181,0,0,0,0,0,0,0,0,0,-1,972,1205,0,0
-245,-181,0,0,0,0,0,0,0,0,0,-1,979,1205,0,0
-238,-181,0,0,0,0,0,0,0,0,0,-1,986,1205,0,0
-231,-181,0,0,0,0,0,0,0,0,0,-1,993,1205,0,0
-224,-181,0,0,0,0,0,0,0,0,0,-1,1000,1205,0,0
-217,-181,0,0,0,0,0,0,0,0,0,-1,1007,1205,0,0
-210,-181,0,0,0,0,0,0,0,0,0,-1,1014,1205,0,0
-203,-181,0,0,0,0,0,0,0,0,0,-1,1021,1205,0,0
-196,-181,0,0,0,0,0,0,0,0,0,-1,1028,1205,0,0
-189,-181,0,0,0,0,0,0,0,0,0,-1,1035,1205,0,0
-182,-181,0,0,0,0,0,0,0,0,0,-1,1042,1205,0,0
-175,-181,0,0,0,0,0,0,0,0,0,-1,1049,1205,0,0
-168,-181,0,0,0,0,0,0,0,0,0,-1,1056,1205,0,0
-161,-181,0,0,0,0,0,0,0,0,0,-1,1063,1205,0,0
-154,-181,0,0,0,0,0,0,0,0,0,-1,1070,1205,0,0
-147,-181,0,0,0,0,0,0,0,0,0,-1,1077,1205,0,0
-140,-181,0,0,0,0,0,0,0,0,0,-1,1084,1205,0,0
-133,-181,0,0,0,0,0,0,0,0,0,-1,1091,1205,0,0
-126,-181,0,0,0,0,0,0,0,0,0,-1,1098,1205,0,0
-119,-181,0,0,0,0,0,0,0,0,0,-1,1105,1205,0,0
-112,-181,0,0,0,0,0,0,0,0,0,-1,1112,1205,0,0
-105,-181,0,0,0,0,0,0,0,0,0,-1,1119,1205,0,0
-98,-181,0,0,0,0,0,0,0,0,0,-1,1126,1205,0,0
-91,-181,0,0,0,0,0,0,0,0,0,-1,1133,1205,0,0
-84,-181,0,0,0,0,0,0,0,0,0,-1,1140,1205,0,0
-77,-181,0,0,0,0,0,0,0,0,0,-1,1147,1205,0,0
-70,-181,0,0,0,0,0,0,0,0,0,-1,1154,1205,0,0
-63,-181,0,0,0,0,0,0,0,0,0,-1,1161,1205,0,0
-56,-181,0,0,0,0,0,0,0,0,0,-1,1168,1205,0,0
-49,-181,0,0,0,0,0,0,0,0,0,-1,1175,1205,0,0
-42,-181,0,0,0,0,0,0,0,0,0,-1,1182,1205,0,0
-35,-181,0,0,0,0,0,0,0,0,0,-1,1189,1205,0,0
-28,-181,0,0,0,0,0,0,0,0,0,-1,1196,1205,0,0
-21,-181,0,0,0,0,0,0,0,0,0,-1,1203,1205,0,0
-14,-181,0,0,0,0,0,0,0,0,0,-1,1210,1205,0,0
-7,-181,0,0,0,0,0,0,0,0,0,-1,1217,1205,0,0
0,-181,0,0,0,0,0,0,0,0,0,-1,1224,1205,0,0
7,-181,0,0,0,0,0,0,0,0,0,-1,1231,1205,0,0
14,-181,0,0,0,0,0,0,0,0,0,-1,1238,1205,0,0
21,-181,0,0,0,0,0,0,0,0,0,-1,1245,1205,0,0
28,-181,0,0,0,0,0,0,0,0,0,-1,1252,1205,0,0
35,-181,0,0,0,0,0,0,0,0,0,-1,1259,1205,0,0
42,-181,0,0,0,0,0,0,0,0,0,-1,1266,1205,0,0
49,-181,0,0,0,0,0,0,0,0,0,-1,1273,1205,0,0
56,-181,0,0,0,0,0,0,0,0,0,-1,1280,1205,0,0
63,-181,0,0,0,0,0,0,0,0,0,-1,1287,1205,0,0
70,-181,0,0,0,0,0,0,0,0,0,-1,1294,1205,0,0
77,-181,0,0,0,0,0,0,0,0,0,-1,1301,1205,0,0
84,-181,0,0,0,0,0,0,0,0,0,-1,1308,1205,0,0
91,-181,0,0,0,0,0,0,0,0,0,-1,1315,1205,0,0
98,-181,0,0,0,0,0,0,0,0,0,-1,1322,1205,0,0
105,-181,0,0,0,0,0,0,0,0,0,-1,1329,1205,0,0
112,-181,0,0,0,0,0,0,0,0,0,-1,1336,1205,0,0
119,-181,0,0,0,0,0,0,0,0,0,-1,1343,1205,0,0
126,-181,0,0,0,0,0,0,0,0,0,-1,1350,1205,0,0
133,-181,0,0,0,0,0,0,0,0,0,-1,1357,1205,0,0
140,-181,0,0,0,0,0,0,0,0,0,-1,1364,1205,0,0
147,-181,0,0,0,0,0,0,0,0,0,-1,1371,1205,0,0
154,-181,0,0,0,0,0,0,0,0,0,-1,1378,1205,0,0
161,-181,0,0,0,0,0,0,0,0,0,-1,1385,1205,0,0
168,-181,0,0,0,0,0,0,0,0,0,-1,1392,1205,0,0
175,-181,0,0,0,0,0,0,0,0,0,-1,1399,1205,0,0
182,-181,0,0,0,0,0,0,0,0,0,-1,1406,1205,0,0
189,-181,0,0,0,0,0,0,0,0,0,-1,1413,1205,0,0
196,-181,0,0,0,0,0,0,0,0,0,-1,1420,1205,0,0
203,-181,0,0,0,0,0,0,0,0,0,-1,1427,1205,0,0
210,-181,0,0,0,0,0,0,0,0,0,-1,1434,1205,0,0
217,-181,0,0,0,0,0,0,0,0,0,-1,1441,1205,0,0
224,-181,0,0,0,0,0,0,0,0,0,-1,1448,1205,0,0
231,-181,0,0,0,0,0,0,0,0,0,-1,1455,1205,0,0
238,-181,0,0,0,0,0,0,0,0,0,-1,1462,1205,0,0
245,-181,0,0,0,0,0,0,0,0,0,-1,1469,1205,0,0
252,-181,0,0,0,0,0,0,0,0,0,-1,1476,1205,0,0
259,-181,0,0,0,0,0,0,0,0,0,-1,1483,1205,0,0
266,-181,0,0,0,0,0,0,0,0,0,-1,1490,1205,0,0
273,-181,0,0,0,0,0,0,0,0,0,-1,1497,1205,0,0
280,-181,0,0,0,0,0,0,0,0,0,-1,1504,1205,0,0
287,-181,0,0,0,0,0,0,0,0,0,-1,1511,1205,0,0
294,-181,0,0,0,0,0,0,0,0,0,-1,1518,1205,0,0
301,-181,0,0,0,0,0,0,0,0,0,-1,1525,1205,0,0
308,-181,0,0,0,0,0,0,0,0,0,-1,1532,1205,0,0
315,-181,0,0,0,0,0,0,0,0,0,-1,1539,1205,0,0
322,-181,0,0,0,0,0,0,0,0,0,-1,1546,1205,0,0
329,-181,0,0,0,0,0,0,0,0,0,-1,1553,1205,0,0
336,-181,0,0,0,0,0,0,0,0,0,-1,1560,1205,0,0
343,-181,0,0,0,0,0,0,0,0,0,-1,1567,1205,0,0
350,-181,0,0,0,0,0,0,0,0,0,-1,1574,1205,0,0
357,-181,0,0,0,0,0,0,0,0,0,-1,1581,1205,0,0
364,-181,0,0,0,0,0,0,0,0,0,-1,1588,1205,0,0
371,-181,0,0,0,0,0,0,0,0,0,-1,1595,1205,0,0
378,-181,0,0,0,0,0,0,0,0,0,-1,1602,1205,0,0
385,-181,0,0,0,0,0,0,0,0,0,-1,1609,1205,0,0
392,-181,0,0,0,0,0,0,0,0,0,-1,1616,1205,0,0
399,-181,0,0,0,0,0,0,0,0,0,-1,1623,1205,0,0
406,-181,0,0,0,0,0,0,0,0,0,-1,1630,1205,0,0
413,-181,0,0,0,0,0,0,0,0,0,-1,1637,1205,0,0
420,-181,0,0,0,0,0,0,0,0,0,-1,1644,1205,0,0
427,-181,0,0,0,0,0,0,0,0,0,-1,1651,1205,0,0
434,-181,0,0,0,0,0,0,0,0,0,-1,1658,1205,0,0
441,-181,0,0,0,0,0,0,0,0,0,-1,1665,1205,0,0
448,-181,0,0,0,0,0,0,0,0,0,-1,1672,1205,0,0
455,-181,0,0,0,0,0,0,0,0,0,-1,1679,1205,0,0
462,-181,0,0,0,0,0,0,0,0,0,-1,1686,1205,0,0
469,-181,0,0,0,0,0,0,0,0,0,-1,1693,1205,0,0
476,-181,0,0,0,0,0,0,0,0,0,-1,1700,1205,0,0
483,-181,0,0,0,0,0,0,0,0,0,-1,1707,1205,0,0
490,-181,0,0,0,0,0,0,0,0,0,-1,1714,1205,0,0
497,-181,0,0,0,0,0,0,0,0,0,-1,1721,1205,0,0
504,-181,0,0,0,0,0,0,0,0,0,-1,1728,1205,0,0
511,-181,0,0,0,0,0,0,0,0,0,-1,1735,1205,0,0
518,-181,0,0,0,0,0,0,0,0,0,-1,1742,1205,0,0
525,-181,0,0,0,0,0,0,0,0,0,-1,1749,1205,0,0
532,-181,0,0,0,0,0,0,0,0,0,-1,1756,1205,0,0
539,-181,0,0,0,0,0,0,0,0,0,-1,1763,1205,0,0
546,-181,0,0,0,0,0,0,0,0,0,-1,1770,1205,0,0
553,-181,0,0,0,0,0,0,0,0,0,-1,1777,1205,0,0
560,-181,0,0,0,0,0,0,0,0,0,-1,1784,1205,0,0
567,-181,0,0,0,0,0,0,0,0,0,-1,1791,1205,0,0
574,-181,0,0,0,0,0,0,0,0,0,-1,1798,1205,0,0
581,-181,0,0,0,0,0,0,0,0,0,-1,1805,1205,0,0
588,-181,0,0,0,0,0,0,0,0,0,-1,1812,1205,0,0
595,-181,0,0,0,0,0,0,0,0,0,-1,1819,1205,0,0
602,-181,0,0,0,0,0,0,0,0,0,-1,1826,1205,0,0
609,-181,0,0,0,0,0,0,0,0,0,-1,1833,1205,0,0
616,-181,0,0,0,0,0,0,0,0,0,-1,1840,1205,0,0
623,-181,0,0,0,0,0,0,0,0,0,-1,1847,1205,0,0
630,-181,52.9329,2.78809,-0.00191256,-0.000203208,0.00210397,0.00121306,-0.00332882,0.978327,0.00271544,0.0372562,1854,1205,52.9328,-2.78809
637,-181,52.8925,2.85547,-0.00119522,8.57582e-06,0.00147378,0.000998628,-0.00218527,0.979263,0.0018803,0.0400722,1861,1205,52.8925,-2.85543
644,-181,52.8583,2.7428,-0.000378991,0.000261747,0.000772034,0.000777244,-0.000894488,0.982069,0.000965966,0.0396467,1868,1205,52.8582,-2.74279
651,-181,52.844,2.79944,0.000578243,0.000541613,-5.30508e-05,0.000616052,0.000503805,-0.619186,0.000378869,0.0371671,1875,1205,52.844,-2.79949
658,-181,52.8793,2.72095,0.00141491,0.000639765,-0.00085739,0.00196826,8.64173e-05,-0.573125,0.00128433,0.0352906,1882,1205,52.8792,-2.72095
665,-181,52.8579,2.61841,0.00204194,0.000450608,-0.001435,0.0028871,-0.000394552,-0.532263,0.00206883,0.0328083,1889,1205,52.8579,-2.61838
672,-181,52.8492,2.57275,0.00208744,0.000376915,-0.00155017,0.00300263,-0.000538273,-0.533315,0.00220321,0.0242841,1896,1205,52.8493,-2.57277
679,-181,52.8674,2.56848,0.00191705,0.000146241,-0.00143653,0.00271911,-0.000655823,-0.509221,0.00206633,0.0290326,1903,1205,52.8675,-2.56853
686,-181,52.921,2.53906,0,0,0,0,0,0,0,-1,1910,1205,52.9211,-2.53909
693,-181,36.1301,2.91016,0,0,0,0,0,0,0,-1,1917,1205,36.1302,-2.9102
700,-181,29.5845,6.58398,0,0,0,0,0,0,0,-1,1924,1205,29.5844,-6.58395
707,-181,39.8232,8.03186,0,0,0,0,0,0,0,-1,1931,1205,39.8233,-8.0319
714,-181,40.174,7.73877,0,0,0,0,0,0,0,-1,1938,1205,40.174,-7.73878
721,-181,43.8729,8.13403,0,0,0,0,0,0,0,-1,1945,1205,43.8729,-8.13409
728,-181,44.1619,7.5177,0.000423815,-0.000482121,0.000530122,0.000668135,-0.00072644,0.431859,0.000805393,0.0367606,1952,1205,44.1619,-7.51771
735,-181,44.1963,7.09668,0.000220772,-0.000544282,0.000731995,0.000664165,-0.000987675,0.544624,0.000959767,0.0131093,1959,1205,44.1963,-7.09665
742,-181,44.1639,6.67529,0.000310665,-1.14137e-05,0.000668556,0.000837303,-0.000538052,0.667212,0.000800302,0.0175324,1966,1205,44.164,-6.67526
749,-181,44.1536,6.18579,0.000745445,0.000810294,0.000139496,0.000921084,0.000634654,0.899589,0.000544309,0.0164292,1973,1205,44.1536,-6.18577
756,-181,44.1295,5.70972,0.00136066,0.00168121,-0.000658556,0.00219871,0.000843157,-0.904764,0.00128087,0.0117577,1980,1205,44.1295,-5.70973
763,-181,44.1382,5.26514,0.00201776,0.00248777,-0.00205468,0.00432084,0.000184692,-0.842338,0.00282101,0.013995,1987,1205,44.1382,-5.2652
770,-181,44.3052,4.6853,0.00235055,0.00300252,-0.0039122,0.00660229,-0.00124922,-0.826965,0.00487162,0.0390921,1994,1205,44.3052,-4.6853
777,-181,44.5731,3.96228,0,0,0,0,0,0,0,-1,2001,1205,44.5731,-3.96229
784,-181,51.3345,4.87598,0,0,0,0,0,0,0,-1,2008,1205,51.3344,-4.87593
791,-181,45.8145,8.02917,0,0,0,0,0,0,0,-1,2015,1205,45.8145,-8.02921
798,-181,45.3845,6.83154,0,0,0,0,0,0,0,-1,2022,1205,45.3844,-6.83155
805,-181,0,0,0,0,0,0,0,0,0,-1,2029,1205,0,0
812,-181,0,0,0,0,0,0,0,0,0,-1,2036,1205,0,0
-700,-188,0,0,0,0,0,0,0,0,0,-1,524,1212,0,0
-693,-188,0,0,0,0,0,0,0,0,0,-1,531,1212,0,0
-686,-188,0,0,0,0,0,0,0,0,0,-1,538,1212,0,0
-679,-188,-31.2424,-2.6969,0.0378574,-0.0197494,0.0144018,0.0412573,-0.0231492,0.231826,0.0376718,0.0488833,545,1212,-31.2424,2.69687
-672,-188,-31.4807,-2.0509,0.0310482,-0.0158524,0.0135868,0.0346999,-0.0195041,0.262563,0.0317019,0.0487886,552,1212,-31.4807,2.05095
-665,-188,-31.5349,-1.5011,0.0244872,-0.0123704,0.0121227,0.0281169,-0.0160002,0.290924,0.0257893,0.046712,559,1212,-31.5349,1.50114
-658,-188,-31.6964,-0.858032,0,0,0,0,0,0,0,-1,566,1212,-31.6964,0.858036
-651,-188,-29.5618,1.20215,0,0,0,0,0,0,0,-1,573,1212,-29.5617,-1.20217
-644,-188,-29.5897,1.68066,0.00907276,-0.00413754,0.0064012,0.0116656,-0.0067304,0.384859,0.0107476,0.0453154,580,1212,-29.5897,-1.6807
-637,-188,-29.6052,2.13635,0.00543178,-0.00223508,0.00445867,0.00747839,-0.00428169,0.430329,0.00687279,0.0245766,587,1212,-29.6052,-2.13636
-630,-188,-29.6291,2.62195,0.00231776,-0.00114577,0.00276947,0.00385234,-0.00268034,0.505989,0.00379182,0.011388,594,1212,-29.6291,-2.6219
-623,-188,-29.6437,3.13574,-2.34737e-06,-8.65493e-05,0.00129602,0.00125225,-0.00134115,0.769161,0.00149759,0.0112875,601,1212,-29.6437,-3.13574
-616,-188,-29.6405,3.64136,-0.00113642,0.000506763,-0.000407831,0.000602417,-0.00123207,-1.34042,0.00107974,0.0110212,608,1212,-29.6405,-3.64136
-609,-188,-29.6365,4.15149,-0.0011873,0.000523168,-0.00175731,0.0016223,-0.00228643,-1.01186,0.00226754,0.0126231,615,1212,-29.6365,-4.15148
-602,-188,-29.6591,4.66479,-0.000896582,7.5747e-05,-0.00260129,0.00223592,-0.00305675,-0.877779,0.00306795,0.0157908,622,1212,-29.6591,-4.6648
-595,-188,-29.7769,5.11511,-0.00117567,3.33032e-05,-0.00292178,0.00241247,-0.00355484,-0.887404,0.00346621,0.0252677,629,1212,-29.7769,-5.11515
-588,-188,-29.9671,5.63354,-0.00152966,-0.000378613,-0.00320044,0.00229764,-0.00420591,-0.87436,0.00380833,0.0266877,636,1212,-29.9671,-5.63358
-581,-188,-29.9514,6.13135,-0.00139479,-0.000707579,-0.00347846,0.0024442,-0.00454657,-0.834629,0.00409651,0.0271881,643,1212,-29.9514,-6.1313
-574,-188,-30.2709,6.54749,0,0,0,0,0,0,0,-1,650,1212,-30.2709,-6.54751
-567,-188,-19.5786,4.10388,0,0,0,0,0,0,0,-1,657,1212,-19.5785,-4.10383
-560,-188,-23.9507,0.416626,0,0,0,0,0,0,0,-1,664,1212,-23.9508,-0.416602
-553,-188,-39.0384,0.439941,0,0,0,0,0,0,0,-1,671,1212,-39.0384,-0.439918
-546,-188,-39.1431,0.748291,-0.000259334,-0.00180976,-0.00329421,0.00234964,-0.00441874,-0.669837,0.00396813,0.0430238,678,1212,-39.1431,-0.748338
-539,-188,-39.257,0.908447,0.000102027,-0.00191081,-0.00284668,0.00211495,-0.00392374,-0.615485,0.00353819,0.0369629,685,1212,-39.2569,-0.908408
-532,-188,-39.262,0.809326,2.68711e-05,-0.00181462,-0.00199976,0.00130767,-0.00309542,-0.569652,0.00261104,0.041193,692,1212,-39.2619,-0.809378
-525,-188,-39.2567,0.65332,7.94187e-05,-0.000758891,-0.00061095,0.000401176,-0.00108065,-0.48474,0.000885004,0.0432491,699,1212,-39.2567,-0.653265
-518,-188,-39.1815,0.791992,0.000880708,0.00188196,0.00147977,0.00294349,-0.000180831,0.94851,0.0020253,0.0434458,706,1212,-39.1815,-0.792014
-511,-188,-39.11,0.895142,0.00291932,0.00627003,0.00448858,0.00938573,-0.000196381,0.964015,0.00632363,0.0403636,713,1212,-39.11,-0.895114
-504,-188,0,0,0,0,0,0,0,0,0,-1,720,1212,0,0
-497,-188,0,0,0,0,0,0,0,0,0,-1,727,1212,0,0
-490,-188,0,0,0,0,0,0,0,0,0,-1,734,1212,0,0
-483,-188,0,0,0,0,0,0,0,0,0,-1,741,1212,0,0
-476,-188,0,0,0,0,0,0,0,0,0,-1,748,1212,0,0
-469,-188,0,0,0,0,0,0,0,0,0,-1,755,1212,0,0
-462,-188,0,0,0,0,0,0,0,0,0,-1,762,1212,0,0
-455,-188,0,0,0,0,0,0,0,0,0,-1,769,1212,0,0
-448,-188,0,0,0,0,0,0,0,0,0,-1,776,1212,0,0
-441,-188,0,0,0,0,0,0,0,0,0,-1,783,1212,0,0
-434,-188,0,0,0,0,0,0,0,0,0,-1,790,1212,0,0
-427,-188,0,0,0,0,0,0,0,0,0,-1,797,1212,0,0
-420,-188,0,0,0,0,0,0,0,0,0,-1,804,1212,0,0
-413,-188,0,0,0,0,0,0,0,0,0,-1,811,1212,0,0
-406,-188,0,0,0,0,0,0,0,0,0,-1,818,1212,0,0
-399,-188,0,0,0,0,0,0,0,0,0,-1,825,1212,0,0
-392,-188,0,0,0,0,0,0,0,0,0,-1,832,1212,0,0
-385,-188,0,0,0,0,0,0,0,0,0,-1,839,1212,0,0
-378,-188,0,0,0,0,0,0,0,0,0,-1,846,1212,0,0
-371,-188,0,0,0,0,0,0,0,0,0,-1,853,1212,0,0
-364,-188,0,0,0,0,0,0,0,0,0,-1,860,1212,0,0
-357,-188,0,0,0,0,0,0,0,0,0,-1,867,1212,0,0
-350,-188,0,0,0,0,0,0,0,0,0,-1,874,1212,0,0
-343,-188,0,0,0,0,0,0,0,0,0,-1,881,1212,0,0
-336,-188,0,0,0,0,0,0,0,0,0,-1,888,1212,0,0
-329,-188,0,0,0,0,0,0,0,0,0,-1,895,1212,0,0
-322,-188,0,0,0,0,0,0,0,0,0,-1,902,1212,0,0
-315,-188,0,0,0,0,0,0,0,0,0,-1,909,1212,0,0
-308,-188,0,0,0,0,0,0,0,0,0,-1,916,1212,0,0
-301,-188,0,0,0,0,0,0,0,0,0,-1,923,1212,0,0
-294,-188,0,0,0,0,0,0,0,0,0,-1,930,1212,0,0
-287,-188,0,0,0,0,0,0,0,0,0,-1,937,1212,0,0
-280,-188,0,0,0,0,0,0,0,0,0,-1,944,1212,0,0
-273,-188,0,0,0,0,0,0,0,0,0,-1,951,1212,0,0
-266,-188,0,0,0,0,0,0,0,0,0,-1,958,1212,0,0
-259,-188,0,0,0,0,0,0,0,0,0,-1,965,1212,0,0
-252,-188,0,0,0,0,0,0,0,0,0,-1,972,1212,0,0
-245,-188,0,0,0,0,0,0,0,0,0,-1,979,1212,0,0
-238,-188,0,0,0,0,0,0,0,0,0,-1,986,1212,0,0
-231,-188,0,0,0,0,0,0,0,0,0,-1,993,1212,0,0
-224,-188,0,0,0,0,0,0,0,0,0,-1,1000,1212,0,0
-217,-188,0,0,0,0,0,0,0,0,0,-1,1007,1212,0,0
-210,-188,0,0,0,0,0,0,0,0,0,-1,1014,1212,0,0
-203,-188,0,0,0,0,0,0,0,0,0,-1,1021,1212,0,0
-196,-188,0,0,0,0,0,0,0,0,0,-1,1028,1212,0,0
-189,-188,0,0,0,0,0,0,0,0,0,-1,1035,1212,0,0
-182,-188,0,0,0,0,0,0,0,0,0,-1,1042,1212,0,0
-175,-188,0,0,0,0,0,0,0,0,0,-1,1049,1212,0,0
-168,-188,0,0,0,0,0,0,0,0,0,-1,1056,1212,0,0
-161,-188,0,0,0,0,0,0,0,0,0,-1,1063,1212,0,0
-154,-188,0,0,0,0,0,0,0,0,0,-1,1070,1212,0,0
-147,-188,0,0,0,0,0,0,0,0,0,-1,1077,1212,0,0
-140,-188,0,0,0,0,0,0,0,0,0,-1,1084,1212,0,0
-133,-188,0,0,0,0,0,0,0,0,0,-1,1091,1212,0,0
-126,-188,0,0,0,0,0,0,0,0,0,-1,1098,1212,0,0
-119,-188,0,0,0,0,0,0,0,0,0,-1,1105,1212,0,0
-112,-188,0,0,0,0,0,0,0,0,0,-1,1112,1212,0,0
-105,-188,0,0,0,0,0,0,0,0,0,-1,1119,1212,0,0
-98,-188,0,0,0,0,0,0,0,0,0,-1,1126,1212,0,0
-91,-188,0,0,0,0,0,0,0,0,0,-1,1133,1212,0,0
-84,-188,0,0,0,0,0,0,0,0,0,-1,1140,1212,0,0
-77,-188,0,0,0,0,0,0,0,0,0,-1,1147,1212,0,0
-70,-188,0,0,0,0,0,0,0,0,0,-1,1154,1212,0,0
-63,-188,0,0,0,0,0,0,0,0,0,-1,1161,1212,0,0
-56,-188,0,0,0,0,0,0,0,0,0,-1,1168,1212,0,0
-49,-188,0,0,0,0,0,0,0,0,0,-1,1175,1212,0,0
-42,-188,0,0,0,0,0,0,0,0,0,-1,1182,1212,0,0
-35,-188,0,0,0,0,0,0,0,0,0,-1,1189,1212,0,0
-28,-188,0,0,0,0,0,0,0,0,0,-1,1196,1212,0,0
-21,-188,0,0,0,0,0,0,0,0,0,-1,1203,1212,0,0
-14,-188,0,0,0,0,0,0,0,0,0,-1,1210,1212,0,0
-7,-188,0,0,0,0,0,0,0,0,0,-1,1217,1212,0,0
0,-188,0,0,0,0,0,0,0,0,0,-1,1224,1212,0,0
7,-188,0,0,0,0,0,0,0,0,0,-1,1231,1212,0,0
14,-188,0,0,0,0,0,0,0,0,0,-1,1238,1212,0,0
21,-188,0,0,0,0,0,0,0,0,0,-1,1245,1212,0,0
28,-188,0,0,0,0,0,0,0,0,0,-1,1252,1212,0,0
35,-188,0,0,0,0,0,0,0,0,0,-1,1259,1212,0,0
42,-188,0,0,0,0,0,0,0,0,0,-1,1266,1212,0,0
49,-188,0,0,0,0,0,0,0,0,0,-1,1273,1212,0,0
56,-188,0,0,0,0,0,0,0,0,0,-1,1280,1212,0,0
63,-188,0,0,0,0,0,0,0,0,0,-1,1287,1212,0,0
70,-188,0,0,0,0,0,0,0,0,0,-1,1294,1212,0,0
77,-188,0,0,0,0,0,0,0,0,0,-1,1301,1212,0,0
84,-188,0,0,0,0,0,0,0,0,0,-1,1308,1212,0,0
91,-188,0,0,0,0,0,0,0,0,0,-1,1315,1212,0,0
98,-188,0,0,0,0,0,0,0,0,0,-1,1322,1212,0,0
105,-188,0,0,0,0,0,0,0,0,0,-1,1329,1212,0,0
112,-188,0,0,0,0,0,0,0,0,0,-1,1336,1212,0,0
119,-188,0,0,0,0,0,0,0,0,0,-1,1343,1212,0,0
126,-188,0,0,0,0,0,0,0,0,0,-1,1350,1212,0,0
133,-188,0,0,0,0,0,0,0,0,0,-1,1357,1212,0,0
140,-188,0,0,0,0,0,0,0,0,0,-1,1364,1212,0,0
147,-188,0,0,0,0,0,0,0,0,0,-1,1371,1212,0,0
154,-188,0,0,0,0,0,0,0,0,0,-1,1378,1212,0,0
161,-188,0,0,0,0,0,0,0,0,0,-1,1385,1212,0,0
168,-188,0,0,0,0,0,0,0,0,0,-1,1392,1212,0,0
175,-188,0,0,0,0,0,0,0,0,0,-1,1399,1212,0,0
182,-188,0,0,0,0,0,0,0,0,0,-1,1406,1212,0,0
189,-188,0,0,0,0,0,0,0,0,0,-1,1413,1212,0,0
196,-188,0,0,0,0,0,0,0,0,0,-1,1420,1212,0,0
203,-188,0,0,0,0,0,0,0,0,0,-1,1427,1212,0,0
210,-188,0,0,0,0,0,0,0,0,0,-1,1434,1212,0,0
217,-188,0,0,0,0,0,0,0,0,0,-1,1441,1212,0,0
224,-188,0,0,0,0,0,0,0,0,0,-1,1448,1212,0,0
231,-188,0,0,0,0,0,0,0,0,0,-1,1455,1212,0,0
238,-188,0,0,0,0,0,0,0,0,0,-1,1462,1212,0,0
245,-188,0,0,0,0,0,0,0,0,0,-1,1469,1212,0,0
252,-188,0,0,0,0,0,0,0,0,0,-1,1476,1212,0,0
259,-188,0,0,0,0,0,0,0,0,0,-1,1483,1212,0,0
266,-188,0,0,0,0,0,0,0,0,0,-1,1490,1212,0,0
273,-188,0,0,0,0,0,0,0,0,0,-1,1497,1212,0,0
280,-188,0,0,0,0,0,0,0,0,0,-1,1504,1212,0,0
287,-188,0,0,0,0,0,0,0,0,0,-1,1511,1212,0,0
294,-188,0,0,0,0,0,0,0,0,0,-1,1518,1212,0,0
301,-188,0,0,0,0,0,0,0,0,0,-1,1525,1212,0,0
308,-188,0,0,0,0,0,0,0,0,0,-1,1532,1212,0,0
315,-188,0,0,0,0,0,0,0,0,0,-1,1539,1212,0,0
322,-188,0,0,0,0,0,0,0,0,0,-1,1546,1212,0,0
329,-188,0,0,0,0,0,0,0,0,0,-1,1553,1212,0,0
336,-188,0,0,0,0,0,0,0,0,0,-1,1560,1212,0,0
343,-188,0,0,0,0,0,0,0,0,0,-1,1567,1212,0,0
350,-188,0,0,0,0,0,0,0,0,0,-1,1574,1212,0,0
357,-188,0,0,0,0,0,0,0,0,0,-1,1581,1212,0,0
364,-188,0,0,0,0,0,0,0,0,0,-1,1588,1212,0,0
371,-188,0,0,0,0,0,0,0,0,0,-1,1595,1212,0,0
378,-188,0,0,0,0,0,0,0,0,0,-1,1602,1212,0,0
385,-188,0,0,0,0,0,0,0,0,0,-1,1609,1212,0,0
392,-188,0,0,0,0,0,0,0,0,0,-1,1616,1212,0,0
399,-188,0,0,0,0,0,0,0,0,0,-1,1623,1212,0,0
406,-188,0,0,0,0,0,0,0,0,0,-1,1630,1212,0,0
413,-188,0,0,0,0,0,0,0,0,0,-1,1637,1212,0,0
420,-188,0,0,0,0,0,0,0,0,0,-1,1644,1212,0,0
427,-188,0,0,0,0,0,0,0,0,0,-1,1651,1212,0,0
434,-188,0,0,0,0,0,0,0,0,0,-1,1658,1212,0,0
441,-188,0,0,0,0,0,0,0,0,0,-1,1665,1212,0,0
448,-188,0,0,0,0,0,0,0,0,0,-1,1672,1212,0,0
455,-188,0,0,0,0,0,0,0,0,0,-1,1679,1212,0,0
462,-188,0,0,0,0,0,0,0,0,0,-1,1686,1212,0,0
469,-188,0,0,0,0,0,0,0,0,0,-1,1693,1212,0,0
476,-188,0,0,0,0,0,0,0,0,0,-1,1700,1212,0,0
483,-188,0,0,0,0,0,0,0,0,0,-1,1707,1212,0,0
490,-188,0,0,0,0,0,0,0,0,0,-1,1714,1212,0,0
497,-188,0,0,0,0,0,0,0,0,0,-1,1721,1212,0,0
504,-188,0,0,0,0,0,0,0,0,0,-1,1728,1212,0,0
511,-188,0,0,0,0,0,0,0,0,0,-1,1735,1212,0,0
518,-188,0,0,0,0,0,0,0,0,0,-1,1742,1212,0,0
525,-188,0,0,0,0,0,0,0,0,0,-1,1749,1212,0,0
532,-188,0,0,0,0,0,0,0,0,0,-1,1756,1212,0,0
539,-188,0,0,0,0,0,0,0,0,0,-1,1763,1212,0,0
546,-188,0,0,0,0,0,0,0,0,0,-1,1770,1212,0,0
553,-188,0,0,0,0,0,0,0,0,0,-1,1777,1212,0,0
560,-188,0,0,0,0,0,0,0,0,0,-1,1784,1212,0,0
567,-188,0,0,0,0,0,0,0,0,0,-1,1791,1212,0,0
574,-188,0,0,0,0,0,0,0,0,0,-1,1798,1212,0,0
581,-188,0,0,0,0,0,0,0,0,0,-1,1805,1212,0,0
588,-188,0,0,0,0,0,0,0,0,0,-1,1812,1212,0,0
595,-188,0,0,0,0,0,0,0,0,0,-1,1819,1212,0,0
602,-188,0,0,0,0,0,0,0,0,0,-1,1826,1212,0,0
609,-188,0,0,0,0,0,0,0,0,0,-1,1833,1212,0,0
616,-188,0,0,0,0,0,0,0,0,0,-1,1840,1212,0,0
623,-188,0,0,0,0,0,0,0,0,0,-1,1847,1212,0,0
630,-188,52.8578,2.68909,-0.000497253,0.00068723,0.00136431,0.0015823,-0.00139232,0.990173,0.00171856,0.0415936,1854,1212,52.8577,-2.68911
637,-188,52.8542,2.72485,9.83313e-05,0.000680068,0.000841239,0.00127931,-0.000500906,0.951845,0.00106005,0.0420969,1861,1212,52.8543,-2.72484
644,-188,52.8796,2.6322,0.000785907,0.00070875,0.000240756,0.000991156,0.000503501,0.705954,0.000572268,0.0363936,1868,1212,52.8797,-2.63223
651,-188,52.8425,2.63672,0.00154281,0.000751039,-0.000469218,0.00176084,0.00053301,-0.434983,0.00104267,0.0311733,1875,1212,52.8425,-2.63669
658,-188,52.8726,2.62781,0.00211309,0.000583461,-0.00109792,0.00268632,1.02314e-05,-0.481176,0.00178748,0.0325728,1882,1212,52.8726,-2.62781
665,-188,52.8312,2.62976,0.00246022,0.000188397,-0.00148154,0.00319119,-0.000542573,-0.458343,0.00232948,0.0310233,1889,1212,52.8312,-2.62981
672,-188,52.8331,2.59253,0.00233963,4.44752e-05,-0.00148272,0.00306699,-0.000682888,-0.456066,0.00230624,0.0251656,1896,1212,52.8331,-2.59252
679,-188,52.7947,2.46033,0.0021213,-0.000134963,-0.00135054,0.0027529,-0.000766561,-0.437444,0.00213711,0.0451922,1903,1212,52.7947,-2.46028
686,-188,52.769,2.33142,0,0,0,0,0,0,0,-1,1910,1212,52.769,-2.33145
693,-188,35.9054,2.18042,0,0,0,0,0,0,0,-1,1917,1212,35.9054,-2.18038
700,-188,39.0826,8.68848,0,0,0,0,0,0,0,-1,1924,1212,39.0826,-8.68852
707,-188,43.8864,9.21204,0,0,0,0,0,0,0,-1,1931,1212,43.8864,-9.21208
714,-188,44.1349,8.74988,0,0,0,0,0,0,0,-1,1938,1212,44.1349,-8.74987
721,-188,43.8765,8.099,0.000664024,-0.000569155,-0.000106342,0.000673127,-0.000578259,-0.0853937,0.00072318,0.0477591,1945,1212,43.8765,-8.09897
728,-188,43.6809,7.5625,0.000451951,-0.000611516,0.00045424,0.000619556,-0.000779121,0.353482,0.000809276,0.0174022,1952,1212,43.681,-7.56244
735,-188,43.7013,7.10803,0.000361233,-0.000583757,0.000654945,0.00069633,-0.000918854,0.472917,0.000935472,0.013586,1959,1212,43.7013,-7.10804
742,-188,43.6738,6.65771,0.000605452,1.46834e-05,0.000708283,0.00107748,-0.000457341,0.587842,0.000909919,0.0148136,1966,1212,43.6738,-6.65775
749,-188,43.6678,6.18896,0.00121603,0.000785975,0.000405734,0.0014602,0.000541812,0.541729,0.000852339,0.0146763,1973,1212,43.6678,-6.18898
756,-188,43.6501,5.71094,0.00209798,0.00161457,-0.000164843,0.00214884,0.00156371,-0.299273,0.0012828,0.0134302,1980,1212,43.6502,-5.71088
763,-188,43.6688,5.25195,0.0031511,0.00237162,-0.00130162,0.00412008,0.00140265,-0.639933,0.00241877,0.0162493,1987,1212,43.6688,-5.25197
770,-188,43.6624,4.74438,0.00407101,0.00287985,-0.00298952,0.0065237,0.000427155,-0.687074,0.00421397,0.0337795,1994,1212,43.6624,-4.7444
777,-188,43.736,4.21741,0,0,0,0,0,0,0,-1,2001,1212,43.7359,-4.21737
784,-188,50.1418,-0.758423,0,0,0,0,0,0,0,-1,2008,1212,50.142,0.758408
791,-188,49.4255,0.696533,0,0,0,0,0,0,0,-1,2015,1212,49.4255,-0.696482
798,-188,48.5857,2.40576,0,0,0,0,0,0,0,-1,2022,1212,48.5857,-2.40572
805,-188,0,0,0,0,0,0,0,0,0,-1,2029,1212,0,0
812,-188,0,0,0,0,0,0,0,0,0,-1,2036,1212,0,0
-700,-195,0,0,0,0,0,0,0,0,0,-1,524,1219,0,0
-693,-195,0,0,0,0,0,0,0,0,0,-1,531,1219,0,0
-686,-195,0,0,0,0,0,0,0,0,0,-1,538,1219,0,0
-679,-195,-30.5587,-2.59106,0,0,0,0,0,0,0,-1,545,1219,-30.5587,2.59105
-672,-195,-30.4177,-2.2085,0,0,0,0,0,0,0,-1,552,1219,-30.4177,2.20852
-665,-195,-30.415,-1.62305,0,0,0,0,0,0,0,-1,559,1219,-30.415,1.623
-658,-195,-28.2362,0.628784,0,0,0,0,0,0,0,-1,566,1219,-28.2362,-0.628801
-651,-195,-28.4987,1.04907,0,0,0,0,0,0,0,-1,573,1219,-28.4986,-1.04909
-644,-195,-29.0037,1.62219,0.0101924,-0.00535632,0.00655565,0.0125875,-0.00775138,0.350278,0.0118528,0.0423767,580,1219,-29.0037,-1.62221
-637,-195,-28.9891,2.15808,0.00644611,-0.00302885,0.00456432,0.00828714,-0.00486988,0.383392,0.00768114,0.0235614,587,1219,-28.9892,-2.15806
-630,-195,-29.0938,2.63281,0.00318374,-0.00164992,0.00286034,0.00451158,-0.00297777,0.434622,0.0043541,0.00904326,594,1219,-29.0938,-2.63277
-623,-195,-29.1232,3.1427,0.000749323,-0.000381075,0.00142251,0.00171481,-0.00134656,0.596299,0.00177174,0.00881048,601,1219,-29.1232,-3.14268
-616,-195,-29.1328,3.65942,-0.000565878,0.000455507,-0.000277145,0.000525862,-0.000636233,-1.32219,0.000671943,0.0109046,608,1219,-29.1328,-3.65944
-609,-195,-29.1255,4.17358,-0.000702059,0.000634515,-0.00166265,0.00175816,-0.00182571,-0.976487,0.00206927,0.0186526,615,1219,-29.1255,-4.17359
-602,-195,-29.156,4.67078,-0.000443014,0.000143617,-0.00245096,0.00231875,-0.00261815,-0.844952,0.00285207,0.0209064,622,1219,-29.156,-4.67078
-595,-195,-29.2318,5.17151,-0.00059836,-0.000130575,-0.00275792,0.00240335,-0.00313229,-0.827701,0.00320523,0.0212106,629,1219,-29.2318,-5.17155
-588,-195,-29.25,5.77844,-0.000750885,-0.000787761,-0.0030542,0.00228493,-0.00382358,-0.78238,0.00356385,0.0250986,636,1219,-29.25,-5.77845
-581,-195,-29.3038,6.10693,-0.00048603,-0.00123391,-0.00343203,0.00259237,-0.00431231,-0.731134,0.00402744,0.0375141,643,1219,-29.3038,-6.1069
-574,-195,-29.8815,6.30896,0,0,0,0,0,0,0,-1,650,1219,-29.8815,-6.30895
-567,-195,-20.6388,3.78369,0,0,0,0,0,0,0,-1,657,1219,-20.6388,-3.78369
-560,-195,-20.878,2.10388,0,0,0,0,0,0,0,-1,664,1219,-20.878,-2.10385
-553,-195,-38.0327,1.36584,0,0,0,0,0,0,0,-1,671,1219,-38.0327,-1.36578
-546,-195,-39.1929,0.793457,0,0,0,0,0,0,0,-1,678,1219,-39.1929,-0.793423
-539,-195,-39.2644,1.06079,0.000605125,-0.00274498,-0.00236516,0.00182831,-0.00396817,-0.477288,0.00342177,0.0410594,685,1219,-39.2644,-1.06077
-532,-195,-39.13,0.728882,0.000327122,-0.00272652,-0.00155901,0.00098243,-0.00338183,-0.397914,0.0026436,0.0355976,692,1219,-39.13,-0.728831
-525,-195,-39.0638,0.62793,-9.54713e-05,-0.00210325,-0.00027329,-5.8937e-05,-0.00213979,-0.132895,0.00140729,0.0418726,699,1219,-39.0638,-0.627954
-518,-195,-39.0486,0.728882,-0.000122086,7.3576e-05,0.00176096,0.00173942,-0.00178793,0.813147,0.00203658,0.0432253,706,1219,-39.0486,-0.728889
-511,-195,-39.1818,0.978394,0.00125791,0.00441177,0.00494548,0.00802565,-0.00235598,0.939733,0.00628472,0.042303,713,1219,-39.1818,-0.978354
-504,-195,0,0,0,0,0,0,0,0,0,-1,720,1219,0,0
-497,-195,0,0,0,0,0,0,0,0,0,-1,727,1219,0,0
-490,-195,0,0,0,0,0,0,0,0,0,-1,734,1219,0,0
-483,-195,0,0,0,0,0,0,0,0,0,-1,741,1219,0,0
-476,-195,0,0,0,0,0,0,0,0,0,-1,748,1219,0,0
-469,-195,0,0,0,0,0,0,0,0,0,-1,755,1219,0,0
-462,-195,0,0,0,0,0,0,0,0,0,-1,762,1219,0,0
-455,-195,0,0,0,0,0,0,0,0,0,-1,769,1219,0,0
-448,-195,0,0,0,0,0,0,0,0,0,-1,776,1219,0,0
-441,-195,0,0,0,0,0,0,0,0,0,-1,783,1219,0,0
-434,-195,0,0,0,0,0,0,0,0,0,-1,790,1219,0,0
-427,-195,0,0,0,0,0,0,0,0,0,-1,797,1219,0,0
-420,-195,0,0,0,0,0,0,0,0,0,-1,804,1219,0,0
-413,-195,0,0,0,0,0,0,0,0,0,-1,811,1219,0,0
-406,-195,0,0,0,0,0,0,0,0,0,-1,818,1219,0,0
-399,-195,0,0,0,0,0,0,0,0,0,-1,825,1219,0,0
-392,-195,0,0,0,0,0,0,0,0,0,-1,832,1219,0,0
-385,-195,0,0,0,0,0,0,0,0,0,-1,839,1219,0,0
-378,-195,0,0,0,0,0,0,0,0,0,-1,846,1219,0,0
-371,-195,0,0,0,0,0,0,0,0,0,-1,853,1219,0,0
-364,-195,0,0,0,0,0,0,0,0,0,-1,860,1219,0,0
-357,-195,0,0,0,0,0,0,0,0,0,-1,867,1219,0,0
-350,-195,0,0,0,0,0,0,0,0,0,-1,874,1219,0,0
-343,-195,0,0,0,0,0,0,0,0,0,-1,881,1219,0,0
-336,-195,0,0,0,0,0,0,0,0,0,-1,888,1219,0,0
-329,-195,0,0,0,0,0,0,0,0,0,-1,895,1219,0,0
-322,-195,0,0,0,0,0,0,0,0,0,-1,902,1219,0,0
-315,-195,0,0,0,0,0,0,0,0,0,-1,909,1219,0,0
-308,-195,0,0,0,0,0,0,0,0,0,-1,916,1219,0,0
-301,-195,0,0,0,0,0,0,0,0,0,-1,923,1219,0,0
-294,-195,0,0,0,0,0,0,0,0,0,-1,930,1219,0,0
-287,-195,0,0,0,0,0,0,0,0,0,-1,937,1219,0,0
-280,-195,0,0,0,0,0,0,0,0,0,-1,944,1219,0,0
-273,-195,0,0,0,0,0,0,0,0,0,-1,951,1219,0,0
-266,-195,0,0,0,0,0,0,0,0,0,-1,958,1219,0,0
-259,-195,0,0,0,0,0,0,0,0,0,-1,965,1219,0,0
-252,-195,0,0,0,0,0,0,0,0,0,-1,972,1219,0,0
-245,-195,0,0,0,0,0,0,0,0,0,-1,979,1219,0,0
-238,-195,0,0,0,0,0,0,0,0,0,-1,986,1219,0,0
-231,-195,0,0,0,0,0,0,0,0,0,-1,993,1219,0,0
-224,-195,0,0,0,0,0,0,0,0,0,-1,1000,1219,0,0
-217,-195,0,0,0,0,0,0,0,0,0,-1,1007,1219,0,0
-210,-195,0,0,0,0,0,0,0,0,0,-1,1014,1219,0,0
-203,-195,0,0,0,0,0,0,0,0,0,-1,1021,1219,0,0
-196,-195,0,0,0,0,0,0,0,0,0,-1,1028,1219,0,0
-189,-195,0,0,0,0,0,0,0,0,0,-1,1035,1219,0,0
-182,-195,0,0,0,0,0,0,0,0,0,-1,1042,1219,0,0
-175,-195,0,0,0,0,0,0,0,0,0,-1,1049,1219,0,0
-168,-195,0,0,0,0,0,0,0,0,0,-1,1056,1219,0,0
-161,-195,0,0,0,0,0,0,0,0,0,-1,1063,1219,0,0
-154,-195,0,0,0,0,0,0,0,0,0,-1,1070,1219,0,0
-147,-195,0,0,0,0,0,0,0,0,0,-1,1077,1219,0,0
-140,-195,0,0,0,0,0,0,0,0,0,-1,1084,1219,0,0
-133,-195,0,0,0,0,0,0,0,0,0,-1,1091,1219,0,0
-126,-195,0,0,0,0,0,0,0,0,0,-1,1098,1219,0,0
-119,-195,0,0,0,0,0,0,0,0,0,-1,1105,1219,0,0
-112,-195,0,0,0,0,0,0,0,0,0,-1,1112,1219,0,0
-105,-195,0,0,0,0,0,0,0,0,0,-1,1119,1219,0,0
-98,-195,0,0,0,0,0,0,0,0,0,-1,1126,1219,0,0
-91,-195,0,0,0,0,0,0,0,0,0,-1,1133,1219,0,0
-84,-195,0,0,0,0,0,0,0,0,0,-1,1140,1219,0,0
-77,-195,0,0,0,0,0,0,0,0,0,-1,1147,1219,0,0
-70,-195,0,0,0,0,0,0,0,0,0,-1,1154,1219,0,0
-63,-195,0,0,0,0,0,0,0,0,0,-1,1161,1219,0,0
-56,-195,0,0,0,0,0,0,0,0,0,-1,1168,1219,0,0
-49,-195,0,0,0,0,0,0,0,0,0,-1,1175,1219,0,0
-42,-195,0,0,0,0,0,0,0,0,0,-1,1182,1219,0,0
-35,-195,0,0,0,0,0,0,0,0,0,-1,1189,1219,0,0
-28,-195,0,0,0,0,0,0,0,0,0,-1,1196,1219,0,0
-21,-195,0,0,0,0,0,0,0,0,0,-1,1203,1219,0,0
-14,-195,0,0,0,0,0,0,0,0,0,-1,1210,1219,0,0
-7,-195,0,0,0,0,0,0,0,0,0,-1,1217,1219,0,0
0,-195,0,0,0,0,0,0,0,0,0,-1,1224,1219,0,0
7,-195,0,0,0,0,0,0,0,0,0,-1,1231,1219,0,0
14,-195,0,0,0,0,0,0,0,0,0,-1,1238,1219,0,0
21,-195,0,0,0,0,0,0,0,0,0,-1,1245,1219,0,0
28,-195,0,0,0,0,0,0,0,0,0,-1,1252,1219,0,0
35,-195,0,0,0,0,0,0,0,0,0,-1,1259,1219,0,0
42,-195,0,0,0,0,0,0,0,0,0,-1,1266,1219,0,0
49,-195,0,0,0,0,0,0,0,0,0,-1,1273,1219,0,0
56,-195,0,0,0,0,0,0,0,0,0,-1,1280,1219,0,0
63,-195,0,0,0,0,0,0,0,0,0,-1,1287,1219,0,0
70,-195,0,0,0,0,0,0,0,0,0,-1,1294,1219,0,0
77,-195,0,0,0,0,0,0,0,0,0,-1,1301,1219,0,0
84,-195,0,0,0,0,0,0,0,0,0,-1,1308,1219,0,0
91,-195,0,0,0,0,0,0,0,0,0,-1,1315,1219,0,0
98,-195,0,0,0,0,0,0,0,0,0,-1,1322,1219,0,0
105,-195,0,0,0,0,0,0,0,0,0,-1,1329,1219,0,0
112,-195,0,0,0,0,0,0,0,0,0,-1,1336,1219,0,0
119,-195,0,0,0,0,0,0,0,0,0,-1,1343,1219,0,0
126,-195,0,0,0,0,0,0,0,0,0,-1,1350,1219,0,0
133,-195,0,0,0,0,0,0,0,0,0,-1,1357,1219,0,0
140,-195,0,0,0,0,0,0,0,0,0,-1,1364,1219,0,0
147,-195,0,0,0,0,0,0,0,0,0,-1,1371,1219,0,0
154,-195,0,0,0,0,0,0,0,0,0,-1,1378,1219,0,0
161,-195,0,0,0,0,0,0,0,0,0,-1,1385,1219,0,0
168,-195,0,0,0,0,0,0,0,0,0,-1,1392,1219,0,0
175,-195,0,0,0,0,0,0,0,0,0,-1,1399,1219,0,0
182,-195,0,0,0,0,0,0,0,0,0,-1,1406,1219,0,0
189,-195,0,0,0,0,0,0,0,0,0,-1,1413,1219,0,0
196,-195,0,0,0,0,0,0,0,0,0,-1,1420,1219,0,0
203,-195,0,0,0,0,0,0,0,0,0,-1,1427,1219,0,0
210,-195,0,0,0,0,0,0,0,0,0,-1,1434,1219,0,0
217,-195,0,0,0,0,0,0,0,0,0,-1,1441,1219,0,0
224,-195,0,0,0,0,0,0,0,0,0,-1,1448,1219,0,0
231,-195,0,0,0,0,0,0,0,0,0,-1,1455,1219,0,0
238,-195,0,0,0,0,0,0,0,0,0,-1,1462,1219,0,0
245,-195,0,0,0,0,0,0,0,0,0,-1,1469,1219,0,0
252,-195,0,0,0,0,0,0,0,0,0,-1,1476,1219,0,0
259,-195,0,0,0,0,0,0,0,0,0,-1,1483,1219,0,0
266,-195,0,0,0,0,0,0,0,0,0,-1,1490,1219,0,0
273,-195,0,0,0,0,0,0,0,0,0,-1,1497,1219,0,0
280,-195,0,0,0,0,0,0,0,0,0,-1,1504,1219,0,0
287,-195,0,0,0,0,0,0,0,0,0,-1,1511,1219,0,0
294,-195,0,0,0,0,0,0,0,0,0,-1,1518,1219,0,0
301,-195,0,0,0,0,0,0,0,0,0,-1,1525,1219,0,0
308,-195,0,0,0,0,0,0,0,0,0,-1,1532,1219,0,0
315,-195,0,0,0,0,0,0,0,0,0,-1,1539,1219,0,0
322,-195,0,0,0,0,0,0,0,0,0,-1,1546,1219,0,0
329,-195,0,0,0,0,0,0,0,0,0,-1,1553,1219,0,0
336,-195,0,0,0,0,0,0,0,0,0,-1,1560,1219,0,0
343,-195,0,0,0,0,0,0,0,0,0,-1,1567,1219,0,0
350,-195,0,0,0,0,0,0,0,0,0,-1,1574,1219,0,0
357,-195,0,0,0,0,0,0,0,0,0,-1,1581,1219,0,0
364,-195,0,0,0,0,0,0,0,0,0,-1,1588,1219,0,0
371,-195,0,0,0,0,0,0,0,0,0,-1,1595,1219,0,0
378,-195,0,0,0,0,0,0,0,0,0,-1,1602,1219,0,0
385,-195,0,0,0,0,0,0,0,0,0,-1,1609,1219,0,0
392,-195,0,0,0,0,0,0,0,0,0,-1,1616,1219,0,0
399,-195,0,0,0,0,0,0,0,0,0,-1,1623,1219,0,0
406,-195,0,0,0,0,0,0,0,0,0,-1,1630,1219,0,0
413,-195,0,0,0,0,0,0,0,0,0,-1,1637,1219,0,0
420,-195,0,0,0,0,0,0,0,0,0,-1,1644,1219,0,0
427,-195,0,0,0,0,0,0,0,0,0,-1,1651,1219,0,0
434,-195,0,0,0,0,0,0,0,0,0,-1,1658,1219,0,0
441,-195,0,0,0,0,0,0,0,0,0,-1,1665,1219,0,0
448,-195,0,0,0,0,0,0,0,0,0,-1,1672,1219,0,0
455,-195,0,0,0,0,0,0,0,0,0,-1,1679,1219,0,0
462,-195,0,0,0,0,0,0,0,0,0,-1,1686,1219,0,0
469,-195,0,0,0,0,0,0,0,0,0,-1,1693,1219,0,0
476,-195,0,0,0,0,0,0,0,0,0,-1,1700,1219,0,0
483,-195,0,0,0,0,0,0,0,0,0,-1,1707,1219,0,0
490,-195,0,0,0,0,0,0,0,0,0,-1,1714,1219,0,0
497,-195,0,0,0,0,0,0,0,0,0,-1,1721,1219,0,0
504,-195,0,0,0,0,0,0,0,0,0,-1,1728,1219,0,0
511,-195,0,0,0,0,0,0,0,0,0,-1,1735,1219,0,0
518,-195,0,0,0,0,0,0,0,0,0,-1,1742,1219,0,0
525,-195,0,0,0,0,0,0,0,0,0,-1,1749,1219,0,0
532,-195,0,0,0,0,0,0,0,0,0,-1,1756,1219,0,0
539,-195,0,0,0,0,0,0,0,0,0,-1,1763,1219,0,0
546,-195,0,0,0,0,0,0,0,0,0,-1,1770,1219,0,0
553,-195,0,0,0,0,0,0,0,0,0,-1,1777,1219,0,0
560,-195,0,0,0,0,0,0,0,0,0,-1,1784,1219,0,0
567,-195,0,0,0,0,0,0,0,0,0,-1,1791,1219,0,0
574,-195,0,0,0,0,0,0,0,0,0,-1,1798,1219,0,0
581,-195,0,0,0,0,0,0,0,0,0,-1,1805,1219,0,0
588,-195,0,0,0,0,0,0,0,0,0,-1,1812,1219,0,0
595,-195,0,0,0,0,0,0,0,0,0,-1,1819,1219,0,0
602,-195,0,0,0,0,0,0,0,0,0,-1,1826,1219,0,0
609,-195,0,0,0,0,0,0,0,0,0,-1,1833,1219,0,0
616,-195,0,0,0,0,0,0,0,0,0,-1,1840,1219,0,0
623,-195,0,0,0,0,0,0,0,0,0,-1,1847,1219,0,0
630,-195,52.9087,2.64844,-0.000154957,0.00108033,0.000779797,0.00145746,-0.000532083,1.12034,0.00118936,0.040243,1854,1219,52.9086,-2.64844
637,-195,52.8638,2.61121,0.000539993,0.000976267,0.000337612,0.00116008,0.000356177,1.07222,0.0006862,0.0382595,1861,1219,52.8638,-2.61121
644,-195,52.861,2.60779,0.00135121,0.00084572,-0.00017357,0.00140507,0.00079186,-0.300887,0.000813399,0.0330086,1868,1219,52.861,-2.60775
651,-195,52.8547,2.62207,0.00212405,0.000718379,-0.000791288,0.00247957,0.000362859,-0.422265,0.00154635,0.0268581,1875,1219,52.8547,-2.62211
658,-195,52.89,2.62634,0.00261314,0.000365108,-0.00126703,0.00318286,-0.000204621,-0.42257,0.0021933,0.0250961,1882,1219,52.89,-2.62632
665,-195,52.8715,2.59961,0.00284603,-0.000141676,-0.00150029,0.00346936,-0.000765004,-0.393773,0.00260561,0.0234083,1889,1219,52.8715,-2.59958
672,-195,52.8702,2.54517,0.00268531,-0.000322785,-0.00144723,0.00326852,-0.000905994,-0.383075,0.00253555,0.0355014,1896,1219,52.8702,-2.54512
679,-195,52.7452,2.34033,0,0,0,0,0,0,0,-1,1903,1219,52.7453,-2.34032
686,-195,51.2117,1.94312,0,0,0,0,0,0,0,-1,1910,1219,51.2117,-1.9431
693,-195,24.4368,5.68298,0,0,0,0,0,0,0,-1,1917,1219,24.4368,-5.68293
700,-195,43.3088,9.62195,0,0,0,0,0,0,0,-1,1924,1219,43.3089,-9.62199
707,-195,43.3278,9.05029,0,0,0,0,0,0,0,-1,1931,1219,43.3277,-9.05027
714,-195,43.3729,8.54211,0,0,0,0,0,0,0,-1,1938,1219,43.3729,-8.5421
721,-195,43.2375,8.0575,0.000862193,-0.000829141,-0.00019226,0.000883773,-0.000850721,-0.111773,0.00100147,0.0259839,1945,1219,43.2376,-8.05749
728,-195,43.2399,7.6001,0.000673877,-0.000760929,0.000350919,0.000755104,-0.000842156,0.227466,0.000922635,0.0114114,1952,1219,43.2399,-7.60015
735,-195,43.2294,7.10376,0.000661033,-0.000621649,0.000612956,0.000906841,-0.000867457,0.381386,0.00102448,0.0125039,1959,1219,43.2294,-7.10382
742,-195,43.2013,6.64905,0.00104283,-5.58161e-05,0.000847817,0.00150373,-0.000516716,0.497941,0.00121201,0.0150184,1966,1219,43.2013,-6.64902
749,-195,43.1692,6.19409,0.00189953,0.000557457,0.000781524,0.00225858,0.000198411,0.430658,0.00144413,0.014963,1973,1219,43.1692,-6.1941
756,-195,43.1611,5.7334,0.00325121,0.00124455,0.000410135,0.0033318,0.00116396,0.194024,0.00195251,0.0145792,1980,1219,43.1612,-5.73336
763,-195,43.1676,5.2688,0.00507557,0.00188632,-0.000537765,0.00516381,0.00179808,-0.162629,0.00302677,0.0199014,1987,1219,43.1676,-5.26881
770,-195,43.0963,4.85022,0.00723815,0.00239268,-0.00217535,0.00807145,0.00155938,-0.365824,0.00494384,0.0382715,1994,1219,43.0964,-4.85018
777,-195,43.0712,4.50854,0,0,0,0,0,0,0,-1,2001,1219,43.0712,-4.50851
784,-195,51.3894,-0.726318,0,0,0,0,0,0,0,-1,2008,1219,51.3895,0.726358
791,-195,50.6089,0.435669,0,0,0,0,0,0,0,-1,2015,1219,50.6089,-0.435689
798,-195,49.8225,1.90442,0,0,0,0,0,0,0,-1,2022,1219,49.8224,-1.90436
805,-195,0,0,0,0,0,0,0,0,0,-1,2029,1219,0,0
812,-195,0,0,0,0,0,0,0,0,0,-1,2036,1219,0,0
-700,-202,0,0,0,0,0,0,0,0,0,-1,524,1226,0,0
-693,-202,0,0,0,0,0,0,0,0,0,-1,531,1226,0,0
-686,-202,0,0,0,0,0,0,0,0,0,-1,538,1226,0,0
-679,-202,-29.6518,-2.57495,0,0,0,0,0,0,0,-1,545,1226,-29.6518,2.57499
-672,-202,-30.2175,-2.81812,0,0,0,0,0,0,0,-1,552,1226,-30.2175,2.81812
-665,-202,-31.1198,-0.312012,0,0,0,0,0,0,0,-1,559,1226,-31.1198,0.312023
-658,-202,-29.804,0.133789,0,0,0,0,0,0,0,-1,566,1226,-29.804,-0.133844
-651,-202,-27.8796,1.14026,0,0,0,0,0,0,0,-1,573,1226,-27.8796,-1.14024
-644,-202,-28.343,1.65796,0,0,0,0,0,0,0,-1,580,1226,-28.343,-1.65795
-637,-202,-28.3901,2.15771,0.00843129,-0.00383355,0.00395443,0.00959573,-0.00499799,0.28637,0.00856393,0.0410894,587,1226,-28.3901,-2.15766
-630,-202,-28.5476,2.62292,0.00479852,-0.00211032,0.00234561,0.00551961,-0.00283141,0.298252,0.00490402,0.0181833,594,1226,-28.5476,-2.62293
-623,-202,-28.5753,3.12878,0.00207087,-0.000712073,0.00103134,0.00241141,-0.00105261,0.318919,0.0020506,0.00958751,601,1226,-28.5753,-3.12883
-616,-202,-28.5929,3.65051,0.000384216,0.000258911,-0.000495259,0.00082077,-0.000177643,-0.72248,0.000615006,0.00957392,608,1226,-28.5929,-3.6505
-609,-202,-28.5791,4.19104,-0.000121973,0.000526565,-0.0016589,0.00189259,-0.001488,-0.881917,0.00195644,0.0219518,615,1226,-28.5791,-4.19105
-602,-202,-28.6423,4.70435,-0.000196133,-4.34808e-06,-0.00216652,0.0020684,-0.00226888,-0.807514,0.00250502,0.0209785,622,1226,-28.6423,-4.70433
-595,-202,-28.7177,5.21265,-0.000339095,-0.000490104,-0.00233784,0.00192446,-0.00275366,-0.769255,0.00271502,0.0149589,629,1226,-28.7177,-5.2127
-588,-202,-28.6332,5.73694,-0.00017409,-0.00128096,-0.00264424,0.00197402,-0.00342906,-0.682239,0.00315695,0.0168097,636,1226,-28.6333,-5.73698
-581,-202,-28.6899,6.00354,0,0,0,0,0,0,0,-1,643,1226,-28.6899,-6.00355
-574,-202,-26.922,5.99512,0,0,0,0,0,0,0,-1,650,1226,-26.922,-5.99512
-567,-202,-22.1768,4.56995,0,0,0,0,0,0,0,-1,657,1226,-22.1768,-4.56991
-560,-202,-10.929,2.73096,0,0,0,0,0,0,0,-1,664,1226,-10.929,-2.73092
-553,-202,-30.2701,1.474,0,0,0,0,0,0,0,-1,671,1226,-30.2701,-1.47395
-546,-202,-39.4546,1.37964,0,0,0,0,0,0,0,-1,678,1226,-39.4546,-1.37966
-539,-202,-39.2524,1.10486,0.0012259,-0.00314917,-0.00156237,0.00172655,-0.00364982,-0.3101,0.00316956,0.0447522,685,1226,-39.2525,-1.10486
-532,-202,-39.148,0.799194,0.000756548,-0.00311403,-0.000764535,0.000902089,-0.00325958,-0.188116,0.00252798,0.028458,692,1226,-39.148,-0.799175
-525,-202,-39.0461,0.621948,3.73643e-05,-0.00271689,0.000410528,9.72521e-05,-0.00277678,0.144858,0.00188444,0.0340836,699,1226,-39.0461,-0.621992
-518,-202,-39.1597,0.840332,-0.000609234,-0.00103602,0.00222815,0.00141572,-0.00306098,0.737658,0.00264216,0.0401715,706,1226,-39.1596,-0.840281
-511,-202,-39.3003,1.07983,6.80925e-05,0.00278224,0.00519754,0.00679695,-0.00394662,0.913097,0.00627515,0.0402528,713,1226,-39.3003,-1.07987
-504,-202,0,0,0,0,0,0,0,0,0,-1,720,1226,0,0
-497,-202,0,0,0,0,0,0,0,0,0,-1,727,1226,0,0
-490,-202,0,0,0,0,0,0,0,0,0,-1,734,1226,0,0
-483,-202,0,0,0,0,0,0,0,0,0,-1,741,1226,0,0
-476,-202,0,0,0,0,0,0,0,0,0,-1,748,1226,0,0
-469,-202,0,0,0,0,0,0,0,0,0,-1,755,1226,0,0
-462,-202,0,0,0,0,0,0,0,0,0,-1,762,1226,0,0
-455,-202,0,0,0,0,0,0,0,0,0,-1,769,1226,0,0
-448,-202,0,0,0,0,0,0,0,0,0,-1,776,1226,0,0
-441,-202,0,0,0,0,0,0,0,0,0,-1,783,1226,0,0
-434,-202,0,0,0,0,0,0,0,0,0,-1,790,1226,0,0
-427,-202,0,0,0,0,0,0,0,0,0,-1,797,1226,0,0
-420,-202,0,0,0,0,0,0,0,0,0,-1,804,1226,0,0
-413,-202,0,0,0,0,0,0,0,0,0,-1,811,1226,0,0
-406,-202,0,0,0,0,0,0,0,0,0,-1,818,1226,0,0
-399,-202,0,0,0,0,0,0,0,0,0,-1,825,1226,0,0
-392,-202,0,0,0,0,0,0,0,0,0,-1,832,1226,0,0
-385,-202,0,0,0,0,0,0,0,0,0,-1,839,1226,0,0
-378,-202,0,0,0,0,0,0,0,0,0,-1,846,1226,0,0
-371,-202,0,0,0,0,0,0,0,0,0,-1,853,1226,0,0
-364,-202,0,0,0,0,0,0,0,0,0,-1,860,1226,0,0
-357,-202,0,0,0,0,0,0,0,0,0,-1,867,1226,0,0
-350,-202,0,0,0,0,0,0,0,0,0,-1,874,1226,0,0
-343,-202,0,0,0,0,0,0,0,0,0,-1,881,1226,0,0
-336,-202,0,0,0,0,0,0,0,0,0,-1,888,1226,0,0
-329,-202,0,0,0,0,0,0,0,0,0,-1,895,1226,0,0
-322,-202,0,0,0,0,0,0,0,0,0,-1,902,1226,0,0
-315,-202,0,0,0,0,0,0,0,0,0,-1,909,1226,0,0
-308,-202,0,0,0,0,0,0,0,0,0,-1,916,1226,0,0
-301,-202,0,0,0,0,0,0,0,0,0,-1,923,1226,0,0
-294,-202,0,0,0,0,0,0,0,0,0,-1,930,1226,0,0
-287,-202,0,0,0,0,0,0,0,0,0,-1,937,1226,0,0
-280,-202,0,0,0,0,0,0,0,0,0,-1,944,1226,0,0
-273,-202,0,0,0,0,0,0,0,0,0,-1,951,1226,0,0
-266,-202,0,0,0,0,0,0,0,0,0,-1,958,1226,0,0
-259,-202,0,0,0,0,0,0,0,0,0,-1,965,1226,0,0
-252,-202,0,0,0,0,0,0,0,0,0,-1,972,1226,0,0
-245,-202,0,0,0,0,0,0,0,0,0,-1,979,1226,0,0
-238,-202,0,0,0,0,0,0,0,0,0,-1,986,1226,0,0
-231,-202,0,0,0,0,0,0,0,0,0,-1,993,1226,0,0
-224,-202,0,0,0,0,0,0,0,0,0,-1,1000,1226,0,0
-217,-202,0,0,0,0,0,0,0,0,0,-1,1007,1226,0,0
-210,-202,0,0,0,0,0,0,0,0,0,-1,1014,1226,0,0
-203,-202,0,0,0,0,0,0,0,0,0,-1,1021,1226,0,0
-196,-202,0,0,0,0,0,0,0,0,0,-1,1028,1226,0,0
-189,-202,0,0,0,0,0,0,0,0,0,-1,1035,1226,0,0
-182,-202,0,0,0,0,0,0,0,0,0,-1,1042,1226,0,0
-175,-202,0,0,0,0,0,0,0,0,0,-1,1049,1226,0,0
-168,-202,0,0,0,0,0,0,0,0,0,-1,1056,1226,0,0
-161,-202,0,0,0,0,0,0,0,0,0,-1,1063,1226,0,0
-154,-202,0,0,0,0,0,0,0,0,0,-1,1070,1226,0,0
-147,-202,0,0,0,0,0,0,0,0,0,-1,1077,1226,0,0
-140,-202,0,0,0,0,0,0,0,0,0,-1,1084,1226,0,0
-133,-202,0,0,0,0,0,0,0,0,0,-1,1091,1226,0,0
-126,-202,0,0,0,0,0,0,0,0,0,-1,1098,1226,0,0
-119,-202,0,0,0,0,0,0,0,0,0,-1,1105,1226,0,0
-112,-202,0,0,0,0,0,0,0,0,0,-1,1112,1226,0,0
-105,-202,0,0,0,0,0,0,0,0,0,-1,1119,1226,0,0
-98,-202,0,0,0,0,0,0,0,0,0,-1,1126,1226,0,0
-91,-202,0,0,0,0,0,0,0,0,0,-1,1133,1226,0,0
-84,-202,0,0,0,0,0,0,0,0,0,-1,1140,1226,0,0
-77,-202,0,0,0,0,0,0,0,0,0,-1,1147,1226,0,0
-70,-202,0,0,0,0,0,0,0,0,0,-1,1154,1226,0,0
-63,-202,0,0,0,0,0,0,0,0,0,-1,1161,1226,0,0
-56,-202,0,0,0,0,0,0,0,0,0,-1,1168,1226,0,0
-49,-202,0,0,0,0,0,0,0,0,0,-1,1175,1226,0,0
-42,-202,0,0,0,0,0,0,0,0,0,-1,1182,1226,0,0
-35,-202,0,0,0,0,0,0,0,0,0,-1,1189,1226,0,0
-28,-202,0,0,0,0,0,0,0,0,0,-1,1196,1226,0,0
-21,-202,0,0,0,0,0,0,0,0,0,-1,1203,1226,0,0
-14,-202,0,0,0,0,0,0,0,0,0,-1,1210,1226,0,0
-7,-202,0,0,0,0,0,0,0,0,0,-1,1217,1226,0,0
0,-202,0,0,0,0,0,0,0,0,0,-1,1224,1226,0,0
7,-202,0,0,0,0,0,0,0,0,0,-1,1231,1226,0,0
14,-202,0,0,0,0,0,0,0,0,0,-1,1238,1226,0,0
21,-202,0,0,0,0,0,0,0,0,0,-1,1245,1226,0,0
28,-202,0,0,0,0,0,0,0,0,0,-1,1252,1226,0,0
35,-202,0,0,0,0,0,0,0,0,0,-1,1259,1226,0,0
42,-202,0,0,0,0,0,0,0,0,0,-1,1266,1226,0,0
49,-202,0,0,0,0,0,0,0,0,0,-1,1273,1226,0,0
56,-202,0,0,0,0,0,0,0,0,0,-1,1280,1226,0,0
63,-202,0,0,0,0,0,0,0,0,0,-1,1287,1226,0,0
70,-202,0,0,0,0,0,0,0,0,0,-1,1294,1226,0,0
77,-202,0,0,0,0,0,0,0,0,0,-1,1301,1226,0,0
84,-202,0,0,0,0,0,0,0,0,0,-1,1308,1226,0,0
91,-202,0,0,0,0,0,0,0,0,0,-1,1315,1226,0,0
98,-202,0,0,0,0,0,0,0,0,0,-1,1322,1226,0,0
105,-202,0,0,0,0,0,0,0,0,0,-1,1329,1226,0,0
112,-202,0,0,0,0,0,0,0,0,0,-1,1336,1226,0,0
119,-202,0,0,0,0,0,0,0,0,0,-1,1343,1226,0,0
126,-202,0,0,0,0,0,0,0,0,0,-1,1350,1226,0,0
133,-202,0,0,0,0,0,0,0,0,0,-1,1357,1226,0,0
140,-202,0,0,0,0,0,0,0,0,0,-1,1364,1226,0,0
147,-202,0,0,0,0,0,0,0,0,0,-1,1371,1226,0,0
154,-202,0,0,0,0,0,0,0,0,0,-1,1378,1226,0,0
161,-202,0,0,0,0,0,0,0,0,0,-1,1385,1226,0,0
168,-202,0,0,0,0,0,0,0,0,0,-1,1392,1226,0,0
175,-202,0,0,0,0,0,0,0,0,0,-1,1399,1226,0,0
182,-202,0,0,0,0,0,0,0,0,0,-1,1406,1226,0,0
189,-202,0,0,0,0,0,0,0,0,0,-1,1413,1226,0,0
196,-202,0,0,0,0,0,0,0,0,0,-1,1420,1226,0,0
203,-202,0,0,0,0,0,0,0,0,0,-1,1427,1226,0,0
210,-202,0,0,0,0,0,0,0,0,0,-1,1434,1226,0,0
217,-202,0,0,0,0,0,0,0,0,0,-1,1441,1226,0,0
224,-202,0,0,0,0,0,0,0,0,0,-1,1448,1226,0,0
231,-202,0,0,0,0,0,0,0,0,0,-1,1455,1226,0,0
238,-202,0,0,0,0,0,0,0,0,0,-1,1462,1226,0,0
245,-202,0,0,0,0,0,0,0,0,0,-1,1469,1226,0,0
252,-202,0,0,0,0,0,0,0,0,0,-1,1476,1226,0,0
259,-202,0,0,0,0,0,0,0,0,0,-1,1483,1226,0,0
266,-202,0,0,0,0,0,0,0,0,0,-1,1490,1226,0,0
273,-202,0,0,0,0,0,0,0,0,0,-1,1497,1226,0,0
280,-202,0,0,0,0,0,0,0,0,0,-1,1504,1226,0,0
287,-202,0,0,0,0,0,0,0,0,0,-1,1511,1226,0,0
294,-202,0,0,0,0,0,0,0,0,0,-1,1518,1226,0,0
301,-202,0,0,0,0,0,0,0,0,0,-1,1525,1226,0,0
308,-202,0,0,0,0,0,0,0,0,0,-1,1532,1226,0,0
315,-202,0,0,0,0,0,0,0,0,0,-1,1539,1226,0,0
322,-202,0,0,0,0,0,0,0,0,0,-1,1546,1226,0,0
329,-202,0,0,0,0,0,0,0,0,0,-1,1553,1226,0,0
336,-202,0,0,0,0,0,0,0,0,0,-1,1560,1226,0,0
343,-202,0,0,0,0,0,0,0,0,0,-1,1567,1226,0,0
350,-202,0,0,0,0,0,0,0,0,0,-1,1574,1226,0,0
357,-202,0,0,0,0,0,0,0,0,0,-1,1581,1226,0,0
364,-202,0,0,0,0,0,0,0,0,0,-1,1588,1226,0,0
371,-202,0,0,0,0,0,0,0,0,0,-1,1595,1226,0,0
378,-202,0,0,0,0,0,0,0,0,0,-1,1602,1226,0,0
385,-202,0,0,0,0,0,0,0,0,0,-1,1609,1226,0,0
392,-202,0,0,0,0,0,0,0,0,0,-1,1616,1226,0,0
399,-202,0,0,0,0,0,0,0,0,0,-1,1623,1226,0,0
406,-202,0,0,0,0,0,0,0,0,0,-1,1630,1226,0,0
413,-202,0,0,0,0,0,0,0,0,0,-1,1637,1226,0,0
420,-202,0,0,0,0,0,0,0,0,0,-1,1644,1226,0,0
427,-202,0,0,0,0,0,0,0,0,0,-1,1651,1226,0,0
434,-202,0,0,0,0,0,0,0,0,0,-1,1658,1226,0,0
441,-202,0,0,0,0,0,0,0,0,0,-1,1665,1226,0,0
448,-202,0,0,0,0,0,0,0,0,0,-1,1672,1226,0,0
455,-202,0,0,0,0,0,0,0,0,0,-1,1679,1226,0,0
462,-202,0,0,0,0,0,0,0,0,0,-1,1686,1226,0,0
469,-202,0,0,0,0,0,0,0,0,0,-1,1693,1226,0,0
476,-202,0,0,0,0,0,0,0,0,0,-1,1700,1226,0,0
483,-202,0,0,0,0,0,0,0,0,0,-1,1707,1226,0,0
490,-202,0,0,0,0,0,0,0,0,0,-1,1714,1226,0,0
497,-202,0,0,0,0,0,0,0,0,0,-1,1721,1226,0,0
504,-202,0,0,0,0,0,0,0,0,0,-1,1728,1226,0,0
511,-202,0,0,0,0,0,0,0,0,0,-1,1735,1226,0,0
518,-202,0,0,0,0,0,0,0,0,0,-1,1742,1226,0,0
525,-202,0,0,0,0,0,0,0,0,0,-1,1749,1226,0,0
532,-202,0,0,0,0,0,0,0,0,0,-1,1756,1226,0,0
539,-202,0,0,0,0,0,0,0,0,0,-1,1763,1226,0,0
546,-202,0,0,0,0,0,0,0,0,0,-1,1770,1226,0,0
553,-202,0,0,0,0,0,0,0,0,0,-1,1777,1226,0,0
560,-202,0,0,0,0,0,0,0,0,0,-1,1784,1226,0,0
567,-202,0,0,0,0,0,0,0,0,0,-1,1791,1226,0,0
574,-202,0,0,0,0,0,0,0,0,0,-1,1798,1226,0,0
581,-202,0,0,0,0,0,0,0,0,0,-1,1805,1226,0,0
588,-202,0,0,0,0,0,0,0,0,0,-1,1812,1226,0,0
595,-202,0,0,0,0,0,0,0,0,0,-1,1819,1226,0,0
602,-202,0,0,0,0,0,0,0,0,0,-1,1826,1226,0,0
609,-202,0,0,0,0,0,0,0,0,0,-1,1833,1226,0,0
616,-202,0,0,0,0,0,0,0,0,0,-1,1840,1226,0,0
623,-202,0,0,0,0,0,0,0,0,0,-1,1847,1226,0,0
630,-202,52.7538,2.71863,-1.83134e-05,0.00127598,8.56882e-05,0.00128163,-2.39617e-05,1.50497,0.000862516,0.0368766,1854,1226,52.7537,-2.71867
637,-202,52.8136,2.69214,0.000860139,0.0011641,-0.000292154,0.00134144,0.000682799,-1.02524,0.000774523,0.0349436,1861,1226,52.8136,-2.69217
644,-202,52.8458,2.6759,0.00187563,0.000953744,-0.000708546,0.00225997,0.000569403,-0.497018,0.00135726,0.0316859,1868,1226,52.8458,-2.67587
651,-202,52.8831,2.6593,0.00262896,0.000720615,-0.00120819,0.00321432,0.000135249,-0.451169,0.00209925,0.0267064,1875,1226,52.883,-2.65934
658,-202,52.8783,2.61389,0.00299629,0.000236171,-0.0015145,0.0036652,-0.000432741,-0.415906,0.00259975,0.0233101,1882,1226,52.8782,-2.61386
665,-202,52.9037,2.57117,0.00309338,-0.000337275,-0.00159836,0.00372264,-0.000966535,-0.375057,0.00285893,0.0222617,1889,1226,52.9037,-2.57116
672,-202,53.0028,2.64563,0.00286165,-0.00056945,-0.00148968,0.00341816,-0.00112596,-0.357522,0.00273254,0.0448668,1896,1226,53.0028,-2.6456
679,-202,53.1581,2.7345,0,0,0,0,0,0,0,-1,1903,1226,53.158,-2.73444
686,-202,49.1708,2.15198,0,0,0,0,0,0,0,-1,1910,1226,49.1708,-2.15195
693,-202,42.4894,10.2587,0,0,0,0,0,0,0,-1,1917,1226,42.4893,-10.2586
700,-202,42.6736,9.6051,0.00184087,-0.00117059,-0.000876553,0.00207743,-0.00140715,-0.263594,0.00202419,0.0457813,1924,1226,42.6736,-9.60513
707,-202,42.8116,8.88,0.00174719,-0.00133561,-0.000789602,0.00193766,-0.00152608,-0.236705,0.0020045,0.0329312,1931,1226,42.8116,-8.87998
714,-202,42.7689,8.40137,0.00134497,-0.00144017,-0.000535086,0.00144423,-0.00153944,-0.183425,0.00172292,0.0271427,1938,1226,42.7689,-8.40135
721,-202,42.7938,8.08337,0.000722609,-0.00118291,-0.000114967,0.000729521,-0.00118982,-0.0600436,0.00111871,0.0146687,1945,1226,42.7938,-8.08332
728,-202,42.7698,7.6156,0.000565144,-0.00101075,0.000474539,0.000697006,-0.00114261,0.271035,0.00107244,0.0109916,1952,1226,42.7698,-7.61563
735,-202,42.7429,7.14063,0.000678742,-0.000772105,0.00084236,0.00106499,-0.00115835,0.429924,0.00128402,0.011067,1959,1226,42.743,-7.1406
742,-202,42.7188,6.65601,0.00122516,-0.000236292,0.00121042,0.00190832,-0.000919453,0.513832,0.00166556,0.0124998,1966,1226,42.7187,-6.65606
749,-202,42.6847,6.19153,0.00225017,0.000286322,0.00133691,0.00292702,-0.000390521,0.468653,0.00209369,0.0131976,1973,1226,42.6847,-6.19155
756,-202,42.6818,5.74097,0.00384843,0.000866729,0.00118604,0.00426266,0.0004525,0.336009,0.00270359,0.0128262,1980,1226,42.6818,-5.74099
763,-202,42.7408,5.3252,0.00611029,0.00138087,0.000555352,0.00617463,0.00131654,0.115335,0.0037553,0.0225921,1987,1226,42.7409,-5.32521
770,-202,42.7551,5.03735,0,0,0,0,0,0,0,-1,1994,1226,42.7551,-5.03731
777,-202,40.0732,4.58777,0,0,0,0,0,0,0,-1,2001,1226,40.0732,-4.58775
784,-202,52.3721,-0.762451,0,0,0,0,0,0,0,-1,2008,1226,52.3721,0.762485
791,-202,51.6987,0.283203,0,0,0,0,0,0,0,-1,2015,1226,51.6988,-0.283264
798,-202,50.9998,1.3783,0,0,0,0,0,0,0,-1,2022,1226,50.9999,-1.37831
805,-202,0,0,0,0,0,0,0,0,0,-1,2029,1226,0,0
812,-202,0,0,0,0,0,0,0,0,0,-1,2036,1226,0,0
-700,-209,0,0,0,0,0,0,0,0,0,-1,524,1233,0,0
-693,-209,0,0,0,0,0,0,0,0,0,-1,531,1233,0,0
-686,-209,0,0,0,0,0,0,0,0,0,-1,538,1233,0,0
-679,-209,-28.4066,-2.25513,0,0,0,0,0,0,0,-1,545,1233,-28.4065,2.25511
-672,-209,-29.2604,-2.50171,0,0,0,0,0,0,0,-1,552,1233,-29.2604,2.50165
-665,-209,-30.4929,-0.0866699,0,0,0,0,0,0,0,-1,559,1233,-30.4929,0.0866182
-658,-209,-29.7593,0.22168,0,0,0,0,0,0,0,-1,566,1233,-29.7593,-0.221715
-651,-209,-29.1049,0.707642,0,0,0,0,0,0,0,-1,573,1233,-29.1049,-0.707691
-644,-209,-28.7625,1.34985,0,0,0,0,0,0,0,-1,580,1233,-28.7625,-1.34985
-637,-209,-27.9496,2.12598,0,0,0,0,0,0,0,-1,587,1233,-27.9497,-2.12592
-630,-209,-27.9307,2.56262,0.00602272,-0.00220127,0.00189673,0.00643909,-0.00261764,0.216092,0.00538183,0.0296362,594,1233,-27.9306,-2.56258
-623,-209,-28.0314,3.14551,0.00319402,-0.000765607,0.000707699,0.00331671,-0.000888292,0.171651,0.00255915,0.0141799,601,1233,-28.0314,-3.1455
-616,-209,-28.0588,3.68652,0.00137051,0.000203695,-0.000635638,0.00164989,-7.56832e-05,-0.414109,0.001126,0.0121711,608,1233,-28.0588,-3.68647
-609,-209,-28.0626,4.20276,0.000699035,0.000485656,-0.0015795,0.00217544,-0.000990753,-0.751676,0.00187017,0.0132658,615,1233,-28.0627,-4.20271
-602,-209,-28.1086,4.71472,0.000397854,-2.18528e-05,-0.00183912,0.00203905,-0.00166305,-0.728591,0.00214108,0.0153924,622,1233,-28.1086,-4.71475
-595,-209,-28.1146,5.23352,0.000222157,-0.000528912,-0.00191702,0.00180008,-0.00210683,-0.688675,0.00225797,0.0116401,629,1233,-28.1146,-5.23355
-588,-209,-28.0825,5.79407,0.000548356,-0.00131939,-0.00222567,0.00202813,-0.00279917,-0.586757,0.00279887,0.0190677,636,1233,-28.0825,-5.79404
-581,-209,-27.6679,6.48706,0,0,0,0,0,0,0,-1,643,1233,-27.6679,-6.48711
-574,-209,-26.2147,6.6123,0,0,0,0,0,0,0,-1,650,1233,-26.2147,-6.61234
-567,-209,-26.2951,6.92981,0,0,0,0,0,0,0,-1,657,1233,-26.2951,-6.92986
-560,-209,-13.9294,4.16626,0,0,0,0,0,0,0,-1,664,1233,-13.9294,-4.16621
-553,-209,-22.7542,0.748779,0,0,0,0,0,0,0,-1,671,1233,-22.7541,-0.748796
-546,-209,-39.9152,1.47937,0,0,0,0,0,0,0,-1,678,1233,-39.9151,-1.47939
-539,-209,-39.4756,1.16907,0,0,0,0,0,0,0,-1,685,1233,-39.4756,-1.16902
-532,-209,-39.0361,0.858643,0,0,0,0,0,0,0,-1,692,1233,-39.0361,-0.858655
-525,-209,-39.1674,0.847412,-0.00025652,-0.00271765,0.00148566,0.000442029,-0.0034162,0.43952,0.0024382,0.0332871,699,1233,-39.1674,-0.847435
-518,-209,-39.2037,0.867676,-0.00140342,-0.00151345,0.00319344,0.00173547,-0.00465235,0.776785,0.00381402,0.0417295,706,1233,-39.2036,-0.867717
-511,-209,-39.2307,0.897339,-0.00176016,0.00134629,0.00589131,0.00588569,-0.00629956,0.914289,0.00703651,0.042541,713,1233,-39.2306,-0.897295
-504,-209,0,0,0,0,0,0,0,0,0,-1,720,1233,0,0
-497,-209,0,0,0,0,0,0,0,0,0,-1,727,1233,0,0
-490,-209,0,0,0,0,0,0,0,0,0,-1,734,1233,0,0
-483,-209,0,0,0,0,0,0,0,0,0,-1,741,1233,0,0
-476,-209,0,0,0,0,0,0,0,0,0,-1,748,1233,0,0
-469,-209,0,0,0,0,0,0,0,0,0,-1,755,1233,0,0
-462,-209,0,0,0,0,0,0,0,0,0,-1,762,1233,0,0
-455,-209,0,0,0,0,0,0,0,0,0,-1,769,1233,0,0
-448,-209,0,0,0,0,0,0,0,0,0,-1,776,1233,0,0
-441,-209,0,0,0,0,0,0,0,0,0,-1,783,1233,0,0
-434,-209,0,0,0,0,0,0,0,0,0,-1,790,1233,0,0
-427,-209,0,0,0,0,0,0,0,0,0,-1,797,1233,0,0
-420,-209,0,0,0,0,0,0,0,0,0,-1,804,1233,0,0
-413,-209,0,0,0,0,0,0,0,0,0,-1,811,1233,0,0
-406,-209,0,0,0,0,0,0,0,0,0,-1,818,1233,0,0
-399,-209,0,0,0,0,0,0,0,0,0,-1,825,1233,0,0
-392,-209,0,0,0,0,0,0,0,0,0,-1,832,1233,0,0
-385,-209,0,0,0,0,0,0,0,0,0,-1,839,1233,0,0
-378,-209,0,0,0,0,0,0,0,0,0,-1,846,1233,0,0
-371,-209,0,0,0,0,0,0,0,0,0,-1,853,1233,0,0
-364,-209,0,0,0,0,0,0,0,0,0,-1,860,1233,0,0
-357,-209,0,0,0,0,0,0,0,0,0,-1,867,1233,0,0
-350,-209,0,0,0,0,0,0,0,0,0,-1,874,1233,0,0
-343,-209,0,0,0,0,0,0,0,0,0,-1,881,1233,0,0
-336,-209,0,0,0,0,0,0,0,0,0,-1,888,1233,0,0
-329,-209,0,0,0,0,0,0,0,0,0,-1,895,1233,0,0
-322,-209,0,0,0,0,0,0,0,0,0,-1,902,1233,0,0
-315,-209,0,0,0,0,0,0,0,0,0,-1,909,1233,0,0
-308,-209,0,0,0,0,0,0,0,0,0,-1,916,1233,0,0
-301,-209,0,0,0,0,0,0,0,0,0,-1,923,1233,0,0
-294,-209,0,0,0,0,0,0,0,0,0,-1,930,1233,0,0
-287,-209,0,0,0,0,0,0,0,0,0,-1,937,1233,0,0
-280,-209,0,0,0,0,0,0,0,0,0,-1,944,1233,0,0
-273,-209,0,0,0,0,0,0,0,0,0,-1,951,1233,0,0
-266,-209,0,0,0,0,0,0,0,0,0,-1,958,1233,0,0
-259,-209,0,0,0,0,0,0,0,0,0,-1,965,1233,0,0
-252,-209,0,0,0,0,0,0,0,0,0,-1,972,1233,0,0
-245,-209,0,0,0,0,0,0,0,0,0,-1,979,1233,0,0
-238,-209,0,0,0,0,0,0,0,0,0,-1,986,1233,0,0
-231,-209,0,0,0,0,0,0,0,0,0,-1,993,1233,0,0
-224,-209,0,0,0,0,0,0,0,0,0,-1,1000,1233,0,0
-217,-209,0,0,0,0,0,0,0,0,0,-1,1007,1233,0,0
-210,-209,0,0,0,0,0,0,0,0,0,-1,1014,1233,0,0
-203,-209,0,0,0,0,0,0,0,0,0,-1,1021,1233,0,0
-196,-209,0,0,0,0,0,0,0,0,0,-1,1028,1233,0,0
-189,-209,0,0,0,0,0,0,0,0,0,-1,1035,1233,0,0
-182,-209,0,0,0,0,0,0,0,0,0,-1,1042,1233,0,0
-175,-209,0,0,0,0,0,0,0,0,0,-1,1049,1233,0,0
-168,-209,0,0,0,0,0,0,0,0,0,-1,1056,1233,0,0
-161,-209,0,0,0,0,0,0,0,0,0,-1,1063,1233,0,0
-154,-209,0,0,0,0,0,0,0,0,0,-1,1070,1233,0,0
-147,-209,0,0,0,0,0,0,0,0,0,-1,1077,1233,0,0
-140,-209,0,0,0,0,0,0,0,0,0,-1,1084,1233,0,0
-133,-209,0,0,0,0,0,0,0,0,0,-1,1091,1233,0,0
-126,-209,0,0,0,0,0,0,0,0,0,-1,1098,1233,0,0
-119,-209,0,0,0,0,0,0,0,0,0,-1,1105,1233,0,0
-112,-209,0,0,0,0,0,0,0,0,0,-1,1112,1233,0,0
-105,-209,0,0,0,0,0,0,0,0,0,-1,1119,1233,0,0
-98,-209,0,0,0,0,0,0,0,0,0,-1,1126,1233,0,0
-91,-209,0,0,0,0,0,0,0,0,0,-1,1133,1233,0,0
-84,-209,0,0,0,0,0,0,0,0,0,-1,1140,1233,0,0
-77,-209,0,0,0,0,0,0,0,0,0,-1,1147,1233,0,0
-70,-209,0,0,0,0,0,0,0,0,0,-1,1154,1233,0,0
-63,-209,0,0,0,0,0,0,0,0,0,-1,1161,1233,0,0
-56,-209,0,0,0,0,0,0,0,0,0,-1,1168,1233,0,0
-49,-209,0,0,0,0,0,0,0,0,0,-1,1175,1233,0,0
-42,-209,0,0,0,0,0,0,0,0,0,-1,1182,1233,0,0
-35,-209,0,0,0,0,0,0,0,0,0,-1,1189,1233,0,0
-28,-209,0,0,0,0,0,0,0,0,0,-1,1196,1233,0,0
-21,-209,0,0,0,0,0,0,0,0,0,-1,1203,1233,0,0
-14,-209,0,0,0,0,0,0,0,0,0,-1,1210,1233,0,0
-7,-209,0,0,0,0,0,0,0,0,0,-1,1217,1233,0,0
0,-209,0,0,0,0,0,0,0,0,0,-1,1224,1233,0,0
7,-209,0,0,0,0,0,0,0,0,0,-1,1231,1233,0,0
14,-209,0,0,0,0,0,0,0,0,0,-1,1238,1233,0,0
21,-209,0,0,0,0,0,0,0,0,0,-1,1245,1233,0,0
28,-209,0,0,0,0,0,0,0,0,0,-1,1252,1233,0,0
35,-209,0,0,0,0,0,0,0,0,0,-1,1259,1233,0,0
42,-209,0,0,0,0,0,0,0,0,0,-1,1266,1233,0,0
49,-209,0,0,0,0,0,0,0,0,0,-1,1273,1233,0,0
56,-209,0,0,0,0,0,0,0,0,0,-1,1280,1233,0,0
63,-209,0,0,0,0,0,0,0,0,0,-1,1287,1233,0,0
70,-209,0,0,0,0,0,0,0,0,0,-1,1294,1233,0,0
77,-209,0,0,0,0,0,0,0,0,0,-1,1301,1233,0,0
84,-209,0,0,0,0,0,0,0,0,0,-1,1308,1233,0,0
91,-209,0,0,0,0,0,0,0,0,0,-1,1315,1233,0,0
98,-209,0,0,0,0,0,0,0,0,0,-1,1322,1233,0,0
105,-209,0,0,0,0,0,0,0,0,0,-1,1329,1233,0,0
112,-209,0,0,0,0,0,0,0,0,0,-1,1336,1233,0,0
119,-209,0,0,0,0,0,0,0,0,0,-1,1343,1233,0,0
126,-209,0,0,0,0,0,0,0,0,0,-1,1350,1233,0,0
133,-209,0,0,0,0,0,0,0,0,0,-1,1357,1233,0,0
140,-209,0,0,0,0,0,0,0,0,0,-1,1364,1233,0,0
147,-209,0,0,0,0,0,0,0,0,0,-1,1371,1233,0,0
154,-209,0,0,0,0,0,0,0,0,0,-1,1378,1233,0,0
161,-209,0,0,0,0,0,0,0,0,0,-1,1385,1233,0,0
168,-209,0,0,0,0,0,0,0,0,0,-1,1392,1233,0,0
175,-209,0,0,0,0,0,0,0,0,0,-1,1399,1233,0,0
182,-209,0,0,0,0,0,0,0,0,0,-1,1406,1233,0,0
189,-209,0,0,0,0,0,0,0,0,0,-1,1413,1233,0,0
196,-209,0,0,0,0,0,0,0,0,0,-1,1420,1233,0,0
203,-209,0,0,0,0,0,0,0,0,0,-1,1427,1233,0,0
210,-209,0,0,0,0,0,0,0,0,0,-1,1434,1233,0,0
217,-209,0,0,0,0,0,0,0,0,0,-1,1441,1233,0,0
224,-209,0,0,0,0,0,0,0,0,0,-1,1448,1233,0,0
231,-209,0,0,0,0,0,0,0,0,0,-1,1455,1233,0,0
238,-209,0,0,0,0,0,0,0,0,0,-1,1462,1233,0,0
245,-209,0,0,0,0,0,0,0,0,0,-1,1469,1233,0,0
252,-209,0,0,0,0,0,0,0,0,0,-1,1476,1233,0,0
259,-209,0,0,0,0,0,0,0,0,0,-1,1483,1233,0,0
266,-209,0,0,0,0,0,0,0,0,0,-1,1490,1233,0,0
273,-209,0,0,0,0,0,0,0,0,0,-1,1497,1233,0,0
280,-209,0,0,0,0,0,0,0,0,0,-1,1504,1233,0,0
287,-209,0,0,0,0,0,0,0,0,0,-1,1511,1233,0,0
294,-209,0,0,0,0,0,0,0,0,0,-1,1518,1233,0,0
301,-209,0,0,0,0,0,0,0,0,0,-1,1525,1233,0,0
308,-209,0,0,0,0,0,0,0,0,0,-1,1532,1233,0,0
315,-209,0,0,0,0,0,0,0,0,0,-1,1539,1233,0,0
322,-209,0,0,0,0,0,0,0,0,0,-1,1546,1233,0,0
329,-209,0,0,0,0,0,0,0,0,0,-1,1553,1233,0,0
336,-209,0,0,0,0,0,0,0,0,0,-1,1560,1233,0,0
343,-209,0,0,0,0,0,0,0,0,0,-1,1567,1233,0,0
350,-209,0,0,0,0,0,0,0,0,0,-1,1574,1233,0,0
357,-209,0,0,0,0,0,0,0,0,0,-1,1581,1233,0,0
364,-209,0,0,0,0,0,0,0,0,0,-1,1588,1233,0,0
371,-209,0,0,0,0,0,0,0,0,0,-1,1595,1233,0,0
378,-209,0,0,0,0,0,0,0,0,0,-1,1602,1233,0,0
385,-209,0,0,0,0,0,0,0,0,0,-1,1609,1233,0,0
392,-209,0,0,0,0,0,0,0,0,0,-1,1616,1233,0,0
399,-209,0,0,0,0,0,0,0,0,0,-1,1623,1233,0,0
406,-209,0,0,0,0,0,0,0,0,0,-1,1630,1233,0,0
413,-209,0,0,0,0,0,0,0,0,0,-1,1637,1233,0,0
420,-209,0,0,0,0,0,0,0,0,0,-1,1644,1233,0,0
427,-209,0,0,0,0,0,0,0,0,0,-1,1651,1233,0,0
434,-209,0,0,0,0,0,0,0,0,0,-1,1658,1233,0,0
441,-209,0,0,0,0,0,0,0,0,0,-1,1665,1233,0,0
448,-209,0,0,0,0,0,0,0,0,0,-1,1672,1233,0,0
455,-209,0,0,0,0,0,0,0,0,0,-1,1679,1233,0,0
462,-209,0,0,0,0,0,0,0,0,0,-1,1686,1233,0,0
469,-209,0,0,0,0,0,0,0,0,0,-1,1693,1233,0,0
476,-209,0,0,0,0,0,0,0,0,0,-1,1700,1233,0,0
483,-209,0,0,0,0,0,0,0,0,0,-1,1707,1233,0,0
490,-209,0,0,0,0,0,0,0,0,0,-1,1714,1233,0,0
497,-209,0,0,0,0,0,0,0,0,0,-1,1721,1233,0,0
504,-209,0,0,0,0,0,0,0,0,0,-1,1728,1233,0,0
511,-209,0,0,0,0,0,0,0,0,0,-1,1735,1233,0,0
518,-209,0,0,0,0,0,0,0,0,0,-1,1742,1233,0,0
525,-209,0,0,0,0,0,0,0,0,0,-1,1749,1233,0,0
532,-209,0,0,0,0,0,0,0,0,0,-1,1756,1233,0,0
539,-209,0,0,0,0,0,0,0,0,0,-1,1763,1233,0,0
546,-209,0,0,0,0,0,0,0,0,0,-1,1770,1233,0,0
553,-209,0,0,0,0,0,0,0,0,0,-1,1777,1233,0,0
560,-209,0,0,0,0,0,0,0,0,0,-1,1784,1233,0,0
567,-209,0,0,0,0,0,0,0,0,0,-1,1791,1233,0,0
574,-209,0,0,0,0,0,0,0,0,0,-1,1798,1233,0,0
581,-209,0,0,0,0,0,0,0,0,0,-1,1805,1233,0,0
588,-209,0,0,0,0,0,0,0,0,0,-1,1812,1233,0,0
595,-209,0,0,0,0,0,0,0,0,0,-1,1819,1233,0,0
602,-209,0,0,0,0,0,0,0,0,0,-1,1826,1233,0,0
609,-209,0,0,0,0,0,0,0,0,0,-1,1833,1233,0,0
616,-209,0,0,0,0,0,0,0,0,0,-1,1840,1233,0,0
623,-209,52.7471,2.51111,-0.000568753,0.00162015,-8.22374e-05,0.00162323,-0.000571838,-1.5333,0.00131489,0.0312631,1847,1233,52.7471,-2.51114
630,-209,52.7188,2.49939,0.00044374,0.00157308,-0.000479842,0.00174942,0.000267397,-1.21861,0.00108816,0.0343212,1854,1233,52.7188,-2.49935
637,-209,52.8093,2.53491,0.00146654,0.00150615,-0.000859694,0.00234627,0.000626423,-0.796916,0.00140279,0.0348445,1861,1233,52.8093,-2.53485
644,-209,52.8698,2.58179,0.0025656,0.00127359,-0.00122603,0.00330541,0.000533786,-0.542926,0.00204898,0.0293743,1868,1233,52.8698,-2.58176
651,-209,52.9054,2.61865,0.0031117,0.000962059,-0.00161442,0.00397636,9.74013e-05,-0.491709,0.00261904,0.0239234,1875,1233,52.9054,-2.61869
658,-209,52.894,2.60559,0.00327728,0.000377949,-0.00175572,0.00410448,-0.000449246,-0.440296,0.0028977,0.0215833,1882,1233,52.894,-2.60564
665,-209,53.0226,2.6781,0.00323781,-0.000229548,-0.0017075,0.00393748,-0.000929218,-0.388895,0.00298336,0.0360814,1889,1233,53.0226,-2.67811
672,-209,53.0403,2.61548,0,0,0,0,0,0,0,-1,1896,1233,53.0403,-2.61551
679,-209,51.7158,1.98767,0,0,0,0,0,0,0,-1,1903,1233,51.7158,-1.98765
686,-209,33.3711,3.89856,0,0,0,0,0,0,0,-1,1910,1233,33.3711,-3.89855
693,-209,42.0304,10.295,0,0,0,0,0,0,0,-1,1917,1233,42.0304,-10.295
700,-209,42.1558,9.65222,0.00190257,-0.00134161,-0.000878651,0.00212526,-0.00156429,-0.248216,0.00213836,0.0432634,1924,1233,42.1557,-9.65227
707,-209,42.2527,9.05676,0.00173735,-0.00155678,-0.000782741,0.00191388,-0.00173331,-0.22182,0.00210657,0.0350891,1931,1233,42.2527,-9.05677
714,-209,42.2579,8.60718,0.00123806,-0.00164009,-0.000475925,0.00131472,-0.00171675,-0.159696,0.00175534,0.0199564,1938,1233,42.2579,-8.60721
721,-209,42.2944,8.09473,0.000568397,-0.00129941,-1.26634e-05,0.000568483,-0.0012995,-0.00677942,0.00110566,0.0137309,1945,1233,42.2944,-8.09473
728,-209,42.3046,7.64075,0.000492364,-0.00107116,0.000654931,0.000730449,-0.00130924,0.348674,0.00119331,0.0139103,1952,1233,42.3046,-7.64076
735,-209,42.2767,7.1709,0.000768979,-0.000819423,0.00119453,0.00140923,-0.00145967,0.492021,0.00165645,0.0153004,1959,1233,42.2768,-7.17089
742,-209,42.2532,6.67615,0.00147065,-0.000387716,0.00173665,0.00251107,-0.00142814,0.539755,0.00230277,0.0146138,1966,1233,42.2531,-6.6761
749,-209,42.2078,6.20959,0.00269409,2.93243e-05,0.00219591,0.00393022,-0.00120681,0.512712,0.00310169,0.013401,1973,1233,42.2078,-6.20957
756,-209,42.1962,5.75952,0.00461994,0.000488408,0.00243184,0.00574498,-0.000636628,0.433306,0.00405887,0.0125824,1980,1233,42.1962,-5.75955
763,-209,42.1757,5.39331,0.00748882,0.000860068,0.00242923,0.00828373,6.51586e-05,0.316245,0.00550089,0.0229217,1987,1233,42.1756,-5.39334
770,-209,42.2272,5.1615,0,0,0,0,0,0,0,-1,1994,1233,42.2272,-5.16153
777,-209,49.8105,-3.45435,0,0,0,0,0,0,0,-1,2001,1233,49.8106,3.45429
784,-209,49.6125,-0.942261,0,0,0,0,0,0,0,-1,2008,1233,49.6125,0.942256
791,-209,49.196,1.27917,0,0,0,0,0,0,0,-1,2015,1233,49.1961,-1.27913
798,-209,48.874,3.65027,0,0,0,0,0,0,0,-1,2022,1233,48.8741,-3.65028
805,-209,0,0,0,0,0,0,0,0,0,-1,2029,1233,0,0
812,-209,0,0,0,0,0,0,0,0,0,-1,2036,1233,0,0
-700,-216,0,0,0,0,0,0,0,0,0,-1,524,1240,0,0
-693,-216,0,0,0,0,0,0,0,0,0,-1,531,1240,0,0
-686,-216,0,0,0,0,0,0,0,0,0,-1,538,1240,0,0
-679,-216,-27.4221,-1.84729,0,0,0,0,0,0,0,-1,545,1240,-27.4221,1.84732
-672,-216,-28.2531,-2.11951,0,0,0,0,0,0,0,-1,552,1240,-28.2531,2.11945
-665,-216,-30.4131,-0.00964355,0,0,0,0,0,0,0,-1,559,1240,-30.4131,0.00968689
-658,-216,-29.8046,0.326538,0,0,0,0,0,0,0,-1,566,1240,-29.8046,-0.326536
-651,-216,-29.3798,0.752808,0,0,0,0,0,0,0,-1,573,1240,-29.3798,-0.752846
-644,-216,-29.2028,0.835938,0,0,0,0,0,0,0,-1,580,1240,-29.2028,-0.83598
-637,-216,-27.3462,1.82458,0,0,0,0,0,0,0,-1,587,1240,-27.3462,-1.82464
-630,-216,-27.3808,2.53052,0.00755673,-0.00219751,0.00148881,0.00777891,-0.00241969,0.14814,0.00615319,0.0378615,594,1240,-27.3808,-2.53053
-623,-216,-27.4711,3.20325,0.00457668,-0.000738383,0.000427506,0.00461084,-0.000772549,0.0797498,0.00336114,0.0161224,601,1240,-27.4711,-3.20323
-616,-216,-27.5399,3.71655,0.0025619,0.000196726,-0.000722471,0.00276513,-6.49935e-06,-0.274206,0.00184559,0.0133365,608,1240,-27.5399,-3.71658
-609,-216,-27.5616,4.22607,0.00165605,0.000468454,-0.00144987,0.00262901,-0.000504507,-0.591042,0.0019428,0.0122474,615,1240,-27.5616,-4.22609
-602,-216,-27.571,4.71204,0.00113801,2.34667e-05,-0.001532,0.00221094,-0.00104946,-0.61096,0.0019218,0.0120154,622,1240,-27.5711,-4.71208
-595,-216,-27.5646,5.20154,0.000876699,-0.000410823,-0.00154425,0.001906,-0.00144012,-0.587913,0.00193812,0.0177774,629,1240,-27.5646,-5.20156
-588,-216,-27.5862,5.73914,0.00116663,-0.00109816,-0.00177893,0.002143,-0.00207454,-0.501963,0.00243511,0.0214479,636,1240,-27.5863,-5.7391
-581,-216,-27.5636,6.34192,0.00179614,-0.00167904,-0.00219686,0.00285952,-0.00274242,-0.450802,0.00323451,0.0376281,643,1240,-27.5636,-6.34189
-574,-216,-27.4117,6.84973,0,0,0,0,0,0,0,-1,650,1240,-27.4118,-6.84972
-567,-216,-28.0174,7.85608,0,0,0,0,0,0,0,-1,657,1240,-28.0174,-7.85605
-560,-216,-16.5087,5.4574,0,0,0,0,0,0,0,-1,664,1240,-16.5087,-5.45746
-553,-216,-16.2355,1.22351,0,0,0,0,0,0,0,-1,671,1240,-16.2356,-1.22356
-546,-216,-37.1617,-0.25415,0,0,0,0,0,0,0,-1,678,1240,-37.1618,0.254161
-539,-216,-39.5489,1.22571,0,0,0,0,0,0,0,-1,685,1240,-39.5489,-1.22568
-532,-216,-38.9592,0.88147,0,0,0,0,0,0,0,-1,692,1240,-38.9592,-0.881528
-525,-216,-39.0814,0.893433,-0.000821432,-0.00259487,0.00274716,0.00117857,-0.00459487,0.629289,0.00352245,0.0461937,699,1240,-39.0814,-0.893385
-518,-216,-39.1533,0.822388,-0.00217581,-0.00164805,0.00436455,0.00246059,-0.00628445,0.815591,0.00520736,0.0423176,706,1240,-39.1533,-0.822358
-511,-216,-39.1631,0.875366,-0.00332909,9.04434e-05,0.00665449,0.0052513,-0.00848995,0.911145,0.00800663,0.041683,713,1240,-39.1631,-0.875367
-504,-216,-39.1508,1.05603,-0.00263301,0.00341758,0.0114092,0.0121957,-0.0114112,0.914997,0.013632,0.042327,720,1240,-39.1508,-1.05606
-497,-216,0,0,0,0,0,0,0,0,0,-1,727,1240,0,0
-490,-216,0,0,0,0,0,0,0,0,0,-1,734,1240,0,0
-483,-216,0,0,0,0,0,0,0,0,0,-1,741,1240,0,0
-476,-216,0,0,0,0,0,0,0,0,0,-1,748,1240,0,0
-469,-216,0,0,0,0,0,0,0,0,0,-1,755,1240,0,0
-462,-216,0,0,0,0,0,0,0,0,0,-1,762,1240,0,0
-455,-216,0,0,0,0,0,0,0,0,0,-1,769,1240,0,0
-448,-216,0,0,0,0,0,0,0,0,0,-1,776,1240,0,0
-441,-216,0,0,0,0,0,0,0,0,0,-1,783,1240,0,0
-434,-216,0,0,0,0,0,0,0,0,0,-1,790,1240,0,0
-427,-216,0,0,0,0,0,0,0,0,0,-1,797,1240,0,0
-420,-216,0,0,0,0,0,0,0,0,0,-1,804,1240,0,0
-413,-216,0,0,0,0,0,0,0,0,0,-1,811,1240,0,0
-406,-216,0,0,0,0,0,0,0,0,0,-1,818,1240,0,0
-399,-216,0,0,0,0,0,0,0,0,0,-1,825,1240,0,0
-392,-216,0,0,0,0,0,0,0,0,0,-1,832,1240,0,0
-385,-216,0,0,0,0,0,0,0,0,0,-1,839,1240,0,0
-378,-216,0,0,0,0,0,0,0,0,0,-1,846,1240,0,0
-371,-216,0,0,0,0,0,0,0,0,0,-1,853,1240,0,0
-364,-216,0,0,0,0,0,0,0,0,0,-1,860,1240,0,0
-357,-216,0,0,0,0,0,0,0,0,0,-1,867,1240,0,0
-350,-216,0,0,0,0,0,0,0,0,0,-1,874,1240,0,0
-343,-216,0,0,0,0,0,0,0,0,0,-1,881,1240,0,0
-336,-216,0,0,0,0,0,0,0,0,0,-1,888,1240,0,0
-329,-216,0,0,0,0,0,0,0,0,0,-1,895,1240,0,0
-322,-216,0,0,0,0,0,0,0,0,0,-1,902,1240,0,0
-315,-216,0,0,0,0,0,0,0,0,0,-1,909,1240,0,0
-308,-216,0,0,0,0,0,0,0,0,0,-1,916,1240,0,0
-301,-216,0,0,0,0,0,0,0,0,0,-1,923,1240,0,0
-294,-216,0,0,0,0,0,0,0,0,0,-1,930,1240,0,0
-287,-216,0,0,0,0,0,0,0,0,0,-1,937,1240,0,0
-280,-216,0,0,0,0,0,0,0,0,0,-1,944,1240,0,0
-273,-216,0,0,0,0,0,0,0,0,0,-1,951,1240,0,0
-266,-216,0,0,0,0,0,0,0,0,0,-1,958,1240,0,0
-259,-216,0,0,0,0,0,0,0,0,0,-1,965,1240,0,0
-252,-216,0,0,0,0,0,0,0,0,0,-1,972,1240,0,0
-245,-216,0,0,0,0,0,0,0,0,0,-1,979,1240,0,0
-238,-216,0,0,0,0,0,0,0,0,0,-1,986,1240,0,0
-231,-216,0,0,0,0,0,0,0,0,0,-1,993,1240,0,0
-224,-216,0,0,0,0,0,0,0,0,0,-1,1000,1240,0,0
-217,-216,0,0,0,0,0,0,0,0,0,-1,1007,1240,0,0
-210,-216,0,0,0,0,0,0,0,0,0,-1,1014,1240,0,0
-203,-216,0,0,0,0,0,0,0,0,0,-1,1021,1240,0,0
-196,-216,0,0,0,0,0,0,0,0,0,-1,1028,1240,0,0
-189,-216,0,0,0,0,0,0,0,0,0,-1,1035,1240,0,0
-182,-216,0,0,0,0,0,0,0,0,0,-1,1042,1240,0,0
-175,-216,0,0,0,0,0,0,0,0,0,-1,1049,1240,0,0
-168,-216,0,0,0,0,0,0,0,0,0,-1,1056,1240,0,0
-161,-216,0,0,0,0,0,0,0,0,0,-1,1063,1240,0,0
-154,-216,0,0,0,0,0,0,0,0,0,-1,1070,1240,0,0
-147,-216,0,0,0,0,0,0,0,0,0,-1,1077,1240,0,0
-140,-216,0,0,0,0,0,0,0,0,0,-1,1084,1240,0,0
-133,-216,0,0,0,0,0,0,0,0,0,-1,1091,1240,0,0
-126,-216,0,0,0,0,0,0,0,0,0,-1,1098,1240,0,0
-119,-216,0,0,0,0,0,0,0,0,0,-1,1105,1240,0,0
-112,-216,0,0,0,0,0,0,0,0,0,-1,1112,1240,0,0
-105,-216,0,0,0,0,0,0,0,0,0,-1,1119,1240,0,0
-98,-216,0,0,0,0,0,0,0,0,0,-1,1126,1240,0,0
-91,-216,0,0,0,0,0,0,0,0,0,-1,1133,1240,0,0
-84,-216,0,0,0,0,0,0,0,0,0,-1,1140,1240,0,0
-77,-216,0,0,0,0,0,0,0,0,0,-1,1147,1240,0,0
-70,-216,0,0,0,0,0,0,0,0,0,-1,1154,1240,0,0
-63,-216,0,0,0,0,0,0,0,0,0,-1,1161,1240,0,0
-56,-216,0,0,0,0,0,0,0,0,0,-1,1168,1240,0,0
-49,-216,0,0,0,0,0,0,0,0,0,-1,1175,1240,0,0
-42,-216,0,0,0,0,0,0,0,0,0,-1,1182,1240,0,0
-35,-216,0,0,0,0,0,0,0,0,0,-1,1189,1240,0,0
-28,-216,0,0,0,0,0,0,0,0,0,-1,1196,1240,0,0
-21,-216,0,0,0,0,0,0,0,0,0,-1,1203,1240,0,0
-14,-216,0,0,0,0,0,0,0,0,0,-1,1210,1240,0,0
-7,-216,0,0,0,0,0,0,0,0,0,-1,1217,1240,0,0
0,-216,0,0,0,0,0,0,0,0,0,-1,1224,1240,0,0
7,-216,0,0,0,0,0,0,0,0,0,-1,1231,1240,0,0
14,-216,0,0,0,0,0,0,0,0,0,-1,1238,1240,0,0
21,-216,0,0,0,0,0,0,0,0,0,-1,1245,1240,0,0
28,-216,0,0,0,0,0,0,0,0,0,-1,1252,1240,0,0
35,-216,0,0,0,0,0,0,0,0,0,-1,1259,1240,0,0
42,-216,0,0,0,0,0,0,0,0,0,-1,1266,1240,0,0
49,-216,0,0,0,0,0,0,0,0,0,-1,1273,1240,0,0
56,-216,0,0,0,0,0,0,0,0,0,-1,1280,1240,0,0
63,-216,0,0,0,0,0,0,0,0,0,-1,1287,1240,0,0
70,-216,0,0,0,0,0,0,0,0,0,-1,1294,1240,0,0
77,-216,0,0,0,0,0,0,0,0,0,-1,1301,1240,0,0
84,-216,0,0,0,0,0,0,0,0,0,-1,1308,1240,0,0
91,-216,0,0,0,0,0,0,0,0,0,-1,1315,1240,0,0
98,-216,0,0,0,0,0,0,0,0,0,-1,1322,1240,0,0
105,-216,0,0,0,0,0,0,0,0,0,-1,1329,1240,0,0
112,-216,0,0,0,0,0,0,0,0,0,-1,1336,1240,0,0
119,-216,0,0,0,0,0,0,0,0,0,-1,1343,1240,0,0
126,-216,0,0,0,0,0,0,0,0,0,-1,1350,1240,0,0
133,-216,0,0,0,0,0,0,0,0,0,-1,1357,1240,0,0
140,-216,0,0,0,0,0,0,0,0,0,-1,1364,1240,0,0
147,-216,0,0,0,0,0,0,0,0,0,-1,1371,1240,0,0
154,-216,0,0,0,0,0,0,0,0,0,-1,1378,1240,0,0
161,-216,0,0,0,0,0,0,0,0,0,-1,1385,1240,0,0
168,-216,0,0,0,0,0,0,0,0,0,-1,1392,1240,0,0
175,-216,0,0,0,0,0,0,0,0,0,-1,1399,1240,0,0
182,-216,0,0,0,0,0,0,0,0,0,-1,1406,1240,0,0
189,-216,0,0,0,0,0,0,0,0,0,-1,1413,1240,0,0
196,-216,0,0,0,0,0,0,0,0,0,-1,1420,1240,0,0
203,-216,0,0,0,0,0,0,0,0,0,-1,1427,1240,0,0
210,-216,0,0,0,0,0,0,0,0,0,-1,1434,1240,0,0
217,-216,0,0,0,0,0,0,0,0,0,-1,1441,1240,0,0
224,-216,0,0,0,0,0,0,0,0,0,-1,1448,1240,0,0
231,-216,0,0,0,0,0,0,0,0,0,-1,1455,1240,0,0
238,-216,0,0,0,0,0,0,0,0,0,-1,1462,1240,0,0
245,-216,0,0,0,0,0,0,0,0,0,-1,1469,1240,0,0
252,-216,0,0,0,0,0,0,0,0,0,-1,1476,1240,0,0
259,-216,0,0,0,0,0,0,0,0,0,-1,1483,1240,0,0
266,-216,0,0,0,0,0,0,0,0,0,-1,1490,1240,0,0
273,-216,0,0,0,0,0,0,0,0,0,-1,1497,1240,0,0
280,-216,0,0,0,0,0,0,0,0,0,-1,1504,1240,0,0
287,-216,0,0,0,0,0,0,0,0,0,-1,1511,1240,0,0
294,-216,0,0,0,0,0,0,0,0,0,-1,1518,1240,0,0
301,-216,0,0,0,0,0,0,0,0,0,-1,1525,1240,0,0
308,-216,0,0,0,0,0,0,0,0,0,-1,1532,1240,0,0
315,-216,0,0,0,0,0,0,0,0,0,-1,1539,1240,0,0
322,-216,0,0,0,0,0,0,0,0,0,-1,1546,1240,0,0
329,-216,0,0,0,0,0,0,0,0,0,-1,1553,1240,0,0
336,-216,0,0,0,0,0,0,0,0,0,-1,1560,1240,0,0
343,-216,0,0,0,0,0,0,0,0,0,-1,1567,1240,0,0
350,-216,0,0,0,0,0,0,0,0,0,-1,1574,1240,0,0
357,-216,0,0,0,0,0,0,0,0,0,-1,1581,1240,0,0
364,-216,0,0,0,0,0,0,0,0,0,-1,1588,1240,0,0
371,-216,0,0,0,0,0,0,0,0,0,-1,1595,1240,0,0
378,-216,0,0,0,0,0,0,0,0,0,-1,1602,1240,0,0
385,-216,0,0,0,0,0,0,0,0,0,-1,1609,1240,0,0
392,-216,0,0,0,0,0,0,0,0,0,-1,1616,1240,0,0
399,-216,0,0,0,0,0,0,0,0,0,-1,1623,1240,0,0
406,-216,0,0,0,0,0,0,0,0,0,-1,1630,1240,0,0
413,-216,0,0,0,0,0,0,0,0,0,-1,1637,1240,0,0
420,-216,0,0,0,0,0,0,0,0,0,-1,1644,1240,0,0
427,-216,0,0,0,0,0,0,0,0,0,-1,1651,1240,0,0
434,-216,0,0,0,0,0,0,0,0,0,-1,1658,1240,0,0
441,-216,0,0,0,0,0,0,0,0,0,-1,1665,1240,0,0
448,-216,0,0,0,0,0,0,0,0,0,-1,1672,1240,0,0
455,-216,0,0,0,0,0,0,0,0,0,-1,1679,1240,0,0
462,-216,0,0,0,0,0,0,0,0,0,-1,1686,1240,0,0
469,-216,0,0,0,0,0,0,0,0,0,-1,1693,1240,0,0
476,-216,0,0,0,0,0,0,0,0,0,-1,1700,1240,0,0
483,-216,0,0,0,0,0,0,0,0,0,-1,1707,1240,0,0
490,-216,0,0,0,0,0,0,0,0,0,-1,1714,1240,0,0
497,-216,0,0,0,0,0,0,0,0,0,-1,1721,1240,0,0
504,-216,0,0,0,0,0,0,0,0,0,-1,1728,1240,0,0
511,-216,0,0,0,0,0,0,0,0,0,-1,1735,1240,0,0
518,-216,0,0,0,0,0,0,0,0,0,-1,1742,1240,0,0
525,-216,0,0,0,0,0,0,0,0,0,-1,1749,1240,0,0
532,-216,0,0,0,0,0,0,0,0,0,-1,1756,1240,0,0
539,-216,0,0,0,0,0,0,0,0,0,-1,1763,1240,0,0
546,-216,0,0,0,0,0,0,0,0,0,-1,1770,1240,0,0
553,-216,0,0,0,0,0,0,0,0,0,-1,1777,1240,0,0
560,-216,0,0,0,0,0,0,0,0,0,-1,1784,1240,0,0
567,-216,0,0,0,0,0,0,0,0,0,-1,1791,1240,0,0
574,-216,0,0,0,0,0,0,0,0,0,-1,1798,1240,0,0
581,-216,0,0,0,0,0,0,0,0,0,-1,1805,1240,0,0
588,-216,0,0,0,0,0,0,0,0,0,-1,1812,1240,0,0
595,-216,0,0,0,0,0,0,0,0,0,-1,1819,1240,0,0
602,-216,0,0,0,0,0,0,0,0,0,-1,1826,1240,0,0
609,-216,0,0,0,0,0,0,0,0,0,-1,1833,1240,0,0
616,-216,0,0,0,0,0,0,0,0,0,-1,1840,1240,0,0
623,-216,52.7688,2.63525,-2.42863e-05,0.00173054,-0.000445115,0.00183699,-0.000130733,-1.33606,0.00127048,0.0369359,1847,1240,52.7688,-2.63526
630,-216,52.776,2.48938,0.000905836,0.00196445,-0.000920248,0.00249676,0.00037353,-1.04638,0.00155502,0.0357463,1854,1240,52.776,-2.48935
637,-216,52.8342,2.56763,0.00192963,0.00204878,-0.00131156,0.00330212,0.000676286,-0.808095,0.00201419,0.0313773,1861,1240,52.8342,-2.56761
644,-216,52.8464,2.62244,0.00291289,0.0018779,-0.00160602,0.00408273,0.000708063,-0.629541,0.00251919,0.0250224,1868,1240,52.8464,-2.6224
651,-216,52.8533,2.5968,0.00319524,0.00148223,-0.00186694,0.00439277,0.000284696,-0.570334,0.00283838,0.0217332,1875,1240,52.8533,-2.59682
658,-216,52.9144,2.64575,0.00323437,0.000804423,-0.0018696,0.0042491,-0.000210301,-0.49726,0.00290537,0.031414,1882,1240,52.9144,-2.64579
665,-216,53.1832,2.88232,0.00314705,0.000156283,-0.0017327,0.00394042,-0.000637089,-0.429391,0.00286304,0.0441331,1889,1240,53.1833,-2.88234
672,-216,53.4419,3.01245,0,0,0,0,0,0,0,-1,1896,1240,53.4419,-3.01249
679,-216,47.3159,3.82703,0,0,0,0,0,0,0,-1,1903,1240,47.316,-3.82708
686,-216,21.5172,6.19458,0,0,0,0,0,0,0,-1,1910,1240,21.5172,-6.19453
693,-216,42.1675,9.96106,0,0,0,0,0,0,0,-1,1917,1240,42.1675,-9.96102
700,-216,41.7992,9.63123,0.00198193,-0.00135318,-0.000804514,0.00216586,-0.00153711,-0.224755,0.00214815,0.0400383,1924,1240,41.7993,-9.63119
707,-216,41.7687,9.11255,0.00172001,-0.00158725,-0.000703827,0.00186356,-0.0017308,-0.2012,0.00207568,0.0346005,1931,1240,41.7687,-9.11249
714,-216,41.7976,8.61133,0.00113167,-0.00162662,-0.00035627,0.00117695,-0.0016719,-0.1264,0.00165303,0.014879,1938,1240,41.7976,-8.6113
721,-216,41.8132,8.15417,0.000492891,-0.00121691,0.000132756,0.000503137,-0.00122716,0.077029,0.00102772,0.0150855,1945,1240,41.8133,-8.15415
728,-216,41.845,7.66589,0.000477299,-0.000961206,0.000861294,0.000880166,-0.00136407,0.437513,0.00130571,0.0145009,1952,1240,41.845,-7.66587
735,-216,41.8691,7.20569,0.000824586,-0.000738375,0.00155252,0.00178121,-0.001695,0.552231,0.0020072,0.0149502,1959,1240,41.8691,-7.20571
742,-216,41.7887,6.74243,0.00158197,-0.000433741,0.00224054,0.0030309,-0.00188267,0.574044,0.00286256,0.0159986,1966,1240,41.7887,-6.74243
749,-216,41.7375,6.2428,0.002891,-0.000168134,0.00287435,0.00461742,-0.00189456,0.540883,0.0038677,0.0118897,1973,1240,41.7375,-6.24285
756,-216,41.7014,5.76208,0.00502101,0.000106309,0.00334925,0.0067177,-0.00159038,0.468904,0.00509206,0.0110955,1980,1240,41.7014,-5.76204
763,-216,41.6765,5.36682,0.00830033,0.000219844,0.00371939,0.00975167,-0.00123149,0.372036,0.00694808,0.0198209,1987,1240,41.6765,-5.3668
770,-216,41.8236,4.99902,0.0130312,0.000159606,0.0040202,0.0141837,-0.000992842,0.279178,0.0098035,0.0433122,1994,1240,41.8236,-4.99899
777,-216,42.0294,4.62134,0,0,0,0,0,0,0,-1,2001,1240,42.0294,-4.62133
784,-216,51.8208,-0.443726,0,0,0,0,0,0,0,-1,2008,1240,51.8208,0.443779
791,-216,51.0972,1.54187,0,0,0,0,0,0,0,-1,2015,1240,51.0971,-1.54183
798,-216,0,0,0,0,0,0,0,0,0,-1,2022,1240,0,0
805,-216,0,0,0,0,0,0,0,0,0,-1,2029,1240,0,0
812,-216,0,0,0,0,0,0,0,0,0,-1,2036,1240,0,0
-700,-223,0,0,0,0,0,0,0,0,0,-1,524,1247,0,0
-693,-223,0,0,0,0,0,0,0,0,0,-1,531,1247,0,0
-686,-223,0,0,0,0,0,0,0,0,0,-1,538,1247,0,0
-679,-223,0,0,0,0,0,0,0,0,0,-1,545,1247,0,0
-672,-223,-27.2377,-0.35791,0,0,0,0,0,0,0,-1,552,1247,-27.2377,0.357877
-665,-223,-31.5272,-3.77661,0,0,0,0,0,0,0,-1,559,1247,-31.5272,3.77664
-658,-223,-31.9376,-3.99658,0,0,0,0,0,0,0,-1,566,1247,-31.9376,3.9966
-651,-223,-32.3065,-4.19067,0,0,0,0,0,0,0,-1,573,1247,-32.3065,4.1907
-644,-223,-29.5685,0.265259,0,0,0,0,0,0,0,-1,580,1247,-29.5685,-0.265217
-637,-223,-27.1517,1.96509,0,0,0,0,0,0,0,-1,587,1247,-27.1516,-1.96508
-630,-223,-26.8702,2.5614,0,0,0,0,0,0,0,-1,594,1247,-26.8703,-2.56135
-623,-223,-27.036,3.28284,0.006083,-0.000772433,-0.000170571,0.00608724,-0.000776675,-0.0248607,0.00434028,0.0254258,601,1247,-27.036,-3.2828
-616,-223,-27.0184,3.70276,0.0039219,0.000179551,-0.00103307,0.00418814,-8.6687e-05,-0.252226,0.00282143,0.0158307,608,1247,-27.0184,-3.70277
-609,-223,-27.0277,4.21204,0.00268991,0.000452434,-0.00147867,0.00342537,-0.00028302,-0.461547,0.00238352,0.0115733,615,1247,-27.0277,-4.21208
-602,-223,-27.0452,4.72034,0.00192425,7.20113e-05,-0.00136119,0.0026445,-0.000648242,-0.486682,0.00201416,0.0138127,622,1247,-27.0452,-4.72029
-595,-223,-27.0374,5.27319,0.00151951,-0.000321778,-0.00124188,0.00214478,-0.000947044,-0.466432,0.00182917,0.0204024,629,1247,-27.0374,-5.27314
-588,-223,-27.0787,5.81848,0.00167353,-0.000910158,-0.00132488,0.00223214,-0.00146876,-0.39901,0.00215181,0.0242735,636,1247,-27.0787,-5.81853
-581,-223,-27.1574,6.33325,0.00222329,-0.00146653,-0.00162342,0.00283586,-0.00207909,-0.360812,0.00284884,0.0224897,643,1247,-27.1574,-6.3332
-574,-223,-27.1409,6.82483,0.00269035,-0.00227629,-0.00184613,0.0033014,-0.00288733,-0.319636,0.00357573,0.0285858,650,1247,-27.1409,-6.82478
-567,-223,-27.0384,7.46484,0.00279466,-0.00272242,-0.00163545,0.00324303,-0.00317078,-0.26758,0.00370309,0.043034,657,1247,-27.0384,-7.46479
-560,-223,-27.1738,8.08447,0,0,0,0,0,0,0,-1,664,1247,-27.1738,-8.08444
-553,-223,-11.4025,4.14722,0,0,0,0,0,0,0,-1,671,1247,-11.4025,-4.14719
-546,-223,-26.9034,-0.148682,0,0,0,0,0,0,0,-1,678,1247,-26.9034,0.14867
-539,-223,-36.7405,0.35376,0,0,0,0,0,0,0,-1,685,1247,-36.7405,-0.353807
-532,-223,-38.8525,0.860107,0,0,0,0,0,0,0,-1,692,1247,-38.8525,-0.860092
-525,-223,-39.0391,0.88208,0,0,0,0,0,0,0,-1,699,1247,-39.0391,-0.882128
-518,-223,-39.1877,0.880005,0,0,0,0,0,0,0,-1,706,1247,-39.1877,-0.879996
-511,-223,-39.1989,0.91333,-0.00413922,0.000148518,0.00742625,0.00573416,-0.00972486,0.925922,0.00902386,0.037672,713,1247,-39.1989,-0.91331
-504,-223,-39.1606,0.973511,-0.00486122,0.0030239,0.0115497,0.0112854,-0.0131227,0.949875,0.0141053,0.0402211,720,1247,-39.1606,-0.973535
-497,-223,0,0,0,0,0,0,0,0,0,-1,727,1247,0,0
-490,-223,0,0,0,0,0,0,0,0,0,-1,734,1247,0,0
-483,-223,0,0,0,0,0,0,0,0,0,-1,741,1247,0,0
-476,-223,0,0,0,0,0,0,0,0,0,-1,748,1247,0,0
-469,-223,0,0,0,0,0,0,0,0,0,-1,755,1247,0,0
-462,-223,0,0,0,0,0,0,0,0,0,-1,762,1247,0,0
-455,-223,0,0,0,0,0,0,0,0,0,-1,769,1247,0,0
-448,-223,0,0,0,0,0,0,0,0,0,-1,776,1247,0,0
-441,-223,0,0,0,0,0,0,0,0,0,-1,783,1247,0,0
-434,-223,0,0,0,0,0,0,0,0,0,-1,790,1247,0,0
-427,-223,0,0,0,0,0,0,0,0,0,-1,797,1247,0,0
-420,-223,0,0,0,0,0,0,0,0,0,-1,804,1247,0,0
-413,-223,0,0,0,0,0,0,0,0,0,-1,811,1247,0,0
-406,-223,0,0,0,0,0,0,0,0,0,-1,818,1247,0,0
-399,-223,0,0,0,0,0,0,0,0,0,-1,825,1247,0,0
-392,-223,0,0,0,0,0,0,0,0,0,-1,832,1247,0,0
-385,-223,0,0,0,0,0,0,0,0,0,-1,839,1247,0,0
-378,-223,0,0,0,0,0,0,0,0,0,-1,846,1247,0,0
-371,-223,0,0,0,0,0,0,0,0,0,-1,853,1247,0,0
-364,-223,0,0,0,0,0,0,0,0,0,-1,860,1247,0,0
-357,-223,0,0,0,0,0,0,0,0,0,-1,867,1247,0,0
-350,-223,0,0,0,0,0,0,0,0,0,-1,874,1247,0,0
-343,-223,0,0,0,0,0,0,0,0,0,-1,881,1247,0,0
-336,-223,0,0,0,0,0,0,0,0,0,-1,888,1247,0,0
-329,-223,0,0,0,0,0,0,0,0,0,-1,895,1247,0,0
-322,-223,0,0,0,0,0,0,0,0,0,-1,902,1247,0,0
-315,-223,0,0,0,0,0,0,0,0,0,-1,909,1247,0,0
-308,-223,0,0,0,0,0,0,0,0,0,-1,916,1247,0,0
-301,-223,0,0,0,0,0,0,0,0,0,-1,923,1247,0,0
-294,-223,0,0,0,0,0,0,0,0,0,-1,930,1247,0,0
-287,-223,0,0,0,0,0,0,0,0,0,-1,937,1247,0,0
-280,-223,0,0,0,0,0,0,0,0,0,-1,944,1247,0,0
-273,-223,0,0,0,0,0,0,0,0,0,-1,951,1247,0,0
-266,-223,0,0,0,0,0,0,0,0,0,-1,958,1247,0,0
-259,-223,0,0,0,0,0,0,0,0,0,-1,965,1247,0,0
-252,-223,0,0,0,0,0,0,0,0,0,-1,972,1247,0,0
-245,-223,0,0,0,0,0,0,0,0,0,-1,979,1247,0,0
-238,-223,0,0,0,0,0,0,0,0,0,-1,986,1247,0,0
-231,-223,0,0,0,0,0,0,0,0,0,-1,993,1247,0,0
-224,-223,0,0,0,0,0,0,0,0,0,-1,1000,1247,0,0
-217,-223,0,0,0,0,0,0,0,0,0,-1,1007,1247,0,0
-210,-223,0,0,0,0,0,0,0,0,0,-1,1014,1247,0,0
-203,-223,0,0,0,0,0,0,0,0,0,-1,1021,1247,0,0
-196,-223,0,0,0,0,0,0,0,0,0,-1,1028,1247,0,0
-189,-223,0,0,0,0,0,0,0,0,0,-1,1035,1247,0,0
-182,-223,0,0,0,0,0,0,0,0,0,-1,1042,1247,0,0
-175,-223,0,0,0,0,0,0,0,0,0,-1,1049,1247,0,0
-168,-223,0,0,0,0,0,0,0,0,0,-1,1056,1247,0,0
-161,-223,0,0,0,0,0,0,0,0,0,-1,1063,1247,0,0
-154,-223,0,0,0,0,0,0,0,0,0,-1,1070,1247,0,0
-147,-223,0,0,0,0,0,0,0,0,0,-1,1077,1247,0,0
-140,-223,0,0,0,0,0,0,0,0,0,-1,1084,1247,0,0
-133,-223,0,0,0,0,0,0,0,0,0,-1,1091,1247,0,0
-126,-223,0,0,0,0,0,0,0,0,0,-1,1098,1247,0,0
-119,-223,0,0,0,0,0,0,0,0,0,-1,1105,1247,0,0
-112,-223,0,0,0,0,0,0,0,0,0,-1,1112,1247,0,0
-105,-223,0,0,0,0,0,0,0,0,0,-1,1119,1247,0,0
-98,-223,0,0,0,0,0,0,0,0,0,-1,1126,1247,0,0
-91,-223,0,0,0,0,0,0,0,0,0,-1,1133,1247,0,0
-84,-223,0,0,0,0,0,0,0,0,0,-1,1140,1247,0,0
-77,-223,0,0,0,0,0,0,0,0,0,-1,1147,1247,0,0
-70,-223,0,0,0,0,0,0,0,0,0,-1,1154,1247,0,0
-63,-223,0,0,0,0,0,0,0,0,0,-1,1161,1247,0,0
-56,-223,0,0,0,0,0,0,0,0,0,-1,1168,1247,0,0
-49,-223,0,0,0,0,0,0,0,0,0,-1,1175,1247,0,0
-42,-223,0,0,0,0,0,0,0,0,0,-1,1182,1247,0,0
-35,-223,0,0,0,0,0,0,0,0,0,-1,1189,1247,0,0
-28,-223,0,0,0,0,0,0,0,0,0,-1,1196,1247,0,0
-21,-223,0,0,0,0,0,0,0,0,0,-1,1203,1247,0,0
-14,-223,0,0,0,0,0,0,0,0,0,-1,1210,1247,0,0
-7,-223,0,0,0,0,0,0,0,0,0,-1,1217,1247,0,0
0,-223,0,0,0,0,0,0,0,0,0,-1,1224,1247,0,0
7,-223,0,0,0,0,0,0,0,0,0,-1,1231,1247,0,0
14,-223,0,0,0,0,0,0,0,0,0,-1,1238,1247,0,0
21,-223,0,0,0,0,0,0,0,0,0,-1,1245,1247,0,0
28,-223,0,0,0,0,0,0,0,0,0,-1,1252,1247,0,0
35,-223,0,0,0,0,0,0,0,0,0,-1,1259,1247,0,0
42,-223,0,0,0,0,0,0,0,0,0,-1,1266,1247,0,0
49,-223,0,0,0,0,0,0,0,0,0,-1,1273,1247,0,0
56,-223,0,0,0,0,0,0,0,0,0,-1,1280,1247,0,0
63,-223,0,0,0,0,0,0,0,0,0,-1,1287,1247,0,0
70,-223,0,0,0,0,0,0,0,0,0,-1,1294,1247,0,0
77,-223,0,0,0,0,0,0,0,0,0,-1,1301,1247,0,0
84,-223,0,0,0,0,0,0,0,0,0,-1,1308,1247,0,0
91,-223,0,0,0,0,0,0,0,0,0,-1,1315,1247,0,0
98,-223,0,0,0,0,0,0,0,0,0,-1,1322,1247,0,0
105,-223,0,0,0,0,0,0,0,0,0,-1,1329,1247,0,0
112,-223,0,0,0,0,0,0,0,0,0,-1,1336,1247,0,0
119,-223,0,0,0,0,0,0,0,0,0,-1,1343,1247,0,0
126,-223,0,0,0,0,0,0,0,0,0,-1,1350,1247,0,0
133,-223,0,0,0,0,0,0,0,0,0,-1,1357,1247,0,0
140,-223,0,0,0,0,0,0,0,0,0,-1,1364,1247,0,0
147,-223,0,0,0,0,0,0,0,0,0,-1,1371,1247,0,0
154,-223,0,0,0,0,0,0,0,0,0,-1,1378,1247,0,0
161,-223,0,0,0,0,0,0,0,0,0,-1,1385,1247,0,0
168,-223,0,0,0,0,0,0,0,0,0,-1,1392,1247,0,0
175,-223,0,0,0,0,0,0,0,0,0,-1,1399,1247,0,0
182,-223,0,0,0,0,0,0,0,0,0,-1,1406,1247,0,0
189,-223,0,0,0,0,0,0,0,0,0,-1,1413,1247,0,0
196,-223,0,0,0,0,0,0,0,0,0,-1,1420,1247,0,0
203,-223,0,0,0,0,0,0,0,0,0,-1,1427,1247,0,0
210,-223,0,0,0,0,0,0,0,0,0,-1,1434,1247,0,0
217,-223,0,0,0,0,0,0,0,0,0,-1,1441,1247,0,0
224,-223,0,0,0,0,0,0,0,0,0,-1,1448,1247,0,0
231,-223,0,0,0,0,0,0,0,0,0,-1,1455,1247,0,0
238,-223,0,0,0,0,0,0,0,0,0,-1,1462,1247,0,0
245,-223,0,0,0,0,0,0,0,0,0,-1,1469,1247,0,0
252,-223,0,0,0,0,0,0,0,0,0,-1,1476,1247,0,0
259,-223,0,0,0,0,0,0,0,0,0,-1,1483,1247,0,0
266,-223,0,0,0,0,0,0,0,0,0,-1,1490,1247,0,0
273,-223,0,0,0,0,0,0,0,0,0,-1,1497,1247,0,0
280,-223,0,0,0,0,0,0,0,0,0,-1,1504,1247,0,0
287,-223,0,0,0,0,0,0,0,0,0,-1,1511,1247,0,0
294,-223,0,0,0,0,0,0,0,0,0,-1,1518,1247,0,0
301,-223,0,0,0,0,0,0,0,0,0,-1,1525,1247,0,0
308,-223,0,0,0,0,0,0,0,0,0,-1,1532,1247,0,0
315,-223,0,0,0,0,0,0,0,0,0,-1,1539,1247,0,0
322,-223,0,0,0,0,0,0,0,0,0,-1,1546,1247,0,0
329,-223,0,0,0,0,0,0,0,0,0,-1,1553,1247,0,0
336,-223,0,0,0,0,0,0,0,0,0,-1,1560,1247,0,0
343,-223,0,0,0,0,0,0,0,0,0,-1,1567,1247,0,0
350,-223,0,0,0,0,0,0,0,0,0,-1,1574,1247,0,0
357,-223,0,0,0,0,0,0,0,0,0,-1,1581,1247,0,0
364,-223,0,0,0,0,0,0,0,0,0,-1,1588,1247,0,0
371,-223,0,0,0,0,0,0,0,0,0,-1,1595,1247,0,0
378,-223,0,0,0,0,0,0,0,0,0,-1,1602,1247,0,0
385,-223,0,0,0,0,0,0,0,0,0,-1,1609,1247,0,0
392,-223,0,0,0,0,0,0,0,0,0,-1,1616,1247,0,0
399,-223,0,0,0,0,0,0,0,0,0,-1,1623,1247,0,0
406,-223,0,0,0,0,0,0,0,0,0,-1,1630,1247,0,0
413,-223,0,0,0,0,0,0,0,0,0,-1,1637,1247,0,0
420,-223,0,0,0,0,0,0,0,0,0,-1,1644,1247,0,0
427,-223,0,0,0,0,0,0,0,0,0,-1,1651,1247,0,0
434,-223,0,0,0,0,0,0,0,0,0,-1,1658,1247,0,0
441,-223,0,0,0,0,0,0,0,0,0,-1,1665,1247,0,0
448,-223,0,0,0,0,0,0,0,0,0,-1,1672,1247,0,0
455,-223,0,0,0,0,0,0,0,0,0,-1,1679,1247,0,0
462,-223,0,0,0,0,0,0,0,0,0,-1,1686,1247,0,0
469,-223,0,0,0,0,0,0,0,0,0,-1,1693,1247,0,0
476,-223,0,0,0,0,0,0,0,0,0,-1,1700,1247,0,0
483,-223,0,0,0,0,0,0,0,0,0,-1,1707,1247,0,0
490,-223,0,0,0,0,0,0,0,0,0,-1,1714,1247,0,0
497,-223,0,0,0,0,0,0,0,0,0,-1,1721,1247,0,0
504,-223,0,0,0,0,0,0,0,0,0,-1,1728,1247,0,0
511,-223,0,0,0,0,0,0,0,0,0,-1,1735,1247,0,0
518,-223,0,0,0,0,0,0,0,0,0,-1,1742,1247,0,0
525,-223,0,0,0,0,0,0,0,0,0,-1,1749,1247,0,0
532,-223,0,0,0,0,0,0,0,0,0,-1,1756,1247,0,0
539,-223,0,0,0,0,0,0,0,0,0,-1,1763,1247,0,0
546,-223,0,0,0,0,0,0,0,0,0,-1,1770,1247,0,0
553,-223,0,0,0,0,0,0,0,0,0,-1,1777,1247,0,0
560,-223,0,0,0,0,0,0,0,0,0,-1,1784,1247,0,0
567,-223,0,0,0,0,0,0,0,0,0,-1,1791,1247,0,0
574,-223,0,0,0,0,0,0,0,0,0,-1,1798,1247,0,0
581,-223,0,0,0,0,0,0,0,0,0,-1,1805,1247,0,0
588,-223,0,0,0,0,0,0,0,0,0,-1,1812,1247,0,0
595,-223,0,0,0,0,0,0,0,0,0,-1,1819,1247,0,0
602,-223,0,0,0,0,0,0,0,0,0,-1,1826,1247,0,0
609,-223,0,0,0,0,0,0,0,0,0,-1,1833,1247,0,0
616,-223,0,0,0,0,0,0,0,0,0,-1,1840,1247,0,0
623,-223,52.6622,2.96643,0.000120555,0.0024008,-0.000718577,0.00260835,-8.69995e-05,-1.28961,0.00176861,0.0380608,1847,1247,52.6622,-2.96649
630,-223,52.7737,2.66699,0.00090432,0.00271083,-0.00114043,0.00326237,0.000352774,-1.12033,0.00206738,0.0366162,1854,1247,52.7737,-2.66705
637,-223,52.8062,2.65991,0.0018643,0.00278378,-0.00145038,0.00384554,0.000802536,-0.938878,0.00234246,0.0291306,1861,1247,52.8062,-2.65996
644,-223,52.8109,2.61755,0.0027177,0.00252045,-0.00165804,0.00428005,0.000958102,-0.755692,0.00259367,0.0226655,1868,1247,52.8109,-2.61759
651,-223,52.8185,2.55273,0.00284644,0.00198679,-0.00184425,0.00431029,0.000522943,-0.67091,0.00271604,0.0294547,1875,1247,52.8184,-2.55274
658,-223,52.9393,2.65027,0,0,0,0,0,0,0,-1,1882,1247,52.9393,-2.65029
665,-223,52.9656,3.09338,0,0,0,0,0,0,0,-1,1889,1247,52.9656,-3.09336
672,-223,53.1495,3.479,0,0,0,0,0,0,0,-1,1896,1247,53.1495,-3.47897
679,-223,43.2783,2.46973,0,0,0,0,0,0,0,-1,1903,1247,43.2784,-2.46978
686,-223,40.7926,10.0316,0,0,0,0,0,0,0,-1,1910,1247,40.7926,-10.0316
693,-223,41.8568,9.854,0,0,0,0,0,0,0,-1,1917,1247,41.8568,-9.85396
700,-223,41.494,9.51489,0.00202701,-0.00140775,-0.000709229,0.0021677,-0.00154843,-0.195819,0.00215541,0.0284083,1924,1247,41.494,-9.5149
707,-223,41.3378,9.07361,0.00164152,-0.00163206,-0.000585125,0.00174296,-0.0017335,-0.171663,0.00200714,0.0229471,1931,1247,41.3377,-9.07355
714,-223,41.323,8.62952,0.00094089,-0.00157727,-0.000187837,0.000954825,-0.0015912,-0.0740469,0.00148518,0.0124261,1938,1247,41.3231,-8.62955
721,-223,41.3389,8.15002,0.000319875,-0.00113134,0.000363596,0.000405876,-0.00121734,0.23226,0.000975419,0.0162275,1945,1247,41.3389,-8.15003
728,-223,41.3474,7.63916,0.000278181,-0.000909773,0.00117559,0.00100133,-0.00163292,0.551475,0.00153539,0.020046,1952,1247,41.3474,-7.6392
735,-223,41.3333,7.21863,0.000597298,-0.000758844,0.00197184,0.00200439,-0.00216594,0.619793,0.00240835,0.018787,1959,1247,41.3332,-7.21858
742,-223,41.2717,6.78479,0.00133864,-0.000599364,0.00274857,0.00328402,-0.00254474,0.615927,0.00337425,0.0165287,1966,1247,41.2718,-6.78483
749,-223,41.241,6.24353,0.00265648,-0.000494632,0.00346898,0.00489093,-0.00272909,0.572234,0.00445805,0.0128907,1973,1247,41.2409,-6.24354
756,-223,41.1921,5.75415,0.00485397,-0.000418527,0.00403752,0.00703968,-0.00260424,0.496179,0.00576088,0.0143406,1980,1247,41.1921,-5.75419
763,-223,41.1849,5.35852,0.00829666,-0.00056804,0.00452559,0.0101989,-0.00247025,0.397903,0.00775494,0.0201724,1987,1247,41.1849,-5.3585
770,-223,41.4471,4.88159,0.0133689,-0.000936008,0.00494731,0.0149132,-0.0024803,0.302564,0.0108637,0.0464378,1994,1247,41.4472,-4.88155
777,-223,41.6969,4.37891,0,0,0,0,0,0,0,-1,2001,1247,41.6969,-4.37886
784,-223,54.1208,-0.293457,0,0,0,0,0,0,0,-1,2008,1247,54.1208,0.293477
791,-223,34.7136,2.92554,0,0,0,0,0,0,0,-1,2015,1247,34.7137,-2.92555
798,-223,0,0,0,0,0,0,0,0,0,-1,2022,1247,0,0
805,-223,0,0,0,0,0,0,0,0,0,-1,2029,1247,0,0
812,-223,0,0,0,0,0,0,0,0,0,-1,2036,1247,0,0
-700,-230,0,0,0,0,0,0,0,0,0,-1,524,1254,0,0
-693,-230,0,0,0,0,0,0,0,0,0,-1,531,1254,0,0
-686,-230,0,0,0,0,0,0,0,0,0,-1,538,1254,0,0
-679,-230,0,0,0,0,0,0,0,0,0,-1,545,1254,0,0
-672,-230,-31.8405,-3.9928,0,0,0,0,0,0,0,-1,552,1254,-31.8405,3.99276
-665,-230,-32.165,-4.05054,0,0,0,0,0,0,0,-1,559,1254,-32.165,4.05051
-658,-230,-32.5719,-4.38831,0,0,0,0,0,0,0,-1,566,1254,-32.5719,4.38827
-651,-230,-32.9568,-4.6825,0,0,0,0,0,0,0,-1,573,1254,-32.9568,4.68249
-644,-230,-33.488,0.549927,0,0,0,0,0,0,0,-1,580,1254,-33.488,-0.549968
-637,-230,-32.9183,1.94067,0,0,0,0,0,0,0,-1,587,1254,-32.9183,-1.94071
-630,-230,-26.5916,2.59985,0,0,0,0,0,0,0,-1,594,1254,-26.5916,-2.59984
-623,-230,-26.5082,3.19666,0.00840154,-0.000214024,-0.000559374,0.00843771,-0.00025019,-0.0645647,0.00571036,0.0296245,601,1254,-26.5082,-3.1967
-616,-230,-26.4548,3.69958,0.0058654,0.000620308,-0.00114003,0.00610248,0.000383236,-0.20503,0.00394678,0.0165423,608,1254,-26.4549,-3.69958
-609,-230,-26.4608,4.22559,0.00416374,0.00078678,-0.00133744,0.00462926,0.000321263,-0.334951,0.00298485,0.0122596,615,1254,-26.4608,-4.22563
-602,-230,-26.4908,4.75391,0.00301019,0.000357994,-0.00109126,0.00340147,-3.32884e-05,-0.344279,0.00227882,0.011467,622,1254,-26.4908,-4.75392
-595,-230,-26.5282,5.34204,0.00231795,-0.000128438,-0.00087588,0.00259921,-0.000409693,-0.310711,0.00188428,0.0183276,629,1254,-26.5282,-5.34205
-588,-230,-26.5328,5.92993,0.00223342,-0.00075714,-0.000825663,0.00244623,-0.000969953,-0.252258,0.0020328,0.0260549,636,1254,-26.5328,-5.92995
-581,-230,-26.5623,6.45032,0.00263765,-0.00132461,-0.00100764,0.00287918,-0.00156614,-0.235259,0.00260356,0.023076,643,1254,-26.5622,-6.45029
-574,-230,-26.5372,6.88696,0.00308785,-0.00208429,-0.00122107,0.00336163,-0.00235808,-0.22057,0.00331917,0.0235726,650,1254,-26.5372,-6.88701
-567,-230,-26.4409,7.37952,0.0031408,-0.00243099,-0.00104053,0.00332877,-0.00261896,-0.178727,0.00344207,0.039977,657,1254,-26.4409,-7.37956
-560,-230,-26.4587,7.82043,0,0,0,0,0,0,0,-1,664,1254,-26.4587,-7.82048
-553,-230,-13.1939,4.9718,0,0,0,0,0,0,0,-1,671,1254,-13.1939,-4.97175
-546,-230,-15.23,0.453979,0,0,0,0,0,0,0,-1,678,1254,-15.23,-0.453996
-539,-230,-25.8232,0.512817,0,0,0,0,0,0,0,-1,685,1254,-25.8232,-0.512878
-532,-230,-21.1644,1.52966,0,0,0,0,0,0,0,-1,692,1254,-21.1644,-1.52969
-525,-230,-29.4775,0.731445,0,0,0,0,0,0,0,-1,699,1254,-29.4775,-0.731432
-518,-230,-39.1091,0.880615,0,0,0,0,0,0,0,-1,706,1254,-39.1091,-0.880671
-511,-230,-39.175,0.837646,-0.00449725,0.00030599,0.00834373,0.00658685,-0.0107781,0.925528,0.0101225,0.0398625,713,1254,-39.1751,-0.837597
-504,-230,-39.1686,0.921021,-0.00602166,0.00266855,0.0112541,0.0103872,-0.0137403,0.969628,0.0139748,0.0380944,720,1254,-39.1687,-0.921072
-497,-230,0,0,0,0,0,0,0,0,0,-1,727,1254,0,0
-490,-230,0,0,0,0,0,0,0,0,0,-1,734,1254,0,0
-483,-230,0,0,0,0,0,0,0,0,0,-1,741,1254,0,0
-476,-230,0,0,0,0,0,0,0,0,0,-1,748,1254,0,0
-469,-230,0,0,0,0,0,0,0,0,0,-1,755,1254,0,0
-462,-230,0,0,0,0,0,0,0,0,0,-1,762,1254,0,0
-455,-230,0,0,0,0,0,0,0,0,0,-1,769,1254,0,0
-448,-230,0,0,0,0,0,0,0,0,0,-1,776,1254,0,0
-441,-230,0,0,0,0,0,0,0,0,0,-1,783,1254,0,0
-434,-230,0,0,0,0,0,0,0,0,0,-1,790,1254,0,0
-427,-230,0,0,0,0,0,0,0,0,0,-1,797,1254,0,0
-420,-230,0,0,0,0,0,0,0,0,0,-1,804,1254,0,0
-413,-230,0,0,0,0,0,0,0,0,0,-1,811,1254,0,0
-406,-230,0,0,0,0,0,0,0,0,0,-1,818,1254,0,0
-399,-230,0,0,0,0,0,0,0,0,0,-1,825,1254,0,0
-392,-230,0,0,0,0,0,0,0,0,0,-1,832,1254,0,0
-385,-230,0,0,0,0,0,0,0,0,0,-1,839,1254,0,0
-378,-230,0,0,0,0,0,0,0,0,0,-1,846,1254,0,0
-371,-230,0,0,0,0,0,0,0,0,0,-1,853,1254,0,0
-364,-230,0,0,0,0,0,0,0,0,0,-1,860,1254,0,0
-357,-230,0,0,0,0,0,0,0,0,0,-1,867,1254,0,0
-350,-230,0,0,0,0,0,0,0,0,0,-1,874,1254,0,0
-343,-230,0,0,0,0,0,0,0,0,0,-1,881,1254,0,0
-336,-230,0,0,0,0,0,0,0,0,0,-1,888,1254,0,0
-329,-230,0,0,0,0,0,0,0,0,0,-1,895,1254,0,0
-322,-230,0,0,0,0,0,0,0,0,0,-1,902,1254,0,0
-315,-230,0,0,0,0,0,0,0,0,0,-1,909,1254,0,0
-308,-230,0,0,0,0,0,0,0,0,0,-1,916,1254,0,0
-301,-230,0,0,0,0,0,0,0,0,0,-1,923,1254,0,0
-294,-230,0,0,0,0,0,0,0,0,0,-1,930,1254,0,0
-287,-230,0,0,0,0,0,0,0,0,0,-1,937,1254,0,0
-280,-230,0,0,0,0,0,0,0,0,0,-1,944,1254,0,0
-273,-230,0,0,0,0,0,0,0,0,0,-1,951,1254,0,0
-266,-230,0,0,0,0,0,0,0,0,0,-1,958,1254,0,0
-259,-230,0,0,0,0,0,0,0,0,0,-1,965,1254,0,0
-252,-230,0,0,0,0,0,0,0,0,0,-1,972,1254,0,0
-245,-230,0,0,0,0,0,0,0,0,0,-1,979,1254,0,0
-238,-230,0,0,0,0,0,0,0,0,0,-1,986,1254,0,0
-231,-230,0,0,0,0,0,0,0,0,0,-1,993,1254,0,0
-224,-230,0,0,0,0,0,0,0,0,0,-1,1000,1254,0,0
-217,-230,0,0,0,0,0,0,0,0,0,-1,1007,1254,0,0
-210,-230,0,0,0,0,0,0,0,0,0,-1,1014,1254,0,0
-203,-230,0,0,0,0,0,0,0,0,0,-1,1021,1254,0,0
-196,-230,0,0,0,0,0,0,0,0,0,-1,1028,1254,0,0
-189,-230,0,0,0,0,0,0,0,0,0,-1,1035,1254,0,0
-182,-230,0,0,0,0,0,0,0,0,0,-1,1042,1254,0,0
-175,-230,0,0,0,0,0,0,0,0,0,-1,1049,1254,0,0
-168,-230,0,0,0,0,0,0,0,0,0,-1,1056,1254,0,0
-161,-230,0,0,0,0,0,0,0,0,0,-1,1063,1254,0,0
-154,-230,0,0,0,0,0,0,0,0,0,-1,1070,1254,0,0
-147,-230,0,0,0,0,0,0,0,0,0,-1,1077,1254,0,0
-140,-230,0,0,0,0,0,0,0,0,0,-1,1084,1254,0,0
-133,-230,0,0,0,0,0,0,0,0,0,-1,1091,1254,0,0
-126,-230,0,0,0,0,0,0,0,0,0,-1,1098,1254,0,0
-119,-230,0,0,0,0,0,0,0,0,0,-1,1105,1254,0,0
-112,-230,0,0,0,0,0,0,0,0,0,-1,1112,1254,0,0
-105,-230,0,0,0,0,0,0,0,0,0,-1,1119,1254,0,0
-98,-230,0,0,0,0,0,0,0,0,0,-1,1126,1254,0,0
-91,-230,0,0,0,0,0,0,0,0,0,-1,1133,1254,0,0
-84,-230,0,0,0,0,0,0,0,0,0,-1,1140,1254,0,0
-77,-230,0,0,0,0,0,0,0,0,0,-1,1147,1254,0,0
-70,-230,0,0,0,0,0,0,0,0,0,-1,1154,1254,0,0
-63,-230,0,0,0,0,0,0,0,0,0,-1,1161,1254,0,0
-56,-230,0,0,0,0,0,0,0,0,0,-1,1168,1254,0,0
-49,-230,0,0,0,0,0,0,0,0,0,-1,1175,1254,0,0
-42,-230,0,0,0,0,0,0,0,0,0,-1,1182,1254,0,0
-35,-230,0,0,0,0,0,0,0,0,0,-1,1189,1254,0,0
-28,-230,0,0,0,0,0,0,0,0,0,-1,1196,1254,0,0
-21,-230,0,0,0,0,0,0,0,0,0,-1,1203,1254,0,0
-14,-230,0,0,0,0,0,0,0,0,0,-1,1210,1254,0,0
-7,-230,0,0,0,0,0,0,0,0,0,-1,1217,1254,0,0
0,-230,0,0,0,0,0,0,0,0,0,-1,1224,1254,0,0
7,-230,0,0,0,0,0,0,0,0,0,-1,1231,1254,0,0
14,-230,0,0,0,0,0,0,0,0,0,-1,1238,1254,0,0
21,-230,0,0,0,0,0,0,0,0,0,-1,1245,1254,0,0
28,-230,0,0,0,0,0,0,0,0,0,-1,1252,1254,0,0
35,-230,0,0,0,0,0,0,0,0,0,-1,1259,1254,0,0
42,-230,0,0,0,0,0,0,0,0,0,-1,1266,1254,0,0
49,-230,0,0,0,0,0,0,0,0,0,-1,1273,1254,0,0
56,-230,0,0,0,0,0,0,0,0,0,-1,1280,1254,0,0
63,-230,0,0,0,0,0,0,0,0,0,-1,1287,1254,0,0
70,-230,0,0,0,0,0,0,0,0,0,-1,1294,1254,0,0
77,-230,0,0,0,0,0,0,0,0,0,-1,1301,1254,0,0
84,-230,0,0,0,0,0,0,0,0,0,-1,1308,1254,0,0
91,-230,0,0,0,0,0,0,0,0,0,-1,1315,1254,0,0
98,-230,0,0,0,0,0,0,0,0,0,-1,1322,1254,0,0
105,-230,0,0,0,0,0,0,0,0,0,-1,1329,1254,0,0
112,-230,0,0,0,0,0,0,0,0,0,-1,1336,1254,0,0
119,-230,0,0,0,0,0,0,0,0,0,-1,1343,1254,0,0
126,-230,0,0,0,0,0,0,0,0,0,-1,1350,1254,0,0
133,-230,0,0,0,0,0,0,0,0,0,-1,1357,1254,0,0
140,-230,0,0,0,0,0,0,0,0,0,-1,1364,1254,0,0
147,-230,0,0,0,0,0,0,0,0,0,-1,1371,1254,0,0
154,-230,0,0,0,0,0,0,0,0,0,-1,1378,1254,0,0
161,-230,0,0,0,0,0,0,0,0,0,-1,1385,1254,0,0
168,-230,0,0,0,0,0,0,0,0,0,-1,1392,1254,0,0
175,-230,0,0,0,0,0,0,0,0,0,-1,1399,1254,0,0
182,-230,0,0,0,0,0,0,0,0,0,-1,1406,1254,0,0
189,-230,0,0,0,0,0,0,0,0,0,-1,1413,1254,0,0
196,-230,0,0,0,0,0,0,0,0,0,-1,1420,1254,0,0
203,-230,0,0,0,0,0,0,0,0,0,-1,1427,1254,0,0
210,-230,0,0,0,0,0,0,0,0,0,-1,1434,1254,0,0
217,-230,0,0,0,0,0,0,0,0,0,-1,1441,1254,0,0
224,-230,0,0,0,0,0,0,0,0,0,-1,1448,1254,0,0
231,-230,0,0,0,0,0,0,0,0,0,-1,1455,1254,0,0
238,-230,0,0,0,0,0,0,0,0,0,-1,1462,1254,0,0
245,-230,0,0,0,0,0,0,0,0,0,-1,1469,1254,0,0
252,-230,0,0,0,0,0,0,0,0,0,-1,1476,1254,0,0
259,-230,0,0,0,0,0,0,0,0,0,-1,1483,1254,0,0
266,-230,0,0,0,0,0,0,0,0,0,-1,1490,1254,0,0
273,-230,0,0,0,0,0,0,0,0,0,-1,1497,1254,0,0
280,-230,0,0,0,0,0,0,0,0,0,-1,1504,1254,0,0
287,-230,0,0,0,0,0,0,0,0,0,-1,1511,1254,0,0
294,-230,0,0,0,0,0,0,0,0,0,-1,1518,1254,0,0
301,-230,0,0,0,0,0,0,0,0,0,-1,1525,1254,0,0
308,-230,0,0,0,0,0,0,0,0,0,-1,1532,1254,0,0
315,-230,0,0,0,0,0,0,0,0,0,-1,1539,1254,0,0
322,-230,0,0,0,0,0,0,0,0,0,-1,1546,1254,0,0
329,-230,0,0,0,0,0,0,0,0,0,-1,1553,1254,0,0
336,-230,0,0,0,0,0,0,0,0,0,-1,1560,1254,0,0
343,-230,0,0,0,0,0,0,0,0,0,-1,1567,1254,0,0
350,-230,0,0,0,0,0,0,0,0,0,-1,1574,1254,0,0
357,-230,0,0,0,0,0,0,0,0,0,-1,1581,1254,0,0
364,-230,0,0,0,0,0,0,0,0,0,-1,1588,1254,0,0
371,-230,0,0,0,0,0,0,0,0,0,-1,1595,1254,0,0
378,-230,0,0,0,0,0,0,0,0,0,-1,1602,1254,0,0
385,-230,0,0,0,0,0,0,0,0,0,-1,1609,1254,0,0
392,-230,0,0,0,0,0,0,0,0,0,-1,1616,1254,0,0
399,-230,0,0,0,0,0,0,0,0,0,-1,1623,1254,0,0
406,-230,0,0,0,0,0,0,0,0,0,-1,1630,1254,0,0
413,-230,0,0,0,0,0,0,0,0,0,-1,1637,1254,0,0
420,-230,0,0,0,0,0,0,0,0,0,-1,1644,1254,0,0
427,-230,0,0,0,0,0,0,0,0,0,-1,1651,1254,0,0
434,-230,0,0,0,0,0,0,0,0,0,-1,1658,1254,0,0
441,-230,0,0,0,0,0,0,0,0,0,-1,1665,1254,0,0
448,-230,0,0,0,0,0,0,0,0,0,-1,1672,1254,0,0
455,-230,0,0,0,0,0,0,0,0,0,-1,1679,1254,0,0
462,-230,0,0,0,0,0,0,0,0,0,-1,1686,1254,0,0
469,-230,0,0,0,0,0,0,0,0,0,-1,1693,1254,0,0
476,-230,0,0,0,0,0,0,0,0,0,-1,1700,1254,0,0
483,-230,0,0,0,0,0,0,0,0,0,-1,1707,1254,0,0
490,-230,0,0,0,0,0,0,0,0,0,-1,1714,1254,0,0
497,-230,0,0,0,0,0,0,0,0,0,-1,1721,1254,0,0
504,-230,0,0,0,0,0,0,0,0,0,-1,1728,1254,0,0
511,-230,0,0,0,0,0,0,0,0,0,-1,1735,1254,0,0
518,-230,0,0,0,0,0,0,0,0,0,-1,1742,1254,0,0
525,-230,0,0,0,0,0,0,0,0,0,-1,1749,1254,0,0
532,-230,0,0,0,0,0,0,0,0,0,-1,1756,1254,0,0
539,-230,0,0,0,0,0,0,0,0,0,-1,1763,1254,0,0
546,-230,0,0,0,0,0,0,0,0,0,-1,1770,1254,0,0
553,-230,0,0,0,0,0,0,0,0,0,-1,1777,1254,0,0
560,-230,0,0,0,0,0,0,0,0,0,-1,1784,1254,0,0
567,-230,0,0,0,0,0,0,0,0,0,-1,1791,1254,0,0
574,-230,0,0,0,0,0,0,0,0,0,-1,1798,1254,0,0
581,-230,0,0,0,0,0,0,0,0,0,-1,1805,1254,0,0
588,-230,0,0,0,0,0,0,0,0,0,-1,1812,1254,0,0
595,-230,0,0,0,0,0,0,0,0,0,-1,1819,1254,0,0
602,-230,0,0,0,0,0,0,0,0,0,-1,1826,1254,0,0
609,-230,0,0,0,0,0,0,0,0,0,-1,1833,1254,0,0
616,-230,52.8965,2.67773,-0.000240119,0.00251742,-0.000193694,0.00253096,-0.000253658,-1.50101,0.0017779,0.0364045,1840,1254,52.8965,-2.67777
623,-230,52.8684,2.79077,0.000163358,0.00340184,-0.000683749,0.00354028,2.49147e-05,-1.37102,0.00235193,0.0363536,1847,1254,52.8685,-2.79079
630,-230,52.851,2.69067,0.000844614,0.0038274,-0.00115282,0.00422101,0.000451001,-1.24177,0.00267637,0.0318399,1854,1254,52.851,-2.69072
637,-230,52.8014,2.61401,0.00173896,0.00386178,-0.00146734,0.00461136,0.000989378,-1.09851,0.00280326,0.0261637,1861,1254,52.8014,-2.61396
644,-230,52.7743,2.53577,0.00245559,0.00343202,-0.00166911,0.00468285,0.00120476,-0.927679,0.00280783,0.0218259,1868,1254,52.7743,-2.53578
651,-230,52.7837,2.53857,0.00247301,0.00273911,-0.00179558,0.00440656,0.000805559,-0.82238,0.0027094,0.0479112,1875,1254,52.7837,-2.53859
658,-230,52.8152,2.56226,0,0,0,0,0,0,0,-1,1882,1254,52.8152,-2.5622
665,-230,52.8065,3.01257,0,0,0,0,0,0,0,-1,1889,1254,52.8065,-3.01262
672,-230,43.0962,2.78699,0,0,0,0,0,0,0,-1,1896,1254,43.0962,-2.78698
679,-230,27.9967,2.37708,0,0,0,0,0,0,0,-1,1903,1254,27.9967,-2.3771
686,-230,40.8854,10.1788,0,0,0,0,0,0,0,-1,1910,1254,40.8853,-10.1788
693,-230,40.9193,9.97852,0,0,0,0,0,0,0,-1,1917,1254,40.9193,-9.97857
700,-230,40.9529,9.63806,0.00202756,-0.00138225,-0.000610693,0.00213364,-0.00148833,-0.171979,0.00210218,0.0262318,1924,1254,40.9529,-9.63807
707,-230,40.8358,9.13391,0.00151526,-0.00157019,-0.000476835,0.00158728,-0.0016422,-0.149886,0.00186463,0.0122549,1931,1254,40.8358,-9.13397
714,-230,40.8271,8.65625,0.000663654,-0.001419,-2.56573e-05,0.00066397,-0.00141932,-0.012317,0.00122886,0.0129595,1938,1254,40.8272,-8.65624
721,-230,40.833,8.16113,2.75861e-05,-0.00101217,0.000611446,0.000310292,-0.00129487,0.433082,0.000983138,0.0128973,1945,1254,40.833,-8.16111
728,-230,40.8079,7.69604,-8.05206e-05,-0.00087765,0.00148597,0.00105941,-0.00201758,0.654373,0.00180498,0.0136439,1952,1254,40.8079,-7.69609
735,-230,40.7952,7.24158,0.000163659,-0.000829529,0.00234494,0.00206402,-0.00272989,0.681054,0.00277665,0.0147764,1959,1254,40.7951,-7.24162
742,-230,40.7653,6.74475,0.000837979,-0.000824664,0.0031785,0.00329207,-0.00327875,0.657491,0.00379367,0.0117288,1966,1254,40.7652,-6.7448
749,-230,40.7589,6.23096,0.00211549,-0.00089988,0.0039679,0.00485249,-0.00363688,0.603838,0.00491806,0.0109536,1973,1254,40.7589,-6.23098
756,-230,40.7183,5.7688,0.00432644,-0.00107227,0.00462331,0.00698073,-0.00372656,0.521166,0.00627631,0.0155856,1980,1254,40.7183,-5.76874
763,-230,40.7343,5.27417,0.00788107,-0.00157694,0.00522854,0.010202,-0.00389784,0.417761,0.00840737,0.0336857,1987,1254,40.7343,-5.27422
770,-230,41.2631,4.43323,0.0132394,-0.00241829,0.00577967,0.0151417,-0.0043206,0.31797,0.0118013,0.0491237,1994,1254,41.263,-4.43323
777,-230,41.8693,3.74707,0,0,0,0,0,0,0,-1,2001,1254,41.8692,-3.74713
784,-230,35.8896,1.80334,0,0,0,0,0,0,0,-1,2008,1254,35.8897,-1.80338
791,-230,35.6028,2.20642,0,0,0,0,0,0,0,-1,2015,1254,35.6027,-2.2064
798,-230,0,0,0,0,0,0,0,0,0,-1,2022,1254,0,0
805,-230,0,0,0,0,0,0,0,0,0,-1,2029,1254,0,0
812,-230,0,0,0,0,0,0,0,0,0,-1,2036,1254,0,0
-700,-237,0,0,0,0,0,0,0,0,0,-1,524,1261,0,0
-693,-237,0,0,0,0,0,0,0,0,0,-1,531,1261,0,0
-686,-237,0,0,0,0,0,0,0,0,0,-1,538,1261,0,0
-679,-237,0,0,0,0,0,0,0,0,0,-1,545,1261,0,0
-672,-237,-32.47,-4.3158,0,0,0,0,0,0,0,-1,552,1261,-32.4701,4.31585
-665,-237,-32.6125,-4.06726,0,0,0,0,0,0,0,-1,559,1261,-32.6125,4.06731
-658,-237,-33.0848,-4.64441,0,0,0,0,0,0,0,-1,566,1261,-33.0847,4.6444
-651,-237,-33.3818,-4.82898,0,0,0,0,0,0,0,-1,573,1261,-33.3818,4.82899
-644,-237,-29.4289,-1.13989,0,0,0,0,0,0,0,-1,580,1261,-29.4289,1.13994
-637,-237,-25.5224,0.951172,0,0,0,0,0,0,0,-1,587,1261,-25.5224,-0.951143
-630,-237,-25.8347,2.49585,0,0,0,0,0,0,0,-1,594,1261,-25.8347,-2.49584
-623,-237,-25.8441,3.12939,0.0108594,0.000636074,-0.00134993,0.0110346,0.000460828,-0.129097,0.00720772,0.0307402,601,1261,-25.8441,-3.1294
-616,-237,-25.8635,3.70874,0.00773154,0.00109865,-0.00139263,0.00801207,0.000818122,-0.198778,0.00509063,0.0140724,608,1261,-25.8635,-3.70873
-609,-237,-25.9077,4.24683,0.00552727,0.0010679,-0.00120521,0.00583215,0.000763018,-0.247772,0.00366037,0.0162434,615,1261,-25.9077,-4.24678
-602,-237,-25.9554,4.78918,0.0039915,0.0006163,-0.000852371,0.00419454,0.000413257,-0.233852,0.00266929,0.011676,622,1261,-25.9554,-4.78923
-595,-237,-26.009,5.34106,0.00303972,6.30832e-05,-0.000561699,0.00314218,-3.93839e-05,-0.180439,0.00210804,0.0154165,629,1261,-26.009,-5.34106
-588,-237,-25.9975,5.90039,0.00273921,-0.000621431,-0.000419539,0.0027908,-0.000673014,-0.122338,0.00212077,0.0275161,636,1261,-25.9975,-5.90042
-581,-237,-26.0161,6.44653,0.00301238,-0.00127543,-0.000496414,0.0030691,-0.00133215,-0.113769,0.00260619,0.0249146,643,1261,-26.0161,-6.44649
-574,-237,-26.0217,6.97583,0.00349287,-0.00209206,-0.000690825,0.00357706,-0.00217624,-0.12126,0.00335433,0.0177722,650,1261,-26.0217,-6.97587
-567,-237,-26.0153,7.51965,0.00367735,-0.00251706,-0.000620628,0.00373892,-0.00257863,-0.098882,0.00366789,0.0300867,657,1261,-26.0152,-7.51967
-560,-237,-25.9099,7.93469,0,0,0,0,0,0,0,-1,664,1261,-25.9098,-7.93475
-553,-237,-20.6102,6.92139,0,0,0,0,0,0,0,-1,671,1261,-20.6102,-6.92138
-546,-237,-11.192,1.14014,0,0,0,0,0,0,0,-1,678,1261,-11.192,-1.14011
-539,-237,-16.512,1.53455,0,0,0,0,0,0,0,-1,685,1261,-16.512,-1.53457
-532,-237,-29.7025,1.23621,0,0,0,0,0,0,0,-1,692,1261,-29.7025,-1.23618
-525,-237,-37.9338,0.75708,0,0,0,0,0,0,0,-1,699,1261,-37.9339,-0.757056
-518,-237,-38.9336,0.92749,0,0,0,0,0,0,0,-1,706,1261,-38.9336,-0.927525
-511,-237,-39.129,0.988037,-0.0052921,0.000965927,0.00963479,0.00796706,-0.0122932,0.942407,0.0117858,0.0468334,713,1261,-39.129,-0.988021
-504,-237,-39.3193,1.04565,-0.00700461,0.00280937,0.0122244,0.0110749,-0.0152701,0.976258,0.0152745,0.042408,720,1261,-39.3193,-1.04569
-497,-237,-39.3643,1.35706,-0.00816761,0.00669034,0.0163792,0.0172466,-0.0187239,0.998304,0.0207734,0.044889,727,1261,-39.3643,-1.35711
-490,-237,0,0,0,0,0,0,0,0,0,-1,734,1261,0,0
-483,-237,0,0,0,0,0,0,0,0,0,-1,741,1261,0,0
-476,-237,0,0,0,0,0,0,0,0,0,-1,748,1261,0,0
-469,-237,0,0,0,0,0,0,0,0,0,-1,755,1261,0,0
-462,-237,0,0,0,0,0,0,0,0,0,-1,762,1261,0,0
-455,-237,0,0,0,0,0,0,0,0,0,-1,769,1261,0,0
-448,-237,0,0,0,0,0,0,0,0,0,-1,776,1261,0,0
-441,-237,0,0,0,0,0,0,0,0,0,-1,783,1261,0,0
-434,-237,0,0,0,0,0,0,0,0,0,-1,790,1261,0,0
-427,-237,0,0,0,0,0,0,0,0,0,-1,797,1261,0,0
-420,-237,0,0,0,0,0,0,0,0,0,-1,804,1261,0,0
-413,-237,0,0,0,0,0,0,0,0,0,-1,811,1261,0,0
-406,-237,0,0,0,0,0,0,0,0,0,-1,818,1261,0,0
-399,-237,0,0,0,0,0,0,0,0,0,-1,825,1261,0,0
-392,-237,0,0,0,0,0,0,0,0,0,-1,832,1261,0,0
-385,-237,0,0,0,0,0,0,0,0,0,-1,839,1261,0,0
-378,-237,0,0,0,0,0,0,0,0,0,-1,846,1261,0,0
-371,-237,0,0,0,0,0,0,0,0,0,-1,853,1261,0,0
-364,-237,0,0,0,0,0,0,0,0,0,-1,860,1261,0,0
-357,-237,0,0,0,0,0,0,0,0,0,-1,867,1261,0,0
-350,-237,0,0,0,0,0,0,0,0,0,-1,874,1261,0,0
-343,-237,0,0,0,0,0,0,0,0,0,-1,881,1261,0,0
-336,-237,0,0,0,0,0,0,0,0,0,-1,888,1261,0,0
-329,-237,0,0,0,0,0,0,0,0,0,-1,895,1261,0,0
-322,-237,0,0,0,0,0,0,0,0,0,-1,902,1261,0,0
-315,-237,0,0,0,0,0,0,0,0,0,-1,909,1261,0,0
-308,-237,0,0,0,0,0,0,0,0,0,-1,916,1261,0,0
-301,-237,0,0,0,0,0,0,0,0,0,-1,923,1261,0,0
-294,-237,0,0,0,0,0,0,0,0,0,-1,930,1261,0,0
-287,-237,0,0,0,0,0,0,0,0,0,-1,937,1261,0,0
-280,-237,0,0,0,0,0,0,0,0,0,-1,944,1261,0,0
-273,-237,0,0,0,0,0,0,0,0,0,-1,951,1261,0,0
-266,-237,0,0,0,0,0,0,0,0,0,-1,958,1261,0,0
-259,-237,0,0,0,0,0,0,0,0,0,-1,965,1261,0,0
-252,-237,0,0,0,0,0,0,0,0,0,-1,972,1261,0,0
-245,-237,0,0,0,0,0,0,0,0,0,-1,979,1261,0,0
-238,-237,0,0,0,0,0,0,0,0,0,-1,986,1261,0,0
-231,-237,0,0,0,0,0,0,0,0,0,-1,993,1261,0,0
-224,-237,0,0,0,0,0,0,0,0,0,-1,1000,1261,0,0
-217,-237,0,0,0,0,0,0,0,0,0,-1,1007,1261,0,0
-210,-237,0,0,0,0,0,0,0,0,0,-1,1014,1261,0,0
-203,-237,0,0,0,0,0,0,0,0,0,-1,1021,1261,0,0
-196,-237,0,0,0,0,0,0,0,0,0,-1,1028,1261,0,0
-189,-237,0,0,0,0,0,0,0,0,0,-1,1035,1261,0,0
-182,-237,0,0,0,0,0,0,0,0,0,-1,1042,1261,0,0
-175,-237,0,0,0,0,0,0,0,0,0,-1,1049,1261,0,0
-168,-237,0,0,0,0,0,0,0,0,0,-1,1056,1261,0,0
-161,-237,0,0,0,0,0,0,0,0,0,-1,1063,1261,0,0
-154,-237,0,0,0,0,0,0,0,0,0,-1,1070,1261,0,0
-147,-237,0,0,0,0,0,0,0,0,0,-1,1077,1261,0,0
-140,-237,0,0,0,0,0,0,0,0,0,-1,1084,1261,0,0
-133,-237,0,0,0,0,0,0,0,0,0,-1,1091,1261,0,0
-126,-237,0,0,0,0,0,0,0,0,0,-1,1098,1261,0,0
-119,-237,0,0,0,0,0,0,0,0,0,-1,1105,1261,0,0
-112,-237,0,0,0,0,0,0,0,0,0,-1,1112,1261,0,0
-105,-237,0,0,0,0,0,0,0,0,0,-1,1119,1261,0,0
-98,-237,0,0,0,0,0,0,0,0,0,-1,1126,1261,0,0
-91,-237,0,0,0,0,0,0,0,0,0,-1,1133,1261,0,0
-84,-237,0,0,0,0,0,0,0,0,0,-1,1140,1261,0,0
-77,-237,0,0,0,0,0,0,0,0,0,-1,1147,1261,0,0
-70,-237,0,0,0,0,0,0,0,0,0,-1,1154,1261,0,0
-63,-237,0,0,0,0,0,0,0,0,0,-1,1161,1261,0,0
-56,-237,0,0,0,0,0,0,0,0,0,-1,1168,1261,0,0
-49,-237,0,0,0,0,0,0,0,0,0,-1,1175,1261,0,0
-42,-237,0,0,0,0,0,0,0,0,0,-1,1182,1261,0,0
-35,-237,0,0,0,0,0,0,0,0,0,-1,1189,1261,0,0
-28,-237,0,0,0,0,0,0,0,0,0,-1,1196,1261,0,0
-21,-237,0,0,0,0,0,0,0,0,0,-1,1203,1261,0,0
-14,-237,0,0,0,0,0,0,0,0,0,-1,1210,1261,0,0
-7,-237,0,0,0,0,0,0,0,0,0,-1,1217,1261,0,0
0,-237,0,0,0,0,0,0,0,0,0,-1,1224,1261,0,0
7,-237,0,0,0,0,0,0,0,0,0,-1,1231,1261,0,0
14,-237,0,0,0,0,0,0,0,0,0,-1,1238,1261,0,0
21,-237,0,0,0,0,0,0,0,0,0,-1,1245,1261,0,0
28,-237,0,0,0,0,0,0,0,0,0,-1,1252,1261,0,0
35,-237,0,0,0,0,0,0,0,0,0,-1,1259,1261,0,0
42,-237,0,0,0,0,0,0,0,0,0,-1,1266,1261,0,0
49,-237,0,0,0,0,0,0,0,0,0,-1,1273,1261,0,0
56,-237,0,0,0,0,0,0,0,0,0,-1,1280,1261,0,0
63,-237,0,0,0,0,0,0,0,0,0,-1,1287,1261,0,0
70,-237,0,0,0,0,0,0,0,0,0,-1,1294,1261,0,0
77,-237,0,0,0,0,0,0,0,0,0,-1,1301,1261,0,0
84,-237,0,0,0,0,0,0,0,0,0,-1,1308,1261,0,0
91,-237,0,0,0,0,0,0,0,0,0,-1,1315,1261,0,0
98,-237,0,0,0,0,0,0,0,0,0,-1,1322,1261,0,0
105,-237,0,0,0,0,0,0,0,0,0,-1,1329,1261,0,0
112,-237,0,0,0,0,0,0,0,0,0,-1,1336,1261,0,0
119,-237,0,0,0,0,0,0,0,0,0,-1,1343,1261,0,0
126,-237,0,0,0,0,0,0,0,0,0,-1,1350,1261,0,0
133,-237,0,0,0,0,0,0,0,0,0,-1,1357,1261,0,0
140,-237,0,0,0,0,0,0,0,0,0,-1,1364,1261,0,0
147,-237,0,0,0,0,0,0,0,0,0,-1,1371,1261,0,0
154,-237,0,0,0,0,0,0,0,0,0,-1,1378,1261,0,0
161,-237,0,0,0,0,0,0,0,0,0,-1,1385,1261,0,0
168,-237,0,0,0,0,0,0,0,0,0,-1,1392,1261,0,0
175,-237,0,0,0,0,0,0,0,0,0,-1,1399,1261,0,0
182,-237,0,0,0,0,0,0,0,0,0,-1,1406,1261,0,0
189,-237,0,0,0,0,0,0,0,0,0,-1,1413,1261,0,0
196,-237,0,0,0,0,0,0,0,0,0,-1,1420,1261,0,0
203,-237,0,0,0,0,0,0,0,0,0,-1,1427,1261,0,0
210,-237,0,0,0,0,0,0,0,0,0,-1,1434,1261,0,0
217,-237,0,0,0,0,0,0,0,0,0,-1,1441,1261,0,0
224,-237,0,0,0,0,0,0,0,0,0,-1,1448,1261,0,0
231,-237,0,0,0,0,0,0,0,0,0,-1,1455,1261,0,0
238,-237,0,0,0,0,0,0,0,0,0,-1,1462,1261,0,0
245,-237,0,0,0,0,0,0,0,0,0,-1,1469,1261,0,0
252,-237,0,0,0,0,0,0,0,0,0,-1,1476,1261,0,0
259,-237,0,0,0,0,0,0,0,0,0,-1,1483,1261,0,0
266,-237,0,0,0,0,0,0,0,0,0,-1,1490,1261,0,0
273,-237,0,0,0,0,0,0,0,0,0,-1,1497,1261,0,0
280,-237,0,0,0,0,0,0,0,0,0,-1,1504,1261,0,0
287,-237,0,0,0,0,0,0,0,0,0,-1,1511,1261,0,0
294,-237,0,0,0,0,0,0,0,0,0,-1,1518,1261,0,0
301,-237,0,0,0,0,0,0,0,0,0,-1,1525,1261,0,0
308,-237,0,0,0,0,0,0,0,0,0,-1,1532,1261,0,0
315,-237,0,0,0,0,0,0,0,0,0,-1,1539,1261,0,0
322,-237,0,0,0,0,0,0,0,0,0,-1,1546,1261,0,0
329,-237,0,0,0,0,0,0,0,0,0,-1,1553,1261,0,0
336,-237,0,0,0,0,0,0,0,0,0,-1,1560,1261,0,0
343,-237,0,0,0,0,0,0,0,0,0,-1,1567,1261,0,0
350,-237,0,0,0,0,0,0,0,0,0,-1,1574,1261,0,0
357,-237,0,0,0,0,0,0,0,0,0,-1,1581,1261,0,0
364,-237,0,0,0,0,0,0,0,0,0,-1,1588,1261,0,0
371,-237,0,0,0,0,0,0,0,0,0,-1,1595,1261,0,0
378,-237,0,0,0,0,0,0,0,0,0,-1,1602,1261,0,0
385,-237,0,0,0,0,0,0,0,0,0,-1,1609,1261,0,0
392,-237,0,0,0,0,0,0,0,0,0,-1,1616,1261,0,0
399,-237,0,0,0,0,0,0,0,0,0,-1,1623,1261,0,0
406,-237,0,0,0,0,0,0,0,0,0,-1,1630,1261,0,0
413,-237,0,0,0,0,0,0,0,0,0,-1,1637,1261,0,0
420,-237,0,0,0,0,0,0,0,0,0,-1,1644,1261,0,0
427,-237,0,0,0,0,0,0,0,0,0,-1,1651,1261,0,0
434,-237,0,0,0,0,0,0,0,0,0,-1,1658,1261,0,0
441,-237,0,0,0,0,0,0,0,0,0,-1,1665,1261,0,0
448,-237,0,0,0,0,0,0,0,0,0,-1,1672,1261,0,0
455,-237,0,0,0,0,0,0,0,0,0,-1,1679,1261,0,0
462,-237,0,0,0,0,0,0,0,0,0,-1,1686,1261,0,0
469,-237,0,0,0,0,0,0,0,0,0,-1,1693,1261,0,0
476,-237,0,0,0,0,0,0,0,0,0,-1,1700,1261,0,0
483,-237,0,0,0,0,0,0,0,0,0,-1,1707,1261,0,0
490,-237,0,0,0,0,0,0,0,0,0,-1,1714,1261,0,0
497,-237,0,0,0,0,0,0,0,0,0,-1,1721,1261,0,0
504,-237,0,0,0,0,0,0,0,0,0,-1,1728,1261,0,0
511,-237,0,0,0,0,0,0,0,0,0,-1,1735,1261,0,0
518,-237,0,0,0,0,0,0,0,0,0,-1,1742,1261,0,0
525,-237,0,0,0,0,0,0,0,0,0,-1,1749,1261,0,0
532,-237,0,0,0,0,0,0,0,0,0,-1,1756,1261,0,0
539,-237,0,0,0,0,0,0,0,0,0,-1,1763,1261,0,0
546,-237,0,0,0,0,0,0,0,0,0,-1,1770,1261,0,0
553,-237,0,0,0,0,0,0,0,0,0,-1,1777,1261,0,0
560,-237,0,0,0,0,0,0,0,0,0,-1,1784,1261,0,0
567,-237,0,0,0,0,0,0,0,0,0,-1,1791,1261,0,0
574,-237,0,0,0,0,0,0,0,0,0,-1,1798,1261,0,0
581,-237,0,0,0,0,0,0,0,0,0,-1,1805,1261,0,0
588,-237,0,0,0,0,0,0,0,0,0,-1,1812,1261,0,0
595,-237,0,0,0,0,0,0,0,0,0,-1,1819,1261,0,0
602,-237,0,0,0,0,0,0,0,0,0,-1,1826,1261,0,0
609,-237,0,0,0,0,0,0,0,0,0,-1,1833,1261,0,0
616,-237,52.8853,2.45142,-0.000207358,0.0029094,-0.000178229,0.00291956,-0.000217517,-1.51386,0.00202278,0.038278,1840,1261,52.8852,-2.45146
623,-237,52.9554,2.53894,3.93847e-05,0.00408279,-0.000709337,0.00420362,-8.14442e-05,-1.40208,0.00282995,0.0327521,1847,1261,52.9555,-2.53895
630,-237,52.8588,2.6488,0.000581336,0.00487183,-0.0012311,0.00519998,0.000253184,-1.3103,0.00338542,0.025534,1854,1261,52.8587,-2.64883
637,-237,52.7836,2.58264,0.00135949,0.00496897,-0.00153445,0.00553312,0.000795342,-1.21848,0.00345429,0.0206969,1861,1261,52.7836,-2.58267
644,-237,52.7499,2.47827,0.0019577,0.00434935,-0.00173249,0.00525864,0.00104841,-1.08747,0.00321381,0.0420027,1868,1261,52.7499,-2.47823
651,-237,52.7488,2.52673,0,0,0,0,0,0,0,-1,1875,1261,52.7487,-2.52677
658,-237,51.4512,1.51184,0,0,0,0,0,0,0,-1,1882,1261,51.4512,-1.51189
665,-237,51.1312,1.20667,0,0,0,0,0,0,0,-1,1889,1261,51.1312,-1.20672
672,-237,45.3922,1.95618,0,0,0,0,0,0,0,-1,1896,1261,45.3922,-1.95623
679,-237,23.1501,7.37488,0,0,0,0,0,0,0,-1,1903,1261,23.1502,-7.37493
686,-237,36.8348,9.99426,0,0,0,0,0,0,0,-1,1910,1261,36.8349,-9.99424
693,-237,40.0846,10.1022,0,0,0,0,0,0,0,-1,1917,1261,40.0846,-10.1022
700,-237,40.3962,9.68591,0.00197667,-0.00127867,-0.000577489,0.00207608,-0.00137807,-0.17047,0.00200778,0.0143183,1924,1261,40.3962,-9.68591
707,-237,40.3656,9.18066,0.00134609,-0.00136628,-0.000419319,0.00140944,-0.00142963,-0.149933,0.00163915,0.00986094,1931,1261,40.3656,-9.18072
714,-237,40.3583,8.67334,0.000374563,-0.00115104,0.00010213,0.000381369,-0.00115784,0.0665483,0.000925589,0.0147083,1938,1261,40.3582,-8.67339
721,-237,40.2993,8.19934,-0.000257891,-0.000821292,0.000813347,0.000321158,-0.00140034,0.61869,0.001057,0.0167199,1945,1261,40.2993,-8.19935
728,-237,40.3008,7.71313,-0.000423775,-0.00076346,0.0017165,0.00113126,-0.0023185,0.736085,0.00203065,0.0138828,1952,1261,40.3008,-7.7131
735,-237,40.2922,7.22485,-0.00025976,-0.000798583,0.00260449,0.00208922,-0.00314756,0.733861,0.00304397,0.0173202,1959,1261,40.2922,-7.22488
742,-237,40.2831,6.75208,0.000321196,-0.000921921,0.00347208,0.00322691,-0.00382764,0.696828,0.00407787,0.0145343,1966,1261,40.283,-6.75208
749,-237,40.241,6.29456,0.0015127,-0.00115701,0.00430716,0.0046871,-0.00433142,0.635134,0.0052082,0.0106261,1973,1261,40.2409,-6.29456
756,-237,40.178,5.81641,0.00365854,-0.00157765,0.00503304,0.00671371,-0.00463282,0.545567,0.00658754,0.0179297,1980,1261,40.178,-5.81637
763,-237,39.9717,5.29358,0.00722779,-0.0024588,0.00574022,0.009895,-0.005126,0.434972,0.00881687,0.0334946,1987,1261,39.9717,-5.29364
770,-237,39.8688,4.79846,0.0127414,-0.00384129,0.00641282,0.014932,-0.00603187,0.329166,0.0124618,0.0423797,1994,1261,39.8688,-4.79846
777,-237,39.8914,4.27722,0,0,0,0,0,0,0,-1,2001,1261,39.8914,-4.27723
784,-237,36.3441,1.68591,0,0,0,0,0,0,0,-1,2008,1261,36.3441,-1.68592
791,-237,32.3025,6.03235,0,0,0,0,0,0,0,-1,2015,1261,32.3025,-6.03229
798,-237,0,0,0,0,0,0,0,0,0,-1,2022,1261,0,0
805,-237,0,0,0,0,0,0,0,0,0,-1,2029,1261,0,0
812,-237,0,0,0,0,0,0,0,0,0,-1,2036,1261,0,0
-700,-244,0,0,0,0,0,0,0,0,0,-1,524,1268,0,0
-693,-244,0,0,0,0,0,0,0,0,0,-1,531,1268,0,0
-686,-244,0,0,0,0,0,0,0,0,0,-1,538,1268,0,0
-679,-244,0,0,0,0,0,0,0,0,0,-1,545,1268,0,0
-672,-244,-32.8293,-4.4281,0,0,0,0,0,0,0,-1,552,1268,-32.8293,4.42813
-665,-244,-32.5182,-4.16858,0,0,0,0,0,0,0,-1,559,1268,-32.5183,4.16862
-658,-244,-32.2267,-3.73816,0,0,0,0,0,0,0,-1,566,1268,-32.2267,3.73814
-651,-244,-31.7606,-2.50073,0,0,0,0,0,0,0,-1,573,1268,-31.7607,2.5007
-644,-244,-30.9868,-1.3728,0,0,0,0,0,0,0,-1,580,1268,-30.9868,1.37276
-637,-244,-26.1104,2.39575,0,0,0,0,0,0,0,-1,587,1268,-26.1104,-2.3958
-630,-244,-25.9747,2.77881,0.0197444,0.000975786,-0.00335229,0.0203252,0.000394999,-0.171548,0.0134204,0.0438442,594,1268,-25.9747,-2.77875
-623,-244,-25.6559,3.21228,0.0139103,0.00155301,-0.00219457,0.0142884,0.00117485,-0.170644,0.00915917,0.0318639,601,1268,-25.6559,-3.21225
-616,-244,-25.3495,3.74463,0.00950505,0.00154112,-0.00151424,0.00978324,0.00126292,-0.181693,0.00614461,0.0171295,608,1268,-25.3495,-3.7446
-609,-244,-25.3803,4.25879,0.00661911,0.00138313,-0.00100914,0.00680687,0.00119537,-0.183956,0.00419659,0.0150476,615,1268,-25.3803,-4.25882
-602,-244,-25.4345,4.80139,0.00471477,0.00092892,-0.000599249,0.00480735,0.000836331,-0.153296,0.0029657,0.0147762,622,1268,-25.4345,-4.80136
-595,-244,-25.4722,5.36487,0.00352926,0.00033566,-0.000277271,0.00355316,0.000311765,-0.0859638,0.00227199,0.0166886,629,1268,-25.4722,-5.36492
-588,-244,-25.4437,5.91235,0.00304801,-0.000375042,-7.41984e-05,0.00304962,-0.00037665,-0.0216625,0.00216955,0.0233769,636,1268,-25.4437,-5.91238
-581,-244,-25.4561,6.44165,0.00319546,-0.00114338,-2.07105e-05,0.00319556,-0.00114348,-0.00477313,0.00259685,0.0202321,643,1268,-25.4561,-6.44167
-574,-244,-25.4868,7.0033,0.0037039,-0.00206214,-0.000104837,0.00370581,-0.00206405,-0.0181738,0.00337588,0.0138385,650,1268,-25.4868,-7.00329
-567,-244,-25.4778,7.5481,0.00409806,-0.00269211,-7.81731e-05,0.00409896,-0.00269301,-0.0115107,0.00394925,0.0181525,657,1268,-25.4778,-7.5481
-560,-244,-25.3971,8.03308,0.00331105,-0.00287653,0.000353033,0.00333112,-0.00289661,0.0568095,0.0035985,0.040703,664,1268,-25.3971,-8.0331
-553,-244,-25.2672,8.51831,0,0,0,0,0,0,0,-1,671,1268,-25.2672,-8.51829
-546,-244,-11.2686,4.41772,0,0,0,0,0,0,0,-1,678,1268,-11.2686,-4.41767
-539,-244,-12.8706,0.3302,0,0,0,0,0,0,0,-1,685,1268,-12.8706,-0.330156
-532,-244,-18.1502,0.816528,0,0,0,0,0,0,0,-1,692,1268,-18.1502,-0.816514
-525,-244,-33.0835,0.693604,0,0,0,0,0,0,0,-1,699,1268,-33.0835,-0.69365
-518,-244,-38.1713,0.902832,0,0,0,0,0,0,0,-1,706,1268,-38.1713,-0.902888
-511,-244,-39.1851,1.21167,0,0,0,0,0,0,0,-1,713,1268,-39.1851,-1.21171
-504,-244,-39.3498,1.16174,0,0,0,0,0,0,0,-1,720,1268,-39.3498,-1.1617
-497,-244,-39.2374,1.1178,0,0,0,0,0,0,0,-1,727,1268,-39.2374,-1.11782
-490,-244,0,0,0,0,0,0,0,0,0,-1,734,1268,0,0
-483,-244,0,0,0,0,0,0,0,0,0,-1,741,1268,0,0
-476,-244,0,0,0,0,0,0,0,0,0,-1,748,1268,0,0
-469,-244,0,0,0,0,0,0,0,0,0,-1,755,1268,0,0
-462,-244,0,0,0,0,0,0,0,0,0,-1,762,1268,0,0
-455,-244,0,0,0,0,0,0,0,0,0,-1,769,1268,0,0
-448,-244,0,0,0,0,0,0,0,0,0,-1,776,1268,0,0
-441,-244,0,0,0,0,0,0,0,0,0,-1,783,1268,0,0
-434,-244,0,0,0,0,0,0,0,0,0,-1,790,1268,0,0
-427,-244,0,0,0,0,0,0,0,0,0,-1,797,1268,0,0
-420,-244,0,0,0,0,0,0,0,0,0,-1,804,1268,0,0
-413,-244,0,0,0,0,0,0,0,0,0,-1,811,1268,0,0
-406,-244,0,0,0,0,0,0,0,0,0,-1,818,1268,0,0
-399,-244,0,0,0,0,0,0,0,0,0,-1,825,1268,0,0
-392,-244,0,0,0,0,0,0,0,0,0,-1,832,1268,0,0
-385,-244,0,0,0,0,0,0,0,0,0,-1,839,1268,0,0
-378,-244,0,0,0,0,0,0,0,0,0,-1,846,1268,0,0
-371,-244,0,0,0,0,0,0,0,0,0,-1,853,1268,0,0
-364,-244,0,0,0,0,0,0,0,0,0,-1,860,1268,0,0
-357,-244,0,0,0,0,0,0,0,0,0,-1,867,1268,0,0
-350,-244,0,0,0,0,0,0,0,0,0,-1,874,1268,0,0
-343,-244,0,0,0,0,0,0,0,0,0,-1,881,1268,0,0
-336,-244,0,0,0,0,0,0,0,0,0,-1,888,1268,0,0
-329,-244,0,0,0,0,0,0,0,0,0,-1,895,1268,0,0
-322,-244,0,0,0,0,0,0,0,0,0,-1,902,1268,0,0
-315,-244,0,0,0,0,0,0,0,0,0,-1,909,1268,0,0
-308,-244,0,0,0,0,0,0,0,0,0,-1,916,1268,0,0
-301,-244,0,0,0,0,0,0,0,0,0,-1,923,1268,0,0
-294,-244,0,0,0,0,0,0,0,0,0,-1,930,1268,0,0
-287,-244,0,0,0,0,0,0,0,0,0,-1,937,1268,0,0
-280,-244,0,0,0,0,0,0,0,0,0,-1,944,1268,0,0
-273,-244,0,0,0,0,0,0,0,0,0,-1,951,1268,0,0
-266,-244,0,0,0,0,0,0,0,0,0,-1,958,1268,0,0
-259,-244,0,0,0,0,0,0,0,0,0,-1,965,1268,0,0
-252,-244,0,0,0,0,0,0,0,0,0,-1,972,1268,0,0
-245,-244,0,0,0,0,0,0,0,0,0,-1,979,1268,0,0
-238,-244,0,0,0,0,0,0,0,0,0,-1,986,1268,0,0
-231,-244,0,0,0,0,0,0,0,0,0,-1,993,1268,0,0
-224,-244,0,0,0,0,0,0,0,0,0,-1,1000,1268,0,0
-217,-244,0,0,0,0,0,0,0,0,0,-1,1007,1268,0,0
-210,-244,0,0,0,0,0,0,0,0,0,-1,1014,1268,0,0
-203,-244,0,0,0,0,0,0,0,0,0,-1,1021,1268,0,0
-196,-244,0,0,0,0,0,0,0,0,0,-1,1028,1268,0,0
-189,-244,0,0,0,0,0,0,0,0,0,-1,1035,1268,0,0
-182,-244,0,0,0,0,0,0,0,0,0,-1,1042,1268,0,0
-175,-244,0,0,0,0,0,0,0,0,0,-1,1049,1268,0,0
-168,-244,0,0,0,0,0,0,0,0,0,-1,1056,1268,0,0
-161,-244,0,0,0,0,0,0,0,0,0,-1,1063,1268,0,0
-154,-244,0,0,0,0,0,0,0,0,0,-1,1070,1268,0,0
-147,-244,0,0,0,0,0,0,0,0,0,-1,1077,1268,0,0
-140,-244,0,0,0,0,0,0,0,0,0,-1,1084,1268,0,0
-133,-244,0,0,0,0,0,0,0,0,0,-1,1091,1268,0,0
-126,-244,0,0,0,0,0,0,0,0,0,-1,1098,1268,0,0
-119,-244,0,0,0,0,0,0,0,0,0,-1,1105,1268,0,0
-112,-244,0,0,0,0,0,0,0,0,0,-1,1112,1268,0,0
-105,-244,0,0,0,0,0,0,0,0,0,-1,1119,1268,0,0
-98,-244,0,0,0,0,0,0,0,0,0,-1,1126,1268,0,0
-91,-244,0,0,0,0,0,0,0,0,0,-1,1133,1268,0,0
-84,-244,0,0,0,0,0,0,0,0,0,-1,1140,1268,0,0
-77,-244,0,0,0,0,0,0,0,0,0,-1,1147,1268,0,0
-70,-244,0,0,0,0,0,0,0,0,0,-1,1154,1268,0,0
-63,-244,0,0,0,0,0,0,0,0,0,-1,1161,1268,0,0
-56,-244,0,0,0,0,0,0,0,0,0,-1,1168,1268,0,0
-49,-244,0,0,0,0,0,0,0,0,0,-1,1175,1268,0,0
-42,-244,0,0,0,0,0,0,0,0,0,-1,1182,1268,0,0
-35,-244,0,0,0,0,0,0,0,0,0,-1,1189,1268,0,0
-28,-244,0,0,0,0,0,0,0,0,0,-1,1196,1268,0,0
-21,-244,0,0,0,0,0,0,0,0,0,-1,1203,1268,0,0
-14,-244,0,0,0,0,0,0,0,0,0,-1,1210,1268,0,0
-7,-244,0,0,0,0,0,0,0,0,0,-1,1217,1268,0,0
0,-244,0,0,0,0,0,0,0,0,0,-1,1224,1268,0,0
7,-244,0,0,0,0,0,0,0,0,0,-1,1231,1268,0,0
14,-244,0,0,0,0,0,0,0,0,0,-1,1238,1268,0,0
21,-244,0,0,0,0,0,0,0,0,0,-1,1245,1268,0,0
28,-244,0,0,0,0,0,0,0,0,0,-1,1252,1268,0,0
35,-244,0,0,0,0,0,0,0,0,0,-1,1259,1268,0,0
42,-244,0,0,0,0,0,0,0,0,0,-1,1266,1268,0,0
49,-244,0,0,0,0,0,0,0,0,0,-1,1273,1268,0,0
56,-244,0,0,0,0,0,0,0,0,0,-1,1280,1268,0,0
63,-244,0,0,0,0,0,0,0,0,0,-1,1287,1268,0,0
70,-244,0,0,0,0,0,0,0,0,0,-1,1294,1268,0,0
77,-244,0,0,0,0,0,0,0,0,0,-1,1301,1268,0,0
84,-244,0,0,0,0,0,0,0,0,0,-1,1308,1268,0,0
91,-244,0,0,0,0,0,0,0,0,0,-1,1315,1268,0,0
98,-244,0,0,0,0,0,0,0,0,0,-1,1322,1268,0,0
105,-244,0,0,0,0,0,0,0,0,0,-1,1329,1268,0,0
112,-244,0,0,0,0,0,0,0,0,0,-1,1336,1268,0,0
119,-244,0,0,0,0,0,0,0,0,0,-1,1343,1268,0,0
126,-244,0,0,0,0,0,0,0,0,0,-1,1350,1268,0,0
133,-244,0,0,0,0,0,0,0,0,0,-1,1357,1268,0,0
140,-244,0,0,0,0,0,0,0,0,0,-1,1364,1268,0,0
147,-244,0,0,0,0,0,0,0,0,0,-1,1371,1268,0,0
154,-244,0,0,0,0,0,0,0,0,0,-1,1378,1268,0,0
161,-244,0,0,0,0,0,0,0,0,0,-1,1385,1268,0,0
168,-244,0,0,0,0,0,0,0,0,0,-1,1392,1268,0,0
175,-244,0,0,0,0,0,0,0,0,0,-1,1399,1268,0,0
182,-244,0,0,0,0,0,0,0,0,0,-1,1406,1268,0,0
189,-244,0,0,0,0,0,0,0,0,0,-1,1413,1268,0,0
196,-244,0,0,0,0,0,0,0,0,0,-1,1420,1268,0,0
203,-244,0,0,0,0,0,0,0,0,0,-1,1427,1268,0,0
210,-244,0,0,0,0,0,0,0,0,0,-1,1434,1268,0,0
217,-244,0,0,0,0,0,0,0,0,0,-1,1441,1268,0,0
224,-244,0,0,0,0,0,0,0,0,0,-1,1448,1268,0,0
231,-244,0,0,0,0,0,0,0,0,0,-1,1455,1268,0,0
238,-244,0,0,0,0,0,0,0,0,0,-1,1462,1268,0,0
245,-244,0,0,0,0,0,0,0,0,0,-1,1469,1268,0,0
252,-244,0,0,0,0,0,0,0,0,0,-1,1476,1268,0,0
259,-244,0,0,0,0,0,0,0,0,0,-1,1483,1268,0,0
266,-244,0,0,0,0,0,0,0,0,0,-1,1490,1268,0,0
273,-244,0,0,0,0,0,0,0,0,0,-1,1497,1268,0,0
280,-244,0,0,0,0,0,0,0,0,0,-1,1504,1268,0,0
287,-244,0,0,0,0,0,0,0,0,0,-1,1511,1268,0,0
294,-244,0,0,0,0,0,0,0,0,0,-1,1518,1268,0,0
301,-244,0,0,0,0,0,0,0,0,0,-1,1525,1268,0,0
308,-244,0,0,0,0,0,0,0,0,0,-1,1532,1268,0,0
315,-244,0,0,0,0,0,0,0,0,0,-1,1539,1268,0,0
322,-244,0,0,0,0,0,0,0,0,0,-1,1546,1268,0,0
329,-244,0,0,0,0,0,0,0,0,0,-1,1553,1268,0,0
336,-244,0,0,0,0,0,0,0,0,0,-1,1560,1268,0,0
343,-244,0,0,0,0,0,0,0,0,0,-1,1567,1268,0,0
350,-244,0,0,0,0,0,0,0,0,0,-1,1574,1268,0,0
357,-244,0,0,0,0,0,0,0,0,0,-1,1581,1268,0,0
364,-244,0,0,0,0,0,0,0,0,0,-1,1588,1268,0,0
371,-244,0,0,0,0,0,0,0,0,0,-1,1595,1268,0,0
378,-244,0,0,0,0,0,0,0,0,0,-1,1602,1268,0,0
385,-244,0,0,0,0,0,0,0,0,0,-1,1609,1268,0,0
392,-244,0,0,0,0,0,0,0,0,0,-1,1616,1268,0,0
399,-244,0,0,0,0,0,0,0,0,0,-1,1623,1268,0,0
406,-244,0,0,0,0,0,0,0,0,0,-1,1630,1268,0,0
413,-244,0,0,0,0,0,0,0,0,0,-1,1637,1268,0,0
420,-244,0,0,0,0,0,0,0,0,0,-1,1644,1268,0,0
427,-244,0,0,0,0,0,0,0,0,0,-1,1651,1268,0,0
434,-244,0,0,0,0,0,0,0,0,0,-1,1658,1268,0,0
441,-244,0,0,0,0,0,0,0,0,0,-1,1665,1268,0,0
448,-244,0,0,0,0,0,0,0,0,0,-1,1672,1268,0,0
455,-244,0,0,0,0,0,0,0,0,0,-1,1679,1268,0,0
462,-244,0,0,0,0,0,0,0,0,0,-1,1686,1268,0,0
469,-244,0,0,0,0,0,0,0,0,0,-1,1693,1268,0,0
476,-244,0,0,0,0,0,0,0,0,0,-1,1700,1268,0,0
483,-244,0,0,0,0,0,0,0,0,0,-1,1707,1268,0,0
490,-244,0,0,0,0,0,0,0,0,0,-1,1714,1268,0,0
497,-244,0,0,0,0,0,0,0,0,0,-1,1721,1268,0,0
504,-244,0,0,0,0,0,0,0,0,0,-1,1728,1268,0,0
511,-244,0,0,0,0,0,0,0,0,0,-1,1735,1268,0,0
518,-244,0,0,0,0,0,0,0,0,0,-1,1742,1268,0,0
525,-244,0,0,0,0,0,0,0,0,0,-1,1749,1268,0,0
532,-244,0,0,0,0,0,0,0,0,0,-1,1756,1268,0,0
539,-244,0,0,0,0,0,0,0,0,0,-1,1763,1268,0,0
546,-244,0,0,0,0,0,0,0,0,0,-1,1770,1268,0,0
553,-244,0,0,0,0,0,0,0,0,0,-1,1777,1268,0,0
560,-244,0,0,0,0,0,0,0,0,0,-1,1784,1268,0,0
567,-244,0,0,0,0,0,0,0,0,0,-1,1791,1268,0,0
574,-244,0,0,0,0,0,0,0,0,0,-1,1798,1268,0,0
581,-244,0,0,0,0,0,0,0,0,0,-1,1805,1268,0,0
588,-244,0,0,0,0,0,0,0,0,0,-1,1812,1268,0,0
595,-244,0,0,0,0,0,0,0,0,0,-1,1819,1268,0,0
602,-244,0,0,0,0,0,0,0,0,0,-1,1826,1268,0,0
609,-244,0,0,0,0,0,0,0,0,0,-1,1833,1268,0,0
616,-244,52.8334,2.51587,-0.000717574,0.00378946,4.31904e-05,0.00378988,-0.000717987,1.56121,0.0027968,0.0354063,1840,1268,52.8333,-2.5159
623,-244,52.8751,2.58325,-0.00056838,0.00529077,-0.000571424,0.00534598,-0.000623589,-1.47448,0.00378899,0.0278341,1847,1268,52.8752,-2.58324
630,-244,52.8162,2.63806,-7.65788e-05,0.00640523,-0.00119042,0.00661694,-0.000288293,-1.39479,0.00451046,0.0238823,1854,1268,52.8161,-2.6381
637,-244,52.8004,2.56262,0.000726893,0.00617763,-0.00147424,0.00655082,0.000353712,-1.32287,0.00425421,0.0381418,1861,1268,52.8005,-2.56261
644,-244,52.797,2.54236,0.00131311,0.00519207,-0.0016737,0.00581439,0.000690782,-1.21481,0.00366775,0.0459353,1868,1268,52.797,-2.54237
651,-244,52.7614,2.48096,0,0,0,0,0,0,0,-1,1875,1268,52.7613,-2.48098
658,-244,52.7599,2.41211,0,0,0,0,0,0,0,-1,1882,1268,52.7599,-2.41211
665,-244,50.7988,1.09888,0,0,0,0,0,0,0,-1,1889,1268,50.7989,-1.09893
672,-244,32.224,3.6123,0,0,0,0,0,0,0,-1,1896,1268,32.224,-3.6123
679,-244,27.2593,7.90649,0,0,0,0,0,0,0,-1,1903,1268,27.2592,-7.9065
686,-244,39.8457,10.876,0,0,0,0,0,0,0,-1,1910,1268,39.8457,-10.876
693,-244,39.8119,10.3239,0.00220218,-0.000824806,-0.00073507,0.00237124,-0.000993867,-0.226062,0.00199636,0.0278639,1917,1268,39.8119,-10.3238
700,-244,39.8433,9.73608,0.00200746,-0.00123147,-0.000529599,0.00209185,-0.00131587,-0.158029,0.00198438,0.00956499,1924,1268,39.8433,-9.73614
707,-244,39.8723,9.22241,0.00127471,-0.00119337,-0.000315192,0.00131432,-0.00123299,-0.125034,0.00147094,0.00984632,1931,1268,39.8723,-9.22245
714,-244,39.9271,8.70593,0.000237731,-0.000940691,0.000274038,0.00029834,-0.0010013,0.217667,0.000786084,0.0143045,1938,1268,39.9271,-8.70596
721,-244,39.8522,8.23035,-0.000377387,-0.000683111,0.00101764,0.000498809,-0.00155931,0.710849,0.00123972,0.0201609,1945,1268,39.8521,-8.23036
728,-244,39.8241,7.72742,-0.000635891,-0.000668743,0.00191074,0.00125849,-0.00256313,0.7811,0.00224886,0.0251048,1952,1268,39.8241,-7.72737
735,-244,39.7953,7.18115,-0.00059702,-0.000756494,0.00280168,0.00212606,-0.00347957,0.771172,0.00326771,0.0255535,1959,1268,39.7953,-7.18121
742,-244,39.7289,6.77051,-0.000152962,-0.000963825,0.00368795,0.00315178,-0.00426856,0.730651,0.00430028,0.0170663,1966,1268,39.7289,-6.77053
749,-244,39.5911,6.41296,0.000904375,-0.00130847,0.00454623,0.00447688,-0.00488097,0.666033,0.00540444,0.0257408,1973,1268,39.591,-6.41291
756,-244,39.4122,6.04004,0.00291266,-0.00192963,0.00531649,0.00633335,-0.00535031,0.571729,0.00675352,0.0347662,1980,1268,39.4122,-6.04004
763,-244,39.363,5.47656,0.00642671,-0.00314096,0.00608517,0.00938331,-0.00609756,0.45228,0.00900474,0.0448019,1987,1268,39.363,-5.47653
770,-244,39.6051,5.08069,0.0120257,-0.00504069,0.00682636,0.0144202,-0.0074352,0.337364,0.0128312,0.0466813,1994,1268,39.6051,-5.08065
777,-244,39.6027,4.69922,0,0,0,0,0,0,0,-1,2001,1268,39.6026,-4.69924
784,-244,31.7908,5.20081,0,0,0,0,0,0,0,-1,2008,1268,31.7907,-5.20083
791,-244,0,0,0,0,0,0,0,0,0,-1,2015,1268,0,0
798,-244,0,0,0,0,0,0,0,0,0,-1,2022,1268,0,0
805,-244,0,0,0,0,0,0,0,0,0,-1,2029,1268,0,0
812,-244,0,0,0,0,0,0,0,0,0,-1,2036,1268,0,0
-700,-251,0,0,0,0,0,0,0,0,0,-1,524,1275,0,0
-693,-251,0,0,0,0,0,0,0,0,0,-1,531,1275,0,0
-686,-251,0,0,0,0,0,0,0,0,0,-1,538,1275,0,0
-679,-251,0,0,0,0,0,0,0,0,0,-1,545,1275,0,0
-672,-251,0,0,0,0,0,0,0,0,0,-1,552,1275,0,0
-665,-251,-33.0368,-4.15027,0,0,0,0,0,0,0,-1,559,1275,-33.0368,4.15031
-658,-251,-32.9259,-3.76306,0,0,0,0,0,0,0,-1,566,1275,-32.9259,3.76301
-651,-251,-32.954,-3.24695,0,0,0,0,0,0,0,-1,573,1275,-32.954,3.24693
-644,-251,-32.495,-1.75903,0,0,0,0,0,0,0,-1,580,1275,-32.495,1.75905
-637,-251,-25.6268,2.5741,0,0,0,0,0,0,0,-1,587,1275,-25.6268,-2.57412
-630,-251,-25.4323,2.92395,0.0242985,0.00100444,-0.00338895,0.0247816,0.000521415,-0.141576,0.01635,0.0485293,594,1275,-25.4323,-2.92394
-623,-251,-24.8741,3.35437,0.0168379,0.00186704,-0.00202638,0.0171073,0.0015976,-0.132187,0.0109114,0.0403173,601,1275,-24.8741,-3.35438
-616,-251,-24.813,3.74768,0.0113543,0.00193608,-0.00127777,0.0115246,0.0017658,-0.13248,0.00716732,0.0216491,608,1275,-24.813,-3.74774
-609,-251,-24.8373,4.24768,0.00779204,0.0018088,-0.000759678,0.00788699,0.00171385,-0.124339,0.00479002,0.0209371,615,1275,-24.8373,-4.24772
-602,-251,-24.8633,4.81934,0.00547214,0.00131684,-0.000345162,0.00550062,0.00128837,-0.0823137,0.00332197,0.0155545,622,1275,-24.8634,-4.81929
-595,-251,-24.8934,5.37537,0.00399362,0.000675205,-2.85267e-05,0.00399387,0.00067496,-0.00859563,0.00246855,0.0136203,629,1275,-24.8935,-5.37534
-588,-251,-24.8903,5.89636,0.00323561,-6.24888e-05,0.0002267,0.00325112,-7.79984e-05,0.0683084,0.00219388,0.0165656,636,1275,-24.8903,-5.89631
-581,-251,-24.8983,6.46033,0.00309479,-0.00087272,0.000417394,0.00313823,-0.000916155,0.10369,0.00245519,0.0154915,643,1275,-24.8982,-6.46027
-574,-251,-24.9025,7.04333,0.00340922,-0.00180582,0.000513994,0.0034594,-0.001856,0.0973123,0.00311504,0.0135745,650,1275,-24.9025,-7.04332
-567,-251,-24.9287,7.58594,0.00392052,-0.0025522,0.000603924,0.00397638,-0.00260806,0.0922421,0.0038288,0.0154788,657,1275,-24.9287,-7.58592
-560,-251,-24.8582,8.29346,0.003414,-0.00278488,0.000881933,0.00353703,-0.00290791,0.13861,0.0037269,0.0375555,664,1275,-24.8582,-8.29344
-553,-251,-24.6751,8.89148,0,0,0,0,0,0,0,-1,671,1275,-24.6751,-8.89145
-546,-251,-12.995,4.5675,0,0,0,0,0,0,0,-1,678,1275,-12.995,-4.56745
-539,-251,-10.7916,0.366333,0,0,0,0,0,0,0,-1,685,1275,-10.7916,-0.366282
-532,-251,-10.7391,-0.00769043,0,0,0,0,0,0,0,-1,692,1275,-10.7391,0.00773227
-525,-251,-29.4286,-0.250244,0,0,0,0,0,0,0,-1,699,1275,-29.4286,0.250266
-518,-251,-32.6981,0.678833,0,0,0,0,0,0,0,-1,706,1275,-32.6981,-0.678787
-511,-251,-29.4731,0.637085,0,0,0,0,0,0,0,-1,713,1275,-29.4731,-0.637025
-504,-251,-30.6428,0.792358,0,0,0,0,0,0,0,-1,720,1275,-30.6427,-0.792335
-497,-251,-39.0058,0.743286,0,0,0,0,0,0,0,-1,727,1275,-39.0058,-0.743232
-490,-251,0,0,0,0,0,0,0,0,0,-1,734,1275,0,0
-483,-251,0,0,0,0,0,0,0,0,0,-1,741,1275,0,0
-476,-251,0,0,0,0,0,0,0,0,0,-1,748,1275,0,0
-469,-251,0,0,0,0,0,0,0,0,0,-1,755,1275,0,0
-462,-251,0,0,0,0,0,0,0,0,0,-1,762,1275,0,0
-455,-251,0,0,0,0,0,0,0,0,0,-1,769,1275,0,0
-448,-251,0,0,0,0,0,0,0,0,0,-1,776,1275,0,0
-441,-251,0,0,0,0,0,0,0,0,0,-1,783,1275,0,0
-434,-251,0,0,0,0,0,0,0,0,0,-1,790,1275,0,0
-427,-251,0,0,0,0,0,0,0,0,0,-1,797,1275,0,0
-420,-251,0,0,0,0,0,0,0,0,0,-1,804,1275,0,0
-413,-251,0,0,0,0,0,0,0,0,0,-1,811,1275,0,0
-406,-251,0,0,0,0,0,0,0,0,0,-1,818,1275,0,0
-399,-251,0,0,0,0,0,0,0,0,0,-1,825,1275,0,0
-392,-251,0,0,0,0,0,0,0,0,0,-1,832,1275,0,0
-385,-251,0,0,0,0,0,0,0,0,0,-1,839,1275,0,0
-378,-251,0,0,0,0,0,0,0,0,0,-1,846,1275,0,0
-371,-251,0,0,0,0,0,0,0,0,0,-1,853,1275,0,0
-364,-251,0,0,0,0,0,0,0,0,0,-1,860,1275,0,0
-357,-251,0,0,0,0,0,0,0,0,0,-1,867,1275,0,0
-350,-251,0,0,0,0,0,0,0,0,0,-1,874,1275,0,0
-343,-251,0,0,0,0,0,0,0,0,0,-1,881,1275,0,0
-336,-251,0,0,0,0,0,0,0,0,0,-1,888,1275,0,0
-329,-251,0,0,0,0,0,0,0,0,0,-1,895,1275,0,0
-322,-251,0,0,0,0,0,0,0,0,0,-1,902,1275,0,0
-315,-251,0,0,0,0,0,0,0,0,0,-1,909,1275,0,0
-308,-251,0,0,0,0,0,0,0,0,0,-1,916,1275,0,0
-301,-251,0,0,0,0,0,0,0,0,0,-1,923,1275,0,0
-294,-251,0,0,0,0,0,0,0,0,0,-1,930,1275,0,0
-287,-251,0,0,0,0,0,0,0,0,0,-1,937,1275,0,0
-280,-251,0,0,0,0,0,0,0,0,0,-1,944,1275,0,0
-273,-251,0,0,0,0,0,0,0,0,0,-1,951,1275,0,0
-266,-251,0,0,0,0,0,0,0,0,0,-1,958,1275,0,0
-259,-251,0,0,0,0,0,0,0,0,0,-1,965,1275,0,0
-252,-251,0,0,0,0,0,0,0,0,0,-1,972,1275,0,0
-245,-251,0,0,0,0,0,0,0,0,0,-1,979,1275,0,0
-238,-251,0,0,0,0,0,0,0,0,0,-1,986,1275,0,0
-231,-251,0,0,0,0,0,0,0,0,0,-1,993,1275,0,0
-224,-251,0,0,0,0,0,0,0,0,0,-1,1000,1275,0,0
-217,-251,0,0,0,0,0,0,0,0,0,-1,1007,1275,0,0
-210,-251,0,0,0,0,0,0,0,0,0,-1,1014,1275,0,0
-203,-251,0,0,0,0,0,0,0,0,0,-1,1021,1275,0,0
-196,-251,0,0,0,0,0,0,0,0,0,-1,1028,1275,0,0
-189,-251,0,0,0,0,0,0,0,0,0,-1,1035,1275,0,0
-182,-251,0,0,0,0,0,0,0,0,0,-1,1042,1275,0,0
-175,-251,0,0,0,0,0,0,0,0,0,-1,1049,1275,0,0
-168,-251,0,0,0,0,0,0,0,0,0,-1,1056,1275,0,0
-161,-251,0,0,0,0,0,0,0,0,0,-1,1063,1275,0,0
-154,-251,0,0,0,0,0,0,0,0,0,-1,1070,1275,0,0
-147,-251,0,0,0,0,0,0,0,0,0,-1,1077,1275,0,0
-140,-251,0,0,0,0,0,0,0,0,0,-1,1084,1275,0,0
-133,-251,0,0,0,0,0,0,0,0,0,-1,1091,1275,0,0
-126,-251,0,0,0,0,0,0,0,0,0,-1,1098,1275,0,0
-119,-251,0,0,0,0,0,0,0,0,0,-1,1105,1275,0,0
-112,-251,0,0,0,0,0,0,0,0,0,-1,1112,1275,0,0
-105,-251,0,0,0,0,0,0,0,0,0,-1,1119,1275,0,0
-98,-251,0,0,0,0,0,0,0,0,0,-1,1126,1275,0,0
-91,-251,0,0,0,0,0,0,0,0,0,-1,1133,1275,0,0
-84,-251,0,0,0,0,0,0,0,0,0,-1,1140,1275,0,0
-77,-251,0,0,0,0,0,0,0,0,0,-1,1147,1275,0,0
-70,-251,0,0,0,0,0,0,0,0,0,-1,1154,1275,0,0
-63,-251,0,0,0,0,0,0,0,0,0,-1,1161,1275,0,0
-56,-251,0,0,0,0,0,0,0,0,0,-1,1168,1275,0,0
-49,-251,0,0,0,0,0,0,0,0,0,-1,1175,1275,0,0
-42,-251,0,0,0,0,0,0,0,0,0,-1,1182,1275,0,0
-35,-251,0,0,0,0,0,0,0,0,0,-1,1189,1275,0,0
-28,-251,0,0,0,0,0,0,0,0,0,-1,1196,1275,0,0
-21,-251,0,0,0,0,0,0,0,0,0,-1,1203,1275,0,0
-14,-251,0,0,0,0,0,0,0,0,0,-1,1210,1275,0,0
-7,-251,0,0,0,0,0,0,0,0,0,-1,1217,1275,0,0
0,-251,0,0,0,0,0,0,0,0,0,-1,1224,1275,0,0
7,-251,0,0,0,0,0,0,0,0,0,-1,1231,1275,0,0
14,-251,0,0,0,0,0,0,0,0,0,-1,1238,1275,0,0
21,-251,0,0,0,0,0,0,0,0,0,-1,1245,1275,0,0
28,-251,0,0,0,0,0,0,0,0,0,-1,1252,1275,0,0
35,-251,0,0,0,0,0,0,0,0,0,-1,1259,1275,0,0
42,-251,0,0,0,0,0,0,0,0,0,-1,1266,1275,0,0
49,-251,0,0,0,0,0,0,0,0,0,-1,1273,1275,0,0
56,-251,0,0,0,0,0,0,0,0,0,-1,1280,1275,0,0
63,-251,0,0,0,0,0,0,0,0,0,-1,1287,1275,0,0
70,-251,0,0,0,0,0,0,0,0,0,-1,1294,1275,0,0
77,-251,0,0,0,0,0,0,0,0,0,-1,1301,1275,0,0
84,-251,0,0,0,0,0,0,0,0,0,-1,1308,1275,0,0
91,-251,0,0,0,0,0,0,0,0,0,-1,1315,1275,0,0
98,-251,0,0,0,0,0,0,0,0,0,-1,1322,1275,0,0
105,-251,0,0,0,0,0,0,0,0,0,-1,1329,1275,0,0
112,-251,0,0,0,0,0,0,0,0,0,-1,1336,1275,0,0
119,-251,0,0,0,0,0,0,0,0,0,-1,1343,1275,0,0
126,-251,0,0,0,0,0,0,0,0,0,-1,1350,1275,0,0
133,-251,0,0,0,0,0,0,0,0,0,-1,1357,1275,0,0
140,-251,0,0,0,0,0,0,0,0,0,-1,1364,1275,0,0
147,-251,0,0,0,0,0,0,0,0,0,-1,1371,1275,0,0
154,-251,0,0,0,0,0,0,0,0,0,-1,1378,1275,0,0
161,-251,0,0,0,0,0,0,0,0,0,-1,1385,1275,0,0
168,-251,0,0,0,0,0,0,0,0,0,-1,1392,1275,0,0
175,-251,0,0,0,0,0,0,0,0,0,-1,1399,1275,0,0
182,-251,0,0,0,0,0,0,0,0,0,-1,1406,1275,0,0
189,-251,0,0,0,0,0,0,0,0,0,-1,1413,1275,0,0
196,-251,0,0,0,0,0,0,0,0,0,-1,1420,1275,0,0
203,-251,0,0,0,0,0,0,0,0,0,-1,1427,1275,0,0
210,-251,0,0,0,0,0,0,0,0,0,-1,1434,1275,0,0
217,-251,0,0,0,0,0,0,0,0,0,-1,1441,1275,0,0
224,-251,0,0,0,0,0,0,0,0,0,-1,1448,1275,0,0
231,-251,0,0,0,0,0,0,0,0,0,-1,1455,1275,0,0
238,-251,0,0,0,0,0,0,0,0,0,-1,1462,1275,0,0
245,-251,0,0,0,0,0,0,0,0,0,-1,1469,1275,0,0
252,-251,0,0,0,0,0,0,0,0,0,-1,1476,1275,0,0
259,-251,0,0,0,0,0,0,0,0,0,-1,1483,1275,0,0
266,-251,0,0,0,0,0,0,0,0,0,-1,1490,1275,0,0
273,-251,0,0,0,0,0,0,0,0,0,-1,1497,1275,0,0
280,-251,0,0,0,0,0,0,0,0,0,-1,1504,1275,0,0
287,-251,0,0,0,0,0,0,0,0,0,-1,1511,1275,0,0
294,-251,0,0,0,0,0,0,0,0,0,-1,1518,1275,0,0
301,-251,0,0,0,0,0,0,0,0,0,-1,1525,1275,0,0
308,-251,0,0,0,0,0,0,0,0,0,-1,1532,1275,0,0
315,-251,0,0,0,0,0,0,0,0,0,-1,1539,1275,0,0
322,-251,0,0,0,0,0,0,0,0,0,-1,1546,1275,0,0
329,-251,0,0,0,0,0,0,0,0,0,-1,1553,1275,0,0
336,-251,0,0,0,0,0,0,0,0,0,-1,1560,1275,0,0
343,-251,0,0,0,0,0,0,0,0,0,-1,1567,1275,0,0
350,-251,0,0,0,0,0,0,0,0,0,-1,1574,1275,0,0
357,-251,0,0,0,0,0,0,0,0,0,-1,1581,1275,0,0
364,-251,0,0,0,0,0,0,0,0,0,-1,1588,1275,0,0
371,-251,0,0,0,0,0,0,0,0,0,-1,1595,1275,0,0
378,-251,0,0,0,0,0,0,0,0,0,-1,1602,1275,0,0
385,-251,0,0,0,0,0,0,0,0,0,-1,1609,1275,0,0
392,-251,0,0,0,0,0,0,0,0,0,-1,1616,1275,0,0
399,-251,0,0,0,0,0,0,0,0,0,-1,1623,1275,0,0
406,-251,0,0,0,0,0,0,0,0,0,-1,1630,1275,0,0
413,-251,0,0,0,0,0,0,0,0,0,-1,1637,1275,0,0
420,-251,0,0,0,0,0,0,0,0,0,-1,1644,1275,0,0
427,-251,0,0,0,0,0,0,0,0,0,-1,1651,1275,0,0
434,-251,0,0,0,0,0,0,0,0,0,-1,1658,1275,0,0
441,-251,0,0,0,0,0,0,0,0,0,-1,1665,1275,0,0
448,-251,0,0,0,0,0,0,0,0,0,-1,1672,1275,0,0
455,-251,0,0,0,0,0,0,0,0,0,-1,1679,1275,0,0
462,-251,0,0,0,0,0,0,0,0,0,-1,1686,1275,0,0
469,-251,0,0,0,0,0,0,0,0,0,-1,1693,1275,0,0
476,-251,0,0,0,0,0,0,0,0,0,-1,1700,1275,0,0
483,-251,0,0,0,0,0,0,0,0,0,-1,1707,1275,0,0
490,-251,0,0,0,0,0,0,0,0,0,-1,1714,1275,0,0
497,-251,0,0,0,0,0,0,0,0,0,-1,1721,1275,0,0
504,-251,0,0,0,0,0,0,0,0,0,-1,1728,1275,0,0
511,-251,0,0,0,0,0,0,0,0,0,-1,1735,1275,0,0
518,-251,0,0,0,0,0,0,0,0,0,-1,1742,1275,0,0
525,-251,0,0,0,0,0,0,0,0,0,-1,1749,1275,0,0
532,-251,0,0,0,0,0,0,0,0,0,-1,1756,1275,0,0
539,-251,0,0,0,0,0,0,0,0,0,-1,1763,1275,0,0
546,-251,0,0,0,0,0,0,0,0,0,-1,1770,1275,0,0
553,-251,0,0,0,0,0,0,0,0,0,-1,1777,1275,0,0
560,-251,0,0,0,0,0,0,0,0,0,-1,1784,1275,0,0
567,-251,0,0,0,0,0,0,0,0,0,-1,1791,1275,0,0
574,-251,0,0,0,0,0,0,0,0,0,-1,1798,1275,0,0
581,-251,0,0,0,0,0,0,0,0,0,-1,1805,1275,0,0
588,-251,0,0,0,0,0,0,0,0,0,-1,1812,1275,0,0
595,-251,0,0,0,0,0,0,0,0,0,-1,1819,1275,0,0
602,-251,0,0,0,0,0,0,0,0,0,-1,1826,1275,0,0
609,-251,52.8032,2.56201,-0.000987217,0.00321741,0.00112651,0.0035002,-0.00127001,1.32484,0.00285265,0.0294887,1833,1275,52.8032,-2.56202
616,-251,52.8167,2.56323,-0.00157926,0.00554385,0.000387787,0.0055649,-0.00160031,1.51657,0.00434279,0.0265925,1840,1275,52.8166,-2.5632
623,-251,52.8381,2.60803,-0.0015406,0.00728822,-0.00029643,0.00729816,-0.00155054,-1.53727,0.00545623,0.0241462,1847,1275,52.8381,-2.60802
630,-251,52.8221,2.57104,-0.000990319,0.00822181,-0.00101624,0.00833259,-0.00110109,-1.46222,0.00595611,0.0339747,1854,1275,52.8222,-2.57106
637,-251,52.854,2.48181,-6.29238e-05,0.00733674,-0.00130041,0.00755862,-0.000284805,-1.4018,0.00513665,0.039064,1861,1275,52.854,-2.4818
644,-251,52.9288,2.48071,0.000579966,0.0060808,-0.00152473,0.00647516,0.000185611,-1.3177,0.00425625,0.0466675,1868,1275,52.9288,-2.48067
651,-251,52.9703,2.4989,0,0,0,0,0,0,0,-1,1875,1275,52.9704,-2.49896
658,-251,51.5793,1.25964,0,0,0,0,0,0,0,-1,1882,1275,51.5793,-1.2597
665,-251,32.9579,2.60229,0,0,0,0,0,0,0,-1,1889,1275,32.9579,-2.60231
672,-251,26.0721,4.53064,0,0,0,0,0,0,0,-1,1896,1275,26.0721,-4.53063
679,-251,29.1344,8.63782,0,0,0,0,0,0,0,-1,1903,1275,29.1344,-8.63778
686,-251,39.4631,10.7438,0,0,0,0,0,0,0,-1,1910,1275,39.4632,-10.7438
693,-251,39.3938,10.2682,0.00209049,-0.000564989,-0.000750437,0.00228789,-0.000762388,-0.257219,0.00183302,0.0156,1917,1275,39.3938,-10.2682
700,-251,39.3601,9.755,0.00183357,-0.000946499,-0.000479277,0.00191387,-0.00102681,-0.166015,0.00172336,0.00928113,1924,1275,39.3601,-9.75504
707,-251,39.3832,9.2323,0.000983712,-0.000882391,-0.000170464,0.000999155,-0.000897835,-0.0903513,0.00109575,0.0108582,1931,1275,39.3832,-9.23233
714,-251,39.3988,8.73425,-7.85134e-05,-0.000704729,0.000490119,0.000189974,-0.000973216,0.501153,0.000720533,0.0146766,1938,1275,39.3988,-8.7342
721,-251,39.316,8.25317,-0.000678249,-0.00059142,0.00126466,0.000630569,-0.00190024,0.802556,0.00152122,0.0221983,1945,1275,39.316,-8.25317
728,-251,39.2939,7.79358,-0.00104643,-0.000674745,0.00216343,0.00131082,-0.00303199,0.828243,0.00257212,0.0253848,1952,1275,39.2939,-7.79359
735,-251,39.2875,7.20447,-0.00114312,-0.000847232,0.00307013,0.00207852,-0.00406887,0.809473,0.00361067,0.0203979,1959,1275,39.2875,-7.20444
742,-251,39.2174,6.80896,-0.000846527,-0.00114686,0.00398591,0.00299205,-0.00498544,0.76657,0.00465349,0.0192199,1966,1275,39.2174,-6.80892
749,-251,38.9839,6.56519,6.69967e-05,-0.00159662,0.00486826,0.004174,-0.00570362,0.700783,0.00572559,0.0386384,1973,1275,38.9839,-6.5652
756,-251,38.6721,6.25317,0,0,0,0,0,0,0,-1,1980,1275,38.6721,-6.25314
763,-251,38.762,5.7384,0,0,0,0,0,0,0,-1,1987,1275,38.7619,-5.7384
770,-251,39.3262,5.43823,0,0,0,0,0,0,0,-1,1994,1275,39.3261,-5.43819
777,-251,31.5731,4.33252,0,0,0,0,0,0,0,-1,2001,1275,31.5731,-4.33251
784,-251,32.0776,5.78247,0,0,0,0,0,0,0,-1,2008,1275,32.0776,-5.78247
791,-251,0,0,0,0,0,0,0,0,0,-1,2015,1275,0,0
798,-251,0,0,0,0,0,0,0,0,0,-1,2022,1275,0,0
805,-251,0,0,0,0,0,0,0,0,0,-1,2029,1275,0,0
812,-251,0,0,0,0,0,0,0,0,0,-1,2036,1275,0,0
-700,-258,0,0,0,0,0,0,0,0,0,-1,524,1282,0,0
-693,-258,0,0,0,0,0,0,0,0,0,-1,531,1282,0,0
-686,-258,0,0,0,0,0,0,0,0,0,-1,538,1282,0,0
-679,-258,0,0,0,0,0,0,0,0,0,-1,545,1282,0,0
-672,-258,0,0,0,0,0,0,0,0,0,-1,552,1282,0,0
-665,-258,-34.4321,-1.3584,0,0,0,0,0,0,0,-1,559,1282,-34.4321,1.35836
-658,-258,-33.4001,-3.81177,0,0,0,0,0,0,0,-1,566,1282,-33.4002,3.81183
-651,-258,-24.9134,-0.580811,0,0,0,0,0,0,0,-1,573,1282,-24.9134,0.580846
-644,-258,-34.2102,-2.21521,0,0,0,0,0,0,0,-1,580,1282,-34.2102,2.21526
-637,-258,-24.1578,1.00342,0,0,0,0,0,0,0,-1,587,1282,-24.1579,-1.00336
-630,-258,-25.1896,2.7345,0,0,0,0,0,0,0,-1,594,1282,-25.1896,-2.73446
-623,-258,-24.1902,3.17871,0,0,0,0,0,0,0,-1,601,1282,-24.1902,-3.17869
-616,-258,-24.2671,3.729,0.0131983,0.00263458,-0.000713849,0.0132463,0.00258656,-0.0671686,0.00810741,0.0347289,608,1282,-24.2671,-3.72905
-609,-258,-24.2454,4.27209,0.00895469,0.00245114,-0.000300833,0.00896858,0.00243725,-0.0461255,0.00535483,0.0176494,615,1282,-24.2454,-4.27211
-602,-258,-24.278,4.849,0.00620969,0.0018766,1.76731e-05,0.00620976,0.00187652,0.00407854,0.00367754,0.0144688,622,1282,-24.278,-4.84895
-595,-258,-24.3233,5.39343,0.00441673,0.00116126,0.000234768,0.00443358,0.00114442,0.071621,0.00265769,0.0117756,629,1282,-24.3233,-5.39338
-588,-258,-24.3441,5.93738,0.00337961,0.000368891,0.000415461,0.00343588,0.000312611,0.134642,0.00219382,0.0123028,636,1282,-24.3441,-5.93744
-581,-258,-24.3461,6.47278,0.00293854,-0.000471772,0.000588155,0.00303713,-0.000570357,0.166074,0.00223921,0.0142888,643,1282,-24.3461,-6.47276
-574,-258,-24.3342,7.01428,0.00300645,-0.00136153,0.000724485,0.00312348,-0.00147856,0.160151,0.00271298,0.0154028,650,1282,-24.3342,-7.01434
-567,-258,-24.3789,7.59131,0.00356841,-0.00215,0.000809986,0.00368093,-0.00226252,0.138029,0.00346387,0.0151126,657,1282,-24.3789,-7.59128
-560,-258,-24.392,8.19885,0.00345252,-0.0025192,0.0010068,0.0036177,-0.00268437,0.162609,0.00365178,0.0413868,664,1282,-24.392,-8.19888
-553,-258,-24.285,8.81201,0,0,0,0,0,0,0,-1,671,1282,-24.285,-8.81207
-546,-258,-14.2231,5.92029,0,0,0,0,0,0,0,-1,678,1282,-14.2231,-5.92028
-539,-258,-10.2228,4.05823,0,0,0,0,0,0,0,-1,685,1282,-10.2228,-4.05823
-532,-258,-10.2173,-0.353882,0,0,0,0,0,0,0,-1,692,1282,-10.2173,0.353836
-525,-258,-21.8661,-1.5929,0,0,0,0,0,0,0,-1,699,1282,-21.8661,1.59285
-518,-258,-29.2484,0.123169,0,0,0,0,0,0,0,-1,706,1282,-29.2484,-0.123186
-511,-258,-23.5061,1.16833,0,0,0,0,0,0,0,-1,713,1282,-23.5061,-1.16833
-504,-258,-22.9178,0.484131,0,0,0,0,0,0,0,-1,720,1282,-22.9178,-0.484106
-497,-258,-17.8047,0.730469,0,0,0,0,0,0,0,-1,727,1282,-17.8048,-0.730489
-490,-258,-15.4346,0.632935,0,0,0,0,0,0,0,-1,734,1282,-15.4346,-0.632917
-483,-258,0,0,0,0,0,0,0,0,0,-1,741,1282,0,0
-476,-258,0,0,0,0,0,0,0,0,0,-1,748,1282,0,0
-469,-258,0,0,0,0,0,0,0,0,0,-1,755,1282,0,0
-462,-258,0,0,0,0,0,0,0,0,0,-1,762,1282,0,0
-455,-258,0,0,0,0,0,0,0,0,0,-1,769,1282,0,0
-448,-258,0,0,0,0,0,0,0,0,0,-1,776,1282,0,0
-441,-258,0,0,0,0,0,0,0,0,0,-1,783,1282,0,0
-434,-258,0,0,0,0,0,0,0,0,0,-1,790,1282,0,0
-427,-258,0,0,0,0,0,0,0,0,0,-1,797,1282,0,0
-420,-258,0,0,0,0,0,0,0,0,0,-1,804,1282,0,0
-413,-258,0,0,0,0,0,0,0,0,0,-1,811,1282,0,0
-406,-258,0,0,0,0,0,0,0,0,0,-1,818,1282,0,0
-399,-258,0,0,0,0,0,0,0,0,0,-1,825,1282,0,0
-392,-258,0,0,0,0,0,0,0,0,0,-1,832,1282,0,0
-385,-258,0,0,0,0,0,0,0,0,0,-1,839,1282,0,0
-378,-258,0,0,0,0,0,0,0,0,0,-1,846,1282,0,0
-371,-258,0,0,0,0,0,0,0,0,0,-1,853,1282,0,0
-364,-258,0,0,0,0,0,0,0,0,0,-1,860,1282,0,0
-357,-258,0,0,0,0,0,0,0,0,0,-1,867,1282,0,0
-350,-258,0,0,0,0,0,0,0,0,0,-1,874,1282,0,0
-343,-258,0,0,0,0,0,0,0,0,0,-1,881,1282,0,0
-336,-258,0,0,0,0,0,0,0,0,0,-1,888,1282,0,0
-329,-258,0,0,0,0,0,0,0,0,0,-1,895,1282,0,0
-322,-258,0,0,0,0,0,0,0,0,0,-1,902,1282,0,0
-315,-258,0,0,0,0,0,0,0,0,0,-1,909,1282,0,0
-308,-258,0,0,0,0,0,0,0,0,0,-1,916,1282,0,0
-301,-258,0,0,0,0,0,0,0,0,0,-1,923,1282,0,0
-294,-258,0,0,0,0,0,0,0,0,0,-1,930,1282,0,0
-287,-258,0,0,0,0,0,0,0,0,0,-1,937,1282,0,0
-280,-258,0,0,0,0,0,0,0,0,0,-1,944,1282,0,0
-273,-258,0,0,0,0,0,0,0,0,0,-1,951,1282,0,0
-266,-258,0,0,0,0,0,0,0,0,0,-1,958,1282,0,0
-259,-258,0,0,0,0,0,0,0,0,0,-1,965,1282,0,0
-252,-258,0,0,0,0,0,0,0,0,0,-1,972,1282,0,0
-245,-258,0,0,0,0,0,0,0,0,0,-1,979,1282,0,0
-238,-258,0,0,0,0,0,0,0,0,0,-1,986,1282,0,0
-231,-258,0,0,0,0,0,0,0,0,0,-1,993,1282,0,0
-224,-258,0,0,0,0,0,0,0,0,0,-1,1000,1282,0,0
-217,-258,0,0,0,0,0,0,0,0,0,-1,1007,1282,0,0
-210,-258,0,0,0,0,0,0,0,0,0,-1,1014,1282,0,0
-203,-258,0,0,0,0,0,0,0,0,0,-1,1021,1282,0,0
-196,-258,0,0,0,0,0,0,0,0,0,-1,1028,1282,0,0
-189,-258,0,0,0,0,0,0,0,0,0,-1,1035,1282,0,0
-182,-258,0,0,0,0,0,0,0,0,0,-1,1042,1282,0,0
-175,-258,0,0,0,0,0,0,0,0,0,-1,1049,1282,0,0
-168,-258,0,0,0,0,0,0,0,0,0,-1,1056,1282,0,0
-161,-258,0,0,0,0,0,0,0,0,0,-1,1063,1282,0,0
-154,-258,0,0,0,0,0,0,0,0,0,-1,1070,1282,0,0
-147,-258,0,0,0,0,0,0,0,0,0,-1,1077,1282,0,0
-140,-258,0,0,0,0,0,0,0,0,0,-1,1084,1282,0,0
-133,-258,0,0,0,0,0,0,0,0,0,-1,1091,1282,0,0
-126,-258,0,0,0,0,0,0,0,0,0,-1,1098,1282,0,0
-119,-258,0,0,0,0,0,0,0,0,0,-1,1105,1282,0,0
-112,-258,0,0,0,0,0,0,0,0,0,-1,1112,1282,0,0
-105,-258,0,0,0,0,0,0,0,0,0,-1,1119,1282,0,0
-98,-258,0,0,0,0,0,0,0,0,0,-1,1126,1282,0,0
-91,-258,0,0,0,0,0,0,0,0,0,-1,1133,1282,0,0
-84,-258,0,0,0,0,0,0,0,0,0,-1,1140,1282,0,0
-77,-258,0,0,0,0,0,0,0,0,0,-1,1147,1282,0,0
-70,-258,0,0,0,0,0,0,0,0,0,-1,1154,1282,0,0
-63,-258,0,0,0,0,0,0,0,0,0,-1,1161,1282,0,0
-56,-258,0,0,0,0,0,0,0,0,0,-1,1168,1282,0,0
-49,-258,0,0,0,0,0,0,0,0,0,-1,1175,1282,0,0
-42,-258,0,0,0,0,0,0,0,0,0,-1,1182,1282,0,0
-35,-258,0,0,0,0,0,0,0,0,0,-1,1189,1282,0,0
-28,-258,0,0,0,0,0,0,0,0,0,-1,1196,1282,0,0
-21,-258,0,0,0,0,0,0,0,0,0,-1,1203,1282,0,0
-14,-258,0,0,0,0,0,0,0,0,0,-1,1210,1282,0,0
-7,-258,0,0,0,0,0,0,0,0,0,-1,1217,1282,0,0
0,-258,0,0,0,0,0,0,0,0,0,-1,1224,1282,0,0
7,-258,0,0,0,0,0,0,0,0,0,-1,1231,1282,0,0
14,-258,0,0,0,0,0,0,0,0,0,-1,1238,1282,0,0
21,-258,0,0,0,0,0,0,0,0,0,-1,1245,1282,0,0
28,-258,0,0,0,0,0,0,0,0,0,-1,1252,1282,0,0
35,-258,0,0,0,0,0,0,0,0,0,-1,1259,1282,0,0
42,-258,0,0,0,0,0,0,0,0,0,-1,1266,1282,0,0
49,-258,0,0,0,0,0,0,0,0,0,-1,1273,1282,0,0
56,-258,0,0,0,0,0,0,0,0,0,-1,1280,1282,0,0
63,-258,0,0,0,0,0,0,0,0,0,-1,1287,1282,0,0
70,-258,0,0,0,0,0,0,0,0,0,-1,1294,1282,0,0
77,-258,0,0,0,0,0,0,0,0,0,-1,1301,1282,0,0
84,-258,0,0,0,0,0,0,0,0,0,-1,1308,1282,0,0
91,-258,0,0,0,0,0,0,0,0,0,-1,1315,1282,0,0
98,-258,0,0,0,0,0,0,0,0,0,-1,1322,1282,0,0
105,-258,0,0,0,0,0,0,0,0,0,-1,1329,1282,0,0
112,-258,0,0,0,0,0,0,0,0,0,-1,1336,1282,0,0
119,-258,0,0,0,0,0,0,0,0,0,-1,1343,1282,0,0
126,-258,0,0,0,0,0,0,0,0,0,-1,1350,1282,0,0
133,-258,0,0,0,0,0,0,0,0,0,-1,1357,1282,0,0
140,-258,0,0,0,0,0,0,0,0,0,-1,1364,1282,0,0
147,-258,0,0,0,0,0,0,0,0,0,-1,1371,1282,0,0
154,-258,0,0,0,0,0,0,0,0,0,-1,1378,1282,0,0
161,-258,0,0,0,0,0,0,0,0,0,-1,1385,1282,0,0
168,-258,0,0,0,0,0,0,0,0,0,-1,1392,1282,0,0
175,-258,0,0,0,0,0,0,0,0,0,-1,1399,1282,0,0
182,-258,0,0,0,0,0,0,0,0,0,-1,1406,1282,0,0
189,-258,0,0,0,0,0,0,0,0,0,-1,1413,1282,0,0
196,-258,0,0,0,0,0,0,0,0,0,-1,1420,1282,0,0
203,-258,0,0,0,0,0,0,0,0,0,-1,1427,1282,0,0
210,-258,0,0,0,0,0,0,0,0,0,-1,1434,1282,0,0
217,-258,0,0,0,0,0,0,0,0,0,-1,1441,1282,0,0
224,-258,0,0,0,0,0,0,0,0,0,-1,1448,1282,0,0
231,-258,0,0,0,0,0,0,0,0,0,-1,1455,1282,0,0
238,-258,0,0,0,0,0,0,0,0,0,-1,1462,1282,0,0
245,-258,0,0,0,0,0,0,0,0,0,-1,1469,1282,0,0
252,-258,0,0,0,0,0,0,0,0,0,-1,1476,1282,0,0
259,-258,0,0,0,0,0,0,0,0,0,-1,1483,1282,0,0
266,-258,0,0,0,0,0,0,0,0,0,-1,1490,1282,0,0
273,-258,0,0,0,0,0,0,0,0,0,-1,1497,1282,0,0
280,-258,0,0,0,0,0,0,0,0,0,-1,1504,1282,0,0
287,-258,0,0,0,0,0,0,0,0,0,-1,1511,1282,0,0
294,-258,0,0,0,0,0,0,0,0,0,-1,1518,1282,0,0
301,-258,0,0,0,0,0,0,0,0,0,-1,1525,1282,0,0
308,-258,0,0,0,0,0,0,0,0,0,-1,1532,1282,0,0
315,-258,0,0,0,0,0,0,0,0,0,-1,1539,1282,0,0
322,-258,0,0,0,0,0,0,0,0,0,-1,1546,1282,0,0
329,-258,0,0,0,0,0,0,0,0,0,-1,1553,1282,0,0
336,-258,0,0,0,0,0,0,0,0,0,-1,1560,1282,0,0
343,-258,0,0,0,0,0,0,0,0,0,-1,1567,1282,0,0
350,-258,0,0,0,0,0,0,0,0,0,-1,1574,1282,0,0
357,-258,0,0,0,0,0,0,0,0,0,-1,1581,1282,0,0
364,-258,0,0,0,0,0,0,0,0,0,-1,1588,1282,0,0
371,-258,0,0,0,0,0,0,0,0,0,-1,1595,1282,0,0
378,-258,0,0,0,0,0,0,0,0,0,-1,1602,1282,0,0
385,-258,0,0,0,0,0,0,0,0,0,-1,1609,1282,0,0
392,-258,0,0,0,0,0,0,0,0,0,-1,1616,1282,0,0
399,-258,0,0,0,0,0,0,0,0,0,-1,1623,1282,0,0
406,-258,0,0,0,0,0,0,0,0,0,-1,1630,1282,0,0
413,-258,0,0,0,0,0,0,0,0,0,-1,1637,1282,0,0
420,-258,0,0,0,0,0,0,0,0,0,-1,1644,1282,0,0
427,-258,0,0,0,0,0,0,0,0,0,-1,1651,1282,0,0
434,-258,0,0,0,0,0,0,0,0,0,-1,1658,1282,0,0
441,-258,0,0,0,0,0,0,0,0,0,-1,1665,1282,0,0
448,-258,0,0,0,0,0,0,0,0,0,-1,1672,1282,0,0
455,-258,0,0,0,0,0,0,0,0,0,-1,1679,1282,0,0
462,-258,0,0,0,0,0,0,0,0,0,-1,1686,1282,0,0
469,-258,0,0,0,0,0,0,0,0,0,-1,1693,1282,0,0
476,-258,0,0,0,0,0,0,0,0,0,-1,1700,1282,0,0
483,-258,0,0,0,0,0,0,0,0,0,-1,1707,1282,0,0
490,-258,0,0,0,0,0,0,0,0,0,-1,1714,1282,0,0
497,-258,0,0,0,0,0,0,0,0,0,-1,1721,1282,0,0
504,-258,0,0,0,0,0,0,0,0,0,-1,1728,1282,0,0
511,-258,0,0,0,0,0,0,0,0,0,-1,1735,1282,0,0
518,-258,0,0,0,0,0,0,0,0,0,-1,1742,1282,0,0
525,-258,0,0,0,0,0,0,0,0,0,-1,1749,1282,0,0
532,-258,0,0,0,0,0,0,0,0,0,-1,1756,1282,0,0
539,-258,0,0,0,0,0,0,0,0,0,-1,1763,1282,0,0
546,-258,0,0,0,0,0,0,0,0,0,-1,1770,1282,0,0
553,-258,0,0,0,0,0,0,0,0,0,-1,1777,1282,0,0
560,-258,0,0,0,0,0,0,0,0,0,-1,1784,1282,0,0
567,-258,0,0,0,0,0,0,0,0,0,-1,1791,1282,0,0
574,-258,0,0,0,0,0,0,0,0,0,-1,1798,1282,0,0
581,-258,0,0,0,0,0,0,0,0,0,-1,1805,1282,0,0
588,-258,0,0,0,0,0,0,0,0,0,-1,1812,1282,0,0
595,-258,0,0,0,0,0,0,0,0,0,-1,1819,1282,0,0
602,-258,0,0,0,0,0,0,0,0,0,-1,1826,1282,0,0
609,-258,52.8654,2.60498,-0.00241115,0.00527647,0.00158979,0.00559226,-0.00272694,1.37471,0.00489714,0.0238393,1833,1282,52.8654,-2.60493
616,-258,52.8015,2.61365,-0.00296865,0.00778996,0.000940091,0.00787149,-0.00305018,1.48429,0.0065072,0.0232966,1840,1282,52.8015,-2.61369
623,-258,52.7998,2.62012,-0.00288447,0.00926134,0.000273086,0.00926748,-0.0028906,1.54833,0.00733425,0.034774,1847,1282,52.7999,-2.62011
630,-258,52.8655,2.53345,-0.00218252,0.00937488,-0.000446196,0.00939208,-0.00219972,-1.53227,0.00710899,0.0426089,1854,1282,52.8655,-2.53342
637,-258,52.9958,2.23694,-0.00115386,0.00792894,-0.000782595,0.00799588,-0.00122079,-1.48547,0.00578065,0.0430586,1861,1282,52.9958,-2.23698
644,-258,52.9711,2.35681,0,0,0,0,0,0,0,-1,1868,1282,52.9711,-2.35678
651,-258,51.3306,2.6759,0,0,0,0,0,0,0,-1,1875,1282,51.3305,-2.67593
658,-258,45.4424,3.1405,0,0,0,0,0,0,0,-1,1882,1282,45.4423,-3.14046
665,-258,35.4747,1.1864,0,0,0,0,0,0,0,-1,1889,1282,35.4747,-1.18637
672,-258,22.703,2.80957,0,0,0,0,0,0,0,-1,1896,1282,22.703,-2.80962
679,-258,26.8693,8.19543,0,0,0,0,0,0,0,-1,1903,1282,26.8692,-8.19548
686,-258,38.9882,10.8124,0,0,0,0,0,0,0,-1,1910,1282,38.9881,-10.8124
693,-258,38.9309,10.2855,0.00155753,-0.000168265,-0.000626856,0.00176119,-0.000371923,-0.314131,0.00131574,0.0146726,1917,1282,38.9309,-10.2855
700,-258,38.8868,9.7511,0.00127209,-0.000467719,-0.000305138,0.00132406,-0.000519684,-0.168681,0.00109773,0.00941623,1924,1282,38.8868,-9.75108
707,-258,38.8784,9.24158,0.000469191,-0.000444893,7.24688e-05,0.000474901,-0.000450603,0.0786256,0.000534401,0.0112468,1931,1282,38.8784,-9.24162
714,-258,38.87,8.75208,-0.000460275,-0.000415044,0.000761497,0.000324174,-0.00119949,0.800243,0.000926814,0.0119433,1938,1282,38.87,-8.75211
721,-258,38.84,8.24597,-0.00096364,-0.000495028,0.001533,0.000821469,-0.00228014,0.861232,0.00185555,0.0197533,1945,1282,38.8399,-8.24594
728,-258,38.7819,7.77356,-0.00139,-0.000719478,0.00242259,0.00139094,-0.00350042,0.854157,0.00291025,0.0193628,1952,1282,38.7818,-7.77359
735,-258,38.8116,7.24646,-0.00160841,-0.00101996,0.00332826,0.00202706,-0.00465543,0.829484,0.00395636,0.0178873,1959,1282,38.8117,-7.24647
742,-258,38.7966,6.81726,-0.00147198,-0.00145284,0.00425985,0.00279745,-0.00572227,0.786522,0.00501455,0.0192524,1966,1282,38.7966,-6.81725
749,-258,38.6516,6.52319,-0.000745361,-0.00205143,0.00514709,0.00378996,-0.00658675,0.722298,0.00606309,0.0398056,1973,1282,38.6516,-6.52324
756,-258,38.5084,6.1051,0,0,0,0,0,0,0,-1,1980,1282,38.5084,-6.10504
763,-258,37.2795,5.42163,0,0,0,0,0,0,0,-1,1987,1282,37.2795,-5.4216
770,-258,38.2802,4.62402,0,0,0,0,0,0,0,-1,1994,1282,38.2801,-4.62405
777,-258,31.912,4.83093,0,0,0,0,0,0,0,-1,2001,1282,31.912,-4.8309
784,-258,32.6525,6.43091,0,0,0,0,0,0,0,-1,2008,1282,32.6525,-6.43091
791,-258,0,0,0,0,0,0,0,0,0,-1,2015,1282,0,0
798,-258,0,0,0,0,0,0,0,0,0,-1,2022,1282,0,0
805,-258,0,0,0,0,0,0,0,0,0,-1,2029,1282,0,0
812,-258,0,0,0,0,0,0,0,0,0,-1,2036,1282,0,0
-700,-265,0,0,0,0,0,0,0,0,0,-1,524,1289,0,0
-693,-265,0,0,0,0,0,0,0,0,0,-1,531,1289,0,0
-686,-265,0,0,0,0,0,0,0,0,0,-1,538,1289,0,0
-679,-265,0,0,0,0,0,0,0,0,0,-1,545,1289,0,0
-672,-265,0,0,0,0,0,0,0,0,0,-1,552,1289,0,0
-665,-265,-22.1805,0.142822,0,0,0,0,0,0,0,-1,559,1289,-22.1805,-0.142782
-658,-265,-21.2094,0.122192,0,0,0,0,0,0,0,-1,566,1289,-21.2094,-0.122208
-651,-265,-24.4069,-0.402222,0,0,0,0,0,0,0,-1,573,1289,-24.4069,0.40227
-644,-265,-23.9407,0.358154,0,0,0,0,0,0,0,-1,580,1289,-23.9408,-0.358129
-637,-265,-23.5628,1.00549,0,0,0,0,0,0,0,-1,587,1289,-23.5628,-1.00546
-630,-265,-22.9382,2.09973,0,0,0,0,0,0,0,-1,594,1289,-22.9382,-2.09972
-623,-265,-23.5336,2.92383,0,0,0,0,0,0,0,-1,601,1289,-23.5336,-2.92378
-616,-265,-23.6102,3.56299,0.0145349,0.00372758,5.38155e-05,0.0145351,0.00372731,0.00497938,0.00871745,0.0454206,608,1289,-23.6102,-3.56302
-609,-265,-23.6787,4.27271,0.0097833,0.00336243,0.000306058,0.00979786,0.00334788,0.0475226,0.00575053,0.0193135,615,1289,-23.6787,-4.27269
-602,-265,-23.7214,4.86755,0.00673379,0.00262743,0.000492528,0.00679204,0.00256918,0.117718,0.00395994,0.0147297,622,1289,-23.7214,-4.86752
-595,-265,-23.7526,5.43555,0.00472364,0.00178194,0.000579969,0.00483385,0.00167172,0.187795,0.0028347,0.0124066,629,1289,-23.7526,-5.43556
-588,-265,-23.7766,5.97607,0.00351507,0.000897097,0.000641009,0.00366359,0.000748572,0.227687,0.00223505,0.0111861,636,1289,-23.7766,-5.97602
-581,-265,-23.7868,6.50598,0.00290774,4.60982e-07,0.000707829,0.00307091,-0.000162714,0.226571,0.00210361,0.0131058,643,1289,-23.7868,-6.50598
-574,-265,-23.8193,7.08667,0.0027856,-0.000862821,0.000784506,0.00294714,-0.00102436,0.203071,0.00238084,0.0151215,650,1289,-23.8193,-7.08669
-567,-265,-23.8907,7.67139,0.00330097,-0.00170203,0.000840703,0.00343846,-0.00183953,0.16211,0.00309351,0.0211813,657,1289,-23.8907,-7.67143
-560,-265,-23.9261,8.24194,0.00351493,-0.00227321,0.0010256,0.00369128,-0.00244957,0.170286,0.0035695,0.0250806,664,1289,-23.9261,-8.24189
-553,-265,-23.9264,8.80493,0,0,0,0,0,0,0,-1,671,1289,-23.9264,-8.80497
-546,-265,-22.7913,9.38025,0,0,0,0,0,0,0,-1,678,1289,-22.7912,-9.38028
-539,-265,-13.7668,6.39917,0,0,0,0,0,0,0,-1,685,1289,-13.7668,-6.39915
-532,-265,-8.53998,3.41467,0,0,0,0,0,0,0,-1,692,1289,-8.53996,-3.41473
-525,-265,-12.1317,0.514648,0,0,0,0,0,0,0,-1,699,1289,-12.1317,-0.514634
-518,-265,-24.1604,0.712402,0,0,0,0,0,0,0,-1,706,1289,-24.1604,-0.712425
-511,-265,-23.233,0.791626,0,0,0,0,0,0,0,-1,713,1289,-23.233,-0.791617
-504,-265,-22.3056,0.87085,0,0,0,0,0,0,0,-1,720,1289,-22.3056,-0.87081
-497,-265,-18.689,-0.278442,0,0,0,0,0,0,0,-1,727,1289,-18.689,0.278423
-490,-265,-15.1696,0.492676,0,0,0,0,0,0,0,-1,734,1289,-15.1696,-0.492688
-483,-265,0,0,0,0,0,0,0,0,0,-1,741,1289,0,0
-476,-265,0,0,0,0,0,0,0,0,0,-1,748,1289,0,0
-469,-265,0,0,0,0,0,0,0,0,0,-1,755,1289,0,0
-462,-265,0,0,0,0,0,0,0,0,0,-1,762,1289,0,0
-455,-265,0,0,0,0,0,0,0,0,0,-1,769,1289,0,0
-448,-265,0,0,0,0,0,0,0,0,0,-1,776,1289,0,0
-441,-265,0,0,0,0,0,0,0,0,0,-1,783,1289,0,0
-434,-265,0,0,0,0,0,0,0,0,0,-1,790,1289,0,0
-427,-265,0,0,0,0,0,0,0,0,0,-1,797,1289,0,0
-420,-265,0,0,0,0,0,0,0,0,0,-1,804,1289,0,0
-413,-265,0,0,0,0,0,0,0,0,0,-1,811,1289,0,0
-406,-265,0,0,0,0,0,0,0,0,0,-1,818,1289,0,0
-399,-265,0,0,0,0,0,0,0,0,0,-1,825,1289,0,0
-392,-265,0,0,0,0,0,0,0,0,0,-1,832,1289,0,0
-385,-265,0,0,0,0,0,0,0,0,0,-1,839,1289,0,0
-378,-265,0,0,0,0,0,0,0,0,0,-1,846,1289,0,0
-371,-265,0,0,0,0,0,0,0,0,0,-1,853,1289,0,0
-364,-265,0,0,0,0,0,0,0,0,0,-1,860,1289,0,0
-357,-265,0,0,0,0,0,0,0,0,0,-1,867,1289,0,0
-350,-265,0,0,0,0,0,0,0,0,0,-1,874,1289,0,0
-343,-265,0,0,0,0,0,0,0,0,0,-1,881,1289,0,0
-336,-265,0,0,0,0,0,0,0,0,0,-1,888,1289,0,0
-329,-265,0,0,0,0,0,0,0,0,0,-1,895,1289,0,0
-322,-265,0,0,0,0,0,0,0,0,0,-1,902,1289,0,0
-315,-265,0,0,0,0,0,0,0,0,0,-1,909,1289,0,0
-308,-265,0,0,0,0,0,0,0,0,0,-1,916,1289,0,0
-301,-265,0,0,0,0,0,0,0,0,0,-1,923,1289,0,0
-294,-265,0,0,0,0,0,0,0,0,0,-1,930,1289,0,0
-287,-265,0,0,0,0,0,0,0,0,0,-1,937,1289,0,0
-280,-265,0,0,0,0,0,0,0,0,0,-1,944,1289,0,0
-273,-265,0,0,0,0,0,0,0,0,0,-1,951,1289,0,0
-266,-265,0,0,0,0,0,0,0,0,0,-1,958,1289,0,0
-259,-265,0,0,0,0,0,0,0,0,0,-1,965,1289,0,0
-252,-265,0,0,0,0,0,0,0,0,0,-1,972,1289,0,0
-245,-265,0,0,0,0,0,0,0,0,0,-1,979,1289,0,0
-238,-265,0,0,0,0,0,0,0,0,0,-1,986,1289,0,0
-231,-265,0,0,0,0,0,0,0,0,0,-1,993,1289,0,0
-224,-265,0,0,0,0,0,0,0,0,0,-1,1000,1289,0,0
-217,-265,0,0,0,0,0,0,0,0,0,-1,1007,1289,0,0
-210,-265,0,0,0,0,0,0,0,0,0,-1,1014,1289,0,0
-203,-265,0,0,0,0,0,0,0,0,0,-1,1021,1289,0,0
-196,-265,0,0,0,0,0,0,0,0,0,-1,1028,1289,0,0
-189,-265,0,0,0,0,0,0,0,0,0,-1,1035,1289,0,0
-182,-265,0,0,0,0,0,0,0,0,0,-1,1042,1289,0,0
-175,-265,0,0,0,0,0,0,0,0,0,-1,1049,1289,0,0
-168,-265,0,0,0,0,0,0,0,0,0,-1,1056,1289,0,0
-161,-265,0,0,0,0,0,0,0,0,0,-1,1063,1289,0,0
-154,-265,0,0,0,0,0,0,0,0,0,-1,1070,1289,0,0
-147,-265,0,0,0,0,0,0,0,0,0,-1,1077,1289,0,0
-140,-265,0,0,0,0,0,0,0,0,0,-1,1084,1289,0,0
-133,-265,0,0,0,0,0,0,0,0,0,-1,1091,1289,0,0
-126,-265,0,0,0,0,0,0,0,0,0,-1,1098,1289,0,0
-119,-265,0,0,0,0,0,0,0,0,0,-1,1105,1289,0,0
-112,-265,0,0,0,0,0,0,0,0,0,-1,1112,1289,0,0
-105,-265,0,0,0,0,0,0,0,0,0,-1,1119,1289,0,0
-98,-265,0,0,0,0,0,0,0,0,0,-1,1126,1289,0,0
-91,-265,0,0,0,0,0,0,0,0,0,-1,1133,1289,0,0
-84,-265,0,0,0,0,0,0,0,0,0,-1,1140,1289,0,0
-77,-265,0,0,0,0,0,0,0,0,0,-1,1147,1289,0,0
-70,-265,0,0,0,0,0,0,0,0,0,-1,1154,1289,0,0
-63,-265,0,0,0,0,0,0,0,0,0,-1,1161,1289,0,0
-56,-265,0,0,0,0,0,0,0,0,0,-1,1168,1289,0,0
-49,-265,0,0,0,0,0,0,0,0,0,-1,1175,1289,0,0
-42,-265,0,0,0,0,0,0,0,0,0,-1,1182,1289,0,0
-35,-265,0,0,0,0,0,0,0,0,0,-1,1189,1289,0,0
-28,-265,0,0,0,0,0,0,0,0,0,-1,1196,1289,0,0
-21,-265,0,0,0,0,0,0,0,0,0,-1,1203,1289,0,0
-14,-265,0,0,0,0,0,0,0,0,0,-1,1210,1289,0,0
-7,-265,0,0,0,0,0,0,0,0,0,-1,1217,1289,0,0
0,-265,0,0,0,0,0,0,0,0,0,-1,1224,1289,0,0
7,-265,0,0,0,0,0,0,0,0,0,-1,1231,1289,0,0
14,-265,0,0,0,0,0,0,0,0,0,-1,1238,1289,0,0
21,-265,0,0,0,0,0,0,0,0,0,-1,1245,1289,0,0
28,-265,0,0,0,0,0,0,0,0,0,-1,1252,1289,0,0
35,-265,0,0,0,0,0,0,0,0,0,-1,1259,1289,0,0
42,-265,0,0,0,0,0,0,0,0,0,-1,1266,1289,0,0
49,-265,0,0,0,0,0,0,0,0,0,-1,1273,1289,0,0
56,-265,0,0,0,0,0,0,0,0,0,-1,1280,1289,0,0
63,-265,0,0,0,0,0,0,0,0,0,-1,1287,1289,0,0
70,-265,0,0,0,0,0,0,0,0,0,-1,1294,1289,0,0
77,-265,0,0,0,0,0,0,0,0,0,-1,1301,1289,0,0
84,-265,0,0,0,0,0,0,0,0,0,-1,1308,1289,0,0
91,-265,0,0,0,0,0,0,0,0,0,-1,1315,1289,0,0
98,-265,0,0,0,0,0,0,0,0,0,-1,1322,1289,0,0
105,-265,0,0,0,0,0,0,0,0,0,-1,1329,1289,0,0
112,-265,0,0,0,0,0,0,0,0,0,-1,1336,1289,0,0
119,-265,0,0,0,0,0,0,0,0,0,-1,1343,1289,0,0
126,-265,0,0,0,0,0,0,0,0,0,-1,1350,1289,0,0
133,-265,0,0,0,0,0,0,0,0,0,-1,1357,1289,0,0
140,-265,0,0,0,0,0,0,0,0,0,-1,1364,1289,0,0
147,-265,0,0,0,0,0,0,0,0,0,-1,1371,1289,0,0
154,-265,0,0,0,0,0,0,0,0,0,-1,1378,1289,0,0
161,-265,0,0,0,0,0,0,0,0,0,-1,1385,1289,0,0
168,-265,0,0,0,0,0,0,0,0,0,-1,1392,1289,0,0
175,-265,0,0,0,0,0,0,0,0,0,-1,1399,1289,0,0
182,-265,0,0,0,0,0,0,0,0,0,-1,1406,1289,0,0
189,-265,0,0,0,0,0,0,0,0,0,-1,1413,1289,0,0
196,-265,0,0,0,0,0,0,0,0,0,-1,1420,1289,0,0
203,-265,0,0,0,0,0,0,0,0,0,-1,1427,1289,0,0
210,-265,0,0,0,0,0,0,0,0,0,-1,1434,1289,0,0
217,-265,0,0,0,0,0,0,0,0,0,-1,1441,1289,0,0
224,-265,0,0,0,0,0,0,0,0,0,-1,1448,1289,0,0
231,-265,0,0,0,0,0,0,0,0,0,-1,1455,1289,0,0
238,-265,0,0,0,0,0,0,0,0,0,-1,1462,1289,0,0
245,-265,0,0,0,0,0,0,0,0,0,-1,1469,1289,0,0
252,-265,0,0,0,0,0,0,0,0,0,-1,1476,1289,0,0
259,-265,0,0,0,0,0,0,0,0,0,-1,1483,1289,0,0
266,-265,0,0,0,0,0,0,0,0,0,-1,1490,1289,0,0
273,-265,0,0,0,0,0,0,0,0,0,-1,1497,1289,0,0
280,-265,0,0,0,0,0,0,0,0,0,-1,1504,1289,0,0
287,-265,0,0,0,0,0,0,0,0,0,-1,1511,1289,0,0
294,-265,0,0,0,0,0,0,0,0,0,-1,1518,1289,0,0
301,-265,0,0,0,0,0,0,0,0,0,-1,1525,1289,0,0
308,-265,0,0,0,0,0,0,0,0,0,-1,1532,1289,0,0
315,-265,0,0,0,0,0,0,0,0,0,-1,1539,1289,0,0
322,-265,0,0,0,0,0,0,0,0,0,-1,1546,1289,0,0
329,-265,0,0,0,0,0,0,0,0,0,-1,1553,1289,0,0
336,-265,0,0,0,0,0,0,0,0,0,-1,1560,1289,0,0
343,-265,0,0,0,0,0,0,0,0,0,-1,1567,1289,0,0
350,-265,0,0,0,0,0,0,0,0,0,-1,1574,1289,0,0
357,-265,0,0,0,0,0,0,0,0,0,-1,1581,1289,0,0
364,-265,0,0,0,0,0,0,0,0,0,-1,1588,1289,0,0
371,-265,0,0,0,0,0,0,0,0,0,-1,1595,1289,0,0
378,-265,0,0,0,0,0,0,0,0,0,-1,1602,1289,0,0
385,-265,0,0,0,0,0,0,0,0,0,-1,1609,1289,0,0
392,-265,0,0,0,0,0,0,0,0,0,-1,1616,1289,0,0
399,-265,0,0,0,0,0,0,0,0,0,-1,1623,1289,0,0
406,-265,0,0,0,0,0,0,0,0,0,-1,1630,1289,0,0
413,-265,0,0,0,0,0,0,0,0,0,-1,1637,1289,0,0
420,-265,0,0,0,0,0,0,0,0,0,-1,1644,1289,0,0
427,-265,0,0,0,0,0,0,0,0,0,-1,1651,1289,0,0
434,-265,0,0,0,0,0,0,0,0,0,-1,1658,1289,0,0
441,-265,0,0,0,0,0,0,0,0,0,-1,1665,1289,0,0
448,-265,0,0,0,0,0,0,0,0,0,-1,1672,1289,0,0
455,-265,0,0,0,0,0,0,0,0,0,-1,1679,1289,0,0
462,-265,0,0,0,0,0,0,0,0,0,-1,1686,1289,0,0
469,-265,0,0,0,0,0,0,0,0,0,-1,1693,1289,0,0
476,-265,0,0,0,0,0,0,0,0,0,-1,1700,1289,0,0
483,-265,0,0,0,0,0,0,0,0,0,-1,1707,1289,0,0
490,-265,0,0,0,0,0,0,0,0,0,-1,1714,1289,0,0
497,-265,0,0,0,0,0,0,0,0,0,-1,1721,1289,0,0
504,-265,0,0,0,0,0,0,0,0,0,-1,1728,1289,0,0
511,-265,0,0,0,0,0,0,0,0,0,-1,1735,1289,0,0
518,-265,0,0,0,0,0,0,0,0,0,-1,1742,1289,0,0
525,-265,0,0,0,0,0,0,0,0,0,-1,1749,1289,0,0
532,-265,0,0,0,0,0,0,0,0,0,-1,1756,1289,0,0
539,-265,0,0,0,0,0,0,0,0,0,-1,1763,1289,0,0
546,-265,0,0,0,0,0,0,0,0,0,-1,1770,1289,0,0
553,-265,0,0,0,0,0,0,0,0,0,-1,1777,1289,0,0
560,-265,0,0,0,0,0,0,0,0,0,-1,1784,1289,0,0
567,-265,0,0,0,0,0,0,0,0,0,-1,1791,1289,0,0
574,-265,0,0,0,0,0,0,0,0,0,-1,1798,1289,0,0
581,-265,0,0,0,0,0,0,0,0,0,-1,1805,1289,0,0
588,-265,0,0,0,0,0,0,0,0,0,-1,1812,1289,0,0
595,-265,0,0,0,0,0,0,0,0,0,-1,1819,1289,0,0
602,-265,52.8026,2.67798,-0.00324529,0.00560142,0.00262604,0.0063222,-0.00396608,1.30292,0.00599164,0.0262652,1826,1289,52.8026,-2.67796
609,-265,52.8091,2.56506,-0.00404914,0.00795346,0.0024958,0.00845175,-0.00454742,1.37374,0.00761708,0.0259352,1833,1289,52.8091,-2.56505
616,-265,52.8063,2.60779,-0.00458493,0.0101775,0.00198729,0.0104403,-0.00484778,1.4393,0.00902131,0.0316713,1840,1289,52.8062,-2.60775
623,-265,52.8602,2.6438,-0.00422945,0.010769,0.00126027,0.0108741,-0.00433461,1.48755,0.00904729,0.0463855,1847,1289,52.8602,-2.64377
630,-265,52.7747,2.39099,-0.00321267,0.00991304,0.000420003,0.00992646,-0.0032261,1.53884,0.00791528,0.0462454,1854,1289,52.7747,-2.39104
637,-265,52.7209,1.95874,-0.00208551,0.00823872,-9.51679e-05,0.0082396,-0.00208639,-1.56158,0.00630467,0.0469445,1861,1289,52.721,-1.95879
644,-265,52.8606,1.36646,0,0,0,0,0,0,0,-1,1868,1289,52.8606,-1.36647
651,-265,45.0878,3.73743,0,0,0,0,0,0,0,-1,1875,1289,45.0877,-3.73741
658,-265,41.7163,3.71619,0,0,0,0,0,0,0,-1,1882,1289,41.7163,-3.71624
665,-265,34.7902,1.43164,0,0,0,0,0,0,0,-1,1889,1289,34.7901,-1.43162
672,-265,20.0045,6.62671,0,0,0,0,0,0,0,-1,1896,1289,20.0045,-6.62668
679,-265,38.4237,11.3795,0,0,0,0,0,0,0,-1,1903,1289,38.4237,-11.3796
686,-265,38.405,10.839,0.00133275,0.0016889,-0.0012318,0.00275543,0.000266225,-0.857183,0.00175495,0.0386014,1910,1289,38.405,-10.839
693,-265,38.3888,10.3134,0.0011169,9.0044e-05,-0.000553598,0.00135851,-0.000151564,-0.411514,0.000960188,0.0103724,1917,1289,38.3888,-10.3133
700,-265,38.3684,9.78479,0.000807268,-0.000176045,-0.000134578,0.000825353,-0.000194131,-0.133589,0.000625077,0.0105491,1924,1289,38.3685,-9.78476
707,-265,38.3649,9.25867,7.71725e-05,-0.000223188,0.000338281,0.000297111,-0.000443127,0.576492,0.000430139,0.0107465,1931,1289,38.3648,-9.25866
714,-265,38.3447,8.76184,-0.000718317,-0.000304777,0.00104061,0.00054941,-0.0015725,0.883471,0.00127167,0.0125209,1938,1289,38.3448,-8.76179
721,-265,38.2965,8.25696,-0.00116451,-0.000504424,0.00178894,0.000984664,-0.0026536,0.876618,0.00217297,0.0138403,1945,1289,38.2965,-8.25701
728,-265,38.2635,7.77734,-0.0016558,-0.00078458,0.00264541,0.00146085,-0.00390123,0.866999,0.00320089,0.0147753,1952,1289,38.2635,-7.7774
735,-265,38.318,7.29089,-0.00198423,-0.00114909,0.00352228,0.00198029,-0.00511361,0.844398,0.00422674,0.0169011,1959,1289,38.3179,-7.29091
742,-265,38.3263,6.8385,-0.00199865,-0.00165939,0.00443914,0.00261336,-0.00627141,0.804495,0.00527255,0.020025,1966,1289,38.3263,-6.83849
749,-265,38.197,6.32141,-0.0014605,-0.00236222,0.00528911,0.00339693,-0.00721965,0.742879,0.00626053,0.0446076,1973,1289,38.1971,-6.32139
756,-265,38.1818,5.81079,0,0,0,0,0,0,0,-1,1980,1289,38.1817,-5.81081
763,-265,37.0303,5.37756,0,0,0,0,0,0,0,-1,1987,1289,37.0302,-5.37755
770,-265,35.1674,5.07715,0,0,0,0,0,0,0,-1,1994,1289,35.1673,-5.07718
777,-265,32.1664,5.3457,0,0,0,0,0,0,0,-1,2001,1289,32.1664,-5.34568
784,-265,0,0,0,0,0,0,0,0,0,-1,2008,1289,0,0
791,-265,0,0,0,0,0,0,0,0,0,-1,2015,1289,0,0
798,-265,0,0,0,0,0,0,0,0,0,-1,2022,1289,0,0
805,-265,0,0,0,0,0,0,0,0,0,-1,2029,1289,0,0
812,-265,0,0,0,0,0,0,0,0,0,-1,2036,1289,0,0
-700,-272,0,0,0,0,0,0,0,0,0,-1,524,1296,0,0
-693,-272,0,0,0,0,0,0,0,0,0,-1,531,1296,0,0
-686,-272,0,0,0,0,0,0,0,0,0,-1,538,1296,0,0
-679,-272,0,0,0,0,0,0,0,0,0,-1,545,1296,0,0
-672,-272,0,0,0,0,0,0,0,0,0,-1,552,1296,0,0
-665,-272,0,0,0,0,0,0,0,0,0,-1,559,1296,0,0
-658,-272,-23.4954,-1.37769,0,0,0,0,0,0,0,-1,566,1296,-23.4955,1.37772
-651,-272,-23.5043,-0.356079,0,0,0,0,0,0,0,-1,573,1296,-23.5043,0.356133
-644,-272,-23.3131,0.44104,0,0,0,0,0,0,0,-1,580,1296,-23.3131,-0.441055
-637,-272,-22.8481,1.18005,0,0,0,0,0,0,0,-1,587,1296,-22.8481,-1.18008
-630,-272,-24.3105,0.124756,0,0,0,0,0,0,0,-1,594,1296,-24.3106,-0.124796
-623,-272,-22.1364,1.94617,0,0,0,0,0,0,0,-1,601,1296,-22.1363,-1.94612
-616,-272,-22.8895,3.63977,0,0,0,0,0,0,0,-1,608,1296,-22.8895,-3.63975
-609,-272,-23.0861,4.46057,0.0106731,0.00447604,0.00120203,0.0108981,0.00425105,0.185032,0.00634249,0.0276931,615,1296,-23.0861,-4.46055
-602,-272,-23.1525,4.88745,0.00733762,0.00351343,0.0011924,0.00767895,0.0031721,0.2788,0.00445571,0.0153018,622,1296,-23.1525,-4.88748
-595,-272,-23.1932,5.4552,0.00512539,0.00249311,0.0010884,0.00551713,0.00210137,0.345483,0.0032153,0.0120709,629,1296,-23.1932,-5.4552
-588,-272,-23.2148,6.00012,0.00375955,0.00148663,0.000973701,0.00411963,0.00112655,0.35421,0.0024585,0.0111555,636,1296,-23.2148,-6.0001
-581,-272,-23.2391,6.54187,0.00302902,0.00051677,0.000894091,0.00331473,0.000231062,0.309296,0.00213697,0.0101075,643,1296,-23.2391,-6.54185
-574,-272,-23.291,7.11926,0.00274561,-0.000368265,0.000881845,0.002978,-0.000600659,0.257672,0.0022129,0.0157502,650,1296,-23.291,-7.11927
-567,-272,-23.3428,7.67896,0.0031763,-0.00126449,0.000902714,0.00335279,-0.00144098,0.193073,0.0028401,0.0211699,657,1296,-23.3429,-7.6789
-560,-272,-23.3765,8.24878,0.00364971,-0.00196924,0.00105819,0.00384239,-0.00216191,0.180109,0.00351155,0.0204971,664,1296,-23.3765,-8.24873
-553,-272,-23.2712,8.78528,0.00411833,-0.00239994,0.00187684,0.00462011,-0.00290172,0.261244,0.00438034,0.0253576,671,1296,-23.2712,-8.78522
-546,-272,-23.1882,9.36255,0,0,0,0,0,0,0,-1,678,1296,-23.1881,-9.36254
-539,-272,-22.7208,10.119,0,0,0,0,0,0,0,-1,685,1296,-22.7208,-10.119
-532,-272,-10.5572,4.53943,0,0,0,0,0,0,0,-1,692,1296,-10.5572,-4.53943
-525,-272,-11.9599,0.0393066,0,0,0,0,0,0,0,-1,699,1296,-11.9599,-0.0393577
-518,-272,-21.1357,-1.41382,0,0,0,0,0,0,0,-1,706,1296,-21.1357,1.41379
-511,-272,-23.2565,0.226318,0,0,0,0,0,0,0,-1,713,1296,-23.2565,-0.22626
-504,-272,-19.7397,0.114746,0,0,0,0,0,0,0,-1,720,1296,-19.7397,-0.114701
-497,-272,-19.2225,1.71301,0,0,0,0,0,0,0,-1,727,1296,-19.2225,-1.71302
-490,-272,-20.1948,2.4032,0,0,0,0,0,0,0,-1,734,1296,-20.1948,-2.40322
-483,-272,-15.3736,0.792603,0,0,0,0,0,0,0,-1,741,1296,-15.3736,-0.79263
-476,-272,0,0,0,0,0,0,0,0,0,-1,748,1296,0,0
-469,-272,0,0,0,0,0,0,0,0,0,-1,755,1296,0,0
-462,-272,0,0,0,0,0,0,0,0,0,-1,762,1296,0,0
-455,-272,0,0,0,0,0,0,0,0,0,-1,769,1296,0,0
-448,-272,0,0,0,0,0,0,0,0,0,-1,776,1296,0,0
-441,-272,0,0,0,0,0,0,0,0,0,-1,783,1296,0,0
-434,-272,0,0,0,0,0,0,0,0,0,-1,790,1296,0,0
-427,-272,0,0,0,0,0,0,0,0,0,-1,797,1296,0,0
-420,-272,0,0,0,0,0,0,0,0,0,-1,804,1296,0,0
-413,-272,0,0,0,0,0,0,0,0,0,-1,811,1296,0,0
-406,-272,0,0,0,0,0,0,0,0,0,-1,818,1296,0,0
-399,-272,0,0,0,0,0,0,0,0,0,-1,825,1296,0,0
-392,-272,0,0,0,0,0,0,0,0,0,-1,832,1296,0,0
-385,-272,0,0,0,0,0,0,0,0,0,-1,839,1296,0,0
-378,-272,0,0,0,0,0,0,0,0,0,-1,846,1296,0,0
-371,-272,0,0,0,0,0,0,0,0,0,-1,853,1296,0,0
-364,-272,0,0,0,0,0,0,0,0,0,-1,860,1296,0,0
-357,-272,0,0,0,0,0,0,0,0,0,-1,867,1296,0,0
-350,-272,0,0,0,0,0,0,0,0,0,-1,874,1296,0,0
-343,-272,0,0,0,0,0,0,0,0,0,-1,881,1296,0,0
-336,-272,0,0,0,0,0,0,0,0,0,-1,888,1296,0,0
-329,-272,0,0,0,0,0,0,0,0,0,-1,895,1296,0,0
-322,-272,0,0,0,0,0,0,0,0,0,-1,902,1296,0,0
-315,-272,0,0,0,0,0,0,0,0,0,-1,909,1296,0,0
-308,-272,0,0,0,0,0,0,0,0,0,-1,916,1296,0,0
-301,-272,0,0,0,0,0,0,0,0,0,-1,923,1296,0,0
-294,-272,0,0,0,0,0,0,0,0,0,-1,930,1296,0,0
-287,-272,0,0,0,0,0,0,0,0,0,-1,937,1296,0,0
-280,-272,0,0,0,0,0,0,0,0,0,-1,944,1296,0,0
-273,-272,0,0,0,0,0,0,0,0,0,-1,951,1296,0,0
-266,-272,0,0,0,0,0,0,0,0,0,-1,958,1296,0,0
-259,-272,0,0,0,0,0,0,0,0,0,-1,965,1296,0,0
-252,-272,0,0,0,0,0,0,0,0,0,-1,972,1296,0,0
-245,-272,0,0,0,0,0,0,0,0,0,-1,979,1296,0,0
-238,-272,0,0,0,0,0,0,0,0,0,-1,986,1296,0,0
-231,-272,0,0,0,0,0,0,0,0,0,-1,993,1296,0,0
-224,-272,0,0,0,0,0,0,0,0,0,-1,1000,1296,0,0
-217,-272,0,0,0,0,0,0,0,0,0,-1,1007,1296,0,0
-210,-272,0,0,0,0,0,0,0,0,0,-1,1014,1296,0,0
-203,-272,0,0,0,0,0,0,0,0,0,-1,1021,1296,0,0
-196,-272,0,0,0,0,0,0,0,0,0,-1,1028,1296,0,0
-189,-272,0,0,0,0,0,0,0,0,0,-1,1035,1296,0,0
-182,-272,0,0,0,0,0,0,0,0,0,-1,1042,1296,0,0
-175,-272,0,0,0,0,0,0,0,0,0,-1,1049,1296,0,0
-168,-272,0,0,0,0,0,0,0,0,0,-1,1056,1296,0,0
-161,-272,0,0,0,0,0,0,0,0,0,-1,1063,1296,0,0
-154,-272,0,0,0,0,0,0,0,0,0,-1,1070,1296,0,0
-147,-272,0,0,0,0,0,0,0,0,0,-1,1077,1296,0,0
-140,-272,0,0,0,0,0,0,0,0,0,-1,1084,1296,0,0
-133,-272,0,0,0,0,0,0,0,0,0,-1,1091,1296,0,0
-126,-272,0,0,0,0,0,0,0,0,0,-1,1098,1296,0,0
-119,-272,0,0,0,0,0,0,0,0,0,-1,1105,1296,0,0
-112,-272,0,0,0,0,0,0,0,0,0,-1,1112,1296,0,0
-105,-272,0,0,0,0,0,0,0,0,0,-1,1119,1296,0,0
-98,-272,0,0,0,0,0,0,0,0,0,-1,1126,1296,0,0
-91,-272,0,0,0,0,0,0,0,0,0,-1,1133,1296,0,0
-84,-272,0,0,0,0,0,0,0,0,0,-1,1140,1296,0,0
-77,-272,0,0,0,0,0,0,0,0,0,-1,1147,1296,0,0
-70,-272,0,0,0,0,0,0,0,0,0,-1,1154,1296,0,0
-63,-272,0,0,0,0,0,0,0,0,0,-1,1161,1296,0,0
-56,-272,0,0,0,0,0,0,0,0,0,-1,1168,1296,0,0
-49,-272,0,0,0,0,0,0,0,0,0,-1,1175,1296,0,0
-42,-272,0,0,0,0,0,0,0,0,0,-1,1182,1296,0,0
-35,-272,0,0,0,0,0,0,0,0,0,-1,1189,1296,0,0
-28,-272,0,0,0,0,0,0,0,0,0,-1,1196,1296,0,0
-21,-272,0,0,0,0,0,0,0,0,0,-1,1203,1296,0,0
-14,-272,0,0,0,0,0,0,0,0,0,-1,1210,1296,0,0
-7,-272,0,0,0,0,0,0,0,0,0,-1,1217,1296,0,0
0,-272,0,0,0,0,0,0,0,0,0,-1,1224,1296,0,0
7,-272,0,0,0,0,0,0,0,0,0,-1,1231,1296,0,0
14,-272,0,0,0,0,0,0,0,0,0,-1,1238,1296,0,0
21,-272,0,0,0,0,0,0,0,0,0,-1,1245,1296,0,0
28,-272,0,0,0,0,0,0,0,0,0,-1,1252,1296,0,0
35,-272,0,0,0,0,0,0,0,0,0,-1,1259,1296,0,0
42,-272,0,0,0,0,0,0,0,0,0,-1,1266,1296,0,0
49,-272,0,0,0,0,0,0,0,0,0,-1,1273,1296,0,0
56,-272,0,0,0,0,0,0,0,0,0,-1,1280,1296,0,0
63,-272,0,0,0,0,0,0,0,0,0,-1,1287,1296,0,0
70,-272,0,0,0,0,0,0,0,0,0,-1,1294,1296,0,0
77,-272,0,0,0,0,0,0,0,0,0,-1,1301,1296,0,0
84,-272,0,0,0,0,0,0,0,0,0,-1,1308,1296,0,0
91,-272,0,0,0,0,0,0,0,0,0,-1,1315,1296,0,0
98,-272,0,0,0,0,0,0,0,0,0,-1,1322,1296,0,0
105,-272,0,0,0,0,0,0,0,0,0,-1,1329,1296,0,0
112,-272,0,0,0,0,0,0,0,0,0,-1,1336,1296,0,0
119,-272,0,0,0,0,0,0,0,0,0,-1,1343,1296,0,0
126,-272,0,0,0,0,0,0,0,0,0,-1,1350,1296,0,0
133,-272,0,0,0,0,0,0,0,0,0,-1,1357,1296,0,0
140,-272,0,0,0,0,0,0,0,0,0,-1,1364,1296,0,0
147,-272,0,0,0,0,0,0,0,0,0,-1,1371,1296,0,0
154,-272,0,0,0,0,0,0,0,0,0,-1,1378,1296,0,0
161,-272,0,0,0,0,0,0,0,0,0,-1,1385,1296,0,0
168,-272,0,0,0,0,0,0,0,0,0,-1,1392,1296,0,0
175,-272,0,0,0,0,0,0,0,0,0,-1,1399,1296,0,0
182,-272,0,0,0,0,0,0,0,0,0,-1,1406,1296,0,0
189,-272,0,0,0,0,0,0,0,0,0,-1,1413,1296,0,0
196,-272,0,0,0,0,0,0,0,0,0,-1,1420,1296,0,0
203,-272,0,0,0,0,0,0,0,0,0,-1,1427,1296,0,0
210,-272,0,0,0,0,0,0,0,0,0,-1,1434,1296,0,0
217,-272,0,0,0,0,0,0,0,0,0,-1,1441,1296,0,0
224,-272,0,0,0,0,0,0,0,0,0,-1,1448,1296,0,0
231,-272,0,0,0,0,0,0,0,0,0,-1,1455,1296,0,0
238,-272,0,0,0,0,0,0,0,0,0,-1,1462,1296,0,0
245,-272,0,0,0,0,0,0,0,0,0,-1,1469,1296,0,0
252,-272,0,0,0,0,0,0,0,0,0,-1,1476,1296,0,0
259,-272,0,0,0,0,0,0,0,0,0,-1,1483,1296,0,0
266,-272,0,0,0,0,0,0,0,0,0,-1,1490,1296,0,0
273,-272,0,0,0,0,0,0,0,0,0,-1,1497,1296,0,0
280,-272,0,0,0,0,0,0,0,0,0,-1,1504,1296,0,0
287,-272,0,0,0,0,0,0,0,0,0,-1,1511,1296,0,0
294,-272,0,0,0,0,0,0,0,0,0,-1,1518,1296,0,0
301,-272,0,0,0,0,0,0,0,0,0,-1,1525,1296,0,0
308,-272,0,0,0,0,0,0,0,0,0,-1,1532,1296,0,0
315,-272,0,0,0,0,0,0,0,0,0,-1,1539,1296,0,0
322,-272,0,0,0,0,0,0,0,0,0,-1,1546,1296,0,0
329,-272,0,0,0,0,0,0,0,0,0,-1,1553,1296,0,0
336,-272,0,0,0,0,0,0,0,0,0,-1,1560,1296,0,0
343,-272,0,0,0,0,0,0,0,0,0,-1,1567,1296,0,0
350,-272,0,0,0,0,0,0,0,0,0,-1,1574,1296,0,0
357,-272,0,0,0,0,0,0,0,0,0,-1,1581,1296,0,0
364,-272,0,0,0,0,0,0,0,0,0,-1,1588,1296,0,0
371,-272,0,0,0,0,0,0,0,0,0,-1,1595,1296,0,0
378,-272,0,0,0,0,0,0,0,0,0,-1,1602,1296,0,0
385,-272,0,0,0,0,0,0,0,0,0,-1,1609,1296,0,0
392,-272,0,0,0,0,0,0,0,0,0,-1,1616,1296,0,0
399,-272,0,0,0,0,0,0,0,0,0,-1,1623,1296,0,0
406,-272,0,0,0,0,0,0,0,0,0,-1,1630,1296,0,0
413,-272,0,0,0,0,0,0,0,0,0,-1,1637,1296,0,0
420,-272,0,0,0,0,0,0,0,0,0,-1,1644,1296,0,0
427,-272,0,0,0,0,0,0,0,0,0,-1,1651,1296,0,0
434,-272,0,0,0,0,0,0,0,0,0,-1,1658,1296,0,0
441,-272,0,0,0,0,0,0,0,0,0,-1,1665,1296,0,0
448,-272,0,0,0,0,0,0,0,0,0,-1,1672,1296,0,0
455,-272,0,0,0,0,0,0,0,0,0,-1,1679,1296,0,0
462,-272,0,0,0,0,0,0,0,0,0,-1,1686,1296,0,0
469,-272,0,0,0,0,0,0,0,0,0,-1,1693,1296,0,0
476,-272,0,0,0,0,0,0,0,0,0,-1,1700,1296,0,0
483,-272,0,0,0,0,0,0,0,0,0,-1,1707,1296,0,0
490,-272,0,0,0,0,0,0,0,0,0,-1,1714,1296,0,0
497,-272,0,0,0,0,0,0,0,0,0,-1,1721,1296,0,0
504,-272,0,0,0,0,0,0,0,0,0,-1,1728,1296,0,0
511,-272,0,0,0,0,0,0,0,0,0,-1,1735,1296,0,0
518,-272,0,0,0,0,0,0,0,0,0,-1,1742,1296,0,0
525,-272,0,0,0,0,0,0,0,0,0,-1,1749,1296,0,0
532,-272,0,0,0,0,0,0,0,0,0,-1,1756,1296,0,0
539,-272,0,0,0,0,0,0,0,0,0,-1,1763,1296,0,0
546,-272,0,0,0,0,0,0,0,0,0,-1,1770,1296,0,0
553,-272,0,0,0,0,0,0,0,0,0,-1,1777,1296,0,0
560,-272,0,0,0,0,0,0,0,0,0,-1,1784,1296,0,0
567,-272,0,0,0,0,0,0,0,0,0,-1,1791,1296,0,0
574,-272,0,0,0,0,0,0,0,0,0,-1,1798,1296,0,0
581,-272,0,0,0,0,0,0,0,0,0,-1,1805,1296,0,0
588,-272,0,0,0,0,0,0,0,0,0,-1,1812,1296,0,0
595,-272,0,0,0,0,0,0,0,0,0,-1,1819,1296,0,0
602,-272,52.7881,2.63708,-0.00542784,0.00839251,0.00388482,0.00940965,-0.00644498,1.31472,0.00920687,0.0317143,1826,1296,52.7881,-2.63709
609,-272,52.7213,2.49084,-0.00618351,0.0106515,0.00405949,0.0115792,-0.00711126,1.34611,0.0108932,0.0367895,1833,1296,52.7213,-2.49089
616,-272,52.7262,2.49158,-0.00618997,0.0116239,0.00369566,0.0123602,-0.00692624,1.37415,0.0112814,0.0435799,1840,1296,52.7261,-2.49164
623,-272,52.5806,2.44788,-0.00528678,0.0111168,0.00271392,0.0115541,-0.00572413,1.41102,0.0101631,0.0442374,1847,1296,52.5805,-2.44791
630,-272,52.3463,2.43396,-0.00401351,0.00979948,0.00161449,0.00998567,-0.00419971,1.45598,0.00841396,0.0453049,1854,1296,52.3463,-2.43399
637,-272,52.2128,2.4884,0,0,0,0,0,0,0,-1,1861,1296,52.2128,-2.48839
644,-272,48.4819,-0.241943,0,0,0,0,0,0,0,-1,1868,1296,48.4819,0.24191
651,-272,41.9225,4.27161,0,0,0,0,0,0,0,-1,1875,1296,41.9225,-4.27157
658,-272,35.1527,2.10571,0,0,0,0,0,0,0,-1,1882,1296,35.1527,-2.10573
665,-272,22.0238,4.14417,0,0,0,0,0,0,0,-1,1889,1296,22.0238,-4.14421
672,-272,22.661,7.21765,0,0,0,0,0,0,0,-1,1896,1296,22.661,-7.21761
679,-272,37.8453,11.3871,0,0,0,0,0,0,0,-1,1903,1296,37.8453,-11.387
686,-272,37.8429,10.8446,0.000884285,0.0018964,-0.00142275,0.00290041,-0.000119725,-0.956265,0.00197472,0.0255471,1910,1296,37.8429,-10.8446
693,-272,37.8484,10.3243,0.000704249,0.000206197,-0.000615246,0.00111896,-0.00020851,-0.593097,0.000824312,0.0120508,1917,1296,37.8484,-10.3243
700,-272,37.8459,9.8136,0.000441115,-0.000100999,-5.13581e-05,0.000445938,-0.000105822,-0.0936268,0.000338131,0.0125309,1924,1296,37.8459,-9.81361
707,-272,37.8436,9.28296,-0.000164493,-0.000220495,0.000535349,0.000343587,-0.000728575,0.75927,0.000632175,0.0119575,1931,1296,37.8436,-9.28298
714,-272,37.816,8.78186,-0.000855144,-0.000365201,0.00125562,0.000669123,-0.00188947,0.881738,0.00153219,0.0131884,1938,1296,37.816,-8.78181
721,-272,37.7771,8.30615,-0.00133863,-0.000622664,0.00198655,0.0010379,-0.00299919,0.874543,0.00242077,0.0164495,1945,1296,37.7771,-8.30613
728,-272,37.7671,7.7793,-0.00195245,-0.000916488,0.00280463,0.00141759,-0.00428653,0.876713,0.00342931,0.0184206,1952,1296,37.7671,-7.77935
735,-272,37.766,7.3042,-0.00245421,-0.00131112,0.0036547,0.00181645,-0.00558178,0.862963,0.00445196,0.0166346,1959,1296,37.766,-7.30421
742,-272,37.7266,6.8811,-0.00270336,-0.00187589,0.00456978,0.00229884,-0.0068781,0.830544,0.00551381,0.0251901,1966,1296,37.7266,-6.88106
749,-272,37.7092,6.43848,0,0,0,0,0,0,0,-1,1973,1296,37.7092,-6.43842
756,-272,37.3411,6.19141,0,0,0,0,0,0,0,-1,1980,1296,37.3411,-6.19142
763,-272,34.3995,5.88416,0,0,0,0,0,0,0,-1,1987,1296,34.3996,-5.88419
770,-272,25.9485,3.67749,0,0,0,0,0,0,0,-1,1994,1296,25.9485,-3.67744
777,-272,32.3619,6.13257,0,0,0,0,0,0,0,-1,2001,1296,32.362,-6.1326
784,-272,0,0,0,0,0,0,0,0,0,-1,2008,1296,0,0
791,-272,0,0,0,0,0,0,0,0,0,-1,2015,1296,0,0
798,-272,0,0,0,0,0,0,0,0,0,-1,2022,1296,0,0
805,-272,0,0,0,0,0,0,0,0,0,-1,2029,1296,0,0
812,-272,0,0,0,0,0,0,0,0,0,-1,2036,1296,0,0
-700,-279,0,0,0,0,0,0,0,0,0,-1,524,1303,0,0
-693,-279,0,0,0,0,0,0,0,0,0,-1,531,1303,0,0
-686,-279,0,0,0,0,0,0,0,0,0,-1,538,1303,0,0
-679,-279,0,0,0,0,0,0,0,0,0,-1,545,1303,0,0
-672,-279,0,0,0,0,0,0,0,0,0,-1,552,1303,0,0
-665,-279,0,0,0,0,0,0,0,0,0,-1,559,1303,0,0
-658,-279,-28.2361,-4.42603,0,0,0,0,0,0,0,-1,566,1303,-28.2361,4.42598
-651,-279,-23.2036,-0.288818,0,0,0,0,0,0,0,-1,573,1303,-23.2036,0.288862
-644,-279,-22.7246,0.498169,0,0,0,0,0,0,0,-1,580,1303,-22.7246,-0.498209
-637,-279,-22.2455,1.28528,0,0,0,0,0,0,0,-1,587,1303,-22.2456,-1.28528
-630,-279,-19.8475,-0.60144,0,0,0,0,0,0,0,-1,594,1303,-19.8475,0.60148
-623,-279,-22.2665,2.68457,0,0,0,0,0,0,0,-1,601,1303,-22.2665,-2.68451
-616,-279,-23.3318,3.43542,0,0,0,0,0,0,0,-1,608,1303,-23.3318,-3.43539
-609,-279,-22.9182,4.19727,0.0113903,0.00562505,0.00235687,0.0122312,0.0047842,0.342692,0.00711725,0.0493339,615,1303,-22.9181,-4.19723
-602,-279,-22.5925,4.90393,0.00782537,0.00441178,0.0020643,0.0087971,0.00344006,0.439958,0.00511904,0.0149131,622,1303,-22.5925,-4.9039
-595,-279,-22.6291,5.46265,0.00545363,0.00320845,0.00171301,0.00637912,0.00228297,0.495342,0.00373225,0.0100768,629,1303,-22.6291,-5.46268
-588,-279,-22.6492,6.01111,0.0039535,0.0020799,0.00139399,0.00469623,0.00133717,0.489546,0.00279388,0.0106837,636,1303,-22.6492,-6.01109
-581,-279,-22.6874,6.55396,0.00310979,0.00103649,0.00115982,0.00362872,0.000517558,0.420708,0.00226641,0.0118119,643,1303,-22.6874,-6.55391
-574,-279,-22.7276,7.12073,0.00266747,0.000131657,0.00103493,0.00303623,-0.000237102,0.342287,0.00210764,0.0133296,650,1303,-22.7276,-7.12068
-567,-279,-22.7558,7.66736,0.00290096,-0.000748676,0.000981814,0.00314832,-0.000996035,0.246805,0.00249798,0.0177844,657,1303,-22.7558,-7.66733
-560,-279,-22.7728,8.24829,0.00336914,-0.00152041,0.00105814,0.0035883,-0.00173957,0.204236,0.00313717,0.0174371,664,1303,-22.7728,-8.24832
-553,-279,-22.7485,8.83081,0.00403073,-0.00209954,0.00169239,0.00446692,-0.00253573,0.252244,0.00409391,0.0147155,671,1303,-22.7486,-8.83085
-546,-279,-22.7337,9.38318,0.00447194,-0.00199404,0.00251232,0.00533333,-0.00285543,0.330307,0.00479939,0.0281323,678,1303,-22.7337,-9.38322
-539,-279,-23.0095,9.99573,0,0,0,0,0,0,0,-1,685,1303,-23.0095,-9.99577
-532,-279,-14.9813,7.89917,0,0,0,0,0,0,0,-1,692,1303,-14.9813,-7.89918
-525,-279,-11.7063,-0.539185,0,0,0,0,0,0,0,-1,699,1303,-11.7063,0.539166
-518,-279,-16.8138,1.11963,0,0,0,0,0,0,0,-1,706,1303,-16.8138,-1.11968
-511,-279,-20.1063,-1.37915,0,0,0,0,0,0,0,-1,713,1303,-20.1062,1.37918
-504,-279,-18.3766,1.04578,0,0,0,0,0,0,0,-1,720,1303,-18.3767,-1.04577
-497,-279,-19.0046,2.08911,0,0,0,0,0,0,0,-1,727,1303,-19.0046,-2.08905
-490,-279,-20.0176,2.55188,0,0,0,0,0,0,0,-1,734,1303,-20.0176,-2.55183
-483,-279,-20.8064,2.99792,0,0,0,0,0,0,0,-1,741,1303,-20.8064,-2.99797
-476,-279,0,0,0,0,0,0,0,0,0,-1,748,1303,0,0
-469,-279,0,0,0,0,0,0,0,0,0,-1,755,1303,0,0
-462,-279,0,0,0,0,0,0,0,0,0,-1,762,1303,0,0
-455,-279,0,0,0,0,0,0,0,0,0,-1,769,1303,0,0
-448,-279,0,0,0,0,0,0,0,0,0,-1,776,1303,0,0
-441,-279,0,0,0,0,0,0,0,0,0,-1,783,1303,0,0
-434,-279,0,0,0,0,0,0,0,0,0,-1,790,1303,0,0
-427,-279,0,0,0,0,0,0,0,0,0,-1,797,1303,0,0
-420,-279,0,0,0,0,0,0,0,0,0,-1,804,1303,0,0
-413,-279,0,0,0,0,0,0,0,0,0,-1,811,1303,0,0
-406,-279,0,0,0,0,0,0,0,0,0,-1,818,1303,0,0
-399,-279,0,0,0,0,0,0,0,0,0,-1,825,1303,0,0
-392,-279,0,0,0,0,0,0,0,0,0,-1,832,1303,0,0
-385,-279,0,0,0,0,0,0,0,0,0,-1,839,1303,0,0
-378,-279,0,0,0,0,0,0,0,0,0,-1,846,1303,0,0
-371,-279,0,0,0,0,0,0,0,0,0,-1,853,1303,0,0
-364,-279,0,0,0,0,0,0,0,0,0,-1,860,1303,0,0
-357,-279,0,0,0,0,0,0,0,0,0,-1,867,1303,0,0
-350,-279,0,0,0,0,0,0,0,0,0,-1,874,1303,0,0
-343,-279,0,0,0,0,0,0,0,0,0,-1,881,1303,0,0
-336,-279,0,0,0,0,0,0,0,0,0,-1,888,1303,0,0
-329,-279,0,0,0,0,0,0,0,0,0,-1,895,1303,0,0
-322,-279,0,0,0,0,0,0,0,0,0,-1,902,1303,0,0
-315,-279,0,0,0,0,0,0,0,0,0,-1,909,1303,0,0
-308,-279,0,0,0,0,0,0,0,0,0,-1,916,1303,0,0
-301,-279,0,0,0,0,0,0,0,0,0,-1,923,1303,0,0
-294,-279,0,0,0,0,0,0,0,0,0,-1,930,1303,0,0
-287,-279,0,0,0,0,0,0,0,0,0,-1,937,1303,0,0
-280,-279,0,0,0,0,0,0,0,0,0,-1,944,1303,0,0
-273,-279,0,0,0,0,0,0,0,0,0,-1,951,1303,0,0
-266,-279,0,0,0,0,0,0,0,0,0,-1,958,1303,0,0
-259,-279,0,0,0,0,0,0,0,0,0,-1,965,1303,0,0
-252,-279,0,0,0,0,0,0,0,0,0,-1,972,1303,0,0
-245,-279,0,0,0,0,0,0,0,0,0,-1,979,1303,0,0
-238,-279,0,0,0,0,0,0,0,0,0,-1,986,1303,0,0
-231,-279,0,0,0,0,0,0,0,0,0,-1,993,1303,0,0
-224,-279,0,0,0,0,0,0,0,0,0,-1,1000,1303,0,0
-217,-279,0,0,0,0,0,0,0,0,0,-1,1007,1303,0,0
-210,-279,0,0,0,0,0,0,0,0,0,-1,1014,1303,0,0
-203,-279,0,0,0,0,0,0,0,0,0,-1,1021,1303,0,0
-196,-279,0,0,0,0,0,0,0,0,0,-1,1028,1303,0,0
-189,-279,0,0,0,0,0,0,0,0,0,-1,1035,1303,0,0
-182,-279,0,0,0,0,0,0,0,0,0,-1,1042,1303,0,0
-175,-279,0,0,0,0,0,0,0,0,0,-1,1049,1303,0,0
-168,-279,0,0,0,0,0,0,0,0,0,-1,1056,1303,0,0
-161,-279,0,0,0,0,0,0,0,0,0,-1,1063,1303,0,0
-154,-279,0,0,0,0,0,0,0,0,0,-1,1070,1303,0,0
-147,-279,0,0,0,0,0,0,0,0,0,-1,1077,1303,0,0
-140,-279,0,0,0,0,0,0,0,0,0,-1,1084,1303,0,0
-133,-279,0,0,0,0,0,0,0,0,0,-1,1091,1303,0,0
-126,-279,0,0,0,0,0,0,0,0,0,-1,1098,1303,0,0
-119,-279,0,0,0,0,0,0,0,0,0,-1,1105,1303,0,0
-112,-279,0,0,0,0,0,0,0,0,0,-1,1112,1303,0,0
-105,-279,0,0,0,0,0,0,0,0,0,-1,1119,1303,0,0
-98,-279,0,0,0,0,0,0,0,0,0,-1,1126,1303,0,0
-91,-279,0,0,0,0,0,0,0,0,0,-1,1133,1303,0,0
-84,-279,0,0,0,0,0,0,0,0,0,-1,1140,1303,0,0
-77,-279,0,0,0,0,0,0,0,0,0,-1,1147,1303,0,0
-70,-279,0,0,0,0,0,0,0,0,0,-1,1154,1303,0,0
-63,-279,0,0,0,0,0,0,0,0,0,-1,1161,1303,0,0
-56,-279,0,0,0,0,0,0,0,0,0,-1,1168,1303,0,0
-49,-279,0,0,0,0,0,0,0,0,0,-1,1175,1303,0,0
-42,-279,0,0,0,0,0,0,0,0,0,-1,1182,1303,0,0
-35,-279,0,0,0,0,0,0,0,0,0,-1,1189,1303,0,0
-28,-279,0,0,0,0,0,0,0,0,0,-1,1196,1303,0,0
-21,-279,0,0,0,0,0,0,0,0,0,-1,1203,1303,0,0
-14,-279,0,0,0,0,0,0,0,0,0,-1,1210,1303,0,0
-7,-279,0,0,0,0,0,0,0,0,0,-1,1217,1303,0,0
0,-279,0,0,0,0,0,0,0,0,0,-1,1224,1303,0,0
7,-279,0,0,0,0,0,0,0,0,0,-1,1231,1303,0,0
14,-279,0,0,0,0,0,0,0,0,0,-1,1238,1303,0,0
21,-279,0,0,0,0,0,0,0,0,0,-1,1245,1303,0,0
28,-279,0,0,0,0,0,0,0,0,0,-1,1252,1303,0,0
35,-279,0,0,0,0,0,0,0,0,0,-1,1259,1303,0,0
42,-279,0,0,0,0,0,0,0,0,0,-1,1266,1303,0,0
49,-279,0,0,0,0,0,0,0,0,0,-1,1273,1303,0,0
56,-279,0,0,0,0,0,0,0,0,0,-1,1280,1303,0,0
63,-279,0,0,0,0,0,0,0,0,0,-1,1287,1303,0,0
70,-279,0,0,0,0,0,0,0,0,0,-1,1294,1303,0,0
77,-279,0,0,0,0,0,0,0,0,0,-1,1301,1303,0,0
84,-279,0,0,0,0,0,0,0,0,0,-1,1308,1303,0,0
91,-279,0,0,0,0,0,0,0,0,0,-1,1315,1303,0,0
98,-279,0,0,0,0,0,0,0,0,0,-1,1322,1303,0,0
105,-279,0,0,0,0,0,0,0,0,0,-1,1329,1303,0,0
112,-279,0,0,0,0,0,0,0,0,0,-1,1336,1303,0,0
119,-279,0,0,0,0,0,0,0,0,0,-1,1343,1303,0,0
126,-279,0,0,0,0,0,0,0,0,0,-1,1350,1303,0,0
133,-279,0,0,0,0,0,0,0,0,0,-1,1357,1303,0,0
140,-279,0,0,0,0,0,0,0,0,0,-1,1364,1303,0,0
147,-279,0,0,0,0,0,0,0,0,0,-1,1371,1303,0,0
154,-279,0,0,0,0,0,0,0,0,0,-1,1378,1303,0,0
161,-279,0,0,0,0,0,0,0,0,0,-1,1385,1303,0,0
168,-279,0,0,0,0,0,0,0,0,0,-1,1392,1303,0,0
175,-279,0,0,0,0,0,0,0,0,0,-1,1399,1303,0,0
182,-279,0,0,0,0,0,0,0,0,0,-1,1406,1303,0,0
189,-279,0,0,0,0,0,0,0,0,0,-1,1413,1303,0,0
196,-279,0,0,0,0,0,0,0,0,0,-1,1420,1303,0,0
203,-279,0,0,0,0,0,0,0,0,0,-1,1427,1303,0,0
210,-279,0,0,0,0,0,0,0,0,0,-1,1434,1303,0,0
217,-279,0,0,0,0,0,0,0,0,0,-1,1441,1303,0,0
224,-279,0,0,0,0,0,0,0,0,0,-1,1448,1303,0,0
231,-279,0,0,0,0,0,0,0,0,0,-1,1455,1303,0,0
238,-279,0,0,0,0,0,0,0,0,0,-1,1462,1303,0,0
245,-279,0,0,0,0,0,0,0,0,0,-1,1469,1303,0,0
252,-279,0,0,0,0,0,0,0,0,0,-1,1476,1303,0,0
259,-279,0,0,0,0,0,0,0,0,0,-1,1483,1303,0,0
266,-279,0,0,0,0,0,0,0,0,0,-1,1490,1303,0,0
273,-279,0,0,0,0,0,0,0,0,0,-1,1497,1303,0,0
280,-279,0,0,0,0,0,0,0,0,0,-1,1504,1303,0,0
287,-279,0,0,0,0,0,0,0,0,0,-1,1511,1303,0,0
294,-279,0,0,0,0,0,0,0,0,0,-1,1518,1303,0,0
301,-279,0,0,0,0,0,0,0,0,0,-1,1525,1303,0,0
308,-279,0,0,0,0,0,0,0,0,0,-1,1532,1303,0,0
315,-279,0,0,0,0,0,0,0,0,0,-1,1539,1303,0,0
322,-279,0,0,0,0,0,0,0,0,0,-1,1546,1303,0,0
329,-279,0,0,0,0,0,0,0,0,0,-1,1553,1303,0,0
336,-279,0,0,0,0,0,0,0,0,0,-1,1560,1303,0,0
343,-279,0,0,0,0,0,0,0,0,0,-1,1567,1303,0,0
350,-279,0,0,0,0,0,0,0,0,0,-1,1574,1303,0,0
357,-279,0,0,0,0,0,0,0,0,0,-1,1581,1303,0,0
364,-279,0,0,0,0,0,0,0,0,0,-1,1588,1303,0,0
371,-279,0,0,0,0,0,0,0,0,0,-1,1595,1303,0,0
378,-279,0,0,0,0,0,0,0,0,0,-1,1602,1303,0,0
385,-279,0,0,0,0,0,0,0,0,0,-1,1609,1303,0,0
392,-279,0,0,0,0,0,0,0,0,0,-1,1616,1303,0,0
399,-279,0,0,0,0,0,0,0,0,0,-1,1623,1303,0,0
406,-279,0,0,0,0,0,0,0,0,0,-1,1630,1303,0,0
413,-279,0,0,0,0,0,0,0,0,0,-1,1637,1303,0,0
420,-279,0,0,0,0,0,0,0,0,0,-1,1644,1303,0,0
427,-279,0,0,0,0,0,0,0,0,0,-1,1651,1303,0,0
434,-279,0,0,0,0,0,0,0,0,0,-1,1658,1303,0,0
441,-279,0,0,0,0,0,0,0,0,0,-1,1665,1303,0,0
448,-279,0,0,0,0,0,0,0,0,0,-1,1672,1303,0,0
455,-279,0,0,0,0,0,0,0,0,0,-1,1679,1303,0,0
462,-279,0,0,0,0,0,0,0,0,0,-1,1686,1303,0,0
469,-279,0,0,0,0,0,0,0,0,0,-1,1693,1303,0,0
476,-279,0,0,0,0,0,0,0,0,0,-1,1700,1303,0,0
483,-279,0,0,0,0,0,0,0,0,0,-1,1707,1303,0,0
490,-279,0,0,0,0,0,0,0,0,0,-1,1714,1303,0,0
497,-279,0,0,0,0,0,0,0,0,0,-1,1721,1303,0,0
504,-279,0,0,0,0,0,0,0,0,0,-1,1728,1303,0,0
511,-279,0,0,0,0,0,0,0,0,0,-1,1735,1303,0,0
518,-279,0,0,0,0,0,0,0,0,0,-1,1742,1303,0,0
525,-279,0,0,0,0,0,0,0,0,0,-1,1749,1303,0,0
532,-279,0,0,0,0,0,0,0,0,0,-1,1756,1303,0,0
539,-279,0,0,0,0,0,0,0,0,0,-1,1763,1303,0,0
546,-279,0,0,0,0,0,0,0,0,0,-1,1770,1303,0,0
553,-279,0,0,0,0,0,0,0,0,0,-1,1777,1303,0,0
560,-279,0,0,0,0,0,0,0,0,0,-1,1784,1303,0,0
567,-279,0,0,0,0,0,0,0,0,0,-1,1791,1303,0,0
574,-279,0,0,0,0,0,0,0,0,0,-1,1798,1303,0,0
581,-279,0,0,0,0,0,0,0,0,0,-1,1805,1303,0,0
588,-279,0,0,0,0,0,0,0,0,0,-1,1812,1303,0,0
595,-279,0,0,0,0,0,0,0,0,0,-1,1819,1303,0,0
602,-279,52.7144,2.47925,0,0,0,0,0,0,0,-1,1826,1303,52.7144,-2.47929
609,-279,52.6254,2.36743,0,0,0,0,0,0,0,-1,1833,1303,52.6254,-2.36737
616,-279,52.5874,2.28796,-0.00720532,0.0117399,0.00491309,0.0129382,-0.00840365,1.33156,0.0124141,0.0481397,1840,1303,52.5874,-2.28797
623,-279,52.5342,2.38611,-0.00583687,0.0104931,0.00385647,0.011358,-0.00670179,1.35017,0.0105417,0.0452481,1847,1303,52.5342,-2.38616
630,-279,52.6044,2.61353,0,0,0,0,0,0,0,-1,1854,1303,52.6044,-2.61356
637,-279,51.5872,2.34473,0,0,0,0,0,0,0,-1,1861,1303,51.5872,-2.34474
644,-279,33.5021,3.40234,0,0,0,0,0,0,0,-1,1868,1303,33.5021,-3.40237
651,-279,29.8456,2.3562,0,0,0,0,0,0,0,-1,1875,1303,29.8455,-2.35615
658,-279,21.5076,7.65649,0,0,0,0,0,0,0,-1,1882,1303,21.5076,-7.65648
665,-279,18.9794,6.09607,0,0,0,0,0,0,0,-1,1889,1303,18.9793,-6.09601
672,-279,23.5206,8.32507,0,0,0,0,0,0,0,-1,1896,1303,23.5206,-8.32512
679,-279,37.2152,11.3734,0,0,0,0,0,0,0,-1,1903,1303,37.2152,-11.3734
686,-279,37.3169,10.8519,0.00111804,0.00154681,-0.00125118,0.00260184,6.30069e-05,-0.870247,0.00171395,0.0277266,1910,1303,37.3169,-10.8519
693,-279,37.3263,10.3422,0.000909323,2.56749e-05,-0.000449328,0.00109766,-0.000162663,-0.396909,0.000791586,0.0169063,1917,1303,37.3262,-10.3421
700,-279,37.3303,9.84363,0.000532469,-0.000185576,0.000117591,0.000551236,-0.000204343,0.15826,0.000451299,0.0131661,1924,1303,37.3304,-9.84364
707,-279,37.3174,9.31763,-0.000117305,-0.000309477,0.00071142,0.000504488,-0.00093127,0.718273,0.000841054,0.0105138,1931,1303,37.3174,-9.31766
714,-279,37.2863,8.81482,-0.00085226,-0.000480874,0.00141069,0.000756293,-0.00208943,0.850838,0.00170201,0.0106997,1938,1303,37.2863,-8.81486
721,-279,37.2964,8.31628,-0.00148217,-0.000812923,0.00215561,0.00103389,-0.00332897,0.8624,0.00263251,0.0146728,1945,1303,37.2963,-8.3163
728,-279,37.2897,7.82178,-0.0022749,-0.00117846,0.00299282,0.00131594,-0.0047693,0.875983,0.00369709,0.0172768,1952,1303,37.2897,-7.82174
735,-279,37.241,7.33582,-0.00303418,-0.00167539,0.00388755,0.00159168,-0.00630125,0.871906,0.00481981,0.0170327,1959,1303,37.241,-7.33582
742,-279,37.1503,6.84338,-0.00366397,-0.00238986,0.0048985,0.00191284,-0.00796667,0.850061,0.00605037,0.0307832,1966,1303,37.1502,-6.84343
749,-279,37.1792,6.30798,0,0,0,0,0,0,0,-1,1973,1303,37.1792,-6.30799
756,-279,23.2091,4.43433,0,0,0,0,0,0,0,-1,1980,1303,23.2092,-4.43432
763,-279,27.1613,3.46265,0,0,0,0,0,0,0,-1,1987,1303,27.1613,-3.4627
770,-279,21.5828,3.54199,0,0,0,0,0,0,0,-1,1994,1303,21.5827,-3.54198
777,-279,32.5369,6.99609,0,0,0,0,0,0,0,-1,2001,1303,32.5369,-6.99608
784,-279,0,0,0,0,0,0,0,0,0,-1,2008,1303,0,0
791,-279,0,0,0,0,0,0,0,0,0,-1,2015,1303,0,0
798,-279,0,0,0,0,0,0,0,0,0,-1,2022,1303,0,0
805,-279,0,0,0,0,0,0,0,0,0,-1,2029,1303,0,0
812,-279,0,0,0,0,0,0,0,0,0,-1,2036,1303,0,0
-700,-286,0,0,0,0,0,0,0,0,0,-1,524,1310,0,0
-693,-286,0,0,0,0,0,0,0,0,0,-1,531,1310,0,0
-686,-286,0,0,0,0,0,0,0,0,0,-1,538,1310,0,0
-679,-286,0,0,0,0,0,0,0,0,0,-1,545,1310,0,0
-672,-286,0,0,0,0,0,0,0,0,0,-1,552,1310,0,0
-665,-286,0,0,0,0,0,0,0,0,0,-1,559,1310,0,0
-658,-286,-28.2059,-4.88086,0,0,0,0,0,0,0,-1,566,1310,-28.2059,4.8808
-651,-286,-27.4064,-3.9209,0,0,0,0,0,0,0,-1,573,1310,-27.4065,3.92093
-644,-286,-22.1443,0.507813,0,0,0,0,0,0,0,-1,580,1310,-22.1443,-0.507789
-637,-286,-26.8513,-2.84692,0,0,0,0,0,0,0,-1,587,1310,-26.8513,2.84687
-630,-286,-25.9387,-2.64465,0,0,0,0,0,0,0,-1,594,1310,-25.9386,2.64461
-623,-286,-20.1415,-1.72998,0,0,0,0,0,0,0,-1,601,1310,-20.1415,1.72995
-616,-286,-22.0634,2.37744,0,0,0,0,0,0,0,-1,608,1310,-22.0633,-2.37746
-609,-286,-22.2261,4.16321,0,0,0,0,0,0,0,-1,615,1310,-22.2262,-4.16315
-602,-286,-22.0728,4.86023,0.00836006,0.00511931,0.00290692,0.0100677,0.00341166,0.531137,0.00591235,0.0205421,622,1310,-22.0728,-4.86022
-595,-286,-22.0839,5.47925,0.00581989,0.00375874,0.00229911,0.00730884,0.00226979,0.574699,0.00431955,0.0118139,629,1310,-22.0839,-5.47925
-588,-286,-22.0942,6.02283,0.0041752,0.00255028,0.0017832,0.0053223,0.00140318,0.57164,0.00318522,0.0123231,636,1310,-22.0942,-6.02278
-581,-286,-22.0936,6.56641,0.00322874,0.00148861,0.00141288,0.00401796,0.000699386,0.509417,0.00247862,0.0139597,643,1310,-22.0936,-6.56646
-574,-286,-22.1435,7.13477,0.00267483,0.000610073,0.00119311,0.00322021,6.46983e-05,0.428747,0.00212557,0.0150573,650,1310,-22.1435,-7.13476
-567,-286,-22.1963,7.70007,0.00275946,-0.000205246,0.00107886,0.0031105,-0.000556278,0.31457,0.00228181,0.0151479,657,1310,-22.1963,-7.70007
-560,-286,-22.2043,8.28149,0.00319946,-0.000936769,0.00109745,0.00347261,-0.00120991,0.243934,0.00280669,0.0147719,664,1310,-22.2044,-8.28154
-553,-286,-22.1848,8.85229,0.00397649,-0.00147945,0.00152684,0.0043747,-0.00187767,0.255129,0.00370453,0.010667,671,1310,-22.1847,-8.85229
-546,-286,-22.1841,9.43909,0.00477463,-0.00147852,0.00220736,0.00547532,-0.0021792,0.30737,0.00455387,0.0206271,678,1310,-22.1841,-9.43909
-539,-286,-22.2723,10.0913,0,0,0,0,0,0,0,-1,685,1310,-22.2723,-10.0914
-532,-286,-21.6771,10.4924,0,0,0,0,0,0,0,-1,692,1310,-21.6771,-10.4924
-525,-286,-11.4528,-1.11768,0,0,0,0,0,0,0,-1,699,1310,-11.4528,1.11769
-518,-286,-11.0701,1.37329,0,0,0,0,0,0,0,-1,706,1310,-11.0701,-1.37332
-511,-286,-17.7545,-0.0791016,0,0,0,0,0,0,0,-1,713,1310,-17.7544,0.0791606
-504,-286,-18.0455,1.29602,0,0,0,0,0,0,0,-1,720,1310,-18.0455,-1.29601
-497,-286,-18.3367,2.67114,0,0,0,0,0,0,0,-1,727,1310,-18.3366,-2.67118
-490,-286,-19.5795,2.47266,0,0,0,0,0,0,0,-1,734,1310,-19.5795,-2.4727
-483,-286,-19.7277,2.74744,0,0,0,0,0,0,0,-1,741,1310,-19.7277,-2.74747
-476,-286,-20.0391,3.06177,0,0,0,0,0,0,0,-1,748,1310,-20.0391,-3.06178
-469,-286,0,0,0,0,0,0,0,0,0,-1,755,1310,0,0
-462,-286,0,0,0,0,0,0,0,0,0,-1,762,1310,0,0
-455,-286,0,0,0,0,0,0,0,0,0,-1,769,1310,0,0
-448,-286,0,0,0,0,0,0,0,0,0,-1,776,1310,0,0
-441,-286,0,0,0,0,0,0,0,0,0,-1,783,1310,0,0
-434,-286,0,0,0,0,0,0,0,0,0,-1,790,1310,0,0
-427,-286,0,0,0,0,0,0,0,0,0,-1,797,1310,0,0
-420,-286,0,0,0,0,0,0,0,0,0,-1,804,1310,0,0
-413,-286,0,0,0,0,0,0,0,0,0,-1,811,1310,0,0
-406,-286,0,0,0,0,0,0,0,0,0,-1,818,1310,0,0
-399,-286,0,0,0,0,0,0,0,0,0,-1,825,1310,0,0
-392,-286,0,0,0,0,0,0,0,0,0,-1,832,1310,0,0
-385,-286,0,0,0,0,0,0,0,0,0,-1,839,1310,0,0
-378,-286,0,0,0,0,0,0,0,0,0,-1,846,1310,0,0
-371,-286,0,0,0,0,0,0,0,0,0,-1,853,1310,0,0
-364,-286,0,0,0,0,0,0,0,0,0,-1,860,1310,0,0
-357,-286,0,0,0,0,0,0,0,0,0,-1,867,1310,0,0
-350,-286,0,0,0,0,0,0,0,0,0,-1,874,1310,0,0
-343,-286,0,0,0,0,0,0,0,0,0,-1,881,1310,0,0
-336,-286,0,0,0,0,0,0,0,0,0,-1,888,1310,0,0
-329,-286,0,0,0,0,0,0,0,0,0,-1,895,1310,0,0
-322,-286,0,0,0,0,0,0,0,0,0,-1,902,1310,0,0
-315,-286,0,0,0,0,0,0,0,0,0,-1,909,1310,0,0
-308,-286,0,0,0,0,0,0,0,0,0,-1,916,1310,0,0
-301,-286,0,0,0,0,0,0,0,0,0,-1,923,1310,0,0
-294,-286,0,0,0,0,0,0,0,0,0,-1,930,1310,0,0
-287,-286,0,0,0,0,0,0,0,0,0,-1,937,1310,0,0
-280,-286,0,0,0,0,0,0,0,0,0,-1,944,1310,0,0
-273,-286,0,0,0,0,0,0,0,0,0,-1,951,1310,0,0
-266,-286,0,0,0,0,0,0,0,0,0,-1,958,1310,0,0
-259,-286,0,0,0,0,0,0,0,0,0,-1,965,1310,0,0
-252,-286,0,0,0,0,0,0,0,0,0,-1,972,1310,0,0
-245,-286,0,0,0,0,0,0,0,0,0,-1,979,1310,0,0
-238,-286,0,0,0,0,0,0,0,0,0,-1,986,1310,0,0
-231,-286,0,0,0,0,0,0,0,0,0,-1,993,1310,0,0
-224,-286,0,0,0,0,0,0,0,0,0,-1,1000,1310,0,0
-217,-286,0,0,0,0,0,0,0,0,0,-1,1007,1310,0,0
-210,-286,0,0,0,0,0,0,0,0,0,-1,1014,1310,0,0
-203,-286,0,0,0,0,0,0,0,0,0,-1,1021,1310,0,0
-196,-286,0,0,0,0,0,0,0,0,0,-1,1028,1310,0,0
-189,-286,0,0,0,0,0,0,0,0,0,-1,1035,1310,0,0
-182,-286,0,0,0,0,0,0,0,0,0,-1,1042,1310,0,0
-175,-286,0,0,0,0,0,0,0,0,0,-1,1049,1310,0,0
-168,-286,0,0,0,0,0,0,0,0,0,-1,1056,1310,0,0
-161,-286,0,0,0,0,0,0,0,0,0,-1,1063,1310,0,0
-154,-286,0,0,0,0,0,0,0,0,0,-1,1070,1310,0,0
-147,-286,0,0,0,0,0,0,0,0,0,-1,1077,1310,0,0
-140,-286,0,0,0,0,0,0,0,0,0,-1,1084,1310,0,0
-133,-286,0,0,0,0,0,0,0,0,0,-1,1091,1310,0,0
-126,-286,0,0,0,0,0,0,0,0,0,-1,1098,1310,0,0
-119,-286,0,0,0,0,0,0,0,0,0,-1,1105,1310,0,0
-112,-286,0,0,0,0,0,0,0,0,0,-1,1112,1310,0,0
-105,-286,0,0,0,0,0,0,0,0,0,-1,1119,1310,0,0
-98,-286,0,0,0,0,0,0,0,0,0,-1,1126,1310,0,0
-91,-286,0,0,0,0,0,0,0,0,0,-1,1133,1310,0,0
-84,-286,0,0,0,0,0,0,0,0,0,-1,1140,1310,0,0
-77,-286,0,0,0,0,0,0,0,0,0,-1,1147,1310,0,0
-70,-286,0,0,0,0,0,0,0,0,0,-1,1154,1310,0,0
-63,-286,0,0,0,0,0,0,0,0,0,-1,1161,1310,0,0
-56,-286,0,0,0,0,0,0,0,0,0,-1,1168,1310,0,0
-49,-286,0,0,0,0,0,0,0,0,0,-1,1175,1310,0,0
-42,-286,0,0,0,0,0,0,0,0,0,-1,1182,1310,0,0
-35,-286,0,0,0,0,0,0,0,0,0,-1,1189,1310,0,0
-28,-286,0,0,0,0,0,0,0,0,0,-1,1196,1310,0,0
-21,-286,0,0,0,0,0,0,0,0,0,-1,1203,1310,0,0
-14,-286,0,0,0,0,0,0,0,0,0,-1,1210,1310,0,0
-7,-286,0,0,0,0,0,0,0,0,0,-1,1217,1310,0,0
0,-286,0,0,0,0,0,0,0,0,0,-1,1224,1310,0,0
7,-286,0,0,0,0,0,0,0,0,0,-1,1231,1310,0,0
14,-286,0,0,0,0,0,0,0,0,0,-1,1238,1310,0,0
21,-286,0,0,0,0,0,0,0,0,0,-1,1245,1310,0,0
28,-286,0,0,0,0,0,0,0,0,0,-1,1252,1310,0,0
35,-286,0,0,0,0,0,0,0,0,0,-1,1259,1310,0,0
42,-286,0,0,0,0,0,0,0,0,0,-1,1266,1310,0,0
49,-286,0,0,0,0,0,0,0,0,0,-1,1273,1310,0,0
56,-286,0,0,0,0,0,0,0,0,0,-1,1280,1310,0,0
63,-286,0,0,0,0,0,0,0,0,0,-1,1287,1310,0,0
70,-286,0,0,0,0,0,0,0,0,0,-1,1294,1310,0,0
77,-286,0,0,0,0,0,0,0,0,0,-1,1301,1310,0,0
84,-286,0,0,0,0,0,0,0,0,0,-1,1308,1310,0,0
91,-286,0,0,0,0,0,0,0,0,0,-1,1315,1310,0,0
98,-286,0,0,0,0,0,0,0,0,0,-1,1322,1310,0,0
105,-286,0,0,0,0,0,0,0,0,0,-1,1329,1310,0,0
112,-286,0,0,0,0,0,0,0,0,0,-1,1336,1310,0,0
119,-286,0,0,0,0,0,0,0,0,0,-1,1343,1310,0,0
126,-286,0,0,0,0,0,0,0,0,0,-1,1350,1310,0,0
133,-286,0,0,0,0,0,0,0,0,0,-1,1357,1310,0,0
140,-286,0,0,0,0,0,0,0,0,0,-1,1364,1310,0,0
147,-286,0,0,0,0,0,0,0,0,0,-1,1371,1310,0,0
154,-286,0,0,0,0,0,0,0,0,0,-1,1378,1310,0,0
161,-286,0,0,0,0,0,0,0,0,0,-1,1385,1310,0,0
168,-286,0,0,0,0,0,0,0,0,0,-1,1392,1310,0,0
175,-286,0,0,0,0,0,0,0,0,0,-1,1399,1310,0,0
182,-286,0,0,0,0,0,0,0,0,0,-1,1406,1310,0,0
189,-286,0,0,0,0,0,0,0,0,0,-1,1413,1310,0,0
196,-286,0,0,0,0,0,0,0,0,0,-1,1420,1310,0,0
203,-286,0,0,0,0,0,0,0,0,0,-1,1427,1310,0,0
210,-286,0,0,0,0,0,0,0,0,0,-1,1434,1310,0,0
217,-286,0,0,0,0,0,0,0,0,0,-1,1441,1310,0,0
224,-286,0,0,0,0,0,0,0,0,0,-1,1448,1310,0,0
231,-286,0,0,0,0,0,0,0,0,0,-1,1455,1310,0,0
238,-286,0,0,0,0,0,0,0,0,0,-1,1462,1310,0,0
245,-286,0,0,0,0,0,0,0,0,0,-1,1469,1310,0,0
252,-286,0,0,0,0,0,0,0,0,0,-1,1476,1310,0,0
259,-286,0,0,0,0,0,0,0,0,0,-1,1483,1310,0,0
266,-286,0,0,0,0,0,0,0,0,0,-1,1490,1310,0,0
273,-286,0,0,0,0,0,0,0,0,0,-1,1497,1310,0,0
280,-286,0,0,0,0,0,0,0,0,0,-1,1504,1310,0,0
287,-286,0,0,0,0,0,0,0,0,0,-1,1511,1310,0,0
294,-286,0,0,0,0,0,0,0,0,0,-1,1518,1310,0,0
301,-286,0,0,0,0,0,0,0,0,0,-1,1525,1310,0,0
308,-286,0,0,0,0,0,0,0,0,0,-1,1532,1310,0,0
315,-286,0,0,0,0,0,0,0,0,0,-1,1539,1310,0,0
322,-286,0,0,0,0,0,0,0,0,0,-1,1546,1310,0,0
329,-286,0,0,0,0,0,0,0,0,0,-1,1553,1310,0,0
336,-286,0,0,0,0,0,0,0,0,0,-1,1560,1310,0,0
343,-286,0,0,0,0,0,0,0,0,0,-1,1567,1310,0,0
350,-286,0,0,0,0,0,0,0,0,0,-1,1574,1310,0,0
357,-286,0,0,0,0,0,0,0,0,0,-1,1581,1310,0,0
364,-286,0,0,0,0,0,0,0,0,0,-1,1588,1310,0,0
371,-286,0,0,0,0,0,0,0,0,0,-1,1595,1310,0,0
378,-286,0,0,0,0,0,0,0,0,0,-1,1602,1310,0,0
385,-286,0,0,0,0,0,0,0,0,0,-1,1609,1310,0,0
392,-286,0,0,0,0,0,0,0,0,0,-1,1616,1310,0,0
399,-286,0,0,0,0,0,0,0,0,0,-1,1623,1310,0,0
406,-286,0,0,0,0,0,0,0,0,0,-1,1630,1310,0,0
413,-286,0,0,0,0,0,0,0,0,0,-1,1637,1310,0,0
420,-286,0,0,0,0,0,0,0,0,0,-1,1644,1310,0,0
427,-286,0,0,0,0,0,0,0,0,0,-1,1651,1310,0,0
434,-286,0,0,0,0,0,0,0,0,0,-1,1658,1310,0,0
441,-286,0,0,0,0,0,0,0,0,0,-1,1665,1310,0,0
448,-286,0,0,0,0,0,0,0,0,0,-1,1672,1310,0,0
455,-286,0,0,0,0,0,0,0,0,0,-1,1679,1310,0,0
462,-286,0,0,0,0,0,0,0,0,0,-1,1686,1310,0,0
469,-286,0,0,0,0,0,0,0,0,0,-1,1693,1310,0,0
476,-286,0,0,0,0,0,0,0,0,0,-1,1700,1310,0,0
483,-286,0,0,0,0,0,0,0,0,0,-1,1707,1310,0,0
490,-286,0,0,0,0,0,0,0,0,0,-1,1714,1310,0,0
497,-286,0,0,0,0,0,0,0,0,0,-1,1721,1310,0,0
504,-286,0,0,0,0,0,0,0,0,0,-1,1728,1310,0,0
511,-286,0,0,0,0,0,0,0,0,0,-1,1735,1310,0,0
518,-286,0,0,0,0,0,0,0,0,0,-1,1742,1310,0,0
525,-286,0,0,0,0,0,0,0,0,0,-1,1749,1310,0,0
532,-286,0,0,0,0,0,0,0,0,0,-1,1756,1310,0,0
539,-286,0,0,0,0,0,0,0,0,0,-1,1763,1310,0,0
546,-286,0,0,0,0,0,0,0,0,0,-1,1770,1310,0,0
553,-286,0,0,0,0,0,0,0,0,0,-1,1777,1310,0,0
560,-286,0,0,0,0,0,0,0,0,0,-1,1784,1310,0,0
567,-286,0,0,0,0,0,0,0,0,0,-1,1791,1310,0,0
574,-286,0,0,0,0,0,0,0,0,0,-1,1798,1310,0,0
581,-286,0,0,0,0,0,0,0,0,0,-1,1805,1310,0,0
588,-286,0,0,0,0,0,0,0,0,0,-1,1812,1310,0,0
595,-286,51.7498,2.70642,0,0,0,0,0,0,0,-1,1819,1310,51.7497,-2.70644
602,-286,52.6511,2.29541,0,0,0,0,0,0,0,-1,1826,1310,52.6511,-2.29545
609,-286,52.479,2.3783,0,0,0,0,0,0,0,-1,1833,1310,52.479,-2.37834
616,-286,52.5126,2.14014,0,0,0,0,0,0,0,-1,1840,1310,52.5125,-2.14009
623,-286,52.5216,2.26025,0,0,0,0,0,0,0,-1,1847,1310,52.5216,-2.26022
630,-286,52.6411,2.54688,0,0,0,0,0,0,0,-1,1854,1310,52.6411,-2.54684
637,-286,47.8409,3.69824,0,0,0,0,0,0,0,-1,1861,1310,47.841,-3.69823
644,-286,25.6433,1.33862,0,0,0,0,0,0,0,-1,1868,1310,25.6433,-1.33858
651,-286,25.2507,1.88245,0,0,0,0,0,0,0,-1,1875,1310,25.2508,-1.88245
658,-286,25.9475,9.43689,0,0,0,0,0,0,0,-1,1882,1310,25.9475,-9.43693
665,-286,24.9838,8.03101,0,0,0,0,0,0,0,-1,1889,1310,24.9837,-8.03104
672,-286,36.3571,11.5587,0,0,0,0,0,0,0,-1,1896,1310,36.357,-11.5587
679,-286,36.8312,11.3737,0,0,0,0,0,0,0,-1,1903,1310,36.8312,-11.3737
686,-286,36.8336,10.8702,0.00127484,0.00114832,-0.00104194,0.00225544,0.000167714,-0.755078,0.00145095,0.0224461,1910,1310,36.8336,-10.8703
693,-286,36.8105,10.3607,0.000980138,-8.06113e-05,-0.000290866,0.00105466,-0.000155134,-0.250813,0.000760113,0.0168984,1917,1310,36.8106,-10.3607
700,-286,36.8131,9.83838,0.000522737,-0.000206601,0.000258905,0.000605298,-0.000289163,0.308693,0.000527059,0.0126433,1924,1310,36.8131,-9.83841
707,-286,36.7935,9.35559,-0.000122758,-0.000341278,0.00084416,0.000619184,-0.00108322,0.721041,0.00099498,0.00963498,1931,1310,36.7935,-9.35565
714,-286,36.7657,8.85583,-0.000887191,-0.000545384,0.00152293,0.000816205,-0.00224878,0.841274,0.00183287,0.00925547,1938,1310,36.7658,-8.85579
721,-286,36.775,8.34851,-0.00170194,-0.00093285,0.00227349,0.000988382,-0.00362318,0.869177,0.0028036,0.0122849,1945,1310,36.775,-8.34848
728,-286,36.7501,7.84937,-0.00271874,-0.00136414,0.00312521,0.00115632,-0.0052392,0.892109,0.00393528,0.0155689,1952,1310,36.7501,-7.84932
735,-286,36.7592,7.33618,-0.00385471,-0.00196178,0.00406367,0.00126419,-0.00708068,0.899813,0.00519339,0.0194923,1959,1310,36.7592,-7.33623
742,-286,36.7786,6.82751,-0.0051376,-0.00283057,0.0051746,0.00131752,-0.0092857,0.895064,0.00667313,0.0438015,1966,1310,36.7785,-6.82753
749,-286,36.9552,6.26685,0,0,0,0,0,0,0,-1,1973,1310,36.9552,-6.26687
756,-286,24.8226,4.43481,0,0,0,0,0,0,0,-1,1980,1310,24.8227,-4.43479
763,-286,20.6671,3.99683,0,0,0,0,0,0,0,-1,1987,1310,20.6671,-3.99683
770,-286,23.9147,4.45679,0,0,0,0,0,0,0,-1,1994,1310,23.9146,-4.45675
777,-286,0,0,0,0,0,0,0,0,0,-1,2001,1310,0,0
784,-286,0,0,0,0,0,0,0,0,0,-1,2008,1310,0,0
791,-286,0,0,0,0,0,0,0,0,0,-1,2015,1310,0,0
798,-286,0,0,0,0,0,0,0,0,0,-1,2022,1310,0,0
805,-286,0,0,0,0,0,0,0,0,0,-1,2029,1310,0,0
812,-286,0,0,0,0,0,0,0,0,0,-1,2036,1310,0,0
-700,-293,0,0,0,0,0,0,0,0,0,-1,524,1317,0,0
-693,-293,0,0,0,0,0,0,0,0,0,-1,531,1317,0,0
-686,-293,0,0,0,0,0,0,0,0,0,-1,538,1317,0,0
-679,-293,0,0,0,0,0,0,0,0,0,-1,545,1317,0,0
-672,-293,0,0,0,0,0,0,0,0,0,-1,552,1317,0,0
-665,-293,0,0,0,0,0,0,0,0,0,-1,559,1317,0,0
-658,-293,0,0,0,0,0,0,0,0,0,-1,566,1317,0,0
-651,-293,-27.1182,-4.6582,0,0,0,0,0,0,0,-1,573,1317,-27.1182,4.65821
-644,-293,-26.4241,-4.26624,0,0,0,0,0,0,0,-1,580,1317,-26.4241,4.26627
-637,-293,-25.5035,-4.01099,0,0,0,0,0,0,0,-1,587,1317,-25.5035,4.01102
-630,-293,-24.5684,-3.7887,0,0,0,0,0,0,0,-1,594,1317,-24.5684,3.78869
-623,-293,-15.6058,0.229614,0,0,0,0,0,0,0,-1,601,1317,-15.6058,-0.229666
-616,-293,-15.5056,2.17737,0,0,0,0,0,0,0,-1,608,1317,-15.5055,-2.17742
-609,-293,-21.4702,3.96838,0,0,0,0,0,0,0,-1,615,1317,-21.4702,-3.96839
-602,-293,-21.4055,4.75757,0.00915735,0.00597278,0.00379099,0.0116769,0.00345325,0.586577,0.00692664,0.0499756,622,1317,-21.4055,-4.75758
-595,-293,-21.5553,5.50244,0.00641297,0.00437714,0.00289519,0.00846398,0.00232614,0.616353,0.00504916,0.0203742,629,1317,-21.5553,-5.50238
-588,-293,-21.5185,6.07336,0.00458682,0.00303989,0.00215856,0.00610631,0.0015204,0.613362,0.00367058,0.0159966,636,1317,-21.5185,-6.07337
-581,-293,-21.5125,6.60828,0.00352503,0.0019324,0.00163535,0.00454764,0.000909788,0.558825,0.0027786,0.0180624,643,1317,-21.5124,-6.60824
-574,-293,-21.5676,7.18555,0.00287618,0.00104839,0.00130388,0.00355455,0.000370019,0.479732,0.0022565,0.0166511,650,1317,-21.5676,-7.18559
-567,-293,-21.6376,7.76013,0.00283414,0.000266747,0.00112233,0.00325559,-0.000154697,0.359216,0.00222375,0.0166035,657,1317,-21.6376,-7.76012
-560,-293,-21.6501,8.3313,0.00326397,-0.000390665,0.00108839,0.00356355,-0.000690241,0.268596,0.00263608,0.017093,664,1317,-21.6501,-8.33127
-553,-293,-21.6234,8.87,0.00417258,-0.000810177,0.00132466,0.00450285,-0.00114045,0.244342,0.00344555,0.0115266,671,1317,-21.6234,-8.87004
-546,-293,-21.6308,9.44409,0.00547492,-0.00099262,0.00180493,0.00594453,-0.00146223,0.25454,0.00452979,0.013015,678,1317,-21.6308,-9.44413
-539,-293,-21.5479,10.0322,0.00764485,-0.00119753,0.00271019,0.00840942,-0.00196209,0.274962,0.00636197,0.0397816,685,1317,-21.5478,-10.0322
-532,-293,-21.4047,10.5544,0,0,0,0,0,0,0,-1,692,1317,-21.4046,-10.5544
-525,-293,-8.20642,3.62256,0,0,0,0,0,0,0,-1,699,1317,-8.20639,-3.6226
-518,-293,-10.1053,0.314209,0,0,0,0,0,0,0,-1,706,1317,-10.1053,-0.314234
-511,-293,-11.6276,0.235352,0,0,0,0,0,0,0,-1,713,1317,-11.6276,-0.235372
-504,-293,-17.9086,1.25427,0,0,0,0,0,0,0,-1,720,1317,-17.9086,-1.25423
-497,-293,-18.8006,1.62122,0,0,0,0,0,0,0,-1,727,1317,-18.8006,-1.62119
-490,-293,-18.8961,1.99255,0,0,0,0,0,0,0,-1,734,1317,-18.8961,-1.99251
-483,-293,-19.0831,2.35498,0,0,0,0,0,0,0,-1,741,1317,-19.0831,-2.35497
-476,-293,-19.5228,2.61243,0,0,0,0,0,0,0,-1,748,1317,-19.5228,-2.61237
-469,-293,0,0,0,0,0,0,0,0,0,-1,755,1317,0,0
-462,-293,0,0,0,0,0,0,0,0,0,-1,762,1317,0,0
-455,-293,0,0,0,0,0,0,0,0,0,-1,769,1317,0,0
-448,-293,0,0,0,0,0,0,0,0,0,-1,776,1317,0,0
-441,-293,0,0,0,0,0,0,0,0,0,-1,783,1317,0,0
-434,-293,0,0,0,0,0,0,0,0,0,-1,790,1317,0,0
-427,-293,0,0,0,0,0,0,0,0,0,-1,797,1317,0,0
-420,-293,0,0,0,0,0,0,0,0,0,-1,804,1317,0,0
-413,-293,0,0,0,0,0,0,0,0,0,-1,811,1317,0,0
-406,-293,0,0,0,0,0,0,0,0,0,-1,818,1317,0,0
-399,-293,0,0,0,0,0,0,0,0,0,-1,825,1317,0,0
-392,-293,0,0,0,0,0,0,0,0,0,-1,832,1317,0,0
-385,-293,0,0,0,0,0,0,0,0,0,-1,839,1317,0,0
-378,-293,0,0,0,0,0,0,0,0,0,-1,846,1317,0,0
-371,-293,0,0,0,0,0,0,0,0,0,-1,853,1317,0,0
-364,-293,0,0,0,0,0,0,0,0,0,-1,860,1317,0,0
-357,-293,0,0,0,0,0,0,0,0,0,-1,867,1317,0,0
-350,-293,0,0,0,0,0,0,0,0,0,-1,874,1317,0,0
-343,-293,0,0,0,0,0,0,0,0,0,-1,881,1317,0,0
-336,-293,0,0,0,0,0,0,0,0,0,-1,888,1317,0,0
-329,-293,0,0,0,0,0,0,0,0,0,-1,895,1317,0,0
-322,-293,0,0,0,0,0,0,0,0,0,-1,902,1317,0,0
-315,-293,0,0,0,0,0,0,0,0,0,-1,909,1317,0,0
-308,-293,0,0,0,0,0,0,0,0,0,-1,916,1317,0,0
-301,-293,0,0,0,0,0,0,0,0,0,-1,923,1317,0,0
-294,-293,0,0,0,0,0,0,0,0,0,-1,930,1317,0,0
-287,-293,0,0,0,0,0,0,0,0,0,-1,937,1317,0,0
-280,-293,0,0,0,0,0,0,0,0,0,-1,944,1317,0,0
-273,-293,0,0,0,0,0,0,0,0,0,-1,951,1317,0,0
-266,-293,0,0,0,0,0,0,0,0,0,-1,958,1317,0,0
-259,-293,0,0,0,0,0,0,0,0,0,-1,965,1317,0,0
-252,-293,0,0,0,0,0,0,0,0,0,-1,972,1317,0,0
-245,-293,0,0,0,0,0,0,0,0,0,-1,979,1317,0,0
-238,-293,0,0,0,0,0,0,0,0,0,-1,986,1317,0,0
-231,-293,0,0,0,0,0,0,0,0,0,-1,993,1317,0,0
-224,-293,0,0,0,0,0,0,0,0,0,-1,1000,1317,0,0
-217,-293,0,0,0,0,0,0,0,0,0,-1,1007,1317,0,0
-210,-293,0,0,0,0,0,0,0,0,0,-1,1014,1317,0,0
-203,-293,0,0,0,0,0,0,0,0,0,-1,1021,1317,0,0
-196,-293,0,0,0,0,0,0,0,0,0,-1,1028,1317,0,0
-189,-293,0,0,0,0,0,0,0,0,0,-1,1035,1317,0,0
-182,-293,0,0,0,0,0,0,0,0,0,-1,1042,1317,0,0
-175,-293,0,0,0,0,0,0,0,0,0,-1,1049,1317,0,0
-168,-293,0,0,0,0,0,0,0,0,0,-1,1056,1317,0,0
-161,-293,0,0,0,0,0,0,0,0,0,-1,1063,1317,0,0
-154,-293,0,0,0,0,0,0,0,0,0,-1,1070,1317,0,0
-147,-293,0,0,0,0,0,0,0,0,0,-1,1077,1317,0,0
-140,-293,0,0,0,0,0,0,0,0,0,-1,1084,1317,0,0
-133,-293,0,0,0,0,0,0,0,0,0,-1,1091,1317,0,0
-126,-293,0,0,0,0,0,0,0,0,0,-1,1098,1317,0,0
-119,-293,0,0,0,0,0,0,0,0,0,-1,1105,1317,0,0
-112,-293,0,0,0,0,0,0,0,0,0,-1,1112,1317,0,0
-105,-293,0,0,0,0,0,0,0,0,0,-1,1119,1317,0,0
-98,-293,0,0,0,0,0,0,0,0,0,-1,1126,1317,0,0
-91,-293,0,0,0,0,0,0,0,0,0,-1,1133,1317,0,0
-84,-293,0,0,0,0,0,0,0,0,0,-1,1140,1317,0,0
-77,-293,0,0,0,0,0,0,0,0,0,-1,1147,1317,0,0
-70,-293,0,0,0,0,0,0,0,0,0,-1,1154,1317,0,0
-63,-293,0,0,0,0,0,0,0,0,0,-1,1161,1317,0,0
-56,-293,0,0,0,0,0,0,0,0,0,-1,1168,1317,0,0
-49,-293,0,0,0,0,0,0,0,0,0,-1,1175,1317,0,0
-42,-293,0,0,0,0,0,0,0,0,0,-1,1182,1317,0,0
-35,-293,0,0,0,0,0,0,0,0,0,-1,1189,1317,0,0
-28,-293,0,0,0,0,0,0,0,0,0,-1,1196,1317,0,0
-21,-293,0,0,0,0,0,0,0,0,0,-1,1203,1317,0,0
-14,-293,0,0,0,0,0,0,0,0,0,-1,1210,1317,0,0
-7,-293,0,0,0,0,0,0,0,0,0,-1,1217,1317,0,0
0,-293,0,0,0,0,0,0,0,0,0,-1,1224,1317,0,0
7,-293,0,0,0,0,0,0,0,0,0,-1,1231,1317,0,0
14,-293,0,0,0,0,0,0,0,0,0,-1,1238,1317,0,0
21,-293,0,0,0,0,0,0,0,0,0,-1,1245,1317,0,0
28,-293,0,0,0,0,0,0,0,0,0,-1,1252,1317,0,0
35,-293,0,0,0,0,0,0,0,0,0,-1,1259,1317,0,0
42,-293,0,0,0,0,0,0,0,0,0,-1,1266,1317,0,0
49,-293,0,0,0,0,0,0,0,0,0,-1,1273,1317,0,0
56,-293,0,0,0,0,0,0,0,0,0,-1,1280,1317,0,0
63,-293,0,0,0,0,0,0,0,0,0,-1,1287,1317,0,0
70,-293,0,0,0,0,0,0,0,0,0,-1,1294,1317,0,0
77,-293,0,0,0,0,0,0,0,0,0,-1,1301,1317,0,0
84,-293,0,0,0,0,0,0,0,0,0,-1,1308,1317,0,0
91,-293,0,0,0,0,0,0,0,0,0,-1,1315,1317,0,0
98,-293,0,0,0,0,0,0,0,0,0,-1,1322,1317,0,0
105,-293,0,0,0,0,0,0,0,0,0,-1,1329,1317,0,0
112,-293,0,0,0,0,0,0,0,0,0,-1,1336,1317,0,0
119,-293,0,0,0,0,0,0,0,0,0,-1,1343,1317,0,0
126,-293,0,0,0,0,0,0,0,0,0,-1,1350,1317,0,0
133,-293,0,0,0,0,0,0,0,0,0,-1,1357,1317,0,0
140,-293,0,0,0,0,0,0,0,0,0,-1,1364,1317,0,0
147,-293,0,0,0,0,0,0,0,0,0,-1,1371,1317,0,0
154,-293,0,0,0,0,0,0,0,0,0,-1,1378,1317,0,0
161,-293,0,0,0,0,0,0,0,0,0,-1,1385,1317,0,0
168,-293,0,0,0,0,0,0,0,0,0,-1,1392,1317,0,0
175,-293,0,0,0,0,0,0,0,0,0,-1,1399,1317,0,0
182,-293,0,0,0,0,0,0,0,0,0,-1,1406,1317,0,0
189,-293,0,0,0,0,0,0,0,0,0,-1,1413,1317,0,0
196,-293,0,0,0,0,0,0,0,0,0,-1,1420,1317,0,0
203,-293,0,0,0,0,0,0,0,0,0,-1,1427,1317,0,0
210,-293,0,0,0,0,0,0,0,0,0,-1,1434,1317,0,0
217,-293,0,0,0,0,0,0,0,0,0,-1,1441,1317,0,0
224,-293,0,0,0,0,0,0,0,0,0,-1,1448,1317,0,0
231,-293,0,0,0,0,0,0,0,0,0,-1,1455,1317,0,0
238,-293,0,0,0,0,0,0,0,0,0,-1,1462,1317,0,0
245,-293,0,0,0,0,0,0,0,0,0,-1,1469,1317,0,0
252,-293,0,0,0,0,0,0,0,0,0,-1,1476,1317,0,0
259,-293,0,0,0,0,0,0,0,0,0,-1,1483,1317,0,0
266,-293,0,0,0,0,0,0,0,0,0,-1,1490,1317,0,0
273,-293,0,0,0,0,0,0,0,0,0,-1,1497,1317,0,0
280,-293,0,0,0,0,0,0,0,0,0,-1,1504,1317,0,0
287,-293,0,0,0,0,0,0,0,0,0,-1,1511,1317,0,0
294,-293,0,0,0,0,0,0,0,0,0,-1,1518,1317,0,0
301,-293,0,0,0,0,0,0,0,0,0,-1,1525,1317,0,0
308,-293,0,0,0,0,0,0,0,0,0,-1,1532,1317,0,0
315,-293,0,0,0,0,0,0,0,0,0,-1,1539,1317,0,0
322,-293,0,0,0,0,0,0,0,0,0,-1,1546,1317,0,0
329,-293,0,0,0,0,0,0,0,0,0,-1,1553,1317,0,0
336,-293,0,0,0,0,0,0,0,0,0,-1,1560,1317,0,0
343,-293,0,0,0,0,0,0,0,0,0,-1,1567,1317,0,0
350,-293,0,0,0,0,0,0,0,0,0,-1,1574,1317,0,0
357,-293,0,0,0,0,0,0,0,0,0,-1,1581,1317,0,0
364,-293,0,0,0,0,0,0,0,0,0,-1,1588,1317,0,0
371,-293,0,0,0,0,0,0,0,0,0,-1,1595,1317,0,0
378,-293,0,0,0,0,0,0,0,0,0,-1,1602,1317,0,0
385,-293,0,0,0,0,0,0,0,0,0,-1,1609,1317,0,0
392,-293,0,0,0,0,0,0,0,0,0,-1,1616,1317,0,0
399,-293,0,0,0,0,0,0,0,0,0,-1,1623,1317,0,0
406,-293,0,0,0,0,0,0,0,0,0,-1,1630,1317,0,0
413,-293,0,0,0,0,0,0,0,0,0,-1,1637,1317,0,0
420,-293,0,0,0,0,0,0,0,0,0,-1,1644,1317,0,0
427,-293,0,0,0,0,0,0,0,0,0,-1,1651,1317,0,0
434,-293,0,0,0,0,0,0,0,0,0,-1,1658,1317,0,0
441,-293,0,0,0,0,0,0,0,0,0,-1,1665,1317,0,0
448,-293,0,0,0,0,0,0,0,0,0,-1,1672,1317,0,0
455,-293,0,0,0,0,0,0,0,0,0,-1,1679,1317,0,0
462,-293,0,0,0,0,0,0,0,0,0,-1,1686,1317,0,0
469,-293,0,0,0,0,0,0,0,0,0,-1,1693,1317,0,0
476,-293,0,0,0,0,0,0,0,0,0,-1,1700,1317,0,0
483,-293,0,0,0,0,0,0,0,0,0,-1,1707,1317,0,0
490,-293,0,0,0,0,0,0,0,0,0,-1,1714,1317,0,0
497,-293,0,0,0,0,0,0,0,0,0,-1,1721,1317,0,0
504,-293,0,0,0,0,0,0,0,0,0,-1,1728,1317,0,0
511,-293,0,0,0,0,0,0,0,0,0,-1,1735,1317,0,0
518,-293,0,0,0,0,0,0,0,0,0,-1,1742,1317,0,0
525,-293,0,0,0,0,0,0,0,0,0,-1,1749,1317,0,0
532,-293,0,0,0,0,0,0,0,0,0,-1,1756,1317,0,0
539,-293,0,0,0,0,0,0,0,0,0,-1,1763,1317,0,0
546,-293,0,0,0,0,0,0,0,0,0,-1,1770,1317,0,0
553,-293,0,0,0,0,0,0,0,0,0,-1,1777,1317,0,0
560,-293,0,0,0,0,0,0,0,0,0,-1,1784,1317,0,0
567,-293,0,0,0,0,0,0,0,0,0,-1,1791,1317,0,0
574,-293,0,0,0,0,0,0,0,0,0,-1,1798,1317,0,0
581,-293,0,0,0,0,0,0,0,0,0,-1,1805,1317,0,0
588,-293,0,0,0,0,0,0,0,0,0,-1,1812,1317,0,0
595,-293,52.0404,2.71521,0,0,0,0,0,0,0,-1,1819,1317,52.0405,-2.71525
602,-293,51.8757,2.48206,0,0,0,0,0,0,0,-1,1826,1317,51.8758,-2.482
609,-293,52.7078,2.18896,0,0,0,0,0,0,0,-1,1833,1317,52.7077,-2.18896
616,-293,52.311,3.08398,0,0,0,0,0,0,0,-1,1840,1317,52.311,-3.08393
623,-293,52.3771,2.15942,0,0,0,0,0,0,0,-1,1847,1317,52.3771,-2.15941
630,-293,46.6716,3.21558,0,0,0,0,0,0,0,-1,1854,1317,46.6716,-3.2156
637,-293,42.7729,4.95544,0,0,0,0,0,0,0,-1,1861,1317,42.773,-4.95546
644,-293,24.4565,0.520752,0,0,0,0,0,0,0,-1,1868,1317,24.4566,-0.520709
651,-293,25.8926,9.51245,0,0,0,0,0,0,0,-1,1875,1317,25.8926,-9.51246
658,-293,25.4904,9.10205,0,0,0,0,0,0,0,-1,1882,1317,25.4904,-9.10209
665,-293,36.0046,11.9774,0,0,0,0,0,0,0,-1,1889,1317,36.0046,-11.9774
672,-293,36.3701,11.9756,0,0,0,0,0,0,0,-1,1896,1317,36.3701,-11.9756
679,-293,36.3647,11.4204,0.000936392,0.0014007,-0.000750599,0.00195423,0.000382865,-0.935378,0.0011958,0.0152986,1903,1317,36.3648,-11.4204
686,-293,36.3738,10.8949,0.00128469,0.000741295,-0.00068559,0.00175045,0.000275527,-0.596744,0.00108683,0.016525,1910,1317,36.3738,-10.8949
693,-293,36.344,10.3715,0.000912305,-0.000187976,-5.79717e-05,0.000915351,-0.000191022,-0.0524943,0.000682873,0.0130531,1917,1317,36.3439,-10.3715
700,-293,36.3016,9.84875,0.000420573,-0.000288286,0.000423094,0.000618076,-0.000485789,0.436741,0.00063884,0.0108678,1924,1317,36.3016,-9.84877
707,-293,36.2714,9.37646,-0.000177557,-0.000430387,0.000968495,0.000672738,-0.00128068,0.720501,0.00114587,0.0113779,1931,1317,36.2713,-9.3765
714,-293,36.2534,8.87805,-0.00087937,-0.000645267,0.00160691,0.000848852,-0.00237349,0.821755,0.00192859,0.00811854,1938,1317,36.2535,-8.87804
721,-293,36.2617,8.35669,-0.00165317,-0.000992371,0.00231434,0.00101504,-0.00366058,0.8563,0.00283985,0.0097214,1945,1317,36.2617,-8.35673
728,-293,36.2607,7.8335,-0.00262817,-0.00138226,0.00311577,0.00117222,-0.00518265,0.884065,0.00390493,0.0125324,1952,1317,36.2607,-7.83355
735,-293,36.2531,7.29468,-0.00373641,-0.00191114,0.00399549,0.00127462,-0.00692217,0.89768,0.0050931,0.0246545,1959,1317,36.253,-7.29463
742,-293,36.46,6.80139,0,0,0,0,0,0,0,-1,1966,1317,36.46,-6.80135
749,-293,29.439,5.35339,0,0,0,0,0,0,0,-1,1973,1317,29.4389,-5.35334
756,-293,24.978,3.9718,0,0,0,0,0,0,0,-1,1980,1317,24.978,-3.97186
763,-293,26.6713,4.74097,0,0,0,0,0,0,0,-1,1987,1317,26.6713,-4.74098
770,-293,24.1349,4.69153,0,0,0,0,0,0,0,-1,1994,1317,24.1348,-4.69159
777,-293,0,0,0,0,0,0,0,0,0,-1,2001,1317,0,0
784,-293,0,0,0,0,0,0,0,0,0,-1,2008,1317,0,0
791,-293,0,0,0,0,0,0,0,0,0,-1,2015,1317,0,0
798,-293,0,0,0,0,0,0,0,0,0,-1,2022,1317,0,0
805,-293,0,0,0,0,0,0,0,0,0,-1,2029,1317,0,0
812,-293,0,0,0,0,0,0,0,0,0,-1,2036,1317,0,0
-700,-300,0,0,0,0,0,0,0,0,0,-1,524,1324,0,0
-693,-300,0,0,0,0,0,0,0,0,0,-1,531,1324,0,0
-686,-300,0,0,0,0,0,0,0,0,0,-1,538,1324,0,0
-679,-300,0,0,0,0,0,0,0,0,0,-1,545,1324,0,0
-672,-300,0,0,0,0,0,0,0,0,0,-1,552,1324,0,0
-665,-300,0,0,0,0,0,0,0,0,0,-1,559,1324,0,0
-658,-300,0,0,0,0,0,0,0,0,0,-1,566,1324,0,0
-651,-300,-26.4771,-5.36145,0,0,0,0,0,0,0,-1,573,1324,-26.4771,5.3615
-644,-300,-25.3774,-4.68848,0,0,0,0,0,0,0,-1,580,1324,-25.3774,4.68842
-637,-300,-24.088,-5.12695,0,0,0,0,0,0,0,-1,587,1324,-24.088,5.12694
-630,-300,-21.1108,2.26306,0,0,0,0,0,0,0,-1,594,1324,-21.1109,-2.2631
-623,-300,-12.7067,1.48462,0,0,0,0,0,0,0,-1,601,1324,-12.7067,-1.48462
-616,-300,-14.9988,1.68628,0,0,0,0,0,0,0,-1,608,1324,-14.9988,-1.68627
-609,-300,-15.5027,3.29907,0,0,0,0,0,0,0,-1,615,1324,-15.5027,-3.29902
-602,-300,-20.8799,4.68445,0,0,0,0,0,0,0,-1,622,1324,-20.8799,-4.6844
-595,-300,-21.0461,5.49622,0.00656476,0.00507417,0.00363644,0.00953149,0.00210744,0.684322,0.00578133,0.0367942,629,1324,-21.0462,-5.49625
-588,-300,-20.9418,6.10425,0.0046833,0.00354411,0.00262589,0.00680066,0.00142675,0.678595,0.00414095,0.0216655,636,1324,-20.9418,-6.10423
-581,-300,-20.9579,6.66589,0.0035965,0.00237255,0.00193199,0.00501112,0.000957932,0.632018,0.00307164,0.0213171,643,1324,-20.9579,-6.66583
-574,-300,-20.9872,7.21741,0.00295487,0.00146121,0.00148468,0.00386997,0.0005461,0.552366,0.00241859,0.0161885,650,1324,-20.9872,-7.21739
-567,-300,-21.0393,7.77258,0.00283913,0.000717772,0.00124557,0.00341445,0.000142457,0.432698,0.00223033,0.0164141,657,1324,-21.0393,-7.77253
-560,-300,-21.0847,8.35217,0.00315216,0.000110364,0.00118139,0.0035571,-0.000294567,0.330208,0.00247543,0.0154285,664,1324,-21.0847,-8.35214
-553,-300,-21.0661,8.89783,0.00388751,-0.000286517,0.00136136,0.00429227,-0.000691275,0.288995,0.00311759,0.0108974,671,1324,-21.0661,-8.89782
-546,-300,-21.0721,9.4436,0.00503339,-0.000472542,0.00181343,0.00557699,-0.00101614,0.29124,0.00409891,0.0092455,678,1324,-21.0721,-9.44358
-539,-300,-21.0416,10.0392,0.00691852,-0.000637626,0.00265076,0.00775568,-0.00147479,0.305905,0.00572571,0.0220578,685,1324,-21.0416,-10.0392
-532,-300,-20.9906,10.6111,0,0,0,0,0,0,0,-1,692,1324,-20.9906,-10.6111
-525,-300,-13.5115,6.27783,0,0,0,0,0,0,0,-1,699,1324,-13.5115,-6.2778
-518,-300,-9.8349,-0.537109,0,0,0,0,0,0,0,-1,706,1324,-9.83487,0.537068
-511,-300,-12.8644,0.081665,0,0,0,0,0,0,0,-1,713,1324,-12.8644,-0.0817016
-504,-300,-13.4829,-0.165527,0,0,0,0,0,0,0,-1,720,1324,-13.4829,0.165544
-497,-300,-18.1063,0.956543,0,0,0,0,0,0,0,-1,727,1324,-18.1063,-0.9565
-490,-300,-18.2293,1.53625,0,0,0,0,0,0,0,-1,734,1324,-18.2293,-1.53626
-483,-300,-18.3522,1.61084,0,0,0,0,0,0,0,-1,741,1324,-18.3522,-1.6108
-476,-300,-18.7489,1.96387,0,0,0,0,0,0,0,-1,748,1324,-18.7489,-1.96387
-469,-300,0,0,0,0,0,0,0,0,0,-1,755,1324,0,0
-462,-300,0,0,0,0,0,0,0,0,0,-1,762,1324,0,0
-455,-300,0,0,0,0,0,0,0,0,0,-1,769,1324,0,0
-448,-300,0,0,0,0,0,0,0,0,0,-1,776,1324,0,0
-441,-300,0,0,0,0,0,0,0,0,0,-1,783,1324,0,0
-434,-300,0,0,0,0,0,0,0,0,0,-1,790,1324,0,0
-427,-300,0,0,0,0,0,0,0,0,0,-1,797,1324,0,0
-420,-300,0,0,0,0,0,0,0,0,0,-1,804,1324,0,0
-413,-300,0,0,0,0,0,0,0,0,0,-1,811,1324,0,0
-406,-300,0,0,0,0,0,0,0,0,0,-1,818,1324,0,0
-399,-300,0,0,0,0,0,0,0,0,0,-1,825,1324,0,0
-392,-300,0,0,0,0,0,0,0,0,0,-1,832,1324,0,0
-385,-300,0,0,0,0,0,0,0,0,0,-1,839,1324,0,0
-378,-300,0,0,0,0,0,0,0,0,0,-1,846,1324,0,0
-371,-300,0,0,0,0,0,0,0,0,0,-1,853,1324,0,0
-364,-300,0,0,0,0,0,0,0,0,0,-1,860,1324,0,0
-357,-300,0,0,0,0,0,0,0,0,0,-1,867,1324,0,0
-350,-300,0,0,0,0,0,0,0,0,0,-1,874,1324,0,0
-343,-300,0,0,0,0,0,0,0,0,0,-1,881,1324,0,0
-336,-300,0,0,0,0,0,0,0,0,0,-1,888,1324,0,0
-329,-300,0,0,0,0,0,0,0,0,0,-1,895,1324,0,0
-322,-300,0,0,0,0,0,0,0,0,0,-1,902,1324,0,0
-315,-300,0,0,0,0,0,0,0,0,0,-1,909,1324,0,0
-308,-300,0,0,0,0,0,0,0,0,0,-1,916,1324,0,0
-301,-300,0,0,0,0,0,0,0,0,0,-1,923,1324,0,0
-294,-300,0,0,0,0,0,0,0,0,0,-1,930,1324,0,0
-287,-300,0,0,0,0,0,0,0,0,0,-1,937,1324,0,0
-280,-300,0,0,0,0,0,0,0,0,0,-1,944,1324,0,0
-273,-300,0,0,0,0,0,0,0,0,0,-1,951,1324,0,0
-266,-300,0,0,0,0,0,0,0,0,0,-1,958,1324,0,0
-259,-300,0,0,0,0,0,0,0,0,0,-1,965,1324,0,0
-252,-300,0,0,0,0,0,0,0,0,0,-1,972,1324,0,0
-245,-300,0,0,0,0,0,0,0,0,0,-1,979,1324,0,0
-238,-300,0,0,0,0,0,0,0,0,0,-1,986,1324,0,0
-231,-300,0,0,0,0,0,0,0,0,0,-1,993,1324,0,0
-224,-300,0,0,0,0,0,0,0,0,0,-1,1000,1324,0,0
-217,-300,0,0,0,0,0,0,0,0,0,-1,1007,1324,0,0
-210,-300,0,0,0,0,0,0,0,0,0,-1,1014,1324,0,0
-203,-300,0,0,0,0,0,0,0,0,0,-1,1021,1324,0,0
-196,-300,0,0,0,0,0,0,0,0,0,-1,1028,1324,0,0
-189,-300,0,0,0,0,0,0,0,0,0,-1,1035,1324,0,0
-182,-300,0,0,0,0,0,0,0,0,0,-1,1042,1324,0,0
-175,-300,0,0,0,0,0,0,0,0,0,-1,1049,1324,0,0
-168,-300,0,0,0,0,0,0,0,0,0,-1,1056,1324,0,0
-161,-300,0,0,0,0,0,0,0,0,0,-1,1063,1324,0,0
-154,-300,0,0,0,0,0,0,0,0,0,-1,1070,1324,0,0
-147,-300,0,0,0,0,0,0,0,0,0,-1,1077,1324,0,0
-140,-300,0,0,0,0,0,0,0,0,0,-1,1084,1324,0,0
-133,-300,0,0,0,0,0,0,0,0,0,-1,1091,1324,0,0
-126,-300,0,0,0,0,0,0,0,0,0,-1,1098,1324,0,0
-119,-300,0,0,0,0,0,0,0,0,0,-1,1105,1324,0,0
-112,-300,0,0,0,0,0,0,0,0,0,-1,1112,1324,0,0
-105,-300,0,0,0,0,0,0,0,0,0,-1,1119,1324,0,0
-98,-300,0,0,0,0,0,0,0,0,0,-1,1126,1324,0,0
-91,-300,0,0,0,0,0,0,0,0,0,-1,1133,1324,0,0
-84,-300,0,0,0,0,0,0,0,0,0,-1,1140,1324,0,0
-77,-300,0,0,0,0,0,0,0,0,0,-1,1147,1324,0,0
-70,-300,0,0,0,0,0,0,0,0,0,-1,1154,1324,0,0
-63,-300,0,0,0,0,0,0,0,0,0,-1,1161,1324,0,0
-56,-300,0,0,0,0,0,0,0,0,0,-1,1168,1324,0,0
-49,-300,0,0,0,0,0,0,0,0,0,-1,1175,1324,0,0
-42,-300,0,0,0,0,0,0,0,0,0,-1,1182,1324,0,0
-35,-300,0,0,0,0,0,0,0,0,0,-1,1189,1324,0,0
-28,-300,0,0,0,0,0,0,0,0,0,-1,1196,1324,0,0
-21,-300,0,0,0,0,0,0,0,0,0,-1,1203,1324,0,0
-14,-300,0,0,0,0,0,0,0,0,0,-1,1210,1324,0,0
-7,-300,0,0,0,0,0,0,0,0,0,-1,1217,1324,0,0
0,-300,0,0,0,0,0,0,0,0,0,-1,1224,1324,0,0
7,-300,0,0,0,0,0,0,0,0,0,-1,1231,1324,0,0
14,-300,0,0,0,0,0,0,0,0,0,-1,1238,1324,0,0
21,-300,0,0,0,0,0,0,0,0,0,-1,1245,1324,0,0
28,-300,0,0,0,0,0,0,0,0,0,-1,1252,1324,0,0
35,-300,0,0,0,0,0,0,0,0,0,-1,1259,1324,0,0
42,-300,0,0,0,0,0,0,0,0,0,-1,1266,1324,0,0
49,-300,0,0,0,0,0,0,0,0,0,-1,1273,1324,0,0
56,-300,0,0,0,0,0,0,0,0,0,-1,1280,1324,0,0
63,-300,0,0,0,0,0,0,0,0,0,-1,1287,1324,0,0
70,-300,0,0,0,0,0,0,0,0,0,-1,1294,1324,0,0
77,-300,0,0,0,0,0,0,0,0,0,-1,1301,1324,0,0
84,-300,0,0,0,0,0,0,0,0,0,-1,1308,1324,0,0
91,-300,0,0,0,0,0,0,0,0,0,-1,1315,1324,0,0
98,-300,0,0,0,0,0,0,0,0,0,-1,1322,1324,0,0
105,-300,0,0,0,0,0,0,0,0,0,-1,1329,1324,0,0
112,-300,0,0,0,0,0,0,0,0,0,-1,1336,1324,0,0
119,-300,0,0,0,0,0,0,0,0,0,-1,1343,1324,0,0
126,-300,0,0,0,0,0,0,0,0,0,-1,1350,1324,0,0
133,-300,0,0,0,0,0,0,0,0,0,-1,1357,1324,0,0
140,-300,0,0,0,0,0,0,0,0,0,-1,1364,1324,0,0
147,-300,0,0,0,0,0,0,0,0,0,-1,1371,1324,0,0
154,-300,0,0,0,0,0,0,0,0,0,-1,1378,1324,0,0
161,-300,0,0,0,0,0,0,0,0,0,-1,1385,1324,0,0
168,-300,0,0,0,0,0,0,0,0,0,-1,1392,1324,0,0
175,-300,0,0,0,0,0,0,0,0,0,-1,1399,1324,0,0
182,-300,0,0,0,0,0,0,0,0,0,-1,1406,1324,0,0
189,-300,0,0,0,0,0,0,0,0,0,-1,1413,1324,0,0
196,-300,0,0,0,0,0,0,0,0,0,-1,1420,1324,0,0
203,-300,0,0,0,0,0,0,0,0,0,-1,1427,1324,0,0
210,-300,0,0,0,0,0,0,0,0,0,-1,1434,1324,0,0
217,-300,0,0,0,0,0,0,0,0,0,-1,1441,1324,0,0
224,-300,0,0,0,0,0,0,0,0,0,-1,1448,1324,0,0
231,-300,0,0,0,0,0,0,0,0,0,-1,1455,1324,0,0
238,-300,0,0,0,0,0,0,0,0,0,-1,1462,1324,0,0
245,-300,0,0,0,0,0,0,0,0,0,-1,1469,1324,0,0
252,-300,0,0,0,0,0,0,0,0,0,-1,1476,1324,0,0
259,-300,0,0,0,0,0,0,0,0,0,-1,1483,1324,0,0
266,-300,0,0,0,0,0,0,0,0,0,-1,1490,1324,0,0
273,-300,0,0,0,0,0,0,0,0,0,-1,1497,1324,0,0
280,-300,0,0,0,0,0,0,0,0,0,-1,1504,1324,0,0
287,-300,0,0,0,0,0,0,0,0,0,-1,1511,1324,0,0
294,-300,0,0,0,0,0,0,0,0,0,-1,1518,1324,0,0
301,-300,0,0,0,0,0,0,0,0,0,-1,1525,1324,0,0
308,-300,0,0,0,0,0,0,0,0,0,-1,1532,1324,0,0
315,-300,0,0,0,0,0,0,0,0,0,-1,1539,1324,0,0
322,-300,0,0,0,0,0,0,0,0,0,-1,1546,1324,0,0
329,-300,0,0,0,0,0,0,0,0,0,-1,1553,1324,0,0
336,-300,0,0,0,0,0,0,0,0,0,-1,1560,1324,0,0
343,-300,0,0,0,0,0,0,0,0,0,-1,1567,1324,0,0
350,-300,0,0,0,0,0,0,0,0,0,-1,1574,1324,0,0
357,-300,0,0,0,0,0,0,0,0,0,-1,1581,1324,0,0
364,-300,0,0,0,0,0,0,0,0,0,-1,1588,1324,0,0
371,-300,0,0,0,0,0,0,0,0,0,-1,1595,1324,0,0
378,-300,0,0,0,0,0,0,0,0,0,-1,1602,1324,0,0
385,-300,0,0,0,0,0,0,0,0,0,-1,1609,1324,0,0
392,-300,0,0,0,0,0,0,0,0,0,-1,1616,1324,0,0
399,-300,0,0,0,0,0,0,0,0,0,-1,1623,1324,0,0
406,-300,0,0,0,0,0,0,0,0,0,-1,1630,1324,0,0
413,-300,0,0,0,0,0,0,0,0,0,-1,1637,1324,0,0
420,-300,0,0,0,0,0,0,0,0,0,-1,1644,1324,0,0
427,-300,0,0,0,0,0,0,0,0,0,-1,1651,1324,0,0
434,-300,0,0,0,0,0,0,0,0,0,-1,1658,1324,0,0
441,-300,0,0,0,0,0,0,0,0,0,-1,1665,1324,0,0
448,-300,0,0,0,0,0,0,0,0,0,-1,1672,1324,0,0
455,-300,0,0,0,0,0,0,0,0,0,-1,1679,1324,0,0
462,-300,0,0,0,0,0,0,0,0,0,-1,1686,1324,0,0
469,-300,0,0,0,0,0,0,0,0,0,-1,1693,1324,0,0
476,-300,0,0,0,0,0,0,0,0,0,-1,1700,1324,0,0
483,-300,0,0,0,0,0,0,0,0,0,-1,1707,1324,0,0
490,-300,0,0,0,0,0,0,0,0,0,-1,1714,1324,0,0
497,-300,0,0,0,0,0,0,0,0,0,-1,1721,1324,0,0
504,-300,0,0,0,0,0,0,0,0,0,-1,1728,1324,0,0
511,-300,0,0,0,0,0,0,0,0,0,-1,1735,1324,0,0
518,-300,0,0,0,0,0,0,0,0,0,-1,1742,1324,0,0
525,-300,0,0,0,0,0,0,0,0,0,-1,1749,1324,0,0
532,-300,0,0,0,0,0,0,0,0,0,-1,1756,1324,0,0
539,-300,0,0,0,0,0,0,0,0,0,-1,1763,1324,0,0
546,-300,0,0,0,0,0,0,0,0,0,-1,1770,1324,0,0
553,-300,0,0,0,0,0,0,0,0,0,-1,1777,1324,0,0
560,-300,0,0,0,0,0,0,0,0,0,-1,1784,1324,0,0
567,-300,0,0,0,0,0,0,0,0,0,-1,1791,1324,0,0
574,-300,0,0,0,0,0,0,0,0,0,-1,1798,1324,0,0
581,-300,0,0,0,0,0,0,0,0,0,-1,1805,1324,0,0
588,-300,51.0123,2.29358,0,0,0,0,0,0,0,-1,1812,1324,51.0124,-2.29359
595,-300,51.1687,1.81702,0,0,0,0,0,0,0,-1,1819,1324,51.1687,-1.81707
602,-300,51.1697,1.42285,0,0,0,0,0,0,0,-1,1826,1324,51.1697,-1.42279
609,-300,51.0803,1.13354,0,0,0,0,0,0,0,-1,1833,1324,51.0803,-1.13357
616,-300,52.51,3.68799,0,0,0,0,0,0,0,-1,1840,1324,52.51,-3.68802
623,-300,47.4474,2.43188,0,0,0,0,0,0,0,-1,1847,1324,47.4474,-2.43194
630,-300,42.4099,3.9165,0,0,0,0,0,0,0,-1,1854,1324,42.4099,-3.91649
637,-300,31.1719,4.6366,0,0,0,0,0,0,0,-1,1861,1324,31.1718,-4.63665
644,-300,22.9836,3.44934,0,0,0,0,0,0,0,-1,1868,1324,22.9836,-3.4493
651,-300,25.5004,9.11853,0,0,0,0,0,0,0,-1,1875,1324,25.5004,-9.11851
658,-300,25.4012,9.20032,0,0,0,0,0,0,0,-1,1882,1324,25.4012,-9.20036
665,-300,35.968,12.494,0,0,0,0,0,0,0,-1,1889,1324,35.968,-12.494
672,-300,35.8295,12.0206,0.000133557,0.00166979,-6.09049e-05,0.0016722,0.000131147,-1.53123,0.00107376,0.0253967,1896,1324,35.8295,-12.0206
679,-300,35.8411,11.4476,0.000733355,0.000756336,-0.000277889,0.00102297,0.000466719,-0.80606,0.000591367,0.0127219,1903,1324,35.841,-11.4477
686,-300,35.8424,10.928,0.000990027,0.000249673,-0.000231242,0.00105632,0.000183382,-0.279185,0.000651741,0.0133208,1910,1324,35.8424,-10.928
693,-300,35.8198,10.4159,0.000692796,-0.000359794,0.000217926,0.000736131,-0.000403128,0.19629,0.000667052,0.0120889,1917,1324,35.8198,-10.4159
700,-300,35.8011,9.87927,0.000311027,-0.000401209,0.000576071,0.000632167,-0.000722348,0.508557,0.000782607,0.0129488,1924,1324,35.8012,-9.87922
707,-300,35.7867,9.36328,-0.000136825,-0.0004996,0.00101293,0.000710831,-0.00134726,0.696801,0.00120703,0.00931523,1931,1324,35.7868,-9.36332
714,-300,35.765,8.87,-0.000736258,-0.000671012,0.00155877,0.000855472,-0.00226274,0.795861,0.00186041,0.0109409,1938,1324,35.765,-8.87001
721,-300,35.7662,8.36597,-0.00152739,-0.00092427,0.00223725,0.00103165,-0.00348331,0.85239,0.00273181,0.0121735,1945,1324,35.7662,-8.36592
728,-300,35.7831,7.81848,-0.00255277,-0.00120372,0.00299433,0.00119112,-0.00494761,0.896183,0.00375889,0.0166493,1952,1324,35.783,-7.81848
735,-300,35.5844,7.53162,-0.00385633,-0.00156566,0.00386565,0.00132076,-0.00674274,0.929421,0.00499398,0.0325095,1959,1324,35.5843,-7.53161
742,-300,35.5339,7.08435,0,0,0,0,0,0,0,-1,1966,1324,35.5339,-7.08434
749,-300,27.4065,5.9718,0,0,0,0,0,0,0,-1,1973,1324,27.4065,-5.97181
756,-300,22.1423,3.45642,0,0,0,0,0,0,0,-1,1980,1324,22.1423,-3.45638
763,-300,22.6136,5.1571,0,0,0,0,0,0,0,-1,1987,1324,22.6136,-5.15706
770,-300,24.859,4.77979,0,0,0,0,0,0,0,-1,1994,1324,24.859,-4.77972
777,-300,0,0,0,0,0,0,0,0,0,-1,2001,1324,0,0
784,-300,0,0,0,0,0,0,0,0,0,-1,2008,1324,0,0
791,-300,0,0,0,0,0,0,0,0,0,-1,2015,1324,0,0
798,-300,0,0,0,0,0,0,0,0,0,-1,2022,1324,0,0
805,-300,0,0,0,0,0,0,0,0,0,-1,2029,1324,0,0
812,-300,0,0,0,0,0,0,0,0,0,-1,2036,1324,0,0
-700,-307,0,0,0,0,0,0,0,0,0,-1,524,1331,0,0
-693,-307,0,0,0,0,0,0,0,0,0,-1,531,1331,0,0
-686,-307,0,0,0,0,0,0,0,0,0,-1,538,1331,0,0
-679,-307,0,0,0,0,0,0,0,0,0,-1,545,1331,0,0
-672,-307,0,0,0,0,0,0,0,0,0,-1,552,1331,0,0
-665,-307,0,0,0,0,0,0,0,0,0,-1,559,1331,0,0
-658,-307,0,0,0,0,0,0,0,0,0,-1,566,1331,0,0
-651,-307,-26.0347,-6.00232,0,0,0,0,0,0,0,-1,573,1331,-26.0347,6.00232
-644,-307,-24.4087,-5.21277,0,0,0,0,0,0,0,-1,580,1331,-24.4087,5.21279
-637,-307,-21.0822,1.21277,0,0,0,0,0,0,0,-1,587,1331,-21.0821,-1.21273
-630,-307,-12.0005,0.767212,0,0,0,0,0,0,0,-1,594,1331,-12.0005,-0.767266
-623,-307,-12.2128,2.93811,0,0,0,0,0,0,0,-1,601,1331,-12.2128,-2.93813
-616,-307,-12.6612,2.08289,0,0,0,0,0,0,0,-1,608,1331,-12.6612,-2.08293
-609,-307,-12.2767,1.83228,0,0,0,0,0,0,0,-1,615,1331,-12.2768,-1.83224
-602,-307,-20.4718,4.76929,0,0,0,0,0,0,0,-1,622,1331,-20.4718,-4.76928
-595,-307,-20.527,5.50476,0.00675807,0.00574892,0.00480558,0.0110855,0.0014215,0.733091,0.00696502,0.0469322,629,1331,-20.527,-5.50479
-588,-307,-20.3933,6.13794,0.00486222,0.00396056,0.00332685,0.00776864,0.00105413,0.718052,0.00486593,0.0229214,636,1331,-20.3933,-6.13796
-581,-307,-20.3868,6.68518,0.00374832,0.00268769,0.00234211,0.00561941,0.000816605,0.674063,0.00350592,0.017505,643,1331,-20.3868,-6.68522
-574,-307,-20.4157,7.22546,0.00313641,0.0017059,0.00169416,0.00426011,0.000582196,0.585656,0.00266728,0.0137723,650,1331,-20.4157,-7.22545
-567,-307,-20.4543,7.7948,0.00292909,0.000957707,0.00131628,0.00358784,0.000298959,0.464017,0.00229873,0.0133286,657,1331,-20.4543,-7.79483
-560,-307,-20.4745,8.37634,0.00310627,0.00036535,0.0011691,0.00353719,-6.5567e-05,0.353137,0.00238028,0.0143503,664,1331,-20.4745,-8.37637
-553,-307,-20.4972,8.92358,0.00367476,-4.00973e-05,0.00125569,0.00405938,-0.000424719,0.29723,0.00285836,0.0113363,671,1331,-20.4972,-8.92358
-546,-307,-20.5198,9.46863,0.00466401,-0.000253061,0.00162823,0.0051543,-0.000743343,0.292478,0.00370889,0.0102239,678,1331,-20.5198,-9.46859
-539,-307,-20.5157,10.0693,0.00627695,-0.000399084,0.00234363,0.00701753,-0.00113966,0.306068,0.00510086,0.0154115,685,1331,-20.5157,-10.0693
-532,-307,-20.509,10.6678,0,0,0,0,0,0,0,-1,692,1331,-20.509,-10.6678
-525,-307,-13.2009,6.91309,0,0,0,0,0,0,0,-1,699,1331,-13.2009,-6.9131
-518,-307,-9.77777,-1.56653,0,0,0,0,0,0,0,-1,706,1331,-9.77777,1.56651
-511,-307,-12.5226,0.26709,0,0,0,0,0,0,0,-1,713,1331,-12.5226,-0.267038
-504,-307,-12.5913,-0.308105,0,0,0,0,0,0,0,-1,720,1331,-12.5913,0.308124
-497,-307,-13.8586,-0.115845,0,0,0,0,0,0,0,-1,727,1331,-13.8587,0.115861
-490,-307,-17.9429,0.982178,0,0,0,0,0,0,0,-1,734,1331,-17.9429,-0.982198
-483,-307,-18.1066,0.927612,0,0,0,0,0,0,0,-1,741,1331,-18.1066,-0.927609
-476,-307,-18.1288,1.1228,0,0,0,0,0,0,0,-1,748,1331,-18.1289,-1.12286
-469,-307,-18.2028,0.798584,0,0,0,0,0,0,0,-1,755,1331,-18.2027,-0.798546
-462,-307,0,0,0,0,0,0,0,0,0,-1,762,1331,0,0
-455,-307,0,0,0,0,0,0,0,0,0,-1,769,1331,0,0
-448,-307,0,0,0,0,0,0,0,0,0,-1,776,1331,0,0
-441,-307,0,0,0,0,0,0,0,0,0,-1,783,1331,0,0
-434,-307,0,0,0,0,0,0,0,0,0,-1,790,1331,0,0
-427,-307,0,0,0,0,0,0,0,0,0,-1,797,1331,0,0
-420,-307,0,0,0,0,0,0,0,0,0,-1,804,1331,0,0
-413,-307,0,0,0,0,0,0,0,0,0,-1,811,1331,0,0
-406,-307,0,0,0,0,0,0,0,0,0,-1,818,1331,0,0
-399,-307,0,0,0,0,0,0,0,0,0,-1,825,1331,0,0
-392,-307,0,0,0,0,0,0,0,0,0,-1,832,1331,0,0
-385,-307,0,0,0,0,0,0,0,0,0,-1,839,1331,0,0
-378,-307,0,0,0,0,0,0,0,0,0,-1,846,1331,0,0
-371,-307,0,0,0,0,0,0,0,0,0,-1,853,1331,0,0
-364,-307,0,0,0,0,0,0,0,0,0,-1,860,1331,0,0
-357,-307,0,0,0,0,0,0,0,0,0,-1,867,1331,0,0
-350,-307,0,0,0,0,0,0,0,0,0,-1,874,1331,0,0
-343,-307,0,0,0,0,0,0,0,0,0,-1,881,1331,0,0
-336,-307,0,0,0,0,0,0,0,0,0,-1,888,1331,0,0
-329,-307,0,0,0,0,0,0,0,0,0,-1,895,1331,0,0
-322,-307,0,0,0,0,0,0,0,0,0,-1,902,1331,0,0
-315,-307,0,0,0,0,0,0,0,0,0,-1,909,1331,0,0
-308,-307,0,0,0,0,0,0,0,0,0,-1,916,1331,0,0
-301,-307,0,0,0,0,0,0,0,0,0,-1,923,1331,0,0
-294,-307,0,0,0,0,0,0,0,0,0,-1,930,1331,0,0
-287,-307,0,0,0,0,0,0,0,0,0,-1,937,1331,0,0
-280,-307,0,0,0,0,0,0,0,0,0,-1,944,1331,0,0
-273,-307,0,0,0,0,0,0,0,0,0,-1,951,1331,0,0
-266,-307,0,0,0,0,0,0,0,0,0,-1,958,1331,0,0
-259,-307,0,0,0,0,0,0,0,0,0,-1,965,1331,0,0
-252,-307,0,0,0,0,0,0,0,0,0,-1,972,1331,0,0
-245,-307,0,0,0,0,0,0,0,0,0,-1,979,1331,0,0
-238,-307,0,0,0,0,0,0,0,0,0,-1,986,1331,0,0
-231,-307,0,0,0,0,0,0,0,0,0,-1,993,1331,0,0
-224,-307,0,0,0,0,0,0,0,0,0,-1,1000,1331,0,0
-217,-307,0,0,0,0,0,0,0,0,0,-1,1007,1331,0,0
-210,-307,0,0,0,0,0,0,0,0,0,-1,1014,1331,0,0
-203,-307,0,0,0,0,0,0,0,0,0,-1,1021,1331,0,0
-196,-307,0,0,0,0,0,0,0,0,0,-1,1028,1331,0,0
-189,-307,0,0,0,0,0,0,0,0,0,-1,1035,1331,0,0
-182,-307,0,0,0,0,0,0,0,0,0,-1,1042,1331,0,0
-175,-307,0,0,0,0,0,0,0,0,0,-1,1049,1331,0,0
-168,-307,0,0,0,0,0,0,0,0,0,-1,1056,1331,0,0
-161,-307,0,0,0,0,0,0,0,0,0,-1,1063,1331,0,0
-154,-307,0,0,0,0,0,0,0,0,0,-1,1070,1331,0,0
-147,-307,0,0,0,0,0,0,0,0,0,-1,1077,1331,0,0
-140,-307,0,0,0,0,0,0,0,0,0,-1,1084,1331,0,0
-133,-307,0,0,0,0,0,0,0,0,0,-1,1091,1331,0,0
-126,-307,0,0,0,0,0,0,0,0,0,-1,1098,1331,0,0
-119,-307,0,0,0,0,0,0,0,0,0,-1,1105,1331,0,0
-112,-307,0,0,0,0,0,0,0,0,0,-1,1112,1331,0,0
-105,-307,0,0,0,0,0,0,0,0,0,-1,1119,1331,0,0
-98,-307,0,0,0,0,0,0,0,0,0,-1,1126,1331,0,0
-91,-307,0,0,0,0,0,0,0,0,0,-1,1133,1331,0,0
-84,-307,0,0,0,0,0,0,0,0,0,-1,1140,1331,0,0
-77,-307,0,0,0,0,0,0,0,0,0,-1,1147,1331,0,0
-70,-307,0,0,0,0,0,0,0,0,0,-1,1154,1331,0,0
-63,-307,0,0,0,0,0,0,0,0,0,-1,1161,1331,0,0
-56,-307,0,0,0,0,0,0,0,0,0,-1,1168,1331,0,0
-49,-307,0,0,0,0,0,0,0,0,0,-1,1175,1331,0,0
-42,-307,0,0,0,0,0,0,0,0,0,-1,1182,1331,0,0
-35,-307,0,0,0,0,0,0,0,0,0,-1,1189,1331,0,0
-28,-307,0,0,0,0,0,0,0,0,0,-1,1196,1331,0,0
-21,-307,0,0,0,0,0,0,0,0,0,-1,1203,1331,0,0
-14,-307,0,0,0,0,0,0,0,0,0,-1,1210,1331,0,0
-7,-307,0,0,0,0,0,0,0,0,0,-1,1217,1331,0,0
0,-307,0,0,0,0,0,0,0,0,0,-1,1224,1331,0,0
7,-307,0,0,0,0,0,0,0,0,0,-1,1231,1331,0,0
14,-307,0,0,0,0,0,0,0,0,0,-1,1238,1331,0,0
21,-307,0,0,0,0,0,0,0,0,0,-1,1245,1331,0,0
28,-307,0,0,0,0,0,0,0,0,0,-1,1252,1331,0,0
35,-307,0,0,0,0,0,0,0,0,0,-1,1259,1331,0,0
42,-307,0,0,0,0,0,0,0,0,0,-1,1266,1331,0,0
49,-307,0,0,0,0,0,0,0,0,0,-1,1273,1331,0,0
56,-307,0,0,0,0,0,0,0,0,0,-1,1280,1331,0,0
63,-307,0,0,0,0,0,0,0,0,0,-1,1287,1331,0,0
70,-307,0,0,0,0,0,0,0,0,0,-1,1294,1331,0,0
77,-307,0,0,0,0,0,0,0,0,0,-1,1301,1331,0,0
84,-307,0,0,0,0,0,0,0,0,0,-1,1308,1331,0,0
91,-307,0,0,0,0,0,0,0,0,0,-1,1315,1331,0,0
98,-307,0,0,0,0,0,0,0,0,0,-1,1322,1331,0,0
105,-307,0,0,0,0,0,0,0,0,0,-1,1329,1331,0,0
112,-307,0,0,0,0,0,0,0,0,0,-1,1336,1331,0,0
119,-307,0,0,0,0,0,0,0,0,0,-1,1343,1331,0,0
126,-307,0,0,0,0,0,0,0,0,0,-1,1350,1331,0,0
133,-307,0,0,0,0,0,0,0,0,0,-1,1357,1331,0,0
140,-307,0,0,0,0,0,0,0,0,0,-1,1364,1331,0,0
147,-307,0,0,0,0,0,0,0,0,0,-1,1371,1331,0,0
154,-307,0,0,0,0,0,0,0,0,0,-1,1378,1331,0,0
161,-307,0,0,0,0,0,0,0,0,0,-1,1385,1331,0,0
168,-307,0,0,0,0,0,0,0,0,0,-1,1392,1331,0,0
175,-307,0,0,0,0,0,0,0,0,0,-1,1399,1331,0,0
182,-307,0,0,0,0,0,0,0,0,0,-1,1406,1331,0,0
189,-307,0,0,0,0,0,0,0,0,0,-1,1413,1331,0,0
196,-307,0,0,0,0,0,0,0,0,0,-1,1420,1331,0,0
203,-307,0,0,0,0,0,0,0,0,0,-1,1427,1331,0,0
210,-307,0,0,0,0,0,0,0,0,0,-1,1434,1331,0,0
217,-307,0,0,0,0,0,0,0,0,0,-1,1441,1331,0,0
224,-307,0,0,0,0,0,0,0,0,0,-1,1448,1331,0,0
231,-307,0,0,0,0,0,0,0,0,0,-1,1455,1331,0,0
238,-307,0,0,0,0,0,0,0,0,0,-1,1462,1331,0,0
245,-307,0,0,0,0,0,0,0,0,0,-1,1469,1331,0,0
252,-307,0,0,0,0,0,0,0,0,0,-1,1476,1331,0,0
259,-307,0,0,0,0,0,0,0,0,0,-1,1483,1331,0,0
266,-307,0,0,0,0,0,0,0,0,0,-1,1490,1331,0,0
273,-307,0,0,0,0,0,0,0,0,0,-1,1497,1331,0,0
280,-307,0,0,0,0,0,0,0,0,0,-1,1504,1331,0,0
287,-307,0,0,0,0,0,0,0,0,0,-1,1511,1331,0,0
294,-307,0,0,0,0,0,0,0,0,0,-1,1518,1331,0,0
301,-307,0,0,0,0,0,0,0,0,0,-1,1525,1331,0,0
308,-307,0,0,0,0,0,0,0,0,0,-1,1532,1331,0,0
315,-307,0,0,0,0,0,0,0,0,0,-1,1539,1331,0,0
322,-307,0,0,0,0,0,0,0,0,0,-1,1546,1331,0,0
329,-307,0,0,0,0,0,0,0,0,0,-1,1553,1331,0,0
336,-307,0,0,0,0,0,0,0,0,0,-1,1560,1331,0,0
343,-307,0,0,0,0,0,0,0,0,0,-1,1567,1331,0,0
350,-307,0,0,0,0,0,0,0,0,0,-1,1574,1331,0,0
357,-307,0,0,0,0,0,0,0,0,0,-1,1581,1331,0,0
364,-307,0,0,0,0,0,0,0,0,0,-1,1588,1331,0,0
371,-307,0,0,0,0,0,0,0,0,0,-1,1595,1331,0,0
378,-307,0,0,0,0,0,0,0,0,0,-1,1602,1331,0,0
385,-307,0,0,0,0,0,0,0,0,0,-1,1609,1331,0,0
392,-307,0,0,0,0,0,0,0,0,0,-1,1616,1331,0,0
399,-307,0,0,0,0,0,0,0,0,0,-1,1623,1331,0,0
406,-307,0,0,0,0,0,0,0,0,0,-1,1630,1331,0,0
413,-307,0,0,0,0,0,0,0,0,0,-1,1637,1331,0,0
420,-307,0,0,0,0,0,0,0,0,0,-1,1644,1331,0,0
427,-307,0,0,0,0,0,0,0,0,0,-1,1651,1331,0,0
434,-307,0,0,0,0,0,0,0,0,0,-1,1658,1331,0,0
441,-307,0,0,0,0,0,0,0,0,0,-1,1665,1331,0,0
448,-307,0,0,0,0,0,0,0,0,0,-1,1672,1331,0,0
455,-307,0,0,0,0,0,0,0,0,0,-1,1679,1331,0,0
462,-307,0,0,0,0,0,0,0,0,0,-1,1686,1331,0,0
469,-307,0,0,0,0,0,0,0,0,0,-1,1693,1331,0,0
476,-307,0,0,0,0,0,0,0,0,0,-1,1700,1331,0,0
483,-307,0,0,0,0,0,0,0,0,0,-1,1707,1331,0,0
490,-307,0,0,0,0,0,0,0,0,0,-1,1714,1331,0,0
497,-307,0,0,0,0,0,0,0,0,0,-1,1721,1331,0,0
504,-307,0,0,0,0,0,0,0,0,0,-1,1728,1331,0,0
511,-307,0,0,0,0,0,0,0,0,0,-1,1735,1331,0,0
518,-307,0,0,0,0,0,0,0,0,0,-1,1742,1331,0,0
525,-307,0,0,0,0,0,0,0,0,0,-1,1749,1331,0,0
532,-307,0,0,0,0,0,0,0,0,0,-1,1756,1331,0,0
539,-307,0,0,0,0,0,0,0,0,0,-1,1763,1331,0,0
546,-307,0,0,0,0,0,0,0,0,0,-1,1770,1331,0,0
553,-307,0,0,0,0,0,0,0,0,0,-1,1777,1331,0,0
560,-307,0,0,0,0,0,0,0,0,0,-1,1784,1331,0,0
567,-307,0,0,0,0,0,0,0,0,0,-1,1791,1331,0,0
574,-307,0,0,0,0,0,0,0,0,0,-1,1798,1331,0,0
581,-307,0,0,0,0,0,0,0,0,0,-1,1805,1331,0,0
588,-307,51.277,2.06287,0,0,0,0,0,0,0,-1,1812,1331,51.277,-2.06282
595,-307,51.3699,1.60181,0,0,0,0,0,0,0,-1,1819,1331,51.3698,-1.60176
602,-307,51.1021,1.07471,0,0,0,0,0,0,0,-1,1826,1331,51.102,-1.07474
609,-307,51.2891,0.812378,0,0,0,0,0,0,0,-1,1833,1331,51.289,-0.81237
616,-307,48.0499,2.52173,0,0,0,0,0,0,0,-1,1840,1331,48.05,-2.52169
623,-307,44.3966,2.84888,0,0,0,0,0,0,0,-1,1847,1331,44.3966,-2.84884
630,-307,29.8116,1.51184,0,0,0,0,0,0,0,-1,1854,1331,29.8116,-1.51188
637,-307,24.6407,4.09106,0,0,0,0,0,0,0,-1,1861,1331,24.6407,-4.09103
644,-307,22.6885,5.80408,0,0,0,0,0,0,0,-1,1868,1331,22.6884,-5.80408
651,-307,17.5013,5.80078,0,0,0,0,0,0,0,-1,1875,1331,17.5014,-5.80072
658,-307,35.7227,13.1079,0,0,0,0,0,0,0,-1,1882,1331,35.7226,-13.108
665,-307,35.442,12.4934,-0.000767487,0.00213133,0.000933502,0.00240594,-0.00104209,1.2847,0.00204197,0.0478208,1889,1331,35.442,-12.4934
672,-307,35.3567,12.0007,-6.48543e-05,0.00070459,0.000354544,0.000843043,-0.000203308,1.1985,0.000640643,0.0156883,1896,1331,35.3566,-12.0007
679,-307,35.3268,11.4805,0.000555353,1.72104e-05,9.27933e-05,0.000570904,1.65918e-06,0.166047,0.000380051,0.010394,1903,1331,35.3268,-11.4805
686,-307,35.3094,10.965,0.000809424,-0.000227206,6.0995e-05,0.000813001,-0.000230783,0.0585703,0.000633108,0.0102761,1910,1331,35.3094,-10.965
693,-307,35.3087,10.4293,0.000632302,-0.000494629,0.000336878,0.000725328,-0.000587655,0.269425,0.000759438,0.0123259,1917,1331,35.3087,-10.4293
700,-307,35.2988,9.88599,0.000360564,-0.000463234,0.000604035,0.000679773,-0.000782443,0.486157,0.000844904,0.0136144,1924,1331,35.2989,-9.88601
707,-307,35.2704,9.35156,4.09819e-06,-0.000526832,0.000977057,0.000751111,-0.00127384,0.652751,0.00118202,0.0147781,1931,1331,35.2704,-9.35158
714,-307,35.2501,8.88062,-0.000504375,-0.000687918,0.00147663,0.000883335,-0.00207563,0.754364,0.00175398,0.0134296,1938,1331,35.2501,-8.88056
721,-307,35.2767,8.38928,-0.00122078,-0.000985824,0.00216026,0.00106015,-0.00326676,0.812562,0.00260417,0.0177932,1945,1331,35.2768,-8.38931
728,-307,35.2388,8.06616,-0.0021673,-0.0013489,0.00292875,0.0011991,-0.0047153,0.854808,0.00361023,0.0481334,1952,1331,35.2388,-8.06614
735,-307,35.1466,7.26355,0,0,0,0,0,0,0,-1,1959,1331,35.1466,-7.26354
742,-307,26.677,6.09192,0,0,0,0,0,0,0,-1,1966,1331,26.677,-6.0919
749,-307,26.7727,5.9032,0,0,0,0,0,0,0,-1,1973,1331,26.7727,-5.90323
756,-307,27.1556,5.74756,0,0,0,0,0,0,0,-1,1980,1331,27.1557,-5.7475
763,-307,18.7522,3.55298,0,0,0,0,0,0,0,-1,1987,1331,18.7522,-3.55301
770,-307,0,0,0,0,0,0,0,0,0,-1,1994,1331,0,0
777,-307,0,0,0,0,0,0,0,0,0,-1,2001,1331,0,0
784,-307,0,0,0,0,0,0,0,0,0,-1,2008,1331,0,0
791,-307,0,0,0,0,0,0,0,0,0,-1,2015,1331,0,0
798,-307,0,0,0,0,0,0,0,0,0,-1,2022,1331,0,0
805,-307,0,0,0,0,0,0,0,0,0,-1,2029,1331,0,0
812,-307,0,0,0,0,0,0,0,0,0,-1,2036,1331,0,0
-700,-314,0,0,0,0,0,0,0,0,0,-1,524,1338,0,0
-693,-314,0,0,0,0,0,0,0,0,0,-1,531,1338,0,0
-686,-314,0,0,0,0,0,0,0,0,0,-1,538,1338,0,0
-679,-314,0,0,0,0,0,0,0,0,0,-1,545,1338,0,0
-672,-314,0,0,0,0,0,0,0,0,0,-1,552,1338,0,0
-665,-314,0,0,0,0,0,0,0,0,0,-1,559,1338,0,0
-658,-314,0,0,0,0,0,0,0,0,0,-1,566,1338,0,0
-651,-314,0,0,0,0,0,0,0,0,0,-1,573,1338,0,0
-644,-314,-20.9896,-0.0299072,0,0,0,0,0,0,0,-1,580,1338,-20.9896,0.0299587
-637,-314,-18.8677,6.62646,0,0,0,0,0,0,0,-1,587,1338,-18.8677,-6.62651
-630,-314,-13.2771,2.98938,0,0,0,0,0,0,0,-1,594,1338,-13.2771,-2.98943
-623,-314,-13.3542,3.00903,0,0,0,0,0,0,0,-1,601,1338,-13.3542,-3.00907
-616,-314,-9.93311,1.15088,0,0,0,0,0,0,0,-1,608,1338,-9.93308,-1.15093
-609,-314,-9.4361,2.86292,0,0,0,0,0,0,0,-1,615,1338,-9.43612,-2.86286
-602,-314,-11.8027,2.42798,0,0,0,0,0,0,0,-1,622,1338,-11.8027,-2.42802
-595,-314,-19.9651,5.13318,0,0,0,0,0,0,0,-1,629,1338,-19.9652,-5.13317
-588,-314,-19.8763,6.06995,0.0054579,0.00402884,0.00369593,0.00850773,0.000979005,0.689912,0.00537529,0.0328793,636,1338,-19.8763,-6.06989
-581,-314,-19.8275,6.68335,0.0041099,0.00278758,0.0025447,0.00607793,0.000819553,0.6583,0.00380828,0.0130399,643,1338,-19.8274,-6.68333
-574,-314,-19.8847,7.22107,0.00335784,0.00182533,0.00180196,0.0045497,0.000633468,0.584364,0.00284558,0.0129207,650,1338,-19.8847,-7.22111
-567,-314,-19.8793,7.81543,0.00304862,0.00110621,0.00136246,0.0037506,0.000404235,0.475754,0.00237714,0.0155002,657,1338,-19.8793,-7.8154
-560,-314,-19.8671,8.39746,0.0031365,0.000545366,0.00117227,0.00358814,9.37314e-05,0.367739,0.00236147,0.0167065,664,1338,-19.8671,-8.39747
-553,-314,-19.9458,8.93835,0.00358749,0.000137686,0.00120871,0.00396883,-0.000243656,0.305611,0.00273073,0.0186015,671,1338,-19.9458,-8.93838
-546,-314,-20.0208,9.51404,0.00445428,-9.68128e-05,0.00153175,0.0049218,-0.000564326,0.296234,0.00348457,0.0179076,678,1338,-20.0208,-9.51401
-539,-314,-19.9547,10.1001,0.00583408,-0.000230509,0.00215618,0.00652253,-0.000918958,0.309059,0.00468482,0.0170596,685,1338,-19.9547,-10.1002
-532,-314,-19.8643,10.6301,0,0,0,0,0,0,0,-1,692,1338,-19.8643,-10.6301
-525,-314,-13.3017,7.50671,0,0,0,0,0,0,0,-1,699,1338,-13.3017,-7.50669
-518,-314,-8.52753,4.70032,0,0,0,0,0,0,0,-1,706,1338,-8.52755,-4.70034
-511,-314,-11.8597,0.384888,0,0,0,0,0,0,0,-1,713,1338,-11.8597,-0.384927
-504,-314,-11.4322,-0.187378,0,0,0,0,0,0,0,-1,720,1338,-11.4322,0.187381
-497,-314,-11.0047,-0.759644,0,0,0,0,0,0,0,-1,727,1338,-11.0047,0.759689
-490,-314,-18.5143,0.471069,0,0,0,0,0,0,0,-1,734,1338,-18.5143,-0.47103
-483,-314,-17.8528,0.577271,0,0,0,0,0,0,0,-1,741,1338,-17.8528,-0.577327
-476,-314,-17.714,0.665405,0,0,0,0,0,0,0,-1,748,1338,-17.714,-0.665388
-469,-314,-17.7246,0.794678,0,0,0,0,0,0,0,-1,755,1338,-17.7246,-0.794645
-462,-314,0,0,0,0,0,0,0,0,0,-1,762,1338,0,0
-455,-314,0,0,0,0,0,0,0,0,0,-1,769,1338,0,0
-448,-314,0,0,0,0,0,0,0,0,0,-1,776,1338,0,0
-441,-314,0,0,0,0,0,0,0,0,0,-1,783,1338,0,0
-434,-314,0,0,0,0,0,0,0,0,0,-1,790,1338,0,0
-427,-314,0,0,0,0,0,0,0,0,0,-1,797,1338,0,0
-420,-314,0,0,0,0,0,0,0,0,0,-1,804,1338,0,0
-413,-314,0,0,0,0,0,0,0,0,0,-1,811,1338,0,0
-406,-314,0,0,0,0,0,0,0,0,0,-1,818,1338,0,0
-399,-314,0,0,0,0,0,0,0,0,0,-1,825,1338,0,0
-392,-314,0,0,0,0,0,0,0,0,0,-1,832,1338,0,0
-385,-314,0,0,0,0,0,0,0,0,0,-1,839,1338,0,0
-378,-314,0,0,0,0,0,0,0,0,0,-1,846,1338,0,0
-371,-314,0,0,0,0,0,0,0,0,0,-1,853,1338,0,0
-364,-314,0,0,0,0,0,0,0,0,0,-1,860,1338,0,0
-357,-314,0,0,0,0,0,0,0,0,0,-1,867,1338,0,0
-350,-314,0,0,0,0,0,0,0,0,0,-1,874,1338,0,0
-343,-314,0,0,0,0,0,0,0,0,0,-1,881,1338,0,0
-336,-314,0,0,0,0,0,0,0,0,0,-1,888,1338,0,0
-329,-314,0,0,0,0,0,0,0,0,0,-1,895,1338,0,0
-322,-314,0,0,0,0,0,0,0,0,0,-1,902,1338,0,0
-315,-314,0,0,0,0,0,0,0,0,0,-1,909,1338,0,0
-308,-314,0,0,0,0,0,0,0,0,0,-1,916,1338,0,0
-301,-314,0,0,0,0,0,0,0,0,0,-1,923,1338,0,0
-294,-314,0,0,0,0,0,0,0,0,0,-1,930,1338,0,0
-287,-314,0,0,0,0,0,0,0,0,0,-1,937,1338,0,0
-280,-314,0,0,0,0,0,0,0,0,0,-1,944,1338,0,0
-273,-314,0,0,0,0,0,0,0,0,0,-1,951,1338,0,0
-266,-314,0,0,0,0,0,0,0,0,0,-1,958,1338,0,0
-259,-314,0,0,0,0,0,0,0,0,0,-1,965,1338,0,0
-252,-314,0,0,0,0,0,0,0,0,0,-1,972,1338,0,0
-245,-314,0,0,0,0,0,0,0,0,0,-1,979,1338,0,0
-238,-314,0,0,0,0,0,0,0,0,0,-1,986,1338,0,0
-231,-314,0,0,0,0,0,0,0,0,0,-1,993,1338,0,0
-224,-314,0,0,0,0,0,0,0,0,0,-1,1000,1338,0,0
-217,-314,0,0,0,0,0,0,0,0,0,-1,1007,1338,0,0
-210,-314,0,0,0,0,0,0,0,0,0,-1,1014,1338,0,0
-203,-314,0,0,0,0,0,0,0,0,0,-1,1021,1338,0,0
-196,-314,0,0,0,0,0,0,0,0,0,-1,1028,1338,0,0
-189,-314,0,0,0,0,0,0,0,0,0,-1,1035,1338,0,0
-182,-314,0,0,0,0,0,0,0,0,0,-1,1042,1338,0,0
-175,-314,0,0,0,0,0,0,0,0,0,-1,1049,1338,0,0
-168,-314,0,0,0,0,0,0,0,0,0,-1,1056,1338,0,0
-161,-314,0,0,0,0,0,0,0,0,0,-1,1063,1338,0,0
-154,-314,0,0,0,0,0,0,0,0,0,-1,1070,1338,0,0
-147,-314,0,0,0,0,0,0,0,0,0,-1,1077,1338,0,0
-140,-314,0,0,0,0,0,0,0,0,0,-1,1084,1338,0,0
-133,-314,0,0,0,0,0,0,0,0,0,-1,1091,1338,0,0
-126,-314,0,0,0,0,0,0,0,0,0,-1,1098,1338,0,0
-119,-314,0,0,0,0,0,0,0,0,0,-1,1105,1338,0,0
-112,-314,0,0,0,0,0,0,0,0,0,-1,1112,1338,0,0
-105,-314,0,0,0,0,0,0,0,0,0,-1,1119,1338,0,0
-98,-314,0,0,0,0,0,0,0,0,0,-1,1126,1338,0,0
-91,-314,0,0,0,0,0,0,0,0,0,-1,1133,1338,0,0
-84,-314,0,0,0,0,0,0,0,0,0,-1,1140,1338,0,0
-77,-314,0,0,0,0,0,0,0,0,0,-1,1147,1338,0,0
-70,-314,0,0,0,0,0,0,0,0,0,-1,1154,1338,0,0
-63,-314,0,0,0,0,0,0,0,0,0,-1,1161,1338,0,0
-56,-314,0,0,0,0,0,0,0,0,0,-1,1168,1338,0,0
-49,-314,0,0,0,0,0,0,0,0,0,-1,1175,1338,0,0
-42,-314,0,0,0,0,0,0,0,0,0,-1,1182,1338,0,0
-35,-314,0,0,0,0,0,0,0,0,0,-1,1189,1338,0,0
-28,-314,0,0,0,0,0,0,0,0,0,-1,1196,1338,0,0
-21,-314,0,0,0,0,0,0,0,0,0,-1,1203,1338,0,0
-14,-314,0,0,0,0,0,0,0,0,0,-1,1210,1338,0,0
-7,-314,0,0,0,0,0,0,0,0,0,-1,1217,1338,0,0
0,-314,0,0,0,0,0,0,0,0,0,-1,1224,1338,0,0
7,-314,0,0,0,0,0,0,0,0,0,-1,1231,1338,0,0
14,-314,0,0,0,0,0,0,0,0,0,-1,1238,1338,0,0
21,-314,0,0,0,0,0,0,0,0,0,-1,1245,1338,0,0
28,-314,0,0,0,0,0,0,0,0,0,-1,1252,1338,0,0
35,-314,0,0,0,0,0,0,0,0,0,-1,1259,1338,0,0
42,-314,0,0,0,0,0,0,0,0,0,-1,1266,1338,0,0
49,-314,0,0,0,0,0,0,0,0,0,-1,1273,1338,0,0
56,-314,0,0,0,0,0,0,0,0,0,-1,1280,1338,0,0
63,-314,0,0,0,0,0,0,0,0,0,-1,1287,1338,0,0
70,-314,0,0,0,0,0,0,0,0,0,-1,1294,1338,0,0
77,-314,0,0,0,0,0,0,0,0,0,-1,1301,1338,0,0
84,-314,0,0,0,0,0,0,0,0,0,-1,1308,1338,0,0
91,-314,0,0,0,0,0,0,0,0,0,-1,1315,1338,0,0
98,-314,0,0,0,0,0,0,0,0,0,-1,1322,1338,0,0
105,-314,0,0,0,0,0,0,0,0,0,-1,1329,1338,0,0
112,-314,0,0,0,0,0,0,0,0,0,-1,1336,1338,0,0
119,-314,0,0,0,0,0,0,0,0,0,-1,1343,1338,0,0
126,-314,0,0,0,0,0,0,0,0,0,-1,1350,1338,0,0
133,-314,0,0,0,0,0,0,0,0,0,-1,1357,1338,0,0
140,-314,0,0,0,0,0,0,0,0,0,-1,1364,1338,0,0
147,-314,0,0,0,0,0,0,0,0,0,-1,1371,1338,0,0
154,-314,0,0,0,0,0,0,0,0,0,-1,1378,1338,0,0
161,-314,0,0,0,0,0,0,0,0,0,-1,1385,1338,0,0
168,-314,0,0,0,0,0,0,0,0,0,-1,1392,1338,0,0
175,-314,0,0,0,0,0,0,0,0,0,-1,1399,1338,0,0
182,-314,0,0,0,0,0,0,0,0,0,-1,1406,1338,0,0
189,-314,0,0,0,0,0,0,0,0,0,-1,1413,1338,0,0
196,-314,0,0,0,0,0,0,0,0,0,-1,1420,1338,0,0
203,-314,0,0,0,0,0,0,0,0,0,-1,1427,1338,0,0
210,-314,0,0,0,0,0,0,0,0,0,-1,1434,1338,0,0
217,-314,0,0,0,0,0,0,0,0,0,-1,1441,1338,0,0
224,-314,0,0,0,0,0,0,0,0,0,-1,1448,1338,0,0
231,-314,0,0,0,0,0,0,0,0,0,-1,1455,1338,0,0
238,-314,0,0,0,0,0,0,0,0,0,-1,1462,1338,0,0
245,-314,0,0,0,0,0,0,0,0,0,-1,1469,1338,0,0
252,-314,0,0,0,0,0,0,0,0,0,-1,1476,1338,0,0
259,-314,0,0,0,0,0,0,0,0,0,-1,1483,1338,0,0
266,-314,0,0,0,0,0,0,0,0,0,-1,1490,1338,0,0
273,-314,0,0,0,0,0,0,0,0,0,-1,1497,1338,0,0
280,-314,0,0,0,0,0,0,0,0,0,-1,1504,1338,0,0
287,-314,0,0,0,0,0,0,0,0,0,-1,1511,1338,0,0
294,-314,0,0,0,0,0,0,0,0,0,-1,1518,1338,0,0
301,-314,0,0,0,0,0,0,0,0,0,-1,1525,1338,0,0
308,-314,0,0,0,0,0,0,0,0,0,-1,1532,1338,0,0
315,-314,0,0,0,0,0,0,0,0,0,-1,1539,1338,0,0
322,-314,0,0,0,0,0,0,0,0,0,-1,1546,1338,0,0
329,-314,0,0,0,0,0,0,0,0,0,-1,1553,1338,0,0
336,-314,0,0,0,0,0,0,0,0,0,-1,1560,1338,0,0
343,-314,0,0,0,0,0,0,0,0,0,-1,1567,1338,0,0
350,-314,0,0,0,0,0,0,0,0,0,-1,1574,1338,0,0
357,-314,0,0,0,0,0,0,0,0,0,-1,1581,1338,0,0
364,-314,0,0,0,0,0,0,0,0,0,-1,1588,1338,0,0
371,-314,0,0,0,0,0,0,0,0,0,-1,1595,1338,0,0
378,-314,0,0,0,0,0,0,0,0,0,-1,1602,1338,0,0
385,-314,0,0,0,0,0,0,0,0,0,-1,1609,1338,0,0
392,-314,0,0,0,0,0,0,0,0,0,-1,1616,1338,0,0
399,-314,0,0,0,0,0,0,0,0,0,-1,1623,1338,0,0
406,-314,0,0,0,0,0,0,0,0,0,-1,1630,1338,0,0
413,-314,0,0,0,0,0,0,0,0,0,-1,1637,1338,0,0
420,-314,0,0,0,0,0,0,0,0,0,-1,1644,1338,0,0
427,-314,0,0,0,0,0,0,0,0,0,-1,1651,1338,0,0
434,-314,0,0,0,0,0,0,0,0,0,-1,1658,1338,0,0
441,-314,0,0,0,0,0,0,0,0,0,-1,1665,1338,0,0
448,-314,0,0,0,0,0,0,0,0,0,-1,1672,1338,0,0
455,-314,0,0,0,0,0,0,0,0,0,-1,1679,1338,0,0
462,-314,0,0,0,0,0,0,0,0,0,-1,1686,1338,0,0
469,-314,0,0,0,0,0,0,0,0,0,-1,1693,1338,0,0
476,-314,0,0,0,0,0,0,0,0,0,-1,1700,1338,0,0
483,-314,0,0,0,0,0,0,0,0,0,-1,1707,1338,0,0
490,-314,0,0,0,0,0,0,0,0,0,-1,1714,1338,0,0
497,-314,0,0,0,0,0,0,0,0,0,-1,1721,1338,0,0
504,-314,0,0,0,0,0,0,0,0,0,-1,1728,1338,0,0
511,-314,0,0,0,0,0,0,0,0,0,-1,1735,1338,0,0
518,-314,0,0,0,0,0,0,0,0,0,-1,1742,1338,0,0
525,-314,0,0,0,0,0,0,0,0,0,-1,1749,1338,0,0
532,-314,0,0,0,0,0,0,0,0,0,-1,1756,1338,0,0
539,-314,0,0,0,0,0,0,0,0,0,-1,1763,1338,0,0
546,-314,0,0,0,0,0,0,0,0,0,-1,1770,1338,0,0
553,-314,0,0,0,0,0,0,0,0,0,-1,1777,1338,0,0
560,-314,0,0,0,0,0,0,0,0,0,-1,1784,1338,0,0
567,-314,0,0,0,0,0,0,0,0,0,-1,1791,1338,0,0
574,-314,0,0,0,0,0,0,0,0,0,-1,1798,1338,0,0
581,-314,49.7633,3.98621,0,0,0,0,0,0,0,-1,1805,1338,49.7633,-3.9862
588,-314,49.3467,3.4939,0,0,0,0,0,0,0,-1,1812,1338,49.3467,-3.49392
595,-314,51.6008,1.35242,0,0,0,0,0,0,0,-1,1819,1338,51.6008,-1.35246
602,-314,50.9208,0.783691,0,0,0,0,0,0,0,-1,1826,1338,50.9208,-0.783727
609,-314,51.2183,0.76062,0,0,0,0,0,0,0,-1,1833,1338,51.2183,-0.760615
616,-314,48.1149,3.005,0,0,0,0,0,0,0,-1,1840,1338,48.1149,-3.00505
623,-314,38.7728,2.71741,0,0,0,0,0,0,0,-1,1847,1338,38.7728,-2.71737
630,-314,29.4308,6.23206,0,0,0,0,0,0,0,-1,1854,1338,29.4308,-6.23202
637,-314,22.1349,5.16418,0,0,0,0,0,0,0,-1,1861,1338,22.1349,-5.16414
644,-314,18.7517,6.2605,0,0,0,0,0,0,0,-1,1868,1338,18.7517,-6.26053
651,-314,23.1317,8.005,0,0,0,0,0,0,0,-1,1875,1338,23.1317,-8.00506
658,-314,34.8854,13.1427,0,0,0,0,0,0,0,-1,1882,1338,34.8854,-13.1427
665,-314,34.8217,12.5725,-0.000995593,0.000988432,0.00129344,0.00162647,-0.00163363,1.11253,0.00188222,0.0279512,1889,1338,34.8217,-12.5725
672,-314,34.8207,12.0603,-0.000184113,-0.00015706,0.000632826,0.000462385,-0.000803557,0.796084,0.000739686,0.0130321,1896,1338,34.8207,-12.0603
679,-314,34.8168,11.5125,0.000474588,-0.000483053,0.000287992,0.000554523,-0.000562988,0.270747,0.000645202,0.0107615,1903,1338,34.8168,-11.5125
686,-314,34.7784,10.9912,0.000776607,-0.000465691,0.000177206,0.00080139,-0.000490474,0.138952,0.000753024,0.0125565,1910,1338,34.7785,-10.9912
693,-314,34.7598,10.4445,0.000737186,-0.000470508,0.000305614,0.000810119,-0.000543441,0.234262,0.000786517,0.0127425,1917,1338,34.7598,-10.4445
700,-314,34.7487,9.90857,0.000574211,-0.000407454,0.00050112,0.000784833,-0.000618075,0.397884,0.000811875,0.0145065,1924,1338,34.7486,-9.90859
707,-314,34.7383,9.39368,0.000313345,-0.00043695,0.000809857,0.000830725,-0.000954329,0.568499,0.00103142,0.0142902,1931,1338,34.7383,-9.39366
714,-314,34.7125,8.89783,-0.000103922,-0.000586418,0.00126103,0.000938734,-0.00162907,0.690885,0.00150028,0.0123008,1938,1338,34.7126,-8.89783
721,-314,34.6917,8.44153,-0.000765595,-0.000944414,0.0019645,0.00111153,-0.00282154,0.762658,0.00234121,0.0266926,1945,1338,34.6916,-8.44158
728,-314,34.7856,7.97253,0,0,0,0,0,0,0,-1,1952,1338,34.7856,-7.97259
735,-314,26.3665,6.21582,0,0,0,0,0,0,0,-1,1959,1338,26.3664,-6.21581
742,-314,26.2235,6.0166,0,0,0,0,0,0,0,-1,1966,1338,26.2235,-6.01662
749,-314,26.2223,5.47046,0,0,0,0,0,0,0,-1,1973,1338,26.2223,-5.47041
756,-314,24.2521,5.93408,0,0,0,0,0,0,0,-1,1980,1338,24.252,-5.93413
763,-314,19.2207,4.07239,0,0,0,0,0,0,0,-1,1987,1338,19.2206,-4.07239
770,-314,0,0,0,0,0,0,0,0,0,-1,1994,1338,0,0
777,-314,0,0,0,0,0,0,0,0,0,-1,2001,1338,0,0
784,-314,0,0,0,0,0,0,0,0,0,-1,2008,1338,0,0
791,-314,0,0,0,0,0,0,0,0,0,-1,2015,1338,0,0
798,-314,0,0,0,0,0,0,0,0,0,-1,2022,1338,0,0
805,-314,0,0,0,0,0,0,0,0,0,-1,2029,1338,0,0
812,-314,0,0,0,0,0,0,0,0,0,-1,2036,1338,0,0
-700,-321,0,0,0,0,0,0,0,0,0,-1,524,1345,0,0
-693,-321,0,0,0,0,0,0,0,0,0,-1,531,1345,0,0
-686,-321,0,0,0,0,0,0,0,0,0,-1,538,1345,0,0
-679,-321,0,0,0,0,0,0,0,0,0,-1,545,1345,0,0
-672,-321,0,0,0,0,0,0,0,0,0,-1,552,1345,0,0
-665,-321,0,0,0,0,0,0,0,0,0,-1,559,1345,0,0
-658,-321,0,0,0,0,0,0,0,0,0,-1,566,1345,0,0
-651,-321,0,0,0,0,0,0,0,0,0,-1,573,1345,0,0
-644,-321,-17.2769,5.65454,0,0,0,0,0,0,0,-1,580,1345,-17.2768,-5.65454
-637,-321,-13.3991,3.59241,0,0,0,0,0,0,0,-1,587,1345,-13.3991,-3.59236
-630,-321,-13.2958,3.65039,0,0,0,0,0,0,0,-1,594,1345,-13.2958,-3.65042
-623,-321,-13.2242,3.14148,0,0,0,0,0,0,0,-1,601,1345,-13.2243,-3.14146
-616,-321,-11.6754,3.13794,0,0,0,0,0,0,0,-1,608,1345,-11.6754,-3.13789
-609,-321,-7.95209,1.14758,0,0,0,0,0,0,0,-1,615,1345,-7.95208,-1.14757
-602,-321,-8.85791,2.50049,0,0,0,0,0,0,0,-1,622,1345,-8.85791,-2.50048
-595,-321,-19.8463,5.36584,0,0,0,0,0,0,0,-1,629,1345,-19.8462,-5.36589
-588,-321,-19.4077,6.00037,0.00616217,0.00409639,0.00400302,0.00926341,0.000995153,0.659138,0.00587206,0.0495674,636,1345,-19.4077,-6.00039
-581,-321,-19.3158,6.70374,0.00453562,0.00291989,0.00271747,0.00656276,0.000892745,0.640915,0.00411004,0.0139378,643,1345,-19.3158,-6.70374
-574,-321,-19.3456,7.24854,0.00362235,0.00198817,0.00191028,0.00488295,0.000727571,0.583307,0.00304192,0.0146901,650,1345,-19.3457,-7.24859
-567,-321,-19.3119,7.83496,0.00319973,0.00130204,0.00142783,0.00396523,0.000536535,0.492136,0.00248403,0.0225222,657,1345,-19.3119,-7.83498
-560,-321,-19.3046,8.46399,0.00317788,0.000778531,0.00120861,0.00368113,0.00027528,0.394554,0.00236767,0.0279525,664,1345,-19.3045,-8.46401
-553,-321,-19.3947,8.96375,0.00350251,0.00036332,0.00120019,0.00390879,-4.29581e-05,0.326405,0.0026203,0.0287449,671,1345,-19.3947,-8.9637
-546,-321,-19.4887,9.52515,0.00422417,0.000106099,0.00146026,0.00468941,-0.000359144,0.308436,0.0032526,0.0267264,678,1345,-19.4887,-9.5251
-539,-321,-19.4282,10.0952,0.00535882,-3.64935e-05,0.0019796,0.00600723,-0.000684902,0.316533,0.00425155,0.0234414,685,1345,-19.4282,-10.0952
-532,-321,-19.226,10.6917,0.00707698,3.34047e-05,0.00287893,0.00810396,-0.000993569,0.342649,0.00576245,0.033969,692,1345,-19.226,-10.6917
-525,-321,-19.3282,11.3241,0,0,0,0,0,0,0,-1,699,1345,-19.3283,-11.3241
-518,-321,-10.3564,6.75696,0,0,0,0,0,0,0,-1,706,1345,-10.3564,-6.75694
-511,-321,-9.3302,5.29297,0,0,0,0,0,0,0,-1,713,1345,-9.33023,-5.29294
-504,-321,-10.4713,0.0145264,0,0,0,0,0,0,0,-1,720,1345,-10.4713,-0.0145296
-497,-321,-9.96771,0.313599,0,0,0,0,0,0,0,-1,727,1345,-9.96769,-0.313618
-490,-321,-10.7631,0.973511,0,0,0,0,0,0,0,-1,734,1345,-10.7631,-0.97353
-483,-321,-17.5908,0.2323,0,0,0,0,0,0,0,-1,741,1345,-17.5908,-0.232355
-476,-321,-17.2915,0.297363,0,0,0,0,0,0,0,-1,748,1345,-17.2915,-0.297342
-469,-321,-17.2441,0.478027,0,0,0,0,0,0,0,-1,755,1345,-17.2441,-0.477994
-462,-321,-17.1672,0.526489,0,0,0,0,0,0,0,-1,762,1345,-17.1672,-0.526533
-455,-321,0,0,0,0,0,0,0,0,0,-1,769,1345,0,0
-448,-321,0,0,0,0,0,0,0,0,0,-1,776,1345,0,0
-441,-321,0,0,0,0,0,0,0,0,0,-1,783,1345,0,0
-434,-321,0,0,0,0,0,0,0,0,0,-1,790,1345,0,0
-427,-321,0,0,0,0,0,0,0,0,0,-1,797,1345,0,0
-420,-321,0,0,0,0,0,0,0,0,0,-1,804,1345,0,0
-413,-321,0,0,0,0,0,0,0,0,0,-1,811,1345,0,0
-406,-321,0,0,0,0,0,0,0,0,0,-1,818,1345,0,0
-399,-321,0,0,0,0,0,0,0,0,0,-1,825,1345,0,0
-392,-321,0,0,0,0,0,0,0,0,0,-1,832,1345,0,0
-385,-321,0,0,0,0,0,0,0,0,0,-1,839,1345,0,0
-378,-321,0,0,0,0,0,0,0,0,0,-1,846,1345,0,0
-371,-321,0,0,0,0,0,0,0,0,0,-1,853,1345,0,0
-364,-321,0,0,0,0,0,0,0,0,0,-1,860,1345,0,0
-357,-321,0,0,0,0,0,0,0,0,0,-1,867,1345,0,0
-350,-321,0,0,0,0,0,0,0,0,0,-1,874,1345,0,0
-343,-321,0,0,0,0,0,0,0,0,0,-1,881,1345,0,0
-336,-321,0,0,0,0,0,0,0,0,0,-1,888,1345,0,0
-329,-321,0,0,0,0,0,0,0,0,0,-1,895,1345,0,0
-322,-321,0,0,0,0,0,0,0,0,0,-1,902,1345,0,0
-315,-321,0,0,0,0,0,0,0,0,0,-1,909,1345,0,0
-308,-321,0,0,0,0,0,0,0,0,0,-1,916,1345,0,0
-301,-321,0,0,0,0,0,0,0,0,0,-1,923,1345,0,0
-294,-321,0,0,0,0,0,0,0,0,0,-1,930,1345,0,0
-287,-321,0,0,0,0,0,0,0,0,0,-1,937,1345,0,0
-280,-321,0,0,0,0,0,0,0,0,0,-1,944,1345,0,0
-273,-321,0,0,0,0,0,0,0,0,0,-1,951,1345,0,0
-266,-321,0,0,0,0,0,0,0,0,0,-1,958,1345,0,0
-259,-321,0,0,0,0,0,0,0,0,0,-1,965,1345,0,0
-252,-321,0,0,0,0,0,0,0,0,0,-1,972,1345,0,0
-245,-321,0,0,0,0,0,0,0,0,0,-1,979,1345,0,0
-238,-321,0,0,0,0,0,0,0,0,0,-1,986,1345,0,0
-231,-321,0,0,0,0,0,0,0,0,0,-1,993,1345,0,0
-224,-321,0,0,0,0,0,0,0,0,0,-1,1000,1345,0,0
-217,-321,0,0,0,0,0,0,0,0,0,-1,1007,1345,0,0
-210,-321,0,0,0,0,0,0,0,0,0,-1,1014,1345,0,0
-203,-321,0,0,0,0,0,0,0,0,0,-1,1021,1345,0,0
-196,-321,0,0,0,0,0,0,0,0,0,-1,1028,1345,0,0
-189,-321,0,0,0,0,0,0,0,0,0,-1,1035,1345,0,0
-182,-321,0,0,0,0,0,0,0,0,0,-1,1042,1345,0,0
-175,-321,0,0,0,0,0,0,0,0,0,-1,1049,1345,0,0
-168,-321,0,0,0,0,0,0,0,0,0,-1,1056,1345,0,0
-161,-321,0,0,0,0,0,0,0,0,0,-1,1063,1345,0,0
-154,-321,0,0,0,0,0,0,0,0,0,-1,1070,1345,0,0
-147,-321,0,0,0,0,0,0,0,0,0,-1,1077,1345,0,0
-140,-321,0,0,0,0,0,0,0,0,0,-1,1084,1345,0,0
-133,-321,0,0,0,0,0,0,0,0,0,-1,1091,1345,0,0
-126,-321,0,0,0,0,0,0,0,0,0,-1,1098,1345,0,0
-119,-321,0,0,0,0,0,0,0,0,0,-1,1105,1345,0,0
-112,-321,0,0,0,0,0,0,0,0,0,-1,1112,1345,0,0
-105,-321,0,0,0,0,0,0,0,0,0,-1,1119,1345,0,0
-98,-321,0,0,0,0,0,0,0,0,0,-1,1126,1345,0,0
-91,-321,0,0,0,0,0,0,0,0,0,-1,1133,1345,0,0
-84,-321,0,0,0,0,0,0,0,0,0,-1,1140,1345,0,0
-77,-321,0,0,0,0,0,0,0,0,0,-1,1147,1345,0,0
-70,-321,0,0,0,0,0,0,0,0,0,-1,1154,1345,0,0
-63,-321,0,0,0,0,0,0,0,0,0,-1,1161,1345,0,0
-56,-321,0,0,0,0,0,0,0,0,0,-1,1168,1345,0,0
-49,-321,0,0,0,0,0,0,0,0,0,-1,1175,1345,0,0
-42,-321,0,0,0,0,0,0,0,0,0,-1,1182,1345,0,0
-35,-321,0,0,0,0,0,0,0,0,0,-1,1189,1345,0,0
-28,-321,0,0,0,0,0,0,0,0,0,-1,1196,1345,0,0
-21,-321,0,0,0,0,0,0,0,0,0,-1,1203,1345,0,0
-14,-321,0,0,0,0,0,0,0,0,0,-1,1210,1345,0,0
-7,-321,0,0,0,0,0,0,0,0,0,-1,1217,1345,0,0
0,-321,0,0,0,0,0,0,0,0,0,-1,1224,1345,0,0
7,-321,0,0,0,0,0,0,0,0,0,-1,1231,1345,0,0
14,-321,0,0,0,0,0,0,0,0,0,-1,1238,1345,0,0
21,-321,0,0,0,0,0,0,0,0,0,-1,1245,1345,0,0
28,-321,0,0,0,0,0,0,0,0,0,-1,1252,1345,0,0
35,-321,0,0,0,0,0,0,0,0,0,-1,1259,1345,0,0
42,-321,0,0,0,0,0,0,0,0,0,-1,1266,1345,0,0
49,-321,0,0,0,0,0,0,0,0,0,-1,1273,1345,0,0
56,-321,0,0,0,0,0,0,0,0,0,-1,1280,1345,0,0
63,-321,0,0,0,0,0,0,0,0,0,-1,1287,1345,0,0
70,-321,0,0,0,0,0,0,0,0,0,-1,1294,1345,0,0
77,-321,0,0,0,0,0,0,0,0,0,-1,1301,1345,0,0
84,-321,0,0,0,0,0,0,0,0,0,-1,1308,1345,0,0
91,-321,0,0,0,0,0,0,0,0,0,-1,1315,1345,0,0
98,-321,0,0,0,0,0,0,0,0,0,-1,1322,1345,0,0
105,-321,0,0,0,0,0,0,0,0,0,-1,1329,1345,0,0
112,-321,0,0,0,0,0,0,0,0,0,-1,1336,1345,0,0
119,-321,0,0,0,0,0,0,0,0,0,-1,1343,1345,0,0
126,-321,0,0,0,0,0,0,0,0,0,-1,1350,1345,0,0
133,-321,0,0,0,0,0,0,0,0,0,-1,1357,1345,0,0
140,-321,0,0,0,0,0,0,0,0,0,-1,1364,1345,0,0
147,-321,0,0,0,0,0,0,0,0,0,-1,1371,1345,0,0
154,-321,0,0,0,0,0,0,0,0,0,-1,1378,1345,0,0
161,-321,0,0,0,0,0,0,0,0,0,-1,1385,1345,0,0
168,-321,0,0,0,0,0,0,0,0,0,-1,1392,1345,0,0
175,-321,0,0,0,0,0,0,0,0,0,-1,1399,1345,0,0
182,-321,0,0,0,0,0,0,0,0,0,-1,1406,1345,0,0
189,-321,0,0,0,0,0,0,0,0,0,-1,1413,1345,0,0
196,-321,0,0,0,0,0,0,0,0,0,-1,1420,1345,0,0
203,-321,0,0,0,0,0,0,0,0,0,-1,1427,1345,0,0
210,-321,0,0,0,0,0,0,0,0,0,-1,1434,1345,0,0
217,-321,0,0,0,0,0,0,0,0,0,-1,1441,1345,0,0
224,-321,0,0,0,0,0,0,0,0,0,-1,1448,1345,0,0
231,-321,0,0,0,0,0,0,0,0,0,-1,1455,1345,0,0
238,-321,0,0,0,0,0,0,0,0,0,-1,1462,1345,0,0
245,-321,0,0,0,0,0,0,0,0,0,-1,1469,1345,0,0
252,-321,0,0,0,0,0,0,0,0,0,-1,1476,1345,0,0
259,-321,0,0,0,0,0,0,0,0,0,-1,1483,1345,0,0
266,-321,0,0,0,0,0,0,0,0,0,-1,1490,1345,0,0
273,-321,0,0,0,0,0,0,0,0,0,-1,1497,1345,0,0
280,-321,0,0,0,0,0,0,0,0,0,-1,1504,1345,0,0
287,-321,0,0,0,0,0,0,0,0,0,-1,1511,1345,0,0
294,-321,0,0,0,0,0,0,0,0,0,-1,1518,1345,0,0
301,-321,0,0,0,0,0,0,0,0,0,-1,1525,1345,0,0
308,-321,0,0,0,0,0,0,0,0,0,-1,1532,1345,0,0
315,-321,0,0,0,0,0,0,0,0,0,-1,1539,1345,0,0
322,-321,0,0,0,0,0,0,0,0,0,-1,1546,1345,0,0
329,-321,0,0,0,0,0,0,0,0,0,-1,1553,1345,0,0
336,-321,0,0,0,0,0,0,0,0,0,-1,1560,1345,0,0
343,-321,0,0,0,0,0,0,0,0,0,-1,1567,1345,0,0
350,-321,0,0,0,0,0,0,0,0,0,-1,1574,1345,0,0
357,-321,0,0,0,0,0,0,0,0,0,-1,1581,1345,0,0
364,-321,0,0,0,0,0,0,0,0,0,-1,1588,1345,0,0
371,-321,0,0,0,0,0,0,0,0,0,-1,1595,1345,0,0
378,-321,0,0,0,0,0,0,0,0,0,-1,1602,1345,0,0
385,-321,0,0,0,0,0,0,0,0,0,-1,1609,1345,0,0
392,-321,0,0,0,0,0,0,0,0,0,-1,1616,1345,0,0
399,-321,0,0,0,0,0,0,0,0,0,-1,1623,1345,0,0
406,-321,0,0,0,0,0,0,0,0,0,-1,1630,1345,0,0
413,-321,0,0,0,0,0,0,0,0,0,-1,1637,1345,0,0
420,-321,0,0,0,0,0,0,0,0,0,-1,1644,1345,0,0
427,-321,0,0,0,0,0,0,0,0,0,-1,1651,1345,0,0
434,-321,0,0,0,0,0,0,0,0,0,-1,1658,1345,0,0
441,-321,0,0,0,0,0,0,0,0,0,-1,1665,1345,0,0
448,-321,0,0,0,0,0,0,0,0,0,-1,1672,1345,0,0
455,-321,0,0,0,0,0,0,0,0,0,-1,1679,1345,0,0
462,-321,0,0,0,0,0,0,0,0,0,-1,1686,1345,0,0
469,-321,0,0,0,0,0,0,0,0,0,-1,1693,1345,0,0
476,-321,0,0,0,0,0,0,0,0,0,-1,1700,1345,0,0
483,-321,0,0,0,0,0,0,0,0,0,-1,1707,1345,0,0
490,-321,0,0,0,0,0,0,0,0,0,-1,1714,1345,0,0
497,-321,0,0,0,0,0,0,0,0,0,-1,1721,1345,0,0
504,-321,0,0,0,0,0,0,0,0,0,-1,1728,1345,0,0
511,-321,0,0,0,0,0,0,0,0,0,-1,1735,1345,0,0
518,-321,0,0,0,0,0,0,0,0,0,-1,1742,1345,0,0
525,-321,0,0,0,0,0,0,0,0,0,-1,1749,1345,0,0
532,-321,0,0,0,0,0,0,0,0,0,-1,1756,1345,0,0
539,-321,0,0,0,0,0,0,0,0,0,-1,1763,1345,0,0
546,-321,0,0,0,0,0,0,0,0,0,-1,1770,1345,0,0
553,-321,0,0,0,0,0,0,0,0,0,-1,1777,1345,0,0
560,-321,0,0,0,0,0,0,0,0,0,-1,1784,1345,0,0
567,-321,0,0,0,0,0,0,0,0,0,-1,1791,1345,0,0
574,-321,0,0,0,0,0,0,0,0,0,-1,1798,1345,0,0
581,-321,49.9773,4.13696,0,0,0,0,0,0,0,-1,1805,1345,49.9772,-4.13692
588,-321,49.5574,3.74097,0,0,0,0,0,0,0,-1,1812,1345,49.5574,-3.74092
595,-321,49.1759,3.42566,0,0,0,0,0,0,0,-1,1819,1345,49.1759,-3.42565
602,-321,51.0474,0.421875,0,0,0,0,0,0,0,-1,1826,1345,51.0473,-0.421858
609,-321,48.311,3.39575,0,0,0,0,0,0,0,-1,1833,1345,48.311,-3.39571
616,-321,37.8107,2.58704,0,0,0,0,0,0,0,-1,1840,1345,37.8106,-2.58705
623,-321,37.6854,3.68933,0,0,0,0,0,0,0,-1,1847,1345,37.6854,-3.68931
630,-321,23.6674,4.34106,0,0,0,0,0,0,0,-1,1854,1345,23.6674,-4.34112
637,-321,21.7925,6.79224,0,0,0,0,0,0,0,-1,1861,1345,21.7925,-6.7922
644,-321,16.8844,6.71973,0,0,0,0,0,0,0,-1,1868,1345,16.8844,-6.71971
651,-321,27.4924,10.0319,0,0,0,0,0,0,0,-1,1875,1345,27.4924,-10.0319
658,-321,34.2169,13.1046,0,0,0,0,0,0,0,-1,1882,1345,34.2169,-13.1046
665,-321,34.2684,12.6028,-0.000753203,-0.000234114,0.00143002,0.000959719,-0.00194704,0.87517,0.00171018,0.0215171,1889,1345,34.2684,-12.6028
672,-321,34.2921,12.0704,2.66961e-05,-0.000801487,0.000726639,0.000448951,-0.00122374,0.526412,0.000999667,0.0138373,1896,1345,34.2921,-12.0705
679,-321,34.2853,11.537,0.000589827,-0.000725352,0.000327206,0.000666736,-0.00080226,0.230856,0.000849328,0.0115454,1903,1345,34.2853,-11.537
686,-321,34.2412,11.0118,0.000864815,-0.000515627,0.000154097,0.000881808,-0.00053262,0.109828,0.000824874,0.012259,1910,1345,34.2412,-11.0118
693,-321,34.2207,10.4912,0.000936373,-0.000338827,0.000159206,0.000955949,-0.000358403,0.122346,0.000784547,0.0126013,1917,1345,34.2207,-10.4912
700,-321,34.2203,9.95349,0.000912257,-0.000230472,0.000273235,0.000974229,-0.000292444,0.223034,0.000765812,0.0131124,1924,1345,34.2204,-9.9535
707,-321,34.2189,9.42944,0.00076832,-0.00020715,0.000511055,0.000987029,-0.000425859,0.404371,0.000836903,0.0150887,1931,1345,34.2188,-9.42946
714,-321,34.1909,8.90466,0.000468768,-0.000322313,0.000907402,0.00106309,-0.000916637,0.579863,0.00114404,0.0136447,1938,1345,34.1909,-8.90464
721,-321,34.1337,8.3717,-0.000107903,-0.000726924,0.00164429,0.00125575,-0.00209058,0.69237,0.00195194,0.0417423,1945,1345,34.1336,-8.37175
728,-321,34.1527,7.89697,0,0,0,0,0,0,0,-1,1952,1345,34.1527,-7.89702
735,-321,22.0081,5.65479,0,0,0,0,0,0,0,-1,1959,1345,22.008,-5.65481
742,-321,24.5398,5.05725,0,0,0,0,0,0,0,-1,1966,1345,24.5398,-5.05729
749,-321,24.0675,5.4458,0,0,0,0,0,0,0,-1,1973,1345,24.0675,-5.44581
756,-321,19.6251,4.98315,0,0,0,0,0,0,0,-1,1980,1345,19.6251,-4.98311
763,-321,19.6747,4.61438,0,0,0,0,0,0,0,-1,1987,1345,19.6747,-4.61436
770,-321,0,0,0,0,0,0,0,0,0,-1,1994,1345,0,0
777,-321,0,0,0,0,0,0,0,0,0,-1,2001,1345,0,0
784,-321,0,0,0,0,0,0,0,0,0,-1,2008,1345,0,0
791,-321,0,0,0,0,0,0,0,0,0,-1,2015,1345,0,0
798,-321,0,0,0,0,0,0,0,0,0,-1,2022,1345,0,0
805,-321,0,0,0,0,0,0,0,0,0,-1,2029,1345,0,0
812,-321,0,0,0,0,0,0,0,0,0,-1,2036,1345,0,0
-700,-328,0,0,0,0,0,0,0,0,0,-1,524,1352,0,0
-693,-328,0,0,0,0,0,0,0,0,0,-1,531,1352,0,0
-686,-328,0,0,0,0,0,0,0,0,0,-1,538,1352,0,0
-679,-328,0,0,0,0,0,0,0,0,0,-1,545,1352,0,0
-672,-328,0,0,0,0,0,0,0,0,0,-1,552,1352,0,0
-665,-328,0,0,0,0,0,0,0,0,0,-1,559,1352,0,0
-658,-328,0,0,0,0,0,0,0,0,0,-1,566,1352,0,0
-651,-328,0,0,0,0,0,0,0,0,0,-1,573,1352,0,0
-644,-328,0,0,0,0,0,0,0,0,0,-1,580,1352,0,0
-637,-328,-12.0695,1.02014,0,0,0,0,0,0,0,-1,587,1352,-12.0694,-1.02017
-630,-328,-13.3971,4.54578,0,0,0,0,0,0,0,-1,594,1352,-13.3971,-4.54572
-623,-328,-10.7739,4.55042,0,0,0,0,0,0,0,-1,601,1352,-10.7739,-4.55041
-616,-328,-8.22198,-0.25708,0,0,0,0,0,0,0,-1,608,1352,-8.22201,0.257067
-609,-328,-7.87439,0.192871,0,0,0,0,0,0,0,-1,615,1352,-7.87441,-0.192822
-602,-328,-7.63062,1.31665,0,0,0,0,0,0,0,-1,622,1352,-7.63064,-1.3166
-595,-328,-9.42639,2.93494,0,0,0,0,0,0,0,-1,629,1352,-9.42638,-2.93499
-588,-328,-18.9698,5.61743,0,0,0,0,0,0,0,-1,636,1352,-18.9699,-5.61739
-581,-328,-18.7598,6.66345,0.00500246,0.00299339,0.00288902,0.00705661,0.000939243,0.618082,0.00442468,0.0261632,643,1352,-18.7598,-6.66343
-574,-328,-18.7428,7.27295,0.00387613,0.00206687,0.00202941,0.00519341,0.000749593,0.575737,0.00324143,0.0146704,650,1352,-18.7428,-7.27297
-567,-328,-18.7861,7.86951,0.00330022,0.00140421,0.00151346,0.00413807,0.000566359,0.505601,0.00259065,0.0200265,657,1352,-18.7861,-7.86947
-560,-328,-18.7776,8.48035,0.00313806,0.000905436,0.00127224,0.0037143,0.000329194,0.425293,0.00237409,0.0288314,664,1352,-18.7776,-8.48032
-553,-328,-18.8121,8.99524,0.00330465,0.000512165,0.00123342,0.00377142,4.53929e-05,0.36178,0.00249929,0.0301109,671,1352,-18.8121,-8.99527
-546,-328,-18.8637,9.54346,0.00385037,0.000251586,0.00143636,0.00435335,-0.000251398,0.336835,0.00298956,0.0272425,678,1352,-18.8637,-9.54351
-539,-328,-18.8771,10.1282,0.00473137,0.00011026,0.00186223,0.0053884,-0.000546771,0.339184,0.0037877,0.0227808,685,1352,-18.8771,-10.1282
-532,-328,-18.8207,10.7057,0.0060714,0.000136208,0.00260109,0.00704998,-0.000842368,0.359838,0.00500446,0.0185145,692,1352,-18.8207,-10.7056
-525,-328,-18.8028,11.36,0.00774215,0.000109652,0.00351096,0.00911152,-0.00125971,0.371878,0.00653485,0.0317644,699,1352,-18.8028,-11.36
-518,-328,-18.8947,12.0486,0,0,0,0,0,0,0,-1,706,1352,-18.8947,-12.0486
-511,-328,-9.39868,7.16113,0,0,0,0,0,0,0,-1,713,1352,-9.39869,-7.16113
-504,-328,-8.60626,-0.905762,0,0,0,0,0,0,0,-1,720,1352,-8.60623,0.905787
-497,-328,-9.29102,-0.0517578,0,0,0,0,0,0,0,-1,727,1352,-9.29104,0.0518175
-490,-328,-10.0663,0.882813,0,0,0,0,0,0,0,-1,734,1352,-10.0663,-0.882795
-483,-328,-10.8181,1.72375,0,0,0,0,0,0,0,-1,741,1352,-10.8181,-1.72374
-476,-328,-16.8951,-0.150757,0,0,0,0,0,0,0,-1,748,1352,-16.8951,0.150795
-469,-328,-16.8412,0.00158691,0,0,0,0,0,0,0,-1,755,1352,-16.8412,-0.00161515
-462,-328,-16.3546,-0.203491,0,0,0,0,0,0,0,-1,762,1352,-16.3545,0.203532
-455,-328,0,0,0,0,0,0,0,0,0,-1,769,1352,0,0
-448,-328,0,0,0,0,0,0,0,0,0,-1,776,1352,0,0
-441,-328,0,0,0,0,0,0,0,0,0,-1,783,1352,0,0
-434,-328,0,0,0,0,0,0,0,0,0,-1,790,1352,0,0
-427,-328,0,0,0,0,0,0,0,0,0,-1,797,1352,0,0
-420,-328,0,0,0,0,0,0,0,0,0,-1,804,1352,0,0
-413,-328,0,0,0,0,0,0,0,0,0,-1,811,1352,0,0
-406,-328,0,0,0,0,0,0,0,0,0,-1,818,1352,0,0
-399,-328,0,0,0,0,0,0,0,0,0,-1,825,1352,0,0
-392,-328,0,0,0,0,0,0,0,0,0,-1,832,1352,0,0
-385,-328,0,0,0,0,0,0,0,0,0,-1,839,1352,0,0
-378,-328,0,0,0,0,0,0,0,0,0,-1,846,1352,0,0
-371,-328,0,0,0,0,0,0,0,0,0,-1,853,1352,0,0
-364,-328,0,0,0,0,0,0,0,0,0,-1,860,1352,0,0
-357,-328,0,0,0,0,0,0,0,0,0,-1,867,1352,0,0
-350,-328,0,0,0,0,0,0,0,0,0,-1,874,1352,0,0
-343,-328,0,0,0,0,0,0,0,0,0,-1,881,1352,0,0
-336,-328,0,0,0,0,0,0,0,0,0,-1,888,1352,0,0
-329,-328,0,0,0,0,0,0,0,0,0,-1,895,1352,0,0
-322,-328,0,0,0,0,0,0,0,0,0,-1,902,1352,0,0
-315,-328,0,0,0,0,0,0,0,0,0,-1,909,1352,0,0
-308,-328,0,0,0,0,0,0,0,0,0,-1,916,1352,0,0
-301,-328,0,0,0,0,0,0,0,0,0,-1,923,1352,0,0
-294,-328,0,0,0,0,0,0,0,0,0,-1,930,1352,0,0
-287,-328,0,0,0,0,0,0,0,0,0,-1,937,1352,0,0
-280,-328,0,0,0,0,0,0,0,0,0,-1,944,1352,0,0
-273,-328,0,0,0,0,0,0,0,0,0,-1,951,1352,0,0
-266,-328,0,0,0,0,0,0,0,0,0,-1,958,1352,0,0
-259,-328,0,0,0,0,0,0,0,0,0,-1,965,1352,0,0
-252,-328,0,0,0,0,0,0,0,0,0,-1,972,1352,0,0
-245,-328,0,0,0,0,0,0,0,0,0,-1,979,1352,0,0
-238,-328,0,0,0,0,0,0,0,0,0,-1,986,1352,0,0
-231,-328,0,0,0,0,0,0,0,0,0,-1,993,1352,0,0
-224,-328,0,0,0,0,0,0,0,0,0,-1,1000,1352,0,0
-217,-328,0,0,0,0,0,0,0,0,0,-1,1007,1352,0,0
-210,-328,0,0,0,0,0,0,0,0,0,-1,1014,1352,0,0
-203,-328,0,0,0,0,0,0,0,0,0,-1,1021,1352,0,0
-196,-328,0,0,0,0,0,0,0,0,0,-1,1028,1352,0,0
-189,-328,0,0,0,0,0,0,0,0,0,-1,1035,1352,0,0
-182,-328,0,0,0,0,0,0,0,0,0,-1,1042,1352,0,0
-175,-328,0,0,0,0,0,0,0,0,0,-1,1049,1352,0,0
-168,-328,0,0,0,0,0,0,0,0,0,-1,1056,1352,0,0
-161,-328,0,0,0,0,0,0,0,0,0,-1,1063,1352,0,0
-154,-328,0,0,0,0,0,0,0,0,0,-1,1070,1352,0,0
-147,-328,0,0,0,0,0,0,0,0,0,-1,1077,1352,0,0
-140,-328,0,0,0,0,0,0,0,0,0,-1,1084,1352,0,0
-133,-328,0,0,0,0,0,0,0,0,0,-1,1091,1352,0,0
-126,-328,0,0,0,0,0,0,0,0,0,-1,1098,1352,0,0
-119,-328,0,0,0,0,0,0,0,0,0,-1,1105,1352,0,0
-112,-328,0,0,0,0,0,0,0,0,0,-1,1112,1352,0,0
-105,-328,0,0,0,0,0,0,0,0,0,-1,1119,1352,0,0
-98,-328,0,0,0,0,0,0,0,0,0,-1,1126,1352,0,0
-91,-328,0,0,0,0,0,0,0,0,0,-1,1133,1352,0,0
-84,-328,0,0,0,0,0,0,0,0,0,-1,1140,1352,0,0
-77,-328,0,0,0,0,0,0,0,0,0,-1,1147,1352,0,0
-70,-328,0,0,0,0,0,0,0,0,0,-1,1154,1352,0,0
-63,-328,0,0,0,0,0,0,0,0,0,-1,1161,1352,0,0
-56,-328,0,0,0,0,0,0,0,0,0,-1,1168,1352,0,0
-49,-328,0,0,0,0,0,0,0,0,0,-1,1175,1352,0,0
-42,-328,0,0,0,0,0,0,0,0,0,-1,1182,1352,0,0
-35,-328,0,0,0,0,0,0,0,0,0,-1,1189,1352,0,0
-28,-328,0,0,0,0,0,0,0,0,0,-1,1196,1352,0,0
-21,-328,0,0,0,0,0,0,0,0,0,-1,1203,1352,0,0
-14,-328,0,0,0,0,0,0,0,0,0,-1,1210,1352,0,0
-7,-328,0,0,0,0,0,0,0,0,0,-1,1217,1352,0,0
0,-328,0,0,0,0,0,0,0,0,0,-1,1224,1352,0,0
7,-328,0,0,0,0,0,0,0,0,0,-1,1231,1352,0,0
14,-328,0,0,0,0,0,0,0,0,0,-1,1238,1352,0,0
21,-328,0,0,0,0,0,0,0,0,0,-1,1245,1352,0,0
28,-328,0,0,0,0,0,0,0,0,0,-1,1252,1352,0,0
35,-328,0,0,0,0,0,0,0,0,0,-1,1259,1352,0,0
42,-328,0,0,0,0,0,0,0,0,0,-1,1266,1352,0,0
49,-328,0,0,0,0,0,0,0,0,0,-1,1273,1352,0,0
56,-328,0,0,0,0,0,0,0,0,0,-1,1280,1352,0,0
63,-328,0,0,0,0,0,0,0,0,0,-1,1287,1352,0,0
70,-328,0,0,0,0,0,0,0,0,0,-1,1294,1352,0,0
77,-328,0,0,0,0,0,0,0,0,0,-1,1301,1352,0,0
84,-328,0,0,0,0,0,0,0,0,0,-1,1308,1352,0,0
91,-328,0,0,0,0,0,0,0,0,0,-1,1315,1352,0,0
98,-328,0,0,0,0,0,0,0,0,0,-1,1322,1352,0,0
105,-328,0,0,0,0,0,0,0,0,0,-1,1329,1352,0,0
112,-328,0,0,0,0,0,0,0,0,0,-1,1336,1352,0,0
119,-328,0,0,0,0,0,0,0,0,0,-1,1343,1352,0,0
126,-328,0,0,0,0,0,0,0,0,0,-1,1350,1352,0,0
133,-328,0,0,0,0,0,0,0,0,0,-1,1357,1352,0,0
140,-328,0,0,0,0,0,0,0,0,0,-1,1364,1352,0,0
147,-328,0,0,0,0,0,0,0,0,0,-1,1371,1352,0,0
154,-328,0,0,0,0,0,0,0,0,0,-1,1378,1352,0,0
161,-328,0,0,0,0,0,0,0,0,0,-1,1385,1352,0,0
168,-328,0,0,0,0,0,0,0,0,0,-1,1392,1352,0,0
175,-328,0,0,0,0,0,0,0,0,0,-1,1399,1352,0,0
182,-328,0,0,0,0,0,0,0,0,0,-1,1406,1352,0,0
189,-328,0,0,0,0,0,0,0,0,0,-1,1413,1352,0,0
196,-328,0,0,0,0,0,0,0,0,0,-1,1420,1352,0,0
203,-328,0,0,0,0,0,0,0,0,0,-1,1427,1352,0,0
210,-328,0,0,0,0,0,0,0,0,0,-1,1434,1352,0,0
217,-328,0,0,0,0,0,0,0,0,0,-1,1441,1352,0,0
224,-328,0,0,0,0,0,0,0,0,0,-1,1448,1352,0,0
231,-328,0,0,0,0,0,0,0,0,0,-1,1455,1352,0,0
238,-328,0,0,0,0,0,0,0,0,0,-1,1462,1352,0,0
245,-328,0,0,0,0,0,0,0,0,0,-1,1469,1352,0,0
252,-328,0,0,0,0,0,0,0,0,0,-1,1476,1352,0,0
259,-328,0,0,0,0,0,0,0,0,0,-1,1483,1352,0,0
266,-328,0,0,0,0,0,0,0,0,0,-1,1490,1352,0,0
273,-328,0,0,0,0,0,0,0,0,0,-1,1497,1352,0,0
280,-328,0,0,0,0,0,0,0,0,0,-1,1504,1352,0,0
287,-328,0,0,0,0,0,0,0,0,0,-1,1511,1352,0,0
294,-328,0,0,0,0,0,0,0,0,0,-1,1518,1352,0,0
301,-328,0,0,0,0,0,0,0,0,0,-1,1525,1352,0,0
308,-328,0,0,0,0,0,0,0,0,0,-1,1532,1352,0,0
315,-328,0,0,0,0,0,0,0,0,0,-1,1539,1352,0,0
322,-328,0,0,0,0,0,0,0,0,0,-1,1546,1352,0,0
329,-328,0,0,0,0,0,0,0,0,0,-1,1553,1352,0,0
336,-328,0,0,0,0,0,0,0,0,0,-1,1560,1352,0,0
343,-328,0,0,0,0,0,0,0,0,0,-1,1567,1352,0,0
350,-328,0,0,0,0,0,0,0,0,0,-1,1574,1352,0,0
357,-328,0,0,0,0,0,0,0,0,0,-1,1581,1352,0,0
364,-328,0,0,0,0,0,0,0,0,0,-1,1588,1352,0,0
371,-328,0,0,0,0,0,0,0,0,0,-1,1595,1352,0,0
378,-328,0,0,0,0,0,0,0,0,0,-1,1602,1352,0,0
385,-328,0,0,0,0,0,0,0,0,0,-1,1609,1352,0,0
392,-328,0,0,0,0,0,0,0,0,0,-1,1616,1352,0,0
399,-328,0,0,0,0,0,0,0,0,0,-1,1623,1352,0,0
406,-328,0,0,0,0,0,0,0,0,0,-1,1630,1352,0,0
413,-328,0,0,0,0,0,0,0,0,0,-1,1637,1352,0,0
420,-328,0,0,0,0,0,0,0,0,0,-1,1644,1352,0,0
427,-328,0,0,0,0,0,0,0,0,0,-1,1651,1352,0,0
434,-328,0,0,0,0,0,0,0,0,0,-1,1658,1352,0,0
441,-328,0,0,0,0,0,0,0,0,0,-1,1665,1352,0,0
448,-328,0,0,0,0,0,0,0,0,0,-1,1672,1352,0,0
455,-328,0,0,0,0,0,0,0,0,0,-1,1679,1352,0,0
462,-328,0,0,0,0,0,0,0,0,0,-1,1686,1352,0,0
469,-328,0,0,0,0,0,0,0,0,0,-1,1693,1352,0,0
476,-328,0,0,0,0,0,0,0,0,0,-1,1700,1352,0,0
483,-328,0,0,0,0,0,0,0,0,0,-1,1707,1352,0,0
490,-328,0,0,0,0,0,0,0,0,0,-1,1714,1352,0,0
497,-328,0,0,0,0,0,0,0,0,0,-1,1721,1352,0,0
504,-328,0,0,0,0,0,0,0,0,0,-1,1728,1352,0,0
511,-328,0,0,0,0,0,0,0,0,0,-1,1735,1352,0,0
518,-328,0,0,0,0,0,0,0,0,0,-1,1742,1352,0,0
525,-328,0,0,0,0,0,0,0,0,0,-1,1749,1352,0,0
532,-328,0,0,0,0,0,0,0,0,0,-1,1756,1352,0,0
539,-328,0,0,0,0,0,0,0,0,0,-1,1763,1352,0,0
546,-328,0,0,0,0,0,0,0,0,0,-1,1770,1352,0,0
553,-328,0,0,0,0,0,0,0,0,0,-1,1777,1352,0,0
560,-328,0,0,0,0,0,0,0,0,0,-1,1784,1352,0,0
567,-328,0,0,0,0,0,0,0,0,0,-1,1791,1352,0,0
574,-328,44.8926,5.11475,0,0,0,0,0,0,0,-1,1798,1352,44.8926,-5.11469
581,-328,50.5533,4.3905,0,0,0,0,0,0,0,-1,1805,1352,50.5533,-4.39048
588,-328,50.1937,4.06274,0,0,0,0,0,0,0,-1,1812,1352,50.1937,-4.06278
595,-328,49.592,3.59802,0,0,0,0,0,0,0,-1,1819,1352,49.5921,-3.59798
602,-328,48.7734,3.66785,0,0,0,0,0,0,0,-1,1826,1352,48.7734,-3.66782
609,-328,37.0468,1.17407,0,0,0,0,0,0,0,-1,1833,1352,37.0468,-1.17407
616,-328,36.999,2.42859,0,0,0,0,0,0,0,-1,1840,1352,36.999,-2.42862
623,-328,34.345,5.14722,0,0,0,0,0,0,0,-1,1847,1352,34.3449,-5.14718
630,-328,22.0211,5.026,0,0,0,0,0,0,0,-1,1854,1352,22.0212,-5.02603
637,-328,21.15,5.53699,0,0,0,0,0,0,0,-1,1861,1352,21.15,-5.53704
644,-328,16.9579,6.3396,0,0,0,0,0,0,0,-1,1868,1352,16.9579,-6.33959
651,-328,33.947,13.6716,0,0,0,0,0,0,0,-1,1875,1352,33.947,-13.6716
658,-328,33.7551,13.1692,-0.0004855,-0.000251746,0.00121927,0.000856238,-0.00159348,0.833181,0.00143554,0.0474077,1882,1352,33.7551,-13.1692
665,-328,33.7787,12.6204,-1.59576e-05,-0.000686548,0.00084193,0.000554986,-0.00125749,0.595901,0.00107232,0.0149242,1889,1352,33.7787,-12.6204
672,-328,33.7548,12.1007,0.000427284,-0.000813479,0.000422133,0.000557282,-0.000943477,0.298739,0.000875975,0.0122599,1896,1352,33.7547,-12.1007
679,-328,33.7584,11.5571,0.000797101,-0.000602419,0.000166336,0.000816599,-0.000621916,0.116687,0.000833059,0.0138286,1903,1352,33.7584,-11.5571
686,-328,33.7228,11.0206,0.00106073,-0.000383337,3.96669e-05,0.00106182,-0.000384426,0.0274413,0.000864983,0.014287,1910,1352,33.7228,-11.0206
693,-328,33.7091,10.5005,0.00126031,-0.000159347,-4.11066e-05,0.00126149,-0.000160536,-0.0289231,0.000899297,0.00981874,1917,1352,33.7091,-10.5005
700,-328,33.6945,9.97034,0.00138622,2.33362e-05,-3.73967e-05,0.00138725,2.23108e-05,-0.0274119,0.000917485,0.0136734,1924,1352,33.6945,-9.97033
707,-328,33.7068,9.44934,0.00137489,0.000127667,9.24615e-05,0.0013817,0.000120849,0.0735979,0.000883612,0.0160904,1931,1352,33.7067,-9.44939
714,-328,33.6835,8.91418,0.00121731,0.000116155,0.000363356,0.0013264,7.06286e-06,0.291671,0.000881921,0.0168258,1938,1352,33.6835,-8.91424
721,-328,33.6608,8.29456,0,0,0,0,0,0,0,-1,1945,1352,33.6607,-8.2946
728,-328,29.2787,6.74695,0,0,0,0,0,0,0,-1,1952,1352,29.2787,-6.74693
735,-328,20.8927,5.23523,0,0,0,0,0,0,0,-1,1959,1352,20.8927,-5.23528
742,-328,20.3547,4.11316,0,0,0,0,0,0,0,-1,1966,1352,20.3547,-4.11321
749,-328,20.0669,5.66321,0,0,0,0,0,0,0,-1,1973,1352,20.0669,-5.66319
756,-328,19.9543,5.50464,0,0,0,0,0,0,0,-1,1980,1352,19.9543,-5.50463
763,-328,0,0,0,0,0,0,0,0,0,-1,1987,1352,0,0
770,-328,0,0,0,0,0,0,0,0,0,-1,1994,1352,0,0
777,-328,0,0,0,0,0,0,0,0,0,-1,2001,1352,0,0
784,-328,0,0,0,0,0,0,0,0,0,-1,2008,1352,0,0
791,-328,0,0,0,0,0,0,0,0,0,-1,2015,1352,0,0
798,-328,0,0,0,0,0,0,0,0,0,-1,2022,1352,0,0
805,-328,0,0,0,0,0,0,0,0,0,-1,2029,1352,0,0
812,-328,0,0,0,0,0,0,0,0,0,-1,2036,1352,0,0
-700,-335,0,0,0,0,0,0,0,0,0,-1,524,1359,0,0
-693,-335,0,0,0,0,0,0,0,0,0,-1,531,1359,0,0
-686,-335,0,0,0,0,0,0,0,0,0,-1,538,1359,0,0
-679,-335,0,0,0,0,0,0,0,0,0,-1,545,1359,0,0
-672,-335,0,0,0,0,0,0,0,0,0,-1,552,1359,0,0
-665,-335,0,0,0,0,0,0,0,0,0,-1,559,1359,0,0
-658,-335,0,0,0,0,0,0,0,0,0,-1,566,1359,0,0
-651,-335,0,0,0,0,0,0,0,0,0,-1,573,1359,0,0
-644,-335,0,0,0,0,0,0,0,0,0,-1,580,1359,0,0
-637,-335,-9.64746,3.53809,0,0,0,0,0,0,0,-1,587,1359,-9.64744,-3.53803
-630,-335,-6.07397,-2.99902,0,0,0,0,0,0,0,-1,594,1359,-6.07397,2.99902
-623,-335,-8.43304,1.09509,0,0,0,0,0,0,0,-1,601,1359,-8.43301,-1.09507
-616,-335,-7.80927,-0.485352,0,0,0,0,0,0,0,-1,608,1359,-7.80926,0.485291
-609,-335,-7.12256,-2.03601,0,0,0,0,0,0,0,-1,615,1359,-7.12253,2.03601
-602,-335,-9.39935,2.25146,0,0,0,0,0,0,0,-1,622,1359,-9.39935,-2.25145
-595,-335,-9.54767,3.01917,0,0,0,0,0,0,0,-1,629,1359,-9.54768,-3.01911
-588,-335,-18.2574,5.91992,0,0,0,0,0,0,0,-1,636,1359,-18.2574,-5.91991
-581,-335,-18.1632,6.75684,0.00489874,0.00278228,0.00278625,0.00682096,0.000860069,0.60391,0.00428946,0.0423041,643,1359,-18.1632,-6.75686
-574,-335,-18.1709,7.28479,0.00380382,0.00196105,0.00199563,0.0050805,0.000684367,0.569128,0.0031835,0.0135283,650,1359,-18.1709,-7.28484
-567,-335,-18.198,7.88428,0.00323712,0.00138128,0.00151316,0.00408422,0.000534177,0.510351,0.00256338,0.0166139,657,1359,-18.198,-7.88424
-560,-335,-18.2018,8.43884,0.00304629,0.000942729,0.00128801,0.0036574,0.000331614,0.443011,0.00233559,0.0251231,664,1359,-18.2018,-8.43888
-553,-335,-18.2061,9.02356,0.00316427,0.000610337,0.00125774,0.00367967,9.49411e-05,0.388907,0.00242209,0.027854,671,1359,-18.2061,-9.02353
-546,-335,-18.226,9.62073,0.00358248,0.000365546,0.00141139,0.00411392,-0.000165893,0.360116,0.00279955,0.0244187,678,1359,-18.226,-9.62069
-539,-335,-18.2672,10.1624,0.0042562,0.000233692,0.00175161,0.00491202,-0.000422124,0.358252,0.00342407,0.0200439,685,1359,-18.2672,-10.1624
-532,-335,-18.2958,10.7504,0.00529284,0.000234571,0.00234539,0.00621296,-0.000685554,0.373861,0.00438838,0.0154002,692,1359,-18.2958,-10.7504
-525,-335,-18.239,11.3503,0.00661845,0.000241268,0.00310318,0.00787922,-0.00101951,0.385912,0.00562354,0.0122173,699,1359,-18.239,-11.3504
-518,-335,-18.3129,11.8916,0,0,0,0,0,0,0,-1,706,1359,-18.3129,-11.8916
-511,-335,-17.3098,11.6718,0,0,0,0,0,0,0,-1,713,1359,-17.3097,-11.6717
-504,-335,-9.35767,5.99695,0,0,0,0,0,0,0,-1,720,1359,-9.35767,-5.99694
-497,-335,-8.75024,-0.650513,0,0,0,0,0,0,0,-1,727,1359,-8.75024,0.650521
-490,-335,-9.51971,0.417603,0,0,0,0,0,0,0,-1,734,1359,-9.51974,-0.41765
-483,-335,-10.2883,1.29224,0,0,0,0,0,0,0,-1,741,1359,-10.2883,-1.2922
-476,-335,-11.9938,-0.173462,0,0,0,0,0,0,0,-1,748,1359,-11.9938,0.173429
-469,-335,-12.8704,-0.204102,0,0,0,0,0,0,0,-1,755,1359,-12.8704,0.204117
-462,-335,-13.486,0.0218506,0,0,0,0,0,0,0,-1,762,1359,-13.4859,-0.0217908
-455,-335,-14.1504,0.549561,0,0,0,0,0,0,0,-1,769,1359,-14.1504,-0.549583
-448,-335,0,0,0,0,0,0,0,0,0,-1,776,1359,0,0
-441,-335,0,0,0,0,0,0,0,0,0,-1,783,1359,0,0
-434,-335,0,0,0,0,0,0,0,0,0,-1,790,1359,0,0
-427,-335,0,0,0,0,0,0,0,0,0,-1,797,1359,0,0
-420,-335,0,0,0,0,0,0,0,0,0,-1,804,1359,0,0
-413,-335,0,0,0,0,0,0,0,0,0,-1,811,1359,0,0
-406,-335,0,0,0,0,0,0,0,0,0,-1,818,1359,0,0
-399,-335,0,0,0,0,0,0,0,0,0,-1,825,1359,0,0
-392,-335,0,0,0,0,0,0,0,0,0,-1,832,1359,0,0
-385,-335,0,0,0,0,0,0,0,0,0,-1,839,1359,0,0
-378,-335,0,0,0,0,0,0,0,0,0,-1,846,1359,0,0
-371,-335,0,0,0,0,0,0,0,0,0,-1,853,1359,0,0
-364,-335,0,0,0,0,0,0,0,0,0,-1,860,1359,0,0
-357,-335,0,0,0,0,0,0,0,0,0,-1,867,1359,0,0
-350,-335,0,0,0,0,0,0,0,0,0,-1,874,1359,0,0
-343,-335,0,0,0,0,0,0,0,0,0,-1,881,1359,0,0
-336,-335,0,0,0,0,0,0,0,0,0,-1,888,1359,0,0
-329,-335,0,0,0,0,0,0,0,0,0,-1,895,1359,0,0
-322,-335,0,0,0,0,0,0,0,0,0,-1,902,1359,0,0
-315,-335,0,0,0,0,0,0,0,0,0,-1,909,1359,0,0
-308,-335,0,0,0,0,0,0,0,0,0,-1,916,1359,0,0
-301,-335,0,0,0,0,0,0,0,0,0,-1,923,1359,0,0
-294,-335,0,0,0,0,0,0,0,0,0,-1,930,1359,0,0
-287,-335,0,0,0,0,0,0,0,0,0,-1,937,1359,0,0
-280,-335,0,0,0,0,0,0,0,0,0,-1,944,1359,0,0
-273,-335,0,0,0,0,0,0,0,0,0,-1,951,1359,0,0
-266,-335,0,0,0,0,0,0,0,0,0,-1,958,1359,0,0
-259,-335,0,0,0,0,0,0,0,0,0,-1,965,1359,0,0
-252,-335,0,0,0,0,0,0,0,0,0,-1,972,1359,0,0
-245,-335,0,0,0,0,0,0,0,0,0,-1,979,1359,0,0
-238,-335,0,0,0,0,0,0,0,0,0,-1,986,1359,0,0
-231,-335,0,0,0,0,0,0,0,0,0,-1,993,1359,0,0
-224,-335,0,0,0,0,0,0,0,0,0,-1,1000,1359,0,0
-217,-335,0,0,0,0,0,0,0,0,0,-1,1007,1359,0,0
-210,-335,0,0,0,0,0,0,0,0,0,-1,1014,1359,0,0
-203,-335,0,0,0,0,0,0,0,0,0,-1,1021,1359,0,0
-196,-335,0,0,0,0,0,0,0,0,0,-1,1028,1359,0,0
-189,-335,0,0,0,0,0,0,0,0,0,-1,1035,1359,0,0
-182,-335,0,0,0,0,0,0,0,0,0,-1,1042,1359,0,0
-175,-335,0,0,0,0,0,0,0,0,0,-1,1049,1359,0,0
-168,-335,0,0,0,0,0,0,0,0,0,-1,1056,1359,0,0
-161,-335,0,0,0,0,0,0,0,0,0,-1,1063,1359,0,0
-154,-335,0,0,0,0,0,0,0,0,0,-1,1070,1359,0,0
-147,-335,0,0,0,0,0,0,0,0,0,-1,1077,1359,0,0
-140,-335,0,0,0,0,0,0,0,0,0,-1,1084,1359,0,0
-133,-335,0,0,0,0,0,0,0,0,0,-1,1091,1359,0,0
-126,-335,0,0,0,0,0,0,0,0,0,-1,1098,1359,0,0
-119,-335,0,0,0,0,0,0,0,0,0,-1,1105,1359,0,0
-112,-335,0,0,0,0,0,0,0,0,0,-1,1112,1359,0,0
-105,-335,0,0,0,0,0,0,0,0,0,-1,1119,1359,0,0
-98,-335,0,0,0,0,0,0,0,0,0,-1,1126,1359,0,0
-91,-335,0,0,0,0,0,0,0,0,0,-1,1133,1359,0,0
-84,-335,0,0,0,0,0,0,0,0,0,-1,1140,1359,0,0
-77,-335,0,0,0,0,0,0,0,0,0,-1,1147,1359,0,0
-70,-335,0,0,0,0,0,0,0,0,0,-1,1154,1359,0,0
-63,-335,0,0,0,0,0,0,0,0,0,-1,1161,1359,0,0
-56,-335,0,0,0,0,0,0,0,0,0,-1,1168,1359,0,0
-49,-335,0,0,0,0,0,0,0,0,0,-1,1175,1359,0,0
-42,-335,0,0,0,0,0,0,0,0,0,-1,1182,1359,0,0
-35,-335,0,0,0,0,0,0,0,0,0,-1,1189,1359,0,0
-28,-335,0,0,0,0,0,0,0,0,0,-1,1196,1359,0,0
-21,-335,0,0,0,0,0,0,0,0,0,-1,1203,1359,0,0
-14,-335,0,0,0,0,0,0,0,0,0,-1,1210,1359,0,0
-7,-335,0,0,0,0,0,0,0,0,0,-1,1217,1359,0,0
0,-335,0,0,0,0,0,0,0,0,0,-1,1224,1359,0,0
7,-335,0,0,0,0,0,0,0,0,0,-1,1231,1359,0,0
14,-335,0,0,0,0,0,0,0,0,0,-1,1238,1359,0,0
21,-335,0,0,0,0,0,0,0,0,0,-1,1245,1359,0,0
28,-335,0,0,0,0,0,0,0,0,0,-1,1252,1359,0,0
35,-335,0,0,0,0,0,0,0,0,0,-1,1259,1359,0,0
42,-335,0,0,0,0,0,0,0,0,0,-1,1266,1359,0,0
49,-335,0,0,0,0,0,0,0,0,0,-1,1273,1359,0,0
56,-335,0,0,0,0,0,0,0,0,0,-1,1280,1359,0,0
63,-335,0,0,0,0,0,0,0,0,0,-1,1287,1359,0,0
70,-335,0,0,0,0,0,0,0,0,0,-1,1294,1359,0,0
77,-335,0,0,0,0,0,0,0,0,0,-1,1301,1359,0,0
84,-335,0,0,0,0,0,0,0,0,0,-1,1308,1359,0,0
91,-335,0,0,0,0,0,0,0,0,0,-1,1315,1359,0,0
98,-335,0,0,0,0,0,0,0,0,0,-1,1322,1359,0,0
105,-335,0,0,0,0,0,0,0,0,0,-1,1329,1359,0,0
112,-335,0,0,0,0,0,0,0,0,0,-1,1336,1359,0,0
119,-335,0,0,0,0,0,0,0,0,0,-1,1343,1359,0,0
126,-335,0,0,0,0,0,0,0,0,0,-1,1350,1359,0,0
133,-335,0,0,0,0,0,0,0,0,0,-1,1357,1359,0,0
140,-335,0,0,0,0,0,0,0,0,0,-1,1364,1359,0,0
147,-335,0,0,0,0,0,0,0,0,0,-1,1371,1359,0,0
154,-335,0,0,0,0,0,0,0,0,0,-1,1378,1359,0,0
161,-335,0,0,0,0,0,0,0,0,0,-1,1385,1359,0,0
168,-335,0,0,0,0,0,0,0,0,0,-1,1392,1359,0,0
175,-335,0,0,0,0,0,0,0,0,0,-1,1399,1359,0,0
182,-335,0,0,0,0,0,0,0,0,0,-1,1406,1359,0,0
189,-335,0,0,0,0,0,0,0,0,0,-1,1413,1359,0,0
196,-335,0,0,0,0,0,0,0,0,0,-1,1420,1359,0,0
203,-335,0,0,0,0,0,0,0,0,0,-1,1427,1359,0,0
210,-335,0,0,0,0,0,0,0,0,0,-1,1434,1359,0,0
217,-335,0,0,0,0,0,0,0,0,0,-1,1441,1359,0,0
224,-335,0,0,0,0,0,0,0,0,0,-1,1448,1359,0,0
231,-335,0,0,0,0,0,0,0,0,0,-1,1455,1359,0,0
238,-335,0,0,0,0,0,0,0,0,0,-1,1462,1359,0,0
245,-335,0,0,0,0,0,0,0,0,0,-1,1469,1359,0,0
252,-335,0,0,0,0,0,0,0,0,0,-1,1476,1359,0,0
259,-335,0,0,0,0,0,0,0,0,0,-1,1483,1359,0,0
266,-335,0,0,0,0,0,0,0,0,0,-1,1490,1359,0,0
273,-335,0,0,0,0,0,0,0,0,0,-1,1497,1359,0,0
280,-335,0,0,0,0,0,0,0,0,0,-1,1504,1359,0,0
287,-335,0,0,0,0,0,0,0,0,0,-1,1511,1359,0,0
294,-335,0,0,0,0,0,0,0,0,0,-1,1518,1359,0,0
301,-335,0,0,0,0,0,0,0,0,0,-1,1525,1359,0,0
308,-335,0,0,0,0,0,0,0,0,0,-1,1532,1359,0,0
315,-335,0,0,0,0,0,0,0,0,0,-1,1539,1359,0,0
322,-335,0,0,0,0,0,0,0,0,0,-1,1546,1359,0,0
329,-335,0,0,0,0,0,0,0,0,0,-1,1553,1359,0,0
336,-335,0,0,0,0,0,0,0,0,0,-1,1560,1359,0,0
343,-335,0,0,0,0,0,0,0,0,0,-1,1567,1359,0,0
350,-335,0,0,0,0,0,0,0,0,0,-1,1574,1359,0,0
357,-335,0,0,0,0,0,0,0,0,0,-1,1581,1359,0,0
364,-335,0,0,0,0,0,0,0,0,0,-1,1588,1359,0,0
371,-335,0,0,0,0,0,0,0,0,0,-1,1595,1359,0,0
378,-335,0,0,0,0,0,0,0,0,0,-1,1602,1359,0,0
385,-335,0,0,0,0,0,0,0,0,0,-1,1609,1359,0,0
392,-335,0,0,0,0,0,0,0,0,0,-1,1616,1359,0,0
399,-335,0,0,0,0,0,0,0,0,0,-1,1623,1359,0,0
406,-335,0,0,0,0,0,0,0,0,0,-1,1630,1359,0,0
413,-335,0,0,0,0,0,0,0,0,0,-1,1637,1359,0,0
420,-335,0,0,0,0,0,0,0,0,0,-1,1644,1359,0,0
427,-335,0,0,0,0,0,0,0,0,0,-1,1651,1359,0,0
434,-335,0,0,0,0,0,0,0,0,0,-1,1658,1359,0,0
441,-335,0,0,0,0,0,0,0,0,0,-1,1665,1359,0,0
448,-335,0,0,0,0,0,0,0,0,0,-1,1672,1359,0,0
455,-335,0,0,0,0,0,0,0,0,0,-1,1679,1359,0,0
462,-335,0,0,0,0,0,0,0,0,0,-1,1686,1359,0,0
469,-335,0,0,0,0,0,0,0,0,0,-1,1693,1359,0,0
476,-335,0,0,0,0,0,0,0,0,0,-1,1700,1359,0,0
483,-335,0,0,0,0,0,0,0,0,0,-1,1707,1359,0,0
490,-335,0,0,0,0,0,0,0,0,0,-1,1714,1359,0,0
497,-335,0,0,0,0,0,0,0,0,0,-1,1721,1359,0,0
504,-335,0,0,0,0,0,0,0,0,0,-1,1728,1359,0,0
511,-335,0,0,0,0,0,0,0,0,0,-1,1735,1359,0,0
518,-335,0,0,0,0,0,0,0,0,0,-1,1742,1359,0,0
525,-335,0,0,0,0,0,0,0,0,0,-1,1749,1359,0,0
532,-335,0,0,0,0,0,0,0,0,0,-1,1756,1359,0,0
539,-335,0,0,0,0,0,0,0,0,0,-1,1763,1359,0,0
546,-335,0,0,0,0,0,0,0,0,0,-1,1770,1359,0,0
553,-335,0,0,0,0,0,0,0,0,0,-1,1777,1359,0,0
560,-335,0,0,0,0,0,0,0,0,0,-1,1784,1359,0,0
567,-335,0,0,0,0,0,0,0,0,0,-1,1791,1359,0,0
574,-335,44.5405,5.74219,0,0,0,0,0,0,0,-1,1798,1359,44.5406,-5.74224
581,-335,44.1571,6.41992,0,0,0,0,0,0,0,-1,1805,1359,44.1571,-6.41989
588,-335,50.7247,4.16223,0,0,0,0,0,0,0,-1,1812,1359,50.7247,-4.16227
595,-335,49.984,3.76465,0,0,0,0,0,0,0,-1,1819,1359,49.984,-3.76467
602,-335,36.5643,0.0861816,0,0,0,0,0,0,0,-1,1826,1359,36.5643,-0.0862283
609,-335,36.2933,0.993896,0,0,0,0,0,0,0,-1,1833,1359,36.2934,-0.993911
616,-335,34.6969,4.82666,0,0,0,0,0,0,0,-1,1840,1359,34.6969,-4.82667
623,-335,26.6051,6.54333,0,0,0,0,0,0,0,-1,1847,1359,26.6051,-6.54339
630,-335,19.1707,1.00952,0,0,0,0,0,0,0,-1,1854,1359,19.1707,-1.00953
637,-335,18.2009,6.65454,0,0,0,0,0,0,0,-1,1861,1359,18.2009,-6.6546
644,-335,28.1042,12.067,0,0,0,0,0,0,0,-1,1868,1359,28.1042,-12.067
651,-335,33.1683,13.7905,0,0,0,0,0,0,0,-1,1875,1359,33.1684,-13.7905
658,-335,33.2277,13.2042,-0.000512462,-0.000859353,0.000751539,8.5386e-05,-0.0014572,0.67199,0.00100114,0.0290756,1882,1359,33.2277,-13.2042
665,-335,33.2603,12.6483,-1.91839e-05,-0.00089783,0.000585969,0.000273862,-0.00119088,0.463732,0.000899215,0.0149168,1889,1359,33.2603,-12.6484
672,-335,33.2275,12.1174,0.000484576,-0.000719351,0.000316992,0.000562939,-0.000797714,0.242349,0.000789461,0.0176001,1896,1359,33.2275,-12.1174
679,-335,33.2197,11.6012,0.000959248,-0.000469822,7.3994e-05,0.000963069,-0.000473643,0.0515938,0.000845377,0.0147053,1903,1359,33.2197,-11.6012
686,-335,33.2207,11.0492,0.00137118,-0.000248814,-0.000105993,0.00137809,-0.000255719,-0.0650582,0.00101476,0.0126568,1910,1359,33.2207,-11.0492
693,-335,33.1853,10.5067,0.00175615,1.51301e-06,-0.00026669,0.00179579,-3.81261e-05,-0.147553,0.0012101,0.0102988,1917,1359,33.1853,-10.5068
700,-335,33.1549,10.0002,0.00208211,0.000243725,-0.000367635,0.0021529,0.000172933,-0.190234,0.00138124,0.0110493,1924,1359,33.1549,-10.0003
707,-335,33.1561,9.47253,0.00224818,0.000415143,-0.000329185,0.0023055,0.000357819,-0.17241,0.0014327,0.0150648,1931,1359,33.1561,-9.47253
714,-335,33.1711,8.83228,0.00230829,0.000510022,-0.000176668,0.00232548,0.00049283,-0.0970077,0.00141495,0.035894,1938,1359,33.1711,-8.83231
721,-335,33.1079,8.10815,0,0,0,0,0,0,0,-1,1945,1359,33.1079,-8.10813
728,-335,20.8126,5.21167,0,0,0,0,0,0,0,-1,1952,1359,20.8127,-5.21172
735,-335,20.2725,5.34729,0,0,0,0,0,0,0,-1,1959,1359,20.2724,-5.34734
742,-335,19.8624,4.72229,0,0,0,0,0,0,0,-1,1966,1359,19.8624,-4.72225
749,-335,20.5887,6.05322,0,0,0,0,0,0,0,-1,1973,1359,20.5887,-6.05322
756,-335,20.7832,6.00452,0,0,0,0,0,0,0,-1,1980,1359,20.7832,-6.00447
763,-335,0,0,0,0,0,0,0,0,0,-1,1987,1359,0,0
770,-335,0,0,0,0,0,0,0,0,0,-1,1994,1359,0,0
777,-335,0,0,0,0,0,0,0,0,0,-1,2001,1359,0,0
784,-335,0,0,0,0,0,0,0,0,0,-1,2008,1359,0,0
791,-335,0,0,0,0,0,0,0,0,0,-1,2015,1359,0,0
798,-335,0,0,0,0,0,0,0,0,0,-1,2022,1359,0,0
805,-335,0,0,0,0,0,0,0,0,0,-1,2029,1359,0,0
812,-335,0,0,0,0,0,0,0,0,0,-1,2036,1359,0,0
-700,-342,0,0,0,0,0,0,0,0,0,-1,524,1366,0,0
-693,-342,0,0,0,0,0,0,0,0,0,-1,531,1366,0,0
-686,-342,0,0,0,0,0,0,0,0,0,-1,538,1366,0,0
-679,-342,0,0,0,0,0,0,0,0,0,-1,545,1366,0,0
-672,-342,0,0,0,0,0,0,0,0,0,-1,552,1366,0,0
-665,-342,0,0,0,0,0,0,0,0,0,-1,559,1366,0,0
-658,-342,0,0,0,0,0,0,0,0,0,-1,566,1366,0,0
-651,-342,0,0,0,0,0,0,0,0,0,-1,573,1366,0,0
-644,-342,0,0,0,0,0,0,0,0,0,-1,580,1366,0,0
-637,-342,-8.67786,-4.58557,0,0,0,0,0,0,0,-1,587,1366,-8.67788,4.5856
-630,-342,-8.60132,2.71777,0,0,0,0,0,0,0,-1,594,1366,-8.60135,-2.71779
-623,-342,-8.41168,0.662476,0,0,0,0,0,0,0,-1,601,1366,-8.41168,-0.662442
-616,-342,-6.625,-1.28015,0,0,0,0,0,0,0,-1,608,1366,-6.62499,1.28011
-609,-342,-7.83154,0.674561,0,0,0,0,0,0,0,-1,615,1366,-7.83155,-0.674598
-602,-342,-9.65765,2.25195,0,0,0,0,0,0,0,-1,622,1366,-9.65767,-2.25192
-595,-342,-9.47687,3.00671,0,0,0,0,0,0,0,-1,629,1366,-9.47686,-3.00668
-588,-342,-9.78467,3.57727,0,0,0,0,0,0,0,-1,636,1366,-9.78468,-3.57723
-581,-342,-17.7264,6.73938,0,0,0,0,0,0,0,-1,643,1366,-17.7264,-6.73941
-574,-342,-17.6367,7.30115,0.00406943,0.00196483,0.00214676,0.00540793,0.000626328,0.557517,0.0034157,0.0158704,650,1366,-17.6367,-7.30117
-567,-342,-17.5748,7.8866,0.0033753,0.00140891,0.00160379,0.00427328,0.000510924,0.510421,0.00269474,0.0163894,657,1366,-17.5748,-7.88654
-560,-342,-17.6288,8.45374,0.00307384,0.00099071,0.00133429,0.00372496,0.000339589,0.453994,0.00237821,0.0248935,664,1366,-17.6289,-8.4537
-553,-342,-17.6489,9.02771,0.00306495,0.0006744,0.00125481,0.00360266,0.000136695,0.404845,0.00235753,0.0280406,671,1366,-17.649,-9.02771
-546,-342,-17.6183,9.58826,0.00332865,0.000448234,0.00134766,0.00386085,-8.39655e-05,0.376107,0.00260234,0.0284471,678,1366,-17.6184,-9.58828
-539,-342,-17.6724,10.1757,0.00380358,0.000320421,0.00160219,0.00442846,-0.000304458,0.371868,0.00305885,0.0239373,685,1366,-17.6725,-10.1757
-532,-342,-17.7015,10.7897,0.00456396,0.000303758,0.00205882,0.00539631,-0.000528587,0.384192,0.00378605,0.0178267,692,1366,-17.7015,-10.7897
-525,-342,-17.6624,11.3787,0.00557144,0.000342926,0.00267247,0.00669569,-0.000781323,0.398204,0.00474572,0.0129534,699,1366,-17.6624,-11.3787
-518,-342,-17.6182,11.9844,0.00681622,0.000678792,0.00347062,0.00838024,-0.000885224,0.42339,0.00590406,0.0334619,706,1366,-17.6182,-11.9843
-511,-342,-17.6438,12.5834,0,0,0,0,0,0,0,-1,713,1366,-17.6438,-12.5834
-504,-342,-8.95709,6.5719,0,0,0,0,0,0,0,-1,720,1366,-8.95707,-6.57192
-497,-342,-8.26587,-0.943604,0,0,0,0,0,0,0,-1,727,1366,-8.26586,0.943543
-490,-342,-9.07153,-0.0227051,0,0,0,0,0,0,0,-1,734,1366,-9.07155,0.0227087
-483,-342,-9.87726,0.898071,0,0,0,0,0,0,0,-1,741,1366,-9.87724,-0.898125
-476,-342,-11.6371,-0.736328,0,0,0,0,0,0,0,-1,748,1366,-11.6371,0.736281
-469,-342,-12.6245,-0.987549,0,0,0,0,0,0,0,-1,755,1366,-12.6245,0.987553
-462,-342,-13.0912,-0.533203,0,0,0,0,0,0,0,-1,762,1366,-13.0912,0.533224
-455,-342,-13.7612,0.122925,0,0,0,0,0,0,0,-1,769,1366,-13.7612,-0.122896
-448,-342,-14.5278,0.826904,0,0,0,0,0,0,0,-1,776,1366,-14.5277,-0.826861
-441,-342,0,0,0,0,0,0,0,0,0,-1,783,1366,0,0
-434,-342,0,0,0,0,0,0,0,0,0,-1,790,1366,0,0
-427,-342,0,0,0,0,0,0,0,0,0,-1,797,1366,0,0
-420,-342,0,0,0,0,0,0,0,0,0,-1,804,1366,0,0
-413,-342,0,0,0,0,0,0,0,0,0,-1,811,1366,0,0
-406,-342,0,0,0,0,0,0,0,0,0,-1,818,1366,0,0
-399,-342,0,0,0,0,0,0,0,0,0,-1,825,1366,0,0
-392,-342,0,0,0,0,0,0,0,0,0,-1,832,1366,0,0
-385,-342,0,0,0,0,0,0,0,0,0,-1,839,1366,0,0
-378,-342,0,0,0,0,0,0,0,0,0,-1,846,1366,0,0
-371,-342,0,0,0,0,0,0,0,0,0,-1,853,1366,0,0
-364,-342,0,0,0,0,0,0,0,0,0,-1,860,1366,0,0
-357,-342,0,0,0,0,0,0,0,0,0,-1,867,1366,0,0
-350,-342,0,0,0,0,0,0,0,0,0,-1,874,1366,0,0
-343,-342,0,0,0,0,0,0,0,0,0,-1,881,1366,0,0
-336,-342,0,0,0,0,0,0,0,0,0,-1,888,1366,0,0
-329,-342,0,0,0,0,0,0,0,0,0,-1,895,1366,0,0
-322,-342,0,0,0,0,0,0,0,0,0,-1,902,1366,0,0
-315,-342,0,0,0,0,0,0,0,0,0,-1,909,1366,0,0
-308,-342,0,0,0,0,0,0,0,0,0,-1,916,1366,0,0
-301,-342,0,0,0,0,0,0,0,0,0,-1,923,1366,0,0
-294,-342,0,0,0,0,0,0,0,0,0,-1,930,1366,0,0
-287,-342,0,0,0,0,0,0,0,0,0,-1,937,1366,0,0
-280,-342,0,0,0,0,0,0,0,0,0,-1,944,1366,0,0
-273,-342,0,0,0,0,0,0,0,0,0,-1,951,1366,0,0
-266,-342,0,0,0,0,0,0,0,0,0,-1,958,1366,0,0
-259,-342,0,0,0,0,0,0,0,0,0,-1,965,1366,0,0
-252,-342,0,0,0,0,0,0,0,0,0,-1,972,1366,0,0
-245,-342,0,0,0,0,0,0,0,0,0,-1,979,1366,0,0
-238,-342,0,0,0,0,0,0,0,0,0,-1,986,1366,0,0
-231,-342,0,0,0,0,0,0,0,0,0,-1,993,1366,0,0
-224,-342,0,0,0,0,0,0,0,0,0,-1,1000,1366,0,0
-217,-342,0,0,0,0,0,0,0,0,0,-1,1007,1366,0,0
-210,-342,0,0,0,0,0,0,0,0,0,-1,1014,1366,0,0
-203,-342,0,0,0,0,0,0,0,0,0,-1,1021,1366,0,0
-196,-342,0,0,0,0,0,0,0,0,0,-1,1028,1366,0,0
-189,-342,0,0,0,0,0,0,0,0,0,-1,1035,1366,0,0
-182,-342,0,0,0,0,0,0,0,0,0,-1,1042,1366,0,0
-175,-342,0,0,0,0,0,0,0,0,0,-1,1049,1366,0,0
-168,-342,0,0,0,0,0,0,0,0,0,-1,1056,1366,0,0
-161,-342,0,0,0,0,0,0,0,0,0,-1,1063,1366,0,0
-154,-342,0,0,0,0,0,0,0,0,0,-1,1070,1366,0,0
-147,-342,0,0,0,0,0,0,0,0,0,-1,1077,1366,0,0
-140,-342,0,0,0,0,0,0,0,0,0,-1,1084,1366,0,0
-133,-342,0,0,0,0,0,0,0,0,0,-1,1091,1366,0,0
-126,-342,0,0,0,0,0,0,0,0,0,-1,1098,1366,0,0
-119,-342,0,0,0,0,0,0,0,0,0,-1,1105,1366,0,0
-112,-342,0,0,0,0,0,0,0,0,0,-1,1112,1366,0,0
-105,-342,0,0,0,0,0,0,0,0,0,-1,1119,1366,0,0
-98,-342,0,0,0,0,0,0,0,0,0,-1,1126,1366,0,0
-91,-342,0,0,0,0,0,0,0,0,0,-1,1133,1366,0,0
-84,-342,0,0,0,0,0,0,0,0,0,-1,1140,1366,0,0
-77,-342,0,0,0,0,0,0,0,0,0,-1,1147,1366,0,0
-70,-342,0,0,0,0,0,0,0,0,0,-1,1154,1366,0,0
-63,-342,0,0,0,0,0,0,0,0,0,-1,1161,1366,0,0
-56,-342,0,0,0,0,0,0,0,0,0,-1,1168,1366,0,0
-49,-342,0,0,0,0,0,0,0,0,0,-1,1175,1366,0,0
-42,-342,0,0,0,0,0,0,0,0,0,-1,1182,1366,0,0
-35,-342,0,0,0,0,0,0,0,0,0,-1,1189,1366,0,0
-28,-342,0,0,0,0,0,0,0,0,0,-1,1196,1366,0,0
-21,-342,0,0,0,0,0,0,0,0,0,-1,1203,1366,0,0
-14,-342,0,0,0,0,0,0,0,0,0,-1,1210,1366,0,0
-7,-342,0,0,0,0,0,0,0,0,0,-1,1217,1366,0,0
0,-342,0,0,0,0,0,0,0,0,0,-1,1224,1366,0,0
7,-342,0,0,0,0,0,0,0,0,0,-1,1231,1366,0,0
14,-342,0,0,0,0,0,0,0,0,0,-1,1238,1366,0,0
21,-342,0,0,0,0,0,0,0,0,0,-1,1245,1366,0,0
28,-342,0,0,0,0,0,0,0,0,0,-1,1252,1366,0,0
35,-342,0,0,0,0,0,0,0,0,0,-1,1259,1366,0,0
42,-342,0,0,0,0,0,0,0,0,0,-1,1266,1366,0,0
49,-342,0,0,0,0,0,0,0,0,0,-1,1273,1366,0,0
56,-342,0,0,0,0,0,0,0,0,0,-1,1280,1366,0,0
63,-342,0,0,0,0,0,0,0,0,0,-1,1287,1366,0,0
70,-342,0,0,0,0,0,0,0,0,0,-1,1294,1366,0,0
77,-342,0,0,0,0,0,0,0,0,0,-1,1301,1366,0,0
84,-342,0,0,0,0,0,0,0,0,0,-1,1308,1366,0,0
91,-342,0,0,0,0,0,0,0,0,0,-1,1315,1366,0,0
98,-342,0,0,0,0,0,0,0,0,0,-1,1322,1366,0,0
105,-342,0,0,0,0,0,0,0,0,0,-1,1329,1366,0,0
112,-342,0,0,0,0,0,0,0,0,0,-1,1336,1366,0,0
119,-342,0,0,0,0,0,0,0,0,0,-1,1343,1366,0,0
126,-342,0,0,0,0,0,0,0,0,0,-1,1350,1366,0,0
133,-342,0,0,0,0,0,0,0,0,0,-1,1357,1366,0,0
140,-342,0,0,0,0,0,0,0,0,0,-1,1364,1366,0,0
147,-342,0,0,0,0,0,0,0,0,0,-1,1371,1366,0,0
154,-342,0,0,0,0,0,0,0,0,0,-1,1378,1366,0,0
161,-342,0,0,0,0,0,0,0,0,0,-1,1385,1366,0,0
168,-342,0,0,0,0,0,0,0,0,0,-1,1392,1366,0,0
175,-342,0,0,0,0,0,0,0,0,0,-1,1399,1366,0,0
182,-342,0,0,0,0,0,0,0,0,0,-1,1406,1366,0,0
189,-342,0,0,0,0,0,0,0,0,0,-1,1413,1366,0,0
196,-342,0,0,0,0,0,0,0,0,0,-1,1420,1366,0,0
203,-342,0,0,0,0,0,0,0,0,0,-1,1427,1366,0,0
210,-342,0,0,0,0,0,0,0,0,0,-1,1434,1366,0,0
217,-342,0,0,0,0,0,0,0,0,0,-1,1441,1366,0,0
224,-342,0,0,0,0,0,0,0,0,0,-1,1448,1366,0,0
231,-342,0,0,0,0,0,0,0,0,0,-1,1455,1366,0,0
238,-342,0,0,0,0,0,0,0,0,0,-1,1462,1366,0,0
245,-342,0,0,0,0,0,0,0,0,0,-1,1469,1366,0,0
252,-342,0,0,0,0,0,0,0,0,0,-1,1476,1366,0,0
259,-342,0,0,0,0,0,0,0,0,0,-1,1483,1366,0,0
266,-342,0,0,0,0,0,0,0,0,0,-1,1490,1366,0,0
273,-342,0,0,0,0,0,0,0,0,0,-1,1497,1366,0,0
280,-342,0,0,0,0,0,0,0,0,0,-1,1504,1366,0,0
287,-342,0,0,0,0,0,0,0,0,0,-1,1511,1366,0,0
294,-342,0,0,0,0,0,0,0,0,0,-1,1518,1366,0,0
301,-342,0,0,0,0,0,0,0,0,0,-1,1525,1366,0,0
308,-342,0,0,0,0,0,0,0,0,0,-1,1532,1366,0,0
315,-342,0,0,0,0,0,0,0,0,0,-1,1539,1366,0,0
322,-342,0,0,0,0,0,0,0,0,0,-1,1546,1366,0,0
329,-342,0,0,0,0,0,0,0,0,0,-1,1553,1366,0,0
336,-342,0,0,0,0,0,0,0,0,0,-1,1560,1366,0,0
343,-342,0,0,0,0,0,0,0,0,0,-1,1567,1366,0,0
350,-342,0,0,0,0,0,0,0,0,0,-1,1574,1366,0,0
357,-342,0,0,0,0,0,0,0,0,0,-1,1581,1366,0,0
364,-342,0,0,0,0,0,0,0,0,0,-1,1588,1366,0,0
371,-342,0,0,0,0,0,0,0,0,0,-1,1595,1366,0,0
378,-342,0,0,0,0,0,0,0,0,0,-1,1602,1366,0,0
385,-342,0,0,0,0,0,0,0,0,0,-1,1609,1366,0,0
392,-342,0,0,0,0,0,0,0,0,0,-1,1616,1366,0,0
399,-342,0,0,0,0,0,0,0,0,0,-1,1623,1366,0,0
406,-342,0,0,0,0,0,0,0,0,0,-1,1630,1366,0,0
413,-342,0,0,0,0,0,0,0,0,0,-1,1637,1366,0,0
420,-342,0,0,0,0,0,0,0,0,0,-1,1644,1366,0,0
427,-342,0,0,0,0,0,0,0,0,0,-1,1651,1366,0,0
434,-342,0,0,0,0,0,0,0,0,0,-1,1658,1366,0,0
441,-342,0,0,0,0,0,0,0,0,0,-1,1665,1366,0,0
448,-342,0,0,0,0,0,0,0,0,0,-1,1672,1366,0,0
455,-342,0,0,0,0,0,0,0,0,0,-1,1679,1366,0,0
462,-342,0,0,0,0,0,0,0,0,0,-1,1686,1366,0,0
469,-342,0,0,0,0,0,0,0,0,0,-1,1693,1366,0,0
476,-342,0,0,0,0,0,0,0,0,0,-1,1700,1366,0,0
483,-342,0,0,0,0,0,0,0,0,0,-1,1707,1366,0,0
490,-342,0,0,0,0,0,0,0,0,0,-1,1714,1366,0,0
497,-342,0,0,0,0,0,0,0,0,0,-1,1721,1366,0,0
504,-342,0,0,0,0,0,0,0,0,0,-1,1728,1366,0,0
511,-342,0,0,0,0,0,0,0,0,0,-1,1735,1366,0,0
518,-342,0,0,0,0,0,0,0,0,0,-1,1742,1366,0,0
525,-342,0,0,0,0,0,0,0,0,0,-1,1749,1366,0,0
532,-342,0,0,0,0,0,0,0,0,0,-1,1756,1366,0,0
539,-342,0,0,0,0,0,0,0,0,0,-1,1763,1366,0,0
546,-342,0,0,0,0,0,0,0,0,0,-1,1770,1366,0,0
553,-342,0,0,0,0,0,0,0,0,0,-1,1777,1366,0,0
560,-342,0,0,0,0,0,0,0,0,0,-1,1784,1366,0,0
567,-342,42.6652,5.53748,0,0,0,0,0,0,0,-1,1791,1366,42.6652,-5.53752
574,-342,43.0466,5.95728,0,0,0,0,0,0,0,-1,1798,1366,43.0466,-5.9573
581,-342,43.4904,6.59937,0,0,0,0,0,0,0,-1,1805,1366,43.4903,-6.59938
588,-342,43.9108,7.22559,0,0,0,0,0,0,0,-1,1812,1366,43.9107,-7.22554
595,-342,35.7993,0.709961,0,0,0,0,0,0,0,-1,1819,1366,35.7993,-0.709913
602,-342,36.3618,3.28723,0,0,0,0,0,0,0,-1,1826,1366,36.3619,-3.28719
609,-342,35.3777,4.14978,0,0,0,0,0,0,0,-1,1833,1366,35.3777,-4.14976
616,-342,34.199,5.8158,0,0,0,0,0,0,0,-1,1840,1366,34.199,-5.81579
623,-342,26.0299,6.86865,0,0,0,0,0,0,0,-1,1847,1366,26.0299,-6.86863
630,-342,17.3431,0.773071,0,0,0,0,0,0,0,-1,1854,1366,17.3432,-0.773095
637,-342,16.196,6.76172,0,0,0,0,0,0,0,-1,1861,1366,16.1961,-6.76174
644,-342,31.8916,14.0614,0,0,0,0,0,0,0,-1,1868,1366,31.8916,-14.0613
651,-342,32.7065,13.7321,0,0,0,0,0,0,0,-1,1875,1366,32.7065,-13.732
658,-342,32.7097,13.1876,-0.000634816,-0.000789121,0.000676252,-3.1329e-05,-0.00139261,0.7286,0.00091814,0.0209206,1882,1366,32.7097,-13.1876
665,-342,32.7201,12.6296,-1.62798e-05,-0.00079562,0.000516076,0.000240716,-0.00105262,0.462031,0.000794237,0.016365,1889,1366,32.7201,-12.6296
672,-342,32.686,12.1337,0.000607904,-0.000624225,0.00027693,0.000667284,-0.000683605,0.211225,0.000779955,0.0138572,1896,1366,32.686,-12.1337
679,-342,32.6682,11.6442,0.00121499,-0.000404023,4.22091e-05,0.00121608,-0.000405123,0.0260474,0.000974258,0.0133697,1903,1366,32.6682,-11.6442
686,-342,32.7002,11.1135,0.00178074,-0.000178461,-0.000162587,0.00179414,-0.000191862,-0.0822366,0.00126491,0.011954,1910,1366,32.7001,-11.1135
693,-342,32.6652,10.5571,0.00231752,9.09296e-05,-0.000350811,0.00237149,3.69656e-05,-0.15263,0.00156881,0.0116826,1917,1366,32.6652,-10.5571
700,-342,32.6185,10.0272,0.00280978,0.000386531,-0.000507295,0.00291169,0.000284617,-0.198257,0.00185355,0.0141344,1924,1366,32.6185,-10.0273
707,-342,32.6079,9.46753,0.0030924,0.000614964,-0.000503353,0.00319077,0.000516601,-0.192984,0.0019776,0.014817,1931,1366,32.6079,-9.46756
714,-342,32.7025,8.73059,0,0,0,0,0,0,0,-1,1938,1366,32.7025,-8.73063
721,-342,22.4666,6.08679,0,0,0,0,0,0,0,-1,1945,1366,22.4666,-6.08678
728,-342,19.8912,5.26636,0,0,0,0,0,0,0,-1,1952,1366,19.8913,-5.26636
735,-342,19.481,4.41968,0,0,0,0,0,0,0,-1,1959,1366,19.4809,-4.41962
742,-342,19.309,2.66943,0,0,0,0,0,0,0,-1,1966,1366,19.3089,-2.66948
749,-342,21.0934,6.47729,0,0,0,0,0,0,0,-1,1973,1366,21.0934,-6.4773
756,-342,0,0,0,0,0,0,0,0,0,-1,1980,1366,0,0
763,-342,0,0,0,0,0,0,0,0,0,-1,1987,1366,0,0
770,-342,0,0,0,0,0,0,0,0,0,-1,1994,1366,0,0
777,-342,0,0,0,0,0,0,0,0,0,-1,2001,1366,0,0
784,-342,0,0,0,0,0,0,0,0,0,-1,2008,1366,0,0
791,-342,0,0,0,0,0,0,0,0,0,-1,2015,1366,0,0
798,-342,0,0,0,0,0,0,0,0,0,-1,2022,1366,0,0
805,-342,0,0,0,0,0,0,0,0,0,-1,2029,1366,0,0
812,-342,0,0,0,0,0,0,0,0,0,-1,2036,1366,0,0
-700,-349,0,0,0,0,0,0,0,0,0,-1,524,1373,0,0
-693,-349,0,0,0,0,0,0,0,0,0,-1,531,1373,0,0
-686,-349,0,0,0,0,0,0,0,0,0,-1,538,1373,0,0
-679,-349,0,0,0,0,0,0,0,0,0,-1,545,1373,0,0
-672,-349,0,0,0,0,0,0,0,0,0,-1,552,1373,0,0
-665,-349,0,0,0,0,0,0,0,0,0,-1,559,1373,0,0
-658,-349,0,0,0,0,0,0,0,0,0,-1,566,1373,0,0
-651,-349,0,0,0,0,0,0,0,0,0,-1,573,1373,0,0
-644,-349,0,0,0,0,0,0,0,0,0,-1,580,1373,0,0
-637,-349,0,0,0,0,0,0,0,0,0,-1,587,1373,0,0
-630,-349,-7.64117,-5.06177,0,0,0,0,0,0,0,-1,594,1373,-7.64118,5.0618
-623,-349,-8.63507,0.51123,0,0,0,0,0,0,0,-1,601,1373,-8.63505,-0.511275
-616,-349,-5.2066,-0.188232,0,0,0,0,0,0,0,-1,608,1373,-5.20659,0.188211
-609,-349,-7.12073,1.37048,0,0,0,0,0,0,0,-1,615,1373,-7.12072,-1.37044
-602,-349,-9.00623,3.39587,0,0,0,0,0,0,0,-1,622,1373,-9.0062,-3.39591
-595,-349,-9.50568,2.96912,0,0,0,0,0,0,0,-1,629,1373,-9.50569,-2.96906
-588,-349,-8.60046,3.56042,0,0,0,0,0,0,0,-1,636,1373,-8.60046,-3.56047
-581,-349,-16.9512,6.72021,0,0,0,0,0,0,0,-1,643,1373,-16.9512,-6.72026
-574,-349,-16.9974,7.24866,0.0046898,0.00198635,0.00231454,0.00601842,0.000657723,0.521107,0.003812,0.0342278,650,1373,-16.9974,-7.24861
-567,-349,-17.0386,7.89636,0.00376023,0.00145565,0.00172345,0.00468111,0.000534767,0.49073,0.00295864,0.0169795,657,1373,-17.0385,-7.89636
-560,-349,-17.0549,8.50928,0.00327239,0.00105131,0.00141202,0.00395826,0.000365434,0.452173,0.00252586,0.0204315,664,1373,-17.0549,-8.50933
-553,-349,-17.0581,9.04126,0.00307764,0.000743289,0.00128238,0.00364448,0.000176451,0.416198,0.00237302,0.0262093,671,1373,-17.0581,-9.04128
-546,-349,-17.0331,9.57227,0.00312794,0.000524254,0.00130844,0.00367185,-1.96606e-05,0.393964,0.00245448,0.0299971,678,1373,-17.0331,-9.57223
-539,-349,-17.0817,10.1685,0.00337499,0.000379859,0.00147092,0.00397655,-0.000221699,0.388212,0.00272794,0.0245071,685,1373,-17.0817,-10.1684
-532,-349,-17.1328,10.7969,0.00385571,0.000324924,0.00178876,0.00460354,-0.000422903,0.395986,0.00321926,0.0174949,692,1373,-17.1328,-10.7969
-525,-349,-17.1145,11.3976,0.00454918,0.000350613,0.00225506,0.00553086,-0.000631061,0.410579,0.00391458,0.0142179,699,1373,-17.1145,-11.3976
-518,-349,-17.1204,12.022,0.00542887,0.000596095,0.00286377,0.0067595,-0.000734534,0.434963,0.00477007,0.0217218,706,1373,-17.1204,-12.022
-511,-349,-17.1099,12.6608,0,0,0,0,0,0,0,-1,713,1373,-17.1099,-12.6608
-504,-349,-9.60516,7.88831,0,0,0,0,0,0,0,-1,720,1373,-9.60519,-7.88825
-497,-349,-7.9339,5.58789,0,0,0,0,0,0,0,-1,727,1373,-7.93388,-5.58785
-490,-349,-8.73969,-0.503784,0,0,0,0,0,0,0,-1,734,1373,-8.73966,0.503752
-483,-349,-5.66974,3.7395,0,0,0,0,0,0,0,-1,741,1373,-5.66975,-3.73949
-476,-349,-10.8496,1.15759,0,0,0,0,0,0,0,-1,748,1373,-10.8496,-1.15756
-469,-349,-12.3314,-1.74878,0,0,0,0,0,0,0,-1,755,1373,-12.3314,1.74882
-462,-349,-12.6559,-0.995361,0,0,0,0,0,0,0,-1,762,1373,-12.656,0.995351
-455,-349,-13.2897,-0.234253,0,0,0,0,0,0,0,-1,769,1373,-13.2897,0.234261
-448,-349,-14.045,0.712891,0,0,0,0,0,0,0,-1,776,1373,-14.045,-0.712838
-441,-349,0,0,0,0,0,0,0,0,0,-1,783,1373,0,0
-434,-349,0,0,0,0,0,0,0,0,0,-1,790,1373,0,0
-427,-349,0,0,0,0,0,0,0,0,0,-1,797,1373,0,0
-420,-349,0,0,0,0,0,0,0,0,0,-1,804,1373,0,0
-413,-349,0,0,0,0,0,0,0,0,0,-1,811,1373,0,0
-406,-349,0,0,0,0,0,0,0,0,0,-1,818,1373,0,0
-399,-349,0,0,0,0,0,0,0,0,0,-1,825,1373,0,0
-392,-349,0,0,0,0,0,0,0,0,0,-1,832,1373,0,0
-385,-349,0,0,0,0,0,0,0,0,0,-1,839,1373,0,0
-378,-349,0,0,0,0,0,0,0,0,0,-1,846,1373,0,0
-371,-349,0,0,0,0,0,0,0,0,0,-1,853,1373,0,0
-364,-349,0,0,0,0,0,0,0,0,0,-1,860,1373,0,0
-357,-349,0,0,0,0,0,0,0,0,0,-1,867,1373,0,0
-350,-349,0,0,0,0,0,0,0,0,0,-1,874,1373,0,0
-343,-349,0,0,0,0,0,0,0,0,0,-1,881,1373,0,0
-336,-349,0,0,0,0,0,0,0,0,0,-1,888,1373,0,0
-329,-349,0,0,0,0,0,0,0,0,0,-1,895,1373,0,0
-322,-349,0,0,0,0,0,0,0,0,0,-1,902,1373,0,0
-315,-349,0,0,0,0,0,0,0,0,0,-1,909,1373,0,0
-308,-349,0,0,0,0,0,0,0,0,0,-1,916,1373,0,0
-301,-349,0,0,0,0,0,0,0,0,0,-1,923,1373,0,0
-294,-349,0,0,0,0,0,0,0,0,0,-1,930,1373,0,0
-287,-349,0,0,0,0,0,0,0,0,0,-1,937,1373,0,0
-280,-349,0,0,0,0,0,0,0,0,0,-1,944,1373,0,0
-273,-349,0,0,0,0,0,0,0,0,0,-1,951,1373,0,0
-266,-349,0,0,0,0,0,0,0,0,0,-1,958,1373,0,0
-259,-349,0,0,0,0,0,0,0,0,0,-1,965,1373,0,0
-252,-349,0,0,0,0,0,0,0,0,0,-1,972,1373,0,0
-245,-349,0,0,0,0,0,0,0,0,0,-1,979,1373,0,0
-238,-349,0,0,0,0,0,0,0,0,0,-1,986,1373,0,0
-231,-349,0,0,0,0,0,0,0,0,0,-1,993,1373,0,0
-224,-349,0,0,0,0,0,0,0,0,0,-1,1000,1373,0,0
-217,-349,0,0,0,0,0,0,0,0,0,-1,1007,1373,0,0
-210,-349,0,0,0,0,0,0,0,0,0,-1,1014,1373,0,0
-203,-349,0,0,0,0,0,0,0,0,0,-1,1021,1373,0,0
-196,-349,0,0,0,0,0,0,0,0,0,-1,1028,1373,0,0
-189,-349,0,0,0,0,0,0,0,0,0,-1,1035,1373,0,0
-182,-349,0,0,0,0,0,0,0,0,0,-1,1042,1373,0,0
-175,-349,0,0,0,0,0,0,0,0,0,-1,1049,1373,0,0
-168,-349,0,0,0,0,0,0,0,0,0,-1,1056,1373,0,0
-161,-349,0,0,0,0,0,0,0,0,0,-1,1063,1373,0,0
-154,-349,0,0,0,0,0,0,0,0,0,-1,1070,1373,0,0
-147,-349,0,0,0,0,0,0,0,0,0,-1,1077,1373,0,0
-140,-349,0,0,0,0,0,0,0,0,0,-1,1084,1373,0,0
-133,-349,0,0,0,0,0,0,0,0,0,-1,1091,1373,0,0
-126,-349,0,0,0,0,0,0,0,0,0,-1,1098,1373,0,0
-119,-349,0,0,0,0,0,0,0,0,0,-1,1105,1373,0,0
-112,-349,0,0,0,0,0,0,0,0,0,-1,1112,1373,0,0
-105,-349,0,0,0,0,0,0,0,0,0,-1,1119,1373,0,0
-98,-349,0,0,0,0,0,0,0,0,0,-1,1126,1373,0,0
-91,-349,0,0,0,0,0,0,0,0,0,-1,1133,1373,0,0
-84,-349,0,0,0,0,0,0,0,0,0,-1,1140,1373,0,0
-77,-349,0,0,0,0,0,0,0,0,0,-1,1147,1373,0,0
-70,-349,0,0,0,0,0,0,0,0,0,-1,1154,1373,0,0
-63,-349,0,0,0,0,0,0,0,0,0,-1,1161,1373,0,0
-56,-349,0,0,0,0,0,0,0,0,0,-1,1168,1373,0,0
-49,-349,0,0,0,0,0,0,0,0,0,-1,1175,1373,0,0
-42,-349,0,0,0,0,0,0,0,0,0,-1,1182,1373,0,0
-35,-349,0,0,0,0,0,0,0,0,0,-1,1189,1373,0,0
-28,-349,0,0,0,0,0,0,0,0,0,-1,1196,1373,0,0
-21,-349,0,0,0,0,0,0,0,0,0,-1,1203,1373,0,0
-14,-349,0,0,0,0,0,0,0,0,0,-1,1210,1373,0,0
-7,-349,0,0,0,0,0,0,0,0,0,-1,1217,1373,0,0
0,-349,0,0,0,0,0,0,0,0,0,-1,1224,1373,0,0
7,-349,0,0,0,0,0,0,0,0,0,-1,1231,1373,0,0
14,-349,0,0,0,0,0,0,0,0,0,-1,1238,1373,0,0
21,-349,0,0,0,0,0,0,0,0,0,-1,1245,1373,0,0
28,-349,0,0,0,0,0,0,0,0,0,-1,1252,1373,0,0
35,-349,0,0,0,0,0,0,0,0,0,-1,1259,1373,0,0
42,-349,0,0,0,0,0,0,0,0,0,-1,1266,1373,0,0
49,-349,0,0,0,0,0,0,0,0,0,-1,1273,1373,0,0
56,-349,0,0,0,0,0,0,0,0,0,-1,1280,1373,0,0
63,-349,0,0,0,0,0,0,0,0,0,-1,1287,1373,0,0
70,-349,0,0,0,0,0,0,0,0,0,-1,1294,1373,0,0
77,-349,0,0,0,0,0,0,0,0,0,-1,1301,1373,0,0
84,-349,0,0,0,0,0,0,0,0,0,-1,1308,1373,0,0
91,-349,0,0,0,0,0,0,0,0,0,-1,1315,1373,0,0
98,-349,0,0,0,0,0,0,0,0,0,-1,1322,1373,0,0
105,-349,0,0,0,0,0,0,0,0,0,-1,1329,1373,0,0
112,-349,0,0,0,0,0,0,0,0,0,-1,1336,1373,0,0
119,-349,0,0,0,0,0,0,0,0,0,-1,1343,1373,0,0
126,-349,0,0,0,0,0,0,0,0,0,-1,1350,1373,0,0
133,-349,0,0,0,0,0,0,0,0,0,-1,1357,1373,0,0
140,-349,0,0,0,0,0,0,0,0,0,-1,1364,1373,0,0
147,-349,0,0,0,0,0,0,0,0,0,-1,1371,1373,0,0
154,-349,0,0,0,0,0,0,0,0,0,-1,1378,1373,0,0
161,-349,0,0,0,0,0,0,0,0,0,-1,1385,1373,0,0
168,-349,0,0,0,0,0,0,0,0,0,-1,1392,1373,0,0
175,-349,0,0,0,0,0,0,0,0,0,-1,1399,1373,0,0
182,-349,0,0,0,0,0,0,0,0,0,-1,1406,1373,0,0
189,-349,0,0,0,0,0,0,0,0,0,-1,1413,1373,0,0
196,-349,0,0,0,0,0,0,0,0,0,-1,1420,1373,0,0
203,-349,0,0,0,0,0,0,0,0,0,-1,1427,1373,0,0
210,-349,0,0,0,0,0,0,0,0,0,-1,1434,1373,0,0
217,-349,0,0,0,0,0,0,0,0,0,-1,1441,1373,0,0
224,-349,0,0,0,0,0,0,0,0,0,-1,1448,1373,0,0
231,-349,0,0,0,0,0,0,0,0,0,-1,1455,1373,0,0
238,-349,0,0,0,0,0,0,0,0,0,-1,1462,1373,0,0
245,-349,0,0,0,0,0,0,0,0,0,-1,1469,1373,0,0
252,-349,0,0,0,0,0,0,0,0,0,-1,1476,1373,0,0
259,-349,0,0,0,0,0,0,0,0,0,-1,1483,1373,0,0
266,-349,0,0,0,0,0,0,0,0,0,-1,1490,1373,0,0
273,-349,0,0,0,0,0,0,0,0,0,-1,1497,1373,0,0
280,-349,0,0,0,0,0,0,0,0,0,-1,1504,1373,0,0
287,-349,0,0,0,0,0,0,0,0,0,-1,1511,1373,0,0
294,-349,0,0,0,0,0,0,0,0,0,-1,1518,1373,0,0
301,-349,0,0,0,0,0,0,0,0,0,-1,1525,1373,0,0
308,-349,0,0,0,0,0,0,0,0,0,-1,1532,1373,0,0
315,-349,0,0,0,0,0,0,0,0,0,-1,1539,1373,0,0
322,-349,0,0,0,0,0,0,0,0,0,-1,1546,1373,0,0
329,-349,0,0,0,0,0,0,0,0,0,-1,1553,1373,0,0
336,-349,0,0,0,0,0,0,0,0,0,-1,1560,1373,0,0
343,-349,0,0,0,0,0,0,0,0,0,-1,1567,1373,0,0
350,-349,0,0,0,0,0,0,0,0,0,-1,1574,1373,0,0
357,-349,0,0,0,0,0,0,0,0,0,-1,1581,1373,0,0
364,-349,0,0,0,0,0,0,0,0,0,-1,1588,1373,0,0
371,-349,0,0,0,0,0,0,0,0,0,-1,1595,1373,0,0
378,-349,0,0,0,0,0,0,0,0,0,-1,1602,1373,0,0
385,-349,0,0,0,0,0,0,0,0,0,-1,1609,1373,0,0
392,-349,0,0,0,0,0,0,0,0,0,-1,1616,1373,0,0
399,-349,0,0,0,0,0,0,0,0,0,-1,1623,1373,0,0
406,-349,0,0,0,0,0,0,0,0,0,-1,1630,1373,0,0
413,-349,0,0,0,0,0,0,0,0,0,-1,1637,1373,0,0
420,-349,0,0,0,0,0,0,0,0,0,-1,1644,1373,0,0
427,-349,0,0,0,0,0,0,0,0,0,-1,1651,1373,0,0
434,-349,0,0,0,0,0,0,0,0,0,-1,1658,1373,0,0
441,-349,0,0,0,0,0,0,0,0,0,-1,1665,1373,0,0
448,-349,0,0,0,0,0,0,0,0,0,-1,1672,1373,0,0
455,-349,0,0,0,0,0,0,0,0,0,-1,1679,1373,0,0
462,-349,0,0,0,0,0,0,0,0,0,-1,1686,1373,0,0
469,-349,0,0,0,0,0,0,0,0,0,-1,1693,1373,0,0
476,-349,0,0,0,0,0,0,0,0,0,-1,1700,1373,0,0
483,-349,0,0,0,0,0,0,0,0,0,-1,1707,1373,0,0
490,-349,0,0,0,0,0,0,0,0,0,-1,1714,1373,0,0
497,-349,0,0,0,0,0,0,0,0,0,-1,1721,1373,0,0
504,-349,0,0,0,0,0,0,0,0,0,-1,1728,1373,0,0
511,-349,0,0,0,0,0,0,0,0,0,-1,1735,1373,0,0
518,-349,0,0,0,0,0,0,0,0,0,-1,1742,1373,0,0
525,-349,0,0,0,0,0,0,0,0,0,-1,1749,1373,0,0
532,-349,0,0,0,0,0,0,0,0,0,-1,1756,1373,0,0
539,-349,0,0,0,0,0,0,0,0,0,-1,1763,1373,0,0
546,-349,0,0,0,0,0,0,0,0,0,-1,1770,1373,0,0
553,-349,0,0,0,0,0,0,0,0,0,-1,1777,1373,0,0
560,-349,45.6893,3.53845,0,0,0,0,0,0,0,-1,1784,1373,45.6893,-3.5385
567,-349,41.9424,6.03833,0,0,0,0,0,0,0,-1,1791,1373,41.9423,-6.03834
574,-349,42.4165,6.17078,0,0,0,0,0,0,0,-1,1798,1373,42.4165,-6.17072
581,-349,42.8947,6.78381,0,0,0,0,0,0,0,-1,1805,1373,42.8946,-6.78376
588,-349,44.8121,5.06213,0,0,0,0,0,0,0,-1,1812,1373,44.8121,-5.06215
595,-349,44.4338,6.14099,0,0,0,0,0,0,0,-1,1819,1373,44.4338,-6.14095
602,-349,35.6641,3.26465,0,0,0,0,0,0,0,-1,1826,1373,35.6641,-3.26468
609,-349,34.7175,4.401,0,0,0,0,0,0,0,-1,1833,1373,34.7175,-4.40096
616,-349,27.1451,6.68274,0,0,0,0,0,0,0,-1,1840,1373,27.1451,-6.6828
623,-349,18.8478,2.75769,0,0,0,0,0,0,0,-1,1847,1373,18.8478,-2.75774
630,-349,15.4948,6.47644,0,0,0,0,0,0,0,-1,1854,1373,15.4947,-6.4765
637,-349,16.5161,6.92639,0,0,0,0,0,0,0,-1,1861,1373,16.5161,-6.92636
644,-349,32.3798,14.2159,0,0,0,0,0,0,0,-1,1868,1373,32.3798,-14.216
651,-349,32.3816,13.6709,-0.000871595,-0.000761633,0.00058983,-0.000224227,-0.001409,0.831872,0.00087423,0.0382703,1875,1373,32.3816,-13.6709
658,-349,32.2253,13.1771,-0.000392551,-0.000772001,0.000585848,3.35278e-05,-0.00119808,0.628804,0.000810127,0.0267473,1882,1373,32.2253,-13.1771
665,-349,32.1433,12.6407,0.000183573,-0.000734835,0.000464474,0.000377519,-0.00092878,0.395552,0.000776255,0.0206649,1889,1373,32.1433,-12.6408
672,-349,32.144,12.1348,0.000786702,-0.000557057,0.000285935,0.000845015,-0.00061537,0.201179,0.000846621,0.0151962,1896,1373,32.1441,-12.1348
679,-349,32.1302,11.6362,0.00140203,-0.000343795,9.96622e-05,0.0014077,-0.000349466,0.05684,0.00107408,0.0156896,1903,1373,32.1302,-11.6363
686,-349,32.1875,11.1523,0.00200653,-8.8591e-05,-8.35512e-05,0.00200986,-9.19178e-05,-0.0397946,0.00137157,0.0163738,1910,1373,32.1875,-11.1523
693,-349,32.1406,10.603,0.00260789,0.000226833,-0.000269822,0.00263808,0.00019664,-0.111438,0.00169698,0.0181364,1917,1373,32.1406,-10.6031
700,-349,32.0999,10.0614,0.00320474,0.000612716,-0.000456958,0.00328294,0.000534517,-0.169489,0.002034,0.0180223,1924,1373,32.0999,-10.0614
707,-349,32.1597,9.49011,0.0035634,0.000948064,-0.000473738,0.00364657,0.000864897,-0.173785,0.00220016,0.0351204,1931,1373,32.1596,-9.49005
714,-349,32.2872,8.83899,0,0,0,0,0,0,0,-1,1938,1373,32.2872,-8.83902
721,-349,19.6688,5.93604,0,0,0,0,0,0,0,-1,1945,1373,19.6688,-5.93606
728,-349,18.6333,3.73218,0,0,0,0,0,0,0,-1,1952,1373,18.6333,-3.73214
735,-349,18.1918,3.39954,0,0,0,0,0,0,0,-1,1959,1373,18.1918,-3.3995
742,-349,20.7345,2.07483,0,0,0,0,0,0,0,-1,1966,1373,20.7345,-2.07485
749,-349,21.9037,1.45789,0,0,0,0,0,0,0,-1,1973,1373,21.9037,-1.45788
756,-349,0,0,0,0,0,0,0,0,0,-1,1980,1373,0,0
763,-349,0,0,0,0,0,0,0,0,0,-1,1987,1373,0,0
770,-349,0,0,0,0,0,0,0,0,0,-1,1994,1373,0,0
777,-349,0,0,0,0,0,0,0,0,0,-1,2001,1373,0,0
784,-349,0,0,0,0,0,0,0,0,0,-1,2008,1373,0,0
791,-349,0,0,0,0,0,0,0,0,0,-1,2015,1373,0,0
798,-349,0,0,0,0,0,0,0,0,0,-1,2022,1373,0,0
805,-349,0,0,0,0,0,0,0,0,0,-1,2029,1373,0,0
812,-349,0,0,0,0,0,0,0,0,0,-1,2036,1373,0,0
-700,-356,0,0,0,0,0,0,0,0,0,-1,524,1380,0,0
-693,-356,0,0,0,0,0,0,0,0,0,-1,531,1380,0,0
-686,-356,0,0,0,0,0,0,0,0,0,-1,538,1380,0,0
-679,-356,0,0,0,0,0,0,0,0,0,-1,545,1380,0,0
-672,-356,0,0,0,0,0,0,0,0,0,-1,552,1380,0,0
-665,-356,0,0,0,0,0,0,0,0,0,-1,559,1380,0,0
-658,-356,0,0,0,0,0,0,0,0,0,-1,566,1380,0,0
-651,-356,0,0,0,0,0,0,0,0,0,-1,573,1380,0,0
-644,-356,0,0,0,0,0,0,0,0,0,-1,580,1380,0,0
-637,-356,0,0,0,0,0,0,0,0,0,-1,587,1380,0,0
-630,-356,-8.23126,-5.01917,0,0,0,0,0,0,0,-1,594,1380,-8.23124,5.0192
-623,-356,-0.263855,-0.675781,0,0,0,0,0,0,0,-1,601,1380,-0.263835,0.675841
-616,-356,-8.26532,-3.43945,0,0,0,0,0,0,0,-1,608,1380,-8.2653,3.43948
-609,-356,-4.88483,0.734497,0,0,0,0,0,0,0,-1,615,1380,-4.88485,-0.734532
-602,-356,-9.06635,2.4021,0,0,0,0,0,0,0,-1,622,1380,-9.06634,-2.40206
-595,-356,-8.45703,3.61853,0,0,0,0,0,0,0,-1,629,1380,-8.45706,-3.61848
-588,-356,-9.31738,4.14258,0,0,0,0,0,0,0,-1,636,1380,-9.31736,-4.14255
-581,-356,-15.6949,6.73474,0,0,0,0,0,0,0,-1,643,1380,-15.6949,-6.73468
-574,-356,-16.5217,7.21301,0,0,0,0,0,0,0,-1,650,1380,-16.5217,-7.21297
-567,-356,-16.5006,7.86047,0.00390794,0.00164188,0.00191463,0.00499968,0.000550145,0.518223,0.00316571,0.0197785,657,1380,-16.5006,-7.86045
-560,-356,-16.4684,8.53943,0.00335604,0.00120789,0.0015429,0.00416191,0.000402021,0.481334,0.00265078,0.0172577,664,1380,-16.4684,-8.53937
-553,-356,-16.483,9.09387,0.0030723,0.000878642,0.00135582,0.0037194,0.000231544,0.445302,0.00240614,0.0200066,671,1380,-16.483,-9.09391
-546,-356,-16.4916,9.62341,0.00299617,0.000632507,0.0013101,0.00357873,4.99428e-05,0.418414,0.00236935,0.02273,678,1380,-16.4916,-9.62347
-539,-356,-16.506,10.2186,0.00309698,0.000459022,0.00139186,0.00369555,-0.000139548,0.406139,0.00251151,0.0165205,685,1380,-16.506,-10.2186
-532,-356,-16.5765,10.8274,0.00339837,0.000382147,0.00161491,0.00409986,-0.00031934,0.409791,0.00284566,0.0154483,692,1380,-16.5765,-10.8273
-525,-356,-16.5883,11.4104,0.00388677,0.000395397,0.00197993,0.00478069,-0.000498527,0.424095,0.00336563,0.0137651,699,1380,-16.5883,-11.4104
-518,-356,-16.5653,11.9998,0.00455104,0.000577273,0.00247686,0.00573946,-0.000611141,0.447364,0.00404543,0.0139537,706,1380,-16.5653,-11.9997
-511,-356,-16.552,12.5989,0,0,0,0,0,0,0,-1,713,1380,-16.552,-12.5988
-504,-356,-14.3925,12.3971,0,0,0,0,0,0,0,-1,720,1380,-14.3925,-12.3971
-497,-356,-5.68604,4.96387,0,0,0,0,0,0,0,-1,727,1380,-5.68605,-4.96385
-490,-356,-7.95288,5.5625,0,0,0,0,0,0,0,-1,734,1380,-7.95285,-5.56246
-483,-356,-7.2627,4.07446,0,0,0,0,0,0,0,-1,741,1380,-7.2627,-4.07441
-476,-356,-5.1936,4.16016,0,0,0,0,0,0,0,-1,748,1380,-5.1936,-4.16012
-469,-356,-10.0883,0.536011,0,0,0,0,0,0,0,-1,755,1380,-10.0883,-0.535989
-462,-356,-12.3481,-0.215698,0,0,0,0,0,0,0,-1,762,1380,-12.3481,0.215641
-455,-356,-13.1367,-0.264648,0,0,0,0,0,0,0,-1,769,1380,-13.1367,0.264647
-448,-356,-13.9116,-0.310181,0,0,0,0,0,0,0,-1,776,1380,-13.9115,0.310207
-441,-356,-13.1602,3.05603,0,0,0,0,0,0,0,-1,783,1380,-13.1602,-3.05609
-434,-356,0,0,0,0,0,0,0,0,0,-1,790,1380,0,0
-427,-356,0,0,0,0,0,0,0,0,0,-1,797,1380,0,0
-420,-356,0,0,0,0,0,0,0,0,0,-1,804,1380,0,0
-413,-356,0,0,0,0,0,0,0,0,0,-1,811,1380,0,0
-406,-356,0,0,0,0,0,0,0,0,0,-1,818,1380,0,0
-399,-356,0,0,0,0,0,0,0,0,0,-1,825,1380,0,0
-392,-356,0,0,0,0,0,0,0,0,0,-1,832,1380,0,0
-385,-356,0,0,0,0,0,0,0,0,0,-1,839,1380,0,0
-378,-356,0,0,0,0,0,0,0,0,0,-1,846,1380,0,0
-371,-356,0,0,0,0,0,0,0,0,0,-1,853,1380,0,0
-364,-356,0,0,0,0,0,0,0,0,0,-1,860,1380,0,0
-357,-356,0,0,0,0,0,0,0,0,0,-1,867,1380,0,0
-350,-356,0,0,0,0,0,0,0,0,0,-1,874,1380,0,0
-343,-356,0,0,0,0,0,0,0,0,0,-1,881,1380,0,0
-336,-356,0,0,0,0,0,0,0,0,0,-1,888,1380,0,0
-329,-356,0,0,0,0,0,0,0,0,0,-1,895,1380,0,0
-322,-356,0,0,0,0,0,0,0,0,0,-1,902,1380,0,0
-315,-356,0,0,0,0,0,0,0,0,0,-1,909,1380,0,0
-308,-356,0,0,0,0,0,0,0,0,0,-1,916,1380,0,0
-301,-356,0,0,0,0,0,0,0,0,0,-1,923,1380,0,0
-294,-356,0,0,0,0,0,0,0,0,0,-1,930,1380,0,0
-287,-356,0,0,0,0,0,0,0,0,0,-1,937,1380,0,0
-280,-356,0,0,0,0,0,0,0,0,0,-1,944,1380,0,0
-273,-356,0,0,0,0,0,0,0,0,0,-1,951,1380,0,0
-266,-356,0,0,0,0,0,0,0,0,0,-1,958,1380,0,0
-259,-356,0,0,0,0,0,0,0,0,0,-1,965,1380,0,0
-252,-356,0,0,0,0,0,0,0,0,0,-1,972,1380,0,0
-245,-356,0,0,0,0,0,0,0,0,0,-1,979,1380,0,0
-238,-356,0,0,0,0,0,0,0,0,0,-1,986,1380,0,0
-231,-356,0,0,0,0,0,0,0,0,0,-1,993,1380,0,0
-224,-356,0,0,0,0,0,0,0,0,0,-1,1000,1380,0,0
-217,-356,0,0,0,0,0,0,0,0,0,-1,1007,1380,0,0
-210,-356,0,0,0,0,0,0,0,0,0,-1,1014,1380,0,0
-203,-356,0,0,0,0,0,0,0,0,0,-1,1021,1380,0,0
-196,-356,0,0,0,0,0,0,0,0,0,-1,1028,1380,0,0
-189,-356,0,0,0,0,0,0,0,0,0,-1,1035,1380,0,0
-182,-356,0,0,0,0,0,0,0,0,0,-1,1042,1380,0,0
-175,-356,0,0,0,0,0,0,0,0,0,-1,1049,1380,0,0
-168,-356,0,0,0,0,0,0,0,0,0,-1,1056,1380,0,0
-161,-356,0,0,0,0,0,0,0,0,0,-1,1063,1380,0,0
-154,-356,0,0,0,0,0,0,0,0,0,-1,1070,1380,0,0
-147,-356,0,0,0,0,0,0,0,0,0,-1,1077,1380,0,0
-140,-356,0,0,0,0,0,0,0,0,0,-1,1084,1380,0,0
-133,-356,0,0,0,0,0,0,0,0,0,-1,1091,1380,0,0
-126,-356,0,0,0,0,0,0,0,0,0,-1,1098,1380,0,0
-119,-356,0,0,0,0,0,0,0,0,0,-1,1105,1380,0,0
-112,-356,0,0,0,0,0,0,0,0,0,-1,1112,1380,0,0
-105,-356,0,0,0,0,0,0,0,0,0,-1,1119,1380,0,0
-98,-356,0,0,0,0,0,0,0,0,0,-1,1126,1380,0,0
-91,-356,0,0,0,0,0,0,0,0,0,-1,1133,1380,0,0
-84,-356,0,0,0,0,0,0,0,0,0,-1,1140,1380,0,0
-77,-356,0,0,0,0,0,0,0,0,0,-1,1147,1380,0,0
-70,-356,0,0,0,0,0,0,0,0,0,-1,1154,1380,0,0
-63,-356,0,0,0,0,0,0,0,0,0,-1,1161,1380,0,0
-56,-356,0,0,0,0,0,0,0,0,0,-1,1168,1380,0,0
-49,-356,0,0,0,0,0,0,0,0,0,-1,1175,1380,0,0
-42,-356,0,0,0,0,0,0,0,0,0,-1,1182,1380,0,0
-35,-356,0,0,0,0,0,0,0,0,0,-1,1189,1380,0,0
-28,-356,0,0,0,0,0,0,0,0,0,-1,1196,1380,0,0
-21,-356,0,0,0,0,0,0,0,0,0,-1,1203,1380,0,0
-14,-356,0,0,0,0,0,0,0,0,0,-1,1210,1380,0,0
-7,-356,0,0,0,0,0,0,0,0,0,-1,1217,1380,0,0
0,-356,0,0,0,0,0,0,0,0,0,-1,1224,1380,0,0
7,-356,0,0,0,0,0,0,0,0,0,-1,1231,1380,0,0
14,-356,0,0,0,0,0,0,0,0,0,-1,1238,1380,0,0
21,-356,0,0,0,0,0,0,0,0,0,-1,1245,1380,0,0
28,-356,0,0,0,0,0,0,0,0,0,-1,1252,1380,0,0
35,-356,0,0,0,0,0,0,0,0,0,-1,1259,1380,0,0
42,-356,0,0,0,0,0,0,0,0,0,-1,1266,1380,0,0
49,-356,0,0,0,0,0,0,0,0,0,-1,1273,1380,0,0
56,-356,0,0,0,0,0,0,0,0,0,-1,1280,1380,0,0
63,-356,0,0,0,0,0,0,0,0,0,-1,1287,1380,0,0
70,-356,0,0,0,0,0,0,0,0,0,-1,1294,1380,0,0
77,-356,0,0,0,0,0,0,0,0,0,-1,1301,1380,0,0
84,-356,0,0,0,0,0,0,0,0,0,-1,1308,1380,0,0
91,-356,0,0,0,0,0,0,0,0,0,-1,1315,1380,0,0
98,-356,0,0,0,0,0,0,0,0,0,-1,1322,1380,0,0
105,-356,0,0,0,0,0,0,0,0,0,-1,1329,1380,0,0
112,-356,0,0,0,0,0,0,0,0,0,-1,1336,1380,0,0
119,-356,0,0,0,0,0,0,0,0,0,-1,1343,1380,0,0
126,-356,0,0,0,0,0,0,0,0,0,-1,1350,1380,0,0
133,-356,0,0,0,0,0,0,0,0,0,-1,1357,1380,0,0
140,-356,0,0,0,0,0,0,0,0,0,-1,1364,1380,0,0
147,-356,0,0,0,0,0,0,0,0,0,-1,1371,1380,0,0
154,-356,0,0,0,0,0,0,0,0,0,-1,1378,1380,0,0
161,-356,0,0,0,0,0,0,0,0,0,-1,1385,1380,0,0
168,-356,0,0,0,0,0,0,0,0,0,-1,1392,1380,0,0
175,-356,0,0,0,0,0,0,0,0,0,-1,1399,1380,0,0
182,-356,0,0,0,0,0,0,0,0,0,-1,1406,1380,0,0
189,-356,0,0,0,0,0,0,0,0,0,-1,1413,1380,0,0
196,-356,0,0,0,0,0,0,0,0,0,-1,1420,1380,0,0
203,-356,0,0,0,0,0,0,0,0,0,-1,1427,1380,0,0
210,-356,0,0,0,0,0,0,0,0,0,-1,1434,1380,0,0
217,-356,0,0,0,0,0,0,0,0,0,-1,1441,1380,0,0
224,-356,0,0,0,0,0,0,0,0,0,-1,1448,1380,0,0
231,-356,0,0,0,0,0,0,0,0,0,-1,1455,1380,0,0
238,-356,0,0,0,0,0,0,0,0,0,-1,1462,1380,0,0
245,-356,0,0,0,0,0,0,0,0,0,-1,1469,1380,0,0
252,-356,0,0,0,0,0,0,0,0,0,-1,1476,1380,0,0
259,-356,0,0,0,0,0,0,0,0,0,-1,1483,1380,0,0
266,-356,0,0,0,0,0,0,0,0,0,-1,1490,1380,0,0
273,-356,0,0,0,0,0,0,0,0,0,-1,1497,1380,0,0
280,-356,0,0,0,0,0,0,0,0,0,-1,1504,1380,0,0
287,-356,0,0,0,0,0,0,0,0,0,-1,1511,1380,0,0
294,-356,0,0,0,0,0,0,0,0,0,-1,1518,1380,0,0
301,-356,0,0,0,0,0,0,0,0,0,-1,1525,1380,0,0
308,-356,0,0,0,0,0,0,0,0,0,-1,1532,1380,0,0
315,-356,0,0,0,0,0,0,0,0,0,-1,1539,1380,0,0
322,-356,0,0,0,0,0,0,0,0,0,-1,1546,1380,0,0
329,-356,0,0,0,0,0,0,0,0,0,-1,1553,1380,0,0
336,-356,0,0,0,0,0,0,0,0,0,-1,1560,1380,0,0
343,-356,0,0,0,0,0,0,0,0,0,-1,1567,1380,0,0
350,-356,0,0,0,0,0,0,0,0,0,-1,1574,1380,0,0
357,-356,0,0,0,0,0,0,0,0,0,-1,1581,1380,0,0
364,-356,0,0,0,0,0,0,0,0,0,-1,1588,1380,0,0
371,-356,0,0,0,0,0,0,0,0,0,-1,1595,1380,0,0
378,-356,0,0,0,0,0,0,0,0,0,-1,1602,1380,0,0
385,-356,0,0,0,0,0,0,0,0,0,-1,1609,1380,0,0
392,-356,0,0,0,0,0,0,0,0,0,-1,1616,1380,0,0
399,-356,0,0,0,0,0,0,0,0,0,-1,1623,1380,0,0
406,-356,0,0,0,0,0,0,0,0,0,-1,1630,1380,0,0
413,-356,0,0,0,0,0,0,0,0,0,-1,1637,1380,0,0
420,-356,0,0,0,0,0,0,0,0,0,-1,1644,1380,0,0
427,-356,0,0,0,0,0,0,0,0,0,-1,1651,1380,0,0
434,-356,0,0,0,0,0,0,0,0,0,-1,1658,1380,0,0
441,-356,0,0,0,0,0,0,0,0,0,-1,1665,1380,0,0
448,-356,0,0,0,0,0,0,0,0,0,-1,1672,1380,0,0
455,-356,0,0,0,0,0,0,0,0,0,-1,1679,1380,0,0
462,-356,0,0,0,0,0,0,0,0,0,-1,1686,1380,0,0
469,-356,0,0,0,0,0,0,0,0,0,-1,1693,1380,0,0
476,-356,0,0,0,0,0,0,0,0,0,-1,1700,1380,0,0
483,-356,0,0,0,0,0,0,0,0,0,-1,1707,1380,0,0
490,-356,0,0,0,0,0,0,0,0,0,-1,1714,1380,0,0
497,-356,0,0,0,0,0,0,0,0,0,-1,1721,1380,0,0
504,-356,0,0,0,0,0,0,0,0,0,-1,1728,1380,0,0
511,-356,0,0,0,0,0,0,0,0,0,-1,1735,1380,0,0
518,-356,0,0,0,0,0,0,0,0,0,-1,1742,1380,0,0
525,-356,0,0,0,0,0,0,0,0,0,-1,1749,1380,0,0
532,-356,0,0,0,0,0,0,0,0,0,-1,1756,1380,0,0
539,-356,0,0,0,0,0,0,0,0,0,-1,1763,1380,0,0
546,-356,0,0,0,0,0,0,0,0,0,-1,1770,1380,0,0
553,-356,0,0,0,0,0,0,0,0,0,-1,1777,1380,0,0
560,-356,45.7938,3.65295,0,0,0,0,0,0,0,-1,1784,1380,45.7938,-3.65294
567,-356,45.6788,3.51428,0,0,0,0,0,0,0,-1,1791,1380,45.6788,-3.51422
574,-356,45.5742,3.39575,0,0,0,0,0,0,0,-1,1798,1380,45.5742,-3.39574
581,-356,45.6708,3.64172,0,0,0,0,0,0,0,-1,1805,1380,45.6707,-3.64175
588,-356,44.4739,4.87085,0,0,0,0,0,0,0,-1,1812,1380,44.4739,-4.87086
595,-356,32.0834,5.86084,0,0,0,0,0,0,0,-1,1819,1380,32.0834,-5.86079
602,-356,30.1604,6.07104,0,0,0,0,0,0,0,-1,1826,1380,30.1604,-6.07104
609,-356,28.3435,6.48901,0,0,0,0,0,0,0,-1,1833,1380,28.3435,-6.48899
616,-356,26.9358,6.80872,0,0,0,0,0,0,0,-1,1840,1380,26.9358,-6.80877
623,-356,16.1803,1.07532,0,0,0,0,0,0,0,-1,1847,1380,16.1803,-1.07529
630,-356,16.4138,6.91553,0,0,0,0,0,0,0,-1,1854,1380,16.4138,-6.9155
637,-356,24.8021,12.0151,0,0,0,0,0,0,0,-1,1861,1380,24.8022,-12.0151
644,-356,31.7683,14.3434,0,0,0,0,0,0,0,-1,1868,1380,31.7684,-14.3433
651,-356,31.7469,13.7443,-0.000435328,-0.000527942,0.000326478,-0.000151889,-0.00081138,0.714949,0.000498071,0.0185152,1875,1380,31.7469,-13.7443
658,-356,31.6813,13.1935,-7.26887e-05,-0.000610108,0.000431762,0.000167152,-0.000849949,0.50705,0.000629788,0.0151043,1882,1380,31.6813,-13.1935
665,-356,31.6342,12.709,0.000406935,-0.000596924,0.000400124,0.000546903,-0.000736893,0.336507,0.0007439,0.0150377,1889,1380,31.6342,-12.709
672,-356,31.6046,12.2059,0.000936391,-0.0004762,0.000320023,0.00100551,-0.000545319,0.212715,0.000908417,0.0152075,1896,1380,31.6047,-12.2059
679,-356,31.5942,11.6689,0.00154362,-0.000269244,0.000171502,0.0015597,-0.000285326,0.093498,0.0011468,0.0177914,1903,1380,31.5943,-11.6689
686,-356,31.5886,11.1332,0.00221903,3.21546e-05,-3.30006e-05,0.00221952,3.16567e-05,-0.0150857,0.00146924,0.0187387,1910,1380,31.5886,-11.1332
693,-356,31.6028,10.6377,0.00293995,0.000423232,-0.00027581,0.00296982,0.000393361,-0.107885,0.00186266,0.0158833,1917,1380,31.6028,-10.6377
700,-356,31.6086,10.0831,0.00376483,0.000967461,-0.000585469,0.00388242,0.00084987,-0.198213,0.00235664,0.0217727,1924,1380,31.6087,-10.0831
707,-356,31.751,9.34973,0,0,0,0,0,0,0,-1,1931,1380,31.751,-9.34975
714,-356,19.6907,5.82129,0,0,0,0,0,0,0,-1,1938,1380,19.6907,-5.82132
721,-356,17.2948,4.1958,0,0,0,0,0,0,0,-1,1945,1380,17.2948,-4.19584
728,-356,19.1846,2.31519,0,0,0,0,0,0,0,-1,1952,1380,19.1846,-2.31514
735,-356,20.0731,2.50842,0,0,0,0,0,0,0,-1,1959,1380,20.0731,-2.50844
742,-356,21.0111,2.43762,0,0,0,0,0,0,0,-1,1966,1380,21.0112,-2.43762
749,-356,22.1411,1.83276,0,0,0,0,0,0,0,-1,1973,1380,22.1411,-1.83275
756,-356,0,0,0,0,0,0,0,0,0,-1,1980,1380,0,0
763,-356,0,0,0,0,0,0,0,0,0,-1,1987,1380,0,0
770,-356,0,0,0,0,0,0,0,0,0,-1,1994,1380,0,0
777,-356,0,0,0,0,0,0,0,0,0,-1,2001,1380,0,0
784,-356,0,0,0,0,0,0,0,0,0,-1,2008,1380,0,0
791,-356,0,0,0,0,0,0,0,0,0,-1,2015,1380,0,0
798,-356,0,0,0,0,0,0,0,0,0,-1,2022,1380,0,0
805,-356,0,0,0,0,0,0,0,0,0,-1,2029,1380,0,0
812,-356,0,0,0,0,0,0,0,0,0,-1,2036,1380,0,0
-700,-363,0,0,0,0,0,0,0,0,0,-1,524,1387,0,0
-693,-363,0,0,0,0,0,0,0,0,0,-1,531,1387,0,0
-686,-363,0,0,0,0,0,0,0,0,0,-1,538,1387,0,0
-679,-363,0,0,0,0,0,0,0,0,0,-1,545,1387,0,0
-672,-363,0,0,0,0,0,0,0,0,0,-1,552,1387,0,0
-665,-363,0,0,0,0,0,0,0,0,0,-1,559,1387,0,0
-658,-363,0,0,0,0,0,0,0,0,0,-1,566,1387,0,0
-651,-363,0,0,0,0,0,0,0,0,0,-1,573,1387,0,0
-644,-363,0,0,0,0,0,0,0,0,0,-1,580,1387,0,0
-637,-363,0,0,0,0,0,0,0,0,0,-1,587,1387,0,0
-630,-363,0,0,0,0,0,0,0,0,0,-1,594,1387,0,0
-623,-363,-9.67566,-5.91846,0,0,0,0,0,0,0,-1,601,1387,-9.67563,5.91847
-616,-363,-9.02985,-2.98083,0,0,0,0,0,0,0,-1,608,1387,-9.02987,2.98079
-609,-363,-4.90265,0.195679,0,0,0,0,0,0,0,-1,615,1387,-4.90263,-0.195721
-602,-363,-9.65009,3.5321,0,0,0,0,0,0,0,-1,622,1387,-9.65007,-3.53211
-595,-363,-8.00256,3.48853,0,0,0,0,0,0,0,-1,629,1387,-8.00256,-3.48855
-588,-363,-10.8846,4.49768,0,0,0,0,0,0,0,-1,636,1387,-10.8846,-4.49773
-581,-363,-11.7469,5.15161,0,0,0,0,0,0,0,-1,643,1387,-11.747,-5.15167
-574,-363,-15.8545,7.23132,0,0,0,0,0,0,0,-1,650,1387,-15.8545,-7.23128
-567,-363,-15.9198,7.96948,0.00401677,0.00179062,0.00219556,0.00536529,0.000442105,0.550796,0.00343898,0.0461524,657,1387,-15.9198,-7.96947
-560,-363,-15.9037,8.52295,0.00342838,0.00133896,0.00174443,0.004417,0.000350335,0.515599,0.00283512,0.0137008,664,1387,-15.9037,-8.52298
-553,-363,-15.9284,9.12439,0.00307915,0.000999351,0.00148611,0.00385307,0.000225435,0.480121,0.00249696,0.0134261,671,1387,-15.9284,-9.12438
-546,-363,-15.9332,9.67322,0.00289985,0.000735844,0.00135602,0.00355264,8.30477e-05,0.448661,0.00234124,0.0138019,678,1387,-15.9332,-9.67316
-539,-363,-15.9185,10.2643,0.00288566,0.00054764,0.00134709,0.00350025,-6.69499e-05,0.428028,0.00235613,0.0161977,685,1387,-15.9185,-10.2642
-532,-363,-15.9868,10.8693,0.00305933,0.000462648,0.00147703,0.00372753,-0.000205555,0.424846,0.0025563,0.0139843,692,1387,-15.9868,-10.8693
-525,-363,-16.0149,11.4276,0.00347306,0.000545082,0.00181024,0.00433721,-0.000319065,0.445378,0.00300348,0.0119596,699,1387,-16.0149,-11.4276
-518,-363,-15.9866,12.0114,0.00406826,0.00075898,0.00227233,0.00522454,-0.000397308,0.470707,0.00362274,0.0104951,706,1387,-15.9865,-12.0113
-511,-363,-15.9433,12.6202,0.00497508,0.0010759,0.00298229,0.00658849,-0.000537508,0.495904,0.00458202,0.0265144,713,1387,-15.9433,-12.6202
-504,-363,-15.8809,13.2512,0,0,0,0,0,0,0,-1,720,1387,-15.8809,-13.2513
-497,-363,-7.18842,7.29944,0,0,0,0,0,0,0,-1,727,1387,-7.18839,-7.29945
-490,-363,-5.42413,4.6958,0,0,0,0,0,0,0,-1,734,1387,-5.42412,-4.69583
-483,-363,-6.28375,4.1394,0,0,0,0,0,0,0,-1,741,1387,-6.28374,-4.13944
-476,-363,-5.83807,4.31018,0,0,0,0,0,0,0,-1,748,1387,-5.8381,-4.31013
-469,-363,-10.7125,0.697754,0,0,0,0,0,0,0,-1,755,1387,-10.7125,-0.697811
-462,-363,-9.55951,-0.0830078,0,0,0,0,0,0,0,-1,762,1387,-9.55949,0.0830163
-455,-363,-13.1008,-0.290894,0,0,0,0,0,0,0,-1,769,1387,-13.1008,0.290921
-448,-363,-11.7324,2.46606,0,0,0,0,0,0,0,-1,776,1387,-11.7324,-2.46605
-441,-363,-12.4464,2.5354,0,0,0,0,0,0,0,-1,783,1387,-12.4463,-2.53537
-434,-363,-13.6918,2.14661,0,0,0,0,0,0,0,-1,790,1387,-13.6918,-2.14662
-427,-363,0,0,0,0,0,0,0,0,0,-1,797,1387,0,0
-420,-363,0,0,0,0,0,0,0,0,0,-1,804,1387,0,0
-413,-363,0,0,0,0,0,0,0,0,0,-1,811,1387,0,0
-406,-363,0,0,0,0,0,0,0,0,0,-1,818,1387,0,0
-399,-363,0,0,0,0,0,0,0,0,0,-1,825,1387,0,0
-392,-363,0,0,0,0,0,0,0,0,0,-1,832,1387,0,0
-385,-363,0,0,0,0,0,0,0,0,0,-1,839,1387,0,0
-378,-363,0,0,0,0,0,0,0,0,0,-1,846,1387,0,0
-371,-363,0,0,0,0,0,0,0,0,0,-1,853,1387,0,0
-364,-363,0,0,0,0,0,0,0,0,0,-1,860,1387,0,0
-357,-363,0,0,0,0,0,0,0,0,0,-1,867,1387,0,0
-350,-363,0,0,0,0,0,0,0,0,0,-1,874,1387,0,0
-343,-363,0,0,0,0,0,0,0,0,0,-1,881,1387,0,0
-336,-363,0,0,0,0,0,0,0,0,0,-1,888,1387,0,0
-329,-363,0,0,0,0,0,0,0,0,0,-1,895,1387,0,0
-322,-363,0,0,0,0,0,0,0,0,0,-1,902,1387,0,0
-315,-363,0,0,0,0,0,0,0,0,0,-1,909,1387,0,0
-308,-363,0,0,0,0,0,0,0,0,0,-1,916,1387,0,0
-301,-363,0,0,0,0,0,0,0,0,0,-1,923,1387,0,0
-294,-363,0,0,0,0,0,0,0,0,0,-1,930,1387,0,0
-287,-363,0,0,0,0,0,0,0,0,0,-1,937,1387,0,0
-280,-363,0,0,0,0,0,0,0,0,0,-1,944,1387,0,0
-273,-363,0,0,0,0,0,0,0,0,0,-1,951,1387,0,0
-266,-363,0,0,0,0,0,0,0,0,0,-1,958,1387,0,0
-259,-363,0,0,0,0,0,0,0,0,0,-1,965,1387,0,0
-252,-363,0,0,0,0,0,0,0,0,0,-1,972,1387,0,0
-245,-363,0,0,0,0,0,0,0,0,0,-1,979,1387,0,0
-238,-363,0,0,0,0,0,0,0,0,0,-1,986,1387,0,0
-231,-363,0,0,0,0,0,0,0,0,0,-1,993,1387,0,0
-224,-363,0,0,0,0,0,0,0,0,0,-1,1000,1387,0,0
-217,-363,0,0,0,0,0,0,0,0,0,-1,1007,1387,0,0
-210,-363,0,0,0,0,0,0,0,0,0,-1,1014,1387,0,0
-203,-363,0,0,0,0,0,0,0,0,0,-1,1021,1387,0,0
-196,-363,0,0,0,0,0,0,0,0,0,-1,1028,1387,0,0
-189,-363,0,0,0,0,0,0,0,0,0,-1,1035,1387,0,0
-182,-363,0,0,0,0,0,0,0,0,0,-1,1042,1387,0,0
-175,-363,0,0,0,0,0,0,0,0,0,-1,1049,1387,0,0
-168,-363,0,0,0,0,0,0,0,0,0,-1,1056,1387,0,0
-161,-363,0,0,0,0,0,0,0,0,0,-1,1063,1387,0,0
-154,-363,0,0,0,0,0,0,0,0,0,-1,1070,1387,0,0
-147,-363,0,0,0,0,0,0,0,0,0,-1,1077,1387,0,0
-140,-363,0,0,0,0,0,0,0,0,0,-1,1084,1387,0,0
-133,-363,0,0,0,0,0,0,0,0,0,-1,1091,1387,0,0
-126,-363,0,0,0,0,0,0,0,0,0,-1,1098,1387,0,0
-119,-363,0,0,0,0,0,0,0,0,0,-1,1105,1387,0,0
-112,-363,0,0,0,0,0,0,0,0,0,-1,1112,1387,0,0
-105,-363,0,0,0,0,0,0,0,0,0,-1,1119,1387,0,0
-98,-363,0,0,0,0,0,0,0,0,0,-1,1126,1387,0,0
-91,-363,0,0,0,0,0,0,0,0,0,-1,1133,1387,0,0
-84,-363,0,0,0,0,0,0,0,0,0,-1,1140,1387,0,0
-77,-363,0,0,0,0,0,0,0,0,0,-1,1147,1387,0,0
-70,-363,0,0,0,0,0,0,0,0,0,-1,1154,1387,0,0
-63,-363,0,0,0,0,0,0,0,0,0,-1,1161,1387,0,0
-56,-363,0,0,0,0,0,0,0,0,0,-1,1168,1387,0,0
-49,-363,0,0,0,0,0,0,0,0,0,-1,1175,1387,0,0
-42,-363,0,0,0,0,0,0,0,0,0,-1,1182,1387,0,0
-35,-363,0,0,0,0,0,0,0,0,0,-1,1189,1387,0,0
-28,-363,0,0,0,0,0,0,0,0,0,-1,1196,1387,0,0
-21,-363,0,0,0,0,0,0,0,0,0,-1,1203,1387,0,0
-14,-363,0,0,0,0,0,0,0,0,0,-1,1210,1387,0,0
-7,-363,0,0,0,0,0,0,0,0,0,-1,1217,1387,0,0
0,-363,0,0,0,0,0,0,0,0,0,-1,1224,1387,0,0
7,-363,0,0,0,0,0,0,0,0,0,-1,1231,1387,0,0
14,-363,0,0,0,0,0,0,0,0,0,-1,1238,1387,0,0
21,-363,0,0,0,0,0,0,0,0,0,-1,1245,1387,0,0
28,-363,0,0,0,0,0,0,0,0,0,-1,1252,1387,0,0
35,-363,0,0,0,0,0,0,0,0,0,-1,1259,1387,0,0
42,-363,0,0,0,0,0,0,0,0,0,-1,1266,1387,0,0
49,-363,0,0,0,0,0,0,0,0,0,-1,1273,1387,0,0
56,-363,0,0,0,0,0,0,0,0,0,-1,1280,1387,0,0
63,-363,0,0,0,0,0,0,0,0,0,-1,1287,1387,0,0
70,-363,0,0,0,0,0,0,0,0,0,-1,1294,1387,0,0
77,-363,0,0,0,0,0,0,0,0,0,-1,1301,1387,0,0
84,-363,0,0,0,0,0,0,0,0,0,-1,1308,1387,0,0
91,-363,0,0,0,0,0,0,0,0,0,-1,1315,1387,0,0
98,-363,0,0,0,0,0,0,0,0,0,-1,1322,1387,0,0
105,-363,0,0,0,0,0,0,0,0,0,-1,1329,1387,0,0
112,-363,0,0,0,0,0,0,0,0,0,-1,1336,1387,0,0
119,-363,0,0,0,0,0,0,0,0,0,-1,1343,1387,0,0
126,-363,0,0,0,0,0,0,0,0,0,-1,1350,1387,0,0
133,-363,0,0,0,0,0,0,0,0,0,-1,1357,1387,0,0
140,-363,0,0,0,0,0,0,0,0,0,-1,1364,1387,0,0
147,-363,0,0,0,0,0,0,0,0,0,-1,1371,1387,0,0
154,-363,0,0,0,0,0,0,0,0,0,-1,1378,1387,0,0
161,-363,0,0,0,0,0,0,0,0,0,-1,1385,1387,0,0
168,-363,0,0,0,0,0,0,0,0,0,-1,1392,1387,0,0
175,-363,0,0,0,0,0,0,0,0,0,-1,1399,1387,0,0
182,-363,0,0,0,0,0,0,0,0,0,-1,1406,1387,0,0
189,-363,0,0,0,0,0,0,0,0,0,-1,1413,1387,0,0
196,-363,0,0,0,0,0,0,0,0,0,-1,1420,1387,0,0
203,-363,0,0,0,0,0,0,0,0,0,-1,1427,1387,0,0
210,-363,0,0,0,0,0,0,0,0,0,-1,1434,1387,0,0
217,-363,0,0,0,0,0,0,0,0,0,-1,1441,1387,0,0
224,-363,0,0,0,0,0,0,0,0,0,-1,1448,1387,0,0
231,-363,0,0,0,0,0,0,0,0,0,-1,1455,1387,0,0
238,-363,0,0,0,0,0,0,0,0,0,-1,1462,1387,0,0
245,-363,0,0,0,0,0,0,0,0,0,-1,1469,1387,0,0
252,-363,0,0,0,0,0,0,0,0,0,-1,1476,1387,0,0
259,-363,0,0,0,0,0,0,0,0,0,-1,1483,1387,0,0
266,-363,0,0,0,0,0,0,0,0,0,-1,1490,1387,0,0
273,-363,0,0,0,0,0,0,0,0,0,-1,1497,1387,0,0
280,-363,0,0,0,0,0,0,0,0,0,-1,1504,1387,0,0
287,-363,0,0,0,0,0,0,0,0,0,-1,1511,1387,0,0
294,-363,0,0,0,0,0,0,0,0,0,-1,1518,1387,0,0
301,-363,0,0,0,0,0,0,0,0,0,-1,1525,1387,0,0
308,-363,0,0,0,0,0,0,0,0,0,-1,1532,1387,0,0
315,-363,0,0,0,0,0,0,0,0,0,-1,1539,1387,0,0
322,-363,0,0,0,0,0,0,0,0,0,-1,1546,1387,0,0
329,-363,0,0,0,0,0,0,0,0,0,-1,1553,1387,0,0
336,-363,0,0,0,0,0,0,0,0,0,-1,1560,1387,0,0
343,-363,0,0,0,0,0,0,0,0,0,-1,1567,1387,0,0
350,-363,0,0,0,0,0,0,0,0,0,-1,1574,1387,0,0
357,-363,0,0,0,0,0,0,0,0,0,-1,1581,1387,0,0
364,-363,0,0,0,0,0,0,0,0,0,-1,1588,1387,0,0
371,-363,0,0,0,0,0,0,0,0,0,-1,1595,1387,0,0
378,-363,0,0,0,0,0,0,0,0,0,-1,1602,1387,0,0
385,-363,0,0,0,0,0,0,0,0,0,-1,1609,1387,0,0
392,-363,0,0,0,0,0,0,0,0,0,-1,1616,1387,0,0
399,-363,0,0,0,0,0,0,0,0,0,-1,1623,1387,0,0
406,-363,0,0,0,0,0,0,0,0,0,-1,1630,1387,0,0
413,-363,0,0,0,0,0,0,0,0,0,-1,1637,1387,0,0
420,-363,0,0,0,0,0,0,0,0,0,-1,1644,1387,0,0
427,-363,0,0,0,0,0,0,0,0,0,-1,1651,1387,0,0
434,-363,0,0,0,0,0,0,0,0,0,-1,1658,1387,0,0
441,-363,0,0,0,0,0,0,0,0,0,-1,1665,1387,0,0
448,-363,0,0,0,0,0,0,0,0,0,-1,1672,1387,0,0
455,-363,0,0,0,0,0,0,0,0,0,-1,1679,1387,0,0
462,-363,0,0,0,0,0,0,0,0,0,-1,1686,1387,0,0
469,-363,0,0,0,0,0,0,0,0,0,-1,1693,1387,0,0
476,-363,0,0,0,0,0,0,0,0,0,-1,1700,1387,0,0
483,-363,0,0,0,0,0,0,0,0,0,-1,1707,1387,0,0
490,-363,0,0,0,0,0,0,0,0,0,-1,1714,1387,0,0
497,-363,0,0,0,0,0,0,0,0,0,-1,1721,1387,0,0
504,-363,0,0,0,0,0,0,0,0,0,-1,1728,1387,0,0
511,-363,0,0,0,0,0,0,0,0,0,-1,1735,1387,0,0
518,-363,0,0,0,0,0,0,0,0,0,-1,1742,1387,0,0
525,-363,0,0,0,0,0,0,0,0,0,-1,1749,1387,0,0
532,-363,0,0,0,0,0,0,0,0,0,-1,1756,1387,0,0
539,-363,0,0,0,0,0,0,0,0,0,-1,1763,1387,0,0
546,-363,0,0,0,0,0,0,0,0,0,-1,1770,1387,0,0
553,-363,45.9076,3.64331,0,0,0,0,0,0,0,-1,1777,1387,45.9076,-3.64336
560,-363,45.9459,3.6875,0,0,0,0,0,0,0,-1,1784,1387,45.9459,-3.68756
567,-363,45.9266,3.32825,0,0,0,0,0,0,0,-1,1791,1387,45.9266,-3.32824
574,-363,45.7261,2.8075,0,0,0,0,0,0,0,-1,1798,1387,45.7261,-2.80754
581,-363,39.2413,1.97632,0,0,0,0,0,0,0,-1,1805,1387,39.2413,-1.97636
588,-363,32.5608,6.72131,0,0,0,0,0,0,0,-1,1812,1387,32.5608,-6.72131
595,-363,31.4688,6.95435,0,0,0,0,0,0,0,-1,1819,1387,31.4688,-6.95431
602,-363,25.7437,5.33667,0,0,0,0,0,0,0,-1,1826,1387,25.7437,-5.33667
609,-363,27.7048,7.06885,0,0,0,0,0,0,0,-1,1833,1387,27.7048,-7.06882
616,-363,16.229,1.08704,0,0,0,0,0,0,0,-1,1840,1387,16.229,-1.08706
623,-363,15.7283,7.16663,0,0,0,0,0,0,0,-1,1847,1387,15.7282,-7.16665
630,-363,18.3192,9.27844,0,0,0,0,0,0,0,-1,1854,1387,18.3192,-9.27843
637,-363,31.1158,15.0153,0,0,0,0,0,0,0,-1,1861,1387,31.1158,-15.0152
644,-363,31.1547,14.3628,-8.14225e-05,6.62138e-06,-0.000318469,0.000284097,-0.000358898,-0.854078,0.00037207,0.0165624,1868,1387,31.1546,-14.3628
651,-363,31.1799,13.778,-4.76275e-05,-0.000352669,8.42174e-05,-2.5921e-05,-0.000374376,0.252254,0.000241408,0.0117861,1875,1387,31.1799,-13.778
658,-363,31.1593,13.2565,0.000288744,-0.000460151,0.00024884,0.000363888,-0.000535294,0.293269,0.000522278,0.0125296,1882,1387,31.1593,-13.2565
665,-363,31.1138,12.7529,0.000717229,-0.000462702,0.000300307,0.000789264,-0.000534736,0.23542,0.000769106,0.0127088,1889,1387,31.1138,-12.7529
672,-363,31.0944,12.2397,0.00122667,-0.000377179,0.00030023,0.00128103,-0.000431538,0.179116,0.0010285,0.0137695,1896,1387,31.0944,-12.2398
679,-363,31.0696,11.7074,0.00184313,-0.00015927,0.000198774,0.00186267,-0.000178811,0.0979937,0.00130547,0.0149762,1903,1387,31.0696,-11.7074
686,-363,31.0638,11.1707,0.0025346,0.00014656,4.13455e-05,0.00253531,0.000145844,0.0173067,0.00164375,0.0152409,1910,1387,31.0638,-11.1707
693,-363,31.0592,10.6285,0.00330925,0.000583351,-0.000201914,0.00332412,0.000568476,-0.0735377,0.002053,0.0138937,1917,1387,31.0592,-10.6285
700,-363,31.177,10.0474,0.00426398,0.00124339,-0.000564007,0.00436586,0.00114151,-0.178702,0.0026145,0.0256937,1924,1387,31.177,-10.0474
707,-363,31.4071,9.50098,0,0,0,0,0,0,0,-1,1931,1387,31.4071,-9.50102
714,-363,16.5782,5.3147,0,0,0,0,0,0,0,-1,1938,1387,16.5783,-5.31472
721,-363,14.4045,4.51685,0,0,0,0,0,0,0,-1,1945,1387,14.4045,-4.51685
728,-363,19.9756,0.853027,0,0,0,0,0,0,0,-1,1952,1387,19.9756,-0.853059
735,-363,21.4297,1.2981,0,0,0,0,0,0,0,-1,1959,1387,21.4297,-1.29811
742,-363,21.3621,2.79663,0,0,0,0,0,0,0,-1,1966,1387,21.362,-2.7966
749,-363,0,0,0,0,0,0,0,0,0,-1,1973,1387,0,0
756,-363,0,0,0,0,0,0,0,0,0,-1,1980,1387,0,0
763,-363,0,0,0,0,0,0,0,0,0,-1,1987,1387,0,0
770,-363,0,0,0,0,0,0,0,0,0,-1,1994,1387,0,0
777,-363,0,0,0,0,0,0,0,0,0,-1,2001,1387,0,0
784,-363,0,0,0,0,0,0,0,0,0,-1,2008,1387,0,0
791,-363,0,0,0,0,0,0,0,0,0,-1,2015,1387,0,0
798,-363,0,0,0,0,0,0,0,0,0,-1,2022,1387,0,0
805,-363,0,0,0,0,0,0,0,0,0,-1,2029,1387,0,0
812,-363,0,0,0,0,0,0,0,0,0,-1,2036,1387,0,0
-700,-370,0,0,0,0,0,0,0,0,0,-1,524,1394,0,0
-693,-370,0,0,0,0,0,0,0,0,0,-1,531,1394,0,0
-686,-370,0,0,0,0,0,0,0,0,0,-1,538,1394,0,0
-679,-370,0,0,0,0,0,0,0,0,0,-1,545,1394,0,0
-672,-370,0,0,0,0,0,0,0,0,0,-1,552,1394,0,0
-665,-370,0,0,0,0,0,0,0,0,0,-1,559,1394,0,0
-658,-370,0,0,0,0,0,0,0,0,0,-1,566,1394,0,0
-651,-370,0,0,0,0,0,0,0,0,0,-1,573,1394,0,0
-644,-370,0,0,0,0,0,0,0,0,0,-1,580,1394,0,0
-637,-370,0,0,0,0,0,0,0,0,0,-1,587,1394,0,0
-630,-370,0,0,0,0,0,0,0,0,0,-1,594,1394,0,0
-623,-370,-10.1758,-7.10486,0,0,0,0,0,0,0,-1,601,1394,-10.1758,7.10483
-616,-370,-8.85925,-1.61475,0,0,0,0,0,0,0,-1,608,1394,-8.85925,1.61476
-609,-370,-5.39325,0.0421143,0,0,0,0,0,0,0,-1,615,1394,-5.39328,-0.0421372
-602,-370,-12.3151,3.44592,0,0,0,0,0,0,0,-1,622,1394,-12.3151,-3.44595
-595,-370,-7.53284,5.44214,0,0,0,0,0,0,0,-1,629,1394,-7.53284,-5.44216
-588,-370,-11.2422,4.50598,0,0,0,0,0,0,0,-1,636,1394,-11.2422,-4.50596
-581,-370,-13.1575,5.84888,0,0,0,0,0,0,0,-1,643,1394,-13.1575,-5.84887
-574,-370,-13.0107,6.69861,0,0,0,0,0,0,0,-1,650,1394,-13.0108,-6.69866
-567,-370,-15.3417,7.82996,0,0,0,0,0,0,0,-1,657,1394,-15.3417,-7.82993
-560,-370,-15.3842,8.4873,0.00374644,0.00147824,0.00194002,0.00485953,0.000365149,0.520896,0.00312509,0.0271554,664,1394,-15.3841,-8.48736
-553,-370,-15.3604,9.12671,0.0032604,0.00112712,0.00160057,0.00411718,0.000270337,0.491485,0.00265926,0.010873,671,1394,-15.3604,-9.1267
-546,-370,-15.337,9.71082,0.00292766,0.000839668,0.00138288,0.00361637,0.000150954,0.46207,0.0023622,0.014333,678,1394,-15.337,-9.71085
-539,-370,-15.3266,10.3328,0.0027582,0.000633352,0.00128824,0.0033656,2.59511e-05,0.440585,0.00223513,0.0188731,685,1394,-15.3266,-10.3327
-532,-370,-15.4048,10.9088,0.00278071,0.000532829,0.00133514,0.003402,-8.84673e-05,0.435538,0.00229806,0.0227741,692,1394,-15.4048,-10.9089
-525,-370,-15.4268,11.4629,0.00307225,0.000643852,0.00162166,0.00388389,-0.000167794,0.464051,0.00264697,0.0179714,699,1394,-15.4268,-11.4629
-518,-370,-15.4186,12.0107,0.00359847,0.000967899,0.00211227,0.00477149,-0.000205118,0.50693,0.00325152,0.0126725,706,1394,-15.4186,-12.0108
-511,-370,-15.4104,12.6218,0.00442821,0.00145874,0.00284132,0.00614933,-0.00026238,0.544635,0.00418975,0.0153603,713,1394,-15.4104,-12.6218
-504,-370,-15.428,13.2407,0,0,0,0,0,0,0,-1,720,1394,-15.428,-13.2407
-497,-370,-12.3546,11.7982,0,0,0,0,0,0,0,-1,727,1394,-12.3546,-11.7983
-490,-370,-5.30695,4.5271,0,0,0,0,0,0,0,-1,734,1394,-5.30698,-4.52704
-483,-370,-6.02997,4.59253,0,0,0,0,0,0,0,-1,741,1394,-6.02994,-4.5925
-476,-370,-6.75293,4.65796,0,0,0,0,0,0,0,-1,748,1394,-6.7529,-4.65795
-469,-370,-10.584,1.14294,0,0,0,0,0,0,0,-1,755,1394,-10.584,-1.14293
-462,-370,-9.54462,0.387207,0,0,0,0,0,0,0,-1,762,1394,-9.5446,-0.387176
-455,-370,-8.50525,-0.36853,0,0,0,0,0,0,0,-1,769,1394,-8.50523,0.368582
-448,-370,-10.9543,2.28833,0,0,0,0,0,0,0,-1,776,1394,-10.9543,-2.28835
-441,-370,-11.8699,1.8313,0,0,0,0,0,0,0,-1,783,1394,-11.8699,-1.83127
-434,-370,-12.7855,1.37415,0,0,0,0,0,0,0,-1,790,1394,-12.7855,-1.37419
-427,-370,0,0,0,0,0,0,0,0,0,-1,797,1394,0,0
-420,-370,0,0,0,0,0,0,0,0,0,-1,804,1394,0,0
-413,-370,0,0,0,0,0,0,0,0,0,-1,811,1394,0,0
-406,-370,0,0,0,0,0,0,0,0,0,-1,818,1394,0,0
-399,-370,0,0,0,0,0,0,0,0,0,-1,825,1394,0,0
-392,-370,0,0,0,0,0,0,0,0,0,-1,832,1394,0,0
-385,-370,0,0,0,0,0,0,0,0,0,-1,839,1394,0,0
-378,-370,0,0,0,0,0,0,0,0,0,-1,846,1394,0,0
-371,-370,0,0,0,0,0,0,0,0,0,-1,853,1394,0,0
-364,-370,0,0,0,0,0,0,0,0,0,-1,860,1394,0,0
-357,-370,0,0,0,0,0,0,0,0,0,-1,867,1394,0,0
-350,-370,0,0,0,0,0,0,0,0,0,-1,874,1394,0,0
-343,-370,0,0,0,0,0,0,0,0,0,-1,881,1394,0,0
-336,-370,0,0,0,0,0,0,0,0,0,-1,888,1394,0,0
-329,-370,0,0,0,0,0,0,0,0,0,-1,895,1394,0,0
-322,-370,0,0,0,0,0,0,0,0,0,-1,902,1394,0,0
-315,-370,0,0,0,0,0,0,0,0,0,-1,909,1394,0,0
-308,-370,0,0,0,0,0,0,0,0,0,-1,916,1394,0,0
-301,-370,0,0,0,0,0,0,0,0,0,-1,923,1394,0,0
-294,-370,0,0,0,0,0,0,0,0,0,-1,930,1394,0,0
-287,-370,0,0,0,0,0,0,0,0,0,-1,937,1394,0,0
-280,-370,0,0,0,0,0,0,0,0,0,-1,944,1394,0,0
-273,-370,0,0,0,0,0,0,0,0,0,-1,951,1394,0,0
-266,-370,0,0,0,0,0,0,0,0,0,-1,958,1394,0,0
-259,-370,0,0,0,0,0,0,0,0,0,-1,965,1394,0,0
-252,-370,0,0,0,0,0,0,0,0,0,-1,972,1394,0,0
-245,-370,0,0,0,0,0,0,0,0,0,-1,979,1394,0,0
-238,-370,0,0,0,0,0,0,0,0,0,-1,986,1394,0,0
-231,-370,0,0,0,0,0,0,0,0,0,-1,993,1394,0,0
-224,-370,0,0,0,0,0,0,0,0,0,-1,1000,1394,0,0
-217,-370,0,0,0,0,0,0,0,0,0,-1,1007,1394,0,0
-210,-370,0,0,0,0,0,0,0,0,0,-1,1014,1394,0,0
-203,-370,0,0,0,0,0,0,0,0,0,-1,1021,1394,0,0
-196,-370,0,0,0,0,0,0,0,0,0,-1,1028,1394,0,0
-189,-370,0,0,0,0,0,0,0,0,0,-1,1035,1394,0,0
-182,-370,0,0,0,0,0,0,0,0,0,-1,1042,1394,0,0
-175,-370,0,0,0,0,0,0,0,0,0,-1,1049,1394,0,0
-168,-370,0,0,0,0,0,0,0,0,0,-1,1056,1394,0,0
-161,-370,0,0,0,0,0,0,0,0,0,-1,1063,1394,0,0
-154,-370,0,0,0,0,0,0,0,0,0,-1,1070,1394,0,0
-147,-370,0,0,0,0,0,0,0,0,0,-1,1077,1394,0,0
-140,-370,0,0,0,0,0,0,0,0,0,-1,1084,1394,0,0
-133,-370,0,0,0,0,0,0,0,0,0,-1,1091,1394,0,0
-126,-370,0,0,0,0,0,0,0,0,0,-1,1098,1394,0,0
-119,-370,0,0,0,0,0,0,0,0,0,-1,1105,1394,0,0
-112,-370,0,0,0,0,0,0,0,0,0,-1,1112,1394,0,0
-105,-370,0,0,0,0,0,0,0,0,0,-1,1119,1394,0,0
-98,-370,0,0,0,0,0,0,0,0,0,-1,1126,1394,0,0
-91,-370,0,0,0,0,0,0,0,0,0,-1,1133,1394,0,0
-84,-370,0,0,0,0,0,0,0,0,0,-1,1140,1394,0,0
-77,-370,0,0,0,0,0,0,0,0,0,-1,1147,1394,0,0
-70,-370,0,0,0,0,0,0,0,0,0,-1,1154,1394,0,0
-63,-370,0,0,0,0,0,0,0,0,0,-1,1161,1394,0,0
-56,-370,0,0,0,0,0,0,0,0,0,-1,1168,1394,0,0
-49,-370,0,0,0,0,0,0,0,0,0,-1,1175,1394,0,0
-42,-370,0,0,0,0,0,0,0,0,0,-1,1182,1394,0,0
-35,-370,0,0,0,0,0,0,0,0,0,-1,1189,1394,0,0
-28,-370,0,0,0,0,0,0,0,0,0,-1,1196,1394,0,0
-21,-370,0,0,0,0,0,0,0,0,0,-1,1203,1394,0,0
-14,-370,0,0,0,0,0,0,0,0,0,-1,1210,1394,0,0
-7,-370,0,0,0,0,0,0,0,0,0,-1,1217,1394,0,0
0,-370,0,0,0,0,0,0,0,0,0,-1,1224,1394,0,0
7,-370,0,0,0,0,0,0,0,0,0,-1,1231,1394,0,0
14,-370,0,0,0,0,0,0,0,0,0,-1,1238,1394,0,0
21,-370,0,0,0,0,0,0,0,0,0,-1,1245,1394,0,0
28,-370,0,0,0,0,0,0,0,0,0,-1,1252,1394,0,0
35,-370,0,0,0,0,0,0,0,0,0,-1,1259,1394,0,0
42,-370,0,0,0,0,0,0,0,0,0,-1,1266,1394,0,0
49,-370,0,0,0,0,0,0,0,0,0,-1,1273,1394,0,0
56,-370,0,0,0,0,0,0,0,0,0,-1,1280,1394,0,0
63,-370,0,0,0,0,0,0,0,0,0,-1,1287,1394,0,0
70,-370,0,0,0,0,0,0,0,0,0,-1,1294,1394,0,0
77,-370,0,0,0,0,0,0,0,0,0,-1,1301,1394,0,0
84,-370,0,0,0,0,0,0,0,0,0,-1,1308,1394,0,0
91,-370,0,0,0,0,0,0,0,0,0,-1,1315,1394,0,0
98,-370,0,0,0,0,0,0,0,0,0,-1,1322,1394,0,0
105,-370,0,0,0,0,0,0,0,0,0,-1,1329,1394,0,0
112,-370,0,0,0,0,0,0,0,0,0,-1,1336,1394,0,0
119,-370,0,0,0,0,0,0,0,0,0,-1,1343,1394,0,0
126,-370,0,0,0,0,0,0,0,0,0,-1,1350,1394,0,0
133,-370,0,0,0,0,0,0,0,0,0,-1,1357,1394,0,0
140,-370,0,0,0,0,0,0,0,0,0,-1,1364,1394,0,0
147,-370,0,0,0,0,0,0,0,0,0,-1,1371,1394,0,0
154,-370,0,0,0,0,0,0,0,0,0,-1,1378,1394,0,0
161,-370,0,0,0,0,0,0,0,0,0,-1,1385,1394,0,0
168,-370,0,0,0,0,0,0,0,0,0,-1,1392,1394,0,0
175,-370,0,0,0,0,0,0,0,0,0,-1,1399,1394,0,0
182,-370,0,0,0,0,0,0,0,0,0,-1,1406,1394,0,0
189,-370,0,0,0,0,0,0,0,0,0,-1,1413,1394,0,0
196,-370,0,0,0,0,0,0,0,0,0,-1,1420,1394,0,0
203,-370,0,0,0,0,0,0,0,0,0,-1,1427,1394,0,0
210,-370,0,0,0,0,0,0,0,0,0,-1,1434,1394,0,0
217,-370,0,0,0,0,0,0,0,0,0,-1,1441,1394,0,0
224,-370,0,0,0,0,0,0,0,0,0,-1,1448,1394,0,0
231,-370,0,0,0,0,0,0,0,0,0,-1,1455,1394,0,0
238,-370,0,0,0,0,0,0,0,0,0,-1,1462,1394,0,0
245,-370,0,0,0,0,0,0,0,0,0,-1,1469,1394,0,0
252,-370,0,0,0,0,0,0,0,0,0,-1,1476,1394,0,0
259,-370,0,0,0,0,0,0,0,0,0,-1,1483,1394,0,0
266,-370,0,0,0,0,0,0,0,0,0,-1,1490,1394,0,0
273,-370,0,0,0,0,0,0,0,0,0,-1,1497,1394,0,0
280,-370,0,0,0,0,0,0,0,0,0,-1,1504,1394,0,0
287,-370,0,0,0,0,0,0,0,0,0,-1,1511,1394,0,0
294,-370,0,0,0,0,0,0,0,0,0,-1,1518,1394,0,0
301,-370,0,0,0,0,0,0,0,0,0,-1,1525,1394,0,0
308,-370,0,0,0,0,0,0,0,0,0,-1,1532,1394,0,0
315,-370,0,0,0,0,0,0,0,0,0,-1,1539,1394,0,0
322,-370,0,0,0,0,0,0,0,0,0,-1,1546,1394,0,0
329,-370,0,0,0,0,0,0,0,0,0,-1,1553,1394,0,0
336,-370,0,0,0,0,0,0,0,0,0,-1,1560,1394,0,0
343,-370,0,0,0,0,0,0,0,0,0,-1,1567,1394,0,0
350,-370,0,0,0,0,0,0,0,0,0,-1,1574,1394,0,0
357,-370,0,0,0,0,0,0,0,0,0,-1,1581,1394,0,0
364,-370,0,0,0,0,0,0,0,0,0,-1,1588,1394,0,0
371,-370,0,0,0,0,0,0,0,0,0,-1,1595,1394,0,0
378,-370,0,0,0,0,0,0,0,0,0,-1,1602,1394,0,0
385,-370,0,0,0,0,0,0,0,0,0,-1,1609,1394,0,0
392,-370,0,0,0,0,0,0,0,0,0,-1,1616,1394,0,0
399,-370,0,0,0,0,0,0,0,0,0,-1,1623,1394,0,0
406,-370,0,0,0,0,0,0,0,0,0,-1,1630,1394,0,0
413,-370,0,0,0,0,0,0,0,0,0,-1,1637,1394,0,0
420,-370,0,0,0,0,0,0,0,0,0,-1,1644,1394,0,0
427,-370,0,0,0,0,0,0,0,0,0,-1,1651,1394,0,0
434,-370,0,0,0,0,0,0,0,0,0,-1,1658,1394,0,0
441,-370,0,0,0,0,0,0,0,0,0,-1,1665,1394,0,0
448,-370,0,0,0,0,0,0,0,0,0,-1,1672,1394,0,0
455,-370,0,0,0,0,0,0,0,0,0,-1,1679,1394,0,0
462,-370,0,0,0,0,0,0,0,0,0,-1,1686,1394,0,0
469,-370,0,0,0,0,0,0,0,0,0,-1,1693,1394,0,0
476,-370,0,0,0,0,0,0,0,0,0,-1,1700,1394,0,0
483,-370,0,0,0,0,0,0,0,0,0,-1,1707,1394,0,0
490,-370,0,0,0,0,0,0,0,0,0,-1,1714,1394,0,0
497,-370,0,0,0,0,0,0,0,0,0,-1,1721,1394,0,0
504,-370,0,0,0,0,0,0,0,0,0,-1,1728,1394,0,0
511,-370,0,0,0,0,0,0,0,0,0,-1,1735,1394,0,0
518,-370,0,0,0,0,0,0,0,0,0,-1,1742,1394,0,0
525,-370,0,0,0,0,0,0,0,0,0,-1,1749,1394,0,0
532,-370,0,0,0,0,0,0,0,0,0,-1,1756,1394,0,0
539,-370,0,0,0,0,0,0,0,0,0,-1,1763,1394,0,0
546,-370,27.4949,2.81201,0,0,0,0,0,0,0,-1,1770,1394,27.4948,-2.81198
553,-370,26.5985,1.99329,0,0,0,0,0,0,0,-1,1777,1394,26.5985,-1.99327
560,-370,46.0132,3.65686,0,0,0,0,0,0,0,-1,1784,1394,46.0132,-3.65689
567,-370,46.1089,3.11719,0,0,0,0,0,0,0,-1,1791,1394,46.1089,-3.1172
574,-370,38.8953,1.49353,0,0,0,0,0,0,0,-1,1798,1394,38.8952,-1.49348
581,-370,39.178,2.86145,0,0,0,0,0,0,0,-1,1805,1394,39.1779,-2.86145
588,-370,39.2102,4.27661,0,0,0,0,0,0,0,-1,1812,1394,39.2102,-4.27657
595,-370,25.793,4.5271,0,0,0,0,0,0,0,-1,1819,1394,25.793,-4.52711
602,-370,25.1077,5.34937,0,0,0,0,0,0,0,-1,1826,1394,25.1077,-5.34932
609,-370,16.712,0.993286,0,0,0,0,0,0,0,-1,1833,1394,16.7121,-0.99323
616,-370,16.7764,7.23315,0,0,0,0,0,0,0,-1,1840,1394,16.7764,-7.23313
623,-370,17.6625,8.94263,0,0,0,0,0,0,0,-1,1847,1394,17.6624,-8.94258
630,-370,20.9681,11.1785,0,0,0,0,0,0,0,-1,1854,1394,20.9681,-11.1784
637,-370,30.6167,14.8702,0,0,0,0,0,0,0,-1,1861,1394,30.6167,-14.8702
644,-370,30.6361,14.3323,7.68022e-05,-2.69421e-05,-0.00034236,0.000371197,-0.000321337,-0.710213,0.00040018,0.013968,1868,1394,30.6361,-14.3322
651,-370,30.6401,13.8057,0.000179727,-0.000303616,1.03379e-05,0.000179948,-0.000303837,0.0213753,0.00028235,0.0132808,1875,1394,30.6402,-13.8057
658,-370,30.6292,13.323,0.000509089,-0.000382786,0.000187319,0.000546834,-0.000420531,0.198838,0.000560093,0.0134041,1882,1394,30.6291,-13.323
665,-370,30.5933,12.7938,0.000908916,-0.000365427,0.000284973,0.00096974,-0.000426251,0.210281,0.000826085,0.0143964,1889,1394,30.5933,-12.7938
672,-370,30.5605,12.2424,0.00139624,-0.000279762,0.000347391,0.00146539,-0.000348914,0.196492,0.00111164,0.0160914,1896,1394,30.5605,-12.2425
679,-370,30.5632,11.7058,0.0019979,-7.0795e-05,0.000322167,0.00204692,-0.000119806,0.150972,0.00140625,0.0150798,1903,1394,30.5633,-11.7059
686,-370,30.567,11.1709,0.00267633,0.00019874,0.000264683,0.00270429,0.000170779,0.105248,0.00174872,0.0149599,1910,1394,30.567,-11.171
693,-370,30.5474,10.6143,0.00347041,0.000598571,0.00010066,0.00347393,0.000595047,0.0349934,0.00214529,0.0132608,1917,1394,30.5474,-10.6143
700,-370,30.6332,10.0022,0.00452152,0.00121353,-0.00018364,0.00453168,0.00120337,-0.0552879,0.00271055,0.0354813,1924,1394,30.6331,-10.0022
707,-370,30.813,9.32361,0,0,0,0,0,0,0,-1,1931,1394,30.813,-9.32366
714,-370,16.9116,5.93018,0,0,0,0,0,0,0,-1,1938,1394,16.9116,-5.93014
721,-370,17.2007,4.69153,0,0,0,0,0,0,0,-1,1945,1394,17.2007,-4.69158
728,-370,20.5315,-0.313354,0,0,0,0,0,0,0,-1,1952,1394,20.5315,0.313332
735,-370,22.3652,0.233398,0,0,0,0,0,0,0,-1,1959,1394,22.3652,-0.233355
742,-370,24.1989,0.780029,0,0,0,0,0,0,0,-1,1966,1394,24.1989,-0.780041
749,-370,0,0,0,0,0,0,0,0,0,-1,1973,1394,0,0
756,-370,0,0,0,0,0,0,0,0,0,-1,1980,1394,0,0
763,-370,0,0,0,0,0,0,0,0,0,-1,1987,1394,0,0
770,-370,0,0,0,0,0,0,0,0,0,-1,1994,1394,0,0
777,-370,0,0,0,0,0,0,0,0,0,-1,2001,1394,0,0
784,-370,0,0,0,0,0,0,0,0,0,-1,2008,1394,0,0
791,-370,0,0,0,0,0,0,0,0,0,-1,2015,1394,0,0
798,-370,0,0,0,0,0,0,0,0,0,-1,2022,1394,0,0
805,-370,0,0,0,0,0,0,0,0,0,-1,2029,1394,0,0
812,-370,0,0,0,0,0,0,0,0,0,-1,2036,1394,0,0
-700,-377,0,0,0,0,0,0,0,0,0,-1,524,1401,0,0
-693,-377,0,0,0,0,0,0,0,0,0,-1,531,1401,0,0
-686,-377,0,0,0,0,0,0,0,0,0,-1,538,1401,0,0
-679,-377,0,0,0,0,0,0,0,0,0,-1,545,1401,0,0
-672,-377,0,0,0,0,0,0,0,0,0,-1,552,1401,0,0
-665,-377,0,0,0,0,0,0,0,0,0,-1,559,1401,0,0
-658,-377,0,0,0,0,0,0,0,0,0,-1,566,1401,0,0
-651,-377,0,0,0,0,0,0,0,0,0,-1,573,1401,0,0
-644,-377,0,0,0,0,0,0,0,0,0,-1,580,1401,0,0
-637,-377,0,0,0,0,0,0,0,0,0,-1,587,1401,0,0
-630,-377,0,0,0,0,0,0,0,0,0,-1,594,1401,0,0
-623,-377,0,0,0,0,0,0,0,0,0,-1,601,1401,0,0
-616,-377,-9.43915,-2.4906,0,0,0,0,0,0,0,-1,608,1401,-9.43915,2.49062
-609,-377,-7.2821,-1.35278,0,0,0,0,0,0,0,-1,615,1401,-7.28208,1.35279
-602,-377,-14.9736,3.98279,0,0,0,0,0,0,0,-1,622,1401,-14.9737,-3.98276
-595,-377,-6.9082,1.18201,0,0,0,0,0,0,0,-1,629,1401,-6.90822,-1.18204
-588,-377,-12.8003,3.44751,0,0,0,0,0,0,0,-1,636,1401,-12.8003,-3.44754
-581,-377,-11.8243,6.21521,0,0,0,0,0,0,0,-1,643,1401,-11.8244,-6.21519
-574,-377,-12.2761,6.60547,0,0,0,0,0,0,0,-1,650,1401,-12.2761,-6.60552
-567,-377,-13.4844,7.41931,0,0,0,0,0,0,0,-1,657,1401,-13.4845,-7.41926
-560,-377,-14.8912,8.42664,0,0,0,0,0,0,0,-1,664,1401,-14.8912,-8.42662
-553,-377,-14.7908,9.11145,0.00328413,0.00124631,0.00160713,0.00416813,0.000362311,0.502878,0.0026662,0.0149138,671,1401,-14.7908,-9.11149
-546,-377,-14.7906,9.78979,0.00277988,0.000917526,0.00131717,0.00346178,0.000235626,0.477709,0.00223346,0.0155792,678,1401,-14.7906,-9.7898
-539,-377,-14.7626,10.3329,0.00246549,0.000688579,0.00116121,0.00303914,0.000114923,0.458848,0.00198889,0.0208832,685,1401,-14.7626,-10.3329
-532,-377,-14.813,10.8676,0.00236828,0.000569435,0.00115289,0.00293108,6.62624e-06,0.45414,0.00195185,0.0219351,692,1401,-14.813,-10.8675
-525,-377,-14.7708,11.4791,0.00256791,0.00068131,0.00139408,0.00330784,-5.86244e-05,0.487959,0.00222503,0.0224065,699,1401,-14.7708,-11.4791
-518,-377,-14.8347,12.0393,0.00302704,0.00105461,0.00186938,0.0041544,-7.27507e-05,0.542672,0.00279417,0.0146132,706,1401,-14.8347,-12.0393
-511,-377,-14.8716,12.621,0.00378811,0.00162852,0.00257223,0.00549799,-8.13624e-05,0.586674,0.00369275,0.0120978,713,1401,-14.8716,-12.621
-504,-377,-14.8887,13.2432,0.00494995,0.0026304,0.00366021,0.00762973,-4.93801e-05,0.631972,0.00510303,0.0160106,720,1401,-14.8887,-13.2432
-497,-377,-14.8791,13.8368,0,0,0,0,0,0,0,-1,727,1401,-14.8791,-13.8368
-490,-377,-8.88409,10.1245,0,0,0,0,0,0,0,-1,734,1401,-8.8841,-10.1245
-483,-377,-5.6524,5.07324,0,0,0,0,0,0,0,-1,741,1401,-5.6524,-5.07325
-476,-377,-6.11682,5.10535,0,0,0,0,0,0,0,-1,748,1401,-6.11681,-5.10537
-469,-377,-10.3211,1.9281,0,0,0,0,0,0,0,-1,755,1401,-10.3211,-1.92808
-462,-377,-9.2204,1.0022,0,0,0,0,0,0,0,-1,762,1401,-9.22039,-1.00218
-455,-377,-8.11969,0.0762939,0,0,0,0,0,0,0,-1,769,1401,-8.11968,-0.0762759
-448,-377,-9.05334,0.877319,0,0,0,0,0,0,0,-1,776,1401,-9.05332,-0.877324
-441,-377,-11.212,0.763428,0,0,0,0,0,0,0,-1,783,1401,-11.212,-0.763415
-434,-377,-11.0984,0.996216,0,0,0,0,0,0,0,-1,790,1401,-11.0984,-0.996265
-427,-377,-11.1733,1.25732,0,0,0,0,0,0,0,-1,797,1401,-11.1733,-1.25732
-420,-377,0,0,0,0,0,0,0,0,0,-1,804,1401,0,0
-413,-377,0,0,0,0,0,0,0,0,0,-1,811,1401,0,0
-406,-377,0,0,0,0,0,0,0,0,0,-1,818,1401,0,0
-399,-377,0,0,0,0,0,0,0,0,0,-1,825,1401,0,0
-392,-377,0,0,0,0,0,0,0,0,0,-1,832,1401,0,0
-385,-377,0,0,0,0,0,0,0,0,0,-1,839,1401,0,0
-378,-377,0,0,0,0,0,0,0,0,0,-1,846,1401,0,0
-371,-377,0,0,0,0,0,0,0,0,0,-1,853,1401,0,0
-364,-377,0,0,0,0,0,0,0,0,0,-1,860,1401,0,0
-357,-377,0,0,0,0,0,0,0,0,0,-1,867,1401,0,0
-350,-377,0,0,0,0,0,0,0,0,0,-1,874,1401,0,0
-343,-377,0,0,0,0,0,0,0,0,0,-1,881,1401,0,0
-336,-377,0,0,0,0,0,0,0,0,0,-1,888,1401,0,0
-329,-377,0,0,0,0,0,0,0,0,0,-1,895,1401,0,0
-322,-377,0,0,0,0,0,0,0,0,0,-1,902,1401,0,0
-315,-377,0,0,0,0,0,0,0,0,0,-1,909,1401,0,0
-308,-377,0,0,0,0,0,0,0,0,0,-1,916,1401,0,0
-301,-377,0,0,0,0,0,0,0,0,0,-1,923,1401,0,0
-294,-377,0,0,0,0,0,0,0,0,0,-1,930,1401,0,0
-287,-377,0,0,0,0,0,0,0,0,0,-1,937,1401,0,0
-280,-377,0,0,0,0,0,0,0,0,0,-1,944,1401,0,0
-273,-377,0,0,0,0,0,0,0,0,0,-1,951,1401,0,0
-266,-377,0,0,0,0,0,0,0,0,0,-1,958,1401,0,0
-259,-377,0,0,0,0,0,0,0,0,0,-1,965,1401,0,0
-252,-377,0,0,0,0,0,0,0,0,0,-1,972,1401,0,0
-245,-377,0,0,0,0,0,0,0,0,0,-1,979,1401,0,0
-238,-377,0,0,0,0,0,0,0,0,0,-1,986,1401,0,0
-231,-377,0,0,0,0,0,0,0,0,0,-1,993,1401,0,0
-224,-377,0,0,0,0,0,0,0,0,0,-1,1000,1401,0,0
-217,-377,0,0,0,0,0,0,0,0,0,-1,1007,1401,0,0
-210,-377,0,0,0,0,0,0,0,0,0,-1,1014,1401,0,0
-203,-377,0,0,0,0,0,0,0,0,0,-1,1021,1401,0,0
-196,-377,0,0,0,0,0,0,0,0,0,-1,1028,1401,0,0
-189,-377,0,0,0,0,0,0,0,0,0,-1,1035,1401,0,0
-182,-377,0,0,0,0,0,0,0,0,0,-1,1042,1401,0,0
-175,-377,0,0,0,0,0,0,0,0,0,-1,1049,1401,0,0
-168,-377,0,0,0,0,0,0,0,0,0,-1,1056,1401,0,0
-161,-377,0,0,0,0,0,0,0,0,0,-1,1063,1401,0,0
-154,-377,0,0,0,0,0,0,0,0,0,-1,1070,1401,0,0
-147,-377,0,0,0,0,0,0,0,0,0,-1,1077,1401,0,0
-140,-377,0,0,0,0,0,0,0,0,0,-1,1084,1401,0,0
-133,-377,0,0,0,0,0,0,0,0,0,-1,1091,1401,0,0
-126,-377,0,0,0,0,0,0,0,0,0,-1,1098,1401,0,0
-119,-377,0,0,0,0,0,0,0,0,0,-1,1105,1401,0,0
-112,-377,0,0,0,0,0,0,0,0,0,-1,1112,1401,0,0
-105,-377,0,0,0,0,0,0,0,0,0,-1,1119,1401,0,0
-98,-377,0,0,0,0,0,0,0,0,0,-1,1126,1401,0,0
-91,-377,0,0,0,0,0,0,0,0,0,-1,1133,1401,0,0
-84,-377,0,0,0,0,0,0,0,0,0,-1,1140,1401,0,0
-77,-377,0,0,0,0,0,0,0,0,0,-1,1147,1401,0,0
-70,-377,0,0,0,0,0,0,0,0,0,-1,1154,1401,0,0
-63,-377,0,0,0,0,0,0,0,0,0,-1,1161,1401,0,0
-56,-377,0,0,0,0,0,0,0,0,0,-1,1168,1401,0,0
-49,-377,0,0,0,0,0,0,0,0,0,-1,1175,1401,0,0
-42,-377,0,0,0,0,0,0,0,0,0,-1,1182,1401,0,0
-35,-377,0,0,0,0,0,0,0,0,0,-1,1189,1401,0,0
-28,-377,0,0,0,0,0,0,0,0,0,-1,1196,1401,0,0
-21,-377,0,0,0,0,0,0,0,0,0,-1,1203,1401,0,0
-14,-377,0,0,0,0,0,0,0,0,0,-1,1210,1401,0,0
-7,-377,0,0,0,0,0,0,0,0,0,-1,1217,1401,0,0
0,-377,0,0,0,0,0,0,0,0,0,-1,1224,1401,0,0
7,-377,0,0,0,0,0,0,0,0,0,-1,1231,1401,0,0
14,-377,0,0,0,0,0,0,0,0,0,-1,1238,1401,0,0
21,-377,0,0,0,0,0,0,0,0,0,-1,1245,1401,0,0
28,-377,0,0,0,0,0,0,0,0,0,-1,1252,1401,0,0
35,-377,0,0,0,0,0,0,0,0,0,-1,1259,1401,0,0
42,-377,0,0,0,0,0,0,0,0,0,-1,1266,1401,0,0
49,-377,0,0,0,0,0,0,0,0,0,-1,1273,1401,0,0
56,-377,0,0,0,0,0,0,0,0,0,-1,1280,1401,0,0
63,-377,0,0,0,0,0,0,0,0,0,-1,1287,1401,0,0
70,-377,0,0,0,0,0,0,0,0,0,-1,1294,1401,0,0
77,-377,0,0,0,0,0,0,0,0,0,-1,1301,1401,0,0
84,-377,0,0,0,0,0,0,0,0,0,-1,1308,1401,0,0
91,-377,0,0,0,0,0,0,0,0,0,-1,1315,1401,0,0
98,-377,0,0,0,0,0,0,0,0,0,-1,1322,1401,0,0
105,-377,0,0,0,0,0,0,0,0,0,-1,1329,1401,0,0
112,-377,0,0,0,0,0,0,0,0,0,-1,1336,1401,0,0
119,-377,0,0,0,0,0,0,0,0,0,-1,1343,1401,0,0
126,-377,0,0,0,0,0,0,0,0,0,-1,1350,1401,0,0
133,-377,0,0,0,0,0,0,0,0,0,-1,1357,1401,0,0
140,-377,0,0,0,0,0,0,0,0,0,-1,1364,1401,0,0
147,-377,0,0,0,0,0,0,0,0,0,-1,1371,1401,0,0
154,-377,0,0,0,0,0,0,0,0,0,-1,1378,1401,0,0
161,-377,0,0,0,0,0,0,0,0,0,-1,1385,1401,0,0
168,-377,0,0,0,0,0,0,0,0,0,-1,1392,1401,0,0
175,-377,0,0,0,0,0,0,0,0,0,-1,1399,1401,0,0
182,-377,0,0,0,0,0,0,0,0,0,-1,1406,1401,0,0
189,-377,0,0,0,0,0,0,0,0,0,-1,1413,1401,0,0
196,-377,0,0,0,0,0,0,0,0,0,-1,1420,1401,0,0
203,-377,0,0,0,0,0,0,0,0,0,-1,1427,1401,0,0
210,-377,0,0,0,0,0,0,0,0,0,-1,1434,1401,0,0
217,-377,0,0,0,0,0,0,0,0,0,-1,1441,1401,0,0
224,-377,0,0,0,0,0,0,0,0,0,-1,1448,1401,0,0
231,-377,0,0,0,0,0,0,0,0,0,-1,1455,1401,0,0
238,-377,0,0,0,0,0,0,0,0,0,-1,1462,1401,0,0
245,-377,0,0,0,0,0,0,0,0,0,-1,1469,1401,0,0
252,-377,0,0,0,0,0,0,0,0,0,-1,1476,1401,0,0
259,-377,0,0,0,0,0,0,0,0,0,-1,1483,1401,0,0
266,-377,0,0,0,0,0,0,0,0,0,-1,1490,1401,0,0
273,-377,0,0,0,0,0,0,0,0,0,-1,1497,1401,0,0
280,-377,0,0,0,0,0,0,0,0,0,-1,1504,1401,0,0
287,-377,0,0,0,0,0,0,0,0,0,-1,1511,1401,0,0
294,-377,0,0,0,0,0,0,0,0,0,-1,1518,1401,0,0
301,-377,0,0,0,0,0,0,0,0,0,-1,1525,1401,0,0
308,-377,0,0,0,0,0,0,0,0,0,-1,1532,1401,0,0
315,-377,0,0,0,0,0,0,0,0,0,-1,1539,1401,0,0
322,-377,0,0,0,0,0,0,0,0,0,-1,1546,1401,0,0
329,-377,0,0,0,0,0,0,0,0,0,-1,1553,1401,0,0
336,-377,0,0,0,0,0,0,0,0,0,-1,1560,1401,0,0
343,-377,0,0,0,0,0,0,0,0,0,-1,1567,1401,0,0
350,-377,0,0,0,0,0,0,0,0,0,-1,1574,1401,0,0
357,-377,0,0,0,0,0,0,0,0,0,-1,1581,1401,0,0
364,-377,0,0,0,0,0,0,0,0,0,-1,1588,1401,0,0
371,-377,0,0,0,0,0,0,0,0,0,-1,1595,1401,0,0
378,-377,0,0,0,0,0,0,0,0,0,-1,1602,1401,0,0
385,-377,0,0,0,0,0,0,0,0,0,-1,1609,1401,0,0
392,-377,0,0,0,0,0,0,0,0,0,-1,1616,1401,0,0
399,-377,0,0,0,0,0,0,0,0,0,-1,1623,1401,0,0
406,-377,0,0,0,0,0,0,0,0,0,-1,1630,1401,0,0
413,-377,0,0,0,0,0,0,0,0,0,-1,1637,1401,0,0
420,-377,0,0,0,0,0,0,0,0,0,-1,1644,1401,0,0
427,-377,0,0,0,0,0,0,0,0,0,-1,1651,1401,0,0
434,-377,0,0,0,0,0,0,0,0,0,-1,1658,1401,0,0
441,-377,0,0,0,0,0,0,0,0,0,-1,1665,1401,0,0
448,-377,0,0,0,0,0,0,0,0,0,-1,1672,1401,0,0
455,-377,0,0,0,0,0,0,0,0,0,-1,1679,1401,0,0
462,-377,0,0,0,0,0,0,0,0,0,-1,1686,1401,0,0
469,-377,0,0,0,0,0,0,0,0,0,-1,1693,1401,0,0
476,-377,0,0,0,0,0,0,0,0,0,-1,1700,1401,0,0
483,-377,0,0,0,0,0,0,0,0,0,-1,1707,1401,0,0
490,-377,0,0,0,0,0,0,0,0,0,-1,1714,1401,0,0
497,-377,0,0,0,0,0,0,0,0,0,-1,1721,1401,0,0
504,-377,0,0,0,0,0,0,0,0,0,-1,1728,1401,0,0
511,-377,0,0,0,0,0,0,0,0,0,-1,1735,1401,0,0
518,-377,0,0,0,0,0,0,0,0,0,-1,1742,1401,0,0
525,-377,0,0,0,0,0,0,0,0,0,-1,1749,1401,0,0
532,-377,0,0,0,0,0,0,0,0,0,-1,1756,1401,0,0
539,-377,0,0,0,0,0,0,0,0,0,-1,1763,1401,0,0
546,-377,27.8485,2.34094,0,0,0,0,0,0,0,-1,1770,1401,27.8486,-2.34091
553,-377,27.2189,2.42493,0,0,0,0,0,0,0,-1,1777,1401,27.2188,-2.42498
560,-377,38.3577,-2.15015,0,0,0,0,0,0,0,-1,1784,1401,38.3576,2.1501
567,-377,38.4889,-0.285645,0,0,0,0,0,0,0,-1,1791,1401,38.4889,0.2857
574,-377,38.6221,1.61694,0,0,0,0,0,0,0,-1,1798,1401,38.6221,-1.61689
581,-377,39.1818,3.76367,0,0,0,0,0,0,0,-1,1805,1401,39.1818,-3.76366
588,-377,25.882,4.35217,0,0,0,0,0,0,0,-1,1812,1401,25.8819,-4.3522
595,-377,25.5392,5.11804,0,0,0,0,0,0,0,-1,1819,1401,25.5392,-5.11808
602,-377,24.816,5.79126,0,0,0,0,0,0,0,-1,1826,1401,24.816,-5.79124
609,-377,15.0223,4.76135,0,0,0,0,0,0,0,-1,1833,1401,15.0224,-4.76129
616,-377,14.1842,5.78992,0,0,0,0,0,0,0,-1,1840,1401,14.1842,-5.78987
623,-377,15.8248,8.76721,0,0,0,0,0,0,0,-1,1847,1401,15.8248,-8.76725
630,-377,29.715,15.7971,0,0,0,0,0,0,0,-1,1854,1401,29.715,-15.7972
637,-377,30.0151,14.9629,0.000363106,0.000214294,-0.000503182,0.000797353,-0.000219953,-0.711995,0.000618073,0.0354297,1861,1401,30.0151,-14.9629
644,-377,30.1027,14.3667,0.0003449,-2.20467e-05,-0.000313516,0.000524682,-0.000201829,-0.52066,0.000433037,0.0130901,1868,1401,30.1027,-14.3666
651,-377,30.0861,13.811,0.000451804,-0.000211753,-7.5916e-06,0.000451891,-0.00021184,-0.0114388,0.000391471,0.0141594,1875,1401,30.086,-13.811
658,-377,30.0878,13.3357,0.000718449,-0.000254891,0.000185575,0.00075263,-0.000289073,0.182148,0.00062096,0.0152615,1882,1401,30.0878,-13.3357
665,-377,30.0875,12.8024,0.00106717,-0.000218855,0.000324227,0.00114429,-0.000295973,0.233514,0.000878298,0.0186798,1889,1401,30.0875,-12.8024
672,-377,30.0492,12.2582,0.00151391,-0.000138367,0.000455336,0.00163108,-0.000255539,0.251867,0.00118181,0.0198865,1896,1401,30.0492,-12.2582
679,-377,29.9862,11.7358,0.00206959,5.15309e-05,0.000529684,0.00220017,-7.90469e-05,0.241701,0.00149383,0.0192526,1903,1401,29.9862,-11.7359
686,-377,30.0068,11.2107,0.00269114,0.0002593,0.000627766,0.00284363,0.000106808,0.238297,0.00186117,0.0169898,1910,1401,30.0069,-11.2107
693,-377,30.061,10.6434,0.00345418,0.000586208,0.000624802,0.00358439,0.000456004,0.205453,0.00225303,0.0172634,1917,1401,30.061,-10.6434
700,-377,30.1658,10.0048,0,0,0,0,0,0,0,-1,1924,1401,30.1657,-10.0048
707,-377,28.6234,9.18152,0,0,0,0,0,0,0,-1,1931,1401,28.6234,-9.18151
714,-377,16.5369,5.45959,0,0,0,0,0,0,0,-1,1938,1401,16.5369,-5.4596
721,-377,17.0913,5.42529,0,0,0,0,0,0,0,-1,1945,1401,17.0914,-5.42529
728,-377,14.5396,2.79724,0,0,0,0,0,0,0,-1,1952,1401,14.5396,-2.7972
735,-377,23.2977,-0.991089,0,0,0,0,0,0,0,-1,1959,1401,23.2978,0.991076
742,-377,0,0,0,0,0,0,0,0,0,-1,1966,1401,0,0
749,-377,0,0,0,0,0,0,0,0,0,-1,1973,1401,0,0
756,-377,0,0,0,0,0,0,0,0,0,-1,1980,1401,0,0
763,-377,0,0,0,0,0,0,0,0,0,-1,1987,1401,0,0
770,-377,0,0,0,0,0,0,0,0,0,-1,1994,1401,0,0
777,-377,0,0,0,0,0,0,0,0,0,-1,2001,1401,0,0
784,-377,0,0,0,0,0,0,0,0,0,-1,2008,1401,0,0
791,-377,0,0,0,0,0,0,0,0,0,-1,2015,1401,0,0
798,-377,0,0,0,0,0,0,0,0,0,-1,2022,1401,0,0
805,-377,0,0,0,0,0,0,0,0,0,-1,2029,1401,0,0
812,-377,0,0,0,0,0,0,0,0,0,-1,2036,1401,0,0
-700,-384,0,0,0,0,0,0,0,0,0,-1,524,1408,0,0
-693,-384,0,0,0,0,0,0,0,0,0,-1,531,1408,0,0
-686,-384,0,0,0,0,0,0,0,0,0,-1,538,1408,0,0
-679,-384,0,0,0,0,0,0,0,0,0,-1,545,1408,0,0
-672,-384,0,0,0,0,0,0,0,0,0,-1,552,1408,0,0
-665,-384,0,0,0,0,0,0,0,0,0,-1,559,1408,0,0
-658,-384,0,0,0,0,0,0,0,0,0,-1,566,1408,0,0
-651,-384,0,0,0,0,0,0,0,0,0,-1,573,1408,0,0
-644,-384,0,0,0,0,0,0,0,0,0,-1,580,1408,0,0
-637,-384,0,0,0,0,0,0,0,0,0,-1,587,1408,0,0
-630,-384,0,0,0,0,0,0,0,0,0,-1,594,1408,0,0
-623,-384,0,0,0,0,0,0,0,0,0,-1,601,1408,0,0
-616,-384,-10.019,-3.36646,0,0,0,0,0,0,0,-1,608,1408,-10.019,3.36648
-609,-384,-7.72357,-2.3418,0,0,0,0,0,0,0,-1,615,1408,-7.72358,2.34182
-602,-384,-11.7632,-2.85156,0,0,0,0,0,0,0,-1,622,1408,-11.7632,2.85157
-595,-384,-10.2217,2.8855,0,0,0,0,0,0,0,-1,629,1408,-10.2218,-2.88548
-588,-384,-12.1653,2.29041,0,0,0,0,0,0,0,-1,636,1408,-12.1654,-2.29038
-581,-384,-11.9297,3.60376,0,0,0,0,0,0,0,-1,643,1408,-11.9298,-3.6038
-574,-384,-11.8677,6.02722,0,0,0,0,0,0,0,-1,650,1408,-11.8677,-6.02722
-567,-384,-12.0743,7.04639,0,0,0,0,0,0,0,-1,657,1408,-12.0743,-7.04641
-560,-384,-14.4022,8.41992,0,0,0,0,0,0,0,-1,664,1408,-14.4022,-8.41998
-553,-384,-14.2395,9.13403,0.00343475,0.00148458,0.00176823,0.00447893,0.000440408,0.533421,0.00285051,0.0386465,671,1408,-14.2395,-9.13399
-546,-384,-14.2182,9.79663,0.00277579,0.00105944,0.00135617,0.00352251,0.000312722,0.503307,0.00225135,0.0139719,678,1408,-14.2182,-9.79658
-539,-384,-14.2467,10.3536,0.0023482,0.000779371,0.00111239,0.00292493,0.000202639,0.478308,0.00188604,0.0159385,685,1408,-14.2467,-10.3537
-532,-384,-14.1988,10.8695,0.00214802,0.000611903,0.00101846,0.00265557,0.000104357,0.462326,0.00173664,0.0233498,692,1408,-14.1988,-10.8695
-525,-384,-14.192,11.5056,0.00227897,0.000702613,0.00119796,0.00292479,5.67957e-05,0.494433,0.00193121,0.02298,699,1408,-14.192,-11.5056
-518,-384,-14.2789,12.0854,0.00268996,0.00108746,0.00164033,0.00371428,6.31501e-05,0.558208,0.0024554,0.0133627,706,1408,-14.2789,-12.0855
-511,-384,-14.3213,12.6654,0.00339104,0.00170203,0.00231011,0.00500616,8.69075e-05,0.61016,0.00330885,0.0104208,713,1408,-14.3213,-12.6655
-504,-384,-14.3127,13.2673,0.00446849,0.00269896,0.00334022,0.00703914,0.000128318,0.65593,0.00465058,0.0118381,720,1408,-14.3127,-13.2674
-497,-384,-14.2704,13.8798,0.00603705,0.00419254,0.00487721,0.0100784,0.000151161,0.691954,0.00666914,0.0397174,727,1408,-14.2704,-13.8798
-490,-384,-14.1045,14.5861,0,0,0,0,0,0,0,-1,734,1408,-14.1045,-14.586
-483,-384,-6.26471,7.61194,0,0,0,0,0,0,0,-1,741,1408,-6.26469,-7.61191
-476,-384,-6.02734,5.67761,0,0,0,0,0,0,0,-1,748,1408,-6.02736,-5.6776
-469,-384,-10.206,2.63721,0,0,0,0,0,0,0,-1,755,1408,-10.206,-2.6372
-462,-384,-9.04291,1.43542,0,0,0,0,0,0,0,-1,762,1408,-9.04293,-1.43545
-455,-384,-7.87988,0.233765,0,0,0,0,0,0,0,-1,769,1408,-7.87986,-0.233709
-448,-384,-9.35529,7.19226,0,0,0,0,0,0,0,-1,776,1408,-9.35531,-7.19226
-441,-384,-10.4697,1.79004,0,0,0,0,0,0,0,-1,783,1408,-10.4697,-1.79003
-434,-384,-10.6449,0.552246,0,0,0,0,0,0,0,-1,790,1408,-10.6449,-0.552216
-427,-384,-10.968,1.10583,0,0,0,0,0,0,0,-1,797,1408,-10.968,-1.10588
-420,-384,-12.5607,4.54858,0,0,0,0,0,0,0,-1,804,1408,-12.5607,-4.54859
-413,-384,0,0,0,0,0,0,0,0,0,-1,811,1408,0,0
-406,-384,0,0,0,0,0,0,0,0,0,-1,818,1408,0,0
-399,-384,0,0,0,0,0,0,0,0,0,-1,825,1408,0,0
-392,-384,0,0,0,0,0,0,0,0,0,-1,832,1408,0,0
-385,-384,0,0,0,0,0,0,0,0,0,-1,839,1408,0,0
-378,-384,0,0,0,0,0,0,0,0,0,-1,846,1408,0,0
-371,-384,0,0,0,0,0,0,0,0,0,-1,853,1408,0,0
-364,-384,0,0,0,0,0,0,0,0,0,-1,860,1408,0,0
-357,-384,0,0,0,0,0,0,0,0,0,-1,867,1408,0,0
-350,-384,0,0,0,0,0,0,0,0,0,-1,874,1408,0,0
-343,-384,0,0,0,0,0,0,0,0,0,-1,881,1408,0,0
-336,-384,0,0,0,0,0,0,0,0,0,-1,888,1408,0,0
-329,-384,0,0,0,0,0,0,0,0,0,-1,895,1408,0,0
-322,-384,0,0,0,0,0,0,0,0,0,-1,902,1408,0,0
-315,-384,0,0,0,0,0,0,0,0,0,-1,909,1408,0,0
-308,-384,0,0,0,0,0,0,0,0,0,-1,916,1408,0,0
-301,-384,0,0,0,0,0,0,0,0,0,-1,923,1408,0,0
-294,-384,0,0,0,0,0,0,0,0,0,-1,930,1408,0,0
-287,-384,0,0,0,0,0,0,0,0,0,-1,937,1408,0,0
-280,-384,0,0,0,0,0,0,0,0,0,-1,944,1408,0,0
-273,-384,0,0,0,0,0,0,0,0,0,-1,951,1408,0,0
-266,-384,0,0,0,0,0,0,0,0,0,-1,958,1408,0,0
-259,-384,0,0,0,0,0,0,0,0,0,-1,965,1408,0,0
-252,-384,0,0,0,0,0,0,0,0,0,-1,972,1408,0,0
-245,-384,0,0,0,0,0,0,0,0,0,-1,979,1408,0,0
-238,-384,0,0,0,0,0,0,0,0,0,-1,986,1408,0,0
-231,-384,0,0,0,0,0,0,0,0,0,-1,993,1408,0,0
-224,-384,0,0,0,0,0,0,0,0,0,-1,1000,1408,0,0
-217,-384,0,0,0,0,0,0,0,0,0,-1,1007,1408,0,0
-210,-384,0,0,0,0,0,0,0,0,0,-1,1014,1408,0,0
-203,-384,0,0,0,0,0,0,0,0,0,-1,1021,1408,0,0
-196,-384,0,0,0,0,0,0,0,0,0,-1,1028,1408,0,0
-189,-384,0,0,0,0,0,0,0,0,0,-1,1035,1408,0,0
-182,-384,0,0,0,0,0,0,0,0,0,-1,1042,1408,0,0
-175,-384,0,0,0,0,0,0,0,0,0,-1,1049,1408,0,0
-168,-384,0,0,0,0,0,0,0,0,0,-1,1056,1408,0,0
-161,-384,0,0,0,0,0,0,0,0,0,-1,1063,1408,0,0
-154,-384,0,0,0,0,0,0,0,0,0,-1,1070,1408,0,0
-147,-384,0,0,0,0,0,0,0,0,0,-1,1077,1408,0,0
-140,-384,0,0,0,0,0,0,0,0,0,-1,1084,1408,0,0
-133,-384,0,0,0,0,0,0,0,0,0,-1,1091,1408,0,0
-126,-384,0,0,0,0,0,0,0,0,0,-1,1098,1408,0,0
-119,-384,0,0,0,0,0,0,0,0,0,-1,1105,1408,0,0
-112,-384,0,0,0,0,0,0,0,0,0,-1,1112,1408,0,0
-105,-384,0,0,0,0,0,0,0,0,0,-1,1119,1408,0,0
-98,-384,0,0,0,0,0,0,0,0,0,-1,1126,1408,0,0
-91,-384,0,0,0,0,0,0,0,0,0,-1,1133,1408,0,0
-84,-384,0,0,0,0,0,0,0,0,0,-1,1140,1408,0,0
-77,-384,0,0,0,0,0,0,0,0,0,-1,1147,1408,0,0
-70,-384,0,0,0,0,0,0,0,0,0,-1,1154,1408,0,0
-63,-384,0,0,0,0,0,0,0,0,0,-1,1161,1408,0,0
-56,-384,0,0,0,0,0,0,0,0,0,-1,1168,1408,0,0
-49,-384,0,0,0,0,0,0,0,0,0,-1,1175,1408,0,0
-42,-384,0,0,0,0,0,0,0,0,0,-1,1182,1408,0,0
-35,-384,0,0,0,0,0,0,0,0,0,-1,1189,1408,0,0
-28,-384,0,0,0,0,0,0,0,0,0,-1,1196,1408,0,0
-21,-384,0,0,0,0,0,0,0,0,0,-1,1203,1408,0,0
-14,-384,0,0,0,0,0,0,0,0,0,-1,1210,1408,0,0
-7,-384,0,0,0,0,0,0,0,0,0,-1,1217,1408,0,0
0,-384,0,0,0,0,0,0,0,0,0,-1,1224,1408,0,0
7,-384,0,0,0,0,0,0,0,0,0,-1,1231,1408,0,0
14,-384,0,0,0,0,0,0,0,0,0,-1,1238,1408,0,0
21,-384,0,0,0,0,0,0,0,0,0,-1,1245,1408,0,0
28,-384,0,0,0,0,0,0,0,0,0,-1,1252,1408,0,0
35,-384,0,0,0,0,0,0,0,0,0,-1,1259,1408,0,0
42,-384,0,0,0,0,0,0,0,0,0,-1,1266,1408,0,0
49,-384,0,0,0,0,0,0,0,0,0,-1,1273,1408,0,0
56,-384,0,0,0,0,0,0,0,0,0,-1,1280,1408,0,0
63,-384,0,0,0,0,0,0,0,0,0,-1,1287,1408,0,0
70,-384,0,0,0,0,0,0,0,0,0,-1,1294,1408,0,0
77,-384,0,0,0,0,0,0,0,0,0,-1,1301,1408,0,0
84,-384,0,0,0,0,0,0,0,0,0,-1,1308,1408,0,0
91,-384,0,0,0,0,0,0,0,0,0,-1,1315,1408,0,0
98,-384,0,0,0,0,0,0,0,0,0,-1,1322,1408,0,0
105,-384,0,0,0,0,0,0,0,0,0,-1,1329,1408,0,0
112,-384,0,0,0,0,0,0,0,0,0,-1,1336,1408,0,0
119,-384,0,0,0,0,0,0,0,0,0,-1,1343,1408,0,0
126,-384,0,0,0,0,0,0,0,0,0,-1,1350,1408,0,0
133,-384,0,0,0,0,0,0,0,0,0,-1,1357,1408,0,0
140,-384,0,0,0,0,0,0,0,0,0,-1,1364,1408,0,0
147,-384,0,0,0,0,0,0,0,0,0,-1,1371,1408,0,0
154,-384,0,0,0,0,0,0,0,0,0,-1,1378,1408,0,0
161,-384,0,0,0,0,0,0,0,0,0,-1,1385,1408,0,0
168,-384,0,0,0,0,0,0,0,0,0,-1,1392,1408,0,0
175,-384,0,0,0,0,0,0,0,0,0,-1,1399,1408,0,0
182,-384,0,0,0,0,0,0,0,0,0,-1,1406,1408,0,0
189,-384,0,0,0,0,0,0,0,0,0,-1,1413,1408,0,0
196,-384,0,0,0,0,0,0,0,0,0,-1,1420,1408,0,0
203,-384,0,0,0,0,0,0,0,0,0,-1,1427,1408,0,0
210,-384,0,0,0,0,0,0,0,0,0,-1,1434,1408,0,0
217,-384,0,0,0,0,0,0,0,0,0,-1,1441,1408,0,0
224,-384,0,0,0,0,0,0,0,0,0,-1,1448,1408,0,0
231,-384,0,0,0,0,0,0,0,0,0,-1,1455,1408,0,0
238,-384,0,0,0,0,0,0,0,0,0,-1,1462,1408,0,0
245,-384,0,0,0,0,0,0,0,0,0,-1,1469,1408,0,0
252,-384,0,0,0,0,0,0,0,0,0,-1,1476,1408,0,0
259,-384,0,0,0,0,0,0,0,0,0,-1,1483,1408,0,0
266,-384,0,0,0,0,0,0,0,0,0,-1,1490,1408,0,0
273,-384,0,0,0,0,0,0,0,0,0,-1,1497,1408,0,0
280,-384,0,0,0,0,0,0,0,0,0,-1,1504,1408,0,0
287,-384,0,0,0,0,0,0,0,0,0,-1,1511,1408,0,0
294,-384,0,0,0,0,0,0,0,0,0,-1,1518,1408,0,0
301,-384,0,0,0,0,0,0,0,0,0,-1,1525,1408,0,0
308,-384,0,0,0,0,0,0,0,0,0,-1,1532,1408,0,0
315,-384,0,0,0,0,0,0,0,0,0,-1,1539,1408,0,0
322,-384,0,0,0,0,0,0,0,0,0,-1,1546,1408,0,0
329,-384,0,0,0,0,0,0,0,0,0,-1,1553,1408,0,0
336,-384,0,0,0,0,0,0,0,0,0,-1,1560,1408,0,0
343,-384,0,0,0,0,0,0,0,0,0,-1,1567,1408,0,0
350,-384,0,0,0,0,0,0,0,0,0,-1,1574,1408,0,0
357,-384,0,0,0,0,0,0,0,0,0,-1,1581,1408,0,0
364,-384,0,0,0,0,0,0,0,0,0,-1,1588,1408,0,0
371,-384,0,0,0,0,0,0,0,0,0,-1,1595,1408,0,0
378,-384,0,0,0,0,0,0,0,0,0,-1,1602,1408,0,0
385,-384,0,0,0,0,0,0,0,0,0,-1,1609,1408,0,0
392,-384,0,0,0,0,0,0,0,0,0,-1,1616,1408,0,0
399,-384,0,0,0,0,0,0,0,0,0,-1,1623,1408,0,0
406,-384,0,0,0,0,0,0,0,0,0,-1,1630,1408,0,0
413,-384,0,0,0,0,0,0,0,0,0,-1,1637,1408,0,0
420,-384,0,0,0,0,0,0,0,0,0,-1,1644,1408,0,0
427,-384,0,0,0,0,0,0,0,0,0,-1,1651,1408,0,0
434,-384,0,0,0,0,0,0,0,0,0,-1,1658,1408,0,0
441,-384,0,0,0,0,0,0,0,0,0,-1,1665,1408,0,0
448,-384,0,0,0,0,0,0,0,0,0,-1,1672,1408,0,0
455,-384,0,0,0,0,0,0,0,0,0,-1,1679,1408,0,0
462,-384,0,0,0,0,0,0,0,0,0,-1,1686,1408,0,0
469,-384,0,0,0,0,0,0,0,0,0,-1,1693,1408,0,0
476,-384,0,0,0,0,0,0,0,0,0,-1,1700,1408,0,0
483,-384,0,0,0,0,0,0,0,0,0,-1,1707,1408,0,0
490,-384,0,0,0,0,0,0,0,0,0,-1,1714,1408,0,0
497,-384,0,0,0,0,0,0,0,0,0,-1,1721,1408,0,0
504,-384,0,0,0,0,0,0,0,0,0,-1,1728,1408,0,0
511,-384,0,0,0,0,0,0,0,0,0,-1,1735,1408,0,0
518,-384,0,0,0,0,0,0,0,0,0,-1,1742,1408,0,0
525,-384,0,0,0,0,0,0,0,0,0,-1,1749,1408,0,0
532,-384,0,0,0,0,0,0,0,0,0,-1,1756,1408,0,0
539,-384,27.6886,2.85803,0,0,0,0,0,0,0,-1,1763,1408,27.6886,-2.85807
546,-384,27.5044,2.9425,0,0,0,0,0,0,0,-1,1770,1408,27.5044,-2.94255
553,-384,27.3052,2.78394,0,0,0,0,0,0,0,-1,1777,1408,27.3051,-2.78394
560,-384,26.833,3.19812,0,0,0,0,0,0,0,-1,1784,1408,26.833,-3.19816
567,-384,38.2566,0.109985,0,0,0,0,0,0,0,-1,1791,1408,38.2566,-0.110044
574,-384,38.4003,2.05945,0,0,0,0,0,0,0,-1,1798,1408,38.4003,-2.05949
581,-384,25.819,3.91846,0,0,0,0,0,0,0,-1,1805,1408,25.8189,-3.91848
588,-384,23.3721,4.25439,0,0,0,0,0,0,0,-1,1812,1408,23.3721,-4.25442
595,-384,24.981,5.59595,0,0,0,0,0,0,0,-1,1819,1408,24.981,-5.59598
602,-384,20.6605,4.17261,0,0,0,0,0,0,0,-1,1826,1408,20.6606,-4.17265
609,-384,14.158,5.49475,0,0,0,0,0,0,0,-1,1833,1408,14.158,-5.49474
616,-384,14.7997,7.6908,0,0,0,0,0,0,0,-1,1840,1408,14.7996,-7.69079
623,-384,16.4293,9.58899,0,0,0,0,0,0,0,-1,1847,1408,16.4294,-9.58901
630,-384,29.5759,15.5697,0,0,0,0,0,0,0,-1,1854,1408,29.5759,-15.5697
637,-384,29.6097,14.9462,0.000604761,0.000321941,-0.000486359,0.00096985,-4.31482e-05,-0.643922,0.000661419,0.0218815,1861,1408,29.6097,-14.9462
644,-384,29.5488,14.4209,0.000567362,8.39397e-05,-0.000278313,0.000694273,-4.29711e-05,-0.427833,0.000477817,0.0167212,1868,1408,29.5488,-14.4209
651,-384,29.5261,13.8385,0.000655561,-7.0252e-05,-3.28163e-06,0.000655576,-7.02668e-05,-0.0045212,0.000462256,0.0160789,1875,1408,29.5261,-13.8385
658,-384,29.525,13.3149,0.000854703,-9.59524e-05,0.000213458,0.000900432,-0.000141682,0.211042,0.000652662,0.016157,1882,1408,29.525,-13.315
665,-384,29.543,12.8223,0.00113165,-5.6358e-05,0.000397928,0.00125262,-0.000177328,0.295122,0.000900031,0.0180113,1889,1408,29.5429,-12.8222
672,-384,29.5178,12.269,0.00149882,2.58578e-05,0.000599595,0.00171203,-0.000187355,0.34165,0.00120866,0.0166235,1896,1408,29.5178,-12.269
679,-384,29.4708,11.7245,0.00195523,0.000193183,0.000788009,0.00225622,-0.00010781,0.364864,0.00154134,0.0165789,1903,1408,29.4709,-11.7244
686,-384,29.4561,11.222,0.00243655,0.000332206,0.0010827,0.00289411,-0.000125357,0.399848,0.00197252,0.0136667,1910,1408,29.456,-11.2221
693,-384,29.5249,10.6986,0.00304375,0.000585772,0.00130899,0.00361027,1.92501e-05,0.408454,0.00240046,0.0250744,1917,1408,29.5249,-10.6986
700,-384,29.6338,10.1718,0,0,0,0,0,0,0,-1,1924,1408,29.6338,-10.1718
707,-384,17.0566,6.62842,0,0,0,0,0,0,0,-1,1931,1408,17.0567,-6.62848
714,-384,16.038,5.0282,0,0,0,0,0,0,0,-1,1938,1408,16.038,-5.02819
721,-384,13.8843,2.8717,0,0,0,0,0,0,0,-1,1945,1408,13.8843,-2.87171
728,-384,15.4409,6.25745,0,0,0,0,0,0,0,-1,1952,1408,15.4409,-6.2574
735,-384,16.7598,6.71289,0,0,0,0,0,0,0,-1,1959,1408,16.7598,-6.71287
742,-384,0,0,0,0,0,0,0,0,0,-1,1966,1408,0,0
749,-384,0,0,0,0,0,0,0,0,0,-1,1973,1408,0,0
756,-384,0,0,0,0,0,0,0,0,0,-1,1980,1408,0,0
763,-384,0,0,0,0,0,0,0,0,0,-1,1987,1408,0,0
770,-384,0,0,0,0,0,0,0,0,0,-1,1994,1408,0,0
777,-384,0,0,0,0,0,0,0,0,0,-1,2001,1408,0,0
784,-384,0,0,0,0,0,0,0,0,0,-1,2008,1408,0,0
791,-384,0,0,0,0,0,0,0,0,0,-1,2015,1408,0,0
798,-384,0,0,0,0,0,0,0,0,0,-1,2022,1408,0,0
805,-384,0,0,0,0,0,0,0,0,0,-1,2029,1408,0,0
812,-384,0,0,0,0,0,0,0,0,0,-1,2036,1408,0,0
-700,-391,0,0,0,0,0,0,0,0,0,-1,524,1415,0,0
-693,-391,0,0,0,0,0,0,0,0,0,-1,531,1415,0,0
-686,-391,0,0,0,0,0,0,0,0,0,-1,538,1415,0,0
-679,-391,0,0,0,0,0,0,0,0,0,-1,545,1415,0,0
-672,-391,0,0,0,0,0,0,0,0,0,-1,552,1415,0,0
-665,-391,0,0,0,0,0,0,0,0,0,-1,559,1415,0,0
-658,-391,0,0,0,0,0,0,0,0,0,-1,566,1415,0,0
-651,-391,0,0,0,0,0,0,0,0,0,-1,573,1415,0,0
-644,-391,0,0,0,0,0,0,0,0,0,-1,580,1415,0,0
-637,-391,0,0,0,0,0,0,0,0,0,-1,587,1415,0,0
-630,-391,0,0,0,0,0,0,0,0,0,-1,594,1415,0,0
-623,-391,0,0,0,0,0,0,0,0,0,-1,601,1415,0,0
-616,-391,0,0,0,0,0,0,0,0,0,-1,608,1415,0,0
-609,-391,-7.71753,-3.69763,0,0,0,0,0,0,0,-1,615,1415,-7.71751,3.69759
-602,-391,-13.9493,-4.12805,0,0,0,0,0,0,0,-1,622,1415,-13.9493,4.12803
-595,-391,-10.8315,1.76172,0,0,0,0,0,0,0,-1,629,1415,-10.8315,-1.76171
-588,-391,-10.265,2.16431,0,0,0,0,0,0,0,-1,636,1415,-10.265,-2.16431
-581,-391,-11.3325,2.44836,0,0,0,0,0,0,0,-1,643,1415,-11.3325,-2.44842
-574,-391,-11.1471,6.19983,0,0,0,0,0,0,0,-1,650,1415,-11.1471,-6.19981
-567,-391,-11.5172,6.82458,0,0,0,0,0,0,0,-1,657,1415,-11.5171,-6.82454
-560,-391,-11.2459,7.37195,0,0,0,0,0,0,0,-1,664,1415,-11.2459,-7.37191
-553,-391,-13.7294,9.03076,0,0,0,0,0,0,0,-1,671,1415,-13.7294,-9.03074
-546,-391,-13.6569,9.78088,0.00277542,0.00130369,0.00139092,0.00361314,0.000465969,0.54209,0.00226944,0.0157369,678,1415,-13.6569,-9.78088
-539,-391,-13.6227,10.37,0.0022478,0.000941893,0.00107436,0.00285206,0.000337629,0.512345,0.00179942,0.01448,685,1415,-13.6227,-10.3701
-532,-391,-13.6177,10.947,0.00194718,0.000695763,0.000904979,0.0024217,0.000221245,0.48293,0.001546,0.0258543,692,1415,-13.6177,-10.9471
-525,-391,-13.6414,11.5696,0.00200227,0.000726034,0.00102141,0.00256851,0.000159796,0.506192,0.00166163,0.023413,699,1415,-13.6414,-11.5695
-518,-391,-13.7288,12.1345,0.00235865,0.00110135,0.00143977,0.00330103,0.000158974,0.579557,0.00214966,0.01397,706,1415,-13.7288,-12.1345
-511,-391,-13.7277,12.6893,0.002975,0.0017224,0.00207472,0.00451589,0.000181505,0.638811,0.00295196,0.0133458,713,1415,-13.7276,-12.6894
-504,-391,-13.7299,13.2793,0.00393242,0.00269166,0.00304177,0.00641643,0.000207654,0.684801,0.00421011,0.012489,720,1415,-13.7299,-13.2794
-497,-391,-13.7449,13.8608,0.00528652,0.00411735,0.00444027,0.00918052,0.000223346,0.719947,0.00604728,0.0136118,727,1415,-13.7449,-13.8609
-490,-391,-13.7239,14.447,0,0,0,0,0,0,0,-1,734,1415,-13.7239,-14.447
-483,-391,-11.1018,12.9382,0,0,0,0,0,0,0,-1,741,1415,-11.1018,-12.9382
-476,-391,-6.05731,6.85303,0,0,0,0,0,0,0,-1,748,1415,-6.05728,-6.85304
-469,-391,-3.88953,5.0979,0,0,0,0,0,0,0,-1,755,1415,-3.88955,-5.09794
-462,-391,-8.67688,2.03125,0,0,0,0,0,0,0,-1,762,1415,-8.67685,-2.03121
-455,-391,-8.65576,6.46997,0,0,0,0,0,0,0,-1,769,1415,-8.65579,-6.46999
-448,-391,-8.39618,4.38403,0,0,0,0,0,0,0,-1,776,1415,-8.39617,-4.38405
-441,-391,-9.77704,2.5946,0,0,0,0,0,0,0,-1,783,1415,-9.77702,-2.5946
-434,-391,-11.5403,2.12878,0,0,0,0,0,0,0,-1,790,1415,-11.5403,-2.12881
-427,-391,-10.5311,2.50403,0,0,0,0,0,0,0,-1,797,1415,-10.5311,-2.504
-420,-391,-14.7087,1.24365,0,0,0,0,0,0,0,-1,804,1415,-14.7088,-1.24365
-413,-391,0,0,0,0,0,0,0,0,0,-1,811,1415,0,0
-406,-391,0,0,0,0,0,0,0,0,0,-1,818,1415,0,0
-399,-391,0,0,0,0,0,0,0,0,0,-1,825,1415,0,0
-392,-391,0,0,0,0,0,0,0,0,0,-1,832,1415,0,0
-385,-391,0,0,0,0,0,0,0,0,0,-1,839,1415,0,0
-378,-391,0,0,0,0,0,0,0,0,0,-1,846,1415,0,0
-371,-391,0,0,0,0,0,0,0,0,0,-1,853,1415,0,0
-364,-391,0,0,0,0,0,0,0,0,0,-1,860,1415,0,0
-357,-391,0,0,0,0,0,0,0,0,0,-1,867,1415,0,0
-350,-391,0,0,0,0,0,0,0,0,0,-1,874,1415,0,0
-343,-391,0,0,0,0,0,0,0,0,0,-1,881,1415,0,0
-336,-391,0,0,0,0,0,0,0,0,0,-1,888,1415,0,0
-329,-391,0,0,0,0,0,0,0,0,0,-1,895,1415,0,0
-322,-391,0,0,0,0,0,0,0,0,0,-1,902,1415,0,0
-315,-391,0,0,0,0,0,0,0,0,0,-1,909,1415,0,0
-308,-391,0,0,0,0,0,0,0,0,0,-1,916,1415,0,0
-301,-391,0,0,0,0,0,0,0,0,0,-1,923,1415,0,0
-294,-391,0,0,0,0,0,0,0,0,0,-1,930,1415,0,0
-287,-391,0,0,0,0,0,0,0,0,0,-1,937,1415,0,0
-280,-391,0,0,0,0,0,0,0,0,0,-1,944,1415,0,0
-273,-391,0,0,0,0,0,0,0,0,0,-1,951,1415,0,0
-266,-391,0,0,0,0,0,0,0,0,0,-1,958,1415,0,0
-259,-391,0,0,0,0,0,0,0,0,0,-1,965,1415,0,0
-252,-391,0,0,0,0,0,0,0,0,0,-1,972,1415,0,0
-245,-391,0,0,0,0,0,0,0,0,0,-1,979,1415,0,0
-238,-391,0,0,0,0,0,0,0,0,0,-1,986,1415,0,0
-231,-391,0,0,0,0,0,0,0,0,0,-1,993,1415,0,0
-224,-391,0,0,0,0,0,0,0,0,0,-1,1000,1415,0,0
-217,-391,0,0,0,0,0,0,0,0,0,-1,1007,1415,0,0
-210,-391,0,0,0,0,0,0,0,0,0,-1,1014,1415,0,0
-203,-391,0,0,0,0,0,0,0,0,0,-1,1021,1415,0,0
-196,-391,0,0,0,0,0,0,0,0,0,-1,1028,1415,0,0
-189,-391,0,0,0,0,0,0,0,0,0,-1,1035,1415,0,0
-182,-391,0,0,0,0,0,0,0,0,0,-1,1042,1415,0,0
-175,-391,0,0,0,0,0,0,0,0,0,-1,1049,1415,0,0
-168,-391,0,0,0,0,0,0,0,0,0,-1,1056,1415,0,0
-161,-391,0,0,0,0,0,0,0,0,0,-1,1063,1415,0,0
-154,-391,0,0,0,0,0,0,0,0,0,-1,1070,1415,0,0
-147,-391,0,0,0,0,0,0,0,0,0,-1,1077,1415,0,0
-140,-391,0,0,0,0,0,0,0,0,0,-1,1084,1415,0,0
-133,-391,0,0,0,0,0,0,0,0,0,-1,1091,1415,0,0
-126,-391,0,0,0,0,0,0,0,0,0,-1,1098,1415,0,0
-119,-391,0,0,0,0,0,0,0,0,0,-1,1105,1415,0,0
-112,-391,0,0,0,0,0,0,0,0,0,-1,1112,1415,0,0
-105,-391,0,0,0,0,0,0,0,0,0,-1,1119,1415,0,0
-98,-391,0,0,0,0,0,0,0,0,0,-1,1126,1415,0,0
-91,-391,0,0,0,0,0,0,0,0,0,-1,1133,1415,0,0
-84,-391,0,0,0,0,0,0,0,0,0,-1,1140,1415,0,0
-77,-391,0,0,0,0,0,0,0,0,0,-1,1147,1415,0,0
-70,-391,0,0,0,0,0,0,0,0,0,-1,1154,1415,0,0
-63,-391,0,0,0,0,0,0,0,0,0,-1,1161,1415,0,0
-56,-391,0,0,0,0,0,0,0,0,0,-1,1168,1415,0,0
-49,-391,0,0,0,0,0,0,0,0,0,-1,1175,1415,0,0
-42,-391,0,0,0,0,0,0,0,0,0,-1,1182,1415,0,0
-35,-391,0,0,0,0,0,0,0,0,0,-1,1189,1415,0,0
-28,-391,0,0,0,0,0,0,0,0,0,-1,1196,1415,0,0
-21,-391,0,0,0,0,0,0,0,0,0,-1,1203,1415,0,0
-14,-391,0,0,0,0,0,0,0,0,0,-1,1210,1415,0,0
-7,-391,0,0,0,0,0,0,0,0,0,-1,1217,1415,0,0
0,-391,0,0,0,0,0,0,0,0,0,-1,1224,1415,0,0
7,-391,0,0,0,0,0,0,0,0,0,-1,1231,1415,0,0
14,-391,0,0,0,0,0,0,0,0,0,-1,1238,1415,0,0
21,-391,0,0,0,0,0,0,0,0,0,-1,1245,1415,0,0
28,-391,0,0,0,0,0,0,0,0,0,-1,1252,1415,0,0
35,-391,0,0,0,0,0,0,0,0,0,-1,1259,1415,0,0
42,-391,0,0,0,0,0,0,0,0,0,-1,1266,1415,0,0
49,-391,0,0,0,0,0,0,0,0,0,-1,1273,1415,0,0
56,-391,0,0,0,0,0,0,0,0,0,-1,1280,1415,0,0
63,-391,0,0,0,0,0,0,0,0,0,-1,1287,1415,0,0
70,-391,0,0,0,0,0,0,0,0,0,-1,1294,1415,0,0
77,-391,0,0,0,0,0,0,0,0,0,-1,1301,1415,0,0
84,-391,0,0,0,0,0,0,0,0,0,-1,1308,1415,0,0
91,-391,0,0,0,0,0,0,0,0,0,-1,1315,1415,0,0
98,-391,0,0,0,0,0,0,0,0,0,-1,1322,1415,0,0
105,-391,0,0,0,0,0,0,0,0,0,-1,1329,1415,0,0
112,-391,0,0,0,0,0,0,0,0,0,-1,1336,1415,0,0
119,-391,0,0,0,0,0,0,0,0,0,-1,1343,1415,0,0
126,-391,0,0,0,0,0,0,0,0,0,-1,1350,1415,0,0
133,-391,0,0,0,0,0,0,0,0,0,-1,1357,1415,0,0
140,-391,0,0,0,0,0,0,0,0,0,-1,1364,1415,0,0
147,-391,0,0,0,0,0,0,0,0,0,-1,1371,1415,0,0
154,-391,0,0,0,0,0,0,0,0,0,-1,1378,1415,0,0
161,-391,0,0,0,0,0,0,0,0,0,-1,1385,1415,0,0
168,-391,0,0,0,0,0,0,0,0,0,-1,1392,1415,0,0
175,-391,0,0,0,0,0,0,0,0,0,-1,1399,1415,0,0
182,-391,0,0,0,0,0,0,0,0,0,-1,1406,1415,0,0
189,-391,0,0,0,0,0,0,0,0,0,-1,1413,1415,0,0
196,-391,0,0,0,0,0,0,0,0,0,-1,1420,1415,0,0
203,-391,0,0,0,0,0,0,0,0,0,-1,1427,1415,0,0
210,-391,0,0,0,0,0,0,0,0,0,-1,1434,1415,0,0
217,-391,0,0,0,0,0,0,0,0,0,-1,1441,1415,0,0
224,-391,0,0,0,0,0,0,0,0,0,-1,1448,1415,0,0
231,-391,0,0,0,0,0,0,0,0,0,-1,1455,1415,0,0
238,-391,0,0,0,0,0,0,0,0,0,-1,1462,1415,0,0
245,-391,0,0,0,0,0,0,0,0,0,-1,1469,1415,0,0
252,-391,0,0,0,0,0,0,0,0,0,-1,1476,1415,0,0
259,-391,0,0,0,0,0,0,0,0,0,-1,1483,1415,0,0
266,-391,0,0,0,0,0,0,0,0,0,-1,1490,1415,0,0
273,-391,0,0,0,0,0,0,0,0,0,-1,1497,1415,0,0
280,-391,0,0,0,0,0,0,0,0,0,-1,1504,1415,0,0
287,-391,0,0,0,0,0,0,0,0,0,-1,1511,1415,0,0
294,-391,0,0,0,0,0,0,0,0,0,-1,1518,1415,0,0
301,-391,0,0,0,0,0,0,0,0,0,-1,1525,1415,0,0
308,-391,0,0,0,0,0,0,0,0,0,-1,1532,1415,0,0
315,-391,0,0,0,0,0,0,0,0,0,-1,1539,1415,0,0
322,-391,0,0,0,0,0,0,0,0,0,-1,1546,1415,0,0
329,-391,0,0,0,0,0,0,0,0,0,-1,1553,1415,0,0
336,-391,0,0,0,0,0,0,0,0,0,-1,1560,1415,0,0
343,-391,0,0,0,0,0,0,0,0,0,-1,1567,1415,0,0
350,-391,0,0,0,0,0,0,0,0,0,-1,1574,1415,0,0
357,-391,0,0,0,0,0,0,0,0,0,-1,1581,1415,0,0
364,-391,0,0,0,0,0,0,0,0,0,-1,1588,1415,0,0
371,-391,0,0,0,0,0,0,0,0,0,-1,1595,1415,0,0
378,-391,0,0,0,0,0,0,0,0,0,-1,1602,1415,0,0
385,-391,0,0,0,0,0,0,0,0,0,-1,1609,1415,0,0
392,-391,0,0,0,0,0,0,0,0,0,-1,1616,1415,0,0
399,-391,0,0,0,0,0,0,0,0,0,-1,1623,1415,0,0
406,-391,0,0,0,0,0,0,0,0,0,-1,1630,1415,0,0
413,-391,0,0,0,0,0,0,0,0,0,-1,1637,1415,0,0
420,-391,0,0,0,0,0,0,0,0,0,-1,1644,1415,0,0
427,-391,0,0,0,0,0,0,0,0,0,-1,1651,1415,0,0
434,-391,0,0,0,0,0,0,0,0,0,-1,1658,1415,0,0
441,-391,0,0,0,0,0,0,0,0,0,-1,1665,1415,0,0
448,-391,0,0,0,0,0,0,0,0,0,-1,1672,1415,0,0
455,-391,0,0,0,0,0,0,0,0,0,-1,1679,1415,0,0
462,-391,0,0,0,0,0,0,0,0,0,-1,1686,1415,0,0
469,-391,0,0,0,0,0,0,0,0,0,-1,1693,1415,0,0
476,-391,0,0,0,0,0,0,0,0,0,-1,1700,1415,0,0
483,-391,0,0,0,0,0,0,0,0,0,-1,1707,1415,0,0
490,-391,0,0,0,0,0,0,0,0,0,-1,1714,1415,0,0
497,-391,0,0,0,0,0,0,0,0,0,-1,1721,1415,0,0
504,-391,0,0,0,0,0,0,0,0,0,-1,1728,1415,0,0
511,-391,0,0,0,0,0,0,0,0,0,-1,1735,1415,0,0
518,-391,0,0,0,0,0,0,0,0,0,-1,1742,1415,0,0
525,-391,0,0,0,0,0,0,0,0,0,-1,1749,1415,0,0
532,-391,28.5959,3.02356,0,0,0,0,0,0,0,-1,1756,1415,28.596,-3.02358
539,-391,27.5881,3.25012,0,0,0,0,0,0,0,-1,1763,1415,27.5882,-3.25016
546,-391,27.2837,3.28064,0,0,0,0,0,0,0,-1,1770,1415,27.2837,-3.28064
553,-391,32.5952,5.04553,0,0,0,0,0,0,0,-1,1777,1415,32.5952,-5.04551
560,-391,31.2947,5.67017,0,0,0,0,0,0,0,-1,1784,1415,31.2947,-5.67011
567,-391,30.1473,6.17603,0,0,0,0,0,0,0,-1,1791,1415,30.1473,-6.17602
574,-391,27.5656,5.6842,0,0,0,0,0,0,0,-1,1798,1415,27.5655,-5.68422
581,-391,25.8883,5.76123,0,0,0,0,0,0,0,-1,1805,1415,25.8883,-5.76124
588,-391,24.2717,5.47986,0,0,0,0,0,0,0,-1,1812,1415,24.2717,-5.47982
595,-391,22.8827,6.1991,0,0,0,0,0,0,0,-1,1819,1415,22.8827,-6.19909
602,-391,15.1635,5.69849,0,0,0,0,0,0,0,-1,1826,1415,15.1635,-5.69847
609,-391,14.8285,7.50476,0,0,0,0,0,0,0,-1,1833,1415,14.8285,-7.50479
616,-391,20.7952,12.0503,0,0,0,0,0,0,0,-1,1840,1415,20.7952,-12.0503
623,-391,29.0504,15.9556,0,0,0,0,0,0,0,-1,1847,1415,29.0505,-15.9555
630,-391,29.189,15.3944,0.000933565,0.000837268,-0.000807089,0.00169394,7.68933e-05,-0.755605,0.00110456,0.0422421,1854,1415,29.1889,-15.3944
637,-391,29.0507,14.9581,0.000842776,0.000412097,-0.000486726,0.00115967,9.52026e-05,-0.57713,0.000743415,0.0159013,1861,1415,29.0506,-14.9581
644,-391,29.0107,14.4226,0.000793388,0.00018039,-0.000262018,0.000890119,8.36578e-05,-0.353658,0.000567586,0.0167723,1868,1415,29.0108,-14.4226
651,-391,29.0161,13.8822,0.000857138,6.69627e-05,-1.7686e-05,0.000857534,6.65671e-05,-0.0223674,0.000550843,0.0179738,1875,1415,29.0161,-13.8822
658,-391,29.0029,13.3523,0.00100134,7.24361e-05,0.000206695,0.00104526,2.85196e-05,0.209356,0.000687529,0.0190317,1882,1415,29.0029,-13.3522
665,-391,29.0055,12.8383,0.00121051,0.000132049,0.000432751,0.00136269,-2.01269e-05,0.338142,0.00091524,0.0157058,1889,1415,29.0055,-12.8383
672,-391,28.9896,12.3009,0.0014843,0.000244431,0.000702994,0.00180166,-7.29284e-05,0.424051,0.00122614,0.0131118,1896,1415,28.9897,-12.3009
679,-391,28.9563,11.7577,0.0018008,0.000403927,0.00102254,0.00234067,-0.00013594,0.485771,0.00160768,0.0119784,1903,1415,28.9563,-11.7577
686,-391,28.9521,11.2295,0.00206074,0.000471133,0.00156764,0.00302355,-0.000491674,0.550779,0.002198,0.0132542,1910,1415,28.9522,-11.2295
693,-391,28.9803,10.8716,0.00237557,0.000632821,0.00211974,0.00379605,-0.000787659,0.590389,0.00283003,0.0344124,1917,1415,28.9803,-10.8716
700,-391,29.1012,10.505,0,0,0,0,0,0,0,-1,1924,1415,29.1011,-10.505
707,-391,12.9524,5.96851,0,0,0,0,0,0,0,-1,1931,1415,12.9524,-5.96849
714,-391,15.6875,7.67896,0,0,0,0,0,0,0,-1,1938,1415,15.6875,-7.67893
721,-391,14.1808,8.08435,0,0,0,0,0,0,0,-1,1945,1415,14.1808,-8.08439
728,-391,13.8102,7.28174,0,0,0,0,0,0,0,-1,1952,1415,13.8102,-7.28174
735,-391,0,0,0,0,0,0,0,0,0,-1,1959,1415,0,0
742,-391,0,0,0,0,0,0,0,0,0,-1,1966,1415,0,0
749,-391,0,0,0,0,0,0,0,0,0,-1,1973,1415,0,0
756,-391,0,0,0,0,0,0,0,0,0,-1,1980,1415,0,0
763,-391,0,0,0,0,0,0,0,0,0,-1,1987,1415,0,0
770,-391,0,0,0,0,0,0,0,0,0,-1,1994,1415,0,0
777,-391,0,0,0,0,0,0,0,0,0,-1,2001,1415,0,0
784,-391,0,0,0,0,0,0,0,0,0,-1,2008,1415,0,0
791,-391,0,0,0,0,0,0,0,0,0,-1,2015,1415,0,0
798,-391,0,0,0,0,0,0,0,0,0,-1,2022,1415,0,0
805,-391,0,0,0,0,0,0,0,0,0,-1,2029,1415,0,0
812,-391,0,0,0,0,0,0,0,0,0,-1,2036,1415,0,0
-700,-398,0,0,0,0,0,0,0,0,0,-1,524,1422,0,0
-693,-398,0,0,0,0,0,0,0,0,0,-1,531,1422,0,0
-686,-398,0,0,0,0,0,0,0,0,0,-1,538,1422,0,0
-679,-398,0,0,0,0,0,0,0,0,0,-1,545,1422,0,0
-672,-398,0,0,0,0,0,0,0,0,0,-1,552,1422,0,0
-665,-398,0,0,0,0,0,0,0,0,0,-1,559,1422,0,0
-658,-398,0,0,0,0,0,0,0,0,0,-1,566,1422,0,0
-651,-398,0,0,0,0,0,0,0,0,0,-1,573,1422,0,0
-644,-398,0,0,0,0,0,0,0,0,0,-1,580,1422,0,0
-637,-398,0,0,0,0,0,0,0,0,0,-1,587,1422,0,0
-630,-398,0,0,0,0,0,0,0,0,0,-1,594,1422,0,0
-623,-398,0,0,0,0,0,0,0,0,0,-1,601,1422,0,0
-616,-398,0,0,0,0,0,0,0,0,0,-1,608,1422,0,0
-609,-398,-7.47125,-4.05322,0,0,0,0,0,0,0,-1,615,1422,-7.47128,4.05317
-602,-398,-4.58868,-2.77026,0,0,0,0,0,0,0,-1,622,1422,-4.58869,2.77023
-595,-398,-12.2224,-1.82007,0,0,0,0,0,0,0,-1,629,1422,-12.2224,1.82006
-588,-398,-10.6939,1.32336,0,0,0,0,0,0,0,-1,636,1422,-10.6939,-1.32337
-581,-398,-10.433,3.1123,0,0,0,0,0,0,0,-1,643,1422,-10.433,-3.11233
-574,-398,-10.4475,5.89807,0,0,0,0,0,0,0,-1,650,1422,-10.4475,-5.89802
-567,-398,-10.4904,6.80115,0,0,0,0,0,0,0,-1,657,1422,-10.4904,-6.80115
-560,-398,-10.5333,7.70435,0,0,0,0,0,0,0,-1,664,1422,-10.5333,-7.70429
-553,-398,-13.1346,9.08313,0,0,0,0,0,0,0,-1,671,1422,-13.1346,-9.08314
-546,-398,-13.0925,9.78955,0.00261748,0.00150856,0.00140241,0.00357106,0.000554983,0.597149,0.00221897,0.0267392,678,1422,-13.0926,-9.78956
-539,-398,-13.0195,10.4271,0.0020387,0.00107966,0.00102296,0.00268895,0.000429414,0.566226,0.00166802,0.0127966,685,1422,-13.0195,-10.4271
-532,-398,-13.0701,11,0.00166307,0.000752328,0.000770775,0.00210294,0.000312458,0.518586,0.00131029,0.0214325,692,1422,-13.0702,-11
-525,-398,-13.1203,11.5764,0.00165713,0.000708432,0.000806115,0.00211811,0.00024746,0.51946,0.00133724,0.0196649,699,1422,-13.1203,-11.5764
-518,-398,-13.1196,12.1489,0.00198404,0.0010538,0.00117656,0.00278408,0.000253756,0.597164,0.00177752,0.0167181,706,1422,-13.1196,-12.149
-511,-398,-13.1179,12.6917,0.00254537,0.00166313,0.001767,0.00392548,0.000283021,0.663076,0.00252793,0.0141589,713,1422,-13.1179,-12.6917
-504,-398,-13.1481,13.2942,0.00340204,0.00258847,0.0026531,0.00567936,0.000311148,0.709329,0.0036869,0.0144339,720,1422,-13.148,-13.2942
-497,-398,-13.1702,13.876,0.00459212,0.00393777,0.0039078,0.00818642,0.000343476,0.743634,0.0053468,0.010002,727,1422,-13.1702,-13.876
-490,-398,-13.1845,14.4559,0.00629212,0.00590327,0.00563546,0.0117365,0.000458881,0.768155,0.00767595,0.0185996,734,1422,-13.1845,-14.456
-483,-398,-13.1635,15.063,0,0,0,0,0,0,0,-1,741,1422,-13.1635,-15.063
-476,-398,-8.64392,11.9448,0,0,0,0,0,0,0,-1,748,1422,-8.6439,-11.9448
-469,-398,-8.91699,10.6276,0,0,0,0,0,0,0,-1,755,1422,-8.91697,-10.6275
-462,-398,-9.59753,9.32532,0,0,0,0,0,0,0,-1,762,1422,-9.59753,-9.32531
-455,-398,-8.08331,6.75024,0,0,0,0,0,0,0,-1,769,1422,-8.08333,-6.75022
-448,-398,-7.4505,5.25293,0,0,0,0,0,0,0,-1,776,1422,-7.4505,-5.25291
-441,-398,-7.61639,3.32141,0,0,0,0,0,0,0,-1,783,1422,-7.61637,-3.32145
-434,-398,-10.7618,3.297,0,0,0,0,0,0,0,-1,790,1422,-10.7618,-3.29704
-427,-398,-11.9061,2.24939,0,0,0,0,0,0,0,-1,797,1422,-11.9061,-2.24941
-420,-398,-13.467,2.32788,0,0,0,0,0,0,0,-1,804,1422,-13.467,-2.32787
-413,-398,-14.7983,2.15515,0,0,0,0,0,0,0,-1,811,1422,-14.7983,-2.15516
-406,-398,0,0,0,0,0,0,0,0,0,-1,818,1422,0,0
-399,-398,0,0,0,0,0,0,0,0,0,-1,825,1422,0,0
-392,-398,0,0,0,0,0,0,0,0,0,-1,832,1422,0,0
-385,-398,0,0,0,0,0,0,0,0,0,-1,839,1422,0,0
-378,-398,0,0,0,0,0,0,0,0,0,-1,846,1422,0,0
-371,-398,0,0,0,0,0,0,0,0,0,-1,853,1422,0,0
-364,-398,0,0,0,0,0,0,0,0,0,-1,860,1422,0,0
-357,-398,0,0,0,0,0,0,0,0,0,-1,867,1422,0,0
-350,-398,0,0,0,0,0,0,0,0,0,-1,874,1422,0,0
-343,-398,0,0,0,0,0,0,0,0,0,-1,881,1422,0,0
-336,-398,0,0,0,0,0,0,0,0,0,-1,888,1422,0,0
-329,-398,0,0,0,0,0,0,0,0,0,-1,895,1422,0,0
-322,-398,0,0,0,0,0,0,0,0,0,-1,902,1422,0,0
-315,-398,0,0,0,0,0,0,0,0,0,-1,909,1422,0,0
-308,-398,0,0,0,0,0,0,0,0,0,-1,916,1422,0,0
-301,-398,0,0,0,0,0,0,0,0,0,-1,923,1422,0,0
-294,-398,0,0,0,0,0,0,0,0,0,-1,930,1422,0,0
-287,-398,0,0,0,0,0,0,0,0,0,-1,937,1422,0,0
-280,-398,0,0,0,0,0,0,0,0,0,-1,944,1422,0,0
-273,-398,0,0,0,0,0,0,0,0,0,-1,951,1422,0,0
-266,-398,0,0,0,0,0,0,0,0,0,-1,958,1422,0,0
-259,-398,0,0,0,0,0,0,0,0,0,-1,965,1422,0,0
-252,-398,0,0,0,0,0,0,0,0,0,-1,972,1422,0,0
-245,-398,0,0,0,0,0,0,0,0,0,-1,979,1422,0,0
-238,-398,0,0,0,0,0,0,0,0,0,-1,986,1422,0,0
-231,-398,0,0,0,0,0,0,0,0,0,-1,993,1422,0,0
-224,-398,0,0,0,0,0,0,0,0,0,-1,1000,1422,0,0
-217,-398,0,0,0,0,0,0,0,0,0,-1,1007,1422,0,0
-210,-398,0,0,0,0,0,0,0,0,0,-1,1014,1422,0,0
-203,-398,0,0,0,0,0,0,0,0,0,-1,1021,1422,0,0
-196,-398,0,0,0,0,0,0,0,0,0,-1,1028,1422,0,0
-189,-398,0,0,0,0,0,0,0,0,0,-1,1035,1422,0,0
-182,-398,0,0,0,0,0,0,0,0,0,-1,1042,1422,0,0
-175,-398,0,0,0,0,0,0,0,0,0,-1,1049,1422,0,0
-168,-398,0,0,0,0,0,0,0,0,0,-1,1056,1422,0,0
-161,-398,0,0,0,0,0,0,0,0,0,-1,1063,1422,0,0
-154,-398,0,0,0,0,0,0,0,0,0,-1,1070,1422,0,0
-147,-398,0,0,0,0,0,0,0,0,0,-1,1077,1422,0,0
-140,-398,0,0,0,0,0,0,0,0,0,-1,1084,1422,0,0
-133,-398,0,0,0,0,0,0,0,0,0,-1,1091,1422,0,0
-126,-398,0,0,0,0,0,0,0,0,0,-1,1098,1422,0,0
-119,-398,0,0,0,0,0,0,0,0,0,-1,1105,1422,0,0
-112,-398,0,0,0,0,0,0,0,0,0,-1,1112,1422,0,0
-105,-398,0,0,0,0,0,0,0,0,0,-1,1119,1422,0,0
-98,-398,0,0,0,0,0,0,0,0,0,-1,1126,1422,0,0
-91,-398,0,0,0,0,0,0,0,0,0,-1,1133,1422,0,0
-84,-398,0,0,0,0,0,0,0,0,0,-1,1140,1422,0,0
-77,-398,0,0,0,0,0,0,0,0,0,-1,1147,1422,0,0
-70,-398,0,0,0,0,0,0,0,0,0,-1,1154,1422,0,0
-63,-398,0,0,0,0,0,0,0,0,0,-1,1161,1422,0,0
-56,-398,0,0,0,0,0,0,0,0,0,-1,1168,1422,0,0
-49,-398,0,0,0,0,0,0,0,0,0,-1,1175,1422,0,0
-42,-398,0,0,0,0,0,0,0,0,0,-1,1182,1422,0,0
-35,-398,0,0,0,0,0,0,0,0,0,-1,1189,1422,0,0
-28,-398,0,0,0,0,0,0,0,0,0,-1,1196,1422,0,0
-21,-398,0,0,0,0,0,0,0,0,0,-1,1203,1422,0,0
-14,-398,0,0,0,0,0,0,0,0,0,-1,1210,1422,0,0
-7,-398,0,0,0,0,0,0,0,0,0,-1,1217,1422,0,0
0,-398,0,0,0,0,0,0,0,0,0,-1,1224,1422,0,0
7,-398,0,0,0,0,0,0,0,0,0,-1,1231,1422,0,0
14,-398,0,0,0,0,0,0,0,0,0,-1,1238,1422,0,0
21,-398,0,0,0,0,0,0,0,0,0,-1,1245,1422,0,0
28,-398,0,0,0,0,0,0,0,0,0,-1,1252,1422,0,0
35,-398,0,0,0,0,0,0,0,0,0,-1,1259,1422,0,0
42,-398,0,0,0,0,0,0,0,0,0,-1,1266,1422,0,0
49,-398,0,0,0,0,0,0,0,0,0,-1,1273,1422,0,0
56,-398,0,0,0,0,0,0,0,0,0,-1,1280,1422,0,0
63,-398,0,0,0,0,0,0,0,0,0,-1,1287,1422,0,0
70,-398,0,0,0,0,0,0,0,0,0,-1,1294,1422,0,0
77,-398,0,0,0,0,0,0,0,0,0,-1,1301,1422,0,0
84,-398,0,0,0,0,0,0,0,0,0,-1,1308,1422,0,0
91,-398,0,0,0,0,0,0,0,0,0,-1,1315,1422,0,0
98,-398,0,0,0,0,0,0,0,0,0,-1,1322,1422,0,0
105,-398,0,0,0,0,0,0,0,0,0,-1,1329,1422,0,0
112,-398,0,0,0,0,0,0,0,0,0,-1,1336,1422,0,0
119,-398,0,0,0,0,0,0,0,0,0,-1,1343,1422,0,0
126,-398,0,0,0,0,0,0,0,0,0,-1,1350,1422,0,0
133,-398,0,0,0,0,0,0,0,0,0,-1,1357,1422,0,0
140,-398,0,0,0,0,0,0,0,0,0,-1,1364,1422,0,0
147,-398,0,0,0,0,0,0,0,0,0,-1,1371,1422,0,0
154,-398,0,0,0,0,0,0,0,0,0,-1,1378,1422,0,0
161,-398,0,0,0,0,0,0,0,0,0,-1,1385,1422,0,0
168,-398,0,0,0,0,0,0,0,0,0,-1,1392,1422,0,0
175,-398,0,0,0,0,0,0,0,0,0,-1,1399,1422,0,0
182,-398,0,0,0,0,0,0,0,0,0,-1,1406,1422,0,0
189,-398,0,0,0,0,0,0,0,0,0,-1,1413,1422,0,0
196,-398,0,0,0,0,0,0,0,0,0,-1,1420,1422,0,0
203,-398,0,0,0,0,0,0,0,0,0,-1,1427,1422,0,0
210,-398,0,0,0,0,0,0,0,0,0,-1,1434,1422,0,0
217,-398,0,0,0,0,0,0,0,0,0,-1,1441,1422,0,0
224,-398,0,0,0,0,0,0,0,0,0,-1,1448,1422,0,0
231,-398,0,0,0,0,0,0,0,0,0,-1,1455,1422,0,0
238,-398,0,0,0,0,0,0,0,0,0,-1,1462,1422,0,0
245,-398,0,0,0,0,0,0,0,0,0,-1,1469,1422,0,0
252,-398,0,0,0,0,0,0,0,0,0,-1,1476,1422,0,0
259,-398,0,0,0,0,0,0,0,0,0,-1,1483,1422,0,0
266,-398,0,0,0,0,0,0,0,0,0,-1,1490,1422,0,0
273,-398,0,0,0,0,0,0,0,0,0,-1,1497,1422,0,0
280,-398,0,0,0,0,0,0,0,0,0,-1,1504,1422,0,0
287,-398,0,0,0,0,0,0,0,0,0,-1,1511,1422,0,0
294,-398,0,0,0,0,0,0,0,0,0,-1,1518,1422,0,0
301,-398,0,0,0,0,0,0,0,0,0,-1,1525,1422,0,0
308,-398,0,0,0,0,0,0,0,0,0,-1,1532,1422,0,0
315,-398,0,0,0,0,0,0,0,0,0,-1,1539,1422,0,0
322,-398,0,0,0,0,0,0,0,0,0,-1,1546,1422,0,0
329,-398,0,0,0,0,0,0,0,0,0,-1,1553,1422,0,0
336,-398,0,0,0,0,0,0,0,0,0,-1,1560,1422,0,0
343,-398,0,0,0,0,0,0,0,0,0,-1,1567,1422,0,0
350,-398,0,0,0,0,0,0,0,0,0,-1,1574,1422,0,0
357,-398,0,0,0,0,0,0,0,0,0,-1,1581,1422,0,0
364,-398,0,0,0,0,0,0,0,0,0,-1,1588,1422,0,0
371,-398,0,0,0,0,0,0,0,0,0,-1,1595,1422,0,0
378,-398,0,0,0,0,0,0,0,0,0,-1,1602,1422,0,0
385,-398,0,0,0,0,0,0,0,0,0,-1,1609,1422,0,0
392,-398,0,0,0,0,0,0,0,0,0,-1,1616,1422,0,0
399,-398,0,0,0,0,0,0,0,0,0,-1,1623,1422,0,0
406,-398,0,0,0,0,0,0,0,0,0,-1,1630,1422,0,0
413,-398,0,0,0,0,0,0,0,0,0,-1,1637,1422,0,0
420,-398,0,0,0,0,0,0,0,0,0,-1,1644,1422,0,0
427,-398,0,0,0,0,0,0,0,0,0,-1,1651,1422,0,0
434,-398,0,0,0,0,0,0,0,0,0,-1,1658,1422,0,0
441,-398,0,0,0,0,0,0,0,0,0,-1,1665,1422,0,0
448,-398,0,0,0,0,0,0,0,0,0,-1,1672,1422,0,0
455,-398,0,0,0,0,0,0,0,0,0,-1,1679,1422,0,0
462,-398,0,0,0,0,0,0,0,0,0,-1,1686,1422,0,0
469,-398,0,0,0,0,0,0,0,0,0,-1,1693,1422,0,0
476,-398,0,0,0,0,0,0,0,0,0,-1,1700,1422,0,0
483,-398,0,0,0,0,0,0,0,0,0,-1,1707,1422,0,0
490,-398,0,0,0,0,0,0,0,0,0,-1,1714,1422,0,0
497,-398,0,0,0,0,0,0,0,0,0,-1,1721,1422,0,0
504,-398,0,0,0,0,0,0,0,0,0,-1,1728,1422,0,0
511,-398,0,0,0,0,0,0,0,0,0,-1,1735,1422,0,0
518,-398,0,0,0,0,0,0,0,0,0,-1,1742,1422,0,0
525,-398,0,0,0,0,0,0,0,0,0,-1,1749,1422,0,0
532,-398,28.4558,3.84094,0,0,0,0,0,0,0,-1,1756,1422,28.4558,-3.8409
539,-398,27.0594,3.33887,0,0,0,0,0,0,0,-1,1763,1422,27.0595,-3.3389
546,-398,31.6873,5.58582,0,0,0,0,0,0,0,-1,1770,1422,31.6872,-5.58585
553,-398,30.4392,5.92383,0,0,0,0,0,0,0,-1,1777,1422,30.4392,-5.92386
560,-398,29.1621,6.30469,0,0,0,0,0,0,0,-1,1784,1422,29.1621,-6.30469
567,-398,27.8411,6.55029,0,0,0,0,0,0,0,-1,1791,1422,27.8411,-6.55033
574,-398,26.411,6.8916,0,0,0,0,0,0,0,-1,1798,1422,26.411,-6.8916
581,-398,24.75,7.11145,0,0,0,0,0,0,0,-1,1805,1422,24.7499,-7.11142
588,-398,23.1649,7.67969,0,0,0,0,0,0,0,-1,1812,1422,23.1649,-7.67975
595,-398,21.4253,7.86023,0,0,0,0,0,0,0,-1,1819,1422,21.4253,-7.86029
602,-398,19.6857,8.04077,0,0,0,0,0,0,0,-1,1826,1422,19.6856,-8.04083
609,-398,21.1835,13.2628,0,0,0,0,0,0,0,-1,1833,1422,21.1835,-13.2628
616,-398,28.083,17.0697,0,0,0,0,0,0,0,-1,1840,1422,28.083,-17.0697
623,-398,28.5454,16.0159,0,0,0,0,0,0,0,-1,1847,1422,28.5455,-16.0159
630,-398,28.5426,15.4817,0.00122955,0.00101241,-0.000955991,0.00208312,0.000158843,-0.728857,0.00133894,0.0125078,1854,1422,28.5426,-15.4816
637,-398,28.5168,14.9729,0.00106957,0.00050294,-0.000571409,0.00142405,0.000148465,-0.55525,0.000903948,0.0134515,1861,1422,28.5168,-14.9729
644,-398,28.4369,14.4441,0.00102585,0.00027735,-0.000311648,0.00113861,0.00016458,-0.347191,0.000710598,0.0212279,1868,1422,28.4369,-14.4441
651,-398,28.5,13.9536,0.00109838,0.000210187,-9.59276e-05,0.00110862,0.000199945,-0.106369,0.000682271,0.0305016,1875,1422,28.5,-13.9536
658,-398,28.5387,13.4408,0.00121306,0.00026357,0.000125535,0.00122938,0.000247253,0.129254,0.000750865,0.0258195,1882,1422,28.5387,-13.4409
665,-398,28.4894,12.8755,0.00136896,0.000380241,0.000371797,0.00149316,0.000256033,0.322416,0.000922024,0.0166903,1889,1422,28.4894,-12.8754
672,-398,28.4535,12.3325,0.00155031,0.000575004,0.000687096,0.00190521,0.000220097,0.476785,0.0012035,0.0134669,1896,1422,28.4535,-12.3326
679,-398,28.4194,11.8015,0.00170952,0.000779707,0.00112181,0.00245895,3.02825e-05,0.588958,0.0016293,0.0126053,1903,1422,28.4194,-11.8015
686,-398,28.4171,11.2708,0.00169393,0.000839455,0.00192425,0.0032378,-0.000704414,0.676156,0.00242765,0.0191777,1910,1422,28.4171,-11.2708
693,-398,28.2291,10.8718,0.00160537,0.00100556,0.00282626,0.00414759,-0.00153667,0.732539,0.00339525,0.0480946,1917,1422,28.2292,-10.8719
700,-398,28.0769,10.5092,0,0,0,0,0,0,0,-1,1924,1422,28.0769,-10.5091
707,-398,10.9731,5.479,0,0,0,0,0,0,0,-1,1931,1422,10.9732,-5.47896
714,-398,11.7313,6.17346,0,0,0,0,0,0,0,-1,1938,1422,11.7313,-6.17348
721,-398,13.9371,8.05103,0,0,0,0,0,0,0,-1,1945,1422,13.9372,-8.05102
728,-398,14.786,7.0282,0,0,0,0,0,0,0,-1,1952,1422,14.786,-7.0282
735,-398,0,0,0,0,0,0,0,0,0,-1,1959,1422,0,0
742,-398,0,0,0,0,0,0,0,0,0,-1,1966,1422,0,0
749,-398,0,0,0,0,0,0,0,0,0,-1,1973,1422,0,0
756,-398,0,0,0,0,0,0,0,0,0,-1,1980,1422,0,0
763,-398,0,0,0,0,0,0,0,0,0,-1,1987,1422,0,0
770,-398,0,0,0,0,0,0,0,0,0,-1,1994,1422,0,0
777,-398,0,0,0,0,0,0,0,0,0,-1,2001,1422,0,0
784,-398,0,0,0,0,0,0,0,0,0,-1,2008,1422,0,0
791,-398,0,0,0,0,0,0,0,0,0,-1,2015,1422,0,0
798,-398,0,0,0,0,0,0,0,0,0,-1,2022,1422,0,0
805,-398,0,0,0,0,0,0,0,0,0,-1,2029,1422,0,0
812,-398,0,0,0,0,0,0,0,0,0,-1,2036,1422,0,0
-700,-405,0,0,0,0,0,0,0,0,0,-1,524,1429,0,0
-693,-405,0,0,0,0,0,0,0,0,0,-1,531,1429,0,0
-686,-405,0,0,0,0,0,0,0,0,0,-1,538,1429,0,0
-679,-405,0,0,0,0,0,0,0,0,0,-1,545,1429,0,0
-672,-405,0,0,0,0,0,0,0,0,0,-1,552,1429,0,0
-665,-405,0,0,0,0,0,0,0,0,0,-1,559,1429,0,0
-658,-405,0,0,0,0,0,0,0,0,0,-1,566,1429,0,0
-651,-405,0,0,0,0,0,0,0,0,0,-1,573,1429,0,0
-644,-405,0,0,0,0,0,0,0,0,0,-1,580,1429,0,0
-637,-405,0,0,0,0,0,0,0,0,0,-1,587,1429,0,0
-630,-405,0,0,0,0,0,0,0,0,0,-1,594,1429,0,0
-623,-405,0,0,0,0,0,0,0,0,0,-1,601,1429,0,0
-616,-405,0,0,0,0,0,0,0,0,0,-1,608,1429,0,0
-609,-405,0,0,0,0,0,0,0,0,0,-1,615,1429,0,0
-602,-405,-5.80988,-3.46594,0,0,0,0,0,0,0,-1,622,1429,-5.80987,3.46592
-595,-405,-9.35413,2.01477,0,0,0,0,0,0,0,-1,629,1429,-9.35411,-2.01476
-588,-405,-7.35693,0.507202,0,0,0,0,0,0,0,-1,636,1429,-7.35696,-0.507187
-581,-405,-10.1284,1.62927,0,0,0,0,0,0,0,-1,643,1429,-10.1284,-1.62922
-574,-405,-9.32074,3.05896,0,0,0,0,0,0,0,-1,650,1429,-9.32077,-3.0589
-567,-405,-9.68781,6.92163,0,0,0,0,0,0,0,-1,657,1429,-9.68782,-6.92166
-560,-405,-9.28674,7.20886,0,0,0,0,0,0,0,-1,664,1429,-9.28675,-7.20885
-553,-405,-12.4651,9.15356,0,0,0,0,0,0,0,-1,671,1429,-12.4651,-9.15352
-546,-405,-12.4773,9.77161,0.00249527,0.00177005,0.00143668,0.00361439,0.000650934,0.661783,0.00222459,0.0397107,678,1429,-12.4773,-9.77163
-539,-405,-12.4903,10.3846,0.00189337,0.00129277,0.0010226,0.00265885,0.000527293,0.642582,0.00162556,0.0123128,685,1429,-12.4903,-10.3847
-532,-405,-12.5205,10.9872,0.00145826,0.000877922,0.000690809,0.00191737,0.000418814,0.586567,0.00116403,0.0158907,692,1429,-12.5205,-10.9871
-525,-405,-12.5377,11.577,0.00139351,0.000723498,0.000625649,0.0017682,0.00034881,0.539594,0.00108145,0.0149616,699,1429,-12.5377,-11.577
-518,-405,-12.5225,12.1746,0.00168506,0.000993189,0.000927437,0.00232898,0.000349269,0.60689,0.00145031,0.0144288,706,1429,-12.5225,-12.1746
-511,-405,-12.5591,12.7281,0.00218758,0.0015452,0.00145581,0.00335721,0.00037557,0.676823,0.00212405,0.0148055,713,1429,-12.5591,-12.7281
-504,-405,-12.5875,13.3025,0.00293398,0.00237811,0.00223277,0.00490605,0.000406041,0.723477,0.00314411,0.016978,720,1429,-12.5876,-13.3025
-497,-405,-12.5898,13.9254,0.00394289,0.00358518,0.00331115,0.00708001,0.000448057,0.758417,0.00457797,0.0140411,727,1429,-12.5899,-13.9255
-490,-405,-12.6253,14.4923,0.00530252,0.00528457,0.00476652,0.0100601,0.000527017,0.784457,0.00653813,0.0121146,734,1429,-12.6253,-14.4924
-483,-405,-12.5497,15.1581,0.00698486,0.00759373,0.00666658,0.0139628,0.000615763,0.808215,0.00911024,0.0254039,741,1429,-12.5497,-15.1581
-476,-405,-12.3333,16.0229,0,0,0,0,0,0,0,-1,748,1429,-12.3332,-16.0229
-469,-405,-9.65692,12.8171,0,0,0,0,0,0,0,-1,755,1429,-9.65691,-12.8172
-462,-405,-9.14862,11.3597,0,0,0,0,0,0,0,-1,762,1429,-9.14865,-11.3597
-455,-405,-9.021,9.51111,0,0,0,0,0,0,0,-1,769,1429,-9.021,-9.51109
-448,-405,-8.4649,6.82813,0,0,0,0,0,0,0,-1,776,1429,-8.46492,-6.82817
-441,-405,-6.6712,4.23767,0,0,0,0,0,0,0,-1,783,1429,-6.67121,-4.23764
-434,-405,-9.62549,3.94189,0,0,0,0,0,0,0,-1,790,1429,-9.62546,-3.94191
-427,-405,-10.9764,3.73926,0,0,0,0,0,0,0,-1,797,1429,-10.9764,-3.73923
-420,-405,-12.1187,3.68506,0,0,0,0,0,0,0,-1,804,1429,-12.1187,-3.68512
-413,-405,-13.5353,3.75659,0,0,0,0,0,0,0,-1,811,1429,-13.5353,-3.75655
-406,-405,-14.7374,3.99817,0,0,0,0,0,0,0,-1,818,1429,-14.7374,-3.99814
-399,-405,0,0,0,0,0,0,0,0,0,-1,825,1429,0,0
-392,-405,0,0,0,0,0,0,0,0,0,-1,832,1429,0,0
-385,-405,0,0,0,0,0,0,0,0,0,-1,839,1429,0,0
-378,-405,0,0,0,0,0,0,0,0,0,-1,846,1429,0,0
-371,-405,0,0,0,0,0,0,0,0,0,-1,853,1429,0,0
-364,-405,0,0,0,0,0,0,0,0,0,-1,860,1429,0,0
-357,-405,0,0,0,0,0,0,0,0,0,-1,867,1429,0,0
-350,-405,0,0,0,0,0,0,0,0,0,-1,874,1429,0,0
-343,-405,0,0,0,0,0,0,0,0,0,-1,881,1429,0,0
-336,-405,0,0,0,0,0,0,0,0,0,-1,888,1429,0,0
-329,-405,0,0,0,0,0,0,0,0,0,-1,895,1429,0,0
-322,-405,0,0,0,0,0,0,0,0,0,-1,902,1429,0,0
-315,-405,0,0,0,0,0,0,0,0,0,-1,909,1429,0,0
-308,-405,0,0,0,0,0,0,0,0,0,-1,916,1429,0,0
-301,-405,0,0,0,0,0,0,0,0,0,-1,923,1429,0,0
-294,-405,0,0,0,0,0,0,0,0,0,-1,930,1429,0,0
-287,-405,0,0,0,0,0,0,0,0,0,-1,937,1429,0,0
-280,-405,0,0,0,0,0,0,0,0,0,-1,944,1429,0,0
-273,-405,0,0,0,0,0,0,0,0,0,-1,951,1429,0,0
-266,-405,0,0,0,0,0,0,0,0,0,-1,958,1429,0,0
-259,-405,0,0,0,0,0,0,0,0,0,-1,965,1429,0,0
-252,-405,0,0,0,0,0,0,0,0,0,-1,972,1429,0,0
-245,-405,0,0,0,0,0,0,0,0,0,-1,979,1429,0,0
-238,-405,0,0,0,0,0,0,0,0,0,-1,986,1429,0,0
-231,-405,0,0,0,0,0,0,0,0,0,-1,993,1429,0,0
-224,-405,0,0,0,0,0,0,0,0,0,-1,1000,1429,0,0
-217,-405,0,0,0,0,0,0,0,0,0,-1,1007,1429,0,0
-210,-405,0,0,0,0,0,0,0,0,0,-1,1014,1429,0,0
-203,-405,0,0,0,0,0,0,0,0,0,-1,1021,1429,0,0
-196,-405,0,0,0,0,0,0,0,0,0,-1,1028,1429,0,0
-189,-405,0,0,0,0,0,0,0,0,0,-1,1035,1429,0,0
-182,-405,0,0,0,0,0,0,0,0,0,-1,1042,1429,0,0
-175,-405,0,0,0,0,0,0,0,0,0,-1,1049,1429,0,0
-168,-405,0,0,0,0,0,0,0,0,0,-1,1056,1429,0,0
-161,-405,0,0,0,0,0,0,0,0,0,-1,1063,1429,0,0
-154,-405,0,0,0,0,0,0,0,0,0,-1,1070,1429,0,0
-147,-405,0,0,0,0,0,0,0,0,0,-1,1077,1429,0,0
-140,-405,0,0,0,0,0,0,0,0,0,-1,1084,1429,0,0
-133,-405,0,0,0,0,0,0,0,0,0,-1,1091,1429,0,0
-126,-405,0,0,0,0,0,0,0,0,0,-1,1098,1429,0,0
-119,-405,0,0,0,0,0,0,0,0,0,-1,1105,1429,0,0
-112,-405,0,0,0,0,0,0,0,0,0,-1,1112,1429,0,0
-105,-405,0,0,0,0,0,0,0,0,0,-1,1119,1429,0,0
-98,-405,0,0,0,0,0,0,0,0,0,-1,1126,1429,0,0
-91,-405,0,0,0,0,0,0,0,0,0,-1,1133,1429,0,0
-84,-405,0,0,0,0,0,0,0,0,0,-1,1140,1429,0,0
-77,-405,0,0,0,0,0,0,0,0,0,-1,1147,1429,0,0
-70,-405,0,0,0,0,0,0,0,0,0,-1,1154,1429,0,0
-63,-405,0,0,0,0,0,0,0,0,0,-1,1161,1429,0,0
-56,-405,0,0,0,0,0,0,0,0,0,-1,1168,1429,0,0
-49,-405,0,0,0,0,0,0,0,0,0,-1,1175,1429,0,0
-42,-405,0,0,0,0,0,0,0,0,0,-1,1182,1429,0,0
-35,-405,0,0,0,0,0,0,0,0,0,-1,1189,1429,0,0
-28,-405,0,0,0,0,0,0,0,0,0,-1,1196,1429,0,0
-21,-405,0,0,0,0,0,0,0,0,0,-1,1203,1429,0,0
-14,-405,0,0,0,0,0,0,0,0,0,-1,1210,1429,0,0
-7,-405,0,0,0,0,0,0,0,0,0,-1,1217,1429,0,0
0,-405,0,0,0,0,0,0,0,0,0,-1,1224,1429,0,0
7,-405,0,0,0,0,0,0,0,0,0,-1,1231,1429,0,0
14,-405,0,0,0,0,0,0,0,0,0,-1,1238,1429,0,0
21,-405,0,0,0,0,0,0,0,0,0,-1,1245,1429,0,0
28,-405,0,0,0,0,0,0,0,0,0,-1,1252,1429,0,0
35,-405,0,0,0,0,0,0,0,0,0,-1,1259,1429,0,0
42,-405,0,0,0,0,0,0,0,0,0,-1,1266,1429,0,0
49,-405,0,0,0,0,0,0,0,0,0,-1,1273,1429,0,0
56,-405,0,0,0,0,0,0,0,0,0,-1,1280,1429,0,0
63,-405,0,0,0,0,0,0,0,0,0,-1,1287,1429,0,0
70,-405,0,0,0,0,0,0,0,0,0,-1,1294,1429,0,0
77,-405,0,0,0,0,0,0,0,0,0,-1,1301,1429,0,0
84,-405,0,0,0,0,0,0,0,0,0,-1,1308,1429,0,0
91,-405,0,0,0,0,0,0,0,0,0,-1,1315,1429,0,0
98,-405,0,0,0,0,0,0,0,0,0,-1,1322,1429,0,0
105,-405,0,0,0,0,0,0,0,0,0,-1,1329,1429,0,0
112,-405,0,0,0,0,0,0,0,0,0,-1,1336,1429,0,0
119,-405,0,0,0,0,0,0,0,0,0,-1,1343,1429,0,0
126,-405,0,0,0,0,0,0,0,0,0,-1,1350,1429,0,0
133,-405,0,0,0,0,0,0,0,0,0,-1,1357,1429,0,0
140,-405,0,0,0,0,0,0,0,0,0,-1,1364,1429,0,0
147,-405,0,0,0,0,0,0,0,0,0,-1,1371,1429,0,0
154,-405,0,0,0,0,0,0,0,0,0,-1,1378,1429,0,0
161,-405,0,0,0,0,0,0,0,0,0,-1,1385,1429,0,0
168,-405,0,0,0,0,0,0,0,0,0,-1,1392,1429,0,0
175,-405,0,0,0,0,0,0,0,0,0,-1,1399,1429,0,0
182,-405,0,0,0,0,0,0,0,0,0,-1,1406,1429,0,0
189,-405,0,0,0,0,0,0,0,0,0,-1,1413,1429,0,0
196,-405,0,0,0,0,0,0,0,0,0,-1,1420,1429,0,0
203,-405,0,0,0,0,0,0,0,0,0,-1,1427,1429,0,0
210,-405,0,0,0,0,0,0,0,0,0,-1,1434,1429,0,0
217,-405,0,0,0,0,0,0,0,0,0,-1,1441,1429,0,0
224,-405,0,0,0,0,0,0,0,0,0,-1,1448,1429,0,0
231,-405,0,0,0,0,0,0,0,0,0,-1,1455,1429,0,0
238,-405,0,0,0,0,0,0,0,0,0,-1,1462,1429,0,0
245,-405,0,0,0,0,0,0,0,0,0,-1,1469,1429,0,0
252,-405,0,0,0,0,0,0,0,0,0,-1,1476,1429,0,0
259,-405,0,0,0,0,0,0,0,0,0,-1,1483,1429,0,0
266,-405,0,0,0,0,0,0,0,0,0,-1,1490,1429,0,0
273,-405,0,0,0,0,0,0,0,0,0,-1,1497,1429,0,0
280,-405,0,0,0,0,0,0,0,0,0,-1,1504,1429,0,0
287,-405,0,0,0,0,0,0,0,0,0,-1,1511,1429,0,0
294,-405,0,0,0,0,0,0,0,0,0,-1,1518,1429,0,0
301,-405,0,0,0,0,0,0,0,0,0,-1,1525,1429,0,0
308,-405,0,0,0,0,0,0,0,0,0,-1,1532,1429,0,0
315,-405,0,0,0,0,0,0,0,0,0,-1,1539,1429,0,0
322,-405,0,0,0,0,0,0,0,0,0,-1,1546,1429,0,0
329,-405,0,0,0,0,0,0,0,0,0,-1,1553,1429,0,0
336,-405,0,0,0,0,0,0,0,0,0,-1,1560,1429,0,0
343,-405,0,0,0,0,0,0,0,0,0,-1,1567,1429,0,0
350,-405,0,0,0,0,0,0,0,0,0,-1,1574,1429,0,0
357,-405,0,0,0,0,0,0,0,0,0,-1,1581,1429,0,0
364,-405,0,0,0,0,0,0,0,0,0,-1,1588,1429,0,0
371,-405,0,0,0,0,0,0,0,0,0,-1,1595,1429,0,0
378,-405,0,0,0,0,0,0,0,0,0,-1,1602,1429,0,0
385,-405,0,0,0,0,0,0,0,0,0,-1,1609,1429,0,0
392,-405,0,0,0,0,0,0,0,0,0,-1,1616,1429,0,0
399,-405,0,0,0,0,0,0,0,0,0,-1,1623,1429,0,0
406,-405,0,0,0,0,0,0,0,0,0,-1,1630,1429,0,0
413,-405,0,0,0,0,0,0,0,0,0,-1,1637,1429,0,0
420,-405,0,0,0,0,0,0,0,0,0,-1,1644,1429,0,0
427,-405,0,0,0,0,0,0,0,0,0,-1,1651,1429,0,0
434,-405,0,0,0,0,0,0,0,0,0,-1,1658,1429,0,0
441,-405,0,0,0,0,0,0,0,0,0,-1,1665,1429,0,0
448,-405,0,0,0,0,0,0,0,0,0,-1,1672,1429,0,0
455,-405,0,0,0,0,0,0,0,0,0,-1,1679,1429,0,0
462,-405,0,0,0,0,0,0,0,0,0,-1,1686,1429,0,0
469,-405,0,0,0,0,0,0,0,0,0,-1,1693,1429,0,0
476,-405,0,0,0,0,0,0,0,0,0,-1,1700,1429,0,0
483,-405,0,0,0,0,0,0,0,0,0,-1,1707,1429,0,0
490,-405,0,0,0,0,0,0,0,0,0,-1,1714,1429,0,0
497,-405,0,0,0,0,0,0,0,0,0,-1,1721,1429,0,0
504,-405,0,0,0,0,0,0,0,0,0,-1,1728,1429,0,0
511,-405,0,0,0,0,0,0,0,0,0,-1,1735,1429,0,0
518,-405,0,0,0,0,0,0,0,0,0,-1,1742,1429,0,0
525,-405,31.1563,-1.40942,0,0,0,0,0,0,0,-1,1749,1429,31.1563,1.40937
532,-405,28.156,4.8783,0,0,0,0,0,0,0,-1,1756,1429,28.1561,-4.87833
539,-405,26.5133,3.02454,0,0,0,0,0,0,0,-1,1763,1429,26.5133,-3.0246
546,-405,29.5735,6.53052,0,0,0,0,0,0,0,-1,1770,1429,29.5735,-6.53049
553,-405,28.2911,6.70654,0,0,0,0,0,0,0,-1,1777,1429,28.2912,-6.70656
560,-405,26.9299,7.08472,0,0,0,0,0,0,0,-1,1784,1429,26.9299,-7.08469
567,-405,25.804,7.14661,0,0,0,0,0,0,0,-1,1791,1429,25.8039,-7.14665
574,-405,25.1151,8.07971,0,0,0,0,0,0,0,-1,1798,1429,25.1151,-8.07965
581,-405,23.5055,8.505,0,0,0,0,0,0,0,-1,1805,1429,23.5054,-8.50501
588,-405,21.7491,8.98254,0,0,0,0,0,0,0,-1,1812,1429,21.7491,-8.98254
595,-405,21.6327,10.7795,0,0,0,0,0,0,0,-1,1819,1429,21.6327,-10.7796
602,-405,21.6461,13.9199,0,0,0,0,0,0,0,-1,1826,1429,21.6461,-13.92
609,-405,27.6245,17.4846,0,0,0,0,0,0,0,-1,1833,1429,27.6245,-17.4846
616,-405,27.9207,16.7932,0.00289992,0.0033458,-0.0026782,0.00581033,0.000435398,-0.826924,0.00373688,0.045355,1840,1429,27.9206,-16.7932
623,-405,27.9672,16.1053,0.00209073,0.00202902,-0.00173531,0.00379547,0.000324288,-0.77651,0.00242944,0.0133206,1847,1429,27.9672,-16.1053
630,-405,27.9773,15.5206,0.00166169,0.00120197,-0.00110972,0.00256511,0.000298552,-0.683277,0.00161975,0.0102968,1854,1429,27.9773,-15.5206
637,-405,27.9711,15.0028,0.00146169,0.000634817,-0.000718837,0.00187751,0.000219004,-0.524425,0.00118543,0.0110712,1861,1429,27.9711,-15.0028
644,-405,27.8873,14.5022,0.00139771,0.000407042,-0.000442027,0.00156626,0.00023849,-0.364296,0.000974452,0.0306247,1868,1429,27.8873,-14.5022
651,-405,27.8618,13.9858,0.0014353,0.000365604,-0.000247081,0.00148962,0.000311291,-0.216379,0.000907292,0.0353813,1875,1429,27.8618,-13.9859
658,-405,27.9141,13.4346,0.00147508,0.000458097,-2.50238e-05,0.00147569,0.000457481,-0.0245861,0.000872253,0.0250079,1882,1429,27.914,-13.4345
665,-405,27.9333,12.9022,0.00152879,0.000633052,0.000242103,0.00159004,0.000571804,0.247786,0.000929991,0.0184827,1889,1429,27.9333,-12.9022
672,-405,27.9154,12.3582,0.00155248,0.000933022,0.000594763,0.00191333,0.000572174,0.545338,0.00113401,0.0223654,1896,1429,27.9154,-12.3582
679,-405,27.9525,11.8213,0.00146524,0.00119602,0.00114646,0.00248497,0.000176287,0.726959,0.00160112,0.0229732,1903,1429,27.9525,-11.8213
686,-405,27.7617,11.3124,0.00103156,0.00125698,0.00224532,0.00339241,-0.00110388,0.810476,0.0027057,0.0403717,1910,1429,27.7618,-11.3123
693,-405,27.6028,10.9207,0,0,0,0,0,0,0,-1,1917,1429,27.6028,-10.9206
700,-405,9.1958,4.02026,0,0,0,0,0,0,0,-1,1924,1429,9.19579,-4.02025
707,-405,7.40308,3.83191,0,0,0,0,0,0,0,-1,1931,1429,7.40311,-3.83194
714,-405,7.33252,3.47388,0,0,0,0,0,0,0,-1,1938,1429,7.33255,-3.47383
721,-405,9.23523,0.993896,0,0,0,0,0,0,0,-1,1945,1429,9.23523,-0.993884
728,-405,0,0,0,0,0,0,0,0,0,-1,1952,1429,0,0
735,-405,0,0,0,0,0,0,0,0,0,-1,1959,1429,0,0
742,-405,0,0,0,0,0,0,0,0,0,-1,1966,1429,0,0
749,-405,0,0,0,0,0,0,0,0,0,-1,1973,1429,0,0
756,-405,0,0,0,0,0,0,0,0,0,-1,1980,1429,0,0
763,-405,0,0,0,0,0,0,0,0,0,-1,1987,1429,0,0
770,-405,0,0,0,0,0,0,0,0,0,-1,1994,1429,0,0
777,-405,0,0,0,0,0,0,0,0,0,-1,2001,1429,0,0
784,-405,0,0,0,0,0,0,0,0,0,-1,2008,1429,0,0
791,-405,0,0,0,0,0,0,0,0,0,-1,2015,1429,0,0
798,-405,0,0,0,0,0,0,0,0,0,-1,2022,1429,0,0
805,-405,0,0,0,0,0,0,0,0,0,-1,2029,1429,0,0
812,-405,0,0,0,0,0,0,0,0,0,-1,2036,1429,0,0
-700,-412,0,0,0,0,0,0,0,0,0,-1,524,1436,0,0
-693,-412,0,0,0,0,0,0,0,0,0,-1,531,1436,0,0
-686,-412,0,0,0,0,0,0,0,0,0,-1,538,1436,0,0
-679,-412,0,0,0,0,0,0,0,0,0,-1,545,1436,0,0
-672,-412,0,0,0,0,0,0,0,0,0,-1,552,1436,0,0
-665,-412,0,0,0,0,0,0,0,0,0,-1,559,1436,0,0
-658,-412,0,0,0,0,0,0,0,0,0,-1,566,1436,0,0
-651,-412,0,0,0,0,0,0,0,0,0,-1,573,1436,0,0
-644,-412,0,0,0,0,0,0,0,0,0,-1,580,1436,0,0
-637,-412,0,0,0,0,0,0,0,0,0,-1,587,1436,0,0
-630,-412,0,0,0,0,0,0,0,0,0,-1,594,1436,0,0
-623,-412,0,0,0,0,0,0,0,0,0,-1,601,1436,0,0
-616,-412,0,0,0,0,0,0,0,0,0,-1,608,1436,0,0
-609,-412,0,0,0,0,0,0,0,0,0,-1,615,1436,0,0
-602,-412,-3.72766,-3.50012,0,0,0,0,0,0,0,-1,622,1436,-3.72764,3.50017
-595,-412,-10.3706,0.65564,0,0,0,0,0,0,0,-1,629,1436,-10.3706,-0.655672
-588,-412,-8.17957,1.94934,0,0,0,0,0,0,0,-1,636,1436,-8.17956,-1.94939
-581,-412,-6.60065,-0.0554199,0,0,0,0,0,0,0,-1,643,1436,-6.60063,0.0554733
-574,-412,-8.34131,5.25012,0,0,0,0,0,0,0,-1,650,1436,-8.34129,-5.25012
-567,-412,-7.50354,3.65454,0,0,0,0,0,0,0,-1,657,1436,-7.50356,-3.65452
-560,-412,-8.52448,7.39014,0,0,0,0,0,0,0,-1,664,1436,-8.52447,-7.39019
-553,-412,-7.36761,6.54651,0,0,0,0,0,0,0,-1,671,1436,-7.36763,-6.54654
-546,-412,-11.8582,9.80847,0,0,0,0,0,0,0,-1,678,1436,-11.8582,-9.80843
-539,-412,-11.8756,10.3455,0.0016382,0.00157629,0.000909995,0.00251776,0.00069672,0.768397,0.00150117,0.0246465,685,1436,-11.8756,-10.3454
-532,-412,-11.9227,11.0189,0.00120984,0.00104278,0.000549569,0.00168219,0.000570431,0.70998,0.000987835,0.0142229,692,1436,-11.9227,-11.0189
-525,-412,-11.9473,11.6246,0.00111128,0.000742197,0.000408303,0.00137481,0.000478667,0.573154,0.00080585,0.0150957,699,1436,-11.9473,-11.6246
-518,-412,-11.9473,12.1957,0.00138422,0.000891923,0.00066005,0.00184252,0.000433616,0.606924,0.00111235,0.0152756,706,1436,-11.9473,-12.1957
-511,-412,-11.9979,12.7354,0.00183969,0.00137574,0.00115131,0.00278216,0.00043327,0.685986,0.00172854,0.018215,713,1436,-11.9979,-12.7353
-504,-412,-12.0312,13.3306,0.00247252,0.00211796,0.00184138,0.00414513,0.000445343,0.737408,0.00262759,0.0189076,720,1436,-12.0312,-13.3305
-497,-412,-12.0394,13.9463,0.00330944,0.00318406,0.00277424,0.00602171,0.0004718,0.774101,0.00386681,0.0150025,727,1436,-12.0393,-13.9463
-490,-412,-12.0469,14.5133,0.00440183,0.00465536,0.00401633,0.00854693,0.000510261,0.801174,0.00553571,0.0123815,734,1436,-12.047,-14.5133
-483,-412,-12.049,15.0718,0.00573888,0.00659851,0.00559165,0.0117768,0.000560557,0.823756,0.0076712,0.0101337,741,1436,-12.0489,-15.0718
-476,-412,-11.8464,15.9419,0.00716855,0.00893761,0.00744169,0.0155472,0.000559013,0.844551,0.0101835,0.0417753,748,1436,-11.8465,-15.9419
-469,-412,-11.7139,16.8337,0,0,0,0,0,0,0,-1,755,1436,-11.7139,-16.8337
-462,-412,-8.94659,13.3385,0,0,0,0,0,0,0,-1,762,1436,-8.94657,-13.3385
-455,-412,-8.25006,11.2572,0,0,0,0,0,0,0,-1,769,1436,-8.25007,-11.2572
-448,-412,-7.38086,8.78186,0,0,0,0,0,0,0,-1,776,1436,-7.38088,-8.78183
-441,-412,-8.79523,9.05286,0,0,0,0,0,0,0,-1,783,1436,-8.79521,-9.0529
-434,-412,-10.6305,8.03577,0,0,0,0,0,0,0,-1,790,1436,-10.6305,-8.0358
-427,-412,-10.0004,5.15271,0,0,0,0,0,0,0,-1,797,1436,-10.0004,-5.15266
-420,-412,-10.4468,4.9043,0,0,0,0,0,0,0,-1,804,1436,-10.4468,-4.90429
-413,-412,-11.5704,4.97766,0,0,0,0,0,0,0,-1,811,1436,-11.5704,-4.97771
-406,-412,-13.1968,5.70093,0,0,0,0,0,0,0,-1,818,1436,-13.1968,-5.70096
-399,-412,-10.5506,0.771973,0,0,0,0,0,0,0,-1,825,1436,-10.5506,-0.771954
-392,-412,0,0,0,0,0,0,0,0,0,-1,832,1436,0,0
-385,-412,0,0,0,0,0,0,0,0,0,-1,839,1436,0,0
-378,-412,0,0,0,0,0,0,0,0,0,-1,846,1436,0,0
-371,-412,0,0,0,0,0,0,0,0,0,-1,853,1436,0,0
-364,-412,0,0,0,0,0,0,0,0,0,-1,860,1436,0,0
-357,-412,0,0,0,0,0,0,0,0,0,-1,867,1436,0,0
-350,-412,0,0,0,0,0,0,0,0,0,-1,874,1436,0,0
-343,-412,0,0,0,0,0,0,0,0,0,-1,881,1436,0,0
-336,-412,0,0,0,0,0,0,0,0,0,-1,888,1436,0,0
-329,-412,0,0,0,0,0,0,0,0,0,-1,895,1436,0,0
-322,-412,0,0,0,0,0,0,0,0,0,-1,902,1436,0,0
-315,-412,0,0,0,0,0,0,0,0,0,-1,909,1436,0,0
-308,-412,0,0,0,0,0,0,0,0,0,-1,916,1436,0,0
-301,-412,0,0,0,0,0,0,0,0,0,-1,923,1436,0,0
-294,-412,0,0,0,0,0,0,0,0,0,-1,930,1436,0,0
-287,-412,0,0,0,0,0,0,0,0,0,-1,937,1436,0,0
-280,-412,0,0,0,0,0,0,0,0,0,-1,944,1436,0,0
-273,-412,0,0,0,0,0,0,0,0,0,-1,951,1436,0,0
-266,-412,0,0,0,0,0,0,0,0,0,-1,958,1436,0,0
-259,-412,0,0,0,0,0,0,0,0,0,-1,965,1436,0,0
-252,-412,0,0,0,0,0,0,0,0,0,-1,972,1436,0,0
-245,-412,0,0,0,0,0,0,0,0,0,-1,979,1436,0,0
-238,-412,0,0,0,0,0,0,0,0,0,-1,986,1436,0,0
-231,-412,0,0,0,0,0,0,0,0,0,-1,993,1436,0,0
-224,-412,0,0,0,0,0,0,0,0,0,-1,1000,1436,0,0
-217,-412,0,0,0,0,0,0,0,0,0,-1,1007,1436,0,0
-210,-412,0,0,0,0,0,0,0,0,0,-1,1014,1436,0,0
-203,-412,0,0,0,0,0,0,0,0,0,-1,1021,1436,0,0
-196,-412,0,0,0,0,0,0,0,0,0,-1,1028,1436,0,0
-189,-412,0,0,0,0,0,0,0,0,0,-1,1035,1436,0,0
-182,-412,0,0,0,0,0,0,0,0,0,-1,1042,1436,0,0
-175,-412,0,0,0,0,0,0,0,0,0,-1,1049,1436,0,0
-168,-412,0,0,0,0,0,0,0,0,0,-1,1056,1436,0,0
-161,-412,0,0,0,0,0,0,0,0,0,-1,1063,1436,0,0
-154,-412,0,0,0,0,0,0,0,0,0,-1,1070,1436,0,0
-147,-412,0,0,0,0,0,0,0,0,0,-1,1077,1436,0,0
-140,-412,0,0,0,0,0,0,0,0,0,-1,1084,1436,0,0
-133,-412,0,0,0,0,0,0,0,0,0,-1,1091,1436,0,0
-126,-412,0,0,0,0,0,0,0,0,0,-1,1098,1436,0,0
-119,-412,0,0,0,0,0,0,0,0,0,-1,1105,1436,0,0
-112,-412,0,0,0,0,0,0,0,0,0,-1,1112,1436,0,0
-105,-412,0,0,0,0,0,0,0,0,0,-1,1119,1436,0,0
-98,-412,0,0,0,0,0,0,0,0,0,-1,1126,1436,0,0
-91,-412,0,0,0,0,0,0,0,0,0,-1,1133,1436,0,0
-84,-412,0,0,0,0,0,0,0,0,0,-1,1140,1436,0,0
-77,-412,0,0,0,0,0,0,0,0,0,-1,1147,1436,0,0
-70,-412,0,0,0,0,0,0,0,0,0,-1,1154,1436,0,0
-63,-412,0,0,0,0,0,0,0,0,0,-1,1161,1436,0,0
-56,-412,0,0,0,0,0,0,0,0,0,-1,1168,1436,0,0
-49,-412,0,0,0,0,0,0,0,0,0,-1,1175,1436,0,0
-42,-412,0,0,0,0,0,0,0,0,0,-1,1182,1436,0,0
-35,-412,0,0,0,0,0,0,0,0,0,-1,1189,1436,0,0
-28,-412,0,0,0,0,0,0,0,0,0,-1,1196,1436,0,0
-21,-412,0,0,0,0,0,0,0,0,0,-1,1203,1436,0,0
-14,-412,0,0,0,0,0,0,0,0,0,-1,1210,1436,0,0
-7,-412,0,0,0,0,0,0,0,0,0,-1,1217,1436,0,0
0,-412,0,0,0,0,0,0,0,0,0,-1,1224,1436,0,0
7,-412,0,0,0,0,0,0,0,0,0,-1,1231,1436,0,0
14,-412,0,0,0,0,0,0,0,0,0,-1,1238,1436,0,0
21,-412,0,0,0,0,0,0,0,0,0,-1,1245,1436,0,0
28,-412,0,0,0,0,0,0,0,0,0,-1,1252,1436,0,0
35,-412,0,0,0,0,0,0,0,0,0,-1,1259,1436,0,0
42,-412,0,0,0,0,0,0,0,0,0,-1,1266,1436,0,0
49,-412,0,0,0,0,0,0,0,0,0,-1,1273,1436,0,0
56,-412,0,0,0,0,0,0,0,0,0,-1,1280,1436,0,0
63,-412,0,0,0,0,0,0,0,0,0,-1,1287,1436,0,0
70,-412,0,0,0,0,0,0,0,0,0,-1,1294,1436,0,0
77,-412,0,0,0,0,0,0,0,0,0,-1,1301,1436,0,0
84,-412,0,0,0,0,0,0,0,0,0,-1,1308,1436,0,0
91,-412,0,0,0,0,0,0,0,0,0,-1,1315,1436,0,0
98,-412,0,0,0,0,0,0,0,0,0,-1,1322,1436,0,0
105,-412,0,0,0,0,0,0,0,0,0,-1,1329,1436,0,0
112,-412,0,0,0,0,0,0,0,0,0,-1,1336,1436,0,0
119,-412,0,0,0,0,0,0,0,0,0,-1,1343,1436,0,0
126,-412,0,0,0,0,0,0,0,0,0,-1,1350,1436,0,0
133,-412,0,0,0,0,0,0,0,0,0,-1,1357,1436,0,0
140,-412,0,0,0,0,0,0,0,0,0,-1,1364,1436,0,0
147,-412,0,0,0,0,0,0,0,0,0,-1,1371,1436,0,0
154,-412,0,0,0,0,0,0,0,0,0,-1,1378,1436,0,0
161,-412,0,0,0,0,0,0,0,0,0,-1,1385,1436,0,0
168,-412,0,0,0,0,0,0,0,0,0,-1,1392,1436,0,0
175,-412,0,0,0,0,0,0,0,0,0,-1,1399,1436,0,0
182,-412,0,0,0,0,0,0,0,0,0,-1,1406,1436,0,0
189,-412,0,0,0,0,0,0,0,0,0,-1,1413,1436,0,0
196,-412,0,0,0,0,0,0,0,0,0,-1,1420,1436,0,0
203,-412,0,0,0,0,0,0,0,0,0,-1,1427,1436,0,0
210,-412,0,0,0,0,0,0,0,0,0,-1,1434,1436,0,0
217,-412,0,0,0,0,0,0,0,0,0,-1,1441,1436,0,0
224,-412,0,0,0,0,0,0,0,0,0,-1,1448,1436,0,0
231,-412,0,0,0,0,0,0,0,0,0,-1,1455,1436,0,0
238,-412,0,0,0,0,0,0,0,0,0,-1,1462,1436,0,0
245,-412,0,0,0,0,0,0,0,0,0,-1,1469,1436,0,0
252,-412,0,0,0,0,0,0,0,0,0,-1,1476,1436,0,0
259,-412,0,0,0,0,0,0,0,0,0,-1,1483,1436,0,0
266,-412,0,0,0,0,0,0,0,0,0,-1,1490,1436,0,0
273,-412,0,0,0,0,0,0,0,0,0,-1,1497,1436,0,0
280,-412,0,0,0,0,0,0,0,0,0,-1,1504,1436,0,0
287,-412,0,0,0,0,0,0,0,0,0,-1,1511,1436,0,0
294,-412,0,0,0,0,0,0,0,0,0,-1,1518,1436,0,0
301,-412,0,0,0,0,0,0,0,0,0,-1,1525,1436,0,0
308,-412,0,0,0,0,0,0,0,0,0,-1,1532,1436,0,0
315,-412,0,0,0,0,0,0,0,0,0,-1,1539,1436,0,0
322,-412,0,0,0,0,0,0,0,0,0,-1,1546,1436,0,0
329,-412,0,0,0,0,0,0,0,0,0,-1,1553,1436,0,0
336,-412,0,0,0,0,0,0,0,0,0,-1,1560,1436,0,0
343,-412,0,0,0,0,0,0,0,0,0,-1,1567,1436,0,0
350,-412,0,0,0,0,0,0,0,0,0,-1,1574,1436,0,0
357,-412,0,0,0,0,0,0,0,0,0,-1,1581,1436,0,0
364,-412,0,0,0,0,0,0,0,0,0,-1,1588,1436,0,0
371,-412,0,0,0,0,0,0,0,0,0,-1,1595,1436,0,0
378,-412,0,0,0,0,0,0,0,0,0,-1,1602,1436,0,0
385,-412,0,0,0,0,0,0,0,0,0,-1,1609,1436,0,0
392,-412,0,0,0,0,0,0,0,0,0,-1,1616,1436,0,0
399,-412,0,0,0,0,0,0,0,0,0,-1,1623,1436,0,0
406,-412,0,0,0,0,0,0,0,0,0,-1,1630,1436,0,0
413,-412,0,0,0,0,0,0,0,0,0,-1,1637,1436,0,0
420,-412,0,0,0,0,0,0,0,0,0,-1,1644,1436,0,0
427,-412,0,0,0,0,0,0,0,0,0,-1,1651,1436,0,0
434,-412,0,0,0,0,0,0,0,0,0,-1,1658,1436,0,0
441,-412,0,0,0,0,0,0,0,0,0,-1,1665,1436,0,0
448,-412,0,0,0,0,0,0,0,0,0,-1,1672,1436,0,0
455,-412,0,0,0,0,0,0,0,0,0,-1,1679,1436,0,0
462,-412,0,0,0,0,0,0,0,0,0,-1,1686,1436,0,0
469,-412,0,0,0,0,0,0,0,0,0,-1,1693,1436,0,0
476,-412,0,0,0,0,0,0,0,0,0,-1,1700,1436,0,0
483,-412,0,0,0,0,0,0,0,0,0,-1,1707,1436,0,0
490,-412,0,0,0,0,0,0,0,0,0,-1,1714,1436,0,0
497,-412,0,0,0,0,0,0,0,0,0,-1,1721,1436,0,0
504,-412,0,0,0,0,0,0,0,0,0,-1,1728,1436,0,0
511,-412,0,0,0,0,0,0,0,0,0,-1,1735,1436,0,0
518,-412,30.1038,-2.43384,0,0,0,0,0,0,0,-1,1742,1436,30.1038,2.43383
525,-412,29.5283,-1.42493,0,0,0,0,0,0,0,-1,1749,1436,29.5283,1.42495
532,-412,28.8533,-0.386597,0,0,0,0,0,0,0,-1,1756,1436,28.8533,0.386632
539,-412,25.8654,2.74683,0,0,0,0,0,0,0,-1,1763,1436,25.8654,-2.74685
546,-412,25.4265,2.4342,0,0,0,0,0,0,0,-1,1770,1436,25.4265,-2.4342
553,-412,26.3595,7.49255,0,0,0,0,0,0,0,-1,1777,1436,26.3595,-7.4925
560,-412,24.9116,7.94324,0,0,0,0,0,0,0,-1,1784,1436,24.9116,-7.94327
567,-412,23.668,7.94531,0,0,0,0,0,0,0,-1,1791,1436,23.6679,-7.94534
574,-412,23.0142,9.17236,0,0,0,0,0,0,0,-1,1798,1436,23.0141,-9.17235
581,-412,22.2615,10.0349,0,0,0,0,0,0,0,-1,1805,1436,22.2615,-10.0349
588,-412,21.6893,10.8069,0,0,0,0,0,0,0,-1,1812,1436,21.6893,-10.8069
595,-412,21.5137,14.3157,0,0,0,0,0,0,0,-1,1819,1436,21.5137,-14.3157
602,-412,27.3036,18.0129,0,0,0,0,0,0,0,-1,1826,1436,27.3035,-18.0129
609,-412,27.4597,17.2284,0.00377881,0.00496141,-0.0036538,0.00807144,0.00066877,-0.865618,0.00517247,0.0369678,1833,1436,27.4597,-17.2284
616,-412,27.5122,16.6508,0.00282984,0.00322179,-0.00252663,0.00556004,0.000491595,-0.824102,0.00355418,0.0123186,1840,1436,27.5122,-16.6508
623,-412,27.4603,16.1078,0.00221303,0.00208259,-0.00174225,0.00389128,0.000404337,-0.766689,0.00247046,0.00921542,1847,1436,27.4603,-16.1078
630,-412,27.4481,15.5405,0.00189293,0.00127304,-0.00119213,0.00281475,0.000351215,-0.658218,0.00177107,0.0117887,1854,1436,27.4482,-15.5406
637,-412,27.4355,15.0084,0.00171036,0.000700795,-0.000796283,0.00214838,0.000262778,-0.502902,0.00135319,0.0137634,1861,1436,27.4355,-15.0085
644,-412,27.4132,14.4852,0.0016748,0.000481461,-0.000512623,0.00186476,0.000291494,-0.354889,0.0011583,0.0146233,1868,1436,27.4132,-14.4852
651,-412,27.395,13.9348,0.00173496,0.000459397,-0.000340289,0.00182006,0.000374294,-0.245064,0.00110985,0.026976,1875,1436,27.395,-13.9349
658,-412,27.3668,13.4248,0.00178513,0.000584578,-0.000152196,0.00180412,0.000565585,-0.124155,0.00106549,0.0185072,1882,1436,27.3668,-13.4248
665,-412,27.3937,12.9211,0.00182216,0.000817164,9.14529e-05,0.00183042,0.00080891,0.0900129,0.00105916,0.0229949,1889,1436,27.3937,-12.9212
672,-412,27.4012,12.3667,0.0017742,0.00123979,0.000408176,0.00199486,0.00101914,0.495585,0.00115182,0.0291094,1896,1436,27.4013,-12.3667
679,-412,27.4886,11.8267,0.0015237,0.00156806,0.000986346,0.00253248,0.000559287,0.79664,0.00153621,0.0427662,1903,1436,27.4886,-11.8266
686,-412,27.4508,11.2036,0,0,0,0,0,0,0,-1,1910,1436,27.4508,-11.2036
693,-412,11.9346,6.02344,0,0,0,0,0,0,0,-1,1917,1436,11.9346,-6.02343
700,-412,8.82764,5.8844,0,0,0,0,0,0,0,-1,1924,1436,8.82761,-5.88444
707,-412,6.59998,1.68994,0,0,0,0,0,0,0,-1,1931,1436,6.60002,-1.68995
714,-412,4.77283,-2.39832,0,0,0,0,0,0,0,-1,1938,1436,4.77288,2.39835
721,-412,0,0,0,0,0,0,0,0,0,-1,1945,1436,0,0
728,-412,0,0,0,0,0,0,0,0,0,-1,1952,1436,0,0
735,-412,0,0,0,0,0,0,0,0,0,-1,1959,1436,0,0
742,-412,0,0,0,0,0,0,0,0,0,-1,1966,1436,0,0
749,-412,0,0,0,0,0,0,0,0,0,-1,1973,1436,0,0
756,-412,0,0,0,0,0,0,0,0,0,-1,1980,1436,0,0
763,-412,0,0,0,0,0,0,0,0,0,-1,1987,1436,0,0
770,-412,0,0,0,0,0,0,0,0,0,-1,1994,1436,0,0
777,-412,0,0,0,0,0,0,0,0,0,-1,2001,1436,0,0
784,-412,0,0,0,0,0,0,0,0,0,-1,2008,1436,0,0
791,-412,0,0,0,0,0,0,0,0,0,-1,2015,1436,0,0
798,-412,0,0,0,0,0,0,0,0,0,-1,2022,1436,0,0
805,-412,0,0,0,0,0,0,0,0,0,-1,2029,1436,0,0
812,-412,0,0,0,0,0,0,0,0,0,-1,2036,1436,0,0
-700,-419,0,0,0,0,0,0,0,0,0,-1,524,1443,0,0
-693,-419,0,0,0,0,0,0,0,0,0,-1,531,1443,0,0
-686,-419,0,0,0,0,0,0,0,0,0,-1,538,1443,0,0
-679,-419,0,0,0,0,0,0,0,0,0,-1,545,1443,0,0
-672,-419,0,0,0,0,0,0,0,0,0,-1,552,1443,0,0
-665,-419,0,0,0,0,0,0,0,0,0,-1,559,1443,0,0
-658,-419,0,0,0,0,0,0,0,0,0,-1,566,1443,0,0
-651,-419,0,0,0,0,0,0,0,0,0,-1,573,1443,0,0
-644,-419,0,0,0,0,0,0,0,0,0,-1,580,1443,0,0
-637,-419,0,0,0,0,0,0,0,0,0,-1,587,1443,0,0
-630,-419,0,0,0,0,0,0,0,0,0,-1,594,1443,0,0
-623,-419,0,0,0,0,0,0,0,0,0,-1,601,1443,0,0
-616,-419,0,0,0,0,0,0,0,0,0,-1,608,1443,0,0
-609,-419,0,0,0,0,0,0,0,0,0,-1,615,1443,0,0
-602,-419,0,0,0,0,0,0,0,0,0,-1,622,1443,0,0
-595,-419,-11.4904,-0.622681,0,0,0,0,0,0,0,-1,629,1443,-11.4903,0.622714
-588,-419,-9.09369,0.742432,0,0,0,0,0,0,0,-1,636,1443,-9.09366,-0.742482
-581,-419,-6.39172,2.14673,0,0,0,0,0,0,0,-1,643,1443,-6.39175,-2.14668
-574,-419,-4.09772,3.54773,0,0,0,0,0,0,0,-1,650,1443,-4.09772,-3.54767
-567,-419,-6.14038,3.22498,0,0,0,0,0,0,0,-1,657,1443,-6.14037,-3.22497
-560,-419,-4.52814,5.22253,0,0,0,0,0,0,0,-1,664,1443,-4.52816,-5.22251
-553,-419,-5.08331,6.11829,0,0,0,0,0,0,0,-1,671,1443,-5.08331,-6.1183
-546,-419,-10.3732,9.23279,0,0,0,0,0,0,0,-1,678,1443,-10.3732,-9.23275
-539,-419,-11.2985,10.2677,0,0,0,0,0,0,0,-1,685,1443,-11.2985,-10.2677
-532,-419,-11.3483,11.0355,0.000890003,0.00115373,0.000436726,0.00147806,0.000565666,0.932013,0.000861152,0.0235528,692,1443,-11.3483,-11.0355
-525,-419,-11.3545,11.6665,0.000729678,0.000676358,0.000190043,0.000894922,0.000511114,0.715711,0.000518423,0.013248,699,1443,-11.3545,-11.6665
-518,-419,-11.3597,12.2277,0.000983853,0.000684303,0.000375387,0.00123824,0.000429915,0.595581,0.000725942,0.0169559,706,1443,-11.3598,-12.2277
-511,-419,-11.3841,12.7777,0.00140864,0.00109943,0.000821334,0.00208979,0.000418276,0.692367,0.00127682,0.0194633,713,1443,-11.3841,-12.7777
-504,-419,-11.4218,13.3541,0.00195706,0.00176269,0.00142839,0.00329157,0.000428178,0.751431,0.0020665,0.0193499,720,1443,-11.4217,-13.3541
-497,-419,-11.4534,13.9336,0.00266235,0.00270081,0.0022256,0.00490726,0.000455894,0.789718,0.00313063,0.0133344,727,1443,-11.4534,-13.9335
-490,-419,-11.455,14.504,0.00355413,0.0039669,0.00326957,0.0070366,0.000484431,0.816918,0.00453821,0.0109275,734,1443,-11.455,-14.504
-483,-419,-11.4753,15.0756,0.00464011,0.00560521,0.00455915,0.00970728,0.000538041,0.838123,0.00629984,0.00968182,741,1443,-11.4754,-15.0756
-476,-419,-11.4496,15.71,0.00579375,0.0075577,0.00603531,0.0127751,0.00057631,0.857952,0.00833131,0.0154937,748,1443,-11.4497,-15.71
-469,-419,-11.33,16.5399,0.00726521,0.00994184,0.00786163,0.0165783,0.000628799,0.869707,0.0108486,0.0454572,755,1443,-11.3299,-16.5399
-462,-419,-11.119,17.3711,0,0,0,0,0,0,0,-1,762,1443,-11.119,-17.3711
-455,-419,-7.35645,11.9451,0,0,0,0,0,0,0,-1,769,1443,-7.35646,-11.9451
-448,-419,-7.49109,9.92444,0,0,0,0,0,0,0,-1,776,1443,-7.49109,-9.92442
-441,-419,-7.65527,8.75574,0,0,0,0,0,0,0,-1,783,1443,-7.65525,-8.75568
-434,-419,-11.3724,12.3643,0,0,0,0,0,0,0,-1,790,1443,-11.3724,-12.3643
-427,-419,-8.23193,7.89404,0,0,0,0,0,0,0,-1,797,1443,-8.23193,-7.89404
-420,-419,-8.74091,6.36597,0,0,0,0,0,0,0,-1,804,1443,-8.74089,-6.366
-413,-419,-9.88391,6.53955,0,0,0,0,0,0,0,-1,811,1443,-9.8839,-6.53955
-406,-419,-10.3372,2.75195,0,0,0,0,0,0,0,-1,818,1443,-10.3372,-2.75201
-399,-419,-11.5999,1.40002,0,0,0,0,0,0,0,-1,825,1443,-11.5999,-1.39998
-392,-419,0,0,0,0,0,0,0,0,0,-1,832,1443,0,0
-385,-419,0,0,0,0,0,0,0,0,0,-1,839,1443,0,0
-378,-419,0,0,0,0,0,0,0,0,0,-1,846,1443,0,0
-371,-419,0,0,0,0,0,0,0,0,0,-1,853,1443,0,0
-364,-419,0,0,0,0,0,0,0,0,0,-1,860,1443,0,0
-357,-419,0,0,0,0,0,0,0,0,0,-1,867,1443,0,0
-350,-419,0,0,0,0,0,0,0,0,0,-1,874,1443,0,0
-343,-419,0,0,0,0,0,0,0,0,0,-1,881,1443,0,0
-336,-419,0,0,0,0,0,0,0,0,0,-1,888,1443,0,0
-329,-419,0,0,0,0,0,0,0,0,0,-1,895,1443,0,0
-322,-419,0,0,0,0,0,0,0,0,0,-1,902,1443,0,0
-315,-419,0,0,0,0,0,0,0,0,0,-1,909,1443,0,0
-308,-419,0,0,0,0,0,0,0,0,0,-1,916,1443,0,0
-301,-419,0,0,0,0,0,0,0,0,0,-1,923,1443,0,0
-294,-419,0,0,0,0,0,0,0,0,0,-1,930,1443,0,0
-287,-419,0,0,0,0,0,0,0,0,0,-1,937,1443,0,0
-280,-419,0,0,0,0,0,0,0,0,0,-1,944,1443,0,0
-273,-419,0,0,0,0,0,0,0,0,0,-1,951,1443,0,0
-266,-419,0,0,0,0,0,0,0,0,0,-1,958,1443,0,0
-259,-419,0,0,0,0,0,0,0,0,0,-1,965,1443,0,0
-252,-419,0,0,0,0,0,0,0,0,0,-1,972,1443,0,0
-245,-419,0,0,0,0,0,0,0,0,0,-1,979,1443,0,0
-238,-419,0,0,0,0,0,0,0,0,0,-1,986,1443,0,0
-231,-419,0,0,0,0,0,0,0,0,0,-1,993,1443,0,0
-224,-419,0,0,0,0,0,0,0,0,0,-1,1000,1443,0,0
-217,-419,0,0,0,0,0,0,0,0,0,-1,1007,1443,0,0
-210,-419,0,0,0,0,0,0,0,0,0,-1,1014,1443,0,0
-203,-419,0,0,0,0,0,0,0,0,0,-1,1021,1443,0,0
-196,-419,0,0,0,0,0,0,0,0,0,-1,1028,1443,0,0
-189,-419,0,0,0,0,0,0,0,0,0,-1,1035,1443,0,0
-182,-419,0,0,0,0,0,0,0,0,0,-1,1042,1443,0,0
-175,-419,0,0,0,0,0,0,0,0,0,-1,1049,1443,0,0
-168,-419,0,0,0,0,0,0,0,0,0,-1,1056,1443,0,0
-161,-419,0,0,0,0,0,0,0,0,0,-1,1063,1443,0,0
-154,-419,0,0,0,0,0,0,0,0,0,-1,1070,1443,0,0
-147,-419,0,0,0,0,0,0,0,0,0,-1,1077,1443,0,0
-140,-419,0,0,0,0,0,0,0,0,0,-1,1084,1443,0,0
-133,-419,0,0,0,0,0,0,0,0,0,-1,1091,1443,0,0
-126,-419,0,0,0,0,0,0,0,0,0,-1,1098,1443,0,0
-119,-419,0,0,0,0,0,0,0,0,0,-1,1105,1443,0,0
-112,-419,0,0,0,0,0,0,0,0,0,-1,1112,1443,0,0
-105,-419,0,0,0,0,0,0,0,0,0,-1,1119,1443,0,0
-98,-419,0,0,0,0,0,0,0,0,0,-1,1126,1443,0,0
-91,-419,0,0,0,0,0,0,0,0,0,-1,1133,1443,0,0
-84,-419,0,0,0,0,0,0,0,0,0,-1,1140,1443,0,0
-77,-419,0,0,0,0,0,0,0,0,0,-1,1147,1443,0,0
-70,-419,0,0,0,0,0,0,0,0,0,-1,1154,1443,0,0
-63,-419,0,0,0,0,0,0,0,0,0,-1,1161,1443,0,0
-56,-419,0,0,0,0,0,0,0,0,0,-1,1168,1443,0,0
-49,-419,0,0,0,0,0,0,0,0,0,-1,1175,1443,0,0
-42,-419,0,0,0,0,0,0,0,0,0,-1,1182,1443,0,0
-35,-419,0,0,0,0,0,0,0,0,0,-1,1189,1443,0,0
-28,-419,0,0,0,0,0,0,0,0,0,-1,1196,1443,0,0
-21,-419,0,0,0,0,0,0,0,0,0,-1,1203,1443,0,0
-14,-419,0,0,0,0,0,0,0,0,0,-1,1210,1443,0,0
-7,-419,0,0,0,0,0,0,0,0,0,-1,1217,1443,0,0
0,-419,0,0,0,0,0,0,0,0,0,-1,1224,1443,0,0
7,-419,0,0,0,0,0,0,0,0,0,-1,1231,1443,0,0
14,-419,0,0,0,0,0,0,0,0,0,-1,1238,1443,0,0
21,-419,0,0,0,0,0,0,0,0,0,-1,1245,1443,0,0
28,-419,0,0,0,0,0,0,0,0,0,-1,1252,1443,0,0
35,-419,0,0,0,0,0,0,0,0,0,-1,1259,1443,0,0
42,-419,0,0,0,0,0,0,0,0,0,-1,1266,1443,0,0
49,-419,0,0,0,0,0,0,0,0,0,-1,1273,1443,0,0
56,-419,0,0,0,0,0,0,0,0,0,-1,1280,1443,0,0
63,-419,0,0,0,0,0,0,0,0,0,-1,1287,1443,0,0
70,-419,0,0,0,0,0,0,0,0,0,-1,1294,1443,0,0
77,-419,0,0,0,0,0,0,0,0,0,-1,1301,1443,0,0
84,-419,0,0,0,0,0,0,0,0,0,-1,1308,1443,0,0
91,-419,0,0,0,0,0,0,0,0,0,-1,1315,1443,0,0
98,-419,0,0,0,0,0,0,0,0,0,-1,1322,1443,0,0
105,-419,0,0,0,0,0,0,0,0,0,-1,1329,1443,0,0
112,-419,0,0,0,0,0,0,0,0,0,-1,1336,1443,0,0
119,-419,0,0,0,0,0,0,0,0,0,-1,1343,1443,0,0
126,-419,0,0,0,0,0,0,0,0,0,-1,1350,1443,0,0
133,-419,0,0,0,0,0,0,0,0,0,-1,1357,1443,0,0
140,-419,0,0,0,0,0,0,0,0,0,-1,1364,1443,0,0
147,-419,0,0,0,0,0,0,0,0,0,-1,1371,1443,0,0
154,-419,0,0,0,0,0,0,0,0,0,-1,1378,1443,0,0
161,-419,0,0,0,0,0,0,0,0,0,-1,1385,1443,0,0
168,-419,0,0,0,0,0,0,0,0,0,-1,1392,1443,0,0
175,-419,0,0,0,0,0,0,0,0,0,-1,1399,1443,0,0
182,-419,0,0,0,0,0,0,0,0,0,-1,1406,1443,0,0
189,-419,0,0,0,0,0,0,0,0,0,-1,1413,1443,0,0
196,-419,0,0,0,0,0,0,0,0,0,-1,1420,1443,0,0
203,-419,0,0,0,0,0,0,0,0,0,-1,1427,1443,0,0
210,-419,0,0,0,0,0,0,0,0,0,-1,1434,1443,0,0
217,-419,0,0,0,0,0,0,0,0,0,-1,1441,1443,0,0
224,-419,0,0,0,0,0,0,0,0,0,-1,1448,1443,0,0
231,-419,0,0,0,0,0,0,0,0,0,-1,1455,1443,0,0
238,-419,0,0,0,0,0,0,0,0,0,-1,1462,1443,0,0
245,-419,0,0,0,0,0,0,0,0,0,-1,1469,1443,0,0
252,-419,0,0,0,0,0,0,0,0,0,-1,1476,1443,0,0
259,-419,0,0,0,0,0,0,0,0,0,-1,1483,1443,0,0
266,-419,0,0,0,0,0,0,0,0,0,-1,1490,1443,0,0
273,-419,0,0,0,0,0,0,0,0,0,-1,1497,1443,0,0
280,-419,0,0,0,0,0,0,0,0,0,-1,1504,1443,0,0
287,-419,0,0,0,0,0,0,0,0,0,-1,1511,1443,0,0
294,-419,0,0,0,0,0,0,0,0,0,-1,1518,1443,0,0
301,-419,0,0,0,0,0,0,0,0,0,-1,1525,1443,0,0
308,-419,0,0,0,0,0,0,0,0,0,-1,1532,1443,0,0
315,-419,0,0,0,0,0,0,0,0,0,-1,1539,1443,0,0
322,-419,0,0,0,0,0,0,0,0,0,-1,1546,1443,0,0
329,-419,0,0,0,0,0,0,0,0,0,-1,1553,1443,0,0
336,-419,0,0,0,0,0,0,0,0,0,-1,1560,1443,0,0
343,-419,0,0,0,0,0,0,0,0,0,-1,1567,1443,0,0
350,-419,0,0,0,0,0,0,0,0,0,-1,1574,1443,0,0
357,-419,0,0,0,0,0,0,0,0,0,-1,1581,1443,0,0
364,-419,0,0,0,0,0,0,0,0,0,-1,1588,1443,0,0
371,-419,0,0,0,0,0,0,0,0,0,-1,1595,1443,0,0
378,-419,0,0,0,0,0,0,0,0,0,-1,1602,1443,0,0
385,-419,0,0,0,0,0,0,0,0,0,-1,1609,1443,0,0
392,-419,0,0,0,0,0,0,0,0,0,-1,1616,1443,0,0
399,-419,0,0,0,0,0,0,0,0,0,-1,1623,1443,0,0
406,-419,0,0,0,0,0,0,0,0,0,-1,1630,1443,0,0
413,-419,0,0,0,0,0,0,0,0,0,-1,1637,1443,0,0
420,-419,0,0,0,0,0,0,0,0,0,-1,1644,1443,0,0
427,-419,0,0,0,0,0,0,0,0,0,-1,1651,1443,0,0
434,-419,0,0,0,0,0,0,0,0,0,-1,1658,1443,0,0
441,-419,0,0,0,0,0,0,0,0,0,-1,1665,1443,0,0
448,-419,0,0,0,0,0,0,0,0,0,-1,1672,1443,0,0
455,-419,0,0,0,0,0,0,0,0,0,-1,1679,1443,0,0
462,-419,0,0,0,0,0,0,0,0,0,-1,1686,1443,0,0
469,-419,0,0,0,0,0,0,0,0,0,-1,1693,1443,0,0
476,-419,0,0,0,0,0,0,0,0,0,-1,1700,1443,0,0
483,-419,0,0,0,0,0,0,0,0,0,-1,1707,1443,0,0
490,-419,0,0,0,0,0,0,0,0,0,-1,1714,1443,0,0
497,-419,0,0,0,0,0,0,0,0,0,-1,1721,1443,0,0
504,-419,0,0,0,0,0,0,0,0,0,-1,1728,1443,0,0
511,-419,20.3005,3.7959,0,0,0,0,0,0,0,-1,1735,1443,20.3005,-3.79584
518,-419,21.3154,2.03027,0,0,0,0,0,0,0,-1,1742,1443,21.3155,-2.03029
525,-419,28.3439,-1.24475,0,0,0,0,0,0,0,-1,1749,1443,28.3438,1.24471
532,-419,27.5902,-0.272583,0,0,0,0,0,0,0,-1,1756,1443,27.5902,0.272526
539,-419,26.5278,1.60583,0,0,0,0,0,0,0,-1,1763,1443,26.5279,-1.60579
546,-419,24.9509,2.77539,0,0,0,0,0,0,0,-1,1770,1443,24.9509,-2.77537
553,-419,24.118,3.75525,0,0,0,0,0,0,0,-1,1777,1443,24.1181,-3.75526
560,-419,11.8199,8.26343,0,0,0,0,0,0,0,-1,1784,1443,11.82,-8.26341
567,-419,21.5143,8.74719,0,0,0,0,0,0,0,-1,1791,1443,21.5143,-8.74722
574,-419,19.5886,6.46155,0,0,0,0,0,0,0,-1,1798,1443,19.5886,-6.46157
581,-419,20.7926,11.4265,0,0,0,0,0,0,0,-1,1805,1443,20.7926,-11.4265
588,-419,19.4242,12.5363,0,0,0,0,0,0,0,-1,1812,1443,19.4242,-12.5362
595,-419,22.9375,16.0151,0,0,0,0,0,0,0,-1,1819,1443,22.9375,-16.0152
602,-419,26.9689,17.7911,0,0,0,0,0,0,0,-1,1826,1443,26.9688,-17.7912
609,-419,26.9662,17.2167,0.00345118,0.00429627,-0.00328148,0.00718229,0.000565154,-0.849429,0.00461137,0.0208656,1833,1443,26.9662,-17.2167
616,-419,26.9498,16.7026,0.00272811,0.00291693,-0.00235735,0.00518176,0.000463285,-0.805412,0.0033109,0.0127691,1840,1443,26.9498,-16.7027
623,-419,26.9419,16.1471,0.00226792,0.00193333,-0.00166872,0.00377771,0.00042354,-0.735439,0.00238984,0.00991983,1847,1443,26.9418,-16.1471
630,-419,26.9291,15.5854,0.0020576,0.00117529,-0.00117241,0.00286911,0.000363779,-0.605451,0.00180375,0.0126766,1854,1443,26.9291,-15.5854
637,-419,26.903,15.0665,0.0019321,0.00063371,-0.000779711,0.0022975,0.00026831,-0.438242,0.00145053,0.013306,1861,1443,26.903,-15.0665
644,-419,26.8884,14.5416,0.00196351,0.000444177,-0.000500109,0.00211335,0.000294337,-0.291103,0.00132176,0.011214,1868,1443,26.8885,-14.5416
651,-419,26.8608,14.0133,0.00208417,0.000458283,-0.000354533,0.00215812,0.000384338,-0.205621,0.00132928,0.0122058,1875,1443,26.8608,-14.0134
658,-419,26.8387,13.4619,0.00220782,0.000633113,-0.000220291,0.00223805,0.000602876,-0.136406,0.00133717,0.0138796,1882,1443,26.8388,-13.4619
665,-419,26.8575,12.9323,0.00229787,0.000950932,-2.84697e-05,0.00229847,0.00095033,-0.0211241,0.00133363,0.0211233,1889,1443,26.8575,-12.9323
672,-419,26.877,12.3242,0.00224775,0.00155015,0.000197536,0.0022998,0.0014981,0.257647,0.00134793,0.0315994,1896,1443,26.877,-12.3242
679,-419,27.0291,11.7604,0,0,0,0,0,0,0,-1,1903,1443,27.029,-11.7604
686,-419,17.4127,8.03076,0,0,0,0,0,0,0,-1,1910,1443,17.4127,-8.03071
693,-419,8.76086,5.60535,0,0,0,0,0,0,0,-1,1917,1443,8.76091,-5.6054
700,-419,11.0498,4.85156,0,0,0,0,0,0,0,-1,1924,1443,11.0498,-4.85153
707,-419,9.5752,1.80042,0,0,0,0,0,0,0,-1,1931,1443,9.57523,-1.80037
714,-419,5.77576,-1.25061,0,0,0,0,0,0,0,-1,1938,1443,5.7757,1.25056
721,-419,0,0,0,0,0,0,0,0,0,-1,1945,1443,0,0
728,-419,0,0,0,0,0,0,0,0,0,-1,1952,1443,0,0
735,-419,0,0,0,0,0,0,0,0,0,-1,1959,1443,0,0
742,-419,0,0,0,0,0,0,0,0,0,-1,1966,1443,0,0
749,-419,0,0,0,0,0,0,0,0,0,-1,1973,1443,0,0
756,-419,0,0,0,0,0,0,0,0,0,-1,1980,1443,0,0
763,-419,0,0,0,0,0,0,0,0,0,-1,1987,1443,0,0
770,-419,0,0,0,0,0,0,0,0,0,-1,1994,1443,0,0
777,-419,0,0,0,0,0,0,0,0,0,-1,2001,1443,0,0
784,-419,0,0,0,0,0,0,0,0,0,-1,2008,1443,0,0
791,-419,0,0,0,0,0,0,0,0,0,-1,2015,1443,0,0
798,-419,0,0,0,0,0,0,0,0,0,-1,2022,1443,0,0
805,-419,0,0,0,0,0,0,0,0,0,-1,2029,1443,0,0
812,-419,0,0,0,0,0,0,0,0,0,-1,2036,1443,0,0
-700,-426,0,0,0,0,0,0,0,0,0,-1,524,1450,0,0
-693,-426,0,0,0,0,0,0,0,0,0,-1,531,1450,0,0
-686,-426,0,0,0,0,0,0,0,0,0,-1,538,1450,0,0
-679,-426,0,0,0,0,0,0,0,0,0,-1,545,1450,0,0
-672,-426,0,0,0,0,0,0,0,0,0,-1,552,1450,0,0
-665,-426,0,0,0,0,0,0,0,0,0,-1,559,1450,0,0
-658,-426,0,0,0,0,0,0,0,0,0,-1,566,1450,0,0
-651,-426,0,0,0,0,0,0,0,0,0,-1,573,1450,0,0
-644,-426,0,0,0,0,0,0,0,0,0,-1,580,1450,0,0
-637,-426,0,0,0,0,0,0,0,0,0,-1,587,1450,0,0
-630,-426,0,0,0,0,0,0,0,0,0,-1,594,1450,0,0
-623,-426,0,0,0,0,0,0,0,0,0,-1,601,1450,0,0
-616,-426,0,0,0,0,0,0,0,0,0,-1,608,1450,0,0
-609,-426,0,0,0,0,0,0,0,0,0,-1,615,1450,0,0
-602,-426,0,0,0,0,0,0,0,0,0,-1,622,1450,0,0
-595,-426,0,0,0,0,0,0,0,0,0,-1,629,1450,0,0
-588,-426,-10.184,-0.554321,0,0,0,0,0,0,0,-1,636,1450,-10.184,0.554321
-581,-426,-7.3349,1.48157,0,0,0,0,0,0,0,-1,643,1450,-7.33491,-1.48152
-574,-426,-5.02856,2.89319,0,0,0,0,0,0,0,-1,650,1450,-5.02858,-2.89319
-567,-426,-3.04797,1.72644,0,0,0,0,0,0,0,-1,657,1450,-3.04797,-1.72639
-560,-426,-5.55682,3.44397,0,0,0,0,0,0,0,-1,664,1450,-5.55684,-3.44399
-553,-426,-4.67017,6.66614,0,0,0,0,0,0,0,-1,671,1450,-4.67015,-6.66619
-546,-426,-7.58752,8.28882,0,0,0,0,0,0,0,-1,678,1450,-7.58752,-8.28878
-539,-426,-10.3243,10.6187,0,0,0,0,0,0,0,-1,685,1450,-10.3243,-10.6186
-532,-426,-10.6309,11.1124,0.000629662,0.00109843,0.000286695,0.00123436,0.000493735,1.12807,0.000717392,0.0487245,692,1450,-10.6309,-11.1124
-525,-426,-10.8141,11.6205,0.000449415,0.000464415,-3.64381e-05,0.000494117,0.000419713,-0.886893,0.000307624,0.0196553,699,1450,-10.8141,-11.6205
-518,-426,-10.79,12.2461,0.000706054,0.000331745,9.10748e-05,0.000727037,0.000310761,0.226447,0.000421226,0.0165507,706,1450,-10.79,-12.2461
-511,-426,-10.7955,12.8367,0.00110309,0.00069797,0.000502913,0.0014427,0.000358355,0.593952,0.000867385,0.0164551,713,1450,-10.7955,-12.8367
-504,-426,-10.8262,13.3861,0.00156218,0.00128479,0.00103474,0.00246748,0.000379496,0.718776,0.00153421,0.0158152,720,1450,-10.8262,-13.3861
-497,-426,-10.8423,13.9443,0.00212098,0.00210185,0.00170343,0.00381487,0.000407956,0.782591,0.00241876,0.0121805,727,1450,-10.8424,-13.9443
-490,-426,-10.8679,14.5313,0.00280842,0.00318185,0.00256253,0.00556446,0.000425812,0.821766,0.00357616,0.0123386,734,1450,-10.8679,-14.5312
-483,-426,-10.8945,15.1077,0.00364889,0.00455815,0.00359981,0.00773193,0.000475114,0.848212,0.00500377,0.0119968,741,1450,-10.8945,-15.1077
-476,-426,-10.907,15.6799,0.00456485,0.0061912,0.00479154,0.0102381,0.000517972,0.869452,0.00665945,0.00906061,748,1450,-10.9071,-15.6799
-469,-426,-10.9373,16.2506,0.0056818,0.00810901,0.0061903,0.0132035,0.000587263,0.882195,0.00861329,0.0110154,755,1450,-10.9373,-16.2506
-462,-426,-10.8796,16.8529,0,0,0,0,0,0,0,-1,762,1450,-10.8796,-16.8529
-455,-426,-10.215,17.7007,0,0,0,0,0,0,0,-1,769,1450,-10.215,-17.7007
-448,-426,-6.46545,10.1322,0,0,0,0,0,0,0,-1,776,1450,-6.46543,-10.1322
-441,-426,-10.9547,11.4747,0,0,0,0,0,0,0,-1,783,1450,-10.9546,-11.4748
-434,-426,-10.4998,13.6189,0,0,0,0,0,0,0,-1,790,1450,-10.4997,-13.6189
-427,-426,-9.36627,13.7396,0,0,0,0,0,0,0,-1,797,1450,-9.36628,-13.7396
-420,-426,-5.33765,7.95044,0,0,0,0,0,0,0,-1,804,1450,-5.33766,-7.95041
-413,-426,-10.1148,5.0415,0,0,0,0,0,0,0,-1,811,1450,-10.1148,-5.04152
-406,-426,-11.4199,3.6438,0,0,0,0,0,0,0,-1,818,1450,-11.4198,-3.64382
-399,-426,-12.7595,2.29004,0,0,0,0,0,0,0,-1,825,1450,-12.7595,-2.29003
-392,-426,-12.4147,0.537354,0,0,0,0,0,0,0,-1,832,1450,-12.4147,-0.53731
-385,-426,0,0,0,0,0,0,0,0,0,-1,839,1450,0,0
-378,-426,0,0,0,0,0,0,0,0,0,-1,846,1450,0,0
-371,-426,0,0,0,0,0,0,0,0,0,-1,853,1450,0,0
-364,-426,0,0,0,0,0,0,0,0,0,-1,860,1450,0,0
-357,-426,0,0,0,0,0,0,0,0,0,-1,867,1450,0,0
-350,-426,0,0,0,0,0,0,0,0,0,-1,874,1450,0,0
-343,-426,0,0,0,0,0,0,0,0,0,-1,881,1450,0,0
-336,-426,0,0,0,0,0,0,0,0,0,-1,888,1450,0,0
-329,-426,0,0,0,0,0,0,0,0,0,-1,895,1450,0,0
-322,-426,0,0,0,0,0,0,0,0,0,-1,902,1450,0,0
-315,-426,0,0,0,0,0,0,0,0,0,-1,909,1450,0,0
-308,-426,0,0,0,0,0,0,0,0,0,-1,916,1450,0,0
-301,-426,0,0,0,0,0,0,0,0,0,-1,923,1450,0,0
-294,-426,0,0,0,0,0,0,0,0,0,-1,930,1450,0,0
-287,-426,0,0,0,0,0,0,0,0,0,-1,937,1450,0,0
-280,-426,0,0,0,0,0,0,0,0,0,-1,944,1450,0,0
-273,-426,0,0,0,0,0,0,0,0,0,-1,951,1450,0,0
-266,-426,0,0,0,0,0,0,0,0,0,-1,958,1450,0,0
-259,-426,0,0,0,0,0,0,0,0,0,-1,965,1450,0,0
-252,-426,0,0,0,0,0,0,0,0,0,-1,972,1450,0,0
-245,-426,0,0,0,0,0,0,0,0,0,-1,979,1450,0,0
-238,-426,0,0,0,0,0,0,0,0,0,-1,986,1450,0,0
-231,-426,0,0,0,0,0,0,0,0,0,-1,993,1450,0,0
-224,-426,0,0,0,0,0,0,0,0,0,-1,1000,1450,0,0
-217,-426,0,0,0,0,0,0,0,0,0,-1,1007,1450,0,0
-210,-426,0,0,0,0,0,0,0,0,0,-1,1014,1450,0,0
-203,-426,0,0,0,0,0,0,0,0,0,-1,1021,1450,0,0
-196,-426,0,0,0,0,0,0,0,0,0,-1,1028,1450,0,0
-189,-426,0,0,0,0,0,0,0,0,0,-1,1035,1450,0,0
-182,-426,0,0,0,0,0,0,0,0,0,-1,1042,1450,0,0
-175,-426,0,0,0,0,0,0,0,0,0,-1,1049,1450,0,0
-168,-426,0,0,0,0,0,0,0,0,0,-1,1056,1450,0,0
-161,-426,0,0,0,0,0,0,0,0,0,-1,1063,1450,0,0
-154,-426,0,0,0,0,0,0,0,0,0,-1,1070,1450,0,0
-147,-426,0,0,0,0,0,0,0,0,0,-1,1077,1450,0,0
-140,-426,0,0,0,0,0,0,0,0,0,-1,1084,1450,0,0
-133,-426,0,0,0,0,0,0,0,0,0,-1,1091,1450,0,0
-126,-426,0,0,0,0,0,0,0,0,0,-1,1098,1450,0,0
-119,-426,0,0,0,0,0,0,0,0,0,-1,1105,1450,0,0
-112,-426,0,0,0,0,0,0,0,0,0,-1,1112,1450,0,0
-105,-426,0,0,0,0,0,0,0,0,0,-1,1119,1450,0,0
-98,-426,0,0,0,0,0,0,0,0,0,-1,1126,1450,0,0
-91,-426,0,0,0,0,0,0,0,0,0,-1,1133,1450,0,0
-84,-426,0,0,0,0,0,0,0,0,0,-1,1140,1450,0,0
-77,-426,0,0,0,0,0,0,0,0,0,-1,1147,1450,0,0
-70,-426,0,0,0,0,0,0,0,0,0,-1,1154,1450,0,0
-63,-426,0,0,0,0,0,0,0,0,0,-1,1161,1450,0,0
-56,-426,0,0,0,0,0,0,0,0,0,-1,1168,1450,0,0
-49,-426,0,0,0,0,0,0,0,0,0,-1,1175,1450,0,0
-42,-426,0,0,0,0,0,0,0,0,0,-1,1182,1450,0,0
-35,-426,0,0,0,0,0,0,0,0,0,-1,1189,1450,0,0
-28,-426,0,0,0,0,0,0,0,0,0,-1,1196,1450,0,0
-21,-426,0,0,0,0,0,0,0,0,0,-1,1203,1450,0,0
-14,-426,0,0,0,0,0,0,0,0,0,-1,1210,1450,0,0
-7,-426,0,0,0,0,0,0,0,0,0,-1,1217,1450,0,0
0,-426,0,0,0,0,0,0,0,0,0,-1,1224,1450,0,0
7,-426,0,0,0,0,0,0,0,0,0,-1,1231,1450,0,0
14,-426,0,0,0,0,0,0,0,0,0,-1,1238,1450,0,0
21,-426,0,0,0,0,0,0,0,0,0,-1,1245,1450,0,0
28,-426,0,0,0,0,0,0,0,0,0,-1,1252,1450,0,0
35,-426,0,0,0,0,0,0,0,0,0,-1,1259,1450,0,0
42,-426,0,0,0,0,0,0,0,0,0,-1,1266,1450,0,0
49,-426,0,0,0,0,0,0,0,0,0,-1,1273,1450,0,0
56,-426,0,0,0,0,0,0,0,0,0,-1,1280,1450,0,0
63,-426,0,0,0,0,0,0,0,0,0,-1,1287,1450,0,0
70,-426,0,0,0,0,0,0,0,0,0,-1,1294,1450,0,0
77,-426,0,0,0,0,0,0,0,0,0,-1,1301,1450,0,0
84,-426,0,0,0,0,0,0,0,0,0,-1,1308,1450,0,0
91,-426,0,0,0,0,0,0,0,0,0,-1,1315,1450,0,0
98,-426,0,0,0,0,0,0,0,0,0,-1,1322,1450,0,0
105,-426,0,0,0,0,0,0,0,0,0,-1,1329,1450,0,0
112,-426,0,0,0,0,0,0,0,0,0,-1,1336,1450,0,0
119,-426,0,0,0,0,0,0,0,0,0,-1,1343,1450,0,0
126,-426,0,0,0,0,0,0,0,0,0,-1,1350,1450,0,0
133,-426,0,0,0,0,0,0,0,0,0,-1,1357,1450,0,0
140,-426,0,0,0,0,0,0,0,0,0,-1,1364,1450,0,0
147,-426,0,0,0,0,0,0,0,0,0,-1,1371,1450,0,0
154,-426,0,0,0,0,0,0,0,0,0,-1,1378,1450,0,0
161,-426,0,0,0,0,0,0,0,0,0,-1,1385,1450,0,0
168,-426,0,0,0,0,0,0,0,0,0,-1,1392,1450,0,0
175,-426,0,0,0,0,0,0,0,0,0,-1,1399,1450,0,0
182,-426,0,0,0,0,0,0,0,0,0,-1,1406,1450,0,0
189,-426,0,0,0,0,0,0,0,0,0,-1,1413,1450,0,0
196,-426,0,0,0,0,0,0,0,0,0,-1,1420,1450,0,0
203,-426,0,0,0,0,0,0,0,0,0,-1,1427,1450,0,0
210,-426,0,0,0,0,0,0,0,0,0,-1,1434,1450,0,0
217,-426,0,0,0,0,0,0,0,0,0,-1,1441,1450,0,0
224,-426,0,0,0,0,0,0,0,0,0,-1,1448,1450,0,0
231,-426,0,0,0,0,0,0,0,0,0,-1,1455,1450,0,0
238,-426,0,0,0,0,0,0,0,0,0,-1,1462,1450,0,0
245,-426,0,0,0,0,0,0,0,0,0,-1,1469,1450,0,0
252,-426,0,0,0,0,0,0,0,0,0,-1,1476,1450,0,0
259,-426,0,0,0,0,0,0,0,0,0,-1,1483,1450,0,0
266,-426,0,0,0,0,0,0,0,0,0,-1,1490,1450,0,0
273,-426,0,0,0,0,0,0,0,0,0,-1,1497,1450,0,0
280,-426,0,0,0,0,0,0,0,0,0,-1,1504,1450,0,0
287,-426,0,0,0,0,0,0,0,0,0,-1,1511,1450,0,0
294,-426,0,0,0,0,0,0,0,0,0,-1,1518,1450,0,0
301,-426,0,0,0,0,0,0,0,0,0,-1,1525,1450,0,0
308,-426,0,0,0,0,0,0,0,0,0,-1,1532,1450,0,0
315,-426,0,0,0,0,0,0,0,0,0,-1,1539,1450,0,0
322,-426,0,0,0,0,0,0,0,0,0,-1,1546,1450,0,0
329,-426,0,0,0,0,0,0,0,0,0,-1,1553,1450,0,0
336,-426,0,0,0,0,0,0,0,0,0,-1,1560,1450,0,0
343,-426,0,0,0,0,0,0,0,0,0,-1,1567,1450,0,0
350,-426,0,0,0,0,0,0,0,0,0,-1,1574,1450,0,0
357,-426,0,0,0,0,0,0,0,0,0,-1,1581,1450,0,0
364,-426,0,0,0,0,0,0,0,0,0,-1,1588,1450,0,0
371,-426,0,0,0,0,0,0,0,0,0,-1,1595,1450,0,0
378,-426,0,0,0,0,0,0,0,0,0,-1,1602,1450,0,0
385,-426,0,0,0,0,0,0,0,0,0,-1,1609,1450,0,0
392,-426,0,0,0,0,0,0,0,0,0,-1,1616,1450,0,0
399,-426,0,0,0,0,0,0,0,0,0,-1,1623,1450,0,0
406,-426,0,0,0,0,0,0,0,0,0,-1,1630,1450,0,0
413,-426,0,0,0,0,0,0,0,0,0,-1,1637,1450,0,0
420,-426,0,0,0,0,0,0,0,0,0,-1,1644,1450,0,0
427,-426,0,0,0,0,0,0,0,0,0,-1,1651,1450,0,0
434,-426,0,0,0,0,0,0,0,0,0,-1,1658,1450,0,0
441,-426,0,0,0,0,0,0,0,0,0,-1,1665,1450,0,0
448,-426,0,0,0,0,0,0,0,0,0,-1,1672,1450,0,0
455,-426,0,0,0,0,0,0,0,0,0,-1,1679,1450,0,0
462,-426,0,0,0,0,0,0,0,0,0,-1,1686,1450,0,0
469,-426,0,0,0,0,0,0,0,0,0,-1,1693,1450,0,0
476,-426,0,0,0,0,0,0,0,0,0,-1,1700,1450,0,0
483,-426,0,0,0,0,0,0,0,0,0,-1,1707,1450,0,0
490,-426,0,0,0,0,0,0,0,0,0,-1,1714,1450,0,0
497,-426,0,0,0,0,0,0,0,0,0,-1,1721,1450,0,0
504,-426,20.6873,3.38367,0,0,0,0,0,0,0,-1,1728,1450,20.6873,-3.38361
511,-426,19.6676,3.53748,0,0,0,0,0,0,0,-1,1735,1450,19.6676,-3.53749
518,-426,18.6853,3.32288,0,0,0,0,0,0,0,-1,1742,1450,18.6853,-3.3229
525,-426,18.9552,2.71033,0,0,0,0,0,0,0,-1,1749,1450,18.9552,-2.71034
532,-426,19.4333,2.70764,0,0,0,0,0,0,0,-1,1756,1450,19.4334,-2.70764
539,-426,25.1482,2.56287,0,0,0,0,0,0,0,-1,1763,1450,25.1482,-2.56286
546,-426,24.1136,3.75659,0,0,0,0,0,0,0,-1,1770,1450,24.1136,-3.7566
553,-426,23.0791,4.95032,0,0,0,0,0,0,0,-1,1777,1450,23.0791,-4.95034
560,-426,12.9688,11.8289,0,0,0,0,0,0,0,-1,1784,1450,12.9688,-11.8288
567,-426,13.6388,11.5623,0,0,0,0,0,0,0,-1,1791,1450,13.6388,-11.5623
574,-426,14.3943,11.0286,0,0,0,0,0,0,0,-1,1798,1450,14.3942,-11.0285
581,-426,16.3879,11.4653,0,0,0,0,0,0,0,-1,1805,1450,16.3879,-11.4653
588,-426,18.1212,12.5547,0,0,0,0,0,0,0,-1,1812,1450,18.1212,-12.5547
595,-426,26.1932,18.3384,0,0,0,0,0,0,0,-1,1819,1450,26.1933,-18.3383
602,-426,26.3392,17.7766,0.00411124,0.00521355,-0.00392573,0.00862663,0.000698159,-0.85514,0.00553307,0.0395316,1826,1450,26.3392,-17.7766
609,-426,26.417,17.2128,0.00334176,0.00374433,-0.00293038,0.00648033,0.000605766,-0.819688,0.00413312,0.0143761,1833,1450,26.417,-17.2127
616,-426,26.4114,16.6912,0.00272734,0.00257001,-0.00213367,0.0047838,0.000513549,-0.766972,0.00303254,0.0159559,1840,1450,26.4114,-16.6912
623,-426,26.4149,16.1512,0.00238179,0.0016772,-0.00153085,0.00360036,0.000458632,-0.672303,0.00226291,0.0122962,1847,1450,26.4149,-16.1512
630,-426,26.4186,15.6223,0.00226641,0.000949487,-0.0010984,0.00288859,0.000327298,-0.515384,0.00182643,0.0129413,1854,1450,26.4186,-15.6223
637,-426,26.3867,15.0913,0.00220158,0.000434773,-0.000742108,0.00247192,0.000164433,-0.349346,0.00159596,0.0131125,1861,1450,26.3867,-15.0913
644,-426,26.3539,14.5562,0.00229922,0.000267597,-0.000491176,0.00241173,0.000155079,-0.225193,0.0015587,0.0123727,1868,1450,26.3539,-14.5561
651,-426,26.3202,14.0325,0.00249011,0.00031504,-0.000384089,0.00255594,0.000249208,-0.16975,0.00162726,0.0125295,1875,1450,26.3202,-14.0325
658,-426,26.3074,13.4591,0.00271335,0.000539389,-0.000316038,0.00275836,0.000494377,-0.141474,0.00169827,0.0124615,1882,1450,26.3074,-13.4591
665,-426,26.3335,12.829,0.00289821,0.000957676,-0.000181494,0.00291504,0.000940847,-0.0924592,0.00171789,0.0256998,1889,1450,26.3334,-12.8289
672,-426,26.4071,12.2339,0,0,0,0,0,0,0,-1,1896,1450,26.4071,-12.2339
679,-426,17.1522,8.15784,0,0,0,0,0,0,0,-1,1903,1450,17.1522,-8.15784
686,-426,13.5326,8.03711,0,0,0,0,0,0,0,-1,1910,1450,13.5326,-8.03717
693,-426,11.8607,6.45215,0,0,0,0,0,0,0,-1,1917,1450,11.8607,-6.45215
700,-426,9.24304,2.95447,0,0,0,0,0,0,0,-1,1924,1450,9.24305,-2.95442
707,-426,8.44519,-1.21448,0,0,0,0,0,0,0,-1,1931,1450,8.44514,1.21454
714,-426,0,0,0,0,0,0,0,0,0,-1,1938,1450,0,0
721,-426,0,0,0,0,0,0,0,0,0,-1,1945,1450,0,0
728,-426,0,0,0,0,0,0,0,0,0,-1,1952,1450,0,0
735,-426,0,0,0,0,0,0,0,0,0,-1,1959,1450,0,0
742,-426,0,0,0,0,0,0,0,0,0,-1,1966,1450,0,0
749,-426,0,0,0,0,0,0,0,0,0,-1,1973,1450,0,0
756,-426,0,0,0,0,0,0,0,0,0,-1,1980,1450,0,0
763,-426,0,0,0,0,0,0,0,0,0,-1,1987,1450,0,0
770,-426,0,0,0,0,0,0,0,0,0,-1,1994,1450,0,0
777,-426,0,0,0,0,0,0,0,0,0,-1,2001,1450,0,0
784,-426,0,0,0,0,0,0,0,0,0,-1,2008,1450,0,0
791,-426,0,0,0,0,0,0,0,0,0,-1,2015,1450,0,0
798,-426,0,0,0,0,0,0,0,0,0,-1,2022,1450,0,0
805,-426,0,0,0,0,0,0,0,0,0,-1,2029,1450,0,0
812,-426,0,0,0,0,0,0,0,0,0,-1,2036,1450,0,0
-700,-433,0,0,0,0,0,0,0,0,0,-1,524,1457,0,0
-693,-433,0,0,0,0,0,0,0,0,0,-1,531,1457,0,0
-686,-433,0,0,0,0,0,0,0,0,0,-1,538,1457,0,0
-679,-433,0,0,0,0,0,0,0,0,0,-1,545,1457,0,0
-672,-433,0,0,0,0,0,0,0,0,0,-1,552,1457,0,0
-665,-433,0,0,0,0,0,0,0,0,0,-1,559,1457,0,0
-658,-433,0,0,0,0,0,0,0,0,0,-1,566,1457,0,0
-651,-433,0,0,0,0,0,0,0,0,0,-1,573,1457,0,0
-644,-433,0,0,0,0,0,0,0,0,0,-1,580,1457,0,0
-637,-433,0,0,0,0,0,0,0,0,0,-1,587,1457,0,0
-630,-433,0,0,0,0,0,0,0,0,0,-1,594,1457,0,0
-623,-433,0,0,0,0,0,0,0,0,0,-1,601,1457,0,0
-616,-433,0,0,0,0,0,0,0,0,0,-1,608,1457,0,0
-609,-433,0,0,0,0,0,0,0,0,0,-1,615,1457,0,0
-602,-433,0,0,0,0,0,0,0,0,0,-1,622,1457,0,0
-595,-433,0,0,0,0,0,0,0,0,0,-1,629,1457,0,0
-588,-433,-10.3756,-0.467041,0,0,0,0,0,0,0,-1,636,1457,-10.3756,0.467081
-581,-433,-8.12201,0.884033,0,0,0,0,0,0,0,-1,643,1457,-8.12204,-0.884056
-574,-433,-5.86847,2.23523,0,0,0,0,0,0,0,-1,650,1457,-5.86844,-2.23519
-567,-433,-5.42255,1.16833,0,0,0,0,0,0,0,-1,657,1457,-5.42254,-1.1683
-560,-433,-6.84027,1.86414,0,0,0,0,0,0,0,-1,664,1457,-6.84026,-1.86412
-553,-433,-5.74017,1.79163,0,0,0,0,0,0,0,-1,671,1457,-5.74015,-1.79166
-546,-433,-6.9668,8.25073,0,0,0,0,0,0,0,-1,678,1457,-6.96679,-8.25074
-539,-433,-7.3136,8.75659,0,0,0,0,0,0,0,-1,685,1457,-7.31362,-8.75659
-532,-433,-10.1475,10.9641,0,0,0,0,0,0,0,-1,692,1457,-10.1475,-10.9641
-525,-433,-10.1865,11.7516,0.000318923,0.000324131,-0.000149557,0.000471106,0.000171947,-0.794103,0.000275279,0.038572,699,1457,-10.1865,-11.7516
-518,-433,-10.2047,12.2861,0.000582693,3.45735e-05,-0.000101763,0.000600977,1.62901e-05,-0.177769,0.000395333,0.0174315,706,1457,-10.2047,-12.2861
-511,-433,-10.2336,12.8618,0.000956415,0.000349777,0.000268361,0.00105809,0.000248102,0.362162,0.000638955,0.017648,713,1457,-10.2336,-12.8618
-504,-433,-10.236,13.4052,0.00132323,0.000845664,0.000713658,0.00183699,0.0003319,0.623958,0.00113039,0.0141732,720,1457,-10.236,-13.4052
-497,-433,-10.2435,13.9652,0.00173893,0.00153321,0.00125868,0.00289895,0.000373194,0.744628,0.00182102,0.0139715,727,1457,-10.2435,-13.9653
-490,-433,-10.2955,14.5372,0.00224093,0.00243069,0.00194345,0.00428157,0.000390045,0.80979,0.00273366,0.0159111,734,1457,-10.2955,-14.5372
-483,-433,-10.3195,15.1389,0.00285957,0.00355595,0.00275673,0.00598639,0.000429126,0.848218,0.00385585,0.0165767,741,1457,-10.3195,-15.139
-476,-433,-10.3358,15.7379,0.00357284,0.00489508,0.00372368,0.00801587,0.000452048,0.873255,0.00519978,0.0105477,748,1457,-10.3358,-15.7379
-469,-433,-10.3586,16.2932,0.00444933,0.00644026,0.00488375,0.010429,0.000460622,0.885937,0.0068043,0.0107377,755,1457,-10.3586,-16.2932
-462,-433,-10.3947,16.849,0,0,0,0,0,0,0,-1,762,1457,-10.3946,-16.849
-455,-433,-9.58307,17.1731,0,0,0,0,0,0,0,-1,769,1457,-9.58307,-17.1731
-448,-433,-6.94812,14.5563,0,0,0,0,0,0,0,-1,776,1457,-6.94809,-14.5562
-441,-433,-9.97485,14.0258,0,0,0,0,0,0,0,-1,783,1457,-9.97488,-14.0257
-434,-433,-9.41205,14.2297,0,0,0,0,0,0,0,-1,790,1457,-9.41205,-14.2297
-427,-433,-8.67419,13.6827,0,0,0,0,0,0,0,-1,797,1457,-8.67422,-13.6827
-420,-433,-5.74658,9.49121,0,0,0,0,0,0,0,-1,804,1457,-5.7466,-9.49119
-413,-433,-3.63074,5.5813,0,0,0,0,0,0,0,-1,811,1457,-3.63072,-5.58129
-406,-433,-12.3472,4.69373,0,0,0,0,0,0,0,-1,818,1457,-12.3472,-4.69374
-399,-433,-12.055,2.83594,0,0,0,0,0,0,0,-1,825,1457,-12.055,-2.83594
-392,-433,-12.9772,1.6228,0,0,0,0,0,0,0,-1,832,1457,-12.9772,-1.62282
-385,-433,-13.7999,0.514771,0,0,0,0,0,0,0,-1,839,1457,-13.7999,-0.514788
-378,-433,0,0,0,0,0,0,0,0,0,-1,846,1457,0,0
-371,-433,0,0,0,0,0,0,0,0,0,-1,853,1457,0,0
-364,-433,0,0,0,0,0,0,0,0,0,-1,860,1457,0,0
-357,-433,0,0,0,0,0,0,0,0,0,-1,867,1457,0,0
-350,-433,0,0,0,0,0,0,0,0,0,-1,874,1457,0,0
-343,-433,0,0,0,0,0,0,0,0,0,-1,881,1457,0,0
-336,-433,0,0,0,0,0,0,0,0,0,-1,888,1457,0,0
-329,-433,0,0,0,0,0,0,0,0,0,-1,895,1457,0,0
-322,-433,0,0,0,0,0,0,0,0,0,-1,902,1457,0,0
-315,-433,0,0,0,0,0,0,0,0,0,-1,909,1457,0,0
-308,-433,0,0,0,0,0,0,0,0,0,-1,916,1457,0,0
-301,-433,0,0,0,0,0,0,0,0,0,-1,923,1457,0,0
-294,-433,0,0,0,0,0,0,0,0,0,-1,930,1457,0,0
-287,-433,0,0,0,0,0,0,0,0,0,-1,937,1457,0,0
-280,-433,0,0,0,0,0,0,0,0,0,-1,944,1457,0,0
-273,-433,0,0,0,0,0,0,0,0,0,-1,951,1457,0,0
-266,-433,0,0,0,0,0,0,0,0,0,-1,958,1457,0,0
-259,-433,0,0,0,0,0,0,0,0,0,-1,965,1457,0,0
-252,-433,0,0,0,0,0,0,0,0,0,-1,972,1457,0,0
-245,-433,0,0,0,0,0,0,0,0,0,-1,979,1457,0,0
-238,-433,0,0,0,0,0,0,0,0,0,-1,986,1457,0,0
-231,-433,0,0,0,0,0,0,0,0,0,-1,993,1457,0,0
-224,-433,0,0,0,0,0,0,0,0,0,-1,1000,1457,0,0
-217,-433,0,0,0,0,0,0,0,0,0,-1,1007,1457,0,0
-210,-433,0,0,0,0,0,0,0,0,0,-1,1014,1457,0,0
-203,-433,0,0,0,0,0,0,0,0,0,-1,1021,1457,0,0
-196,-433,0,0,0,0,0,0,0,0,0,-1,1028,1457,0,0
-189,-433,0,0,0,0,0,0,0,0,0,-1,1035,1457,0,0
-182,-433,0,0,0,0,0,0,0,0,0,-1,1042,1457,0,0
-175,-433,0,0,0,0,0,0,0,0,0,-1,1049,1457,0,0
-168,-433,0,0,0,0,0,0,0,0,0,-1,1056,1457,0,0
-161,-433,0,0,0,0,0,0,0,0,0,-1,1063,1457,0,0
-154,-433,0,0,0,0,0,0,0,0,0,-1,1070,1457,0,0
-147,-433,0,0,0,0,0,0,0,0,0,-1,1077,1457,0,0
-140,-433,0,0,0,0,0,0,0,0,0,-1,1084,1457,0,0
-133,-433,0,0,0,0,0,0,0,0,0,-1,1091,1457,0,0
-126,-433,0,0,0,0,0,0,0,0,0,-1,1098,1457,0,0
-119,-433,0,0,0,0,0,0,0,0,0,-1,1105,1457,0,0
-112,-433,0,0,0,0,0,0,0,0,0,-1,1112,1457,0,0
-105,-433,0,0,0,0,0,0,0,0,0,-1,1119,1457,0,0
-98,-433,0,0,0,0,0,0,0,0,0,-1,1126,1457,0,0
-91,-433,0,0,0,0,0,0,0,0,0,-1,1133,1457,0,0
-84,-433,0,0,0,0,0,0,0,0,0,-1,1140,1457,0,0
-77,-433,0,0,0,0,0,0,0,0,0,-1,1147,1457,0,0
-70,-433,0,0,0,0,0,0,0,0,0,-1,1154,1457,0,0
-63,-433,0,0,0,0,0,0,0,0,0,-1,1161,1457,0,0
-56,-433,0,0,0,0,0,0,0,0,0,-1,1168,1457,0,0
-49,-433,0,0,0,0,0,0,0,0,0,-1,1175,1457,0,0
-42,-433,0,0,0,0,0,0,0,0,0,-1,1182,1457,0,0
-35,-433,0,0,0,0,0,0,0,0,0,-1,1189,1457,0,0
-28,-433,0,0,0,0,0,0,0,0,0,-1,1196,1457,0,0
-21,-433,0,0,0,0,0,0,0,0,0,-1,1203,1457,0,0
-14,-433,0,0,0,0,0,0,0,0,0,-1,1210,1457,0,0
-7,-433,0,0,0,0,0,0,0,0,0,-1,1217,1457,0,0
0,-433,0,0,0,0,0,0,0,0,0,-1,1224,1457,0,0
7,-433,0,0,0,0,0,0,0,0,0,-1,1231,1457,0,0
14,-433,0,0,0,0,0,0,0,0,0,-1,1238,1457,0,0
21,-433,0,0,0,0,0,0,0,0,0,-1,1245,1457,0,0
28,-433,0,0,0,0,0,0,0,0,0,-1,1252,1457,0,0
35,-433,0,0,0,0,0,0,0,0,0,-1,1259,1457,0,0
42,-433,0,0,0,0,0,0,0,0,0,-1,1266,1457,0,0
49,-433,0,0,0,0,0,0,0,0,0,-1,1273,1457,0,0
56,-433,0,0,0,0,0,0,0,0,0,-1,1280,1457,0,0
63,-433,0,0,0,0,0,0,0,0,0,-1,1287,1457,0,0
70,-433,0,0,0,0,0,0,0,0,0,-1,1294,1457,0,0
77,-433,0,0,0,0,0,0,0,0,0,-1,1301,1457,0,0
84,-433,0,0,0,0,0,0,0,0,0,-1,1308,1457,0,0
91,-433,0,0,0,0,0,0,0,0,0,-1,1315,1457,0,0
98,-433,0,0,0,0,0,0,0,0,0,-1,1322,1457,0,0
105,-433,0,0,0,0,0,0,0,0,0,-1,1329,1457,0,0
112,-433,0,0,0,0,0,0,0,0,0,-1,1336,1457,0,0
119,-433,0,0,0,0,0,0,0,0,0,-1,1343,1457,0,0
126,-433,0,0,0,0,0,0,0,0,0,-1,1350,1457,0,0
133,-433,0,0,0,0,0,0,0,0,0,-1,1357,1457,0,0
140,-433,0,0,0,0,0,0,0,0,0,-1,1364,1457,0,0
147,-433,0,0,0,0,0,0,0,0,0,-1,1371,1457,0,0
154,-433,0,0,0,0,0,0,0,0,0,-1,1378,1457,0,0
161,-433,0,0,0,0,0,0,0,0,0,-1,1385,1457,0,0
168,-433,0,0,0,0,0,0,0,0,0,-1,1392,1457,0,0
175,-433,0,0,0,0,0,0,0,0,0,-1,1399,1457,0,0
182,-433,0,0,0,0,0,0,0,0,0,-1,1406,1457,0,0
189,-433,0,0,0,0,0,0,0,0,0,-1,1413,1457,0,0
196,-433,0,0,0,0,0,0,0,0,0,-1,1420,1457,0,0
203,-433,0,0,0,0,0,0,0,0,0,-1,1427,1457,0,0
210,-433,0,0,0,0,0,0,0,0,0,-1,1434,1457,0,0
217,-433,0,0,0,0,0,0,0,0,0,-1,1441,1457,0,0
224,-433,0,0,0,0,0,0,0,0,0,-1,1448,1457,0,0
231,-433,0,0,0,0,0,0,0,0,0,-1,1455,1457,0,0
238,-433,0,0,0,0,0,0,0,0,0,-1,1462,1457,0,0
245,-433,0,0,0,0,0,0,0,0,0,-1,1469,1457,0,0
252,-433,0,0,0,0,0,0,0,0,0,-1,1476,1457,0,0
259,-433,0,0,0,0,0,0,0,0,0,-1,1483,1457,0,0
266,-433,0,0,0,0,0,0,0,0,0,-1,1490,1457,0,0
273,-433,0,0,0,0,0,0,0,0,0,-1,1497,1457,0,0
280,-433,0,0,0,0,0,0,0,0,0,-1,1504,1457,0,0
287,-433,0,0,0,0,0,0,0,0,0,-1,1511,1457,0,0
294,-433,0,0,0,0,0,0,0,0,0,-1,1518,1457,0,0
301,-433,0,0,0,0,0,0,0,0,0,-1,1525,1457,0,0
308,-433,0,0,0,0,0,0,0,0,0,-1,1532,1457,0,0
315,-433,0,0,0,0,0,0,0,0,0,-1,1539,1457,0,0
322,-433,0,0,0,0,0,0,0,0,0,-1,1546,1457,0,0
329,-433,0,0,0,0,0,0,0,0,0,-1,1553,1457,0,0
336,-433,0,0,0,0,0,0,0,0,0,-1,1560,1457,0,0
343,-433,0,0,0,0,0,0,0,0,0,-1,1567,1457,0,0
350,-433,0,0,0,0,0,0,0,0,0,-1,1574,1457,0,0
357,-433,0,0,0,0,0,0,0,0,0,-1,1581,1457,0,0
364,-433,0,0,0,0,0,0,0,0,0,-1,1588,1457,0,0
371,-433,0,0,0,0,0,0,0,0,0,-1,1595,1457,0,0
378,-433,0,0,0,0,0,0,0,0,0,-1,1602,1457,0,0
385,-433,0,0,0,0,0,0,0,0,0,-1,1609,1457,0,0
392,-433,0,0,0,0,0,0,0,0,0,-1,1616,1457,0,0
399,-433,0,0,0,0,0,0,0,0,0,-1,1623,1457,0,0
406,-433,0,0,0,0,0,0,0,0,0,-1,1630,1457,0,0
413,-433,0,0,0,0,0,0,0,0,0,-1,1637,1457,0,0
420,-433,0,0,0,0,0,0,0,0,0,-1,1644,1457,0,0
427,-433,0,0,0,0,0,0,0,0,0,-1,1651,1457,0,0
434,-433,0,0,0,0,0,0,0,0,0,-1,1658,1457,0,0
441,-433,0,0,0,0,0,0,0,0,0,-1,1665,1457,0,0
448,-433,0,0,0,0,0,0,0,0,0,-1,1672,1457,0,0
455,-433,0,0,0,0,0,0,0,0,0,-1,1679,1457,0,0
462,-433,0,0,0,0,0,0,0,0,0,-1,1686,1457,0,0
469,-433,0,0,0,0,0,0,0,0,0,-1,1693,1457,0,0
476,-433,0,0,0,0,0,0,0,0,0,-1,1700,1457,0,0
483,-433,0,0,0,0,0,0,0,0,0,-1,1707,1457,0,0
490,-433,0,0,0,0,0,0,0,0,0,-1,1714,1457,0,0
497,-433,0,0,0,0,0,0,0,0,0,-1,1721,1457,0,0
504,-433,19.9058,3.03662,0,0,0,0,0,0,0,-1,1728,1457,19.9058,-3.03656
511,-433,19.0145,3.07837,0,0,0,0,0,0,0,-1,1735,1457,19.0146,-3.07834
518,-433,18.071,3.06433,0,0,0,0,0,0,0,-1,1742,1457,18.071,-3.06432
525,-433,17.2048,3.37085,0,0,0,0,0,0,0,-1,1749,1457,17.2049,-3.37083
532,-433,16.5637,3.36646,0,0,0,0,0,0,0,-1,1756,1457,16.5637,-3.36643
539,-433,15.9193,3.30396,0,0,0,0,0,0,0,-1,1763,1457,15.9193,-3.30394
546,-433,23.1903,4.81775,0,0,0,0,0,0,0,-1,1770,1457,23.1903,-4.81775
553,-433,13.9674,11.5781,0,0,0,0,0,0,0,-1,1777,1457,13.9674,-11.5781
560,-433,13.9855,11.7341,0,0,0,0,0,0,0,-1,1784,1457,13.9855,-11.7341
567,-433,13.9264,11.3364,0,0,0,0,0,0,0,-1,1791,1457,13.9263,-11.3364
574,-433,15.5305,12.3673,0,0,0,0,0,0,0,-1,1798,1457,15.5305,-12.3673
581,-433,16.6405,12.1898,0,0,0,0,0,0,0,-1,1805,1457,16.6405,-12.1898
588,-433,25.9852,19.2285,0,0,0,0,0,0,0,-1,1812,1457,25.9853,-19.2285
595,-433,25.8845,18.3862,0.00471937,0.00594566,-0.00449312,0.00986728,0.00079775,-0.853211,0.00632905,0.0467396,1819,1457,25.8845,-18.3862
602,-433,25.8823,17.7925,0.00377497,0.00445236,-0.00338874,0.00751929,0.000708046,-0.835206,0.0047943,0.0253655,1826,1457,25.8824,-17.7925
609,-433,25.8959,17.2028,0.00312487,0.00314045,-0.00251203,0.0056447,0.000620621,-0.786948,0.00357426,0.0169626,1833,1457,25.8959,-17.2027
616,-433,25.8899,16.674,0.00262768,0.00209184,-0.00180331,0.00418286,0.000536657,-0.711652,0.00262802,0.0147211,1840,1457,25.8899,-16.674
623,-433,25.8708,16.1549,0.00240959,0.00125626,-0.00126164,0.00322011,0.000445738,-0.571037,0.00201466,0.0117709,1847,1457,25.8708,-16.1549
630,-433,25.8754,15.6195,0.00241667,0.000541905,-0.000874383,0.00276117,0.000197401,-0.37532,0.00177864,0.0152691,1854,1457,25.8754,-15.6195
637,-433,25.8512,15.0782,0.00246828,5.2135e-05,-0.00056773,0.00259503,-7.46169e-05,-0.219659,0.00175542,0.0152527,1861,1457,25.8512,-15.0783
644,-433,25.8234,14.5701,0.00268921,-0.000103814,-0.000369794,0.00273734,-0.000151945,-0.129429,0.00187759,0.0157111,1868,1457,25.8233,-14.5701
651,-433,25.8043,14.0332,0.00304012,-1.80592e-05,-0.000333948,0.00307616,-5.41012e-05,-0.107511,0.00206904,0.0124921,1875,1457,25.8043,-14.0332
658,-433,25.7397,13.4468,0.00346951,0.000260608,-0.000378484,0.00351355,0.00021657,-0.115831,0.00227361,0.0279412,1882,1457,25.7398,-13.4468
665,-433,25.9324,12.7574,0,0,0,0,0,0,0,-1,1889,1457,25.9324,-12.7574
672,-433,18.115,8.7207,0,0,0,0,0,0,0,-1,1896,1457,18.115,-8.72074
679,-433,17.2969,9.6355,0,0,0,0,0,0,0,-1,1903,1457,17.2968,-9.63548
686,-433,13.6356,8.61694,0,0,0,0,0,0,0,-1,1910,1457,13.6356,-8.61694
693,-433,13.4081,8.39624,0,0,0,0,0,0,0,-1,1917,1457,13.4081,-8.39624
700,-433,7.16809,-1.5166,0,0,0,0,0,0,0,-1,1924,1457,7.16806,1.51656
707,-433,8.68359,-2.82202,0,0,0,0,0,0,0,-1,1931,1457,8.68359,2.82197
714,-433,0,0,0,0,0,0,0,0,0,-1,1938,1457,0,0
721,-433,0,0,0,0,0,0,0,0,0,-1,1945,1457,0,0
728,-433,0,0,0,0,0,0,0,0,0,-1,1952,1457,0,0
735,-433,0,0,0,0,0,0,0,0,0,-1,1959,1457,0,0
742,-433,0,0,0,0,0,0,0,0,0,-1,1966,1457,0,0
749,-433,0,0,0,0,0,0,0,0,0,-1,1973,1457,0,0
756,-433,0,0,0,0,0,0,0,0,0,-1,1980,1457,0,0
763,-433,0,0,0,0,0,0,0,0,0,-1,1987,1457,0,0
770,-433,0,0,0,0,0,0,0,0,0,-1,1994,1457,0,0
777,-433,0,0,0,0,0,0,0,0,0,-1,2001,1457,0,0
784,-433,0,0,0,0,0,0,0,0,0,-1,2008,1457,0,0
791,-433,0,0,0,0,0,0,0,0,0,-1,2015,1457,0,0
798,-433,0,0,0,0,0,0,0,0,0,-1,2022,1457,0,0
805,-433,0,0,0,0,0,0,0,0,0,-1,2029,1457,0,0
812,-433,0,0,0,0,0,0,0,0,0,-1,2036,1457,0,0
-700,-440,0,0,0,0,0,0,0,0,0,-1,524,1464,0,0
-693,-440,0,0,0,0,0,0,0,0,0,-1,531,1464,0,0
-686,-440,0,0,0,0,0,0,0,0,0,-1,538,1464,0,0
-679,-440,0,0,0,0,0,0,0,0,0,-1,545,1464,0,0
-672,-440,0,0,0,0,0,0,0,0,0,-1,552,1464,0,0
-665,-440,0,0,0,0,0,0,0,0,0,-1,559,1464,0,0
-658,-440,0,0,0,0,0,0,0,0,0,-1,566,1464,0,0
-651,-440,0,0,0,0,0,0,0,0,0,-1,573,1464,0,0
-644,-440,0,0,0,0,0,0,0,0,0,-1,580,1464,0,0
-637,-440,0,0,0,0,0,0,0,0,0,-1,587,1464,0,0
-630,-440,0,0,0,0,0,0,0,0,0,-1,594,1464,0,0
-623,-440,0,0,0,0,0,0,0,0,0,-1,601,1464,0,0
-616,-440,0,0,0,0,0,0,0,0,0,-1,608,1464,0,0
-609,-440,0,0,0,0,0,0,0,0,0,-1,615,1464,0,0
-602,-440,0,0,0,0,0,0,0,0,0,-1,622,1464,0,0
-595,-440,0,0,0,0,0,0,0,0,0,-1,629,1464,0,0
-588,-440,0,0,0,0,0,0,0,0,0,-1,636,1464,0,0
-581,-440,-8.97278,0.254517,0,0,0,0,0,0,0,-1,643,1464,-8.97276,-0.254526
-574,-440,-7.00818,-0.918579,0,0,0,0,0,0,0,-1,650,1464,-7.00817,0.918538
-567,-440,-6.12152,-0.0766602,0,0,0,0,0,0,0,-1,657,1464,-6.12151,0.0767097
-560,-440,-5.46747,0.82251,0,0,0,0,0,0,0,-1,664,1464,-5.46748,-0.822551
-553,-440,-6.84729,0.0831299,0,0,0,0,0,0,0,-1,671,1464,-6.84732,-0.083136
-546,-440,-5.63446,-0.153198,0,0,0,0,0,0,0,-1,678,1464,-5.63447,0.153147
-539,-440,-6.80017,8.58252,0,0,0,0,0,0,0,-1,685,1464,-6.80015,-8.58257
-532,-440,-9.36597,11.0032,0,0,0,0,0,0,0,-1,692,1464,-9.36596,-11.0031
-525,-440,-9.68549,11.7684,9.13695e-05,0.000106222,-0.000318461,0.000417343,-0.000219752,-0.797055,0.000373678,0.0451415,699,1464,-9.68549,-11.7685
-518,-440,-9.69244,12.2428,0.000322009,-0.000346481,-0.000374465,0.000489704,-0.000514176,-0.421044,0.000579648,0.0228145,706,1464,-9.69243,-12.2428
-511,-440,-9.6532,12.8824,0.000659299,-7.37769e-05,-4.09651e-05,0.000661581,-7.60589e-05,-0.0556501,0.00046847,0.0176581,713,1464,-9.65322,-12.8824
-504,-440,-9.64911,13.4666,0.000941887,0.000339407,0.000336063,0.00109196,0.000189333,0.419993,0.000673789,0.0202247,720,1464,-9.64909,-13.4666
-497,-440,-9.66577,13.9956,0.00124934,0.000912196,0.000787761,0.00188637,0.000275175,0.679992,0.00117663,0.0219711,727,1464,-9.66574,-13.9956
-490,-440,-9.71625,14.5154,0.00163262,0.00166157,0.00134734,0.00299451,0.000299675,0.79077,0.00190432,0.0236798,734,1464,-9.71624,-14.5153
-483,-440,-9.75415,15.1138,0.00212969,0.0025931,0.00201159,0.00438629,0.000336503,0.842739,0.00281873,0.0213453,741,1464,-9.75417,-15.1138
-476,-440,-9.76593,15.7203,0.00275137,0.00370993,0.00283915,0.00610997,0.000351324,0.869016,0.0039614,0.01343,748,1464,-9.7659,-15.7203
-469,-440,-9.7959,16.3083,0.00350551,0.0050196,0.00385368,0.00818989,0.000335216,0.882387,0.00535169,0.0127737,755,1464,-9.79591,-16.3084
-462,-440,-9.85828,16.865,0.00444023,0.00651123,0.00501332,0.0105949,0.000356584,0.887241,0.00694744,0.0169276,762,1464,-9.85827,-16.865
-455,-440,-9.84009,17.4961,0,0,0,0,0,0,0,-1,769,1464,-9.84007,-17.4961
-448,-440,-9.25934,18.4331,0,0,0,0,0,0,0,-1,776,1464,-9.25931,-18.4331
-441,-440,-7.28583,14.7465,0,0,0,0,0,0,0,-1,783,1464,-7.28584,-14.7464
-434,-440,-8.33636,14.5024,0,0,0,0,0,0,0,-1,790,1464,-8.33638,-14.5025
-427,-440,-8.28094,14.2512,0,0,0,0,0,0,0,-1,797,1464,-8.28094,-14.2512
-420,-440,-6.86603,8.09216,0,0,0,0,0,0,0,-1,804,1464,-6.86602,-8.09222
-413,-440,-3.46796,5.72278,0,0,0,0,0,0,0,-1,811,1464,-3.46797,-5.72276
-406,-440,-5.2887,5.20264,0,0,0,0,0,0,0,-1,818,1464,-5.2887,-5.20261
-399,-440,-12.7318,3.94421,0,0,0,0,0,0,0,-1,825,1464,-12.7318,-3.94419
-392,-440,-13.5565,2.51855,0,0,0,0,0,0,0,-1,832,1464,-13.5565,-2.51861
-385,-440,-14.6741,1.39795,0,0,0,0,0,0,0,-1,839,1464,-14.6741,-1.39801
-378,-440,-15.8063,0.293457,0,0,0,0,0,0,0,-1,846,1464,-15.8063,-0.293412
-371,-440,0,0,0,0,0,0,0,0,0,-1,853,1464,0,0
-364,-440,0,0,0,0,0,0,0,0,0,-1,860,1464,0,0
-357,-440,0,0,0,0,0,0,0,0,0,-1,867,1464,0,0
-350,-440,0,0,0,0,0,0,0,0,0,-1,874,1464,0,0
-343,-440,0,0,0,0,0,0,0,0,0,-1,881,1464,0,0
-336,-440,0,0,0,0,0,0,0,0,0,-1,888,1464,0,0
-329,-440,0,0,0,0,0,0,0,0,0,-1,895,1464,0,0
-322,-440,0,0,0,0,0,0,0,0,0,-1,902,1464,0,0
-315,-440,0,0,0,0,0,0,0,0,0,-1,909,1464,0,0
-308,-440,0,0,0,0,0,0,0,0,0,-1,916,1464,0,0
-301,-440,0,0,0,0,0,0,0,0,0,-1,923,1464,0,0
-294,-440,0,0,0,0,0,0,0,0,0,-1,930,1464,0,0
-287,-440,0,0,0,0,0,0,0,0,0,-1,937,1464,0,0
-280,-440,0,0,0,0,0,0,0,0,0,-1,944,1464,0,0
-273,-440,0,0,0,0,0,0,0,0,0,-1,951,1464,0,0
-266,-440,0,0,0,0,0,0,0,0,0,-1,958,1464,0,0
-259,-440,0,0,0,0,0,0,0,0,0,-1,965,1464,0,0
-252,-440,0,0,0,0,0,0,0,0,0,-1,972,1464,0,0
-245,-440,0,0,0,0,0,0,0,0,0,-1,979,1464,0,0
-238,-440,0,0,0,0,0,0,0,0,0,-1,986,1464,0,0
-231,-440,0,0,0,0,0,0,0,0,0,-1,993,1464,0,0
-224,-440,0,0,0,0,0,0,0,0,0,-1,1000,1464,0,0
-217,-440,0,0,0,0,0,0,0,0,0,-1,1007,1464,0,0
-210,-440,0,0,0,0,0,0,0,0,0,-1,1014,1464,0,0
-203,-440,0,0,0,0,0,0,0,0,0,-1,1021,1464,0,0
-196,-440,0,0,0,0,0,0,0,0,0,-1,1028,1464,0,0
-189,-440,0,0,0,0,0,0,0,0,0,-1,1035,1464,0,0
-182,-440,0,0,0,0,0,0,0,0,0,-1,1042,1464,0,0
-175,-440,0,0,0,0,0,0,0,0,0,-1,1049,1464,0,0
-168,-440,0,0,0,0,0,0,0,0,0,-1,1056,1464,0,0
-161,-440,0,0,0,0,0,0,0,0,0,-1,1063,1464,0,0
-154,-440,0,0,0,0,0,0,0,0,0,-1,1070,1464,0,0
-147,-440,0,0,0,0,0,0,0,0,0,-1,1077,1464,0,0
-140,-440,0,0,0,0,0,0,0,0,0,-1,1084,1464,0,0
-133,-440,0,0,0,0,0,0,0,0,0,-1,1091,1464,0,0
-126,-440,0,0,0,0,0,0,0,0,0,-1,1098,1464,0,0
-119,-440,0,0,0,0,0,0,0,0,0,-1,1105,1464,0,0
-112,-440,0,0,0,0,0,0,0,0,0,-1,1112,1464,0,0
-105,-440,0,0,0,0,0,0,0,0,0,-1,1119,1464,0,0
-98,-440,0,0,0,0,0,0,0,0,0,-1,1126,1464,0,0
-91,-440,0,0,0,0,0,0,0,0,0,-1,1133,1464,0,0
-84,-440,0,0,0,0,0,0,0,0,0,-1,1140,1464,0,0
-77,-440,0,0,0,0,0,0,0,0,0,-1,1147,1464,0,0
-70,-440,0,0,0,0,0,0,0,0,0,-1,1154,1464,0,0
-63,-440,0,0,0,0,0,0,0,0,0,-1,1161,1464,0,0
-56,-440,0,0,0,0,0,0,0,0,0,-1,1168,1464,0,0
-49,-440,0,0,0,0,0,0,0,0,0,-1,1175,1464,0,0
-42,-440,0,0,0,0,0,0,0,0,0,-1,1182,1464,0,0
-35,-440,0,0,0,0,0,0,0,0,0,-1,1189,1464,0,0
-28,-440,0,0,0,0,0,0,0,0,0,-1,1196,1464,0,0
-21,-440,0,0,0,0,0,0,0,0,0,-1,1203,1464,0,0
-14,-440,0,0,0,0,0,0,0,0,0,-1,1210,1464,0,0
-7,-440,0,0,0,0,0,0,0,0,0,-1,1217,1464,0,0
0,-440,0,0,0,0,0,0,0,0,0,-1,1224,1464,0,0
7,-440,0,0,0,0,0,0,0,0,0,-1,1231,1464,0,0
14,-440,0,0,0,0,0,0,0,0,0,-1,1238,1464,0,0
21,-440,0,0,0,0,0,0,0,0,0,-1,1245,1464,0,0
28,-440,0,0,0,0,0,0,0,0,0,-1,1252,1464,0,0
35,-440,0,0,0,0,0,0,0,0,0,-1,1259,1464,0,0
42,-440,0,0,0,0,0,0,0,0,0,-1,1266,1464,0,0
49,-440,0,0,0,0,0,0,0,0,0,-1,1273,1464,0,0
56,-440,0,0,0,0,0,0,0,0,0,-1,1280,1464,0,0
63,-440,0,0,0,0,0,0,0,0,0,-1,1287,1464,0,0
70,-440,0,0,0,0,0,0,0,0,0,-1,1294,1464,0,0
77,-440,0,0,0,0,0,0,0,0,0,-1,1301,1464,0,0
84,-440,0,0,0,0,0,0,0,0,0,-1,1308,1464,0,0
91,-440,0,0,0,0,0,0,0,0,0,-1,1315,1464,0,0
98,-440,0,0,0,0,0,0,0,0,0,-1,1322,1464,0,0
105,-440,0,0,0,0,0,0,0,0,0,-1,1329,1464,0,0
112,-440,0,0,0,0,0,0,0,0,0,-1,1336,1464,0,0
119,-440,0,0,0,0,0,0,0,0,0,-1,1343,1464,0,0
126,-440,0,0,0,0,0,0,0,0,0,-1,1350,1464,0,0
133,-440,0,0,0,0,0,0,0,0,0,-1,1357,1464,0,0
140,-440,0,0,0,0,0,0,0,0,0,-1,1364,1464,0,0
147,-440,0,0,0,0,0,0,0,0,0,-1,1371,1464,0,0
154,-440,0,0,0,0,0,0,0,0,0,-1,1378,1464,0,0
161,-440,0,0,0,0,0,0,0,0,0,-1,1385,1464,0,0
168,-440,0,0,0,0,0,0,0,0,0,-1,1392,1464,0,0
175,-440,0,0,0,0,0,0,0,0,0,-1,1399,1464,0,0
182,-440,0,0,0,0,0,0,0,0,0,-1,1406,1464,0,0
189,-440,0,0,0,0,0,0,0,0,0,-1,1413,1464,0,0
196,-440,0,0,0,0,0,0,0,0,0,-1,1420,1464,0,0
203,-440,0,0,0,0,0,0,0,0,0,-1,1427,1464,0,0
210,-440,0,0,0,0,0,0,0,0,0,-1,1434,1464,0,0
217,-440,0,0,0,0,0,0,0,0,0,-1,1441,1464,0,0
224,-440,0,0,0,0,0,0,0,0,0,-1,1448,1464,0,0
231,-440,0,0,0,0,0,0,0,0,0,-1,1455,1464,0,0
238,-440,0,0,0,0,0,0,0,0,0,-1,1462,1464,0,0
245,-440,0,0,0,0,0,0,0,0,0,-1,1469,1464,0,0
252,-440,0,0,0,0,0,0,0,0,0,-1,1476,1464,0,0
259,-440,0,0,0,0,0,0,0,0,0,-1,1483,1464,0,0
266,-440,0,0,0,0,0,0,0,0,0,-1,1490,1464,0,0
273,-440,0,0,0,0,0,0,0,0,0,-1,1497,1464,0,0
280,-440,0,0,0,0,0,0,0,0,0,-1,1504,1464,0,0
287,-440,0,0,0,0,0,0,0,0,0,-1,1511,1464,0,0
294,-440,0,0,0,0,0,0,0,0,0,-1,1518,1464,0,0
301,-440,0,0,0,0,0,0,0,0,0,-1,1525,1464,0,0
308,-440,0,0,0,0,0,0,0,0,0,-1,1532,1464,0,0
315,-440,0,0,0,0,0,0,0,0,0,-1,1539,1464,0,0
322,-440,0,0,0,0,0,0,0,0,0,-1,1546,1464,0,0
329,-440,0,0,0,0,0,0,0,0,0,-1,1553,1464,0,0
336,-440,0,0,0,0,0,0,0,0,0,-1,1560,1464,0,0
343,-440,0,0,0,0,0,0,0,0,0,-1,1567,1464,0,0
350,-440,0,0,0,0,0,0,0,0,0,-1,1574,1464,0,0
357,-440,0,0,0,0,0,0,0,0,0,-1,1581,1464,0,0
364,-440,0,0,0,0,0,0,0,0,0,-1,1588,1464,0,0
371,-440,0,0,0,0,0,0,0,0,0,-1,1595,1464,0,0
378,-440,0,0,0,0,0,0,0,0,0,-1,1602,1464,0,0
385,-440,0,0,0,0,0,0,0,0,0,-1,1609,1464,0,0
392,-440,0,0,0,0,0,0,0,0,0,-1,1616,1464,0,0
399,-440,0,0,0,0,0,0,0,0,0,-1,1623,1464,0,0
406,-440,0,0,0,0,0,0,0,0,0,-1,1630,1464,0,0
413,-440,0,0,0,0,0,0,0,0,0,-1,1637,1464,0,0
420,-440,0,0,0,0,0,0,0,0,0,-1,1644,1464,0,0
427,-440,0,0,0,0,0,0,0,0,0,-1,1651,1464,0,0
434,-440,0,0,0,0,0,0,0,0,0,-1,1658,1464,0,0
441,-440,0,0,0,0,0,0,0,0,0,-1,1665,1464,0,0
448,-440,0,0,0,0,0,0,0,0,0,-1,1672,1464,0,0
455,-440,0,0,0,0,0,0,0,0,0,-1,1679,1464,0,0
462,-440,0,0,0,0,0,0,0,0,0,-1,1686,1464,0,0
469,-440,0,0,0,0,0,0,0,0,0,-1,1693,1464,0,0
476,-440,0,0,0,0,0,0,0,0,0,-1,1700,1464,0,0
483,-440,0,0,0,0,0,0,0,0,0,-1,1707,1464,0,0
490,-440,0,0,0,0,0,0,0,0,0,-1,1714,1464,0,0
497,-440,16.965,-0.528442,0,0,0,0,0,0,0,-1,1721,1464,16.965,0.528492
504,-440,15.8052,0.670166,0,0,0,0,0,0,0,-1,1728,1464,15.8052,-0.670145
511,-440,17.5754,2.77832,0,0,0,0,0,0,0,-1,1735,1464,17.5754,-2.77826
518,-440,16.9017,3.07861,0,0,0,0,0,0,0,-1,1742,1464,16.9018,-3.07859
525,-440,18.4495,12.0867,0,0,0,0,0,0,0,-1,1749,1464,18.4495,-12.0867
532,-440,15.4319,3.64392,0,0,0,0,0,0,0,-1,1756,1464,15.4318,-3.64391
539,-440,14.8214,3.41321,0,0,0,0,0,0,0,-1,1763,1464,14.8214,-3.4132
546,-440,14.8651,10.7683,0,0,0,0,0,0,0,-1,1770,1464,14.8651,-10.7683
553,-440,15.1213,11.4121,0,0,0,0,0,0,0,-1,1777,1464,15.1213,-11.4121
560,-440,17.4325,12.5394,0,0,0,0,0,0,0,-1,1784,1464,17.4325,-12.5394
567,-440,16.9025,12.4249,0,0,0,0,0,0,0,-1,1791,1464,16.9025,-12.425
574,-440,19.2841,14.8679,0,0,0,0,0,0,0,-1,1798,1464,19.2841,-14.868
581,-440,25.1965,20.0924,0,0,0,0,0,0,0,-1,1805,1464,25.1966,-20.0924
588,-440,25.2689,18.9703,0,0,0,0,0,0,0,-1,1812,1464,25.2689,-18.9704
595,-440,25.293,18.3386,0.00428888,0.00486466,-0.00370106,0.00828901,0.000864534,-0.824213,0.00526156,0.026307,1819,1464,25.293,-18.3386
602,-440,25.3707,17.7527,0.00353503,0.00356807,-0.00282005,0.00637164,0.000731456,-0.788327,0.00402615,0.0196915,1826,1464,25.3707,-17.7527
609,-440,25.3667,17.2345,0.00301052,0.00241822,-0.00207082,0.00480626,0.000622486,-0.714374,0.00301815,0.0163928,1833,1464,25.3667,-17.2345
616,-440,25.3491,16.7031,0.00263047,0.00150592,-0.00146377,0.00363625,0.000500146,-0.602024,0.00227584,0.0170176,1840,1464,25.3491,-16.7031
623,-440,25.3326,16.1724,0.00252726,0.000742014,-0.000990336,0.00296788,0.000301392,-0.418623,0.00188617,0.0137886,1847,1464,25.3326,-16.1724
630,-440,25.3176,15.6172,0.00263851,6.66366e-05,-0.000646145,0.00279172,-8.65709e-05,-0.232811,0.00189066,0.0122615,1854,1464,25.3176,-15.6172
637,-440,25.3036,15.1168,0.00280335,-0.000365144,-0.000396266,0.00285216,-0.000413951,-0.12255,0.00205338,0.0165976,1861,1464,25.3035,-15.1169
644,-440,25.3044,14.6234,0.00312405,-0.000491654,-0.000252834,0.00314165,-0.000509248,-0.069476,0.00228319,0.0147563,1868,1464,25.3044,-14.6234
651,-440,25.3269,14.0256,0.00359875,-0.000362558,-0.000274356,0.00361766,-0.000381469,-0.068821,0.00254847,0.0200338,1875,1464,25.327,-14.0256
658,-440,25.4032,13.3481,0,0,0,0,0,0,0,-1,1882,1464,25.4032,-13.3481
665,-440,24.2067,12.5813,0,0,0,0,0,0,0,-1,1889,1464,24.2067,-12.5813
672,-440,18.9385,9.6394,0,0,0,0,0,0,0,-1,1896,1464,18.9384,-9.63939
679,-440,16.9508,10.2336,0,0,0,0,0,0,0,-1,1903,1464,16.9508,-10.2337
686,-440,15.2556,8.44177,0,0,0,0,0,0,0,-1,1910,1464,15.2556,-8.44177
693,-440,9.88635,2.89795,0,0,0,0,0,0,0,-1,1917,1464,9.88638,-2.89798
700,-440,7.07825,-2.62061,0,0,0,0,0,0,0,-1,1924,1464,7.07829,2.62057
707,-440,0,0,0,0,0,0,0,0,0,-1,1931,1464,0,0
714,-440,0,0,0,0,0,0,0,0,0,-1,1938,1464,0,0
721,-440,0,0,0,0,0,0,0,0,0,-1,1945,1464,0,0
728,-440,0,0,0,0,0,0,0,0,0,-1,1952,1464,0,0
735,-440,0,0,0,0,0,0,0,0,0,-1,1959,1464,0,0
742,-440,0,0,0,0,0,0,0,0,0,-1,1966,1464,0,0
749,-440,0,0,0,0,0,0,0,0,0,-1,1973,1464,0,0
756,-440,0,0,0,0,0,0,0,0,0,-1,1980,1464,0,0
763,-440,0,0,0,0,0,0,0,0,0,-1,1987,1464,0,0
770,-440,0,0,0,0,0,0,0,0,0,-1,1994,1464,0,0
777,-440,0,0,0,0,0,0,0,0,0,-1,2001,1464,0,0
784,-440,0,0,0,0,0,0,0,0,0,-1,2008,1464,0,0
791,-440,0,0,0,0,0,0,0,0,0,-1,2015,1464,0,0
798,-440,0,0,0,0,0,0,0,0,0,-1,2022,1464,0,0
805,-440,0,0,0,0,0,0,0,0,0,-1,2029,1464,0,0
812,-440,0,0,0,0,0,0,0,0,0,-1,2036,1464,0,0
-700,-447,0,0,0,0,0,0,0,0,0,-1,524,1471,0,0
-693,-447,0,0,0,0,0,0,0,0,0,-1,531,1471,0,0
-686,-447,0,0,0,0,0,0,0,0,0,-1,538,1471,0,0
-679,-447,0,0,0,0,0,0,0,0,0,-1,545,1471,0,0
-672,-447,0,0,0,0,0,0,0,0,0,-1,552,1471,0,0
-665,-447,0,0,0,0,0,0,0,0,0,-1,559,1471,0,0
-658,-447,0,0,0,0,0,0,0,0,0,-1,566,1471,0,0
-651,-447,0,0,0,0,0,0,0,0,0,-1,573,1471,0,0
-644,-447,0,0,0,0,0,0,0,0,0,-1,580,1471,0,0
-637,-447,0,0,0,0,0,0,0,0,0,-1,587,1471,0,0
-630,-447,0,0,0,0,0,0,0,0,0,-1,594,1471,0,0
-623,-447,0,0,0,0,0,0,0,0,0,-1,601,1471,0,0
-616,-447,0,0,0,0,0,0,0,0,0,-1,608,1471,0,0
-609,-447,0,0,0,0,0,0,0,0,0,-1,615,1471,0,0
-602,-447,0,0,0,0,0,0,0,0,0,-1,622,1471,0,0
-595,-447,0,0,0,0,0,0,0,0,0,-1,629,1471,0,0
-588,-447,0,0,0,0,0,0,0,0,0,-1,636,1471,0,0
-581,-447,-7.06482,-1.50476,0,0,0,0,0,0,0,-1,643,1471,-7.0648,1.50474
-574,-447,-6.88092,-0.00585938,0,0,0,0,0,0,0,-1,650,1471,-6.88095,0.00589852
-567,-447,-6.8205,-1.32178,0,0,0,0,0,0,0,-1,657,1471,-6.82047,1.32172
-560,-447,-8.85748,2.80774,0,0,0,0,0,0,0,-1,664,1471,-8.85748,-2.80775
-553,-447,-7.60486,3.26794,0,0,0,0,0,0,0,-1,671,1471,-7.60487,-3.26799
-546,-447,-3.94501,1.8656,0,0,0,0,0,0,0,-1,678,1471,-3.945,-1.86554
-539,-447,-5.35492,4.50024,0,0,0,0,0,0,0,-1,685,1471,-5.35492,-4.50018
-532,-447,-6.12781,8.81091,0,0,0,0,0,0,0,-1,692,1471,-6.12781,-8.81094
-525,-447,-9.07745,11.7501,0,0,0,0,0,0,0,-1,699,1471,-9.07747,-11.7501
-518,-447,-9.15759,12.1086,0,0,0,0,0,0,0,-1,706,1471,-9.15757,-12.1087
-511,-447,-9.10034,12.8478,0.000466583,-0.000606634,-0.000330234,0.000560057,-0.000700107,-0.275836,0.000729052,0.0223882,713,1471,-9.10032,-12.8478
-504,-447,-9.07361,13.5077,0.000674289,-0.00028044,-1.36279e-05,0.000674484,-0.000280634,-0.0142702,0.00056685,0.0205027,720,1471,-9.07358,-13.5077
-497,-447,-9.12958,14.0648,0.000873637,0.000189492,0.000347851,0.00101943,4.36979e-05,0.396887,0.000665533,0.0239113,727,1471,-9.12957,-14.0648
-490,-447,-9.13116,14.5653,0.00114751,0.000817884,0.00079697,0.00179653,0.000168864,0.683435,0.00114556,0.0250982,734,1471,-9.13116,-14.5654
-483,-447,-9.19434,15.1182,0.00153432,0.00161333,0.00134096,0.00291537,0.000232279,0.800125,0.00187097,0.0225579,741,1471,-9.19436,-15.1181
-476,-447,-9.19952,15.7037,0.00206785,0.00258874,0.00205546,0.00440018,0.000256404,0.848416,0.00285183,0.0142218,748,1471,-9.19953,-15.7037
-469,-447,-9.22064,16.2983,0.00273304,0.00376753,0.00294336,0.00623875,0.000261825,0.872377,0.00407469,0.0134759,755,1471,-9.22065,-16.2983
-462,-447,-9.25513,16.8981,0.00357608,0.00507623,0.00394998,0.00834672,0.000305591,0.879228,0.00546547,0.0136317,762,1471,-9.25515,-16.8981
-455,-447,-9.28601,17.4784,0.00477475,0.0066749,0.00528359,0.0110932,0.000356497,0.874356,0.00727951,0.0216966,769,1471,-9.28602,-17.4783
-448,-447,-9.24139,18.0865,0,0,0,0,0,0,0,-1,776,1471,-9.24137,-18.0865
-441,-447,-8.68506,19.0931,0,0,0,0,0,0,0,-1,783,1471,-8.68504,-19.0932
-434,-447,-7.43402,15.6273,0,0,0,0,0,0,0,-1,790,1471,-7.43404,-15.6274
-427,-447,-7.21832,14.691,0,0,0,0,0,0,0,-1,797,1471,-7.21834,-14.6911
-420,-447,-8.0545,12.8055,0,0,0,0,0,0,0,-1,804,1471,-8.05452,-12.8055
-413,-447,-4.27393,6.59705,0,0,0,0,0,0,0,-1,811,1471,-4.27392,-6.59707
-406,-447,-1.04279,6.18591,0,0,0,0,0,0,0,-1,818,1471,-1.04276,-6.18586
-399,-447,0.0134888,0.687622,0,0,0,0,0,0,0,-1,825,1471,0.0134841,-0.68767
-392,-447,-14.0646,3.76147,0,0,0,0,0,0,0,-1,832,1471,-14.0646,-3.7615
-385,-447,-15.1695,2.61865,0,0,0,0,0,0,0,-1,839,1471,-15.1695,-2.61871
-378,-447,-15.9424,1.49316,0,0,0,0,0,0,0,-1,846,1471,-15.9424,-1.49313
-371,-447,-17.3655,0.73291,0,0,0,0,0,0,0,-1,853,1471,-17.3655,-0.732946
-364,-447,0,0,0,0,0,0,0,0,0,-1,860,1471,0,0
-357,-447,0,0,0,0,0,0,0,0,0,-1,867,1471,0,0
-350,-447,0,0,0,0,0,0,0,0,0,-1,874,1471,0,0
-343,-447,0,0,0,0,0,0,0,0,0,-1,881,1471,0,0
-336,-447,0,0,0,0,0,0,0,0,0,-1,888,1471,0,0
-329,-447,0,0,0,0,0,0,0,0,0,-1,895,1471,0,0
-322,-447,0,0,0,0,0,0,0,0,0,-1,902,1471,0,0
-315,-447,0,0,0,0,0,0,0,0,0,-1,909,1471,0,0
-308,-447,0,0,0,0,0,0,0,0,0,-1,916,1471,0,0
-301,-447,0,0,0,0,0,0,0,0,0,-1,923,1471,0,0
-294,-447,0,0,0,0,0,0,0,0,0,-1,930,1471,0,0
-287,-447,0,0,0,0,0,0,0,0,0,-1,937,1471,0,0
-280,-447,0,0,0,0,0,0,0,0,0,-1,944,1471,0,0
-273,-447,0,0,0,0,0,0,0,0,0,-1,951,1471,0,0
-266,-447,0,0,0,0,0,0,0,0,0,-1,958,1471,0,0
-259,-447,0,0,0,0,0,0,0,0,0,-1,965,1471,0,0
-252,-447,0,0,0,0,0,0,0,0,0,-1,972,1471,0,0
-245,-447,0,0,0,0,0,0,0,0,0,-1,979,1471,0,0
-238,-447,0,0,0,0,0,0,0,0,0,-1,986,1471,0,0
-231,-447,0,0,0,0,0,0,0,0,0,-1,993,1471,0,0
-224,-447,0,0,0,0,0,0,0,0,0,-1,1000,1471,0,0
-217,-447,0,0,0,0,0,0,0,0,0,-1,1007,1471,0,0
-210,-447,0,0,0,0,0,0,0,0,0,-1,1014,1471,0,0
-203,-447,0,0,0,0,0,0,0,0,0,-1,1021,1471,0,0
-196,-447,0,0,0,0,0,0,0,0,0,-1,1028,1471,0,0
-189,-447,0,0,0,0,0,0,0,0,0,-1,1035,1471,0,0
-182,-447,0,0,0,0,0,0,0,0,0,-1,1042,1471,0,0
-175,-447,0,0,0,0,0,0,0,0,0,-1,1049,1471,0,0
-168,-447,0,0,0,0,0,0,0,0,0,-1,1056,1471,0,0
-161,-447,0,0,0,0,0,0,0,0,0,-1,1063,1471,0,0
-154,-447,0,0,0,0,0,0,0,0,0,-1,1070,1471,0,0
-147,-447,0,0,0,0,0,0,0,0,0,-1,1077,1471,0,0
-140,-447,0,0,0,0,0,0,0,0,0,-1,1084,1471,0,0
-133,-447,0,0,0,0,0,0,0,0,0,-1,1091,1471,0,0
-126,-447,0,0,0,0,0,0,0,0,0,-1,1098,1471,0,0
-119,-447,0,0,0,0,0,0,0,0,0,-1,1105,1471,0,0
-112,-447,0,0,0,0,0,0,0,0,0,-1,1112,1471,0,0
-105,-447,0,0,0,0,0,0,0,0,0,-1,1119,1471,0,0
-98,-447,0,0,0,0,0,0,0,0,0,-1,1126,1471,0,0
-91,-447,0,0,0,0,0,0,0,0,0,-1,1133,1471,0,0
-84,-447,0,0,0,0,0,0,0,0,0,-1,1140,1471,0,0
-77,-447,0,0,0,0,0,0,0,0,0,-1,1147,1471,0,0
-70,-447,0,0,0,0,0,0,0,0,0,-1,1154,1471,0,0
-63,-447,0,0,0,0,0,0,0,0,0,-1,1161,1471,0,0
-56,-447,0,0,0,0,0,0,0,0,0,-1,1168,1471,0,0
-49,-447,0,0,0,0,0,0,0,0,0,-1,1175,1471,0,0
-42,-447,0,0,0,0,0,0,0,0,0,-1,1182,1471,0,0
-35,-447,0,0,0,0,0,0,0,0,0,-1,1189,1471,0,0
-28,-447,0,0,0,0,0,0,0,0,0,-1,1196,1471,0,0
-21,-447,0,0,0,0,0,0,0,0,0,-1,1203,1471,0,0
-14,-447,0,0,0,0,0,0,0,0,0,-1,1210,1471,0,0
-7,-447,0,0,0,0,0,0,0,0,0,-1,1217,1471,0,0
0,-447,0,0,0,0,0,0,0,0,0,-1,1224,1471,0,0
7,-447,0,0,0,0,0,0,0,0,0,-1,1231,1471,0,0
14,-447,0,0,0,0,0,0,0,0,0,-1,1238,1471,0,0
21,-447,0,0,0,0,0,0,0,0,0,-1,1245,1471,0,0
28,-447,0,0,0,0,0,0,0,0,0,-1,1252,1471,0,0
35,-447,0,0,0,0,0,0,0,0,0,-1,1259,1471,0,0
42,-447,0,0,0,0,0,0,0,0,0,-1,1266,1471,0,0
49,-447,0,0,0,0,0,0,0,0,0,-1,1273,1471,0,0
56,-447,0,0,0,0,0,0,0,0,0,-1,1280,1471,0,0
63,-447,0,0,0,0,0,0,0,0,0,-1,1287,1471,0,0
70,-447,0,0,0,0,0,0,0,0,0,-1,1294,1471,0,0
77,-447,0,0,0,0,0,0,0,0,0,-1,1301,1471,0,0
84,-447,0,0,0,0,0,0,0,0,0,-1,1308,1471,0,0
91,-447,0,0,0,0,0,0,0,0,0,-1,1315,1471,0,0
98,-447,0,0,0,0,0,0,0,0,0,-1,1322,1471,0,0
105,-447,0,0,0,0,0,0,0,0,0,-1,1329,1471,0,0
112,-447,0,0,0,0,0,0,0,0,0,-1,1336,1471,0,0
119,-447,0,0,0,0,0,0,0,0,0,-1,1343,1471,0,0
126,-447,0,0,0,0,0,0,0,0,0,-1,1350,1471,0,0
133,-447,0,0,0,0,0,0,0,0,0,-1,1357,1471,0,0
140,-447,0,0,0,0,0,0,0,0,0,-1,1364,1471,0,0
147,-447,0,0,0,0,0,0,0,0,0,-1,1371,1471,0,0
154,-447,0,0,0,0,0,0,0,0,0,-1,1378,1471,0,0
161,-447,0,0,0,0,0,0,0,0,0,-1,1385,1471,0,0
168,-447,0,0,0,0,0,0,0,0,0,-1,1392,1471,0,0
175,-447,0,0,0,0,0,0,0,0,0,-1,1399,1471,0,0
182,-447,0,0,0,0,0,0,0,0,0,-1,1406,1471,0,0
189,-447,0,0,0,0,0,0,0,0,0,-1,1413,1471,0,0
196,-447,0,0,0,0,0,0,0,0,0,-1,1420,1471,0,0
203,-447,0,0,0,0,0,0,0,0,0,-1,1427,1471,0,0
210,-447,0,0,0,0,0,0,0,0,0,-1,1434,1471,0,0
217,-447,0,0,0,0,0,0,0,0,0,-1,1441,1471,0,0
224,-447,0,0,0,0,0,0,0,0,0,-1,1448,1471,0,0
231,-447,0,0,0,0,0,0,0,0,0,-1,1455,1471,0,0
238,-447,0,0,0,0,0,0,0,0,0,-1,1462,1471,0,0
245,-447,0,0,0,0,0,0,0,0,0,-1,1469,1471,0,0
252,-447,0,0,0,0,0,0,0,0,0,-1,1476,1471,0,0
259,-447,0,0,0,0,0,0,0,0,0,-1,1483,1471,0,0
266,-447,0,0,0,0,0,0,0,0,0,-1,1490,1471,0,0
273,-447,0,0,0,0,0,0,0,0,0,-1,1497,1471,0,0
280,-447,0,0,0,0,0,0,0,0,0,-1,1504,1471,0,0
287,-447,0,0,0,0,0,0,0,0,0,-1,1511,1471,0,0
294,-447,0,0,0,0,0,0,0,0,0,-1,1518,1471,0,0
301,-447,0,0,0,0,0,0,0,0,0,-1,1525,1471,0,0
308,-447,0,0,0,0,0,0,0,0,0,-1,1532,1471,0,0
315,-447,0,0,0,0,0,0,0,0,0,-1,1539,1471,0,0
322,-447,0,0,0,0,0,0,0,0,0,-1,1546,1471,0,0
329,-447,0,0,0,0,0,0,0,0,0,-1,1553,1471,0,0
336,-447,0,0,0,0,0,0,0,0,0,-1,1560,1471,0,0
343,-447,0,0,0,0,0,0,0,0,0,-1,1567,1471,0,0
350,-447,0,0,0,0,0,0,0,0,0,-1,1574,1471,0,0
357,-447,0,0,0,0,0,0,0,0,0,-1,1581,1471,0,0
364,-447,0,0,0,0,0,0,0,0,0,-1,1588,1471,0,0
371,-447,0,0,0,0,0,0,0,0,0,-1,1595,1471,0,0
378,-447,0,0,0,0,0,0,0,0,0,-1,1602,1471,0,0
385,-447,0,0,0,0,0,0,0,0,0,-1,1609,1471,0,0
392,-447,0,0,0,0,0,0,0,0,0,-1,1616,1471,0,0
399,-447,0,0,0,0,0,0,0,0,0,-1,1623,1471,0,0
406,-447,0,0,0,0,0,0,0,0,0,-1,1630,1471,0,0
413,-447,0,0,0,0,0,0,0,0,0,-1,1637,1471,0,0
420,-447,0,0,0,0,0,0,0,0,0,-1,1644,1471,0,0
427,-447,0,0,0,0,0,0,0,0,0,-1,1651,1471,0,0
434,-447,0,0,0,0,0,0,0,0,0,-1,1658,1471,0,0
441,-447,0,0,0,0,0,0,0,0,0,-1,1665,1471,0,0
448,-447,0,0,0,0,0,0,0,0,0,-1,1672,1471,0,0
455,-447,0,0,0,0,0,0,0,0,0,-1,1679,1471,0,0
462,-447,0,0,0,0,0,0,0,0,0,-1,1686,1471,0,0
469,-447,0,0,0,0,0,0,0,0,0,-1,1693,1471,0,0
476,-447,0,0,0,0,0,0,0,0,0,-1,1700,1471,0,0
483,-447,0,0,0,0,0,0,0,0,0,-1,1707,1471,0,0
490,-447,18.2214,-0.810303,0,0,0,0,0,0,0,-1,1714,1471,18.2215,0.810307
497,-447,17.0237,0.352417,0,0,0,0,0,0,0,-1,1721,1471,17.0237,-0.352442
504,-447,15.8998,1.53479,0,0,0,0,0,0,0,-1,1728,1471,15.8997,-1.53478
511,-447,14.7201,2.76111,0,0,0,0,0,0,0,-1,1735,1471,14.7201,-2.76107
518,-447,17.7618,13.2864,0,0,0,0,0,0,0,-1,1742,1471,17.7619,-13.2863
525,-447,17.1191,11.9014,0,0,0,0,0,0,0,-1,1749,1471,17.1191,-11.9013
532,-447,16.3959,10.0455,0,0,0,0,0,0,0,-1,1756,1471,16.3959,-10.0456
539,-447,14.1699,10.0204,0,0,0,0,0,0,0,-1,1763,1471,14.1699,-10.0204
546,-447,16.3715,11.8046,0,0,0,0,0,0,0,-1,1770,1471,16.3714,-11.8046
553,-447,17.5106,13.4012,0,0,0,0,0,0,0,-1,1777,1471,17.5107,-13.4012
560,-447,17.0187,13.168,0,0,0,0,0,0,0,-1,1784,1471,17.0187,-13.168
567,-447,18.9286,15.1703,0,0,0,0,0,0,0,-1,1791,1471,18.9286,-15.1703
574,-447,24.3817,20.3656,0,0,0,0,0,0,0,-1,1798,1471,24.3817,-20.3656
581,-447,24.7612,19.6963,0.00600333,0.00613479,-0.00439377,0.0104633,0.0016748,-0.792878,0.00648972,0.0461281,1805,1471,24.7612,-19.6963
588,-447,24.8634,18.9109,0.00485294,0.00493491,-0.00368146,0.00857561,0.00121224,-0.790964,0.00535889,0.0248925,1812,1471,24.8634,-18.9109
595,-447,24.8616,18.3271,0.00389401,0.00384372,-0.00299324,0.00686221,0.000875521,-0.781198,0.00431269,0.0133081,1819,1471,24.8616,-18.3271
602,-447,24.835,17.7726,0.00330621,0.00274815,-0.00232185,0.00536573,0.000688622,-0.725598,0.00337114,0.0124568,1826,1471,24.835,-17.7726
609,-447,24.8242,17.2485,0.00292229,0.00176917,-0.00171196,0.00415217,0.000539288,-0.622972,0.00260701,0.0133216,1833,1471,24.8243,-17.2486
616,-447,24.8163,16.7137,0.00268063,0.000977613,-0.00120742,0.0033066,0.000351649,-0.478284,0.00209703,0.0133991,1840,1471,24.8163,-16.7138
623,-447,24.8054,16.2061,0.00270417,0.000267698,-0.000790114,0.00293796,3.39082e-05,-0.287685,0.00194744,0.0153068,1847,1471,24.8054,-16.206
630,-447,24.7794,15.6637,0.00292394,-0.000379607,-0.000465606,0.00298831,-0.000443976,-0.137377,0.00215549,0.00994903,1854,1471,24.7794,-15.6637
637,-447,24.7827,15.136,0.00322068,-0.000760851,-0.000252046,0.00323657,-0.000776743,-0.0629687,0.00245788,0.0108431,1861,1471,24.7827,-15.136
644,-447,24.8027,14.6216,0.00365752,-0.000902383,-0.000155103,0.00366279,-0.000907653,-0.0339622,0.00279399,0.0118656,1868,1471,24.8028,-14.6216
651,-447,24.8777,14.062,0.00426006,-0.000784622,-0.000209413,0.00426873,-0.0007933,-0.0414168,0.0031438,0.0492013,1875,1471,24.8776,-14.0621
658,-447,25.0981,13.3948,0,0,0,0,0,0,0,-1,1882,1471,25.0982,-13.3948
665,-447,18.4946,9.79919,0,0,0,0,0,0,0,-1,1889,1471,18.4946,-9.79922
672,-447,18.9784,9.66077,0,0,0,0,0,0,0,-1,1896,1471,18.9784,-9.66081
679,-447,14.844,7.4248,0,0,0,0,0,0,0,-1,1903,1471,14.844,-7.42477
686,-447,9.81079,4.30859,0,0,0,0,0,0,0,-1,1910,1471,9.8108,-4.30864
693,-447,10.48,2.08643,0,0,0,0,0,0,0,-1,1917,1471,10.48,-2.08642
700,-447,0,0,0,0,0,0,0,0,0,-1,1924,1471,0,0
707,-447,0,0,0,0,0,0,0,0,0,-1,1931,1471,0,0
714,-447,0,0,0,0,0,0,0,0,0,-1,1938,1471,0,0
721,-447,0,0,0,0,0,0,0,0,0,-1,1945,1471,0,0
728,-447,0,0,0,0,0,0,0,0,0,-1,1952,1471,0,0
735,-447,0,0,0,0,0,0,0,0,0,-1,1959,1471,0,0
742,-447,0,0,0,0,0,0,0,0,0,-1,1966,1471,0,0
749,-447,0,0,0,0,0,0,0,0,0,-1,1973,1471,0,0
756,-447,0,0,0,0,0,0,0,0,0,-1,1980,1471,0,0
763,-447,0,0,0,0,0,0,0,0,0,-1,1987,1471,0,0
770,-447,0,0,0,0,0,0,0,0,0,-1,1994,1471,0,0
777,-447,0,0,0,0,0,0,0,0,0,-1,2001,1471,0,0
784,-447,0,0,0,0,0,0,0,0,0,-1,2008,1471,0,0
791,-447,0,0,0,0,0,0,0,0,0,-1,2015,1471,0,0
798,-447,0,0,0,0,0,0,0,0,0,-1,2022,1471,0,0
805,-447,0,0,0,0,0,0,0,0,0,-1,2029,1471,0,0
812,-447,0,0,0,0,0,0,0,0,0,-1,2036,1471,0,0
-700,-454,0,0,0,0,0,0,0,0,0,-1,524,1478,0,0
-693,-454,0,0,0,0,0,0,0,0,0,-1,531,1478,0,0
-686,-454,0,0,0,0,0,0,0,0,0,-1,538,1478,0,0
-679,-454,0,0,0,0,0,0,0,0,0,-1,545,1478,0,0
-672,-454,0,0,0,0,0,0,0,0,0,-1,552,1478,0,0
-665,-454,0,0,0,0,0,0,0,0,0,-1,559,1478,0,0
-658,-454,0,0,0,0,0,0,0,0,0,-1,566,1478,0,0
-651,-454,0,0,0,0,0,0,0,0,0,-1,573,1478,0,0
-644,-454,0,0,0,0,0,0,0,0,0,-1,580,1478,0,0
-637,-454,0,0,0,0,0,0,0,0,0,-1,587,1478,0,0
-630,-454,0,0,0,0,0,0,0,0,0,-1,594,1478,0,0
-623,-454,0,0,0,0,0,0,0,0,0,-1,601,1478,0,0
-616,-454,0,0,0,0,0,0,0,0,0,-1,608,1478,0,0
-609,-454,0,0,0,0,0,0,0,0,0,-1,615,1478,0,0
-602,-454,0,0,0,0,0,0,0,0,0,-1,622,1478,0,0
-595,-454,0,0,0,0,0,0,0,0,0,-1,629,1478,0,0
-588,-454,0,0,0,0,0,0,0,0,0,-1,636,1478,0,0
-581,-454,0,0,0,0,0,0,0,0,0,-1,643,1478,0,0
-574,-454,-8.4881,-0.465942,0,0,0,0,0,0,0,-1,650,1478,-8.4881,0.465885
-567,-454,-8.10046,0.922974,0,0,0,0,0,0,0,-1,657,1478,-8.10047,-0.923034
-560,-454,-10.656,3.51172,0,0,0,0,0,0,0,-1,664,1478,-10.656,-3.51176
-553,-454,-9.01129,3.95251,0,0,0,0,0,0,0,-1,671,1478,-9.0113,-3.95256
-546,-454,-9.61896,6.05237,0,0,0,0,0,0,0,-1,678,1478,-9.61897,-6.05239
-539,-454,-7.72589,4.96533,0,0,0,0,0,0,0,-1,685,1478,-7.72592,-4.96532
-532,-454,-7.03931,7.59985,0,0,0,0,0,0,0,-1,692,1478,-7.03929,-7.59981
-525,-454,-5.78723,9.677,0,0,0,0,0,0,0,-1,699,1478,-5.78722,-9.67703
-518,-454,-8.4281,12.2958,0,0,0,0,0,0,0,-1,706,1478,-8.42809,-12.2958
-511,-454,-8.61731,12.7964,0.000215162,-0.00116713,-0.000687661,0.000498983,-0.00145095,-0.391436,0.00116966,0.0446389,713,1478,-8.6173,-12.7964
-504,-454,-8.53546,13.4728,0.000368986,-0.000883757,-0.000404119,0.000488035,-0.00100281,-0.286488,0.000877675,0.0174014,720,1478,-8.53545,-13.4727
-497,-454,-8.56287,14.0787,0.000480269,-0.00047412,-0.000109867,0.000492754,-0.000486605,-0.113146,0.000565437,0.0182514,727,1478,-8.56286,-14.0787
-490,-454,-8.58557,14.6428,0.000671067,6.50361e-05,0.000253691,0.000763244,-2.71414e-05,0.348514,0.000518114,0.0174219,734,1478,-8.58557,-14.6428
-483,-454,-8.61078,15.1998,0.000978523,0.000758803,0.000715064,0.00159212,0.000145209,0.709176,0.00101647,0.0154167,741,1478,-8.61077,-15.1998
-476,-454,-8.63599,15.7365,0.00145154,0.00162243,0.0013511,0.00289078,0.000183185,0.816977,0.00186912,0.0131517,748,1478,-8.63599,-15.7364
-469,-454,-8.64233,16.3179,0.00206424,0.00267944,0.00215932,0.00455297,0.000190717,0.856149,0.00297378,0.00994482,755,1478,-8.64234,-16.3179
-462,-454,-8.68524,16.9292,0.00283923,0.00382429,0.00306813,0.00643917,0.000224356,0.864985,0.00421998,0.0102396,762,1478,-8.68522,-16.9292
-455,-454,-8.71216,17.4883,0.00390603,0.00518102,0.00424303,0.00883418,0.000252876,0.859963,0.00580699,0.0115712,769,1478,-8.71214,-17.4882
-448,-454,-8.69257,18.0831,0.00531851,0.00688728,0.00576078,0.0119168,0.000288962,0.853062,0.00785001,0.0196687,776,1478,-8.69254,-18.0832
-441,-454,-8.45355,19.1166,0,0,0,0,0,0,0,-1,783,1478,-8.45353,-19.1166
-434,-454,-7.55743,19.4857,0,0,0,0,0,0,0,-1,790,1478,-7.55746,-19.4858
-427,-454,-6.00183,15.8636,0,0,0,0,0,0,0,-1,797,1478,-6.00184,-15.8637
-420,-454,-6.28088,15.2135,0,0,0,0,0,0,0,-1,804,1478,-6.28087,-15.2135
-413,-454,-5.4408,13.674,0,0,0,0,0,0,0,-1,811,1478,-5.44079,-13.6739
-406,-454,-2.38208,10.0308,0,0,0,0,0,0,0,-1,818,1478,-2.38209,-10.0308
-399,-454,-1.21033,6.95447,0,0,0,0,0,0,0,-1,825,1478,-1.21035,-6.95452
-392,-454,0.0967407,0.985474,0,0,0,0,0,0,0,-1,832,1478,0.0967364,-0.985529
-385,-454,2.38629,3.297,0,0,0,0,0,0,0,-1,839,1478,2.38629,-3.29702
-378,-454,-15.9756,2.83997,0,0,0,0,0,0,0,-1,846,1478,-15.9756,-2.83994
-371,-454,-17.2753,2.01453,0,0,0,0,0,0,0,-1,853,1478,-17.2753,-2.01455
-364,-454,1.08124,0.819458,0,0,0,0,0,0,0,-1,860,1478,1.08124,-0.819513
-357,-454,0,0,0,0,0,0,0,0,0,-1,867,1478,0,0
-350,-454,0,0,0,0,0,0,0,0,0,-1,874,1478,0,0
-343,-454,0,0,0,0,0,0,0,0,0,-1,881,1478,0,0
-336,-454,0,0,0,0,0,0,0,0,0,-1,888,1478,0,0
-329,-454,0,0,0,0,0,0,0,0,0,-1,895,1478,0,0
-322,-454,0,0,0,0,0,0,0,0,0,-1,902,1478,0,0
-315,-454,0,0,0,0,0,0,0,0,0,-1,909,1478,0,0
-308,-454,0,0,0,0,0,0,0,0,0,-1,916,1478,0,0
-301,-454,0,0,0,0,0,0,0,0,0,-1,923,1478,0,0
-294,-454,0,0,0,0,0,0,0,0,0,-1,930,1478,0,0
-287,-454,0,0,0,0,0,0,0,0,0,-1,937,1478,0,0
-280,-454,0,0,0,0,0,0,0,0,0,-1,944,1478,0,0
-273,-454,0,0,0,0,0,0,0,0,0,-1,951,1478,0,0
-266,-454,0,0,0,0,0,0,0,0,0,-1,958,1478,0,0
-259,-454,0,0,0,0,0,0,0,0,0,-1,965,1478,0,0
-252,-454,0,0,0,0,0,0,0,0,0,-1,972,1478,0,0
-245,-454,0,0,0,0,0,0,0,0,0,-1,979,1478,0,0
-238,-454,0,0,0,0,0,0,0,0,0,-1,986,1478,0,0
-231,-454,0,0,0,0,0,0,0,0,0,-1,993,1478,0,0
-224,-454,0,0,0,0,0,0,0,0,0,-1,1000,1478,0,0
-217,-454,0,0,0,0,0,0,0,0,0,-1,1007,1478,0,0
-210,-454,0,0,0,0,0,0,0,0,0,-1,1014,1478,0,0
-203,-454,0,0,0,0,0,0,0,0,0,-1,1021,1478,0,0
-196,-454,0,0,0,0,0,0,0,0,0,-1,1028,1478,0,0
-189,-454,0,0,0,0,0,0,0,0,0,-1,1035,1478,0,0
-182,-454,0,0,0,0,0,0,0,0,0,-1,1042,1478,0,0
-175,-454,0,0,0,0,0,0,0,0,0,-1,1049,1478,0,0
-168,-454,0,0,0,0,0,0,0,0,0,-1,1056,1478,0,0
-161,-454,0,0,0,0,0,0,0,0,0,-1,1063,1478,0,0
-154,-454,0,0,0,0,0,0,0,0,0,-1,1070,1478,0,0
-147,-454,0,0,0,0,0,0,0,0,0,-1,1077,1478,0,0
-140,-454,0,0,0,0,0,0,0,0,0,-1,1084,1478,0,0
-133,-454,0,0,0,0,0,0,0,0,0,-1,1091,1478,0,0
-126,-454,0,0,0,0,0,0,0,0,0,-1,1098,1478,0,0
-119,-454,0,0,0,0,0,0,0,0,0,-1,1105,1478,0,0
-112,-454,0,0,0,0,0,0,0,0,0,-1,1112,1478,0,0
-105,-454,0,0,0,0,0,0,0,0,0,-1,1119,1478,0,0
-98,-454,0,0,0,0,0,0,0,0,0,-1,1126,1478,0,0
-91,-454,0,0,0,0,0,0,0,0,0,-1,1133,1478,0,0
-84,-454,0,0,0,0,0,0,0,0,0,-1,1140,1478,0,0
-77,-454,0,0,0,0,0,0,0,0,0,-1,1147,1478,0,0
-70,-454,0,0,0,0,0,0,0,0,0,-1,1154,1478,0,0
-63,-454,0,0,0,0,0,0,0,0,0,-1,1161,1478,0,0
-56,-454,0,0,0,0,0,0,0,0,0,-1,1168,1478,0,0
-49,-454,0,0,0,0,0,0,0,0,0,-1,1175,1478,0,0
-42,-454,0,0,0,0,0,0,0,0,0,-1,1182,1478,0,0
-35,-454,0,0,0,0,0,0,0,0,0,-1,1189,1478,0,0
-28,-454,0,0,0,0,0,0,0,0,0,-1,1196,1478,0,0
-21,-454,0,0,0,0,0,0,0,0,0,-1,1203,1478,0,0
-14,-454,0,0,0,0,0,0,0,0,0,-1,1210,1478,0,0
-7,-454,0,0,0,0,0,0,0,0,0,-1,1217,1478,0,0
0,-454,0,0,0,0,0,0,0,0,0,-1,1224,1478,0,0
7,-454,0,0,0,0,0,0,0,0,0,-1,1231,1478,0,0
14,-454,0,0,0,0,0,0,0,0,0,-1,1238,1478,0,0
21,-454,0,0,0,0,0,0,0,0,0,-1,1245,1478,0,0
28,-454,0,0,0,0,0,0,0,0,0,-1,1252,1478,0,0
35,-454,0,0,0,0,0,0,0,0,0,-1,1259,1478,0,0
42,-454,0,0,0,0,0,0,0,0,0,-1,1266,1478,0,0
49,-454,0,0,0,0,0,0,0,0,0,-1,1273,1478,0,0
56,-454,0,0,0,0,0,0,0,0,0,-1,1280,1478,0,0
63,-454,0,0,0,0,0,0,0,0,0,-1,1287,1478,0,0
70,-454,0,0,0,0,0,0,0,0,0,-1,1294,1478,0,0
77,-454,0,0,0,0,0,0,0,0,0,-1,1301,1478,0,0
84,-454,0,0,0,0,0,0,0,0,0,-1,1308,1478,0,0
91,-454,0,0,0,0,0,0,0,0,0,-1,1315,1478,0,0
98,-454,0,0,0,0,0,0,0,0,0,-1,1322,1478,0,0
105,-454,0,0,0,0,0,0,0,0,0,-1,1329,1478,0,0
112,-454,0,0,0,0,0,0,0,0,0,-1,1336,1478,0,0
119,-454,0,0,0,0,0,0,0,0,0,-1,1343,1478,0,0
126,-454,0,0,0,0,0,0,0,0,0,-1,1350,1478,0,0
133,-454,0,0,0,0,0,0,0,0,0,-1,1357,1478,0,0
140,-454,0,0,0,0,0,0,0,0,0,-1,1364,1478,0,0
147,-454,0,0,0,0,0,0,0,0,0,-1,1371,1478,0,0
154,-454,0,0,0,0,0,0,0,0,0,-1,1378,1478,0,0
161,-454,0,0,0,0,0,0,0,0,0,-1,1385,1478,0,0
168,-454,0,0,0,0,0,0,0,0,0,-1,1392,1478,0,0
175,-454,0,0,0,0,0,0,0,0,0,-1,1399,1478,0,0
182,-454,0,0,0,0,0,0,0,0,0,-1,1406,1478,0,0
189,-454,0,0,0,0,0,0,0,0,0,-1,1413,1478,0,0
196,-454,0,0,0,0,0,0,0,0,0,-1,1420,1478,0,0
203,-454,0,0,0,0,0,0,0,0,0,-1,1427,1478,0,0
210,-454,0,0,0,0,0,0,0,0,0,-1,1434,1478,0,0
217,-454,0,0,0,0,0,0,0,0,0,-1,1441,1478,0,0
224,-454,0,0,0,0,0,0,0,0,0,-1,1448,1478,0,0
231,-454,0,0,0,0,0,0,0,0,0,-1,1455,1478,0,0
238,-454,0,0,0,0,0,0,0,0,0,-1,1462,1478,0,0
245,-454,0,0,0,0,0,0,0,0,0,-1,1469,1478,0,0
252,-454,0,0,0,0,0,0,0,0,0,-1,1476,1478,0,0
259,-454,0,0,0,0,0,0,0,0,0,-1,1483,1478,0,0
266,-454,0,0,0,0,0,0,0,0,0,-1,1490,1478,0,0
273,-454,0,0,0,0,0,0,0,0,0,-1,1497,1478,0,0
280,-454,0,0,0,0,0,0,0,0,0,-1,1504,1478,0,0
287,-454,0,0,0,0,0,0,0,0,0,-1,1511,1478,0,0
294,-454,0,0,0,0,0,0,0,0,0,-1,1518,1478,0,0
301,-454,0,0,0,0,0,0,0,0,0,-1,1525,1478,0,0
308,-454,0,0,0,0,0,0,0,0,0,-1,1532,1478,0,0
315,-454,0,0,0,0,0,0,0,0,0,-1,1539,1478,0,0
322,-454,0,0,0,0,0,0,0,0,0,-1,1546,1478,0,0
329,-454,0,0,0,0,0,0,0,0,0,-1,1553,1478,0,0
336,-454,0,0,0,0,0,0,0,0,0,-1,1560,1478,0,0
343,-454,0,0,0,0,0,0,0,0,0,-1,1567,1478,0,0
350,-454,0,0,0,0,0,0,0,0,0,-1,1574,1478,0,0
357,-454,0,0,0,0,0,0,0,0,0,-1,1581,1478,0,0
364,-454,0,0,0,0,0,0,0,0,0,-1,1588,1478,0,0
371,-454,0,0,0,0,0,0,0,0,0,-1,1595,1478,0,0
378,-454,0,0,0,0,0,0,0,0,0,-1,1602,1478,0,0
385,-454,0,0,0,0,0,0,0,0,0,-1,1609,1478,0,0
392,-454,0,0,0,0,0,0,0,0,0,-1,1616,1478,0,0
399,-454,0,0,0,0,0,0,0,0,0,-1,1623,1478,0,0
406,-454,0,0,0,0,0,0,0,0,0,-1,1630,1478,0,0
413,-454,0,0,0,0,0,0,0,0,0,-1,1637,1478,0,0
420,-454,0,0,0,0,0,0,0,0,0,-1,1644,1478,0,0
427,-454,0,0,0,0,0,0,0,0,0,-1,1651,1478,0,0
434,-454,0,0,0,0,0,0,0,0,0,-1,1658,1478,0,0
441,-454,0,0,0,0,0,0,0,0,0,-1,1665,1478,0,0
448,-454,0,0,0,0,0,0,0,0,0,-1,1672,1478,0,0
455,-454,0,0,0,0,0,0,0,0,0,-1,1679,1478,0,0
462,-454,0,0,0,0,0,0,0,0,0,-1,1686,1478,0,0
469,-454,0,0,0,0,0,0,0,0,0,-1,1693,1478,0,0
476,-454,0,0,0,0,0,0,0,0,0,-1,1700,1478,0,0
483,-454,14.2399,3.97498,0,0,0,0,0,0,0,-1,1707,1478,14.2399,-3.97502
490,-454,18.1821,-0.175781,0,0,0,0,0,0,0,-1,1714,1478,18.1821,0.175822
497,-454,16.8854,1.01208,0,0,0,0,0,0,0,-1,1721,1478,16.8854,-1.01209
504,-454,15.587,2.05994,0,0,0,0,0,0,0,-1,1728,1478,15.5871,-2.05998
511,-454,17.0273,14.5258,0,0,0,0,0,0,0,-1,1735,1478,17.0273,-14.5258
518,-454,16.4158,13.1039,0,0,0,0,0,0,0,-1,1742,1478,16.4157,-13.1038
525,-454,15.7842,11.6628,0,0,0,0,0,0,0,-1,1749,1478,15.7841,-11.6629
532,-454,15.1094,10.2476,0,0,0,0,0,0,0,-1,1756,1478,15.1094,-10.2475
539,-454,13.7905,10.9373,0,0,0,0,0,0,0,-1,1763,1478,13.7906,-10.9372
546,-454,16.2002,13.2458,0,0,0,0,0,0,0,-1,1770,1478,16.2002,-13.2459
553,-454,15.6747,12.1868,0,0,0,0,0,0,0,-1,1777,1478,15.6747,-12.1868
560,-454,16.3895,14.0527,0,0,0,0,0,0,0,-1,1784,1478,16.3895,-14.0528
567,-454,24.5181,20.7147,0,0,0,0,0,0,0,-1,1791,1478,24.518,-20.7148
574,-454,24.3545,20.0165,0.00634551,0.005728,-0.00415618,0.0102044,0.00186912,-0.748322,0.0062734,0.0395162,1798,1478,24.3545,-20.0165
581,-454,24.3209,19.4274,0.00519438,0.00485277,-0.0035655,0.00859317,0.00145399,-0.761464,0.00531088,0.02352,1805,1478,24.321,-19.4274
588,-454,24.3717,18.8597,0.0041953,0.00384628,-0.00293859,0.00696456,0.00107702,-0.75574,0.00432892,0.0135963,1812,1478,24.3717,-18.8597
595,-454,24.3289,18.3395,0.00345596,0.00292553,-0.00237596,0.00558146,0.000800032,-0.729817,0.00348504,0.0127533,1819,1478,24.3289,-18.3395
602,-454,24.309,17.8037,0.00300872,0.00199681,-0.00185211,0.00442274,0.000582788,-0.652064,0.00277471,0.00987943,1826,1478,24.309,-17.8037
609,-454,24.3044,17.2858,0.00275326,0.00115426,-0.0013465,0.00351973,0.00038779,-0.517489,0.0022285,0.011191,1833,1478,24.3044,-17.2858
616,-454,24.295,16.7583,0.00264754,0.000442604,-0.000909146,0.00297405,0.000116093,-0.344795,0.00194516,0.0128698,1840,1478,24.2951,-16.7584
623,-454,24.3047,16.2357,0.00280579,-0.000246222,-0.000522087,0.00289263,-0.000333061,-0.164822,0.00204848,0.0136547,1847,1478,24.3046,-16.2357
630,-454,24.3065,15.6995,0.00316008,-0.000885985,-0.000197766,0.00316972,-0.000895629,-0.0487238,0.0024665,0.0134442,1854,1478,24.3065,-15.6995
637,-454,24.2421,15.176,0.00367259,-0.00123048,-1.73646e-05,0.00367265,-0.00123054,-0.00354153,0.00294557,0.0117189,1861,1478,24.2421,-15.1761
644,-454,24.3252,14.6353,0.00440114,-0.00145127,2.8308e-05,0.00440128,-0.00145141,0.00483684,0.00351921,0.022208,1868,1478,24.3252,-14.6353
651,-454,24.5081,14.0012,0,0,0,0,0,0,0,-1,1875,1478,24.5081,-14.0013
658,-454,17.2583,10.0765,0,0,0,0,0,0,0,-1,1882,1478,17.2583,-10.0765
665,-454,17.683,9.67566,0,0,0,0,0,0,0,-1,1889,1478,17.683,-9.67572
672,-454,16.5476,6.41931,0,0,0,0,0,0,0,-1,1896,1478,16.5476,-6.41929
679,-454,14.2161,5.45007,0,0,0,0,0,0,0,-1,1903,1478,14.2161,-5.45013
686,-454,10.3767,2.12842,0,0,0,0,0,0,0,-1,1910,1478,10.3767,-2.12839
693,-454,11.1857,1.48486,0,0,0,0,0,0,0,-1,1917,1478,11.1857,-1.48487
700,-454,0,0,0,0,0,0,0,0,0,-1,1924,1478,0,0
707,-454,0,0,0,0,0,0,0,0,0,-1,1931,1478,0,0
714,-454,0,0,0,0,0,0,0,0,0,-1,1938,1478,0,0
721,-454,0,0,0,0,0,0,0,0,0,-1,1945,1478,0,0
728,-454,0,0,0,0,0,0,0,0,0,-1,1952,1478,0,0
735,-454,0,0,0,0,0,0,0,0,0,-1,1959,1478,0,0
742,-454,0,0,0,0,0,0,0,0,0,-1,1966,1478,0,0
749,-454,0,0,0,0,0,0,0,0,0,-1,1973,1478,0,0
756,-454,0,0,0,0,0,0,0,0,0,-1,1980,1478,0,0
763,-454,0,0,0,0,0,0,0,0,0,-1,1987,1478,0,0
770,-454,0,0,0,0,0,0,0,0,0,-1,1994,1478,0,0
777,-454,0,0,0,0,0,0,0,0,0,-1,2001,1478,0,0
784,-454,0,0,0,0,0,0,0,0,0,-1,2008,1478,0,0
791,-454,0,0,0,0,0,0,0,0,0,-1,2015,1478,0,0
798,-454,0,0,0,0,0,0,0,0,0,-1,2022,1478,0,0
805,-454,0,0,0,0,0,0,0,0,0,-1,2029,1478,0,0
812,-454,0,0,0,0,0,0,0,0,0,-1,2036,1478,0,0
-700,-461,0,0,0,0,0,0,0,0,0,-1,524,1485,0,0
-693,-461,0,0,0,0,0,0,0,0,0,-1,531,1485,0,0
-686,-461,0,0,0,0,0,0,0,0,0,-1,538,1485,0,0
-679,-461,0,0,0,0,0,0,0,0,0,-1,545,1485,0,0
-672,-461,0,0,0,0,0,0,0,0,0,-1,552,1485,0,0
-665,-461,0,0,0,0,0,0,0,0,0,-1,559,1485,0,0
-658,-461,0,0,0,0,0,0,0,0,0,-1,566,1485,0,0
-651,-461,0,0,0,0,0,0,0,0,0,-1,573,1485,0,0
-644,-461,0,0,0,0,0,0,0,0,0,-1,580,1485,0,0
-637,-461,0,0,0,0,0,0,0,0,0,-1,587,1485,0,0
-630,-461,0,0,0,0,0,0,0,0,0,-1,594,1485,0,0
-623,-461,0,0,0,0,0,0,0,0,0,-1,601,1485,0,0
-616,-461,0,0,0,0,0,0,0,0,0,-1,608,1485,0,0
-609,-461,0,0,0,0,0,0,0,0,0,-1,615,1485,0,0
-602,-461,0,0,0,0,0,0,0,0,0,-1,622,1485,0,0
-595,-461,0,0,0,0,0,0,0,0,0,-1,629,1485,0,0
-588,-461,0,0,0,0,0,0,0,0,0,-1,636,1485,0,0
-581,-461,0,0,0,0,0,0,0,0,0,-1,643,1485,0,0
-574,-461,0,0,0,0,0,0,0,0,0,-1,650,1485,0,0
-567,-461,-9.69031,0.513306,0,0,0,0,0,0,0,-1,657,1485,-9.69032,-0.513305
-560,-461,-7.28815,1.54004,0,0,0,0,0,0,0,-1,664,1485,-7.28817,-1.54005
-553,-461,-11.9607,5.27783,0,0,0,0,0,0,0,-1,671,1485,-11.9607,-5.27778
-546,-461,-11.4215,4.44666,0,0,0,0,0,0,0,-1,678,1485,-11.4215,-4.4467
-539,-461,-9.36493,5.23438,0,0,0,0,0,0,0,-1,685,1485,-9.3649,-5.23432
-532,-461,-7.82898,6.78357,0,0,0,0,0,0,0,-1,692,1485,-7.829,-6.78363
-525,-461,-6.37878,8.75659,0,0,0,0,0,0,0,-1,699,1485,-6.3788,-8.75659
-518,-461,-6.49695,10.886,0,0,0,0,0,0,0,-1,706,1485,-6.49696,-10.8859
-511,-461,-8.16046,12.9144,0,0,0,0,0,0,0,-1,713,1485,-8.16046,-12.9144
-504,-461,-8.05249,13.4257,-0.00197526,-0.00130226,-0.000163603,-0.0012646,-0.00201293,-1.34453,0.00117484,0.0281146,720,1485,-8.05246,-13.4257
-497,-461,-7.98309,14.0861,-0.00165374,-0.000939561,-5.62322e-05,-0.000935161,-0.00165814,-1.4927,0.000959937,0.0105231,727,1485,-7.98309,-14.086
-490,-461,-8.01105,14.6613,-0.00121535,-0.000492928,0.000108111,-0.000477096,-0.00123118,1.42539,0.000716792,0.0114578,734,1485,-8.01107,-14.6612
-483,-461,-8.03784,15.2288,-0.000607436,8.90102e-05,0.000384628,0.00025963,-0.000778056,1.15328,0.000623534,0.0119167,741,1485,-8.03787,-15.2288
-476,-461,-8.07562,15.7906,0.000191478,0.000816233,0.000838997,0.00139912,-0.000391408,0.963609,0.00108696,0.0110379,748,1485,-8.07563,-15.7906
-469,-461,-8.09894,16.3657,0.00113121,0.00172014,0.00147974,0.00293443,-8.30783e-05,0.883614,0.00198456,0.0125341,755,1485,-8.09896,-16.3657
-462,-461,-8.11182,16.9641,0.0022036,0.0026842,0.00222032,0.00467719,0.000210611,0.839302,0.00305035,0.0172913,762,1485,-8.11184,-16.9641
-455,-461,-8.14044,17.517,0.00345704,0.00379719,0.00317356,0.00680523,0.000448997,0.812168,0.0043948,0.0214952,769,1485,-8.14043,-17.517
-448,-461,-8.14911,18.0754,0.0050206,0.00525119,0.00449627,0.00963364,0.000638152,0.798217,0.00622063,0.0203089,776,1485,-8.14912,-18.0754
-441,-461,-8.06128,18.7252,0.00687882,0.00681501,0.0061706,0.0130176,0.000676231,0.782813,0.008462,0.0279392,783,1485,-8.06126,-18.7252
-434,-461,-7.88062,19.5443,0,0,0,0,0,0,0,-1,790,1485,-7.88064,-19.5443
-427,-461,-7.54248,19.8829,0,0,0,0,0,0,0,-1,797,1485,-7.54248,-19.8829
-420,-461,-5.70355,16.6116,0,0,0,0,0,0,0,-1,804,1485,-5.70353,-16.6115
-413,-461,-5.98798,16.0605,0,0,0,0,0,0,0,-1,811,1485,-5.98796,-16.0605
-406,-461,-5.52667,14.839,0,0,0,0,0,0,0,-1,818,1485,-5.52666,-14.839
-399,-461,-1.93439,9.82849,0,0,0,0,0,0,0,-1,825,1485,-1.9344,-9.82846
-392,-461,-0.357544,5.55225,0,0,0,0,0,0,0,-1,832,1485,-0.357536,-5.55228
-385,-461,1.71509,3.35254,0,0,0,0,0,0,0,-1,839,1485,1.71511,-3.35255
-378,-461,1.95996,3.01111,0,0,0,0,0,0,0,-1,846,1485,1.95993,-3.01111
-371,-461,0.702881,2.33459,0,0,0,0,0,0,0,-1,853,1485,0.702859,-2.33459
-364,-461,-1.93097,2.56458,0,0,0,0,0,0,0,-1,860,1485,-1.93095,-2.56456
-357,-461,-2.41516,3.49487,0,0,0,0,0,0,0,-1,867,1485,-2.41517,-3.49487
-350,-461,0,0,0,0,0,0,0,0,0,-1,874,1485,0,0
-343,-461,0,0,0,0,0,0,0,0,0,-1,881,1485,0,0
-336,-461,0,0,0,0,0,0,0,0,0,-1,888,1485,0,0
-329,-461,0,0,0,0,0,0,0,0,0,-1,895,1485,0,0
-322,-461,0,0,0,0,0,0,0,0,0,-1,902,1485,0,0
-315,-461,0,0,0,0,0,0,0,0,0,-1,909,1485,0,0
-308,-461,0,0,0,0,0,0,0,0,0,-1,916,1485,0,0
-301,-461,0,0,0,0,0,0,0,0,0,-1,923,1485,0,0
-294,-461,0,0,0,0,0,0,0,0,0,-1,930,1485,0,0
-287,-461,0,0,0,0,0,0,0,0,0,-1,937,1485,0,0
-280,-461,0,0,0,0,0,0,0,0,0,-1,944,1485,0,0
-273,-461,0,0,0,0,0,0,0,0,0,-1,951,1485,0,0
-266,-461,0,0,0,0,0,0,0,0,0,-1,958,1485,0,0
-259,-461,0,0,0,0,0,0,0,0,0,-1,965,1485,0,0
-252,-461,0,0,0,0,0,0,0,0,0,-1,972,1485,0,0
-245,-461,0,0,0,0,0,0,0,0,0,-1,979,1485,0,0
-238,-461,0,0,0,0,0,0,0,0,0,-1,986,1485,0,0
-231,-461,0,0,0,0,0,0,0,0,0,-1,993,1485,0,0
-224,-461,0,0,0,0,0,0,0,0,0,-1,1000,1485,0,0
-217,-461,0,0,0,0,0,0,0,0,0,-1,1007,1485,0,0
-210,-461,0,0,0,0,0,0,0,0,0,-1,1014,1485,0,0
-203,-461,0,0,0,0,0,0,0,0,0,-1,1021,1485,0,0
-196,-461,0,0,0,0,0,0,0,0,0,-1,1028,1485,0,0
-189,-461,0,0,0,0,0,0,0,0,0,-1,1035,1485,0,0
-182,-461,0,0,0,0,0,0,0,0,0,-1,1042,1485,0,0
-175,-461,0,0,0,0,0,0,0,0,0,-1,1049,1485,0,0
-168,-461,0,0,0,0,0,0,0,0,0,-1,1056,1485,0,0
-161,-461,0,0,0,0,0,0,0,0,0,-1,1063,1485,0,0
-154,-461,0,0,0,0,0,0,0,0,0,-1,1070,1485,0,0
-147,-461,0,0,0,0,0,0,0,0,0,-1,1077,1485,0,0
-140,-461,0,0,0,0,0,0,0,0,0,-1,1084,1485,0,0
-133,-461,0,0,0,0,0,0,0,0,0,-1,1091,1485,0,0
-126,-461,0,0,0,0,0,0,0,0,0,-1,1098,1485,0,0
-119,-461,0,0,0,0,0,0,0,0,0,-1,1105,1485,0,0
-112,-461,0,0,0,0,0,0,0,0,0,-1,1112,1485,0,0
-105,-461,0,0,0,0,0,0,0,0,0,-1,1119,1485,0,0
-98,-461,0,0,0,0,0,0,0,0,0,-1,1126,1485,0,0
-91,-461,0,0,0,0,0,0,0,0,0,-1,1133,1485,0,0
-84,-461,0,0,0,0,0,0,0,0,0,-1,1140,1485,0,0
-77,-461,0,0,0,0,0,0,0,0,0,-1,1147,1485,0,0
-70,-461,0,0,0,0,0,0,0,0,0,-1,1154,1485,0,0
-63,-461,0,0,0,0,0,0,0,0,0,-1,1161,1485,0,0
-56,-461,0,0,0,0,0,0,0,0,0,-1,1168,1485,0,0
-49,-461,0,0,0,0,0,0,0,0,0,-1,1175,1485,0,0
-42,-461,0,0,0,0,0,0,0,0,0,-1,1182,1485,0,0
-35,-461,0,0,0,0,0,0,0,0,0,-1,1189,1485,0,0
-28,-461,0,0,0,0,0,0,0,0,0,-1,1196,1485,0,0
-21,-461,0,0,0,0,0,0,0,0,0,-1,1203,1485,0,0
-14,-461,0,0,0,0,0,0,0,0,0,-1,1210,1485,0,0
-7,-461,0,0,0,0,0,0,0,0,0,-1,1217,1485,0,0
0,-461,0,0,0,0,0,0,0,0,0,-1,1224,1485,0,0
7,-461,0,0,0,0,0,0,0,0,0,-1,1231,1485,0,0
14,-461,0,0,0,0,0,0,0,0,0,-1,1238,1485,0,0
21,-461,0,0,0,0,0,0,0,0,0,-1,1245,1485,0,0
28,-461,0,0,0,0,0,0,0,0,0,-1,1252,1485,0,0
35,-461,0,0,0,0,0,0,0,0,0,-1,1259,1485,0,0
42,-461,0,0,0,0,0,0,0,0,0,-1,1266,1485,0,0
49,-461,0,0,0,0,0,0,0,0,0,-1,1273,1485,0,0
56,-461,0,0,0,0,0,0,0,0,0,-1,1280,1485,0,0
63,-461,0,0,0,0,0,0,0,0,0,-1,1287,1485,0,0
70,-461,0,0,0,0,0,0,0,0,0,-1,1294,1485,0,0
77,-461,0,0,0,0,0,0,0,0,0,-1,1301,1485,0,0
84,-461,0,0,0,0,0,0,0,0,0,-1,1308,1485,0,0
91,-461,0,0,0,0,0,0,0,0,0,-1,1315,1485,0,0
98,-461,0,0,0,0,0,0,0,0,0,-1,1322,1485,0,0
105,-461,0,0,0,0,0,0,0,0,0,-1,1329,1485,0,0
112,-461,0,0,0,0,0,0,0,0,0,-1,1336,1485,0,0
119,-461,0,0,0,0,0,0,0,0,0,-1,1343,1485,0,0
126,-461,0,0,0,0,0,0,0,0,0,-1,1350,1485,0,0
133,-461,0,0,0,0,0,0,0,0,0,-1,1357,1485,0,0
140,-461,0,0,0,0,0,0,0,0,0,-1,1364,1485,0,0
147,-461,0,0,0,0,0,0,0,0,0,-1,1371,1485,0,0
154,-461,0,0,0,0,0,0,0,0,0,-1,1378,1485,0,0
161,-461,0,0,0,0,0,0,0,0,0,-1,1385,1485,0,0
168,-461,0,0,0,0,0,0,0,0,0,-1,1392,1485,0,0
175,-461,0,0,0,0,0,0,0,0,0,-1,1399,1485,0,0
182,-461,0,0,0,0,0,0,0,0,0,-1,1406,1485,0,0
189,-461,0,0,0,0,0,0,0,0,0,-1,1413,1485,0,0
196,-461,0,0,0,0,0,0,0,0,0,-1,1420,1485,0,0
203,-461,0,0,0,0,0,0,0,0,0,-1,1427,1485,0,0
210,-461,0,0,0,0,0,0,0,0,0,-1,1434,1485,0,0
217,-461,0,0,0,0,0,0,0,0,0,-1,1441,1485,0,0
224,-461,0,0,0,0,0,0,0,0,0,-1,1448,1485,0,0
231,-461,0,0,0,0,0,0,0,0,0,-1,1455,1485,0,0
238,-461,0,0,0,0,0,0,0,0,0,-1,1462,1485,0,0
245,-461,0,0,0,0,0,0,0,0,0,-1,1469,1485,0,0
252,-461,0,0,0,0,0,0,0,0,0,-1,1476,1485,0,0
259,-461,0,0,0,0,0,0,0,0,0,-1,1483,1485,0,0
266,-461,0,0,0,0,0,0,0,0,0,-1,1490,1485,0,0
273,-461,0,0,0,0,0,0,0,0,0,-1,1497,1485,0,0
280,-461,0,0,0,0,0,0,0,0,0,-1,1504,1485,0,0
287,-461,0,0,0,0,0,0,0,0,0,-1,1511,1485,0,0
294,-461,0,0,0,0,0,0,0,0,0,-1,1518,1485,0,0
301,-461,0,0,0,0,0,0,0,0,0,-1,1525,1485,0,0
308,-461,0,0,0,0,0,0,0,0,0,-1,1532,1485,0,0
315,-461,0,0,0,0,0,0,0,0,0,-1,1539,1485,0,0
322,-461,0,0,0,0,0,0,0,0,0,-1,1546,1485,0,0
329,-461,0,0,0,0,0,0,0,0,0,-1,1553,1485,0,0
336,-461,0,0,0,0,0,0,0,0,0,-1,1560,1485,0,0
343,-461,0,0,0,0,0,0,0,0,0,-1,1567,1485,0,0
350,-461,0,0,0,0,0,0,0,0,0,-1,1574,1485,0,0
357,-461,0,0,0,0,0,0,0,0,0,-1,1581,1485,0,0
364,-461,0,0,0,0,0,0,0,0,0,-1,1588,1485,0,0
371,-461,0,0,0,0,0,0,0,0,0,-1,1595,1485,0,0
378,-461,0,0,0,0,0,0,0,0,0,-1,1602,1485,0,0
385,-461,0,0,0,0,0,0,0,0,0,-1,1609,1485,0,0
392,-461,0,0,0,0,0,0,0,0,0,-1,1616,1485,0,0
399,-461,0,0,0,0,0,0,0,0,0,-1,1623,1485,0,0
406,-461,0,0,0,0,0,0,0,0,0,-1,1630,1485,0,0
413,-461,0,0,0,0,0,0,0,0,0,-1,1637,1485,0,0
420,-461,0,0,0,0,0,0,0,0,0,-1,1644,1485,0,0
427,-461,0,0,0,0,0,0,0,0,0,-1,1651,1485,0,0
434,-461,0,0,0,0,0,0,0,0,0,-1,1658,1485,0,0
441,-461,0,0,0,0,0,0,0,0,0,-1,1665,1485,0,0
448,-461,0,0,0,0,0,0,0,0,0,-1,1672,1485,0,0
455,-461,0,0,0,0,0,0,0,0,0,-1,1679,1485,0,0
462,-461,0,0,0,0,0,0,0,0,0,-1,1686,1485,0,0
469,-461,0,0,0,0,0,0,0,0,0,-1,1693,1485,0,0
476,-461,14.1906,0.690552,0,0,0,0,0,0,0,-1,1700,1485,14.1906,-0.690525
483,-461,10.6361,3.09106,0,0,0,0,0,0,0,-1,1707,1485,10.6361,-3.091
490,-461,17.9972,0.665894,0,0,0,0,0,0,0,-1,1714,1485,17.9972,-0.665876
497,-461,16.6829,1.87732,0,0,0,0,0,0,0,-1,1721,1485,16.6828,-1.87736
504,-461,15.3884,3.09216,0,0,0,0,0,0,0,-1,1728,1485,15.3885,-3.09212
511,-461,15.4292,14.3512,0,0,0,0,0,0,0,-1,1735,1485,15.4292,-14.3512
518,-461,14.8081,10.0085,0,0,0,0,0,0,0,-1,1742,1485,14.8081,-10.0086
525,-461,14.0022,10.8033,0,0,0,0,0,0,0,-1,1749,1485,14.0022,-10.8033
532,-461,17.1704,14.077,0,0,0,0,0,0,0,-1,1756,1485,17.1704,-14.077
539,-461,17.0229,14.7386,0,0,0,0,0,0,0,-1,1763,1485,17.0229,-14.7387
546,-461,16.2106,14.1372,0,0,0,0,0,0,0,-1,1770,1485,16.2106,-14.1372
553,-461,23.1119,21.4948,0,0,0,0,0,0,0,-1,1777,1485,23.1119,-21.4948
560,-461,23.6628,20.7416,0,0,0,0,0,0,0,-1,1784,1485,23.6629,-20.7415
567,-461,23.8783,20.3806,0.00664344,0.00544881,-0.00384597,0.0099382,0.00215405,-0.708359,0.00603694,0.03449,1791,1485,23.8782,-20.3806
574,-461,23.8765,19.9368,0.00537153,0.00449939,-0.00326916,0.00823358,0.00163734,-0.719095,0.00503285,0.0285052,1798,1485,23.8764,-19.9367
581,-461,23.8644,19.3975,0.00439746,0.00373998,-0.00278258,0.00687065,0.00126679,-0.726599,0.004222,0.0177435,1805,1485,23.8643,-19.3975
588,-461,23.8458,18.8933,0.00359032,0.00287431,-0.00225576,0.0055163,0.000948321,-0.706701,0.00340573,0.0116487,1812,1485,23.8458,-18.8933
595,-461,23.8046,18.3773,0.00308004,0.00208685,-0.00180923,0.0044596,0.000707298,-0.651458,0.00276759,0.00915387,1819,1485,23.8045,-18.3773
602,-461,23.7964,17.83,0.00278752,0.00129663,-0.00141532,0.0036417,0.000442449,-0.54301,0.00229458,0.00957415,1826,1485,23.7964,-17.83
609,-461,23.7836,17.2905,0.00266413,0.000569094,-0.00101143,0.00307273,0.000160492,-0.383937,0.00199714,0.0108126,1833,1485,23.7836,-17.2906
616,-461,23.7806,16.7726,0.00269908,-7.82059e-05,-0.000643759,0.00284104,-0.000220169,-0.217048,0.00197152,0.0124681,1840,1485,23.7806,-16.7726
623,-461,23.7996,16.2693,0.00299153,-0.000753404,-0.000294231,0.0030145,-0.00077638,-0.0779307,0.00231232,0.0155279,1847,1485,23.7995,-16.2693
630,-461,23.7717,15.757,0.00349449,-0.00138466,2.01692e-05,0.00349457,-0.00138474,0.00413367,0.00290353,0.0155942,1854,1485,23.7717,-15.757
637,-461,23.7208,15.2328,0.00428377,-0.00168801,0.000147579,0.00428742,-0.00169166,0.0246927,0.0035588,0.0145279,1861,1485,23.7209,-15.2328
644,-461,23.8234,14.7856,0.00529424,-0.0019824,0.000192732,0.00529934,-0.0019875,0.0264617,0.00434949,0.0298904,1868,1485,23.8234,-14.7857
651,-461,23.9971,14.3031,0,0,0,0,0,0,0,-1,1875,1485,23.9971,-14.3032
658,-461,16.8987,10.1084,0,0,0,0,0,0,0,-1,1882,1485,16.8986,-10.1084
665,-461,17.2638,9.81384,0,0,0,0,0,0,0,-1,1889,1485,17.2638,-9.81385
672,-461,14.4877,6.89429,0,0,0,0,0,0,0,-1,1896,1485,14.4876,-6.89431
679,-461,10.0535,2.16321,0,0,0,0,0,0,0,-1,1903,1485,10.0535,-2.16317
686,-461,10.8195,1.84192,0,0,0,0,0,0,0,-1,1910,1485,10.8194,-1.84195
693,-461,0,0,0,0,0,0,0,0,0,-1,1917,1485,0,0
700,-461,0,0,0,0,0,0,0,0,0,-1,1924,1485,0,0
707,-461,0,0,0,0,0,0,0,0,0,-1,1931,1485,0,0
714,-461,0,0,0,0,0,0,0,0,0,-1,1938,1485,0,0
721,-461,0,0,0,0,0,0,0,0,0,-1,1945,1485,0,0
728,-461,0,0,0,0,0,0,0,0,0,-1,1952,1485,0,0
735,-461,0,0,0,0,0,0,0,0,0,-1,1959,1485,0,0
742,-461,0,0,0,0,0,0,0,0,0,-1,1966,1485,0,0
749,-461,0,0,0,0,0,0,0,0,0,-1,1973,1485,0,0
756,-461,0,0,0,0,0,0,0,0,0,-1,1980,1485,0,0
763,-461,0,0,0,0,0,0,0,0,0,-1,1987,1485,0,0
770,-461,0,0,0,0,0,0,0,0,0,-1,1994,1485,0,0
777,-461,0,0,0,0,0,0,0,0,0,-1,2001,1485,0,0
784,-461,0,0,0,0,0,0,0,0,0,-1,2008,1485,0,0
791,-461,0,0,0,0,0,0,0,0,0,-1,2015,1485,0,0
798,-461,0,0,0,0,0,0,0,0,0,-1,2022,1485,0,0
805,-461,0,0,0,0,0,0,0,0,0,-1,2029,1485,0,0
812,-461,0,0,0,0,0,0,0,0,0,-1,2036,1485,0,0
-700,-468,0,0,0,0,0,0,0,0,0,-1,524,1492,0,0
-693,-468,0,0,0,0,0,0,0,0,0,-1,531,1492,0,0
-686,-468,0,0,0,0,0,0,0,0,0,-1,538,1492,0,0
-679,-468,0,0,0,0,0,0,0,0,0,-1,545,1492,0,0
-672,-468,0,0,0,0,0,0,0,0,0,-1,552,1492,0,0
-665,-468,0,0,0,0,0,0,0,0,0,-1,559,1492,0,0
-658,-468,0,0,0,0,0,0,0,0,0,-1,566,1492,0,0
-651,-468,0,0,0,0,0,0,0,0,0,-1,573,1492,0,0
-644,-468,0,0,0,0,0,0,0,0,0,-1,580,1492,0,0
-637,-468,0,0,0,0,0,0,0,0,0,-1,587,1492,0,0
-630,-468,0,0,0,0,0,0,0,0,0,-1,594,1492,0,0
-623,-468,0,0,0,0,0,0,0,0,0,-1,601,1492,0,0
-616,-468,0,0,0,0,0,0,0,0,0,-1,608,1492,0,0
-609,-468,0,0,0,0,0,0,0,0,0,-1,615,1492,0,0
-602,-468,0,0,0,0,0,0,0,0,0,-1,622,1492,0,0
-595,-468,0,0,0,0,0,0,0,0,0,-1,629,1492,0,0
-588,-468,0,0,0,0,0,0,0,0,0,-1,636,1492,0,0
-581,-468,0,0,0,0,0,0,0,0,0,-1,643,1492,0,0
-574,-468,0,0,0,0,0,0,0,0,0,-1,650,1492,0,0
-567,-468,-11.2603,1.8042,0,0,0,0,0,0,0,-1,657,1492,-11.2603,-1.80424
-560,-468,-8.77441,2.23694,0,0,0,0,0,0,0,-1,664,1492,-8.77443,-2.23692
-553,-468,-5.94061,9.26318,0,0,0,0,0,0,0,-1,671,1492,-5.94062,-9.26322
-546,-468,-10.47,5.43237,0,0,0,0,0,0,0,-1,678,1492,-10.47,-5.4324
-539,-468,-10.2468,5.45203,0,0,0,0,0,0,0,-1,685,1492,-10.2468,-5.45197
-532,-468,-8.39795,6.02783,0,0,0,0,0,0,0,-1,692,1492,-8.39793,-6.02789
-525,-468,-6.59332,7.15405,0,0,0,0,0,0,0,-1,699,1492,-6.59331,-7.15411
-518,-468,-6.33588,8.65393,0,0,0,0,0,0,0,-1,706,1492,-6.33588,-8.65397
-511,-468,-7.39435,12.9106,0,0,0,0,0,0,0,-1,713,1492,-7.39433,-12.9106
-504,-468,-7.32861,13.4741,-0.00454291,-0.00181513,0.000628064,-0.00167747,-0.00468057,1.35502,0.00273822,0.0444001,720,1492,-7.32864,-13.4741
-497,-468,-7.43842,14.0588,-0.00403055,-0.00156979,0.000445059,-0.00149177,-0.00410857,1.39726,0.00240155,0.0195433,727,1492,-7.43844,-14.0589
-490,-468,-7.42993,14.6959,-0.00337022,-0.00125047,0.00033259,-0.00119951,-0.00342118,1.41876,0.00200439,0.00765926,734,1492,-7.4299,-14.696
-483,-468,-7.46625,15.2578,-0.00250092,-0.00076568,0.000358663,-0.000694469,-0.00257213,1.3748,0.0015365,0.00879634,741,1492,-7.46625,-15.2578
-476,-468,-7.49609,15.8176,-0.00144019,-0.000129257,0.000568315,8.28127e-05,-0.00165226,1.21364,0.00113012,0.00966738,748,1492,-7.4961,-15.8176
-469,-468,-7.51898,16.4072,-0.000248946,0.000697601,0.000986968,0.0013189,-0.000870247,1.00896,0.00127272,0.0131725,755,1492,-7.51896,-16.4072
-462,-468,-7.50079,16.97,0.00104959,0.00160114,0.00152342,0.00287355,-0.000222809,0.874941,0.00199412,0.0231363,762,1492,-7.50076,-16.9699
-455,-468,-7.53363,17.4915,0.00243782,0.00262681,0.00224593,0.00478023,0.000284401,0.806423,0.00309638,0.023588,769,1492,-7.53363,-17.4915
-448,-468,-7.57635,18.0693,0.00406585,0.00398062,0.00334272,0.00736623,0.000680242,0.779024,0.00470051,0.0151686,776,1492,-7.57636,-18.0693
-441,-468,-7.59485,18.6284,0.00592809,0.00552785,0.00478886,0.010521,0.000934928,0.764516,0.00672407,0.0150415,783,1492,-7.59486,-18.6284
-434,-468,-7.56116,19.278,0.00766949,0.00749567,0.00686987,0.014453,0.000712159,0.779073,0.00940694,0.0239814,790,1492,-7.56119,-19.2779
-427,-468,-7.55237,19.9502,0,0,0,0,0,0,0,-1,797,1492,-7.55236,-19.9502
-420,-468,-6.84113,20.37,0,0,0,0,0,0,0,-1,804,1492,-6.84111,-20.37
-413,-468,-5.30328,17.3519,0,0,0,0,0,0,0,-1,811,1492,-5.30329,-17.352
-406,-468,-2.2356,9.396,0,0,0,0,0,0,0,-1,818,1492,-2.2356,-9.396
-399,-468,-0.940369,8.1936,0,0,0,0,0,0,0,-1,825,1492,-0.940365,-8.19357
-392,-468,-0.35144,8.14673,0,0,0,0,0,0,0,-1,832,1492,-0.351449,-8.14674
-385,-468,0.465759,5.35864,0,0,0,0,0,0,0,-1,839,1492,0.465732,-5.35864
-378,-468,1.99835,3.25391,0,0,0,0,0,0,0,-1,846,1492,1.99837,-3.2539
-371,-468,-0.31842,3.1532,0,0,0,0,0,0,0,-1,853,1492,-0.318441,-3.15324
-364,-468,-0.966736,2.14563,0,0,0,0,0,0,0,-1,860,1492,-0.966735,-2.14557
-357,-468,-3.06787,3.22742,0,0,0,0,0,0,0,-1,867,1492,-3.06784,-3.2274
-350,-468,-3.18658,4.12659,0,0,0,0,0,0,0,-1,874,1492,-3.18659,-4.12658
-343,-468,0,0,0,0,0,0,0,0,0,-1,881,1492,0,0
-336,-468,0,0,0,0,0,0,0,0,0,-1,888,1492,0,0
-329,-468,0,0,0,0,0,0,0,0,0,-1,895,1492,0,0
-322,-468,0,0,0,0,0,0,0,0,0,-1,902,1492,0,0
-315,-468,0,0,0,0,0,0,0,0,0,-1,909,1492,0,0
-308,-468,0,0,0,0,0,0,0,0,0,-1,916,1492,0,0
-301,-468,0,0,0,0,0,0,0,0,0,-1,923,1492,0,0
-294,-468,0,0,0,0,0,0,0,0,0,-1,930,1492,0,0
-287,-468,0,0,0,0,0,0,0,0,0,-1,937,1492,0,0
-280,-468,0,0,0,0,0,0,0,0,0,-1,944,1492,0,0
-273,-468,0,0,0,0,0,0,0,0,0,-1,951,1492,0,0
-266,-468,0,0,0,0,0,0,0,0,0,-1,958,1492,0,0
-259,-468,0,0,0,0,0,0,0,0,0,-1,965,1492,0,0
-252,-468,0,0,0,0,0,0,0,0,0,-1,972,1492,0,0
-245,-468,0,0,0,0,0,0,0,0,0,-1,979,1492,0,0
-238,-468,0,0,0,0,0,0,0,0,0,-1,986,1492,0,0
-231,-468,0,0,0,0,0,0,0,0,0,-1,993,1492,0,0
-224,-468,0,0,0,0,0,0,0,0,0,-1,1000,1492,0,0
-217,-468,0,0,0,0,0,0,0,0,0,-1,1007,1492,0,0
-210,-468,0,0,0,0,0,0,0,0,0,-1,1014,1492,0,0
-203,-468,0,0,0,0,0,0,0,0,0,-1,1021,1492,0,0
-196,-468,0,0,0,0,0,0,0,0,0,-1,1028,1492,0,0
-189,-468,0,0,0,0,0,0,0,0,0,-1,1035,1492,0,0
-182,-468,0,0,0,0,0,0,0,0,0,-1,1042,1492,0,0
-175,-468,0,0,0,0,0,0,0,0,0,-1,1049,1492,0,0
-168,-468,0,0,0,0,0,0,0,0,0,-1,1056,1492,0,0
-161,-468,0,0,0,0,0,0,0,0,0,-1,1063,1492,0,0
-154,-468,0,0,0,0,0,0,0,0,0,-1,1070,1492,0,0
-147,-468,0,0,0,0,0,0,0,0,0,-1,1077,1492,0,0
-140,-468,0,0,0,0,0,0,0,0,0,-1,1084,1492,0,0
-133,-468,0,0,0,0,0,0,0,0,0,-1,1091,1492,0,0
-126,-468,0,0,0,0,0,0,0,0,0,-1,1098,1492,0,0
-119,-468,0,0,0,0,0,0,0,0,0,-1,1105,1492,0,0
-112,-468,0,0,0,0,0,0,0,0,0,-1,1112,1492,0,0
-105,-468,0,0,0,0,0,0,0,0,0,-1,1119,1492,0,0
-98,-468,0,0,0,0,0,0,0,0,0,-1,1126,1492,0,0
-91,-468,0,0,0,0,0,0,0,0,0,-1,1133,1492,0,0
-84,-468,0,0,0,0,0,0,0,0,0,-1,1140,1492,0,0
-77,-468,0,0,0,0,0,0,0,0,0,-1,1147,1492,0,0
-70,-468,0,0,0,0,0,0,0,0,0,-1,1154,1492,0,0
-63,-468,0,0,0,0,0,0,0,0,0,-1,1161,1492,0,0
-56,-468,0,0,0,0,0,0,0,0,0,-1,1168,1492,0,0
-49,-468,0,0,0,0,0,0,0,0,0,-1,1175,1492,0,0
-42,-468,0,0,0,0,0,0,0,0,0,-1,1182,1492,0,0
-35,-468,0,0,0,0,0,0,0,0,0,-1,1189,1492,0,0
-28,-468,0,0,0,0,0,0,0,0,0,-1,1196,1492,0,0
-21,-468,0,0,0,0,0,0,0,0,0,-1,1203,1492,0,0
-14,-468,0,0,0,0,0,0,0,0,0,-1,1210,1492,0,0
-7,-468,0,0,0,0,0,0,0,0,0,-1,1217,1492,0,0
0,-468,0,0,0,0,0,0,0,0,0,-1,1224,1492,0,0
7,-468,0,0,0,0,0,0,0,0,0,-1,1231,1492,0,0
14,-468,0,0,0,0,0,0,0,0,0,-1,1238,1492,0,0
21,-468,0,0,0,0,0,0,0,0,0,-1,1245,1492,0,0
28,-468,0,0,0,0,0,0,0,0,0,-1,1252,1492,0,0
35,-468,0,0,0,0,0,0,0,0,0,-1,1259,1492,0,0
42,-468,0,0,0,0,0,0,0,0,0,-1,1266,1492,0,0
49,-468,0,0,0,0,0,0,0,0,0,-1,1273,1492,0,0
56,-468,0,0,0,0,0,0,0,0,0,-1,1280,1492,0,0
63,-468,0,0,0,0,0,0,0,0,0,-1,1287,1492,0,0
70,-468,0,0,0,0,0,0,0,0,0,-1,1294,1492,0,0
77,-468,0,0,0,0,0,0,0,0,0,-1,1301,1492,0,0
84,-468,0,0,0,0,0,0,0,0,0,-1,1308,1492,0,0
91,-468,0,0,0,0,0,0,0,0,0,-1,1315,1492,0,0
98,-468,0,0,0,0,0,0,0,0,0,-1,1322,1492,0,0
105,-468,0,0,0,0,0,0,0,0,0,-1,1329,1492,0,0
112,-468,0,0,0,0,0,0,0,0,0,-1,1336,1492,0,0
119,-468,0,0,0,0,0,0,0,0,0,-1,1343,1492,0,0
126,-468,0,0,0,0,0,0,0,0,0,-1,1350,1492,0,0
133,-468,0,0,0,0,0,0,0,0,0,-1,1357,1492,0,0
140,-468,0,0,0,0,0,0,0,0,0,-1,1364,1492,0,0
147,-468,0,0,0,0,0,0,0,0,0,-1,1371,1492,0,0
154,-468,0,0,0,0,0,0,0,0,0,-1,1378,1492,0,0
161,-468,0,0,0,0,0,0,0,0,0,-1,1385,1492,0,0
168,-468,0,0,0,0,0,0,0,0,0,-1,1392,1492,0,0
175,-468,0,0,0,0,0,0,0,0,0,-1,1399,1492,0,0
182,-468,0,0,0,0,0,0,0,0,0,-1,1406,1492,0,0
189,-468,0,0,0,0,0,0,0,0,0,-1,1413,1492,0,0
196,-468,0,0,0,0,0,0,0,0,0,-1,1420,1492,0,0
203,-468,0,0,0,0,0,0,0,0,0,-1,1427,1492,0,0
210,-468,0,0,0,0,0,0,0,0,0,-1,1434,1492,0,0
217,-468,0,0,0,0,0,0,0,0,0,-1,1441,1492,0,0
224,-468,0,0,0,0,0,0,0,0,0,-1,1448,1492,0,0
231,-468,0,0,0,0,0,0,0,0,0,-1,1455,1492,0,0
238,-468,0,0,0,0,0,0,0,0,0,-1,1462,1492,0,0
245,-468,0,0,0,0,0,0,0,0,0,-1,1469,1492,0,0
252,-468,0,0,0,0,0,0,0,0,0,-1,1476,1492,0,0
259,-468,0,0,0,0,0,0,0,0,0,-1,1483,1492,0,0
266,-468,0,0,0,0,0,0,0,0,0,-1,1490,1492,0,0
273,-468,0,0,0,0,0,0,0,0,0,-1,1497,1492,0,0
280,-468,0,0,0,0,0,0,0,0,0,-1,1504,1492,0,0
287,-468,0,0,0,0,0,0,0,0,0,-1,1511,1492,0,0
294,-468,0,0,0,0,0,0,0,0,0,-1,1518,1492,0,0
301,-468,0,0,0,0,0,0,0,0,0,-1,1525,1492,0,0
308,-468,0,0,0,0,0,0,0,0,0,-1,1532,1492,0,0
315,-468,0,0,0,0,0,0,0,0,0,-1,1539,1492,0,0
322,-468,0,0,0,0,0,0,0,0,0,-1,1546,1492,0,0
329,-468,0,0,0,0,0,0,0,0,0,-1,1553,1492,0,0
336,-468,0,0,0,0,0,0,0,0,0,-1,1560,1492,0,0
343,-468,0,0,0,0,0,0,0,0,0,-1,1567,1492,0,0
350,-468,0,0,0,0,0,0,0,0,0,-1,1574,1492,0,0
357,-468,0,0,0,0,0,0,0,0,0,-1,1581,1492,0,0
364,-468,0,0,0,0,0,0,0,0,0,-1,1588,1492,0,0
371,-468,0,0,0,0,0,0,0,0,0,-1,1595,1492,0,0
378,-468,0,0,0,0,0,0,0,0,0,-1,1602,1492,0,0
385,-468,0,0,0,0,0,0,0,0,0,-1,1609,1492,0,0
392,-468,0,0,0,0,0,0,0,0,0,-1,1616,1492,0,0
399,-468,0,0,0,0,0,0,0,0,0,-1,1623,1492,0,0
406,-468,0,0,0,0,0,0,0,0,0,-1,1630,1492,0,0
413,-468,0,0,0,0,0,0,0,0,0,-1,1637,1492,0,0
420,-468,0,0,0,0,0,0,0,0,0,-1,1644,1492,0,0
427,-468,0,0,0,0,0,0,0,0,0,-1,1651,1492,0,0
434,-468,0,0,0,0,0,0,0,0,0,-1,1658,1492,0,0
441,-468,0,0,0,0,0,0,0,0,0,-1,1665,1492,0,0
448,-468,0,0,0,0,0,0,0,0,0,-1,1672,1492,0,0
455,-468,0,0,0,0,0,0,0,0,0,-1,1679,1492,0,0
462,-468,0,0,0,0,0,0,0,0,0,-1,1686,1492,0,0
469,-468,15.6879,1.2677,0,0,0,0,0,0,0,-1,1693,1492,15.6879,-1.26772
476,-468,14.9318,1.61865,0,0,0,0,0,0,0,-1,1700,1492,14.9318,-1.61869
483,-468,11.265,4.64795,0,0,0,0,0,0,0,-1,1707,1492,11.265,-4.64798
490,-468,12.1316,3.51624,0,0,0,0,0,0,0,-1,1714,1492,12.1316,-3.51628
497,-468,16.5355,3.14587,0,0,0,0,0,0,0,-1,1721,1492,16.5356,-3.14583
504,-468,15.0642,4.10437,0,0,0,0,0,0,0,-1,1728,1492,15.0643,-4.10431
511,-468,15.6877,9.4801,0,0,0,0,0,0,0,-1,1735,1492,15.6878,-9.48007
518,-468,13.759,11.0887,0,0,0,0,0,0,0,-1,1742,1492,13.759,-11.0887
525,-468,16.6531,14.2238,0,0,0,0,0,0,0,-1,1749,1492,16.653,-14.2237
532,-468,16.9696,15.9641,0,0,0,0,0,0,0,-1,1756,1492,16.9696,-15.9641
539,-468,21.5308,20.7551,0,0,0,0,0,0,0,-1,1763,1492,21.5308,-20.7551
546,-468,22.7969,22.1304,0,0,0,0,0,0,0,-1,1770,1492,22.7969,-22.1304
553,-468,23.1909,21.4849,0,0,0,0,0,0,0,-1,1777,1492,23.1909,-21.4849
560,-468,23.3241,21.0071,0.00772488,0.0057825,-0.00431693,0.0111785,0.00232886,-0.674754,0.00681011,0.0400121,1784,1492,23.3241,-21.007
567,-468,23.33,20.4969,0.0060119,0.00450034,-0.00331719,0.00865832,0.00185392,-0.673392,0.0052642,0.0221209,1791,1492,23.33,-20.4969
574,-468,23.3508,19.9292,0.00480062,0.00362295,-0.00274715,0.00702133,0.00140223,-0.679824,0.00429055,0.0158881,1798,1492,23.3508,-19.9292
581,-468,23.3708,19.4205,0.00386548,0.00291998,-0.00228451,0.00572564,0.00105982,-0.68337,0.00351745,0.0168636,1805,1492,23.3708,-19.4205
588,-468,23.3319,18.9193,0.00315644,0.00216068,-0.00182797,0.00455311,0.000764,-0.652439,0.00281551,0.0134128,1812,1492,23.332,-18.9194
595,-468,23.3022,18.3951,0.002797,0.0014733,-0.00146163,0.00373964,0.000530648,-0.572801,0.00233639,0.0107736,1819,1492,23.3022,-18.3951
602,-468,23.2831,17.848,0.00261979,0.00079282,-0.00115629,0.0031799,0.000232716,-0.451087,0.00204678,0.00918213,1826,1492,23.2831,-17.8481
609,-468,23.2537,17.3036,0.00260962,0.000160321,-0.000825331,0.00286177,-9.18292e-05,-0.296508,0.00193918,0.00972877,1833,1492,23.2536,-17.3036
616,-468,23.2448,16.7787,0.00277921,-0.000447495,-0.000498458,0.00285446,-0.000522741,-0.149827,0.00209903,0.00946381,1840,1492,23.2448,-16.7787
623,-468,23.2499,16.2755,0.00319884,-0.00114166,-0.000150943,0.00320409,-0.0011469,-0.0347196,0.00260396,0.00996498,1847,1492,23.2498,-16.2755
630,-468,23.2365,15.7552,0.00380658,-0.00180073,0.000201836,0.00381384,-0.00180798,0.0359332,0.00331391,0.0108274,1854,1492,23.2364,-15.7552
637,-468,23.217,15.2465,0.00476554,-0.00211977,0.000364189,0.00478475,-0.00213897,0.0526977,0.00409354,0.0144802,1861,1492,23.217,-15.2464
644,-468,23.2926,14.842,0.00592572,-0.00259726,0.000524297,0.00595785,-0.00262939,0.0612081,0.00508047,0.0383222,1868,1492,23.2927,-14.8421
651,-468,23.4949,14.401,0,0,0,0,0,0,0,-1,1875,1492,23.4949,-14.401
658,-468,16.4969,10.0774,0,0,0,0,0,0,0,-1,1882,1492,16.497,-10.0774
665,-468,15.4673,8.59546,0,0,0,0,0,0,0,-1,1889,1492,15.4672,-8.59548
672,-468,9.96814,3.61133,0,0,0,0,0,0,0,-1,1896,1492,9.96817,-3.61139
679,-468,11.2191,1.91968,0,0,0,0,0,0,0,-1,1903,1492,11.2191,-1.91965
686,-468,11.9252,1.42285,0,0,0,0,0,0,0,-1,1910,1492,11.9252,-1.42291
693,-468,0,0,0,0,0,0,0,0,0,-1,1917,1492,0,0
700,-468,0,0,0,0,0,0,0,0,0,-1,1924,1492,0,0
707,-468,0,0,0,0,0,0,0,0,0,-1,1931,1492,0,0
714,-468,0,0,0,0,0,0,0,0,0,-1,1938,1492,0,0
721,-468,0,0,0,0,0,0,0,0,0,-1,1945,1492,0,0
728,-468,0,0,0,0,0,0,0,0,0,-1,1952,1492,0,0
735,-468,0,0,0,0,0,0,0,0,0,-1,1959,1492,0,0
742,-468,0,0,0,0,0,0,0,0,0,-1,1966,1492,0,0
749,-468,0,0,0,0,0,0,0,0,0,-1,1973,1492,0,0
756,-468,0,0,0,0,0,0,0,0,0,-1,1980,1492,0,0
763,-468,0,0,0,0,0,0,0,0,0,-1,1987,1492,0,0
770,-468,0,0,0,0,0,0,0,0,0,-1,1994,1492,0,0
777,-468,0,0,0,0,0,0,0,0,0,-1,2001,1492,0,0
784,-468,0,0,0,0,0,0,0,0,0,-1,2008,1492,0,0
791,-468,0,0,0,0,0,0,0,0,0,-1,2015,1492,0,0
798,-468,0,0,0,0,0,0,0,0,0,-1,2022,1492,0,0
805,-468,0,0,0,0,0,0,0,0,0,-1,2029,1492,0,0
812,-468,0,0,0,0,0,0,0,0,0,-1,2036,1492,0,0
-700,-475,0,0,0,0,0,0,0,0,0,-1,524,1499,0,0
-693,-475,0,0,0,0,0,0,0,0,0,-1,531,1499,0,0
-686,-475,0,0,0,0,0,0,0,0,0,-1,538,1499,0,0
-679,-475,0,0,0,0,0,0,0,0,0,-1,545,1499,0,0
-672,-475,0,0,0,0,0,0,0,0,0,-1,552,1499,0,0
-665,-475,0,0,0,0,0,0,0,0,0,-1,559,1499,0,0
-658,-475,0,0,0,0,0,0,0,0,0,-1,566,1499,0,0
-651,-475,0,0,0,0,0,0,0,0,0,-1,573,1499,0,0
-644,-475,0,0,0,0,0,0,0,0,0,-1,580,1499,0,0
-637,-475,0,0,0,0,0,0,0,0,0,-1,587,1499,0,0
-630,-475,0,0,0,0,0,0,0,0,0,-1,594,1499,0,0
-623,-475,0,0,0,0,0,0,0,0,0,-1,601,1499,0,0
-616,-475,0,0,0,0,0,0,0,0,0,-1,608,1499,0,0
-609,-475,0,0,0,0,0,0,0,0,0,-1,615,1499,0,0
-602,-475,0,0,0,0,0,0,0,0,0,-1,622,1499,0,0
-595,-475,0,0,0,0,0,0,0,0,0,-1,629,1499,0,0
-588,-475,0,0,0,0,0,0,0,0,0,-1,636,1499,0,0
-581,-475,0,0,0,0,0,0,0,0,0,-1,643,1499,0,0
-574,-475,0,0,0,0,0,0,0,0,0,-1,650,1499,0,0
-567,-475,0,0,0,0,0,0,0,0,0,-1,657,1499,0,0
-560,-475,-9.42731,9.29517,0,0,0,0,0,0,0,-1,664,1499,-9.42731,-9.29519
-553,-475,-8.15131,8.78369,0,0,0,0,0,0,0,-1,671,1499,-8.15131,-8.78367
-546,-475,-8.41254,8.20654,0,0,0,0,0,0,0,-1,678,1499,-8.41251,-8.20655
-539,-475,-4.7345,4.17419,0,0,0,0,0,0,0,-1,685,1499,-4.73449,-4.17418
-532,-475,-7.07379,4.25024,0,0,0,0,0,0,0,-1,692,1499,-7.07378,-4.2503
-525,-475,-6.13147,5.82166,0,0,0,0,0,0,0,-1,699,1499,-6.1315,-5.8216
-518,-475,-7.28784,9.31506,0,0,0,0,0,0,0,-1,706,1499,-7.28782,-9.315
-511,-475,-6.84851,12.4244,0,0,0,0,0,0,0,-1,713,1499,-6.84851,-12.4244
-504,-475,-6.84235,13.5159,0,0,0,0,0,0,0,-1,720,1499,-6.84233,-13.5159
-497,-475,-6.87964,14.2253,-0.00638012,-0.00277943,0.00128427,-0.00236831,-0.00679124,1.26098,0.00398029,0.0379164,727,1499,-6.87964,-14.2254
-490,-475,-6.89111,14.6984,-0.00537401,-0.00254574,0.000853832,-0.00230797,-0.00561179,1.2992,0.00325693,0.0132096,734,1499,-6.8911,-14.6983
-483,-475,-6.89764,15.3054,-0.0041877,-0.00208651,0.000602892,-0.00192581,-0.00434839,1.31031,0.002516,0.00926535,741,1499,-6.89763,-15.3055
-476,-475,-6.91895,15.8501,-0.00288692,-0.00143279,0.000549307,-0.00124861,-0.00307109,1.24729,0.00178339,0.0102915,748,1499,-6.91897,-15.8501
-469,-475,-6.9408,16.4133,-0.00152294,-0.000559408,0.000739486,-0.000158599,-0.00192375,1.07411,0.00123304,0.0123375,755,1499,-6.94079,-16.4134
-462,-475,-6.92371,16.9827,-0.000109902,0.000422113,0.00108163,0.00126997,-0.000957757,0.905971,0.00129038,0.0179983,762,1499,-6.92371,-16.9827
-455,-475,-6.95844,17.5403,0.0012988,0.00150834,0.00160429,0.00301127,-0.000204138,0.818005,0.0020789,0.0158919,769,1499,-6.95842,-17.5403
-448,-475,-7.01849,18.1079,0.00286496,0.00290424,0.00250847,0.00539315,0.000376049,0.789312,0.00347687,0.0138427,776,1499,-7.01848,-18.1079
-441,-475,-7.05237,18.6689,0.00458793,0.00451455,0.00374726,0.00829868,0.000803807,0.780503,0.00528493,0.0167186,783,1499,-7.05239,-18.6689
-434,-475,-7.03625,19.1975,0.00615212,0.00649492,0.00554677,0.0118729,0.0007741,0.800844,0.00767029,0.0113054,790,1499,-7.03626,-19.1975
-427,-475,-6.9848,19.8781,0.00782069,0.00892851,0.00768598,0.0160805,0.000668682,0.82137,0.0105045,0.0292923,797,1499,-6.98482,-19.8781
-420,-475,-6.8623,20.5066,0,0,0,0,0,0,0,-1,804,1499,-6.86233,-20.5066
-413,-475,-6.46777,20.8481,0,0,0,0,0,0,0,-1,811,1499,-6.46776,-20.8481
-406,-475,-2.56116,12.4956,0,0,0,0,0,0,0,-1,818,1499,-2.56116,-12.4956
-399,-475,-1.39667,6.1615,0,0,0,0,0,0,0,-1,825,1499,-1.39664,-6.16155
-392,-475,0.217163,8.61389,0,0,0,0,0,0,0,-1,832,1499,0.217167,-8.6139
-385,-475,1.18372,2.73999,0,0,0,0,0,0,0,-1,839,1499,1.18372,-2.73995
-378,-475,1.31409,2.90149,0,0,0,0,0,0,0,-1,846,1499,1.31411,-2.90151
-371,-475,2.3476,3.31116,0,0,0,0,0,0,0,-1,853,1499,2.34761,-3.31121
-364,-475,1.04462,9.05823,0,0,0,0,0,0,0,-1,860,1499,1.04461,-9.05825
-357,-475,-0.262756,7.97205,0,0,0,0,0,0,0,-1,867,1499,-0.262784,-7.97205
-350,-475,-2.77173,4.35486,0,0,0,0,0,0,0,-1,874,1499,-2.77175,-4.35491
-343,-475,-6.81641,-1.95203,0,0,0,0,0,0,0,-1,881,1499,-6.81643,1.95198
-336,-475,0,0,0,0,0,0,0,0,0,-1,888,1499,0,0
-329,-475,0,0,0,0,0,0,0,0,0,-1,895,1499,0,0
-322,-475,0,0,0,0,0,0,0,0,0,-1,902,1499,0,0
-315,-475,0,0,0,0,0,0,0,0,0,-1,909,1499,0,0
-308,-475,0,0,0,0,0,0,0,0,0,-1,916,1499,0,0
-301,-475,0,0,0,0,0,0,0,0,0,-1,923,1499,0,0
-294,-475,0,0,0,0,0,0,0,0,0,-1,930,1499,0,0
-287,-475,0,0,0,0,0,0,0,0,0,-1,937,1499,0,0
-280,-475,0,0,0,0,0,0,0,0,0,-1,944,1499,0,0
-273,-475,0,0,0,0,0,0,0,0,0,-1,951,1499,0,0
-266,-475,0,0,0,0,0,0,0,0,0,-1,958,1499,0,0
-259,-475,0,0,0,0,0,0,0,0,0,-1,965,1499,0,0
-252,-475,0,0,0,0,0,0,0,0,0,-1,972,1499,0,0
-245,-475,0,0,0,0,0,0,0,0,0,-1,979,1499,0,0
-238,-475,0,0,0,0,0,0,0,0,0,-1,986,1499,0,0
-231,-475,0,0,0,0,0,0,0,0,0,-1,993,1499,0,0
-224,-475,0,0,0,0,0,0,0,0,0,-1,1000,1499,0,0
-217,-475,0,0,0,0,0,0,0,0,0,-1,1007,1499,0,0
-210,-475,0,0,0,0,0,0,0,0,0,-1,1014,1499,0,0
-203,-475,0,0,0,0,0,0,0,0,0,-1,1021,1499,0,0
-196,-475,0,0,0,0,0,0,0,0,0,-1,1028,1499,0,0
-189,-475,0,0,0,0,0,0,0,0,0,-1,1035,1499,0,0
-182,-475,0,0,0,0,0,0,0,0,0,-1,1042,1499,0,0
-175,-475,0,0,0,0,0,0,0,0,0,-1,1049,1499,0,0
-168,-475,0,0,0,0,0,0,0,0,0,-1,1056,1499,0,0
-161,-475,0,0,0,0,0,0,0,0,0,-1,1063,1499,0,0
-154,-475,0,0,0,0,0,0,0,0,0,-1,1070,1499,0,0
-147,-475,0,0,0,0,0,0,0,0,0,-1,1077,1499,0,0
-140,-475,0,0,0,0,0,0,0,0,0,-1,1084,1499,0,0
-133,-475,0,0,0,0,0,0,0,0,0,-1,1091,1499,0,0
-126,-475,0,0,0,0,0,0,0,0,0,-1,1098,1499,0,0
-119,-475,0,0,0,0,0,0,0,0,0,-1,1105,1499,0,0
-112,-475,0,0,0,0,0,0,0,0,0,-1,1112,1499,0,0
-105,-475,0,0,0,0,0,0,0,0,0,-1,1119,1499,0,0
-98,-475,0,0,0,0,0,0,0,0,0,-1,1126,1499,0,0
-91,-475,0,0,0,0,0,0,0,0,0,-1,1133,1499,0,0
-84,-475,0,0,0,0,0,0,0,0,0,-1,1140,1499,0,0
-77,-475,0,0,0,0,0,0,0,0,0,-1,1147,1499,0,0
-70,-475,0,0,0,0,0,0,0,0,0,-1,1154,1499,0,0
-63,-475,0,0,0,0,0,0,0,0,0,-1,1161,1499,0,0
-56,-475,0,0,0,0,0,0,0,0,0,-1,1168,1499,0,0
-49,-475,0,0,0,0,0,0,0,0,0,-1,1175,1499,0,0
-42,-475,0,0,0,0,0,0,0,0,0,-1,1182,1499,0,0
-35,-475,0,0,0,0,0,0,0,0,0,-1,1189,1499,0,0
-28,-475,0,0,0,0,0,0,0,0,0,-1,1196,1499,0,0
-21,-475,0,0,0,0,0,0,0,0,0,-1,1203,1499,0,0
-14,-475,0,0,0,0,0,0,0,0,0,-1,1210,1499,0,0
-7,-475,0,0,0,0,0,0,0,0,0,-1,1217,1499,0,0
0,-475,0,0,0,0,0,0,0,0,0,-1,1224,1499,0,0
7,-475,0,0,0,0,0,0,0,0,0,-1,1231,1499,0,0
14,-475,0,0,0,0,0,0,0,0,0,-1,1238,1499,0,0
21,-475,0,0,0,0,0,0,0,0,0,-1,1245,1499,0,0
28,-475,0,0,0,0,0,0,0,0,0,-1,1252,1499,0,0
35,-475,0,0,0,0,0,0,0,0,0,-1,1259,1499,0,0
42,-475,0,0,0,0,0,0,0,0,0,-1,1266,1499,0,0
49,-475,0,0,0,0,0,0,0,0,0,-1,1273,1499,0,0
56,-475,0,0,0,0,0,0,0,0,0,-1,1280,1499,0,0
63,-475,0,0,0,0,0,0,0,0,0,-1,1287,1499,0,0
70,-475,0,0,0,0,0,0,0,0,0,-1,1294,1499,0,0
77,-475,0,0,0,0,0,0,0,0,0,-1,1301,1499,0,0
84,-475,0,0,0,0,0,0,0,0,0,-1,1308,1499,0,0
91,-475,0,0,0,0,0,0,0,0,0,-1,1315,1499,0,0
98,-475,0,0,0,0,0,0,0,0,0,-1,1322,1499,0,0
105,-475,0,0,0,0,0,0,0,0,0,-1,1329,1499,0,0
112,-475,0,0,0,0,0,0,0,0,0,-1,1336,1499,0,0
119,-475,0,0,0,0,0,0,0,0,0,-1,1343,1499,0,0
126,-475,0,0,0,0,0,0,0,0,0,-1,1350,1499,0,0
133,-475,0,0,0,0,0,0,0,0,0,-1,1357,1499,0,0
140,-475,0,0,0,0,0,0,0,0,0,-1,1364,1499,0,0
147,-475,0,0,0,0,0,0,0,0,0,-1,1371,1499,0,0
154,-475,0,0,0,0,0,0,0,0,0,-1,1378,1499,0,0
161,-475,0,0,0,0,0,0,0,0,0,-1,1385,1499,0,0
168,-475,0,0,0,0,0,0,0,0,0,-1,1392,1499,0,0
175,-475,0,0,0,0,0,0,0,0,0,-1,1399,1499,0,0
182,-475,0,0,0,0,0,0,0,0,0,-1,1406,1499,0,0
189,-475,0,0,0,0,0,0,0,0,0,-1,1413,1499,0,0
196,-475,0,0,0,0,0,0,0,0,0,-1,1420,1499,0,0
203,-475,0,0,0,0,0,0,0,0,0,-1,1427,1499,0,0
210,-475,0,0,0,0,0,0,0,0,0,-1,1434,1499,0,0
217,-475,0,0,0,0,0,0,0,0,0,-1,1441,1499,0,0
224,-475,0,0,0,0,0,0,0,0,0,-1,1448,1499,0,0
231,-475,0,0,0,0,0,0,0,0,0,-1,1455,1499,0,0
238,-475,0,0,0,0,0,0,0,0,0,-1,1462,1499,0,0
245,-475,0,0,0,0,0,0,0,0,0,-1,1469,1499,0,0
252,-475,0,0,0,0,0,0,0,0,0,-1,1476,1499,0,0
259,-475,0,0,0,0,0,0,0,0,0,-1,1483,1499,0,0
266,-475,0,0,0,0,0,0,0,0,0,-1,1490,1499,0,0
273,-475,0,0,0,0,0,0,0,0,0,-1,1497,1499,0,0
280,-475,0,0,0,0,0,0,0,0,0,-1,1504,1499,0,0
287,-475,0,0,0,0,0,0,0,0,0,-1,1511,1499,0,0
294,-475,0,0,0,0,0,0,0,0,0,-1,1518,1499,0,0
301,-475,0,0,0,0,0,0,0,0,0,-1,1525,1499,0,0
308,-475,0,0,0,0,0,0,0,0,0,-1,1532,1499,0,0
315,-475,0,0,0,0,0,0,0,0,0,-1,1539,1499,0,0
322,-475,0,0,0,0,0,0,0,0,0,-1,1546,1499,0,0
329,-475,0,0,0,0,0,0,0,0,0,-1,1553,1499,0,0
336,-475,0,0,0,0,0,0,0,0,0,-1,1560,1499,0,0
343,-475,0,0,0,0,0,0,0,0,0,-1,1567,1499,0,0
350,-475,0,0,0,0,0,0,0,0,0,-1,1574,1499,0,0
357,-475,0,0,0,0,0,0,0,0,0,-1,1581,1499,0,0
364,-475,0,0,0,0,0,0,0,0,0,-1,1588,1499,0,0
371,-475,0,0,0,0,0,0,0,0,0,-1,1595,1499,0,0
378,-475,0,0,0,0,0,0,0,0,0,-1,1602,1499,0,0
385,-475,0,0,0,0,0,0,0,0,0,-1,1609,1499,0,0
392,-475,0,0,0,0,0,0,0,0,0,-1,1616,1499,0,0
399,-475,0,0,0,0,0,0,0,0,0,-1,1623,1499,0,0
406,-475,0,0,0,0,0,0,0,0,0,-1,1630,1499,0,0
413,-475,0,0,0,0,0,0,0,0,0,-1,1637,1499,0,0
420,-475,0,0,0,0,0,0,0,0,0,-1,1644,1499,0,0
427,-475,0,0,0,0,0,0,0,0,0,-1,1651,1499,0,0
434,-475,0,0,0,0,0,0,0,0,0,-1,1658,1499,0,0
441,-475,0,0,0,0,0,0,0,0,0,-1,1665,1499,0,0
448,-475,0,0,0,0,0,0,0,0,0,-1,1672,1499,0,0
455,-475,0,0,0,0,0,0,0,0,0,-1,1679,1499,0,0
462,-475,12.6372,0.275391,0,0,0,0,0,0,0,-1,1686,1499,12.6372,-0.27536
469,-475,15.6437,2.28296,0,0,0,0,0,0,0,-1,1693,1499,15.6437,-2.28293
476,-475,15.3302,2.71436,0,0,0,0,0,0,0,-1,1700,1499,15.3303,-2.7143
483,-475,10.7461,5.91479,0,0,0,0,0,0,0,-1,1707,1499,10.7461,-5.91476
490,-475,11.9305,4.4364,0,0,0,0,0,0,0,-1,1714,1499,11.9305,-4.43644
497,-475,15.3451,4.3479,0,0,0,0,0,0,0,-1,1721,1499,15.3451,-4.34789
504,-475,16.9646,7.71265,0,0,0,0,0,0,0,-1,1728,1499,16.9646,-7.71265
511,-475,18.941,12.7572,0,0,0,0,0,0,0,-1,1735,1499,18.941,-12.7572
518,-475,17.0021,13.8564,0,0,0,0,0,0,0,-1,1742,1499,17.0021,-13.8564
525,-475,17.5637,15.2103,0,0,0,0,0,0,0,-1,1749,1499,17.5637,-15.2103
532,-475,20.8623,20.8413,0,0,0,0,0,0,0,-1,1756,1499,20.8623,-20.8413
539,-475,20.5494,20.8519,0,0,0,0,0,0,0,-1,1763,1499,20.5494,-20.852
546,-475,20.4524,19.8799,0,0,0,0,0,0,0,-1,1770,1499,20.4524,-19.8798
553,-475,22.6045,21.7272,0,0,0,0,0,0,0,-1,1777,1499,22.6045,-21.7272
560,-475,22.7047,21.137,0.00674894,0.00487473,-0.00381663,0.00974183,0.00188184,-0.665013,0.00596702,0.0278355,1784,1499,22.7047,-21.137
567,-475,22.8527,20.4712,0.00528606,0.00371167,-0.00290028,0.00750407,0.00149366,-0.65288,0.00458663,0.0151216,1791,1499,22.8527,-20.4711
574,-475,22.8048,19.9464,0.00425479,0.00293017,-0.00237387,0.00605701,0.00112794,-0.649358,0.00371948,0.0148281,1798,1499,22.8048,-19.9464
581,-475,22.8018,19.455,0.00345423,0.00229222,-0.00195405,0.00491182,0.000834626,-0.640895,0.00303484,0.0125584,1805,1499,22.8017,-19.455
588,-475,22.796,18.9353,0.00287825,0.00164537,-0.00157169,0.00395007,0.000573551,-0.598511,0.00246454,0.0105838,1812,1499,22.796,-18.9353
595,-475,22.7863,18.3972,0.00266543,0.00106418,-0.00128693,0.00338046,0.000349154,-0.507135,0.00214674,0.0111558,1819,1499,22.7863,-18.3972
602,-475,22.7537,17.8575,0.00260378,0.000500422,-0.001069,0.0030517,5.25055e-05,-0.396782,0.00201719,0.0127252,1826,1499,22.7536,-17.8576
609,-475,22.7351,17.3333,0.00269964,-3.41076e-05,-0.000809949,0.00292159,-0.000256057,-0.267464,0.00203845,0.0120184,1833,1499,22.7351,-17.3333
616,-475,22.7177,16.8237,0.00300227,-0.000614026,-0.000516704,0.00307465,-0.000686405,-0.139173,0.00231277,0.010981,1840,1499,22.7176,-16.8237
623,-475,22.7125,16.2891,0.00353201,-0.00135202,-0.000147825,0.00353648,-0.00135649,-0.0302302,0.00291692,0.00984159,1847,1499,22.7125,-16.2891
630,-475,22.7092,15.7744,0.00422496,-0.00206078,0.000273654,0.00423685,-0.00207267,0.0434263,0.00371355,0.0123688,1854,1499,22.7092,-15.7744
637,-475,22.707,15.2675,0.00533051,-0.0024601,0.000541022,0.0053679,-0.00249749,0.069004,0.00464079,0.0249637,1861,1499,22.7071,-15.2674
644,-475,22.6941,14.7845,0,0,0,0,0,0,0,-1,1868,1499,22.6941,-14.7846
651,-475,11.7965,7.57593,0,0,0,0,0,0,0,-1,1875,1499,11.7965,-7.5759
658,-475,14.6708,8.80322,0,0,0,0,0,0,0,-1,1882,1499,14.6708,-8.8032
665,-475,9.33435,5.43335,0,0,0,0,0,0,0,-1,1889,1499,9.33439,-5.43332
672,-475,9.38635,1.10474,0,0,0,0,0,0,0,-1,1896,1499,9.38629,-1.10475
679,-475,12.2594,1.31079,0,0,0,0,0,0,0,-1,1903,1499,12.2594,-1.31077
686,-475,0,0,0,0,0,0,0,0,0,-1,1910,1499,0,0
693,-475,0,0,0,0,0,0,0,0,0,-1,1917,1499,0,0
700,-475,0,0,0,0,0,0,0,0,0,-1,1924,1499,0,0
707,-475,0,0,0,0,0,0,0,0,0,-1,1931,1499,0,0
714,-475,0,0,0,0,0,0,0,0,0,-1,1938,1499,0,0
721,-475,0,0,0,0,0,0,0,0,0,-1,1945,1499,0,0
728,-475,0,0,0,0,0,0,0,0,0,-1,1952,1499,0,0
735,-475,0,0,0,0,0,0,0,0,0,-1,1959,1499,0,0
742,-475,0,0,0,0,0,0,0,0,0,-1,1966,1499,0,0
749,-475,0,0,0,0,0,0,0,0,0,-1,1973,1499,0,0
756,-475,0,0,0,0,0,0,0,0,0,-1,1980,1499,0,0
763,-475,0,0,0,0,0,0,0,0,0,-1,1987,1499,0,0
770,-475,0,0,0,0,0,0,0,0,0,-1,1994,1499,0,0
777,-475,0,0,0,0,0,0,0,0,0,-1,2001,1499,0,0
784,-475,0,0,0,0,0,0,0,0,0,-1,2008,1499,0,0
791,-475,0,0,0,0,0,0,0,0,0,-1,2015,1499,0,0
798,-475,0,0,0,0,0,0,0,0,0,-1,2022,1499,0,0
805,-475,0,0,0,0,0,0,0,0,0,-1,2029,1499,0,0
812,-475,0,0,0,0,0,0,0,0,0,-1,2036,1499,0,0
-700,-482,0,0,0,0,0,0,0,0,0,-1,524,1506,0,0
-693,-482,0,0,0,0,0,0,0,0,0,-1,531,1506,0,0
-686,-482,0,0,0,0,0,0,0,0,0,-1,538,1506,0,0
-679,-482,0,0,0,0,0,0,0,0,0,-1,545,1506,0,0
-672,-482,0,0,0,0,0,0,0,0,0,-1,552,1506,0,0
-665,-482,0,0,0,0,0,0,0,0,0,-1,559,1506,0,0
-658,-482,0,0,0,0,0,0,0,0,0,-1,566,1506,0,0
-651,-482,0,0,0,0,0,0,0,0,0,-1,573,1506,0,0
-644,-482,0,0,0,0,0,0,0,0,0,-1,580,1506,0,0
-637,-482,0,0,0,0,0,0,0,0,0,-1,587,1506,0,0
-630,-482,0,0,0,0,0,0,0,0,0,-1,594,1506,0,0
-623,-482,0,0,0,0,0,0,0,0,0,-1,601,1506,0,0
-616,-482,0,0,0,0,0,0,0,0,0,-1,608,1506,0,0
-609,-482,0,0,0,0,0,0,0,0,0,-1,615,1506,0,0
-602,-482,0,0,0,0,0,0,0,0,0,-1,622,1506,0,0
-595,-482,0,0,0,0,0,0,0,0,0,-1,629,1506,0,0
-588,-482,0,0,0,0,0,0,0,0,0,-1,636,1506,0,0
-581,-482,0,0,0,0,0,0,0,0,0,-1,643,1506,0,0
-574,-482,0,0,0,0,0,0,0,0,0,-1,650,1506,0,0
-567,-482,0,0,0,0,0,0,0,0,0,-1,657,1506,0,0
-560,-482,0,0,0,0,0,0,0,0,0,-1,664,1506,0,0
-553,-482,-9.06055,9.34314,0,0,0,0,0,0,0,-1,671,1506,-9.06056,-9.34312
-546,-482,-4.08624,8.34241,0,0,0,0,0,0,0,-1,678,1506,-4.08624,-8.3424
-539,-482,-4.29877,2.73499,0,0,0,0,0,0,0,-1,685,1506,-4.29879,-2.73494
-532,-482,-3.63611,4.23987,0,0,0,0,0,0,0,-1,692,1506,-3.63609,-4.23983
-525,-482,-6.19116,5.24927,0,0,0,0,0,0,0,-1,699,1506,-6.19117,-5.24927
-518,-482,-5.92957,6.39807,0,0,0,0,0,0,0,-1,706,1506,-5.92958,-6.39806
-511,-482,-7.74634,11.9137,0,0,0,0,0,0,0,-1,713,1506,-7.74633,-11.9137
-504,-482,-6.42358,13.4211,0,0,0,0,0,0,0,-1,720,1506,-6.42356,-13.4212
-497,-482,-6.38336,14.3739,0,0,0,0,0,0,0,-1,727,1506,-6.38336,-14.3739
-490,-482,-6.38812,14.6776,-0.00832201,-0.00363977,0.00141723,-0.00324422,-0.00871757,1.29862,0.00508764,0.0365651,734,1506,-6.38812,-14.6776
-483,-482,-6.35474,15.2998,-0.00658852,-0.00316575,0.00095207,-0.00291875,-0.00683552,1.31696,0.00396049,0.0100856,741,1506,-6.35472,-15.2998
-476,-482,-6.35876,15.8667,-0.00486019,-0.0024876,0.000692797,-0.00230011,-0.00504768,1.30651,0.00291809,0.0099783,748,1506,-6.35876,-15.8666
-469,-482,-6.38727,16.4348,-0.00313785,-0.00159582,0.000719729,-0.0013121,-0.00342158,1.19529,0.00199325,0.011629,755,1506,-6.38726,-16.4348
-462,-482,-6.40833,16.9913,-0.00143999,-0.00057621,0.000937025,2.36692e-05,-0.00203987,1.00134,0.00136787,0.0132535,762,1506,-6.40834,-16.9913
-455,-482,-6.43268,17.5378,0.000153423,0.000522992,0.00132513,0.00167616,-0.000999749,0.854674,0.0015613,0.0136463,769,1506,-6.43269,-17.5378
-448,-482,-6.45862,18.1343,0.00180948,0.00189643,0.00208112,0.00393453,-0.000228614,0.795842,0.00270245,0.0140817,776,1506,-6.45863,-18.1343
-441,-482,-6.47858,18.6794,0.00353757,0.00348256,0.0031541,0.00666428,0.000355845,0.781038,0.00432912,0.0136809,783,1506,-6.47859,-18.6794
-434,-482,-6.46796,19.2213,0.00510107,0.00536842,0.00470769,0.00994433,0.000525157,0.799592,0.00646162,0.0160764,790,1506,-6.46799,-19.2213
-427,-482,-6.49365,19.8271,0.00669151,0.00756808,0.00653043,0.0136749,0.00058468,0.818905,0.0089281,0.0190759,797,1506,-6.49365,-19.8271
-420,-482,-6.40833,20.6329,0.00862467,0.0100731,0.00916384,0.0185413,0.000156466,0.824831,0.012309,0.048505,804,1506,-6.40834,-20.6329
-413,-482,-6.12335,21.3751,0,0,0,0,0,0,0,-1,811,1506,-6.12335,-21.3752
-406,-482,-2.51373,12.7556,0,0,0,0,0,0,0,-1,818,1506,-2.51376,-12.7556
-399,-482,-1.3822,9.22595,0,0,0,0,0,0,0,-1,825,1506,-1.38221,-9.22598
-392,-482,-1.06836,9.22729,0,0,0,0,0,0,0,-1,832,1506,-1.06835,-9.2273
-385,-482,0.0647583,8.90649,0,0,0,0,0,0,0,-1,839,1506,0.0647778,-8.90644
-378,-482,0.215698,5.96948,0,0,0,0,0,0,0,-1,846,1506,0.215681,-5.9695
-371,-482,-0.10907,8.10437,0,0,0,0,0,0,0,-1,853,1506,-0.109063,-8.10433
-364,-482,-0.154968,10.5032,0,0,0,0,0,0,0,-1,860,1506,-0.154976,-10.5032
-357,-482,2.14807,4.60144,0,0,0,0,0,0,0,-1,867,1506,2.14807,-4.60144
-350,-482,-7.5813,-1.45935,0,0,0,0,0,0,0,-1,874,1506,-7.58133,1.45937
-343,-482,-7.19983,-1.26416,0,0,0,0,0,0,0,-1,881,1506,-7.19981,1.26414
-336,-482,-6.367,-0.487305,0,0,0,0,0,0,0,-1,888,1506,-6.36699,0.487335
-329,-482,0,0,0,0,0,0,0,0,0,-1,895,1506,0,0
-322,-482,0,0,0,0,0,0,0,0,0,-1,902,1506,0,0
-315,-482,0,0,0,0,0,0,0,0,0,-1,909,1506,0,0
-308,-482,0,0,0,0,0,0,0,0,0,-1,916,1506,0,0
-301,-482,0,0,0,0,0,0,0,0,0,-1,923,1506,0,0
-294,-482,0,0,0,0,0,0,0,0,0,-1,930,1506,0,0
-287,-482,0,0,0,0,0,0,0,0,0,-1,937,1506,0,0
-280,-482,0,0,0,0,0,0,0,0,0,-1,944,1506,0,0
-273,-482,0,0,0,0,0,0,0,0,0,-1,951,1506,0,0
-266,-482,0,0,0,0,0,0,0,0,0,-1,958,1506,0,0
-259,-482,0,0,0,0,0,0,0,0,0,-1,965,1506,0,0
-252,-482,0,0,0,0,0,0,0,0,0,-1,972,1506,0,0
-245,-482,0,0,0,0,0,0,0,0,0,-1,979,1506,0,0
-238,-482,0,0,0,0,0,0,0,0,0,-1,986,1506,0,0
-231,-482,0,0,0,0,0,0,0,0,0,-1,993,1506,0,0
-224,-482,0,0,0,0,0,0,0,0,0,-1,1000,1506,0,0
-217,-482,0,0,0,0,0,0,0,0,0,-1,1007,1506,0,0
-210,-482,0,0,0,0,0,0,0,0,0,-1,1014,1506,0,0
-203,-482,0,0,0,0,0,0,0,0,0,-1,1021,1506,0,0
-196,-482,0,0,0,0,0,0,0,0,0,-1,1028,1506,0,0
-189,-482,0,0,0,0,0,0,0,0,0,-1,1035,1506,0,0
-182,-482,0,0,0,0,0,0,0,0,0,-1,1042,1506,0,0
-175,-482,0,0,0,0,0,0,0,0,0,-1,1049,1506,0,0
-168,-482,0,0,0,0,0,0,0,0,0,-1,1056,1506,0,0
-161,-482,0,0,0,0,0,0,0,0,0,-1,1063,1506,0,0
-154,-482,0,0,0,0,0,0,0,0,0,-1,1070,1506,0,0
-147,-482,0,0,0,0,0,0,0,0,0,-1,1077,1506,0,0
-140,-482,0,0,0,0,0,0,0,0,0,-1,1084,1506,0,0
-133,-482,0,0,0,0,0,0,0,0,0,-1,1091,1506,0,0
-126,-482,0,0,0,0,0,0,0,0,0,-1,1098,1506,0,0
-119,-482,0,0,0,0,0,0,0,0,0,-1,1105,1506,0,0
-112,-482,0,0,0,0,0,0,0,0,0,-1,1112,1506,0,0
-105,-482,0,0,0,0,0,0,0,0,0,-1,1119,1506,0,0
-98,-482,0,0,0,0,0,0,0,0,0,-1,1126,1506,0,0
-91,-482,0,0,0,0,0,0,0,0,0,-1,1133,1506,0,0
-84,-482,0,0,0,0,0,0,0,0,0,-1,1140,1506,0,0
-77,-482,0,0,0,0,0,0,0,0,0,-1,1147,1506,0,0
-70,-482,0,0,0,0,0,0,0,0,0,-1,1154,1506,0,0
-63,-482,0,0,0,0,0,0,0,0,0,-1,1161,1506,0,0
-56,-482,0,0,0,0,0,0,0,0,0,-1,1168,1506,0,0
-49,-482,0,0,0,0,0,0,0,0,0,-1,1175,1506,0,0
-42,-482,0,0,0,0,0,0,0,0,0,-1,1182,1506,0,0
-35,-482,0,0,0,0,0,0,0,0,0,-1,1189,1506,0,0
-28,-482,0,0,0,0,0,0,0,0,0,-1,1196,1506,0,0
-21,-482,0,0,0,0,0,0,0,0,0,-1,1203,1506,0,0
-14,-482,0,0,0,0,0,0,0,0,0,-1,1210,1506,0,0
-7,-482,0,0,0,0,0,0,0,0,0,-1,1217,1506,0,0
0,-482,0,0,0,0,0,0,0,0,0,-1,1224,1506,0,0
7,-482,0,0,0,0,0,0,0,0,0,-1,1231,1506,0,0
14,-482,0,0,0,0,0,0,0,0,0,-1,1238,1506,0,0
21,-482,0,0,0,0,0,0,0,0,0,-1,1245,1506,0,0
28,-482,0,0,0,0,0,0,0,0,0,-1,1252,1506,0,0
35,-482,0,0,0,0,0,0,0,0,0,-1,1259,1506,0,0
42,-482,0,0,0,0,0,0,0,0,0,-1,1266,1506,0,0
49,-482,0,0,0,0,0,0,0,0,0,-1,1273,1506,0,0
56,-482,0,0,0,0,0,0,0,0,0,-1,1280,1506,0,0
63,-482,0,0,0,0,0,0,0,0,0,-1,1287,1506,0,0
70,-482,0,0,0,0,0,0,0,0,0,-1,1294,1506,0,0
77,-482,0,0,0,0,0,0,0,0,0,-1,1301,1506,0,0
84,-482,0,0,0,0,0,0,0,0,0,-1,1308,1506,0,0
91,-482,0,0,0,0,0,0,0,0,0,-1,1315,1506,0,0
98,-482,0,0,0,0,0,0,0,0,0,-1,1322,1506,0,0
105,-482,0,0,0,0,0,0,0,0,0,-1,1329,1506,0,0
112,-482,0,0,0,0,0,0,0,0,0,-1,1336,1506,0,0
119,-482,0,0,0,0,0,0,0,0,0,-1,1343,1506,0,0
126,-482,0,0,0,0,0,0,0,0,0,-1,1350,1506,0,0
133,-482,0,0,0,0,0,0,0,0,0,-1,1357,1506,0,0
140,-482,0,0,0,0,0,0,0,0,0,-1,1364,1506,0,0
147,-482,0,0,0,0,0,0,0,0,0,-1,1371,1506,0,0
154,-482,0,0,0,0,0,0,0,0,0,-1,1378,1506,0,0
161,-482,0,0,0,0,0,0,0,0,0,-1,1385,1506,0,0
168,-482,0,0,0,0,0,0,0,0,0,-1,1392,1506,0,0
175,-482,0,0,0,0,0,0,0,0,0,-1,1399,1506,0,0
182,-482,0,0,0,0,0,0,0,0,0,-1,1406,1506,0,0
189,-482,0,0,0,0,0,0,0,0,0,-1,1413,1506,0,0
196,-482,0,0,0,0,0,0,0,0,0,-1,1420,1506,0,0
203,-482,0,0,0,0,0,0,0,0,0,-1,1427,1506,0,0
210,-482,0,0,0,0,0,0,0,0,0,-1,1434,1506,0,0
217,-482,0,0,0,0,0,0,0,0,0,-1,1441,1506,0,0
224,-482,0,0,0,0,0,0,0,0,0,-1,1448,1506,0,0
231,-482,0,0,0,0,0,0,0,0,0,-1,1455,1506,0,0
238,-482,0,0,0,0,0,0,0,0,0,-1,1462,1506,0,0
245,-482,0,0,0,0,0,0,0,0,0,-1,1469,1506,0,0
252,-482,0,0,0,0,0,0,0,0,0,-1,1476,1506,0,0
259,-482,0,0,0,0,0,0,0,0,0,-1,1483,1506,0,0
266,-482,0,0,0,0,0,0,0,0,0,-1,1490,1506,0,0
273,-482,0,0,0,0,0,0,0,0,0,-1,1497,1506,0,0
280,-482,0,0,0,0,0,0,0,0,0,-1,1504,1506,0,0
287,-482,0,0,0,0,0,0,0,0,0,-1,1511,1506,0,0
294,-482,0,0,0,0,0,0,0,0,0,-1,1518,1506,0,0
301,-482,0,0,0,0,0,0,0,0,0,-1,1525,1506,0,0
308,-482,0,0,0,0,0,0,0,0,0,-1,1532,1506,0,0
315,-482,0,0,0,0,0,0,0,0,0,-1,1539,1506,0,0
322,-482,0,0,0,0,0,0,0,0,0,-1,1546,1506,0,0
329,-482,0,0,0,0,0,0,0,0,0,-1,1553,1506,0,0
336,-482,0,0,0,0,0,0,0,0,0,-1,1560,1506,0,0
343,-482,0,0,0,0,0,0,0,0,0,-1,1567,1506,0,0
350,-482,0,0,0,0,0,0,0,0,0,-1,1574,1506,0,0
357,-482,0,0,0,0,0,0,0,0,0,-1,1581,1506,0,0
364,-482,0,0,0,0,0,0,0,0,0,-1,1588,1506,0,0
371,-482,0,0,0,0,0,0,0,0,0,-1,1595,1506,0,0
378,-482,0,0,0,0,0,0,0,0,0,-1,1602,1506,0,0
385,-482,0,0,0,0,0,0,0,0,0,-1,1609,1506,0,0
392,-482,0,0,0,0,0,0,0,0,0,-1,1616,1506,0,0
399,-482,0,0,0,0,0,0,0,0,0,-1,1623,1506,0,0
406,-482,0,0,0,0,0,0,0,0,0,-1,1630,1506,0,0
413,-482,0,0,0,0,0,0,0,0,0,-1,1637,1506,0,0
420,-482,0,0,0,0,0,0,0,0,0,-1,1644,1506,0,0
427,-482,0,0,0,0,0,0,0,0,0,-1,1651,1506,0,0
434,-482,0,0,0,0,0,0,0,0,0,-1,1658,1506,0,0
441,-482,0,0,0,0,0,0,0,0,0,-1,1665,1506,0,0
448,-482,4.24146,1.55383,0,0,0,0,0,0,0,-1,1672,1506,4.24149,-1.55381
455,-482,12.4122,1.09729,0,0,0,0,0,0,0,-1,1679,1506,12.4122,-1.09734
462,-482,15.0673,3.13135,0,0,0,0,0,0,0,-1,1686,1506,15.0672,-3.13134
469,-482,15.3793,3.46301,0,0,0,0,0,0,0,-1,1693,1506,15.3793,-3.46307
476,-482,8.69751,9.18738,0,0,0,0,0,0,0,-1,1700,1506,8.69753,-9.18739
483,-482,10.0902,7.17432,0,0,0,0,0,0,0,-1,1707,1506,10.0902,-7.1743
490,-482,11.6289,5.4928,0,0,0,0,0,0,0,-1,1714,1506,11.6289,-5.49283
497,-482,15.9539,7.40222,0,0,0,0,0,0,0,-1,1721,1506,15.9538,-7.40219
504,-482,20.4233,12.006,0,0,0,0,0,0,0,-1,1728,1506,20.4233,-12.006
511,-482,18.4937,12.9175,0,0,0,0,0,0,0,-1,1735,1506,18.4936,-12.9174
518,-482,16.6002,13.9679,0,0,0,0,0,0,0,-1,1742,1506,16.6003,-13.9679
525,-482,18.495,15.9618,0,0,0,0,0,0,0,-1,1749,1506,18.495,-15.9618
532,-482,19.9375,21.0775,0,0,0,0,0,0,0,-1,1756,1506,19.9375,-21.0775
539,-482,20.2291,20.5577,0,0,0,0,0,0,0,-1,1763,1506,20.2291,-20.5578
546,-482,22.2611,22.3387,0,0,0,0,0,0,0,-1,1770,1506,22.2612,-22.3388
553,-482,22.226,21.6481,0,0,0,0,0,0,0,-1,1777,1506,22.2259,-21.6481
560,-482,22.2516,21.0419,0.00584591,0.00416492,-0.0033494,0.00845866,0.00155217,-0.662467,0.00519952,0.0154362,1784,1506,22.2516,-21.0418
567,-482,22.3401,20.4791,0.00460572,0.00311156,-0.00253559,0.00650199,0.00121528,-0.642132,0.00399172,0.0150073,1791,1506,22.3401,-20.4792
574,-482,22.3043,19.9781,0.00375347,0.00241867,-0.00207072,0.00526169,0.000910458,-0.629503,0.00324713,0.0137092,1798,1506,22.3043,-19.9782
581,-482,22.2692,19.4784,0.00310689,0.00184626,-0.00171473,0.00430349,0.000649666,-0.609271,0.00267883,0.0103904,1805,1506,22.2691,-19.4784
588,-482,22.265,18.9431,0.00268819,0.0013105,-0.00142535,0.00358242,0.000416269,-0.560305,0.00226233,0.0111637,1812,1506,22.265,-18.9432
595,-482,22.2538,18.3934,0.0026403,0.000842853,-0.00124127,0.00327405,0.000209107,-0.472061,0.00211644,0.016594,1819,1506,22.2538,-18.3935
602,-482,22.2306,17.8531,0.00272702,0.000406092,-0.00113054,0.00318668,-5.35694e-05,-0.386169,0.00214254,0.0201335,1826,1506,22.2306,-17.8532
609,-482,22.2092,17.3606,0.00296401,-2.09899e-05,-0.000971063,0.0032521,-0.000309085,-0.288408,0.0022781,0.0156347,1833,1506,22.2093,-17.3606
616,-482,22.1846,16.8488,0.00345946,-0.00056553,-0.000738922,0.00359083,-0.000696896,-0.175943,0.00265683,0.0116869,1840,1506,22.1846,-16.8488
623,-482,22.16,16.3359,0.00414946,-0.00131246,-0.00038027,0.00417581,-0.00133881,-0.0691772,0.00332134,0.0162498,1847,1506,22.16,-16.3359
630,-482,22.1823,15.9097,0.00494925,-0.00203295,9.11619e-05,0.00495044,-0.00203414,0.0130534,0.00414807,0.0337292,1854,1506,22.1823,-15.9097
637,-482,22.2004,15.2705,0,0,0,0,0,0,0,-1,1861,1506,22.2004,-15.2705
644,-482,17.5909,11.6163,0,0,0,0,0,0,0,-1,1868,1506,17.5909,-11.6163
651,-482,4.03845,7.05273,0,0,0,0,0,0,0,-1,1875,1506,4.03843,-7.05279
658,-482,10.0278,5.87903,0,0,0,0,0,0,0,-1,1882,1506,10.0279,-5.87902
665,-482,8.15198,3.22229,0,0,0,0,0,0,0,-1,1889,1506,8.15199,-3.22232
672,-482,9.87415,1.3147,0,0,0,0,0,0,0,-1,1896,1506,9.87416,-1.31473
679,-482,0,0,0,0,0,0,0,0,0,-1,1903,1506,0,0
686,-482,0,0,0,0,0,0,0,0,0,-1,1910,1506,0,0
693,-482,0,0,0,0,0,0,0,0,0,-1,1917,1506,0,0
700,-482,0,0,0,0,0,0,0,0,0,-1,1924,1506,0,0
707,-482,0,0,0,0,0,0,0,0,0,-1,1931,1506,0,0
714,-482,0,0,0,0,0,0,0,0,0,-1,1938,1506,0,0
721,-482,0,0,0,0,0,0,0,0,0,-1,1945,1506,0,0
728,-482,0,0,0,0,0,0,0,0,0,-1,1952,1506,0,0
735,-482,0,0,0,0,0,0,0,0,0,-1,1959,1506,0,0
742,-482,0,0,0,0,0,0,0,0,0,-1,1966,1506,0,0
749,-482,0,0,0,0,0,0,0,0,0,-1,1973,1506,0,0
756,-482,0,0,0,0,0,0,0,0,0,-1,1980,1506,0,0
763,-482,0,0,0,0,0,0,0,0,0,-1,1987,1506,0,0
770,-482,0,0,0,0,0,0,0,0,0,-1,1994,1506,0,0
777,-482,0,0,0,0,0,0,0,0,0,-1,2001,1506,0,0
784,-482,0,0,0,0,0,0,0,0,0,-1,2008,1506,0,0
791,-482,0,0,0,0,0,0,0,0,0,-1,2015,1506,0,0
798,-482,0,0,0,0,0,0,0,0,0,-1,2022,1506,0,0
805,-482,0,0,0,0,0,0,0,0,0,-1,2029,1506,0,0
812,-482,0,0,0,0,0,0,0,0,0,-1,2036,1506,0,0
-700,-489,0,0,0,0,0,0,0,0,0,-1,524,1513,0,0
-693,-489,0,0,0,0,0,0,0,0,0,-1,531,1513,0,0
-686,-489,0,0,0,0,0,0,0,0,0,-1,538,1513,0,0
-679,-489,0,0,0,0,0,0,0,0,0,-1,545,1513,0,0
-672,-489,0,0,0,0,0,0,0,0,0,-1,552,1513,0,0
-665,-489,0,0,0,0,0,0,0,0,0,-1,559,1513,0,0
-658,-489,0,0,0,0,0,0,0,0,0,-1,566,1513,0,0
-651,-489,0,0,0,0,0,0,0,0,0,-1,573,1513,0,0
-644,-489,0,0,0,0,0,0,0,0,0,-1,580,1513,0,0
-637,-489,0,0,0,0,0,0,0,0,0,-1,587,1513,0,0
-630,-489,0,0,0,0,0,0,0,0,0,-1,594,1513,0,0
-623,-489,0,0,0,0,0,0,0,0,0,-1,601,1513,0,0
-616,-489,0,0,0,0,0,0,0,0,0,-1,608,1513,0,0
-609,-489,0,0,0,0,0,0,0,0,0,-1,615,1513,0,0
-602,-489,0,0,0,0,0,0,0,0,0,-1,622,1513,0,0
-595,-489,0,0,0,0,0,0,0,0,0,-1,629,1513,0,0
-588,-489,0,0,0,0,0,0,0,0,0,-1,636,1513,0,0
-581,-489,0,0,0,0,0,0,0,0,0,-1,643,1513,0,0
-574,-489,0,0,0,0,0,0,0,0,0,-1,650,1513,0,0
-567,-489,0,0,0,0,0,0,0,0,0,-1,657,1513,0,0
-560,-489,0,0,0,0,0,0,0,0,0,-1,664,1513,0,0
-553,-489,-9.42206,8.5116,0,0,0,0,0,0,0,-1,671,1513,-9.42205,-8.51158
-546,-489,-7.80951,8.18506,0,0,0,0,0,0,0,-1,678,1513,-7.8095,-8.18503
-539,-489,-3.06879,2.82349,0,0,0,0,0,0,0,-1,685,1513,-3.06881,-2.82354
-532,-489,-3.14215,2.5835,0,0,0,0,0,0,0,-1,692,1513,-3.14213,-2.58353
-525,-489,-2.604,4.06274,0,0,0,0,0,0,0,-1,699,1513,-2.60399,-4.06274
-518,-489,-5.43774,7.48059,0,0,0,0,0,0,0,-1,706,1513,-5.43777,-7.48058
-511,-489,-7.52856,10.951,0,0,0,0,0,0,0,-1,713,1513,-7.52857,-10.951
-504,-489,-7.17352,12.8508,0,0,0,0,0,0,0,-1,720,1513,-7.17352,-12.8508
-497,-489,-5.33563,14.6111,0,0,0,0,0,0,0,-1,727,1513,-5.33565,-14.6111
-490,-489,-5.61804,14.783,-0.011915,-0.00483736,0.00227557,-0.00416887,-0.0125835,1.28507,0.00740167,0.0479661,734,1513,-5.61806,-14.783
-483,-489,-5.82355,15.2484,-0.00937317,-0.00425744,0.00156376,-0.0038173,-0.0098133,1.29643,0.00571207,0.0196735,741,1513,-5.82355,-15.2484
-476,-489,-5.81323,15.8772,-0.00703542,-0.00348764,0.00107466,-0.00318751,-0.00733556,1.29845,0.00424727,0.0101885,748,1513,-5.81323,-15.8772
-469,-489,-5.82727,16.4524,-0.00486992,-0.00255261,0.000887572,-0.00225172,-0.00517081,1.24395,0.00299364,0.0109688,755,1513,-5.82728,-16.4524
-462,-489,-5.85657,17.0052,-0.00285977,-0.00148052,0.000938838,-0.00100525,-0.00333505,1.10217,0.00197546,0.0158771,762,1513,-5.85656,-17.0053
-455,-489,-5.88702,17.5588,-0.00107114,-0.00037234,0.00115955,0.000489307,-0.00193278,0.931733,0.00147886,0.0197796,769,1513,-5.88701,-17.5588
-448,-489,-5.92279,18.141,0.000660537,0.000946453,0.0017292,0.0025386,-0.000931609,0.826641,0.0020739,0.017808,776,1513,-5.92281,-18.1411
-441,-489,-5.91626,18.6946,0.00236439,0.00245094,0.00260443,0.00501245,-0.000197118,0.793706,0.00340924,0.0154694,783,1513,-5.91629,-18.6946
-434,-489,-5.94299,19.2483,0.00390924,0.00418984,0.00387482,0.0079269,0.000172177,0.803495,0.00522815,0.0180715,790,1513,-5.94299,-19.2483
-427,-489,-5.99445,19.8243,0.00538496,0.00610583,0.0053778,0.0111353,0.000355529,0.818859,0.00730789,0.0198126,797,1513,-5.99444,-19.8243
-420,-489,-6.0097,20.5376,0.00706211,0.00825032,0.00752574,0.0152054,0.000107056,0.824788,0.0101014,0.0251246,804,1513,-6.0097,-20.5376
-413,-489,-5.92584,21.3282,0,0,0,0,0,0,0,-1,811,1513,-5.92586,-21.3282
-406,-489,-3.10559,15.8143,0,0,0,0,0,0,0,-1,818,1513,-3.10556,-15.8143
-399,-489,-1.41241,9.10718,0,0,0,0,0,0,0,-1,825,1513,-1.41244,-9.10722
-392,-489,-1.0368,9.30469,0,0,0,0,0,0,0,-1,832,1513,-1.03682,-9.30466
-385,-489,-1.75165,10.6559,0,0,0,0,0,0,0,-1,839,1513,-1.75165,-10.6559
-378,-489,-0.401428,9.87048,0,0,0,0,0,0,0,-1,846,1513,-0.401415,-9.87047
-371,-489,-1.11633,10.6606,0,0,0,0,0,0,0,-1,853,1513,-1.11633,-10.6606
-364,-489,-0.503113,8.98486,0,0,0,0,0,0,0,-1,860,1513,-0.503097,-8.98482
-357,-489,-0.609924,10.9606,0,0,0,0,0,0,0,-1,867,1513,-0.609947,-10.9605
-350,-489,-7.94659,-0.358887,0,0,0,0,0,0,0,-1,874,1513,-7.94657,0.358912
-343,-489,-7.49323,-0.437866,0,0,0,0,0,0,0,-1,881,1513,-7.49322,0.437823
-336,-489,-7.02332,-0.53125,0,0,0,0,0,0,0,-1,888,1513,-7.0233,0.531295
-329,-489,-12.9825,5.06604,0,0,0,0,0,0,0,-1,895,1513,-12.9825,-5.06602
-322,-489,0,0,0,0,0,0,0,0,0,-1,902,1513,0,0
-315,-489,0,0,0,0,0,0,0,0,0,-1,909,1513,0,0
-308,-489,0,0,0,0,0,0,0,0,0,-1,916,1513,0,0
-301,-489,0,0,0,0,0,0,0,0,0,-1,923,1513,0,0
-294,-489,0,0,0,0,0,0,0,0,0,-1,930,1513,0,0
-287,-489,0,0,0,0,0,0,0,0,0,-1,937,1513,0,0
-280,-489,0,0,0,0,0,0,0,0,0,-1,944,1513,0,0
-273,-489,0,0,0,0,0,0,0,0,0,-1,951,1513,0,0
-266,-489,0,0,0,0,0,0,0,0,0,-1,958,1513,0,0
-259,-489,0,0,0,0,0,0,0,0,0,-1,965,1513,0,0
-252,-489,0,0,0,0,0,0,0,0,0,-1,972,1513,0,0
-245,-489,0,0,0,0,0,0,0,0,0,-1,979,1513,0,0
-238,-489,0,0,0,0,0,0,0,0,0,-1,986,1513,0,0
-231,-489,0,0,0,0,0,0,0,0,0,-1,993,1513,0,0
-224,-489,0,0,0,0,0,0,0,0,0,-1,1000,1513,0,0
-217,-489,0,0,0,0,0,0,0,0,0,-1,1007,1513,0,0
-210,-489,0,0,0,0,0,0,0,0,0,-1,1014,1513,0,0
-203,-489,0,0,0,0,0,0,0,0,0,-1,1021,1513,0,0
-196,-489,0,0,0,0,0,0,0,0,0,-1,1028,1513,0,0
-189,-489,0,0,0,0,0,0,0,0,0,-1,1035,1513,0,0
-182,-489,0,0,0,0,0,0,0,0,0,-1,1042,1513,0,0
-175,-489,0,0,0,0,0,0,0,0,0,-1,1049,1513,0,0
-168,-489,0,0,0,0,0,0,0,0,0,-1,1056,1513,0,0
-161,-489,0,0,0,0,0,0,0,0,0,-1,1063,1513,0,0
-154,-489,0,0,0,0,0,0,0,0,0,-1,1070,1513,0,0
-147,-489,0,0,0,0,0,0,0,0,0,-1,1077,1513,0,0
-140,-489,0,0,0,0,0,0,0,0,0,-1,1084,1513,0,0
-133,-489,0,0,0,0,0,0,0,0,0,-1,1091,1513,0,0
-126,-489,0,0,0,0,0,0,0,0,0,-1,1098,1513,0,0
-119,-489,0,0,0,0,0,0,0,0,0,-1,1105,1513,0,0
-112,-489,0,0,0,0,0,0,0,0,0,-1,1112,1513,0,0
-105,-489,0,0,0,0,0,0,0,0,0,-1,1119,1513,0,0
-98,-489,0,0,0,0,0,0,0,0,0,-1,1126,1513,0,0
-91,-489,0,0,0,0,0,0,0,0,0,-1,1133,1513,0,0
-84,-489,0,0,0,0,0,0,0,0,0,-1,1140,1513,0,0
-77,-489,0,0,0,0,0,0,0,0,0,-1,1147,1513,0,0
-70,-489,0,0,0,0,0,0,0,0,0,-1,1154,1513,0,0
-63,-489,0,0,0,0,0,0,0,0,0,-1,1161,1513,0,0
-56,-489,0,0,0,0,0,0,0,0,0,-1,1168,1513,0,0
-49,-489,0,0,0,0,0,0,0,0,0,-1,1175,1513,0,0
-42,-489,0,0,0,0,0,0,0,0,0,-1,1182,1513,0,0
-35,-489,0,0,0,0,0,0,0,0,0,-1,1189,1513,0,0
-28,-489,0,0,0,0,0,0,0,0,0,-1,1196,1513,0,0
-21,-489,0,0,0,0,0,0,0,0,0,-1,1203,1513,0,0
-14,-489,0,0,0,0,0,0,0,0,0,-1,1210,1513,0,0
-7,-489,0,0,0,0,0,0,0,0,0,-1,1217,1513,0,0
0,-489,0,0,0,0,0,0,0,0,0,-1,1224,1513,0,0
7,-489,0,0,0,0,0,0,0,0,0,-1,1231,1513,0,0
14,-489,0,0,0,0,0,0,0,0,0,-1,1238,1513,0,0
21,-489,0,0,0,0,0,0,0,0,0,-1,1245,1513,0,0
28,-489,0,0,0,0,0,0,0,0,0,-1,1252,1513,0,0
35,-489,0,0,0,0,0,0,0,0,0,-1,1259,1513,0,0
42,-489,0,0,0,0,0,0,0,0,0,-1,1266,1513,0,0
49,-489,0,0,0,0,0,0,0,0,0,-1,1273,1513,0,0
56,-489,0,0,0,0,0,0,0,0,0,-1,1280,1513,0,0
63,-489,0,0,0,0,0,0,0,0,0,-1,1287,1513,0,0
70,-489,0,0,0,0,0,0,0,0,0,-1,1294,1513,0,0
77,-489,0,0,0,0,0,0,0,0,0,-1,1301,1513,0,0
84,-489,0,0,0,0,0,0,0,0,0,-1,1308,1513,0,0
91,-489,0,0,0,0,0,0,0,0,0,-1,1315,1513,0,0
98,-489,0,0,0,0,0,0,0,0,0,-1,1322,1513,0,0
105,-489,0,0,0,0,0,0,0,0,0,-1,1329,1513,0,0
112,-489,0,0,0,0,0,0,0,0,0,-1,1336,1513,0,0
119,-489,0,0,0,0,0,0,0,0,0,-1,1343,1513,0,0
126,-489,0,0,0,0,0,0,0,0,0,-1,1350,1513,0,0
133,-489,0,0,0,0,0,0,0,0,0,-1,1357,1513,0,0
140,-489,0,0,0,0,0,0,0,0,0,-1,1364,1513,0,0
147,-489,0,0,0,0,0,0,0,0,0,-1,1371,1513,0,0
154,-489,0,0,0,0,0,0,0,0,0,-1,1378,1513,0,0
161,-489,0,0,0,0,0,0,0,0,0,-1,1385,1513,0,0
168,-489,0,0,0,0,0,0,0,0,0,-1,1392,1513,0,0
175,-489,0,0,0,0,0,0,0,0,0,-1,1399,1513,0,0
182,-489,0,0,0,0,0,0,0,0,0,-1,1406,1513,0,0
189,-489,0,0,0,0,0,0,0,0,0,-1,1413,1513,0,0
196,-489,0,0,0,0,0,0,0,0,0,-1,1420,1513,0,0
203,-489,0,0,0,0,0,0,0,0,0,-1,1427,1513,0,0
210,-489,0,0,0,0,0,0,0,0,0,-1,1434,1513,0,0
217,-489,0,0,0,0,0,0,0,0,0,-1,1441,1513,0,0
224,-489,0,0,0,0,0,0,0,0,0,-1,1448,1513,0,0
231,-489,0,0,0,0,0,0,0,0,0,-1,1455,1513,0,0
238,-489,0,0,0,0,0,0,0,0,0,-1,1462,1513,0,0
245,-489,0,0,0,0,0,0,0,0,0,-1,1469,1513,0,0
252,-489,0,0,0,0,0,0,0,0,0,-1,1476,1513,0,0
259,-489,0,0,0,0,0,0,0,0,0,-1,1483,1513,0,0
266,-489,0,0,0,0,0,0,0,0,0,-1,1490,1513,0,0
273,-489,0,0,0,0,0,0,0,0,0,-1,1497,1513,0,0
280,-489,0,0,0,0,0,0,0,0,0,-1,1504,1513,0,0
287,-489,0,0,0,0,0,0,0,0,0,-1,1511,1513,0,0
294,-489,0,0,0,0,0,0,0,0,0,-1,1518,1513,0,0
301,-489,0,0,0,0,0,0,0,0,0,-1,1525,1513,0,0
308,-489,0,0,0,0,0,0,0,0,0,-1,1532,1513,0,0
315,-489,0,0,0,0,0,0,0,0,0,-1,1539,1513,0,0
322,-489,0,0,0,0,0,0,0,0,0,-1,1546,1513,0,0
329,-489,0,0,0,0,0,0,0,0,0,-1,1553,1513,0,0
336,-489,0,0,0,0,0,0,0,0,0,-1,1560,1513,0,0
343,-489,0,0,0,0,0,0,0,0,0,-1,1567,1513,0,0
350,-489,0,0,0,0,0,0,0,0,0,-1,1574,1513,0,0
357,-489,0,0,0,0,0,0,0,0,0,-1,1581,1513,0,0
364,-489,0,0,0,0,0,0,0,0,0,-1,1588,1513,0,0
371,-489,0,0,0,0,0,0,0,0,0,-1,1595,1513,0,0
378,-489,0,0,0,0,0,0,0,0,0,-1,1602,1513,0,0
385,-489,0,0,0,0,0,0,0,0,0,-1,1609,1513,0,0
392,-489,0,0,0,0,0,0,0,0,0,-1,1616,1513,0,0
399,-489,0,0,0,0,0,0,0,0,0,-1,1623,1513,0,0
406,-489,0,0,0,0,0,0,0,0,0,-1,1630,1513,0,0
413,-489,0,0,0,0,0,0,0,0,0,-1,1637,1513,0,0
420,-489,0,0,0,0,0,0,0,0,0,-1,1644,1513,0,0
427,-489,0,0,0,0,0,0,0,0,0,-1,1651,1513,0,0
434,-489,0,0,0,0,0,0,0,0,0,-1,1658,1513,0,0
441,-489,11.4602,2.56787,0,0,0,0,0,0,0,-1,1665,1513,11.4602,-2.56786
448,-489,12.4425,1.72351,0,0,0,0,0,0,0,-1,1672,1513,12.4425,-1.72349
455,-489,12.5575,1.37463,0,0,0,0,0,0,0,-1,1679,1513,12.5575,-1.37469
462,-489,14.9784,3.84888,0,0,0,0,0,0,0,-1,1686,1513,14.9784,-3.84892
469,-489,15.1367,4.53101,0,0,0,0,0,0,0,-1,1693,1513,15.1368,-4.531
476,-489,15.5536,5.09338,0,0,0,0,0,0,0,-1,1700,1513,15.5536,-5.09339
483,-489,8.96912,8.37805,0,0,0,0,0,0,0,-1,1707,1513,8.96909,-8.37809
490,-489,10.5366,7.49561,0,0,0,0,0,0,0,-1,1714,1513,10.5367,-7.49558
497,-489,14.6051,11.8397,0,0,0,0,0,0,0,-1,1721,1513,14.6051,-11.8397
504,-489,16.7527,14.1735,0,0,0,0,0,0,0,-1,1728,1513,16.7527,-14.1735
511,-489,17.83,17.7993,0,0,0,0,0,0,0,-1,1735,1513,17.83,-17.7993
518,-489,16.4751,14.3682,0,0,0,0,0,0,0,-1,1742,1513,16.4751,-14.3682
525,-489,17.2606,17.4949,0,0,0,0,0,0,0,-1,1749,1513,17.2606,-17.4949
532,-489,19.397,21.0182,0,0,0,0,0,0,0,-1,1756,1513,19.397,-21.0182
539,-489,21.6836,22.9375,0,0,0,0,0,0,0,-1,1763,1513,21.6836,-22.9375
546,-489,21.7913,22.2548,0.00828689,0.00656595,-0.00556365,0.0130562,0.00179663,-0.708676,0.00817137,0.0276976,1770,1513,21.7912,-22.2548
553,-489,21.7759,21.6204,0.00647385,0.00488889,-0.00404975,0.00980792,0.00155481,-0.688776,0.0060869,0.0191335,1777,1513,21.7759,-21.6203
560,-489,21.7875,21.043,0.00507872,0.00360472,-0.00294649,0.00737899,0.00130445,-0.662849,0.00454731,0.0135105,1784,1513,21.7875,-21.043
567,-489,21.806,20.5138,0.00407049,0.00266704,-0.00224134,0.00571738,0.00102014,-0.63369,0.00352115,0.0147066,1791,1513,21.806,-20.5138
574,-489,21.7615,20.0308,0.00339704,0.00204945,-0.00183872,0.00468153,0.000764949,-0.609773,0.00289987,0.0144215,1798,1513,21.7615,-20.0308
581,-489,21.7665,19.5103,0.00291264,0.00153368,-0.00155031,0.00391988,0.000526443,-0.576165,0.00245665,0.0107617,1805,1513,21.7665,-19.5102
588,-489,21.7527,18.9921,0.00266098,0.00110996,-0.00136753,0.00345759,0.00031335,-0.527465,0.00220804,0.0130238,1812,1513,21.7527,-18.992
595,-489,21.7252,18.4707,0.00277522,0.00076637,-0.00129628,0.00341068,0.000130911,-0.45579,0.00223143,0.0194234,1819,1513,21.7253,-18.4707
602,-489,21.7124,17.9397,0.00301988,0.000479178,-0.00130716,0.00357229,-7.32337e-05,-0.39984,0.00240631,0.0240756,1826,1513,21.7124,-17.9397
609,-489,21.6866,17.416,0.00341607,0.000185315,-0.00127842,0.00386074,-0.000259353,-0.334738,0.00266449,0.016587,1833,1513,21.6866,-17.416
616,-489,21.6802,16.8531,0.00414506,-0.000256036,-0.00116497,0.00443441,-0.000545382,-0.243446,0.00315382,0.0176636,1840,1513,21.6802,-16.8532
623,-489,21.6632,16.3429,0.00501794,-0.000911749,-0.000874193,0.00514414,-0.00103794,-0.143364,0.00382267,0.0388809,1847,1513,21.6632,-16.3429
630,-489,21.8053,15.9036,0,0,0,0,0,0,0,-1,1854,1513,21.8053,-15.9035
637,-489,17.2048,11.8091,0,0,0,0,0,0,0,-1,1861,1513,17.2048,-11.8091
644,-489,9.67578,8.45874,0,0,0,0,0,0,0,-1,1868,1513,9.67576,-8.45879
651,-489,6.13818,6.85095,0,0,0,0,0,0,0,-1,1875,1513,6.13823,-6.85097
658,-489,5.43848,7.75513,0,0,0,0,0,0,0,-1,1882,1513,5.43844,-7.75509
665,-489,5.48438,8.59912,0,0,0,0,0,0,0,-1,1889,1513,5.48434,-8.59907
672,-489,0,0,0,0,0,0,0,0,0,-1,1896,1513,0,0
679,-489,0,0,0,0,0,0,0,0,0,-1,1903,1513,0,0
686,-489,0,0,0,0,0,0,0,0,0,-1,1910,1513,0,0
693,-489,0,0,0,0,0,0,0,0,0,-1,1917,1513,0,0
700,-489,0,0,0,0,0,0,0,0,0,-1,1924,1513,0,0
707,-489,0,0,0,0,0,0,0,0,0,-1,1931,1513,0,0
714,-489,0,0,0,0,0,0,0,0,0,-1,1938,1513,0,0
721,-489,0,0,0,0,0,0,0,0,0,-1,1945,1513,0,0
728,-489,0,0,0,0,0,0,0,0,0,-1,1952,1513,0,0
735,-489,0,0,0,0,0,0,0,0,0,-1,1959,1513,0,0
742,-489,0,0,0,0,0,0,0,0,0,-1,1966,1513,0,0
749,-489,0,0,0,0,0,0,0,0,0,-1,1973,1513,0,0
756,-489,0,0,0,0,0,0,0,0,0,-1,1980,1513,0,0
763,-489,0,0,0,0,0,0,0,0,0,-1,1987,1513,0,0
770,-489,0,0,0,0,0,0,0,0,0,-1,1994,1513,0,0
777,-489,0,0,0,0,0,0,0,0,0,-1,2001,1513,0,0
784,-489,0,0,0,0,0,0,0,0,0,-1,2008,1513,0,0
791,-489,0,0,0,0,0,0,0,0,0,-1,2015,1513,0,0
798,-489,0,0,0,0,0,0,0,0,0,-1,2022,1513,0,0
805,-489,0,0,0,0,0,0,0,0,0,-1,2029,1513,0,0
812,-489,0,0,0,0,0,0,0,0,0,-1,2036,1513,0,0
-700,-496,0,0,0,0,0,0,0,0,0,-1,524,1520,0,0
-693,-496,0,0,0,0,0,0,0,0,0,-1,531,1520,0,0
-686,-496,0,0,0,0,0,0,0,0,0,-1,538,1520,0,0
-679,-496,0,0,0,0,0,0,0,0,0,-1,545,1520,0,0
-672,-496,0,0,0,0,0,0,0,0,0,-1,552,1520,0,0
-665,-496,0,0,0,0,0,0,0,0,0,-1,559,1520,0,0
-658,-496,0,0,0,0,0,0,0,0,0,-1,566,1520,0,0
-651,-496,0,0,0,0,0,0,0,0,0,-1,573,1520,0,0
-644,-496,0,0,0,0,0,0,0,0,0,-1,580,1520,0,0
-637,-496,0,0,0,0,0,0,0,0,0,-1,587,1520,0,0
-630,-496,0,0,0,0,0,0,0,0,0,-1,594,1520,0,0
-623,-496,0,0,0,0,0,0,0,0,0,-1,601,1520,0,0
-616,-496,0,0,0,0,0,0,0,0,0,-1,608,1520,0,0
-609,-496,0,0,0,0,0,0,0,0,0,-1,615,1520,0,0
-602,-496,0,0,0,0,0,0,0,0,0,-1,622,1520,0,0
-595,-496,0,0,0,0,0,0,0,0,0,-1,629,1520,0,0
-588,-496,0,0,0,0,0,0,0,0,0,-1,636,1520,0,0
-581,-496,0,0,0,0,0,0,0,0,0,-1,643,1520,0,0
-574,-496,0,0,0,0,0,0,0,0,0,-1,650,1520,0,0
-567,-496,0,0,0,0,0,0,0,0,0,-1,657,1520,0,0
-560,-496,0,0,0,0,0,0,0,0,0,-1,664,1520,0,0
-553,-496,0,0,0,0,0,0,0,0,0,-1,671,1520,0,0
-546,-496,-8.09711,7.94836,0,0,0,0,0,0,0,-1,678,1520,-8.09712,-7.94842
-539,-496,-3.20129,1.16052,0,0,0,0,0,0,0,-1,685,1520,-3.20131,-1.16054
-532,-496,-2.98279,2.62146,0,0,0,0,0,0,0,-1,692,1520,-2.98278,-2.62151
-525,-496,-2.75201,4.08032,0,0,0,0,0,0,0,-1,699,1520,-2.75201,-4.08031
-518,-496,-2.6333,5.36072,0,0,0,0,0,0,0,-1,706,1520,-2.63328,-5.36077
-511,-496,-7.92126,9.68604,0,0,0,0,0,0,0,-1,713,1520,-7.92127,-9.68598
-504,-496,-7.51044,11.6274,0,0,0,0,0,0,0,-1,720,1520,-7.51042,-11.6275
-497,-496,-5.30933,14.4291,0,0,0,0,0,0,0,-1,727,1520,-5.30932,-14.4291
-490,-496,-4.82391,15.1825,0,0,0,0,0,0,0,-1,734,1520,-4.82393,-15.1825
-483,-496,-5.17517,15.4346,-0.0122988,-0.00525323,0.00263272,-0.00437815,-0.0131739,1.2499,0.00774718,0.032647,741,1520,-5.17519,-15.4346
-476,-496,-5.27246,15.8959,-0.00911933,-0.00429164,0.00188419,-0.00364333,-0.00976764,1.2394,0.00569967,0.0149902,748,1520,-5.27247,-15.8959
-469,-496,-5.2818,16.4852,-0.00638149,-0.00325048,0.0014482,-0.00268336,-0.00694861,1.19755,0.00404629,0.0108341,755,1520,-5.28182,-16.4852
-462,-496,-5.29987,17.036,-0.0040107,-0.00210397,0.00129594,-0.0014485,-0.00466617,1.10253,0.00275781,0.0155785,762,1520,-5.29985,-17.036
-455,-496,-5.32513,17.5835,-0.00202934,-0.000994766,0.00130492,-0.00010834,-0.00291577,0.974103,0.00190876,0.0210899,769,1520,-5.32512,-17.5835
-448,-496,-5.35651,18.1893,-0.000264749,0.0002259,0.00162326,0.00162227,-0.00166112,0.860396,0.00189571,0.019759,776,1520,-5.3565,-18.1893
-441,-496,-5.35248,18.7493,0.00135714,0.00157523,0.00222838,0.00369723,-0.00076486,0.809846,0.00275539,0.0147169,783,1520,-5.3525,-18.7493
-434,-496,-5.3963,19.2864,0.00282888,0.00309388,0.00313993,0.00610411,-0.000181341,0.806485,0.00413118,0.0137327,790,1520,-5.39629,-19.2864
-427,-496,-5.42975,19.8447,0.00413831,0.00466351,0.00427268,0.00868165,0.000120172,0.816089,0.00574813,0.0175293,797,1520,-5.42973,-19.8447
-420,-496,-5.42474,20.3873,0.00552849,0.00641553,0.00589521,0.0118839,6.01392e-05,0.822944,0.00790262,0.0187546,804,1520,-5.42474,-20.3873
-413,-496,-5.33716,20.9747,0.00727061,0.00823901,0.00787819,0.0156479,-0.000138242,0.81609,0.0104783,0.0298352,811,1520,-5.33716,-20.9748
-406,-496,-5.19183,21.767,0,0,0,0,0,0,0,-1,818,1520,-5.19182,-21.767
-399,-496,-4.87042,22.6322,0,0,0,0,0,0,0,-1,825,1520,-4.87042,-22.6322
-392,-496,-1.49786,12.387,0,0,0,0,0,0,0,-1,832,1520,-1.49788,-12.387
-385,-496,-1.72437,11.4985,0,0,0,0,0,0,0,-1,839,1520,-1.72436,-11.4985
-378,-496,-1.45532,14.0719,0,0,0,0,0,0,0,-1,846,1520,-1.45533,-14.0719
-371,-496,0.0877075,12.5299,0,0,0,0,0,0,0,-1,853,1520,0.0876896,-12.5299
-364,-496,0.0881348,10.6422,0,0,0,0,0,0,0,-1,860,1520,0.0881368,-10.6423
-357,-496,0.323792,7.56812,0,0,0,0,0,0,0,-1,867,1520,0.323782,-7.56806
-350,-496,2.1535,7.18945,0,0,0,0,0,0,0,-1,874,1520,2.15348,-7.1894
-343,-496,-7.56244,0.335327,0,0,0,0,0,0,0,-1,881,1520,-7.56242,-0.335322
-336,-496,-3.99249,6.02222,0,0,0,0,0,0,0,-1,888,1520,-3.99246,-6.0222
-329,-496,-6.93689,-0.100342,0,0,0,0,0,0,0,-1,895,1520,-6.93686,0.1003
-322,-496,-6.17505,0.494385,0,0,0,0,0,0,0,-1,902,1520,-6.17507,-0.49437
-315,-496,-7.539,5.78638,0,0,0,0,0,0,0,-1,909,1520,-7.53898,-5.78633
-308,-496,0,0,0,0,0,0,0,0,0,-1,916,1520,0,0
-301,-496,0,0,0,0,0,0,0,0,0,-1,923,1520,0,0
-294,-496,0,0,0,0,0,0,0,0,0,-1,930,1520,0,0
-287,-496,0,0,0,0,0,0,0,0,0,-1,937,1520,0,0
-280,-496,0,0,0,0,0,0,0,0,0,-1,944,1520,0,0
-273,-496,0,0,0,0,0,0,0,0,0,-1,951,1520,0,0
-266,-496,0,0,0,0,0,0,0,0,0,-1,958,1520,0,0
-259,-496,0,0,0,0,0,0,0,0,0,-1,965,1520,0,0
-252,-496,0,0,0,0,0,0,0,0,0,-1,972,1520,0,0
-245,-496,0,0,0,0,0,0,0,0,0,-1,979,1520,0,0
-238,-496,0,0,0,0,0,0,0,0,0,-1,986,1520,0,0
-231,-496,0,0,0,0,0,0,0,0,0,-1,993,1520,0,0
-224,-496,0,0,0,0,0,0,0,0,0,-1,1000,1520,0,0
-217,-496,0,0,0,0,0,0,0,0,0,-1,1007,1520,0,0
-210,-496,0,0,0,0,0,0,0,0,0,-1,1014,1520,0,0
-203,-496,0,0,0,0,0,0,0,0,0,-1,1021,1520,0,0
-196,-496,0,0,0,0,0,0,0,0,0,-1,1028,1520,0,0
-189,-496,0,0,0,0,0,0,0,0,0,-1,1035,1520,0,0
-182,-496,0,0,0,0,0,0,0,0,0,-1,1042,1520,0,0
-175,-496,0,0,0,0,0,0,0,0,0,-1,1049,1520,0,0
-168,-496,0,0,0,0,0,0,0,0,0,-1,1056,1520,0,0
-161,-496,0,0,0,0,0,0,0,0,0,-1,1063,1520,0,0
-154,-496,0,0,0,0,0,0,0,0,0,-1,1070,1520,0,0
-147,-496,0,0,0,0,0,0,0,0,0,-1,1077,1520,0,0
-140,-496,0,0,0,0,0,0,0,0,0,-1,1084,1520,0,0
-133,-496,0,0,0,0,0,0,0,0,0,-1,1091,1520,0,0
-126,-496,0,0,0,0,0,0,0,0,0,-1,1098,1520,0,0
-119,-496,0,0,0,0,0,0,0,0,0,-1,1105,1520,0,0
-112,-496,0,0,0,0,0,0,0,0,0,-1,1112,1520,0,0
-105,-496,0,0,0,0,0,0,0,0,0,-1,1119,1520,0,0
-98,-496,0,0,0,0,0,0,0,0,0,-1,1126,1520,0,0
-91,-496,0,0,0,0,0,0,0,0,0,-1,1133,1520,0,0
-84,-496,0,0,0,0,0,0,0,0,0,-1,1140,1520,0,0
-77,-496,0,0,0,0,0,0,0,0,0,-1,1147,1520,0,0
-70,-496,0,0,0,0,0,0,0,0,0,-1,1154,1520,0,0
-63,-496,0,0,0,0,0,0,0,0,0,-1,1161,1520,0,0
-56,-496,0,0,0,0,0,0,0,0,0,-1,1168,1520,0,0
-49,-496,0,0,0,0,0,0,0,0,0,-1,1175,1520,0,0
-42,-496,0,0,0,0,0,0,0,0,0,-1,1182,1520,0,0
-35,-496,0,0,0,0,0,0,0,0,0,-1,1189,1520,0,0
-28,-496,0,0,0,0,0,0,0,0,0,-1,1196,1520,0,0
-21,-496,0,0,0,0,0,0,0,0,0,-1,1203,1520,0,0
-14,-496,0,0,0,0,0,0,0,0,0,-1,1210,1520,0,0
-7,-496,0,0,0,0,0,0,0,0,0,-1,1217,1520,0,0
0,-496,0,0,0,0,0,0,0,0,0,-1,1224,1520,0,0
7,-496,0,0,0,0,0,0,0,0,0,-1,1231,1520,0,0
14,-496,0,0,0,0,0,0,0,0,0,-1,1238,1520,0,0
21,-496,0,0,0,0,0,0,0,0,0,-1,1245,1520,0,0
28,-496,0,0,0,0,0,0,0,0,0,-1,1252,1520,0,0
35,-496,0,0,0,0,0,0,0,0,0,-1,1259,1520,0,0
42,-496,0,0,0,0,0,0,0,0,0,-1,1266,1520,0,0
49,-496,0,0,0,0,0,0,0,0,0,-1,1273,1520,0,0
56,-496,0,0,0,0,0,0,0,0,0,-1,1280,1520,0,0
63,-496,0,0,0,0,0,0,0,0,0,-1,1287,1520,0,0
70,-496,0,0,0,0,0,0,0,0,0,-1,1294,1520,0,0
77,-496,0,0,0,0,0,0,0,0,0,-1,1301,1520,0,0
84,-496,0,0,0,0,0,0,0,0,0,-1,1308,1520,0,0
91,-496,0,0,0,0,0,0,0,0,0,-1,1315,1520,0,0
98,-496,0,0,0,0,0,0,0,0,0,-1,1322,1520,0,0
105,-496,0,0,0,0,0,0,0,0,0,-1,1329,1520,0,0
112,-496,0,0,0,0,0,0,0,0,0,-1,1336,1520,0,0
119,-496,0,0,0,0,0,0,0,0,0,-1,1343,1520,0,0
126,-496,0,0,0,0,0,0,0,0,0,-1,1350,1520,0,0
133,-496,0,0,0,0,0,0,0,0,0,-1,1357,1520,0,0
140,-496,0,0,0,0,0,0,0,0,0,-1,1364,1520,0,0
147,-496,0,0,0,0,0,0,0,0,0,-1,1371,1520,0,0
154,-496,0,0,0,0,0,0,0,0,0,-1,1378,1520,0,0
161,-496,0,0,0,0,0,0,0,0,0,-1,1385,1520,0,0
168,-496,0,0,0,0,0,0,0,0,0,-1,1392,1520,0,0
175,-496,0,0,0,0,0,0,0,0,0,-1,1399,1520,0,0
182,-496,0,0,0,0,0,0,0,0,0,-1,1406,1520,0,0
189,-496,0,0,0,0,0,0,0,0,0,-1,1413,1520,0,0
196,-496,0,0,0,0,0,0,0,0,0,-1,1420,1520,0,0
203,-496,0,0,0,0,0,0,0,0,0,-1,1427,1520,0,0
210,-496,0,0,0,0,0,0,0,0,0,-1,1434,1520,0,0
217,-496,0,0,0,0,0,0,0,0,0,-1,1441,1520,0,0
224,-496,0,0,0,0,0,0,0,0,0,-1,1448,1520,0,0
231,-496,0,0,0,0,0,0,0,0,0,-1,1455,1520,0,0
238,-496,0,0,0,0,0,0,0,0,0,-1,1462,1520,0,0
245,-496,0,0,0,0,0,0,0,0,0,-1,1469,1520,0,0
252,-496,0,0,0,0,0,0,0,0,0,-1,1476,1520,0,0
259,-496,0,0,0,0,0,0,0,0,0,-1,1483,1520,0,0
266,-496,0,0,0,0,0,0,0,0,0,-1,1490,1520,0,0
273,-496,0,0,0,0,0,0,0,0,0,-1,1497,1520,0,0
280,-496,0,0,0,0,0,0,0,0,0,-1,1504,1520,0,0
287,-496,0,0,0,0,0,0,0,0,0,-1,1511,1520,0,0
294,-496,0,0,0,0,0,0,0,0,0,-1,1518,1520,0,0
301,-496,0,0,0,0,0,0,0,0,0,-1,1525,1520,0,0
308,-496,0,0,0,0,0,0,0,0,0,-1,1532,1520,0,0
315,-496,0,0,0,0,0,0,0,0,0,-1,1539,1520,0,0
322,-496,0,0,0,0,0,0,0,0,0,-1,1546,1520,0,0
329,-496,0,0,0,0,0,0,0,0,0,-1,1553,1520,0,0
336,-496,0,0,0,0,0,0,0,0,0,-1,1560,1520,0,0
343,-496,0,0,0,0,0,0,0,0,0,-1,1567,1520,0,0
350,-496,0,0,0,0,0,0,0,0,0,-1,1574,1520,0,0
357,-496,0,0,0,0,0,0,0,0,0,-1,1581,1520,0,0
364,-496,0,0,0,0,0,0,0,0,0,-1,1588,1520,0,0
371,-496,0,0,0,0,0,0,0,0,0,-1,1595,1520,0,0
378,-496,0,0,0,0,0,0,0,0,0,-1,1602,1520,0,0
385,-496,0,0,0,0,0,0,0,0,0,-1,1609,1520,0,0
392,-496,0,0,0,0,0,0,0,0,0,-1,1616,1520,0,0
399,-496,0,0,0,0,0,0,0,0,0,-1,1623,1520,0,0
406,-496,0,0,0,0,0,0,0,0,0,-1,1630,1520,0,0
413,-496,0,0,0,0,0,0,0,0,0,-1,1637,1520,0,0
420,-496,0,0,0,0,0,0,0,0,0,-1,1644,1520,0,0
427,-496,0,0,0,0,0,0,0,0,0,-1,1651,1520,0,0
434,-496,11.0457,3.37732,0,0,0,0,0,0,0,-1,1658,1520,11.0456,-3.37736
441,-496,11.788,2.75488,0,0,0,0,0,0,0,-1,1665,1520,11.7879,-2.75485
448,-496,12.2146,2.18494,0,0,0,0,0,0,0,-1,1672,1520,12.2146,-2.18489
455,-496,12.3489,1.65173,0,0,0,0,0,0,0,-1,1679,1520,12.3489,-1.65178
462,-496,12.1912,1.32361,0,0,0,0,0,0,0,-1,1686,1520,12.1911,-1.32357
469,-496,14.8138,5.77954,0,0,0,0,0,0,0,-1,1693,1520,14.8138,-5.77958
476,-496,15.2449,6.27942,0,0,0,0,0,0,0,-1,1700,1520,15.2449,-6.27936
483,-496,9.19812,6.88367,0,0,0,0,0,0,0,-1,1707,1520,9.19812,-6.88361
490,-496,10.2123,7.97144,0,0,0,0,0,0,0,-1,1714,1520,10.2122,-7.97145
497,-496,13.9297,12.2981,0,0,0,0,0,0,0,-1,1721,1520,13.9297,-12.2982
504,-496,16.3271,16.6501,0,0,0,0,0,0,0,-1,1728,1520,16.3272,-16.6502
511,-496,17.6753,18.0685,0,0,0,0,0,0,0,-1,1735,1520,17.6753,-18.0685
518,-496,17.0537,17.3118,0,0,0,0,0,0,0,-1,1742,1520,17.0538,-17.3118
525,-496,18.2721,19.3259,0,0,0,0,0,0,0,-1,1749,1520,18.2721,-19.3259
532,-496,20.8579,23.686,0,0,0,0,0,0,0,-1,1756,1520,20.8579,-23.686
539,-496,21.0781,22.7924,0,0,0,0,0,0,0,-1,1763,1520,21.0781,-22.7924
546,-496,21.1945,22.1763,0.00714627,0.00575396,-0.00490418,0.0114035,0.00149677,-0.714893,0.00715576,0.0170021,1770,1520,21.1945,-22.1763
553,-496,21.2922,21.5642,0.0055542,0.00426037,-0.00354802,0.0085138,0.00130077,-0.695224,0.0052958,0.0152772,1777,1520,21.2922,-21.5642
560,-496,21.295,21.0634,0.00436095,0.00310177,-0.00255936,0.00636702,0.0010957,-0.664796,0.00393069,0.0143748,1784,1520,21.2951,-21.0634
567,-496,21.2738,20.5283,0.00356587,0.00231003,-0.00198184,0.00501688,0.000859017,-0.631983,0.0030982,0.0115108,1791,1520,21.2738,-20.5283
574,-496,21.2454,20.0096,0.00307135,0.0017978,-0.00166559,0.00421774,0.000651408,-0.602815,0.00262181,0.0117812,1798,1520,21.2454,-20.0096
581,-496,21.2319,19.5212,0.00276971,0.00137613,-0.00147342,0.0037028,0.00044305,-0.564529,0.0023349,0.0129726,1805,1520,21.2319,-19.5212
588,-496,21.2389,19.0262,0.0027178,0.00110292,-0.00143278,0.003555,0.000265728,-0.528805,0.00228657,0.0153178,1812,1520,21.2388,-19.0263
595,-496,21.215,18.5132,0.00302007,0.00091527,-0.00149961,0.00379971,0.000135625,-0.479438,0.00248917,0.0167949,1819,1520,21.2149,-18.5132
602,-496,21.2009,17.9919,0.0034593,0.000819111,-0.00165372,0.0042552,2.32125e-05,-0.448559,0.00282909,0.0180673,1826,1520,21.2009,-17.9919
609,-496,21.1938,17.4326,0.00404625,0.000692512,-0.00178576,0.00481903,-8.02765e-05,-0.408418,0.00323978,0.0167322,1833,1520,21.1939,-17.4326
616,-496,21.2545,16.7645,0.00507924,0.000401894,-0.00183619,0.00571395,-0.000232816,-0.332808,0.00388923,0.0375587,1840,1520,21.2545,-16.7646
623,-496,21.2565,16.2251,0,0,0,0,0,0,0,-1,1847,1520,21.2565,-16.2251
630,-496,18.5656,13.8966,0,0,0,0,0,0,0,-1,1854,1520,18.5655,-13.8967
637,-496,14.6411,10.1016,0,0,0,0,0,0,0,-1,1861,1520,14.6411,-10.1016
644,-496,12.4537,10.087,0,0,0,0,0,0,0,-1,1868,1520,12.4537,-10.0871
651,-496,8.18506,5.47803,0,0,0,0,0,0,0,-1,1875,1520,8.18505,-5.47806
658,-496,7.79993,4.02563,0,0,0,0,0,0,0,-1,1882,1520,7.79997,-4.02568
665,-496,5.47583,7.90625,0,0,0,0,0,0,0,-1,1889,1520,5.47581,-7.90628
672,-496,0,0,0,0,0,0,0,0,0,-1,1896,1520,0,0
679,-496,0,0,0,0,0,0,0,0,0,-1,1903,1520,0,0
686,-496,0,0,0,0,0,0,0,0,0,-1,1910,1520,0,0
693,-496,0,0,0,0,0,0,0,0,0,-1,1917,1520,0,0
700,-496,0,0,0,0,0,0,0,0,0,-1,1924,1520,0,0
707,-496,0,0,0,0,0,0,0,0,0,-1,1931,1520,0,0
714,-496,0,0,0,0,0,0,0,0,0,-1,1938,1520,0,0
721,-496,0,0,0,0,0,0,0,0,0,-1,1945,1520,0,0
728,-496,0,0,0,0,0,0,0,0,0,-1,1952,1520,0,0
735,-496,0,0,0,0,0,0,0,0,0,-1,1959,1520,0,0
742,-496,0,0,0,0,0,0,0,0,0,-1,1966,1520,0,0
749,-496,0,0,0,0,0,0,0,0,0,-1,1973,1520,0,0
756,-496,0,0,0,0,0,0,0,0,0,-1,1980,1520,0,0
763,-496,0,0,0,0,0,0,0,0,0,-1,1987,1520,0,0
770,-496,0,0,0,0,0,0,0,0,0,-1,1994,1520,0,0
777,-496,0,0,0,0,0,0,0,0,0,-1,2001,1520,0,0
784,-496,0,0,0,0,0,0,0,0,0,-1,2008,1520,0,0
791,-496,0,0,0,0,0,0,0,0,0,-1,2015,1520,0,0
798,-496,0,0,0,0,0,0,0,0,0,-1,2022,1520,0,0
805,-496,0,0,0,0,0,0,0,0,0,-1,2029,1520,0,0
812,-496,0,0,0,0,0,0,0,0,0,-1,2036,1520,0,0
-700,-503,0,0,0,0,0,0,0,0,0,-1,524,1527,0,0
-693,-503,0,0,0,0,0,0,0,0,0,-1,531,1527,0,0
-686,-503,0,0,0,0,0,0,0,0,0,-1,538,1527,0,0
-679,-503,0,0,0,0,0,0,0,0,0,-1,545,1527,0,0
-672,-503,0,0,0,0,0,0,0,0,0,-1,552,1527,0,0
-665,-503,0,0,0,0,0,0,0,0,0,-1,559,1527,0,0
-658,-503,0,0,0,0,0,0,0,0,0,-1,566,1527,0,0
-651,-503,0,0,0,0,0,0,0,0,0,-1,573,1527,0,0
-644,-503,0,0,0,0,0,0,0,0,0,-1,580,1527,0,0
-637,-503,0,0,0,0,0,0,0,0,0,-1,587,1527,0,0
-630,-503,0,0,0,0,0,0,0,0,0,-1,594,1527,0,0
-623,-503,0,0,0,0,0,0,0,0,0,-1,601,1527,0,0
-616,-503,0,0,0,0,0,0,0,0,0,-1,608,1527,0,0
-609,-503,0,0,0,0,0,0,0,0,0,-1,615,1527,0,0
-602,-503,0,0,0,0,0,0,0,0,0,-1,622,1527,0,0
-595,-503,0,0,0,0,0,0,0,0,0,-1,629,1527,0,0
-588,-503,0,0,0,0,0,0,0,0,0,-1,636,1527,0,0
-581,-503,0,0,0,0,0,0,0,0,0,-1,643,1527,0,0
-574,-503,0,0,0,0,0,0,0,0,0,-1,650,1527,0,0
-567,-503,0,0,0,0,0,0,0,0,0,-1,657,1527,0,0
-560,-503,0,0,0,0,0,0,0,0,0,-1,664,1527,0,0
-553,-503,0,0,0,0,0,0,0,0,0,-1,671,1527,0,0
-546,-503,0,0,0,0,0,0,0,0,0,-1,678,1527,0,0
-539,-503,3.50177,4.26428,0,0,0,0,0,0,0,-1,685,1527,3.50177,-4.26424
-532,-503,-3.13196,1.05298,0,0,0,0,0,0,0,-1,692,1527,-3.13194,-1.05299
-525,-503,-2.94293,2.59314,0,0,0,0,0,0,0,-1,699,1527,-2.94296,-2.59314
-518,-503,-2.7395,4.05872,0,0,0,0,0,0,0,-1,706,1527,-2.73948,-4.05871
-511,-503,-1.60022,7.23877,0,0,0,0,0,0,0,-1,713,1527,-1.60023,-7.23872
-504,-503,-8.1402,10.1541,0,0,0,0,0,0,0,-1,720,1527,-8.14017,-10.1541
-497,-503,-4.51758,14.0781,0,0,0,0,0,0,0,-1,727,1527,-4.5176,-14.0782
-490,-503,-2.95264,14.925,0,0,0,0,0,0,0,-1,734,1527,-2.95261,-14.9251
-483,-503,-4.65576,15.4761,0,0,0,0,0,0,0,-1,741,1527,-4.65576,-15.476
-476,-503,-4.61572,16.0199,-0.0112399,-0.00486085,0.00350761,-0.00330945,-0.0127913,1.15437,0.00766633,0.0270753,748,1527,-4.61574,-16.0199
-469,-503,-4.71912,16.5151,-0.00783136,-0.00363749,0.00283812,-0.00220568,-0.00926317,1.10356,0.00558728,0.0119434,755,1527,-4.71913,-16.5151
-462,-503,-4.73669,17.0779,-0.00503339,-0.00237625,0.0024638,-0.000905644,-0.006504,1.03267,0.00406786,0.012443,762,1527,-4.73669,-17.0778
-455,-503,-4.7514,17.6357,-0.00279813,-0.0012331,0.00221765,0.000336047,-0.00436727,0.955007,0.00302975,0.0183204,769,1527,-4.75142,-17.6357
-448,-503,-4.75256,18.222,-0.000961023,-0.000109803,0.00219632,0.00170176,-0.00277259,0.881104,0.00260781,0.0171237,776,1527,-4.75255,-18.222
-441,-503,-4.74774,18.7673,0.000608475,0.00105905,0.00241153,0.00325579,-0.00158826,0.831974,0.00285142,0.0139167,783,1527,-4.74772,-18.7674
-434,-503,-4.80402,19.29,0.00203506,0.00233301,0.00283659,0.00502453,-0.000656461,0.811634,0.00358858,0.0110612,790,1527,-4.804,-19.2901
-427,-503,-4.85168,19.8293,0.00320055,0.00354614,0.00346925,0.00684689,-0.000100204,0.810281,0.00459836,0.0159947,797,1527,-4.85166,-19.8294
-420,-503,-4.84277,20.4,0.00434243,0.00493821,0.00446019,0.00911045,0.000170191,0.818743,0.0060177,0.0174593,804,1527,-4.84276,-20.4
-413,-503,-4.85529,20.9409,0.00568471,0.00639026,0.00574489,0.0117932,0.000281774,0.816063,0.00776991,0.015107,811,1527,-4.8553,-20.941
-406,-503,-4.85449,21.4819,0.00721677,0.00828681,0.00730635,0.0150777,0.000425878,0.821946,0.00991289,0.024593,818,1527,-4.85451,-21.4819
-399,-503,-4.7124,22.246,0.00944653,0.0112197,0.00926096,0.0196364,0.00102982,0.83312,0.0127615,0.0409332,825,1527,-4.71239,-22.246
-392,-503,-4.37421,23.2351,0,0,0,0,0,0,0,-1,832,1527,-4.37418,-23.2351
-385,-503,-2.00403,14.1218,0,0,0,0,0,0,0,-1,839,1527,-2.00403,-14.1218
-378,-503,-2.07043,13.8632,0,0,0,0,0,0,0,-1,846,1527,-2.07043,-13.8631
-371,-503,-1.67285,13.8081,0,0,0,0,0,0,0,-1,853,1527,-1.67285,-13.8081
-364,-503,0.181396,12.3768,0,0,0,0,0,0,0,-1,860,1527,0.18138,-12.3768
-357,-503,0.558533,9.25452,0,0,0,0,0,0,0,-1,867,1527,0.558542,-9.25446
-350,-503,0.219971,6.84827,0,0,0,0,0,0,0,-1,874,1527,0.21996,-6.84831
-343,-503,-3.5802,4.43274,0,0,0,0,0,0,0,-1,881,1527,-3.58018,-4.43276
-336,-503,-3.2384,6.40637,0,0,0,0,0,0,0,-1,888,1527,-3.2384,-6.40643
-329,-503,-1.70691,11.886,0,0,0,0,0,0,0,-1,895,1527,-1.70689,-11.886
-322,-503,-3.31317,8.81519,0,0,0,0,0,0,0,-1,902,1527,-3.31315,-8.81524
-315,-503,-3.90265,7.73853,0,0,0,0,0,0,0,-1,909,1527,-3.90264,-7.73854
-308,-503,-1.70264,7.35413,0,0,0,0,0,0,0,-1,916,1527,-1.70262,-7.35416
-301,-503,0,0,0,0,0,0,0,0,0,-1,923,1527,0,0
-294,-503,0,0,0,0,0,0,0,0,0,-1,930,1527,0,0
-287,-503,0,0,0,0,0,0,0,0,0,-1,937,1527,0,0
-280,-503,0,0,0,0,0,0,0,0,0,-1,944,1527,0,0
-273,-503,0,0,0,0,0,0,0,0,0,-1,951,1527,0,0
-266,-503,0,0,0,0,0,0,0,0,0,-1,958,1527,0,0
-259,-503,0,0,0,0,0,0,0,0,0,-1,965,1527,0,0
-252,-503,0,0,0,0,0,0,0,0,0,-1,972,1527,0,0
-245,-503,0,0,0,0,0,0,0,0,0,-1,979,1527,0,0
-238,-503,0,0,0,0,0,0,0,0,0,-1,986,1527,0,0
-231,-503,0,0,0,0,0,0,0,0,0,-1,993,1527,0,0
-224,-503,0,0,0,0,0,0,0,0,0,-1,1000,1527,0,0
-217,-503,0,0,0,0,0,0,0,0,0,-1,1007,1527,0,0
-210,-503,0,0,0,0,0,0,0,0,0,-1,1014,1527,0,0
-203,-503,0,0,0,0,0,0,0,0,0,-1,1021,1527,0,0
-196,-503,0,0,0,0,0,0,0,0,0,-1,1028,1527,0,0
-189,-503,0,0,0,0,0,0,0,0,0,-1,1035,1527,0,0
-182,-503,0,0,0,0,0,0,0,0,0,-1,1042,1527,0,0
-175,-503,0,0,0,0,0,0,0,0,0,-1,1049,1527,0,0
-168,-503,0,0,0,0,0,0,0,0,0,-1,1056,1527,0,0
-161,-503,0,0,0,0,0,0,0,0,0,-1,1063,1527,0,0
-154,-503,0,0,0,0,0,0,0,0,0,-1,1070,1527,0,0
-147,-503,0,0,0,0,0,0,0,0,0,-1,1077,1527,0,0
-140,-503,0,0,0,0,0,0,0,0,0,-1,1084,1527,0,0
-133,-503,0,0,0,0,0,0,0,0,0,-1,1091,1527,0,0
-126,-503,0,0,0,0,0,0,0,0,0,-1,1098,1527,0,0
-119,-503,0,0,0,0,0,0,0,0,0,-1,1105,1527,0,0
-112,-503,0,0,0,0,0,0,0,0,0,-1,1112,1527,0,0
-105,-503,0,0,0,0,0,0,0,0,0,-1,1119,1527,0,0
-98,-503,0,0,0,0,0,0,0,0,0,-1,1126,1527,0,0
-91,-503,0,0,0,0,0,0,0,0,0,-1,1133,1527,0,0
-84,-503,0,0,0,0,0,0,0,0,0,-1,1140,1527,0,0
-77,-503,0,0,0,0,0,0,0,0,0,-1,1147,1527,0,0
-70,-503,0,0,0,0,0,0,0,0,0,-1,1154,1527,0,0
-63,-503,0,0,0,0,0,0,0,0,0,-1,1161,1527,0,0
-56,-503,0,0,0,0,0,0,0,0,0,-1,1168,1527,0,0
-49,-503,0,0,0,0,0,0,0,0,0,-1,1175,1527,0,0
-42,-503,0,0,0,0,0,0,0,0,0,-1,1182,1527,0,0
-35,-503,0,0,0,0,0,0,0,0,0,-1,1189,1527,0,0
-28,-503,0,0,0,0,0,0,0,0,0,-1,1196,1527,0,0
-21,-503,0,0,0,0,0,0,0,0,0,-1,1203,1527,0,0
-14,-503,0,0,0,0,0,0,0,0,0,-1,1210,1527,0,0
-7,-503,0,0,0,0,0,0,0,0,0,-1,1217,1527,0,0
0,-503,0,0,0,0,0,0,0,0,0,-1,1224,1527,0,0
7,-503,0,0,0,0,0,0,0,0,0,-1,1231,1527,0,0
14,-503,0,0,0,0,0,0,0,0,0,-1,1238,1527,0,0
21,-503,0,0,0,0,0,0,0,0,0,-1,1245,1527,0,0
28,-503,0,0,0,0,0,0,0,0,0,-1,1252,1527,0,0
35,-503,0,0,0,0,0,0,0,0,0,-1,1259,1527,0,0
42,-503,0,0,0,0,0,0,0,0,0,-1,1266,1527,0,0
49,-503,0,0,0,0,0,0,0,0,0,-1,1273,1527,0,0
56,-503,0,0,0,0,0,0,0,0,0,-1,1280,1527,0,0
63,-503,0,0,0,0,0,0,0,0,0,-1,1287,1527,0,0
70,-503,0,0,0,0,0,0,0,0,0,-1,1294,1527,0,0
77,-503,0,0,0,0,0,0,0,0,0,-1,1301,1527,0,0
84,-503,0,0,0,0,0,0,0,0,0,-1,1308,1527,0,0
91,-503,0,0,0,0,0,0,0,0,0,-1,1315,1527,0,0
98,-503,0,0,0,0,0,0,0,0,0,-1,1322,1527,0,0
105,-503,0,0,0,0,0,0,0,0,0,-1,1329,1527,0,0
112,-503,0,0,0,0,0,0,0,0,0,-1,1336,1527,0,0
119,-503,0,0,0,0,0,0,0,0,0,-1,1343,1527,0,0
126,-503,0,0,0,0,0,0,0,0,0,-1,1350,1527,0,0
133,-503,0,0,0,0,0,0,0,0,0,-1,1357,1527,0,0
140,-503,0,0,0,0,0,0,0,0,0,-1,1364,1527,0,0
147,-503,0,0,0,0,0,0,0,0,0,-1,1371,1527,0,0
154,-503,0,0,0,0,0,0,0,0,0,-1,1378,1527,0,0
161,-503,0,0,0,0,0,0,0,0,0,-1,1385,1527,0,0
168,-503,0,0,0,0,0,0,0,0,0,-1,1392,1527,0,0
175,-503,0,0,0,0,0,0,0,0,0,-1,1399,1527,0,0
182,-503,0,0,0,0,0,0,0,0,0,-1,1406,1527,0,0
189,-503,0,0,0,0,0,0,0,0,0,-1,1413,1527,0,0
196,-503,0,0,0,0,0,0,0,0,0,-1,1420,1527,0,0
203,-503,0,0,0,0,0,0,0,0,0,-1,1427,1527,0,0
210,-503,0,0,0,0,0,0,0,0,0,-1,1434,1527,0,0
217,-503,0,0,0,0,0,0,0,0,0,-1,1441,1527,0,0
224,-503,0,0,0,0,0,0,0,0,0,-1,1448,1527,0,0
231,-503,0,0,0,0,0,0,0,0,0,-1,1455,1527,0,0
238,-503,0,0,0,0,0,0,0,0,0,-1,1462,1527,0,0
245,-503,0,0,0,0,0,0,0,0,0,-1,1469,1527,0,0
252,-503,0,0,0,0,0,0,0,0,0,-1,1476,1527,0,0
259,-503,0,0,0,0,0,0,0,0,0,-1,1483,1527,0,0
266,-503,0,0,0,0,0,0,0,0,0,-1,1490,1527,0,0
273,-503,0,0,0,0,0,0,0,0,0,-1,1497,1527,0,0
280,-503,0,0,0,0,0,0,0,0,0,-1,1504,1527,0,0
287,-503,0,0,0,0,0,0,0,0,0,-1,1511,1527,0,0
294,-503,0,0,0,0,0,0,0,0,0,-1,1518,1527,0,0
301,-503,0,0,0,0,0,0,0,0,0,-1,1525,1527,0,0
308,-503,0,0,0,0,0,0,0,0,0,-1,1532,1527,0,0
315,-503,0,0,0,0,0,0,0,0,0,-1,1539,1527,0,0
322,-503,0,0,0,0,0,0,0,0,0,-1,1546,1527,0,0
329,-503,0,0,0,0,0,0,0,0,0,-1,1553,1527,0,0
336,-503,0,0,0,0,0,0,0,0,0,-1,1560,1527,0,0
343,-503,0,0,0,0,0,0,0,0,0,-1,1567,1527,0,0
350,-503,0,0,0,0,0,0,0,0,0,-1,1574,1527,0,0
357,-503,0,0,0,0,0,0,0,0,0,-1,1581,1527,0,0
364,-503,0,0,0,0,0,0,0,0,0,-1,1588,1527,0,0
371,-503,0,0,0,0,0,0,0,0,0,-1,1595,1527,0,0
378,-503,0,0,0,0,0,0,0,0,0,-1,1602,1527,0,0
385,-503,0,0,0,0,0,0,0,0,0,-1,1609,1527,0,0
392,-503,0,0,0,0,0,0,0,0,0,-1,1616,1527,0,0
399,-503,0,0,0,0,0,0,0,0,0,-1,1623,1527,0,0
406,-503,0,0,0,0,0,0,0,0,0,-1,1630,1527,0,0
413,-503,0,0,0,0,0,0,0,0,0,-1,1637,1527,0,0
420,-503,0,0,0,0,0,0,0,0,0,-1,1644,1527,0,0
427,-503,10.5968,4.9856,0,0,0,0,0,0,0,-1,1651,1527,10.5969,-4.98563
434,-503,11.4329,3.97217,0,0,0,0,0,0,0,-1,1658,1527,11.4328,-3.97222
441,-503,12.0957,2.96509,0,0,0,0,0,0,0,-1,1665,1527,12.0957,-2.96512
448,-503,12.3259,2.53894,0,0,0,0,0,0,0,-1,1672,1527,12.326,-2.53895
455,-503,12.1669,2.18762,0,0,0,0,0,0,0,-1,1679,1527,12.1668,-2.18767
462,-503,11.59,2.60791,0,0,0,0,0,0,0,-1,1686,1527,11.5899,-2.60794
469,-503,11.1625,1.61853,0,0,0,0,0,0,0,-1,1693,1527,11.1625,-1.61856
476,-503,9.07703,5.81042,0,0,0,0,0,0,0,-1,1700,1527,9.07699,-5.81047
483,-503,9.74414,6.92432,0,0,0,0,0,0,0,-1,1707,1527,9.74417,-6.9243
490,-503,10.5033,10.1071,0,0,0,0,0,0,0,-1,1714,1527,10.5032,-10.107
497,-503,15.0057,17.9476,0,0,0,0,0,0,0,-1,1721,1527,15.0058,-17.9476
504,-503,16.4764,18.4486,0,0,0,0,0,0,0,-1,1728,1527,16.4764,-18.4486
511,-503,16.8276,18.3271,0,0,0,0,0,0,0,-1,1735,1527,16.8276,-18.3272
518,-503,17.2533,18.2738,0,0,0,0,0,0,0,-1,1742,1527,17.2533,-18.2738
525,-503,19.9128,24.0593,0,0,0,0,0,0,0,-1,1749,1527,19.9129,-24.0594
532,-503,20.5699,23.3367,0.00997985,0.00870149,-0.00762182,0.0169892,0.00169209,-0.743565,0.0108064,0.043409,1756,1527,20.5699,-23.3367
539,-503,20.7087,22.6829,0.00771373,0.00653915,-0.00566326,0.0128201,0.00143281,-0.733732,0.0081114,0.021387,1763,1527,20.7087,-22.6828
546,-503,20.7562,22.0936,0.00597828,0.00484726,-0.00411508,0.00956653,0.00125901,-0.717114,0.00600219,0.0137168,1770,1527,20.7562,-22.0937
553,-503,20.7869,21.592,0.00462831,0.00352417,-0.00292748,0.00705532,0.00109716,-0.692201,0.00438383,0.0144843,1777,1527,20.7869,-21.592
560,-503,20.7561,21.0812,0.00365762,0.00248851,-0.00206598,0.00522016,0.000925979,-0.647531,0.00321619,0.013771,1784,1527,20.7561,-21.0812
567,-503,20.762,20.5359,0.00308465,0.00185082,-0.00162606,0.00420689,0.00072858,-0.604092,0.00259604,0.0121005,1791,1527,20.762,-20.5359
574,-503,20.7428,20.0178,0.00279006,0.00147839,-0.0014248,0.00370272,0.000565735,-0.569704,0.00230318,0.0123162,1798,1527,20.7428,-20.0178
581,-503,20.7029,19.5272,0.00270924,0.00121672,-0.00137782,0.00352992,0.000396044,-0.537205,0.002233,0.0131732,1805,1527,20.7029,-19.5272
588,-503,20.6993,19.0425,0.0029123,0.00118569,-0.00155405,0.00382674,0.000271255,-0.531863,0.00246572,0.0165077,1812,1527,20.6993,-19.0425
595,-503,20.6978,18.509,0.00345035,0.00125608,-0.00184503,0.0044998,0.000206627,-0.517163,0.00293342,0.0127031,1819,1527,20.6978,-18.509
602,-503,20.7518,17.9321,0.00414033,0.00149148,-0.00224938,0.00542623,0.000205573,-0.519328,0.00355095,0.0261787,1826,1527,20.7518,-17.9322
609,-503,20.7346,17.4025,0,0,0,0,0,0,0,-1,1833,1527,20.7346,-17.4024
616,-503,20.822,16.8124,0,0,0,0,0,0,0,-1,1840,1527,20.822,-16.8124
623,-503,18.7351,15.5999,0,0,0,0,0,0,0,-1,1847,1527,18.7351,-15.5999
630,-503,20.6721,13.9077,0,0,0,0,0,0,0,-1,1854,1527,20.6721,-13.9077
637,-503,14.5564,9.20496,0,0,0,0,0,0,0,-1,1861,1527,14.5564,-9.2049
644,-503,11.4802,7.57214,0,0,0,0,0,0,0,-1,1868,1527,11.4802,-7.57215
651,-503,11.5718,6.5448,0,0,0,0,0,0,0,-1,1875,1527,11.5718,-6.54476
658,-503,8.25635,3.10498,0,0,0,0,0,0,0,-1,1882,1527,8.2563,-3.10493
665,-503,0,0,0,0,0,0,0,0,0,-1,1889,1527,0,0
672,-503,0,0,0,0,0,0,0,0,0,-1,1896,1527,0,0
679,-503,0,0,0,0,0,0,0,0,0,-1,1903,1527,0,0
686,-503,0,0,0,0,0,0,0,0,0,-1,1910,1527,0,0
693,-503,0,0,0,0,0,0,0,0,0,-1,1917,1527,0,0
700,-503,0,0,0,0,0,0,0,0,0,-1,1924,1527,0,0
707,-503,0,0,0,0,0,0,0,0,0,-1,1931,1527,0,0
714,-503,0,0,0,0,0,0,0,0,0,-1,1938,1527,0,0
721,-503,0,0,0,0,0,0,0,0,0,-1,1945,1527,0,0
728,-503,0,0,0,0,0,0,0,0,0,-1,1952,1527,0,0
735,-503,0,0,0,0,0,0,0,0,0,-1,1959,1527,0,0
742,-503,0,0,0,0,0,0,0,0,0,-1,1966,1527,0,0
749,-503,0,0,0,0,0,0,0,0,0,-1,1973,1527,0,0
756,-503,0,0,0,0,0,0,0,0,0,-1,1980,1527,0,0
763,-503,0,0,0,0,0,0,0,0,0,-1,1987,1527,0,0
770,-503,0,0,0,0,0,0,0,0,0,-1,1994,1527,0,0
777,-503,0,0,0,0,0,0,0,0,0,-1,2001,1527,0,0
784,-503,0,0,0,0,0,0,0,0,0,-1,2008,1527,0,0
791,-503,0,0,0,0,0,0,0,0,0,-1,2015,1527,0,0
798,-503,0,0,0,0,0,0,0,0,0,-1,2022,1527,0,0
805,-503,0,0,0,0,0,0,0,0,0,-1,2029,1527,0,0
812,-503,0,0,0,0,0,0,0,0,0,-1,2036,1527,0,0
-700,-510,0,0,0,0,0,0,0,0,0,-1,524,1534,0,0
-693,-510,0,0,0,0,0,0,0,0,0,-1,531,1534,0,0
-686,-510,0,0,0,0,0,0,0,0,0,-1,538,1534,0,0
-679,-510,0,0,0,0,0,0,0,0,0,-1,545,1534,0,0
-672,-510,0,0,0,0,0,0,0,0,0,-1,552,1534,0,0
-665,-510,0,0,0,0,0,0,0,0,0,-1,559,1534,0,0
-658,-510,0,0,0,0,0,0,0,0,0,-1,566,1534,0,0
-651,-510,0,0,0,0,0,0,0,0,0,-1,573,1534,0,0
-644,-510,0,0,0,0,0,0,0,0,0,-1,580,1534,0,0
-637,-510,0,0,0,0,0,0,0,0,0,-1,587,1534,0,0
-630,-510,0,0,0,0,0,0,0,0,0,-1,594,1534,0,0
-623,-510,0,0,0,0,0,0,0,0,0,-1,601,1534,0,0
-616,-510,0,0,0,0,0,0,0,0,0,-1,608,1534,0,0
-609,-510,0,0,0,0,0,0,0,0,0,-1,615,1534,0,0
-602,-510,0,0,0,0,0,0,0,0,0,-1,622,1534,0,0
-595,-510,0,0,0,0,0,0,0,0,0,-1,629,1534,0,0
-588,-510,0,0,0,0,0,0,0,0,0,-1,636,1534,0,0
-581,-510,0,0,0,0,0,0,0,0,0,-1,643,1534,0,0
-574,-510,0,0,0,0,0,0,0,0,0,-1,650,1534,0,0
-567,-510,0,0,0,0,0,0,0,0,0,-1,657,1534,0,0
-560,-510,0,0,0,0,0,0,0,0,0,-1,664,1534,0,0
-553,-510,0,0,0,0,0,0,0,0,0,-1,671,1534,0,0
-546,-510,0,0,0,0,0,0,0,0,0,-1,678,1534,0,0
-539,-510,0,0,0,0,0,0,0,0,0,-1,685,1534,0,0
-532,-510,-3.95129,4.52014,0,0,0,0,0,0,0,-1,692,1534,-3.95131,-4.5202
-525,-510,-2.77411,0.316772,0,0,0,0,0,0,0,-1,699,1534,-2.77409,-0.3168
-518,-510,-2.86847,2.71423,0,0,0,0,0,0,0,-1,706,1534,-2.86849,-2.71424
-511,-510,-2.28571,4.48083,0,0,0,0,0,0,0,-1,713,1534,-2.28571,-4.48086
-504,-510,-4.86731,10.8224,0,0,0,0,0,0,0,-1,720,1534,-4.8673,-10.8224
-497,-510,-2.30475,14.6791,0,0,0,0,0,0,0,-1,727,1534,-2.30473,-14.6791
-490,-510,-2.88348,14.9192,-0.0255642,-0.00897713,0.00819505,-0.00561128,-0.0289301,1.18108,0.0177151,0.0470051,734,1534,-2.88348,-14.9192
-483,-510,-3.51129,15.5333,-0.018647,-0.00720661,0.00665308,-0.00415274,-0.0217008,1.14047,0.0133009,0.0444803,741,1534,-3.51131,-15.5333
-476,-510,-3.87561,15.972,-0.0133029,-0.00553881,0.00535417,-0.00280744,-0.0160343,1.09907,0.0098875,0.0382117,748,1534,-3.87563,-15.9721
-469,-510,-4.15247,16.5483,-0.00915898,-0.00407913,0.00435949,-0.00157362,-0.0116645,1.04917,0.00730847,0.0156149,755,1534,-4.15244,-16.5484
-462,-510,-4.18597,17.1008,-0.00591711,-0.00266305,0.00370837,-0.000240483,-0.00833967,0.992126,0.00548138,0.0121698,762,1534,-4.18595,-17.1008
-455,-510,-4.20947,17.6736,-0.00342229,-0.00144166,0.00319572,0.000913674,-0.00577762,0.93565,0.00418965,0.014039,769,1534,-4.20946,-17.6736
-448,-510,-4.18616,18.2483,-0.00151258,-0.000367618,0.00286057,0.00197719,-0.00385739,0.884158,0.0034264,0.0126179,776,1534,-4.18613,-18.2482
-441,-510,-4.20404,18.7769,1.32379e-05,0.000677745,0.00275478,0.00312023,-0.00242925,0.845413,0.00321226,0.0140435,783,1534,-4.20402,-18.7768
-434,-510,-4.29034,19.2882,0.00142252,0.00178554,0.00281302,0.0044229,-0.00121484,0.817616,0.0034261,0.0144655,790,1534,-4.29035,-19.2882
-427,-510,-4.32227,19.8174,0.00249387,0.00275331,0.00312208,0.00574836,-0.000501183,0.806161,0.00400976,0.0210961,797,1534,-4.3223,-19.8174
-420,-510,-4.30237,20.4082,0.00347102,0.00393114,0.00371764,0.00742583,-2.36786e-05,0.8163,0.00495847,0.0213753,804,1534,-4.3024,-20.4082
-413,-510,-4.31049,20.9618,0.00454739,0.00517119,0.00460277,0.00947261,0.000245961,0.819228,0.00623471,0.0111751,811,1534,-4.31047,-20.9618
-406,-510,-4.3421,21.4835,0.00573305,0.00673377,0.00577867,0.0120337,0.000433117,0.828584,0.00788206,0.0107547,818,1534,-4.34211,-21.4835
-399,-510,-4.36206,22.0229,0.00746313,0.00914572,0.00717108,0.0155247,0.00108416,0.84379,0.010008,0.0150358,825,1534,-4.36203,-22.0229
-392,-510,-4.18213,22.7998,0.00968197,0.0129721,0.00939589,0.0208659,0.00178823,0.872063,0.0133545,0.044262,832,1534,-4.18214,-22.7998
-385,-510,-4.02893,23.6757,0,0,0,0,0,0,0,-1,839,1534,-4.02891,-23.6757
-378,-510,-1.78308,13.8044,0,0,0,0,0,0,0,-1,846,1534,-1.78309,-13.8044
-371,-510,-1.74982,13.8027,0,0,0,0,0,0,0,-1,853,1534,-1.74981,-13.8028
-364,-510,-1.3479,13.7771,0,0,0,0,0,0,0,-1,860,1534,-1.34791,-13.7771
-357,-510,-0.254395,8.89575,0,0,0,0,0,0,0,-1,867,1534,-0.254397,-8.89569
-350,-510,0.471191,6.06458,0,0,0,0,0,0,0,-1,874,1534,0.47118,-6.06453
-343,-510,-6.96869,26.3074,0,0,0,0,0,0,0,-1,881,1534,-6.9687,-26.3074
-336,-510,-5.76508,28.7972,0,0,0,0,0,0,0,-1,888,1534,-5.76506,-28.7972
-329,-510,-4.87781,20.6893,0,0,0,0,0,0,0,-1,895,1534,-4.87782,-20.6894
-322,-510,-0.251526,11.973,0,0,0,0,0,0,0,-1,902,1534,-0.251497,-11.9731
-315,-510,-1.73047,10.9796,0,0,0,0,0,0,0,-1,909,1534,-1.73049,-10.9796
-308,-510,-2.05328,9.72034,0,0,0,0,0,0,0,-1,916,1534,-2.05327,-9.72036
-301,-510,-1.85437,11.5869,0,0,0,0,0,0,0,-1,923,1534,-1.85437,-11.5869
-294,-510,0,0,0,0,0,0,0,0,0,-1,930,1534,0,0
-287,-510,0,0,0,0,0,0,0,0,0,-1,937,1534,0,0
-280,-510,0,0,0,0,0,0,0,0,0,-1,944,1534,0,0
-273,-510,0,0,0,0,0,0,0,0,0,-1,951,1534,0,0
-266,-510,0,0,0,0,0,0,0,0,0,-1,958,1534,0,0
-259,-510,0,0,0,0,0,0,0,0,0,-1,965,1534,0,0
-252,-510,0,0,0,0,0,0,0,0,0,-1,972,1534,0,0
-245,-510,0,0,0,0,0,0,0,0,0,-1,979,1534,0,0
-238,-510,0,0,0,0,0,0,0,0,0,-1,986,1534,0,0
-231,-510,0,0,0,0,0,0,0,0,0,-1,993,1534,0,0
-224,-510,0,0,0,0,0,0,0,0,0,-1,1000,1534,0,0
-217,-510,0,0,0,0,0,0,0,0,0,-1,1007,1534,0,0
-210,-510,0,0,0,0,0,0,0,0,0,-1,1014,1534,0,0
-203,-510,0,0,0,0,0,0,0,0,0,-1,1021,1534,0,0
-196,-510,0,0,0,0,0,0,0,0,0,-1,1028,1534,0,0
-189,-510,0,0,0,0,0,0,0,0,0,-1,1035,1534,0,0
-182,-510,0,0,0,0,0,0,0,0,0,-1,1042,1534,0,0
-175,-510,0,0,0,0,0,0,0,0,0,-1,1049,1534,0,0
-168,-510,0,0,0,0,0,0,0,0,0,-1,1056,1534,0,0
-161,-510,0,0,0,0,0,0,0,0,0,-1,1063,1534,0,0
-154,-510,0,0,0,0,0,0,0,0,0,-1,1070,1534,0,0
-147,-510,0,0,0,0,0,0,0,0,0,-1,1077,1534,0,0
-140,-510,0,0,0,0,0,0,0,0,0,-1,1084,1534,0,0
-133,-510,0,0,0,0,0,0,0,0,0,-1,1091,1534,0,0
-126,-510,0,0,0,0,0,0,0,0,0,-1,1098,1534,0,0
-119,-510,0,0,0,0,0,0,0,0,0,-1,1105,1534,0,0
-112,-510,0,0,0,0,0,0,0,0,0,-1,1112,1534,0,0
-105,-510,0,0,0,0,0,0,0,0,0,-1,1119,1534,0,0
-98,-510,0,0,0,0,0,0,0,0,0,-1,1126,1534,0,0
-91,-510,0,0,0,0,0,0,0,0,0,-1,1133,1534,0,0
-84,-510,0,0,0,0,0,0,0,0,0,-1,1140,1534,0,0
-77,-510,0,0,0,0,0,0,0,0,0,-1,1147,1534,0,0
-70,-510,0,0,0,0,0,0,0,0,0,-1,1154,1534,0,0
-63,-510,0,0,0,0,0,0,0,0,0,-1,1161,1534,0,0
-56,-510,0,0,0,0,0,0,0,0,0,-1,1168,1534,0,0
-49,-510,0,0,0,0,0,0,0,0,0,-1,1175,1534,0,0
-42,-510,0,0,0,0,0,0,0,0,0,-1,1182,1534,0,0
-35,-510,0,0,0,0,0,0,0,0,0,-1,1189,1534,0,0
-28,-510,0,0,0,0,0,0,0,0,0,-1,1196,1534,0,0
-21,-510,0,0,0,0,0,0,0,0,0,-1,1203,1534,0,0
-14,-510,0,0,0,0,0,0,0,0,0,-1,1210,1534,0,0
-7,-510,0,0,0,0,0,0,0,0,0,-1,1217,1534,0,0
0,-510,0,0,0,0,0,0,0,0,0,-1,1224,1534,0,0
7,-510,0,0,0,0,0,0,0,0,0,-1,1231,1534,0,0
14,-510,0,0,0,0,0,0,0,0,0,-1,1238,1534,0,0
21,-510,0,0,0,0,0,0,0,0,0,-1,1245,1534,0,0
28,-510,0,0,0,0,0,0,0,0,0,-1,1252,1534,0,0
35,-510,0,0,0,0,0,0,0,0,0,-1,1259,1534,0,0
42,-510,0,0,0,0,0,0,0,0,0,-1,1266,1534,0,0
49,-510,0,0,0,0,0,0,0,0,0,-1,1273,1534,0,0
56,-510,0,0,0,0,0,0,0,0,0,-1,1280,1534,0,0
63,-510,0,0,0,0,0,0,0,0,0,-1,1287,1534,0,0
70,-510,0,0,0,0,0,0,0,0,0,-1,1294,1534,0,0
77,-510,0,0,0,0,0,0,0,0,0,-1,1301,1534,0,0
84,-510,0,0,0,0,0,0,0,0,0,-1,1308,1534,0,0
91,-510,0,0,0,0,0,0,0,0,0,-1,1315,1534,0,0
98,-510,0,0,0,0,0,0,0,0,0,-1,1322,1534,0,0
105,-510,0,0,0,0,0,0,0,0,0,-1,1329,1534,0,0
112,-510,0,0,0,0,0,0,0,0,0,-1,1336,1534,0,0
119,-510,0,0,0,0,0,0,0,0,0,-1,1343,1534,0,0
126,-510,0,0,0,0,0,0,0,0,0,-1,1350,1534,0,0
133,-510,0,0,0,0,0,0,0,0,0,-1,1357,1534,0,0
140,-510,0,0,0,0,0,0,0,0,0,-1,1364,1534,0,0
147,-510,0,0,0,0,0,0,0,0,0,-1,1371,1534,0,0
154,-510,0,0,0,0,0,0,0,0,0,-1,1378,1534,0,0
161,-510,0,0,0,0,0,0,0,0,0,-1,1385,1534,0,0
168,-510,0,0,0,0,0,0,0,0,0,-1,1392,1534,0,0
175,-510,0,0,0,0,0,0,0,0,0,-1,1399,1534,0,0
182,-510,0,0,0,0,0,0,0,0,0,-1,1406,1534,0,0
189,-510,0,0,0,0,0,0,0,0,0,-1,1413,1534,0,0
196,-510,0,0,0,0,0,0,0,0,0,-1,1420,1534,0,0
203,-510,0,0,0,0,0,0,0,0,0,-1,1427,1534,0,0
210,-510,0,0,0,0,0,0,0,0,0,-1,1434,1534,0,0
217,-510,0,0,0,0,0,0,0,0,0,-1,1441,1534,0,0
224,-510,0,0,0,0,0,0,0,0,0,-1,1448,1534,0,0
231,-510,0,0,0,0,0,0,0,0,0,-1,1455,1534,0,0
238,-510,0,0,0,0,0,0,0,0,0,-1,1462,1534,0,0
245,-510,0,0,0,0,0,0,0,0,0,-1,1469,1534,0,0
252,-510,0,0,0,0,0,0,0,0,0,-1,1476,1534,0,0
259,-510,0,0,0,0,0,0,0,0,0,-1,1483,1534,0,0
266,-510,0,0,0,0,0,0,0,0,0,-1,1490,1534,0,0
273,-510,0,0,0,0,0,0,0,0,0,-1,1497,1534,0,0
280,-510,0,0,0,0,0,0,0,0,0,-1,1504,1534,0,0
287,-510,0,0,0,0,0,0,0,0,0,-1,1511,1534,0,0
294,-510,0,0,0,0,0,0,0,0,0,-1,1518,1534,0,0
301,-510,0,0,0,0,0,0,0,0,0,-1,1525,1534,0,0
308,-510,0,0,0,0,0,0,0,0,0,-1,1532,1534,0,0
315,-510,0,0,0,0,0,0,0,0,0,-1,1539,1534,0,0
322,-510,0,0,0,0,0,0,0,0,0,-1,1546,1534,0,0
329,-510,0,0,0,0,0,0,0,0,0,-1,1553,1534,0,0
336,-510,0,0,0,0,0,0,0,0,0,-1,1560,1534,0,0
343,-510,0,0,0,0,0,0,0,0,0,-1,1567,1534,0,0
350,-510,0,0,0,0,0,0,0,0,0,-1,1574,1534,0,0
357,-510,0,0,0,0,0,0,0,0,0,-1,1581,1534,0,0
364,-510,0,0,0,0,0,0,0,0,0,-1,1588,1534,0,0
371,-510,0,0,0,0,0,0,0,0,0,-1,1595,1534,0,0
378,-510,0,0,0,0,0,0,0,0,0,-1,1602,1534,0,0
385,-510,0,0,0,0,0,0,0,0,0,-1,1609,1534,0,0
392,-510,0,0,0,0,0,0,0,0,0,-1,1616,1534,0,0
399,-510,0,0,0,0,0,0,0,0,0,-1,1623,1534,0,0
406,-510,0,0,0,0,0,0,0,0,0,-1,1630,1534,0,0
413,-510,0,0,0,0,0,0,0,0,0,-1,1637,1534,0,0
420,-510,14.1888,6.71936,0,0,0,0,0,0,0,-1,1644,1534,14.1889,-6.71939
427,-510,10.2134,5.59485,0,0,0,0,0,0,0,-1,1651,1534,10.2134,-5.59485
434,-510,11.8219,4.07898,0,0,0,0,0,0,0,-1,1658,1534,11.8219,-4.07895
441,-510,12.6812,3.02991,0,0,0,0,0,0,0,-1,1665,1534,12.6811,-3.0299
448,-510,13.2379,2.2804,0,0,0,0,0,0,0,-1,1672,1534,13.2379,-2.28037
455,-510,9.76892,2.20642,0,0,0,0,0,0,0,-1,1679,1534,9.76894,-2.20647
462,-510,9.84692,2.49182,0,0,0,0,0,0,0,-1,1686,1534,9.84695,-2.49185
469,-510,16.6072,7.26941,0,0,0,0,0,0,0,-1,1693,1534,16.6072,-7.26945
476,-510,15.9199,7.8645,0,0,0,0,0,0,0,-1,1700,1534,15.9199,-7.86455
483,-510,13.0833,8.10938,0,0,0,0,0,0,0,-1,1707,1534,13.0833,-8.10932
490,-510,13.0841,15.3286,0,0,0,0,0,0,0,-1,1714,1534,13.0841,-15.3286
497,-510,15.5652,18.823,0,0,0,0,0,0,0,-1,1721,1534,15.5652,-18.823
504,-510,15.998,18.7478,0,0,0,0,0,0,0,-1,1728,1534,15.998,-18.7478
511,-510,15.9443,18.0476,0,0,0,0,0,0,0,-1,1735,1534,15.9443,-18.0476
518,-510,19.9081,24.4524,0,0,0,0,0,0,0,-1,1742,1534,19.9081,-24.4524
525,-510,20.0027,23.8737,0,0,0,0,0,0,0,-1,1749,1534,20.0027,-23.8736
532,-510,20.2449,23.1688,0.00817833,0.00727153,-0.00632533,0.0140665,0.00138337,-0.749619,0.00895224,0.0242993,1756,1534,20.2449,-23.1689
539,-510,20.3022,22.5752,0.00636891,0.00547194,-0.00471602,0.0106577,0.00118313,-0.737992,0.00674545,0.0134992,1763,1534,20.3023,-22.5751
546,-510,20.2682,22.1207,0.00496184,0.00401734,-0.00341495,0.00793704,0.00104214,-0.716689,0.00498046,0.0128213,1770,1534,20.2682,-22.1208
553,-510,20.2664,21.6093,0.00384644,0.00284547,-0.00237279,0.00577095,0.000920956,-0.681458,0.00358002,0.0137091,1777,1534,20.2663,-21.6093
560,-510,20.2434,21.0579,0.00308803,0.00192414,-0.00161666,0.00422429,0.000787876,-0.612636,0.00259377,0.0140001,1784,1534,20.2434,-21.0579
567,-510,20.2366,20.5374,0.00271115,0.00141836,-0.00128053,0.00349919,0.000630329,-0.551663,0.00215365,0.0135987,1791,1534,20.2366,-20.5373
574,-510,20.2267,20.0441,0.00259005,0.00116803,-0.00116642,0.00324508,0.000512999,-0.511685,0.00201428,0.014249,1798,1534,20.2267,-20.044
581,-510,20.1797,19.5721,0.00271924,0.00106024,-0.00124672,0.0033872,0.000392281,-0.491854,0.00213939,0.0121506,1805,1534,20.1797,-19.5722
588,-510,20.1683,19.0695,0.00317906,0.00128738,-0.00163279,0.00412018,0.000346256,-0.522877,0.00263895,0.0128752,1812,1534,20.1683,-19.0695
595,-510,20.3098,18.3979,0.00393613,0.00164804,-0.00213598,0.00521515,0.000369016,-0.539536,0.00336052,0.0233413,1819,1534,20.3098,-18.398
602,-510,20.3713,17.7263,0,0,0,0,0,0,0,-1,1826,1534,20.3713,-17.7263
609,-510,20.1014,17.7726,0,0,0,0,0,0,0,-1,1833,1534,20.1014,-17.7726
616,-510,18.7024,16.2474,0,0,0,0,0,0,0,-1,1840,1534,18.7024,-16.2474
623,-510,19.6013,14.6211,0,0,0,0,0,0,0,-1,1847,1534,19.6013,-14.6211
630,-510,13.7461,9.30334,0,0,0,0,0,0,0,-1,1854,1534,13.7461,-9.30335
637,-510,11.0155,7.38464,0,0,0,0,0,0,0,-1,1861,1534,11.0155,-7.38463
644,-510,11.5809,7.17126,0,0,0,0,0,0,0,-1,1868,1534,11.5809,-7.17123
651,-510,8.70471,3.5061,0,0,0,0,0,0,0,-1,1875,1534,8.70475,-3.50611
658,-510,0,0,0,0,0,0,0,0,0,-1,1882,1534,0,0
665,-510,0,0,0,0,0,0,0,0,0,-1,1889,1534,0,0
672,-510,0,0,0,0,0,0,0,0,0,-1,1896,1534,0,0
679,-510,0,0,0,0,0,0,0,0,0,-1,1903,1534,0,0
686,-510,0,0,0,0,0,0,0,0,0,-1,1910,1534,0,0
693,-510,0,0,0,0,0,0,0,0,0,-1,1917,1534,0,0
700,-510,0,0,0,0,0,0,0,0,0,-1,1924,1534,0,0
707,-510,0,0,0,0,0,0,0,0,0,-1,1931,1534,0,0
714,-510,0,0,0,0,0,0,0,0,0,-1,1938,1534,0,0
721,-510,0,0,0,0,0,0,0,0,0,-1,1945,1534,0,0
728,-510,0,0,0,0,0,0,0,0,0,-1,1952,1534,0,0
735,-510,0,0,0,0,0,0,0,0,0,-1,1959,1534,0,0
742,-510,0,0,0,0,0,0,0,0,0,-1,1966,1534,0,0
749,-510,0,0,0,0,0,0,0,0,0,-1,1973,1534,0,0
756,-510,0,0,0,0,0,0,0,0,0,-1,1980,1534,0,0
763,-510,0,0,0,0,0,0,0,0,0,-1,1987,1534,0,0
770,-510,0,0,0,0,0,0,0,0,0,-1,1994,1534,0,0
777,-510,0,0,0,0,0,0,0,0,0,-1,2001,1534,0,0
784,-510,0,0,0,0,0,0,0,0,0,-1,2008,1534,0,0
791,-510,0,0,0,0,0,0,0,0,0,-1,2015,1534,0,0
798,-510,0,0,0,0,0,0,0,0,0,-1,2022,1534,0,0
805,-510,0,0,0,0,0,0,0,0,0,-1,2029,1534,0,0
812,-510,0,0,0,0,0,0,0,0,0,-1,2036,1534,0,0
-700,-517,0,0,0,0,0,0,0,0,0,-1,524,1541,0,0
-693,-517,0,0,0,0,0,0,0,0,0,-1,531,1541,0,0
-686,-517,0,0,0,0,0,0,0,0,0,-1,538,1541,0,0
-679,-517,0,0,0,0,0,0,0,0,0,-1,545,1541,0,0
-672,-517,0,0,0,0,0,0,0,0,0,-1,552,1541,0,0
-665,-517,0,0,0,0,0,0,0,0,0,-1,559,1541,0,0
-658,-517,0,0,0,0,0,0,0,0,0,-1,566,1541,0,0
-651,-517,0,0,0,0,0,0,0,0,0,-1,573,1541,0,0
-644,-517,0,0,0,0,0,0,0,0,0,-1,580,1541,0,0
-637,-517,0,0,0,0,0,0,0,0,0,-1,587,1541,0,0
-630,-517,0,0,0,0,0,0,0,0,0,-1,594,1541,0,0
-623,-517,0,0,0,0,0,0,0,0,0,-1,601,1541,0,0
-616,-517,0,0,0,0,0,0,0,0,0,-1,608,1541,0,0
-609,-517,0,0,0,0,0,0,0,0,0,-1,615,1541,0,0
-602,-517,0,0,0,0,0,0,0,0,0,-1,622,1541,0,0
-595,-517,0,0,0,0,0,0,0,0,0,-1,629,1541,0,0
-588,-517,0,0,0,0,0,0,0,0,0,-1,636,1541,0,0
-581,-517,0,0,0,0,0,0,0,0,0,-1,643,1541,0,0
-574,-517,0,0,0,0,0,0,0,0,0,-1,650,1541,0,0
-567,-517,0,0,0,0,0,0,0,0,0,-1,657,1541,0,0
-560,-517,0,0,0,0,0,0,0,0,0,-1,664,1541,0,0
-553,-517,0,0,0,0,0,0,0,0,0,-1,671,1541,0,0
-546,-517,0,0,0,0,0,0,0,0,0,-1,678,1541,0,0
-539,-517,0,0,0,0,0,0,0,0,0,-1,685,1541,0,0
-532,-517,0,0,0,0,0,0,0,0,0,-1,692,1541,0,0
-525,-517,-3.62903,4.3606,0,0,0,0,0,0,0,-1,699,1541,-3.62904,-4.36056
-518,-517,-1.664,2.27209,0,0,0,0,0,0,0,-1,706,1541,-1.66399,-2.27207
-511,-517,-0.999146,5.52063,0,0,0,0,0,0,0,-1,713,1541,-0.999126,-5.52059
-504,-517,-1.06946,8.67432,0,0,0,0,0,0,0,-1,720,1541,-1.06947,-8.6743
-497,-517,-2.65582,14.3612,0,0,0,0,0,0,0,-1,727,1541,-2.6558,-14.3611
-490,-517,-2.76215,14.995,-0.029816,-0.0100226,0.0120655,-0.00431414,-0.0355245,1.12888,0.0223839,0.0442164,734,1541,-2.76215,-14.995
-483,-517,-3.00677,15.4563,-0.0210747,-0.00769282,0.00994099,-0.00240077,-0.0263667,1.08161,0.0168347,0.0419545,741,1541,-3.0068,-15.4563
-476,-517,-3.29736,15.9989,-0.0145873,-0.00562354,0.00813269,-0.000819514,-0.0193913,1.03724,0.0126632,0.0447377,748,1541,-3.29737,-15.9989
-469,-517,-3.54633,16.5848,-0.00977273,-0.00394824,0.00667809,0.000424981,-0.014146,0.991011,0.00957544,0.0204718,755,1541,-3.5463,-16.5849
-462,-517,-3.65021,17.1095,-0.00618122,-0.00242338,0.00563342,0.0016362,-0.0102408,0.946362,0.00743287,0.0191568,762,1541,-3.65023,-17.1095
-455,-517,-3.65686,17.6914,-0.00354454,-0.00118385,0.00474662,0.00252698,-0.00725537,0.907262,0.00586364,0.0140937,769,1541,-3.65689,-17.6914
-448,-517,-3.65894,18.2614,-0.00164757,-0.000223523,0.00400677,0.003134,-0.0050051,0.873333,0.00474032,0.0126581,776,1541,-3.65895,-18.2614
-441,-517,-3.70282,18.803,-0.00024003,0.000632659,0.00350427,0.00372765,-0.00333502,0.847338,0.00407973,0.0117108,783,1541,-3.70285,-18.803
-434,-517,-3.72644,19.3402,0.00108145,0.00151495,0.00314506,0.00445072,-0.00185432,0.819803,0.00374169,0.0143784,790,1541,-3.72643,-19.3403
-427,-517,-3.75824,19.8647,0.0020037,0.00220735,0.00310005,0.00520725,-0.000996196,0.801816,0.0038468,0.0136332,797,1541,-3.75823,-19.8647
-420,-517,-3.7973,20.4503,0.0027825,0.00315417,0.00328645,0.00626003,-0.000323358,0.813641,0.00428521,0.0209505,804,1541,-3.79728,-20.4504
-413,-517,-3.77655,20.9723,0.00359017,0.00417068,0.00378167,0.00767322,8.76347e-05,0.8237,0.00508652,0.0115117,811,1541,-3.77657,-20.9723
-406,-517,-3.79901,21.5114,0.00446243,0.0054061,0.00459254,0.00955098,0.000317549,0.836588,0.00626416,0.0113485,818,1541,-3.79904,-21.5114
-399,-517,-3.823,22.0527,0.00573234,0.00729466,0.00548745,0.0120563,0.000970726,0.8561,0.00773427,0.0112623,825,1541,-3.823,-22.0527
-392,-517,-3.81879,22.6063,0.00741877,0.010358,0.0070656,0.0161052,0.00167157,0.887934,0.0102253,0.0164974,832,1541,-3.81876,-22.6063
-385,-517,-3.71497,23.446,0.00903201,0.0130139,0.00889011,0.0201333,0.00191264,0.895557,0.0128322,0.0391067,839,1541,-3.71499,-23.446
-378,-517,-3.56995,24.4253,0,0,0,0,0,0,0,-1,846,1541,-3.56994,-24.4253
-371,-517,-1.37585,13.2646,0,0,0,0,0,0,0,-1,853,1541,-1.37586,-13.2647
-364,-517,-1.26245,12.6289,0,0,0,0,0,0,0,-1,860,1541,-1.26243,-12.6289
-357,-517,-1.23889,12.979,0,0,0,0,0,0,0,-1,867,1541,-1.23891,-12.979
-350,-517,-5.40198,23.8954,0,0,0,0,0,0,0,-1,874,1541,-5.40196,-23.8954
-343,-517,-5.68799,28.3315,0,0,0,0,0,0,0,-1,881,1541,-5.68797,-28.3315
-336,-517,-4.8252,28.7935,0,0,0,0,0,0,0,-1,888,1541,-4.82519,-28.7934
-329,-517,-3.9624,29.2552,0,0,0,0,0,0,0,-1,895,1541,-3.96241,-29.2553
-322,-517,-4.21246,19.5819,0,0,0,0,0,0,0,-1,902,1541,-4.21244,-19.5819
-315,-517,-0.987976,7.29749,0,0,0,0,0,0,0,-1,909,1541,-0.987993,-7.29743
-308,-517,3.27911,17.621,0,0,0,0,0,0,0,-1,916,1541,3.27913,-17.621
-301,-517,-1.69141,8.87488,0,0,0,0,0,0,0,-1,923,1541,-1.69141,-8.87485
-294,-517,-1.72583,9.92566,0,0,0,0,0,0,0,-1,930,1541,-1.72584,-9.92571
-287,-517,-3.09045,12.1472,0,0,0,0,0,0,0,-1,937,1541,-3.09043,-12.1472
-280,-517,0,0,0,0,0,0,0,0,0,-1,944,1541,0,0
-273,-517,0,0,0,0,0,0,0,0,0,-1,951,1541,0,0
-266,-517,0,0,0,0,0,0,0,0,0,-1,958,1541,0,0
-259,-517,0,0,0,0,0,0,0,0,0,-1,965,1541,0,0
-252,-517,0,0,0,0,0,0,0,0,0,-1,972,1541,0,0
-245,-517,0,0,0,0,0,0,0,0,0,-1,979,1541,0,0
-238,-517,0,0,0,0,0,0,0,0,0,-1,986,1541,0,0
-231,-517,0,0,0,0,0,0,0,0,0,-1,993,1541,0,0
-224,-517,0,0,0,0,0,0,0,0,0,-1,1000,1541,0,0
-217,-517,0,0,0,0,0,0,0,0,0,-1,1007,1541,0,0
-210,-517,0,0,0,0,0,0,0,0,0,-1,1014,1541,0,0
-203,-517,0,0,0,0,0,0,0,0,0,-1,1021,1541,0,0
-196,-517,0,0,0,0,0,0,0,0,0,-1,1028,1541,0,0
-189,-517,0,0,0,0,0,0,0,0,0,-1,1035,1541,0,0
-182,-517,0,0,0,0,0,0,0,0,0,-1,1042,1541,0,0
-175,-517,0,0,0,0,0,0,0,0,0,-1,1049,1541,0,0
-168,-517,0,0,0,0,0,0,0,0,0,-1,1056,1541,0,0
-161,-517,0,0,0,0,0,0,0,0,0,-1,1063,1541,0,0
-154,-517,0,0,0,0,0,0,0,0,0,-1,1070,1541,0,0
-147,-517,0,0,0,0,0,0,0,0,0,-1,1077,1541,0,0
-140,-517,0,0,0,0,0,0,0,0,0,-1,1084,1541,0,0
-133,-517,0,0,0,0,0,0,0,0,0,-1,1091,1541,0,0
-126,-517,0,0,0,0,0,0,0,0,0,-1,1098,1541,0,0
-119,-517,0,0,0,0,0,0,0,0,0,-1,1105,1541,0,0
-112,-517,0,0,0,0,0,0,0,0,0,-1,1112,1541,0,0
-105,-517,0,0,0,0,0,0,0,0,0,-1,1119,1541,0,0
-98,-517,0,0,0,0,0,0,0,0,0,-1,1126,1541,0,0
-91,-517,0,0,0,0,0,0,0,0,0,-1,1133,1541,0,0
-84,-517,0,0,0,0,0,0,0,0,0,-1,1140,1541,0,0
-77,-517,0,0,0,0,0,0,0,0,0,-1,1147,1541,0,0
-70,-517,0,0,0,0,0,0,0,0,0,-1,1154,1541,0,0
-63,-517,0,0,0,0,0,0,0,0,0,-1,1161,1541,0,0
-56,-517,0,0,0,0,0,0,0,0,0,-1,1168,1541,0,0
-49,-517,0,0,0,0,0,0,0,0,0,-1,1175,1541,0,0
-42,-517,0,0,0,0,0,0,0,0,0,-1,1182,1541,0,0
-35,-517,0,0,0,0,0,0,0,0,0,-1,1189,1541,0,0
-28,-517,0,0,0,0,0,0,0,0,0,-1,1196,1541,0,0
-21,-517,0,0,0,0,0,0,0,0,0,-1,1203,1541,0,0
-14,-517,0,0,0,0,0,0,0,0,0,-1,1210,1541,0,0
-7,-517,0,0,0,0,0,0,0,0,0,-1,1217,1541,0,0
0,-517,0,0,0,0,0,0,0,0,0,-1,1224,1541,0,0
7,-517,0,0,0,0,0,0,0,0,0,-1,1231,1541,0,0
14,-517,0,0,0,0,0,0,0,0,0,-1,1238,1541,0,0
21,-517,0,0,0,0,0,0,0,0,0,-1,1245,1541,0,0
28,-517,0,0,0,0,0,0,0,0,0,-1,1252,1541,0,0
35,-517,0,0,0,0,0,0,0,0,0,-1,1259,1541,0,0
42,-517,0,0,0,0,0,0,0,0,0,-1,1266,1541,0,0
49,-517,0,0,0,0,0,0,0,0,0,-1,1273,1541,0,0
56,-517,0,0,0,0,0,0,0,0,0,-1,1280,1541,0,0
63,-517,0,0,0,0,0,0,0,0,0,-1,1287,1541,0,0
70,-517,0,0,0,0,0,0,0,0,0,-1,1294,1541,0,0
77,-517,0,0,0,0,0,0,0,0,0,-1,1301,1541,0,0
84,-517,0,0,0,0,0,0,0,0,0,-1,1308,1541,0,0
91,-517,0,0,0,0,0,0,0,0,0,-1,1315,1541,0,0
98,-517,0,0,0,0,0,0,0,0,0,-1,1322,1541,0,0
105,-517,0,0,0,0,0,0,0,0,0,-1,1329,1541,0,0
112,-517,0,0,0,0,0,0,0,0,0,-1,1336,1541,0,0
119,-517,0,0,0,0,0,0,0,0,0,-1,1343,1541,0,0
126,-517,0,0,0,0,0,0,0,0,0,-1,1350,1541,0,0
133,-517,0,0,0,0,0,0,0,0,0,-1,1357,1541,0,0
140,-517,0,0,0,0,0,0,0,0,0,-1,1364,1541,0,0
147,-517,0,0,0,0,0,0,0,0,0,-1,1371,1541,0,0
154,-517,0,0,0,0,0,0,0,0,0,-1,1378,1541,0,0
161,-517,0,0,0,0,0,0,0,0,0,-1,1385,1541,0,0
168,-517,0,0,0,0,0,0,0,0,0,-1,1392,1541,0,0
175,-517,0,0,0,0,0,0,0,0,0,-1,1399,1541,0,0
182,-517,0,0,0,0,0,0,0,0,0,-1,1406,1541,0,0
189,-517,0,0,0,0,0,0,0,0,0,-1,1413,1541,0,0
196,-517,0,0,0,0,0,0,0,0,0,-1,1420,1541,0,0
203,-517,0,0,0,0,0,0,0,0,0,-1,1427,1541,0,0
210,-517,0,0,0,0,0,0,0,0,0,-1,1434,1541,0,0
217,-517,0,0,0,0,0,0,0,0,0,-1,1441,1541,0,0
224,-517,0,0,0,0,0,0,0,0,0,-1,1448,1541,0,0
231,-517,0,0,0,0,0,0,0,0,0,-1,1455,1541,0,0
238,-517,0,0,0,0,0,0,0,0,0,-1,1462,1541,0,0
245,-517,0,0,0,0,0,0,0,0,0,-1,1469,1541,0,0
252,-517,0,0,0,0,0,0,0,0,0,-1,1476,1541,0,0
259,-517,0,0,0,0,0,0,0,0,0,-1,1483,1541,0,0
266,-517,0,0,0,0,0,0,0,0,0,-1,1490,1541,0,0
273,-517,0,0,0,0,0,0,0,0,0,-1,1497,1541,0,0
280,-517,0,0,0,0,0,0,0,0,0,-1,1504,1541,0,0
287,-517,0,0,0,0,0,0,0,0,0,-1,1511,1541,0,0
294,-517,0,0,0,0,0,0,0,0,0,-1,1518,1541,0,0
301,-517,0,0,0,0,0,0,0,0,0,-1,1525,1541,0,0
308,-517,0,0,0,0,0,0,0,0,0,-1,1532,1541,0,0
315,-517,0,0,0,0,0,0,0,0,0,-1,1539,1541,0,0
322,-517,0,0,0,0,0,0,0,0,0,-1,1546,1541,0,0
329,-517,0,0,0,0,0,0,0,0,0,-1,1553,1541,0,0
336,-517,0,0,0,0,0,0,0,0,0,-1,1560,1541,0,0
343,-517,0,0,0,0,0,0,0,0,0,-1,1567,1541,0,0
350,-517,0,0,0,0,0,0,0,0,0,-1,1574,1541,0,0
357,-517,0,0,0,0,0,0,0,0,0,-1,1581,1541,0,0
364,-517,0,0,0,0,0,0,0,0,0,-1,1588,1541,0,0
371,-517,0,0,0,0,0,0,0,0,0,-1,1595,1541,0,0
378,-517,0,0,0,0,0,0,0,0,0,-1,1602,1541,0,0
385,-517,0,0,0,0,0,0,0,0,0,-1,1609,1541,0,0
392,-517,0,0,0,0,0,0,0,0,0,-1,1616,1541,0,0
399,-517,0,0,0,0,0,0,0,0,0,-1,1623,1541,0,0
406,-517,13.1395,7.01978,0,0,0,0,0,0,0,-1,1630,1541,13.1396,-7.01981
413,-517,12.8859,6.31592,0,0,0,0,0,0,0,-1,1637,1541,12.8858,-6.31588
420,-517,12.4789,6.20337,0,0,0,0,0,0,0,-1,1644,1541,12.4789,-6.20333
427,-517,11.647,4.66516,0,0,0,0,0,0,0,-1,1651,1541,11.647,-4.66519
434,-517,12.3719,3.92773,0,0,0,0,0,0,0,-1,1658,1541,12.3719,-3.92776
441,-517,13.146,3.14124,0,0,0,0,0,0,0,-1,1665,1541,13.146,-3.14121
448,-517,13.8861,2.36682,0,0,0,0,0,0,0,-1,1672,1541,13.8861,-2.36684
455,-517,13.6012,4.06335,0,0,0,0,0,0,0,-1,1679,1541,13.6012,-4.06335
462,-517,14.8956,7.0752,0,0,0,0,0,0,0,-1,1686,1541,14.8956,-7.07525
469,-517,13.6292,6.87744,0,0,0,0,0,0,0,-1,1693,1541,13.6292,-6.87739
476,-517,17.1632,14.1487,0,0,0,0,0,0,0,-1,1700,1541,17.1632,-14.1487
483,-517,16.5157,15.0776,0,0,0,0,0,0,0,-1,1707,1541,16.5157,-15.0777
490,-517,15.5439,18.0258,0,0,0,0,0,0,0,-1,1714,1541,15.5439,-18.0258
497,-517,16.0292,18.7786,0,0,0,0,0,0,0,-1,1721,1541,16.0291,-18.7786
504,-517,17.3815,22.3873,0,0,0,0,0,0,0,-1,1728,1541,17.3814,-22.3873
511,-517,16.9674,21.8491,0,0,0,0,0,0,0,-1,1735,1541,16.9674,-21.8491
518,-517,19.4615,24.2148,0,0,0,0,0,0,0,-1,1742,1541,19.4615,-24.2148
525,-517,19.6547,23.6787,0.00872867,0.00791163,-0.00696095,0.0152931,0.00134722,-0.756088,0.0097773,0.0243984,1749,1541,19.6547,-23.6788
532,-517,19.8022,23.0743,0.00674301,0.00613042,-0.0053118,0.0117573,0.00111609,-0.756598,0.00749395,0.0129283,1756,1541,19.8022,-23.0744
539,-517,19.8163,22.576,0.00520754,0.00457785,-0.00391201,0.00881736,0.000968032,-0.745243,0.0055836,0.0129937,1763,1541,19.8163,-22.576
546,-517,19.8016,22.1104,0.00396023,0.00325623,-0.00272301,0.0063539,0.000862563,-0.72112,0.0039797,0.0128982,1770,1541,19.8016,-22.1103
553,-517,19.7683,21.6041,0.00294303,0.00214651,-0.00171346,0.0043039,0.000785634,-0.671209,0.00264655,0.0169844,1777,1541,19.7683,-21.6041
560,-517,19.77,21.095,0.0022806,0.00126537,-0.000963301,0.00286185,0.000684123,-0.542909,0.00172567,0.017036,1784,1541,19.77,-21.0949
567,-517,19.7504,20.5901,0.00199752,0.000798946,-0.000625318,0.00226436,0.000532111,-0.403325,0.00136717,0.0140902,1791,1541,19.7504,-20.5901
574,-517,19.7244,20.0724,0.00198042,0.000581586,-0.000511555,0.00214753,0.000414475,-0.315745,0.00131548,0.0156354,1798,1541,19.7244,-20.0724
581,-517,19.6848,19.5612,0.00229196,0.000547639,-0.000659899,0.00251348,0.000326122,-0.323864,0.00157822,0.0170309,1805,1541,19.6849,-19.5612
588,-517,19.6644,19.0685,0.00302364,0.000970228,-0.00122133,0.00359248,0.000401385,-0.43588,0.00227303,0.017671,1812,1541,19.6644,-19.0685
595,-517,19.9468,18.281,0,0,0,0,0,0,0,-1,1819,1541,19.9467,-18.281
602,-517,15.8027,13.5498,0,0,0,0,0,0,0,-1,1826,1541,15.8027,-13.5498
609,-517,12.6417,10.8751,0,0,0,0,0,0,0,-1,1833,1541,12.6417,-10.8751
616,-517,14.205,10.3193,0,0,0,0,0,0,0,-1,1840,1541,14.205,-10.3194
623,-517,12.578,10.0779,0,0,0,0,0,0,0,-1,1847,1541,12.578,-10.0779
630,-517,11.7035,7.47815,0,0,0,0,0,0,0,-1,1854,1541,11.7035,-7.47812
637,-517,11.5172,5.79822,0,0,0,0,0,0,0,-1,1861,1541,11.5173,-5.79825
644,-517,11.4232,3.30579,0,0,0,0,0,0,0,-1,1868,1541,11.4232,-3.30574
651,-517,0,0,0,0,0,0,0,0,0,-1,1875,1541,0,0
658,-517,0,0,0,0,0,0,0,0,0,-1,1882,1541,0,0
665,-517,0,0,0,0,0,0,0,0,0,-1,1889,1541,0,0
672,-517,0,0,0,0,0,0,0,0,0,-1,1896,1541,0,0
679,-517,0,0,0,0,0,0,0,0,0,-1,1903,1541,0,0
686,-517,0,0,0,0,0,0,0,0,0,-1,1910,1541,0,0
693,-517,0,0,0,0,0,0,0,0,0,-1,1917,1541,0,0
700,-517,0,0,0,0,0,0,0,0,0,-1,1924,1541,0,0
707,-517,0,0,0,0,0,0,0,0,0,-1,1931,1541,0,0
714,-517,0,0,0,0,0,0,0,0,0,-1,1938,1541,0,0
721,-517,0,0,0,0,0,0,0,0,0,-1,1945,1541,0,0
728,-517,0,0,0,0,0,0,0,0,0,-1,1952,1541,0,0
735,-517,0,0,0,0,0,0,0,0,0,-1,1959,1541,0,0
742,-517,0,0,0,0,0,0,0,0,0,-1,1966,1541,0,0
749,-517,0,0,0,0,0,0,0,0,0,-1,1973,1541,0,0
756,-517,0,0,0,0,0,0,0,0,0,-1,1980,1541,0,0
763,-517,0,0,0,0,0,0,0,0,0,-1,1987,1541,0,0
770,-517,0,0,0,0,0,0,0,0,0,-1,1994,1541,0,0
777,-517,0,0,0,0,0,0,0,0,0,-1,2001,1541,0,0
784,-517,0,0,0,0,0,0,0,0,0,-1,2008,1541,0,0
791,-517,0,0,0,0,0,0,0,0,0,-1,2015,1541,0,0
798,-517,0,0,0,0,0,0,0,0,0,-1,2022,1541,0,0
805,-517,0,0,0,0,0,0,0,0,0,-1,2029,1541,0,0
812,-517,0,0,0,0,0,0,0,0,0,-1,2036,1541,0,0
-700,-524,0,0,0,0,0,0,0,0,0,-1,524,1548,0,0
-693,-524,0,0,0,0,0,0,0,0,0,-1,531,1548,0,0
-686,-524,0,0,0,0,0,0,0,0,0,-1,538,1548,0,0
-679,-524,0,0,0,0,0,0,0,0,0,-1,545,1548,0,0
-672,-524,0,0,0,0,0,0,0,0,0,-1,552,1548,0,0
-665,-524,0,0,0,0,0,0,0,0,0,-1,559,1548,0,0
-658,-524,0,0,0,0,0,0,0,0,0,-1,566,1548,0,0
-651,-524,0,0,0,0,0,0,0,0,0,-1,573,1548,0,0
-644,-524,0,0,0,0,0,0,0,0,0,-1,580,1548,0,0
-637,-524,0,0,0,0,0,0,0,0,0,-1,587,1548,0,0
-630,-524,0,0,0,0,0,0,0,0,0,-1,594,1548,0,0
-623,-524,0,0,0,0,0,0,0,0,0,-1,601,1548,0,0
-616,-524,0,0,0,0,0,0,0,0,0,-1,608,1548,0,0
-609,-524,0,0,0,0,0,0,0,0,0,-1,615,1548,0,0
-602,-524,0,0,0,0,0,0,0,0,0,-1,622,1548,0,0
-595,-524,0,0,0,0,0,0,0,0,0,-1,629,1548,0,0
-588,-524,0,0,0,0,0,0,0,0,0,-1,636,1548,0,0
-581,-524,0,0,0,0,0,0,0,0,0,-1,643,1548,0,0
-574,-524,0,0,0,0,0,0,0,0,0,-1,650,1548,0,0
-567,-524,0,0,0,0,0,0,0,0,0,-1,657,1548,0,0
-560,-524,0,0,0,0,0,0,0,0,0,-1,664,1548,0,0
-553,-524,0,0,0,0,0,0,0,0,0,-1,671,1548,0,0
-546,-524,0,0,0,0,0,0,0,0,0,-1,678,1548,0,0
-539,-524,0,0,0,0,0,0,0,0,0,-1,685,1548,0,0
-532,-524,0,0,0,0,0,0,0,0,0,-1,692,1548,0,0
-525,-524,-0.215515,3.97131,0,0,0,0,0,0,0,-1,699,1548,-0.215501,-3.97136
-518,-524,-0.806274,4.35632,0,0,0,0,0,0,0,-1,706,1548,-0.806259,-4.35633
-511,-524,-1.08301,4.29004,0,0,0,0,0,0,0,-1,713,1548,-1.08301,-4.29006
-504,-524,-1.28821,3.98145,0,0,0,0,0,0,0,-1,720,1548,-1.28822,-3.98151
-497,-524,-0.328491,8.63416,0,0,0,0,0,0,0,-1,727,1548,-0.328487,-8.63411
-490,-524,-2.71765,15.0487,0,0,0,0,0,0,0,-1,734,1548,-2.71764,-15.0487
-483,-524,-2.85876,15.6807,0,0,0,0,0,0,0,-1,741,1548,-2.85874,-15.6807
-476,-524,-3.19879,16.2911,-0.0147434,-0.00474986,0.0120823,0.00332812,-0.0228214,0.98147,0.0164363,0.0455346,748,1548,-3.19877,-16.2912
-469,-524,-3.20117,17.0326,-0.00938341,-0.00289923,0.0100198,0.00438991,-0.0166726,0.941867,0.0128312,0.0374081,755,1548,-3.2012,-17.0326
-462,-524,-2.98914,17.3123,-0.00558294,-0.00134192,0.00845749,0.00525685,-0.0121817,0.908229,0.0103294,0.0307301,762,1548,-2.98912,-17.3123
-455,-524,-3.14264,17.7385,-0.00295485,-0.000172243,0.00707904,0.00565092,-0.00877802,0.882431,0.00839551,0.0244976,769,1548,-3.14265,-17.7385
-448,-524,-3.12329,18.2777,-0.00121822,0.000556441,0.00581189,0.00554835,-0.00621013,0.861151,0.00679234,0.013667,776,1548,-3.12327,-18.2777
-441,-524,-3.15741,18.8273,-3.5526e-05,0.00110853,0.00480888,0.00537929,-0.00430628,0.844596,0.00560339,0.0109491,783,1548,-3.15739,-18.8272
-434,-524,-3.14337,19.3773,0.00110846,0.0016682,0.00395988,0.00535809,-0.00258142,0.820677,0.00467638,0.0127737,790,1548,-3.14337,-19.3773
-427,-524,-3.16553,19.9205,0.00181938,0.00202975,0.00350504,0.00543118,-0.00158206,0.800398,0.00424751,0.013241,797,1548,-3.16553,-19.9205
-420,-524,-3.22559,20.4619,0.00236569,0.00270157,0.00324693,0.0057849,-0.000717637,0.811236,0.00411672,0.0114165,804,1548,-3.22559,-20.4619
-413,-524,-3.22308,21.009,0.00290289,0.0034609,0.00333737,0.00653091,-0.000167114,0.827101,0.0044107,0.0108134,811,1548,-3.2231,-21.0091
-406,-524,-3.25018,21.5498,0.00349571,0.00436074,0.00378106,0.00773394,0.000122507,0.842346,0.00511561,0.0118164,818,1548,-3.25021,-21.5498
-399,-524,-3.28351,22.0719,0.0043636,0.00574379,0.00423585,0.00934539,0.000761998,0.866148,0.00599243,0.0100743,825,1548,-3.28349,-22.0718
-392,-524,-3.29456,22.5824,0.00561448,0.0080944,0.00524682,0.0122458,0.0014631,0.901432,0.0077225,0.0098849,832,1548,-3.29454,-22.5823
-385,-524,-3.3205,23.1525,0.0068626,0.0101836,0.00646162,0.0151947,0.00185154,0.911167,0.00957248,0.0151322,839,1548,-3.32047,-23.1525
-378,-524,-3.30731,23.7722,0,0,0,0,0,0,0,-1,846,1548,-3.30729,-23.7722
-371,-524,-2.88684,24.7405,0,0,0,0,0,0,0,-1,853,1548,-2.88686,-24.7405
-364,-524,-0.712097,14.9871,0,0,0,0,0,0,0,-1,860,1548,-0.712116,-14.9871
-357,-524,-1.34052,14.7448,0,0,0,0,0,0,0,-1,867,1548,-1.34054,-14.7447
-350,-524,-4.31909,25.032,0,0,0,0,0,0,0,-1,874,1548,-4.31906,-25.0319
-343,-524,-4.42603,28.282,0,0,0,0,0,0,0,-1,881,1548,-4.42604,-28.2819
-336,-524,-3.70892,28.6487,0,0,0,0,0,0,0,-1,888,1548,-3.70894,-28.6487
-329,-524,-2.99182,29.0154,0,0,0,0,0,0,0,-1,895,1548,-2.99184,-29.0154
-322,-524,-4.31378,25.6389,0,0,0,0,0,0,0,-1,902,1548,-4.31379,-25.639
-315,-524,-1.90839,19.4824,0,0,0,0,0,0,0,-1,909,1548,-1.90838,-19.4824
-308,-524,-2.36938,19.3059,0,0,0,0,0,0,0,-1,916,1548,-2.3694,-19.3058
-301,-524,2.72394,17.7618,0,0,0,0,0,0,0,-1,923,1548,2.72396,-17.7619
-294,-524,-1.52515,9.05408,0,0,0,0,0,0,0,-1,930,1548,-1.52512,-9.05411
-287,-524,-0.962219,10.3199,0,0,0,0,0,0,0,-1,937,1548,-0.962241,-10.32
-280,-524,-1.36255,10.3859,0,0,0,0,0,0,0,-1,944,1548,-1.36253,-10.3859
-273,-524,0,0,0,0,0,0,0,0,0,-1,951,1548,0,0
-266,-524,0,0,0,0,0,0,0,0,0,-1,958,1548,0,0
-259,-524,0,0,0,0,0,0,0,0,0,-1,965,1548,0,0
-252,-524,0,0,0,0,0,0,0,0,0,-1,972,1548,0,0
-245,-524,0,0,0,0,0,0,0,0,0,-1,979,1548,0,0
-238,-524,0,0,0,0,0,0,0,0,0,-1,986,1548,0,0
-231,-524,0,0,0,0,0,0,0,0,0,-1,993,1548,0,0
-224,-524,0,0,0,0,0,0,0,0,0,-1,1000,1548,0,0
-217,-524,0,0,0,0,0,0,0,0,0,-1,1007,1548,0,0
-210,-524,0,0,0,0,0,0,0,0,0,-1,1014,1548,0,0
-203,-524,0,0,0,0,0,0,0,0,0,-1,1021,1548,0,0
-196,-524,0,0,0,0,0,0,0,0,0,-1,1028,1548,0,0
-189,-524,0,0,0,0,0,0,0,0,0,-1,1035,1548,0,0
-182,-524,0,0,0,0,0,0,0,0,0,-1,1042,1548,0,0
-175,-524,0,0,0,0,0,0,0,0,0,-1,1049,1548,0,0
-168,-524,0,0,0,0,0,0,0,0,0,-1,1056,1548,0,0
-161,-524,0,0,0,0,0,0,0,0,0,-1,1063,1548,0,0
-154,-524,0,0,0,0,0,0,0,0,0,-1,1070,1548,0,0
-147,-524,0,0,0,0,0,0,0,0,0,-1,1077,1548,0,0
-140,-524,0,0,0,0,0,0,0,0,0,-1,1084,1548,0,0
-133,-524,0,0,0,0,0,0,0,0,0,-1,1091,1548,0,0
-126,-524,0,0,0,0,0,0,0,0,0,-1,1098,1548,0,0
-119,-524,0,0,0,0,0,0,0,0,0,-1,1105,1548,0,0
-112,-524,0,0,0,0,0,0,0,0,0,-1,1112,1548,0,0
-105,-524,0,0,0,0,0,0,0,0,0,-1,1119,1548,0,0
-98,-524,0,0,0,0,0,0,0,0,0,-1,1126,1548,0,0
-91,-524,0,0,0,0,0,0,0,0,0,-1,1133,1548,0,0
-84,-524,0,0,0,0,0,0,0,0,0,-1,1140,1548,0,0
-77,-524,0,0,0,0,0,0,0,0,0,-1,1147,1548,0,0
-70,-524,0,0,0,0,0,0,0,0,0,-1,1154,1548,0,0
-63,-524,0,0,0,0,0,0,0,0,0,-1,1161,1548,0,0
-56,-524,0,0,0,0,0,0,0,0,0,-1,1168,1548,0,0
-49,-524,0,0,0,0,0,0,0,0,0,-1,1175,1548,0,0
-42,-524,0,0,0,0,0,0,0,0,0,-1,1182,1548,0,0
-35,-524,0,0,0,0,0,0,0,0,0,-1,1189,1548,0,0
-28,-524,0,0,0,0,0,0,0,0,0,-1,1196,1548,0,0
-21,-524,0,0,0,0,0,0,0,0,0,-1,1203,1548,0,0
-14,-524,0,0,0,0,0,0,0,0,0,-1,1210,1548,0,0
-7,-524,0,0,0,0,0,0,0,0,0,-1,1217,1548,0,0
0,-524,0,0,0,0,0,0,0,0,0,-1,1224,1548,0,0
7,-524,0,0,0,0,0,0,0,0,0,-1,1231,1548,0,0
14,-524,0,0,0,0,0,0,0,0,0,-1,1238,1548,0,0
21,-524,0,0,0,0,0,0,0,0,0,-1,1245,1548,0,0
28,-524,0,0,0,0,0,0,0,0,0,-1,1252,1548,0,0
35,-524,0,0,0,0,0,0,0,0,0,-1,1259,1548,0,0
42,-524,0,0,0,0,0,0,0,0,0,-1,1266,1548,0,0
49,-524,0,0,0,0,0,0,0,0,0,-1,1273,1548,0,0
56,-524,0,0,0,0,0,0,0,0,0,-1,1280,1548,0,0
63,-524,0,0,0,0,0,0,0,0,0,-1,1287,1548,0,0
70,-524,0,0,0,0,0,0,0,0,0,-1,1294,1548,0,0
77,-524,0,0,0,0,0,0,0,0,0,-1,1301,1548,0,0
84,-524,0,0,0,0,0,0,0,0,0,-1,1308,1548,0,0
91,-524,0,0,0,0,0,0,0,0,0,-1,1315,1548,0,0
98,-524,0,0,0,0,0,0,0,0,0,-1,1322,1548,0,0
105,-524,0,0,0,0,0,0,0,0,0,-1,1329,1548,0,0
112,-524,0,0,0,0,0,0,0,0,0,-1,1336,1548,0,0
119,-524,0,0,0,0,0,0,0,0,0,-1,1343,1548,0,0
126,-524,0,0,0,0,0,0,0,0,0,-1,1350,1548,0,0
133,-524,0,0,0,0,0,0,0,0,0,-1,1357,1548,0,0
140,-524,0,0,0,0,0,0,0,0,0,-1,1364,1548,0,0
147,-524,0,0,0,0,0,0,0,0,0,-1,1371,1548,0,0
154,-524,0,0,0,0,0,0,0,0,0,-1,1378,1548,0,0
161,-524,0,0,0,0,0,0,0,0,0,-1,1385,1548,0,0
168,-524,0,0,0,0,0,0,0,0,0,-1,1392,1548,0,0
175,-524,0,0,0,0,0,0,0,0,0,-1,1399,1548,0,0
182,-524,0,0,0,0,0,0,0,0,0,-1,1406,1548,0,0
189,-524,0,0,0,0,0,0,0,0,0,-1,1413,1548,0,0
196,-524,0,0,0,0,0,0,0,0,0,-1,1420,1548,0,0
203,-524,0,0,0,0,0,0,0,0,0,-1,1427,1548,0,0
210,-524,0,0,0,0,0,0,0,0,0,-1,1434,1548,0,0
217,-524,0,0,0,0,0,0,0,0,0,-1,1441,1548,0,0
224,-524,0,0,0,0,0,0,0,0,0,-1,1448,1548,0,0
231,-524,0,0,0,0,0,0,0,0,0,-1,1455,1548,0,0
238,-524,0,0,0,0,0,0,0,0,0,-1,1462,1548,0,0
245,-524,0,0,0,0,0,0,0,0,0,-1,1469,1548,0,0
252,-524,0,0,0,0,0,0,0,0,0,-1,1476,1548,0,0
259,-524,0,0,0,0,0,0,0,0,0,-1,1483,1548,0,0
266,-524,0,0,0,0,0,0,0,0,0,-1,1490,1548,0,0
273,-524,0,0,0,0,0,0,0,0,0,-1,1497,1548,0,0
280,-524,0,0,0,0,0,0,0,0,0,-1,1504,1548,0,0
287,-524,0,0,0,0,0,0,0,0,0,-1,1511,1548,0,0
294,-524,0,0,0,0,0,0,0,0,0,-1,1518,1548,0,0
301,-524,0,0,0,0,0,0,0,0,0,-1,1525,1548,0,0
308,-524,0,0,0,0,0,0,0,0,0,-1,1532,1548,0,0
315,-524,0,0,0,0,0,0,0,0,0,-1,1539,1548,0,0
322,-524,0,0,0,0,0,0,0,0,0,-1,1546,1548,0,0
329,-524,0,0,0,0,0,0,0,0,0,-1,1553,1548,0,0
336,-524,0,0,0,0,0,0,0,0,0,-1,1560,1548,0,0
343,-524,0,0,0,0,0,0,0,0,0,-1,1567,1548,0,0
350,-524,0,0,0,0,0,0,0,0,0,-1,1574,1548,0,0
357,-524,0,0,0,0,0,0,0,0,0,-1,1581,1548,0,0
364,-524,0,0,0,0,0,0,0,0,0,-1,1588,1548,0,0
371,-524,0,0,0,0,0,0,0,0,0,-1,1595,1548,0,0
378,-524,0,0,0,0,0,0,0,0,0,-1,1602,1548,0,0
385,-524,0,0,0,0,0,0,0,0,0,-1,1609,1548,0,0
392,-524,0,0,0,0,0,0,0,0,0,-1,1616,1548,0,0
399,-524,8.81848,5.05774,0,0,0,0,0,0,0,-1,1623,1548,8.81843,-5.05769
406,-524,8.64294,6.06799,0,0,0,0,0,0,0,-1,1630,1548,8.6429,-6.06805
413,-524,11.677,6.41858,0,0,0,0,0,0,0,-1,1637,1548,11.677,-6.41864
420,-524,11.4913,6.36401,0,0,0,0,0,0,0,-1,1644,1548,11.4913,-6.36402
427,-524,7.68335,6.17249,0,0,0,0,0,0,0,-1,1651,1548,7.68341,-6.17245
434,-524,10.432,11.6801,0,0,0,0,0,0,0,-1,1658,1548,10.432,-11.68
441,-524,8.78552,4.12305,0,0,0,0,0,0,0,-1,1665,1548,8.78553,-4.12301
448,-524,14.1854,4.78674,0,0,0,0,0,0,0,-1,1672,1548,14.1854,-4.78674
455,-524,12.4784,3.65576,0,0,0,0,0,0,0,-1,1679,1548,12.4784,-3.65572
462,-524,14.7551,9.29395,0,0,0,0,0,0,0,-1,1686,1548,14.7552,-9.29397
469,-524,16.3314,14.3779,0,0,0,0,0,0,0,-1,1693,1548,16.3314,-14.3779
476,-524,15.9106,15.1875,0,0,0,0,0,0,0,-1,1700,1548,15.9107,-15.1876
483,-524,15.2776,16.2268,0,0,0,0,0,0,0,-1,1707,1548,15.2776,-16.2269
490,-524,15.2563,18.5848,0,0,0,0,0,0,0,-1,1714,1548,15.2564,-18.5848
497,-524,17.5173,22.6123,0,0,0,0,0,0,0,-1,1721,1548,17.5174,-22.6123
504,-524,18.8975,25.6096,0,0,0,0,0,0,0,-1,1728,1548,18.8974,-25.6096
511,-524,19.3417,24.6594,0,0,0,0,0,0,0,-1,1735,1548,19.3417,-24.6594
518,-524,19.3347,24.1381,0.00917648,0.00853003,-0.00740297,0.0162633,0.00144323,-0.763581,0.0103946,0.0267367,1742,1548,19.3347,-24.1381
525,-524,19.3215,23.6351,0.00709535,0.00656849,-0.0057203,0.0125583,0.00110556,-0.762389,0.00802908,0.0147715,1749,1548,19.3215,-23.6352
532,-524,19.3038,23.1082,0.00530703,0.00495456,-0.00423201,0.00936647,0.000895123,-0.764589,0.00596836,0.0105966,1756,1548,19.3039,-23.1081
539,-524,19.3088,22.5885,0.00389041,0.00353507,-0.00292156,0.00663969,0.000785784,-0.755029,0.00418917,0.0111141,1763,1548,19.3088,-22.5885
546,-524,19.2977,22.1057,0.00266991,0.00224742,-0.00173011,0.00420163,0.000715704,-0.72465,0.00259562,0.0140057,1770,1548,19.2977,-22.1058
553,-524,19.2783,21.634,0.00164848,0.00111979,-0.000659682,0.00209481,0.000673456,-0.594837,0.00123486,0.0237253,1777,1548,19.2784,-21.634
560,-524,19.2726,21.155,0.000993736,0.000209208,0.000170779,0.0010293,0.000173644,0.20531,0.000636266,0.0317319,1784,1548,19.2726,-21.155
567,-524,19.2141,20.6294,0.000728216,-0.000299039,0.000606801,0.00100959,-0.000580409,0.434183,0.000929064,0.0188911,1791,1548,19.2141,-20.6294
574,-524,19.2062,20.0826,0.000766539,-0.00055864,0.000804547,0.00114622,-0.000938317,0.440928,0.0012055,0.0149284,1798,1548,19.2061,-20.0827
581,-524,19.215,19.5541,0.00124539,-0.000578457,0.000646481,0.00145129,-0.000784363,0.308344,0.00130976,0.0162752,1805,1548,19.2149,-19.5541
588,-524,19.26,19.0522,0.00228586,-2.14749e-06,-5.83396e-05,0.00228734,-3.63402e-06,-0.025476,0.00152611,0.0294955,1812,1548,19.26,-19.0523
595,-524,19.3137,18.3402,0,0,0,0,0,0,0,-1,1819,1548,19.3137,-18.3402
602,-524,13.837,12.0682,0,0,0,0,0,0,0,-1,1826,1548,13.837,-12.0683
609,-524,13.0056,10.5138,0,0,0,0,0,0,0,-1,1833,1548,13.0056,-10.5138
616,-524,11.6941,8.65515,0,0,0,0,0,0,0,-1,1840,1548,11.6941,-8.65514
623,-524,9.38452,5.15356,0,0,0,0,0,0,0,-1,1847,1548,9.38456,-5.15359
630,-524,11.0541,3.57434,0,0,0,0,0,0,0,-1,1854,1548,11.0541,-3.57438
637,-524,11.6067,3.20728,0,0,0,0,0,0,0,-1,1861,1548,11.6067,-3.20724
644,-524,12.2134,0.727173,0,0,0,0,0,0,0,-1,1868,1548,12.2134,-0.727222
651,-524,0,0,0,0,0,0,0,0,0,-1,1875,1548,0,0
658,-524,0,0,0,0,0,0,0,0,0,-1,1882,1548,0,0
665,-524,0,0,0,0,0,0,0,0,0,-1,1889,1548,0,0
672,-524,0,0,0,0,0,0,0,0,0,-1,1896,1548,0,0
679,-524,0,0,0,0,0,0,0,0,0,-1,1903,1548,0,0
686,-524,0,0,0,0,0,0,0,0,0,-1,1910,1548,0,0
693,-524,0,0,0,0,0,0,0,0,0,-1,1917,1548,0,0
700,-524,0,0,0,0,0,0,0,0,0,-1,1924,1548,0,0
707,-524,0,0,0,0,0,0,0,0,0,-1,1931,1548,0,0
714,-524,0,0,0,0,0,0,0,0,0,-1,1938,1548,0,0
721,-524,0,0,0,0,0,0,0,0,0,-1,1945,1548,0,0
728,-524,0,0,0,0,0,0,0,0,0,-1,1952,1548,0,0
735,-524,0,0,0,0,0,0,0,0,0,-1,1959,1548,0,0
742,-524,0,0,0,0,0,0,0,0,0,-1,1966,1548,0,0
749,-524,0,0,0,0,0,0,0,0,0,-1,1973,1548,0,0
756,-524,0,0,0,0,0,0,0,0,0,-1,1980,1548,0,0
763,-524,0,0,0,0,0,0,0,0,0,-1,1987,1548,0,0
770,-524,0,0,0,0,0,0,0,0,0,-1,1994,1548,0,0
777,-524,0,0,0,0,0,0,0,0,0,-1,2001,1548,0,0
784,-524,0,0,0,0,0,0,0,0,0,-1,2008,1548,0,0
791,-524,0,0,0,0,0,0,0,0,0,-1,2015,1548,0,0
798,-524,0,0,0,0,0,0,0,0,0,-1,2022,1548,0,0
805,-524,0,0,0,0,0,0,0,0,0,-1,2029,1548,0,0
812,-524,0,0,0,0,0,0,0,0,0,-1,2036,1548,0,0
-700,-531,0,0,0,0,0,0,0,0,0,-1,524,1555,0,0
-693,-531,0,0,0,0,0,0,0,0,0,-1,531,1555,0,0
-686,-531,0,0,0,0,0,0,0,0,0,-1,538,1555,0,0
-679,-531,0,0,0,0,0,0,0,0,0,-1,545,1555,0,0
-672,-531,0,0,0,0,0,0,0,0,0,-1,552,1555,0,0
-665,-531,0,0,0,0,0,0,0,0,0,-1,559,1555,0,0
-658,-531,0,0,0,0,0,0,0,0,0,-1,566,1555,0,0
-651,-531,0,0,0,0,0,0,0,0,0,-1,573,1555,0,0
-644,-531,0,0,0,0,0,0,0,0,0,-1,580,1555,0,0
-637,-531,0,0,0,0,0,0,0,0,0,-1,587,1555,0,0
-630,-531,0,0,0,0,0,0,0,0,0,-1,594,1555,0,0
-623,-531,0,0,0,0,0,0,0,0,0,-1,601,1555,0,0
-616,-531,0,0,0,0,0,0,0,0,0,-1,608,1555,0,0
-609,-531,0,0,0,0,0,0,0,0,0,-1,615,1555,0,0
-602,-531,0,0,0,0,0,0,0,0,0,-1,622,1555,0,0
-595,-531,0,0,0,0,0,0,0,0,0,-1,629,1555,0,0
-588,-531,0,0,0,0,0,0,0,0,0,-1,636,1555,0,0
-581,-531,0,0,0,0,0,0,0,0,0,-1,643,1555,0,0
-574,-531,0,0,0,0,0,0,0,0,0,-1,650,1555,0,0
-567,-531,0,0,0,0,0,0,0,0,0,-1,657,1555,0,0
-560,-531,0,0,0,0,0,0,0,0,0,-1,664,1555,0,0
-553,-531,0,0,0,0,0,0,0,0,0,-1,671,1555,0,0
-546,-531,0,0,0,0,0,0,0,0,0,-1,678,1555,0,0
-539,-531,0,0,0,0,0,0,0,0,0,-1,685,1555,0,0
-532,-531,0,0,0,0,0,0,0,0,0,-1,692,1555,0,0
-525,-531,0,0,0,0,0,0,0,0,0,-1,699,1555,0,0
-518,-531,-1.63983,4.03821,0,0,0,0,0,0,0,-1,706,1555,-1.63982,-4.03821
-511,-531,-2.9682,8.07483,0,0,0,0,0,0,0,-1,713,1555,-2.9682,-8.07479
-504,-531,-2.95978,0.557861,0,0,0,0,0,0,0,-1,720,1555,-2.95978,-0.557917
-497,-531,-2.46039,8.07422,0,0,0,0,0,0,0,-1,727,1555,-2.46039,-8.07423
-490,-531,-0.423462,7.92065,0,0,0,0,0,0,0,-1,734,1555,-0.42344,-7.92066
-483,-531,-3.53223,15.0049,0,0,0,0,0,0,0,-1,741,1555,-3.53224,-15.0049
-476,-531,-3.14697,16.6981,0,0,0,0,0,0,0,-1,748,1555,-3.14698,-16.6981
-469,-531,-2.0578,16.809,0,0,0,0,0,0,0,-1,755,1555,-2.05777,-16.8089
-462,-531,-2.34229,17.464,0,0,0,0,0,0,0,-1,762,1555,-2.34227,-17.464
-455,-531,-2.62677,18.119,0,0,0,0,0,0,0,-1,769,1555,-2.62676,-18.1191
-448,-531,-2.53076,18.2889,-0.000114872,0.00212138,0.00842243,0.00949958,-0.00749306,0.85139,0.00983348,0.0196222,776,1555,-2.53078,-18.2889
-441,-531,-2.62408,18.817,0.00067565,0.00220146,0.00673012,0.00821178,-0.00533467,0.841836,0.00787963,0.0122441,783,1555,-2.6241,-18.817
-434,-531,-2.63098,19.3901,0.0015012,0.00230164,0.00526712,0.00718372,-0.00338089,0.823318,0.00622981,0.0112946,790,1555,-2.63097,-19.3901
-427,-531,-2.64606,19.9437,0.0019068,0.00225415,0.00431459,0.00639855,-0.00223761,0.805514,0.0051754,0.0135597,797,1555,-2.64605,-19.9437
-420,-531,-2.66937,20.4785,0.00216329,0.0025816,0.0035574,0.00593599,-0.0011911,0.814762,0.00440833,0.0124078,804,1555,-2.66936,-20.4785
-413,-531,-2.68634,21.0232,0.00240984,0.00303273,0.00322134,0.00595765,-0.000515077,0.833589,0.00415412,0.0106271,811,1555,-2.68634,-21.0232
-406,-531,-2.7287,21.5732,0.00273768,0.00357939,0.00329782,0.00648311,-0.000166031,0.848863,0.00437846,0.0126139,818,1555,-2.72869,-21.5732
-399,-531,-2.73499,22.0885,0.00324462,0.00447834,0.00337658,0.00729394,0.000429022,0.875745,0.00472612,0.014287,825,1555,-2.73499,-22.0884
-392,-531,-2.75189,22.6074,0.00413819,0.00617405,0.00390295,0.00918963,0.0011226,0.912962,0.00578862,0.0164608,832,1555,-2.75192,-22.6074
-385,-531,-2.79095,23.1593,0.00512025,0.00782765,0.0046522,0.0113191,0.0016288,0.926979,0.00706599,0.0142677,839,1555,-2.79093,-23.1593
-378,-531,-2.80261,23.6448,0.00622802,0.00999071,0.0054077,0.013835,0.00238375,0.9528,0.00854036,0.0176415,846,1555,-2.80264,-23.6447
-371,-531,-2.69403,24.2985,0.00736092,0.0124007,0.00613665,0.0165147,0.00324692,0.980215,0.0101029,0.0348537,853,1555,-2.69402,-24.2985
-364,-531,-2.42004,25.2609,0,0,0,0,0,0,0,-1,860,1555,-2.42005,-25.2609
-357,-531,-2.59271,25.5713,0,0,0,0,0,0,0,-1,867,1555,-2.59272,-25.5713
-350,-531,-3.4375,26.6376,0,0,0,0,0,0,0,-1,874,1555,-3.4375,-26.6375
-343,-531,-2.61658,27.2268,0,0,0,0,0,0,0,-1,881,1555,-2.6166,-27.2268
-336,-531,-2.6701,28.2405,0,0,0,0,0,0,0,-1,888,1555,-2.6701,-28.2405
-329,-531,-2.17419,28.4915,0,0,0,0,0,0,0,-1,895,1555,-2.17417,-28.4914
-322,-531,-0.655029,28.5603,0,0,0,0,0,0,0,-1,902,1555,-0.655029,-28.5602
-315,-531,-3.92139,28.7059,0,0,0,0,0,0,0,-1,909,1555,-3.92138,-28.706
-308,-531,-1.66455,19.0624,0,0,0,0,0,0,0,-1,916,1555,-1.66455,-19.0623
-301,-531,-2.02405,18.8912,0,0,0,0,0,0,0,-1,923,1555,-2.02407,-18.8913
-294,-531,-1.3244,8.1825,0,0,0,0,0,0,0,-1,930,1555,-1.3244,-8.18251
-287,-531,-1.78192,10.1661,0,0,0,0,0,0,0,-1,937,1555,-1.78192,-10.1661
-280,-531,-2.14508,10.3945,0,0,0,0,0,0,0,-1,944,1555,-2.14506,-10.3945
-273,-531,-2.50818,10.6229,0,0,0,0,0,0,0,-1,951,1555,-2.5082,-10.6229
-266,-531,-4.97742,17.9215,0,0,0,0,0,0,0,-1,958,1555,-4.97744,-17.9215
-259,-531,0,0,0,0,0,0,0,0,0,-1,965,1555,0,0
-252,-531,0,0,0,0,0,0,0,0,0,-1,972,1555,0,0
-245,-531,0,0,0,0,0,0,0,0,0,-1,979,1555,0,0
-238,-531,0,0,0,0,0,0,0,0,0,-1,986,1555,0,0
-231,-531,0,0,0,0,0,0,0,0,0,-1,993,1555,0,0
-224,-531,0,0,0,0,0,0,0,0,0,-1,1000,1555,0,0
-217,-531,0,0,0,0,0,0,0,0,0,-1,1007,1555,0,0
-210,-531,0,0,0,0,0,0,0,0,0,-1,1014,1555,0,0
-203,-531,0,0,0,0,0,0,0,0,0,-1,1021,1555,0,0
-196,-531,0,0,0,0,0,0,0,0,0,-1,1028,1555,0,0
-189,-531,0,0,0,0,0,0,0,0,0,-1,1035,1555,0,0
-182,-531,0,0,0,0,0,0,0,0,0,-1,1042,1555,0,0
-175,-531,0,0,0,0,0,0,0,0,0,-1,1049,1555,0,0
-168,-531,0,0,0,0,0,0,0,0,0,-1,1056,1555,0,0
-161,-531,0,0,0,0,0,0,0,0,0,-1,1063,1555,0,0
-154,-531,0,0,0,0,0,0,0,0,0,-1,1070,1555,0,0
-147,-531,0,0,0,0,0,0,0,0,0,-1,1077,1555,0,0
-140,-531,0,0,0,0,0,0,0,0,0,-1,1084,1555,0,0
-133,-531,0,0,0,0,0,0,0,0,0,-1,1091,1555,0,0
-126,-531,0,0,0,0,0,0,0,0,0,-1,1098,1555,0,0
-119,-531,0,0,0,0,0,0,0,0,0,-1,1105,1555,0,0
-112,-531,0,0,0,0,0,0,0,0,0,-1,1112,1555,0,0
-105,-531,0,0,0,0,0,0,0,0,0,-1,1119,1555,0,0
-98,-531,0,0,0,0,0,0,0,0,0,-1,1126,1555,0,0
-91,-531,0,0,0,0,0,0,0,0,0,-1,1133,1555,0,0
-84,-531,0,0,0,0,0,0,0,0,0,-1,1140,1555,0,0
-77,-531,0,0,0,0,0,0,0,0,0,-1,1147,1555,0,0
-70,-531,0,0,0,0,0,0,0,0,0,-1,1154,1555,0,0
-63,-531,0,0,0,0,0,0,0,0,0,-1,1161,1555,0,0
-56,-531,0,0,0,0,0,0,0,0,0,-1,1168,1555,0,0
-49,-531,0,0,0,0,0,0,0,0,0,-1,1175,1555,0,0
-42,-531,0,0,0,0,0,0,0,0,0,-1,1182,1555,0,0
-35,-531,0,0,0,0,0,0,0,0,0,-1,1189,1555,0,0
-28,-531,0,0,0,0,0,0,0,0,0,-1,1196,1555,0,0
-21,-531,0,0,0,0,0,0,0,0,0,-1,1203,1555,0,0
-14,-531,0,0,0,0,0,0,0,0,0,-1,1210,1555,0,0
-7,-531,0,0,0,0,0,0,0,0,0,-1,1217,1555,0,0
0,-531,0,0,0,0,0,0,0,0,0,-1,1224,1555,0,0
7,-531,0,0,0,0,0,0,0,0,0,-1,1231,1555,0,0
14,-531,0,0,0,0,0,0,0,0,0,-1,1238,1555,0,0
21,-531,0,0,0,0,0,0,0,0,0,-1,1245,1555,0,0
28,-531,0,0,0,0,0,0,0,0,0,-1,1252,1555,0,0
35,-531,0,0,0,0,0,0,0,0,0,-1,1259,1555,0,0
42,-531,0,0,0,0,0,0,0,0,0,-1,1266,1555,0,0
49,-531,0,0,0,0,0,0,0,0,0,-1,1273,1555,0,0
56,-531,0,0,0,0,0,0,0,0,0,-1,1280,1555,0,0
63,-531,0,0,0,0,0,0,0,0,0,-1,1287,1555,0,0
70,-531,0,0,0,0,0,0,0,0,0,-1,1294,1555,0,0
77,-531,0,0,0,0,0,0,0,0,0,-1,1301,1555,0,0
84,-531,0,0,0,0,0,0,0,0,0,-1,1308,1555,0,0
91,-531,0,0,0,0,0,0,0,0,0,-1,1315,1555,0,0
98,-531,0,0,0,0,0,0,0,0,0,-1,1322,1555,0,0
105,-531,0,0,0,0,0,0,0,0,0,-1,1329,1555,0,0
112,-531,0,0,0,0,0,0,0,0,0,-1,1336,1555,0,0
119,-531,0,0,0,0,0,0,0,0,0,-1,1343,1555,0,0
126,-531,0,0,0,0,0,0,0,0,0,-1,1350,1555,0,0
133,-531,0,0,0,0,0,0,0,0,0,-1,1357,1555,0,0
140,-531,0,0,0,0,0,0,0,0,0,-1,1364,1555,0,0
147,-531,0,0,0,0,0,0,0,0,0,-1,1371,1555,0,0
154,-531,0,0,0,0,0,0,0,0,0,-1,1378,1555,0,0
161,-531,0,0,0,0,0,0,0,0,0,-1,1385,1555,0,0
168,-531,0,0,0,0,0,0,0,0,0,-1,1392,1555,0,0
175,-531,0,0,0,0,0,0,0,0,0,-1,1399,1555,0,0
182,-531,0,0,0,0,0,0,0,0,0,-1,1406,1555,0,0
189,-531,0,0,0,0,0,0,0,0,0,-1,1413,1555,0,0
196,-531,0,0,0,0,0,0,0,0,0,-1,1420,1555,0,0
203,-531,0,0,0,0,0,0,0,0,0,-1,1427,1555,0,0
210,-531,0,0,0,0,0,0,0,0,0,-1,1434,1555,0,0
217,-531,0,0,0,0,0,0,0,0,0,-1,1441,1555,0,0
224,-531,0,0,0,0,0,0,0,0,0,-1,1448,1555,0,0
231,-531,0,0,0,0,0,0,0,0,0,-1,1455,1555,0,0
238,-531,0,0,0,0,0,0,0,0,0,-1,1462,1555,0,0
245,-531,0,0,0,0,0,0,0,0,0,-1,1469,1555,0,0
252,-531,0,0,0,0,0,0,0,0,0,-1,1476,1555,0,0
259,-531,0,0,0,0,0,0,0,0,0,-1,1483,1555,0,0
266,-531,0,0,0,0,0,0,0,0,0,-1,1490,1555,0,0
273,-531,0,0,0,0,0,0,0,0,0,-1,1497,1555,0,0
280,-531,0,0,0,0,0,0,0,0,0,-1,1504,1555,0,0
287,-531,0,0,0,0,0,0,0,0,0,-1,1511,1555,0,0
294,-531,0,0,0,0,0,0,0,0,0,-1,1518,1555,0,0
301,-531,0,0,0,0,0,0,0,0,0,-1,1525,1555,0,0
308,-531,0,0,0,0,0,0,0,0,0,-1,1532,1555,0,0
315,-531,0,0,0,0,0,0,0,0,0,-1,1539,1555,0,0
322,-531,0,0,0,0,0,0,0,0,0,-1,1546,1555,0,0
329,-531,0,0,0,0,0,0,0,0,0,-1,1553,1555,0,0
336,-531,0,0,0,0,0,0,0,0,0,-1,1560,1555,0,0
343,-531,0,0,0,0,0,0,0,0,0,-1,1567,1555,0,0
350,-531,0,0,0,0,0,0,0,0,0,-1,1574,1555,0,0
357,-531,0,0,0,0,0,0,0,0,0,-1,1581,1555,0,0
364,-531,0,0,0,0,0,0,0,0,0,-1,1588,1555,0,0
371,-531,0,0,0,0,0,0,0,0,0,-1,1595,1555,0,0
378,-531,0,0,0,0,0,0,0,0,0,-1,1602,1555,0,0
385,-531,3.48169,1.78625,0,0,0,0,0,0,0,-1,1609,1555,3.48165,-1.78624
392,-531,10.8781,9.09204,0,0,0,0,0,0,0,-1,1616,1555,10.8781,-9.09205
399,-531,8.26306,5.29602,0,0,0,0,0,0,0,-1,1623,1555,8.26302,-5.29607
406,-531,8.26147,5.42712,0,0,0,0,0,0,0,-1,1630,1555,8.26145,-5.42716
413,-531,8.20618,5.75012,0,0,0,0,0,0,0,-1,1637,1555,8.20619,-5.75017
420,-531,7.64868,7.09558,0,0,0,0,0,0,0,-1,1644,1555,7.64867,-7.09564
427,-531,9.93054,11.8412,0,0,0,0,0,0,0,-1,1651,1555,9.93059,-11.8412
434,-531,10.244,11.7072,0,0,0,0,0,0,0,-1,1658,1555,10.244,-11.7071
441,-531,11.4528,12.9397,0,0,0,0,0,0,0,-1,1665,1555,11.4528,-12.9397
448,-531,11.928,18.8029,0,0,0,0,0,0,0,-1,1672,1555,11.928,-18.8028
455,-531,14.4877,9.67065,0,0,0,0,0,0,0,-1,1679,1555,14.4876,-9.67066
462,-531,13.5253,12.2002,0,0,0,0,0,0,0,-1,1686,1555,13.5252,-12.2002
469,-531,15.5087,15.7894,0,0,0,0,0,0,0,-1,1693,1555,15.5086,-15.7895
476,-531,14.6582,16.2264,0,0,0,0,0,0,0,-1,1700,1555,14.6582,-16.2264
483,-531,14.755,18.5994,0,0,0,0,0,0,0,-1,1707,1555,14.7551,-18.5994
490,-531,16.9362,25.4943,0,0,0,0,0,0,0,-1,1714,1555,16.9362,-25.4942
497,-531,18.5281,26.0576,0,0,0,0,0,0,0,-1,1721,1555,18.5281,-26.0576
504,-531,18.6748,25.288,0.0104095,0.0106898,-0.00849697,0.0190478,0.00205152,-0.793646,0.0120729,0.0388626,1728,1555,18.6748,-25.2879
511,-531,18.8009,24.6793,0.00870301,0.00861844,-0.00713073,0.0157916,0.00152987,-0.782433,0.0100566,0.016845,1735,1555,18.801,-24.6793
518,-531,18.8165,24.1536,0.00688467,0.00663058,-0.0055528,0.0123119,0.00120337,-0.77396,0.00783765,0.0146376,1742,1555,18.8165,-24.1536
525,-531,18.818,23.6523,0.00509845,0.00487874,-0.0041046,0.00909467,0.000882519,-0.77202,0.0057914,0.0136948,1749,1555,18.818,-23.6523
532,-531,18.8237,23.1365,0.00356436,0.00344147,-0.00281735,0.00632093,0.000684893,-0.774495,0.00400522,0.0106171,1756,1555,18.8238,-23.1365
539,-531,18.8138,22.6332,0.0023338,0.0021803,-0.00165185,0.00391068,0.000603422,-0.762182,0.00243107,0.0121299,1763,1555,18.8139,-22.6331
546,-531,18.7747,22.1259,0.0012281,0.000978044,-0.000526984,0.00164469,0.000561461,-0.668923,0.000965357,0.0152849,1770,1555,18.7746,-22.1259
553,-531,18.7859,21.6744,0.000303102,-9.81317e-05,0.00052259,0.000662259,-0.000457289,0.602127,0.000649973,0.03114,1777,1555,18.7859,-21.6745
560,-531,18.7471,21.2327,-0.000256302,-0.000964291,0.00135491,0.000790092,-0.00201069,0.65762,0.00166743,0.0346887,1784,1555,18.747,-21.2326
567,-531,18.6493,20.6563,-0.00043377,-0.00146055,0.00183688,0.000960114,-0.00285444,0.64913,0.00229107,0.0201038,1791,1555,18.6493,-20.6562
574,-531,18.6565,20.1107,-0.000274418,-0.00171547,0.00208358,0.0012097,-0.00319959,0.618929,0.0026307,0.0142222,1798,1555,18.6565,-20.1107
581,-531,18.7074,19.5582,0.00044727,-0.00165031,0.00187811,0.00154959,-0.00275262,0.530753,0.00251604,0.0205548,1805,1555,18.7073,-19.5583
588,-531,18.7622,18.9799,0.00191215,-0.000839669,0.000999393,0.0022368,-0.00116432,0.314097,0.00199592,0.0383141,1812,1555,18.7622,-18.9799
595,-531,18.7612,18.3508,0,0,0,0,0,0,0,-1,1819,1555,18.7612,-18.3508
602,-531,13.701,11.8346,0,0,0,0,0,0,0,-1,1826,1555,13.701,-11.8347
609,-531,10.9072,8.50903,0,0,0,0,0,0,0,-1,1833,1555,10.9073,-8.50902
616,-531,10.5723,7.17859,0,0,0,0,0,0,0,-1,1840,1555,10.5723,-7.17855
623,-531,10.0674,5.08984,0,0,0,0,0,0,0,-1,1847,1555,10.0674,-5.08981
630,-531,11.672,3.18909,0,0,0,0,0,0,0,-1,1854,1555,11.672,-3.18904
637,-531,13.2546,1.38965,0,0,0,0,0,0,0,-1,1861,1555,13.2547,-1.3896
644,-531,0,0,0,0,0,0,0,0,0,-1,1868,1555,0,0
651,-531,0,0,0,0,0,0,0,0,0,-1,1875,1555,0,0
658,-531,0,0,0,0,0,0,0,0,0,-1,1882,1555,0,0
665,-531,0,0,0,0,0,0,0,0,0,-1,1889,1555,0,0
672,-531,0,0,0,0,0,0,0,0,0,-1,1896,1555,0,0
679,-531,0,0,0,0,0,0,0,0,0,-1,1903,1555,0,0
686,-531,0,0,0,0,0,0,0,0,0,-1,1910,1555,0,0
693,-531,0,0,0,0,0,0,0,0,0,-1,1917,1555,0,0
700,-531,0,0,0,0,0,0,0,0,0,-1,1924,1555,0,0
707,-531,0,0,0,0,0,0,0,0,0,-1,1931,1555,0,0
714,-531,0,0,0,0,0,0,0,0,0,-1,1938,1555,0,0
721,-531,0,0,0,0,0,0,0,0,0,-1,1945,1555,0,0
728,-531,0,0,0,0,0,0,0,0,0,-1,1952,1555,0,0
735,-531,0,0,0,0,0,0,0,0,0,-1,1959,1555,0,0
742,-531,0,0,0,0,0,0,0,0,0,-1,1966,1555,0,0
749,-531,0,0,0,0,0,0,0,0,0,-1,1973,1555,0,0
756,-531,0,0,0,0,0,0,0,0,0,-1,1980,1555,0,0
763,-531,0,0,0,0,0,0,0,0,0,-1,1987,1555,0,0
770,-531,0,0,0,0,0,0,0,0,0,-1,1994,1555,0,0
777,-531,0,0,0,0,0,0,0,0,0,-1,2001,1555,0,0
784,-531,0,0,0,0,0,0,0,0,0,-1,2008,1555,0,0
791,-531,0,0,0,0,0,0,0,0,0,-1,2015,1555,0,0
798,-531,0,0,0,0,0,0,0,0,0,-1,2022,1555,0,0
805,-531,0,0,0,0,0,0,0,0,0,-1,2029,1555,0,0
812,-531,0,0,0,0,0,0,0,0,0,-1,2036,1555,0,0
-700,-538,0,0,0,0,0,0,0,0,0,-1,524,1562,0,0
-693,-538,0,0,0,0,0,0,0,0,0,-1,531,1562,0,0
-686,-538,0,0,0,0,0,0,0,0,0,-1,538,1562,0,0
-679,-538,0,0,0,0,0,0,0,0,0,-1,545,1562,0,0
-672,-538,0,0,0,0,0,0,0,0,0,-1,552,1562,0,0
-665,-538,0,0,0,0,0,0,0,0,0,-1,559,1562,0,0
-658,-538,0,0,0,0,0,0,0,0,0,-1,566,1562,0,0
-651,-538,0,0,0,0,0,0,0,0,0,-1,573,1562,0,0
-644,-538,0,0,0,0,0,0,0,0,0,-1,580,1562,0,0
-637,-538,0,0,0,0,0,0,0,0,0,-1,587,1562,0,0
-630,-538,0,0,0,0,0,0,0,0,0,-1,594,1562,0,0
-623,-538,0,0,0,0,0,0,0,0,0,-1,601,1562,0,0
-616,-538,0,0,0,0,0,0,0,0,0,-1,608,1562,0,0
-609,-538,0,0,0,0,0,0,0,0,0,-1,615,1562,0,0
-602,-538,0,0,0,0,0,0,0,0,0,-1,622,1562,0,0
-595,-538,0,0,0,0,0,0,0,0,0,-1,629,1562,0,0
-588,-538,0,0,0,0,0,0,0,0,0,-1,636,1562,0,0
-581,-538,0,0,0,0,0,0,0,0,0,-1,643,1562,0,0
-574,-538,0,0,0,0,0,0,0,0,0,-1,650,1562,0,0
-567,-538,0,0,0,0,0,0,0,0,0,-1,657,1562,0,0
-560,-538,0,0,0,0,0,0,0,0,0,-1,664,1562,0,0
-553,-538,0,0,0,0,0,0,0,0,0,-1,671,1562,0,0
-546,-538,0,0,0,0,0,0,0,0,0,-1,678,1562,0,0
-539,-538,0,0,0,0,0,0,0,0,0,-1,685,1562,0,0
-532,-538,0,0,0,0,0,0,0,0,0,-1,692,1562,0,0
-525,-538,0,0,0,0,0,0,0,0,0,-1,699,1562,0,0
-518,-538,0,0,0,0,0,0,0,0,0,-1,706,1562,0,0
-511,-538,-2.6582,-1.54321,0,0,0,0,0,0,0,-1,713,1562,-2.65821,1.54327
-504,-538,-2.66455,-0.71167,0,0,0,0,0,0,0,-1,720,1562,-2.66456,0.711667
-497,-538,-0.763855,6.77747,0,0,0,0,0,0,0,-1,727,1562,-0.76385,-6.77743
-490,-538,-2.70453,8.01465,0,0,0,0,0,0,0,-1,734,1562,-2.70451,-8.0147
-483,-538,-0.933533,7.84644,0,0,0,0,0,0,0,-1,741,1562,-0.933548,-7.84638
-476,-538,-3.29962,15.8307,0,0,0,0,0,0,0,-1,748,1562,-3.29962,-15.8306
-469,-538,-1.80829,16.0837,0,0,0,0,0,0,0,-1,755,1562,-1.80829,-16.0837
-462,-538,-1.95282,17.0488,0,0,0,0,0,0,0,-1,762,1562,-1.9528,-17.0488
-455,-538,-2.09399,17.8607,0.00118855,0.00521866,0.0152179,0.0185543,-0.0121471,0.851222,0.0178537,0.0416121,769,1562,-2.09402,-17.8607
-448,-538,-1.95532,18.4207,0.00184765,0.00472652,0.0121737,0.0155456,-0.00897144,0.844245,0.0143235,0.0204787,776,1562,-1.95533,-18.4206
-441,-538,-2.04279,18.9448,0.00192097,0.00408069,0.00948588,0.012548,-0.00654631,0.842073,0.0112041,0.0221155,783,1562,-2.04281,-18.9449
-434,-538,-2.10895,19.3958,0.00221028,0.00347586,0.00718887,0.0100597,-0.0043736,0.829297,0.00854593,0.0126881,790,1562,-2.10893,-19.3958
-427,-538,-2.14111,19.9675,0.00218376,0.00289482,0.00559015,0.00814073,-0.00306215,0.817155,0.00668585,0.0138592,797,1562,-2.14113,-19.9675
-420,-538,-2.15912,20.4933,0.00206849,0.0027709,0.00422773,0.00666199,-0.00182259,0.826839,0.00515735,0.0179746,804,1562,-2.15909,-20.4933
-413,-538,-2.18262,21.0295,0.00199111,0.00283893,0.00339756,0.00583892,-0.00100888,0.847462,0.00426883,0.0179729,811,1562,-2.18263,-21.0295
-406,-538,-2.18677,21.573,0.0020695,0.00299753,0.00306188,0.00563036,-0.00056332,0.860599,0.00395474,0.0147574,818,1562,-2.18679,-21.573
-399,-538,-2.19397,22.1062,0.0022752,0.00342443,0.00278633,0.00569478,4.84916e-06,0.887086,0.00379491,0.013755,825,1562,-2.19395,-22.1062
-392,-538,-2.20831,22.6232,0.00290268,0.00451019,0.00287172,0.00668852,0.000724351,0.92185,0.00423825,0.0153177,832,1562,-2.20832,-22.6232
-385,-538,-2.24091,23.1772,0.00372794,0.00582761,0.00325384,0.00819678,0.00135877,0.941448,0.00507262,0.0132184,839,1562,-2.24093,-23.1773
-378,-538,-2.24701,23.7008,0.00469252,0.00761676,0.00380699,0.0102327,0.00207654,0.968744,0.0062458,0.010557,846,1562,-2.24699,-23.7008
-371,-538,-2.28632,24.1764,0.00561889,0.00952963,0.00435293,0.0123462,0.00280231,0.996495,0.00747392,0.0133496,853,1562,-2.28632,-24.1764
-364,-538,-2.22485,24.7878,0.00660928,0.0116382,0.00480238,0.0145446,0.00370292,1.02657,0.00872797,0.0181711,860,1562,-2.22485,-24.7878
-357,-538,-2.14429,25.4376,0.00771999,0.0141842,0.00531901,0.0171761,0.00472807,1.05841,0.0102451,0.0407527,867,1562,-2.14431,-25.4376
-350,-538,-2.5105,26.0316,0.00896758,0.0171236,0.00589016,0.0202097,0.00588149,1.08818,0.0120029,0.0479095,874,1562,-2.51049,-26.0316
-343,-538,-2.16266,26.7056,0.0101456,0.0201242,0.00632449,0.0231905,0.00707935,1.11936,0.0137233,0.0468853,881,1562,-2.16263,-26.7056
-336,-538,-2.07892,27.4543,0,0,0,0,0,0,0,-1,888,1562,-2.07893,-27.4543
-329,-538,-1.94525,27.8879,0,0,0,0,0,0,0,-1,895,1562,-1.94526,-27.8879
-322,-538,-2.41412,28.0404,0,0,0,0,0,0,0,-1,902,1562,-2.4141,-28.0404
-315,-538,-3.11243,27.4591,0,0,0,0,0,0,0,-1,909,1562,-3.11243,-27.4591
-308,-538,-3.32458,27.5726,0,0,0,0,0,0,0,-1,916,1562,-3.32458,-27.5727
-301,-538,-0.452393,18.5101,0,0,0,0,0,0,0,-1,923,1562,-0.452367,-18.5102
-294,-538,1.23138,14.0757,0,0,0,0,0,0,0,-1,930,1562,1.23137,-14.0757
-287,-538,-2.60419,10.2361,0,0,0,0,0,0,0,-1,937,1562,-2.6042,-10.2361
-280,-538,-2.93475,10.5106,0,0,0,0,0,0,0,-1,944,1562,-2.93475,-10.5106
-273,-538,-3.26532,10.785,0,0,0,0,0,0,0,-1,951,1562,-3.26531,-10.785
-266,-538,-5.03412,15.9951,0,0,0,0,0,0,0,-1,958,1562,-5.03409,-15.9951
-259,-538,-5.89642,16.5184,0,0,0,0,0,0,0,-1,965,1562,-5.89644,-16.5184
-252,-538,0,0,0,0,0,0,0,0,0,-1,972,1562,0,0
-245,-538,0,0,0,0,0,0,0,0,0,-1,979,1562,0,0
-238,-538,0,0,0,0,0,0,0,0,0,-1,986,1562,0,0
-231,-538,0,0,0,0,0,0,0,0,0,-1,993,1562,0,0
-224,-538,0,0,0,0,0,0,0,0,0,-1,1000,1562,0,0
-217,-538,0,0,0,0,0,0,0,0,0,-1,1007,1562,0,0
-210,-538,0,0,0,0,0,0,0,0,0,-1,1014,1562,0,0
-203,-538,0,0,0,0,0,0,0,0,0,-1,1021,1562,0,0
-196,-538,0,0,0,0,0,0,0,0,0,-1,1028,1562,0,0
-189,-538,0,0,0,0,0,0,0,0,0,-1,1035,1562,0,0
-182,-538,0,0,0,0,0,0,0,0,0,-1,1042,1562,0,0
-175,-538,0,0,0,0,0,0,0,0,0,-1,1049,1562,0,0
-168,-538,0,0,0,0,0,0,0,0,0,-1,1056,1562,0,0
-161,-538,0,0,0,0,0,0,0,0,0,-1,1063,1562,0,0
-154,-538,0,0,0,0,0,0,0,0,0,-1,1070,1562,0,0
-147,-538,0,0,0,0,0,0,0,0,0,-1,1077,1562,0,0
-140,-538,0,0,0,0,0,0,0,0,0,-1,1084,1562,0,0
-133,-538,0,0,0,0,0,0,0,0,0,-1,1091,1562,0,0
-126,-538,0,0,0,0,0,0,0,0,0,-1,1098,1562,0,0
-119,-538,0,0,0,0,0,0,0,0,0,-1,1105,1562,0,0
-112,-538,0,0,0,0,0,0,0,0,0,-1,1112,1562,0,0
-105,-538,0,0,0,0,0,0,0,0,0,-1,1119,1562,0,0
-98,-538,0,0,0,0,0,0,0,0,0,-1,1126,1562,0,0
-91,-538,0,0,0,0,0,0,0,0,0,-1,1133,1562,0,0
-84,-538,0,0,0,0,0,0,0,0,0,-1,1140,1562,0,0
-77,-538,0,0,0,0,0,0,0,0,0,-1,1147,1562,0,0
-70,-538,0,0,0,0,0,0,0,0,0,-1,1154,1562,0,0
-63,-538,0,0,0,0,0,0,0,0,0,-1,1161,1562,0,0
-56,-538,0,0,0,0,0,0,0,0,0,-1,1168,1562,0,0
-49,-538,0,0,0,0,0,0,0,0,0,-1,1175,1562,0,0
-42,-538,0,0,0,0,0,0,0,0,0,-1,1182,1562,0,0
-35,-538,0,0,0,0,0,0,0,0,0,-1,1189,1562,0,0
-28,-538,0,0,0,0,0,0,0,0,0,-1,1196,1562,0,0
-21,-538,0,0,0,0,0,0,0,0,0,-1,1203,1562,0,0
-14,-538,0,0,0,0,0,0,0,0,0,-1,1210,1562,0,0
-7,-538,0,0,0,0,0,0,0,0,0,-1,1217,1562,0,0
0,-538,0,0,0,0,0,0,0,0,0,-1,1224,1562,0,0
7,-538,0,0,0,0,0,0,0,0,0,-1,1231,1562,0,0
14,-538,0,0,0,0,0,0,0,0,0,-1,1238,1562,0,0
21,-538,0,0,0,0,0,0,0,0,0,-1,1245,1562,0,0
28,-538,0,0,0,0,0,0,0,0,0,-1,1252,1562,0,0
35,-538,0,0,0,0,0,0,0,0,0,-1,1259,1562,0,0
42,-538,0,0,0,0,0,0,0,0,0,-1,1266,1562,0,0
49,-538,0,0,0,0,0,0,0,0,0,-1,1273,1562,0,0
56,-538,0,0,0,0,0,0,0,0,0,-1,1280,1562,0,0
63,-538,0,0,0,0,0,0,0,0,0,-1,1287,1562,0,0
70,-538,0,0,0,0,0,0,0,0,0,-1,1294,1562,0,0
77,-538,0,0,0,0,0,0,0,0,0,-1,1301,1562,0,0
84,-538,0,0,0,0,0,0,0,0,0,-1,1308,1562,0,0
91,-538,0,0,0,0,0,0,0,0,0,-1,1315,1562,0,0
98,-538,0,0,0,0,0,0,0,0,0,-1,1322,1562,0,0
105,-538,0,0,0,0,0,0,0,0,0,-1,1329,1562,0,0
112,-538,0,0,0,0,0,0,0,0,0,-1,1336,1562,0,0
119,-538,0,0,0,0,0,0,0,0,0,-1,1343,1562,0,0
126,-538,0,0,0,0,0,0,0,0,0,-1,1350,1562,0,0
133,-538,0,0,0,0,0,0,0,0,0,-1,1357,1562,0,0
140,-538,0,0,0,0,0,0,0,0,0,-1,1364,1562,0,0
147,-538,0,0,0,0,0,0,0,0,0,-1,1371,1562,0,0
154,-538,0,0,0,0,0,0,0,0,0,-1,1378,1562,0,0
161,-538,0,0,0,0,0,0,0,0,0,-1,1385,1562,0,0
168,-538,0,0,0,0,0,0,0,0,0,-1,1392,1562,0,0
175,-538,0,0,0,0,0,0,0,0,0,-1,1399,1562,0,0
182,-538,0,0,0,0,0,0,0,0,0,-1,1406,1562,0,0
189,-538,0,0,0,0,0,0,0,0,0,-1,1413,1562,0,0
196,-538,0,0,0,0,0,0,0,0,0,-1,1420,1562,0,0
203,-538,0,0,0,0,0,0,0,0,0,-1,1427,1562,0,0
210,-538,0,0,0,0,0,0,0,0,0,-1,1434,1562,0,0
217,-538,0,0,0,0,0,0,0,0,0,-1,1441,1562,0,0
224,-538,0,0,0,0,0,0,0,0,0,-1,1448,1562,0,0
231,-538,0,0,0,0,0,0,0,0,0,-1,1455,1562,0,0
238,-538,0,0,0,0,0,0,0,0,0,-1,1462,1562,0,0
245,-538,0,0,0,0,0,0,0,0,0,-1,1469,1562,0,0
252,-538,0,0,0,0,0,0,0,0,0,-1,1476,1562,0,0
259,-538,0,0,0,0,0,0,0,0,0,-1,1483,1562,0,0
266,-538,0,0,0,0,0,0,0,0,0,-1,1490,1562,0,0
273,-538,0,0,0,0,0,0,0,0,0,-1,1497,1562,0,0
280,-538,0,0,0,0,0,0,0,0,0,-1,1504,1562,0,0
287,-538,0,0,0,0,0,0,0,0,0,-1,1511,1562,0,0
294,-538,0,0,0,0,0,0,0,0,0,-1,1518,1562,0,0
301,-538,0,0,0,0,0,0,0,0,0,-1,1525,1562,0,0
308,-538,0,0,0,0,0,0,0,0,0,-1,1532,1562,0,0
315,-538,0,0,0,0,0,0,0,0,0,-1,1539,1562,0,0
322,-538,0,0,0,0,0,0,0,0,0,-1,1546,1562,0,0
329,-538,0,0,0,0,0,0,0,0,0,-1,1553,1562,0,0
336,-538,0,0,0,0,0,0,0,0,0,-1,1560,1562,0,0
343,-538,0,0,0,0,0,0,0,0,0,-1,1567,1562,0,0
350,-538,0,0,0,0,0,0,0,0,0,-1,1574,1562,0,0
357,-538,0,0,0,0,0,0,0,0,0,-1,1581,1562,0,0
364,-538,0,0,0,0,0,0,0,0,0,-1,1588,1562,0,0
371,-538,0,0,0,0,0,0,0,0,0,-1,1595,1562,0,0
378,-538,9.65479,5.82434,0,0,0,0,0,0,0,-1,1602,1562,9.6548,-5.82439
385,-538,10.5449,7.9502,0,0,0,0,0,0,0,-1,1609,1562,10.5449,-7.95014
392,-538,8.20361,7.07214,0,0,0,0,0,0,0,-1,1616,1562,8.20362,-7.07211
399,-538,7.85425,4.70508,0,0,0,0,0,0,0,-1,1623,1562,7.85425,-4.70512
406,-538,7.77734,4.96094,0,0,0,0,0,0,0,-1,1630,1562,7.77729,-4.96097
413,-538,13.0446,13.1765,0,0,0,0,0,0,0,-1,1637,1562,13.0446,-13.1765
420,-538,9.96216,12.7653,0,0,0,0,0,0,0,-1,1644,1562,9.96221,-12.7653
427,-538,10.1732,14.5863,0,0,0,0,0,0,0,-1,1651,1562,10.1732,-14.5863
434,-538,9.64331,14.7745,0,0,0,0,0,0,0,-1,1658,1562,9.64326,-14.7746
441,-538,11.5039,20.5195,0,0,0,0,0,0,0,-1,1665,1562,11.5039,-20.5195
448,-538,12.8766,22.4932,0,0,0,0,0,0,0,-1,1672,1562,12.8766,-22.4932
455,-538,12.5693,17.4128,0,0,0,0,0,0,0,-1,1679,1562,12.5694,-17.4128
462,-538,12.1389,17.017,0,0,0,0,0,0,0,-1,1686,1562,12.1389,-17.017
469,-538,14.3802,16.6945,0,0,0,0,0,0,0,-1,1693,1562,14.3803,-16.6945
476,-538,13.724,19.0608,0,0,0,0,0,0,0,-1,1700,1562,13.724,-19.0608
483,-538,17.088,25.2936,0,0,0,0,0,0,0,-1,1707,1562,17.088,-25.2936
490,-538,17.9839,26.6263,0,0,0,0,0,0,0,-1,1714,1562,17.9839,-26.6263
497,-538,18.2261,25.7593,0.00900479,0.0109094,-0.00766295,0.017679,0.0022352,-0.847218,0.0111161,0.0390579,1721,1562,18.2261,-25.7593
504,-538,18.3453,25.1119,0.00759995,0.00841691,-0.00631327,0.0143349,0.00168195,-0.817704,0.00904821,0.0163642,1728,1562,18.3453,-25.112
511,-538,18.3167,24.6191,0.00625142,0.00660415,-0.00518068,0.0116115,0.0012441,-0.802413,0.00736141,0.0104315,1735,1562,18.3167,-24.6191
518,-538,18.3075,24.1383,0.00479055,0.00482989,-0.00387642,0.00868669,0.000933755,-0.787935,0.00550633,0.0112391,1742,1562,18.3075,-24.1382
525,-538,18.3032,23.6522,0.00336749,0.00328057,-0.00266924,0.00599362,0.000654443,-0.777258,0.00379645,0.012373,1749,1562,18.3032,-23.6522
532,-538,18.3129,23.1615,0.00214424,0.00200072,-0.00157843,0.00365254,0.000492425,-0.762682,0.00228861,0.0135508,1756,1562,18.3129,-23.1615
539,-538,18.2911,22.6625,0.00112704,0.000866991,-0.000541319,0.00155373,0.000440299,-0.667532,0.000924683,0.0164544,1763,1562,18.2912,-22.6625
546,-538,18.2452,22.1375,0.000144268,-0.000272537,0.000539676,0.000514382,-0.000642651,0.601138,0.00066938,0.0180259,1770,1562,18.2452,-22.1375
553,-538,18.2468,21.6871,-0.000702516,-0.00131914,0.00160287,0.00062142,-0.00264307,0.690384,0.00200161,0.0280696,1777,1562,18.2468,-21.6871
560,-538,18.1563,21.256,-0.00123236,-0.00216958,0.00249467,0.000837328,-0.00423927,0.692558,0.00314269,0.0304822,1784,1562,18.1562,-21.256
567,-538,18.1049,20.7178,-0.00142363,-0.00270412,0.003113,0.00111428,-0.00524203,0.683979,0.00391927,0.0234326,1791,1562,18.1049,-20.7178
574,-538,18.0947,20.1426,-0.001262,-0.00301101,0.00351077,0.00148154,-0.00575455,0.663336,0.00441389,0.0259711,1798,1562,18.0947,-20.1426
581,-538,18.1661,19.6073,-0.000423873,-0.00287751,0.00333273,0.00190067,-0.00520206,0.609039,0.00424585,0.0369066,1805,1562,18.1661,-19.6073
588,-538,18.413,19.0762,0,0,0,0,0,0,0,-1,1812,1562,18.413,-19.0762
595,-538,15.9808,16.0894,0,0,0,0,0,0,0,-1,1819,1562,15.9808,-16.0893
602,-538,10.314,8.94238,0,0,0,0,0,0,0,-1,1826,1562,10.314,-8.94238
609,-538,10.1046,7.05713,0,0,0,0,0,0,0,-1,1833,1562,10.1046,-7.05719
616,-538,9.92249,5.43506,0,0,0,0,0,0,0,-1,1840,1562,9.92254,-5.43507
623,-538,11.1711,4.31604,0,0,0,0,0,0,0,-1,1847,1562,11.1711,-4.316
630,-538,12.6112,2.61633,0,0,0,0,0,0,0,-1,1854,1562,12.6112,-2.61637
637,-538,0,0,0,0,0,0,0,0,0,-1,1861,1562,0,0
644,-538,0,0,0,0,0,0,0,0,0,-1,1868,1562,0,0
651,-538,0,0,0,0,0,0,0,0,0,-1,1875,1562,0,0
658,-538,0,0,0,0,0,0,0,0,0,-1,1882,1562,0,0
665,-538,0,0,0,0,0,0,0,0,0,-1,1889,1562,0,0
672,-538,0,0,0,0,0,0,0,0,0,-1,1896,1562,0,0
679,-538,0,0,0,0,0,0,0,0,0,-1,1903,1562,0,0
686,-538,0,0,0,0,0,0,0,0,0,-1,1910,1562,0,0
693,-538,0,0,0,0,0,0,0,0,0,-1,1917,1562,0,0
700,-538,0,0,0,0,0,0,0,0,0,-1,1924,1562,0,0
707,-538,0,0,0,0,0,0,0,0,0,-1,1931,1562,0,0
714,-538,0,0,0,0,0,0,0,0,0,-1,1938,1562,0,0
721,-538,0,0,0,0,0,0,0,0,0,-1,1945,1562,0,0
728,-538,0,0,0,0,0,0,0,0,0,-1,1952,1562,0,0
735,-538,0,0,0,0,0,0,0,0,0,-1,1959,1562,0,0
742,-538,0,0,0,0,0,0,0,0,0,-1,1966,1562,0,0
749,-538,0,0,0,0,0,0,0,0,0,-1,1973,1562,0,0
756,-538,0,0,0,0,0,0,0,0,0,-1,1980,1562,0,0
763,-538,0,0,0,0,0,0,0,0,0,-1,1987,1562,0,0
770,-538,0,0,0,0,0,0,0,0,0,-1,1994,1562,0,0
777,-538,0,0,0,0,0,0,0,0,0,-1,2001,1562,0,0
784,-538,0,0,0,0,0,0,0,0,0,-1,2008,1562,0,0
791,-538,0,0,0,0,0,0,0,0,0,-1,2015,1562,0,0
798,-538,0,0,0,0,0,0,0,0,0,-1,2022,1562,0,0
805,-538,0,0,0,0,0,0,0,0,0,-1,2029,1562,0,0
812,-538,0,0,0,0,0,0,0,0,0,-1,2036,1562,0,0
-700,-545,0,0,0,0,0,0,0,0,0,-1,524,1569,0,0
-693,-545,0,0,0,0,0,0,0,0,0,-1,531,1569,0,0
-686,-545,0,0,0,0,0,0,0,0,0,-1,538,1569,0,0
-679,-545,0,0,0,0,0,0,0,0,0,-1,545,1569,0,0
-672,-545,0,0,0,0,0,0,0,0,0,-1,552,1569,0,0
-665,-545,0,0,0,0,0,0,0,0,0,-1,559,1569,0,0
-658,-545,0,0,0,0,0,0,0,0,0,-1,566,1569,0,0
-651,-545,0,0,0,0,0,0,0,0,0,-1,573,1569,0,0
-644,-545,0,0,0,0,0,0,0,0,0,-1,580,1569,0,0
-637,-545,0,0,0,0,0,0,0,0,0,-1,587,1569,0,0
-630,-545,0,0,0,0,0,0,0,0,0,-1,594,1569,0,0
-623,-545,0,0,0,0,0,0,0,0,0,-1,601,1569,0,0
-616,-545,0,0,0,0,0,0,0,0,0,-1,608,1569,0,0
-609,-545,0,0,0,0,0,0,0,0,0,-1,615,1569,0,0
-602,-545,0,0,0,0,0,0,0,0,0,-1,622,1569,0,0
-595,-545,0,0,0,0,0,0,0,0,0,-1,629,1569,0,0
-588,-545,0,0,0,0,0,0,0,0,0,-1,636,1569,0,0
-581,-545,0,0,0,0,0,0,0,0,0,-1,643,1569,0,0
-574,-545,0,0,0,0,0,0,0,0,0,-1,650,1569,0,0
-567,-545,0,0,0,0,0,0,0,0,0,-1,657,1569,0,0
-560,-545,0,0,0,0,0,0,0,0,0,-1,664,1569,0,0
-553,-545,0,0,0,0,0,0,0,0,0,-1,671,1569,0,0
-546,-545,0,0,0,0,0,0,0,0,0,-1,678,1569,0,0
-539,-545,0,0,0,0,0,0,0,0,0,-1,685,1569,0,0
-532,-545,0,0,0,0,0,0,0,0,0,-1,692,1569,0,0
-525,-545,0,0,0,0,0,0,0,0,0,-1,699,1569,0,0
-518,-545,0,0,0,0,0,0,0,0,0,-1,706,1569,0,0
-511,-545,0,0,0,0,0,0,0,0,0,-1,713,1569,0,0
-504,-545,-3.55237,-2.5354,0,0,0,0,0,0,0,-1,720,1569,-3.55236,2.53545
-497,-545,2.26575,5.69214,0,0,0,0,0,0,0,-1,727,1569,2.26573,-5.6922
-490,-545,-2.17334,7.81396,0,0,0,0,0,0,0,-1,734,1569,-2.17334,-7.81399
-483,-545,-1.88336,5.8446,0,0,0,0,0,0,0,-1,741,1569,-1.88334,-5.84466
-476,-545,-1.13147,6.5741,0,0,0,0,0,0,0,-1,748,1569,-1.13149,-6.57405
-469,-545,-1.02679,12.9653,0,0,0,0,0,0,0,-1,755,1569,-1.02679,-12.9653
-462,-545,-1.23163,16.6863,0,0,0,0,0,0,0,-1,762,1569,-1.23162,-16.6862
-455,-545,-1.76324,17.6108,0.00497471,0.0102659,0.0215681,0.02935,-0.0141094,0.846425,0.0256004,0.0452127,769,1569,-1.76323,-17.6108
-448,-545,-1.41949,18.2488,0.00455578,0.00851241,0.0170676,0.0237159,-0.0106477,0.843096,0.0203125,0.0320374,776,1569,-1.41948,-18.2487
-441,-545,-1.41803,19.0547,0.00368482,0.00679549,0.0130826,0.0184149,-0.00793455,0.844563,0.0156088,0.0274023,783,1569,-1.41806,-19.0547
-434,-545,-1.6568,19.4918,0.00319985,0.00519579,0.00968364,0.0139327,-0.00553711,0.836745,0.0115841,0.0248626,790,1569,-1.65681,-19.4919
-427,-545,-1.61938,19.9985,0.00264582,0.00391689,0.00729259,0.0106016,-0.00403887,0.828862,0.00873116,0.0204789,797,1569,-1.61938,-19.9986
-420,-545,-1.59821,20.5052,0.00213299,0.00323473,0.00524765,0.00796034,-0.00259262,0.837694,0.00635004,0.0233325,804,1569,-1.59821,-20.5053
-413,-545,-1.62274,21.0142,0.00172785,0.00285234,0.00387899,0.00620962,-0.00162943,0.85737,0.00477645,0.0215623,811,1569,-1.62272,-21.0141
-406,-545,-1.62158,21.5857,0.00156676,0.00259222,0.00310099,0.00522258,-0.00106361,0.867329,0.00388509,0.0154124,818,1569,-1.62158,-21.5856
-399,-545,-1.64478,22.1069,0.00149318,0.00255767,0.00249374,0.00457534,-0.000524485,0.890536,0.00323924,0.0115749,825,1569,-1.64477,-22.1069
-392,-545,-1.67365,22.6234,0.00187953,0.00307148,0.00217915,0.00473468,0.000216334,0.918879,0.00308687,0.0125757,832,1569,-1.67365,-22.6235
-385,-545,-1.69324,23.1683,0.00256635,0.00412277,0.00227357,0.00574763,0.000941487,0.950291,0.00355967,0.0107858,839,1569,-1.69322,-23.1683
-378,-545,-1.73169,23.705,0.00341093,0.00560458,0.00269484,0.00741725,0.00159826,0.978665,0.00450754,0.0118854,846,1569,-1.73167,-23.7049
-371,-545,-1.75458,24.2351,0.00418019,0.00713221,0.00312345,0.00911084,0.00220156,1.00613,0.00548923,0.0147593,853,1569,-1.75459,-24.2351
-364,-545,-1.76178,24.7286,0.00504122,0.00888284,0.00350419,0.0109581,0.00296592,1.03611,0.00654477,0.0106854,860,1569,-1.76177,-24.7287
-357,-545,-1.67285,25.3429,0.00600649,0.0109422,0.00392877,0.0131139,0.00383479,1.06583,0.00778578,0.0182466,867,1569,-1.67285,-25.3429
-350,-545,-1.61731,25.9364,0.00709636,0.0132376,0.00441837,0.0155475,0.00478639,1.08907,0.00919466,0.02851,874,1569,-1.61729,-25.9364
-343,-545,-1.66425,26.4,0.00817251,0.0156582,0.00490996,0.0180892,0.00574149,1.11106,0.0106735,0.0469279,881,1569,-1.66424,-26.4
-336,-545,-1.42181,26.6658,0,0,0,0,0,0,0,-1,888,1569,-1.42181,-26.6658
-329,-545,-1.76306,26.4618,0,0,0,0,0,0,0,-1,895,1569,-1.76306,-26.4618
-322,-545,-2.08643,26.1931,0,0,0,0,0,0,0,-1,902,1569,-2.08642,-26.1931
-315,-545,-2.30347,26.2123,0,0,0,0,0,0,0,-1,909,1569,-2.30348,-26.2122
-308,-545,-1.54358,21.4457,0,0,0,0,0,0,0,-1,916,1569,-1.54357,-21.4457
-301,-545,1.52191,17.5009,0,0,0,0,0,0,0,-1,923,1569,1.52192,-17.5008
-294,-545,-2.69287,8.42102,0,0,0,0,0,0,0,-1,930,1569,-2.69287,-8.42097
-287,-545,-3.47784,9.96021,0,0,0,0,0,0,0,-1,937,1569,-3.47785,-9.96021
-280,-545,-3.7879,10.5448,0,0,0,0,0,0,0,-1,944,1569,-3.78793,-10.5448
-273,-545,-5.10333,12.864,0,0,0,0,0,0,0,-1,951,1569,-5.10331,-12.864
-266,-545,-5.78955,13.3704,0,0,0,0,0,0,0,-1,958,1569,-5.78952,-13.3703
-259,-545,-6.32184,13.8101,0,0,0,0,0,0,0,-1,965,1569,-6.32182,-13.81
-252,-545,0.369263,7.54053,0,0,0,0,0,0,0,-1,972,1569,0.369276,-7.54056
-245,-545,-0.236633,6.65564,0,0,0,0,0,0,0,-1,979,1569,-0.236605,-6.65566
-238,-545,0,0,0,0,0,0,0,0,0,-1,986,1569,0,0
-231,-545,0,0,0,0,0,0,0,0,0,-1,993,1569,0,0
-224,-545,0,0,0,0,0,0,0,0,0,-1,1000,1569,0,0
-217,-545,0,0,0,0,0,0,0,0,0,-1,1007,1569,0,0
-210,-545,0,0,0,0,0,0,0,0,0,-1,1014,1569,0,0
-203,-545,0,0,0,0,0,0,0,0,0,-1,1021,1569,0,0
-196,-545,0,0,0,0,0,0,0,0,0,-1,1028,1569,0,0
-189,-545,0,0,0,0,0,0,0,0,0,-1,1035,1569,0,0
-182,-545,0,0,0,0,0,0,0,0,0,-1,1042,1569,0,0
-175,-545,0,0,0,0,0,0,0,0,0,-1,1049,1569,0,0
-168,-545,0,0,0,0,0,0,0,0,0,-1,1056,1569,0,0
-161,-545,0,0,0,0,0,0,0,0,0,-1,1063,1569,0,0
-154,-545,0,0,0,0,0,0,0,0,0,-1,1070,1569,0,0
-147,-545,0,0,0,0,0,0,0,0,0,-1,1077,1569,0,0
-140,-545,0,0,0,0,0,0,0,0,0,-1,1084,1569,0,0
-133,-545,0,0,0,0,0,0,0,0,0,-1,1091,1569,0,0
-126,-545,0,0,0,0,0,0,0,0,0,-1,1098,1569,0,0
-119,-545,0,0,0,0,0,0,0,0,0,-1,1105,1569,0,0
-112,-545,0,0,0,0,0,0,0,0,0,-1,1112,1569,0,0
-105,-545,0,0,0,0,0,0,0,0,0,-1,1119,1569,0,0
-98,-545,0,0,0,0,0,0,0,0,0,-1,1126,1569,0,0
-91,-545,0,0,0,0,0,0,0,0,0,-1,1133,1569,0,0
-84,-545,0,0,0,0,0,0,0,0,0,-1,1140,1569,0,0
-77,-545,0,0,0,0,0,0,0,0,0,-1,1147,1569,0,0
-70,-545,0,0,0,0,0,0,0,0,0,-1,1154,1569,0,0
-63,-545,0,0,0,0,0,0,0,0,0,-1,1161,1569,0,0
-56,-545,0,0,0,0,0,0,0,0,0,-1,1168,1569,0,0
-49,-545,0,0,0,0,0,0,0,0,0,-1,1175,1569,0,0
-42,-545,0,0,0,0,0,0,0,0,0,-1,1182,1569,0,0
-35,-545,0,0,0,0,0,0,0,0,0,-1,1189,1569,0,0
-28,-545,0,0,0,0,0,0,0,0,0,-1,1196,1569,0,0
-21,-545,0,0,0,0,0,0,0,0,0,-1,1203,1569,0,0
-14,-545,0,0,0,0,0,0,0,0,0,-1,1210,1569,0,0
-7,-545,0,0,0,0,0,0,0,0,0,-1,1217,1569,0,0
0,-545,0,0,0,0,0,0,0,0,0,-1,1224,1569,0,0
7,-545,0,0,0,0,0,0,0,0,0,-1,1231,1569,0,0
14,-545,0,0,0,0,0,0,0,0,0,-1,1238,1569,0,0
21,-545,0,0,0,0,0,0,0,0,0,-1,1245,1569,0,0
28,-545,0,0,0,0,0,0,0,0,0,-1,1252,1569,0,0
35,-545,0,0,0,0,0,0,0,0,0,-1,1259,1569,0,0
42,-545,0,0,0,0,0,0,0,0,0,-1,1266,1569,0,0
49,-545,0,0,0,0,0,0,0,0,0,-1,1273,1569,0,0
56,-545,0,0,0,0,0,0,0,0,0,-1,1280,1569,0,0
63,-545,0,0,0,0,0,0,0,0,0,-1,1287,1569,0,0
70,-545,0,0,0,0,0,0,0,0,0,-1,1294,1569,0,0
77,-545,0,0,0,0,0,0,0,0,0,-1,1301,1569,0,0
84,-545,0,0,0,0,0,0,0,0,0,-1,1308,1569,0,0
91,-545,0,0,0,0,0,0,0,0,0,-1,1315,1569,0,0
98,-545,0,0,0,0,0,0,0,0,0,-1,1322,1569,0,0
105,-545,0,0,0,0,0,0,0,0,0,-1,1329,1569,0,0
112,-545,0,0,0,0,0,0,0,0,0,-1,1336,1569,0,0
119,-545,0,0,0,0,0,0,0,0,0,-1,1343,1569,0,0
126,-545,0,0,0,0,0,0,0,0,0,-1,1350,1569,0,0
133,-545,0,0,0,0,0,0,0,0,0,-1,1357,1569,0,0
140,-545,0,0,0,0,0,0,0,0,0,-1,1364,1569,0,0
147,-545,0,0,0,0,0,0,0,0,0,-1,1371,1569,0,0
154,-545,0,0,0,0,0,0,0,0,0,-1,1378,1569,0,0
161,-545,0,0,0,0,0,0,0,0,0,-1,1385,1569,0,0
168,-545,0,0,0,0,0,0,0,0,0,-1,1392,1569,0,0
175,-545,0,0,0,0,0,0,0,0,0,-1,1399,1569,0,0
182,-545,0,0,0,0,0,0,0,0,0,-1,1406,1569,0,0
189,-545,0,0,0,0,0,0,0,0,0,-1,1413,1569,0,0
196,-545,0,0,0,0,0,0,0,0,0,-1,1420,1569,0,0
203,-545,0,0,0,0,0,0,0,0,0,-1,1427,1569,0,0
210,-545,0,0,0,0,0,0,0,0,0,-1,1434,1569,0,0
217,-545,0,0,0,0,0,0,0,0,0,-1,1441,1569,0,0
224,-545,0,0,0,0,0,0,0,0,0,-1,1448,1569,0,0
231,-545,0,0,0,0,0,0,0,0,0,-1,1455,1569,0,0
238,-545,0,0,0,0,0,0,0,0,0,-1,1462,1569,0,0
245,-545,0,0,0,0,0,0,0,0,0,-1,1469,1569,0,0
252,-545,0,0,0,0,0,0,0,0,0,-1,1476,1569,0,0
259,-545,0,0,0,0,0,0,0,0,0,-1,1483,1569,0,0
266,-545,0,0,0,0,0,0,0,0,0,-1,1490,1569,0,0
273,-545,0,0,0,0,0,0,0,0,0,-1,1497,1569,0,0
280,-545,0,0,0,0,0,0,0,0,0,-1,1504,1569,0,0
287,-545,0,0,0,0,0,0,0,0,0,-1,1511,1569,0,0
294,-545,0,0,0,0,0,0,0,0,0,-1,1518,1569,0,0
301,-545,0,0,0,0,0,0,0,0,0,-1,1525,1569,0,0
308,-545,0,0,0,0,0,0,0,0,0,-1,1532,1569,0,0
315,-545,0,0,0,0,0,0,0,0,0,-1,1539,1569,0,0
322,-545,0,0,0,0,0,0,0,0,0,-1,1546,1569,0,0
329,-545,0,0,0,0,0,0,0,0,0,-1,1553,1569,0,0
336,-545,0,0,0,0,0,0,0,0,0,-1,1560,1569,0,0
343,-545,0,0,0,0,0,0,0,0,0,-1,1567,1569,0,0
350,-545,0,0,0,0,0,0,0,0,0,-1,1574,1569,0,0
357,-545,0,0,0,0,0,0,0,0,0,-1,1581,1569,0,0
364,-545,7.19495,4.88098,0,0,0,0,0,0,0,-1,1588,1569,7.19497,-4.88095
371,-545,7.82324,3.84302,0,0,0,0,0,0,0,-1,1595,1569,7.82324,-3.84307
378,-545,7.65674,5.52673,0,0,0,0,0,0,0,-1,1602,1569,7.6567,-5.52667
385,-545,8.58447,1.16125,0,0,0,0,0,0,0,-1,1609,1569,8.5845,-1.1612
392,-545,12.5654,3.89526,0,0,0,0,0,0,0,-1,1616,1569,12.5655,-3.89532
399,-545,11.5869,5.6333,0,0,0,0,0,0,0,-1,1623,1569,11.5869,-5.63326
406,-545,11.234,6.36414,0,0,0,0,0,0,0,-1,1630,1569,11.234,-6.3641
413,-545,12.1521,13.4817,0,0,0,0,0,0,0,-1,1637,1569,12.1521,-13.4817
420,-545,11.1954,13.6047,0,0,0,0,0,0,0,-1,1644,1569,11.1954,-13.6047
427,-545,9.61072,14.9135,0,0,0,0,0,0,0,-1,1651,1569,9.61076,-14.9134
434,-545,13.1598,23.9921,0,0,0,0,0,0,0,-1,1658,1569,13.1598,-23.992
441,-545,12.2833,22.2238,0,0,0,0,0,0,0,-1,1665,1569,12.2833,-22.2237
448,-545,13.0082,21.941,0,0,0,0,0,0,0,-1,1672,1569,13.0082,-21.941
455,-545,13.733,21.6583,0,0,0,0,0,0,0,-1,1679,1569,13.733,-21.6583
462,-545,12.449,20.7413,0,0,0,0,0,0,0,-1,1686,1569,12.4489,-20.7413
469,-545,12.7837,17.7919,0,0,0,0,0,0,0,-1,1693,1569,12.7837,-17.7919
476,-545,15.7562,24.8708,0,0,0,0,0,0,0,-1,1700,1569,15.7563,-24.8709
483,-545,17.785,26.7417,0,0,0,0,0,0,0,-1,1707,1569,17.785,-26.7416
490,-545,17.7927,26.1635,0.00865426,0.0114939,-0.00781248,0.0180145,0.00213364,-0.875286,0.0113654,0.0284131,1714,1569,17.7928,-26.1634
497,-545,17.8209,25.657,0.00715752,0.00885708,-0.00606117,0.0141277,0.00188685,-0.855045,0.0088568,0.0221339,1721,1569,17.8209,-25.657
504,-545,17.913,25.1394,0.00590883,0.00659829,-0.00484934,0.0111151,0.00139198,-0.820883,0.00699243,0.0156848,1728,1569,17.913,-25.1394
511,-545,17.8579,24.6409,0.0046486,0.00493381,-0.00378496,0.00857884,0.00100356,-0.804228,0.00541579,0.0119538,1735,1569,17.8579,-24.6409
518,-545,17.8477,24.1511,0.00331641,0.00329264,-0.00261154,0.00591609,0.000692953,-0.783122,0.00373457,0.0134303,1742,1569,17.8476,-24.1512
525,-545,17.817,23.6547,0.00201832,0.0018557,-0.00149705,0.00343627,0.000437751,-0.758267,0.00215977,0.0140253,1749,1569,17.817,-23.6547
532,-545,17.7982,23.1724,0.00088201,0.00063777,-0.000450411,0.00122656,0.000293217,-0.653016,0.000739605,0.0142039,1756,1569,17.7982,-23.1723
539,-545,17.7644,22.6704,-0.000121083,-0.000469514,0.000606264,0.0003355,-0.000926097,0.645488,0.000754519,0.0173497,1763,1569,17.7644,-22.6704
546,-545,17.7202,22.1266,-0.00115291,-0.00163256,0.00178147,0.00040481,-0.00319028,0.71849,0.00227383,0.0201026,1770,1569,17.7203,-22.1266
553,-545,17.7334,21.6533,-0.00207551,-0.00272893,0.00298991,0.00060549,-0.00540993,0.730979,0.00382446,0.028496,1777,1569,17.7334,-21.6534
560,-545,17.707,21.1714,-0.00273662,-0.00364749,0.00408103,0.00091431,-0.00729842,0.729829,0.00519726,0.0283438,1784,1569,17.707,-21.1714
567,-545,17.6853,20.5743,0,0,0,0,0,0,0,-1,1791,1569,17.6853,-20.5744
574,-545,17.7301,19.9988,0,0,0,0,0,0,0,-1,1798,1569,17.7301,-19.9988
581,-545,17.746,19.5021,0,0,0,0,0,0,0,-1,1805,1569,17.7459,-19.5021
588,-545,15.4786,16.7035,0,0,0,0,0,0,0,-1,1812,1569,15.4786,-16.7035
595,-545,10.2859,9.11218,0,0,0,0,0,0,0,-1,1819,1569,10.2858,-9.11215
602,-545,8.82117,6.32214,0,0,0,0,0,0,0,-1,1826,1569,8.82121,-6.32217
609,-545,10.2406,5.22351,0,0,0,0,0,0,0,-1,1833,1569,10.2406,-5.22353
616,-545,11.701,3.93188,0,0,0,0,0,0,0,-1,1840,1569,11.701,-3.93191
623,-545,13.2139,2.32043,0,0,0,0,0,0,0,-1,1847,1569,13.2139,-2.32042
630,-545,0,0,0,0,0,0,0,0,0,-1,1854,1569,0,0
637,-545,0,0,0,0,0,0,0,0,0,-1,1861,1569,0,0
644,-545,0,0,0,0,0,0,0,0,0,-1,1868,1569,0,0
651,-545,0,0,0,0,0,0,0,0,0,-1,1875,1569,0,0
658,-545,0,0,0,0,0,0,0,0,0,-1,1882,1569,0,0
665,-545,0,0,0,0,0,0,0,0,0,-1,1889,1569,0,0
672,-545,0,0,0,0,0,0,0,0,0,-1,1896,1569,0,0
679,-545,0,0,0,0,0,0,0,0,0,-1,1903,1569,0,0
686,-545,0,0,0,0,0,0,0,0,0,-1,1910,1569,0,0
693,-545,0,0,0,0,0,0,0,0,0,-1,1917,1569,0,0
700,-545,0,0,0,0,0,0,0,0,0,-1,1924,1569,0,0
707,-545,0,0,0,0,0,0,0,0,0,-1,1931,1569,0,0
714,-545,0,0,0,0,0,0,0,0,0,-1,1938,1569,0,0
721,-545,0,0,0,0,0,0,0,0,0,-1,1945,1569,0,0
728,-545,0,0,0,0,0,0,0,0,0,-1,1952,1569,0,0
735,-545,0,0,0,0,0,0,0,0,0,-1,1959,1569,0,0
742,-545,0,0,0,0,0,0,0,0,0,-1,1966,1569,0,0
749,-545,0,0,0,0,0,0,0,0,0,-1,1973,1569,0,0
756,-545,0,0,0,0,0,0,0,0,0,-1,1980,1569,0,0
763,-545,0,0,0,0,0,0,0,0,0,-1,1987,1569,0,0
770,-545,0,0,0,0,0,0,0,0,0,-1,1994,1569,0,0
777,-545,0,0,0,0,0,0,0,0,0,-1,2001,1569,0,0
784,-545,0,0,0,0,0,0,0,0,0,-1,2008,1569,0,0
791,-545,0,0,0,0,0,0,0,0,0,-1,2015,1569,0,0
798,-545,0,0,0,0,0,0,0,0,0,-1,2022,1569,0,0
805,-545,0,0,0,0,0,0,0,0,0,-1,2029,1569,0,0
812,-545,0,0,0,0,0,0,0,0,0,-1,2036,1569,0,0
-700,-552,0,0,0,0,0,0,0,0,0,-1,524,1576,0,0
-693,-552,0,0,0,0,0,0,0,0,0,-1,531,1576,0,0
-686,-552,0,0,0,0,0,0,0,0,0,-1,538,1576,0,0
-679,-552,0,0,0,0,0,0,0,0,0,-1,545,1576,0,0
-672,-552,0,0,0,0,0,0,0,0,0,-1,552,1576,0,0
-665,-552,0,0,0,0,0,0,0,0,0,-1,559,1576,0,0
-658,-552,0,0,0,0,0,0,0,0,0,-1,566,1576,0,0
-651,-552,0,0,0,0,0,0,0,0,0,-1,573,1576,0,0
-644,-552,0,0,0,0,0,0,0,0,0,-1,580,1576,0,0
-637,-552,0,0,0,0,0,0,0,0,0,-1,587,1576,0,0
-630,-552,0,0,0,0,0,0,0,0,0,-1,594,1576,0,0
-623,-552,0,0,0,0,0,0,0,0,0,-1,601,1576,0,0
-616,-552,0,0,0,0,0,0,0,0,0,-1,608,1576,0,0
-609,-552,0,0,0,0,0,0,0,0,0,-1,615,1576,0,0
-602,-552,0,0,0,0,0,0,0,0,0,-1,622,1576,0,0
-595,-552,0,0,0,0,0,0,0,0,0,-1,629,1576,0,0
-588,-552,0,0,0,0,0,0,0,0,0,-1,636,1576,0,0
-581,-552,0,0,0,0,0,0,0,0,0,-1,643,1576,0,0
-574,-552,0,0,0,0,0,0,0,0,0,-1,650,1576,0,0
-567,-552,0,0,0,0,0,0,0,0,0,-1,657,1576,0,0
-560,-552,0,0,0,0,0,0,0,0,0,-1,664,1576,0,0
-553,-552,0,0,0,0,0,0,0,0,0,-1,671,1576,0,0
-546,-552,0,0,0,0,0,0,0,0,0,-1,678,1576,0,0
-539,-552,0,0,0,0,0,0,0,0,0,-1,685,1576,0,0
-532,-552,0,0,0,0,0,0,0,0,0,-1,692,1576,0,0
-525,-552,0,0,0,0,0,0,0,0,0,-1,699,1576,0,0
-518,-552,0,0,0,0,0,0,0,0,0,-1,706,1576,0,0
-511,-552,0,0,0,0,0,0,0,0,0,-1,713,1576,0,0
-504,-552,0,0,0,0,0,0,0,0,0,-1,720,1576,0,0
-497,-552,1.51282,3.96924,0,0,0,0,0,0,0,-1,727,1576,1.5128,-3.96924
-490,-552,-3.82312,6.32104,0,0,0,0,0,0,0,-1,734,1576,-3.82314,-6.3211
-483,-552,-3.50586,6.47986,0,0,0,0,0,0,0,-1,741,1576,-3.50587,-6.47983
-476,-552,-1.95129,4.43054,0,0,0,0,0,0,0,-1,748,1576,-1.95128,-4.43054
-469,-552,-1.40491,7.9895,0,0,0,0,0,0,0,-1,755,1576,-1.40491,-7.98947
-462,-552,-0.936829,14.2321,0,0,0,0,0,0,0,-1,762,1576,-0.936811,-14.2321
-455,-552,-1.30951,17.4257,0,0,0,0,0,0,0,-1,769,1576,-1.3095,-17.4257
-448,-552,-1.26263,17.6792,0.00830914,0.0137198,0.023119,0.0342912,-0.0122623,0.843642,0.0278626,0.0487167,776,1576,-1.26262,-17.6792
-441,-552,-1.22913,18.978,0.00606251,0.0104455,0.0174052,0.0257966,-0.00928863,0.848023,0.0209906,0.0457526,783,1576,-1.2291,-18.978
-434,-552,-1.13733,19.9298,0,0,0,0,0,0,0,-1,790,1576,-1.13735,-19.9298
-427,-552,-1.12012,19.9266,0.0033091,0.00536825,0.00935339,0.0137486,-0.00507121,0.840215,0.011244,0.0314572,797,1576,-1.12011,-19.9266
-420,-552,-1.06628,20.5308,0.0023108,0.00403371,0.00655659,0.00978519,-0.00344068,0.850718,0.00792341,0.0221925,804,1576,-1.06625,-20.5307
-413,-552,-1.06989,21.04,0.00153773,0.00317107,0.0046316,0.00705745,-0.00234865,0.872664,0.0056529,0.0162116,811,1576,-1.0699,-21.0401
-406,-552,-1.0885,21.5997,0.00112696,0.00248346,0.0034041,0.00527623,-0.0016658,0.883733,0.00418476,0.0124745,818,1576,-1.08851,-21.5997
-399,-552,-1.12408,22.1272,0.000794167,0.00201196,0.00248943,0.00396588,-0.00115975,0.905339,0.00310359,0.0135514,825,1576,-1.12409,-22.1272
-392,-552,-1.16272,22.6478,0.00096624,0.00200133,0.00180559,0.00336209,-0.000394518,0.924973,0.00238381,0.0159959,832,1576,-1.16274,-22.6479
-385,-552,-1.19025,23.1796,0.00153322,0.00281713,0.00164417,0.00394023,0.000410119,0.971518,0.00250134,0.0145492,839,1576,-1.19023,-23.1796
-378,-552,-1.2132,23.6924,0.00227793,0.00399205,0.0019301,0.00524682,0.00102315,0.994346,0.00321163,0.0153751,846,1576,-1.21321,-23.6924
-371,-552,-1.23059,24.2118,0.0029357,0.0051608,0.00223349,0.00654349,0.00155301,1.01647,0.00394783,0.0194608,853,1576,-1.2306,-24.2118
-364,-552,-1.23254,24.73,0.00370815,0.00654693,0.0025219,0.00802143,0.00223365,1.04172,0.00478031,0.0146853,860,1576,-1.23254,-24.73
-357,-552,-1.21545,25.2397,0.00456834,0.00815167,0.00286352,0.00973785,0.00298216,1.06494,0.00576114,0.0100009,867,1576,-1.21548,-25.2398
-350,-552,-1.19928,25.8063,0.00553638,0.00987741,0.00327173,0.0116331,0.00378065,1.07827,0.00685217,0.0134551,874,1576,-1.19927,-25.8063
-343,-552,-1.20679,26.3093,0.00651364,0.0117563,0.00375534,0.0137147,0.00455525,1.0901,0.00806557,0.0185094,881,1576,-1.20678,-26.3094
-336,-552,-1.13989,26.6881,0.00749202,0.0137847,0.00423261,0.0159123,0.00536442,1.10502,0.00934803,0.0357461,888,1576,-1.13992,-26.6881
-329,-552,-0.954712,27.2483,0,0,0,0,0,0,0,-1,895,1576,-0.954713,-27.2483
-322,-552,-1.31458,25.5044,0,0,0,0,0,0,0,-1,902,1576,-1.31457,-25.5044
-315,-552,-0.605347,28.994,0,0,0,0,0,0,0,-1,909,1576,-0.605331,-28.9941
-308,-552,-1.01624,30.3169,0,0,0,0,0,0,0,-1,916,1576,-1.01624,-30.3169
-301,-552,1.39453,18.4995,0,0,0,0,0,0,0,-1,923,1576,1.3945,-18.4995
-294,-552,0.842163,13.7863,0,0,0,0,0,0,0,-1,930,1576,0.842149,-13.7863
-287,-552,-0.663757,13.3474,0,0,0,0,0,0,0,-1,937,1576,-0.663744,-13.3474
-280,-552,-5.47241,8.96765,0,0,0,0,0,0,0,-1,944,1576,-5.47239,-8.96766
-273,-552,1.64587,10.6685,0,0,0,0,0,0,0,-1,951,1576,1.6459,-10.6685
-266,-552,-1.32678,8.05688,0,0,0,0,0,0,0,-1,958,1576,-1.32677,-8.05683
-259,-552,-5.54321,8.31213,0,0,0,0,0,0,0,-1,965,1576,-5.54324,-8.31214
-252,-552,-1.93445,7.81543,0,0,0,0,0,0,0,-1,972,1576,-1.93445,-7.81546
-245,-552,-2.53613,6.92212,0,0,0,0,0,0,0,-1,979,1576,-2.53614,-6.92216
-238,-552,-6.5365,2.81885,0,0,0,0,0,0,0,-1,986,1576,-6.53649,-2.8188
-231,-552,-4.32239,4.34583,0,0,0,0,0,0,0,-1,993,1576,-4.32239,-4.34587
-224,-552,0,0,0,0,0,0,0,0,0,-1,1000,1576,0,0
-217,-552,0,0,0,0,0,0,0,0,0,-1,1007,1576,0,0
-210,-552,0,0,0,0,0,0,0,0,0,-1,1014,1576,0,0
-203,-552,0,0,0,0,0,0,0,0,0,-1,1021,1576,0,0
-196,-552,0,0,0,0,0,0,0,0,0,-1,1028,1576,0,0
-189,-552,0,0,0,0,0,0,0,0,0,-1,1035,1576,0,0
-182,-552,0,0,0,0,0,0,0,0,0,-1,1042,1576,0,0
-175,-552,0,0,0,0,0,0,0,0,0,-1,1049,1576,0,0
-168,-552,0,0,0,0,0,0,0,0,0,-1,1056,1576,0,0
-161,-552,0,0,0,0,0,0,0,0,0,-1,1063,1576,0,0
-154,-552,0,0,0,0,0,0,0,0,0,-1,1070,1576,0,0
-147,-552,0,0,0,0,0,0,0,0,0,-1,1077,1576,0,0
-140,-552,0,0,0,0,0,0,0,0,0,-1,1084,1576,0,0
-133,-552,0,0,0,0,0,0,0,0,0,-1,1091,1576,0,0
-126,-552,0,0,0,0,0,0,0,0,0,-1,1098,1576,0,0
-119,-552,0,0,0,0,0,0,0,0,0,-1,1105,1576,0,0
-112,-552,0,0,0,0,0,0,0,0,0,-1,1112,1576,0,0
-105,-552,0,0,0,0,0,0,0,0,0,-1,1119,1576,0,0
-98,-552,0,0,0,0,0,0,0,0,0,-1,1126,1576,0,0
-91,-552,0,0,0,0,0,0,0,0,0,-1,1133,1576,0,0
-84,-552,0,0,0,0,0,0,0,0,0,-1,1140,1576,0,0
-77,-552,0,0,0,0,0,0,0,0,0,-1,1147,1576,0,0
-70,-552,0,0,0,0,0,0,0,0,0,-1,1154,1576,0,0
-63,-552,0,0,0,0,0,0,0,0,0,-1,1161,1576,0,0
-56,-552,0,0,0,0,0,0,0,0,0,-1,1168,1576,0,0
-49,-552,0,0,0,0,0,0,0,0,0,-1,1175,1576,0,0
-42,-552,0,0,0,0,0,0,0,0,0,-1,1182,1576,0,0
-35,-552,0,0,0,0,0,0,0,0,0,-1,1189,1576,0,0
-28,-552,0,0,0,0,0,0,0,0,0,-1,1196,1576,0,0
-21,-552,0,0,0,0,0,0,0,0,0,-1,1203,1576,0,0
-14,-552,0,0,0,0,0,0,0,0,0,-1,1210,1576,0,0
-7,-552,0,0,0,0,0,0,0,0,0,-1,1217,1576,0,0
0,-552,0,0,0,0,0,0,0,0,0,-1,1224,1576,0,0
7,-552,0,0,0,0,0,0,0,0,0,-1,1231,1576,0,0
14,-552,0,0,0,0,0,0,0,0,0,-1,1238,1576,0,0
21,-552,0,0,0,0,0,0,0,0,0,-1,1245,1576,0,0
28,-552,0,0,0,0,0,0,0,0,0,-1,1252,1576,0,0
35,-552,0,0,0,0,0,0,0,0,0,-1,1259,1576,0,0
42,-552,0,0,0,0,0,0,0,0,0,-1,1266,1576,0,0
49,-552,0,0,0,0,0,0,0,0,0,-1,1273,1576,0,0
56,-552,0,0,0,0,0,0,0,0,0,-1,1280,1576,0,0
63,-552,0,0,0,0,0,0,0,0,0,-1,1287,1576,0,0
70,-552,0,0,0,0,0,0,0,0,0,-1,1294,1576,0,0
77,-552,0,0,0,0,0,0,0,0,0,-1,1301,1576,0,0
84,-552,0,0,0,0,0,0,0,0,0,-1,1308,1576,0,0
91,-552,0,0,0,0,0,0,0,0,0,-1,1315,1576,0,0
98,-552,0,0,0,0,0,0,0,0,0,-1,1322,1576,0,0
105,-552,0,0,0,0,0,0,0,0,0,-1,1329,1576,0,0
112,-552,0,0,0,0,0,0,0,0,0,-1,1336,1576,0,0
119,-552,0,0,0,0,0,0,0,0,0,-1,1343,1576,0,0
126,-552,0,0,0,0,0,0,0,0,0,-1,1350,1576,0,0
133,-552,0,0,0,0,0,0,0,0,0,-1,1357,1576,0,0
140,-552,0,0,0,0,0,0,0,0,0,-1,1364,1576,0,0
147,-552,0,0,0,0,0,0,0,0,0,-1,1371,1576,0,0
154,-552,0,0,0,0,0,0,0,0,0,-1,1378,1576,0,0
161,-552,0,0,0,0,0,0,0,0,0,-1,1385,1576,0,0
168,-552,0,0,0,0,0,0,0,0,0,-1,1392,1576,0,0
175,-552,0,0,0,0,0,0,0,0,0,-1,1399,1576,0,0
182,-552,0,0,0,0,0,0,0,0,0,-1,1406,1576,0,0
189,-552,0,0,0,0,0,0,0,0,0,-1,1413,1576,0,0
196,-552,0,0,0,0,0,0,0,0,0,-1,1420,1576,0,0
203,-552,0,0,0,0,0,0,0,0,0,-1,1427,1576,0,0
210,-552,0,0,0,0,0,0,0,0,0,-1,1434,1576,0,0
217,-552,0,0,0,0,0,0,0,0,0,-1,1441,1576,0,0
224,-552,0,0,0,0,0,0,0,0,0,-1,1448,1576,0,0
231,-552,0,0,0,0,0,0,0,0,0,-1,1455,1576,0,0
238,-552,0,0,0,0,0,0,0,0,0,-1,1462,1576,0,0
245,-552,0,0,0,0,0,0,0,0,0,-1,1469,1576,0,0
252,-552,0,0,0,0,0,0,0,0,0,-1,1476,1576,0,0
259,-552,0,0,0,0,0,0,0,0,0,-1,1483,1576,0,0
266,-552,0,0,0,0,0,0,0,0,0,-1,1490,1576,0,0
273,-552,0,0,0,0,0,0,0,0,0,-1,1497,1576,0,0
280,-552,0,0,0,0,0,0,0,0,0,-1,1504,1576,0,0
287,-552,0,0,0,0,0,0,0,0,0,-1,1511,1576,0,0
294,-552,0,0,0,0,0,0,0,0,0,-1,1518,1576,0,0
301,-552,0,0,0,0,0,0,0,0,0,-1,1525,1576,0,0
308,-552,0,0,0,0,0,0,0,0,0,-1,1532,1576,0,0
315,-552,0,0,0,0,0,0,0,0,0,-1,1539,1576,0,0
322,-552,0,0,0,0,0,0,0,0,0,-1,1546,1576,0,0
329,-552,0,0,0,0,0,0,0,0,0,-1,1553,1576,0,0
336,-552,0,0,0,0,0,0,0,0,0,-1,1560,1576,0,0
343,-552,0,0,0,0,0,0,0,0,0,-1,1567,1576,0,0
350,-552,4.97876,4.09888,0,0,0,0,0,0,0,-1,1574,1576,4.97875,-4.09883
357,-552,5.18469,4.10706,0,0,0,0,0,0,0,-1,1581,1576,5.1847,-4.10702
364,-552,5.80872,5.07031,0,0,0,0,0,0,0,-1,1588,1576,5.80874,-5.07037
371,-552,7.10657,5.64783,0,0,0,0,0,0,0,-1,1595,1576,7.10651,-5.64786
378,-552,6.44446,4.91492,0,0,0,0,0,0,0,-1,1602,1576,6.44448,-4.91496
385,-552,12.8276,3.16504,0,0,0,0,0,0,0,-1,1609,1576,12.8276,-3.16503
392,-552,12.1301,4.3363,0,0,0,0,0,0,0,-1,1616,1576,12.1302,-4.33631
399,-552,11.3486,5.6012,0,0,0,0,0,0,0,-1,1623,1576,11.3486,-5.60115
406,-552,10.7863,6.42542,0,0,0,0,0,0,0,-1,1630,1576,10.7863,-6.42536
413,-552,8.39307,10.365,0,0,0,0,0,0,0,-1,1637,1576,8.3931,-10.365
420,-552,10.2306,12.7225,0,0,0,0,0,0,0,-1,1644,1576,10.2305,-12.7226
427,-552,9.73267,14.783,0,0,0,0,0,0,0,-1,1651,1576,9.73269,-14.783
434,-552,12.0377,20.1364,0,0,0,0,0,0,0,-1,1658,1576,12.0377,-20.1364
441,-552,12.4963,21.5277,0,0,0,0,0,0,0,-1,1665,1576,12.4964,-21.5277
448,-552,12.9141,21.5482,0,0,0,0,0,0,0,-1,1672,1576,12.9141,-21.5482
455,-552,13.3318,21.5687,0,0,0,0,0,0,0,-1,1679,1576,13.3317,-21.5687
462,-552,12.745,20.5947,0,0,0,0,0,0,0,-1,1686,1576,12.745,-20.5947
469,-552,16.7828,28.1183,0,0,0,0,0,0,0,-1,1693,1576,16.7828,-28.1183
476,-552,17.2684,27.2656,0,0,0,0,0,0,0,-1,1700,1576,17.2684,-27.2656
483,-552,17.4453,26.5341,0.00819797,0.0125741,-0.00789997,0.0185834,0.00218865,-0.920498,0.0117277,0.0346863,1707,1576,17.4453,-26.534
490,-552,17.3906,26.0984,0.00687492,0.00948105,-0.00615929,0.0144736,0.00188236,-0.889642,0.00908684,0.0153451,1714,1576,17.3906,-26.0984
497,-552,17.4827,25.6365,0.00559155,0.0071226,-0.00473261,0.0111512,0.00156295,-0.865582,0.00697179,0.0224912,1721,1576,17.4827,-25.6365
504,-552,17.4635,25.1675,0.00443928,0.00503333,-0.00363265,0.00838108,0.00109153,-0.82619,0.00526142,0.0239172,1728,1576,17.4634,-25.1674
511,-552,17.3839,24.6344,0.0032375,0.0034495,-0.0026092,0.00595485,0.000732153,-0.8057,0.00374975,0.0181007,1735,1576,17.3839,-24.6343
518,-552,17.3715,24.1394,0.00200705,0.00189882,-0.00154145,0.00349533,0.000410539,-0.767851,0.00220614,0.0157034,1742,1576,17.3715,-24.1394
525,-552,17.3221,23.667,0.000797551,0.000527384,-0.000492993,0.00117363,0.000151303,-0.651677,0.000737181,0.014695,1749,1576,17.3222,-23.667
532,-552,17.3121,23.1797,-0.000295526,-0.00068494,0.000549533,9.27743e-05,-0.00107324,0.615142,0.000748338,0.0147822,1756,1576,17.3121,-23.1797
539,-552,17.2784,22.692,-0.00133988,-0.00183935,0.00168508,0.000113872,-0.0032931,0.711832,0.00223432,0.0188159,1763,1576,17.2785,-22.692
546,-552,17.2406,22.1804,-0.00247487,-0.00309711,0.00302736,0.000257315,-0.00582929,0.734193,0.00397474,0.0235119,1770,1576,17.2406,-22.1804
553,-552,17.2715,21.6443,-0.00353658,-0.00433149,0.00448032,0.000563885,-0.00843195,0.741158,0.00581838,0.0274585,1777,1576,17.2714,-21.6442
560,-552,17.2389,21.2333,-0.00443326,-0.00542619,0.00591147,0.00100255,-0.010862,0.743505,0.0075976,0.0419429,1784,1576,17.2389,-21.2332
567,-552,17.2552,20.496,0,0,0,0,0,0,0,-1,1791,1576,17.2553,-20.496
574,-552,12.8835,14.8463,0,0,0,0,0,0,0,-1,1798,1576,12.8836,-14.8463
581,-552,9.74841,9.98645,0,0,0,0,0,0,0,-1,1805,1576,9.74847,-9.9864
588,-552,10.5619,9.34924,0,0,0,0,0,0,0,-1,1812,1576,10.5619,-9.34921
595,-552,5.36194,6.62744,0,0,0,0,0,0,0,-1,1819,1576,5.36193,-6.62742
602,-552,10.6863,4.31616,0,0,0,0,0,0,0,-1,1826,1576,10.6862,-4.31619
609,-552,12.146,3.18286,0,0,0,0,0,0,0,-1,1833,1576,12.1459,-3.18281
616,-552,13.8762,2.08167,0,0,0,0,0,0,0,-1,1840,1576,13.8763,-2.08167
623,-552,0,0,0,0,0,0,0,0,0,-1,1847,1576,0,0
630,-552,0,0,0,0,0,0,0,0,0,-1,1854,1576,0,0
637,-552,0,0,0,0,0,0,0,0,0,-1,1861,1576,0,0
644,-552,0,0,0,0,0,0,0,0,0,-1,1868,1576,0,0
651,-552,0,0,0,0,0,0,0,0,0,-1,1875,1576,0,0
658,-552,0,0,0,0,0,0,0,0,0,-1,1882,1576,0,0
665,-552,0,0,0,0,0,0,0,0,0,-1,1889,1576,0,0
672,-552,0,0,0,0,0,0,0,0,0,-1,1896,1576,0,0
679,-552,0,0,0,0,0,0,0,0,0,-1,1903,1576,0,0
686,-552,0,0,0,0,0,0,0,0,0,-1,1910,1576,0,0
693,-552,0,0,0,0,0,0,0,0,0,-1,1917,1576,0,0
700,-552,0,0,0,0,0,0,0,0,0,-1,1924,1576,0,0
707,-552,0,0,0,0,0,0,0,0,0,-1,1931,1576,0,0
714,-552,0,0,0,0,0,0,0,0,0,-1,1938,1576,0,0
721,-552,0,0,0,0,0,0,0,0,0,-1,1945,1576,0,0
728,-552,0,0,0,0,0,0,0,0,0,-1,1952,1576,0,0
735,-552,0,0,0,0,0,0,0,0,0,-1,1959,1576,0,0
742,-552,0,0,0,0,0,0,0,0,0,-1,1966,1576,0,0
749,-552,0,0,0,0,0,0,0,0,0,-1,1973,1576,0,0
756,-552,0,0,0,0,0,0,0,0,0,-1,1980,1576,0,0
763,-552,0,0,0,0,0,0,0,0,0,-1,1987,1576,0,0
770,-552,0,0,0,0,0,0,0,0,0,-1,1994,1576,0,0
777,-552,0,0,0,0,0,0,0,0,0,-1,2001,1576,0,0
784,-552,0,0,0,0,0,0,0,0,0,-1,2008,1576,0,0
791,-552,0,0,0,0,0,0,0,0,0,-1,2015,1576,0,0
798,-552,0,0,0,0,0,0,0,0,0,-1,2022,1576,0,0
805,-552,0,0,0,0,0,0,0,0,0,-1,2029,1576,0,0
812,-552,0,0,0,0,0,0,0,0,0,-1,2036,1576,0,0
-700,-559,0,0,0,0,0,0,0,0,0,-1,524,1583,0,0
-693,-559,0,0,0,0,0,0,0,0,0,-1,531,1583,0,0
-686,-559,0,0,0,0,0,0,0,0,0,-1,538,1583,0,0
-679,-559,0,0,0,0,0,0,0,0,0,-1,545,1583,0,0
-672,-559,0,0,0,0,0,0,0,0,0,-1,552,1583,0,0
-665,-559,0,0,0,0,0,0,0,0,0,-1,559,1583,0,0
-658,-559,0,0,0,0,0,0,0,0,0,-1,566,1583,0,0
-651,-559,0,0,0,0,0,0,0,0,0,-1,573,1583,0,0
-644,-559,0,0,0,0,0,0,0,0,0,-1,580,1583,0,0
-637,-559,0,0,0,0,0,0,0,0,0,-1,587,1583,0,0
-630,-559,0,0,0,0,0,0,0,0,0,-1,594,1583,0,0
-623,-559,0,0,0,0,0,0,0,0,0,-1,601,1583,0,0
-616,-559,0,0,0,0,0,0,0,0,0,-1,608,1583,0,0
-609,-559,0,0,0,0,0,0,0,0,0,-1,615,1583,0,0
-602,-559,0,0,0,0,0,0,0,0,0,-1,622,1583,0,0
-595,-559,0,0,0,0,0,0,0,0,0,-1,629,1583,0,0
-588,-559,0,0,0,0,0,0,0,0,0,-1,636,1583,0,0
-581,-559,0,0,0,0,0,0,0,0,0,-1,643,1583,0,0
-574,-559,0,0,0,0,0,0,0,0,0,-1,650,1583,0,0
-567,-559,0,0,0,0,0,0,0,0,0,-1,657,1583,0,0
-560,-559,0,0,0,0,0,0,0,0,0,-1,664,1583,0,0
-553,-559,0,0,0,0,0,0,0,0,0,-1,671,1583,0,0
-546,-559,0,0,0,0,0,0,0,0,0,-1,678,1583,0,0
-539,-559,0,0,0,0,0,0,0,0,0,-1,685,1583,0,0
-532,-559,0,0,0,0,0,0,0,0,0,-1,692,1583,0,0
-525,-559,0,0,0,0,0,0,0,0,0,-1,699,1583,0,0
-518,-559,0,0,0,0,0,0,0,0,0,-1,706,1583,0,0
-511,-559,0,0,0,0,0,0,0,0,0,-1,713,1583,0,0
-504,-559,0,0,0,0,0,0,0,0,0,-1,720,1583,0,0
-497,-559,0,0,0,0,0,0,0,0,0,-1,727,1583,0,0
-490,-559,-5.49835,4.47424,0,0,0,0,0,0,0,-1,734,1583,-5.49833,-4.4743
-483,-559,-5.24078,4.74561,0,0,0,0,0,0,0,-1,741,1583,-5.24079,-4.74563
-476,-559,-4.98022,4.99316,0,0,0,0,0,0,0,-1,748,1583,-4.98024,-4.99321
-469,-559,-4.6424,5.38062,0,0,0,0,0,0,0,-1,755,1583,-4.64237,-5.38058
-462,-559,-0.161865,6.49438,0,0,0,0,0,0,0,-1,762,1583,-0.161835,-6.49444
-455,-559,1.08826,7.02527,0,0,0,0,0,0,0,-1,769,1583,1.08823,-7.02529
-448,-559,-1.20264,17.3962,0,0,0,0,0,0,0,-1,776,1583,-1.20264,-17.3963
-441,-559,-1.08313,18.8074,0,0,0,0,0,0,0,-1,783,1583,-1.08315,-18.8074
-434,-559,0.110046,19.3787,0,0,0,0,0,0,0,-1,790,1583,0.110017,-19.3786
-427,-559,-0.541382,19.7817,0,0,0,0,0,0,0,-1,797,1583,-0.541403,-19.7817
-420,-559,-0.550842,20.4614,0,0,0,0,0,0,0,-1,804,1583,-0.550846,-20.4614
-413,-559,-0.583862,21.0835,0.00142008,0.00372526,0.00564052,0.00832974,-0.0031844,0.886181,0.00686538,0.0166856,811,1583,-0.583858,-21.0835
-406,-559,-0.587585,21.634,0.00072531,0.00251439,0.00387187,0.00559371,-0.00235401,0.898924,0.00471398,0.0100309,818,1583,-0.587569,-21.634
-399,-559,-0.603882,22.1669,0.000136442,0.00158254,0.00262006,0.00357748,-0.00185851,0.92003,0.00319035,0.0135338,825,1583,-0.603872,-22.1668
-392,-559,-0.628113,22.6805,0.000111248,0.00107946,0.00157618,0.0022442,-0.0010535,0.934394,0.00194486,0.0177518,832,1583,-0.628136,-22.6805
-385,-559,-0.660522,23.2122,0.00057291,0.00170667,0.00119632,0.00246362,-0.000184041,1.00665,0.00170707,0.0174205,839,1583,-0.660548,-23.2122
-378,-559,-0.678101,23.7134,0.0012375,0.00262892,0.0013722,0.0034717,0.000394722,1.02002,0.00219475,0.0152504,846,1583,-0.678109,-23.7133
-371,-559,-0.71167,24.266,0.00183251,0.00354328,0.00158335,0.00448753,0.000888259,1.03306,0.00274395,0.0223135,853,1583,-0.711687,-24.266
-364,-559,-0.71344,24.7823,0.00255519,0.00467094,0.00181091,0.00571033,0.0015158,1.04975,0.00341564,0.0199354,860,1583,-0.713435,-24.7824
-357,-559,-0.714233,25.2551,0.00335018,0.00597935,0.00209138,0.00713498,0.00219455,1.06598,0.00421985,0.0124357,867,1583,-0.714236,-25.2551
-350,-559,-0.714844,25.7555,0.00426458,0.007331,0.00243752,0.00867742,0.00291817,1.06613,0.00509863,0.0104399,874,1583,-0.714843,-25.7555
-343,-559,-0.719604,26.2766,0.00520589,0.00888031,0.00290761,0.0104825,0.00360369,1.06716,0.00614976,0.0111343,881,1583,-0.719587,-26.2766
-336,-559,-0.786621,26.7456,0.00613941,0.0104752,0.00335179,0.0122991,0.00431552,1.07245,0.00720536,0.0229251,888,1583,-0.786609,-26.7456
-329,-559,-0.688721,27.4706,0.00718856,0.0121243,0.0040277,0.0143801,0.00493279,1.06026,0.00843762,0.0398933,895,1583,-0.68875,-27.4706
-322,-559,-0.54541,28.3636,0,0,0,0,0,0,0,-1,902,1583,-0.545437,-28.3636
-315,-559,-0.776428,28.7688,0,0,0,0,0,0,0,-1,909,1583,-0.776405,-28.7688
-308,-559,-1.20178,30.1219,0,0,0,0,0,0,0,-1,916,1583,-1.20179,-30.1219
-301,-559,-1.22174,31.0372,0,0,0,0,0,0,0,-1,923,1583,-1.22176,-31.0372
-294,-559,0.945129,18.5165,0,0,0,0,0,0,0,-1,930,1583,0.945117,-18.5165
-287,-559,-0.11792,15.4912,0,0,0,0,0,0,0,-1,937,1583,-0.117939,-15.4912
-280,-559,0.191467,13.5093,0,0,0,0,0,0,0,-1,944,1583,0.191441,-13.5093
-273,-559,2.12836,10.3059,0,0,0,0,0,0,0,-1,951,1583,2.12839,-10.3059
-266,-559,-0.597046,6.68933,0,0,0,0,0,0,0,-1,958,1583,-0.597031,-6.68937
-259,-559,-7.00311,8.62756,0,0,0,0,0,0,0,-1,965,1583,-7.00312,-8.6275
-252,-559,-9.4483,2.87805,0,0,0,0,0,0,0,-1,972,1583,-9.44829,-2.87805
-245,-559,-4.80804,7.1803,0,0,0,0,0,0,0,-1,979,1583,-4.80804,-7.18027
-238,-559,-8.45764,2.54858,0,0,0,0,0,0,0,-1,986,1583,-8.45763,-2.54862
-231,-559,-5.86914,4.34021,0,0,0,0,0,0,0,-1,993,1583,-5.86914,-4.34019
-224,-559,-3.30505,6.22864,0,0,0,0,0,0,0,-1,1000,1583,-3.30505,-6.22859
-217,-559,0,0,0,0,0,0,0,0,0,-1,1007,1583,0,0
-210,-559,0,0,0,0,0,0,0,0,0,-1,1014,1583,0,0
-203,-559,0,0,0,0,0,0,0,0,0,-1,1021,1583,0,0
-196,-559,0,0,0,0,0,0,0,0,0,-1,1028,1583,0,0
-189,-559,0,0,0,0,0,0,0,0,0,-1,1035,1583,0,0
-182,-559,0,0,0,0,0,0,0,0,0,-1,1042,1583,0,0
-175,-559,0,0,0,0,0,0,0,0,0,-1,1049,1583,0,0
-168,-559,0,0,0,0,0,0,0,0,0,-1,1056,1583,0,0
-161,-559,0,0,0,0,0,0,0,0,0,-1,1063,1583,0,0
-154,-559,0,0,0,0,0,0,0,0,0,-1,1070,1583,0,0
-147,-559,0,0,0,0,0,0,0,0,0,-1,1077,1583,0,0
-140,-559,0,0,0,0,0,0,0,0,0,-1,1084,1583,0,0
-133,-559,0,0,0,0,0,0,0,0,0,-1,1091,1583,0,0
-126,-559,0,0,0,0,0,0,0,0,0,-1,1098,1583,0,0
-119,-559,0,0,0,0,0,0,0,0,0,-1,1105,1583,0,0
-112,-559,0,0,0,0,0,0,0,0,0,-1,1112,1583,0,0
-105,-559,0,0,0,0,0,0,0,0,0,-1,1119,1583,0,0
-98,-559,0,0,0,0,0,0,0,0,0,-1,1126,1583,0,0
-91,-559,0,0,0,0,0,0,0,0,0,-1,1133,1583,0,0
-84,-559,0,0,0,0,0,0,0,0,0,-1,1140,1583,0,0
-77,-559,0,0,0,0,0,0,0,0,0,-1,1147,1583,0,0
-70,-559,0,0,0,0,0,0,0,0,0,-1,1154,1583,0,0
-63,-559,0,0,0,0,0,0,0,0,0,-1,1161,1583,0,0
-56,-559,0,0,0,0,0,0,0,0,0,-1,1168,1583,0,0
-49,-559,0,0,0,0,0,0,0,0,0,-1,1175,1583,0,0
-42,-559,0,0,0,0,0,0,0,0,0,-1,1182,1583,0,0
-35,-559,0,0,0,0,0,0,0,0,0,-1,1189,1583,0,0
-28,-559,0,0,0,0,0,0,0,0,0,-1,1196,1583,0,0
-21,-559,0,0,0,0,0,0,0,0,0,-1,1203,1583,0,0
-14,-559,0,0,0,0,0,0,0,0,0,-1,1210,1583,0,0
-7,-559,0,0,0,0,0,0,0,0,0,-1,1217,1583,0,0
0,-559,0,0,0,0,0,0,0,0,0,-1,1224,1583,0,0
7,-559,0,0,0,0,0,0,0,0,0,-1,1231,1583,0,0
14,-559,0,0,0,0,0,0,0,0,0,-1,1238,1583,0,0
21,-559,0,0,0,0,0,0,0,0,0,-1,1245,1583,0,0
28,-559,0,0,0,0,0,0,0,0,0,-1,1252,1583,0,0
35,-559,0,0,0,0,0,0,0,0,0,-1,1259,1583,0,0
42,-559,0,0,0,0,0,0,0,0,0,-1,1266,1583,0,0
49,-559,0,0,0,0,0,0,0,0,0,-1,1273,1583,0,0
56,-559,0,0,0,0,0,0,0,0,0,-1,1280,1583,0,0
63,-559,0,0,0,0,0,0,0,0,0,-1,1287,1583,0,0
70,-559,0,0,0,0,0,0,0,0,0,-1,1294,1583,0,0
77,-559,0,0,0,0,0,0,0,0,0,-1,1301,1583,0,0
84,-559,0,0,0,0,0,0,0,0,0,-1,1308,1583,0,0
91,-559,0,0,0,0,0,0,0,0,0,-1,1315,1583,0,0
98,-559,0,0,0,0,0,0,0,0,0,-1,1322,1583,0,0
105,-559,0,0,0,0,0,0,0,0,0,-1,1329,1583,0,0
112,-559,0,0,0,0,0,0,0,0,0,-1,1336,1583,0,0
119,-559,0,0,0,0,0,0,0,0,0,-1,1343,1583,0,0
126,-559,0,0,0,0,0,0,0,0,0,-1,1350,1583,0,0
133,-559,0,0,0,0,0,0,0,0,0,-1,1357,1583,0,0
140,-559,0,0,0,0,0,0,0,0,0,-1,1364,1583,0,0
147,-559,0,0,0,0,0,0,0,0,0,-1,1371,1583,0,0
154,-559,0,0,0,0,0,0,0,0,0,-1,1378,1583,0,0
161,-559,0,0,0,0,0,0,0,0,0,-1,1385,1583,0,0
168,-559,0,0,0,0,0,0,0,0,0,-1,1392,1583,0,0
175,-559,0,0,0,0,0,0,0,0,0,-1,1399,1583,0,0
182,-559,0,0,0,0,0,0,0,0,0,-1,1406,1583,0,0
189,-559,0,0,0,0,0,0,0,0,0,-1,1413,1583,0,0
196,-559,0,0,0,0,0,0,0,0,0,-1,1420,1583,0,0
203,-559,0,0,0,0,0,0,0,0,0,-1,1427,1583,0,0
210,-559,0,0,0,0,0,0,0,0,0,-1,1434,1583,0,0
217,-559,0,0,0,0,0,0,0,0,0,-1,1441,1583,0,0
224,-559,0,0,0,0,0,0,0,0,0,-1,1448,1583,0,0
231,-559,0,0,0,0,0,0,0,0,0,-1,1455,1583,0,0
238,-559,0,0,0,0,0,0,0,0,0,-1,1462,1583,0,0
245,-559,0,0,0,0,0,0,0,0,0,-1,1469,1583,0,0
252,-559,0,0,0,0,0,0,0,0,0,-1,1476,1583,0,0
259,-559,0,0,0,0,0,0,0,0,0,-1,1483,1583,0,0
266,-559,0,0,0,0,0,0,0,0,0,-1,1490,1583,0,0
273,-559,0,0,0,0,0,0,0,0,0,-1,1497,1583,0,0
280,-559,0,0,0,0,0,0,0,0,0,-1,1504,1583,0,0
287,-559,0,0,0,0,0,0,0,0,0,-1,1511,1583,0,0
294,-559,0,0,0,0,0,0,0,0,0,-1,1518,1583,0,0
301,-559,0,0,0,0,0,0,0,0,0,-1,1525,1583,0,0
308,-559,0,0,0,0,0,0,0,0,0,-1,1532,1583,0,0
315,-559,0,0,0,0,0,0,0,0,0,-1,1539,1583,0,0
322,-559,0,0,0,0,0,0,0,0,0,-1,1546,1583,0,0
329,-559,0,0,0,0,0,0,0,0,0,-1,1553,1583,0,0
336,-559,5.97668,3.09827,0,0,0,0,0,0,0,-1,1560,1583,5.97667,-3.09824
343,-559,5.44824,2.88696,0,0,0,0,0,0,0,-1,1567,1583,5.44819,-2.88693
350,-559,4.69775,3.27051,0,0,0,0,0,0,0,-1,1574,1583,4.69771,-3.27048
357,-559,3.88025,3.60999,0,0,0,0,0,0,0,-1,1581,1583,3.88027,-3.60998
364,-559,5.00928,5.32605,0,0,0,0,0,0,0,-1,1588,1583,5.00928,-5.32607
371,-559,1.84436,2.52441,0,0,0,0,0,0,0,-1,1595,1583,1.84441,-2.52447
378,-559,6.34753,1.53137,0,0,0,0,0,0,0,-1,1602,1583,6.34752,-1.53139
385,-559,6.95911,1.48181,0,0,0,0,0,0,0,-1,1609,1583,6.95916,-1.48175
392,-559,11.6949,4.77734,0,0,0,0,0,0,0,-1,1616,1583,11.6949,-4.77731
399,-559,11.1104,5.56909,0,0,0,0,0,0,0,-1,1623,1583,11.1103,-5.56905
406,-559,10.3385,6.48657,0,0,0,0,0,0,0,-1,1630,1583,10.3385,-6.48661
413,-559,9.76147,6.97571,0,0,0,0,0,0,0,-1,1637,1583,9.76143,-6.97574
420,-559,7.77124,10.5851,0,0,0,0,0,0,0,-1,1644,1583,7.77128,-10.585
427,-559,10.1022,12.5565,0,0,0,0,0,0,0,-1,1651,1583,10.1021,-12.5565
434,-559,9.62769,14.6309,0,0,0,0,0,0,0,-1,1658,1583,9.62771,-14.6309
441,-559,12.6149,21.3678,0,0,0,0,0,0,0,-1,1665,1583,12.6149,-21.3678
448,-559,13.7046,22.6677,0,0,0,0,0,0,0,-1,1672,1583,13.7046,-22.6677
455,-559,13.9427,23.0509,0,0,0,0,0,0,0,-1,1679,1583,13.9427,-23.0509
462,-559,16.4691,28.6599,0,0,0,0,0,0,0,-1,1686,1583,16.4692,-28.66
469,-559,16.6763,27.8431,0.00747607,0.0160812,-0.00852204,0.0213252,0.00223206,-1.01917,0.0135343,0.0474407,1693,1583,16.6762,-27.8432
476,-559,16.8706,27.1271,0.00697177,0.0129797,-0.00726521,0.0178375,0.00211398,-0.981431,0.0112534,0.0217376,1700,1583,16.8706,-27.1271
483,-559,16.9443,26.5612,0.00635556,0.0102186,-0.00615331,0.0147364,0.00183774,-0.937477,0.0092726,0.0136127,1707,1583,16.9443,-26.5612
490,-559,16.9392,26.0941,0.00533878,0.00754778,-0.00478524,0.0113543,0.00153222,-0.898819,0.00711403,0.0155875,1714,1583,16.9392,-26.0941
497,-559,16.9889,25.6636,0.00424394,0.00545478,-0.00361101,0.00851077,0.00118795,-0.868455,0.00532224,0.0184934,1721,1583,16.9889,-25.6635
504,-559,16.9395,25.177,0.00317865,0.00353401,-0.00259557,0.00595798,0.000754685,-0.819572,0.00374585,0.0236414,1728,1583,16.9395,-25.177
511,-559,16.8647,24.6472,0.00203125,0.00202251,-0.00158579,0.00361267,0.000441089,-0.78402,0.00227571,0.0223547,1735,1583,16.8648,-24.6472
518,-559,16.9006,24.1731,0.000904593,0.000568802,-0.000602877,0.00136252,0.000110878,-0.649594,0.000873733,0.0147927,1742,1583,16.9006,-24.173
525,-559,16.8547,23.6982,-0.000216664,-0.000734661,0.000394359,-3.85777e-06,-0.000947467,0.494843,0.000630363,0.0130015,1749,1583,16.8548,-23.6983
532,-559,16.8251,23.1968,-0.00127928,-0.00195082,0.00145398,-0.000122799,-0.0031073,0.671922,0.00203184,0.0138889,1756,1583,16.8251,-23.1968
539,-559,16.8054,22.7052,-0.00239766,-0.00318222,0.00270151,-6.01024e-05,-0.00551978,0.713299,0.00365998,0.0185863,1763,1583,16.8054,-22.7051
546,-559,16.7495,22.2158,-0.0036901,-0.00457542,0.00426202,0.000152189,-0.00841771,0.733654,0.00566322,0.0169904,1770,1583,16.7496,-22.2158
553,-559,16.812,21.6572,-0.00498808,-0.00600862,0.00604421,0.000567365,-0.0115641,0.743287,0.00790529,0.0211418,1777,1583,16.812,-21.6572
560,-559,16.7631,21.3036,-0.00626929,-0.00737764,0.00792501,0.00112089,-0.0147678,0.750491,0.0102393,0.0375512,1784,1583,16.763,-21.3036
567,-559,16.6672,20.7944,0,0,0,0,0,0,0,-1,1791,1583,16.6673,-20.7944
574,-559,10.5109,10.7317,0,0,0,0,0,0,0,-1,1798,1583,10.5108,-10.7317
581,-559,5.97095,5.96179,0,0,0,0,0,0,0,-1,1805,1583,5.97093,-5.96181
588,-559,5.79102,5.89954,0,0,0,0,0,0,0,-1,1812,1583,5.79098,-5.89949
595,-559,5.79089,6.24231,0,0,0,0,0,0,0,-1,1819,1583,5.7909,-6.24227
602,-559,12.478,2.35669,0,0,0,0,0,0,0,-1,1826,1583,12.4781,-2.35675
609,-559,14.0479,1.22681,0,0,0,0,0,0,0,-1,1833,1583,14.0479,-1.22681
616,-559,0,0,0,0,0,0,0,0,0,-1,1840,1583,0,0
623,-559,0,0,0,0,0,0,0,0,0,-1,1847,1583,0,0
630,-559,0,0,0,0,0,0,0,0,0,-1,1854,1583,0,0
637,-559,0,0,0,0,0,0,0,0,0,-1,1861,1583,0,0
644,-559,0,0,0,0,0,0,0,0,0,-1,1868,1583,0,0
651,-559,0,0,0,0,0,0,0,0,0,-1,1875,1583,0,0
658,-559,0,0,0,0,0,0,0,0,0,-1,1882,1583,0,0
665,-559,0,0,0,0,0,0,0,0,0,-1,1889,1583,0,0
672,-559,0,0,0,0,0,0,0,0,0,-1,1896,1583,0,0
679,-559,0,0,0,0,0,0,0,0,0,-1,1903,1583,0,0
686,-559,0,0,0,0,0,0,0,0,0,-1,1910,1583,0,0
693,-559,0,0,0,0,0,0,0,0,0,-1,1917,1583,0,0
700,-559,0,0,0,0,0,0,0,0,0,-1,1924,1583,0,0
707,-559,0,0,0,0,0,0,0,0,0,-1,1931,1583,0,0
714,-559,0,0,0,0,0,0,0,0,0,-1,1938,1583,0,0
721,-559,0,0,0,0,0,0,0,0,0,-1,1945,1583,0,0
728,-559,0,0,0,0,0,0,0,0,0,-1,1952,1583,0,0
735,-559,0,0,0,0,0,0,0,0,0,-1,1959,1583,0,0
742,-559,0,0,0,0,0,0,0,0,0,-1,1966,1583,0,0
749,-559,0,0,0,0,0,0,0,0,0,-1,1973,1583,0,0
756,-559,0,0,0,0,0,0,0,0,0,-1,1980,1583,0,0
763,-559,0,0,0,0,0,0,0,0,0,-1,1987,1583,0,0
770,-559,0,0,0,0,0,0,0,0,0,-1,1994,1583,0,0
777,-559,0,0,0,0,0,0,0,0,0,-1,2001,1583,0,0
784,-559,0,0,0,0,0,0,0,0,0,-1,2008,1583,0,0
791,-559,0,0,0,0,0,0,0,0,0,-1,2015,1583,0,0
798,-559,0,0,0,0,0,0,0,0,0,-1,2022,1583,0,0
805,-559,0,0,0,0,0,0,0,0,0,-1,2029,1583,0,0
812,-559,0,0,0,0,0,0,0,0,0,-1,2036,1583,0,0
-700,-566,0,0,0,0,0,0,0,0,0,-1,524,1590,0,0
-693,-566,0,0,0,0,0,0,0,0,0,-1,531,1590,0,0
-686,-566,0,0,0,0,0,0,0,0,0,-1,538,1590,0,0
-679,-566,0,0,0,0,0,0,0,0,0,-1,545,1590,0,0
-672,-566,0,0,0,0,0,0,0,0,0,-1,552,1590,0,0
-665,-566,0,0,0,0,0,0,0,0,0,-1,559,1590,0,0
-658,-566,0,0,0,0,0,0,0,0,0,-1,566,1590,0,0
-651,-566,0,0,0,0,0,0,0,0,0,-1,573,1590,0,0
-644,-566,0,0,0,0,0,0,0,0,0,-1,580,1590,0,0
-637,-566,0,0,0,0,0,0,0,0,0,-1,587,1590,0,0
-630,-566,0,0,0,0,0,0,0,0,0,-1,594,1590,0,0
-623,-566,0,0,0,0,0,0,0,0,0,-1,601,1590,0,0
-616,-566,0,0,0,0,0,0,0,0,0,-1,608,1590,0,0
-609,-566,0,0,0,0,0,0,0,0,0,-1,615,1590,0,0
-602,-566,0,0,0,0,0,0,0,0,0,-1,622,1590,0,0
-595,-566,0,0,0,0,0,0,0,0,0,-1,629,1590,0,0
-588,-566,0,0,0,0,0,0,0,0,0,-1,636,1590,0,0
-581,-566,0,0,0,0,0,0,0,0,0,-1,643,1590,0,0
-574,-566,0,0,0,0,0,0,0,0,0,-1,650,1590,0,0
-567,-566,0,0,0,0,0,0,0,0,0,-1,657,1590,0,0
-560,-566,0,0,0,0,0,0,0,0,0,-1,664,1590,0,0
-553,-566,0,0,0,0,0,0,0,0,0,-1,671,1590,0,0
-546,-566,0,0,0,0,0,0,0,0,0,-1,678,1590,0,0
-539,-566,0,0,0,0,0,0,0,0,0,-1,685,1590,0,0
-532,-566,0,0,0,0,0,0,0,0,0,-1,692,1590,0,0
-525,-566,0,0,0,0,0,0,0,0,0,-1,699,1590,0,0
-518,-566,0,0,0,0,0,0,0,0,0,-1,706,1590,0,0
-511,-566,0,0,0,0,0,0,0,0,0,-1,713,1590,0,0
-504,-566,0,0,0,0,0,0,0,0,0,-1,720,1590,0,0
-497,-566,0,0,0,0,0,0,0,0,0,-1,727,1590,0,0
-490,-566,0,0,0,0,0,0,0,0,0,-1,734,1590,0,0
-483,-566,-7.17084,2.78613,0,0,0,0,0,0,0,-1,741,1590,-7.17083,-2.78618
-476,-566,-7.13971,2.87183,0,0,0,0,0,0,0,-1,748,1590,-7.13971,-2.87184
-469,-566,-6.43829,3.2998,0,0,0,0,0,0,0,-1,755,1590,-6.43829,-3.2998
-462,-566,-0.459106,3.89343,0,0,0,0,0,0,0,-1,762,1590,-0.459095,-3.89341
-455,-566,0.280212,4.74023,0,0,0,0,0,0,0,-1,769,1590,0.280207,-4.74023
-448,-566,0.436951,5.51306,0,0,0,0,0,0,0,-1,776,1590,0.436971,-5.51301
-441,-566,-0.440735,12.4063,0,0,0,0,0,0,0,-1,783,1590,-0.440753,-12.4062
-434,-566,0.804688,19.4529,0,0,0,0,0,0,0,-1,790,1590,0.804661,-19.4529
-427,-566,0.0337524,20.2399,0,0,0,0,0,0,0,-1,797,1590,0.0337306,-20.2399
-420,-566,-0.210938,20.4955,0,0,0,0,0,0,0,-1,804,1590,-0.210941,-20.4955
-413,-566,-0.0817871,21.1046,0.00140384,0.00448727,0.00691236,0.0100278,-0.00413665,0.895121,0.00841029,0.0276231,811,1590,-0.0817908,-21.1046
-406,-566,-0.0786743,21.6379,0.00044506,0.0026424,0.00454143,0.00621617,-0.0031287,0.904079,0.00549254,0.0124214,818,1590,-0.0786738,-21.6379
-399,-566,-0.104187,22.177,-0.000374242,0.00122357,0.00293291,0.00346444,-0.00261511,0.918369,0.00352143,0.0107652,825,1590,-0.104159,-22.177
-392,-566,-0.117981,22.6971,-0.000562882,0.000250368,0.00155198,0.00144811,-0.00176062,0.91352,0.00185549,0.0136357,832,1590,-0.118,-22.6971
-385,-566,-0.113525,23.2462,-0.00019418,0.000697541,0.00098388,0.00133187,-0.00082851,0.99814,0.00125853,0.0161695,839,1590,-0.113547,-23.2462
-378,-566,-0.135437,23.776,0.000390198,0.0013765,0.00104889,0.00204239,-0.000275693,1.00515,0.00146218,0.016224,846,1590,-0.13546,-23.776
-371,-566,-0.193054,24.3286,0.000930973,0.00208663,0.00117059,0.00281424,0.000203363,1.01466,0.00181218,0.0218853,853,1590,-0.193081,-24.3286
-364,-566,-0.21521,24.8317,0.00159368,0.00301972,0.00134245,0.00382675,0.000786647,1.02952,0.00233358,0.0226641,860,1590,-0.215191,-24.8317
-357,-566,-0.212036,25.2806,0.00231008,0.0041256,0.00156382,0.00502603,0.00140965,1.04837,0.00299356,0.0190434,867,1590,-0.212026,-25.2806
-350,-566,-0.223083,25.7714,0.00313782,0.005245,0.00184254,0.00631391,0.00206891,1.04512,0.00371681,0.0210267,874,1590,-0.22307,-25.7714
-343,-566,-0.196655,26.2798,0.00399206,0.00657451,0.00225532,0.00788208,0.00268449,1.04538,0.00462718,0.0257479,881,1590,-0.196634,-26.2798
-336,-566,-0.315186,26.7643,0.00487375,0.00791398,0.00267551,0.00947105,0.00331668,1.04374,0.00554933,0.0271248,888,1590,-0.315184,-26.7642
-329,-566,-0.247375,27.1658,0.00580124,0.00928911,0.00325125,0.0112346,0.00385574,1.03156,0.00659176,0.0243819,895,1590,-0.247347,-27.1658
-322,-566,-0.169128,27.8411,0.00681174,0.0107669,0.00406834,0.0133129,0.00426581,1.01163,0.00784968,0.0320301,902,1590,-0.169099,-27.8411
-315,-566,-0.430298,28.4512,0.00794509,0.0125503,0.00497621,0.0157308,0.00476455,1.00209,0.00931447,0.048375,909,1590,-0.430318,-28.4512
-308,-566,-0.3349,29.4086,0,0,0,0,0,0,0,-1,916,1590,-0.334899,-29.4085
-301,-566,0.0326538,30.3413,0,0,0,0,0,0,0,-1,923,1590,0.0326396,-30.3413
-294,-566,0.741455,25.3229,0,0,0,0,0,0,0,-1,930,1590,0.741475,-25.3229
-287,-566,1.25391,23.4589,0,0,0,0,0,0,0,-1,937,1590,1.2539,-23.4589
-280,-566,1.59406,17.8762,0,0,0,0,0,0,0,-1,944,1590,1.59405,-17.8762
-273,-566,0.49762,11.2427,0,0,0,0,0,0,0,-1,951,1590,0.497591,-11.2426
-266,-566,0.392151,6.90295,0,0,0,0,0,0,0,-1,958,1590,0.392151,-6.90294
-259,-566,0.343628,6.47437,0,0,0,0,0,0,0,-1,965,1590,0.34363,-6.47438
-252,-566,-7.68311,1.01343,0,0,0,0,0,0,0,-1,972,1590,-7.68308,-1.01348
-245,-566,-11.1835,1.97522,0,0,0,0,0,0,0,-1,979,1590,-11.1835,-1.97527
-238,-566,-10.4883,2.40491,0,0,0,0,0,0,0,-1,986,1590,-10.4883,-2.40487
-231,-566,-7.41827,4.22803,0,0,0,0,0,0,0,-1,993,1590,-7.41827,-4.22803
-224,-566,-4.67188,6.30859,0,0,0,0,0,0,0,-1,1000,1590,-4.67185,-6.30853
-217,-566,-2.82867,7.52527,0,0,0,0,0,0,0,-1,1007,1590,-2.82869,-7.52531
-210,-566,-1.03436,8.67737,0,0,0,0,0,0,0,-1,1014,1590,-1.03439,-8.67733
-203,-566,0,0,0,0,0,0,0,0,0,-1,1021,1590,0,0
-196,-566,0,0,0,0,0,0,0,0,0,-1,1028,1590,0,0
-189,-566,0,0,0,0,0,0,0,0,0,-1,1035,1590,0,0
-182,-566,0,0,0,0,0,0,0,0,0,-1,1042,1590,0,0
-175,-566,0,0,0,0,0,0,0,0,0,-1,1049,1590,0,0
-168,-566,0,0,0,0,0,0,0,0,0,-1,1056,1590,0,0
-161,-566,0,0,0,0,0,0,0,0,0,-1,1063,1590,0,0
-154,-566,0,0,0,0,0,0,0,0,0,-1,1070,1590,0,0
-147,-566,0,0,0,0,0,0,0,0,0,-1,1077,1590,0,0
-140,-566,0,0,0,0,0,0,0,0,0,-1,1084,1590,0,0
-133,-566,0,0,0,0,0,0,0,0,0,-1,1091,1590,0,0
-126,-566,0,0,0,0,0,0,0,0,0,-1,1098,1590,0,0
-119,-566,0,0,0,0,0,0,0,0,0,-1,1105,1590,0,0
-112,-566,0,0,0,0,0,0,0,0,0,-1,1112,1590,0,0
-105,-566,0,0,0,0,0,0,0,0,0,-1,1119,1590,0,0
-98,-566,0,0,0,0,0,0,0,0,0,-1,1126,1590,0,0
-91,-566,0,0,0,0,0,0,0,0,0,-1,1133,1590,0,0
-84,-566,0,0,0,0,0,0,0,0,0,-1,1140,1590,0,0
-77,-566,0,0,0,0,0,0,0,0,0,-1,1147,1590,0,0
-70,-566,0,0,0,0,0,0,0,0,0,-1,1154,1590,0,0
-63,-566,0,0,0,0,0,0,0,0,0,-1,1161,1590,0,0
-56,-566,0,0,0,0,0,0,0,0,0,-1,1168,1590,0,0
-49,-566,0,0,0,0,0,0,0,0,0,-1,1175,1590,0,0
-42,-566,0,0,0,0,0,0,0,0,0,-1,1182,1590,0,0
-35,-566,0,0,0,0,0,0,0,0,0,-1,1189,1590,0,0
-28,-566,0,0,0,0,0,0,0,0,0,-1,1196,1590,0,0
-21,-566,0,0,0,0,0,0,0,0,0,-1,1203,1590,0,0
-14,-566,0,0,0,0,0,0,0,0,0,-1,1210,1590,0,0
-7,-566,0,0,0,0,0,0,0,0,0,-1,1217,1590,0,0
0,-566,0,0,0,0,0,0,0,0,0,-1,1224,1590,0,0
7,-566,0,0,0,0,0,0,0,0,0,-1,1231,1590,0,0
14,-566,0,0,0,0,0,0,0,0,0,-1,1238,1590,0,0
21,-566,0,0,0,0,0,0,0,0,0,-1,1245,1590,0,0
28,-566,0,0,0,0,0,0,0,0,0,-1,1252,1590,0,0
35,-566,0,0,0,0,0,0,0,0,0,-1,1259,1590,0,0
42,-566,0,0,0,0,0,0,0,0,0,-1,1266,1590,0,0
49,-566,0,0,0,0,0,0,0,0,0,-1,1273,1590,0,0
56,-566,0,0,0,0,0,0,0,0,0,-1,1280,1590,0,0
63,-566,0,0,0,0,0,0,0,0,0,-1,1287,1590,0,0
70,-566,0,0,0,0,0,0,0,0,0,-1,1294,1590,0,0
77,-566,0,0,0,0,0,0,0,0,0,-1,1301,1590,0,0
84,-566,0,0,0,0,0,0,0,0,0,-1,1308,1590,0,0
91,-566,0,0,0,0,0,0,0,0,0,-1,1315,1590,0,0
98,-566,0,0,0,0,0,0,0,0,0,-1,1322,1590,0,0
105,-566,0,0,0,0,0,0,0,0,0,-1,1329,1590,0,0
112,-566,0,0,0,0,0,0,0,0,0,-1,1336,1590,0,0
119,-566,0,0,0,0,0,0,0,0,0,-1,1343,1590,0,0
126,-566,0,0,0,0,0,0,0,0,0,-1,1350,1590,0,0
133,-566,0,0,0,0,0,0,0,0,0,-1,1357,1590,0,0
140,-566,0,0,0,0,0,0,0,0,0,-1,1364,1590,0,0
147,-566,0,0,0,0,0,0,0,0,0,-1,1371,1590,0,0
154,-566,0,0,0,0,0,0,0,0,0,-1,1378,1590,0,0
161,-566,0,0,0,0,0,0,0,0,0,-1,1385,1590,0,0
168,-566,0,0,0,0,0,0,0,0,0,-1,1392,1590,0,0
175,-566,0,0,0,0,0,0,0,0,0,-1,1399,1590,0,0
182,-566,0,0,0,0,0,0,0,0,0,-1,1406,1590,0,0
189,-566,0,0,0,0,0,0,0,0,0,-1,1413,1590,0,0
196,-566,0,0,0,0,0,0,0,0,0,-1,1420,1590,0,0
203,-566,0,0,0,0,0,0,0,0,0,-1,1427,1590,0,0
210,-566,0,0,0,0,0,0,0,0,0,-1,1434,1590,0,0
217,-566,0,0,0,0,0,0,0,0,0,-1,1441,1590,0,0
224,-566,0,0,0,0,0,0,0,0,0,-1,1448,1590,0,0
231,-566,0,0,0,0,0,0,0,0,0,-1,1455,1590,0,0
238,-566,0,0,0,0,0,0,0,0,0,-1,1462,1590,0,0
245,-566,0,0,0,0,0,0,0,0,0,-1,1469,1590,0,0
252,-566,0,0,0,0,0,0,0,0,0,-1,1476,1590,0,0
259,-566,0,0,0,0,0,0,0,0,0,-1,1483,1590,0,0
266,-566,0,0,0,0,0,0,0,0,0,-1,1490,1590,0,0
273,-566,0,0,0,0,0,0,0,0,0,-1,1497,1590,0,0
280,-566,0,0,0,0,0,0,0,0,0,-1,1504,1590,0,0
287,-566,0,0,0,0,0,0,0,0,0,-1,1511,1590,0,0
294,-566,0,0,0,0,0,0,0,0,0,-1,1518,1590,0,0
301,-566,0,0,0,0,0,0,0,0,0,-1,1525,1590,0,0
308,-566,0,0,0,0,0,0,0,0,0,-1,1532,1590,0,0
315,-566,0,0,0,0,0,0,0,0,0,-1,1539,1590,0,0
322,-566,6.07983,4.44873,0,0,0,0,0,0,0,-1,1546,1590,6.07983,-4.44873
329,-566,5.77026,3.47534,0,0,0,0,0,0,0,-1,1553,1590,5.77026,-3.47535
336,-566,5.41138,2.62915,0,0,0,0,0,0,0,-1,1560,1590,5.41138,-2.62909
343,-566,4.81873,1.79089,0,0,0,0,0,0,0,-1,1567,1590,4.81878,-1.79095
350,-566,4.41663,2.44214,0,0,0,0,0,0,0,-1,1574,1590,4.41666,-2.44214
357,-566,6.34058,5.18579,0,0,0,0,0,0,0,-1,1581,1590,6.34059,-5.1858
364,-566,6.06262,4.20251,0,0,0,0,0,0,0,-1,1588,1590,6.06259,-4.20246
371,-566,5.78455,3.21912,0,0,0,0,0,0,0,-1,1595,1590,5.7846,-3.21912
378,-566,5.7439,0.695557,0,0,0,0,0,0,0,-1,1602,1590,5.74392,-0.695531
385,-566,5.67615,-0.573975,0,0,0,0,0,0,0,-1,1609,1590,5.67612,0.573956
392,-566,5.78638,1.82434,0,0,0,0,0,0,0,-1,1616,1590,5.78637,-1.82439
399,-566,5.36621,1.7373,0,0,0,0,0,0,0,-1,1623,1590,5.36627,-1.7373
406,-566,4.30359,5.26868,0,0,0,0,0,0,0,-1,1630,1590,4.30364,-5.26867
413,-566,4.27124,5.79492,0,0,0,0,0,0,0,-1,1637,1590,4.27123,-5.7949
420,-566,7.19812,8.25146,0,0,0,0,0,0,0,-1,1644,1590,7.19817,-8.25149
427,-566,16.5903,30.7538,0,0,0,0,0,0,0,-1,1651,1590,16.5903,-30.7538
434,-566,16.7518,30.4143,0,0,0,0,0,0,0,-1,1658,1590,16.7518,-30.4143
441,-566,15.5841,27.5869,0,0,0,0,0,0,0,-1,1665,1590,15.5842,-27.587
448,-566,16.4786,29.9358,0,0,0,0,0,0,0,-1,1672,1590,16.4786,-29.9358
455,-566,16.139,28.9648,0,0,0,0,0,0,0,-1,1679,1590,16.1391,-28.9648
462,-566,16.2255,28.2987,0.00573685,0.0155384,-0.00772172,0.0197833,0.001492,-1.06816,0.0127207,0.0385375,1686,1590,16.2254,-28.2987
469,-566,16.3387,27.5585,0.00574987,0.0129957,-0.00663359,0.0169312,0.00181434,-1.03534,0.0107339,0.0174178,1693,1590,16.3387,-27.5585
476,-566,16.4246,27.0428,0.00532778,0.0104274,-0.00562817,0.0140564,0.00169877,-0.99809,0.00885914,0.010486,1700,1590,16.4245,-27.0428
483,-566,16.4426,26.573,0.0048431,0.00801277,-0.00472826,0.0114147,0.00144114,-0.947106,0.00717783,0.0103076,1707,1590,16.4426,-26.573
490,-566,16.4324,26.1029,0.00409626,0.00574631,-0.00368474,0.00869725,0.00114531,-0.895533,0.00545661,0.0116664,1714,1590,16.4323,-26.1029
497,-566,16.4861,25.6504,0.00317235,0.0039075,-0.00273403,0.00629856,0.000781298,-0.85222,0.00396435,0.0149473,1721,1590,16.486,-25.6503
504,-566,16.4406,25.1853,0.00219106,0.00216091,-0.00180245,0.0039785,0.000373472,-0.781217,0.00253702,0.0197991,1728,1590,16.4406,-25.1853
511,-566,16.3928,24.7039,0.00110293,0.000724803,-0.000809526,0.00174518,8.25578e-05,-0.670679,0.00113693,0.0201593,1735,1590,16.3929,-24.7038
518,-566,16.4032,24.2316,8.43805e-05,-0.000620847,9.1207e-05,9.59853e-05,-0.000632452,0.126556,0.000457002,0.0129847,1742,1590,16.4031,-24.2316
525,-566,16.3635,23.7222,-0.000954285,-0.0018565,0.00104779,-0.000264619,-0.00254616,0.582125,0.00161647,0.0123709,1749,1590,16.3635,-23.7222
532,-566,16.3345,23.2056,-0.00201522,-0.00309911,0.00215952,-0.000330679,-0.00478364,0.662459,0.00308478,0.0139375,1756,1590,16.3345,-23.2055
539,-566,16.3151,22.6906,-0.00327388,-0.00445163,0.00357915,-0.000235491,-0.00749002,0.703864,0.00491673,0.0177872,1763,1590,16.315,-22.6906
546,-566,16.3549,22.1321,-0.00483029,-0.00605332,0.00545417,4.65405e-05,-0.0109302,0.729572,0.00730233,0.0199972,1770,1590,16.3549,-22.132
553,-566,16.3098,21.8058,-0.00650017,-0.00774014,0.00767211,0.000576966,-0.0148173,0.745081,0.010076,0.0320581,1777,1590,16.3098,-21.8057
560,-566,15.9686,21.5396,-0.0084454,-0.00952663,0.0102241,0.00125241,-0.0192244,0.758985,0.0132535,0.0377237,1784,1590,15.9687,-21.5395
567,-566,15.7832,21.2064,0,0,0,0,0,0,0,-1,1791,1590,15.7832,-21.2064
574,-566,7.99548,3.14514,0,0,0,0,0,0,0,-1,1798,1590,7.99543,-3.14511
581,-566,2.54102,5.1311,0,0,0,0,0,0,0,-1,1805,1590,2.54099,-5.13111
588,-566,-1.91321,8.39197,0,0,0,0,0,0,0,-1,1812,1590,-1.91316,-8.39199
595,-566,9.0271,4.66467,0,0,0,0,0,0,0,-1,1819,1590,9.02705,-4.66468
602,-566,9.953,3.54895,0,0,0,0,0,0,0,-1,1826,1590,9.953,-3.54898
609,-566,0,0,0,0,0,0,0,0,0,-1,1833,1590,0,0
616,-566,0,0,0,0,0,0,0,0,0,-1,1840,1590,0,0
623,-566,0,0,0,0,0,0,0,0,0,-1,1847,1590,0,0
630,-566,0,0,0,0,0,0,0,0,0,-1,1854,1590,0,0
637,-566,0,0,0,0,0,0,0,0,0,-1,1861,1590,0,0
644,-566,0,0,0,0,0,0,0,0,0,-1,1868,1590,0,0
651,-566,0,0,0,0,0,0,0,0,0,-1,1875,1590,0,0
658,-566,0,0,0,0,0,0,0,0,0,-1,1882,1590,0,0
665,-566,0,0,0,0,0,0,0,0,0,-1,1889,1590,0,0
672,-566,0,0,0,0,0,0,0,0,0,-1,1896,1590,0,0
679,-566,0,0,0,0,0,0,0,0,0,-1,1903,1590,0,0
686,-566,0,0,0,0,0,0,0,0,0,-1,1910,1590,0,0
693,-566,0,0,0,0,0,0,0,0,0,-1,1917,1590,0,0
700,-566,0,0,0,0,0,0,0,0,0,-1,1924,1590,0,0
707,-566,0,0,0,0,0,0,0,0,0,-1,1931,1590,0,0
714,-566,0,0,0,0,0,0,0,0,0,-1,1938,1590,0,0
721,-566,0,0,0,0,0,0,0,0,0,-1,1945,1590,0,0
728,-566,0,0,0,0,0,0,0,0,0,-1,1952,1590,0,0
735,-566,0,0,0,0,0,0,0,0,0,-1,1959,1590,0,0
742,-566,0,0,0,0,0,0,0,0,0,-1,1966,1590,0,0
749,-566,0,0,0,0,0,0,0,0,0,-1,1973,1590,0,0
756,-566,0,0,0,0,0,0,0,0,0,-1,1980,1590,0,0
763,-566,0,0,0,0,0,0,0,0,0,-1,1987,1590,0,0
770,-566,0,0,0,0,0,0,0,0,0,-1,1994,1590,0,0
777,-566,0,0,0,0,0,0,0,0,0,-1,2001,1590,0,0
784,-566,0,0,0,0,0,0,0,0,0,-1,2008,1590,0,0
791,-566,0,0,0,0,0,0,0,0,0,-1,2015,1590,0,0
798,-566,0,0,0,0,0,0,0,0,0,-1,2022,1590,0,0
805,-566,0,0,0,0,0,0,0,0,0,-1,2029,1590,0,0
812,-566,0,0,0,0,0,0,0,0,0,-1,2036,1590,0,0
-700,-573,0,0,0,0,0,0,0,0,0,-1,524,1597,0,0
-693,-573,0,0,0,0,0,0,0,0,0,-1,531,1597,0,0
-686,-573,0,0,0,0,0,0,0,0,0,-1,538,1597,0,0
-679,-573,0,0,0,0,0,0,0,0,0,-1,545,1597,0,0
-672,-573,0,0,0,0,0,0,0,0,0,-1,552,1597,0,0
-665,-573,0,0,0,0,0,0,0,0,0,-1,559,1597,0,0
-658,-573,0,0,0,0,0,0,0,0,0,-1,566,1597,0,0
-651,-573,0,0,0,0,0,0,0,0,0,-1,573,1597,0,0
-644,-573,0,0,0,0,0,0,0,0,0,-1,580,1597,0,0
-637,-573,0,0,0,0,0,0,0,0,0,-1,587,1597,0,0
-630,-573,0,0,0,0,0,0,0,0,0,-1,594,1597,0,0
-623,-573,0,0,0,0,0,0,0,0,0,-1,601,1597,0,0
-616,-573,0,0,0,0,0,0,0,0,0,-1,608,1597,0,0
-609,-573,0,0,0,0,0,0,0,0,0,-1,615,1597,0,0
-602,-573,0,0,0,0,0,0,0,0,0,-1,622,1597,0,0
-595,-573,0,0,0,0,0,0,0,0,0,-1,629,1597,0,0
-588,-573,0,0,0,0,0,0,0,0,0,-1,636,1597,0,0
-581,-573,0,0,0,0,0,0,0,0,0,-1,643,1597,0,0
-574,-573,0,0,0,0,0,0,0,0,0,-1,650,1597,0,0
-567,-573,0,0,0,0,0,0,0,0,0,-1,657,1597,0,0
-560,-573,0,0,0,0,0,0,0,0,0,-1,664,1597,0,0
-553,-573,0,0,0,0,0,0,0,0,0,-1,671,1597,0,0
-546,-573,0,0,0,0,0,0,0,0,0,-1,678,1597,0,0
-539,-573,0,0,0,0,0,0,0,0,0,-1,685,1597,0,0
-532,-573,0,0,0,0,0,0,0,0,0,-1,692,1597,0,0
-525,-573,0,0,0,0,0,0,0,0,0,-1,699,1597,0,0
-518,-573,0,0,0,0,0,0,0,0,0,-1,706,1597,0,0
-511,-573,0,0,0,0,0,0,0,0,0,-1,713,1597,0,0
-504,-573,0,0,0,0,0,0,0,0,0,-1,720,1597,0,0
-497,-573,0,0,0,0,0,0,0,0,0,-1,727,1597,0,0
-490,-573,0,0,0,0,0,0,0,0,0,-1,734,1597,0,0
-483,-573,0,0,0,0,0,0,0,0,0,-1,741,1597,0,0
-476,-573,-9.3327,0.972778,0,0,0,0,0,0,0,-1,748,1597,-9.33268,-0.972776
-469,-573,-1.41681,1.13379,0,0,0,0,0,0,0,-1,755,1597,-1.41681,-1.13382
-462,-573,-0.748535,2.02588,0,0,0,0,0,0,0,-1,762,1597,-0.748533,-2.02584
-455,-573,-0.112976,2.70703,0,0,0,0,0,0,0,-1,769,1597,-0.112988,-2.70697
-448,-573,-1.26172,3.33252,0,0,0,0,0,0,0,-1,776,1597,-1.26173,-3.33248
-441,-573,0.108582,5.06726,0,0,0,0,0,0,0,-1,783,1597,0.108584,-5.06721
-434,-573,1.61768,7.05444,0,0,0,0,0,0,0,-1,790,1597,1.61767,-7.05446
-427,-573,-0.326965,19.8281,0,0,0,0,0,0,0,-1,797,1597,-0.326965,-19.8281
-420,-573,0.798462,20.0208,0,0,0,0,0,0,0,-1,804,1597,0.798473,-20.0208
-413,-573,0.399536,20.9249,0,0,0,0,0,0,0,-1,811,1597,0.399522,-20.9249
-406,-573,0.425964,21.5883,2.60215e-05,0.00309855,0.00536764,0.00714544,-0.00402087,0.924776,0.00653046,0.0313098,818,1597,0.425986,-21.5883
-399,-573,0.382935,22.1876,-0.00096012,0.0011719,0.00339068,0.0036602,-0.00344841,0.937703,0.00410476,0.0140931,825,1597,0.382915,-22.1876
-392,-573,0.390503,22.7368,-0.00124648,-0.000261279,0.00170348,0.00101939,-0.00252715,0.926146,0.00210837,0.0123646,832,1597,0.390504,-22.7368
-385,-573,0.374695,23.2593,-0.000923652,-1.99346e-05,0.000971193,0.00059937,-0.00154296,1.00313,0.00127624,0.0145201,839,1597,0.374693,-23.2593
-378,-573,0.350708,23.7677,-0.000386956,0.000382297,0.000917497,0.000992526,-0.000997186,0.983877,0.00114876,0.0161119,846,1597,0.350693,-23.7677
-371,-573,0.341248,24.3055,0.00013383,0.000879167,0.000945702,0.00152298,-0.000509983,0.973088,0.00122134,0.0169144,853,1597,0.341268,-24.3055
-364,-573,0.329224,24.8026,0.00076184,0.00161058,0.00105782,0.00232597,4.64406e-05,0.976157,0.0015354,0.0201097,860,1597,0.3292,-24.8026
-357,-573,0.325378,25.2657,0.00143135,0.00251838,0.00121784,0.00330849,0.000641247,0.995283,0.00202602,0.024184,867,1597,0.325392,-25.2657
-350,-573,0.28186,25.7892,0.0022025,0.00343603,0.00142968,0.0043763,0.00126222,0.989038,0.00260097,0.0178612,874,1597,0.281837,-25.7891
-343,-573,0.319641,26.3057,0.0029858,0.00456599,0.00176578,0.00571038,0.00184141,0.995762,0.00336545,0.0200913,881,1597,0.319647,-26.3057
-336,-573,0.267883,26.8124,0.00381294,0.00568598,0.00212427,0.00707101,0.00242791,0.993014,0.00414869,0.0164331,888,1597,0.267888,-26.8124
-329,-573,0.266846,27.2694,0.00467618,0.00686958,0.0026222,0.00861518,0.00293058,0.983462,0.00505798,0.0173905,895,1597,0.266838,-27.2694
-322,-573,0.263245,27.7982,0.00555383,0.00810303,0.00326762,0.0103358,0.00332102,0.971357,0.0060931,0.0157396,902,1597,0.26326,-27.7983
-315,-573,0.40802,28.4808,0.00652075,0.00959651,0.00400617,0.0123498,0.00376742,0.968664,0.00730859,0.0373644,909,1597,0.407998,-28.4809
-308,-573,0.764526,29.2445,0,0,0,0,0,0,0,-1,916,1597,0.76454,-29.2446
-301,-573,0.574951,29.4592,0,0,0,0,0,0,0,-1,923,1597,0.574974,-29.4592
-294,-573,1.00702,24.802,0,0,0,0,0,0,0,-1,930,1597,1.00701,-24.802
-287,-573,1.27222,30.7164,0,0,0,0,0,0,0,-1,937,1597,1.27222,-30.7164
-280,-573,1.19684,26.4906,0,0,0,0,0,0,0,-1,944,1597,1.19685,-26.4906
-273,-573,2.24805,25.4375,0,0,0,0,0,0,0,-1,951,1597,2.24803,-25.4374
-266,-573,1.31116,7.1814,0,0,0,0,0,0,0,-1,958,1597,1.31118,-7.18142
-259,-573,1.2514,6.70959,0,0,0,0,0,0,0,-1,965,1597,1.25137,-6.70965
-252,-573,2.07874,5.27161,0,0,0,0,0,0,0,-1,972,1597,2.07875,-5.27157
-245,-573,-10.2592,1.09827,0,0,0,0,0,0,0,-1,979,1597,-10.2592,-1.09823
-238,-573,-11.5463,4.44141,0,0,0,0,0,0,0,-1,986,1597,-11.5463,-4.44146
-231,-573,-9.23431,4.14539,0,0,0,0,0,0,0,-1,993,1597,-9.23431,-4.14534
-224,-573,-6.70044,7.40857,0,0,0,0,0,0,0,-1,1000,1597,-6.70045,-7.40851
-217,-573,-4.25824,8.59119,0,0,0,0,0,0,0,-1,1007,1597,-4.25824,-8.59122
-210,-573,-2.39661,9.73914,0,0,0,0,0,0,0,-1,1014,1597,-2.39658,-9.73915
-203,-573,-0.557373,10.9005,0,0,0,0,0,0,0,-1,1021,1597,-0.557387,-10.9006
-196,-573,-1.65344,9.02246,0,0,0,0,0,0,0,-1,1028,1597,-1.65349,-9.02241
-189,-573,-6.12915,6.66882,0,0,0,0,0,0,0,-1,1035,1597,-6.12913,-6.66884
-182,-573,0,0,0,0,0,0,0,0,0,-1,1042,1597,0,0
-175,-573,0,0,0,0,0,0,0,0,0,-1,1049,1597,0,0
-168,-573,0,0,0,0,0,0,0,0,0,-1,1056,1597,0,0
-161,-573,0,0,0,0,0,0,0,0,0,-1,1063,1597,0,0
-154,-573,0,0,0,0,0,0,0,0,0,-1,1070,1597,0,0
-147,-573,0,0,0,0,0,0,0,0,0,-1,1077,1597,0,0
-140,-573,0,0,0,0,0,0,0,0,0,-1,1084,1597,0,0
-133,-573,0,0,0,0,0,0,0,0,0,-1,1091,1597,0,0
-126,-573,0,0,0,0,0,0,0,0,0,-1,1098,1597,0,0
-119,-573,0,0,0,0,0,0,0,0,0,-1,1105,1597,0,0
-112,-573,0,0,0,0,0,0,0,0,0,-1,1112,1597,0,0
-105,-573,0,0,0,0,0,0,0,0,0,-1,1119,1597,0,0
-98,-573,0,0,0,0,0,0,0,0,0,-1,1126,1597,0,0
-91,-573,0,0,0,0,0,0,0,0,0,-1,1133,1597,0,0
-84,-573,0,0,0,0,0,0,0,0,0,-1,1140,1597,0,0
-77,-573,0,0,0,0,0,0,0,0,0,-1,1147,1597,0,0
-70,-573,0,0,0,0,0,0,0,0,0,-1,1154,1597,0,0
-63,-573,0,0,0,0,0,0,0,0,0,-1,1161,1597,0,0
-56,-573,0,0,0,0,0,0,0,0,0,-1,1168,1597,0,0
-49,-573,0,0,0,0,0,0,0,0,0,-1,1175,1597,0,0
-42,-573,0,0,0,0,0,0,0,0,0,-1,1182,1597,0,0
-35,-573,0,0,0,0,0,0,0,0,0,-1,1189,1597,0,0
-28,-573,0,0,0,0,0,0,0,0,0,-1,1196,1597,0,0
-21,-573,0,0,0,0,0,0,0,0,0,-1,1203,1597,0,0
-14,-573,0,0,0,0,0,0,0,0,0,-1,1210,1597,0,0
-7,-573,0,0,0,0,0,0,0,0,0,-1,1217,1597,0,0
0,-573,0,0,0,0,0,0,0,0,0,-1,1224,1597,0,0
7,-573,0,0,0,0,0,0,0,0,0,-1,1231,1597,0,0
14,-573,0,0,0,0,0,0,0,0,0,-1,1238,1597,0,0
21,-573,0,0,0,0,0,0,0,0,0,-1,1245,1597,0,0
28,-573,0,0,0,0,0,0,0,0,0,-1,1252,1597,0,0
35,-573,0,0,0,0,0,0,0,0,0,-1,1259,1597,0,0
42,-573,0,0,0,0,0,0,0,0,0,-1,1266,1597,0,0
49,-573,0,0,0,0,0,0,0,0,0,-1,1273,1597,0,0
56,-573,0,0,0,0,0,0,0,0,0,-1,1280,1597,0,0
63,-573,0,0,0,0,0,0,0,0,0,-1,1287,1597,0,0
70,-573,0,0,0,0,0,0,0,0,0,-1,1294,1597,0,0
77,-573,0,0,0,0,0,0,0,0,0,-1,1301,1597,0,0
84,-573,0,0,0,0,0,0,0,0,0,-1,1308,1597,0,0
91,-573,0,0,0,0,0,0,0,0,0,-1,1315,1597,0,0
98,-573,0,0,0,0,0,0,0,0,0,-1,1322,1597,0,0
105,-573,0,0,0,0,0,0,0,0,0,-1,1329,1597,0,0
112,-573,0,0,0,0,0,0,0,0,0,-1,1336,1597,0,0
119,-573,0,0,0,0,0,0,0,0,0,-1,1343,1597,0,0
126,-573,0,0,0,0,0,0,0,0,0,-1,1350,1597,0,0
133,-573,0,0,0,0,0,0,0,0,0,-1,1357,1597,0,0
140,-573,0,0,0,0,0,0,0,0,0,-1,1364,1597,0,0
147,-573,0,0,0,0,0,0,0,0,0,-1,1371,1597,0,0
154,-573,0,0,0,0,0,0,0,0,0,-1,1378,1597,0,0
161,-573,0,0,0,0,0,0,0,0,0,-1,1385,1597,0,0
168,-573,0,0,0,0,0,0,0,0,0,-1,1392,1597,0,0
175,-573,0,0,0,0,0,0,0,0,0,-1,1399,1597,0,0
182,-573,0,0,0,0,0,0,0,0,0,-1,1406,1597,0,0
189,-573,0,0,0,0,0,0,0,0,0,-1,1413,1597,0,0
196,-573,0,0,0,0,0,0,0,0,0,-1,1420,1597,0,0
203,-573,0,0,0,0,0,0,0,0,0,-1,1427,1597,0,0
210,-573,0,0,0,0,0,0,0,0,0,-1,1434,1597,0,0
217,-573,0,0,0,0,0,0,0,0,0,-1,1441,1597,0,0
224,-573,0,0,0,0,0,0,0,0,0,-1,1448,1597,0,0
231,-573,0,0,0,0,0,0,0,0,0,-1,1455,1597,0,0
238,-573,0,0,0,0,0,0,0,0,0,-1,1462,1597,0,0
245,-573,0,0,0,0,0,0,0,0,0,-1,1469,1597,0,0
252,-573,0,0,0,0,0,0,0,0,0,-1,1476,1597,0,0
259,-573,0,0,0,0,0,0,0,0,0,-1,1483,1597,0,0
266,-573,0,0,0,0,0,0,0,0,0,-1,1490,1597,0,0
273,-573,0,0,0,0,0,0,0,0,0,-1,1497,1597,0,0
280,-573,0,0,0,0,0,0,0,0,0,-1,1504,1597,0,0
287,-573,0,0,0,0,0,0,0,0,0,-1,1511,1597,0,0
294,-573,0,0,0,0,0,0,0,0,0,-1,1518,1597,0,0
301,-573,0,0,0,0,0,0,0,0,0,-1,1525,1597,0,0
308,-573,5.93042,9.71143,0,0,0,0,0,0,0,-1,1532,1597,5.93046,-9.71144
315,-573,4.34204,11.719,0,0,0,0,0,0,0,-1,1539,1597,4.34205,-11.719
322,-573,10.3269,7.77563,0,0,0,0,0,0,0,-1,1546,1597,10.327,-7.77565
329,-573,4.99573,3.80273,0,0,0,0,0,0,0,-1,1553,1597,4.9957,-3.80273
336,-573,4.85693,2.53455,0,0,0,0,0,0,0,-1,1560,1597,4.8569,-2.53459
343,-573,5.5946,2.15894,0,0,0,0,0,0,0,-1,1567,1597,5.59456,-2.1589
350,-573,2.53748,1.56433,0,0,0,0,0,0,0,-1,1574,1597,2.53753,-1.5643
357,-573,7.40247,4.03613,0,0,0,0,0,0,0,-1,1581,1597,7.40244,-4.03614
364,-573,7.14551,3.02087,0,0,0,0,0,0,0,-1,1588,1597,7.14556,-3.02084
371,-573,6.88867,2.00549,0,0,0,0,0,0,0,-1,1595,1597,6.88868,-2.00553
378,-573,8.62012,6.09106,0,0,0,0,0,0,0,-1,1602,1597,8.62012,-6.09103
385,-573,6.54346,-0.951904,0,0,0,0,0,0,0,-1,1609,1597,6.54349,0.951901
392,-573,6.41833,-2.18225,0,0,0,0,0,0,0,-1,1616,1597,6.41831,2.18228
399,-573,4.26282,4.73657,0,0,0,0,0,0,0,-1,1623,1597,4.26285,-4.73652
406,-573,6.82715,10.823,0,0,0,0,0,0,0,-1,1630,1597,6.82719,-10.823
413,-573,8.90552,13.1737,0,0,0,0,0,0,0,-1,1637,1597,8.90553,-13.1737
420,-573,16.6166,31.0148,0,0,0,0,0,0,0,-1,1644,1597,16.6166,-31.0148
427,-573,16.2434,30.5912,-0.00131152,0.0242069,-0.00725211,0.0261239,-0.0032285,-1.31237,0.0185858,0.0461412,1651,1597,16.2434,-30.5912
434,-573,16.1267,30.1462,0.0002121,0.0214737,-0.00709321,0.0236228,-0.00193707,-1.2766,0.0164324,0.0497464,1658,1597,16.1267,-30.1462
441,-573,16.0812,29.8906,0,0,0,0,0,0,0,-1,1665,1597,16.0811,-29.8906
448,-573,15.8781,29.2854,0.00306462,0.0168479,-0.00658214,0.0194862,0.000426346,-1.18958,0.012851,0.0452964,1672,1597,15.878,-29.2854
455,-573,15.8657,28.6055,0.00387149,0.0144673,-0.00648167,0.0175408,0.000798023,-1.12802,0.0114371,0.0326263,1679,1597,15.8657,-28.6055
462,-573,15.97,27.9557,0.00429541,0.0122291,-0.00588622,0.0153604,0.00116413,-1.0819,0.00987511,0.0212052,1686,1597,15.97,-27.9557
469,-573,15.9663,27.4943,0.00430447,0.0101553,-0.00505891,0.0130737,0.00138603,-1.04754,0.00829252,0.0154282,1693,1597,15.9663,-27.4942
476,-573,15.974,27.048,0.00390245,0.00800728,-0.00423009,0.0106566,0.00125316,-1.01127,0.00672569,0.0145852,1700,1597,15.974,-27.0479
483,-573,15.9808,26.5967,0.00349018,0.00590002,-0.00349841,0.0083952,0.000995003,-0.951245,0.00529638,0.0127432,1707,1597,15.9809,-26.5966
490,-573,15.9603,26.1177,0.00295285,0.00399806,-0.00273205,0.00625704,0.000693868,-0.8799,0.00396038,0.0124617,1714,1597,15.9603,-26.1176
497,-573,15.9896,25.6212,0.00217653,0.00239568,-0.00198571,0.00427484,0.000297372,-0.812961,0.00275612,0.0189428,1721,1597,15.9896,-25.6212
504,-573,15.951,25.1614,0.0012882,0.000840525,-0.00115504,0.00224089,-0.000112165,-0.689688,0.00153268,0.0182857,1728,1597,15.9511,-25.1613
511,-573,15.928,24.693,0.000284332,-0.000504222,-0.000206513,0.000335141,-0.000555032,-0.241244,0.000519142,0.0180903,1735,1597,15.928,-24.693
518,-573,15.9076,24.2297,-0.000590337,-0.00172068,0.000588541,-0.000339543,-0.00197147,0.402826,0.00121703,0.0145976,1742,1597,15.9075,-24.2298
525,-573,15.8811,23.7306,-0.00150219,-0.00287794,0.00148401,-0.000554388,-0.00382575,0.568375,0.00238726,0.0182721,1749,1597,15.8811,-23.7306
532,-573,15.8914,23.2472,-0.00250931,-0.00414792,0.0026454,-0.000559247,-0.00609798,0.635228,0.00389232,0.0163592,1756,1597,15.8914,-23.2471
539,-573,15.8328,22.7557,-0.00383697,-0.00564885,0.00423882,-0.000408364,-0.00907746,0.68012,0.00592022,0.0219937,1763,1597,15.8328,-22.7557
546,-573,15.8893,22.2975,-0.00557533,-0.0074858,0.0064227,-3.7217e-05,-0.0130239,0.711575,0.00867023,0.0380774,1770,1597,15.8893,-22.2975
553,-573,15.3088,22.0824,-0.00757747,-0.00950633,0.00913663,0.000645487,-0.0177293,0.732815,0.0120405,0.0461689,1777,1597,15.3089,-22.0824
560,-573,15.0853,21.7906,-0.0102147,-0.0118522,0.0124935,0.00148677,-0.0235537,0.752678,0.0162208,0.0474168,1784,1597,15.0853,-21.7906
567,-573,14.8507,21.541,0,0,0,0,0,0,0,-1,1791,1597,14.8507,-21.541
574,-573,0.83374,5.7041,0,0,0,0,0,0,0,-1,1798,1597,0.833718,-5.70405
581,-573,-0.224854,7.41602,0,0,0,0,0,0,0,-1,1805,1597,-0.224904,-7.41596
588,-573,-0.134033,7.67065,0,0,0,0,0,0,0,-1,1812,1597,-0.134037,-7.67063
595,-573,-0.0825195,8.35083,0,0,0,0,0,0,0,-1,1819,1597,-0.0824684,-8.35088
602,-573,0,0,0,0,0,0,0,0,0,-1,1826,1597,0,0
609,-573,0,0,0,0,0,0,0,0,0,-1,1833,1597,0,0
616,-573,0,0,0,0,0,0,0,0,0,-1,1840,1597,0,0
623,-573,0,0,0,0,0,0,0,0,0,-1,1847,1597,0,0
630,-573,0,0,0,0,0,0,0,0,0,-1,1854,1597,0,0
637,-573,0,0,0,0,0,0,0,0,0,-1,1861,1597,0,0
644,-573,0,0,0,0,0,0,0,0,0,-1,1868,1597,0,0
651,-573,0,0,0,0,0,0,0,0,0,-1,1875,1597,0,0
658,-573,0,0,0,0,0,0,0,0,0,-1,1882,1597,0,0
665,-573,0,0,0,0,0,0,0,0,0,-1,1889,1597,0,0
672,-573,0,0,0,0,0,0,0,0,0,-1,1896,1597,0,0
679,-573,0,0,0,0,0,0,0,0,0,-1,1903,1597,0,0
686,-573,0,0,0,0,0,0,0,0,0,-1,1910,1597,0,0
693,-573,0,0,0,0,0,0,0,0,0,-1,1917,1597,0,0
700,-573,0,0,0,0,0,0,0,0,0,-1,1924,1597,0,0
707,-573,0,0,0,0,0,0,0,0,0,-1,1931,1597,0,0
714,-573,0,0,0,0,0,0,0,0,0,-1,1938,1597,0,0
721,-573,0,0,0,0,0,0,0,0,0,-1,1945,1597,0,0
728,-573,0,0,0,0,0,0,0,0,0,-1,1952,1597,0,0
735,-573,0,0,0,0,0,0,0,0,0,-1,1959,1597,0,0
742,-573,0,0,0,0,0,0,0,0,0,-1,1966,1597,0,0
749,-573,0,0,0,0,0,0,0,0,0,-1,1973,1597,0,0
756,-573,0,0,0,0,0,0,0,0,0,-1,1980,1597,0,0
763,-573,0,0,0,0,0,0,0,0,0,-1,1987,1597,0,0
770,-573,0,0,0,0,0,0,0,0,0,-1,1994,1597,0,0
777,-573,0,0,0,0,0,0,0,0,0,-1,2001,1597,0,0
784,-573,0,0,0,0,0,0,0,0,0,-1,2008,1597,0,0
791,-573,0,0,0,0,0,0,0,0,0,-1,2015,1597,0,0
798,-573,0,0,0,0,0,0,0,0,0,-1,2022,1597,0,0
805,-573,0,0,0,0,0,0,0,0,0,-1,2029,1597,0,0
812,-573,0,0,0,0,0,0,0,0,0,-1,2036,1597,0,0
-700,-580,0,0,0,0,0,0,0,0,0,-1,524,1604,0,0
-693,-580,0,0,0,0,0,0,0,0,0,-1,531,1604,0,0
-686,-580,0,0,0,0,0,0,0,0,0,-1,538,1604,0,0
-679,-580,0,0,0,0,0,0,0,0,0,-1,545,1604,0,0
-672,-580,0,0,0,0,0,0,0,0,0,-1,552,1604,0,0
-665,-580,0,0,0,0,0,0,0,0,0,-1,559,1604,0,0
-658,-580,0,0,0,0,0,0,0,0,0,-1,566,1604,0,0
-651,-580,0,0,0,0,0,0,0,0,0,-1,573,1604,0,0
-644,-580,0,0,0,0,0,0,0,0,0,-1,580,1604,0,0
-637,-580,0,0,0,0,0,0,0,0,0,-1,587,1604,0,0
-630,-580,0,0,0,0,0,0,0,0,0,-1,594,1604,0,0
-623,-580,0,0,0,0,0,0,0,0,0,-1,601,1604,0,0
-616,-580,0,0,0,0,0,0,0,0,0,-1,608,1604,0,0
-609,-580,0,0,0,0,0,0,0,0,0,-1,615,1604,0,0
-602,-580,0,0,0,0,0,0,0,0,0,-1,622,1604,0,0
-595,-580,0,0,0,0,0,0,0,0,0,-1,629,1604,0,0
-588,-580,0,0,0,0,0,0,0,0,0,-1,636,1604,0,0
-581,-580,0,0,0,0,0,0,0,0,0,-1,643,1604,0,0
-574,-580,0,0,0,0,0,0,0,0,0,-1,650,1604,0,0
-567,-580,0,0,0,0,0,0,0,0,0,-1,657,1604,0,0
-560,-580,0,0,0,0,0,0,0,0,0,-1,664,1604,0,0
-553,-580,0,0,0,0,0,0,0,0,0,-1,671,1604,0,0
-546,-580,0,0,0,0,0,0,0,0,0,-1,678,1604,0,0
-539,-580,0,0,0,0,0,0,0,0,0,-1,685,1604,0,0
-532,-580,0,0,0,0,0,0,0,0,0,-1,692,1604,0,0
-525,-580,0,0,0,0,0,0,0,0,0,-1,699,1604,0,0
-518,-580,0,0,0,0,0,0,0,0,0,-1,706,1604,0,0
-511,-580,0,0,0,0,0,0,0,0,0,-1,713,1604,0,0
-504,-580,0,0,0,0,0,0,0,0,0,-1,720,1604,0,0
-497,-580,0,0,0,0,0,0,0,0,0,-1,727,1604,0,0
-490,-580,0,0,0,0,0,0,0,0,0,-1,734,1604,0,0
-483,-580,0,0,0,0,0,0,0,0,0,-1,741,1604,0,0
-476,-580,0,0,0,0,0,0,0,0,0,-1,748,1604,0,0
-469,-580,-1.69189,-0.38916,0,0,0,0,0,0,0,-1,755,1604,-1.69192,0.389188
-462,-580,-0.859863,0.675293,0,0,0,0,0,0,0,-1,762,1604,-0.859834,-0.675245
-455,-580,-0.730164,0.651978,0,0,0,0,0,0,0,-1,769,1604,-0.730153,-0.651957
-448,-580,-3.31891,2.07544,0,0,0,0,0,0,0,-1,776,1604,-3.3189,-2.07539
-441,-580,-1.63843,3.9469,0,0,0,0,0,0,0,-1,783,1604,-1.63842,-3.94695
-434,-580,0.23291,5.97876,0,0,0,0,0,0,0,-1,790,1604,0.232901,-5.97878
-427,-580,1.62756,8.05493,0,0,0,0,0,0,0,-1,797,1604,1.62758,-8.05488
-420,-580,0.986572,11.2383,0,0,0,0,0,0,0,-1,804,1604,0.986544,-11.2382
-413,-580,1.09766,19.535,0,0,0,0,0,0,0,-1,811,1604,1.09763,-19.5351
-406,-580,0.907593,21.5803,0,0,0,0,0,0,0,-1,818,1604,0.907575,-21.5803
-399,-580,0.91272,22.2236,-0.00179113,0.00109285,0.00374177,0.00366087,-0.00435915,0.969317,0.00463621,0.0338426,825,1604,0.912712,-22.2236
-392,-580,0.890076,22.7633,-0.00201157,-0.000734299,0.00185676,0.000590592,-0.00333646,0.951035,0.00244506,0.0168093,832,1604,0.890091,-22.7633
-385,-580,0.86969,23.2806,-0.00162347,-0.000651444,0.0010573,2.61941e-05,-0.0023011,1.00083,0.00154288,0.0120385,839,1604,0.869716,-23.2807
-378,-580,0.84259,23.7924,-0.00106667,-0.000491471,0.000924253,0.000188895,-0.00174704,0.936234,0.00123249,0.014998,846,1604,0.842592,-23.7924
-371,-580,0.838013,24.3237,-0.000519309,-0.000167927,0.000876194,0.000550017,-0.00123725,0.884344,0.001057,0.0138481,853,1604,0.838024,-24.3237
-364,-580,0.86792,24.8179,9.37596e-05,0.000390259,0.000929982,0.00118373,-0.000699715,0.864439,0.00109931,0.0199097,860,1604,0.867919,-24.8179
-357,-580,0.839294,25.2874,0.000728106,0.0011312,0.00102716,0.0019764,-0.000117095,0.882277,0.00135832,0.0150548,867,1604,0.839276,-25.2874
-350,-580,0.788818,25.8077,0.00144292,0.00189872,0.00117054,0.00286333,0.000478301,0.881544,0.00177112,0.0108081,874,1604,0.788834,-25.8077
-343,-580,0.786377,26.3167,0.00214971,0.00287896,0.00142759,0.00398775,0.00104091,0.910431,0.00238837,0.0107424,881,1604,0.786347,-26.3166
-336,-580,0.831665,26.7708,0.00289978,0.00383121,0.00171357,0.00514123,0.00158976,0.918085,0.00303946,0.0193456,888,1604,0.831671,-26.7707
-329,-580,0.795227,27.2887,0.00366358,0.0048555,0.00211462,0.00645654,0.00206255,0.92275,0.00380783,0.0174849,895,1604,0.79522,-27.2887
-322,-580,0.769165,27.8098,0.00440595,0.0059389,0.00263573,0.00791734,0.00242751,0.926897,0.00468367,0.0193151,902,1604,0.769178,-27.8098
-315,-580,0.775452,28.2788,0.00520663,0.007229,0.00324352,0.0096153,0.00282033,0.936501,0.0057073,0.0211339,909,1604,0.775456,-28.2788
-308,-580,0.856934,28.8987,0.00614954,0.00830282,0.0039975,0.0113661,0.00308623,0.916941,0.00678676,0.0312574,916,1604,0.856917,-28.8987
-301,-580,0.959167,29.2286,0.00730313,0.00963992,0.00502344,0.0136291,0.00331399,0.899661,0.00820751,0.0290332,923,1604,0.95919,-29.2286
-294,-580,0.911011,29.7155,0,0,0,0,0,0,0,-1,930,1604,0.911009,-29.7155
-287,-580,1.21619,30.037,0,0,0,0,0,0,0,-1,937,1604,1.21621,-30.0369
-280,-580,1.71606,31.5383,0,0,0,0,0,0,0,-1,944,1604,1.71604,-31.5383
-273,-580,1.39575,28.6672,0,0,0,0,0,0,0,-1,951,1604,1.39577,-28.6672
-266,-580,1.71777,25.6515,0,0,0,0,0,0,0,-1,958,1604,1.71775,-25.6515
-259,-580,1.31091,9.11536,0,0,0,0,0,0,0,-1,965,1604,1.31092,-9.11539
-252,-580,1.07629,7.74097,0,0,0,0,0,0,0,-1,972,1604,1.07627,-7.74101
-245,-580,3.80304,9.16028,0,0,0,0,0,0,0,-1,979,1604,3.80306,-9.16034
-238,-580,-10.3588,1.57556,0,0,0,0,0,0,0,-1,986,1604,-10.3588,-1.5755
-231,-580,-10.576,6.43787,0,0,0,0,0,0,0,-1,993,1604,-10.576,-6.43783
-224,-580,-8.27435,7.58972,0,0,0,0,0,0,0,-1,1000,1604,-8.27435,-7.5897
-217,-580,-5.85632,9.51221,0,0,0,0,0,0,0,-1,1007,1604,-5.85632,-9.5122
-210,-580,-3.6684,11.1569,0,0,0,0,0,0,0,-1,1014,1604,-3.66839,-11.1569
-203,-580,-1.92474,12.7845,0,0,0,0,0,0,0,-1,1021,1604,-1.92477,-12.7845
-196,-580,-2.28552,10.3289,0,0,0,0,0,0,0,-1,1028,1604,-2.28552,-10.3288
-189,-580,-4.58252,7.59058,0,0,0,0,0,0,0,-1,1035,1604,-4.58256,-7.59057
-182,-580,-5.45874,7.65942,0,0,0,0,0,0,0,-1,1042,1604,-5.45876,-7.65939
-175,-580,-6.38977,7.55005,0,0,0,0,0,0,0,-1,1049,1604,-6.38981,-7.5501
-168,-580,0,0,0,0,0,0,0,0,0,-1,1056,1604,0,0
-161,-580,0,0,0,0,0,0,0,0,0,-1,1063,1604,0,0
-154,-580,0,0,0,0,0,0,0,0,0,-1,1070,1604,0,0
-147,-580,0,0,0,0,0,0,0,0,0,-1,1077,1604,0,0
-140,-580,0,0,0,0,0,0,0,0,0,-1,1084,1604,0,0
-133,-580,0,0,0,0,0,0,0,0,0,-1,1091,1604,0,0
-126,-580,0,0,0,0,0,0,0,0,0,-1,1098,1604,0,0
-119,-580,0,0,0,0,0,0,0,0,0,-1,1105,1604,0,0
-112,-580,0,0,0,0,0,0,0,0,0,-1,1112,1604,0,0
-105,-580,0,0,0,0,0,0,0,0,0,-1,1119,1604,0,0
-98,-580,0,0,0,0,0,0,0,0,0,-1,1126,1604,0,0
-91,-580,0,0,0,0,0,0,0,0,0,-1,1133,1604,0,0
-84,-580,0,0,0,0,0,0,0,0,0,-1,1140,1604,0,0
-77,-580,0,0,0,0,0,0,0,0,0,-1,1147,1604,0,0
-70,-580,0,0,0,0,0,0,0,0,0,-1,1154,1604,0,0
-63,-580,0,0,0,0,0,0,0,0,0,-1,1161,1604,0,0
-56,-580,0,0,0,0,0,0,0,0,0,-1,1168,1604,0,0
-49,-580,0,0,0,0,0,0,0,0,0,-1,1175,1604,0,0
-42,-580,0,0,0,0,0,0,0,0,0,-1,1182,1604,0,0
-35,-580,0,0,0,0,0,0,0,0,0,-1,1189,1604,0,0
-28,-580,0,0,0,0,0,0,0,0,0,-1,1196,1604,0,0
-21,-580,0,0,0,0,0,0,0,0,0,-1,1203,1604,0,0
-14,-580,0,0,0,0,0,0,0,0,0,-1,1210,1604,0,0
-7,-580,0,0,0,0,0,0,0,0,0,-1,1217,1604,0,0
0,-580,0,0,0,0,0,0,0,0,0,-1,1224,1604,0,0
7,-580,0,0,0,0,0,0,0,0,0,-1,1231,1604,0,0
14,-580,0,0,0,0,0,0,0,0,0,-1,1238,1604,0,0
21,-580,0,0,0,0,0,0,0,0,0,-1,1245,1604,0,0
28,-580,0,0,0,0,0,0,0,0,0,-1,1252,1604,0,0
35,-580,0,0,0,0,0,0,0,0,0,-1,1259,1604,0,0
42,-580,0,0,0,0,0,0,0,0,0,-1,1266,1604,0,0
49,-580,0,0,0,0,0,0,0,0,0,-1,1273,1604,0,0
56,-580,0,0,0,0,0,0,0,0,0,-1,1280,1604,0,0
63,-580,0,0,0,0,0,0,0,0,0,-1,1287,1604,0,0
70,-580,0,0,0,0,0,0,0,0,0,-1,1294,1604,0,0
77,-580,0,0,0,0,0,0,0,0,0,-1,1301,1604,0,0
84,-580,0,0,0,0,0,0,0,0,0,-1,1308,1604,0,0
91,-580,0,0,0,0,0,0,0,0,0,-1,1315,1604,0,0
98,-580,0,0,0,0,0,0,0,0,0,-1,1322,1604,0,0
105,-580,0,0,0,0,0,0,0,0,0,-1,1329,1604,0,0
112,-580,0,0,0,0,0,0,0,0,0,-1,1336,1604,0,0
119,-580,0,0,0,0,0,0,0,0,0,-1,1343,1604,0,0
126,-580,0,0,0,0,0,0,0,0,0,-1,1350,1604,0,0
133,-580,0,0,0,0,0,0,0,0,0,-1,1357,1604,0,0
140,-580,0,0,0,0,0,0,0,0,0,-1,1364,1604,0,0
147,-580,0,0,0,0,0,0,0,0,0,-1,1371,1604,0,0
154,-580,0,0,0,0,0,0,0,0,0,-1,1378,1604,0,0
161,-580,0,0,0,0,0,0,0,0,0,-1,1385,1604,0,0
168,-580,0,0,0,0,0,0,0,0,0,-1,1392,1604,0,0
175,-580,0,0,0,0,0,0,0,0,0,-1,1399,1604,0,0
182,-580,0,0,0,0,0,0,0,0,0,-1,1406,1604,0,0
189,-580,0,0,0,0,0,0,0,0,0,-1,1413,1604,0,0
196,-580,0,0,0,0,0,0,0,0,0,-1,1420,1604,0,0
203,-580,0,0,0,0,0,0,0,0,0,-1,1427,1604,0,0
210,-580,0,0,0,0,0,0,0,0,0,-1,1434,1604,0,0
217,-580,0,0,0,0,0,0,0,0,0,-1,1441,1604,0,0
224,-580,0,0,0,0,0,0,0,0,0,-1,1448,1604,0,0
231,-580,0,0,0,0,0,0,0,0,0,-1,1455,1604,0,0
238,-580,0,0,0,0,0,0,0,0,0,-1,1462,1604,0,0
245,-580,0,0,0,0,0,0,0,0,0,-1,1469,1604,0,0
252,-580,0,0,0,0,0,0,0,0,0,-1,1476,1604,0,0
259,-580,0,0,0,0,0,0,0,0,0,-1,1483,1604,0,0
266,-580,0,0,0,0,0,0,0,0,0,-1,1490,1604,0,0
273,-580,0,0,0,0,0,0,0,0,0,-1,1497,1604,0,0
280,-580,0,0,0,0,0,0,0,0,0,-1,1504,1604,0,0
287,-580,0,0,0,0,0,0,0,0,0,-1,1511,1604,0,0
294,-580,4.0437,0.177368,0,0,0,0,0,0,0,-1,1518,1604,4.04369,-0.177371
301,-580,7.55164,8.05798,0,0,0,0,0,0,0,-1,1525,1604,7.55158,-8.05802
308,-580,5.9126,9.99341,0,0,0,0,0,0,0,-1,1532,1604,5.91255,-9.99337
315,-580,4.27356,11.9287,0,0,0,0,0,0,0,-1,1539,1604,4.27352,-11.9287
322,-580,10.2366,7.50281,0,0,0,0,0,0,0,-1,1546,1604,10.2366,-7.50282
329,-580,10.5962,8.69641,0,0,0,0,0,0,0,-1,1553,1604,10.5962,-8.69642
336,-580,3.66431,1.58862,0,0,0,0,0,0,0,-1,1560,1604,3.6643,-1.58864
343,-580,3.32227,1.39636,0,0,0,0,0,0,0,-1,1567,1604,3.32222,-1.39633
350,-580,8.71277,4.0564,0,0,0,0,0,0,0,-1,1574,1604,8.71271,-4.05638
357,-580,8.52332,3.08154,0,0,0,0,0,0,0,-1,1581,1604,8.52332,-3.08157
364,-580,8.25818,2.07605,0,0,0,0,0,0,0,-1,1588,1604,8.25812,-2.07608
371,-580,7.42114,7.14282,0,0,0,0,0,0,0,-1,1595,1604,7.42119,-7.14281
378,-580,7.9718,6.6731,0,0,0,0,0,0,0,-1,1602,1604,7.9718,-6.67307
385,-580,8.52246,6.20337,0,0,0,0,0,0,0,-1,1609,1604,8.52241,-6.20334
392,-580,14.4536,30.236,0,0,0,0,0,0,0,-1,1616,1604,14.4537,-30.2359
399,-580,15.8778,32.5569,0,0,0,0,0,0,0,-1,1623,1604,15.8778,-32.5568
406,-580,15.6261,31.9377,0,0,0,0,0,0,0,-1,1630,1604,15.6261,-31.9377
413,-580,15.2742,30.9874,0,0,0,0,0,0,0,-1,1637,1604,15.2741,-30.9874
420,-580,15.2363,30.764,0,0,0,0,0,0,0,-1,1644,1604,15.2363,-30.7641
427,-580,15.7156,30.6174,-0.000704105,0.0191708,-0.00541961,0.0205526,-0.00208589,-1.32115,0.0144473,0.0389003,1651,1604,15.7155,-30.6175
434,-580,15.5786,30.1005,0.00016671,0.0167803,-0.00524792,0.0182992,-0.00135215,-1.28907,0.0126742,0.0331964,1658,1604,15.5786,-30.1005
441,-580,15.4374,29.424,0.00120103,0.0146889,-0.00508615,0.0163918,-0.000501904,-1.24771,0.011099,0.020253,1665,1604,15.4374,-29.424
448,-580,15.5017,28.8662,0.00212406,0.0129869,-0.00487301,0.0148525,0.000258467,-1.20517,0.00981666,0.016847,1672,1604,15.5017,-28.8662
455,-580,15.5261,28.4183,0.00271866,0.0110465,-0.00483109,0.0132605,0.00050468,-1.14108,0.008677,0.0203574,1679,1604,15.5261,-28.4183
462,-580,15.5112,27.9525,0.00306076,0.00918436,-0.00439055,0.0114753,0.000769847,-1.08987,0.00740691,0.0219813,1686,1604,15.5112,-27.9525
469,-580,15.5089,27.4865,0.0030855,0.00748243,-0.00376312,0.00964221,0.000925711,-1.04976,0.00614287,0.0201424,1693,1604,15.5089,-27.4865
476,-580,15.501,27.0367,0.00275872,0.00567628,-0.00308568,0.00763063,0.000804365,-1.00621,0.00484129,0.0157571,1700,1604,15.5009,-27.0368
483,-580,15.4923,26.5919,0.00244073,0.00384518,-0.00248153,0.00572193,0.000563979,-0.923283,0.00364122,0.0138101,1707,1604,15.4923,-26.5919
490,-580,15.4666,26.1461,0.00210271,0.00227381,-0.0019448,0.00413494,0.000241584,-0.807379,0.00267973,0.0170864,1714,1604,15.4665,-26.1461
497,-580,15.4686,25.6625,0.00147462,0.000893257,-0.00138037,0.00259458,-0.000226708,-0.681624,0.00181003,0.0135046,1721,1604,15.4686,-25.6624
504,-580,15.4537,25.1626,0.000686278,-0.000456566,-0.000657953,0.000986306,-0.000756594,-0.427834,0.00100917,0.0174616,1728,1604,15.4537,-25.1626
511,-580,15.4437,24.7156,-0.000231492,-0.00169906,0.000226751,-0.000197256,-0.0017333,0.149854,0.00109571,0.01733,1735,1604,15.4437,-24.7156
518,-580,15.4122,24.2426,-0.000973588,-0.00277699,0.000903052,-0.000599135,-0.00315144,0.393074,0.00193246,0.0158268,1742,1604,15.4122,-24.2426
525,-580,15.3806,23.7429,-0.0017866,-0.00385633,0.00172101,-0.000813279,-0.00482965,0.514706,0.00298583,0.0191945,1749,1604,15.3806,-23.743
532,-580,15.3547,23.3076,-0.00280018,-0.00513987,0.00292986,-0.000815244,-0.0071248,0.595454,0.00450279,0.0220016,1756,1604,15.3547,-23.3076
539,-580,15.3964,22.8867,-0.0042447,-0.00683205,0.00471882,-0.000645434,-0.0104313,0.65161,0.00674936,0.0276391,1763,1604,15.3964,-22.8867
546,-580,15.5031,22.4253,0,0,0,0,0,0,0,-1,1770,1604,15.503,-22.4253
553,-580,14.2936,22.2827,0,0,0,0,0,0,0,-1,1777,1604,14.2936,-22.2827
560,-580,14.2651,21.9725,0,0,0,0,0,0,0,-1,1784,1604,14.2651,-21.9726
567,-580,3.87708,4.0647,0,0,0,0,0,0,0,-1,1791,1604,3.87711,-4.06471
574,-580,2.31653,5.62952,0,0,0,0,0,0,0,-1,1798,1604,2.31654,-5.62947
581,-580,1.60876,6.67664,0,0,0,0,0,0,0,-1,1805,1604,1.60873,-6.67667
588,-580,1.38684,7.14441,0,0,0,0,0,0,0,-1,1812,1604,1.38689,-7.14443
595,-580,0,0,0,0,0,0,0,0,0,-1,1819,1604,0,0
602,-580,0,0,0,0,0,0,0,0,0,-1,1826,1604,0,0
609,-580,0,0,0,0,0,0,0,0,0,-1,1833,1604,0,0
616,-580,0,0,0,0,0,0,0,0,0,-1,1840,1604,0,0
623,-580,0,0,0,0,0,0,0,0,0,-1,1847,1604,0,0
630,-580,0,0,0,0,0,0,0,0,0,-1,1854,1604,0,0
637,-580,0,0,0,0,0,0,0,0,0,-1,1861,1604,0,0
644,-580,0,0,0,0,0,0,0,0,0,-1,1868,1604,0,0
651,-580,0,0,0,0,0,0,0,0,0,-1,1875,1604,0,0
658,-580,0,0,0,0,0,0,0,0,0,-1,1882,1604,0,0
665,-580,0,0,0,0,0,0,0,0,0,-1,1889,1604,0,0
672,-580,0,0,0,0,0,0,0,0,0,-1,1896,1604,0,0
679,-580,0,0,0,0,0,0,0,0,0,-1,1903,1604,0,0
686,-580,0,0,0,0,0,0,0,0,0,-1,1910,1604,0,0
693,-580,0,0,0,0,0,0,0,0,0,-1,1917,1604,0,0
700,-580,0,0,0,0,0,0,0,0,0,-1,1924,1604,0,0
707,-580,0,0,0,0,0,0,0,0,0,-1,1931,1604,0,0
714,-580,0,0,0,0,0,0,0,0,0,-1,1938,1604,0,0
721,-580,0,0,0,0,0,0,0,0,0,-1,1945,1604,0,0
728,-580,0,0,0,0,0,0,0,0,0,-1,1952,1604,0,0
735,-580,0,0,0,0,0,0,0,0,0,-1,1959,1604,0,0
742,-580,0,0,0,0,0,0,0,0,0,-1,1966,1604,0,0
749,-580,0,0,0,0,0,0,0,0,0,-1,1973,1604,0,0
756,-580,0,0,0,0,0,0,0,0,0,-1,1980,1604,0,0
763,-580,0,0,0,0,0,0,0,0,0,-1,1987,1604,0,0
770,-580,0,0,0,0,0,0,0,0,0,-1,1994,1604,0,0
777,-580,0,0,0,0,0,0,0,0,0,-1,2001,1604,0,0
784,-580,0,0,0,0,0,0,0,0,0,-1,2008,1604,0,0
791,-580,0,0,0,0,0,0,0,0,0,-1,2015,1604,0,0
798,-580,0,0,0,0,0,0,0,0,0,-1,2022,1604,0,0
805,-580,0,0,0,0,0,0,0,0,0,-1,2029,1604,0,0
812,-580,0,0,0,0,0,0,0,0,0,-1,2036,1604,0,0
-700,-587,0,0,0,0,0,0,0,0,0,-1,524,1611,0,0
-693,-587,0,0,0,0,0,0,0,0,0,-1,531,1611,0,0
-686,-587,0,0,0,0,0,0,0,0,0,-1,538,1611,0,0
-679,-587,0,0,0,0,0,0,0,0,0,-1,545,1611,0,0
-672,-587,0,0,0,0,0,0,0,0,0,-1,552,1611,0,0
-665,-587,0,0,0,0,0,0,0,0,0,-1,559,1611,0,0
-658,-587,0,0,0,0,0,0,0,0,0,-1,566,1611,0,0
-651,-587,0,0,0,0,0,0,0,0,0,-1,573,1611,0,0
-644,-587,0,0,0,0,0,0,0,0,0,-1,580,1611,0,0
-637,-587,0,0,0,0,0,0,0,0,0,-1,587,1611,0,0
-630,-587,0,0,0,0,0,0,0,0,0,-1,594,1611,0,0
-623,-587,0,0,0,0,0,0,0,0,0,-1,601,1611,0,0
-616,-587,0,0,0,0,0,0,0,0,0,-1,608,1611,0,0
-609,-587,0,0,0,0,0,0,0,0,0,-1,615,1611,0,0
-602,-587,0,0,0,0,0,0,0,0,0,-1,622,1611,0,0
-595,-587,0,0,0,0,0,0,0,0,0,-1,629,1611,0,0
-588,-587,0,0,0,0,0,0,0,0,0,-1,636,1611,0,0
-581,-587,0,0,0,0,0,0,0,0,0,-1,643,1611,0,0
-574,-587,0,0,0,0,0,0,0,0,0,-1,650,1611,0,0
-567,-587,0,0,0,0,0,0,0,0,0,-1,657,1611,0,0
-560,-587,0,0,0,0,0,0,0,0,0,-1,664,1611,0,0
-553,-587,0,0,0,0,0,0,0,0,0,-1,671,1611,0,0
-546,-587,0,0,0,0,0,0,0,0,0,-1,678,1611,0,0
-539,-587,0,0,0,0,0,0,0,0,0,-1,685,1611,0,0
-532,-587,0,0,0,0,0,0,0,0,0,-1,692,1611,0,0
-525,-587,0,0,0,0,0,0,0,0,0,-1,699,1611,0,0
-518,-587,0,0,0,0,0,0,0,0,0,-1,706,1611,0,0
-511,-587,0,0,0,0,0,0,0,0,0,-1,713,1611,0,0
-504,-587,0,0,0,0,0,0,0,0,0,-1,720,1611,0,0
-497,-587,0,0,0,0,0,0,0,0,0,-1,727,1611,0,0
-490,-587,0,0,0,0,0,0,0,0,0,-1,734,1611,0,0
-483,-587,0,0,0,0,0,0,0,0,0,-1,741,1611,0,0
-476,-587,0,0,0,0,0,0,0,0,0,-1,748,1611,0,0
-469,-587,0,0,0,0,0,0,0,0,0,-1,755,1611,0,0
-462,-587,-0.714355,-0.418457,0,0,0,0,0,0,0,-1,762,1611,-0.714359,0.418483
-455,-587,-0.619812,-0.522461,0,0,0,0,0,0,0,-1,769,1611,-0.619802,0.522515
-448,-587,-0.461731,-0.686523,0,0,0,0,0,0,0,-1,776,1611,-0.461739,0.686559
-441,-587,-3.56555,2.72253,0,0,0,0,0,0,0,-1,783,1611,-3.56555,-2.72259
-434,-587,-1.77319,4.76318,0,0,0,0,0,0,0,-1,790,1611,-1.77318,-4.76323
-427,-587,0.0346069,6.92944,0,0,0,0,0,0,0,-1,797,1611,0.034587,-6.92941
-420,-587,-0.647156,10.1157,0,0,0,0,0,0,0,-1,804,1611,-0.647128,-10.1158
-413,-587,2.13971,10.3901,0,0,0,0,0,0,0,-1,811,1611,2.13971,-10.3902
-406,-587,2.2525,19.7814,0,0,0,0,0,0,0,-1,818,1611,2.25253,-19.7814
-399,-587,1.58557,22.186,0,0,0,0,0,0,0,-1,825,1611,1.58556,-22.186
-392,-587,1.51947,22.7019,-0.00293114,-0.00130838,0.00192199,-3.35211e-05,-0.004206,0.985128,0.0027929,0.0441881,832,1611,1.51945,-22.7019
-385,-587,1.31641,23.2378,-0.00256636,-0.00137071,0.00102583,-0.000781217,-0.00315585,1.04923,0.00189787,0.0219557,839,1611,1.31639,-23.2378
-378,-587,1.31989,23.8092,-0.00202744,-0.00139813,0.000788951,-0.000863403,-0.00256217,0.975145,0.00150525,0.0127878,846,1611,1.31989,-23.8093
-371,-587,1.32153,24.3523,-0.00147815,-0.00120519,0.000642104,-0.000685221,-0.00199812,0.890118,0.00117243,0.0133012,853,1611,1.32154,-24.3523
-364,-587,1.33459,24.845,-0.000892976,-0.000784062,0.000625804,-0.00021035,-0.00146669,0.828799,0.000915763,0.017017,860,1611,1.3346,-24.845
-357,-587,1.32086,25.3151,-0.00027937,-0.000164667,0.000664638,0.000445089,-0.000889126,0.828436,0.000784401,0.0161783,867,1611,1.32086,-25.3151
-350,-587,1.28503,25.8247,0.000418606,0.000515261,0.000762871,0.00123133,-0.000297467,0.817031,0.000935937,0.00905362,874,1611,1.28502,-25.8247
-343,-587,1.27765,26.3014,0.00112104,0.00139951,0.000979818,0.00224994,0.000270616,0.855977,0.00141839,0.0110485,881,1611,1.27767,-26.3014
-336,-587,1.25476,26.7864,0.00188863,0.00224903,0.00124716,0.00332894,0.000808724,0.857146,0.00200485,0.0120645,888,1611,1.25476,-26.7864
-329,-587,1.23529,27.2802,0.00266939,0.00315579,0.00160695,0.00453784,0.00128734,0.860501,0.00270041,0.0144055,895,1611,1.23529,-27.2802
-322,-587,1.24146,27.7917,0.00340783,0.00413353,0.0020746,0.00587678,0.00166458,0.871972,0.00349762,0.0173141,902,1611,1.24145,-27.7917
-315,-587,1.22308,28.262,0.00417406,0.00526351,0.00261946,0.00739428,0.00204329,0.887914,0.00440917,0.0140835,909,1611,1.22306,-28.262
-308,-587,1.22052,28.7305,0.00503062,0.00616912,0.00323594,0.0088855,0.00231425,0.872465,0.00532268,0.0142026,916,1611,1.22054,-28.7304
-301,-587,1.29297,29.2164,0.00604988,0.00734705,0.00409482,0.0108443,0.00255259,0.863941,0.00654673,0.0155299,923,1611,1.29299,-29.2164
-294,-587,1.35596,29.7646,0.00704095,0.00890072,0.00532971,0.0133811,0.00256062,0.871765,0.00820151,0.0291183,930,1611,1.35595,-29.7647
-287,-587,1.3443,30.2756,0,0,0,0,0,0,0,-1,937,1611,1.3443,-30.2757
-280,-587,1.67615,31.1719,0,0,0,0,0,0,0,-1,944,1611,1.67615,-31.1718
-273,-587,1.54114,31.5645,0,0,0,0,0,0,0,-1,951,1611,1.54116,-31.5644
-266,-587,1.51874,32.157,0,0,0,0,0,0,0,-1,958,1611,1.51874,-32.157
-259,-587,1.76306,28.5784,0,0,0,0,0,0,0,-1,965,1611,1.76307,-28.5784
-252,-587,1.30188,10.3103,0,0,0,0,0,0,0,-1,972,1611,1.30188,-10.3104
-245,-587,1.52075,27.4791,0,0,0,0,0,0,0,-1,979,1611,1.52076,-27.4791
-238,-587,2.87799,9.53821,0,0,0,0,0,0,0,-1,986,1611,2.87797,-9.53823
-231,-587,2.49548,9.14465,0,0,0,0,0,0,0,-1,993,1611,2.49551,-9.14468
-224,-587,-9.72528,9.21069,0,0,0,0,0,0,0,-1,1000,1611,-9.72529,-9.21072
-217,-587,-7.07495,10.7847,0,0,0,0,0,0,0,-1,1007,1611,-7.07495,-10.7847
-210,-587,-4.72308,12.5889,0,0,0,0,0,0,0,-1,1014,1611,-4.72307,-12.5888
-203,-587,-3.2583,13.7289,0,0,0,0,0,0,0,-1,1021,1611,-3.25828,-13.7289
-196,-587,-1.953,14.8145,0,0,0,0,0,0,0,-1,1028,1611,-1.95302,-14.8144
-189,-587,-3.04138,8.66638,0,0,0,0,0,0,0,-1,1035,1611,-3.04136,-8.66635
-182,-587,-3.97095,9.7146,0,0,0,0,0,0,0,-1,1042,1611,-3.97093,-9.71461
-175,-587,-4.80969,8.37878,0,0,0,0,0,0,0,-1,1049,1611,-4.80964,-8.37883
-168,-587,-5.91394,8.72546,0,0,0,0,0,0,0,-1,1056,1611,-5.91398,-8.72542
-161,-587,-7.06946,8.88501,0,0,0,0,0,0,0,-1,1063,1611,-7.06947,-8.885
-154,-587,-2.24731,6.56519,0,0,0,0,0,0,0,-1,1070,1611,-2.24728,-6.56517
-147,-587,0,0,0,0,0,0,0,0,0,-1,1077,1611,0,0
-140,-587,0,0,0,0,0,0,0,0,0,-1,1084,1611,0,0
-133,-587,0,0,0,0,0,0,0,0,0,-1,1091,1611,0,0
-126,-587,0,0,0,0,0,0,0,0,0,-1,1098,1611,0,0
-119,-587,0,0,0,0,0,0,0,0,0,-1,1105,1611,0,0
-112,-587,0,0,0,0,0,0,0,0,0,-1,1112,1611,0,0
-105,-587,0,0,0,0,0,0,0,0,0,-1,1119,1611,0,0
-98,-587,0,0,0,0,0,0,0,0,0,-1,1126,1611,0,0
-91,-587,0,0,0,0,0,0,0,0,0,-1,1133,1611,0,0
-84,-587,0,0,0,0,0,0,0,0,0,-1,1140,1611,0,0
-77,-587,0,0,0,0,0,0,0,0,0,-1,1147,1611,0,0
-70,-587,0,0,0,0,0,0,0,0,0,-1,1154,1611,0,0
-63,-587,0,0,0,0,0,0,0,0,0,-1,1161,1611,0,0
-56,-587,0,0,0,0,0,0,0,0,0,-1,1168,1611,0,0
-49,-587,0,0,0,0,0,0,0,0,0,-1,1175,1611,0,0
-42,-587,0,0,0,0,0,0,0,0,0,-1,1182,1611,0,0
-35,-587,0,0,0,0,0,0,0,0,0,-1,1189,1611,0,0
-28,-587,0,0,0,0,0,0,0,0,0,-1,1196,1611,0,0
-21,-587,0,0,0,0,0,0,0,0,0,-1,1203,1611,0,0
-14,-587,0,0,0,0,0,0,0,0,0,-1,1210,1611,0,0
-7,-587,0,0,0,0,0,0,0,0,0,-1,1217,1611,0,0
0,-587,0,0,0,0,0,0,0,0,0,-1,1224,1611,0,0
7,-587,0,0,0,0,0,0,0,0,0,-1,1231,1611,0,0
14,-587,0,0,0,0,0,0,0,0,0,-1,1238,1611,0,0
21,-587,0,0,0,0,0,0,0,0,0,-1,1245,1611,0,0
28,-587,0,0,0,0,0,0,0,0,0,-1,1252,1611,0,0
35,-587,0,0,0,0,0,0,0,0,0,-1,1259,1611,0,0
42,-587,0,0,0,0,0,0,0,0,0,-1,1266,1611,0,0
49,-587,0,0,0,0,0,0,0,0,0,-1,1273,1611,0,0
56,-587,0,0,0,0,0,0,0,0,0,-1,1280,1611,0,0
63,-587,0,0,0,0,0,0,0,0,0,-1,1287,1611,0,0
70,-587,0,0,0,0,0,0,0,0,0,-1,1294,1611,0,0
77,-587,0,0,0,0,0,0,0,0,0,-1,1301,1611,0,0
84,-587,0,0,0,0,0,0,0,0,0,-1,1308,1611,0,0
91,-587,0,0,0,0,0,0,0,0,0,-1,1315,1611,0,0
98,-587,0,0,0,0,0,0,0,0,0,-1,1322,1611,0,0
105,-587,0,0,0,0,0,0,0,0,0,-1,1329,1611,0,0
112,-587,0,0,0,0,0,0,0,0,0,-1,1336,1611,0,0
119,-587,0,0,0,0,0,0,0,0,0,-1,1343,1611,0,0
126,-587,0,0,0,0,0,0,0,0,0,-1,1350,1611,0,0
133,-587,0,0,0,0,0,0,0,0,0,-1,1357,1611,0,0
140,-587,0,0,0,0,0,0,0,0,0,-1,1364,1611,0,0
147,-587,0,0,0,0,0,0,0,0,0,-1,1371,1611,0,0
154,-587,0,0,0,0,0,0,0,0,0,-1,1378,1611,0,0
161,-587,0,0,0,0,0,0,0,0,0,-1,1385,1611,0,0
168,-587,0,0,0,0,0,0,0,0,0,-1,1392,1611,0,0
175,-587,0,0,0,0,0,0,0,0,0,-1,1399,1611,0,0
182,-587,0,0,0,0,0,0,0,0,0,-1,1406,1611,0,0
189,-587,0,0,0,0,0,0,0,0,0,-1,1413,1611,0,0
196,-587,0,0,0,0,0,0,0,0,0,-1,1420,1611,0,0
203,-587,0,0,0,0,0,0,0,0,0,-1,1427,1611,0,0
210,-587,0,0,0,0,0,0,0,0,0,-1,1434,1611,0,0
217,-587,0,0,0,0,0,0,0,0,0,-1,1441,1611,0,0
224,-587,0,0,0,0,0,0,0,0,0,-1,1448,1611,0,0
231,-587,0,0,0,0,0,0,0,0,0,-1,1455,1611,0,0
238,-587,0,0,0,0,0,0,0,0,0,-1,1462,1611,0,0
245,-587,0,0,0,0,0,0,0,0,0,-1,1469,1611,0,0
252,-587,0,0,0,0,0,0,0,0,0,-1,1476,1611,0,0
259,-587,0,0,0,0,0,0,0,0,0,-1,1483,1611,0,0
266,-587,0,0,0,0,0,0,0,0,0,-1,1490,1611,0,0
273,-587,10.2936,6.35083,0,0,0,0,0,0,0,-1,1497,1611,10.2936,-6.35087
280,-587,2.09204,1.1217,0,0,0,0,0,0,0,-1,1504,1611,2.092,-1.12176
287,-587,3.2865,0.671509,0,0,0,0,0,0,0,-1,1511,1611,3.28656,-0.671538
294,-587,4.24646,1.58765,0,0,0,0,0,0,0,-1,1518,1611,4.24648,-1.58761
301,-587,7.60474,8.37085,0,0,0,0,0,0,0,-1,1525,1611,7.60478,-8.37084
308,-587,5.99316,10.2291,0,0,0,0,0,0,0,-1,1532,1611,5.99315,-10.2291
315,-587,4.34558,12.3289,0,0,0,0,0,0,0,-1,1539,1611,4.34556,-12.3288
322,-587,10.4526,6.38245,0,0,0,0,0,0,0,-1,1546,1611,10.4526,-6.38245
329,-587,10.7738,8.42444,0,0,0,0,0,0,0,-1,1553,1611,10.7738,-8.42438
336,-587,7.5531,5.96619,0,0,0,0,0,0,0,-1,1560,1611,7.55311,-5.96617
343,-587,9.57495,4.38391,0,0,0,0,0,0,0,-1,1567,1611,9.57494,-4.38397
350,-587,9.50378,3.45093,0,0,0,0,0,0,0,-1,1574,1611,9.50376,-3.4509
357,-587,9.40027,2.50806,0,0,0,0,0,0,0,-1,1581,1611,9.40022,-2.50803
364,-587,9.26477,1.34131,0,0,0,0,0,0,0,-1,1588,1611,9.26479,-1.34126
371,-587,6.98926,7.87561,0,0,0,0,0,0,0,-1,1595,1611,6.98928,-7.87564
378,-587,9.25146,13.8358,0,0,0,0,0,0,0,-1,1602,1611,9.2515,-13.8359
385,-587,13.9305,30.3229,0,0,0,0,0,0,0,-1,1609,1611,13.9305,-30.3228
392,-587,15.4163,32.6893,0,0,0,0,0,0,0,-1,1616,1611,15.4163,-32.6893
399,-587,15.3802,32.2954,-0.000733,0.0267322,-0.00545732,0.0277768,-0.00177763,-1.38167,0.019138,0.0499537,1623,1611,15.3802,-32.2954
406,-587,15.209,31.7743,-0.00129505,0.0223725,-0.00448065,0.0231924,-0.00211491,-1.38982,0.0162126,0.0456112,1630,1611,15.209,-31.7743
413,-587,15.0277,31.0857,-0.00125247,0.0190935,-0.00409909,0.0198883,-0.00204726,-1.37928,0.0139913,0.0397274,1637,1611,15.0277,-31.0857
420,-587,14.9899,30.6945,-0.000715506,0.0167412,-0.00408163,0.0176484,-0.0016227,-1.35209,0.0123421,0.0344786,1644,1611,14.9899,-30.6945
427,-587,15.0085,30.3176,-7.61438e-05,0.0148599,-0.00405495,0.0158898,-0.001106,-1.32208,0.0109804,0.0262378,1651,1611,15.0085,-30.3176
434,-587,15.0631,29.7423,0.000353699,0.0127437,-0.00386102,0.0138484,-0.00075099,-1.29213,0.00949253,0.0190243,1658,1611,15.0631,-29.7423
441,-587,15.0699,29.2369,0.00100622,0.0109741,-0.00372815,0.0122142,-0.000233896,-1.24967,0.00822185,0.0230828,1665,1611,15.07,-29.2369
448,-587,15.0817,28.8976,0.00160769,0.00958823,-0.00354704,0.0109369,0.00025907,-1.20747,0.00720643,0.0164746,1672,1611,15.0816,-28.8976
455,-587,15.1018,28.4423,0.00197553,0.00800197,-0.00351357,0.00961743,0.000360066,-1.13984,0.00629503,0.0144556,1679,1611,15.1018,-28.4422
462,-587,15.092,27.9845,0.00218002,0.00646222,-0.00317194,0.00814807,0.000494173,-1.08228,0.00527504,0.017656,1686,1611,15.0921,-27.9845
469,-587,15.0593,27.5359,0.00213336,0.00504864,-0.00267458,0.006637,0.000545005,-1.03489,0.00425465,0.0165178,1693,1611,15.0594,-27.5359
476,-587,15.0303,27.0795,0.00179876,0.00352612,-0.00210604,0.0049387,0.000386188,-0.979989,0.00317158,0.0108149,1700,1611,15.0303,-27.0795
483,-587,14.9961,26.6051,0.00149833,0.00193473,-0.00159087,0.00332229,0.000110769,-0.853551,0.00217887,0.0133951,1707,1611,14.9961,-26.6051
490,-587,14.9752,26.1471,0.00128822,0.000649289,-0.00124278,0.00225194,-0.000314429,-0.659593,0.00161633,0.0168943,1714,1611,14.9752,-26.1472
497,-587,14.9716,25.6808,0.000780314,-0.000537373,-0.000845699,0.00119352,-0.000950575,-0.45448,0.00124054,0.0131433,1721,1611,14.9716,-25.6807
504,-587,14.9706,25.2308,0.000112575,-0.00167787,-0.000257165,0.00014878,-0.00171407,-0.139866,0.0011954,0.0123485,1728,1611,14.9706,-25.2308
511,-587,14.9635,24.7817,-0.000663308,-0.00281053,0.000517384,-0.000545145,-0.00292869,0.224536,0.0017985,0.014547,1735,1611,14.9635,-24.7817
518,-587,14.9615,24.2813,-0.00120371,-0.00374745,0.00102301,-0.000843341,-0.00410782,0.33869,0.0025052,0.01419,1742,1611,14.9615,-24.2812
525,-587,14.9238,23.8079,-0.00181669,-0.0047037,0.0017139,-0.0010194,-0.00550099,0.435414,0.00337917,0.019707,1749,1611,14.9238,-23.8078
532,-587,14.9729,23.3687,-0.0027095,-0.00593402,0.00292146,-0.000984945,-0.00765857,0.53326,0.00481112,0.0311011,1756,1611,14.9729,-23.3686
539,-587,15.3373,22.6963,-0.00414098,-0.00776448,0.00487194,-0.000754817,-0.0111506,0.607384,0.00719536,0.048492,1763,1611,15.3373,-22.6963
546,-587,15.776,22.0876,0,0,0,0,0,0,0,-1,1770,1611,15.776,-22.0877
553,-587,7.5813,8.45068,0,0,0,0,0,0,0,-1,1777,1611,7.58125,-8.45068
560,-587,4.21179,5.23547,0,0,0,0,0,0,0,-1,1784,1611,4.21185,-5.23553
567,-587,4.03711,5.46387,0,0,0,0,0,0,0,-1,1791,1611,4.03715,-5.46382
574,-587,3.83142,5.68884,0,0,0,0,0,0,0,-1,1798,1611,3.83141,-5.68881
581,-587,3.47168,6.00977,0,0,0,0,0,0,0,-1,1805,1611,3.47167,-6.00983
588,-587,0,0,0,0,0,0,0,0,0,-1,1812,1611,0,0
595,-587,0,0,0,0,0,0,0,0,0,-1,1819,1611,0,0
602,-587,0,0,0,0,0,0,0,0,0,-1,1826,1611,0,0
609,-587,0,0,0,0,0,0,0,0,0,-1,1833,1611,0,0
616,-587,0,0,0,0,0,0,0,0,0,-1,1840,1611,0,0
623,-587,0,0,0,0,0,0,0,0,0,-1,1847,1611,0,0
630,-587,0,0,0,0,0,0,0,0,0,-1,1854,1611,0,0
637,-587,0,0,0,0,0,0,0,0,0,-1,1861,1611,0,0
644,-587,0,0,0,0,0,0,0,0,0,-1,1868,1611,0,0
651,-587,0,0,0,0,0,0,0,0,0,-1,1875,1611,0,0
658,-587,0,0,0,0,0,0,0,0,0,-1,1882,1611,0,0
665,-587,0,0,0,0,0,0,0,0,0,-1,1889,1611,0,0
672,-587,0,0,0,0,0,0,0,0,0,-1,1896,1611,0,0
679,-587,0,0,0,0,0,0,0,0,0,-1,1903,1611,0,0
686,-587,0,0,0,0,0,0,0,0,0,-1,1910,1611,0,0
693,-587,0,0,0,0,0,0,0,0,0,-1,1917,1611,0,0
700,-587,0,0,0,0,0,0,0,0,0,-1,1924,1611,0,0
707,-587,0,0,0,0,0,0,0,0,0,-1,1931,1611,0,0
714,-587,0,0,0,0,0,0,0,0,0,-1,1938,1611,0,0
721,-587,0,0,0,0,0,0,0,0,0,-1,1945,1611,0,0
728,-587,0,0,0,0,0,0,0,0,0,-1,1952,1611,0,0
735,-587,0,0,0,0,0,0,0,0,0,-1,1959,1611,0,0
742,-587,0,0,0,0,0,0,0,0,0,-1,1966,1611,0,0
749,-587,0,0,0,0,0,0,0,0,0,-1,1973,1611,0,0
756,-587,0,0,0,0,0,0,0,0,0,-1,1980,1611,0,0
763,-587,0,0,0,0,0,0,0,0,0,-1,1987,1611,0,0
770,-587,0,0,0,0,0,0,0,0,0,-1,1994,1611,0,0
777,-587,0,0,0,0,0,0,0,0,0,-1,2001,1611,0,0
784,-587,0,0,0,0,0,0,0,0,0,-1,2008,1611,0,0
791,-587,0,0,0,0,0,0,0,0,0,-1,2015,1611,0,0
798,-587,0,0,0,0,0,0,0,0,0,-1,2022,1611,0,0
805,-587,0,0,0,0,0,0,0,0,0,-1,2029,1611,0,0
812,-587,0,0,0,0,0,0,0,0,0,-1,2036,1611,0,0
-700,-594,0,0,0,0,0,0,0,0,0,-1,524,1618,0,0
-693,-594,0,0,0,0,0,0,0,0,0,-1,531,1618,0,0
-686,-594,0,0,0,0,0,0,0,0,0,-1,538,1618,0,0
-679,-594,0,0,0,0,0,0,0,0,0,-1,545,1618,0,0
-672,-594,0,0,0,0,0,0,0,0,0,-1,552,1618,0,0
-665,-594,0,0,0,0,0,0,0,0,0,-1,559,1618,0,0
-658,-594,0,0,0,0,0,0,0,0,0,-1,566,1618,0,0
-651,-594,0,0,0,0,0,0,0,0,0,-1,573,1618,0,0
-644,-594,0,0,0,0,0,0,0,0,0,-1,580,1618,0,0
-637,-594,0,0,0,0,0,0,0,0,0,-1,587,1618,0,0
-630,-594,0,0,0,0,0,0,0,0,0,-1,594,1618,0,0
-623,-594,0,0,0,0,0,0,0,0,0,-1,601,1618,0,0
-616,-594,0,0,0,0,0,0,0,0,0,-1,608,1618,0,0
-609,-594,0,0,0,0,0,0,0,0,0,-1,615,1618,0,0
-602,-594,0,0,0,0,0,0,0,0,0,-1,622,1618,0,0
-595,-594,0,0,0,0,0,0,0,0,0,-1,629,1618,0,0
-588,-594,0,0,0,0,0,0,0,0,0,-1,636,1618,0,0
-581,-594,0,0,0,0,0,0,0,0,0,-1,643,1618,0,0
-574,-594,0,0,0,0,0,0,0,0,0,-1,650,1618,0,0
-567,-594,0,0,0,0,0,0,0,0,0,-1,657,1618,0,0
-560,-594,0,0,0,0,0,0,0,0,0,-1,664,1618,0,0
-553,-594,0,0,0,0,0,0,0,0,0,-1,671,1618,0,0
-546,-594,0,0,0,0,0,0,0,0,0,-1,678,1618,0,0
-539,-594,0,0,0,0,0,0,0,0,0,-1,685,1618,0,0
-532,-594,0,0,0,0,0,0,0,0,0,-1,692,1618,0,0
-525,-594,0,0,0,0,0,0,0,0,0,-1,699,1618,0,0
-518,-594,0,0,0,0,0,0,0,0,0,-1,706,1618,0,0
-511,-594,0,0,0,0,0,0,0,0,0,-1,713,1618,0,0
-504,-594,0,0,0,0,0,0,0,0,0,-1,720,1618,0,0
-497,-594,0,0,0,0,0,0,0,0,0,-1,727,1618,0,0
-490,-594,0,0,0,0,0,0,0,0,0,-1,734,1618,0,0
-483,-594,0,0,0,0,0,0,0,0,0,-1,741,1618,0,0
-476,-594,0,0,0,0,0,0,0,0,0,-1,748,1618,0,0
-469,-594,0,0,0,0,0,0,0,0,0,-1,755,1618,0,0
-462,-594,0,0,0,0,0,0,0,0,0,-1,762,1618,0,0
-455,-594,-0.509216,-1.58411,0,0,0,0,0,0,0,-1,769,1618,-0.509245,1.58415
-448,-594,-7.71887,-0.0559082,0,0,0,0,0,0,0,-1,776,1618,-7.71885,0.055939
-441,-594,-5.78473,1.18298,0,0,0,0,0,0,0,-1,783,1618,-5.78474,-1.18295
-434,-594,-3.93628,3.06213,0,0,0,0,0,0,0,-1,790,1618,-3.93631,-3.06208
-427,-594,-3.97693,6.77759,0,0,0,0,0,0,0,-1,797,1618,-3.97695,-6.77764
-420,-594,-2.53046,7.71606,0,0,0,0,0,0,0,-1,804,1618,-2.53047,-7.71609
-413,-594,-0.860413,8.00391,0,0,0,0,0,0,0,-1,811,1618,-0.860423,-8.00389
-406,-594,2.45746,13.6218,0,0,0,0,0,0,0,-1,818,1618,2.45747,-13.6218
-399,-594,2.20264,20.4915,0,0,0,0,0,0,0,-1,825,1618,2.20266,-20.4915
-392,-594,2.25519,22.6541,0,0,0,0,0,0,0,-1,832,1618,2.25516,-22.6541
-385,-594,1.93317,23.4651,-0.00346497,-0.00179474,0.00115463,-0.00120487,-0.00405485,1.09849,0.00240443,0.036213,839,1618,1.93318,-23.465
-378,-594,1.78314,23.8337,-0.00282046,-0.00201782,0.000859936,-0.00147017,-0.00336811,1.00372,0.0019498,0.0159015,846,1618,1.78314,-23.8337
-371,-594,1.81134,24.3865,-0.00219439,-0.00195341,0.000647087,-0.00141569,-0.00273211,0.877445,0.00157773,0.0118581,853,1618,1.81135,-24.3865
-364,-594,1.83044,24.8777,-0.00160719,-0.00168461,0.000570916,-0.00107368,-0.00221813,0.751547,0.00128086,0.0105939,860,1618,1.83045,-24.8777
-357,-594,1.81116,25.3724,-0.00100224,-0.00118939,0.000553213,-0.000534743,-0.00165688,0.701617,0.000976436,0.010708,867,1618,1.81117,-25.3724
-350,-594,1.77643,25.8579,-0.000340792,-0.000596254,0.000597913,0.000142882,-0.00107993,0.680166,0.000771999,0.0138718,874,1618,1.77644,-25.8579
-343,-594,1.75012,26.3496,0.000314775,0.000184372,0.000749865,0.00100227,-0.000503121,0.742032,0.000884919,0.01509,881,1618,1.75015,-26.3497
-336,-594,1.71027,26.8314,0.00103206,0.000931774,0.000957447,0.00194068,2.31592e-05,0.759236,0.00128614,0.0139542,888,1618,1.71027,-26.8314
-329,-594,1.70459,27.3188,0.00174553,0.00171867,0.0012208,0.00295297,0.000511227,0.779899,0.0018223,0.0142605,895,1618,1.70462,-27.3188
-322,-594,1.72833,27.8054,0.0023868,0.00258558,0.00156966,0.00405899,0.000913389,0.817016,0.00245875,0.0164882,902,1618,1.72835,-27.8054
-315,-594,1.72406,28.2603,0.0030323,0.00353504,0.00197344,0.00527305,0.00129428,0.848745,0.00317318,0.0166998,909,1618,1.72404,-28.2602
-308,-594,1.71442,28.7378,0.00375109,0.00428844,0.00241157,0.00644625,0.00159327,0.840875,0.00387712,0.0149588,916,1618,1.71443,-28.7379
-301,-594,1.70184,29.1892,0.00459583,0.00531363,0.00308176,0.00805731,0.00185214,0.843367,0.00487294,0.0116646,923,1618,1.70184,-29.1892
-294,-594,1.73279,29.6418,0.00544775,0.00667022,0.00400023,0.0101056,0.00201232,0.861212,0.00617657,0.0142385,930,1618,1.73278,-29.6418
-287,-594,1.67566,30.0861,0.00629148,0.0081676,0.00495527,0.0122728,0.00218626,0.878944,0.00755925,0.0250909,937,1618,1.67564,-30.0861
-280,-594,1.79791,30.6022,0.00726682,0.0101884,0.00619217,0.0150898,0.00236547,0.901235,0.00937139,0.0301568,944,1618,1.7979,-30.6021
-273,-594,1.77826,31.1548,0.00836272,0.0121852,0.00757478,0.0180861,0.00246178,0.908977,0.0113264,0.0377605,951,1618,1.77826,-31.1548
-266,-594,1.80359,31.7585,0.00958367,0.0148143,0.00914905,0.0217145,0.00268348,0.924614,0.0136699,0.0462095,958,1618,1.80358,-31.7585
-259,-594,1.78992,31.9567,0,0,0,0,0,0,0,-1,965,1618,1.78989,-31.9567
-252,-594,2.05609,32.7312,0,0,0,0,0,0,0,-1,972,1618,2.05609,-32.7312
-245,-594,1.96844,33.3866,0,0,0,0,0,0,0,-1,979,1618,1.96842,-33.3866
-238,-594,2.09015,28.0121,0,0,0,0,0,0,0,-1,986,1618,2.09012,-28.0121
-231,-594,1.93774,9.35388,0,0,0,0,0,0,0,-1,993,1618,1.93776,-9.35393
-224,-594,1.81824,8.62744,0,0,0,0,0,0,0,-1,1000,1618,1.81822,-8.62745
-217,-594,-8.24066,12.0752,0,0,0,0,0,0,0,-1,1007,1618,-8.24068,-12.0751
-210,-594,-5.61438,14.2119,0,0,0,0,0,0,0,-1,1014,1618,-5.6144,-14.212
-203,-594,-3.94507,15.5768,0,0,0,0,0,0,0,-1,1021,1618,-3.94506,-15.5768
-196,-594,2.78613,10.5815,0,0,0,0,0,0,0,-1,1028,1618,2.78612,-10.5815
-189,-594,2.60913,9.48865,0,0,0,0,0,0,0,-1,1035,1618,2.6091,-9.48871
-182,-594,1.2395,9.38806,0,0,0,0,0,0,0,-1,1042,1618,1.23951,-9.38804
-175,-594,0.234863,8.73792,0,0,0,0,0,0,0,-1,1049,1618,0.234812,-8.73786
-168,-594,-0.495483,8.46289,0,0,0,0,0,0,0,-1,1056,1618,-0.495513,-8.46285
-161,-594,-1.39734,8.28699,0,0,0,0,0,0,0,-1,1063,1618,-1.39729,-8.28699
-154,-594,-0.000854492,7.68445,0,0,0,0,0,0,0,-1,1070,1618,-0.000805755,-7.6845
-147,-594,0.348267,9.3385,0,0,0,0,0,0,0,-1,1077,1618,0.348237,-9.33849
-140,-594,0.675171,11.5884,0,0,0,0,0,0,0,-1,1084,1618,0.675204,-11.5884
-133,-594,0,0,0,0,0,0,0,0,0,-1,1091,1618,0,0
-126,-594,0,0,0,0,0,0,0,0,0,-1,1098,1618,0,0
-119,-594,0,0,0,0,0,0,0,0,0,-1,1105,1618,0,0
-112,-594,0,0,0,0,0,0,0,0,0,-1,1112,1618,0,0
-105,-594,0,0,0,0,0,0,0,0,0,-1,1119,1618,0,0
-98,-594,0,0,0,0,0,0,0,0,0,-1,1126,1618,0,0
-91,-594,0,0,0,0,0,0,0,0,0,-1,1133,1618,0,0
-84,-594,0,0,0,0,0,0,0,0,0,-1,1140,1618,0,0
-77,-594,0,0,0,0,0,0,0,0,0,-1,1147,1618,0,0
-70,-594,0,0,0,0,0,0,0,0,0,-1,1154,1618,0,0
-63,-594,0,0,0,0,0,0,0,0,0,-1,1161,1618,0,0
-56,-594,0,0,0,0,0,0,0,0,0,-1,1168,1618,0,0
-49,-594,0,0,0,0,0,0,0,0,0,-1,1175,1618,0,0
-42,-594,0,0,0,0,0,0,0,0,0,-1,1182,1618,0,0
-35,-594,0,0,0,0,0,0,0,0,0,-1,1189,1618,0,0
-28,-594,0,0,0,0,0,0,0,0,0,-1,1196,1618,0,0
-21,-594,0,0,0,0,0,0,0,0,0,-1,1203,1618,0,0
-14,-594,0,0,0,0,0,0,0,0,0,-1,1210,1618,0,0
-7,-594,0,0,0,0,0,0,0,0,0,-1,1217,1618,0,0
0,-594,0,0,0,0,0,0,0,0,0,-1,1224,1618,0,0
7,-594,0,0,0,0,0,0,0,0,0,-1,1231,1618,0,0
14,-594,0,0,0,0,0,0,0,0,0,-1,1238,1618,0,0
21,-594,0,0,0,0,0,0,0,0,0,-1,1245,1618,0,0
28,-594,0,0,0,0,0,0,0,0,0,-1,1252,1618,0,0
35,-594,0,0,0,0,0,0,0,0,0,-1,1259,1618,0,0
42,-594,0,0,0,0,0,0,0,0,0,-1,1266,1618,0,0
49,-594,0,0,0,0,0,0,0,0,0,-1,1273,1618,0,0
56,-594,0,0,0,0,0,0,0,0,0,-1,1280,1618,0,0
63,-594,0,0,0,0,0,0,0,0,0,-1,1287,1618,0,0
70,-594,0,0,0,0,0,0,0,0,0,-1,1294,1618,0,0
77,-594,0,0,0,0,0,0,0,0,0,-1,1301,1618,0,0
84,-594,0,0,0,0,0,0,0,0,0,-1,1308,1618,0,0
91,-594,0,0,0,0,0,0,0,0,0,-1,1315,1618,0,0
98,-594,0,0,0,0,0,0,0,0,0,-1,1322,1618,0,0
105,-594,0,0,0,0,0,0,0,0,0,-1,1329,1618,0,0
112,-594,0,0,0,0,0,0,0,0,0,-1,1336,1618,0,0
119,-594,0,0,0,0,0,0,0,0,0,-1,1343,1618,0,0
126,-594,0,0,0,0,0,0,0,0,0,-1,1350,1618,0,0
133,-594,0,0,0,0,0,0,0,0,0,-1,1357,1618,0,0
140,-594,0,0,0,0,0,0,0,0,0,-1,1364,1618,0,0
147,-594,0,0,0,0,0,0,0,0,0,-1,1371,1618,0,0
154,-594,0,0,0,0,0,0,0,0,0,-1,1378,1618,0,0
161,-594,0,0,0,0,0,0,0,0,0,-1,1385,1618,0,0
168,-594,0,0,0,0,0,0,0,0,0,-1,1392,1618,0,0
175,-594,0,0,0,0,0,0,0,0,0,-1,1399,1618,0,0
182,-594,0,0,0,0,0,0,0,0,0,-1,1406,1618,0,0
189,-594,0,0,0,0,0,0,0,0,0,-1,1413,1618,0,0
196,-594,0,0,0,0,0,0,0,0,0,-1,1420,1618,0,0
203,-594,0,0,0,0,0,0,0,0,0,-1,1427,1618,0,0
210,-594,0,0,0,0,0,0,0,0,0,-1,1434,1618,0,0
217,-594,0,0,0,0,0,0,0,0,0,-1,1441,1618,0,0
224,-594,0,0,0,0,0,0,0,0,0,-1,1448,1618,0,0
231,-594,0,0,0,0,0,0,0,0,0,-1,1455,1618,0,0
238,-594,0,0,0,0,0,0,0,0,0,-1,1462,1618,0,0
245,-594,0,0,0,0,0,0,0,0,0,-1,1469,1618,0,0
252,-594,3.03674,1.20996,0,0,0,0,0,0,0,-1,1476,1618,3.0368,-1.20999
259,-594,4.79834,1.53113,0,0,0,0,0,0,0,-1,1483,1618,4.79837,-1.53118
266,-594,3.71606,2.68152,0,0,0,0,0,0,0,-1,1490,1618,3.71609,-2.68149
273,-594,9.7655,6.33557,0,0,0,0,0,0,0,-1,1497,1618,9.76555,-6.33554
280,-594,3.13281,0.911255,0,0,0,0,0,0,0,-1,1504,1618,3.13277,-0.911207
287,-594,4.42749,1.51563,0,0,0,0,0,0,0,-1,1511,1618,4.42747,-1.51564
294,-594,5.36475,3.34937,0,0,0,0,0,0,0,-1,1518,1618,5.36475,-3.3494
301,-594,7.97144,9.04333,0,0,0,0,0,0,0,-1,1525,1618,7.9714,-9.04328
308,-594,6.30347,10.4633,0,0,0,0,0,0,0,-1,1532,1618,6.30351,-10.4633
315,-594,4.62012,11.934,0,0,0,0,0,0,0,-1,1539,1618,4.62006,-11.934
322,-594,2.91528,13.3134,0,0,0,0,0,0,0,-1,1546,1618,2.91523,-13.3133
329,-594,4.19861,9.77258,0,0,0,0,0,0,0,-1,1553,1618,4.19865,-9.77264
336,-594,10.1353,4.66528,0,0,0,0,0,0,0,-1,1560,1618,10.1353,-4.66533
343,-594,10.5729,3.71228,0,0,0,0,0,0,0,-1,1567,1618,10.5729,-3.71232
350,-594,10.219,2.98792,0,0,0,0,0,0,0,-1,1574,1618,10.219,-2.98797
357,-594,9.83154,1.96326,0,0,0,0,0,0,0,-1,1581,1618,9.8315,-1.96321
364,-594,9.74939,0.700562,0,0,0,0,0,0,0,-1,1588,1618,9.74939,-0.700615
371,-594,8.54297,14.3988,0,0,0,0,0,0,0,-1,1595,1618,8.54296,-14.3989
378,-594,14.4838,34.23,0,0,0,0,0,0,0,-1,1602,1618,14.4837,-34.23
385,-594,14.6281,33.7035,0,0,0,0,0,0,0,-1,1609,1618,14.628,-33.7035
392,-594,14.6385,32.3942,0,0,0,0,0,0,0,-1,1616,1618,14.6385,-32.3942
399,-594,14.7146,32.0482,0.00102924,0.0222854,-0.00485343,0.0233412,-2.65073e-05,-1.35661,0.0155696,0.0411566,1623,1618,14.7146,-32.0482
406,-594,14.6945,31.6459,0.000367322,0.0184035,-0.00387372,0.0192003,-0.000429458,-1.36794,0.0129457,0.0262012,1630,1618,14.6945,-31.6459
413,-594,14.676,31.1957,0.000113872,0.0152341,-0.00334356,0.0159405,-0.000592496,-1.3626,0.0108299,0.0181097,1637,1618,14.676,-31.1956
420,-594,14.6316,30.7498,0.000203442,0.0130379,-0.00314636,0.0137678,-0.000526383,-1.34287,0.00935891,0.0154299,1644,1618,14.6315,-30.7497
427,-594,14.6414,30.2817,0.000448886,0.0113356,-0.00303312,0.0121236,-0.000339122,-1.31661,0.00819781,0.0122297,1651,1618,14.6413,-30.2817
434,-594,14.6151,29.8243,0.000568096,0.00948241,-0.00282475,0.0103021,-0.000251627,-1.28836,0.00695348,0.017041,1658,1618,14.6151,-29.8243
441,-594,14.6033,29.3583,0.000917154,0.00799309,-0.00270465,0.00890847,1.76625e-06,-1.24445,0.00593839,0.0170378,1665,1618,14.6033,-29.3583
448,-594,14.6392,28.9183,0.00122677,0.00685438,-0.00253079,0.00782507,0.000256084,-1.20455,0.00513348,0.0166748,1672,1618,14.6392,-28.9184
455,-594,14.6315,28.4425,0.00139114,0.00556591,-0.00248941,0.00672727,0.000229776,-1.13429,0.00441025,0.0120435,1679,1618,14.6315,-28.4425
462,-594,14.6404,27.9904,0.00144812,0.00428995,-0.00220687,0.00549378,0.000244297,-1.07142,0.00358386,0.0132513,1686,1618,14.6404,-27.9904
469,-594,14.609,27.5586,0.00130452,0.00309111,-0.00179631,0.00420398,0.000191647,-1.01614,0.00274101,0.0125764,1693,1618,14.609,-27.5586
476,-594,14.5874,27.0978,0.000938501,0.0017845,-0.00130029,0.00272887,-5.86419e-06,-0.942655,0.0018212,0.0124246,1700,1618,14.5874,-27.0978
483,-594,14.5696,26.6444,0.000630564,0.00038478,-0.000842961,0.00135954,-0.0003442,-0.713015,0.00104025,0.0156303,1707,1618,14.5696,-26.6444
490,-594,14.5323,26.1787,0.000511735,-0.000680677,-0.000643977,0.000793121,-0.000962063,-0.411949,0.00101492,0.0142757,1714,1618,14.5323,-26.1787
497,-594,14.5278,25.6969,0.000118324,-0.00172928,-0.000395216,0.000199314,-0.00181027,-0.202126,0.00127847,0.0106076,1721,1618,14.5278,-25.697
504,-594,14.5308,25.2242,-0.000402753,-0.00269129,5.11211e-05,-0.000401612,-0.00269243,0.0223231,0.00167719,0.0107299,1728,1618,14.5308,-25.2243
511,-594,14.52,24.7441,-0.000992398,-0.00377429,0.000689725,-0.000830781,-0.0039359,0.230169,0.00239552,0.0155881,1735,1618,14.5201,-24.7441
518,-594,14.4534,24.2578,-0.00127013,-0.00469175,0.000957116,-0.0010206,-0.00494129,0.255036,0.00301219,0.0214591,1742,1618,14.4534,-24.2578
525,-594,14.3772,23.8231,-0.00165959,-0.00549332,0.00146775,-0.00116219,-0.00599072,0.326738,0.0036683,0.0345469,1749,1618,14.3772,-23.8231
532,-594,14.7235,23.2909,0,0,0,0,0,0,0,-1,1756,1618,14.7235,-23.2908
539,-594,15.2343,22.4663,0,0,0,0,0,0,0,-1,1763,1618,15.2343,-22.4663
546,-594,7.48645,8.54785,0,0,0,0,0,0,0,-1,1770,1618,7.48639,-8.54789
553,-594,3.69714,5.68762,0,0,0,0,0,0,0,-1,1777,1618,3.69715,-5.68764
560,-594,6.06616,4.44482,0,0,0,0,0,0,0,-1,1784,1618,6.06621,-4.44477
567,-594,5.97266,4.73303,0,0,0,0,0,0,0,-1,1791,1618,5.97271,-4.73309
574,-594,5.9906,4.96326,0,0,0,0,0,0,0,-1,1798,1618,5.99065,-4.96326
581,-594,0,0,0,0,0,0,0,0,0,-1,1805,1618,0,0
588,-594,0,0,0,0,0,0,0,0,0,-1,1812,1618,0,0
595,-594,0,0,0,0,0,0,0,0,0,-1,1819,1618,0,0
602,-594,0,0,0,0,0,0,0,0,0,-1,1826,1618,0,0
609,-594,0,0,0,0,0,0,0,0,0,-1,1833,1618,0,0
616,-594,0,0,0,0,0,0,0,0,0,-1,1840,1618,0,0
623,-594,0,0,0,0,0,0,0,0,0,-1,1847,1618,0,0
630,-594,0,0,0,0,0,0,0,0,0,-1,1854,1618,0,0
637,-594,0,0,0,0,0,0,0,0,0,-1,1861,1618,0,0
644,-594,0,0,0,0,0,0,0,0,0,-1,1868,1618,0,0
651,-594,0,0,0,0,0,0,0,0,0,-1,1875,1618,0,0
658,-594,0,0,0,0,0,0,0,0,0,-1,1882,1618,0,0
665,-594,0,0,0,0,0,0,0,0,0,-1,1889,1618,0,0
672,-594,0,0,0,0,0,0,0,0,0,-1,1896,1618,0,0
679,-594,0,0,0,0,0,0,0,0,0,-1,1903,1618,0,0
686,-594,0,0,0,0,0,0,0,0,0,-1,1910,1618,0,0
693,-594,0,0,0,0,0,0,0,0,0,-1,1917,1618,0,0
700,-594,0,0,0,0,0,0,0,0,0,-1,1924,1618,0,0
707,-594,0,0,0,0,0,0,0,0,0,-1,1931,1618,0,0
714,-594,0,0,0,0,0,0,0,0,0,-1,1938,1618,0,0
721,-594,0,0,0,0,0,0,0,0,0,-1,1945,1618,0,0
728,-594,0,0,0,0,0,0,0,0,0,-1,1952,1618,0,0
735,-594,0,0,0,0,0,0,0,0,0,-1,1959,1618,0,0
742,-594,0,0,0,0,0,0,0,0,0,-1,1966,1618,0,0
749,-594,0,0,0,0,0,0,0,0,0,-1,1973,1618,0,0
756,-594,0,0,0,0,0,0,0,0,0,-1,1980,1618,0,0
763,-594,0,0,0,0,0,0,0,0,0,-1,1987,1618,0,0
770,-594,0,0,0,0,0,0,0,0,0,-1,1994,1618,0,0
777,-594,0,0,0,0,0,0,0,0,0,-1,2001,1618,0,0
784,-594,0,0,0,0,0,0,0,0,0,-1,2008,1618,0,0
791,-594,0,0,0,0,0,0,0,0,0,-1,2015,1618,0,0
798,-594,0,0,0,0,0,0,0,0,0,-1,2022,1618,0,0
805,-594,0,0,0,0,0,0,0,0,0,-1,2029,1618,0,0
812,-594,0,0,0,0,0,0,0,0,0,-1,2036,1618,0,0
-700,-601,0,0,0,0,0,0,0,0,0,-1,524,1625,0,0
-693,-601,0,0,0,0,0,0,0,0,0,-1,531,1625,0,0
-686,-601,0,0,0,0,0,0,0,0,0,-1,538,1625,0,0
-679,-601,0,0,0,0,0,0,0,0,0,-1,545,1625,0,0
-672,-601,0,0,0,0,0,0,0,0,0,-1,552,1625,0,0
-665,-601,0,0,0,0,0,0,0,0,0,-1,559,1625,0,0
-658,-601,0,0,0,0,0,0,0,0,0,-1,566,1625,0,0
-651,-601,0,0,0,0,0,0,0,0,0,-1,573,1625,0,0
-644,-601,0,0,0,0,0,0,0,0,0,-1,580,1625,0,0
-637,-601,0,0,0,0,0,0,0,0,0,-1,587,1625,0,0
-630,-601,0,0,0,0,0,0,0,0,0,-1,594,1625,0,0
-623,-601,0,0,0,0,0,0,0,0,0,-1,601,1625,0,0
-616,-601,0,0,0,0,0,0,0,0,0,-1,608,1625,0,0
-609,-601,0,0,0,0,0,0,0,0,0,-1,615,1625,0,0
-602,-601,0,0,0,0,0,0,0,0,0,-1,622,1625,0,0
-595,-601,0,0,0,0,0,0,0,0,0,-1,629,1625,0,0
-588,-601,0,0,0,0,0,0,0,0,0,-1,636,1625,0,0
-581,-601,0,0,0,0,0,0,0,0,0,-1,643,1625,0,0
-574,-601,0,0,0,0,0,0,0,0,0,-1,650,1625,0,0
-567,-601,0,0,0,0,0,0,0,0,0,-1,657,1625,0,0
-560,-601,0,0,0,0,0,0,0,0,0,-1,664,1625,0,0
-553,-601,0,0,0,0,0,0,0,0,0,-1,671,1625,0,0
-546,-601,0,0,0,0,0,0,0,0,0,-1,678,1625,0,0
-539,-601,0,0,0,0,0,0,0,0,0,-1,685,1625,0,0
-532,-601,0,0,0,0,0,0,0,0,0,-1,692,1625,0,0
-525,-601,0,0,0,0,0,0,0,0,0,-1,699,1625,0,0
-518,-601,0,0,0,0,0,0,0,0,0,-1,706,1625,0,0
-511,-601,0,0,0,0,0,0,0,0,0,-1,713,1625,0,0
-504,-601,0,0,0,0,0,0,0,0,0,-1,720,1625,0,0
-497,-601,0,0,0,0,0,0,0,0,0,-1,727,1625,0,0
-490,-601,0,0,0,0,0,0,0,0,0,-1,734,1625,0,0
-483,-601,0,0,0,0,0,0,0,0,0,-1,741,1625,0,0
-476,-601,0,0,0,0,0,0,0,0,0,-1,748,1625,0,0
-469,-601,0,0,0,0,0,0,0,0,0,-1,755,1625,0,0
-462,-601,0,0,0,0,0,0,0,0,0,-1,762,1625,0,0
-455,-601,0,0,0,0,0,0,0,0,0,-1,769,1625,0,0
-448,-601,-7.07623,2.7616,0,0,0,0,0,0,0,-1,776,1625,-7.07626,-2.76161
-441,-601,-6.06689,3.33447,0,0,0,0,0,0,0,-1,783,1625,-6.06691,-3.33448
-434,-601,-5.02655,3.8468,0,0,0,0,0,0,0,-1,790,1625,-5.02657,-3.84674
-427,-601,-5.78601,4.2406,0,0,0,0,0,0,0,-1,797,1625,-5.786,-4.24058
-420,-601,-5.5191,5.60364,0,0,0,0,0,0,0,-1,804,1625,-5.51907,-5.60368
-413,-601,-4.30756,5.86047,0,0,0,0,0,0,0,-1,811,1625,-4.30757,-5.86046
-406,-601,-1.67493,7.20422,0,0,0,0,0,0,0,-1,818,1625,-1.67493,-7.20428
-399,-601,1.40094,15.3108,0,0,0,0,0,0,0,-1,825,1625,1.40096,-15.3107
-392,-601,2.37982,22.6403,0,0,0,0,0,0,0,-1,832,1625,2.37979,-22.6403
-385,-601,2.38879,23.3458,-0.00456717,-0.00231152,0.00114926,-0.00182913,-0.00504957,1.17339,0.00295203,0.0499633,839,1625,2.3888,-23.3458
-378,-601,2.34387,23.957,-0.00379951,-0.00272642,0.000792302,-0.00230608,-0.00421984,1.08303,0.00243984,0.0422527,846,1625,2.34389,-23.9571
-371,-601,2.28711,24.3536,-0.00302189,-0.00272942,0.000572586,-0.00228469,-0.00346662,0.910425,0.00203493,0.0235677,853,1625,2.28712,-24.3536
-364,-601,2.30023,24.8732,-0.00238181,-0.00255469,0.000469747,-0.00199062,-0.00294589,0.694408,0.00173547,0.0132794,860,1625,2.30021,-24.8732
-357,-601,2.25897,25.3785,-0.00173984,-0.00212194,0.000427168,-0.00146295,-0.00239883,0.575117,0.00139607,0.0105932,867,1625,2.25897,-25.3786
-350,-601,2.25488,25.915,-0.00107155,-0.0015479,0.000462089,-0.00078987,-0.00182959,0.54744,0.00105959,0.020036,874,1625,2.25491,-25.9151
-343,-601,2.20538,26.425,-0.000413172,-0.000813339,0.000586624,6.55156e-06,-0.00123306,0.621046,0.000824234,0.0219341,881,1625,2.20538,-26.4251
-336,-601,2.16278,26.9001,0.000301125,-9.67724e-05,0.000773509,0.000900861,-0.000696508,0.659525,0.000924753,0.0192126,888,1625,2.16276,-26.9001
-329,-601,2.18707,27.3739,0.000989745,0.000640617,0.000979959,0.00181057,-0.000180205,0.697256,0.00127138,0.0159448,895,1625,2.18709,-27.3739
-322,-601,2.20483,27.8344,0.00157771,0.00146548,0.00125166,0.00277451,0.000268674,0.762997,0.00176694,0.0133915,902,1625,2.20483,-27.8344
-315,-601,2.19775,28.2667,0.00213773,0.0022976,0.0015473,0.00376703,0.000668298,0.811206,0.00232088,0.0135511,909,1625,2.19777,-28.2668
-308,-601,2.17249,28.7347,0.00274049,0.00297325,0.00183836,0.00469891,0.00101483,0.81701,0.0028551,0.0122986,916,1625,2.17247,-28.7348
-301,-601,2.16687,29.2056,0.00346817,0.00389485,0.00234568,0.00603687,0.00132614,0.830749,0.00366344,0.0102813,923,1625,2.16686,-29.2056
-294,-601,2.17151,29.6631,0.00419574,0.00508213,0.00303487,0.00770599,0.00157188,0.857903,0.00470178,0.010095,930,1625,2.1715,-29.6631
-287,-601,2.13824,30.1272,0.00489701,0.00641713,0.00375604,0.00948924,0.0018249,0.885229,0.00581412,0.0107502,937,1625,2.13825,-30.1272
-280,-601,2.15771,30.5916,0.00572309,0.00804001,0.00466678,0.01169,0.00207314,0.907057,0.00720241,0.014907,944,1625,2.15769,-30.5916
-273,-601,2.15369,31.0894,0.00665389,0.00968047,0.00569542,0.0140602,0.00227414,0.915249,0.0087149,0.0173042,951,1625,2.15366,-31.0894
-266,-601,2.20697,31.595,0.00768665,0.0118009,0.00691611,0.0169593,0.00252821,0.929951,0.0105648,0.0213307,958,1625,2.20698,-31.5949
-259,-601,2.22424,31.9338,0.00870578,0.0141223,0.00838326,0.0202239,0.00260417,0.941634,0.0127038,0.0301529,965,1625,2.22425,-31.9339
-252,-601,2.34479,32.6191,0.00984988,0.0166388,0.00974941,0.0235678,0.00292092,0.952921,0.0148344,0.0437883,972,1625,2.3448,-32.6191
-245,-601,2.38647,33.2733,0.0110417,0.019356,0.0111637,0.0271115,0.00328621,0.963634,0.0170846,0.0480441,979,1625,2.38645,-33.2734
-238,-601,2.58374,33.9039,0,0,0,0,0,0,0,-1,986,1625,2.58371,-33.904
-231,-601,2.66772,13.7051,0,0,0,0,0,0,0,-1,993,1625,2.6677,-13.7051
-224,-601,-0.0305176,9.13684,0,0,0,0,0,0,0,-1,1000,1625,-0.030498,-9.13681
-217,-601,3.39429,10.3898,0,0,0,0,0,0,0,-1,1007,1625,3.39431,-10.3898
-210,-601,-6.53699,15.7931,0,0,0,0,0,0,0,-1,1014,1625,-6.53697,-15.7931
-203,-601,2.69348,15.9099,0,0,0,0,0,0,0,-1,1021,1625,2.69351,-15.91
-196,-601,2.66992,16.1815,0,0,0,0,0,0,0,-1,1028,1625,2.66995,-16.1815
-189,-601,2.849,16.6105,0,0,0,0,0,0,0,-1,1035,1625,2.84902,-16.6104
-182,-601,1.82153,13.9752,0,0,0,0,0,0,0,-1,1042,1625,1.82155,-13.9752
-175,-601,0.544922,9.28687,0,0,0,0,0,0,0,-1,1049,1625,0.544879,-9.28685
-168,-601,-0.247559,8.97461,0,0,0,0,0,0,0,-1,1056,1625,-0.247598,-8.97466
-161,-601,-1.16833,8.80078,0,0,0,0,0,0,0,-1,1063,1625,-1.16837,-8.80081
-154,-601,1.12756,7.94861,0,0,0,0,0,0,0,-1,1070,1625,1.12762,-7.94855
-147,-601,1.35352,9.55432,0,0,0,0,0,0,0,-1,1077,1625,1.35351,-9.55429
-140,-601,1.72437,11.1498,0,0,0,0,0,0,0,-1,1084,1625,1.72432,-11.1498
-133,-601,2.13281,12.8347,0,0,0,0,0,0,0,-1,1091,1625,2.13287,-12.8348
-126,-601,3.09534,15.427,0,0,0,0,0,0,0,-1,1098,1625,3.0953,-15.4271
-119,-601,1.22485,9.43457,0,0,0,0,0,0,0,-1,1105,1625,1.22489,-9.43456
-112,-601,0,0,0,0,0,0,0,0,0,-1,1112,1625,0,0
-105,-601,0,0,0,0,0,0,0,0,0,-1,1119,1625,0,0
-98,-601,0,0,0,0,0,0,0,0,0,-1,1126,1625,0,0
-91,-601,0,0,0,0,0,0,0,0,0,-1,1133,1625,0,0
-84,-601,0,0,0,0,0,0,0,0,0,-1,1140,1625,0,0
-77,-601,0,0,0,0,0,0,0,0,0,-1,1147,1625,0,0
-70,-601,0,0,0,0,0,0,0,0,0,-1,1154,1625,0,0
-63,-601,0,0,0,0,0,0,0,0,0,-1,1161,1625,0,0
-56,-601,0,0,0,0,0,0,0,0,0,-1,1168,1625,0,0
-49,-601,0,0,0,0,0,0,0,0,0,-1,1175,1625,0,0
-42,-601,0,0,0,0,0,0,0,0,0,-1,1182,1625,0,0
-35,-601,0,0,0,0,0,0,0,0,0,-1,1189,1625,0,0
-28,-601,0,0,0,0,0,0,0,0,0,-1,1196,1625,0,0
-21,-601,0,0,0,0,0,0,0,0,0,-1,1203,1625,0,0
-14,-601,0,0,0,0,0,0,0,0,0,-1,1210,1625,0,0
-7,-601,0,0,0,0,0,0,0,0,0,-1,1217,1625,0,0
0,-601,0,0,0,0,0,0,0,0,0,-1,1224,1625,0,0
7,-601,0,0,0,0,0,0,0,0,0,-1,1231,1625,0,0
14,-601,0,0,0,0,0,0,0,0,0,-1,1238,1625,0,0
21,-601,0,0,0,0,0,0,0,0,0,-1,1245,1625,0,0
28,-601,0,0,0,0,0,0,0,0,0,-1,1252,1625,0,0
35,-601,0,0,0,0,0,0,0,0,0,-1,1259,1625,0,0
42,-601,0,0,0,0,0,0,0,0,0,-1,1266,1625,0,0
49,-601,0,0,0,0,0,0,0,0,0,-1,1273,1625,0,0
56,-601,0,0,0,0,0,0,0,0,0,-1,1280,1625,0,0
63,-601,0,0,0,0,0,0,0,0,0,-1,1287,1625,0,0
70,-601,0,0,0,0,0,0,0,0,0,-1,1294,1625,0,0
77,-601,0,0,0,0,0,0,0,0,0,-1,1301,1625,0,0
84,-601,0,0,0,0,0,0,0,0,0,-1,1308,1625,0,0
91,-601,0,0,0,0,0,0,0,0,0,-1,1315,1625,0,0
98,-601,0,0,0,0,0,0,0,0,0,-1,1322,1625,0,0
105,-601,0,0,0,0,0,0,0,0,0,-1,1329,1625,0,0
112,-601,0,0,0,0,0,0,0,0,0,-1,1336,1625,0,0
119,-601,0,0,0,0,0,0,0,0,0,-1,1343,1625,0,0
126,-601,0,0,0,0,0,0,0,0,0,-1,1350,1625,0,0
133,-601,0,0,0,0,0,0,0,0,0,-1,1357,1625,0,0
140,-601,0,0,0,0,0,0,0,0,0,-1,1364,1625,0,0
147,-601,0,0,0,0,0,0,0,0,0,-1,1371,1625,0,0
154,-601,0,0,0,0,0,0,0,0,0,-1,1378,1625,0,0
161,-601,0,0,0,0,0,0,0,0,0,-1,1385,1625,0,0
168,-601,0,0,0,0,0,0,0,0,0,-1,1392,1625,0,0
175,-601,0,0,0,0,0,0,0,0,0,-1,1399,1625,0,0
182,-601,0,0,0,0,0,0,0,0,0,-1,1406,1625,0,0
189,-601,0,0,0,0,0,0,0,0,0,-1,1413,1625,0,0
196,-601,0,0,0,0,0,0,0,0,0,-1,1420,1625,0,0
203,-601,0,0,0,0,0,0,0,0,0,-1,1427,1625,0,0
210,-601,0,0,0,0,0,0,0,0,0,-1,1434,1625,0,0
217,-601,0,0,0,0,0,0,0,0,0,-1,1441,1625,0,0
224,-601,0,0,0,0,0,0,0,0,0,-1,1448,1625,0,0
231,-601,-0.0371094,0.525879,0,0,0,0,0,0,0,-1,1455,1625,-0.0371518,-0.525824
238,-601,2.03369,-1.32861,0,0,0,0,0,0,0,-1,1462,1625,2.03364,1.32858
245,-601,2.71375,2.44983,0,0,0,0,0,0,0,-1,1469,1625,2.71371,-2.44979
252,-601,4.66943,2.28381,0,0,0,0,0,0,0,-1,1476,1625,4.66947,-2.28376
259,-601,6.42712,2.61987,0,0,0,0,0,0,0,-1,1483,1625,6.42711,-2.61985
266,-601,6.75317,1.68701,0,0,0,0,0,0,0,-1,1490,1625,6.75323,-1.687
273,-601,5.4314,2.92053,0,0,0,0,0,0,0,-1,1497,1625,5.43144,-2.92051
280,-601,4.64722,1.17786,0,0,0,0,0,0,0,-1,1504,1625,4.64722,-1.1779
287,-601,5.32532,2.6217,0,0,0,0,0,0,0,-1,1511,1625,5.32535,-2.62171
294,-601,5.97693,4.22693,0,0,0,0,0,0,0,-1,1518,1625,5.97697,-4.22694
301,-601,7.28162,9.50024,0,0,0,0,0,0,0,-1,1525,1625,7.28162,-9.50025
308,-601,6.53528,10.3927,0,0,0,0,0,0,0,-1,1532,1625,6.53529,-10.3927
315,-601,4.88013,11.7184,0,0,0,0,0,0,0,-1,1539,1625,4.88015,-11.7184
322,-601,3.38098,12.7864,0,0,0,0,0,0,0,-1,1546,1625,3.38104,-12.7864
329,-601,1.8772,13.8768,0,0,0,0,0,0,0,-1,1553,1625,1.87716,-13.8768
336,-601,4.67847,9.53308,0,0,0,0,0,0,0,-1,1560,1625,4.67848,-9.53309
343,-601,11.1404,3.14575,0,0,0,0,0,0,0,-1,1567,1625,11.1404,-3.1458
350,-601,10.9462,2.37769,0,0,0,0,0,0,0,-1,1574,1625,10.9461,-2.37764
357,-601,10.7518,1.6095,0,0,0,0,0,0,0,-1,1581,1625,10.7518,-1.60948
364,-601,5.33643,9.74426,0,0,0,0,0,0,0,-1,1588,1625,5.33637,-9.74429
371,-601,13.9336,34.4187,0,0,0,0,0,0,0,-1,1595,1625,13.9336,-34.4187
378,-601,13.9982,33.8553,0.00652603,0.0323445,-0.00894808,0.0351425,0.00372806,-1.26774,0.0222898,0.0495044,1602,1625,13.9982,-33.8553
385,-601,14.1569,33.2891,0.00455734,0.0270057,-0.00703173,0.0290264,0.00253661,-1.29096,0.0185632,0.0461581,1609,1625,14.1569,-33.2891
392,-601,13.9668,32.4818,0.00306021,0.0222165,-0.00547217,0.0236695,0.00160724,-1.31126,0.0152721,0.0404526,1616,1625,13.9668,-32.4819
399,-601,14.1444,32.0123,0.00192233,0.0181394,-0.00413158,0.0191313,0.00093041,-1.33517,0.0124557,0.0201333,1623,1625,14.1444,-32.0123
406,-601,14.2321,31.5325,0.00121509,0.0148803,-0.00326051,0.0156184,0.000476998,-1.34818,0.010257,0.0134314,1630,1625,14.2321,-31.5324
413,-601,14.2004,31.104,0.000747958,0.0120211,-0.00272727,0.0126462,0.000122822,-1.34547,0.00839016,0.0122601,1637,1625,14.2004,-31.104
420,-601,14.1812,30.6522,0.000612157,0.0100633,-0.00244549,0.0106586,1.68788e-05,-1.33202,0.00710012,0.0106681,1644,1625,14.1811,-30.6522
427,-601,14.2013,30.2429,0.000656891,0.00856481,-0.00228146,0.00917581,4.58914e-05,-1.30913,0.00610197,0.0141559,1651,1625,14.2013,-30.243
434,-601,14.1797,29.7902,0.000622629,0.00696043,-0.00205251,0.00756707,1.59875e-05,-1.28342,0.00503939,0.0154167,1658,1625,14.1797,-29.7901
441,-601,14.1697,29.3368,0.000812716,0.00571885,-0.00191162,0.00637574,0.000155827,-1.23981,0.00419952,0.0176418,1665,1625,14.1696,-29.3368
448,-601,14.1941,28.8984,0.000987831,0.00476911,-0.00171285,0.00542963,0.000327318,-1.20275,0.00351573,0.0148492,1672,1625,14.1941,-28.8984
455,-601,14.191,28.432,0.00106419,0.00372453,-0.0016169,0.00448809,0.000300624,-1.1296,0.00289705,0.0131255,1679,1625,14.191,-28.432
462,-601,14.1643,28.0027,0.00106024,0.0026639,-0.00132747,0.00341291,0.000311231,-1.05709,0.00217895,0.0115407,1686,1625,14.1643,-28.0027
469,-601,14.1512,27.5825,0.0008827,0.00162488,-0.000940589,0.00226494,0.000242645,-0.97329,0.00143593,0.0116617,1693,1625,14.1513,-27.5825
476,-601,14.1238,27.1326,0.000523216,0.000480301,-0.000463852,0.000966107,3.74108e-05,-0.762285,0.00063197,0.0146781,1700,1625,14.1238,-27.1325
483,-601,14.0833,26.6787,0.000211515,-0.000766246,-2.1408e-05,0.000211984,-0.000766715,-0.0218809,0.000594538,0.0180843,1707,1625,14.0833,-26.6788
490,-601,14.078,26.2084,0.000137227,-0.00167132,7.94429e-05,0.00014071,-0.00167481,0.0438138,0.00116627,0.0131125,1714,1625,14.078,-26.2084
497,-601,14.0878,25.7261,-0.000202751,-0.00261257,0.000220414,-0.000182757,-0.00263257,0.0904647,0.00169741,0.0103881,1721,1625,14.0877,-25.726
504,-601,14.1235,25.2236,-0.000651246,-0.00342684,0.000516087,-0.000558392,-0.00351969,0.178014,0.00218426,0.020414,1728,1625,14.1235,-25.2236
511,-601,14.0344,24.8412,-0.00111078,-0.00451094,0.000979878,-0.000848604,-0.00477311,0.261432,0.00294031,0.0356756,1735,1625,14.0345,-24.8412
518,-601,13.9629,24.3269,-0.00130206,-0.00570904,0.000765509,-0.00117288,-0.00583822,0.167182,0.00356607,0.0448373,1742,1625,13.9629,-24.3269
525,-601,13.803,23.7474,0,0,0,0,0,0,0,-1,1749,1625,13.803,-23.7474
532,-601,15.4257,20.0786,0,0,0,0,0,0,0,-1,1756,1625,15.4256,-20.0786
539,-601,7.77112,11.4299,0,0,0,0,0,0,0,-1,1763,1625,7.77116,-11.4299
546,-601,6.56873,3.62354,0,0,0,0,0,0,0,-1,1770,1625,6.56867,-3.62352
553,-601,7.03015,4.25049,0,0,0,0,0,0,0,-1,1777,1625,7.03011,-4.25048
560,-601,7.50745,4.83374,0,0,0,0,0,0,0,-1,1784,1625,7.50744,-4.83376
567,-601,7.82043,3.83301,0,0,0,0,0,0,0,-1,1791,1625,7.82041,-3.83303
574,-601,0,0,0,0,0,0,0,0,0,-1,1798,1625,0,0
581,-601,0,0,0,0,0,0,0,0,0,-1,1805,1625,0,0
588,-601,0,0,0,0,0,0,0,0,0,-1,1812,1625,0,0
595,-601,0,0,0,0,0,0,0,0,0,-1,1819,1625,0,0
602,-601,0,0,0,0,0,0,0,0,0,-1,1826,1625,0,0
609,-601,0,0,0,0,0,0,0,0,0,-1,1833,1625,0,0
616,-601,0,0,0,0,0,0,0,0,0,-1,1840,1625,0,0
623,-601,0,0,0,0,0,0,0,0,0,-1,1847,1625,0,0
630,-601,0,0,0,0,0,0,0,0,0,-1,1854,1625,0,0
637,-601,0,0,0,0,0,0,0,0,0,-1,1861,1625,0,0
644,-601,0,0,0,0,0,0,0,0,0,-1,1868,1625,0,0
651,-601,0,0,0,0,0,0,0,0,0,-1,1875,1625,0,0
658,-601,0,0,0,0,0,0,0,0,0,-1,1882,1625,0,0
665,-601,0,0,0,0,0,0,0,0,0,-1,1889,1625,0,0
672,-601,0,0,0,0,0,0,0,0,0,-1,1896,1625,0,0
679,-601,0,0,0,0,0,0,0,0,0,-1,1903,1625,0,0
686,-601,0,0,0,0,0,0,0,0,0,-1,1910,1625,0,0
693,-601,0,0,0,0,0,0,0,0,0,-1,1917,1625,0,0
700,-601,0,0,0,0,0,0,0,0,0,-1,1924,1625,0,0
707,-601,0,0,0,0,0,0,0,0,0,-1,1931,1625,0,0
714,-601,0,0,0,0,0,0,0,0,0,-1,1938,1625,0,0
721,-601,0,0,0,0,0,0,0,0,0,-1,1945,1625,0,0
728,-601,0,0,0,0,0,0,0,0,0,-1,1952,1625,0,0
735,-601,0,0,0,0,0,0,0,0,0,-1,1959,1625,0,0
742,-601,0,0,0,0,0,0,0,0,0,-1,1966,1625,0,0
749,-601,0,0,0,0,0,0,0,0,0,-1,1973,1625,0,0
756,-601,0,0,0,0,0,0,0,0,0,-1,1980,1625,0,0
763,-601,0,0,0,0,0,0,0,0,0,-1,1987,1625,0,0
770,-601,0,0,0,0,0,0,0,0,0,-1,1994,1625,0,0
777,-601,0,0,0,0,0,0,0,0,0,-1,2001,1625,0,0
784,-601,0,0,0,0,0,0,0,0,0,-1,2008,1625,0,0
791,-601,0,0,0,0,0,0,0,0,0,-1,2015,1625,0,0
798,-601,0,0,0,0,0,0,0,0,0,-1,2022,1625,0,0
805,-601,0,0,0,0,0,0,0,0,0,-1,2029,1625,0,0
812,-601,0,0,0,0,0,0,0,0,0,-1,2036,1625,0,0
-700,-608,0,0,0,0,0,0,0,0,0,-1,524,1632,0,0
-693,-608,0,0,0,0,0,0,0,0,0,-1,531,1632,0,0
-686,-608,0,0,0,0,0,0,0,0,0,-1,538,1632,0,0
-679,-608,0,0,0,0,0,0,0,0,0,-1,545,1632,0,0
-672,-608,0,0,0,0,0,0,0,0,0,-1,552,1632,0,0
-665,-608,0,0,0,0,0,0,0,0,0,-1,559,1632,0,0
-658,-608,0,0,0,0,0,0,0,0,0,-1,566,1632,0,0
-651,-608,0,0,0,0,0,0,0,0,0,-1,573,1632,0,0
-644,-608,0,0,0,0,0,0,0,0,0,-1,580,1632,0,0
-637,-608,0,0,0,0,0,0,0,0,0,-1,587,1632,0,0
-630,-608,0,0,0,0,0,0,0,0,0,-1,594,1632,0,0
-623,-608,0,0,0,0,0,0,0,0,0,-1,601,1632,0,0
-616,-608,0,0,0,0,0,0,0,0,0,-1,608,1632,0,0
-609,-608,0,0,0,0,0,0,0,0,0,-1,615,1632,0,0
-602,-608,0,0,0,0,0,0,0,0,0,-1,622,1632,0,0
-595,-608,0,0,0,0,0,0,0,0,0,-1,629,1632,0,0
-588,-608,0,0,0,0,0,0,0,0,0,-1,636,1632,0,0
-581,-608,0,0,0,0,0,0,0,0,0,-1,643,1632,0,0
-574,-608,0,0,0,0,0,0,0,0,0,-1,650,1632,0,0
-567,-608,0,0,0,0,0,0,0,0,0,-1,657,1632,0,0
-560,-608,0,0,0,0,0,0,0,0,0,-1,664,1632,0,0
-553,-608,0,0,0,0,0,0,0,0,0,-1,671,1632,0,0
-546,-608,0,0,0,0,0,0,0,0,0,-1,678,1632,0,0
-539,-608,0,0,0,0,0,0,0,0,0,-1,685,1632,0,0
-532,-608,0,0,0,0,0,0,0,0,0,-1,692,1632,0,0
-525,-608,0,0,0,0,0,0,0,0,0,-1,699,1632,0,0
-518,-608,0,0,0,0,0,0,0,0,0,-1,706,1632,0,0
-511,-608,0,0,0,0,0,0,0,0,0,-1,713,1632,0,0
-504,-608,0,0,0,0,0,0,0,0,0,-1,720,1632,0,0
-497,-608,0,0,0,0,0,0,0,0,0,-1,727,1632,0,0
-490,-608,0,0,0,0,0,0,0,0,0,-1,734,1632,0,0
-483,-608,0,0,0,0,0,0,0,0,0,-1,741,1632,0,0
-476,-608,0,0,0,0,0,0,0,0,0,-1,748,1632,0,0
-469,-608,0,0,0,0,0,0,0,0,0,-1,755,1632,0,0
-462,-608,0,0,0,0,0,0,0,0,0,-1,762,1632,0,0
-455,-608,0,0,0,0,0,0,0,0,0,-1,769,1632,0,0
-448,-608,0,0,0,0,0,0,0,0,0,-1,776,1632,0,0
-441,-608,-7.34601,2.78052,0,0,0,0,0,0,0,-1,783,1632,-7.346,-2.78056
-434,-608,-6.34558,3.27405,0,0,0,0,0,0,0,-1,790,1632,-6.34555,-3.27406
-427,-608,-7.74335,4.17688,0,0,0,0,0,0,0,-1,797,1632,-7.74334,-4.17693
-420,-608,-6.82794,4.34839,0,0,0,0,0,0,0,-1,804,1632,-6.82794,-4.34838
-413,-608,-5.41919,5.66138,0,0,0,0,0,0,0,-1,811,1632,-5.41917,-5.66133
-406,-608,-4.79681,4.98999,0,0,0,0,0,0,0,-1,818,1632,-4.79684,-4.98997
-399,-608,-2.60645,6.34167,0,0,0,0,0,0,0,-1,825,1632,-2.60643,-6.34169
-392,-608,2.08356,15.437,0,0,0,0,0,0,0,-1,832,1632,2.08354,-15.437
-385,-608,2.81305,23.259,0,0,0,0,0,0,0,-1,839,1632,2.81305,-23.259
-378,-608,2.88879,23.9667,0,0,0,0,0,0,0,-1,846,1632,2.88877,-23.9667
-371,-608,2.92114,24.1818,0,0,0,0,0,0,0,-1,853,1632,2.92116,-24.1818
-364,-608,2.83636,24.7438,-0.00313917,-0.00361759,0.000245329,-0.00303573,-0.00372103,0.399011,0.00228674,0.0301974,860,1632,2.83639,-24.7438
-357,-608,2.74707,25.3333,-0.00244454,-0.00307648,0.000216664,-0.00237739,-0.00314363,0.300534,0.00189277,0.0203006,867,1632,2.74707,-25.3332
-350,-608,2.74261,25.8804,-0.00176958,-0.00238261,0.000291069,-0.0016534,-0.00249879,0.379778,0.00146761,0.0190919,874,1632,2.74261,-25.8804
-343,-608,2.71167,26.3914,-0.00109596,-0.00159981,0.000422536,-0.00085595,-0.00183983,0.516578,0.00106308,0.0233256,881,1632,2.71166,-26.3914
-336,-608,2.68549,26.9182,-0.000377107,-0.00082787,0.000620534,5.77079e-05,-0.00126269,0.611203,0.000861671,0.0162298,888,1632,2.68547,-26.9182
-329,-608,2.66492,27.4087,0.000297347,-7.72236e-05,0.000806085,0.000937618,-0.000717494,0.671254,0.000958392,0.0145965,895,1632,2.66491,-27.4087
-322,-608,2.66162,27.8522,0.000852308,0.000742879,0.00104059,0.00183962,-0.000244433,0.759132,0.00131548,0.0156082,902,1632,2.66164,-27.8521
-315,-608,2.66949,28.2776,0.00135392,0.00148534,0.00127257,0.0026939,0.000145365,0.811192,0.00174949,0.0147374,909,1632,2.66949,-28.2776
-308,-608,2.63397,28.7592,0.00186706,0.00209464,0.00146224,0.00344751,0.000514192,0.824229,0.00214756,0.014891,916,1632,2.63395,-28.7591
-301,-608,2.61841,29.2216,0.00249587,0.00289232,0.00184075,0.00454549,0.000842702,0.839034,0.00279214,0.011559,923,1632,2.61838,-29.2216
-294,-608,2.62567,29.6619,0.0031335,0.00388129,0.0023642,0.00590098,0.00111381,0.863822,0.00362029,0.0115546,930,1632,2.6257,-29.6618
-287,-608,2.61487,30.121,0.00376239,0.00501249,0.00291789,0.00737153,0.00140335,0.89091,0.00451978,0.0108056,937,1632,2.61487,-30.121
-280,-608,2.62842,30.5668,0.00447011,0.00627472,0.00356735,0.00905211,0.00169272,0.909267,0.00555711,0.00862165,944,1632,2.62844,-30.5667
-273,-608,2.60162,31.0242,0.00524544,0.00756272,0.00430341,0.0108607,0.00194742,0.916898,0.00668656,0.0102834,951,1632,2.60165,-31.0242
-266,-608,2.62158,31.5005,0.00609682,0.00920038,0.00517713,0.0130533,0.0022439,0.931006,0.00805904,0.0112309,958,1632,2.6216,-31.5005
-259,-608,2.67889,31.9537,0.00698353,0.0110575,0.00622233,0.0155678,0.00247325,0.943584,0.00966022,0.0152513,965,1632,2.67892,-31.9538
-252,-608,2.77081,32.4163,0.00795663,0.0131298,0.00721159,0.0182046,0.00288179,0.957587,0.011299,0.0292371,972,1632,2.77082,-32.4163
-245,-608,2.79163,33.0983,0.00895733,0.0152383,0.0082304,0.020907,0.00328859,0.967657,0.0129814,0.0406488,979,1632,2.79162,-33.0983
-238,-608,2.94623,33.7227,0,0,0,0,0,0,0,-1,986,1632,2.94621,-33.7227
-231,-608,3.26025,27.5262,0,0,0,0,0,0,0,-1,993,1632,3.26023,-27.5263
-224,-608,2.51642,15.3452,0,0,0,0,0,0,0,-1,1000,1632,2.5164,-15.3452
-217,-608,1.04419,12.8451,0,0,0,0,0,0,0,-1,1007,1632,1.04418,-12.8451
-210,-608,2.75903,15.9414,0,0,0,0,0,0,0,-1,1014,1632,2.75903,-15.9414
-203,-608,2.76776,16.217,0,0,0,0,0,0,0,-1,1021,1632,2.76773,-16.217
-196,-608,1.53955,18.6058,0,0,0,0,0,0,0,-1,1028,1632,1.53959,-18.6058
-189,-608,1.37634,19.119,0,0,0,0,0,0,0,-1,1035,1632,1.37634,-19.1191
-182,-608,2.89221,16.7092,0,0,0,0,0,0,0,-1,1042,1632,2.89224,-16.7093
-175,-608,0.219116,15.1643,0,0,0,0,0,0,0,-1,1049,1632,0.219173,-15.1644
-168,-608,0.000366211,9.48645,0,0,0,0,0,0,0,-1,1056,1632,0.000317105,-9.48648
-161,-608,2.27832,15.4423,0,0,0,0,0,0,0,-1,1063,1632,2.27826,-15.4423
-154,-608,1.3999,16.4037,0,0,0,0,0,0,0,-1,1070,1632,1.39987,-16.4037
-147,-608,2.4386,9.50317,0,0,0,0,0,0,0,-1,1077,1632,2.43858,-9.50313
-140,-608,2.60132,10.8401,0,0,0,0,0,0,0,-1,1084,1632,2.60134,-10.8401
-133,-608,3.2312,12.4738,0,0,0,0,0,0,0,-1,1091,1632,3.23116,-12.4738
-126,-608,3.76465,13.9644,0,0,0,0,0,0,0,-1,1098,1632,3.76466,-13.9644
-119,-608,4.28906,15.4196,0,0,0,0,0,0,0,-1,1105,1632,4.28911,-15.4195
-112,-608,0.745117,10.5587,0,0,0,0,0,0,0,-1,1112,1632,0.745145,-10.5587
-105,-608,-0.252319,1.42419,0,0,0,0,0,0,0,-1,1119,1632,-0.252331,-1.42418
-98,-608,-2.8595,3.0863,0,0,0,0,0,0,0,-1,1126,1632,-2.85948,-3.08625
-91,-608,-3.71948,1.73608,0,0,0,0,0,0,0,-1,1133,1632,-3.7195,-1.73607
-84,-608,0,0,0,0,0,0,0,0,0,-1,1140,1632,0,0
-77,-608,0,0,0,0,0,0,0,0,0,-1,1147,1632,0,0
-70,-608,0,0,0,0,0,0,0,0,0,-1,1154,1632,0,0
-63,-608,0,0,0,0,0,0,0,0,0,-1,1161,1632,0,0
-56,-608,0,0,0,0,0,0,0,0,0,-1,1168,1632,0,0
-49,-608,0,0,0,0,0,0,0,0,0,-1,1175,1632,0,0
-42,-608,0,0,0,0,0,0,0,0,0,-1,1182,1632,0,0
-35,-608,0,0,0,0,0,0,0,0,0,-1,1189,1632,0,0
-28,-608,0,0,0,0,0,0,0,0,0,-1,1196,1632,0,0
-21,-608,0,0,0,0,0,0,0,0,0,-1,1203,1632,0,0
-14,-608,0,0,0,0,0,0,0,0,0,-1,1210,1632,0,0
-7,-608,0,0,0,0,0,0,0,0,0,-1,1217,1632,0,0
0,-608,0,0,0,0,0,0,0,0,0,-1,1224,1632,0,0
7,-608,0,0,0,0,0,0,0,0,0,-1,1231,1632,0,0
14,-608,0,0,0,0,0,0,0,0,0,-1,1238,1632,0,0
21,-608,0,0,0,0,0,0,0,0,0,-1,1245,1632,0,0
28,-608,0,0,0,0,0,0,0,0,0,-1,1252,1632,0,0
35,-608,0,0,0,0,0,0,0,0,0,-1,1259,1632,0,0
42,-608,0,0,0,0,0,0,0,0,0,-1,1266,1632,0,0
49,-608,0,0,0,0,0,0,0,0,0,-1,1273,1632,0,0
56,-608,0,0,0,0,0,0,0,0,0,-1,1280,1632,0,0
63,-608,0,0,0,0,0,0,0,0,0,-1,1287,1632,0,0
70,-608,0,0,0,0,0,0,0,0,0,-1,1294,1632,0,0
77,-608,0,0,0,0,0,0,0,0,0,-1,1301,1632,0,0
84,-608,0,0,0,0,0,0,0,0,0,-1,1308,1632,0,0
91,-608,0,0,0,0,0,0,0,0,0,-1,1315,1632,0,0
98,-608,0,0,0,0,0,0,0,0,0,-1,1322,1632,0,0
105,-608,0,0,0,0,0,0,0,0,0,-1,1329,1632,0,0
112,-608,0,0,0,0,0,0,0,0,0,-1,1336,1632,0,0
119,-608,0,0,0,0,0,0,0,0,0,-1,1343,1632,0,0
126,-608,0,0,0,0,0,0,0,0,0,-1,1350,1632,0,0
133,-608,0,0,0,0,0,0,0,0,0,-1,1357,1632,0,0
140,-608,0,0,0,0,0,0,0,0,0,-1,1364,1632,0,0
147,-608,0,0,0,0,0,0,0,0,0,-1,1371,1632,0,0
154,-608,0,0,0,0,0,0,0,0,0,-1,1378,1632,0,0
161,-608,0,0,0,0,0,0,0,0,0,-1,1385,1632,0,0
168,-608,0,0,0,0,0,0,0,0,0,-1,1392,1632,0,0
175,-608,0,0,0,0,0,0,0,0,0,-1,1399,1632,0,0
182,-608,0,0,0,0,0,0,0,0,0,-1,1406,1632,0,0
189,-608,0,0,0,0,0,0,0,0,0,-1,1413,1632,0,0
196,-608,0,0,0,0,0,0,0,0,0,-1,1420,1632,0,0
203,-608,0,0,0,0,0,0,0,0,0,-1,1427,1632,0,0
210,-608,5.7157,-0.333008,0,0,0,0,0,0,0,-1,1434,1632,5.71566,0.333004
217,-608,4.49402,-0.831787,0,0,0,0,0,0,0,-1,1441,1632,4.49396,0.831738
224,-608,4.18018,-1.11792,0,0,0,0,0,0,0,-1,1448,1632,4.1802,1.11796
231,-608,0.361816,0.825195,0,0,0,0,0,0,0,-1,1455,1632,0.36185,-0.825226
238,-608,2.85388,-0.28833,0,0,0,0,0,0,0,-1,1462,1632,2.85391,0.288282
245,-608,3.87537,4.02173,0,0,0,0,0,0,0,-1,1469,1632,3.87538,-4.02168
252,-608,5.66956,3.5282,0,0,0,0,0,0,0,-1,1476,1632,5.6696,-3.52815
259,-608,7.47437,3.07178,0,0,0,0,0,0,0,-1,1483,1632,7.4744,-3.07172
266,-608,9.46936,2.34766,0,0,0,0,0,0,0,-1,1490,1632,9.46932,-2.34764
273,-608,6.03003,3.34241,0,0,0,0,0,0,0,-1,1497,1632,6.02997,-3.34245
280,-608,5.72461,2.0769,0,0,0,0,0,0,0,-1,1504,1632,5.72457,-2.07688
287,-608,6.20581,3.59338,0,0,0,0,0,0,0,-1,1511,1632,6.20585,-3.59341
294,-608,6.94922,5.17151,0,0,0,0,0,0,0,-1,1518,1632,6.94925,-5.17151
301,-608,7.60083,6.68018,0,0,0,0,0,0,0,-1,1525,1632,7.60086,-6.68013
308,-608,7.64746,9.93848,0,0,0,0,0,0,0,-1,1532,1632,7.64745,-9.93842
315,-608,5.30688,11.2054,0,0,0,0,0,0,0,-1,1539,1632,5.30694,-11.2054
322,-608,5.32617,13.7581,0,0,0,0,0,0,0,-1,1546,1632,5.32613,-13.758
329,-608,7.12231,13.9607,0,0,0,0,0,0,0,-1,1553,1632,7.12231,-13.9607
336,-608,5.48633,7.82446,0,0,0,0,0,0,0,-1,1560,1632,5.48634,-7.82446
343,-608,5.47192,5.61047,0,0,0,0,0,0,0,-1,1567,1632,5.47192,-5.61045
350,-608,11.6957,1.71387,0,0,0,0,0,0,0,-1,1574,1632,11.6957,-1.71388
357,-608,3.77002,5.10046,0,0,0,0,0,0,0,-1,1581,1632,3.77002,-5.10043
364,-608,12.4669,35.4268,0,0,0,0,0,0,0,-1,1588,1632,12.4669,-35.4267
371,-608,13.6495,34.1027,0,0,0,0,0,0,0,-1,1595,1632,13.6495,-34.1026
378,-608,13.576,33.5225,0.00611032,0.0257097,-0.0071683,0.0280516,0.00376842,-1.25502,0.0175801,0.0382524,1602,1632,13.576,-33.5225
385,-608,13.6785,32.9344,0.0044567,0.0215495,-0.00575956,0.0233091,0.00269711,-1.27429,0.014723,0.0321138,1609,1632,13.6785,-32.9344
392,-608,13.6914,32.386,0.00315595,0.0178056,-0.00454441,0.0191008,0.00186076,-1.29315,0.0121612,0.0222056,1616,1632,13.6914,-32.386
399,-608,13.7557,31.9027,0.00218249,0.0144091,-0.00344047,0.0153107,0.00128086,-1.31449,0.00980809,0.0101303,1623,1632,13.7557,-31.9027
406,-608,13.791,31.4733,0.00153731,0.0117118,-0.00270879,0.012388,0.000861082,-1.32616,0.00798716,0.00941925,1630,1632,13.7911,-31.4733
413,-608,13.7725,31.0571,0.0010674,0.00931314,-0.00216368,0.00984641,0.000534141,-1.32915,0.00639367,0.0103393,1637,1632,13.7725,-31.0571
420,-608,13.7423,30.6459,0.00087853,0.00761815,-0.00185868,0.00809676,0.000399925,-1.31877,0.00526959,0.0173692,1644,1632,13.7423,-30.6459
427,-608,13.7639,30.2268,0.000871602,0.00632047,-0.00167711,0.00679529,0.000396781,-1.2949,0.0044039,0.0181967,1651,1632,13.7639,-30.2269
434,-608,13.7465,29.7905,0.000805465,0.00495949,-0.0014503,0.00541573,0.000349229,-1.26602,0.00349989,0.0146494,1658,1632,13.7465,-29.7905
441,-608,13.7444,29.3469,0.000931476,0.00393415,-0.00130373,0.00442121,0.000444418,-1.21326,0.00281107,0.0134324,1665,1632,13.7444,-29.3469
448,-608,13.7644,28.9197,0.00103813,0.00312953,-0.00109887,0.00360074,0.00056692,-1.1657,0.00223561,0.0155481,1672,1632,13.7645,-28.9197
455,-608,13.7716,28.4679,0.00106318,0.00227075,-0.000954466,0.00279638,0.000537559,-1.06742,0.00171341,0.0120411,1679,1632,13.7716,-28.4679
462,-608,13.7314,28.0343,0.00100302,0.00137068,-0.000656322,0.00186843,0.000505272,-0.921944,0.001116,0.0115247,1686,1632,13.7315,-28.0343
469,-608,13.6886,27.6035,0.000774524,0.000432322,-0.00028325,0.00093434,0.000272506,-0.513698,0.000554832,0.00921768,1693,1632,13.6885,-27.6035
476,-608,13.6598,27.1628,0.00039018,-0.000611484,0.000193786,0.000426364,-0.000647668,0.184594,0.000624465,0.00968716,1700,1632,13.6598,-27.1628
483,-608,13.6469,26.6923,2.25515e-05,-0.00175616,0.000653814,0.000237019,-0.00197063,0.316966,0.00139946,0.00925422,1707,1632,13.6468,-26.6923
490,-608,13.6534,26.2183,-0.000126341,-0.00256802,0.000714121,6.71806e-05,-0.00276154,0.264637,0.00186383,0.00973455,1714,1632,13.6535,-26.2183
497,-608,13.6686,25.7325,-0.000566231,-0.00339595,0.000833754,-0.000338844,-0.00362334,0.266251,0.00231091,0.0208521,1721,1632,13.6685,-25.7325
504,-608,13.6167,25.3063,-0.000982162,-0.00411558,0.00104285,-0.000666822,-0.00443092,0.293642,0.00275867,0.0490295,1728,1632,13.6167,-25.3062
511,-608,13.3141,24.9343,0,0,0,0,0,0,0,-1,1735,1632,13.314,-24.9343
518,-608,13.6007,24.316,0,0,0,0,0,0,0,-1,1742,1632,13.6007,-24.316
525,-608,11.2109,16.2579,0,0,0,0,0,0,0,-1,1749,1632,11.2109,-16.2579
532,-608,8.27917,11.6693,0,0,0,0,0,0,0,-1,1756,1632,8.27919,-11.6694
539,-608,9.40796,1.43457,0,0,0,0,0,0,0,-1,1763,1632,9.40801,-1.43463
546,-608,9.94031,2.1134,0,0,0,0,0,0,0,-1,1770,1632,9.94031,-2.11346
553,-608,10.363,2.81335,0,0,0,0,0,0,0,-1,1777,1632,10.3631,-2.81333
560,-608,9.23999,4.5636,0,0,0,0,0,0,0,-1,1784,1632,9.24,-4.56354
567,-608,0,0,0,0,0,0,0,0,0,-1,1791,1632,0,0
574,-608,0,0,0,0,0,0,0,0,0,-1,1798,1632,0,0
581,-608,0,0,0,0,0,0,0,0,0,-1,1805,1632,0,0
588,-608,0,0,0,0,0,0,0,0,0,-1,1812,1632,0,0
595,-608,0,0,0,0,0,0,0,0,0,-1,1819,1632,0,0
602,-608,0,0,0,0,0,0,0,0,0,-1,1826,1632,0,0
609,-608,0,0,0,0,0,0,0,0,0,-1,1833,1632,0,0
616,-608,0,0,0,0,0,0,0,0,0,-1,1840,1632,0,0
623,-608,0,0,0,0,0,0,0,0,0,-1,1847,1632,0,0
630,-608,0,0,0,0,0,0,0,0,0,-1,1854,1632,0,0
637,-608,0,0,0,0,0,0,0,0,0,-1,1861,1632,0,0
644,-608,0,0,0,0,0,0,0,0,0,-1,1868,1632,0,0
651,-608,0,0,0,0,0,0,0,0,0,-1,1875,1632,0,0
658,-608,0,0,0,0,0,0,0,0,0,-1,1882,1632,0,0
665,-608,0,0,0,0,0,0,0,0,0,-1,1889,1632,0,0
672,-608,0,0,0,0,0,0,0,0,0,-1,1896,1632,0,0
679,-608,0,0,0,0,0,0,0,0,0,-1,1903,1632,0,0
686,-608,0,0,0,0,0,0,0,0,0,-1,1910,1632,0,0
693,-608,0,0,0,0,0,0,0,0,0,-1,1917,1632,0,0
700,-608,0,0,0,0,0,0,0,0,0,-1,1924,1632,0,0
707,-608,0,0,0,0,0,0,0,0,0,-1,1931,1632,0,0
714,-608,0,0,0,0,0,0,0,0,0,-1,1938,1632,0,0
721,-608,0,0,0,0,0,0,0,0,0,-1,1945,1632,0,0
728,-608,0,0,0,0,0,0,0,0,0,-1,1952,1632,0,0
735,-608,0,0,0,0,0,0,0,0,0,-1,1959,1632,0,0
742,-608,0,0,0,0,0,0,0,0,0,-1,1966,1632,0,0
749,-608,0,0,0,0,0,0,0,0,0,-1,1973,1632,0,0
756,-608,0,0,0,0,0,0,0,0,0,-1,1980,1632,0,0
763,-608,0,0,0,0,0,0,0,0,0,-1,1987,1632,0,0
770,-608,0,0,0,0,0,0,0,0,0,-1,1994,1632,0,0
777,-608,0,0,0,0,0,0,0,0,0,-1,2001,1632,0,0
784,-608,0,0,0,0,0,0,0,0,0,-1,2008,1632,0,0
791,-608,0,0,0,0,0,0,0,0,0,-1,2015,1632,0,0
798,-608,0,0,0,0,0,0,0,0,0,-1,2022,1632,0,0
805,-608,0,0,0,0,0,0,0,0,0,-1,2029,1632,0,0
812,-608,0,0,0,0,0,0,0,0,0,-1,2036,1632,0,0
-700,-615,0,0,0,0,0,0,0,0,0,-1,524,1639,0,0
-693,-615,0,0,0,0,0,0,0,0,0,-1,531,1639,0,0
-686,-615,0,0,0,0,0,0,0,0,0,-1,538,1639,0,0
-679,-615,0,0,0,0,0,0,0,0,0,-1,545,1639,0,0
-672,-615,0,0,0,0,0,0,0,0,0,-1,552,1639,0,0
-665,-615,0,0,0,0,0,0,0,0,0,-1,559,1639,0,0
-658,-615,0,0,0,0,0,0,0,0,0,-1,566,1639,0,0
-651,-615,0,0,0,0,0,0,0,0,0,-1,573,1639,0,0
-644,-615,0,0,0,0,0,0,0,0,0,-1,580,1639,0,0
-637,-615,0,0,0,0,0,0,0,0,0,-1,587,1639,0,0
-630,-615,0,0,0,0,0,0,0,0,0,-1,594,1639,0,0
-623,-615,0,0,0,0,0,0,0,0,0,-1,601,1639,0,0
-616,-615,0,0,0,0,0,0,0,0,0,-1,608,1639,0,0
-609,-615,0,0,0,0,0,0,0,0,0,-1,615,1639,0,0
-602,-615,0,0,0,0,0,0,0,0,0,-1,622,1639,0,0
-595,-615,0,0,0,0,0,0,0,0,0,-1,629,1639,0,0
-588,-615,0,0,0,0,0,0,0,0,0,-1,636,1639,0,0
-581,-615,0,0,0,0,0,0,0,0,0,-1,643,1639,0,0
-574,-615,0,0,0,0,0,0,0,0,0,-1,650,1639,0,0
-567,-615,0,0,0,0,0,0,0,0,0,-1,657,1639,0,0
-560,-615,0,0,0,0,0,0,0,0,0,-1,664,1639,0,0
-553,-615,0,0,0,0,0,0,0,0,0,-1,671,1639,0,0
-546,-615,0,0,0,0,0,0,0,0,0,-1,678,1639,0,0
-539,-615,0,0,0,0,0,0,0,0,0,-1,685,1639,0,0
-532,-615,0,0,0,0,0,0,0,0,0,-1,692,1639,0,0
-525,-615,0,0,0,0,0,0,0,0,0,-1,699,1639,0,0
-518,-615,0,0,0,0,0,0,0,0,0,-1,706,1639,0,0
-511,-615,0,0,0,0,0,0,0,0,0,-1,713,1639,0,0
-504,-615,0,0,0,0,0,0,0,0,0,-1,720,1639,0,0
-497,-615,0,0,0,0,0,0,0,0,0,-1,727,1639,0,0
-490,-615,0,0,0,0,0,0,0,0,0,-1,734,1639,0,0
-483,-615,0,0,0,0,0,0,0,0,0,-1,741,1639,0,0
-476,-615,0,0,0,0,0,0,0,0,0,-1,748,1639,0,0
-469,-615,0,0,0,0,0,0,0,0,0,-1,755,1639,0,0
-462,-615,0,0,0,0,0,0,0,0,0,-1,762,1639,0,0
-455,-615,0,0,0,0,0,0,0,0,0,-1,769,1639,0,0
-448,-615,0,0,0,0,0,0,0,0,0,-1,776,1639,0,0
-441,-615,0,0,0,0,0,0,0,0,0,-1,783,1639,0,0
-434,-615,-7.64508,2.98596,0,0,0,0,0,0,0,-1,790,1639,-7.64505,-2.98594
-427,-615,-9.0011,2.89404,0,0,0,0,0,0,0,-1,797,1639,-9.00107,-2.89399
-420,-615,-8.07568,3.0752,0,0,0,0,0,0,0,-1,804,1639,-8.07569,-3.07514
-413,-615,-7.09149,3.396,0,0,0,0,0,0,0,-1,811,1639,-7.09147,-3.39599
-406,-615,-6.21368,3.7312,0,0,0,0,0,0,0,-1,818,1639,-6.21366,-3.73114
-399,-615,-4.84875,3.91907,0,0,0,0,0,0,0,-1,825,1639,-4.84877,-3.91901
-392,-615,1.7395,13.3127,0,0,0,0,0,0,0,-1,832,1639,1.73953,-13.3128
-385,-615,3.42297,14.9401,0,0,0,0,0,0,0,-1,839,1639,3.42296,-14.94
-378,-615,2.54102,17.2609,0,0,0,0,0,0,0,-1,846,1639,2.54099,-17.2608
-371,-615,3.32416,24.1086,0,0,0,0,0,0,0,-1,853,1639,3.32416,-24.1087
-364,-615,3.2229,24.9238,-0.00405742,-0.00472843,3.73185e-05,-0.00405535,-0.0047305,0.0553878,0.00295444,0.0407495,860,1639,3.2229,-24.9239
-357,-615,3.31,25.5525,-0.00325997,-0.00380982,0.000170611,-0.00321133,-0.00385845,0.277706,0.00238603,0.0419477,867,1639,3.30998,-25.5525
-350,-615,3.22839,25.9508,-0.00250968,-0.00286767,0.000383719,-0.00226526,-0.00311209,0.567164,0.00185793,0.0317749,874,1639,3.22841,-25.9508
-343,-615,3.20459,26.3805,-0.00174817,-0.00199255,0.000561534,-0.00129569,-0.00244504,0.678269,0.00141249,0.0195064,881,1639,3.20456,-26.3805
-336,-615,3.18188,26.8986,-0.000985693,-0.00114092,0.000779708,-0.000279742,-0.00184687,0.735792,0.0011494,0.0108869,888,1639,3.1819,-26.8986
-329,-615,3.1507,27.3811,-0.000295027,-0.00037598,0.000942764,0.000608129,-0.00127914,0.763944,0.00111233,0.0105733,895,1639,3.15071,-27.381
-322,-615,3.13788,27.8594,0.00026185,0.000419364,0.00113564,0.00147897,-0.000797759,0.820018,0.00133394,0.0116462,902,1639,3.13788,-27.8594
-315,-615,3.12671,28.3463,0.000735242,0.00105085,0.00129532,0.00219794,-0.000411852,0.846012,0.00162012,0.0141877,909,1639,3.12673,-28.3463
-308,-615,3.07928,28.8063,0.00118355,0.00157596,0.00137734,0.002771,-1.14822e-05,0.856149,0.00185117,0.0214171,916,1639,3.07929,-28.8063
-301,-615,3.08112,29.2371,0.00172428,0.00221591,0.00161015,0.0035989,0.000341288,0.861147,0.00229399,0.0134478,923,1639,3.08111,-29.237
-294,-615,3.08862,29.6746,0.00227666,0.00297855,0.00195599,0.00461483,0.000640384,0.874165,0.00288686,0.0108133,930,1639,3.08864,-29.6746
-287,-615,3.06177,30.1332,0.00283854,0.00389805,0.00235865,0.0057857,0.000950885,0.895865,0.00358249,0.00811074,937,1639,3.06177,-30.1332
-280,-615,3.06519,30.5797,0.0034278,0.00484578,0.002786,0.00701158,0.001262,0.909994,0.00431567,0.00923503,944,1639,3.06519,-30.5797
-273,-615,3.04327,31.0271,0.00405723,0.00582664,0.00327775,0.00833698,0.00154689,0.917213,0.00512084,0.0107744,951,1639,3.04328,-31.0271
-266,-615,3.02551,31.4562,0.00472203,0.00705674,0.00385527,0.00991752,0.00186126,0.932407,0.00608687,0.0110015,958,1639,3.0255,-31.4562
-259,-615,3.04858,31.8781,0.00545183,0.00847167,0.00457438,0.0117789,0.00214461,0.944809,0.00724432,0.0125594,965,1639,3.04858,-31.8781
-252,-615,3.0791,32.3624,0.00625457,0.0101446,0.0053006,0.0138458,0.00255339,0.961241,0.00850807,0.0166428,972,1639,3.0791,-32.3625
-245,-615,3.20056,32.9319,0.00711589,0.0117883,0.00604938,0.0159369,0.00296728,0.96967,0.00978663,0.0260426,979,1639,3.20057,-32.9319
-238,-615,3.21973,33.4308,0.00811774,0.0129918,0.00665363,0.0176407,0.00346887,0.960946,0.0107916,0.0401167,986,1639,3.21973,-33.4308
-231,-615,3.24408,34.0214,0,0,0,0,0,0,0,-1,993,1639,3.24409,-34.0214
-224,-615,3.44238,34.0819,0,0,0,0,0,0,0,-1,1000,1639,3.44236,-34.082
-217,-615,3.99097,27.3737,0,0,0,0,0,0,0,-1,1007,1639,3.99096,-27.3736
-210,-615,2.48901,18.9324,0,0,0,0,0,0,0,-1,1014,1639,2.48902,-18.9323
-203,-615,2.13684,18.6173,0,0,0,0,0,0,0,-1,1021,1639,2.13683,-18.6173
-196,-615,4.27161,21.3264,0,0,0,0,0,0,0,-1,1028,1639,4.27165,-21.3264
-189,-615,1.8269,19.6761,0,0,0,0,0,0,0,-1,1035,1639,1.82691,-19.6761
-182,-615,1.63489,20.2278,0,0,0,0,0,0,0,-1,1042,1639,1.63492,-20.2277
-175,-615,-0.609985,13.8434,0,0,0,0,0,0,0,-1,1049,1639,-0.610016,-13.8434
-168,-615,3.85754,15.472,0,0,0,0,0,0,0,-1,1056,1639,3.85757,-15.472
-161,-615,2.44141,28.2932,0,0,0,0,0,0,0,-1,1063,1639,2.44135,-28.2933
-154,-615,2.42737,24.3593,0,0,0,0,0,0,0,-1,1070,1639,2.42742,-24.3593
-147,-615,1.52502,17.3442,0,0,0,0,0,0,0,-1,1077,1639,1.52501,-17.3442
-140,-615,3.73401,10.2349,0,0,0,0,0,0,0,-1,1084,1639,3.73402,-10.2348
-133,-615,2.6178,17.45,0,0,0,0,0,0,0,-1,1091,1639,2.61776,-17.4499
-126,-615,4.43408,12.5017,0,0,0,0,0,0,0,-1,1098,1639,4.43403,-12.5018
-119,-615,4.82983,13.9279,0,0,0,0,0,0,0,-1,1105,1639,4.82986,-13.9278
-112,-615,3.65698,14.4874,0,0,0,0,0,0,0,-1,1112,1639,3.65695,-14.4875
-105,-615,0.958496,2.45398,0,0,0,0,0,0,0,-1,1119,1639,0.958452,-2.45398
-98,-615,-0.647705,2.12109,0,0,0,0,0,0,0,-1,1126,1639,-0.647756,-2.12105
-91,-615,-3.07983,2.97375,0,0,0,0,0,0,0,-1,1133,1639,-3.07989,-2.97376
-84,-615,-2.46509,0.703247,0,0,0,0,0,0,0,-1,1140,1639,-2.46505,-0.703273
-77,-615,-3.17859,1.23755,0,0,0,0,0,0,0,-1,1147,1639,-3.17865,-1.23752
-70,-615,-4.03943,1.43335,0,0,0,0,0,0,0,-1,1154,1639,-4.03942,-1.43339
-63,-615,-4.8877,1.45544,0,0,0,0,0,0,0,-1,1161,1639,-4.88766,-1.45549
-56,-615,0,0,0,0,0,0,0,0,0,-1,1168,1639,0,0
-49,-615,0,0,0,0,0,0,0,0,0,-1,1175,1639,0,0
-42,-615,0,0,0,0,0,0,0,0,0,-1,1182,1639,0,0
-35,-615,0,0,0,0,0,0,0,0,0,-1,1189,1639,0,0
-28,-615,0,0,0,0,0,0,0,0,0,-1,1196,1639,0,0
-21,-615,0,0,0,0,0,0,0,0,0,-1,1203,1639,0,0
-14,-615,0,0,0,0,0,0,0,0,0,-1,1210,1639,0,0
-7,-615,0,0,0,0,0,0,0,0,0,-1,1217,1639,0,0
0,-615,0,0,0,0,0,0,0,0,0,-1,1224,1639,0,0
7,-615,0,0,0,0,0,0,0,0,0,-1,1231,1639,0,0
14,-615,0,0,0,0,0,0,0,0,0,-1,1238,1639,0,0
21,-615,0,0,0,0,0,0,0,0,0,-1,1245,1639,0,0
28,-615,0,0,0,0,0,0,0,0,0,-1,1252,1639,0,0
35,-615,0,0,0,0,0,0,0,0,0,-1,1259,1639,0,0
42,-615,0,0,0,0,0,0,0,0,0,-1,1266,1639,0,0
49,-615,0,0,0,0,0,0,0,0,0,-1,1273,1639,0,0
56,-615,0,0,0,0,0,0,0,0,0,-1,1280,1639,0,0
63,-615,0,0,0,0,0,0,0,0,0,-1,1287,1639,0,0
70,-615,0,0,0,0,0,0,0,0,0,-1,1294,1639,0,0
77,-615,0,0,0,0,0,0,0,0,0,-1,1301,1639,0,0
84,-615,0,0,0,0,0,0,0,0,0,-1,1308,1639,0,0
91,-615,0,0,0,0,0,0,0,0,0,-1,1315,1639,0,0
98,-615,0,0,0,0,0,0,0,0,0,-1,1322,1639,0,0
105,-615,0,0,0,0,0,0,0,0,0,-1,1329,1639,0,0
112,-615,0,0,0,0,0,0,0,0,0,-1,1336,1639,0,0
119,-615,0,0,0,0,0,0,0,0,0,-1,1343,1639,0,0
126,-615,0,0,0,0,0,0,0,0,0,-1,1350,1639,0,0
133,-615,0,0,0,0,0,0,0,0,0,-1,1357,1639,0,0
140,-615,0,0,0,0,0,0,0,0,0,-1,1364,1639,0,0
147,-615,0,0,0,0,0,0,0,0,0,-1,1371,1639,0,0
154,-615,0,0,0,0,0,0,0,0,0,-1,1378,1639,0,0
161,-615,0,0,0,0,0,0,0,0,0,-1,1385,1639,0,0
168,-615,0,0,0,0,0,0,0,0,0,-1,1392,1639,0,0
175,-615,5.39648,-2.00879,0,0,0,0,0,0,0,-1,1399,1639,5.3965,2.00881
182,-615,5.65393,-1.51025,0,0,0,0,0,0,0,-1,1406,1639,5.65388,1.51028
189,-615,5.58972,-1.35608,0,0,0,0,0,0,0,-1,1413,1639,5.58967,1.35607
196,-615,5.49915,-0.693604,0,0,0,0,0,0,0,-1,1420,1639,5.4991,0.693602
203,-615,5.33411,-0.226685,0,0,0,0,0,0,0,-1,1427,1639,5.33414,0.226689
210,-615,5.60278,0.108276,0,0,0,0,0,0,0,-1,1434,1639,5.60284,-0.10831
217,-615,6.26331,-0.307373,0,0,0,0,0,0,0,-1,1441,1639,6.26331,0.307372
224,-615,5.45422,-0.333984,0,0,0,0,0,0,0,-1,1448,1639,5.45422,0.333992
231,-615,4.92542,1.80298,0,0,0,0,0,0,0,-1,1455,1639,4.92537,-1.80297
238,-615,4.76355,1.96729,0,0,0,0,0,0,0,-1,1462,1639,4.76357,-1.96734
245,-615,4.08643,3.15906,0,0,0,0,0,0,0,-1,1469,1639,4.08638,-3.159
252,-615,6.37805,3.73889,0,0,0,0,0,0,0,-1,1476,1639,6.37806,-3.73891
259,-615,8.35974,3.16443,0,0,0,0,0,0,0,-1,1483,1639,8.35975,-3.16444
266,-615,10.3414,2.58997,0,0,0,0,0,0,0,-1,1490,1639,10.3414,-2.58996
273,-615,6.57043,1.84766,0,0,0,0,0,0,0,-1,1497,1639,6.5704,-1.84771
280,-615,7.10449,3.23438,0,0,0,0,0,0,0,-1,1504,1639,7.10447,-3.23435
287,-615,7.35779,4.68542,0,0,0,0,0,0,0,-1,1511,1639,7.35776,-4.68546
294,-615,7.63733,6.29114,0,0,0,0,0,0,0,-1,1518,1639,7.63735,-6.29109
301,-615,8.47925,11.452,0,0,0,0,0,0,0,-1,1525,1639,8.47922,-11.452
308,-615,6.8114,10.9059,0,0,0,0,0,0,0,-1,1532,1639,6.81137,-10.9058
315,-615,5.1427,14.7251,0,0,0,0,0,0,0,-1,1539,1639,5.14269,-14.7251
322,-615,7.17981,17.6864,0,0,0,0,0,0,0,-1,1546,1639,7.17985,-17.6864
329,-615,7.62134,20.4354,0,0,0,0,0,0,0,-1,1553,1639,7.62139,-20.4354
336,-615,6.45007,14.1138,0,0,0,0,0,0,0,-1,1560,1639,6.45011,-14.1138
343,-615,2.40491,6.50134,0,0,0,0,0,0,0,-1,1567,1639,2.40489,-6.50137
350,-615,6.4458,15.4594,0,0,0,0,0,0,0,-1,1574,1639,6.44578,-15.4593
357,-615,12.7394,35.0919,0,0,0,0,0,0,0,-1,1581,1639,12.7394,-35.092
364,-615,13.197,34.588,0,0,0,0,0,0,0,-1,1588,1639,13.197,-34.588
371,-615,13.3724,33.6144,0,0,0,0,0,0,0,-1,1595,1639,13.3724,-33.6144
378,-615,13.3127,33.1398,0.00539044,0.0201362,-0.00562951,0.0220397,0.00348696,-1.24474,0.0136797,0.021288,1602,1639,13.3128,-33.1397
385,-615,13.2905,32.6967,0.0041014,0.0169736,-0.00461857,0.0184593,0.00261572,-1.25958,0.0115336,0.0120842,1609,1639,13.2906,-32.6967
392,-615,13.3401,32.2874,0.00307942,0.0140037,-0.00371515,0.0151474,0.00193571,-1.27215,0.00951886,0.0107009,1616,1639,13.3401,-32.2873
399,-615,13.3535,31.884,0.00226532,0.0111478,-0.00282562,0.0119705,0.00144265,-1.28748,0.00754554,0.011762,1623,1639,13.3535,-31.8841
406,-615,13.3489,31.4849,0.00169534,0.00890472,-0.00223275,0.00954019,0.00105987,-1.29352,0.00603792,0.0114245,1630,1639,13.3488,-31.4849
413,-615,13.3508,31.0956,0.00126421,0.0069446,-0.00170463,0.00741688,0.000791933,-1.30052,0.00470289,0.0122599,1637,1639,13.3509,-31.0956
420,-615,13.3396,30.6882,0.00104805,0.00549468,-0.00139147,0.00589421,0.000648515,-1.29119,0.00373213,0.0138426,1644,1639,13.3396,-30.6882
427,-615,13.333,30.2452,0.0010093,0.00439456,-0.00119387,0.00477324,0.000630623,-1.26365,0.00299417,0.0141854,1651,1639,13.333,-30.2453
434,-615,13.3319,29.8125,0.000921301,0.00328012,-0.000953279,0.0036172,0.000584219,-1.23092,0.00224225,0.0128381,1658,1639,13.3319,-29.8125
441,-615,13.3334,29.3734,0.000997032,0.00248773,-0.000780743,0.00282178,0.000662981,-1.1665,0.00170375,0.01418,1665,1639,13.3334,-29.3734
448,-615,13.3246,28.9446,0.0010541,0.00184744,-0.000549737,0.00212867,0.000772859,-1.09792,0.00124426,0.0155391,1672,1639,13.3246,-28.9446
455,-615,13.3134,28.5105,0.00105192,0.00120244,-0.000333887,0.00146944,0.000784914,-0.896248,0.000849042,0.0147766,1679,1639,13.3134,-28.5105
462,-615,13.2866,28.0857,0.000976822,0.000511002,-5.07102e-06,0.000976878,0.000510947,-0.0108845,0.0005642,0.0157589,1686,1639,13.2866,-28.0857
469,-615,13.2537,27.6272,0.000762861,-0.000261804,0.000366778,0.000880616,-0.000379559,0.310658,0.000746487,0.0135405,1693,1639,13.2536,-27.6272
476,-615,13.2458,27.1644,0.000442147,-0.00115204,0.000847245,0.000808317,-0.00151821,0.407943,0.00136391,0.0119431,1700,1639,13.2458,-27.1644
483,-615,13.2603,26.6586,0.000128613,-0.00212603,0.00131369,0.00073237,-0.00272979,0.430799,0.00210685,0.0204563,1707,1639,13.2602,-26.6585
490,-615,13.248,26.2074,1.62375e-05,-0.0027988,0.00133934,0.000551636,-0.0033342,0.38029,0.00242766,0.0294571,1714,1639,13.2481,-26.2073
497,-615,13.1665,25.8784,-0.000407424,-0.00348662,0.00144668,0.000165618,-0.00405966,0.377147,0.0027633,0.039938,1721,1639,13.1665,-25.8784
504,-615,12.8601,25.3577,0,0,0,0,0,0,0,-1,1728,1639,12.8601,-25.3577
511,-615,12.9941,24.9858,0,0,0,0,0,0,0,-1,1735,1639,12.9941,-24.9858
518,-615,13.2416,9.81812,0,0,0,0,0,0,0,-1,1742,1639,13.2416,-9.81813
525,-615,4.37524,3.90491,0,0,0,0,0,0,0,-1,1749,1639,4.37518,-3.90495
532,-615,7.3645,0.848145,0,0,0,0,0,0,0,-1,1756,1639,7.36451,-0.848093
539,-615,12.8112,-0.0476074,0,0,0,0,0,0,0,-1,1763,1639,12.8111,0.0475553
546,-615,8.33813,2.94556,0,0,0,0,0,0,0,-1,1770,1639,8.33813,-2.9455
553,-615,5.82532,-2.04199,0,0,0,0,0,0,0,-1,1777,1639,5.82534,2.04195
560,-615,0,0,0,0,0,0,0,0,0,-1,1784,1639,0,0
567,-615,0,0,0,0,0,0,0,0,0,-1,1791,1639,0,0
574,-615,0,0,0,0,0,0,0,0,0,-1,1798,1639,0,0
581,-615,0,0,0,0,0,0,0,0,0,-1,1805,1639,0,0
588,-615,0,0,0,0,0,0,0,0,0,-1,1812,1639,0,0
595,-615,0,0,0,0,0,0,0,0,0,-1,1819,1639,0,0
602,-615,0,0,0,0,0,0,0,0,0,-1,1826,1639,0,0
609,-615,0,0,0,0,0,0,0,0,0,-1,1833,1639,0,0
616,-615,0,0,0,0,0,0,0,0,0,-1,1840,1639,0,0
623,-615,0,0,0,0,0,0,0,0,0,-1,1847,1639,0,0
630,-615,0,0,0,0,0,0,0,0,0,-1,1854,1639,0,0
637,-615,0,0,0,0,0,0,0,0,0,-1,1861,1639,0,0
644,-615,0,0,0,0,0,0,0,0,0,-1,1868,1639,0,0
651,-615,0,0,0,0,0,0,0,0,0,-1,1875,1639,0,0
658,-615,0,0,0,0,0,0,0,0,0,-1,1882,1639,0,0
665,-615,0,0,0,0,0,0,0,0,0,-1,1889,1639,0,0
672,-615,0,0,0,0,0,0,0,0,0,-1,1896,1639,0,0
679,-615,0,0,0,0,0,0,0,0,0,-1,1903,1639,0,0
686,-615,0,0,0,0,0,0,0,0,0,-1,1910,1639,0,0
693,-615,0,0,0,0,0,0,0,0,0,-1,1917,1639,0,0
700,-615,0,0,0,0,0,0,0,0,0,-1,1924,1639,0,0
707,-615,0,0,0,0,0,0,0,0,0,-1,1931,1639,0,0
714,-615,0,0,0,0,0,0,0,0,0,-1,1938,1639,0,0
721,-615,0,0,0,0,0,0,0,0,0,-1,1945,1639,0,0
728,-615,0,0,0,0,0,0,0,0,0,-1,1952,1639,0,0
735,-615,0,0,0,0,0,0,0,0,0,-1,1959,1639,0,0
742,-615,0,0,0,0,0,0,0,0,0,-1,1966,1639,0,0
749,-615,0,0,0,0,0,0,0,0,0,-1,1973,1639,0,0
756,-615,0,0,0,0,0,0,0,0,0,-1,1980,1639,0,0
763,-615,0,0,0,0,0,0,0,0,0,-1,1987,1639,0,0
770,-615,0,0,0,0,0,0,0,0,0,-1,1994,1639,0,0
777,-615,0,0,0,0,0,0,0,0,0,-1,2001,1639,0,0
784,-615,0,0,0,0,0,0,0,0,0,-1,2008,1639,0,0
791,-615,0,0,0,0,0,0,0,0,0,-1,2015,1639,0,0
798,-615,0,0,0,0,0,0,0,0,0,-1,2022,1639,0,0
805,-615,0,0,0,0,0,0,0,0,0,-1,2029,1639,0,0
812,-615,0,0,0,0,0,0,0,0,0,-1,2036,1639,0,0
-700,-622,0,0,0,0,0,0,0,0,0,-1,524,1646,0,0
-693,-622,0,0,0,0,0,0,0,0,0,-1,531,1646,0,0
-686,-622,0,0,0,0,0,0,0,0,0,-1,538,1646,0,0
-679,-622,0,0,0,0,0,0,0,0,0,-1,545,1646,0,0
-672,-622,0,0,0,0,0,0,0,0,0,-1,552,1646,0,0
-665,-622,0,0,0,0,0,0,0,0,0,-1,559,1646,0,0
-658,-622,0,0,0,0,0,0,0,0,0,-1,566,1646,0,0
-651,-622,0,0,0,0,0,0,0,0,0,-1,573,1646,0,0
-644,-622,0,0,0,0,0,0,0,0,0,-1,580,1646,0,0
-637,-622,0,0,0,0,0,0,0,0,0,-1,587,1646,0,0
-630,-622,0,0,0,0,0,0,0,0,0,-1,594,1646,0,0
-623,-622,0,0,0,0,0,0,0,0,0,-1,601,1646,0,0
-616,-622,0,0,0,0,0,0,0,0,0,-1,608,1646,0,0
-609,-622,0,0,0,0,0,0,0,0,0,-1,615,1646,0,0
-602,-622,0,0,0,0,0,0,0,0,0,-1,622,1646,0,0
-595,-622,0,0,0,0,0,0,0,0,0,-1,629,1646,0,0
-588,-622,0,0,0,0,0,0,0,0,0,-1,636,1646,0,0
-581,-622,0,0,0,0,0,0,0,0,0,-1,643,1646,0,0
-574,-622,0,0,0,0,0,0,0,0,0,-1,650,1646,0,0
-567,-622,0,0,0,0,0,0,0,0,0,-1,657,1646,0,0
-560,-622,0,0,0,0,0,0,0,0,0,-1,664,1646,0,0
-553,-622,0,0,0,0,0,0,0,0,0,-1,671,1646,0,0
-546,-622,0,0,0,0,0,0,0,0,0,-1,678,1646,0,0
-539,-622,0,0,0,0,0,0,0,0,0,-1,685,1646,0,0
-532,-622,0,0,0,0,0,0,0,0,0,-1,692,1646,0,0
-525,-622,0,0,0,0,0,0,0,0,0,-1,699,1646,0,0
-518,-622,0,0,0,0,0,0,0,0,0,-1,706,1646,0,0
-511,-622,0,0,0,0,0,0,0,0,0,-1,713,1646,0,0
-504,-622,0,0,0,0,0,0,0,0,0,-1,720,1646,0,0
-497,-622,0,0,0,0,0,0,0,0,0,-1,727,1646,0,0
-490,-622,0,0,0,0,0,0,0,0,0,-1,734,1646,0,0
-483,-622,0,0,0,0,0,0,0,0,0,-1,741,1646,0,0
-476,-622,0,0,0,0,0,0,0,0,0,-1,748,1646,0,0
-469,-622,0,0,0,0,0,0,0,0,0,-1,755,1646,0,0
-462,-622,0,0,0,0,0,0,0,0,0,-1,762,1646,0,0
-455,-622,0,0,0,0,0,0,0,0,0,-1,769,1646,0,0
-448,-622,0,0,0,0,0,0,0,0,0,-1,776,1646,0,0
-441,-622,0,0,0,0,0,0,0,0,0,-1,783,1646,0,0
-434,-622,0,0,0,0,0,0,0,0,0,-1,790,1646,0,0
-427,-622,-7.62891,3.48096,0,0,0,0,0,0,0,-1,797,1646,-7.62892,-3.48092
-420,-622,-9.35791,1.77185,0,0,0,0,0,0,0,-1,804,1646,-9.35789,-1.77183
-413,-622,-8.46075,1.96777,0,0,0,0,0,0,0,-1,811,1646,-8.46074,-1.96774
-406,-622,-4.44318,2.16858,0,0,0,0,0,0,0,-1,818,1646,-4.44315,-2.16859
-399,-622,-7.06976,1.51001,0,0,0,0,0,0,0,-1,825,1646,-7.06976,-1.51005
-392,-622,3.89551,5.85376,0,0,0,0,0,0,0,-1,832,1646,3.8955,-5.85379
-385,-622,2.00543,14.0448,0,0,0,0,0,0,0,-1,839,1646,2.00544,-14.0448
-378,-622,1.49036,15.3436,0,0,0,0,0,0,0,-1,846,1646,1.49033,-15.3436
-371,-622,3.23883,20.4496,0,0,0,0,0,0,0,-1,853,1646,3.23886,-20.4496
-364,-622,3.38831,24.8346,0,0,0,0,0,0,0,-1,860,1646,3.38828,-24.8346
-357,-622,3.69189,25.4165,0,0,0,0,0,0,0,-1,867,1646,3.69192,-25.4165
-350,-622,3.66644,26.0115,0,0,0,0,0,0,0,-1,874,1646,3.66642,-26.0115
-343,-622,3.65509,26.4222,-0.0024657,-0.00237567,0.000639383,-0.00177972,-0.00306165,0.820542,0.00177542,0.023515,881,1646,3.6551,-26.4223
-336,-622,3.63129,26.9155,-0.00157935,-0.00136261,0.000928634,-0.000536043,-0.00240591,0.843483,0.00145848,0.00893612,888,1646,3.63126,-26.9155
-329,-622,3.6062,27.3792,-0.000822136,-0.000527532,0.00109745,0.000432455,-0.00178212,0.852111,0.00135543,0.00852755,895,1646,3.6062,-27.3791
-322,-622,3.58221,27.86,-0.000235595,0.000269016,0.00126811,0.00130967,-0.00127625,0.883597,0.00149303,0.0102818,902,1646,3.58218,-27.86
-315,-622,3.55334,28.3525,0.000222301,0.000805743,0.00137373,0.00191838,-0.00089034,0.890022,0.00165743,0.0139026,909,1646,3.55337,-28.3526
-308,-622,3.5387,28.7904,0.000612084,0.00125964,0.00137324,0.00234675,-0.000475029,0.901172,0.00174454,0.0145777,916,1646,3.53871,-28.7904
-301,-622,3.54651,29.2203,0.00106812,0.00175081,0.00148804,0.00293615,-0.00011722,0.898145,0.00199765,0.0139194,923,1646,3.5465,-29.2203
-294,-622,3.53076,29.6941,0.00153971,0.00229966,0.00168873,0.00365064,0.000188739,0.896059,0.00237335,0.0106373,930,1646,3.53074,-29.6941
-287,-622,3.51868,30.1406,0.00205132,0.00303417,0.00198987,0.0045924,0.000493086,0.906458,0.00291119,0.0082054,937,1646,3.51868,-30.1406
-280,-622,3.49695,30.5825,0.00254035,0.00372716,0.00224884,0.00545957,0.000807943,0.914394,0.00340252,0.00870884,944,1646,3.49692,-30.5825
-273,-622,3.50037,31.0231,0.00304608,0.00443189,0.00255553,0.00638679,0.00109118,0.917785,0.00394476,0.0128582,951,1646,3.50035,-31.0231
-266,-622,3.48267,31.4591,0.00357734,0.00537165,0.00294348,0.00755166,0.00139732,0.933323,0.00463935,0.012492,958,1646,3.48266,-31.4591
-259,-622,3.47095,31.901,0.00420253,0.00646606,0.00344852,0.00896378,0.00170481,0.943954,0.00549643,0.0116518,965,1646,3.47096,-31.901
-252,-622,3.48663,32.302,0.0049021,0.00776567,0.00393992,0.0105259,0.00214187,0.959681,0.00642346,0.0121949,972,1646,3.48661,-32.302
-245,-622,3.54657,32.7191,0.00565407,0.00904109,0.00443221,0.0120923,0.00260285,0.967885,0.00734921,0.0110801,979,1646,3.54657,-32.7191
-238,-622,3.54425,33.1571,0.00652669,0.00998948,0.00483342,0.0133923,0.00312391,0.957384,0.00809046,0.0153982,986,1646,3.54424,-33.1571
-231,-622,3.61188,33.6824,0.00820977,0.0111928,0.00512702,0.0150408,0.00436172,0.926947,0.00893551,0.0282525,993,1646,3.61187,-33.6823
-224,-622,3.70294,33.988,0.0105113,0.0114198,0.00636504,0.0173468,0.0045843,0.821022,0.0103795,0.045683,1000,1646,3.70292,-33.988
-217,-622,3.86267,34.4884,0,0,0,0,0,0,0,-1,1007,1646,3.86267,-34.4884
-210,-622,3.87927,28.0903,0,0,0,0,0,0,0,-1,1014,1646,3.87925,-28.0903
-203,-622,4.21375,20.9574,0,0,0,0,0,0,0,-1,1021,1646,4.21375,-20.9574
-196,-622,4.18518,21.2491,0,0,0,0,0,0,0,-1,1028,1646,4.18521,-21.2491
-189,-622,4.98254,25.8979,0,0,0,0,0,0,0,-1,1035,1646,4.98255,-25.8979
-182,-622,2.21411,20.6752,0,0,0,0,0,0,0,-1,1042,1646,2.21416,-20.6751
-175,-622,2.56091,11.0195,0,0,0,0,0,0,0,-1,1049,1646,2.56095,-11.0195
-168,-622,3.31055,28.6663,0,0,0,0,0,0,0,-1,1056,1646,3.31055,-28.6663
-161,-622,5.34436,37.5457,0,0,0,0,0,0,0,-1,1063,1646,5.34437,-37.5456
-154,-622,4.28674,37.4702,0,0,0,0,0,0,0,-1,1070,1646,4.28672,-37.4702
-147,-622,3.7146,25.5477,0,0,0,0,0,0,0,-1,1077,1646,3.71464,-25.5478
-140,-622,3.27515,16.0353,0,0,0,0,0,0,0,-1,1084,1646,3.27519,-16.0353
-133,-622,3.09644,17.677,0,0,0,0,0,0,0,-1,1091,1646,3.09638,-17.677
-126,-622,3.5061,19.5251,0,0,0,0,0,0,0,-1,1098,1646,3.50616,-19.5252
-119,-622,4.06384,13.1715,0,0,0,0,0,0,0,-1,1105,1646,4.06379,-13.1716
-112,-622,4.33276,14.6605,0,0,0,0,0,0,0,-1,1112,1646,4.33281,-14.6605
-105,-622,0.306519,4.38159,0,0,0,0,0,0,0,-1,1119,1646,0.306536,-4.38159
-98,-622,-0.510376,3.5033,0,0,0,0,0,0,0,-1,1126,1646,-0.510393,-3.50324
-91,-622,-1.146,0.975952,0,0,0,0,0,0,0,-1,1133,1646,-1.14599,-0.97597
-84,-622,-2.04895,1.31787,0,0,0,0,0,0,0,-1,1140,1646,-2.0489,-1.31781
-77,-622,-1.80627,0.332275,0,0,0,0,0,0,0,-1,1147,1646,-1.80622,-0.33223
-70,-622,-3.65588,2.28149,0,0,0,0,0,0,0,-1,1154,1646,-3.65589,-2.28155
-63,-622,-2.49683,1.27087,0,0,0,0,0,0,0,-1,1161,1646,-2.49679,-1.27093
-56,-622,-2.44238,-0.575562,0,0,0,0,0,0,0,-1,1168,1646,-2.44242,0.575508
-49,-622,-2.41089,1.38818,0,0,0,0,0,0,0,-1,1175,1646,-2.41088,-1.38815
-42,-622,-2.71497,2.85242,0,0,0,0,0,0,0,-1,1182,1646,-2.71491,-2.85247
-35,-622,-3.0177,4.25842,0,0,0,0,0,0,0,-1,1189,1646,-3.01773,-4.25838
-28,-622,-0.896606,0.678833,0,0,0,0,0,0,0,-1,1196,1646,-0.89661,-0.678835
-21,-622,16.4141,36.2849,0,0,0,0,0,0,0,-1,1203,1646,16.4141,-36.285
-14,-622,12.7726,35.3608,0,0,0,0,0,0,0,-1,1210,1646,12.7726,-35.3609
-7,-622,13.2388,35.5912,0,0,0,0,0,0,0,-1,1217,1646,13.2388,-35.5912
0,-622,0,0,0,0,0,0,0,0,0,-1,1224,1646,0,0
7,-622,0,0,0,0,0,0,0,0,0,-1,1231,1646,0,0
14,-622,0,0,0,0,0,0,0,0,0,-1,1238,1646,0,0
21,-622,0,0,0,0,0,0,0,0,0,-1,1245,1646,0,0
28,-622,0,0,0,0,0,0,0,0,0,-1,1252,1646,0,0
35,-622,0,0,0,0,0,0,0,0,0,-1,1259,1646,0,0
42,-622,0,0,0,0,0,0,0,0,0,-1,1266,1646,0,0
49,-622,0,0,0,0,0,0,0,0,0,-1,1273,1646,0,0
56,-622,0,0,0,0,0,0,0,0,0,-1,1280,1646,0,0
63,-622,0,0,0,0,0,0,0,0,0,-1,1287,1646,0,0
70,-622,0,0,0,0,0,0,0,0,0,-1,1294,1646,0,0
77,-622,0,0,0,0,0,0,0,0,0,-1,1301,1646,0,0
84,-622,0,0,0,0,0,0,0,0,0,-1,1308,1646,0,0
91,-622,0,0,0,0,0,0,0,0,0,-1,1315,1646,0,0
98,-622,0,0,0,0,0,0,0,0,0,-1,1322,1646,0,0
105,-622,0,0,0,0,0,0,0,0,0,-1,1329,1646,0,0
112,-622,0,0,0,0,0,0,0,0,0,-1,1336,1646,0,0
119,-622,0,0,0,0,0,0,0,0,0,-1,1343,1646,0,0
126,-622,3.02917,49.2247,0,0,0,0,0,0,0,-1,1350,1646,3.02913,-49.2248
133,-622,14.8778,36.6438,0,0,0,0,0,0,0,-1,1357,1646,14.8778,-36.6438
140,-622,15.6663,32.7819,0.273745,0.00140522,-0.161896,0.349123,-0.0739726,-0.435747,0.260925,0.045977,1364,1646,15.6662,-32.7819
147,-622,16.4615,28.8964,0,0,0,0,0,0,0,-1,1371,1646,16.4615,-28.8963
154,-622,17.2712,25.0475,0,0,0,0,0,0,0,-1,1378,1646,17.2712,-25.0474
161,-622,10.6884,6.46448,0,0,0,0,0,0,0,-1,1385,1646,10.6883,-6.46442
168,-622,12.2402,5.18091,0,0,0,0,0,0,0,-1,1392,1646,12.2403,-5.1809
175,-622,5.64355,-1.77075,0,0,0,0,0,0,0,-1,1399,1646,5.64351,1.77077
182,-622,5.88586,-1.32251,0,0,0,0,0,0,0,-1,1406,1646,5.88587,1.32256
189,-622,5.97986,-1.18005,0,0,0,0,0,0,0,-1,1413,1646,5.97986,1.18003
196,-622,5.85022,-0.244507,0,0,0,0,0,0,0,-1,1420,1646,5.85026,0.244478
203,-622,5.25159,0.138794,0,0,0,0,0,0,0,-1,1427,1646,5.25162,-0.138822
210,-622,6.66833,0.0397949,0,0,0,0,0,0,0,-1,1434,1646,6.6684,-0.0398278
217,-622,6.12061,0.0506592,0,0,0,0,0,0,0,-1,1441,1646,6.12058,-0.0507181
224,-622,5.57275,0.0616455,0,0,0,0,0,0,0,-1,1448,1646,5.57276,-0.0616084
231,-622,5.31348,1.3949,0,0,0,0,0,0,0,-1,1455,1646,5.31342,-1.39495
238,-622,3.76477,2.90686,0,0,0,0,0,0,0,-1,1462,1646,3.7648,-2.90686
245,-622,5.13794,2.67993,0,0,0,0,0,0,0,-1,1469,1646,5.13796,-2.67992
252,-622,6.66528,2.53992,0,0,0,0,0,0,0,-1,1476,1646,6.66522,-2.53991
259,-622,8.93787,3.31458,0,0,0,0,0,0,0,-1,1483,1646,8.93791,-3.31454
266,-622,5.72644,3.11926,0,0,0,0,0,0,0,-1,1490,1646,5.72647,-3.1192
273,-622,7.28076,3.61218,0,0,0,0,0,0,0,-1,1497,1646,7.28071,-3.61212
280,-622,8.43127,4.4447,0,0,0,0,0,0,0,-1,1504,1646,8.43123,-4.44467
287,-622,8.60315,5.94617,0,0,0,0,0,0,0,-1,1511,1646,8.60319,-5.94622
294,-622,7.62756,11.5143,0,0,0,0,0,0,0,-1,1518,1646,7.62762,-11.5143
301,-622,7.36548,11.6569,0,0,0,0,0,0,0,-1,1525,1646,7.36549,-11.6569
308,-622,7.10339,11.7994,0,0,0,0,0,0,0,-1,1532,1646,7.10335,-11.7995
315,-622,8.28687,16.5842,0,0,0,0,0,0,0,-1,1539,1646,8.28689,-16.5843
322,-622,7.43689,20.5786,0,0,0,0,0,0,0,-1,1546,1646,7.43685,-20.5786
329,-622,9.76477,26.4202,0,0,0,0,0,0,0,-1,1553,1646,9.7648,-26.4202
336,-622,10.4526,28.8552,0,0,0,0,0,0,0,-1,1560,1646,10.4526,-28.8552
343,-622,12.7427,35.8873,0,0,0,0,0,0,0,-1,1567,1646,12.7426,-35.8873
350,-622,12.6951,35.4174,0,0,0,0,0,0,0,-1,1574,1646,12.6951,-35.4173
357,-622,12.684,34.7137,0.00814687,0.023786,-0.00732747,0.0266826,0.00525021,-1.19433,0.0163223,0.0478246,1581,1646,12.684,-34.7137
364,-622,12.8644,34.1614,0.00681468,0.0208127,-0.00618677,0.0231551,0.00447226,-1.20886,0.014183,0.0408694,1588,1646,12.8644,-34.1613
371,-622,12.9204,33.5297,0.00566062,0.018039,-0.005246,0.0199632,0.00373646,-1.21925,0.0122547,0.0242,1595,1646,12.9204,-33.5297
378,-622,12.9292,33.089,0.00457087,0.0155088,-0.00436646,0.0170381,0.00304157,-1.23391,0.0104928,0.0110301,1602,1646,12.9292,-33.089
385,-622,12.9144,32.6813,0.00357748,0.0130524,-0.00364726,0.0142937,0.00233614,-1.24275,0.00885377,0.00961122,1609,1646,12.9145,-32.6812
392,-622,12.9105,32.2885,0.00279689,0.010626,-0.00298567,0.0116347,0.00178824,-1.245,0.00723442,0.0115571,1616,1646,12.9105,-32.2885
399,-622,12.9073,31.9015,0.00213851,0.00818283,-0.00228039,0.00894664,0.0013747,-1.24759,0.0055631,0.0126212,1623,1646,12.9074,-31.9014
406,-622,12.8949,31.4631,0.00166083,0.00628903,-0.00181168,0.00691385,0.00103601,-1.23869,0.00430564,0.0155322,1630,1646,12.8949,-31.4632
413,-622,12.9117,31.0587,0.00129995,0.00471959,-0.00128469,0.00514845,0.000871097,-1.24861,0.00318193,0.0167393,1637,1646,12.9118,-31.0587
420,-622,12.9253,30.6755,0.00112811,0.00352258,-0.00098441,0.00387532,0.000775364,-1.22672,0.00236779,0.0163248,1644,1646,12.9252,-30.6755
427,-622,12.9011,30.2477,0.00113044,0.00262846,-0.000782503,0.00296265,0.00079625,-1.16716,0.00177041,0.0120109,1651,1646,12.9011,-30.2477
434,-622,12.8988,29.8192,0.00108792,0.00179199,-0.000531063,0.0020771,0.00080281,-1.07809,0.00120947,0.0123325,1658,1646,12.8988,-29.8192
441,-622,12.8903,29.4,0.00118124,0.00128137,-0.000329232,0.00156432,0.000898287,-0.860858,0.000906474,0.0145176,1665,1646,12.8902,-29.4
448,-622,12.8655,28.9918,0.00125543,0.000871961,-6.805e-05,0.00126714,0.000860243,-0.170527,0.000747029,0.0135457,1672,1646,12.8655,-28.9918
455,-622,12.8428,28.5162,0.00128726,0.000527239,0.000224644,0.0013487,0.000465805,0.266944,0.000790984,0.0157783,1679,1646,12.8428,-28.5162
462,-622,12.8485,28.0797,0.00125886,0.000170299,0.000593795,0.00152008,-9.09225e-05,0.414439,0.00104501,0.0179072,1686,1646,12.8485,-28.0797
469,-622,12.834,27.6438,0.00112183,-0.000311362,0.000970982,0.00161201,-0.000801546,0.467507,0.00141941,0.0197769,1693,1646,12.834,-27.6438
476,-622,12.8944,27.1807,0.000901483,-0.000948835,0.00146936,0.00171268,-0.00176003,0.504436,0.00200504,0.0278322,1700,1646,12.8944,-27.1806
483,-622,12.7817,26.7767,0.000672975,-0.0016328,0.00196202,0.00179576,-0.00275558,0.519771,0.00264712,0.0417689,1707,1646,12.7818,-26.7767
490,-622,12.8561,26.2617,0,0,0,0,0,0,0,-1,1714,1646,12.8561,-26.2617
497,-622,12.8242,26.1758,0,0,0,0,0,0,0,-1,1721,1646,12.8242,-26.1758
504,-622,10.8306,19.8021,0,0,0,0,0,0,0,-1,1728,1646,10.8306,-19.8022
511,-622,5.29004,4.14587,0,0,0,0,0,0,0,-1,1735,1646,5.29008,-4.14589
518,-622,5.6001,1.55359,0,0,0,0,0,0,0,-1,1742,1646,5.60015,-1.5536
525,-622,5.83093,2.01807,0,0,0,0,0,0,0,-1,1749,1646,5.83097,-2.01802
532,-622,5.44202,0.57373,0,0,0,0,0,0,0,-1,1756,1646,5.44196,-0.573705
539,-622,9.32129,1.06116,0,0,0,0,0,0,0,-1,1763,1646,9.32131,-1.0612
546,-622,6.50977,-3.45618,0,0,0,0,0,0,0,-1,1770,1646,6.50981,3.4562
553,-622,0,0,0,0,0,0,0,0,0,-1,1777,1646,0,0
560,-622,0,0,0,0,0,0,0,0,0,-1,1784,1646,0,0
567,-622,0,0,0,0,0,0,0,0,0,-1,1791,1646,0,0
574,-622,0,0,0,0,0,0,0,0,0,-1,1798,1646,0,0
581,-622,0,0,0,0,0,0,0,0,0,-1,1805,1646,0,0
588,-622,0,0,0,0,0,0,0,0,0,-1,1812,1646,0,0
595,-622,0,0,0,0,0,0,0,0,0,-1,1819,1646,0,0
602,-622,0,0,0,0,0,0,0,0,0,-1,1826,1646,0,0
609,-622,0,0,0,0,0,0,0,0,0,-1,1833,1646,0,0
616,-622,0,0,0,0,0,0,0,0,0,-1,1840,1646,0,0
623,-622,0,0,0,0,0,0,0,0,0,-1,1847,1646,0,0
630,-622,0,0,0,0,0,0,0,0,0,-1,1854,1646,0,0
637,-622,0,0,0,0,0,0,0,0,0,-1,1861,1646,0,0
644,-622,0,0,0,0,0,0,0,0,0,-1,1868,1646,0,0
651,-622,0,0,0,0,0,0,0,0,0,-1,1875,1646,0,0
658,-622,0,0,0,0,0,0,0,0,0,-1,1882,1646,0,0
665,-622,0,0,0,0,0,0,0,0,0,-1,1889,1646,0,0
672,-622,0,0,0,0,0,0,0,0,0,-1,1896,1646,0,0
679,-622,0,0,0,0,0,0,0,0,0,-1,1903,1646,0,0
686,-622,0,0,0,0,0,0,0,0,0,-1,1910,1646,0,0
693,-622,0,0,0,0,0,0,0,0,0,-1,1917,1646,0,0
700,-622,0,0,0,0,0,0,0,0,0,-1,1924,1646,0,0
707,-622,0,0,0,0,0,0,0,0,0,-1,1931,1646,0,0
714,-622,0,0,0,0,0,0,0,0,0,-1,1938,1646,0,0
721,-622,0,0,0,0,0,0,0,0,0,-1,1945,1646,0,0
728,-622,0,0,0,0,0,0,0,0,0,-1,1952,1646,0,0
735,-622,0,0,0,0,0,0,0,0,0,-1,1959,1646,0,0
742,-622,0,0,0,0,0,0,0,0,0,-1,1966,1646,0,0
749,-622,0,0,0,0,0,0,0,0,0,-1,1973,1646,0,0
756,-622,0,0,0,0,0,0,0,0,0,-1,1980,1646,0,0
763,-622,0,0,0,0,0,0,0,0,0,-1,1987,1646,0,0
770,-622,0,0,0,0,0,0,0,0,0,-1,1994,1646,0,0
777,-622,0,0,0,0,0,0,0,0,0,-1,2001,1646,0,0
784,-622,0,0,0,0,0,0,0,0,0,-1,2008,1646,0,0
791,-622,0,0,0,0,0,0,0,0,0,-1,2015,1646,0,0
798,-622,0,0,0,0,0,0,0,0,0,-1,2022,1646,0,0
805,-622,0,0,0,0,0,0,0,0,0,-1,2029,1646,0,0
812,-622,0,0,0,0,0,0,0,0,0,-1,2036,1646,0,0
-700,-629,0,0,0,0,0,0,0,0,0,-1,524,1653,0,0
-693,-629,0,0,0,0,0,0,0,0,0,-1,531,1653,0,0
-686,-629,0,0,0,0,0,0,0,0,0,-1,538,1653,0,0
-679,-629,0,0,0,0,0,0,0,0,0,-1,545,1653,0,0
-672,-629,0,0,0,0,0,0,0,0,0,-1,552,1653,0,0
-665,-629,0,0,0,0,0,0,0,0,0,-1,559,1653,0,0
-658,-629,0,0,0,0,0,0,0,0,0,-1,566,1653,0,0
-651,-629,0,0,0,0,0,0,0,0,0,-1,573,1653,0,0
-644,-629,0,0,0,0,0,0,0,0,0,-1,580,1653,0,0
-637,-629,0,0,0,0,0,0,0,0,0,-1,587,1653,0,0
-630,-629,0,0,0,0,0,0,0,0,0,-1,594,1653,0,0
-623,-629,0,0,0,0,0,0,0,0,0,-1,601,1653,0,0
-616,-629,0,0,0,0,0,0,0,0,0,-1,608,1653,0,0
-609,-629,0,0,0,0,0,0,0,0,0,-1,615,1653,0,0
-602,-629,0,0,0,0,0,0,0,0,0,-1,622,1653,0,0
-595,-629,0,0,0,0,0,0,0,0,0,-1,629,1653,0,0
-588,-629,0,0,0,0,0,0,0,0,0,-1,636,1653,0,0
-581,-629,0,0,0,0,0,0,0,0,0,-1,643,1653,0,0
-574,-629,0,0,0,0,0,0,0,0,0,-1,650,1653,0,0
-567,-629,0,0,0,0,0,0,0,0,0,-1,657,1653,0,0
-560,-629,0,0,0,0,0,0,0,0,0,-1,664,1653,0,0
-553,-629,0,0,0,0,0,0,0,0,0,-1,671,1653,0,0
-546,-629,0,0,0,0,0,0,0,0,0,-1,678,1653,0,0
-539,-629,0,0,0,0,0,0,0,0,0,-1,685,1653,0,0
-532,-629,0,0,0,0,0,0,0,0,0,-1,692,1653,0,0
-525,-629,0,0,0,0,0,0,0,0,0,-1,699,1653,0,0
-518,-629,0,0,0,0,0,0,0,0,0,-1,706,1653,0,0
-511,-629,0,0,0,0,0,0,0,0,0,-1,713,1653,0,0
-504,-629,0,0,0,0,0,0,0,0,0,-1,720,1653,0,0
-497,-629,0,0,0,0,0,0,0,0,0,-1,727,1653,0,0
-490,-629,0,0,0,0,0,0,0,0,0,-1,734,1653,0,0
-483,-629,0,0,0,0,0,0,0,0,0,-1,741,1653,0,0
-476,-629,0,0,0,0,0,0,0,0,0,-1,748,1653,0,0
-469,-629,0,0,0,0,0,0,0,0,0,-1,755,1653,0,0
-462,-629,0,0,0,0,0,0,0,0,0,-1,762,1653,0,0
-455,-629,0,0,0,0,0,0,0,0,0,-1,769,1653,0,0
-448,-629,0,0,0,0,0,0,0,0,0,-1,776,1653,0,0
-441,-629,0,0,0,0,0,0,0,0,0,-1,783,1653,0,0
-434,-629,0,0,0,0,0,0,0,0,0,-1,790,1653,0,0
-427,-629,0,0,0,0,0,0,0,0,0,-1,797,1653,0,0
-420,-629,-3.87103,3.37634,0,0,0,0,0,0,0,-1,804,1653,-3.87101,-3.37633
-413,-629,-5.69751,1.33582,0,0,0,0,0,0,0,-1,811,1653,-5.69754,-1.3358
-406,-629,2.85406,6.01501,0,0,0,0,0,0,0,-1,818,1653,2.85405,-6.01507
-399,-629,-0.455627,10.8687,0,0,0,0,0,0,0,-1,825,1653,-0.455625,-10.8687
-392,-629,1.15369,11.1295,0,0,0,0,0,0,0,-1,832,1653,1.1537,-11.1295
-385,-629,1.81976,11.6935,0,0,0,0,0,0,0,-1,839,1653,1.81975,-11.6935
-378,-629,2.19452,14.7941,0,0,0,0,0,0,0,-1,846,1653,2.19451,-14.7941
-371,-629,3.60114,14.7299,0,0,0,0,0,0,0,-1,853,1653,3.60113,-14.7299
-364,-629,3.26898,21.0801,0,0,0,0,0,0,0,-1,860,1653,3.26895,-21.08
-357,-629,4.38782,16.3444,0,0,0,0,0,0,0,-1,867,1653,4.38783,-16.3443
-350,-629,4.08545,25.9246,0,0,0,0,0,0,0,-1,874,1653,4.08543,-25.9245
-343,-629,4.05353,26.4686,-0.0029697,-0.00254334,0.000843593,-0.00188641,-0.00362663,0.909161,0.00209441,0.0367617,881,1653,4.05351,-26.4687
-336,-629,4.04248,26.9456,-0.00198054,-0.00129703,0.00127375,-0.00031998,-0.00295759,0.916465,0.00187419,0.017837,888,1653,4.04249,-26.9456
-329,-629,4.07117,27.4148,-0.00122628,-0.000370593,0.00146588,0.000728603,-0.00232548,0.927388,0.00184187,0.0120583,895,1653,4.07116,-27.4148
-322,-629,4.04993,27.8685,-0.000689749,0.000410622,0.00160802,0.00155998,-0.00183911,0.95023,0.00196467,0.0126005,902,1653,4.04993,-27.8685
-315,-629,4.00928,28.3462,-0.000322881,0.000808151,0.00165333,0.00199001,-0.00150474,0.950184,0.00202417,0.0150907,909,1653,4.00925,-28.3461
-308,-629,3.99817,28.8105,-3.99498e-05,0.00113486,0.00154984,0.00220487,-0.00110996,0.966539,0.00194831,0.0123331,916,1653,3.99815,-28.8106
-301,-629,4.01129,29.274,0.000294188,0.00141959,0.00151354,0.00247164,-0.000757869,0.963369,0.00195011,0.0117611,923,1653,4.01128,-29.274
-294,-629,3.99188,29.7275,0.000656893,0.00170819,0.00153459,0.00280466,-0.000439579,0.950402,0.00203221,0.0129836,930,1653,3.99187,-29.7276
-287,-629,3.96161,30.1627,0.00111143,0.00222216,0.00170783,0.00346266,-0.000129068,0.942599,0.00235264,0.0100406,937,1653,3.96162,-30.1628
-280,-629,3.9397,30.6077,0.00151087,0.00265624,0.00179261,0.00396542,0.000201693,0.940009,0.00257901,0.00960903,944,1653,3.93971,-30.6077
-273,-629,3.93542,31.0208,0.00191586,0.00309659,0.00191886,0.00451385,0.000498601,0.934636,0.00285757,0.0127078,951,1653,3.93542,-31.0207
-266,-629,3.93256,31.4623,0.00238276,0.00380034,0.0021393,0.00534521,0.00083789,0.945366,0.00331961,0.0131047,958,1653,3.93258,-31.4623
-259,-629,3.91718,31.9244,0.00297911,0.0046587,0.00249779,0.0064541,0.00118371,0.947569,0.00396746,0.0143295,965,1653,3.91719,-31.9245
-252,-629,3.91809,32.3179,0.00363434,0.00567162,0.00282252,0.00765369,0.00165227,0.958574,0.00465059,0.0111286,972,1653,3.91811,-32.3178
-245,-629,3.94128,32.7212,0.00433697,0.00670688,0.00315117,0.00888853,0.00215532,0.965238,0.00535387,0.00842502,979,1653,3.94127,-32.7212
-238,-629,3.93884,33.1385,0.00513714,0.00752041,0.00344932,0.00997813,0.00267942,0.951714,0.0059631,0.0110841,986,1653,3.93884,-33.1385
-231,-629,3.9104,33.552,0.00658757,0.00852903,0.00367175,0.0113562,0.00376039,0.91463,0.00667999,0.017088,993,1653,3.91041,-33.552
-224,-629,4.03192,34.1034,0.00844552,0.00875423,0.00463139,0.0132338,0.00396591,0.802056,0.00784229,0.02249,1000,1653,4.03194,-34.1033
-217,-629,3.98535,34.4133,0.0101685,0.00862704,0.00672747,0.0161692,0.00262628,0.728366,0.0100195,0.0372801,1007,1653,3.98536,-34.4133
-210,-629,3.83057,35.2228,0,0,0,0,0,0,0,-1,1014,1653,3.83059,-35.2227
-203,-629,3.92273,36.0021,0,0,0,0,0,0,0,-1,1021,1653,3.92271,-36.0021
-196,-629,4.42236,35.7819,0,0,0,0,0,0,0,-1,1028,1653,4.4224,-35.7818
-189,-629,4.37341,35.9139,0,0,0,0,0,0,0,-1,1035,1653,4.37336,-35.914
-182,-629,4.52661,36.7207,0,0,0,0,0,0,0,-1,1042,1653,4.52663,-36.7208
-175,-629,6.19971,36.3433,0,0,0,0,0,0,0,-1,1049,1653,6.19973,-36.3432
-168,-629,5.79529,36.8744,0,0,0,0,0,0,0,-1,1056,1653,5.79526,-36.8744
-161,-629,5.46863,37.6244,0.00769081,0.00432207,0.0404365,0.046478,-0.0344651,0.764583,0.0469038,0.0482876,1063,1653,5.46869,-37.6244
-154,-629,5.02527,38.2836,0,0,0,0,0,0,0,-1,1070,1653,5.02523,-38.2836
-147,-629,4.88269,39.0728,0,0,0,0,0,0,0,-1,1077,1653,4.88272,-39.0728
-140,-629,2.34851,19.2911,0,0,0,0,0,0,0,-1,1084,1653,2.34853,-19.2911
-133,-629,3.41248,17.6686,0,0,0,0,0,0,0,-1,1091,1653,3.41243,-17.6686
-126,-629,4.01025,19.5328,0,0,0,0,0,0,0,-1,1098,1653,4.01022,-19.5328
-119,-629,4.94177,13.5525,0,0,0,0,0,0,0,-1,1105,1653,4.94172,-13.5525
-112,-629,5.63123,15.9187,0,0,0,0,0,0,0,-1,1112,1653,5.63118,-15.9187
-105,-629,2.15881,4.38342,0,0,0,0,0,0,0,-1,1119,1653,2.15878,-4.38347
-98,-629,0.825806,4.19385,0,0,0,0,0,0,0,-1,1126,1653,0.825779,-4.1939
-91,-629,-0.452271,3.64465,0,0,0,0,0,0,0,-1,1133,1653,-0.452278,-3.6446
-84,-629,-2.6084,0.466797,0,0,0,0,0,0,0,-1,1140,1653,-2.6084,-0.466786
-77,-629,-3.50903,2.10706,0,0,0,0,0,0,0,-1,1147,1653,-3.509,-2.10707
-70,-629,-1.20886,2.52502,0,0,0,0,0,0,0,-1,1154,1653,-1.20886,-2.525
-63,-629,-0.960693,4.30212,0,0,0,0,0,0,0,-1,1161,1653,-0.960691,-4.30215
-56,-629,-1.31934,5.64343,0,0,0,0,0,0,0,-1,1168,1653,-1.31928,-5.6434
-49,-629,-2.15662,2.57458,0,0,0,0,0,0,0,-1,1175,1653,-2.15656,-2.57459
-42,-629,-2.46326,3.91467,0,0,0,0,0,0,0,-1,1182,1653,-2.4633,-3.91466
-35,-629,-2.67261,5.24292,0,0,0,0,0,0,0,-1,1189,1653,-2.67257,-5.24298
-28,-629,-0.402954,-0.866577,0,0,0,0,0,0,0,-1,1196,1653,-0.402943,0.866612
-21,-629,3.45508,27.0596,0,0,0,0,0,0,0,-1,1203,1653,3.45508,-27.0596
-14,-629,12.2919,36.3945,0,0,0,0,0,0,0,-1,1210,1653,12.2919,-36.3945
-7,-629,12.7693,36.6455,0,0,0,0,0,0,0,-1,1217,1653,12.7693,-36.6455
0,-629,13.3784,37.0087,-0.104138,-0.311306,0.0500183,-0.0926943,-0.32275,0.224928,0.191883,0.049601,1224,1653,13.3784,-37.0087
7,-629,13.7965,37.323,0,0,0,0,0,0,0,-1,1231,1653,13.7965,-37.3229
14,-629,14.0154,37.7078,0.0105736,-0.166851,0.122907,0.0734396,-0.229717,0.4728,0.182615,0.0446891,1238,1653,14.0154,-37.7077
21,-629,14.3647,38.382,0.0312864,-0.11995,0.128966,0.105168,-0.193832,0.520239,0.17514,0.0471974,1245,1653,14.3647,-38.3819
28,-629,14.5997,39.2023,0.0378938,-0.0840531,0.122671,0.113909,-0.160068,0.554756,0.158927,0.0458774,1252,1653,14.5998,-39.2023
35,-629,14.8331,40.1481,0.0335427,-0.0585276,0.105749,0.102842,-0.127827,0.580106,0.133437,0.0464344,1259,1653,14.8332,-40.1481
42,-629,14.9611,40.9778,0,0,0,0,0,0,0,-1,1266,1653,14.9611,-40.9777
49,-629,8.64868,53.9243,0.00594633,-0.0356717,0.043365,0.0332365,-0.0629619,0.561696,0.0564171,0.0490173,1273,1653,8.64871,-53.9244
56,-629,7.68872,53.4523,-0.0079422,-0.0338348,0.00711577,-0.00611552,-0.0356614,0.251283,0.0220207,0.0463587,1280,1653,7.68877,-53.4523
63,-629,6.90198,51.9752,-0.015869,-0.0376914,-0.0298726,0.00502279,-0.0585832,-0.610297,0.0408328,0.046787,1287,1653,6.90202,-51.9753
70,-629,6.14441,50.9061,-0.0158209,-0.0368888,-0.0611093,0.0356557,-0.0883654,-0.700047,0.0737277,0.0465366,1294,1653,6.14443,-50.9062
77,-629,5.47681,49.6195,-0.00135051,-0.0329981,-0.085685,0.0699596,-0.104308,-0.69409,0.101263,0.0464894,1301,1653,5.47678,-49.6195
84,-629,4.74377,48.3534,0,0,0,0,0,0,0,-1,1308,1653,4.74373,-48.3534
91,-629,8.26477,47.1097,0,0,0,0,0,0,0,-1,1315,1653,8.26472,-47.1098
98,-629,8.96155,45.3226,0,0,0,0,0,0,0,-1,1322,1653,8.96159,-45.3226
105,-629,9.32275,44.6342,0,0,0,0,0,0,0,-1,1329,1653,9.32273,-44.6342
112,-629,10.5275,42.4442,0,0,0,0,0,0,0,-1,1336,1653,10.5275,-42.4443
119,-629,3.93115,54.6182,0,0,0,0,0,0,0,-1,1343,1653,3.9311,-54.6182
126,-629,12.1523,38.3334,0,0,0,0,0,0,0,-1,1350,1653,12.1524,-38.3334
133,-629,12.9724,35.8926,0,0,0,0,0,0,0,-1,1357,1653,12.9724,-35.8926
140,-629,14.1333,32.8633,0,0,0,0,0,0,0,-1,1364,1653,14.1333,-32.8633
147,-629,15.1364,29.2756,0,0,0,0,0,0,0,-1,1371,1653,15.1363,-29.2756
154,-629,23.1279,41.8068,0,0,0,0,0,0,0,-1,1378,1653,23.1279,-41.8068
161,-629,10.5461,6.83752,0,0,0,0,0,0,0,-1,1385,1653,10.5461,-6.83758
168,-629,12.0059,5.56348,0,0,0,0,0,0,0,-1,1392,1653,12.0059,-5.56352
175,-629,5.84485,-1.78845,0,0,0,0,0,0,0,-1,1399,1653,5.84479,1.7884
182,-629,5.99036,-1.27783,0,0,0,0,0,0,0,-1,1406,1653,5.99041,1.27778
189,-629,5.97668,-0.748535,0,0,0,0,0,0,0,-1,1413,1653,5.97671,0.748544
196,-629,4.52869,9.24695,0,0,0,0,0,0,0,-1,1420,1653,4.52869,-9.2469
203,-629,3.75085,6.88037,0,0,0,0,0,0,0,-1,1427,1653,3.75087,-6.88032
210,-629,3.5907,6.52637,0,0,0,0,0,0,0,-1,1434,1653,3.59067,-6.52642
217,-629,2.4585,4.84448,0,0,0,0,0,0,0,-1,1441,1653,2.45855,-4.84448
224,-629,1.31982,3.68481,0,0,0,0,0,0,0,-1,1448,1653,1.31986,-3.68487
231,-629,3.63025,1.73499,0,0,0,0,0,0,0,-1,1455,1653,3.6303,-1.735
238,-629,4.26428,2.11255,0,0,0,0,0,0,0,-1,1462,1653,4.26429,-2.11253
245,-629,5.61816,1.95361,0,0,0,0,0,0,0,-1,1469,1653,5.61815,-1.95359
252,-629,7.27136,2.18982,0,0,0,0,0,0,0,-1,1476,1653,7.27131,-2.18985
259,-629,8.67334,2.18628,0,0,0,0,0,0,0,-1,1483,1653,8.6733,-2.18633
266,-629,6.86475,3.72058,0,0,0,0,0,0,0,-1,1490,1653,6.86479,-3.72063
273,-629,7.9021,3.8717,0,0,0,0,0,0,0,-1,1497,1653,7.90205,-3.87171
280,-629,9.70837,4.39087,0,0,0,0,0,0,0,-1,1504,1653,9.7084,-4.39082
287,-629,9.82947,7.19348,0,0,0,0,0,0,0,-1,1511,1653,9.8295,-7.19347
294,-629,6.56555,11.6359,0,0,0,0,0,0,0,-1,1518,1653,6.5656,-11.6358
301,-629,6.93835,15.6102,0,0,0,0,0,0,0,-1,1525,1653,6.93835,-15.6103
308,-629,6.08264,12.1423,0,0,0,0,0,0,0,-1,1532,1653,6.08263,-12.1423
315,-629,6.82043,18.2764,0,0,0,0,0,0,0,-1,1539,1653,6.82049,-18.2764
322,-629,10.3922,29.9829,0,0,0,0,0,0,0,-1,1546,1653,10.3922,-29.9829
329,-629,12.3787,35.7274,0,0,0,0,0,0,0,-1,1553,1653,12.3787,-35.7274
336,-629,12.5763,35.4464,0,0,0,0,0,0,0,-1,1560,1653,12.5763,-35.4464
343,-629,12.4027,35.448,0.00747812,0.0231897,-0.00605654,0.0252533,0.00541448,-1.2424,0.0153524,0.0483677,1567,1653,12.4027,-35.448
350,-629,12.5553,34.7505,0.00719201,0.0206526,-0.00609274,0.0230007,0.00484384,-1.20294,0.0140013,0.030028,1574,1653,12.5553,-34.7504
357,-629,12.5697,34.2377,0.00639565,0.0177601,-0.00539894,0.019916,0.00423975,-1.19088,0.012114,0.0161278,1581,1653,12.5697,-34.2376
364,-629,12.5197,33.847,0.00540513,0.0155767,-0.00459558,0.0173455,0.00363638,-1.20339,0.0105623,0.0135304,1588,1653,12.5197,-33.8471
371,-629,12.5149,33.4694,0.00451713,0.0134718,-0.00393836,0.0149574,0.00303147,-1.21007,0.00913044,0.011076,1595,1653,12.5149,-33.4694
378,-629,12.5313,33.0658,0.00371648,0.0115303,-0.00333196,0.0127582,0.00248862,-1.21773,0.00780923,0.0102387,1602,1653,12.5312,-33.0658
385,-629,12.5275,32.6829,0.00299686,0.00955176,-0.00281443,0.0105943,0.00195427,-1.21603,0.00651,0.0124007,1609,1653,12.5274,-32.6829
392,-629,12.5045,32.2943,0.00245458,0.00748358,-0.00232708,0.00839516,0.001543,-1.19744,0.00515992,0.0121218,1616,1653,12.5045,-32.2944
399,-629,12.5052,31.908,0.0019689,0.00532472,-0.00175976,0.0060783,0.00121532,-1.16619,0.00371397,0.0128776,1623,1653,12.5052,-31.908
406,-629,12.5067,31.4814,0.00160266,0.00367859,-0.00138094,0.00436816,0.000913096,-1.10767,0.00266049,0.0161749,1630,1653,12.5067,-31.4815
413,-629,12.5092,31.0233,0.00136141,0.00249519,-0.000868177,0.00296517,0.000891432,-1.07463,0.00175672,0.0251602,1637,1653,12.5092,-31.0233
420,-629,12.4835,30.6729,0.00128155,0.00155874,-0.000596675,0.0020327,0.000807583,-0.899515,0.00118181,0.0216397,1644,1653,12.4835,-30.6728
427,-629,12.4851,30.2706,0.00136627,0.000891476,-0.000398878,0.00159305,0.000664696,-0.516971,0.000923938,0.0127099,1651,1653,12.4851,-30.2707
434,-629,12.4792,29.8362,0.00140624,0.000386562,-0.000145842,0.00142669,0.000366113,-0.139307,0.000855612,0.0104891,1658,1653,12.4792,-29.8362
441,-629,12.4596,29.4299,0.00155538,0.000250041,7.7773e-05,0.00156,0.000245424,0.059301,0.000968613,0.0151676,1665,1653,12.4596,-29.4299
448,-629,12.4457,29.0032,0.00168481,0.000212678,0.000368635,0.00177196,0.000125528,0.23215,0.00114177,0.0147221,1672,1653,12.4456,-29.0031
455,-629,12.4197,28.5288,0.00178516,0.0003422,0.000743411,0.00209963,2.77299e-05,0.400184,0.0013906,0.0137807,1679,1653,12.4197,-28.5288
462,-629,12.4196,28.1029,0.00182895,0.000581043,0.00117068,0.00253158,-0.000121585,0.540556,0.00172967,0.0174385,1686,1653,12.4195,-28.1029
469,-629,12.4077,27.6495,0.00179098,0.000577701,0.00161807,0.00291239,-0.000543711,0.60605,0.00214592,0.0224502,1693,1653,12.4077,-27.6495
476,-629,12.5829,27.317,0.00167921,0.00037912,0.00221559,0.00333815,-0.00127982,0.642704,0.00275305,0.0424448,1700,1653,12.5829,-27.317
483,-629,12.3226,26.9084,0,0,0,0,0,0,0,-1,1707,1653,12.3227,-26.9084
490,-629,12.8259,25.8937,0,0,0,0,0,0,0,-1,1714,1653,12.826,-25.8937
497,-629,10.3662,19.8605,0,0,0,0,0,0,0,-1,1721,1653,10.3662,-19.8605
504,-629,7.89453,15.5316,0,0,0,0,0,0,0,-1,1728,1653,7.89447,-15.5316
511,-629,6.29138,3.40295,0,0,0,0,0,0,0,-1,1735,1653,6.29137,-3.403
518,-629,5.84387,1.41858,0,0,0,0,0,0,0,-1,1742,1653,5.84391,-1.4186
525,-629,6.4729,1.02319,0,0,0,0,0,0,0,-1,1749,1653,6.47284,-1.02316
532,-629,6.86511,0.903687,0,0,0,0,0,0,0,-1,1756,1653,6.86514,-0.903691
539,-629,6.60803,0.746704,0,0,0,0,0,0,0,-1,1763,1653,6.60809,-0.746691
546,-629,0,0,0,0,0,0,0,0,0,-1,1770,1653,0,0
553,-629,0,0,0,0,0,0,0,0,0,-1,1777,1653,0,0
560,-629,0,0,0,0,0,0,0,0,0,-1,1784,1653,0,0
567,-629,0,0,0,0,0,0,0,0,0,-1,1791,1653,0,0
574,-629,0,0,0,0,0,0,0,0,0,-1,1798,1653,0,0
581,-629,0,0,0,0,0,0,0,0,0,-1,1805,1653,0,0
588,-629,0,0,0,0,0,0,0,0,0,-1,1812,1653,0,0
595,-629,0,0,0,0,0,0,0,0,0,-1,1819,1653,0,0
602,-629,0,0,0,0,0,0,0,0,0,-1,1826,1653,0,0
609,-629,0,0,0,0,0,0,0,0,0,-1,1833,1653,0,0
616,-629,0,0,0,0,0,0,0,0,0,-1,1840,1653,0,0
623,-629,0,0,0,0,0,0,0,0,0,-1,1847,1653,0,0
630,-629,0,0,0,0,0,0,0,0,0,-1,1854,1653,0,0
637,-629,0,0,0,0,0,0,0,0,0,-1,1861,1653,0,0
644,-629,0,0,0,0,0,0,0,0,0,-1,1868,1653,0,0
651,-629,0,0,0,0,0,0,0,0,0,-1,1875,1653,0,0
658,-629,0,0,0,0,0,0,0,0,0,-1,1882,1653,0,0
665,-629,0,0,0,0,0,0,0,0,0,-1,1889,1653,0,0
672,-629,0,0,0,0,0,0,0,0,0,-1,1896,1653,0,0
679,-629,0,0,0,0,0,0,0,0,0,-1,1903,1653,0,0
686,-629,0,0,0,0,0,0,0,0,0,-1,1910,1653,0,0
693,-629,0,0,0,0,0,0,0,0,0,-1,1917,1653,0,0
700,-629,0,0,0,0,0,0,0,0,0,-1,1924,1653,0,0
707,-629,0,0,0,0,0,0,0,0,0,-1,1931,1653,0,0
714,-629,0,0,0,0,0,0,0,0,0,-1,1938,1653,0,0
721,-629,0,0,0,0,0,0,0,0,0,-1,1945,1653,0,0
728,-629,0,0,0,0,0,0,0,0,0,-1,1952,1653,0,0
735,-629,0,0,0,0,0,0,0,0,0,-1,1959,1653,0,0
742,-629,0,0,0,0,0,0,0,0,0,-1,1966,1653,0,0
749,-629,0,0,0,0,0,0,0,0,0,-1,1973,1653,0,0
756,-629,0,0,0,0,0,0,0,0,0,-1,1980,1653,0,0
763,-629,0,0,0,0,0,0,0,0,0,-1,1987,1653,0,0
770,-629,0,0,0,0,0,0,0,0,0,-1,1994,1653,0,0
777,-629,0,0,0,0,0,0,0,0,0,-1,2001,1653,0,0
784,-629,0,0,0,0,0,0,0,0,0,-1,2008,1653,0,0
791,-629,0,0,0,0,0,0,0,0,0,-1,2015,1653,0,0
798,-629,0,0,0,0,0,0,0,0,0,-1,2022,1653,0,0
805,-629,0,0,0,0,0,0,0,0,0,-1,2029,1653,0,0
812,-629,0,0,0,0,0,0,0,0,0,-1,2036,1653,0,0
-700,-636,0,0,0,0,0,0,0,0,0,-1,524,1660,0,0
-693,-636,0,0,0,0,0,0,0,0,0,-1,531,1660,0,0
-686,-636,0,0,0,0,0,0,0,0,0,-1,538,1660,0,0
-679,-636,0,0,0,0,0,0,0,0,0,-1,545,1660,0,0
-672,-636,0,0,0,0,0,0,0,0,0,-1,552,1660,0,0
-665,-636,0,0,0,0,0,0,0,0,0,-1,559,1660,0,0
-658,-636,0,0,0,0,0,0,0,0,0,-1,566,1660,0,0
-651,-636,0,0,0,0,0,0,0,0,0,-1,573,1660,0,0
-644,-636,0,0,0,0,0,0,0,0,0,-1,580,1660,0,0
-637,-636,0,0,0,0,0,0,0,0,0,-1,587,1660,0,0
-630,-636,0,0,0,0,0,0,0,0,0,-1,594,1660,0,0
-623,-636,0,0,0,0,0,0,0,0,0,-1,601,1660,0,0
-616,-636,0,0,0,0,0,0,0,0,0,-1,608,1660,0,0
-609,-636,0,0,0,0,0,0,0,0,0,-1,615,1660,0,0
-602,-636,0,0,0,0,0,0,0,0,0,-1,622,1660,0,0
-595,-636,0,0,0,0,0,0,0,0,0,-1,629,1660,0,0
-588,-636,0,0,0,0,0,0,0,0,0,-1,636,1660,0,0
-581,-636,0,0,0,0,0,0,0,0,0,-1,643,1660,0,0
-574,-636,0,0,0,0,0,0,0,0,0,-1,650,1660,0,0
-567,-636,0,0,0,0,0,0,0,0,0,-1,657,1660,0,0
-560,-636,0,0,0,0,0,0,0,0,0,-1,664,1660,0,0
-553,-636,0,0,0,0,0,0,0,0,0,-1,671,1660,0,0
-546,-636,0,0,0,0,0,0,0,0,0,-1,678,1660,0,0
-539,-636,0,0,0,0,0,0,0,0,0,-1,685,1660,0,0
-532,-636,0,0,0,0,0,0,0,0,0,-1,692,1660,0,0
-525,-636,0,0,0,0,0,0,0,0,0,-1,699,1660,0,0
-518,-636,0,0,0,0,0,0,0,0,0,-1,706,1660,0,0
-511,-636,0,0,0,0,0,0,0,0,0,-1,713,1660,0,0
-504,-636,0,0,0,0,0,0,0,0,0,-1,720,1660,0,0
-497,-636,0,0,0,0,0,0,0,0,0,-1,727,1660,0,0
-490,-636,0,0,0,0,0,0,0,0,0,-1,734,1660,0,0
-483,-636,0,0,0,0,0,0,0,0,0,-1,741,1660,0,0
-476,-636,0,0,0,0,0,0,0,0,0,-1,748,1660,0,0
-469,-636,0,0,0,0,0,0,0,0,0,-1,755,1660,0,0
-462,-636,0,0,0,0,0,0,0,0,0,-1,762,1660,0,0
-455,-636,0,0,0,0,0,0,0,0,0,-1,769,1660,0,0
-448,-636,0,0,0,0,0,0,0,0,0,-1,776,1660,0,0
-441,-636,0,0,0,0,0,0,0,0,0,-1,783,1660,0,0
-434,-636,0,0,0,0,0,0,0,0,0,-1,790,1660,0,0
-427,-636,0,0,0,0,0,0,0,0,0,-1,797,1660,0,0
-420,-636,0,0,0,0,0,0,0,0,0,-1,804,1660,0,0
-413,-636,0,0,0,0,0,0,0,0,0,-1,811,1660,0,0
-406,-636,-0.591125,10.6943,0,0,0,0,0,0,0,-1,818,1660,-0.59115,-10.6943
-399,-636,0.0766602,11.2408,0,0,0,0,0,0,0,-1,825,1660,0.076685,-11.2409
-392,-636,0.75946,11.9233,0,0,0,0,0,0,0,-1,832,1660,0.759481,-11.9233
-385,-636,1.68878,12.517,0,0,0,0,0,0,0,-1,839,1660,1.6888,-12.5169
-378,-636,2.22107,13.0013,0,0,0,0,0,0,0,-1,846,1660,2.22107,-13.0014
-371,-636,2.52185,11.9684,0,0,0,0,0,0,0,-1,853,1660,2.52184,-11.9684
-364,-636,4.51947,14.8503,0,0,0,0,0,0,0,-1,860,1660,4.51949,-14.8504
-357,-636,4.55682,15.8809,0,0,0,0,0,0,0,-1,867,1660,4.55681,-15.8808
-350,-636,4.94958,26.7037,0,0,0,0,0,0,0,-1,874,1660,4.94956,-26.7037
-343,-636,4.92938,26.821,-0.00335442,-0.00220183,0.00132203,-0.00133594,-0.00422031,0.990939,0.00249066,0.0478168,881,1660,4.92935,-26.8211
-336,-636,4.5022,26.9697,-0.00218458,-0.000699549,0.00192105,0.000617485,-0.00350162,0.969813,0.00256513,0.0347981,888,1660,4.5022,-26.9697
-329,-636,4.5188,27.412,-0.00139353,0.000276794,0.00214227,0.00174094,-0.00285768,0.971261,0.00268099,0.0199511,895,1660,4.51881,-27.412
-322,-636,4.51501,27.8879,-0.000891704,0.000969844,0.00224267,0.00246722,-0.00238908,0.982096,0.00280391,0.0122385,902,1660,4.51502,-27.888
-315,-636,4.46661,28.3545,-0.000617984,0.00116265,0.00219905,0.00264477,-0.00210011,0.977745,0.00274547,0.0124053,909,1660,4.46663,-28.3545
-308,-636,4.46204,28.8274,-0.000443244,0.00127113,0.00194721,0.00254148,-0.00171359,0.992741,0.00247212,0.0106937,916,1660,4.46202,-28.8273
-301,-636,4.46747,29.2897,-0.000244464,0.00128422,0.00171144,0.00239425,-0.00135449,0.995413,0.00219191,0.0114112,923,1660,4.46748,-29.2896
-294,-636,4.43481,29.7604,-1.31078e-05,0.00128753,0.00149617,0.0022686,-0.00099418,0.990409,0.00193107,0.0149793,930,1660,4.43484,-29.7604
-287,-636,4.40302,30.1943,0.000359763,0.00158166,0.00148724,0.00257854,-0.000637123,0.980286,0.00196612,0.0129427,937,1660,4.403,-30.1943
-280,-636,4.37543,30.6342,0.000645569,0.00176323,0.00136966,0.00268368,-0.000274876,0.979094,0.00188743,0.0119535,944,1660,4.37541,-30.6341
-273,-636,4.36847,31.0389,0.000925656,0.00196945,0.0013026,0.00285082,4.4296e-05,0.975936,0.00188595,0.0122187,951,1660,4.36848,-31.0389
-266,-636,4.38208,31.469,0.00129379,0.00246877,0.00135543,0.00335856,0.000404004,0.989893,0.00211726,0.0130567,958,1660,4.38206,-31.469
-259,-636,4.38123,31.927,0.00181622,0.00311897,0.00159325,0.00418886,0.000746339,0.979447,0.00258003,0.0144169,965,1660,4.38123,-31.927
-252,-636,4.35712,32.3308,0.00240374,0.00387797,0.00179812,0.0050842,0.00119751,0.97992,0.00306918,0.0114205,972,1660,4.35712,-32.3308
-245,-636,4.36078,32.7578,0.00303161,0.00470207,0.00203651,0.00606797,0.0016657,0.980002,0.00362016,0.0102771,979,1660,4.36076,-32.7578
-238,-636,4.37488,33.171,0.00373909,0.00538779,0.00232447,0.00702976,0.00209712,0.9558,0.00416724,0.0115871,986,1660,4.37485,-33.171
-231,-636,4.37787,33.5659,0.00497592,0.00620244,0.00258142,0.00824244,0.00293591,0.90202,0.00482394,0.0110908,993,1660,4.37786,-33.5659
-224,-636,4.39185,33.9561,0.00650211,0.00637933,0.00341656,0.00985783,0.00302361,0.776415,0.00583144,0.0100942,1000,1660,4.39185,-33.9561
-217,-636,4.37628,34.4052,0.00790141,0.00631062,0.00508196,0.0122498,0.00196219,0.707771,0.00759744,0.0189112,1007,1660,4.37628,-34.4052
-210,-636,4.36389,34.8096,0.00837096,0.00639631,0.00733568,0.0147855,-1.81859e-05,0.718504,0.00986304,0.0327605,1014,1660,4.36386,-34.8096
-203,-636,4.33008,35.2969,0.00923659,0.0062243,0.00927804,0.0171299,-0.00166905,0.704933,0.012015,0.0377505,1021,1660,4.33006,-35.2968
-196,-636,4.53552,35.5511,0.0101652,0.00582415,0.0117961,0.0199888,-0.00399948,0.694415,0.0148398,0.0368609,1028,1660,4.53557,-35.5511
-189,-636,4.57739,35.8368,0.0109482,0.00514181,0.0148886,0.023214,-0.00712398,0.689109,0.0183184,0.0329653,1035,1660,4.57733,-35.8368
-182,-636,4.73962,36.427,0.0112881,0.00469779,0.0185465,0.0268299,-0.010844,0.697481,0.0223943,0.0473602,1042,1660,4.73957,-36.427
-175,-636,5.68811,36.4106,0.010817,0.00449333,0.0224562,0.0303328,-0.0150225,0.715458,0.0266786,0.047884,1049,1660,5.68808,-36.4106
-168,-636,5.83801,36.8046,0.00966601,0.00476132,0.0264096,0.0337369,-0.0193096,0.739102,0.0310017,0.0480888,1056,1660,5.83803,-36.8046
-161,-636,5.65271,37.6073,0.00781498,0.00501702,0.0298422,0.036291,-0.023459,0.761976,0.0347609,0.0475913,1063,1660,5.65269,-37.6073
-154,-636,5.21509,37.4647,0,0,0,0,0,0,0,-1,1070,1660,5.2151,-37.4647
-147,-636,4.32129,31.4845,0,0,0,0,0,0,0,-1,1077,1660,4.32127,-31.4845
-140,-636,3.4729,27.1271,0,0,0,0,0,0,0,-1,1084,1660,3.47287,-27.1271
-133,-636,4.68311,18.0922,0,0,0,0,0,0,0,-1,1091,1660,4.68316,-18.0921
-126,-636,3.79028,18.2225,0,0,0,0,0,0,0,-1,1098,1660,3.79025,-18.2226
-119,-636,1.8667,13.8916,0,0,0,0,0,0,0,-1,1105,1660,1.86668,-13.8916
-112,-636,-1.24963,9.7998,0,0,0,0,0,0,0,-1,1112,1660,-1.24968,-9.79978
-105,-636,3.51624,4.72791,0,0,0,0,0,0,0,-1,1119,1660,3.51618,-4.7279
-98,-636,1.54504,5.11914,0,0,0,0,0,0,0,-1,1126,1660,1.54503,-5.11912
-91,-636,-1.87964,-2.25012,0,0,0,0,0,0,0,-1,1133,1660,-1.87966,2.25016
-84,-636,-2.84143,0.133667,0,0,0,0,0,0,0,-1,1140,1660,-2.84144,-0.133701
-77,-636,-3.57349,2.45935,0,0,0,0,0,0,0,-1,1147,1660,-3.57345,-2.45939
-70,-636,-4.23682,4.82312,0,0,0,0,0,0,0,-1,1154,1660,-4.23681,-4.82307
-63,-636,-2.21033,6.97168,0,0,0,0,0,0,0,-1,1161,1660,-2.21034,-6.97165
-56,-636,-2.51917,8.80359,0,0,0,0,0,0,0,-1,1168,1660,-2.51916,-8.80361
-49,-636,-3.13,10.4113,0,0,0,0,0,0,0,-1,1175,1660,-3.12996,-10.4112
-42,-636,-2.27771,4.90173,0,0,0,0,0,0,0,-1,1182,1660,-2.27775,-4.90173
-35,-636,-2.27698,5.89685,0,0,0,0,0,0,0,-1,1189,1660,-2.27695,-5.89686
-28,-636,-1.70654,4.83936,0,0,0,0,0,0,0,-1,1196,1660,-1.70656,-4.8393
-21,-636,4.24683,27.7834,0,0,0,0,0,0,0,-1,1203,1660,4.24687,-27.7835
-14,-636,5.19275,48.7339,0,0,0,0,0,0,0,-1,1210,1660,5.19279,-48.7339
-7,-636,12.4868,37.6984,0,0,0,0,0,0,0,-1,1217,1660,12.4869,-37.6984
0,-636,12.8815,37.9866,0,0,0,0,0,0,0,-1,1224,1660,12.8815,-37.9865
7,-636,13.2902,38.3324,0,0,0,0,0,0,0,-1,1231,1660,13.2902,-38.3324
14,-636,13.1025,38.7584,0.0660518,-0.110594,0.13567,0.139616,-0.184158,0.496855,0.187519,0.0437103,1238,1660,13.1025,-38.7584
21,-636,13.4108,39.4482,0.091974,-0.0628993,0.141929,0.176217,-0.147142,0.535669,0.186943,0.0431806,1245,1660,13.4108,-39.4483
28,-636,13.7864,40.6979,0.103414,-0.0269476,0.135896,0.188952,-0.112486,0.561785,0.175892,0.0425129,1252,1660,13.7863,-40.6978
35,-636,14.4988,42.1182,0.1028,-0.00257347,0.118823,0.180093,-0.0798666,0.57672,0.153761,0.0449902,1259,1660,14.4988,-42.1181
42,-636,15.1996,43.5067,0,0,0,0,0,0,0,-1,1266,1660,15.1996,-43.5067
49,-636,8.73584,54.1151,0.0746114,0.0125679,0.0568112,0.108319,-0.0211395,0.535495,0.0801932,0.0489244,1273,1660,8.73585,-54.1151
56,-636,7.95117,53.2227,0.0573189,0.00901851,0.020218,0.0646648,0.00167266,0.348502,0.0425633,0.0448071,1280,1660,7.95115,-53.2226
63,-636,7.15967,52.3253,0.0439034,0.00086037,-0.0153497,0.0488165,-0.00405273,-0.309773,0.0339759,0.0433019,1287,1660,7.15961,-52.3253
70,-636,6.39001,51.4044,0.0385646,-0.00238404,-0.0454772,0.0679638,-0.0317833,-0.573884,0.0588383,0.048403,1294,1660,6.39003,-51.4044
77,-636,5.62695,50.3981,0.0436694,-0.00260882,-0.0710159,0.0952208,-0.0541603,-0.627907,0.0873245,0.0485474,1301,1660,5.62691,-50.3981
84,-636,7.38867,48.662,0,0,0,0,0,0,0,-1,1308,1660,7.38868,-48.6619
91,-636,8.11426,46.8796,0.0685255,0.00989105,-0.112819,0.155774,-0.0773573,-0.658279,0.137113,0.0424791,1315,1660,8.11421,-46.8796
98,-636,9.1416,44.5514,0,0,0,0,0,0,0,-1,1322,1660,9.14164,-44.5514
105,-636,9.32227,44.2502,0.110474,0.00218902,-0.133974,0.200833,-0.0881691,-0.593368,0.171029,0.0482351,1329,1660,9.32226,-44.2502
112,-636,10.5193,41.9893,0.133413,0.00873705,-0.137298,0.221863,-0.0797125,-0.572297,0.180447,0.0497006,1336,1660,10.5193,-41.9893
119,-636,10.6638,40.7723,0,0,0,0,0,0,0,-1,1343,1660,10.6639,-40.7724
126,-636,11.3889,38.1597,0.164419,0.0152171,-0.136795,0.245633,-0.065997,-0.535767,0.189622,0.0471499,1350,1660,11.389,-38.1597
133,-636,12.2289,35.3461,0,0,0,0,0,0,0,-1,1357,1660,12.2289,-35.3461
140,-636,12.9968,32.4377,0,0,0,0,0,0,0,-1,1364,1660,12.9968,-32.4377
147,-636,13.7838,29.5248,0,0,0,0,0,0,0,-1,1371,1660,13.7838,-29.5248
154,-636,6.76599,36.4695,0,0,0,0,0,0,0,-1,1378,1660,6.76605,-36.4694
161,-636,10.2961,7.13025,0,0,0,0,0,0,0,-1,1385,1660,10.2961,-7.13021
168,-636,11.7659,5.83899,0,0,0,0,0,0,0,-1,1392,1660,11.7658,-5.83899
175,-636,5.94592,-1.72888,0,0,0,0,0,0,0,-1,1399,1660,5.94598,1.72886
182,-636,5.93994,-1.11938,0,0,0,0,0,0,0,-1,1406,1660,5.93998,1.11936
189,-636,5.32544,11.9595,0,0,0,0,0,0,0,-1,1413,1660,5.32542,-11.9595
196,-636,5.3623,9.38025,0,0,0,0,0,0,0,-1,1420,1660,5.36225,-9.38027
203,-636,5.18542,9.02429,0,0,0,0,0,0,0,-1,1427,1660,5.18547,-9.0243
210,-636,4.09167,7.17041,0,0,0,0,0,0,0,-1,1434,1660,4.09173,-7.17041
217,-636,2.94897,5.28992,0,0,0,0,0,0,0,-1,1441,1660,2.94899,-5.28991
224,-636,1.49194,3.63916,0,0,0,0,0,0,0,-1,1448,1660,1.49197,-3.63918
231,-636,0.17749,2.24854,0,0,0,0,0,0,0,-1,1455,1660,0.177501,-2.24855
238,-636,-0.764648,1.00598,0,0,0,0,0,0,0,-1,1462,1660,-0.764704,-1.00595
245,-636,6.21204,1.18005,0,0,0,0,0,0,0,-1,1469,1660,6.21206,-1.18001
252,-636,7.70251,0.865723,0,0,0,0,0,0,0,-1,1476,1660,7.7025,-0.865692
259,-636,9.03601,0.787231,0,0,0,0,0,0,0,-1,1483,1660,9.03598,-0.787243
266,-636,10.1071,3.24109,0,0,0,0,0,0,0,-1,1490,1660,10.1071,-3.24103
273,-636,8.48535,5.02466,0,0,0,0,0,0,0,-1,1497,1660,8.48533,-5.02472
280,-636,11.908,32.0698,0,0,0,0,0,0,0,-1,1504,1660,11.9079,-32.0698
287,-636,12.1218,36.4158,0,0,0,0,0,0,0,-1,1511,1660,12.1218,-36.4158
294,-636,12.3768,37.6733,0,0,0,0,0,0,0,-1,1518,1660,12.3769,-37.6733
301,-636,11.9055,38.3481,0,0,0,0,0,0,0,-1,1525,1660,11.9055,-38.3481
308,-636,11.778,37.4471,0,0,0,0,0,0,0,-1,1532,1660,11.778,-37.4472
315,-636,11.9663,36.8523,0,0,0,0,0,0,0,-1,1539,1660,11.9663,-36.8523
322,-636,11.9537,35.8759,0,0,0,0,0,0,0,-1,1546,1660,11.9537,-35.8759
329,-636,12.0597,35.5946,0.00559961,0.0202448,-0.00291092,0.0208022,0.00504224,-1.38161,0.0125303,0.0343024,1553,1660,12.0597,-35.5946
336,-636,12.1263,35.3239,0.00579779,0.0186563,-0.00345646,0.0195265,0.00492756,-1.32415,0.0117255,0.0241399,1560,1660,12.1264,-35.3239
343,-636,12.0844,35.051,0.00567943,0.0169231,-0.00409961,0.0182591,0.00434341,-1.25576,0.0110142,0.021758,1567,1660,12.0844,-35.0511
350,-636,12.0742,34.6326,0.0054802,0.0150541,-0.00429438,0.0166981,0.00383625,-1.20519,0.0100992,0.0133485,1574,1660,12.0742,-34.6326
357,-636,12.1089,34.2122,0.00493074,0.012813,-0.00386409,0.0143913,0.00335248,-1.18303,0.00869486,0.0104657,1581,1660,12.1089,-34.2121
364,-636,12.1154,33.8339,0.00418468,0.0111437,-0.00329792,0.0124583,0.0028701,-1.19149,0.00753331,0.0104725,1588,1660,12.1154,-33.8339
371,-636,12.1218,33.4723,0.00350174,0.00949449,-0.00284589,0.0106306,0.00236563,-1.19097,0.0064449,0.00930636,1595,1660,12.1218,-33.4723
378,-636,12.1476,33.0903,0.00291304,0.00792339,-0.00243255,0.00891009,0.00192634,-1.18545,0.00541342,0.00939872,1602,1660,12.1476,-33.0903
385,-636,12.1351,32.7,0.00240823,0.00626608,-0.00205593,0.00715631,0.00151801,-1.16217,0.00435399,0.0149036,1609,1660,12.1352,-32.6999
392,-636,12.1107,32.2974,0.00207559,0.00444414,-0.00170307,0.00533422,0.0011855,-1.08921,0.00323423,0.0176931,1616,1660,12.1107,-32.2974
399,-636,12.1162,31.9178,0.00175096,0.00254925,-0.00127597,0.00348705,0.000813158,-0.936986,0.00210663,0.0136502,1623,1660,12.1162,-31.9179
406,-636,12.1362,31.5227,0.001503,0.00112726,-0.00100287,0.00233544,0.000294815,-0.692805,0.00146859,0.0150942,1630,1660,12.1362,-31.5227
413,-636,12.1252,31.1041,0.00140313,0.000350059,-0.000521874,0.00161794,0.000135249,-0.390476,0.00103649,0.0229556,1637,1660,12.1252,-31.1041
420,-636,12.0774,30.7091,0.00143732,-0.000299028,-0.000292759,0.00148536,-0.00034706,-0.162619,0.00112393,0.0219412,1644,1660,12.0773,-30.7091
427,-636,12.0741,30.2916,0.00163345,-0.000690969,-0.000103225,0.00163802,-0.000695545,-0.0442929,0.00138343,0.013032,1651,1660,12.0741,-30.2916
434,-636,12.0581,29.8506,0.00180193,-0.000777703,0.000150059,0.00181063,-0.000786403,0.0579104,0.00153777,0.0117532,1658,1660,12.0581,-29.8505
441,-636,12.0392,29.4207,0.0020582,-0.000431844,0.000391417,0.00211828,-0.000491923,0.152301,0.00160155,0.0130142,1665,1660,12.0392,-29.4207
448,-636,12.0751,29.0353,0.0022875,5.87577e-05,0.000739455,0.00251052,-0.000164263,0.292925,0.00173104,0.0155021,1672,1660,12.0751,-29.0353
455,-636,12.0131,28.5973,0.00250881,0.000823382,0.00127274,0.00319255,0.000139648,0.492972,0.00208338,0.0152725,1679,1660,12.013,-28.5973
462,-636,11.9923,28.1272,0.00269191,0.00183287,0.00186222,0.0041735,0.000351278,0.672055,0.00267295,0.0203815,1686,1660,11.9923,-28.1272
469,-636,11.9974,27.6388,0.00281414,0.00251362,0.0025294,0.00519774,0.000130021,0.755729,0.00342264,0.0334207,1693,1660,11.9974,-27.6388
476,-636,12.2107,27.4149,0,0,0,0,0,0,0,-1,1700,1660,12.2107,-27.4149
483,-636,11.3833,24.3958,0,0,0,0,0,0,0,-1,1707,1660,11.3833,-24.3957
490,-636,10.8951,23.9569,0,0,0,0,0,0,0,-1,1714,1660,10.8951,-23.9569
497,-636,9.55579,18.0111,0,0,0,0,0,0,0,-1,1721,1660,9.55574,-18.0111
504,-636,6.26428,19.4268,0,0,0,0,0,0,0,-1,1728,1660,6.26433,-19.4268
511,-636,5.65466,9.23218,0,0,0,0,0,0,0,-1,1735,1660,5.65461,-9.23216
518,-636,6.72791,1.07605,0,0,0,0,0,0,0,-1,1742,1660,6.7279,-1.0761
525,-636,7.04309,0.93335,0,0,0,0,0,0,0,-1,1749,1660,7.04308,-0.933298
532,-636,0,0,0,0,0,0,0,0,0,-1,1756,1660,0,0
539,-636,0,0,0,0,0,0,0,0,0,-1,1763,1660,0,0
546,-636,0,0,0,0,0,0,0,0,0,-1,1770,1660,0,0
553,-636,0,0,0,0,0,0,0,0,0,-1,1777,1660,0,0
560,-636,0,0,0,0,0,0,0,0,0,-1,1784,1660,0,0
567,-636,0,0,0,0,0,0,0,0,0,-1,1791,1660,0,0
574,-636,0,0,0,0,0,0,0,0,0,-1,1798,1660,0,0
581,-636,0,0,0,0,0,0,0,0,0,-1,1805,1660,0,0
588,-636,0,0,0,0,0,0,0,0,0,-1,1812,1660,0,0
595,-636,0,0,0,0,0,0,0,0,0,-1,1819,1660,0,0
602,-636,0,0,0,0,0,0,0,0,0,-1,1826,1660,0,0
609,-636,0,0,0,0,0,0,0,0,0,-1,1833,1660,0,0
616,-636,0,0,0,0,0,0,0,0,0,-1,1840,1660,0,0
623,-636,0,0,0,0,0,0,0,0,0,-1,1847,1660,0,0
630,-636,0,0,0,0,0,0,0,0,0,-1,1854,1660,0,0
637,-636,0,0,0,0,0,0,0,0,0,-1,1861,1660,0,0
644,-636,0,0,0,0,0,0,0,0,0,-1,1868,1660,0,0
651,-636,0,0,0,0,0,0,0,0,0,-1,1875,1660,0,0
658,-636,0,0,0,0,0,0,0,0,0,-1,1882,1660,0,0
665,-636,0,0,0,0,0,0,0,0,0,-1,1889,1660,0,0
672,-636,0,0,0,0,0,0,0,0,0,-1,1896,1660,0,0
679,-636,0,0,0,0,0,0,0,0,0,-1,1903,1660,0,0
686,-636,0,0,0,0,0,0,0,0,0,-1,1910,1660,0,0
693,-636,0,0,0,0,0,0,0,0,0,-1,1917,1660,0,0
700,-636,0,0,0,0,0,0,0,0,0,-1,1924,1660,0,0
707,-636,0,0,0,0,0,0,0,0,0,-1,1931,1660,0,0
714,-636,0,0,0,0,0,0,0,0,0,-1,1938,1660,0,0
721,-636,0,0,0,0,0,0,0,0,0,-1,1945,1660,0,0
728,-636,0,0,0,0,0,0,0,0,0,-1,1952,1660,0,0
735,-636,0,0,0,0,0,0,0,0,0,-1,1959,1660,0,0
742,-636,0,0,0,0,0,0,0,0,0,-1,1966,1660,0,0
749,-636,0,0,0,0,0,0,0,0,0,-1,1973,1660,0,0
756,-636,0,0,0,0,0,0,0,0,0,-1,1980,1660,0,0
763,-636,0,0,0,0,0,0,0,0,0,-1,1987,1660,0,0
770,-636,0,0,0,0,0,0,0,0,0,-1,1994,1660,0,0
777,-636,0,0,0,0,0,0,0,0,0,-1,2001,1660,0,0
784,-636,0,0,0,0,0,0,0,0,0,-1,2008,1660,0,0
791,-636,0,0,0,0,0,0,0,0,0,-1,2015,1660,0,0
798,-636,0,0,0,0,0,0,0,0,0,-1,2022,1660,0,0
805,-636,0,0,0,0,0,0,0,0,0,-1,2029,1660,0,0
812,-636,0,0,0,0,0,0,0,0,0,-1,2036,1660,0,0
-700,-643,0,0,0,0,0,0,0,0,0,-1,524,1667,0,0
-693,-643,0,0,0,0,0,0,0,0,0,-1,531,1667,0,0
-686,-643,0,0,0,0,0,0,0,0,0,-1,538,1667,0,0
-679,-643,0,0,0,0,0,0,0,0,0,-1,545,1667,0,0
-672,-643,0,0,0,0,0,0,0,0,0,-1,552,1667,0,0
-665,-643,0,0,0,0,0,0,0,0,0,-1,559,1667,0,0
-658,-643,0,0,0,0,0,0,0,0,0,-1,566,1667,0,0
-651,-643,0,0,0,0,0,0,0,0,0,-1,573,1667,0,0
-644,-643,0,0,0,0,0,0,0,0,0,-1,580,1667,0,0
-637,-643,0,0,0,0,0,0,0,0,0,-1,587,1667,0,0
-630,-643,0,0,0,0,0,0,0,0,0,-1,594,1667,0,0
-623,-643,0,0,0,0,0,0,0,0,0,-1,601,1667,0,0
-616,-643,0,0,0,0,0,0,0,0,0,-1,608,1667,0,0
-609,-643,0,0,0,0,0,0,0,0,0,-1,615,1667,0,0
-602,-643,0,0,0,0,0,0,0,0,0,-1,622,1667,0,0
-595,-643,0,0,0,0,0,0,0,0,0,-1,629,1667,0,0
-588,-643,0,0,0,0,0,0,0,0,0,-1,636,1667,0,0
-581,-643,0,0,0,0,0,0,0,0,0,-1,643,1667,0,0
-574,-643,0,0,0,0,0,0,0,0,0,-1,650,1667,0,0
-567,-643,0,0,0,0,0,0,0,0,0,-1,657,1667,0,0
-560,-643,0,0,0,0,0,0,0,0,0,-1,664,1667,0,0
-553,-643,0,0,0,0,0,0,0,0,0,-1,671,1667,0,0
-546,-643,0,0,0,0,0,0,0,0,0,-1,678,1667,0,0
-539,-643,0,0,0,0,0,0,0,0,0,-1,685,1667,0,0
-532,-643,0,0,0,0,0,0,0,0,0,-1,692,1667,0,0
-525,-643,0,0,0,0,0,0,0,0,0,-1,699,1667,0,0
-518,-643,0,0,0,0,0,0,0,0,0,-1,706,1667,0,0
-511,-643,0,0,0,0,0,0,0,0,0,-1,713,1667,0,0
-504,-643,0,0,0,0,0,0,0,0,0,-1,720,1667,0,0
-497,-643,0,0,0,0,0,0,0,0,0,-1,727,1667,0,0
-490,-643,0,0,0,0,0,0,0,0,0,-1,734,1667,0,0
-483,-643,0,0,0,0,0,0,0,0,0,-1,741,1667,0,0
-476,-643,0,0,0,0,0,0,0,0,0,-1,748,1667,0,0
-469,-643,0,0,0,0,0,0,0,0,0,-1,755,1667,0,0
-462,-643,0,0,0,0,0,0,0,0,0,-1,762,1667,0,0
-455,-643,0,0,0,0,0,0,0,0,0,-1,769,1667,0,0
-448,-643,0,0,0,0,0,0,0,0,0,-1,776,1667,0,0
-441,-643,0,0,0,0,0,0,0,0,0,-1,783,1667,0,0
-434,-643,0,0,0,0,0,0,0,0,0,-1,790,1667,0,0
-427,-643,0,0,0,0,0,0,0,0,0,-1,797,1667,0,0
-420,-643,0,0,0,0,0,0,0,0,0,-1,804,1667,0,0
-413,-643,0,0,0,0,0,0,0,0,0,-1,811,1667,0,0
-406,-643,0,0,0,0,0,0,0,0,0,-1,818,1667,0,0
-399,-643,0.589417,11.6465,0,0,0,0,0,0,0,-1,825,1667,0.58939,-11.6465
-392,-643,0.865295,12.6523,0,0,0,0,0,0,0,-1,832,1667,0.865315,-12.6523
-385,-643,1.72968,13.2692,0,0,0,0,0,0,0,-1,839,1667,1.72967,-13.2692
-378,-643,2.66522,13.8193,0,0,0,0,0,0,0,-1,846,1667,2.66524,-13.8193
-371,-643,0.466125,3.35095,0,0,0,0,0,0,0,-1,853,1667,0.466148,-3.351
-364,-643,1.69513,9.922,0,0,0,0,0,0,0,-1,860,1667,1.69511,-9.92205
-357,-643,1.14227,10.8429,0,0,0,0,0,0,0,-1,867,1667,1.14228,-10.8429
-350,-643,2.50061,9.96948,0,0,0,0,0,0,0,-1,874,1667,2.50059,-9.96954
-343,-643,5.84943,26.8813,0,0,0,0,0,0,0,-1,881,1667,5.84944,-26.8813
-336,-643,4.94775,27.0396,0,0,0,0,0,0,0,-1,888,1667,4.94778,-27.0395
-329,-643,4.88965,27.2272,-0.00134714,0.00143215,0.00325328,0.00358015,-0.00349514,0.987244,0.00408502,0.0434645,895,1667,4.88962,-27.2271
-322,-643,4.99377,27.9097,-0.000900799,0.00199952,0.00325555,0.00411329,-0.00301457,0.994926,0.00413154,0.0282433,902,1667,4.99377,-27.9097
-315,-643,4.90857,28.3872,-0.00076569,0.00191458,0.00305226,0.00390794,-0.00275906,0.992259,0.0038682,0.0178809,909,1667,4.90858,-28.3873
-308,-643,4.91046,28.8291,-0.000739385,0.00172469,0.00258349,0.00335488,-0.00236957,1.00789,0.00332129,0.0122387,916,1667,4.91045,-28.8291
-301,-643,4.92499,29.3019,-0.000714357,0.00139172,0.0020824,0.00267219,-0.00199483,1.01949,0.00270395,0.0133714,923,1667,4.925,-29.3018
-294,-643,4.90002,29.7573,-0.00064666,0.00108815,0.00152176,0.00197235,-0.00153087,1.04443,0.00202793,0.0128636,930,1667,4.90001,-29.7573
-287,-643,4.86682,30.1917,-0.000412855,0.00118548,0.00124767,0.00186798,-0.00109536,1.07024,0.00173016,0.0110805,937,1667,4.86681,-30.1916
-280,-643,4.8316,30.6366,-0.000301312,0.00113952,0.000885931,0.00156098,-0.000722768,1.12676,0.0013478,0.0142101,944,1667,4.83161,-30.6366
-273,-643,4.80341,31.0731,-0.000172969,0.00116399,0.00060036,0.00139401,-0.000402986,1.20492,0.00108882,0.0120086,951,1667,4.80341,-31.0731
-266,-643,4.81238,31.4834,8.62115e-05,0.00151968,0.000480916,0.00166608,-6.01809e-05,1.2753,0.00113131,0.0111074,958,1667,4.81239,-31.4834
-259,-643,4.80988,31.92,0.000533868,0.00201287,0.000598642,0.00222481,0.000321932,1.23054,0.00138839,0.0109598,965,1667,4.80986,-31.92
-252,-643,4.76978,32.3557,0.00106927,0.00256172,0.000701174,0.00283945,0.000791537,1.19365,0.00169201,0.012215,972,1667,4.76976,-32.3557
-245,-643,4.7594,32.7803,0.00166018,0.00323502,0.0008969,0.00364111,0.00125409,1.14564,0.00213584,0.0111296,979,1667,4.75937,-32.7803
-238,-643,4.79791,33.187,0.00234281,0.00382403,0.00122264,0.00451288,0.00165396,1.05771,0.00263629,0.0151647,986,1667,4.79788,-33.1871
-231,-643,4.7829,33.5845,0.00346027,0.00445993,0.00156271,0.00560079,0.0023194,0.940181,0.00324948,0.0111963,993,1667,4.78287,-33.5845
-224,-643,4.77545,33.9469,0.00479605,0.00457594,0.00234037,0.00702895,0.00234304,0.761902,0.00413263,0.00969751,1000,1667,4.77545,-33.9469
-217,-643,4.77014,34.2971,0.00602229,0.00451987,0.003704,0.00905049,0.00149167,0.685349,0.00560302,0.00925866,1007,1667,4.77014,-34.2972
-210,-643,4.7641,34.7278,0.00660976,0.0046728,0.00544136,0.0111682,0.00011441,0.697328,0.00740759,0.012653,1014,1667,4.76411,-34.7277
-203,-643,4.76685,35.2023,0.00741,0.00457191,0.00690215,0.0130375,-0.00105556,0.684014,0.00906401,0.0179348,1021,1667,4.76686,-35.2022
-196,-643,4.78113,35.5507,0.00823542,0.00438009,0.00878104,0.0152979,-0.00268238,0.677349,0.0112003,0.0172409,1028,1667,4.78111,-35.5507
-189,-643,4.88672,35.8519,0.00892007,0.0040857,0.0110103,0.0177754,-0.00476967,0.677343,0.0137194,0.0161116,1035,1667,4.88674,-35.8519
-182,-643,4.9668,36.2483,0.00924276,0.00407672,0.0135801,0.0204833,-0.0071638,0.691417,0.016568,0.0224026,1042,1667,4.96685,-36.2483
-175,-643,5.06592,36.7081,0.00902062,0.00412786,0.0163573,0.0231135,-0.009965,0.711169,0.0195943,0.0327706,1049,1667,5.06595,-36.7082
-168,-643,5.0824,37.0038,0.00837705,0.00456609,0.0191635,0.0257295,-0.0127864,0.735844,0.0226518,0.0411226,1056,1667,5.08234,-37.0038
-161,-643,5.4657,37.4327,0.00730223,0.00502438,0.0216173,0.0278106,-0.015484,0.75908,0.0253316,0.0416395,1063,1667,5.46571,-37.4327
-154,-643,5.22766,37.4741,0.00568025,0.00580613,0.0235041,0.0292473,-0.017761,0.786737,0.027409,0.0477783,1070,1667,5.22763,-37.4741
-147,-643,5.21069,37.7993,0,0,0,0,0,0,0,-1,1077,1667,5.21068,-37.7994
-140,-643,4.30322,22.9166,0,0,0,0,0,0,0,-1,1084,1667,4.30327,-22.9167
-133,-643,3.66748,21.6034,0,0,0,0,0,0,0,-1,1091,1667,3.66743,-21.6034
-126,-643,3.13904,17.689,0,0,0,0,0,0,0,-1,1098,1667,3.13909,-17.689
-119,-643,3.76282,14.1458,0,0,0,0,0,0,0,-1,1105,1667,3.76283,-14.1458
-112,-643,3.81458,16.2069,0,0,0,0,0,0,0,-1,1112,1667,3.81463,-16.2069
-105,-643,-2.23413,10.0996,0,0,0,0,0,0,0,-1,1119,1667,-2.23415,-10.0996
-98,-643,3.11035,4.68066,0,0,0,0,0,0,0,-1,1126,1667,3.11041,-4.68071
-91,-643,-1.74146,-2.5885,0,0,0,0,0,0,0,-1,1133,1667,-1.74146,2.58856
-84,-643,-3.07446,-0.199341,0,0,0,0,0,0,0,-1,1140,1667,-3.07449,0.199383
-77,-643,-3.63794,2.81165,0,0,0,0,0,0,0,-1,1147,1667,-3.63791,-2.8117
-70,-643,-3.36938,4.45203,0,0,0,0,0,0,0,-1,1154,1667,-3.36941,-4.452
-63,-643,-3.67822,6.26855,0,0,0,0,0,0,0,-1,1161,1667,-3.67823,-6.26856
-56,-643,-3.95142,8.1073,0,0,0,0,0,0,0,-1,1168,1667,-3.95139,-8.10732
-49,-643,-4.23535,9.90552,0,0,0,0,0,0,0,-1,1175,1667,-4.23537,-9.90557
-42,-643,-4.25195,10.7059,0,0,0,0,0,0,0,-1,1182,1667,-4.25192,-10.706
-35,-643,-4.10986,11.6588,0,0,0,0,0,0,0,-1,1189,1667,-4.10982,-11.6589
-28,-643,-1.38513,5.604,0,0,0,0,0,0,0,-1,1196,1667,-1.3851,-5.60403
-21,-643,1.61011,23.1276,0,0,0,0,0,0,0,-1,1203,1667,1.61011,-23.1275
-14,-643,10.924,38.108,0,0,0,0,0,0,0,-1,1210,1667,10.924,-38.108
-7,-643,11.7236,38.5604,0,0,0,0,0,0,0,-1,1217,1667,11.7236,-38.5604
0,-643,12.3721,39.1001,0,0,0,0,0,0,0,-1,1224,1667,12.3721,-39.1001
7,-643,12.9565,39.6429,0,0,0,0,0,0,0,-1,1231,1667,12.9565,-39.643
14,-643,12.9548,40.0215,0.104772,-0.0577989,0.137262,0.183012,-0.136039,0.51807,0.184868,0.0411418,1238,1667,12.9548,-40.0215
21,-643,12.5706,40.3745,0.130809,-0.0138452,0.142085,0.217916,-0.100953,0.549972,0.188182,0.0430108,1245,1667,12.5706,-40.3746
28,-643,12.7435,41.3954,0,0,0,0,0,0,0,-1,1252,1667,12.7436,-41.3954
35,-643,12.03,42.2485,0.143304,0.0391475,0.119077,0.221193,-0.0387414,0.579256,0.161928,0.0422187,1259,1667,12.03,-42.2486
42,-643,9.26868,56.0326,0.133738,0.0483901,0.0936772,0.194003,-0.0118752,0.571672,0.13347,0.0486613,1266,1667,9.26865,-56.0326
49,-643,8.51941,54.921,0.113889,0.0465255,0.0612699,0.150125,0.0102898,0.53408,0.0968359,0.0469443,1273,1667,8.51941,-54.921
56,-643,7.87329,53.8878,0.0944243,0.0391496,0.0272026,0.105566,0.0280081,0.388736,0.0631468,0.0430307,1280,1667,7.87324,-53.8879
63,-643,7.28625,52.8601,0.0773847,0.0282764,-0.00550681,0.0779947,0.0276665,-0.110311,0.0456594,0.04369,1287,1667,7.28624,-52.8601
70,-643,7.39844,51.5714,0,0,0,0,0,0,0,-1,1294,1667,7.39849,-51.5714
77,-643,6.73499,49.9489,0,0,0,0,0,0,0,-1,1301,1667,6.73503,-49.9488
84,-643,7.34241,48.3301,0.0640678,0.0131556,-0.0808535,0.123378,-0.0461545,-0.63289,0.101208,0.0485471,1308,1667,7.34245,-48.3301
91,-643,8.0282,46.6429,0.0632456,0.0147533,-0.102184,0.14402,-0.0660213,-0.668912,0.124023,0.045015,1315,1667,8.02816,-46.6429
98,-643,8.74353,45.3243,0,0,0,0,0,0,0,-1,1322,1667,8.74357,-45.3244
105,-643,9.45093,43.6992,0.089836,0.0065897,-0.121973,0.177092,-0.0806667,-0.62097,0.152249,0.0470986,1329,1667,9.45094,-43.6992
112,-643,10.2245,42.1687,0.108273,0.0131712,-0.123459,0.193022,-0.0715779,-0.601577,0.158039,0.0473204,1336,1667,10.2245,-42.1687
119,-643,10.25,40.0995,0.122303,0.0168062,-0.123004,0.203391,-0.0642825,-0.582841,0.161348,0.0468451,1343,1667,10.25,-40.0994
126,-643,10.7054,37.9341,0.131964,0.0161511,-0.120337,0.207603,-0.0594871,-0.561149,0.161915,0.0431257,1350,1667,10.7054,-37.9341
133,-643,10.9614,35.8829,0,0,0,0,0,0,0,-1,1357,1667,10.9614,-35.8829
140,-643,12.1646,31.7607,0,0,0,0,0,0,0,-1,1364,1667,12.1645,-31.7608
147,-643,13.1505,28.8105,0,0,0,0,0,0,0,-1,1371,1667,13.1505,-28.8105
154,-643,14.4928,26.0706,0,0,0,0,0,0,0,-1,1378,1667,14.4928,-26.0705
161,-643,5.57935,26.2754,0,0,0,0,0,0,0,-1,1385,1667,5.57931,-26.2754
168,-643,10.5563,10.9818,0,0,0,0,0,0,0,-1,1392,1667,10.5562,-10.9819
175,-643,5.88525,-1.1698,0,0,0,0,0,0,0,-1,1399,1667,5.88526,1.16977
182,-643,5.80945,-0.418701,0,0,0,0,0,0,0,-1,1406,1667,5.80949,0.418712
189,-643,5.42297,12.9208,0,0,0,0,0,0,0,-1,1413,1667,5.42298,-12.9208
196,-643,5.51953,11.2415,0,0,0,0,0,0,0,-1,1420,1667,5.51948,-11.2414
203,-643,5.60828,9.82153,0,0,0,0,0,0,0,-1,1427,1667,5.60833,-9.82148
210,-643,4.73218,7.58728,0,0,0,0,0,0,0,-1,1434,1667,4.73222,-7.58728
217,-643,3.8031,5.28955,0,0,0,0,0,0,0,-1,1441,1667,3.80305,-5.28955
224,-643,2.96436,2.97095,0,0,0,0,0,0,0,-1,1448,1667,2.96432,-2.97095
231,-643,2.13403,1.08472,0,0,0,0,0,0,0,-1,1455,1667,2.13403,-1.08467
238,-643,1.18152,-0.261963,0,0,0,0,0,0,0,-1,1462,1667,1.18152,0.26192
245,-643,-0.157471,-1.79016,0,0,0,0,0,0,0,-1,1469,1667,-0.157517,1.7901
252,-643,8.08789,0.0202637,0,0,0,0,0,0,0,-1,1476,1667,8.08791,-0.0203056
259,-643,9.02979,-0.46936,0,0,0,0,0,0,0,-1,1483,1667,9.02974,0.46933
266,-643,4.55066,5.17554,0,0,0,0,0,0,0,-1,1490,1667,4.55063,-5.17556
273,-643,10.74,31.432,0,0,0,0,0,0,0,-1,1497,1667,10.7399,-31.4319
280,-643,10.9984,37.0768,0,0,0,0,0,0,0,-1,1504,1667,10.9984,-37.0768
287,-643,11.7153,37.7107,0,0,0,0,0,0,0,-1,1511,1667,11.7154,-37.7106
294,-643,11.8358,37.6332,0.000325787,0.0234286,0.00452128,0.024282,-0.000527521,1.38426,0.0163666,0.0478663,1518,1667,11.8358,-37.6332
301,-643,11.584,37.755,0.00153396,0.0214167,0.00286493,0.0218213,0.00112938,1.43051,0.0141861,0.0443683,1525,1667,11.584,-37.755
308,-643,11.5388,36.9811,0.0026749,0.0197768,0.00109754,0.0198469,0.00260476,1.50697,0.0124541,0.0467051,1532,1667,11.5388,-36.981
315,-643,11.631,36.504,0.00348112,0.0179396,-0.000179194,0.0179418,0.0034789,-1.55841,0.0109868,0.0381018,1539,1667,11.631,-36.5041
322,-643,11.6914,35.9359,0.00397556,0.0159967,-0.00107534,0.0160922,0.00388012,-1.48228,0.00969705,0.0242357,1546,1667,11.6914,-35.9359
329,-643,11.7258,35.6034,0.00431293,0.0145605,-0.00179839,0.014867,0.00400648,-1.40202,0.0088823,0.016,1553,1667,11.7258,-35.6033
336,-643,11.6798,35.3402,0.00437805,0.0133358,-0.00221704,0.0138545,0.00385937,-1.34098,0.00825624,0.0127409,1560,1667,11.6798,-35.3402
343,-643,11.7001,35.0116,0.00422962,0.0120464,-0.00273785,0.0129099,0.00336607,-1.26526,0.00773278,0.0136069,1567,1667,11.7001,-35.0116
350,-643,11.7363,34.601,0.0041307,0.0106084,-0.00300939,0.0117907,0.00294839,-1.19645,0.00708518,0.0125165,1574,1667,11.7363,-34.6009
357,-643,11.7191,34.2188,0.00379472,0.00880773,-0.00273627,0.010012,0.00259046,-1.1562,0.00600055,0.010769,1581,1667,11.7191,-34.2187
364,-643,11.7303,33.8411,0.00327219,0.0074952,-0.00232239,0.00852248,0.00224491,-1.15433,0.00510076,0.00937763,1588,1667,11.7303,-33.841
371,-643,11.7427,33.4917,0.00278037,0.00616364,-0.00200501,0.00709531,0.0018487,-1.13581,0.00425018,0.00760807,1595,1667,11.7426,-33.4918
378,-643,11.7411,33.1249,0.00235387,0.00482897,-0.00170657,0.00569947,0.00148336,-1.09911,0.00341435,0.00925962,1602,1667,11.741,-33.1249
385,-643,11.7284,32.7267,0.00200851,0.00339028,-0.00141497,0.00427402,0.00112477,-1.01251,0.00255822,0.0151874,1609,1667,11.7284,-32.7266
392,-643,11.7161,32.3298,0.00183753,0.00173615,-0.00116647,0.00295441,0.000619272,-0.763683,0.00179907,0.0172142,1616,1667,11.716,-32.3298
399,-643,11.7131,31.9581,0.00163609,6.14673e-05,-0.000859564,0.00201441,-0.000316859,-0.414622,0.00146007,0.0148054,1623,1667,11.7131,-31.9581
406,-643,11.7444,31.5349,0.0014702,-0.00119204,-0.000680148,0.00163389,-0.00135574,-0.236189,0.00172855,0.0130344,1630,1667,11.7444,-31.535
413,-643,11.7372,31.1218,0.00148845,-0.00162095,-0.000223704,0.00150446,-0.00163696,-0.0714542,0.00181424,0.0186891,1637,1667,11.7371,-31.1218
420,-643,11.689,30.7332,0.00162151,-0.00202498,-3.41511e-05,0.00162183,-0.0020253,-0.00936438,0.00210996,0.0178953,1644,1667,11.689,-30.7332
427,-643,11.6758,30.3125,0.00193309,-0.002164,0.000158682,0.00193923,-0.00217013,0.0386532,0.00237379,0.0141185,1651,1667,11.6757,-30.3125
434,-643,11.655,29.8723,0.00226935,-0.00180759,0.00044229,0.00231678,-0.00185502,0.10683,0.00241351,0.0148055,1658,1667,11.655,-29.8724
441,-643,11.6346,29.4296,0.00271865,-0.000951476,0.000754935,0.00286787,-0.0011007,0.195145,0.00236576,0.0159558,1665,1667,11.6347,-29.4296
448,-643,11.6066,29.0326,0.00316795,0.000125288,0.00124385,0.00361172,-0.000318477,0.342692,0.00252069,0.0223021,1672,1667,11.6065,-29.0326
455,-643,11.5042,28.4988,0.00369075,0.0015462,0.00204233,0.00492518,0.000311776,0.543665,0.00318462,0.0301883,1679,1667,11.5041,-28.4987
462,-643,11.3258,27.8639,0.00421568,0.00346321,0.00297165,0.00683482,0.000844066,0.722429,0.00430288,0.0398402,1686,1667,11.3258,-27.8638
469,-643,11.5762,27.6512,0,0,0,0,0,0,0,-1,1693,1667,11.5762,-27.6512
476,-643,10.5598,24.5066,0,0,0,0,0,0,0,-1,1700,1667,10.5598,-24.5065
483,-643,10.4502,24.3062,0,0,0,0,0,0,0,-1,1707,1667,10.4502,-24.3062
490,-643,10.6885,24.1522,0,0,0,0,0,0,0,-1,1714,1667,10.6884,-24.1522
497,-643,10.9073,23.9465,0,0,0,0,0,0,0,-1,1721,1667,10.9074,-23.9465
504,-643,8.05591,19.0656,0,0,0,0,0,0,0,-1,1728,1667,8.0559,-19.0655
511,-643,7.74719,18.1564,0,0,0,0,0,0,0,-1,1735,1667,7.74724,-18.1563
518,-643,7.40564,0.922607,0,0,0,0,0,0,0,-1,1742,1667,7.4057,-0.922598
525,-643,0,0,0,0,0,0,0,0,0,-1,1749,1667,0,0
532,-643,0,0,0,0,0,0,0,0,0,-1,1756,1667,0,0
539,-643,0,0,0,0,0,0,0,0,0,-1,1763,1667,0,0
546,-643,0,0,0,0,0,0,0,0,0,-1,1770,1667,0,0
553,-643,0,0,0,0,0,0,0,0,0,-1,1777,1667,0,0
560,-643,0,0,0,0,0,0,0,0,0,-1,1784,1667,0,0
567,-643,0,0,0,0,0,0,0,0,0,-1,1791,1667,0,0
574,-643,0,0,0,0,0,0,0,0,0,-1,1798,1667,0,0
581,-643,0,0,0,0,0,0,0,0,0,-1,1805,1667,0,0
588,-643,0,0,0,0,0,0,0,0,0,-1,1812,1667,0,0
595,-643,0,0,0,0,0,0,0,0,0,-1,1819,1667,0,0
602,-643,0,0,0,0,0,0,0,0,0,-1,1826,1667,0,0
609,-643,0,0,0,0,0,0,0,0,0,-1,1833,1667,0,0
616,-643,0,0,0,0,0,0,0,0,0,-1,1840,1667,0,0
623,-643,0,0,0,0,0,0,0,0,0,-1,1847,1667,0,0
630,-643,0,0,0,0,0,0,0,0,0,-1,1854,1667,0,0
637,-643,0,0,0,0,0,0,0,0,0,-1,1861,1667,0,0
644,-643,0,0,0,0,0,0,0,0,0,-1,1868,1667,0,0
651,-643,0,0,0,0,0,0,0,0,0,-1,1875,1667,0,0
658,-643,0,0,0,0,0,0,0,0,0,-1,1882,1667,0,0
665,-643,0,0,0,0,0,0,0,0,0,-1,1889,1667,0,0
672,-643,0,0,0,0,0,0,0,0,0,-1,1896,1667,0,0
679,-643,0,0,0,0,0,0,0,0,0,-1,1903,1667,0,0
686,-643,0,0,0,0,0,0,0,0,0,-1,1910,1667,0,0
693,-643,0,0,0,0,0,0,0,0,0,-1,1917,1667,0,0
700,-643,0,0,0,0,0,0,0,0,0,-1,1924,1667,0,0
707,-643,0,0,0,0,0,0,0,0,0,-1,1931,1667,0,0
714,-643,0,0,0,0,0,0,0,0,0,-1,1938,1667,0,0
721,-643,0,0,0,0,0,0,0,0,0,-1,1945,1667,0,0
728,-643,0,0,0,0,0,0,0,0,0,-1,1952,1667,0,0
735,-643,0,0,0,0,0,0,0,0,0,-1,1959,1667,0,0
742,-643,0,0,0,0,0,0,0,0,0,-1,1966,1667,0,0
749,-643,0,0,0,0,0,0,0,0,0,-1,1973,1667,0,0
756,-643,0,0,0,0,0,0,0,0,0,-1,1980,1667,0,0
763,-643,0,0,0,0,0,0,0,0,0,-1,1987,1667,0,0
770,-643,0,0,0,0,0,0,0,0,0,-1,1994,1667,0,0
777,-643,0,0,0,0,0,0,0,0,0,-1,2001,1667,0,0
784,-643,0,0,0,0,0,0,0,0,0,-1,2008,1667,0,0
791,-643,0,0,0,0,0,0,0,0,0,-1,2015,1667,0,0
798,-643,0,0,0,0,0,0,0,0,0,-1,2022,1667,0,0
805,-643,0,0,0,0,0,0,0,0,0,-1,2029,1667,0,0
812,-643,0,0,0,0,0,0,0,0,0,-1,2036,1667,0,0
-700,-650,0,0,0,0,0,0,0,0,0,-1,524,1674,0,0
-693,-650,0,0,0,0,0,0,0,0,0,-1,531,1674,0,0
-686,-650,0,0,0,0,0,0,0,0,0,-1,538,1674,0,0
-679,-650,0,0,0,0,0,0,0,0,0,-1,545,1674,0,0
-672,-650,0,0,0,0,0,0,0,0,0,-1,552,1674,0,0
-665,-650,0,0,0,0,0,0,0,0,0,-1,559,1674,0,0
-658,-650,0,0,0,0,0,0,0,0,0,-1,566,1674,0,0
-651,-650,0,0,0,0,0,0,0,0,0,-1,573,1674,0,0
-644,-650,0,0,0,0,0,0,0,0,0,-1,580,1674,0,0
-637,-650,0,0,0,0,0,0,0,0,0,-1,587,1674,0,0
-630,-650,0,0,0,0,0,0,0,0,0,-1,594,1674,0,0
-623,-650,0,0,0,0,0,0,0,0,0,-1,601,1674,0,0
-616,-650,0,0,0,0,0,0,0,0,0,-1,608,1674,0,0
-609,-650,0,0,0,0,0,0,0,0,0,-1,615,1674,0,0
-602,-650,0,0,0,0,0,0,0,0,0,-1,622,1674,0,0
-595,-650,0,0,0,0,0,0,0,0,0,-1,629,1674,0,0
-588,-650,0,0,0,0,0,0,0,0,0,-1,636,1674,0,0
-581,-650,0,0,0,0,0,0,0,0,0,-1,643,1674,0,0
-574,-650,0,0,0,0,0,0,0,0,0,-1,650,1674,0,0
-567,-650,0,0,0,0,0,0,0,0,0,-1,657,1674,0,0
-560,-650,0,0,0,0,0,0,0,0,0,-1,664,1674,0,0
-553,-650,0,0,0,0,0,0,0,0,0,-1,671,1674,0,0
-546,-650,0,0,0,0,0,0,0,0,0,-1,678,1674,0,0
-539,-650,0,0,0,0,0,0,0,0,0,-1,685,1674,0,0
-532,-650,0,0,0,0,0,0,0,0,0,-1,692,1674,0,0
-525,-650,0,0,0,0,0,0,0,0,0,-1,699,1674,0,0
-518,-650,0,0,0,0,0,0,0,0,0,-1,706,1674,0,0
-511,-650,0,0,0,0,0,0,0,0,0,-1,713,1674,0,0
-504,-650,0,0,0,0,0,0,0,0,0,-1,720,1674,0,0
-497,-650,0,0,0,0,0,0,0,0,0,-1,727,1674,0,0
-490,-650,0,0,0,0,0,0,0,0,0,-1,734,1674,0,0
-483,-650,0,0,0,0,0,0,0,0,0,-1,741,1674,0,0
-476,-650,0,0,0,0,0,0,0,0,0,-1,748,1674,0,0
-469,-650,0,0,0,0,0,0,0,0,0,-1,755,1674,0,0
-462,-650,0,0,0,0,0,0,0,0,0,-1,762,1674,0,0
-455,-650,0,0,0,0,0,0,0,0,0,-1,769,1674,0,0
-448,-650,0,0,0,0,0,0,0,0,0,-1,776,1674,0,0
-441,-650,0,0,0,0,0,0,0,0,0,-1,783,1674,0,0
-434,-650,0,0,0,0,0,0,0,0,0,-1,790,1674,0,0
-427,-650,0,0,0,0,0,0,0,0,0,-1,797,1674,0,0
-420,-650,0,0,0,0,0,0,0,0,0,-1,804,1674,0,0
-413,-650,0,0,0,0,0,0,0,0,0,-1,811,1674,0,0
-406,-650,0,0,0,0,0,0,0,0,0,-1,818,1674,0,0
-399,-650,0,0,0,0,0,0,0,0,0,-1,825,1674,0,0
-392,-650,5.44415,6.85669,0,0,0,0,0,0,0,-1,832,1674,5.44414,-6.85674
-385,-650,1.74451,14.0183,0,0,0,0,0,0,0,-1,839,1674,1.74453,-14.0183
-378,-650,0.997986,4.11108,0,0,0,0,0,0,0,-1,846,1674,0.998006,-4.11113
-371,-650,-1.80096,3.78625,0,0,0,0,0,0,0,-1,853,1674,-1.80094,-3.78625
-364,-650,-2.95679,2.57507,0,0,0,0,0,0,0,-1,860,1674,-2.95681,-2.57506
-357,-650,1.97833,10.8362,0,0,0,0,0,0,0,-1,867,1674,1.97835,-10.8362
-350,-650,-5.30243,0.159912,0,0,0,0,0,0,0,-1,874,1674,-5.30244,-0.159866
-343,-650,-6.21338,-1.4425,0,0,0,0,0,0,0,-1,881,1674,-6.21341,1.44248
-336,-650,4.74084,25.8169,0,0,0,0,0,0,0,-1,888,1674,4.74087,-25.8168
-329,-650,5.25934,27.0553,0,0,0,0,0,0,0,-1,895,1674,5.25931,-27.0553
-322,-650,5.27783,27.7067,-0.000753192,0.00344473,0.00470119,0.00649424,-0.00380271,0.995357,0.00601226,0.0469027,902,1674,5.27781,-27.7067
-315,-650,5.34186,28.3715,-0.000811523,0.00307164,0.00430458,0.00585226,-0.00359214,0.997262,0.00550452,0.0406782,909,1674,5.34189,-28.3715
-308,-650,5.33112,28.7487,-0.000979516,0.00247233,0.00351331,0.00466076,-0.00316795,1.01371,0.00454721,0.0245151,916,1674,5.33113,-28.7486
-301,-650,5.35541,29.3291,-0.00116616,0.00169608,0.00264529,0.00327256,-0.00274265,1.03335,0.00347737,0.0146788,923,1674,5.35541,-29.329
-294,-650,5.31763,29.7686,-0.00129138,0.00101309,0.00166556,0.00188613,-0.00216442,1.088,0.00234043,0.0120167,930,1674,5.31765,-29.7686
-287,-650,5.29578,30.2032,-0.00120968,0.0008534,0.00107197,0.00130954,-0.00166583,1.16849,0.00172193,0.0138003,937,1674,5.29577,-30.2033
-280,-650,5.26459,30.6309,-0.00133985,0.000581831,0.000410418,0.000665815,-0.00142383,1.36895,0.00123263,0.0149827,944,1674,5.26462,-30.6309
-273,-650,5.23798,31.0968,-0.00140433,0.000454845,-0.000107458,0.000461036,-0.00141052,-1.51325,0.00112594,0.0135625,951,1674,5.23799,-31.0968
-266,-650,5.21747,31.5092,-0.00127477,0.000698591,-0.000387927,0.000772111,-0.00134829,-1.3835,0.00123919,0.0107436,958,1674,5.21746,-31.5091
-259,-650,5.19623,31.9327,-0.000918838,0.00107758,-0.000384821,0.00114919,-0.000990446,-1.38682,0.00123645,0.0133701,965,1674,5.19621,-31.9328
-252,-650,5.17169,32.3573,-0.000454346,0.00146833,-0.000385693,0.00154281,-0.000528831,-1.38002,0.0012429,0.0126172,972,1674,5.17168,-32.3573
-245,-650,5.16986,32.7639,8.15363e-05,0.00207977,-0.000236042,0.00210727,5.40323e-05,-1.4548,0.00138719,0.0115607,979,1674,5.16987,-32.7639
-238,-650,5.17334,33.1654,0.000730432,0.00266954,0.000118819,0.00267679,0.000723179,1.50983,0.00159894,0.0129734,986,1674,5.17336,-33.1655
-231,-650,5.14258,33.5861,0.00174931,0.00323719,0.000533127,0.00340849,0.00157801,1.2599,0.00196969,0.0172314,993,1674,5.14256,-33.586
-224,-650,5.1347,33.979,0.0029565,0.00338693,0.00126604,0.00445592,0.00188751,0.86959,0.00258262,0.0146012,1000,1674,5.13468,-33.979
-217,-650,5.16296,34.3315,0.00408837,0.00339571,0.00239765,0.00616457,0.00131951,0.713671,0.00374812,0.0103584,1007,1674,5.16297,-34.3315
-210,-650,5.17957,34.7189,0.00478652,0.00360526,0.00376092,0.00800291,0.000388874,0.707512,0.00521049,0.00997406,1014,1674,5.17956,-34.7188
-203,-650,5.21533,35.1028,0.00555862,0.00355001,0.00489662,0.00955287,-0.000444242,0.68425,0.00652171,0.0151926,1021,1674,5.2153,-35.1028
-196,-650,5.21704,35.4406,0.00632534,0.00345072,0.00632086,0.0113702,-0.00159418,0.673604,0.00816361,0.0144596,1028,1674,5.217,-35.4405
-189,-650,5.198,35.7883,0.0069617,0.00330167,0.00796574,0.0133049,-0.00304156,0.672489,0.0100386,0.0116019,1035,1674,5.19801,-35.7883
-182,-650,5.25317,36.2207,0.00733667,0.00341784,0.00976484,0.0153367,-0.00458223,0.686383,0.012046,0.0104178,1042,1674,5.25323,-36.2207
-175,-650,5.2688,36.5232,0.00731906,0.00359091,0.0116807,0.0172835,-0.00637352,0.706272,0.0141342,0.0158025,1049,1674,5.26877,-36.5232
-168,-650,5.25354,36.8734,0.00700838,0.00411274,0.0136359,0.0192731,-0.00815202,0.732508,0.0162621,0.0202869,1056,1674,5.25359,-36.8734
-161,-650,5.25745,37.2578,0.00643963,0.00465229,0.0153528,0.0209248,-0.00983286,0.756327,0.0181388,0.0277248,1063,1674,5.25748,-37.2579
-154,-650,5.38013,37.5206,0.00558215,0.00543636,0.0166594,0.0221689,-0.0111503,0.78321,0.0195843,0.0345969,1070,1674,5.38009,-37.5206
-147,-650,5.56067,37.8633,0,0,0,0,0,0,0,-1,1077,1674,5.5607,-37.8633
-140,-650,4.9696,36.0964,0,0,0,0,0,0,0,-1,1084,1674,4.96957,-36.0964
-133,-650,4.69751,37.2125,0,0,0,0,0,0,0,-1,1091,1674,4.69756,-37.2125
-126,-650,4.56946,39.0813,0,0,0,0,0,0,0,-1,1098,1674,4.5695,-39.0813
-119,-650,5.16663,20.6232,0,0,0,0,0,0,0,-1,1105,1674,5.16665,-20.6232
-112,-650,3.86292,14.4513,0,0,0,0,0,0,0,-1,1112,1674,3.8629,-14.4513
-105,-650,7.92102,38.1313,0,0,0,0,0,0,0,-1,1119,1674,7.92104,-38.1314
-98,-650,3.3761,6.78003,0,0,0,0,0,0,0,-1,1126,1674,3.37611,-6.78009
-91,-650,3.66809,7.04443,0,0,0,0,0,0,0,-1,1133,1674,3.66806,-7.04439
-84,-650,-3.82666,-1.59521,0,0,0,0,0,0,0,-1,1140,1674,-3.82661,1.59517
-77,-650,-4.70557,1.90198,0,0,0,0,0,0,0,-1,1147,1674,-4.7056,-1.90194
-70,-650,-4.88171,3.81653,0,0,0,0,0,0,0,-1,1154,1674,-4.88176,-3.81651
-63,-650,-5.14612,5.56543,0,0,0,0,0,0,0,-1,1161,1674,-5.14612,-5.56547
-56,-650,-5.38367,7.41101,0,0,0,0,0,0,0,-1,1168,1674,-5.38361,-7.41102
-49,-650,-5.11316,8.23706,0,0,0,0,0,0,0,-1,1175,1674,-5.11317,-8.23708
-42,-650,-4.99487,9.6792,0,0,0,0,0,0,0,-1,1182,1674,-4.99484,-9.67921
-35,-650,-4.77771,11.3369,0,0,0,0,0,0,0,-1,1189,1674,-4.77769,-11.3369
-28,-650,-4.1936,13.1501,0,0,0,0,0,0,0,-1,1196,1674,-4.19358,-13.1501
-21,-650,7.49512,36.2162,0,0,0,0,0,0,0,-1,1203,1674,7.49515,-36.2162
-14,-650,10.1326,40.203,0,0,0,0,0,0,0,-1,1210,1674,10.1326,-40.203
-7,-650,11.0363,40.3809,0,0,0,0,0,0,0,-1,1217,1674,11.0363,-40.3809
0,-650,11.7483,40.217,0,0,0,0,0,0,0,-1,1224,1674,11.7483,-40.2171
7,-650,12.8397,40.6483,0,0,0,0,0,0,0,-1,1231,1674,12.8397,-40.6483
14,-650,12.6021,41.0142,0.125414,-0.0166593,0.130551,0.203003,-0.0942489,0.536236,0.175406,0.0437662,1238,1674,12.602,-41.0142
21,-650,11.6449,41.1144,0.148828,0.0214616,0.133574,0.233123,-0.0628334,0.562955,0.180052,0.0462925,1245,1674,11.6449,-41.1144
28,-650,11.4653,42.068,0.160006,0.0486899,0.127112,0.243111,-0.0344158,0.57904,0.17468,0.0444559,1252,1674,11.4653,-42.0679
35,-650,11.3163,42.9917,0.159551,0.0649985,0.111414,0.233304,-0.00875453,0.584746,0.158535,0.042157,1259,1674,11.3162,-42.9917
42,-650,11.0295,43.8251,0.149257,0.0705308,0.0883106,0.20658,0.0132079,0.575746,0.133536,0.0438338,1266,1674,11.0295,-43.8251
49,-650,8.53149,56.3446,0.129917,0.0662048,0.0597069,0.165734,0.0303872,0.54034,0.101882,0.0429879,1273,1674,8.53154,-56.3446
56,-650,7.98376,55.0438,0.109915,0.056637,0.0294472,0.122985,0.0435674,0.417712,0.0720038,0.0430591,1280,1674,7.98373,-55.0438
63,-650,7.51379,53.6941,0.0913668,0.0444331,0.000460702,0.0913713,0.0444286,0.00981477,0.0527599,0.0438475,1287,1674,7.51374,-53.6941
70,-650,7.28564,52.1676,0.0784328,0.0353042,-0.0249586,0.0898526,0.0238844,-0.429114,0.0537396,0.0485278,1294,1674,7.28564,-52.1676
77,-650,7.54846,50.1787,0.0720873,0.0290808,-0.047693,0.102901,-0.00173247,-0.573611,0.0691851,0.0468041,1301,1674,7.54842,-50.1787
84,-650,7.74719,48.248,0.0640116,0.0227776,-0.0692509,0.115649,-0.0288601,-0.640719,0.0883058,0.0476911,1308,1674,7.74719,-48.2481
91,-650,7.93384,46.5062,0.0554761,0.0165023,-0.0896275,0.127711,-0.0557323,-0.678354,0.108595,0.0471038,1315,1674,7.93386,-46.5063
98,-650,8.49121,45.0491,0.057814,4.63181e-05,-0.103248,0.136142,-0.078282,-0.649009,0.125291,0.0452157,1322,1674,8.49124,-45.049
105,-650,9.23938,43.4702,0.0723523,0.00831899,-0.106996,0.15202,-0.0713483,-0.640023,0.131735,0.0479467,1329,1674,9.23932,-43.4703
112,-650,10.027,41.8813,0.0872233,0.0138356,-0.107428,0.164051,-0.062992,-0.620826,0.135342,0.0452742,1336,1674,10.0269,-41.8813
119,-650,10.5284,40.4683,0.0984449,0.0161888,-0.106517,0.171498,-0.0568646,-0.601157,0.137271,0.0434806,1343,1674,10.5284,-40.4682
126,-650,10.1169,37.8093,0.106474,0.0150116,-0.104317,0.174643,-0.0531582,-0.578822,0.137614,0.0469391,1350,1674,10.1169,-37.8093
133,-650,10.2723,35.6622,0.112742,0.0111514,-0.101669,0.175598,-0.0517051,-0.553729,0.137578,0.0482278,1357,1674,10.2723,-35.6622
140,-650,10.547,33.6836,0,0,0,0,0,0,0,-1,1364,1674,10.547,-33.6835
147,-650,12.4797,28.5083,0,0,0,0,0,0,0,-1,1371,1674,12.4797,-28.5083
154,-650,13.9381,25.8168,0,0,0,0,0,0,0,-1,1378,1674,13.9381,-25.8168
161,-650,4.09106,30.3021,0,0,0,0,0,0,0,-1,1385,1674,4.09104,-30.3021
168,-650,11.2113,7.87231,0,0,0,0,0,0,0,-1,1392,1674,11.2113,-7.87236
175,-650,5.62537,-0.230713,0,0,0,0,0,0,0,-1,1399,1674,5.62538,0.230745
182,-650,5.56006,0.421631,0,0,0,0,0,0,0,-1,1406,1674,5.56,-0.421652
189,-650,4.81543,11.0654,0,0,0,0,0,0,0,-1,1413,1674,4.81542,-11.0654
196,-650,5.39575,11.9077,0,0,0,0,0,0,0,-1,1420,1674,5.39575,-11.9078
203,-650,3.93628,11.8215,0,0,0,0,0,0,0,-1,1427,1674,3.93624,-11.8216
210,-650,5.40955,8.08594,0,0,0,0,0,0,0,-1,1434,1674,5.40958,-8.086
217,-650,5.12451,4.69739,0,0,0,0,0,0,0,-1,1441,1674,5.12451,-4.69738
224,-650,4.79041,1.45813,0,0,0,0,0,0,0,-1,1448,1674,4.79046,-1.45816
231,-650,4.04102,-0.642212,0,0,0,0,0,0,0,-1,1455,1674,4.04101,0.642209
238,-650,3.23022,-1.43396,0,0,0,0,0,0,0,-1,1462,1674,3.23023,1.43394
245,-650,1.65894,-2.55042,0,0,0,0,0,0,0,-1,1469,1674,1.65889,2.55036
252,-650,8.75342,0.355103,0,0,0,0,0,0,0,-1,1476,1674,8.75337,-0.355147
259,-650,5.61255,3.17566,0,0,0,0,0,0,0,-1,1483,1674,5.61257,-3.17572
266,-650,4.00403,6.10229,0,0,0,0,0,0,0,-1,1490,1674,4.00401,-6.10225
273,-650,10.7529,37.1669,0,0,0,0,0,0,0,-1,1497,1674,10.7529,-37.1669
280,-650,11.2954,37.8668,0,0,0,0,0,0,0,-1,1504,1674,11.2954,-37.8669
287,-650,11.364,37.6476,0.000692043,0.0174317,0.00452995,0.018579,-0.000455189,1.32276,0.0125405,0.0432096,1511,1674,11.364,-37.6476
294,-650,11.2799,37.5145,0.0013854,0.0168336,0.00321479,0.0174759,0.000743097,1.3736,0.011411,0.0401664,1518,1674,11.2799,-37.5145
301,-650,11.2483,37.1152,0.00206703,0.0154838,0.00218528,0.0158308,0.00172007,1.41334,0.0100298,0.0323165,1525,1674,11.2483,-37.1152
308,-650,11.2968,36.702,0.002716,0.0141992,0.00102512,0.01429,0.0026252,1.48246,0.00878336,0.0191089,1532,1674,11.2967,-36.702
315,-650,11.3251,36.3613,0.00311576,0.0128628,0.000148598,0.0128651,0.00311349,1.55556,0.00775025,0.015087,1539,1674,11.3251,-36.3614
322,-650,11.3125,36.0231,0.00331717,0.0114807,-0.000500709,0.0115113,0.00328657,-1.50977,0.00684685,0.0129157,1546,1674,11.3126,-36.0231
329,-650,11.3451,35.6533,0.00341508,0.0103724,-0.00106149,0.0105307,0.00325673,-1.42271,0.00622565,0.015977,1553,1674,11.3451,-35.6533
336,-650,11.35,35.3262,0.00335613,0.00941107,-0.00139354,0.0097164,0.00305081,-1.3551,0.00573771,0.0140374,1560,1674,11.35,-35.3261
343,-650,11.3662,34.9807,0.00314571,0.00840368,-0.00182828,0.00897691,0.00257248,-1.26697,0.0053379,0.0139984,1567,1674,11.3663,-34.9807
350,-650,11.3707,34.6039,0.00301313,0.00725106,-0.0021207,0.00812999,0.0021342,-1.17789,0.00486715,0.0161568,1574,1674,11.3708,-34.6038
357,-650,11.3527,34.2273,0.00273662,0.00572406,-0.0019655,0.00669902,0.00176166,-1.11032,0.00400993,0.0131086,1581,1674,11.3527,-34.2272
364,-650,11.3622,33.8583,0.0023151,0.00457344,-0.00167673,0.00546577,0.00142277,-1.08174,0.0032743,0.00866154,1588,1674,11.3622,-33.8583
371,-650,11.3612,33.4899,0.00193365,0.0033825,-0.00145346,0.00428207,0.00103408,-1.01659,0.00258005,0.0102246,1595,1674,11.3612,-33.4899
378,-650,11.337,33.1102,0.00162234,0.00215142,-0.00121963,0.00313487,0.000638882,-0.892195,0.00191285,0.0107828,1602,1674,11.3371,-33.1102
385,-650,11.3293,32.7208,0.00141853,0.000812732,-0.000965738,0.00212776,0.000103505,-0.633435,0.00138529,0.0122995,1609,1674,11.3293,-32.7209
392,-650,11.3182,32.3406,0.00141184,-0.000791336,-0.000771905,0.00165536,-0.00103486,-0.305605,0.00156691,0.0167391,1616,1674,11.3183,-32.3406
399,-650,11.3096,31.973,0.00136969,-0.00234409,-0.000535529,0.00144537,-0.00241978,-0.140391,0.00225506,0.0158412,1623,1674,11.3096,-31.9731
406,-650,11.3214,31.5668,0.00136016,-0.00352246,-0.000390828,0.00139125,-0.00355354,-0.0793712,0.00294446,0.0147404,1630,1674,11.3214,-31.5668
413,-650,11.324,31.1471,0.00159102,-0.00370976,8.25008e-05,0.0015923,-0.00371104,0.0155589,0.00314229,0.0158551,1637,1674,11.324,-31.1471
420,-650,11.288,30.7384,0.00189303,-0.00391261,0.000264451,0.00190505,-0.00392463,0.0454253,0.00343243,0.0165173,1644,1674,11.2879,-30.7384
427,-650,11.2531,30.3262,0.00239688,-0.00383957,0.000500292,0.00243676,-0.00387945,0.0795427,0.00367823,0.0137005,1651,1674,11.253,-30.3262
434,-650,11.2141,29.9138,0.00299686,-0.0030643,0.000861313,0.00311688,-0.00318432,0.138453,0.00363807,0.0153257,1658,1674,11.2141,-29.9138
441,-650,11.1855,29.5155,0.00374864,-0.0016718,0.00129654,0.0040428,-0.00196596,0.223106,0.00353756,0.0266159,1665,1674,11.1855,-29.5155
448,-650,11.2572,29.1619,0.00454381,0.000105619,0.00201154,0.00531982,-0.000670395,0.368189,0.00378983,0.0435651,1672,1674,11.2572,-29.1619
455,-650,10.9906,28.4324,0,0,0,0,0,0,0,-1,1679,1674,10.9906,-28.4323
462,-650,10.2814,27.5104,0.00648183,0.00550458,0.00454621,0.0105656,0.00142081,0.731864,0.00662114,0.0470616,1686,1674,10.2814,-27.5104
469,-650,10.526,27.198,0,0,0,0,0,0,0,-1,1693,1674,10.5261,-27.198
476,-650,10.9189,27.1289,0,0,0,0,0,0,0,-1,1700,1674,10.919,-27.1289
483,-650,10.2426,24.5127,0,0,0,0,0,0,0,-1,1707,1674,10.2425,-24.5127
490,-650,10.4818,24.3475,0,0,0,0,0,0,0,-1,1714,1674,10.4818,-24.3475
497,-650,10.4985,20.1362,0,0,0,0,0,0,0,-1,1721,1674,10.4986,-20.1362
504,-650,9.69458,18.7721,0,0,0,0,0,0,0,-1,1728,1674,9.6946,-18.772
511,-650,9.37158,17.7506,0,0,0,0,0,0,0,-1,1735,1674,9.37159,-17.7506
518,-650,0,0,0,0,0,0,0,0,0,-1,1742,1674,0,0
525,-650,0,0,0,0,0,0,0,0,0,-1,1749,1674,0,0
532,-650,0,0,0,0,0,0,0,0,0,-1,1756,1674,0,0
539,-650,0,0,0,0,0,0,0,0,0,-1,1763,1674,0,0
546,-650,0,0,0,0,0,0,0,0,0,-1,1770,1674,0,0
553,-650,0,0,0,0,0,0,0,0,0,-1,1777,1674,0,0
560,-650,0,0,0,0,0,0,0,0,0,-1,1784,1674,0,0
567,-650,0,0,0,0,0,0,0,0,0,-1,1791,1674,0,0
574,-650,0,0,0,0,0,0,0,0,0,-1,1798,1674,0,0
581,-650,0,0,0,0,0,0,0,0,0,-1,1805,1674,0,0
588,-650,0,0,0,0,0,0,0,0,0,-1,1812,1674,0,0
595,-650,0,0,0,0,0,0,0,0,0,-1,1819,1674,0,0
602,-650,0,0,0,0,0,0,0,0,0,-1,1826,1674,0,0
609,-650,0,0,0,0,0,0,0,0,0,-1,1833,1674,0,0
616,-650,0,0,0,0,0,0,0,0,0,-1,1840,1674,0,0
623,-650,0,0,0,0,0,0,0,0,0,-1,1847,1674,0,0
630,-650,0,0,0,0,0,0,0,0,0,-1,1854,1674,0,0
637,-650,0,0,0,0,0,0,0,0,0,-1,1861,1674,0,0
644,-650,0,0,0,0,0,0,0,0,0,-1,1868,1674,0,0
651,-650,0,0,0,0,0,0,0,0,0,-1,1875,1674,0,0
658,-650,0,0,0,0,0,0,0,0,0,-1,1882,1674,0,0
665,-650,0,0,0,0,0,0,0,0,0,-1,1889,1674,0,0
672,-650,0,0,0,0,0,0,0,0,0,-1,1896,1674,0,0
679,-650,0,0,0,0,0,0,0,0,0,-1,1903,1674,0,0
686,-650,0,0,0,0,0,0,0,0,0,-1,1910,1674,0,0
693,-650,0,0,0,0,0,0,0,0,0,-1,1917,1674,0,0
700,-650,0,0,0,0,0,0,0,0,0,-1,1924,1674,0,0
707,-650,0,0,0,0,0,0,0,0,0,-1,1931,1674,0,0
714,-650,0,0,0,0,0,0,0,0,0,-1,1938,1674,0,0
721,-650,0,0,0,0,0,0,0,0,0,-1,1945,1674,0,0
728,-650,0,0,0,0,0,0,0,0,0,-1,1952,1674,0,0
735,-650,0,0,0,0,0,0,0,0,0,-1,1959,1674,0,0
742,-650,0,0,0,0,0,0,0,0,0,-1,1966,1674,0,0
749,-650,0,0,0,0,0,0,0,0,0,-1,1973,1674,0,0
756,-650,0,0,0,0,0,0,0,0,0,-1,1980,1674,0,0
763,-650,0,0,0,0,0,0,0,0,0,-1,1987,1674,0,0
770,-650,0,0,0,0,0,0,0,0,0,-1,1994,1674,0,0
777,-650,0,0,0,0,0,0,0,0,0,-1,2001,1674,0,0
784,-650,0,0,0,0,0,0,0,0,0,-1,2008,1674,0,0
791,-650,0,0,0,0,0,0,0,0,0,-1,2015,1674,0,0
798,-650,0,0,0,0,0,0,0,0,0,-1,2022,1674,0,0
805,-650,0,0,0,0,0,0,0,0,0,-1,2029,1674,0,0
812,-650,0,0,0,0,0,0,0,0,0,-1,2036,1674,0,0
-700,-657,0,0,0,0,0,0,0,0,0,-1,524,1681,0,0
-693,-657,0,0,0,0,0,0,0,0,0,-1,531,1681,0,0
-686,-657,0,0,0,0,0,0,0,0,0,-1,538,1681,0,0
-679,-657,0,0,0,0,0,0,0,0,0,-1,545,1681,0,0
-672,-657,0,0,0,0,0,0,0,0,0,-1,552,1681,0,0
-665,-657,0,0,0,0,0,0,0,0,0,-1,559,1681,0,0
-658,-657,0,0,0,0,0,0,0,0,0,-1,566,1681,0,0
-651,-657,0,0,0,0,0,0,0,0,0,-1,573,1681,0,0
-644,-657,0,0,0,0,0,0,0,0,0,-1,580,1681,0,0
-637,-657,0,0,0,0,0,0,0,0,0,-1,587,1681,0,0
-630,-657,0,0,0,0,0,0,0,0,0,-1,594,1681,0,0
-623,-657,0,0,0,0,0,0,0,0,0,-1,601,1681,0,0
-616,-657,0,0,0,0,0,0,0,0,0,-1,608,1681,0,0
-609,-657,0,0,0,0,0,0,0,0,0,-1,615,1681,0,0
-602,-657,0,0,0,0,0,0,0,0,0,-1,622,1681,0,0
-595,-657,0,0,0,0,0,0,0,0,0,-1,629,1681,0,0
-588,-657,0,0,0,0,0,0,0,0,0,-1,636,1681,0,0
-581,-657,0,0,0,0,0,0,0,0,0,-1,643,1681,0,0
-574,-657,0,0,0,0,0,0,0,0,0,-1,650,1681,0,0
-567,-657,0,0,0,0,0,0,0,0,0,-1,657,1681,0,0
-560,-657,0,0,0,0,0,0,0,0,0,-1,664,1681,0,0
-553,-657,0,0,0,0,0,0,0,0,0,-1,671,1681,0,0
-546,-657,0,0,0,0,0,0,0,0,0,-1,678,1681,0,0
-539,-657,0,0,0,0,0,0,0,0,0,-1,685,1681,0,0
-532,-657,0,0,0,0,0,0,0,0,0,-1,692,1681,0,0
-525,-657,0,0,0,0,0,0,0,0,0,-1,699,1681,0,0
-518,-657,0,0,0,0,0,0,0,0,0,-1,706,1681,0,0
-511,-657,0,0,0,0,0,0,0,0,0,-1,713,1681,0,0
-504,-657,0,0,0,0,0,0,0,0,0,-1,720,1681,0,0
-497,-657,0,0,0,0,0,0,0,0,0,-1,727,1681,0,0
-490,-657,0,0,0,0,0,0,0,0,0,-1,734,1681,0,0
-483,-657,0,0,0,0,0,0,0,0,0,-1,741,1681,0,0
-476,-657,0,0,0,0,0,0,0,0,0,-1,748,1681,0,0
-469,-657,0,0,0,0,0,0,0,0,0,-1,755,1681,0,0
-462,-657,0,0,0,0,0,0,0,0,0,-1,762,1681,0,0
-455,-657,0,0,0,0,0,0,0,0,0,-1,769,1681,0,0
-448,-657,0,0,0,0,0,0,0,0,0,-1,776,1681,0,0
-441,-657,0,0,0,0,0,0,0,0,0,-1,783,1681,0,0
-434,-657,0,0,0,0,0,0,0,0,0,-1,790,1681,0,0
-427,-657,0,0,0,0,0,0,0,0,0,-1,797,1681,0,0
-420,-657,0,0,0,0,0,0,0,0,0,-1,804,1681,0,0
-413,-657,0,0,0,0,0,0,0,0,0,-1,811,1681,0,0
-406,-657,0,0,0,0,0,0,0,0,0,-1,818,1681,0,0
-399,-657,0,0,0,0,0,0,0,0,0,-1,825,1681,0,0
-392,-657,0,0,0,0,0,0,0,0,0,-1,832,1681,0,0
-385,-657,1.09814,6.18896,0,0,0,0,0,0,0,-1,839,1681,1.09814,-6.18894
-378,-657,0.31488,4.46753,0,0,0,0,0,0,0,-1,846,1681,0.31487,-4.46755
-371,-657,-0.519043,2.69421,0,0,0,0,0,0,0,-1,853,1681,-0.519064,-2.69422
-364,-657,-3.42017,4.18323,0,0,0,0,0,0,0,-1,860,1681,-3.42019,-4.18319
-357,-657,-4.41913,2.97168,0,0,0,0,0,0,0,-1,867,1681,-4.41913,-2.97165
-350,-657,-5.42291,1.70276,0,0,0,0,0,0,0,-1,874,1681,-5.42291,-1.70277
-343,-657,-6.51294,0.397339,0,0,0,0,0,0,0,-1,881,1681,-6.51295,-0.397335
-336,-657,3.08527,26.0612,0,0,0,0,0,0,0,-1,888,1681,3.08528,-26.0611
-329,-657,5.41583,27.2506,0,0,0,0,0,0,0,-1,895,1681,5.41581,-27.2506
-322,-657,5.75067,27.8715,-0.000462884,0.00533353,0.00654691,0.00959505,-0.0047244,0.993774,0.00842525,0.0482645,902,1681,5.75065,-27.8715
-315,-657,5.81219,28.3293,-0.000837121,0.00458345,0.00581861,0.00829203,-0.0045457,1.00335,0.00751633,0.0463239,909,1681,5.81219,-28.3294
-308,-657,5.82147,28.7484,-0.00123426,0.00343379,0.00459773,0.006256,-0.00405647,1.02027,0.00599888,0.0407576,916,1681,5.82147,-28.7485
-301,-657,5.73438,29.3455,-0.00165191,0.00216176,0.00330378,0.0040695,-0.00355965,1.04713,0.00440797,0.0338758,923,1681,5.73439,-29.3454
-294,-657,5.70099,29.8639,-0.00199258,0.00108485,0.00181832,0.00192813,-0.00283587,1.13655,0.00276709,0.0216921,930,1681,5.70101,-29.8638
-287,-657,5.6828,30.2782,-0.00209999,0.000659452,0.000821726,0.000885615,-0.00232615,1.30222,0.00191548,0.0135687,937,1681,5.68283,-30.2782
-280,-657,5.65973,30.6598,-0.00247944,0.000158918,-0.000163466,0.000169007,-0.00248953,-1.50915,0.00171879,0.0136298,944,1681,5.65975,-30.6598
-273,-657,5.65009,31.1018,-0.00271539,-0.000103693,-0.000912077,0.000183294,-0.00300237,-1.26595,0.00206539,0.00995342,951,1681,5.6501,-31.1018
-266,-657,5.60114,31.5248,-0.00266252,4.88799e-05,-0.00131484,0.00058176,-0.0031954,-1.18575,0.00234833,0.0138198,958,1681,5.60116,-31.5248
-259,-657,5.59326,31.9448,-0.00235478,0.000331828,-0.0013964,0.000926151,-0.0029491,-1.16841,0.00233679,0.0177928,965,1681,5.59324,-31.9449
-252,-657,5.56696,32.3434,-0.00193218,0.000604443,-0.00145825,0.00126877,-0.00259651,-1.14332,0.00227509,0.0131591,972,1681,5.56696,-32.3433
-245,-657,5.5816,32.7465,-0.00144222,0.00118382,-0.00130437,0.00172159,-0.00197998,-1.17975,0.00213884,0.0152273,979,1681,5.58163,-32.7465
-238,-657,5.57849,33.1759,-0.000835314,0.00180734,-0.000889524,0.00207886,-0.00110683,-1.27454,0.00186758,0.0196574,986,1681,5.57848,-33.176
-231,-657,5.55273,33.5887,6.89653e-05,0.00235932,-0.000377338,0.00241989,8.40018e-06,-1.41165,0.00161047,0.0208911,993,1681,5.55271,-33.5888
-224,-657,5.54254,33.9889,0.00113782,0.00257337,0.000337012,0.00264855,0.00106264,1.35131,0.00153906,0.0168723,1000,1681,5.54252,-33.9889
-217,-657,5.5611,34.3672,0.00217331,0.00265338,0.00129183,0.00372729,0.0010994,0.877256,0.00221144,0.0104058,1007,1681,5.56108,-34.3672
-210,-657,5.57397,34.7485,0.00293086,0.00288814,0.00236925,0.00527885,0.000540156,0.780891,0.00335371,0.0108912,1014,1681,5.57395,-34.7485
-203,-657,5.58057,35.1306,0.00366316,0.00285714,0.00328596,0.00657073,-5.04339e-05,0.72438,0.00439739,0.0137273,1021,1681,5.58053,-35.1306
-196,-657,5.57788,35.4684,0.00438035,0.00279788,0.00438861,0.00804849,-0.000870253,0.69621,0.00567801,0.0145051,1028,1681,5.57783,-35.4684
-189,-657,5.56689,35.8093,0.00499126,0.00269128,0.00562003,0.00957775,-0.00189521,0.68448,0.00710171,0.010348,1035,1681,5.56692,-35.8093
-182,-657,5.57202,36.1868,0.00542854,0.00280232,0.00686603,0.0111059,-0.00287504,0.690915,0.00852543,0.0080551,1042,1681,5.57203,-36.1867
-175,-657,5.59534,36.521,0.00563049,0.00297941,0.00816249,0.0125744,-0.00396447,0.704904,0.00997068,0.0102126,1049,1681,5.59535,-36.521
-168,-657,5.57336,36.8669,0.00559574,0.0034714,0.0094803,0.0140732,-0.00500604,0.729611,0.0114225,0.0125868,1056,1681,5.57332,-36.8669
-161,-657,5.59131,37.233,0.00538236,0.00398561,0.0106246,0.0153315,-0.00596357,0.75258,0.0126851,0.0128472,1063,1681,5.59132,-37.233
-154,-657,5.67725,37.5334,0.00502059,0.00468974,0.0114756,0.016332,-0.00662164,0.778191,0.0136418,0.0147929,1070,1681,5.67729,-37.5334
-147,-657,5.69092,37.8644,0.00454708,0.00559908,0.0121765,0.017261,-0.00711481,0.806984,0.014474,0.0309447,1077,1681,5.6909,-37.8644
-140,-657,5.7998,38.3623,0,0,0,0,0,0,0,-1,1084,1681,5.79979,-38.3623
-133,-657,5.50195,39.4072,0,0,0,0,0,0,0,-1,1091,1681,5.50198,-39.4072
-126,-657,5.35303,38.3469,0,0,0,0,0,0,0,-1,1098,1681,5.35305,-38.3469
-119,-657,5.59497,39.7999,0,0,0,0,0,0,0,-1,1105,1681,5.59493,-39.8
-112,-657,6.67419,38.4791,0,0,0,0,0,0,0,-1,1112,1681,6.67417,-38.4791
-105,-657,7.64172,38.4296,0,0,0,0,0,0,0,-1,1119,1681,7.64168,-38.4296
-98,-657,8.14404,38.4435,0,0,0,0,0,0,0,-1,1126,1681,8.14405,-38.4435
-91,-657,3.6521,16.6017,0,0,0,0,0,0,0,-1,1133,1681,3.65215,-16.6017
-84,-657,4.08008,10.4579,0,0,0,0,0,0,0,-1,1140,1681,4.08006,-10.4579
-77,-657,-5.29846,0.396606,0,0,0,0,0,0,0,-1,1147,1681,-5.29842,-0.396573
-70,-657,-4.14893,2.14575,0,0,0,0,0,0,0,-1,1154,1681,-4.14893,-2.1458
-63,-657,-4.1239,3.177,0,0,0,0,0,0,0,-1,1161,1681,-4.12391,-3.17698
-56,-657,-6.40576,5.73987,0,0,0,0,0,0,0,-1,1168,1681,-6.40577,-5.7399
-49,-657,-5.98462,7.54053,0,0,0,0,0,0,0,-1,1175,1681,-5.98466,-7.5405
-42,-657,-5.71948,9.28955,0,0,0,0,0,0,0,-1,1182,1681,-5.71951,-9.2895
-35,-657,-5.44556,11.015,0,0,0,0,0,0,0,-1,1189,1681,-5.44555,-11.015
-28,-657,-1.3446,8.92847,0,0,0,0,0,0,0,-1,1196,1681,-1.34459,-8.92848
-21,-657,8.28564,40.6237,0,0,0,0,0,0,0,-1,1203,1681,8.28569,-40.6237
-14,-657,9.14819,40.7913,0.0255522,-0.134499,0.0628332,0.047272,-0.156219,0.332815,0.12297,0.0471309,1210,1681,9.14819,-40.7912
-7,-657,10.0309,40.9749,0.0387523,-0.106319,0.0764091,0.0715722,-0.139139,0.4057,0.123721,0.0445535,1217,1681,10.0309,-40.9749
0,-657,10.9397,41.129,0,0,0,0,0,0,0,-1,1224,1681,10.9398,-41.129
7,-657,11.9666,41.3019,0,0,0,0,0,0,0,-1,1231,1681,11.9665,-41.3019
14,-657,12.9388,41.501,0,0,0,0,0,0,0,-1,1238,1681,12.9388,-41.501
21,-657,10.6731,41.8063,0.152966,0.045584,0.120386,0.231091,-0.0325408,0.57564,0.165974,0.0456932,1245,1681,10.673,-41.8063
28,-657,10.2701,42.7814,0.161936,0.0673594,0.113995,0.238062,-0.00876628,0.588786,0.161709,0.0436058,1252,1681,10.2702,-42.7813
35,-657,10.8049,44.011,0.160633,0.0794181,0.0999388,0.227899,0.0121519,0.592425,0.148049,0.040676,1259,1681,10.8049,-44.011
42,-657,9.95264,57.6456,0.150155,0.0820231,0.0796713,0.202738,0.0294401,0.583372,0.126492,0.0402885,1266,1681,9.95258,-57.6456
49,-657,9.34668,57.0547,0.132099,0.0762385,0.0552036,0.166036,0.0423017,0.551199,0.0996299,0.0427239,1273,1681,9.34671,-57.0547
56,-657,8.2876,55.7012,0.11281,0.0657058,0.0292067,0.126778,0.0517383,0.446082,0.0736062,0.0431979,1280,1681,8.28761,-55.7012
63,-657,7.78906,54.4604,0.0942757,0.0531521,0.00420078,0.0947004,0.0527274,0.100764,0.0547927,0.0470776,1287,1681,7.78906,-54.4604
70,-657,7.15515,52.7734,0.0803406,0.0428884,-0.0180963,0.0876557,0.0355733,-0.384148,0.0509063,0.0472516,1294,1681,7.15514,-52.7734
77,-657,7.34607,50.7061,0.071612,0.0351545,-0.038405,0.0958948,0.0108718,-0.563819,0.0606317,0.0444089,1301,1681,7.34611,-50.7061
84,-657,9.26343,47.8837,0,0,0,0,0,0,0,-1,1308,1681,9.26338,-47.8836
91,-657,9.11157,46.2861,0.0471631,0.016454,-0.0767541,0.110083,-0.0464663,-0.686677,0.0928383,0.0453195,1315,1681,9.11157,-46.2862
98,-657,8.93433,44.649,0.0461582,0.00180081,-0.0886755,0.115387,-0.0674275,-0.662857,0.106752,0.0454893,1322,1681,8.93432,-44.649
105,-657,8.91223,43.0431,0.0575159,0.00863432,-0.0915006,0.127784,-0.0616335,-0.65489,0.111561,0.048818,1329,1681,8.91226,-43.0431
112,-657,9.12219,41.5518,0.0694488,0.0129586,-0.0913876,0.136857,-0.0544492,-0.63552,0.113815,0.0470501,1336,1681,9.12221,-41.5517
119,-657,9.15442,39.9688,0.0785457,0.0144814,-0.0904777,0.142494,-0.0494671,-0.615266,0.115085,0.0462376,1343,1681,9.15444,-39.9687
126,-657,9.36511,37.922,0.0852413,0.013404,-0.0889196,0.145223,-0.0465776,-0.593447,0.115515,0.0492568,1350,1681,9.36511,-37.922
133,-657,9.5448,35.8314,0.0910077,0.0112012,-0.0874477,0.147226,-0.0450171,-0.571354,0.116103,0.0498417,1357,1681,9.54485,-35.8314
140,-657,9.80017,33.8306,0.0958077,0.00962591,-0.0864322,0.149295,-0.0438614,-0.554154,0.116926,0.0498053,1364,1681,9.80018,-33.8305
147,-657,10.0199,31.8962,0,0,0,0,0,0,0,-1,1371,1681,10.0199,-31.8962
154,-657,8.30884,30.7957,0,0,0,0,0,0,0,-1,1378,1681,8.30885,-30.7957
161,-657,4.2926,24.9226,0,0,0,0,0,0,0,-1,1385,1681,4.29264,-24.9226
168,-657,5.21643,0.70105,0,0,0,0,0,0,0,-1,1392,1681,5.21648,-0.7011
175,-657,5.52771,0.649048,0,0,0,0,0,0,0,-1,1399,1681,5.52774,-0.649019
182,-657,5.73999,1.02612,0,0,0,0,0,0,0,-1,1406,1681,5.73995,-1.02611
189,-657,5.92126,1.44116,0,0,0,0,0,0,0,-1,1413,1681,5.92126,-1.44115
196,-657,4.92834,9.59021,0,0,0,0,0,0,0,-1,1420,1681,4.9284,-9.59018
203,-657,6.26343,5.16492,0,0,0,0,0,0,0,-1,1427,1681,6.26345,-5.16488
210,-657,3.9856,5.28088,0,0,0,0,0,0,0,-1,1434,1681,3.98555,-5.28084
217,-657,3.95178,5.2843,0,0,0,0,0,0,0,-1,1441,1681,3.95174,-5.28431
224,-657,6.66736,-0.250244,0,0,0,0,0,0,0,-1,1448,1681,6.66737,0.250229
231,-657,6.85498,-1.70752,0,0,0,0,0,0,0,-1,1455,1681,6.855,1.70758
238,-657,5.34143,-2.89819,0,0,0,0,0,0,0,-1,1462,1681,5.34143,2.89813
245,-657,8.66003,-0.102783,0,0,0,0,0,0,0,-1,1469,1681,8.66,0.102824
252,-657,4.78955,0.623779,0,0,0,0,0,0,0,-1,1476,1681,4.7895,-0.623826
259,-657,2.61523,4.31909,0,0,0,0,0,0,0,-1,1483,1681,2.61523,-4.31908
266,-657,5.35437,11.4742,0,0,0,0,0,0,0,-1,1490,1681,5.35441,-11.4742
273,-657,10.9188,38.2115,0,0,0,0,0,0,0,-1,1497,1681,10.9189,-38.2116
280,-657,10.6987,37.9655,0.00147266,0.0127531,0.00359649,0.0138022,0.000423573,1.28697,0.00906355,0.0448366,1504,1681,10.6987,-37.9655
287,-657,10.6561,37.6631,0.00152916,0.0120269,0.0031277,0.0128881,0.000667946,1.3021,0.00837828,0.035739,1511,1681,10.6562,-37.6631
294,-657,10.871,37.3444,0.00179346,0.0116564,0.00227802,0.0121572,0.00129274,1.35443,0.00771007,0.0298351,1518,1681,10.871,-37.3444
301,-657,10.9308,37.0448,0.00205549,0.0108359,0.00159013,0.011115,0.00177639,1.39705,0.00689456,0.0197351,1525,1681,10.9308,-37.0448
308,-657,10.9545,36.6908,0.0023512,0.0100146,0.000779781,0.0100932,0.00227265,1.47041,0.00611369,0.0138956,1532,1681,10.9544,-36.6908
315,-657,10.9868,36.3293,0.00251824,0.00912402,0.000147153,0.00912729,0.00251497,1.54853,0.00544376,0.0119604,1539,1681,10.9868,-36.3293
322,-657,10.9894,35.9825,0.00256675,0.00821203,-0.000348917,0.00823351,0.00254527,-1.5093,0.0048677,0.0134409,1546,1681,10.9894,-35.9825
329,-657,11.0059,35.6213,0.00253905,0.0073664,-0.000788392,0.0074919,0.00241355,-1.41294,0.00441571,0.0190087,1553,1681,11.0059,-35.6214
336,-657,11.0079,35.2944,0.00243989,0.00658179,-0.00103083,0.00682416,0.00219752,-1.33987,0.00402227,0.0173247,1560,1681,11.008,-35.2944
343,-657,11.0179,34.9735,0.00223982,0.00573967,-0.00134767,0.00619847,0.00178102,-1.24267,0.00368501,0.0143539,1567,1681,11.0179,-34.9735
350,-657,11.0115,34.6097,0.00211272,0.0047431,-0.00157199,0.00547752,0.0013783,-1.13374,0.00328993,0.0163151,1574,1681,11.0115,-34.6097
357,-657,10.9935,34.2393,0.00191345,0.00334567,-0.00144101,0.0042387,0.00102043,-1.016,0.00255452,0.0148323,1581,1681,10.9935,-34.2393
364,-657,11.0052,33.8793,0.00159654,0.00220454,-0.00120008,0.00313852,0.000662554,-0.909447,0.00191019,0.0103029,1588,1681,11.0053,-33.8793
371,-657,11.0096,33.5081,0.0013195,0.00101122,-0.00101128,0.00218832,0.000142395,-0.70977,0.0014138,0.0142185,1595,1681,11.0097,-33.5081
378,-657,10.9674,33.1251,0.00110367,-0.000265216,-0.000792289,0.00146621,-0.000627761,-0.42915,0.00124084,0.0133736,1602,1681,10.9675,-33.1251
385,-657,10.947,32.7307,0.00101927,-0.00161532,-0.000534562,0.0011236,-0.00171965,-0.192749,0.00165354,0.0112249,1609,1681,10.947,-32.7307
392,-657,10.9388,32.3491,0.00116567,-0.00328225,-0.000373367,0.0011968,-0.00331338,-0.0831663,0.00269784,0.0123481,1616,1681,10.9388,-32.3492
399,-657,10.9452,31.9641,0.00127833,-0.00479859,-0.000214557,0.0012859,-0.00480616,-0.0352484,0.00370783,0.0129159,1623,1681,10.9451,-31.9642
406,-657,10.9437,31.5763,0.00143267,-0.00595986,-0.000105943,0.00143419,-0.00596138,-0.0143271,0.00452866,0.01446,1630,1681,10.9437,-31.5763
413,-657,10.9236,31.1506,0.00194032,-0.00594221,0.000360602,0.00195678,-0.00595867,0.04562,0.0047607,0.0143862,1637,1681,10.9236,-31.1506
420,-657,10.9076,30.7146,0.00249653,-0.00596026,0.000525638,0.00252908,-0.00599281,0.0618385,0.00505376,0.016328,1644,1681,10.9076,-30.7145
427,-657,10.8364,30.2826,0.00328657,-0.00566573,0.000818533,0.0033608,-0.00573995,0.0904335,0.00531383,0.0197562,1651,1681,10.8364,-30.2825
434,-657,10.8875,29.8901,0.00422026,-0.00448887,0.00131464,0.00441438,-0.00468299,0.146599,0.00525313,0.0268843,1658,1681,10.8874,-29.8901
441,-657,11.2051,29.7986,0.0054088,-0.00257764,0.00196834,0.00586757,-0.00303641,0.228984,0.00522662,0.0446583,1665,1681,11.205,-29.7986
448,-657,11.4963,29.6222,0,0,0,0,0,0,0,-1,1672,1681,11.4964,-29.6222
455,-657,10.5953,28.6271,0,0,0,0,0,0,0,-1,1679,1681,10.5954,-28.6271
462,-657,9.08813,27.0134,0,0,0,0,0,0,0,-1,1686,1681,9.08815,-27.0134
469,-657,9.22205,26.4175,0,0,0,0,0,0,0,-1,1693,1681,9.2221,-26.4175
476,-657,8.9519,20.5712,0,0,0,0,0,0,0,-1,1700,1681,8.95194,-20.5712
483,-657,10.0663,21.8628,0,0,0,0,0,0,0,-1,1707,1681,10.0663,-21.8628
490,-657,11.6039,21.2185,0,0,0,0,0,0,0,-1,1714,1681,11.6038,-21.2185
497,-657,9.20862,17.8127,0,0,0,0,0,0,0,-1,1721,1681,9.2086,-17.8127
504,-657,0,0,0,0,0,0,0,0,0,-1,1728,1681,0,0
511,-657,0,0,0,0,0,0,0,0,0,-1,1735,1681,0,0
518,-657,0,0,0,0,0,0,0,0,0,-1,1742,1681,0,0
525,-657,0,0,0,0,0,0,0,0,0,-1,1749,1681,0,0
532,-657,0,0,0,0,0,0,0,0,0,-1,1756,1681,0,0
539,-657,0,0,0,0,0,0,0,0,0,-1,1763,1681,0,0
546,-657,0,0,0,0,0,0,0,0,0,-1,1770,1681,0,0
553,-657,0,0,0,0,0,0,0,0,0,-1,1777,1681,0,0
560,-657,0,0,0,0,0,0,0,0,0,-1,1784,1681,0,0
567,-657,0,0,0,0,0,0,0,0,0,-1,1791,1681,0,0
574,-657,0,0,0,0,0,0,0,0,0,-1,1798,1681,0,0
581,-657,0,0,0,0,0,0,0,0,0,-1,1805,1681,0,0
588,-657,0,0,0,0,0,0,0,0,0,-1,1812,1681,0,0
595,-657,0,0,0,0,0,0,0,0,0,-1,1819,1681,0,0
602,-657,0,0,0,0,0,0,0,0,0,-1,1826,1681,0,0
609,-657,0,0,0,0,0,0,0,0,0,-1,1833,1681,0,0
616,-657,0,0,0,0,0,0,0,0,0,-1,1840,1681,0,0
623,-657,0,0,0,0,0,0,0,0,0,-1,1847,1681,0,0
630,-657,0,0,0,0,0,0,0,0,0,-1,1854,1681,0,0
637,-657,0,0,0,0,0,0,0,0,0,-1,1861,1681,0,0
644,-657,0,0,0,0,0,0,0,0,0,-1,1868,1681,0,0
651,-657,0,0,0,0,0,0,0,0,0,-1,1875,1681,0,0
658,-657,0,0,0,0,0,0,0,0,0,-1,1882,1681,0,0
665,-657,0,0,0,0,0,0,0,0,0,-1,1889,1681,0,0
672,-657,0,0,0,0,0,0,0,0,0,-1,1896,1681,0,0
679,-657,0,0,0,0,0,0,0,0,0,-1,1903,1681,0,0
686,-657,0,0,0,0,0,0,0,0,0,-1,1910,1681,0,0
693,-657,0,0,0,0,0,0,0,0,0,-1,1917,1681,0,0
700,-657,0,0,0,0,0,0,0,0,0,-1,1924,1681,0,0
707,-657,0,0,0,0,0,0,0,0,0,-1,1931,1681,0,0
714,-657,0,0,0,0,0,0,0,0,0,-1,1938,1681,0,0
721,-657,0,0,0,0,0,0,0,0,0,-1,1945,1681,0,0
728,-657,0,0,0,0,0,0,0,0,0,-1,1952,1681,0,0
735,-657,0,0,0,0,0,0,0,0,0,-1,1959,1681,0,0
742,-657,0,0,0,0,0,0,0,0,0,-1,1966,1681,0,0
749,-657,0,0,0,0,0,0,0,0,0,-1,1973,1681,0,0
756,-657,0,0,0,0,0,0,0,0,0,-1,1980,1681,0,0
763,-657,0,0,0,0,0,0,0,0,0,-1,1987,1681,0,0
770,-657,0,0,0,0,0,0,0,0,0,-1,1994,1681,0,0
777,-657,0,0,0,0,0,0,0,0,0,-1,2001,1681,0,0
784,-657,0,0,0,0,0,0,0,0,0,-1,2008,1681,0,0
791,-657,0,0,0,0,0,0,0,0,0,-1,2015,1681,0,0
798,-657,0,0,0,0,0,0,0,0,0,-1,2022,1681,0,0
805,-657,0,0,0,0,0,0,0,0,0,-1,2029,1681,0,0
812,-657,0,0,0,0,0,0,0,0,0,-1,2036,1681,0,0
-700,-664,0,0,0,0,0,0,0,0,0,-1,524,1688,0,0
-693,-664,0,0,0,0,0,0,0,0,0,-1,531,1688,0,0
-686,-664,0,0,0,0,0,0,0,0,0,-1,538,1688,0,0
-679,-664,0,0,0,0,0,0,0,0,0,-1,545,1688,0,0
-672,-664,0,0,0,0,0,0,0,0,0,-1,552,1688,0,0
-665,-664,0,0,0,0,0,0,0,0,0,-1,559,1688,0,0
-658,-664,0,0,0,0,0,0,0,0,0,-1,566,1688,0,0
-651,-664,0,0,0,0,0,0,0,0,0,-1,573,1688,0,0
-644,-664,0,0,0,0,0,0,0,0,0,-1,580,1688,0,0
-637,-664,0,0,0,0,0,0,0,0,0,-1,587,1688,0,0
-630,-664,0,0,0,0,0,0,0,0,0,-1,594,1688,0,0
-623,-664,0,0,0,0,0,0,0,0,0,-1,601,1688,0,0
-616,-664,0,0,0,0,0,0,0,0,0,-1,608,1688,0,0
-609,-664,0,0,0,0,0,0,0,0,0,-1,615,1688,0,0
-602,-664,0,0,0,0,0,0,0,0,0,-1,622,1688,0,0
-595,-664,0,0,0,0,0,0,0,0,0,-1,629,1688,0,0
-588,-664,0,0,0,0,0,0,0,0,0,-1,636,1688,0,0
-581,-664,0,0,0,0,0,0,0,0,0,-1,643,1688,0,0
-574,-664,0,0,0,0,0,0,0,0,0,-1,650,1688,0,0
-567,-664,0,0,0,0,0,0,0,0,0,-1,657,1688,0,0
-560,-664,0,0,0,0,0,0,0,0,0,-1,664,1688,0,0
-553,-664,0,0,0,0,0,0,0,0,0,-1,671,1688,0,0
-546,-664,0,0,0,0,0,0,0,0,0,-1,678,1688,0,0
-539,-664,0,0,0,0,0,0,0,0,0,-1,685,1688,0,0
-532,-664,0,0,0,0,0,0,0,0,0,-1,692,1688,0,0
-525,-664,0,0,0,0,0,0,0,0,0,-1,699,1688,0,0
-518,-664,0,0,0,0,0,0,0,0,0,-1,706,1688,0,0
-511,-664,0,0,0,0,0,0,0,0,0,-1,713,1688,0,0
-504,-664,0,0,0,0,0,0,0,0,0,-1,720,1688,0,0
-497,-664,0,0,0,0,0,0,0,0,0,-1,727,1688,0,0
-490,-664,0,0,0,0,0,0,0,0,0,-1,734,1688,0,0
-483,-664,0,0,0,0,0,0,0,0,0,-1,741,1688,0,0
-476,-664,0,0,0,0,0,0,0,0,0,-1,748,1688,0,0
-469,-664,0,0,0,0,0,0,0,0,0,-1,755,1688,0,0
-462,-664,0,0,0,0,0,0,0,0,0,-1,762,1688,0,0
-455,-664,0,0,0,0,0,0,0,0,0,-1,769,1688,0,0
-448,-664,0,0,0,0,0,0,0,0,0,-1,776,1688,0,0
-441,-664,0,0,0,0,0,0,0,0,0,-1,783,1688,0,0
-434,-664,0,0,0,0,0,0,0,0,0,-1,790,1688,0,0
-427,-664,0,0,0,0,0,0,0,0,0,-1,797,1688,0,0
-420,-664,0,0,0,0,0,0,0,0,0,-1,804,1688,0,0
-413,-664,0,0,0,0,0,0,0,0,0,-1,811,1688,0,0
-406,-664,0,0,0,0,0,0,0,0,0,-1,818,1688,0,0
-399,-664,0,0,0,0,0,0,0,0,0,-1,825,1688,0,0
-392,-664,0,0,0,0,0,0,0,0,0,-1,832,1688,0,0
-385,-664,0,0,0,0,0,0,0,0,0,-1,839,1688,0,0
-378,-664,0,0,0,0,0,0,0,0,0,-1,846,1688,0,0
-371,-664,-1.61676,5.92737,0,0,0,0,0,0,0,-1,853,1688,-1.61675,-5.92735
-364,-664,-3.901,5.87024,0,0,0,0,0,0,0,-1,860,1688,-3.90097,-5.87027
-357,-664,-4.81012,4.53479,0,0,0,0,0,0,0,-1,867,1688,-4.81012,-4.5348
-350,-664,-5.7193,3.19934,0,0,0,0,0,0,0,-1,874,1688,-5.71927,-3.19932
-343,-664,2.13544,25.5537,0,0,0,0,0,0,0,-1,881,1688,2.13546,-25.5537
-336,-664,3.50238,26.167,0,0,0,0,0,0,0,-1,888,1688,3.50241,-26.167
-329,-664,4.91052,26.7432,0,0,0,0,0,0,0,-1,895,1688,4.91052,-26.7431
-322,-664,6.29352,27.9675,0,0,0,0,0,0,0,-1,902,1688,6.29351,-27.9676
-315,-664,6.28564,28.2543,0,0,0,0,0,0,0,-1,909,1688,6.28567,-28.2542
-308,-664,6.05365,28.38,-0.00158386,0.00460845,0.00575966,0.0080514,-0.00502681,1.03202,0.00761772,0.0485398,916,1688,6.05362,-28.38
-301,-664,5.9577,29.1796,-0.00226733,0.00270115,0.00393416,0.00486977,-0.00443595,1.06701,0.0053746,0.0499573,923,1688,5.95768,-29.1796
-294,-664,6.10809,29.9148,-0.00283512,0.00124054,0.00182928,0.00194115,-0.00353572,1.20504,0.00320644,0.0466935,930,1688,6.10811,-29.9148
-287,-664,6.14252,30.328,-0.00316168,0.000581099,0.000332011,0.000610323,-0.0031909,1.483,0.0023572,0.0316443,937,1688,6.14254,-30.328
-280,-664,6.06464,30.6957,-0.00385033,-9.49772e-05,-0.00101557,0.000162072,-0.00410738,-1.32289,0.00279385,0.019986,944,1688,6.06462,-30.6956
-273,-664,6.06738,31.1005,-0.00426935,-0.000418185,-0.00198713,0.000423278,-0.00511082,-1.17023,0.00355671,0.0151441,951,1688,6.06739,-31.1005
-266,-664,6.03418,31.5284,-0.00428116,-0.000295889,-0.00248048,0.000893202,-0.00547025,-1.12378,0.00397814,0.020891,958,1688,6.0342,-31.5285
-259,-664,5.99768,31.952,-0.00400814,-5.40353e-05,-0.0026171,0.00124884,-0.00531102,-1.10888,0.00402212,0.0180657,965,1688,5.99768,-31.9521
-252,-664,6.0014,32.345,-0.00364213,0.000197022,-0.00263186,0.00153497,-0.00498008,-1.10048,0.00393286,0.0166198,972,1688,6.00141,-32.345
-245,-664,5.95404,32.7491,-0.00315966,0.000792372,-0.00235341,0.00188933,-0.00425662,-1.13462,0.00363505,0.0208216,979,1688,5.95401,-32.7491
-238,-664,5.97858,33.2109,-0.00253355,0.00148637,-0.00180142,0.00217549,-0.00322267,-1.20543,0.00313612,0.0244102,986,1688,5.9786,-33.2109
-231,-664,5.96625,33.6353,-0.00169531,0.00203023,-0.00113143,0.00234692,-0.002012,-1.29788,0.0025191,0.0216797,993,1688,5.96624,-33.6352
-224,-664,5.94525,34.0068,-0.000695371,0.00229805,-0.000362475,0.00234132,-0.000738638,-1.45199,0.00185673,0.0152051,1000,1688,5.94527,-34.0069
-217,-664,5.93958,34.3743,0.000318771,0.00241228,0.000506608,0.00252843,0.000202621,1.34542,0.0016223,0.0105919,1007,1688,5.93961,-34.3743
-210,-664,5.94092,34.7584,0.00116224,0.00261466,0.00141055,0.00347497,0.000301936,1.02312,0.00222285,0.0116501,1014,1688,5.9409,-34.7585
-203,-664,5.93982,35.1237,0.00189872,0.00256807,0.00219925,0.00445796,8.82684e-06,0.860908,0.00296904,0.0142775,1021,1688,5.9398,-35.1236
-196,-664,5.93787,35.4681,0.00260956,0.0024584,0.00306727,0.00560218,-0.000534222,0.773081,0.003925,0.0145336,1028,1688,5.93791,-35.4681
-189,-664,5.91931,35.8247,0.00323406,0.00229515,0.00399893,0.00679099,-0.00126179,0.726968,0.00500127,0.00979081,1035,1688,5.91932,-35.8248
-182,-664,5.92395,36.1805,0.00373799,0.00231267,0.00483841,0.00791594,-0.00186528,0.712278,0.00599655,0.00907916,1042,1688,5.92397,-36.1806
-175,-664,5.94092,36.483,0.00410716,0.00242771,0.00567915,0.00900833,-0.00247346,0.712,0.00697774,0.0121629,1049,1688,5.9409,-36.483
-168,-664,5.95276,36.8098,0.00424792,0.00283441,0.00653197,0.0101113,-0.00302893,0.731508,0.00794532,0.0132152,1056,1688,5.95275,-36.8098
-161,-664,5.94995,37.1631,0.00422812,0.00326973,0.00723209,0.0109969,-0.00349902,0.752317,0.00873442,0.0103945,1063,1688,5.94998,-37.1631
-154,-664,6.00708,37.48,0.00415197,0.00386815,0.00774078,0.0117521,-0.00373201,0.776233,0.00933095,0.0109767,1070,1688,6.00709,-37.4799
-147,-664,5.99951,37.812,0.00399066,0.00467793,0.00823184,0.0125733,-0.00390472,0.806258,0.00994273,0.018174,1077,1688,5.99951,-37.812
-140,-664,6.00903,38.1816,0.00384067,0.00542681,0.00861056,0.0132807,-0.00401327,0.831321,0.0104517,0.0248027,1084,1688,6.00907,-38.1816
-133,-664,5.94446,38.6365,0.00380394,0.00631713,0.00874772,0.013898,-0.00377698,0.856734,0.0107479,0.0281198,1091,1688,5.94447,-38.6365
-126,-664,6.05017,38.7965,0,0,0,0,0,0,0,-1,1098,1688,6.05015,-38.7965
-119,-664,6.09412,39.4147,0,0,0,0,0,0,0,-1,1105,1688,6.09418,-39.4147
-112,-664,6.1665,39.8281,0,0,0,0,0,0,0,-1,1112,1688,6.1665,-39.8281
-105,-664,7.2179,38.5437,0,0,0,0,0,0,0,-1,1119,1688,7.21795,-38.5437
-98,-664,7.61353,38.5004,0,0,0,0,0,0,0,-1,1126,1688,7.61352,-38.5004
-91,-664,5.41931,25.6302,0,0,0,0,0,0,0,-1,1133,1688,5.41932,-25.6302
-84,-664,3.48389,16.6913,0,0,0,0,0,0,0,-1,1140,1688,3.4839,-16.6913
-77,-664,4.52014,11.2122,0,0,0,0,0,0,0,-1,1147,1688,4.5202,-11.2122
-70,-664,4.20374,8.24524,0,0,0,0,0,0,0,-1,1154,1688,4.20379,-8.24519
-63,-664,-4.677,2.40503,0,0,0,0,0,0,0,-1,1161,1688,-4.67702,-2.40498
-56,-664,-4.66504,3.32727,0,0,0,0,0,0,0,-1,1168,1688,-4.6651,-3.32724
-49,-664,-2.54297,3.31848,0,0,0,0,0,0,0,-1,1175,1688,-2.54297,-3.31852
-42,-664,-0.359253,4.38684,0,0,0,0,0,0,0,-1,1182,1688,-0.359261,-4.38685
-35,-664,-0.705566,3.55017,0,0,0,0,0,0,0,-1,1189,1688,-0.705567,-3.55023
-28,-664,-1.54236,10.2538,0,0,0,0,0,0,0,-1,1196,1688,-1.54236,-10.2538
-21,-664,7.60352,41.1823,0,0,0,0,0,0,0,-1,1203,1688,7.60349,-41.1822
-14,-664,8.3241,41.3865,0.0459069,-0.0883528,0.0649158,0.0721605,-0.114606,0.384316,0.108754,0.0497358,1210,1688,8.32411,-41.3864
-7,-664,9.07397,41.5969,0.0619528,-0.0570197,0.0772569,0.0999716,-0.0950386,0.457315,0.112601,0.0468994,1217,1688,9.07395,-41.5969
0,-664,9.1156,42.4441,0,0,0,0,0,0,0,-1,1224,1688,9.1156,-42.4441
7,-664,11.0934,41.9556,0,0,0,0,0,0,0,-1,1231,1688,11.0933,-41.9556
14,-664,9.88916,41.474,0,0,0,0,0,0,0,-1,1238,1688,9.88917,-41.4739
21,-664,9.68457,42.5221,0.147166,0.0604207,0.104819,0.217231,-0.00964449,0.58923,0.14814,0.0481319,1245,1688,9.68462,-42.5221
28,-664,9.47681,43.5801,0.15385,0.0771116,0.0988801,0.221544,0.00941709,0.600323,0.144659,0.0466329,1252,1688,9.4768,-43.5801
35,-664,9.24866,44.6143,0.151933,0.0855437,0.0868603,0.211725,0.0257512,0.602882,0.133398,0.0491977,1259,1688,9.2486,-44.6143
42,-664,10.5988,57.9136,0.141903,0.0860991,0.0696739,0.189054,0.0389477,0.594946,0.115268,0.0423168,1266,1688,10.5988,-57.9136
49,-664,9.94751,57.572,0.125732,0.0797186,0.0493008,0.15713,0.0483204,0.567089,0.0929326,0.0433108,1273,1688,9.94757,-57.572
56,-664,9.25208,57.1725,0.108023,0.0691137,0.0275572,0.122301,0.0548359,0.478034,0.070736,0.0433899,1280,1688,9.25212,-57.1725
63,-664,7.74792,55.1915,0.0905533,0.0568962,0.00647162,0.0917548,0.0556947,0.183564,0.0533774,0.0481845,1287,1688,7.74795,-55.1915
70,-664,7.01709,53.3386,0,0,0,0,0,0,0,-1,1294,1688,7.01714,-53.3386
77,-664,7.25977,51.1411,0,0,0,0,0,0,0,-1,1301,1688,7.25977,-51.1411
84,-664,10.1885,47.842,0,0,0,0,0,0,0,-1,1308,1688,10.1885,-47.842
91,-664,9.76709,46.1178,0,0,0,0,0,0,0,-1,1315,1688,9.76703,-46.1178
98,-664,8.27051,43.3108,0,0,0,0,0,0,0,-1,1322,1688,8.27052,-43.3108
105,-664,8.57666,42.7247,0,0,0,0,0,0,0,-1,1329,1688,8.5767,-42.7247
112,-664,8.72815,41.3715,0,0,0,0,0,0,0,-1,1336,1688,8.72814,-41.3715
119,-664,8.23572,39.7537,0,0,0,0,0,0,0,-1,1343,1688,8.23574,-39.7537
126,-664,8.48682,37.8484,0,0,0,0,0,0,0,-1,1350,1688,8.48681,-37.8484
133,-664,8.63904,35.8553,0,0,0,0,0,0,0,-1,1357,1688,8.63906,-35.8554
140,-664,8.77161,33.5112,0,0,0,0,0,0,0,-1,1364,1688,8.77166,-33.5113
147,-664,8.97705,31.7904,0,0,0,0,0,0,0,-1,1371,1688,8.97708,-31.7904
154,-664,17.8616,38.0765,0,0,0,0,0,0,0,-1,1378,1688,17.8616,-38.0766
161,-664,4.60132,1.56238,0,0,0,0,0,0,0,-1,1385,1688,4.60134,-1.56233
168,-664,5.172,1.25488,0,0,0,0,0,0,0,-1,1392,1688,5.17203,-1.25484
175,-664,5.58313,1.16467,0,0,0,0,0,0,0,-1,1399,1688,5.58317,-1.16466
182,-664,5.74268,1.41113,0,0,0,0,0,0,0,-1,1406,1688,5.74263,-1.41115
189,-664,5.87744,1.87061,0,0,0,0,0,0,0,-1,1413,1688,5.87745,-1.87065
196,-664,6.7594,5.97473,0,0,0,0,0,0,0,-1,1420,1688,6.75943,-5.97478
203,-664,5.38452,5.22034,0,0,0,0,0,0,0,-1,1427,1688,5.38453,-5.2203
210,-664,5.25549,6.45715,0,0,0,0,0,0,0,-1,1434,1688,5.25549,-6.45721
217,-664,5.72009,6.73975,0,0,0,0,0,0,0,-1,1441,1688,5.72014,-6.73972
224,-664,5.05725,7.42908,0,0,0,0,0,0,0,-1,1448,1688,5.05723,-7.42912
231,-664,5.13318,7.60864,0,0,0,0,0,0,0,-1,1455,1688,5.13313,-7.60862
238,-664,4.23193,6.45471,0,0,0,0,0,0,0,-1,1462,1688,4.23197,-6.45476
245,-664,4.42004,6.80896,0,0,0,0,0,0,0,-1,1469,1688,4.4201,-6.80901
252,-664,3.67346,6.85461,0,0,0,0,0,0,0,-1,1476,1688,3.6734,-6.85462
259,-664,4.55823,11.7435,0,0,0,0,0,0,0,-1,1483,1688,4.55826,-11.7435
266,-664,10.3188,38.136,0,0,0,0,0,0,0,-1,1490,1688,10.3189,-38.136
273,-664,10.4851,38.15,0,0,0,0,0,0,0,-1,1497,1688,10.4851,-38.15
280,-664,10.4438,37.9709,0.00184499,0.00834883,0.00246213,0.00917577,0.00101806,1.24677,0.00580765,0.0278414,1504,1688,10.4439,-37.9709
287,-664,10.4425,37.6138,0.0017567,0.00799545,0.00218325,0.00868358,0.00106857,1.26547,0.00546778,0.0246966,1511,1688,10.4425,-37.6138
294,-664,10.5533,37.3126,0.00183887,0.00793204,0.00159273,0.00832325,0.00144765,1.32994,0.00513477,0.0177335,1518,1688,10.5533,-37.3126
301,-664,10.6115,36.9933,0.00192291,0.00755115,0.00104296,0.0077382,0.00173586,1.39333,0.00468854,0.0116567,1525,1688,10.6115,-36.9933
308,-664,10.6479,36.6592,0.0020258,0.00712942,0.000401448,0.0071608,0.00199441,1.49278,0.00426735,0.0114634,1532,1688,10.6479,-36.6592
315,-664,10.6608,36.3026,0.00206976,0.00661397,-0.000116505,0.00661695,0.00206678,-1.54518,0.00390896,0.0124325,1539,1688,10.6607,-36.3026
322,-664,10.6707,35.9972,0.00203559,0.00606981,-0.000541628,0.00614127,0.00196414,-1.43963,0.00362158,0.0150592,1546,1688,10.6706,-35.9972
329,-664,10.6582,35.6884,0.00194031,0.00544105,-0.000908951,0.00566299,0.00171838,-1.33132,0.00335268,0.0165187,1553,1688,10.6582,-35.6884
336,-664,10.6501,35.3214,0.00178865,0.00480018,-0.0010925,0.00515476,0.00143407,-1.25696,0.00307216,0.0153648,1560,1688,10.6501,-35.3214
343,-664,10.6537,34.9937,0.00157249,0.00403191,-0.00131148,0.00460002,0.00100437,-1.16201,0.00279275,0.013299,1567,1688,10.6537,-34.9936
350,-664,10.6478,34.641,0.00144052,0.00309085,-0.00144039,0.0039257,0.000605675,-1.04552,0.00244042,0.0144473,1574,1688,10.6479,-34.641
357,-664,10.6315,34.2491,0.00128901,0.00172344,-0.00128848,0.00281288,0.000199566,-0.868905,0.0018124,0.0136649,1581,1688,10.6315,-34.2491
364,-664,10.6427,33.8776,0.00105535,0.000512589,-0.00105139,0.00186982,-0.000301884,-0.659097,0.00135841,0.0110301,1588,1688,10.6428,-33.8775
371,-664,10.6501,33.5201,0.000870535,-0.000765712,-0.000844949,0.00122853,-0.00112371,-0.400763,0.00135852,0.0135836,1595,1688,10.6502,-33.5201
378,-664,10.613,33.1456,0.000739239,-0.00229727,-0.000556288,0.000837942,-0.00239597,-0.175605,0.00193799,0.0127158,1602,1688,10.613,-33.1456
385,-664,10.5822,32.7577,0.000787931,-0.00375857,-0.000268393,0.00080372,-0.00377436,-0.0587609,0.00282255,0.0131541,1609,1688,10.5821,-32.7577
392,-664,10.5425,32.3837,0.0011016,-0.0055861,-0.00010443,0.00110323,-0.00558773,-0.0156102,0.00414216,0.0174698,1616,1688,10.5425,-32.3837
399,-664,10.5619,31.9724,0.00140146,-0.00717641,1.43996e-05,0.00140148,-0.00717644,0.00167869,0.00531342,0.0146135,1623,1688,10.5618,-31.9725
406,-664,10.5771,31.5793,0.00176724,-0.00846647,0.000127804,0.00176884,-0.00846807,0.0124859,0.00631807,0.0124072,1630,1688,10.5772,-31.5793
413,-664,10.5605,31.1454,0.00261096,-0.00843596,0.000621468,0.00264581,-0.00847081,0.0560216,0.00670546,0.01228,1637,1688,10.5605,-31.1454
420,-664,10.5568,30.7231,0.00347769,-0.00841991,0.000809337,0.00353249,-0.00847471,0.0676101,0.00712542,0.0313899,1644,1688,10.5568,-30.7231
427,-664,10.49,30.1919,0,0,0,0,0,0,0,-1,1651,1688,10.49,-30.1918
434,-664,10.5725,29.7719,0,0,0,0,0,0,0,-1,1658,1688,10.5725,-29.7719
441,-664,11.0078,29.9244,0,0,0,0,0,0,0,-1,1665,1688,11.0078,-29.9244
448,-664,7.27502,19.7417,0,0,0,0,0,0,0,-1,1672,1688,7.27505,-19.7417
455,-664,7.53198,11.3838,0,0,0,0,0,0,0,-1,1679,1688,7.53195,-11.3838
462,-664,4.3147,4.25439,0,0,0,0,0,0,0,-1,1686,1688,4.31467,-4.25435
469,-664,6.05469,7.49341,0,0,0,0,0,0,0,-1,1693,1688,6.05474,-7.49339
476,-664,10.2377,22.7128,0,0,0,0,0,0,0,-1,1700,1688,10.2377,-22.7128
483,-664,8.41895,10.9768,0,0,0,0,0,0,0,-1,1707,1688,8.41897,-10.9769
490,-664,3.90771,13.2842,0,0,0,0,0,0,0,-1,1714,1688,3.90776,-13.2841
497,-664,0,0,0,0,0,0,0,0,0,-1,1721,1688,0,0
504,-664,0,0,0,0,0,0,0,0,0,-1,1728,1688,0,0
511,-664,0,0,0,0,0,0,0,0,0,-1,1735,1688,0,0
518,-664,0,0,0,0,0,0,0,0,0,-1,1742,1688,0,0
525,-664,0,0,0,0,0,0,0,0,0,-1,1749,1688,0,0
532,-664,0,0,0,0,0,0,0,0,0,-1,1756,1688,0,0
539,-664,0,0,0,0,0,0,0,0,0,-1,1763,1688,0,0
546,-664,0,0,0,0,0,0,0,0,0,-1,1770,1688,0,0
553,-664,0,0,0,0,0,0,0,0,0,-1,1777,1688,0,0
560,-664,0,0,0,0,0,0,0,0,0,-1,1784,1688,0,0
567,-664,0,0,0,0,0,0,0,0,0,-1,1791,1688,0,0
574,-664,0,0,0,0,0,0,0,0,0,-1,1798,1688,0,0
581,-664,0,0,0,0,0,0,0,0,0,-1,1805,1688,0,0
588,-664,0,0,0,0,0,0,0,0,0,-1,1812,1688,0,0
595,-664,0,0,0,0,0,0,0,0,0,-1,1819,1688,0,0
602,-664,0,0,0,0,0,0,0,0,0,-1,1826,1688,0,0
609,-664,0,0,0,0,0,0,0,0,0,-1,1833,1688,0,0
616,-664,0,0,0,0,0,0,0,0,0,-1,1840,1688,0,0
623,-664,0,0,0,0,0,0,0,0,0,-1,1847,1688,0,0
630,-664,0,0,0,0,0,0,0,0,0,-1,1854,1688,0,0
637,-664,0,0,0,0,0,0,0,0,0,-1,1861,1688,0,0
644,-664,0,0,0,0,0,0,0,0,0,-1,1868,1688,0,0
651,-664,0,0,0,0,0,0,0,0,0,-1,1875,1688,0,0
658,-664,0,0,0,0,0,0,0,0,0,-1,1882,1688,0,0
665,-664,0,0,0,0,0,0,0,0,0,-1,1889,1688,0,0
672,-664,0,0,0,0,0,0,0,0,0,-1,1896,1688,0,0
679,-664,0,0,0,0,0,0,0,0,0,-1,1903,1688,0,0
686,-664,0,0,0,0,0,0,0,0,0,-1,1910,1688,0,0
693,-664,0,0,0,0,0,0,0,0,0,-1,1917,1688,0,0
700,-664,0,0,0,0,0,0,0,0,0,-1,1924,1688,0,0
707,-664,0,0,0,0,0,0,0,0,0,-1,1931,1688,0,0
714,-664,0,0,0,0,0,0,0,0,0,-1,1938,1688,0,0
721,-664,0,0,0,0,0,0,0,0,0,-1,1945,1688,0,0
728,-664,0,0,0,0,0,0,0,0,0,-1,1952,1688,0,0
735,-664,0,0,0,0,0,0,0,0,0,-1,1959,1688,0,0
742,-664,0,0,0,0,0,0,0,0,0,-1,1966,1688,0,0
749,-664,0,0,0,0,0,0,0,0,0,-1,1973,1688,0,0
756,-664,0,0,0,0,0,0,0,0,0,-1,1980,1688,0,0
763,-664,0,0,0,0,0,0,0,0,0,-1,1987,1688,0,0
770,-664,0,0,0,0,0,0,0,0,0,-1,1994,1688,0,0
777,-664,0,0,0,0,0,0,0,0,0,-1,2001,1688,0,0
784,-664,0,0,0,0,0,0,0,0,0,-1,2008,1688,0,0
791,-664,0,0,0,0,0,0,0,0,0,-1,2015,1688,0,0
798,-664,0,0,0,0,0,0,0,0,0,-1,2022,1688,0,0
805,-664,0,0,0,0,0,0,0,0,0,-1,2029,1688,0,0
812,-664,0,0,0,0,0,0,0,0,0,-1,2036,1688,0,0
-700,-671,0,0,0,0,0,0,0,0,0,-1,524,1695,0,0
-693,-671,0,0,0,0,0,0,0,0,0,-1,531,1695,0,0
-686,-671,0,0,0,0,0,0,0,0,0,-1,538,1695,0,0
-679,-671,0,0,0,0,0,0,0,0,0,-1,545,1695,0,0
-672,-671,0,0,0,0,0,0,0,0,0,-1,552,1695,0,0
-665,-671,0,0,0,0,0,0,0,0,0,-1,559,1695,0,0
-658,-671,0,0,0,0,0,0,0,0,0,-1,566,1695,0,0
-651,-671,0,0,0,0,0,0,0,0,0,-1,573,1695,0,0
-644,-671,0,0,0,0,0,0,0,0,0,-1,580,1695,0,0
-637,-671,0,0,0,0,0,0,0,0,0,-1,587,1695,0,0
-630,-671,0,0,0,0,0,0,0,0,0,-1,594,1695,0,0
-623,-671,0,0,0,0,0,0,0,0,0,-1,601,1695,0,0
-616,-671,0,0,0,0,0,0,0,0,0,-1,608,1695,0,0
-609,-671,0,0,0,0,0,0,0,0,0,-1,615,1695,0,0
-602,-671,0,0,0,0,0,0,0,0,0,-1,622,1695,0,0
-595,-671,0,0,0,0,0,0,0,0,0,-1,629,1695,0,0
-588,-671,0,0,0,0,0,0,0,0,0,-1,636,1695,0,0
-581,-671,0,0,0,0,0,0,0,0,0,-1,643,1695,0,0
-574,-671,0,0,0,0,0,0,0,0,0,-1,650,1695,0,0
-567,-671,0,0,0,0,0,0,0,0,0,-1,657,1695,0,0
-560,-671,0,0,0,0,0,0,0,0,0,-1,664,1695,0,0
-553,-671,0,0,0,0,0,0,0,0,0,-1,671,1695,0,0
-546,-671,0,0,0,0,0,0,0,0,0,-1,678,1695,0,0
-539,-671,0,0,0,0,0,0,0,0,0,-1,685,1695,0,0
-532,-671,0,0,0,0,0,0,0,0,0,-1,692,1695,0,0
-525,-671,0,0,0,0,0,0,0,0,0,-1,699,1695,0,0
-518,-671,0,0,0,0,0,0,0,0,0,-1,706,1695,0,0
-511,-671,0,0,0,0,0,0,0,0,0,-1,713,1695,0,0
-504,-671,0,0,0,0,0,0,0,0,0,-1,720,1695,0,0
-497,-671,0,0,0,0,0,0,0,0,0,-1,727,1695,0,0
-490,-671,0,0,0,0,0,0,0,0,0,-1,734,1695,0,0
-483,-671,0,0,0,0,0,0,0,0,0,-1,741,1695,0,0
-476,-671,0,0,0,0,0,0,0,0,0,-1,748,1695,0,0
-469,-671,0,0,0,0,0,0,0,0,0,-1,755,1695,0,0
-462,-671,0,0,0,0,0,0,0,0,0,-1,762,1695,0,0
-455,-671,0,0,0,0,0,0,0,0,0,-1,769,1695,0,0
-448,-671,0,0,0,0,0,0,0,0,0,-1,776,1695,0,0
-441,-671,0,0,0,0,0,0,0,0,0,-1,783,1695,0,0
-434,-671,0,0,0,0,0,0,0,0,0,-1,790,1695,0,0
-427,-671,0,0,0,0,0,0,0,0,0,-1,797,1695,0,0
-420,-671,0,0,0,0,0,0,0,0,0,-1,804,1695,0,0
-413,-671,0,0,0,0,0,0,0,0,0,-1,811,1695,0,0
-406,-671,0,0,0,0,0,0,0,0,0,-1,818,1695,0,0
-399,-671,0,0,0,0,0,0,0,0,0,-1,825,1695,0,0
-392,-671,0,0,0,0,0,0,0,0,0,-1,832,1695,0,0
-385,-671,0,0,0,0,0,0,0,0,0,-1,839,1695,0,0
-378,-671,0,0,0,0,0,0,0,0,0,-1,846,1695,0,0
-371,-671,0,0,0,0,0,0,0,0,0,-1,853,1695,0,0
-364,-671,-4.18738,7.51416,0,0,0,0,0,0,0,-1,860,1695,-4.18739,-7.51419
-357,-671,-5.02393,6.07129,0,0,0,0,0,0,0,-1,867,1695,-5.0239,-6.07135
-350,-671,-5.72333,4.58386,0,0,0,0,0,0,0,-1,874,1695,-5.72333,-4.58386
-343,-671,2.99432,25.8125,0,0,0,0,0,0,0,-1,881,1695,2.9943,-25.8125
-336,-671,4.1355,26.2717,0,0,0,0,0,0,0,-1,888,1695,4.13547,-26.2718
-329,-671,5.27954,26.6194,0,0,0,0,0,0,0,-1,895,1695,5.27955,-26.6194
-322,-671,6.46808,26.4952,0,0,0,0,0,0,0,-1,902,1695,6.46806,-26.4953
-315,-671,4.16821,28.0734,0,0,0,0,0,0,0,-1,909,1695,4.16824,-28.0733
-308,-671,6.07086,28.0479,0,0,0,0,0,0,0,-1,916,1695,6.07085,-28.0478
-301,-671,6.26337,29.0726,0,0,0,0,0,0,0,-1,923,1695,6.26336,-29.0726
-294,-671,6.84381,29.8708,0,0,0,0,0,0,0,-1,930,1695,6.84383,-29.8708
-287,-671,6.74591,30.3733,-0.00451281,0.000697403,-0.000582887,0.000761817,-0.00457722,-1.46074,0.00333455,0.0470345,937,1695,6.74593,-30.3732
-280,-671,6.70868,30.734,-0.0055866,-7.89461e-05,-0.00233808,0.000779729,-0.00644527,-1.21883,0.00457894,0.0376717,944,1695,6.70867,-30.734
-273,-671,6.59021,31.1019,-0.00619573,-0.000374452,-0.00350919,0.0012741,-0.00784429,-1.13161,0.00570187,0.0331144,951,1695,6.59023,-31.1019
-266,-671,6.49707,31.5804,-0.00622718,-0.000225506,-0.00401738,0.00178807,-0.00824076,-1.10618,0.00617675,0.0235067,958,1695,6.49709,-31.5804
-259,-671,6.38867,31.9413,-0.00595244,1.54832e-05,-0.00414737,0.0021408,-0.00807775,-1.09724,0.00622275,0.0212643,965,1695,6.38869,-31.9413
-252,-671,6.36615,32.349,-0.0056077,0.000263912,-0.00405003,0.00233028,-0.00767406,-1.09901,0.00604443,0.0172806,972,1695,6.36613,-32.349
-245,-671,6.35815,32.7721,-0.00510877,0.000867925,-0.00358298,0.00254519,-0.00678604,-1.13298,0.00556976,0.0199903,979,1695,6.35815,-32.7721
-238,-671,6.36365,33.2124,-0.00444227,0.00159811,-0.00283918,0.0027231,-0.00556726,-1.19354,0.00487943,0.0208427,986,1695,6.36368,-33.2125
-231,-671,6.35522,33.6407,-0.00367388,0.00204011,-0.00199171,0.00266583,-0.00429961,-1.2664,0.0040582,0.0165926,993,1695,6.35523,-33.6408
-224,-671,6.31952,34.0066,-0.0026995,0.00229724,-0.00111552,0.00253497,-0.00293723,-1.36083,0.00316222,0.0125495,1000,1695,6.31953,-34.0066
-217,-671,6.29712,34.3728,-0.00166365,0.00237792,-0.00025615,0.00239409,-0.00167982,-1.50775,0.00236409,0.0112261,1007,1695,6.2971,-34.3728
-210,-671,6.30707,34.7567,-0.000694683,0.00247252,0.0005824,0.00257622,-0.000798383,1.39459,0.00203646,0.0111606,1014,1695,6.30705,-34.7567
-203,-671,6.28223,35.0955,9.7866e-05,0.00235708,0.00133203,0.00297399,-0.000519042,1.13707,0.0021764,0.0191371,1021,1695,6.28228,-35.0955
-196,-671,6.27771,35.4711,0.000862943,0.00215943,0.00206599,0.00367649,-0.000654114,0.937419,0.00269562,0.0165334,1028,1695,6.27768,-35.4711
-189,-671,6.29395,35.8829,0.00156434,0.00190954,0.00282333,0.00456554,-0.00109166,0.815927,0.00346538,0.012734,1035,1695,6.29391,-35.8829
-182,-671,6.26501,36.2057,0.00218194,0.00183055,0.00341721,0.00542797,-0.00141547,0.759713,0.00417131,0.01016,1042,1695,6.26499,-36.2057
-175,-671,6.27441,36.5109,0.00273892,0.00189169,0.00397767,0.00631547,-0.00168486,0.732349,0.00487007,0.012728,1049,1695,6.27443,-36.5109
-168,-671,6.28333,36.8295,0.00303914,0.00223106,0.0045356,0.00718866,-0.00191847,0.740974,0.00554371,0.0132099,1056,1695,6.28335,-36.8295
-161,-671,6.29199,37.1757,0.0031601,0.00261939,0.00495106,0.00784818,-0.00206869,0.758122,0.00604093,0.00944586,1063,1695,6.29193,-37.1756
-154,-671,6.30725,37.4862,0.00326219,0.00314738,0.00524417,0.00844927,-0.0020397,0.779925,0.00642165,0.00881306,1070,1695,6.30726,-37.4862
-147,-671,6.30212,37.8193,0.00331018,0.00380174,0.00551002,0.00907146,-0.00195954,0.807686,0.00679565,0.00976638,1077,1695,6.30209,-37.8193
-140,-671,6.33008,38.1205,0.0033277,0.00438129,0.00568246,0.00956132,-0.00185233,0.831619,0.00707298,0.0129214,1084,1695,6.33014,-38.1205
-133,-671,6.34998,38.407,0.00342543,0.00502647,0.00567257,0.00995473,-0.00150283,0.855496,0.00718997,0.0177606,1091,1695,6.34997,-38.407
-126,-671,6.38904,38.7422,0.00323268,0.00531576,0.00542289,0.00979622,-0.00124778,0.880275,0.006984,0.0256733,1098,1695,6.38903,-38.7422
-119,-671,6.43359,39.2977,0.00332005,0.00588657,0.00475372,0.00952719,-0.000320568,0.917231,0.00646097,0.0442275,1105,1695,6.43363,-39.2978
-112,-671,6.42053,39.954,0,0,0,0,0,0,0,-1,1112,1695,6.42053,-39.954
-105,-671,6.78906,38.963,0,0,0,0,0,0,0,-1,1119,1695,6.78904,-38.9631
-98,-671,6.28479,40.3073,0,0,0,0,0,0,0,-1,1126,1695,6.28475,-40.3072
-91,-671,6.40063,38.2443,0,0,0,0,0,0,0,-1,1133,1695,6.40059,-38.2442
-84,-671,5.4209,26.2415,0,0,0,0,0,0,0,-1,1140,1695,5.42096,-26.2414
-77,-671,4.31763,16.489,0,0,0,0,0,0,0,-1,1147,1695,4.31757,-16.489
-70,-671,3.06067,10.7737,0,0,0,0,0,0,0,-1,1154,1695,3.0607,-10.7737
-63,-671,2.94592,6.90198,0,0,0,0,0,0,0,-1,1161,1695,2.94594,-6.90198
-56,-671,-3.07678,2.87976,0,0,0,0,0,0,0,-1,1168,1695,-3.07675,-2.87979
-49,-671,-1.05957,4.76917,0,0,0,0,0,0,0,-1,1175,1695,-1.05958,-4.76921
-42,-671,0.539307,3.7865,0,0,0,0,0,0,0,-1,1182,1695,0.539266,-3.78648
-35,-671,-0.272461,0.347534,0,0,0,0,0,0,0,-1,1189,1695,-0.272434,-0.347569
-28,-671,-10.4878,17.2009,0,0,0,0,0,0,0,-1,1196,1695,-10.4878,-17.2009
-21,-671,7.20227,41.3729,0,0,0,0,0,0,0,-1,1203,1695,7.20222,-41.373
-14,-671,6.45093,41.9459,0,0,0,0,0,0,0,-1,1210,1695,6.45089,-41.9459
-7,-671,8.03516,42.1027,0.0715275,-0.0216206,0.0713714,0.110177,-0.0602699,0.496312,0.0998036,0.0486963,1217,1695,8.0352,-42.1027
0,-671,8.58081,42.4368,0.0887311,0.000326131,0.0792338,0.135258,-0.0462009,0.530964,0.10889,0.047736,1224,1695,8.58079,-42.4368
7,-671,8.703,42.6787,0.106972,0.0250596,0.0856366,0.160942,-0.0289107,0.562348,0.118117,0.0470919,1231,1695,8.703,-42.6787
14,-671,8.56812,42.7827,0.12268,0.0481621,0.0888237,0.181743,-0.0109008,0.586809,0.124954,0.0476606,1238,1695,8.56806,-42.7827
21,-671,8.26514,44.9596,0,0,0,0,0,0,0,-1,1245,1695,8.26512,-44.9596
28,-671,8.2251,45.1575,0.139107,0.0798962,0.0832123,0.197823,0.0211795,0.614491,0.12542,0.0485124,1252,1695,8.2251,-45.1575
35,-671,11.4575,58.9666,0.137015,0.085533,0.0734088,0.189065,0.033483,0.616769,0.116498,0.0460485,1259,1695,11.4575,-58.9666
42,-671,11.0898,58.2064,0.127989,0.0848468,0.0593204,0.169538,0.043297,0.611014,0.101713,0.0450057,1266,1695,11.0898,-58.2064
49,-671,10.755,57.7557,0.114064,0.0785285,0.042778,0.142617,0.0499751,0.588564,0.0835595,0.0444519,1273,1695,10.7551,-57.7558
56,-671,10.1824,57.5753,0.0984678,0.0684719,0.0250283,0.112648,0.0542919,0.515467,0.0650514,0.0441036,1280,1695,10.1824,-57.5753
63,-671,7.90161,55.894,0,0,0,0,0,0,0,-1,1287,1695,7.90164,-55.8941
70,-671,8.74866,42.8866,0,0,0,0,0,0,0,-1,1294,1695,8.74867,-42.8866
77,-671,13.4352,36.9342,0,0,0,0,0,0,0,-1,1301,1695,13.4351,-36.9343
84,-671,8.89282,43.9406,0,0,0,0,0,0,0,-1,1308,1695,8.89277,-43.9405
91,-671,8.80078,44.1052,0.0316284,0.0139801,-0.0524892,0.07603,-0.0304215,-0.70212,0.0633122,0.0470334,1315,1695,8.80083,-44.1052
98,-671,8.36267,42.9862,0.0278675,0.0036179,-0.0606622,0.0776048,-0.0461194,-0.686761,0.0721991,0.0422557,1322,1695,8.36269,-42.9863
105,-671,8.35693,42.6543,0.0344071,0.00756955,-0.0621654,0.0845855,-0.0426089,-0.679101,0.0747568,0.0421827,1329,1695,8.35691,-42.6544
112,-671,8.30884,42.2825,0.0417713,0.00986383,-0.0616357,0.0894846,-0.0378494,-0.658758,0.0755042,0.0427447,1336,1695,8.3088,-42.2825
119,-671,8.31909,42.0813,0,0,0,0,0,0,0,-1,1343,1695,8.31906,-42.0812
126,-671,6.56909,35.9543,0,0,0,0,0,0,0,-1,1350,1695,6.56915,-35.9543
133,-671,7.05798,34.2065,0,0,0,0,0,0,0,-1,1357,1695,7.05804,-34.2066
140,-671,7.5929,32.7568,0,0,0,0,0,0,0,-1,1364,1695,7.59286,-32.7568
147,-671,8.20984,31.3398,0,0,0,0,0,0,0,-1,1371,1695,8.20982,-31.3398
154,-671,8.96277,40.5876,0,0,0,0,0,0,0,-1,1378,1695,8.96276,-40.5876
161,-671,4.49292,4.91272,0,0,0,0,0,0,0,-1,1385,1695,4.49297,-4.91273
168,-671,5.17639,6.1416,0,0,0,0,0,0,0,-1,1392,1695,5.1764,-6.14164
175,-671,5.6731,1.64685,0,0,0,0,0,0,0,-1,1399,1695,5.67313,-1.64691
182,-671,5.56812,1.71692,0,0,0,0,0,0,0,-1,1406,1695,5.56809,-1.71686
189,-671,6.98315,6.36169,0,0,0,0,0,0,0,-1,1413,1695,6.98312,-6.36175
196,-671,5.38123,5.69775,0,0,0,0,0,0,0,-1,1420,1695,5.38125,-5.69769
203,-671,5.95117,8.11658,0,0,0,0,0,0,0,-1,1427,1695,5.9512,-8.11662
210,-671,4.73596,8.39624,0,0,0,0,0,0,0,-1,1434,1695,4.736,-8.39618
217,-671,5.37097,11.863,0,0,0,0,0,0,0,-1,1441,1695,5.37094,-11.863
224,-671,5.08167,13.6694,0,0,0,0,0,0,0,-1,1448,1695,5.08165,-13.6695
231,-671,5.66663,15.3348,0,0,0,0,0,0,0,-1,1455,1695,5.66667,-15.3349
238,-671,6.32959,16.2036,0,0,0,0,0,0,0,-1,1462,1695,6.32961,-16.2037
245,-671,10.2056,37.8407,0,0,0,0,0,0,0,-1,1469,1695,10.2056,-37.8407
252,-671,10.1697,38.8379,0,0,0,0,0,0,0,-1,1476,1695,10.1697,-38.8379
259,-671,10.1063,38.4919,0,0,0,0,0,0,0,-1,1483,1695,10.1063,-38.492
266,-671,10.1924,38.4142,0.00224906,0.0054684,0.00143133,0.00601273,0.00170473,1.20739,0.00357827,0.0331294,1490,1695,10.1923,-38.4142
273,-671,10.2419,38.1909,0.00160213,0.00501185,0.00192253,0.00587655,0.000737425,1.14813,0.00369649,0.0104721,1497,1695,10.2419,-38.1909
280,-671,10.25,37.9194,0.00146431,0.00522537,0.00176553,0.00592427,0.000765406,1.19386,0.00372072,0.0090865,1504,1695,10.25,-37.9194
287,-671,10.2614,37.551,0.00141764,0.00523487,0.00153489,0.00577548,0.000877036,1.23215,0.00359383,0.0110481,1511,1695,10.2614,-37.551
294,-671,10.2612,37.2268,0.00156109,0.00546905,0.00101178,0.00571547,0.00131467,1.3319,0.00345646,0.0109974,1518,1695,10.2612,-37.2267
301,-671,10.2861,36.9507,0.00172091,0.00545808,0.000414894,0.00550359,0.0016754,1.46155,0.00325752,0.0107193,1525,1695,10.2861,-36.9506
308,-671,10.2948,36.6675,0.00187085,0.00540053,-0.000255282,0.00541889,0.00185248,-1.49897,0.00318034,0.0123603,1532,1695,10.2948,-36.6675
315,-671,10.3063,36.3445,0.00199954,0.00521985,-0.000833898,0.00542298,0.00179642,-1.33186,0.00318983,0.013702,1539,1695,10.3063,-36.3445
322,-671,10.3221,36.0466,0.00204396,0.00498276,-0.00132593,0.00549256,0.00153416,-1.20374,0.00327247,0.0152385,1546,1695,10.3221,-36.0466
329,-671,10.285,35.7422,0.00200613,0.00456263,-0.00173412,0.0054387,0.00113006,-1.103,0.00331397,0.0137489,1553,1695,10.285,-35.7422
336,-671,10.2888,35.354,0.00186842,0.0040626,-0.00192861,0.00518432,0.000746691,-1.044,0.00323616,0.0115169,1560,1695,10.2889,-35.354
343,-671,10.3329,34.9697,0.00164672,0.00330703,-0.00208602,0.00472201,0.000231742,-0.974772,0.00307368,0.0119023,1567,1695,10.3329,-34.9697
350,-671,10.3147,34.6515,0.00148306,0.00234803,-0.00210595,0.00406544,-0.00023435,-0.886672,0.00279169,0.0122942,1574,1695,10.3146,-34.6515
357,-671,10.2712,34.2526,0.0013245,0.000969275,-0.00188383,0.00303908,-0.000745297,-0.738395,0.00231483,0.0113575,1581,1695,10.2713,-34.2525
364,-671,10.2644,33.8757,0.0011036,-0.000363204,-0.00158087,0.0021129,-0.0013725,-0.568211,0.00202738,0.0123781,1588,1695,10.2645,-33.8757
371,-671,10.2411,33.5293,0.000858119,-0.00178484,-0.00121108,0.00132913,-0.00225585,-0.370917,0.00209271,0.01446,1595,1695,10.2411,-33.5293
378,-671,10.2277,33.1559,0.000579867,-0.00391577,-0.000538878,0.000643559,-0.00397946,-0.117647,0.00289147,0.0125587,1602,1695,10.2277,-33.1558
385,-671,10.2072,32.7532,0.000746557,-0.00564902,-0.000157838,0.00075045,-0.00565292,-0.0246592,0.00404205,0.0152125,1609,1695,10.2072,-32.7532
392,-671,10.1726,32.4032,0.00120762,-0.00782632,8.58325e-05,0.00120844,-0.00782714,0.00949996,0.00566404,0.0204392,1616,1695,10.1726,-32.4031
399,-671,10.1718,32.0022,0.00168139,-0.00970834,0.000250802,0.00168691,-0.00971386,0.0220058,0.00710528,0.0149873,1623,1695,10.1718,-32.0023
406,-671,10.2234,31.6071,0.00225977,-0.0113645,0.000485102,0.00227702,-0.0113818,0.0355456,0.00844976,0.0194729,1630,1695,10.2234,-31.6071
413,-671,10.1659,31.3092,0.00349427,-0.0116245,0.00108815,0.00357218,-0.0117024,0.0714823,0.00922582,0.0346227,1637,1695,10.1659,-31.3092
420,-671,10.2001,30.8387,0,0,0,0,0,0,0,-1,1644,1695,10.2001,-30.8387
427,-671,9.31738,21.7188,0,0,0,0,0,0,0,-1,1651,1695,9.31735,-21.7187
434,-671,9.66528,26.177,0,0,0,0,0,0,0,-1,1658,1695,9.66528,-26.177
441,-671,8.34961,20.6522,0,0,0,0,0,0,0,-1,1665,1695,8.34964,-20.6522
448,-671,7.44873,20.2306,0,0,0,0,0,0,0,-1,1672,1695,7.44872,-20.2306
455,-671,6.62805,19.8612,0,0,0,0,0,0,0,-1,1679,1695,6.62811,-19.8612
462,-671,5.86255,4.47961,0,0,0,0,0,0,0,-1,1686,1695,5.8625,-4.4796
469,-671,3.71301,3.76978,0,0,0,0,0,0,0,-1,1693,1695,3.71297,-3.76974
476,-671,3.75574,3.18848,0,0,0,0,0,0,0,-1,1700,1695,3.7558,-3.18847
483,-671,7.81824,12.1041,0,0,0,0,0,0,0,-1,1707,1695,7.81826,-12.1041
490,-671,0,0,0,0,0,0,0,0,0,-1,1714,1695,0,0
497,-671,0,0,0,0,0,0,0,0,0,-1,1721,1695,0,0
504,-671,0,0,0,0,0,0,0,0,0,-1,1728,1695,0,0
511,-671,0,0,0,0,0,0,0,0,0,-1,1735,1695,0,0
518,-671,0,0,0,0,0,0,0,0,0,-1,1742,1695,0,0
525,-671,0,0,0,0,0,0,0,0,0,-1,1749,1695,0,0
532,-671,0,0,0,0,0,0,0,0,0,-1,1756,1695,0,0
539,-671,0,0,0,0,0,0,0,0,0,-1,1763,1695,0,0
546,-671,0,0,0,0,0,0,0,0,0,-1,1770,1695,0,0
553,-671,0,0,0,0,0,0,0,0,0,-1,1777,1695,0,0
560,-671,0,0,0,0,0,0,0,0,0,-1,1784,1695,0,0
567,-671,0,0,0,0,0,0,0,0,0,-1,1791,1695,0,0
574,-671,0,0,0,0,0,0,0,0,0,-1,1798,1695,0,0
581,-671,0,0,0,0,0,0,0,0,0,-1,1805,1695,0,0
588,-671,0,0,0,0,0,0,0,0,0,-1,1812,1695,0,0
595,-671,0,0,0,0,0,0,0,0,0,-1,1819,1695,0,0
602,-671,0,0,0,0,0,0,0,0,0,-1,1826,1695,0,0
609,-671,0,0,0,0,0,0,0,0,0,-1,1833,1695,0,0
616,-671,0,0,0,0,0,0,0,0,0,-1,1840,1695,0,0
623,-671,0,0,0,0,0,0,0,0,0,-1,1847,1695,0,0
630,-671,0,0,0,0,0,0,0,0,0,-1,1854,1695,0,0
637,-671,0,0,0,0,0,0,0,0,0,-1,1861,1695,0,0
644,-671,0,0,0,0,0,0,0,0,0,-1,1868,1695,0,0
651,-671,0,0,0,0,0,0,0,0,0,-1,1875,1695,0,0
658,-671,0,0,0,0,0,0,0,0,0,-1,1882,1695,0,0
665,-671,0,0,0,0,0,0,0,0,0,-1,1889,1695,0,0
672,-671,0,0,0,0,0,0,0,0,0,-1,1896,1695,0,0
679,-671,0,0,0,0,0,0,0,0,0,-1,1903,1695,0,0
686,-671,0,0,0,0,0,0,0,0,0,-1,1910,1695,0,0
693,-671,0,0,0,0,0,0,0,0,0,-1,1917,1695,0,0
700,-671,0,0,0,0,0,0,0,0,0,-1,1924,1695,0,0
707,-671,0,0,0,0,0,0,0,0,0,-1,1931,1695,0,0
714,-671,0,0,0,0,0,0,0,0,0,-1,1938,1695,0,0
721,-671,0,0,0,0,0,0,0,0,0,-1,1945,1695,0,0
728,-671,0,0,0,0,0,0,0,0,0,-1,1952,1695,0,0
735,-671,0,0,0,0,0,0,0,0,0,-1,1959,1695,0,0
742,-671,0,0,0,0,0,0,0,0,0,-1,1966,1695,0,0
749,-671,0,0,0,0,0,0,0,0,0,-1,1973,1695,0,0
756,-671,0,0,0,0,0,0,0,0,0,-1,1980,1695,0,0
763,-671,0,0,0,0,0,0,0,0,0,-1,1987,1695,0,0
770,-671,0,0,0,0,0,0,0,0,0,-1,1994,1695,0,0
777,-671,0,0,0,0,0,0,0,0,0,-1,2001,1695,0,0
784,-671,0,0,0,0,0,0,0,0,0,-1,2008,1695,0,0
791,-671,0,0,0,0,0,0,0,0,0,-1,2015,1695,0,0
798,-671,0,0,0,0,0,0,0,0,0,-1,2022,1695,0,0
805,-671,0,0,0,0,0,0,0,0,0,-1,2029,1695,0,0
812,-671,0,0,0,0,0,0,0,0,0,-1,2036,1695,0,0
-700,-678,0,0,0,0,0,0,0,0,0,-1,524,1702,0,0
-693,-678,0,0,0,0,0,0,0,0,0,-1,531,1702,0,0
-686,-678,0,0,0,0,0,0,0,0,0,-1,538,1702,0,0
-679,-678,0,0,0,0,0,0,0,0,0,-1,545,1702,0,0
-672,-678,0,0,0,0,0,0,0,0,0,-1,552,1702,0,0
-665,-678,0,0,0,0,0,0,0,0,0,-1,559,1702,0,0
-658,-678,0,0,0,0,0,0,0,0,0,-1,566,1702,0,0
-651,-678,0,0,0,0,0,0,0,0,0,-1,573,1702,0,0
-644,-678,0,0,0,0,0,0,0,0,0,-1,580,1702,0,0
-637,-678,0,0,0,0,0,0,0,0,0,-1,587,1702,0,0
-630,-678,0,0,0,0,0,0,0,0,0,-1,594,1702,0,0
-623,-678,0,0,0,0,0,0,0,0,0,-1,601,1702,0,0
-616,-678,0,0,0,0,0,0,0,0,0,-1,608,1702,0,0
-609,-678,0,0,0,0,0,0,0,0,0,-1,615,1702,0,0
-602,-678,0,0,0,0,0,0,0,0,0,-1,622,1702,0,0
-595,-678,0,0,0,0,0,0,0,0,0,-1,629,1702,0,0
-588,-678,0,0,0,0,0,0,0,0,0,-1,636,1702,0,0
-581,-678,0,0,0,0,0,0,0,0,0,-1,643,1702,0,0
-574,-678,0,0,0,0,0,0,0,0,0,-1,650,1702,0,0
-567,-678,0,0,0,0,0,0,0,0,0,-1,657,1702,0,0
-560,-678,0,0,0,0,0,0,0,0,0,-1,664,1702,0,0
-553,-678,0,0,0,0,0,0,0,0,0,-1,671,1702,0,0
-546,-678,0,0,0,0,0,0,0,0,0,-1,678,1702,0,0
-539,-678,0,0,0,0,0,0,0,0,0,-1,685,1702,0,0
-532,-678,0,0,0,0,0,0,0,0,0,-1,692,1702,0,0
-525,-678,0,0,0,0,0,0,0,0,0,-1,699,1702,0,0
-518,-678,0,0,0,0,0,0,0,0,0,-1,706,1702,0,0
-511,-678,0,0,0,0,0,0,0,0,0,-1,713,1702,0,0
-504,-678,0,0,0,0,0,0,0,0,0,-1,720,1702,0,0
-497,-678,0,0,0,0,0,0,0,0,0,-1,727,1702,0,0
-490,-678,0,0,0,0,0,0,0,0,0,-1,734,1702,0,0
-483,-678,0,0,0,0,0,0,0,0,0,-1,741,1702,0,0
-476,-678,0,0,0,0,0,0,0,0,0,-1,748,1702,0,0
-469,-678,0,0,0,0,0,0,0,0,0,-1,755,1702,0,0
-462,-678,0,0,0,0,0,0,0,0,0,-1,762,1702,0,0
-455,-678,0,0,0,0,0,0,0,0,0,-1,769,1702,0,0
-448,-678,0,0,0,0,0,0,0,0,0,-1,776,1702,0,0
-441,-678,0,0,0,0,0,0,0,0,0,-1,783,1702,0,0
-434,-678,0,0,0,0,0,0,0,0,0,-1,790,1702,0,0
-427,-678,0,0,0,0,0,0,0,0,0,-1,797,1702,0,0
-420,-678,0,0,0,0,0,0,0,0,0,-1,804,1702,0,0
-413,-678,0,0,0,0,0,0,0,0,0,-1,811,1702,0,0
-406,-678,0,0,0,0,0,0,0,0,0,-1,818,1702,0,0
-399,-678,0,0,0,0,0,0,0,0,0,-1,825,1702,0,0
-392,-678,0,0,0,0,0,0,0,0,0,-1,832,1702,0,0
-385,-678,0,0,0,0,0,0,0,0,0,-1,839,1702,0,0
-378,-678,0,0,0,0,0,0,0,0,0,-1,846,1702,0,0
-371,-678,0,0,0,0,0,0,0,0,0,-1,853,1702,0,0
-364,-678,0,0,0,0,0,0,0,0,0,-1,860,1702,0,0
-357,-678,0,0,0,0,0,0,0,0,0,-1,867,1702,0,0
-350,-678,-5.79944,6.11865,0,0,0,0,0,0,0,-1,874,1702,-5.79942,-6.11864
-343,-678,-6.44891,4.52759,0,0,0,0,0,0,0,-1,881,1702,-6.4489,-4.52758
-336,-678,4.8537,26.4368,0,0,0,0,0,0,0,-1,888,1702,4.85368,-26.4368
-329,-678,5.70953,26.5249,0,0,0,0,0,0,0,-1,895,1702,5.70955,-26.5249
-322,-678,3.78455,20.3917,0,0,0,0,0,0,0,-1,902,1702,3.78457,-20.3917
-315,-678,4.74176,22.3245,0,0,0,0,0,0,0,-1,909,1702,4.74178,-22.3244
-308,-678,7.17871,29.3369,0,0,0,0,0,0,0,-1,916,1702,7.17871,-29.3369
-301,-678,7.55505,29.7646,0,0,0,0,0,0,0,-1,923,1702,7.55508,-29.7647
-294,-678,7.65735,30.4188,0,0,0,0,0,0,0,-1,930,1702,7.65736,-30.4188
-287,-678,7.35364,30.4366,0,0,0,0,0,0,0,-1,937,1702,7.35363,-30.4366
-280,-678,7.3714,30.8151,-0.00788942,0.000160567,-0.00452751,0.00219354,-0.00992239,-1.14875,0.00745447,0.0484744,944,1702,7.3714,-30.815
-273,-678,7.19904,31.2548,-0.00868032,-1.61069e-05,-0.00584171,0.00292453,-0.011621,-1.10444,0.00888408,0.0446059,951,1702,7.19906,-31.2548
-266,-678,6.85394,31.8026,-0.00865431,0.000237802,-0.00621965,0.0034371,-0.0118536,-1.09571,0.00926316,0.0363337,958,1702,6.85395,-31.8026
-259,-678,6.73999,32.0796,-0.00831605,0.000544602,-0.00622414,0.00375416,-0.0115256,-1.0947,0.00919425,0.0232865,965,1702,6.74,-32.0797
-252,-678,6.78516,32.4113,-0.00795607,0.000880188,-0.0058225,0.00377105,-0.0108469,-1.10995,0.00876308,0.0171086,972,1702,6.78516,-32.4112
-245,-678,6.77399,32.8107,-0.0073758,0.001519,-0.00498286,0.00375054,-0.00960734,-1.14974,0.00795544,0.0180774,979,1702,6.77399,-32.8107
-238,-678,6.72522,33.219,-0.00659546,0.00228549,-0.00392488,0.00377143,-0.00808141,-1.20888,0.00699242,0.0150297,986,1702,6.72524,-33.219
-231,-678,6.69324,33.6394,-0.00581976,0.00260704,-0.00281057,0.00345843,-0.00667114,-1.27666,0.00594555,0.0122132,993,1702,6.69325,-33.6394
-224,-678,6.66345,34.0178,-0.0047935,0.0028125,-0.00174288,0.00319286,-0.00517386,-1.35593,0.00487545,0.0124341,1000,1702,6.66345,-34.0178
-217,-678,6.66064,34.3884,-0.0036653,0.00280345,-0.000805445,0.00290223,-0.00376408,-1.44877,0.0038595,0.0134825,1007,1702,6.66062,-34.3884
-210,-678,6.65424,34.7856,-0.00254343,0.00272954,4.4421e-05,0.00272991,-0.00254381,1.56237,0.00304541,0.0141103,1014,1702,6.65426,-34.7856
-203,-678,6.64563,35.1365,-0.00165799,0.00248376,0.000802858,0.00263395,-0.00180817,1.38587,0.00257939,0.0185856,1021,1702,6.6456,-35.1364
-196,-678,6.62476,35.4978,-0.000818171,0.00213985,0.00143112,0.00271889,-0.00139721,1.18633,0.00241692,0.017866,1028,1702,6.62478,-35.4978
-189,-678,6.62305,35.8781,-2.58492e-05,0.00176096,0.00207196,0.00312393,-0.00138881,0.988948,0.00266886,0.0110357,1035,1702,6.62299,-35.8781
-182,-678,6.61536,36.2264,0.000714957,0.00152379,0.0024846,0.00363668,-0.00139793,0.866075,0.00300099,0.0104444,1042,1702,6.61533,-36.2264
-175,-678,6.6062,36.5546,0.00144353,0.00151248,0.00284976,0.00432797,-0.00137197,0.791447,0.00343521,0.0110109,1049,1702,6.60616,-36.5546
-168,-678,6.61401,36.877,0.00186964,0.00174309,0.00319223,0.00499922,-0.0013865,0.775488,0.00387849,0.0101901,1056,1702,6.61402,-36.8769
-161,-678,6.61707,37.2036,0.00207949,0.00205274,0.00340949,0.00547563,-0.0013434,0.783437,0.00417097,0.0088763,1063,1702,6.61706,-37.2036
-154,-678,6.61426,37.5236,0.00229928,0.00247506,0.00357681,0.00596506,-0.00119073,0.797682,0.00442732,0.00835656,1070,1702,6.61427,-37.5236
-147,-678,6.60535,37.8306,0.00250988,0.0029423,0.00370229,0.00643469,-0.000982505,0.814565,0.00465201,0.0103826,1077,1702,6.60535,-37.8306
-140,-678,6.63379,38.129,0.00265486,0.0033413,0.00375715,0.00677088,-0.000774714,0.830947,0.00479307,0.0119615,1084,1702,6.63382,-38.129
-133,-678,6.66113,38.4084,0.00285518,0.00373696,0.00369169,0.00701399,-0.000421852,0.844831,0.00482276,0.0128418,1091,1702,6.66115,-38.4085
-126,-678,6.67358,38.7103,0.00289504,0.00383206,0.00340849,0.00680409,-7.69827e-05,0.853697,0.00456194,0.0126425,1098,1702,6.67364,-38.7104
-119,-678,6.71582,39.2452,0.0031447,0.00405731,0.00287189,0.00650892,0.000693085,0.864183,0.0041277,0.0337256,1105,1702,6.71577,-39.2453
-112,-678,6.77063,39.762,0,0,0,0,0,0,0,-1,1112,1702,6.7706,-39.7619
-105,-678,6.70215,39.6022,0,0,0,0,0,0,0,-1,1119,1702,6.70219,-39.6022
-98,-678,6.71375,39.9469,0,0,0,0,0,0,0,-1,1126,1702,6.7137,-39.9469
-91,-678,6.84863,39.8979,0,0,0,0,0,0,0,-1,1133,1702,6.84865,-39.8979
-84,-678,6.58545,36.5073,0,0,0,0,0,0,0,-1,1140,1702,6.58544,-36.5073
-77,-678,5.95154,29.1879,0,0,0,0,0,0,0,-1,1147,1702,5.95156,-29.1878
-70,-678,4.75891,19.6552,0,0,0,0,0,0,0,-1,1154,1702,4.75895,-19.6551
-63,-678,3.41687,11.0365,0,0,0,0,0,0,0,-1,1161,1702,3.41682,-11.0365
-56,-678,1.72388,6.13159,0,0,0,0,0,0,0,-1,1168,1702,1.72388,-6.13157
-49,-678,-0.241699,5.29895,0,0,0,0,0,0,0,-1,1175,1702,-0.241682,-5.29897
-42,-678,0.297119,3.90649,0,0,0,0,0,0,0,-1,1182,1702,0.297139,-3.90655
-35,-678,0.498413,3.64038,0,0,0,0,0,0,0,-1,1189,1702,0.498471,-3.64038
-28,-678,0.132446,3.55994,0,0,0,0,0,0,0,-1,1196,1702,0.132432,-3.55993
-21,-678,6.96533,41.8337,0,0,0,0,0,0,0,-1,1203,1702,6.96531,-41.8338
-14,-678,7.07874,41.9318,0,0,0,0,0,0,0,-1,1210,1702,7.07878,-41.9318
-7,-678,7.69373,42.1387,0,0,0,0,0,0,0,-1,1217,1702,7.69376,-42.1387
0,-678,7.94617,42.4517,0.0835115,0.0179585,0.0667509,0.125099,-0.0236289,0.557176,0.0922894,0.0479908,1224,1702,7.94612,-42.4517
7,-678,8.08411,42.4978,0.0965711,0.0362867,0.0707765,0.143357,-0.0104988,0.584091,0.0992559,0.0463089,1231,1702,8.08411,-42.4977
14,-678,8.14917,42.549,0.108038,0.0536361,0.0726588,0.15842,0.00325346,0.606292,0.104546,0.0474893,1238,1702,8.14914,-42.549
21,-678,8.22498,44.0331,0.11675,0.0682196,0.0720305,0.168493,0.0164771,0.62293,0.107259,0.0470239,1245,1702,8.22499,-44.033
28,-678,8.28711,44.1012,0.120274,0.0772449,0.0679136,0.169999,0.0275193,0.632004,0.105365,0.0455168,1252,1702,8.2871,-44.1012
35,-678,8.54163,44.3588,0.118412,0.0809308,0.0603015,0.162818,0.0365249,0.634739,0.0986506,0.046274,1259,1702,8.54167,-44.3587
42,-678,11.6138,58.6045,0,0,0,0,0,0,0,-1,1266,1702,11.6138,-58.6045
49,-678,11.525,58.1255,0,0,0,0,0,0,0,-1,1273,1702,11.525,-58.1255
56,-678,7.93359,43.6246,0,0,0,0,0,0,0,-1,1280,1702,7.93362,-43.6247
63,-678,7.91235,43.4543,0,0,0,0,0,0,0,-1,1287,1702,7.91234,-43.4543
70,-678,8.24854,43.5321,0,0,0,0,0,0,0,-1,1294,1702,8.24856,-43.5321
77,-678,8.53064,43.4949,0,0,0,0,0,0,0,-1,1301,1702,8.53059,-43.4949
84,-678,8.81494,43.5648,0,0,0,0,0,0,0,-1,1308,1702,8.81495,-43.5648
91,-678,8.94739,43.3756,0.0247212,0.0122066,-0.041624,0.0605555,-0.0236278,-0.710792,0.0501377,0.0489897,1315,1702,8.9474,-43.3757
98,-678,8.92151,43.4889,0.0206862,0.00400027,-0.0479666,0.06103,-0.0363435,-0.699293,0.0568177,0.0454469,1322,1702,8.92153,-43.4889
105,-678,8.43604,42.3556,0.0252945,0.00672757,-0.0489517,0.0658352,-0.0338131,-0.691688,0.0585138,0.0383178,1329,1702,8.43605,-42.3555
112,-678,8.43188,41.8678,0.0306773,0.00824269,-0.0483057,0.0690511,-0.0301311,-0.671313,0.058714,0.0433936,1336,1702,8.43194,-41.8679
119,-678,8.65979,41.2419,0.0348014,0.00850976,-0.0476125,0.0710495,-0.0277384,-0.650704,0.058834,0.0458572,1343,1702,8.65983,-41.242
126,-678,9.11145,42.0776,0,0,0,0,0,0,0,-1,1350,1702,9.1115,-42.0777
133,-678,5.7959,33.6169,0,0,0,0,0,0,0,-1,1357,1702,5.79586,-33.6169
140,-678,9.99573,40.7964,0,0,0,0,0,0,0,-1,1364,1702,9.9957,-40.7963
147,-678,9.26453,41.2473,0,0,0,0,0,0,0,-1,1371,1702,9.26454,-41.2474
154,-678,8.45605,41.1947,0,0,0,0,0,0,0,-1,1378,1702,8.45611,-41.1947
161,-678,8.81226,34.8624,0,0,0,0,0,0,0,-1,1385,1702,8.81229,-34.8624
168,-678,4.21863,5.25781,0,0,0,0,0,0,0,-1,1392,1702,4.21865,-5.25781
175,-678,5.21899,5.9635,0,0,0,0,0,0,0,-1,1399,1702,5.21894,-5.96346
182,-678,7.31262,6.75122,0,0,0,0,0,0,0,-1,1406,1702,7.3126,-6.75123
189,-678,5.96021,6.36853,0,0,0,0,0,0,0,-1,1413,1702,5.96018,-6.36851
196,-678,5.01599,8.15771,0,0,0,0,0,0,0,-1,1420,1702,5.01596,-8.15767
203,-678,4.64771,13.0559,0,0,0,0,0,0,0,-1,1427,1702,4.64766,-13.0559
210,-678,5.6532,18.5957,0,0,0,0,0,0,0,-1,1434,1702,5.65318,-18.5958
217,-678,6.88049,23.4835,0,0,0,0,0,0,0,-1,1441,1702,6.88047,-23.4835
224,-678,8.521,32.0977,0,0,0,0,0,0,0,-1,1448,1702,8.52098,-32.0977
231,-678,9.59985,40.0214,0,0,0,0,0,0,0,-1,1455,1702,9.59981,-40.0214
238,-678,9.78748,39.6224,0,0,0,0,0,0,0,-1,1462,1702,9.78747,-39.6224
245,-678,9.89795,39.265,0,0,0,0,0,0,0,-1,1469,1702,9.89799,-39.265
252,-678,9.9248,39.0088,0.00246906,0.00138363,0.000544466,0.0026951,0.00115759,0.393503,0.00156116,0.028307,1476,1702,9.92477,-39.0088
259,-678,9.92102,38.7815,0.00222766,0.00226162,0.000267265,0.00251244,0.00197683,0.817121,0.00152804,0.0170531,1483,1702,9.92098,-38.7815
266,-678,9.96191,38.4707,0.00183127,0.00311475,0.000331148,0.00319515,0.00175086,1.33261,0.00184755,0.0127424,1490,1702,9.96187,-38.4706
273,-678,9.96606,38.2012,0.00141597,0.00311616,0.000787224,0.00342468,0.00110746,1.19729,0.00201794,0.0112553,1497,1702,9.96609,-38.2011
280,-678,9.94849,37.9274,0.00138431,0.00355541,0.000774225,0.00380322,0.00113651,1.26103,0.00225425,0.0108156,1504,1702,9.94848,-37.9274
287,-678,9.96802,37.6053,0.00145292,0.00383855,0.000687385,0.00402243,0.00126903,1.3094,0.00237448,0.0114484,1511,1702,9.96798,-37.6054
294,-678,9.97559,37.2715,0.0016817,0.00428447,0.000330146,0.00432569,0.00164048,1.44657,0.0025216,0.0119977,1518,1702,9.97562,-37.2715
301,-678,9.96448,36.9728,0.00190106,0.00450808,-0.000207865,0.00452455,0.00188459,-1.49173,0.00262435,0.0123386,1525,1702,9.96446,-36.9728
308,-678,9.94897,36.678,0.00204303,0.00466532,-0.000818498,0.00489982,0.00180852,-1.29176,0.00286105,0.0142248,1532,1702,9.94901,-36.678
315,-678,9.93628,36.3713,0.00218726,0.00467944,-0.00140007,0.00530763,0.00155907,-1.14904,0.00315007,0.0150807,1539,1702,9.93624,-36.3714
322,-678,9.93494,36.0801,0.00224332,0.004626,-0.00193416,0.00570628,0.00116303,-1.06143,0.00348187,0.017701,1546,1702,9.93499,-36.0801
329,-678,9.95398,35.7186,0.00219682,0.00434062,-0.00239506,0.0058927,0.000644743,-0.995803,0.00373216,0.0162211,1553,1702,9.95402,-35.7187
336,-678,9.94519,35.3354,0.00202954,0.00392723,-0.00263804,0.00578187,0.000174891,-0.958033,0.00379763,0.0133112,1560,1702,9.94519,-35.3355
343,-678,9.9563,34.9948,0.00177338,0.00310149,-0.00281017,0.005325,-0.000450132,-0.901422,0.00370916,0.0129613,1567,1702,9.95633,-34.9947
350,-678,9.95435,34.6467,0.00158786,0.00206924,-0.00284085,0.00467958,-0.00102248,-0.827659,0.00351054,0.0135355,1574,1702,9.95432,-34.6467
357,-678,9.9314,34.2711,0.00145287,0.000786159,-0.00269392,0.00383398,-0.00159495,-0.723839,0.00322203,0.0103868,1581,1702,9.93141,-34.2711
364,-678,9.90979,33.9114,0.00128905,-0.000642974,-0.00235132,0.00286506,-0.00221898,-0.590491,0.00294317,0.0113125,1588,1702,9.90973,-33.9114
371,-678,9.86743,33.5447,0.0010467,-0.00221504,-0.00184944,0.00188163,-0.00304996,-0.424059,0.00287377,0.0124415,1595,1702,9.86738,-33.5447
378,-678,9.84546,33.1654,0.000681991,-0.00505376,-0.0007955,0.000790276,-0.00516205,-0.13529,0.00373278,0.0133682,1602,1702,9.84551,-33.1654
385,-678,9.84277,32.7871,0.0010143,-0.00718489,-0.000300283,0.00102528,-0.00719587,-0.0365583,0.00517299,0.0143909,1609,1702,9.84282,-32.7871
392,-678,9.83752,32.4663,0.00167045,-0.00990413,6.25929e-05,0.00167079,-0.00990447,0.00540758,0.0072246,0.0237285,1616,1702,9.83751,-32.4663
399,-678,9.8407,32.1393,0.00237325,-0.0123239,0.000326373,0.00238049,-0.0123311,0.022192,0.00911843,0.0328562,1623,1702,9.84068,-32.1393
406,-678,9.91309,32.053,0.00322768,-0.0146306,0.000792534,0.00326278,-0.0146657,0.044263,0.0110269,0.0410438,1630,1702,9.91307,-32.0529
413,-678,9.948,31.6981,0,0,0,0,0,0,0,-1,1637,1702,9.94796,-31.6982
420,-678,9.6665,28.3398,0,0,0,0,0,0,0,-1,1644,1702,9.66649,-28.3398
427,-678,4.57483,10.1555,0,0,0,0,0,0,0,-1,1651,1702,4.57485,-10.1555
434,-678,9.48169,21.6665,0,0,0,0,0,0,0,-1,1658,1702,9.48169,-21.6665
441,-678,8.64539,21.1864,0,0,0,0,0,0,0,-1,1665,1702,8.64536,-21.1865
448,-678,7.62244,20.7195,0,0,0,0,0,0,0,-1,1672,1702,7.6224,-20.7195
455,-678,5.44678,5.54297,0,0,0,0,0,0,0,-1,1679,1702,5.44676,-5.54294
462,-678,3.86792,2.87402,0,0,0,0,0,0,0,-1,1686,1702,3.86796,-2.87406
469,-678,2.26587,1.98755,0,0,0,0,0,0,0,-1,1693,1702,2.26592,-1.98755
476,-678,0,0,0,0,0,0,0,0,0,-1,1700,1702,0,0
483,-678,0,0,0,0,0,0,0,0,0,-1,1707,1702,0,0
490,-678,0,0,0,0,0,0,0,0,0,-1,1714,1702,0,0
497,-678,0,0,0,0,0,0,0,0,0,-1,1721,1702,0,0
504,-678,0,0,0,0,0,0,0,0,0,-1,1728,1702,0,0
511,-678,0,0,0,0,0,0,0,0,0,-1,1735,1702,0,0
518,-678,0,0,0,0,0,0,0,0,0,-1,1742,1702,0,0
525,-678,0,0,0,0,0,0,0,0,0,-1,1749,1702,0,0
532,-678,0,0,0,0,0,0,0,0,0,-1,1756,1702,0,0
539,-678,0,0,0,0,0,0,0,0,0,-1,1763,1702,0,0
546,-678,0,0,0,0,0,0,0,0,0,-1,1770,1702,0,0
553,-678,0,0,0,0,0,0,0,0,0,-1,1777,1702,0,0
560,-678,0,0,0,0,0,0,0,0,0,-1,1784,1702,0,0
567,-678,0,0,0,0,0,0,0,0,0,-1,1791,1702,0,0
574,-678,0,0,0,0,0,0,0,0,0,-1,1798,1702,0,0
581,-678,0,0,0,0,0,0,0,0,0,-1,1805,1702,0,0
588,-678,0,0,0,0,0,0,0,0,0,-1,1812,1702,0,0
595,-678,0,0,0,0,0,0,0,0,0,-1,1819,1702,0,0
602,-678,0,0,0,0,0,0,0,0,0,-1,1826,1702,0,0
609,-678,0,0,0,0,0,0,0,0,0,-1,1833,1702,0,0
616,-678,0,0,0,0,0,0,0,0,0,-1,1840,1702,0,0
623,-678,0,0,0,0,0,0,0,0,0,-1,1847,1702,0,0
630,-678,0,0,0,0,0,0,0,0,0,-1,1854,1702,0,0
637,-678,0,0,0,0,0,0,0,0,0,-1,1861,1702,0,0
644,-678,0,0,0,0,0,0,0,0,0,-1,1868,1702,0,0
651,-678,0,0,0,0,0,0,0,0,0,-1,1875,1702,0,0
658,-678,0,0,0,0,0,0,0,0,0,-1,1882,1702,0,0
665,-678,0,0,0,0,0,0,0,0,0,-1,1889,1702,0,0
672,-678,0,0,0,0,0,0,0,0,0,-1,1896,1702,0,0
679,-678,0,0,0,0,0,0,0,0,0,-1,1903,1702,0,0
686,-678,0,0,0,0,0,0,0,0,0,-1,1910,1702,0,0
693,-678,0,0,0,0,0,0,0,0,0,-1,1917,1702,0,0
700,-678,0,0,0,0,0,0,0,0,0,-1,1924,1702,0,0
707,-678,0,0,0,0,0,0,0,0,0,-1,1931,1702,0,0
714,-678,0,0,0,0,0,0,0,0,0,-1,1938,1702,0,0
721,-678,0,0,0,0,0,0,0,0,0,-1,1945,1702,0,0
728,-678,0,0,0,0,0,0,0,0,0,-1,1952,1702,0,0
735,-678,0,0,0,0,0,0,0,0,0,-1,1959,1702,0,0
742,-678,0,0,0,0,0,0,0,0,0,-1,1966,1702,0,0
749,-678,0,0,0,0,0,0,0,0,0,-1,1973,1702,0,0
756,-678,0,0,0,0,0,0,0,0,0,-1,1980,1702,0,0
763,-678,0,0,0,0,0,0,0,0,0,-1,1987,1702,0,0
770,-678,0,0,0,0,0,0,0,0,0,-1,1994,1702,0,0
777,-678,0,0,0,0,0,0,0,0,0,-1,2001,1702,0,0
784,-678,0,0,0,0,0,0,0,0,0,-1,2008,1702,0,0
791,-678,0,0,0,0,0,0,0,0,0,-1,2015,1702,0,0
798,-678,0,0,0,0,0,0,0,0,0,-1,2022,1702,0,0
805,-678,0,0,0,0,0,0,0,0,0,-1,2029,1702,0,0
812,-678,0,0,0,0,0,0,0,0,0,-1,2036,1702,0,0
-700,-685,0,0,0,0,0,0,0,0,0,-1,524,1709,0,0
-693,-685,0,0,0,0,0,0,0,0,0,-1,531,1709,0,0
-686,-685,0,0,0,0,0,0,0,0,0,-1,538,1709,0,0
-679,-685,0,0,0,0,0,0,0,0,0,-1,545,1709,0,0
-672,-685,0,0,0,0,0,0,0,0,0,-1,552,1709,0,0
-665,-685,0,0,0,0,0,0,0,0,0,-1,559,1709,0,0
-658,-685,0,0,0,0,0,0,0,0,0,-1,566,1709,0,0
-651,-685,0,0,0,0,0,0,0,0,0,-1,573,1709,0,0
-644,-685,0,0,0,0,0,0,0,0,0,-1,580,1709,0,0
-637,-685,0,0,0,0,0,0,0,0,0,-1,587,1709,0,0
-630,-685,0,0,0,0,0,0,0,0,0,-1,594,1709,0,0
-623,-685,0,0,0,0,0,0,0,0,0,-1,601,1709,0,0
-616,-685,0,0,0,0,0,0,0,0,0,-1,608,1709,0,0
-609,-685,0,0,0,0,0,0,0,0,0,-1,615,1709,0,0
-602,-685,0,0,0,0,0,0,0,0,0,-1,622,1709,0,0
-595,-685,0,0,0,0,0,0,0,0,0,-1,629,1709,0,0
-588,-685,0,0,0,0,0,0,0,0,0,-1,636,1709,0,0
-581,-685,0,0,0,0,0,0,0,0,0,-1,643,1709,0,0
-574,-685,0,0,0,0,0,0,0,0,0,-1,650,1709,0,0
-567,-685,0,0,0,0,0,0,0,0,0,-1,657,1709,0,0
-560,-685,0,0,0,0,0,0,0,0,0,-1,664,1709,0,0
-553,-685,0,0,0,0,0,0,0,0,0,-1,671,1709,0,0
-546,-685,0,0,0,0,0,0,0,0,0,-1,678,1709,0,0
-539,-685,0,0,0,0,0,0,0,0,0,-1,685,1709,0,0
-532,-685,0,0,0,0,0,0,0,0,0,-1,692,1709,0,0
-525,-685,0,0,0,0,0,0,0,0,0,-1,699,1709,0,0
-518,-685,0,0,0,0,0,0,0,0,0,-1,706,1709,0,0
-511,-685,0,0,0,0,0,0,0,0,0,-1,713,1709,0,0
-504,-685,0,0,0,0,0,0,0,0,0,-1,720,1709,0,0
-497,-685,0,0,0,0,0,0,0,0,0,-1,727,1709,0,0
-490,-685,0,0,0,0,0,0,0,0,0,-1,734,1709,0,0
-483,-685,0,0,0,0,0,0,0,0,0,-1,741,1709,0,0
-476,-685,0,0,0,0,0,0,0,0,0,-1,748,1709,0,0
-469,-685,0,0,0,0,0,0,0,0,0,-1,755,1709,0,0
-462,-685,0,0,0,0,0,0,0,0,0,-1,762,1709,0,0
-455,-685,0,0,0,0,0,0,0,0,0,-1,769,1709,0,0
-448,-685,0,0,0,0,0,0,0,0,0,-1,776,1709,0,0
-441,-685,0,0,0,0,0,0,0,0,0,-1,783,1709,0,0
-434,-685,0,0,0,0,0,0,0,0,0,-1,790,1709,0,0
-427,-685,0,0,0,0,0,0,0,0,0,-1,797,1709,0,0
-420,-685,0,0,0,0,0,0,0,0,0,-1,804,1709,0,0
-413,-685,0,0,0,0,0,0,0,0,0,-1,811,1709,0,0
-406,-685,0,0,0,0,0,0,0,0,0,-1,818,1709,0,0
-399,-685,0,0,0,0,0,0,0,0,0,-1,825,1709,0,0
-392,-685,0,0,0,0,0,0,0,0,0,-1,832,1709,0,0
-385,-685,0,0,0,0,0,0,0,0,0,-1,839,1709,0,0
-378,-685,0,0,0,0,0,0,0,0,0,-1,846,1709,0,0
-371,-685,0,0,0,0,0,0,0,0,0,-1,853,1709,0,0
-364,-685,0,0,0,0,0,0,0,0,0,-1,860,1709,0,0
-357,-685,0,0,0,0,0,0,0,0,0,-1,867,1709,0,0
-350,-685,0,0,0,0,0,0,0,0,0,-1,874,1709,0,0
-343,-685,-5.98505,6.56335,0,0,0,0,0,0,0,-1,881,1709,-5.98505,-6.56329
-336,-685,-6.51312,5.10571,0,0,0,0,0,0,0,-1,888,1709,-6.51311,-5.10575
-329,-685,-6.81384,3.34106,0,0,0,0,0,0,0,-1,895,1709,-6.81385,-3.341
-322,-685,3.83191,16.7219,0,0,0,0,0,0,0,-1,902,1709,3.8319,-16.7219
-315,-685,5.15784,21.4388,0,0,0,0,0,0,0,-1,909,1709,5.15783,-21.4389
-308,-685,6.36969,21.0303,0,0,0,0,0,0,0,-1,916,1709,6.36968,-21.0302
-301,-685,8.51233,30.4491,0,0,0,0,0,0,0,-1,923,1709,8.51234,-30.4491
-294,-685,8.66547,30.8331,0,0,0,0,0,0,0,-1,930,1709,8.66545,-30.8331
-287,-685,8.40265,31.6827,0,0,0,0,0,0,0,-1,937,1709,8.40263,-31.6827
-280,-685,8.0069,30.866,0,0,0,0,0,0,0,-1,944,1709,8.00688,-30.866
-273,-685,8.0766,31.3689,0,0,0,0,0,0,0,-1,951,1709,8.07662,-31.3689
-266,-685,7.00989,31.9417,0,0,0,0,0,0,0,-1,958,1709,7.00987,-31.9416
-259,-685,7.14783,32.224,-0.0114195,0.00149447,-0.00911019,0.00620388,-0.0161289,-1.09369,0.0133115,0.0443988,965,1709,7.14784,-32.2241
-252,-685,7.21686,32.4656,-0.0109687,0.0020361,-0.00811232,0.00593039,-0.0148629,-1.12324,0.0123688,0.0354616,972,1709,7.21685,-32.4655
-245,-685,7.21582,32.8389,-0.0101742,0.00273225,-0.00664425,0.00554133,-0.0129832,-1.1708,0.0109791,0.0347901,979,1709,7.21584,-32.8388
-238,-685,7.16693,33.2515,-0.0091362,0.00352859,-0.00511037,0.00533346,-0.0109411,-1.23129,0.00958023,0.0270949,986,1709,7.16692,-33.2515
-231,-685,7.0769,33.6703,-0.00825187,0.00365694,-0.00363363,0.00467808,-0.00927301,-1.29684,0.008199,0.0164955,993,1709,7.07689,-33.6702
-224,-685,7.05139,34.0331,-0.00706312,0.00375269,-0.00227432,0.00421147,-0.0075219,-1.37175,0.00686355,0.0147396,1000,1709,7.05138,-34.0331
-217,-685,7.04315,34.4155,-0.00574966,0.0035825,-0.00116627,0.00372604,-0.0058932,-1.44833,0.00560046,0.011769,1007,1709,7.04313,-34.4155
-210,-685,7.01965,34.8193,-0.00442478,0.00326522,-0.000211219,0.00327102,-0.00443057,-1.54336,0.00446328,0.0152888,1014,1709,7.01965,-34.8194
-203,-685,7.0033,35.1722,-0.00337732,0.00282309,0.000600191,0.00288065,-0.00343488,1.47518,0.00365095,0.0168172,1021,1709,7.00326,-35.1723
-196,-685,6.98413,35.5271,-0.00240272,0.00228131,0.00116186,0.00255367,-0.00267507,1.34054,0.00301909,0.0147061,1028,1709,6.98417,-35.5271
-189,-685,6.96497,35.8505,-0.00147686,0.00172304,0.00171902,0.00247147,-0.00222529,1.16017,0.00271292,0.00943929,1035,1709,6.96496,-35.8505
-182,-685,6.95032,36.2167,-0.000620577,0.00129105,0.00198187,0.00253556,-0.00186508,1.01008,0.00255052,0.0132452,1042,1709,6.95034,-36.2167
-175,-685,6.94507,36.5657,0.000264435,0.00119548,0.00220742,0.00298593,-0.00152602,0.88932,0.00265004,0.0134408,1049,1709,6.94503,-36.5657
-168,-685,6.94971,36.8879,0.00081252,0.00132392,0.00239371,0.00347555,-0.00133911,0.838607,0.00286952,0.0101911,1056,1709,6.94976,-36.888
-161,-685,6.95386,37.2188,0.00110194,0.00156538,0.00244793,0.00379253,-0.00112522,0.832587,0.00297522,0.0109836,1063,1709,6.95391,-37.2187
-154,-685,6.94214,37.5391,0.00142189,0.00190895,0.00251978,0.00419694,-0.000866097,0.833572,0.0031269,0.0101107,1070,1709,6.94218,-37.5391
-147,-685,6.92859,37.8326,0.00178651,0.00224518,0.00251672,0.00454299,-0.000511296,0.830835,0.00321268,0.00913747,1077,1709,6.92863,-37.8327
-140,-685,6.93188,38.1058,0.00202923,0.00256456,0.00247892,0.00479022,-0.000196434,0.839178,0.00326093,0.0120059,1084,1709,6.93192,-38.1058
-133,-685,6.96033,38.4036,0.00229965,0.00283677,0.0023996,0.00498279,0.000153625,0.841126,0.00327185,0.0116314,1091,1709,6.9603,-38.4035
-126,-685,6.97693,38.704,0.00250333,0.0028744,0.00214151,0.0048384,0.000539335,0.828609,0.00306169,0.00972785,1098,1709,6.97695,-38.7039
-119,-685,6.9917,38.9857,0.00280442,0.00292136,0.00171737,0.00458125,0.00114452,0.802415,0.00275314,0.0134175,1105,1709,6.99167,-38.9857
-112,-685,7.00684,39.2571,0.00315009,0.00274325,0.00110228,0.00406757,0.00182578,0.694153,0.0023525,0.0133071,1112,1709,7.00684,-39.2571
-105,-685,6.99524,39.5085,0.00351308,0.00212727,0.000540125,0.00369873,0.00194162,0.331059,0.00213635,0.0135439,1119,1709,6.99529,-39.5086
-98,-685,7.06189,39.7129,0.00391053,0.0016257,0.000279098,0.00394412,0.0015921,0.119806,0.00229119,0.0183596,1126,1709,7.06191,-39.7129
-91,-685,7.06372,39.8762,0.00418525,0.000915805,-8.60034e-05,0.00418751,0.000913544,-0.026281,0.00254247,0.0317927,1133,1709,7.06378,-39.8762
-84,-685,7.06616,40.1454,0,0,0,0,0,0,0,-1,1140,1709,7.06622,-40.1453
-77,-685,7.08826,40.504,0,0,0,0,0,0,0,-1,1147,1709,7.08822,-40.5041
-70,-685,7.23975,40.9612,0,0,0,0,0,0,0,-1,1154,1709,7.23981,-40.9611
-63,-685,6.03015,29.7728,0,0,0,0,0,0,0,-1,1161,1709,6.0302,-29.7728
-56,-685,3.93909,15.8704,0,0,0,0,0,0,0,-1,1168,1709,3.93905,-15.8704
-49,-685,3.07471,9.86011,0,0,0,0,0,0,0,-1,1175,1709,3.07467,-9.86009
-42,-685,2.70618,7.54504,0,0,0,0,0,0,0,-1,1182,1709,2.7062,-7.54504
-35,-685,2.95264,7.91516,0,0,0,0,0,0,0,-1,1189,1709,2.95262,-7.91517
-28,-685,7.46997,41.9136,0,0,0,0,0,0,0,-1,1196,1709,7.47001,-41.9136
-21,-685,7.63147,41.8044,0,0,0,0,0,0,0,-1,1203,1709,7.63146,-41.8044
-14,-685,7.69116,41.918,0.0508653,-0.00136259,0.0427607,0.0748555,-0.0253527,0.511273,0.0601623,0.0312124,1210,1709,7.69121,-41.9179
-7,-685,7.70715,42.0933,0.0659179,0.0188502,0.0508101,0.0983796,-0.0136116,0.568521,0.0705626,0.0454663,1217,1709,7.7071,-42.0933
0,-685,7.72595,42.2474,0.0767721,0.0317689,0.0553423,0.114012,-0.00547134,0.592311,0.0778961,0.0482982,1224,1709,7.72589,-42.2474
7,-685,7.79651,42.3427,0.0866717,0.0454827,0.0581755,0.12779,0.00436397,0.615279,0.0837768,0.043971,1231,1709,7.79655,-42.3427
14,-685,7.98425,42.5463,0,0,0,0,0,0,0,-1,1238,1709,7.98424,-42.5462
21,-685,8.19604,43.2366,0.102406,0.0695381,0.0591989,0.14741,0.0245343,0.650005,0.0912017,0.0403012,1245,1709,8.19609,-43.2366
28,-685,8.24524,43.1692,0.105454,0.0761688,0.0562681,0.148954,0.0326694,0.658107,0.0904021,0.0434834,1252,1709,8.24524,-43.1692
35,-685,8.29102,42.9962,0.104153,0.078462,0.0506013,0.143514,0.0391012,0.661094,0.0856701,0.0472938,1259,1709,8.291,-42.9962
42,-685,8.26318,42.9764,0,0,0,0,0,0,0,-1,1266,1709,8.26317,-42.9765
49,-685,8.01428,42.8977,0,0,0,0,0,0,0,-1,1273,1709,8.01433,-42.8978
56,-685,8.08887,43.0076,0.0769932,0.0627611,0.0201464,0.0912434,0.0485109,0.61563,0.0527146,0.0458333,1280,1709,8.08891,-43.0076
63,-685,8.09998,42.9545,0.0651771,0.0532667,0.00881502,0.06986,0.0485838,0.488326,0.0413481,0.0457666,1287,1709,8.1,-42.9544
70,-685,8.33484,43.0095,0.0545244,0.0436401,-0.00197307,0.054871,0.0432935,-0.173907,0.0333973,0.0472579,1294,1709,8.3349,-43.0095
77,-685,8.55359,42.9526,0.0456805,0.0350759,-0.0121055,0.053594,0.0271624,-0.578981,0.0309435,0.0483412,1301,1709,8.55362,-42.9526
84,-685,8.71448,42.8612,0.0323581,0.0273057,-0.0229448,0.0529153,0.0067484,-0.73057,0.0332564,0.0488257,1308,1709,8.71442,-42.8613
91,-685,8.79309,42.7449,0.0204469,0.0111862,-0.0319169,0.0480675,-0.0164345,-0.713363,0.0387043,0.0466973,1315,1709,8.79309,-42.7448
98,-685,8.69617,42.6202,0.0162263,0.0045487,-0.0367576,0.047606,-0.0268309,-0.706633,0.0435305,0.039394,1322,1709,8.69619,-42.6202
105,-685,8.53284,42.1765,0.0191861,0.00622414,-0.0372226,0.0504878,-0.0250775,-0.699205,0.0444423,0.0418163,1329,1709,8.53286,-42.1765
112,-685,8.46753,41.7732,0,0,0,0,0,0,0,-1,1336,1709,8.46748,-41.7732
119,-685,8.82886,42.0612,0.0256969,0.00685619,-0.035639,0.0531396,-0.0205865,-0.65619,0.0439271,0.0431307,1343,1709,8.82882,-42.0612
126,-685,9.03064,41.978,0.0272899,0.006031,-0.0347563,0.0530058,-0.0196849,-0.637001,0.0434129,0.0462357,1350,1709,9.03065,-41.978
133,-685,9.19971,41.9572,0,0,0,0,0,0,0,-1,1357,1709,9.19969,-41.9571
140,-685,9.45813,41.3445,0,0,0,0,0,0,0,-1,1364,1709,9.4581,-41.3445
147,-685,9.14807,41.9839,0,0,0,0,0,0,0,-1,1371,1709,9.14806,-41.9839
154,-685,9.06653,41.8066,0,0,0,0,0,0,0,-1,1378,1709,9.06654,-41.8067
161,-685,9.41589,41.6943,0,0,0,0,0,0,0,-1,1385,1709,9.41584,-41.6944
168,-685,4.37524,10.8778,0,0,0,0,0,0,0,-1,1392,1709,4.37525,-10.8778
175,-685,3.97522,8.94324,0,0,0,0,0,0,0,-1,1399,1709,3.97519,-8.94328
182,-685,3.98218,9.19739,0,0,0,0,0,0,0,-1,1406,1709,3.98221,-9.1974
189,-685,4.53479,15.2343,0,0,0,0,0,0,0,-1,1413,1709,4.53474,-15.2343
196,-685,9.38477,41.0546,0,0,0,0,0,0,0,-1,1420,1709,9.38478,-41.0545
203,-685,9.42261,40.6929,0,0,0,0,0,0,0,-1,1427,1709,9.42263,-40.6929
210,-685,9.62622,40.4181,0,0,0,0,0,0,0,-1,1434,1709,9.62621,-40.4181
217,-685,9.52954,40.1287,0,0,0,0,0,0,0,-1,1441,1709,9.52949,-40.1287
224,-685,9.45837,39.9814,0,0,0,0,0,0,0,-1,1448,1709,9.45841,-39.9815
231,-685,9.55505,39.8905,0.00350193,-0.000903215,0.000223817,0.00351327,-0.000914558,0.0506343,0.00269919,0.0441462,1455,1709,9.55503,-39.8904
238,-685,9.60449,39.505,0.00302979,-0.000843872,0.000211242,0.00304127,-0.000855358,0.0543183,0.00236477,0.0211454,1462,1709,9.60452,-39.505
245,-685,9.6001,39.2334,0.00247389,-0.000552918,0.000300802,0.00250349,-0.000582522,0.0981007,0.00189328,0.0215797,1469,1709,9.60013,-39.2334
252,-685,9.63477,39.0112,0.00192556,0.000819259,7.80615e-05,0.00193104,0.000813778,0.0700977,0.00111947,0.0154417,1476,1709,9.63473,-39.0112
259,-685,9.66589,38.7627,0.00157226,0.00173934,4.35075e-05,0.00174999,0.00156161,1.33072,0.00110921,0.0108746,1483,1709,9.66592,-38.7627
266,-685,9.68799,38.4805,0.00131251,0.00242469,0.000169057,0.00244982,0.00128738,1.42323,0.00141502,0.0134255,1490,1709,9.68802,-38.4804
273,-685,9.67969,38.2004,0.00119448,0.00265231,0.000422195,0.00276575,0.00108104,1.3083,0.00160943,0.0145414,1497,1709,9.67963,-38.2004
280,-685,9.6521,37.9097,0.00137542,0.00302299,0.000340216,0.00309048,0.00130793,1.37497,0.00179129,0.0146091,1504,1709,9.65208,-37.9097
287,-685,9.6593,37.611,0.0017121,0.00325166,0.000150861,0.0032663,0.00169746,1.47403,0.00188629,0.0123647,1511,1709,9.65935,-37.6109
294,-685,9.66479,37.3306,0.00217863,0.00360034,-0.000284834,0.00365528,0.00212369,-1.38024,0.00211959,0.0107739,1518,1709,9.66474,-37.3306
301,-685,9.65234,37.0189,0.00260247,0.00380072,-0.000969737,0.00434148,0.00206171,-1.06211,0.00250761,0.0123813,1525,1709,9.65235,-37.0189
308,-685,9.65686,36.6987,0.00289648,0.00404618,-0.00172147,0.00528624,0.00165641,-0.946542,0.0031221,0.0136077,1532,1709,9.65685,-36.6987
315,-685,9.6532,36.3776,0.00319133,0.00418396,-0.0024762,0.00621309,0.0011622,-0.884304,0.00381415,0.0121084,1539,1709,9.65314,-36.3776
322,-685,9.62012,36.0372,0.00335078,0.00432836,-0.00319165,0.00706843,0.000610703,-0.861381,0.00452249,0.0196382,1546,1709,9.62006,-36.0372
329,-685,9.62842,35.7117,0.00332942,0.00425204,-0.00377549,0.0075943,-1.28357e-05,-0.846189,0.00506715,0.0199797,1553,1709,9.62842,-35.7117
336,-685,9.62964,35.3396,0.00313254,0.0040514,-0.00411912,0.00773663,-0.000552689,-0.840937,0.00535151,0.0143693,1560,1709,9.62963,-35.3396
343,-685,9.59424,35.0151,0.00282571,0.0033145,-0.00433785,0.00741484,-0.00127463,-0.813538,0.00541831,0.0125782,1567,1709,9.59427,-35.0152
350,-685,9.58069,34.6484,0.00257616,0.00235132,-0.00438263,0.00684781,-0.00192033,-0.772575,0.00532208,0.012968,1574,1709,9.5807,-34.6484
357,-685,9.57825,34.2921,0.00229929,0.00141476,-0.00427009,0.00614996,-0.00243591,-0.733796,0.00510931,0.0102605,1581,1709,9.57825,-34.2921
364,-685,9.55212,33.9594,0.00201623,9.89491e-05,-0.00382482,0.00500071,-0.00288553,-0.662609,0.00460739,0.0103485,1588,1709,9.55215,-33.9594
371,-685,9.54309,33.5811,0.00169071,-0.00164243,-0.0030979,0.00354188,-0.0034936,-0.538619,0.00406196,0.0173315,1595,1709,9.54304,-33.581
378,-685,9.5376,33.1941,0.00105169,-0.00561159,-0.00135824,0.00131792,-0.00587782,-0.193554,0.00442378,0.0206886,1602,1709,9.53761,-33.1941
385,-685,9.43542,32.9192,0.00154464,-0.00836654,-0.00065592,0.00158786,-0.00840976,-0.0657973,0.0062039,0.0343065,1609,1709,9.43539,-32.9192
392,-685,9.48792,32.715,0.00239488,-0.0119519,-6.31086e-05,0.00239516,-0.0119522,-0.00439868,0.0088749,0.0383692,1616,1709,9.48787,-32.7149
399,-685,9.54028,32.3219,0.0032266,-0.0154431,0.000505653,0.00324029,-0.0154568,0.0270576,0.0115373,0.0429628,1623,1709,9.54029,-32.3218
406,-685,9.49109,31.9969,0,0,0,0,0,0,0,-1,1630,1709,9.49104,-31.997
413,-685,8.40112,31.3749,0,0,0,0,0,0,0,-1,1637,1709,8.40117,-31.3749
420,-685,4.84631,10.3781,0,0,0,0,0,0,0,-1,1644,1709,4.84634,-10.378
427,-685,6.05151,9.21155,0,0,0,0,0,0,0,-1,1651,1709,6.05156,-9.21156
434,-685,4.87769,8.91418,0,0,0,0,0,0,0,-1,1658,1709,4.87768,-8.91413
441,-685,5.62,8.75549,0,0,0,0,0,0,0,-1,1665,1709,5.61996,-8.75545
448,-685,6.4043,8.58972,0,0,0,0,0,0,0,-1,1672,1709,6.40435,-8.58971
455,-685,2.31958,4.09802,0,0,0,0,0,0,0,-1,1679,1709,2.31957,-4.09803
462,-685,0,0,0,0,0,0,0,0,0,-1,1686,1709,0,0
469,-685,0,0,0,0,0,0,0,0,0,-1,1693,1709,0,0
476,-685,0,0,0,0,0,0,0,0,0,-1,1700,1709,0,0
483,-685,0,0,0,0,0,0,0,0,0,-1,1707,1709,0,0
490,-685,0,0,0,0,0,0,0,0,0,-1,1714,1709,0,0
497,-685,0,0,0,0,0,0,0,0,0,-1,1721,1709,0,0
504,-685,0,0,0,0,0,0,0,0,0,-1,1728,1709,0,0
511,-685,0,0,0,0,0,0,0,0,0,-1,1735,1709,0,0
518,-685,0,0,0,0,0,0,0,0,0,-1,1742,1709,0,0
525,-685,0,0,0,0,0,0,0,0,0,-1,1749,1709,0,0
532,-685,0,0,0,0,0,0,0,0,0,-1,1756,1709,0,0
539,-685,0,0,0,0,0,0,0,0,0,-1,1763,1709,0,0
546,-685,0,0,0,0,0,0,0,0,0,-1,1770,1709,0,0
553,-685,0,0,0,0,0,0,0,0,0,-1,1777,1709,0,0
560,-685,0,0,0,0,0,0,0,0,0,-1,1784,1709,0,0
567,-685,0,0,0,0,0,0,0,0,0,-1,1791,1709,0,0
574,-685,0,0,0,0,0,0,0,0,0,-1,1798,1709,0,0
581,-685,0,0,0,0,0,0,0,0,0,-1,1805,1709,0,0
588,-685,0,0,0,0,0,0,0,0,0,-1,1812,1709,0,0
595,-685,0,0,0,0,0,0,0,0,0,-1,1819,1709,0,0
602,-685,0,0,0,0,0,0,0,0,0,-1,1826,1709,0,0
609,-685,0,0,0,0,0,0,0,0,0,-1,1833,1709,0,0
616,-685,0,0,0,0,0,0,0,0,0,-1,1840,1709,0,0
623,-685,0,0,0,0,0,0,0,0,0,-1,1847,1709,0,0
630,-685,0,0,0,0,0,0,0,0,0,-1,1854,1709,0,0
637,-685,0,0,0,0,0,0,0,0,0,-1,1861,1709,0,0
644,-685,0,0,0,0,0,0,0,0,0,-1,1868,1709,0,0
651,-685,0,0,0,0,0,0,0,0,0,-1,1875,1709,0,0
658,-685,0,0,0,0,0,0,0,0,0,-1,1882,1709,0,0
665,-685,0,0,0,0,0,0,0,0,0,-1,1889,1709,0,0
672,-685,0,0,0,0,0,0,0,0,0,-1,1896,1709,0,0
679,-685,0,0,0,0,0,0,0,0,0,-1,1903,1709,0,0
686,-685,0,0,0,0,0,0,0,0,0,-1,1910,1709,0,0
693,-685,0,0,0,0,0,0,0,0,0,-1,1917,1709,0,0
700,-685,0,0,0,0,0,0,0,0,0,-1,1924,1709,0,0
707,-685,0,0,0,0,0,0,0,0,0,-1,1931,1709,0,0
714,-685,0,0,0,0,0,0,0,0,0,-1,1938,1709,0,0
721,-685,0,0,0,0,0,0,0,0,0,-1,1945,1709,0,0
728,-685,0,0,0,0,0,0,0,0,0,-1,1952,1709,0,0
735,-685,0,0,0,0,0,0,0,0,0,-1,1959,1709,0,0
742,-685,0,0,0,0,0,0,0,0,0,-1,1966,1709,0,0
749,-685,0,0,0,0,0,0,0,0,0,-1,1973,1709,0,0
756,-685,0,0,0,0,0,0,0,0,0,-1,1980,1709,0,0
763,-685,0,0,0,0,0,0,0,0,0,-1,1987,1709,0,0
770,-685,0,0,0,0,0,0,0,0,0,-1,1994,1709,0,0
777,-685,0,0,0,0,0,0,0,0,0,-1,2001,1709,0,0
784,-685,0,0,0,0,0,0,0,0,0,-1,2008,1709,0,0
791,-685,0,0,0,0,0,0,0,0,0,-1,2015,1709,0,0
798,-685,0,0,0,0,0,0,0,0,0,-1,2022,1709,0,0
805,-685,0,0,0,0,0,0,0,0,0,-1,2029,1709,0,0
812,-685,0,0,0,0,0,0,0,0,0,-1,2036,1709,0,0
-700,-692,0,0,0,0,0,0,0,0,0,-1,524,1716,0,0
-693,-692,0,0,0,0,0,0,0,0,0,-1,531,1716,0,0
-686,-692,0,0,0,0,0,0,0,0,0,-1,538,1716,0,0
-679,-692,0,0,0,0,0,0,0,0,0,-1,545,1716,0,0
-672,-692,0,0,0,0,0,0,0,0,0,-1,552,1716,0,0
-665,-692,0,0,0,0,0,0,0,0,0,-1,559,1716,0,0
-658,-692,0,0,0,0,0,0,0,0,0,-1,566,1716,0,0
-651,-692,0,0,0,0,0,0,0,0,0,-1,573,1716,0,0
-644,-692,0,0,0,0,0,0,0,0,0,-1,580,1716,0,0
-637,-692,0,0,0,0,0,0,0,0,0,-1,587,1716,0,0
-630,-692,0,0,0,0,0,0,0,0,0,-1,594,1716,0,0
-623,-692,0,0,0,0,0,0,0,0,0,-1,601,1716,0,0
-616,-692,0,0,0,0,0,0,0,0,0,-1,608,1716,0,0
-609,-692,0,0,0,0,0,0,0,0,0,-1,615,1716,0,0
-602,-692,0,0,0,0,0,0,0,0,0,-1,622,1716,0,0
-595,-692,0,0,0,0,0,0,0,0,0,-1,629,1716,0,0
-588,-692,0,0,0,0,0,0,0,0,0,-1,636,1716,0,0
-581,-692,0,0,0,0,0,0,0,0,0,-1,643,1716,0,0
-574,-692,0,0,0,0,0,0,0,0,0,-1,650,1716,0,0
-567,-692,0,0,0,0,0,0,0,0,0,-1,657,1716,0,0
-560,-692,0,0,0,0,0,0,0,0,0,-1,664,1716,0,0
-553,-692,0,0,0,0,0,0,0,0,0,-1,671,1716,0,0
-546,-692,0,0,0,0,0,0,0,0,0,-1,678,1716,0,0
-539,-692,0,0,0,0,0,0,0,0,0,-1,685,1716,0,0
-532,-692,0,0,0,0,0,0,0,0,0,-1,692,1716,0,0
-525,-692,0,0,0,0,0,0,0,0,0,-1,699,1716,0,0
-518,-692,0,0,0,0,0,0,0,0,0,-1,706,1716,0,0
-511,-692,0,0,0,0,0,0,0,0,0,-1,713,1716,0,0
-504,-692,0,0,0,0,0,0,0,0,0,-1,720,1716,0,0
-497,-692,0,0,0,0,0,0,0,0,0,-1,727,1716,0,0
-490,-692,0,0,0,0,0,0,0,0,0,-1,734,1716,0,0
-483,-692,0,0,0,0,0,0,0,0,0,-1,741,1716,0,0
-476,-692,0,0,0,0,0,0,0,0,0,-1,748,1716,0,0
-469,-692,0,0,0,0,0,0,0,0,0,-1,755,1716,0,0
-462,-692,0,0,0,0,0,0,0,0,0,-1,762,1716,0,0
-455,-692,0,0,0,0,0,0,0,0,0,-1,769,1716,0,0
-448,-692,0,0,0,0,0,0,0,0,0,-1,776,1716,0,0
-441,-692,0,0,0,0,0,0,0,0,0,-1,783,1716,0,0
-434,-692,0,0,0,0,0,0,0,0,0,-1,790,1716,0,0
-427,-692,0,0,0,0,0,0,0,0,0,-1,797,1716,0,0
-420,-692,0,0,0,0,0,0,0,0,0,-1,804,1716,0,0
-413,-692,0,0,0,0,0,0,0,0,0,-1,811,1716,0,0
-406,-692,0,0,0,0,0,0,0,0,0,-1,818,1716,0,0
-399,-692,0,0,0,0,0,0,0,0,0,-1,825,1716,0,0
-392,-692,0,0,0,0,0,0,0,0,0,-1,832,1716,0,0
-385,-692,0,0,0,0,0,0,0,0,0,-1,839,1716,0,0
-378,-692,0,0,0,0,0,0,0,0,0,-1,846,1716,0,0
-371,-692,0,0,0,0,0,0,0,0,0,-1,853,1716,0,0
-364,-692,0,0,0,0,0,0,0,0,0,-1,860,1716,0,0
-357,-692,0,0,0,0,0,0,0,0,0,-1,867,1716,0,0
-350,-692,0,0,0,0,0,0,0,0,0,-1,874,1716,0,0
-343,-692,0,0,0,0,0,0,0,0,0,-1,881,1716,0,0
-336,-692,0,0,0,0,0,0,0,0,0,-1,888,1716,0,0
-329,-692,3.03107,4.10266,0,0,0,0,0,0,0,-1,895,1716,3.03105,-4.10267
-322,-692,4.43713,18.5242,0,0,0,0,0,0,0,-1,902,1716,4.43711,-18.5241
-315,-692,5.38965,17.975,0,0,0,0,0,0,0,-1,909,1716,5.38963,-17.975
-308,-692,5.86938,17.4392,0,0,0,0,0,0,0,-1,916,1716,5.86937,-17.4392
-301,-692,8.65558,20.7662,0,0,0,0,0,0,0,-1,923,1716,8.65556,-20.7663
-294,-692,7.04529,27.412,0,0,0,0,0,0,0,-1,930,1716,7.04529,-27.412
-287,-692,7.24359,28.9969,0,0,0,0,0,0,0,-1,937,1716,7.2436,-28.9969
-280,-692,7.78943,29.7025,0,0,0,0,0,0,0,-1,944,1716,7.78942,-29.7026
-273,-692,8.98047,31.697,0,0,0,0,0,0,0,-1,951,1716,8.98046,-31.697
-266,-692,8.82617,31.0121,0,0,0,0,0,0,0,-1,958,1716,8.82618,-31.0121
-259,-692,7.62085,32.3462,0,0,0,0,0,0,0,-1,965,1716,7.62083,-32.3462
-252,-692,7.63861,32.528,0,0,0,0,0,0,0,-1,972,1716,7.63862,-32.528
-245,-692,8.15393,32.6815,-0.0136602,0.00484398,-0.00867227,0.00827295,-0.0170892,-1.19427,0.0149348,0.0464579,979,1716,8.15396,-32.6815
-238,-692,8.14716,32.9098,-0.012171,0.0056065,-0.00643869,0.00769348,-0.014258,-1.25735,0.0128612,0.0434201,986,1716,8.14714,-32.9098
-231,-692,7.66064,33.6521,-0.0109449,0.00542657,-0.00447475,0.0065698,-0.0120881,-1.32066,0.0109281,0.0381662,993,1716,7.66064,-33.6521
-224,-692,7.42804,34.041,-0.0093758,0.00525458,-0.00261282,0.00570719,-0.00982842,-1.39927,0.00907408,0.0193895,1000,1716,7.42802,-34.041
-217,-692,7.39105,34.4244,-0.00779395,0.00477794,-0.00113994,0.00488046,-0.00789647,-1.4811,0.00744496,0.0129253,1007,1716,7.39108,-34.4244
-210,-692,7.39288,34.8,-0.00622848,0.00409879,3.31896e-05,0.0040989,-0.00622858,1.56758,0.00600468,0.013372,1014,1716,7.39287,-34.8
-203,-692,7.38171,35.1559,-0.00499509,0.00335972,0.000916151,0.003459,-0.00509437,1.46285,0.00496829,0.0169149,1021,1716,7.38169,-35.1559
-196,-692,7.32629,35.5254,-0.00390589,0.00256006,0.00139392,0.00284776,-0.00419358,1.36726,0.00409,0.0193857,1028,1716,7.32624,-35.5253
-189,-692,7.29871,35.8508,-0.00289307,0.00180272,0.00184993,0.00244395,-0.0035343,1.23713,0.00347063,0.00919023,1035,1716,7.29867,-35.8509
-182,-692,7.27344,36.2184,-0.00198822,0.00116576,0.00193214,0.00208277,-0.00290523,1.12767,0.00289285,0.012745,1042,1716,7.27345,-36.2183
-175,-692,7.25098,36.5906,-0.00102941,0.000977857,0.00198641,0.00219978,-0.00225133,1.01932,0.00256991,0.0146771,1049,1716,7.25094,-36.5906
-168,-692,7.26538,36.8947,-0.000450395,0.00100011,0.00197049,0.00237458,-0.00182487,0.961732,0.00243146,0.011216,1056,1716,7.26539,-36.8946
-161,-692,7.28076,37.2196,-0.000169274,0.00118636,0.00182674,0.00245698,-0.00143989,0.963051,0.00227526,0.0134143,1063,1716,7.28077,-37.2196
-154,-692,7.25745,37.5585,0.000161567,0.00147286,0.00176753,0.00270243,-0.001068,0.963001,0.002244,0.01449,1070,1716,7.25741,-37.5585
-147,-692,7.24951,37.8486,0.000612946,0.0016946,0.00161198,0.00285406,-0.000546515,0.94725,0.00210862,0.0135257,1077,1716,7.24956,-37.8486
-140,-692,7.24304,38.129,0.000898117,0.0019843,0.00150054,0.00303701,-0.000154587,0.959031,0.00207812,0.0111033,1084,1716,7.24303,-38.1291
-133,-692,7.24792,38.4185,0.001199,0.00220119,0.00148235,0.00326486,0.000135342,0.948389,0.00213289,0.0106573,1091,1716,7.24786,-38.4185
-126,-692,7.24817,38.701,0.00158464,0.00229224,0.00135937,0.0033431,0.000533779,0.912707,0.00207383,0.00807059,1098,1716,7.2482,-38.7011
-119,-692,7.24695,38.9723,0.00197609,0.00225217,0.00113862,0.00326109,0.00096717,0.84572,0.00193403,0.0114016,1105,1716,7.24698,-38.9723
-112,-692,7.26013,39.2336,0.00230278,0.00206037,0.000851328,0.00304149,0.00132166,0.714686,0.00176101,0.0111976,1112,1716,7.2601,-39.2337
-105,-692,7.30786,39.4868,0.00257965,0.00159058,0.000521231,0.00280362,0.00136661,0.405836,0.00161884,0.0153604,1119,1716,7.30783,-39.4868
-98,-692,7.36316,39.7188,0.00290225,0.00112334,0.000270345,0.00294243,0.00108317,0.147536,0.00171839,0.0172515,1126,1716,7.36318,-39.7188
-91,-692,7.34802,39.9747,0.00316014,0.000537428,-2.2285e-05,0.00316033,0.000537239,-0.00849609,0.0019526,0.0196517,1133,1716,7.34798,-39.9747
-84,-692,7.34521,40.1772,0.00345642,9.30013e-05,-0.000290171,0.00348127,6.81509e-05,-0.0854316,0.00229846,0.023516,1140,1716,7.34525,-40.1772
-77,-692,7.34351,40.4347,0.00381211,-0.000224367,-0.000834971,0.00397801,-0.000390267,-0.196136,0.00279121,0.0188256,1147,1716,7.34352,-40.4347
-70,-692,7.41772,40.6879,0.00403782,-0.000279128,-0.00129714,0.0043976,-0.000638906,-0.27056,0.00316626,0.0350326,1154,1716,7.41777,-40.6879
-63,-692,7.52039,40.9407,0,0,0,0,0,0,0,-1,1161,1716,7.52041,-40.9406
-56,-692,7.42078,40.9663,0,0,0,0,0,0,0,-1,1168,1716,7.42073,-40.9663
-49,-692,7.47229,41.1328,0,0,0,0,0,0,0,-1,1175,1716,7.47233,-41.1329
-42,-692,7.55237,41.3551,0,0,0,0,0,0,0,-1,1182,1716,7.55235,-41.3551
-35,-692,7.64014,41.7107,0,0,0,0,0,0,0,-1,1189,1716,7.64011,-41.7107
-28,-692,7.60474,41.824,0.0164165,-0.00633463,0.0176137,0.0260087,-0.0159268,0.498677,0.0244436,0.0485215,1196,1716,7.60469,-41.8239
-21,-692,7.70679,41.7791,0.0262856,-0.00602624,0.0240524,0.0391044,-0.018845,0.48966,0.0341319,0.034121,1203,1716,7.70679,-41.7791
-14,-692,7.75623,41.8861,0.0405968,0.00904554,0.031082,0.0596774,-0.0100351,0.550564,0.0435174,0.0179606,1210,1716,7.75625,-41.8861
-7,-692,7.76282,42.0625,0.0530795,0.0241847,0.0375028,0.0788215,-0.00155733,0.601541,0.0530744,0.0171771,1217,1716,7.7628,-42.0625
0,-692,7.78137,42.1699,0.0622185,0.0346651,0.04145,0.0921213,0.00476231,0.624957,0.0598899,0.0200273,1224,1716,7.78133,-42.1699
7,-692,7.81372,42.2384,0.0702387,0.045398,0.0438696,0.103412,0.0122244,0.647449,0.0652496,0.0244958,1231,1716,7.81376,-42.2383
14,-692,7.96558,42.4958,0.0774355,0.0556051,0.0452403,0.113059,0.0199819,0.667025,0.0696736,0.0277573,1238,1716,7.96557,-42.4958
21,-692,8.08276,42.6021,0.0833429,0.0642157,0.045403,0.120179,0.02738,0.681596,0.0727311,0.0277766,1245,1716,8.0828,-42.6021
28,-692,8.10278,42.5687,0.0864231,0.069509,0.0436889,0.122466,0.0334661,0.689793,0.0730887,0.0295492,1252,1716,8.10281,-42.5688
35,-692,8.11975,42.6101,0.0860012,0.0712765,0.0398438,0.119157,0.0381206,0.694038,0.070267,0.0291741,1259,1716,8.11981,-42.6101
42,-692,8.2196,42.7189,0.0814278,0.0699229,0.0336243,0.109788,0.0415626,0.700678,0.0640063,0.0267596,1266,1716,8.21959,-42.7189
49,-692,8.32544,42.8031,0.0740867,0.065358,0.025874,0.0959619,0.0434829,0.701846,0.0554847,0.0317967,1273,1716,8.32547,-42.8031
56,-692,8.29956,42.7053,0.0648171,0.0578593,0.0173519,0.0790355,0.043641,0.686465,0.0457139,0.0407214,1280,1716,8.29961,-42.7053
63,-692,8.23132,42.6823,0.0548513,0.0495111,0.00872232,0.061303,0.0430593,0.636865,0.0363471,0.0407978,1287,1716,8.23126,-42.6822
70,-692,8.36206,42.8024,0.0454203,0.0404891,0.000335351,0.045443,0.0404664,0.0675909,0.0287802,0.0349215,1294,1716,8.36207,-42.8024
77,-692,8.55981,42.8451,0.0372426,0.0323319,-0.00742568,0.0426084,0.0269661,-0.625726,0.0248879,0.038527,1301,1716,8.55985,-42.8451
84,-692,8.63892,42.5955,0.0251019,0.0249675,-0.015931,0.0409659,0.00910359,-0.783289,0.0248385,0.0468278,1308,1716,8.63888,-42.5955
91,-692,8.55286,42.5182,0.0145728,0.00984778,-0.022658,0.0349912,-0.0105706,-0.733452,0.0275358,0.0432743,1315,1716,8.55282,-42.5182
98,-692,8.66211,42.5397,0.0103705,0.00458719,-0.0261035,0.0337421,-0.0187843,-0.730235,0.0307333,0.0333302,1322,1716,8.66206,-42.5397
105,-692,8.66687,42.4431,0.0119207,0.00535556,-0.0261531,0.0349964,-0.0177202,-0.722968,0.030976,0.0417075,1329,1716,8.6669,-42.4431
112,-692,8.68518,42.3077,0.0142344,0.00557699,-0.0252118,0.0354864,-0.015675,-0.70038,0.0302673,0.0460754,1336,1716,8.68523,-42.3077
119,-692,8.75354,42.2047,0.0158681,0.00506424,-0.0243174,0.0353764,-0.014444,-0.676101,0.029598,0.0375792,1343,1716,8.75351,-42.2047
126,-692,8.86316,42.1217,0.0165981,0.004079,-0.0233221,0.0344861,-0.013809,-0.65429,0.0287224,0.0381646,1350,1716,8.86311,-42.1217
133,-692,8.97766,42.0448,0.0170156,0.0032749,-0.0220631,0.0332533,-0.0129628,-0.634459,0.0275267,0.0296488,1357,1716,8.97761,-42.0448
140,-692,8.94641,42.0144,0.0171817,0.00242289,-0.020504,0.0315938,-0.0119892,-0.612664,0.0259973,0.0330575,1364,1716,8.94636,-42.0144
147,-692,8.98792,41.952,0.0171529,0.00116351,-0.0182805,0.0291104,-0.010794,-0.579263,0.0238341,0.037262,1371,1716,8.98787,-41.952
154,-692,8.95886,41.7893,0.01683,0.000613578,-0.015641,0.0263395,-0.00889592,-0.54627,0.0211579,0.0321065,1378,1716,8.95883,-41.7893
161,-692,9.15967,41.686,0.0157363,-0.000324931,-0.0127642,0.0227861,-0.00737464,-0.504609,0.0181552,0.0401761,1385,1716,9.15963,-41.6861
168,-692,9.32336,41.5968,0,0,0,0,0,0,0,-1,1392,1716,9.32333,-41.5968
175,-692,9.20764,41.3618,0,0,0,0,0,0,0,-1,1399,1716,9.20761,-41.3618
182,-692,9.20728,41.141,0,0,0,0,0,0,0,-1,1406,1716,9.20729,-41.141
189,-692,9.20471,40.9626,0,0,0,0,0,0,0,-1,1413,1716,9.20467,-40.9626
196,-692,9.22168,40.8387,0.00493094,-0.000655402,0.00159821,0.00535585,-0.00108032,0.259858,0.00397985,0.0368808,1420,1716,9.22162,-40.8388
203,-692,9.23865,40.6469,0.00458925,-0.000921428,0.00155359,0.00499706,-0.00132924,0.256705,0.00385168,0.0243626,1427,1716,9.23867,-40.6469
210,-692,9.31042,40.4409,0.00423879,-0.001257,0.00126226,0.00451484,-0.00153304,0.215303,0.00363045,0.0185656,1434,1716,9.31044,-40.4409
217,-692,9.28894,40.2068,0.00383112,-0.00143447,0.000461656,0.00387129,-0.00147463,0.0867917,0.00318819,0.016144,1441,1716,9.28896,-40.2068
224,-692,9.29346,40.0071,0.00352288,-0.00120896,0.000206983,0.00353192,-0.00121799,0.0436316,0.00284877,0.0134719,1448,1716,9.29345,-40.0071
231,-692,9.31494,39.7893,0.00311311,-0.000834338,-0.000156592,0.00311931,-0.00084054,-0.0395863,0.0024091,0.0122318,1455,1716,9.31492,-39.7893
238,-692,9.31458,39.5101,0.00266675,-0.000576878,-0.000219344,0.00268151,-0.000591643,-0.0672152,0.00201407,0.0176455,1462,1716,9.31457,-39.5101
245,-692,9.31909,39.2616,0.00213457,-0.000102693,-0.000157164,0.00214555,-0.000113679,-0.0697918,0.00146973,0.0198227,1469,1716,9.31905,-39.2616
252,-692,9.36279,39.0067,0.00157851,0.000948568,-0.000171604,0.00162222,0.000904854,-0.249432,0.000938673,0.018037,1476,1716,9.3628,-39.0067
259,-692,9.37646,38.7625,0.00116067,0.0017177,-2.02022e-05,0.00171843,0.00115994,-1.53459,0.00101219,0.00991996,1483,1716,9.3765,-38.7625
266,-692,9.37439,38.5018,0.000921206,0.00223284,0.000210167,0.00226569,0.000888354,1.41573,0.00131821,0.010112,1490,1716,9.37438,-38.5018
273,-692,9.37122,38.2136,0.00101486,0.00275383,0.000275275,0.00279637,0.000972325,1.41749,0.00163926,0.0137029,1497,1716,9.37116,-38.2136
280,-692,9.36987,37.9003,0.00134155,0.0031326,0.000146004,0.00314442,0.00132972,1.48999,0.00182262,0.0129614,1504,1716,9.36989,-37.9003
287,-692,9.36011,37.6051,0.00190812,0.00339737,-0.000154931,0.00341331,0.00189217,-1.46823,0.00197455,0.0114936,1511,1716,9.36012,-37.6051
294,-692,9.36072,37.3372,0.00264569,0.00376073,-0.000736371,0.00412682,0.00227959,-1.10942,0.00238698,0.0110624,1518,1716,9.36074,-37.3372
301,-692,9.35803,37.0288,0.00334224,0.00399399,-0.00165059,0.00535056,0.00198566,-0.88286,0.00312317,0.0135765,1525,1716,9.35808,-37.0288
308,-692,9.35168,36.7274,0.00390166,0.0043736,-0.00262619,0.0067744,0.00150086,-0.830204,0.0041084,0.0158295,1532,1716,9.35173,-36.7274
315,-692,9.35681,36.4019,0.00447806,0.00462786,-0.00369812,0.00825183,0.000854081,-0.795523,0.00523978,0.0140597,1539,1716,9.35684,-36.4019
322,-692,9.30371,36.0316,0.00488652,0.00500939,-0.00479213,0.00974047,0.000155431,-0.791808,0.00644246,0.0181715,1546,1716,9.30372,-36.0316
329,-692,9.28259,35.6869,0.00495132,0.00517684,-0.00558823,0.0106534,-0.000525294,-0.795486,0.00728371,0.0173367,1553,1716,9.28257,-35.6869
336,-692,9.26941,35.339,0.00478428,0.00520942,-0.00611778,0.0111183,-0.00112463,-0.802764,0.00781411,0.0135883,1560,1716,9.26941,-35.339
343,-692,9.26917,35.046,0.0044721,0.00451976,-0.00645706,0.010953,-0.00196118,-0.787243,0.00803592,0.0142533,1567,1716,9.2692,-35.046
350,-692,9.24268,34.7015,0.00419574,0.00353796,-0.00657517,0.0104502,-0.00271654,-0.760409,0.00802705,0.0165026,1574,1716,9.24271,-34.7015
357,-692,9.19495,34.2528,0.00382057,0.00296708,-0.00657105,0.00997872,-0.00319107,-0.752972,0.00793307,0.0220285,1581,1716,9.19493,-34.2528
364,-692,9.17712,33.8667,0.00343013,0.00172511,-0.00598512,0.00862315,-0.00346791,-0.714655,0.00718918,0.0268204,1588,1716,9.17718,-33.8667
371,-692,9.26074,33.5886,0.00291253,-0.0002584,-0.0048762,0.00645454,-0.00380042,-0.628218,0.00598644,0.036644,1595,1716,9.26073,-33.5887
378,-692,9.34058,33.3682,0.00171301,-0.00607957,-0.00193855,0.00216863,-0.00653518,-0.230838,0.00523169,0.0473382,1602,1716,9.34054,-33.3682
385,-692,9.0155,33.1312,0,0,0,0,0,0,0,-1,1609,1716,9.01548,-33.1313
392,-692,9.0127,32.8864,0,0,0,0,0,0,0,-1,1616,1716,9.01268,-32.8864
399,-692,9.22839,32.3562,0,0,0,0,0,0,0,-1,1623,1716,9.2284,-32.3562
406,-692,9.18237,31.9935,0,0,0,0,0,0,0,-1,1630,1716,9.18237,-31.9936
413,-692,7.5553,31.3975,0,0,0,0,0,0,0,-1,1637,1716,7.55534,-31.3975
420,-692,5.48901,10.4845,0,0,0,0,0,0,0,-1,1644,1716,5.48906,-10.4845
427,-692,3.79578,8.60339,0,0,0,0,0,0,0,-1,1651,1716,3.79577,-8.6034
434,-692,4.78516,8.64636,0,0,0,0,0,0,0,-1,1658,1716,4.78512,-8.64634
441,-692,5.8208,8.74036,0,0,0,0,0,0,0,-1,1665,1716,5.82084,-8.7404
448,-692,6.73792,8.51013,0,0,0,0,0,0,0,-1,1672,1716,6.73793,-8.5101
455,-692,0,0,0,0,0,0,0,0,0,-1,1679,1716,0,0
462,-692,0,0,0,0,0,0,0,0,0,-1,1686,1716,0,0
469,-692,0,0,0,0,0,0,0,0,0,-1,1693,1716,0,0
476,-692,0,0,0,0,0,0,0,0,0,-1,1700,1716,0,0
483,-692,0,0,0,0,0,0,0,0,0,-1,1707,1716,0,0
490,-692,0,0,0,0,0,0,0,0,0,-1,1714,1716,0,0
497,-692,0,0,0,0,0,0,0,0,0,-1,1721,1716,0,0
504,-692,0,0,0,0,0,0,0,0,0,-1,1728,1716,0,0
511,-692,0,0,0,0,0,0,0,0,0,-1,1735,1716,0,0
518,-692,0,0,0,0,0,0,0,0,0,-1,1742,1716,0,0
525,-692,0,0,0,0,0,0,0,0,0,-1,1749,1716,0,0
532,-692,0,0,0,0,0,0,0,0,0,-1,1756,1716,0,0
539,-692,0,0,0,0,0,0,0,0,0,-1,1763,1716,0,0
546,-692,0,0,0,0,0,0,0,0,0,-1,1770,1716,0,0
553,-692,0,0,0,0,0,0,0,0,0,-1,1777,1716,0,0
560,-692,0,0,0,0,0,0,0,0,0,-1,1784,1716,0,0
567,-692,0,0,0,0,0,0,0,0,0,-1,1791,1716,0,0
574,-692,0,0,0,0,0,0,0,0,0,-1,1798,1716,0,0
581,-692,0,0,0,0,0,0,0,0,0,-1,1805,1716,0,0
588,-692,0,0,0,0,0,0,0,0,0,-1,1812,1716,0,0
595,-692,0,0,0,0,0,0,0,0,0,-1,1819,1716,0,0
602,-692,0,0,0,0,0,0,0,0,0,-1,1826,1716,0,0
609,-692,0,0,0,0,0,0,0,0,0,-1,1833,1716,0,0
616,-692,0,0,0,0,0,0,0,0,0,-1,1840,1716,0,0
623,-692,0,0,0,0,0,0,0,0,0,-1,1847,1716,0,0
630,-692,0,0,0,0,0,0,0,0,0,-1,1854,1716,0,0
637,-692,0,0,0,0,0,0,0,0,0,-1,1861,1716,0,0
644,-692,0,0,0,0,0,0,0,0,0,-1,1868,1716,0,0
651,-692,0,0,0,0,0,0,0,0,0,-1,1875,1716,0,0
658,-692,0,0,0,0,0,0,0,0,0,-1,1882,1716,0,0
665,-692,0,0,0,0,0,0,0,0,0,-1,1889,1716,0,0
672,-692,0,0,0,0,0,0,0,0,0,-1,1896,1716,0,0
679,-692,0,0,0,0,0,0,0,0,0,-1,1903,1716,0,0
686,-692,0,0,0,0,0,0,0,0,0,-1,1910,1716,0,0
693,-692,0,0,0,0,0,0,0,0,0,-1,1917,1716,0,0
700,-692,0,0,0,0,0,0,0,0,0,-1,1924,1716,0,0
707,-692,0,0,0,0,0,0,0,0,0,-1,1931,1716,0,0
714,-692,0,0,0,0,0,0,0,0,0,-1,1938,1716,0,0
721,-692,0,0,0,0,0,0,0,0,0,-1,1945,1716,0,0
728,-692,0,0,0,0,0,0,0,0,0,-1,1952,1716,0,0
735,-692,0,0,0,0,0,0,0,0,0,-1,1959,1716,0,0
742,-692,0,0,0,0,0,0,0,0,0,-1,1966,1716,0,0
749,-692,0,0,0,0,0,0,0,0,0,-1,1973,1716,0,0
756,-692,0,0,0,0,0,0,0,0,0,-1,1980,1716,0,0
763,-692,0,0,0,0,0,0,0,0,0,-1,1987,1716,0,0
770,-692,0,0,0,0,0,0,0,0,0,-1,1994,1716,0,0
777,-692,0,0,0,0,0,0,0,0,0,-1,2001,1716,0,0
784,-692,0,0,0,0,0,0,0,0,0,-1,2008,1716,0,0
791,-692,0,0,0,0,0,0,0,0,0,-1,2015,1716,0,0
798,-692,0,0,0,0,0,0,0,0,0,-1,2022,1716,0,0
805,-692,0,0,0,0,0,0,0,0,0,-1,2029,1716,0,0
812,-692,0,0,0,0,0,0,0,0,0,-1,2036,1716,0,0
-700,-699,0,0,0,0,0,0,0,0,0,-1,524,1723,0,0
-693,-699,0,0,0,0,0,0,0,0,0,-1,531,1723,0,0
-686,-699,0,0,0,0,0,0,0,0,0,-1,538,1723,0,0
-679,-699,0,0,0,0,0,0,0,0,0,-1,545,1723,0,0
-672,-699,0,0,0,0,0,0,0,0,0,-1,552,1723,0,0
-665,-699,0,0,0,0,0,0,0,0,0,-1,559,1723,0,0
-658,-699,0,0,0,0,0,0,0,0,0,-1,566,1723,0,0
-651,-699,0,0,0,0,0,0,0,0,0,-1,573,1723,0,0
-644,-699,0,0,0,0,0,0,0,0,0,-1,580,1723,0,0
-637,-699,0,0,0,0,0,0,0,0,0,-1,587,1723,0,0
-630,-699,0,0,0,0,0,0,0,0,0,-1,594,1723,0,0
-623,-699,0,0,0,0,0,0,0,0,0,-1,601,1723,0,0
-616,-699,0,0,0,0,0,0,0,0,0,-1,608,1723,0,0
-609,-699,0,0,0,0,0,0,0,0,0,-1,615,1723,0,0
-602,-699,0,0,0,0,0,0,0,0,0,-1,622,1723,0,0
-595,-699,0,0,0,0,0,0,0,0,0,-1,629,1723,0,0
-588,-699,0,0,0,0,0,0,0,0,0,-1,636,1723,0,0
-581,-699,0,0,0,0,0,0,0,0,0,-1,643,1723,0,0
-574,-699,0,0,0,0,0,0,0,0,0,-1,650,1723,0,0
-567,-699,0,0,0,0,0,0,0,0,0,-1,657,1723,0,0
-560,-699,0,0,0,0,0,0,0,0,0,-1,664,1723,0,0
-553,-699,0,0,0,0,0,0,0,0,0,-1,671,1723,0,0
-546,-699,0,0,0,0,0,0,0,0,0,-1,678,1723,0,0
-539,-699,0,0,0,0,0,0,0,0,0,-1,685,1723,0,0
-532,-699,0,0,0,0,0,0,0,0,0,-1,692,1723,0,0
-525,-699,0,0,0,0,0,0,0,0,0,-1,699,1723,0,0
-518,-699,0,0,0,0,0,0,0,0,0,-1,706,1723,0,0
-511,-699,0,0,0,0,0,0,0,0,0,-1,713,1723,0,0
-504,-699,0,0,0,0,0,0,0,0,0,-1,720,1723,0,0
-497,-699,0,0,0,0,0,0,0,0,0,-1,727,1723,0,0
-490,-699,0,0,0,0,0,0,0,0,0,-1,734,1723,0,0
-483,-699,0,0,0,0,0,0,0,0,0,-1,741,1723,0,0
-476,-699,0,0,0,0,0,0,0,0,0,-1,748,1723,0,0
-469,-699,0,0,0,0,0,0,0,0,0,-1,755,1723,0,0
-462,-699,0,0,0,0,0,0,0,0,0,-1,762,1723,0,0
-455,-699,0,0,0,0,0,0,0,0,0,-1,769,1723,0,0
-448,-699,0,0,0,0,0,0,0,0,0,-1,776,1723,0,0
-441,-699,0,0,0,0,0,0,0,0,0,-1,783,1723,0,0
-434,-699,0,0,0,0,0,0,0,0,0,-1,790,1723,0,0
-427,-699,0,0,0,0,0,0,0,0,0,-1,797,1723,0,0
-420,-699,0,0,0,0,0,0,0,0,0,-1,804,1723,0,0
-413,-699,0,0,0,0,0,0,0,0,0,-1,811,1723,0,0
-406,-699,0,0,0,0,0,0,0,0,0,-1,818,1723,0,0
-399,-699,0,0,0,0,0,0,0,0,0,-1,825,1723,0,0
-392,-699,0,0,0,0,0,0,0,0,0,-1,832,1723,0,0
-385,-699,0,0,0,0,0,0,0,0,0,-1,839,1723,0,0
-378,-699,0,0,0,0,0,0,0,0,0,-1,846,1723,0,0
-371,-699,0,0,0,0,0,0,0,0,0,-1,853,1723,0,0
-364,-699,0,0,0,0,0,0,0,0,0,-1,860,1723,0,0
-357,-699,0,0,0,0,0,0,0,0,0,-1,867,1723,0,0
-350,-699,0,0,0,0,0,0,0,0,0,-1,874,1723,0,0
-343,-699,0,0,0,0,0,0,0,0,0,-1,881,1723,0,0
-336,-699,0,0,0,0,0,0,0,0,0,-1,888,1723,0,0
-329,-699,0,0,0,0,0,0,0,0,0,-1,895,1723,0,0
-322,-699,0,0,0,0,0,0,0,0,0,-1,902,1723,0,0
-315,-699,6.20001,19.5193,0,0,0,0,0,0,0,-1,909,1723,6.20001,-19.5193
-308,-699,6.98151,18.9218,0,0,0,0,0,0,0,-1,916,1723,6.98151,-18.9217
-301,-699,4.72729,12.8752,0,0,0,0,0,0,0,-1,923,1723,4.72732,-12.8752
-294,-699,6.90332,19.8601,0,0,0,0,0,0,0,-1,930,1723,6.90332,-19.8601
-287,-699,7.71405,27.0637,0,0,0,0,0,0,0,-1,937,1723,7.71407,-27.0637
-280,-699,9.08954,30.0829,0,0,0,0,0,0,0,-1,944,1723,9.08955,-30.0829
-273,-699,9.43646,30.4525,0,0,0,0,0,0,0,-1,951,1723,9.43645,-30.4525
-266,-699,6.81915,20.8951,0,0,0,0,0,0,0,-1,958,1723,6.81914,-20.8952
-259,-699,5.39758,14.5466,0,0,0,0,0,0,0,-1,965,1723,5.39759,-14.5466
-252,-699,8.3866,31.6284,0,0,0,0,0,0,0,-1,972,1723,8.38657,-31.6284
-245,-699,9.04059,32.6158,0,0,0,0,0,0,0,-1,979,1723,9.0406,-32.6158
-238,-699,8.92413,33.4373,0,0,0,0,0,0,0,-1,986,1723,8.92414,-33.4373
-231,-699,8.50439,33.5883,-0.0142479,0.008015,-0.00520455,0.00917161,-0.0154045,-1.35212,0.0143404,0.0440243,993,1723,8.50437,-33.5882
-224,-699,7.97467,33.9298,-0.0121993,0.00748261,-0.00265579,0.00783467,-0.0125514,-1.439,0.0118744,0.0413377,1000,1723,7.97467,-33.9298
-217,-699,7.81079,34.3828,-0.0101413,0.00658724,-0.000670514,0.00661407,-0.0101681,-1.5308,0.00976134,0.0280162,1007,1723,7.81076,-34.3828
-210,-699,7.76654,34.7964,-0.00813893,0.00543184,0.000848615,0.0054847,-0.00819179,1.50859,0.00794752,0.0182851,1014,1723,7.76655,-34.7964
-203,-699,7.74146,35.1357,-0.0066095,0.00426081,0.00184847,0.00456654,-0.00691523,1.40688,0.00667507,0.0211587,1021,1723,7.74151,-35.1357
-196,-699,7.67993,35.528,-0.00528657,0.00310216,0.0022675,0.00367584,-0.00586025,1.323,0.0055536,0.0169412,1028,1723,7.67999,-35.528
-189,-699,7.64111,35.8862,-0.00409518,0.00208883,0.00265841,0.00307452,-0.00508088,1.21573,0.00475578,0.00859666,1035,1723,7.64108,-35.8862
-182,-699,7.61328,36.2278,-0.00310335,0.00119491,0.0025876,0.00240947,-0.00431791,1.13194,0.00393581,0.0114403,1042,1723,7.61324,-36.2277
-175,-699,7.59521,36.582,-0.00205502,0.000880783,0.00252161,0.00233063,-0.00350487,1.04899,0.00339178,0.0142083,1049,1723,7.59522,-36.582
-168,-699,7.60352,36.9064,-0.00143466,0.000753326,0.00234186,0.00224412,-0.00292545,1.00391,0.00299329,0.0150432,1056,1723,7.60349,-36.9064
-161,-699,7.59363,37.2178,-0.00116707,0.000871319,0.00203715,0.00213,-0.00242575,1.01734,0.00263211,0.0133001,1063,1723,7.59367,-37.2178
-154,-699,7.56592,37.5531,-0.00084947,0.00110135,0.00187558,0.00224,-0.00198812,1.02518,0.00244255,0.0133983,1070,1723,7.56589,-37.5531
-147,-699,7.55334,37.8528,-0.000347336,0.00122281,0.00156681,0.00219023,-0.00131476,1.01765,0.00204454,0.0150267,1077,1723,7.55338,-37.8528
-140,-699,7.53979,38.1384,-7.81664e-05,0.00153378,0.00136658,0.00231436,-0.00085874,1.05183,0.00189515,0.010867,1084,1723,7.53974,-38.1384
-133,-699,7.52893,38.4453,0.000200005,0.00174951,0.00138208,0.00255918,-0.000609659,1.04086,0.00194151,0.0099643,1091,1723,7.52887,-38.4453
-126,-699,7.52637,38.72,0.000663121,0.00193081,0.00136021,0.00279761,-0.000203678,1.00343,0.00193654,0.0115211,1098,1723,7.52642,-38.7199
-119,-699,7.54126,38.9885,0.00103377,0.00188904,0.00119479,0.00273042,0.000192395,0.957252,0.00175966,0.0161792,1105,1723,7.54127,-38.9885
-112,-699,7.51465,39.2562,0.00138446,0.00175323,0.00100318,0.00258883,0.000548861,0.876286,0.00157514,0.0114747,1112,1723,7.5146,-39.2563
-105,-699,7.52563,39.5166,0.00165607,0.00141137,0.000724353,0.00226833,0.000799106,0.701734,0.00132854,0.0120902,1119,1723,7.52566,-39.5166
-98,-699,7.59229,39.7473,0.00190029,0.000998147,0.00048442,0.00211113,0.000787307,0.410514,0.00123191,0.0144508,1126,1723,7.59227,-39.7474
-91,-699,7.60425,39.9897,0.00216838,0.000522413,0.000252086,0.00220612,0.00048467,0.148617,0.00133876,0.0199955,1133,1723,7.60425,-39.9898
-84,-699,7.5885,40.2119,0.00243652,0.000157217,2.33323e-05,0.00243676,0.000156978,0.0102351,0.00157479,0.0242438,1140,1723,7.58855,-40.2119
-77,-699,7.59949,40.403,0.00273753,-4.74852e-05,-0.000378736,0.00278811,-9.80709e-05,-0.132779,0.00189228,0.0163696,1147,1723,7.5995,-40.403
-70,-699,7.61755,40.6129,0.00296196,-0.000119046,-0.000719606,0.00312174,-0.000278832,-0.218501,0.00218006,0.016481,1154,1723,7.61754,-40.6129
-63,-699,7.63977,40.8378,0.00524265,-0.00161427,0.000629356,0.00529994,-0.00167155,0.0907735,0.00420278,0.014039,1161,1723,7.63982,-40.8377
-56,-699,7.63623,41.0081,0.00835344,-0.00316017,0.00354665,0.00935826,-0.00416499,0.276079,0.00799726,0.0103202,1168,1723,7.63625,-41.008
-49,-699,7.6582,41.1759,0.00985933,-0.00315495,0.00546303,0.0118485,-0.00514413,0.349196,0.010062,0.0233428,1175,1723,7.65821,-41.1759
-42,-699,7.703,41.3752,0.010932,-0.00283182,0.00722589,0.0140288,-0.00592859,0.404887,0.0118345,0.0276672,1182,1723,7.70298,-41.3752
-35,-699,7.72754,41.579,0.0115056,-0.00261362,0.00900819,0.0158909,-0.0069989,0.45304,0.0135437,0.0249174,1189,1723,7.72757,-41.579
-28,-699,7.79749,41.6957,0.0114244,-0.00200596,0.011022,0.0176158,-0.00819731,0.511801,0.0152303,0.0204693,1196,1723,7.79751,-41.6957
-21,-699,7.80359,41.7594,0.0192409,-0.00135686,0.0159298,0.0279111,-0.010027,0.498437,0.0227003,0.0144715,1203,1723,7.80357,-41.7594
-14,-699,7.82117,41.9043,0.0282552,0.0117947,0.0202542,0.0418874,-0.0018376,0.592415,0.0285572,0.0127486,1210,1723,7.8212,-41.9044
-7,-699,7.85022,42.0498,0.0367308,0.0196078,0.0238748,0.0535328,0.0028058,0.61324,0.034791,0.0094779,1217,1723,7.85024,-42.0498
0,-699,7.88965,42.1484,0.0434457,0.0271197,0.0266346,0.0631401,0.00742526,0.636703,0.0398496,0.011016,1224,1723,7.88971,-42.1485
7,-699,7.91394,42.2556,0.0492645,0.0346573,0.0282,0.0710914,0.0128304,0.658686,0.0437491,0.0159458,1231,1723,7.91392,-42.2556
14,-699,7.97595,42.3538,0.0545363,0.0417565,0.029033,0.0778743,0.0184185,0.67708,0.0469956,0.0172641,1238,1723,7.97601,-42.3538
21,-699,8.04443,42.3882,0.0587418,0.0474795,0.0289182,0.082572,0.0236493,0.689237,0.0491015,0.0167806,1245,1723,8.04448,-42.3882
28,-699,8.1051,42.4309,0.0609729,0.0508174,0.0275418,0.0839011,0.0278892,0.694239,0.049339,0.0154144,1252,1723,8.10512,-42.4309
35,-699,8.1532,42.5004,0.0608433,0.0518179,0.0249387,0.0816743,0.0309869,0.695891,0.0476098,0.0139048,1259,1723,8.15321,-42.5004
42,-699,8.18188,42.556,0.0577059,0.0507763,0.020724,0.0752527,0.0332295,0.70257,0.043546,0.0138003,1266,1723,8.18192,-42.5561
49,-699,8.23267,42.6025,0.0524532,0.0473756,0.0153849,0.0655074,0.0343214,0.703625,0.0378351,0.0156754,1273,1723,8.23265,-42.6026
56,-699,8.32007,42.6309,0.045803,0.0419215,0.00973145,0.0537854,0.0339392,0.686974,0.0314063,0.0156086,1280,1723,8.32004,-42.6308
63,-699,8.36292,42.6188,0.038593,0.0359251,0.00408254,0.041554,0.0329641,0.627492,0.0253296,0.0130994,1287,1723,8.36294,-42.6188
70,-699,8.38672,42.6163,0.0314906,0.02916,-0.0013444,0.0321045,0.0285462,-0.428319,0.020321,0.011749,1294,1723,8.38669,-42.6163
77,-699,8.39636,42.6147,0.025297,0.0230577,-0.0062565,0.0305332,0.0178214,-0.696856,0.0177104,0.012388,1301,1723,8.3964,-42.6148
84,-699,8.41882,42.5693,0.0159478,0.0177994,-0.0119291,0.0288387,0.00490862,-0.824125,0.0178164,0.0146834,1308,1723,8.41883,-42.5693
91,-699,8.49292,42.5286,0.00893935,0.0056873,-0.0156296,0.0230273,-0.00840066,-0.733567,0.0187886,0.0138241,1315,1723,8.49291,-42.5285
98,-699,8.55884,42.5013,0.00608653,0.00428978,-0.0169428,0.0221547,-0.0117784,-0.758911,0.0198943,0.0123635,1322,1723,8.55888,-42.5014
105,-699,8.59851,42.4785,0.00693092,0.00433773,-0.0167648,0.0224492,-0.0111805,-0.746805,0.0197761,0.0170587,1329,1723,8.59848,-42.4785
112,-699,8.64124,42.4092,0.0084284,0.00410846,-0.0158426,0.0222576,-0.00972075,-0.717646,0.0189298,0.0230502,1336,1723,8.64121,-42.4092
119,-699,8.66394,42.3119,0.00944913,0.00341526,-0.0149624,0.0216957,-0.00883134,-0.685915,0.018139,0.0173376,1343,1723,8.66389,-42.3119
126,-699,8.72717,42.23,0.00987452,0.00248822,-0.0140086,0.0206686,-0.00830584,-0.656513,0.0172285,0.0185995,1350,1723,8.72713,-42.23
133,-699,8.79846,42.1426,0.0100854,0.00172691,-0.0128226,0.0193927,-0.00758031,-0.627862,0.0160629,0.0161785,1357,1723,8.79849,-42.1425
140,-699,8.82483,42.0428,0.0102525,0.000955207,-0.0115223,0.0180286,-0.0068208,-0.593659,0.0148252,0.0164021,1364,1723,8.82488,-42.0429
147,-699,8.84875,41.9358,0.0103522,-0.00016413,-0.00974211,0.0161646,-0.00597651,-0.537934,0.0132266,0.0144156,1371,1723,8.84874,-41.9358
154,-699,8.86047,41.8064,0.0101784,-0.000556787,-0.00768121,0.0141816,-0.00456,-0.48044,0.0112858,0.0144489,1378,1723,8.86051,-41.8063
161,-699,8.91223,41.6528,0.00969546,-0.000926525,-0.00569154,0.0121691,-0.00340015,-0.409986,0.00945221,0.0108221,1385,1723,8.91226,-41.6528
168,-699,8.95117,41.5284,0.00864887,-0.00160871,-0.0039498,0.00999351,-0.00295336,-0.328128,0.0078346,0.0122937,1392,1723,8.9512,-41.5285
175,-699,8.99487,41.3959,0.00724733,-0.00035946,-0.00207529,0.00777668,-0.000888804,-0.249745,0.00550469,0.0140076,1399,1723,8.99493,-41.3959
182,-699,9.0105,41.1888,0.00578354,0.000242617,-0.000582842,0.00584419,0.000181972,-0.103677,0.0038369,0.0146885,1406,1723,9.01047,-41.1888
189,-699,9.01099,40.9951,0.0044105,0.000447418,0.00062269,0.00450604,0.000351883,0.152237,0.00289387,0.0155873,1413,1723,9.01097,-40.9951
196,-699,9.02893,40.8356,0.00350208,-0.000127714,0.0010496,0.00378373,-0.000409363,0.262164,0.00266942,0.0146379,1420,1723,9.0289,-40.8356
203,-699,9.01575,40.6685,0.00321465,-0.000255661,0.000960705,0.00346286,-0.000503866,0.252828,0.00249355,0.0127396,1427,1723,9.01572,-40.6685
210,-699,9.03479,40.4601,0.00289157,-0.000372997,0.000725507,0.00304554,-0.000526969,0.209124,0.0022269,0.0125926,1434,1723,9.03482,-40.46
217,-699,9.05017,40.2479,0.0024974,-0.00037408,0.000173134,0.0025078,-0.000384482,0.0600047,0.00181366,0.0129075,1441,1723,9.05016,-40.2479
224,-699,9.08545,40.0133,0.0021747,-0.000109652,-3.03269e-05,0.0021751,-0.000110054,-0.0132728,0.00148811,0.0151435,1448,1723,9.08545,-40.0133
231,-699,9.11462,39.7837,0.00177608,0.000246313,-0.000264249,0.00182044,0.000201953,-0.16632,0.00115222,0.0119304,1455,1723,9.1146,-39.7837
238,-699,9.0907,39.5233,0.00139322,0.000674726,-0.00028008,0.0014895,0.000578448,-0.331099,0.000867078,0.00977674,1462,1723,9.09072,-39.5233
245,-699,9.08447,39.2649,0.00102576,0.00128012,-0.000215074,0.0014028,0.000903079,-1.0524,0.000820993,0.0114576,1469,1723,9.08446,-39.2648
252,-699,9.0863,39.0132,0.000686339,0.00188541,-4.37187e-05,0.001887,0.000684747,-1.5344,0.00110304,0.010136,1476,1723,9.08636,-39.0132
259,-699,9.0636,38.7737,0.000456884,0.00231953,0.000244428,0.00235107,0.000425343,1.44246,0.0014466,0.0109031,1483,1723,9.06359,-38.7737
266,-699,9.05957,38.5203,0.000469002,0.00248669,0.000526025,0.00261559,0.000340099,1.33048,0.00164214,0.0127648,1490,1723,9.05957,-38.5202
273,-699,9.06848,38.2218,0.000995638,0.0031953,0.000303886,0.00323651,0.000954428,1.43601,0.00192029,0.0117599,1497,1723,9.06848,-38.2219
280,-699,9.073,37.9115,0.00163437,0.00350004,6.53734e-05,0.00350233,0.00163208,1.53581,0.00202363,0.011993,1504,1723,9.073,-37.9115
287,-699,9.06616,37.5988,0.00255396,0.00375798,-0.000397564,0.00387741,0.00243453,-1.27897,0.00226289,0.0109217,1511,1723,9.06619,-37.5987
294,-699,9.07043,37.3113,0.00364967,0.00416667,-0.00118234,0.00511844,0.0026979,-0.893022,0.00295658,0.0116226,1518,1723,9.07045,-37.3112
301,-699,9.07312,37.0265,0.00470101,0.00448292,-0.00238466,0.00697911,0.00220482,-0.76255,0.00411942,0.0123913,1525,1723,9.0731,-37.0265
308,-699,9.04956,36.7217,0.00561402,0.00507221,-0.00367427,0.00902736,0.00165887,-0.748599,0.00554857,0.0158745,1532,1723,9.04954,-36.7216
315,-699,9.03845,36.3927,0.00657014,0.00555291,-0.00518199,0.0112684,0.000854638,-0.73648,0.00724422,0.017862,1539,1723,9.03851,-36.3927
322,-699,8.99707,36.0492,0.00733886,0.0062976,-0.00680643,0.0136445,-8.07596e-06,-0.747227,0.00909905,0.0182365,1546,1723,8.99701,-36.0492
329,-699,8.95276,35.7103,0.0075903,0.00683543,-0.00798703,0.0152088,-0.000783077,-0.761788,0.01041,0.0168902,1553,1723,8.9528,-35.7103
336,-699,8.95386,35.4077,0.00754013,0.00723176,-0.00889085,0.0162781,-0.00150624,-0.776728,0.0113874,0.0214022,1560,1723,8.95385,-35.4077
343,-699,9.02856,35.0991,0.00729558,0.00663636,-0.00953484,0.0165065,-0.00257457,-0.768121,0.0119553,0.0294244,1567,1723,9.02857,-35.0992
350,-699,8.95166,34.6406,0.0070964,0.00557451,-0.00994927,0.0163138,-0.00364288,-0.747231,0.0122717,0.0399985,1574,1723,8.95164,-34.6406
357,-699,8.70801,34.0176,0.00663887,0.00547107,-0.0102479,0.0163195,-0.00420959,-0.75694,0.012521,0.0435124,1581,1723,8.70796,-34.0176
364,-699,8.53723,33.4056,0,0,0,0,0,0,0,-1,1588,1723,8.53726,-33.4057
371,-699,8.89612,33.7874,0,0,0,0,0,0,0,-1,1595,1723,8.89618,-33.7874
378,-699,9.10986,33.605,0,0,0,0,0,0,0,-1,1602,1723,9.10986,-33.605
385,-699,6.32727,24.7136,0,0,0,0,0,0,0,-1,1609,1723,6.32725,-24.7136
392,-699,8.41809,30.5724,0,0,0,0,0,0,0,-1,1616,1723,8.41813,-30.5724
399,-699,8.88123,32.3671,0,0,0,0,0,0,0,-1,1623,1723,8.88125,-32.367
406,-699,7.04114,32.1934,0,0,0,0,0,0,0,-1,1630,1723,7.04113,-32.1934
413,-699,9.31396,23.2781,0,0,0,0,0,0,0,-1,1637,1723,9.31396,-23.278
420,-699,2.15076,7.65527,0,0,0,0,0,0,0,-1,1644,1723,2.15079,-7.65522
427,-699,3.36328,8.2428,0,0,0,0,0,0,0,-1,1651,1723,3.36332,-8.24283
434,-699,4.66455,8.90222,0,0,0,0,0,0,0,-1,1658,1723,4.66456,-8.90223
441,-699,0,0,0,0,0,0,0,0,0,-1,1665,1723,0,0
448,-699,0,0,0,0,0,0,0,0,0,-1,1672,1723,0,0
455,-699,0,0,0,0,0,0,0,0,0,-1,1679,1723,0,0
462,-699,0,0,0,0,0,0,0,0,0,-1,1686,1723,0,0
469,-699,0,0,0,0,0,0,0,0,0,-1,1693,1723,0,0
476,-699,0,0,0,0,0,0,0,0,0,-1,1700,1723,0,0
483,-699,0,0,0,0,0,0,0,0,0,-1,1707,1723,0,0
490,-699,0,0,0,0,0,0,0,0,0,-1,1714,1723,0,0
497,-699,0,0,0,0,0,0,0,0,0,-1,1721,1723,0,0
504,-699,0,0,0,0,0,0,0,0,0,-1,1728,1723,0,0
511,-699,0,0,0,0,0,0,0,0,0,-1,1735,1723,0,0
518,-699,0,0,0,0,0,0,0,0,0,-1,1742,1723,0,0
525,-699,0,0,0,0,0,0,0,0,0,-1,1749,1723,0,0
532,-699,0,0,0,0,0,0,0,0,0,-1,1756,1723,0,0
539,-699,0,0,0,0,0,0,0,0,0,-1,1763,1723,0,0
546,-699,0,0,0,0,0,0,0,0,0,-1,1770,1723,0,0
553,-699,0,0,0,0,0,0,0,0,0,-1,1777,1723,0,0
560,-699,0,0,0,0,0,0,0,0,0,-1,1784,1723,0,0
567,-699,0,0,0,0,0,0,0,0,0,-1,1791,1723,0,0
574,-699,0,0,0,0,0,0,0,0,0,-1,1798,1723,0,0
581,-699,0,0,0,0,0,0,0,0,0,-1,1805,1723,0,0
588,-699,0,0,0,0,0,0,0,0,0,-1,1812,1723,0,0
595,-699,0,0,0,0,0,0,0,0,0,-1,1819,1723,0,0
602,-699,0,0,0,0,0,0,0,0,0,-1,1826,1723,0,0
609,-699,0,0,0,0,0,0,0,0,0,-1,1833,1723,0,0
616,-699,0,0,0,0,0,0,0,0,0,-1,1840,1723,0,0
623,-699,0,0,0,0,0,0,0,0,0,-1,1847,1723,0,0
630,-699,0,0,0,0,0,0,0,0,0,-1,1854,1723,0,0
637,-699,0,0,0,0,0,0,0,0,0,-1,1861,1723,0,0
644,-699,0,0,0,0,0,0,0,0,0,-1,1868,1723,0,0
651,-699,0,0,0,0,0,0,0,0,0,-1,1875,1723,0,0
658,-699,0,0,0,0,0,0,0,0,0,-1,1882,1723,0,0
665,-699,0,0,0,0,0,0,0,0,0,-1,1889,1723,0,0
672,-699,0,0,0,0,0,0,0,0,0,-1,1896,1723,0,0
679,-699,0,0,0,0,0,0,0,0,0,-1,1903,1723,0,0
686,-699,0,0,0,0,0,0,0,0,0,-1,1910,1723,0,0
693,-699,0,0,0,0,0,0,0,0,0,-1,1917,1723,0,0
700,-699,0,0,0,0,0,0,0,0,0,-1,1924,1723,0,0
707,-699,0,0,0,0,0,0,0,0,0,-1,1931,1723,0,0
714,-699,0,0,0,0,0,0,0,0,0,-1,1938,1723,0,0
721,-699,0,0,0,0,0,0,0,0,0,-1,1945,1723,0,0
728,-699,0,0,0,0,0,0,0,0,0,-1,1952,1723,0,0
735,-699,0,0,0,0,0,0,0,0,0,-1,1959,1723,0,0
742,-699,0,0,0,0,0,0,0,0,0,-1,1966,1723,0,0
749,-699,0,0,0,0,0,0,0,0,0,-1,1973,1723,0,0
756,-699,0,0,0,0,0,0,0,0,0,-1,1980,1723,0,0
763,-699,0,0,0,0,0,0,0,0,0,-1,1987,1723,0,0
770,-699,0,0,0,0,0,0,0,0,0,-1,1994,1723,0,0
777,-699,0,0,0,0,0,0,0,0,0,-1,2001,1723,0,0
784,-699,0,0,0,0,0,0,0,0,0,-1,2008,1723,0,0
791,-699,0,0,0,0,0,0,0,0,0,-1,2015,1723,0,0
798,-699,0,0,0,0,0,0,0,0,0,-1,2022,1723,0,0
805,-699,0,0,0,0,0,0,0,0,0,-1,2029,1723,0,0
812,-699,0,0,0,0,0,0,0,0,0,-1,2036,1723,0,0
-700,-706,0,0,0,0,0,0,0,0,0,-1,524,1730,0,0
-693,-706,0,0,0,0,0,0,0,0,0,-1,531,1730,0,0
-686,-706,0,0,0,0,0,0,0,0,0,-1,538,1730,0,0
-679,-706,0,0,0,0,0,0,0,0,0,-1,545,1730,0,0
-672,-706,0,0,0,0,0,0,0,0,0,-1,552,1730,0,0
-665,-706,0,0,0,0,0,0,0,0,0,-1,559,1730,0,0
-658,-706,0,0,0,0,0,0,0,0,0,-1,566,1730,0,0
-651,-706,0,0,0,0,0,0,0,0,0,-1,573,1730,0,0
-644,-706,0,0,0,0,0,0,0,0,0,-1,580,1730,0,0
-637,-706,0,0,0,0,0,0,0,0,0,-1,587,1730,0,0
-630,-706,0,0,0,0,0,0,0,0,0,-1,594,1730,0,0
-623,-706,0,0,0,0,0,0,0,0,0,-1,601,1730,0,0
-616,-706,0,0,0,0,0,0,0,0,0,-1,608,1730,0,0
-609,-706,0,0,0,0,0,0,0,0,0,-1,615,1730,0,0
-602,-706,0,0,0,0,0,0,0,0,0,-1,622,1730,0,0
-595,-706,0,0,0,0,0,0,0,0,0,-1,629,1730,0,0
-588,-706,0,0,0,0,0,0,0,0,0,-1,636,1730,0,0
-581,-706,0,0,0,0,0,0,0,0,0,-1,643,1730,0,0
-574,-706,0,0,0,0,0,0,0,0,0,-1,650,1730,0,0
-567,-706,0,0,0,0,0,0,0,0,0,-1,657,1730,0,0
-560,-706,0,0,0,0,0,0,0,0,0,-1,664,1730,0,0
-553,-706,0,0,0,0,0,0,0,0,0,-1,671,1730,0,0
-546,-706,0,0,0,0,0,0,0,0,0,-1,678,1730,0,0
-539,-706,0,0,0,0,0,0,0,0,0,-1,685,1730,0,0
-532,-706,0,0,0,0,0,0,0,0,0,-1,692,1730,0,0
-525,-706,0,0,0,0,0,0,0,0,0,-1,699,1730,0,0
-518,-706,0,0,0,0,0,0,0,0,0,-1,706,1730,0,0
-511,-706,0,0,0,0,0,0,0,0,0,-1,713,1730,0,0
-504,-706,0,0,0,0,0,0,0,0,0,-1,720,1730,0,0
-497,-706,0,0,0,0,0,0,0,0,0,-1,727,1730,0,0
-490,-706,0,0,0,0,0,0,0,0,0,-1,734,1730,0,0
-483,-706,0,0,0,0,0,0,0,0,0,-1,741,1730,0,0
-476,-706,0,0,0,0,0,0,0,0,0,-1,748,1730,0,0
-469,-706,0,0,0,0,0,0,0,0,0,-1,755,1730,0,0
-462,-706,0,0,0,0,0,0,0,0,0,-1,762,1730,0,0
-455,-706,0,0,0,0,0,0,0,0,0,-1,769,1730,0,0
-448,-706,0,0,0,0,0,0,0,0,0,-1,776,1730,0,0
-441,-706,0,0,0,0,0,0,0,0,0,-1,783,1730,0,0
-434,-706,0,0,0,0,0,0,0,0,0,-1,790,1730,0,0
-427,-706,0,0,0,0,0,0,0,0,0,-1,797,1730,0,0
-420,-706,0,0,0,0,0,0,0,0,0,-1,804,1730,0,0
-413,-706,0,0,0,0,0,0,0,0,0,-1,811,1730,0,0
-406,-706,0,0,0,0,0,0,0,0,0,-1,818,1730,0,0
-399,-706,0,0,0,0,0,0,0,0,0,-1,825,1730,0,0
-392,-706,0,0,0,0,0,0,0,0,0,-1,832,1730,0,0
-385,-706,0,0,0,0,0,0,0,0,0,-1,839,1730,0,0
-378,-706,0,0,0,0,0,0,0,0,0,-1,846,1730,0,0
-371,-706,0,0,0,0,0,0,0,0,0,-1,853,1730,0,0
-364,-706,0,0,0,0,0,0,0,0,0,-1,860,1730,0,0
-357,-706,0,0,0,0,0,0,0,0,0,-1,867,1730,0,0
-350,-706,0,0,0,0,0,0,0,0,0,-1,874,1730,0,0
-343,-706,0,0,0,0,0,0,0,0,0,-1,881,1730,0,0
-336,-706,0,0,0,0,0,0,0,0,0,-1,888,1730,0,0
-329,-706,0,0,0,0,0,0,0,0,0,-1,895,1730,0,0
-322,-706,0,0,0,0,0,0,0,0,0,-1,902,1730,0,0
-315,-706,0,0,0,0,0,0,0,0,0,-1,909,1730,0,0
-308,-706,5.08191,14.6245,0,0,0,0,0,0,0,-1,916,1730,5.08188,-14.6245
-301,-706,7.45007,21.1975,0,0,0,0,0,0,0,-1,923,1730,7.45005,-21.1976
-294,-706,11.8603,21.026,0,0,0,0,0,0,0,-1,930,1730,11.8603,-21.026
-287,-706,10.3292,20.8425,0,0,0,0,0,0,0,-1,937,1730,10.3292,-20.8425
-280,-706,7.9162,21.8951,0,0,0,0,0,0,0,-1,944,1730,7.9162,-21.8952
-273,-706,7.38953,20.6355,0,0,0,0,0,0,0,-1,951,1730,7.38955,-20.6355
-266,-706,9.66724,22.8231,0,0,0,0,0,0,0,-1,958,1730,9.66722,-22.8231
-259,-706,3.47852,20.7363,0,0,0,0,0,0,0,-1,965,1730,3.47851,-20.7364
-252,-706,3.84259,20.1979,0,0,0,0,0,0,0,-1,972,1730,3.84256,-20.1979
-245,-706,4.698,19.2992,0,0,0,0,0,0,0,-1,979,1730,4.69799,-19.2991
-238,-706,7.70691,32.0442,0,0,0,0,0,0,0,-1,986,1730,7.70689,-32.0442
-231,-706,9.18854,33.4841,0,0,0,0,0,0,0,-1,993,1730,9.18854,-33.4841
-224,-706,8.14783,34.0765,0,0,0,0,0,0,0,-1,1000,1730,8.14782,-34.0765
-217,-706,8.09784,34.399,-0.0129125,0.0089599,0.000158415,0.00896105,-0.0129136,1.56355,0.0126979,0.0455298,1007,1730,8.09782,-34.399
-210,-706,8.15662,34.8219,-0.0103247,0.00720801,0.0021149,0.00745952,-0.0105762,1.45243,0.0104646,0.0375255,1014,1730,8.15659,-34.8219
-203,-706,8.10803,35.1664,-0.00833197,0.00549461,0.00324805,0.00621961,-0.00905696,1.35119,0.0088705,0.0315337,1021,1730,8.10809,-35.1664
-196,-706,8.02612,35.511,-0.0067052,0.00390789,0.00356664,0.00499512,-0.00779244,1.27491,0.00744155,0.0239889,1028,1730,8.02607,-35.511
-189,-706,7.94141,35.8762,-0.00528489,0.0026345,0.00387273,0.00421351,-0.0068639,1.18365,0.00645627,0.0192572,1035,1730,7.94143,-35.8762
-182,-706,7.92419,36.256,-0.00422062,0.00148282,0.00362881,0.00324635,-0.00598416,1.11843,0.00540681,0.0153936,1042,1730,7.92416,-36.256
-175,-706,7.93042,36.6052,-0.00310441,0.00105103,0.00346593,0.0030143,-0.00506768,1.05541,0.00471607,0.0153536,1049,1730,7.93045,-36.6052
-168,-706,7.93188,36.9329,-0.00244358,0.000762694,0.00314806,0.00269231,-0.0043732,1.02091,0.00411757,0.016626,1056,1730,7.93192,-36.9329
-161,-706,7.90552,37.2386,-0.00219518,0.000816121,0.00270376,0.00240519,-0.00378425,1.03945,0.00360292,0.0133127,1063,1730,7.90546,-37.2386
-154,-706,7.8783,37.568,-0.00191133,0.000994562,0.00245565,0.00239491,-0.00331168,1.05254,0.00330884,0.0127434,1070,1730,7.87825,-37.568
-147,-706,7.84839,37.8594,-0.00137332,0.00102404,0.00198477,0.00214401,-0.0024933,1.05705,0.00267988,0.0126491,1077,1730,7.84838,-37.8594
-140,-706,7.83887,38.1611,-0.00115295,0.00138603,0.00168798,0.00222862,-0.00199554,1.10781,0.00244006,0.0116451,1084,1730,7.83891,-38.1612
-133,-706,7.823,38.4447,-0.000920151,0.00162971,0.00172643,0.00250095,-0.00179138,1.10344,0.00248944,0.00865809,1091,1730,7.82295,-38.4447
-126,-706,7.81799,38.7106,-0.000374776,0.00192409,0.00178122,0.00289454,-0.00134523,1.07193,0.00250172,0.0126355,1098,1730,7.818,-38.7106
-119,-706,7.8075,38.9767,-1.39846e-05,0.00188868,0.00159188,0.00279183,-0.00091714,1.05473,0.00223069,0.0179912,1105,1730,7.80754,-38.9766
-112,-706,7.8053,39.2863,0.000358207,0.00181928,0.00141134,0.00267795,-0.000500459,1.02422,0.00197339,0.0130173,1112,1730,7.80526,-39.2863
-105,-706,7.78662,39.5439,0.000643081,0.00156554,0.00111995,0.00231551,-0.000106892,0.98073,0.00158051,0.00927009,1119,1730,7.78666,-39.5439
-98,-706,7.80969,39.7645,0.000927126,0.00123126,0.000901659,0.00199359,0.0001648,0.868938,0.00127767,0.0110222,1126,1730,7.80973,-39.7645
-91,-706,7.81641,40.0022,0.00123179,0.000846741,0.000712848,0.00177765,0.000300876,0.653507,0.00109863,0.0140805,1133,1730,7.81638,-40.0021
-84,-706,7.80237,40.2418,0.00149332,0.000522652,0.00049239,0.00169936,0.000316612,0.396308,0.0010435,0.0155127,1140,1730,7.80242,-40.2418
-77,-706,7.80383,40.4287,0.00177746,0.000353877,0.000183368,0.0018007,0.000330637,0.126066,0.00110684,0.0153619,1147,1730,7.80385,-40.4287
-70,-706,7.81213,40.6493,0.00198152,0.000205508,-0.000116508,0.00198913,0.000197898,-0.0652285,0.00126529,0.0179585,1154,1730,7.81213,-40.6493
-63,-706,7.82568,40.859,0.00304518,-0.000505811,0.000362918,0.00308189,-0.000542523,0.100813,0.00225727,0.0131839,1161,1730,7.82564,-40.859
-56,-706,7.84033,41.037,0.00464132,-0.00124775,0.00175343,0.00512385,-0.00173028,0.268547,0.00411574,0.0122147,1168,1730,7.84037,-41.037
-49,-706,7.82751,41.2316,0.00555128,-0.00123829,0.0028023,0.00655848,-0.00224549,0.34504,0.00528237,0.0131981,1175,1730,7.82756,-41.2315
-42,-706,7.84888,41.4202,0.00627009,-0.00106941,0.00387267,0.00793556,-0.00273488,0.406148,0.00639985,0.0177521,1182,1730,7.84889,-41.4201
-35,-706,7.87622,41.5459,0.00708456,-0.00068782,0.00505219,0.00957231,-0.00317557,0.457557,0.00766263,0.0164493,1189,1730,7.87622,-41.5459
-28,-706,7.91296,41.6655,0.00747103,2.79677e-05,0.0063339,0.0110958,-0.0035968,0.519788,0.0088434,0.0105552,1196,1730,7.91292,-41.6655
-21,-706,7.91675,41.7916,0.0129366,0.00081637,0.00955903,0.0181946,-0.00444164,0.502887,0.0138498,0.0113759,1203,1730,7.91675,-41.7916
-14,-706,7.94507,41.9161,0.019421,0.0108143,0.0126718,0.0285003,0.00173507,0.621708,0.0184491,0.0111475,1210,1730,7.9451,-41.9161
-7,-706,7.97449,42.0549,0.0252462,0.0154686,0.0151318,0.0362593,0.00445547,0.629149,0.0228331,0.00909875,1217,1730,7.97453,-42.055
0,-706,8.02112,42.1584,0.0300126,0.0211398,0.017084,0.0432268,0.00792556,0.658363,0.026573,0.0120822,1224,1730,8.02113,-42.1585
7,-706,8.04187,42.2521,0.034458,0.0268409,0.0183843,0.0494241,0.0118748,0.683262,0.0297908,0.0135847,1231,1730,8.04187,-42.2521
14,-706,8.05334,42.3573,0.0384619,0.0322243,0.0191635,0.0547588,0.0159274,0.704732,0.0325238,0.0138319,1238,1730,8.05339,-42.3574
21,-706,8.09814,42.4067,0.0416143,0.0365855,0.0192799,0.0585431,0.0196567,0.720555,0.0344023,0.0116226,1245,1730,8.09817,-42.4067
28,-706,8.15186,42.475,0.0433011,0.039249,0.0185457,0.0599311,0.0226189,0.73099,0.0349462,0.0115825,1252,1730,8.15185,-42.475
35,-706,8.17993,42.5405,0.0432341,0.0401819,0.0170094,0.0587856,0.0246303,0.740657,0.0340881,0.0134934,1259,1730,8.17992,-42.5405
42,-706,8.19946,42.5818,0.0409109,0.0395987,0.0143427,0.0546125,0.0258971,0.762541,0.0315445,0.0129165,1266,1730,8.1995,-42.5818
49,-706,8.2334,42.6042,0.0369361,0.0371683,0.0108821,0.0479349,0.0261695,0.790733,0.0277142,0.0146101,1273,1730,8.23335,-42.6042
56,-706,8.30249,42.6232,0.0318905,0.0331052,0.00720386,0.0397273,0.0252684,0.827454,0.0232178,0.0133414,1280,1730,8.30245,-42.6231
63,-706,8.34058,42.6296,0.0264215,0.028558,0.00354625,0.0311934,0.0237861,0.931689,0.0188189,0.0107188,1287,1730,8.34062,-42.6297
70,-706,8.3595,42.6157,0.0209102,0.0231305,6.00954e-05,0.0231321,0.0209085,1.54376,0.0147363,0.0116124,1294,1730,8.35955,-42.6157
77,-706,8.38684,42.6101,0.0161745,0.0181991,-0.0029633,0.0203182,0.0140554,-0.94999,0.0120149,0.0116249,1301,1730,8.38688,-42.6101
84,-706,8.41479,42.593,0.0089792,0.0139503,-0.00662459,0.0185403,0.00438922,-0.964872,0.0111879,0.0093304,1308,1730,8.41477,-42.593
91,-706,8.46143,42.573,0.00381477,0.0040265,-0.00889665,0.0128179,-0.00497664,-0.791348,0.010601,0.00984051,1315,1730,8.46144,-42.573
98,-706,8.495,42.5454,0.00222661,0.00384757,-0.00927705,0.0123495,-0.0062753,-0.82897,0.010942,0.0140192,1322,1730,8.49494,-42.5454
105,-706,8.52905,42.5145,0.00315682,0.00332867,-0.00879654,0.0120397,-0.00555422,-0.790282,0.0103854,0.0172591,1329,1730,8.52907,-42.5145
112,-706,8.55066,42.4592,0.00411752,0.00271542,-0.00806375,0.0115106,-0.0046777,-0.742038,0.00961986,0.0158834,1336,1730,8.55068,-42.4592
119,-706,8.56287,42.3801,0.00477805,0.00185258,-0.00739654,0.0108551,-0.00422447,-0.687778,0.00898237,0.0132872,1343,1730,8.56284,-42.3801
126,-706,8.59668,42.2848,0.00507834,0.000920817,-0.00670558,0.01002,-0.00402082,-0.635093,0.00834947,0.0147821,1350,1730,8.59666,-42.2848
133,-706,8.63525,42.1768,0.0052853,0.000207994,-0.00586754,0.00913983,-0.00364654,-0.581228,0.00760592,0.0120606,1357,1730,8.63529,-42.1767
140,-706,8.68079,42.0529,0.00549318,-0.000351935,-0.00504075,0.00839733,-0.00325608,-0.522686,0.00694293,0.010797,1364,1730,8.68073,-42.0528
147,-706,8.72485,41.926,0.00566539,-0.00111601,-0.00392558,0.00746188,-0.00291251,-0.429188,0.00617864,0.0180284,1371,1730,8.72485,-41.9261
154,-706,8.75037,41.8221,0.00569277,-0.00119274,-0.00271032,0.00663162,-0.00213158,-0.333461,0.00527711,0.0183749,1378,1730,8.75035,-41.8221
161,-706,8.74353,41.6841,0.0055524,-0.0011401,-0.00158609,0.00590926,-0.00149697,-0.221312,0.00452186,0.0106702,1385,1730,8.74351,-41.6841
168,-706,8.77795,41.5325,0.00500437,-0.00122642,-0.000769573,0.00509801,-0.00132007,-0.121087,0.00391362,0.0111669,1392,1730,8.77796,-41.5324
175,-706,8.80505,41.3921,0.00414938,-0.000164066,-6.60517e-05,0.00415039,-0.000165077,-0.0153082,0.00282356,0.0111202,1399,1730,8.805,-41.3921
182,-706,8.80347,41.2053,0.00328657,0.000383874,0.000205925,0.00330111,0.000369338,0.0704722,0.00208854,0.0115925,1406,1730,8.80342,-41.2053
189,-706,8.80334,41.0072,0.00260781,0.000561212,0.000390437,0.00267977,0.000489257,0.182249,0.00164782,0.0138353,1413,1730,8.80339,-41.0072
196,-706,8.81299,40.8333,0.0020876,0.000423519,0.000466257,0.00220934,0.000301785,0.255388,0.00138331,0.0111079,1420,1730,8.81294,-40.8333
203,-706,8.81665,40.6602,0.00183053,0.000513804,0.000308586,0.00189927,0.000445072,0.219154,0.00114697,0.0129645,1427,1730,8.8166,-40.6602
210,-706,8.82397,40.4419,0.00149472,0.000753383,0.000130801,0.00151712,0.000730981,0.169619,0.000876102,0.0127402,1434,1730,8.82398,-40.4419
217,-706,8.83179,40.2358,0.00105571,0.000975963,-0.000132253,0.00115397,0.000877704,-0.638978,0.000695756,0.0127473,1441,1730,8.83176,-40.2359
224,-706,8.84399,40.0203,0.000691643,0.00132979,-0.000257968,0.00142103,0.000600405,-1.23085,0.000823709,0.0184911,1448,1730,8.84394,-40.0203
231,-706,8.87463,39.7773,0.000253135,0.00172365,-0.00035447,0.00180464,0.000172149,-1.34618,0.00115001,0.013973,1455,1730,8.8746,-39.7773
238,-706,8.84753,39.5352,-8.02975e-05,0.00237399,-0.00028942,0.00240766,-0.000113965,-1.45499,0.00164441,0.00859569,1462,1730,8.84753,-39.5352
245,-706,8.83655,39.2677,-0.000391575,0.00324172,-6.16218e-05,0.00324277,-0.00039262,-1.55384,0.0023039,0.0113365,1469,1730,8.8365,-39.2677
252,-706,8.83521,39.0221,-0.000536418,0.00358442,0.000353727,0.00361457,-0.000566561,1.48579,0.00261907,0.0113412,1476,1730,8.83526,-39.0221
259,-706,8.83081,38.7773,-0.000529504,0.00375249,0.000774455,0.00388825,-0.000665269,1.39725,0.00284002,0.0125432,1483,1730,8.83085,-38.7773
266,-706,8.80994,38.5381,-0.000198513,0.00360735,0.00112299,0.003914,-0.000505166,1.30423,0.00279299,0.0134559,1490,1730,8.80988,-38.5381
273,-706,8.79199,38.2458,0.000875167,0.00449961,0.00059479,0.00459472,0.000780055,1.41223,0.00283908,0.0131052,1497,1730,8.79194,-38.2458
280,-706,8.77954,37.9275,0.00195745,0.0047062,0.000229653,0.00472525,0.0019384,1.48801,0.00274275,0.0104099,1504,1730,8.77951,-37.9275
287,-706,8.77771,37.6224,0.00339442,0.00490627,-0.000438866,0.00502443,0.00327626,-1.30779,0.00294524,0.0113448,1511,1730,8.77776,-37.6225
294,-706,8.78699,37.3541,0.00503866,0.00530623,-0.00150545,0.00668382,0.00366106,-0.829715,0.00386477,0.0116321,1518,1730,8.78701,-37.3541
301,-706,8.77356,37.0475,0.00665851,0.00564105,-0.00309556,0.00928687,0.0030127,-0.703955,0.00547088,0.0104116,1525,1730,8.77356,-37.0474
308,-706,8.74792,36.7142,0.00818453,0.00636854,-0.00482091,0.0121822,0.00237086,-0.692316,0.00745788,0.011901,1532,1730,8.74795,-36.7142
315,-706,8.71375,36.4048,0.00979133,0.00699393,-0.00695724,0.0154891,0.00129618,-0.686199,0.00992226,0.0190948,1539,1730,8.71378,-36.4048
322,-706,8.67139,36.1383,0.011198,0.00811797,-0.00937814,0.0191617,0.000154225,-0.704019,0.0127234,0.0282383,1546,1730,8.67137,-36.1383
329,-706,8.74402,35.7083,0.0118041,0.0090882,-0.0111421,0.0216707,-0.000778324,-0.724758,0.0147134,0.0304059,1553,1730,8.74407,-35.7083
336,-706,8.69165,35.188,0.0120234,0.00995255,-0.0126414,0.0236717,-0.00169574,-0.744536,0.0163757,0.0444254,1560,1730,8.69165,-35.188
343,-706,8.75525,34.9238,0.0119811,0.00948906,-0.0138685,0.0246594,-0.00318928,-0.740596,0.0175993,0.0412392,1567,1730,8.75521,-34.9238
350,-706,8.96436,34.6709,0.011935,0.00831392,-0.0147957,0.0250306,-0.00478166,-0.724517,0.0184882,0.044,1574,1730,8.96438,-34.6709
357,-706,9.27856,34.3302,0,0,0,0,0,0,0,-1,1581,1730,9.27858,-34.3303
364,-706,8.38489,33.2346,0,0,0,0,0,0,0,-1,1588,1730,8.38492,-33.2346
371,-706,6.27881,24.0759,0,0,0,0,0,0,0,-1,1595,1730,6.27883,-24.0759
378,-706,4.80444,25.0989,0,0,0,0,0,0,0,-1,1602,1730,4.80445,-25.0989
385,-706,5.55212,24.9753,0,0,0,0,0,0,0,-1,1609,1730,5.55214,-24.9753
392,-706,6.2998,24.8518,0,0,0,0,0,0,0,-1,1616,1730,6.29983,-24.8518
399,-706,3.9502,25.5428,0,0,0,0,0,0,0,-1,1623,1730,3.95019,-25.5428
406,-706,6.04211,18.8085,0,0,0,0,0,0,0,-1,1630,1730,6.04216,-18.8085
413,-706,6.23413,20.7725,0,0,0,0,0,0,0,-1,1637,1730,6.23413,-20.7725
420,-706,6.51294,21.9171,0,0,0,0,0,0,0,-1,1644,1730,6.51292,-21.9171
427,-706,0,0,0,0,0,0,0,0,0,-1,1651,1730,0,0
434,-706,0,0,0,0,0,0,0,0,0,-1,1658,1730,0,0
441,-706,0,0,0,0,0,0,0,0,0,-1,1665,1730,0,0
448,-706,0,0,0,0,0,0,0,0,0,-1,1672,1730,0,0
455,-706,0,0,0,0,0,0,0,0,0,-1,1679,1730,0,0
462,-706,0,0,0,0,0,0,0,0,0,-1,1686,1730,0,0
469,-706,0,0,0,0,0,0,0,0,0,-1,1693,1730,0,0
476,-706,0,0,0,0,0,0,0,0,0,-1,1700,1730,0,0
483,-706,0,0,0,0,0,0,0,0,0,-1,1707,1730,0,0
490,-706,0,0,0,0,0,0,0,0,0,-1,1714,1730,0,0
497,-706,0,0,0,0,0,0,0,0,0,-1,1721,1730,0,0
504,-706,0,0,0,0,0,0,0,0,0,-1,1728,1730,0,0
511,-706,0,0,0,0,0,0,0,0,0,-1,1735,1730,0,0
518,-706,0,0,0,0,0,0,0,0,0,-1,1742,1730,0,0
525,-706,0,0,0,0,0,0,0,0,0,-1,1749,1730,0,0
532,-706,0,0,0,0,0,0,0,0,0,-1,1756,1730,0,0
539,-706,0,0,0,0,0,0,0,0,0,-1,1763,1730,0,0
546,-706,0,0,0,0,0,0,0,0,0,-1,1770,1730,0,0
553,-706,0,0,0,0,0,0,0,0,0,-1,1777,1730,0,0
560,-706,0,0,0,0,0,0,0,0,0,-1,1784,1730,0,0
567,-706,0,0,0,0,0,0,0,0,0,-1,1791,1730,0,0
574,-706,0,0,0,0,0,0,0,0,0,-1,1798,1730,0,0
581,-706,0,0,0,0,0,0,0,0,0,-1,1805,1730,0,0
588,-706,0,0,0,0,0,0,0,0,0,-1,1812,1730,0,0
595,-706,0,0,0,0,0,0,0,0,0,-1,1819,1730,0,0
602,-706,0,0,0,0,0,0,0,0,0,-1,1826,1730,0,0
609,-706,0,0,0,0,0,0,0,0,0,-1,1833,1730,0,0
616,-706,0,0,0,0,0,0,0,0,0,-1,1840,1730,0,0
623,-706,0,0,0,0,0,0,0,0,0,-1,1847,1730,0,0
630,-706,0,0,0,0,0,0,0,0,0,-1,1854,1730,0,0
637,-706,0,0,0,0,0,0,0,0,0,-1,1861,1730,0,0
644,-706,0,0,0,0,0,0,0,0,0,-1,1868,1730,0,0
651,-706,0,0,0,0,0,0,0,0,0,-1,1875,1730,0,0
658,-706,0,0,0,0,0,0,0,0,0,-1,1882,1730,0,0
665,-706,0,0,0,0,0,0,0,0,0,-1,1889,1730,0,0
672,-706,0,0,0,0,0,0,0,0,0,-1,1896,1730,0,0
679,-706,0,0,0,0,0,0,0,0,0,-1,1903,1730,0,0
686,-706,0,0,0,0,0,0,0,0,0,-1,1910,1730,0,0
693,-706,0,0,0,0,0,0,0,0,0,-1,1917,1730,0,0
700,-706,0,0,0,0,0,0,0,0,0,-1,1924,1730,0,0
707,-706,0,0,0,0,0,0,0,0,0,-1,1931,1730,0,0
714,-706,0,0,0,0,0,0,0,0,0,-1,1938,1730,0,0
721,-706,0,0,0,0,0,0,0,0,0,-1,1945,1730,0,0
728,-706,0,0,0,0,0,0,0,0,0,-1,1952,1730,0,0
735,-706,0,0,0,0,0,0,0,0,0,-1,1959,1730,0,0
742,-706,0,0,0,0,0,0,0,0,0,-1,1966,1730,0,0
749,-706,0,0,0,0,0,0,0,0,0,-1,1973,1730,0,0
756,-706,0,0,0,0,0,0,0,0,0,-1,1980,1730,0,0
763,-706,0,0,0,0,0,0,0,0,0,-1,1987,1730,0,0
770,-706,0,0,0,0,0,0,0,0,0,-1,1994,1730,0,0
777,-706,0,0,0,0,0,0,0,0,0,-1,2001,1730,0,0
784,-706,0,0,0,0,0,0,0,0,0,-1,2008,1730,0,0
791,-706,0,0,0,0,0,0,0,0,0,-1,2015,1730,0,0
798,-706,0,0,0,0,0,0,0,0,0,-1,2022,1730,0,0
805,-706,0,0,0,0,0,0,0,0,0,-1,2029,1730,0,0
812,-706,0,0,0,0,0,0,0,0,0,-1,2036,1730,0,0
-700,-713,0,0,0,0,0,0,0,0,0,-1,524,1737,0,0
-693,-713,0,0,0,0,0,0,0,0,0,-1,531,1737,0,0
-686,-713,0,0,0,0,0,0,0,0,0,-1,538,1737,0,0
-679,-713,0,0,0,0,0,0,0,0,0,-1,545,1737,0,0
-672,-713,0,0,0,0,0,0,0,0,0,-1,552,1737,0,0
-665,-713,0,0,0,0,0,0,0,0,0,-1,559,1737,0,0
-658,-713,0,0,0,0,0,0,0,0,0,-1,566,1737,0,0
-651,-713,0,0,0,0,0,0,0,0,0,-1,573,1737,0,0
-644,-713,0,0,0,0,0,0,0,0,0,-1,580,1737,0,0
-637,-713,0,0,0,0,0,0,0,0,0,-1,587,1737,0,0
-630,-713,0,0,0,0,0,0,0,0,0,-1,594,1737,0,0
-623,-713,0,0,0,0,0,0,0,0,0,-1,601,1737,0,0
-616,-713,0,0,0,0,0,0,0,0,0,-1,608,1737,0,0
-609,-713,0,0,0,0,0,0,0,0,0,-1,615,1737,0,0
-602,-713,0,0,0,0,0,0,0,0,0,-1,622,1737,0,0
-595,-713,0,0,0,0,0,0,0,0,0,-1,629,1737,0,0
-588,-713,0,0,0,0,0,0,0,0,0,-1,636,1737,0,0
-581,-713,0,0,0,0,0,0,0,0,0,-1,643,1737,0,0
-574,-713,0,0,0,0,0,0,0,0,0,-1,650,1737,0,0
-567,-713,0,0,0,0,0,0,0,0,0,-1,657,1737,0,0
-560,-713,0,0,0,0,0,0,0,0,0,-1,664,1737,0,0
-553,-713,0,0,0,0,0,0,0,0,0,-1,671,1737,0,0
-546,-713,0,0,0,0,0,0,0,0,0,-1,678,1737,0,0
-539,-713,0,0,0,0,0,0,0,0,0,-1,685,1737,0,0
-532,-713,0,0,0,0,0,0,0,0,0,-1,692,1737,0,0
-525,-713,0,0,0,0,0,0,0,0,0,-1,699,1737,0,0
-518,-713,0,0,0,0,0,0,0,0,0,-1,706,1737,0,0
-511,-713,0,0,0,0,0,0,0,0,0,-1,713,1737,0,0
-504,-713,0,0,0,0,0,0,0,0,0,-1,720,1737,0,0
-497,-713,0,0,0,0,0,0,0,0,0,-1,727,1737,0,0
-490,-713,0,0,0,0,0,0,0,0,0,-1,734,1737,0,0
-483,-713,0,0,0,0,0,0,0,0,0,-1,741,1737,0,0
-476,-713,0,0,0,0,0,0,0,0,0,-1,748,1737,0,0
-469,-713,0,0,0,0,0,0,0,0,0,-1,755,1737,0,0
-462,-713,0,0,0,0,0,0,0,0,0,-1,762,1737,0,0
-455,-713,0,0,0,0,0,0,0,0,0,-1,769,1737,0,0
-448,-713,0,0,0,0,0,0,0,0,0,-1,776,1737,0,0
-441,-713,0,0,0,0,0,0,0,0,0,-1,783,1737,0,0
-434,-713,0,0,0,0,0,0,0,0,0,-1,790,1737,0,0
-427,-713,0,0,0,0,0,0,0,0,0,-1,797,1737,0,0
-420,-713,0,0,0,0,0,0,0,0,0,-1,804,1737,0,0
-413,-713,0,0,0,0,0,0,0,0,0,-1,811,1737,0,0
-406,-713,0,0,0,0,0,0,0,0,0,-1,818,1737,0,0
-399,-713,0,0,0,0,0,0,0,0,0,-1,825,1737,0,0
-392,-713,0,0,0,0,0,0,0,0,0,-1,832,1737,0,0
-385,-713,0,0,0,0,0,0,0,0,0,-1,839,1737,0,0
-378,-713,0,0,0,0,0,0,0,0,0,-1,846,1737,0,0
-371,-713,0,0,0,0,0,0,0,0,0,-1,853,1737,0,0
-364,-713,0,0,0,0,0,0,0,0,0,-1,860,1737,0,0
-357,-713,0,0,0,0,0,0,0,0,0,-1,867,1737,0,0
-350,-713,0,0,0,0,0,0,0,0,0,-1,874,1737,0,0
-343,-713,0,0,0,0,0,0,0,0,0,-1,881,1737,0,0
-336,-713,0,0,0,0,0,0,0,0,0,-1,888,1737,0,0
-329,-713,0,0,0,0,0,0,0,0,0,-1,895,1737,0,0
-322,-713,0,0,0,0,0,0,0,0,0,-1,902,1737,0,0
-315,-713,0,0,0,0,0,0,0,0,0,-1,909,1737,0,0
-308,-713,0,0,0,0,0,0,0,0,0,-1,916,1737,0,0
-301,-713,0,0,0,0,0,0,0,0,0,-1,923,1737,0,0
-294,-713,7.17883,22.0453,0,0,0,0,0,0,0,-1,930,1737,7.17881,-22.0453
-287,-713,11.8916,21.5834,0,0,0,0,0,0,0,-1,937,1737,11.8916,-21.5833
-280,-713,10.2786,21.3551,0,0,0,0,0,0,0,-1,944,1737,10.2787,-21.3551
-273,-713,11.1981,23.8683,0,0,0,0,0,0,0,-1,951,1737,11.198,-23.8683
-266,-713,3.17981,19.8851,0,0,0,0,0,0,0,-1,958,1737,3.17983,-19.8851
-259,-713,3.5921,19.6868,0,0,0,0,0,0,0,-1,965,1737,3.59207,-19.6868
-252,-713,4.55469,20.5758,0,0,0,0,0,0,0,-1,972,1737,4.55466,-20.5758
-245,-713,3.89014,25.9825,0,0,0,0,0,0,0,-1,979,1737,3.89013,-25.9826
-238,-713,6.62506,30.5463,0,0,0,0,0,0,0,-1,986,1737,6.62509,-30.5462
-231,-713,8.23462,31.5148,0,0,0,0,0,0,0,-1,993,1737,8.23462,-31.5148
-224,-713,7.59491,25.9907,0,0,0,0,0,0,0,-1,1000,1737,7.59488,-25.9908
-217,-713,8.41052,34.3452,0,0,0,0,0,0,0,-1,1007,1737,8.41053,-34.3452
-210,-713,8.53607,34.8331,0,0,0,0,0,0,0,-1,1014,1737,8.53607,-34.8331
-203,-713,8.07361,34.8649,-0.0101866,0.00672788,0.0052319,0.00821537,-0.0116741,1.29379,0.0115409,0.0498662,1021,1737,8.07367,-34.8648
-196,-713,7.81177,35.4933,-0.00823986,0.00472276,0.00529362,0.00660983,-0.0101269,1.22836,0.00973383,0.0494318,1028,1737,7.81179,-35.4932
-189,-713,8.276,35.7946,-0.00655272,0.00324715,0.00540142,0.00564,-0.00894557,1.15378,0.00849277,0.0430136,1035,1737,8.27597,-35.7945
-182,-713,8.23401,36.1262,-0.00546509,0.00190406,0.00488835,0.00434093,-0.00790196,1.10835,0.00716741,0.0285168,1042,1737,8.23405,-36.1262
-175,-713,8.27795,36.6659,0,0,0,0,0,0,0,-1,1049,1737,8.278,-36.6659
-168,-713,8.26953,36.9684,0,0,0,0,0,0,0,-1,1056,1737,8.26953,-36.9683
-161,-713,8.24084,37.2197,-0.0033516,0.00105229,0.00359313,0.00306451,-0.00536381,1.06029,0.00492608,0.0182227,1063,1737,8.24086,-37.2197
-154,-713,8.15198,37.5555,-0.00308583,0.0012123,0.00328042,0.00298492,-0.00485845,1.07538,0.00457123,0.0131442,1070,1737,8.15192,-37.5556
-147,-713,8.1283,37.8883,-0.00248452,0.00117764,0.00265511,0.00257184,-0.00387872,1.08727,0.00374963,0.0194614,1077,1737,8.12829,-37.8883
-140,-713,8.13953,38.1926,-0.0022973,0.00161738,0.00228166,0.00266623,-0.00334615,1.13992,0.00347864,0.0183547,1084,1737,8.13952,-38.1926
-133,-713,8.11035,38.4449,-0.002088,0.00190612,0.00235457,0.0029965,-0.00317837,1.13711,0.00356558,0.011172,1091,1737,8.11034,-38.4449
-126,-713,8.08728,38.7063,-0.00143041,0.00232428,0.00248762,0.00356345,-0.00266958,1.10864,0.00361095,0.0173247,1098,1737,8.08733,-38.7063
-119,-713,8.06763,38.9742,-0.00105246,0.0022702,0.00225171,0.00340712,-0.00218938,1.10323,0.00325654,0.0265173,1105,1737,8.06758,-38.9743
-112,-713,8.04407,39.2711,-0.000627682,0.00225635,0.00205874,0.00332786,-0.00169919,1.09091,0.00295271,0.0137145,1112,1737,8.04406,-39.2712
-105,-713,8.05054,39.5247,-0.00031805,0.00206532,0.00172258,0.00296824,-0.00122097,1.088,0.00248778,0.0107939,1119,1737,8.05058,-39.5247
-98,-713,8.04871,39.7742,4.94762e-06,0.00180466,0.00150414,0.00265756,-0.000847956,1.05497,0.00211189,0.00989121,1126,1737,8.04865,-39.7742
-91,-713,8.01855,40.0055,0.00037125,0.0014891,0.00133917,0.00238131,-0.000520958,0.983091,0.00178669,0.0100527,1133,1737,8.01859,-40.0055
-84,-713,8.00146,40.2344,0.00064373,0.00116686,0.00109684,0.00203289,-0.000222302,0.902447,0.00143511,0.00894794,1140,1737,8.00147,-40.2344
-77,-713,8.00818,40.4569,0.000945901,0.000971441,0.000835501,0.00179427,0.000123072,0.79304,0.00115734,0.0123372,1147,1737,8.00822,-40.4569
-70,-713,8.02148,40.6619,0.00112785,0.000702106,0.00051291,0.00147031,0.000359648,0.588702,0.000885025,0.0146227,1154,1737,8.02144,-40.6618
-63,-713,8.01819,40.8636,0.00127118,0.000331867,0.000320531,0.00137014,0.000232914,0.299434,0.000846535,0.0125865,1161,1737,8.01821,-40.8636
-56,-713,8.01599,41.0488,0.00171001,6.99436e-05,0.000624445,0.00192069,-0.000140745,0.325407,0.00132986,0.0123025,1168,1737,8.01603,-41.0488
-49,-713,7.98425,41.233,0.00209699,4.54848e-05,0.000983991,0.00249264,-0.000350173,0.382311,0.00178994,0.0148631,1175,1737,7.98424,-41.2331
-42,-713,7.99377,41.4025,0.00244494,7.46869e-05,0.00148218,0.00315755,-0.00063792,0.448155,0.00234675,0.017549,1182,1737,7.99379,-41.4024
-35,-713,8.03979,41.5261,0.00295858,0.000300283,0.00211074,0.0041238,-0.000864935,0.504409,0.00307829,0.014585,1189,1737,8.0398,-41.5262
-28,-713,8.07263,41.6846,0.00333823,0.000837095,0.00279253,0.00514743,-0.000972102,0.574876,0.00379736,0.013331,1196,1737,8.07263,-41.6846
-21,-713,8.04956,41.8185,0.0065653,0.00149738,0.00465728,0.00933334,-0.00127066,0.536252,0.00668615,0.0097002,1203,1737,8.04959,-41.8185
-14,-713,8.05554,41.933,0.0102005,0.00808324,0.00644474,0.015673,0.00261076,0.703994,0.00969627,0.0108309,1210,1737,8.05553,-41.933
-7,-713,8.08752,42.0697,0.0135882,0.0115565,0.00810347,0.0207393,0.00440547,0.723046,0.0126167,0.00987006,1217,1737,8.08753,-42.0697
0,-713,8.12439,42.1616,0.0168659,0.0159663,0.00960457,0.0260312,0.00680097,0.761999,0.0155897,0.0146697,1224,1737,8.12435,-42.1616
7,-713,8.15222,42.2439,0.0199808,0.020557,0.0107221,0.0309948,0.00954292,0.79883,0.0183299,0.0184208,1231,1737,8.1522,-42.2439
14,-713,8.16125,42.3568,0.0227966,0.02498,0.0115035,0.0354435,0.0123331,0.832708,0.0207763,0.0132024,1238,1737,8.16127,-42.3568
21,-713,8.16968,42.4338,0.0250258,0.0286792,0.0118791,0.0388712,0.0148338,0.861687,0.022651,0.0104758,1245,1737,8.16967,-42.4339
28,-713,8.17883,42.4963,0.0262787,0.0311818,0.0117445,0.040728,0.0167326,0.888291,0.0236386,0.0107974,1252,1737,8.1788,-42.4963
35,-713,8.20166,42.552,0.0263391,0.032291,0.0110209,0.0407307,0.0178995,0.917267,0.0235733,0.0110871,1259,1737,8.20163,-42.552
42,-713,8.23572,42.6042,0.0249611,0.0320638,0.00965202,0.0387971,0.0182278,0.961682,0.0224131,0.0113396,1266,1737,8.23566,-42.6042
49,-713,8.26233,42.5967,0.0224962,0.0303379,0.00774556,0.0350985,0.0177356,1.0197,0.0202645,0.0111401,1273,1737,8.26236,-42.5966
56,-713,8.29541,42.6044,0.0193438,0.0273463,0.00564505,0.0302644,0.0164258,1.09371,0.0174944,0.0114169,1280,1737,8.29536,-42.6044
63,-713,8.31677,42.63,0.0159405,0.0238283,0.00353943,0.0251836,0.0145852,1.20509,0.0146004,0.0122602,1287,1737,8.31677,-42.63
70,-713,8.33887,42.6239,0.0125144,0.0194608,0.00149956,0.0197707,0.0122045,1.36701,0.0115188,0.0119324,1294,1737,8.33887,-42.6239
77,-713,8.37488,42.6171,0.00948301,0.0152557,-0.000178,0.0152612,0.00947753,-1.54,0.00889667,0.011829,1301,1737,8.37482,-42.6171
84,-713,8.39551,42.6278,0.00470766,0.0115691,-0.00234612,0.0122946,0.00398217,-1.27089,0.00724357,0.0116391,1308,1737,8.39554,-42.6278
91,-713,8.41162,42.6119,0.0018308,0.0037584,-0.00343016,0.00635759,-0.000768393,-0.922356,0.00451637,0.0114389,1315,1737,8.41168,-42.6119
98,-713,8.44238,42.546,0.00117435,0.00317521,-0.0036299,0.00594002,-0.00159047,-0.919864,0.0045831,0.0115731,1322,1737,8.44244,-42.5461
105,-713,8.46362,42.4971,0.00154031,0.00233612,-0.00335461,0.00531635,-0.00143991,-0.844429,0.00410918,0.0140855,1329,1737,8.46367,-42.4971
112,-713,8.47498,42.4609,0.00199115,0.00147093,-0.00288661,0.00462934,-0.00116726,-0.740465,0.00354005,0.0140292,1336,1737,8.47501,-42.4609
119,-713,8.48193,42.3899,0.00227113,0.000539934,-0.0024737,0.0040263,-0.00121524,-0.617096,0.00316795,0.0146135,1343,1737,8.48197,-42.3898
126,-713,8.49243,42.3004,0.00237394,-0.000336039,-0.00208166,0.00350276,-0.00146486,-0.496888,0.0029474,0.0145156,1350,1737,8.49247,-42.3004
133,-713,8.51501,42.197,0.00247922,-0.000962514,-0.00162385,0.00312442,-0.00160771,-0.3782,0.00277848,0.0125783,1357,1737,8.51504,-42.197
140,-713,8.56104,42.0663,0.00257243,-0.00134045,-0.00115176,0.00288627,-0.0016543,-0.266035,0.00265347,0.0122555,1364,1737,8.56101,-42.0662
147,-713,8.57214,41.9329,0.00262901,-0.0017553,-0.000648028,0.00272278,-0.00184907,-0.143713,0.00265558,0.0124307,1371,1737,8.57214,-41.9328
154,-713,8.55212,41.8422,0.00259993,-0.00162341,-0.000127609,0.00260378,-0.00162726,-0.0301785,0.00246438,0.0127241,1378,1737,8.55207,-41.8422
161,-713,8.57166,41.704,0.00250506,-0.00132795,0.000310229,0.00253,-0.0013529,0.0802402,0.00227587,0.0101879,1385,1737,8.57162,-41.704
168,-713,8.59839,41.543,0.002198,-0.00106455,0.000485531,0.00226872,-0.00113527,0.144645,0.00200128,0.0109858,1392,1737,8.59843,-41.543
175,-713,8.62268,41.3645,0.00176845,-0.000236693,0.000556682,0.00191264,-0.000380875,0.253434,0.00141919,0.0151146,1399,1737,8.62269,-41.3645
182,-713,8.62036,41.2084,0.00132905,0.000339086,0.00033665,0.00143268,0.000235452,0.298632,0.000887114,0.0130804,1406,1737,8.62036,-41.2084
189,-713,8.60889,41.0216,0.00099339,0.00066242,0.0001215,0.0010332,0.000622607,0.316658,0.000600692,0.0110796,1413,1737,8.60885,-41.0216
196,-713,8.61719,40.8418,0.00073602,0.00096604,-0.000112593,0.00101198,0.000690081,-1.18341,0.000597017,0.0128986,1420,1737,8.61714,-40.8418
203,-713,8.61755,40.6752,0.000431647,0.00137159,-0.000404915,0.00152196,0.000281273,-1.21521,0.000935094,0.019196,1427,1737,8.61751,-40.6752
210,-713,8.61804,40.4474,3.17254e-05,0.00213827,-0.00052732,0.0022629,-9.29029e-05,-1.33871,0.0015405,0.015596,1434,1737,8.61808,-40.4474
217,-713,8.64429,40.2137,-0.000523669,0.00263642,-0.000445681,0.00269808,-0.000585323,-1.43333,0.00202226,0.0114979,1441,1737,8.64426,-40.2138
224,-713,8.63904,40.0083,-0.000964681,0.00314422,-0.000463799,0.00319592,-0.00101638,-1.45978,0.00253817,0.0122433,1448,1737,8.63904,-40.0083
231,-713,8.63,39.7987,-0.00149288,0.00364187,-0.000402784,0.00367327,-0.00152428,-1.49299,0.00308512,0.0118572,1455,1737,8.62996,-39.7987
238,-713,8.60315,39.5562,-0.00184807,0.00458726,-0.000148325,0.00459068,-0.00185149,-1.54776,0.00382982,0.0088378,1462,1737,8.60313,-39.5562
245,-713,8.60254,39.2982,-0.00215329,0.00582469,0.000325609,0.00583796,-0.00216655,1.53007,0.0047807,0.0116789,1469,1737,8.60257,-39.2982
252,-713,8.61035,39.0305,-0.00208296,0.00597524,0.00103923,0.0061071,-0.00221483,1.44458,0.00497676,0.0121958,1476,1737,8.6103,-39.0306
259,-713,8.60632,38.7662,-0.00177419,0.00589735,0.0016273,0.00622826,-0.0021051,1.37018,0.00500373,0.0120408,1483,1737,8.60628,-38.7663
266,-713,8.56348,38.5327,-0.00105221,0.00545242,0.00209136,0.0060668,-0.00166659,1.28506,0.00469962,0.0112395,1490,1737,8.56346,-38.5327
273,-713,8.52881,38.2588,0.000696232,0.00648063,0.00127571,0.00674949,0.00042738,1.36309,0.00436418,0.00972784,1497,1737,8.52877,-38.2588
280,-713,8.50281,37.9609,0.0024046,0.00653113,0.000770504,0.00667031,0.00226542,1.3921,0.00391658,0.0102337,1504,1737,8.50285,-37.961
287,-713,8.49902,37.6744,0.00459435,0.00657775,-0.000159758,0.00659053,0.00458156,-1.49093,0.00390048,0.011464,1511,1737,8.49902,-37.6744
294,-713,8.49255,37.4047,0.00706034,0.00686505,-0.0016149,0.00858055,0.00534484,-0.755202,0.00500362,0.0175088,1518,1737,8.49259,-37.4047
301,-713,8.47412,37.0853,0.00956043,0.00710503,-0.00373484,0.0122642,0.00440128,-0.626604,0.00717412,0.0195379,1525,1737,8.4741,-37.0853
308,-713,8.46143,36.7401,0.0120922,0.00784114,-0.00607623,0.0164039,0.00352939,-0.617146,0.00996994,0.0215631,1532,1737,8.46145,-36.7401
315,-713,8.38501,36.3706,0.0147668,0.00845987,-0.00913364,0.0212761,0.00195065,-0.619175,0.0135806,0.0308145,1539,1737,8.38497,-36.3706
322,-713,8.4939,35.6235,0.0172578,0.00994995,-0.0127636,0.0268802,0.000327529,-0.645989,0.017812,0.0425058,1546,1737,8.49384,-35.6235
329,-713,8.60425,35.5819,0,0,0,0,0,0,0,-1,1553,1737,8.60421,-35.5819
336,-713,8.60803,35.0817,0,0,0,0,0,0,0,-1,1560,1737,8.608,-35.0816
343,-713,8.29504,34.9669,0,0,0,0,0,0,0,-1,1567,1737,8.29507,-34.9669
350,-713,8.58386,34.714,0,0,0,0,0,0,0,-1,1574,1737,8.58386,-34.714
357,-713,7.84998,33.6588,0,0,0,0,0,0,0,-1,1581,1737,7.84995,-33.6588
364,-713,7.35474,20.9537,0,0,0,0,0,0,0,-1,1588,1737,7.35472,-20.9537
371,-713,3.07507,25.4108,0,0,0,0,0,0,0,-1,1595,1737,3.07502,-25.4107
378,-713,4.21838,25.306,0,0,0,0,0,0,0,-1,1602,1737,4.21837,-25.306
385,-713,5.078,25.3104,0,0,0,0,0,0,0,-1,1609,1737,5.07795,-25.3104
392,-713,5.92114,25.3118,0,0,0,0,0,0,0,-1,1616,1737,5.92112,-25.3118
399,-713,3.14368,25.2808,0,0,0,0,0,0,0,-1,1623,1737,3.14369,-25.2808
406,-713,1.82678,26.7354,0,0,0,0,0,0,0,-1,1630,1737,1.82679,-26.7354
413,-713,3.24731,18.2787,0,0,0,0,0,0,0,-1,1637,1737,3.24726,-18.2787
420,-713,0,0,0,0,0,0,0,0,0,-1,1644,1737,0,0
427,-713,0,0,0,0,0,0,0,0,0,-1,1651,1737,0,0
434,-713,0,0,0,0,0,0,0,0,0,-1,1658,1737,0,0
441,-713,0,0,0,0,0,0,0,0,0,-1,1665,1737,0,0
448,-713,0,0,0,0,0,0,0,0,0,-1,1672,1737,0,0
455,-713,0,0,0,0,0,0,0,0,0,-1,1679,1737,0,0
462,-713,0,0,0,0,0,0,0,0,0,-1,1686,1737,0,0
469,-713,0,0,0,0,0,0,0,0,0,-1,1693,1737,0,0
476,-713,0,0,0,0,0,0,0,0,0,-1,1700,1737,0,0
483,-713,0,0,0,0,0,0,0,0,0,-1,1707,1737,0,0
490,-713,0,0,0,0,0,0,0,0,0,-1,1714,1737,0,0
497,-713,0,0,0,0,0,0,0,0,0,-1,1721,1737,0,0
504,-713,0,0,0,0,0,0,0,0,0,-1,1728,1737,0,0
511,-713,0,0,0,0,0,0,0,0,0,-1,1735,1737,0,0
518,-713,0,0,0,0,0,0,0,0,0,-1,1742,1737,0,0
525,-713,0,0,0,0,0,0,0,0,0,-1,1749,1737,0,0
532,-713,0,0,0,0,0,0,0,0,0,-1,1756,1737,0,0
539,-713,0,0,0,0,0,0,0,0,0,-1,1763,1737,0,0
546,-713,0,0,0,0,0,0,0,0,0,-1,1770,1737,0,0
553,-713,0,0,0,0,0,0,0,0,0,-1,1777,1737,0,0
560,-713,0,0,0,0,0,0,0,0,0,-1,1784,1737,0,0
567,-713,0,0,0,0,0,0,0,0,0,-1,1791,1737,0,0
574,-713,0,0,0,0,0,0,0,0,0,-1,1798,1737,0,0
581,-713,0,0,0,0,0,0,0,0,0,-1,1805,1737,0,0
588,-713,0,0,0,0,0,0,0,0,0,-1,1812,1737,0,0
595,-713,0,0,0,0,0,0,0,0,0,-1,1819,1737,0,0
602,-713,0,0,0,0,0,0,0,0,0,-1,1826,1737,0,0
609,-713,0,0,0,0,0,0,0,0,0,-1,1833,1737,0,0
616,-713,0,0,0,0,0,0,0,0,0,-1,1840,1737,0,0
623,-713,0,0,0,0,0,0,0,0,0,-1,1847,1737,0,0
630,-713,0,0,0,0,0,0,0,0,0,-1,1854,1737,0,0
637,-713,0,0,0,0,0,0,0,0,0,-1,1861,1737,0,0
644,-713,0,0,0,0,0,0,0,0,0,-1,1868,1737,0,0
651,-713,0,0,0,0,0,0,0,0,0,-1,1875,1737,0,0
658,-713,0,0,0,0,0,0,0,0,0,-1,1882,1737,0,0
665,-713,0,0,0,0,0,0,0,0,0,-1,1889,1737,0,0
672,-713,0,0,0,0,0,0,0,0,0,-1,1896,1737,0,0
679,-713,0,0,0,0,0,0,0,0,0,-1,1903,1737,0,0
686,-713,0,0,0,0,0,0,0,0,0,-1,1910,1737,0,0
693,-713,0,0,0,0,0,0,0,0,0,-1,1917,1737,0,0
700,-713,0,0,0,0,0,0,0,0,0,-1,1924,1737,0,0
707,-713,0,0,0,0,0,0,0,0,0,-1,1931,1737,0,0
714,-713,0,0,0,0,0,0,0,0,0,-1,1938,1737,0,0
721,-713,0,0,0,0,0,0,0,0,0,-1,1945,1737,0,0
728,-713,0,0,0,0,0,0,0,0,0,-1,1952,1737,0,0
735,-713,0,0,0,0,0,0,0,0,0,-1,1959,1737,0,0
742,-713,0,0,0,0,0,0,0,0,0,-1,1966,1737,0,0
749,-713,0,0,0,0,0,0,0,0,0,-1,1973,1737,0,0
756,-713,0,0,0,0,0,0,0,0,0,-1,1980,1737,0,0
763,-713,0,0,0,0,0,0,0,0,0,-1,1987,1737,0,0
770,-713,0,0,0,0,0,0,0,0,0,-1,1994,1737,0,0
777,-713,0,0,0,0,0,0,0,0,0,-1,2001,1737,0,0
784,-713,0,0,0,0,0,0,0,0,0,-1,2008,1737,0,0
791,-713,0,0,0,0,0,0,0,0,0,-1,2015,1737,0,0
798,-713,0,0,0,0,0,0,0,0,0,-1,2022,1737,0,0
805,-713,0,0,0,0,0,0,0,0,0,-1,2029,1737,0,0
812,-713,0,0,0,0,0,0,0,0,0,-1,2036,1737,0,0
-700,-720,0,0,0,0,0,0,0,0,0,-1,524,1744,0,0
-693,-720,0,0,0,0,0,0,0,0,0,-1,531,1744,0,0
-686,-720,0,0,0,0,0,0,0,0,0,-1,538,1744,0,0
-679,-720,0,0,0,0,0,0,0,0,0,-1,545,1744,0,0
-672,-720,0,0,0,0,0,0,0,0,0,-1,552,1744,0,0
-665,-720,0,0,0,0,0,0,0,0,0,-1,559,1744,0,0
-658,-720,0,0,0,0,0,0,0,0,0,-1,566,1744,0,0
-651,-720,0,0,0,0,0,0,0,0,0,-1,573,1744,0,0
-644,-720,0,0,0,0,0,0,0,0,0,-1,580,1744,0,0
-637,-720,0,0,0,0,0,0,0,0,0,-1,587,1744,0,0
-630,-720,0,0,0,0,0,0,0,0,0,-1,594,1744,0,0
-623,-720,0,0,0,0,0,0,0,0,0,-1,601,1744,0,0
-616,-720,0,0,0,0,0,0,0,0,0,-1,608,1744,0,0
-609,-720,0,0,0,0,0,0,0,0,0,-1,615,1744,0,0
-602,-720,0,0,0,0,0,0,0,0,0,-1,622,1744,0,0
-595,-720,0,0,0,0,0,0,0,0,0,-1,629,1744,0,0
-588,-720,0,0,0,0,0,0,0,0,0,-1,636,1744,0,0
-581,-720,0,0,0,0,0,0,0,0,0,-1,643,1744,0,0
-574,-720,0,0,0,0,0,0,0,0,0,-1,650,1744,0,0
-567,-720,0,0,0,0,0,0,0,0,0,-1,657,1744,0,0
-560,-720,0,0,0,0,0,0,0,0,0,-1,664,1744,0,0
-553,-720,0,0,0,0,0,0,0,0,0,-1,671,1744,0,0
-546,-720,0,0,0,0,0,0,0,0,0,-1,678,1744,0,0
-539,-720,0,0,0,0,0,0,0,0,0,-1,685,1744,0,0
-532,-720,0,0,0,0,0,0,0,0,0,-1,692,1744,0,0
-525,-720,0,0,0,0,0,0,0,0,0,-1,699,1744,0,0
-518,-720,0,0,0,0,0,0,0,0,0,-1,706,1744,0,0
-511,-720,0,0,0,0,0,0,0,0,0,-1,713,1744,0,0
-504,-720,0,0,0,0,0,0,0,0,0,-1,720,1744,0,0
-497,-720,0,0,0,0,0,0,0,0,0,-1,727,1744,0,0
-490,-720,0,0,0,0,0,0,0,0,0,-1,734,1744,0,0
-483,-720,0,0,0,0,0,0,0,0,0,-1,741,1744,0,0
-476,-720,0,0,0,0,0,0,0,0,0,-1,748,1744,0,0
-469,-720,0,0,0,0,0,0,0,0,0,-1,755,1744,0,0
-462,-720,0,0,0,0,0,0,0,0,0,-1,762,1744,0,0
-455,-720,0,0,0,0,0,0,0,0,0,-1,769,1744,0,0
-448,-720,0,0,0,0,0,0,0,0,0,-1,776,1744,0,0
-441,-720,0,0,0,0,0,0,0,0,0,-1,783,1744,0,0
-434,-720,0,0,0,0,0,0,0,0,0,-1,790,1744,0,0
-427,-720,0,0,0,0,0,0,0,0,0,-1,797,1744,0,0
-420,-720,0,0,0,0,0,0,0,0,0,-1,804,1744,0,0
-413,-720,0,0,0,0,0,0,0,0,0,-1,811,1744,0,0
-406,-720,0,0,0,0,0,0,0,0,0,-1,818,1744,0,0
-399,-720,0,0,0,0,0,0,0,0,0,-1,825,1744,0,0
-392,-720,0,0,0,0,0,0,0,0,0,-1,832,1744,0,0
-385,-720,0,0,0,0,0,0,0,0,0,-1,839,1744,0,0
-378,-720,0,0,0,0,0,0,0,0,0,-1,846,1744,0,0
-371,-720,0,0,0,0,0,0,0,0,0,-1,853,1744,0,0
-364,-720,0,0,0,0,0,0,0,0,0,-1,860,1744,0,0
-357,-720,0,0,0,0,0,0,0,0,0,-1,867,1744,0,0
-350,-720,0,0,0,0,0,0,0,0,0,-1,874,1744,0,0
-343,-720,0,0,0,0,0,0,0,0,0,-1,881,1744,0,0
-336,-720,0,0,0,0,0,0,0,0,0,-1,888,1744,0,0
-329,-720,0,0,0,0,0,0,0,0,0,-1,895,1744,0,0
-322,-720,0,0,0,0,0,0,0,0,0,-1,902,1744,0,0
-315,-720,0,0,0,0,0,0,0,0,0,-1,909,1744,0,0
-308,-720,0,0,0,0,0,0,0,0,0,-1,916,1744,0,0
-301,-720,0,0,0,0,0,0,0,0,0,-1,923,1744,0,0
-294,-720,0,0,0,0,0,0,0,0,0,-1,930,1744,0,0
-287,-720,0,0,0,0,0,0,0,0,0,-1,937,1744,0,0
-280,-720,6.46796,22.6417,0,0,0,0,0,0,0,-1,944,1744,6.46793,-22.6417
-273,-720,8.54633,13.262,0,0,0,0,0,0,0,-1,951,1744,8.54636,-13.2619
-266,-720,7.28027,13.3165,0,0,0,0,0,0,0,-1,958,1744,7.28026,-13.3166
-259,-720,3.70563,18.6372,0,0,0,0,0,0,0,-1,965,1744,3.70564,-18.6372
-252,-720,4.00989,18.5059,0,0,0,0,0,0,0,-1,972,1744,4.00988,-18.5058
-245,-720,7.05634,33.8489,0,0,0,0,0,0,0,-1,979,1744,7.05634,-33.8489
-238,-720,5.02216,24.1455,0,0,0,0,0,0,0,-1,986,1744,5.02217,-24.1455
-231,-720,7.35455,28.3225,0,0,0,0,0,0,0,-1,993,1744,7.35453,-28.3225
-224,-720,7.65991,19.4061,0,0,0,0,0,0,0,-1,1000,1744,7.6599,-19.4061
-217,-720,4.77637,30.7196,0,0,0,0,0,0,0,-1,1007,1744,4.77636,-30.7197
-210,-720,8.31781,34.7283,0,0,0,0,0,0,0,-1,1014,1744,8.31781,-34.7282
-203,-720,7.89978,34.8447,0,0,0,0,0,0,0,-1,1021,1744,7.89975,-34.8447
-196,-720,7.62878,35.5459,0,0,0,0,0,0,0,-1,1028,1744,7.62883,-35.5459
-189,-720,8.66931,35.8936,0,0,0,0,0,0,0,-1,1035,1744,8.66934,-35.8936
-182,-720,8.98364,36.3707,-0.00702472,0.00262468,0.0064975,0.00589289,-0.0102929,1.10476,0.00945929,0.0428989,1042,1744,8.98363,-36.3707
-175,-720,8.62439,36.7063,0,0,0,0,0,0,0,-1,1049,1744,8.62439,-36.7063
-168,-720,8.47693,36.8528,0,0,0,0,0,0,0,-1,1056,1744,8.47692,-36.8528
-161,-720,8.29675,37.2285,-0.00484117,0.00179669,0.0047959,0.00431008,-0.00735456,1.08808,0.00681061,0.0383328,1063,1744,8.29674,-37.2285
-154,-720,8.47791,37.6284,-0.00456872,0.00197083,0.00441872,0.004198,-0.0067959,1.10393,0.00640613,0.0301972,1070,1744,8.4779,-37.6284
-147,-720,8.40381,37.9816,-0.00385586,0.00189461,0.00362156,0.00364352,-0.00560477,1.12091,0.00537937,0.0262973,1077,1744,8.40379,-37.9816
-140,-720,8.42346,38.2601,-0.0036599,0.00242312,0.00317558,0.00377878,-0.00501556,1.16732,0.00509412,0.0203371,1084,1744,8.42348,-38.2601
-133,-720,8.37524,38.4652,-0.00341917,0.00274852,0.0032811,0.00416753,-0.00483818,1.16261,0.00520426,0.0144888,1091,1744,8.37521,-38.4652
-126,-720,8.34045,38.7466,-0.00259379,0.00326789,0.00348086,0.00488746,-0.00421335,1.13531,0.00525916,0.0139617,1098,1744,8.34048,-38.7465
-119,-720,8.30591,39.0249,-0.00215011,0.00314857,0.00317042,0.00463089,-0.00363243,1.13345,0.00478242,0.0153298,1105,1744,8.3059,-39.025
-112,-720,8.27417,39.2498,-0.00162337,0.00316423,0.00294489,0.00456551,-0.00302465,1.12667,0.00441218,0.0136434,1112,1744,8.27413,-39.2497
-105,-720,8.26343,39.4961,-0.00125461,0.00299431,0.00254755,0.00418698,-0.00244728,1.13294,0.00387394,0.0132033,1119,1744,8.26343,-39.4961
-98,-720,8.27112,39.7466,-0.000866342,0.00276671,0.00229895,0.00388019,-0.00197982,1.11975,0.00344207,0.010414,1126,1744,8.27116,-39.7466
-91,-720,8.23608,39.9954,-0.000407582,0.0024738,0.00212641,0.00360161,-0.0015354,1.08314,0.00304477,0.00951432,1133,1744,8.23611,-39.9954
-84,-720,8.21899,40.2391,-0.000102742,0.00209465,0.00182574,0.00312679,-0.00113489,1.05626,0.00254849,0.0100194,1140,1744,8.21895,-40.2392
-77,-720,8.22192,40.4846,0.000250536,0.00179004,0.00156502,0.00276437,-0.000723789,1.01395,0.00212565,0.0130519,1147,1744,8.2219,-40.4847
-70,-720,8.20508,40.6732,0.000404609,0.00134782,0.00116545,0.00213346,-0.000381037,0.977655,0.00156486,0.0121237,1154,1744,8.20504,-40.6732
-63,-720,8.16821,40.8484,9.5353e-05,0.00079649,0.000613788,0.00115277,-0.000260927,1.04487,0.000868651,0.011331,1161,1744,8.16815,-40.8484
-56,-720,8.18262,41.0414,-1.3198e-05,0.000543944,0.000404902,0.000756848,-0.000226102,1.08671,0.000594443,0.0133251,1168,1744,8.18266,-41.0413
-49,-720,8.16235,41.2217,3.96224e-05,0.000352533,0.000284046,0.000520362,-0.000128206,1.03713,0.000396612,0.0193213,1175,1744,8.16235,-41.2217
-42,-720,8.17932,41.3694,0.000154903,0.000160915,0.000399461,0.000557381,-0.000241563,0.789161,0.000473131,0.0205708,1182,1744,8.17927,-41.3694
-35,-720,8.2052,41.5162,0.00048486,0.000118139,0.000590143,0.000919472,-0.000316473,0.634774,0.000741342,0.0178639,1189,1744,8.20517,-41.5163
-28,-720,8.21179,41.6741,0.000742042,0.000328295,0.000849809,0.0014098,-0.000339459,0.666003,0.0010711,0.0108323,1196,1744,8.21178,-41.6741
-21,-720,8.18494,41.8306,0.0021068,0.000697027,0.00163637,0.00318365,-0.000379815,0.582027,0.0022597,0.00930633,1203,1744,8.18492,-41.8305
-14,-720,8.17542,41.946,0.00382986,0.00404679,0.00271817,0.00665866,0.00121799,0.80534,0.00409395,0.0113967,1210,1744,8.17539,-41.946
-7,-720,8.19324,42.0847,0.00552576,0.00643564,0.00366573,0.00967455,0.00228685,0.847136,0.00583866,0.0124477,1217,1744,8.19327,-42.0847
0,-720,8.21472,42.1866,0.00751492,0.00967206,0.00474741,0.0134619,0.0037251,0.897098,0.0080264,0.013778,1224,1744,8.21474,-42.1867
7,-720,8.23657,42.2692,0.00946762,0.0131146,0.00566011,0.0172377,0.00534453,0.941232,0.0101888,0.0165779,1231,1744,8.23658,-42.2692
14,-720,8.25732,42.3625,0.0112416,0.0165672,0.00636145,0.0208007,0.0070081,0.983612,0.0122204,0.0147947,1238,1744,8.25737,-42.3626
21,-720,8.25305,42.4436,0.0125599,0.0193325,0.00676407,0.0235106,0.00838182,1.01748,0.0137589,0.0113977,1245,1744,8.25301,-42.4437
28,-720,8.2511,42.512,0.013275,0.0213436,0.00682456,0.0252371,0.00938148,1.05234,0.0147296,0.0112391,1252,1744,8.25115,-42.512
35,-720,8.26208,42.5737,0.0132956,0.0223803,0.00651652,0.0257814,0.00989453,1.08977,0.0150183,0.0107367,1259,1744,8.26212,-42.5737
42,-720,8.27625,42.6154,0.0125389,0.0222824,0.00579058,0.024978,0.0098433,1.13512,0.0145285,0.0108987,1266,1744,8.2762,-42.6154
49,-720,8.28748,42.6069,0.0111301,0.0210401,0.0046831,0.022903,0.00926718,1.1922,0.013303,0.011173,1273,1744,8.28746,-42.6069
56,-720,8.30481,42.6246,0.00934335,0.0189798,0.00343164,0.0200769,0.00824622,1.26136,0.0116528,0.0100863,1280,1744,8.30485,-42.6246
63,-720,8.32007,42.6334,0.00747169,0.0165268,0.00218748,0.0170275,0.00697094,1.34576,0.0098845,0.0126989,1287,1744,8.32001,-42.6334
70,-720,8.34705,42.6354,0.00565563,0.013561,0.00102485,0.0136917,0.00552493,1.44395,0.0079538,0.0135201,1294,1744,8.347,-42.6354
77,-720,8.36194,42.6355,0.0040606,0.0105311,0.000121405,0.0105334,0.00405832,1.55204,0.00613458,0.0144949,1301,1744,8.362,-42.6355
84,-720,8.35339,42.6222,0.00139792,0.00795561,-0.00105818,0.00812213,0.0012314,-1.41471,0.00505454,0.0143898,1308,1744,8.35343,-42.6222
91,-720,8.35522,42.6039,0.000322144,0.00296577,-0.0016693,0.00377322,-0.000485303,-1.12027,0.00269187,0.013816,1315,1744,8.35528,-42.6039
98,-720,8.37695,42.5372,0.000366934,0.00248603,-0.00155948,0.00331185,-0.000458888,-1.08379,0.00237568,0.0128075,1322,1744,8.37693,-42.5372
105,-720,8.38538,42.4884,0.000451614,0.00182348,-0.00142941,0.00272302,-0.000447927,-1.00911,0.0019816,0.0117261,1329,1744,8.38536,-42.4884
112,-720,8.39331,42.4353,0.000636197,0.00118973,-0.00117548,0.00212058,-0.000294658,-0.901017,0.00152148,0.0107471,1336,1744,8.39329,-42.4353
119,-720,8.40125,42.364,0.000757171,0.000452944,-0.000936737,0.00155407,-0.00034395,-0.704908,0.0011677,0.0115612,1343,1744,8.40125,-42.3641
126,-720,8.4176,42.2635,0.000889659,-0.000128016,-0.000663438,0.00121692,-0.00045528,-0.458261,0.00099827,0.0120077,1350,1744,8.41765,-42.2636
133,-720,8.43274,42.168,0.00102226,-0.000638375,-0.000367597,0.00109999,-0.000716107,-0.208392,0.0010563,0.0127461,1357,1744,8.4327,-42.168
140,-720,8.45593,42.0939,0.00111479,-0.000963749,-0.000100706,0.00111966,-0.000968617,-0.0482996,0.00120672,0.0179143,1364,1744,8.45596,-42.0938
147,-720,8.45923,41.9661,0.00111656,-0.00119113,0.000166847,0.00112856,-0.00120313,0.0718027,0.00134643,0.0187685,1371,1744,8.45925,-41.966
154,-720,8.43689,41.8232,0.00101168,-0.00110371,0.000363593,0.00107243,-0.00116446,0.165552,0.00129183,0.0128771,1378,1744,8.43692,-41.8232
161,-720,8.44824,41.6759,0.000881469,-0.0008668,0.000445783,0.000988576,-0.000973906,0.235796,0.00113305,0.00969093,1385,1744,8.44829,-41.6759
168,-720,8.45227,41.5219,0.000665813,-0.000579928,0.000309593,0.000738511,-0.000652626,0.230639,0.000803683,0.0102372,1392,1744,8.45228,-41.5219
175,-720,8.44824,41.355,0.000418448,-0.000204424,9.7247e-05,0.000433278,-0.000219254,0.15133,0.000383435,0.0164428,1399,1744,8.4483,-41.355
182,-720,8.4386,41.1953,3.68935e-05,0.000446883,-0.000151064,0.000496532,-1.27553e-05,-1.25326,0.000335354,0.0163698,1406,1744,8.43857,-41.1953
189,-720,8.45044,41.0264,-0.000277987,0.000939763,-0.000370489,0.00104362,-0.000381846,-1.29748,0.000852046,0.0132796,1413,1744,8.45043,-41.0264
196,-720,8.45386,40.8361,-0.000554591,0.00152954,-0.000686516,0.00173536,-0.000760406,-1.27953,0.00147712,0.0142165,1420,1744,8.45384,-40.8361
203,-720,8.42029,40.6434,-0.000995965,0.0023263,-0.0011841,0.00270513,-0.0013748,-1.26115,0.00239692,0.0178587,1427,1744,8.42026,-40.6435
210,-720,8.39587,40.4631,-0.00152169,0.00379105,-0.00125036,0.00407061,-0.00180126,-1.35083,0.00347349,0.0154794,1434,1744,8.39591,-40.4632
217,-720,8.40991,40.2245,-0.00227473,0.00462844,-0.00075813,0.00471072,-0.00235701,-1.46269,0.0041553,0.0134899,1441,1744,8.40992,-40.2245
224,-720,8.40454,39.9884,-0.00283847,0.00536978,-0.000635319,0.00541866,-0.00288736,-1.49401,0.00486915,0.0099314,1448,1744,8.40455,-39.9884
231,-720,8.39075,39.7799,-0.00353113,0.00606565,-0.000394954,0.00608187,-0.00354736,-1.52973,0.00562326,0.0100282,1455,1744,8.39079,-39.7799
238,-720,8.35999,39.5492,-0.00395673,0.00738018,8.70378e-05,0.00738085,-0.0039574,1.56312,0.00664486,0.00882919,1462,1744,8.36,-39.5492
245,-720,8.35352,39.3085,-0.00428589,0.00906599,0.000857783,0.00912087,-0.00434077,1.5069,0.00793373,0.0110628,1469,1744,8.35351,-39.3085
252,-720,8.36182,39.0375,-0.0039734,0.0090424,0.00191197,0.00931745,-0.00424845,1.42792,0.00801246,0.0110618,1476,1744,8.36181,-39.0375
259,-720,8.34009,38.7742,-0.00328579,0.00871013,0.00269581,0.00928811,-0.00386376,1.3596,0.00780554,0.0101908,1483,1744,8.34003,-38.7742
266,-720,8.2926,38.5205,-0.00209094,0.00796112,0.00332777,0.00896295,-0.00309276,1.27838,0.00723018,0.00839244,1490,1744,8.29256,-38.5205
273,-720,8.26843,38.2472,0.000464424,0.0090211,0.00227497,0.00958834,-0.000102818,1.32644,0.00642677,0.0125776,1497,1744,8.26841,-38.2472
280,-720,8.19519,37.9668,0.00301108,0.00881228,0.00162946,0.00923864,0.00258472,1.31488,0.00550369,0.0175107,1504,1744,8.19522,-37.9668
287,-720,8.10925,37.6129,0.00622622,0.00855356,0.000396597,0.00861929,0.00616049,1.40656,0.00512704,0.0326931,1511,1744,8.10926,-37.6129
294,-720,8.19507,37.1976,0.00983338,0.00856404,-0.00154269,0.0108668,0.00753057,-0.590248,0.00642787,0.0375011,1518,1744,8.1951,-37.1976
301,-720,8.15808,36.9343,0.0135886,0.00853616,-0.00433006,0.0160755,0.00604927,-0.521332,0.00937536,0.0386293,1525,1744,8.15804,-36.9344
308,-720,8.02722,36.9429,0.0176258,0.00907717,-0.00746851,0.0219567,0.00474636,-0.525491,0.0133401,0.0357325,1532,1744,8.02718,-36.9429
315,-720,7.89441,36.8319,0.0219276,0.00944158,-0.0117937,0.0290288,0.0023404,-0.541973,0.0186215,0.0391391,1539,1744,7.8944,-36.832
322,-720,8.60693,34.5424,0.026154,0.0112327,-0.0171842,0.0374272,-4.05237e-05,-0.580597,0.024965,0.0497293,1546,1744,8.60692,-34.5424
329,-720,9.15906,34.7668,0,0,0,0,0,0,0,-1,1553,1744,9.1591,-34.7669
336,-720,6.14148,26.5682,0,0,0,0,0,0,0,-1,1560,1744,6.14151,-26.5683
343,-720,6.78552,21.3625,0,0,0,0,0,0,0,-1,1567,1744,6.78551,-21.3625
350,-720,4.0741,11.1836,0,0,0,0,0,0,0,-1,1574,1744,4.07412,-11.1836
357,-720,6.90833,21.4504,0,0,0,0,0,0,0,-1,1581,1744,6.90827,-21.4505
364,-720,5.83777,24.1599,0,0,0,0,0,0,0,-1,1588,1744,5.83773,-24.1599
371,-720,5.46997,23.6176,0,0,0,0,0,0,0,-1,1595,1744,5.47001,-23.6176
378,-720,3.88257,25.5404,0,0,0,0,0,0,0,-1,1602,1744,3.88262,-25.5404
385,-720,4.63611,25.6746,0,0,0,0,0,0,0,-1,1609,1744,4.63612,-25.6746
392,-720,3.49377,23.5042,0,0,0,0,0,0,0,-1,1616,1744,3.4938,-23.5042
399,-720,2.37317,24.7166,0,0,0,0,0,0,0,-1,1623,1744,2.37317,-24.7166
406,-720,0,0,0,0,0,0,0,0,0,-1,1630,1744,0,0
413,-720,0,0,0,0,0,0,0,0,0,-1,1637,1744,0,0
420,-720,0,0,0,0,0,0,0,0,0,-1,1644,1744,0,0
427,-720,0,0,0,0,0,0,0,0,0,-1,1651,1744,0,0
434,-720,0,0,0,0,0,0,0,0,0,-1,1658,1744,0,0
441,-720,0,0,0,0,0,0,0,0,0,-1,1665,1744,0,0
448,-720,0,0,0,0,0,0,0,0,0,-1,1672,1744,0,0
455,-720,0,0,0,0,0,0,0,0,0,-1,1679,1744,0,0
462,-720,0,0,0,0,0,0,0,0,0,-1,1686,1744,0,0
469,-720,0,0,0,0,0,0,0,0,0,-1,1693,1744,0,0
476,-720,0,0,0,0,0,0,0,0,0,-1,1700,1744,0,0
483,-720,0,0,0,0,0,0,0,0,0,-1,1707,1744,0,0
490,-720,0,0,0,0,0,0,0,0,0,-1,1714,1744,0,0
497,-720,0,0,0,0,0,0,0,0,0,-1,1721,1744,0,0
504,-720,0,0,0,0,0,0,0,0,0,-1,1728,1744,0,0
511,-720,0,0,0,0,0,0,0,0,0,-1,1735,1744,0,0
518,-720,0,0,0,0,0,0,0,0,0,-1,1742,1744,0,0
525,-720,0,0,0,0,0,0,0,0,0,-1,1749,1744,0,0
532,-720,0,0,0,0,0,0,0,0,0,-1,1756,1744,0,0
539,-720,0,0,0,0,0,0,0,0,0,-1,1763,1744,0,0
546,-720,0,0,0,0,0,0,0,0,0,-1,1770,1744,0,0
553,-720,0,0,0,0,0,0,0,0,0,-1,1777,1744,0,0
560,-720,0,0,0,0,0,0,0,0,0,-1,1784,1744,0,0
567,-720,0,0,0,0,0,0,0,0,0,-1,1791,1744,0,0
574,-720,0,0,0,0,0,0,0,0,0,-1,1798,1744,0,0
581,-720,0,0,0,0,0,0,0,0,0,-1,1805,1744,0,0
588,-720,0,0,0,0,0,0,0,0,0,-1,1812,1744,0,0
595,-720,0,0,0,0,0,0,0,0,0,-1,1819,1744,0,0
602,-720,0,0,0,0,0,0,0,0,0,-1,1826,1744,0,0
609,-720,0,0,0,0,0,0,0,0,0,-1,1833,1744,0,0
616,-720,0,0,0,0,0,0,0,0,0,-1,1840,1744,0,0
623,-720,0,0,0,0,0,0,0,0,0,-1,1847,1744,0,0
630,-720,0,0,0,0,0,0,0,0,0,-1,1854,1744,0,0
637,-720,0,0,0,0,0,0,0,0,0,-1,1861,1744,0,0
644,-720,0,0,0,0,0,0,0,0,0,-1,1868,1744,0,0
651,-720,0,0,0,0,0,0,0,0,0,-1,1875,1744,0,0
658,-720,0,0,0,0,0,0,0,0,0,-1,1882,1744,0,0
665,-720,0,0,0,0,0,0,0,0,0,-1,1889,1744,0,0
672,-720,0,0,0,0,0,0,0,0,0,-1,1896,1744,0,0
679,-720,0,0,0,0,0,0,0,0,0,-1,1903,1744,0,0
686,-720,0,0,0,0,0,0,0,0,0,-1,1910,1744,0,0
693,-720,0,0,0,0,0,0,0,0,0,-1,1917,1744,0,0
700,-720,0,0,0,0,0,0,0,0,0,-1,1924,1744,0,0
707,-720,0,0,0,0,0,0,0,0,0,-1,1931,1744,0,0
714,-720,0,0,0,0,0,0,0,0,0,-1,1938,1744,0,0
721,-720,0,0,0,0,0,0,0,0,0,-1,1945,1744,0,0
728,-720,0,0,0,0,0,0,0,0,0,-1,1952,1744,0,0
735,-720,0,0,0,0,0,0,0,0,0,-1,1959,1744,0,0
742,-720,0,0,0,0,0,0,0,0,0,-1,1966,1744,0,0
749,-720,0,0,0,0,0,0,0,0,0,-1,1973,1744,0,0
756,-720,0,0,0,0,0,0,0,0,0,-1,1980,1744,0,0
763,-720,0,0,0,0,0,0,0,0,0,-1,1987,1744,0,0
770,-720,0,0,0,0,0,0,0,0,0,-1,1994,1744,0,0
777,-720,0,0,0,0,0,0,0,0,0,-1,2001,1744,0,0
784,-720,0,0,0,0,0,0,0,0,0,-1,2008,1744,0,0
791,-720,0,0,0,0,0,0,0,0,0,-1,2015,1744,0,0
798,-720,0,0,0,0,0,0,0,0,0,-1,2022,1744,0,0
805,-720,0,0,0,0,0,0,0,0,0,-1,2029,1744,0,0
812,-720,0,0,0,0,0,0,0,0,0,-1,2036,1744,0,0
-700,-727,0,0,0,0,0,0,0,0,0,-1,524,1751,0,0
-693,-727,0,0,0,0,0,0,0,0,0,-1,531,1751,0,0
-686,-727,0,0,0,0,0,0,0,0,0,-1,538,1751,0,0
-679,-727,0,0,0,0,0,0,0,0,0,-1,545,1751,0,0
-672,-727,0,0,0,0,0,0,0,0,0,-1,552,1751,0,0
-665,-727,0,0,0,0,0,0,0,0,0,-1,559,1751,0,0
-658,-727,0,0,0,0,0,0,0,0,0,-1,566,1751,0,0
-651,-727,0,0,0,0,0,0,0,0,0,-1,573,1751,0,0
-644,-727,0,0,0,0,0,0,0,0,0,-1,580,1751,0,0
-637,-727,0,0,0,0,0,0,0,0,0,-1,587,1751,0,0
-630,-727,0,0,0,0,0,0,0,0,0,-1,594,1751,0,0
-623,-727,0,0,0,0,0,0,0,0,0,-1,601,1751,0,0
-616,-727,0,0,0,0,0,0,0,0,0,-1,608,1751,0,0
-609,-727,0,0,0,0,0,0,0,0,0,-1,615,1751,0,0
-602,-727,0,0,0,0,0,0,0,0,0,-1,622,1751,0,0
-595,-727,0,0,0,0,0,0,0,0,0,-1,629,1751,0,0
-588,-727,0,0,0,0,0,0,0,0,0,-1,636,1751,0,0
-581,-727,0,0,0,0,0,0,0,0,0,-1,643,1751,0,0
-574,-727,0,0,0,0,0,0,0,0,0,-1,650,1751,0,0
-567,-727,0,0,0,0,0,0,0,0,0,-1,657,1751,0,0
-560,-727,0,0,0,0,0,0,0,0,0,-1,664,1751,0,0
-553,-727,0,0,0,0,0,0,0,0,0,-1,671,1751,0,0
-546,-727,0,0,0,0,0,0,0,0,0,-1,678,1751,0,0
-539,-727,0,0,0,0,0,0,0,0,0,-1,685,1751,0,0
-532,-727,0,0,0,0,0,0,0,0,0,-1,692,1751,0,0
-525,-727,0,0,0,0,0,0,0,0,0,-1,699,1751,0,0
-518,-727,0,0,0,0,0,0,0,0,0,-1,706,1751,0,0
-511,-727,0,0,0,0,0,0,0,0,0,-1,713,1751,0,0
-504,-727,0,0,0,0,0,0,0,0,0,-1,720,1751,0,0
-497,-727,0,0,0,0,0,0,0,0,0,-1,727,1751,0,0
-490,-727,0,0,0,0,0,0,0,0,0,-1,734,1751,0,0
-483,-727,0,0,0,0,0,0,0,0,0,-1,741,1751,0,0
-476,-727,0,0,0,0,0,0,0,0,0,-1,748,1751,0,0
-469,-727,0,0,0,0,0,0,0,0,0,-1,755,1751,0,0
-462,-727,0,0,0,0,0,0,0,0,0,-1,762,1751,0,0
-455,-727,0,0,0,0,0,0,0,0,0,-1,769,1751,0,0
-448,-727,0,0,0,0,0,0,0,0,0,-1,776,1751,0,0
-441,-727,0,0,0,0,0,0,0,0,0,-1,783,1751,0,0
-434,-727,0,0,0,0,0,0,0,0,0,-1,790,1751,0,0
-427,-727,0,0,0,0,0,0,0,0,0,-1,797,1751,0,0
-420,-727,0,0,0,0,0,0,0,0,0,-1,804,1751,0,0
-413,-727,0,0,0,0,0,0,0,0,0,-1,811,1751,0,0
-406,-727,0,0,0,0,0,0,0,0,0,-1,818,1751,0,0
-399,-727,0,0,0,0,0,0,0,0,0,-1,825,1751,0,0
-392,-727,0,0,0,0,0,0,0,0,0,-1,832,1751,0,0
-385,-727,0,0,0,0,0,0,0,0,0,-1,839,1751,0,0
-378,-727,0,0,0,0,0,0,0,0,0,-1,846,1751,0,0
-371,-727,0,0,0,0,0,0,0,0,0,-1,853,1751,0,0
-364,-727,0,0,0,0,0,0,0,0,0,-1,860,1751,0,0
-357,-727,0,0,0,0,0,0,0,0,0,-1,867,1751,0,0
-350,-727,0,0,0,0,0,0,0,0,0,-1,874,1751,0,0
-343,-727,0,0,0,0,0,0,0,0,0,-1,881,1751,0,0
-336,-727,0,0,0,0,0,0,0,0,0,-1,888,1751,0,0
-329,-727,0,0,0,0,0,0,0,0,0,-1,895,1751,0,0
-322,-727,0,0,0,0,0,0,0,0,0,-1,902,1751,0,0
-315,-727,0,0,0,0,0,0,0,0,0,-1,909,1751,0,0
-308,-727,0,0,0,0,0,0,0,0,0,-1,916,1751,0,0
-301,-727,0,0,0,0,0,0,0,0,0,-1,923,1751,0,0
-294,-727,0,0,0,0,0,0,0,0,0,-1,930,1751,0,0
-287,-727,0,0,0,0,0,0,0,0,0,-1,937,1751,0,0
-280,-727,0,0,0,0,0,0,0,0,0,-1,944,1751,0,0
-273,-727,0,0,0,0,0,0,0,0,0,-1,951,1751,0,0
-266,-727,4.24805,7.61145,0,0,0,0,0,0,0,-1,958,1751,4.24802,-7.6115
-259,-727,3.65228,5.4082,0,0,0,0,0,0,0,-1,965,1751,3.65229,-5.40818
-252,-727,5.8797,32.9292,0,0,0,0,0,0,0,-1,972,1751,5.87972,-32.9292
-245,-727,6.59198,32.2588,0,0,0,0,0,0,0,-1,979,1751,6.59195,-32.2587
-238,-727,6.6189,30.4597,0,0,0,0,0,0,0,-1,986,1751,6.61889,-30.4598
-231,-727,6.70105,28.9473,0,0,0,0,0,0,0,-1,993,1751,6.70103,-28.9472
-224,-727,7.0614,27.79,0,0,0,0,0,0,0,-1,1000,1751,7.06139,-27.79
-217,-727,4.72937,32.0111,0,0,0,0,0,0,0,-1,1007,1751,4.72935,-32.0111
-210,-727,5.0921,32.4524,0,0,0,0,0,0,0,-1,1014,1751,5.09209,-32.4523
-203,-727,10.5354,32.1929,0,0,0,0,0,0,0,-1,1021,1751,10.5354,-32.1928
-196,-727,10.1326,33.5536,0,0,0,0,0,0,0,-1,1028,1751,10.1326,-33.5536
-189,-727,9.90503,36.2566,0,0,0,0,0,0,0,-1,1035,1751,9.90499,-36.2566
-182,-727,9.69568,36.8121,0,0,0,0,0,0,0,-1,1042,1751,9.6957,-36.8121
-175,-727,9.06323,37.0662,0,0,0,0,0,0,0,-1,1049,1751,9.06323,-37.0661
-168,-727,7.99194,37.1304,0,0,0,0,0,0,0,-1,1056,1751,7.99192,-37.1303
-161,-727,8.23486,37.4089,0,0,0,0,0,0,0,-1,1063,1751,8.23492,-37.4089
-154,-727,8.78552,37.6456,0,0,0,0,0,0,0,-1,1070,1751,8.78556,-37.6456
-147,-727,8.71118,37.7332,-0.00536126,0.00304653,0.00505626,0.00541824,-0.00773296,1.1322,0.00763195,0.0469795,1077,1751,8.71123,-37.7331
-140,-727,8.58423,38.0442,-0.00512625,0.00375525,0.00455275,0.00567436,-0.00704536,1.17187,0.00735794,0.0317277,1084,1751,8.58418,-38.0442
-133,-727,8.65479,38.3558,-0.00480648,0.00416591,0.00469125,0.00617077,-0.00681134,1.16693,0.00749826,0.0228627,1091,1751,8.65483,-38.3558
-126,-727,8.55591,38.6963,-0.00376239,0.00479389,0.00493676,0.00704829,-0.00601679,1.14242,0.00755096,0.0162922,1098,1751,8.55592,-38.6963
-119,-727,8.5365,39.0323,-0.00320526,0.00457538,0.00450689,0.00663877,-0.00526865,1.14145,0.0068899,0.0132104,1105,1751,8.53653,-39.0323
-112,-727,8.52954,39.2623,-0.00252413,0.00461232,0.00421686,0.00656806,-0.00447987,1.13653,0.00641639,0.0140552,1112,1751,8.52956,-39.2623
-105,-727,8.47668,39.5076,-0.00205611,0.0044221,0.00373074,0.00612367,-0.00375767,1.14289,0.00575925,0.0139054,1119,1751,8.47667,-39.5076
-98,-727,8.47595,39.7751,-0.00158153,0.00418241,0.00340251,0.00575945,-0.00315858,1.13678,0.0052213,0.0113836,1126,1751,8.476,-39.7751
-91,-727,8.47522,40.0079,-0.00102014,0.00386282,0.00317352,0.00542535,-0.00258267,1.11328,0.00471953,0.0105652,1133,1751,8.47521,-40.008
-84,-727,8.43652,40.2314,-0.000688997,0.00335243,0.00275892,0.00475151,-0.00208807,1.10148,0.0040474,0.0108052,1140,1751,8.43651,-40.2314
-77,-727,8.41528,40.4573,-0.000282933,0.00282933,0.00242697,0.0041562,-0.00160981,1.07047,0.00343551,0.0124329,1147,1751,8.41527,-40.4573
-70,-727,8.40479,40.6823,-0.000179434,0.00213222,0.0018669,0.00317213,-0.00121935,1.06258,0.00261764,0.0142181,1154,1751,8.40481,-40.6822
-63,-727,8.38452,40.8732,-0.000973861,0.00113851,0.000908162,0.00147526,-0.00131062,1.2157,0.00160937,0.0114302,1161,1751,8.38451,-40.8731
-56,-727,8.37109,41.0511,-0.00134947,0.00063007,0.000592679,0.000793952,-0.00151335,1.30103,0.00135353,0.0115626,1168,1751,8.37108,-41.0511
-49,-727,8.35754,41.2284,-0.00144488,0.000184636,0.000270925,0.0002285,-0.00148874,1.41029,0.00107677,0.0142321,1175,1751,8.35755,-41.2284
-42,-727,8.37048,41.3973,-0.0012419,-0.000256632,0.000400431,-0.000114416,-0.00138411,1.22954,0.000887067,0.0163108,1182,1751,8.37047,-41.3974
-35,-727,8.37659,41.5316,-0.000884311,-0.000725693,0.00032894,-0.000466636,-0.00114337,0.903693,0.000663828,0.0141617,1189,1751,8.37658,-41.5317
-28,-727,8.33362,41.6652,-0.000662962,-0.00101181,0.000320852,-0.000472189,-0.00120259,0.536427,0.000699628,0.00879303,1196,1751,8.33365,-41.6651
-21,-727,8.3092,41.8113,-0.000435111,-0.00126417,0.000327636,-0.000321265,-0.00137801,0.334425,0.000832512,0.0102916,1203,1751,8.30921,-41.8112
-14,-727,8.31201,41.9357,-0.000141819,-0.000785187,0.000447211,8.73853e-05,-0.00101439,0.473613,0.000707191,0.0117932,1210,1751,8.31205,-41.9357
-7,-727,8.31787,42.0807,0.000147396,0.000181062,0.000608889,0.00077335,-0.000444892,0.799217,0.000711823,0.014796,1217,1751,8.31785,-42.0806
0,-727,8.31995,42.1959,0.000485184,0.00161958,0.000888944,0.00210687,-2.10153e-06,1.06937,0.00140528,0.0147162,1224,1751,8.32,-42.1959
7,-727,8.32166,42.2603,0.000762024,0.00298855,0.0011248,0.00345786,0.000292716,1.17552,0.00221412,0.0145276,1231,1751,8.32162,-42.2602
14,-727,8.31995,42.3431,0.000930863,0.00449114,0.00118251,0.00484812,0.000573893,1.27762,0.00305878,0.0144235,1238,1751,8.3199,-42.3431
21,-727,8.30457,42.4425,0.00105339,0.00545461,0.00123809,0.00577899,0.000729015,1.31456,0.00363411,0.0126215,1245,1751,8.3046,-42.4425
28,-727,8.32568,42.5137,0.0010943,0.00626686,0.00120187,0.00653248,0.000828675,1.35329,0.00410672,0.0116032,1252,1751,8.32569,-42.5136
35,-727,8.35156,42.5646,0.00106484,0.00675822,0.00112523,0.00697254,0.000850517,1.38258,0.00439239,0.0117811,1259,1751,8.35152,-42.5645
42,-727,8.32678,42.5924,0.00103357,0.00673439,0.000998883,0.00690435,0.000863615,1.40227,0.00434374,0.0119613,1266,1751,8.32679,-42.5923
49,-727,8.31055,42.6027,0.000861157,0.00621427,0.00074505,0.00631603,0.000759395,1.43505,0.00398177,0.0107779,1273,1751,8.31059,-42.6027
56,-727,8.30432,42.65,0.000516305,0.00548149,0.000426901,0.00551793,0.000479868,1.48565,0.00352955,0.00949091,1280,1751,8.30438,-42.65
63,-727,8.32019,42.6561,8.57795e-05,0.00468226,0.000136453,0.00468631,8.17322e-05,1.54114,0.00309732,0.0119408,1287,1751,8.32014,-42.6561
70,-727,8.35168,42.645,-0.000303822,0.00387393,-2.98077e-05,0.00387414,-0.000304034,-1.56366,0.00268984,0.0143995,1294,1751,8.35167,-42.6451
77,-727,8.35999,42.6549,-0.000579052,0.00293462,-0.000129483,0.00293938,-0.000583817,-1.53401,0.0021804,0.0162893,1301,1751,8.35993,-42.655
84,-727,8.32275,42.6263,-0.000884022,0.00230924,-7.93104e-05,0.00231121,-0.000885991,-1.54598,0.00190606,0.0164977,1308,1751,8.32276,-42.6264
91,-727,8.31799,42.5768,-0.00109761,0.000790393,-6.99829e-05,0.000792983,-0.0011002,-1.5338,0.00109782,0.0172982,1315,1751,8.318,-42.5768
98,-727,8.33777,42.5377,-0.00123103,0.000802017,2.75136e-05,0.000802389,-0.0012314,1.55727,0.00118289,0.0144955,1322,1751,8.33774,-42.5377
105,-727,8.33862,42.4786,-0.00134266,0.000746619,0.000110312,0.000752428,-0.00134847,1.51819,0.00122912,0.0129391,1329,1751,8.33857,-42.4786
112,-727,8.33862,42.424,-0.00131613,0.000770723,0.000274005,0.0008061,-0.00135151,1.44239,0.00125889,0.0108104,1336,1751,8.33857,-42.4239
119,-727,8.34363,42.3606,-0.00122662,0.000422575,0.000503926,0.000564364,-0.00136841,1.29652,0.00114762,0.00891468,1343,1751,8.34358,-42.3605
126,-727,8.34229,42.2537,-0.00111125,0.000252705,0.000660078,0.00051983,-0.00137838,1.18626,0.00113268,0.010897,1350,1751,8.34224,-42.2537
133,-727,8.33789,42.1628,-0.000957415,-0.000182675,0.000820938,0.000337697,-0.00147779,1.00584,0.00111494,0.0149098,1357,1751,8.3379,-42.1629
140,-727,8.35181,42.0889,-0.00083672,-0.000513497,0.000906039,0.000245231,-0.00159545,0.873655,0.00115409,0.0212873,1364,1751,8.35185,-42.0889
147,-727,8.35071,41.9746,-0.000811449,-0.000638573,0.000985172,0.000263945,-0.00171397,0.829156,0.00124003,0.0184614,1371,1751,8.35073,-41.9747
154,-727,8.32983,41.8103,-0.000894721,-0.000612373,0.000951525,0.000208394,-0.00171549,0.859044,0.00121908,0.0117272,1378,1751,8.32982,-41.8103
161,-727,8.31531,41.6692,-0.000905373,-0.000536816,0.000777671,7.81121e-05,-0.0015203,0.901734,0.00104055,0.0098103,1385,1751,8.31531,-41.6692
168,-727,8.29199,41.5219,-0.000843726,-0.000301096,0.000349775,-0.000129743,-0.00101508,1.11527,0.000637885,0.0121196,1392,1751,8.29203,-41.5219
175,-727,8.28601,41.3634,-0.000769146,-0.000357751,-0.000227346,-0.000256859,-0.000870039,-1.15312,0.000516168,0.0167867,1399,1751,8.28596,-41.3634
182,-727,8.27991,41.2063,-0.00113215,0.000447247,-0.000538132,0.000613169,-0.00129807,-1.27172,0.00112682,0.0192606,1406,1751,8.27986,-41.2063
189,-727,8.26575,41.0186,-0.00144493,0.00115839,-0.000792997,0.00138092,-0.00166746,-1.29721,0.00176257,0.0117743,1413,1751,8.2657,-41.0186
196,-727,8.27869,40.8356,-0.0017893,0.00209384,-0.00123944,0.00245573,-0.00215119,-1.28672,0.00266174,0.0131157,1420,1751,8.27865,-40.8355
203,-727,8.229,40.63,-0.0024709,0.00336115,-0.00202828,0.00399718,-0.00310694,-1.26693,0.00411228,0.0174221,1427,1751,8.22898,-40.63
210,-727,8.19702,40.4508,-0.00319294,0.00572326,-0.00203999,0.00616784,-0.00363752,-1.35622,0.00572361,0.0171059,1434,1751,8.19705,-40.4508
217,-727,8.19531,40.2443,-0.00423551,0.00697101,-0.00106166,0.0070707,-0.0043352,-1.47717,0.00664803,0.0130272,1441,1751,8.19536,-40.2442
224,-727,8.17761,39.9851,-0.00498309,0.00805153,-0.000759963,0.00809569,-0.00502725,-1.51276,0.00764526,0.013295,1448,1751,8.17757,-39.9851
231,-727,8.16345,39.7716,-0.00591487,0.00906164,-0.000304979,0.00906785,-0.00592108,-1.55044,0.0087172,0.0102248,1455,1751,8.1635,-39.7716
238,-727,8.14111,39.5358,-0.00649416,0.0108168,0.000437946,0.0108279,-0.00650523,1.54552,0.0101105,0.0100463,1462,1751,8.14114,-39.5358
245,-727,8.13721,39.3069,-0.00692416,0.0130125,0.00155844,0.0131336,-0.00704525,1.49325,0.0118257,0.00960326,1469,1751,8.13717,-39.3069
252,-727,8.12231,39.043,-0.00637493,0.0128452,0.00299897,0.0133023,-0.006832,1.41955,0.0118229,0.0110896,1476,1751,8.12233,-39.0429
259,-727,8.10913,38.7765,-0.00524731,0.0122526,0.00402254,0.013133,-0.00612765,1.35534,0.0113627,0.0152507,1483,1751,8.10908,-38.7765
266,-727,8.07983,38.5641,-0.00350808,0.0111917,0.00490864,0.0126801,-0.00499649,1.27639,0.0105221,0.019004,1490,1751,8.07982,-38.5641
273,-727,8.12695,38.3408,-1.05769e-05,0.0121086,0.0037337,0.0131665,-0.00106852,1.29469,0.00915464,0.0324079,1497,1751,8.1269,-38.3409
280,-727,7.26306,37.4458,0,0,0,0,0,0,0,-1,1504,1751,7.26309,-37.4459
287,-727,7.46252,36.9747,0.00826105,0.0106508,0.00143219,0.0113211,0.00759074,1.13305,0.00666169,0.0491038,1511,1751,7.46254,-36.9747
294,-727,7.65076,36.5292,0.0134743,0.0100895,-0.00108103,0.0137901,0.00977371,-0.284217,0.00818974,0.0499433,1518,1751,7.6508,-36.5291
301,-727,7.64758,37.1808,0.019047,0.00947282,-0.00469713,0.0209666,0.00755326,-0.387956,0.0122617,0.0498053,1525,1751,7.64759,-37.1808
308,-727,7.62048,37.4395,0,0,0,0,0,0,0,-1,1532,1751,7.62049,-37.4394
315,-727,7.24683,37.4714,0,0,0,0,0,0,0,-1,1539,1751,7.24677,-37.4714
322,-727,6.79102,36.9746,0,0,0,0,0,0,0,-1,1546,1751,6.79103,-36.9746
329,-727,5.54419,31.0325,0,0,0,0,0,0,0,-1,1553,1751,5.54425,-31.0325
336,-727,5.55823,20.2439,0,0,0,0,0,0,0,-1,1560,1751,5.55829,-20.2438
343,-727,2.41699,8.72095,0,0,0,0,0,0,0,-1,1567,1751,2.41702,-8.72098
350,-727,3.89783,7.50195,0,0,0,0,0,0,0,-1,1574,1751,3.89782,-7.50193
357,-727,4.48462,10.2948,0,0,0,0,0,0,0,-1,1581,1751,4.48464,-10.2948
364,-727,6.96729,17.2365,0,0,0,0,0,0,0,-1,1588,1751,6.96732,-17.2365
371,-727,5.04565,23.2227,0,0,0,0,0,0,0,-1,1595,1751,5.04564,-23.2227
378,-727,4.56726,23.0574,0,0,0,0,0,0,0,-1,1602,1751,4.56727,-23.0574
385,-727,3.52307,22.6431,0,0,0,0,0,0,0,-1,1609,1751,3.52303,-22.643
392,-727,0,0,0,0,0,0,0,0,0,-1,1616,1751,0,0
399,-727,0,0,0,0,0,0,0,0,0,-1,1623,1751,0,0
406,-727,0,0,0,0,0,0,0,0,0,-1,1630,1751,0,0
413,-727,0,0,0,0,0,0,0,0,0,-1,1637,1751,0,0
420,-727,0,0,0,0,0,0,0,0,0,-1,1644,1751,0,0
427,-727,0,0,0,0,0,0,0,0,0,-1,1651,1751,0,0
434,-727,0,0,0,0,0,0,0,0,0,-1,1658,1751,0,0
441,-727,0,0,0,0,0,0,0,0,0,-1,1665,1751,0,0
448,-727,0,0,0,0,0,0,0,0,0,-1,1672,1751,0,0
455,-727,0,0,0,0,0,0,0,0,0,-1,1679,1751,0,0
462,-727,0,0,0,0,0,0,0,0,0,-1,1686,1751,0,0
469,-727,0,0,0,0,0,0,0,0,0,-1,1693,1751,0,0
476,-727,0,0,0,0,0,0,0,0,0,-1,1700,1751,0,0
483,-727,0,0,0,0,0,0,0,0,0,-1,1707,1751,0,0
490,-727,0,0,0,0,0,0,0,0,0,-1,1714,1751,0,0
497,-727,0,0,0,0,0,0,0,0,0,-1,1721,1751,0,0
504,-727,0,0,0,0,0,0,0,0,0,-1,1728,1751,0,0
511,-727,0,0,0,0,0,0,0,0,0,-1,1735,1751,0,0
518,-727,0,0,0,0,0,0,0,0,0,-1,1742,1751,0,0
525,-727,0,0,0,0,0,0,0,0,0,-1,1749,1751,0,0
532,-727,0,0,0,0,0,0,0,0,0,-1,1756,1751,0,0
539,-727,0,0,0,0,0,0,0,0,0,-1,1763,1751,0,0
546,-727,0,0,0,0,0,0,0,0,0,-1,1770,1751,0,0
553,-727,0,0,0,0,0,0,0,0,0,-1,1777,1751,0,0
560,-727,0,0,0,0,0,0,0,0,0,-1,1784,1751,0,0
567,-727,0,0,0,0,0,0,0,0,0,-1,1791,1751,0,0
574,-727,0,0,0,0,0,0,0,0,0,-1,1798,1751,0,0
581,-727,0,0,0,0,0,0,0,0,0,-1,1805,1751,0,0
588,-727,0,0,0,0,0,0,0,0,0,-1,1812,1751,0,0
595,-727,0,0,0,0,0,0,0,0,0,-1,1819,1751,0,0
602,-727,0,0,0,0,0,0,0,0,0,-1,1826,1751,0,0
609,-727,0,0,0,0,0,0,0,0,0,-1,1833,1751,0,0
616,-727,0,0,0,0,0,0,0,0,0,-1,1840,1751,0,0
623,-727,0,0,0,0,0,0,0,0,0,-1,1847,1751,0,0
630,-727,0,0,0,0,0,0,0,0,0,-1,1854,1751,0,0
637,-727,0,0,0,0,0,0,0,0,0,-1,1861,1751,0,0
644,-727,0,0,0,0,0,0,0,0,0,-1,1868,1751,0,0
651,-727,0,0,0,0,0,0,0,0,0,-1,1875,1751,0,0
658,-727,0,0,0,0,0,0,0,0,0,-1,1882,1751,0,0
665,-727,0,0,0,0,0,0,0,0,0,-1,1889,1751,0,0
672,-727,0,0,0,0,0,0,0,0,0,-1,1896,1751,0,0
679,-727,0,0,0,0,0,0,0,0,0,-1,1903,1751,0,0
686,-727,0,0,0,0,0,0,0,0,0,-1,1910,1751,0,0
693,-727,0,0,0,0,0,0,0,0,0,-1,1917,1751,0,0
700,-727,0,0,0,0,0,0,0,0,0,-1,1924,1751,0,0
707,-727,0,0,0,0,0,0,0,0,0,-1,1931,1751,0,0
714,-727,0,0,0,0,0,0,0,0,0,-1,1938,1751,0,0
721,-727,0,0,0,0,0,0,0,0,0,-1,1945,1751,0,0
728,-727,0,0,0,0,0,0,0,0,0,-1,1952,1751,0,0
735,-727,0,0,0,0,0,0,0,0,0,-1,1959,1751,0,0
742,-727,0,0,0,0,0,0,0,0,0,-1,1966,1751,0,0
749,-727,0,0,0,0,0,0,0,0,0,-1,1973,1751,0,0
756,-727,0,0,0,0,0,0,0,0,0,-1,1980,1751,0,0
763,-727,0,0,0,0,0,0,0,0,0,-1,1987,1751,0,0
770,-727,0,0,0,0,0,0,0,0,0,-1,1994,1751,0,0
777,-727,0,0,0,0,0,0,0,0,0,-1,2001,1751,0,0
784,-727,0,0,0,0,0,0,0,0,0,-1,2008,1751,0,0
791,-727,0,0,0,0,0,0,0,0,0,-1,2015,1751,0,0
798,-727,0,0,0,0,0,0,0,0,0,-1,2022,1751,0,0
805,-727,0,0,0,0,0,0,0,0,0,-1,2029,1751,0,0
812,-727,0,0,0,0,0,0,0,0,0,-1,2036,1751,0,0
-700,-734,0,0,0,0,0,0,0,0,0,-1,524,1758,0,0
-693,-734,0,0,0,0,0,0,0,0,0,-1,531,1758,0,0
-686,-734,0,0,0,0,0,0,0,0,0,-1,538,1758,0,0
-679,-734,0,0,0,0,0,0,0,0,0,-1,545,1758,0,0
-672,-734,0,0,0,0,0,0,0,0,0,-1,552,1758,0,0
-665,-734,0,0,0,0,0,0,0,0,0,-1,559,1758,0,0
-658,-734,0,0,0,0,0,0,0,0,0,-1,566,1758,0,0
-651,-734,0,0,0,0,0,0,0,0,0,-1,573,1758,0,0
-644,-734,0,0,0,0,0,0,0,0,0,-1,580,1758,0,0
-637,-734,0,0,0,0,0,0,0,0,0,-1,587,1758,0,0
-630,-734,0,0,0,0,0,0,0,0,0,-1,594,1758,0,0
-623,-734,0,0,0,0,0,0,0,0,0,-1,601,1758,0,0
-616,-734,0,0,0,0,0,0,0,0,0,-1,608,1758,0,0
-609,-734,0,0,0,0,0,0,0,0,0,-1,615,1758,0,0
-602,-734,0,0,0,0,0,0,0,0,0,-1,622,1758,0,0
-595,-734,0,0,0,0,0,0,0,0,0,-1,629,1758,0,0
-588,-734,0,0,0,0,0,0,0,0,0,-1,636,1758,0,0
-581,-734,0,0,0,0,0,0,0,0,0,-1,643,1758,0,0
-574,-734,0,0,0,0,0,0,0,0,0,-1,650,1758,0,0
-567,-734,0,0,0,0,0,0,0,0,0,-1,657,1758,0,0
-560,-734,0,0,0,0,0,0,0,0,0,-1,664,1758,0,0
-553,-734,0,0,0,0,0,0,0,0,0,-1,671,1758,0,0
-546,-734,0,0,0,0,0,0,0,0,0,-1,678,1758,0,0
-539,-734,0,0,0,0,0,0,0,0,0,-1,685,1758,0,0
-532,-734,0,0,0,0,0,0,0,0,0,-1,692,1758,0,0
-525,-734,0,0,0,0,0,0,0,0,0,-1,699,1758,0,0
-518,-734,0,0,0,0,0,0,0,0,0,-1,706,1758,0,0
-511,-734,0,0,0,0,0,0,0,0,0,-1,713,1758,0,0
-504,-734,0,0,0,0,0,0,0,0,0,-1,720,1758,0,0
-497,-734,0,0,0,0,0,0,0,0,0,-1,727,1758,0,0
-490,-734,0,0,0,0,0,0,0,0,0,-1,734,1758,0,0
-483,-734,0,0,0,0,0,0,0,0,0,-1,741,1758,0,0
-476,-734,0,0,0,0,0,0,0,0,0,-1,748,1758,0,0
-469,-734,0,0,0,0,0,0,0,0,0,-1,755,1758,0,0
-462,-734,0,0,0,0,0,0,0,0,0,-1,762,1758,0,0
-455,-734,0,0,0,0,0,0,0,0,0,-1,769,1758,0,0
-448,-734,0,0,0,0,0,0,0,0,0,-1,776,1758,0,0
-441,-734,0,0,0,0,0,0,0,0,0,-1,783,1758,0,0
-434,-734,0,0,0,0,0,0,0,0,0,-1,790,1758,0,0
-427,-734,0,0,0,0,0,0,0,0,0,-1,797,1758,0,0
-420,-734,0,0,0,0,0,0,0,0,0,-1,804,1758,0,0
-413,-734,0,0,0,0,0,0,0,0,0,-1,811,1758,0,0
-406,-734,0,0,0,0,0,0,0,0,0,-1,818,1758,0,0
-399,-734,0,0,0,0,0,0,0,0,0,-1,825,1758,0,0
-392,-734,0,0,0,0,0,0,0,0,0,-1,832,1758,0,0
-385,-734,0,0,0,0,0,0,0,0,0,-1,839,1758,0,0
-378,-734,0,0,0,0,0,0,0,0,0,-1,846,1758,0,0
-371,-734,0,0,0,0,0,0,0,0,0,-1,853,1758,0,0
-364,-734,0,0,0,0,0,0,0,0,0,-1,860,1758,0,0
-357,-734,0,0,0,0,0,0,0,0,0,-1,867,1758,0,0
-350,-734,0,0,0,0,0,0,0,0,0,-1,874,1758,0,0
-343,-734,0,0,0,0,0,0,0,0,0,-1,881,1758,0,0
-336,-734,0,0,0,0,0,0,0,0,0,-1,888,1758,0,0
-329,-734,0,0,0,0,0,0,0,0,0,-1,895,1758,0,0
-322,-734,0,0,0,0,0,0,0,0,0,-1,902,1758,0,0
-315,-734,0,0,0,0,0,0,0,0,0,-1,909,1758,0,0
-308,-734,0,0,0,0,0,0,0,0,0,-1,916,1758,0,0
-301,-734,0,0,0,0,0,0,0,0,0,-1,923,1758,0,0
-294,-734,0,0,0,0,0,0,0,0,0,-1,930,1758,0,0
-287,-734,0,0,0,0,0,0,0,0,0,-1,937,1758,0,0
-280,-734,0,0,0,0,0,0,0,0,0,-1,944,1758,0,0
-273,-734,0,0,0,0,0,0,0,0,0,-1,951,1758,0,0
-266,-734,0,0,0,0,0,0,0,0,0,-1,958,1758,0,0
-259,-734,0,0,0,0,0,0,0,0,0,-1,965,1758,0,0
-252,-734,5.73883,31.5245,0,0,0,0,0,0,0,-1,972,1758,5.73884,-31.5246
-245,-734,6.32513,30.9761,0,0,0,0,0,0,0,-1,979,1758,6.32511,-30.9761
-238,-734,6.82385,30.0449,0,0,0,0,0,0,0,-1,986,1758,6.82387,-30.0449
-231,-734,7.1958,29.1666,0,0,0,0,0,0,0,-1,993,1758,7.19578,-29.1666
-224,-734,7.36169,28.5652,0,0,0,0,0,0,0,-1,1000,1758,7.36172,-28.5651
-217,-734,7.45984,28.4386,0,0,0,0,0,0,0,-1,1007,1758,7.45986,-28.4386
-210,-734,7.45483,28.4388,0,0,0,0,0,0,0,-1,1014,1758,7.45482,-28.4388
-203,-734,7.93079,29.6151,0,0,0,0,0,0,0,-1,1021,1758,7.93076,-29.6151
-196,-734,11.3601,34.9989,0,0,0,0,0,0,0,-1,1028,1758,11.3601,-34.9989
-189,-734,10.1284,35.7189,0,0,0,0,0,0,0,-1,1035,1758,10.1284,-35.7189
-182,-734,10.3832,37.2407,0,0,0,0,0,0,0,-1,1042,1758,10.3831,-37.2407
-175,-734,8.90942,36.9739,0,0,0,0,0,0,0,-1,1049,1758,8.90948,-36.9739
-168,-734,10.1235,37.3013,0,0,0,0,0,0,0,-1,1056,1758,10.1235,-37.3013
-161,-734,8.33569,37.8018,0,0,0,0,0,0,0,-1,1063,1758,8.33572,-37.8018
-154,-734,9.94226,37.5179,0,0,0,0,0,0,0,-1,1070,1758,9.94231,-37.518
-147,-734,9.39197,37.9727,0,0,0,0,0,0,0,-1,1077,1758,9.39192,-37.9727
-140,-734,8.90686,38.0505,0,0,0,0,0,0,0,-1,1084,1758,8.90682,-38.0505
-133,-734,8.87732,38.3296,-0.00629788,0.00625043,0.00660531,0.00908644,-0.00913389,1.16524,0.0105195,0.0455911,1091,1758,8.87733,-38.3296
-126,-734,8.6134,38.5796,-0.00495486,0.00695182,0.00684965,0.0100737,-0.00807676,1.14315,0.0105003,0.0391375,1098,1758,8.61338,-38.5796
-119,-734,8.52148,38.9744,-0.00420272,0.00658705,0.00625117,0.0094494,-0.00706507,1.1414,0.0095677,0.0399618,1105,1758,8.52146,-38.9744
-112,-734,8.72388,39.2189,-0.00329525,0.00663838,0.00586544,0.00935744,-0.00601431,1.13671,0.00894457,0.0376942,1112,1758,8.72388,-39.2189
-105,-734,8.66895,39.5017,-0.00267406,0.0063758,0.00526144,0.00879044,-0.00508871,1.14054,0.00810758,0.0295213,1119,1758,8.66896,-39.5017
-98,-734,8.77466,39.6658,-0.0020934,0.00607147,0.00479739,0.00828834,-0.00431027,1.13793,0.00739369,0.0440657,1126,1758,8.77472,-39.6658
-91,-734,8.71375,40.0199,0,0,0,0,0,0,0,-1,1133,1758,8.7138,-40.0199
-84,-734,8.63928,40.2238,0,0,0,0,0,0,0,-1,1140,1758,8.63931,-40.2238
-77,-734,8.6012,40.4586,0,0,0,0,0,0,0,-1,1147,1758,8.60119,-40.4586
-70,-734,8.62634,40.7039,0,0,0,0,0,0,0,-1,1154,1758,8.62631,-40.7039
-63,-734,8.50818,40.6776,-0.00211191,0.00137895,0.00106823,0.00167989,-0.00241285,1.29619,0.00237554,0.0343353,1161,1758,8.50814,-40.6777
-56,-734,8.55029,41.0579,-0.00285219,0.000633459,0.000615896,0.000739084,-0.00295781,1.40095,0.00225891,0.0168287,1168,1758,8.5503,-41.0579
-49,-734,8.51721,41.2299,-0.00331055,-9.2156e-05,0.000340132,-5.66024e-05,-0.00334611,1.46665,0.00221211,0.0134971,1175,1758,8.51722,-41.2299
-42,-734,8.50305,41.4037,-0.0031256,-0.000669153,0.000757031,-0.000454592,-0.00334016,1.29461,0.00209178,0.0134548,1182,1758,8.50308,-41.4037
-35,-734,8.50012,41.5447,-0.00266575,-0.00156746,0.000709174,-0.00121968,-0.00301354,1.11485,0.00175036,0.0131592,1189,1758,8.50016,-41.5447
-28,-734,8.48035,41.6785,-0.00242228,-0.00229254,0.00061924,-0.00173478,-0.00298004,0.837586,0.00172825,0.0096619,1196,1758,8.4804,-41.6785
-21,-734,8.51025,41.8014,-0.00216242,-0.003167,0.000379235,-0.00203533,-0.00329408,0.323351,0.00191938,0.015497,1203,1758,8.51029,-41.8014
-14,-734,8.4657,41.96,-0.00183867,-0.00376884,6.56337e-05,-0.00183644,-0.00377107,0.0339519,0.00217747,0.0167215,1210,1758,8.46566,-41.96
-7,-734,8.45435,42.0924,-0.0013653,-0.00413257,-0.000128054,-0.00135939,-0.00413849,-0.0461429,0.00243577,0.0178676,1217,1758,8.45435,-42.0924
0,-734,8.42517,42.1958,-0.000638902,-0.00445662,-5.37915e-05,-0.000638144,-0.00445738,-0.0140862,0.00278336,0.016904,1224,1758,8.42517,-42.1958
7,-734,8.38672,42.2744,-0.000144504,-0.00504532,-5.39334e-05,-0.000143911,-0.00504592,-0.0110032,0.00331702,0.0134119,1231,1758,8.38673,-42.2744
14,-734,8.35327,42.3629,0.000191629,-0.00544245,-0.000265135,0.000204078,-0.0054549,-0.046921,0.0037065,0.0140931,1238,1758,8.35331,-42.3629
21,-734,8.34033,42.4366,0.000451635,-0.00622323,-0.000374397,0.00047257,-0.00624416,-0.0558571,0.0043289,0.0124114,1245,1758,8.34031,-42.4367
28,-734,8.36963,42.5021,0.000604827,-0.00661596,-0.000519803,0.000642054,-0.00665319,-0.0714957,0.00466423,0.011731,1252,1758,8.36957,-42.502
35,-734,8.39246,42.5507,0.000642965,-0.00674242,-0.00057556,0.000687551,-0.00678701,-0.0773102,0.0047704,0.0143051,1259,1758,8.39249,-42.5507
42,-734,8.38013,42.5825,0.000723413,-0.00683089,-0.000613992,0.000772991,-0.00688047,-0.0805724,0.00486516,0.0118944,1266,1758,8.38016,-42.5826
49,-734,8.35022,42.6096,0.000663526,-0.00682129,-0.000744458,0.000736854,-0.00689462,-0.0981808,0.00486068,0.0101563,1273,1758,8.35024,-42.6097
56,-734,8.33313,42.6383,0.00044169,-0.00638446,-0.000954709,0.000572702,-0.00651547,-0.136375,0.00454659,0.00927689,1280,1758,8.33318,-42.6383
63,-734,8.33508,42.635,-6.16484e-05,-0.00580772,-0.00105391,0.000125554,-0.00599492,-0.175793,0.00403912,0.0120033,1287,1758,8.33512,-42.6351
70,-734,8.32385,42.6433,-0.000582751,-0.00470056,-0.000915173,-0.000388518,-0.00489479,-0.209133,0.00314171,0.0131442,1294,1758,8.32387,-42.6433
77,-734,8.3219,42.6814,-0.000937063,-0.00373681,-0.00080987,-0.000719675,-0.0039542,-0.262242,0.002432,0.0174329,1301,1758,8.3219,-42.6814
84,-734,8.28845,42.6389,-0.00132462,-0.00253145,-0.000572187,-0.00109647,-0.0027596,-0.379421,0.00160442,0.0163059,1308,1758,8.28844,-42.6389
91,-734,8.2926,42.604,-0.00159876,-0.00147055,-0.000247306,-0.00127917,-0.00179013,-0.912211,0.00106478,0.0181482,1315,1758,8.29266,-42.604
98,-734,8.30054,42.5709,-0.0018996,-0.000652128,-4.92183e-05,-0.000650189,-0.00190154,-1.53142,0.00111599,0.0138773,1322,1758,8.30057,-42.571
105,-734,8.30151,42.5009,-0.00229701,0.000114938,2.37301e-05,0.000115171,-0.00229725,1.56096,0.0015713,0.0145447,1329,1758,8.30157,-42.5008
112,-734,8.30493,42.4243,-0.00234099,0.00082066,0.000261247,0.000842101,-0.00236243,1.48891,0.00191829,0.0124935,1336,1758,8.30488,-42.4244
119,-734,8.27917,42.3457,-0.00230448,0.000947912,0.000648386,0.00107241,-0.00242898,1.3811,0.00207148,0.0132619,1343,1758,8.27919,-42.3457
126,-734,8.27087,42.245,-0.00227183,0.00122289,0.000877245,0.00143074,-0.00247968,1.33816,0.00228459,0.0165565,1350,1758,8.27082,-42.245
133,-734,8.24231,42.146,-0.00221085,0.000835773,0.00110915,0.00119679,-0.00257187,1.25612,0.00222359,0.0148072,1357,1758,8.24225,-42.146
140,-734,8.23718,42.0463,-0.00217042,0.000355755,0.0011679,0.000812956,-0.00262762,1.19766,0.00207647,0.0196449,1364,1758,8.23721,-42.0463
147,-734,8.22852,41.9318,-0.00226089,0.00011408,0.00124933,0.000650234,-0.00279705,1.16541,0.00211503,0.0143819,1371,1758,8.22854,-41.9318
154,-734,8.20007,41.8209,-0.00247405,-4.72911e-05,0.00122805,0.000465714,-0.00298706,1.17509,0.00216338,0.0096753,1378,1758,8.20013,-41.8209
161,-734,8.18616,41.6945,-0.00254022,-0.000470055,0.00117535,6.10165e-05,-0.0030713,1.14641,0.00206817,0.00896753,1385,1758,8.1862,-41.6944
168,-734,8.14075,41.5461,-0.00215324,-0.000390141,0.000517813,-0.000249311,-0.00229407,1.30525,0.00145342,0.0145902,1392,1758,8.1408,-41.5462
175,-734,8.1178,41.3792,-0.00176502,-0.000715949,-0.000398881,-0.000581513,-0.00189946,-1.24572,0.00112379,0.0176563,1399,1758,8.1178,-41.3791
182,-734,8.13953,41.1936,-0.00214966,0.000316774,-0.000801159,0.000554162,-0.00238705,-1.28273,0.00180467,0.0151539,1406,1758,8.13957,-41.1936
189,-734,8.1167,41.0161,-0.00248186,0.00129391,-0.00111791,0.00160007,-0.00278802,-1.30348,0.00256422,0.0110322,1413,1758,8.11673,-41.0161
196,-734,8.09058,40.8527,-0.00295602,0.00263687,-0.00174697,0.0031377,-0.00345685,-1.2916,0.00380885,0.0138203,1420,1758,8.0906,-40.8526
203,-734,8.09558,40.6239,-0.00402327,0.00445492,-0.00293185,0.00537001,-0.00493836,-1.26826,0.00595328,0.0202337,1427,1758,8.09564,-40.6238
210,-734,8.07678,40.4001,-0.00503357,0.00796424,-0.00289742,0.00858087,-0.0056502,-1.36111,0.00827418,0.0324331,1434,1758,8.07676,-40.4001
217,-734,8.05371,40.1234,-0.00648961,0.00973596,-0.00135122,0.00984772,-0.00660137,-1.48828,0.00955834,0.0459132,1441,1758,8.05365,-40.1234
224,-734,8.29163,39.6544,0,0,0,0,0,0,0,-1,1448,1758,8.29157,-39.6545
231,-734,8.07263,39.5007,-0.00881213,0.0128161,-9.70726e-05,0.0128165,-0.00881257,-1.56631,0.0125587,0.0488149,1455,1758,8.07264,-39.5008
238,-734,7.87769,39.4744,-0.00968643,0.0151032,0.000974048,0.0151414,-0.00972464,1.53158,0.0144695,0.0333639,1462,1758,7.87766,-39.4744
245,-734,7.9679,39.2264,-0.0103601,0.0178682,0.00252536,0.0180923,-0.0105843,1.48227,0.0167445,0.0272491,1469,1758,7.96791,-39.2264
252,-734,8.00708,38.9479,-0.00963381,0.0176165,0.00442335,0.0183165,-0.0103338,1.41384,0.016754,0.0300074,1476,1758,8.00703,-38.9479
259,-734,7.99036,38.7242,-0.00802198,0.0167546,0.0057642,0.01803,-0.00929735,1.35305,0.0160437,0.0379788,1483,1758,7.9904,-38.7243
266,-734,7.91309,38.6104,-0.00566569,0.0153536,0.00703533,0.017491,-0.00780312,1.27584,0.0149564,0.0471901,1490,1758,7.9131,-38.6103
273,-734,7.99707,38.5122,0,0,0,0,0,0,0,-1,1497,1758,7.99703,-38.5122
280,-734,5.95288,32.8356,0,0,0,0,0,0,0,-1,1504,1758,5.95285,-32.8356
287,-734,6.72974,36.3744,0,0,0,0,0,0,0,-1,1511,1758,6.72973,-36.3744
294,-734,7.03406,36.0077,0,0,0,0,0,0,0,-1,1518,1758,7.03407,-36.0077
301,-734,6.88904,37.8728,0.0263707,0.00924697,-0.00476641,0.0276081,0.00800965,-0.253986,0.0164009,0.0448919,1525,1758,6.88907,-37.8729
308,-734,7.32117,36.5299,0.0358305,0.00796925,-0.0101692,0.0391473,0.00465243,-0.315285,0.0246939,0.0453223,1532,1758,7.32111,-36.5299
315,-734,7.80371,34.9631,0,0,0,0,0,0,0,-1,1539,1758,7.80374,-34.9632
322,-734,6.86511,33.9312,0,0,0,0,0,0,0,-1,1546,1758,6.86512,-33.9312
329,-734,5.73267,19.656,0,0,0,0,0,0,0,-1,1553,1758,5.73262,-19.656
336,-734,6.71375,23.7469,0,0,0,0,0,0,0,-1,1560,1758,6.71372,-23.7469
343,-734,5.54968,5.14221,0,0,0,0,0,0,0,-1,1567,1758,5.54973,-5.14225
350,-734,5.07397,6.73242,0,0,0,0,0,0,0,-1,1574,1758,5.07402,-6.73243
357,-734,5.05542,7.19189,0,0,0,0,0,0,0,-1,1581,1758,5.05541,-7.19184
364,-734,4.43896,10.4904,0,0,0,0,0,0,0,-1,1588,1758,4.43893,-10.4904
371,-734,7.36975,17.4751,0,0,0,0,0,0,0,-1,1595,1758,7.36972,-17.4752
378,-734,0,0,0,0,0,0,0,0,0,-1,1602,1758,0,0
385,-734,0,0,0,0,0,0,0,0,0,-1,1609,1758,0,0
392,-734,0,0,0,0,0,0,0,0,0,-1,1616,1758,0,0
399,-734,0,0,0,0,0,0,0,0,0,-1,1623,1758,0,0
406,-734,0,0,0,0,0,0,0,0,0,-1,1630,1758,0,0
413,-734,0,0,0,0,0,0,0,0,0,-1,1637,1758,0,0
420,-734,0,0,0,0,0,0,0,0,0,-1,1644,1758,0,0
427,-734,0,0,0,0,0,0,0,0,0,-1,1651,1758,0,0
434,-734,0,0,0,0,0,0,0,0,0,-1,1658,1758,0,0
441,-734,0,0,0,0,0,0,0,0,0,-1,1665,1758,0,0
448,-734,0,0,0,0,0,0,0,0,0,-1,1672,1758,0,0
455,-734,0,0,0,0,0,0,0,0,0,-1,1679,1758,0,0
462,-734,0,0,0,0,0,0,0,0,0,-1,1686,1758,0,0
469,-734,0,0,0,0,0,0,0,0,0,-1,1693,1758,0,0
476,-734,0,0,0,0,0,0,0,0,0,-1,1700,1758,0,0
483,-734,0,0,0,0,0,0,0,0,0,-1,1707,1758,0,0
490,-734,0,0,0,0,0,0,0,0,0,-1,1714,1758,0,0
497,-734,0,0,0,0,0,0,0,0,0,-1,1721,1758,0,0
504,-734,0,0,0,0,0,0,0,0,0,-1,1728,1758,0,0
511,-734,0,0,0,0,0,0,0,0,0,-1,1735,1758,0,0
518,-734,0,0,0,0,0,0,0,0,0,-1,1742,1758,0,0
525,-734,0,0,0,0,0,0,0,0,0,-1,1749,1758,0,0
532,-734,0,0,0,0,0,0,0,0,0,-1,1756,1758,0,0
539,-734,0,0,0,0,0,0,0,0,0,-1,1763,1758,0,0
546,-734,0,0,0,0,0,0,0,0,0,-1,1770,1758,0,0
553,-734,0,0,0,0,0,0,0,0,0,-1,1777,1758,0,0
560,-734,0,0,0,0,0,0,0,0,0,-1,1784,1758,0,0
567,-734,0,0,0,0,0,0,0,0,0,-1,1791,1758,0,0
574,-734,0,0,0,0,0,0,0,0,0,-1,1798,1758,0,0
581,-734,0,0,0,0,0,0,0,0,0,-1,1805,1758,0,0
588,-734,0,0,0,0,0,0,0,0,0,-1,1812,1758,0,0
595,-734,0,0,0,0,0,0,0,0,0,-1,1819,1758,0,0
602,-734,0,0,0,0,0,0,0,0,0,-1,1826,1758,0,0
609,-734,0,0,0,0,0,0,0,0,0,-1,1833,1758,0,0
616,-734,0,0,0,0,0,0,0,0,0,-1,1840,1758,0,0
623,-734,0,0,0,0,0,0,0,0,0,-1,1847,1758,0,0
630,-734,0,0,0,0,0,0,0,0,0,-1,1854,1758,0,0
637,-734,0,0,0,0,0,0,0,0,0,-1,1861,1758,0,0
644,-734,0,0,0,0,0,0,0,0,0,-1,1868,1758,0,0
651,-734,0,0,0,0,0,0,0,0,0,-1,1875,1758,0,0
658,-734,0,0,0,0,0,0,0,0,0,-1,1882,1758,0,0
665,-734,0,0,0,0,0,0,0,0,0,-1,1889,1758,0,0
672,-734,0,0,0,0,0,0,0,0,0,-1,1896,1758,0,0
679,-734,0,0,0,0,0,0,0,0,0,-1,1903,1758,0,0
686,-734,0,0,0,0,0,0,0,0,0,-1,1910,1758,0,0
693,-734,0,0,0,0,0,0,0,0,0,-1,1917,1758,0,0
700,-734,0,0,0,0,0,0,0,0,0,-1,1924,1758,0,0
707,-734,0,0,0,0,0,0,0,0,0,-1,1931,1758,0,0
714,-734,0,0,0,0,0,0,0,0,0,-1,1938,1758,0,0
721,-734,0,0,0,0,0,0,0,0,0,-1,1945,1758,0,0
728,-734,0,0,0,0,0,0,0,0,0,-1,1952,1758,0,0
735,-734,0,0,0,0,0,0,0,0,0,-1,1959,1758,0,0
742,-734,0,0,0,0,0,0,0,0,0,-1,1966,1758,0,0
749,-734,0,0,0,0,0,0,0,0,0,-1,1973,1758,0,0
756,-734,0,0,0,0,0,0,0,0,0,-1,1980,1758,0,0
763,-734,0,0,0,0,0,0,0,0,0,-1,1987,1758,0,0
770,-734,0,0,0,0,0,0,0,0,0,-1,1994,1758,0,0
777,-734,0,0,0,0,0,0,0,0,0,-1,2001,1758,0,0
784,-734,0,0,0,0,0,0,0,0,0,-1,2008,1758,0,0
791,-734,0,0,0,0,0,0,0,0,0,-1,2015,1758,0,0
798,-734,0,0,0,0,0,0,0,0,0,-1,2022,1758,0,0
805,-734,0,0,0,0,0,0,0,0,0,-1,2029,1758,0,0
812,-734,0,0,0,0,0,0,0,0,0,-1,2036,1758,0,0
-700,-741,0,0,0,0,0,0,0,0,0,-1,524,1765,0,0
-693,-741,0,0,0,0,0,0,0,0,0,-1,531,1765,0,0
-686,-741,0,0,0,0,0,0,0,0,0,-1,538,1765,0,0
-679,-741,0,0,0,0,0,0,0,0,0,-1,545,1765,0,0
-672,-741,0,0,0,0,0,0,0,0,0,-1,552,1765,0,0
-665,-741,0,0,0,0,0,0,0,0,0,-1,559,1765,0,0
-658,-741,0,0,0,0,0,0,0,0,0,-1,566,1765,0,0
-651,-741,0,0,0,0,0,0,0,0,0,-1,573,1765,0,0
-644,-741,0,0,0,0,0,0,0,0,0,-1,580,1765,0,0
-637,-741,0,0,0,0,0,0,0,0,0,-1,587,1765,0,0
-630,-741,0,0,0,0,0,0,0,0,0,-1,594,1765,0,0
-623,-741,0,0,0,0,0,0,0,0,0,-1,601,1765,0,0
-616,-741,0,0,0,0,0,0,0,0,0,-1,608,1765,0,0
-609,-741,0,0,0,0,0,0,0,0,0,-1,615,1765,0,0
-602,-741,0,0,0,0,0,0,0,0,0,-1,622,1765,0,0
-595,-741,0,0,0,0,0,0,0,0,0,-1,629,1765,0,0
-588,-741,0,0,0,0,0,0,0,0,0,-1,636,1765,0,0
-581,-741,0,0,0,0,0,0,0,0,0,-1,643,1765,0,0
-574,-741,0,0,0,0,0,0,0,0,0,-1,650,1765,0,0
-567,-741,0,0,0,0,0,0,0,0,0,-1,657,1765,0,0
-560,-741,0,0,0,0,0,0,0,0,0,-1,664,1765,0,0
-553,-741,0,0,0,0,0,0,0,0,0,-1,671,1765,0,0
-546,-741,0,0,0,0,0,0,0,0,0,-1,678,1765,0,0
-539,-741,0,0,0,0,0,0,0,0,0,-1,685,1765,0,0
-532,-741,0,0,0,0,0,0,0,0,0,-1,692,1765,0,0
-525,-741,0,0,0,0,0,0,0,0,0,-1,699,1765,0,0
-518,-741,0,0,0,0,0,0,0,0,0,-1,706,1765,0,0
-511,-741,0,0,0,0,0,0,0,0,0,-1,713,1765,0,0
-504,-741,0,0,0,0,0,0,0,0,0,-1,720,1765,0,0
-497,-741,0,0,0,0,0,0,0,0,0,-1,727,1765,0,0
-490,-741,0,0,0,0,0,0,0,0,0,-1,734,1765,0,0
-483,-741,0,0,0,0,0,0,0,0,0,-1,741,1765,0,0
-476,-741,0,0,0,0,0,0,0,0,0,-1,748,1765,0,0
-469,-741,0,0,0,0,0,0,0,0,0,-1,755,1765,0,0
-462,-741,0,0,0,0,0,0,0,0,0,-1,762,1765,0,0
-455,-741,0,0,0,0,0,0,0,0,0,-1,769,1765,0,0
-448,-741,0,0,0,0,0,0,0,0,0,-1,776,1765,0,0
-441,-741,0,0,0,0,0,0,0,0,0,-1,783,1765,0,0
-434,-741,0,0,0,0,0,0,0,0,0,-1,790,1765,0,0
-427,-741,0,0,0,0,0,0,0,0,0,-1,797,1765,0,0
-420,-741,0,0,0,0,0,0,0,0,0,-1,804,1765,0,0
-413,-741,0,0,0,0,0,0,0,0,0,-1,811,1765,0,0
-406,-741,0,0,0,0,0,0,0,0,0,-1,818,1765,0,0
-399,-741,0,0,0,0,0,0,0,0,0,-1,825,1765,0,0
-392,-741,0,0,0,0,0,0,0,0,0,-1,832,1765,0,0
-385,-741,0,0,0,0,0,0,0,0,0,-1,839,1765,0,0
-378,-741,0,0,0,0,0,0,0,0,0,-1,846,1765,0,0
-371,-741,0,0,0,0,0,0,0,0,0,-1,853,1765,0,0
-364,-741,0,0,0,0,0,0,0,0,0,-1,860,1765,0,0
-357,-741,0,0,0,0,0,0,0,0,0,-1,867,1765,0,0
-350,-741,0,0,0,0,0,0,0,0,0,-1,874,1765,0,0
-343,-741,0,0,0,0,0,0,0,0,0,-1,881,1765,0,0
-336,-741,0,0,0,0,0,0,0,0,0,-1,888,1765,0,0
-329,-741,0,0,0,0,0,0,0,0,0,-1,895,1765,0,0
-322,-741,0,0,0,0,0,0,0,0,0,-1,902,1765,0,0
-315,-741,0,0,0,0,0,0,0,0,0,-1,909,1765,0,0
-308,-741,0,0,0,0,0,0,0,0,0,-1,916,1765,0,0
-301,-741,0,0,0,0,0,0,0,0,0,-1,923,1765,0,0
-294,-741,0,0,0,0,0,0,0,0,0,-1,930,1765,0,0
-287,-741,0,0,0,0,0,0,0,0,0,-1,937,1765,0,0
-280,-741,0,0,0,0,0,0,0,0,0,-1,944,1765,0,0
-273,-741,0,0,0,0,0,0,0,0,0,-1,951,1765,0,0
-266,-741,0,0,0,0,0,0,0,0,0,-1,958,1765,0,0
-259,-741,0,0,0,0,0,0,0,0,0,-1,965,1765,0,0
-252,-741,0,0,0,0,0,0,0,0,0,-1,972,1765,0,0
-245,-741,0,0,0,0,0,0,0,0,0,-1,979,1765,0,0
-238,-741,7.13855,29.8348,0,0,0,0,0,0,0,-1,986,1765,7.13856,-29.8348
-231,-741,7.74182,29.3066,0,0,0,0,0,0,0,-1,993,1765,7.74183,-29.3066
-224,-741,7.80078,29.0964,0,0,0,0,0,0,0,-1,1000,1765,7.80079,-29.0964
-217,-741,8.15863,29.113,0,0,0,0,0,0,0,-1,1007,1765,8.15863,-29.1131
-210,-741,8.37024,29.3896,0,0,0,0,0,0,0,-1,1014,1765,8.37022,-29.3896
-203,-741,8.33801,29.8871,0,0,0,0,0,0,0,-1,1021,1765,8.33805,-29.8871
-196,-741,8.75513,30.84,0,0,0,0,0,0,0,-1,1028,1765,8.75516,-30.8399
-189,-741,9.16321,31.9888,0,0,0,0,0,0,0,-1,1035,1765,9.16327,-31.9888
-182,-741,9.71594,33.2998,0,0,0,0,0,0,0,-1,1042,1765,9.71593,-33.2998
-175,-741,7.26477,24.616,0,0,0,0,0,0,0,-1,1049,1765,7.26471,-24.616
-168,-741,5.4801,16.3933,0,0,0,0,0,0,0,-1,1056,1765,5.4801,-16.3933
-161,-741,9.58032,35.6759,0,0,0,0,0,0,0,-1,1063,1765,9.58037,-35.6759
-154,-741,10.6831,37.9918,0,0,0,0,0,0,0,-1,1070,1765,10.6831,-37.9918
-147,-741,10.0276,38.436,0,0,0,0,0,0,0,-1,1077,1765,10.0276,-38.4361
-140,-741,9.37219,38.8804,0,0,0,0,0,0,0,-1,1084,1765,9.37218,-38.8804
-133,-741,9.1449,38.5046,0,0,0,0,0,0,0,-1,1091,1765,9.14491,-38.5047
-126,-741,8.65369,38.6061,0,0,0,0,0,0,0,-1,1098,1765,8.65368,-38.6061
-119,-741,8.48657,38.9747,0,0,0,0,0,0,0,-1,1105,1765,8.48653,-38.9747
-112,-741,8.91125,39.1196,0,0,0,0,0,0,0,-1,1112,1765,8.9112,-39.1196
-105,-741,8.89331,39.4274,0,0,0,0,0,0,0,-1,1119,1765,8.8933,-39.4274
-98,-741,9.05811,39.6511,0,0,0,0,0,0,0,-1,1126,1765,9.05814,-39.6511
-91,-741,8.40002,36.3687,0,0,0,0,0,0,0,-1,1133,1765,8.40002,-36.3687
-84,-741,7.8877,35.0892,0,0,0,0,0,0,0,-1,1140,1765,7.88776,-35.0892
-77,-741,7.73303,34.1174,0,0,0,0,0,0,0,-1,1147,1765,7.73304,-34.1174
-70,-741,7.5437,32.0275,0,0,0,0,0,0,0,-1,1154,1765,7.5437,-32.0275
-63,-741,8.44861,40.3328,0,0,0,0,0,0,0,-1,1161,1765,8.44856,-40.3327
-56,-741,8.7356,41.0443,0,0,0,0,0,0,0,-1,1168,1765,8.73555,-41.0443
-49,-741,8.66846,41.2726,0,0,0,0,0,0,0,-1,1175,1765,8.66845,-41.2726
-42,-741,8.61267,41.2565,0,0,0,0,0,0,0,-1,1182,1765,8.61271,-41.2565
-35,-741,8.63147,41.5397,-0.00438465,-0.00257598,0.00127393,-0.00191804,-0.0050426,1.09406,0.00293899,0.0243583,1189,1765,8.63146,-41.5396
-28,-741,8.63623,41.6904,-0.0040416,-0.00361081,0.00113308,-0.00267284,-0.00497957,0.879325,0.00287755,0.0145251,1196,1765,8.63624,-41.6904
-21,-741,8.64343,41.8191,-0.003782,-0.00515498,0.000581599,-0.00356875,-0.00536822,0.351436,0.00315496,0.0182669,1203,1765,8.64347,-41.8191
-14,-741,8.58679,41.9689,-0.00341221,-0.00640517,-9.36356e-05,-0.00340928,-0.0064081,-0.0312445,0.00370225,0.0194214,1210,1765,8.58674,-41.9689
-7,-741,8.55713,42.0706,-0.00275533,-0.00777963,-0.000641505,-0.00267472,-0.00786025,-0.125009,0.00461465,0.0157701,1217,1765,8.55713,-42.0705
0,-741,8.51819,42.1639,-0.00172934,-0.00899719,-0.000720037,-0.00165869,-0.00906784,-0.0978047,0.00557519,0.0153721,1224,1765,8.51819,-42.164
7,-741,8.46973,42.2448,-0.00111029,-0.0106146,-0.000897856,-0.00102622,-0.0106987,-0.0933679,0.00681617,0.0174238,1231,1765,8.46969,-42.2447
14,-741,8.43909,42.3684,-0.000749529,-0.0119456,-0.00134906,-0.00058927,-0.0121059,-0.118239,0.00788151,0.016979,1238,1765,8.43911,-42.3684
21,-741,8.42151,42.4327,-0.000481248,-0.013635,-0.00160268,-0.00028879,-0.0138275,-0.119513,0.00912359,0.013507,1245,1765,8.42157,-42.4328
28,-741,8.41016,42.5171,-0.000376448,-0.0142559,-0.00220071,-3.58638e-05,-0.0145965,-0.153543,0.00971907,0.013876,1252,1765,8.41016,-42.5171
35,-741,8.41602,42.5536,-0.000427699,-0.0145595,-0.00271405,7.56169e-05,-0.0150628,-0.183365,0.0100671,0.0147985,1259,1765,8.41607,-42.5536
42,-741,8.4126,42.5831,-0.000397688,-0.0146409,-0.00303995,0.000223999,-0.0152626,-0.201724,0.0102505,0.014573,1266,1765,8.41261,-42.5831
49,-741,8.37012,42.611,-0.000506362,-0.0143616,-0.0034946,0.000325154,-0.0151931,-0.233599,0.0102388,0.0101405,1273,1765,8.37011,-42.611
56,-741,8.34216,42.6217,-0.000772029,-0.0132226,-0.00402795,0.000417442,-0.014412,-0.287143,0.00975015,0.00988295,1280,1765,8.34222,-42.6217
63,-741,8.32849,42.6272,-0.00127691,-0.0118453,-0.00442309,0.000329931,-0.0134522,-0.34846,0.0090801,0.0138611,1287,1765,8.32848,-42.6272
70,-741,8.31702,42.6537,-0.00173142,-0.00959682,-0.00441453,0.000248086,-0.0115763,-0.421529,0.00780156,0.0157387,1294,1765,8.31698,-42.6537
77,-741,8.29504,42.6727,-0.00200173,-0.00745051,-0.0044206,0.000466567,-0.00991881,-0.509241,0.00677342,0.0135432,1301,1765,8.29507,-42.6728
84,-741,8.25073,42.6536,-0.00221664,-0.00506273,-0.00416386,0.000760631,-0.00804001,-0.62074,0.0056307,0.0164036,1308,1765,8.25075,-42.6535
91,-741,8.24268,42.613,-0.0022831,-0.00295819,-0.00365711,0.00105201,-0.0062933,-0.739379,0.0045866,0.0126809,1315,1765,8.24267,-42.613
98,-741,8.2356,42.5555,-0.00241593,-0.00116923,-0.00317436,0.0014424,-0.00502756,-0.882349,0.00392194,0.00964914,1322,1765,8.23558,-42.5555
105,-741,8.23218,42.4738,-0.00272186,0.000298042,-0.00286875,0.00202995,-0.00445377,-1.02765,0.00382958,0.0104832,1329,1765,8.23215,-42.4737
112,-741,8.24341,42.4016,-0.00253619,0.00161557,-0.0022735,0.00261834,-0.00353896,-1.15539,0.00356814,0.0108112,1336,1765,8.24342,-42.4016
119,-741,8.21851,42.3107,-0.00224822,0.00203172,-0.00139101,0.00244408,-0.00266058,-1.2826,0.00294806,0.0131329,1343,1765,8.21855,-42.3107
126,-741,8.18628,42.2156,-0.00207137,0.00246635,-0.000759108,0.00258997,-0.00219499,-1.40936,0.00276573,0.0171489,1350,1765,8.18634,-42.2156
133,-741,8.15808,42.1276,-0.00192893,0.00147719,0.000257649,0.00149657,-0.00194831,1.49572,0.00199459,0.0146634,1357,1765,8.1581,-42.1276
140,-741,8.13013,42.0381,-0.00187226,0.000786937,0.000892817,0.00105889,-0.00214421,1.27513,0.00188436,0.0121383,1364,1765,8.13011,-42.0381
147,-741,8.11365,41.9305,-0.00205483,0.000323513,0.00107903,0.000740091,-0.00247141,1.20236,0.0019419,0.0106824,1371,1765,8.11367,-41.9305
154,-741,8.09021,41.8326,-0.00243413,-8.51427e-05,0.00119415,0.000415307,-0.00293458,1.17395,0.0021085,0.00827106,1378,1765,8.09017,-41.8326
161,-741,8.06714,41.6923,-0.00260404,-0.000949323,0.00139974,-0.000150704,-0.00340266,1.05232,0.00221991,0.0100428,1385,1765,8.0671,-41.6923
168,-741,8.0365,41.5559,-0.00249662,-0.000878858,0.000714187,-0.000608688,-0.00276679,1.20914,0.00167883,0.0249896,1392,1765,8.0365,-41.5559
175,-741,7.93445,41.3969,0,0,0,0,0,0,0,-1,1399,1765,7.93441,-41.3968
182,-741,7.98645,41.188,0,0,0,0,0,0,0,-1,1406,1765,7.98641,-41.188
189,-741,7.93823,41.0424,0,0,0,0,0,0,0,-1,1413,1765,7.93822,-41.0424
196,-741,7.90063,40.8765,0,0,0,0,0,0,0,-1,1420,1765,7.90069,-40.8765
203,-741,7.90076,40.5728,0,0,0,0,0,0,0,-1,1427,1765,7.90077,-40.5728
210,-741,7.83752,40.1301,0,0,0,0,0,0,0,-1,1434,1765,7.83754,-40.1302
217,-741,8.28894,39.5881,0,0,0,0,0,0,0,-1,1441,1765,8.28891,-39.5881
224,-741,8.0719,38.4249,0,0,0,0,0,0,0,-1,1448,1765,8.07187,-38.4249
231,-741,7.95923,39.0671,0,0,0,0,0,0,0,-1,1455,1765,7.9592,-39.0671
238,-741,7.62134,39.3969,0,0,0,0,0,0,0,-1,1462,1765,7.62128,-39.3969
245,-741,7.81372,39.0468,0,0,0,0,0,0,0,-1,1469,1765,7.81371,-39.0468
252,-741,7.89258,38.7804,-0.0141568,0.0240821,0.00637264,0.0251161,-0.0151909,1.40993,0.0235053,0.0474693,1476,1765,7.89252,-38.7804
259,-741,7.55896,38.1266,-0.0119729,0.0228794,0.00817611,0.0247022,-0.0137956,1.35145,0.0225221,0.04653,1483,1765,7.55899,-38.1266
266,-741,7.07349,38.5333,-0.008856,0.0210215,0.0100275,0.0240749,-0.0119094,1.27521,0.0211676,0.0498846,1490,1765,7.07345,-38.5333
273,-741,7.03625,39.3002,0,0,0,0,0,0,0,-1,1497,1765,7.03624,-39.3002
280,-741,16.2363,9.84546,0,0,0,0,0,0,0,-1,1504,1765,16.2363,-9.84547
287,-741,6.86572,34.726,0,0,0,0,0,0,0,-1,1511,1765,6.86572,-34.726
294,-741,6.55676,41.248,0,0,0,0,0,0,0,-1,1518,1765,6.55675,-41.248
301,-741,6.20667,38.5165,0,0,0,0,0,0,0,-1,1525,1765,6.20667,-38.5165
308,-741,6.65088,37.1075,0,0,0,0,0,0,0,-1,1532,1765,6.65087,-37.1076
315,-741,7.18262,35.4949,0,0,0,0,0,0,0,-1,1539,1765,7.1826,-35.4949
322,-741,9.33398,28.4247,0,0,0,0,0,0,0,-1,1546,1765,9.33399,-28.4247
329,-741,4.74414,17.928,0,0,0,0,0,0,0,-1,1553,1765,4.74414,-17.928
336,-741,5.74304,22.0945,0,0,0,0,0,0,0,-1,1560,1765,5.74306,-22.0945
343,-741,7.09888,26.501,0,0,0,0,0,0,0,-1,1567,1765,7.09885,-26.501
350,-741,4.90369,5.44666,0,0,0,0,0,0,0,-1,1574,1765,4.90368,-5.44664
357,-741,4.02063,5.16626,0,0,0,0,0,0,0,-1,1581,1765,4.02058,-5.1662
364,-741,0,0,0,0,0,0,0,0,0,-1,1588,1765,0,0
371,-741,0,0,0,0,0,0,0,0,0,-1,1595,1765,0,0
378,-741,0,0,0,0,0,0,0,0,0,-1,1602,1765,0,0
385,-741,0,0,0,0,0,0,0,0,0,-1,1609,1765,0,0
392,-741,0,0,0,0,0,0,0,0,0,-1,1616,1765,0,0
399,-741,0,0,0,0,0,0,0,0,0,-1,1623,1765,0,0
406,-741,0,0,0,0,0,0,0,0,0,-1,1630,1765,0,0
413,-741,0,0,0,0,0,0,0,0,0,-1,1637,1765,0,0
420,-741,0,0,0,0,0,0,0,0,0,-1,1644,1765,0,0
427,-741,0,0,0,0,0,0,0,0,0,-1,1651,1765,0,0
434,-741,0,0,0,0,0,0,0,0,0,-1,1658,1765,0,0
441,-741,0,0,0,0,0,0,0,0,0,-1,1665,1765,0,0
448,-741,0,0,0,0,0,0,0,0,0,-1,1672,1765,0,0
455,-741,0,0,0,0,0,0,0,0,0,-1,1679,1765,0,0
462,-741,0,0,0,0,0,0,0,0,0,-1,1686,1765,0,0
469,-741,0,0,0,0,0,0,0,0,0,-1,1693,1765,0,0
476,-741,0,0,0,0,0,0,0,0,0,-1,1700,1765,0,0
483,-741,0,0,0,0,0,0,0,0,0,-1,1707,1765,0,0
490,-741,0,0,0,0,0,0,0,0,0,-1,1714,1765,0,0
497,-741,0,0,0,0,0,0,0,0,0,-1,1721,1765,0,0
504,-741,0,0,0,0,0,0,0,0,0,-1,1728,1765,0,0
511,-741,0,0,0,0,0,0,0,0,0,-1,1735,1765,0,0
518,-741,0,0,0,0,0,0,0,0,0,-1,1742,1765,0,0
525,-741,0,0,0,0,0,0,0,0,0,-1,1749,1765,0,0
532,-741,0,0,0,0,0,0,0,0,0,-1,1756,1765,0,0
539,-741,0,0,0,0,0,0,0,0,0,-1,1763,1765,0,0
546,-741,0,0,0,0,0,0,0,0,0,-1,1770,1765,0,0
553,-741,0,0,0,0,0,0,0,0,0,-1,1777,1765,0,0
560,-741,0,0,0,0,0,0,0,0,0,-1,1784,1765,0,0
567,-741,0,0,0,0,0,0,0,0,0,-1,1791,1765,0,0
574,-741,0,0,0,0,0,0,0,0,0,-1,1798,1765,0,0
581,-741,0,0,0,0,0,0,0,0,0,-1,1805,1765,0,0
588,-741,0,0,0,0,0,0,0,0,0,-1,1812,1765,0,0
595,-741,0,0,0,0,0,0,0,0,0,-1,1819,1765,0,0
602,-741,0,0,0,0,0,0,0,0,0,-1,1826,1765,0,0
609,-741,0,0,0,0,0,0,0,0,0,-1,1833,1765,0,0
616,-741,0,0,0,0,0,0,0,0,0,-1,1840,1765,0,0
623,-741,0,0,0,0,0,0,0,0,0,-1,1847,1765,0,0
630,-741,0,0,0,0,0,0,0,0,0,-1,1854,1765,0,0
637,-741,0,0,0,0,0,0,0,0,0,-1,1861,1765,0,0
644,-741,0,0,0,0,0,0,0,0,0,-1,1868,1765,0,0
651,-741,0,0,0,0,0,0,0,0,0,-1,1875,1765,0,0
658,-741,0,0,0,0,0,0,0,0,0,-1,1882,1765,0,0
665,-741,0,0,0,0,0,0,0,0,0,-1,1889,1765,0,0
672,-741,0,0,0,0,0,0,0,0,0,-1,1896,1765,0,0
679,-741,0,0,0,0,0,0,0,0,0,-1,1903,1765,0,0
686,-741,0,0,0,0,0,0,0,0,0,-1,1910,1765,0,0
693,-741,0,0,0,0,0,0,0,0,0,-1,1917,1765,0,0
700,-741,0,0,0,0,0,0,0,0,0,-1,1924,1765,0,0
707,-741,0,0,0,0,0,0,0,0,0,-1,1931,1765,0,0
714,-741,0,0,0,0,0,0,0,0,0,-1,1938,1765,0,0
721,-741,0,0,0,0,0,0,0,0,0,-1,1945,1765,0,0
728,-741,0,0,0,0,0,0,0,0,0,-1,1952,1765,0,0
735,-741,0,0,0,0,0,0,0,0,0,-1,1959,1765,0,0
742,-741,0,0,0,0,0,0,0,0,0,-1,1966,1765,0,0
749,-741,0,0,0,0,0,0,0,0,0,-1,1973,1765,0,0
756,-741,0,0,0,0,0,0,0,0,0,-1,1980,1765,0,0
763,-741,0,0,0,0,0,0,0,0,0,-1,1987,1765,0,0
770,-741,0,0,0,0,0,0,0,0,0,-1,1994,1765,0,0
777,-741,0,0,0,0,0,0,0,0,0,-1,2001,1765,0,0
784,-741,0,0,0,0,0,0,0,0,0,-1,2008,1765,0,0
791,-741,0,0,0,0,0,0,0,0,0,-1,2015,1765,0,0
798,-741,0,0,0,0,0,0,0,0,0,-1,2022,1765,0,0
805,-741,0,0,0,0,0,0,0,0,0,-1,2029,1765,0,0
812,-741,0,0,0,0,0,0,0,0,0,-1,2036,1765,0,0
-700,-748,0,0,0,0,0,0,0,0,0,-1,524,1772,0,0
-693,-748,0,0,0,0,0,0,0,0,0,-1,531,1772,0,0
-686,-748,0,0,0,0,0,0,0,0,0,-1,538,1772,0,0
-679,-748,0,0,0,0,0,0,0,0,0,-1,545,1772,0,0
-672,-748,0,0,0,0,0,0,0,0,0,-1,552,1772,0,0
-665,-748,0,0,0,0,0,0,0,0,0,-1,559,1772,0,0
-658,-748,0,0,0,0,0,0,0,0,0,-1,566,1772,0,0
-651,-748,0,0,0,0,0,0,0,0,0,-1,573,1772,0,0
-644,-748,0,0,0,0,0,0,0,0,0,-1,580,1772,0,0
-637,-748,0,0,0,0,0,0,0,0,0,-1,587,1772,0,0
-630,-748,0,0,0,0,0,0,0,0,0,-1,594,1772,0,0
-623,-748,0,0,0,0,0,0,0,0,0,-1,601,1772,0,0
-616,-748,0,0,0,0,0,0,0,0,0,-1,608,1772,0,0
-609,-748,0,0,0,0,0,0,0,0,0,-1,615,1772,0,0
-602,-748,0,0,0,0,0,0,0,0,0,-1,622,1772,0,0
-595,-748,0,0,0,0,0,0,0,0,0,-1,629,1772,0,0
-588,-748,0,0,0,0,0,0,0,0,0,-1,636,1772,0,0
-581,-748,0,0,0,0,0,0,0,0,0,-1,643,1772,0,0
-574,-748,0,0,0,0,0,0,0,0,0,-1,650,1772,0,0
-567,-748,0,0,0,0,0,0,0,0,0,-1,657,1772,0,0
-560,-748,0,0,0,0,0,0,0,0,0,-1,664,1772,0,0
-553,-748,0,0,0,0,0,0,0,0,0,-1,671,1772,0,0
-546,-748,0,0,0,0,0,0,0,0,0,-1,678,1772,0,0
-539,-748,0,0,0,0,0,0,0,0,0,-1,685,1772,0,0
-532,-748,0,0,0,0,0,0,0,0,0,-1,692,1772,0,0
-525,-748,0,0,0,0,0,0,0,0,0,-1,699,1772,0,0
-518,-748,0,0,0,0,0,0,0,0,0,-1,706,1772,0,0
-511,-748,0,0,0,0,0,0,0,0,0,-1,713,1772,0,0
-504,-748,0,0,0,0,0,0,0,0,0,-1,720,1772,0,0
-497,-748,0,0,0,0,0,0,0,0,0,-1,727,1772,0,0
-490,-748,0,0,0,0,0,0,0,0,0,-1,734,1772,0,0
-483,-748,0,0,0,0,0,0,0,0,0,-1,741,1772,0,0
-476,-748,0,0,0,0,0,0,0,0,0,-1,748,1772,0,0
-469,-748,0,0,0,0,0,0,0,0,0,-1,755,1772,0,0
-462,-748,0,0,0,0,0,0,0,0,0,-1,762,1772,0,0
-455,-748,0,0,0,0,0,0,0,0,0,-1,769,1772,0,0
-448,-748,0,0,0,0,0,0,0,0,0,-1,776,1772,0,0
-441,-748,0,0,0,0,0,0,0,0,0,-1,783,1772,0,0
-434,-748,0,0,0,0,0,0,0,0,0,-1,790,1772,0,0
-427,-748,0,0,0,0,0,0,0,0,0,-1,797,1772,0,0
-420,-748,0,0,0,0,0,0,0,0,0,-1,804,1772,0,0
-413,-748,0,0,0,0,0,0,0,0,0,-1,811,1772,0,0
-406,-748,0,0,0,0,0,0,0,0,0,-1,818,1772,0,0
-399,-748,0,0,0,0,0,0,0,0,0,-1,825,1772,0,0
-392,-748,0,0,0,0,0,0,0,0,0,-1,832,1772,0,0
-385,-748,0,0,0,0,0,0,0,0,0,-1,839,1772,0,0
-378,-748,0,0,0,0,0,0,0,0,0,-1,846,1772,0,0
-371,-748,0,0,0,0,0,0,0,0,0,-1,853,1772,0,0
-364,-748,0,0,0,0,0,0,0,0,0,-1,860,1772,0,0
-357,-748,0,0,0,0,0,0,0,0,0,-1,867,1772,0,0
-350,-748,0,0,0,0,0,0,0,0,0,-1,874,1772,0,0
-343,-748,0,0,0,0,0,0,0,0,0,-1,881,1772,0,0
-336,-748,0,0,0,0,0,0,0,0,0,-1,888,1772,0,0
-329,-748,0,0,0,0,0,0,0,0,0,-1,895,1772,0,0
-322,-748,0,0,0,0,0,0,0,0,0,-1,902,1772,0,0
-315,-748,0,0,0,0,0,0,0,0,0,-1,909,1772,0,0
-308,-748,0,0,0,0,0,0,0,0,0,-1,916,1772,0,0
-301,-748,0,0,0,0,0,0,0,0,0,-1,923,1772,0,0
-294,-748,0,0,0,0,0,0,0,0,0,-1,930,1772,0,0
-287,-748,0,0,0,0,0,0,0,0,0,-1,937,1772,0,0
-280,-748,0,0,0,0,0,0,0,0,0,-1,944,1772,0,0
-273,-748,0,0,0,0,0,0,0,0,0,-1,951,1772,0,0
-266,-748,0,0,0,0,0,0,0,0,0,-1,958,1772,0,0
-259,-748,0,0,0,0,0,0,0,0,0,-1,965,1772,0,0
-252,-748,0,0,0,0,0,0,0,0,0,-1,972,1772,0,0
-245,-748,0,0,0,0,0,0,0,0,0,-1,979,1772,0,0
-238,-748,0,0,0,0,0,0,0,0,0,-1,986,1772,0,0
-231,-748,0,0,0,0,0,0,0,0,0,-1,993,1772,0,0
-224,-748,0,0,0,0,0,0,0,0,0,-1,1000,1772,0,0
-217,-748,8.97742,29.9884,0,0,0,0,0,0,0,-1,1007,1772,8.97744,-29.9884
-210,-748,8.8941,30.14,0,0,0,0,0,0,0,-1,1014,1772,8.8941,-30.14
-203,-748,8.57703,30.2961,0,0,0,0,0,0,0,-1,1021,1772,8.57706,-30.2962
-196,-748,8.01953,29.9611,0,0,0,0,0,0,0,-1,1028,1772,8.01957,-29.9611
-189,-748,9.63245,31.4406,0,0,0,0,0,0,0,-1,1035,1772,9.6325,-31.4406
-182,-748,3.94958,20.8662,0,0,0,0,0,0,0,-1,1042,1772,3.94959,-20.8662
-175,-748,3.56726,19.4518,0,0,0,0,0,0,0,-1,1049,1772,3.5673,-19.4518
-168,-748,3.04858,18.0109,0,0,0,0,0,0,0,-1,1056,1772,3.04853,-18.0108
-161,-748,3.50562,13.2729,0,0,0,0,0,0,0,-1,1063,1772,3.5056,-13.2729
-154,-748,-3.38562,10.6989,0,0,0,0,0,0,0,-1,1070,1772,-3.38564,-10.6989
-147,-748,10.4922,38.6849,0,0,0,0,0,0,0,-1,1077,1772,10.4922,-38.685
-140,-748,7.42126,23.8113,0,0,0,0,0,0,0,-1,1084,1772,7.42133,-23.8113
-133,-748,7.44727,22.0308,0,0,0,0,0,0,0,-1,1091,1772,7.44728,-22.0308
-126,-748,5.98035,22.6067,0,0,0,0,0,0,0,-1,1098,1772,5.9803,-22.6067
-119,-748,6.63342,26.309,0,0,0,0,0,0,0,-1,1105,1772,6.6334,-26.3089
-112,-748,6.91333,24.923,0,0,0,0,0,0,0,-1,1112,1772,6.91339,-24.923
-105,-748,6.83313,25.0537,0,0,0,0,0,0,0,-1,1119,1772,6.83311,-25.0537
-98,-748,8.13623,30.8743,0,0,0,0,0,0,0,-1,1126,1772,8.13628,-30.8742
-91,-748,4.85352,15.3033,0,0,0,0,0,0,0,-1,1133,1772,4.85351,-15.3033
-84,-748,-0.192017,7.26196,0,0,0,0,0,0,0,-1,1140,1772,-0.192047,-7.26201
-77,-748,4.42615,13.5537,0,0,0,0,0,0,0,-1,1147,1772,4.4261,-13.5538
-70,-748,4.46191,13.7446,0,0,0,0,0,0,0,-1,1154,1772,4.4619,-13.7446
-63,-748,4.49768,13.9355,0,0,0,0,0,0,0,-1,1161,1772,4.49769,-13.9355
-56,-748,3.05762,7.87817,0,0,0,0,0,0,0,-1,1168,1772,3.05768,-7.87822
-49,-748,3.04102,7.82471,0,0,0,0,0,0,0,-1,1175,1772,3.04096,-7.82468
-42,-748,0.793457,14.9474,0,0,0,0,0,0,0,-1,1182,1772,0.793413,-14.9474
-35,-748,8.75354,41.5953,0,0,0,0,0,0,0,-1,1189,1772,8.7536,-41.5954
-28,-748,8.79382,41.7214,-0.00570067,-0.00513677,0.00189265,-0.00350518,-0.00733226,0.859339,0.00423464,0.049297,1196,1772,8.79379,-41.7214
-21,-748,8.73535,41.8719,-0.00566191,-0.00755819,0.00093639,-0.00527746,-0.00794264,0.389582,0.00466763,0.023364,1203,1772,8.73541,-41.8719
-14,-748,8.64868,41.9344,-0.00542785,-0.00956143,-0.000162623,-0.00542146,-0.00956782,-0.0392611,0.00554031,0.0166088,1210,1772,8.64871,-41.9345
-7,-748,8.61816,42.0313,-0.00457228,-0.0117734,-0.0010432,-0.0044242,-0.0119215,-0.141006,0.00695867,0.0149874,1217,1772,8.61816,-42.0313
0,-748,8.6062,42.136,-0.00321636,-0.0138627,-0.00134541,-0.00304897,-0.0140301,-0.123781,0.00852086,0.014654,1224,1772,8.60616,-42.1359
7,-748,8.56934,42.2325,-0.00247362,-0.0164181,-0.00180899,-0.00224276,-0.016649,-0.126929,0.0104324,0.0139223,1231,1772,8.56929,-42.2325
14,-748,8.52356,42.3428,-0.00206499,-0.0186025,-0.0026077,-0.00166355,-0.019004,-0.152748,0.0121528,0.0160514,1238,1772,8.52356,-42.3428
21,-748,8.5072,42.425,-0.00181557,-0.0211497,-0.00326133,-0.00128026,-0.021685,-0.162687,0.0140494,0.0121659,1245,1772,8.50724,-42.425
28,-748,8.47046,42.5143,-0.00170368,-0.0217783,-0.00448501,-0.000747222,-0.0227347,-0.210109,0.0149137,0.0122315,1252,1772,8.47043,-42.5143
35,-748,8.43616,42.5457,-0.00163913,-0.0221722,-0.00548688,-0.000264888,-0.0235464,-0.245411,0.0156101,0.0127887,1259,1772,8.43617,-42.5456
42,-748,8.42456,42.5656,-0.00154583,-0.0221498,-0.00619267,0.000172169,-0.0238678,-0.270619,0.0159696,0.0137451,1266,1772,8.42458,-42.5656
49,-748,8.39417,42.5925,-0.00157738,-0.0215029,-0.00706432,0.000673016,-0.0237533,-0.308394,0.0160646,0.0108908,1273,1772,8.39414,-42.5926
56,-748,8.35315,42.6267,-0.00174667,-0.0196076,-0.00802449,0.00132893,-0.0226832,-0.366007,0.015584,0.0105633,1280,1772,8.35313,-42.6267
63,-748,8.32874,42.627,-0.00202002,-0.0173614,-0.00875848,0.00195191,-0.0213333,-0.425757,0.0149155,0.0121395,1287,1772,8.32875,-42.627
70,-748,8.31982,42.636,-0.00212872,-0.0139699,-0.0088888,0.00263077,-0.0187294,-0.491602,0.0134492,0.0134967,1294,1772,8.31987,-42.636
77,-748,8.29395,42.6337,-0.00205851,-0.0106288,-0.00902219,0.00364447,-0.0163317,-0.563693,0.0122842,0.0127728,1301,1772,8.29395,-42.6337
84,-748,8.23865,42.6293,-0.00180037,-0.00703587,-0.00877061,0.00473482,-0.0135711,-0.640373,0.0109717,0.0150263,1308,1772,8.23869,-42.6293
91,-748,8.20935,42.599,-0.00136117,-0.00389803,-0.00809844,0.00556757,-0.0108268,-0.707716,0.00962626,0.0116853,1315,1772,8.2093,-42.5991
98,-748,8.18274,42.5459,-0.00109856,-0.00125088,-0.00734639,0.00617206,-0.0085215,-0.780215,0.00851941,0.0101534,1322,1772,8.18276,-42.5459
105,-748,8.17065,42.4567,-0.00107024,0.000937038,-0.00676576,0.0067732,-0.00690639,-0.859031,0.00789804,0.0110966,1329,1772,8.1707,-42.4567
112,-748,8.17053,42.3823,-0.000412144,0.00275727,-0.00575005,0.00713698,-0.00479186,-0.91986,0.00693134,0.0139667,1336,1772,8.17057,-42.3824
119,-748,8.15332,42.3073,0.000351886,0.00333708,-0.00432706,0.00642173,-0.00273277,-0.95148,0.00542651,0.0124644,1343,1772,8.1533,-42.3072
126,-748,8.10779,42.2355,0.000919496,0.00380371,-0.00307305,0.0057562,-0.001033,-1.00478,0.00422412,0.0147109,1350,1772,8.10777,-42.2355
133,-748,8.04626,42.141,0.0012279,0.00169266,-0.00114898,0.00263252,0.000288032,-0.885178,0.00166732,0.00954036,1357,1772,8.04627,-42.141
140,-748,8.02612,42.049,0.00112989,0.000743455,2.38051e-05,0.00113135,0.000741994,0.061293,0.000663678,0.0127323,1364,1772,8.02607,-42.0489
147,-748,8.02808,41.9429,0.000870903,2.13182e-05,0.000382692,0.00101786,-0.000125642,0.366654,0.000724099,0.0137747,1371,1772,8.02806,-41.9428
154,-748,7.97449,41.8362,0.000212302,-0.000605955,0.00075236,0.00065958,-0.00105323,0.536366,0.000997561,0.0114934,1378,1772,7.97443,-41.8362
161,-748,7.91699,41.7047,-0.000240255,-0.00197101,0.00144348,0.00057737,-0.00278863,0.515369,0.00207845,0.017639,1385,1772,7.91697,-41.7047
168,-748,7.93079,41.5725,0,0,0,0,0,0,0,-1,1392,1772,7.93084,-41.5725
175,-748,11.6235,16.8242,0,0,0,0,0,0,0,-1,1399,1772,11.6236,-16.8242
182,-748,7.62476,10.3058,0,0,0,0,0,0,0,-1,1406,1772,7.62476,-10.3058
189,-748,6.15857,6.95898,0,0,0,0,0,0,0,-1,1413,1772,6.15862,-6.95896
196,-748,3.9425,8.46021,0,0,0,0,0,0,0,-1,1420,1772,3.9425,-8.46026
203,-748,3.9668,12.9835,0,0,0,0,0,0,0,-1,1427,1772,3.96678,-12.9836
210,-748,4.71472,16.8318,0,0,0,0,0,0,0,-1,1434,1772,4.71471,-16.8317
217,-748,5.38452,21.5551,0,0,0,0,0,0,0,-1,1441,1772,5.38455,-21.555
224,-748,6.14258,25.2345,0,0,0,0,0,0,0,-1,1448,1772,6.14263,-25.2345
231,-748,6.46045,29.7867,0,0,0,0,0,0,0,-1,1455,1772,6.46049,-29.7867
238,-748,7.41565,32.8574,0,0,0,0,0,0,0,-1,1462,1772,7.41562,-32.8574
245,-748,7.84912,32.0914,0,0,0,0,0,0,0,-1,1469,1772,7.84914,-32.0914
252,-748,7.77661,38.5964,0,0,0,0,0,0,0,-1,1476,1772,7.77663,-38.5965
259,-748,7.17969,37.5713,0,0,0,0,0,0,0,-1,1483,1772,7.17966,-37.5713
266,-748,6.42114,38.1689,0,0,0,0,0,0,0,-1,1490,1772,6.42113,-38.169
273,-748,16.4131,7.57129,0,0,0,0,0,0,0,-1,1497,1772,16.413,-7.57125
280,-748,15.2177,7.24829,0,0,0,0,0,0,0,-1,1504,1772,15.2176,-7.24833
287,-748,14.161,8.32813,0,0,0,0,0,0,0,-1,1511,1772,14.161,-8.32808
294,-748,6.38525,32.4724,0,0,0,0,0,0,0,-1,1518,1772,6.38521,-32.4725
301,-748,5.40393,38.9807,0,0,0,0,0,0,0,-1,1525,1772,5.40397,-38.9807
308,-748,5.95227,37.1827,0,0,0,0,0,0,0,-1,1532,1772,5.95229,-37.1827
315,-748,6.50061,35.3848,0,0,0,0,0,0,0,-1,1539,1772,6.50062,-35.3847
322,-748,3.94556,28.3459,0,0,0,0,0,0,0,-1,1546,1772,3.94558,-28.3459
329,-748,3.87256,16.1473,0,0,0,0,0,0,0,-1,1553,1772,3.87259,-16.1474
336,-748,4.81006,19.6141,0,0,0,0,0,0,0,-1,1560,1772,4.81011,-19.6141
343,-748,0,0,0,0,0,0,0,0,0,-1,1567,1772,0,0
350,-748,0,0,0,0,0,0,0,0,0,-1,1574,1772,0,0
357,-748,0,0,0,0,0,0,0,0,0,-1,1581,1772,0,0
364,-748,0,0,0,0,0,0,0,0,0,-1,1588,1772,0,0
371,-748,0,0,0,0,0,0,0,0,0,-1,1595,1772,0,0
378,-748,0,0,0,0,0,0,0,0,0,-1,1602,1772,0,0
385,-748,0,0,0,0,0,0,0,0,0,-1,1609,1772,0,0
392,-748,0,0,0,0,0,0,0,0,0,-1,1616,1772,0,0
399,-748,0,0,0,0,0,0,0,0,0,-1,1623,1772,0,0
406,-748,0,0,0,0,0,0,0,0,0,-1,1630,1772,0,0
413,-748,0,0,0,0,0,0,0,0,0,-1,1637,1772,0,0
420,-748,0,0,0,0,0,0,0,0,0,-1,1644,1772,0,0
427,-748,0,0,0,0,0,0,0,0,0,-1,1651,1772,0,0
434,-748,0,0,0,0,0,0,0,0,0,-1,1658,1772,0,0
441,-748,0,0,0,0,0,0,0,0,0,-1,1665,1772,0,0
448,-748,0,0,0,0,0,0,0,0,0,-1,1672,1772,0,0
455,-748,0,0,0,0,0,0,0,0,0,-1,1679,1772,0,0
462,-748,0,0,0,0,0,0,0,0,0,-1,1686,1772,0,0
469,-748,0,0,0,0,0,0,0,0,0,-1,1693,1772,0,0
476,-748,0,0,0,0,0,0,0,0,0,-1,1700,1772,0,0
483,-748,0,0,0,0,0,0,0,0,0,-1,1707,1772,0,0
490,-748,0,0,0,0,0,0,0,0,0,-1,1714,1772,0,0
497,-748,0,0,0,0,0,0,0,0,0,-1,1721,1772,0,0
504,-748,0,0,0,0,0,0,0,0,0,-1,1728,1772,0,0
511,-748,0,0,0,0,0,0,0,0,0,-1,1735,1772,0,0
518,-748,0,0,0,0,0,0,0,0,0,-1,1742,1772,0,0
525,-748,0,0,0,0,0,0,0,0,0,-1,1749,1772,0,0
532,-748,0,0,0,0,0,0,0,0,0,-1,1756,1772,0,0
539,-748,0,0,0,0,0,0,0,0,0,-1,1763,1772,0,0
546,-748,0,0,0,0,0,0,0,0,0,-1,1770,1772,0,0
553,-748,0,0,0,0,0,0,0,0,0,-1,1777,1772,0,0
560,-748,0,0,0,0,0,0,0,0,0,-1,1784,1772,0,0
567,-748,0,0,0,0,0,0,0,0,0,-1,1791,1772,0,0
574,-748,0,0,0,0,0,0,0,0,0,-1,1798,1772,0,0
581,-748,0,0,0,0,0,0,0,0,0,-1,1805,1772,0,0
588,-748,0,0,0,0,0,0,0,0,0,-1,1812,1772,0,0
595,-748,0,0,0,0,0,0,0,0,0,-1,1819,1772,0,0
602,-748,0,0,0,0,0,0,0,0,0,-1,1826,1772,0,0
609,-748,0,0,0,0,0,0,0,0,0,-1,1833,1772,0,0
616,-748,0,0,0,0,0,0,0,0,0,-1,1840,1772,0,0
623,-748,0,0,0,0,0,0,0,0,0,-1,1847,1772,0,0
630,-748,0,0,0,0,0,0,0,0,0,-1,1854,1772,0,0
637,-748,0,0,0,0,0,0,0,0,0,-1,1861,1772,0,0
644,-748,0,0,0,0,0,0,0,0,0,-1,1868,1772,0,0
651,-748,0,0,0,0,0,0,0,0,0,-1,1875,1772,0,0
658,-748,0,0,0,0,0,0,0,0,0,-1,1882,1772,0,0
665,-748,0,0,0,0,0,0,0,0,0,-1,1889,1772,0,0
672,-748,0,0,0,0,0,0,0,0,0,-1,1896,1772,0,0
679,-748,0,0,0,0,0,0,0,0,0,-1,1903,1772,0,0
686,-748,0,0,0,0,0,0,0,0,0,-1,1910,1772,0,0
693,-748,0,0,0,0,0,0,0,0,0,-1,1917,1772,0,0
700,-748,0,0,0,0,0,0,0,0,0,-1,1924,1772,0,0
707,-748,0,0,0,0,0,0,0,0,0,-1,1931,1772,0,0
714,-748,0,0,0,0,0,0,0,0,0,-1,1938,1772,0,0
721,-748,0,0,0,0,0,0,0,0,0,-1,1945,1772,0,0
728,-748,0,0,0,0,0,0,0,0,0,-1,1952,1772,0,0
735,-748,0,0,0,0,0,0,0,0,0,-1,1959,1772,0,0
742,-748,0,0,0,0,0,0,0,0,0,-1,1966,1772,0,0
749,-748,0,0,0,0,0,0,0,0,0,-1,1973,1772,0,0
756,-748,0,0,0,0,0,0,0,0,0,-1,1980,1772,0,0
763,-748,0,0,0,0,0,0,0,0,0,-1,1987,1772,0,0
770,-748,0,0,0,0,0,0,0,0,0,-1,1994,1772,0,0
777,-748,0,0,0,0,0,0,0,0,0,-1,2001,1772,0,0
784,-748,0,0,0,0,0,0,0,0,0,-1,2008,1772,0,0
791,-748,0,0,0,0,0,0,0,0,0,-1,2015,1772,0,0
798,-748,0,0,0,0,0,0,0,0,0,-1,2022,1772,0,0
805,-748,0,0,0,0,0,0,0,0,0,-1,2029,1772,0,0
812,-748,0,0,0,0,0,0,0,0,0,-1,2036,1772,0,0
-700,-755,0,0,0,0,0,0,0,0,0,-1,524,1779,0,0
-693,-755,0,0,0,0,0,0,0,0,0,-1,531,1779,0,0
-686,-755,0,0,0,0,0,0,0,0,0,-1,538,1779,0,0
-679,-755,0,0,0,0,0,0,0,0,0,-1,545,1779,0,0
-672,-755,0,0,0,0,0,0,0,0,0,-1,552,1779,0,0
-665,-755,0,0,0,0,0,0,0,0,0,-1,559,1779,0,0
-658,-755,0,0,0,0,0,0,0,0,0,-1,566,1779,0,0
-651,-755,0,0,0,0,0,0,0,0,0,-1,573,1779,0,0
-644,-755,0,0,0,0,0,0,0,0,0,-1,580,1779,0,0
-637,-755,0,0,0,0,0,0,0,0,0,-1,587,1779,0,0
-630,-755,0,0,0,0,0,0,0,0,0,-1,594,1779,0,0
-623,-755,0,0,0,0,0,0,0,0,0,-1,601,1779,0,0
-616,-755,0,0,0,0,0,0,0,0,0,-1,608,1779,0,0
-609,-755,0,0,0,0,0,0,0,0,0,-1,615,1779,0,0
-602,-755,0,0,0,0,0,0,0,0,0,-1,622,1779,0,0
-595,-755,0,0,0,0,0,0,0,0,0,-1,629,1779,0,0
-588,-755,0,0,0,0,0,0,0,0,0,-1,636,1779,0,0
-581,-755,0,0,0,0,0,0,0,0,0,-1,643,1779,0,0
-574,-755,0,0,0,0,0,0,0,0,0,-1,650,1779,0,0
-567,-755,0,0,0,0,0,0,0,0,0,-1,657,1779,0,0
-560,-755,0,0,0,0,0,0,0,0,0,-1,664,1779,0,0
-553,-755,0,0,0,0,0,0,0,0,0,-1,671,1779,0,0
-546,-755,0,0,0,0,0,0,0,0,0,-1,678,1779,0,0
-539,-755,0,0,0,0,0,0,0,0,0,-1,685,1779,0,0
-532,-755,0,0,0,0,0,0,0,0,0,-1,692,1779,0,0
-525,-755,0,0,0,0,0,0,0,0,0,-1,699,1779,0,0
-518,-755,0,0,0,0,0,0,0,0,0,-1,706,1779,0,0
-511,-755,0,0,0,0,0,0,0,0,0,-1,713,1779,0,0
-504,-755,0,0,0,0,0,0,0,0,0,-1,720,1779,0,0
-497,-755,0,0,0,0,0,0,0,0,0,-1,727,1779,0,0
-490,-755,0,0,0,0,0,0,0,0,0,-1,734,1779,0,0
-483,-755,0,0,0,0,0,0,0,0,0,-1,741,1779,0,0
-476,-755,0,0,0,0,0,0,0,0,0,-1,748,1779,0,0
-469,-755,0,0,0,0,0,0,0,0,0,-1,755,1779,0,0
-462,-755,0,0,0,0,0,0,0,0,0,-1,762,1779,0,0
-455,-755,0,0,0,0,0,0,0,0,0,-1,769,1779,0,0
-448,-755,0,0,0,0,0,0,0,0,0,-1,776,1779,0,0
-441,-755,0,0,0,0,0,0,0,0,0,-1,783,1779,0,0
-434,-755,0,0,0,0,0,0,0,0,0,-1,790,1779,0,0
-427,-755,0,0,0,0,0,0,0,0,0,-1,797,1779,0,0
-420,-755,0,0,0,0,0,0,0,0,0,-1,804,1779,0,0
-413,-755,0,0,0,0,0,0,0,0,0,-1,811,1779,0,0
-406,-755,0,0,0,0,0,0,0,0,0,-1,818,1779,0,0
-399,-755,0,0,0,0,0,0,0,0,0,-1,825,1779,0,0
-392,-755,0,0,0,0,0,0,0,0,0,-1,832,1779,0,0
-385,-755,0,0,0,0,0,0,0,0,0,-1,839,1779,0,0
-378,-755,0,0,0,0,0,0,0,0,0,-1,846,1779,0,0
-371,-755,0,0,0,0,0,0,0,0,0,-1,853,1779,0,0
-364,-755,0,0,0,0,0,0,0,0,0,-1,860,1779,0,0
-357,-755,0,0,0,0,0,0,0,0,0,-1,867,1779,0,0
-350,-755,0,0,0,0,0,0,0,0,0,-1,874,1779,0,0
-343,-755,0,0,0,0,0,0,0,0,0,-1,881,1779,0,0
-336,-755,0,0,0,0,0,0,0,0,0,-1,888,1779,0,0
-329,-755,0,0,0,0,0,0,0,0,0,-1,895,1779,0,0
-322,-755,0,0,0,0,0,0,0,0,0,-1,902,1779,0,0
-315,-755,0,0,0,0,0,0,0,0,0,-1,909,1779,0,0
-308,-755,0,0,0,0,0,0,0,0,0,-1,916,1779,0,0
-301,-755,0,0,0,0,0,0,0,0,0,-1,923,1779,0,0
-294,-755,0,0,0,0,0,0,0,0,0,-1,930,1779,0,0
-287,-755,0,0,0,0,0,0,0,0,0,-1,937,1779,0,0
-280,-755,0,0,0,0,0,0,0,0,0,-1,944,1779,0,0
-273,-755,0,0,0,0,0,0,0,0,0,-1,951,1779,0,0
-266,-755,0,0,0,0,0,0,0,0,0,-1,958,1779,0,0
-259,-755,0,0,0,0,0,0,0,0,0,-1,965,1779,0,0
-252,-755,0,0,0,0,0,0,0,0,0,-1,972,1779,0,0
-245,-755,0,0,0,0,0,0,0,0,0,-1,979,1779,0,0
-238,-755,0,0,0,0,0,0,0,0,0,-1,986,1779,0,0
-231,-755,0,0,0,0,0,0,0,0,0,-1,993,1779,0,0
-224,-755,0,0,0,0,0,0,0,0,0,-1,1000,1779,0,0
-217,-755,0,0,0,0,0,0,0,0,0,-1,1007,1779,0,0
-210,-755,0,0,0,0,0,0,0,0,0,-1,1014,1779,0,0
-203,-755,8.97363,30.5414,0,0,0,0,0,0,0,-1,1021,1779,8.97362,-30.5414
-196,-755,8.34436,29.0909,0,0,0,0,0,0,0,-1,1028,1779,8.3443,-29.091
-189,-755,4.8175,22.4788,0,0,0,0,0,0,0,-1,1035,1779,4.81745,-22.4788
-182,-755,4.021,20.8032,0,0,0,0,0,0,0,-1,1042,1779,4.02094,-20.8032
-175,-755,3.79993,18.8242,0,0,0,0,0,0,0,-1,1049,1779,3.79995,-18.8242
-168,-755,3.14294,16.9865,0,0,0,0,0,0,0,-1,1056,1779,3.14291,-16.9864
-161,-755,-2.85889,11.5868,0,0,0,0,0,0,0,-1,1063,1779,-2.85887,-11.5868
-154,-755,-5.39026,8.51416,0,0,0,0,0,0,0,-1,1070,1779,-5.3903,-8.51417
-147,-755,-6.45593,10.2422,0,0,0,0,0,0,0,-1,1077,1779,-6.45594,-10.2422
-140,-755,1.33521,21.3856,0,0,0,0,0,0,0,-1,1084,1779,1.33522,-21.3857
-133,-755,2.89417,21.0964,0,0,0,0,0,0,0,-1,1091,1779,2.89422,-21.0964
-126,-755,3.26404,20.9304,0,0,0,0,0,0,0,-1,1098,1779,3.26399,-20.9305
-119,-755,5.17761,21.9325,0,0,0,0,0,0,0,-1,1105,1779,5.17761,-21.9325
-112,-755,5.40247,24.5646,0,0,0,0,0,0,0,-1,1112,1779,5.40244,-24.5646
-105,-755,7.01294,20.1539,0,0,0,0,0,0,0,-1,1119,1779,7.01295,-20.154
-98,-755,5.50708,16.9628,0,0,0,0,0,0,0,-1,1126,1779,5.5071,-16.9628
-91,-755,5.51025,12.0438,0,0,0,0,0,0,0,-1,1133,1779,5.51022,-12.0439
-84,-755,0.169312,8.66443,0,0,0,0,0,0,0,-1,1140,1779,0.16932,-8.66446
-77,-755,-0.0491943,6.87439,0,0,0,0,0,0,0,-1,1147,1779,-0.0491385,-6.87443
-70,-755,4.5686,13.2169,0,0,0,0,0,0,0,-1,1154,1779,4.56865,-13.2169
-63,-755,-1.36316,7.3147,0,0,0,0,0,0,0,-1,1161,1779,-1.36312,-7.31473
-56,-755,0.0483398,5.06079,0,0,0,0,0,0,0,-1,1168,1779,0.0483138,-5.06084
-49,-755,-1.32263,5.33716,0,0,0,0,0,0,0,-1,1175,1779,-1.32264,-5.33718
-42,-755,-2.03613,4.01672,0,0,0,0,0,0,0,-1,1182,1779,-2.0361,-4.01671
-35,-755,-2.72498,2.37476,0,0,0,0,0,0,0,-1,1189,1779,-2.72502,-2.37473
-28,-755,8.82825,41.7971,0,0,0,0,0,0,0,-1,1196,1779,8.82827,-41.7971
-21,-755,8.77075,41.9838,0,0,0,0,0,0,0,-1,1203,1779,8.77076,-41.9838
-14,-755,8.75854,41.9219,-0.00689713,-0.0133869,0.000119166,-0.00689495,-0.0133891,0.0183538,0.00773137,0.0342854,1210,1779,8.75855,-41.9219
-7,-755,8.63403,41.999,-0.00562414,-0.0165721,-0.00113659,-0.00550739,-0.0166889,-0.102363,0.00981922,0.0219034,1217,1779,8.63409,-41.999
0,-755,8.67053,42.1072,-0.00374529,-0.019619,-0.00177165,-0.00354996,-0.0198143,-0.109809,0.0121996,0.0133011,1224,1779,8.6705,-42.1071
7,-755,8.66394,42.2239,-0.00272909,-0.0231381,-0.00264109,-0.00239285,-0.0234743,-0.12663,0.0149161,0.0123266,1231,1779,8.66392,-42.2239
14,-755,8.62512,42.3268,-0.00220249,-0.0262339,-0.00388765,-0.00158922,-0.0268472,-0.156459,0.0173926,0.011738,1238,1779,8.62512,-42.3268
21,-755,8.55688,42.4078,-0.00193826,-0.0296464,-0.00498598,-0.00106836,-0.0305163,-0.17273,0.0199976,0.0163978,1245,1779,8.55694,-42.4079
28,-755,8.50305,42.4659,-0.00183412,-0.0305239,-0.00706708,-0.000187784,-0.0321703,-0.228877,0.0213845,0.0195079,1252,1779,8.503,-42.4659
35,-755,8.50549,42.5605,-0.00175217,-0.0310734,-0.00912751,0.000856986,-0.0336826,-0.278431,0.0227461,0.0200019,1259,1779,8.50548,-42.5605
42,-755,8.45825,42.552,-0.00171223,-0.0310366,-0.0105478,0.00168759,-0.0344365,-0.31181,0.0235403,0.0147752,1266,1779,8.45823,-42.552
49,-755,8.42053,42.562,-0.00181042,-0.0301103,-0.0122349,0.00274564,-0.0346664,-0.356473,0.0240784,0.0102738,1273,1779,8.42056,-42.5621
56,-755,8.37622,42.6014,-0.00202161,-0.0275476,-0.0140597,0.00420403,-0.0337733,-0.416851,0.0240397,0.0100109,1280,1779,8.37626,-42.6014
63,-755,8.35669,42.6221,-0.00226223,-0.0245051,-0.0155325,0.00571987,-0.0324872,-0.474703,0.023795,0.010044,1287,1779,8.35672,-42.6221
70,-755,8.3385,42.6035,-0.0022255,-0.0199887,-0.0161401,0.00731529,-0.0295295,-0.533868,0.0225243,0.0129119,1294,1779,8.33854,-42.6035
77,-755,8.27014,42.564,-0.00194095,-0.015433,-0.0167647,0.00938409,-0.026758,-0.594114,0.0216554,0.0122332,1301,1779,8.27011,-42.5639
84,-755,8.25537,42.5811,-0.00131836,-0.0105901,-0.0168184,0.0114914,-0.0233999,-0.650916,0.0205318,0.0131472,1308,1779,8.25543,-42.5811
91,-755,8.2207,42.5419,-0.000550112,-0.00630404,-0.016223,0.0130491,-0.0199032,-0.697641,0.0191617,0.0134785,1315,1779,8.22074,-42.5419
98,-755,8.1582,42.4987,0.000178968,-0.00256218,-0.0151579,0.0140281,-0.0164113,-0.740311,0.0175922,0.0135519,1322,1779,8.15817,-42.4986
105,-755,8.12158,42.4432,0.000673616,0.000592859,-0.0141638,0.0147971,-0.0135307,-0.783973,0.0163605,0.0162998,1329,1779,8.12152,-42.4432
112,-755,8.08057,42.3799,0.0019973,0.00315539,-0.0124332,0.015023,-0.00987032,-0.808668,0.0144744,0.0220998,1336,1779,8.08057,-42.3798
119,-755,8.04468,42.2999,0.00347258,0.00415383,-0.0101062,0.0139252,-0.00629876,-0.802244,0.0119498,0.023148,1343,1779,8.04469,-42.2999
126,-755,7.99426,42.2745,0.00464988,0.00482154,-0.00784088,0.0125771,-0.00310564,-0.790871,0.00958905,0.0271685,1350,1779,7.99427,-42.2745
133,-755,7.86572,42.1852,0.00533997,0.00186589,-0.00416253,0.00811336,-0.000907499,-0.587731,0.00573539,0.027152,1357,1779,7.86573,-42.1852
140,-755,7.7771,42.0879,0.0052517,0.000678757,-0.00110173,0.00550329,0.000427166,-0.22451,0.00353509,0.0321933,1364,1779,7.77715,-42.0879
147,-755,7.93311,42.0486,0.00503881,-0.00034109,-0.000550244,0.00509451,-0.00039679,-0.100886,0.00353603,0.0355701,1371,1779,7.93308,-42.0486
154,-755,7.87085,41.9746,0.0041663,-0.0012277,0.000138004,0.00416982,-0.00123123,0.0255624,0.00326853,0.0350624,1378,1779,7.87084,-41.9747
161,-755,7.77917,41.7556,0,0,0,0,0,0,0,-1,1385,1779,7.77913,-41.7556
168,-755,3.98181,7.35901,0,0,0,0,0,0,0,-1,1392,1779,3.98184,-7.35904
175,-755,8.17065,1.34363,0,0,0,0,0,0,0,-1,1399,1779,8.1706,-1.34368
182,-755,8.09216,2.96924,0,0,0,0,0,0,0,-1,1406,1779,8.09213,-2.9693
189,-755,8.04419,4.68042,0,0,0,0,0,0,0,-1,1413,1779,8.04419,-4.68046
196,-755,7.74841,7.4541,0,0,0,0,0,0,0,-1,1420,1779,7.74842,-7.45405
203,-755,4.80554,6.88696,0,0,0,0,0,0,0,-1,1427,1779,4.80554,-6.88697
210,-755,25.1694,7.35693,0,0,0,0,0,0,0,-1,1434,1779,25.1694,-7.35688
217,-755,5.01648,16.411,0,0,0,0,0,0,0,-1,1441,1779,5.01646,-16.411
224,-755,5.18103,22.6283,0,0,0,0,0,0,0,-1,1448,1779,5.18101,-22.6283
231,-755,5.7489,30.15,0,0,0,0,0,0,0,-1,1455,1779,5.74885,-30.15
238,-755,6.56323,29.2726,0,0,0,0,0,0,0,-1,1462,1779,6.56327,-29.2726
245,-755,5.76453,29.2085,0,0,0,0,0,0,0,-1,1469,1779,5.76455,-29.2085
252,-755,5.57678,29.0841,0,0,0,0,0,0,0,-1,1476,1779,5.57682,-29.0841
259,-755,5.37292,29.1577,0,0,0,0,0,0,0,-1,1483,1779,5.37293,-29.1577
266,-755,17.255,7.86096,0,0,0,0,0,0,0,-1,1490,1779,17.255,-7.86092
273,-755,15.7932,7.59778,0,0,0,0,0,0,0,-1,1497,1779,15.7932,-7.59777
280,-755,14.6255,7.34802,0,0,0,0,0,0,0,-1,1504,1779,14.6254,-7.34806
287,-755,13.8279,7.83105,0,0,0,0,0,0,0,-1,1511,1779,13.8279,-7.83104
294,-755,12.5695,7.96814,0,0,0,0,0,0,0,-1,1518,1779,12.5694,-7.9682
301,-755,11.2659,8.27087,0,0,0,0,0,0,0,-1,1525,1779,11.2658,-8.27087
308,-755,5.17737,37.2896,0,0,0,0,0,0,0,-1,1532,1779,5.17742,-37.2896
315,-755,0.828613,31.032,0,0,0,0,0,0,0,-1,1539,1779,0.828668,-31.032
322,-755,0,0,0,0,0,0,0,0,0,-1,1546,1779,0,0
329,-755,0,0,0,0,0,0,0,0,0,-1,1553,1779,0,0
336,-755,0,0,0,0,0,0,0,0,0,-1,1560,1779,0,0
343,-755,0,0,0,0,0,0,0,0,0,-1,1567,1779,0,0
350,-755,0,0,0,0,0,0,0,0,0,-1,1574,1779,0,0
357,-755,0,0,0,0,0,0,0,0,0,-1,1581,1779,0,0
364,-755,0,0,0,0,0,0,0,0,0,-1,1588,1779,0,0
371,-755,0,0,0,0,0,0,0,0,0,-1,1595,1779,0,0
378,-755,0,0,0,0,0,0,0,0,0,-1,1602,1779,0,0
385,-755,0,0,0,0,0,0,0,0,0,-1,1609,1779,0,0
392,-755,0,0,0,0,0,0,0,0,0,-1,1616,1779,0,0
399,-755,0,0,0,0,0,0,0,0,0,-1,1623,1779,0,0
406,-755,0,0,0,0,0,0,0,0,0,-1,1630,1779,0,0
413,-755,0,0,0,0,0,0,0,0,0,-1,1637,1779,0,0
420,-755,0,0,0,0,0,0,0,0,0,-1,1644,1779,0,0
427,-755,0,0,0,0,0,0,0,0,0,-1,1651,1779,0,0
434,-755,0,0,0,0,0,0,0,0,0,-1,1658,1779,0,0
441,-755,0,0,0,0,0,0,0,0,0,-1,1665,1779,0,0
448,-755,0,0,0,0,0,0,0,0,0,-1,1672,1779,0,0
455,-755,0,0,0,0,0,0,0,0,0,-1,1679,1779,0,0
462,-755,0,0,0,0,0,0,0,0,0,-1,1686,1779,0,0
469,-755,0,0,0,0,0,0,0,0,0,-1,1693,1779,0,0
476,-755,0,0,0,0,0,0,0,0,0,-1,1700,1779,0,0
483,-755,0,0,0,0,0,0,0,0,0,-1,1707,1779,0,0
490,-755,0,0,0,0,0,0,0,0,0,-1,1714,1779,0,0
497,-755,0,0,0,0,0,0,0,0,0,-1,1721,1779,0,0
504,-755,0,0,0,0,0,0,0,0,0,-1,1728,1779,0,0
511,-755,0,0,0,0,0,0,0,0,0,-1,1735,1779,0,0
518,-755,0,0,0,0,0,0,0,0,0,-1,1742,1779,0,0
525,-755,0,0,0,0,0,0,0,0,0,-1,1749,1779,0,0
532,-755,0,0,0,0,0,0,0,0,0,-1,1756,1779,0,0
539,-755,0,0,0,0,0,0,0,0,0,-1,1763,1779,0,0
546,-755,0,0,0,0,0,0,0,0,0,-1,1770,1779,0,0
553,-755,0,0,0,0,0,0,0,0,0,-1,1777,1779,0,0
560,-755,0,0,0,0,0,0,0,0,0,-1,1784,1779,0,0
567,-755,0,0,0,0,0,0,0,0,0,-1,1791,1779,0,0
574,-755,0,0,0,0,0,0,0,0,0,-1,1798,1779,0,0
581,-755,0,0,0,0,0,0,0,0,0,-1,1805,1779,0,0
588,-755,0,0,0,0,0,0,0,0,0,-1,1812,1779,0,0
595,-755,0,0,0,0,0,0,0,0,0,-1,1819,1779,0,0
602,-755,0,0,0,0,0,0,0,0,0,-1,1826,1779,0,0
609,-755,0,0,0,0,0,0,0,0,0,-1,1833,1779,0,0
616,-755,0,0,0,0,0,0,0,0,0,-1,1840,1779,0,0
623,-755,0,0,0,0,0,0,0,0,0,-1,1847,1779,0,0
630,-755,0,0,0,0,0,0,0,0,0,-1,1854,1779,0,0
637,-755,0,0,0,0,0,0,0,0,0,-1,1861,1779,0,0
644,-755,0,0,0,0,0,0,0,0,0,-1,1868,1779,0,0
651,-755,0,0,0,0,0,0,0,0,0,-1,1875,1779,0,0
658,-755,0,0,0,0,0,0,0,0,0,-1,1882,1779,0,0
665,-755,0,0,0,0,0,0,0,0,0,-1,1889,1779,0,0
672,-755,0,0,0,0,0,0,0,0,0,-1,1896,1779,0,0
679,-755,0,0,0,0,0,0,0,0,0,-1,1903,1779,0,0
686,-755,0,0,0,0,0,0,0,0,0,-1,1910,1779,0,0
693,-755,0,0,0,0,0,0,0,0,0,-1,1917,1779,0,0
700,-755,0,0,0,0,0,0,0,0,0,-1,1924,1779,0,0
707,-755,0,0,0,0,0,0,0,0,0,-1,1931,1779,0,0
714,-755,0,0,0,0,0,0,0,0,0,-1,1938,1779,0,0
721,-755,0,0,0,0,0,0,0,0,0,-1,1945,1779,0,0
728,-755,0,0,0,0,0,0,0,0,0,-1,1952,1779,0,0
735,-755,0,0,0,0,0,0,0,0,0,-1,1959,1779,0,0
742,-755,0,0,0,0,0,0,0,0,0,-1,1966,1779,0,0
749,-755,0,0,0,0,0,0,0,0,0,-1,1973,1779,0,0
756,-755,0,0,0,0,0,0,0,0,0,-1,1980,1779,0,0
763,-755,0,0,0,0,0,0,0,0,0,-1,1987,1779,0,0
770,-755,0,0,0,0,0,0,0,0,0,-1,1994,1779,0,0
777,-755,0,0,0,0,0,0,0,0,0,-1,2001,1779,0,0
784,-755,0,0,0,0,0,0,0,0,0,-1,2008,1779,0,0
791,-755,0,0,0,0,0,0,0,0,0,-1,2015,1779,0,0
798,-755,0,0,0,0,0,0,0,0,0,-1,2022,1779,0,0
805,-755,0,0,0,0,0,0,0,0,0,-1,2029,1779,0,0
812,-755,0,0,0,0,0,0,0,0,0,-1,2036,1779,0,0
-700,-762,0,0,0,0,0,0,0,0,0,-1,524,1786,0,0
-693,-762,0,0,0,0,0,0,0,0,0,-1,531,1786,0,0
-686,-762,0,0,0,0,0,0,0,0,0,-1,538,1786,0,0
-679,-762,0,0,0,0,0,0,0,0,0,-1,545,1786,0,0
-672,-762,0,0,0,0,0,0,0,0,0,-1,552,1786,0,0
-665,-762,0,0,0,0,0,0,0,0,0,-1,559,1786,0,0
-658,-762,0,0,0,0,0,0,0,0,0,-1,566,1786,0,0
-651,-762,0,0,0,0,0,0,0,0,0,-1,573,1786,0,0
-644,-762,0,0,0,0,0,0,0,0,0,-1,580,1786,0,0
-637,-762,0,0,0,0,0,0,0,0,0,-1,587,1786,0,0
-630,-762,0,0,0,0,0,0,0,0,0,-1,594,1786,0,0
-623,-762,0,0,0,0,0,0,0,0,0,-1,601,1786,0,0
-616,-762,0,0,0,0,0,0,0,0,0,-1,608,1786,0,0
-609,-762,0,0,0,0,0,0,0,0,0,-1,615,1786,0,0
-602,-762,0,0,0,0,0,0,0,0,0,-1,622,1786,0,0
-595,-762,0,0,0,0,0,0,0,0,0,-1,629,1786,0,0
-588,-762,0,0,0,0,0,0,0,0,0,-1,636,1786,0,0
-581,-762,0,0,0,0,0,0,0,0,0,-1,643,1786,0,0
-574,-762,0,0,0,0,0,0,0,0,0,-1,650,1786,0,0
-567,-762,0,0,0,0,0,0,0,0,0,-1,657,1786,0,0
-560,-762,0,0,0,0,0,0,0,0,0,-1,664,1786,0,0
-553,-762,0,0,0,0,0,0,0,0,0,-1,671,1786,0,0
-546,-762,0,0,0,0,0,0,0,0,0,-1,678,1786,0,0
-539,-762,0,0,0,0,0,0,0,0,0,-1,685,1786,0,0
-532,-762,0,0,0,0,0,0,0,0,0,-1,692,1786,0,0
-525,-762,0,0,0,0,0,0,0,0,0,-1,699,1786,0,0
-518,-762,0,0,0,0,0,0,0,0,0,-1,706,1786,0,0
-511,-762,0,0,0,0,0,0,0,0,0,-1,713,1786,0,0
-504,-762,0,0,0,0,0,0,0,0,0,-1,720,1786,0,0
-497,-762,0,0,0,0,0,0,0,0,0,-1,727,1786,0,0
-490,-762,0,0,0,0,0,0,0,0,0,-1,734,1786,0,0
-483,-762,0,0,0,0,0,0,0,0,0,-1,741,1786,0,0
-476,-762,0,0,0,0,0,0,0,0,0,-1,748,1786,0,0
-469,-762,0,0,0,0,0,0,0,0,0,-1,755,1786,0,0
-462,-762,0,0,0,0,0,0,0,0,0,-1,762,1786,0,0
-455,-762,0,0,0,0,0,0,0,0,0,-1,769,1786,0,0
-448,-762,0,0,0,0,0,0,0,0,0,-1,776,1786,0,0
-441,-762,0,0,0,0,0,0,0,0,0,-1,783,1786,0,0
-434,-762,0,0,0,0,0,0,0,0,0,-1,790,1786,0,0
-427,-762,0,0,0,0,0,0,0,0,0,-1,797,1786,0,0
-420,-762,0,0,0,0,0,0,0,0,0,-1,804,1786,0,0
-413,-762,0,0,0,0,0,0,0,0,0,-1,811,1786,0,0
-406,-762,0,0,0,0,0,0,0,0,0,-1,818,1786,0,0
-399,-762,0,0,0,0,0,0,0,0,0,-1,825,1786,0,0
-392,-762,0,0,0,0,0,0,0,0,0,-1,832,1786,0,0
-385,-762,0,0,0,0,0,0,0,0,0,-1,839,1786,0,0
-378,-762,0,0,0,0,0,0,0,0,0,-1,846,1786,0,0
-371,-762,0,0,0,0,0,0,0,0,0,-1,853,1786,0,0
-364,-762,0,0,0,0,0,0,0,0,0,-1,860,1786,0,0
-357,-762,0,0,0,0,0,0,0,0,0,-1,867,1786,0,0
-350,-762,0,0,0,0,0,0,0,0,0,-1,874,1786,0,0
-343,-762,0,0,0,0,0,0,0,0,0,-1,881,1786,0,0
-336,-762,0,0,0,0,0,0,0,0,0,-1,888,1786,0,0
-329,-762,0,0,0,0,0,0,0,0,0,-1,895,1786,0,0
-322,-762,0,0,0,0,0,0,0,0,0,-1,902,1786,0,0
-315,-762,0,0,0,0,0,0,0,0,0,-1,909,1786,0,0
-308,-762,0,0,0,0,0,0,0,0,0,-1,916,1786,0,0
-301,-762,0,0,0,0,0,0,0,0,0,-1,923,1786,0,0
-294,-762,0,0,0,0,0,0,0,0,0,-1,930,1786,0,0
-287,-762,0,0,0,0,0,0,0,0,0,-1,937,1786,0,0
-280,-762,0,0,0,0,0,0,0,0,0,-1,944,1786,0,0
-273,-762,0,0,0,0,0,0,0,0,0,-1,951,1786,0,0
-266,-762,0,0,0,0,0,0,0,0,0,-1,958,1786,0,0
-259,-762,0,0,0,0,0,0,0,0,0,-1,965,1786,0,0
-252,-762,0,0,0,0,0,0,0,0,0,-1,972,1786,0,0
-245,-762,0,0,0,0,0,0,0,0,0,-1,979,1786,0,0
-238,-762,0,0,0,0,0,0,0,0,0,-1,986,1786,0,0
-231,-762,0,0,0,0,0,0,0,0,0,-1,993,1786,0,0
-224,-762,0,0,0,0,0,0,0,0,0,-1,1000,1786,0,0
-217,-762,0,0,0,0,0,0,0,0,0,-1,1007,1786,0,0
-210,-762,0,0,0,0,0,0,0,0,0,-1,1014,1786,0,0
-203,-762,0,0,0,0,0,0,0,0,0,-1,1021,1786,0,0
-196,-762,0,0,0,0,0,0,0,0,0,-1,1028,1786,0,0
-189,-762,0,0,0,0,0,0,0,0,0,-1,1035,1786,0,0
-182,-762,4.44226,13.2462,0,0,0,0,0,0,0,-1,1042,1786,4.44227,-13.2462
-175,-762,4.3219,18.3975,0,0,0,0,0,0,0,-1,1049,1786,4.32192,-18.3974
-168,-762,-2.08618,13.0768,0,0,0,0,0,0,0,-1,1056,1786,-2.08623,-13.0768
-161,-762,-3.29077,11.9508,0,0,0,0,0,0,0,-1,1063,1786,-3.29076,-11.9508
-154,-762,-4.55823,11.1176,0,0,0,0,0,0,0,-1,1070,1786,-4.55828,-11.1175
-147,-762,-6.52454,9.41418,0,0,0,0,0,0,0,-1,1077,1786,-6.52458,-9.41419
-140,-762,4.99792,5.28589,0,0,0,0,0,0,0,-1,1084,1786,4.99793,-5.28587
-133,-762,0.689819,19.2172,0,0,0,0,0,0,0,-1,1091,1786,0.689867,-19.2171
-126,-762,1.48743,19.9288,0,0,0,0,0,0,0,-1,1098,1786,1.48738,-19.9289
-119,-762,2.65637,20.208,0,0,0,0,0,0,0,-1,1105,1786,2.65632,-20.208
-112,-762,6.84705,25.5554,0,0,0,0,0,0,0,-1,1112,1786,6.84706,-25.5554
-105,-762,5.57947,21.618,0,0,0,0,0,0,0,-1,1119,1786,5.57948,-21.618
-98,-762,5.0636,17.9901,0,0,0,0,0,0,0,-1,1126,1786,5.06361,-17.9901
-91,-762,4.54773,14.3622,0,0,0,0,0,0,0,-1,1133,1786,4.54774,-14.3622
-84,-762,3.96375,10.4547,0,0,0,0,0,0,0,-1,1140,1786,3.96371,-10.4548
-77,-762,0.305054,8.49365,0,0,0,0,0,0,0,-1,1147,1786,0.305008,-8.49362
-70,-762,0.183716,6.74622,0,0,0,0,0,0,0,-1,1154,1786,0.183696,-6.74621
-63,-762,-0.883057,9.08813,0,0,0,0,0,0,0,-1,1161,1786,-0.88311,-9.08808
-56,-762,-0.578979,5.10254,0,0,0,0,0,0,0,-1,1168,1786,-0.578951,-5.10249
-49,-762,-2.04541,3.66321,0,0,0,0,0,0,0,-1,1175,1786,-2.0454,-3.66319
-42,-762,-2.23462,3.474,0,0,0,0,0,0,0,-1,1182,1786,-2.23459,-3.47399
-35,-762,-3.28992,1.68164,0,0,0,0,0,0,0,-1,1189,1786,-3.28998,-1.68164
-28,-762,-3.75378,1.37769,0,0,0,0,0,0,0,-1,1196,1786,-3.75373,-1.37767
-21,-762,9.37549,42.2937,0,0,0,0,0,0,0,-1,1203,1786,9.37548,-42.2937
-14,-762,9.08386,42.2646,-0.00911077,-0.0181149,0.000567186,-0.00907518,-0.0181504,0.062662,0.0104792,0.048649,1210,1786,9.0838,-42.2647
-7,-762,8.66943,41.9663,-0.00734794,-0.0225884,-0.00122501,-0.0072501,-0.0226863,-0.0796968,0.0133791,0.0475954,1217,1786,8.66942,-41.9663
0,-762,8.75806,42.1288,-0.00486952,-0.0267222,-0.00235242,-0.00461916,-0.0269725,-0.106031,0.0166568,0.0357749,1224,1786,8.75802,-42.1288
7,-762,8.77759,42.2433,-0.00347199,-0.0312705,-0.00376873,-0.00297011,-0.0317724,-0.13239,0.0202642,0.0211822,1231,1786,8.7776,-42.2433
14,-762,8.71521,42.5156,-0.00272136,-0.0354602,-0.00555255,-0.00180527,-0.0363763,-0.163512,0.0236721,0.0354027,1238,1786,8.71516,-42.5156
21,-762,8.69495,42.692,-0.00235819,-0.0398812,-0.00722618,-0.00101467,-0.0412247,-0.183824,0.0271513,0.0452772,1245,1786,8.69489,-42.6921
28,-762,8.43555,42.5574,-0.00220199,-0.0409587,-0.0102594,0.000346258,-0.0435069,-0.243455,0.0291207,0.0456511,1252,1786,8.43551,-42.5574
35,-762,8.38904,42.7039,-0.0020396,-0.0416532,-0.0133807,0.00205658,-0.0457493,-0.297068,0.0312077,0.0461306,1259,1786,8.38907,-42.7039
42,-762,8.57483,42.5728,-0.00200154,-0.0414811,-0.0155691,0.00339943,-0.046882,-0.333913,0.0324472,0.0484227,1266,1786,8.57489,-42.5727
49,-762,8.47351,42.5704,-0.00209952,-0.0400544,-0.018129,0.00516814,-0.047322,-0.381269,0.0334043,0.0394016,1273,1786,8.47346,-42.5704
56,-762,8.44861,42.5928,-0.00225544,-0.0365121,-0.0209083,0.00764466,-0.0464122,-0.442225,0.0337793,0.0298711,1280,1786,8.44855,-42.5928
63,-762,8.42175,42.6249,-0.0022971,-0.0323453,-0.0231669,0.0102909,-0.0449333,-0.497732,0.0339104,0.0265395,1287,1786,8.4217,-42.6249
70,-762,8.33411,42.6233,-0.00189151,-0.0263619,-0.024278,0.0130601,-0.0413135,-0.551992,0.0327748,0.0259922,1294,1786,8.33409,-42.6233
77,-762,8.25525,42.5249,-0.00116395,-0.0202374,-0.0254427,0.0164706,-0.037872,-0.606087,0.0321755,0.0333477,1301,1786,8.25529,-42.5249
84,-762,8.2793,42.5378,0.000122263,-0.013837,-0.0258432,0.0199118,-0.0336265,-0.653507,0.0312466,0.0413738,1308,1786,8.2793,-42.5379
91,-762,8.15881,42.389,0,0,0,0,0,0,0,-1,1315,1786,8.15882,-42.389
98,-762,8.14014,42.3925,0.00310446,-0.00315853,-0.0240098,0.0241861,-0.0242402,-0.720551,0.027959,0.0490143,1322,1786,8.14016,-42.3925
105,-762,8.05945,42.3853,0.00442839,0.000966882,-0.022672,0.0254356,-0.0200403,-0.747303,0.026317,0.0450634,1329,1786,8.05951,-42.3852
112,-762,7.85156,42.3265,0.00683785,0.00412751,-0.0202498,0.0257777,-0.0148124,-0.751987,0.023718,0.044752,1336,1786,7.8515,-42.3266
119,-762,7.68127,42.2295,0.00944868,0.00538976,-0.0170671,0.0246065,-0.00976809,-0.72622,0.0204533,0.0464358,1343,1786,7.68125,-42.2295
126,-762,7.85535,42.3307,0,0,0,0,0,0,0,-1,1350,1786,7.85535,-42.3307
133,-762,7.68823,42.2651,0,0,0,0,0,0,0,-1,1357,1786,7.68826,-42.2651
140,-762,7.54968,42.1915,0.0133549,0.000250923,-0.00335916,0.0141658,-0.000560002,-0.236875,0.00963597,0.0459144,1364,1786,7.54971,-42.1915
147,-762,7.68457,42.0613,0.013444,-0.00111121,-0.00265329,0.0139126,-0.0015798,-0.174804,0.00984399,0.0420098,1371,1786,7.68453,-42.0613
154,-762,7.68884,42.1854,0,0,0,0,0,0,0,-1,1378,1786,7.68881,-42.1855
161,-762,8.65051,34.8102,0,0,0,0,0,0,0,-1,1385,1786,8.65054,-34.8101
168,-762,8.19287,0.880615,0,0,0,0,0,0,0,-1,1392,1786,8.19291,-0.880603
175,-762,8.33997,1.95947,0,0,0,0,0,0,0,-1,1399,1786,8.33997,-1.95942
182,-762,8.28418,3.56482,0,0,0,0,0,0,0,-1,1406,1786,8.28415,-3.56485
189,-762,8.21179,5.23389,0,0,0,0,0,0,0,-1,1413,1786,8.21183,-5.23383
196,-762,8.05969,6.95483,0,0,0,0,0,0,0,-1,1420,1786,8.05972,-6.9548
203,-762,24.0077,7.10425,0,0,0,0,0,0,0,-1,1427,1786,24.0077,-7.10426
210,-762,23.8073,7.6499,0,0,0,0,0,0,0,-1,1434,1786,23.8073,-7.64987
217,-762,23.3193,8.24426,0,0,0,0,0,0,0,-1,1441,1786,23.3194,-8.2442
224,-762,2.65149,20.6106,0,0,0,0,0,0,0,-1,1448,1786,2.65153,-20.6106
231,-762,5.46655,23.521,0,0,0,0,0,0,0,-1,1455,1786,5.46653,-23.521
238,-762,5.35632,29.7203,0,0,0,0,0,0,0,-1,1462,1786,5.35629,-29.7203
245,-762,5.84509,28.6954,0,0,0,0,0,0,0,-1,1469,1786,5.84509,-28.6954
252,-762,5.82837,27.7246,0,0,0,0,0,0,0,-1,1476,1786,5.82839,-27.7247
259,-762,10.7311,18.3031,0,0,0,0,0,0,0,-1,1483,1786,10.7311,-18.3031
266,-762,16.451,7.67773,0,0,0,0,0,0,0,-1,1490,1786,16.4511,-7.67773
273,-762,15.287,7.5304,0,0,0,0,0,0,0,-1,1497,1786,15.2869,-7.53044
280,-762,14.1501,7.38379,0,0,0,0,0,0,0,-1,1504,1786,14.1502,-7.38376
287,-762,12.6891,7.99133,0,0,0,0,0,0,0,-1,1511,1786,12.6891,-7.99135
294,-762,12.6959,8.30371,0,0,0,0,0,0,0,-1,1518,1786,12.6959,-8.30368
301,-762,11.4222,8.84143,0,0,0,0,0,0,0,-1,1525,1786,11.4223,-8.84149
308,-762,0,0,0,0,0,0,0,0,0,-1,1532,1786,0,0
315,-762,0,0,0,0,0,0,0,0,0,-1,1539,1786,0,0
322,-762,0,0,0,0,0,0,0,0,0,-1,1546,1786,0,0
329,-762,0,0,0,0,0,0,0,0,0,-1,1553,1786,0,0
336,-762,0,0,0,0,0,0,0,0,0,-1,1560,1786,0,0
343,-762,0,0,0,0,0,0,0,0,0,-1,1567,1786,0,0
350,-762,0,0,0,0,0,0,0,0,0,-1,1574,1786,0,0
357,-762,0,0,0,0,0,0,0,0,0,-1,1581,1786,0,0
364,-762,0,0,0,0,0,0,0,0,0,-1,1588,1786,0,0
371,-762,0,0,0,0,0,0,0,0,0,-1,1595,1786,0,0
378,-762,0,0,0,0,0,0,0,0,0,-1,1602,1786,0,0
385,-762,0,0,0,0,0,0,0,0,0,-1,1609,1786,0,0
392,-762,0,0,0,0,0,0,0,0,0,-1,1616,1786,0,0
399,-762,0,0,0,0,0,0,0,0,0,-1,1623,1786,0,0
406,-762,0,0,0,0,0,0,0,0,0,-1,1630,1786,0,0
413,-762,0,0,0,0,0,0,0,0,0,-1,1637,1786,0,0
420,-762,0,0,0,0,0,0,0,0,0,-1,1644,1786,0,0
427,-762,0,0,0,0,0,0,0,0,0,-1,1651,1786,0,0
434,-762,0,0,0,0,0,0,0,0,0,-1,1658,1786,0,0
441,-762,0,0,0,0,0,0,0,0,0,-1,1665,1786,0,0
448,-762,0,0,0,0,0,0,0,0,0,-1,1672,1786,0,0
455,-762,0,0,0,0,0,0,0,0,0,-1,1679,1786,0,0
462,-762,0,0,0,0,0,0,0,0,0,-1,1686,1786,0,0
469,-762,0,0,0,0,0,0,0,0,0,-1,1693,1786,0,0
476,-762,0,0,0,0,0,0,0,0,0,-1,1700,1786,0,0
483,-762,0,0,0,0,0,0,0,0,0,-1,1707,1786,0,0
490,-762,0,0,0,0,0,0,0,0,0,-1,1714,1786,0,0
497,-762,0,0,0,0,0,0,0,0,0,-1,1721,1786,0,0
504,-762,0,0,0,0,0,0,0,0,0,-1,1728,1786,0,0
511,-762,0,0,0,0,0,0,0,0,0,-1,1735,1786,0,0
518,-762,0,0,0,0,0,0,0,0,0,-1,1742,1786,0,0
525,-762,0,0,0,0,0,0,0,0,0,-1,1749,1786,0,0
532,-762,0,0,0,0,0,0,0,0,0,-1,1756,1786,0,0
539,-762,0,0,0,0,0,0,0,0,0,-1,1763,1786,0,0
546,-762,0,0,0,0,0,0,0,0,0,-1,1770,1786,0,0
553,-762,0,0,0,0,0,0,0,0,0,-1,1777,1786,0,0
560,-762,0,0,0,0,0,0,0,0,0,-1,1784,1786,0,0
567,-762,0,0,0,0,0,0,0,0,0,-1,1791,1786,0,0
574,-762,0,0,0,0,0,0,0,0,0,-1,1798,1786,0,0
581,-762,0,0,0,0,0,0,0,0,0,-1,1805,1786,0,0
588,-762,0,0,0,0,0,0,0,0,0,-1,1812,1786,0,0
595,-762,0,0,0,0,0,0,0,0,0,-1,1819,1786,0,0
602,-762,0,0,0,0,0,0,0,0,0,-1,1826,1786,0,0
609,-762,0,0,0,0,0,0,0,0,0,-1,1833,1786,0,0
616,-762,0,0,0,0,0,0,0,0,0,-1,1840,1786,0,0
623,-762,0,0,0,0,0,0,0,0,0,-1,1847,1786,0,0
630,-762,0,0,0,0,0,0,0,0,0,-1,1854,1786,0,0
637,-762,0,0,0,0,0,0,0,0,0,-1,1861,1786,0,0
644,-762,0,0,0,0,0,0,0,0,0,-1,1868,1786,0,0
651,-762,0,0,0,0,0,0,0,0,0,-1,1875,1786,0,0
658,-762,0,0,0,0,0,0,0,0,0,-1,1882,1786,0,0
665,-762,0,0,0,0,0,0,0,0,0,-1,1889,1786,0,0
672,-762,0,0,0,0,0,0,0,0,0,-1,1896,1786,0,0
679,-762,0,0,0,0,0,0,0,0,0,-1,1903,1786,0,0
686,-762,0,0,0,0,0,0,0,0,0,-1,1910,1786,0,0
693,-762,0,0,0,0,0,0,0,0,0,-1,1917,1786,0,0
700,-762,0,0,0,0,0,0,0,0,0,-1,1924,1786,0,0
707,-762,0,0,0,0,0,0,0,0,0,-1,1931,1786,0,0
714,-762,0,0,0,0,0,0,0,0,0,-1,1938,1786,0,0
721,-762,0,0,0,0,0,0,0,0,0,-1,1945,1786,0,0
728,-762,0,0,0,0,0,0,0,0,0,-1,1952,1786,0,0
735,-762,0,0,0,0,0,0,0,0,0,-1,1959,1786,0,0
742,-762,0,0,0,0,0,0,0,0,0,-1,1966,1786,0,0
749,-762,0,0,0,0,0,0,0,0,0,-1,1973,1786,0,0
756,-762,0,0,0,0,0,0,0,0,0,-1,1980,1786,0,0
763,-762,0,0,0,0,0,0,0,0,0,-1,1987,1786,0,0
770,-762,0,0,0,0,0,0,0,0,0,-1,1994,1786,0,0
777,-762,0,0,0,0,0,0,0,0,0,-1,2001,1786,0,0
784,-762,0,0,0,0,0,0,0,0,0,-1,2008,1786,0,0
791,-762,0,0,0,0,0,0,0,0,0,-1,2015,1786,0,0
798,-762,0,0,0,0,0,0,0,0,0,-1,2022,1786,0,0
805,-762,0,0,0,0,0,0,0,0,0,-1,2029,1786,0,0
812,-762,0,0,0,0,0,0,0,0,0,-1,2036,1786,0,0
-700,-769,0,0,0,0,0,0,0,0,0,-1,524,1793,0,0
-693,-769,0,0,0,0,0,0,0,0,0,-1,531,1793,0,0
-686,-769,0,0,0,0,0,0,0,0,0,-1,538,1793,0,0
-679,-769,0,0,0,0,0,0,0,0,0,-1,545,1793,0,0
-672,-769,0,0,0,0,0,0,0,0,0,-1,552,1793,0,0
-665,-769,0,0,0,0,0,0,0,0,0,-1,559,1793,0,0
-658,-769,0,0,0,0,0,0,0,0,0,-1,566,1793,0,0
-651,-769,0,0,0,0,0,0,0,0,0,-1,573,1793,0,0
-644,-769,0,0,0,0,0,0,0,0,0,-1,580,1793,0,0
-637,-769,0,0,0,0,0,0,0,0,0,-1,587,1793,0,0
-630,-769,0,0,0,0,0,0,0,0,0,-1,594,1793,0,0
-623,-769,0,0,0,0,0,0,0,0,0,-1,601,1793,0,0
-616,-769,0,0,0,0,0,0,0,0,0,-1,608,1793,0,0
-609,-769,0,0,0,0,0,0,0,0,0,-1,615,1793,0,0
-602,-769,0,0,0,0,0,0,0,0,0,-1,622,1793,0,0
-595,-769,0,0,0,0,0,0,0,0,0,-1,629,1793,0,0
-588,-769,0,0,0,0,0,0,0,0,0,-1,636,1793,0,0
-581,-769,0,0,0,0,0,0,0,0,0,-1,643,1793,0,0
-574,-769,0,0,0,0,0,0,0,0,0,-1,650,1793,0,0
-567,-769,0,0,0,0,0,0,0,0,0,-1,657,1793,0,0
-560,-769,0,0,0,0,0,0,0,0,0,-1,664,1793,0,0
-553,-769,0,0,0,0,0,0,0,0,0,-1,671,1793,0,0
-546,-769,0,0,0,0,0,0,0,0,0,-1,678,1793,0,0
-539,-769,0,0,0,0,0,0,0,0,0,-1,685,1793,0,0
-532,-769,0,0,0,0,0,0,0,0,0,-1,692,1793,0,0
-525,-769,0,0,0,0,0,0,0,0,0,-1,699,1793,0,0
-518,-769,0,0,0,0,0,0,0,0,0,-1,706,1793,0,0
-511,-769,0,0,0,0,0,0,0,0,0,-1,713,1793,0,0
-504,-769,0,0,0,0,0,0,0,0,0,-1,720,1793,0,0
-497,-769,0,0,0,0,0,0,0,0,0,-1,727,1793,0,0
-490,-769,0,0,0,0,0,0,0,0,0,-1,734,1793,0,0
-483,-769,0,0,0,0,0,0,0,0,0,-1,741,1793,0,0
-476,-769,0,0,0,0,0,0,0,0,0,-1,748,1793,0,0
-469,-769,0,0,0,0,0,0,0,0,0,-1,755,1793,0,0
-462,-769,0,0,0,0,0,0,0,0,0,-1,762,1793,0,0
-455,-769,0,0,0,0,0,0,0,0,0,-1,769,1793,0,0
-448,-769,0,0,0,0,0,0,0,0,0,-1,776,1793,0,0
-441,-769,0,0,0,0,0,0,0,0,0,-1,783,1793,0,0
-434,-769,0,0,0,0,0,0,0,0,0,-1,790,1793,0,0
-427,-769,0,0,0,0,0,0,0,0,0,-1,797,1793,0,0
-420,-769,0,0,0,0,0,0,0,0,0,-1,804,1793,0,0
-413,-769,0,0,0,0,0,0,0,0,0,-1,811,1793,0,0
-406,-769,0,0,0,0,0,0,0,0,0,-1,818,1793,0,0
-399,-769,0,0,0,0,0,0,0,0,0,-1,825,1793,0,0
-392,-769,0,0,0,0,0,0,0,0,0,-1,832,1793,0,0
-385,-769,0,0,0,0,0,0,0,0,0,-1,839,1793,0,0
-378,-769,0,0,0,0,0,0,0,0,0,-1,846,1793,0,0
-371,-769,0,0,0,0,0,0,0,0,0,-1,853,1793,0,0
-364,-769,0,0,0,0,0,0,0,0,0,-1,860,1793,0,0
-357,-769,0,0,0,0,0,0,0,0,0,-1,867,1793,0,0
-350,-769,0,0,0,0,0,0,0,0,0,-1,874,1793,0,0
-343,-769,0,0,0,0,0,0,0,0,0,-1,881,1793,0,0
-336,-769,0,0,0,0,0,0,0,0,0,-1,888,1793,0,0
-329,-769,0,0,0,0,0,0,0,0,0,-1,895,1793,0,0
-322,-769,0,0,0,0,0,0,0,0,0,-1,902,1793,0,0
-315,-769,0,0,0,0,0,0,0,0,0,-1,909,1793,0,0
-308,-769,0,0,0,0,0,0,0,0,0,-1,916,1793,0,0
-301,-769,0,0,0,0,0,0,0,0,0,-1,923,1793,0,0
-294,-769,0,0,0,0,0,0,0,0,0,-1,930,1793,0,0
-287,-769,0,0,0,0,0,0,0,0,0,-1,937,1793,0,0
-280,-769,0,0,0,0,0,0,0,0,0,-1,944,1793,0,0
-273,-769,0,0,0,0,0,0,0,0,0,-1,951,1793,0,0
-266,-769,0,0,0,0,0,0,0,0,0,-1,958,1793,0,0
-259,-769,0,0,0,0,0,0,0,0,0,-1,965,1793,0,0
-252,-769,0,0,0,0,0,0,0,0,0,-1,972,1793,0,0
-245,-769,0,0,0,0,0,0,0,0,0,-1,979,1793,0,0
-238,-769,0,0,0,0,0,0,0,0,0,-1,986,1793,0,0
-231,-769,0,0,0,0,0,0,0,0,0,-1,993,1793,0,0
-224,-769,0,0,0,0,0,0,0,0,0,-1,1000,1793,0,0
-217,-769,0,0,0,0,0,0,0,0,0,-1,1007,1793,0,0
-210,-769,0,0,0,0,0,0,0,0,0,-1,1014,1793,0,0
-203,-769,0,0,0,0,0,0,0,0,0,-1,1021,1793,0,0
-196,-769,0,0,0,0,0,0,0,0,0,-1,1028,1793,0,0
-189,-769,0,0,0,0,0,0,0,0,0,-1,1035,1793,0,0
-182,-769,0,0,0,0,0,0,0,0,0,-1,1042,1793,0,0
-175,-769,0,0,0,0,0,0,0,0,0,-1,1049,1793,0,0
-168,-769,0,0,0,0,0,0,0,0,0,-1,1056,1793,0,0
-161,-769,-3.61145,12.4761,0,0,0,0,0,0,0,-1,1063,1793,-3.6114,-12.476
-154,-769,-0.813232,5.32874,0,0,0,0,0,0,0,-1,1070,1793,-0.813269,-5.32872
-147,-769,4.26587,4.7002,0,0,0,0,0,0,0,-1,1077,1793,4.26593,-4.70022
-140,-769,4.10376,5.28589,0,0,0,0,0,0,0,-1,1084,1793,4.10371,-5.28584
-133,-769,6.422,8.21777,0,0,0,0,0,0,0,-1,1091,1793,6.42198,-8.21773
-126,-769,-0.352295,19.326,0,0,0,0,0,0,0,-1,1098,1793,-0.352235,-19.326
-119,-769,6.01685,16.2577,0,0,0,0,0,0,0,-1,1105,1793,6.01689,-16.2576
-112,-769,5.76416,27.2615,0,0,0,0,0,0,0,-1,1112,1793,5.7642,-27.2615
-105,-769,4.97009,22.8479,0,0,0,0,0,0,0,-1,1119,1793,4.97006,-22.8479
-98,-769,4.69373,18.9142,0,0,0,0,0,0,0,-1,1126,1793,4.69376,-18.9142
-91,-769,4.41748,14.9805,0,0,0,0,0,0,0,-1,1133,1793,4.41746,-14.9805
-84,-769,3.2207,12.4565,0,0,0,0,0,0,0,-1,1140,1793,3.22066,-12.4565
-77,-769,2.48816,8.98486,0,0,0,0,0,0,0,-1,1147,1793,2.48815,-8.98489
-70,-769,1.04944,11.9852,0,0,0,0,0,0,0,-1,1154,1793,1.04947,-11.9852
-63,-769,-2.39709,9.60339,0,0,0,0,0,0,0,-1,1161,1793,-2.39706,-9.6034
-56,-769,-5.84363,7.22156,0,0,0,0,0,0,0,-1,1168,1793,-5.84359,-7.22157
-49,-769,-2.41443,3.95471,0,0,0,0,0,0,0,-1,1175,1793,-2.41446,-3.95471
-42,-769,-3.1991,2.64941,0,0,0,0,0,0,0,-1,1182,1793,-3.19914,-2.64944
-35,-769,-3.50183,1.73389,0,0,0,0,0,0,0,-1,1189,1793,-3.50189,-1.7339
-28,-769,-3.96985,1.14075,0,0,0,0,0,0,0,-1,1196,1793,-3.96985,-1.14078
-21,-769,8.47876,36.2402,0,0,0,0,0,0,0,-1,1203,1793,8.47874,-36.2402
-14,-769,9.25537,42.5205,0,0,0,0,0,0,0,-1,1210,1793,9.25541,-42.5205
-7,-769,8.69006,41.9036,0,0,0,0,0,0,0,-1,1217,1793,8.69009,-41.9035
0,-769,9.1283,42.1505,0,0,0,0,0,0,0,-1,1224,1793,9.12829,-42.1505
7,-769,8.92786,42.351,-0.00450918,-0.0405035,-0.00510785,-0.00379837,-0.0412143,-0.138271,0.0263017,0.0465224,1231,1793,8.92789,-42.3509
14,-769,9.10278,43.1737,-0.00337168,-0.046035,-0.00757485,-0.00206669,-0.04734,-0.170605,0.0308941,0.0424037,1238,1793,9.10273,-43.1737
21,-769,8.86707,42.925,0,0,0,0,0,0,0,-1,1245,1793,8.86708,-42.925
28,-769,8.34473,42.5271,-0.00254454,-0.0529811,-0.0142692,0.00121255,-0.0567382,-0.257457,0.0382361,0.0426597,1252,1793,8.34473,-42.5271
35,-769,8.46692,42.5225,-0.00223292,-0.0538563,-0.0188129,0.00389547,-0.0599847,-0.314914,0.0413495,0.0433825,1259,1793,8.46687,-42.5224
42,-769,8.48096,42.5548,-0.0021847,-0.0534763,-0.0220801,0.00601086,-0.0616719,-0.355412,0.0432576,0.0460605,1266,1793,8.48101,-42.5548
49,-769,8.38232,42.5632,-0.00226768,-0.0513716,-0.0258559,0.00883602,-0.0624753,-0.40563,0.0448864,0.0432435,1273,1793,8.38238,-42.5632
56,-769,8.32532,42.3884,-0.00230711,-0.0466234,-0.029967,0.0128041,-0.0617346,-0.467051,0.046022,0.0442187,1280,1793,8.32531,-42.3884
63,-769,6.427,44.851,0,0,0,0,0,0,0,-1,1287,1793,6.42695,-44.851
70,-769,8.47412,42.515,-0.000947803,-0.033362,-0.0352141,0.0216098,-0.0559196,-0.569728,0.0461995,0.04412,1294,1793,8.47413,-42.515
77,-769,8.22742,42.447,0.000488985,-0.0253782,-0.0372014,0.0269409,-0.0518302,-0.618102,0.0462291,0.0463696,1301,1793,8.2274,-42.447
84,-769,7.74963,42.2482,0.00279852,-0.0171937,-0.0381806,0.0322699,-0.046665,-0.657367,0.045825,0.0449632,1308,1793,7.74967,-42.2482
91,-769,7.52844,41.957,0.0053772,-0.0099666,-0.0379906,0.0364628,-0.0410522,-0.685767,0.0447794,0.0444055,1315,1793,7.52842,-41.957
98,-769,8.06555,42.1943,0,0,0,0,0,0,0,-1,1322,1793,8.06555,-42.1943
105,-769,8.02954,42.2539,0.0109472,0.00162133,-0.0345511,0.0411486,-0.0285801,-0.718324,0.0404753,0.0458673,1329,1793,8.0296,-42.2539
112,-769,7.61584,42.1484,0.015067,0.00523491,-0.0312462,0.0417815,-0.0214796,-0.707372,0.0371454,0.0472916,1336,1793,7.61585,-42.1485
119,-769,7.41296,42.078,0.0194322,0.00665916,-0.0270523,0.0408416,-0.0147503,-0.669481,0.0332535,0.0464333,1343,1793,7.41295,-42.078
126,-769,7.49097,42.0552,0,0,0,0,0,0,0,-1,1350,1793,7.49096,-42.0551
133,-769,7.51721,42.3783,0,0,0,0,0,0,0,-1,1357,1793,7.51726,-42.3783
140,-769,7.3916,42.2555,0,0,0,0,0,0,0,-1,1364,1793,7.39164,-42.2555
147,-769,7.45215,41.9996,0,0,0,0,0,0,0,-1,1371,1793,7.4521,-41.9996
154,-769,7.76904,34.4832,0,0,0,0,0,0,0,-1,1378,1793,7.7691,-34.4832
161,-769,6.57019,1.53223,0,0,0,0,0,0,0,-1,1385,1793,6.57019,-1.53226
168,-769,8.27637,0.756958,0,0,0,0,0,0,0,-1,1392,1793,8.27639,-0.756944
175,-769,8.47144,2.41174,0,0,0,0,0,0,0,-1,1399,1793,8.47147,-2.4118
182,-769,8.41479,4.05994,0,0,0,0,0,0,0,-1,1406,1793,8.41479,-4.05997
189,-769,8.25049,5.68433,0,0,0,0,0,0,0,-1,1413,1793,8.25054,-5.68428
196,-769,7.97729,7.42847,0,0,0,0,0,0,0,-1,1420,1793,7.9773,-7.42848
203,-769,22.0977,6.73889,0,0,0,0,0,0,0,-1,1427,1793,22.0977,-6.7389
210,-769,22.1115,7.77246,0,0,0,0,0,0,0,-1,1434,1793,22.1115,-7.77248
217,-769,22.4723,8.79102,0,0,0,0,0,0,0,-1,1441,1793,22.4723,-8.79099
224,-769,22.1348,9.35278,0,0,0,0,0,0,0,-1,1448,1793,22.1348,-9.35283
231,-769,3.13318,19.7184,0,0,0,0,0,0,0,-1,1455,1793,3.13323,-19.7184
238,-769,5.74512,18.6597,0,0,0,0,0,0,0,-1,1462,1793,5.74512,-18.6596
245,-769,5.80798,22.87,0,0,0,0,0,0,0,-1,1469,1793,5.80796,-22.87
252,-769,8.39099,20.3199,0,0,0,0,0,0,0,-1,1476,1793,8.39098,-20.3199
259,-769,10.974,17.7698,0,0,0,0,0,0,0,-1,1483,1793,10.974,-17.7698
266,-769,15.8488,7.3905,0,0,0,0,0,0,0,-1,1490,1793,15.8488,-7.39046
273,-769,14.8075,7.56152,0,0,0,0,0,0,0,-1,1497,1793,14.8075,-7.56152
280,-769,13.6519,7.43054,0,0,0,0,0,0,0,-1,1504,1793,13.6518,-7.43058
287,-769,0,0,0,0,0,0,0,0,0,-1,1511,1793,0,0
294,-769,0,0,0,0,0,0,0,0,0,-1,1518,1793,0,0
301,-769,0,0,0,0,0,0,0,0,0,-1,1525,1793,0,0
308,-769,0,0,0,0,0,0,0,0,0,-1,1532,1793,0,0
315,-769,0,0,0,0,0,0,0,0,0,-1,1539,1793,0,0
322,-769,0,0,0,0,0,0,0,0,0,-1,1546,1793,0,0
329,-769,0,0,0,0,0,0,0,0,0,-1,1553,1793,0,0
336,-769,0,0,0,0,0,0,0,0,0,-1,1560,1793,0,0
343,-769,0,0,0,0,0,0,0,0,0,-1,1567,1793,0,0
350,-769,0,0,0,0,0,0,0,0,0,-1,1574,1793,0,0
357,-769,0,0,0,0,0,0,0,0,0,-1,1581,1793,0,0
364,-769,0,0,0,0,0,0,0,0,0,-1,1588,1793,0,0
371,-769,0,0,0,0,0,0,0,0,0,-1,1595,1793,0,0
378,-769,0,0,0,0,0,0,0,0,0,-1,1602,1793,0,0
385,-769,0,0,0,0,0,0,0,0,0,-1,1609,1793,0,0
392,-769,0,0,0,0,0,0,0,0,0,-1,1616,1793,0,0
399,-769,0,0,0,0,0,0,0,0,0,-1,1623,1793,0,0
406,-769,0,0,0,0,0,0,0,0,0,-1,1630,1793,0,0
413,-769,0,0,0,0,0,0,0,0,0,-1,1637,1793,0,0
420,-769,0,0,0,0,0,0,0,0,0,-1,1644,1793,0,0
427,-769,0,0,0,0,0,0,0,0,0,-1,1651,1793,0,0
434,-769,0,0,0,0,0,0,0,0,0,-1,1658,1793,0,0
441,-769,0,0,0,0,0,0,0,0,0,-1,1665,1793,0,0
448,-769,0,0,0,0,0,0,0,0,0,-1,1672,1793,0,0
455,-769,0,0,0,0,0,0,0,0,0,-1,1679,1793,0,0
462,-769,0,0,0,0,0,0,0,0,0,-1,1686,1793,0,0
469,-769,0,0,0,0,0,0,0,0,0,-1,1693,1793,0,0
476,-769,0,0,0,0,0,0,0,0,0,-1,1700,1793,0,0
483,-769,0,0,0,0,0,0,0,0,0,-1,1707,1793,0,0
490,-769,0,0,0,0,0,0,0,0,0,-1,1714,1793,0,0
497,-769,0,0,0,0,0,0,0,0,0,-1,1721,1793,0,0
504,-769,0,0,0,0,0,0,0,0,0,-1,1728,1793,0,0
511,-769,0,0,0,0,0,0,0,0,0,-1,1735,1793,0,0
518,-769,0,0,0,0,0,0,0,0,0,-1,1742,1793,0,0
525,-769,0,0,0,0,0,0,0,0,0,-1,1749,1793,0,0
532,-769,0,0,0,0,0,0,0,0,0,-1,1756,1793,0,0
539,-769,0,0,0,0,0,0,0,0,0,-1,1763,1793,0,0
546,-769,0,0,0,0,0,0,0,0,0,-1,1770,1793,0,0
553,-769,0,0,0,0,0,0,0,0,0,-1,1777,1793,0,0
560,-769,0,0,0,0,0,0,0,0,0,-1,1784,1793,0,0
567,-769,0,0,0,0,0,0,0,0,0,-1,1791,1793,0,0
574,-769,0,0,0,0,0,0,0,0,0,-1,1798,1793,0,0
581,-769,0,0,0,0,0,0,0,0,0,-1,1805,1793,0,0
588,-769,0,0,0,0,0,0,0,0,0,-1,1812,1793,0,0
595,-769,0,0,0,0,0,0,0,0,0,-1,1819,1793,0,0
602,-769,0,0,0,0,0,0,0,0,0,-1,1826,1793,0,0
609,-769,0,0,0,0,0,0,0,0,0,-1,1833,1793,0,0
616,-769,0,0,0,0,0,0,0,0,0,-1,1840,1793,0,0
623,-769,0,0,0,0,0,0,0,0,0,-1,1847,1793,0,0
630,-769,0,0,0,0,0,0,0,0,0,-1,1854,1793,0,0
637,-769,0,0,0,0,0,0,0,0,0,-1,1861,1793,0,0
644,-769,0,0,0,0,0,0,0,0,0,-1,1868,1793,0,0
651,-769,0,0,0,0,0,0,0,0,0,-1,1875,1793,0,0
658,-769,0,0,0,0,0,0,0,0,0,-1,1882,1793,0,0
665,-769,0,0,0,0,0,0,0,0,0,-1,1889,1793,0,0
672,-769,0,0,0,0,0,0,0,0,0,-1,1896,1793,0,0
679,-769,0,0,0,0,0,0,0,0,0,-1,1903,1793,0,0
686,-769,0,0,0,0,0,0,0,0,0,-1,1910,1793,0,0
693,-769,0,0,0,0,0,0,0,0,0,-1,1917,1793,0,0
700,-769,0,0,0,0,0,0,0,0,0,-1,1924,1793,0,0
707,-769,0,0,0,0,0,0,0,0,0,-1,1931,1793,0,0
714,-769,0,0,0,0,0,0,0,0,0,-1,1938,1793,0,0
721,-769,0,0,0,0,0,0,0,0,0,-1,1945,1793,0,0
728,-769,0,0,0,0,0,0,0,0,0,-1,1952,1793,0,0
735,-769,0,0,0,0,0,0,0,0,0,-1,1959,1793,0,0
742,-769,0,0,0,0,0,0,0,0,0,-1,1966,1793,0,0
749,-769,0,0,0,0,0,0,0,0,0,-1,1973,1793,0,0
756,-769,0,0,0,0,0,0,0,0,0,-1,1980,1793,0,0
763,-769,0,0,0,0,0,0,0,0,0,-1,1987,1793,0,0
770,-769,0,0,0,0,0,0,0,0,0,-1,1994,1793,0,0
777,-769,0,0,0,0,0,0,0,0,0,-1,2001,1793,0,0
784,-769,0,0,0,0,0,0,0,0,0,-1,2008,1793,0,0
791,-769,0,0,0,0,0,0,0,0,0,-1,2015,1793,0,0
798,-769,0,0,0,0,0,0,0,0,0,-1,2022,1793,0,0
805,-769,0,0,0,0,0,0,0,0,0,-1,2029,1793,0,0
812,-769,0,0,0,0,0,0,0,0,0,-1,2036,1793,0,0
-700,-776,0,0,0,0,0,0,0,0,0,-1,524,1800,0,0
-693,-776,0,0,0,0,0,0,0,0,0,-1,531,1800,0,0
-686,-776,0,0,0,0,0,0,0,0,0,-1,538,1800,0,0
-679,-776,0,0,0,0,0,0,0,0,0,-1,545,1800,0,0
-672,-776,0,0,0,0,0,0,0,0,0,-1,552,1800,0,0
-665,-776,0,0,0,0,0,0,0,0,0,-1,559,1800,0,0
-658,-776,0,0,0,0,0,0,0,0,0,-1,566,1800,0,0
-651,-776,0,0,0,0,0,0,0,0,0,-1,573,1800,0,0
-644,-776,0,0,0,0,0,0,0,0,0,-1,580,1800,0,0
-637,-776,0,0,0,0,0,0,0,0,0,-1,587,1800,0,0
-630,-776,0,0,0,0,0,0,0,0,0,-1,594,1800,0,0
-623,-776,0,0,0,0,0,0,0,0,0,-1,601,1800,0,0
-616,-776,0,0,0,0,0,0,0,0,0,-1,608,1800,0,0
-609,-776,0,0,0,0,0,0,0,0,0,-1,615,1800,0,0
-602,-776,0,0,0,0,0,0,0,0,0,-1,622,1800,0,0
-595,-776,0,0,0,0,0,0,0,0,0,-1,629,1800,0,0
-588,-776,0,0,0,0,0,0,0,0,0,-1,636,1800,0,0
-581,-776,0,0,0,0,0,0,0,0,0,-1,643,1800,0,0
-574,-776,0,0,0,0,0,0,0,0,0,-1,650,1800,0,0
-567,-776,0,0,0,0,0,0,0,0,0,-1,657,1800,0,0
-560,-776,0,0,0,0,0,0,0,0,0,-1,664,1800,0,0
-553,-776,0,0,0,0,0,0,0,0,0,-1,671,1800,0,0
-546,-776,0,0,0,0,0,0,0,0,0,-1,678,1800,0,0
-539,-776,0,0,0,0,0,0,0,0,0,-1,685,1800,0,0
-532,-776,0,0,0,0,0,0,0,0,0,-1,692,1800,0,0
-525,-776,0,0,0,0,0,0,0,0,0,-1,699,1800,0,0
-518,-776,0,0,0,0,0,0,0,0,0,-1,706,1800,0,0
-511,-776,0,0,0,0,0,0,0,0,0,-1,713,1800,0,0
-504,-776,0,0,0,0,0,0,0,0,0,-1,720,1800,0,0
-497,-776,0,0,0,0,0,0,0,0,0,-1,727,1800,0,0
-490,-776,0,0,0,0,0,0,0,0,0,-1,734,1800,0,0
-483,-776,0,0,0,0,0,0,0,0,0,-1,741,1800,0,0
-476,-776,0,0,0,0,0,0,0,0,0,-1,748,1800,0,0
-469,-776,0,0,0,0,0,0,0,0,0,-1,755,1800,0,0
-462,-776,0,0,0,0,0,0,0,0,0,-1,762,1800,0,0
-455,-776,0,0,0,0,0,0,0,0,0,-1,769,1800,0,0
-448,-776,0,0,0,0,0,0,0,0,0,-1,776,1800,0,0
-441,-776,0,0,0,0,0,0,0,0,0,-1,783,1800,0,0
-434,-776,0,0,0,0,0,0,0,0,0,-1,790,1800,0,0
-427,-776,0,0,0,0,0,0,0,0,0,-1,797,1800,0,0
-420,-776,0,0,0,0,0,0,0,0,0,-1,804,1800,0,0
-413,-776,0,0,0,0,0,0,0,0,0,-1,811,1800,0,0
-406,-776,0,0,0,0,0,0,0,0,0,-1,818,1800,0,0
-399,-776,0,0,0,0,0,0,0,0,0,-1,825,1800,0,0
-392,-776,0,0,0,0,0,0,0,0,0,-1,832,1800,0,0
-385,-776,0,0,0,0,0,0,0,0,0,-1,839,1800,0,0
-378,-776,0,0,0,0,0,0,0,0,0,-1,846,1800,0,0
-371,-776,0,0,0,0,0,0,0,0,0,-1,853,1800,0,0
-364,-776,0,0,0,0,0,0,0,0,0,-1,860,1800,0,0
-357,-776,0,0,0,0,0,0,0,0,0,-1,867,1800,0,0
-350,-776,0,0,0,0,0,0,0,0,0,-1,874,1800,0,0
-343,-776,0,0,0,0,0,0,0,0,0,-1,881,1800,0,0
-336,-776,0,0,0,0,0,0,0,0,0,-1,888,1800,0,0
-329,-776,0,0,0,0,0,0,0,0,0,-1,895,1800,0,0
-322,-776,0,0,0,0,0,0,0,0,0,-1,902,1800,0,0
-315,-776,0,0,0,0,0,0,0,0,0,-1,909,1800,0,0
-308,-776,0,0,0,0,0,0,0,0,0,-1,916,1800,0,0
-301,-776,0,0,0,0,0,0,0,0,0,-1,923,1800,0,0
-294,-776,0,0,0,0,0,0,0,0,0,-1,930,1800,0,0
-287,-776,0,0,0,0,0,0,0,0,0,-1,937,1800,0,0
-280,-776,0,0,0,0,0,0,0,0,0,-1,944,1800,0,0
-273,-776,0,0,0,0,0,0,0,0,0,-1,951,1800,0,0
-266,-776,0,0,0,0,0,0,0,0,0,-1,958,1800,0,0
-259,-776,0,0,0,0,0,0,0,0,0,-1,965,1800,0,0
-252,-776,0,0,0,0,0,0,0,0,0,-1,972,1800,0,0
-245,-776,0,0,0,0,0,0,0,0,0,-1,979,1800,0,0
-238,-776,0,0,0,0,0,0,0,0,0,-1,986,1800,0,0
-231,-776,0,0,0,0,0,0,0,0,0,-1,993,1800,0,0
-224,-776,0,0,0,0,0,0,0,0,0,-1,1000,1800,0,0
-217,-776,0,0,0,0,0,0,0,0,0,-1,1007,1800,0,0
-210,-776,0,0,0,0,0,0,0,0,0,-1,1014,1800,0,0
-203,-776,0,0,0,0,0,0,0,0,0,-1,1021,1800,0,0
-196,-776,0,0,0,0,0,0,0,0,0,-1,1028,1800,0,0
-189,-776,0,0,0,0,0,0,0,0,0,-1,1035,1800,0,0
-182,-776,0,0,0,0,0,0,0,0,0,-1,1042,1800,0,0
-175,-776,0,0,0,0,0,0,0,0,0,-1,1049,1800,0,0
-168,-776,0,0,0,0,0,0,0,0,0,-1,1056,1800,0,0
-161,-776,0,0,0,0,0,0,0,0,0,-1,1063,1800,0,0
-154,-776,0,0,0,0,0,0,0,0,0,-1,1070,1800,0,0
-147,-776,0,0,0,0,0,0,0,0,0,-1,1077,1800,0,0
-140,-776,2.98499,5.20911,0,0,0,0,0,0,0,-1,1084,1800,2.98493,-5.2091
-133,-776,6.72363,9.35828,0,0,0,0,0,0,0,-1,1091,1800,6.72358,-9.35824
-126,-776,6.55029,13.7832,0,0,0,0,0,0,0,-1,1098,1800,6.55029,-13.7832
-119,-776,5.72107,13.7787,0,0,0,0,0,0,0,-1,1105,1800,5.72106,-13.7787
-112,-776,6.84998,20.4421,0,0,0,0,0,0,0,-1,1112,1800,6.84993,-20.4421
-105,-776,4.46863,24.6742,0,0,0,0,0,0,0,-1,1119,1800,4.46868,-24.6742
-98,-776,4.31616,19.7659,0,0,0,0,0,0,0,-1,1126,1800,4.31619,-19.7659
-91,-776,3.30225,18.134,0,0,0,0,0,0,0,-1,1133,1800,3.30222,-18.134
-84,-776,2.67932,14.3162,0,0,0,0,0,0,0,-1,1140,1800,2.67926,-14.3161
-77,-776,0.580078,11.1272,0,0,0,0,0,0,0,-1,1147,1800,0.58002,-11.1272
-70,-776,-0.562866,12.3163,0,0,0,0,0,0,0,-1,1154,1800,-0.562897,-12.3163
-63,-776,-3.96106,9.97656,0,0,0,0,0,0,0,-1,1161,1800,-3.961,-9.97654
-56,-776,-7.35913,7.63672,0,0,0,0,0,0,0,-1,1168,1800,-7.3591,-7.63676
-49,-776,-7.62952,3.1908,0,0,0,0,0,0,0,-1,1175,1800,-7.62955,-3.19076
-42,-776,-3.41272,3.0249,0,0,0,0,0,0,0,-1,1182,1800,-3.41269,-3.02488
-35,-776,-3.71753,1.63635,0,0,0,0,0,0,0,-1,1189,1800,-3.71755,-1.63631
-28,-776,-4.03979,0.716064,0,0,0,0,0,0,0,-1,1196,1800,-4.03977,-0.716055
-21,-776,8.61719,36.3713,0,0,0,0,0,0,0,-1,1203,1800,8.61714,-36.3714
-14,-776,8.95056,37.7363,0,0,0,0,0,0,0,-1,1210,1800,8.95054,-37.7363
-7,-776,8.99048,39.1127,0,0,0,0,0,0,0,-1,1217,1800,8.99043,-39.1127
0,-776,9.64807,42.3071,0,0,0,0,0,0,0,-1,1224,1800,9.64807,-42.3071
7,-776,9.15503,42.3741,-0.00613327,-0.0501099,-0.0065477,-0.00517909,-0.0510641,-0.14471,0.0324544,0.049719,1231,1800,9.15505,-42.3742
14,-776,9.6543,43.5874,-0.00435205,-0.0573222,-0.00987219,-0.00257197,-0.0591023,-0.178396,0.0385728,0.0443617,1238,1800,9.65426,-43.5874
21,-776,9.54907,44.1184,-0.00346481,-0.0641665,-0.0133862,-0.000643935,-0.0669874,-0.207692,0.0444452,0.0434875,1245,1800,9.54909,-44.1184
28,-776,9.58557,44.994,-0.00298178,-0.0661075,-0.0190636,0.00232857,-0.0714179,-0.271673,0.0484068,0.043773,1252,1800,9.58559,-44.9941
35,-776,8.48438,42.4176,-0.00243023,-0.0672384,-0.0254447,0.00636589,-0.0760345,-0.332835,0.0529394,0.0422449,1259,1800,8.48435,-42.4176
42,-776,8.46143,42.4557,-0.00235322,-0.0665818,-0.0301951,0.00961278,-0.0785478,-0.377303,0.0558459,0.0421728,1266,1800,8.46146,-42.4556
49,-776,8.48071,42.4606,-0.00240314,-0.0636059,-0.0356259,0.0139599,-0.0799689,-0.430561,0.0585235,0.0417249,1273,1800,8.48069,-42.4606
56,-776,8.3656,45.7502,-0.00225231,-0.0574223,-0.0415496,0.0200355,-0.0797101,-0.492354,0.0609268,0.04391,1280,1800,8.36558,-45.7502
63,-776,7.46448,45.9673,-0.00132273,-0.0501518,-0.0464126,0.0267051,-0.0781796,-0.54327,0.0629392,0.0441921,1287,1800,7.46443,-45.9673
70,-776,7.31177,46.4943,0.000661587,-0.040518,-0.0494584,0.0336448,-0.0735012,-0.588157,0.0632713,0.0488231,1294,1800,7.3118,-46.4942
77,-776,8.27246,42.1542,0,0,0,0,0,0,0,-1,1301,1800,8.27245,-42.1541
84,-776,7.4552,42.0363,0.0069464,-0.0202556,-0.0544928,0.0495099,-0.0628191,-0.663101,0.0650048,0.0491447,1308,1800,7.45526,-42.0362
91,-776,7.45642,41.9467,0.0111406,-0.0113469,-0.0548619,0.0558991,-0.0561054,-0.684325,0.0646659,0.0452002,1315,1800,7.45645,-41.9466
98,-776,7.58167,42.0042,0.0159163,-0.00334308,-0.0528863,0.0600424,-0.0474693,-0.695343,0.0622132,0.0457746,1322,1800,7.58168,-42.0041
105,-776,7.75281,42.4269,0.0210336,0.00270322,-0.0504596,0.0631535,-0.0394168,-0.695561,0.0597452,0.043757,1329,1800,7.75282,-42.4269
112,-776,7.01196,42.2305,0.0277023,0.00644457,-0.0460033,0.0642886,-0.0301418,-0.671867,0.0556949,0.0473191,1336,1800,7.01194,-42.2304
119,-776,6.11816,41.8258,0.0346151,0.00775353,-0.0405728,0.0639223,-0.0215537,-0.62556,0.0513307,0.0463017,1343,1800,6.11821,-41.8258
126,-776,5.42163,41.4197,0,0,0,0,0,0,0,-1,1350,1800,5.42169,-41.4196
133,-776,4.82947,41.1761,0,0,0,0,0,0,0,-1,1357,1800,4.82951,-41.1761
140,-776,7.59167,44.3367,0,0,0,0,0,0,0,-1,1364,1800,7.59164,-44.3367
147,-776,4.38184,33.3923,0,0,0,0,0,0,0,-1,1371,1800,4.38185,-33.3923
154,-776,38.4338,21.854,0,0,0,0,0,0,0,-1,1378,1800,38.4339,-21.854
161,-776,6.50293,1.1731,0,0,0,0,0,0,0,-1,1385,1800,6.5029,-1.17313
168,-776,8.44971,1.22913,0,0,0,0,0,0,0,-1,1392,1800,8.44974,-1.22915
175,-776,8.61523,2.87061,0,0,0,0,0,0,0,-1,1399,1800,8.6152,-2.87063
182,-776,8.54065,4.60645,0,0,0,0,0,0,0,-1,1406,1800,8.5407,-4.60643
189,-776,8.35303,6.28223,0,0,0,0,0,0,0,-1,1413,1800,8.35297,-6.28225
196,-776,8.0387,8.21704,0,0,0,0,0,0,0,-1,1420,1800,8.03865,-8.217
203,-776,7.91736,9.79919,0,0,0,0,0,0,0,-1,1427,1800,7.91735,-9.79922
210,-776,20.2479,7.85718,0,0,0,0,0,0,0,-1,1434,1800,20.248,-7.85719
217,-776,21.5171,9.3418,0,0,0,0,0,0,0,-1,1441,1800,21.5171,-9.34182
224,-776,3.09253,14.9313,0,0,0,0,0,0,0,-1,1448,1800,3.09254,-14.9313
231,-776,20.8671,9.21057,0,0,0,0,0,0,0,-1,1455,1800,20.867,-9.21054
238,-776,20.7511,9.05847,0,0,0,0,0,0,0,-1,1462,1800,20.7511,-9.05848
245,-776,3.80823,15.4108,0,0,0,0,0,0,0,-1,1469,1800,3.80826,-15.4108
252,-776,8.57837,20.2009,0,0,0,0,0,0,0,-1,1476,1800,8.57841,-20.2009
259,-776,14.1882,7.69055,0,0,0,0,0,0,0,-1,1483,1800,14.1882,-7.69061
266,-776,0,0,0,0,0,0,0,0,0,-1,1490,1800,0,0
273,-776,0,0,0,0,0,0,0,0,0,-1,1497,1800,0,0
280,-776,0,0,0,0,0,0,0,0,0,-1,1504,1800,0,0
287,-776,0,0,0,0,0,0,0,0,0,-1,1511,1800,0,0
294,-776,0,0,0,0,0,0,0,0,0,-1,1518,1800,0,0
301,-776,0,0,0,0,0,0,0,0,0,-1,1525,1800,0,0
308,-776,0,0,0,0,0,0,0,0,0,-1,1532,1800,0,0
315,-776,0,0,0,0,0,0,0,0,0,-1,1539,1800,0,0
322,-776,0,0,0,0,0,0,0,0,0,-1,1546,1800,0,0
329,-776,0,0,0,0,0,0,0,0,0,-1,1553,1800,0,0
336,-776,0,0,0,0,0,0,0,0,0,-1,1560,1800,0,0
343,-776,0,0,0,0,0,0,0,0,0,-1,1567,1800,0,0
350,-776,0,0,0,0,0,0,0,0,0,-1,1574,1800,0,0
357,-776,0,0,0,0,0,0,0,0,0,-1,1581,1800,0,0
364,-776,0,0,0,0,0,0,0,0,0,-1,1588,1800,0,0
371,-776,0,0,0,0,0,0,0,0,0,-1,1595,1800,0,0
378,-776,0,0,0,0,0,0,0,0,0,-1,1602,1800,0,0
385,-776,0,0,0,0,0,0,0,0,0,-1,1609,1800,0,0
392,-776,0,0,0,0,0,0,0,0,0,-1,1616,1800,0,0
399,-776,0,0,0,0,0,0,0,0,0,-1,1623,1800,0,0
406,-776,0,0,0,0,0,0,0,0,0,-1,1630,1800,0,0
413,-776,0,0,0,0,0,0,0,0,0,-1,1637,1800,0,0
420,-776,0,0,0,0,0,0,0,0,0,-1,1644,1800,0,0
427,-776,0,0,0,0,0,0,0,0,0,-1,1651,1800,0,0
434,-776,0,0,0,0,0,0,0,0,0,-1,1658,1800,0,0
441,-776,0,0,0,0,0,0,0,0,0,-1,1665,1800,0,0
448,-776,0,0,0,0,0,0,0,0,0,-1,1672,1800,0,0
455,-776,0,0,0,0,0,0,0,0,0,-1,1679,1800,0,0
462,-776,0,0,0,0,0,0,0,0,0,-1,1686,1800,0,0
469,-776,0,0,0,0,0,0,0,0,0,-1,1693,1800,0,0
476,-776,0,0,0,0,0,0,0,0,0,-1,1700,1800,0,0
483,-776,0,0,0,0,0,0,0,0,0,-1,1707,1800,0,0
490,-776,0,0,0,0,0,0,0,0,0,-1,1714,1800,0,0
497,-776,0,0,0,0,0,0,0,0,0,-1,1721,1800,0,0
504,-776,0,0,0,0,0,0,0,0,0,-1,1728,1800,0,0
511,-776,0,0,0,0,0,0,0,0,0,-1,1735,1800,0,0
518,-776,0,0,0,0,0,0,0,0,0,-1,1742,1800,0,0
525,-776,0,0,0,0,0,0,0,0,0,-1,1749,1800,0,0
532,-776,0,0,0,0,0,0,0,0,0,-1,1756,1800,0,0
539,-776,0,0,0,0,0,0,0,0,0,-1,1763,1800,0,0
546,-776,0,0,0,0,0,0,0,0,0,-1,1770,1800,0,0
553,-776,0,0,0,0,0,0,0,0,0,-1,1777,1800,0,0
560,-776,0,0,0,0,0,0,0,0,0,-1,1784,1800,0,0
567,-776,0,0,0,0,0,0,0,0,0,-1,1791,1800,0,0
574,-776,0,0,0,0,0,0,0,0,0,-1,1798,1800,0,0
581,-776,0,0,0,0,0,0,0,0,0,-1,1805,1800,0,0
588,-776,0,0,0,0,0,0,0,0,0,-1,1812,1800,0,0
595,-776,0,0,0,0,0,0,0,0,0,-1,1819,1800,0,0
602,-776,0,0,0,0,0,0,0,0,0,-1,1826,1800,0,0
609,-776,0,0,0,0,0,0,0,0,0,-1,1833,1800,0,0
616,-776,0,0,0,0,0,0,0,0,0,-1,1840,1800,0,0
623,-776,0,0,0,0,0,0,0,0,0,-1,1847,1800,0,0
630,-776,0,0,0,0,0,0,0,0,0,-1,1854,1800,0,0
637,-776,0,0,0,0,0,0,0,0,0,-1,1861,1800,0,0
644,-776,0,0,0,0,0,0,0,0,0,-1,1868,1800,0,0
651,-776,0,0,0,0,0,0,0,0,0,-1,1875,1800,0,0
658,-776,0,0,0,0,0,0,0,0,0,-1,1882,1800,0,0
665,-776,0,0,0,0,0,0,0,0,0,-1,1889,1800,0,0
672,-776,0,0,0,0,0,0,0,0,0,-1,1896,1800,0,0
679,-776,0,0,0,0,0,0,0,0,0,-1,1903,1800,0,0
686,-776,0,0,0,0,0,0,0,0,0,-1,1910,1800,0,0
693,-776,0,0,0,0,0,0,0,0,0,-1,1917,1800,0,0
700,-776,0,0,0,0,0,0,0,0,0,-1,1924,1800,0,0
707,-776,0,0,0,0,0,0,0,0,0,-1,1931,1800,0,0
714,-776,0,0,0,0,0,0,0,0,0,-1,1938,1800,0,0
721,-776,0,0,0,0,0,0,0,0,0,-1,1945,1800,0,0
728,-776,0,0,0,0,0,0,0,0,0,-1,1952,1800,0,0
735,-776,0,0,0,0,0,0,0,0,0,-1,1959,1800,0,0
742,-776,0,0,0,0,0,0,0,0,0,-1,1966,1800,0,0
749,-776,0,0,0,0,0,0,0,0,0,-1,1973,1800,0,0
756,-776,0,0,0,0,0,0,0,0,0,-1,1980,1800,0,0
763,-776,0,0,0,0,0,0,0,0,0,-1,1987,1800,0,0
770,-776,0,0,0,0,0,0,0,0,0,-1,1994,1800,0,0
777,-776,0,0,0,0,0,0,0,0,0,-1,2001,1800,0,0
784,-776,0,0,0,0,0,0,0,0,0,-1,2008,1800,0,0
791,-776,0,0,0,0,0,0,0,0,0,-1,2015,1800,0,0
798,-776,0,0,0,0,0,0,0,0,0,-1,2022,1800,0,0
805,-776,0,0,0,0,0,0,0,0,0,-1,2029,1800,0,0
812,-776,0,0,0,0,0,0,0,0,0,-1,2036,1800,0,0
-700,-783,0,0,0,0,0,0,0,0,0,-1,524,1807,0,0
-693,-783,0,0,0,0,0,0,0,0,0,-1,531,1807,0,0
-686,-783,0,0,0,0,0,0,0,0,0,-1,538,1807,0,0
-679,-783,0,0,0,0,0,0,0,0,0,-1,545,1807,0,0
-672,-783,0,0,0,0,0,0,0,0,0,-1,552,1807,0,0
-665,-783,0,0,0,0,0,0,0,0,0,-1,559,1807,0,0
-658,-783,0,0,0,0,0,0,0,0,0,-1,566,1807,0,0
-651,-783,0,0,0,0,0,0,0,0,0,-1,573,1807,0,0
-644,-783,0,0,0,0,0,0,0,0,0,-1,580,1807,0,0
-637,-783,0,0,0,0,0,0,0,0,0,-1,587,1807,0,0
-630,-783,0,0,0,0,0,0,0,0,0,-1,594,1807,0,0
-623,-783,0,0,0,0,0,0,0,0,0,-1,601,1807,0,0
-616,-783,0,0,0,0,0,0,0,0,0,-1,608,1807,0,0
-609,-783,0,0,0,0,0,0,0,0,0,-1,615,1807,0,0
-602,-783,0,0,0,0,0,0,0,0,0,-1,622,1807,0,0
-595,-783,0,0,0,0,0,0,0,0,0,-1,629,1807,0,0
-588,-783,0,0,0,0,0,0,0,0,0,-1,636,1807,0,0
-581,-783,0,0,0,0,0,0,0,0,0,-1,643,1807,0,0
-574,-783,0,0,0,0,0,0,0,0,0,-1,650,1807,0,0
-567,-783,0,0,0,0,0,0,0,0,0,-1,657,1807,0,0
-560,-783,0,0,0,0,0,0,0,0,0,-1,664,1807,0,0
-553,-783,0,0,0,0,0,0,0,0,0,-1,671,1807,0,0
-546,-783,0,0,0,0,0,0,0,0,0,-1,678,1807,0,0
-539,-783,0,0,0,0,0,0,0,0,0,-1,685,1807,0,0
-532,-783,0,0,0,0,0,0,0,0,0,-1,692,1807,0,0
-525,-783,0,0,0,0,0,0,0,0,0,-1,699,1807,0,0
-518,-783,0,0,0,0,0,0,0,0,0,-1,706,1807,0,0
-511,-783,0,0,0,0,0,0,0,0,0,-1,713,1807,0,0
-504,-783,0,0,0,0,0,0,0,0,0,-1,720,1807,0,0
-497,-783,0,0,0,0,0,0,0,0,0,-1,727,1807,0,0
-490,-783,0,0,0,0,0,0,0,0,0,-1,734,1807,0,0
-483,-783,0,0,0,0,0,0,0,0,0,-1,741,1807,0,0
-476,-783,0,0,0,0,0,0,0,0,0,-1,748,1807,0,0
-469,-783,0,0,0,0,0,0,0,0,0,-1,755,1807,0,0
-462,-783,0,0,0,0,0,0,0,0,0,-1,762,1807,0,0
-455,-783,0,0,0,0,0,0,0,0,0,-1,769,1807,0,0
-448,-783,0,0,0,0,0,0,0,0,0,-1,776,1807,0,0
-441,-783,0,0,0,0,0,0,0,0,0,-1,783,1807,0,0
-434,-783,0,0,0,0,0,0,0,0,0,-1,790,1807,0,0
-427,-783,0,0,0,0,0,0,0,0,0,-1,797,1807,0,0
-420,-783,0,0,0,0,0,0,0,0,0,-1,804,1807,0,0
-413,-783,0,0,0,0,0,0,0,0,0,-1,811,1807,0,0
-406,-783,0,0,0,0,0,0,0,0,0,-1,818,1807,0,0
-399,-783,0,0,0,0,0,0,0,0,0,-1,825,1807,0,0
-392,-783,0,0,0,0,0,0,0,0,0,-1,832,1807,0,0
-385,-783,0,0,0,0,0,0,0,0,0,-1,839,1807,0,0
-378,-783,0,0,0,0,0,0,0,0,0,-1,846,1807,0,0
-371,-783,0,0,0,0,0,0,0,0,0,-1,853,1807,0,0
-364,-783,0,0,0,0,0,0,0,0,0,-1,860,1807,0,0
-357,-783,0,0,0,0,0,0,0,0,0,-1,867,1807,0,0
-350,-783,0,0,0,0,0,0,0,0,0,-1,874,1807,0,0
-343,-783,0,0,0,0,0,0,0,0,0,-1,881,1807,0,0
-336,-783,0,0,0,0,0,0,0,0,0,-1,888,1807,0,0
-329,-783,0,0,0,0,0,0,0,0,0,-1,895,1807,0,0
-322,-783,0,0,0,0,0,0,0,0,0,-1,902,1807,0,0
-315,-783,0,0,0,0,0,0,0,0,0,-1,909,1807,0,0
-308,-783,0,0,0,0,0,0,0,0,0,-1,916,1807,0,0
-301,-783,0,0,0,0,0,0,0,0,0,-1,923,1807,0,0
-294,-783,0,0,0,0,0,0,0,0,0,-1,930,1807,0,0
-287,-783,0,0,0,0,0,0,0,0,0,-1,937,1807,0,0
-280,-783,0,0,0,0,0,0,0,0,0,-1,944,1807,0,0
-273,-783,0,0,0,0,0,0,0,0,0,-1,951,1807,0,0
-266,-783,0,0,0,0,0,0,0,0,0,-1,958,1807,0,0
-259,-783,0,0,0,0,0,0,0,0,0,-1,965,1807,0,0
-252,-783,0,0,0,0,0,0,0,0,0,-1,972,1807,0,0
-245,-783,0,0,0,0,0,0,0,0,0,-1,979,1807,0,0
-238,-783,0,0,0,0,0,0,0,0,0,-1,986,1807,0,0
-231,-783,0,0,0,0,0,0,0,0,0,-1,993,1807,0,0
-224,-783,0,0,0,0,0,0,0,0,0,-1,1000,1807,0,0
-217,-783,0,0,0,0,0,0,0,0,0,-1,1007,1807,0,0
-210,-783,0,0,0,0,0,0,0,0,0,-1,1014,1807,0,0
-203,-783,0,0,0,0,0,0,0,0,0,-1,1021,1807,0,0
-196,-783,0,0,0,0,0,0,0,0,0,-1,1028,1807,0,0
-189,-783,0,0,0,0,0,0,0,0,0,-1,1035,1807,0,0
-182,-783,0,0,0,0,0,0,0,0,0,-1,1042,1807,0,0
-175,-783,0,0,0,0,0,0,0,0,0,-1,1049,1807,0,0
-168,-783,0,0,0,0,0,0,0,0,0,-1,1056,1807,0,0
-161,-783,0,0,0,0,0,0,0,0,0,-1,1063,1807,0,0
-154,-783,0,0,0,0,0,0,0,0,0,-1,1070,1807,0,0
-147,-783,0,0,0,0,0,0,0,0,0,-1,1077,1807,0,0
-140,-783,0,0,0,0,0,0,0,0,0,-1,1084,1807,0,0
-133,-783,0,0,0,0,0,0,0,0,0,-1,1091,1807,0,0
-126,-783,0,0,0,0,0,0,0,0,0,-1,1098,1807,0,0
-119,-783,0,0,0,0,0,0,0,0,0,-1,1105,1807,0,0
-112,-783,5.33936,14.7699,0,0,0,0,0,0,0,-1,1112,1807,5.33931,-14.7699
-105,-783,6.44263,21.2224,0,0,0,0,0,0,0,-1,1119,1807,6.44263,-21.2224
-98,-783,5.54773,20.5695,0,0,0,0,0,0,0,-1,1126,1807,5.54772,-20.5695
-91,-783,2.6106,20.2491,0,0,0,0,0,0,0,-1,1133,1807,2.61056,-20.2492
-84,-783,-0.0491943,14.5743,0,0,0,0,0,0,0,-1,1140,1807,-0.0491562,-14.5743
-77,-783,0.332764,12.7788,0,0,0,0,0,0,0,-1,1147,1807,0.332743,-12.7788
-70,-783,-1.93176,5.12817,0,0,0,0,0,0,0,-1,1154,1807,-1.93171,-5.12813
-63,-783,-5.31702,10.54,0,0,0,0,0,0,0,-1,1161,1807,-5.31703,-10.54
-56,-783,-6.26135,6.9679,0,0,0,0,0,0,0,-1,1168,1807,-6.26136,-6.96785
-49,-783,-3.17688,4.59705,0,0,0,0,0,0,0,-1,1175,1807,-3.17685,-4.5971
-42,-783,-3.72876,3.1405,0,0,0,0,0,0,0,-1,1182,1807,-3.72874,-3.14055
-35,-783,-3.97046,1.59399,0,0,0,0,0,0,0,-1,1189,1807,-3.97041,-1.59401
-28,-783,-4.12195,0.270386,0,0,0,0,0,0,0,-1,1196,1807,-4.12197,-0.270408
-21,-783,10.0072,38.7927,0,0,0,0,0,0,0,-1,1203,1807,10.0072,-38.7927
-14,-783,10.3325,39.3931,0,0,0,0,0,0,0,-1,1210,1807,10.3326,-39.393
-7,-783,10.1364,42.0759,0,0,0,0,0,0,0,-1,1217,1807,10.1363,-42.0759
0,-783,9.61194,42.1674,-0.0127317,-0.0506187,-0.00254941,-0.012561,-0.0507895,-0.066888,0.030546,0.0470677,1224,1807,9.61198,-42.1673
7,-783,9.12512,42.2222,-0.00871648,-0.0588726,-0.00780925,-0.00752872,-0.0600603,-0.15094,0.0377815,0.0484647,1231,1807,9.12506,-42.2222
14,-783,8.64648,42.2821,0,0,0,0,0,0,0,-1,1238,1807,8.64652,-42.2821
21,-783,10.2467,44.5012,-0.00445635,-0.0765397,-0.0171214,-0.000596326,-0.0803998,-0.221742,0.0534022,0.0481353,1245,1807,10.2467,-44.5013
28,-783,10.2207,45.2792,-0.0036358,-0.0795463,-0.0244638,0.00356511,-0.0867473,-0.286265,0.0590558,0.0476738,1252,1807,10.2207,-45.2792
35,-783,10.1442,45.994,-0.0027412,-0.0810958,-0.0331553,0.0094053,-0.0932423,-0.351168,0.065522,0.0473357,1259,1807,10.1442,-45.994
42,-783,8.68494,42.1406,-0.00261641,-0.0801335,-0.0399161,0.0142625,-0.0970123,-0.400055,0.0699156,0.045752,1266,1807,8.68498,-42.1406
49,-783,9.61279,46.4202,-0.00262177,-0.0761117,-0.0475595,0.020734,-0.0994675,-0.456491,0.074195,0.0438462,1273,1807,9.61274,-46.4202
56,-783,9.53711,46.145,0,0,0,0,0,0,0,-1,1280,1807,9.53707,-46.145
63,-783,8.84448,47.009,-0.000407255,-0.0590057,-0.0628095,0.0396006,-0.0990136,-0.567162,0.082443,0.0463467,1287,1807,8.84454,-47.009
70,-783,8.37268,47.4094,0.00294942,-0.0472496,-0.0675241,0.049888,-0.0941882,-0.607456,0.084483,0.0457437,1294,1807,8.37264,-47.4094
77,-783,8.24963,47.8468,0.00693159,-0.0348,-0.0723519,0.0613664,-0.0892348,-0.645011,0.0874445,0.0476231,1301,1807,8.24964,-47.8468
84,-783,7.33582,41.9141,0,0,0,0,0,0,0,-1,1308,1807,7.33587,-41.9141
91,-783,7.65015,42.1006,0.0192277,-0.0119921,-0.0767411,0.0819304,-0.0746949,-0.685062,0.0904598,0.044684,1315,1807,7.65013,-42.1006
98,-783,8.19934,42.2306,0.0269273,-0.00247486,-0.0744102,0.0880747,-0.0636223,-0.68787,0.0879607,0.0429412,1322,1807,8.19934,-42.2306
105,-783,9.18555,41.6534,0.0355651,0.00422164,-0.0710538,0.0926549,-0.0528681,-0.676855,0.0850581,0.0468399,1329,1807,9.18553,-41.6534
112,-783,10.1815,40.7517,0,0,0,0,0,0,0,-1,1336,1807,10.1815,-40.7517
119,-783,11.4845,39.9658,0,0,0,0,0,0,0,-1,1343,1807,11.4845,-39.9659
126,-783,4.93372,41.8033,0,0,0,0,0,0,0,-1,1350,1807,4.9337,-41.8034
133,-783,7.33765,44.402,0,0,0,0,0,0,0,-1,1357,1807,7.33769,-44.4019
140,-783,8.31726,44.6808,0,0,0,0,0,0,0,-1,1364,1807,8.3173,-44.6808
147,-783,9.69092,45.6047,0,0,0,0,0,0,0,-1,1371,1807,9.69091,-45.6048
154,-783,38.2109,17.545,0,0,0,0,0,0,0,-1,1378,1807,38.2109,-17.545
161,-783,39.5087,17.5449,0,0,0,0,0,0,0,-1,1385,1807,39.5087,-17.545
168,-783,8.62561,1.79944,0,0,0,0,0,0,0,-1,1392,1807,8.62561,-1.79946
175,-783,8.78699,3.40857,0,0,0,0,0,0,0,-1,1399,1807,8.78697,-3.40854
182,-783,8.70984,5.14661,0,0,0,0,0,0,0,-1,1406,1807,8.70989,-5.14666
189,-783,8.55762,6.79871,0,0,0,0,0,0,0,-1,1413,1807,8.55766,-6.79872
196,-783,8.25488,8.66626,0,0,0,0,0,0,0,-1,1420,1807,8.25492,-8.66628
203,-783,7.86755,10.5735,0,0,0,0,0,0,0,-1,1427,1807,7.8676,-10.5734
210,-783,5.6969,8.99231,0,0,0,0,0,0,0,-1,1434,1807,5.69693,-8.99234
217,-783,5.28503,3.80872,0,0,0,0,0,0,0,-1,1441,1807,5.285,-3.80868
224,-783,3.22571,6.62903,0,0,0,0,0,0,0,-1,1448,1807,3.2257,-6.62907
231,-783,4.27942,4.56262,0,0,0,0,0,0,0,-1,1455,1807,4.27948,-4.56267
238,-783,0,0,0,0,0,0,0,0,0,-1,1462,1807,0,0
245,-783,0,0,0,0,0,0,0,0,0,-1,1469,1807,0,0
252,-783,0,0,0,0,0,0,0,0,0,-1,1476,1807,0,0
259,-783,0,0,0,0,0,0,0,0,0,-1,1483,1807,0,0
266,-783,0,0,0,0,0,0,0,0,0,-1,1490,1807,0,0
273,-783,0,0,0,0,0,0,0,0,0,-1,1497,1807,0,0
280,-783,0,0,0,0,0,0,0,0,0,-1,1504,1807,0,0
287,-783,0,0,0,0,0,0,0,0,0,-1,1511,1807,0,0
294,-783,0,0,0,0,0,0,0,0,0,-1,1518,1807,0,0
301,-783,0,0,0,0,0,0,0,0,0,-1,1525,1807,0,0
308,-783,0,0,0,0,0,0,0,0,0,-1,1532,1807,0,0
315,-783,0,0,0,0,0,0,0,0,0,-1,1539,1807,0,0
322,-783,0,0,0,0,0,0,0,0,0,-1,1546,1807,0,0
329,-783,0,0,0,0,0,0,0,0,0,-1,1553,1807,0,0
336,-783,0,0,0,0,0,0,0,0,0,-1,1560,1807,0,0
343,-783,0,0,0,0,0,0,0,0,0,-1,1567,1807,0,0
350,-783,0,0,0,0,0,0,0,0,0,-1,1574,1807,0,0
357,-783,0,0,0,0,0,0,0,0,0,-1,1581,1807,0,0
364,-783,0,0,0,0,0,0,0,0,0,-1,1588,1807,0,0
371,-783,0,0,0,0,0,0,0,0,0,-1,1595,1807,0,0
378,-783,0,0,0,0,0,0,0,0,0,-1,1602,1807,0,0
385,-783,0,0,0,0,0,0,0,0,0,-1,1609,1807,0,0
392,-783,0,0,0,0,0,0,0,0,0,-1,1616,1807,0,0
399,-783,0,0,0,0,0,0,0,0,0,-1,1623,1807,0,0
406,-783,0,0,0,0,0,0,0,0,0,-1,1630,1807,0,0
413,-783,0,0,0,0,0,0,0,0,0,-1,1637,1807,0,0
420,-783,0,0,0,0,0,0,0,0,0,-1,1644,1807,0,0
427,-783,0,0,0,0,0,0,0,0,0,-1,1651,1807,0,0
434,-783,0,0,0,0,0,0,0,0,0,-1,1658,1807,0,0
441,-783,0,0,0,0,0,0,0,0,0,-1,1665,1807,0,0
448,-783,0,0,0,0,0,0,0,0,0,-1,1672,1807,0,0
455,-783,0,0,0,0,0,0,0,0,0,-1,1679,1807,0,0
462,-783,0,0,0,0,0,0,0,0,0,-1,1686,1807,0,0
469,-783,0,0,0,0,0,0,0,0,0,-1,1693,1807,0,0
476,-783,0,0,0,0,0,0,0,0,0,-1,1700,1807,0,0
483,-783,0,0,0,0,0,0,0,0,0,-1,1707,1807,0,0
490,-783,0,0,0,0,0,0,0,0,0,-1,1714,1807,0,0
497,-783,0,0,0,0,0,0,0,0,0,-1,1721,1807,0,0
504,-783,0,0,0,0,0,0,0,0,0,-1,1728,1807,0,0
511,-783,0,0,0,0,0,0,0,0,0,-1,1735,1807,0,0
518,-783,0,0,0,0,0,0,0,0,0,-1,1742,1807,0,0
525,-783,0,0,0,0,0,0,0,0,0,-1,1749,1807,0,0
532,-783,0,0,0,0,0,0,0,0,0,-1,1756,1807,0,0
539,-783,0,0,0,0,0,0,0,0,0,-1,1763,1807,0,0
546,-783,0,0,0,0,0,0,0,0,0,-1,1770,1807,0,0
553,-783,0,0,0,0,0,0,0,0,0,-1,1777,1807,0,0
560,-783,0,0,0,0,0,0,0,0,0,-1,1784,1807,0,0
567,-783,0,0,0,0,0,0,0,0,0,-1,1791,1807,0,0
574,-783,0,0,0,0,0,0,0,0,0,-1,1798,1807,0,0
581,-783,0,0,0,0,0,0,0,0,0,-1,1805,1807,0,0
588,-783,0,0,0,0,0,0,0,0,0,-1,1812,1807,0,0
595,-783,0,0,0,0,0,0,0,0,0,-1,1819,1807,0,0
602,-783,0,0,0,0,0,0,0,0,0,-1,1826,1807,0,0
609,-783,0,0,0,0,0,0,0,0,0,-1,1833,1807,0,0
616,-783,0,0,0,0,0,0,0,0,0,-1,1840,1807,0,0
623,-783,0,0,0,0,0,0,0,0,0,-1,1847,1807,0,0
630,-783,0,0,0,0,0,0,0,0,0,-1,1854,1807,0,0
637,-783,0,0,0,0,0,0,0,0,0,-1,1861,1807,0,0
644,-783,0,0,0,0,0,0,0,0,0,-1,1868,1807,0,0
651,-783,0,0,0,0,0,0,0,0,0,-1,1875,1807,0,0
658,-783,0,0,0,0,0,0,0,0,0,-1,1882,1807,0,0
665,-783,0,0,0,0,0,0,0,0,0,-1,1889,1807,0,0
672,-783,0,0,0,0,0,0,0,0,0,-1,1896,1807,0,0
679,-783,0,0,0,0,0,0,0,0,0,-1,1903,1807,0,0
686,-783,0,0,0,0,0,0,0,0,0,-1,1910,1807,0,0
693,-783,0,0,0,0,0,0,0,0,0,-1,1917,1807,0,0
700,-783,0,0,0,0,0,0,0,0,0,-1,1924,1807,0,0
707,-783,0,0,0,0,0,0,0,0,0,-1,1931,1807,0,0
714,-783,0,0,0,0,0,0,0,0,0,-1,1938,1807,0,0
721,-783,0,0,0,0,0,0,0,0,0,-1,1945,1807,0,0
728,-783,0,0,0,0,0,0,0,0,0,-1,1952,1807,0,0
735,-783,0,0,0,0,0,0,0,0,0,-1,1959,1807,0,0
742,-783,0,0,0,0,0,0,0,0,0,-1,1966,1807,0,0
749,-783,0,0,0,0,0,0,0,0,0,-1,1973,1807,0,0
756,-783,0,0,0,0,0,0,0,0,0,-1,1980,1807,0,0
763,-783,0,0,0,0,0,0,0,0,0,-1,1987,1807,0,0
770,-783,0,0,0,0,0,0,0,0,0,-1,1994,1807,0,0
777,-783,0,0,0,0,0,0,0,0,0,-1,2001,1807,0,0
784,-783,0,0,0,0,0,0,0,0,0,-1,2008,1807,0,0
791,-783,0,0,0,0,0,0,0,0,0,-1,2015,1807,0,0
798,-783,0,0,0,0,0,0,0,0,0,-1,2022,1807,0,0
805,-783,0,0,0,0,0,0,0,0,0,-1,2029,1807,0,0
812,-783,0,0,0,0,0,0,0,0,0,-1,2036,1807,0,0
-700,-790,0,0,0,0,0,0,0,0,0,-1,524,1814,0,0
-693,-790,0,0,0,0,0,0,0,0,0,-1,531,1814,0,0
-686,-790,0,0,0,0,0,0,0,0,0,-1,538,1814,0,0
-679,-790,0,0,0,0,0,0,0,0,0,-1,545,1814,0,0
-672,-790,0,0,0,0,0,0,0,0,0,-1,552,1814,0,0
-665,-790,0,0,0,0,0,0,0,0,0,-1,559,1814,0,0
-658,-790,0,0,0,0,0,0,0,0,0,-1,566,1814,0,0
-651,-790,0,0,0,0,0,0,0,0,0,-1,573,1814,0,0
-644,-790,0,0,0,0,0,0,0,0,0,-1,580,1814,0,0
-637,-790,0,0,0,0,0,0,0,0,0,-1,587,1814,0,0
-630,-790,0,0,0,0,0,0,0,0,0,-1,594,1814,0,0
-623,-790,0,0,0,0,0,0,0,0,0,-1,601,1814,0,0
-616,-790,0,0,0,0,0,0,0,0,0,-1,608,1814,0,0
-609,-790,0,0,0,0,0,0,0,0,0,-1,615,1814,0,0
-602,-790,0,0,0,0,0,0,0,0,0,-1,622,1814,0,0
-595,-790,0,0,0,0,0,0,0,0,0,-1,629,1814,0,0
-588,-790,0,0,0,0,0,0,0,0,0,-1,636,1814,0,0
-581,-790,0,0,0,0,0,0,0,0,0,-1,643,1814,0,0
-574,-790,0,0,0,0,0,0,0,0,0,-1,650,1814,0,0
-567,-790,0,0,0,0,0,0,0,0,0,-1,657,1814,0,0
-560,-790,0,0,0,0,0,0,0,0,0,-1,664,1814,0,0
-553,-790,0,0,0,0,0,0,0,0,0,-1,671,1814,0,0
-546,-790,0,0,0,0,0,0,0,0,0,-1,678,1814,0,0
-539,-790,0,0,0,0,0,0,0,0,0,-1,685,1814,0,0
-532,-790,0,0,0,0,0,0,0,0,0,-1,692,1814,0,0
-525,-790,0,0,0,0,0,0,0,0,0,-1,699,1814,0,0
-518,-790,0,0,0,0,0,0,0,0,0,-1,706,1814,0,0
-511,-790,0,0,0,0,0,0,0,0,0,-1,713,1814,0,0
-504,-790,0,0,0,0,0,0,0,0,0,-1,720,1814,0,0
-497,-790,0,0,0,0,0,0,0,0,0,-1,727,1814,0,0
-490,-790,0,0,0,0,0,0,0,0,0,-1,734,1814,0,0
-483,-790,0,0,0,0,0,0,0,0,0,-1,741,1814,0,0
-476,-790,0,0,0,0,0,0,0,0,0,-1,748,1814,0,0
-469,-790,0,0,0,0,0,0,0,0,0,-1,755,1814,0,0
-462,-790,0,0,0,0,0,0,0,0,0,-1,762,1814,0,0
-455,-790,0,0,0,0,0,0,0,0,0,-1,769,1814,0,0
-448,-790,0,0,0,0,0,0,0,0,0,-1,776,1814,0,0
-441,-790,0,0,0,0,0,0,0,0,0,-1,783,1814,0,0
-434,-790,0,0,0,0,0,0,0,0,0,-1,790,1814,0,0
-427,-790,0,0,0,0,0,0,0,0,0,-1,797,1814,0,0
-420,-790,0,0,0,0,0,0,0,0,0,-1,804,1814,0,0
-413,-790,0,0,0,0,0,0,0,0,0,-1,811,1814,0,0
-406,-790,0,0,0,0,0,0,0,0,0,-1,818,1814,0,0
-399,-790,0,0,0,0,0,0,0,0,0,-1,825,1814,0,0
-392,-790,0,0,0,0,0,0,0,0,0,-1,832,1814,0,0
-385,-790,0,0,0,0,0,0,0,0,0,-1,839,1814,0,0
-378,-790,0,0,0,0,0,0,0,0,0,-1,846,1814,0,0
-371,-790,0,0,0,0,0,0,0,0,0,-1,853,1814,0,0
-364,-790,0,0,0,0,0,0,0,0,0,-1,860,1814,0,0
-357,-790,0,0,0,0,0,0,0,0,0,-1,867,1814,0,0
-350,-790,0,0,0,0,0,0,0,0,0,-1,874,1814,0,0
-343,-790,0,0,0,0,0,0,0,0,0,-1,881,1814,0,0
-336,-790,0,0,0,0,0,0,0,0,0,-1,888,1814,0,0
-329,-790,0,0,0,0,0,0,0,0,0,-1,895,1814,0,0
-322,-790,0,0,0,0,0,0,0,0,0,-1,902,1814,0,0
-315,-790,0,0,0,0,0,0,0,0,0,-1,909,1814,0,0
-308,-790,0,0,0,0,0,0,0,0,0,-1,916,1814,0,0
-301,-790,0,0,0,0,0,0,0,0,0,-1,923,1814,0,0
-294,-790,0,0,0,0,0,0,0,0,0,-1,930,1814,0,0
-287,-790,0,0,0,0,0,0,0,0,0,-1,937,1814,0,0
-280,-790,0,0,0,0,0,0,0,0,0,-1,944,1814,0,0
-273,-790,0,0,0,0,0,0,0,0,0,-1,951,1814,0,0
-266,-790,0,0,0,0,0,0,0,0,0,-1,958,1814,0,0
-259,-790,0,0,0,0,0,0,0,0,0,-1,965,1814,0,0
-252,-790,0,0,0,0,0,0,0,0,0,-1,972,1814,0,0
-245,-790,0,0,0,0,0,0,0,0,0,-1,979,1814,0,0
-238,-790,0,0,0,0,0,0,0,0,0,-1,986,1814,0,0
-231,-790,0,0,0,0,0,0,0,0,0,-1,993,1814,0,0
-224,-790,0,0,0,0,0,0,0,0,0,-1,1000,1814,0,0
-217,-790,0,0,0,0,0,0,0,0,0,-1,1007,1814,0,0
-210,-790,0,0,0,0,0,0,0,0,0,-1,1014,1814,0,0
-203,-790,0,0,0,0,0,0,0,0,0,-1,1021,1814,0,0
-196,-790,0,0,0,0,0,0,0,0,0,-1,1028,1814,0,0
-189,-790,0,0,0,0,0,0,0,0,0,-1,1035,1814,0,0
-182,-790,0,0,0,0,0,0,0,0,0,-1,1042,1814,0,0
-175,-790,0,0,0,0,0,0,0,0,0,-1,1049,1814,0,0
-168,-790,0,0,0,0,0,0,0,0,0,-1,1056,1814,0,0
-161,-790,0,0,0,0,0,0,0,0,0,-1,1063,1814,0,0
-154,-790,0,0,0,0,0,0,0,0,0,-1,1070,1814,0,0
-147,-790,0,0,0,0,0,0,0,0,0,-1,1077,1814,0,0
-140,-790,0,0,0,0,0,0,0,0,0,-1,1084,1814,0,0
-133,-790,0,0,0,0,0,0,0,0,0,-1,1091,1814,0,0
-126,-790,0,0,0,0,0,0,0,0,0,-1,1098,1814,0,0
-119,-790,0,0,0,0,0,0,0,0,0,-1,1105,1814,0,0
-112,-790,0,0,0,0,0,0,0,0,0,-1,1112,1814,0,0
-105,-790,0,0,0,0,0,0,0,0,0,-1,1119,1814,0,0
-98,-790,0,0,0,0,0,0,0,0,0,-1,1126,1814,0,0
-91,-790,0,0,0,0,0,0,0,0,0,-1,1133,1814,0,0
-84,-790,0,0,0,0,0,0,0,0,0,-1,1140,1814,0,0
-77,-790,-0.969238,5.30847,0,0,0,0,0,0,0,-1,1147,1814,-0.969277,-5.3085
-70,-790,-1.23169,4.98914,0,0,0,0,0,0,0,-1,1154,1814,-1.23163,-4.98916
-63,-790,-1.69128,4.32263,0,0,0,0,0,0,0,-1,1161,1814,-1.69128,-4.32258
-56,-790,-2.24756,3.75305,0,0,0,0,0,0,0,-1,1168,1814,-2.24758,-3.75302
-49,-790,-3.11011,3.35779,0,0,0,0,0,0,0,-1,1175,1814,-3.11006,-3.35781
-42,-790,0.593262,1.19165,0,0,0,0,0,0,0,-1,1182,1814,0.593225,-1.19165
-35,-790,0.307129,-0.20105,0,0,0,0,0,0,0,-1,1189,1814,0.307178,0.201006
-28,-790,-2.78467,0.785156,0,0,0,0,0,0,0,-1,1196,1814,-2.78471,-0.785183
-21,-790,9.4187,38.1421,0,0,0,0,0,0,0,-1,1203,1814,9.4187,-38.142
-14,-790,9.71057,38.7433,0,0,0,0,0,0,0,-1,1210,1814,9.71061,-38.7433
-7,-790,10.1758,41.7341,0,0,0,0,0,0,0,-1,1217,1814,10.1758,-41.7341
0,-790,9.36523,42.285,0,0,0,0,0,0,0,-1,1224,1814,9.36519,-42.285
7,-790,9.07166,42.1351,0,0,0,0,0,0,0,-1,1231,1814,9.07164,-42.1351
14,-790,9.84277,41.5883,0,0,0,0,0,0,0,-1,1238,1814,9.84272,-41.5883
21,-790,10.873,44.8422,0,0,0,0,0,0,0,-1,1245,1814,10.873,-44.8422
28,-790,11.1335,45.8951,-0.00461459,-0.092176,-0.0301126,0.00474152,-0.101532,-0.301248,0.0693227,0.0438541,1252,1814,11.1335,-45.8951
35,-790,10.6704,46.3214,-0.00327431,-0.0944345,-0.0416268,0.0128735,-0.110582,-0.370048,0.0783659,0.0466584,1259,1814,10.6704,-46.3214
42,-790,10.5431,46.6315,-0.00309331,-0.0932057,-0.0510742,0.019958,-0.116257,-0.423959,0.0849425,0.0481198,1266,1814,10.5431,-46.6314
49,-790,10.3916,47.011,-0.00305933,-0.0880188,-0.0616319,0.0293142,-0.120392,-0.483661,0.09161,0.0485239,1273,1814,10.3916,-47.011
56,-790,10.3356,47.5535,-0.00230799,-0.0784302,-0.073156,0.0420957,-0.122834,-0.545531,0.0989523,0.0431237,1280,1814,10.3355,-47.5534
63,-790,9.89453,48.0953,0.000666125,-0.0668405,-0.082831,0.056357,-0.122531,-0.591922,0.10561,0.0422232,1287,1814,9.89448,-48.0953
70,-790,9.44763,48.5984,0,0,0,0,0,0,0,-1,1294,1814,9.44761,-48.5984
77,-790,9.35388,48.5343,0.0118773,-0.0379798,-0.0969818,0.0870831,-0.113186,-0.6596,0.115952,0.0422233,1301,1814,9.35392,-48.5343
84,-790,6.49084,43.1564,0.0204418,-0.0237631,-0.101869,0.102579,-0.1059,-0.67857,0.120371,0.0455833,1308,1814,6.49085,-43.1564
91,-790,7.94177,42.135,0,0,0,0,0,0,0,-1,1315,1814,7.94173,-42.1351
98,-790,8.63696,42.0929,0,0,0,0,0,0,0,-1,1322,1814,8.637,-42.0928
105,-790,9.39417,41.7073,0,0,0,0,0,0,0,-1,1329,1814,9.39422,-41.7072
112,-790,10.6396,40.6924,0.0706503,0.0081791,-0.0888087,0.133556,-0.0547269,-0.616296,0.111836,0.0490191,1336,1814,10.6397,-40.6924
119,-790,11.7195,39.8577,0.0855637,0.0074166,-0.0792529,0.134852,-0.0418714,-0.556373,0.106635,0.0445324,1343,1814,11.7195,-39.8577
126,-790,12.5178,39.056,0,0,0,0,0,0,0,-1,1350,1814,12.5178,-39.0561
133,-790,7.88574,44.6008,0,0,0,0,0,0,0,-1,1357,1814,7.88569,-44.6009
140,-790,8.69153,45.1654,0,0,0,0,0,0,0,-1,1364,1814,8.69147,-45.1654
147,-790,9.46143,45.7765,0,0,0,0,0,0,0,-1,1371,1814,9.46145,-45.7765
154,-790,40.215,13.2396,0,0,0,0,0,0,0,-1,1378,1814,40.2149,-13.2396
161,-790,39.3429,13.0336,0,0,0,0,0,0,0,-1,1385,1814,39.3429,-13.0336
168,-790,7.04077,2.23279,0,0,0,0,0,0,0,-1,1392,1814,7.04082,-2.23275
175,-790,9.03918,3.98535,0,0,0,0,0,0,0,-1,1399,1814,9.0392,-3.98535
182,-790,8.96997,5.67896,0,0,0,0,0,0,0,-1,1406,1814,8.97001,-5.6789
189,-790,8.59729,6.86975,0,0,0,0,0,0,0,-1,1413,1814,8.59728,-6.86972
196,-790,8.21924,9.29053,0,0,0,0,0,0,0,-1,1420,1814,8.21924,-9.29048
203,-790,0,0,0,0,0,0,0,0,0,-1,1427,1814,0,0
210,-790,0,0,0,0,0,0,0,0,0,-1,1434,1814,0,0
217,-790,0,0,0,0,0,0,0,0,0,-1,1441,1814,0,0
224,-790,0,0,0,0,0,0,0,0,0,-1,1448,1814,0,0
231,-790,0,0,0,0,0,0,0,0,0,-1,1455,1814,0,0
238,-790,0,0,0,0,0,0,0,0,0,-1,1462,1814,0,0
245,-790,0,0,0,0,0,0,0,0,0,-1,1469,1814,0,0
252,-790,0,0,0,0,0,0,0,0,0,-1,1476,1814,0,0
259,-790,0,0,0,0,0,0,0,0,0,-1,1483,1814,0,0
266,-790,0,0,0,0,0,0,0,0,0,-1,1490,1814,0,0
273,-790,0,0,0,0,0,0,0,0,0,-1,1497,1814,0,0
280,-790,0,0,0,0,0,0,0,0,0,-1,1504,1814,0,0
287,-790,0,0,0,0,0,0,0,0,0,-1,1511,1814,0,0
294,-790,0,0,0,0,0,0,0,0,0,-1,1518,1814,0,0
301,-790,0,0,0,0,0,0,0,0,0,-1,1525,1814,0,0
308,-790,0,0,0,0,0,0,0,0,0,-1,1532,1814,0,0
315,-790,0,0,0,0,0,0,0,0,0,-1,1539,1814,0,0
322,-790,0,0,0,0,0,0,0,0,0,-1,1546,1814,0,0
329,-790,0,0,0,0,0,0,0,0,0,-1,1553,1814,0,0
336,-790,0,0,0,0,0,0,0,0,0,-1,1560,1814,0,0
343,-790,0,0,0,0,0,0,0,0,0,-1,1567,1814,0,0
350,-790,0,0,0,0,0,0,0,0,0,-1,1574,1814,0,0
357,-790,0,0,0,0,0,0,0,0,0,-1,1581,1814,0,0
364,-790,0,0,0,0,0,0,0,0,0,-1,1588,1814,0,0
371,-790,0,0,0,0,0,0,0,0,0,-1,1595,1814,0,0
378,-790,0,0,0,0,0,0,0,0,0,-1,1602,1814,0,0
385,-790,0,0,0,0,0,0,0,0,0,-1,1609,1814,0,0
392,-790,0,0,0,0,0,0,0,0,0,-1,1616,1814,0,0
399,-790,0,0,0,0,0,0,0,0,0,-1,1623,1814,0,0
406,-790,0,0,0,0,0,0,0,0,0,-1,1630,1814,0,0
413,-790,0,0,0,0,0,0,0,0,0,-1,1637,1814,0,0
420,-790,0,0,0,0,0,0,0,0,0,-1,1644,1814,0,0
427,-790,0,0,0,0,0,0,0,0,0,-1,1651,1814,0,0
434,-790,0,0,0,0,0,0,0,0,0,-1,1658,1814,0,0
441,-790,0,0,0,0,0,0,0,0,0,-1,1665,1814,0,0
448,-790,0,0,0,0,0,0,0,0,0,-1,1672,1814,0,0
455,-790,0,0,0,0,0,0,0,0,0,-1,1679,1814,0,0
462,-790,0,0,0,0,0,0,0,0,0,-1,1686,1814,0,0
469,-790,0,0,0,0,0,0,0,0,0,-1,1693,1814,0,0
476,-790,0,0,0,0,0,0,0,0,0,-1,1700,1814,0,0
483,-790,0,0,0,0,0,0,0,0,0,-1,1707,1814,0,0
490,-790,0,0,0,0,0,0,0,0,0,-1,1714,1814,0,0
497,-790,0,0,0,0,0,0,0,0,0,-1,1721,1814,0,0
504,-790,0,0,0,0,0,0,0,0,0,-1,1728,1814,0,0
511,-790,0,0,0,0,0,0,0,0,0,-1,1735,1814,0,0
518,-790,0,0,0,0,0,0,0,0,0,-1,1742,1814,0,0
525,-790,0,0,0,0,0,0,0,0,0,-1,1749,1814,0,0
532,-790,0,0,0,0,0,0,0,0,0,-1,1756,1814,0,0
539,-790,0,0,0,0,0,0,0,0,0,-1,1763,1814,0,0
546,-790,0,0,0,0,0,0,0,0,0,-1,1770,1814,0,0
553,-790,0,0,0,0,0,0,0,0,0,-1,1777,1814,0,0
560,-790,0,0,0,0,0,0,0,0,0,-1,1784,1814,0,0
567,-790,0,0,0,0,0,0,0,0,0,-1,1791,1814,0,0
574,-790,0,0,0,0,0,0,0,0,0,-1,1798,1814,0,0
581,-790,0,0,0,0,0,0,0,0,0,-1,1805,1814,0,0
588,-790,0,0,0,0,0,0,0,0,0,-1,1812,1814,0,0
595,-790,0,0,0,0,0,0,0,0,0,-1,1819,1814,0,0
602,-790,0,0,0,0,0,0,0,0,0,-1,1826,1814,0,0
609,-790,0,0,0,0,0,0,0,0,0,-1,1833,1814,0,0
616,-790,0,0,0,0,0,0,0,0,0,-1,1840,1814,0,0
623,-790,0,0,0,0,0,0,0,0,0,-1,1847,1814,0,0
630,-790,0,0,0,0,0,0,0,0,0,-1,1854,1814,0,0
637,-790,0,0,0,0,0,0,0,0,0,-1,1861,1814,0,0
644,-790,0,0,0,0,0,0,0,0,0,-1,1868,1814,0,0
651,-790,0,0,0,0,0,0,0,0,0,-1,1875,1814,0,0
658,-790,0,0,0,0,0,0,0,0,0,-1,1882,1814,0,0
665,-790,0,0,0,0,0,0,0,0,0,-1,1889,1814,0,0
672,-790,0,0,0,0,0,0,0,0,0,-1,1896,1814,0,0
679,-790,0,0,0,0,0,0,0,0,0,-1,1903,1814,0,0
686,-790,0,0,0,0,0,0,0,0,0,-1,1910,1814,0,0
693,-790,0,0,0,0,0,0,0,0,0,-1,1917,1814,0,0
700,-790,0,0,0,0,0,0,0,0,0,-1,1924,1814,0,0
707,-790,0,0,0,0,0,0,0,0,0,-1,1931,1814,0,0
714,-790,0,0,0,0,0,0,0,0,0,-1,1938,1814,0,0
721,-790,0,0,0,0,0,0,0,0,0,-1,1945,1814,0,0
728,-790,0,0,0,0,0,0,0,0,0,-1,1952,1814,0,0
735,-790,0,0,0,0,0,0,0,0,0,-1,1959,1814,0,0
742,-790,0,0,0,0,0,0,0,0,0,-1,1966,1814,0,0
749,-790,0,0,0,0,0,0,0,0,0,-1,1973,1814,0,0
756,-790,0,0,0,0,0,0,0,0,0,-1,1980,1814,0,0
763,-790,0,0,0,0,0,0,0,0,0,-1,1987,1814,0,0
770,-790,0,0,0,0,0,0,0,0,0,-1,1994,1814,0,0
777,-790,0,0,0,0,0,0,0,0,0,-1,2001,1814,0,0
784,-790,0,0,0,0,0,0,0,0,0,-1,2008,1814,0,0
791,-790,0,0,0,0,0,0,0,0,0,-1,2015,1814,0,0
798,-790,0,0,0,0,0,0,0,0,0,-1,2022,1814,0,0
805,-790,0,0,0,0,0,0,0,0,0,-1,2029,1814,0,0
812,-790,0,0,0,0,0,0,0,0,0,-1,2036,1814,0,0
-700,-797,0,0,0,0,0,0,0,0,0,-1,524,1821,0,0
-693,-797,0,0,0,0,0,0,0,0,0,-1,531,1821,0,0
-686,-797,0,0,0,0,0,0,0,0,0,-1,538,1821,0,0
-679,-797,0,0,0,0,0,0,0,0,0,-1,545,1821,0,0
-672,-797,0,0,0,0,0,0,0,0,0,-1,552,1821,0,0
-665,-797,0,0,0,0,0,0,0,0,0,-1,559,1821,0,0
-658,-797,0,0,0,0,0,0,0,0,0,-1,566,1821,0,0
-651,-797,0,0,0,0,0,0,0,0,0,-1,573,1821,0,0
-644,-797,0,0,0,0,0,0,0,0,0,-1,580,1821,0,0
-637,-797,0,0,0,0,0,0,0,0,0,-1,587,1821,0,0
-630,-797,0,0,0,0,0,0,0,0,0,-1,594,1821,0,0
-623,-797,0,0,0,0,0,0,0,0,0,-1,601,1821,0,0
-616,-797,0,0,0,0,0,0,0,0,0,-1,608,1821,0,0
-609,-797,0,0,0,0,0,0,0,0,0,-1,615,1821,0,0
-602,-797,0,0,0,0,0,0,0,0,0,-1,622,1821,0,0
-595,-797,0,0,0,0,0,0,0,0,0,-1,629,1821,0,0
-588,-797,0,0,0,0,0,0,0,0,0,-1,636,1821,0,0
-581,-797,0,0,0,0,0,0,0,0,0,-1,643,1821,0,0
-574,-797,0,0,0,0,0,0,0,0,0,-1,650,1821,0,0
-567,-797,0,0,0,0,0,0,0,0,0,-1,657,1821,0,0
-560,-797,0,0,0,0,0,0,0,0,0,-1,664,1821,0,0
-553,-797,0,0,0,0,0,0,0,0,0,-1,671,1821,0,0
-546,-797,0,0,0,0,0,0,0,0,0,-1,678,1821,0,0
-539,-797,0,0,0,0,0,0,0,0,0,-1,685,1821,0,0
-532,-797,0,0,0,0,0,0,0,0,0,-1,692,1821,0,0
-525,-797,0,0,0,0,0,0,0,0,0,-1,699,1821,0,0
-518,-797,0,0,0,0,0,0,0,0,0,-1,706,1821,0,0
-511,-797,0,0,0,0,0,0,0,0,0,-1,713,1821,0,0
-504,-797,0,0,0,0,0,0,0,0,0,-1,720,1821,0,0
-497,-797,0,0,0,0,0,0,0,0,0,-1,727,1821,0,0
-490,-797,0,0,0,0,0,0,0,0,0,-1,734,1821,0,0
-483,-797,0,0,0,0,0,0,0,0,0,-1,741,1821,0,0
-476,-797,0,0,0,0,0,0,0,0,0,-1,748,1821,0,0
-469,-797,0,0,0,0,0,0,0,0,0,-1,755,1821,0,0
-462,-797,0,0,0,0,0,0,0,0,0,-1,762,1821,0,0
-455,-797,0,0,0,0,0,0,0,0,0,-1,769,1821,0,0
-448,-797,0,0,0,0,0,0,0,0,0,-1,776,1821,0,0
-441,-797,0,0,0,0,0,0,0,0,0,-1,783,1821,0,0
-434,-797,0,0,0,0,0,0,0,0,0,-1,790,1821,0,0
-427,-797,0,0,0,0,0,0,0,0,0,-1,797,1821,0,0
-420,-797,0,0,0,0,0,0,0,0,0,-1,804,1821,0,0
-413,-797,0,0,0,0,0,0,0,0,0,-1,811,1821,0,0
-406,-797,0,0,0,0,0,0,0,0,0,-1,818,1821,0,0
-399,-797,0,0,0,0,0,0,0,0,0,-1,825,1821,0,0
-392,-797,0,0,0,0,0,0,0,0,0,-1,832,1821,0,0
-385,-797,0,0,0,0,0,0,0,0,0,-1,839,1821,0,0
-378,-797,0,0,0,0,0,0,0,0,0,-1,846,1821,0,0
-371,-797,0,0,0,0,0,0,0,0,0,-1,853,1821,0,0
-364,-797,0,0,0,0,0,0,0,0,0,-1,860,1821,0,0
-357,-797,0,0,0,0,0,0,0,0,0,-1,867,1821,0,0
-350,-797,0,0,0,0,0,0,0,0,0,-1,874,1821,0,0
-343,-797,0,0,0,0,0,0,0,0,0,-1,881,1821,0,0
-336,-797,0,0,0,0,0,0,0,0,0,-1,888,1821,0,0
-329,-797,0,0,0,0,0,0,0,0,0,-1,895,1821,0,0
-322,-797,0,0,0,0,0,0,0,0,0,-1,902,1821,0,0
-315,-797,0,0,0,0,0,0,0,0,0,-1,909,1821,0,0
-308,-797,0,0,0,0,0,0,0,0,0,-1,916,1821,0,0
-301,-797,0,0,0,0,0,0,0,0,0,-1,923,1821,0,0
-294,-797,0,0,0,0,0,0,0,0,0,-1,930,1821,0,0
-287,-797,0,0,0,0,0,0,0,0,0,-1,937,1821,0,0
-280,-797,0,0,0,0,0,0,0,0,0,-1,944,1821,0,0
-273,-797,0,0,0,0,0,0,0,0,0,-1,951,1821,0,0
-266,-797,0,0,0,0,0,0,0,0,0,-1,958,1821,0,0
-259,-797,0,0,0,0,0,0,0,0,0,-1,965,1821,0,0
-252,-797,0,0,0,0,0,0,0,0,0,-1,972,1821,0,0
-245,-797,0,0,0,0,0,0,0,0,0,-1,979,1821,0,0
-238,-797,0,0,0,0,0,0,0,0,0,-1,986,1821,0,0
-231,-797,0,0,0,0,0,0,0,0,0,-1,993,1821,0,0
-224,-797,0,0,0,0,0,0,0,0,0,-1,1000,1821,0,0
-217,-797,0,0,0,0,0,0,0,0,0,-1,1007,1821,0,0
-210,-797,0,0,0,0,0,0,0,0,0,-1,1014,1821,0,0
-203,-797,0,0,0,0,0,0,0,0,0,-1,1021,1821,0,0
-196,-797,0,0,0,0,0,0,0,0,0,-1,1028,1821,0,0
-189,-797,0,0,0,0,0,0,0,0,0,-1,1035,1821,0,0
-182,-797,0,0,0,0,0,0,0,0,0,-1,1042,1821,0,0
-175,-797,0,0,0,0,0,0,0,0,0,-1,1049,1821,0,0
-168,-797,0,0,0,0,0,0,0,0,0,-1,1056,1821,0,0
-161,-797,0,0,0,0,0,0,0,0,0,-1,1063,1821,0,0
-154,-797,0,0,0,0,0,0,0,0,0,-1,1070,1821,0,0
-147,-797,0,0,0,0,0,0,0,0,0,-1,1077,1821,0,0
-140,-797,0,0,0,0,0,0,0,0,0,-1,1084,1821,0,0
-133,-797,0,0,0,0,0,0,0,0,0,-1,1091,1821,0,0
-126,-797,0,0,0,0,0,0,0,0,0,-1,1098,1821,0,0
-119,-797,0,0,0,0,0,0,0,0,0,-1,1105,1821,0,0
-112,-797,0,0,0,0,0,0,0,0,0,-1,1112,1821,0,0
-105,-797,0,0,0,0,0,0,0,0,0,-1,1119,1821,0,0
-98,-797,0,0,0,0,0,0,0,0,0,-1,1126,1821,0,0
-91,-797,0,0,0,0,0,0,0,0,0,-1,1133,1821,0,0
-84,-797,0,0,0,0,0,0,0,0,0,-1,1140,1821,0,0
-77,-797,0,0,0,0,0,0,0,0,0,-1,1147,1821,0,0
-70,-797,0,0,0,0,0,0,0,0,0,-1,1154,1821,0,0
-63,-797,0,0,0,0,0,0,0,0,0,-1,1161,1821,0,0
-56,-797,0,0,0,0,0,0,0,0,0,-1,1168,1821,0,0
-49,-797,0,0,0,0,0,0,0,0,0,-1,1175,1821,0,0
-42,-797,0.579834,0.692871,0,0,0,0,0,0,0,-1,1182,1821,0.579856,-0.692816
-35,-797,-0.185425,5.55396,0,0,0,0,0,0,0,-1,1189,1821,-0.18542,-5.55396
-28,-797,-0.310181,4.71509,0,0,0,0,0,0,0,-1,1196,1821,-0.310228,-4.71503
-21,-797,8.63538,37.4927,0,0,0,0,0,0,0,-1,1203,1821,8.63534,-37.4926
-14,-797,9.01941,38.1121,0,0,0,0,0,0,0,-1,1210,1821,9.01935,-38.1121
-7,-797,9.47522,38.8671,0,0,0,0,0,0,0,-1,1217,1821,9.47526,-38.8671
0,-797,9.18323,42.1846,0,0,0,0,0,0,0,-1,1224,1821,9.18323,-42.1845
7,-797,10.1239,40.411,0,0,0,0,0,0,0,-1,1231,1821,10.1239,-40.411
14,-797,10.0251,41.196,0,0,0,0,0,0,0,-1,1238,1821,10.0251,-41.1961
21,-797,12.6707,45.9656,0,0,0,0,0,0,0,-1,1245,1821,12.6706,-45.9656
28,-797,12.119,46.5383,-0.00603006,-0.102208,-0.0354088,0.00559976,-0.113838,-0.317344,0.0778255,0.0415575,1252,1821,12.1191,-46.5383
35,-797,11.425,46.9846,-0.00415949,-0.105701,-0.0503011,0.0165392,-0.126399,-0.390377,0.0902856,0.0492631,1259,1821,11.425,-46.9846
42,-797,11.4998,47.4537,0,0,0,0,0,0,0,-1,1266,1821,11.4998,-47.4537
49,-797,11.381,48.1514,-0.00389739,-0.098039,-0.07766,0.0398433,-0.14178,-0.512947,0.110228,0.0462768,1273,1821,11.381,-48.1513
56,-797,11.2563,48.587,-0.00276259,-0.0866989,-0.0933224,0.0575943,-0.147056,-0.574091,0.12186,0.0408417,1280,1821,11.2563,-48.587
63,-797,11.0406,49.0881,0.00171943,-0.0725597,-0.106751,0.0776067,-0.148447,-0.617993,0.132631,0.0394657,1287,1821,11.0406,-49.0881
70,-797,10.8774,49.5875,0.00938301,-0.0563648,-0.11714,0.0981747,-0.145156,-0.648598,0.141357,0.0416264,1294,1821,10.8774,-49.5876
77,-797,5.51147,43.9841,0.017975,-0.0391342,-0.127227,0.119812,-0.140971,-0.675008,0.150729,0.0426261,1301,1821,5.5115,-43.9842
84,-797,6.55786,43.2698,0.0300691,-0.0231307,-0.134565,0.140638,-0.1337,-0.68782,0.158406,0.0456774,1308,1821,6.55791,-43.2698
91,-797,7.69189,42.5936,0,0,0,0,0,0,0,-1,1315,1821,7.69188,-42.5937
98,-797,8.7937,42.0653,0,0,0,0,0,0,0,-1,1322,1821,8.7937,-42.0653
105,-797,9.48328,41.6748,0,0,0,0,0,0,0,-1,1329,1821,9.48326,-41.6748
112,-797,10.5536,40.8617,0.103395,0.00801084,-0.118042,0.183015,-0.0716092,-0.593411,0.151625,0.0463135,1336,1821,10.5536,-40.8616
119,-797,11.7286,40.0884,0.124015,0.00475638,-0.104615,0.184801,-0.0560296,-0.526367,0.145519,0.0438076,1343,1821,11.7286,-40.0884
126,-797,12.8905,39.3704,0,0,0,0,0,0,0,-1,1350,1821,12.8904,-39.3704
133,-797,14.0898,38.635,0,0,0,0,0,0,0,-1,1357,1821,14.0898,-38.6351
140,-797,9.0542,45.766,0,0,0,0,0,0,0,-1,1364,1821,9.05418,-45.766
147,-797,9.78406,46.3673,0,0,0,0,0,0,0,-1,1371,1821,9.78407,-46.3673
154,-797,40.2623,8.88733,0,0,0,0,0,0,0,-1,1378,1821,40.2623,-8.88731
161,-797,42.2798,8.17371,0,0,0,0,0,0,0,-1,1385,1821,42.2798,-8.17367
168,-797,0,0,0,0,0,0,0,0,0,-1,1392,1821,0,0
175,-797,0,0,0,0,0,0,0,0,0,-1,1399,1821,0,0
182,-797,0,0,0,0,0,0,0,0,0,-1,1406,1821,0,0
189,-797,0,0,0,0,0,0,0,0,0,-1,1413,1821,0,0
196,-797,0,0,0,0,0,0,0,0,0,-1,1420,1821,0,0
203,-797,0,0,0,0,0,0,0,0,0,-1,1427,1821,0,0
210,-797,0,0,0,0,0,0,0,0,0,-1,1434,1821,0,0
217,-797,0,0,0,0,0,0,0,0,0,-1,1441,1821,0,0
224,-797,0,0,0,0,0,0,0,0,0,-1,1448,1821,0,0
231,-797,0,0,0,0,0,0,0,0,0,-1,1455,1821,0,0
238,-797,0,0,0,0,0,0,0,0,0,-1,1462,1821,0,0
245,-797,0,0,0,0,0,0,0,0,0,-1,1469,1821,0,0
252,-797,0,0,0,0,0,0,0,0,0,-1,1476,1821,0,0
259,-797,0,0,0,0,0,0,0,0,0,-1,1483,1821,0,0
266,-797,0,0,0,0,0,0,0,0,0,-1,1490,1821,0,0
273,-797,0,0,0,0,0,0,0,0,0,-1,1497,1821,0,0
280,-797,0,0,0,0,0,0,0,0,0,-1,1504,1821,0,0
287,-797,0,0,0,0,0,0,0,0,0,-1,1511,1821,0,0
294,-797,0,0,0,0,0,0,0,0,0,-1,1518,1821,0,0
301,-797,0,0,0,0,0,0,0,0,0,-1,1525,1821,0,0
308,-797,0,0,0,0,0,0,0,0,0,-1,1532,1821,0,0
315,-797,0,0,0,0,0,0,0,0,0,-1,1539,1821,0,0
322,-797,0,0,0,0,0,0,0,0,0,-1,1546,1821,0,0
329,-797,0,0,0,0,0,0,0,0,0,-1,1553,1821,0,0
336,-797,0,0,0,0,0,0,0,0,0,-1,1560,1821,0,0
343,-797,0,0,0,0,0,0,0,0,0,-1,1567,1821,0,0
350,-797,0,0,0,0,0,0,0,0,0,-1,1574,1821,0,0
357,-797,0,0,0,0,0,0,0,0,0,-1,1581,1821,0,0
364,-797,0,0,0,0,0,0,0,0,0,-1,1588,1821,0,0
371,-797,0,0,0,0,0,0,0,0,0,-1,1595,1821,0,0
378,-797,0,0,0,0,0,0,0,0,0,-1,1602,1821,0,0
385,-797,0,0,0,0,0,0,0,0,0,-1,1609,1821,0,0
392,-797,0,0,0,0,0,0,0,0,0,-1,1616,1821,0,0
399,-797,0,0,0,0,0,0,0,0,0,-1,1623,1821,0,0
406,-797,0,0,0,0,0,0,0,0,0,-1,1630,1821,0,0
413,-797,0,0,0,0,0,0,0,0,0,-1,1637,1821,0,0
420,-797,0,0,0,0,0,0,0,0,0,-1,1644,1821,0,0
427,-797,0,0,0,0,0,0,0,0,0,-1,1651,1821,0,0
434,-797,0,0,0,0,0,0,0,0,0,-1,1658,1821,0,0
441,-797,0,0,0,0,0,0,0,0,0,-1,1665,1821,0,0
448,-797,0,0,0,0,0,0,0,0,0,-1,1672,1821,0,0
455,-797,0,0,0,0,0,0,0,0,0,-1,1679,1821,0,0
462,-797,0,0,0,0,0,0,0,0,0,-1,1686,1821,0,0
469,-797,0,0,0,0,0,0,0,0,0,-1,1693,1821,0,0
476,-797,0,0,0,0,0,0,0,0,0,-1,1700,1821,0,0
483,-797,0,0,0,0,0,0,0,0,0,-1,1707,1821,0,0
490,-797,0,0,0,0,0,0,0,0,0,-1,1714,1821,0,0
497,-797,0,0,0,0,0,0,0,0,0,-1,1721,1821,0,0
504,-797,0,0,0,0,0,0,0,0,0,-1,1728,1821,0,0
511,-797,0,0,0,0,0,0,0,0,0,-1,1735,1821,0,0
518,-797,0,0,0,0,0,0,0,0,0,-1,1742,1821,0,0
525,-797,0,0,0,0,0,0,0,0,0,-1,1749,1821,0,0
532,-797,0,0,0,0,0,0,0,0,0,-1,1756,1821,0,0
539,-797,0,0,0,0,0,0,0,0,0,-1,1763,1821,0,0
546,-797,0,0,0,0,0,0,0,0,0,-1,1770,1821,0,0
553,-797,0,0,0,0,0,0,0,0,0,-1,1777,1821,0,0
560,-797,0,0,0,0,0,0,0,0,0,-1,1784,1821,0,0
567,-797,0,0,0,0,0,0,0,0,0,-1,1791,1821,0,0
574,-797,0,0,0,0,0,0,0,0,0,-1,1798,1821,0,0
581,-797,0,0,0,0,0,0,0,0,0,-1,1805,1821,0,0
588,-797,0,0,0,0,0,0,0,0,0,-1,1812,1821,0,0
595,-797,0,0,0,0,0,0,0,0,0,-1,1819,1821,0,0
602,-797,0,0,0,0,0,0,0,0,0,-1,1826,1821,0,0
609,-797,0,0,0,0,0,0,0,0,0,-1,1833,1821,0,0
616,-797,0,0,0,0,0,0,0,0,0,-1,1840,1821,0,0
623,-797,0,0,0,0,0,0,0,0,0,-1,1847,1821,0,0
630,-797,0,0,0,0,0,0,0,0,0,-1,1854,1821,0,0
637,-797,0,0,0,0,0,0,0,0,0,-1,1861,1821,0,0
644,-797,0,0,0,0,0,0,0,0,0,-1,1868,1821,0,0
651,-797,0,0,0,0,0,0,0,0,0,-1,1875,1821,0,0
658,-797,0,0,0,0,0,0,0,0,0,-1,1882,1821,0,0
665,-797,0,0,0,0,0,0,0,0,0,-1,1889,1821,0,0
672,-797,0,0,0,0,0,0,0,0,0,-1,1896,1821,0,0
679,-797,0,0,0,0,0,0,0,0,0,-1,1903,1821,0,0
686,-797,0,0,0,0,0,0,0,0,0,-1,1910,1821,0,0
693,-797,0,0,0,0,0,0,0,0,0,-1,1917,1821,0,0
700,-797,0,0,0,0,0,0,0,0,0,-1,1924,1821,0,0
707,-797,0,0,0,0,0,0,0,0,0,-1,1931,1821,0,0
714,-797,0,0,0,0,0,0,0,0,0,-1,1938,1821,0,0
721,-797,0,0,0,0,0,0,0,0,0,-1,1945,1821,0,0
728,-797,0,0,0,0,0,0,0,0,0,-1,1952,1821,0,0
735,-797,0,0,0,0,0,0,0,0,0,-1,1959,1821,0,0
742,-797,0,0,0,0,0,0,0,0,0,-1,1966,1821,0,0
749,-797,0,0,0,0,0,0,0,0,0,-1,1973,1821,0,0
756,-797,0,0,0,0,0,0,0,0,0,-1,1980,1821,0,0
763,-797,0,0,0,0,0,0,0,0,0,-1,1987,1821,0,0
770,-797,0,0,0,0,0,0,0,0,0,-1,1994,1821,0,0
777,-797,0,0,0,0,0,0,0,0,0,-1,2001,1821,0,0
784,-797,0,0,0,0,0,0,0,0,0,-1,2008,1821,0,0
791,-797,0,0,0,0,0,0,0,0,0,-1,2015,1821,0,0
798,-797,0,0,0,0,0,0,0,0,0,-1,2022,1821,0,0
805,-797,0,0,0,0,0,0,0,0,0,-1,2029,1821,0,0
812,-797,0,0,0,0,0,0,0,0,0,-1,2036,1821,0,0
-700,-804,0,0,0,0,0,0,0,0,0,-1,524,1828,0,0
-693,-804,0,0,0,0,0,0,0,0,0,-1,531,1828,0,0
-686,-804,0,0,0,0,0,0,0,0,0,-1,538,1828,0,0
-679,-804,0,0,0,0,0,0,0,0,0,-1,545,1828,0,0
-672,-804,0,0,0,0,0,0,0,0,0,-1,552,1828,0,0
-665,-804,0,0,0,0,0,0,0,0,0,-1,559,1828,0,0
-658,-804,0,0,0,0,0,0,0,0,0,-1,566,1828,0,0
-651,-804,0,0,0,0,0,0,0,0,0,-1,573,1828,0,0
-644,-804,0,0,0,0,0,0,0,0,0,-1,580,1828,0,0
-637,-804,0,0,0,0,0,0,0,0,0,-1,587,1828,0,0
-630,-804,0,0,0,0,0,0,0,0,0,-1,594,1828,0,0
-623,-804,0,0,0,0,0,0,0,0,0,-1,601,1828,0,0
-616,-804,0,0,0,0,0,0,0,0,0,-1,608,1828,0,0
-609,-804,0,0,0,0,0,0,0,0,0,-1,615,1828,0,0
-602,-804,0,0,0,0,0,0,0,0,0,-1,622,1828,0,0
-595,-804,0,0,0,0,0,0,0,0,0,-1,629,1828,0,0
-588,-804,0,0,0,0,0,0,0,0,0,-1,636,1828,0,0
-581,-804,0,0,0,0,0,0,0,0,0,-1,643,1828,0,0
-574,-804,0,0,0,0,0,0,0,0,0,-1,650,1828,0,0
-567,-804,0,0,0,0,0,0,0,0,0,-1,657,1828,0,0
-560,-804,0,0,0,0,0,0,0,0,0,-1,664,1828,0,0
-553,-804,0,0,0,0,0,0,0,0,0,-1,671,1828,0,0
-546,-804,0,0,0,0,0,0,0,0,0,-1,678,1828,0,0
-539,-804,0,0,0,0,0,0,0,0,0,-1,685,1828,0,0
-532,-804,0,0,0,0,0,0,0,0,0,-1,692,1828,0,0
-525,-804,0,0,0,0,0,0,0,0,0,-1,699,1828,0,0
-518,-804,0,0,0,0,0,0,0,0,0,-1,706,1828,0,0
-511,-804,0,0,0,0,0,0,0,0,0,-1,713,1828,0,0
-504,-804,0,0,0,0,0,0,0,0,0,-1,720,1828,0,0
-497,-804,0,0,0,0,0,0,0,0,0,-1,727,1828,0,0
-490,-804,0,0,0,0,0,0,0,0,0,-1,734,1828,0,0
-483,-804,0,0,0,0,0,0,0,0,0,-1,741,1828,0,0
-476,-804,0,0,0,0,0,0,0,0,0,-1,748,1828,0,0
-469,-804,0,0,0,0,0,0,0,0,0,-1,755,1828,0,0
-462,-804,0,0,0,0,0,0,0,0,0,-1,762,1828,0,0
-455,-804,0,0,0,0,0,0,0,0,0,-1,769,1828,0,0
-448,-804,0,0,0,0,0,0,0,0,0,-1,776,1828,0,0
-441,-804,0,0,0,0,0,0,0,0,0,-1,783,1828,0,0
-434,-804,0,0,0,0,0,0,0,0,0,-1,790,1828,0,0
-427,-804,0,0,0,0,0,0,0,0,0,-1,797,1828,0,0
-420,-804,0,0,0,0,0,0,0,0,0,-1,804,1828,0,0
-413,-804,0,0,0,0,0,0,0,0,0,-1,811,1828,0,0
-406,-804,0,0,0,0,0,0,0,0,0,-1,818,1828,0,0
-399,-804,0,0,0,0,0,0,0,0,0,-1,825,1828,0,0
-392,-804,0,0,0,0,0,0,0,0,0,-1,832,1828,0,0
-385,-804,0,0,0,0,0,0,0,0,0,-1,839,1828,0,0
-378,-804,0,0,0,0,0,0,0,0,0,-1,846,1828,0,0
-371,-804,0,0,0,0,0,0,0,0,0,-1,853,1828,0,0
-364,-804,0,0,0,0,0,0,0,0,0,-1,860,1828,0,0
-357,-804,0,0,0,0,0,0,0,0,0,-1,867,1828,0,0
-350,-804,0,0,0,0,0,0,0,0,0,-1,874,1828,0,0
-343,-804,0,0,0,0,0,0,0,0,0,-1,881,1828,0,0
-336,-804,0,0,0,0,0,0,0,0,0,-1,888,1828,0,0
-329,-804,0,0,0,0,0,0,0,0,0,-1,895,1828,0,0
-322,-804,0,0,0,0,0,0,0,0,0,-1,902,1828,0,0
-315,-804,0,0,0,0,0,0,0,0,0,-1,909,1828,0,0
-308,-804,0,0,0,0,0,0,0,0,0,-1,916,1828,0,0
-301,-804,0,0,0,0,0,0,0,0,0,-1,923,1828,0,0
-294,-804,0,0,0,0,0,0,0,0,0,-1,930,1828,0,0
-287,-804,0,0,0,0,0,0,0,0,0,-1,937,1828,0,0
-280,-804,0,0,0,0,0,0,0,0,0,-1,944,1828,0,0
-273,-804,0,0,0,0,0,0,0,0,0,-1,951,1828,0,0
-266,-804,0,0,0,0,0,0,0,0,0,-1,958,1828,0,0
-259,-804,0,0,0,0,0,0,0,0,0,-1,965,1828,0,0
-252,-804,0,0,0,0,0,0,0,0,0,-1,972,1828,0,0
-245,-804,0,0,0,0,0,0,0,0,0,-1,979,1828,0,0
-238,-804,0,0,0,0,0,0,0,0,0,-1,986,1828,0,0
-231,-804,0,0,0,0,0,0,0,0,0,-1,993,1828,0,0
-224,-804,0,0,0,0,0,0,0,0,0,-1,1000,1828,0,0
-217,-804,0,0,0,0,0,0,0,0,0,-1,1007,1828,0,0
-210,-804,0,0,0,0,0,0,0,0,0,-1,1014,1828,0,0
-203,-804,0,0,0,0,0,0,0,0,0,-1,1021,1828,0,0
-196,-804,0,0,0,0,0,0,0,0,0,-1,1028,1828,0,0
-189,-804,0,0,0,0,0,0,0,0,0,-1,1035,1828,0,0
-182,-804,0,0,0,0,0,0,0,0,0,-1,1042,1828,0,0
-175,-804,0,0,0,0,0,0,0,0,0,-1,1049,1828,0,0
-168,-804,0,0,0,0,0,0,0,0,0,-1,1056,1828,0,0
-161,-804,0,0,0,0,0,0,0,0,0,-1,1063,1828,0,0
-154,-804,0,0,0,0,0,0,0,0,0,-1,1070,1828,0,0
-147,-804,0,0,0,0,0,0,0,0,0,-1,1077,1828,0,0
-140,-804,0,0,0,0,0,0,0,0,0,-1,1084,1828,0,0
-133,-804,0,0,0,0,0,0,0,0,0,-1,1091,1828,0,0
-126,-804,0,0,0,0,0,0,0,0,0,-1,1098,1828,0,0
-119,-804,0,0,0,0,0,0,0,0,0,-1,1105,1828,0,0
-112,-804,0,0,0,0,0,0,0,0,0,-1,1112,1828,0,0
-105,-804,0,0,0,0,0,0,0,0,0,-1,1119,1828,0,0
-98,-804,0,0,0,0,0,0,0,0,0,-1,1126,1828,0,0
-91,-804,0,0,0,0,0,0,0,0,0,-1,1133,1828,0,0
-84,-804,0,0,0,0,0,0,0,0,0,-1,1140,1828,0,0
-77,-804,0,0,0,0,0,0,0,0,0,-1,1147,1828,0,0
-70,-804,0,0,0,0,0,0,0,0,0,-1,1154,1828,0,0
-63,-804,0,0,0,0,0,0,0,0,0,-1,1161,1828,0,0
-56,-804,0,0,0,0,0,0,0,0,0,-1,1168,1828,0,0
-49,-804,0,0,0,0,0,0,0,0,0,-1,1175,1828,0,0
-42,-804,0,0,0,0,0,0,0,0,0,-1,1182,1828,0,0
-35,-804,0,0,0,0,0,0,0,0,0,-1,1189,1828,0,0
-28,-804,0,0,0,0,0,0,0,0,0,-1,1196,1828,0,0
-21,-804,0,0,0,0,0,0,0,0,0,-1,1203,1828,0,0
-14,-804,0,0,0,0,0,0,0,0,0,-1,1210,1828,0,0
-7,-804,0,0,0,0,0,0,0,0,0,-1,1217,1828,0,0
0,-804,0,0,0,0,0,0,0,0,0,-1,1224,1828,0,0
7,-804,0,0,0,0,0,0,0,0,0,-1,1231,1828,0,0
14,-804,0,0,0,0,0,0,0,0,0,-1,1238,1828,0,0
21,-804,0,0,0,0,0,0,0,0,0,-1,1245,1828,0,0
28,-804,0,0,0,0,0,0,0,0,0,-1,1252,1828,0,0
35,-804,11.9686,47.2212,-0.00550749,-0.111989,-0.0581973,0.0201282,-0.137625,-0.414922,0.0991428,0.0454134,1259,1828,11.9686,-47.2211
42,-804,13.0726,48.8668,0,0,0,0,0,0,0,-1,1266,1828,13.0726,-48.8668
49,-804,12.7654,49.2332,-0.00538282,-0.10385,-0.0951833,0.0525463,-0.161779,-0.546723,0.128986,0.0464903,1273,1828,12.7653,-49.2331
56,-804,12.5768,49.6013,-0.00387213,-0.0911016,-0.116221,0.076648,-0.171622,-0.605892,0.146793,0.0455351,1280,1828,12.5768,-49.6013
63,-804,12.2933,49.9155,0.00245386,-0.0742843,-0.134797,0.104236,-0.176067,-0.646744,0.163595,0.0453129,1287,1828,12.2933,-49.9155
70,-804,11.8696,50.3938,0.0132038,-0.0561184,-0.149831,0.13233,-0.175245,-0.67173,0.178154,0.0456449,1294,1828,11.8696,-50.3939
77,-804,11.5293,50.5322,0.0250813,-0.0369025,-0.163977,0.160969,-0.17279,-0.691999,0.192737,0.0482685,1301,1828,11.5293,-50.5322
84,-804,6.58093,43.4053,0.0416573,-0.019665,-0.174778,0.188443,-0.16645,-0.698567,0.205029,0.0443715,1308,1828,6.58096,-43.4053
91,-804,0,0,0,0,0,0,0,0,0,-1,1315,1828,0,0
98,-804,0,0,0,0,0,0,0,0,0,-1,1322,1828,0,0
105,-804,0,0,0,0,0,0,0,0,0,-1,1329,1828,0,0
112,-804,0,0,0,0,0,0,0,0,0,-1,1336,1828,0,0
119,-804,0,0,0,0,0,0,0,0,0,-1,1343,1828,0,0
126,-804,0,0,0,0,0,0,0,0,0,-1,1350,1828,0,0
133,-804,0,0,0,0,0,0,0,0,0,-1,1357,1828,0,0
140,-804,0,0,0,0,0,0,0,0,0,-1,1364,1828,0,0
147,-804,0,0,0,0,0,0,0,0,0,-1,1371,1828,0,0
154,-804,0,0,0,0,0,0,0,0,0,-1,1378,1828,0,0
161,-804,0,0,0,0,0,0,0,0,0,-1,1385,1828,0,0
168,-804,0,0,0,0,0,0,0,0,0,-1,1392,1828,0,0
175,-804,0,0,0,0,0,0,0,0,0,-1,1399,1828,0,0
182,-804,0,0,0,0,0,0,0,0,0,-1,1406,1828,0,0
189,-804,0,0,0,0,0,0,0,0,0,-1,1413,1828,0,0
196,-804,0,0,0,0,0,0,0,0,0,-1,1420,1828,0,0
203,-804,0,0,0,0,0,0,0,0,0,-1,1427,1828,0,0
210,-804,0,0,0,0,0,0,0,0,0,-1,1434,1828,0,0
217,-804,0,0,0,0,0,0,0,0,0,-1,1441,1828,0,0
224,-804,0,0,0,0,0,0,0,0,0,-1,1448,1828,0,0
231,-804,0,0,0,0,0,0,0,0,0,-1,1455,1828,0,0
238,-804,0,0,0,0,0,0,0,0,0,-1,1462,1828,0,0
245,-804,0,0,0,0,0,0,0,0,0,-1,1469,1828,0,0
252,-804,0,0,0,0,0,0,0,0,0,-1,1476,1828,0,0
259,-804,0,0,0,0,0,0,0,0,0,-1,1483,1828,0,0
266,-804,0,0,0,0,0,0,0,0,0,-1,1490,1828,0,0
273,-804,0,0,0,0,0,0,0,0,0,-1,1497,1828,0,0
280,-804,0,0,0,0,0,0,0,0,0,-1,1504,1828,0,0
287,-804,0,0,0,0,0,0,0,0,0,-1,1511,1828,0,0
294,-804,0,0,0,0,0,0,0,0,0,-1,1518,1828,0,0
301,-804,0,0,0,0,0,0,0,0,0,-1,1525,1828,0,0
308,-804,0,0,0,0,0,0,0,0,0,-1,1532,1828,0,0
315,-804,0,0,0,0,0,0,0,0,0,-1,1539,1828,0,0
322,-804,0,0,0,0,0,0,0,0,0,-1,1546,1828,0,0
329,-804,0,0,0,0,0,0,0,0,0,-1,1553,1828,0,0
336,-804,0,0,0,0,0,0,0,0,0,-1,1560,1828,0,0
343,-804,0,0,0,0,0,0,0,0,0,-1,1567,1828,0,0
350,-804,0,0,0,0,0,0,0,0,0,-1,1574,1828,0,0
357,-804,0,0,0,0,0,0,0,0,0,-1,1581,1828,0,0
364,-804,0,0,0,0,0,0,0,0,0,-1,1588,1828,0,0
371,-804,0,0,0,0,0,0,0,0,0,-1,1595,1828,0,0
378,-804,0,0,0,0,0,0,0,0,0,-1,1602,1828,0,0
385,-804,0,0,0,0,0,0,0,0,0,-1,1609,1828,0,0
392,-804,0,0,0,0,0,0,0,0,0,-1,1616,1828,0,0
399,-804,0,0,0,0,0,0,0,0,0,-1,1623,1828,0,0
406,-804,0,0,0,0,0,0,0,0,0,-1,1630,1828,0,0
413,-804,0,0,0,0,0,0,0,0,0,-1,1637,1828,0,0
420,-804,0,0,0,0,0,0,0,0,0,-1,1644,1828,0,0
427,-804,0,0,0,0,0,0,0,0,0,-1,1651,1828,0,0
434,-804,0,0,0,0,0,0,0,0,0,-1,1658,1828,0,0
441,-804,0,0,0,0,0,0,0,0,0,-1,1665,1828,0,0
448,-804,0,0,0,0,0,0,0,0,0,-1,1672,1828,0,0
455,-804,0,0,0,0,0,0,0,0,0,-1,1679,1828,0,0
462,-804,0,0,0,0,0,0,0,0,0,-1,1686,1828,0,0
469,-804,0,0,0,0,0,0,0,0,0,-1,1693,1828,0,0
476,-804,0,0,0,0,0,0,0,0,0,-1,1700,1828,0,0
483,-804,0,0,0,0,0,0,0,0,0,-1,1707,1828,0,0
490,-804,0,0,0,0,0,0,0,0,0,-1,1714,1828,0,0
497,-804,0,0,0,0,0,0,0,0,0,-1,1721,1828,0,0
504,-804,0,0,0,0,0,0,0,0,0,-1,1728,1828,0,0
511,-804,0,0,0,0,0,0,0,0,0,-1,1735,1828,0,0
518,-804,0,0,0,0,0,0,0,0,0,-1,1742,1828,0,0
525,-804,0,0,0,0,0,0,0,0,0,-1,1749,1828,0,0
532,-804,0,0,0,0,0,0,0,0,0,-1,1756,1828,0,0
539,-804,0,0,0,0,0,0,0,0,0,-1,1763,1828,0,0
546,-804,0,0,0,0,0,0,0,0,0,-1,1770,1828,0,0
553,-804,0,0,0,0,0,0,0,0,0,-1,1777,1828,0,0
560,-804,0,0,0,0,0,0,0,0,0,-1,1784,1828,0,0
567,-804,0,0,0,0,0,0,0,0,0,-1,1791,1828,0,0
574,-804,0,0,0,0,0,0,0,0,0,-1,1798,1828,0,0
581,-804,0,0,0,0,0,0,0,0,0,-1,1805,1828,0,0
588,-804,0,0,0,0,0,0,0,0,0,-1,1812,1828,0,0
595,-804,0,0,0,0,0,0,0,0,0,-1,1819,1828,0,0
602,-804,0,0,0,0,0,0,0,0,0,-1,1826,1828,0,0
609,-804,0,0,0,0,0,0,0,0,0,-1,1833,1828,0,0
616,-804,0,0,0,0,0,0,0,0,0,-1,1840,1828,0,0
623,-804,0,0,0,0,0,0,0,0,0,-1,1847,1828,0,0
630,-804,0,0,0,0,0,0,0,0,0,-1,1854,1828,0,0
637,-804,0,0,0,0,0,0,0,0,0,-1,1861,1828,0,0
644,-804,0,0,0,0,0,0,0,0,0,-1,1868,1828,0,0
651,-804,0,0,0,0,0,0,0,0,0,-1,1875,1828,0,0
658,-804,0,0,0,0,0,0,0,0,0,-1,1882,1828,0,0
665,-804,0,0,0,0,0,0,0,0,0,-1,1889,1828,0,0
672,-804,0,0,0,0,0,0,0,0,0,-1,1896,1828,0,0
679,-804,0,0,0,0,0,0,0,0,0,-1,1903,1828,0,0
686,-804,0,0,0,0,0,0,0,0,0,-1,1910,1828,0,0
693,-804,0,0,0,0,0,0,0,0,0,-1,1917,1828,0,0
700,-804,0,0,0,0,0,0,0,0,0,-1,1924,1828,0,0
707,-804,0,0,0,0,0,0,0,0,0,-1,1931,1828,0,0
714,-804,0,0,0,0,0,0,0,0,0,-1,1938,1828,0,0
721,-804,0,0,0,0,0,0,0,0,0,-1,1945,1828,0,0
728,-804,0,0,0,0,0,0,0,0,0,-1,1952,1828,0,0
735,-804,0,0,0,0,0,0,0,0,0,-1,1959,1828,0,0
742,-804,0,0,0,0,0,0,0,0,0,-1,1966,1828,0,0
749,-804,0,0,0,0,0,0,0,0,0,-1,1973,1828,0,0
756,-804,0,0,0,0,0,0,0,0,0,-1,1980,1828,0,0
763,-804,0,0,0,0,0,0,0,0,0,-1,1987,1828,0,0
770,-804,0,0,0,0,0,0,0,0,0,-1,1994,1828,0,0
777,-804,0,0,0,0,0,0,0,0,0,-1,2001,1828,0,0
784,-804,0,0,0,0,0,0,0,0,0,-1,2008,1828,0,0
791,-804,0,0,0,0,0,0,0,0,0,-1,2015,1828,0,0
798,-804,0,0,0,0,0,0,0,0,0,-1,2022,1828,0,0
805,-804,0,0,0,0,0,0,0,0,0,-1,2029,1828,0,0
812,-804,0,0,0,0,0,0,0,0,0,-1,2036,1828,0,0

