 "x_c",  "y_c",  "u_c",  "v_c",  "exx",  "eyy",  "exy",  "e1",  "e2",  "gamma",  "e_vonmises",  "sigma",  "x",  "y",  "u",  "v"
-700,715,0,0,0,0,0,0,0,0,0,-1,524,309,0,0
-693,715,0,0,0,0,0,0,0,0,0,-1,531,309,0,0
-686,715,0,0,0,0,0,0,0,0,0,-1,538,309,0,0
-679,715,0,0,0,0,0,0,0,0,0,-1,545,309,0,0
-672,715,0,0,0,0,0,0,0,0,0,-1,552,309,0,0
-665,715,0,0,0,0,0,0,0,0,0,-1,559,309,0,0
-658,715,0,0,0,0,0,0,0,0,0,-1,566,309,0,0
-651,715,0,0,0,0,0,0,0,0,0,-1,573,309,0,0
-644,715,0,0,0,0,0,0,0,0,0,-1,580,309,0,0
-637,715,0,0,0,0,0,0,0,0,0,-1,587,309,0,0
-630,715,0,0,0,0,0,0,0,0,0,-1,594,309,0,0
-623,715,0,0,0,0,0,0,0,0,0,-1,601,309,0,0
-616,715,0,0,0,0,0,0,0,0,0,-1,608,309,0,0
-609,715,0,0,0,0,0,0,0,0,0,-1,615,309,0,0
-602,715,0,0,0,0,0,0,0,0,0,-1,622,309,0,0
-595,715,0,0,0,0,0,0,0,0,0,-1,629,309,0,0
-588,715,0,0,0,0,0,0,0,0,0,-1,636,309,0,0
-581,715,0,0,0,0,0,0,0,0,0,-1,643,309,0,0
-574,715,0,0,0,0,0,0,0,0,0,-1,650,309,0,0
-567,715,0,0,0,0,0,0,0,0,0,-1,657,309,0,0
-560,715,0,0,0,0,0,0,0,0,0,-1,664,309,0,0
-553,715,0,0,0,0,0,0,0,0,0,-1,671,309,0,0
-546,715,0,0,0,0,0,0,0,0,0,-1,678,309,0,0
-539,715,0,0,0,0,0,0,0,0,0,-1,685,309,0,0
-532,715,0,0,0,0,0,0,0,0,0,-1,692,309,0,0
-525,715,0,0,0,0,0,0,0,0,0,-1,699,309,0,0
-518,715,0,0,0,0,0,0,0,0,0,-1,706,309,0,0
-511,715,0,0,0,0,0,0,0,0,0,-1,713,309,0,0
-504,715,0,0,0,0,0,0,0,0,0,-1,720,309,0,0
-497,715,0,0,0,0,0,0,0,0,0,-1,727,309,0,0
-490,715,0,0,0,0,0,0,0,0,0,-1,734,309,0,0
-483,715,0,0,0,0,0,0,0,0,0,-1,741,309,0,0
-476,715,0,0,0,0,0,0,0,0,0,-1,748,309,0,0
-469,715,0,0,0,0,0,0,0,0,0,-1,755,309,0,0
-462,715,0,0,0,0,0,0,0,0,0,-1,762,309,0,0
-455,715,0,0,0,0,0,0,0,0,0,-1,769,309,0,0
-448,715,0,0,0,0,0,0,0,0,0,-1,776,309,0,0
-441,715,0,0,0,0,0,0,0,0,0,-1,783,309,0,0
-434,715,0,0,0,0,0,0,0,0,0,-1,790,309,0,0
-427,715,0,0,0,0,0,0,0,0,0,-1,797,309,0,0
-420,715,0,0,0,0,0,0,0,0,0,-1,804,309,0,0
-413,715,0,0,0,0,0,0,0,0,0,-1,811,309,0,0
-406,715,0,0,0,0,0,0,0,0,0,-1,818,309,0,0
-399,715,0,0,0,0,0,0,0,0,0,-1,825,309,0,0
-392,715,0,0,0,0,0,0,0,0,0,-1,832,309,0,0
-385,715,0,0,0,0,0,0,0,0,0,-1,839,309,0,0
-378,715,0,0,0,0,0,0,0,0,0,-1,846,309,0,0
-371,715,0,0,0,0,0,0,0,0,0,-1,853,309,0,0
-364,715,0,0,0,0,0,0,0,0,0,-1,860,309,0,0
-357,715,0,0,0,0,0,0,0,0,0,-1,867,309,0,0
-350,715,0,0,0,0,0,0,0,0,0,-1,874,309,0,0
-343,715,0,0,0,0,0,0,0,0,0,-1,881,309,0,0
-336,715,0,0,0,0,0,0,0,0,0,-1,888,309,0,0
-329,715,0,0,0,0,0,0,0,0,0,-1,895,309,0,0
-322,715,0,0,0,0,0,0,0,0,0,-1,902,309,0,0
-315,715,0,0,0,0,0,0,0,0,0,-1,909,309,0,0
-308,715,0,0,0,0,0,0,0,0,0,-1,916,309,0,0
-301,715,0,0,0,0,0,0,0,0,0,-1,923,309,0,0
-294,715,0,0,0,0,0,0,0,0,0,-1,930,309,0,0
-287,715,0,0,0,0,0,0,0,0,0,-1,937,309,0,0
-280,715,0,0,0,0,0,0,0,0,0,-1,944,309,0,0
-273,715,0,0,0,0,0,0,0,0,0,-1,951,309,0,0
-266,715,0,0,0,0,0,0,0,0,0,-1,958,309,0,0
-259,715,0,0,0,0,0,0,0,0,0,-1,965,309,0,0
-252,715,0,0,0,0,0,0,0,0,0,-1,972,309,0,0
-245,715,0,0,0,0,0,0,0,0,0,-1,979,309,0,0
-238,715,0,0,0,0,0,0,0,0,0,-1,986,309,0,0
-231,715,0,0,0,0,0,0,0,0,0,-1,993,309,0,0
-224,715,0,0,0,0,0,0,0,0,0,-1,1000,309,0,0
-217,715,0,0,0,0,0,0,0,0,0,-1,1007,309,0,0
-210,715,0,0,0,0,0,0,0,0,0,-1,1014,309,0,0
-203,715,0,0,0,0,0,0,0,0,0,-1,1021,309,0,0
-196,715,0,0,0,0,0,0,0,0,0,-1,1028,309,0,0
-189,715,0,0,0,0,0,0,0,0,0,-1,1035,309,0,0
-182,715,0,0,0,0,0,0,0,0,0,-1,1042,309,0,0
-175,715,0,0,0,0,0,0,0,0,0,-1,1049,309,0,0
-168,715,0,0,0,0,0,0,0,0,0,-1,1056,309,0,0
-161,715,0,0,0,0,0,0,0,0,0,-1,1063,309,0,0
-154,715,0,0,0,0,0,0,0,0,0,-1,1070,309,0,0
-147,715,0,0,0,0,0,0,0,0,0,-1,1077,309,0,0
-140,715,0,0,0,0,0,0,0,0,0,-1,1084,309,0,0
-133,715,0,0,0,0,0,0,0,0,0,-1,1091,309,0,0
-126,715,0,0,0,0,0,0,0,0,0,-1,1098,309,0,0
-119,715,0,0,0,0,0,0,0,0,0,-1,1105,309,0,0
-112,715,0,0,0,0,0,0,0,0,0,-1,1112,309,0,0
-105,715,0,0,0,0,0,0,0,0,0,-1,1119,309,0,0
-98,715,0,0,0,0,0,0,0,0,0,-1,1126,309,0,0
-91,715,0,0,0,0,0,0,0,0,0,-1,1133,309,0,0
-84,715,0,0,0,0,0,0,0,0,0,-1,1140,309,0,0
-77,715,0,0,0,0,0,0,0,0,0,-1,1147,309,0,0
-70,715,0,0,0,0,0,0,0,0,0,-1,1154,309,0,0
-63,715,0,0,0,0,0,0,0,0,0,-1,1161,309,0,0
-56,715,0,0,0,0,0,0,0,0,0,-1,1168,309,0,0
-49,715,0,0,0,0,0,0,0,0,0,-1,1175,309,0,0
-42,715,0,0,0,0,0,0,0,0,0,-1,1182,309,0,0
-35,715,0,0,0,0,0,0,0,0,0,-1,1189,309,0,0
-28,715,0,0,0,0,0,0,0,0,0,-1,1196,309,0,0
-21,715,0,0,0,0,0,0,0,0,0,-1,1203,309,0,0
-14,715,0,0,0,0,0,0,0,0,0,-1,1210,309,0,0
-7,715,0,0,0,0,0,0,0,0,0,-1,1217,309,0,0
0,715,0,0,0,0,0,0,0,0,0,-1,1224,309,0,0
7,715,0,0,0,0,0,0,0,0,0,-1,1231,309,0,0
14,715,0,0,0,0,0,0,0,0,0,-1,1238,309,0,0
21,715,0,0,0,0,0,0,0,0,0,-1,1245,309,0,0
28,715,0,0,0,0,0,0,0,0,0,-1,1252,309,0,0
35,715,0,0,0,0,0,0,0,0,0,-1,1259,309,0,0
42,715,0,0,0,0,0,0,0,0,0,-1,1266,309,0,0
49,715,0,0,0,0,0,0,0,0,0,-1,1273,309,0,0
56,715,0,0,0,0,0,0,0,0,0,-1,1280,309,0,0
63,715,-0.552002,-13.2677,-0.0543152,0.158892,0.0585327,0.173904,-0.0693274,1.31973,0.144692,0.0443927,1287,309,-0.551956,13.2677
70,715,-1.09302,-12.8023,-0.0290647,0.173184,0.0467058,0.183449,-0.0393296,1.35446,0.1373,0.0433723,1294,309,-1.09297,12.8023
77,715,0,0,0,0,0,0,0,0,0,-1,1301,309,0,0
84,715,0,0,0,0,0,0,0,0,0,-1,1308,309,0,0
91,715,0,0,0,0,0,0,0,0,0,-1,1315,309,0,0
98,715,0,0,0,0,0,0,0,0,0,-1,1322,309,0,0
105,715,0,0,0,0,0,0,0,0,0,-1,1329,309,0,0
112,715,0,0,0,0,0,0,0,0,0,-1,1336,309,0,0
119,715,0,0,0,0,0,0,0,0,0,-1,1343,309,0,0
126,715,0,0,0,0,0,0,0,0,0,-1,1350,309,0,0
133,715,0,0,0,0,0,0,0,0,0,-1,1357,309,0,0
140,715,0,0,0,0,0,0,0,0,0,-1,1364,309,0,0
147,715,0,0,0,0,0,0,0,0,0,-1,1371,309,0,0
154,715,0,0,0,0,0,0,0,0,0,-1,1378,309,0,0
161,715,0,0,0,0,0,0,0,0,0,-1,1385,309,0,0
168,715,0,0,0,0,0,0,0,0,0,-1,1392,309,0,0
175,715,0,0,0,0,0,0,0,0,0,-1,1399,309,0,0
182,715,0,0,0,0,0,0,0,0,0,-1,1406,309,0,0
189,715,0,0,0,0,0,0,0,0,0,-1,1413,309,0,0
196,715,0,0,0,0,0,0,0,0,0,-1,1420,309,0,0
203,715,0,0,0,0,0,0,0,0,0,-1,1427,309,0,0
210,715,0,0,0,0,0,0,0,0,0,-1,1434,309,0,0
217,715,0,0,0,0,0,0,0,0,0,-1,1441,309,0,0
224,715,0,0,0,0,0,0,0,0,0,-1,1448,309,0,0
231,715,0,0,0,0,0,0,0,0,0,-1,1455,309,0,0
238,715,0,0,0,0,0,0,0,0,0,-1,1462,309,0,0
245,715,0,0,0,0,0,0,0,0,0,-1,1469,309,0,0
252,715,0,0,0,0,0,0,0,0,0,-1,1476,309,0,0
259,715,0,0,0,0,0,0,0,0,0,-1,1483,309,0,0
266,715,0,0,0,0,0,0,0,0,0,-1,1490,309,0,0
273,715,0,0,0,0,0,0,0,0,0,-1,1497,309,0,0
280,715,0,0,0,0,0,0,0,0,0,-1,1504,309,0,0
287,715,0,0,0,0,0,0,0,0,0,-1,1511,309,0,0
294,715,0,0,0,0,0,0,0,0,0,-1,1518,309,0,0
301,715,0,0,0,0,0,0,0,0,0,-1,1525,309,0,0
308,715,0,0,0,0,0,0,0,0,0,-1,1532,309,0,0
315,715,0,0,0,0,0,0,0,0,0,-1,1539,309,0,0
322,715,0,0,0,0,0,0,0,0,0,-1,1546,309,0,0
329,715,0,0,0,0,0,0,0,0,0,-1,1553,309,0,0
336,715,0,0,0,0,0,0,0,0,0,-1,1560,309,0,0
343,715,0,0,0,0,0,0,0,0,0,-1,1567,309,0,0
350,715,0,0,0,0,0,0,0,0,0,-1,1574,309,0,0
357,715,0,0,0,0,0,0,0,0,0,-1,1581,309,0,0
364,715,0,0,0,0,0,0,0,0,0,-1,1588,309,0,0
371,715,0,0,0,0,0,0,0,0,0,-1,1595,309,0,0
378,715,0,0,0,0,0,0,0,0,0,-1,1602,309,0,0
385,715,0,0,0,0,0,0,0,0,0,-1,1609,309,0,0
392,715,0,0,0,0,0,0,0,0,0,-1,1616,309,0,0
399,715,0,0,0,0,0,0,0,0,0,-1,1623,309,0,0
406,715,0,0,0,0,0,0,0,0,0,-1,1630,309,0,0
413,715,0,0,0,0,0,0,0,0,0,-1,1637,309,0,0
420,715,0,0,0,0,0,0,0,0,0,-1,1644,309,0,0
427,715,0,0,0,0,0,0,0,0,0,-1,1651,309,0,0
434,715,0,0,0,0,0,0,0,0,0,-1,1658,309,0,0
441,715,0,0,0,0,0,0,0,0,0,-1,1665,309,0,0
448,715,0,0,0,0,0,0,0,0,0,-1,1672,309,0,0
455,715,0,0,0,0,0,0,0,0,0,-1,1679,309,0,0
462,715,0,0,0,0,0,0,0,0,0,-1,1686,309,0,0
469,715,0,0,0,0,0,0,0,0,0,-1,1693,309,0,0
476,715,0,0,0,0,0,0,0,0,0,-1,1700,309,0,0
483,715,0,0,0,0,0,0,0,0,0,-1,1707,309,0,0
490,715,0,0,0,0,0,0,0,0,0,-1,1714,309,0,0
497,715,0,0,0,0,0,0,0,0,0,-1,1721,309,0,0
504,715,0,0,0,0,0,0,0,0,0,-1,1728,309,0,0
511,715,0,0,0,0,0,0,0,0,0,-1,1735,309,0,0
518,715,0,0,0,0,0,0,0,0,0,-1,1742,309,0,0
525,715,0,0,0,0,0,0,0,0,0,-1,1749,309,0,0
532,715,0,0,0,0,0,0,0,0,0,-1,1756,309,0,0
539,715,0,0,0,0,0,0,0,0,0,-1,1763,309,0,0
546,715,0,0,0,0,0,0,0,0,0,-1,1770,309,0,0
553,715,0,0,0,0,0,0,0,0,0,-1,1777,309,0,0
560,715,0,0,0,0,0,0,0,0,0,-1,1784,309,0,0
567,715,0,0,0,0,0,0,0,0,0,-1,1791,309,0,0
574,715,0,0,0,0,0,0,0,0,0,-1,1798,309,0,0
581,715,0,0,0,0,0,0,0,0,0,-1,1805,309,0,0
588,715,0,0,0,0,0,0,0,0,0,-1,1812,309,0,0
595,715,0,0,0,0,0,0,0,0,0,-1,1819,309,0,0
602,715,0,0,0,0,0,0,0,0,0,-1,1826,309,0,0
609,715,0,0,0,0,0,0,0,0,0,-1,1833,309,0,0
616,715,0,0,0,0,0,0,0,0,0,-1,1840,309,0,0
623,715,0,0,0,0,0,0,0,0,0,-1,1847,309,0,0
630,715,0,0,0,0,0,0,0,0,0,-1,1854,309,0,0
637,715,0,0,0,0,0,0,0,0,0,-1,1861,309,0,0
644,715,0,0,0,0,0,0,0,0,0,-1,1868,309,0,0
651,715,0,0,0,0,0,0,0,0,0,-1,1875,309,0,0
658,715,0,0,0,0,0,0,0,0,0,-1,1882,309,0,0
665,715,0,0,0,0,0,0,0,0,0,-1,1889,309,0,0
672,715,0,0,0,0,0,0,0,0,0,-1,1896,309,0,0
679,715,0,0,0,0,0,0,0,0,0,-1,1903,309,0,0
686,715,0,0,0,0,0,0,0,0,0,-1,1910,309,0,0
693,715,0,0,0,0,0,0,0,0,0,-1,1917,309,0,0
700,715,0,0,0,0,0,0,0,0,0,-1,1924,309,0,0
707,715,0,0,0,0,0,0,0,0,0,-1,1931,309,0,0
714,715,0,0,0,0,0,0,0,0,0,-1,1938,309,0,0
721,715,0,0,0,0,0,0,0,0,0,-1,1945,309,0,0
728,715,0,0,0,0,0,0,0,0,0,-1,1952,309,0,0
735,715,0,0,0,0,0,0,0,0,0,-1,1959,309,0,0
742,715,0,0,0,0,0,0,0,0,0,-1,1966,309,0,0
749,715,0,0,0,0,0,0,0,0,0,-1,1973,309,0,0
756,715,0,0,0,0,0,0,0,0,0,-1,1980,309,0,0
763,715,0,0,0,0,0,0,0,0,0,-1,1987,309,0,0
770,715,0,0,0,0,0,0,0,0,0,-1,1994,309,0,0
777,715,0,0,0,0,0,0,0,0,0,-1,2001,309,0,0
784,715,0,0,0,0,0,0,0,0,0,-1,2008,309,0,0
791,715,0,0,0,0,0,0,0,0,0,-1,2015,309,0,0
798,715,0,0,0,0,0,0,0,0,0,-1,2022,309,0,0
805,715,0,0,0,0,0,0,0,0,0,-1,2029,309,0,0
812,715,0,0,0,0,0,0,0,0,0,-1,2036,309,0,0
-700,708,0,0,0,0,0,0,0,0,0,-1,524,316,0,0
-693,708,0,0,0,0,0,0,0,0,0,-1,531,316,0,0
-686,708,0,0,0,0,0,0,0,0,0,-1,538,316,0,0
-679,708,0,0,0,0,0,0,0,0,0,-1,545,316,0,0
-672,708,0,0,0,0,0,0,0,0,0,-1,552,316,0,0
-665,708,0,0,0,0,0,0,0,0,0,-1,559,316,0,0
-658,708,0,0,0,0,0,0,0,0,0,-1,566,316,0,0
-651,708,0,0,0,0,0,0,0,0,0,-1,573,316,0,0
-644,708,0,0,0,0,0,0,0,0,0,-1,580,316,0,0
-637,708,0,0,0,0,0,0,0,0,0,-1,587,316,0,0
-630,708,0,0,0,0,0,0,0,0,0,-1,594,316,0,0
-623,708,0,0,0,0,0,0,0,0,0,-1,601,316,0,0
-616,708,0,0,0,0,0,0,0,0,0,-1,608,316,0,0
-609,708,0,0,0,0,0,0,0,0,0,-1,615,316,0,0
-602,708,0,0,0,0,0,0,0,0,0,-1,622,316,0,0
-595,708,0,0,0,0,0,0,0,0,0,-1,629,316,0,0
-588,708,0,0,0,0,0,0,0,0,0,-1,636,316,0,0
-581,708,0,0,0,0,0,0,0,0,0,-1,643,316,0,0
-574,708,0,0,0,0,0,0,0,0,0,-1,650,316,0,0
-567,708,0,0,0,0,0,0,0,0,0,-1,657,316,0,0
-560,708,0,0,0,0,0,0,0,0,0,-1,664,316,0,0
-553,708,0,0,0,0,0,0,0,0,0,-1,671,316,0,0
-546,708,0,0,0,0,0,0,0,0,0,-1,678,316,0,0
-539,708,0,0,0,0,0,0,0,0,0,-1,685,316,0,0
-532,708,0,0,0,0,0,0,0,0,0,-1,692,316,0,0
-525,708,0,0,0,0,0,0,0,0,0,-1,699,316,0,0
-518,708,0,0,0,0,0,0,0,0,0,-1,706,316,0,0
-511,708,0,0,0,0,0,0,0,0,0,-1,713,316,0,0
-504,708,0,0,0,0,0,0,0,0,0,-1,720,316,0,0
-497,708,0,0,0,0,0,0,0,0,0,-1,727,316,0,0
-490,708,0,0,0,0,0,0,0,0,0,-1,734,316,0,0
-483,708,0,0,0,0,0,0,0,0,0,-1,741,316,0,0
-476,708,0,0,0,0,0,0,0,0,0,-1,748,316,0,0
-469,708,0,0,0,0,0,0,0,0,0,-1,755,316,0,0
-462,708,0,0,0,0,0,0,0,0,0,-1,762,316,0,0
-455,708,0,0,0,0,0,0,0,0,0,-1,769,316,0,0
-448,708,0,0,0,0,0,0,0,0,0,-1,776,316,0,0
-441,708,0,0,0,0,0,0,0,0,0,-1,783,316,0,0
-434,708,0,0,0,0,0,0,0,0,0,-1,790,316,0,0
-427,708,0,0,0,0,0,0,0,0,0,-1,797,316,0,0
-420,708,0,0,0,0,0,0,0,0,0,-1,804,316,0,0
-413,708,0,0,0,0,0,0,0,0,0,-1,811,316,0,0
-406,708,0,0,0,0,0,0,0,0,0,-1,818,316,0,0
-399,708,0,0,0,0,0,0,0,0,0,-1,825,316,0,0
-392,708,0,0,0,0,0,0,0,0,0,-1,832,316,0,0
-385,708,0,0,0,0,0,0,0,0,0,-1,839,316,0,0
-378,708,0,0,0,0,0,0,0,0,0,-1,846,316,0,0
-371,708,0,0,0,0,0,0,0,0,0,-1,853,316,0,0
-364,708,0,0,0,0,0,0,0,0,0,-1,860,316,0,0
-357,708,0,0,0,0,0,0,0,0,0,-1,867,316,0,0
-350,708,0,0,0,0,0,0,0,0,0,-1,874,316,0,0
-343,708,0,0,0,0,0,0,0,0,0,-1,881,316,0,0
-336,708,0,0,0,0,0,0,0,0,0,-1,888,316,0,0
-329,708,0,0,0,0,0,0,0,0,0,-1,895,316,0,0
-322,708,0,0,0,0,0,0,0,0,0,-1,902,316,0,0
-315,708,0,0,0,0,0,0,0,0,0,-1,909,316,0,0
-308,708,0,0,0,0,0,0,0,0,0,-1,916,316,0,0
-301,708,0,0,0,0,0,0,0,0,0,-1,923,316,0,0
-294,708,0,0,0,0,0,0,0,0,0,-1,930,316,0,0
-287,708,0,0,0,0,0,0,0,0,0,-1,937,316,0,0
-280,708,0,0,0,0,0,0,0,0,0,-1,944,316,0,0
-273,708,0,0,0,0,0,0,0,0,0,-1,951,316,0,0
-266,708,0,0,0,0,0,0,0,0,0,-1,958,316,0,0
-259,708,0,0,0,0,0,0,0,0,0,-1,965,316,0,0
-252,708,0,0,0,0,0,0,0,0,0,-1,972,316,0,0
-245,708,0,0,0,0,0,0,0,0,0,-1,979,316,0,0
-238,708,0,0,0,0,0,0,0,0,0,-1,986,316,0,0
-231,708,0,0,0,0,0,0,0,0,0,-1,993,316,0,0
-224,708,0,0,0,0,0,0,0,0,0,-1,1000,316,0,0
-217,708,0,0,0,0,0,0,0,0,0,-1,1007,316,0,0
-210,708,0,0,0,0,0,0,0,0,0,-1,1014,316,0,0
-203,708,0,0,0,0,0,0,0,0,0,-1,1021,316,0,0
-196,708,0,0,0,0,0,0,0,0,0,-1,1028,316,0,0
-189,708,0,0,0,0,0,0,0,0,0,-1,1035,316,0,0
-182,708,0,0,0,0,0,0,0,0,0,-1,1042,316,0,0
-175,708,0,0,0,0,0,0,0,0,0,-1,1049,316,0,0
-168,708,0,0,0,0,0,0,0,0,0,-1,1056,316,0,0
-161,708,0,0,0,0,0,0,0,0,0,-1,1063,316,0,0
-154,708,0,0,0,0,0,0,0,0,0,-1,1070,316,0,0
-147,708,0,0,0,0,0,0,0,0,0,-1,1077,316,0,0
-140,708,0,0,0,0,0,0,0,0,0,-1,1084,316,0,0
-133,708,0,0,0,0,0,0,0,0,0,-1,1091,316,0,0
-126,708,0,0,0,0,0,0,0,0,0,-1,1098,316,0,0
-119,708,0,0,0,0,0,0,0,0,0,-1,1105,316,0,0
-112,708,0,0,0,0,0,0,0,0,0,-1,1112,316,0,0
-105,708,0,0,0,0,0,0,0,0,0,-1,1119,316,0,0
-98,708,0,0,0,0,0,0,0,0,0,-1,1126,316,0,0
-91,708,0,0,0,0,0,0,0,0,0,-1,1133,316,0,0
-84,708,0,0,0,0,0,0,0,0,0,-1,1140,316,0,0
-77,708,0,0,0,0,0,0,0,0,0,-1,1147,316,0,0
-70,708,0,0,0,0,0,0,0,0,0,-1,1154,316,0,0
-63,708,0,0,0,0,0,0,0,0,0,-1,1161,316,0,0
-56,708,0,0,0,0,0,0,0,0,0,-1,1168,316,0,0
-49,708,0,0,0,0,0,0,0,0,0,-1,1175,316,0,0
-42,708,0,0,0,0,0,0,0,0,0,-1,1182,316,0,0
-35,708,-2.71204,-6.31558,0,0,0,0,0,0,0,-1,1189,316,-2.712,6.3156
-28,708,-2.92371,-5.53253,0,0,0,0,0,0,0,-1,1196,316,-2.92375,5.53254
-21,708,-10.6349,-7.11816,0,0,0,0,0,0,0,-1,1203,316,-10.6349,7.11818
-14,708,-0.0513916,-14.2833,0,0,0,0,0,0,0,-1,1210,316,-0.0513879,14.2833
-7,708,1.1272,-21.1437,0,0,0,0,0,0,0,-1,1217,316,1.12718,21.1437
0,708,3.55713,-17.8549,0,0,0,0,0,0,0,-1,1224,316,3.55708,17.8549
7,708,4.07019,-17.8329,0,0,0,0,0,0,0,-1,1231,316,4.07015,17.8329
14,708,4.5968,-17.4344,0,0,0,0,0,0,0,-1,1238,316,4.5968,17.4344
21,708,2.65955,-17.4377,0,0,0,0,0,0,0,-1,1245,316,2.65958,17.4377
28,708,2.57166,-17.0671,-0.0427283,0.0593645,0.0537011,0.0824095,-0.0657734,1.16543,0.085733,0.0452949,1252,316,2.57164,17.0672
35,708,2.45557,-16.6849,-0.059658,0.0704879,0.0595055,0.0935932,-0.0827632,1.20043,0.101883,0.0463005,1259,316,2.45561,16.6849
42,708,2.35095,-16.1217,-0.0663795,0.0896194,0.0576167,0.108592,-0.0853522,1.25269,0.112241,0.0442036,1266,316,2.35089,16.1217
49,708,1.03052,-14.4831,0,0,0,0,0,0,0,-1,1273,316,1.03046,14.4831
56,708,-0.107666,-14.4664,-0.052695,0.131308,0.0447654,0.141621,-0.0630078,1.34437,0.121014,0.0415981,1280,316,-0.107667,14.4664
63,708,-1.21765,-14.1703,-0.0357255,0.148357,0.0343307,0.154551,-0.0419196,1.39229,0.119484,0.0452846,1287,316,-1.21766,14.1703
70,708,-1.91541,-13.8223,-0.0131683,0.158249,0.023073,0.1613,-0.0162196,1.43931,0.113328,0.0435842,1294,316,-1.9154,13.8223
77,708,-2.59814,-13.7073,0.0108159,0.160193,0.0131672,0.161345,0.00966413,1.48355,0.104491,0.0396822,1301,316,-2.5982,13.7073
84,708,-3.07092,-13.6481,0.0312872,0.154158,0.00571228,0.154423,0.0310222,1.52444,0.0943239,0.0413552,1308,316,-3.07097,13.6481
91,708,-3.5271,-13.7634,0,0,0,0,0,0,0,-1,1315,316,-3.52715,13.7634
98,708,-3.9635,-13.8896,0,0,0,0,0,0,0,-1,1322,316,-3.96356,13.8896
105,708,-4.448,-14.0291,0,0,0,0,0,0,0,-1,1329,316,-4.44795,14.0291
112,708,2.83765,-20.1702,0,0,0,0,0,0,0,-1,1336,316,2.83761,20.1702
119,708,2.62329,-19.6609,0,0,0,0,0,0,0,-1,1343,316,2.62325,19.6609
126,708,2.47791,-19.1254,0,0,0,0,0,0,0,-1,1350,316,2.47785,19.1254
133,708,2.28406,-18.5303,0,0,0,0,0,0,0,-1,1357,316,2.28411,18.5303
140,708,2.10022,-17.9557,0,0,0,0,0,0,0,-1,1364,316,2.10016,17.9558
147,708,1.32983,-16.7514,0,0,0,0,0,0,0,-1,1371,316,1.32982,16.7514
154,708,0,0,0,0,0,0,0,0,0,-1,1378,316,0,0
161,708,0,0,0,0,0,0,0,0,0,-1,1385,316,0,0
168,708,0,0,0,0,0,0,0,0,0,-1,1392,316,0,0
175,708,0,0,0,0,0,0,0,0,0,-1,1399,316,0,0
182,708,0,0,0,0,0,0,0,0,0,-1,1406,316,0,0
189,708,0,0,0,0,0,0,0,0,0,-1,1413,316,0,0
196,708,0,0,0,0,0,0,0,0,0,-1,1420,316,0,0
203,708,0,0,0,0,0,0,0,0,0,-1,1427,316,0,0
210,708,0,0,0,0,0,0,0,0,0,-1,1434,316,0,0
217,708,0,0,0,0,0,0,0,0,0,-1,1441,316,0,0
224,708,0,0,0,0,0,0,0,0,0,-1,1448,316,0,0
231,708,0,0,0,0,0,0,0,0,0,-1,1455,316,0,0
238,708,0,0,0,0,0,0,0,0,0,-1,1462,316,0,0
245,708,0,0,0,0,0,0,0,0,0,-1,1469,316,0,0
252,708,0,0,0,0,0,0,0,0,0,-1,1476,316,0,0
259,708,0,0,0,0,0,0,0,0,0,-1,1483,316,0,0
266,708,0,0,0,0,0,0,0,0,0,-1,1490,316,0,0
273,708,0,0,0,0,0,0,0,0,0,-1,1497,316,0,0
280,708,0,0,0,0,0,0,0,0,0,-1,1504,316,0,0
287,708,0,0,0,0,0,0,0,0,0,-1,1511,316,0,0
294,708,0,0,0,0,0,0,0,0,0,-1,1518,316,0,0
301,708,0,0,0,0,0,0,0,0,0,-1,1525,316,0,0
308,708,0,0,0,0,0,0,0,0,0,-1,1532,316,0,0
315,708,0,0,0,0,0,0,0,0,0,-1,1539,316,0,0
322,708,0,0,0,0,0,0,0,0,0,-1,1546,316,0,0
329,708,0,0,0,0,0,0,0,0,0,-1,1553,316,0,0
336,708,0,0,0,0,0,0,0,0,0,-1,1560,316,0,0
343,708,0,0,0,0,0,0,0,0,0,-1,1567,316,0,0
350,708,0,0,0,0,0,0,0,0,0,-1,1574,316,0,0
357,708,0,0,0,0,0,0,0,0,0,-1,1581,316,0,0
364,708,0,0,0,0,0,0,0,0,0,-1,1588,316,0,0
371,708,0,0,0,0,0,0,0,0,0,-1,1595,316,0,0
378,708,0,0,0,0,0,0,0,0,0,-1,1602,316,0,0
385,708,0,0,0,0,0,0,0,0,0,-1,1609,316,0,0
392,708,0,0,0,0,0,0,0,0,0,-1,1616,316,0,0
399,708,0,0,0,0,0,0,0,0,0,-1,1623,316,0,0
406,708,0,0,0,0,0,0,0,0,0,-1,1630,316,0,0
413,708,0,0,0,0,0,0,0,0,0,-1,1637,316,0,0
420,708,0,0,0,0,0,0,0,0,0,-1,1644,316,0,0
427,708,0,0,0,0,0,0,0,0,0,-1,1651,316,0,0
434,708,0,0,0,0,0,0,0,0,0,-1,1658,316,0,0
441,708,0,0,0,0,0,0,0,0,0,-1,1665,316,0,0
448,708,0,0,0,0,0,0,0,0,0,-1,1672,316,0,0
455,708,0,0,0,0,0,0,0,0,0,-1,1679,316,0,0
462,708,0,0,0,0,0,0,0,0,0,-1,1686,316,0,0
469,708,0,0,0,0,0,0,0,0,0,-1,1693,316,0,0
476,708,0,0,0,0,0,0,0,0,0,-1,1700,316,0,0
483,708,0,0,0,0,0,0,0,0,0,-1,1707,316,0,0
490,708,0,0,0,0,0,0,0,0,0,-1,1714,316,0,0
497,708,0,0,0,0,0,0,0,0,0,-1,1721,316,0,0
504,708,0,0,0,0,0,0,0,0,0,-1,1728,316,0,0
511,708,0,0,0,0,0,0,0,0,0,-1,1735,316,0,0
518,708,0,0,0,0,0,0,0,0,0,-1,1742,316,0,0
525,708,0,0,0,0,0,0,0,0,0,-1,1749,316,0,0
532,708,0,0,0,0,0,0,0,0,0,-1,1756,316,0,0
539,708,0,0,0,0,0,0,0,0,0,-1,1763,316,0,0
546,708,0,0,0,0,0,0,0,0,0,-1,1770,316,0,0
553,708,0,0,0,0,0,0,0,0,0,-1,1777,316,0,0
560,708,0,0,0,0,0,0,0,0,0,-1,1784,316,0,0
567,708,0,0,0,0,0,0,0,0,0,-1,1791,316,0,0
574,708,0,0,0,0,0,0,0,0,0,-1,1798,316,0,0
581,708,0,0,0,0,0,0,0,0,0,-1,1805,316,0,0
588,708,0,0,0,0,0,0,0,0,0,-1,1812,316,0,0
595,708,0,0,0,0,0,0,0,0,0,-1,1819,316,0,0
602,708,0,0,0,0,0,0,0,0,0,-1,1826,316,0,0
609,708,0,0,0,0,0,0,0,0,0,-1,1833,316,0,0
616,708,0,0,0,0,0,0,0,0,0,-1,1840,316,0,0
623,708,0,0,0,0,0,0,0,0,0,-1,1847,316,0,0
630,708,0,0,0,0,0,0,0,0,0,-1,1854,316,0,0
637,708,0,0,0,0,0,0,0,0,0,-1,1861,316,0,0
644,708,0,0,0,0,0,0,0,0,0,-1,1868,316,0,0
651,708,0,0,0,0,0,0,0,0,0,-1,1875,316,0,0
658,708,0,0,0,0,0,0,0,0,0,-1,1882,316,0,0
665,708,0,0,0,0,0,0,0,0,0,-1,1889,316,0,0
672,708,0,0,0,0,0,0,0,0,0,-1,1896,316,0,0
679,708,0,0,0,0,0,0,0,0,0,-1,1903,316,0,0
686,708,0,0,0,0,0,0,0,0,0,-1,1910,316,0,0
693,708,0,0,0,0,0,0,0,0,0,-1,1917,316,0,0
700,708,0,0,0,0,0,0,0,0,0,-1,1924,316,0,0
707,708,0,0,0,0,0,0,0,0,0,-1,1931,316,0,0
714,708,0,0,0,0,0,0,0,0,0,-1,1938,316,0,0
721,708,0,0,0,0,0,0,0,0,0,-1,1945,316,0,0
728,708,0,0,0,0,0,0,0,0,0,-1,1952,316,0,0
735,708,0,0,0,0,0,0,0,0,0,-1,1959,316,0,0
742,708,0,0,0,0,0,0,0,0,0,-1,1966,316,0,0
749,708,0,0,0,0,0,0,0,0,0,-1,1973,316,0,0
756,708,0,0,0,0,0,0,0,0,0,-1,1980,316,0,0
763,708,0,0,0,0,0,0,0,0,0,-1,1987,316,0,0
770,708,0,0,0,0,0,0,0,0,0,-1,1994,316,0,0
777,708,0,0,0,0,0,0,0,0,0,-1,2001,316,0,0
784,708,0,0,0,0,0,0,0,0,0,-1,2008,316,0,0
791,708,0,0,0,0,0,0,0,0,0,-1,2015,316,0,0
798,708,0,0,0,0,0,0,0,0,0,-1,2022,316,0,0
805,708,0,0,0,0,0,0,0,0,0,-1,2029,316,0,0
812,708,0,0,0,0,0,0,0,0,0,-1,2036,316,0,0
-700,701,0,0,0,0,0,0,0,0,0,-1,524,323,0,0
-693,701,0,0,0,0,0,0,0,0,0,-1,531,323,0,0
-686,701,0,0,0,0,0,0,0,0,0,-1,538,323,0,0
-679,701,0,0,0,0,0,0,0,0,0,-1,545,323,0,0
-672,701,0,0,0,0,0,0,0,0,0,-1,552,323,0,0
-665,701,0,0,0,0,0,0,0,0,0,-1,559,323,0,0
-658,701,0,0,0,0,0,0,0,0,0,-1,566,323,0,0
-651,701,0,0,0,0,0,0,0,0,0,-1,573,323,0,0
-644,701,0,0,0,0,0,0,0,0,0,-1,580,323,0,0
-637,701,0,0,0,0,0,0,0,0,0,-1,587,323,0,0
-630,701,0,0,0,0,0,0,0,0,0,-1,594,323,0,0
-623,701,0,0,0,0,0,0,0,0,0,-1,601,323,0,0
-616,701,0,0,0,0,0,0,0,0,0,-1,608,323,0,0
-609,701,0,0,0,0,0,0,0,0,0,-1,615,323,0,0
-602,701,0,0,0,0,0,0,0,0,0,-1,622,323,0,0
-595,701,0,0,0,0,0,0,0,0,0,-1,629,323,0,0
-588,701,0,0,0,0,0,0,0,0,0,-1,636,323,0,0
-581,701,0,0,0,0,0,0,0,0,0,-1,643,323,0,0
-574,701,0,0,0,0,0,0,0,0,0,-1,650,323,0,0
-567,701,0,0,0,0,0,0,0,0,0,-1,657,323,0,0
-560,701,0,0,0,0,0,0,0,0,0,-1,664,323,0,0
-553,701,0,0,0,0,0,0,0,0,0,-1,671,323,0,0
-546,701,0,0,0,0,0,0,0,0,0,-1,678,323,0,0
-539,701,0,0,0,0,0,0,0,0,0,-1,685,323,0,0
-532,701,0,0,0,0,0,0,0,0,0,-1,692,323,0,0
-525,701,0,0,0,0,0,0,0,0,0,-1,699,323,0,0
-518,701,0,0,0,0,0,0,0,0,0,-1,706,323,0,0
-511,701,0,0,0,0,0,0,0,0,0,-1,713,323,0,0
-504,701,0,0,0,0,0,0,0,0,0,-1,720,323,0,0
-497,701,0,0,0,0,0,0,0,0,0,-1,727,323,0,0
-490,701,0,0,0,0,0,0,0,0,0,-1,734,323,0,0
-483,701,0,0,0,0,0,0,0,0,0,-1,741,323,0,0
-476,701,0,0,0,0,0,0,0,0,0,-1,748,323,0,0
-469,701,0,0,0,0,0,0,0,0,0,-1,755,323,0,0
-462,701,0,0,0,0,0,0,0,0,0,-1,762,323,0,0
-455,701,0,0,0,0,0,0,0,0,0,-1,769,323,0,0
-448,701,0,0,0,0,0,0,0,0,0,-1,776,323,0,0
-441,701,0,0,0,0,0,0,0,0,0,-1,783,323,0,0
-434,701,0,0,0,0,0,0,0,0,0,-1,790,323,0,0
-427,701,0,0,0,0,0,0,0,0,0,-1,797,323,0,0
-420,701,0,0,0,0,0,0,0,0,0,-1,804,323,0,0
-413,701,0,0,0,0,0,0,0,0,0,-1,811,323,0,0
-406,701,0,0,0,0,0,0,0,0,0,-1,818,323,0,0
-399,701,0,0,0,0,0,0,0,0,0,-1,825,323,0,0
-392,701,0,0,0,0,0,0,0,0,0,-1,832,323,0,0
-385,701,0,0,0,0,0,0,0,0,0,-1,839,323,0,0
-378,701,0,0,0,0,0,0,0,0,0,-1,846,323,0,0
-371,701,0,0,0,0,0,0,0,0,0,-1,853,323,0,0
-364,701,0,0,0,0,0,0,0,0,0,-1,860,323,0,0
-357,701,0,0,0,0,0,0,0,0,0,-1,867,323,0,0
-350,701,0,0,0,0,0,0,0,0,0,-1,874,323,0,0
-343,701,0,0,0,0,0,0,0,0,0,-1,881,323,0,0
-336,701,0,0,0,0,0,0,0,0,0,-1,888,323,0,0
-329,701,0,0,0,0,0,0,0,0,0,-1,895,323,0,0
-322,701,0,0,0,0,0,0,0,0,0,-1,902,323,0,0
-315,701,0,0,0,0,0,0,0,0,0,-1,909,323,0,0
-308,701,0,0,0,0,0,0,0,0,0,-1,916,323,0,0
-301,701,0,0,0,0,0,0,0,0,0,-1,923,323,0,0
-294,701,0,0,0,0,0,0,0,0,0,-1,930,323,0,0
-287,701,0,0,0,0,0,0,0,0,0,-1,937,323,0,0
-280,701,0,0,0,0,0,0,0,0,0,-1,944,323,0,0
-273,701,0,0,0,0,0,0,0,0,0,-1,951,323,0,0
-266,701,0,0,0,0,0,0,0,0,0,-1,958,323,0,0
-259,701,0,0,0,0,0,0,0,0,0,-1,965,323,0,0
-252,701,0,0,0,0,0,0,0,0,0,-1,972,323,0,0
-245,701,0,0,0,0,0,0,0,0,0,-1,979,323,0,0
-238,701,0,0,0,0,0,0,0,0,0,-1,986,323,0,0
-231,701,0,0,0,0,0,0,0,0,0,-1,993,323,0,0
-224,701,0,0,0,0,0,0,0,0,0,-1,1000,323,0,0
-217,701,0,0,0,0,0,0,0,0,0,-1,1007,323,0,0
-210,701,0,0,0,0,0,0,0,0,0,-1,1014,323,0,0
-203,701,0,0,0,0,0,0,0,0,0,-1,1021,323,0,0
-196,701,0,0,0,0,0,0,0,0,0,-1,1028,323,0,0
-189,701,0,0,0,0,0,0,0,0,0,-1,1035,323,0,0
-182,701,0,0,0,0,0,0,0,0,0,-1,1042,323,0,0
-175,701,0,0,0,0,0,0,0,0,0,-1,1049,323,0,0
-168,701,0,0,0,0,0,0,0,0,0,-1,1056,323,0,0
-161,701,0,0,0,0,0,0,0,0,0,-1,1063,323,0,0
-154,701,0,0,0,0,0,0,0,0,0,-1,1070,323,0,0
-147,701,0,0,0,0,0,0,0,0,0,-1,1077,323,0,0
-140,701,0,0,0,0,0,0,0,0,0,-1,1084,323,0,0
-133,701,0,0,0,0,0,0,0,0,0,-1,1091,323,0,0
-126,701,0,0,0,0,0,0,0,0,0,-1,1098,323,0,0
-119,701,0,0,0,0,0,0,0,0,0,-1,1105,323,0,0
-112,701,0,0,0,0,0,0,0,0,0,-1,1112,323,0,0
-105,701,0,0,0,0,0,0,0,0,0,-1,1119,323,0,0
-98,701,0,0,0,0,0,0,0,0,0,-1,1126,323,0,0
-91,701,0,0,0,0,0,0,0,0,0,-1,1133,323,0,0
-84,701,0,0,0,0,0,0,0,0,0,-1,1140,323,0,0
-77,701,0,0,0,0,0,0,0,0,0,-1,1147,323,0,0
-70,701,-2.36731,-1.49271,0,0,0,0,0,0,0,-1,1154,323,-2.36729,1.4927
-63,701,-2.479,-0.295959,0,0,0,0,0,0,0,-1,1161,323,-2.47895,0.295961
-56,701,-0.420166,-0.101776,0,0,0,0,0,0,0,-1,1168,323,-0.420119,0.101777
-49,701,-1.09021,-0.155762,0,0,0,0,0,0,0,-1,1175,323,-1.09024,0.155768
-42,701,-0.210327,-0.299133,0,0,0,0,0,0,0,-1,1182,323,-0.210379,0.29914
-35,701,-2.9635,-7.98676,0,0,0,0,0,0,0,-1,1189,323,-2.9635,7.98676
-28,701,-6.64417,-5.4917,0,0,0,0,0,0,0,-1,1196,323,-6.64411,5.4917
-21,701,0.14856,-14.6106,0,0,0,0,0,0,0,-1,1203,323,0.148594,14.6106
-14,701,0.49353,-14.8505,0,0,0,0,0,0,0,-1,1210,323,0.493519,14.8505
-7,701,0.838501,-15.0903,0,0,0,0,0,0,0,-1,1217,323,0.838445,15.0903
0,701,3.19836,-17.7235,0,0,0,0,0,0,0,-1,1224,323,3.19832,17.7235
7,701,3.57275,-17.6459,0,0,0,0,0,0,0,-1,1231,323,3.57273,17.6459
14,701,4.06067,-17.5853,0,0,0,0,0,0,0,-1,1238,323,4.06066,17.5853
21,701,3.09021,-17.4982,0,0,0,0,0,0,0,-1,1245,323,3.09025,17.4982
28,701,2.49292,-17.1789,-0.0396943,0.0581473,0.0412622,0.0732251,-0.0547721,1.22046,0.0741547,0.0446485,1252,323,2.49297,17.1789
35,701,2.4115,-16.5759,-0.0505027,0.0704351,0.0428378,0.0840712,-0.0641389,1.26262,0.0858267,0.0453614,1259,323,2.41147,16.5759
42,701,2.45557,-15.8435,-0.0511619,0.0851741,0.040261,0.0961757,-0.0621635,1.30405,0.0921175,0.0452798,1266,323,2.45561,15.8435
49,701,2.55005,-15.2386,0,0,0,0,0,0,0,-1,1273,323,2.55002,15.2386
56,701,-0.747925,-15.0273,-0.0381989,0.118636,0.0285485,0.123671,-0.0432339,1.39622,0.100023,0.0421518,1280,323,-0.747909,15.0274
63,701,-1.67603,-14.815,-0.0241681,0.131525,0.0192527,0.13387,-0.0265135,1.44957,0.0992721,0.0471827,1287,323,-1.67606,14.815
70,701,-2.61194,-14.5502,0,0,0,0,0,0,0,-1,1294,323,-2.61196,14.5502
77,701,-3.94519,-15.1331,0.0146812,0.139586,0.000891453,0.139592,0.0146748,1.56366,0.088576,0.0445919,1301,323,-3.94515,15.1331
84,701,-5.03516,-15.1353,0.0317672,0.134735,-0.00569301,0.135049,0.0314534,-1.51573,0.0815946,0.0456351,1308,323,-5.03521,15.1353
91,701,2.22522,-17.5616,0,0,0,0,0,0,0,-1,1315,323,2.22519,17.5616
98,701,-4.87158,-15.1206,0,0,0,0,0,0,0,-1,1322,323,-4.87161,15.1206
105,701,-5.39001,-15.6861,0,0,0,0,0,0,0,-1,1329,323,-5.38996,15.6861
112,701,2.93103,-17.5805,0,0,0,0,0,0,0,-1,1336,323,2.93109,17.5805
119,701,2.00232,-18.8633,0,0,0,0,0,0,0,-1,1343,323,2.00237,18.8633
126,701,2.18433,-18.3836,0,0,0,0,0,0,0,-1,1350,323,2.18438,18.3836
133,701,2.49158,-18.1133,0,0,0,0,0,0,0,-1,1357,323,2.49162,18.1133
140,701,2.36414,-17.5935,0,0,0,0,0,0,0,-1,1364,323,2.3642,17.5935
147,701,2.0188,-16.2118,0.078476,-0.0609451,0.0154495,0.0801675,-0.0626366,0.109049,0.0826548,0.0495213,1371,323,2.01886,16.2118
154,701,3.55212,-14.7139,0,0,0,0,0,0,0,-1,1378,323,3.5521,14.7139
161,701,4.85034,-13.1579,0,0,0,0,0,0,0,-1,1385,323,4.85033,13.1579
168,701,6.88513,-0.0237427,0,0,0,0,0,0,0,-1,1392,323,6.88517,0.0237498
175,701,6.94556,0.0693054,0,0,0,0,0,0,0,-1,1399,323,6.94555,-0.0692958
182,701,8.80652,5.42807,0,0,0,0,0,0,0,-1,1406,323,8.8065,-5.42808
189,701,8.58081,4.24493,0,0,0,0,0,0,0,-1,1413,323,8.58082,-4.24494
196,701,0,0,0,0,0,0,0,0,0,-1,1420,323,0,0
203,701,0,0,0,0,0,0,0,0,0,-1,1427,323,0,0
210,701,0,0,0,0,0,0,0,0,0,-1,1434,323,0,0
217,701,0,0,0,0,0,0,0,0,0,-1,1441,323,0,0
224,701,0,0,0,0,0,0,0,0,0,-1,1448,323,0,0
231,701,0,0,0,0,0,0,0,0,0,-1,1455,323,0,0
238,701,0,0,0,0,0,0,0,0,0,-1,1462,323,0,0
245,701,0,0,0,0,0,0,0,0,0,-1,1469,323,0,0
252,701,0,0,0,0,0,0,0,0,0,-1,1476,323,0,0
259,701,0,0,0,0,0,0,0,0,0,-1,1483,323,0,0
266,701,0,0,0,0,0,0,0,0,0,-1,1490,323,0,0
273,701,0,0,0,0,0,0,0,0,0,-1,1497,323,0,0
280,701,0,0,0,0,0,0,0,0,0,-1,1504,323,0,0
287,701,0,0,0,0,0,0,0,0,0,-1,1511,323,0,0
294,701,0,0,0,0,0,0,0,0,0,-1,1518,323,0,0
301,701,0,0,0,0,0,0,0,0,0,-1,1525,323,0,0
308,701,0,0,0,0,0,0,0,0,0,-1,1532,323,0,0
315,701,0,0,0,0,0,0,0,0,0,-1,1539,323,0,0
322,701,0,0,0,0,0,0,0,0,0,-1,1546,323,0,0
329,701,0,0,0,0,0,0,0,0,0,-1,1553,323,0,0
336,701,0,0,0,0,0,0,0,0,0,-1,1560,323,0,0
343,701,0,0,0,0,0,0,0,0,0,-1,1567,323,0,0
350,701,0,0,0,0,0,0,0,0,0,-1,1574,323,0,0
357,701,0,0,0,0,0,0,0,0,0,-1,1581,323,0,0
364,701,0,0,0,0,0,0,0,0,0,-1,1588,323,0,0
371,701,0,0,0,0,0,0,0,0,0,-1,1595,323,0,0
378,701,0,0,0,0,0,0,0,0,0,-1,1602,323,0,0
385,701,0,0,0,0,0,0,0,0,0,-1,1609,323,0,0
392,701,0,0,0,0,0,0,0,0,0,-1,1616,323,0,0
399,701,0,0,0,0,0,0,0,0,0,-1,1623,323,0,0
406,701,0,0,0,0,0,0,0,0,0,-1,1630,323,0,0
413,701,0,0,0,0,0,0,0,0,0,-1,1637,323,0,0
420,701,0,0,0,0,0,0,0,0,0,-1,1644,323,0,0
427,701,0,0,0,0,0,0,0,0,0,-1,1651,323,0,0
434,701,0,0,0,0,0,0,0,0,0,-1,1658,323,0,0
441,701,0,0,0,0,0,0,0,0,0,-1,1665,323,0,0
448,701,0,0,0,0,0,0,0,0,0,-1,1672,323,0,0
455,701,0,0,0,0,0,0,0,0,0,-1,1679,323,0,0
462,701,0,0,0,0,0,0,0,0,0,-1,1686,323,0,0
469,701,0,0,0,0,0,0,0,0,0,-1,1693,323,0,0
476,701,0,0,0,0,0,0,0,0,0,-1,1700,323,0,0
483,701,0,0,0,0,0,0,0,0,0,-1,1707,323,0,0
490,701,0,0,0,0,0,0,0,0,0,-1,1714,323,0,0
497,701,0,0,0,0,0,0,0,0,0,-1,1721,323,0,0
504,701,0,0,0,0,0,0,0,0,0,-1,1728,323,0,0
511,701,0,0,0,0,0,0,0,0,0,-1,1735,323,0,0
518,701,0,0,0,0,0,0,0,0,0,-1,1742,323,0,0
525,701,0,0,0,0,0,0,0,0,0,-1,1749,323,0,0
532,701,0,0,0,0,0,0,0,0,0,-1,1756,323,0,0
539,701,0,0,0,0,0,0,0,0,0,-1,1763,323,0,0
546,701,0,0,0,0,0,0,0,0,0,-1,1770,323,0,0
553,701,0,0,0,0,0,0,0,0,0,-1,1777,323,0,0
560,701,0,0,0,0,0,0,0,0,0,-1,1784,323,0,0
567,701,0,0,0,0,0,0,0,0,0,-1,1791,323,0,0
574,701,0,0,0,0,0,0,0,0,0,-1,1798,323,0,0
581,701,0,0,0,0,0,0,0,0,0,-1,1805,323,0,0
588,701,0,0,0,0,0,0,0,0,0,-1,1812,323,0,0
595,701,0,0,0,0,0,0,0,0,0,-1,1819,323,0,0
602,701,0,0,0,0,0,0,0,0,0,-1,1826,323,0,0
609,701,0,0,0,0,0,0,0,0,0,-1,1833,323,0,0
616,701,0,0,0,0,0,0,0,0,0,-1,1840,323,0,0
623,701,0,0,0,0,0,0,0,0,0,-1,1847,323,0,0
630,701,0,0,0,0,0,0,0,0,0,-1,1854,323,0,0
637,701,0,0,0,0,0,0,0,0,0,-1,1861,323,0,0
644,701,0,0,0,0,0,0,0,0,0,-1,1868,323,0,0
651,701,0,0,0,0,0,0,0,0,0,-1,1875,323,0,0
658,701,0,0,0,0,0,0,0,0,0,-1,1882,323,0,0
665,701,0,0,0,0,0,0,0,0,0,-1,1889,323,0,0
672,701,0,0,0,0,0,0,0,0,0,-1,1896,323,0,0
679,701,0,0,0,0,0,0,0,0,0,-1,1903,323,0,0
686,701,0,0,0,0,0,0,0,0,0,-1,1910,323,0,0
693,701,0,0,0,0,0,0,0,0,0,-1,1917,323,0,0
700,701,0,0,0,0,0,0,0,0,0,-1,1924,323,0,0
707,701,0,0,0,0,0,0,0,0,0,-1,1931,323,0,0
714,701,0,0,0,0,0,0,0,0,0,-1,1938,323,0,0
721,701,0,0,0,0,0,0,0,0,0,-1,1945,323,0,0
728,701,0,0,0,0,0,0,0,0,0,-1,1952,323,0,0
735,701,0,0,0,0,0,0,0,0,0,-1,1959,323,0,0
742,701,0,0,0,0,0,0,0,0,0,-1,1966,323,0,0
749,701,0,0,0,0,0,0,0,0,0,-1,1973,323,0,0
756,701,0,0,0,0,0,0,0,0,0,-1,1980,323,0,0
763,701,0,0,0,0,0,0,0,0,0,-1,1987,323,0,0
770,701,0,0,0,0,0,0,0,0,0,-1,1994,323,0,0
777,701,0,0,0,0,0,0,0,0,0,-1,2001,323,0,0
784,701,0,0,0,0,0,0,0,0,0,-1,2008,323,0,0
791,701,0,0,0,0,0,0,0,0,0,-1,2015,323,0,0
798,701,0,0,0,0,0,0,0,0,0,-1,2022,323,0,0
805,701,0,0,0,0,0,0,0,0,0,-1,2029,323,0,0
812,701,0,0,0,0,0,0,0,0,0,-1,2036,323,0,0
-700,694,0,0,0,0,0,0,0,0,0,-1,524,330,0,0
-693,694,0,0,0,0,0,0,0,0,0,-1,531,330,0,0
-686,694,0,0,0,0,0,0,0,0,0,-1,538,330,0,0
-679,694,0,0,0,0,0,0,0,0,0,-1,545,330,0,0
-672,694,0,0,0,0,0,0,0,0,0,-1,552,330,0,0
-665,694,0,0,0,0,0,0,0,0,0,-1,559,330,0,0
-658,694,0,0,0,0,0,0,0,0,0,-1,566,330,0,0
-651,694,0,0,0,0,0,0,0,0,0,-1,573,330,0,0
-644,694,0,0,0,0,0,0,0,0,0,-1,580,330,0,0
-637,694,0,0,0,0,0,0,0,0,0,-1,587,330,0,0
-630,694,0,0,0,0,0,0,0,0,0,-1,594,330,0,0
-623,694,0,0,0,0,0,0,0,0,0,-1,601,330,0,0
-616,694,0,0,0,0,0,0,0,0,0,-1,608,330,0,0
-609,694,0,0,0,0,0,0,0,0,0,-1,615,330,0,0
-602,694,0,0,0,0,0,0,0,0,0,-1,622,330,0,0
-595,694,0,0,0,0,0,0,0,0,0,-1,629,330,0,0
-588,694,0,0,0,0,0,0,0,0,0,-1,636,330,0,0
-581,694,0,0,0,0,0,0,0,0,0,-1,643,330,0,0
-574,694,0,0,0,0,0,0,0,0,0,-1,650,330,0,0
-567,694,0,0,0,0,0,0,0,0,0,-1,657,330,0,0
-560,694,0,0,0,0,0,0,0,0,0,-1,664,330,0,0
-553,694,0,0,0,0,0,0,0,0,0,-1,671,330,0,0
-546,694,0,0,0,0,0,0,0,0,0,-1,678,330,0,0
-539,694,0,0,0,0,0,0,0,0,0,-1,685,330,0,0
-532,694,0,0,0,0,0,0,0,0,0,-1,692,330,0,0
-525,694,0,0,0,0,0,0,0,0,0,-1,699,330,0,0
-518,694,0,0,0,0,0,0,0,0,0,-1,706,330,0,0
-511,694,0,0,0,0,0,0,0,0,0,-1,713,330,0,0
-504,694,0,0,0,0,0,0,0,0,0,-1,720,330,0,0
-497,694,0,0,0,0,0,0,0,0,0,-1,727,330,0,0
-490,694,0,0,0,0,0,0,0,0,0,-1,734,330,0,0
-483,694,0,0,0,0,0,0,0,0,0,-1,741,330,0,0
-476,694,0,0,0,0,0,0,0,0,0,-1,748,330,0,0
-469,694,0,0,0,0,0,0,0,0,0,-1,755,330,0,0
-462,694,0,0,0,0,0,0,0,0,0,-1,762,330,0,0
-455,694,0,0,0,0,0,0,0,0,0,-1,769,330,0,0
-448,694,0,0,0,0,0,0,0,0,0,-1,776,330,0,0
-441,694,0,0,0,0,0,0,0,0,0,-1,783,330,0,0
-434,694,0,0,0,0,0,0,0,0,0,-1,790,330,0,0
-427,694,0,0,0,0,0,0,0,0,0,-1,797,330,0,0
-420,694,0,0,0,0,0,0,0,0,0,-1,804,330,0,0
-413,694,0,0,0,0,0,0,0,0,0,-1,811,330,0,0
-406,694,0,0,0,0,0,0,0,0,0,-1,818,330,0,0
-399,694,0,0,0,0,0,0,0,0,0,-1,825,330,0,0
-392,694,0,0,0,0,0,0,0,0,0,-1,832,330,0,0
-385,694,0,0,0,0,0,0,0,0,0,-1,839,330,0,0
-378,694,0,0,0,0,0,0,0,0,0,-1,846,330,0,0
-371,694,0,0,0,0,0,0,0,0,0,-1,853,330,0,0
-364,694,0,0,0,0,0,0,0,0,0,-1,860,330,0,0
-357,694,0,0,0,0,0,0,0,0,0,-1,867,330,0,0
-350,694,0,0,0,0,0,0,0,0,0,-1,874,330,0,0
-343,694,0,0,0,0,0,0,0,0,0,-1,881,330,0,0
-336,694,0,0,0,0,0,0,0,0,0,-1,888,330,0,0
-329,694,0,0,0,0,0,0,0,0,0,-1,895,330,0,0
-322,694,0,0,0,0,0,0,0,0,0,-1,902,330,0,0
-315,694,0,0,0,0,0,0,0,0,0,-1,909,330,0,0
-308,694,0,0,0,0,0,0,0,0,0,-1,916,330,0,0
-301,694,0,0,0,0,0,0,0,0,0,-1,923,330,0,0
-294,694,0,0,0,0,0,0,0,0,0,-1,930,330,0,0
-287,694,0,0,0,0,0,0,0,0,0,-1,937,330,0,0
-280,694,0,0,0,0,0,0,0,0,0,-1,944,330,0,0
-273,694,0,0,0,0,0,0,0,0,0,-1,951,330,0,0
-266,694,0,0,0,0,0,0,0,0,0,-1,958,330,0,0
-259,694,0,0,0,0,0,0,0,0,0,-1,965,330,0,0
-252,694,0,0,0,0,0,0,0,0,0,-1,972,330,0,0
-245,694,0,0,0,0,0,0,0,0,0,-1,979,330,0,0
-238,694,0,0,0,0,0,0,0,0,0,-1,986,330,0,0
-231,694,0,0,0,0,0,0,0,0,0,-1,993,330,0,0
-224,694,0,0,0,0,0,0,0,0,0,-1,1000,330,0,0
-217,694,0,0,0,0,0,0,0,0,0,-1,1007,330,0,0
-210,694,0,0,0,0,0,0,0,0,0,-1,1014,330,0,0
-203,694,0,0,0,0,0,0,0,0,0,-1,1021,330,0,0
-196,694,0,0,0,0,0,0,0,0,0,-1,1028,330,0,0
-189,694,0,0,0,0,0,0,0,0,0,-1,1035,330,0,0
-182,694,0,0,0,0,0,0,0,0,0,-1,1042,330,0,0
-175,694,0,0,0,0,0,0,0,0,0,-1,1049,330,0,0
-168,694,0,0,0,0,0,0,0,0,0,-1,1056,330,0,0
-161,694,0,0,0,0,0,0,0,0,0,-1,1063,330,0,0
-154,694,0,0,0,0,0,0,0,0,0,-1,1070,330,0,0
-147,694,0,0,0,0,0,0,0,0,0,-1,1077,330,0,0
-140,694,0,0,0,0,0,0,0,0,0,-1,1084,330,0,0
-133,694,0,0,0,0,0,0,0,0,0,-1,1091,330,0,0
-126,694,0,0,0,0,0,0,0,0,0,-1,1098,330,0,0
-119,694,0,0,0,0,0,0,0,0,0,-1,1105,330,0,0
-112,694,0,0,0,0,0,0,0,0,0,-1,1112,330,0,0
-105,694,2.5188,-19.3963,0,0,0,0,0,0,0,-1,1119,330,2.51882,19.3963
-98,694,1.34875,-10.1051,0,0,0,0,0,0,0,-1,1126,330,1.34874,10.1051
-91,694,1.35474,-9.22229,0,0,0,0,0,0,0,-1,1133,330,1.35476,9.22229
-84,694,-4.39136,-4.62332,0,0,0,0,0,0,0,-1,1140,330,-4.3914,4.62331
-77,694,-4.93396,-10.2672,0,0,0,0,0,0,0,-1,1147,330,-4.9339,10.2672
-70,694,-6.49402,-10.0714,0,0,0,0,0,0,0,-1,1154,330,-6.49399,10.0714
-63,694,-5.80835,-4.75275,0,0,0,0,0,0,0,-1,1161,330,-5.80834,4.75274
-56,694,-6.50623,-0.649139,0,0,0,0,0,0,0,-1,1168,330,-6.5062,0.649126
-49,694,-1.11426,0.0341797,0,0,0,0,0,0,0,-1,1175,330,-1.11424,-0.0341846
-42,694,-0.346313,-0.709595,0,0,0,0,0,0,0,-1,1182,330,-0.346298,0.709581
-35,694,-0.459106,-1.24713,0,0,0,0,0,0,0,-1,1189,330,-0.459142,1.24714
-28,694,-6.48413,-3.95972,0,0,0,0,0,0,0,-1,1196,330,-6.48414,3.9597
-21,694,0.731079,-15.1895,0,0,0,0,0,0,0,-1,1203,330,0.731088,15.1895
-14,694,1.05762,-15.3835,0,0,0,0,0,0,0,-1,1210,330,1.05766,15.3835
-7,694,1.04163,-15.4466,0,0,0,0,0,0,0,-1,1217,330,1.04168,15.4466
0,694,2.98743,-17.7449,0,0,0,0,0,0,0,-1,1224,330,2.98738,17.7449
7,694,3.70007,-15.9803,0,0,0,0,0,0,0,-1,1231,330,3.70002,15.9804
14,694,3.14807,-17.6932,0,0,0,0,0,0,0,-1,1238,330,3.14804,17.6932
21,694,3.06897,-17.5776,-0.0226472,0.0458134,0.0282879,0.0559893,-0.0328232,1.22548,0.0518541,0.0470791,1245,330,3.06892,17.5776
28,694,2.49243,-17.2603,-0.0345968,0.0526484,0.0310417,0.0625657,-0.0445141,1.26156,0.0621147,0.0457588,1252,330,2.49247,17.2604
35,694,1.74304,-16.8737,-0.0414773,0.0647967,0.0302918,0.0728245,-0.0495051,1.31174,0.0710535,0.0453859,1259,330,1.74304,16.8736
42,694,1.04114,-16.4902,-0.0390527,0.0761927,0.0276209,0.0824706,-0.0453306,1.3473,0.0748174,0.048371,1266,330,1.04118,16.4902
49,694,-0.0776367,-15.9309,-0.0358715,0.0894333,0.0234321,0.0936718,-0.0401099,1.39185,0.0792755,0.0462579,1273,330,-0.0776713,15.9309
56,694,-1.1051,-15.6863,-0.0278581,0.102715,0.0175917,0.105044,-0.0301867,1.4392,0.0819658,0.0417208,1280,330,-1.10507,15.6863
63,694,-1.98474,-15.4068,-0.0166807,0.112468,0.00969152,0.113191,-0.0174039,1.49631,0.0818811,0.0447297,1287,330,-1.98478,15.4068
70,694,-2.80737,-15.1284,-0.00101936,0.117285,0.00129525,0.117299,-0.00103355,1.55985,0.078546,0.0455072,1294,330,-2.80737,15.1284
77,694,-3.88586,-15.0029,0.014748,0.118011,-0.00555814,0.11831,0.0144497,-1.51718,0.074525,0.0486791,1301,330,-3.88587,15.0029
84,694,-5.08679,-14.9813,0.0286639,0.114129,-0.0110809,0.115542,0.0272506,-1.44394,0.0697422,0.0462233,1308,330,-5.08674,14.9813
91,694,2.50159,-17.5848,0.0403331,0.105043,-0.0156321,0.108622,0.0367547,-1.34576,0.0637956,0.0476882,1315,330,2.50157,17.5849
98,694,2.95337,-17.5388,0,0,0,0,0,0,0,-1,1322,330,2.9534,17.5387
105,694,3.76929,-17.4867,0,0,0,0,0,0,0,-1,1329,330,3.76931,17.4867
112,694,2.71606,-17.2548,0.068082,0.0506438,-0.0186743,0.0799724,0.0387534,-0.566987,0.0461794,0.0416148,1336,330,2.71602,17.2548
119,694,2.25183,-18.5175,0.0747811,0.028728,-0.0179955,0.0809789,0.0225303,-0.331683,0.0482619,0.0468734,1343,330,2.25184,18.5175
126,694,2.40906,-18.0447,0.0759628,0.00340425,-0.0134338,0.0783701,0.000996944,-0.177316,0.0519176,0.0471804,1350,330,2.40902,18.0447
133,694,2.57117,-17.5593,0.0734835,-0.0174325,-0.00682536,0.0739931,-0.0179421,-0.0745165,0.0562711,0.0451154,1357,330,2.5712,17.5593
140,694,2.53772,-16.8741,0.0642849,-0.0418523,0.00502676,0.0645225,-0.0420898,0.0472201,0.0620052,0.0453829,1364,330,2.53768,16.8741
147,694,2.72351,-15.7183,0.0530328,-0.0438199,0.0116709,0.0544193,-0.0452064,0.118246,0.0576009,0.0466541,1371,330,2.72354,15.7183
154,694,3.04565,-14.5061,0,0,0,0,0,0,0,-1,1378,330,3.04564,14.5061
161,694,2.12781,-15.6165,0,0,0,0,0,0,0,-1,1385,330,2.12786,15.6165
168,694,6.77161,1.01288,0,0,0,0,0,0,0,-1,1392,330,6.77156,-1.01287
175,694,6.72839,0.473175,0,0,0,0,0,0,0,-1,1399,330,6.72838,-0.473182
182,694,8.29028,5.75238,0,0,0,0,0,0,0,-1,1406,330,8.29034,-5.75237
189,694,7.9801,4.46118,0,0,0,0,0,0,0,-1,1413,330,7.9801,-4.46118
196,694,7.39331,3.32632,0,0,0,0,0,0,0,-1,1420,330,7.39329,-3.32633
203,694,7.04492,2.20529,0,0,0,0,0,0,0,-1,1427,330,7.04496,-2.20529
210,694,6.44714,0.646912,0,0,0,0,0,0,0,-1,1434,330,6.44717,-0.646903
217,694,7.12061,-0.644958,0,0,0,0,0,0,0,-1,1441,330,7.12059,0.644961
224,694,6.74011,-1.70544,0,0,0,0,0,0,0,-1,1448,330,6.74013,1.70546
231,694,0,0,0,0,0,0,0,0,0,-1,1455,330,0,0
238,694,0,0,0,0,0,0,0,0,0,-1,1462,330,0,0
245,694,0,0,0,0,0,0,0,0,0,-1,1469,330,0,0
252,694,0,0,0,0,0,0,0,0,0,-1,1476,330,0,0
259,694,0,0,0,0,0,0,0,0,0,-1,1483,330,0,0
266,694,0,0,0,0,0,0,0,0,0,-1,1490,330,0,0
273,694,0,0,0,0,0,0,0,0,0,-1,1497,330,0,0
280,694,0,0,0,0,0,0,0,0,0,-1,1504,330,0,0
287,694,0,0,0,0,0,0,0,0,0,-1,1511,330,0,0
294,694,0,0,0,0,0,0,0,0,0,-1,1518,330,0,0
301,694,0,0,0,0,0,0,0,0,0,-1,1525,330,0,0
308,694,0,0,0,0,0,0,0,0,0,-1,1532,330,0,0
315,694,0,0,0,0,0,0,0,0,0,-1,1539,330,0,0
322,694,0,0,0,0,0,0,0,0,0,-1,1546,330,0,0
329,694,0,0,0,0,0,0,0,0,0,-1,1553,330,0,0
336,694,0,0,0,0,0,0,0,0,0,-1,1560,330,0,0
343,694,0,0,0,0,0,0,0,0,0,-1,1567,330,0,0
350,694,0,0,0,0,0,0,0,0,0,-1,1574,330,0,0
357,694,0,0,0,0,0,0,0,0,0,-1,1581,330,0,0
364,694,0,0,0,0,0,0,0,0,0,-1,1588,330,0,0
371,694,0,0,0,0,0,0,0,0,0,-1,1595,330,0,0
378,694,0,0,0,0,0,0,0,0,0,-1,1602,330,0,0
385,694,0,0,0,0,0,0,0,0,0,-1,1609,330,0,0
392,694,0,0,0,0,0,0,0,0,0,-1,1616,330,0,0
399,694,0,0,0,0,0,0,0,0,0,-1,1623,330,0,0
406,694,0,0,0,0,0,0,0,0,0,-1,1630,330,0,0
413,694,0,0,0,0,0,0,0,0,0,-1,1637,330,0,0
420,694,0,0,0,0,0,0,0,0,0,-1,1644,330,0,0
427,694,0,0,0,0,0,0,0,0,0,-1,1651,330,0,0
434,694,0,0,0,0,0,0,0,0,0,-1,1658,330,0,0
441,694,0,0,0,0,0,0,0,0,0,-1,1665,330,0,0
448,694,0,0,0,0,0,0,0,0,0,-1,1672,330,0,0
455,694,0,0,0,0,0,0,0,0,0,-1,1679,330,0,0
462,694,0,0,0,0,0,0,0,0,0,-1,1686,330,0,0
469,694,0,0,0,0,0,0,0,0,0,-1,1693,330,0,0
476,694,0,0,0,0,0,0,0,0,0,-1,1700,330,0,0
483,694,0,0,0,0,0,0,0,0,0,-1,1707,330,0,0
490,694,0,0,0,0,0,0,0,0,0,-1,1714,330,0,0
497,694,0,0,0,0,0,0,0,0,0,-1,1721,330,0,0
504,694,0,0,0,0,0,0,0,0,0,-1,1728,330,0,0
511,694,0,0,0,0,0,0,0,0,0,-1,1735,330,0,0
518,694,0,0,0,0,0,0,0,0,0,-1,1742,330,0,0
525,694,0,0,0,0,0,0,0,0,0,-1,1749,330,0,0
532,694,0,0,0,0,0,0,0,0,0,-1,1756,330,0,0
539,694,0,0,0,0,0,0,0,0,0,-1,1763,330,0,0
546,694,0,0,0,0,0,0,0,0,0,-1,1770,330,0,0
553,694,0,0,0,0,0,0,0,0,0,-1,1777,330,0,0
560,694,0,0,0,0,0,0,0,0,0,-1,1784,330,0,0
567,694,0,0,0,0,0,0,0,0,0,-1,1791,330,0,0
574,694,0,0,0,0,0,0,0,0,0,-1,1798,330,0,0
581,694,0,0,0,0,0,0,0,0,0,-1,1805,330,0,0
588,694,0,0,0,0,0,0,0,0,0,-1,1812,330,0,0
595,694,0,0,0,0,0,0,0,0,0,-1,1819,330,0,0
602,694,0,0,0,0,0,0,0,0,0,-1,1826,330,0,0
609,694,0,0,0,0,0,0,0,0,0,-1,1833,330,0,0
616,694,0,0,0,0,0,0,0,0,0,-1,1840,330,0,0
623,694,0,0,0,0,0,0,0,0,0,-1,1847,330,0,0
630,694,0,0,0,0,0,0,0,0,0,-1,1854,330,0,0
637,694,0,0,0,0,0,0,0,0,0,-1,1861,330,0,0
644,694,0,0,0,0,0,0,0,0,0,-1,1868,330,0,0
651,694,0,0,0,0,0,0,0,0,0,-1,1875,330,0,0
658,694,0,0,0,0,0,0,0,0,0,-1,1882,330,0,0
665,694,0,0,0,0,0,0,0,0,0,-1,1889,330,0,0
672,694,0,0,0,0,0,0,0,0,0,-1,1896,330,0,0
679,694,0,0,0,0,0,0,0,0,0,-1,1903,330,0,0
686,694,0,0,0,0,0,0,0,0,0,-1,1910,330,0,0
693,694,0,0,0,0,0,0,0,0,0,-1,1917,330,0,0
700,694,0,0,0,0,0,0,0,0,0,-1,1924,330,0,0
707,694,0,0,0,0,0,0,0,0,0,-1,1931,330,0,0
714,694,0,0,0,0,0,0,0,0,0,-1,1938,330,0,0
721,694,0,0,0,0,0,0,0,0,0,-1,1945,330,0,0
728,694,0,0,0,0,0,0,0,0,0,-1,1952,330,0,0
735,694,0,0,0,0,0,0,0,0,0,-1,1959,330,0,0
742,694,0,0,0,0,0,0,0,0,0,-1,1966,330,0,0
749,694,0,0,0,0,0,0,0,0,0,-1,1973,330,0,0
756,694,0,0,0,0,0,0,0,0,0,-1,1980,330,0,0
763,694,0,0,0,0,0,0,0,0,0,-1,1987,330,0,0
770,694,0,0,0,0,0,0,0,0,0,-1,1994,330,0,0
777,694,0,0,0,0,0,0,0,0,0,-1,2001,330,0,0
784,694,0,0,0,0,0,0,0,0,0,-1,2008,330,0,0
791,694,0,0,0,0,0,0,0,0,0,-1,2015,330,0,0
798,694,0,0,0,0,0,0,0,0,0,-1,2022,330,0,0
805,694,0,0,0,0,0,0,0,0,0,-1,2029,330,0,0
812,694,0,0,0,0,0,0,0,0,0,-1,2036,330,0,0
-700,687,0,0,0,0,0,0,0,0,0,-1,524,337,0,0
-693,687,0,0,0,0,0,0,0,0,0,-1,531,337,0,0
-686,687,0,0,0,0,0,0,0,0,0,-1,538,337,0,0
-679,687,0,0,0,0,0,0,0,0,0,-1,545,337,0,0
-672,687,0,0,0,0,0,0,0,0,0,-1,552,337,0,0
-665,687,0,0,0,0,0,0,0,0,0,-1,559,337,0,0
-658,687,0,0,0,0,0,0,0,0,0,-1,566,337,0,0
-651,687,0,0,0,0,0,0,0,0,0,-1,573,337,0,0
-644,687,0,0,0,0,0,0,0,0,0,-1,580,337,0,0
-637,687,0,0,0,0,0,0,0,0,0,-1,587,337,0,0
-630,687,0,0,0,0,0,0,0,0,0,-1,594,337,0,0
-623,687,0,0,0,0,0,0,0,0,0,-1,601,337,0,0
-616,687,0,0,0,0,0,0,0,0,0,-1,608,337,0,0
-609,687,0,0,0,0,0,0,0,0,0,-1,615,337,0,0
-602,687,0,0,0,0,0,0,0,0,0,-1,622,337,0,0
-595,687,0,0,0,0,0,0,0,0,0,-1,629,337,0,0
-588,687,0,0,0,0,0,0,0,0,0,-1,636,337,0,0
-581,687,0,0,0,0,0,0,0,0,0,-1,643,337,0,0
-574,687,0,0,0,0,0,0,0,0,0,-1,650,337,0,0
-567,687,0,0,0,0,0,0,0,0,0,-1,657,337,0,0
-560,687,0,0,0,0,0,0,0,0,0,-1,664,337,0,0
-553,687,0,0,0,0,0,0,0,0,0,-1,671,337,0,0
-546,687,0,0,0,0,0,0,0,0,0,-1,678,337,0,0
-539,687,0,0,0,0,0,0,0,0,0,-1,685,337,0,0
-532,687,0,0,0,0,0,0,0,0,0,-1,692,337,0,0
-525,687,0,0,0,0,0,0,0,0,0,-1,699,337,0,0
-518,687,0,0,0,0,0,0,0,0,0,-1,706,337,0,0
-511,687,0,0,0,0,0,0,0,0,0,-1,713,337,0,0
-504,687,0,0,0,0,0,0,0,0,0,-1,720,337,0,0
-497,687,0,0,0,0,0,0,0,0,0,-1,727,337,0,0
-490,687,0,0,0,0,0,0,0,0,0,-1,734,337,0,0
-483,687,0,0,0,0,0,0,0,0,0,-1,741,337,0,0
-476,687,0,0,0,0,0,0,0,0,0,-1,748,337,0,0
-469,687,0,0,0,0,0,0,0,0,0,-1,755,337,0,0
-462,687,0,0,0,0,0,0,0,0,0,-1,762,337,0,0
-455,687,0,0,0,0,0,0,0,0,0,-1,769,337,0,0
-448,687,0,0,0,0,0,0,0,0,0,-1,776,337,0,0
-441,687,0,0,0,0,0,0,0,0,0,-1,783,337,0,0
-434,687,0,0,0,0,0,0,0,0,0,-1,790,337,0,0
-427,687,0,0,0,0,0,0,0,0,0,-1,797,337,0,0
-420,687,0,0,0,0,0,0,0,0,0,-1,804,337,0,0
-413,687,0,0,0,0,0,0,0,0,0,-1,811,337,0,0
-406,687,0,0,0,0,0,0,0,0,0,-1,818,337,0,0
-399,687,0,0,0,0,0,0,0,0,0,-1,825,337,0,0
-392,687,0,0,0,0,0,0,0,0,0,-1,832,337,0,0
-385,687,0,0,0,0,0,0,0,0,0,-1,839,337,0,0
-378,687,0,0,0,0,0,0,0,0,0,-1,846,337,0,0
-371,687,0,0,0,0,0,0,0,0,0,-1,853,337,0,0
-364,687,0,0,0,0,0,0,0,0,0,-1,860,337,0,0
-357,687,0,0,0,0,0,0,0,0,0,-1,867,337,0,0
-350,687,0,0,0,0,0,0,0,0,0,-1,874,337,0,0
-343,687,0,0,0,0,0,0,0,0,0,-1,881,337,0,0
-336,687,0,0,0,0,0,0,0,0,0,-1,888,337,0,0
-329,687,0,0,0,0,0,0,0,0,0,-1,895,337,0,0
-322,687,0,0,0,0,0,0,0,0,0,-1,902,337,0,0
-315,687,0,0,0,0,0,0,0,0,0,-1,909,337,0,0
-308,687,0,0,0,0,0,0,0,0,0,-1,916,337,0,0
-301,687,0,0,0,0,0,0,0,0,0,-1,923,337,0,0
-294,687,0,0,0,0,0,0,0,0,0,-1,930,337,0,0
-287,687,0,0,0,0,0,0,0,0,0,-1,937,337,0,0
-280,687,0,0,0,0,0,0,0,0,0,-1,944,337,0,0
-273,687,0,0,0,0,0,0,0,0,0,-1,951,337,0,0
-266,687,0,0,0,0,0,0,0,0,0,-1,958,337,0,0
-259,687,0,0,0,0,0,0,0,0,0,-1,965,337,0,0
-252,687,0,0,0,0,0,0,0,0,0,-1,972,337,0,0
-245,687,0,0,0,0,0,0,0,0,0,-1,979,337,0,0
-238,687,0,0,0,0,0,0,0,0,0,-1,986,337,0,0
-231,687,0,0,0,0,0,0,0,0,0,-1,993,337,0,0
-224,687,0,0,0,0,0,0,0,0,0,-1,1000,337,0,0
-217,687,0,0,0,0,0,0,0,0,0,-1,1007,337,0,0
-210,687,0,0,0,0,0,0,0,0,0,-1,1014,337,0,0
-203,687,0,0,0,0,0,0,0,0,0,-1,1021,337,0,0
-196,687,0,0,0,0,0,0,0,0,0,-1,1028,337,0,0
-189,687,0,0,0,0,0,0,0,0,0,-1,1035,337,0,0
-182,687,0,0,0,0,0,0,0,0,0,-1,1042,337,0,0
-175,687,0,0,0,0,0,0,0,0,0,-1,1049,337,0,0
-168,687,0,0,0,0,0,0,0,0,0,-1,1056,337,0,0
-161,687,0,0,0,0,0,0,0,0,0,-1,1063,337,0,0
-154,687,0,0,0,0,0,0,0,0,0,-1,1070,337,0,0
-147,687,0,0,0,0,0,0,0,0,0,-1,1077,337,0,0
-140,687,0,0,0,0,0,0,0,0,0,-1,1084,337,0,0
-133,687,2.16895,-19.4911,0,0,0,0,0,0,0,-1,1091,337,2.16889,19.4911
-126,687,3.54932,-20.9862,0,0,0,0,0,0,0,-1,1098,337,3.54935,20.9862
-119,687,3.40247,-20.072,0,0,0,0,0,0,0,-1,1105,337,3.40244,20.072
-112,687,3.25354,-19.1665,0,0,0,0,0,0,0,-1,1112,337,3.25353,19.1665
-105,687,3.05957,-18.0438,0,0,0,0,0,0,0,-1,1119,337,3.05959,18.0438
-98,687,3.33679,-15.4141,0,0,0,0,0,0,0,-1,1126,337,3.33683,15.4141
-91,687,2.28162,-7.72437,0,0,0,0,0,0,0,-1,1133,337,2.28167,7.72437
-84,687,-0.867676,-5.7392,0,0,0,0,0,0,0,-1,1140,337,-0.867619,5.73919
-77,687,-3.63806,-12.9185,0,0,0,0,0,0,0,-1,1147,337,-3.6381,12.9185
-70,687,-6.24756,-13.2618,0,0,0,0,0,0,0,-1,1154,337,-6.24752,13.2618
-63,687,-8.37585,-12.8959,0,0,0,0,0,0,0,-1,1161,337,-8.3758,12.8959
-56,687,-12.91,-10.9161,0,0,0,0,0,0,0,-1,1168,337,-12.91,10.9161
-49,687,-15.6449,-9.94391,0,0,0,0,0,0,0,-1,1175,337,-15.6449,9.94392
-42,687,-4.2019,-0.405609,0,0,0,0,0,0,0,-1,1182,337,-4.20192,0.405614
-35,687,-4.42273,-0.688171,0,0,0,0,0,0,0,-1,1189,337,-4.42276,0.688178
-28,687,-1.14038,-1.39072,0,0,0,0,0,0,0,-1,1196,337,-1.14035,1.3907
-21,687,1.14038,-15.9018,0,0,0,0,0,0,0,-1,1203,337,1.14038,15.9018
-14,687,2.90442,-17.226,0,0,0,0,0,0,0,-1,1210,337,2.90439,17.2259
-7,687,1.85437,-16.1082,0,0,0,0,0,0,0,-1,1217,337,1.85442,16.1082
0,687,2.25537,-16.3896,0,0,0,0,0,0,0,-1,1224,337,2.25533,16.3896
7,687,3.43262,-16.6206,-0.000378357,0.0321129,0.0149478,0.0379434,-0.00620889,1.19889,0.027599,0.0469187,1231,337,3.43266,16.6206
14,687,4.8877,-16.713,0,0,0,0,0,0,0,-1,1238,337,4.88764,16.7129
21,687,3.16248,-17.6397,-0.0192188,0.0399162,0.020505,0.0463305,-0.0256331,1.26762,0.0421171,0.0475139,1245,337,3.16243,17.6398
28,687,3.45605,-17.8824,-0.0286987,0.0451266,0.0227638,0.0515814,-0.0351535,1.29449,0.0503749,0.0476796,1252,337,3.45609,17.8824
35,687,3.50769,-18.2853,0,0,0,0,0,0,0,-1,1259,337,3.50769,18.2853
42,687,0.119751,-17.5046,-0.029394,0.0650804,0.0184409,0.0685524,-0.032866,1.3847,0.05975,0.0482765,1266,337,0.119776,17.5046
49,687,-0.822144,-17.4064,-0.0266772,0.075494,0.0149752,0.0776437,-0.0288269,1.42822,0.0635881,0.0486307,1273,337,-0.822139,17.4064
56,687,-1.43982,-16.3528,-0.0203256,0.0857745,0.0102382,0.0867534,-0.0213045,1.47547,0.0660917,0.0462052,1280,337,-1.43981,16.3527
63,687,-2.28992,-16.0216,-0.01172,0.0931212,0.00377866,0.0932572,-0.011856,1.53482,0.0664768,0.0463236,1287,337,-2.28997,16.0216
70,687,-3.18359,-15.705,0.000664687,0.0964545,-0.00302093,0.0965497,0.000569511,-1.5393,0.0641775,0.0464859,1294,337,-3.18354,15.705
77,687,-4.10193,-15.4209,0,0,0,0,0,0,0,-1,1301,337,-4.10187,15.4209
84,687,2.29736,-17.6113,0.0240207,0.0938742,-0.0128773,0.0961725,0.0217224,-1.39418,0.0582406,0.0464538,1308,337,2.29738,17.6113
91,687,2.79785,-17.5911,0.0334367,0.0866455,-0.0165562,0.0913764,0.0287058,-1.29246,0.0539573,0.0469646,1315,337,2.79782,17.5911
98,687,3.52258,-17.8292,0,0,0,0,0,0,0,-1,1322,337,3.52255,17.8292
105,687,2.54553,-17.0794,0,0,0,0,0,0,0,-1,1329,337,2.54551,17.0794
112,687,2.49402,-17.0415,0.0536718,0.0424338,-0.0180276,0.0669358,0.0291698,-0.634326,0.0387515,0.0421289,1336,337,2.49401,17.0415
119,687,2.39697,-18.1612,0.0570302,0.0249325,-0.0164233,0.0639441,0.0180185,-0.398465,0.0380721,0.045994,1343,337,2.39696,18.1612
126,687,2.61829,-17.696,0.0560747,0.00541804,-0.0116345,0.0586191,0.00287371,-0.2153,0.0381576,0.0442902,1350,337,2.61823,17.696
133,687,2.88953,-17.2176,0.052944,-0.00967212,-0.00604579,0.0535224,-0.0102505,-0.0953792,0.0395438,0.0445255,1357,337,2.88948,17.2176
140,687,3.13721,-16.5121,0.0449429,-0.0286212,0.00397114,0.0451566,-0.0288349,0.0537738,0.0430641,0.0473187,1364,337,3.13715,16.5121
147,687,3.47546,-15.6097,0,0,0,0,0,0,0,-1,1371,337,3.47546,15.6098
154,687,2.06433,-16.4324,0,0,0,0,0,0,0,-1,1378,337,2.06436,16.4324
161,687,2.44641,-15.2103,0,0,0,0,0,0,0,-1,1385,337,2.44636,15.2103
168,687,6.66968,1.37039,0,0,0,0,0,0,0,-1,1392,337,6.6697,-1.37039
175,687,6.64075,0.771606,0,0,0,0,0,0,0,-1,1399,337,6.64073,-0.771595
182,687,6.67249,0.289917,0,0,0,0,0,0,0,-1,1406,337,6.67247,-0.289916
189,687,7.76062,4.53635,0,0,0,0,0,0,0,-1,1413,337,7.76064,-4.53636
196,687,6.99048,3.2966,0,0,0,0,0,0,0,-1,1420,337,6.99046,-3.2966
203,687,6.36499,2.1445,0,0,0,0,0,0,0,-1,1427,337,6.36499,-2.14451
210,687,6.68066,0.674652,0,0,0,0,0,0,0,-1,1434,337,6.68062,-0.674655
217,687,5.99683,-0.630493,0,0,0,0,0,0,0,-1,1441,337,5.99684,0.630497
224,687,5.52917,0.524902,0,0,0,0,0,0,0,-1,1448,337,5.5292,-0.524915
231,687,5.85583,-1.73651,0,0,0,0,0,0,0,-1,1455,337,5.85577,1.73651
238,687,5.96582,-2.96774,0,0,0,0,0,0,0,-1,1462,337,5.96577,2.96773
245,687,1.28259,2.32211,0,0,0,0,0,0,0,-1,1469,337,1.28258,-2.32211
252,687,1.97278,3.88422,0,0,0,0,0,0,0,-1,1476,337,1.97281,-3.88421
259,687,0,0,0,0,0,0,0,0,0,-1,1483,337,0,0
266,687,0,0,0,0,0,0,0,0,0,-1,1490,337,0,0
273,687,0,0,0,0,0,0,0,0,0,-1,1497,337,0,0
280,687,0,0,0,0,0,0,0,0,0,-1,1504,337,0,0
287,687,0,0,0,0,0,0,0,0,0,-1,1511,337,0,0
294,687,0,0,0,0,0,0,0,0,0,-1,1518,337,0,0
301,687,0,0,0,0,0,0,0,0,0,-1,1525,337,0,0
308,687,0,0,0,0,0,0,0,0,0,-1,1532,337,0,0
315,687,0,0,0,0,0,0,0,0,0,-1,1539,337,0,0
322,687,0,0,0,0,0,0,0,0,0,-1,1546,337,0,0
329,687,0,0,0,0,0,0,0,0,0,-1,1553,337,0,0
336,687,0,0,0,0,0,0,0,0,0,-1,1560,337,0,0
343,687,0,0,0,0,0,0,0,0,0,-1,1567,337,0,0
350,687,0,0,0,0,0,0,0,0,0,-1,1574,337,0,0
357,687,0,0,0,0,0,0,0,0,0,-1,1581,337,0,0
364,687,0,0,0,0,0,0,0,0,0,-1,1588,337,0,0
371,687,0,0,0,0,0,0,0,0,0,-1,1595,337,0,0
378,687,0,0,0,0,0,0,0,0,0,-1,1602,337,0,0
385,687,0,0,0,0,0,0,0,0,0,-1,1609,337,0,0
392,687,0,0,0,0,0,0,0,0,0,-1,1616,337,0,0
399,687,0,0,0,0,0,0,0,0,0,-1,1623,337,0,0
406,687,0,0,0,0,0,0,0,0,0,-1,1630,337,0,0
413,687,0,0,0,0,0,0,0,0,0,-1,1637,337,0,0
420,687,0,0,0,0,0,0,0,0,0,-1,1644,337,0,0
427,687,0,0,0,0,0,0,0,0,0,-1,1651,337,0,0
434,687,0,0,0,0,0,0,0,0,0,-1,1658,337,0,0
441,687,0,0,0,0,0,0,0,0,0,-1,1665,337,0,0
448,687,0,0,0,0,0,0,0,0,0,-1,1672,337,0,0
455,687,0,0,0,0,0,0,0,0,0,-1,1679,337,0,0
462,687,0,0,0,0,0,0,0,0,0,-1,1686,337,0,0
469,687,0,0,0,0,0,0,0,0,0,-1,1693,337,0,0
476,687,0,0,0,0,0,0,0,0,0,-1,1700,337,0,0
483,687,0,0,0,0,0,0,0,0,0,-1,1707,337,0,0
490,687,0,0,0,0,0,0,0,0,0,-1,1714,337,0,0
497,687,0,0,0,0,0,0,0,0,0,-1,1721,337,0,0
504,687,0,0,0,0,0,0,0,0,0,-1,1728,337,0,0
511,687,0,0,0,0,0,0,0,0,0,-1,1735,337,0,0
518,687,0,0,0,0,0,0,0,0,0,-1,1742,337,0,0
525,687,0,0,0,0,0,0,0,0,0,-1,1749,337,0,0
532,687,0,0,0,0,0,0,0,0,0,-1,1756,337,0,0
539,687,0,0,0,0,0,0,0,0,0,-1,1763,337,0,0
546,687,0,0,0,0,0,0,0,0,0,-1,1770,337,0,0
553,687,0,0,0,0,0,0,0,0,0,-1,1777,337,0,0
560,687,0,0,0,0,0,0,0,0,0,-1,1784,337,0,0
567,687,0,0,0,0,0,0,0,0,0,-1,1791,337,0,0
574,687,0,0,0,0,0,0,0,0,0,-1,1798,337,0,0
581,687,0,0,0,0,0,0,0,0,0,-1,1805,337,0,0
588,687,0,0,0,0,0,0,0,0,0,-1,1812,337,0,0
595,687,0,0,0,0,0,0,0,0,0,-1,1819,337,0,0
602,687,0,0,0,0,0,0,0,0,0,-1,1826,337,0,0
609,687,0,0,0,0,0,0,0,0,0,-1,1833,337,0,0
616,687,0,0,0,0,0,0,0,0,0,-1,1840,337,0,0
623,687,0,0,0,0,0,0,0,0,0,-1,1847,337,0,0
630,687,0,0,0,0,0,0,0,0,0,-1,1854,337,0,0
637,687,0,0,0,0,0,0,0,0,0,-1,1861,337,0,0
644,687,0,0,0,0,0,0,0,0,0,-1,1868,337,0,0
651,687,0,0,0,0,0,0,0,0,0,-1,1875,337,0,0
658,687,0,0,0,0,0,0,0,0,0,-1,1882,337,0,0
665,687,0,0,0,0,0,0,0,0,0,-1,1889,337,0,0
672,687,0,0,0,0,0,0,0,0,0,-1,1896,337,0,0
679,687,0,0,0,0,0,0,0,0,0,-1,1903,337,0,0
686,687,0,0,0,0,0,0,0,0,0,-1,1910,337,0,0
693,687,0,0,0,0,0,0,0,0,0,-1,1917,337,0,0
700,687,0,0,0,0,0,0,0,0,0,-1,1924,337,0,0
707,687,0,0,0,0,0,0,0,0,0,-1,1931,337,0,0
714,687,0,0,0,0,0,0,0,0,0,-1,1938,337,0,0
721,687,0,0,0,0,0,0,0,0,0,-1,1945,337,0,0
728,687,0,0,0,0,0,0,0,0,0,-1,1952,337,0,0
735,687,0,0,0,0,0,0,0,0,0,-1,1959,337,0,0
742,687,0,0,0,0,0,0,0,0,0,-1,1966,337,0,0
749,687,0,0,0,0,0,0,0,0,0,-1,1973,337,0,0
756,687,0,0,0,0,0,0,0,0,0,-1,1980,337,0,0
763,687,0,0,0,0,0,0,0,0,0,-1,1987,337,0,0
770,687,0,0,0,0,0,0,0,0,0,-1,1994,337,0,0
777,687,0,0,0,0,0,0,0,0,0,-1,2001,337,0,0
784,687,0,0,0,0,0,0,0,0,0,-1,2008,337,0,0
791,687,0,0,0,0,0,0,0,0,0,-1,2015,337,0,0
798,687,0,0,0,0,0,0,0,0,0,-1,2022,337,0,0
805,687,0,0,0,0,0,0,0,0,0,-1,2029,337,0,0
812,687,0,0,0,0,0,0,0,0,0,-1,2036,337,0,0
-700,680,0,0,0,0,0,0,0,0,0,-1,524,344,0,0
-693,680,0,0,0,0,0,0,0,0,0,-1,531,344,0,0
-686,680,0,0,0,0,0,0,0,0,0,-1,538,344,0,0
-679,680,0,0,0,0,0,0,0,0,0,-1,545,344,0,0
-672,680,0,0,0,0,0,0,0,0,0,-1,552,344,0,0
-665,680,0,0,0,0,0,0,0,0,0,-1,559,344,0,0
-658,680,0,0,0,0,0,0,0,0,0,-1,566,344,0,0
-651,680,0,0,0,0,0,0,0,0,0,-1,573,344,0,0
-644,680,0,0,0,0,0,0,0,0,0,-1,580,344,0,0
-637,680,0,0,0,0,0,0,0,0,0,-1,587,344,0,0
-630,680,0,0,0,0,0,0,0,0,0,-1,594,344,0,0
-623,680,0,0,0,0,0,0,0,0,0,-1,601,344,0,0
-616,680,0,0,0,0,0,0,0,0,0,-1,608,344,0,0
-609,680,0,0,0,0,0,0,0,0,0,-1,615,344,0,0
-602,680,0,0,0,0,0,0,0,0,0,-1,622,344,0,0
-595,680,0,0,0,0,0,0,0,0,0,-1,629,344,0,0
-588,680,0,0,0,0,0,0,0,0,0,-1,636,344,0,0
-581,680,0,0,0,0,0,0,0,0,0,-1,643,344,0,0
-574,680,0,0,0,0,0,0,0,0,0,-1,650,344,0,0
-567,680,0,0,0,0,0,0,0,0,0,-1,657,344,0,0
-560,680,0,0,0,0,0,0,0,0,0,-1,664,344,0,0
-553,680,0,0,0,0,0,0,0,0,0,-1,671,344,0,0
-546,680,0,0,0,0,0,0,0,0,0,-1,678,344,0,0
-539,680,0,0,0,0,0,0,0,0,0,-1,685,344,0,0
-532,680,0,0,0,0,0,0,0,0,0,-1,692,344,0,0
-525,680,0,0,0,0,0,0,0,0,0,-1,699,344,0,0
-518,680,0,0,0,0,0,0,0,0,0,-1,706,344,0,0
-511,680,0,0,0,0,0,0,0,0,0,-1,713,344,0,0
-504,680,0,0,0,0,0,0,0,0,0,-1,720,344,0,0
-497,680,0,0,0,0,0,0,0,0,0,-1,727,344,0,0
-490,680,0,0,0,0,0,0,0,0,0,-1,734,344,0,0
-483,680,0,0,0,0,0,0,0,0,0,-1,741,344,0,0
-476,680,0,0,0,0,0,0,0,0,0,-1,748,344,0,0
-469,680,0,0,0,0,0,0,0,0,0,-1,755,344,0,0
-462,680,0,0,0,0,0,0,0,0,0,-1,762,344,0,0
-455,680,0,0,0,0,0,0,0,0,0,-1,769,344,0,0
-448,680,0,0,0,0,0,0,0,0,0,-1,776,344,0,0
-441,680,0,0,0,0,0,0,0,0,0,-1,783,344,0,0
-434,680,0,0,0,0,0,0,0,0,0,-1,790,344,0,0
-427,680,0,0,0,0,0,0,0,0,0,-1,797,344,0,0
-420,680,0,0,0,0,0,0,0,0,0,-1,804,344,0,0
-413,680,0,0,0,0,0,0,0,0,0,-1,811,344,0,0
-406,680,0,0,0,0,0,0,0,0,0,-1,818,344,0,0
-399,680,0,0,0,0,0,0,0,0,0,-1,825,344,0,0
-392,680,0,0,0,0,0,0,0,0,0,-1,832,344,0,0
-385,680,0,0,0,0,0,0,0,0,0,-1,839,344,0,0
-378,680,0,0,0,0,0,0,0,0,0,-1,846,344,0,0
-371,680,0,0,0,0,0,0,0,0,0,-1,853,344,0,0
-364,680,0,0,0,0,0,0,0,0,0,-1,860,344,0,0
-357,680,0,0,0,0,0,0,0,0,0,-1,867,344,0,0
-350,680,0,0,0,0,0,0,0,0,0,-1,874,344,0,0
-343,680,0,0,0,0,0,0,0,0,0,-1,881,344,0,0
-336,680,0,0,0,0,0,0,0,0,0,-1,888,344,0,0
-329,680,0,0,0,0,0,0,0,0,0,-1,895,344,0,0
-322,680,0,0,0,0,0,0,0,0,0,-1,902,344,0,0
-315,680,0,0,0,0,0,0,0,0,0,-1,909,344,0,0
-308,680,0,0,0,0,0,0,0,0,0,-1,916,344,0,0
-301,680,0,0,0,0,0,0,0,0,0,-1,923,344,0,0
-294,680,0,0,0,0,0,0,0,0,0,-1,930,344,0,0
-287,680,0,0,0,0,0,0,0,0,0,-1,937,344,0,0
-280,680,0,0,0,0,0,0,0,0,0,-1,944,344,0,0
-273,680,0,0,0,0,0,0,0,0,0,-1,951,344,0,0
-266,680,0,0,0,0,0,0,0,0,0,-1,958,344,0,0
-259,680,0,0,0,0,0,0,0,0,0,-1,965,344,0,0
-252,680,0,0,0,0,0,0,0,0,0,-1,972,344,0,0
-245,680,0,0,0,0,0,0,0,0,0,-1,979,344,0,0
-238,680,0,0,0,0,0,0,0,0,0,-1,986,344,0,0
-231,680,0,0,0,0,0,0,0,0,0,-1,993,344,0,0
-224,680,0,0,0,0,0,0,0,0,0,-1,1000,344,0,0
-217,680,0,0,0,0,0,0,0,0,0,-1,1007,344,0,0
-210,680,0,0,0,0,0,0,0,0,0,-1,1014,344,0,0
-203,680,0,0,0,0,0,0,0,0,0,-1,1021,344,0,0
-196,680,0,0,0,0,0,0,0,0,0,-1,1028,344,0,0
-189,680,0,0,0,0,0,0,0,0,0,-1,1035,344,0,0
-182,680,0,0,0,0,0,0,0,0,0,-1,1042,344,0,0
-175,680,0,0,0,0,0,0,0,0,0,-1,1049,344,0,0
-168,680,0,0,0,0,0,0,0,0,0,-1,1056,344,0,0
-161,680,0,0,0,0,0,0,0,0,0,-1,1063,344,0,0
-154,680,2.93018,-16.3629,0,0,0,0,0,0,0,-1,1070,344,2.93013,16.3629
-147,680,3.84229,-19.9126,0,0,0,0,0,0,0,-1,1077,344,3.84227,19.9126
-140,680,4.02417,-18.4484,0,0,0,0,0,0,0,-1,1084,344,4.02421,18.4484
-133,680,1.7467,-18.0083,0,0,0,0,0,0,0,-1,1091,344,1.74676,18.0083
-126,680,5.55103,-18.3308,0,0,0,0,0,0,0,-1,1098,344,5.55104,18.3308
-119,680,4.65454,-17.5753,0,0,0,0,0,0,0,-1,1105,344,4.65457,17.5753
-112,680,4.05945,-16.8604,0,0,0,0,0,0,0,-1,1112,344,4.05949,16.8604
-105,680,3.64246,-16.5771,-0.0352918,-0.0094017,0.0679191,0.046795,-0.0914885,0.879566,0.0812161,0.0436002,1119,344,3.64247,16.5771
-98,680,3.19885,-15.4253,-0.041222,-0.00179206,0.0656516,0.0470408,-0.0900549,0.931263,0.0804404,0.0474296,1126,344,3.1989,15.4253
-91,680,2.73938,-14.278,0,0,0,0,0,0,0,-1,1133,344,2.73941,14.278
-84,680,1.92285,-8.71033,0,0,0,0,0,0,0,-1,1140,344,1.92286,8.71034
-77,680,-2.41516,-7.36899,0,0,0,0,0,0,0,-1,1147,344,-2.41511,7.36899
-70,680,-5.54321,-14.526,0,0,0,0,0,0,0,-1,1154,344,-5.54317,14.526
-63,680,-5.41333,-13.0013,0,0,0,0,0,0,0,-1,1161,344,-5.41332,13.0013
-56,680,-6.96912,-8.83356,0,0,0,0,0,0,0,-1,1168,344,-6.96907,8.83354
-49,680,-6.7677,-2.24063,0,0,0,0,0,0,0,-1,1175,344,-6.76772,2.24063
-42,680,-1.02368,0.618805,0,0,0,0,0,0,0,-1,1182,344,-1.0237,-0.618797
-35,680,-0.947876,-0.942719,0,0,0,0,0,0,0,-1,1189,344,-0.947842,0.942731
-28,680,-1.46118,-1.10574,0,0,0,0,0,0,0,-1,1196,344,-1.4612,1.10575
-21,680,2.97571,-17.3014,0,0,0,0,0,0,0,-1,1203,344,2.97567,17.3014
-14,680,2.94739,-17.3401,0,0,0,0,0,0,0,-1,1210,344,2.94736,17.3401
-7,680,2.95667,-17.3946,0,0,0,0,0,0,0,-1,1217,344,2.95663,17.3946
0,680,2.83569,-17.3516,0.00582435,0.0244512,0.0076504,0.0271905,0.00308503,1.22696,0.0171912,0.0492576,1224,344,2.83567,17.3516
7,680,3.23901,-17.3075,-0.00100412,0.0262295,0.0100805,0.0295547,-0.00432937,1.25217,0.0212935,0.046266,1231,344,3.23897,17.3075
14,680,3.88147,-17.3087,0,0,0,0,0,0,0,-1,1238,344,3.88146,17.3087
21,680,3.15332,-17.6526,-0.0154396,0.0329719,0.014388,0.0369252,-0.0193929,1.30265,0.0330363,0.045502,1245,344,3.15327,17.6527
28,680,3.0979,-17.8507,-0.0227561,0.0369405,0.0161954,0.0410512,-0.0268668,1.32223,0.0394965,0.0447501,1252,344,3.09792,17.8507
35,680,2.94592,-18.2505,-0.0255343,0.0466213,0.0139697,0.0492315,-0.0281445,1.38608,0.0452226,0.043517,1259,344,2.9459,18.2505
42,680,-0.691772,-18.5628,0,0,0,0,0,0,0,-1,1266,344,-0.691788,18.5628
49,680,2.89404,-17.5927,0,0,0,0,0,0,0,-1,1273,344,2.894,17.5927
56,680,-1.79102,-17.0511,0,0,0,0,0,0,0,-1,1280,344,-1.79102,17.0511
63,680,-2.72156,-16.8456,0,0,0,0,0,0,0,-1,1287,344,-2.72162,16.8456
70,680,3.3136,-17.5139,0,0,0,0,0,0,0,-1,1294,344,3.31363,17.5139
77,680,3.0459,-17.5994,0,0,0,0,0,0,0,-1,1301,344,3.04586,17.5994
84,680,3.03357,-17.8448,0,0,0,0,0,0,0,-1,1308,344,3.03354,17.8448
91,680,2.97241,-17.7498,0,0,0,0,0,0,0,-1,1315,344,2.97237,17.7498
98,680,2.60425,-17.1926,0,0,0,0,0,0,0,-1,1322,344,2.60429,17.1926
105,680,2.51025,-17.1508,0.0372335,0.0467008,-0.0163503,0.0589889,0.0249454,-0.926304,0.034192,0.0449456,1329,344,2.51029,17.1508
112,680,2.39026,-17.1042,0.0402587,0.0343775,-0.0154907,0.0530855,0.0215507,-0.691601,0.0308291,0.0466459,1336,344,2.39023,17.1043
119,680,2.23254,-17.0985,0.0415899,0.0209975,-0.013556,0.0483166,0.0142709,-0.460612,0.0286638,0.0472658,1343,344,2.23249,17.0985
126,680,3.47827,-17.0212,0,0,0,0,0,0,0,-1,1350,344,3.47831,17.0212
133,680,2.95325,-17.1203,0,0,0,0,0,0,0,-1,1357,344,2.95328,17.1203
140,680,2.72693,-16.9049,0,0,0,0,0,0,0,-1,1364,344,2.72688,16.9049
147,680,2.35596,-17.0501,0,0,0,0,0,0,0,-1,1371,344,2.35591,17.0501
154,680,2.23792,-16.6183,0,0,0,0,0,0,0,-1,1378,344,2.23793,16.6183
161,680,2.20532,-16.4923,0,0,0,0,0,0,0,-1,1385,344,2.20536,16.4923
168,680,6.85046,1.69257,0,0,0,0,0,0,0,-1,1392,344,6.85045,-1.69257
175,680,6.66541,0.942078,0,0,0,0,0,0,0,-1,1399,344,6.66538,-0.942088
182,680,6.52917,0.532379,0,0,0,0,0,0,0,-1,1406,344,6.52922,-0.532385
189,680,7.55884,4.77695,0,0,0,0,0,0,0,-1,1413,344,7.55886,-4.77694
196,680,6.55627,3.35254,0,0,0,0,0,0,0,-1,1420,344,6.55622,-3.35255
203,680,5.7334,1.90753,0,0,0,0,0,0,0,-1,1427,344,5.73341,-1.90754
210,680,5.27515,0.493622,0,0,0,0,0,0,0,-1,1434,344,5.27514,-0.493632
217,680,6.56384,-0.374176,0,0,0,0,0,0,0,-1,1441,344,6.56379,0.374176
224,680,3.9491,-0.640228,0,0,0,0,0,0,0,-1,1448,344,3.94908,0.64024
231,680,4.24866,-1.96881,0,0,0,0,0,0,0,-1,1455,344,4.2486,1.96882
238,680,4.29333,-3.23984,0,0,0,0,0,0,0,-1,1462,344,4.29332,3.23984
245,680,2.44397,0.985382,0,0,0,0,0,0,0,-1,1469,344,2.44402,-0.985394
252,680,3.07349,2.18951,0,0,0,0,0,0,0,-1,1476,344,3.0735,-2.18952
259,680,2.82971,1.30682,0,0,0,0,0,0,0,-1,1483,344,2.82972,-1.30684
266,680,2.67554,1.44067,0,0,0,0,0,0,0,-1,1490,344,2.67551,-1.44066
273,680,2.46411,1.54666,0,0,0,0,0,0,0,-1,1497,344,2.46407,-1.54666
280,680,0,0,0,0,0,0,0,0,0,-1,1504,344,0,0
287,680,0,0,0,0,0,0,0,0,0,-1,1511,344,0,0
294,680,0,0,0,0,0,0,0,0,0,-1,1518,344,0,0
301,680,0,0,0,0,0,0,0,0,0,-1,1525,344,0,0
308,680,0,0,0,0,0,0,0,0,0,-1,1532,344,0,0
315,680,0,0,0,0,0,0,0,0,0,-1,1539,344,0,0
322,680,0,0,0,0,0,0,0,0,0,-1,1546,344,0,0
329,680,0,0,0,0,0,0,0,0,0,-1,1553,344,0,0
336,680,0,0,0,0,0,0,0,0,0,-1,1560,344,0,0
343,680,0,0,0,0,0,0,0,0,0,-1,1567,344,0,0
350,680,0,0,0,0,0,0,0,0,0,-1,1574,344,0,0
357,680,0,0,0,0,0,0,0,0,0,-1,1581,344,0,0
364,680,0,0,0,0,0,0,0,0,0,-1,1588,344,0,0
371,680,0,0,0,0,0,0,0,0,0,-1,1595,344,0,0
378,680,0,0,0,0,0,0,0,0,0,-1,1602,344,0,0
385,680,0,0,0,0,0,0,0,0,0,-1,1609,344,0,0
392,680,0,0,0,0,0,0,0,0,0,-1,1616,344,0,0
399,680,0,0,0,0,0,0,0,0,0,-1,1623,344,0,0
406,680,0,0,0,0,0,0,0,0,0,-1,1630,344,0,0
413,680,0,0,0,0,0,0,0,0,0,-1,1637,344,0,0
420,680,0,0,0,0,0,0,0,0,0,-1,1644,344,0,0
427,680,0,0,0,0,0,0,0,0,0,-1,1651,344,0,0
434,680,0,0,0,0,0,0,0,0,0,-1,1658,344,0,0
441,680,0,0,0,0,0,0,0,0,0,-1,1665,344,0,0
448,680,0,0,0,0,0,0,0,0,0,-1,1672,344,0,0
455,680,0,0,0,0,0,0,0,0,0,-1,1679,344,0,0
462,680,0,0,0,0,0,0,0,0,0,-1,1686,344,0,0
469,680,0,0,0,0,0,0,0,0,0,-1,1693,344,0,0
476,680,0,0,0,0,0,0,0,0,0,-1,1700,344,0,0
483,680,0,0,0,0,0,0,0,0,0,-1,1707,344,0,0
490,680,0,0,0,0,0,0,0,0,0,-1,1714,344,0,0
497,680,0,0,0,0,0,0,0,0,0,-1,1721,344,0,0
504,680,0,0,0,0,0,0,0,0,0,-1,1728,344,0,0
511,680,0,0,0,0,0,0,0,0,0,-1,1735,344,0,0
518,680,0,0,0,0,0,0,0,0,0,-1,1742,344,0,0
525,680,0,0,0,0,0,0,0,0,0,-1,1749,344,0,0
532,680,0,0,0,0,0,0,0,0,0,-1,1756,344,0,0
539,680,0,0,0,0,0,0,0,0,0,-1,1763,344,0,0
546,680,0,0,0,0,0,0,0,0,0,-1,1770,344,0,0
553,680,0,0,0,0,0,0,0,0,0,-1,1777,344,0,0
560,680,0,0,0,0,0,0,0,0,0,-1,1784,344,0,0
567,680,0,0,0,0,0,0,0,0,0,-1,1791,344,0,0
574,680,0,0,0,0,0,0,0,0,0,-1,1798,344,0,0
581,680,0,0,0,0,0,0,0,0,0,-1,1805,344,0,0
588,680,0,0,0,0,0,0,0,0,0,-1,1812,344,0,0
595,680,0,0,0,0,0,0,0,0,0,-1,1819,344,0,0
602,680,0,0,0,0,0,0,0,0,0,-1,1826,344,0,0
609,680,0,0,0,0,0,0,0,0,0,-1,1833,344,0,0
616,680,0,0,0,0,0,0,0,0,0,-1,1840,344,0,0
623,680,0,0,0,0,0,0,0,0,0,-1,1847,344,0,0
630,680,0,0,0,0,0,0,0,0,0,-1,1854,344,0,0
637,680,0,0,0,0,0,0,0,0,0,-1,1861,344,0,0
644,680,0,0,0,0,0,0,0,0,0,-1,1868,344,0,0
651,680,0,0,0,0,0,0,0,0,0,-1,1875,344,0,0
658,680,0,0,0,0,0,0,0,0,0,-1,1882,344,0,0
665,680,0,0,0,0,0,0,0,0,0,-1,1889,344,0,0
672,680,0,0,0,0,0,0,0,0,0,-1,1896,344,0,0
679,680,0,0,0,0,0,0,0,0,0,-1,1903,344,0,0
686,680,0,0,0,0,0,0,0,0,0,-1,1910,344,0,0
693,680,0,0,0,0,0,0,0,0,0,-1,1917,344,0,0
700,680,0,0,0,0,0,0,0,0,0,-1,1924,344,0,0
707,680,0,0,0,0,0,0,0,0,0,-1,1931,344,0,0
714,680,0,0,0,0,0,0,0,0,0,-1,1938,344,0,0
721,680,0,0,0,0,0,0,0,0,0,-1,1945,344,0,0
728,680,0,0,0,0,0,0,0,0,0,-1,1952,344,0,0
735,680,0,0,0,0,0,0,0,0,0,-1,1959,344,0,0
742,680,0,0,0,0,0,0,0,0,0,-1,1966,344,0,0
749,680,0,0,0,0,0,0,0,0,0,-1,1973,344,0,0
756,680,0,0,0,0,0,0,0,0,0,-1,1980,344,0,0
763,680,0,0,0,0,0,0,0,0,0,-1,1987,344,0,0
770,680,0,0,0,0,0,0,0,0,0,-1,1994,344,0,0
777,680,0,0,0,0,0,0,0,0,0,-1,2001,344,0,0
784,680,0,0,0,0,0,0,0,0,0,-1,2008,344,0,0
791,680,0,0,0,0,0,0,0,0,0,-1,2015,344,0,0
798,680,0,0,0,0,0,0,0,0,0,-1,2022,344,0,0
805,680,0,0,0,0,0,0,0,0,0,-1,2029,344,0,0
812,680,0,0,0,0,0,0,0,0,0,-1,2036,344,0,0
-700,673,0,0,0,0,0,0,0,0,0,-1,524,351,0,0
-693,673,0,0,0,0,0,0,0,0,0,-1,531,351,0,0
-686,673,0,0,0,0,0,0,0,0,0,-1,538,351,0,0
-679,673,0,0,0,0,0,0,0,0,0,-1,545,351,0,0
-672,673,0,0,0,0,0,0,0,0,0,-1,552,351,0,0
-665,673,0,0,0,0,0,0,0,0,0,-1,559,351,0,0
-658,673,0,0,0,0,0,0,0,0,0,-1,566,351,0,0
-651,673,0,0,0,0,0,0,0,0,0,-1,573,351,0,0
-644,673,0,0,0,0,0,0,0,0,0,-1,580,351,0,0
-637,673,0,0,0,0,0,0,0,0,0,-1,587,351,0,0
-630,673,0,0,0,0,0,0,0,0,0,-1,594,351,0,0
-623,673,0,0,0,0,0,0,0,0,0,-1,601,351,0,0
-616,673,0,0,0,0,0,0,0,0,0,-1,608,351,0,0
-609,673,0,0,0,0,0,0,0,0,0,-1,615,351,0,0
-602,673,0,0,0,0,0,0,0,0,0,-1,622,351,0,0
-595,673,0,0,0,0,0,0,0,0,0,-1,629,351,0,0
-588,673,0,0,0,0,0,0,0,0,0,-1,636,351,0,0
-581,673,0,0,0,0,0,0,0,0,0,-1,643,351,0,0
-574,673,0,0,0,0,0,0,0,0,0,-1,650,351,0,0
-567,673,0,0,0,0,0,0,0,0,0,-1,657,351,0,0
-560,673,0,0,0,0,0,0,0,0,0,-1,664,351,0,0
-553,673,0,0,0,0,0,0,0,0,0,-1,671,351,0,0
-546,673,0,0,0,0,0,0,0,0,0,-1,678,351,0,0
-539,673,0,0,0,0,0,0,0,0,0,-1,685,351,0,0
-532,673,0,0,0,0,0,0,0,0,0,-1,692,351,0,0
-525,673,0,0,0,0,0,0,0,0,0,-1,699,351,0,0
-518,673,0,0,0,0,0,0,0,0,0,-1,706,351,0,0
-511,673,0,0,0,0,0,0,0,0,0,-1,713,351,0,0
-504,673,0,0,0,0,0,0,0,0,0,-1,720,351,0,0
-497,673,0,0,0,0,0,0,0,0,0,-1,727,351,0,0
-490,673,0,0,0,0,0,0,0,0,0,-1,734,351,0,0
-483,673,0,0,0,0,0,0,0,0,0,-1,741,351,0,0
-476,673,0,0,0,0,0,0,0,0,0,-1,748,351,0,0
-469,673,0,0,0,0,0,0,0,0,0,-1,755,351,0,0
-462,673,0,0,0,0,0,0,0,0,0,-1,762,351,0,0
-455,673,0,0,0,0,0,0,0,0,0,-1,769,351,0,0
-448,673,0,0,0,0,0,0,0,0,0,-1,776,351,0,0
-441,673,0,0,0,0,0,0,0,0,0,-1,783,351,0,0
-434,673,0,0,0,0,0,0,0,0,0,-1,790,351,0,0
-427,673,0,0,0,0,0,0,0,0,0,-1,797,351,0,0
-420,673,0,0,0,0,0,0,0,0,0,-1,804,351,0,0
-413,673,0,0,0,0,0,0,0,0,0,-1,811,351,0,0
-406,673,0,0,0,0,0,0,0,0,0,-1,818,351,0,0
-399,673,0,0,0,0,0,0,0,0,0,-1,825,351,0,0
-392,673,0,0,0,0,0,0,0,0,0,-1,832,351,0,0
-385,673,0,0,0,0,0,0,0,0,0,-1,839,351,0,0
-378,673,0,0,0,0,0,0,0,0,0,-1,846,351,0,0
-371,673,0,0,0,0,0,0,0,0,0,-1,853,351,0,0
-364,673,0,0,0,0,0,0,0,0,0,-1,860,351,0,0
-357,673,0,0,0,0,0,0,0,0,0,-1,867,351,0,0
-350,673,0,0,0,0,0,0,0,0,0,-1,874,351,0,0
-343,673,0,0,0,0,0,0,0,0,0,-1,881,351,0,0
-336,673,0,0,0,0,0,0,0,0,0,-1,888,351,0,0
-329,673,0,0,0,0,0,0,0,0,0,-1,895,351,0,0
-322,673,0,0,0,0,0,0,0,0,0,-1,902,351,0,0
-315,673,0,0,0,0,0,0,0,0,0,-1,909,351,0,0
-308,673,0,0,0,0,0,0,0,0,0,-1,916,351,0,0
-301,673,0,0,0,0,0,0,0,0,0,-1,923,351,0,0
-294,673,0,0,0,0,0,0,0,0,0,-1,930,351,0,0
-287,673,0,0,0,0,0,0,0,0,0,-1,937,351,0,0
-280,673,0,0,0,0,0,0,0,0,0,-1,944,351,0,0
-273,673,0,0,0,0,0,0,0,0,0,-1,951,351,0,0
-266,673,0,0,0,0,0,0,0,0,0,-1,958,351,0,0
-259,673,0,0,0,0,0,0,0,0,0,-1,965,351,0,0
-252,673,0,0,0,0,0,0,0,0,0,-1,972,351,0,0
-245,673,0,0,0,0,0,0,0,0,0,-1,979,351,0,0
-238,673,0,0,0,0,0,0,0,0,0,-1,986,351,0,0
-231,673,0,0,0,0,0,0,0,0,0,-1,993,351,0,0
-224,673,0,0,0,0,0,0,0,0,0,-1,1000,351,0,0
-217,673,0,0,0,0,0,0,0,0,0,-1,1007,351,0,0
-210,673,0,0,0,0,0,0,0,0,0,-1,1014,351,0,0
-203,673,0,0,0,0,0,0,0,0,0,-1,1021,351,0,0
-196,673,0,0,0,0,0,0,0,0,0,-1,1028,351,0,0
-189,673,0,0,0,0,0,0,0,0,0,-1,1035,351,0,0
-182,673,0,0,0,0,0,0,0,0,0,-1,1042,351,0,0
-175,673,2.65991,-15.9225,0,0,0,0,0,0,0,-1,1049,351,2.65986,15.9225
-168,673,0.9375,-13.6093,0,0,0,0,0,0,0,-1,1056,351,0.937509,13.6093
-161,673,2.07959,-14.7435,0,0,0,0,0,0,0,-1,1063,351,2.07955,14.7435
-154,673,3.45386,-20.6111,0,0,0,0,0,0,0,-1,1070,351,3.45391,20.6111
-147,673,3.68518,-19.2616,0.00281336,-0.107448,0.0594632,0.0287707,-0.133405,0.411594,0.0999174,0.0477327,1077,351,3.68523,19.2616
-140,673,3.86206,-17.8354,-0.00027388,-0.0880379,0.0592527,0.0295769,-0.117889,0.466672,0.0900846,0.0443322,1084,351,3.8621,17.8354
-133,673,4.28748,-16.6613,0,0,0,0,0,0,0,-1,1091,351,4.28753,16.6613
-126,673,5.11047,-17.8134,0,0,0,0,0,0,0,-1,1098,351,5.11045,17.8134
-119,673,4.64673,-17.5698,0,0,0,0,0,0,0,-1,1105,351,4.64671,17.5698
-112,673,4.04541,-16.8265,-0.0202851,-0.0209077,0.0523545,0.031759,-0.0729518,0.782425,0.0619946,0.0419331,1112,351,4.04546,16.8265
-105,673,3.59827,-16.2589,-0.0253197,-0.0099176,0.0502477,0.0332157,-0.068453,0.861437,0.0598621,0.0443314,1119,351,3.59826,16.2589
-98,673,3.05994,-15.6192,-0.0293339,-0.00279986,0.0481842,0.0339104,-0.0660441,0.919739,0.0586944,0.0457305,1126,351,3.05991,15.6192
-91,673,2.55237,-14.8516,0,0,0,0,0,0,0,-1,1133,351,2.5524,14.8516
-84,673,2.31641,-13.7224,0,0,0,0,0,0,0,-1,1140,351,2.31642,13.7223
-77,673,1.60266,-8.87473,0,0,0,0,0,0,0,-1,1147,351,1.60268,8.87474
-70,673,1.88684,-4.7381,0,0,0,0,0,0,0,-1,1154,351,1.88682,4.73809
-63,673,1.11719,-2.95016,0,0,0,0,0,0,0,-1,1161,351,1.11724,2.95016
-56,673,-6.18872,-9.52338,0,0,0,0,0,0,0,-1,1168,351,-6.18874,9.52336
-49,673,-0.926758,-0.115448,0,0,0,0,0,0,0,-1,1175,351,-0.926732,0.115444
-42,673,-1.15015,0.289917,0,0,0,0,0,0,0,-1,1182,351,-1.15017,-0.289932
-35,673,-0.919556,-1.00711,0,0,0,0,0,0,0,-1,1189,351,-0.919514,1.00711
-28,673,1.03564,-2.58228,0,0,0,0,0,0,0,-1,1196,351,1.0356,2.58229
-21,673,3.01501,-17.4268,0,0,0,0,0,0,0,-1,1203,351,3.01498,17.4268
-14,673,3.0083,-17.5068,0.0105532,0.0157241,0.000613,0.0157958,0.0104816,1.4544,0.00928092,0.0455097,1210,351,3.00831,17.5068
-7,673,3.08459,-17.5835,0.00716895,0.0169261,0.00331038,0.0179432,0.00615184,1.2727,0.0105287,0.042247,1217,351,3.08466,17.5835
0,673,3.08118,-17.6086,0.00367821,0.0188962,0.0046283,0.0201933,0.00238114,1.29756,0.0127428,0.0437602,1224,351,3.08118,17.6086
7,673,3.09839,-17.6122,-0.00113243,0.0204773,0.0065174,0.0222908,-0.00294586,1.29942,0.0159335,0.0460081,1231,351,3.09837,17.6121
14,673,3.2644,-17.6055,-0.00646839,0.0225238,0.00847344,0.0248186,-0.00876325,1.30631,0.0201136,0.0373148,1238,351,3.26446,17.6055
21,673,3.09485,-17.7151,-0.0117895,0.0260181,0.00973721,0.0283785,-0.0141499,1.33297,0.0250076,0.0224716,1245,351,3.09487,17.7151
28,673,3.06689,-17.7475,-0.0172489,0.0289945,0.0111317,0.0315346,-0.019789,1.34645,0.0298892,0.015757,1252,351,3.06693,17.7475
35,673,3.04529,-17.7459,-0.0190277,0.0369268,0.00900942,0.0383416,-0.0204425,1.41503,0.0344595,0.0235787,1259,351,3.04526,17.7459
42,673,2.95361,-17.7563,-0.0156772,0.0419528,0.0073656,0.0428793,-0.0166037,1.44567,0.0354418,0.0273511,1266,351,2.95357,17.7563
49,673,2.92578,-17.7716,-0.0141079,0.047968,0.00528533,0.0484148,-0.0145547,1.48646,0.0380671,0.0166685,1273,351,2.92576,17.7716
56,673,2.93042,-17.7657,-0.0106266,0.0537446,0.00249568,0.0538412,-0.0107233,1.5321,0.0399512,0.0132008,1280,351,2.93047,17.7657
63,673,2.95313,-17.7207,-0.00603669,0.057764,-0.00137647,0.0577937,-0.00606637,-1.54924,0.0407022,0.0167894,1287,351,2.9531,17.7207
70,673,2.91162,-17.7018,0.000945867,0.0593215,-0.00534078,0.0598061,0.000461262,-1.48031,0.0397178,0.0269239,1294,351,2.91166,17.7018
77,673,2.95581,-17.6809,0.00782166,0.0596284,-0.0083635,0.0609451,0.00650495,-1.41464,0.0386447,0.0377361,1301,351,2.9558,17.6809
84,673,2.98914,-17.7933,0.0141359,0.0577354,-0.0108979,0.0603076,0.0115637,-1.33901,0.0369585,0.0425767,1308,351,2.98908,17.7933
91,673,2.91699,-17.7996,0.0195081,0.0533888,-0.0128649,0.05772,0.0151768,-1.24604,0.0345506,0.0462131,1315,351,2.91701,17.7996
98,673,2.72546,-17.4896,0.0246782,0.0455805,-0.0140124,0.0526101,0.0176487,-1.10582,0.0309178,0.0472025,1322,351,2.72546,17.4896
105,673,2.6106,-17.4103,0.0270554,0.0362081,-0.0132048,0.045607,0.0176565,-0.952205,0.0265539,0.0434941,1329,351,2.61061,17.4103
112,673,2.72253,-17.1953,0,0,0,0,0,0,0,-1,1336,351,2.72256,17.1953
119,673,2.84302,-17.0248,0,0,0,0,0,0,0,-1,1343,351,2.84305,17.0248
126,673,3.10632,-17.186,0.0270938,0.00689825,-0.00679696,0.0291682,0.00482377,-0.296227,0.0180537,0.0406517,1350,351,3.10634,17.186
133,673,2.68054,-17.1367,0.0246007,-0.000283943,-0.00353415,0.0250929,-0.000776134,-0.138377,0.0169932,0.0410866,1357,351,2.68057,17.1367
140,673,2.69324,-17.0972,0.0194688,-0.0107704,0.00263737,0.0196971,-0.0109987,0.0863481,0.0179579,0.0427099,1364,351,2.6933,17.0972
147,673,2.4812,-17.1331,0.0122467,-0.0114109,0.00500257,0.013261,-0.0124252,0.200052,0.0148326,0.0397153,1371,351,2.48118,17.1332
154,673,2.43396,-16.8478,0.0149527,-0.01175,0.00586265,0.0161831,-0.0129805,0.206879,0.0168714,0.0393325,1378,351,2.43399,16.8478
161,673,2.36951,-16.7321,0,0,0,0,0,0,0,-1,1385,351,2.36945,16.7322
168,673,6.87061,1.83954,0,0,0,0,0,0,0,-1,1392,351,6.87063,-1.83953
175,673,6.6228,1.1459,0,0,0,0,0,0,0,-1,1399,351,6.62276,-1.14591
182,673,6.37244,0.796112,0,0,0,0,0,0,0,-1,1406,351,6.3724,-0.796102
189,673,6.12097,0.265472,0,0,0,0,0,0,0,-1,1413,351,6.121,-0.265482
196,673,6.02173,3.12717,0,0,0,0,0,0,0,-1,1420,351,6.02176,-3.12717
203,673,5.04456,1.6351,0,0,0,0,0,0,0,-1,1427,351,5.04455,-1.63509
210,673,4.79224,0.447479,0,0,0,0,0,0,0,-1,1434,351,4.79229,-0.447469
217,673,2.01648,0.972687,0,0,0,0,0,0,0,-1,1441,351,2.01644,-0.972691
224,673,2.3689,-1.80539,0,0,0,0,0,0,0,-1,1448,351,2.36896,1.80539
231,673,2.65857,-2.18497,0,0,0,0,0,0,0,-1,1455,351,2.65852,2.18496
238,673,3.77844,-2.06088,0,0,0,0,0,0,0,-1,1462,351,3.77839,2.06088
245,673,3.5376,-0.190399,0,0,0,0,0,0,0,-1,1469,351,3.53759,0.1904
252,673,3.80518,0.55603,0,0,0,0,0,0,0,-1,1476,351,3.80519,-0.556022
259,673,3.88562,1.29617,0,0,0,0,0,0,0,-1,1483,351,3.88562,-1.29618
266,673,4.22424,2.04834,0,0,0,0,0,0,0,-1,1490,351,4.22429,-2.04834
273,673,6.07886,0.385895,0,0,0,0,0,0,0,-1,1497,351,6.0789,-0.385906
280,673,6.97534,-0.0820007,0,0,0,0,0,0,0,-1,1504,351,6.97536,0.0820122
287,673,7.66968,-0.348541,0,0,0,0,0,0,0,-1,1511,351,7.66969,0.348534
294,673,8.20996,0.28537,0,0,0,0,0,0,0,-1,1518,351,8.20993,-0.28536
301,673,0,0,0,0,0,0,0,0,0,-1,1525,351,0,0
308,673,0,0,0,0,0,0,0,0,0,-1,1532,351,0,0
315,673,0,0,0,0,0,0,0,0,0,-1,1539,351,0,0
322,673,0,0,0,0,0,0,0,0,0,-1,1546,351,0,0
329,673,0,0,0,0,0,0,0,0,0,-1,1553,351,0,0
336,673,0,0,0,0,0,0,0,0,0,-1,1560,351,0,0
343,673,0,0,0,0,0,0,0,0,0,-1,1567,351,0,0
350,673,0,0,0,0,0,0,0,0,0,-1,1574,351,0,0
357,673,0,0,0,0,0,0,0,0,0,-1,1581,351,0,0
364,673,0,0,0,0,0,0,0,0,0,-1,1588,351,0,0
371,673,0,0,0,0,0,0,0,0,0,-1,1595,351,0,0
378,673,0,0,0,0,0,0,0,0,0,-1,1602,351,0,0
385,673,0,0,0,0,0,0,0,0,0,-1,1609,351,0,0
392,673,0,0,0,0,0,0,0,0,0,-1,1616,351,0,0
399,673,0,0,0,0,0,0,0,0,0,-1,1623,351,0,0
406,673,0,0,0,0,0,0,0,0,0,-1,1630,351,0,0
413,673,0,0,0,0,0,0,0,0,0,-1,1637,351,0,0
420,673,0,0,0,0,0,0,0,0,0,-1,1644,351,0,0
427,673,0,0,0,0,0,0,0,0,0,-1,1651,351,0,0
434,673,0,0,0,0,0,0,0,0,0,-1,1658,351,0,0
441,673,0,0,0,0,0,0,0,0,0,-1,1665,351,0,0
448,673,0,0,0,0,0,0,0,0,0,-1,1672,351,0,0
455,673,0,0,0,0,0,0,0,0,0,-1,1679,351,0,0
462,673,0,0,0,0,0,0,0,0,0,-1,1686,351,0,0
469,673,0,0,0,0,0,0,0,0,0,-1,1693,351,0,0
476,673,0,0,0,0,0,0,0,0,0,-1,1700,351,0,0
483,673,0,0,0,0,0,0,0,0,0,-1,1707,351,0,0
490,673,0,0,0,0,0,0,0,0,0,-1,1714,351,0,0
497,673,0,0,0,0,0,0,0,0,0,-1,1721,351,0,0
504,673,0,0,0,0,0,0,0,0,0,-1,1728,351,0,0
511,673,0,0,0,0,0,0,0,0,0,-1,1735,351,0,0
518,673,0,0,0,0,0,0,0,0,0,-1,1742,351,0,0
525,673,0,0,0,0,0,0,0,0,0,-1,1749,351,0,0
532,673,0,0,0,0,0,0,0,0,0,-1,1756,351,0,0
539,673,0,0,0,0,0,0,0,0,0,-1,1763,351,0,0
546,673,0,0,0,0,0,0,0,0,0,-1,1770,351,0,0
553,673,0,0,0,0,0,0,0,0,0,-1,1777,351,0,0
560,673,0,0,0,0,0,0,0,0,0,-1,1784,351,0,0
567,673,0,0,0,0,0,0,0,0,0,-1,1791,351,0,0
574,673,0,0,0,0,0,0,0,0,0,-1,1798,351,0,0
581,673,0,0,0,0,0,0,0,0,0,-1,1805,351,0,0
588,673,0,0,0,0,0,0,0,0,0,-1,1812,351,0,0
595,673,0,0,0,0,0,0,0,0,0,-1,1819,351,0,0
602,673,0,0,0,0,0,0,0,0,0,-1,1826,351,0,0
609,673,0,0,0,0,0,0,0,0,0,-1,1833,351,0,0
616,673,0,0,0,0,0,0,0,0,0,-1,1840,351,0,0
623,673,0,0,0,0,0,0,0,0,0,-1,1847,351,0,0
630,673,0,0,0,0,0,0,0,0,0,-1,1854,351,0,0
637,673,0,0,0,0,0,0,0,0,0,-1,1861,351,0,0
644,673,0,0,0,0,0,0,0,0,0,-1,1868,351,0,0
651,673,0,0,0,0,0,0,0,0,0,-1,1875,351,0,0
658,673,0,0,0,0,0,0,0,0,0,-1,1882,351,0,0
665,673,0,0,0,0,0,0,0,0,0,-1,1889,351,0,0
672,673,0,0,0,0,0,0,0,0,0,-1,1896,351,0,0
679,673,0,0,0,0,0,0,0,0,0,-1,1903,351,0,0
686,673,0,0,0,0,0,0,0,0,0,-1,1910,351,0,0
693,673,0,0,0,0,0,0,0,0,0,-1,1917,351,0,0
700,673,0,0,0,0,0,0,0,0,0,-1,1924,351,0,0
707,673,0,0,0,0,0,0,0,0,0,-1,1931,351,0,0
714,673,0,0,0,0,0,0,0,0,0,-1,1938,351,0,0
721,673,0,0,0,0,0,0,0,0,0,-1,1945,351,0,0
728,673,0,0,0,0,0,0,0,0,0,-1,1952,351,0,0
735,673,0,0,0,0,0,0,0,0,0,-1,1959,351,0,0
742,673,0,0,0,0,0,0,0,0,0,-1,1966,351,0,0
749,673,0,0,0,0,0,0,0,0,0,-1,1973,351,0,0
756,673,0,0,0,0,0,0,0,0,0,-1,1980,351,0,0
763,673,0,0,0,0,0,0,0,0,0,-1,1987,351,0,0
770,673,0,0,0,0,0,0,0,0,0,-1,1994,351,0,0
777,673,0,0,0,0,0,0,0,0,0,-1,2001,351,0,0
784,673,0,0,0,0,0,0,0,0,0,-1,2008,351,0,0
791,673,0,0,0,0,0,0,0,0,0,-1,2015,351,0,0
798,673,0,0,0,0,0,0,0,0,0,-1,2022,351,0,0
805,673,0,0,0,0,0,0,0,0,0,-1,2029,351,0,0
812,673,0,0,0,0,0,0,0,0,0,-1,2036,351,0,0
-700,666,0,0,0,0,0,0,0,0,0,-1,524,358,0,0
-693,666,0,0,0,0,0,0,0,0,0,-1,531,358,0,0
-686,666,0,0,0,0,0,0,0,0,0,-1,538,358,0,0
-679,666,0,0,0,0,0,0,0,0,0,-1,545,358,0,0
-672,666,0,0,0,0,0,0,0,0,0,-1,552,358,0,0
-665,666,0,0,0,0,0,0,0,0,0,-1,559,358,0,0
-658,666,0,0,0,0,0,0,0,0,0,-1,566,358,0,0
-651,666,0,0,0,0,0,0,0,0,0,-1,573,358,0,0
-644,666,0,0,0,0,0,0,0,0,0,-1,580,358,0,0
-637,666,0,0,0,0,0,0,0,0,0,-1,587,358,0,0
-630,666,0,0,0,0,0,0,0,0,0,-1,594,358,0,0
-623,666,0,0,0,0,0,0,0,0,0,-1,601,358,0,0
-616,666,0,0,0,0,0,0,0,0,0,-1,608,358,0,0
-609,666,0,0,0,0,0,0,0,0,0,-1,615,358,0,0
-602,666,0,0,0,0,0,0,0,0,0,-1,622,358,0,0
-595,666,0,0,0,0,0,0,0,0,0,-1,629,358,0,0
-588,666,0,0,0,0,0,0,0,0,0,-1,636,358,0,0
-581,666,0,0,0,0,0,0,0,0,0,-1,643,358,0,0
-574,666,0,0,0,0,0,0,0,0,0,-1,650,358,0,0
-567,666,0,0,0,0,0,0,0,0,0,-1,657,358,0,0
-560,666,0,0,0,0,0,0,0,0,0,-1,664,358,0,0
-553,666,0,0,0,0,0,0,0,0,0,-1,671,358,0,0
-546,666,0,0,0,0,0,0,0,0,0,-1,678,358,0,0
-539,666,0,0,0,0,0,0,0,0,0,-1,685,358,0,0
-532,666,0,0,0,0,0,0,0,0,0,-1,692,358,0,0
-525,666,0,0,0,0,0,0,0,0,0,-1,699,358,0,0
-518,666,0,0,0,0,0,0,0,0,0,-1,706,358,0,0
-511,666,0,0,0,0,0,0,0,0,0,-1,713,358,0,0
-504,666,0,0,0,0,0,0,0,0,0,-1,720,358,0,0
-497,666,0,0,0,0,0,0,0,0,0,-1,727,358,0,0
-490,666,0,0,0,0,0,0,0,0,0,-1,734,358,0,0
-483,666,0,0,0,0,0,0,0,0,0,-1,741,358,0,0
-476,666,0,0,0,0,0,0,0,0,0,-1,748,358,0,0
-469,666,0,0,0,0,0,0,0,0,0,-1,755,358,0,0
-462,666,0,0,0,0,0,0,0,0,0,-1,762,358,0,0
-455,666,0,0,0,0,0,0,0,0,0,-1,769,358,0,0
-448,666,0,0,0,0,0,0,0,0,0,-1,776,358,0,0
-441,666,0,0,0,0,0,0,0,0,0,-1,783,358,0,0
-434,666,0,0,0,0,0,0,0,0,0,-1,790,358,0,0
-427,666,0,0,0,0,0,0,0,0,0,-1,797,358,0,0
-420,666,0,0,0,0,0,0,0,0,0,-1,804,358,0,0
-413,666,0,0,0,0,0,0,0,0,0,-1,811,358,0,0
-406,666,0,0,0,0,0,0,0,0,0,-1,818,358,0,0
-399,666,0,0,0,0,0,0,0,0,0,-1,825,358,0,0
-392,666,0,0,0,0,0,0,0,0,0,-1,832,358,0,0
-385,666,0,0,0,0,0,0,0,0,0,-1,839,358,0,0
-378,666,0,0,0,0,0,0,0,0,0,-1,846,358,0,0
-371,666,0,0,0,0,0,0,0,0,0,-1,853,358,0,0
-364,666,0,0,0,0,0,0,0,0,0,-1,860,358,0,0
-357,666,0,0,0,0,0,0,0,0,0,-1,867,358,0,0
-350,666,0,0,0,0,0,0,0,0,0,-1,874,358,0,0
-343,666,0,0,0,0,0,0,0,0,0,-1,881,358,0,0
-336,666,0,0,0,0,0,0,0,0,0,-1,888,358,0,0
-329,666,0,0,0,0,0,0,0,0,0,-1,895,358,0,0
-322,666,0,0,0,0,0,0,0,0,0,-1,902,358,0,0
-315,666,0,0,0,0,0,0,0,0,0,-1,909,358,0,0
-308,666,0,0,0,0,0,0,0,0,0,-1,916,358,0,0
-301,666,0,0,0,0,0,0,0,0,0,-1,923,358,0,0
-294,666,0,0,0,0,0,0,0,0,0,-1,930,358,0,0
-287,666,0,0,0,0,0,0,0,0,0,-1,937,358,0,0
-280,666,0,0,0,0,0,0,0,0,0,-1,944,358,0,0
-273,666,0,0,0,0,0,0,0,0,0,-1,951,358,0,0
-266,666,0,0,0,0,0,0,0,0,0,-1,958,358,0,0
-259,666,0,0,0,0,0,0,0,0,0,-1,965,358,0,0
-252,666,0,0,0,0,0,0,0,0,0,-1,972,358,0,0
-245,666,0,0,0,0,0,0,0,0,0,-1,979,358,0,0
-238,666,0,0,0,0,0,0,0,0,0,-1,986,358,0,0
-231,666,0,0,0,0,0,0,0,0,0,-1,993,358,0,0
-224,666,0,0,0,0,0,0,0,0,0,-1,1000,358,0,0
-217,666,0,0,0,0,0,0,0,0,0,-1,1007,358,0,0
-210,666,0,0,0,0,0,0,0,0,0,-1,1014,358,0,0
-203,666,0,0,0,0,0,0,0,0,0,-1,1021,358,0,0
-196,666,6.60352,-18.3707,0,0,0,0,0,0,0,-1,1028,358,6.60355,18.3707
-189,666,6.39758,-18.0365,0,0,0,0,0,0,0,-1,1035,358,6.39754,18.0365
-182,666,6.09619,-17.953,0,0,0,0,0,0,0,-1,1042,358,6.09622,17.953
-175,666,5.36121,-18.2244,0,0,0,0,0,0,0,-1,1049,358,5.36126,18.2244
-168,666,5.07251,-18.701,0,0,0,0,0,0,0,-1,1056,358,5.07251,18.701
-161,666,4.92566,-19.2557,0,0,0,0,0,0,0,-1,1063,358,4.9257,19.2557
-154,666,3.41333,-19.5693,0,0,0,0,0,0,0,-1,1070,358,3.41332,19.5693
-147,666,3.57068,-18.6125,0.000305536,-0.0889027,0.0426387,0.017407,-0.106004,0.381437,0.0771294,0.0487043,1077,358,3.57072,18.6125
-140,666,3.6615,-17.514,-0.00137791,-0.0734666,0.042637,0.0184088,-0.0932534,0.434496,0.0691271,0.0443212,1084,358,3.66146,17.514
-133,666,3.97607,-16.6712,-0.00398568,-0.0582171,0.0419331,0.018835,-0.0810378,0.498393,0.0612762,0.043961,1091,358,3.97605,16.6712
-126,666,4.0813,-16.1171,0,0,0,0,0,0,0,-1,1098,358,4.0813,16.1171
-119,666,3.58777,-16.3519,0,0,0,0,0,0,0,-1,1105,358,3.58779,16.3519
-112,666,4.13,-17.1168,0,0,0,0,0,0,0,-1,1112,358,4.12995,17.1168
-105,666,3.29883,-16.311,0,0,0,0,0,0,0,-1,1119,358,3.29884,16.311
-98,666,3.20386,-15.9602,0,0,0,0,0,0,0,-1,1126,358,3.20389,15.9602
-91,666,3.19006,-15.245,0,0,0,0,0,0,0,-1,1133,358,3.19007,15.245
-84,666,2.5249,-14.169,0,0,0,0,0,0,0,-1,1140,358,2.52485,14.169
-77,666,0.964722,-10.3601,0,0,0,0,0,0,0,-1,1147,358,0.964669,10.3601
-70,666,2.05957,-6.51086,0,0,0,0,0,0,0,-1,1154,358,2.05959,6.51088
-63,666,1.47485,-3.79593,0,0,0,0,0,0,0,-1,1161,358,1.47481,3.79593
-56,666,0.424683,-2.04132,0,0,0,0,0,0,0,-1,1168,358,0.424665,2.04132
-49,666,0.754395,-2.23169,0,0,0,0,0,0,0,-1,1175,358,0.754383,2.23169
-42,666,1.34473,-3.53897,0,0,0,0,0,0,0,-1,1182,358,1.34476,3.53896
-35,666,2.95166,-17.6645,0,0,0,0,0,0,0,-1,1189,358,2.95164,17.6645
-28,666,3.19861,-17.5516,0,0,0,0,0,0,0,-1,1196,358,3.19862,17.5516
-21,666,3.18555,-17.4967,0.00753174,0.0113506,-0.00108954,0.0116396,0.00724276,-1.31153,0.00678675,0.0344326,1203,358,3.1856,17.4967
-14,666,3.08105,-17.5941,0.00653845,0.0113054,-2.77881e-05,0.0113056,0.00653829,-1.56497,0.00655392,0.0261293,1210,358,3.08103,17.5941
-7,666,3.09436,-17.6293,0.00447748,0.0124497,0.00176962,0.0128248,0.00410233,1.36189,0.00756287,0.016818,1217,358,3.09435,17.6293
0,666,3.10413,-17.6526,0.00221074,0.0140787,0.00266643,0.0146503,0.00163919,1.35964,0.00926888,0.0117136,1224,358,3.10419,17.6526
7,666,3.04517,-17.7047,-0.00101366,0.0153669,0.00404278,0.0163104,-0.0019571,1.34154,0.0115812,0.0155179,1231,358,3.04522,17.7047
14,666,3.05286,-17.7151,-0.00474226,0.0169407,0.00548147,0.0182476,-0.0060492,1.33674,0.0146052,0.0142924,1238,358,3.05288,17.7151
21,666,3.01453,-17.7641,-0.00855711,0.0196758,0.00634283,0.0210353,-0.00991663,1.35965,0.0182504,0.00975981,1245,358,3.01456,17.7641
28,666,2.99084,-17.7974,-0.0124682,0.0218394,0.00736851,0.023355,-0.0139838,1.36793,0.0217827,0.0106461,1252,358,2.99086,17.7974
35,666,2.9978,-17.7876,-0.0136122,0.0279761,0.00557867,0.0287114,-0.0143476,1.43974,0.025317,0.0100012,1259,358,2.99784,17.7876
42,666,2.95081,-17.8054,-0.0109776,0.0316342,0.00435052,0.0320738,-0.0114172,1.47008,0.0260366,0.0106816,1266,358,2.95079,17.8054
49,666,2.91504,-17.8096,-0.00990398,0.0359909,0.00283534,0.0361654,-0.0100785,1.50933,0.0280793,0.00973304,1273,358,2.91507,17.8096
56,666,2.92273,-17.8142,-0.00750296,0.0401333,0.000810834,0.0401471,-0.00751676,1.55378,0.0295903,0.0108779,1280,358,2.92269,17.8142
63,666,2.88684,-17.8282,-0.00433892,0.0430075,-0.00202149,0.0430937,-0.00442507,-1.5282,0.030312,0.0128148,1287,358,2.88681,17.8282
70,666,2.85669,-17.8054,0.000612266,0.0440588,-0.00486701,0.0445974,7.37254e-05,-1.46059,0.029707,0.0137018,1294,358,2.85675,17.8053
77,666,2.85608,-17.7725,0.00547995,0.0443024,-0.00698421,0.0455207,0.00426171,-1.39811,0.029031,0.0175114,1301,358,2.85605,17.7725
84,666,2.85901,-17.7671,0.00996473,0.0428736,-0.00874763,0.0450543,0.007784,-1.32648,0.0278071,0.0238535,1308,358,2.85906,17.7671
91,666,2.84558,-17.7556,0.0137287,0.0396712,-0.0100323,0.0430982,0.0103018,-1.24163,0.025988,0.0224509,1315,358,2.84563,17.7556
98,666,2.77356,-17.7068,0.0172058,0.0338641,-0.0107005,0.039095,0.0119749,-1.11611,0.0231292,0.0188195,1322,358,2.77355,17.7068
105,666,2.70398,-17.6006,0.0186195,0.0271202,-0.00988548,0.0336303,0.0121093,-0.988431,0.0196683,0.0193729,1329,358,2.70398,17.6007
112,666,2.74402,-17.4437,0.0193605,0.0205477,-0.00891153,0.0288854,0.0110228,-0.818655,0.0168321,0.0355776,1336,358,2.74396,17.4437
119,666,2.76648,-17.3383,0.0190718,0.013733,-0.00730355,0.0241785,0.00862631,-0.610193,0.0141491,0.0384382,1343,358,2.76644,17.3383
126,666,2.71741,-17.3409,0.017526,0.00666594,-0.00461047,0.0192193,0.00497265,-0.351976,0.0115188,0.0255953,1350,358,2.71741,17.3409
133,666,2.68555,-17.295,0.0156008,0.00197077,-0.00230364,0.0159796,0.00159196,-0.162983,0.0101641,0.0235129,1357,358,2.68552,17.295
140,666,2.60754,-17.3052,0.0117967,-0.00539104,0.00219312,0.0120721,-0.00566647,0.124931,0.0104616,0.0221069,1364,358,2.60751,17.3052
147,666,2.58459,-17.2143,0.00640777,-0.00574217,0.00373979,0.00746662,-0.00680101,0.275908,0.00824041,0.0207491,1371,358,2.5846,17.2143
154,666,2.60608,-17.0855,0.00797911,-0.00594219,0.00420773,0.00915207,-0.00711515,0.271862,0.0094164,0.0193374,1378,358,2.60607,17.0855
161,666,2.65015,-17.0257,0.00930423,-0.00609946,0.00461536,0.0105812,-0.00737648,0.269935,0.0104228,0.0256957,1385,358,2.65015,17.0257
168,666,2.69373,-16.9608,0,0,0,0,0,0,0,-1,1392,358,2.69378,16.9608
175,666,2.77747,-17.0887,0,0,0,0,0,0,0,-1,1399,358,2.77746,17.0887
182,666,2.60876,-5.17068,0,0,0,0,0,0,0,-1,1406,358,2.6088,5.17068
189,666,2.46973,-5.49979,0,0,0,0,0,0,0,-1,1413,358,2.46975,5.49979
196,666,2.32458,-5.23651,0,0,0,0,0,0,0,-1,1420,358,2.32461,5.23653
203,666,2.28064,-3.88004,0,0,0,0,0,0,0,-1,1427,358,2.28059,3.88003
210,666,3.02576,-5.83548,0,0,0,0,0,0,0,-1,1434,358,3.02581,5.83547
217,666,2.30444,-5.36011,0,0,0,0,0,0,0,-1,1441,358,2.30447,5.3601
224,666,1.82324,-6.03101,0,0,0,0,0,0,0,-1,1448,358,1.82322,6.031
231,666,2.29797,-10.1093,0,0,0,0,0,0,0,-1,1455,358,2.29801,10.1093
238,666,2.52429,-6.10568,0,0,0,0,0,0,0,-1,1462,358,2.52423,6.10567
245,666,4.53345,-1.38205,0,0,0,0,0,0,0,-1,1469,358,4.53349,1.38204
252,666,4.77405,-0.246979,0,0,0,0,0,0,0,-1,1476,358,4.77405,0.246993
259,666,4.83655,1.14087,0,0,0,0,0,0,0,-1,1483,358,4.83652,-1.14087
266,666,6.14148,0.749512,0,0,0,0,0,0,0,-1,1490,358,6.14144,-0.749519
273,666,2.61304,-1.53772,0,0,0,0,0,0,0,-1,1497,358,2.613,1.53773
280,666,8.70898,-0.836975,0,0,0,0,0,0,0,-1,1504,358,8.70894,0.836988
287,666,2.27039,-4.09058,0,0,0,0,0,0,0,-1,1511,358,2.27042,4.09059
294,666,5.04211,-6.10623,0,0,0,0,0,0,0,-1,1518,358,5.04208,6.10623
301,666,1.35095,-11.8304,0,0,0,0,0,0,0,-1,1525,358,1.3509,11.8304
308,666,1.08496,-1.87576,0,0,0,0,0,0,0,-1,1532,358,1.08491,1.87575
315,666,1.76294,-0.284027,0,0,0,0,0,0,0,-1,1539,358,1.76291,0.284016
322,666,0,0,0,0,0,0,0,0,0,-1,1546,358,0,0
329,666,0,0,0,0,0,0,0,0,0,-1,1553,358,0,0
336,666,0,0,0,0,0,0,0,0,0,-1,1560,358,0,0
343,666,0,0,0,0,0,0,0,0,0,-1,1567,358,0,0
350,666,0,0,0,0,0,0,0,0,0,-1,1574,358,0,0
357,666,0,0,0,0,0,0,0,0,0,-1,1581,358,0,0
364,666,0,0,0,0,0,0,0,0,0,-1,1588,358,0,0
371,666,0,0,0,0,0,0,0,0,0,-1,1595,358,0,0
378,666,0,0,0,0,0,0,0,0,0,-1,1602,358,0,0
385,666,0,0,0,0,0,0,0,0,0,-1,1609,358,0,0
392,666,0,0,0,0,0,0,0,0,0,-1,1616,358,0,0
399,666,0,0,0,0,0,0,0,0,0,-1,1623,358,0,0
406,666,0,0,0,0,0,0,0,0,0,-1,1630,358,0,0
413,666,0,0,0,0,0,0,0,0,0,-1,1637,358,0,0
420,666,0,0,0,0,0,0,0,0,0,-1,1644,358,0,0
427,666,0,0,0,0,0,0,0,0,0,-1,1651,358,0,0
434,666,0,0,0,0,0,0,0,0,0,-1,1658,358,0,0
441,666,0,0,0,0,0,0,0,0,0,-1,1665,358,0,0
448,666,0,0,0,0,0,0,0,0,0,-1,1672,358,0,0
455,666,0,0,0,0,0,0,0,0,0,-1,1679,358,0,0
462,666,0,0,0,0,0,0,0,0,0,-1,1686,358,0,0
469,666,0,0,0,0,0,0,0,0,0,-1,1693,358,0,0
476,666,0,0,0,0,0,0,0,0,0,-1,1700,358,0,0
483,666,0,0,0,0,0,0,0,0,0,-1,1707,358,0,0
490,666,0,0,0,0,0,0,0,0,0,-1,1714,358,0,0
497,666,0,0,0,0,0,0,0,0,0,-1,1721,358,0,0
504,666,0,0,0,0,0,0,0,0,0,-1,1728,358,0,0
511,666,0,0,0,0,0,0,0,0,0,-1,1735,358,0,0
518,666,0,0,0,0,0,0,0,0,0,-1,1742,358,0,0
525,666,0,0,0,0,0,0,0,0,0,-1,1749,358,0,0
532,666,0,0,0,0,0,0,0,0,0,-1,1756,358,0,0
539,666,0,0,0,0,0,0,0,0,0,-1,1763,358,0,0
546,666,0,0,0,0,0,0,0,0,0,-1,1770,358,0,0
553,666,0,0,0,0,0,0,0,0,0,-1,1777,358,0,0
560,666,0,0,0,0,0,0,0,0,0,-1,1784,358,0,0
567,666,0,0,0,0,0,0,0,0,0,-1,1791,358,0,0
574,666,0,0,0,0,0,0,0,0,0,-1,1798,358,0,0
581,666,0,0,0,0,0,0,0,0,0,-1,1805,358,0,0
588,666,0,0,0,0,0,0,0,0,0,-1,1812,358,0,0
595,666,0,0,0,0,0,0,0,0,0,-1,1819,358,0,0
602,666,0,0,0,0,0,0,0,0,0,-1,1826,358,0,0
609,666,0,0,0,0,0,0,0,0,0,-1,1833,358,0,0
616,666,0,0,0,0,0,0,0,0,0,-1,1840,358,0,0
623,666,0,0,0,0,0,0,0,0,0,-1,1847,358,0,0
630,666,0,0,0,0,0,0,0,0,0,-1,1854,358,0,0
637,666,0,0,0,0,0,0,0,0,0,-1,1861,358,0,0
644,666,0,0,0,0,0,0,0,0,0,-1,1868,358,0,0
651,666,0,0,0,0,0,0,0,0,0,-1,1875,358,0,0
658,666,0,0,0,0,0,0,0,0,0,-1,1882,358,0,0
665,666,0,0,0,0,0,0,0,0,0,-1,1889,358,0,0
672,666,0,0,0,0,0,0,0,0,0,-1,1896,358,0,0
679,666,0,0,0,0,0,0,0,0,0,-1,1903,358,0,0
686,666,0,0,0,0,0,0,0,0,0,-1,1910,358,0,0
693,666,0,0,0,0,0,0,0,0,0,-1,1917,358,0,0
700,666,0,0,0,0,0,0,0,0,0,-1,1924,358,0,0
707,666,0,0,0,0,0,0,0,0,0,-1,1931,358,0,0
714,666,0,0,0,0,0,0,0,0,0,-1,1938,358,0,0
721,666,0,0,0,0,0,0,0,0,0,-1,1945,358,0,0
728,666,0,0,0,0,0,0,0,0,0,-1,1952,358,0,0
735,666,0,0,0,0,0,0,0,0,0,-1,1959,358,0,0
742,666,0,0,0,0,0,0,0,0,0,-1,1966,358,0,0
749,666,0,0,0,0,0,0,0,0,0,-1,1973,358,0,0
756,666,0,0,0,0,0,0,0,0,0,-1,1980,358,0,0
763,666,0,0,0,0,0,0,0,0,0,-1,1987,358,0,0
770,666,0,0,0,0,0,0,0,0,0,-1,1994,358,0,0
777,666,0,0,0,0,0,0,0,0,0,-1,2001,358,0,0
784,666,0,0,0,0,0,0,0,0,0,-1,2008,358,0,0
791,666,0,0,0,0,0,0,0,0,0,-1,2015,358,0,0
798,666,0,0,0,0,0,0,0,0,0,-1,2022,358,0,0
805,666,0,0,0,0,0,0,0,0,0,-1,2029,358,0,0
812,666,0,0,0,0,0,0,0,0,0,-1,2036,358,0,0
-700,659,0,0,0,0,0,0,0,0,0,-1,524,365,0,0
-693,659,0,0,0,0,0,0,0,0,0,-1,531,365,0,0
-686,659,0,0,0,0,0,0,0,0,0,-1,538,365,0,0
-679,659,0,0,0,0,0,0,0,0,0,-1,545,365,0,0
-672,659,0,0,0,0,0,0,0,0,0,-1,552,365,0,0
-665,659,0,0,0,0,0,0,0,0,0,-1,559,365,0,0
-658,659,0,0,0,0,0,0,0,0,0,-1,566,365,0,0
-651,659,0,0,0,0,0,0,0,0,0,-1,573,365,0,0
-644,659,0,0,0,0,0,0,0,0,0,-1,580,365,0,0
-637,659,0,0,0,0,0,0,0,0,0,-1,587,365,0,0
-630,659,0,0,0,0,0,0,0,0,0,-1,594,365,0,0
-623,659,0,0,0,0,0,0,0,0,0,-1,601,365,0,0
-616,659,0,0,0,0,0,0,0,0,0,-1,608,365,0,0
-609,659,0,0,0,0,0,0,0,0,0,-1,615,365,0,0
-602,659,0,0,0,0,0,0,0,0,0,-1,622,365,0,0
-595,659,0,0,0,0,0,0,0,0,0,-1,629,365,0,0
-588,659,0,0,0,0,0,0,0,0,0,-1,636,365,0,0
-581,659,0,0,0,0,0,0,0,0,0,-1,643,365,0,0
-574,659,0,0,0,0,0,0,0,0,0,-1,650,365,0,0
-567,659,0,0,0,0,0,0,0,0,0,-1,657,365,0,0
-560,659,0,0,0,0,0,0,0,0,0,-1,664,365,0,0
-553,659,0,0,0,0,0,0,0,0,0,-1,671,365,0,0
-546,659,0,0,0,0,0,0,0,0,0,-1,678,365,0,0
-539,659,0,0,0,0,0,0,0,0,0,-1,685,365,0,0
-532,659,0,0,0,0,0,0,0,0,0,-1,692,365,0,0
-525,659,0,0,0,0,0,0,0,0,0,-1,699,365,0,0
-518,659,0,0,0,0,0,0,0,0,0,-1,706,365,0,0
-511,659,0,0,0,0,0,0,0,0,0,-1,713,365,0,0
-504,659,0,0,0,0,0,0,0,0,0,-1,720,365,0,0
-497,659,0,0,0,0,0,0,0,0,0,-1,727,365,0,0
-490,659,0,0,0,0,0,0,0,0,0,-1,734,365,0,0
-483,659,0,0,0,0,0,0,0,0,0,-1,741,365,0,0
-476,659,0,0,0,0,0,0,0,0,0,-1,748,365,0,0
-469,659,0,0,0,0,0,0,0,0,0,-1,755,365,0,0
-462,659,0,0,0,0,0,0,0,0,0,-1,762,365,0,0
-455,659,0,0,0,0,0,0,0,0,0,-1,769,365,0,0
-448,659,0,0,0,0,0,0,0,0,0,-1,776,365,0,0
-441,659,0,0,0,0,0,0,0,0,0,-1,783,365,0,0
-434,659,0,0,0,0,0,0,0,0,0,-1,790,365,0,0
-427,659,0,0,0,0,0,0,0,0,0,-1,797,365,0,0
-420,659,0,0,0,0,0,0,0,0,0,-1,804,365,0,0
-413,659,0,0,0,0,0,0,0,0,0,-1,811,365,0,0
-406,659,0,0,0,0,0,0,0,0,0,-1,818,365,0,0
-399,659,0,0,0,0,0,0,0,0,0,-1,825,365,0,0
-392,659,0,0,0,0,0,0,0,0,0,-1,832,365,0,0
-385,659,0,0,0,0,0,0,0,0,0,-1,839,365,0,0
-378,659,0,0,0,0,0,0,0,0,0,-1,846,365,0,0
-371,659,0,0,0,0,0,0,0,0,0,-1,853,365,0,0
-364,659,0,0,0,0,0,0,0,0,0,-1,860,365,0,0
-357,659,0,0,0,0,0,0,0,0,0,-1,867,365,0,0
-350,659,0,0,0,0,0,0,0,0,0,-1,874,365,0,0
-343,659,0,0,0,0,0,0,0,0,0,-1,881,365,0,0
-336,659,0,0,0,0,0,0,0,0,0,-1,888,365,0,0
-329,659,0,0,0,0,0,0,0,0,0,-1,895,365,0,0
-322,659,0,0,0,0,0,0,0,0,0,-1,902,365,0,0
-315,659,0,0,0,0,0,0,0,0,0,-1,909,365,0,0
-308,659,0,0,0,0,0,0,0,0,0,-1,916,365,0,0
-301,659,0,0,0,0,0,0,0,0,0,-1,923,365,0,0
-294,659,0,0,0,0,0,0,0,0,0,-1,930,365,0,0
-287,659,0,0,0,0,0,0,0,0,0,-1,937,365,0,0
-280,659,0,0,0,0,0,0,0,0,0,-1,944,365,0,0
-273,659,0,0,0,0,0,0,0,0,0,-1,951,365,0,0
-266,659,0,0,0,0,0,0,0,0,0,-1,958,365,0,0
-259,659,0,0,0,0,0,0,0,0,0,-1,965,365,0,0
-252,659,0,0,0,0,0,0,0,0,0,-1,972,365,0,0
-245,659,0,0,0,0,0,0,0,0,0,-1,979,365,0,0
-238,659,0,0,0,0,0,0,0,0,0,-1,986,365,0,0
-231,659,0,0,0,0,0,0,0,0,0,-1,993,365,0,0
-224,659,0,0,0,0,0,0,0,0,0,-1,1000,365,0,0
-217,659,0.806091,-15.796,0,0,0,0,0,0,0,-1,1007,365,0.806085,15.796
-210,659,1.66937,-16.0386,0,0,0,0,0,0,0,-1,1014,365,1.6694,16.0386
-203,659,0.876404,-18.097,0,0,0,0,0,0,0,-1,1021,365,0.876398,18.097
-196,659,2.38367,-17.2749,0,0,0,0,0,0,0,-1,1028,365,2.38372,17.2749
-189,659,5.37476,-16.5301,0,0,0,0,0,0,0,-1,1035,365,5.37481,16.5301
-182,659,5.19678,-16.6499,0,0,0,0,0,0,0,-1,1042,365,5.19673,16.6499
-175,659,4.92114,-17.0037,-0.00212719,-0.10328,0.024939,0.00368722,-0.109095,0.229054,0.0739895,0.0394347,1049,365,4.9212,17.0037
-168,659,4.6908,-17.4607,0,0,0,0,0,0,0,-1,1056,365,4.69076,17.4607
-161,659,4.52612,-17.9608,0,0,0,0,0,0,0,-1,1063,365,4.52607,17.9608
-154,659,4.70068,-17.0898,0,0,0,0,0,0,0,-1,1070,365,4.70064,17.0898
-147,659,4.28625,-16.8828,-0.00123092,-0.0707885,0.0298142,0.00979916,-0.0818186,0.354345,0.0580883,0.0438993,1077,365,4.28621,16.8828
-140,659,3.65881,-16.8811,-0.0020301,-0.0589957,0.0298783,0.0107664,-0.0717922,0.404653,0.0518244,0.0431376,1084,365,3.65883,16.8811
-133,659,3.67834,-16.4924,-0.00350267,-0.0471075,0.029408,0.0113033,-0.0619134,0.466418,0.0455137,0.0418766,1091,365,3.6784,16.4924
-126,659,3.77112,-16.141,0,0,0,0,0,0,0,-1,1098,365,3.77109,16.141
-119,659,3.49719,-16.2201,0,0,0,0,0,0,0,-1,1105,365,3.49721,16.2201
-112,659,3.18298,-16.4642,0,0,0,0,0,0,0,-1,1112,365,3.18299,16.4642
-105,659,3.26404,-16.3117,-0.0121226,-0.00804933,0.0247935,0.014791,-0.0349629,0.826378,0.0295019,0.0429111,1119,365,3.26405,16.3117
-98,659,3.30664,-16.1867,-0.0136798,-0.00238183,0.0231532,0.0158015,-0.0318632,0.905052,0.0280352,0.0479743,1126,365,3.30667,16.1867
-91,659,3.37854,-16.5452,0,0,0,0,0,0,0,-1,1133,365,3.37854,16.5452
-84,659,2.8606,-16.5622,0,0,0,0,0,0,0,-1,1140,365,2.86054,16.5622
-77,659,2.80139,-15.3457,0,0,0,0,0,0,0,-1,1147,365,2.80139,15.3457
-70,659,2.9353,-12.7028,0,0,0,0,0,0,0,-1,1154,365,2.93533,12.7028
-63,659,2.11267,-9.7796,0,0,0,0,0,0,0,-1,1161,365,2.11266,9.7796
-56,659,2.11182,-9.91541,0,0,0,0,0,0,0,-1,1168,365,2.11178,9.91541
-49,659,3.12,-17.1994,0,0,0,0,0,0,0,-1,1175,365,3.11995,17.1994
-42,659,3.15186,-17.3578,0,0,0,0,0,0,0,-1,1182,365,3.15182,17.3579
-35,659,3.09729,-17.5277,0.00374616,0.00669814,-0.00134507,0.00721909,0.00322521,-1.20129,0.00417581,0.044779,1189,365,3.09732,17.5277
-28,659,3.13794,-17.5155,0.00430158,0.00728749,-0.00111311,0.00765677,0.0039323,-1.25047,0.00442118,0.0168572,1196,365,3.13795,17.5155
-21,659,3.10706,-17.5472,0.00424947,0.00805334,-0.000876779,0.0082457,0.00405711,-1.35482,0.00476086,0.0116729,1203,365,3.10701,17.5472
-14,659,3.07825,-17.6404,0.00382854,0.00807474,-0.000258525,0.00809043,0.00381286,-1.51021,0.00467358,0.00883172,1210,365,3.07828,17.6405
-7,659,3.07007,-17.6781,0.00266214,0.00895674,0.000886008,0.00907907,0.0025398,1.43359,0.00540868,0.00857918,1217,365,3.07001,17.6781
0,659,3.05554,-17.6996,0.0012815,0.0101378,0.00146684,0.0103744,0.00104488,1.41086,0.00659563,0.00794544,1224,365,3.05553,17.6996
7,659,3.02002,-17.7264,-0.000765037,0.0110703,0.00240619,0.0115408,-0.00123552,1.3777,0.00813702,0.0073795,1231,365,3.01998,17.7264
14,659,2.99854,-17.7593,-0.00321014,0.0121034,0.00335281,0.0128053,-0.00391205,1.36443,0.0100968,0.00944555,1238,365,2.99854,17.7593
21,659,2.99231,-17.7891,-0.00580162,0.0140045,0.00384533,0.0147249,-0.00652198,1.38561,0.0125679,0.0102633,1245,365,2.99236,17.7891
28,659,2.97717,-17.8142,-0.00847749,0.0154491,0.00452325,0.0162757,-0.00930404,1.39006,0.0149502,0.0100209,1252,365,2.97717,17.8142
35,659,2.96851,-17.8275,-0.00918358,0.019926,0.00306618,0.0202454,-0.00950304,1.46698,0.0175446,0.00968594,1259,365,2.96855,17.8275
42,659,2.94727,-17.8455,-0.0072049,0.0224593,0.00212515,0.0226108,-0.00735638,1.49964,0.0180333,0.0099774,1266,365,2.94722,17.8455
49,659,2.92896,-17.8495,-0.00646793,0.0254837,0.00098854,0.0255142,-0.00649848,1.5399,0.0195393,0.0106267,1273,365,2.92893,17.8495
56,659,2.93701,-17.8474,-0.00483265,0.0283546,-0.000505099,0.0283623,-0.00484034,-1.55558,0.0207111,0.0144941,1280,365,2.937,17.8474
63,659,2.90466,-17.8554,-0.00268824,0.030353,-0.00257088,0.0305518,-0.00288707,-1.49361,0.0213953,0.0160316,1287,365,2.90472,17.8554
70,659,2.85217,-17.829,0.000728799,0.031063,-0.0045751,0.031738,5.37857e-05,-1.42431,0.0211407,0.0167014,1294,365,2.85218,17.829
77,659,2.81482,-17.7988,0.00406903,0.0312707,-0.00600468,0.0325372,0.00280249,-1.36292,0.0208203,0.0172437,1301,365,2.81479,17.7988
84,659,2.8208,-17.7901,0.0071237,0.0302581,-0.00715279,0.032291,0.00509082,-1.29389,0.020047,0.0132785,1308,365,2.82085,17.7901
91,659,2.79871,-17.7694,0.00960942,0.028034,-0.00788535,0.0309479,0.0066955,-1.21682,0.0188018,0.0113872,1315,365,2.79865,17.7694
98,659,2.78845,-17.7201,0.011783,0.0239335,-0.00814896,0.0280226,0.00769386,-1.10571,0.016718,0.00804526,1322,365,2.78845,17.7201
105,659,2.77612,-17.6601,0.0124911,0.0193261,-0.00732468,0.0239913,0.00782586,-1.00367,0.0141276,0.00921449,1329,365,2.77609,17.6601
112,659,2.7688,-17.6023,0.012666,0.0148962,-0.00638585,0.0202636,0.00729864,-0.871836,0.0118507,0.0120359,1336,365,2.76875,17.6023
119,659,2.7572,-17.5464,0.0120668,0.0104625,-0.00496441,0.0162934,0.00623583,-0.705298,0.00949288,0.013169,1343,365,2.75724,17.5464
126,659,2.73132,-17.472,0.0107638,0.00593373,-0.0028979,0.012121,0.00457647,-0.438018,0.00706768,0.012016,1350,365,2.73134,17.472
133,659,2.71143,-17.4143,0.00937707,0.00299684,-0.00131938,0.00963914,0.00273477,-0.196081,0.00573609,0.011233,1357,365,2.71145,17.4143
140,659,2.68225,-17.3456,0.00670945,-0.0019292,0.00181431,0.00707502,-0.00229478,0.198834,0.00563945,0.00943351,1364,365,2.68219,17.3456
147,659,2.66443,-17.2513,0.00295247,-0.00208148,0.00278775,0.00419138,-0.0033204,0.418199,0.00434664,0.00874372,1371,365,2.66443,17.2512
154,659,2.65137,-17.1608,0.00383053,-0.00218213,0.00302915,0.00509196,-0.00344356,0.39459,0.00495852,0.00952176,1378,365,2.65132,17.1608
161,659,2.67334,-17.0813,0.00449875,-0.00225769,0.00325952,0.00581487,-0.00357381,0.383759,0.00547179,0.0108116,1385,365,2.6733,17.0813
168,659,2.68103,-17.0074,0.0050089,-0.00202133,0.00385232,0.0067088,-0.00372123,0.415568,0.00610358,0.0185658,1392,365,2.68101,17.0074
175,659,2.66614,-16.9394,0.00508397,-0.000668488,0.00416091,0.00726599,-0.0028505,0.482983,0.00602335,0.0418522,1399,365,2.66613,16.9394
182,659,2.55823,-16.8156,0,0,0,0,0,0,0,-1,1406,365,2.55824,16.8156
189,659,2.68384,-16.5724,0,0,0,0,0,0,0,-1,1413,365,2.68388,16.5723
196,659,2.41248,-13.4371,0,0,0,0,0,0,0,-1,1420,365,2.41243,13.4371
203,659,2.38623,-12.2163,0,0,0,0,0,0,0,-1,1427,365,2.38617,12.2163
210,659,2.20789,-13.9792,0,0,0,0,0,0,0,-1,1434,365,2.20794,13.9792
217,659,2.24121,-13.487,0,0,0,0,0,0,0,-1,1441,365,2.24116,13.487
224,659,2.3479,-15.2926,0,0,0,0,0,0,0,-1,1448,365,2.34793,15.2926
231,659,2.36401,-15.7546,0,0,0,0,0,0,0,-1,1455,365,2.36404,15.7546
238,659,2.86523,-15.9275,0,0,0,0,0,0,0,-1,1462,365,2.86521,15.9275
245,659,2.49634,-16.2032,0,0,0,0,0,0,0,-1,1469,365,2.49628,16.2032
252,659,2.44055,-16.1333,0,0,0,0,0,0,0,-1,1476,365,2.44059,16.1333
259,659,2.33069,-3.36703,0,0,0,0,0,0,0,-1,1483,365,2.33073,3.36702
266,659,2.36133,-14.8105,0,0,0,0,0,0,0,-1,1490,365,2.3613,14.8105
273,659,2.4375,-14.5841,0,0,0,0,0,0,0,-1,1497,365,2.43748,14.5841
280,659,1.70947,-9.4129,0,0,0,0,0,0,0,-1,1504,365,1.70952,9.4129
287,659,5.63684,-10.0938,0,0,0,0,0,0,0,-1,1511,365,5.63681,10.0938
294,659,5.19153,-7.84253,0,0,0,0,0,0,0,-1,1518,365,5.19151,7.84252
301,659,4.35864,-5.22424,0,0,0,0,0,0,0,-1,1525,365,4.35863,5.22423
308,659,3.49072,-2.55261,0,0,0,0,0,0,0,-1,1532,365,3.4907,2.55263
315,659,2.17102,-2.98474,0,0,0,0,0,0,0,-1,1539,365,2.171,2.98473
322,659,0.382813,-2.2424,0,0,0,0,0,0,0,-1,1546,365,0.382801,2.2424
329,659,0.604004,-1.75998,0,0,0,0,0,0,0,-1,1553,365,0.603966,1.75998
336,659,2.09851,-1.17941,0,0,0,0,0,0,0,-1,1560,365,2.09857,1.17942
343,659,0,0,0,0,0,0,0,0,0,-1,1567,365,0,0
350,659,0,0,0,0,0,0,0,0,0,-1,1574,365,0,0
357,659,0,0,0,0,0,0,0,0,0,-1,1581,365,0,0
364,659,0,0,0,0,0,0,0,0,0,-1,1588,365,0,0
371,659,0,0,0,0,0,0,0,0,0,-1,1595,365,0,0
378,659,0,0,0,0,0,0,0,0,0,-1,1602,365,0,0
385,659,0,0,0,0,0,0,0,0,0,-1,1609,365,0,0
392,659,0,0,0,0,0,0,0,0,0,-1,1616,365,0,0
399,659,0,0,0,0,0,0,0,0,0,-1,1623,365,0,0
406,659,0,0,0,0,0,0,0,0,0,-1,1630,365,0,0
413,659,0,0,0,0,0,0,0,0,0,-1,1637,365,0,0
420,659,0,0,0,0,0,0,0,0,0,-1,1644,365,0,0
427,659,0,0,0,0,0,0,0,0,0,-1,1651,365,0,0
434,659,0,0,0,0,0,0,0,0,0,-1,1658,365,0,0
441,659,0,0,0,0,0,0,0,0,0,-1,1665,365,0,0
448,659,0,0,0,0,0,0,0,0,0,-1,1672,365,0,0
455,659,0,0,0,0,0,0,0,0,0,-1,1679,365,0,0
462,659,0,0,0,0,0,0,0,0,0,-1,1686,365,0,0
469,659,0,0,0,0,0,0,0,0,0,-1,1693,365,0,0
476,659,0,0,0,0,0,0,0,0,0,-1,1700,365,0,0
483,659,0,0,0,0,0,0,0,0,0,-1,1707,365,0,0
490,659,0,0,0,0,0,0,0,0,0,-1,1714,365,0,0
497,659,0,0,0,0,0,0,0,0,0,-1,1721,365,0,0
504,659,0,0,0,0,0,0,0,0,0,-1,1728,365,0,0
511,659,0,0,0,0,0,0,0,0,0,-1,1735,365,0,0
518,659,0,0,0,0,0,0,0,0,0,-1,1742,365,0,0
525,659,0,0,0,0,0,0,0,0,0,-1,1749,365,0,0
532,659,0,0,0,0,0,0,0,0,0,-1,1756,365,0,0
539,659,0,0,0,0,0,0,0,0,0,-1,1763,365,0,0
546,659,0,0,0,0,0,0,0,0,0,-1,1770,365,0,0
553,659,0,0,0,0,0,0,0,0,0,-1,1777,365,0,0
560,659,0,0,0,0,0,0,0,0,0,-1,1784,365,0,0
567,659,0,0,0,0,0,0,0,0,0,-1,1791,365,0,0
574,659,0,0,0,0,0,0,0,0,0,-1,1798,365,0,0
581,659,0,0,0,0,0,0,0,0,0,-1,1805,365,0,0
588,659,0,0,0,0,0,0,0,0,0,-1,1812,365,0,0
595,659,0,0,0,0,0,0,0,0,0,-1,1819,365,0,0
602,659,0,0,0,0,0,0,0,0,0,-1,1826,365,0,0
609,659,0,0,0,0,0,0,0,0,0,-1,1833,365,0,0
616,659,0,0,0,0,0,0,0,0,0,-1,1840,365,0,0
623,659,0,0,0,0,0,0,0,0,0,-1,1847,365,0,0
630,659,0,0,0,0,0,0,0,0,0,-1,1854,365,0,0
637,659,0,0,0,0,0,0,0,0,0,-1,1861,365,0,0
644,659,0,0,0,0,0,0,0,0,0,-1,1868,365,0,0
651,659,0,0,0,0,0,0,0,0,0,-1,1875,365,0,0
658,659,0,0,0,0,0,0,0,0,0,-1,1882,365,0,0
665,659,0,0,0,0,0,0,0,0,0,-1,1889,365,0,0
672,659,0,0,0,0,0,0,0,0,0,-1,1896,365,0,0
679,659,0,0,0,0,0,0,0,0,0,-1,1903,365,0,0
686,659,0,0,0,0,0,0,0,0,0,-1,1910,365,0,0
693,659,0,0,0,0,0,0,0,0,0,-1,1917,365,0,0
700,659,0,0,0,0,0,0,0,0,0,-1,1924,365,0,0
707,659,0,0,0,0,0,0,0,0,0,-1,1931,365,0,0
714,659,0,0,0,0,0,0,0,0,0,-1,1938,365,0,0
721,659,0,0,0,0,0,0,0,0,0,-1,1945,365,0,0
728,659,0,0,0,0,0,0,0,0,0,-1,1952,365,0,0
735,659,0,0,0,0,0,0,0,0,0,-1,1959,365,0,0
742,659,0,0,0,0,0,0,0,0,0,-1,1966,365,0,0
749,659,0,0,0,0,0,0,0,0,0,-1,1973,365,0,0
756,659,0,0,0,0,0,0,0,0,0,-1,1980,365,0,0
763,659,0,0,0,0,0,0,0,0,0,-1,1987,365,0,0
770,659,0,0,0,0,0,0,0,0,0,-1,1994,365,0,0
777,659,0,0,0,0,0,0,0,0,0,-1,2001,365,0,0
784,659,0,0,0,0,0,0,0,0,0,-1,2008,365,0,0
791,659,0,0,0,0,0,0,0,0,0,-1,2015,365,0,0
798,659,0,0,0,0,0,0,0,0,0,-1,2022,365,0,0
805,659,0,0,0,0,0,0,0,0,0,-1,2029,365,0,0
812,659,0,0,0,0,0,0,0,0,0,-1,2036,365,0,0
-700,652,0,0,0,0,0,0,0,0,0,-1,524,372,0,0
-693,652,0,0,0,0,0,0,0,0,0,-1,531,372,0,0
-686,652,0,0,0,0,0,0,0,0,0,-1,538,372,0,0
-679,652,0,0,0,0,0,0,0,0,0,-1,545,372,0,0
-672,652,0,0,0,0,0,0,0,0,0,-1,552,372,0,0
-665,652,0,0,0,0,0,0,0,0,0,-1,559,372,0,0
-658,652,0,0,0,0,0,0,0,0,0,-1,566,372,0,0
-651,652,0,0,0,0,0,0,0,0,0,-1,573,372,0,0
-644,652,0,0,0,0,0,0,0,0,0,-1,580,372,0,0
-637,652,0,0,0,0,0,0,0,0,0,-1,587,372,0,0
-630,652,0,0,0,0,0,0,0,0,0,-1,594,372,0,0
-623,652,0,0,0,0,0,0,0,0,0,-1,601,372,0,0
-616,652,0,0,0,0,0,0,0,0,0,-1,608,372,0,0
-609,652,0,0,0,0,0,0,0,0,0,-1,615,372,0,0
-602,652,0,0,0,0,0,0,0,0,0,-1,622,372,0,0
-595,652,0,0,0,0,0,0,0,0,0,-1,629,372,0,0
-588,652,0,0,0,0,0,0,0,0,0,-1,636,372,0,0
-581,652,0,0,0,0,0,0,0,0,0,-1,643,372,0,0
-574,652,0,0,0,0,0,0,0,0,0,-1,650,372,0,0
-567,652,0,0,0,0,0,0,0,0,0,-1,657,372,0,0
-560,652,0,0,0,0,0,0,0,0,0,-1,664,372,0,0
-553,652,0,0,0,0,0,0,0,0,0,-1,671,372,0,0
-546,652,0,0,0,0,0,0,0,0,0,-1,678,372,0,0
-539,652,0,0,0,0,0,0,0,0,0,-1,685,372,0,0
-532,652,0,0,0,0,0,0,0,0,0,-1,692,372,0,0
-525,652,0,0,0,0,0,0,0,0,0,-1,699,372,0,0
-518,652,0,0,0,0,0,0,0,0,0,-1,706,372,0,0
-511,652,0,0,0,0,0,0,0,0,0,-1,713,372,0,0
-504,652,0,0,0,0,0,0,0,0,0,-1,720,372,0,0
-497,652,0,0,0,0,0,0,0,0,0,-1,727,372,0,0
-490,652,0,0,0,0,0,0,0,0,0,-1,734,372,0,0
-483,652,0,0,0,0,0,0,0,0,0,-1,741,372,0,0
-476,652,0,0,0,0,0,0,0,0,0,-1,748,372,0,0
-469,652,0,0,0,0,0,0,0,0,0,-1,755,372,0,0
-462,652,0,0,0,0,0,0,0,0,0,-1,762,372,0,0
-455,652,0,0,0,0,0,0,0,0,0,-1,769,372,0,0
-448,652,0,0,0,0,0,0,0,0,0,-1,776,372,0,0
-441,652,0,0,0,0,0,0,0,0,0,-1,783,372,0,0
-434,652,0,0,0,0,0,0,0,0,0,-1,790,372,0,0
-427,652,0,0,0,0,0,0,0,0,0,-1,797,372,0,0
-420,652,0,0,0,0,0,0,0,0,0,-1,804,372,0,0
-413,652,0,0,0,0,0,0,0,0,0,-1,811,372,0,0
-406,652,0,0,0,0,0,0,0,0,0,-1,818,372,0,0
-399,652,0,0,0,0,0,0,0,0,0,-1,825,372,0,0
-392,652,0,0,0,0,0,0,0,0,0,-1,832,372,0,0
-385,652,0,0,0,0,0,0,0,0,0,-1,839,372,0,0
-378,652,0,0,0,0,0,0,0,0,0,-1,846,372,0,0
-371,652,0,0,0,0,0,0,0,0,0,-1,853,372,0,0
-364,652,0,0,0,0,0,0,0,0,0,-1,860,372,0,0
-357,652,0,0,0,0,0,0,0,0,0,-1,867,372,0,0
-350,652,0,0,0,0,0,0,0,0,0,-1,874,372,0,0
-343,652,0,0,0,0,0,0,0,0,0,-1,881,372,0,0
-336,652,0,0,0,0,0,0,0,0,0,-1,888,372,0,0
-329,652,0,0,0,0,0,0,0,0,0,-1,895,372,0,0
-322,652,0,0,0,0,0,0,0,0,0,-1,902,372,0,0
-315,652,0,0,0,0,0,0,0,0,0,-1,909,372,0,0
-308,652,0,0,0,0,0,0,0,0,0,-1,916,372,0,0
-301,652,0,0,0,0,0,0,0,0,0,-1,923,372,0,0
-294,652,0,0,0,0,0,0,0,0,0,-1,930,372,0,0
-287,652,0,0,0,0,0,0,0,0,0,-1,937,372,0,0
-280,652,0,0,0,0,0,0,0,0,0,-1,944,372,0,0
-273,652,0,0,0,0,0,0,0,0,0,-1,951,372,0,0
-266,652,0,0,0,0,0,0,0,0,0,-1,958,372,0,0
-259,652,0,0,0,0,0,0,0,0,0,-1,965,372,0,0
-252,652,0,0,0,0,0,0,0,0,0,-1,972,372,0,0
-245,652,0,0,0,0,0,0,0,0,0,-1,979,372,0,0
-238,652,0,0,0,0,0,0,0,0,0,-1,986,372,0,0
-231,652,1.35083,-7.55121,0,0,0,0,0,0,0,-1,993,372,1.3508,7.55121
-224,652,1.83624,-9.07111,0,0,0,0,0,0,0,-1,1000,372,1.83626,9.0711
-217,652,2.88489,-16.6299,0,0,0,0,0,0,0,-1,1007,372,2.88488,16.6299
-210,652,3.10815,-16.6885,0,0,0,0,0,0,0,-1,1014,372,3.10813,16.6885
-203,652,1.35736,-17.4617,0,0,0,0,0,0,0,-1,1021,372,1.35736,17.4617
-196,652,2.57312,-16.9845,0,0,0,0,0,0,0,-1,1028,372,2.57306,16.9845
-189,652,3.03674,-16.0751,0,0,0,0,0,0,0,-1,1035,372,3.0368,16.0751
-182,652,4.71582,-15.2441,0,0,0,0,0,0,0,-1,1042,372,4.71577,15.2441
-175,652,4.4906,-15.7271,0,0,0,0,0,0,0,-1,1049,372,4.49057,15.7271
-168,652,4.19482,-16.0774,0,0,0,0,0,0,0,-1,1056,372,4.19488,16.0774
-161,652,4.16589,-16.8795,-0.00184183,-0.0697562,0.0186194,0.0029279,-0.0745259,0.250777,0.0506881,0.044286,1063,372,4.16589,16.8795
-154,652,3.99683,-17.4818,-0.00167979,-0.0632887,0.0195645,0.00400799,-0.0689765,0.282921,0.0473768,0.0453848,1070,372,3.99681,17.4818
-147,652,2.7981,-15.8642,0,0,0,0,0,0,0,-1,1077,372,2.79811,15.8642
-140,652,2.99487,-16.1055,-0.00231694,-0.0457406,0.0203051,0.00569833,-0.0537558,0.375965,0.0378798,0.0421018,1084,372,2.9949,16.1055
-133,652,3.37439,-16.1403,-0.00305346,-0.0367846,0.0199945,0.00623867,-0.0460768,0.43504,0.0329946,0.0399915,1091,372,3.37437,16.1403
-126,652,3.49036,-15.9865,-0.00413689,-0.0280161,0.0193881,0.00669304,-0.0388461,0.509412,0.0283926,0.0384461,1098,372,3.49038,15.9864
-119,652,3.39502,-16.0909,-0.00533665,-0.0196089,0.0187105,0.00755239,-0.032498,0.603215,0.0245727,0.0349816,1105,372,3.39501,16.091
-112,652,3.24854,-16.2548,-0.00679798,-0.012626,0.0176278,0.00815501,-0.027579,0.703484,0.0216232,0.0261466,1112,372,3.24849,16.2548
-105,652,3.25049,-16.3552,-0.00810487,-0.00649104,0.0164529,0.00917472,-0.0237706,0.8099,0.0196334,0.0225677,1119,372,3.25044,16.3552
-98,652,3.2699,-16.4789,-0.00896562,-0.00172847,0.015101,0.0101815,-0.0208756,0.902993,0.0182817,0.0247532,1126,372,3.26989,16.4789
-91,652,3.24402,-16.6067,-0.00966095,0.00251052,0.0135484,0.0112772,-0.0184277,0.996486,0.017315,0.0263047,1133,372,3.24397,16.6067
-84,652,3.12634,-16.7634,-0.010383,0.00441143,0.0110475,0.0103096,-0.0162811,1.08041,0.0154806,0.0417795,1140,372,3.12629,16.7634
-77,652,3.17212,-16.8534,0,0,0,0,0,0,0,-1,1147,372,3.17216,16.8534
-70,652,3.16724,-17.0142,0,0,0,0,0,0,0,-1,1154,372,3.16718,17.0142
-63,652,3.15466,-17.1292,0,0,0,0,0,0,0,-1,1161,372,3.15463,17.1292
-56,652,3.12012,-17.2119,0,0,0,0,0,0,0,-1,1168,372,3.12006,17.2119
-49,652,3.11169,-17.2648,-0.00303931,0.00436429,0.000576075,0.00440884,-0.00308387,1.49361,0.00434841,0.0366414,1175,372,3.11175,17.2648
-42,652,3.08044,-17.3497,0.000750163,0.00429549,-0.00129647,0.004719,0.000326653,-1.25506,0.00304297,0.0112165,1182,372,3.08043,17.3497
-35,652,3.07007,-17.4326,0.00161292,0.00479937,-0.00106178,0.00512076,0.00129154,-1.27688,0.0030751,0.00884309,1189,372,3.07001,17.4326
-28,652,3.06274,-17.5009,0.00210602,0.0051947,-0.000852035,0.00541415,0.00188657,-1.31872,0.00317336,0.00777553,1196,372,3.06269,17.5009
-21,652,3.03369,-17.5727,0.00230051,0.00564781,-0.000729194,0.00579976,0.00214856,-1.36535,0.00338575,0.00802936,1203,372,3.03375,17.5727
-14,652,3.02771,-17.6343,0.0022288,0.00561165,-0.000398127,0.00565787,0.00218258,-1.45521,0.00329487,0.00918589,1210,372,3.02774,17.6343
-7,652,3.02551,-17.7043,0.00173058,0.00623315,0.000242008,0.00624612,0.00171761,1.51725,0.00372593,0.0119511,1217,372,3.0255,17.7044
0,652,3.00427,-17.7401,0.000971293,0.00701792,0.000585832,0.00707415,0.000915057,1.4751,0.00444261,0.012213,1224,372,3.00424,17.7401
7,652,2.98877,-17.7386,-0.000170705,0.00761259,0.00115086,0.00777919,-0.000337309,1.42703,0.00530214,0.0127499,1231,372,2.98874,17.7386
14,652,2.97607,-17.772,-0.00166773,0.00825378,0.00173995,0.00855008,-0.00196402,1.40213,0.0064551,0.0102867,1238,372,2.97604,17.772
21,652,2.97131,-17.8047,-0.00331547,0.00951186,0.00197656,0.00980952,-0.00361313,1.42132,0.0080201,0.00962916,1245,372,2.97128,17.8047
28,652,2.95386,-17.8463,-0.00501425,0.0103119,0.00233401,0.0106595,-0.00536182,1.42297,0.00941694,0.00909783,1252,372,2.95391,17.8463
35,652,2.93005,-17.8522,-0.00534206,0.013299,0.00107626,0.0133609,-0.005404,1.51331,0.0111538,0.00950054,1259,372,2.93004,17.8522
42,652,2.91064,-17.8608,-0.00380616,0.0148546,0.000303363,0.0148595,-0.00381109,1.55455,0.0113913,0.0110375,1266,372,2.91066,17.8608
49,652,2.93481,-17.8628,-0.00322964,0.0167186,-0.000602685,0.0167368,-0.00324783,-1.54062,0.0123832,0.0128018,1273,372,2.93478,17.8628
56,652,2.9469,-17.8636,-0.00208093,0.018463,-0.00175652,0.0186121,-0.00223003,-1.48611,0.0132143,0.0145848,1280,372,2.94688,17.8637
63,652,2.90967,-17.8547,-0.000638239,0.0196166,-0.00330523,0.0201423,-0.00116395,-1.41306,0.0138325,0.0184327,1287,372,2.90967,17.8547
70,652,2.87732,-17.8226,0.00164628,0.0199182,-0.00472558,0.021068,0.000496484,-1.33212,0.0138828,0.0165766,1294,372,2.87731,17.8226
77,652,2.87952,-17.8043,0.00384173,0.0199681,-0.00567806,0.0217667,0.0020431,-1.26403,0.0138803,0.0164869,1301,372,2.87946,17.8043
84,652,2.85364,-17.7886,0.00577599,0.0191763,-0.00636136,0.0217151,0.00323715,-1.19106,0.0135274,0.0140715,1308,372,2.85359,17.7886
91,652,2.80444,-17.8072,0.00722328,0.0176597,-0.00667496,0.0209141,0.00396889,-1.11716,0.0128261,0.0163577,1315,372,2.80439,17.8072
98,652,2.82874,-17.7354,0.00833993,0.0149043,-0.00660542,0.018998,0.00424619,-1.01598,0.011514,0.0129259,1322,372,2.82874,17.7354
105,652,2.83032,-17.6549,0.00852192,0.0120306,-0.00580668,0.0163421,0.00421034,-0.932099,0.00979766,0.0109625,1329,372,2.83034,17.6549
112,652,2.8324,-17.6127,0.00823257,0.00935328,-0.00487289,0.0136979,0.00388792,-0.842644,0.00815115,0.00899958,1336,372,2.83235,17.6127
119,652,2.82605,-17.5642,0.00753418,0.00677752,-0.00366598,0.0108413,0.00347039,-0.733981,0.00639284,0.0094625,1343,372,2.82605,17.5643
126,652,2.78589,-17.5136,0.00649518,0.00416621,-0.0020845,0.00771841,0.00294298,-0.530672,0.00449789,0.0114789,1350,372,2.78585,17.5136
133,652,2.75562,-17.4476,0.00544437,0.00267135,-0.000882928,0.00570163,0.00241409,-0.283519,0.00330469,0.0118835,1357,372,2.75559,17.4476
140,652,2.74316,-17.3519,0.00361176,-0.000214323,0.00134292,0.00403606,-0.000638624,0.306028,0.0029269,0.00935778,1364,372,2.74318,17.3519
147,652,2.73853,-17.2574,0.00116756,-0.000187615,0.00196309,0.00256671,-0.00158677,0.619218,0.00242016,0.00912634,1371,372,2.73852,17.2574
154,652,2.72998,-17.165,0.00165179,-0.000157374,0.00210982,0.00304277,-0.00154835,0.582877,0.00269708,0.00913971,1378,372,2.73002,17.165
161,652,2.73792,-17.0791,0.00196066,-8.46117e-05,0.00226363,0.00342193,-0.00154588,0.573236,0.00293555,0.010477,1385,372,2.73795,17.0791
168,652,2.71362,-17.0002,0.00208575,0.000222334,0.00262859,0.00394287,-0.00163479,0.615081,0.0033109,0.0114499,1392,372,2.71359,17.0003
175,652,2.68616,-16.8915,0.00196584,0.00123078,0.00282341,0.00444554,-0.00124892,0.720676,0.00345605,0.0120884,1399,372,2.68621,16.8916
182,652,2.66919,-16.7967,0.0019979,0.00190681,0.00248595,0.00443872,-0.000534012,0.776239,0.00315227,0.0179774,1406,372,2.66916,16.7967
189,652,2.69397,-16.6778,0.00172729,0.00231753,0.00241874,0.00445909,-0.000414265,0.846105,0.00312,0.0281864,1413,372,2.69392,16.6778
196,652,2.62683,-16.5291,0,0,0,0,0,0,0,-1,1420,372,2.62682,16.5291
203,652,2.62158,-16.4008,0,0,0,0,0,0,0,-1,1427,372,2.62164,16.4008
210,652,2.68225,-16.2496,0,0,0,0,0,0,0,-1,1434,372,2.68226,16.2496
217,652,2.64221,-16.1009,0,0,0,0,0,0,0,-1,1441,372,2.64216,16.1009
224,652,2.55884,-15.9734,0,0,0,0,0,0,0,-1,1448,372,2.55883,15.9734
231,652,2.53271,-15.6986,0.00021065,0.000576905,0.00307801,0.00347723,-0.00268968,0.815111,0.00357013,0.0395177,1455,372,2.53272,15.6986
238,652,2.70435,-15.6801,0.000499434,0.000826358,0.00373568,0.00440215,-0.00307636,0.807263,0.00434027,0.039645,1462,372,2.70436,15.6801
245,652,2.5592,-15.7136,0.000691351,0.00140068,0.00447203,0.00553208,-0.00344005,0.824969,0.00522679,0.0400142,1469,372,2.55924,15.7136
252,652,2.55359,-15.5276,0.00108478,0.00237542,0.00537735,0.00714604,-0.00368584,0.845116,0.00635926,0.0447598,1476,372,2.55353,15.5276
259,652,2.59692,-15.0473,0,0,0,0,0,0,0,-1,1483,372,2.59688,15.0473
266,652,2.54822,-14.4455,0,0,0,0,0,0,0,-1,1490,372,2.54822,14.4455
273,652,2.57654,-14.6428,0,0,0,0,0,0,0,-1,1497,372,2.57648,14.6428
280,652,2.60474,-14.8401,0,0,0,0,0,0,0,-1,1504,372,2.60474,14.8401
287,652,6.36182,-12.2355,0,0,0,0,0,0,0,-1,1511,372,6.3618,12.2355
294,652,5.57825,-9.63379,0,0,0,0,0,0,0,-1,1518,372,5.57829,9.6338
301,652,4.85938,-6.92679,0,0,0,0,0,0,0,-1,1525,372,4.85932,6.92679
308,652,4.11316,-4.12515,0,0,0,0,0,0,0,-1,1532,372,4.11318,4.12516
315,652,3.36206,-1.38965,0,0,0,0,0,0,0,-1,1539,372,3.36205,1.38963
322,652,2.34631,-14.5248,0,0,0,0,0,0,0,-1,1546,372,2.34631,14.5248
329,652,1.31091,-12.4644,0,0,0,0,0,0,0,-1,1553,372,1.31091,12.4644
336,652,1.76904,-14.9183,0,0,0,0,0,0,0,-1,1560,372,1.7691,14.9183
343,652,4.18225,-6.7092,0,0,0,0,0,0,0,-1,1567,372,4.18231,6.70921
350,652,4.64563,-7.2074,0,0,0,0,0,0,0,-1,1574,372,4.6456,7.2074
357,652,0,0,0,0,0,0,0,0,0,-1,1581,372,0,0
364,652,0,0,0,0,0,0,0,0,0,-1,1588,372,0,0
371,652,0,0,0,0,0,0,0,0,0,-1,1595,372,0,0
378,652,0,0,0,0,0,0,0,0,0,-1,1602,372,0,0
385,652,0,0,0,0,0,0,0,0,0,-1,1609,372,0,0
392,652,0,0,0,0,0,0,0,0,0,-1,1616,372,0,0
399,652,0,0,0,0,0,0,0,0,0,-1,1623,372,0,0
406,652,0,0,0,0,0,0,0,0,0,-1,1630,372,0,0
413,652,0,0,0,0,0,0,0,0,0,-1,1637,372,0,0
420,652,0,0,0,0,0,0,0,0,0,-1,1644,372,0,0
427,652,0,0,0,0,0,0,0,0,0,-1,1651,372,0,0
434,652,0,0,0,0,0,0,0,0,0,-1,1658,372,0,0
441,652,0,0,0,0,0,0,0,0,0,-1,1665,372,0,0
448,652,0,0,0,0,0,0,0,0,0,-1,1672,372,0,0
455,652,0,0,0,0,0,0,0,0,0,-1,1679,372,0,0
462,652,0,0,0,0,0,0,0,0,0,-1,1686,372,0,0
469,652,0,0,0,0,0,0,0,0,0,-1,1693,372,0,0
476,652,0,0,0,0,0,0,0,0,0,-1,1700,372,0,0
483,652,0,0,0,0,0,0,0,0,0,-1,1707,372,0,0
490,652,0,0,0,0,0,0,0,0,0,-1,1714,372,0,0
497,652,0,0,0,0,0,0,0,0,0,-1,1721,372,0,0
504,652,0,0,0,0,0,0,0,0,0,-1,1728,372,0,0
511,652,0,0,0,0,0,0,0,0,0,-1,1735,372,0,0
518,652,0,0,0,0,0,0,0,0,0,-1,1742,372,0,0
525,652,0,0,0,0,0,0,0,0,0,-1,1749,372,0,0
532,652,0,0,0,0,0,0,0,0,0,-1,1756,372,0,0
539,652,0,0,0,0,0,0,0,0,0,-1,1763,372,0,0
546,652,0,0,0,0,0,0,0,0,0,-1,1770,372,0,0
553,652,0,0,0,0,0,0,0,0,0,-1,1777,372,0,0
560,652,0,0,0,0,0,0,0,0,0,-1,1784,372,0,0
567,652,0,0,0,0,0,0,0,0,0,-1,1791,372,0,0
574,652,0,0,0,0,0,0,0,0,0,-1,1798,372,0,0
581,652,0,0,0,0,0,0,0,0,0,-1,1805,372,0,0
588,652,0,0,0,0,0,0,0,0,0,-1,1812,372,0,0
595,652,0,0,0,0,0,0,0,0,0,-1,1819,372,0,0
602,652,0,0,0,0,0,0,0,0,0,-1,1826,372,0,0
609,652,0,0,0,0,0,0,0,0,0,-1,1833,372,0,0
616,652,0,0,0,0,0,0,0,0,0,-1,1840,372,0,0
623,652,0,0,0,0,0,0,0,0,0,-1,1847,372,0,0
630,652,0,0,0,0,0,0,0,0,0,-1,1854,372,0,0
637,652,0,0,0,0,0,0,0,0,0,-1,1861,372,0,0
644,652,0,0,0,0,0,0,0,0,0,-1,1868,372,0,0
651,652,0,0,0,0,0,0,0,0,0,-1,1875,372,0,0
658,652,0,0,0,0,0,0,0,0,0,-1,1882,372,0,0
665,652,0,0,0,0,0,0,0,0,0,-1,1889,372,0,0
672,652,0,0,0,0,0,0,0,0,0,-1,1896,372,0,0
679,652,0,0,0,0,0,0,0,0,0,-1,1903,372,0,0
686,652,0,0,0,0,0,0,0,0,0,-1,1910,372,0,0
693,652,0,0,0,0,0,0,0,0,0,-1,1917,372,0,0
700,652,0,0,0,0,0,0,0,0,0,-1,1924,372,0,0
707,652,0,0,0,0,0,0,0,0,0,-1,1931,372,0,0
714,652,0,0,0,0,0,0,0,0,0,-1,1938,372,0,0
721,652,0,0,0,0,0,0,0,0,0,-1,1945,372,0,0
728,652,0,0,0,0,0,0,0,0,0,-1,1952,372,0,0
735,652,0,0,0,0,0,0,0,0,0,-1,1959,372,0,0
742,652,0,0,0,0,0,0,0,0,0,-1,1966,372,0,0
749,652,0,0,0,0,0,0,0,0,0,-1,1973,372,0,0
756,652,0,0,0,0,0,0,0,0,0,-1,1980,372,0,0
763,652,0,0,0,0,0,0,0,0,0,-1,1987,372,0,0
770,652,0,0,0,0,0,0,0,0,0,-1,1994,372,0,0
777,652,0,0,0,0,0,0,0,0,0,-1,2001,372,0,0
784,652,0,0,0,0,0,0,0,0,0,-1,2008,372,0,0
791,652,0,0,0,0,0,0,0,0,0,-1,2015,372,0,0
798,652,0,0,0,0,0,0,0,0,0,-1,2022,372,0,0
805,652,0,0,0,0,0,0,0,0,0,-1,2029,372,0,0
812,652,0,0,0,0,0,0,0,0,0,-1,2036,372,0,0
-700,645,0,0,0,0,0,0,0,0,0,-1,524,379,0,0
-693,645,0,0,0,0,0,0,0,0,0,-1,531,379,0,0
-686,645,0,0,0,0,0,0,0,0,0,-1,538,379,0,0
-679,645,0,0,0,0,0,0,0,0,0,-1,545,379,0,0
-672,645,0,0,0,0,0,0,0,0,0,-1,552,379,0,0
-665,645,0,0,0,0,0,0,0,0,0,-1,559,379,0,0
-658,645,0,0,0,0,0,0,0,0,0,-1,566,379,0,0
-651,645,0,0,0,0,0,0,0,0,0,-1,573,379,0,0
-644,645,0,0,0,0,0,0,0,0,0,-1,580,379,0,0
-637,645,0,0,0,0,0,0,0,0,0,-1,587,379,0,0
-630,645,0,0,0,0,0,0,0,0,0,-1,594,379,0,0
-623,645,0,0,0,0,0,0,0,0,0,-1,601,379,0,0
-616,645,0,0,0,0,0,0,0,0,0,-1,608,379,0,0
-609,645,0,0,0,0,0,0,0,0,0,-1,615,379,0,0
-602,645,0,0,0,0,0,0,0,0,0,-1,622,379,0,0
-595,645,0,0,0,0,0,0,0,0,0,-1,629,379,0,0
-588,645,0,0,0,0,0,0,0,0,0,-1,636,379,0,0
-581,645,0,0,0,0,0,0,0,0,0,-1,643,379,0,0
-574,645,0,0,0,0,0,0,0,0,0,-1,650,379,0,0
-567,645,0,0,0,0,0,0,0,0,0,-1,657,379,0,0
-560,645,0,0,0,0,0,0,0,0,0,-1,664,379,0,0
-553,645,0,0,0,0,0,0,0,0,0,-1,671,379,0,0
-546,645,0,0,0,0,0,0,0,0,0,-1,678,379,0,0
-539,645,0,0,0,0,0,0,0,0,0,-1,685,379,0,0
-532,645,0,0,0,0,0,0,0,0,0,-1,692,379,0,0
-525,645,0,0,0,0,0,0,0,0,0,-1,699,379,0,0
-518,645,0,0,0,0,0,0,0,0,0,-1,706,379,0,0
-511,645,0,0,0,0,0,0,0,0,0,-1,713,379,0,0
-504,645,0,0,0,0,0,0,0,0,0,-1,720,379,0,0
-497,645,0,0,0,0,0,0,0,0,0,-1,727,379,0,0
-490,645,0,0,0,0,0,0,0,0,0,-1,734,379,0,0
-483,645,0,0,0,0,0,0,0,0,0,-1,741,379,0,0
-476,645,0,0,0,0,0,0,0,0,0,-1,748,379,0,0
-469,645,0,0,0,0,0,0,0,0,0,-1,755,379,0,0
-462,645,0,0,0,0,0,0,0,0,0,-1,762,379,0,0
-455,645,0,0,0,0,0,0,0,0,0,-1,769,379,0,0
-448,645,0,0,0,0,0,0,0,0,0,-1,776,379,0,0
-441,645,0,0,0,0,0,0,0,0,0,-1,783,379,0,0
-434,645,0,0,0,0,0,0,0,0,0,-1,790,379,0,0
-427,645,0,0,0,0,0,0,0,0,0,-1,797,379,0,0
-420,645,0,0,0,0,0,0,0,0,0,-1,804,379,0,0
-413,645,0,0,0,0,0,0,0,0,0,-1,811,379,0,0
-406,645,0,0,0,0,0,0,0,0,0,-1,818,379,0,0
-399,645,0,0,0,0,0,0,0,0,0,-1,825,379,0,0
-392,645,0,0,0,0,0,0,0,0,0,-1,832,379,0,0
-385,645,0,0,0,0,0,0,0,0,0,-1,839,379,0,0
-378,645,0,0,0,0,0,0,0,0,0,-1,846,379,0,0
-371,645,0,0,0,0,0,0,0,0,0,-1,853,379,0,0
-364,645,0,0,0,0,0,0,0,0,0,-1,860,379,0,0
-357,645,0,0,0,0,0,0,0,0,0,-1,867,379,0,0
-350,645,0,0,0,0,0,0,0,0,0,-1,874,379,0,0
-343,645,0,0,0,0,0,0,0,0,0,-1,881,379,0,0
-336,645,0,0,0,0,0,0,0,0,0,-1,888,379,0,0
-329,645,0,0,0,0,0,0,0,0,0,-1,895,379,0,0
-322,645,0,0,0,0,0,0,0,0,0,-1,902,379,0,0
-315,645,0,0,0,0,0,0,0,0,0,-1,909,379,0,0
-308,645,0,0,0,0,0,0,0,0,0,-1,916,379,0,0
-301,645,0,0,0,0,0,0,0,0,0,-1,923,379,0,0
-294,645,0,0,0,0,0,0,0,0,0,-1,930,379,0,0
-287,645,0,0,0,0,0,0,0,0,0,-1,937,379,0,0
-280,645,0,0,0,0,0,0,0,0,0,-1,944,379,0,0
-273,645,0,0,0,0,0,0,0,0,0,-1,951,379,0,0
-266,645,0,0,0,0,0,0,0,0,0,-1,958,379,0,0
-259,645,0,0,0,0,0,0,0,0,0,-1,965,379,0,0
-252,645,4.98761,-12.6939,0,0,0,0,0,0,0,-1,972,379,4.9876,12.6939
-245,645,4.00891,-13.4621,0,0,0,0,0,0,0,-1,979,379,4.00891,13.4621
-238,645,2.3678,-12.5787,0,0,0,0,0,0,0,-1,986,379,2.36781,12.5787
-231,645,2.24493,-9.26569,0,0,0,0,0,0,0,-1,993,379,2.24495,9.26568
-224,645,2.80713,-10.7619,0,0,0,0,0,0,0,-1,1000,379,2.80711,10.7619
-217,645,3.3772,-12.1184,0,0,0,0,0,0,0,-1,1007,379,3.37718,12.1184
-210,645,5.05524,-17.6685,0,0,0,0,0,0,0,-1,1014,379,5.05522,17.6685
-203,645,4.50842,-16.9673,0,0,0,0,0,0,0,-1,1021,379,4.50848,16.9673
-196,645,2.53796,-16.0215,0,0,0,0,0,0,0,-1,1028,379,2.53799,16.0215
-189,645,2.90051,-15.2841,0,0,0,0,0,0,0,-1,1035,379,2.90053,15.2841
-182,645,3.27551,-14.5877,0,0,0,0,0,0,0,-1,1042,379,3.27557,14.5877
-175,645,3.37878,-14.5512,0,0,0,0,0,0,0,-1,1049,379,3.37881,14.5512
-168,645,3.77917,-15.4326,-0.00300653,-0.0529164,0.0113465,-0.000548109,-0.0553749,0.21337,0.0367352,0.0477764,1056,379,3.77914,15.4327
-161,645,3.76038,-16.0714,-0.00258516,-0.0505816,0.0120534,0.000271788,-0.0534385,0.232729,0.0357166,0.044768,1063,379,3.76041,16.0714
-154,645,3.81665,-15.7238,-0.00228131,-0.0464264,0.0127688,0.00114592,-0.0498536,0.262227,0.0336242,0.041844,1070,379,3.81668,15.7238
-147,645,2.95984,-15.6434,-0.00233798,-0.0403558,0.0132732,0.0018375,-0.0445312,0.304779,0.0303186,0.0422154,1077,379,2.95985,15.6434
-140,645,2.93677,-15.765,-0.00231429,-0.034226,0.0133317,0.00252228,-0.0390626,0.34802,0.0269219,0.0359795,1084,379,2.93673,15.765
-133,645,3.12793,-15.83,-0.00259636,-0.0276972,0.0131373,0.0030219,-0.0333154,0.40412,0.0232831,0.0306411,1091,379,3.12788,15.83
-126,645,3.2323,-15.9641,-0.00311433,-0.0212377,0.0127,0.00342542,-0.0277775,0.475528,0.0197593,0.0241477,1098,379,3.23227,15.9641
-119,645,3.21704,-16.1199,-0.00371961,-0.0149308,0.0121938,0.00409534,-0.0227458,0.569949,0.0166972,0.0168546,1105,379,3.21701,16.1199
-112,645,3.18115,-16.309,-0.00452942,-0.00959967,0.0113561,0.00457111,-0.0187002,0.675579,0.0142372,0.0120963,1112,379,3.1811,16.309
-105,645,3.1593,-16.439,-0.00524747,-0.00477387,0.0104002,0.00539218,-0.0154135,0.796781,0.012468,0.011256,1119,379,3.15932,16.439
-98,645,3.13086,-16.5488,-0.00564757,-0.000921068,0.00931492,0.00632571,-0.0128944,0.90963,0.0113107,0.012142,1126,379,3.1309,16.5488
-91,645,3.12048,-16.6696,-0.00594284,0.00226156,0.00819308,0.00732204,-0.0110033,1.0175,0.0106511,0.013743,1133,379,3.12046,16.6696
-84,645,3.10266,-16.7907,-0.00648665,0.00373487,0.00645545,0.00685774,-0.00960952,1.12023,0.00955152,0.0135935,1140,379,3.10261,16.7907
-77,645,3.07532,-16.9117,-0.00667354,0.00403177,0.00498179,0.00599137,-0.00863314,1.19603,0.00848926,0.0121331,1147,379,3.0753,16.9117
-70,645,3.07031,-17.0197,-0.006001,0.00355796,0.00393479,0.00496928,-0.00741232,1.22641,0.00719476,0.0109304,1154,379,3.07035,17.0197
-63,645,3.07019,-17.123,-0.00487815,0.00313145,0.00275298,0.00398642,-0.00573311,1.26968,0.0056417,0.0104244,1161,379,3.07014,17.123
-56,645,3.05261,-17.1877,-0.00353775,0.00263019,0.00161641,0.00302812,-0.00393568,1.32941,0.00403192,0.011229,1168,379,3.05262,17.1878
-49,645,3.05432,-17.271,-0.00207418,0.00322436,8.89568e-05,0.00322586,-0.00207567,1.55401,0.00308475,0.0100714,1175,379,3.05435,17.271
-42,645,3.03772,-17.3604,7.50982e-05,0.00305225,-0.000922804,0.00331508,-0.000187733,-1.29333,0.00227521,0.00976618,1182,379,3.03774,17.3604
-35,645,3.0105,-17.4372,0.00063145,0.00327128,-0.000739627,0.00346438,0.000438347,-1.31541,0.00217822,0.00996142,1189,379,3.01052,17.4371
-28,645,2.99609,-17.5169,0.00102516,0.00338377,-0.000551884,0.00350651,0.000902417,-1.35195,0.00210245,0.00884914,1196,379,2.99615,17.5169
-21,645,2.98535,-17.5673,0.00129009,0.00352024,-0.000488607,0.00362259,0.00118774,-1.3643,0.00213242,0.0101683,1203,379,2.98535,17.5673
-14,645,2.98157,-17.625,0.00138028,0.00331304,-0.000349673,0.00337436,0.00131896,-1.39721,0.00196359,0.00935915,1210,379,2.98157,17.625
-7,645,2.99158,-17.7016,0.00123818,0.00351437,-7.23967e-05,0.00351667,0.00123588,-1.53903,0.00206001,0.0129254,1217,379,2.99159,17.7016
0,645,2.99084,-17.7159,0.000935249,0.00381912,8.2509e-05,0.00382148,0.00093289,1.54222,0.00230062,0.0247434,1224,379,2.99084,17.7159
7,645,2.9707,-17.7772,0.000430797,0.00394456,0.000319878,0.00397344,0.000401914,1.48075,0.00252567,0.0165949,1231,379,2.97071,17.7772
14,645,2.95471,-17.7962,-0.000332383,0.0040695,0.000527,0.00413171,-0.000394597,1.45329,0.00289498,0.0143847,1238,379,2.95475,17.7962
21,645,2.92725,-17.8382,-0.00127345,0.00470691,0.000536477,0.00475465,-0.0013212,1.48203,0.00368987,0.00963521,1245,379,2.92722,17.8382
28,645,2.92114,-17.8564,-0.00216284,0.00503289,0.000586973,0.00508046,-0.00221041,1.48994,0.00431673,0.00849461,1252,379,2.92119,17.8564
35,645,2.91614,-17.8652,-0.00217964,0.00683534,-0.000437709,0.00685655,-0.00220085,-1.52239,0.00545471,0.00839262,1259,379,2.91617,17.8652
42,645,2.90771,-17.879,-0.00110364,0.00774026,-0.00104885,0.00786295,-0.00122633,-1.45435,0.00569492,0.00946166,1266,379,2.90767,17.879
49,645,2.93958,-17.8701,-0.000696366,0.00892605,-0.00169911,0.00921727,-0.000987578,-1.40105,0.0064991,0.0119933,1273,379,2.93952,17.8701
56,645,2.94849,-17.8726,5.77008e-05,0.0100821,-0.00249262,0.0106677,-0.000527889,-1.34005,0.00729416,0.0112217,1280,379,2.94846,17.8726
63,645,2.92041,-17.8696,0.000917616,0.0109037,-0.00353166,0.0120265,-0.000205144,-1.26299,0.00808691,0.0118838,1287,379,2.92046,17.8696
70,645,2.90234,-17.8346,0.00224329,0.0112086,-0.00440185,0.0130085,0.000443393,-1.18265,0.0085284,0.0164597,1294,379,2.90232,17.8346
77,645,2.89404,-17.8165,0.00349704,0.0113721,-0.00488461,0.0137086,0.00116052,-1.12462,0.00877782,0.0186387,1301,379,2.8941,17.8165
84,645,2.89624,-17.8075,0.00452825,0.0109756,-0.00511861,0.0138011,0.00170276,-1.06642,0.00868891,0.0131855,1308,379,2.89624,17.8075
91,645,2.86169,-17.8096,0.00514108,0.0101524,-0.00510771,0.0133359,0.00195753,-1.01343,0.00831528,0.0135856,1315,379,2.86166,17.8096
98,645,2.8739,-17.7312,0.0053512,0.00859417,-0.00487648,0.0121117,0.0018337,-0.945904,0.00753794,0.0120293,1322,379,2.8739,17.7312
105,645,2.86877,-17.661,0.00515872,0.00691909,-0.00420679,0.0103368,0.00174102,-0.888525,0.0063904,0.00967583,1329,379,2.86875,17.661
112,645,2.86584,-17.6238,0.00460932,0.00544133,-0.00340447,0.00845511,0.00159553,-0.846194,0.00518734,0.00808499,1336,379,2.8659,17.6238
119,645,2.87695,-17.5604,0.00387069,0.00402166,-0.00247863,0.00642595,0.0014664,-0.800621,0.00388845,0.00803556,1343,379,2.87697,17.5604
126,645,2.84448,-17.5017,0.00306605,0.00248843,-0.00144703,0.00425281,0.00130167,-0.686897,0.00251617,0.0104992,1350,379,2.84444,17.5017
133,645,2.83362,-17.4362,0.00218913,0.00173126,-0.00063492,0.00263513,0.00128526,-0.612368,0.00152154,0.0115792,1357,379,2.83361,17.4362
140,645,2.82556,-17.3541,0.00090965,0.000138779,0.000800352,0.00141254,-0.000364112,0.560995,0.00108365,0.0111652,1364,379,2.82553,17.3541
147,645,2.8114,-17.2735,-0.000607847,0.000330358,0.00115102,0.0011042,-0.00138169,0.978898,0.00143821,0.011453,1371,379,2.81144,17.2735
154,645,2.81775,-17.1884,-0.000364604,0.000526196,0.00120744,0.00136777,-0.00120618,0.962095,0.00148704,0.0103196,1378,379,2.81773,17.1884
161,645,2.81555,-17.1006,-0.000240887,0.000776646,0.00127767,0.00164312,-0.00110736,0.974874,0.001598,0.0129416,1385,379,2.81558,17.1006
168,645,2.78174,-17.0027,-0.000281473,0.00118163,0.00145166,0.00207565,-0.00117549,1.0188,0.00190088,0.0163726,1392,379,2.78171,17.0027
175,645,2.79797,-16.9089,-0.000430532,0.00197231,0.00152893,0.00271538,-0.0011736,1.11841,0.00230337,0.014175,1399,379,2.79794,16.9089
182,645,2.79919,-16.7882,-0.00030331,0.00245913,0.00131237,0.00298319,-0.000827371,1.19087,0.00231442,0.00997104,1406,379,2.79919,16.7882
189,645,2.77734,-16.6624,-0.000333429,0.00262266,0.00139082,0.00317414,-0.000884913,1.1933,0.0024646,0.0107567,1413,379,2.77738,16.6624
196,645,2.75085,-16.5527,-0.000536194,0.0023165,0.00141007,0.00289584,-0.00111553,1.18097,0.00239078,0.0112535,1420,379,2.75089,16.5527
203,645,2.7251,-16.419,-0.00059028,0.00168696,0.00152314,0.00245003,-0.00135335,1.10636,0.0022261,0.0114555,1427,379,2.72514,16.419
210,645,2.74988,-16.2751,-0.000594787,0.000947219,0.00174316,0.00208227,-0.00172984,0.993616,0.00220405,0.0155883,1434,379,2.74986,16.275
217,645,2.72729,-16.1613,-0.000607418,0.000761319,0.00192788,0.0021227,-0.00196879,0.955953,0.00236278,0.014813,1441,379,2.72729,16.1612
224,645,2.69031,-16.0176,-0.000437071,0.000867719,0.00214344,0.00245585,-0.0020252,0.933128,0.00259112,0.0119778,1448,379,2.69036,16.0176
231,645,2.67175,-15.8015,-0.000114796,0.000986881,0.00253703,0.00303218,-0.0021601,0.892299,0.00301183,0.0135513,1455,379,2.67171,15.8015
238,645,2.63318,-15.6669,0.000113036,0.00134752,0.00311381,0.00390468,-0.00244412,0.883244,0.00369767,0.0117003,1462,379,2.63312,15.6669
245,645,2.65247,-15.5118,0.000265904,0.00194156,0.00373828,0.00493475,-0.00272729,0.895637,0.00448446,0.0124331,1469,379,2.65241,15.5118
252,645,2.68396,-15.2928,0.000566325,0.00281633,0.00446164,0.00629262,-0.00290996,0.908899,0.00543144,0.0176441,1476,379,2.684,15.2928
259,645,2.66077,-15.1029,0.000990369,0.00403357,0.00528033,0.00800717,-0.00298323,0.92568,0.00656257,0.0283073,1483,379,2.66071,15.1029
266,645,2.62927,-14.8792,0.000474345,0.00459214,0.00633909,0.00919831,-0.00413182,0.942421,0.00787927,0.0262106,1490,379,2.62921,14.8792
273,645,2.64124,-14.7051,-0.00136801,0.00445675,0.00717822,0.0092909,-0.00620216,0.978114,0.00900398,0.0269903,1497,379,2.64127,14.7051
280,645,2.75012,-14.5569,-0.00252271,0.00448195,0.00819277,0.0098896,-0.00793036,0.987387,0.0103091,0.0490109,1504,379,2.75014,14.5569
287,645,2.84412,-14.4443,0,0,0,0,0,0,0,-1,1511,379,2.84412,14.4443
294,645,2.74866,-14.2065,0,0,0,0,0,0,0,-1,1518,379,2.74866,14.2065
301,645,5.35999,-8.62933,0,0,0,0,0,0,0,-1,1525,379,5.36001,8.62935
308,645,4.73572,-5.69769,0,0,0,0,0,0,0,-1,1532,379,4.73566,5.69769
315,645,3.17651,-14.2241,0,0,0,0,0,0,0,-1,1539,379,3.17646,14.2241
322,645,2.56836,-14.1963,0,0,0,0,0,0,0,-1,1546,379,2.56837,14.1963
329,645,1.48486,-13.6875,0,0,0,0,0,0,0,-1,1553,379,1.48486,13.6875
336,645,1.34961,-13.9162,0,0,0,0,0,0,0,-1,1560,379,1.34956,13.9162
343,645,0.977295,-13.792,0,0,0,0,0,0,0,-1,1567,379,0.977251,13.792
350,645,3.93213,-5.72198,0,0,0,0,0,0,0,-1,1574,379,3.9321,5.72198
357,645,1.63928,-6.465,0,0,0,0,0,0,0,-1,1581,379,1.63926,6.46499
364,645,-0.0794678,-3.22021,0,0,0,0,0,0,0,-1,1588,379,-0.0794987,3.22021
371,645,0,0,0,0,0,0,0,0,0,-1,1595,379,0,0
378,645,0,0,0,0,0,0,0,0,0,-1,1602,379,0,0
385,645,0,0,0,0,0,0,0,0,0,-1,1609,379,0,0
392,645,0,0,0,0,0,0,0,0,0,-1,1616,379,0,0
399,645,0,0,0,0,0,0,0,0,0,-1,1623,379,0,0
406,645,0,0,0,0,0,0,0,0,0,-1,1630,379,0,0
413,645,0,0,0,0,0,0,0,0,0,-1,1637,379,0,0
420,645,0,0,0,0,0,0,0,0,0,-1,1644,379,0,0
427,645,0,0,0,0,0,0,0,0,0,-1,1651,379,0,0
434,645,0,0,0,0,0,0,0,0,0,-1,1658,379,0,0
441,645,0,0,0,0,0,0,0,0,0,-1,1665,379,0,0
448,645,0,0,0,0,0,0,0,0,0,-1,1672,379,0,0
455,645,0,0,0,0,0,0,0,0,0,-1,1679,379,0,0
462,645,0,0,0,0,0,0,0,0,0,-1,1686,379,0,0
469,645,0,0,0,0,0,0,0,0,0,-1,1693,379,0,0
476,645,0,0,0,0,0,0,0,0,0,-1,1700,379,0,0
483,645,0,0,0,0,0,0,0,0,0,-1,1707,379,0,0
490,645,0,0,0,0,0,0,0,0,0,-1,1714,379,0,0
497,645,0,0,0,0,0,0,0,0,0,-1,1721,379,0,0
504,645,0,0,0,0,0,0,0,0,0,-1,1728,379,0,0
511,645,0,0,0,0,0,0,0,0,0,-1,1735,379,0,0
518,645,0,0,0,0,0,0,0,0,0,-1,1742,379,0,0
525,645,0,0,0,0,0,0,0,0,0,-1,1749,379,0,0
532,645,0,0,0,0,0,0,0,0,0,-1,1756,379,0,0
539,645,0,0,0,0,0,0,0,0,0,-1,1763,379,0,0
546,645,0,0,0,0,0,0,0,0,0,-1,1770,379,0,0
553,645,0,0,0,0,0,0,0,0,0,-1,1777,379,0,0
560,645,0,0,0,0,0,0,0,0,0,-1,1784,379,0,0
567,645,0,0,0,0,0,0,0,0,0,-1,1791,379,0,0
574,645,0,0,0,0,0,0,0,0,0,-1,1798,379,0,0
581,645,0,0,0,0,0,0,0,0,0,-1,1805,379,0,0
588,645,0,0,0,0,0,0,0,0,0,-1,1812,379,0,0
595,645,0,0,0,0,0,0,0,0,0,-1,1819,379,0,0
602,645,0,0,0,0,0,0,0,0,0,-1,1826,379,0,0
609,645,0,0,0,0,0,0,0,0,0,-1,1833,379,0,0
616,645,0,0,0,0,0,0,0,0,0,-1,1840,379,0,0
623,645,0,0,0,0,0,0,0,0,0,-1,1847,379,0,0
630,645,0,0,0,0,0,0,0,0,0,-1,1854,379,0,0
637,645,0,0,0,0,0,0,0,0,0,-1,1861,379,0,0
644,645,0,0,0,0,0,0,0,0,0,-1,1868,379,0,0
651,645,0,0,0,0,0,0,0,0,0,-1,1875,379,0,0
658,645,0,0,0,0,0,0,0,0,0,-1,1882,379,0,0
665,645,0,0,0,0,0,0,0,0,0,-1,1889,379,0,0
672,645,0,0,0,0,0,0,0,0,0,-1,1896,379,0,0
679,645,0,0,0,0,0,0,0,0,0,-1,1903,379,0,0
686,645,0,0,0,0,0,0,0,0,0,-1,1910,379,0,0
693,645,0,0,0,0,0,0,0,0,0,-1,1917,379,0,0
700,645,0,0,0,0,0,0,0,0,0,-1,1924,379,0,0
707,645,0,0,0,0,0,0,0,0,0,-1,1931,379,0,0
714,645,0,0,0,0,0,0,0,0,0,-1,1938,379,0,0
721,645,0,0,0,0,0,0,0,0,0,-1,1945,379,0,0
728,645,0,0,0,0,0,0,0,0,0,-1,1952,379,0,0
735,645,0,0,0,0,0,0,0,0,0,-1,1959,379,0,0
742,645,0,0,0,0,0,0,0,0,0,-1,1966,379,0,0
749,645,0,0,0,0,0,0,0,0,0,-1,1973,379,0,0
756,645,0,0,0,0,0,0,0,0,0,-1,1980,379,0,0
763,645,0,0,0,0,0,0,0,0,0,-1,1987,379,0,0
770,645,0,0,0,0,0,0,0,0,0,-1,1994,379,0,0
777,645,0,0,0,0,0,0,0,0,0,-1,2001,379,0,0
784,645,0,0,0,0,0,0,0,0,0,-1,2008,379,0,0
791,645,0,0,0,0,0,0,0,0,0,-1,2015,379,0,0
798,645,0,0,0,0,0,0,0,0,0,-1,2022,379,0,0
805,645,0,0,0,0,0,0,0,0,0,-1,2029,379,0,0
812,645,0,0,0,0,0,0,0,0,0,-1,2036,379,0,0
-700,638,0,0,0,0,0,0,0,0,0,-1,524,386,0,0
-693,638,0,0,0,0,0,0,0,0,0,-1,531,386,0,0
-686,638,0,0,0,0,0,0,0,0,0,-1,538,386,0,0
-679,638,0,0,0,0,0,0,0,0,0,-1,545,386,0,0
-672,638,0,0,0,0,0,0,0,0,0,-1,552,386,0,0
-665,638,0,0,0,0,0,0,0,0,0,-1,559,386,0,0
-658,638,0,0,0,0,0,0,0,0,0,-1,566,386,0,0
-651,638,0,0,0,0,0,0,0,0,0,-1,573,386,0,0
-644,638,0,0,0,0,0,0,0,0,0,-1,580,386,0,0
-637,638,0,0,0,0,0,0,0,0,0,-1,587,386,0,0
-630,638,0,0,0,0,0,0,0,0,0,-1,594,386,0,0
-623,638,0,0,0,0,0,0,0,0,0,-1,601,386,0,0
-616,638,0,0,0,0,0,0,0,0,0,-1,608,386,0,0
-609,638,0,0,0,0,0,0,0,0,0,-1,615,386,0,0
-602,638,0,0,0,0,0,0,0,0,0,-1,622,386,0,0
-595,638,0,0,0,0,0,0,0,0,0,-1,629,386,0,0
-588,638,0,0,0,0,0,0,0,0,0,-1,636,386,0,0
-581,638,0,0,0,0,0,0,0,0,0,-1,643,386,0,0
-574,638,0,0,0,0,0,0,0,0,0,-1,650,386,0,0
-567,638,0,0,0,0,0,0,0,0,0,-1,657,386,0,0
-560,638,0,0,0,0,0,0,0,0,0,-1,664,386,0,0
-553,638,0,0,0,0,0,0,0,0,0,-1,671,386,0,0
-546,638,0,0,0,0,0,0,0,0,0,-1,678,386,0,0
-539,638,0,0,0,0,0,0,0,0,0,-1,685,386,0,0
-532,638,0,0,0,0,0,0,0,0,0,-1,692,386,0,0
-525,638,0,0,0,0,0,0,0,0,0,-1,699,386,0,0
-518,638,0,0,0,0,0,0,0,0,0,-1,706,386,0,0
-511,638,0,0,0,0,0,0,0,0,0,-1,713,386,0,0
-504,638,0,0,0,0,0,0,0,0,0,-1,720,386,0,0
-497,638,0,0,0,0,0,0,0,0,0,-1,727,386,0,0
-490,638,0,0,0,0,0,0,0,0,0,-1,734,386,0,0
-483,638,0,0,0,0,0,0,0,0,0,-1,741,386,0,0
-476,638,0,0,0,0,0,0,0,0,0,-1,748,386,0,0
-469,638,0,0,0,0,0,0,0,0,0,-1,755,386,0,0
-462,638,0,0,0,0,0,0,0,0,0,-1,762,386,0,0
-455,638,0,0,0,0,0,0,0,0,0,-1,769,386,0,0
-448,638,0,0,0,0,0,0,0,0,0,-1,776,386,0,0
-441,638,0,0,0,0,0,0,0,0,0,-1,783,386,0,0
-434,638,0,0,0,0,0,0,0,0,0,-1,790,386,0,0
-427,638,0,0,0,0,0,0,0,0,0,-1,797,386,0,0
-420,638,0,0,0,0,0,0,0,0,0,-1,804,386,0,0
-413,638,0,0,0,0,0,0,0,0,0,-1,811,386,0,0
-406,638,0,0,0,0,0,0,0,0,0,-1,818,386,0,0
-399,638,0,0,0,0,0,0,0,0,0,-1,825,386,0,0
-392,638,0,0,0,0,0,0,0,0,0,-1,832,386,0,0
-385,638,0,0,0,0,0,0,0,0,0,-1,839,386,0,0
-378,638,0,0,0,0,0,0,0,0,0,-1,846,386,0,0
-371,638,0,0,0,0,0,0,0,0,0,-1,853,386,0,0
-364,638,0,0,0,0,0,0,0,0,0,-1,860,386,0,0
-357,638,0,0,0,0,0,0,0,0,0,-1,867,386,0,0
-350,638,0,0,0,0,0,0,0,0,0,-1,874,386,0,0
-343,638,0,0,0,0,0,0,0,0,0,-1,881,386,0,0
-336,638,0,0,0,0,0,0,0,0,0,-1,888,386,0,0
-329,638,0,0,0,0,0,0,0,0,0,-1,895,386,0,0
-322,638,0,0,0,0,0,0,0,0,0,-1,902,386,0,0
-315,638,0,0,0,0,0,0,0,0,0,-1,909,386,0,0
-308,638,0,0,0,0,0,0,0,0,0,-1,916,386,0,0
-301,638,0,0,0,0,0,0,0,0,0,-1,923,386,0,0
-294,638,0,0,0,0,0,0,0,0,0,-1,930,386,0,0
-287,638,0,0,0,0,0,0,0,0,0,-1,937,386,0,0
-280,638,0,0,0,0,0,0,0,0,0,-1,944,386,0,0
-273,638,0,0,0,0,0,0,0,0,0,-1,951,386,0,0
-266,638,0.603821,-10.3962,0,0,0,0,0,0,0,-1,958,386,0.603829,10.3962
-259,638,5.17926,-11.6108,0,0,0,0,0,0,0,-1,965,386,5.17928,11.6108
-252,638,4.39105,-12.1832,0,0,0,0,0,0,0,-1,972,386,4.39106,12.1832
-245,638,3.76099,-13.0155,0,0,0,0,0,0,0,-1,979,386,3.76097,13.0155
-238,638,2.98553,-13.8217,0,0,0,0,0,0,0,-1,986,386,2.98552,13.8217
-231,638,4.06219,-12.2823,0,0,0,0,0,0,0,-1,993,386,4.0622,12.2823
-224,638,3.90192,-12.6979,0,0,0,0,0,0,0,-1,1000,386,3.90192,12.6979
-217,638,4.58875,-13.7002,0,0,0,0,0,0,0,-1,1007,386,4.58873,13.7002
-210,638,6.30249,-17.7497,0,0,0,0,0,0,0,-1,1014,386,6.3025,17.7497
-203,638,1.64349,-16.5565,0,0,0,0,0,0,0,-1,1021,386,1.64348,16.5566
-196,638,3.84961,-15.0923,0,0,0,0,0,0,0,-1,1028,386,3.84963,15.0923
-189,638,3.23096,-14.4778,0,0,0,0,0,0,0,-1,1035,386,3.23094,14.4778
-182,638,3.25537,-14.3808,0,0,0,0,0,0,0,-1,1042,386,3.25541,14.3808
-175,638,3.16479,-14.6756,-0.00306328,-0.0351343,0.00639293,-0.00183591,-0.0363616,0.189681,0.0236529,0.0465523,1049,386,3.16479,14.6756
-168,638,3.23181,-14.9882,-0.00303896,-0.0360892,0.00697224,-0.00162832,-0.0374999,0.199628,0.0244752,0.0350699,1056,386,3.23177,14.9882
-161,638,3.20068,-15.2148,-0.00272957,-0.0352204,0.00747584,-0.00109198,-0.036858,0.215644,0.0242162,0.0289158,1063,386,3.20068,15.2148
-154,638,3.1698,-15.3705,-0.00237231,-0.0327568,0.00800569,-0.000392033,-0.0347371,0.242491,0.0230285,0.0233638,1070,386,3.16977,15.3705
-147,638,3.1499,-15.5266,-0.00227038,-0.028831,0.0083745,0.000149598,-0.031251,0.281306,0.020884,0.0195379,1077,386,3.14986,15.5265
-140,638,3.1283,-15.6795,-0.0020932,-0.0246934,0.00841891,0.000698196,-0.0274848,0.320156,0.0185603,0.0150956,1084,386,3.12832,15.6795
-133,638,3.10815,-15.8923,-0.00209667,-0.0200879,0.00830188,0.00114872,-0.0233333,0.372656,0.0159522,0.0114398,1091,386,3.10819,15.8923
-126,638,3.10474,-16.0265,-0.00226551,-0.0154446,0.00797963,0.0014937,-0.0192038,0.440262,0.0133283,0.0122795,1098,386,3.10476,16.0264
-119,638,3.08826,-16.1611,-0.00249226,-0.0108065,0.00758553,0.00200059,-0.0152993,0.534733,0.0109276,0.0148234,1105,386,3.08828,16.1611
-112,638,3.06287,-16.3115,-0.00286938,-0.00679954,0.0069294,0.00236819,-0.0120371,0.647233,0.00891955,0.0144356,1112,386,3.06281,16.3115
-105,638,3.0304,-16.4644,-0.00319434,-0.00308923,0.00614676,0.00300519,-0.00928877,0.789673,0.00740051,0.0154521,1119,386,3.03045,16.4644
-98,638,3.01941,-16.5944,-0.00329723,-0.000101126,0.00527498,0.00381256,-0.00721091,0.932478,0.00646443,0.0144708,1126,386,3.01946,16.5944
-91,638,2.99597,-16.7123,-0.0033369,0.00214963,0.00446863,0.00464985,-0.00583712,1.06068,0.00606758,0.0124174,1133,386,2.99593,16.7124
-84,638,2.97961,-16.8241,-0.00366544,0.00318684,0.00332034,0.00453176,-0.00501037,1.18594,0.00551146,0.013499,1140,386,2.97956,16.8241
-77,638,2.98877,-16.9355,-0.00379512,0.00335814,0.00237273,0.00407361,-0.00451059,1.27793,0.00495823,0.00995037,1147,386,2.98876,16.9355
-70,638,2.99048,-17.026,-0.00338816,0.00294395,0.00178608,0.003413,-0.00385721,1.31398,0.00420007,0.0098492,1154,386,2.99046,17.026
-63,638,2.98474,-17.1216,-0.00269584,0.00253709,0.00117363,0.00278826,-0.00294701,1.35997,0.00331168,0.0105777,1161,386,2.98479,17.1216
-56,638,2.97302,-17.2085,-0.00187256,0.00208133,0.00060725,0.00217249,-0.00196372,1.42179,0.00238905,0.0135629,1168,386,2.97306,17.2085
-49,638,2.97412,-17.2953,-0.00103253,0.00221684,-0.000149301,0.00222368,-0.00103937,-1.52498,0.00192484,0.0120968,1175,386,2.97414,17.2953
-42,638,2.97864,-17.3675,0.000120676,0.00190163,-0.000611802,0.00209154,-6.92413e-05,-1.26981,0.00141801,0.0114799,1182,386,2.97859,17.3675
-35,638,2.96509,-17.4433,0.000484882,0.00181669,-0.000430146,0.00194354,0.000358036,-1.28403,0.00119437,0.0105079,1189,386,2.96505,17.4433
-28,638,2.97241,-17.5243,0.000843195,0.00165406,-0.000261578,0.00173112,0.000766136,-1.28431,0.00100166,0.0101088,1196,386,2.97235,17.5243
-21,638,2.93494,-17.5716,0.00116835,0.00146672,-0.000158743,0.00153538,0.0010997,-1.16258,0.000913668,0.0111626,1203,386,2.93491,17.5716
-14,638,2.91541,-17.6266,0.00148258,0.00103618,-4.35225e-05,0.00148678,0.00103198,-0.0962885,0.000879691,0.0112335,1210,386,2.91538,17.6266
-7,638,2.9093,-17.7036,0.00182196,0.000814583,0.000120953,0.00183628,0.000800264,0.117836,0.00106308,0.0175203,1217,386,2.90928,17.7036
0,638,2.97546,-17.7325,0.00211147,0.00065129,0.00023785,0.00214924,0.000613524,0.157469,0.00127837,0.0333858,1224,386,2.97542,17.7325
7,638,2.96216,-17.7799,0.00233056,0.00032224,0.000296987,0.00237355,0.000279242,0.14378,0.00149799,0.0243152,1231,386,2.96215,17.7799
14,638,2.91101,-17.7918,0.00230668,-0.000116671,0.000120117,0.00231262,-0.00012261,0.0494052,0.0015842,0.0126996,1238,386,2.91096,17.7918
21,638,2.90112,-17.8398,0.00208351,-5.83498e-05,-0.000154232,0.00209456,-6.9399e-05,-0.0715168,0.00142007,0.0101584,1245,386,2.90111,17.8398
28,638,2.89624,-17.8534,0.00192358,-9.35621e-05,-0.000413642,0.00200511,-0.00017509,-0.194603,0.00139876,0.00766504,1252,386,2.89629,17.8534
35,638,2.90271,-17.8716,0.00169258,0.000616301,-0.00111768,0.00239493,-8.60449e-05,-0.561037,0.00162606,0.00902995,1259,386,2.90275,17.8716
42,638,2.92346,-17.8946,0.00130127,0.000993154,-0.00154055,0.00269545,-0.000401023,-0.735562,0.00194447,0.00979846,1266,386,2.92347,17.8946
49,638,2.94055,-17.8672,0.000977156,0.0016814,-0.00194729,0.00330815,-0.000649592,-0.874845,0.00245083,0.00861754,1273,386,2.94054,17.8672
56,638,2.9408,-17.8596,0.000695515,0.00251904,-0.00242269,0.00419585,-0.000981303,-0.965372,0.00317529,0.0107659,1280,386,2.94084,17.8596
63,638,2.93506,-17.8792,0.000168081,0.00326116,-0.00296223,0.00505627,-0.00162703,-1.02598,0.00402436,0.0136561,1287,386,2.93504,17.8792
70,638,2.91565,-17.8519,-0.000105024,0.00384547,-0.00329508,0.00571199,-0.00197154,-1.05541,0.00460798,0.0181236,1294,386,2.91568,17.8519
77,638,2.90979,-17.8353,-0.000370076,0.00444362,-0.00331108,0.0061302,-0.00205666,-1.09968,0.00491786,0.0173918,1301,386,2.90976,17.8353
84,638,2.92871,-17.8027,-0.000511003,0.0047013,-0.00312509,0.00616432,-0.00197403,-1.13295,0.00490189,0.0121661,1308,386,2.92873,17.8027
91,638,2.92847,-17.7654,-0.000665739,0.00475188,-0.00285731,0.00598031,-0.00189417,-1.16476,0.00474598,0.0124655,1315,386,2.9285,17.7654
98,638,2.93018,-17.7086,-0.000895954,0.00430712,-0.00251829,0.00532633,-0.00191516,-1.18623,0.00433274,0.011172,1322,386,2.93013,17.7086
105,638,2.90759,-17.6722,-0.000957645,0.00369747,-0.00194096,0.00440057,-0.00166074,-1.22326,0.00361671,0.00915207,1329,386,2.90759,17.6722
112,638,2.91248,-17.6465,-0.000940933,0.00314569,-0.00131601,0.00353282,-0.00132806,-1.2847,0.00290106,0.00860374,1336,386,2.91245,17.6465
119,638,2.92712,-17.5898,-0.000828562,0.00256566,-0.000616333,0.00267411,-0.000937012,-1.39662,0.0021638,0.0104178,1343,386,2.92716,17.5898
126,638,2.91406,-17.5063,-0.000680042,0.00163901,-7.64365e-05,0.00164152,-0.000682558,-1.53788,0.00137936,0.0139145,1350,386,2.9141,17.5063
133,638,2.91492,-17.4196,-0.000654109,0.00112414,0.000243535,0.00115689,-0.000686859,1.43712,0.00107596,0.0145816,1357,386,2.91488,17.4196
140,638,2.89624,-17.3539,-0.00055925,0.000296802,0.000786617,0.000764305,-0.00102675,1.03456,0.00103776,0.015644,1364,386,2.89619,17.3539
147,638,2.89429,-17.2923,-0.000410899,0.000341342,0.000796132,0.000845729,-0.000915286,1.00607,0.00101699,0.017202,1371,386,2.89424,17.2923
154,638,2.91296,-17.223,-0.000261579,0.00042369,0.000735387,0.000892346,-0.000730235,1.00341,0.000938355,0.0147447,1378,386,2.91297,17.223
161,638,2.88843,-17.1192,-0.000165535,0.000597143,0.000726551,0.00103635,-0.000604741,1.02707,0.000958345,0.0175901,1385,386,2.88846,17.1192
168,638,2.89502,-17.005,-0.000228474,0.000922247,0.000731943,0.0012779,-0.000584124,1.11849,0.00109963,0.0236986,1392,386,2.89499,17.005
175,638,2.92175,-16.9005,-0.000395138,0.00148351,0.000673061,0.00169975,-0.000611384,1.25993,0.00138278,0.0193947,1399,386,2.9218,16.9005
182,638,2.9176,-16.7905,-0.000376892,0.00187151,0.00053742,0.00199336,-0.000498744,1.34783,0.00152263,0.0124179,1406,386,2.91755,16.7905
189,638,2.89099,-16.6766,-0.000435533,0.00198456,0.000675766,0.00216047,-0.000611442,1.31614,0.0016816,0.0107075,1413,386,2.89097,16.6766
196,638,2.88049,-16.5667,-0.000509573,0.00175044,0.000799187,0.00200449,-0.000763624,1.26301,0.00165083,0.0138833,1420,386,2.88045,16.5667
203,638,2.8678,-16.4453,-0.000518525,0.00126076,0.00100795,0.00171552,-0.000973286,1.14697,0.00157198,0.0207139,1427,386,2.86782,16.4453
210,638,2.85486,-16.3203,-0.000546127,0.000912013,0.00125636,0.00163552,-0.00126963,1.0483,0.00168172,0.0165244,1434,386,2.85483,16.3203
217,638,2.83557,-16.186,-0.000489644,0.000880437,0.00145746,0.00180582,-0.00141503,1.00509,0.00186412,0.0116515,1441,386,2.83554,16.186
224,638,2.82336,-16.0214,-0.000390068,0.00103504,0.00168624,0.0021531,-0.00150812,0.985304,0.00212471,0.0100533,1448,386,2.8234,16.0214
231,638,2.80518,-15.8483,-0.000162554,0.00118801,0.00205289,0.00267383,-0.00164837,0.944294,0.00251873,0.0110362,1455,386,2.8052,15.8483
238,638,2.77637,-15.7066,7.45672e-06,0.00155808,0.00254871,0.00344679,-0.00188126,0.933049,0.0031201,0.0125642,1462,386,2.77635,15.7066
245,638,2.76672,-15.5423,0.000120936,0.00209058,0.00307005,0.0043299,-0.00211839,0.940605,0.0037952,0.0143827,1469,386,2.76671,15.5423
252,638,2.75818,-15.3632,0.000339191,0.00282252,0.00364884,0.00543517,-0.00227346,0.949397,0.00457366,0.015113,1476,386,2.7582,15.3632
259,638,2.74304,-15.2009,0.000642141,0.00376717,0.00429361,0.00677373,-0.00236443,0.959907,0.00547682,0.0142254,1483,386,2.7431,15.2009
266,638,2.72437,-15.0147,0.000238773,0.004146,0.00511866,0.00767119,-0.00328641,0.967699,0.00649301,0.0111195,1490,386,2.72434,15.0147
273,638,2.72607,-14.8493,-0.00110185,0.00400734,0.00576018,0.00775399,-0.0048485,0.994113,0.00734022,0.0108534,1497,386,2.72605,14.8493
280,638,2.76697,-14.5964,-0.00187435,0.00397359,0.00652791,0.00820247,-0.00610323,0.995959,0.00828898,0.0207506,1504,386,2.76703,14.5964
287,638,2.88745,-14.2438,-0.00334267,0.0033488,0.00739085,0.00811593,-0.0081098,0.997941,0.00936793,0.0379153,1511,386,2.88741,14.2438
294,638,2.83765,-14.0752,-0.00518861,0.00241627,0.00812675,0.00758615,-0.0103585,1.00421,0.0104015,0.0493212,1518,386,2.83764,14.0752
301,638,2.71228,-13.9115,0,0,0,0,0,0,0,-1,1525,386,2.71228,13.9115
308,638,2.93115,-14.1798,0,0,0,0,0,0,0,-1,1532,386,2.93113,14.1798
315,638,3.19141,-13.9744,-0.0137215,-0.00440064,0.0100195,0.0019893,-0.0201114,1.00308,0.0141175,0.042858,1539,386,3.19142,13.9744
322,638,2.71069,-13.8585,-0.0170635,-0.00781527,0.0104411,-0.00102014,-0.0238587,0.993856,0.0155769,0.0434264,1546,386,2.71063,13.8585
329,638,1.58569,-13.5639,0,0,0,0,0,0,0,-1,1553,386,1.58567,13.5639
336,638,0.717896,-12.9545,0,0,0,0,0,0,0,-1,1560,386,0.717945,12.9545
343,638,-0.128174,-12.1073,0,0,0,0,0,0,0,-1,1567,386,-0.128176,12.1073
350,638,2.3783,-11.33,0,0,0,0,0,0,0,-1,1574,386,2.37831,11.33
357,638,0.130371,-3.02618,0,0,0,0,0,0,0,-1,1581,386,0.130345,3.0262
364,638,3.78149,-6.45215,0,0,0,0,0,0,0,-1,1588,386,3.78155,6.45216
371,638,4.18604,-6.71164,0,0,0,0,0,0,0,-1,1595,386,4.18598,6.71164
378,638,4.59045,-6.97113,0,0,0,0,0,0,0,-1,1602,386,4.5904,6.97112
385,638,0,0,0,0,0,0,0,0,0,-1,1609,386,0,0
392,638,0,0,0,0,0,0,0,0,0,-1,1616,386,0,0
399,638,0,0,0,0,0,0,0,0,0,-1,1623,386,0,0
406,638,0,0,0,0,0,0,0,0,0,-1,1630,386,0,0
413,638,0,0,0,0,0,0,0,0,0,-1,1637,386,0,0
420,638,0,0,0,0,0,0,0,0,0,-1,1644,386,0,0
427,638,0,0,0,0,0,0,0,0,0,-1,1651,386,0,0
434,638,0,0,0,0,0,0,0,0,0,-1,1658,386,0,0
441,638,0,0,0,0,0,0,0,0,0,-1,1665,386,0,0
448,638,0,0,0,0,0,0,0,0,0,-1,1672,386,0,0
455,638,0,0,0,0,0,0,0,0,0,-1,1679,386,0,0
462,638,0,0,0,0,0,0,0,0,0,-1,1686,386,0,0
469,638,0,0,0,0,0,0,0,0,0,-1,1693,386,0,0
476,638,0,0,0,0,0,0,0,0,0,-1,1700,386,0,0
483,638,0,0,0,0,0,0,0,0,0,-1,1707,386,0,0
490,638,0,0,0,0,0,0,0,0,0,-1,1714,386,0,0
497,638,0,0,0,0,0,0,0,0,0,-1,1721,386,0,0
504,638,0,0,0,0,0,0,0,0,0,-1,1728,386,0,0
511,638,0,0,0,0,0,0,0,0,0,-1,1735,386,0,0
518,638,0,0,0,0,0,0,0,0,0,-1,1742,386,0,0
525,638,0,0,0,0,0,0,0,0,0,-1,1749,386,0,0
532,638,0,0,0,0,0,0,0,0,0,-1,1756,386,0,0
539,638,0,0,0,0,0,0,0,0,0,-1,1763,386,0,0
546,638,0,0,0,0,0,0,0,0,0,-1,1770,386,0,0
553,638,0,0,0,0,0,0,0,0,0,-1,1777,386,0,0
560,638,0,0,0,0,0,0,0,0,0,-1,1784,386,0,0
567,638,0,0,0,0,0,0,0,0,0,-1,1791,386,0,0
574,638,0,0,0,0,0,0,0,0,0,-1,1798,386,0,0
581,638,0,0,0,0,0,0,0,0,0,-1,1805,386,0,0
588,638,0,0,0,0,0,0,0,0,0,-1,1812,386,0,0
595,638,0,0,0,0,0,0,0,0,0,-1,1819,386,0,0
602,638,0,0,0,0,0,0,0,0,0,-1,1826,386,0,0
609,638,0,0,0,0,0,0,0,0,0,-1,1833,386,0,0
616,638,0,0,0,0,0,0,0,0,0,-1,1840,386,0,0
623,638,0,0,0,0,0,0,0,0,0,-1,1847,386,0,0
630,638,0,0,0,0,0,0,0,0,0,-1,1854,386,0,0
637,638,0,0,0,0,0,0,0,0,0,-1,1861,386,0,0
644,638,0,0,0,0,0,0,0,0,0,-1,1868,386,0,0
651,638,0,0,0,0,0,0,0,0,0,-1,1875,386,0,0
658,638,0,0,0,0,0,0,0,0,0,-1,1882,386,0,0
665,638,0,0,0,0,0,0,0,0,0,-1,1889,386,0,0
672,638,0,0,0,0,0,0,0,0,0,-1,1896,386,0,0
679,638,0,0,0,0,0,0,0,0,0,-1,1903,386,0,0
686,638,0,0,0,0,0,0,0,0,0,-1,1910,386,0,0
693,638,0,0,0,0,0,0,0,0,0,-1,1917,386,0,0
700,638,0,0,0,0,0,0,0,0,0,-1,1924,386,0,0
707,638,0,0,0,0,0,0,0,0,0,-1,1931,386,0,0
714,638,0,0,0,0,0,0,0,0,0,-1,1938,386,0,0
721,638,0,0,0,0,0,0,0,0,0,-1,1945,386,0,0
728,638,0,0,0,0,0,0,0,0,0,-1,1952,386,0,0
735,638,0,0,0,0,0,0,0,0,0,-1,1959,386,0,0
742,638,0,0,0,0,0,0,0,0,0,-1,1966,386,0,0
749,638,0,0,0,0,0,0,0,0,0,-1,1973,386,0,0
756,638,0,0,0,0,0,0,0,0,0,-1,1980,386,0,0
763,638,0,0,0,0,0,0,0,0,0,-1,1987,386,0,0
770,638,0,0,0,0,0,0,0,0,0,-1,1994,386,0,0
777,638,0,0,0,0,0,0,0,0,0,-1,2001,386,0,0
784,638,0,0,0,0,0,0,0,0,0,-1,2008,386,0,0
791,638,0,0,0,0,0,0,0,0,0,-1,2015,386,0,0
798,638,0,0,0,0,0,0,0,0,0,-1,2022,386,0,0
805,638,0,0,0,0,0,0,0,0,0,-1,2029,386,0,0
812,638,0,0,0,0,0,0,0,0,0,-1,2036,386,0,0
-700,631,0,0,0,0,0,0,0,0,0,-1,524,393,0,0
-693,631,0,0,0,0,0,0,0,0,0,-1,531,393,0,0
-686,631,0,0,0,0,0,0,0,0,0,-1,538,393,0,0
-679,631,0,0,0,0,0,0,0,0,0,-1,545,393,0,0
-672,631,0,0,0,0,0,0,0,0,0,-1,552,393,0,0
-665,631,0,0,0,0,0,0,0,0,0,-1,559,393,0,0
-658,631,0,0,0,0,0,0,0,0,0,-1,566,393,0,0
-651,631,0,0,0,0,0,0,0,0,0,-1,573,393,0,0
-644,631,0,0,0,0,0,0,0,0,0,-1,580,393,0,0
-637,631,0,0,0,0,0,0,0,0,0,-1,587,393,0,0
-630,631,0,0,0,0,0,0,0,0,0,-1,594,393,0,0
-623,631,0,0,0,0,0,0,0,0,0,-1,601,393,0,0
-616,631,0,0,0,0,0,0,0,0,0,-1,608,393,0,0
-609,631,0,0,0,0,0,0,0,0,0,-1,615,393,0,0
-602,631,0,0,0,0,0,0,0,0,0,-1,622,393,0,0
-595,631,0,0,0,0,0,0,0,0,0,-1,629,393,0,0
-588,631,0,0,0,0,0,0,0,0,0,-1,636,393,0,0
-581,631,0,0,0,0,0,0,0,0,0,-1,643,393,0,0
-574,631,0,0,0,0,0,0,0,0,0,-1,650,393,0,0
-567,631,0,0,0,0,0,0,0,0,0,-1,657,393,0,0
-560,631,0,0,0,0,0,0,0,0,0,-1,664,393,0,0
-553,631,0,0,0,0,0,0,0,0,0,-1,671,393,0,0
-546,631,0,0,0,0,0,0,0,0,0,-1,678,393,0,0
-539,631,0,0,0,0,0,0,0,0,0,-1,685,393,0,0
-532,631,0,0,0,0,0,0,0,0,0,-1,692,393,0,0
-525,631,0,0,0,0,0,0,0,0,0,-1,699,393,0,0
-518,631,0,0,0,0,0,0,0,0,0,-1,706,393,0,0
-511,631,0,0,0,0,0,0,0,0,0,-1,713,393,0,0
-504,631,0,0,0,0,0,0,0,0,0,-1,720,393,0,0
-497,631,0,0,0,0,0,0,0,0,0,-1,727,393,0,0
-490,631,0,0,0,0,0,0,0,0,0,-1,734,393,0,0
-483,631,0,0,0,0,0,0,0,0,0,-1,741,393,0,0
-476,631,0,0,0,0,0,0,0,0,0,-1,748,393,0,0
-469,631,0,0,0,0,0,0,0,0,0,-1,755,393,0,0
-462,631,0,0,0,0,0,0,0,0,0,-1,762,393,0,0
-455,631,0,0,0,0,0,0,0,0,0,-1,769,393,0,0
-448,631,0,0,0,0,0,0,0,0,0,-1,776,393,0,0
-441,631,0,0,0,0,0,0,0,0,0,-1,783,393,0,0
-434,631,0,0,0,0,0,0,0,0,0,-1,790,393,0,0
-427,631,0,0,0,0,0,0,0,0,0,-1,797,393,0,0
-420,631,0,0,0,0,0,0,0,0,0,-1,804,393,0,0
-413,631,0,0,0,0,0,0,0,0,0,-1,811,393,0,0
-406,631,0,0,0,0,0,0,0,0,0,-1,818,393,0,0
-399,631,0,0,0,0,0,0,0,0,0,-1,825,393,0,0
-392,631,0,0,0,0,0,0,0,0,0,-1,832,393,0,0
-385,631,0,0,0,0,0,0,0,0,0,-1,839,393,0,0
-378,631,0,0,0,0,0,0,0,0,0,-1,846,393,0,0
-371,631,0,0,0,0,0,0,0,0,0,-1,853,393,0,0
-364,631,0,0,0,0,0,0,0,0,0,-1,860,393,0,0
-357,631,0,0,0,0,0,0,0,0,0,-1,867,393,0,0
-350,631,0,0,0,0,0,0,0,0,0,-1,874,393,0,0
-343,631,0,0,0,0,0,0,0,0,0,-1,881,393,0,0
-336,631,0,0,0,0,0,0,0,0,0,-1,888,393,0,0
-329,631,0,0,0,0,0,0,0,0,0,-1,895,393,0,0
-322,631,0,0,0,0,0,0,0,0,0,-1,902,393,0,0
-315,631,0,0,0,0,0,0,0,0,0,-1,909,393,0,0
-308,631,0,0,0,0,0,0,0,0,0,-1,916,393,0,0
-301,631,0,0,0,0,0,0,0,0,0,-1,923,393,0,0
-294,631,0,0,0,0,0,0,0,0,0,-1,930,393,0,0
-287,631,0,0,0,0,0,0,0,0,0,-1,937,393,0,0
-280,631,1.38763,-14.3453,0,0,0,0,0,0,0,-1,944,393,1.38762,14.3453
-273,631,2.6192,-11.8094,0,0,0,0,0,0,0,-1,951,393,2.61918,11.8094
-266,631,0.616394,-9.4404,0,0,0,0,0,0,0,-1,958,393,0.616411,9.4404
-259,631,2.85291,-12.235,0,0,0,0,0,0,0,-1,965,393,2.85293,12.235
-252,631,3.27264,-12.7235,0,0,0,0,0,0,0,-1,972,393,3.27266,12.7235
-245,631,3.46356,-13.5552,0,0,0,0,0,0,0,-1,979,393,3.46356,13.5552
-238,631,2.80206,-13.5577,0,0,0,0,0,0,0,-1,986,393,2.80209,13.5577
-231,631,5.26642,-12.2423,0,0,0,0,0,0,0,-1,993,393,5.26643,12.2423
-224,631,3.33148,-11.726,0,0,0,0,0,0,0,-1,1000,393,3.33146,11.726
-217,631,2.8056,-11.3224,0,0,0,0,0,0,0,-1,1007,393,2.80559,11.3224
-210,631,3.26563,-13.9903,0,0,0,0,0,0,0,-1,1014,393,3.26562,13.9903
-203,631,3.20911,-13.9178,0,0,0,0,0,0,0,-1,1021,393,3.20916,13.9178
-196,631,3.57361,-13.7811,0,0,0,0,0,0,0,-1,1028,393,3.57358,13.7811
-189,631,3.05017,-14.4585,-0.00337068,-0.0165394,0.00240168,-0.00294634,-0.0169637,0.17488,0.0104662,0.0472404,1035,393,3.05015,14.4585
-182,631,3.09863,-14.5528,-0.00282133,-0.0198292,0.00301557,-0.00230248,-0.0203481,0.170387,0.0128667,0.0438703,1042,393,3.0986,14.5528
-175,631,3.09448,-14.7507,-0.00267905,-0.0220884,0.00363806,-0.00201955,-0.0227479,0.179331,0.0145389,0.0362943,1049,393,3.0945,14.7507
-168,631,3.02393,-15.0791,-0.00273797,-0.0234476,0.00406284,-0.00196944,-0.0242162,0.186952,0.0155293,0.0192235,1056,393,3.02388,15.0791
-161,631,3.02832,-15.2626,-0.00249903,-0.0235001,0.00441828,-0.00160736,-0.0243918,0.19914,0.0157528,0.00893456,1063,393,3.02837,15.2626
-154,631,2.99854,-15.4311,-0.00213779,-0.022223,0.00481116,-0.00104481,-0.0233159,0.223384,0.0152077,0.0087151,1070,393,2.99853,15.4311
-147,631,3.00159,-15.5829,-0.00196069,-0.0198737,0.0050794,-0.000620631,-0.0212138,0.257945,0.0139403,0.00979997,1077,393,3.00161,15.5828
-140,631,2.98987,-15.7542,-0.001705,-0.0172426,0.00510923,-0.000175501,-0.0187721,0.29087,0.0124567,0.00955123,1084,393,2.98987,15.7542
-133,631,2.95569,-15.9106,-0.00154657,-0.0140865,0.00503651,0.000225782,-0.0158589,0.338367,0.0106486,0.00813784,1091,393,2.95574,15.9106
-126,631,2.95203,-16.0493,-0.00150757,-0.0108241,0.0047908,0.000516315,-0.012848,0.39971,0.00874254,0.0120811,1098,393,2.95199,16.0493
-119,631,2.95227,-16.1855,-0.00149861,-0.00746181,0.00446605,0.000889665,-0.00985009,0.491069,0.00688248,0.0166695,1105,393,2.95222,16.1855
-112,631,2.93469,-16.323,-0.00159095,-0.00448011,0.00393984,0.0011608,-0.00723186,0.609679,0.00525112,0.015456,1112,393,2.93469,16.323
-105,631,2.95886,-16.457,-0.00165439,-0.00168491,0.00329079,0.00162117,-0.00496047,0.783079,0.00395959,0.0182942,1119,393,2.9589,16.457
-98,631,2.92725,-16.5925,-0.00157017,0.000538773,0.00258312,0.00227436,-0.00330576,0.979182,0.00323998,0.0153405,1126,393,2.92727,16.5925
-91,631,2.88708,-16.7272,-0.00145359,0.0020386,0.00199109,0.00294077,-0.00235575,1.14537,0.00306416,0.0167757,1133,393,2.88705,16.7272
-84,631,2.89539,-16.8372,-0.00156808,0.00269191,0.00127527,0.00304449,-0.00192066,1.30106,0.002891,0.0152933,1140,393,2.89545,16.8372
-77,631,2.88647,-16.9342,-0.00157864,0.00274882,0.000719929,0.00286545,-0.00169527,1.41019,0.00266186,0.0093824,1147,393,2.88651,16.9342
-70,631,2.88782,-17.0207,-0.00130542,0.0023922,0.000436715,0.00244308,-0.0013563,1.45482,0.00222329,0.0102416,1154,393,2.88779,17.0207
-63,631,2.89331,-17.1131,-0.000876197,0.0020454,0.000187195,0.00205734,-0.000888142,1.50707,0.00174466,0.0101941,1161,393,2.89332,17.1131
-56,631,2.87732,-17.2227,-0.000385277,0.00155354,2.31552e-05,0.00155382,-0.000385553,1.55886,0.00118548,0.0114021,1168,393,2.87733,17.2227
-49,631,2.87634,-17.3032,6.2772e-05,0.00135856,-0.00022663,0.00139705,2.42782e-05,-1.40255,0.000923381,0.0102601,1175,393,2.87639,17.3032
-42,631,2.87927,-17.3744,0.000473971,0.00081311,-0.000335319,0.0010193,0.000267785,-1.01949,0.000610181,0.00880635,1182,393,2.87928,17.3744
-35,631,2.88708,-17.4475,0.000668944,0.000410908,-0.000118709,0.000715247,0.000364605,-0.371904,0.000412974,0.00928668,1189,393,2.88708,17.4475
-28,631,2.90308,-17.5173,0.000831217,-4.78781e-05,0.000121748,0.000847766,-6.44276e-05,0.135105,0.000587831,0.0111635,1196,393,2.90304,17.5173
-21,631,2.87341,-17.6001,0.000991502,-0.000507354,0.000331726,0.00106164,-0.000577489,0.208358,0.000960012,0.0102179,1203,393,2.87346,17.6001
-14,631,2.8446,-17.6532,0.00126785,-0.00110082,0.000608321,0.00141494,-0.00124791,0.23725,0.00153841,0.0132132,1210,393,2.84464,17.6532
-7,631,2.84595,-17.7257,0.00189709,-0.00148242,0.000952748,0.00214718,-0.00173251,0.256702,0.0022442,0.0210605,1217,393,2.84595,17.7257
0,631,2.87952,-17.7855,0.00260166,-0.0015673,0.00142137,0.00304014,-0.00200578,0.299231,0.0029336,0.0231486,1224,393,2.87948,17.7855
7,631,2.90112,-17.7794,0.00332679,-0.00194319,0.00160893,0.00377916,-0.00239556,0.274089,0.00359469,0.0186244,1231,393,2.90114,17.7794
14,631,2.88953,-17.8015,0.00385072,-0.00251025,0.00139364,0.00414266,-0.00280219,0.206492,0.00403443,0.010721,1238,393,2.8895,17.8016
21,631,2.89294,-17.8417,0.00419185,-0.00265001,0.00130833,0.0044335,-0.00289166,0.182643,0.00426029,0.011775,1245,393,2.893,17.8417
28,631,2.8877,-17.8577,0.00460094,-0.00272506,0.00113495,0.00477274,-0.00289686,0.150231,0.00447198,0.0125616,1252,393,2.88771,17.8577
35,631,2.89502,-17.8726,0.00475947,-0.00284775,0.000851258,0.00485356,-0.00294185,0.110087,0.00454557,0.011889,1259,393,2.89505,17.8726
42,631,2.92847,-17.8858,0.00457651,-0.00278551,0.000445349,0.00460335,-0.00281236,0.0602001,0.00432288,0.0110733,1266,393,2.92842,17.8858
49,631,2.92883,-17.8704,0.00446285,-0.00259104,0.00012188,0.00446495,-0.00259314,0.0172715,0.00412248,0.0101928,1273,393,2.92882,17.8704
56,631,2.94373,-17.879,0.00416254,-0.00213368,-0.000340113,0.00418086,-0.002152,-0.0538098,0.0037183,0.0120378,1280,393,2.94373,17.879
63,631,2.94641,-17.8894,0.00337655,-0.00168669,-0.000878716,0.00352472,-0.00183485,-0.167043,0.0031452,0.0145597,1287,393,2.94639,17.8894
70,631,2.94116,-17.8644,0.00246065,-0.00108787,-0.00126249,0.00286397,-0.00149119,-0.309221,0.00255575,0.0148277,1294,393,2.94115,17.8644
77,631,2.93225,-17.8432,0.0014952,-0.000260017,-0.00140887,0.00227745,-0.00104226,-0.506848,0.00196036,0.0141854,1301,393,2.93225,17.8432
84,631,2.95032,-17.8167,0.000684825,0.000366505,-0.00138764,0.0019224,-0.000871071,-0.728298,0.00165045,0.011642,1308,393,2.9503,17.8167
91,631,2.96143,-17.7697,-0.000227265,0.00100064,-0.00130122,0.00182547,-0.0010521,-1.00583,0.00168125,0.0140047,1315,393,2.96139,17.7698
98,631,2.96045,-17.7243,-0.0013453,0.0012634,-0.00119649,0.00172905,-0.00181096,-1.19965,0.00204401,0.0120756,1322,393,2.96041,17.7243
105,631,2.95337,-17.6872,-0.00208548,0.00126446,-0.000939625,0.00151002,-0.00233103,-1.31518,0.00223445,0.0105696,1329,393,2.95341,17.6871
112,631,2.96143,-17.6488,-0.00242592,0.00141341,-0.000428701,0.00146069,-0.00247321,-1.46094,0.00229618,0.0106115,1336,393,2.96145,17.6488
119,631,2.97229,-17.6039,-0.00248186,0.00144808,0.00019793,0.00145803,-0.0024918,1.5206,0.00230632,0.0110516,1343,393,2.97228,17.6039
126,631,2.97705,-17.5264,-0.00235728,0.000959589,0.000396026,0.00100622,-0.00240391,1.45359,0.00202321,0.0156743,1350,393,2.97701,17.5264
133,631,2.9939,-17.4413,-0.00221858,0.000436236,0.000537767,0.000541031,-0.00232338,1.37834,0.00175725,0.0169668,1357,393,2.99393,17.4413
140,631,2.97058,-17.3711,-0.00188446,4.90853e-05,0.000640751,0.000242145,-0.00207752,1.27815,0.00147238,0.0187486,1364,393,2.9706,17.3711
147,631,2.96948,-17.2935,-0.00141355,-0.000382284,0.000698088,-3.00432e-05,-0.00176579,1.10349,0.00116731,0.0216885,1371,393,2.96949,17.2935
154,631,2.99731,-17.2115,-0.00107282,-0.000600859,0.000570808,-0.000219175,-0.0014545,0.981406,0.000905496,0.019269,1378,393,2.99728,17.2115
161,631,2.99011,-17.1183,-0.000702814,-0.000740078,0.000542282,-0.000178844,-0.00126405,0.768226,0.000789862,0.0216936,1385,393,2.99016,17.1183
168,631,2.99292,-17.0034,-0.000305663,-0.000553146,0.000508868,9.42927e-05,-0.000953101,0.666128,0.00066905,0.0275146,1392,393,2.99294,17.0034
175,631,3.01257,-16.9109,-0.000162367,-0.000188525,0.000312847,0.000137674,-0.000488566,0.764507,0.000380008,0.0208381,1399,393,3.01261,16.9109
182,631,3.00342,-16.813,-5.99663e-05,0.000182673,0.000121852,0.000233302,-0.000110596,1.177,0.000202718,0.0111665,1406,393,3.00339,16.813
189,631,2.99475,-16.686,-0.00013385,0.000576163,0.000120406,0.000596026,-0.000153713,1.4073,0.000457283,0.0103913,1413,393,2.99477,16.686
196,631,2.98987,-16.5633,-0.000172827,0.000710866,0.000221978,0.000763492,-0.000225452,1.33802,0.000598472,0.0110554,1420,393,2.98984,16.5633
203,631,2.98621,-16.4384,-0.000168086,0.000717558,0.000408811,0.000877411,-0.000327939,1.19805,0.000719609,0.0131726,1427,393,2.98623,16.4384
210,631,2.96802,-16.3078,-0.000238307,0.000741759,0.000607565,0.00103228,-0.000528829,1.12476,0.000916798,0.0149266,1434,393,2.96798,16.3078
217,631,2.94019,-16.1841,-0.000273765,0.000916209,0.000823665,0.00133731,-0.000694865,1.09819,0.00119266,0.0163755,1441,393,2.94018,16.1841
224,631,2.94519,-16.0246,-0.000200593,0.00112014,0.0010774,0.00172345,-0.000803904,1.06033,0.00149101,0.013472,1448,393,2.9452,16.0246
231,631,2.94287,-15.8608,-3.43256e-05,0.00130951,0.00143705,0.00222396,-0.000948779,1.00408,0.00188045,0.0116841,1455,393,2.94283,15.8608
238,631,2.92297,-15.6891,0.000104793,0.00166859,0.0018868,0.00292909,-0.00115571,0.981829,0.00243131,0.0175947,1462,393,2.92302,15.6891
245,631,2.9209,-15.5499,0.000211356,0.00213134,0.00234741,0.00370747,-0.00136478,0.9795,0.00303079,0.0181685,1469,393,2.92086,15.5499
252,631,2.90625,-15.41,0.000397664,0.00273183,0.00283895,0.00463423,-0.00150473,0.980416,0.00369465,0.0167943,1476,393,2.90628,15.41
259,631,2.8927,-15.2241,0.000634304,0.0034461,0.00336961,0.00569134,-0.00161093,0.983033,0.00442994,0.012985,1483,393,2.89275,15.2241
266,631,2.90991,-15.0357,0.000329416,0.00368729,0.0040225,0.00636718,-0.00235047,0.9831,0.00520818,0.0116046,1490,393,2.90986,15.0357
273,631,2.89417,-14.8473,-0.000653821,0.00353769,0.00451847,0.00642277,-0.0035389,1.00254,0.00583116,0.0134065,1497,393,2.8942,14.8473
280,631,2.87549,-14.6749,-0.00126297,0.00344171,0.00510596,0.00671115,-0.0045324,1.00126,0.00653197,0.0116332,1504,393,2.87554,14.6749
287,631,2.87561,-14.4535,-0.00231833,0.00291735,0.0057586,0.00662522,-0.0060262,0.998733,0.00730703,0.0127403,1511,393,2.87567,14.4535
294,631,2.84644,-14.1978,-0.00354458,0.00220657,0.00632981,0.00628336,-0.00762137,0.998606,0.00804028,0.0179946,1518,393,2.84647,14.1978
301,631,2.8446,-13.9445,-0.00505664,0.00123389,0.006927,0.00569625,-0.00951901,0.99851,0.00887647,0.0270099,1525,393,2.84462,13.9445
308,631,2.9563,-13.7458,-0.00691793,-0.000227257,0.00744565,0.00459007,-0.0117353,0.996534,0.0097217,0.0316109,1532,393,2.95631,13.7459
315,631,3.08142,-13.7579,-0.008943,-0.00238557,0.00790495,0.00289365,-0.0142222,0.981984,0.0105788,0.0324215,1539,393,3.08147,13.7579
322,631,2.90112,-13.5297,-0.0109188,-0.00444693,0.00829479,0.0012208,-0.0165865,0.971376,0.0114862,0.0393736,1546,393,2.9011,13.5297
329,631,2.64783,-13.28,0,0,0,0,0,0,0,-1,1553,393,2.64777,13.28
336,631,0.229858,-12.0239,0,0,0,0,0,0,0,-1,1560,393,0.229798,12.0239
343,631,2.45703,-11.5554,0,0,0,0,0,0,0,-1,1567,393,2.45703,11.5554
350,631,2.1344,-9.23401,0,0,0,0,0,0,0,-1,1574,393,2.13439,9.23401
357,631,2.6449,-9.60303,0,0,0,0,0,0,0,-1,1581,393,2.64491,9.60304
364,631,3.39136,-5.7594,0,0,0,0,0,0,0,-1,1588,393,3.39137,5.75939
371,631,3.72839,-6.0574,0,0,0,0,0,0,0,-1,1595,393,3.72845,6.05742
378,631,4.06555,-6.35544,0,0,0,0,0,0,0,-1,1602,393,4.06553,6.35544
385,631,3.90442,-3.58298,0,0,0,0,0,0,0,-1,1609,393,3.90437,3.58299
392,631,0.352295,-2.21301,0,0,0,0,0,0,0,-1,1616,393,0.352345,2.213
399,631,0,0,0,0,0,0,0,0,0,-1,1623,393,0,0
406,631,0,0,0,0,0,0,0,0,0,-1,1630,393,0,0
413,631,0,0,0,0,0,0,0,0,0,-1,1637,393,0,0
420,631,0,0,0,0,0,0,0,0,0,-1,1644,393,0,0
427,631,0,0,0,0,0,0,0,0,0,-1,1651,393,0,0
434,631,0,0,0,0,0,0,0,0,0,-1,1658,393,0,0
441,631,0,0,0,0,0,0,0,0,0,-1,1665,393,0,0
448,631,0,0,0,0,0,0,0,0,0,-1,1672,393,0,0
455,631,0,0,0,0,0,0,0,0,0,-1,1679,393,0,0
462,631,0,0,0,0,0,0,0,0,0,-1,1686,393,0,0
469,631,0,0,0,0,0,0,0,0,0,-1,1693,393,0,0
476,631,0,0,0,0,0,0,0,0,0,-1,1700,393,0,0
483,631,0,0,0,0,0,0,0,0,0,-1,1707,393,0,0
490,631,0,0,0,0,0,0,0,0,0,-1,1714,393,0,0
497,631,0,0,0,0,0,0,0,0,0,-1,1721,393,0,0
504,631,0,0,0,0,0,0,0,0,0,-1,1728,393,0,0
511,631,0,0,0,0,0,0,0,0,0,-1,1735,393,0,0
518,631,0,0,0,0,0,0,0,0,0,-1,1742,393,0,0
525,631,0,0,0,0,0,0,0,0,0,-1,1749,393,0,0
532,631,0,0,0,0,0,0,0,0,0,-1,1756,393,0,0
539,631,0,0,0,0,0,0,0,0,0,-1,1763,393,0,0
546,631,0,0,0,0,0,0,0,0,0,-1,1770,393,0,0
553,631,0,0,0,0,0,0,0,0,0,-1,1777,393,0,0
560,631,0,0,0,0,0,0,0,0,0,-1,1784,393,0,0
567,631,0,0,0,0,0,0,0,0,0,-1,1791,393,0,0
574,631,0,0,0,0,0,0,0,0,0,-1,1798,393,0,0
581,631,0,0,0,0,0,0,0,0,0,-1,1805,393,0,0
588,631,0,0,0,0,0,0,0,0,0,-1,1812,393,0,0
595,631,0,0,0,0,0,0,0,0,0,-1,1819,393,0,0
602,631,0,0,0,0,0,0,0,0,0,-1,1826,393,0,0
609,631,0,0,0,0,0,0,0,0,0,-1,1833,393,0,0
616,631,0,0,0,0,0,0,0,0,0,-1,1840,393,0,0
623,631,0,0,0,0,0,0,0,0,0,-1,1847,393,0,0
630,631,0,0,0,0,0,0,0,0,0,-1,1854,393,0,0
637,631,0,0,0,0,0,0,0,0,0,-1,1861,393,0,0
644,631,0,0,0,0,0,0,0,0,0,-1,1868,393,0,0
651,631,0,0,0,0,0,0,0,0,0,-1,1875,393,0,0
658,631,0,0,0,0,0,0,0,0,0,-1,1882,393,0,0
665,631,0,0,0,0,0,0,0,0,0,-1,1889,393,0,0
672,631,0,0,0,0,0,0,0,0,0,-1,1896,393,0,0
679,631,0,0,0,0,0,0,0,0,0,-1,1903,393,0,0
686,631,0,0,0,0,0,0,0,0,0,-1,1910,393,0,0
693,631,0,0,0,0,0,0,0,0,0,-1,1917,393,0,0
700,631,0,0,0,0,0,0,0,0,0,-1,1924,393,0,0
707,631,0,0,0,0,0,0,0,0,0,-1,1931,393,0,0
714,631,0,0,0,0,0,0,0,0,0,-1,1938,393,0,0
721,631,0,0,0,0,0,0,0,0,0,-1,1945,393,0,0
728,631,0,0,0,0,0,0,0,0,0,-1,1952,393,0,0
735,631,0,0,0,0,0,0,0,0,0,-1,1959,393,0,0
742,631,0,0,0,0,0,0,0,0,0,-1,1966,393,0,0
749,631,0,0,0,0,0,0,0,0,0,-1,1973,393,0,0
756,631,0,0,0,0,0,0,0,0,0,-1,1980,393,0,0
763,631,0,0,0,0,0,0,0,0,0,-1,1987,393,0,0
770,631,0,0,0,0,0,0,0,0,0,-1,1994,393,0,0
777,631,0,0,0,0,0,0,0,0,0,-1,2001,393,0,0
784,631,0,0,0,0,0,0,0,0,0,-1,2008,393,0,0
791,631,0,0,0,0,0,0,0,0,0,-1,2015,393,0,0
798,631,0,0,0,0,0,0,0,0,0,-1,2022,393,0,0
805,631,0,0,0,0,0,0,0,0,0,-1,2029,393,0,0
812,631,0,0,0,0,0,0,0,0,0,-1,2036,393,0,0
-700,624,0,0,0,0,0,0,0,0,0,-1,524,400,0,0
-693,624,0,0,0,0,0,0,0,0,0,-1,531,400,0,0
-686,624,0,0,0,0,0,0,0,0,0,-1,538,400,0,0
-679,624,0,0,0,0,0,0,0,0,0,-1,545,400,0,0
-672,624,0,0,0,0,0,0,0,0,0,-1,552,400,0,0
-665,624,0,0,0,0,0,0,0,0,0,-1,559,400,0,0
-658,624,0,0,0,0,0,0,0,0,0,-1,566,400,0,0
-651,624,0,0,0,0,0,0,0,0,0,-1,573,400,0,0
-644,624,0,0,0,0,0,0,0,0,0,-1,580,400,0,0
-637,624,0,0,0,0,0,0,0,0,0,-1,587,400,0,0
-630,624,0,0,0,0,0,0,0,0,0,-1,594,400,0,0
-623,624,0,0,0,0,0,0,0,0,0,-1,601,400,0,0
-616,624,0,0,0,0,0,0,0,0,0,-1,608,400,0,0
-609,624,0,0,0,0,0,0,0,0,0,-1,615,400,0,0
-602,624,0,0,0,0,0,0,0,0,0,-1,622,400,0,0
-595,624,0,0,0,0,0,0,0,0,0,-1,629,400,0,0
-588,624,0,0,0,0,0,0,0,0,0,-1,636,400,0,0
-581,624,0,0,0,0,0,0,0,0,0,-1,643,400,0,0
-574,624,0,0,0,0,0,0,0,0,0,-1,650,400,0,0
-567,624,0,0,0,0,0,0,0,0,0,-1,657,400,0,0
-560,624,0,0,0,0,0,0,0,0,0,-1,664,400,0,0
-553,624,0,0,0,0,0,0,0,0,0,-1,671,400,0,0
-546,624,0,0,0,0,0,0,0,0,0,-1,678,400,0,0
-539,624,0,0,0,0,0,0,0,0,0,-1,685,400,0,0
-532,624,0,0,0,0,0,0,0,0,0,-1,692,400,0,0
-525,624,0,0,0,0,0,0,0,0,0,-1,699,400,0,0
-518,624,0,0,0,0,0,0,0,0,0,-1,706,400,0,0
-511,624,0,0,0,0,0,0,0,0,0,-1,713,400,0,0
-504,624,0,0,0,0,0,0,0,0,0,-1,720,400,0,0
-497,624,0,0,0,0,0,0,0,0,0,-1,727,400,0,0
-490,624,0,0,0,0,0,0,0,0,0,-1,734,400,0,0
-483,624,0,0,0,0,0,0,0,0,0,-1,741,400,0,0
-476,624,0,0,0,0,0,0,0,0,0,-1,748,400,0,0
-469,624,0,0,0,0,0,0,0,0,0,-1,755,400,0,0
-462,624,0,0,0,0,0,0,0,0,0,-1,762,400,0,0
-455,624,0,0,0,0,0,0,0,0,0,-1,769,400,0,0
-448,624,0,0,0,0,0,0,0,0,0,-1,776,400,0,0
-441,624,0,0,0,0,0,0,0,0,0,-1,783,400,0,0
-434,624,0,0,0,0,0,0,0,0,0,-1,790,400,0,0
-427,624,0,0,0,0,0,0,0,0,0,-1,797,400,0,0
-420,624,0,0,0,0,0,0,0,0,0,-1,804,400,0,0
-413,624,0,0,0,0,0,0,0,0,0,-1,811,400,0,0
-406,624,0,0,0,0,0,0,0,0,0,-1,818,400,0,0
-399,624,0,0,0,0,0,0,0,0,0,-1,825,400,0,0
-392,624,0,0,0,0,0,0,0,0,0,-1,832,400,0,0
-385,624,0,0,0,0,0,0,0,0,0,-1,839,400,0,0
-378,624,0,0,0,0,0,0,0,0,0,-1,846,400,0,0
-371,624,0,0,0,0,0,0,0,0,0,-1,853,400,0,0
-364,624,0,0,0,0,0,0,0,0,0,-1,860,400,0,0
-357,624,0,0,0,0,0,0,0,0,0,-1,867,400,0,0
-350,624,0,0,0,0,0,0,0,0,0,-1,874,400,0,0
-343,624,0,0,0,0,0,0,0,0,0,-1,881,400,0,0
-336,624,0,0,0,0,0,0,0,0,0,-1,888,400,0,0
-329,624,0,0,0,0,0,0,0,0,0,-1,895,400,0,0
-322,624,0,0,0,0,0,0,0,0,0,-1,902,400,0,0
-315,624,0,0,0,0,0,0,0,0,0,-1,909,400,0,0
-308,624,0,0,0,0,0,0,0,0,0,-1,916,400,0,0
-301,624,0,0,0,0,0,0,0,0,0,-1,923,400,0,0
-294,624,-0.912903,-12.9461,0,0,0,0,0,0,0,-1,930,400,-0.912926,12.9461
-287,624,0.12146,-15.0862,0,0,0,0,0,0,0,-1,937,400,0.121451,15.0862
-280,624,1.44836,-13.0475,0,0,0,0,0,0,0,-1,944,400,1.44835,13.0475
-273,624,2.56573,-11.0646,0,0,0,0,0,0,0,-1,951,400,2.56571,11.0646
-266,624,2.62512,-10.9965,0,0,0,0,0,0,0,-1,958,400,2.6251,10.9965
-259,624,2.74445,-11.7573,0,0,0,0,0,0,0,-1,965,400,2.74443,11.7572
-252,624,2.90063,-12.6132,0,0,0,0,0,0,0,-1,972,400,2.90063,12.6132
-245,624,3.02954,-13.5604,0,0,0,0,0,0,0,-1,979,400,3.02956,13.5604
-238,624,2.49817,-12.8599,0,0,0,0,0,0,0,-1,986,400,2.49817,12.8599
-231,624,2.48175,-13.1286,0,0,0,0,0,0,0,-1,993,400,2.48178,13.1286
-224,624,3.13715,-12.9518,0,0,0,0,0,0,0,-1,1000,400,3.13715,12.9518
-217,624,3.18188,-13.8333,0,0,0,0,0,0,0,-1,1007,400,3.18186,13.8333
-210,624,3.06818,-13.982,-0.00149631,0.00491671,0.00155291,0.00527296,-0.00185256,1.34529,0.00426898,0.0468611,1014,400,3.06818,13.982
-203,624,3.02087,-14.0223,-0.00208206,-0.000443658,0.00130626,0.000279029,-0.00280475,1.06546,0.00196944,0.0395063,1021,400,3.02084,14.0223
-196,624,3.19482,-14.0513,-0.00281451,-0.00504461,0.00102966,-0.00241182,-0.00544731,0.372803,0.00315187,0.0350502,1028,400,3.19479,14.0513
-189,624,2.95288,-14.402,-0.00263214,-0.00794172,0.00108532,-0.00241885,-0.008155,0.194042,0.0048364,0.0339451,1035,400,2.95289,14.402
-182,624,2.91479,-14.6513,-0.00227889,-0.0109755,0.00141894,-0.00205323,-0.0112012,0.157712,0.00688583,0.028551,1042,400,2.91482,14.6513
-175,624,2.91211,-14.9073,-0.00216721,-0.0130856,0.00189425,-0.00184791,-0.0134049,0.166993,0.00838875,0.0179405,1049,400,2.91211,14.9073
-168,624,2.90186,-15.0964,-0.00225445,-0.0145349,0.00222149,-0.00186495,-0.0149244,0.173571,0.00938989,0.011497,1056,400,2.90186,15.0964
-161,624,2.87329,-15.2898,-0.00206375,-0.0150827,0.00249342,-0.00160254,-0.0155439,0.182903,0.00987186,0.00963777,1063,400,2.87332,15.2898
-154,624,2.85925,-15.4433,-0.0016883,-0.0145668,0.00275564,-0.00112344,-0.0151316,0.202181,0.00973491,0.00884807,1070,400,2.85923,15.4433
-147,624,2.84863,-15.6038,-0.00143888,-0.0133182,0.00289191,-0.000772279,-0.0139848,0.226549,0.00907674,0.00968625,1077,400,2.84867,15.6038
-140,624,2.8335,-15.7697,-0.0011321,-0.0117334,0.00287087,-0.000404585,-0.012461,0.248187,0.00817578,0.00963064,1084,400,2.83352,15.7697
-133,624,2.81104,-15.9253,-0.000864884,-0.0096188,0.00277046,-6.17639e-05,-0.0104219,0.282153,0.00692745,0.0109027,1091,400,2.81103,15.9253
-126,624,2.8175,-16.0677,-0.000685842,-0.00737023,0.00251493,0.000154682,-0.00821075,0.322543,0.00552612,0.0126824,1098,400,2.81749,16.0677
-119,624,2.82556,-16.1928,-0.000512842,-0.00495668,0.0021664,0.000368501,-0.00583802,0.386374,0.00402048,0.0157978,1105,400,2.82556,16.1928
-112,624,2.8175,-16.3129,-0.000406256,-0.00275958,0.00167813,0.000466629,-0.00363247,0.47964,0.00259123,0.0176566,1112,400,2.81746,16.3129
-105,624,2.83264,-16.4676,-0.000290122,-0.000700467,0.00109766,0.000621373,-0.00161196,0.693005,0.00133102,0.0117373,1119,400,2.83268,16.4676
-98,624,2.79187,-16.5975,-9.7623e-05,0.000885094,0.000513467,0.00110443,-0.000316955,1.1671,0.000861593,0.0118192,1126,400,2.79187,16.5975
-91,624,2.76733,-16.7262,9.68813e-05,0.001835,8.10735e-05,0.00183877,9.31079e-05,1.52429,0.00119602,0.0171796,1133,400,2.76735,16.7262
-84,624,2.80603,-16.8462,0.000146021,0.00219691,-0.000289544,0.002237,0.000105928,-1.4332,0.00145731,0.0157573,1140,400,2.80599,16.8462
-77,624,2.80823,-16.9478,0.000241462,0.00216732,-0.000508979,0.00229356,0.000115221,-1.32767,0.00149212,0.0117242,1147,400,2.80821,16.9478
-70,624,2.79419,-17.0338,0.0004511,0.00187758,-0.000530427,0.00205319,0.000275484,-1.25107,0.00128683,0.0120005,1154,400,2.79423,17.0338
-63,624,2.79822,-17.1078,0.000721621,0.00171928,-0.000618525,0.00201506,0.000425841,-1.12474,0.00122633,0.0118176,1161,400,2.79819,17.1077
-56,624,2.78918,-17.2207,0.000891123,0.00118248,-0.000398082,0.0014607,0.000612901,-0.960805,0.000846964,0.0105275,1168,400,2.78924,17.2207
-49,624,2.7959,-17.3076,0.00088209,0.000723611,-0.000236262,0.00105205,0.000553654,-0.623599,0.000607679,0.0100408,1175,400,2.79594,17.3076
-42,624,2.79956,-17.3748,0.000913538,7.68314e-05,-1.73337e-05,0.000913897,7.64725e-05,-0.0207048,0.000585441,0.00920428,1182,400,2.7995,17.3748
-35,624,2.80603,-17.4503,0.000860121,-0.000559655,0.000331756,0.000933816,-0.00063335,0.218588,0.00091033,0.013641,1189,400,2.80602,17.4503
-28,624,2.81592,-17.5398,0.000771765,-0.00123327,0.000730659,0.00100977,-0.00147128,0.314905,0.00144067,0.0172909,1196,400,2.81588,17.5398
-21,624,2.81787,-17.6047,0.000715291,-0.00184674,0.00110712,0.00112741,-0.00225886,0.356356,0.00199111,0.0124517,1203,400,2.81783,17.6047
-14,624,2.78662,-17.6447,0.000920903,-0.00257715,0.00159364,0.00153805,-0.00319429,0.369473,0.00278744,0.0138375,1210,400,2.78658,17.6447
-7,624,2.80432,-17.6796,0.001666,-0.0028427,0.00216585,0.00253783,-0.00371453,0.38269,0.00363105,0.0179778,1217,400,2.80429,17.6796
0,624,2.83667,-17.7404,0.00254952,-0.00245296,0.0029504,0.00391624,-0.00381968,0.433801,0.00446645,0.018553,1224,400,2.83667,17.7404
7,624,2.85876,-17.7748,0.00356461,-0.00265638,0.00325355,0.00495531,-0.00404709,0.403937,0.00520635,0.015136,1231,400,2.85881,17.7748
14,624,2.875,-17.8368,0.0042627,-0.00306349,0.00300397,0.00533692,-0.00413771,0.343428,0.00548476,0.0122625,1238,400,2.87497,17.8368
21,624,2.87476,-17.8545,0.00472882,-0.00281123,0.00297082,0.00575867,-0.00384109,0.333694,0.00557916,0.0110205,1245,400,2.87476,17.8545
28,624,2.87134,-17.8651,0.00537533,-0.00254665,0.00278758,0.00625789,-0.00342922,0.306622,0.00567178,0.0102769,1252,400,2.87138,17.8651
35,624,2.86853,-17.877,0.00632978,-0.00211744,0.00211479,0.00682965,-0.00261731,0.232107,0.00563204,0.014433,1259,400,2.86855,17.877
42,624,2.91675,-17.8869,0.00680967,-0.00147837,0.00120655,0.00698175,-0.00165044,0.141661,0.00529115,0.017056,1266,400,2.91679,17.8869
49,624,2.92822,-17.88,0.00733072,-0.00069515,0.000333714,0.00734457,-0.000709002,0.0414843,0.00514901,0.0187627,1273,400,2.92823,17.88
56,624,2.94592,-17.9009,0.00760758,0.000376944,-0.000737745,0.00768208,0.000302439,-0.100649,0.00502361,0.0184563,1280,400,2.94588,17.9009
63,624,2.96985,-17.8911,0.00697726,0.00133612,-0.00190379,0.00755964,0.000753745,-0.296864,0.00480824,0.0142578,1287,400,2.96985,17.8911
70,624,2.95178,-17.882,0.0060149,0.00246885,-0.00287821,0.00762237,0.000861387,-0.509342,0.00482018,0.0128234,1294,400,2.95178,17.882
77,624,2.95227,-17.852,0.00489693,0.00381704,-0.00351107,0.00790933,0.000804649,-0.709104,0.00502619,0.0128603,1301,400,2.9523,17.852
84,624,2.97815,-17.8202,0.00389265,0.00469599,-0.00379687,0.00811238,0.000476261,-0.838097,0.0052567,0.0110536,1308,400,2.9782,17.8202
91,624,2.9906,-17.7778,0.00273839,0.00537515,-0.00382807,0.0081055,8.03638e-06,-0.951236,0.00540099,0.0116968,1315,400,2.99063,17.7778
98,624,3.00256,-17.7431,0.00107299,0.00534276,-0.00367316,0.00745638,-0.00104064,-1.04864,0.00535163,0.0123933,1322,400,3.00252,17.7431
105,624,3.00122,-17.7158,-0.000354364,0.00471191,-0.00323564,0.00628805,-0.00193051,-1.11751,0.00496233,0.0131376,1329,400,3.00118,17.7158
112,624,3.0083,-17.665,-0.00121417,0.00448382,-0.00230756,0.0053011,-0.00203145,-1.23041,0.0043715,0.013604,1336,400,3.00835,17.665
119,624,3.04041,-17.6171,-0.00165407,0.00398867,-0.00117397,0.00422317,-0.00188857,-1.37364,0.00361341,0.0137199,1343,400,3.04045,17.6171
126,624,3.06006,-17.5544,-0.00183925,0.00264099,-0.000632893,0.00272868,-0.00192693,-1.43312,0.00270118,0.0164144,1350,400,3.06012,17.5545
133,624,3.08179,-17.4563,-0.00203648,0.001243,-0.000122909,0.0012476,-0.00204108,-1.53339,0.00191706,0.0172084,1357,400,3.08184,17.4563
140,624,3.07104,-17.3675,-0.00227001,-0.000104287,0.000455348,-1.2444e-05,-0.00236186,1.37177,0.00157044,0.0172764,1364,400,3.07104,17.3675
147,624,3.05334,-17.2888,-0.00189846,-0.00141698,0.000843894,-0.000780156,-0.00253528,0.924344,0.00149939,0.0208159,1371,400,3.05335,17.2887
154,624,3.09985,-17.2107,-0.00149809,-0.0022111,0.000732613,-0.00103984,-0.00266934,0.558953,0.00155363,0.0221911,1378,400,3.09982,17.2107
161,624,3.11963,-17.1037,-0.00101181,-0.00280827,0.000710227,-0.000764949,-0.00305513,0.334522,0.00183569,0.0208624,1385,400,3.11967,17.1037
168,624,3.09998,-17.0043,-0.000235993,-0.00278133,0.000698188,-5.70583e-05,-0.00296026,0.250885,0.00195477,0.0215244,1392,400,3.09999,17.0043
175,624,3.09033,-16.9504,0.000149204,-0.00250752,0.000363019,0.000197914,-0.00255623,0.133385,0.00177381,0.0170954,1399,400,3.09028,16.9504
182,624,3.10547,-16.8284,0.000274866,-0.00214739,-1.77704e-05,0.000274997,-0.00214752,-0.00733578,0.0015316,0.0100602,1406,400,3.10552,16.8284
189,624,3.09973,-16.6958,-3.03014e-05,-0.00129253,-0.000304509,3.93206e-05,-0.00136215,-0.224773,0.000921487,0.00973336,1413,400,3.09973,16.6958
196,624,3.08752,-16.576,-0.000365941,-0.000664493,-0.000391309,-9.64025e-05,-0.000934032,-0.603179,0.000593171,0.0104405,1420,400,3.08758,16.5761
203,624,3.10278,-16.4401,-0.000306529,-3.22336e-05,-0.000320727,0.000179438,-0.000518201,-0.98744,0.000418311,0.0127408,1427,400,3.10274,16.4401
210,624,3.10986,-16.3195,-0.000292313,0.000468053,-0.000250107,0.000542944,-0.000367204,-1.27986,0.00052873,0.0166477,1434,400,3.10988,16.3195
217,624,3.06543,-16.1627,-0.000555118,0.000887382,-2.93635e-05,0.00088798,-0.000555716,-1.55045,0.000840844,0.0201557,1441,400,3.06538,16.1627
224,624,3.05188,-16.0017,-0.000513185,0.00116596,0.000262768,0.00120612,-0.000553345,1.41914,0.00103887,0.0165107,1448,400,3.05182,16.0017
231,624,3.08826,-15.889,-0.000373171,0.00142005,0.000644346,0.00162757,-0.000580685,1.25923,0.00132183,0.0126555,1455,400,3.08827,15.889
238,624,3.08765,-15.7269,-0.000210243,0.00178269,0.00109248,0.00226489,-0.000692443,1.15513,0.00178606,0.0177513,1462,400,3.08768,15.7269
245,624,3.06775,-15.5731,-5.06155e-05,0.00219776,0.00153778,0.00297845,-0.000831304,1.10103,0.00231308,0.0181546,1469,400,3.06774,15.5731
252,624,3.0741,-15.4081,0.000162851,0.00270104,0.00199254,0.00379432,-0.00093043,1.06896,0.00289005,0.0135449,1476,400,3.07404,15.4081
259,624,3.06189,-15.2353,0.00039692,0.00324918,0.00246565,0.00467143,-0.00102534,1.04759,0.0035064,0.00979939,1483,400,3.06183,15.2353
266,624,3.08496,-15.0427,0.000229977,0.003413,0.00301664,0.00523221,-0.00158923,1.02813,0.00412132,0.012888,1490,400,3.08494,15.0427
273,624,3.05505,-14.8562,-0.000433275,0.00327335,0.00343481,0.00532294,-0.00248287,1.0328,0.00460505,0.015516,1497,400,3.05502,14.8562
280,624,3.03833,-14.6903,-0.000797388,0.00315477,0.00395902,0.00560348,-0.0032461,1.01688,0.00516938,0.0137963,1504,400,3.03829,14.6903
287,624,3.02917,-14.4967,-0.00149528,0.00273696,0.00447003,0.00556646,-0.00432478,1.00647,0.00572569,0.0105037,1511,400,3.02915,14.4967
294,624,3.0072,-14.2951,-0.00231489,0.00217762,0.00491599,0.00533623,-0.0054735,0.999698,0.00624117,0.00940421,1518,400,3.00723,14.2951
301,624,2.99402,-14.0842,-0.00331437,0.00141726,0.0053776,0.00492645,-0.00682356,0.992626,0.00681328,0.0110229,1525,400,2.994,14.0842
308,624,3.00049,-13.8362,-0.00450682,0.000377843,0.00579765,0.00422659,-0.00835557,0.984749,0.00739355,0.0137477,1532,400,3.00053,13.8363
315,624,3.00684,-13.6169,-0.00577514,-0.0010131,0.00618227,0.00323081,-0.010019,0.969212,0.00797744,0.0148667,1539,400,3.00685,13.6169
322,624,3.02893,-13.4553,-0.00694014,-0.00220808,0.00649979,0.00234292,-0.0114911,0.959952,0.00854943,0.0233021,1546,400,3.0289,13.4553
329,624,3.22485,-13.3244,-0.0078689,-0.0030778,0.00678319,0.00172042,-0.0126671,0.955142,0.00907276,0.0403395,1553,400,3.22485,13.3244
336,624,3.40686,-13.0797,0,0,0,0,0,0,0,-1,1560,400,3.40682,13.0797
343,624,2.90979,-11.589,0,0,0,0,0,0,0,-1,1567,400,2.90974,11.589
350,624,1.99194,-7.29742,0,0,0,0,0,0,0,-1,1574,400,1.99198,7.29741
357,624,2.64075,-3.13092,0,0,0,0,0,0,0,-1,1581,400,2.64076,3.13091
364,624,3.16565,-4.9458,0,0,0,0,0,0,0,-1,1588,400,3.16564,4.94579
371,624,3.37561,-5.23529,0,0,0,0,0,0,0,-1,1595,400,3.37563,5.23529
378,624,1.50439,-5.22165,0,0,0,0,0,0,0,-1,1602,400,1.50438,5.22164
385,624,1.2301,-10.5866,0,0,0,0,0,0,0,-1,1609,400,1.2301,10.5866
392,624,4.26819,-5.14236,0,0,0,0,0,0,0,-1,1616,400,4.26818,5.14236
399,624,3.86841,-2.36917,0,0,0,0,0,0,0,-1,1623,400,3.86838,2.36916
406,624,4.35376,-2.6962,0,0,0,0,0,0,0,-1,1630,400,4.35373,2.69619
413,624,0,0,0,0,0,0,0,0,0,-1,1637,400,0,0
420,624,0,0,0,0,0,0,0,0,0,-1,1644,400,0,0
427,624,0,0,0,0,0,0,0,0,0,-1,1651,400,0,0
434,624,0,0,0,0,0,0,0,0,0,-1,1658,400,0,0
441,624,0,0,0,0,0,0,0,0,0,-1,1665,400,0,0
448,624,0,0,0,0,0,0,0,0,0,-1,1672,400,0,0
455,624,0,0,0,0,0,0,0,0,0,-1,1679,400,0,0
462,624,0,0,0,0,0,0,0,0,0,-1,1686,400,0,0
469,624,0,0,0,0,0,0,0,0,0,-1,1693,400,0,0
476,624,0,0,0,0,0,0,0,0,0,-1,1700,400,0,0
483,624,0,0,0,0,0,0,0,0,0,-1,1707,400,0,0
490,624,0,0,0,0,0,0,0,0,0,-1,1714,400,0,0
497,624,0,0,0,0,0,0,0,0,0,-1,1721,400,0,0
504,624,0,0,0,0,0,0,0,0,0,-1,1728,400,0,0
511,624,0,0,0,0,0,0,0,0,0,-1,1735,400,0,0
518,624,0,0,0,0,0,0,0,0,0,-1,1742,400,0,0
525,624,0,0,0,0,0,0,0,0,0,-1,1749,400,0,0
532,624,0,0,0,0,0,0,0,0,0,-1,1756,400,0,0
539,624,0,0,0,0,0,0,0,0,0,-1,1763,400,0,0
546,624,0,0,0,0,0,0,0,0,0,-1,1770,400,0,0
553,624,0,0,0,0,0,0,0,0,0,-1,1777,400,0,0
560,624,0,0,0,0,0,0,0,0,0,-1,1784,400,0,0
567,624,0,0,0,0,0,0,0,0,0,-1,1791,400,0,0
574,624,0,0,0,0,0,0,0,0,0,-1,1798,400,0,0
581,624,0,0,0,0,0,0,0,0,0,-1,1805,400,0,0
588,624,0,0,0,0,0,0,0,0,0,-1,1812,400,0,0
595,624,0,0,0,0,0,0,0,0,0,-1,1819,400,0,0
602,624,0,0,0,0,0,0,0,0,0,-1,1826,400,0,0
609,624,0,0,0,0,0,0,0,0,0,-1,1833,400,0,0
616,624,0,0,0,0,0,0,0,0,0,-1,1840,400,0,0
623,624,0,0,0,0,0,0,0,0,0,-1,1847,400,0,0
630,624,0,0,0,0,0,0,0,0,0,-1,1854,400,0,0
637,624,0,0,0,0,0,0,0,0,0,-1,1861,400,0,0
644,624,0,0,0,0,0,0,0,0,0,-1,1868,400,0,0
651,624,0,0,0,0,0,0,0,0,0,-1,1875,400,0,0
658,624,0,0,0,0,0,0,0,0,0,-1,1882,400,0,0
665,624,0,0,0,0,0,0,0,0,0,-1,1889,400,0,0
672,624,0,0,0,0,0,0,0,0,0,-1,1896,400,0,0
679,624,0,0,0,0,0,0,0,0,0,-1,1903,400,0,0
686,624,0,0,0,0,0,0,0,0,0,-1,1910,400,0,0
693,624,0,0,0,0,0,0,0,0,0,-1,1917,400,0,0
700,624,0,0,0,0,0,0,0,0,0,-1,1924,400,0,0
707,624,0,0,0,0,0,0,0,0,0,-1,1931,400,0,0
714,624,0,0,0,0,0,0,0,0,0,-1,1938,400,0,0
721,624,0,0,0,0,0,0,0,0,0,-1,1945,400,0,0
728,624,0,0,0,0,0,0,0,0,0,-1,1952,400,0,0
735,624,0,0,0,0,0,0,0,0,0,-1,1959,400,0,0
742,624,0,0,0,0,0,0,0,0,0,-1,1966,400,0,0
749,624,0,0,0,0,0,0,0,0,0,-1,1973,400,0,0
756,624,0,0,0,0,0,0,0,0,0,-1,1980,400,0,0
763,624,0,0,0,0,0,0,0,0,0,-1,1987,400,0,0
770,624,0,0,0,0,0,0,0,0,0,-1,1994,400,0,0
777,624,0,0,0,0,0,0,0,0,0,-1,2001,400,0,0
784,624,0,0,0,0,0,0,0,0,0,-1,2008,400,0,0
791,624,0,0,0,0,0,0,0,0,0,-1,2015,400,0,0
798,624,0,0,0,0,0,0,0,0,0,-1,2022,400,0,0
805,624,0,0,0,0,0,0,0,0,0,-1,2029,400,0,0
812,624,0,0,0,0,0,0,0,0,0,-1,2036,400,0,0
-700,617,0,0,0,0,0,0,0,0,0,-1,524,407,0,0
-693,617,0,0,0,0,0,0,0,0,0,-1,531,407,0,0
-686,617,0,0,0,0,0,0,0,0,0,-1,538,407,0,0
-679,617,0,0,0,0,0,0,0,0,0,-1,545,407,0,0
-672,617,0,0,0,0,0,0,0,0,0,-1,552,407,0,0
-665,617,0,0,0,0,0,0,0,0,0,-1,559,407,0,0
-658,617,0,0,0,0,0,0,0,0,0,-1,566,407,0,0
-651,617,0,0,0,0,0,0,0,0,0,-1,573,407,0,0
-644,617,0,0,0,0,0,0,0,0,0,-1,580,407,0,0
-637,617,0,0,0,0,0,0,0,0,0,-1,587,407,0,0
-630,617,0,0,0,0,0,0,0,0,0,-1,594,407,0,0
-623,617,0,0,0,0,0,0,0,0,0,-1,601,407,0,0
-616,617,0,0,0,0,0,0,0,0,0,-1,608,407,0,0
-609,617,0,0,0,0,0,0,0,0,0,-1,615,407,0,0
-602,617,0,0,0,0,0,0,0,0,0,-1,622,407,0,0
-595,617,0,0,0,0,0,0,0,0,0,-1,629,407,0,0
-588,617,0,0,0,0,0,0,0,0,0,-1,636,407,0,0
-581,617,0,0,0,0,0,0,0,0,0,-1,643,407,0,0
-574,617,0,0,0,0,0,0,0,0,0,-1,650,407,0,0
-567,617,0,0,0,0,0,0,0,0,0,-1,657,407,0,0
-560,617,0,0,0,0,0,0,0,0,0,-1,664,407,0,0
-553,617,0,0,0,0,0,0,0,0,0,-1,671,407,0,0
-546,617,0,0,0,0,0,0,0,0,0,-1,678,407,0,0
-539,617,0,0,0,0,0,0,0,0,0,-1,685,407,0,0
-532,617,0,0,0,0,0,0,0,0,0,-1,692,407,0,0
-525,617,0,0,0,0,0,0,0,0,0,-1,699,407,0,0
-518,617,0,0,0,0,0,0,0,0,0,-1,706,407,0,0
-511,617,0,0,0,0,0,0,0,0,0,-1,713,407,0,0
-504,617,0,0,0,0,0,0,0,0,0,-1,720,407,0,0
-497,617,0,0,0,0,0,0,0,0,0,-1,727,407,0,0
-490,617,0,0,0,0,0,0,0,0,0,-1,734,407,0,0
-483,617,0,0,0,0,0,0,0,0,0,-1,741,407,0,0
-476,617,0,0,0,0,0,0,0,0,0,-1,748,407,0,0
-469,617,0,0,0,0,0,0,0,0,0,-1,755,407,0,0
-462,617,0,0,0,0,0,0,0,0,0,-1,762,407,0,0
-455,617,0,0,0,0,0,0,0,0,0,-1,769,407,0,0
-448,617,0,0,0,0,0,0,0,0,0,-1,776,407,0,0
-441,617,0,0,0,0,0,0,0,0,0,-1,783,407,0,0
-434,617,0,0,0,0,0,0,0,0,0,-1,790,407,0,0
-427,617,0,0,0,0,0,0,0,0,0,-1,797,407,0,0
-420,617,0,0,0,0,0,0,0,0,0,-1,804,407,0,0
-413,617,0,0,0,0,0,0,0,0,0,-1,811,407,0,0
-406,617,0,0,0,0,0,0,0,0,0,-1,818,407,0,0
-399,617,0,0,0,0,0,0,0,0,0,-1,825,407,0,0
-392,617,0,0,0,0,0,0,0,0,0,-1,832,407,0,0
-385,617,0,0,0,0,0,0,0,0,0,-1,839,407,0,0
-378,617,0,0,0,0,0,0,0,0,0,-1,846,407,0,0
-371,617,0,0,0,0,0,0,0,0,0,-1,853,407,0,0
-364,617,0,0,0,0,0,0,0,0,0,-1,860,407,0,0
-357,617,0,0,0,0,0,0,0,0,0,-1,867,407,0,0
-350,617,0,0,0,0,0,0,0,0,0,-1,874,407,0,0
-343,617,0,0,0,0,0,0,0,0,0,-1,881,407,0,0
-336,617,0,0,0,0,0,0,0,0,0,-1,888,407,0,0
-329,617,0,0,0,0,0,0,0,0,0,-1,895,407,0,0
-322,617,0,0,0,0,0,0,0,0,0,-1,902,407,0,0
-315,617,0,0,0,0,0,0,0,0,0,-1,909,407,0,0
-308,617,0,0,0,0,0,0,0,0,0,-1,916,407,0,0
-301,617,3.0321,-13.8866,0,0,0,0,0,0,0,-1,923,407,3.03209,13.8866
-294,617,-0.867493,-11.1655,0,0,0,0,0,0,0,-1,930,407,-0.867487,11.1655
-287,617,-0.212524,-10.7744,0,0,0,0,0,0,0,-1,937,407,-0.212541,10.7743
-280,617,2.19739,-11.6377,0,0,0,0,0,0,0,-1,944,407,2.19737,11.6377
-273,617,2.36188,-10.5736,0,0,0,0,0,0,0,-1,951,407,2.36188,10.5736
-266,617,1.75769,-13.3046,0,0,0,0,0,0,0,-1,958,407,1.75769,13.3046
-259,617,2.63593,-11.2795,0,0,0,0,0,0,0,-1,965,407,2.63592,11.2795
-252,617,2.79358,-12.4539,0,0,0,0,0,0,0,-1,972,407,2.7936,12.4539
-245,617,2.73724,-13.3204,-0.00156218,0.00789361,0.00527826,0.0102518,-0.00392039,1.15062,0.00845014,0.0429996,979,407,2.73726,13.3204
-238,617,2.61951,-12.8369,-0.00153971,0.00962522,0.00430704,0.0110936,-0.00300809,1.24223,0.00857613,0.0450206,986,407,2.6195,12.8369
-231,617,2.68573,-13.1343,0,0,0,0,0,0,0,-1,993,407,2.68574,13.1343
-224,617,2.81342,-13.2159,-0.00159756,0.0101043,0.00216532,0.0104922,-0.00198537,1.39357,0.00774189,0.0448807,1000,407,2.81344,13.2159
-217,617,3.0835,-13.351,-0.00135064,0.00892047,0.00132397,0.00908839,-0.00151856,1.44464,0.00662339,0.037131,1007,407,3.08348,13.351
-210,617,2.88434,-13.9899,-0.00124989,0.00614071,0.000816618,0.00622986,-0.00133904,1.46205,0.00466411,0.0244202,1014,407,2.88436,13.9899
-203,617,2.84033,-14.1555,-0.00154738,0.00253164,0.000732506,0.0026592,-0.00167494,1.39839,0.00252373,0.0189993,1021,407,2.84032,14.1555
-196,617,2.81421,-14.309,-0.00210865,-0.000479091,0.000326554,-0.000416087,-0.00217165,1.3802,0.00133093,0.0149639,1028,407,2.81419,14.309
-189,617,2.77368,-14.5148,-0.00210974,-0.00270828,2.36338e-05,-0.00210881,-0.00270922,0.0394038,0.00164299,0.0124058,1035,407,2.77368,14.5148
-182,617,2.745,-14.7207,-0.00187812,-0.00524822,0.000143558,-0.00187202,-0.00525432,0.0424949,0.00307507,0.0132901,1042,407,2.74501,14.7207
-175,617,2.75793,-14.9187,-0.00182591,-0.00707118,0.000469516,-0.00178422,-0.00711288,0.088574,0.0042732,0.011646,1049,407,2.75798,14.9187
-168,617,2.74573,-15.1139,-0.00197427,-0.00843029,0.000694071,-0.0019005,-0.00850406,0.105895,0.00515403,0.00929254,1056,407,2.74574,15.1139
-161,617,2.71497,-15.3102,-0.00184606,-0.00922045,0.000871295,-0.00174451,-0.00932199,0.116023,0.00572249,0.0105595,1063,407,2.715,15.3102
-154,617,2.70203,-15.4628,-0.00151139,-0.00908867,0.00107041,-0.00136308,-0.00923698,0.137678,0.00575766,0.0104319,1070,407,2.70207,15.4628
-147,617,2.69775,-15.6139,-0.00123401,-0.00847184,0.00117912,-0.00104676,-0.00865909,0.157487,0.00545737,0.0140645,1077,407,2.6977,15.6139
-140,617,2.68396,-15.7979,-0.000892959,-0.00755261,0.00118513,-0.000688345,-0.00775722,0.170966,0.00495798,0.0116064,1084,407,2.684,15.7979
-133,617,2.66821,-15.9359,-0.000531585,-0.00615672,0.00114388,-0.000307871,-0.00638044,0.193136,0.00415481,0.0139728,1091,407,2.66822,15.9359
-126,617,2.67688,-16.0652,-0.000219614,-0.00465237,0.000988221,-9.28366e-06,-0.0048627,0.209708,0.00323871,0.0136251,1098,407,2.67685,16.0653
-119,617,2.67688,-16.2052,0.000113775,-0.0029698,0.000731205,0.000278378,-0.0031344,0.221421,0.0021883,0.0134172,1105,407,2.67685,16.2052
-112,617,2.66333,-16.3396,0.000406146,-0.00141686,0.000387207,0.00048498,-0.0014957,0.200851,0.00119214,0.0147444,1112,407,2.66329,16.3396
-105,617,2.67029,-16.4709,0.000675695,6.30749e-06,-2.8619e-05,0.000676916,5.08616e-06,-0.0426503,0.000449591,0.0147592,1119,407,2.67034,16.4708
-98,617,2.66467,-16.6066,0.000938812,0.00102934,-0.000438739,0.00142514,0.000543008,-0.8368,0.000830536,0.0117197,1126,407,2.66468,16.6066
-91,617,2.66272,-16.7369,0.00116729,0.00155767,-0.000733679,0.00212168,0.000603279,-0.915411,0.00126236,0.0167624,1133,407,2.66276,16.7369
-84,617,2.68408,-16.8608,0.00135129,0.00170804,-0.000868267,0.00241607,0.000643265,-0.886709,0.00144484,0.0166072,1140,407,2.68409,16.8608
-77,617,2.7179,-16.9377,0.00157413,0.00160187,-0.000891074,0.00247918,0.000696816,-0.793179,0.00147639,0.0133709,1147,407,2.71793,16.9376
-70,617,2.72034,-17.0453,0.00178781,0.00138991,-0.000777153,0.00239107,0.000786645,-0.66009,0.00140714,0.0140277,1154,407,2.72033,17.0453
-63,617,2.72461,-17.1347,0.00132111,0.00164494,-0.000981255,0.00247755,0.000488499,-0.867165,0.00151534,0.0141591,1161,407,2.72458,17.1347
-56,617,2.71497,-17.2262,0.000671906,0.00108872,-0.000398494,0.00133002,0.000430613,-1.02633,0.000783624,0.0113318,1168,407,2.71498,17.2262
-49,617,2.71484,-17.322,-3.89357e-05,0.000502837,3.56033e-05,0.000505167,-4.12654e-05,1.50545,0.000351342,0.0100936,1175,407,2.71486,17.322
-42,617,2.72595,-17.4108,-0.000610722,-0.000198699,0.000524627,0.000158915,-0.000968337,0.972489,0.000704529,0.0112721,1182,407,2.72599,17.4108
-35,617,2.74976,-17.4739,-0.00116425,-0.000987096,0.00110808,3.5945e-05,-0.00218729,0.825283,0.00147032,0.0155703,1189,407,2.74975,17.4739
-28,617,2.7489,-17.5336,-0.00159102,-0.00183686,0.00173332,2.37348e-05,-0.00345162,0.75,0.00230903,0.0178404,1196,407,2.74885,17.5336
-21,617,2.76318,-17.5857,-0.0018012,-0.00261763,0.00230631,0.000132744,-0.00455158,0.697805,0.00307959,0.0130089,1203,407,2.76314,17.5857
-14,617,2.73779,-17.6211,-0.00155093,-0.00349305,0.00300197,0.000633134,-0.00567711,0.628972,0.00401247,0.0143937,1210,407,2.7378,17.6211
-7,617,2.73206,-17.6561,-0.000437587,-0.00374983,0.00377261,0.0020264,-0.00621382,0.578569,0.00495803,0.0175443,1217,407,2.73204,17.6561
0,617,2.77747,-17.71,0.000960388,-0.00311701,0.0048134,0.00414904,-0.00630565,0.585079,0.00607867,0.0159436,1224,407,2.77751,17.7099
7,617,2.81372,-17.7871,0.00260804,-0.00329015,0.00520537,0.00564168,-0.00632378,0.527669,0.006912,0.0120963,1231,407,2.81374,17.7871
14,617,2.82532,-17.8374,0.00387136,-0.00371517,0.00486673,0.0062485,-0.00609231,0.454363,0.00712516,0.0139193,1238,407,2.82537,17.8374
21,617,2.83691,-17.8554,0.00482015,-0.00328616,0.00479844,0.00704817,-0.00551418,0.434699,0.00727088,0.0116161,1245,407,2.83689,17.8554
28,617,2.85303,-17.8712,0.00598472,-0.00284244,0.00453679,0.00790061,-0.00475832,0.399582,0.00738331,0.00994597,1252,407,2.85307,17.8712
35,617,2.84839,-17.8811,0.00764666,-0.00169111,0.00333776,0.00871703,-0.00276149,0.310326,0.00691808,0.0129869,1259,407,2.84836,17.8811
42,617,2.90149,-17.8691,0.0088331,-0.000300821,0.00186153,0.00919791,-0.000665636,0.193524,0.00636543,0.0198254,1266,407,2.90143,17.8691
49,617,2.91858,-17.8673,0.00992209,0.00138207,0.000358399,0.0099371,0.00136706,0.0418689,0.00621933,0.0206214,1273,407,2.91858,17.8673
56,617,2.91956,-17.8777,0.0104417,0.00348902,-0.00138609,0.0107079,0.00322288,-0.1897,0.00634335,0.0146477,1280,407,2.91952,17.8777
63,617,2.94934,-17.8845,0.00956695,0.00537383,-0.00314771,0.0112524,0.00368838,-0.491607,0.00662378,0.00959971,1287,407,2.94936,17.8845
70,617,2.95471,-17.8888,0.00819726,0.00734578,-0.00464018,0.0124312,0.00311185,-0.739651,0.00746946,0.0133158,1294,407,2.95466,17.8888
77,617,2.98499,-17.8552,0.0066741,0.00953049,-0.00572009,0.013998,0.0022066,-0.907737,0.00869034,0.0128853,1301,407,2.98499,17.8552
84,617,3.00867,-17.8107,0.00522713,0.0109728,-0.00626684,0.0149939,0.00120602,-1.00031,0.00961917,0.00960506,1308,407,3.00866,17.8107
91,617,3.03491,-17.7693,0.00341645,0.0117105,-0.00648166,0.0152583,-0.000131302,-1.06999,0.0102162,0.00917422,1315,407,3.03491,17.7693
98,617,3.06604,-17.7345,0.000791144,0.0112759,-0.00625215,0.0141927,-0.00212564,-1.13429,0.0102441,0.0107558,1322,407,3.06609,17.7345
105,617,3.07251,-17.7125,-0.00161239,0.00976394,-0.00559557,0.0120549,-0.0039033,-1.1822,0.00960576,0.011928,1329,407,3.07253,17.7125
112,617,3.07336,-17.67,-0.00314683,0.00882833,-0.00426429,0.0101916,-0.00451012,-1.26137,0.00869676,0.015767,1336,407,3.07336,17.67
119,617,3.10254,-17.6051,-0.00412618,0.00742028,-0.00264584,0.0079977,-0.0047036,-1.35593,0.00741485,0.0185039,1343,407,3.10252,17.6051
126,617,3.09387,-17.5431,-0.0047484,0.00484857,-0.00181545,0.00518051,-0.00508034,-1.38995,0.0059242,0.01973,1350,407,3.09385,17.5431
133,617,3.09351,-17.4529,-0.00531411,0.00219345,-0.0010231,0.00233038,-0.00545103,-1.43775,0.00461145,0.0175847,1357,407,3.09346,17.4529
140,617,3.14746,-17.3666,-0.00599692,-0.00058366,4.46911e-06,-0.000583656,-0.00599693,1.56997,0.0038183,0.0149375,1364,407,3.14744,17.3667
147,617,3.14221,-17.3029,-0.00570645,-0.0030235,0.000670694,-0.00286518,-0.00586477,1.33899,0.00338632,0.0179372,1371,407,3.1422,17.3029
154,617,3.17737,-17.2371,-0.00521059,-0.00458733,0.000599134,-0.00422362,-0.00557429,1.02521,0.00335778,0.0209272,1378,407,3.17735,17.2371
161,617,3.21021,-17.1236,-0.004402,-0.00576161,0.0006185,-0.00416274,-0.00600087,0.369107,0.0035502,0.0220072,1385,407,3.21017,17.1236
168,617,3.19617,-17.0378,-0.00288708,-0.00596365,0.000628886,-0.00276349,-0.00608724,0.194044,0.00351943,0.0201603,1392,407,3.19618,17.0378
175,617,3.18958,-16.9772,-0.00180819,-0.00568722,0.000190907,-0.00179881,-0.00569659,0.0490572,0.00336252,0.0175091,1399,407,3.18963,16.9772
182,617,3.22998,-16.8395,-0.00126307,-0.00531751,-0.000329847,-0.00123641,-0.00534417,-0.0806478,0.0032305,0.0108813,1406,407,3.23004,16.8395
189,617,3.22192,-16.7077,-0.00143793,-0.0038842,-0.000862004,-0.0011647,-0.00415743,-0.306954,0.00247643,0.00987533,1413,407,3.22196,16.7077
196,617,3.21741,-16.5904,-0.00166928,-0.00258328,-0.000964124,-0.00105933,-0.00319323,-0.564079,0.00187809,0.0136799,1420,407,3.2174,16.5904
203,617,3.2218,-16.4657,-0.00106785,-0.00110111,-0.00109241,8.0535e-06,-0.00217702,-0.777788,0.00145404,0.0143911,1427,407,3.22177,16.4657
210,617,3.2439,-16.3272,-0.000495873,9.86173e-05,-0.00125566,0.00109173,-0.00148899,-0.901621,0.00149585,0.0144866,1434,407,3.2439,16.3272
217,617,3.21021,-16.1463,-0.0010729,0.000807637,-0.00102516,0.00125843,-0.0015237,-1.15651,0.0016087,0.0186752,1441,407,3.21024,16.1463
224,617,3.21497,-16.0124,-0.00104085,0.00117754,-0.000674419,0.00136648,-0.00122979,-1.29765,0.00149965,0.0181382,1448,407,3.21501,16.0123
231,617,3.24939,-15.9128,-0.000891115,0.00151277,-0.000243367,0.00153716,-0.000915506,-1.47091,0.00143113,0.0142482,1455,407,3.24934,15.9128
238,617,3.25439,-15.7679,-0.000661031,0.0018892,0.000239024,0.00191141,-0.000683241,1.47815,0.00155295,0.0157405,1462,407,3.25437,15.7679
245,617,3.2511,-15.6189,-0.000405506,0.00226246,0.000700326,0.00243512,-0.000578164,1.32908,0.00184655,0.0136375,1469,407,3.25106,15.6189
252,617,3.22937,-15.4107,-0.000120818,0.00267477,0.00115092,0.00308762,-0.000533673,1.22638,0.00225743,0.0146264,1476,407,3.22939,15.4107
259,617,3.21765,-15.2289,0.000153626,0.00306963,0.00159826,0.003775,-0.000551749,1.15517,0.00271931,0.0121289,1483,407,3.2176,15.2289
266,617,3.22864,-15.049,0.000143256,0.00316646,0.0020804,0.00422643,-0.000916717,1.09957,0.00316772,0.0133827,1490,407,3.22866,15.049
273,617,3.2168,-14.8666,-0.000224143,0.00303392,0.00245163,0.00434839,-0.00153862,1.07864,0.00352555,0.0137363,1497,407,3.21683,14.8666
280,617,3.21838,-14.6871,-0.000357449,0.00290141,0.00295325,0.00464492,-0.00210096,1.03749,0.00398598,0.0121612,1504,407,3.21836,14.6871
287,617,3.21021,-14.4804,-0.000767972,0.00257472,0.0033631,0.00465888,-0.00285213,1.01601,0.00437811,0.0116284,1511,407,3.21019,14.4804
294,617,3.20239,-14.2981,-0.00129506,0.00213012,0.00371733,0.00451039,-0.00367533,1.00126,0.00473422,0.0101364,1518,407,3.20234,14.2981
301,617,3.18591,-14.1106,-0.00194813,0.00152773,0.00408401,0.00422821,-0.00464862,0.986564,0.00512696,0.00779561,1525,407,3.18588,14.1106
308,617,3.1604,-13.8946,-0.00270636,0.000795273,0.00443967,0.00381688,-0.00572796,0.973214,0.00554742,0.00754097,1532,407,3.16038,13.8946
315,617,3.14844,-13.6722,-0.00350195,-8.2152e-05,0.00477174,0.0032768,-0.0068609,0.95744,0.00597369,0.00891566,1539,407,3.14839,13.6722
322,617,3.15259,-13.4503,-0.00419769,-0.000731721,0.00504383,0.00286853,-0.00779795,0.950873,0.00637373,0.0118793,1546,407,3.15259,13.4503
329,617,3.16724,-13.2444,-0.00468914,-0.00110762,0.00529716,0.00269328,-0.00849004,0.948398,0.00673962,0.0122004,1553,407,3.16718,13.2445
336,617,3.18469,-13.0276,-0.0051787,-0.00110755,0.00547754,0.00270042,-0.00898667,0.963301,0.00706542,0.0242971,1560,407,3.18465,13.0276
343,617,3.25269,-12.7098,0,0,0,0,0,0,0,-1,1567,407,3.25264,12.7098
350,617,2.88098,-10.0063,0,0,0,0,0,0,0,-1,1574,407,2.88098,10.0063
357,617,2.1748,-7.16504,0,0,0,0,0,0,0,-1,1581,407,2.1748,7.16505
364,617,2.30127,-7.60257,0,0,0,0,0,0,0,-1,1588,407,2.30125,7.60258
371,617,2.60266,-6.20667,0,0,0,0,0,0,0,-1,1595,407,2.60261,6.20668
378,617,1.56921,-10.3601,0,0,0,0,0,0,0,-1,1602,407,1.56918,10.3601
385,617,1.74146,-10.3561,0,0,0,0,0,0,0,-1,1609,407,1.7414,10.3561
392,617,1.91357,-10.3521,0,0,0,0,0,0,0,-1,1616,407,1.91362,10.3521
399,617,3.25,-2.14835,0,0,0,0,0,0,0,-1,1623,407,3.25006,2.14836
406,617,3.02429,-3.19577,0,0,0,0,0,0,0,-1,1630,407,3.02431,3.19577
413,617,2.92786,-3.80649,0,0,0,0,0,0,0,-1,1637,407,2.92788,3.8065
420,617,3.42737,-4.47391,0,0,0,0,0,0,0,-1,1644,407,3.42737,4.47391
427,617,0,0,0,0,0,0,0,0,0,-1,1651,407,0,0
434,617,0,0,0,0,0,0,0,0,0,-1,1658,407,0,0
441,617,0,0,0,0,0,0,0,0,0,-1,1665,407,0,0
448,617,0,0,0,0,0,0,0,0,0,-1,1672,407,0,0
455,617,0,0,0,0,0,0,0,0,0,-1,1679,407,0,0
462,617,0,0,0,0,0,0,0,0,0,-1,1686,407,0,0
469,617,0,0,0,0,0,0,0,0,0,-1,1693,407,0,0
476,617,0,0,0,0,0,0,0,0,0,-1,1700,407,0,0
483,617,0,0,0,0,0,0,0,0,0,-1,1707,407,0,0
490,617,0,0,0,0,0,0,0,0,0,-1,1714,407,0,0
497,617,0,0,0,0,0,0,0,0,0,-1,1721,407,0,0
504,617,0,0,0,0,0,0,0,0,0,-1,1728,407,0,0
511,617,0,0,0,0,0,0,0,0,0,-1,1735,407,0,0
518,617,0,0,0,0,0,0,0,0,0,-1,1742,407,0,0
525,617,0,0,0,0,0,0,0,0,0,-1,1749,407,0,0
532,617,0,0,0,0,0,0,0,0,0,-1,1756,407,0,0
539,617,0,0,0,0,0,0,0,0,0,-1,1763,407,0,0
546,617,0,0,0,0,0,0,0,0,0,-1,1770,407,0,0
553,617,0,0,0,0,0,0,0,0,0,-1,1777,407,0,0
560,617,0,0,0,0,0,0,0,0,0,-1,1784,407,0,0
567,617,0,0,0,0,0,0,0,0,0,-1,1791,407,0,0
574,617,0,0,0,0,0,0,0,0,0,-1,1798,407,0,0
581,617,0,0,0,0,0,0,0,0,0,-1,1805,407,0,0
588,617,0,0,0,0,0,0,0,0,0,-1,1812,407,0,0
595,617,0,0,0,0,0,0,0,0,0,-1,1819,407,0,0
602,617,0,0,0,0,0,0,0,0,0,-1,1826,407,0,0
609,617,0,0,0,0,0,0,0,0,0,-1,1833,407,0,0
616,617,0,0,0,0,0,0,0,0,0,-1,1840,407,0,0
623,617,0,0,0,0,0,0,0,0,0,-1,1847,407,0,0
630,617,0,0,0,0,0,0,0,0,0,-1,1854,407,0,0
637,617,0,0,0,0,0,0,0,0,0,-1,1861,407,0,0
644,617,0,0,0,0,0,0,0,0,0,-1,1868,407,0,0
651,617,0,0,0,0,0,0,0,0,0,-1,1875,407,0,0
658,617,0,0,0,0,0,0,0,0,0,-1,1882,407,0,0
665,617,0,0,0,0,0,0,0,0,0,-1,1889,407,0,0
672,617,0,0,0,0,0,0,0,0,0,-1,1896,407,0,0
679,617,0,0,0,0,0,0,0,0,0,-1,1903,407,0,0
686,617,0,0,0,0,0,0,0,0,0,-1,1910,407,0,0
693,617,0,0,0,0,0,0,0,0,0,-1,1917,407,0,0
700,617,0,0,0,0,0,0,0,0,0,-1,1924,407,0,0
707,617,0,0,0,0,0,0,0,0,0,-1,1931,407,0,0
714,617,0,0,0,0,0,0,0,0,0,-1,1938,407,0,0
721,617,0,0,0,0,0,0,0,0,0,-1,1945,407,0,0
728,617,0,0,0,0,0,0,0,0,0,-1,1952,407,0,0
735,617,0,0,0,0,0,0,0,0,0,-1,1959,407,0,0
742,617,0,0,0,0,0,0,0,0,0,-1,1966,407,0,0
749,617,0,0,0,0,0,0,0,0,0,-1,1973,407,0,0
756,617,0,0,0,0,0,0,0,0,0,-1,1980,407,0,0
763,617,0,0,0,0,0,0,0,0,0,-1,1987,407,0,0
770,617,0,0,0,0,0,0,0,0,0,-1,1994,407,0,0
777,617,0,0,0,0,0,0,0,0,0,-1,2001,407,0,0
784,617,0,0,0,0,0,0,0,0,0,-1,2008,407,0,0
791,617,0,0,0,0,0,0,0,0,0,-1,2015,407,0,0
798,617,0,0,0,0,0,0,0,0,0,-1,2022,407,0,0
805,617,0,0,0,0,0,0,0,0,0,-1,2029,407,0,0
812,617,0,0,0,0,0,0,0,0,0,-1,2036,407,0,0
-700,610,0,0,0,0,0,0,0,0,0,-1,524,414,0,0
-693,610,0,0,0,0,0,0,0,0,0,-1,531,414,0,0
-686,610,0,0,0,0,0,0,0,0,0,-1,538,414,0,0
-679,610,0,0,0,0,0,0,0,0,0,-1,545,414,0,0
-672,610,0,0,0,0,0,0,0,0,0,-1,552,414,0,0
-665,610,0,0,0,0,0,0,0,0,0,-1,559,414,0,0
-658,610,0,0,0,0,0,0,0,0,0,-1,566,414,0,0
-651,610,0,0,0,0,0,0,0,0,0,-1,573,414,0,0
-644,610,0,0,0,0,0,0,0,0,0,-1,580,414,0,0
-637,610,0,0,0,0,0,0,0,0,0,-1,587,414,0,0
-630,610,0,0,0,0,0,0,0,0,0,-1,594,414,0,0
-623,610,0,0,0,0,0,0,0,0,0,-1,601,414,0,0
-616,610,0,0,0,0,0,0,0,0,0,-1,608,414,0,0
-609,610,0,0,0,0,0,0,0,0,0,-1,615,414,0,0
-602,610,0,0,0,0,0,0,0,0,0,-1,622,414,0,0
-595,610,0,0,0,0,0,0,0,0,0,-1,629,414,0,0
-588,610,0,0,0,0,0,0,0,0,0,-1,636,414,0,0
-581,610,0,0,0,0,0,0,0,0,0,-1,643,414,0,0
-574,610,0,0,0,0,0,0,0,0,0,-1,650,414,0,0
-567,610,0,0,0,0,0,0,0,0,0,-1,657,414,0,0
-560,610,0,0,0,0,0,0,0,0,0,-1,664,414,0,0
-553,610,0,0,0,0,0,0,0,0,0,-1,671,414,0,0
-546,610,0,0,0,0,0,0,0,0,0,-1,678,414,0,0
-539,610,0,0,0,0,0,0,0,0,0,-1,685,414,0,0
-532,610,0,0,0,0,0,0,0,0,0,-1,692,414,0,0
-525,610,0,0,0,0,0,0,0,0,0,-1,699,414,0,0
-518,610,0,0,0,0,0,0,0,0,0,-1,706,414,0,0
-511,610,0,0,0,0,0,0,0,0,0,-1,713,414,0,0
-504,610,0,0,0,0,0,0,0,0,0,-1,720,414,0,0
-497,610,0,0,0,0,0,0,0,0,0,-1,727,414,0,0
-490,610,0,0,0,0,0,0,0,0,0,-1,734,414,0,0
-483,610,0,0,0,0,0,0,0,0,0,-1,741,414,0,0
-476,610,0,0,0,0,0,0,0,0,0,-1,748,414,0,0
-469,610,0,0,0,0,0,0,0,0,0,-1,755,414,0,0
-462,610,0,0,0,0,0,0,0,0,0,-1,762,414,0,0
-455,610,0,0,0,0,0,0,0,0,0,-1,769,414,0,0
-448,610,0,0,0,0,0,0,0,0,0,-1,776,414,0,0
-441,610,0,0,0,0,0,0,0,0,0,-1,783,414,0,0
-434,610,0,0,0,0,0,0,0,0,0,-1,790,414,0,0
-427,610,0,0,0,0,0,0,0,0,0,-1,797,414,0,0
-420,610,0,0,0,0,0,0,0,0,0,-1,804,414,0,0
-413,610,0,0,0,0,0,0,0,0,0,-1,811,414,0,0
-406,610,0,0,0,0,0,0,0,0,0,-1,818,414,0,0
-399,610,0,0,0,0,0,0,0,0,0,-1,825,414,0,0
-392,610,0,0,0,0,0,0,0,0,0,-1,832,414,0,0
-385,610,0,0,0,0,0,0,0,0,0,-1,839,414,0,0
-378,610,0,0,0,0,0,0,0,0,0,-1,846,414,0,0
-371,610,0,0,0,0,0,0,0,0,0,-1,853,414,0,0
-364,610,0,0,0,0,0,0,0,0,0,-1,860,414,0,0
-357,610,0,0,0,0,0,0,0,0,0,-1,867,414,0,0
-350,610,0,0,0,0,0,0,0,0,0,-1,874,414,0,0
-343,610,0,0,0,0,0,0,0,0,0,-1,881,414,0,0
-336,610,0,0,0,0,0,0,0,0,0,-1,888,414,0,0
-329,610,0,0,0,0,0,0,0,0,0,-1,895,414,0,0
-322,610,0,0,0,0,0,0,0,0,0,-1,902,414,0,0
-315,610,1.74609,-13.6603,0,0,0,0,0,0,0,-1,909,414,1.74607,13.6603
-308,610,2.05853,-13.3974,0,0,0,0,0,0,0,-1,916,414,2.05856,13.3974
-301,610,2.2345,-13.0041,0,0,0,0,0,0,0,-1,923,414,2.2345,13.0041
-294,610,2.37964,-12.4347,0,0,0,0,0,0,0,-1,930,414,2.37964,12.4347
-287,610,2.08557,-11.9136,0,0,0,0,0,0,0,-1,937,414,2.08555,11.9136
-280,610,2.25854,-11.0924,0,0,0,0,0,0,0,-1,944,414,2.25856,11.0924
-273,610,0.750854,-12.2343,0,0,0,0,0,0,0,-1,951,414,0.750827,12.2343
-266,610,2.34662,-10.8821,0,0,0,0,0,0,0,-1,958,414,2.34665,10.8821
-259,610,2.59949,-12.2763,0,0,0,0,0,0,0,-1,965,414,2.59952,12.2763
-252,610,2.69952,-12.8814,0,0,0,0,0,0,0,-1,972,414,2.6995,12.8814
-245,610,2.70166,-13.0592,-0.00125542,0.00590978,0.00298541,0.00699062,-0.00233626,1.22344,0.00560392,0.0461181,979,414,2.70167,13.0592
-238,610,2.7702,-13.0165,-0.00135038,0.00734245,0.00246358,0.00799209,-0.00200002,1.31297,0.00610493,0.0401321,986,414,2.77021,13.0165
-231,610,2.53815,-13.156,-0.00151324,0.00862856,0.00188768,0.00896852,-0.00185319,1.39261,0.00668295,0.0334833,993,414,2.53814,13.156
-224,610,2.59161,-13.4782,-0.00142178,0.00827352,0.00115642,0.00840954,-0.0015578,1.45371,0.00619131,0.0250111,1000,414,2.59162,13.4782
-217,610,2.66302,-13.7408,-0.00118753,0.00763113,0.000633074,0.00767635,-0.00123275,1.4995,0.00557411,0.015587,1007,414,2.66301,13.7409
-210,610,2.65918,-13.9756,-0.00101969,0.00592533,0.000314606,0.00593955,-0.00103391,1.52562,0.00434553,0.0107127,1014,414,2.65919,13.9756
-203,610,2.62836,-14.1719,-0.00110318,0.00355559,0.000325391,0.00357821,-0.00112579,1.5014,0.00283622,0.0129388,1021,414,2.62834,14.1719
-196,610,2.61597,-14.3626,-0.00144339,0.00172671,5.64108e-05,0.00172771,-0.00144439,1.55301,0.00183385,0.0135032,1028,414,2.61602,14.3626
-189,610,2.61951,-14.5531,-0.00150976,0.000188616,-0.000266525,0.000229459,-0.00155061,-1.41874,0.0011181,0.010814,1035,414,2.61957,14.5531
-182,610,2.60901,-14.7453,-0.00143841,-0.0017583,-0.000266005,-0.00128796,-0.00190874,-0.514711,0.00112423,0.0113611,1042,414,2.609,14.7453
-175,610,2.59106,-14.9216,-0.00144284,-0.00323252,-1.70964e-05,-0.00144268,-0.00323269,-0.00955161,0.00186998,0.0113034,1049,414,2.5911,14.9216
-168,610,2.56445,-15.1173,-0.00164399,-0.00440346,0.000154564,-0.00163536,-0.00441209,0.0557797,0.00257558,0.0105712,1056,414,2.56445,15.1173
-161,610,2.54333,-15.3334,-0.00163434,-0.00517985,0.000294504,-0.00161004,-0.00520414,0.0823123,0.00307654,0.0112413,1063,414,2.54335,15.3334
-154,610,2.54626,-15.4843,-0.00142428,-0.00524002,0.000474043,-0.00136627,-0.00529803,0.121768,0.00317611,0.0136404,1070,414,2.54625,15.4843
-147,610,2.53149,-15.5882,-0.00122984,-0.00496612,0.000589886,-0.00113892,-0.00505703,0.152927,0.00306313,0.0152363,1077,414,2.53145,15.5882
-140,610,2.53076,-15.7758,-0.000939546,-0.00448462,0.000625813,-0.000832315,-0.00459185,0.169699,0.00282497,0.0120035,1084,414,2.53075,15.7758
-133,610,2.54053,-15.9305,-0.000582237,-0.00360602,0.000631831,-0.000455524,-0.00373274,0.197924,0.0023514,0.0128224,1091,414,2.54049,15.9305
-126,610,2.53748,-16.072,-0.000231208,-0.00265403,0.00055677,-0.000109387,-0.00277585,0.215406,0.0018152,0.0118669,1098,414,2.53747,16.072
-119,610,2.53064,-16.2213,0.00019078,-0.00154706,0.000364325,0.000264067,-0.00162035,0.19851,0.00117816,0.0105094,1105,414,2.53064,16.2212
-112,610,2.52722,-16.34,0.000624798,-0.000532758,0.000111855,0.000635507,-0.000543467,0.0954533,0.000681372,0.0180159,1112,414,2.52717,16.34
-105,610,2.53625,-16.4691,0.00105625,0.000338108,-0.000209011,0.00111265,0.000281706,-0.263573,0.000667969,0.0179567,1119,414,2.53621,16.4691
-98,610,2.56421,-16.6044,0.00146385,0.00089056,-0.00055689,0.00180354,0.000550873,-0.547719,0.00106723,0.0127759,1126,414,2.56421,16.6044
-91,610,2.56506,-16.7267,0.00182489,0.00120453,-0.000916153,0.00248195,0.000547477,-0.622171,0.00150569,0.0139488,1133,414,2.56503,16.7266
-84,610,2.57605,-16.8398,0.00224503,0.00125904,-0.00105312,0.00291483,0.000589229,-0.566485,0.00177963,0.0141551,1140,414,2.576,16.8398
-77,610,2.58203,-16.9301,0.00264917,0.00111039,-0.0010678,0.00319589,0.000563669,-0.473211,0.00196977,0.0110607,1147,414,2.58208,16.9301
-70,610,2.60986,-17.0587,0.0029816,0.00094907,-0.000896901,0.00332078,0.000609891,-0.361544,0.00204116,0.0134592,1154,414,2.60992,17.0587
-63,610,2.61963,-17.16,0.00175524,0.00175815,-0.00141171,0.0031684,0.00034499,-0.785914,0.00200718,0.0125265,1161,414,2.61965,17.16
-56,610,2.63855,-17.2271,0.000224353,0.00116239,-0.000409148,0.00131577,7.09731e-05,-1.21213,0.000854509,0.0108449,1168,414,2.6385,17.227
-49,610,2.65137,-17.3167,-0.00126957,0.000472262,0.000285693,0.000517925,-0.00131523,1.41231,0.00109123,0.0116405,1175,414,2.65142,17.3167
-42,610,2.65845,-17.4122,-0.00243111,-0.00030847,0.00105166,0.000124328,-0.00286391,1.18038,0.00195203,0.0152744,1182,414,2.65842,17.4122
-35,610,2.6571,-17.4709,-0.00344709,-0.00123848,0.00192719,-0.00012162,-0.00456395,1.04557,0.00300291,0.0146107,1189,414,2.65706,17.4709
-28,610,2.6676,-17.5358,-0.00415225,-0.00231744,0.00290041,-0.000192803,-0.00627689,0.93857,0.00412183,0.0124807,1196,414,2.66765,17.5358
-21,610,2.69275,-17.5851,-0.00440454,-0.00328569,0.00370175,-0.000101338,-0.0075889,0.860393,0.00502583,0.0107925,1203,414,2.69278,17.5852
-14,610,2.70471,-17.6276,-0.00401636,-0.00430028,0.00458301,0.000426887,-0.00874352,0.769916,0.0059764,0.0121862,1210,414,2.70468,17.6276
-7,610,2.72852,-17.6543,-0.0024956,-0.00448275,0.00551759,0.00211716,-0.00909551,0.696315,0.00687887,0.0140323,1217,414,2.7285,17.6543
0,610,2.75195,-17.7182,-0.000597618,-0.00353069,0.00679241,0.00488477,-0.00901309,0.679076,0.00814108,0.0109294,1224,414,2.75199,17.7182
7,610,2.7771,-17.7769,0.00164529,-0.00359686,0.00728854,0.00676972,-0.00872128,0.61279,0.00896736,0.0111367,1231,414,2.77713,17.7769
14,610,2.80444,-17.8053,0.00331344,-0.00390714,0.0069441,0.00752969,-0.0081234,0.545675,0.00903948,0.0134829,1238,414,2.80447,17.8053
21,610,2.81494,-17.8187,0.00453291,-0.00311499,0.00693412,0.00862759,-0.00720966,0.533413,0.00915584,0.0122483,1245,414,2.81499,17.8187
28,610,2.83435,-17.8434,0.00603159,-0.00235907,0.00666009,0.00970758,-0.00603506,0.504333,0.00917108,0.0116285,1252,414,2.8343,17.8434
35,610,2.89453,-17.8581,0.00826486,-0.00032612,0.0050042,0.0105643,-0.00262557,0.430729,0.00806186,0.0153906,1259,414,2.89452,17.8581
42,610,2.91248,-17.8429,0.00992671,0.00213337,0.00299273,0.0109433,0.00111674,0.327468,0.00695327,0.0148156,1266,414,2.91244,17.8429
49,610,2.90979,-17.8641,0.0114733,0.0048526,0.000934903,0.0116028,0.00472311,0.137625,0.00673733,0.015193,1273,414,2.90977,17.8641
56,610,2.94324,-17.8712,0.0123031,0.00813509,-0.00144563,0.0127554,0.00768277,-0.303234,0.00741557,0.0137029,1280,414,2.94327,17.8711
63,610,2.92944,-17.834,0.0112571,0.0110181,-0.00376447,0.014904,0.00737126,-0.769529,0.00860498,0.0153777,1287,414,2.92942,17.8341
70,610,2.97266,-17.8236,0.00956943,0.0138982,-0.00577027,0.0178967,0.005571,-0.964826,0.0105751,0.0214408,1294,414,2.97264,17.8236
77,610,3.11353,-17.7845,0.00769867,0.0171081,-0.00732864,0.0211122,0.00369458,-1.07075,0.0130192,0.0282645,1301,414,3.11349,17.7845
84,610,3.13367,-17.7465,0.00589904,0.0192454,-0.00820432,0.0231477,0.00199667,-1.12682,0.0148112,0.0273973,1308,414,3.13369,17.7465
91,610,3.11743,-17.7521,0.00360931,0.0201499,-0.00859403,0.0238067,-4.74593e-05,-1.1685,0.015887,0.0232454,1315,414,3.11746,17.7521
98,610,3.15503,-17.7315,3.45079e-06,0.0192281,-0.00834256,0.0223435,-0.00311195,-1.2134,0.016034,0.0223106,1322,414,3.15508,17.7315
105,610,3.15735,-17.6942,-0.00351536,0.0167124,-0.00751233,0.0191972,-0.00600011,-1.25137,0.0151982,0.0177374,1329,414,3.15732,17.6942
112,610,3.14832,-17.653,-0.00588749,0.0149326,-0.00575618,0.016418,-0.00737293,-1.31825,0.0140627,0.0123408,1336,414,3.14827,17.653
119,610,3.1145,-17.5963,-0.00757307,0.0125014,-0.00368001,0.0131548,-0.00822642,-1.39509,0.0124533,0.0175174,1343,414,3.11447,17.5963
126,610,3.07654,-17.5506,-0.00885689,0.00853019,-0.00254935,0.00889628,-0.00922297,-1.42817,0.0104617,0.0246657,1350,414,3.07656,17.5506
133,610,3.14905,-17.455,-0.0100926,0.00442822,-0.00138575,0.00455928,-0.0102237,-1.4765,0.00874129,0.0193825,1357,414,3.1491,17.455
140,610,3.23486,-17.3815,-0.0115624,-2.53461e-06,0.000150337,-5.80214e-07,-0.0115643,1.55779,0.00770935,0.0146389,1364,414,3.23485,17.3815
147,610,3.21411,-17.3015,-0.0116536,-0.00393617,0.00115037,-0.00376835,-0.0118214,1.42593,0.00697294,0.0156393,1371,414,3.21412,17.3015
154,610,3.22229,-17.2216,-0.0112479,-0.00644795,0.00108316,-0.00621484,-0.011481,1.35882,0.00663611,0.0219839,1378,414,3.2223,17.2216
161,610,3.29858,-17.1211,-0.0103116,-0.00839613,0.00107462,-0.0079144,-0.0107933,1.14937,0.00645362,0.0273268,1385,414,3.29854,17.1211
168,610,3.33569,-17.0243,-0.0082122,-0.00908184,0.000971214,-0.00758291,-0.00971113,0.574926,0.00589418,0.025823,1392,414,3.33571,17.0243
175,610,3.32605,-16.9324,-0.00642698,-0.00909924,0.000312447,-0.00639093,-0.00913528,0.114858,0.00541251,0.0210688,1399,414,3.326,16.9324
182,610,3.34155,-16.8242,-0.00517039,-0.00916274,-0.000427412,-0.00512515,-0.00920799,-0.105465,0.00532758,0.0146573,1406,414,3.3416,16.8242
189,610,3.35571,-16.6989,-0.00492363,-0.00710819,-0.00127197,-0.00433931,-0.0076925,-0.430628,0.00445342,0.0128992,1413,414,3.35575,16.6989
196,610,3.35559,-16.5912,-0.00489945,-0.00512531,-0.00147286,-0.0035352,-0.00648956,-0.747136,0.00375175,0.013434,1420,414,3.35557,16.5912
203,610,3.35144,-16.4721,-0.00294793,-0.00253732,-0.00189617,-0.000835372,-0.00464988,-0.839325,0.00286239,0.0144333,1427,414,3.35142,16.4721
210,610,3.35376,-16.3208,-0.000932688,-0.000360563,-0.00243929,0.00180938,-0.00310263,-0.843768,0.00286853,0.0113335,1434,414,3.35382,16.3208
217,610,3.35913,-16.143,-0.0019328,0.000696129,-0.00219507,0.00194021,-0.00317688,-1.05518,0.00298297,0.0160408,1441,414,3.35911,16.143
224,610,3.37036,-16.026,-0.00188092,0.00117988,-0.0017604,0.0019821,-0.00268314,-1.14321,0.0027036,0.0183165,1448,414,3.37037,16.026
231,610,3.39099,-15.9167,-0.00167284,0.00161867,-0.00124584,0.00203705,-0.00209121,-1.24681,0.00238352,0.0152115,1455,414,3.391,15.9167
238,610,3.40381,-15.7649,-0.00131798,0.00202817,-0.000687367,0.00216387,-0.00145367,-1.37589,0.00210196,0.0113201,1462,414,3.40382,15.7649
245,610,3.40601,-15.604,-0.000908699,0.00237568,-0.000171905,0.00238465,-0.000917672,-1.51865,0.00196831,0.0121609,1469,414,3.40606,15.604
252,610,3.39319,-15.4138,-0.000491672,0.00270173,0.000310496,0.00273164,-0.000521582,1.47476,0.00201755,0.014004,1476,414,3.39325,15.4138
259,610,3.39526,-15.2317,-0.000121836,0.00295079,0.000761716,0.00312925,-0.000300303,1.34065,0.00219313,0.012033,1483,414,3.39528,15.2317
266,610,3.39014,-15.0588,4.87369e-05,0.00298489,0.0012015,0.00341388,-0.000380253,1.22786,0.00241268,0.0114568,1490,414,3.39018,15.0588
273,610,3.39026,-14.88,-4.36354e-05,0.00285413,0.00154885,0.00352614,-0.000715645,1.16143,0.00262207,0.00950034,1497,414,3.39031,14.88
280,610,3.38892,-14.6693,4.67296e-05,0.00270235,0.00206133,0.00382651,-0.00107744,1.07152,0.00297589,0.00932622,1504,414,3.38889,14.6693
287,610,3.38318,-14.4602,-0.000135376,0.00244486,0.00239424,0.00387444,-0.00156496,1.03252,0.00323342,0.0125912,1511,414,3.38322,14.4602
294,610,3.38965,-14.2854,-0.000468471,0.00207288,0.00267367,0.00376246,-0.00215805,1.00723,0.00345979,0.0112686,1518,414,3.38962,14.2854
301,610,3.38538,-14.1285,-0.000910882,0.0015676,0.0029661,0.00354293,-0.00288622,0.983277,0.00371832,0.0105615,1525,414,3.38539,14.1285
308,610,3.36707,-13.9105,-0.00140971,0.00103785,0.00327265,0.00330805,-0.0036799,0.964319,0.0040364,0.0121726,1532,414,3.36709,13.9105
315,610,3.35242,-13.7206,-0.00193058,0.000484304,0.00356068,0.00303669,-0.00448297,0.948866,0.00436816,0.0139933,1539,414,3.35242,13.7206
322,610,3.34937,-13.5004,-0.00237773,0.000157933,0.00379987,0.0028959,-0.0051157,0.946416,0.00468431,0.013037,1546,414,3.34942,13.5004
329,610,3.33215,-13.2574,-0.00266117,5.37092e-05,0.0040317,0.00295035,-0.00555782,0.947783,0.0049885,0.0105933,1553,414,3.33212,13.2573
336,610,3.34973,-12.9893,-0.00294427,0.000236528,0.00420568,0.00314247,-0.00585022,0.966165,0.0052698,0.0103283,1560,414,3.34977,12.9894
343,610,3.35205,-12.744,-0.00304675,0.000593469,0.00434199,0.0034814,-0.00593468,0.983867,0.00549754,0.0230825,1567,414,3.35207,12.744
350,610,3.38037,-12.5034,0,0,0,0,0,0,0,-1,1574,414,3.3804,12.5034
357,610,3.38733,-12.0435,0,0,0,0,0,0,0,-1,1581,414,3.38732,12.0436
364,610,3.43469,-11.8568,0,0,0,0,0,0,0,-1,1588,414,3.43466,11.8568
371,610,3.33447,-11.4257,0,0,0,0,0,0,0,-1,1595,414,3.33447,11.4257
378,610,3.44189,-11.2237,0,0,0,0,0,0,0,-1,1602,414,3.4419,11.2237
385,610,2.57104,-10.3878,0,0,0,0,0,0,0,-1,1609,414,2.57109,10.3878
392,610,2.35229,-10.3207,0,0,0,0,0,0,0,-1,1616,414,2.35227,10.3207
399,610,3.03833,-2.82547,0,0,0,0,0,0,0,-1,1623,414,3.03827,2.82546
406,610,2.91687,-2.9166,0,0,0,0,0,0,0,-1,1630,414,2.91688,2.91659
413,610,3.01929,-3.20306,0,0,0,0,0,0,0,-1,1637,414,3.01929,3.20306
420,610,4.78149,-3.64041,0,0,0,0,0,0,0,-1,1644,414,4.78152,3.64042
427,610,5.20764,-4.67545,0,0,0,0,0,0,0,-1,1651,414,5.20759,4.67545
434,610,5.39233,-5.45441,0,0,0,0,0,0,0,-1,1658,414,5.39228,5.4544
441,610,0,0,0,0,0,0,0,0,0,-1,1665,414,0,0
448,610,0,0,0,0,0,0,0,0,0,-1,1672,414,0,0
455,610,0,0,0,0,0,0,0,0,0,-1,1679,414,0,0
462,610,0,0,0,0,0,0,0,0,0,-1,1686,414,0,0
469,610,0,0,0,0,0,0,0,0,0,-1,1693,414,0,0
476,610,0,0,0,0,0,0,0,0,0,-1,1700,414,0,0
483,610,0,0,0,0,0,0,0,0,0,-1,1707,414,0,0
490,610,0,0,0,0,0,0,0,0,0,-1,1714,414,0,0
497,610,0,0,0,0,0,0,0,0,0,-1,1721,414,0,0
504,610,0,0,0,0,0,0,0,0,0,-1,1728,414,0,0
511,610,0,0,0,0,0,0,0,0,0,-1,1735,414,0,0
518,610,0,0,0,0,0,0,0,0,0,-1,1742,414,0,0
525,610,0,0,0,0,0,0,0,0,0,-1,1749,414,0,0
532,610,0,0,0,0,0,0,0,0,0,-1,1756,414,0,0
539,610,0,0,0,0,0,0,0,0,0,-1,1763,414,0,0
546,610,0,0,0,0,0,0,0,0,0,-1,1770,414,0,0
553,610,0,0,0,0,0,0,0,0,0,-1,1777,414,0,0
560,610,0,0,0,0,0,0,0,0,0,-1,1784,414,0,0
567,610,0,0,0,0,0,0,0,0,0,-1,1791,414,0,0
574,610,0,0,0,0,0,0,0,0,0,-1,1798,414,0,0
581,610,0,0,0,0,0,0,0,0,0,-1,1805,414,0,0
588,610,0,0,0,0,0,0,0,0,0,-1,1812,414,0,0
595,610,0,0,0,0,0,0,0,0,0,-1,1819,414,0,0
602,610,0,0,0,0,0,0,0,0,0,-1,1826,414,0,0
609,610,0,0,0,0,0,0,0,0,0,-1,1833,414,0,0
616,610,0,0,0,0,0,0,0,0,0,-1,1840,414,0,0
623,610,0,0,0,0,0,0,0,0,0,-1,1847,414,0,0
630,610,0,0,0,0,0,0,0,0,0,-1,1854,414,0,0
637,610,0,0,0,0,0,0,0,0,0,-1,1861,414,0,0
644,610,0,0,0,0,0,0,0,0,0,-1,1868,414,0,0
651,610,0,0,0,0,0,0,0,0,0,-1,1875,414,0,0
658,610,0,0,0,0,0,0,0,0,0,-1,1882,414,0,0
665,610,0,0,0,0,0,0,0,0,0,-1,1889,414,0,0
672,610,0,0,0,0,0,0,0,0,0,-1,1896,414,0,0
679,610,0,0,0,0,0,0,0,0,0,-1,1903,414,0,0
686,610,0,0,0,0,0,0,0,0,0,-1,1910,414,0,0
693,610,0,0,0,0,0,0,0,0,0,-1,1917,414,0,0
700,610,0,0,0,0,0,0,0,0,0,-1,1924,414,0,0
707,610,0,0,0,0,0,0,0,0,0,-1,1931,414,0,0
714,610,0,0,0,0,0,0,0,0,0,-1,1938,414,0,0
721,610,0,0,0,0,0,0,0,0,0,-1,1945,414,0,0
728,610,0,0,0,0,0,0,0,0,0,-1,1952,414,0,0
735,610,0,0,0,0,0,0,0,0,0,-1,1959,414,0,0
742,610,0,0,0,0,0,0,0,0,0,-1,1966,414,0,0
749,610,0,0,0,0,0,0,0,0,0,-1,1973,414,0,0
756,610,0,0,0,0,0,0,0,0,0,-1,1980,414,0,0
763,610,0,0,0,0,0,0,0,0,0,-1,1987,414,0,0
770,610,0,0,0,0,0,0,0,0,0,-1,1994,414,0,0
777,610,0,0,0,0,0,0,0,0,0,-1,2001,414,0,0
784,610,0,0,0,0,0,0,0,0,0,-1,2008,414,0,0
791,610,0,0,0,0,0,0,0,0,0,-1,2015,414,0,0
798,610,0,0,0,0,0,0,0,0,0,-1,2022,414,0,0
805,610,0,0,0,0,0,0,0,0,0,-1,2029,414,0,0
812,610,0,0,0,0,0,0,0,0,0,-1,2036,414,0,0
-700,603,0,0,0,0,0,0,0,0,0,-1,524,421,0,0
-693,603,0,0,0,0,0,0,0,0,0,-1,531,421,0,0
-686,603,0,0,0,0,0,0,0,0,0,-1,538,421,0,0
-679,603,0,0,0,0,0,0,0,0,0,-1,545,421,0,0
-672,603,0,0,0,0,0,0,0,0,0,-1,552,421,0,0
-665,603,0,0,0,0,0,0,0,0,0,-1,559,421,0,0
-658,603,0,0,0,0,0,0,0,0,0,-1,566,421,0,0
-651,603,0,0,0,0,0,0,0,0,0,-1,573,421,0,0
-644,603,0,0,0,0,0,0,0,0,0,-1,580,421,0,0
-637,603,0,0,0,0,0,0,0,0,0,-1,587,421,0,0
-630,603,0,0,0,0,0,0,0,0,0,-1,594,421,0,0
-623,603,0,0,0,0,0,0,0,0,0,-1,601,421,0,0
-616,603,0,0,0,0,0,0,0,0,0,-1,608,421,0,0
-609,603,0,0,0,0,0,0,0,0,0,-1,615,421,0,0
-602,603,0,0,0,0,0,0,0,0,0,-1,622,421,0,0
-595,603,0,0,0,0,0,0,0,0,0,-1,629,421,0,0
-588,603,0,0,0,0,0,0,0,0,0,-1,636,421,0,0
-581,603,0,0,0,0,0,0,0,0,0,-1,643,421,0,0
-574,603,0,0,0,0,0,0,0,0,0,-1,650,421,0,0
-567,603,0,0,0,0,0,0,0,0,0,-1,657,421,0,0
-560,603,0,0,0,0,0,0,0,0,0,-1,664,421,0,0
-553,603,0,0,0,0,0,0,0,0,0,-1,671,421,0,0
-546,603,0,0,0,0,0,0,0,0,0,-1,678,421,0,0
-539,603,0,0,0,0,0,0,0,0,0,-1,685,421,0,0
-532,603,0,0,0,0,0,0,0,0,0,-1,692,421,0,0
-525,603,0,0,0,0,0,0,0,0,0,-1,699,421,0,0
-518,603,0,0,0,0,0,0,0,0,0,-1,706,421,0,0
-511,603,0,0,0,0,0,0,0,0,0,-1,713,421,0,0
-504,603,0,0,0,0,0,0,0,0,0,-1,720,421,0,0
-497,603,0,0,0,0,0,0,0,0,0,-1,727,421,0,0
-490,603,0,0,0,0,0,0,0,0,0,-1,734,421,0,0
-483,603,0,0,0,0,0,0,0,0,0,-1,741,421,0,0
-476,603,0,0,0,0,0,0,0,0,0,-1,748,421,0,0
-469,603,0,0,0,0,0,0,0,0,0,-1,755,421,0,0
-462,603,0,0,0,0,0,0,0,0,0,-1,762,421,0,0
-455,603,0,0,0,0,0,0,0,0,0,-1,769,421,0,0
-448,603,0,0,0,0,0,0,0,0,0,-1,776,421,0,0
-441,603,0,0,0,0,0,0,0,0,0,-1,783,421,0,0
-434,603,0,0,0,0,0,0,0,0,0,-1,790,421,0,0
-427,603,0,0,0,0,0,0,0,0,0,-1,797,421,0,0
-420,603,0,0,0,0,0,0,0,0,0,-1,804,421,0,0
-413,603,0,0,0,0,0,0,0,0,0,-1,811,421,0,0
-406,603,0,0,0,0,0,0,0,0,0,-1,818,421,0,0
-399,603,0,0,0,0,0,0,0,0,0,-1,825,421,0,0
-392,603,0,0,0,0,0,0,0,0,0,-1,832,421,0,0
-385,603,0,0,0,0,0,0,0,0,0,-1,839,421,0,0
-378,603,0,0,0,0,0,0,0,0,0,-1,846,421,0,0
-371,603,0,0,0,0,0,0,0,0,0,-1,853,421,0,0
-364,603,0,0,0,0,0,0,0,0,0,-1,860,421,0,0
-357,603,0,0,0,0,0,0,0,0,0,-1,867,421,0,0
-350,603,0,0,0,0,0,0,0,0,0,-1,874,421,0,0
-343,603,0,0,0,0,0,0,0,0,0,-1,881,421,0,0
-336,603,0,0,0,0,0,0,0,0,0,-1,888,421,0,0
-329,603,4.6095,-8.85309,0,0,0,0,0,0,0,-1,895,421,4.60952,8.8531
-322,603,0.71051,-13.0377,0,0,0,0,0,0,0,-1,902,421,0.710527,13.0377
-315,603,0.859131,-12.5952,0,0,0,0,0,0,0,-1,909,421,0.85915,12.5952
-308,603,1.1261,-12.3507,0,0,0,0,0,0,0,-1,916,421,1.12607,12.3507
-301,603,1.61816,-10.6029,0,0,0,0,0,0,0,-1,923,421,1.61814,10.6029
-294,603,1.34601,-10.8072,0,0,0,0,0,0,0,-1,930,421,1.34599,10.8072
-287,603,3.80811,-9.60947,0,0,0,0,0,0,0,-1,937,421,3.80809,9.60946
-280,603,2.37079,-10.1415,0,0,0,0,0,0,0,-1,944,421,2.37081,10.1416
-273,603,2.87085,-12.0951,0,0,0,0,0,0,0,-1,951,421,2.87085,12.0951
-266,603,2.79974,-11.6465,0,0,0,0,0,0,0,-1,958,421,2.79974,11.6465
-259,603,2.57556,-12.1938,-3.55315e-05,0.00147399,0.0010552,0.00201658,-0.00057812,1.09585,0.00157292,0.0496778,965,421,2.57554,12.1938
-252,603,2.51257,-12.7251,-0.000600226,0.00278224,0.0014383,0.00331114,-0.00112912,1.21842,0.00266477,0.044541,972,421,2.51257,12.7251
-245,603,2.49426,-12.9343,-0.000952635,0.00438034,0.00155055,0.00479839,-0.00137068,1.30745,0.00374049,0.032527,979,421,2.49424,12.9343
-238,603,2.52209,-13.0386,-0.00107745,0.00555495,0.00126504,0.00578805,-0.00131055,1.38858,0.00436168,0.0191217,986,421,2.52208,13.0386
-231,603,2.49365,-13.3098,-0.00125847,0.0066043,0.000900761,0.00670617,-0.00136034,1.45818,0.00498647,0.0125365,993,421,2.49367,13.3098
-224,603,2.4447,-13.5656,-0.00110124,0.00679382,0.000470686,0.00682178,-0.00112921,1.51146,0.00496722,0.0128336,1000,421,2.44472,13.5656
-217,603,2.44916,-13.7715,-0.000866406,0.00649129,0.000175845,0.00649549,-0.000870606,1.54692,0.00464779,0.0121179,1007,421,2.44914,13.7715
-210,603,2.45892,-13.9818,-0.000662854,0.00545816,9.18697e-06,0.00545817,-0.000662868,1.5693,0.00387866,0.0103166,1014,421,2.45893,13.9817
-203,603,2.44147,-14.1936,-0.000631373,0.00387707,0.000115789,0.00388005,-0.000634345,1.54514,0.00282201,0.0154517,1021,421,2.44144,14.1936
-196,603,2.44873,-14.406,-0.00074415,0.00279234,9.24317e-05,0.00279475,-0.000746564,1.54468,0.00215556,0.0166192,1028,421,2.44872,14.406
-189,603,2.43604,-14.5544,-0.000766912,0.00177712,-8.34022e-05,0.00177985,-0.000769644,-1.53806,0.00150998,0.0142054,1035,421,2.43602,14.5544
-182,603,2.42896,-14.763,-0.000716145,0.000375844,-2.47012e-05,0.000376403,-0.000716703,-1.54819,0.000641218,0.0108734,1042,421,2.42899,14.763
-175,603,2.40344,-14.9486,-0.00070429,-0.00076424,0.000236079,-0.000496291,-0.000972239,0.72225,0.000561363,0.0111298,1049,421,2.40348,14.9486
-168,603,2.37927,-15.1166,-0.000882808,-0.00170905,0.000421646,-0.000705629,-0.00188623,0.397805,0.00110046,0.0140837,1056,421,2.37927,15.1166
-161,603,2.36292,-15.3102,-0.000927075,-0.00239945,0.000570413,-0.00073195,-0.00259457,0.329599,0.00154466,0.0141474,1063,421,2.36296,15.3102
-154,603,2.37402,-15.4861,-0.000808329,-0.00257895,0.000744546,-0.000536866,-0.00285041,0.349623,0.001749,0.0125454,1070,421,2.37397,15.4862
-147,603,2.3645,-15.5981,-0.000691763,-0.00257439,0.00084506,-0.000368087,-0.00289806,0.365785,0.00182178,0.0139151,1077,421,2.36455,15.5981
-140,603,2.38916,-15.7509,-0.000487365,-0.00245609,0.000863745,-0.000162138,-0.00278132,0.360113,0.0018026,0.0116263,1084,421,2.38919,15.7508
-133,603,2.40039,-15.9194,-0.000210329,-0.00203441,0.000840234,0.000117715,-0.00236245,0.372221,0.00161564,0.0121491,1091,421,2.40036,15.9194
-126,603,2.39307,-16.0606,7.81778e-05,-0.00155925,0.000749697,0.000369571,-0.00185064,0.370711,0.00137363,0.0115323,1098,421,2.39301,16.0606
-119,603,2.40894,-16.2025,0.000486903,-0.000960607,0.000534039,0.000662603,-0.00113631,0.317847,0.00105054,0.0111685,1105,421,2.40895,16.2025
-112,603,2.40247,-16.3362,0.000959438,-0.000400134,0.000271193,0.00101154,-0.000452232,0.189795,0.000865427,0.0154198,1112,421,2.40243,16.3362
-105,603,2.41931,-16.492,0.0014694,4.23295e-05,-5.14128e-05,0.00147125,4.04796e-05,-0.0359646,0.000967625,0.0156733,1119,421,2.41936,16.492
-98,603,2.42517,-16.5929,0.00197436,0.00028798,-0.000419441,0.00207293,0.000189416,-0.230801,0.00132334,0.0130261,1126,421,2.42522,16.5929
-91,603,2.42969,-16.6925,0.00252586,0.000709675,-0.000873917,0.00287807,0.000357465,-0.383111,0.00181135,0.0090915,1133,421,2.42964,16.6925
-84,603,2.46326,-16.8315,0.00322849,0.000874426,-0.0010974,0.00366071,0.000442206,-0.3752,0.00230724,0.00898015,1140,421,2.46332,16.8315
-77,603,2.48462,-16.974,0.00384186,0.000747011,-0.00119717,0.0042509,0.000337973,-0.329235,0.00272826,0.0126765,1147,421,2.48457,16.974
-70,603,2.57422,-17.2397,0.00432853,0.000601167,-0.000965609,0.00456382,0.00036587,-0.239019,0.00292822,0.038337,1154,421,2.57423,17.2397
-63,603,2.68188,-17.5496,0,0,0,0,0,0,0,-1,1161,421,2.68193,17.5496
-56,603,2.52051,-17.2099,0,0,0,0,0,0,0,-1,1168,421,2.52054,17.2099
-49,603,2.60242,-17.2991,0,0,0,0,0,0,0,-1,1175,421,2.60236,17.2991
-42,603,2.60156,-17.384,0,0,0,0,0,0,0,-1,1182,421,2.60154,17.384
-35,603,2.49255,-17.4369,-0.00697372,-0.00168764,0.00194025,-0.00105192,-0.00760943,1.25417,0.00476121,0.0423523,1189,421,2.4926,17.4369
-28,603,2.50549,-17.4655,-0.007832,-0.00301435,0.00321674,-0.00140449,-0.00944186,1.10678,0.00588257,0.0247451,1196,421,2.50543,17.4655
-21,603,2.56909,-17.5405,-0.00798057,-0.00403031,0.00416313,-0.00139753,-0.0106133,1.00689,0.00665879,0.0197152,1203,421,2.56907,17.5405
-14,603,2.65576,-17.6002,-0.00741291,-0.00507969,0.00516627,-0.000949946,-0.0115427,0.896442,0.00739881,0.0202957,1210,421,2.65579,17.6002
-7,603,2.72412,-17.6404,-0.00555892,-0.005155,0.00623784,0.000884148,-0.0115981,0.801581,0.00804298,0.023259,1217,421,2.72409,17.6403
0,603,2.7395,-17.672,-0.00320687,-0.00395647,0.00774836,0.00417575,-0.0113391,0.761231,0.00927029,0.0268809,1224,421,2.73945,17.672
7,603,2.73132,-17.6595,-0.000375146,-0.00376698,0.00851488,0.00661106,-0.0107532,0.687099,0.0101199,0.0313698,1231,421,2.73129,17.6596
14,603,2.80762,-17.6327,0.00171469,-0.00376083,0.00839559,0.00780763,-0.00985378,0.627787,0.0102196,0.0285459,1238,421,2.80759,17.6327
21,603,2.84875,-17.6642,0.00319672,-0.00245646,0.00861447,0.00943648,-0.00869622,0.626872,0.0104718,0.0212638,1245,421,2.84881,17.6642
28,603,2.88379,-17.7161,0.00499108,-0.00122644,0.00848542,0.0109193,-0.00715464,0.609809,0.0105102,0.0236798,1252,421,2.88379,17.7161
35,603,2.87195,-17.722,0.00780723,0.00175169,0.0065358,0.0119825,-0.0024236,0.568485,0.00890681,0.032996,1259,421,2.87196,17.722
42,603,3.07227,-17.5154,0,0,0,0,0,0,0,-1,1266,421,3.07222,17.5154
49,603,2.95544,-17.8333,0.0120408,0.00965839,0.00143829,0.0127171,0.00898206,0.439548,0.00754767,0.0158097,1273,421,2.9555,17.8333
56,603,2.90637,-17.7608,0.0132865,0.0145064,-0.00155763,0.0155693,0.0122236,-0.972019,0.00946352,0.0295994,1280,421,2.90642,17.7608
63,603,2.92224,-17.578,0.0122356,0.0186918,-0.00452255,0.0210202,0.00990726,-1.09536,0.0121426,0.0387103,1287,421,2.92229,17.578
70,603,2.92651,-17.5682,0.010365,0.0227308,-0.00712086,0.0259784,0.00711737,-1.1429,0.0155011,0.0451564,1294,421,2.92653,17.5682
77,603,2.91406,-17.539,0,0,0,0,0,0,0,-1,1301,421,2.91403,17.539
84,603,3.36157,-17.6502,0.00623041,0.0304293,-0.0105046,0.034353,0.00230666,-1.21332,0.0221732,0.0470222,1308,421,3.36157,17.6502
91,603,3.3717,-17.5927,0.00357601,0.0317271,-0.0111629,0.0356163,-0.000313168,-1.23555,0.0238493,0.0452155,1315,421,3.37176,17.5927
98,603,3.39636,-17.6724,-0.000890388,0.0304811,-0.0109466,0.0339231,-0.00433236,-1.26615,0.0241892,0.0444887,1322,421,3.39632,17.6724
105,603,3.44727,-17.6016,-0.0054968,0.0270108,-0.00996846,0.0298241,-0.00831016,-1.29573,0.0231553,0.0392462,1329,421,3.44729,17.6016
112,603,3.36206,-17.5809,-0.00879409,0.0242652,-0.00771143,0.0259755,-0.0105044,-1.35254,0.0216839,0.0312841,1336,421,3.362,17.5809
119,603,3.23083,-17.5161,-0.0112488,0.0206447,-0.00511015,0.0214434,-0.0120476,-1.41574,0.0195881,0.0338349,1343,421,3.23081,17.5161
126,603,3.24292,-17.4609,-0.0132681,0.0150064,-0.00358405,0.0154536,-0.0137154,-1.44665,0.0168507,0.0419275,1350,421,3.24294,17.4609
133,603,3.34277,-17.3898,-0.0152818,0.009118,-0.00190895,0.00926644,-0.0154302,-1.49319,0.0144059,0.0352246,1357,421,3.34273,17.3898
140,603,3.38708,-17.3065,-0.0176129,0.00276633,0.00022035,0.00276871,-0.0176153,1.55999,0.0127669,0.021661,1364,421,3.38709,17.3065
147,603,3.32117,-17.2458,-0.0182491,-0.00312358,0.00168898,-0.00293727,-0.0184354,1.46094,0.0114376,0.0168109,1371,421,3.32121,17.2458
154,603,3.32019,-17.1708,-0.0179811,-0.006878,0.00165148,-0.00663757,-0.0182215,1.42622,0.0106486,0.0273819,1378,421,3.32015,17.1708
161,603,3.36768,-17.0745,-0.0170501,-0.00982889,0.00159411,-0.00949264,-0.0173863,1.36291,0.0100521,0.0316968,1385,421,3.36773,17.0745
168,603,3.4646,-16.9696,-0.0146235,-0.0112331,0.00134649,-0.0107635,-0.0150932,1.23517,0.00897409,0.0287629,1392,421,3.46461,16.9696
175,603,3.56641,-16.8906,-0.0123673,-0.011991,0.000426171,-0.0117133,-0.012645,0.993275,0.00813721,0.0308604,1399,421,3.56636,16.8906
182,603,3.6283,-16.7819,-0.0104307,-0.0130713,-0.000547917,-0.0103215,-0.0131805,-0.196681,0.00800601,0.0373148,1406,421,3.62832,16.7819
189,603,3.60559,-16.657,-0.00961151,-0.0109635,-0.00174077,-0.00842011,-0.0121549,-0.60019,0.00718934,0.0344893,1413,421,3.6056,16.657
196,603,3.52283,-16.4965,-0.00935672,-0.00821326,-0.00197071,-0.00673301,-0.010837,-0.926579,0.0063178,0.0258765,1420,421,3.52288,16.4965
203,603,3.49402,-16.4284,-0.0057852,-0.00434024,-0.00277347,-0.00219669,-0.00792874,-0.912815,0.00472691,0.0144875,1427,421,3.49401,16.4284
210,603,3.5083,-16.3325,-0.00170912,-0.000909326,-0.00384182,0.00255335,-0.0051718,-0.837257,0.00454472,0.0115013,1434,421,3.50836,16.3325
217,603,3.52136,-16.1813,-0.0032637,0.000563921,-0.00358039,0.0027099,-0.00540968,-1.03084,0.00477344,0.0129979,1441,421,3.5214,16.1813
224,603,3.52808,-16.0316,-0.003149,0.00119087,-0.0030304,0.00274812,-0.00470625,-1.09611,0.004353,0.0155501,1448,421,3.52813,16.0316
231,603,3.53308,-15.8949,-0.00281772,0.00176175,-0.0023907,0.00278235,-0.00383832,-1.16731,0.00383862,0.0139924,1455,421,3.53307,15.8949
238,603,3.55042,-15.7458,-0.00226084,0.00223157,-0.00170543,0.00280563,-0.0028349,-1.2461,0.00325658,0.0103909,1462,421,3.55047,15.7458
245,603,3.56042,-15.5962,-0.00162245,0.00257198,-0.00109112,0.00283884,-0.00188931,-1.33093,0.00274808,0.0109931,1469,421,3.56044,15.5962
252,603,3.56689,-15.4202,-0.00100152,0.0028245,-0.000536992,0.00289844,-0.00107546,-1.43397,0.00237344,0.0103634,1476,421,3.56694,15.4202
259,603,3.573,-15.2366,-0.000472545,0.0029409,-4.75025e-05,0.00294156,-0.000473206,-1.55688,0.00213632,0.00977496,1483,421,3.57295,15.2366
266,603,3.56165,-15.0666,-8.89052e-05,0.00291177,0.000381563,0.00295953,-0.000136664,1.44628,0.00202012,0.0108359,1490,421,3.56161,15.0666
273,603,3.55469,-14.8932,8.54138e-05,0.00276672,0.000726126,0.00295073,-9.86004e-05,1.3226,0.00200083,0.0102821,1497,421,3.55466,14.8932
280,603,3.56799,-14.6797,0.00041341,0.00256786,0.0012723,0.00315771,-0.000176443,1.13668,0.00216635,0.0111159,1504,421,3.56797,14.6798
287,603,3.5802,-14.4695,0.000429227,0.0023497,0.0015305,0.00319625,-0.000417328,1.06556,0.00228269,0.0108083,1511,421,3.58019,14.4694
294,603,3.57727,-14.2917,0.000228514,0.00200952,0.00173559,0.00306972,-0.000831688,1.02243,0.0023728,0.00929378,1518,421,3.57727,14.2917
301,603,3.56812,-14.1078,-8.89041e-05,0.00154619,0.00195955,0.0028519,-0.00139461,0.983025,0.00249938,0.0108951,1525,421,3.56814,14.1077
308,603,3.56921,-13.9131,-0.000435184,0.00114007,0.00222331,0.00271114,-0.00200626,0.95563,0.00273371,0.0164239,1532,421,3.56925,13.913
315,603,3.56592,-13.718,-0.000799763,0.000781823,0.00247679,0.002591,-0.00260894,0.939924,0.00300219,0.0162541,1539,421,3.56595,13.718
322,603,3.55383,-13.5057,-0.00112886,0.000633834,0.0027059,0.0025983,-0.00309333,0.942836,0.0032902,0.014982,1546,421,3.55383,13.5057
329,603,3.52771,-13.2481,-0.00133573,0.000667919,0.00294736,0.00277906,-0.00344687,0.949225,0.00360143,0.010487,1553,421,3.52769,13.2481
336,603,3.53186,-13.0035,-0.0015418,0.000922532,0.00315037,0.00307312,-0.00369239,0.971811,0.00391152,0.00859137,1560,421,3.53181,13.0035
343,603,3.54211,-12.7814,-0.00164358,0.00130965,0.00332024,0.00346682,-0.00380075,0.99463,0.00419741,0.0103783,1567,421,3.54214,12.7814
350,603,3.52161,-12.5556,-0.00162897,0.00211998,0.00354703,0.00425737,-0.00376636,1.02848,0.00463539,0.0217801,1574,421,3.52166,12.5556
357,603,3.52808,-12.2434,-0.00160068,0.00312362,0.00376451,0.00520572,-0.00368278,1.06559,0.00515682,0.0298415,1581,421,3.52803,12.2434
364,603,3.49084,-11.9491,-0.00163858,0.00438608,0.00389221,0.00629547,-0.00354798,1.11472,0.00575644,0.0337303,1588,421,3.49088,11.9491
371,603,3.4613,-11.6609,-0.00112592,0.00636875,0.00387156,0.0080095,-0.00276667,1.16995,0.00646241,0.0400283,1595,421,3.46125,11.6609
378,603,3.53125,-11.4903,-0.000201081,0.00878269,0.00405748,0.0103439,-0.00176231,1.20348,0.00755224,0.0468515,1602,421,3.53125,11.4903
385,603,3.552,-11.4124,0,0,0,0,0,0,0,-1,1609,421,3.55201,11.4124
392,603,3.40344,-11.0361,0,0,0,0,0,0,0,-1,1616,421,3.4034,11.0361
399,603,2.38013,-5.37076,0,0,0,0,0,0,0,-1,1623,421,2.38016,5.37075
406,603,3.01917,-2.37219,0,0,0,0,0,0,0,-1,1630,421,3.01915,2.37219
413,603,2.38928,-2.41275,0,0,0,0,0,0,0,-1,1637,421,2.38926,2.41274
420,603,2.74866,-2.30066,0,0,0,0,0,0,0,-1,1644,421,2.74867,2.30065
427,603,7.11548,-3.35352,0,0,0,0,0,0,0,-1,1651,421,7.11549,3.35351
434,603,7.32153,-4.50525,0,0,0,0,0,0,0,-1,1658,421,7.32149,4.50525
441,603,3.18213,-0.250946,0,0,0,0,0,0,0,-1,1665,421,3.18212,0.250944
448,603,2.95667,-0.066925,0,0,0,0,0,0,0,-1,1672,421,2.95662,0.0669226
455,603,0,0,0,0,0,0,0,0,0,-1,1679,421,0,0
462,603,0,0,0,0,0,0,0,0,0,-1,1686,421,0,0
469,603,0,0,0,0,0,0,0,0,0,-1,1693,421,0,0
476,603,0,0,0,0,0,0,0,0,0,-1,1700,421,0,0
483,603,0,0,0,0,0,0,0,0,0,-1,1707,421,0,0
490,603,0,0,0,0,0,0,0,0,0,-1,1714,421,0,0
497,603,0,0,0,0,0,0,0,0,0,-1,1721,421,0,0
504,603,0,0,0,0,0,0,0,0,0,-1,1728,421,0,0
511,603,0,0,0,0,0,0,0,0,0,-1,1735,421,0,0
518,603,0,0,0,0,0,0,0,0,0,-1,1742,421,0,0
525,603,0,0,0,0,0,0,0,0,0,-1,1749,421,0,0
532,603,0,0,0,0,0,0,0,0,0,-1,1756,421,0,0
539,603,0,0,0,0,0,0,0,0,0,-1,1763,421,0,0
546,603,0,0,0,0,0,0,0,0,0,-1,1770,421,0,0
553,603,0,0,0,0,0,0,0,0,0,-1,1777,421,0,0
560,603,0,0,0,0,0,0,0,0,0,-1,1784,421,0,0
567,603,0,0,0,0,0,0,0,0,0,-1,1791,421,0,0
574,603,0,0,0,0,0,0,0,0,0,-1,1798,421,0,0
581,603,0,0,0,0,0,0,0,0,0,-1,1805,421,0,0
588,603,0,0,0,0,0,0,0,0,0,-1,1812,421,0,0
595,603,0,0,0,0,0,0,0,0,0,-1,1819,421,0,0
602,603,0,0,0,0,0,0,0,0,0,-1,1826,421,0,0
609,603,0,0,0,0,0,0,0,0,0,-1,1833,421,0,0
616,603,0,0,0,0,0,0,0,0,0,-1,1840,421,0,0
623,603,0,0,0,0,0,0,0,0,0,-1,1847,421,0,0
630,603,0,0,0,0,0,0,0,0,0,-1,1854,421,0,0
637,603,0,0,0,0,0,0,0,0,0,-1,1861,421,0,0
644,603,0,0,0,0,0,0,0,0,0,-1,1868,421,0,0
651,603,0,0,0,0,0,0,0,0,0,-1,1875,421,0,0
658,603,0,0,0,0,0,0,0,0,0,-1,1882,421,0,0
665,603,0,0,0,0,0,0,0,0,0,-1,1889,421,0,0
672,603,0,0,0,0,0,0,0,0,0,-1,1896,421,0,0
679,603,0,0,0,0,0,0,0,0,0,-1,1903,421,0,0
686,603,0,0,0,0,0,0,0,0,0,-1,1910,421,0,0
693,603,0,0,0,0,0,0,0,0,0,-1,1917,421,0,0
700,603,0,0,0,0,0,0,0,0,0,-1,1924,421,0,0
707,603,0,0,0,0,0,0,0,0,0,-1,1931,421,0,0
714,603,0,0,0,0,0,0,0,0,0,-1,1938,421,0,0
721,603,0,0,0,0,0,0,0,0,0,-1,1945,421,0,0
728,603,0,0,0,0,0,0,0,0,0,-1,1952,421,0,0
735,603,0,0,0,0,0,0,0,0,0,-1,1959,421,0,0
742,603,0,0,0,0,0,0,0,0,0,-1,1966,421,0,0
749,603,0,0,0,0,0,0,0,0,0,-1,1973,421,0,0
756,603,0,0,0,0,0,0,0,0,0,-1,1980,421,0,0
763,603,0,0,0,0,0,0,0,0,0,-1,1987,421,0,0
770,603,0,0,0,0,0,0,0,0,0,-1,1994,421,0,0
777,603,0,0,0,0,0,0,0,0,0,-1,2001,421,0,0
784,603,0,0,0,0,0,0,0,0,0,-1,2008,421,0,0
791,603,0,0,0,0,0,0,0,0,0,-1,2015,421,0,0
798,603,0,0,0,0,0,0,0,0,0,-1,2022,421,0,0
805,603,0,0,0,0,0,0,0,0,0,-1,2029,421,0,0
812,603,0,0,0,0,0,0,0,0,0,-1,2036,421,0,0
-700,596,0,0,0,0,0,0,0,0,0,-1,524,428,0,0
-693,596,0,0,0,0,0,0,0,0,0,-1,531,428,0,0
-686,596,0,0,0,0,0,0,0,0,0,-1,538,428,0,0
-679,596,0,0,0,0,0,0,0,0,0,-1,545,428,0,0
-672,596,0,0,0,0,0,0,0,0,0,-1,552,428,0,0
-665,596,0,0,0,0,0,0,0,0,0,-1,559,428,0,0
-658,596,0,0,0,0,0,0,0,0,0,-1,566,428,0,0
-651,596,0,0,0,0,0,0,0,0,0,-1,573,428,0,0
-644,596,0,0,0,0,0,0,0,0,0,-1,580,428,0,0
-637,596,0,0,0,0,0,0,0,0,0,-1,587,428,0,0
-630,596,0,0,0,0,0,0,0,0,0,-1,594,428,0,0
-623,596,0,0,0,0,0,0,0,0,0,-1,601,428,0,0
-616,596,0,0,0,0,0,0,0,0,0,-1,608,428,0,0
-609,596,0,0,0,0,0,0,0,0,0,-1,615,428,0,0
-602,596,0,0,0,0,0,0,0,0,0,-1,622,428,0,0
-595,596,0,0,0,0,0,0,0,0,0,-1,629,428,0,0
-588,596,0,0,0,0,0,0,0,0,0,-1,636,428,0,0
-581,596,0,0,0,0,0,0,0,0,0,-1,643,428,0,0
-574,596,0,0,0,0,0,0,0,0,0,-1,650,428,0,0
-567,596,0,0,0,0,0,0,0,0,0,-1,657,428,0,0
-560,596,0,0,0,0,0,0,0,0,0,-1,664,428,0,0
-553,596,0,0,0,0,0,0,0,0,0,-1,671,428,0,0
-546,596,0,0,0,0,0,0,0,0,0,-1,678,428,0,0
-539,596,0,0,0,0,0,0,0,0,0,-1,685,428,0,0
-532,596,0,0,0,0,0,0,0,0,0,-1,692,428,0,0
-525,596,0,0,0,0,0,0,0,0,0,-1,699,428,0,0
-518,596,0,0,0,0,0,0,0,0,0,-1,706,428,0,0
-511,596,0,0,0,0,0,0,0,0,0,-1,713,428,0,0
-504,596,0,0,0,0,0,0,0,0,0,-1,720,428,0,0
-497,596,0,0,0,0,0,0,0,0,0,-1,727,428,0,0
-490,596,0,0,0,0,0,0,0,0,0,-1,734,428,0,0
-483,596,0,0,0,0,0,0,0,0,0,-1,741,428,0,0
-476,596,0,0,0,0,0,0,0,0,0,-1,748,428,0,0
-469,596,0,0,0,0,0,0,0,0,0,-1,755,428,0,0
-462,596,0,0,0,0,0,0,0,0,0,-1,762,428,0,0
-455,596,0,0,0,0,0,0,0,0,0,-1,769,428,0,0
-448,596,0,0,0,0,0,0,0,0,0,-1,776,428,0,0
-441,596,0,0,0,0,0,0,0,0,0,-1,783,428,0,0
-434,596,0,0,0,0,0,0,0,0,0,-1,790,428,0,0
-427,596,0,0,0,0,0,0,0,0,0,-1,797,428,0,0
-420,596,0,0,0,0,0,0,0,0,0,-1,804,428,0,0
-413,596,0,0,0,0,0,0,0,0,0,-1,811,428,0,0
-406,596,0,0,0,0,0,0,0,0,0,-1,818,428,0,0
-399,596,0,0,0,0,0,0,0,0,0,-1,825,428,0,0
-392,596,0,0,0,0,0,0,0,0,0,-1,832,428,0,0
-385,596,0,0,0,0,0,0,0,0,0,-1,839,428,0,0
-378,596,0,0,0,0,0,0,0,0,0,-1,846,428,0,0
-371,596,0,0,0,0,0,0,0,0,0,-1,853,428,0,0
-364,596,0,0,0,0,0,0,0,0,0,-1,860,428,0,0
-357,596,0,0,0,0,0,0,0,0,0,-1,867,428,0,0
-350,596,0,0,0,0,0,0,0,0,0,-1,874,428,0,0
-343,596,0,0,0,0,0,0,0,0,0,-1,881,428,0,0
-336,596,-2.27789,-15.8111,0,0,0,0,0,0,0,-1,888,428,-2.27789,15.8111
-329,596,-0.936462,-13.5532,0,0,0,0,0,0,0,-1,895,428,-0.936434,13.5532
-322,596,-0.406311,-12.5136,0,0,0,0,0,0,0,-1,902,428,-0.406284,12.5136
-315,596,3.67957,-9.47427,0,0,0,0,0,0,0,-1,909,428,3.67957,9.47429
-308,596,1.21112,-9.53857,0,0,0,0,0,0,0,-1,916,428,1.2111,9.53857
-301,596,1.93604,-11.1467,0,0,0,0,0,0,0,-1,923,428,1.93602,11.1467
-294,596,1.34821,-10.6815,0,0,0,0,0,0,0,-1,930,428,1.34819,10.6815
-287,596,1.80438,-11.9887,0,0,0,0,0,0,0,-1,937,428,1.80439,11.9887
-280,596,2.41083,-11.6139,0,0,0,0,0,0,0,-1,944,428,2.4108,11.6138
-273,596,2.55695,-12.0332,0.0030965,-0.00156458,-0.000533236,0.00315673,-0.0016248,-0.112466,0.00280745,0.0480319,951,428,2.55694,12.0332
-266,596,2.55414,-12.2564,0.00119265,-5.82191e-05,-0.000228292,0.00123302,-9.85814e-05,-0.174993,0.000856764,0.0378829,958,428,2.55415,12.2564
-259,596,2.33136,-12.3478,0.000134944,0.00100006,6.32744e-05,0.00100467,0.000130341,1.49817,0.000630836,0.0328499,965,428,2.33135,12.3478
-252,596,2.30237,-12.6559,-0.000311664,0.0019327,0.000454536,0.00202126,-0.000400224,1.37837,0.00149883,0.0170448,972,428,2.30238,12.6559
-245,596,2.28809,-12.909,-0.000621351,0.00307431,0.000636822,0.00318096,-0.000728007,1.40485,0.0024004,0.0124026,979,428,2.2881,12.909
-238,596,2.29718,-13.1289,-0.000748896,0.00398111,0.000541999,0.00404242,-0.000810207,1.45815,0.00300169,0.0102827,986,428,2.29716,13.1289
-231,596,2.28082,-13.338,-0.000932975,0.00473399,0.000391976,0.00476097,-0.000959959,1.50206,0.00353765,0.0111556,993,428,2.2808,13.3381
-224,596,2.25995,-13.5725,-0.00081894,0.00479125,0.000200106,0.00479838,-0.000826068,1.53519,0.00350686,0.0126098,1000,428,2.25994,13.5725
-217,596,2.26526,-13.7997,-0.000624538,0.00456564,0.000103725,0.00456771,-0.00062661,1.55082,0.00327406,0.0140948,1007,428,2.26528,13.7996
-210,596,2.27185,-14.0075,-0.000426306,0.00396157,8.78671e-05,0.00396333,-0.000428065,1.55078,0.00279586,0.011544,1014,428,2.27183,14.0075
-203,596,2.24213,-14.1981,-0.000341361,0.00304366,0.000295667,0.00306929,-0.000366992,1.48432,0.00217885,0.0136355,1021,428,2.24215,14.1981
-196,596,2.25134,-14.3901,-0.000414404,0.00230901,0.000415743,0.00237106,-0.000476456,1.42264,0.00176114,0.013991,1028,428,2.2514,14.3901
-189,596,2.2345,-14.5666,-0.000517594,0.0016767,0.000382839,0.00174158,-0.000582469,1.40293,0.00139631,0.0116227,1035,428,2.23454,14.5666
-182,596,2.22424,-14.7562,-0.000556868,0.000791794,0.000521972,0.00097021,-0.000735284,1.24144,0.000987777,0.0113586,1042,428,2.22426,14.7562
-175,596,2.23206,-14.9434,-0.000589177,-6.09281e-06,0.000771871,0.00052746,-0.00112273,0.96597,0.000973181,0.0140984,1049,428,2.23202,14.9434
-168,596,2.23242,-15.1075,-0.000785143,-0.000705149,0.00095564,0.00021133,-0.00170162,0.806313,0.00121102,0.0170078,1056,428,2.2324,15.1075
-161,596,2.22266,-15.2888,-0.000902571,-0.00126837,0.0011053,3.4863e-05,-0.0022058,0.703405,0.00148229,0.0151401,1063,428,2.2226,15.2888
-154,596,2.21179,-15.4795,-0.000859776,-0.00149324,0.0012788,0.00014093,-0.00249395,0.664001,0.00171154,0.0122699,1070,428,2.21182,15.4795
-147,596,2.23083,-15.6092,-0.000769544,-0.00163524,0.00136813,0.000232573,-0.00263736,0.63219,0.00184067,0.0125307,1077,428,2.23089,15.6092
-140,596,2.25574,-15.7498,-0.000587381,-0.00175741,0.00137636,0.000323137,-0.00266793,0.584444,0.00189554,0.0126913,1084,428,2.2558,15.7498
-133,596,2.24438,-15.9209,-0.000310177,-0.00165129,0.00133172,0.00051028,-0.00247175,0.552165,0.00184164,0.0140695,1091,428,2.24441,15.9209
-126,596,2.25171,-16.0618,1.95606e-05,-0.00151237,0.0012488,0.000718589,-0.0022114,0.510305,0.0017633,0.0116593,1098,428,2.25177,16.0618
-119,596,2.2738,-16.2119,0.000532,-0.00124541,0.00101532,0.00099262,-0.00170603,0.4259,0.00157611,0.013856,1105,428,2.27381,16.2119
-112,596,2.27209,-16.3514,0.0011502,-0.00101287,0.00072782,0.00137229,-0.00123496,0.296169,0.001506,0.0153212,1112,428,2.27215,16.3514
-105,596,2.28394,-16.5003,0.00184429,-0.000782222,0.000375712,0.00189698,-0.000834909,0.139324,0.0016165,0.015981,1119,428,2.28388,16.5003
-98,596,2.30005,-16.5804,0.00254111,-0.000471154,-5.71657e-05,0.00254219,-0.000472239,-0.0189686,0.00187217,0.0103779,1126,428,2.30007,16.5804
-91,596,2.30542,-16.694,0.00330333,0.000101597,-0.000727032,0.00346069,-5.57594e-05,-0.213149,0.00232593,0.0113568,1133,428,2.30542,16.694
-84,596,2.39856,-16.9533,0.00417669,0.000499527,-0.00117203,0.00451848,0.000157735,-0.283756,0.00296114,0.0243904,1140,428,2.39854,16.9533
-77,596,2.40442,-17.0273,0,0,0,0,0,0,0,-1,1147,428,2.40436,17.0273
-70,596,2.4967,-17.5488,0,0,0,0,0,0,0,-1,1154,428,2.49674,17.5488
-63,596,1.95569,-12.2758,0,0,0,0,0,0,0,-1,1161,428,1.95563,12.2759
-56,596,1.60107,-10.5827,0,0,0,0,0,0,0,-1,1168,428,1.60108,10.5827
-49,596,1.59473,-10.0393,0,0,0,0,0,0,0,-1,1175,428,1.59472,10.0393
-42,596,1.99585,-6.6246,0,0,0,0,0,0,0,-1,1182,428,1.99586,6.62459
-35,596,2.14136,-17.3,0,0,0,0,0,0,0,-1,1189,428,2.14135,17.3
-28,596,2.35645,-17.2903,0,0,0,0,0,0,0,-1,1196,428,2.35643,17.2903
-21,596,2.44177,-17.3913,-0.0121618,-0.00484983,0.00401331,-0.00307693,-0.0139347,1.15482,0.00845296,0.0466976,1203,428,2.44173,17.3913
-14,596,2.56458,-17.5058,-0.0113911,-0.00592755,0.0052383,-0.00275151,-0.0145672,1.02575,0.00893661,0.0436488,1210,428,2.56456,17.5058
-7,596,2.66797,-17.4041,-0.00927234,-0.00594592,0.00656522,-0.000836509,-0.0143818,0.909456,0.00932152,0.0495118,1217,428,2.66799,17.4041
0,596,2.69128,-17.41,0,0,0,0,0,0,0,-1,1224,428,2.6913,17.41
7,596,2.47437,-17.3719,0,0,0,0,0,0,0,-1,1231,428,2.47442,17.3719
14,596,2.61658,-17.4005,-0.000301049,-0.00341619,0.0100373,0.00829886,-0.0120161,0.708423,0.0117941,0.0440353,1238,428,2.6166,17.4006
21,596,2.79944,-17.4459,0.00156096,-0.00141687,0.0106328,0.0108086,-0.0106645,0.715835,0.0123976,0.0419211,1245,428,2.79938,17.4459
28,596,2.77649,-17.5141,0.00373114,0.000506285,0.0107814,0.01302,-0.00878256,0.71117,0.0126667,0.0428483,1252,428,2.77654,17.5141
35,596,2.7738,-17.5563,0.00735082,0.00487848,0.00845086,0.0146554,-0.00242614,0.712775,0.0106713,0.0458735,1259,428,2.77385,17.5563
42,596,3.52942,-16.9259,0.0103107,0.0104663,0.00526814,0.0156573,0.00511983,0.792781,0.00921834,0.0464145,1266,428,3.52942,16.9259
49,596,4.93738,-15.4103,0,0,0,0,0,0,0,-1,1273,428,4.93743,15.4103
56,596,2.93298,-17.6214,0.0147091,0.0232998,-0.00159324,0.0235858,0.0144232,-1.3932,0.0137297,0.0442223,1280,428,2.93298,17.6214
63,596,2.92017,-17.6184,0.0136225,0.0291267,-0.00532792,0.0307811,0.0119682,-1.26972,0.0179173,0.0445998,1287,428,2.92011,17.6184
70,596,2.95251,-17.593,0.0115173,0.0345251,-0.00863575,0.0374058,0.00863659,-1.24883,0.0226149,0.0447899,1294,428,2.95248,17.593
77,596,2.94507,-17.2082,0.00919748,0.0404466,-0.0113455,0.0441313,0.00551279,-1.25677,0.0277663,0.0477977,1301,428,2.94502,17.2082
84,596,3.4364,-17.4173,0.00684076,0.0447659,-0.0130926,0.0488467,0.00275999,-1.26865,0.0316845,0.0447649,1308,428,3.43644,17.4173
91,596,3.31396,-17.3629,0.0036995,0.046414,-0.0140717,0.0506329,-0.000519499,-1.2795,0.0339298,0.0430217,1315,428,3.31401,17.3629
98,596,3.23047,-17.3314,-0.00183589,0.0446458,-0.013868,0.0484689,-0.00565901,-1.3018,0.0343546,0.0488418,1322,428,3.23046,17.3314
105,596,3.72339,-17.525,0,0,0,0,0,0,0,-1,1329,428,3.72335,17.525
112,596,4.12183,-17.3315,-0.0122576,0.0359206,-0.00982794,0.0378483,-0.0141853,-1.37711,0.0310598,0.0384724,1336,428,4.12188,17.3315
119,596,3.62988,-17.3018,-0.0157014,0.0307533,-0.00661199,0.0316761,-0.0166242,-1.43213,0.0283339,0.0427357,1343,428,3.62991,17.3017
126,596,3.12512,-17.1476,0,0,0,0,0,0,0,-1,1350,428,3.12516,17.1476
133,596,3.47437,-17.1719,-0.0216823,0.014938,-0.00229096,0.0150808,-0.021825,-1.50856,0.0214258,0.0492801,1357,428,3.47433,17.1719
140,596,3.5918,-16.9641,-0.0250055,0.00624191,0.000479932,0.00624928,-0.0250128,1.55544,0.0191021,0.043932,1364,428,3.59181,16.9641
147,596,3.33044,-16.8894,-0.026291,-0.001695,0.00230497,-0.00148086,-0.0265052,1.47816,0.0171978,0.0380049,1371,428,3.33047,16.8894
154,596,3.47107,-16.8647,-0.0262939,-0.00689124,0.00230659,-0.0066208,-0.0265643,1.45408,0.0159669,0.0439526,1378,428,3.47102,16.8647
161,596,3.4624,-16.7804,-0.0256207,-0.0108478,0.00215034,-0.0105411,-0.0259274,1.42915,0.0150561,0.0465162,1385,428,3.46235,16.7804
168,596,3.56982,-16.7853,0,0,0,0,0,0,0,-1,1392,428,3.56986,16.7853
175,596,3.79541,-16.7001,0,0,0,0,0,0,0,-1,1399,428,3.79538,16.7001
182,596,3.85156,-16.6498,0,0,0,0,0,0,0,-1,1406,428,3.85151,16.6498
189,596,3.78052,-16.6521,0,0,0,0,0,0,0,-1,1413,428,3.78049,16.6521
196,596,3.7157,-16.3378,0,0,0,0,0,0,0,-1,1420,428,3.71576,16.3378
203,596,3.62939,-16.3614,0,0,0,0,0,0,0,-1,1427,428,3.62934,16.3614
210,596,3.64026,-16.351,0,0,0,0,0,0,0,-1,1434,428,3.64022,16.351
217,596,3.64014,-16.2343,-0.00526121,0.000213764,-0.00538031,0.00351296,-0.0085604,-1.02073,0.00717073,0.0254219,1441,428,3.64017,16.2343
224,596,3.67053,-16.0786,-0.00502277,0.00103637,-0.00464207,0.00355,-0.00753641,-1.07451,0.00653722,0.012478,1448,428,3.67057,16.0786
231,596,3.71814,-15.9044,-0.00447274,0.00180408,-0.00379464,0.00358999,-0.00625865,-1.13091,0.00575528,0.0115283,1455,428,3.71816,15.9044
238,596,3.73315,-15.7465,-0.0035993,0.00239549,-0.00289393,0.00356454,-0.00476835,-1.18688,0.0048277,0.0137637,1462,428,3.73312,15.7465
245,596,3.7384,-15.593,-0.00262418,0.00277677,-0.00210756,0.00350184,-0.00334926,-1.23945,0.00395581,0.0129094,1469,428,3.73836,15.593
252,596,3.74475,-15.4189,-0.00170212,0.00298752,-0.00142185,0.00338493,-0.00209953,-1.29825,0.00319532,0.010084,1476,428,3.74479,15.4189
259,596,3.74316,-15.2383,-0.0009338,0.00300162,-0.000848724,0.00317685,-0.00110904,-1.36719,0.00256866,0.0080426,1483,428,3.74317,15.2383
266,596,3.73096,-15.0696,-0.000293351,0.00293124,-0.000393259,0.00297851,-0.000340618,-1.45118,0.0021084,0.00943348,1490,428,3.73098,15.0696
273,596,3.73511,-14.9036,0.000149808,0.00278039,-2.52327e-05,0.00278063,0.000149566,-1.56121,0.00180596,0.0116526,1497,428,3.73516,14.9036
280,596,3.75684,-14.7029,0.000740911,0.00254179,0.000591016,0.00271843,0.000564276,1.28038,0.00165654,0.0120128,1504,428,3.7568,14.7029
287,596,3.77014,-14.4969,0.000931125,0.00234665,0.000758263,0.00267614,0.000601637,1.16088,0.0016212,0.0108869,1511,428,3.77009,14.4969
294,596,3.76038,-14.3012,0.000803305,0.00200734,0.000874715,0.00246718,0.000343459,1.08679,0.0015431,0.00859783,1518,428,3.76038,14.3012
301,596,3.74976,-14.1002,0.000532546,0.00152994,0.00102247,0.00216885,-0.000106361,1.01229,0.00148262,0.00978718,1525,428,3.74973,14.1002
308,596,3.77551,-13.9037,0.000261807,0.0011597,0.00123192,0.00202193,-0.000600423,0.960133,0.00158643,0.0152307,1532,428,3.7755,13.9037
315,596,3.77014,-13.6834,-1.71604e-05,0.000899075,0.00144519,0.00195702,-0.00107511,0.938885,0.00177511,0.015122,1539,428,3.77011,13.6834
322,596,3.76746,-13.4518,-0.000291606,0.000827011,0.00166554,0.00202464,-0.00148924,0.947389,0.00203657,0.0129841,1546,428,3.76741,13.4519
329,596,3.74402,-13.2343,-0.000472089,0.000908528,0.00192113,0.0022596,-0.00182316,0.957877,0.00236167,0.00986153,1553,428,3.74401,13.2343
336,596,3.72156,-13.0311,-0.000638586,0.00115878,0.00215949,0.00259912,-0.00207893,0.982575,0.00270643,0.00918247,1560,428,3.72152,13.0311
343,596,3.74121,-12.8118,-0.000743954,0.00151227,0.00237029,0.00300921,-0.00224089,1.00751,0.00304195,0.0115913,1567,428,3.74119,12.8118
350,596,3.73938,-12.5752,-0.000755939,0.00220624,0.0026413,0.00375336,-0.00230306,1.04092,0.00352994,0.0113245,1574,428,3.73938,12.5752
357,596,3.72546,-12.3187,-0.000771433,0.00302124,0.00289391,0.00458479,-0.00233498,1.07544,0.00406491,0.00898512,1581,428,3.72546,12.3187
364,596,3.698,-12.0492,-0.000857823,0.00400974,0.00306086,0.00548648,-0.00233456,1.12128,0.0046361,0.0104349,1588,428,3.69805,12.0492
371,596,3.69434,-11.8034,-0.000664345,0.00536815,0.00312922,0.00669814,-0.00199434,1.16891,0.00525783,0.012887,1595,428,3.69432,11.8034
378,596,3.67529,-11.5952,-0.000352533,0.0068758,0.00325593,0.00812613,-0.00160286,1.20415,0.00602322,0.016766,1602,428,3.6753,11.5951
385,596,3.68091,-11.2665,-0.00100112,0.00769875,0.0029981,0.00863186,-0.00193423,1.26907,0.00649602,0.025606,1609,428,3.68091,11.2665
392,596,3.65149,-11.004,-0.00133626,0.00835378,0.00277867,0.00909403,-0.00207651,1.31044,0.00686042,0.0362008,1616,428,3.65151,11.004
399,596,3.59534,-10.4956,0,0,0,0,0,0,0,-1,1623,428,3.59528,10.4956
406,596,3.60034,-10.1525,0,0,0,0,0,0,0,-1,1630,428,3.60028,10.1525
413,596,3.39124,-2.63528,0,0,0,0,0,0,0,-1,1637,428,3.39122,2.6353
420,596,2.6344,-3.06308,0,0,0,0,0,0,0,-1,1644,428,2.63439,3.06308
427,596,2.99329,-1.90512,0,0,0,0,0,0,0,-1,1651,428,2.99327,1.90512
434,596,3.80896,-0.253998,0,0,0,0,0,0,0,-1,1658,428,3.80902,0.254004
441,596,3.86401,-0.131622,0,0,0,0,0,0,0,-1,1665,428,3.86406,0.131613
448,596,1.0769,0.0083313,0,0,0,0,0,0,0,-1,1672,428,1.07684,-0.00832231
455,596,2.00769,-1.43329,0,0,0,0,0,0,0,-1,1679,428,2.00765,1.4333
462,596,0,0,0,0,0,0,0,0,0,-1,1686,428,0,0
469,596,0,0,0,0,0,0,0,0,0,-1,1693,428,0,0
476,596,0,0,0,0,0,0,0,0,0,-1,1700,428,0,0
483,596,0,0,0,0,0,0,0,0,0,-1,1707,428,0,0
490,596,0,0,0,0,0,0,0,0,0,-1,1714,428,0,0
497,596,0,0,0,0,0,0,0,0,0,-1,1721,428,0,0
504,596,0,0,0,0,0,0,0,0,0,-1,1728,428,0,0
511,596,0,0,0,0,0,0,0,0,0,-1,1735,428,0,0
518,596,0,0,0,0,0,0,0,0,0,-1,1742,428,0,0
525,596,0,0,0,0,0,0,0,0,0,-1,1749,428,0,0
532,596,0,0,0,0,0,0,0,0,0,-1,1756,428,0,0
539,596,0,0,0,0,0,0,0,0,0,-1,1763,428,0,0
546,596,0,0,0,0,0,0,0,0,0,-1,1770,428,0,0
553,596,0,0,0,0,0,0,0,0,0,-1,1777,428,0,0
560,596,0,0,0,0,0,0,0,0,0,-1,1784,428,0,0
567,596,0,0,0,0,0,0,0,0,0,-1,1791,428,0,0
574,596,0,0,0,0,0,0,0,0,0,-1,1798,428,0,0
581,596,0,0,0,0,0,0,0,0,0,-1,1805,428,0,0
588,596,0,0,0,0,0,0,0,0,0,-1,1812,428,0,0
595,596,0,0,0,0,0,0,0,0,0,-1,1819,428,0,0
602,596,0,0,0,0,0,0,0,0,0,-1,1826,428,0,0
609,596,0,0,0,0,0,0,0,0,0,-1,1833,428,0,0
616,596,0,0,0,0,0,0,0,0,0,-1,1840,428,0,0
623,596,0,0,0,0,0,0,0,0,0,-1,1847,428,0,0
630,596,0,0,0,0,0,0,0,0,0,-1,1854,428,0,0
637,596,0,0,0,0,0,0,0,0,0,-1,1861,428,0,0
644,596,0,0,0,0,0,0,0,0,0,-1,1868,428,0,0
651,596,0,0,0,0,0,0,0,0,0,-1,1875,428,0,0
658,596,0,0,0,0,0,0,0,0,0,-1,1882,428,0,0
665,596,0,0,0,0,0,0,0,0,0,-1,1889,428,0,0
672,596,0,0,0,0,0,0,0,0,0,-1,1896,428,0,0
679,596,0,0,0,0,0,0,0,0,0,-1,1903,428,0,0
686,596,0,0,0,0,0,0,0,0,0,-1,1910,428,0,0
693,596,0,0,0,0,0,0,0,0,0,-1,1917,428,0,0
700,596,0,0,0,0,0,0,0,0,0,-1,1924,428,0,0
707,596,0,0,0,0,0,0,0,0,0,-1,1931,428,0,0
714,596,0,0,0,0,0,0,0,0,0,-1,1938,428,0,0
721,596,0,0,0,0,0,0,0,0,0,-1,1945,428,0,0
728,596,0,0,0,0,0,0,0,0,0,-1,1952,428,0,0
735,596,0,0,0,0,0,0,0,0,0,-1,1959,428,0,0
742,596,0,0,0,0,0,0,0,0,0,-1,1966,428,0,0
749,596,0,0,0,0,0,0,0,0,0,-1,1973,428,0,0
756,596,0,0,0,0,0,0,0,0,0,-1,1980,428,0,0
763,596,0,0,0,0,0,0,0,0,0,-1,1987,428,0,0
770,596,0,0,0,0,0,0,0,0,0,-1,1994,428,0,0
777,596,0,0,0,0,0,0,0,0,0,-1,2001,428,0,0
784,596,0,0,0,0,0,0,0,0,0,-1,2008,428,0,0
791,596,0,0,0,0,0,0,0,0,0,-1,2015,428,0,0
798,596,0,0,0,0,0,0,0,0,0,-1,2022,428,0,0
805,596,0,0,0,0,0,0,0,0,0,-1,2029,428,0,0
812,596,0,0,0,0,0,0,0,0,0,-1,2036,428,0,0
-700,589,0,0,0,0,0,0,0,0,0,-1,524,435,0,0
-693,589,0,0,0,0,0,0,0,0,0,-1,531,435,0,0
-686,589,0,0,0,0,0,0,0,0,0,-1,538,435,0,0
-679,589,0,0,0,0,0,0,0,0,0,-1,545,435,0,0
-672,589,0,0,0,0,0,0,0,0,0,-1,552,435,0,0
-665,589,0,0,0,0,0,0,0,0,0,-1,559,435,0,0
-658,589,0,0,0,0,0,0,0,0,0,-1,566,435,0,0
-651,589,0,0,0,0,0,0,0,0,0,-1,573,435,0,0
-644,589,0,0,0,0,0,0,0,0,0,-1,580,435,0,0
-637,589,0,0,0,0,0,0,0,0,0,-1,587,435,0,0
-630,589,0,0,0,0,0,0,0,0,0,-1,594,435,0,0
-623,589,0,0,0,0,0,0,0,0,0,-1,601,435,0,0
-616,589,0,0,0,0,0,0,0,0,0,-1,608,435,0,0
-609,589,0,0,0,0,0,0,0,0,0,-1,615,435,0,0
-602,589,0,0,0,0,0,0,0,0,0,-1,622,435,0,0
-595,589,0,0,0,0,0,0,0,0,0,-1,629,435,0,0
-588,589,0,0,0,0,0,0,0,0,0,-1,636,435,0,0
-581,589,0,0,0,0,0,0,0,0,0,-1,643,435,0,0
-574,589,0,0,0,0,0,0,0,0,0,-1,650,435,0,0
-567,589,0,0,0,0,0,0,0,0,0,-1,657,435,0,0
-560,589,0,0,0,0,0,0,0,0,0,-1,664,435,0,0
-553,589,0,0,0,0,0,0,0,0,0,-1,671,435,0,0
-546,589,0,0,0,0,0,0,0,0,0,-1,678,435,0,0
-539,589,0,0,0,0,0,0,0,0,0,-1,685,435,0,0
-532,589,0,0,0,0,0,0,0,0,0,-1,692,435,0,0
-525,589,0,0,0,0,0,0,0,0,0,-1,699,435,0,0
-518,589,0,0,0,0,0,0,0,0,0,-1,706,435,0,0
-511,589,0,0,0,0,0,0,0,0,0,-1,713,435,0,0
-504,589,0,0,0,0,0,0,0,0,0,-1,720,435,0,0
-497,589,0,0,0,0,0,0,0,0,0,-1,727,435,0,0
-490,589,0,0,0,0,0,0,0,0,0,-1,734,435,0,0
-483,589,0,0,0,0,0,0,0,0,0,-1,741,435,0,0
-476,589,0,0,0,0,0,0,0,0,0,-1,748,435,0,0
-469,589,0,0,0,0,0,0,0,0,0,-1,755,435,0,0
-462,589,0,0,0,0,0,0,0,0,0,-1,762,435,0,0
-455,589,0,0,0,0,0,0,0,0,0,-1,769,435,0,0
-448,589,0,0,0,0,0,0,0,0,0,-1,776,435,0,0
-441,589,0,0,0,0,0,0,0,0,0,-1,783,435,0,0
-434,589,0,0,0,0,0,0,0,0,0,-1,790,435,0,0
-427,589,0,0,0,0,0,0,0,0,0,-1,797,435,0,0
-420,589,0,0,0,0,0,0,0,0,0,-1,804,435,0,0
-413,589,0,0,0,0,0,0,0,0,0,-1,811,435,0,0
-406,589,0,0,0,0,0,0,0,0,0,-1,818,435,0,0
-399,589,0,0,0,0,0,0,0,0,0,-1,825,435,0,0
-392,589,0,0,0,0,0,0,0,0,0,-1,832,435,0,0
-385,589,0,0,0,0,0,0,0,0,0,-1,839,435,0,0
-378,589,0,0,0,0,0,0,0,0,0,-1,846,435,0,0
-371,589,0,0,0,0,0,0,0,0,0,-1,853,435,0,0
-364,589,0,0,0,0,0,0,0,0,0,-1,860,435,0,0
-357,589,0,0,0,0,0,0,0,0,0,-1,867,435,0,0
-350,589,-5.74323,-18.0391,0,0,0,0,0,0,0,-1,874,435,-5.74325,18.0391
-343,589,-4.7887,-16.4395,0,0,0,0,0,0,0,-1,881,435,-4.78868,16.4395
-336,589,-3.74249,-14.758,0,0,0,0,0,0,0,-1,888,435,-3.74249,14.758
-329,589,-3.14648,-14.0188,0,0,0,0,0,0,0,-1,895,435,-3.14648,14.0188
-322,589,1.94751,-10.1465,0,0,0,0,0,0,0,-1,902,435,1.94752,10.1465
-315,589,1.85327,-10.3062,0,0,0,0,0,0,0,-1,909,435,1.85324,10.3062
-308,589,1.38171,-10.5443,0,0,0,0,0,0,0,-1,916,435,1.3817,10.5443
-301,589,1.71313,-11.0771,0,0,0,0,0,0,0,-1,923,435,1.71312,11.0771
-294,589,1.67456,-11.7685,0,0,0,0,0,0,0,-1,930,435,1.67459,11.7685
-287,589,1.82318,-11.8089,0.00631467,-0.00289451,-0.00205922,0.00675415,-0.00333399,-0.210265,0.00593491,0.0422806,937,435,1.82315,11.8089
-280,589,2.18365,-11.6432,0.0040142,-0.00220204,-0.00153954,0.00437459,-0.00256243,-0.229951,0.00405039,0.0332206,944,435,2.18368,11.6432
-273,589,2.23309,-11.9702,0.00259458,-0.00119541,-0.00101768,0.00285056,-0.00145139,-0.246418,0.00252714,0.0196636,951,435,2.2331,11.9702
-266,589,2.17694,-12.1912,0.0010622,-5.89843e-05,-0.00073218,0.00142375,-0.000420537,-0.458678,0.00111608,0.0163656,958,435,2.17695,12.1912
-259,589,2.09955,-12.413,0.000267993,0.000720465,-0.000434825,0.000984388,4.07069e-06,-1.02527,0.000654906,0.0142504,965,435,2.09957,12.413
-252,589,2.09076,-12.6827,-6.7715e-05,0.00130085,-4.14552e-05,0.00130211,-6.89695e-05,-1.54054,0.000891951,0.00995926,972,435,2.09078,12.6827
-245,589,2.099,-12.9131,-0.000348284,0.00203639,0.000195842,0.00205237,-0.000364261,1.4894,0.00150444,0.0102161,979,435,2.09901,12.9131
-238,589,2.0882,-13.1442,-0.000490713,0.00265568,0.000262059,0.00267736,-0.00051239,1.48827,0.00197795,0.0132069,986,435,2.08821,13.1442
-231,589,2.08368,-13.3368,-0.000686214,0.00312323,0.000290751,0.00314529,-0.000708277,1.49506,0.00236852,0.0133706,993,435,2.08366,13.3368
-224,589,2.06268,-13.5691,-0.000629332,0.00305935,0.000295857,0.00308293,-0.00065291,1.49127,0.00230397,0.0140372,1000,435,2.06267,13.5691
-217,589,2.07007,-13.805,-0.000496424,0.0028967,0.000377907,0.00293828,-0.000538003,1.46121,0.00216063,0.015457,1007,435,2.07005,13.805
-210,589,2.06604,-14.0115,-0.000357629,0.00251725,0.000483312,0.00259633,-0.000436706,1.40862,0.00189332,0.0139871,1014,435,2.06605,14.0115
-203,589,2.0556,-14.1915,-0.000256914,0.00192118,0.000741872,0.00214986,-0.000485591,1.27179,0.00161955,0.0100646,1021,435,2.05558,14.1915
-196,589,2.05432,-14.3764,-0.00029289,0.00141242,0.000975814,0.00185562,-0.000736087,1.14447,0.00154216,0.0125749,1028,435,2.05428,14.3764
-189,589,2.0166,-14.5836,-0.000422677,0.00097808,0.00108301,0.00156744,-0.00101204,1.07242,0.00150073,0.0158845,1035,435,2.01656,14.5836
-182,589,2.02649,-14.7388,-0.000506738,0.000432614,0.0013165,0.00136071,-0.00143483,0.956742,0.00161419,0.0121363,1042,435,2.02653,14.7388
-175,589,2.04956,-14.9165,-0.000559515,-0.000160471,0.00158268,0.00123521,-0.0019552,0.8481,0.00185755,0.0166713,1049,435,2.04961,14.9165
-168,589,2.06042,-15.1125,-0.000763559,-0.00073115,0.00178289,0.00103561,-0.00253032,0.789943,0.00211822,0.0143246,1056,435,2.06037,15.1125
-161,589,2.0531,-15.2942,-0.00095636,-0.00124368,0.00195315,0.000858411,-0.00305845,0.748688,0.00237734,0.0126886,1063,435,2.05307,15.2942
-154,589,2.05054,-15.4596,-0.000984021,-0.00155316,0.00215358,0.000903712,-0.00344089,0.71971,0.0026471,0.012451,1070,435,2.05056,15.4595
-147,589,2.07751,-15.6073,-0.000923175,-0.00184221,0.00223822,0.000902214,-0.0036676,0.684153,0.00279477,0.0118408,1077,435,2.07755,15.6073
-140,589,2.09766,-15.7507,-0.000831578,-0.00214916,0.00222609,0.000831152,-0.00381189,0.641533,0.00285888,0.0118991,1084,435,2.09762,15.7507
-133,589,2.10107,-15.9128,-0.000654173,-0.00225101,0.00213315,0.000825084,-0.00373027,0.606324,0.00280266,0.0117299,1091,435,2.10111,15.9128
-126,589,2.12158,-16.0674,-0.000355286,-0.00230175,0.00205503,0.000945313,-0.00360235,0.564251,0.00277095,0.0103127,1098,435,2.12161,16.0674
-119,589,2.10767,-16.2201,0.000207693,-0.00225198,0.00178328,0.0011441,-0.00318838,0.483526,0.00259251,0.016564,1105,435,2.10771,16.2201
-112,589,2.11499,-16.3502,0.000934667,-0.00217511,0.00142027,0.00148569,-0.00272613,0.370091,0.0024666,0.0182831,1112,435,2.11496,16.3502
-105,589,2.15344,-16.4838,0.00180005,-0.00194183,0.000934436,0.00202042,-0.0021622,0.231603,0.0024153,0.018207,1119,435,2.15347,16.4838
-98,589,2.18628,-16.5634,0.00281629,-0.00137775,0.00028234,0.00283521,-0.00139667,0.066917,0.00248989,0.0186046,1126,435,2.18629,16.5634
-91,589,2.2644,-16.6978,0.0040231,-0.000572762,-0.000645196,0.00411195,-0.00066162,-0.136863,0.00298637,0.0290117,1133,435,2.26438,16.6979
-84,589,2.39233,-17.0012,0,0,0,0,0,0,0,-1,1140,435,2.39232,17.0012
-77,589,2.18152,-14.8023,0,0,0,0,0,0,0,-1,1147,435,2.18155,14.8023
-70,589,1.48267,-9.90961,0,0,0,0,0,0,0,-1,1154,435,1.48264,9.9096
-63,589,0.880127,-5.50586,0,0,0,0,0,0,0,-1,1161,435,0.880186,5.50587
-56,589,-2.78052,-7.28082,0,0,0,0,0,0,0,-1,1168,435,-2.78053,7.28082
-49,589,-0.525757,-2.76703,0,0,0,0,0,0,0,-1,1175,435,-0.525771,2.76702
-42,589,-2.7738,-2.87921,0,0,0,0,0,0,0,-1,1182,435,-2.77383,2.87922
-35,589,-2.55225,-3.27551,0,0,0,0,0,0,0,-1,1189,435,-2.55223,3.27552
-28,589,-0.0632324,-3.42938,0,0,0,0,0,0,0,-1,1196,435,-0.063241,3.42938
-21,589,2.31812,-17.2252,0,0,0,0,0,0,0,-1,1203,435,2.31813,17.2252
-14,589,2.69641,-17.4423,-0.017304,-0.00623555,0.00514862,-0.00421094,-0.0193286,1.19614,0.0117367,0.0424349,1210,435,2.69638,17.4423
-7,589,2.76465,-17.0803,-0.0149087,-0.00632228,0.00674399,-0.00262093,-0.01861,1.06885,0.0116319,0.0475201,1217,435,2.76463,17.0803
0,589,2.84473,-16.7657,0,0,0,0,0,0,0,-1,1224,435,2.84472,16.7657
7,589,2.8103,-17.1078,0,0,0,0,0,0,0,-1,1231,435,2.81026,17.1078
14,589,2.4314,-17.2572,0,0,0,0,0,0,0,-1,1238,435,2.43138,17.2572
21,589,2.73987,-17.3145,-0.00156662,0.00037459,0.0128018,0.0122425,-0.0134346,0.823235,0.01483,0.0426579,1245,435,2.73987,17.3145
28,589,2.87268,-16.8337,0.000978456,0.00316387,0.0133004,0.0154164,-0.0112741,0.826384,0.0154715,0.044197,1252,435,2.87268,16.8338
35,589,3.33301,-16.436,0.00545555,0.00926954,0.010555,0.0180885,-0.00336337,0.87477,0.0133224,0.0438282,1259,435,3.33303,16.436
42,589,3.95874,-16.0032,0.00927648,0.0170456,0.00665828,0.0208696,0.00545243,1.04947,0.0124985,0.0453452,1266,435,3.9587,16.0032
49,589,4.8894,-15.4229,0.0125986,0.0251979,0.00287194,0.0258217,0.0119749,1.35693,0.0149212,0.0455231,1273,435,4.88946,15.4229
56,589,5.82617,-14.8729,0.0148478,0.0347018,-0.00164827,0.0348377,0.0147119,-1.48853,0.0201944,0.044376,1280,435,5.82613,14.8729
63,589,6.9032,-14.2125,0.0138111,0.0425842,-0.00615799,0.0438468,0.0125486,-1.36858,0.026075,0.0449294,1287,435,6.90323,14.2124
70,589,3.18066,-17.9072,0.0115716,0.0496008,-0.0101913,0.0521597,0.00901265,-1.32479,0.0321923,0.0427118,1294,435,3.18072,17.9072
77,589,3.37354,-17.4281,0.00915873,0.0571809,-0.0135566,0.0607436,0.00559601,-1.3138,0.0387653,0.0435948,1301,435,3.37359,17.4281
84,589,3.16174,-17.3943,0.00663284,0.062905,-0.015874,0.0670741,0.00246378,-1.31396,0.0439178,0.0407519,1308,435,3.16171,17.3943
91,589,2.73401,-17.4158,0.00310093,0.0650212,-0.0172886,0.0695213,-0.00139912,-1.31616,0.0468208,0.0414483,1315,435,2.73406,17.4158
98,589,2.38171,-17.3943,-0.00350904,0.0626436,-0.017152,0.0668263,-0.00769173,-1.3316,0.0473236,0.047214,1322,435,2.38173,17.3943
105,589,5.57458,-17.278,-0.0109804,0.0564694,-0.0158288,0.0599993,-0.0145103,-1.35138,0.0456122,0.0449562,1329,435,5.57459,17.278
112,589,4.81677,-17.2932,-0.0169201,0.0506429,-0.0122728,0.0528032,-0.0190804,-1.39656,0.0429974,0.0408828,1336,435,4.81674,17.2932
119,589,3.96802,-17.251,-0.0216624,0.0433836,-0.00843319,0.0444592,-0.022738,-1.44394,0.0394662,0.0404998,1343,435,3.96799,17.251
126,589,3.29297,-16.9538,-0.0259835,0.0330126,-0.00579395,0.0335762,-0.0265472,-1.47382,0.0347912,0.0456341,1350,435,3.29296,16.9538
133,589,2.56335,-16.6023,-0.0303583,0.0218544,-0.00270412,0.021994,-0.030498,-1.51919,0.0304386,0.0492046,1357,435,2.56341,16.6023
140,589,3.66553,-16.604,-0.0349768,0.0100548,0.000817886,0.0100696,-0.0349917,1.55264,0.0273103,0.0451799,1364,435,3.66553,16.604
147,589,3.43262,-16.4348,-0.0371678,-0.00055711,0.00299257,-0.000314109,-0.0374108,1.48977,0.0248365,0.0446874,1371,435,3.43263,16.4348
154,589,2.79053,-16.6766,-0.0375637,-0.00760675,0.00303517,-0.00730232,-0.0378682,1.47083,0.0231977,0.0419014,1378,435,2.79051,16.6766
161,589,3.57886,-16.5658,-0.037365,-0.0126244,0.00270441,-0.0123322,-0.0376572,1.46318,0.0221686,0.0473859,1385,435,3.57886,16.5658
168,589,3.97852,-16.4736,0,0,0,0,0,0,0,-1,1392,435,3.97852,16.4736
175,589,8.66992,-7.65527,0,0,0,0,0,0,0,-1,1399,435,8.66994,7.65528
182,589,3.8136,-2.45389,0,0,0,0,0,0,0,-1,1406,435,3.81363,2.4539
189,589,3.69983,-3.68149,0,0,0,0,0,0,0,-1,1413,435,3.69987,3.68147
196,589,3.31055,-5.31677,0,0,0,0,0,0,0,-1,1420,435,3.31059,5.31678
203,589,2.72559,-8.84338,0,0,0,0,0,0,0,-1,1427,435,2.72558,8.84338
210,589,3.62378,-14.4032,0,0,0,0,0,0,0,-1,1434,435,3.62378,14.4032
217,589,3.77271,-16.2726,0,0,0,0,0,0,0,-1,1441,435,3.77276,16.2726
224,589,3.86646,-16.1072,-0.00817156,0.00115324,-0.00660352,0.00457443,-0.0115928,-1.09278,0.00962284,0.0260797,1448,435,3.86649,16.1072
231,589,3.88855,-15.954,-0.00712306,0.00216183,-0.00543684,0.00466862,-0.00962985,-1.13877,0.00841924,0.0200515,1455,435,3.88851,15.954
238,589,3.9032,-15.8049,-0.0056543,0.00289162,-0.00420859,0.00461619,-0.00737887,-1.18189,0.00698631,0.0227182,1462,435,3.90315,15.8049
245,589,3.896,-15.5655,-0.00409993,0.00329076,-0.00316952,0.00446382,-0.00527299,-1.21632,0.00562802,0.021392,1469,435,3.89594,15.5655
252,589,3.91187,-15.397,-0.00267899,0.00339855,-0.00229602,0.00416843,-0.00344887,-1.24727,0.00440439,0.0136249,1476,435,3.91189,15.397
259,589,3.91492,-15.2414,-0.00152871,0.00324805,-0.00160793,0.00373887,-0.00201953,-1.27453,0.00337365,0.00930684,1483,435,3.91488,15.2414
266,589,3.91418,-15.0565,-0.000548115,0.00308676,-0.00110994,0.00339889,-0.000860241,-1.29667,0.00260054,0.00932384,1490,435,3.91418,15.0565
273,589,3.93799,-14.899,0.00018698,0.00288487,-0.000709313,0.00305999,1.18589e-05,-1.32875,0.00203605,0.0117205,1497,435,3.93802,14.899
280,589,3.96265,-14.7248,0.00106959,0.00255286,-5.54197e-06,0.00255288,0.00106957,-1.56706,0.00148035,0.0125357,1504,435,3.96262,14.7248
287,589,3.96802,-14.522,0.0014012,0.002334,7.38264e-05,0.00233981,0.0013954,1.4923,0.00135923,0.0114569,1511,435,3.96799,14.522
294,589,3.95837,-14.3081,0.00129902,0.00195347,0.000100996,0.0019687,0.00128379,1.42111,0.00115403,0.0098667,1518,435,3.95839,14.3081
301,589,3.95337,-14.1039,0.00103088,0.00142703,0.000175542,0.00149362,0.000964286,1.20821,0.000874444,0.0100127,1525,435,3.95335,14.1039
308,589,3.97168,-13.8998,0.000755582,0.00103419,0.000313138,0.00123761,0.00055216,0.994686,0.000715916,0.00969011,1532,435,3.97165,13.8998
315,589,3.98096,-13.6948,0.000497189,0.000798282,0.000474072,0.00114514,0.000150334,0.939142,0.000718575,0.0098847,1539,435,3.98098,13.6948
322,589,3.99756,-13.4759,0.000227175,0.000744963,0.00067428,0.00120834,-0.000236205,0.968698,0.00089475,0.0112122,1546,435,3.9975,13.4759
329,589,3.98267,-13.2657,3.344e-05,0.000836051,0.00092992,0.00144756,-0.000578071,0.9891,0.00120488,0.0100251,1553,435,3.98269,13.2657
336,589,3.96167,-13.0549,-0.000127554,0.00105766,0.00118644,0.00179127,-0.000861155,1.01702,0.00156245,0.00925493,1560,435,3.96165,13.0549
343,589,3.96509,-12.8205,-0.000259528,0.00136897,0.00142058,0.00219211,-0.00108267,1.04563,0.00192652,0.0102811,1567,435,3.96511,12.8205
350,589,3.96448,-12.5752,-0.000299955,0.00196154,0.00172256,0.00289132,-0.00122974,1.07584,0.00244291,0.0152735,1574,435,3.96443,12.5752
357,589,3.94873,-12.3044,-0.000338186,0.00264402,0.00201062,0.00365611,-0.00135027,1.10446,0.00299089,0.0138827,1581,435,3.94876,12.3043
364,589,3.94189,-12.063,-0.000433054,0.00344866,0.00222996,0.0044641,-0.00144849,1.14349,0.00355856,0.0110328,1588,435,3.94187,12.063
371,589,3.94568,-11.8234,-0.000379908,0.0044228,0.00238379,0.00540508,-0.00136218,1.17993,0.00413296,0.0101332,1595,435,3.94565,11.8234
378,589,3.92834,-11.5804,-0.000317253,0.00541658,0.00252025,0.00636684,-0.00126751,1.21023,0.00472409,0.0112835,1602,435,3.92834,11.5804
385,589,3.93164,-11.326,-0.000784755,0.00594957,0.00236215,0.0066955,-0.00153069,1.26492,0.0050518,0.0143537,1609,435,3.93166,11.326
392,589,3.90173,-11.0109,-0.0010314,0.00632488,0.00221579,0.00694074,-0.00164726,1.2997,0.00526289,0.017561,1616,435,3.90179,11.0109
399,589,3.87903,-10.6494,-0.000975305,0.00649283,0.00227831,0.007133,-0.00161548,1.29687,0.00537536,0.0265707,1623,435,3.87897,10.6494
406,589,3.86597,-10.3725,0,0,0,0,0,0,0,-1,1630,435,3.86597,10.3725
413,589,3.67175,-10.1689,0,0,0,0,0,0,0,-1,1637,435,3.67178,10.1689
420,589,2.79724,-5.79956,0,0,0,0,0,0,0,-1,1644,435,2.7973,5.79955
427,589,2.87976,-5.28177,0,0,0,0,0,0,0,-1,1651,435,2.87972,5.28177
434,589,2.52734,-2.73029,0,0,0,0,0,0,0,-1,1658,435,2.52736,2.73029
441,589,3.17639,-2.02435,0,0,0,0,0,0,0,-1,1665,435,3.17643,2.02435
448,589,0.453735,-3.2868,0,0,0,0,0,0,0,-1,1672,435,0.453701,3.28681
455,589,0.664307,-3.46848,0,0,0,0,0,0,0,-1,1679,435,0.66425,3.46846
462,589,3.46716,-4.41891,0,0,0,0,0,0,0,-1,1686,435,3.4672,4.41891
469,589,0.0238037,-3.81497,0,0,0,0,0,0,0,-1,1693,435,0.0237965,3.81498
476,589,0,0,0,0,0,0,0,0,0,-1,1700,435,0,0
483,589,0,0,0,0,0,0,0,0,0,-1,1707,435,0,0
490,589,0,0,0,0,0,0,0,0,0,-1,1714,435,0,0
497,589,0,0,0,0,0,0,0,0,0,-1,1721,435,0,0
504,589,0,0,0,0,0,0,0,0,0,-1,1728,435,0,0
511,589,0,0,0,0,0,0,0,0,0,-1,1735,435,0,0
518,589,0,0,0,0,0,0,0,0,0,-1,1742,435,0,0
525,589,0,0,0,0,0,0,0,0,0,-1,1749,435,0,0
532,589,0,0,0,0,0,0,0,0,0,-1,1756,435,0,0
539,589,0,0,0,0,0,0,0,0,0,-1,1763,435,0,0
546,589,0,0,0,0,0,0,0,0,0,-1,1770,435,0,0
553,589,0,0,0,0,0,0,0,0,0,-1,1777,435,0,0
560,589,0,0,0,0,0,0,0,0,0,-1,1784,435,0,0
567,589,0,0,0,0,0,0,0,0,0,-1,1791,435,0,0
574,589,0,0,0,0,0,0,0,0,0,-1,1798,435,0,0
581,589,0,0,0,0,0,0,0,0,0,-1,1805,435,0,0
588,589,0,0,0,0,0,0,0,0,0,-1,1812,435,0,0
595,589,0,0,0,0,0,0,0,0,0,-1,1819,435,0,0
602,589,0,0,0,0,0,0,0,0,0,-1,1826,435,0,0
609,589,0,0,0,0,0,0,0,0,0,-1,1833,435,0,0
616,589,0,0,0,0,0,0,0,0,0,-1,1840,435,0,0
623,589,0,0,0,0,0,0,0,0,0,-1,1847,435,0,0
630,589,0,0,0,0,0,0,0,0,0,-1,1854,435,0,0
637,589,0,0,0,0,0,0,0,0,0,-1,1861,435,0,0
644,589,0,0,0,0,0,0,0,0,0,-1,1868,435,0,0
651,589,0,0,0,0,0,0,0,0,0,-1,1875,435,0,0
658,589,0,0,0,0,0,0,0,0,0,-1,1882,435,0,0
665,589,0,0,0,0,0,0,0,0,0,-1,1889,435,0,0
672,589,0,0,0,0,0,0,0,0,0,-1,1896,435,0,0
679,589,0,0,0,0,0,0,0,0,0,-1,1903,435,0,0
686,589,0,0,0,0,0,0,0,0,0,-1,1910,435,0,0
693,589,0,0,0,0,0,0,0,0,0,-1,1917,435,0,0
700,589,0,0,0,0,0,0,0,0,0,-1,1924,435,0,0
707,589,0,0,0,0,0,0,0,0,0,-1,1931,435,0,0
714,589,0,0,0,0,0,0,0,0,0,-1,1938,435,0,0
721,589,0,0,0,0,0,0,0,0,0,-1,1945,435,0,0
728,589,0,0,0,0,0,0,0,0,0,-1,1952,435,0,0
735,589,0,0,0,0,0,0,0,0,0,-1,1959,435,0,0
742,589,0,0,0,0,0,0,0,0,0,-1,1966,435,0,0
749,589,0,0,0,0,0,0,0,0,0,-1,1973,435,0,0
756,589,0,0,0,0,0,0,0,0,0,-1,1980,435,0,0
763,589,0,0,0,0,0,0,0,0,0,-1,1987,435,0,0
770,589,0,0,0,0,0,0,0,0,0,-1,1994,435,0,0
777,589,0,0,0,0,0,0,0,0,0,-1,2001,435,0,0
784,589,0,0,0,0,0,0,0,0,0,-1,2008,435,0,0
791,589,0,0,0,0,0,0,0,0,0,-1,2015,435,0,0
798,589,0,0,0,0,0,0,0,0,0,-1,2022,435,0,0
805,589,0,0,0,0,0,0,0,0,0,-1,2029,435,0,0
812,589,0,0,0,0,0,0,0,0,0,-1,2036,435,0,0
-700,582,0,0,0,0,0,0,0,0,0,-1,524,442,0,0
-693,582,0,0,0,0,0,0,0,0,0,-1,531,442,0,0
-686,582,0,0,0,0,0,0,0,0,0,-1,538,442,0,0
-679,582,0,0,0,0,0,0,0,0,0,-1,545,442,0,0
-672,582,0,0,0,0,0,0,0,0,0,-1,552,442,0,0
-665,582,0,0,0,0,0,0,0,0,0,-1,559,442,0,0
-658,582,0,0,0,0,0,0,0,0,0,-1,566,442,0,0
-651,582,0,0,0,0,0,0,0,0,0,-1,573,442,0,0
-644,582,0,0,0,0,0,0,0,0,0,-1,580,442,0,0
-637,582,0,0,0,0,0,0,0,0,0,-1,587,442,0,0
-630,582,0,0,0,0,0,0,0,0,0,-1,594,442,0,0
-623,582,0,0,0,0,0,0,0,0,0,-1,601,442,0,0
-616,582,0,0,0,0,0,0,0,0,0,-1,608,442,0,0
-609,582,0,0,0,0,0,0,0,0,0,-1,615,442,0,0
-602,582,0,0,0,0,0,0,0,0,0,-1,622,442,0,0
-595,582,0,0,0,0,0,0,0,0,0,-1,629,442,0,0
-588,582,0,0,0,0,0,0,0,0,0,-1,636,442,0,0
-581,582,0,0,0,0,0,0,0,0,0,-1,643,442,0,0
-574,582,0,0,0,0,0,0,0,0,0,-1,650,442,0,0
-567,582,0,0,0,0,0,0,0,0,0,-1,657,442,0,0
-560,582,0,0,0,0,0,0,0,0,0,-1,664,442,0,0
-553,582,0,0,0,0,0,0,0,0,0,-1,671,442,0,0
-546,582,0,0,0,0,0,0,0,0,0,-1,678,442,0,0
-539,582,0,0,0,0,0,0,0,0,0,-1,685,442,0,0
-532,582,0,0,0,0,0,0,0,0,0,-1,692,442,0,0
-525,582,0,0,0,0,0,0,0,0,0,-1,699,442,0,0
-518,582,0,0,0,0,0,0,0,0,0,-1,706,442,0,0
-511,582,0,0,0,0,0,0,0,0,0,-1,713,442,0,0
-504,582,0,0,0,0,0,0,0,0,0,-1,720,442,0,0
-497,582,0,0,0,0,0,0,0,0,0,-1,727,442,0,0
-490,582,0,0,0,0,0,0,0,0,0,-1,734,442,0,0
-483,582,0,0,0,0,0,0,0,0,0,-1,741,442,0,0
-476,582,0,0,0,0,0,0,0,0,0,-1,748,442,0,0
-469,582,0,0,0,0,0,0,0,0,0,-1,755,442,0,0
-462,582,0,0,0,0,0,0,0,0,0,-1,762,442,0,0
-455,582,0,0,0,0,0,0,0,0,0,-1,769,442,0,0
-448,582,0,0,0,0,0,0,0,0,0,-1,776,442,0,0
-441,582,0,0,0,0,0,0,0,0,0,-1,783,442,0,0
-434,582,0,0,0,0,0,0,0,0,0,-1,790,442,0,0
-427,582,0,0,0,0,0,0,0,0,0,-1,797,442,0,0
-420,582,0,0,0,0,0,0,0,0,0,-1,804,442,0,0
-413,582,0,0,0,0,0,0,0,0,0,-1,811,442,0,0
-406,582,0,0,0,0,0,0,0,0,0,-1,818,442,0,0
-399,582,0,0,0,0,0,0,0,0,0,-1,825,442,0,0
-392,582,0,0,0,0,0,0,0,0,0,-1,832,442,0,0
-385,582,0,0,0,0,0,0,0,0,0,-1,839,442,0,0
-378,582,0,0,0,0,0,0,0,0,0,-1,846,442,0,0
-371,582,0,0,0,0,0,0,0,0,0,-1,853,442,0,0
-364,582,0,0,0,0,0,0,0,0,0,-1,860,442,0,0
-357,582,6.4043,-4.18127,0,0,0,0,0,0,0,-1,867,442,6.40427,4.18126
-350,582,-1.12933,-15.713,0,0,0,0,0,0,0,-1,874,442,-1.12935,15.713
-343,582,-6.46735,-15.7183,0,0,0,0,0,0,0,-1,881,442,-6.46737,15.7183
-336,582,-6.42596,-13.6619,0,0,0,0,0,0,0,-1,888,442,-6.42598,13.6619
-329,582,1.40094,-10.4148,0,0,0,0,0,0,0,-1,895,442,1.40095,10.4148
-322,582,1.59906,-10.4838,0.0201241,-0.00383266,-0.00499459,0.0211236,-0.00483225,-0.197524,0.0159392,0.0459932,902,442,1.59904,10.4838
-315,582,1.76843,-10.5501,0.0161405,-0.00369819,-0.00456791,0.0171418,-0.00469943,-0.215777,0.0132746,0.0452946,909,442,1.76842,10.5501
-308,582,1.54034,-10.5715,0.0126806,-0.00307424,-0.0043442,0.0137991,-0.0041927,-0.251987,0.0108699,0.0453122,916,442,1.54037,10.5715
-301,582,1.71143,-10.8954,0.00981973,-0.00282184,-0.00397765,0.0109671,-0.00396926,-0.280842,0.00893345,0.043633,923,442,1.71144,10.8954
-294,582,1.72217,-11.3743,0.00735466,-0.00295592,-0.00308829,0.00820891,-0.00381016,-0.269861,0.00709243,0.0399757,930,442,1.72218,11.3743
-287,582,1.87524,-11.4779,0.00494512,-0.00216984,-0.00218516,0.00556264,-0.00278735,-0.275413,0.00490882,0.0317419,937,442,1.87526,11.478
-280,582,1.95929,-11.6867,0.00317758,-0.00161726,-0.00170591,0.00372257,-0.00216225,-0.309221,0.00343718,0.015192,944,442,1.95926,11.6867
-273,582,1.9353,-11.9148,0.00209361,-0.000897004,-0.00123472,0.0025375,-0.00134089,-0.345118,0.00227444,0.010105,951,442,1.9353,11.9148
-266,582,1.92065,-12.1821,0.000923192,-9.47517e-05,-0.00095351,0.00149507,-0.000666629,-0.540243,0.00127824,0.0100913,958,442,1.92066,12.1821
-259,582,1.89545,-12.4454,0.000333435,0.000397166,-0.000660547,0.00102662,-0.000296015,-0.8095,0.000801515,0.00898701,965,442,1.89546,12.4454
-252,582,1.88043,-12.686,6.41185e-05,0.000698527,-0.000247722,0.000783796,-2.11503e-05,-1.23929,0.000529722,0.00828658,972,442,1.88045,12.686
-245,582,1.89655,-12.9118,-0.00017235,0.00110381,6.09693e-05,0.00110671,-0.000175256,1.52317,0.000802631,0.0115008,979,442,1.89653,12.9118
-238,582,1.89331,-13.1068,-0.000301711,0.00143709,0.000274339,0.00147934,-0.000343968,1.41797,0.00111865,0.0158431,986,442,1.89328,13.1069
-231,582,1.89648,-13.3354,-0.000482547,0.00161416,0.000443808,0.00170423,-0.000572618,1.37057,0.00136759,0.0126257,993,442,1.89649,13.3354
-224,582,1.88507,-13.568,-0.000464682,0.00140898,0.000608646,0.00158933,-0.000645036,1.28272,0.00132786,0.010796,1000,442,1.88509,13.568
-217,582,1.86157,-13.7786,-0.000380126,0.00117885,0.000827601,0.00153626,-0.00073753,1.16313,0.0013395,0.012697,1007,442,1.86156,13.7786
-210,582,1.86469,-13.9867,-0.000285966,0.000823944,0.00104885,0.00145561,-0.000917632,1.02873,0.00138188,0.0127186,1014,442,1.8647,13.9867
-203,582,1.87476,-14.1997,-0.000219229,0.000302339,0.00137734,0.00144336,-0.00136025,0.87896,0.0016189,0.0101736,1021,442,1.87474,14.1997
-196,582,1.86951,-14.3942,-0.000291631,-0.000144328,0.00171477,0.00149837,-0.00193433,0.806861,0.00198719,0.0159786,1028,442,1.86952,14.3942
-189,582,1.80579,-14.5836,-0.000482896,-0.000532208,0.00195754,0.00145014,-0.00246524,0.779101,0.00228573,0.021781,1035,442,1.80585,14.5836
-182,582,1.82288,-14.7411,-0.000647553,-0.000861498,0.00230241,0.00155037,-0.00305942,0.762184,0.00270858,0.0142805,1042,442,1.82294,14.7411
-175,582,1.86975,-14.9066,-0.000760394,-0.00131395,0.00262227,0.00159967,-0.00367401,0.732819,0.00312228,0.0135528,1049,442,1.86979,14.9066
-168,582,1.88879,-15.1103,-0.00101233,-0.00177421,0.00286798,0.0014999,-0.00428644,0.719372,0.00346747,0.0116647,1056,442,1.88879,15.1103
-161,582,1.87122,-15.2735,-0.00132053,-0.00220317,0.00308607,0.00135562,-0.00487931,0.714377,0.00378652,0.0125652,1063,442,1.87117,15.2735
-154,582,1.87231,-15.4348,-0.0014573,-0.0025265,0.00331896,0.00136984,-0.00535364,0.705547,0.00410266,0.012353,1070,442,1.87232,15.4348
-147,582,1.90686,-15.6023,-0.00145671,-0.00283938,0.00339438,0.00131602,-0.00561211,0.684937,0.00424858,0.0113002,1077,442,1.90684,15.6023
-140,582,1.91882,-15.7407,-0.00148426,-0.00317231,0.00335197,0.00112832,-0.00578488,0.662062,0.00428253,0.0117641,1084,442,1.91877,15.7407
-133,582,1.95642,-15.8991,-0.00144378,-0.0033085,0.00318945,0.000946796,-0.00569907,0.643198,0.00415113,0.0145271,1091,442,1.95639,15.8991
-126,582,1.98315,-16.0127,-0.00119132,-0.00336692,0.00309093,0.000997647,-0.00555588,0.616201,0.00407736,0.0127579,1098,442,1.98314,16.0127
-119,582,1.95447,-16.1341,-0.000588907,-0.00343044,0.00277445,0.0011074,-0.00512674,0.548762,0.00384055,0.0168779,1105,442,1.95446,16.1341
-112,582,1.92163,-16.2917,0.000249587,-0.0034051,0.00227479,0.00134009,-0.0044956,0.447022,0.00352961,0.0260825,1112,442,1.92163,16.2916
-105,582,1.96094,-16.4585,0.00131911,-0.00308872,0.00159775,0.00183733,-0.00360695,0.313641,0.00319812,0.034186,1119,442,1.96097,16.4585
-98,582,2.07739,-16.6333,0.00265463,-0.00234484,0.00066355,0.0027412,-0.00243141,0.129732,0.00298819,0.038214,1126,442,2.07739,16.6333
-91,582,2.24463,-16.7025,0,0,0,0,0,0,0,-1,1133,442,2.24466,16.7025
-84,582,2.10278,-16.7533,0,0,0,0,0,0,0,-1,1140,442,2.10279,16.7533
-77,582,2.30212,-11.4907,0,0,0,0,0,0,0,-1,1147,442,2.30207,11.4907
-70,582,1.49255,-6.36548,0,0,0,0,0,0,0,-1,1154,442,1.49251,6.36549
-63,582,-4.62915,-4.0347,0,0,0,0,0,0,0,-1,1161,442,-4.6292,4.03471
-56,582,-5.81714,-5.24149,0,0,0,0,0,0,0,-1,1168,442,-5.81718,5.24149
-49,582,-3.88672,-10.1064,0,0,0,0,0,0,0,-1,1175,442,-3.88678,10.1064
-42,582,-0.948975,1.13968,0,0,0,0,0,0,0,-1,1182,442,-0.949003,-1.13969
-35,582,-2.58435,-3.86911,0,0,0,0,0,0,0,-1,1189,442,-2.58437,3.86912
-28,582,-0.825317,-3.45941,0,0,0,0,0,0,0,-1,1196,442,-0.825377,3.45942
-21,582,3.45825,-17.1965,0,0,0,0,0,0,0,-1,1203,442,3.45824,17.1965
-14,582,3.45752,-17.6945,0,0,0,0,0,0,0,-1,1210,442,3.45752,17.6945
-7,582,2.68909,-17.0454,0,0,0,0,0,0,0,-1,1217,442,2.68911,17.0455
0,582,3.11438,-18.3137,0,0,0,0,0,0,0,-1,1224,442,3.11443,18.3137
7,582,2.95532,-17.5943,0,0,0,0,0,0,0,-1,1231,442,2.95532,17.5943
14,582,2.76587,-17.4647,-0.0087714,-0.00145328,0.0128126,0.00821251,-0.0184372,0.924487,0.0157592,0.0480599,1238,442,2.76589,17.4647
21,582,2.58154,-17.3168,-0.00609881,0.00246992,0.0144875,0.0132933,-0.0169222,0.929165,0.0174868,0.0428196,1245,442,2.58149,17.3168
28,582,2.38562,-17.122,-0.00336271,0.00636643,0.0154962,0.0177437,-0.01474,0.937487,0.0187812,0.0437402,1252,442,2.3856,17.122
35,582,2.33862,-16.7869,0.00184164,0.0146006,0.0124083,0.0221733,-0.0057311,1.02284,0.0170174,0.0465092,1259,442,2.33867,16.7869
42,582,2.53931,-16.6047,0.00650038,0.0250924,0.00777885,0.0279177,0.00367508,1.22241,0.0175158,0.0470899,1266,442,2.5393,16.6047
49,582,4.74084,-15.5347,0.0103574,0.0360113,0.00339419,0.0364528,0.00991591,1.44145,0.0217631,0.0440872,1273,442,4.74079,15.5347
56,582,5.42273,-15.2045,0.0130463,0.0486053,-0.00182315,0.0486985,0.0129531,-1.5197,0.0291245,0.0446365,1280,442,5.42269,15.2045
63,582,5.79749,-14.7717,0,0,0,0,0,0,0,-1,1287,442,5.79745,14.7717
70,582,3.08289,-18.0237,0.00990269,0.0678648,-0.0117362,0.070151,0.00761649,-1.37841,0.0444466,0.0408755,1294,442,3.08287,18.0236
77,582,2.85852,-17.5355,0.00761528,0.0772701,-0.015702,0.0806461,0.00423925,-1.35901,0.0524082,0.042922,1301,442,2.85854,17.5355
84,582,2.77405,-17.5163,0.00517266,0.08463,-0.0186033,0.0887699,0.00103277,-1.35183,0.0588387,0.0441812,1308,442,2.77409,17.5163
91,582,2.59631,-17.8393,0.00147365,0.0874028,-0.0205493,0.0920641,-0.00318771,-1.34773,0.0624658,0.0463574,1315,442,2.59632,17.8393
98,582,2.18433,-18.3929,0,0,0,0,0,0,0,-1,1322,442,2.18434,18.393
105,582,6.10266,-18.0648,-0.014967,0.0767443,-0.0191326,0.0805756,-0.0187983,-1.37316,0.0609571,0.0423339,1329,442,6.1027,18.0649
112,582,5.48279,-17.6117,-0.0225773,0.0686017,-0.0148631,0.0709634,-0.024939,-1.41322,0.0574553,0.0438101,1336,442,5.4828,17.6117
119,582,4.25562,-17.9618,-0.0288168,0.0588091,-0.0104663,0.0600419,-0.0300496,-1.45355,0.0529664,0.0430987,1343,442,4.2556,17.9618
126,582,3.37683,-17.5522,-0.0347781,0.0452197,-0.00713304,0.0458507,-0.0354092,-1.48256,0.0470444,0.0444697,1350,442,3.37687,17.5521
133,582,3.03638,-16.7831,0,0,0,0,0,0,0,-1,1357,442,3.03641,16.783
140,582,3.69751,-16.5689,-0.046999,0.0148047,0.00120503,0.0148282,-0.0470225,1.55131,0.0372872,0.0457176,1364,442,3.69749,16.5689
147,582,3.45667,-16.3031,-0.0503385,0.00106353,0.00359848,0.00131422,-0.0505891,1.50124,0.0341726,0.0449218,1371,442,3.45672,16.3031
154,582,2.4541,-16.6505,-0.0513363,-0.00820149,0.00367202,-0.00789113,-0.0516467,1.48648,0.0321254,0.0441276,1378,442,2.45406,16.6505
161,582,1.86804,-16.9471,0,0,0,0,0,0,0,-1,1385,442,1.86808,16.9471
168,582,23.4153,-14.5689,0,0,0,0,0,0,0,-1,1392,442,23.4152,14.5689
175,582,6.50549,-2.00424,0,0,0,0,0,0,0,-1,1399,442,6.50546,2.00425
182,582,5.18958,-2.18652,0,0,0,0,0,0,0,-1,1406,442,5.1896,2.18652
189,582,6.19751,-0.880951,0,0,0,0,0,0,0,-1,1413,442,6.19754,0.88096
196,582,4.87354,-2.22327,0,0,0,0,0,0,0,-1,1420,442,4.87348,2.22325
203,582,3.11401,-4.48257,0,0,0,0,0,0,0,-1,1427,442,3.11404,4.48259
210,582,2.93115,-11.0731,0,0,0,0,0,0,0,-1,1434,442,2.93113,11.0731
217,582,5.08545,-16.2589,0,0,0,0,0,0,0,-1,1441,442,5.08542,16.2589
224,582,4.89636,-15.9839,-0.0132626,0.0015654,-0.00929674,0.00604244,-0.0177396,-1.122,0.0142735,0.0451837,1448,442,4.89634,15.9839
231,582,4.13403,-15.7926,-0.0113412,0.00292938,-0.00758608,0.00620856,-0.0146204,-1.16279,0.0123481,0.0434691,1455,442,4.13407,15.7926
238,582,3.94287,-15.7925,-0.00888754,0.00395121,-0.00579059,0.00617703,-0.0111134,-1.20382,0.0101173,0.0450438,1462,442,3.94284,15.7926
245,582,4.00049,-15.7945,-0.00643542,0.00442036,-0.00432484,0.00593266,-0.00794772,-1.23441,0.00804194,0.0469842,1469,442,4.00046,15.7945
252,582,4.14136,-15.5456,-0.00420304,0.00436953,-0.00313422,0.00539319,-0.0052267,-1.25511,0.00613165,0.032484,1476,442,4.14138,15.5456
259,582,4.0498,-15.3501,-0.0024371,0.00398383,-0.00224956,0.00469352,-0.00314679,-1.2652,0.00455587,0.0252055,1483,442,4.04981,15.3501
266,582,4.06641,-15.14,-0.00107665,0.00361975,-0.00165256,0.00414296,-0.00159986,-1.26418,0.00342227,0.018595,1490,442,4.06643,15.14
273,582,4.14209,-14.9285,-0.000128435,0.00323169,-0.00120267,0.00361779,-0.000514537,-1.26015,0.0026004,0.0156081,1497,442,4.14203,14.9285
280,582,4.16663,-14.7535,0.00109882,0.00269266,-0.0003923,0.00278398,0.00100749,-1.34207,0.00162764,0.0121231,1504,442,4.16659,14.7535
287,582,4.17737,-14.5243,0.00157749,0.00235635,-0.000456525,0.00256698,0.00136686,-1.13852,0.00148309,0.0114325,1511,442,4.17735,14.5243
294,582,4.1637,-14.3003,0.00150024,0.00186679,-0.000569087,0.00228139,0.00108565,-0.941178,0.00131767,0.00909602,1518,442,4.16371,14.3003
301,582,4.16724,-14.1072,0.00126126,0.00124938,-0.000604745,0.0018601,0.00065055,-0.780487,0.00108997,0.00931117,1525,442,4.16729,14.1072
308,582,4.18494,-13.9138,0.00105306,0.000816265,-0.000567557,0.00151444,0.000354886,-0.68257,0.000914575,0.0116621,1532,442,4.18488,13.9138
315,582,4.18445,-13.7055,0.000905131,0.000592806,-0.000477342,0.00125121,0.000246731,-0.627311,0.000765269,0.0129819,1539,442,4.1845,13.7055
322,582,4.19702,-13.4907,0.0007226,0.000557726,-0.000307072,0.000958108,0.000322219,-0.654259,0.000562959,0.0105058,1546,442,4.19702,13.4906
329,582,4.19531,-13.272,0.000590069,0.000661711,-4.5937e-05,0.000684143,0.000567638,-1.11654,0.000422647,0.00992776,1553,442,4.19535,13.272
336,582,4.19507,-13.0372,0.000471119,0.000862853,0.000231772,0.000970436,0.000363535,1.13622,0.000566124,0.00991325,1560,442,4.19511,13.0372
343,582,4.19641,-12.7775,0.000330748,0.00114129,0.000492234,0.00137362,9.84144e-05,1.1298,0.000884768,0.0113846,1567,442,4.19635,12.7775
350,582,4.18286,-12.5386,0.000246132,0.00162155,0.00082507,0.00200794,-0.000140255,1.13282,0.00138774,0.0148209,1574,442,4.18282,12.5386
357,582,4.19128,-12.2878,0.000145391,0.00215388,0.00114616,0.00267351,-0.000374238,1.14515,0.00191929,0.0141662,1581,442,4.19122,12.2878
364,582,4.18311,-12.0609,-1.68309e-05,0.00276865,0.00141606,0.0033621,-0.000610284,1.17395,0.00247009,0.0106126,1588,442,4.18309,12.0609
371,582,4.17944,-11.8381,-0.000155895,0.00341583,0.00164465,0.00405776,-0.000797824,1.19867,0.00300661,0.0135278,1595,442,4.1795,11.8381
378,582,4.14453,-11.5956,-0.000353224,0.00402397,0.00180181,0.00467024,-0.000999495,1.22641,0.00349463,0.0141177,1602,442,4.14449,11.5956
385,582,4.14429,-11.343,-0.000725446,0.00439436,0.00173028,0.00492427,-0.00125536,1.27361,0.0037716,0.01051,1609,442,4.14432,11.343
392,582,4.13464,-11.0739,-0.000931432,0.0046111,0.00166234,0.00507144,-0.00139177,1.30064,0.00392795,0.00961732,1616,442,4.13464,11.0739
399,582,4.10339,-10.8139,-0.000865639,0.00465801,0.00177231,0.00517777,-0.00138539,1.28553,0.00399454,0.015048,1623,442,4.1034,10.8139
406,582,4.10632,-10.4655,-0.00106319,0.00465669,0.00178582,0.00516846,-0.00157496,1.2917,0.00407342,0.0259549,1630,442,4.10637,10.4655
413,582,4.03577,-10.1671,-0.00134592,0.0042626,0.00158106,0.0046776,-0.00176092,1.31411,0.00384231,0.0435113,1637,442,4.03576,10.1671
420,582,4.06787,-9.96295,0,0,0,0,0,0,0,-1,1644,442,4.06792,9.96296
427,582,3.98572,-9.69485,0,0,0,0,0,0,0,-1,1651,442,3.9857,9.69484
434,582,3.7019,-9.48102,0,0,0,0,0,0,0,-1,1658,442,3.70195,9.48101
441,582,3.68677,-8.97913,0,0,0,0,0,0,0,-1,1665,442,3.68682,8.97912
448,582,1.52722,-2.85928,0,0,0,0,0,0,0,-1,1672,442,1.52724,2.85927
455,582,3.6698,-4.4032,0,0,0,0,0,0,0,-1,1679,442,3.66983,4.40319
462,582,1.38074,-3.94418,0,0,0,0,0,0,0,-1,1686,442,1.38074,3.94419
469,582,2.78467,-8.67245,0,0,0,0,0,0,0,-1,1693,442,2.78466,8.67245
476,582,1.93579,-8.53891,0,0,0,0,0,0,0,-1,1700,442,1.93579,8.53892
483,582,0,0,0,0,0,0,0,0,0,-1,1707,442,0,0
490,582,0,0,0,0,0,0,0,0,0,-1,1714,442,0,0
497,582,0,0,0,0,0,0,0,0,0,-1,1721,442,0,0
504,582,0,0,0,0,0,0,0,0,0,-1,1728,442,0,0
511,582,0,0,0,0,0,0,0,0,0,-1,1735,442,0,0
518,582,0,0,0,0,0,0,0,0,0,-1,1742,442,0,0
525,582,0,0,0,0,0,0,0,0,0,-1,1749,442,0,0
532,582,0,0,0,0,0,0,0,0,0,-1,1756,442,0,0
539,582,0,0,0,0,0,0,0,0,0,-1,1763,442,0,0
546,582,0,0,0,0,0,0,0,0,0,-1,1770,442,0,0
553,582,0,0,0,0,0,0,0,0,0,-1,1777,442,0,0
560,582,0,0,0,0,0,0,0,0,0,-1,1784,442,0,0
567,582,0,0,0,0,0,0,0,0,0,-1,1791,442,0,0
574,582,0,0,0,0,0,0,0,0,0,-1,1798,442,0,0
581,582,0,0,0,0,0,0,0,0,0,-1,1805,442,0,0
588,582,0,0,0,0,0,0,0,0,0,-1,1812,442,0,0
595,582,0,0,0,0,0,0,0,0,0,-1,1819,442,0,0
602,582,0,0,0,0,0,0,0,0,0,-1,1826,442,0,0
609,582,0,0,0,0,0,0,0,0,0,-1,1833,442,0,0
616,582,0,0,0,0,0,0,0,0,0,-1,1840,442,0,0
623,582,0,0,0,0,0,0,0,0,0,-1,1847,442,0,0
630,582,0,0,0,0,0,0,0,0,0,-1,1854,442,0,0
637,582,0,0,0,0,0,0,0,0,0,-1,1861,442,0,0
644,582,0,0,0,0,0,0,0,0,0,-1,1868,442,0,0
651,582,0,0,0,0,0,0,0,0,0,-1,1875,442,0,0
658,582,0,0,0,0,0,0,0,0,0,-1,1882,442,0,0
665,582,0,0,0,0,0,0,0,0,0,-1,1889,442,0,0
672,582,0,0,0,0,0,0,0,0,0,-1,1896,442,0,0
679,582,0,0,0,0,0,0,0,0,0,-1,1903,442,0,0
686,582,0,0,0,0,0,0,0,0,0,-1,1910,442,0,0
693,582,0,0,0,0,0,0,0,0,0,-1,1917,442,0,0
700,582,0,0,0,0,0,0,0,0,0,-1,1924,442,0,0
707,582,0,0,0,0,0,0,0,0,0,-1,1931,442,0,0
714,582,0,0,0,0,0,0,0,0,0,-1,1938,442,0,0
721,582,0,0,0,0,0,0,0,0,0,-1,1945,442,0,0
728,582,0,0,0,0,0,0,0,0,0,-1,1952,442,0,0
735,582,0,0,0,0,0,0,0,0,0,-1,1959,442,0,0
742,582,0,0,0,0,0,0,0,0,0,-1,1966,442,0,0
749,582,0,0,0,0,0,0,0,0,0,-1,1973,442,0,0
756,582,0,0,0,0,0,0,0,0,0,-1,1980,442,0,0
763,582,0,0,0,0,0,0,0,0,0,-1,1987,442,0,0
770,582,0,0,0,0,0,0,0,0,0,-1,1994,442,0,0
777,582,0,0,0,0,0,0,0,0,0,-1,2001,442,0,0
784,582,0,0,0,0,0,0,0,0,0,-1,2008,442,0,0
791,582,0,0,0,0,0,0,0,0,0,-1,2015,442,0,0
798,582,0,0,0,0,0,0,0,0,0,-1,2022,442,0,0
805,582,0,0,0,0,0,0,0,0,0,-1,2029,442,0,0
812,582,0,0,0,0,0,0,0,0,0,-1,2036,442,0,0
-700,575,0,0,0,0,0,0,0,0,0,-1,524,449,0,0
-693,575,0,0,0,0,0,0,0,0,0,-1,531,449,0,0
-686,575,0,0,0,0,0,0,0,0,0,-1,538,449,0,0
-679,575,0,0,0,0,0,0,0,0,0,-1,545,449,0,0
-672,575,0,0,0,0,0,0,0,0,0,-1,552,449,0,0
-665,575,0,0,0,0,0,0,0,0,0,-1,559,449,0,0
-658,575,0,0,0,0,0,0,0,0,0,-1,566,449,0,0
-651,575,0,0,0,0,0,0,0,0,0,-1,573,449,0,0
-644,575,0,0,0,0,0,0,0,0,0,-1,580,449,0,0
-637,575,0,0,0,0,0,0,0,0,0,-1,587,449,0,0
-630,575,0,0,0,0,0,0,0,0,0,-1,594,449,0,0
-623,575,0,0,0,0,0,0,0,0,0,-1,601,449,0,0
-616,575,0,0,0,0,0,0,0,0,0,-1,608,449,0,0
-609,575,0,0,0,0,0,0,0,0,0,-1,615,449,0,0
-602,575,0,0,0,0,0,0,0,0,0,-1,622,449,0,0
-595,575,0,0,0,0,0,0,0,0,0,-1,629,449,0,0
-588,575,0,0,0,0,0,0,0,0,0,-1,636,449,0,0
-581,575,0,0,0,0,0,0,0,0,0,-1,643,449,0,0
-574,575,0,0,0,0,0,0,0,0,0,-1,650,449,0,0
-567,575,0,0,0,0,0,0,0,0,0,-1,657,449,0,0
-560,575,0,0,0,0,0,0,0,0,0,-1,664,449,0,0
-553,575,0,0,0,0,0,0,0,0,0,-1,671,449,0,0
-546,575,0,0,0,0,0,0,0,0,0,-1,678,449,0,0
-539,575,0,0,0,0,0,0,0,0,0,-1,685,449,0,0
-532,575,0,0,0,0,0,0,0,0,0,-1,692,449,0,0
-525,575,0,0,0,0,0,0,0,0,0,-1,699,449,0,0
-518,575,0,0,0,0,0,0,0,0,0,-1,706,449,0,0
-511,575,0,0,0,0,0,0,0,0,0,-1,713,449,0,0
-504,575,0,0,0,0,0,0,0,0,0,-1,720,449,0,0
-497,575,0,0,0,0,0,0,0,0,0,-1,727,449,0,0
-490,575,0,0,0,0,0,0,0,0,0,-1,734,449,0,0
-483,575,0,0,0,0,0,0,0,0,0,-1,741,449,0,0
-476,575,0,0,0,0,0,0,0,0,0,-1,748,449,0,0
-469,575,0,0,0,0,0,0,0,0,0,-1,755,449,0,0
-462,575,0,0,0,0,0,0,0,0,0,-1,762,449,0,0
-455,575,0,0,0,0,0,0,0,0,0,-1,769,449,0,0
-448,575,0,0,0,0,0,0,0,0,0,-1,776,449,0,0
-441,575,0,0,0,0,0,0,0,0,0,-1,783,449,0,0
-434,575,0,0,0,0,0,0,0,0,0,-1,790,449,0,0
-427,575,0,0,0,0,0,0,0,0,0,-1,797,449,0,0
-420,575,0,0,0,0,0,0,0,0,0,-1,804,449,0,0
-413,575,0,0,0,0,0,0,0,0,0,-1,811,449,0,0
-406,575,0,0,0,0,0,0,0,0,0,-1,818,449,0,0
-399,575,0,0,0,0,0,0,0,0,0,-1,825,449,0,0
-392,575,0,0,0,0,0,0,0,0,0,-1,832,449,0,0
-385,575,0,0,0,0,0,0,0,0,0,-1,839,449,0,0
-378,575,0,0,0,0,0,0,0,0,0,-1,846,449,0,0
-371,575,0.56897,-3.52304,0,0,0,0,0,0,0,-1,853,449,0.568955,3.52306
-364,575,1.49805,-4.67191,0,0,0,0,0,0,0,-1,860,449,1.49803,4.6719
-357,575,3.15521,-8.29892,0,0,0,0,0,0,0,-1,867,449,3.15521,8.29891
-350,575,2.76715,-7.23752,0,0,0,0,0,0,0,-1,874,449,2.76717,7.2375
-343,575,0.6922,-9.68082,0,0,0,0,0,0,0,-1,881,449,0.692185,9.68081
-336,575,2.71558,-9.66815,0,0,0,0,0,0,0,-1,888,449,2.7156,9.66814
-329,575,1.10925,-10.6095,0,0,0,0,0,0,0,-1,895,449,1.10925,10.6095
-322,575,1.3255,-10.6721,0.015814,-0.00379927,-0.00465045,0.0168608,-0.00484606,-0.221403,0.0131568,0.044423,902,449,1.32547,10.6722
-315,575,1.68512,-10.6158,0.0125774,-0.00340665,-0.00417583,0.0136026,-0.00443183,-0.240742,0.0108517,0.0450307,909,449,1.68513,10.6158
-308,575,1.68542,-10.7548,0.00984465,-0.00276546,-0.0038707,0.010938,-0.00385878,-0.27529,0.00886282,0.0409645,916,449,1.68546,10.7548
-301,575,1.75336,-10.944,0.00761069,-0.00240241,-0.00347358,0.00869769,-0.0034894,-0.303279,0.00724724,0.0302867,923,449,1.75334,10.944
-294,575,1.71643,-11.1934,0.00574746,-0.00231991,-0.00280622,0.00662758,-0.00320003,-0.303916,0.00578786,0.0227653,930,449,1.71642,11.1934
-287,575,1.72583,-11.4763,0.00387123,-0.00166878,-0.00205358,0.00454943,-0.00234698,-0.318975,0.00404876,0.016572,937,449,1.72582,11.4763
-280,575,1.7262,-11.7192,0.00253836,-0.00128887,-0.00163784,0.00314356,-0.00189407,-0.353951,0.00293815,0.0126077,944,449,1.72619,11.7192
-273,575,1.70758,-11.956,0.00172696,-0.000827729,-0.00121446,0.00221215,-0.00131291,-0.380082,0.00205715,0.0108538,951,449,1.70759,11.956
-266,575,1.70404,-12.2064,0.000846718,-0.000315614,-0.000938945,0.0013698,-0.000838699,-0.508277,0.00128731,0.0124122,958,449,1.70405,12.2064
-259,575,1.69806,-12.459,0.000394756,-5.61526e-05,-0.000642817,0.000850508,-0.000511905,-0.616736,0.000794646,0.0129291,965,449,1.69805,12.459
-252,575,1.67822,-12.6898,0.000148854,4.46932e-05,-0.000203073,0.000306419,-0.000112871,-0.659873,0.000250527,0.010986,972,449,1.67823,12.6898
-245,575,1.67609,-12.906,-7.17892e-05,0.000209609,0.000185912,0.000302061,-0.000164241,1.10932,0.000273111,0.0136488,979,449,1.67607,12.906
-238,575,1.67468,-13.1147,-0.000210988,0.000315753,0.00054988,0.000662081,-0.000557315,1.00874,0.000704884,0.0140497,986,449,1.67469,13.1147
-231,575,1.66931,-13.3285,-0.00038967,0.000238916,0.00086723,0.000847048,-0.000997802,0.959242,0.00106631,0.0125713,993,449,1.6693,13.3285
-224,575,1.64557,-13.5452,-0.000409272,-8.23253e-05,0.00118795,0.000953342,-0.00144494,0.853774,0.00139431,0.0122528,1000,449,1.64558,13.5452
-217,575,1.64063,-13.7682,-0.000376455,-0.000404859,0.00156363,0.00117304,-0.00195435,0.780857,0.00182429,0.010016,1007,449,1.64063,13.7682
-210,575,1.67859,-13.9904,-0.000333301,-0.000806779,0.00192481,0.00136927,-0.00250935,0.724209,0.00227134,0.0087757,1014,449,1.67862,13.9904
-203,575,1.68024,-14.1952,-0.000305219,-0.00131864,0.00235668,0.00159861,-0.00322246,0.679505,0.00283559,0.0120818,1021,449,1.68022,14.1952
-196,575,1.67407,-14.3889,-0.000410537,-0.00177268,0.00280981,0.00179957,-0.00398278,0.666496,0.00341684,0.0156515,1028,449,1.67407,14.3888
-189,575,1.66748,-14.5725,-0.000663823,-0.00217673,0.00317901,0.00184749,-0.00468805,0.668594,0.00389028,0.0160921,1035,449,1.66754,14.5725
-182,575,1.66211,-14.747,-0.000921647,-0.00234443,0.00362907,0.0020651,-0.00533117,0.688613,0.00440684,0.0130774,1042,449,1.66206,14.747
-175,575,1.69336,-14.9205,-0.00112655,-0.00268968,0.00401627,0.0021835,-0.00599973,0.689299,0.00489284,0.0115548,1049,449,1.69341,14.9205
-168,575,1.69946,-15.1019,-0.00147364,-0.00304409,0.00431321,0.00212523,-0.00664297,0.695359,0.00528156,0.010507,1056,449,1.69941,15.1019
-161,575,1.68408,-15.2784,-0.00195538,-0.00336257,0.00457892,0.00197369,-0.00729164,0.709165,0.0056354,0.0145012,1063,449,1.68412,15.2784
-154,575,1.70154,-15.4298,-0.002259,-0.00364327,0.00484457,0.00194263,-0.0078449,0.714444,0.00598353,0.0169774,1070,449,1.70148,15.4298
-147,575,1.75342,-15.5372,-0.00237604,-0.00392975,0.00488802,0.00179647,-0.00810226,0.706592,0.00608932,0.0163986,1077,449,1.75345,15.5372
-140,575,1.7052,-15.6427,-0.0026285,-0.00422579,0.0047868,0.00142583,-0.00828011,0.702738,0.0060516,0.0252339,1084,449,1.7052,15.6427
-133,575,1.76904,-15.8111,-0.00285934,-0.00429158,0.00451858,0.000999511,-0.00815043,0.70681,0.00579559,0.0352003,1091,449,1.76899,15.8111
-126,575,1.80957,-15.8462,-0.00273315,-0.00429294,0.0044142,0.000969522,-0.00799562,0.697961,0.00568123,0.04298,1098,449,1.80953,15.8462
-119,575,1.82495,-15.9319,-0.00210885,-0.00451386,0.00409554,0.000957074,-0.00757978,0.642605,0.00540055,0.0413732,1105,449,1.825,15.9319
-112,575,1.74438,-16.1306,-0.00115951,-0.0046252,0.00349856,0.00101183,-0.00679655,0.555457,0.00490323,0.0453348,1112,449,1.74439,16.1307
-105,575,1.56653,-16.3127,0,0,0,0,0,0,0,-1,1119,449,1.56657,16.3127
-98,575,1.98962,-16.6294,0,0,0,0,0,0,0,-1,1126,449,1.98966,16.6294
-91,575,1.60803,-16.4247,0,0,0,0,0,0,0,-1,1133,449,1.60802,16.4247
-84,575,1.16553,-11.9056,0,0,0,0,0,0,0,-1,1140,449,1.16558,11.9056
-77,575,0.205078,-11.2584,0,0,0,0,0,0,0,-1,1147,449,0.205117,11.2584
-70,575,-4.2467,-1.78738,0,0,0,0,0,0,0,-1,1154,449,-4.24674,1.78739
-63,575,-4.52209,-3.48798,0,0,0,0,0,0,0,-1,1161,449,-4.5221,3.48796
-56,575,-5.5968,-5.4928,0,0,0,0,0,0,0,-1,1168,449,-5.59683,5.49281
-49,575,-5.96863,-7.17612,0,0,0,0,0,0,0,-1,1175,449,-5.96868,7.1761
-42,575,-0.830322,0.773499,0,0,0,0,0,0,0,-1,1182,449,-0.83038,-0.77351
-35,575,-0.62085,0.205139,0,0,0,0,0,0,0,-1,1189,449,-0.620855,-0.205126
-28,575,0.49292,-3.87988,0,0,0,0,0,0,0,-1,1196,449,0.492941,3.87989
-21,575,4.17065,-17.2032,0,0,0,0,0,0,0,-1,1203,449,4.17064,17.2032
-14,575,4.1687,-17.6718,-0.0311419,-0.00721458,0.00113161,-0.00716118,-0.0311953,1.52364,0.0188684,0.0466706,1210,449,4.16864,17.6718
-7,575,4.14392,-18.1224,-0.0287529,-0.00796461,0.00358632,-0.00736331,-0.0293542,1.40467,0.0176351,0.0475247,1217,449,4.14389,18.1224
0,575,2.77197,-17.9806,-0.0247244,-0.00707539,0.00659684,-0.00488218,-0.0269176,1.24983,0.0165594,0.0461923,1224,449,2.77202,17.9806
7,575,2.78174,-17.559,-0.0192858,-0.00410008,0.0100706,0.000919282,-0.0243051,1.10841,0.0165184,0.0474996,1231,449,2.78175,17.559
14,575,2.63281,-17.434,-0.0148098,-0.000615982,0.012808,0.0069299,-0.0223557,1.03839,0.0176726,0.0480504,1238,449,2.63282,17.434
21,575,2.3877,-17.3713,-0.0120468,0.00459081,0.015265,0.0136565,-0.0211126,1.03488,0.0202272,0.0429479,1245,449,2.38772,17.3713
28,575,2.099,-17.2274,-0.00945896,0.00982171,0.01695,0.019681,-0.0193183,1.04396,0.0225166,0.0430754,1252,449,2.09895,17.2274
35,575,2.04431,-16.7359,0,0,0,0,0,0,0,-1,1259,449,2.04431,16.7359
42,575,1.82947,-17.77,0.00150858,0.0343201,0.00830598,0.0363029,-0.000474198,1.33647,0.0243615,0.0476795,1266,449,1.82945,17.77
49,575,1.50525,-18.2722,0.0056178,0.0484841,0.00347549,0.0487641,0.00533785,1.49042,0.0308842,0.0488272,1273,449,1.50527,18.2722
56,575,1.2113,-18.7485,0,0,0,0,0,0,0,-1,1280,449,1.21127,18.7485
63,575,2.59424,-18.6853,0.00784625,0.0779396,-0.00799674,0.0788403,0.0069455,-1.45863,0.0504048,0.0430787,1287,449,2.59423,18.6853
70,575,1.75916,-18.6981,0.00575622,0.0889395,-0.013212,0.0909875,0.00370817,-1.41701,0.0594609,0.0450375,1294,449,1.75916,18.6981
77,575,2.49756,-17.4463,0,0,0,0,0,0,0,-1,1301,449,2.49762,17.4463
84,575,2.37073,-17.4441,0.00189389,0.109412,-0.0210138,0.113373,-0.00206721,-1.38448,0.0762806,0.0455825,1308,449,2.37071,17.4441
91,575,6.65381,-18.9435,-0.00161445,0.113121,-0.0235631,0.117772,-0.00626506,-1.37593,0.080684,0.0462451,1315,449,6.65384,18.9436
98,575,6.56458,-18.9828,-0.0095914,0.10978,-0.0237693,0.114339,-0.0141502,-1.3813,0.0813541,0.0421089,1322,449,6.56454,18.9828
105,575,6.65332,-19.1414,-0.0197549,0.100674,-0.0223864,0.104701,-0.0237817,-1.39283,0.0789311,0.042427,1329,449,6.6533,19.1414
112,575,5.9126,-17.7662,-0.0291279,0.0896957,-0.0174311,0.0922,-0.0316322,-1.4281,0.0742905,0.0458379,1336,449,5.91262,17.7662
119,575,4.32678,-18.4873,-0.0369567,0.0770255,-0.0126316,0.0784086,-0.0383398,-1.46174,0.0687152,0.0432942,1343,449,4.32679,18.4873
126,575,3.6261,-18.3583,-0.0448118,0.0597538,-0.00855306,0.0604487,-0.0455068,-1.48972,0.0613759,0.0485909,1350,449,3.62615,18.3583
133,575,2.6698,-17.6343,0,0,0,0,0,0,0,-1,1357,449,2.6698,17.6343
140,575,1.72803,-16.9427,-0.0607533,0.020547,0.00161286,0.020579,-0.0607853,1.55097,0.0488501,0.0479321,1364,449,1.72802,16.9427
147,575,3.48755,-15.9716,-0.0654601,0.00319727,0.00399529,0.00342898,-0.0656918,1.51287,0.0449811,0.0486249,1371,449,3.48751,15.9716
154,575,2.23291,-16.0181,-0.0673124,-0.00873661,0.00405422,-0.00845733,-0.0675917,1.50202,0.0425233,0.0476066,1378,449,2.23292,16.0181
161,575,0.898926,-16.0315,0,0,0,0,0,0,0,-1,1385,449,0.898938,16.0315
168,575,9.2522,-0.307129,0,0,0,0,0,0,0,-1,1392,449,9.25225,0.307127
175,575,4.32617,1.93634,0,0,0,0,0,0,0,-1,1399,449,4.32612,-1.93634
182,575,6.3147,-2.88345,0,0,0,0,0,0,0,-1,1406,449,6.31466,2.88346
189,575,6.10449,-1.30817,0,0,0,0,0,0,0,-1,1413,449,6.10455,1.30817
196,575,5.79895,0.818359,0,0,0,0,0,0,0,-1,1420,449,5.79895,-0.81837
203,575,3.29724,-1.46378,0,0,0,0,0,0,0,-1,1427,449,3.29722,1.46377
210,575,2.32739,-7.74503,0,0,0,0,0,0,0,-1,1434,449,2.32741,7.74502
217,575,3.33618,-11.5521,0,0,0,0,0,0,0,-1,1441,449,3.3362,11.5521
224,575,5.89526,-15.9602,0,0,0,0,0,0,0,-1,1448,449,5.89525,15.9602
231,575,4.41138,-15.7729,0,0,0,0,0,0,0,-1,1455,449,4.4114,15.7729
238,575,4.17639,-15.9235,0,0,0,0,0,0,0,-1,1462,449,4.17641,15.9235
245,575,4.27576,-16.2075,0,0,0,0,0,0,0,-1,1469,449,4.2757,16.2075
252,575,4.35693,-15.8692,0,0,0,0,0,0,0,-1,1476,449,4.35695,15.8692
259,575,4.19434,-15.6335,0,0,0,0,0,0,0,-1,1483,449,4.19438,15.6335
266,575,4.20959,-15.3416,0,0,0,0,0,0,0,-1,1490,449,4.20959,15.3415
273,575,4.29797,-15.008,0,0,0,0,0,0,0,-1,1497,449,4.29795,15.008
280,575,4.32104,-14.7633,0,0,0,0,0,0,0,-1,1504,449,4.32099,14.7633
287,575,4.32202,-14.5575,0.00192046,0.00251086,-0.000894608,0.00315771,0.0012736,-0.944762,0.00183443,0.0193497,1511,449,4.32201,14.5575
294,575,4.3678,-14.3069,0.00179342,0.00184333,-0.00116448,0.00298313,0.000653628,-0.796112,0.00181064,0.0102706,1518,449,4.36774,14.3069
301,575,4.38062,-14.1104,0.00145816,0.00105178,-0.00132146,0.00259196,-8.20189e-05,-0.709115,0.00175595,0.00961844,1525,449,4.38063,14.1104
308,575,4.39905,-13.9204,0.00114976,0.000471913,-0.0014103,0.0022613,-0.000639619,-0.667474,0.00175992,0.0107766,1532,449,4.3991,13.9204
315,575,4.39612,-13.7029,0.000950522,0.000174376,-0.00140394,0.00201904,-0.000894142,-0.650557,0.00172322,0.011241,1539,449,4.39608,13.7029
322,575,4.41602,-13.4856,0.000720402,9.06225e-05,-0.00127311,0.00171698,-0.00090596,-0.664162,0.0015383,0.00992125,1546,449,4.41607,13.4856
329,575,4.41919,-13.2781,0.000551479,0.000168948,-0.00101713,0.00139517,-0.000674738,-0.692461,0.00121895,0.00996899,1553,449,4.41921,13.2781
336,575,4.41016,-13.0496,0.000415681,0.000335535,-0.00072932,0.00110603,-0.000354812,-0.757953,0.000879804,0.011527,1560,449,4.41015,13.0496
343,575,4.42969,-12.7976,0.000258595,0.000583638,-0.000445043,0.000894907,-5.26727e-05,-0.960466,0.000614914,0.0119917,1567,449,4.42964,12.7976
350,575,4.42603,-12.5427,0.000182555,0.000968061,-7.27888e-05,0.000974749,0.000175867,-1.47917,0.000599866,0.0120407,1574,449,4.42599,12.5427
357,575,4.42896,-12.3046,0.000106793,0.00140761,0.000297319,0.00147234,4.20578e-05,1.35641,0.000967846,0.0116055,1581,449,4.42896,12.3046
364,575,4.42371,-12.0757,-1.07971e-05,0.0019024,0.000633482,0.00209314,-0.000201534,1.27834,0.00146723,0.0107546,1588,449,4.42367,12.0757
371,575,4.39014,-11.8513,-0.000116667,0.00236829,0.000938246,0.00268275,-0.000431127,1.24741,0.00194818,0.0191753,1595,449,4.3901,11.8513
378,575,4.39185,-11.591,-0.000276656,0.00279592,0.0011487,0.00317788,-0.000658618,1.24978,0.00236885,0.017418,1602,449,4.39189,11.591
385,575,4.38086,-11.3299,-0.000538166,0.00310271,0.00117191,0.00344731,-0.000882764,1.28481,0.00264208,0.0102513,1609,449,4.38086,11.3299
392,575,4.37866,-11.0713,-0.000671487,0.0032531,0.00119592,0.00358881,-0.0010072,1.29713,0.00278955,0.00814465,1616,449,4.37863,11.0713
399,575,4.36438,-10.8247,-0.000571076,0.0032537,0.00135012,0.00368226,-0.000999636,1.26343,0.00284716,0.00938158,1623,449,4.36441,10.8247
406,575,4.35449,-10.549,-0.000700101,0.00322946,0.00141097,0.0036836,-0.00115424,1.2594,0.00291761,0.0114957,1630,449,4.35451,10.549
413,575,4.34583,-10.2632,-0.000886295,0.00291574,0.00130589,0.00332107,-0.00129162,1.26984,0.00274771,0.012822,1637,449,4.34583,10.2632
420,575,4.33069,-9.9783,-0.000830793,0.00146518,0.00121506,0.00198879,-0.00135441,1.16391,0.00194174,0.0131914,1644,449,4.33075,9.9783
427,575,4.28491,-9.7204,-0.000321154,-0.000483868,0.00144231,0.00104209,-0.00184711,0.757224,0.00168953,0.0194507,1651,449,4.28487,9.72041
434,575,4.18298,-9.53226,0.000127541,-0.00253289,0.00151795,0.000815654,-0.003221,0.425609,0.00246463,0.031045,1658,449,4.18295,9.53226
441,575,4.27478,-9.26074,0,0,0,0,0,0,0,-1,1665,449,4.27479,9.26073
448,575,4.7832,-8.82651,0,0,0,0,0,0,0,-1,1672,449,4.78318,8.82651
455,575,4.896,-8.44568,0,0,0,0,0,0,0,-1,1679,449,4.89604,8.44569
462,575,3.7063,-8.76251,0,0,0,0,0,0,0,-1,1686,449,3.70635,8.76252
469,575,3.77917,-8.75641,0,0,0,0,0,0,0,-1,1693,449,3.77914,8.75641
476,575,3.85522,-8.25778,0,0,0,0,0,0,0,-1,1700,449,3.8552,8.25779
483,575,4.30945,-7.03503,0,0,0,0,0,0,0,-1,1707,449,4.30947,7.03504
490,575,2.61316,-6.29047,0,0,0,0,0,0,0,-1,1714,449,2.61319,6.29045
497,575,0,0,0,0,0,0,0,0,0,-1,1721,449,0,0
504,575,0,0,0,0,0,0,0,0,0,-1,1728,449,0,0
511,575,0,0,0,0,0,0,0,0,0,-1,1735,449,0,0
518,575,0,0,0,0,0,0,0,0,0,-1,1742,449,0,0
525,575,0,0,0,0,0,0,0,0,0,-1,1749,449,0,0
532,575,0,0,0,0,0,0,0,0,0,-1,1756,449,0,0
539,575,0,0,0,0,0,0,0,0,0,-1,1763,449,0,0
546,575,0,0,0,0,0,0,0,0,0,-1,1770,449,0,0
553,575,0,0,0,0,0,0,0,0,0,-1,1777,449,0,0
560,575,0,0,0,0,0,0,0,0,0,-1,1784,449,0,0
567,575,0,0,0,0,0,0,0,0,0,-1,1791,449,0,0
574,575,0,0,0,0,0,0,0,0,0,-1,1798,449,0,0
581,575,0,0,0,0,0,0,0,0,0,-1,1805,449,0,0
588,575,0,0,0,0,0,0,0,0,0,-1,1812,449,0,0
595,575,0,0,0,0,0,0,0,0,0,-1,1819,449,0,0
602,575,0,0,0,0,0,0,0,0,0,-1,1826,449,0,0
609,575,0,0,0,0,0,0,0,0,0,-1,1833,449,0,0
616,575,0,0,0,0,0,0,0,0,0,-1,1840,449,0,0
623,575,0,0,0,0,0,0,0,0,0,-1,1847,449,0,0
630,575,0,0,0,0,0,0,0,0,0,-1,1854,449,0,0
637,575,0,0,0,0,0,0,0,0,0,-1,1861,449,0,0
644,575,0,0,0,0,0,0,0,0,0,-1,1868,449,0,0
651,575,0,0,0,0,0,0,0,0,0,-1,1875,449,0,0
658,575,0,0,0,0,0,0,0,0,0,-1,1882,449,0,0
665,575,0,0,0,0,0,0,0,0,0,-1,1889,449,0,0
672,575,0,0,0,0,0,0,0,0,0,-1,1896,449,0,0
679,575,0,0,0,0,0,0,0,0,0,-1,1903,449,0,0
686,575,0,0,0,0,0,0,0,0,0,-1,1910,449,0,0
693,575,0,0,0,0,0,0,0,0,0,-1,1917,449,0,0
700,575,0,0,0,0,0,0,0,0,0,-1,1924,449,0,0
707,575,0,0,0,0,0,0,0,0,0,-1,1931,449,0,0
714,575,0,0,0,0,0,0,0,0,0,-1,1938,449,0,0
721,575,0,0,0,0,0,0,0,0,0,-1,1945,449,0,0
728,575,0,0,0,0,0,0,0,0,0,-1,1952,449,0,0
735,575,0,0,0,0,0,0,0,0,0,-1,1959,449,0,0
742,575,0,0,0,0,0,0,0,0,0,-1,1966,449,0,0
749,575,0,0,0,0,0,0,0,0,0,-1,1973,449,0,0
756,575,0,0,0,0,0,0,0,0,0,-1,1980,449,0,0
763,575,0,0,0,0,0,0,0,0,0,-1,1987,449,0,0
770,575,0,0,0,0,0,0,0,0,0,-1,1994,449,0,0
777,575,0,0,0,0,0,0,0,0,0,-1,2001,449,0,0
784,575,0,0,0,0,0,0,0,0,0,-1,2008,449,0,0
791,575,0,0,0,0,0,0,0,0,0,-1,2015,449,0,0
798,575,0,0,0,0,0,0,0,0,0,-1,2022,449,0,0
805,575,0,0,0,0,0,0,0,0,0,-1,2029,449,0,0
812,575,0,0,0,0,0,0,0,0,0,-1,2036,449,0,0
-700,568,0,0,0,0,0,0,0,0,0,-1,524,456,0,0
-693,568,0,0,0,0,0,0,0,0,0,-1,531,456,0,0
-686,568,0,0,0,0,0,0,0,0,0,-1,538,456,0,0
-679,568,0,0,0,0,0,0,0,0,0,-1,545,456,0,0
-672,568,0,0,0,0,0,0,0,0,0,-1,552,456,0,0
-665,568,0,0,0,0,0,0,0,0,0,-1,559,456,0,0
-658,568,0,0,0,0,0,0,0,0,0,-1,566,456,0,0
-651,568,0,0,0,0,0,0,0,0,0,-1,573,456,0,0
-644,568,0,0,0,0,0,0,0,0,0,-1,580,456,0,0
-637,568,0,0,0,0,0,0,0,0,0,-1,587,456,0,0
-630,568,0,0,0,0,0,0,0,0,0,-1,594,456,0,0
-623,568,0,0,0,0,0,0,0,0,0,-1,601,456,0,0
-616,568,0,0,0,0,0,0,0,0,0,-1,608,456,0,0
-609,568,0,0,0,0,0,0,0,0,0,-1,615,456,0,0
-602,568,0,0,0,0,0,0,0,0,0,-1,622,456,0,0
-595,568,0,0,0,0,0,0,0,0,0,-1,629,456,0,0
-588,568,0,0,0,0,0,0,0,0,0,-1,636,456,0,0
-581,568,0,0,0,0,0,0,0,0,0,-1,643,456,0,0
-574,568,0,0,0,0,0,0,0,0,0,-1,650,456,0,0
-567,568,0,0,0,0,0,0,0,0,0,-1,657,456,0,0
-560,568,0,0,0,0,0,0,0,0,0,-1,664,456,0,0
-553,568,0,0,0,0,0,0,0,0,0,-1,671,456,0,0
-546,568,0,0,0,0,0,0,0,0,0,-1,678,456,0,0
-539,568,0,0,0,0,0,0,0,0,0,-1,685,456,0,0
-532,568,0,0,0,0,0,0,0,0,0,-1,692,456,0,0
-525,568,0,0,0,0,0,0,0,0,0,-1,699,456,0,0
-518,568,0,0,0,0,0,0,0,0,0,-1,706,456,0,0
-511,568,0,0,0,0,0,0,0,0,0,-1,713,456,0,0
-504,568,0,0,0,0,0,0,0,0,0,-1,720,456,0,0
-497,568,0,0,0,0,0,0,0,0,0,-1,727,456,0,0
-490,568,0,0,0,0,0,0,0,0,0,-1,734,456,0,0
-483,568,0,0,0,0,0,0,0,0,0,-1,741,456,0,0
-476,568,0,0,0,0,0,0,0,0,0,-1,748,456,0,0
-469,568,0,0,0,0,0,0,0,0,0,-1,755,456,0,0
-462,568,0,0,0,0,0,0,0,0,0,-1,762,456,0,0
-455,568,0,0,0,0,0,0,0,0,0,-1,769,456,0,0
-448,568,0,0,0,0,0,0,0,0,0,-1,776,456,0,0
-441,568,0,0,0,0,0,0,0,0,0,-1,783,456,0,0
-434,568,0,0,0,0,0,0,0,0,0,-1,790,456,0,0
-427,568,0,0,0,0,0,0,0,0,0,-1,797,456,0,0
-420,568,0,0,0,0,0,0,0,0,0,-1,804,456,0,0
-413,568,0,0,0,0,0,0,0,0,0,-1,811,456,0,0
-406,568,0,0,0,0,0,0,0,0,0,-1,818,456,0,0
-399,568,0,0,0,0,0,0,0,0,0,-1,825,456,0,0
-392,568,0,0,0,0,0,0,0,0,0,-1,832,456,0,0
-385,568,0,0,0,0,0,0,0,0,0,-1,839,456,0,0
-378,568,0.321777,-7.29929,0,0,0,0,0,0,0,-1,846,456,0.321806,7.29927
-371,568,1.09595,-7.46707,0,0,0,0,0,0,0,-1,853,456,1.09597,7.46707
-364,568,1.87787,-7.61115,0,0,0,0,0,0,0,-1,860,456,1.87784,7.61116
-357,568,2.14166,-7.67645,0,0,0,0,0,0,0,-1,867,456,2.14167,7.67646
-350,568,2.40472,-8.64417,0,0,0,0,0,0,0,-1,874,456,2.4047,8.64415
-343,568,2.67731,-8.79678,0,0,0,0,0,0,0,-1,881,456,2.67729,8.79678
-336,568,2.13269,-9.77277,0,0,0,0,0,0,0,-1,888,456,2.1327,9.77278
-329,568,1.53821,-10.0574,0,0,0,0,0,0,0,-1,895,456,1.53819,10.0574
-322,568,1.50006,-10.2621,0.0121472,-0.00345729,-0.00414514,0.01318,-0.00449004,-0.244177,0.0106051,0.0446526,902,456,1.50006,10.2621
-315,568,1.55475,-10.3796,0.00959948,-0.0029703,-0.00365219,0.0105836,-0.00395441,-0.263206,0.00867952,0.0385191,909,456,1.55474,10.3796
-308,568,1.55676,-10.718,0.00748745,-0.00236385,-0.00332277,0.00850342,-0.00337981,-0.296732,0.00707016,0.0251294,916,456,1.55673,10.718
-301,568,1.5506,-10.9693,0.00579026,-0.0019914,-0.0029269,0.00676823,-0.00296937,-0.322471,0.00576285,0.0141707,923,456,1.5506,10.9693
-294,568,1.52441,-11.188,0.00440687,-0.00182834,-0.00237697,0.00520965,-0.00263113,-0.325706,0.00460775,0.0111659,930,456,1.5244,11.1879
-287,568,1.51672,-11.4659,0.00296425,-0.00131394,-0.00170283,0.00355927,-0.00190895,-0.336165,0.00320465,0.0104286,937,456,1.51672,11.4659
-280,568,1.51068,-11.7319,0.00198546,-0.00108115,-0.0013465,0.00249276,-0.00158845,-0.36031,0.00237549,0.0104194,944,456,1.51066,11.7319
-273,568,1.49542,-11.9649,0.00141743,-0.000826307,-0.000972377,0.00178019,-0.00118906,-0.357068,0.00172558,0.0111868,951,456,1.4954,11.9649
-266,568,1.46606,-12.2078,0.000805672,-0.000558231,-0.000712752,0.00111017,-0.000862724,-0.403739,0.00114203,0.0113325,958,456,1.46605,12.2078
-259,568,1.46771,-12.4612,0.000488723,-0.000506426,-0.00044341,0.000657626,-0.000675329,-0.36395,0.000769604,0.0129473,965,456,1.46773,12.4612
-252,568,1.44531,-12.6897,0.000264401,-0.000579789,-1.3416e-05,0.000264615,-0.000580002,-0.0158868,0.000498843,0.0117963,972,456,1.4453,12.6897
-245,568,1.44281,-12.8966,6.21458e-05,-0.000634325,0.000423869,0.000262484,-0.000834662,0.441522,0.000661528,0.0129735,979,456,1.4428,12.8966
-238,568,1.46075,-13.116,-7.56569e-05,-0.000765094,0.000923268,0.000565147,-0.0014059,0.606729,0.00117198,0.0121312,986,456,1.46076,13.116
-231,568,1.42383,-13.3047,-0.00025486,-0.00109801,0.00138542,0.000771707,-0.00212458,0.637702,0.00173191,0.0111188,993,456,1.42383,13.3047
-224,568,1.40649,-13.5194,-0.000333029,-0.00153938,0.0018685,0.00102724,-0.00289965,0.629272,0.00235153,0.0129953,1000,456,1.40651,13.5194
-217,568,1.43652,-13.7565,-0.000381365,-0.00196241,0.00242447,0.00137821,-0.00372198,0.627803,0.00304648,0.0110324,1007,456,1.43655,13.7565
-210,568,1.46515,-13.9833,-0.000424694,-0.00241844,0.00296485,0.00170638,-0.00454952,0.62322,0.00373411,0.0104241,1014,456,1.46518,13.9833
-203,568,1.47827,-14.1836,-0.000482198,-0.00291842,0.00355593,0.00205847,-0.00545909,0.620383,0.00448585,0.00972784,1021,456,1.47825,14.1836
-196,568,1.48828,-14.3561,-0.000657279,-0.00337519,0.00418369,0.00238264,-0.0064151,0.628363,0.00525422,0.0130929,1028,456,1.48823,14.3561
-189,568,1.50232,-14.5394,-0.00101809,-0.00378042,0.00473712,0.00253511,-0.00733361,0.64355,0.00591796,0.0132567,1035,456,1.50238,14.5394
-182,568,1.51001,-14.7305,-0.00142534,-0.00378024,0.00535503,0.00288016,-0.00808574,0.677182,0.00656465,0.0136914,1042,456,1.51,14.7305
-175,568,1.53296,-14.913,-0.00178684,-0.0039997,0.00586941,0.00307951,-0.00886606,0.692237,0.00716142,0.0117444,1049,456,1.5329,14.913
-168,568,1.51343,-15.0757,-0.00230113,-0.004233,0.00626062,0.00306763,-0.00960177,0.708858,0.00763207,0.0158005,1056,456,1.51344,15.0757
-161,568,1.47632,-15.2329,-0.00304301,-0.00443333,0.00660754,0.00290584,-0.0103822,0.732988,0.00806646,0.0268248,1063,456,1.47629,15.2329
-154,568,1.57629,-15.5364,-0.00357569,-0.00467332,0.006903,0.00280027,-0.0110493,0.74573,0.00845561,0.0363776,1070,456,1.57634,15.5364
-147,568,1.53735,-15.6395,-0.00388564,-0.00499989,0.00687069,0.00245048,-0.011336,0.744943,0.00849283,0.0418141,1077,456,1.53735,15.6395
-140,568,1.39587,-15.7527,-0.00449675,-0.00535656,0.00664163,0.00172887,-0.0115822,0.753079,0.00835757,0.0436296,1084,456,1.39588,15.7526
-133,568,1.1084,-16.0087,-0.00514817,-0.00534023,0.0062408,0.000997343,-0.0114857,0.777705,0.00801033,0.0468232,1091,456,1.10838,16.0087
-126,568,1.60425,-15.5907,0,0,0,0,0,0,0,-1,1098,456,1.60421,15.5907
-119,568,1.62964,-15.6684,0,0,0,0,0,0,0,-1,1105,456,1.62967,15.6684
-112,568,1.65466,-15.9073,0,0,0,0,0,0,0,-1,1112,456,1.65468,15.9073
-105,568,0.272095,-16.297,0,0,0,0,0,0,0,-1,1119,456,0.272141,16.297
-98,568,1.58618,-14.7874,0,0,0,0,0,0,0,-1,1126,456,1.58617,14.7874
-91,568,1.11621,-11.1853,0,0,0,0,0,0,0,-1,1133,456,1.11626,11.1853
-84,568,0.461792,-9.7959,0,0,0,0,0,0,0,-1,1140,456,0.461793,9.7959
-77,568,-1.13806,-8.57822,0,0,0,0,0,0,0,-1,1147,456,-1.13807,8.57821
-70,568,-4.09766,-1.42911,0,0,0,0,0,0,0,-1,1154,456,-4.09767,1.4291
-63,568,-5.92273,-3.70752,0,0,0,0,0,0,0,-1,1161,456,-5.92272,3.70751
-56,568,-5.24158,-6.01385,0,0,0,0,0,0,0,-1,1168,456,-5.24161,6.01386
-49,568,-5.24365,-8.33557,0,0,0,0,0,0,0,-1,1175,456,-5.24371,8.33557
-42,568,-0.664795,0.521973,0,0,0,0,0,0,0,-1,1182,456,-0.664829,-0.521984
-35,568,-0.153076,-1.67731,0,0,0,0,0,0,0,-1,1189,456,-0.153068,1.67731
-28,568,1.25439,-4.48798,0,0,0,0,0,0,0,-1,1196,456,1.2544,4.48797
-21,568,4.7594,-17.5627,0,0,0,0,0,0,0,-1,1203,456,4.75942,17.5627
-14,568,4.81116,-18.0533,-0.0376195,-0.00867391,-0.00363831,-0.0082236,-0.0380698,-1.44765,0.0231312,0.0446412,1210,456,4.81112,18.0533
-7,568,2.50842,-17.8936,-0.0355861,-0.00995402,-0.000472898,-0.0099453,-0.0355948,-1.55236,0.0212069,0.0468094,1217,456,2.50841,17.8936
0,568,2.43738,-17.7377,-0.0316807,-0.0095258,0.00291489,-0.00914871,-0.0320578,1.44214,0.0190684,0.0493518,1224,456,2.43733,17.7377
7,568,2.61267,-17.4846,-0.026189,-0.00532857,0.0073049,-0.00302493,-0.0284926,1.26531,0.0180714,0.0469182,1231,456,2.61273,17.4845
14,568,2.42236,-17.4305,-0.0217133,-0.000329142,0.0111892,0.00445516,-0.0264976,1.16674,0.0193221,0.0450143,1238,456,2.42242,17.4305
21,568,2.17126,-17.4324,-0.0193409,0.0063496,0.0145767,0.0129332,-0.0259245,1.14657,0.0228487,0.0422066,1245,456,2.17122,17.4324
28,568,2.01831,-17.3727,-0.0174335,0.0130949,0.0171022,0.0207541,-0.0250927,1.14973,0.0265091,0.0444887,1252,456,2.01827,17.3726
35,568,1.80823,-17.3197,-0.0119546,0.0266246,0.0137896,0.0310467,-0.0163766,1.26048,0.0278131,0.0436667,1259,456,1.80825,17.3197
42,568,1.5874,-17.5143,0,0,0,0,0,0,0,-1,1266,456,1.58735,17.5143
49,568,1.25598,-18.3745,0,0,0,0,0,0,0,-1,1273,456,1.25598,18.3745
56,568,0.993896,-18.8081,0,0,0,0,0,0,0,-1,1280,456,0.993906,18.8081
63,568,1.5553,-18.7909,0,0,0,0,0,0,0,-1,1287,456,1.55535,18.7909
70,568,7.40967,-19.8033,0,0,0,0,0,0,0,-1,1294,456,7.40971,19.8032
77,568,7.33154,-19.9962,0,0,0,0,0,0,0,-1,1301,456,7.33154,19.9962
84,568,7.26392,-20.2,-0.00388967,0.136217,-0.0227298,0.139812,-0.00748493,-1.41392,0.0958004,0.0484195,1308,456,7.2639,20.2
91,568,7.35718,-20.4313,-0.00667887,0.141237,-0.0259057,0.145643,-0.0110847,-1.40234,0.100993,0.044657,1315,456,7.35714,20.4313
98,568,7.26672,-20.4671,-0.0144582,0.137921,-0.0264271,0.142374,-0.0189113,-1.40386,0.101807,0.0440104,1322,456,7.2667,20.4671
105,568,7.43298,-20.0709,-0.0252599,0.127845,-0.0252459,0.131901,-0.0293153,-1.41152,0.0991606,0.0452998,1329,456,7.43301,20.0709
112,568,5.76709,-19.2031,-0.0363002,0.113588,-0.0197227,0.11614,-0.0388519,-1.44213,0.0931191,0.0453652,1336,456,5.76705,19.2031
119,568,4.49023,-18.7258,-0.0456263,0.0979134,-0.0147983,0.0994232,-0.0471361,-1.46913,0.0863924,0.0442805,1343,456,4.49022,18.7258
126,568,3.87195,-19.1312,0,0,0,0,0,0,0,-1,1350,456,3.87195,19.1312
133,568,2.93359,-18.4202,0,0,0,0,0,0,0,-1,1357,456,2.93361,18.4202
140,568,4.80847,-15.2927,-0.0755783,0.0274506,0.00201746,0.0274901,-0.0756178,1.55122,0.0616531,0.0499904,1364,456,4.80843,15.2927
147,568,3.32471,-15.353,-0.0818611,0.00597452,0.00407531,0.00616319,-0.0820497,1.52453,0.0568657,0.0478133,1371,456,3.32471,15.353
154,568,1.77087,-15.3516,-0.084891,-0.00925362,0.00405863,-0.00903646,-0.0851082,1.51734,0.0539794,0.0458607,1378,456,1.77089,15.3516
161,568,0.19458,-15.4817,0,0,0,0,0,0,0,-1,1385,456,0.194566,15.4817
168,568,-0.458252,-13.0519,0,0,0,0,0,0,0,-1,1392,456,-0.458298,13.0519
175,568,10.5151,0.747498,0,0,0,0,0,0,0,-1,1399,456,10.5152,-0.747501
182,568,6.35095,-3.63361,0,0,0,0,0,0,0,-1,1406,456,6.35093,3.63359
189,568,6.17493,-1.70911,0,0,0,0,0,0,0,-1,1413,456,6.17497,1.70911
196,568,6.04724,0.200836,0,0,0,0,0,0,0,-1,1420,456,6.04724,-0.200835
203,568,5.9281,2.08649,0,0,0,0,0,0,0,-1,1427,456,5.92812,-2.08648
210,568,1.46216,-2.50446,0,0,0,0,0,0,0,-1,1434,456,1.46219,2.50446
217,568,2.62366,-7.86703,0,0,0,0,0,0,0,-1,1441,456,2.62365,7.86704
224,568,3.43494,-12.1555,0,0,0,0,0,0,0,-1,1448,456,3.43492,12.1555
231,568,4.38245,-9.3205,0,0,0,0,0,0,0,-1,1455,456,4.38244,9.32048
238,568,3.88123,-9.43616,0,0,0,0,0,0,0,-1,1462,456,3.88117,9.43617
245,568,3.34387,-10.6774,0,0,0,0,0,0,0,-1,1469,456,3.34389,10.6774
252,568,3.56946,-9.28928,0,0,0,0,0,0,0,-1,1476,456,3.56948,9.28928
259,568,3.38843,-8.73068,0,0,0,0,0,0,0,-1,1483,456,3.38842,8.73068
266,568,3.104,-9.16876,0,0,0,0,0,0,0,-1,1490,456,3.10397,9.16876
273,568,3.77869,-13.1147,0,0,0,0,0,0,0,-1,1497,456,3.77869,13.1147
280,568,4.16052,-14.5911,0,0,0,0,0,0,0,-1,1504,456,4.16053,14.5911
287,568,4.54382,-14.5949,0,0,0,0,0,0,0,-1,1511,456,4.54387,14.5949
294,568,4.62756,-14.294,0.00232879,0.00178193,-0.00179325,0.00386933,0.000241387,-0.709743,0.00250297,0.0282401,1518,456,4.62751,14.294
301,568,4.59656,-14.0917,0.0018867,0.000806967,-0.00206813,0.00348427,-0.000790601,-0.657727,0.00262635,0.0202924,1525,456,4.59662,14.0917
308,568,4.61047,-13.8888,0.00141702,3.26497e-05,-0.00230077,0.00312747,-0.0016778,-0.63928,0.00281609,0.01328,1532,456,4.61045,13.8888
315,568,4.61462,-13.6885,0.0011019,-0.000369251,-0.00237886,0.00285631,-0.00212367,-0.635454,0.00288555,0.00835227,1539,456,4.61465,13.6885
322,568,4.62634,-13.4813,0.000764266,-0.000521995,-0.00228617,0.00249604,-0.00225377,-0.648285,0.00274349,0.00993213,1546,456,4.62635,13.4813
329,568,4.64246,-13.2637,0.000513557,-0.000478751,-0.00202711,0.00210435,-0.00206954,-0.665378,0.00240982,0.0105604,1553,456,4.64244,13.2637
336,568,4.64856,-13.0297,0.000321698,-0.000349543,-0.0017226,0.00174107,-0.00176891,-0.689187,0.00202651,0.0109789,1560,456,4.64857,13.0297
343,568,4.67664,-12.8036,0.000123196,-0.000123947,-0.00140846,0.00141349,-0.00141424,-0.741643,0.0016326,0.0115457,1567,456,4.67659,12.8036
350,568,4.68274,-12.5757,3.8574e-05,0.000165543,-0.00100403,0.0011081,-0.000903981,-0.816971,0.00116367,0.0105672,1574,456,4.68273,12.5757
357,568,4.66663,-12.3275,-1.66516e-05,0.000542167,-0.000576413,0.000903321,-0.000377806,-1.01108,0.000760119,0.00982696,1581,456,4.66666,12.3275
364,568,4.64844,-12.0935,-8.95895e-05,0.00096803,-0.000157952,0.000991116,-0.000112675,-1.42567,0.000701326,0.0123197,1588,456,4.64838,12.0935
371,568,4.63831,-11.8327,-0.000137171,0.00135375,0.000223602,0.00138656,-0.000169984,1.42509,0.00098593,0.0222132,1595,456,4.63832,11.8327
378,568,4.62415,-11.5712,-0.000205832,0.00171224,0.000503529,0.00183638,-0.000329982,1.32906,0.00134778,0.0190422,1602,456,4.62415,11.5712
385,568,4.63635,-11.3191,-0.000352286,0.00201931,0.000640128,0.00218106,-0.000514035,1.3233,0.00165225,0.00842368,1609,456,4.63635,11.3191
392,568,4.62988,-11.0619,-0.000426999,0.00217452,0.000773375,0.00238706,-0.000639542,1.30259,0.00184194,0.00877813,1616,456,4.62994,11.0619
399,568,4.60986,-10.8167,-0.000313147,0.00218824,0.000978111,0.0025253,-0.000650199,1.23895,0.00193699,0.0156841,1623,456,4.60991,10.8167
406,568,4.63464,-10.5462,-0.000390011,0.00219264,0.00109301,0.00259312,-0.000790488,1.21959,0.00204385,0.0151518,1630,456,4.6347,10.5462
413,568,4.6283,-10.2575,-0.000503724,0.00200186,0.00108888,0.00240893,-0.000910793,1.21304,0.00198063,0.0120796,1637,456,4.62834,10.2575
420,568,4.6134,-9.97534,-0.000438957,0.000916493,0.00108146,0.00151504,-0.0010375,1.0653,0.00148228,0.0107817,1644,456,4.61343,9.97535
427,568,4.59937,-9.6868,-3.61779e-05,-0.00050439,0.00130627,0.0010568,-0.00159736,0.696731,0.00154294,0.0124153,1651,456,4.59937,9.68681
434,568,4.59338,-9.42996,0.000321717,-0.00201357,0.00141392,0.000987804,-0.00267965,0.440255,0.00219122,0.0161527,1658,456,4.59334,9.42995
441,568,4.55969,-9.19766,0.000858389,-0.00395348,0.00155841,0.00131901,-0.0044141,0.287391,0.00346708,0.0245661,1665,456,4.55974,9.19765
448,568,4.82166,-8.8508,0.00151454,-0.00628427,0.00176499,0.00189538,-0.00666511,0.212519,0.00519184,0.0425478,1672,456,4.82168,8.8508
455,568,5.03113,-8.52753,0,0,0,0,0,0,0,-1,1679,456,5.0311,8.52753
462,568,4.23218,-8.76318,0,0,0,0,0,0,0,-1,1686,456,4.23213,8.76318
469,568,4.25586,-8.34467,0.0044254,-0.0164166,0.00273638,0.00477868,-0.0167699,0.128393,0.0130674,0.0483355,1693,456,4.2558,8.34468
476,568,4.24487,-7.89059,0.00561846,-0.0202757,0.00305179,0.00597327,-0.0206305,0.115743,0.016118,0.0467408,1700,456,4.24487,7.8906
483,568,4.54517,-7.00095,0,0,0,0,0,0,0,-1,1707,456,4.54521,7.00095
490,568,4.55884,-6.09296,0,0,0,0,0,0,0,-1,1714,456,4.5588,6.09297
497,568,6.58289,-3.47745,0,0,0,0,0,0,0,-1,1721,456,6.58294,3.47744
504,568,0,0,0,0,0,0,0,0,0,-1,1728,456,0,0
511,568,0,0,0,0,0,0,0,0,0,-1,1735,456,0,0
518,568,0,0,0,0,0,0,0,0,0,-1,1742,456,0,0
525,568,0,0,0,0,0,0,0,0,0,-1,1749,456,0,0
532,568,0,0,0,0,0,0,0,0,0,-1,1756,456,0,0
539,568,0,0,0,0,0,0,0,0,0,-1,1763,456,0,0
546,568,0,0,0,0,0,0,0,0,0,-1,1770,456,0,0
553,568,0,0,0,0,0,0,0,0,0,-1,1777,456,0,0
560,568,0,0,0,0,0,0,0,0,0,-1,1784,456,0,0
567,568,0,0,0,0,0,0,0,0,0,-1,1791,456,0,0
574,568,0,0,0,0,0,0,0,0,0,-1,1798,456,0,0
581,568,0,0,0,0,0,0,0,0,0,-1,1805,456,0,0
588,568,0,0,0,0,0,0,0,0,0,-1,1812,456,0,0
595,568,0,0,0,0,0,0,0,0,0,-1,1819,456,0,0
602,568,0,0,0,0,0,0,0,0,0,-1,1826,456,0,0
609,568,0,0,0,0,0,0,0,0,0,-1,1833,456,0,0
616,568,0,0,0,0,0,0,0,0,0,-1,1840,456,0,0
623,568,0,0,0,0,0,0,0,0,0,-1,1847,456,0,0
630,568,0,0,0,0,0,0,0,0,0,-1,1854,456,0,0
637,568,0,0,0,0,0,0,0,0,0,-1,1861,456,0,0
644,568,0,0,0,0,0,0,0,0,0,-1,1868,456,0,0
651,568,0,0,0,0,0,0,0,0,0,-1,1875,456,0,0
658,568,0,0,0,0,0,0,0,0,0,-1,1882,456,0,0
665,568,0,0,0,0,0,0,0,0,0,-1,1889,456,0,0
672,568,0,0,0,0,0,0,0,0,0,-1,1896,456,0,0
679,568,0,0,0,0,0,0,0,0,0,-1,1903,456,0,0
686,568,0,0,0,0,0,0,0,0,0,-1,1910,456,0,0
693,568,0,0,0,0,0,0,0,0,0,-1,1917,456,0,0
700,568,0,0,0,0,0,0,0,0,0,-1,1924,456,0,0
707,568,0,0,0,0,0,0,0,0,0,-1,1931,456,0,0
714,568,0,0,0,0,0,0,0,0,0,-1,1938,456,0,0
721,568,0,0,0,0,0,0,0,0,0,-1,1945,456,0,0
728,568,0,0,0,0,0,0,0,0,0,-1,1952,456,0,0
735,568,0,0,0,0,0,0,0,0,0,-1,1959,456,0,0
742,568,0,0,0,0,0,0,0,0,0,-1,1966,456,0,0
749,568,0,0,0,0,0,0,0,0,0,-1,1973,456,0,0
756,568,0,0,0,0,0,0,0,0,0,-1,1980,456,0,0
763,568,0,0,0,0,0,0,0,0,0,-1,1987,456,0,0
770,568,0,0,0,0,0,0,0,0,0,-1,1994,456,0,0
777,568,0,0,0,0,0,0,0,0,0,-1,2001,456,0,0
784,568,0,0,0,0,0,0,0,0,0,-1,2008,456,0,0
791,568,0,0,0,0,0,0,0,0,0,-1,2015,456,0,0
798,568,0,0,0,0,0,0,0,0,0,-1,2022,456,0,0
805,568,0,0,0,0,0,0,0,0,0,-1,2029,456,0,0
812,568,0,0,0,0,0,0,0,0,0,-1,2036,456,0,0
-700,561,0,0,0,0,0,0,0,0,0,-1,524,463,0,0
-693,561,0,0,0,0,0,0,0,0,0,-1,531,463,0,0
-686,561,0,0,0,0,0,0,0,0,0,-1,538,463,0,0
-679,561,0,0,0,0,0,0,0,0,0,-1,545,463,0,0
-672,561,0,0,0,0,0,0,0,0,0,-1,552,463,0,0
-665,561,0,0,0,0,0,0,0,0,0,-1,559,463,0,0
-658,561,0,0,0,0,0,0,0,0,0,-1,566,463,0,0
-651,561,0,0,0,0,0,0,0,0,0,-1,573,463,0,0
-644,561,0,0,0,0,0,0,0,0,0,-1,580,463,0,0
-637,561,0,0,0,0,0,0,0,0,0,-1,587,463,0,0
-630,561,0,0,0,0,0,0,0,0,0,-1,594,463,0,0
-623,561,0,0,0,0,0,0,0,0,0,-1,601,463,0,0
-616,561,0,0,0,0,0,0,0,0,0,-1,608,463,0,0
-609,561,0,0,0,0,0,0,0,0,0,-1,615,463,0,0
-602,561,0,0,0,0,0,0,0,0,0,-1,622,463,0,0
-595,561,0,0,0,0,0,0,0,0,0,-1,629,463,0,0
-588,561,0,0,0,0,0,0,0,0,0,-1,636,463,0,0
-581,561,0,0,0,0,0,0,0,0,0,-1,643,463,0,0
-574,561,0,0,0,0,0,0,0,0,0,-1,650,463,0,0
-567,561,0,0,0,0,0,0,0,0,0,-1,657,463,0,0
-560,561,0,0,0,0,0,0,0,0,0,-1,664,463,0,0
-553,561,0,0,0,0,0,0,0,0,0,-1,671,463,0,0
-546,561,0,0,0,0,0,0,0,0,0,-1,678,463,0,0
-539,561,0,0,0,0,0,0,0,0,0,-1,685,463,0,0
-532,561,0,0,0,0,0,0,0,0,0,-1,692,463,0,0
-525,561,0,0,0,0,0,0,0,0,0,-1,699,463,0,0
-518,561,0,0,0,0,0,0,0,0,0,-1,706,463,0,0
-511,561,0,0,0,0,0,0,0,0,0,-1,713,463,0,0
-504,561,0,0,0,0,0,0,0,0,0,-1,720,463,0,0
-497,561,0,0,0,0,0,0,0,0,0,-1,727,463,0,0
-490,561,0,0,0,0,0,0,0,0,0,-1,734,463,0,0
-483,561,0,0,0,0,0,0,0,0,0,-1,741,463,0,0
-476,561,0,0,0,0,0,0,0,0,0,-1,748,463,0,0
-469,561,0,0,0,0,0,0,0,0,0,-1,755,463,0,0
-462,561,0,0,0,0,0,0,0,0,0,-1,762,463,0,0
-455,561,0,0,0,0,0,0,0,0,0,-1,769,463,0,0
-448,561,0,0,0,0,0,0,0,0,0,-1,776,463,0,0
-441,561,0,0,0,0,0,0,0,0,0,-1,783,463,0,0
-434,561,0,0,0,0,0,0,0,0,0,-1,790,463,0,0
-427,561,0,0,0,0,0,0,0,0,0,-1,797,463,0,0
-420,561,0,0,0,0,0,0,0,0,0,-1,804,463,0,0
-413,561,0,0,0,0,0,0,0,0,0,-1,811,463,0,0
-406,561,0,0,0,0,0,0,0,0,0,-1,818,463,0,0
-399,561,0,0,0,0,0,0,0,0,0,-1,825,463,0,0
-392,561,4.92407,-2.54578,0,0,0,0,0,0,0,-1,832,463,4.92408,2.54576
-385,561,5.55634,-1.02338,0,0,0,0,0,0,0,-1,839,463,5.55634,1.02338
-378,561,0.160522,-4.51785,0,0,0,0,0,0,0,-1,846,463,0.160542,4.51785
-371,561,1.06299,-7.56818,0,0,0,0,0,0,0,-1,853,463,1.06297,7.56817
-364,561,1.45264,-7.57684,0,0,0,0,0,0,0,-1,860,463,1.45264,7.57684
-357,561,1.29395,-8.94031,0,0,0,0,0,0,0,-1,867,463,1.29393,8.94031
-350,561,1.61902,-9.08127,0,0,0,0,0,0,0,-1,874,463,1.61905,9.08126
-343,561,1.02649,-9.31366,0,0,0,0,0,0,0,-1,881,463,1.02647,9.31366
-336,561,1.22357,-9.76913,0,0,0,0,0,0,0,-1,888,463,1.22357,9.76915
-329,561,1.23651,-9.94189,0.0112719,-0.00334614,-0.00411839,0.0123523,-0.00442658,-0.256563,0.0100411,0.0368169,895,463,1.23653,9.9419
-322,561,1.28217,-10.098,0.0091198,-0.00286436,-0.00355457,0.0100948,-0.00383934,-0.267707,0.00831071,0.0295808,902,463,1.28216,10.098
-315,561,1.31793,-10.3134,0.0072123,-0.00239728,-0.003071,0.00810988,-0.00329487,-0.284356,0.00677733,0.019372,909,463,1.31795,10.3134
-308,561,1.32764,-10.6336,0.00565568,-0.00189489,-0.00274206,0.00654641,-0.00278562,-0.314086,0.00553177,0.0144809,916,463,1.32764,10.6336
-301,561,1.30133,-10.9692,0.00438754,-0.00156316,-0.00236283,0.00521162,-0.00238724,-0.335577,0.00448708,0.0117602,923,463,1.30135,10.9692
-294,561,1.26843,-11.2067,0.00339035,-0.00136731,-0.00192121,0.00406927,-0.00204624,-0.339687,0.00359461,0.010139,930,463,1.26842,11.2067
-287,561,1.25903,-11.4573,0.00231027,-0.00100306,-0.00133435,0.00278082,-0.00147361,-0.339026,0.00249464,0.0084506,937,463,1.25903,11.4573
-280,561,1.25104,-11.7121,0.0016133,-0.000906742,-0.00104389,0.00198954,-0.00128299,-0.345932,0.00190402,0.0107742,944,463,1.25105,11.7121
-273,561,1.24213,-11.968,0.00121878,-0.000861343,-0.00073047,0.00144967,-0.00109223,-0.306145,0.0014724,0.0138198,951,463,1.24213,11.968
-266,561,1.22772,-12.2082,0.000825835,-0.000861019,-0.000496455,0.0009611,-0.000996283,-0.266003,0.00113016,0.00947542,958,463,1.22773,12.2081
-259,561,1.21844,-12.4446,0.00060187,-0.00103278,-0.000243605,0.000637401,-0.00106831,-0.144834,0.000995214,0.0106378,965,463,1.21843,12.4446
-252,561,1.18665,-12.6589,0.000369807,-0.00127818,0.000194545,0.000392462,-0.00130083,0.115927,0.00102344,0.014346,972,463,1.18663,12.6589
-245,561,1.19897,-12.9001,0.000156406,-0.00152701,0.000714008,0.000418455,-0.00178906,0.351748,0.00135392,0.016026,979,463,1.19897,12.9001
-238,561,1.23047,-13.1148,-1.0377e-05,-0.00188756,0.00137774,0.000718102,-0.00261604,0.486382,0.00202626,0.0126124,986,463,1.23048,13.1148
-231,561,1.19293,-13.3148,-0.000220469,-0.00245069,0.00202338,0.000974734,-0.00364589,0.53355,0.00281238,0.0106074,993,463,1.19294,13.3148
-224,561,1.20093,-13.54,-0.000393073,-0.00298903,0.00273051,0.00133226,-0.00471437,0.563526,0.00366854,0.0108771,1000,463,1.2009,13.54
-217,561,1.24365,-13.7585,-0.000546741,-0.00347783,0.00353056,0.00181036,-0.00583494,0.588669,0.00461337,0.0107746,1007,463,1.24366,13.7585
-210,561,1.26215,-13.9753,-0.000704148,-0.00394892,0.0043248,0.00229256,-0.00694562,0.605954,0.00555461,0.0113381,1014,463,1.26212,13.9752
-203,561,1.2771,-14.1866,-0.000879061,-0.0044,0.00515453,0.00280734,-0.0080864,0.62084,0.00653103,0.0130724,1021,463,1.27709,14.1866
-196,561,1.28503,-14.3611,-0.00115493,-0.00483089,0.00602918,0.0033102,-0.00929602,0.637449,0.00754675,0.0138984,1028,463,1.28508,14.3611
-189,561,1.28638,-14.5254,-0.00164887,-0.00519417,0.00679892,0.00360469,-0.0104477,0.657875,0.00842772,0.0167193,1035,463,1.28637,14.5254
-182,561,1.3374,-14.7244,-0.00224497,-0.00503078,0.00761506,0.00410353,-0.0113793,0.694941,0.00926216,0.0191707,1042,463,1.33743,14.7244
-175,561,1.33032,-14.9174,-0.00283114,-0.00512692,0.00833448,0.00443412,-0.0123922,0.716965,0.0100703,0.0272539,1049,463,1.33037,14.9173
-168,561,1.35388,-15.1085,-0.00362846,-0.00529678,0.00886727,0.0044438,-0.013369,0.7385,0.0107059,0.0399782,1056,463,1.35385,15.1085
-161,561,1.41943,-15.2631,-0.00473017,-0.00548335,0.00935017,0.00425099,-0.0144645,0.765271,0.011329,0.0443098,1063,463,1.41938,15.2631
-154,561,1.36536,-15.406,-0.00553574,-0.00570484,0.0097409,0.00412098,-0.0153616,0.781058,0.0118559,0.0447104,1070,463,1.36533,15.406
-147,561,1.20313,-15.5109,-0.00608989,-0.00616239,0.00960746,0.00348138,-0.0157337,0.783512,0.0118217,0.0447207,1077,463,1.20315,15.5109
-140,561,1.01746,-15.6192,-0.00726624,-0.0066742,0.00916969,0.00220424,-0.0161447,0.801534,0.0115681,0.0445056,1084,463,1.01746,15.6192
-133,561,0.892578,-15.745,0,0,0,0,0,0,0,-1,1091,463,0.892545,15.745
-126,561,0.452637,-13.7199,0,0,0,0,0,0,0,-1,1098,463,0.452665,13.7199
-119,561,1.01758,-14.6627,0,0,0,0,0,0,0,-1,1105,463,1.01758,14.6626
-112,561,1.58252,-15.6054,0,0,0,0,0,0,0,-1,1112,463,1.58249,15.6054
-105,561,0.530518,-13.5379,0,0,0,0,0,0,0,-1,1119,463,0.530477,13.5379
-98,561,1.5387,-7.54352,0,0,0,0,0,0,0,-1,1126,463,1.53871,7.54351
-91,561,1.29553,-6.57968,0,0,0,0,0,0,0,-1,1133,463,1.29549,6.5797
-84,561,1.23364,-5.84555,0,0,0,0,0,0,0,-1,1140,463,1.23363,5.84556
-77,561,-2.36023,1.00204,0,0,0,0,0,0,0,-1,1147,463,-2.3602,-1.00205
-70,561,-3.90015,-1.41541,0,0,0,0,0,0,0,-1,1154,463,-3.90009,1.4154
-63,561,-6.95691,-4.02756,0,0,0,0,0,0,0,-1,1161,463,-6.95696,4.02756
-56,561,-5.37988,-6.66855,0,0,0,0,0,0,0,-1,1168,463,-5.37988,6.66854
-49,561,-5.7439,-9.11029,0,0,0,0,0,0,0,-1,1175,463,-5.74387,9.1103
-42,561,-1.72644,-5.63065,0,0,0,0,0,0,0,-1,1182,463,-1.72648,5.63064
-35,561,-1.65674,-4.87994,0,0,0,0,0,0,0,-1,1189,463,-1.6567,4.87993
-28,561,-1.91418,-3.86896,0,0,0,0,0,0,0,-1,1196,463,-1.91414,3.86895
-21,561,3.07019,-17.9616,0,0,0,0,0,0,0,-1,1203,463,3.07014,17.9616
-14,561,5.46741,-18.7685,0,0,0,0,0,0,0,-1,1210,463,5.46743,18.7685
-7,561,2.4845,-17.9667,0,0,0,0,0,0,0,-1,1217,463,2.48448,17.9667
0,561,2.12598,-17.522,0,0,0,0,0,0,0,-1,1224,463,2.12602,17.522
7,561,2.53394,-17.3628,0,0,0,0,0,0,0,-1,1231,463,2.53392,17.3628
14,561,2.22473,-17.452,0,0,0,0,0,0,0,-1,1238,463,2.22471,17.452
21,561,2.01367,-17.2916,-0.0278526,0.00716832,0.0115833,0.0106529,-0.0313371,1.27858,0.0252043,0.0449378,1245,463,2.01366,17.2916
28,561,1.75964,-16.8979,-0.0273991,0.0155042,0.01511,0.0202916,-0.0321865,1.26397,0.0305566,0.0465774,1252,463,1.75962,16.8979
35,561,1.54382,-17.5065,-0.0229592,0.0319634,0.0121235,0.0345205,-0.0255163,1.36292,0.034792,0.0412749,1259,463,1.54383,17.5065
42,561,1.33069,-18.0336,-0.0174709,0.05397,0.00575275,0.0544302,-0.0179311,1.49096,0.0435133,0.0459354,1266,463,1.33068,18.0336
49,561,1.0686,-18.5077,-0.0146481,0.0756581,0.00107665,0.0756709,-0.0146609,1.55888,0.0559779,0.0485908,1273,463,1.06863,18.5077
56,561,0.838867,-18.9636,0,0,0,0,0,0,0,-1,1280,463,0.838903,18.9636
63,561,0.44751,-18.9801,-0.0126809,0.120226,-0.0103254,0.121023,-0.0134783,-1.49372,0.0855298,0.0446681,1287,463,0.447549,18.9801
70,561,-0.102051,-18.8651,-0.0139201,0.135956,-0.0155916,0.137561,-0.0155249,-1.46823,0.0972959,0.0441291,1294,463,-0.10205,18.8651
77,561,8.20972,-21.5555,0,0,0,0,0,0,0,-1,1301,463,8.20975,21.5554
84,561,8.18921,-21.7542,-0.0130376,0.163182,-0.0232312,0.166193,-0.0160487,-1.4419,0.116514,0.048248,1308,463,8.18925,21.7542
91,561,8.16479,-21.9676,-0.0143421,0.17,-0.026971,0.173865,-0.0182072,-1.42846,0.122431,0.0463806,1315,463,8.16481,21.9676
98,561,7.9436,-21.8762,0,0,0,0,0,0,0,-1,1322,463,7.94356,21.8762
105,561,5.93713,-19.8428,0,0,0,0,0,0,0,-1,1329,463,5.93719,19.8428
112,561,5.27454,-19.4626,-0.0435543,0.139572,-0.0213608,0.14203,-0.046013,-1.4562,0.113186,0.0493412,1336,463,5.27451,19.4626
119,561,4.72766,-19.0377,-0.0539908,0.121186,-0.0167602,0.122775,-0.0555799,-1.47626,0.105381,0.0444191,1343,463,4.72766,19.0377
126,561,4.17041,-18.7441,-0.0658796,0.0960354,-0.0113198,0.096823,-0.0666672,-1.50133,0.0949248,0.0474528,1350,463,4.17041,18.7441
133,561,3.61475,-18.4198,0,0,0,0,0,0,0,-1,1357,463,3.6147,18.4198
140,561,4.9259,-14.714,0,0,0,0,0,0,0,-1,1364,463,4.92593,14.7139
147,561,3.22156,-14.7578,-0.0984472,0.00980917,0.00374367,0.00993847,-0.0985765,1.53627,0.0692685,0.0457076,1371,463,3.2216,14.7578
154,561,1.45642,-14.7593,-0.103128,-0.00969739,0.00357468,-0.00956082,-0.103264,1.53261,0.0658875,0.0460059,1378,463,1.45646,14.7593
161,561,-0.293091,-14.7668,0,0,0,0,0,0,0,-1,1385,463,-0.293046,14.7669
168,561,4.58069,-15.7031,0,0,0,0,0,0,0,-1,1392,463,4.58072,15.7031
175,561,10.4185,0.276398,0,0,0,0,0,0,0,-1,1399,463,10.4185,-0.276394
182,561,6.45703,-4.02127,0,0,0,0,0,0,0,-1,1406,463,6.45704,4.02127
189,561,6.50854,-2.08685,0,0,0,0,0,0,0,-1,1413,463,6.50851,2.08686
196,561,6.44775,-0.27182,0,0,0,0,0,0,0,-1,1420,463,6.44773,0.271814
203,561,6.18591,1.1301,0,0,0,0,0,0,0,-1,1427,463,6.18592,-1.13009
210,561,5.68713,2.68427,0,0,0,0,0,0,0,-1,1434,463,5.6871,-2.68425
217,561,3.61743,-7.33582,0,0,0,0,0,0,0,-1,1441,463,3.61738,7.33581
224,561,4.27466,-8.59171,0,0,0,0,0,0,0,-1,1448,463,4.27466,8.59171
231,561,4.93188,-9.8476,0,0,0,0,0,0,0,-1,1455,463,4.93193,9.84761
238,561,2.18018,-5.18359,0,0,0,0,0,0,0,-1,1462,463,2.18023,5.18359
245,561,3.07568,-3.50238,0,0,0,0,0,0,0,-1,1469,463,3.0757,3.50238
252,561,3.47412,-3.71109,0,0,0,0,0,0,0,-1,1476,463,3.47413,3.71109
259,561,3.42212,-3.2334,0,0,0,0,0,0,0,-1,1483,463,3.42214,3.2334
266,561,4.44373,-5.90027,0,0,0,0,0,0,0,-1,1490,463,4.44372,5.90026
273,561,2.59485,-3.65268,0,0,0,0,0,0,0,-1,1497,463,2.5948,3.65268
280,561,3.10767,-6.38235,0,0,0,0,0,0,0,-1,1504,463,3.10766,6.38235
287,561,4.66821,-14.0981,0,0,0,0,0,0,0,-1,1511,463,4.66826,14.0981
294,561,4.90002,-14.2571,0,0,0,0,0,0,0,-1,1518,463,4.90006,14.2571
301,561,4.82629,-14.0585,0.00210068,0.000458646,-0.00305701,0.004445,-0.00188568,-0.65421,0.00375326,0.0413042,1525,463,4.82635,14.0585
308,561,4.84766,-13.8545,0.0014636,-0.000540539,-0.00343284,0.00403763,-0.00311457,-0.643391,0.00414078,0.033604,1532,463,4.84769,13.8545
315,561,4.85901,-13.7126,0.00106333,-0.00105204,-0.00355958,0.00371904,-0.00370775,-0.640984,0.00428786,0.0227479,1539,463,4.85903,13.7125
322,561,4.86646,-13.538,0.000668766,-0.00127168,-0.00346817,0.00329987,-0.00390279,-0.649009,0.00416331,0.0233807,1546,463,4.86642,13.538
329,561,4.8573,-13.2491,0.000400452,-0.00125763,-0.00315917,0.00283755,-0.00369473,-0.65708,0.00378223,0.0158205,1553,463,4.85736,13.2492
336,561,4.89453,-13.0056,0.000198199,-0.00115546,-0.00280056,0.00240256,-0.00335982,-0.666833,0.00334218,0.0114723,1560,463,4.89449,13.0057
343,561,4.92371,-12.7896,-1.03165e-05,-0.000923884,-0.00242168,0.00199728,-0.00293148,-0.692182,0.00286261,0.0103965,1567,463,4.92376,12.7896
350,561,4.92334,-12.57,-7.78348e-05,-0.000706602,-0.00195808,0.00159094,-0.00237538,-0.705799,0.00230483,0.00932926,1574,463,4.92332,12.57
357,561,4.90283,-12.3254,-9.76868e-05,-0.000365127,-0.00145546,0.00123018,-0.00169299,-0.739589,0.00169473,0.00987447,1581,463,4.90283,12.3254
364,561,4.8938,-12.0937,-9.95341e-05,4.49604e-05,-0.000928481,0.000904001,-0.000958575,-0.824226,0.00107551,0.00980335,1588,463,4.8938,12.0937
371,561,4.8689,-11.8484,-7.56306e-05,0.000421581,-0.000458394,0.000694445,-0.000348494,-1.03387,0.000613084,0.0166421,1595,463,4.86894,11.8483
378,561,4.88635,-11.5723,-6.36977e-05,0.000775971,-9.11103e-05,0.000785743,-7.34701e-05,-1.46395,0.000549957,0.0120589,1602,463,4.88629,11.5723
385,561,4.90356,-11.3063,-0.000128235,0.00114681,0.000159341,0.00116642,-0.000147846,1.44834,0.00083129,0.00955877,1609,463,4.90357,11.3063
392,561,4.89038,-11.0341,-0.000156032,0.00134179,0.000402529,0.00144311,-0.000257355,1.3242,0.00105834,0.0118158,1616,463,4.89034,11.0341
399,561,4.87634,-10.7942,-5.53446e-05,0.00139445,0.000639391,0.00163615,-0.000297037,1.20939,0.00120207,0.0176373,1623,463,4.87638,10.7942
406,561,4.89929,-10.5454,-0.00010824,0.00143988,0.000782505,0.0017665,-0.000434854,1.17538,0.00134623,0.0183171,1630,463,4.89928,10.5454
413,561,4.89966,-10.2765,-0.000187597,0.00136913,0.000844346,0.00173915,-0.00055761,1.15778,0.00138329,0.0176265,1637,463,4.89965,10.2765
420,561,4.87134,-9.98843,-0.000154924,0.000600513,0.000880671,0.00118105,-0.000735461,0.987982,0.00111642,0.0133397,1644,463,4.87134,9.98842
427,561,4.87549,-9.68924,0.000125001,-0.0004033,0.00108728,0.000979757,-0.00125806,0.666234,0.00129533,0.0100542,1651,463,4.87554,9.68925
434,561,4.86719,-9.40244,0.000378205,-0.00150441,0.0011999,0.000961959,-0.00208816,0.452792,0.00180056,0.0116675,1658,463,4.86721,9.40243
441,561,4.85413,-9.11884,0.000774969,-0.00294239,0.00134315,0.00120949,-0.00337691,0.31288,0.00274475,0.0141766,1665,463,4.85408,9.11883
448,561,4.85498,-8.83209,0.0012547,-0.00465102,0.00152767,0.00162647,-0.00502279,0.238716,0.0040024,0.0197596,1672,463,4.85498,8.83209
455,561,4.91235,-8.47305,0.00182933,-0.00688997,0.00168757,0.00214456,-0.00720519,0.184663,0.00565551,0.0357443,1679,463,4.91232,8.47305
462,561,4.69421,-8.22253,0.00259863,-0.00928696,0.0019328,0.00290503,-0.00959337,0.157222,0.00755251,0.0376745,1686,463,4.69426,8.22254
469,561,4.72546,-7.91031,0.00360742,-0.0118495,0.00222709,0.00392191,-0.012164,0.140283,0.00968503,0.0266975,1693,463,4.72545,7.91031
476,561,4.61267,-7.55728,0.0046805,-0.0146595,0.00240234,0.00497445,-0.0149534,0.121751,0.0119765,0.0437318,1700,463,4.61261,7.55729
483,561,4.46216,-7.14163,0,0,0,0,0,0,0,-1,1707,463,4.46213,7.14163
490,561,6.13135,-2.58374,0,0,0,0,0,0,0,-1,1714,463,6.13139,2.58373
497,561,7.30652,-2.46649,0,0,0,0,0,0,0,-1,1721,463,7.30649,2.4665
504,561,6.45044,-2.35263,0,0,0,0,0,0,0,-1,1728,463,6.4504,2.35263
511,561,0,0,0,0,0,0,0,0,0,-1,1735,463,0,0
518,561,0,0,0,0,0,0,0,0,0,-1,1742,463,0,0
525,561,0,0,0,0,0,0,0,0,0,-1,1749,463,0,0
532,561,0,0,0,0,0,0,0,0,0,-1,1756,463,0,0
539,561,0,0,0,0,0,0,0,0,0,-1,1763,463,0,0
546,561,0,0,0,0,0,0,0,0,0,-1,1770,463,0,0
553,561,0,0,0,0,0,0,0,0,0,-1,1777,463,0,0
560,561,0,0,0,0,0,0,0,0,0,-1,1784,463,0,0
567,561,0,0,0,0,0,0,0,0,0,-1,1791,463,0,0
574,561,0,0,0,0,0,0,0,0,0,-1,1798,463,0,0
581,561,0,0,0,0,0,0,0,0,0,-1,1805,463,0,0
588,561,0,0,0,0,0,0,0,0,0,-1,1812,463,0,0
595,561,0,0,0,0,0,0,0,0,0,-1,1819,463,0,0
602,561,0,0,0,0,0,0,0,0,0,-1,1826,463,0,0
609,561,0,0,0,0,0,0,0,0,0,-1,1833,463,0,0
616,561,0,0,0,0,0,0,0,0,0,-1,1840,463,0,0
623,561,0,0,0,0,0,0,0,0,0,-1,1847,463,0,0
630,561,0,0,0,0,0,0,0,0,0,-1,1854,463,0,0
637,561,0,0,0,0,0,0,0,0,0,-1,1861,463,0,0
644,561,0,0,0,0,0,0,0,0,0,-1,1868,463,0,0
651,561,0,0,0,0,0,0,0,0,0,-1,1875,463,0,0
658,561,0,0,0,0,0,0,0,0,0,-1,1882,463,0,0
665,561,0,0,0,0,0,0,0,0,0,-1,1889,463,0,0
672,561,0,0,0,0,0,0,0,0,0,-1,1896,463,0,0
679,561,0,0,0,0,0,0,0,0,0,-1,1903,463,0,0
686,561,0,0,0,0,0,0,0,0,0,-1,1910,463,0,0
693,561,0,0,0,0,0,0,0,0,0,-1,1917,463,0,0
700,561,0,0,0,0,0,0,0,0,0,-1,1924,463,0,0
707,561,0,0,0,0,0,0,0,0,0,-1,1931,463,0,0
714,561,0,0,0,0,0,0,0,0,0,-1,1938,463,0,0
721,561,0,0,0,0,0,0,0,0,0,-1,1945,463,0,0
728,561,0,0,0,0,0,0,0,0,0,-1,1952,463,0,0
735,561,0,0,0,0,0,0,0,0,0,-1,1959,463,0,0
742,561,0,0,0,0,0,0,0,0,0,-1,1966,463,0,0
749,561,0,0,0,0,0,0,0,0,0,-1,1973,463,0,0
756,561,0,0,0,0,0,0,0,0,0,-1,1980,463,0,0
763,561,0,0,0,0,0,0,0,0,0,-1,1987,463,0,0
770,561,0,0,0,0,0,0,0,0,0,-1,1994,463,0,0
777,561,0,0,0,0,0,0,0,0,0,-1,2001,463,0,0
784,561,0,0,0,0,0,0,0,0,0,-1,2008,463,0,0
791,561,0,0,0,0,0,0,0,0,0,-1,2015,463,0,0
798,561,0,0,0,0,0,0,0,0,0,-1,2022,463,0,0
805,561,0,0,0,0,0,0,0,0,0,-1,2029,463,0,0
812,561,0,0,0,0,0,0,0,0,0,-1,2036,463,0,0
-700,554,0,0,0,0,0,0,0,0,0,-1,524,470,0,0
-693,554,0,0,0,0,0,0,0,0,0,-1,531,470,0,0
-686,554,0,0,0,0,0,0,0,0,0,-1,538,470,0,0
-679,554,0,0,0,0,0,0,0,0,0,-1,545,470,0,0
-672,554,0,0,0,0,0,0,0,0,0,-1,552,470,0,0
-665,554,0,0,0,0,0,0,0,0,0,-1,559,470,0,0
-658,554,0,0,0,0,0,0,0,0,0,-1,566,470,0,0
-651,554,0,0,0,0,0,0,0,0,0,-1,573,470,0,0
-644,554,0,0,0,0,0,0,0,0,0,-1,580,470,0,0
-637,554,0,0,0,0,0,0,0,0,0,-1,587,470,0,0
-630,554,0,0,0,0,0,0,0,0,0,-1,594,470,0,0
-623,554,0,0,0,0,0,0,0,0,0,-1,601,470,0,0
-616,554,0,0,0,0,0,0,0,0,0,-1,608,470,0,0
-609,554,0,0,0,0,0,0,0,0,0,-1,615,470,0,0
-602,554,0,0,0,0,0,0,0,0,0,-1,622,470,0,0
-595,554,0,0,0,0,0,0,0,0,0,-1,629,470,0,0
-588,554,0,0,0,0,0,0,0,0,0,-1,636,470,0,0
-581,554,0,0,0,0,0,0,0,0,0,-1,643,470,0,0
-574,554,0,0,0,0,0,0,0,0,0,-1,650,470,0,0
-567,554,0,0,0,0,0,0,0,0,0,-1,657,470,0,0
-560,554,0,0,0,0,0,0,0,0,0,-1,664,470,0,0
-553,554,0,0,0,0,0,0,0,0,0,-1,671,470,0,0
-546,554,0,0,0,0,0,0,0,0,0,-1,678,470,0,0
-539,554,0,0,0,0,0,0,0,0,0,-1,685,470,0,0
-532,554,0,0,0,0,0,0,0,0,0,-1,692,470,0,0
-525,554,0,0,0,0,0,0,0,0,0,-1,699,470,0,0
-518,554,0,0,0,0,0,0,0,0,0,-1,706,470,0,0
-511,554,0,0,0,0,0,0,0,0,0,-1,713,470,0,0
-504,554,0,0,0,0,0,0,0,0,0,-1,720,470,0,0
-497,554,0,0,0,0,0,0,0,0,0,-1,727,470,0,0
-490,554,0,0,0,0,0,0,0,0,0,-1,734,470,0,0
-483,554,0,0,0,0,0,0,0,0,0,-1,741,470,0,0
-476,554,0,0,0,0,0,0,0,0,0,-1,748,470,0,0
-469,554,0,0,0,0,0,0,0,0,0,-1,755,470,0,0
-462,554,0,0,0,0,0,0,0,0,0,-1,762,470,0,0
-455,554,0,0,0,0,0,0,0,0,0,-1,769,470,0,0
-448,554,0,0,0,0,0,0,0,0,0,-1,776,470,0,0
-441,554,0,0,0,0,0,0,0,0,0,-1,783,470,0,0
-434,554,0,0,0,0,0,0,0,0,0,-1,790,470,0,0
-427,554,0,0,0,0,0,0,0,0,0,-1,797,470,0,0
-420,554,0,0,0,0,0,0,0,0,0,-1,804,470,0,0
-413,554,0,0,0,0,0,0,0,0,0,-1,811,470,0,0
-406,554,0,0,0,0,0,0,0,0,0,-1,818,470,0,0
-399,554,-1.32275,-3.95142,0,0,0,0,0,0,0,-1,825,470,-1.32275,3.95141
-392,554,-1.35632,-3.7406,0,0,0,0,0,0,0,-1,832,470,-1.35632,3.7406
-385,554,-0.849243,-4.14447,0,0,0,0,0,0,0,-1,839,470,-0.849262,4.14446
-378,554,-0.982666,-4.55084,0,0,0,0,0,0,0,-1,846,470,-0.982671,4.55084
-371,554,-1.74542,-4.63467,0,0,0,0,0,0,0,-1,853,470,-1.74541,4.63468
-364,554,1.04883,-7.68756,0,0,0,0,0,0,0,-1,860,470,1.0488,7.68757
-357,554,-0.0963745,-9.06607,0,0,0,0,0,0,0,-1,867,470,-0.0963828,9.06609
-350,554,-0.41864,-9.64133,0,0,0,0,0,0,0,-1,874,470,-0.418651,9.64133
-343,554,0.467773,-9.55093,0.0118343,-0.00239138,-0.00515619,0.0135066,-0.00406369,-0.313626,0.0106213,0.0433627,881,470,0.467803,9.55094
-336,554,1.12079,-9.60065,0.0100311,-0.00253224,-0.00433578,0.0113822,-0.00388328,-0.302068,0.00916112,0.0351943,888,470,1.12078,9.60064
-329,554,1.08203,-9.91998,0.00830113,-0.00261638,-0.00348219,0.00931722,-0.00363247,-0.283914,0.0077129,0.0163451,895,470,1.08205,9.91999
-322,554,1.05701,-10.1666,0.0067281,-0.00224899,-0.00293728,0.00760375,-0.00312464,-0.289729,0.00637145,0.0101058,902,470,1.057,10.1666
-315,554,1.05573,-10.4134,0.00531794,-0.00183051,-0.00248837,0.00609883,-0.0026114,-0.304085,0.00516147,0.0101525,909,470,1.05574,10.4134
-308,554,1.03845,-10.6881,0.00419534,-0.00142764,-0.00218221,0.00494286,-0.00217515,-0.330022,0.00421187,0.0127115,916,470,1.03843,10.6881
-301,554,1.03619,-10.9587,0.00326929,-0.00114963,-0.00183008,0.00392878,-0.00180912,-0.345878,0.00338729,0.0136907,923,470,1.03622,10.9587
-294,554,1.00226,-11.2028,0.00255542,-0.000980415,-0.00142579,0.00305872,-0.00148371,-0.339341,0.00267461,0.0115887,930,470,1.00226,11.2028
-287,554,0.989685,-11.4551,0.00176962,-0.000752647,-0.000862506,0.00203635,-0.00101938,-0.299924,0.0017965,0.0107345,937,470,0.989701,11.4551
-280,554,1.00244,-11.7036,0.00130507,-0.000803811,-0.000591158,0.00145948,-0.000958218,-0.255486,0.00140582,0.0107448,944,470,1.00242,11.7036
-273,554,1.00305,-11.9641,0.0010751,-0.000945631,-0.000288262,0.00111541,-0.000985948,-0.138961,0.00121399,0.0149042,951,470,1.00304,11.9641
-266,554,0.999512,-12.2016,0.00088288,-0.00118116,-4.21206e-05,0.000883739,-0.00118202,-0.0203956,0.0011968,0.0122786,958,470,0.999498,12.2016
-259,554,0.982666,-12.4031,0.000728967,-0.00157233,0.000213272,0.000748565,-0.00159193,0.0916348,0.00138022,0.0121226,965,470,0.982666,12.4031
-252,554,0.955078,-12.624,0.000471152,-0.00197193,0.000676937,0.00064618,-0.00214696,0.253018,0.00168843,0.0140902,972,470,0.955053,12.624
-245,554,0.962097,-12.8692,0.000231557,-0.00238527,0.00129286,0.000762557,-0.00291627,0.38971,0.00224202,0.0147731,979,470,0.962114,12.8692
-238,554,0.99115,-13.1078,1.89792e-05,-0.00294201,0.00211689,0.00112172,-0.00404474,0.480246,0.00313796,0.0109224,986,470,0.991128,13.1078
-231,554,0.987244,-13.3343,-0.000244528,-0.00370736,0.00293751,0.00143386,-0.00538575,0.519098,0.00415183,0.00997065,993,470,0.987237,13.3343
-224,554,1.00336,-13.5451,-0.000542045,-0.00432813,0.00386977,0.0018729,-0.00674307,0.557918,0.00523263,0.00982755,1000,470,1.00335,13.5451
-217,554,1.0376,-13.7531,-0.000849853,-0.00487827,0.00493574,0.00246685,-0.00819497,0.591669,0.00644494,0.00949487,1007,470,1.0376,13.7531
-210,554,1.05286,-13.9823,-0.00118277,-0.00536784,0.00602814,0.0031057,-0.00965631,0.618341,0.00768489,0.013599,1014,470,1.05285,13.9823
-203,554,1.06293,-14.206,-0.00154522,-0.00577459,0.00716849,0.00381399,-0.0111338,0.641968,0.0089684,0.0222201,1021,470,1.0629,14.206
-196,554,1.0166,-14.3184,-0.00197357,-0.00619887,0.00837876,0.00455478,-0.0127272,0.661901,0.010343,0.0271207,1028,470,1.01655,14.3183
-189,554,1.00146,-14.4125,-0.00266015,-0.006526,0.00943823,0.00504105,-0.0142272,0.684396,0.0115383,0.0324362,1035,470,1.00151,14.4125
-182,554,1.0199,-14.3471,-0.00349906,-0.00623636,0.0105483,0.00576902,-0.0155044,0.720883,0.0127037,0.0420894,1042,470,1.01993,14.3471
-175,554,1.12292,-14.9346,0,0,0,0,0,0,0,-1,1049,470,1.12295,14.9346
-168,554,1.19678,-15.1586,0,0,0,0,0,0,0,-1,1056,470,1.19678,15.1586
-161,554,1.30945,-15.2281,0,0,0,0,0,0,0,-1,1063,470,1.30946,15.2281
-154,554,1.28625,-15.2448,0,0,0,0,0,0,0,-1,1070,470,1.28621,15.2448
-147,554,1.04944,-15.3039,0,0,0,0,0,0,0,-1,1077,470,1.0494,15.3039
-140,554,0.775024,-15.6549,0,0,0,0,0,0,0,-1,1084,470,0.775022,15.6549
-133,554,1.33167,-16.1823,0,0,0,0,0,0,0,-1,1091,470,1.33166,16.1823
-126,554,-0.195923,-8.76236,0,0,0,0,0,0,0,-1,1098,470,-0.195888,8.76235
-119,554,0.493042,-14.0712,0,0,0,0,0,0,0,-1,1105,470,0.493001,14.0712
-112,554,0.837524,-12.4395,0,0,0,0,0,0,0,-1,1112,470,0.837493,12.4395
-105,554,2.82129,-9.46112,0,0,0,0,0,0,0,-1,1119,470,2.82127,9.46112
-98,554,1.51929,-7.3624,0,0,0,0,0,0,0,-1,1126,470,1.51928,7.36241
-91,554,1.41089,-6.5864,0,0,0,0,0,0,0,-1,1133,470,1.41093,6.58638
-84,554,1.62305,-5.87186,0,0,0,0,0,0,0,-1,1140,470,1.62299,5.87186
-77,554,-2.56958,1.33258,0,0,0,0,0,0,0,-1,1147,470,-2.56959,-1.33257
-70,554,-3.68164,-1.18332,0,0,0,0,0,0,0,-1,1154,470,-3.68158,1.18331
-63,554,-4.86853,-3.88708,0,0,0,0,0,0,0,-1,1161,470,-4.86853,3.88708
-56,554,-5.69958,-6.45422,0,0,0,0,0,0,0,-1,1168,470,-5.69955,6.45422
-49,554,-6.23645,-8.8569,0,0,0,0,0,0,0,-1,1175,470,-6.23643,8.85689
-42,554,-6.62524,-11.5382,0,0,0,0,0,0,0,-1,1182,470,-6.62522,11.5382
-35,554,-2.40173,-4.59482,0,0,0,0,0,0,0,-1,1189,470,-2.40169,4.59481
-28,554,-0.760132,-1.65555,0,0,0,0,0,0,0,-1,1196,470,-0.760095,1.65556
-21,554,2.11389,-16.8645,0,0,0,0,0,0,0,-1,1203,470,2.11394,16.8645
-14,554,2.40259,-17.369,0,0,0,0,0,0,0,-1,1210,470,2.40258,17.369
-7,554,2.66235,-17.8922,-0.0431632,-0.0187816,-0.0164251,-0.0105176,-0.0514273,-1.10464,0.0313723,0.0449756,1217,470,2.66234,17.8922
0,554,2.81299,-18.4621,-0.0410754,-0.0194472,-0.0130191,-0.0133367,-0.0471859,-1.13197,0.0280878,0.0487629,1224,470,2.81298,18.4621
7,554,2.60486,-18.8166,0,0,0,0,0,0,0,-1,1231,470,2.60484,18.8166
14,554,2.26392,-17.0582,0,0,0,0,0,0,0,-1,1238,470,2.26391,17.0582
21,554,1.66516,-17.0364,-0.0373615,0.00568999,0.00480584,0.00621994,-0.0378915,1.46097,0.0275692,0.044829,1245,470,1.66515,17.0364
28,554,1.651,-17.1047,-0.0394609,0.0154653,0.00950094,0.0170623,-0.0410579,1.40426,0.0344958,0.0411855,1252,470,1.65106,17.1047
35,554,1.41577,-17.6252,-0.0374929,0.0346427,0.00740822,0.0353956,-0.0382459,1.46951,0.0425276,0.0394408,1259,470,1.41581,17.6252
42,554,1.07507,-18.0652,-0.0332358,0.0614868,0.00105248,0.0614985,-0.0332475,1.55969,0.0555063,0.0441745,1266,470,1.07505,18.0652
49,554,0.645874,-18.5192,-0.0327459,0.0869194,-0.00249772,0.0869715,-0.032798,-1.54994,0.0714679,0.0478904,1273,470,0.64584,18.5192
56,554,0.265625,-18.9515,0,0,0,0,0,0,0,-1,1280,470,0.265583,18.9515
63,554,-0.58728,-19.1218,-0.0319813,0.139462,-0.0119543,0.140291,-0.0328108,-1.50152,0.106168,0.0431911,1287,470,-0.587277,19.1218
70,554,-1.24219,-19.422,-0.0324553,0.157607,-0.0163732,0.159007,-0.0338554,-1.48549,0.118907,0.0437333,1294,470,-1.24216,19.422
77,554,-2.04053,-19.3896,0,0,0,0,0,0,0,-1,1301,470,-2.0405,19.3896
84,554,9.07471,-23.3221,0,0,0,0,0,0,0,-1,1308,470,9.07469,23.3221
91,554,8.97449,-24.2262,-0.0254658,0.195813,-0.0261439,0.19886,-0.0285127,-1.45478,0.143028,0.044514,1315,470,8.97443,24.2262
98,554,9.24707,-25.2156,0,0,0,0,0,0,0,-1,1322,470,9.24709,25.2156
105,554,9.39758,-26.0345,0,0,0,0,0,0,0,-1,1329,470,9.39754,26.0345
112,554,5.12146,-20.0569,0,0,0,0,0,0,0,-1,1336,470,5.12147,20.0569
119,554,4.8197,-19.7708,-0.060545,0.14591,-0.0185867,0.14757,-0.062205,-1.48172,0.124411,0.043773,1343,470,4.81975,19.7708
126,554,4.66626,-19.8115,-0.0740416,0.117662,-0.0128174,0.118515,-0.0748948,-1.50433,0.112608,0.0441671,1350,470,4.66623,19.8115
133,554,4.24011,-19.4145,-0.0902169,0.0822983,-0.00361509,0.082374,-0.0902927,-1.54985,0.0997241,0.0446725,1357,470,4.24007,19.4145
140,554,4.06897,-18.7828,0,0,0,0,0,0,0,-1,1364,470,4.06891,18.7828
147,554,3.08838,-14.3075,0,0,0,0,0,0,0,-1,1371,470,3.08833,14.3075
154,554,1.31274,-14.3492,0,0,0,0,0,0,0,-1,1378,470,1.31274,14.3492
161,554,-0.41272,-14.3912,0,0,0,0,0,0,0,-1,1385,470,-0.412677,14.3912
168,554,5.0094,-16.4231,0,0,0,0,0,0,0,-1,1392,470,5.0094,16.4231
175,554,10.663,0.286957,0,0,0,0,0,0,0,-1,1399,470,10.663,-0.286966
182,554,6.71106,-4.50217,0,0,0,0,0,0,0,-1,1406,470,6.71107,4.50215
189,554,6.90479,-2.50348,0,0,0,0,0,0,0,-1,1413,470,6.90477,2.50348
196,554,6.96216,-0.740906,0,0,0,0,0,0,0,-1,1420,470,6.96214,0.740912
203,554,6.43518,0.414154,0,0,0,0,0,0,0,-1,1427,470,6.43523,-0.414141
210,554,6.21167,1.96707,0,0,0,0,0,0,0,-1,1434,470,6.21165,-1.96706
217,554,5.64551,3.4989,0,0,0,0,0,0,0,-1,1441,470,5.64555,-3.49891
224,554,4.85144,-8.85172,0,0,0,0,0,0,0,-1,1448,470,4.85146,8.85173
231,554,3.25073,-5.29642,0,0,0,0,0,0,0,-1,1455,470,3.25078,5.29642
238,554,4.28625,-3.25253,0,0,0,0,0,0,0,-1,1462,470,4.28622,3.25252
245,554,4.0752,-2.90033,0,0,0,0,0,0,0,-1,1469,470,4.07515,2.90032
252,554,3.52112,-0.934998,0,0,0,0,0,0,0,-1,1476,470,3.52113,0.934996
259,554,3.96448,-2.16425,0,0,0,0,0,0,0,-1,1483,470,3.96446,2.16424
266,554,3.0592,-2.71716,0,0,0,0,0,0,0,-1,1490,470,3.05923,2.71718
273,554,2.58521,-3.06876,0,0,0,0,0,0,0,-1,1497,470,2.58524,3.06874
280,554,2.83301,-0.991699,0,0,0,0,0,0,0,-1,1504,470,2.83303,0.991704
287,554,3.54126,-4.12277,0,0,0,0,0,0,0,-1,1511,470,3.54123,4.12277
294,554,3.62036,-8.50146,0,0,0,0,0,0,0,-1,1518,470,3.62031,8.50145
301,554,5.02014,-13.8539,0,0,0,0,0,0,0,-1,1525,470,5.0202,13.8539
308,554,5.1106,-13.8991,0,0,0,0,0,0,0,-1,1532,470,5.11058,13.8991
315,554,5.11902,-13.765,0,0,0,0,0,0,0,-1,1539,470,5.11906,13.765
322,554,5.10522,-13.666,0,0,0,0,0,0,0,-1,1546,470,5.10522,13.666
329,554,5.08887,-13.1097,9.89243e-05,-0.00215605,-0.00451754,0.00362755,-0.00568467,-0.663106,0.00541997,0.0327041,1553,470,5.08881,13.1097
336,554,5.09985,-13.0026,-7.7471e-05,-0.00206296,-0.00404277,0.00309265,-0.00523309,-0.665,0.00485953,0.0159583,1560,470,5.09984,13.0026
343,554,5.1311,-12.8183,-0.000266314,-0.0017879,-0.00354238,0.00259605,-0.00465026,-0.679621,0.00423933,0.0108454,1567,470,5.13107,12.8183
350,554,5.15845,-12.5718,-0.000288144,-0.0016336,-0.00298456,0.00209857,-0.00402031,-0.674549,0.00359035,0.0092604,1574,470,5.15846,12.5718
357,554,5.15808,-12.319,-0.000244792,-0.00129916,-0.00237717,0.00166295,-0.0032069,-0.676279,0.00285832,0.0103682,1581,470,5.1581,12.319
364,554,5.14453,-12.0892,-0.000156412,-0.000873024,-0.00172176,0.00124393,-0.00227336,-0.68281,0.0020595,0.0087759,1588,470,5.14455,12.0892
371,554,5.14343,-11.8436,-4.67722e-05,-0.000447773,-0.0011399,0.000910128,-0.00140467,-0.698342,0.00134658,0.00853824,1595,470,5.14347,11.8436
378,554,5.15125,-11.5704,5.43798e-05,-5.64053e-05,-0.000675157,0.000676412,-0.000678438,-0.744468,0.000782223,0.0105554,1602,470,5.1512,11.5704
385,554,5.16541,-11.3029,7.31885e-05,0.000422111,-0.000303692,0.000597886,-0.000102586,-1.04612,0.00043682,0.0100477,1609,470,5.16544,11.3029
392,554,5.16089,-11.0331,8.83509e-05,0.000698346,5.74638e-05,0.000703712,8.29848e-05,1.47768,0.000444072,0.0119385,1616,470,5.16087,11.0331
399,554,5.15955,-10.7787,0.000175403,0.000816395,0.000325533,0.000952725,3.90739e-05,1.1742,0.000622534,0.0160371,1623,470,5.15956,10.7787
406,554,5.15686,-10.5547,0.000152027,0.000921459,0.000494923,0.0011636,-9.01183e-05,1.11578,0.000807454,0.0162422,1630,470,5.15691,10.5547
413,554,5.14514,-10.257,0.00011559,0.000978239,0.00062066,0.00130273,-0.000208903,1.08906,0.000945844,0.0164033,1637,470,5.1452,10.2571
420,554,5.1344,-9.96457,0.000123178,0.000493541,0.000695235,0.00102783,-0.000411115,0.915555,0.000855835,0.0165976,1644,470,5.13445,9.96457
427,554,5.13611,-9.70175,0.000298127,-0.000176197,0.000889002,0.000981057,-0.000859127,0.655047,0.00106321,0.010889,1651,470,5.13607,9.70177
434,554,5.1217,-9.43188,0.000466944,-0.000962793,0.001007,0.00098702,-0.00148287,0.476729,0.00143554,0.00954799,1658,470,5.12172,9.43189
441,554,5.125,-9.12259,0.000761055,-0.00203074,0.00114983,0.00117365,-0.00244333,0.34452,0.00213072,0.0103542,1665,470,5.12504,9.12258
448,554,5.11755,-8.82095,0.0011129,-0.00329782,0.00131866,0.00147707,-0.00366199,0.26945,0.00305512,0.0131105,1672,470,5.11754,8.82096
455,554,5.10229,-8.54828,0.00153787,-0.0048984,0.00146437,0.00185538,-0.00521591,0.213518,0.0042335,0.0148736,1679,470,5.10224,8.54827
462,554,5.04443,-8.24167,0.002149,-0.00663492,0.00164814,0.00244806,-0.00693398,0.179501,0.00561933,0.0181294,1686,470,5.04437,8.24166
469,554,5.05823,-7.91327,0.00300389,-0.0084042,0.00184325,0.00329432,-0.00869463,0.156278,0.00715206,0.0245717,1693,470,5.05823,7.91328
476,554,5.14807,-7.46036,0.00393832,-0.0103993,0.00196692,0.00420326,-0.0106642,0.133891,0.00884979,0.0484793,1700,470,5.14804,7.46036
483,554,5.2262,-7.00891,0,0,0,0,0,0,0,-1,1707,470,5.22624,7.00892
490,554,7.31543,-3.51794,0,0,0,0,0,0,0,-1,1714,470,7.3154,3.51794
497,554,7.9751,-2.43454,0,0,0,0,0,0,0,-1,1721,470,7.97505,2.43453
504,554,2.13257,-3.81628,0,0,0,0,0,0,0,-1,1728,470,2.1326,3.8163
511,554,1.31396,-4.02713,0,0,0,0,0,0,0,-1,1735,470,1.31398,4.02712
518,554,3.73145,-6.43094,0,0,0,0,0,0,0,-1,1742,470,3.73141,6.43095
525,554,0,0,0,0,0,0,0,0,0,-1,1749,470,0,0
532,554,0,0,0,0,0,0,0,0,0,-1,1756,470,0,0
539,554,0,0,0,0,0,0,0,0,0,-1,1763,470,0,0
546,554,0,0,0,0,0,0,0,0,0,-1,1770,470,0,0
553,554,0,0,0,0,0,0,0,0,0,-1,1777,470,0,0
560,554,0,0,0,0,0,0,0,0,0,-1,1784,470,0,0
567,554,0,0,0,0,0,0,0,0,0,-1,1791,470,0,0
574,554,0,0,0,0,0,0,0,0,0,-1,1798,470,0,0
581,554,0,0,0,0,0,0,0,0,0,-1,1805,470,0,0
588,554,0,0,0,0,0,0,0,0,0,-1,1812,470,0,0
595,554,0,0,0,0,0,0,0,0,0,-1,1819,470,0,0
602,554,0,0,0,0,0,0,0,0,0,-1,1826,470,0,0
609,554,0,0,0,0,0,0,0,0,0,-1,1833,470,0,0
616,554,0,0,0,0,0,0,0,0,0,-1,1840,470,0,0
623,554,0,0,0,0,0,0,0,0,0,-1,1847,470,0,0
630,554,0,0,0,0,0,0,0,0,0,-1,1854,470,0,0
637,554,0,0,0,0,0,0,0,0,0,-1,1861,470,0,0
644,554,0,0,0,0,0,0,0,0,0,-1,1868,470,0,0
651,554,0,0,0,0,0,0,0,0,0,-1,1875,470,0,0
658,554,0,0,0,0,0,0,0,0,0,-1,1882,470,0,0
665,554,0,0,0,0,0,0,0,0,0,-1,1889,470,0,0
672,554,0,0,0,0,0,0,0,0,0,-1,1896,470,0,0
679,554,0,0,0,0,0,0,0,0,0,-1,1903,470,0,0
686,554,0,0,0,0,0,0,0,0,0,-1,1910,470,0,0
693,554,0,0,0,0,0,0,0,0,0,-1,1917,470,0,0
700,554,0,0,0,0,0,0,0,0,0,-1,1924,470,0,0
707,554,0,0,0,0,0,0,0,0,0,-1,1931,470,0,0
714,554,0,0,0,0,0,0,0,0,0,-1,1938,470,0,0
721,554,0,0,0,0,0,0,0,0,0,-1,1945,470,0,0
728,554,0,0,0,0,0,0,0,0,0,-1,1952,470,0,0
735,554,0,0,0,0,0,0,0,0,0,-1,1959,470,0,0
742,554,0,0,0,0,0,0,0,0,0,-1,1966,470,0,0
749,554,0,0,0,0,0,0,0,0,0,-1,1973,470,0,0
756,554,0,0,0,0,0,0,0,0,0,-1,1980,470,0,0
763,554,0,0,0,0,0,0,0,0,0,-1,1987,470,0,0
770,554,0,0,0,0,0,0,0,0,0,-1,1994,470,0,0
777,554,0,0,0,0,0,0,0,0,0,-1,2001,470,0,0
784,554,0,0,0,0,0,0,0,0,0,-1,2008,470,0,0
791,554,0,0,0,0,0,0,0,0,0,-1,2015,470,0,0
798,554,0,0,0,0,0,0,0,0,0,-1,2022,470,0,0
805,554,0,0,0,0,0,0,0,0,0,-1,2029,470,0,0
812,554,0,0,0,0,0,0,0,0,0,-1,2036,470,0,0
-700,547,0,0,0,0,0,0,0,0,0,-1,524,477,0,0
-693,547,0,0,0,0,0,0,0,0,0,-1,531,477,0,0
-686,547,0,0,0,0,0,0,0,0,0,-1,538,477,0,0
-679,547,0,0,0,0,0,0,0,0,0,-1,545,477,0,0
-672,547,0,0,0,0,0,0,0,0,0,-1,552,477,0,0
-665,547,0,0,0,0,0,0,0,0,0,-1,559,477,0,0
-658,547,0,0,0,0,0,0,0,0,0,-1,566,477,0,0
-651,547,0,0,0,0,0,0,0,0,0,-1,573,477,0,0
-644,547,0,0,0,0,0,0,0,0,0,-1,580,477,0,0
-637,547,0,0,0,0,0,0,0,0,0,-1,587,477,0,0
-630,547,0,0,0,0,0,0,0,0,0,-1,594,477,0,0
-623,547,0,0,0,0,0,0,0,0,0,-1,601,477,0,0
-616,547,0,0,0,0,0,0,0,0,0,-1,608,477,0,0
-609,547,0,0,0,0,0,0,0,0,0,-1,615,477,0,0
-602,547,0,0,0,0,0,0,0,0,0,-1,622,477,0,0
-595,547,0,0,0,0,0,0,0,0,0,-1,629,477,0,0
-588,547,0,0,0,0,0,0,0,0,0,-1,636,477,0,0
-581,547,0,0,0,0,0,0,0,0,0,-1,643,477,0,0
-574,547,0,0,0,0,0,0,0,0,0,-1,650,477,0,0
-567,547,0,0,0,0,0,0,0,0,0,-1,657,477,0,0
-560,547,0,0,0,0,0,0,0,0,0,-1,664,477,0,0
-553,547,0,0,0,0,0,0,0,0,0,-1,671,477,0,0
-546,547,0,0,0,0,0,0,0,0,0,-1,678,477,0,0
-539,547,0,0,0,0,0,0,0,0,0,-1,685,477,0,0
-532,547,0,0,0,0,0,0,0,0,0,-1,692,477,0,0
-525,547,0,0,0,0,0,0,0,0,0,-1,699,477,0,0
-518,547,0,0,0,0,0,0,0,0,0,-1,706,477,0,0
-511,547,0,0,0,0,0,0,0,0,0,-1,713,477,0,0
-504,547,0,0,0,0,0,0,0,0,0,-1,720,477,0,0
-497,547,0,0,0,0,0,0,0,0,0,-1,727,477,0,0
-490,547,0,0,0,0,0,0,0,0,0,-1,734,477,0,0
-483,547,0,0,0,0,0,0,0,0,0,-1,741,477,0,0
-476,547,0,0,0,0,0,0,0,0,0,-1,748,477,0,0
-469,547,0,0,0,0,0,0,0,0,0,-1,755,477,0,0
-462,547,0,0,0,0,0,0,0,0,0,-1,762,477,0,0
-455,547,0,0,0,0,0,0,0,0,0,-1,769,477,0,0
-448,547,0,0,0,0,0,0,0,0,0,-1,776,477,0,0
-441,547,0,0,0,0,0,0,0,0,0,-1,783,477,0,0
-434,547,0,0,0,0,0,0,0,0,0,-1,790,477,0,0
-427,547,0,0,0,0,0,0,0,0,0,-1,797,477,0,0
-420,547,0,0,0,0,0,0,0,0,0,-1,804,477,0,0
-413,547,0,0,0,0,0,0,0,0,0,-1,811,477,0,0
-406,547,-0.938843,-4.6098,0,0,0,0,0,0,0,-1,818,477,-0.938822,4.6098
-399,547,-1.16168,-4.28796,0,0,0,0,0,0,0,-1,825,477,-1.1617,4.28797
-392,547,-1.52271,-4.41675,0,0,0,0,0,0,0,-1,832,477,-1.52273,4.41674
-385,547,-1.73743,-4.6431,0,0,0,0,0,0,0,-1,839,477,-1.73743,4.64308
-378,547,-2.41339,-4.60071,0,0,0,0,0,0,0,-1,846,477,-2.41337,4.60071
-371,547,-3.15997,-4.6044,0,0,0,0,0,0,0,-1,853,477,-3.15997,4.60439
-364,547,0.271729,-4.58582,0,0,0,0,0,0,0,-1,860,477,0.271753,4.5858
-357,547,1.13318,-6.4292,0,0,0,0,0,0,0,-1,867,477,1.1332,6.4292
-350,547,0.84613,-8.85922,0,0,0,0,0,0,0,-1,874,477,0.846149,8.85922
-343,547,0.817139,-9.21002,0.00815747,-0.00135221,-0.00432717,0.00983169,-0.00302643,-0.369172,0.00776249,0.0375144,881,477,0.817115,9.21002
-336,547,0.833984,-9.58978,0.00700501,-0.00163921,-0.00360899,0.00831366,-0.00294786,-0.347863,0.00674337,0.0162901,888,477,0.834011,9.58977
-329,547,0.819397,-9.89288,0.00586168,-0.00190869,-0.00283718,0.00678734,-0.00283435,-0.315373,0.00570922,0.00879265,895,477,0.819368,9.89288
-322,547,0.803528,-10.1691,0.00478714,-0.00164405,-0.00235129,0.00555509,-0.002412,-0.315685,0.0047176,0.0101865,902,477,0.803551,10.1691
-315,547,0.799316,-10.4356,0.00382046,-0.00127988,-0.00195922,0.00448617,-0.00194559,-0.327545,0.00380872,0.00976215,909,477,0.799309,10.4356
-308,547,0.786011,-10.6869,0.00309103,-0.00098358,-0.00168088,0.00369493,-0.00158748,-0.344915,0.00312966,0.0111525,916,477,0.786002,10.6869
-301,547,0.778809,-10.9435,0.00247327,-0.000764936,-0.00135892,0.00296797,-0.00125963,-0.349126,0.00250635,0.0115207,923,477,0.778809,10.9435
-294,547,0.764404,-11.1909,0.00201133,-0.000652248,-0.000967879,0.00232589,-0.000966804,-0.314227,0.00195427,0.0098705,930,477,0.764408,11.1909
-287,547,0.753967,-11.4409,0.001486,-0.000565247,-0.000412304,0.00156577,-0.000645019,-0.191117,0.00131278,0.0110336,937,477,0.753993,11.4409
-280,547,0.756287,-11.6922,0.00121031,-0.000748607,-0.000141554,0.00122049,-0.000758783,-0.0717643,0.00115305,0.0127632,944,477,0.756263,11.6922
-273,547,0.763733,-11.9438,0.00110594,-0.00105837,0.00016608,0.00111861,-0.00107104,0.0761417,0.00126429,0.0125473,951,477,0.763717,11.9438
-266,547,0.755249,-12.1771,0.00107258,-0.00150924,0.000444681,0.00114702,-0.00158368,0.16587,0.00158328,0.0119081,958,477,0.755241,12.1771
-259,547,0.7547,-12.4124,0.000951572,-0.00211292,0.000720249,0.00111241,-0.00227376,0.219706,0.00199296,0.01098,965,477,0.754713,12.4124
-252,547,0.752747,-12.648,0.000621843,-0.00266825,0.00122521,0.00102797,-0.00307437,0.320079,0.00246476,0.0109415,972,477,0.752732,12.648
-245,547,0.764099,-12.8816,0.000305862,-0.00325841,0.00195994,0.00117276,-0.0041253,0.416438,0.00321327,0.0113049,979,477,0.764111,12.8816
-238,547,0.776672,-13.1188,1.60233e-05,-0.00401758,0.00295152,0.00157399,-0.00557555,0.485681,0.00433795,0.00822013,986,477,0.77669,13.1188
-231,547,0.77356,-13.3371,-0.000345471,-0.00499421,0.00396252,0.00192409,-0.00726378,0.520148,0.00559527,0.00819709,993,477,0.773577,13.3371
-224,547,0.794434,-13.5302,-0.000829786,-0.00572527,0.00516662,0.00243959,-0.00899464,0.56418,0.00695377,0.0102107,1000,477,0.794403,13.5302
-217,547,0.848389,-13.7456,-0.0013624,-0.00636207,0.00656911,0.00316645,-0.0108909,0.603587,0.00851467,0.0143462,1007,477,0.848417,13.7456
-210,547,0.857788,-13.9138,-0.00195467,-0.0068937,0.00806123,0.00400682,-0.0128552,0.636764,0.0101723,0.0284084,1014,477,0.857765,13.9139
-203,547,0.680908,-13.9454,-0.00258832,-0.00728032,0.00965563,0.00500223,-0.0148709,0.666224,0.011936,0.039042,1021,477,0.680893,13.9454
-196,547,0.565063,-14.0775,-0.00322336,-0.0076758,0.0113476,0.00611435,-0.0170135,0.688536,0.0138383,0.0405892,1028,477,0.565071,14.0775
-189,547,0.554565,-14.1363,-0.00415171,-0.00796749,0.0128184,0.00690001,-0.0190192,0.71152,0.0155001,0.0438575,1035,477,0.554598,14.1363
-182,547,0.724121,-14.041,0,0,0,0,0,0,0,-1,1042,477,0.724166,14.041
-175,547,-0.350098,-12.3584,0,0,0,0,0,0,0,-1,1049,477,-0.350098,12.3584
-168,547,1.12463,-8.66785,0,0,0,0,0,0,0,-1,1056,477,1.12461,8.66786
-161,547,0.254395,-15.0515,0,0,0,0,0,0,0,-1,1063,477,0.254366,15.0515
-154,547,-0.226807,-15.089,0,0,0,0,0,0,0,-1,1070,477,-0.226787,15.089
-147,547,-0.381836,-15.0434,0,0,0,0,0,0,0,-1,1077,477,-0.381867,15.0434
-140,547,0.3396,-15.5716,0,0,0,0,0,0,0,-1,1084,477,0.339557,15.5716
-133,547,1.7229,-13.9973,0,0,0,0,0,0,0,-1,1091,477,1.72291,13.9973
-126,547,0.784302,-9.76431,0,0,0,0,0,0,0,-1,1098,477,0.78428,9.76432
-119,547,-0.531006,-10.0229,0,0,0,0,0,0,0,-1,1105,477,-0.530984,10.0229
-112,547,4.36194,-9.23029,0,0,0,0,0,0,0,-1,1112,477,4.36195,9.23029
-105,547,4.448,-9.17819,0,0,0,0,0,0,0,-1,1119,477,4.44799,9.1782
-98,547,1.50391,-7.20621,0,0,0,0,0,0,0,-1,1126,477,1.50395,7.20621
-91,547,1.37805,-7.12024,0,0,0,0,0,0,0,-1,1133,477,1.37804,7.12025
-84,547,1.94202,-6.66241,0,0,0,0,0,0,0,-1,1140,477,1.94201,6.66241
-77,547,-2.28357,1.8588,0,0,0,0,0,0,0,-1,1147,477,-2.28356,-1.85879
-70,547,-3.70178,-0.874908,0,0,0,0,0,0,0,-1,1154,477,-3.70182,0.874918
-63,547,-5.12012,-3.60861,0,0,0,0,0,0,0,-1,1161,477,-5.12009,3.60862
-56,547,-6.01917,-6.2399,0,0,0,0,0,0,0,-1,1168,477,-6.01921,6.23991
-49,547,-6.729,-8.60349,0,0,0,0,0,0,0,-1,1175,477,-6.72899,8.60348
-42,547,-2.41736,-5.53012,0,0,0,0,0,0,0,-1,1182,477,-2.41734,5.53011
-35,547,-2.96838,-4.45734,0,0,0,0,0,0,0,-1,1189,477,-2.96839,4.45734
-28,547,-0.869141,-1.29901,0,0,0,0,0,0,0,-1,1196,477,-0.869135,1.29901
-21,547,4.6062,-17.7772,0,0,0,0,0,0,0,-1,1203,477,4.60625,17.7771
-14,547,2.55115,-17.2508,0,0,0,0,0,0,0,-1,1210,477,2.55111,17.2508
-7,547,2.83936,-17.6929,-0.0372215,-0.0282147,-0.0306791,-0.00171028,-0.0637259,-0.858273,0.0419255,0.0445731,1217,477,2.83933,17.6929
0,547,3.04553,-17.9765,-0.0383813,-0.0297684,-0.0284233,-0.00532712,-0.0628226,-0.860582,0.0402238,0.0469428,1224,477,3.04557,17.9765
7,547,3.25427,-18.2566,0,0,0,0,0,0,0,-1,1231,477,3.25425,18.2566
14,547,0,0,0,0,0,0,0,0,0,-1,1238,477,0,0
21,547,0,0,0,0,0,0,0,0,0,-1,1245,477,0,0
28,547,0,0,0,0,0,0,0,0,0,-1,1252,477,0,0
35,547,0,0,0,0,0,0,0,0,0,-1,1259,477,0,0
42,547,0,0,0,0,0,0,0,0,0,-1,1266,477,0,0
49,547,0,0,0,0,0,0,0,0,0,-1,1273,477,0,0
56,547,0,0,0,0,0,0,0,0,0,-1,1280,477,0,0
63,547,0,0,0,0,0,0,0,0,0,-1,1287,477,0,0
70,547,0,0,0,0,0,0,0,0,0,-1,1294,477,0,0
77,547,0,0,0,0,0,0,0,0,0,-1,1301,477,0,0
84,547,0,0,0,0,0,0,0,0,0,-1,1308,477,0,0
91,547,0,0,0,0,0,0,0,0,0,-1,1315,477,0,0
98,547,0,0,0,0,0,0,0,0,0,-1,1322,477,0,0
105,547,-0.230835,-16.6655,0,0,0,0,0,0,0,-1,1329,477,-0.230878,16.6655
112,547,0.365601,-16.3846,0,0,0,0,0,0,0,-1,1336,477,0.365565,16.3846
119,547,5.05078,-20.4369,0,0,0,0,0,0,0,-1,1343,477,5.05081,20.4369
126,547,4.53687,-20.3503,-0.0760178,0.140244,-0.0155025,0.14135,-0.0771234,-1.4996,0.12794,0.0445257,1350,477,4.53681,20.3502
133,547,4.56299,-20.4954,-0.0950281,0.0997304,-0.00483263,0.0998503,-0.0951479,-1.546,0.112593,0.0456613,1357,477,4.56301,20.4954
140,547,4.604,-19.7325,0,0,0,0,0,0,0,-1,1364,477,4.60403,19.7325
147,547,4.67139,-19.4164,0,0,0,0,0,0,0,-1,1371,477,4.67138,19.4164
154,547,1.20667,-13.9492,0,0,0,0,0,0,0,-1,1378,477,1.20663,13.9492
161,547,6.22668,-16.5846,0,0,0,0,0,0,0,-1,1385,477,6.22674,16.5846
168,547,-1.09973,-17.3397,0,0,0,0,0,0,0,-1,1392,477,-1.09977,17.3397
175,547,3.35034,-0.26532,0,0,0,0,0,0,0,-1,1399,477,3.3503,0.265306
182,547,4.26038,3.72672,0,0,0,0,0,0,0,-1,1406,477,4.26039,-3.7267
189,547,3.40454,1.28671,0,0,0,0,0,0,0,-1,1413,477,3.40457,-1.28673
196,547,3.53931,1.87793,0,0,0,0,0,0,0,-1,1420,477,3.53928,-1.87794
203,547,6.49414,-0.425842,0,0,0,0,0,0,0,-1,1427,477,6.4941,0.425844
210,547,4.82092,0.53595,0,0,0,0,0,0,0,-1,1434,477,4.82096,-0.535942
217,547,4.68579,0.480072,0,0,0,0,0,0,0,-1,1441,477,4.68577,-0.480069
224,547,4.55615,0.739807,0,0,0,0,0,0,0,-1,1448,477,4.55613,-0.73981
231,547,5.90869,-3.57721,0,0,0,0,0,0,0,-1,1455,477,5.90871,3.57722
238,547,5.50049,-3.15356,0,0,0,0,0,0,0,-1,1462,477,5.50045,3.15356
245,547,5.13708,-2.65213,0,0,0,0,0,0,0,-1,1469,477,5.13708,2.65212
252,547,3.73511,-0.645233,0,0,0,0,0,0,0,-1,1476,477,3.73515,0.645237
259,547,5.86816,-3.20816,0,0,0,0,0,0,0,-1,1483,477,5.86815,3.20816
266,547,5.40222,-2.45731,0,0,0,0,0,0,0,-1,1490,477,5.40221,2.45732
273,547,3.05737,0.495789,0,0,0,0,0,0,0,-1,1497,477,3.05742,-0.49578
280,547,2.0885,1.47797,0,0,0,0,0,0,0,-1,1504,477,2.08848,-1.47795
287,547,2.31177,-2.21716,0,0,0,0,0,0,0,-1,1511,477,2.31174,2.21717
294,547,2.4823,-3.03659,0,0,0,0,0,0,0,-1,1518,477,2.48229,3.0366
301,547,4.72119,-3.93454,0,0,0,0,0,0,0,-1,1525,477,4.72119,3.93453
308,547,4.07471,-5.42175,0,0,0,0,0,0,0,-1,1532,477,4.07468,5.42174
315,547,3.58496,-6.62112,0,0,0,0,0,0,0,-1,1539,477,3.58497,6.62113
322,547,5.30554,-12.7991,0,0,0,0,0,0,0,-1,1546,477,5.30556,12.7991
329,547,5.2345,-13.0813,0,0,0,0,0,0,0,-1,1553,477,5.23455,13.0813
336,547,5.52588,-12.9615,-0.000592622,-0.00289446,-0.0055706,0.00394471,-0.00743179,-0.683529,0.00667028,0.0416141,1560,477,5.52592,12.9614
343,547,5.4856,-12.8762,-0.000702272,-0.00251592,-0.004857,0.00333183,-0.00655003,-0.693108,0.00580527,0.0299299,1567,477,5.48562,12.8762
350,547,5.43677,-12.627,-0.000624698,-0.00244273,-0.00414695,0.0027117,-0.00577913,-0.677504,0.00500768,0.0212954,1574,477,5.43671,12.627
357,547,5.39453,-12.3501,-0.000470488,-0.0021082,-0.00338201,0.00219039,-0.00476907,-0.666624,0.00410896,0.0152269,1581,477,5.39459,12.3501
364,547,5.37878,-12.0857,-0.000243435,-0.00165446,-0.00254808,0.001695,-0.0035929,-0.650341,0.00311783,0.00984208,1588,477,5.37882,12.0857
371,547,5.39551,-11.8293,-2.41301e-05,-0.00117968,-0.00183201,0.00131906,-0.00252287,-0.632646,0.00225414,0.00905087,1595,477,5.39547,11.8293
378,547,5.40796,-11.5805,0.000121234,-0.000783788,-0.00129109,0.00103681,-0.00169937,-0.616843,0.0015951,0.0108436,1602,477,5.4079,11.5805
385,547,5.4104,-11.3113,0.000179445,-0.000246827,-0.00081949,0.000813062,-0.000880444,-0.658175,0.000978004,0.0116128,1609,477,5.41035,11.3113
392,547,5.40076,-11.0422,0.000204194,9.46005e-05,-0.000355408,0.000509005,-0.00021021,-0.70891,0.000427017,0.0114547,1616,477,5.4008,11.0422
399,547,5.38416,-10.7706,0.000252958,0.00026707,-7.11019e-05,0.000331465,0.000188563,-0.834857,0.000191976,0.0132803,1623,477,5.38412,10.7706
406,547,5.41797,-10.4948,0.000248872,0.000426478,0.000116174,0.000483903,0.000191448,1.11172,0.000281403,0.0140195,1630,477,5.41796,10.4949
413,547,5.42456,-10.2159,0.000253822,0.000609749,0.000303655,0.000783747,7.98234e-05,1.05046,0.000498027,0.0142246,1637,477,5.42452,10.2158
420,547,5.41052,-9.96851,0.000242276,0.000382481,0.000418136,0.00073635,-0.000111593,0.868453,0.000532013,0.0161728,1644,477,5.41055,9.96851
427,547,5.40149,-9.70447,0.00034149,-6.60521e-06,0.000610313,0.000802087,-0.000467202,0.646496,0.000741278,0.0141435,1651,477,5.40153,9.70448
434,547,5.37708,-9.43002,0.000466844,-0.000531903,0.000749305,0.000867933,-0.000932992,0.491472,0.00103999,0.00895305,1658,477,5.37712,9.43001
441,547,5.38708,-9.13647,0.000709055,-0.00130964,0.000912205,0.00106019,-0.00166077,0.367444,0.00158365,0.00883143,1665,477,5.38712,9.13647
448,547,5.37634,-8.84015,0.000997022,-0.00224377,0.00109216,0.00133072,-0.00257747,0.296533,0.00229435,0.0105489,1672,477,5.37634,8.84013
455,547,5.37683,-8.54294,0.00134397,-0.00337472,0.00125552,0.00165723,-0.00368798,0.244517,0.00315943,0.0115814,1679,477,5.3768,8.54292
462,547,5.35107,-8.25034,0.00187149,-0.00462564,0.00142852,0.00217171,-0.00492586,0.207144,0.00419936,0.011437,1686,477,5.35106,8.25033
469,547,5.34998,-7.93878,0.00262495,-0.00584031,0.00159199,0.00291444,-0.00612981,0.179878,0.00533056,0.0199311,1693,477,5.34998,7.93878
476,547,5.40894,-7.56232,0.00339172,-0.00722393,0.00170043,0.00365745,-0.00748966,0.155016,0.00656133,0.0432834,1700,477,5.40898,7.56233
483,547,5.27075,-7.60458,0,0,0,0,0,0,0,-1,1707,477,5.2707,7.60459
490,547,3.65271,-3.71707,0,0,0,0,0,0,0,-1,1714,477,3.65277,3.71708
497,547,2.55481,-3.81421,0,0,0,0,0,0,0,-1,1721,477,2.55476,3.8142
504,547,4.01953,-2.22714,0,0,0,0,0,0,0,-1,1728,477,4.0195,2.22713
511,547,3.474,-7.0578,0,0,0,0,0,0,0,-1,1735,477,3.47394,7.05779
518,547,6.04382,-4.81958,0,0,0,0,0,0,0,-1,1742,477,6.04384,4.81958
525,547,4.79004,-6.03943,0,0,0,0,0,0,0,-1,1749,477,4.79007,6.03942
532,547,0,0,0,0,0,0,0,0,0,-1,1756,477,0,0
539,547,0,0,0,0,0,0,0,0,0,-1,1763,477,0,0
546,547,0,0,0,0,0,0,0,0,0,-1,1770,477,0,0
553,547,0,0,0,0,0,0,0,0,0,-1,1777,477,0,0
560,547,0,0,0,0,0,0,0,0,0,-1,1784,477,0,0
567,547,0,0,0,0,0,0,0,0,0,-1,1791,477,0,0
574,547,0,0,0,0,0,0,0,0,0,-1,1798,477,0,0
581,547,0,0,0,0,0,0,0,0,0,-1,1805,477,0,0
588,547,0,0,0,0,0,0,0,0,0,-1,1812,477,0,0
595,547,0,0,0,0,0,0,0,0,0,-1,1819,477,0,0
602,547,0,0,0,0,0,0,0,0,0,-1,1826,477,0,0
609,547,0,0,0,0,0,0,0,0,0,-1,1833,477,0,0
616,547,0,0,0,0,0,0,0,0,0,-1,1840,477,0,0
623,547,0,0,0,0,0,0,0,0,0,-1,1847,477,0,0
630,547,0,0,0,0,0,0,0,0,0,-1,1854,477,0,0
637,547,0,0,0,0,0,0,0,0,0,-1,1861,477,0,0
644,547,0,0,0,0,0,0,0,0,0,-1,1868,477,0,0
651,547,0,0,0,0,0,0,0,0,0,-1,1875,477,0,0
658,547,0,0,0,0,0,0,0,0,0,-1,1882,477,0,0
665,547,0,0,0,0,0,0,0,0,0,-1,1889,477,0,0
672,547,0,0,0,0,0,0,0,0,0,-1,1896,477,0,0
679,547,0,0,0,0,0,0,0,0,0,-1,1903,477,0,0
686,547,0,0,0,0,0,0,0,0,0,-1,1910,477,0,0
693,547,0,0,0,0,0,0,0,0,0,-1,1917,477,0,0
700,547,0,0,0,0,0,0,0,0,0,-1,1924,477,0,0
707,547,0,0,0,0,0,0,0,0,0,-1,1931,477,0,0
714,547,0,0,0,0,0,0,0,0,0,-1,1938,477,0,0
721,547,0,0,0,0,0,0,0,0,0,-1,1945,477,0,0
728,547,0,0,0,0,0,0,0,0,0,-1,1952,477,0,0
735,547,0,0,0,0,0,0,0,0,0,-1,1959,477,0,0
742,547,0,0,0,0,0,0,0,0,0,-1,1966,477,0,0
749,547,0,0,0,0,0,0,0,0,0,-1,1973,477,0,0
756,547,0,0,0,0,0,0,0,0,0,-1,1980,477,0,0
763,547,0,0,0,0,0,0,0,0,0,-1,1987,477,0,0
770,547,0,0,0,0,0,0,0,0,0,-1,1994,477,0,0
777,547,0,0,0,0,0,0,0,0,0,-1,2001,477,0,0
784,547,0,0,0,0,0,0,0,0,0,-1,2008,477,0,0
791,547,0,0,0,0,0,0,0,0,0,-1,2015,477,0,0
798,547,0,0,0,0,0,0,0,0,0,-1,2022,477,0,0
805,547,0,0,0,0,0,0,0,0,0,-1,2029,477,0,0
812,547,0,0,0,0,0,0,0,0,0,-1,2036,477,0,0
-700,540,0,0,0,0,0,0,0,0,0,-1,524,484,0,0
-693,540,0,0,0,0,0,0,0,0,0,-1,531,484,0,0
-686,540,0,0,0,0,0,0,0,0,0,-1,538,484,0,0
-679,540,0,0,0,0,0,0,0,0,0,-1,545,484,0,0
-672,540,0,0,0,0,0,0,0,0,0,-1,552,484,0,0
-665,540,0,0,0,0,0,0,0,0,0,-1,559,484,0,0
-658,540,0,0,0,0,0,0,0,0,0,-1,566,484,0,0
-651,540,0,0,0,0,0,0,0,0,0,-1,573,484,0,0
-644,540,0,0,0,0,0,0,0,0,0,-1,580,484,0,0
-637,540,0,0,0,0,0,0,0,0,0,-1,587,484,0,0
-630,540,0,0,0,0,0,0,0,0,0,-1,594,484,0,0
-623,540,0,0,0,0,0,0,0,0,0,-1,601,484,0,0
-616,540,0,0,0,0,0,0,0,0,0,-1,608,484,0,0
-609,540,0,0,0,0,0,0,0,0,0,-1,615,484,0,0
-602,540,0,0,0,0,0,0,0,0,0,-1,622,484,0,0
-595,540,0,0,0,0,0,0,0,0,0,-1,629,484,0,0
-588,540,0,0,0,0,0,0,0,0,0,-1,636,484,0,0
-581,540,0,0,0,0,0,0,0,0,0,-1,643,484,0,0
-574,540,0,0,0,0,0,0,0,0,0,-1,650,484,0,0
-567,540,0,0,0,0,0,0,0,0,0,-1,657,484,0,0
-560,540,0,0,0,0,0,0,0,0,0,-1,664,484,0,0
-553,540,0,0,0,0,0,0,0,0,0,-1,671,484,0,0
-546,540,0,0,0,0,0,0,0,0,0,-1,678,484,0,0
-539,540,0,0,0,0,0,0,0,0,0,-1,685,484,0,0
-532,540,0,0,0,0,0,0,0,0,0,-1,692,484,0,0
-525,540,0,0,0,0,0,0,0,0,0,-1,699,484,0,0
-518,540,0,0,0,0,0,0,0,0,0,-1,706,484,0,0
-511,540,0,0,0,0,0,0,0,0,0,-1,713,484,0,0
-504,540,0,0,0,0,0,0,0,0,0,-1,720,484,0,0
-497,540,0,0,0,0,0,0,0,0,0,-1,727,484,0,0
-490,540,0,0,0,0,0,0,0,0,0,-1,734,484,0,0
-483,540,0,0,0,0,0,0,0,0,0,-1,741,484,0,0
-476,540,0,0,0,0,0,0,0,0,0,-1,748,484,0,0
-469,540,0,0,0,0,0,0,0,0,0,-1,755,484,0,0
-462,540,0,0,0,0,0,0,0,0,0,-1,762,484,0,0
-455,540,0,0,0,0,0,0,0,0,0,-1,769,484,0,0
-448,540,0,0,0,0,0,0,0,0,0,-1,776,484,0,0
-441,540,0,0,0,0,0,0,0,0,0,-1,783,484,0,0
-434,540,0,0,0,0,0,0,0,0,0,-1,790,484,0,0
-427,540,0,0,0,0,0,0,0,0,0,-1,797,484,0,0
-420,540,0.274902,-6.11426,0,0,0,0,0,0,0,-1,804,484,0.274913,6.11427
-413,540,-0.588379,-5.12802,0,0,0,0,0,0,0,-1,811,484,-0.588381,5.12801
-406,540,-0.790405,-5.03632,0,0,0,0,0,0,0,-1,818,484,-0.790385,5.03632
-399,540,-1.11127,-4.94391,0,0,0,0,0,0,0,-1,825,484,-1.11127,4.94392
-392,540,-1.72046,-4.99387,0,0,0,0,0,0,0,-1,832,484,-1.72049,4.99385
-385,540,-2.29407,-5.03418,0,0,0,0,0,0,0,-1,839,484,-2.29408,5.03418
-378,540,-3.78162,-4.68256,0,0,0,0,0,0,0,-1,846,484,-3.78161,4.68257
-371,540,-0.0177002,-4.21246,0,0,0,0,0,0,0,-1,853,484,-0.0176722,4.21247
-364,540,0.894592,-8.44211,0,0,0,0,0,0,0,-1,860,484,0.894615,8.4421
-357,540,0.823792,-8.81717,0,0,0,0,0,0,0,-1,867,484,0.823775,8.81717
-350,540,0.600281,-8.97409,0.00662744,0.000117822,-0.00453572,0.00895532,-0.00221007,-0.47418,0.0068272,0.0320321,874,484,0.600262,8.97408
-343,540,0.554626,-9.28387,0.00558431,-0.000512817,-0.00361173,0.0072621,-0.0021906,-0.434877,0.00571334,0.0144534,881,484,0.554603,9.28388
-336,540,0.539734,-9.60175,0.00482583,-0.0008781,-0.00297267,0.00609339,-0.00214566,-0.403059,0.00493548,0.0116239,888,484,0.539751,9.60175
-329,540,0.544128,-9.871,0.0040622,-0.00126621,-0.00227856,0.00490368,-0.00210769,-0.353767,0.00415392,0.00929568,895,484,0.544158,9.87101
-322,540,0.550415,-10.1678,0.00333224,-0.00108248,-0.00185078,0.00400548,-0.00175572,-0.348878,0.00340972,0.0138007,902,484,0.550414,10.1678
-315,540,0.540405,-10.4448,0.00269981,-0.00076736,-0.00151302,0.00326721,-0.00133476,-0.358782,0.00273392,0.0121331,909,484,0.540426,10.4448
-308,540,0.527649,-10.6918,0.00227192,-0.000551288,-0.00127162,0.00276022,-0.00103959,-0.366637,0.00226755,0.010888,916,484,0.52766,10.6918
-301,540,0.508362,-10.9281,0.00189654,-0.000393376,-0.000985949,0.00226255,-0.000759386,-0.355458,0.00181524,0.0118615,923,484,0.508352,10.9281
-294,540,0.523438,-11.1698,0.00163641,-0.000339201,-0.000599419,0.00180405,-0.000506845,-0.27271,0.00140252,0.011337,930,484,0.52344,11.1698
-287,540,0.541443,-11.4375,0.00134724,-0.00039533,-4.28059e-05,0.00134829,-0.000396381,-0.0245451,0.00105608,0.00833461,937,484,0.541418,11.4375
-280,540,0.536011,-11.7,0.00123684,-0.000701146,0.000243107,0.00126687,-0.000731177,0.122906,0.00116731,0.00982521,944,484,0.53603,11.6999
-273,540,0.51825,-11.9543,0.0012233,-0.00117868,0.000578899,0.00135554,-0.00131092,0.22458,0.00153955,0.0121113,951,484,0.518264,11.9543
-266,540,0.519409,-12.2026,0.00131168,-0.00186521,0.000927767,0.00156277,-0.0021163,0.264314,0.00213211,0.0124249,958,484,0.519409,12.2026
-259,540,0.540283,-12.4576,0.00119909,-0.00269791,0.00126471,0.00157355,-0.00307237,0.28786,0.00272845,0.0116359,965,484,0.540255,12.4576
-252,540,0.538635,-12.67,0.000764332,-0.00344289,0.00185089,0.00146268,-0.00414124,0.360789,0.00335636,0.0118797,972,484,0.538653,12.67
-245,540,0.54541,-12.8813,0.000331358,-0.00425024,0.00274974,0.0016195,-0.00553838,0.438098,0.00433414,0.0122058,979,484,0.545381,12.8813
-238,540,0.541382,-13.1031,-7.96128e-05,-0.00525293,0.00395612,0.00206043,-0.00739297,0.495864,0.00574008,0.00930128,986,484,0.541358,13.1031
-231,540,0.53064,-13.3178,-0.000597929,-0.00647475,0.00521127,0.00244627,-0.00951895,0.528688,0.00729933,0.0113732,993,484,0.530648,13.3178
-224,540,0.558228,-13.5117,-0.00135088,-0.007358,0.00677301,0.00305468,-0.0117636,0.576697,0.00903441,0.0155834,1000,484,0.558246,13.5117
-217,540,0.525513,-13.6829,-0.00218922,-0.00807976,0.00858763,0.00394416,-0.0142131,0.620201,0.0110278,0.0277673,1007,484,0.525521,13.6829
-210,540,0.668457,-13.8336,-0.00310809,-0.00863415,0.010563,0.00504731,-0.0167896,0.657477,0.0132011,0.0462646,1014,484,0.668486,13.8336
-203,540,0.145203,-14.1269,-0.0040937,-0.00898036,0.0127477,0.0064427,-0.0195168,0.690712,0.0156084,0.0461789,1021,484,0.145183,14.1269
-196,540,0.0378418,-14.2278,-0.00500005,-0.00929676,0.0151073,0.00811086,-0.0224077,0.714768,0.018253,0.0446643,1028,484,0.0378247,14.2278
-189,540,0.0769043,-14.1137,-0.0062184,-0.00951948,0.0171763,0.00938648,-0.0251244,0.737498,0.0206039,0.0474429,1035,484,0.0768928,14.1137
-182,540,0.14563,-13.9557,0,0,0,0,0,0,0,-1,1042,484,0.145587,13.9558
-175,540,1.73413,-10.728,0,0,0,0,0,0,0,-1,1049,484,1.73414,10.728
-168,540,1.18164,-7.65347,0,0,0,0,0,0,0,-1,1056,484,1.18163,7.65347
-161,540,-1.31653,-9.93869,0,0,0,0,0,0,0,-1,1063,484,-1.31651,9.93868
-154,540,-0.939819,-15.205,0,0,0,0,0,0,0,-1,1070,484,-0.93982,15.205
-147,540,-0.728394,-14.9214,0,0,0,0,0,0,0,-1,1077,484,-0.728356,14.9214
-140,540,-0.406616,-15.477,0,0,0,0,0,0,0,-1,1084,484,-0.406583,15.477
-133,540,0.790405,-16.175,0,0,0,0,0,0,0,-1,1091,484,0.79038,16.175
-126,540,1.46765,-17.5085,0,0,0,0,0,0,0,-1,1098,484,1.46764,17.5085
-119,540,6.18579,-10.4846,0,0,0,0,0,0,0,-1,1105,484,6.18582,10.4846
-112,540,5.8468,-9.65106,0,0,0,0,0,0,0,-1,1112,484,5.84681,9.65106
-105,540,5.50781,-8.81754,0,0,0,0,0,0,0,-1,1119,484,5.5078,8.81753
-98,540,0.73877,-3.08093,0,0,0,0,0,0,0,-1,1126,484,0.738754,3.08092
-91,540,1.56519,-7.48666,0,0,0,0,0,0,0,-1,1133,484,1.56514,7.48667
-84,540,-0.945923,4.43073,0,0,0,0,0,0,0,-1,1140,484,-0.945891,-4.43074
-77,540,-2.28894,2.14368,0,0,0,0,0,0,0,-1,1147,484,-2.28894,-2.14368
-70,540,-3.75244,-0.452576,0,0,0,0,0,0,0,-1,1154,484,-3.75244,0.452576
-63,540,-5.26257,-3.04767,0,0,0,0,0,0,0,-1,1161,484,-5.26262,3.04766
-56,540,-5.19055,-6.12595,0,0,0,0,0,0,0,-1,1168,484,-5.19057,6.12595
-49,540,-5.63867,-8.52298,0,0,0,0,0,0,0,-1,1175,484,-5.63871,8.52298
-42,540,0,0,0,0,0,0,0,0,0,-1,1182,484,0,0
-35,540,0,0,0,0,0,0,0,0,0,-1,1189,484,0,0
-28,540,0,0,0,0,0,0,0,0,0,-1,1196,484,0,0
-21,540,0,0,0,0,0,0,0,0,0,-1,1203,484,0,0
-14,540,0,0,0,0,0,0,0,0,0,-1,1210,484,0,0
-7,540,0,0,0,0,0,0,0,0,0,-1,1217,484,0,0
0,540,0,0,0,0,0,0,0,0,0,-1,1224,484,0,0
7,540,0,0,0,0,0,0,0,0,0,-1,1231,484,0,0
14,540,0,0,0,0,0,0,0,0,0,-1,1238,484,0,0
21,540,0,0,0,0,0,0,0,0,0,-1,1245,484,0,0
28,540,0,0,0,0,0,0,0,0,0,-1,1252,484,0,0
35,540,0,0,0,0,0,0,0,0,0,-1,1259,484,0,0
42,540,0,0,0,0,0,0,0,0,0,-1,1266,484,0,0
49,540,0,0,0,0,0,0,0,0,0,-1,1273,484,0,0
56,540,0,0,0,0,0,0,0,0,0,-1,1280,484,0,0
63,540,0,0,0,0,0,0,0,0,0,-1,1287,484,0,0
70,540,0,0,0,0,0,0,0,0,0,-1,1294,484,0,0
77,540,0,0,0,0,0,0,0,0,0,-1,1301,484,0,0
84,540,0,0,0,0,0,0,0,0,0,-1,1308,484,0,0
91,540,0,0,0,0,0,0,0,0,0,-1,1315,484,0,0
98,540,0,0,0,0,0,0,0,0,0,-1,1322,484,0,0
105,540,0,0,0,0,0,0,0,0,0,-1,1329,484,0,0
112,540,0,0,0,0,0,0,0,0,0,-1,1336,484,0,0
119,540,0,0,0,0,0,0,0,0,0,-1,1343,484,0,0
126,540,0,0,0,0,0,0,0,0,0,-1,1350,484,0,0
133,540,0,0,0,0,0,0,0,0,0,-1,1357,484,0,0
140,540,0,0,0,0,0,0,0,0,0,-1,1364,484,0,0
147,540,0,0,0,0,0,0,0,0,0,-1,1371,484,0,0
154,540,0,0,0,0,0,0,0,0,0,-1,1378,484,0,0
161,540,0,0,0,0,0,0,0,0,0,-1,1385,484,0,0
168,540,3.05078,-0.0010376,0,0,0,0,0,0,0,-1,1392,484,3.05084,0.00102554
175,540,3.37708,0.617035,0,0,0,0,0,0,0,-1,1399,484,3.37707,-0.617046
182,540,3.32678,1.23267,0,0,0,0,0,0,0,-1,1406,484,3.32678,-1.23266
189,540,3.5813,2.15619,0,0,0,0,0,0,0,-1,1413,484,3.58129,-2.1562
196,540,1.84448,-0.801483,0,0,0,0,0,0,0,-1,1420,484,1.84446,0.80148
203,540,4.14648,0.702087,0,0,0,0,0,0,0,-1,1427,484,4.14645,-0.702089
210,540,4.50671,-0.56076,0,0,0,0,0,0,0,-1,1434,484,4.50667,0.560771
217,540,5.00452,-0.278717,0,0,0,0,0,0,0,-1,1441,484,5.00452,0.278709
224,540,6.44458,-2.83527,0,0,0,0,0,0,0,-1,1448,484,6.44457,2.83525
231,540,6.9231,-3.10504,0,0,0,0,0,0,0,-1,1455,484,6.92307,3.10505
238,540,6.4823,-2.58365,0,0,0,0,0,0,0,-1,1462,484,6.48225,2.58363
245,540,6.02087,-1.97916,0,0,0,0,0,0,0,-1,1469,484,6.02088,1.97915
252,540,6.50647,-3.56006,0,0,0,0,0,0,0,-1,1476,484,6.50649,3.56006
259,540,6.01941,-2.798,0,0,0,0,0,0,0,-1,1483,484,6.01941,2.79801
266,540,5.5332,-2.02853,0,0,0,0,0,0,0,-1,1490,484,5.53323,2.02855
273,540,5.06787,-1.28137,0,0,0,0,0,0,0,-1,1497,484,5.06786,1.28136
280,540,1.62903,-2.14609,0,0,0,0,0,0,0,-1,1504,484,1.62906,2.1461
287,540,1.97156,-2.45053,0,0,0,0,0,0,0,-1,1511,484,1.97159,2.45053
294,540,2.44165,-2.6185,0,0,0,0,0,0,0,-1,1518,484,2.44167,2.6185
301,540,4.36169,-2.54272,0,0,0,0,0,0,0,-1,1525,484,4.36165,2.54272
308,540,4.2019,-4.30469,0,0,0,0,0,0,0,-1,1532,484,4.20193,4.3047
315,540,4.45923,-5.32101,0,0,0,0,0,0,0,-1,1539,484,4.45923,5.32103
322,540,4.71655,-6.33737,0,0,0,0,0,0,0,-1,1546,484,4.71653,6.33736
329,540,6.19312,-12.9055,0,0,0,0,0,0,0,-1,1553,484,6.19313,12.9055
336,540,6.0188,-13.0596,0,0,0,0,0,0,0,-1,1560,484,6.01874,13.0596
343,540,5.88525,-12.9997,0,0,0,0,0,0,0,-1,1567,484,5.88527,12.9997
350,540,5.98413,-12.4164,0,0,0,0,0,0,0,-1,1574,484,5.98408,12.4164
357,540,5.7998,-12.1652,-0.000956078,-0.00298697,-0.00458731,0.00272684,-0.00666988,-0.676475,0.00558214,0.0445003,1581,484,5.79976,12.1652
364,540,5.61353,-12.014,-0.000487733,-0.00241556,-0.0034719,0.00215158,-0.00505487,-0.649992,0.00427171,0.0260633,1588,484,5.61351,12.014
371,540,5.62256,-11.8109,-8.44514e-05,-0.00179986,-0.00255821,0.00175601,-0.00364032,-0.623649,0.00317825,0.016869,1595,484,5.62259,11.8109
378,540,5.6532,-11.5728,0.000157929,-0.0013501,-0.00190494,0.00145265,-0.00264483,-0.596949,0.00239883,0.0132173,1602,484,5.65317,11.5728
385,540,5.66858,-11.3234,0.000209192,-0.00082087,-0.00139072,0.00117718,-0.00178886,-0.608061,0.00172454,0.014604,1609,484,5.6686,11.3234
392,540,5.66113,-11.053,0.00021005,-0.000422147,-0.00085844,0.000808739,-0.00102084,-0.60899,0.00105867,0.0124809,1616,484,5.66107,11.0531
399,540,5.63538,-10.791,0.000206202,-0.00022064,-0.000583321,0.000613918,-0.000628357,-0.610026,0.000717243,0.0164966,1623,484,5.6354,10.791
406,540,5.66931,-10.5155,0.000206061,-3.4552e-05,-0.000400741,0.000504164,-0.000332655,-0.639573,0.000486509,0.0187959,1630,484,5.66933,10.5155
413,540,5.68579,-10.2288,0.000232508,0.000232495,-0.000175647,0.000408148,5.68548e-05,-0.785379,0.000255267,0.0141501,1637,484,5.68578,10.2288
420,540,5.68018,-9.94205,0.000186472,0.000192611,-4.04893e-05,0.000230147,0.000148936,-0.823231,0.000134779,0.0118925,1644,484,5.68021,9.94206
427,540,5.66211,-9.66876,0.000205957,-4.25687e-06,0.000149838,0.000283877,-8.21771e-05,0.479542,0.000221778,0.0121376,1651,484,5.66212,9.66876
434,540,5.64905,-9.40082,0.000283641,-0.000338851,0.000316114,0.000416018,-0.000471229,0.396579,0.000512583,0.0140779,1658,484,5.64903,9.40081
441,540,5.65112,-9.11783,0.00049733,-0.00088086,0.000514196,0.000668031,-0.00105156,0.320529,0.001001,0.0165726,1665,484,5.65114,9.11782
448,540,5.6676,-8.83124,0.000759571,-0.00155511,0.00072868,0.000969861,-0.0017654,0.280956,0.00160131,0.0112659,1672,484,5.66759,8.83122
455,540,5.66211,-8.52582,0.00107741,-0.00232728,0.000940572,0.00131997,-0.00256984,0.252386,0.0022841,0.0107146,1679,484,5.66207,8.52581
462,540,5.63184,-8.2261,0.00156925,-0.00320884,0.00114591,0.00182985,-0.00346945,0.223618,0.00310798,0.0109815,1686,484,5.63182,8.22611
469,540,5.61401,-7.95499,0.0022654,-0.0040269,0.00132859,0.00253442,-0.00429592,0.199787,0.00398698,0.0139113,1693,484,5.61406,7.95498
476,540,5.58228,-7.71603,0.00293869,-0.00497221,0.00147296,0.00320404,-0.00523757,0.178239,0.00492068,0.0210826,1700,484,5.58226,7.71605
483,540,5.61194,-7.46411,0.00359312,-0.00601966,0.00144804,0.00380651,-0.00623306,0.146313,0.00585251,0.0425251,1707,484,5.61198,7.46413
490,540,5.78174,-7.36874,0,0,0,0,0,0,0,-1,1714,484,5.78172,7.36873
497,540,4.27393,-2.67752,0,0,0,0,0,0,0,-1,1721,484,4.27395,2.67751
504,540,5.52747,-4.4433,0,0,0,0,0,0,0,-1,1728,484,5.5275,4.44329
511,540,6.15503,-5.38013,0,0,0,0,0,0,0,-1,1735,484,6.15505,5.38012
518,540,6.16956,-5.09595,0,0,0,0,0,0,0,-1,1742,484,6.1695,5.09595
525,540,6.18396,-4.81177,0,0,0,0,0,0,0,-1,1749,484,6.18394,4.81178
532,540,2.84265,-1.07925,0,0,0,0,0,0,0,-1,1756,484,2.84269,1.07927
539,540,0,0,0,0,0,0,0,0,0,-1,1763,484,0,0
546,540,0,0,0,0,0,0,0,0,0,-1,1770,484,0,0
553,540,0,0,0,0,0,0,0,0,0,-1,1777,484,0,0
560,540,0,0,0,0,0,0,0,0,0,-1,1784,484,0,0
567,540,0,0,0,0,0,0,0,0,0,-1,1791,484,0,0
574,540,0,0,0,0,0,0,0,0,0,-1,1798,484,0,0
581,540,0,0,0,0,0,0,0,0,0,-1,1805,484,0,0
588,540,0,0,0,0,0,0,0,0,0,-1,1812,484,0,0
595,540,0,0,0,0,0,0,0,0,0,-1,1819,484,0,0
602,540,0,0,0,0,0,0,0,0,0,-1,1826,484,0,0
609,540,0,0,0,0,0,0,0,0,0,-1,1833,484,0,0
616,540,0,0,0,0,0,0,0,0,0,-1,1840,484,0,0
623,540,0,0,0,0,0,0,0,0,0,-1,1847,484,0,0
630,540,0,0,0,0,0,0,0,0,0,-1,1854,484,0,0
637,540,0,0,0,0,0,0,0,0,0,-1,1861,484,0,0
644,540,0,0,0,0,0,0,0,0,0,-1,1868,484,0,0
651,540,0,0,0,0,0,0,0,0,0,-1,1875,484,0,0
658,540,0,0,0,0,0,0,0,0,0,-1,1882,484,0,0
665,540,0,0,0,0,0,0,0,0,0,-1,1889,484,0,0
672,540,0,0,0,0,0,0,0,0,0,-1,1896,484,0,0
679,540,0,0,0,0,0,0,0,0,0,-1,1903,484,0,0
686,540,0,0,0,0,0,0,0,0,0,-1,1910,484,0,0
693,540,0,0,0,0,0,0,0,0,0,-1,1917,484,0,0
700,540,0,0,0,0,0,0,0,0,0,-1,1924,484,0,0
707,540,0,0,0,0,0,0,0,0,0,-1,1931,484,0,0
714,540,0,0,0,0,0,0,0,0,0,-1,1938,484,0,0
721,540,0,0,0,0,0,0,0,0,0,-1,1945,484,0,0
728,540,0,0,0,0,0,0,0,0,0,-1,1952,484,0,0
735,540,0,0,0,0,0,0,0,0,0,-1,1959,484,0,0
742,540,0,0,0,0,0,0,0,0,0,-1,1966,484,0,0
749,540,0,0,0,0,0,0,0,0,0,-1,1973,484,0,0
756,540,0,0,0,0,0,0,0,0,0,-1,1980,484,0,0
763,540,0,0,0,0,0,0,0,0,0,-1,1987,484,0,0
770,540,0,0,0,0,0,0,0,0,0,-1,1994,484,0,0
777,540,0,0,0,0,0,0,0,0,0,-1,2001,484,0,0
784,540,0,0,0,0,0,0,0,0,0,-1,2008,484,0,0
791,540,0,0,0,0,0,0,0,0,0,-1,2015,484,0,0
798,540,0,0,0,0,0,0,0,0,0,-1,2022,484,0,0
805,540,0,0,0,0,0,0,0,0,0,-1,2029,484,0,0
812,540,0,0,0,0,0,0,0,0,0,-1,2036,484,0,0
-700,533,0,0,0,0,0,0,0,0,0,-1,524,491,0,0
-693,533,0,0,0,0,0,0,0,0,0,-1,531,491,0,0
-686,533,0,0,0,0,0,0,0,0,0,-1,538,491,0,0
-679,533,0,0,0,0,0,0,0,0,0,-1,545,491,0,0
-672,533,0,0,0,0,0,0,0,0,0,-1,552,491,0,0
-665,533,0,0,0,0,0,0,0,0,0,-1,559,491,0,0
-658,533,0,0,0,0,0,0,0,0,0,-1,566,491,0,0
-651,533,0,0,0,0,0,0,0,0,0,-1,573,491,0,0
-644,533,0,0,0,0,0,0,0,0,0,-1,580,491,0,0
-637,533,0,0,0,0,0,0,0,0,0,-1,587,491,0,0
-630,533,0,0,0,0,0,0,0,0,0,-1,594,491,0,0
-623,533,0,0,0,0,0,0,0,0,0,-1,601,491,0,0
-616,533,0,0,0,0,0,0,0,0,0,-1,608,491,0,0
-609,533,0,0,0,0,0,0,0,0,0,-1,615,491,0,0
-602,533,0,0,0,0,0,0,0,0,0,-1,622,491,0,0
-595,533,0,0,0,0,0,0,0,0,0,-1,629,491,0,0
-588,533,0,0,0,0,0,0,0,0,0,-1,636,491,0,0
-581,533,0,0,0,0,0,0,0,0,0,-1,643,491,0,0
-574,533,0,0,0,0,0,0,0,0,0,-1,650,491,0,0
-567,533,0,0,0,0,0,0,0,0,0,-1,657,491,0,0
-560,533,0,0,0,0,0,0,0,0,0,-1,664,491,0,0
-553,533,0,0,0,0,0,0,0,0,0,-1,671,491,0,0
-546,533,0,0,0,0,0,0,0,0,0,-1,678,491,0,0
-539,533,0,0,0,0,0,0,0,0,0,-1,685,491,0,0
-532,533,0,0,0,0,0,0,0,0,0,-1,692,491,0,0
-525,533,0,0,0,0,0,0,0,0,0,-1,699,491,0,0
-518,533,0,0,0,0,0,0,0,0,0,-1,706,491,0,0
-511,533,0,0,0,0,0,0,0,0,0,-1,713,491,0,0
-504,533,0,0,0,0,0,0,0,0,0,-1,720,491,0,0
-497,533,0,0,0,0,0,0,0,0,0,-1,727,491,0,0
-490,533,0,0,0,0,0,0,0,0,0,-1,734,491,0,0
-483,533,0,0,0,0,0,0,0,0,0,-1,741,491,0,0
-476,533,0,0,0,0,0,0,0,0,0,-1,748,491,0,0
-469,533,0,0,0,0,0,0,0,0,0,-1,755,491,0,0
-462,533,0,0,0,0,0,0,0,0,0,-1,762,491,0,0
-455,533,0,0,0,0,0,0,0,0,0,-1,769,491,0,0
-448,533,0,0,0,0,0,0,0,0,0,-1,776,491,0,0
-441,533,0,0,0,0,0,0,0,0,0,-1,783,491,0,0
-434,533,0,0,0,0,0,0,0,0,0,-1,790,491,0,0
-427,533,-0.122925,-6.00681,0,0,0,0,0,0,0,-1,797,491,-0.12292,6.0068
-420,533,0.0593872,-5.87881,0,0,0,0,0,0,0,-1,804,491,0.0593684,5.87882
-413,533,-0.394592,-5.69675,0,0,0,0,0,0,0,-1,811,491,-0.394571,5.69676
-406,533,-0.692749,-5.52145,0,0,0,0,0,0,0,-1,818,491,-0.692735,5.52145
-399,533,-1.07166,-5.44293,0,0,0,0,0,0,0,-1,825,491,-1.07166,5.44295
-392,533,-1.50049,-5.9238,0,0,0,0,0,0,0,-1,832,491,-1.50049,5.92381
-385,533,-1.69116,-6.64645,0,0,0,0,0,0,0,-1,839,491,-1.69115,6.64645
-378,533,-0.761414,-5.15549,0,0,0,0,0,0,0,-1,846,491,-0.761387,5.15549
-371,533,0.173218,-8.13156,0,0,0,0,0,0,0,-1,853,491,0.173241,8.13157
-364,533,0.515503,-8.45245,0.00594235,0.0032112,-0.00600102,0.0107312,-0.00157766,-0.673525,0.00773385,0.0410204,860,491,0.515493,8.45244
-357,533,0.395203,-8.7363,0.0050351,0.00184587,-0.00472084,0.00842337,-0.0015424,-0.622524,0.00619406,0.0260625,867,491,0.395178,8.73629
-350,533,0.322388,-9.01926,0.00430408,0.000697128,-0.00371517,0.00663038,-0.00162917,-0.559434,0.00505165,0.0111947,874,491,0.322392,9.01925
-343,533,0.31073,-9.35065,0.00364606,6.92763e-05,-0.00291214,0.0052751,-0.00155977,-0.510031,0.00413589,0.01062,881,491,0.310724,9.35064
-336,533,0.289612,-9.63931,0.00318646,-0.000276115,-0.00239242,0.00440831,-0.00149797,-0.472185,0.0035453,0.0146446,888,491,0.289586,9.6393
-329,533,0.290588,-9.88589,0.00273426,-0.000694601,-0.00182758,0.00352569,-0.00148603,-0.408666,0.00297232,0.0134156,895,491,0.290614,9.8859
-322,533,0.296692,-10.1509,0.00228964,-0.000545284,-0.00148575,0.00292562,-0.00118127,-0.404458,0.00244137,0.0119774,902,491,0.296706,10.1509
-315,533,0.278442,-10.444,0.00192646,-0.000256159,-0.00121032,0.00246483,-0.000794524,-0.41853,0.00196243,0.0124392,909,491,0.278454,10.444
-308,533,0.26709,-10.6905,0.00173443,-9.25222e-05,-0.000999996,0.00217536,-0.000533458,-0.415292,0.00165694,0.0110971,916,491,0.267097,10.6905
-301,533,0.247986,-10.92,0.00155467,8.01496e-06,-0.000740991,0.00185237,-0.000289686,-0.382023,0.00134194,0.0128547,923,491,0.247969,10.92
-294,533,0.261963,-11.1552,0.00146382,1.30003e-06,-0.000338097,0.0015382,-7.30767e-05,-0.216537,0.00105067,0.0120065,930,491,0.26196,11.1552
-287,533,0.284607,-11.4337,0.00140393,-0.000210273,0.000248241,0.00144125,-0.000247586,0.149194,0.00105311,0.00908793,937,491,0.284587,11.4337
-280,533,0.288269,-11.6967,0.00146761,-0.000657632,0.000595414,0.00162305,-0.000813075,0.255368,0.00143218,0.00879465,944,491,0.288265,11.6967
-273,533,0.263367,-11.9483,0.00153981,-0.00132932,0.0010079,0.00185848,-0.00164799,0.306228,0.00202567,0.0122472,951,491,0.263361,11.9483
-266,533,0.278564,-12.1965,0.00172311,-0.00231221,0.0015024,0.00222103,-0.00281013,0.320025,0.00291137,0.0113338,958,491,0.278549,12.1965
-259,533,0.304749,-12.4384,0.00164631,-0.00342217,0.00194388,0.00230598,-0.00408184,0.327161,0.00373521,0.01128,965,491,0.304736,12.4385
-252,533,0.304993,-12.6481,0.00110277,-0.00442006,0.00265148,0.00216964,-0.00548693,0.382546,0.00455672,0.0138291,972,491,0.304974,12.6481
-245,533,0.373047,-12.8408,0.000513882,-0.00552703,0.00376923,0.00232356,-0.00733671,0.447617,0.00582232,0.0201247,979,491,0.373039,12.8408
-238,533,0.367859,-12.9559,-7.08445e-05,-0.00682885,0.00522415,0.00277184,-0.00967153,0.498335,0.00754334,0.0219934,986,491,0.367834,12.9559
-231,533,0.504272,-13.1234,-0.000893767,-0.00825741,0.0067328,0.00309816,-0.0122493,0.535188,0.00937124,0.0292403,993,491,0.504276,13.1234
-224,533,0.419861,-13.3111,-0.00206906,-0.00935317,0.00868609,0.00370763,-0.0151299,0.586883,0.011523,0.0392937,1000,491,0.41984,13.3111
-217,533,0.419006,-13.5123,-0.00331296,-0.0101606,0.0109886,0.00477283,-0.0182464,0.634375,0.0140285,0.0495336,1007,491,0.419033,13.5123
-210,533,0.497681,-13.7642,0,0,0,0,0,0,0,-1,1014,491,0.497695,13.7641
-203,533,-0.380005,-14.2739,0,0,0,0,0,0,0,-1,1021,491,-0.379992,14.2739
-196,533,-0.427856,-14.4978,0,0,0,0,0,0,0,-1,1028,491,-0.427883,14.4978
-189,533,-0.358765,-14.4412,0,0,0,0,0,0,0,-1,1035,491,-0.358754,14.4412
-182,533,1.26123,-11.4969,0,0,0,0,0,0,0,-1,1042,491,1.26128,11.4969
-175,533,0.937744,-7.36966,0,0,0,0,0,0,0,-1,1049,491,0.937769,7.36965
-168,533,2.64807,-2.7543,0,0,0,0,0,0,0,-1,1056,491,2.64812,2.7543
-161,533,1.91833,-1.76553,0,0,0,0,0,0,0,-1,1063,491,1.91836,1.76554
-154,533,-1.24805,-5.92294,0,0,0,0,0,0,0,-1,1070,491,-1.24806,5.92295
-147,533,0.383789,-12.1586,0,0,0,0,0,0,0,-1,1077,491,0.383829,12.1586
-140,533,-0.360107,-14.8449,0,0,0,0,0,0,0,-1,1084,491,-0.36005,14.8449
-133,533,0.189941,-16.0795,0,0,0,0,0,0,0,-1,1091,491,0.18994,16.0795
-126,533,2.89612,-2.59003,0,0,0,0,0,0,0,-1,1098,491,2.89608,2.59003
-119,533,3.00842,-12.8239,0,0,0,0,0,0,0,-1,1105,491,3.00841,12.8239
-112,533,7.05884,-10.21,0,0,0,0,0,0,0,-1,1112,491,7.0588,10.21
-105,533,3.84839,1.12769,0,0,0,0,0,0,0,-1,1119,491,3.84843,-1.12769
-98,533,-1.39392,-5.16367,0,0,0,0,0,0,0,-1,1126,491,-1.39394,5.16367
-91,533,0.367432,4.49753,0,0,0,0,0,0,0,-1,1133,491,0.367468,-4.49754
-84,533,-0.88623,3.03604,0,0,0,0,0,0,0,-1,1140,491,-0.886288,-3.03605
-77,533,0,0,0,0,0,0,0,0,0,-1,1147,491,0,0
-70,533,0,0,0,0,0,0,0,0,0,-1,1154,491,0,0
-63,533,0,0,0,0,0,0,0,0,0,-1,1161,491,0,0
-56,533,0,0,0,0,0,0,0,0,0,-1,1168,491,0,0
-49,533,0,0,0,0,0,0,0,0,0,-1,1175,491,0,0
-42,533,0,0,0,0,0,0,0,0,0,-1,1182,491,0,0
-35,533,0,0,0,0,0,0,0,0,0,-1,1189,491,0,0
-28,533,0,0,0,0,0,0,0,0,0,-1,1196,491,0,0
-21,533,0,0,0,0,0,0,0,0,0,-1,1203,491,0,0
-14,533,0,0,0,0,0,0,0,0,0,-1,1210,491,0,0
-7,533,0,0,0,0,0,0,0,0,0,-1,1217,491,0,0
0,533,0,0,0,0,0,0,0,0,0,-1,1224,491,0,0
7,533,0,0,0,0,0,0,0,0,0,-1,1231,491,0,0
14,533,0,0,0,0,0,0,0,0,0,-1,1238,491,0,0
21,533,0,0,0,0,0,0,0,0,0,-1,1245,491,0,0
28,533,0,0,0,0,0,0,0,0,0,-1,1252,491,0,0
35,533,0,0,0,0,0,0,0,0,0,-1,1259,491,0,0
42,533,0,0,0,0,0,0,0,0,0,-1,1266,491,0,0
49,533,0,0,0,0,0,0,0,0,0,-1,1273,491,0,0
56,533,0,0,0,0,0,0,0,0,0,-1,1280,491,0,0
63,533,0,0,0,0,0,0,0,0,0,-1,1287,491,0,0
70,533,0,0,0,0,0,0,0,0,0,-1,1294,491,0,0
77,533,0,0,0,0,0,0,0,0,0,-1,1301,491,0,0
84,533,0,0,0,0,0,0,0,0,0,-1,1308,491,0,0
91,533,0,0,0,0,0,0,0,0,0,-1,1315,491,0,0
98,533,0,0,0,0,0,0,0,0,0,-1,1322,491,0,0
105,533,0,0,0,0,0,0,0,0,0,-1,1329,491,0,0
112,533,0,0,0,0,0,0,0,0,0,-1,1336,491,0,0
119,533,0,0,0,0,0,0,0,0,0,-1,1343,491,0,0
126,533,0,0,0,0,0,0,0,0,0,-1,1350,491,0,0
133,533,0,0,0,0,0,0,0,0,0,-1,1357,491,0,0
140,533,0,0,0,0,0,0,0,0,0,-1,1364,491,0,0
147,533,0,0,0,0,0,0,0,0,0,-1,1371,491,0,0
154,533,0,0,0,0,0,0,0,0,0,-1,1378,491,0,0
161,533,0,0,0,0,0,0,0,0,0,-1,1385,491,0,0
168,533,0,0,0,0,0,0,0,0,0,-1,1392,491,0,0
175,533,0,0,0,0,0,0,0,0,0,-1,1399,491,0,0
182,533,0,0,0,0,0,0,0,0,0,-1,1406,491,0,0
189,533,0,0,0,0,0,0,0,0,0,-1,1413,491,0,0
196,533,0,0,0,0,0,0,0,0,0,-1,1420,491,0,0
203,533,3.7887,1.16193,0,0,0,0,0,0,0,-1,1427,491,3.78872,-1.16193
210,533,5.09558,-0.216034,0,0,0,0,0,0,0,-1,1434,491,5.09559,0.216028
217,533,6.91614,-2.46814,0,0,0,0,0,0,0,-1,1441,491,6.91618,2.46814
224,533,7.23621,-2.1857,0,0,0,0,0,0,0,-1,1448,491,7.23621,2.1857
231,533,7.23474,-1.92282,0,0,0,0,0,0,0,-1,1455,491,7.2347,1.92282
238,533,7.23535,-1.67258,0,0,0,0,0,0,0,-1,1462,491,7.23539,1.67258
245,533,6.86682,-1.2301,0,0,0,0,0,0,0,-1,1469,491,6.86686,1.23011
252,533,6.63354,-3.07825,0,0,0,0,0,0,0,-1,1476,491,6.6335,3.07824
259,533,6.16431,-2.35037,0,0,0,0,0,0,0,-1,1483,491,6.1643,2.35037
266,533,5.68884,-1.6214,0,0,0,0,0,0,0,-1,1490,491,5.68885,1.6214
273,533,5.21399,-0.864227,0,0,0,0,0,0,0,-1,1497,491,5.21403,0.864227
280,533,1.41089,-1.97946,0,0,0,0,0,0,0,-1,1504,491,1.41087,1.97946
287,533,1.6814,-2.44443,0,0,0,0,0,0,0,-1,1511,491,1.6814,2.44444
294,533,2.2384,-2.57626,0,0,0,0,0,0,0,-1,1518,491,2.23839,2.57625
301,533,3.39941,-4.0817,0,0,0,0,0,0,0,-1,1525,491,3.3994,4.08171
308,533,4.13733,-4.14752,0,0,0,0,0,0,0,-1,1532,491,4.13727,4.14752
315,533,4.80762,-5.29349,0,0,0,0,0,0,0,-1,1539,491,4.80762,5.29347
322,533,5.47803,-6.43942,0,0,0,0,0,0,0,-1,1546,491,5.47798,6.43943
329,533,3.88477,-3.86301,0,0,0,0,0,0,0,-1,1553,491,3.88475,3.86299
336,533,6.77429,-13.0433,0,0,0,0,0,0,0,-1,1560,491,6.77426,13.0433
343,533,5.87952,-6.38858,0,0,0,0,0,0,0,-1,1567,491,5.87953,6.38857
350,533,5.62915,-8.02426,0,0,0,0,0,0,0,-1,1574,491,5.6291,8.02426
357,533,6.11963,-12.0413,0,0,0,0,0,0,0,-1,1581,491,6.11967,12.0413
364,533,5.797,-12.0606,0,0,0,0,0,0,0,-1,1588,491,5.797,12.0606
371,533,5.85229,-11.8094,0,0,0,0,0,0,0,-1,1595,491,5.85223,11.8094
378,533,5.83813,-11.5412,0.000107059,-0.00176496,-0.00249734,0.00183804,-0.00349594,-0.6061,0.00312877,0.0292002,1602,491,5.83814,11.5412
385,533,5.93005,-11.2908,0.000154239,-0.00124134,-0.00194391,0.00152181,-0.00260891,-0.61308,0.00241224,0.0251234,1609,491,5.93,11.2908
392,533,5.92529,-11.0606,0.000142006,-0.000788844,-0.0013531,0.00110749,-0.00175433,-0.619752,0.00166628,0.0140776,1616,491,5.92533,11.0606
399,533,5.95154,-10.813,8.10951e-05,-0.000600735,-0.00111922,0.000910169,-0.00142981,-0.637562,0.00136205,0.012478,1623,491,5.9515,10.8131
406,533,5.96777,-10.5403,8.67174e-05,-0.000419781,-0.000960733,0.000827019,-0.00116008,-0.65653,0.00115261,0.0157153,1630,491,5.96773,10.5403
413,533,5.9646,-10.2317,0.000138088,-0.000102974,-0.000718989,0.000746579,-0.000711465,-0.702351,0.000841883,0.0132555,1637,491,5.96463,10.2317
420,533,5.94641,-9.94366,5.71451e-05,-2.05129e-05,-0.000580372,0.000599986,-0.000563354,-0.751996,0.000671765,0.0115198,1644,491,5.94643,9.94366
427,533,5.96252,-9.65961,1.63147e-06,-9.64435e-05,-0.000399255,0.000354849,-0.000449661,-0.724293,0.000465558,0.0116137,1651,491,5.96251,9.65961
434,533,5.94458,-9.38678,3.04762e-05,-0.000294867,-0.000217851,0.000139689,-0.00040408,-0.464702,0.00032608,0.0118089,1658,491,5.94458,9.38679
441,533,5.92798,-9.11597,0.000214259,-0.000658949,8.26196e-06,0.000214337,-0.000659027,0.00946049,0.000525573,0.0149899,1665,491,5.92799,9.11598
448,533,5.94714,-8.83002,0.000458182,-0.0011404,0.000256279,0.000498263,-0.00118048,0.155139,0.000995543,0.0163227,1672,491,5.94718,8.83001
455,533,5.95837,-8.50977,0.00075003,-0.00164288,0.000515369,0.000856306,-0.00174916,0.203364,0.00153342,0.0156356,1679,491,5.9584,8.50976
462,533,5.91858,-8.18887,0.00120507,-0.00226505,0.000750805,0.00136055,-0.00242053,0.204198,0.00221142,0.0145186,1686,491,5.91859,8.18888
469,533,5.90735,-7.93045,0.00183858,-0.00282576,0.000954696,0.00202642,-0.0030136,0.194274,0.00292841,0.00970054,1693,491,5.90739,7.93045
476,533,5.91711,-7.63345,0.00241993,-0.0034806,0.0011375,0.00263162,-0.00369229,0.183998,0.00366819,0.0114271,1700,491,5.91713,7.63344
483,533,5.9519,-7.31387,0.00293853,-0.00419322,0.0011528,0.00312025,-0.00437493,0.156341,0.00434751,0.0215224,1707,491,5.95187,7.31388
490,533,6.02563,-7.19461,0.00345553,-0.00505371,0.00112395,0.00360149,-0.00519966,0.129135,0.00510919,0.0495164,1714,491,6.02569,7.19461
497,533,6.16174,-7.0827,0,0,0,0,0,0,0,-1,1721,491,6.16176,7.0827
504,533,5.90869,-6.26035,0,0,0,0,0,0,0,-1,1728,491,5.90875,6.26036
511,533,6.08606,-5.9119,0,0,0,0,0,0,0,-1,1735,491,6.08609,5.91189
518,533,6.26599,-5.44852,0,0,0,0,0,0,0,-1,1742,491,6.26599,5.44851
525,533,6.25879,-5.19809,0,0,0,0,0,0,0,-1,1749,491,6.25878,5.19808
532,533,3.24243,0.0737,0,0,0,0,0,0,0,-1,1756,491,3.24239,-0.0737072
539,533,3.61609,1.62427,0,0,0,0,0,0,0,-1,1763,491,3.61606,-1.62426
546,533,3.59607,1.65799,0,0,0,0,0,0,0,-1,1770,491,3.59605,-1.658
553,533,0,0,0,0,0,0,0,0,0,-1,1777,491,0,0
560,533,0,0,0,0,0,0,0,0,0,-1,1784,491,0,0
567,533,0,0,0,0,0,0,0,0,0,-1,1791,491,0,0
574,533,0,0,0,0,0,0,0,0,0,-1,1798,491,0,0
581,533,0,0,0,0,0,0,0,0,0,-1,1805,491,0,0
588,533,0,0,0,0,0,0,0,0,0,-1,1812,491,0,0
595,533,0,0,0,0,0,0,0,0,0,-1,1819,491,0,0
602,533,0,0,0,0,0,0,0,0,0,-1,1826,491,0,0
609,533,0,0,0,0,0,0,0,0,0,-1,1833,491,0,0
616,533,0,0,0,0,0,0,0,0,0,-1,1840,491,0,0
623,533,0,0,0,0,0,0,0,0,0,-1,1847,491,0,0
630,533,0,0,0,0,0,0,0,0,0,-1,1854,491,0,0
637,533,0,0,0,0,0,0,0,0,0,-1,1861,491,0,0
644,533,0,0,0,0,0,0,0,0,0,-1,1868,491,0,0
651,533,0,0,0,0,0,0,0,0,0,-1,1875,491,0,0
658,533,0,0,0,0,0,0,0,0,0,-1,1882,491,0,0
665,533,0,0,0,0,0,0,0,0,0,-1,1889,491,0,0
672,533,0,0,0,0,0,0,0,0,0,-1,1896,491,0,0
679,533,0,0,0,0,0,0,0,0,0,-1,1903,491,0,0
686,533,0,0,0,0,0,0,0,0,0,-1,1910,491,0,0
693,533,0,0,0,0,0,0,0,0,0,-1,1917,491,0,0
700,533,0,0,0,0,0,0,0,0,0,-1,1924,491,0,0
707,533,0,0,0,0,0,0,0,0,0,-1,1931,491,0,0
714,533,0,0,0,0,0,0,0,0,0,-1,1938,491,0,0
721,533,0,0,0,0,0,0,0,0,0,-1,1945,491,0,0
728,533,0,0,0,0,0,0,0,0,0,-1,1952,491,0,0
735,533,0,0,0,0,0,0,0,0,0,-1,1959,491,0,0
742,533,0,0,0,0,0,0,0,0,0,-1,1966,491,0,0
749,533,0,0,0,0,0,0,0,0,0,-1,1973,491,0,0
756,533,0,0,0,0,0,0,0,0,0,-1,1980,491,0,0
763,533,0,0,0,0,0,0,0,0,0,-1,1987,491,0,0
770,533,0,0,0,0,0,0,0,0,0,-1,1994,491,0,0
777,533,0,0,0,0,0,0,0,0,0,-1,2001,491,0,0
784,533,0,0,0,0,0,0,0,0,0,-1,2008,491,0,0
791,533,0,0,0,0,0,0,0,0,0,-1,2015,491,0,0
798,533,0,0,0,0,0,0,0,0,0,-1,2022,491,0,0
805,533,0,0,0,0,0,0,0,0,0,-1,2029,491,0,0
812,533,0,0,0,0,0,0,0,0,0,-1,2036,491,0,0
-700,526,0,0,0,0,0,0,0,0,0,-1,524,498,0,0
-693,526,0,0,0,0,0,0,0,0,0,-1,531,498,0,0
-686,526,0,0,0,0,0,0,0,0,0,-1,538,498,0,0
-679,526,0,0,0,0,0,0,0,0,0,-1,545,498,0,0
-672,526,0,0,0,0,0,0,0,0,0,-1,552,498,0,0
-665,526,0,0,0,0,0,0,0,0,0,-1,559,498,0,0
-658,526,0,0,0,0,0,0,0,0,0,-1,566,498,0,0
-651,526,0,0,0,0,0,0,0,0,0,-1,573,498,0,0
-644,526,0,0,0,0,0,0,0,0,0,-1,580,498,0,0
-637,526,0,0,0,0,0,0,0,0,0,-1,587,498,0,0
-630,526,0,0,0,0,0,0,0,0,0,-1,594,498,0,0
-623,526,0,0,0,0,0,0,0,0,0,-1,601,498,0,0
-616,526,0,0,0,0,0,0,0,0,0,-1,608,498,0,0
-609,526,0,0,0,0,0,0,0,0,0,-1,615,498,0,0
-602,526,0,0,0,0,0,0,0,0,0,-1,622,498,0,0
-595,526,0,0,0,0,0,0,0,0,0,-1,629,498,0,0
-588,526,0,0,0,0,0,0,0,0,0,-1,636,498,0,0
-581,526,0,0,0,0,0,0,0,0,0,-1,643,498,0,0
-574,526,0,0,0,0,0,0,0,0,0,-1,650,498,0,0
-567,526,0,0,0,0,0,0,0,0,0,-1,657,498,0,0
-560,526,0,0,0,0,0,0,0,0,0,-1,664,498,0,0
-553,526,0,0,0,0,0,0,0,0,0,-1,671,498,0,0
-546,526,0,0,0,0,0,0,0,0,0,-1,678,498,0,0
-539,526,0,0,0,0,0,0,0,0,0,-1,685,498,0,0
-532,526,0,0,0,0,0,0,0,0,0,-1,692,498,0,0
-525,526,0,0,0,0,0,0,0,0,0,-1,699,498,0,0
-518,526,0,0,0,0,0,0,0,0,0,-1,706,498,0,0
-511,526,0,0,0,0,0,0,0,0,0,-1,713,498,0,0
-504,526,0,0,0,0,0,0,0,0,0,-1,720,498,0,0
-497,526,0,0,0,0,0,0,0,0,0,-1,727,498,0,0
-490,526,0,0,0,0,0,0,0,0,0,-1,734,498,0,0
-483,526,0,0,0,0,0,0,0,0,0,-1,741,498,0,0
-476,526,0,0,0,0,0,0,0,0,0,-1,748,498,0,0
-469,526,0,0,0,0,0,0,0,0,0,-1,755,498,0,0
-462,526,0,0,0,0,0,0,0,0,0,-1,762,498,0,0
-455,526,0,0,0,0,0,0,0,0,0,-1,769,498,0,0
-448,526,0,0,0,0,0,0,0,0,0,-1,776,498,0,0
-441,526,0,0,0,0,0,0,0,0,0,-1,783,498,0,0
-434,526,-0.153564,-5.96649,0,0,0,0,0,0,0,-1,790,498,-0.153589,5.9665
-427,526,0.0078125,-5.84042,0,0,0,0,0,0,0,-1,797,498,0.00779806,5.84041
-420,526,0.137146,-5.72488,0,0,0,0,0,0,0,-1,804,498,0.137154,5.7249
-413,526,-0.392944,-6.06012,0,0,0,0,0,0,0,-1,811,498,-0.392959,6.06011
-406,526,-0.698364,-5.87762,0,0,0,0,0,0,0,-1,818,498,-0.698385,5.87761
-399,526,-1.00378,-5.6951,0,0,0,0,0,0,0,-1,825,498,-1.00381,5.69511
-392,526,-1.10022,-6.7597,0,0,0,0,0,0,0,-1,832,498,-1.10022,6.75971
-385,526,-0.192322,-6.53458,0,0,0,0,0,0,0,-1,839,498,-0.192292,6.53456
-378,526,-0.0527954,-7.47928,0,0,0,0,0,0,0,-1,846,498,-0.0527688,7.47927
-371,526,0.0272217,-8.15417,0.00465378,0.00496754,-0.00660523,0.0114178,-0.00179644,-0.797271,0.0082759,0.0413241,853,498,0.0272389,8.15416
-364,526,0.101685,-8.47064,0.00389005,0.00321516,-0.0050752,0.00863901,-0.0015338,-0.752202,0.00633282,0.0226648,860,498,0.101709,8.47063
-357,526,0.0462646,-8.71088,0.00328399,0.00191043,-0.00394635,0.00660287,-0.00140846,-0.699247,0.00493881,0.0148192,867,498,0.0462796,8.71087
-350,526,0.0712891,-9.02917,0.0028195,0.000830581,-0.00306814,0.00505032,-0.00140024,-0.628678,0.00391794,0.0113383,874,498,0.0713024,9.02917
-343,526,0.0478516,-9.35312,0.00239517,0.000260233,-0.0023523,0.00391088,-0.00125548,-0.572395,0.00311136,0.0145142,881,498,0.04784,9.35313
-336,526,0.0231323,-9.61292,0.00214889,-5.79516e-05,-0.00189934,0.00324206,-0.00115112,-0.522251,0.00263042,0.0146665,888,498,0.0231076,9.61291
-329,526,0.0350342,-9.8743,0.0019252,-0.000430575,-0.00142331,0.00259481,-0.00110018,-0.439736,0.00219071,0.0149333,895,498,0.0350614,9.87428
-322,526,0.0279541,-10.1242,0.0016939,-0.00026836,-0.00113729,0.00221479,-0.000789247,-0.429491,0.0017983,0.0104988,902,498,0.0279329,10.1242
-315,526,0.0222168,-10.4082,0.00154601,3.73296e-05,-0.00090184,0.0019674,-0.000384062,-0.437112,0.0014566,0.00905094,909,498,0.022202,10.4082
-308,526,0.0195923,-10.6861,0.00155449,0.000201148,-0.000715608,0.00186269,-0.000107056,-0.40668,0.00127897,0.00841826,916,498,0.0195772,10.6861
-301,526,0.0032959,-10.9271,0.00155207,0.000296797,-0.00050029,0.00172706,0.000121802,-0.336486,0.001113,0.0101667,923,498,0.00329535,10.9271
-294,526,0.000244141,-11.1695,0.00161273,0.000277457,-0.000114218,0.00162243,0.000267757,-0.0847188,0.00100434,0.00950226,930,498,0.000222535,11.1695
-287,526,0.00250244,-11.4214,0.00177669,-6.09084e-05,0.000463984,0.0018872,-0.000171416,0.233816,0.00131899,0.00918841,937,498,0.00247277,11.4214
-280,526,-0.00262451,-11.6731,0.00201181,-0.000632882,0.000850128,0.00226151,-0.000882578,0.285681,0.00187253,0.0118477,944,498,-0.00259641,11.6731
-273,526,0.00585938,-11.9341,0.00215996,-0.0015064,0.00131128,0.00258067,-0.0019271,0.31046,0.00261166,0.0100274,951,498,0.0058445,11.9341
-266,526,0.0280762,-12.1828,0.00239474,-0.00284549,0.00193065,0.00302922,-0.00347997,0.317518,0.00376108,0.00939339,958,498,0.0280624,12.1828
-259,526,0.078125,-12.3859,0.00232917,-0.00427476,0.00249455,0.00316554,-0.00511112,0.323498,0.00482234,0.0152586,965,498,0.0780963,12.3859
-252,526,0.0811157,-12.5742,0.00161908,-0.00561733,0.00340873,0.00297188,-0.00697013,0.377799,0.00589271,0.0305933,972,498,0.0810958,12.5742
-245,526,-0.055542,-12.7938,0.000762896,-0.00712089,0.00489773,0.00310799,-0.00946599,0.446555,0.00756262,0.041664,979,498,-0.05556,12.7938
-238,526,-0.104065,-12.8318,-8.44147e-05,-0.00871232,0.00669125,0.00356298,-0.0123597,0.499073,0.00964929,0.0439152,986,498,-0.104079,12.8318
-231,526,0.530701,-12.7923,0,0,0,0,0,0,0,-1,993,498,0.530686,12.7923
-224,526,0.301697,-13.0526,0,0,0,0,0,0,0,-1,1000,498,0.301714,13.0526
-217,526,0.330933,-13.3446,0,0,0,0,0,0,0,-1,1007,498,0.330913,13.3446
-210,526,0.171021,-8.39801,0,0,0,0,0,0,0,-1,1014,498,0.170997,8.398
-203,526,1.29535,-12.9261,0,0,0,0,0,0,0,-1,1021,498,1.29535,12.9261
-196,526,-0.328247,-12.179,0,0,0,0,0,0,0,-1,1028,498,-0.328238,12.179
-189,526,0.401245,-5.96826,0,0,0,0,0,0,0,-1,1035,498,0.401197,5.96826
-182,526,1.7323,-2.99405,0,0,0,0,0,0,0,-1,1042,498,1.73226,2.99404
-175,526,2.27637,-2.07983,0,0,0,0,0,0,0,-1,1049,498,2.27639,2.07984
-168,526,2.12036,-1.66049,0,0,0,0,0,0,0,-1,1056,498,2.12035,1.66048
-161,526,2.09082,-1.20572,0,0,0,0,0,0,0,-1,1063,498,2.09086,1.2057
-154,526,-1.3446,-5.37799,0,0,0,0,0,0,0,-1,1070,498,-1.34457,5.37799
-147,526,-0.472656,-6.64996,0,0,0,0,0,0,0,-1,1077,498,-0.472659,6.64997
-140,526,0.422852,-8.03339,0,0,0,0,0,0,0,-1,1084,498,0.422844,8.0334
-133,526,1.09583,-9.2215,0,0,0,0,0,0,0,-1,1091,498,1.09581,9.2215
-126,526,3.42529,-2.36053,0,0,0,0,0,0,0,-1,1098,498,3.42523,2.36052
-119,526,2.7771,-0.764099,0,0,0,0,0,0,0,-1,1105,498,2.7771,0.764107
-112,526,2.57715,-1.1893,0,0,0,0,0,0,0,-1,1112,498,2.57718,1.1893
-105,526,0,0,0,0,0,0,0,0,0,-1,1119,498,0,0
-98,526,0,0,0,0,0,0,0,0,0,-1,1126,498,0,0
-91,526,0,0,0,0,0,0,0,0,0,-1,1133,498,0,0
-84,526,0,0,0,0,0,0,0,0,0,-1,1140,498,0,0
-77,526,0,0,0,0,0,0,0,0,0,-1,1147,498,0,0
-70,526,0,0,0,0,0,0,0,0,0,-1,1154,498,0,0
-63,526,0,0,0,0,0,0,0,0,0,-1,1161,498,0,0
-56,526,0,0,0,0,0,0,0,0,0,-1,1168,498,0,0
-49,526,0,0,0,0,0,0,0,0,0,-1,1175,498,0,0
-42,526,0,0,0,0,0,0,0,0,0,-1,1182,498,0,0
-35,526,0,0,0,0,0,0,0,0,0,-1,1189,498,0,0
-28,526,0,0,0,0,0,0,0,0,0,-1,1196,498,0,0
-21,526,0,0,0,0,0,0,0,0,0,-1,1203,498,0,0
-14,526,0,0,0,0,0,0,0,0,0,-1,1210,498,0,0
-7,526,0,0,0,0,0,0,0,0,0,-1,1217,498,0,0
0,526,0,0,0,0,0,0,0,0,0,-1,1224,498,0,0
7,526,0,0,0,0,0,0,0,0,0,-1,1231,498,0,0
14,526,0,0,0,0,0,0,0,0,0,-1,1238,498,0,0
21,526,0,0,0,0,0,0,0,0,0,-1,1245,498,0,0
28,526,0,0,0,0,0,0,0,0,0,-1,1252,498,0,0
35,526,0,0,0,0,0,0,0,0,0,-1,1259,498,0,0
42,526,0,0,0,0,0,0,0,0,0,-1,1266,498,0,0
49,526,0,0,0,0,0,0,0,0,0,-1,1273,498,0,0
56,526,0,0,0,0,0,0,0,0,0,-1,1280,498,0,0
63,526,0,0,0,0,0,0,0,0,0,-1,1287,498,0,0
70,526,0,0,0,0,0,0,0,0,0,-1,1294,498,0,0
77,526,0,0,0,0,0,0,0,0,0,-1,1301,498,0,0
84,526,0,0,0,0,0,0,0,0,0,-1,1308,498,0,0
91,526,0,0,0,0,0,0,0,0,0,-1,1315,498,0,0
98,526,0,0,0,0,0,0,0,0,0,-1,1322,498,0,0
105,526,0,0,0,0,0,0,0,0,0,-1,1329,498,0,0
112,526,0,0,0,0,0,0,0,0,0,-1,1336,498,0,0
119,526,0,0,0,0,0,0,0,0,0,-1,1343,498,0,0
126,526,0,0,0,0,0,0,0,0,0,-1,1350,498,0,0
133,526,0,0,0,0,0,0,0,0,0,-1,1357,498,0,0
140,526,0,0,0,0,0,0,0,0,0,-1,1364,498,0,0
147,526,0,0,0,0,0,0,0,0,0,-1,1371,498,0,0
154,526,0,0,0,0,0,0,0,0,0,-1,1378,498,0,0
161,526,0,0,0,0,0,0,0,0,0,-1,1385,498,0,0
168,526,0,0,0,0,0,0,0,0,0,-1,1392,498,0,0
175,526,0,0,0,0,0,0,0,0,0,-1,1399,498,0,0
182,526,0,0,0,0,0,0,0,0,0,-1,1406,498,0,0
189,526,0,0,0,0,0,0,0,0,0,-1,1413,498,0,0
196,526,0,0,0,0,0,0,0,0,0,-1,1420,498,0,0
203,526,0,0,0,0,0,0,0,0,0,-1,1427,498,0,0
210,526,0,0,0,0,0,0,0,0,0,-1,1434,498,0,0
217,526,0,0,0,0,0,0,0,0,0,-1,1441,498,0,0
224,526,0,0,0,0,0,0,0,0,0,-1,1448,498,0,0
231,526,7.93237,-1.30618,0,0,0,0,0,0,0,-1,1455,498,7.93238,1.30618
238,526,7.97717,-1.08197,0,0,0,0,0,0,0,-1,1462,498,7.97723,1.08196
245,526,7.2793,-0.792938,0,0,0,0,0,0,0,-1,1469,498,7.27931,0.792926
252,526,6.73523,-2.23608,0,0,0,0,0,0,0,-1,1476,498,6.73525,2.23608
259,526,6.22949,-1.84967,0,0,0,0,0,0,0,-1,1483,498,6.22953,1.84968
266,526,5.72375,-1.46329,0,0,0,0,0,0,0,-1,1490,498,5.72381,1.46328
273,526,4.33984,0.49173,0,0,0,0,0,0,0,-1,1497,498,4.33979,-0.491727
280,526,1.4585,-1.59897,0,0,0,0,0,0,0,-1,1504,498,1.45846,1.59895
287,526,1.46411,-2.40134,0,0,0,0,0,0,0,-1,1511,498,1.46406,2.40133
294,526,5.57471,-4.59085,0,0,0,0,0,0,0,-1,1518,498,5.57466,4.59084
301,526,4.42786,-3.99677,0,0,0,0,0,0,0,-1,1525,498,4.42788,3.99676
308,526,5.79529,-4.19366,0,0,0,0,0,0,0,-1,1532,498,5.79528,4.19368
315,526,5.09851,-5.20068,0,0,0,0,0,0,0,-1,1539,498,5.09851,5.20068
322,526,5.50708,-4.72348,0,0,0,0,0,0,0,-1,1546,498,5.50713,4.72347
329,526,3.88672,-4.345,0,0,0,0,0,0,0,-1,1553,498,3.88674,4.34501
336,526,4.97876,-2.23828,0,0,0,0,0,0,0,-1,1560,498,4.97877,2.23828
343,526,3.31665,-2.69696,0,0,0,0,0,0,0,-1,1567,498,3.31667,2.69696
350,526,6.06287,-6.12015,0,0,0,0,0,0,0,-1,1574,498,6.06286,6.12014
357,526,5.79736,-7.7854,0,0,0,0,0,0,0,-1,1581,498,5.79734,7.78539
364,526,5.78186,-11.824,0,0,0,0,0,0,0,-1,1588,498,5.78187,11.824
371,526,5.58386,-11.3633,0,0,0,0,0,0,0,-1,1595,498,5.58383,11.3633
378,526,5.96716,-11.8669,0,0,0,0,0,0,0,-1,1602,498,5.96712,11.8669
385,526,6.10229,-11.4204,0,0,0,0,0,0,0,-1,1609,498,6.10232,11.4204
392,526,6.25867,-11.0961,-0.000192084,-0.00110812,-0.00199626,0.00139803,-0.00269823,-0.672631,0.00240436,0.0367461,1616,498,6.25865,11.0961
399,526,6.19849,-10.8079,-0.000276601,-0.000961516,-0.00179216,0.00120553,-0.00244364,-0.690993,0.00214689,0.0193721,1623,498,6.19846,10.8079
406,526,6.26245,-10.5105,-0.000233374,-0.000816242,-0.00164727,0.00114804,-0.00219766,-0.697844,0.00196307,0.0124782,1630,498,6.26239,10.5105
413,526,6.24414,-10.2396,-0.000140958,-0.000457738,-0.00137277,0.00108253,-0.00168123,-0.727962,0.00160809,0.0128249,1637,498,6.24416,10.2396
420,526,6.21387,-9.9747,-0.000237653,-0.000298102,-0.00121317,0.000945672,-0.00148143,-0.772944,0.00141262,0.0127395,1644,498,6.2139,9.9747
427,526,6.2428,-9.68588,-0.000339048,-0.000289794,-0.00102185,0.000707722,-0.00133656,-0.797446,0.00119874,0.0118952,1651,498,6.24285,9.68589
434,526,6.23657,-9.38162,-0.000338314,-0.000371229,-0.000809566,0.000454962,-0.0011645,-0.775235,0.000964449,0.0111486,1658,498,6.2366,9.38162
441,526,6.19763,-9.11148,-0.000165054,-0.000576753,-0.000540647,0.000207605,-0.000949413,-0.603499,0.000712301,0.0110564,1665,498,6.19762,9.11147
448,526,6.20959,-8.8237,8.55258e-05,-0.000891152,-0.000248218,0.000144989,-0.000950614,-0.235129,0.00068719,0.0103467,1672,498,6.20957,8.82371
455,526,6.2262,-8.53638,0.000377461,-0.0011806,6.18873e-05,0.000379916,-0.00118306,0.0396375,0.000941256,0.0127002,1679,498,6.22623,8.53636
462,526,6.21375,-8.2258,0.000815002,-0.00159218,0.000333085,0.000860241,-0.00163742,0.134993,0.00146511,0.00990723,1686,498,6.21371,8.22579
469,526,6.20667,-7.93262,0.00139988,-0.0019697,0.000558163,0.00148993,-0.00205976,0.159958,0.00205819,0.00759115,1693,498,6.20664,7.93261
476,526,6.20557,-7.63806,0.00191769,-0.00243125,0.000770586,0.00205019,-0.00256375,0.170285,0.00266935,0.00927961,1700,498,6.20554,7.63807
483,526,6.22107,-7.30991,0.00234684,-0.00292709,0.000813861,0.00246958,-0.00304983,0.14968,0.00319249,0.0116682,1707,498,6.22102,7.3099
490,526,6.28442,-6.94495,0.00275701,-0.00357337,0.000813174,0.0028598,-0.00367616,0.125737,0.00378333,0.024217,1714,498,6.28444,6.94495
497,526,6.20447,-6.80106,0.00302866,-0.00391945,0.000800437,0.00311968,-0.00401046,0.113226,0.00412729,0.030153,1721,498,6.20443,6.80105
504,526,6.1377,-6.40674,0.00329544,-0.00407786,0.000694608,0.0033603,-0.00414272,0.0931143,0.00433972,0.0327269,1728,498,6.13764,6.40675
511,526,6.27783,-6.04285,0.00368338,-0.00392681,0.000669871,0.00374189,-0.00398533,0.0871301,0.00446205,0.0405872,1735,498,6.27787,6.04286
518,526,6.3645,-5.72501,0.00392578,-0.00322683,0.000731799,0.00399989,-0.00330094,0.100919,0.00422157,0.0465544,1742,498,6.36453,5.725
525,526,6.45471,-5.41479,0,0,0,0,0,0,0,-1,1749,498,6.45471,5.4148
532,526,3.54285,-2.81274,0,0,0,0,0,0,0,-1,1756,498,3.54284,2.81273
539,526,3.29407,0.932312,0,0,0,0,0,0,0,-1,1763,498,3.2941,-0.93232
546,526,3.36731,1.07721,0,0,0,0,0,0,0,-1,1770,498,3.36735,-1.07719
553,526,3.40796,1.37137,0,0,0,0,0,0,0,-1,1777,498,3.40792,-1.37138
560,526,0,0,0,0,0,0,0,0,0,-1,1784,498,0,0
567,526,0,0,0,0,0,0,0,0,0,-1,1791,498,0,0
574,526,0,0,0,0,0,0,0,0,0,-1,1798,498,0,0
581,526,0,0,0,0,0,0,0,0,0,-1,1805,498,0,0
588,526,0,0,0,0,0,0,0,0,0,-1,1812,498,0,0
595,526,0,0,0,0,0,0,0,0,0,-1,1819,498,0,0
602,526,0,0,0,0,0,0,0,0,0,-1,1826,498,0,0
609,526,0,0,0,0,0,0,0,0,0,-1,1833,498,0,0
616,526,0,0,0,0,0,0,0,0,0,-1,1840,498,0,0
623,526,0,0,0,0,0,0,0,0,0,-1,1847,498,0,0
630,526,0,0,0,0,0,0,0,0,0,-1,1854,498,0,0
637,526,0,0,0,0,0,0,0,0,0,-1,1861,498,0,0
644,526,0,0,0,0,0,0,0,0,0,-1,1868,498,0,0
651,526,0,0,0,0,0,0,0,0,0,-1,1875,498,0,0
658,526,0,0,0,0,0,0,0,0,0,-1,1882,498,0,0
665,526,0,0,0,0,0,0,0,0,0,-1,1889,498,0,0
672,526,0,0,0,0,0,0,0,0,0,-1,1896,498,0,0
679,526,0,0,0,0,0,0,0,0,0,-1,1903,498,0,0
686,526,0,0,0,0,0,0,0,0,0,-1,1910,498,0,0
693,526,0,0,0,0,0,0,0,0,0,-1,1917,498,0,0
700,526,0,0,0,0,0,0,0,0,0,-1,1924,498,0,0
707,526,0,0,0,0,0,0,0,0,0,-1,1931,498,0,0
714,526,0,0,0,0,0,0,0,0,0,-1,1938,498,0,0
721,526,0,0,0,0,0,0,0,0,0,-1,1945,498,0,0
728,526,0,0,0,0,0,0,0,0,0,-1,1952,498,0,0
735,526,0,0,0,0,0,0,0,0,0,-1,1959,498,0,0
742,526,0,0,0,0,0,0,0,0,0,-1,1966,498,0,0
749,526,0,0,0,0,0,0,0,0,0,-1,1973,498,0,0
756,526,0,0,0,0,0,0,0,0,0,-1,1980,498,0,0
763,526,0,0,0,0,0,0,0,0,0,-1,1987,498,0,0
770,526,0,0,0,0,0,0,0,0,0,-1,1994,498,0,0
777,526,0,0,0,0,0,0,0,0,0,-1,2001,498,0,0
784,526,0,0,0,0,0,0,0,0,0,-1,2008,498,0,0
791,526,0,0,0,0,0,0,0,0,0,-1,2015,498,0,0
798,526,0,0,0,0,0,0,0,0,0,-1,2022,498,0,0
805,526,0,0,0,0,0,0,0,0,0,-1,2029,498,0,0
812,526,0,0,0,0,0,0,0,0,0,-1,2036,498,0,0
-700,519,0,0,0,0,0,0,0,0,0,-1,524,505,0,0
-693,519,0,0,0,0,0,0,0,0,0,-1,531,505,0,0
-686,519,0,0,0,0,0,0,0,0,0,-1,538,505,0,0
-679,519,0,0,0,0,0,0,0,0,0,-1,545,505,0,0
-672,519,0,0,0,0,0,0,0,0,0,-1,552,505,0,0
-665,519,0,0,0,0,0,0,0,0,0,-1,559,505,0,0
-658,519,0,0,0,0,0,0,0,0,0,-1,566,505,0,0
-651,519,0,0,0,0,0,0,0,0,0,-1,573,505,0,0
-644,519,0,0,0,0,0,0,0,0,0,-1,580,505,0,0
-637,519,0,0,0,0,0,0,0,0,0,-1,587,505,0,0
-630,519,0,0,0,0,0,0,0,0,0,-1,594,505,0,0
-623,519,0,0,0,0,0,0,0,0,0,-1,601,505,0,0
-616,519,0,0,0,0,0,0,0,0,0,-1,608,505,0,0
-609,519,0,0,0,0,0,0,0,0,0,-1,615,505,0,0
-602,519,0,0,0,0,0,0,0,0,0,-1,622,505,0,0
-595,519,0,0,0,0,0,0,0,0,0,-1,629,505,0,0
-588,519,0,0,0,0,0,0,0,0,0,-1,636,505,0,0
-581,519,0,0,0,0,0,0,0,0,0,-1,643,505,0,0
-574,519,0,0,0,0,0,0,0,0,0,-1,650,505,0,0
-567,519,0,0,0,0,0,0,0,0,0,-1,657,505,0,0
-560,519,0,0,0,0,0,0,0,0,0,-1,664,505,0,0
-553,519,0,0,0,0,0,0,0,0,0,-1,671,505,0,0
-546,519,0,0,0,0,0,0,0,0,0,-1,678,505,0,0
-539,519,0,0,0,0,0,0,0,0,0,-1,685,505,0,0
-532,519,0,0,0,0,0,0,0,0,0,-1,692,505,0,0
-525,519,0,0,0,0,0,0,0,0,0,-1,699,505,0,0
-518,519,0,0,0,0,0,0,0,0,0,-1,706,505,0,0
-511,519,0,0,0,0,0,0,0,0,0,-1,713,505,0,0
-504,519,0,0,0,0,0,0,0,0,0,-1,720,505,0,0
-497,519,0,0,0,0,0,0,0,0,0,-1,727,505,0,0
-490,519,0,0,0,0,0,0,0,0,0,-1,734,505,0,0
-483,519,0,0,0,0,0,0,0,0,0,-1,741,505,0,0
-476,519,0,0,0,0,0,0,0,0,0,-1,748,505,0,0
-469,519,0,0,0,0,0,0,0,0,0,-1,755,505,0,0
-462,519,0,0,0,0,0,0,0,0,0,-1,762,505,0,0
-455,519,0,0,0,0,0,0,0,0,0,-1,769,505,0,0
-448,519,0,0,0,0,0,0,0,0,0,-1,776,505,0,0
-441,519,1.34839,-5.29346,0,0,0,0,0,0,0,-1,783,505,1.3484,5.29347
-434,519,0.949585,-5.77313,0,0,0,0,0,0,0,-1,790,505,0.949598,5.77315
-427,519,0.138489,-5.67401,0,0,0,0,0,0,0,-1,797,505,0.138516,5.67402
-420,519,0.334229,-4.94653,0,0,0,0,0,0,0,-1,804,505,0.334216,4.94654
-413,519,-0.646606,-5.55994,0,0,0,0,0,0,0,-1,811,505,-0.646612,5.55995
-406,519,-0.696472,-6.1449,0,0,0,0,0,0,0,-1,818,505,-0.696455,6.1449
-399,519,-0.266052,-6.89847,0,0,0,0,0,0,0,-1,825,505,-0.266028,6.89847
-392,519,0.041748,-7.16809,0,0,0,0,0,0,0,-1,832,505,0.0417251,7.16811
-385,519,-0.316833,-7.01416,0.00603741,0.0103222,-0.0099465,0.0183544,-0.00199483,-0.891473,0.0129525,0.046332,839,505,-0.316808,7.01416
-378,519,-0.236389,-7.68146,0.00442015,0.00753127,-0.00758931,0.0137228,-0.00177138,-0.886482,0.00979254,0.035395,846,505,-0.236402,7.68149
-371,519,-0.207642,-8.10443,0.00311687,0.00457134,-0.00542622,0.00931883,-0.00163063,-0.852012,0.00682138,0.0203002,853,505,-0.207669,8.10444
-364,519,-0.223633,-8.40082,0.00247828,0.00314145,-0.00417602,0.00699902,-0.0013793,-0.825016,0.00518727,0.0124125,860,505,-0.22363,8.40085
-357,519,-0.188049,-8.72894,0.0020494,0.00201942,-0.00322625,0.0052607,-0.00119188,-0.783076,0.0039646,0.00993567,867,505,-0.188038,8.72893
-350,519,-0.188293,-9.03748,0.0017824,0.00107685,-0.00252224,0.00397642,-0.00111717,-0.715916,0.00309137,0.0117559,874,505,-0.188298,9.03749
-343,519,-0.218933,-9.33252,0.00154818,0.000572576,-0.00192809,0.00304922,-0.000928466,-0.6615,0.00240286,0.0144612,881,505,-0.218955,9.33254
-336,519,-0.24884,-9.58759,0.00148742,0.000272902,-0.00156293,0.00255692,-0.000796599,-0.600105,0.00202312,0.0144617,888,505,-0.24882,9.58759
-329,519,-0.24176,-9.83563,0.00147684,-3.72556e-05,-0.00120394,0.00214197,-0.00070239,-0.504733,0.00171087,0.0125041,895,505,-0.241757,9.83564
-322,519,-0.239136,-10.1259,0.00146072,0.000110188,-0.000996217,0.00198896,-0.000418055,-0.487553,0.00148507,0.0101874,902,505,-0.239146,10.1259
-315,519,-0.234375,-10.4185,0.00154463,0.00038657,-0.000818188,0.00196795,-3.67498e-05,-0.47746,0.00132439,0.00831305,909,505,-0.234349,10.4185
-308,519,-0.242554,-10.6885,0.00177377,0.00051164,-0.000658686,0.00205491,0.000230505,-0.403405,0.00129994,0.00753536,916,505,-0.242529,10.6885
-301,519,-0.272766,-10.9483,0.00196694,0.000568599,-0.000487675,0.00212022,0.000415323,-0.304524,0.00129739,0.0125436,923,505,-0.272755,10.9483
-294,519,-0.265198,-11.1743,0.00217633,0.000517924,-0.000113319,0.00218404,0.000510216,-0.0679091,0.00131926,0.0153855,930,505,-0.265204,11.1743
-287,519,-0.27887,-11.4387,0.00255647,6.77476e-05,0.000465628,0.00264073,-1.65162e-05,0.179031,0.00176602,0.0110735,937,505,-0.278872,11.4386
-280,519,-0.287537,-11.691,0.00297067,-0.000628412,0.000915003,0.00318993,-0.000847678,0.235198,0.00245839,0.0156415,944,505,-0.287539,11.691
-273,519,-0.245178,-11.9559,0.00315895,-0.00170177,0.0014602,0.00356387,-0.00210669,0.270509,0.00330974,0.0234936,951,505,-0.245154,11.9559
-266,519,-0.219727,-12.2073,0.00328348,-0.00337903,0.00227895,0.00398842,-0.00408397,0.299991,0.00466071,0.0316774,958,505,-0.219717,12.2073
-259,519,-0.106812,-12.3125,0.00314187,-0.0050936,0.00302733,0.00413496,-0.00608668,0.316979,0.00593722,0.0487901,965,505,-0.106791,12.3125
-252,519,0.0372925,-12.3663,0,0,0,0,0,0,0,-1,972,505,0.0373139,12.3663
-245,519,-0.564148,-12.8016,0,0,0,0,0,0,0,-1,979,505,-0.564124,12.8017
-238,519,-0.578613,-12.7209,0,0,0,0,0,0,0,-1,986,505,-0.578613,12.721
-231,519,0.337585,-11.2798,0,0,0,0,0,0,0,-1,993,505,0.337568,11.2798
-224,519,-0.0494995,-7.97394,0,0,0,0,0,0,0,-1,1000,505,-0.0495123,7.97392
-217,519,-2.97125,-4.84393,0,0,0,0,0,0,0,-1,1007,505,-2.97128,4.84393
-210,519,-2.14398,-4.74774,0,0,0,0,0,0,0,-1,1014,505,-2.14397,4.74775
-203,519,-0.513611,-5.39017,0,0,0,0,0,0,0,-1,1021,505,-0.513585,5.39017
-196,519,-0.374023,-5.41635,0,0,0,0,0,0,0,-1,1028,505,-0.374047,5.41635
-189,519,-0.234497,-5.44254,0,0,0,0,0,0,0,-1,1035,505,-0.234508,5.44253
-182,519,2.76697,-1.19659,0,0,0,0,0,0,0,-1,1042,505,2.76696,1.19661
-175,519,2.31323,-0.960938,0,0,0,0,0,0,0,-1,1049,505,2.31319,0.960941
-168,519,2.01074,-0.721405,0,0,0,0,0,0,0,-1,1056,505,2.01072,0.721407
-161,519,2.32056,-0.522339,0,0,0,0,0,0,0,-1,1063,505,2.32057,0.522328
-154,519,2.55566,0.116669,0,0,0,0,0,0,0,-1,1070,505,2.55563,-0.116661
-147,519,-0.55127,-6.14001,0,0,0,0,0,0,0,-1,1077,505,-0.551252,6.14001
-140,519,0.240601,-7.53503,0,0,0,0,0,0,0,-1,1084,505,0.240653,7.53501
-133,519,2.70911,-4.4516,0,0,0,0,0,0,0,-1,1091,505,2.70915,4.45161
-126,519,0,0,0,0,0,0,0,0,0,-1,1098,505,0,0
-119,519,0,0,0,0,0,0,0,0,0,-1,1105,505,0,0
-112,519,0,0,0,0,0,0,0,0,0,-1,1112,505,0,0
-105,519,0,0,0,0,0,0,0,0,0,-1,1119,505,0,0
-98,519,0,0,0,0,0,0,0,0,0,-1,1126,505,0,0
-91,519,0,0,0,0,0,0,0,0,0,-1,1133,505,0,0
-84,519,0,0,0,0,0,0,0,0,0,-1,1140,505,0,0
-77,519,0,0,0,0,0,0,0,0,0,-1,1147,505,0,0
-70,519,0,0,0,0,0,0,0,0,0,-1,1154,505,0,0
-63,519,0,0,0,0,0,0,0,0,0,-1,1161,505,0,0
-56,519,0,0,0,0,0,0,0,0,0,-1,1168,505,0,0
-49,519,0,0,0,0,0,0,0,0,0,-1,1175,505,0,0
-42,519,0,0,0,0,0,0,0,0,0,-1,1182,505,0,0
-35,519,0,0,0,0,0,0,0,0,0,-1,1189,505,0,0
-28,519,0,0,0,0,0,0,0,0,0,-1,1196,505,0,0
-21,519,0,0,0,0,0,0,0,0,0,-1,1203,505,0,0
-14,519,0,0,0,0,0,0,0,0,0,-1,1210,505,0,0
-7,519,0,0,0,0,0,0,0,0,0,-1,1217,505,0,0
0,519,0,0,0,0,0,0,0,0,0,-1,1224,505,0,0
7,519,0,0,0,0,0,0,0,0,0,-1,1231,505,0,0
14,519,0,0,0,0,0,0,0,0,0,-1,1238,505,0,0
21,519,0,0,0,0,0,0,0,0,0,-1,1245,505,0,0
28,519,0,0,0,0,0,0,0,0,0,-1,1252,505,0,0
35,519,0,0,0,0,0,0,0,0,0,-1,1259,505,0,0
42,519,0,0,0,0,0,0,0,0,0,-1,1266,505,0,0
49,519,0,0,0,0,0,0,0,0,0,-1,1273,505,0,0
56,519,0,0,0,0,0,0,0,0,0,-1,1280,505,0,0
63,519,0,0,0,0,0,0,0,0,0,-1,1287,505,0,0
70,519,0,0,0,0,0,0,0,0,0,-1,1294,505,0,0
77,519,0,0,0,0,0,0,0,0,0,-1,1301,505,0,0
84,519,0,0,0,0,0,0,0,0,0,-1,1308,505,0,0
91,519,0,0,0,0,0,0,0,0,0,-1,1315,505,0,0
98,519,0,0,0,0,0,0,0,0,0,-1,1322,505,0,0
105,519,0,0,0,0,0,0,0,0,0,-1,1329,505,0,0
112,519,0,0,0,0,0,0,0,0,0,-1,1336,505,0,0
119,519,0,0,0,0,0,0,0,0,0,-1,1343,505,0,0
126,519,0,0,0,0,0,0,0,0,0,-1,1350,505,0,0
133,519,0,0,0,0,0,0,0,0,0,-1,1357,505,0,0
140,519,0,0,0,0,0,0,0,0,0,-1,1364,505,0,0
147,519,0,0,0,0,0,0,0,0,0,-1,1371,505,0,0
154,519,0,0,0,0,0,0,0,0,0,-1,1378,505,0,0
161,519,0,0,0,0,0,0,0,0,0,-1,1385,505,0,0
168,519,0,0,0,0,0,0,0,0,0,-1,1392,505,0,0
175,519,0,0,0,0,0,0,0,0,0,-1,1399,505,0,0
182,519,0,0,0,0,0,0,0,0,0,-1,1406,505,0,0
189,519,0,0,0,0,0,0,0,0,0,-1,1413,505,0,0
196,519,0,0,0,0,0,0,0,0,0,-1,1420,505,0,0
203,519,0,0,0,0,0,0,0,0,0,-1,1427,505,0,0
210,519,0,0,0,0,0,0,0,0,0,-1,1434,505,0,0
217,519,0,0,0,0,0,0,0,0,0,-1,1441,505,0,0
224,519,0,0,0,0,0,0,0,0,0,-1,1448,505,0,0
231,519,0,0,0,0,0,0,0,0,0,-1,1455,505,0,0
238,519,0,0,0,0,0,0,0,0,0,-1,1462,505,0,0
245,519,0,0,0,0,0,0,0,0,0,-1,1469,505,0,0
252,519,5.26208,0.0938416,0,0,0,0,0,0,0,-1,1476,505,5.26207,-0.0938493
259,519,6.14246,-1.36441,0,0,0,0,0,0,0,-1,1483,505,6.14241,1.36441
266,519,5.31909,-0.400787,0,0,0,0,0,0,0,-1,1490,505,5.31912,0.400773
273,519,4.02393,0.325531,0,0,0,0,0,0,0,-1,1497,505,4.0239,-0.325522
280,519,4.68848,0.53006,0,0,0,0,0,0,0,-1,1504,505,4.68842,-0.530073
287,519,7.9519,-3.80801,0,0,0,0,0,0,0,-1,1511,505,7.95193,3.808
294,519,6.92273,-3.38889,0,0,0,0,0,0,0,-1,1518,505,6.92268,3.38888
301,519,5.35669,-2.92661,0,0,0,0,0,0,0,-1,1525,505,5.35675,2.9266
308,519,7.37549,-5.64529,0,0,0,0,0,0,0,-1,1532,505,7.3755,5.64529
315,519,6.30029,-4.53754,0,0,0,0,0,0,0,-1,1539,505,6.30024,4.53753
322,519,5.84302,-5.45117,0,0,0,0,0,0,0,-1,1546,505,5.84303,5.45116
329,519,4.92407,0.62384,0,0,0,0,0,0,0,-1,1553,505,4.92403,-0.623832
336,519,3.10095,-0.329285,0,0,0,0,0,0,0,-1,1560,505,3.1009,0.329283
343,519,2.49146,-2.31119,0,0,0,0,0,0,0,-1,1567,505,2.49145,2.31119
350,519,3.47729,-2.22516,0,0,0,0,0,0,0,-1,1574,505,3.47726,2.22515
357,519,4.51917,-4.51691,0,0,0,0,0,0,0,-1,1581,505,4.51914,4.51691
364,519,3.54626,-7.20673,0,0,0,0,0,0,0,-1,1588,505,3.54622,7.20675
371,519,5.349,-8.20068,0,0,0,0,0,0,0,-1,1595,505,5.34898,8.20068
378,519,6.36597,-10.0967,0,0,0,0,0,0,0,-1,1602,505,6.36597,10.0967
385,519,6.24756,-9.72186,0,0,0,0,0,0,0,-1,1609,505,6.24752,9.72183
392,519,6.60217,-10.8211,0,0,0,0,0,0,0,-1,1616,505,6.6022,10.8211
399,519,6.53955,-10.6791,-0.00106354,-0.00170509,-0.00291186,0.00154516,-0.00431379,-0.730539,0.0035063,0.0453598,1623,505,6.53951,10.6791
406,519,6.49475,-10.5269,-0.00093759,-0.0015102,-0.00271152,0.0015027,-0.00395049,-0.732799,0.00325241,0.0271966,1630,505,6.49477,10.5269
413,519,6.54272,-10.2589,-0.000750403,-0.0010438,-0.00233321,0.00144071,-0.00323492,-0.754002,0.00276494,0.0142568,1637,505,6.54277,10.2589
420,519,6.49622,-9.98584,-0.000806154,-0.000770769,-0.00208451,0.00129613,-0.00287305,-0.789642,0.0024638,0.0151422,1644,505,6.49617,9.98584
427,519,6.52856,-9.71722,-0.000865813,-0.000651677,-0.00180852,0.00105294,-0.00257043,-0.814964,0.00215224,0.013342,1651,505,6.52853,9.71725
434,519,6.54285,-9.40448,-0.000826069,-0.000580421,-0.00150334,0.000805105,-0.0022116,-0.826158,0.00180369,0.0124369,1658,505,6.5428,9.40448
441,519,6.50488,-9.10938,-0.000610329,-0.000608497,-0.00114665,0.000537241,-0.00175607,-0.785797,0.00138497,0.0120199,1665,505,6.50489,9.1094
448,519,6.48474,-8.823,-0.000302878,-0.000752799,-0.000774192,0.000278375,-0.00133405,-0.644005,0.000995222,0.009163,1672,505,6.48471,8.82299
455,519,6.51233,-8.55646,2.78271e-05,-0.000849769,-0.00038908,0.000175482,-0.000997424,-0.362708,0.000730503,0.00998803,1679,505,6.51237,8.55643
462,519,6.51257,-8.25128,0.000471261,-0.0010823,-6.4478e-05,0.000473933,-0.00108497,-0.0414085,0.00092279,0.00975153,1686,505,6.51262,8.25126
469,519,6.50977,-7.93945,0.00101701,-0.00132367,0.000200333,0.00103404,-0.00134069,0.084766,0.00137485,0.0101154,1693,505,6.50971,7.93947
476,519,6.50623,-7.62354,0.00147193,-0.00163738,0.000450521,0.00153589,-0.00170134,0.141031,0.00186983,0.0122244,1700,505,6.50617,7.62351
483,519,6.49927,-7.31256,0.00181615,-0.00197603,0.000524479,0.00188735,-0.00204723,0.134932,0.00227226,0.013624,1707,505,6.49924,7.31255
490,519,6.49023,-6.96588,0.00211692,-0.00247567,0.000543603,0.00218039,-0.00253914,0.116225,0.00272744,0.0117616,1714,505,6.49029,6.96588
497,519,6.49512,-6.68619,0.00224449,-0.00275277,0.000538541,0.00230187,-0.00281015,0.106144,0.00295628,0.0144534,1721,505,6.49509,6.68619
504,519,6.47424,-6.37332,0.0023142,-0.00285208,0.000459899,0.00235482,-0.0028927,0.0880962,0.00303496,0.0149373,1728,505,6.47429,6.37332
511,519,6.49573,-6.0386,0.00238978,-0.00270054,0.000406514,0.00242204,-0.0027328,0.0791912,0.00297795,0.0200916,1735,505,6.49569,6.0386
518,519,6.57837,-5.90173,0.00227772,-0.00217056,0.000412975,0.00231574,-0.00220858,0.0917937,0.00261236,0.042496,1742,505,6.57838,5.90174
525,519,6.7345,-5.7373,0,0,0,0,0,0,0,-1,1749,505,6.73444,5.7373
532,519,3.5155,-2.86511,0,0,0,0,0,0,0,-1,1756,505,3.51554,2.8651
539,519,3.30005,0.0229797,0,0,0,0,0,0,0,-1,1763,505,3.30008,-0.0229869
546,519,4.62024,-2.89774,0,0,0,0,0,0,0,-1,1770,505,4.62023,2.89775
553,519,4.14136,0.0667419,0,0,0,0,0,0,0,-1,1777,505,4.14141,-0.0667503
560,519,3.77856,0.279724,0,0,0,0,0,0,0,-1,1784,505,3.77861,-0.279731
567,519,0,0,0,0,0,0,0,0,0,-1,1791,505,0,0
574,519,0,0,0,0,0,0,0,0,0,-1,1798,505,0,0
581,519,0,0,0,0,0,0,0,0,0,-1,1805,505,0,0
588,519,0,0,0,0,0,0,0,0,0,-1,1812,505,0,0
595,519,0,0,0,0,0,0,0,0,0,-1,1819,505,0,0
602,519,0,0,0,0,0,0,0,0,0,-1,1826,505,0,0
609,519,0,0,0,0,0,0,0,0,0,-1,1833,505,0,0
616,519,0,0,0,0,0,0,0,0,0,-1,1840,505,0,0
623,519,0,0,0,0,0,0,0,0,0,-1,1847,505,0,0
630,519,0,0,0,0,0,0,0,0,0,-1,1854,505,0,0
637,519,0,0,0,0,0,0,0,0,0,-1,1861,505,0,0
644,519,0,0,0,0,0,0,0,0,0,-1,1868,505,0,0
651,519,0,0,0,0,0,0,0,0,0,-1,1875,505,0,0
658,519,0,0,0,0,0,0,0,0,0,-1,1882,505,0,0
665,519,0,0,0,0,0,0,0,0,0,-1,1889,505,0,0
672,519,0,0,0,0,0,0,0,0,0,-1,1896,505,0,0
679,519,0,0,0,0,0,0,0,0,0,-1,1903,505,0,0
686,519,0,0,0,0,0,0,0,0,0,-1,1910,505,0,0
693,519,0,0,0,0,0,0,0,0,0,-1,1917,505,0,0
700,519,0,0,0,0,0,0,0,0,0,-1,1924,505,0,0
707,519,0,0,0,0,0,0,0,0,0,-1,1931,505,0,0
714,519,0,0,0,0,0,0,0,0,0,-1,1938,505,0,0
721,519,0,0,0,0,0,0,0,0,0,-1,1945,505,0,0
728,519,0,0,0,0,0,0,0,0,0,-1,1952,505,0,0
735,519,0,0,0,0,0,0,0,0,0,-1,1959,505,0,0
742,519,0,0,0,0,0,0,0,0,0,-1,1966,505,0,0
749,519,0,0,0,0,0,0,0,0,0,-1,1973,505,0,0
756,519,0,0,0,0,0,0,0,0,0,-1,1980,505,0,0
763,519,0,0,0,0,0,0,0,0,0,-1,1987,505,0,0
770,519,0,0,0,0,0,0,0,0,0,-1,1994,505,0,0
777,519,0,0,0,0,0,0,0,0,0,-1,2001,505,0,0
784,519,0,0,0,0,0,0,0,0,0,-1,2008,505,0,0
791,519,0,0,0,0,0,0,0,0,0,-1,2015,505,0,0
798,519,0,0,0,0,0,0,0,0,0,-1,2022,505,0,0
805,519,0,0,0,0,0,0,0,0,0,-1,2029,505,0,0
812,519,0,0,0,0,0,0,0,0,0,-1,2036,505,0,0
-700,512,0,0,0,0,0,0,0,0,0,-1,524,512,0,0
-693,512,0,0,0,0,0,0,0,0,0,-1,531,512,0,0
-686,512,0,0,0,0,0,0,0,0,0,-1,538,512,0,0
-679,512,0,0,0,0,0,0,0,0,0,-1,545,512,0,0
-672,512,0,0,0,0,0,0,0,0,0,-1,552,512,0,0
-665,512,0,0,0,0,0,0,0,0,0,-1,559,512,0,0
-658,512,0,0,0,0,0,0,0,0,0,-1,566,512,0,0
-651,512,0,0,0,0,0,0,0,0,0,-1,573,512,0,0
-644,512,0,0,0,0,0,0,0,0,0,-1,580,512,0,0
-637,512,0,0,0,0,0,0,0,0,0,-1,587,512,0,0
-630,512,0,0,0,0,0,0,0,0,0,-1,594,512,0,0
-623,512,0,0,0,0,0,0,0,0,0,-1,601,512,0,0
-616,512,0,0,0,0,0,0,0,0,0,-1,608,512,0,0
-609,512,0,0,0,0,0,0,0,0,0,-1,615,512,0,0
-602,512,0,0,0,0,0,0,0,0,0,-1,622,512,0,0
-595,512,0,0,0,0,0,0,0,0,0,-1,629,512,0,0
-588,512,0,0,0,0,0,0,0,0,0,-1,636,512,0,0
-581,512,0,0,0,0,0,0,0,0,0,-1,643,512,0,0
-574,512,0,0,0,0,0,0,0,0,0,-1,650,512,0,0
-567,512,0,0,0,0,0,0,0,0,0,-1,657,512,0,0
-560,512,0,0,0,0,0,0,0,0,0,-1,664,512,0,0
-553,512,0,0,0,0,0,0,0,0,0,-1,671,512,0,0
-546,512,0,0,0,0,0,0,0,0,0,-1,678,512,0,0
-539,512,0,0,0,0,0,0,0,0,0,-1,685,512,0,0
-532,512,0,0,0,0,0,0,0,0,0,-1,692,512,0,0
-525,512,0,0,0,0,0,0,0,0,0,-1,699,512,0,0
-518,512,0,0,0,0,0,0,0,0,0,-1,706,512,0,0
-511,512,0,0,0,0,0,0,0,0,0,-1,713,512,0,0
-504,512,0,0,0,0,0,0,0,0,0,-1,720,512,0,0
-497,512,0,0,0,0,0,0,0,0,0,-1,727,512,0,0
-490,512,0,0,0,0,0,0,0,0,0,-1,734,512,0,0
-483,512,0,0,0,0,0,0,0,0,0,-1,741,512,0,0
-476,512,0,0,0,0,0,0,0,0,0,-1,748,512,0,0
-469,512,0,0,0,0,0,0,0,0,0,-1,755,512,0,0
-462,512,0,0,0,0,0,0,0,0,0,-1,762,512,0,0
-455,512,0,0,0,0,0,0,0,0,0,-1,769,512,0,0
-448,512,1.96283,-4.15674,0,0,0,0,0,0,0,-1,776,512,1.96285,4.15677
-441,512,1.78198,-4.88824,0,0,0,0,0,0,0,-1,783,512,1.78201,4.88826
-434,512,1.65955,-5.29175,0,0,0,0,0,0,0,-1,790,512,1.65952,5.29172
-427,512,1.29926,-5.30109,0,0,0,0,0,0,0,-1,797,512,1.29925,5.30107
-420,512,-0.0270386,-5.7135,0,0,0,0,0,0,0,-1,804,512,-0.0270211,5.71348
-413,512,-0.375427,-6.18146,0,0,0,0,0,0,0,-1,811,512,-0.375424,6.18148
-406,512,-0.686646,-6.40204,0,0,0,0,0,0,0,-1,818,512,-0.686623,6.40204
-399,512,-0.572998,-6.8111,0.00872558,0.0157871,-0.0142379,0.0269255,-0.00241277,-0.906938,0.0188062,0.045277,825,512,-0.573017,6.81112
-392,512,-0.374939,-7.19403,0.00622136,0.0118866,-0.0108672,0.0202843,-0.0021763,-0.912891,0.0143036,0.0348463,832,512,-0.374923,7.19405
-385,512,-0.438354,-7.49506,0.00458183,0.00893156,-0.00822577,0.0152651,-0.00175174,-0.914639,0.0108081,0.0184241,839,512,-0.438341,7.49505
-378,512,-0.485168,-7.8056,0.00328958,0.00656564,-0.0062205,0.0113602,-0.00150495,-0.914139,0.00812171,0.0148296,846,512,-0.485161,7.80561
-371,512,-0.488831,-8.12537,0.00224484,0.00400748,-0.00437797,0.00759195,-0.00133963,-0.884724,0.00556189,0.0123069,853,512,-0.4888,8.12539
-364,512,-0.472534,-8.44666,0.00179673,0.00283282,-0.0033498,0.0057044,-0.00107485,-0.862115,0.00420723,0.00940699,860,512,-0.472526,8.44664
-357,512,-0.458679,-8.73621,0.00156391,0.00187936,-0.00257098,0.00429745,-0.000854183,-0.816034,0.00318807,0.0104025,867,512,-0.458692,8.73622
-350,512,-0.472717,-9.03253,0.00149805,0.00106227,-0.00203792,0.0033297,-0.00076937,-0.732141,0.00251578,0.0113282,874,512,-0.472697,9.03253
-343,512,-0.511902,-9.32257,0.00145291,0.000595978,-0.00157964,0.00266116,-0.000612278,-0.652964,0.00200954,0.0120437,881,512,-0.51193,9.32256
-336,512,-0.514832,-9.5907,0.00155457,0.00030605,-0.00131292,0.00238408,-0.00052346,-0.56348,0.00178958,0.0123756,888,512,-0.514828,9.59068
-329,512,-0.495361,-9.84973,0.00171128,7.81423e-05,-0.00109338,0.00225936,-0.000469934,-0.464663,0.00168487,0.0129834,895,512,-0.495365,9.84976
-322,512,-0.507813,-10.1423,0.00185023,0.000209924,-0.000991548,0.00231686,-0.00025671,-0.439861,0.00163687,0.0105141,902,512,-0.507814,10.1423
-315,512,-0.51062,-10.4283,0.00209379,0.000442951,-0.000902116,0.00249112,4.56149e-05,-0.414883,0.00164575,0.00975734,909,512,-0.510634,10.4283
-308,512,-0.525818,-10.704,0.00246574,0.000519407,-0.000791732,0.00274713,0.000238025,-0.341478,0.00175746,0.0108811,916,512,-0.525788,10.7041
-301,512,-0.532959,-10.9582,0.00277058,0.000529165,-0.000681237,0.00296138,0.000338358,-0.273091,0.00187169,0.0164527,923,512,-0.532978,10.9582
-294,512,-0.517456,-11.1856,0.00302954,0.000478719,-0.000334724,0.00307273,0.000435528,-0.128328,0.00191985,0.0162454,930,512,-0.51747,11.1856
-287,512,-0.59375,-11.3901,0.00353716,2.02433e-05,0.000228025,0.00355189,5.52041e-06,0.0644768,0.00236609,0.0231221,937,512,-0.593733,11.3901
-280,512,-0.504272,-11.6976,0.0041224,-0.000817623,0.000775076,0.00424115,-0.000936375,0.152032,0.00318577,0.0337672,944,512,-0.50429,11.6976
-273,512,-0.387573,-12.0106,0,0,0,0,0,0,0,-1,951,512,-0.387546,12.0105
-266,512,-0.412598,-12.2928,0,0,0,0,0,0,0,-1,958,512,-0.412581,12.2929
-259,512,-0.378479,-12.4185,0,0,0,0,0,0,0,-1,965,512,-0.378483,12.4185
-252,512,1.45941,-3.43475,0,0,0,0,0,0,0,-1,972,512,1.45938,3.43475
-245,512,4.12927,-11.272,0,0,0,0,0,0,0,-1,979,512,4.1293,11.272
-238,512,0.227051,-8.92969,0,0,0,0,0,0,0,-1,986,512,0.227073,8.92968
-231,512,-2.54437,-10.169,0,0,0,0,0,0,0,-1,993,512,-2.54439,10.169
-224,512,-4.84601,-7.52783,0,0,0,0,0,0,0,-1,1000,512,-4.84602,7.52786
-217,512,-7.37274,-3.89563,0,0,0,0,0,0,0,-1,1007,512,-7.37274,3.89561
-210,512,-3.76642,-1.94702,0,0,0,0,0,0,0,-1,1014,512,-3.76641,1.94702
-203,512,-2.48328,-5.19061,0,0,0,0,0,0,0,-1,1021,512,-2.48328,5.19059
-196,512,-1.14929,-4.63202,0,0,0,0,0,0,0,-1,1028,512,-1.14934,4.632
-189,512,0.197998,4.55505,0,0,0,0,0,0,0,-1,1035,512,0.197996,-4.55506
-182,512,2.73938,0.0778503,0,0,0,0,0,0,0,-1,1042,512,2.73944,-0.077852
-175,512,2.29565,0.209808,0,0,0,0,0,0,0,-1,1049,512,2.29565,-0.209813
-168,512,2.09399,-0.302856,0,0,0,0,0,0,0,-1,1056,512,2.09403,0.302826
-161,512,2.76636,0.0921021,0,0,0,0,0,0,0,-1,1063,512,2.76633,-0.0921104
-154,512,3.41382,0.466187,0,0,0,0,0,0,0,-1,1070,512,3.41382,-0.466178
-147,512,0,0,0,0,0,0,0,0,0,-1,1077,512,0,0
-140,512,0,0,0,0,0,0,0,0,0,-1,1084,512,0,0
-133,512,0,0,0,0,0,0,0,0,0,-1,1091,512,0,0
-126,512,0,0,0,0,0,0,0,0,0,-1,1098,512,0,0
-119,512,0,0,0,0,0,0,0,0,0,-1,1105,512,0,0
-112,512,0,0,0,0,0,0,0,0,0,-1,1112,512,0,0
-105,512,0,0,0,0,0,0,0,0,0,-1,1119,512,0,0
-98,512,0,0,0,0,0,0,0,0,0,-1,1126,512,0,0
-91,512,0,0,0,0,0,0,0,0,0,-1,1133,512,0,0
-84,512,0,0,0,0,0,0,0,0,0,-1,1140,512,0,0
-77,512,0,0,0,0,0,0,0,0,0,-1,1147,512,0,0
-70,512,0,0,0,0,0,0,0,0,0,-1,1154,512,0,0
-63,512,0,0,0,0,0,0,0,0,0,-1,1161,512,0,0
-56,512,0,0,0,0,0,0,0,0,0,-1,1168,512,0,0
-49,512,0,0,0,0,0,0,0,0,0,-1,1175,512,0,0
-42,512,0,0,0,0,0,0,0,0,0,-1,1182,512,0,0
-35,512,0,0,0,0,0,0,0,0,0,-1,1189,512,0,0
-28,512,0,0,0,0,0,0,0,0,0,-1,1196,512,0,0
-21,512,0,0,0,0,0,0,0,0,0,-1,1203,512,0,0
-14,512,0,0,0,0,0,0,0,0,0,-1,1210,512,0,0
-7,512,0,0,0,0,0,0,0,0,0,-1,1217,512,0,0
0,512,0,0,0,0,0,0,0,0,0,-1,1224,512,0,0
7,512,0,0,0,0,0,0,0,0,0,-1,1231,512,0,0
14,512,0,0,0,0,0,0,0,0,0,-1,1238,512,0,0
21,512,0,0,0,0,0,0,0,0,0,-1,1245,512,0,0
28,512,0,0,0,0,0,0,0,0,0,-1,1252,512,0,0
35,512,0,0,0,0,0,0,0,0,0,-1,1259,512,0,0
42,512,0,0,0,0,0,0,0,0,0,-1,1266,512,0,0
49,512,0,0,0,0,0,0,0,0,0,-1,1273,512,0,0
56,512,0,0,0,0,0,0,0,0,0,-1,1280,512,0,0
63,512,0,0,0,0,0,0,0,0,0,-1,1287,512,0,0
70,512,0,0,0,0,0,0,0,0,0,-1,1294,512,0,0
77,512,0,0,0,0,0,0,0,0,0,-1,1301,512,0,0
84,512,0,0,0,0,0,0,0,0,0,-1,1308,512,0,0
91,512,0,0,0,0,0,0,0,0,0,-1,1315,512,0,0
98,512,0,0,0,0,0,0,0,0,0,-1,1322,512,0,0
105,512,0,0,0,0,0,0,0,0,0,-1,1329,512,0,0
112,512,0,0,0,0,0,0,0,0,0,-1,1336,512,0,0
119,512,0,0,0,0,0,0,0,0,0,-1,1343,512,0,0
126,512,0,0,0,0,0,0,0,0,0,-1,1350,512,0,0
133,512,0,0,0,0,0,0,0,0,0,-1,1357,512,0,0
140,512,0,0,0,0,0,0,0,0,0,-1,1364,512,0,0
147,512,0,0,0,0,0,0,0,0,0,-1,1371,512,0,0
154,512,0,0,0,0,0,0,0,0,0,-1,1378,512,0,0
161,512,0,0,0,0,0,0,0,0,0,-1,1385,512,0,0
168,512,0,0,0,0,0,0,0,0,0,-1,1392,512,0,0
175,512,0,0,0,0,0,0,0,0,0,-1,1399,512,0,0
182,512,0,0,0,0,0,0,0,0,0,-1,1406,512,0,0
189,512,0,0,0,0,0,0,0,0,0,-1,1413,512,0,0
196,512,0,0,0,0,0,0,0,0,0,-1,1420,512,0,0
203,512,0,0,0,0,0,0,0,0,0,-1,1427,512,0,0
210,512,0,0,0,0,0,0,0,0,0,-1,1434,512,0,0
217,512,0,0,0,0,0,0,0,0,0,-1,1441,512,0,0
224,512,0,0,0,0,0,0,0,0,0,-1,1448,512,0,0
231,512,0,0,0,0,0,0,0,0,0,-1,1455,512,0,0
238,512,0,0,0,0,0,0,0,0,0,-1,1462,512,0,0
245,512,0,0,0,0,0,0,0,0,0,-1,1469,512,0,0
252,512,0,0,0,0,0,0,0,0,0,-1,1476,512,0,0
259,512,0,0,0,0,0,0,0,0,0,-1,1483,512,0,0
266,512,0,0,0,0,0,0,0,0,0,-1,1490,512,0,0
273,512,4.00745,0.618622,0,0,0,0,0,0,0,-1,1497,512,4.00747,-0.618611
280,512,4.49609,0.649841,0,0,0,0,0,0,0,-1,1504,512,4.49612,-0.649834
287,512,4.77234,0.458069,0,0,0,0,0,0,0,-1,1511,512,4.77233,-0.458083
294,512,8.54956,-2.36273,0,0,0,0,0,0,0,-1,1518,512,8.54952,2.36274
301,512,6.302,-1.69092,0,0,0,0,0,0,0,-1,1525,512,6.30196,1.69093
308,512,8.2439,-6.22754,0,0,0,0,0,0,0,-1,1532,512,8.24394,6.22757
315,512,7.53687,-6.04211,0,0,0,0,0,0,0,-1,1539,512,7.53691,6.04211
322,512,6.82983,-5.85663,0,0,0,0,0,0,0,-1,1546,512,6.82988,5.85666
329,512,4.38147,-0.329651,0,0,0,0,0,0,0,-1,1553,512,4.38144,0.329662
336,512,4.41467,-0.741455,0,0,0,0,0,0,0,-1,1560,512,4.41467,0.741442
343,512,4.44727,-1.21667,0,0,0,0,0,0,0,-1,1567,512,4.44732,1.21666
350,512,4.55469,-1.65082,0,0,0,0,0,0,0,-1,1574,512,4.5547,1.65083
357,512,5.79993,-2.67456,0,0,0,0,0,0,0,-1,1581,512,5.79991,2.67454
364,512,5.18298,-6.80133,0,0,0,0,0,0,0,-1,1588,512,5.18296,6.80132
371,512,5.28467,-7.69269,0,0,0,0,0,0,0,-1,1595,512,5.28464,7.69269
378,512,6.29407,-9.88055,0,0,0,0,0,0,0,-1,1602,512,6.29412,9.88057
385,512,6.45569,-9.32233,0,0,0,0,0,0,0,-1,1609,512,6.45565,9.3223
392,512,6.35522,-8.98425,0,0,0,0,0,0,0,-1,1616,512,6.35526,8.98422
399,512,6.87756,-10.4086,0,0,0,0,0,0,0,-1,1623,512,6.8776,10.4086
406,512,6.79053,-10.6184,0,0,0,0,0,0,0,-1,1630,512,6.79056,10.6184
413,512,6.73035,-10.3218,-0.00143055,-0.00206692,-0.00356039,0.00182585,-0.00532332,-0.740833,0.00428906,0.0407334,1637,512,6.73031,10.3218
420,512,6.82849,-10.0164,-0.00149821,-0.00172079,-0.00321522,0.00160764,-0.00482665,-0.768098,0.0038667,0.0210513,1644,512,6.82845,10.0163
427,512,6.83948,-9.70068,-0.00153225,-0.00147177,-0.00281852,0.00131667,-0.00432069,-0.790762,0.00340529,0.0159315,1651,512,6.83949,9.70071
434,512,6.83521,-9.40851,-0.00144743,-0.00111318,-0.00235342,0.00107904,-0.00363965,-0.820846,0.00285491,0.0119092,1658,512,6.83515,9.40848
441,512,6.79956,-9.11438,-0.00118355,-0.000854404,-0.00186299,0.000851266,-0.00288922,-0.829453,0.00226389,0.0135463,1665,512,6.79951,9.11436
448,512,6.78015,-8.82758,-0.000812229,-0.000725708,-0.00137417,0.000605879,-0.00214382,-0.801134,0.00166826,0.00948984,1672,512,6.78018,8.82758
455,512,6.78601,-8.53174,-0.000427204,-0.000551799,-0.000882922,0.000395615,-0.00137462,-0.750177,0.00107288,0.00859498,1679,512,6.78603,8.53173
462,512,6.8042,-8.23584,3.89797e-05,-0.000543383,-0.000478424,0.000307866,-0.000812269,-0.512029,0.000668209,0.0089185,1686,512,6.80424,8.23583
469,512,6.79321,-7.9317,0.000561041,-0.000605847,-0.000152286,0.000580587,-0.000625394,-0.127658,0.000696434,0.0102974,1693,512,6.79326,7.93173
476,512,6.78076,-7.62396,0.000980066,-0.000746109,0.000142309,0.00099172,-0.000757763,0.0817065,0.00101307,0.0134425,1700,512,6.78078,7.62399
483,512,6.78967,-7.2984,0.00128121,-0.00092546,0.00025433,0.00131014,-0.000954394,0.113277,0.0013128,0.0127252,1707,512,6.78969,7.29838
490,512,6.79407,-6.97064,0.0015146,-0.00129062,0.000296197,0.00154554,-0.00132156,0.104059,0.001657,0.00996865,1714,512,6.79401,6.97066
497,512,6.80554,-6.66223,0.00152867,-0.00154805,0.00026953,0.00155211,-0.00157148,0.0867228,0.00180342,0.0118208,1721,512,6.80558,6.66221
504,512,6.78687,-6.33337,0.00145401,-0.00164699,0.00019745,0.00146653,-0.00165951,0.0633322,0.00180597,0.0135284,1728,512,6.78682,6.33338
511,512,6.74963,-5.99286,0.00127424,-0.00156837,9.4451e-05,0.00127738,-0.00157151,0.033178,0.00164772,0.0135159,1735,512,6.74961,5.99285
518,512,6.81116,-5.68628,0.000876042,-0.00123365,2.32731e-05,0.000876299,-0.0012339,0.0110297,0.00122414,0.0201274,1742,512,6.81114,5.68629
525,512,6.94299,-5.36151,0,0,0,0,0,0,0,-1,1749,512,6.94297,5.3615
532,512,5.73535,-4.92993,0,0,0,0,0,0,0,-1,1756,512,5.73534,4.92994
539,512,4.39929,-3.11737,0,0,0,0,0,0,0,-1,1763,512,4.3993,3.11735
546,512,2.77551,-0.66449,0,0,0,0,0,0,0,-1,1770,512,2.77548,0.664503
553,512,3.927,-0.448853,0,0,0,0,0,0,0,-1,1777,512,3.92704,0.448843
560,512,3.55762,-0.201233,0,0,0,0,0,0,0,-1,1784,512,3.55768,0.201259
567,512,3.09045,0.191193,0,0,0,0,0,0,0,-1,1791,512,3.09045,-0.191203
574,512,0,0,0,0,0,0,0,0,0,-1,1798,512,0,0
581,512,0,0,0,0,0,0,0,0,0,-1,1805,512,0,0
588,512,0,0,0,0,0,0,0,0,0,-1,1812,512,0,0
595,512,0,0,0,0,0,0,0,0,0,-1,1819,512,0,0
602,512,0,0,0,0,0,0,0,0,0,-1,1826,512,0,0
609,512,0,0,0,0,0,0,0,0,0,-1,1833,512,0,0
616,512,0,0,0,0,0,0,0,0,0,-1,1840,512,0,0
623,512,0,0,0,0,0,0,0,0,0,-1,1847,512,0,0
630,512,0,0,0,0,0,0,0,0,0,-1,1854,512,0,0
637,512,0,0,0,0,0,0,0,0,0,-1,1861,512,0,0
644,512,0,0,0,0,0,0,0,0,0,-1,1868,512,0,0
651,512,0,0,0,0,0,0,0,0,0,-1,1875,512,0,0
658,512,0,0,0,0,0,0,0,0,0,-1,1882,512,0,0
665,512,0,0,0,0,0,0,0,0,0,-1,1889,512,0,0
672,512,0,0,0,0,0,0,0,0,0,-1,1896,512,0,0
679,512,0,0,0,0,0,0,0,0,0,-1,1903,512,0,0
686,512,0,0,0,0,0,0,0,0,0,-1,1910,512,0,0
693,512,0,0,0,0,0,0,0,0,0,-1,1917,512,0,0
700,512,0,0,0,0,0,0,0,0,0,-1,1924,512,0,0
707,512,0,0,0,0,0,0,0,0,0,-1,1931,512,0,0
714,512,0,0,0,0,0,0,0,0,0,-1,1938,512,0,0
721,512,0,0,0,0,0,0,0,0,0,-1,1945,512,0,0
728,512,0,0,0,0,0,0,0,0,0,-1,1952,512,0,0
735,512,0,0,0,0,0,0,0,0,0,-1,1959,512,0,0
742,512,0,0,0,0,0,0,0,0,0,-1,1966,512,0,0
749,512,0,0,0,0,0,0,0,0,0,-1,1973,512,0,0
756,512,0,0,0,0,0,0,0,0,0,-1,1980,512,0,0
763,512,0,0,0,0,0,0,0,0,0,-1,1987,512,0,0
770,512,0,0,0,0,0,0,0,0,0,-1,1994,512,0,0
777,512,0,0,0,0,0,0,0,0,0,-1,2001,512,0,0
784,512,0,0,0,0,0,0,0,0,0,-1,2008,512,0,0
791,512,0,0,0,0,0,0,0,0,0,-1,2015,512,0,0
798,512,0,0,0,0,0,0,0,0,0,-1,2022,512,0,0
805,512,0,0,0,0,0,0,0,0,0,-1,2029,512,0,0
812,512,0,0,0,0,0,0,0,0,0,-1,2036,512,0,0
-700,505,0,0,0,0,0,0,0,0,0,-1,524,519,0,0
-693,505,0,0,0,0,0,0,0,0,0,-1,531,519,0,0
-686,505,0,0,0,0,0,0,0,0,0,-1,538,519,0,0
-679,505,0,0,0,0,0,0,0,0,0,-1,545,519,0,0
-672,505,0,0,0,0,0,0,0,0,0,-1,552,519,0,0
-665,505,0,0,0,0,0,0,0,0,0,-1,559,519,0,0
-658,505,0,0,0,0,0,0,0,0,0,-1,566,519,0,0
-651,505,0,0,0,0,0,0,0,0,0,-1,573,519,0,0
-644,505,0,0,0,0,0,0,0,0,0,-1,580,519,0,0
-637,505,0,0,0,0,0,0,0,0,0,-1,587,519,0,0
-630,505,0,0,0,0,0,0,0,0,0,-1,594,519,0,0
-623,505,0,0,0,0,0,0,0,0,0,-1,601,519,0,0
-616,505,0,0,0,0,0,0,0,0,0,-1,608,519,0,0
-609,505,0,0,0,0,0,0,0,0,0,-1,615,519,0,0
-602,505,0,0,0,0,0,0,0,0,0,-1,622,519,0,0
-595,505,0,0,0,0,0,0,0,0,0,-1,629,519,0,0
-588,505,0,0,0,0,0,0,0,0,0,-1,636,519,0,0
-581,505,0,0,0,0,0,0,0,0,0,-1,643,519,0,0
-574,505,0,0,0,0,0,0,0,0,0,-1,650,519,0,0
-567,505,0,0,0,0,0,0,0,0,0,-1,657,519,0,0
-560,505,0,0,0,0,0,0,0,0,0,-1,664,519,0,0
-553,505,0,0,0,0,0,0,0,0,0,-1,671,519,0,0
-546,505,0,0,0,0,0,0,0,0,0,-1,678,519,0,0
-539,505,0,0,0,0,0,0,0,0,0,-1,685,519,0,0
-532,505,0,0,0,0,0,0,0,0,0,-1,692,519,0,0
-525,505,0,0,0,0,0,0,0,0,0,-1,699,519,0,0
-518,505,0,0,0,0,0,0,0,0,0,-1,706,519,0,0
-511,505,0,0,0,0,0,0,0,0,0,-1,713,519,0,0
-504,505,0,0,0,0,0,0,0,0,0,-1,720,519,0,0
-497,505,0,0,0,0,0,0,0,0,0,-1,727,519,0,0
-490,505,0,0,0,0,0,0,0,0,0,-1,734,519,0,0
-483,505,0,0,0,0,0,0,0,0,0,-1,741,519,0,0
-476,505,0,0,0,0,0,0,0,0,0,-1,748,519,0,0
-469,505,0,0,0,0,0,0,0,0,0,-1,755,519,0,0
-462,505,0,0,0,0,0,0,0,0,0,-1,762,519,0,0
-455,505,2.72137,-3.26379,0,0,0,0,0,0,0,-1,769,519,2.72135,3.26377
-448,505,2.51111,-3.94989,0,0,0,0,0,0,0,-1,776,519,2.51112,3.94986
-441,505,2.33002,-4.62183,0,0,0,0,0,0,0,-1,783,519,2.33004,4.6218
-434,505,2.15033,-5.25409,0,0,0,0,0,0,0,-1,790,519,2.15033,5.25408
-427,505,0.71167,-5.21722,0,0,0,0,0,0,0,-1,797,519,0.711685,5.21722
-420,505,0.139099,-5.60156,0,0,0,0,0,0,0,-1,804,519,0.139117,5.60154
-413,505,-0.304443,-6.05725,0,0,0,0,0,0,0,-1,811,519,-0.304457,6.05725
-406,505,-0.71637,-6.28979,0,0,0,0,0,0,0,-1,818,519,-0.71637,6.2898
-399,505,-0.69928,-6.72339,0.00702882,0.0133579,-0.0119492,0.0225545,-0.00216779,-0.914842,0.0158085,0.042826,825,519,-0.699294,6.7234
-392,505,-0.692749,-7.16864,0.00490113,0.0101472,-0.00903529,0.0169325,-0.00188417,-0.92667,0.0119659,0.0213672,832,519,-0.692744,7.16862
-385,505,-0.752869,-7.5296,0.00358379,0.00759758,-0.0068152,0.0126952,-0.00151386,-0.928587,0.0090106,0.00971281,839,519,-0.752876,7.52963
-378,505,-0.779297,-7.83527,0.0025948,0.00552643,-0.00509143,0.00935885,-0.00123762,-0.925557,0.00669004,0.010431,846,519,-0.779297,7.83526
-371,505,-0.772888,-8.15955,0.00181629,0.00319115,-0.00351987,0.00609009,-0.00108265,-0.881834,0.00446492,0.0140779,853,519,-0.772901,8.15955
-364,505,-0.784424,-8.45953,0.00155777,0.00212002,-0.00265637,0.00451009,-0.000832306,-0.838117,0.00331913,0.0157687,860,519,-0.784413,8.45951
-357,505,-0.736877,-8.74078,0.00151339,0.00122303,-0.00200847,0.00338192,-0.000645501,-0.749319,0.00249774,0.0124398,867,519,-0.736879,8.74078
-350,505,-0.772034,-9.02222,0.00163285,0.000459083,-0.00160316,0.00275317,-0.00066124,-0.609935,0.00209101,0.0113174,874,519,-0.772012,9.02221
-343,505,-0.801025,-9.30841,0.00176885,-2.01155e-05,-0.00125808,0.00241802,-0.000669286,-0.476366,0.00187535,0.00915539,881,519,-0.801039,9.30844
-336,505,-0.797241,-9.57434,0.00202187,-0.000322762,-0.001071,0.00243743,-0.000738326,-0.370133,0.00191901,0.011097,888,519,-0.79727,9.57433
-329,505,-0.777222,-9.84058,0.00233669,-0.000441609,-0.00098281,0.00264921,-0.000754121,-0.307867,0.00206396,0.0144195,895,519,-0.777234,9.84056
-322,505,-0.782959,-10.1312,0.00263142,-0.000276507,-0.000987372,0.00293498,-0.000580074,-0.298278,0.00217594,0.015101,902,519,-0.782959,10.1312
-315,505,-0.792542,-10.4277,0.00304113,-1.97425e-05,-0.0009967,0.00333707,-0.000315681,-0.288627,0.00233706,0.0127693,909,519,-0.792556,10.4278
-308,505,-0.796814,-10.6961,0.0035655,9.21571e-05,-0.000946546,0.0038067,-0.000149043,-0.249512,0.00258891,0.0126555,916,519,-0.796819,10.6961
-301,505,-0.782959,-10.9736,0.00396856,0.000167605,-0.000922427,0.00418059,-4.44246e-05,-0.225936,0.00280199,0.0196223,923,519,-0.782961,10.9736
-294,505,-0.772278,-11.1917,0,0,0,0,0,0,0,-1,930,519,-0.772274,11.1917
-287,505,-0.831116,-11.4896,0,0,0,0,0,0,0,-1,937,519,-0.831099,11.4896
-280,505,-0.697388,-11.9191,0,0,0,0,0,0,0,-1,944,519,-0.697383,11.9191
-273,505,-0.0680542,-9.44867,0,0,0,0,0,0,0,-1,951,519,-0.0680462,9.44866
-266,505,-0.036377,-9.07922,0,0,0,0,0,0,0,-1,958,519,-0.0364055,9.0792
-259,505,0.10321,-6.69824,0,0,0,0,0,0,0,-1,965,519,0.103235,6.69826
-252,505,6.82312,-15.6972,0,0,0,0,0,0,0,-1,972,519,6.82314,15.6972
-245,505,4.26727,-12.9861,0,0,0,0,0,0,0,-1,979,519,4.2673,12.9861
-238,505,1.67432,-11.2307,0,0,0,0,0,0,0,-1,986,519,1.67429,11.2307
-231,505,-0.958435,-8.3075,0,0,0,0,0,0,0,-1,993,519,-0.958421,8.30751
-224,505,-3.69653,-5.12732,0,0,0,0,0,0,0,-1,1000,519,-3.69653,5.12733
-217,505,-6.34302,-1.65533,0,0,0,0,0,0,0,-1,1007,519,-6.34299,1.65535
-210,505,-3.06128,-0.396301,0,0,0,0,0,0,0,-1,1014,519,-3.06129,0.396294
-203,505,-4.26465,2.03607,0,0,0,0,0,0,0,-1,1021,519,-4.26462,-2.03606
-196,505,-5.47595,4.27295,0,0,0,0,0,0,0,-1,1028,519,-5.47597,-4.27292
-189,505,1.51526,5.56207,0,0,0,0,0,0,0,-1,1035,519,1.51523,-5.56209
-182,505,2.97815,7.5097,0,0,0,0,0,0,0,-1,1042,519,2.97812,-7.5097
-175,505,-2.38416,-2.17548,0,0,0,0,0,0,0,-1,1049,519,-2.38411,2.1755
-168,505,0,0,0,0,0,0,0,0,0,-1,1056,519,0,0
-161,505,0,0,0,0,0,0,0,0,0,-1,1063,519,0,0
-154,505,0,0,0,0,0,0,0,0,0,-1,1070,519,0,0
-147,505,0,0,0,0,0,0,0,0,0,-1,1077,519,0,0
-140,505,0,0,0,0,0,0,0,0,0,-1,1084,519,0,0
-133,505,0,0,0,0,0,0,0,0,0,-1,1091,519,0,0
-126,505,0,0,0,0,0,0,0,0,0,-1,1098,519,0,0
-119,505,0,0,0,0,0,0,0,0,0,-1,1105,519,0,0
-112,505,0,0,0,0,0,0,0,0,0,-1,1112,519,0,0
-105,505,0,0,0,0,0,0,0,0,0,-1,1119,519,0,0
-98,505,0,0,0,0,0,0,0,0,0,-1,1126,519,0,0
-91,505,0,0,0,0,0,0,0,0,0,-1,1133,519,0,0
-84,505,0,0,0,0,0,0,0,0,0,-1,1140,519,0,0
-77,505,0,0,0,0,0,0,0,0,0,-1,1147,519,0,0
-70,505,0,0,0,0,0,0,0,0,0,-1,1154,519,0,0
-63,505,0,0,0,0,0,0,0,0,0,-1,1161,519,0,0
-56,505,0,0,0,0,0,0,0,0,0,-1,1168,519,0,0
-49,505,0,0,0,0,0,0,0,0,0,-1,1175,519,0,0
-42,505,0,0,0,0,0,0,0,0,0,-1,1182,519,0,0
-35,505,0,0,0,0,0,0,0,0,0,-1,1189,519,0,0
-28,505,0,0,0,0,0,0,0,0,0,-1,1196,519,0,0
-21,505,0,0,0,0,0,0,0,0,0,-1,1203,519,0,0
-14,505,0,0,0,0,0,0,0,0,0,-1,1210,519,0,0
-7,505,0,0,0,0,0,0,0,0,0,-1,1217,519,0,0
0,505,0,0,0,0,0,0,0,0,0,-1,1224,519,0,0
7,505,0,0,0,0,0,0,0,0,0,-1,1231,519,0,0
14,505,0,0,0,0,0,0,0,0,0,-1,1238,519,0,0
21,505,0,0,0,0,0,0,0,0,0,-1,1245,519,0,0
28,505,0,0,0,0,0,0,0,0,0,-1,1252,519,0,0
35,505,0,0,0,0,0,0,0,0,0,-1,1259,519,0,0
42,505,0,0,0,0,0,0,0,0,0,-1,1266,519,0,0
49,505,0,0,0,0,0,0,0,0,0,-1,1273,519,0,0
56,505,0,0,0,0,0,0,0,0,0,-1,1280,519,0,0
63,505,0,0,0,0,0,0,0,0,0,-1,1287,519,0,0
70,505,0,0,0,0,0,0,0,0,0,-1,1294,519,0,0
77,505,0,0,0,0,0,0,0,0,0,-1,1301,519,0,0
84,505,0,0,0,0,0,0,0,0,0,-1,1308,519,0,0
91,505,0,0,0,0,0,0,0,0,0,-1,1315,519,0,0
98,505,0,0,0,0,0,0,0,0,0,-1,1322,519,0,0
105,505,0,0,0,0,0,0,0,0,0,-1,1329,519,0,0
112,505,0,0,0,0,0,0,0,0,0,-1,1336,519,0,0
119,505,0,0,0,0,0,0,0,0,0,-1,1343,519,0,0
126,505,0,0,0,0,0,0,0,0,0,-1,1350,519,0,0
133,505,0,0,0,0,0,0,0,0,0,-1,1357,519,0,0
140,505,0,0,0,0,0,0,0,0,0,-1,1364,519,0,0
147,505,0,0,0,0,0,0,0,0,0,-1,1371,519,0,0
154,505,0,0,0,0,0,0,0,0,0,-1,1378,519,0,0
161,505,0,0,0,0,0,0,0,0,0,-1,1385,519,0,0
168,505,0,0,0,0,0,0,0,0,0,-1,1392,519,0,0
175,505,0,0,0,0,0,0,0,0,0,-1,1399,519,0,0
182,505,0,0,0,0,0,0,0,0,0,-1,1406,519,0,0
189,505,0,0,0,0,0,0,0,0,0,-1,1413,519,0,0
196,505,0,0,0,0,0,0,0,0,0,-1,1420,519,0,0
203,505,0,0,0,0,0,0,0,0,0,-1,1427,519,0,0
210,505,0,0,0,0,0,0,0,0,0,-1,1434,519,0,0
217,505,0,0,0,0,0,0,0,0,0,-1,1441,519,0,0
224,505,0,0,0,0,0,0,0,0,0,-1,1448,519,0,0
231,505,0,0,0,0,0,0,0,0,0,-1,1455,519,0,0
238,505,0,0,0,0,0,0,0,0,0,-1,1462,519,0,0
245,505,0,0,0,0,0,0,0,0,0,-1,1469,519,0,0
252,505,0,0,0,0,0,0,0,0,0,-1,1476,519,0,0
259,505,0,0,0,0,0,0,0,0,0,-1,1483,519,0,0
266,505,0,0,0,0,0,0,0,0,0,-1,1490,519,0,0
273,505,0,0,0,0,0,0,0,0,0,-1,1497,519,0,0
280,505,0,0,0,0,0,0,0,0,0,-1,1504,519,0,0
287,505,4.39478,0.499512,0,0,0,0,0,0,0,-1,1511,519,4.39476,-0.499506
294,505,4.88867,0.0822754,0,0,0,0,0,0,0,-1,1518,519,4.88871,-0.0822748
301,505,4.82153,-0.0704346,0,0,0,0,0,0,0,-1,1525,519,4.82156,0.0704312
308,505,4.67761,-0.29187,0,0,0,0,0,0,0,-1,1532,519,4.67762,0.291845
315,505,8.44055,-6.54352,0,0,0,0,0,0,0,-1,1539,519,8.44059,6.54349
322,505,4.78955,-0.594116,0,0,0,0,0,0,0,-1,1546,519,4.78957,0.594096
329,505,5.16321,0.434631,0,0,0,0,0,0,0,-1,1553,519,5.16316,-0.434614
336,505,4.94495,-0.920471,0,0,0,0,0,0,0,-1,1560,519,4.945,0.920495
343,505,5.01855,-1.4823,0,0,0,0,0,0,0,-1,1567,519,5.01851,1.48227
350,505,5.33154,-1.77838,0,0,0,0,0,0,0,-1,1574,519,5.33152,1.77838
357,505,5.56567,-1.9425,0,0,0,0,0,0,0,-1,1581,519,5.56562,1.94248
364,505,5.85205,-2.6579,0,0,0,0,0,0,0,-1,1588,519,5.85211,2.65788
371,505,5.88477,-7.00922,0,0,0,0,0,0,0,-1,1595,519,5.88473,7.00924
378,505,5.44104,-7.10162,0,0,0,0,0,0,0,-1,1602,519,5.44099,7.10162
385,505,6.64661,-8.65015,0,0,0,0,0,0,0,-1,1609,519,6.64662,8.65014
392,505,6.34558,-8.3429,0,0,0,0,0,0,0,-1,1616,519,6.34554,8.34288
399,505,7.45898,-9.70386,0,0,0,0,0,0,0,-1,1623,519,7.45899,9.70388
406,505,7.08679,-9.4928,0,0,0,0,0,0,0,-1,1630,519,7.08678,9.49278
413,505,6.92896,-10.419,0,0,0,0,0,0,0,-1,1637,519,6.92898,10.419
420,505,7.12744,-10.0753,-0.0028343,-0.00304075,-0.00469995,0.00176356,-0.0076386,-0.774419,0.00577079,0.047764,1644,519,7.1274,10.0753
427,505,7.12976,-9.72949,-0.00273207,-0.00263891,-0.00415316,0.00146793,-0.00683891,-0.791005,0.00511923,0.0166711,1651,519,7.12979,9.7295
434,505,7.1134,-9.40656,-0.00244868,-0.00195546,-0.00346214,0.00126884,-0.00567298,-0.820953,0.00426827,0.0103512,1658,519,7.11336,9.40657
441,505,7.10522,-9.09851,-0.00198993,-0.00139596,-0.00277307,0.00109598,-0.00448188,-0.838743,0.00341243,0.0104686,1665,519,7.10521,9.0985
448,505,7.1001,-8.80261,-0.00142155,-0.000984756,-0.00209599,0.000904189,-0.00331049,-0.837309,0.00256214,0.0105535,1672,519,7.10012,8.80262
455,505,7.09424,-8.50879,-0.000863662,-0.000564755,-0.00143617,0.000729712,-0.00215813,-0.837244,0.00173395,0.0107414,1679,519,7.09429,8.50879
462,505,7.07751,-8.20435,-0.00027878,-0.0003489,-0.000894778,0.000581625,-0.00120931,-0.765817,0.00105495,0.0108611,1686,519,7.0775,8.20436
469,505,7.08301,-7.91351,0.000291945,-0.000264585,-0.000452755,0.00054511,-0.00051775,-0.509854,0.000613711,0.0105055,1693,519,7.083,7.91349
476,505,7.07788,-7.62134,0.000747521,-0.000273003,-6.51967e-05,0.000751669,-0.000277151,-0.0635413,0.000614689,0.0111798,1700,519,7.0779,7.62132
483,505,7.08691,-7.31671,0.00108156,-0.000322419,0.000145875,0.00109656,-0.000337416,0.102443,0.000865715,0.0124726,1707,519,7.08696,7.31671
490,505,7.10522,-6.9906,0.00132121,-0.000556262,0.000274514,0.00136052,-0.000595576,0.142248,0.00115778,0.0113065,1714,519,7.10518,6.99061
497,505,7.10986,-6.67059,0.0012853,-0.000801897,0.000277835,0.00132165,-0.000838247,0.130096,0.00125739,0.0121166,1721,519,7.10989,6.67059
504,505,7.07983,-6.33502,0.00112421,-0.000901072,0.000238496,0.00115192,-0.000928778,0.115652,0.00120359,0.0135179,1728,519,7.07984,6.33504
511,505,7.06873,-6.00348,0.000815723,-0.000861531,0.000141117,0.000827513,-0.000873321,0.0833551,0.000982096,0.0140341,1735,519,7.06872,6.00348
518,505,7.14539,-5.70728,0.000284752,-0.000663508,3.49889e-05,0.000286042,-0.000664797,0.0368312,0.000563298,0.0225045,1742,519,7.14543,5.70726
525,505,6.4635,-5.29907,0,0,0,0,0,0,0,-1,1749,519,6.46349,5.29909
532,505,6.48291,-5.1698,0,0,0,0,0,0,0,-1,1756,519,6.48287,5.16978
539,505,6.5022,-5.04047,0,0,0,0,0,0,0,-1,1763,519,6.50225,5.04046
546,505,4.69727,-1.47705,0,0,0,0,0,0,0,-1,1770,519,4.69723,1.47703
553,505,2.82837,0.162659,0,0,0,0,0,0,0,-1,1777,519,2.82841,-0.162672
560,505,3.66223,-0.479797,0,0,0,0,0,0,0,-1,1784,519,3.66219,0.47982
567,505,4.65271,-0.950256,0,0,0,0,0,0,0,-1,1791,519,4.65274,0.95028
574,505,5.54443,-1.19977,0,0,0,0,0,0,0,-1,1798,519,5.54443,1.19974
581,505,0,0,0,0,0,0,0,0,0,-1,1805,519,0,0
588,505,0,0,0,0,0,0,0,0,0,-1,1812,519,0,0
595,505,0,0,0,0,0,0,0,0,0,-1,1819,519,0,0
602,505,0,0,0,0,0,0,0,0,0,-1,1826,519,0,0
609,505,0,0,0,0,0,0,0,0,0,-1,1833,519,0,0
616,505,0,0,0,0,0,0,0,0,0,-1,1840,519,0,0
623,505,0,0,0,0,0,0,0,0,0,-1,1847,519,0,0
630,505,0,0,0,0,0,0,0,0,0,-1,1854,519,0,0
637,505,0,0,0,0,0,0,0,0,0,-1,1861,519,0,0
644,505,0,0,0,0,0,0,0,0,0,-1,1868,519,0,0
651,505,0,0,0,0,0,0,0,0,0,-1,1875,519,0,0
658,505,0,0,0,0,0,0,0,0,0,-1,1882,519,0,0
665,505,0,0,0,0,0,0,0,0,0,-1,1889,519,0,0
672,505,0,0,0,0,0,0,0,0,0,-1,1896,519,0,0
679,505,0,0,0,0,0,0,0,0,0,-1,1903,519,0,0
686,505,0,0,0,0,0,0,0,0,0,-1,1910,519,0,0
693,505,0,0,0,0,0,0,0,0,0,-1,1917,519,0,0
700,505,0,0,0,0,0,0,0,0,0,-1,1924,519,0,0
707,505,0,0,0,0,0,0,0,0,0,-1,1931,519,0,0
714,505,0,0,0,0,0,0,0,0,0,-1,1938,519,0,0
721,505,0,0,0,0,0,0,0,0,0,-1,1945,519,0,0
728,505,0,0,0,0,0,0,0,0,0,-1,1952,519,0,0
735,505,0,0,0,0,0,0,0,0,0,-1,1959,519,0,0
742,505,0,0,0,0,0,0,0,0,0,-1,1966,519,0,0
749,505,0,0,0,0,0,0,0,0,0,-1,1973,519,0,0
756,505,0,0,0,0,0,0,0,0,0,-1,1980,519,0,0
763,505,0,0,0,0,0,0,0,0,0,-1,1987,519,0,0
770,505,0,0,0,0,0,0,0,0,0,-1,1994,519,0,0
777,505,0,0,0,0,0,0,0,0,0,-1,2001,519,0,0
784,505,0,0,0,0,0,0,0,0,0,-1,2008,519,0,0
791,505,0,0,0,0,0,0,0,0,0,-1,2015,519,0,0
798,505,0,0,0,0,0,0,0,0,0,-1,2022,519,0,0
805,505,0,0,0,0,0,0,0,0,0,-1,2029,519,0,0
812,505,0,0,0,0,0,0,0,0,0,-1,2036,519,0,0
-700,498,0,0,0,0,0,0,0,0,0,-1,524,526,0,0
-693,498,0,0,0,0,0,0,0,0,0,-1,531,526,0,0
-686,498,0,0,0,0,0,0,0,0,0,-1,538,526,0,0
-679,498,0,0,0,0,0,0,0,0,0,-1,545,526,0,0
-672,498,0,0,0,0,0,0,0,0,0,-1,552,526,0,0
-665,498,0,0,0,0,0,0,0,0,0,-1,559,526,0,0
-658,498,0,0,0,0,0,0,0,0,0,-1,566,526,0,0
-651,498,0,0,0,0,0,0,0,0,0,-1,573,526,0,0
-644,498,0,0,0,0,0,0,0,0,0,-1,580,526,0,0
-637,498,0,0,0,0,0,0,0,0,0,-1,587,526,0,0
-630,498,0,0,0,0,0,0,0,0,0,-1,594,526,0,0
-623,498,0,0,0,0,0,0,0,0,0,-1,601,526,0,0
-616,498,0,0,0,0,0,0,0,0,0,-1,608,526,0,0
-609,498,0,0,0,0,0,0,0,0,0,-1,615,526,0,0
-602,498,0,0,0,0,0,0,0,0,0,-1,622,526,0,0
-595,498,0,0,0,0,0,0,0,0,0,-1,629,526,0,0
-588,498,0,0,0,0,0,0,0,0,0,-1,636,526,0,0
-581,498,0,0,0,0,0,0,0,0,0,-1,643,526,0,0
-574,498,0,0,0,0,0,0,0,0,0,-1,650,526,0,0
-567,498,0,0,0,0,0,0,0,0,0,-1,657,526,0,0
-560,498,0,0,0,0,0,0,0,0,0,-1,664,526,0,0
-553,498,0,0,0,0,0,0,0,0,0,-1,671,526,0,0
-546,498,0,0,0,0,0,0,0,0,0,-1,678,526,0,0
-539,498,0,0,0,0,0,0,0,0,0,-1,685,526,0,0
-532,498,0,0,0,0,0,0,0,0,0,-1,692,526,0,0
-525,498,0,0,0,0,0,0,0,0,0,-1,699,526,0,0
-518,498,0,0,0,0,0,0,0,0,0,-1,706,526,0,0
-511,498,0,0,0,0,0,0,0,0,0,-1,713,526,0,0
-504,498,0,0,0,0,0,0,0,0,0,-1,720,526,0,0
-497,498,0,0,0,0,0,0,0,0,0,-1,727,526,0,0
-490,498,0,0,0,0,0,0,0,0,0,-1,734,526,0,0
-483,498,0,0,0,0,0,0,0,0,0,-1,741,526,0,0
-476,498,0,0,0,0,0,0,0,0,0,-1,748,526,0,0
-469,498,0,0,0,0,0,0,0,0,0,-1,755,526,0,0
-462,498,6.81024,1.15515,0,0,0,0,0,0,0,-1,762,526,6.81026,-1.15514
-455,498,3.25757,-3.0592,0,0,0,0,0,0,0,-1,769,526,3.25754,3.05921
-448,498,3.05939,-3.74298,0,0,0,0,0,0,0,-1,776,526,3.05939,3.74296
-441,498,2.84723,-4.15393,0,0,0,0,0,0,0,-1,783,526,2.84722,4.15394
-434,498,2.64008,-5.12463,0,0,0,0,0,0,0,-1,790,526,2.64005,5.12461
-427,498,2.67841,-5.94849,0,0,0,0,0,0,0,-1,797,526,2.67838,5.9485
-420,498,0.305237,-5.48962,0,0,0,0,0,0,0,-1,804,526,0.305255,5.48961
-413,498,-1.08911,-6.04456,0,0,0,0,0,0,0,-1,811,526,-1.0891,6.04454
-406,498,-1.0199,-6.46326,0.0082674,0.0145551,-0.0132145,0.0249946,-0.00217205,-0.902182,0.0174322,0.0468573,818,526,-1.01991,6.46326
-399,498,-0.996765,-6.87134,0.00574096,0.0110962,-0.00992735,0.0187007,-0.00186355,-0.917124,0.0131324,0.0250074,825,526,-0.996755,6.87136
-392,498,-1.01721,-7.22015,0.00389828,0.00839113,-0.00739169,0.0138702,-0.0015808,-0.932919,0.00981627,0.0127677,832,526,-1.01723,7.22012
-385,498,-1.0379,-7.53143,0.00278735,0.0062025,-0.00551362,0.0102669,-0.00127706,-0.935565,0.00730758,0.00880995,839,526,-1.03788,7.53144
-378,498,-1.03986,-7.81763,0.00202726,0.00439208,-0.00400634,0.00738686,-0.000967512,-0.928892,0.00527673,0.00965331,846,526,-1.03987,7.81761
-371,498,-1.02063,-8.12805,0.00146324,0.00228895,-0.00265907,0.00456703,-0.000814838,-0.862414,0.0033495,0.0161545,853,526,-1.02061,8.12803
-364,498,-1.04919,-8.4361,0.00136246,0.00131755,-0.00193035,0.00327048,-0.000590475,-0.779582,0.00240146,0.0173909,860,526,-1.04921,8.43608
-357,498,-1.05048,-8.71625,0.00149985,0.000474097,-0.00140567,0.00248328,-0.000509335,-0.610471,0.00184884,0.011786,867,526,-1.05045,8.71622
-350,498,-1.05701,-8.99438,0.00183098,-0.000236079,-0.00113056,0.00232923,-0.000734331,-0.415104,0.00184692,0.0110871,874,526,-1.05698,8.99436
-343,498,-1.0531,-9.28876,0.00222302,-0.000735781,-0.00092332,0.00248751,-0.00100027,-0.278982,0.0020738,0.01124,881,526,-1.05307,9.28877
-336,498,-1.05292,-9.57373,0.00274232,-0.00107344,-0.000851169,0.00292357,-0.0012547,-0.209817,0.00247564,0.0140547,888,526,-1.05294,9.57376
-329,498,-1.06964,-9.82483,0.00336511,-0.0011047,-0.000941637,0.00355538,-0.00129498,-0.19938,0.00289995,0.0189254,895,526,-1.06967,9.82483
-322,498,-1.06744,-10.1148,0.00399583,-0.000933374,-0.00110848,0.00423364,-0.00117117,-0.211327,0.0032832,0.0187305,902,526,-1.06746,10.1148
-315,498,-1.06799,-10.4142,0.00476314,-0.000688387,-0.00127708,0.00504747,-0.000972727,-0.219075,0.00373173,0.0160829,909,526,-1.06798,10.4142
-308,498,-1.03522,-10.6976,0.00561266,-0.000567342,-0.00136667,0.0059014,-0.00085608,-0.208211,0.00424847,0.0209179,916,526,-1.03521,10.6976
-301,498,-0.92157,-11.0449,0.00623855,-0.00037845,-0.00150126,0.00656323,-0.000703126,-0.212988,0.0046277,0.0377618,923,526,-0.921558,11.0449
-294,498,-0.827881,-11.4131,0,0,0,0,0,0,0,-1,930,526,-0.827892,11.4131
-287,498,-0.894226,-11.2529,0,0,0,0,0,0,0,-1,937,526,-0.894239,11.2529
-280,498,-0.341614,-8.66608,0,0,0,0,0,0,0,-1,944,526,-0.341589,8.66606
-273,498,-0.988892,-8.62921,0,0,0,0,0,0,0,-1,951,526,-0.988906,8.62922
-266,498,0.362488,-6.33545,0,0,0,0,0,0,0,-1,958,526,0.362478,6.33547
-259,498,10.9454,-17.3615,0,0,0,0,0,0,0,-1,965,526,10.9454,17.3614
-252,498,8.56586,-14.6886,0,0,0,0,0,0,0,-1,972,526,8.56584,14.6886
-245,498,5.97382,-11.928,0,0,0,0,0,0,0,-1,979,526,5.97381,11.928
-238,498,2.24841,-13.8145,0,0,0,0,0,0,0,-1,986,526,2.24838,13.8145
-231,498,0.665894,-10.4898,0,0,0,0,0,0,0,-1,993,526,0.665863,10.4898
-224,498,-2.11243,-4.76312,0,0,0,0,0,0,0,-1,1000,526,-2.11245,4.76314
-217,498,-3.82239,-1.42841,0,0,0,0,0,0,0,-1,1007,526,-3.82241,1.42843
-210,498,-1.80591,-0.358215,0,0,0,0,0,0,0,-1,1014,526,-1.8059,0.3582
-203,498,-3.17316,1.06641,0,0,0,0,0,0,0,-1,1021,526,-3.17313,-1.0664
-196,498,-0.103271,5.40527,0,0,0,0,0,0,0,-1,1028,526,-0.103285,-5.40528
-189,498,3.00256,6.47137,0,0,0,0,0,0,0,-1,1035,526,3.00256,-6.47139
-182,498,0,0,0,0,0,0,0,0,0,-1,1042,526,0,0
-175,498,0,0,0,0,0,0,0,0,0,-1,1049,526,0,0
-168,498,0,0,0,0,0,0,0,0,0,-1,1056,526,0,0
-161,498,0,0,0,0,0,0,0,0,0,-1,1063,526,0,0
-154,498,0,0,0,0,0,0,0,0,0,-1,1070,526,0,0
-147,498,0,0,0,0,0,0,0,0,0,-1,1077,526,0,0
-140,498,0,0,0,0,0,0,0,0,0,-1,1084,526,0,0
-133,498,0,0,0,0,0,0,0,0,0,-1,1091,526,0,0
-126,498,0,0,0,0,0,0,0,0,0,-1,1098,526,0,0
-119,498,0,0,0,0,0,0,0,0,0,-1,1105,526,0,0
-112,498,0,0,0,0,0,0,0,0,0,-1,1112,526,0,0
-105,498,0,0,0,0,0,0,0,0,0,-1,1119,526,0,0
-98,498,0,0,0,0,0,0,0,0,0,-1,1126,526,0,0
-91,498,0,0,0,0,0,0,0,0,0,-1,1133,526,0,0
-84,498,0,0,0,0,0,0,0,0,0,-1,1140,526,0,0
-77,498,0,0,0,0,0,0,0,0,0,-1,1147,526,0,0
-70,498,0,0,0,0,0,0,0,0,0,-1,1154,526,0,0
-63,498,0,0,0,0,0,0,0,0,0,-1,1161,526,0,0
-56,498,0,0,0,0,0,0,0,0,0,-1,1168,526,0,0
-49,498,0,0,0,0,0,0,0,0,0,-1,1175,526,0,0
-42,498,0,0,0,0,0,0,0,0,0,-1,1182,526,0,0
-35,498,0,0,0,0,0,0,0,0,0,-1,1189,526,0,0
-28,498,0,0,0,0,0,0,0,0,0,-1,1196,526,0,0
-21,498,0,0,0,0,0,0,0,0,0,-1,1203,526,0,0
-14,498,0,0,0,0,0,0,0,0,0,-1,1210,526,0,0
-7,498,0,0,0,0,0,0,0,0,0,-1,1217,526,0,0
0,498,0,0,0,0,0,0,0,0,0,-1,1224,526,0,0
7,498,0,0,0,0,0,0,0,0,0,-1,1231,526,0,0
14,498,0,0,0,0,0,0,0,0,0,-1,1238,526,0,0
21,498,0,0,0,0,0,0,0,0,0,-1,1245,526,0,0
28,498,0,0,0,0,0,0,0,0,0,-1,1252,526,0,0
35,498,0,0,0,0,0,0,0,0,0,-1,1259,526,0,0
42,498,0,0,0,0,0,0,0,0,0,-1,1266,526,0,0
49,498,0,0,0,0,0,0,0,0,0,-1,1273,526,0,0
56,498,0,0,0,0,0,0,0,0,0,-1,1280,526,0,0
63,498,0,0,0,0,0,0,0,0,0,-1,1287,526,0,0
70,498,0,0,0,0,0,0,0,0,0,-1,1294,526,0,0
77,498,0,0,0,0,0,0,0,0,0,-1,1301,526,0,0
84,498,0,0,0,0,0,0,0,0,0,-1,1308,526,0,0
91,498,0,0,0,0,0,0,0,0,0,-1,1315,526,0,0
98,498,0,0,0,0,0,0,0,0,0,-1,1322,526,0,0
105,498,0,0,0,0,0,0,0,0,0,-1,1329,526,0,0
112,498,0,0,0,0,0,0,0,0,0,-1,1336,526,0,0
119,498,0,0,0,0,0,0,0,0,0,-1,1343,526,0,0
126,498,0,0,0,0,0,0,0,0,0,-1,1350,526,0,0
133,498,0,0,0,0,0,0,0,0,0,-1,1357,526,0,0
140,498,0,0,0,0,0,0,0,0,0,-1,1364,526,0,0
147,498,0,0,0,0,0,0,0,0,0,-1,1371,526,0,0
154,498,0,0,0,0,0,0,0,0,0,-1,1378,526,0,0
161,498,0,0,0,0,0,0,0,0,0,-1,1385,526,0,0
168,498,0,0,0,0,0,0,0,0,0,-1,1392,526,0,0
175,498,0,0,0,0,0,0,0,0,0,-1,1399,526,0,0
182,498,0,0,0,0,0,0,0,0,0,-1,1406,526,0,0
189,498,0,0,0,0,0,0,0,0,0,-1,1413,526,0,0
196,498,0,0,0,0,0,0,0,0,0,-1,1420,526,0,0
203,498,0,0,0,0,0,0,0,0,0,-1,1427,526,0,0
210,498,0,0,0,0,0,0,0,0,0,-1,1434,526,0,0
217,498,0,0,0,0,0,0,0,0,0,-1,1441,526,0,0
224,498,0,0,0,0,0,0,0,0,0,-1,1448,526,0,0
231,498,0,0,0,0,0,0,0,0,0,-1,1455,526,0,0
238,498,0,0,0,0,0,0,0,0,0,-1,1462,526,0,0
245,498,0,0,0,0,0,0,0,0,0,-1,1469,526,0,0
252,498,0,0,0,0,0,0,0,0,0,-1,1476,526,0,0
259,498,0,0,0,0,0,0,0,0,0,-1,1483,526,0,0
266,498,0,0,0,0,0,0,0,0,0,-1,1490,526,0,0
273,498,0,0,0,0,0,0,0,0,0,-1,1497,526,0,0
280,498,0,0,0,0,0,0,0,0,0,-1,1504,526,0,0
287,498,0,0,0,0,0,0,0,0,0,-1,1511,526,0,0
294,498,0,0,0,0,0,0,0,0,0,-1,1518,526,0,0
301,498,0,0,0,0,0,0,0,0,0,-1,1525,526,0,0
308,498,4.77942,-0.293884,0,0,0,0,0,0,0,-1,1532,526,4.77939,0.293899
315,498,4.56091,-0.564148,0,0,0,0,0,0,0,-1,1539,526,4.56097,0.564142
322,498,4.52344,-0.447266,0,0,0,0,0,0,0,-1,1546,526,4.52341,0.447295
329,498,4.63232,-0.156982,0,0,0,0,0,0,0,-1,1553,526,4.63238,0.156991
336,498,5.22644,0.0925903,0,0,0,0,0,0,0,-1,1560,526,5.22648,-0.0926188
343,498,6.22607,-1.67615,0,0,0,0,0,0,0,-1,1567,526,6.22605,1.67617
350,498,6.19373,-1.59906,0,0,0,0,0,0,0,-1,1574,526,6.19367,1.59906
357,498,6.21472,-1.58929,0,0,0,0,0,0,0,-1,1581,526,6.21476,1.58927
364,498,5.73547,-1.2019,0,0,0,0,0,0,0,-1,1588,526,5.73547,1.20192
371,498,3.27087,-4.55334,0,0,0,0,0,0,0,-1,1595,526,3.27089,4.55332
378,498,8.42944,-4.70624,0,0,0,0,0,0,0,-1,1602,526,8.42942,4.70624
385,498,4.7793,-5.15314,0,0,0,0,0,0,0,-1,1609,526,4.77935,5.15311
392,498,9.12439,-8.57953,0,0,0,0,0,0,0,-1,1616,526,9.12443,8.57955
399,498,7.98938,-9.46021,0,0,0,0,0,0,0,-1,1623,526,7.98936,9.4602
406,498,7.58081,-9.26819,0,0,0,0,0,0,0,-1,1630,526,7.58085,9.26817
413,498,7.17236,-9.07611,0,0,0,0,0,0,0,-1,1637,526,7.17234,9.07614
420,498,7.50256,-10.0256,0,0,0,0,0,0,0,-1,1644,526,7.50251,10.0256
427,498,7.63379,-9.59924,-0.00426692,-0.00405432,-0.00582583,0.00166618,-0.00998743,-0.79452,0.00727754,0.0423271,1651,526,7.63375,9.59923
434,498,7.46069,-9.38031,-0.00366493,-0.00289415,-0.00476781,0.00150382,-0.0080629,-0.825727,0.00594033,0.0175968,1658,526,7.46066,9.38029
441,498,7.41833,-9.07886,-0.00293969,-0.00195675,-0.00378806,0.00137159,-0.00626803,-0.849908,0.00470303,0.00953734,1665,526,7.41834,9.07889
448,498,7.42017,-8.79163,-0.00212853,-0.0012276,-0.00286516,0.00122229,-0.00457842,-0.86337,0.00353095,0.00951495,1672,526,7.42016,8.79163
455,498,7.41174,-8.49481,-0.00135875,-0.000556085,-0.00199761,0.00108011,-0.00299495,-0.884532,0.00243778,0.0135476,1679,526,7.41171,8.49482
462,498,7.39746,-8.19061,-0.000649078,-0.000156379,-0.00129622,0.000916695,-0.00172215,-0.879304,0.00154702,0.0161206,1686,526,7.39741,8.19059
469,498,7.38159,-7.89221,-3.77199e-05,4.17917e-05,-0.000729519,0.000732638,-0.000728566,-0.812619,0.000843627,0.0139834,1693,526,7.38161,7.89219
476,498,7.3938,-7.5954,0.000450101,0.000120541,-0.000255832,0.000589628,-1.89856e-05,-0.499292,0.000399564,0.0104456,1700,526,7.39379,7.59538
483,498,7.39429,-7.28729,0.000822619,0.000158753,5.51072e-05,0.000827163,0.00015421,0.0822592,0.000507903,0.00883925,1707,526,7.39435,7.28732
490,498,7.39905,-6.9762,0.00107563,3.23706e-05,0.000267083,0.00114003,-3.20294e-05,0.236607,0.000770917,0.0105881,1714,526,7.39901,6.97618
497,498,7.39929,-6.67291,0.00100839,-0.000219551,0.000295032,0.0010756,-0.000286758,0.223975,0.000829347,0.0120542,1721,526,7.39928,6.67293
504,498,7.36914,-6.35162,0.000791414,-0.000326744,0.000276215,0.000855925,-0.000391254,0.22944,0.00073653,0.0137452,1728,526,7.36912,6.3516
511,498,7.38525,-6.01752,0.000414142,-0.000334711,0.000186012,0.000457801,-0.00037837,0.230539,0.000483489,0.0146148,1735,526,7.38524,6.01754
518,498,7.44519,-5.67932,-0.000165943,-0.000250449,8.18096e-05,-0.00011612,-0.000300273,0.547026,0.00017484,0.0163299,1742,526,7.44517,5.67932
525,498,7.34082,-5.36688,-0.000910569,-7.98434e-07,4.22037e-06,-7.78877e-07,-0.000910589,1.56616,0.0006068,0.0296398,1749,526,7.34085,5.36688
532,498,7.07471,-5.11401,-0.00176407,0.000598412,5.98746e-05,0.000599928,-0.00176558,1.54547,0.00141993,0.0456255,1756,526,7.07472,5.11403
539,498,7.13623,-4.70215,0,0,0,0,0,0,0,-1,1763,526,7.13626,4.70217
546,498,7.32312,-4.17657,0,0,0,0,0,0,0,-1,1770,526,7.32313,4.1766
553,498,5.93958,-1.71448,0,0,0,0,0,0,0,-1,1777,526,5.93956,1.71447
560,498,3.69385,-0.615112,0,0,0,0,0,0,0,-1,1784,526,3.69381,0.615118
567,498,5.12695,-0.581604,0,0,0,0,0,0,0,-1,1791,526,5.12699,0.58159
574,498,3.88,0.0286255,0,0,0,0,0,0,0,-1,1798,526,3.87999,-0.0286535
581,498,10.8722,2.58551,0,0,0,0,0,0,0,-1,1805,526,10.8723,-2.58551
588,498,0,0,0,0,0,0,0,0,0,-1,1812,526,0,0
595,498,0,0,0,0,0,0,0,0,0,-1,1819,526,0,0
602,498,0,0,0,0,0,0,0,0,0,-1,1826,526,0,0
609,498,0,0,0,0,0,0,0,0,0,-1,1833,526,0,0
616,498,0,0,0,0,0,0,0,0,0,-1,1840,526,0,0
623,498,0,0,0,0,0,0,0,0,0,-1,1847,526,0,0
630,498,0,0,0,0,0,0,0,0,0,-1,1854,526,0,0
637,498,0,0,0,0,0,0,0,0,0,-1,1861,526,0,0
644,498,0,0,0,0,0,0,0,0,0,-1,1868,526,0,0
651,498,0,0,0,0,0,0,0,0,0,-1,1875,526,0,0
658,498,0,0,0,0,0,0,0,0,0,-1,1882,526,0,0
665,498,0,0,0,0,0,0,0,0,0,-1,1889,526,0,0
672,498,0,0,0,0,0,0,0,0,0,-1,1896,526,0,0
679,498,0,0,0,0,0,0,0,0,0,-1,1903,526,0,0
686,498,0,0,0,0,0,0,0,0,0,-1,1910,526,0,0
693,498,0,0,0,0,0,0,0,0,0,-1,1917,526,0,0
700,498,0,0,0,0,0,0,0,0,0,-1,1924,526,0,0
707,498,0,0,0,0,0,0,0,0,0,-1,1931,526,0,0
714,498,0,0,0,0,0,0,0,0,0,-1,1938,526,0,0
721,498,0,0,0,0,0,0,0,0,0,-1,1945,526,0,0
728,498,0,0,0,0,0,0,0,0,0,-1,1952,526,0,0
735,498,0,0,0,0,0,0,0,0,0,-1,1959,526,0,0
742,498,0,0,0,0,0,0,0,0,0,-1,1966,526,0,0
749,498,0,0,0,0,0,0,0,0,0,-1,1973,526,0,0
756,498,0,0,0,0,0,0,0,0,0,-1,1980,526,0,0
763,498,0,0,0,0,0,0,0,0,0,-1,1987,526,0,0
770,498,0,0,0,0,0,0,0,0,0,-1,1994,526,0,0
777,498,0,0,0,0,0,0,0,0,0,-1,2001,526,0,0
784,498,0,0,0,0,0,0,0,0,0,-1,2008,526,0,0
791,498,0,0,0,0,0,0,0,0,0,-1,2015,526,0,0
798,498,0,0,0,0,0,0,0,0,0,-1,2022,526,0,0
805,498,0,0,0,0,0,0,0,0,0,-1,2029,526,0,0
812,498,0,0,0,0,0,0,0,0,0,-1,2036,526,0,0
-700,491,0,0,0,0,0,0,0,0,0,-1,524,533,0,0
-693,491,0,0,0,0,0,0,0,0,0,-1,531,533,0,0
-686,491,0,0,0,0,0,0,0,0,0,-1,538,533,0,0
-679,491,0,0,0,0,0,0,0,0,0,-1,545,533,0,0
-672,491,0,0,0,0,0,0,0,0,0,-1,552,533,0,0
-665,491,0,0,0,0,0,0,0,0,0,-1,559,533,0,0
-658,491,0,0,0,0,0,0,0,0,0,-1,566,533,0,0
-651,491,0,0,0,0,0,0,0,0,0,-1,573,533,0,0
-644,491,0,0,0,0,0,0,0,0,0,-1,580,533,0,0
-637,491,0,0,0,0,0,0,0,0,0,-1,587,533,0,0
-630,491,0,0,0,0,0,0,0,0,0,-1,594,533,0,0
-623,491,0,0,0,0,0,0,0,0,0,-1,601,533,0,0
-616,491,0,0,0,0,0,0,0,0,0,-1,608,533,0,0
-609,491,0,0,0,0,0,0,0,0,0,-1,615,533,0,0
-602,491,0,0,0,0,0,0,0,0,0,-1,622,533,0,0
-595,491,0,0,0,0,0,0,0,0,0,-1,629,533,0,0
-588,491,0,0,0,0,0,0,0,0,0,-1,636,533,0,0
-581,491,0,0,0,0,0,0,0,0,0,-1,643,533,0,0
-574,491,0,0,0,0,0,0,0,0,0,-1,650,533,0,0
-567,491,0,0,0,0,0,0,0,0,0,-1,657,533,0,0
-560,491,0,0,0,0,0,0,0,0,0,-1,664,533,0,0
-553,491,0,0,0,0,0,0,0,0,0,-1,671,533,0,0
-546,491,0,0,0,0,0,0,0,0,0,-1,678,533,0,0
-539,491,0,0,0,0,0,0,0,0,0,-1,685,533,0,0
-532,491,0,0,0,0,0,0,0,0,0,-1,692,533,0,0
-525,491,0,0,0,0,0,0,0,0,0,-1,699,533,0,0
-518,491,0,0,0,0,0,0,0,0,0,-1,706,533,0,0
-511,491,0,0,0,0,0,0,0,0,0,-1,713,533,0,0
-504,491,0,0,0,0,0,0,0,0,0,-1,720,533,0,0
-497,491,0,0,0,0,0,0,0,0,0,-1,727,533,0,0
-490,491,0,0,0,0,0,0,0,0,0,-1,734,533,0,0
-483,491,0,0,0,0,0,0,0,0,0,-1,741,533,0,0
-476,491,0,0,0,0,0,0,0,0,0,-1,748,533,0,0
-469,491,-5.85913,4.55011,0,0,0,0,0,0,0,-1,755,533,-5.8591,-4.55009
-462,491,-9.93713,4.90381,0,0,0,0,0,0,0,-1,762,533,-9.93716,-4.9038
-455,491,1.9494,-0.27887,0,0,0,0,0,0,0,-1,769,533,1.94941,0.27885
-448,491,2.68909,-1.8999,0,0,0,0,0,0,0,-1,776,533,2.6891,1.89988
-441,491,3.46069,-3.51855,0,0,0,0,0,0,0,-1,783,533,3.46071,3.51854
-434,491,3.13983,-5.15564,0,0,0,0,0,0,0,-1,790,533,3.13986,5.15562
-427,491,-2.05853,-3.51593,0,0,0,0,0,0,0,-1,797,533,-2.05855,3.51595
-420,491,-1.21344,-5.94153,0,0,0,0,0,0,0,-1,804,533,-1.21344,5.94153
-413,491,-1.43634,-6.3053,0.00922159,0.0158826,-0.0141997,0.0271372,-0.00203295,-0.90059,0.0188058,0.0489327,811,533,-1.43637,6.30527
-406,491,-1.31104,-6.66962,0.00673749,0.012063,-0.0107867,0.0205108,-0.00171028,-0.906407,0.0142781,0.0252135,818,533,-1.31105,6.66963
-399,491,-1.29498,-6.94489,0.00479754,0.00911629,-0.00808883,0.015329,-0.00141518,-0.915835,0.0107222,0.0110657,825,533,-1.29497,6.9449
-392,491,-1.33228,-7.25024,0.00336079,0.00669554,-0.00591034,0.0111692,-0.00111287,-0.922881,0.00784345,0.0100334,832,533,-1.33229,7.25026
-385,491,-1.3324,-7.53229,0.00250104,0.00474917,-0.00430071,0.00807029,-0.000820076,-0.913222,0.00567334,0.00929083,839,533,-1.3324,7.53232
-378,491,-1.31921,-7.80627,0.00194704,0.00309269,-0.00297859,0.00555303,-0.000513304,-0.880396,0.00388444,0.0128212,846,533,-1.31922,7.80626
-371,491,-1.30756,-8.10999,0.00158854,0.00116689,-0.00183092,0.00322073,-0.000465303,-0.728077,0.00231788,0.014457,853,533,-1.30758,8.11
-364,491,-1.31586,-8.42004,0.00163138,0.000220918,-0.00121129,0.00232778,-0.000475483,-0.521778,0.00173224,0.0140071,860,533,-1.31585,8.42004
-357,491,-1.33917,-8.69922,0.00192151,-0.000627535,-0.000791874,0.00214748,-0.000853503,-0.277971,0.0017855,0.0117116,867,533,-1.33919,8.69922
-350,491,-1.34229,-8.98053,0.00241478,-0.00132235,-0.000630684,0.00251834,-0.00142591,-0.162759,0.00230615,0.0138196,874,533,-1.34227,8.9805
-343,491,-1.31775,-9.29425,0.00299684,-0.00186465,-0.000561958,0.00306095,-0.00192876,-0.113598,0.00290543,0.0226587,881,533,-1.31774,9.29422
-336,491,-1.34375,-9.57434,0.00368723,-0.00224903,-0.000614064,0.00375008,-0.00231188,-0.102004,0.00353256,0.0228174,888,533,-1.34377,9.57434
-329,491,-1.39685,-9.82831,0.00450804,-0.00219996,-0.000903772,0.00462767,-0.0023196,-0.131605,0.00408413,0.0233569,895,533,-1.39686,9.8283
-322,491,-1.36108,-10.1004,0.0053761,-0.00202947,-0.00127002,0.00558785,-0.00224121,-0.165208,0.00465573,0.023092,902,533,-1.36108,10.1004
-315,491,-1.36444,-10.3743,0.00647095,-0.00181123,-0.00166084,0.00679159,-0.00213187,-0.190711,0.00538101,0.0215785,909,533,-1.36444,10.3743
-308,491,-1.24585,-10.8005,0,0,0,0,0,0,0,-1,916,533,-1.24587,10.8005
-301,491,-1.151,-11.5555,0,0,0,0,0,0,0,-1,923,533,-1.15099,11.5555
-294,491,-0.777283,-8.60913,0,0,0,0,0,0,0,-1,930,533,-0.777288,8.6091
-287,491,-0.26123,-8.69055,0,0,0,0,0,0,0,-1,937,533,-0.261204,8.69053
-280,491,0.2948,-5.99219,0,0,0,0,0,0,0,-1,944,533,0.294811,5.99221
-273,491,0.369995,-5.33691,0,0,0,0,0,0,0,-1,951,533,0.369985,5.33693
-266,491,1.1167,-5.0321,0,0,0,0,0,0,0,-1,958,533,1.11668,5.0321
-259,491,12.0862,-16.9615,0,0,0,0,0,0,0,-1,965,533,12.0862,16.9615
-252,491,9.72443,-13.8417,0,0,0,0,0,0,0,-1,972,533,9.72444,13.8418
-245,491,5.27258,-14.3619,0,0,0,0,0,0,0,-1,979,533,5.27255,14.3619
-238,491,3.65381,-11.1472,0,0,0,0,0,0,0,-1,986,533,3.6538,11.1472
-231,491,2.17719,-7.86835,0,0,0,0,0,0,0,-1,993,533,2.17719,7.86832
-224,491,0.554626,-4.61725,0,0,0,0,0,0,0,-1,1000,533,0.554608,4.61727
-217,491,-2.92743,-1.0766,0,0,0,0,0,0,0,-1,1007,533,-2.92743,1.07659
-210,491,-0.92395,0.374512,0,0,0,0,0,0,0,-1,1014,533,-0.923959,-0.374531
-203,491,0.417419,4.77161,0,0,0,0,0,0,0,-1,1021,533,0.417446,-4.77162
-196,491,0,0,0,0,0,0,0,0,0,-1,1028,533,0,0
-189,491,0,0,0,0,0,0,0,0,0,-1,1035,533,0,0
-182,491,0,0,0,0,0,0,0,0,0,-1,1042,533,0,0
-175,491,0,0,0,0,0,0,0,0,0,-1,1049,533,0,0
-168,491,0,0,0,0,0,0,0,0,0,-1,1056,533,0,0
-161,491,0,0,0,0,0,0,0,0,0,-1,1063,533,0,0
-154,491,0,0,0,0,0,0,0,0,0,-1,1070,533,0,0
-147,491,0,0,0,0,0,0,0,0,0,-1,1077,533,0,0
-140,491,0,0,0,0,0,0,0,0,0,-1,1084,533,0,0
-133,491,0,0,0,0,0,0,0,0,0,-1,1091,533,0,0
-126,491,0,0,0,0,0,0,0,0,0,-1,1098,533,0,0
-119,491,0,0,0,0,0,0,0,0,0,-1,1105,533,0,0
-112,491,0,0,0,0,0,0,0,0,0,-1,1112,533,0,0
-105,491,0,0,0,0,0,0,0,0,0,-1,1119,533,0,0
-98,491,0,0,0,0,0,0,0,0,0,-1,1126,533,0,0
-91,491,0,0,0,0,0,0,0,0,0,-1,1133,533,0,0
-84,491,0,0,0,0,0,0,0,0,0,-1,1140,533,0,0
-77,491,0,0,0,0,0,0,0,0,0,-1,1147,533,0,0
-70,491,0,0,0,0,0,0,0,0,0,-1,1154,533,0,0
-63,491,0,0,0,0,0,0,0,0,0,-1,1161,533,0,0
-56,491,0,0,0,0,0,0,0,0,0,-1,1168,533,0,0
-49,491,0,0,0,0,0,0,0,0,0,-1,1175,533,0,0
-42,491,0,0,0,0,0,0,0,0,0,-1,1182,533,0,0
-35,491,0,0,0,0,0,0,0,0,0,-1,1189,533,0,0
-28,491,0,0,0,0,0,0,0,0,0,-1,1196,533,0,0
-21,491,0,0,0,0,0,0,0,0,0,-1,1203,533,0,0
-14,491,0,0,0,0,0,0,0,0,0,-1,1210,533,0,0
-7,491,0,0,0,0,0,0,0,0,0,-1,1217,533,0,0
0,491,0,0,0,0,0,0,0,0,0,-1,1224,533,0,0
7,491,0,0,0,0,0,0,0,0,0,-1,1231,533,0,0
14,491,0,0,0,0,0,0,0,0,0,-1,1238,533,0,0
21,491,0,0,0,0,0,0,0,0,0,-1,1245,533,0,0
28,491,0,0,0,0,0,0,0,0,0,-1,1252,533,0,0
35,491,0,0,0,0,0,0,0,0,0,-1,1259,533,0,0
42,491,0,0,0,0,0,0,0,0,0,-1,1266,533,0,0
49,491,0,0,0,0,0,0,0,0,0,-1,1273,533,0,0
56,491,0,0,0,0,0,0,0,0,0,-1,1280,533,0,0
63,491,0,0,0,0,0,0,0,0,0,-1,1287,533,0,0
70,491,0,0,0,0,0,0,0,0,0,-1,1294,533,0,0
77,491,0,0,0,0,0,0,0,0,0,-1,1301,533,0,0
84,491,0,0,0,0,0,0,0,0,0,-1,1308,533,0,0
91,491,0,0,0,0,0,0,0,0,0,-1,1315,533,0,0
98,491,0,0,0,0,0,0,0,0,0,-1,1322,533,0,0
105,491,0,0,0,0,0,0,0,0,0,-1,1329,533,0,0
112,491,0,0,0,0,0,0,0,0,0,-1,1336,533,0,0
119,491,0,0,0,0,0,0,0,0,0,-1,1343,533,0,0
126,491,0,0,0,0,0,0,0,0,0,-1,1350,533,0,0
133,491,0,0,0,0,0,0,0,0,0,-1,1357,533,0,0
140,491,0,0,0,0,0,0,0,0,0,-1,1364,533,0,0
147,491,0,0,0,0,0,0,0,0,0,-1,1371,533,0,0
154,491,0,0,0,0,0,0,0,0,0,-1,1378,533,0,0
161,491,0,0,0,0,0,0,0,0,0,-1,1385,533,0,0
168,491,0,0,0,0,0,0,0,0,0,-1,1392,533,0,0
175,491,0,0,0,0,0,0,0,0,0,-1,1399,533,0,0
182,491,0,0,0,0,0,0,0,0,0,-1,1406,533,0,0
189,491,0,0,0,0,0,0,0,0,0,-1,1413,533,0,0
196,491,0,0,0,0,0,0,0,0,0,-1,1420,533,0,0
203,491,0,0,0,0,0,0,0,0,0,-1,1427,533,0,0
210,491,0,0,0,0,0,0,0,0,0,-1,1434,533,0,0
217,491,0,0,0,0,0,0,0,0,0,-1,1441,533,0,0
224,491,0,0,0,0,0,0,0,0,0,-1,1448,533,0,0
231,491,0,0,0,0,0,0,0,0,0,-1,1455,533,0,0
238,491,0,0,0,0,0,0,0,0,0,-1,1462,533,0,0
245,491,0,0,0,0,0,0,0,0,0,-1,1469,533,0,0
252,491,0,0,0,0,0,0,0,0,0,-1,1476,533,0,0
259,491,0,0,0,0,0,0,0,0,0,-1,1483,533,0,0
266,491,0,0,0,0,0,0,0,0,0,-1,1490,533,0,0
273,491,0,0,0,0,0,0,0,0,0,-1,1497,533,0,0
280,491,0,0,0,0,0,0,0,0,0,-1,1504,533,0,0
287,491,0,0,0,0,0,0,0,0,0,-1,1511,533,0,0
294,491,0,0,0,0,0,0,0,0,0,-1,1518,533,0,0
301,491,0,0,0,0,0,0,0,0,0,-1,1525,533,0,0
308,491,0,0,0,0,0,0,0,0,0,-1,1532,533,0,0
315,491,0,0,0,0,0,0,0,0,0,-1,1539,533,0,0
322,491,4.26331,-0.734314,0,0,0,0,0,0,0,-1,1546,533,4.26326,0.734324
329,491,4.25354,-0.783752,0,0,0,0,0,0,0,-1,1553,533,4.25359,0.783734
336,491,4.81604,-0.722107,0,0,0,0,0,0,0,-1,1560,533,4.81605,0.722115
343,491,6.14478,-1.44281,0,0,0,0,0,0,0,-1,1567,533,6.14474,1.44281
350,491,6.36353,-1.30792,0,0,0,0,0,0,0,-1,1574,533,6.36352,1.3079
357,491,6.69482,-1.06018,0,0,0,0,0,0,0,-1,1581,533,6.69489,1.06018
364,491,8.01086,-1.69604,0,0,0,0,0,0,0,-1,1588,533,8.01087,1.69607
371,491,8.2135,-0.539307,0,0,0,0,0,0,0,-1,1595,533,8.21348,0.53929
378,491,13.3589,2.17267,0,0,0,0,0,0,0,-1,1602,533,13.3589,-2.17264
385,491,8.08228,-4.95471,0,0,0,0,0,0,0,-1,1609,533,8.08227,4.95474
392,491,2.88721,-4.30988,0,0,0,0,0,0,0,-1,1616,533,2.88716,4.30986
399,491,8.95862,-8.55518,0,0,0,0,0,0,0,-1,1623,533,8.95864,8.55516
406,491,8.16541,-9.00806,0,0,0,0,0,0,0,-1,1630,533,8.16535,9.00807
413,491,5.31848,-3.7124,0,0,0,0,0,0,0,-1,1637,533,5.31849,3.7124
420,491,4.86389,-3.95892,0,0,0,0,0,0,0,-1,1644,533,4.86387,3.95893
427,491,8.09216,-9.2226,0,0,0,0,0,0,0,-1,1651,533,8.0922,9.22261
434,491,7.98047,-9.05994,-0.00520959,-0.00402668,-0.0062815,0.00169115,-0.0109274,-0.832339,0.00790916,0.046925,1658,533,7.98051,9.05991
441,491,7.75879,-9.04492,-0.00406714,-0.00253147,-0.00487244,0.00163327,-0.00823188,-0.863549,0.0061056,0.0219094,1665,533,7.7588,9.04494
448,491,7.72742,-8.78418,-0.00290899,-0.00135533,-0.00361056,0.00156103,-0.00582535,-0.89136,0.00449518,0.0113416,1672,533,7.72736,8.78416
455,491,7.71912,-8.4834,-0.00184997,-0.000378694,-0.00248191,0.0014743,-0.00370297,-0.929474,0.00308003,0.011598,1679,533,7.71907,8.48341
462,491,7.71777,-8.19342,-0.000942882,0.000221063,-0.00157621,0.00131931,-0.00204113,-0.962246,0.00195501,0.0156997,1686,533,7.71777,8.19339
469,491,7.69128,-7.92163,-0.000249829,0.000523741,-0.000870336,0.00108937,-0.000815456,-0.994495,0.00110353,0.0153488,1693,533,7.69128,7.92162
476,491,7.71265,-7.61285,0.000307153,0.000659733,-0.000311542,0.000841405,0.000125481,-1.04287,0.00052414,0.0107027,1700,533,7.71264,7.61284
483,491,7.70837,-7.27472,0.000757912,0.000745636,0.00010251,0.000854467,0.000649081,0.755493,0.00051502,0.0114235,1707,533,7.70843,7.27474
490,491,7.71289,-6.97418,0.00105389,0.000695962,0.000385918,0.00130032,0.000449532,0.568289,0.000762563,0.0102883,1714,533,7.71286,6.9742
497,491,7.70752,-6.67688,0.00098502,0.000401723,0.000421365,0.00120582,0.000180919,0.482679,0.000750877,0.0115503,1721,533,7.70756,6.6769
504,491,7.70142,-6.35077,0.000743504,0.000251162,0.000405833,0.000971992,2.26751e-05,0.512775,0.00064057,0.0124024,1728,533,7.70147,6.3508
511,491,7.69983,-6.01801,0.000331999,0.000169288,0.000308299,0.000569495,-6.82089e-05,0.656396,0.000404322,0.0116941,1735,533,7.69985,6.018
518,491,7.70239,-5.70721,-0.000264268,0.000141133,0.000196631,0.000220836,-0.00034397,1.1857,0.000328664,0.0096382,1742,533,7.7024,5.7072
525,491,7.71423,-5.375,-0.000991458,0.000278478,0.000107672,0.000287542,-0.00100052,1.48681,0.000780717,0.00955652,1749,533,7.71419,5.37502
532,491,7.71533,-5.05719,-0.0018014,0.000746336,0.000145234,0.000754588,-0.00180965,1.51404,0.00152167,0.0204214,1756,533,7.71531,5.0572
539,491,7.63696,-4.85309,-0.00260627,0.00172043,0.000470296,0.00177095,-0.0026568,1.46377,0.00257336,0.032244,1763,533,7.637,4.85307
546,491,7.52881,-4.31189,-0.00339293,0.00309389,0.00104425,0.00325785,-0.00355689,1.41506,0.00393575,0.0419367,1770,533,7.52885,4.31188
553,491,7.44641,-3.66449,0,0,0,0,0,0,0,-1,1777,533,7.44641,3.66448
560,491,6.28455,-1.43585,0,0,0,0,0,0,0,-1,1784,533,6.28458,1.43586
567,491,5.67651,-1.3562,0,0,0,0,0,0,0,-1,1791,533,5.67649,1.3562
574,491,8.0719,1.58325,0,0,0,0,0,0,0,-1,1798,533,8.07195,-1.58326
581,491,9.44812,1.60931,0,0,0,0,0,0,0,-1,1805,533,9.44808,-1.60933
588,491,11.0497,1.54962,0,0,0,0,0,0,0,-1,1812,533,11.0496,-1.54963
595,491,0,0,0,0,0,0,0,0,0,-1,1819,533,0,0
602,491,0,0,0,0,0,0,0,0,0,-1,1826,533,0,0
609,491,0,0,0,0,0,0,0,0,0,-1,1833,533,0,0
616,491,0,0,0,0,0,0,0,0,0,-1,1840,533,0,0
623,491,0,0,0,0,0,0,0,0,0,-1,1847,533,0,0
630,491,0,0,0,0,0,0,0,0,0,-1,1854,533,0,0
637,491,0,0,0,0,0,0,0,0,0,-1,1861,533,0,0
644,491,0,0,0,0,0,0,0,0,0,-1,1868,533,0,0
651,491,0,0,0,0,0,0,0,0,0,-1,1875,533,0,0
658,491,0,0,0,0,0,0,0,0,0,-1,1882,533,0,0
665,491,0,0,0,0,0,0,0,0,0,-1,1889,533,0,0
672,491,0,0,0,0,0,0,0,0,0,-1,1896,533,0,0
679,491,0,0,0,0,0,0,0,0,0,-1,1903,533,0,0
686,491,0,0,0,0,0,0,0,0,0,-1,1910,533,0,0
693,491,0,0,0,0,0,0,0,0,0,-1,1917,533,0,0
700,491,0,0,0,0,0,0,0,0,0,-1,1924,533,0,0
707,491,0,0,0,0,0,0,0,0,0,-1,1931,533,0,0
714,491,0,0,0,0,0,0,0,0,0,-1,1938,533,0,0
721,491,0,0,0,0,0,0,0,0,0,-1,1945,533,0,0
728,491,0,0,0,0,0,0,0,0,0,-1,1952,533,0,0
735,491,0,0,0,0,0,0,0,0,0,-1,1959,533,0,0
742,491,0,0,0,0,0,0,0,0,0,-1,1966,533,0,0
749,491,0,0,0,0,0,0,0,0,0,-1,1973,533,0,0
756,491,0,0,0,0,0,0,0,0,0,-1,1980,533,0,0
763,491,0,0,0,0,0,0,0,0,0,-1,1987,533,0,0
770,491,0,0,0,0,0,0,0,0,0,-1,1994,533,0,0
777,491,0,0,0,0,0,0,0,0,0,-1,2001,533,0,0
784,491,0,0,0,0,0,0,0,0,0,-1,2008,533,0,0
791,491,0,0,0,0,0,0,0,0,0,-1,2015,533,0,0
798,491,0,0,0,0,0,0,0,0,0,-1,2022,533,0,0
805,491,0,0,0,0,0,0,0,0,0,-1,2029,533,0,0
812,491,0,0,0,0,0,0,0,0,0,-1,2036,533,0,0
-700,484,0,0,0,0,0,0,0,0,0,-1,524,540,0,0
-693,484,0,0,0,0,0,0,0,0,0,-1,531,540,0,0
-686,484,0,0,0,0,0,0,0,0,0,-1,538,540,0,0
-679,484,0,0,0,0,0,0,0,0,0,-1,545,540,0,0
-672,484,0,0,0,0,0,0,0,0,0,-1,552,540,0,0
-665,484,0,0,0,0,0,0,0,0,0,-1,559,540,0,0
-658,484,0,0,0,0,0,0,0,0,0,-1,566,540,0,0
-651,484,0,0,0,0,0,0,0,0,0,-1,573,540,0,0
-644,484,0,0,0,0,0,0,0,0,0,-1,580,540,0,0
-637,484,0,0,0,0,0,0,0,0,0,-1,587,540,0,0
-630,484,0,0,0,0,0,0,0,0,0,-1,594,540,0,0
-623,484,0,0,0,0,0,0,0,0,0,-1,601,540,0,0
-616,484,0,0,0,0,0,0,0,0,0,-1,608,540,0,0
-609,484,0,0,0,0,0,0,0,0,0,-1,615,540,0,0
-602,484,0,0,0,0,0,0,0,0,0,-1,622,540,0,0
-595,484,0,0,0,0,0,0,0,0,0,-1,629,540,0,0
-588,484,0,0,0,0,0,0,0,0,0,-1,636,540,0,0
-581,484,0,0,0,0,0,0,0,0,0,-1,643,540,0,0
-574,484,0,0,0,0,0,0,0,0,0,-1,650,540,0,0
-567,484,0,0,0,0,0,0,0,0,0,-1,657,540,0,0
-560,484,0,0,0,0,0,0,0,0,0,-1,664,540,0,0
-553,484,0,0,0,0,0,0,0,0,0,-1,671,540,0,0
-546,484,0,0,0,0,0,0,0,0,0,-1,678,540,0,0
-539,484,0,0,0,0,0,0,0,0,0,-1,685,540,0,0
-532,484,0,0,0,0,0,0,0,0,0,-1,692,540,0,0
-525,484,0,0,0,0,0,0,0,0,0,-1,699,540,0,0
-518,484,0,0,0,0,0,0,0,0,0,-1,706,540,0,0
-511,484,0,0,0,0,0,0,0,0,0,-1,713,540,0,0
-504,484,0,0,0,0,0,0,0,0,0,-1,720,540,0,0
-497,484,0,0,0,0,0,0,0,0,0,-1,727,540,0,0
-490,484,0,0,0,0,0,0,0,0,0,-1,734,540,0,0
-483,484,0,0,0,0,0,0,0,0,0,-1,741,540,0,0
-476,484,-8.46552,1.44702,0,0,0,0,0,0,0,-1,748,540,-8.46554,-1.44702
-469,484,-7.82343,1.70355,0,0,0,0,0,0,0,-1,755,540,-7.82345,-1.70355
-462,484,-8.36987,3.08612,0,0,0,0,0,0,0,-1,762,540,-8.36988,-3.0861
-455,484,-6.77197,2.07092,0,0,0,0,0,0,0,-1,769,540,-6.77197,-2.07094
-448,484,3.54895,-1.40106,0,0,0,0,0,0,0,-1,776,540,3.54897,1.40106
-441,484,4.28906,-3.05884,0,0,0,0,0,0,0,-1,783,540,4.28905,3.05883
-434,484,-2.27655,-4.9588,0,0,0,0,0,0,0,-1,790,540,-2.27654,4.95881
-427,484,-1.8902,-4.54968,0.0120372,0.0217365,-0.0188405,0.0363415,-0.00256786,-0.911366,0.0251274,0.0499109,797,540,-1.89022,4.5497
-420,484,-1.5415,-5.86835,0.00947634,0.0168863,-0.0147298,0.0283699,-0.00200723,-0.908608,0.0196166,0.0443656,804,540,-1.54151,5.86837
-413,484,-1.54028,-6.25647,0.00737486,0.0129895,-0.0114253,0.0219473,-0.00158294,-0.905868,0.0151867,0.0260943,811,540,-1.54027,6.25648
-406,484,-1.5354,-6.60052,0.00548153,0.00985775,-0.00867415,0.0166155,-0.00127624,-0.908949,0.011526,0.015083,818,540,-1.53542,6.60051
-399,484,-1.58496,-6.92053,0.00397348,0.00730971,-0.00643017,0.0122846,-0.00100143,-0.91231,0.00854314,0.0156919,825,540,-1.58498,6.92052
-392,484,-1.58673,-7.20825,0.00282135,0.00504304,-0.00454763,0.00861353,-0.000749142,-0.905187,0.00600766,0.0180565,832,540,-1.58675,7.20823
-385,484,-1.6145,-7.51251,0.00210493,0.00322909,-0.00312976,0.00584684,-0.000512821,-0.874247,0.00407959,0.0131262,839,540,-1.61453,7.51249
-378,484,-1.62915,-7.82043,0.00165739,0.00161864,-0.00193051,0.00356862,-0.000292588,-0.780381,0.00248236,0.0137316,846,540,-1.62915,7.82044
-371,484,-1.62244,-8.10724,0.00142246,-0.000201552,-0.000928579,0.00184399,-0.000623083,-0.426136,0.00148136,0.0153715,853,540,-1.62242,8.10724
-364,484,-1.62036,-8.38605,0.00154171,-0.0012231,-0.000363327,0.00158866,-0.00127004,-0.128505,0.00165389,0.0114438,860,540,-1.62038,8.38602
-357,484,-1.63965,-8.68091,0.00193301,-0.00216814,5.36526e-07,0.00193301,-0.00216814,0.000130823,0.0023691,0.0118016,867,540,-1.63963,8.68093
-350,484,-1.6405,-8.96545,0.00255654,-0.00292172,9.93789e-05,0.00255835,-0.00292352,0.0181326,0.0031673,0.0137533,874,540,-1.6405,8.96544
-343,484,-1.65295,-9.2735,0.0033203,-0.00356124,7.30033e-05,0.00332108,-0.00356201,0.010607,0.00397476,0.0231452,881,540,-1.65294,9.27352
-336,484,-1.63556,-9.56329,0.00419686,-0.00403225,-6.4386e-05,0.00419736,-0.00403275,-0.00782354,0.00475198,0.0259781,888,540,-1.63556,9.5633
-329,484,-1.67523,-9.80231,0.00525257,-0.00393478,-0.000516344,0.0052815,-0.00396371,-0.0559667,0.00535576,0.0330578,895,540,-1.67522,9.8023
-322,484,-1.46265,-10.1874,0.00644559,-0.00374439,-0.00108697,0.00656025,-0.00385904,-0.105095,0.00608259,0.0460656,902,540,-1.46265,10.1874
-315,484,-1.43628,-10.4954,0,0,0,0,0,0,0,-1,909,540,-1.4363,10.4954
-308,484,-1.32623,-8.9317,0,0,0,0,0,0,0,-1,916,540,-1.32626,8.93173
-301,484,-1.33453,-6.52667,0,0,0,0,0,0,0,-1,923,540,-1.33454,6.5267
-294,484,-1.61224,-8.17059,0,0,0,0,0,0,0,-1,930,540,-1.61227,8.17058
-287,484,-0.715759,-5.62103,0,0,0,0,0,0,0,-1,937,540,-0.715772,5.62105
-280,484,2.66742,-1.6795,0,0,0,0,0,0,0,-1,944,540,2.6674,1.67949
-273,484,2.53125,-2.22296,0,0,0,0,0,0,0,-1,951,540,2.53128,2.22295
-266,484,2.6778,-2.72058,0,0,0,0,0,0,0,-1,958,540,2.6778,2.72061
-259,484,2.41718,-2.59894,0,0,0,0,0,0,0,-1,965,540,2.41717,2.59892
-252,484,10.6069,-11.696,0,0,0,0,0,0,0,-1,972,540,10.6069,11.696
-245,484,6.34106,-11.6107,0,0,0,0,0,0,0,-1,979,540,6.34104,11.6107
-238,484,4.89319,-8.54059,0,0,0,0,0,0,0,-1,986,540,4.89321,8.5406
-231,484,3.47675,-5.22064,0,0,0,0,0,0,0,-1,993,540,3.47676,5.22067
-224,484,1.71344,-2.03473,0,0,0,0,0,0,0,-1,1000,540,1.71342,2.03472
-217,484,-0.745056,1.17358,0,0,0,0,0,0,0,-1,1007,540,-0.745043,-1.17359
-210,484,0,0,0,0,0,0,0,0,0,-1,1014,540,0,0
-203,484,0,0,0,0,0,0,0,0,0,-1,1021,540,0,0
-196,484,0,0,0,0,0,0,0,0,0,-1,1028,540,0,0
-189,484,0,0,0,0,0,0,0,0,0,-1,1035,540,0,0
-182,484,0,0,0,0,0,0,0,0,0,-1,1042,540,0,0
-175,484,0,0,0,0,0,0,0,0,0,-1,1049,540,0,0
-168,484,0,0,0,0,0,0,0,0,0,-1,1056,540,0,0
-161,484,0,0,0,0,0,0,0,0,0,-1,1063,540,0,0
-154,484,0,0,0,0,0,0,0,0,0,-1,1070,540,0,0
-147,484,0,0,0,0,0,0,0,0,0,-1,1077,540,0,0
-140,484,0,0,0,0,0,0,0,0,0,-1,1084,540,0,0
-133,484,0,0,0,0,0,0,0,0,0,-1,1091,540,0,0
-126,484,0,0,0,0,0,0,0,0,0,-1,1098,540,0,0
-119,484,0,0,0,0,0,0,0,0,0,-1,1105,540,0,0
-112,484,0,0,0,0,0,0,0,0,0,-1,1112,540,0,0
-105,484,0,0,0,0,0,0,0,0,0,-1,1119,540,0,0
-98,484,0,0,0,0,0,0,0,0,0,-1,1126,540,0,0
-91,484,0,0,0,0,0,0,0,0,0,-1,1133,540,0,0
-84,484,0,0,0,0,0,0,0,0,0,-1,1140,540,0,0
-77,484,0,0,0,0,0,0,0,0,0,-1,1147,540,0,0
-70,484,0,0,0,0,0,0,0,0,0,-1,1154,540,0,0
-63,484,0,0,0,0,0,0,0,0,0,-1,1161,540,0,0
-56,484,0,0,0,0,0,0,0,0,0,-1,1168,540,0,0
-49,484,0,0,0,0,0,0,0,0,0,-1,1175,540,0,0
-42,484,0,0,0,0,0,0,0,0,0,-1,1182,540,0,0
-35,484,0,0,0,0,0,0,0,0,0,-1,1189,540,0,0
-28,484,0,0,0,0,0,0,0,0,0,-1,1196,540,0,0
-21,484,0,0,0,0,0,0,0,0,0,-1,1203,540,0,0
-14,484,0,0,0,0,0,0,0,0,0,-1,1210,540,0,0
-7,484,0,0,0,0,0,0,0,0,0,-1,1217,540,0,0
0,484,0,0,0,0,0,0,0,0,0,-1,1224,540,0,0
7,484,0,0,0,0,0,0,0,0,0,-1,1231,540,0,0
14,484,0,0,0,0,0,0,0,0,0,-1,1238,540,0,0
21,484,0,0,0,0,0,0,0,0,0,-1,1245,540,0,0
28,484,0,0,0,0,0,0,0,0,0,-1,1252,540,0,0
35,484,0,0,0,0,0,0,0,0,0,-1,1259,540,0,0
42,484,0,0,0,0,0,0,0,0,0,-1,1266,540,0,0
49,484,0,0,0,0,0,0,0,0,0,-1,1273,540,0,0
56,484,0,0,0,0,0,0,0,0,0,-1,1280,540,0,0
63,484,0,0,0,0,0,0,0,0,0,-1,1287,540,0,0
70,484,0,0,0,0,0,0,0,0,0,-1,1294,540,0,0
77,484,0,0,0,0,0,0,0,0,0,-1,1301,540,0,0
84,484,0,0,0,0,0,0,0,0,0,-1,1308,540,0,0
91,484,0,0,0,0,0,0,0,0,0,-1,1315,540,0,0
98,484,0,0,0,0,0,0,0,0,0,-1,1322,540,0,0
105,484,0,0,0,0,0,0,0,0,0,-1,1329,540,0,0
112,484,0,0,0,0,0,0,0,0,0,-1,1336,540,0,0
119,484,0,0,0,0,0,0,0,0,0,-1,1343,540,0,0
126,484,0,0,0,0,0,0,0,0,0,-1,1350,540,0,0
133,484,0,0,0,0,0,0,0,0,0,-1,1357,540,0,0
140,484,0,0,0,0,0,0,0,0,0,-1,1364,540,0,0
147,484,0,0,0,0,0,0,0,0,0,-1,1371,540,0,0
154,484,0,0,0,0,0,0,0,0,0,-1,1378,540,0,0
161,484,0,0,0,0,0,0,0,0,0,-1,1385,540,0,0
168,484,0,0,0,0,0,0,0,0,0,-1,1392,540,0,0
175,484,0,0,0,0,0,0,0,0,0,-1,1399,540,0,0
182,484,0,0,0,0,0,0,0,0,0,-1,1406,540,0,0
189,484,0,0,0,0,0,0,0,0,0,-1,1413,540,0,0
196,484,0,0,0,0,0,0,0,0,0,-1,1420,540,0,0
203,484,0,0,0,0,0,0,0,0,0,-1,1427,540,0,0
210,484,0,0,0,0,0,0,0,0,0,-1,1434,540,0,0
217,484,0,0,0,0,0,0,0,0,0,-1,1441,540,0,0
224,484,0,0,0,0,0,0,0,0,0,-1,1448,540,0,0
231,484,0,0,0,0,0,0,0,0,0,-1,1455,540,0,0
238,484,0,0,0,0,0,0,0,0,0,-1,1462,540,0,0
245,484,0,0,0,0,0,0,0,0,0,-1,1469,540,0,0
252,484,0,0,0,0,0,0,0,0,0,-1,1476,540,0,0
259,484,0,0,0,0,0,0,0,0,0,-1,1483,540,0,0
266,484,0,0,0,0,0,0,0,0,0,-1,1490,540,0,0
273,484,0,0,0,0,0,0,0,0,0,-1,1497,540,0,0
280,484,0,0,0,0,0,0,0,0,0,-1,1504,540,0,0
287,484,0,0,0,0,0,0,0,0,0,-1,1511,540,0,0
294,484,0,0,0,0,0,0,0,0,0,-1,1518,540,0,0
301,484,0,0,0,0,0,0,0,0,0,-1,1525,540,0,0
308,484,0,0,0,0,0,0,0,0,0,-1,1532,540,0,0
315,484,0,0,0,0,0,0,0,0,0,-1,1539,540,0,0
322,484,0,0,0,0,0,0,0,0,0,-1,1546,540,0,0
329,484,0,0,0,0,0,0,0,0,0,-1,1553,540,0,0
336,484,4.38708,-1.64136,0,0,0,0,0,0,0,-1,1560,540,4.38704,1.64138
343,484,7.57996,-1.05457,0,0,0,0,0,0,0,-1,1567,540,7.57995,1.05454
350,484,8.10425,-1.18878,0,0,0,0,0,0,0,-1,1574,540,8.1043,1.18877
357,484,7.74902,-3.80286,0,0,0,0,0,0,0,-1,1581,540,7.74901,3.80287
364,484,6.31262,-3.87213,0,0,0,0,0,0,0,-1,1588,540,6.31263,3.87215
371,484,7.21008,0.973511,0,0,0,0,0,0,0,-1,1595,540,7.21014,-0.973541
378,484,11.0563,1.5014,0,0,0,0,0,0,0,-1,1602,540,11.0563,-1.5014
385,484,14.3469,2.5545,0,0,0,0,0,0,0,-1,1609,540,14.3469,-2.55453
392,484,7.39453,-4.95026,0,0,0,0,0,0,0,-1,1616,540,7.39448,4.95023
399,484,7.14417,-2.5639,0,0,0,0,0,0,0,-1,1623,540,7.14417,2.56391
406,484,7.88953,-2.47321,0,0,0,0,0,0,0,-1,1630,540,7.88954,2.47323
413,484,4.4895,-1.08673,0,0,0,0,0,0,0,-1,1637,540,4.48952,1.08674
420,484,4.50012,-2.11255,0,0,0,0,0,0,0,-1,1644,540,4.50012,2.11256
427,484,5.28601,-3.54053,0,0,0,0,0,0,0,-1,1651,540,5.28599,3.54051
434,484,8.6073,-8.75891,0,0,0,0,0,0,0,-1,1658,540,8.60734,8.7589
441,484,8.12329,-8.98602,0,0,0,0,0,0,0,-1,1665,540,8.12334,8.986
448,484,8.0802,-8.68677,-0.0038165,-0.00156563,-0.00446002,0.00190875,-0.00729088,-0.908987,0.00560622,0.0387005,1672,540,8.0802,8.68678
455,484,8.02856,-8.48383,-0.00234949,-0.000166012,-0.00296184,0.00189889,-0.00441439,-0.961973,0.00374018,0.020034,1679,540,8.02854,8.48383
462,484,8.03418,-8.18683,-0.00117822,0.000696615,-0.00178019,0.00177112,-0.00225272,-1.02774,0.0023287,0.0149504,1686,540,8.03417,8.18681
469,484,8.04443,-7.91492,-0.000369038,0.00113193,-0.000892855,0.00154781,-0.000784924,-1.13489,0.0013706,0.0170331,1693,540,8.04445,7.91492
476,484,8.03918,-7.59711,0.000292556,0.00134062,-0.00022118,0.00138539,0.000247791,-1.3711,0.000853076,0.0159153,1700,540,8.03924,7.59708
483,484,8.03625,-7.27441,0.00085404,0.00146905,0.000317249,0.00160337,0.000719723,1.1703,0.000927315,0.011572,1707,540,8.03627,7.27439
490,484,8.03894,-6.98248,0.00121091,0.00149589,0.000671471,0.00203982,0.000666978,0.88995,0.00120097,0.0113846,1714,540,8.03893,6.9825
497,484,8.03064,-6.67078,0.00115823,0.00114104,0.000704735,0.00185442,0.000444849,0.779299,0.0011179,0.0135733,1721,540,8.03069,6.67079
504,484,8.04468,-6.32996,0.000910212,0.000913602,0.000676642,0.00158855,0.000235263,0.786651,0.000989976,0.0158315,1728,540,8.04462,6.32998
511,484,8.03601,-6.00183,0.000488732,0.000726626,0.000556359,0.00117661,3.87473e-05,0.89071,0.000771816,0.0170313,1735,540,8.03606,6.00185
518,484,8.01563,-5.70642,-9.24013e-05,0.000572254,0.000420512,0.000775904,-0.000296051,1.1198,0.000639229,0.0141661,1742,540,8.01561,5.70644
525,484,8.01892,-5.37634,-0.000783423,0.000583586,0.000294235,0.000644227,-0.000844064,1.36754,0.000861843,0.0128308,1749,540,8.01889,5.37636
532,484,8.01599,-5.03699,-0.00153242,0.000884028,0.000276372,0.000915234,-0.00156362,1.45836,0.0014474,0.0145654,1756,540,8.01597,5.03696
539,484,7.97998,-4.67896,-0.00224388,0.00150141,0.000471662,0.00155989,-0.00230237,1.44743,0.00224357,0.0254968,1763,540,7.97998,4.67895
546,484,7.88025,-4.44025,-0.00288263,0.00255509,0.000955019,0.00271794,-0.00304548,1.4019,0.0033293,0.0281512,1770,540,7.88026,4.44024
553,484,7.86438,-3.8092,-0.00349497,0.00390651,0.00162137,0.00424611,-0.00383456,1.36433,0.00466739,0.0413526,1777,540,7.86436,3.8092
560,484,7.92114,-3.20367,0,0,0,0,0,0,0,-1,1784,540,7.92114,3.2037
567,484,7.78223,-1.38312,0,0,0,0,0,0,0,-1,1791,540,7.78224,1.38311
574,484,5.74463,1.50922,0,0,0,0,0,0,0,-1,1798,540,5.74463,-1.50924
581,484,10.34,2.9491,0,0,0,0,0,0,0,-1,1805,540,10.34,-2.94912
588,484,10.6669,2.88568,0,0,0,0,0,0,0,-1,1812,540,10.6669,-2.88567
595,484,10.7233,1.04767,0,0,0,0,0,0,0,-1,1819,540,10.7233,-1.04766
602,484,0,0,0,0,0,0,0,0,0,-1,1826,540,0,0
609,484,0,0,0,0,0,0,0,0,0,-1,1833,540,0,0
616,484,0,0,0,0,0,0,0,0,0,-1,1840,540,0,0
623,484,0,0,0,0,0,0,0,0,0,-1,1847,540,0,0
630,484,0,0,0,0,0,0,0,0,0,-1,1854,540,0,0
637,484,0,0,0,0,0,0,0,0,0,-1,1861,540,0,0
644,484,0,0,0,0,0,0,0,0,0,-1,1868,540,0,0
651,484,0,0,0,0,0,0,0,0,0,-1,1875,540,0,0
658,484,0,0,0,0,0,0,0,0,0,-1,1882,540,0,0
665,484,0,0,0,0,0,0,0,0,0,-1,1889,540,0,0
672,484,0,0,0,0,0,0,0,0,0,-1,1896,540,0,0
679,484,0,0,0,0,0,0,0,0,0,-1,1903,540,0,0
686,484,0,0,0,0,0,0,0,0,0,-1,1910,540,0,0
693,484,0,0,0,0,0,0,0,0,0,-1,1917,540,0,0
700,484,0,0,0,0,0,0,0,0,0,-1,1924,540,0,0
707,484,0,0,0,0,0,0,0,0,0,-1,1931,540,0,0
714,484,0,0,0,0,0,0,0,0,0,-1,1938,540,0,0
721,484,0,0,0,0,0,0,0,0,0,-1,1945,540,0,0
728,484,0,0,0,0,0,0,0,0,0,-1,1952,540,0,0
735,484,0,0,0,0,0,0,0,0,0,-1,1959,540,0,0
742,484,0,0,0,0,0,0,0,0,0,-1,1966,540,0,0
749,484,0,0,0,0,0,0,0,0,0,-1,1973,540,0,0
756,484,0,0,0,0,0,0,0,0,0,-1,1980,540,0,0
763,484,0,0,0,0,0,0,0,0,0,-1,1987,540,0,0
770,484,0,0,0,0,0,0,0,0,0,-1,1994,540,0,0
777,484,0,0,0,0,0,0,0,0,0,-1,2001,540,0,0
784,484,0,0,0,0,0,0,0,0,0,-1,2008,540,0,0
791,484,0,0,0,0,0,0,0,0,0,-1,2015,540,0,0
798,484,0,0,0,0,0,0,0,0,0,-1,2022,540,0,0
805,484,0,0,0,0,0,0,0,0,0,-1,2029,540,0,0
812,484,0,0,0,0,0,0,0,0,0,-1,2036,540,0,0
-700,477,0,0,0,0,0,0,0,0,0,-1,524,547,0,0
-693,477,0,0,0,0,0,0,0,0,0,-1,531,547,0,0
-686,477,0,0,0,0,0,0,0,0,0,-1,538,547,0,0
-679,477,0,0,0,0,0,0,0,0,0,-1,545,547,0,0
-672,477,0,0,0,0,0,0,0,0,0,-1,552,547,0,0
-665,477,0,0,0,0,0,0,0,0,0,-1,559,547,0,0
-658,477,0,0,0,0,0,0,0,0,0,-1,566,547,0,0
-651,477,0,0,0,0,0,0,0,0,0,-1,573,547,0,0
-644,477,0,0,0,0,0,0,0,0,0,-1,580,547,0,0
-637,477,0,0,0,0,0,0,0,0,0,-1,587,547,0,0
-630,477,0,0,0,0,0,0,0,0,0,-1,594,547,0,0
-623,477,0,0,0,0,0,0,0,0,0,-1,601,547,0,0
-616,477,0,0,0,0,0,0,0,0,0,-1,608,547,0,0
-609,477,0,0,0,0,0,0,0,0,0,-1,615,547,0,0
-602,477,0,0,0,0,0,0,0,0,0,-1,622,547,0,0
-595,477,0,0,0,0,0,0,0,0,0,-1,629,547,0,0
-588,477,0,0,0,0,0,0,0,0,0,-1,636,547,0,0
-581,477,0,0,0,0,0,0,0,0,0,-1,643,547,0,0
-574,477,0,0,0,0,0,0,0,0,0,-1,650,547,0,0
-567,477,0,0,0,0,0,0,0,0,0,-1,657,547,0,0
-560,477,0,0,0,0,0,0,0,0,0,-1,664,547,0,0
-553,477,0,0,0,0,0,0,0,0,0,-1,671,547,0,0
-546,477,0,0,0,0,0,0,0,0,0,-1,678,547,0,0
-539,477,0,0,0,0,0,0,0,0,0,-1,685,547,0,0
-532,477,0,0,0,0,0,0,0,0,0,-1,692,547,0,0
-525,477,0,0,0,0,0,0,0,0,0,-1,699,547,0,0
-518,477,0,0,0,0,0,0,0,0,0,-1,706,547,0,0
-511,477,0,0,0,0,0,0,0,0,0,-1,713,547,0,0
-504,477,0,0,0,0,0,0,0,0,0,-1,720,547,0,0
-497,477,0,0,0,0,0,0,0,0,0,-1,727,547,0,0
-490,477,0,0,0,0,0,0,0,0,0,-1,734,547,0,0
-483,477,-7.73151,-0.224182,0,0,0,0,0,0,0,-1,741,547,-7.73152,0.224176
-476,477,-6.25806,-0.310547,0,0,0,0,0,0,0,-1,748,547,-6.25804,0.310549
-469,477,-7.26617,0.525085,0,0,0,0,0,0,0,-1,755,547,-7.2662,-0.525111
-462,477,-6.65143,1.06042,0,0,0,0,0,0,0,-1,762,547,-6.65143,-1.06043
-455,477,-5.31757,0.429016,0,0,0,0,0,0,0,-1,769,547,-5.31756,-0.42902
-448,477,-4.0697,0.273376,0,0,0,0,0,0,0,-1,776,547,-4.06971,-0.273363
-441,477,-2.44067,-4.85883,0,0,0,0,0,0,0,-1,783,547,-2.44067,4.85884
-434,477,-2.14178,-5.2644,0.0122023,0.0213947,-0.0187062,0.036061,-0.00246404,-0.905864,0.0249027,0.0486843,790,547,-2.14178,5.26441
-427,477,-1.84155,-5.59235,0.00949695,0.0171073,-0.0148785,0.0286595,-0.00205524,-0.91059,0.019827,0.0285164,797,547,-1.84156,5.59232
-420,477,-1.90417,-5.79858,0.00729147,0.013368,-0.0115609,0.0222832,-0.00162369,-0.913896,0.0154252,0.0238036,804,547,-1.90417,5.79859
-413,477,-1.88324,-6.22614,0.00564391,0.010309,-0.00896581,0.0172407,-0.0012878,-0.912657,0.0119462,0.0164189,811,547,-1.88325,6.22611
-406,477,-1.89703,-6.57928,0.00423569,0.00776362,-0.00674051,0.0129672,-0.000967842,-0.913376,0.00898478,0.0105658,818,547,-1.89702,6.57927
-399,477,-1.87738,-6.8941,0.00308421,0.00557469,-0.00485593,0.00934251,-0.000683601,-0.910912,0.00646826,0.017857,825,547,-1.87737,6.8941
-392,477,-1.90204,-7.20319,0.00219147,0.00346666,-0.00321631,0.00610796,-0.000449829,-0.883248,0.0042299,0.0176627,832,547,-1.90206,7.20321
-385,477,-1.90802,-7.495,0.00162761,0.0017784,-0.00195443,0.00365889,-0.000252883,-0.804676,0.00252777,0.01492,839,547,-1.90801,7.49497
-378,477,-1.91858,-7.81659,0.00131204,0.0002047,-0.000859018,0.00178036,-0.000263619,-0.499135,0.00128383,0.0132714,846,547,-1.91857,7.81657
-371,477,-1.92108,-8.08435,0.00123662,-0.00150272,1.12211e-05,0.00123666,-0.00150276,0.00409618,0.0015841,0.0135326,853,547,-1.92106,8.08438
-364,477,-1.92938,-8.36115,0.00146817,-0.00264153,0.000543265,0.00153877,-0.00271213,0.129234,0.00248523,0.0134487,860,547,-1.92938,8.36115
-357,477,-1.94379,-8.66199,0.00198915,-0.00375025,0.000878472,0.0021206,-0.0038817,0.148531,0.0035148,0.0105122,867,547,-1.9438,8.66198
-350,477,-1.95166,-8.94781,0.00276356,-0.00465987,0.000954559,0.00288434,-0.00478064,0.12586,0.0044703,0.00994322,874,547,-1.95165,8.94779
-343,477,-1.89783,-9.26514,0.00372562,-0.00552777,0.000877176,0.00380804,-0.00561019,0.0936832,0.0054707,0.0190162,881,547,-1.89782,9.26514
-336,477,-1.8371,-9.57996,0.00480569,-0.00623941,0.000691941,0.00484887,-0.00628259,0.0623221,0.0064445,0.0316071,888,547,-1.83711,9.57996
-329,477,-1.72491,-9.88403,0,0,0,0,0,0,0,-1,895,547,-1.72492,9.88405
-322,477,-1.75342,-10.4307,0,0,0,0,0,0,0,-1,902,547,-1.75339,10.4308
-315,477,-1.67358,-9.15253,0,0,0,0,0,0,0,-1,909,547,-1.67356,9.15253
-308,477,-1.30127,-6.55188,0,0,0,0,0,0,0,-1,916,547,-1.30128,6.55185
-301,477,-1.21185,-6.28351,0,0,0,0,0,0,0,-1,923,547,-1.21184,6.28352
-294,477,-0.352905,3.27142,0,0,0,0,0,0,0,-1,930,547,-0.35292,-3.27144
-287,477,3.54364,2.15399,0,0,0,0,0,0,0,-1,937,547,3.54362,-2.15396
-280,477,1.97308,-0.954163,0,0,0,0,0,0,0,-1,944,547,1.9731,0.954178
-273,477,2.11621,-3.76709,0,0,0,0,0,0,0,-1,951,547,2.11619,3.76706
-266,477,2.04669,-3.42389,0,0,0,0,0,0,0,-1,958,547,2.04671,3.42391
-259,477,-1.33478,-3.41205,0,0,0,0,0,0,0,-1,965,547,-1.3348,3.41206
-252,477,0.597168,-5.32922,0,0,0,0,0,0,0,-1,972,547,0.597144,5.32924
-245,477,8.2309,-8.48492,0,0,0,0,0,0,0,-1,979,547,8.23091,8.48494
-238,477,6.60938,-5.64063,0,0,0,0,0,0,0,-1,986,547,6.60938,5.64063
-231,477,4.71716,-2.52484,0,0,0,0,0,0,0,-1,993,547,4.71716,2.52483
-224,477,0,0,0,0,0,0,0,0,0,-1,1000,547,0,0
-217,477,0,0,0,0,0,0,0,0,0,-1,1007,547,0,0
-210,477,0,0,0,0,0,0,0,0,0,-1,1014,547,0,0
-203,477,0,0,0,0,0,0,0,0,0,-1,1021,547,0,0
-196,477,0,0,0,0,0,0,0,0,0,-1,1028,547,0,0
-189,477,0,0,0,0,0,0,0,0,0,-1,1035,547,0,0
-182,477,0,0,0,0,0,0,0,0,0,-1,1042,547,0,0
-175,477,0,0,0,0,0,0,0,0,0,-1,1049,547,0,0
-168,477,0,0,0,0,0,0,0,0,0,-1,1056,547,0,0
-161,477,0,0,0,0,0,0,0,0,0,-1,1063,547,0,0
-154,477,0,0,0,0,0,0,0,0,0,-1,1070,547,0,0
-147,477,0,0,0,0,0,0,0,0,0,-1,1077,547,0,0
-140,477,0,0,0,0,0,0,0,0,0,-1,1084,547,0,0
-133,477,0,0,0,0,0,0,0,0,0,-1,1091,547,0,0
-126,477,0,0,0,0,0,0,0,0,0,-1,1098,547,0,0
-119,477,0,0,0,0,0,0,0,0,0,-1,1105,547,0,0
-112,477,0,0,0,0,0,0,0,0,0,-1,1112,547,0,0
-105,477,0,0,0,0,0,0,0,0,0,-1,1119,547,0,0
-98,477,0,0,0,0,0,0,0,0,0,-1,1126,547,0,0
-91,477,0,0,0,0,0,0,0,0,0,-1,1133,547,0,0
-84,477,0,0,0,0,0,0,0,0,0,-1,1140,547,0,0
-77,477,0,0,0,0,0,0,0,0,0,-1,1147,547,0,0
-70,477,0,0,0,0,0,0,0,0,0,-1,1154,547,0,0
-63,477,0,0,0,0,0,0,0,0,0,-1,1161,547,0,0
-56,477,0,0,0,0,0,0,0,0,0,-1,1168,547,0,0
-49,477,0,0,0,0,0,0,0,0,0,-1,1175,547,0,0
-42,477,0,0,0,0,0,0,0,0,0,-1,1182,547,0,0
-35,477,0,0,0,0,0,0,0,0,0,-1,1189,547,0,0
-28,477,0,0,0,0,0,0,0,0,0,-1,1196,547,0,0
-21,477,0,0,0,0,0,0,0,0,0,-1,1203,547,0,0
-14,477,0,0,0,0,0,0,0,0,0,-1,1210,547,0,0
-7,477,0,0,0,0,0,0,0,0,0,-1,1217,547,0,0
0,477,0,0,0,0,0,0,0,0,0,-1,1224,547,0,0
7,477,0,0,0,0,0,0,0,0,0,-1,1231,547,0,0
14,477,0,0,0,0,0,0,0,0,0,-1,1238,547,0,0
21,477,0,0,0,0,0,0,0,0,0,-1,1245,547,0,0
28,477,0,0,0,0,0,0,0,0,0,-1,1252,547,0,0
35,477,0,0,0,0,0,0,0,0,0,-1,1259,547,0,0
42,477,0,0,0,0,0,0,0,0,0,-1,1266,547,0,0
49,477,0,0,0,0,0,0,0,0,0,-1,1273,547,0,0
56,477,0,0,0,0,0,0,0,0,0,-1,1280,547,0,0
63,477,0,0,0,0,0,0,0,0,0,-1,1287,547,0,0
70,477,0,0,0,0,0,0,0,0,0,-1,1294,547,0,0
77,477,0,0,0,0,0,0,0,0,0,-1,1301,547,0,0
84,477,0,0,0,0,0,0,0,0,0,-1,1308,547,0,0
91,477,0,0,0,0,0,0,0,0,0,-1,1315,547,0,0
98,477,0,0,0,0,0,0,0,0,0,-1,1322,547,0,0
105,477,0,0,0,0,0,0,0,0,0,-1,1329,547,0,0
112,477,0,0,0,0,0,0,0,0,0,-1,1336,547,0,0
119,477,0,0,0,0,0,0,0,0,0,-1,1343,547,0,0
126,477,0,0,0,0,0,0,0,0,0,-1,1350,547,0,0
133,477,0,0,0,0,0,0,0,0,0,-1,1357,547,0,0
140,477,0,0,0,0,0,0,0,0,0,-1,1364,547,0,0
147,477,0,0,0,0,0,0,0,0,0,-1,1371,547,0,0
154,477,0,0,0,0,0,0,0,0,0,-1,1378,547,0,0
161,477,0,0,0,0,0,0,0,0,0,-1,1385,547,0,0
168,477,0,0,0,0,0,0,0,0,0,-1,1392,547,0,0
175,477,0,0,0,0,0,0,0,0,0,-1,1399,547,0,0
182,477,0,0,0,0,0,0,0,0,0,-1,1406,547,0,0
189,477,0,0,0,0,0,0,0,0,0,-1,1413,547,0,0
196,477,0,0,0,0,0,0,0,0,0,-1,1420,547,0,0
203,477,0,0,0,0,0,0,0,0,0,-1,1427,547,0,0
210,477,0,0,0,0,0,0,0,0,0,-1,1434,547,0,0
217,477,0,0,0,0,0,0,0,0,0,-1,1441,547,0,0
224,477,0,0,0,0,0,0,0,0,0,-1,1448,547,0,0
231,477,0,0,0,0,0,0,0,0,0,-1,1455,547,0,0
238,477,0,0,0,0,0,0,0,0,0,-1,1462,547,0,0
245,477,0,0,0,0,0,0,0,0,0,-1,1469,547,0,0
252,477,0,0,0,0,0,0,0,0,0,-1,1476,547,0,0
259,477,0,0,0,0,0,0,0,0,0,-1,1483,547,0,0
266,477,0,0,0,0,0,0,0,0,0,-1,1490,547,0,0
273,477,0,0,0,0,0,0,0,0,0,-1,1497,547,0,0
280,477,0,0,0,0,0,0,0,0,0,-1,1504,547,0,0
287,477,0,0,0,0,0,0,0,0,0,-1,1511,547,0,0
294,477,0,0,0,0,0,0,0,0,0,-1,1518,547,0,0
301,477,0,0,0,0,0,0,0,0,0,-1,1525,547,0,0
308,477,0,0,0,0,0,0,0,0,0,-1,1532,547,0,0
315,477,0,0,0,0,0,0,0,0,0,-1,1539,547,0,0
322,477,0,0,0,0,0,0,0,0,0,-1,1546,547,0,0
329,477,0,0,0,0,0,0,0,0,0,-1,1553,547,0,0
336,477,0,0,0,0,0,0,0,0,0,-1,1560,547,0,0
343,477,0,0,0,0,0,0,0,0,0,-1,1567,547,0,0
350,477,1.7699,-3.32275,0,0,0,0,0,0,0,-1,1574,547,1.7699,3.32272
357,477,3.073,-4.83313,0,0,0,0,0,0,0,-1,1581,547,3.07303,4.83316
364,477,4.30127,-4.22864,0,0,0,0,0,0,0,-1,1588,547,4.30125,4.22865
371,477,4.57703,0.283264,0,0,0,0,0,0,0,-1,1595,547,4.57706,-0.283262
378,477,8.57947,1.05969,0,0,0,0,0,0,0,-1,1602,547,8.5795,-1.05972
385,477,12.3726,2.02356,0,0,0,0,0,0,0,-1,1609,547,12.3725,-2.02355
392,477,16.4678,2.76843,0,0,0,0,0,0,0,-1,1616,547,16.4678,-2.76845
399,477,8.00037,-2.29523,0,0,0,0,0,0,0,-1,1623,547,8.00031,2.2952
406,477,4.82495,2.7475,0,0,0,0,0,0,0,-1,1630,547,4.825,-2.74752
413,477,4.88171,-0.336426,0,0,0,0,0,0,0,-1,1637,547,4.88169,0.336398
420,477,3.34875,0.102722,0,0,0,0,0,0,0,-1,1644,547,3.34871,-0.1027
427,477,1.66772,-0.373108,0,0,0,0,0,0,0,-1,1651,547,1.66768,0.373104
434,477,3.76978,-2.30798,0,0,0,0,0,0,0,-1,1658,547,3.76974,2.30801
441,477,4.05444,-2.80402,0,0,0,0,0,0,0,-1,1665,547,4.05444,2.804
448,477,8.45386,-8.61896,0,0,0,0,0,0,0,-1,1672,547,8.45386,8.61896
455,477,8.3446,-8.52734,0,0,0,0,0,0,0,-1,1679,547,8.34459,8.52734
462,477,8.42615,-8.27979,-0.00114974,0.0011867,-0.00185887,0.00221396,-0.002177,-1.06594,0.00253516,0.0400164,1686,547,8.42615,8.2798
469,477,8.36792,-7.88837,-0.000249647,0.0017596,-0.000786194,0.00203066,-0.000520707,-1.23878,0.00155665,0.0240203,1693,547,8.36786,7.88838
476,477,8.35413,-7.59717,0.000527988,0.00205879,2.72733e-05,0.00205928,0.000527502,1.55299,0.00123515,0.0177009,1700,547,8.3541,7.59718
483,477,8.36194,-7.28943,0.00120729,0.00223805,0.000704782,0.00259578,0.000849548,1.1011,0.00152819,0.0117495,1707,547,8.36197,7.28942
490,477,8.34814,-6.97443,0.001616,0.00235783,0.00111921,0.00316599,0.000807842,0.945408,0.00189953,0.0108907,1714,547,8.34816,6.97443
497,477,8.33875,-6.64813,0.00156888,0.00194625,0.00113803,0.00291113,0.000604003,0.86755,0.00177403,0.0122739,1721,547,8.33869,6.64816
504,477,8.35083,-6.32208,0.00130455,0.0016276,0.001079,0.0025571,0.000375051,0.859695,0.00159449,0.0179285,1728,547,8.35077,6.32206
511,477,8.37549,-6.0401,0.000867045,0.00132175,0.000915733,0.00203793,0.000150863,0.907074,0.00131123,0.0214919,1735,547,8.37547,6.04012
518,477,8.36743,-5.70642,0.000292381,0.00104351,0.00073246,0.00149108,-0.000155186,1.02229,0.00104961,0.018785,1742,547,8.36744,5.70644
525,477,8.33838,-5.3551,-0.000380888,0.000926399,0.000545275,0.00112397,-0.000578463,1.22317,0.000999581,0.0168976,1749,547,8.33839,5.35511
532,477,8.3031,-5.03589,-0.00110182,0.00104295,0.000443607,0.00113108,-0.00118995,1.37468,0.00134019,0.0193337,1756,547,8.30312,5.03588
539,477,8.30005,-4.65875,-0.00177455,0.00135061,0.000493187,0.0014266,-0.00185053,1.41793,0.00189732,0.0168225,1763,547,8.30007,4.65873
546,477,8.28821,-4.37994,-0.00233344,0.00206566,0.000838424,0.00222004,-0.00248782,1.38871,0.00271955,0.0221754,1770,547,8.28819,4.37994
553,477,8.27246,-4.01514,-0.00287079,0.00305846,0.00133002,0.00334313,-0.00315547,1.35994,0.00375249,0.0263929,1777,547,8.2725,4.01513
560,477,8.27185,-3.50317,-0.00324225,0.00424577,0.00204424,0.0047675,-0.00376398,1.32091,0.004937,0.0464055,1784,547,8.27188,3.50315
567,477,8.34351,-2.9903,0,0,0,0,0,0,0,-1,1791,547,8.34355,2.99029
574,477,6.82593,-0.916992,0,0,0,0,0,0,0,-1,1798,547,6.82598,0.916977
581,477,9.29321,-0.557007,0,0,0,0,0,0,0,-1,1805,547,9.29324,0.55703
588,477,9.75195,0.422729,0,0,0,0,0,0,0,-1,1812,547,9.75198,-0.42273
595,477,9.89172,1.21326,0,0,0,0,0,0,0,-1,1819,547,9.89174,-1.21328
602,477,6.5271,-0.964417,0,0,0,0,0,0,0,-1,1826,547,6.52706,0.964427
609,477,0,0,0,0,0,0,0,0,0,-1,1833,547,0,0
616,477,0,0,0,0,0,0,0,0,0,-1,1840,547,0,0
623,477,0,0,0,0,0,0,0,0,0,-1,1847,547,0,0
630,477,0,0,0,0,0,0,0,0,0,-1,1854,547,0,0
637,477,0,0,0,0,0,0,0,0,0,-1,1861,547,0,0
644,477,0,0,0,0,0,0,0,0,0,-1,1868,547,0,0
651,477,0,0,0,0,0,0,0,0,0,-1,1875,547,0,0
658,477,0,0,0,0,0,0,0,0,0,-1,1882,547,0,0
665,477,0,0,0,0,0,0,0,0,0,-1,1889,547,0,0
672,477,0,0,0,0,0,0,0,0,0,-1,1896,547,0,0
679,477,0,0,0,0,0,0,0,0,0,-1,1903,547,0,0
686,477,0,0,0,0,0,0,0,0,0,-1,1910,547,0,0
693,477,0,0,0,0,0,0,0,0,0,-1,1917,547,0,0
700,477,0,0,0,0,0,0,0,0,0,-1,1924,547,0,0
707,477,0,0,0,0,0,0,0,0,0,-1,1931,547,0,0
714,477,0,0,0,0,0,0,0,0,0,-1,1938,547,0,0
721,477,0,0,0,0,0,0,0,0,0,-1,1945,547,0,0
728,477,0,0,0,0,0,0,0,0,0,-1,1952,547,0,0
735,477,0,0,0,0,0,0,0,0,0,-1,1959,547,0,0
742,477,0,0,0,0,0,0,0,0,0,-1,1966,547,0,0
749,477,0,0,0,0,0,0,0,0,0,-1,1973,547,0,0
756,477,0,0,0,0,0,0,0,0,0,-1,1980,547,0,0
763,477,0,0,0,0,0,0,0,0,0,-1,1987,547,0,0
770,477,0,0,0,0,0,0,0,0,0,-1,1994,547,0,0
777,477,0,0,0,0,0,0,0,0,0,-1,2001,547,0,0
784,477,0,0,0,0,0,0,0,0,0,-1,2008,547,0,0
791,477,0,0,0,0,0,0,0,0,0,-1,2015,547,0,0
798,477,0,0,0,0,0,0,0,0,0,-1,2022,547,0,0
805,477,0,0,0,0,0,0,0,0,0,-1,2029,547,0,0
812,477,0,0,0,0,0,0,0,0,0,-1,2036,547,0,0
-700,470,0,0,0,0,0,0,0,0,0,-1,524,554,0,0
-693,470,0,0,0,0,0,0,0,0,0,-1,531,554,0,0
-686,470,0,0,0,0,0,0,0,0,0,-1,538,554,0,0
-679,470,0,0,0,0,0,0,0,0,0,-1,545,554,0,0
-672,470,0,0,0,0,0,0,0,0,0,-1,552,554,0,0
-665,470,0,0,0,0,0,0,0,0,0,-1,559,554,0,0
-658,470,0,0,0,0,0,0,0,0,0,-1,566,554,0,0
-651,470,0,0,0,0,0,0,0,0,0,-1,573,554,0,0
-644,470,0,0,0,0,0,0,0,0,0,-1,580,554,0,0
-637,470,0,0,0,0,0,0,0,0,0,-1,587,554,0,0
-630,470,0,0,0,0,0,0,0,0,0,-1,594,554,0,0
-623,470,0,0,0,0,0,0,0,0,0,-1,601,554,0,0
-616,470,0,0,0,0,0,0,0,0,0,-1,608,554,0,0
-609,470,0,0,0,0,0,0,0,0,0,-1,615,554,0,0
-602,470,0,0,0,0,0,0,0,0,0,-1,622,554,0,0
-595,470,0,0,0,0,0,0,0,0,0,-1,629,554,0,0
-588,470,0,0,0,0,0,0,0,0,0,-1,636,554,0,0
-581,470,0,0,0,0,0,0,0,0,0,-1,643,554,0,0
-574,470,0,0,0,0,0,0,0,0,0,-1,650,554,0,0
-567,470,0,0,0,0,0,0,0,0,0,-1,657,554,0,0
-560,470,0,0,0,0,0,0,0,0,0,-1,664,554,0,0
-553,470,0,0,0,0,0,0,0,0,0,-1,671,554,0,0
-546,470,0,0,0,0,0,0,0,0,0,-1,678,554,0,0
-539,470,0,0,0,0,0,0,0,0,0,-1,685,554,0,0
-532,470,0,0,0,0,0,0,0,0,0,-1,692,554,0,0
-525,470,0,0,0,0,0,0,0,0,0,-1,699,554,0,0
-518,470,0,0,0,0,0,0,0,0,0,-1,706,554,0,0
-511,470,0,0,0,0,0,0,0,0,0,-1,713,554,0,0
-504,470,0,0,0,0,0,0,0,0,0,-1,720,554,0,0
-497,470,0,0,0,0,0,0,0,0,0,-1,727,554,0,0
-490,470,-9.13263,-1.03125,0,0,0,0,0,0,0,-1,734,554,-9.1326,1.03127
-483,470,-7.68677,-1.03955,0,0,0,0,0,0,0,-1,741,554,-7.68678,1.03958
-476,470,-6.17969,-1.03394,0,0,0,0,0,0,0,-1,748,554,-6.17971,1.03395
-469,470,-6.23016,-0.651855,0,0,0,0,0,0,0,-1,755,554,-6.23014,0.651829
-462,470,-4.87915,-1.03705,0,0,0,0,0,0,0,-1,762,554,-4.87914,1.03702
-455,470,-3.55457,-1.53186,0,0,0,0,0,0,0,-1,769,554,-3.55456,1.53187
-448,470,-2.53949,-3.91083,0,0,0,0,0,0,0,-1,776,554,-2.53947,3.91085
-441,470,-1.97357,-4.96161,0,0,0,0,0,0,0,-1,783,554,-1.9736,4.96161
-434,470,-2.02539,-5.3573,0.00938436,0.0164671,-0.0145246,0.0278758,-0.00202438,-0.904974,0.0192941,0.0320611,790,554,-2.02539,5.35732
-427,470,-2.18286,-5.63586,0.00720191,0.0132729,-0.0114921,0.0221236,-0.0016488,-0.914518,0.0153283,0.0154125,797,554,-2.18287,5.63589
-420,470,-2.17609,-5.95172,0.00539868,0.0104025,-0.0088228,0.0170712,-0.0012701,-0.923557,0.0118269,0.0131674,804,554,-2.1761,5.95174
-413,470,-2.1922,-6.28198,0.00407905,0.00798995,-0.00675286,0.0130648,-0.00099579,-0.92633,0.00906005,0.0123406,811,554,-2.1922,6.28196
-406,470,-2.21198,-6.57587,0.00301339,0.00589972,-0.00493263,0.00959597,-0.00068286,-0.927714,0.00663665,0.00977067,818,554,-2.21198,6.57585
-399,470,-2.20331,-6.89258,0.00212061,0.00399351,-0.0033367,0.00652268,-0.000408557,-0.922204,0.00449084,0.0133268,825,554,-2.20329,6.89259
-392,470,-2.18848,-7.20239,0.00142423,0.00200098,-0.00189548,0.00362989,-0.000204685,-0.860888,0.00249096,0.0144339,832,554,-2.18846,7.20239
-385,470,-2.21436,-7.49805,0.000969282,0.000383063,-0.000751965,0.00148324,-0.000130898,-0.599561,0.00103522,0.0116875,839,554,-2.21436,7.49802
-378,470,-2.21094,-7.80273,0.000753022,-0.0012104,0.000268005,0.000788947,-0.00124633,0.133252,0.00118492,0.0161083,846,554,-2.21093,7.80274
-371,470,-2.21112,-8.06567,0.000818453,-0.00285635,0.0010373,0.00109104,-0.00312893,0.256972,0.00252933,0.0139386,853,554,-2.2111,8.06567
-364,470,-2.22803,-8.34015,0.00116172,-0.00420739,0.00157137,0.0015878,-0.00463347,0.264784,0.00373257,0.013805,860,554,-2.22803,8.34017
-357,470,-2.24872,-8.64807,0.00182938,-0.00560421,0.00191803,0.0022951,-0.00606993,0.2382,0.00499077,0.0137002,867,554,-2.2487,8.64809
-350,470,-2.22296,-8.96918,0.00279413,-0.00683511,0.00202332,0.003202,-0.00724297,0.198918,0.00617901,0.0105745,874,554,-2.22298,8.96915
-343,470,-2.12097,-9.26093,0.00402955,-0.0081283,0.00194468,0.00433303,-0.00843179,0.154809,0.00749534,0.0250466,881,554,-2.12095,9.26095
-336,470,-1.98029,-9.62122,0,0,0,0,0,0,0,-1,888,554,-1.98026,9.62123
-329,470,-2.13483,-9.28906,0,0,0,0,0,0,0,-1,895,554,-2.13481,9.28906
-322,470,-1.94629,-9.47327,0,0,0,0,0,0,0,-1,902,554,-1.94628,9.47329
-315,470,-1.04797,-8.29529,0,0,0,0,0,0,0,-1,909,554,-1.04797,8.29526
-308,470,-1.39368,-6.68152,0,0,0,0,0,0,0,-1,916,554,-1.39369,6.68149
-301,470,-0.0340576,3.34888,0,0,0,0,0,0,0,-1,923,554,-0.0340496,-3.3489
-294,470,-1.18378,3.22266,0,0,0,0,0,0,0,-1,930,554,-1.18376,-3.22268
-287,470,-2.15454,3.2204,0,0,0,0,0,0,0,-1,937,554,-2.15452,-3.22037
-280,470,-3.00537,3.099,0,0,0,0,0,0,0,-1,944,554,-3.00536,-3.09898
-273,470,-12.3932,3.65009,0,0,0,0,0,0,0,-1,951,554,-12.3932,-3.65011
-266,470,-11.5706,1.16028,0,0,0,0,0,0,0,-1,958,554,-11.5706,-1.16031
-259,470,-7.50415,-2.77167,0,0,0,0,0,0,0,-1,965,554,-7.50413,2.7717
-252,470,-0.144348,-5.13593,0,0,0,0,0,0,0,-1,972,554,-0.144336,5.13594
-245,470,1.33221,-6.81122,0,0,0,0,0,0,0,-1,979,554,1.33223,6.8112
-238,470,0,0,0,0,0,0,0,0,0,-1,986,554,0,0
-231,470,0,0,0,0,0,0,0,0,0,-1,993,554,0,0
-224,470,0,0,0,0,0,0,0,0,0,-1,1000,554,0,0
-217,470,0,0,0,0,0,0,0,0,0,-1,1007,554,0,0
-210,470,0,0,0,0,0,0,0,0,0,-1,1014,554,0,0
-203,470,0,0,0,0,0,0,0,0,0,-1,1021,554,0,0
-196,470,0,0,0,0,0,0,0,0,0,-1,1028,554,0,0
-189,470,0,0,0,0,0,0,0,0,0,-1,1035,554,0,0
-182,470,0,0,0,0,0,0,0,0,0,-1,1042,554,0,0
-175,470,0,0,0,0,0,0,0,0,0,-1,1049,554,0,0
-168,470,0,0,0,0,0,0,0,0,0,-1,1056,554,0,0
-161,470,0,0,0,0,0,0,0,0,0,-1,1063,554,0,0
-154,470,0,0,0,0,0,0,0,0,0,-1,1070,554,0,0
-147,470,0,0,0,0,0,0,0,0,0,-1,1077,554,0,0
-140,470,0,0,0,0,0,0,0,0,0,-1,1084,554,0,0
-133,470,0,0,0,0,0,0,0,0,0,-1,1091,554,0,0
-126,470,0,0,0,0,0,0,0,0,0,-1,1098,554,0,0
-119,470,0,0,0,0,0,0,0,0,0,-1,1105,554,0,0
-112,470,0,0,0,0,0,0,0,0,0,-1,1112,554,0,0
-105,470,0,0,0,0,0,0,0,0,0,-1,1119,554,0,0
-98,470,0,0,0,0,0,0,0,0,0,-1,1126,554,0,0
-91,470,0,0,0,0,0,0,0,0,0,-1,1133,554,0,0
-84,470,0,0,0,0,0,0,0,0,0,-1,1140,554,0,0
-77,470,0,0,0,0,0,0,0,0,0,-1,1147,554,0,0
-70,470,0,0,0,0,0,0,0,0,0,-1,1154,554,0,0
-63,470,0,0,0,0,0,0,0,0,0,-1,1161,554,0,0
-56,470,0,0,0,0,0,0,0,0,0,-1,1168,554,0,0
-49,470,0,0,0,0,0,0,0,0,0,-1,1175,554,0,0
-42,470,0,0,0,0,0,0,0,0,0,-1,1182,554,0,0
-35,470,0,0,0,0,0,0,0,0,0,-1,1189,554,0,0
-28,470,0,0,0,0,0,0,0,0,0,-1,1196,554,0,0
-21,470,0,0,0,0,0,0,0,0,0,-1,1203,554,0,0
-14,470,0,0,0,0,0,0,0,0,0,-1,1210,554,0,0
-7,470,0,0,0,0,0,0,0,0,0,-1,1217,554,0,0
0,470,0,0,0,0,0,0,0,0,0,-1,1224,554,0,0
7,470,0,0,0,0,0,0,0,0,0,-1,1231,554,0,0
14,470,0,0,0,0,0,0,0,0,0,-1,1238,554,0,0
21,470,0,0,0,0,0,0,0,0,0,-1,1245,554,0,0
28,470,0,0,0,0,0,0,0,0,0,-1,1252,554,0,0
35,470,0,0,0,0,0,0,0,0,0,-1,1259,554,0,0
42,470,0,0,0,0,0,0,0,0,0,-1,1266,554,0,0
49,470,0,0,0,0,0,0,0,0,0,-1,1273,554,0,0
56,470,0,0,0,0,0,0,0,0,0,-1,1280,554,0,0
63,470,0,0,0,0,0,0,0,0,0,-1,1287,554,0,0
70,470,0,0,0,0,0,0,0,0,0,-1,1294,554,0,0
77,470,0,0,0,0,0,0,0,0,0,-1,1301,554,0,0
84,470,0,0,0,0,0,0,0,0,0,-1,1308,554,0,0
91,470,0,0,0,0,0,0,0,0,0,-1,1315,554,0,0
98,470,0,0,0,0,0,0,0,0,0,-1,1322,554,0,0
105,470,0,0,0,0,0,0,0,0,0,-1,1329,554,0,0
112,470,0,0,0,0,0,0,0,0,0,-1,1336,554,0,0
119,470,0,0,0,0,0,0,0,0,0,-1,1343,554,0,0
126,470,0,0,0,0,0,0,0,0,0,-1,1350,554,0,0
133,470,0,0,0,0,0,0,0,0,0,-1,1357,554,0,0
140,470,0,0,0,0,0,0,0,0,0,-1,1364,554,0,0
147,470,0,0,0,0,0,0,0,0,0,-1,1371,554,0,0
154,470,0,0,0,0,0,0,0,0,0,-1,1378,554,0,0
161,470,0,0,0,0,0,0,0,0,0,-1,1385,554,0,0
168,470,0,0,0,0,0,0,0,0,0,-1,1392,554,0,0
175,470,0,0,0,0,0,0,0,0,0,-1,1399,554,0,0
182,470,0,0,0,0,0,0,0,0,0,-1,1406,554,0,0
189,470,0,0,0,0,0,0,0,0,0,-1,1413,554,0,0
196,470,0,0,0,0,0,0,0,0,0,-1,1420,554,0,0
203,470,0,0,0,0,0,0,0,0,0,-1,1427,554,0,0
210,470,0,0,0,0,0,0,0,0,0,-1,1434,554,0,0
217,470,0,0,0,0,0,0,0,0,0,-1,1441,554,0,0
224,470,0,0,0,0,0,0,0,0,0,-1,1448,554,0,0
231,470,0,0,0,0,0,0,0,0,0,-1,1455,554,0,0
238,470,0,0,0,0,0,0,0,0,0,-1,1462,554,0,0
245,470,0,0,0,0,0,0,0,0,0,-1,1469,554,0,0
252,470,0,0,0,0,0,0,0,0,0,-1,1476,554,0,0
259,470,0,0,0,0,0,0,0,0,0,-1,1483,554,0,0
266,470,0,0,0,0,0,0,0,0,0,-1,1490,554,0,0
273,470,0,0,0,0,0,0,0,0,0,-1,1497,554,0,0
280,470,0,0,0,0,0,0,0,0,0,-1,1504,554,0,0
287,470,0,0,0,0,0,0,0,0,0,-1,1511,554,0,0
294,470,0,0,0,0,0,0,0,0,0,-1,1518,554,0,0
301,470,0,0,0,0,0,0,0,0,0,-1,1525,554,0,0
308,470,0,0,0,0,0,0,0,0,0,-1,1532,554,0,0
315,470,0,0,0,0,0,0,0,0,0,-1,1539,554,0,0
322,470,0,0,0,0,0,0,0,0,0,-1,1546,554,0,0
329,470,0,0,0,0,0,0,0,0,0,-1,1553,554,0,0
336,470,0,0,0,0,0,0,0,0,0,-1,1560,554,0,0
343,470,0,0,0,0,0,0,0,0,0,-1,1567,554,0,0
350,470,0,0,0,0,0,0,0,0,0,-1,1574,554,0,0
357,470,0,0,0,0,0,0,0,0,0,-1,1581,554,0,0
364,470,1.33423,0.293335,0,0,0,0,0,0,0,-1,1588,554,1.33422,-0.293348
371,470,2.22498,-0.0305176,0,0,0,0,0,0,0,-1,1595,554,2.22494,0.0305046
378,470,6.27051,0.710083,0,0,0,0,0,0,0,-1,1602,554,6.27054,-0.710093
385,470,10.3657,1.47296,0,0,0,0,0,0,0,-1,1609,554,10.3657,-1.47299
392,470,15.3881,3.01935,0,0,0,0,0,0,0,-1,1616,554,15.388,-3.01937
399,470,18.4479,2.93793,0,0,0,0,0,0,0,-1,1623,554,18.4479,-2.93792
406,470,15.1896,1.36676,0,0,0,0,0,0,0,-1,1630,554,15.1896,-1.36679
413,470,6.55383,1.99207,0,0,0,0,0,0,0,-1,1637,554,6.5538,-1.99208
420,470,4.47095,0.845703,0,0,0,0,0,0,0,-1,1644,554,4.47098,-0.845718
427,470,3.51038,1.19684,0,0,0,0,0,0,0,-1,1651,554,3.51039,-1.19684
434,470,3.31775,-1.37427,0,0,0,0,0,0,0,-1,1658,554,3.31781,1.37426
441,470,2.55457,-2.05902,0,0,0,0,0,0,0,-1,1665,554,2.55461,2.05904
448,470,3.27258,-2.64032,0,0,0,0,0,0,0,-1,1672,554,3.27257,2.64029
455,470,9.25012,-8.28564,0,0,0,0,0,0,0,-1,1679,554,9.25016,8.28566
462,470,8.85413,-8.33533,0,0,0,0,0,0,0,-1,1686,554,8.85412,8.33535
469,470,8.56445,-8.03259,0,0,0,0,0,0,0,-1,1693,554,8.56449,8.03259
476,470,8.6189,-7.63123,0.00105409,0.00305172,0.000640763,0.00323958,0.000866224,1.2856,0.00193667,0.0346565,1700,554,8.61884,7.63121
483,470,8.68982,-7.30225,0.0019081,0.00319812,0.00139349,0.00408865,0.00101758,1.00215,0.00245782,0.0149668,1707,554,8.68978,7.30224
490,470,8.66394,-6.98199,0.00236693,0.0033526,0.00178108,0.00470778,0.00101175,0.920374,0.00286152,0.0116024,1714,554,8.66388,6.98202
497,470,8.66052,-6.6601,0.00228786,0.00279751,0.00169606,0.00425778,0.000827587,0.859964,0.00260682,0.0115518,1721,554,8.66053,6.66012
504,470,8.68005,-6.33337,0.00195436,0.00230896,0.00152664,0.00366856,0.000594757,0.843208,0.00227354,0.0190708,1728,554,8.68005,6.33336
511,470,8.70569,-6.04706,0.00144871,0.00183231,0.0012639,0.00291887,0.000362145,0.860698,0.00183714,0.0261894,1735,554,8.70571,6.04704
518,470,8.72302,-5.70038,0.000834389,0.00141357,0.00100068,0.00216572,8.22388e-05,0.926248,0.0014172,0.0248166,1742,554,8.72306,5.70041
525,470,8.66077,-5.32758,0.000133091,0.00116761,0.000743989,0.00155649,-0.000255781,1.08916,0.00113259,0.0155908,1749,554,8.66082,5.32755
532,470,8.63232,-4.98962,-0.0006028,0.00112059,0.000566189,0.00128996,-0.000772167,1.28013,0.00120301,0.0139083,1756,554,8.63236,4.98962
539,470,8.64001,-4.68488,-0.00128052,0.00118294,0.000504735,0.00128234,-0.00137992,1.37634,0.0015374,0.0156457,1763,554,8.63999,4.68487
546,470,8.63416,-4.36713,-0.00181533,0.00167136,0.000756765,0.00182852,-0.0019725,1.36602,0.00219505,0.0140963,1770,554,8.63413,4.3671
553,470,8.64868,-4.02277,-0.00231607,0.00237537,0.00112216,0.00262997,-0.00257067,1.34769,0.00300266,0.0129138,1777,554,8.64869,4.02275
560,470,8.65967,-3.66956,-0.00267333,0.00322013,0.00168067,0.00366572,-0.00311893,1.31163,0.00392136,0.0186458,1784,554,8.65966,3.66953
567,470,8.63013,-3.34619,-0.00282704,0.00430042,0.00255054,0.00511909,-0.00364571,1.26021,0.00508414,0.0214355,1791,554,8.63017,3.34617
574,470,8.75867,-2.85138,0,0,0,0,0,0,0,-1,1798,554,8.75863,2.85136
581,470,8.24646,-4.06317,0,0,0,0,0,0,0,-1,1805,554,8.24648,4.06318
588,470,11.1803,1.74927,0,0,0,0,0,0,0,-1,1812,554,11.1803,-1.74926
595,470,4.72192,3.44116,0,0,0,0,0,0,0,-1,1819,554,4.72191,-3.44116
602,470,14.4307,2.76141,0,0,0,0,0,0,0,-1,1826,554,14.4306,-2.76139
609,470,20.9181,4.41058,0,0,0,0,0,0,0,-1,1833,554,20.9181,-4.4106
616,470,0,0,0,0,0,0,0,0,0,-1,1840,554,0,0
623,470,0,0,0,0,0,0,0,0,0,-1,1847,554,0,0
630,470,0,0,0,0,0,0,0,0,0,-1,1854,554,0,0
637,470,0,0,0,0,0,0,0,0,0,-1,1861,554,0,0
644,470,0,0,0,0,0,0,0,0,0,-1,1868,554,0,0
651,470,0,0,0,0,0,0,0,0,0,-1,1875,554,0,0
658,470,0,0,0,0,0,0,0,0,0,-1,1882,554,0,0
665,470,0,0,0,0,0,0,0,0,0,-1,1889,554,0,0
672,470,0,0,0,0,0,0,0,0,0,-1,1896,554,0,0
679,470,0,0,0,0,0,0,0,0,0,-1,1903,554,0,0
686,470,0,0,0,0,0,0,0,0,0,-1,1910,554,0,0
693,470,0,0,0,0,0,0,0,0,0,-1,1917,554,0,0
700,470,0,0,0,0,0,0,0,0,0,-1,1924,554,0,0
707,470,0,0,0,0,0,0,0,0,0,-1,1931,554,0,0
714,470,0,0,0,0,0,0,0,0,0,-1,1938,554,0,0
721,470,0,0,0,0,0,0,0,0,0,-1,1945,554,0,0
728,470,0,0,0,0,0,0,0,0,0,-1,1952,554,0,0
735,470,0,0,0,0,0,0,0,0,0,-1,1959,554,0,0
742,470,0,0,0,0,0,0,0,0,0,-1,1966,554,0,0
749,470,0,0,0,0,0,0,0,0,0,-1,1973,554,0,0
756,470,0,0,0,0,0,0,0,0,0,-1,1980,554,0,0
763,470,0,0,0,0,0,0,0,0,0,-1,1987,554,0,0
770,470,0,0,0,0,0,0,0,0,0,-1,1994,554,0,0
777,470,0,0,0,0,0,0,0,0,0,-1,2001,554,0,0
784,470,0,0,0,0,0,0,0,0,0,-1,2008,554,0,0
791,470,0,0,0,0,0,0,0,0,0,-1,2015,554,0,0
798,470,0,0,0,0,0,0,0,0,0,-1,2022,554,0,0
805,470,0,0,0,0,0,0,0,0,0,-1,2029,554,0,0
812,470,0,0,0,0,0,0,0,0,0,-1,2036,554,0,0
-700,463,0,0,0,0,0,0,0,0,0,-1,524,561,0,0
-693,463,0,0,0,0,0,0,0,0,0,-1,531,561,0,0
-686,463,0,0,0,0,0,0,0,0,0,-1,538,561,0,0
-679,463,0,0,0,0,0,0,0,0,0,-1,545,561,0,0
-672,463,0,0,0,0,0,0,0,0,0,-1,552,561,0,0
-665,463,0,0,0,0,0,0,0,0,0,-1,559,561,0,0
-658,463,0,0,0,0,0,0,0,0,0,-1,566,561,0,0
-651,463,0,0,0,0,0,0,0,0,0,-1,573,561,0,0
-644,463,0,0,0,0,0,0,0,0,0,-1,580,561,0,0
-637,463,0,0,0,0,0,0,0,0,0,-1,587,561,0,0
-630,463,0,0,0,0,0,0,0,0,0,-1,594,561,0,0
-623,463,0,0,0,0,0,0,0,0,0,-1,601,561,0,0
-616,463,0,0,0,0,0,0,0,0,0,-1,608,561,0,0
-609,463,0,0,0,0,0,0,0,0,0,-1,615,561,0,0
-602,463,0,0,0,0,0,0,0,0,0,-1,622,561,0,0
-595,463,0,0,0,0,0,0,0,0,0,-1,629,561,0,0
-588,463,0,0,0,0,0,0,0,0,0,-1,636,561,0,0
-581,463,0,0,0,0,0,0,0,0,0,-1,643,561,0,0
-574,463,0,0,0,0,0,0,0,0,0,-1,650,561,0,0
-567,463,0,0,0,0,0,0,0,0,0,-1,657,561,0,0
-560,463,0,0,0,0,0,0,0,0,0,-1,664,561,0,0
-553,463,0,0,0,0,0,0,0,0,0,-1,671,561,0,0
-546,463,0,0,0,0,0,0,0,0,0,-1,678,561,0,0
-539,463,0,0,0,0,0,0,0,0,0,-1,685,561,0,0
-532,463,0,0,0,0,0,0,0,0,0,-1,692,561,0,0
-525,463,0,0,0,0,0,0,0,0,0,-1,699,561,0,0
-518,463,0,0,0,0,0,0,0,0,0,-1,706,561,0,0
-511,463,0,0,0,0,0,0,0,0,0,-1,713,561,0,0
-504,463,0,0,0,0,0,0,0,0,0,-1,720,561,0,0
-497,463,-9.81451,-1.67126,0,0,0,0,0,0,0,-1,727,561,-9.81452,1.67127
-490,463,-8.57043,-1.58942,0,0,0,0,0,0,0,-1,734,561,-8.57045,1.58944
-483,463,-7.29224,-1.7226,0,0,0,0,0,0,0,-1,741,561,-7.29226,1.72261
-476,463,-5.77704,-1.7312,0,0,0,0,0,0,0,-1,748,561,-5.77703,1.73121
-469,463,-5.14545,-2.138,0,0,0,0,0,0,0,-1,755,561,-5.14546,2.13799
-462,463,-3.13672,-3.07977,0,0,0,0,0,0,0,-1,762,561,-3.13672,3.07974
-455,463,-2.50806,-3.67798,0,0,0,0,0,0,0,-1,769,561,-2.50808,3.67799
-448,463,-2.53046,-4.23981,0.0124454,0.0188279,-0.0177739,0.0336947,-0.00242146,-0.874224,0.0233123,0.0474553,776,561,-2.53044,4.23981
-441,463,-2.35333,-4.96246,0.00948949,0.015459,-0.0140624,0.0268499,-0.00190144,-0.889971,0.0185662,0.0401172,783,561,-2.35334,4.96247
-434,463,-2.4704,-5.33698,0.0072174,0.0125274,-0.0111081,0.0212934,-0.00154861,-0.902704,0.0147389,0.0168914,790,561,-2.47037,5.33695
-427,463,-2.47662,-5.65863,0.00542733,0.0100539,-0.00864964,0.0166942,-0.00121303,-0.916061,0.0115551,0.00948397,797,561,-2.47664,5.65862
-420,463,-2.47021,-5.95978,0.00387569,0.0077579,-0.00644963,0.0125522,-0.000918605,-0.931569,0.00869053,0.00971971,804,561,-2.47024,5.95976
-413,463,-2.48895,-6.26721,0.00271395,0.00575545,-0.00471404,0.00918796,-0.000718564,-0.941428,0.00637834,0.00876715,811,561,-2.48894,6.26724
-406,463,-2.50525,-6.57324,0.00185135,0.00396193,-0.00316392,0.00624191,-0.000428633,-0.946366,0.00431126,0.00804446,818,561,-2.50522,6.57326
-399,463,-2.49677,-6.88397,0.00110292,0.00223207,-0.00175988,0.00351571,-0.000180724,-0.940615,0.00240631,0.00997063,825,561,-2.49676,6.88398
-392,463,-2.50922,-7.19788,0.000509051,0.000303362,-0.000450857,0.000868645,-5.62311e-05,-0.673262,0.000598721,0.0104455,832,561,-2.50924,7.19787
-385,463,-2.52344,-7.51221,8.78739e-05,-0.00128878,0.000625341,0.000329518,-0.00153043,0.368744,0.00114602,0.0110497,839,561,-2.52346,7.51223
-378,463,-2.51843,-7.81903,-9.7277e-05,-0.00292618,0.00160257,0.000625774,-0.00364923,0.423836,0.00266601,0.0115817,846,561,-2.51845,7.81903
-371,463,-2.5127,-8.12036,4.96606e-05,-0.00451321,0.00229463,0.001004,-0.00546756,0.39414,0.0040217,0.0107434,853,561,-2.51269,8.12036
-364,463,-2.51312,-8.36865,0.000464718,-0.00609055,0.00283666,0.00152177,-0.0071476,0.3567,0.00534503,0.0126643,860,561,-2.51311,8.36867
-357,463,-2.53949,-8.65027,0.00125049,-0.00781392,0.0031945,0.00226316,-0.00882659,0.306985,0.00676615,0.0168423,867,561,-2.53951,8.65026
-350,463,-2.4516,-8.9986,0.00239975,-0.00943435,0.00332207,0.00326854,-0.0103031,0.255792,0.00817895,0.0213532,874,561,-2.45159,8.99858
-343,463,-2.28876,-9.07324,0.00394387,-0.0112391,0.00321461,0.00459644,-0.0118917,0.200279,0.0098251,0.0389767,881,561,-2.28877,9.07327
-336,463,-2.14581,-9.35736,0,0,0,0,0,0,0,-1,888,561,-2.14579,9.35734
-329,463,-1.82269,-9.8302,0,0,0,0,0,0,0,-1,895,561,-1.82272,9.83023
-322,463,-1.23309,-8.07733,0,0,0,0,0,0,0,-1,902,561,-1.23307,8.0773
-315,463,-0.944763,-5.96234,0,0,0,0,0,0,0,-1,909,561,-0.94479,5.96237
-308,463,-1.1535,-3.17889,0,0,0,0,0,0,0,-1,916,561,-1.15352,3.17889
-301,463,-1.50366,-3.15338,0,0,0,0,0,0,0,-1,923,561,-1.50364,3.15341
-294,463,-2.35889,-3.93463,0,0,0,0,0,0,0,-1,930,561,-2.35886,3.93465
-287,463,-2.80322,2.73999,0,0,0,0,0,0,0,-1,937,561,-2.80322,-2.74
-280,463,-12.864,5.25146,0,0,0,0,0,0,0,-1,944,561,-12.864,-5.25149
-273,463,-12.4598,3.39178,0,0,0,0,0,0,0,-1,951,561,-12.4598,-3.3918
-266,463,-8.91321,-0.697021,0,0,0,0,0,0,0,-1,958,561,-8.9132,0.697008
-259,463,-5.96417,-3.79382,0,0,0,0,0,0,0,-1,965,561,-5.96419,3.79381
-252,463,0,0,0,0,0,0,0,0,0,-1,972,561,0,0
-245,463,0,0,0,0,0,0,0,0,0,-1,979,561,0,0
-238,463,0,0,0,0,0,0,0,0,0,-1,986,561,0,0
-231,463,0,0,0,0,0,0,0,0,0,-1,993,561,0,0
-224,463,0,0,0,0,0,0,0,0,0,-1,1000,561,0,0
-217,463,0,0,0,0,0,0,0,0,0,-1,1007,561,0,0
-210,463,0,0,0,0,0,0,0,0,0,-1,1014,561,0,0
-203,463,0,0,0,0,0,0,0,0,0,-1,1021,561,0,0
-196,463,0,0,0,0,0,0,0,0,0,-1,1028,561,0,0
-189,463,0,0,0,0,0,0,0,0,0,-1,1035,561,0,0
-182,463,0,0,0,0,0,0,0,0,0,-1,1042,561,0,0
-175,463,0,0,0,0,0,0,0,0,0,-1,1049,561,0,0
-168,463,0,0,0,0,0,0,0,0,0,-1,1056,561,0,0
-161,463,0,0,0,0,0,0,0,0,0,-1,1063,561,0,0
-154,463,0,0,0,0,0,0,0,0,0,-1,1070,561,0,0
-147,463,0,0,0,0,0,0,0,0,0,-1,1077,561,0,0
-140,463,0,0,0,0,0,0,0,0,0,-1,1084,561,0,0
-133,463,0,0,0,0,0,0,0,0,0,-1,1091,561,0,0
-126,463,0,0,0,0,0,0,0,0,0,-1,1098,561,0,0
-119,463,0,0,0,0,0,0,0,0,0,-1,1105,561,0,0
-112,463,0,0,0,0,0,0,0,0,0,-1,1112,561,0,0
-105,463,0,0,0,0,0,0,0,0,0,-1,1119,561,0,0
-98,463,0,0,0,0,0,0,0,0,0,-1,1126,561,0,0
-91,463,0,0,0,0,0,0,0,0,0,-1,1133,561,0,0
-84,463,0,0,0,0,0,0,0,0,0,-1,1140,561,0,0
-77,463,0,0,0,0,0,0,0,0,0,-1,1147,561,0,0
-70,463,0,0,0,0,0,0,0,0,0,-1,1154,561,0,0
-63,463,0,0,0,0,0,0,0,0,0,-1,1161,561,0,0
-56,463,0,0,0,0,0,0,0,0,0,-1,1168,561,0,0
-49,463,0,0,0,0,0,0,0,0,0,-1,1175,561,0,0
-42,463,0,0,0,0,0,0,0,0,0,-1,1182,561,0,0
-35,463,0,0,0,0,0,0,0,0,0,-1,1189,561,0,0
-28,463,0,0,0,0,0,0,0,0,0,-1,1196,561,0,0
-21,463,0,0,0,0,0,0,0,0,0,-1,1203,561,0,0
-14,463,0,0,0,0,0,0,0,0,0,-1,1210,561,0,0
-7,463,0,0,0,0,0,0,0,0,0,-1,1217,561,0,0
0,463,0,0,0,0,0,0,0,0,0,-1,1224,561,0,0
7,463,0,0,0,0,0,0,0,0,0,-1,1231,561,0,0
14,463,0,0,0,0,0,0,0,0,0,-1,1238,561,0,0
21,463,0,0,0,0,0,0,0,0,0,-1,1245,561,0,0
28,463,0,0,0,0,0,0,0,0,0,-1,1252,561,0,0
35,463,0,0,0,0,0,0,0,0,0,-1,1259,561,0,0
42,463,0,0,0,0,0,0,0,0,0,-1,1266,561,0,0
49,463,0,0,0,0,0,0,0,0,0,-1,1273,561,0,0
56,463,0,0,0,0,0,0,0,0,0,-1,1280,561,0,0
63,463,0,0,0,0,0,0,0,0,0,-1,1287,561,0,0
70,463,0,0,0,0,0,0,0,0,0,-1,1294,561,0,0
77,463,0,0,0,0,0,0,0,0,0,-1,1301,561,0,0
84,463,0,0,0,0,0,0,0,0,0,-1,1308,561,0,0
91,463,0,0,0,0,0,0,0,0,0,-1,1315,561,0,0
98,463,0,0,0,0,0,0,0,0,0,-1,1322,561,0,0
105,463,0,0,0,0,0,0,0,0,0,-1,1329,561,0,0
112,463,0,0,0,0,0,0,0,0,0,-1,1336,561,0,0
119,463,0,0,0,0,0,0,0,0,0,-1,1343,561,0,0
126,463,0,0,0,0,0,0,0,0,0,-1,1350,561,0,0
133,463,0,0,0,0,0,0,0,0,0,-1,1357,561,0,0
140,463,0,0,0,0,0,0,0,0,0,-1,1364,561,0,0
147,463,0,0,0,0,0,0,0,0,0,-1,1371,561,0,0
154,463,0,0,0,0,0,0,0,0,0,-1,1378,561,0,0
161,463,0,0,0,0,0,0,0,0,0,-1,1385,561,0,0
168,463,0,0,0,0,0,0,0,0,0,-1,1392,561,0,0
175,463,0,0,0,0,0,0,0,0,0,-1,1399,561,0,0
182,463,0,0,0,0,0,0,0,0,0,-1,1406,561,0,0
189,463,0,0,0,0,0,0,0,0,0,-1,1413,561,0,0
196,463,0,0,0,0,0,0,0,0,0,-1,1420,561,0,0
203,463,0,0,0,0,0,0,0,0,0,-1,1427,561,0,0
210,463,0,0,0,0,0,0,0,0,0,-1,1434,561,0,0
217,463,0,0,0,0,0,0,0,0,0,-1,1441,561,0,0
224,463,0,0,0,0,0,0,0,0,0,-1,1448,561,0,0
231,463,0,0,0,0,0,0,0,0,0,-1,1455,561,0,0
238,463,0,0,0,0,0,0,0,0,0,-1,1462,561,0,0
245,463,0,0,0,0,0,0,0,0,0,-1,1469,561,0,0
252,463,0,0,0,0,0,0,0,0,0,-1,1476,561,0,0
259,463,0,0,0,0,0,0,0,0,0,-1,1483,561,0,0
266,463,0,0,0,0,0,0,0,0,0,-1,1490,561,0,0
273,463,0,0,0,0,0,0,0,0,0,-1,1497,561,0,0
280,463,0,0,0,0,0,0,0,0,0,-1,1504,561,0,0
287,463,0,0,0,0,0,0,0,0,0,-1,1511,561,0,0
294,463,0,0,0,0,0,0,0,0,0,-1,1518,561,0,0
301,463,0,0,0,0,0,0,0,0,0,-1,1525,561,0,0
308,463,0,0,0,0,0,0,0,0,0,-1,1532,561,0,0
315,463,0,0,0,0,0,0,0,0,0,-1,1539,561,0,0
322,463,0,0,0,0,0,0,0,0,0,-1,1546,561,0,0
329,463,0,0,0,0,0,0,0,0,0,-1,1553,561,0,0
336,463,0,0,0,0,0,0,0,0,0,-1,1560,561,0,0
343,463,0,0,0,0,0,0,0,0,0,-1,1567,561,0,0
350,463,0,0,0,0,0,0,0,0,0,-1,1574,561,0,0
357,463,0,0,0,0,0,0,0,0,0,-1,1581,561,0,0
364,463,0,0,0,0,0,0,0,0,0,-1,1588,561,0,0
371,463,1.75842,0.152588,0,0,0,0,0,0,0,-1,1595,561,1.75844,-0.152558
378,463,4.58813,-0.0444336,0,0,0,0,0,0,0,-1,1602,561,4.58809,0.0444505
385,463,8.88574,1.65057,0,0,0,0,0,0,0,-1,1609,561,8.88575,-1.65055
392,463,14.0912,2.50513,0,0,0,0,0,0,0,-1,1616,561,14.0912,-2.5051
399,463,19.6376,3.51965,0,0,0,0,0,0,0,-1,1623,561,19.6376,-3.51966
406,463,26.2987,4.32318,0,0,0,0,0,0,0,-1,1630,561,26.2987,-4.3232
413,463,26.5011,2.65222,0,0,0,0,0,0,0,-1,1637,561,26.5011,-2.65224
420,463,8.849,2.26611,0,0,0,0,0,0,0,-1,1644,561,8.84899,-2.26613
427,463,5.12207,1.69183,0,0,0,0,0,0,0,-1,1651,561,5.12206,-1.69184
434,463,4.59814,1.81995,0,0,0,0,0,0,0,-1,1658,561,4.59812,-1.81994
441,463,1.76392,-5.99225,0,0,0,0,0,0,0,-1,1665,561,1.7639,5.99225
448,463,2.49939,-4.30536,0,0,0,0,0,0,0,-1,1672,561,2.49941,4.30536
455,463,4.40295,-3.02557,0,0,0,0,0,0,0,-1,1679,561,4.40299,3.02558
462,463,5.38293,-4.06445,0,0,0,0,0,0,0,-1,1686,561,5.38289,4.06444
469,463,5.94373,-4.50647,0,0,0,0,0,0,0,-1,1693,561,5.94368,4.50646
476,463,8.55737,-7.91504,0,0,0,0,0,0,0,-1,1700,561,8.55741,7.91505
483,463,8.83765,-7.50287,0.00291097,0.00433058,0.00232805,0.00605462,0.00118692,0.933368,0.0037047,0.043521,1707,561,8.83768,7.5029
490,463,8.97205,-7.00787,0.00340147,0.00449554,0.00266269,0.00666681,0.0012302,0.886711,0.00409651,0.0217004,1714,561,8.97206,7.00787
497,463,8.97546,-6.63477,0.00326735,0.00374546,0.00244601,0.00596407,0.00104875,0.83411,0.00367666,0.0126019,1721,561,8.97543,6.63474
504,463,8.97974,-6.29205,0.00283672,0.00305233,0.00214325,0.00509048,0.000798566,0.810528,0.00316127,0.0158214,1728,561,8.97976,6.29204
511,463,9.00562,-5.98108,0.00224795,0.00239341,0.00177449,0.00409666,0.0005447,0.80588,0.00256886,0.0227089,1735,561,9.00562,5.98105
518,463,9.03503,-5.64893,0.00158959,0.00185314,0.00143175,0.00315917,0.000283563,0.831287,0.00201824,0.0228447,1742,561,9.03507,5.64894
525,463,8.98596,-5.31427,0.000858543,0.00150768,0.00110842,0.00233808,2.81475e-05,0.927828,0.00154942,0.01768,1749,561,8.98597,5.31429
532,463,8.99536,-4.99561,0.000104086,0.00132739,0.000850248,0.00176314,-0.000331658,1.09721,0.00130016,0.015456,1756,561,8.99535,4.99561
539,463,8.99084,-4.66028,-0.000590372,0.00119422,0.000669239,0.00141731,-0.000813456,1.24904,0.00130357,0.0160039,1763,561,8.99089,4.66027
546,463,8.97156,-4.36511,-0.00111543,0.00151392,0.000810837,0.00174386,-0.00134536,1.29447,0.0017885,0.0130394,1770,561,8.97161,4.3651
553,463,8.96289,-4.00867,-0.0015952,0.0019992,0.00104326,0.00228006,-0.00187606,1.30782,0.00240331,0.0109998,1777,561,8.96288,4.00865
560,463,8.97388,-3.61609,-0.00199256,0.00258902,0.00143229,0.00299993,-0.00240347,1.29141,0.00312598,0.0129376,1784,561,8.97389,3.61609
567,463,8.90039,-3.3064,-0.00220642,0.00339238,0.00208726,0.00408487,-0.00289891,1.25045,0.00405142,0.0203714,1791,561,8.90039,3.30641
574,463,8.9646,-2.95905,0,0,0,0,0,0,0,-1,1798,561,8.96456,2.95903
581,463,7.77832,-2.18085,0,0,0,0,0,0,0,-1,1805,561,7.77828,2.18082
588,463,1.97424,2.16016,0,0,0,0,0,0,0,-1,1812,561,1.97422,-2.16013
595,463,9.98657,2.99854,0,0,0,0,0,0,0,-1,1819,561,9.98662,-2.99856
602,463,17.2202,4.91302,0,0,0,0,0,0,0,-1,1826,561,17.2202,-4.91305
609,463,17.96,4.03131,0,0,0,0,0,0,0,-1,1833,561,17.96,-4.03132
616,463,20.8352,3.15131,0,0,0,0,0,0,0,-1,1840,561,20.8352,-3.1513
623,463,0,0,0,0,0,0,0,0,0,-1,1847,561,0,0
630,463,0,0,0,0,0,0,0,0,0,-1,1854,561,0,0
637,463,0,0,0,0,0,0,0,0,0,-1,1861,561,0,0
644,463,0,0,0,0,0,0,0,0,0,-1,1868,561,0,0
651,463,0,0,0,0,0,0,0,0,0,-1,1875,561,0,0
658,463,0,0,0,0,0,0,0,0,0,-1,1882,561,0,0
665,463,0,0,0,0,0,0,0,0,0,-1,1889,561,0,0
672,463,0,0,0,0,0,0,0,0,0,-1,1896,561,0,0
679,463,0,0,0,0,0,0,0,0,0,-1,1903,561,0,0
686,463,0,0,0,0,0,0,0,0,0,-1,1910,561,0,0
693,463,0,0,0,0,0,0,0,0,0,-1,1917,561,0,0
700,463,0,0,0,0,0,0,0,0,0,-1,1924,561,0,0
707,463,0,0,0,0,0,0,0,0,0,-1,1931,561,0,0
714,463,0,0,0,0,0,0,0,0,0,-1,1938,561,0,0
721,463,0,0,0,0,0,0,0,0,0,-1,1945,561,0,0
728,463,0,0,0,0,0,0,0,0,0,-1,1952,561,0,0
735,463,0,0,0,0,0,0,0,0,0,-1,1959,561,0,0
742,463,0,0,0,0,0,0,0,0,0,-1,1966,561,0,0
749,463,0,0,0,0,0,0,0,0,0,-1,1973,561,0,0
756,463,0,0,0,0,0,0,0,0,0,-1,1980,561,0,0
763,463,0,0,0,0,0,0,0,0,0,-1,1987,561,0,0
770,463,0,0,0,0,0,0,0,0,0,-1,1994,561,0,0
777,463,0,0,0,0,0,0,0,0,0,-1,2001,561,0,0
784,463,0,0,0,0,0,0,0,0,0,-1,2008,561,0,0
791,463,0,0,0,0,0,0,0,0,0,-1,2015,561,0,0
798,463,0,0,0,0,0,0,0,0,0,-1,2022,561,0,0
805,463,0,0,0,0,0,0,0,0,0,-1,2029,561,0,0
812,463,0,0,0,0,0,0,0,0,0,-1,2036,561,0,0
-700,456,0,0,0,0,0,0,0,0,0,-1,524,568,0,0
-693,456,0,0,0,0,0,0,0,0,0,-1,531,568,0,0
-686,456,0,0,0,0,0,0,0,0,0,-1,538,568,0,0
-679,456,0,0,0,0,0,0,0,0,0,-1,545,568,0,0
-672,456,0,0,0,0,0,0,0,0,0,-1,552,568,0,0
-665,456,0,0,0,0,0,0,0,0,0,-1,559,568,0,0
-658,456,0,0,0,0,0,0,0,0,0,-1,566,568,0,0
-651,456,0,0,0,0,0,0,0,0,0,-1,573,568,0,0
-644,456,0,0,0,0,0,0,0,0,0,-1,580,568,0,0
-637,456,0,0,0,0,0,0,0,0,0,-1,587,568,0,0
-630,456,0,0,0,0,0,0,0,0,0,-1,594,568,0,0
-623,456,0,0,0,0,0,0,0,0,0,-1,601,568,0,0
-616,456,0,0,0,0,0,0,0,0,0,-1,608,568,0,0
-609,456,0,0,0,0,0,0,0,0,0,-1,615,568,0,0
-602,456,0,0,0,0,0,0,0,0,0,-1,622,568,0,0
-595,456,0,0,0,0,0,0,0,0,0,-1,629,568,0,0
-588,456,0,0,0,0,0,0,0,0,0,-1,636,568,0,0
-581,456,0,0,0,0,0,0,0,0,0,-1,643,568,0,0
-574,456,0,0,0,0,0,0,0,0,0,-1,650,568,0,0
-567,456,0,0,0,0,0,0,0,0,0,-1,657,568,0,0
-560,456,0,0,0,0,0,0,0,0,0,-1,664,568,0,0
-553,456,0,0,0,0,0,0,0,0,0,-1,671,568,0,0
-546,456,0,0,0,0,0,0,0,0,0,-1,678,568,0,0
-539,456,0,0,0,0,0,0,0,0,0,-1,685,568,0,0
-532,456,0,0,0,0,0,0,0,0,0,-1,692,568,0,0
-525,456,0,0,0,0,0,0,0,0,0,-1,699,568,0,0
-518,456,0,0,0,0,0,0,0,0,0,-1,706,568,0,0
-511,456,0,0,0,0,0,0,0,0,0,-1,713,568,0,0
-504,456,-10.3994,-2.34839,0,0,0,0,0,0,0,-1,720,568,-10.3994,2.3484
-497,456,-9.21375,-2.38068,0,0,0,0,0,0,0,-1,727,568,-9.21372,2.38069
-490,456,-8.09058,-2.31824,0,0,0,0,0,0,0,-1,734,568,-8.09057,2.31821
-483,456,-6.66119,-2.24329,0,0,0,0,0,0,0,-1,741,568,-6.66121,2.24331
-476,456,-5.1499,-2.21185,0,0,0,0,0,0,0,-1,748,568,-5.14992,2.21184
-469,456,-2.81238,-3.51501,0,0,0,0,0,0,0,-1,755,568,-2.81237,3.51501
-462,456,-2.91895,-4.18488,0,0,0,0,0,0,0,-1,762,568,-2.91892,4.18488
-455,456,-2.7641,-3.90417,0,0,0,0,0,0,0,-1,769,568,-2.76412,3.90415
-448,456,-2.69464,-4.46069,0.00987362,0.0143094,-0.0135782,0.0258497,-0.00166667,-0.866353,0.0178147,0.0381316,776,568,-2.69465,4.46071
-441,456,-2.7179,-4.97882,0.00742431,0.011896,-0.0108301,0.0207186,-0.00139832,-0.887192,0.0143013,0.019412,783,568,-2.71792,4.97885
-434,456,-2.77942,-5.33484,0.00551653,0.0095288,-0.0084754,0.0162323,-0.00118693,-0.90161,0.0112381,0.0115624,790,568,-2.7794,5.33484
-427,456,-2.78064,-5.64771,0.00399258,0.00753242,-0.00642165,0.0124236,-0.000898602,-0.919868,0.0085976,0.00872523,797,568,-2.78065,5.6477
-420,456,-2.78174,-5.9541,0.00259314,0.00561032,-0.00453148,0.00887772,-0.000674264,-0.946084,0.00615556,0.00874777,804,568,-2.78176,5.95411
-413,456,-2.79626,-6.2652,0.00150873,0.00386704,-0.00299905,0.00591042,-0.000534646,-0.972703,0.00413005,0.00801185,811,568,-2.79625,6.26522
-406,456,-2.81659,-6.56635,0.000778471,0.00225895,-0.00161963,0.00329949,-0.000262063,-0.999746,0.00229201,0.00788691,818,568,-2.8166,6.56634
-399,456,-2.8158,-6.87317,0.000110005,0.000618124,-0.000324895,0.0007765,-4.8371e-05,-1.11722,0.00053452,0.00996221,825,568,-2.81577,6.87316
-392,456,-2.80334,-7.18243,-0.000440657,-0.00131039,0.000920638,0.000142654,-0.0018937,0.564755,0.0013126,0.00978305,832,568,-2.80335,7.18245
-385,456,-2.8053,-7.49652,-0.000890478,-0.0029721,0.00200731,0.000329811,-0.00419239,0.546225,0.0029111,0.00938684,839,568,-2.80528,7.4965
-378,456,-2.81335,-7.81122,-0.00112805,-0.00476314,0.00303122,0.00058877,-0.00647997,0.515332,0.00452901,0.0100956,846,568,-2.81334,7.81124
-371,456,-2.81042,-8.11188,-0.000999254,-0.00641193,0.00376027,0.000927321,-0.00833851,0.473479,0.00589248,0.0101661,853,568,-2.81043,8.11187
-364,456,-2.79645,-8.37445,-0.000617009,-0.00837117,0.0044416,0.00140163,-0.0103898,0.426578,0.0074379,0.0134298,860,568,-2.79646,8.37447
-357,456,-2.7572,-8.67267,0.000173406,-0.0106192,0.00495951,0.00210628,-0.0125521,0.371623,0.00915129,0.0203132,867,568,-2.75723,8.67265
-350,456,-2.52808,-8.75208,0.00140449,-0.0128762,0.00525963,0.00313254,-0.0146042,0.317438,0.010931,0.0433173,874,568,-2.52807,8.7521
-343,456,-2.47742,-8.6925,0.00308952,-0.0153447,0.00532531,0.00451731,-0.0167725,0.261954,0.0129527,0.0481008,881,568,-2.47744,8.69248
-336,456,-2.15228,-8.47797,0,0,0,0,0,0,0,-1,888,568,-2.15226,8.47796
-329,456,-2.64429,-7.95856,0,0,0,0,0,0,0,-1,895,568,-2.64431,7.95853
-322,456,-0.662537,-7.66632,0,0,0,0,0,0,0,-1,902,568,-0.662564,7.66633
-315,456,-0.675476,-3.38397,0,0,0,0,0,0,0,-1,909,568,-0.675473,3.38399
-308,456,-1.1618,-3.15314,0,0,0,0,0,0,0,-1,916,568,-1.16178,3.15314
-301,456,-1.83551,-3.26447,0,0,0,0,0,0,0,-1,923,568,-1.8355,3.26449
-294,456,-2.93414,-3.35449,0,0,0,0,0,0,0,-1,930,568,-2.93413,3.35451
-287,456,-3.7569,-3.53101,0,0,0,0,0,0,0,-1,937,568,-3.75692,3.53101
-280,456,-13.072,4.52856,0,0,0,0,0,0,0,-1,944,568,-13.072,-4.52855
-273,456,-9.17694,0.506409,0,0,0,0,0,0,0,-1,951,568,-9.17694,-0.506423
-266,456,-5.78632,-2.51526,0,0,0,0,0,0,0,-1,958,568,-5.78634,2.51525
-259,456,0,0,0,0,0,0,0,0,0,-1,965,568,0,0
-252,456,0,0,0,0,0,0,0,0,0,-1,972,568,0,0
-245,456,0,0,0,0,0,0,0,0,0,-1,979,568,0,0
-238,456,0,0,0,0,0,0,0,0,0,-1,986,568,0,0
-231,456,0,0,0,0,0,0,0,0,0,-1,993,568,0,0
-224,456,0,0,0,0,0,0,0,0,0,-1,1000,568,0,0
-217,456,0,0,0,0,0,0,0,0,0,-1,1007,568,0,0
-210,456,0,0,0,0,0,0,0,0,0,-1,1014,568,0,0
-203,456,0,0,0,0,0,0,0,0,0,-1,1021,568,0,0
-196,456,0,0,0,0,0,0,0,0,0,-1,1028,568,0,0
-189,456,0,0,0,0,0,0,0,0,0,-1,1035,568,0,0
-182,456,0,0,0,0,0,0,0,0,0,-1,1042,568,0,0
-175,456,0,0,0,0,0,0,0,0,0,-1,1049,568,0,0
-168,456,0,0,0,0,0,0,0,0,0,-1,1056,568,0,0
-161,456,0,0,0,0,0,0,0,0,0,-1,1063,568,0,0
-154,456,0,0,0,0,0,0,0,0,0,-1,1070,568,0,0
-147,456,0,0,0,0,0,0,0,0,0,-1,1077,568,0,0
-140,456,0,0,0,0,0,0,0,0,0,-1,1084,568,0,0
-133,456,0,0,0,0,0,0,0,0,0,-1,1091,568,0,0
-126,456,0,0,0,0,0,0,0,0,0,-1,1098,568,0,0
-119,456,0,0,0,0,0,0,0,0,0,-1,1105,568,0,0
-112,456,0,0,0,0,0,0,0,0,0,-1,1112,568,0,0
-105,456,0,0,0,0,0,0,0,0,0,-1,1119,568,0,0
-98,456,0,0,0,0,0,0,0,0,0,-1,1126,568,0,0
-91,456,0,0,0,0,0,0,0,0,0,-1,1133,568,0,0
-84,456,0,0,0,0,0,0,0,0,0,-1,1140,568,0,0
-77,456,0,0,0,0,0,0,0,0,0,-1,1147,568,0,0
-70,456,0,0,0,0,0,0,0,0,0,-1,1154,568,0,0
-63,456,0,0,0,0,0,0,0,0,0,-1,1161,568,0,0
-56,456,0,0,0,0,0,0,0,0,0,-1,1168,568,0,0
-49,456,0,0,0,0,0,0,0,0,0,-1,1175,568,0,0
-42,456,0,0,0,0,0,0,0,0,0,-1,1182,568,0,0
-35,456,0,0,0,0,0,0,0,0,0,-1,1189,568,0,0
-28,456,0,0,0,0,0,0,0,0,0,-1,1196,568,0,0
-21,456,0,0,0,0,0,0,0,0,0,-1,1203,568,0,0
-14,456,0,0,0,0,0,0,0,0,0,-1,1210,568,0,0
-7,456,0,0,0,0,0,0,0,0,0,-1,1217,568,0,0
0,456,0,0,0,0,0,0,0,0,0,-1,1224,568,0,0
7,456,0,0,0,0,0,0,0,0,0,-1,1231,568,0,0
14,456,0,0,0,0,0,0,0,0,0,-1,1238,568,0,0
21,456,0,0,0,0,0,0,0,0,0,-1,1245,568,0,0
28,456,0,0,0,0,0,0,0,0,0,-1,1252,568,0,0
35,456,0,0,0,0,0,0,0,0,0,-1,1259,568,0,0
42,456,0,0,0,0,0,0,0,0,0,-1,1266,568,0,0
49,456,0,0,0,0,0,0,0,0,0,-1,1273,568,0,0
56,456,0,0,0,0,0,0,0,0,0,-1,1280,568,0,0
63,456,0,0,0,0,0,0,0,0,0,-1,1287,568,0,0
70,456,0,0,0,0,0,0,0,0,0,-1,1294,568,0,0
77,456,0,0,0,0,0,0,0,0,0,-1,1301,568,0,0
84,456,0,0,0,0,0,0,0,0,0,-1,1308,568,0,0
91,456,0,0,0,0,0,0,0,0,0,-1,1315,568,0,0
98,456,0,0,0,0,0,0,0,0,0,-1,1322,568,0,0
105,456,0,0,0,0,0,0,0,0,0,-1,1329,568,0,0
112,456,0,0,0,0,0,0,0,0,0,-1,1336,568,0,0
119,456,0,0,0,0,0,0,0,0,0,-1,1343,568,0,0
126,456,0,0,0,0,0,0,0,0,0,-1,1350,568,0,0
133,456,0,0,0,0,0,0,0,0,0,-1,1357,568,0,0
140,456,0,0,0,0,0,0,0,0,0,-1,1364,568,0,0
147,456,0,0,0,0,0,0,0,0,0,-1,1371,568,0,0
154,456,0,0,0,0,0,0,0,0,0,-1,1378,568,0,0
161,456,0,0,0,0,0,0,0,0,0,-1,1385,568,0,0
168,456,0,0,0,0,0,0,0,0,0,-1,1392,568,0,0
175,456,0,0,0,0,0,0,0,0,0,-1,1399,568,0,0
182,456,0,0,0,0,0,0,0,0,0,-1,1406,568,0,0
189,456,0,0,0,0,0,0,0,0,0,-1,1413,568,0,0
196,456,0,0,0,0,0,0,0,0,0,-1,1420,568,0,0
203,456,0,0,0,0,0,0,0,0,0,-1,1427,568,0,0
210,456,0,0,0,0,0,0,0,0,0,-1,1434,568,0,0
217,456,0,0,0,0,0,0,0,0,0,-1,1441,568,0,0
224,456,0,0,0,0,0,0,0,0,0,-1,1448,568,0,0
231,456,0,0,0,0,0,0,0,0,0,-1,1455,568,0,0
238,456,0,0,0,0,0,0,0,0,0,-1,1462,568,0,0
245,456,0,0,0,0,0,0,0,0,0,-1,1469,568,0,0
252,456,0,0,0,0,0,0,0,0,0,-1,1476,568,0,0
259,456,0,0,0,0,0,0,0,0,0,-1,1483,568,0,0
266,456,0,0,0,0,0,0,0,0,0,-1,1490,568,0,0
273,456,0,0,0,0,0,0,0,0,0,-1,1497,568,0,0
280,456,0,0,0,0,0,0,0,0,0,-1,1504,568,0,0
287,456,0,0,0,0,0,0,0,0,0,-1,1511,568,0,0
294,456,0,0,0,0,0,0,0,0,0,-1,1518,568,0,0
301,456,0,0,0,0,0,0,0,0,0,-1,1525,568,0,0
308,456,0,0,0,0,0,0,0,0,0,-1,1532,568,0,0
315,456,0,0,0,0,0,0,0,0,0,-1,1539,568,0,0
322,456,0,0,0,0,0,0,0,0,0,-1,1546,568,0,0
329,456,0,0,0,0,0,0,0,0,0,-1,1553,568,0,0
336,456,0,0,0,0,0,0,0,0,0,-1,1560,568,0,0
343,456,0,0,0,0,0,0,0,0,0,-1,1567,568,0,0
350,456,0,0,0,0,0,0,0,0,0,-1,1574,568,0,0
357,456,0,0,0,0,0,0,0,0,0,-1,1581,568,0,0
364,456,0,0,0,0,0,0,0,0,0,-1,1588,568,0,0
371,456,0,0,0,0,0,0,0,0,0,-1,1595,568,0,0
378,456,0,0,0,0,0,0,0,0,0,-1,1602,568,0,0
385,456,5.66284,0.660645,0,0,0,0,0,0,0,-1,1609,568,5.66285,-0.660615
392,456,16.7321,4.45581,0,0,0,0,0,0,0,-1,1616,568,16.732,-4.45581
399,456,24.1917,5.99652,0,0,0,0,0,0,0,-1,1623,568,24.1916,-5.99651
406,456,24.446,4.53003,0,0,0,0,0,0,0,-1,1630,568,24.446,-4.53005
413,456,24.9418,2.90521,0,0,0,0,0,0,0,-1,1637,568,24.9418,-2.90524
420,456,25.3048,1.04712,0,0,0,0,0,0,0,-1,1644,568,25.3048,-1.04713
427,456,6.21375,2.02905,0,0,0,0,0,0,0,-1,1651,568,6.21372,-2.02904
434,456,3.0719,-4.86285,0,0,0,0,0,0,0,-1,1658,568,3.07184,4.86287
441,456,2.90344,-4.70459,0,0,0,0,0,0,0,-1,1665,568,2.90346,4.7046
448,456,3.06995,-4.93689,0,0,0,0,0,0,0,-1,1672,568,3.06991,4.93687
455,456,3.46582,-3.43701,0,0,0,0,0,0,0,-1,1679,568,3.46585,3.43698
462,456,4.68445,-4.45831,0,0,0,0,0,0,0,-1,1686,568,4.68439,4.45833
469,456,4.93201,-2.289,0,0,0,0,0,0,0,-1,1693,568,4.93197,2.28903
476,456,4.8363,-2.79364,0,0,0,0,0,0,0,-1,1700,568,4.83636,2.79363
483,456,8.78076,-7.93445,0,0,0,0,0,0,0,-1,1707,568,8.78076,7.93442
490,456,9.17651,-7.13855,0,0,0,0,0,0,0,-1,1714,568,9.17655,7.13856
497,456,9.33276,-6.70612,0.00445163,0.00478795,0.00336639,0.00799038,0.0012492,0.810354,0.0049632,0.0408003,1721,568,9.33272,6.70612
504,456,9.26819,-6.29877,0.00386817,0.00382706,0.00284733,0.00669502,0.00100022,0.781789,0.00417012,0.011829,1728,568,9.26814,6.29877
511,456,9.29834,-5.97089,0.00316418,0.00294685,0.0023135,0.00537156,0.000739461,0.761931,0.00336177,0.0134283,1735,568,9.29839,5.97087
518,456,9.32739,-5.64258,0.00244039,0.00227863,0.00185265,0.00421393,0.000505091,0.763583,0.00265697,0.0161736,1742,568,9.32742,5.6426
525,456,9.31531,-5.315,0.00165874,0.00184402,0.00144278,0.00319713,0.000305633,0.81746,0.0020372,0.0155169,1749,568,9.31525,5.31503
532,456,9.32458,-4.97992,0.000869556,0.00154299,0.00109725,0.00235403,5.85163e-05,0.934273,0.00155022,0.0148102,1756,568,9.32456,4.97994
539,456,9.31201,-4.63446,0.000145089,0.00125164,0.000807863,0.00167753,-0.000280796,1.08565,0.00122275,0.0187289,1763,568,9.31204,4.63445
546,456,9.28772,-4.31116,-0.0003911,0.00142048,0.000850329,0.00175707,-0.000727693,1.19388,0.00147504,0.0210223,1770,568,9.28772,4.31117
553,456,9.26746,-3.9621,-0.000866375,0.00174145,0.000990872,0.00207522,-0.00120015,1.24589,0.0019134,0.0138652,1777,568,9.26743,3.96207
560,456,9.27344,-3.65216,-0.00128661,0.00214689,0.00127513,0.00256864,-0.00170836,1.25137,0.00248592,0.0106924,1784,568,9.27344,3.65216
567,456,9.28552,-3.30499,-0.00152067,0.00278885,0.00181313,0.0034502,-0.00218201,1.22104,0.00327912,0.0149626,1791,568,9.28546,3.305
574,456,9.23328,-3.09937,-0.00168462,0.0036637,0.00258605,0.00470959,-0.00273051,1.18647,0.0043459,0.0436513,1798,568,9.23323,3.09937
581,456,9.24048,-2.85938,0,0,0,0,0,0,0,-1,1805,568,9.24051,2.85935
588,456,5.23901,-0.0901489,0,0,0,0,0,0,0,-1,1812,568,5.23906,0.0901656
595,456,6.90063,3.14886,0,0,0,0,0,0,0,-1,1819,568,6.90066,-3.14887
602,456,16.894,4.10938,0,0,0,0,0,0,0,-1,1826,568,16.8941,-4.1094
609,456,14.9966,3.5708,0,0,0,0,0,0,0,-1,1833,568,14.9966,-3.57083
616,456,17.7407,2.6579,0,0,0,0,0,0,0,-1,1840,568,17.7408,-2.6579
623,456,20.6838,1.7121,0,0,0,0,0,0,0,-1,1847,568,20.6838,-1.71208
630,456,0,0,0,0,0,0,0,0,0,-1,1854,568,0,0
637,456,0,0,0,0,0,0,0,0,0,-1,1861,568,0,0
644,456,0,0,0,0,0,0,0,0,0,-1,1868,568,0,0
651,456,0,0,0,0,0,0,0,0,0,-1,1875,568,0,0
658,456,0,0,0,0,0,0,0,0,0,-1,1882,568,0,0
665,456,0,0,0,0,0,0,0,0,0,-1,1889,568,0,0
672,456,0,0,0,0,0,0,0,0,0,-1,1896,568,0,0
679,456,0,0,0,0,0,0,0,0,0,-1,1903,568,0,0
686,456,0,0,0,0,0,0,0,0,0,-1,1910,568,0,0
693,456,0,0,0,0,0,0,0,0,0,-1,1917,568,0,0
700,456,0,0,0,0,0,0,0,0,0,-1,1924,568,0,0
707,456,0,0,0,0,0,0,0,0,0,-1,1931,568,0,0
714,456,0,0,0,0,0,0,0,0,0,-1,1938,568,0,0
721,456,0,0,0,0,0,0,0,0,0,-1,1945,568,0,0
728,456,0,0,0,0,0,0,0,0,0,-1,1952,568,0,0
735,456,0,0,0,0,0,0,0,0,0,-1,1959,568,0,0
742,456,0,0,0,0,0,0,0,0,0,-1,1966,568,0,0
749,456,0,0,0,0,0,0,0,0,0,-1,1973,568,0,0
756,456,0,0,0,0,0,0,0,0,0,-1,1980,568,0,0
763,456,0,0,0,0,0,0,0,0,0,-1,1987,568,0,0
770,456,0,0,0,0,0,0,0,0,0,-1,1994,568,0,0
777,456,0,0,0,0,0,0,0,0,0,-1,2001,568,0,0
784,456,0,0,0,0,0,0,0,0,0,-1,2008,568,0,0
791,456,0,0,0,0,0,0,0,0,0,-1,2015,568,0,0
798,456,0,0,0,0,0,0,0,0,0,-1,2022,568,0,0
805,456,0,0,0,0,0,0,0,0,0,-1,2029,568,0,0
812,456,0,0,0,0,0,0,0,0,0,-1,2036,568,0,0
-700,449,0,0,0,0,0,0,0,0,0,-1,524,575,0,0
-693,449,0,0,0,0,0,0,0,0,0,-1,531,575,0,0
-686,449,0,0,0,0,0,0,0,0,0,-1,538,575,0,0
-679,449,0,0,0,0,0,0,0,0,0,-1,545,575,0,0
-672,449,0,0,0,0,0,0,0,0,0,-1,552,575,0,0
-665,449,0,0,0,0,0,0,0,0,0,-1,559,575,0,0
-658,449,0,0,0,0,0,0,0,0,0,-1,566,575,0,0
-651,449,0,0,0,0,0,0,0,0,0,-1,573,575,0,0
-644,449,0,0,0,0,0,0,0,0,0,-1,580,575,0,0
-637,449,0,0,0,0,0,0,0,0,0,-1,587,575,0,0
-630,449,0,0,0,0,0,0,0,0,0,-1,594,575,0,0
-623,449,0,0,0,0,0,0,0,0,0,-1,601,575,0,0
-616,449,0,0,0,0,0,0,0,0,0,-1,608,575,0,0
-609,449,0,0,0,0,0,0,0,0,0,-1,615,575,0,0
-602,449,0,0,0,0,0,0,0,0,0,-1,622,575,0,0
-595,449,0,0,0,0,0,0,0,0,0,-1,629,575,0,0
-588,449,0,0,0,0,0,0,0,0,0,-1,636,575,0,0
-581,449,0,0,0,0,0,0,0,0,0,-1,643,575,0,0
-574,449,0,0,0,0,0,0,0,0,0,-1,650,575,0,0
-567,449,0,0,0,0,0,0,0,0,0,-1,657,575,0,0
-560,449,0,0,0,0,0,0,0,0,0,-1,664,575,0,0
-553,449,0,0,0,0,0,0,0,0,0,-1,671,575,0,0
-546,449,0,0,0,0,0,0,0,0,0,-1,678,575,0,0
-539,449,0,0,0,0,0,0,0,0,0,-1,685,575,0,0
-532,449,0,0,0,0,0,0,0,0,0,-1,692,575,0,0
-525,449,0,0,0,0,0,0,0,0,0,-1,699,575,0,0
-518,449,0,0,0,0,0,0,0,0,0,-1,706,575,0,0
-511,449,-0.941345,-4.4519,0,0,0,0,0,0,0,-1,713,575,-0.941356,4.45191
-504,449,-14.1078,0.318237,0,0,0,0,0,0,0,-1,720,575,-14.1078,-0.318231
-497,449,-8.61292,-3.09009,0,0,0,0,0,0,0,-1,727,575,-8.61291,3.09011
-490,449,-7.50995,-2.96252,0,0,0,0,0,0,0,-1,734,575,-7.50995,2.96251
-483,449,-5.77789,-2.50061,0,0,0,0,0,0,0,-1,741,575,-5.77792,2.50059
-476,449,-4.1723,-2.07739,0,0,0,0,0,0,0,-1,748,575,-4.17228,2.0774
-469,449,-3.01874,-3.77667,0,0,0,0,0,0,0,-1,755,575,-3.01872,3.77667
-462,449,-3.0415,-4.00635,0,0,0,0,0,0,0,-1,762,575,-3.04151,4.00638
-455,449,-3.2135,-4.24353,0,0,0,0,0,0,0,-1,769,575,-3.21349,4.24355
-448,449,-3.06366,-4.6496,0.00821635,0.0105407,-0.0103531,0.0197967,-0.00103964,-0.84129,0.0135576,0.0265,776,575,-3.06366,4.64959
-441,449,-3.05396,-5.03949,0.00606541,0.00882662,-0.00822683,0.0157879,-0.000895853,-0.868532,0.0108362,0.0149505,783,575,-3.05396,5.03947
-434,449,-3.08746,-5.33264,0.00434184,0.00693636,-0.00628538,0.012057,-0.000778759,-0.887166,0.00830973,0.0131566,790,575,-3.08745,5.33263
-427,449,-3.09985,-5.64063,0.00292268,0.00530581,-0.00450199,0.00877125,-0.000542768,-0.914769,0.00603656,0.012825,797,575,-3.09985,5.64065
-420,449,-3.0918,-5.94427,0.00154917,0.00368293,-0.00283036,0.00564081,-0.000408716,-0.965634,0.00390392,0.0126822,804,575,-3.09178,5.94427
-413,449,-3.09265,-6.26392,0.000420054,0.00214782,-0.00142436,0.0029498,-0.000381927,-1.05799,0.00210542,0.00964435,811,575,-3.09266,6.26389
-406,449,-3.11737,-6.57507,-0.000308379,0.000690088,-0.000149992,0.000712134,-0.000330425,-1.42486,0.000615222,0.0087903,818,575,-3.11737,6.57509
-399,449,-3.13959,-6.87329,-0.00101794,-0.000886827,0.00109304,0.000142617,-0.00204739,0.815351,0.00141486,0.00863788,825,575,-3.13956,6.87332
-392,449,-3.12866,-7.1817,-0.0016374,-0.00282695,0.00232544,0.000168121,-0.00463247,0.660197,0.00314585,0.00946143,832,575,-3.12869,7.1817
-385,449,-3.11206,-7.49182,-0.00223467,-0.00461242,0.00348377,0.000257496,-0.00710458,0.620964,0.00482451,0.0109126,839,575,-3.11203,7.4918
-378,449,-3.11682,-7.79193,-0.00266615,-0.0066398,0.00462817,0.000383642,-0.00968959,0.582649,0.00659133,0.0099524,846,575,-3.1168,7.79194
-371,449,-3.10492,-8.08789,-0.0027195,-0.00848011,0.00549681,0.000605918,-0.0118055,0.544068,0.0080799,0.0104748,853,575,-3.10494,8.08787
-364,449,-3.12317,-8.38263,-0.00253448,-0.0110008,0.00643274,0.000932985,-0.0144683,0.494385,0.0099711,0.0205443,860,575,-3.12317,8.38261
-357,449,-3.02832,-8.53052,-0.00189648,-0.0140389,0.00725671,0.00149378,-0.0174292,0.437057,0.012148,0.0450768,867,575,-3.02832,8.53054
-350,449,-2.75812,-8.7326,0,0,0,0,0,0,0,-1,874,575,-2.75812,8.73259
-343,449,-2.79169,-8.53595,0,0,0,0,0,0,0,-1,881,575,-2.79169,8.53598
-336,449,-2.24261,-6.80829,0,0,0,0,0,0,0,-1,888,575,-2.24263,6.80832
-329,449,-0.733398,-7.78937,0,0,0,0,0,0,0,-1,895,575,-0.733398,7.78937
-322,449,-0.628845,-3.16669,0,0,0,0,0,0,0,-1,902,575,-0.628861,3.16667
-315,449,-0.540344,-3.21918,0,0,0,0,0,0,0,-1,909,575,-0.540336,3.21917
-308,449,-1.04413,-2.99341,0,0,0,0,0,0,0,-1,916,575,-1.04415,2.99338
-301,449,-1.58691,-2.80725,0,0,0,0,0,0,0,-1,923,575,-1.58692,2.80728
-294,449,-3.71118,-2.76086,0,0,0,0,0,0,0,-1,930,575,-3.71119,2.76087
-287,449,-4.4082,-2.69525,0,0,0,0,0,0,0,-1,937,575,-4.40822,2.69526
-280,449,-5.09955,-2.96295,0,0,0,0,0,0,0,-1,944,575,-5.09953,2.96297
-273,449,0,0,0,0,0,0,0,0,0,-1,951,575,0,0
-266,449,0,0,0,0,0,0,0,0,0,-1,958,575,0,0
-259,449,0,0,0,0,0,0,0,0,0,-1,965,575,0,0
-252,449,0,0,0,0,0,0,0,0,0,-1,972,575,0,0
-245,449,0,0,0,0,0,0,0,0,0,-1,979,575,0,0
-238,449,0,0,0,0,0,0,0,0,0,-1,986,575,0,0
-231,449,0,0,0,0,0,0,0,0,0,-1,993,575,0,0
-224,449,0,0,0,0,0,0,0,0,0,-1,1000,575,0,0
-217,449,0,0,0,0,0,0,0,0,0,-1,1007,575,0,0
-210,449,0,0,0,0,0,0,0,0,0,-1,1014,575,0,0
-203,449,0,0,0,0,0,0,0,0,0,-1,1021,575,0,0
-196,449,0,0,0,0,0,0,0,0,0,-1,1028,575,0,0
-189,449,0,0,0,0,0,0,0,0,0,-1,1035,575,0,0
-182,449,0,0,0,0,0,0,0,0,0,-1,1042,575,0,0
-175,449,0,0,0,0,0,0,0,0,0,-1,1049,575,0,0
-168,449,0,0,0,0,0,0,0,0,0,-1,1056,575,0,0
-161,449,0,0,0,0,0,0,0,0,0,-1,1063,575,0,0
-154,449,0,0,0,0,0,0,0,0,0,-1,1070,575,0,0
-147,449,0,0,0,0,0,0,0,0,0,-1,1077,575,0,0
-140,449,0,0,0,0,0,0,0,0,0,-1,1084,575,0,0
-133,449,0,0,0,0,0,0,0,0,0,-1,1091,575,0,0
-126,449,0,0,0,0,0,0,0,0,0,-1,1098,575,0,0
-119,449,0,0,0,0,0,0,0,0,0,-1,1105,575,0,0
-112,449,0,0,0,0,0,0,0,0,0,-1,1112,575,0,0
-105,449,0,0,0,0,0,0,0,0,0,-1,1119,575,0,0
-98,449,0,0,0,0,0,0,0,0,0,-1,1126,575,0,0
-91,449,0,0,0,0,0,0,0,0,0,-1,1133,575,0,0
-84,449,0,0,0,0,0,0,0,0,0,-1,1140,575,0,0
-77,449,0,0,0,0,0,0,0,0,0,-1,1147,575,0,0
-70,449,0,0,0,0,0,0,0,0,0,-1,1154,575,0,0
-63,449,0,0,0,0,0,0,0,0,0,-1,1161,575,0,0
-56,449,0,0,0,0,0,0,0,0,0,-1,1168,575,0,0
-49,449,0,0,0,0,0,0,0,0,0,-1,1175,575,0,0
-42,449,0,0,0,0,0,0,0,0,0,-1,1182,575,0,0
-35,449,0,0,0,0,0,0,0,0,0,-1,1189,575,0,0
-28,449,0,0,0,0,0,0,0,0,0,-1,1196,575,0,0
-21,449,0,0,0,0,0,0,0,0,0,-1,1203,575,0,0
-14,449,0,0,0,0,0,0,0,0,0,-1,1210,575,0,0
-7,449,0,0,0,0,0,0,0,0,0,-1,1217,575,0,0
0,449,0,0,0,0,0,0,0,0,0,-1,1224,575,0,0
7,449,0,0,0,0,0,0,0,0,0,-1,1231,575,0,0
14,449,0,0,0,0,0,0,0,0,0,-1,1238,575,0,0
21,449,0,0,0,0,0,0,0,0,0,-1,1245,575,0,0
28,449,0,0,0,0,0,0,0,0,0,-1,1252,575,0,0
35,449,0,0,0,0,0,0,0,0,0,-1,1259,575,0,0
42,449,0,0,0,0,0,0,0,0,0,-1,1266,575,0,0
49,449,0,0,0,0,0,0,0,0,0,-1,1273,575,0,0
56,449,0,0,0,0,0,0,0,0,0,-1,1280,575,0,0
63,449,0,0,0,0,0,0,0,0,0,-1,1287,575,0,0
70,449,0,0,0,0,0,0,0,0,0,-1,1294,575,0,0
77,449,0,0,0,0,0,0,0,0,0,-1,1301,575,0,0
84,449,0,0,0,0,0,0,0,0,0,-1,1308,575,0,0
91,449,0,0,0,0,0,0,0,0,0,-1,1315,575,0,0
98,449,0,0,0,0,0,0,0,0,0,-1,1322,575,0,0
105,449,0,0,0,0,0,0,0,0,0,-1,1329,575,0,0
112,449,0,0,0,0,0,0,0,0,0,-1,1336,575,0,0
119,449,0,0,0,0,0,0,0,0,0,-1,1343,575,0,0
126,449,0,0,0,0,0,0,0,0,0,-1,1350,575,0,0
133,449,0,0,0,0,0,0,0,0,0,-1,1357,575,0,0
140,449,0,0,0,0,0,0,0,0,0,-1,1364,575,0,0
147,449,0,0,0,0,0,0,0,0,0,-1,1371,575,0,0
154,449,0,0,0,0,0,0,0,0,0,-1,1378,575,0,0
161,449,0,0,0,0,0,0,0,0,0,-1,1385,575,0,0
168,449,0,0,0,0,0,0,0,0,0,-1,1392,575,0,0
175,449,0,0,0,0,0,0,0,0,0,-1,1399,575,0,0
182,449,0,0,0,0,0,0,0,0,0,-1,1406,575,0,0
189,449,0,0,0,0,0,0,0,0,0,-1,1413,575,0,0
196,449,0,0,0,0,0,0,0,0,0,-1,1420,575,0,0
203,449,0,0,0,0,0,0,0,0,0,-1,1427,575,0,0
210,449,0,0,0,0,0,0,0,0,0,-1,1434,575,0,0
217,449,0,0,0,0,0,0,0,0,0,-1,1441,575,0,0
224,449,0,0,0,0,0,0,0,0,0,-1,1448,575,0,0
231,449,0,0,0,0,0,0,0,0,0,-1,1455,575,0,0
238,449,0,0,0,0,0,0,0,0,0,-1,1462,575,0,0
245,449,0,0,0,0,0,0,0,0,0,-1,1469,575,0,0
252,449,0,0,0,0,0,0,0,0,0,-1,1476,575,0,0
259,449,0,0,0,0,0,0,0,0,0,-1,1483,575,0,0
266,449,0,0,0,0,0,0,0,0,0,-1,1490,575,0,0
273,449,0,0,0,0,0,0,0,0,0,-1,1497,575,0,0
280,449,0,0,0,0,0,0,0,0,0,-1,1504,575,0,0
287,449,0,0,0,0,0,0,0,0,0,-1,1511,575,0,0
294,449,0,0,0,0,0,0,0,0,0,-1,1518,575,0,0
301,449,0,0,0,0,0,0,0,0,0,-1,1525,575,0,0
308,449,0,0,0,0,0,0,0,0,0,-1,1532,575,0,0
315,449,0,0,0,0,0,0,0,0,0,-1,1539,575,0,0
322,449,0,0,0,0,0,0,0,0,0,-1,1546,575,0,0
329,449,0,0,0,0,0,0,0,0,0,-1,1553,575,0,0
336,449,0,0,0,0,0,0,0,0,0,-1,1560,575,0,0
343,449,0,0,0,0,0,0,0,0,0,-1,1567,575,0,0
350,449,0,0,0,0,0,0,0,0,0,-1,1574,575,0,0
357,449,0,0,0,0,0,0,0,0,0,-1,1581,575,0,0
364,449,0,0,0,0,0,0,0,0,0,-1,1588,575,0,0
371,449,0,0,0,0,0,0,0,0,0,-1,1595,575,0,0
378,449,0,0,0,0,0,0,0,0,0,-1,1602,575,0,0
385,449,0,0,0,0,0,0,0,0,0,-1,1609,575,0,0
392,449,7.95471,3.66217,0,0,0,0,0,0,0,-1,1616,575,7.95471,-3.66218
399,449,19.9791,5.565,0,0,0,0,0,0,0,-1,1623,575,19.9791,-5.56499
406,449,22.5933,4.73688,0,0,0,0,0,0,0,-1,1630,575,22.5933,-4.7369
413,449,23.5795,3.19586,0,0,0,0,0,0,0,-1,1637,575,23.5795,-3.19584
420,449,23.9675,1.29718,0,0,0,0,0,0,0,-1,1644,575,23.9675,-1.29721
427,449,24.4276,-0.596558,0,0,0,0,0,0,0,-1,1651,575,24.4277,0.596569
434,449,25.61,-2.96594,0,0,0,0,0,0,0,-1,1658,575,25.61,2.96595
441,449,3.89856,-6.06458,0,0,0,0,0,0,0,-1,1665,575,3.89855,6.06459
448,449,4.03198,-5.18207,0,0,0,0,0,0,0,-1,1672,575,4.03197,5.18207
455,449,4.21948,-4.09467,0,0,0,0,0,0,0,-1,1679,575,4.21952,4.09465
462,449,4.23181,-2.96924,0,0,0,0,0,0,0,-1,1686,575,4.23185,2.96926
469,449,4.51672,-2.95135,0,0,0,0,0,0,0,-1,1693,575,4.51672,2.95135
476,449,4.71838,-1.86688,0,0,0,0,0,0,0,-1,1700,575,4.71842,1.86689
483,449,4.87878,-1.73126,0,0,0,0,0,0,0,-1,1707,575,4.87875,1.73128
490,449,5.73279,-2.74573,0,0,0,0,0,0,0,-1,1714,575,5.73282,2.74575
497,449,9.60828,-6.91565,0,0,0,0,0,0,0,-1,1721,575,9.60825,6.91566
504,449,9.59009,-6.35425,0.00494657,0.00476407,0.00363569,0.00849216,0.00121848,0.772852,0.00530215,0.0436909,1728,575,9.59008,6.35426
511,449,9.64441,-5.99634,0.00406108,0.00359169,0.00291087,0.0067467,0.000906064,0.745172,0.00422826,0.0110789,1735,575,9.64441,5.99632
518,449,9.65881,-5.65692,0.00322833,0.00275195,0.0023201,0.00532243,0.000657848,0.734246,0.0033506,0.0126698,1742,575,9.65881,5.65694
525,449,9.63794,-5.3277,0.00236415,0.00221059,0.0018184,0.00410739,0.000467355,0.764298,0.00259653,0.0121211,1749,575,9.63797,5.32769
532,449,9.62671,-5.0025,0.00152257,0.00177583,0.00138312,0.0030381,0.0002603,0.831049,0.00194445,0.00975425,1756,575,9.62672,5.00251
539,449,9.60535,-4.64655,0.000763729,0.00134501,0.00099036,0.00208649,2.22428e-05,0.928125,0.00138364,0.0131983,1763,575,9.60532,4.64655
546,449,9.59387,-4.31079,0.00021305,0.00135578,0.000920145,0.00186752,-0.000298694,1.06324,0.00135559,0.0225162,1770,575,9.59392,4.31079
553,449,9.59277,-3.99829,-0.000253526,0.00152654,0.00096516,0.00194941,-0.000676387,1.15786,0.00157427,0.0153945,1777,575,9.59282,3.99827
560,449,9.61877,-3.66895,-0.000678267,0.00178,0.00114356,0.0022297,-0.00112797,1.19612,0.00197303,0.0132739,1784,575,9.61875,3.66894
567,449,9.59961,-3.33923,-0.000922158,0.00228184,0.00154982,0.00290882,-0.00154914,1.18637,0.0026134,0.00952002,1791,575,9.59958,3.33924
574,449,9.59583,-2.96228,-0.00106705,0.00299133,0.00215927,0.00392526,-0.00200098,1.16257,0.00348112,0.0210746,1798,575,9.59587,2.96228
581,449,9.64661,-2.4812,0,0,0,0,0,0,0,-1,1805,575,9.64655,2.48122
588,449,9.53125,-1.98846,0,0,0,0,0,0,0,-1,1812,575,9.53122,1.98848
595,449,9.93152,-1.25702,0,0,0,0,0,0,0,-1,1819,575,9.93153,1.257
602,449,9.46167,4.17444,0,0,0,0,0,0,0,-1,1826,575,9.46164,-4.17442
609,449,12.2028,3.18652,0,0,0,0,0,0,0,-1,1833,575,12.2027,-3.18655
616,449,14.9438,2.19867,0,0,0,0,0,0,0,-1,1840,575,14.9438,-2.19867
623,449,9.83789,-0.0820313,0,0,0,0,0,0,0,-1,1847,575,9.83794,0.0820443
630,449,8.90686,4.99329,0,0,0,0,0,0,0,-1,1854,575,8.90685,-4.99327
637,449,0,0,0,0,0,0,0,0,0,-1,1861,575,0,0
644,449,0,0,0,0,0,0,0,0,0,-1,1868,575,0,0
651,449,0,0,0,0,0,0,0,0,0,-1,1875,575,0,0
658,449,0,0,0,0,0,0,0,0,0,-1,1882,575,0,0
665,449,0,0,0,0,0,0,0,0,0,-1,1889,575,0,0
672,449,0,0,0,0,0,0,0,0,0,-1,1896,575,0,0
679,449,0,0,0,0,0,0,0,0,0,-1,1903,575,0,0
686,449,0,0,0,0,0,0,0,0,0,-1,1910,575,0,0
693,449,0,0,0,0,0,0,0,0,0,-1,1917,575,0,0
700,449,0,0,0,0,0,0,0,0,0,-1,1924,575,0,0
707,449,0,0,0,0,0,0,0,0,0,-1,1931,575,0,0
714,449,0,0,0,0,0,0,0,0,0,-1,1938,575,0,0
721,449,0,0,0,0,0,0,0,0,0,-1,1945,575,0,0
728,449,0,0,0,0,0,0,0,0,0,-1,1952,575,0,0
735,449,0,0,0,0,0,0,0,0,0,-1,1959,575,0,0
742,449,0,0,0,0,0,0,0,0,0,-1,1966,575,0,0
749,449,0,0,0,0,0,0,0,0,0,-1,1973,575,0,0
756,449,0,0,0,0,0,0,0,0,0,-1,1980,575,0,0
763,449,0,0,0,0,0,0,0,0,0,-1,1987,575,0,0
770,449,0,0,0,0,0,0,0,0,0,-1,1994,575,0,0
777,449,0,0,0,0,0,0,0,0,0,-1,2001,575,0,0
784,449,0,0,0,0,0,0,0,0,0,-1,2008,575,0,0
791,449,0,0,0,0,0,0,0,0,0,-1,2015,575,0,0
798,449,0,0,0,0,0,0,0,0,0,-1,2022,575,0,0
805,449,0,0,0,0,0,0,0,0,0,-1,2029,575,0,0
812,449,0,0,0,0,0,0,0,0,0,-1,2036,575,0,0
-700,442,0,0,0,0,0,0,0,0,0,-1,524,582,0,0
-693,442,0,0,0,0,0,0,0,0,0,-1,531,582,0,0
-686,442,0,0,0,0,0,0,0,0,0,-1,538,582,0,0
-679,442,0,0,0,0,0,0,0,0,0,-1,545,582,0,0
-672,442,0,0,0,0,0,0,0,0,0,-1,552,582,0,0
-665,442,0,0,0,0,0,0,0,0,0,-1,559,582,0,0
-658,442,0,0,0,0,0,0,0,0,0,-1,566,582,0,0
-651,442,0,0,0,0,0,0,0,0,0,-1,573,582,0,0
-644,442,0,0,0,0,0,0,0,0,0,-1,580,582,0,0
-637,442,0,0,0,0,0,0,0,0,0,-1,587,582,0,0
-630,442,0,0,0,0,0,0,0,0,0,-1,594,582,0,0
-623,442,0,0,0,0,0,0,0,0,0,-1,601,582,0,0
-616,442,0,0,0,0,0,0,0,0,0,-1,608,582,0,0
-609,442,0,0,0,0,0,0,0,0,0,-1,615,582,0,0
-602,442,0,0,0,0,0,0,0,0,0,-1,622,582,0,0
-595,442,0,0,0,0,0,0,0,0,0,-1,629,582,0,0
-588,442,0,0,0,0,0,0,0,0,0,-1,636,582,0,0
-581,442,0,0,0,0,0,0,0,0,0,-1,643,582,0,0
-574,442,0,0,0,0,0,0,0,0,0,-1,650,582,0,0
-567,442,0,0,0,0,0,0,0,0,0,-1,657,582,0,0
-560,442,0,0,0,0,0,0,0,0,0,-1,664,582,0,0
-553,442,0,0,0,0,0,0,0,0,0,-1,671,582,0,0
-546,442,0,0,0,0,0,0,0,0,0,-1,678,582,0,0
-539,442,0,0,0,0,0,0,0,0,0,-1,685,582,0,0
-532,442,0,0,0,0,0,0,0,0,0,-1,692,582,0,0
-525,442,0,0,0,0,0,0,0,0,0,-1,699,582,0,0
-518,442,-0.493774,-5.72943,0,0,0,0,0,0,0,-1,706,582,-0.493791,5.72946
-511,442,-1.33008,-6.18512,0,0,0,0,0,0,0,-1,713,582,-1.33006,6.18511
-504,442,-3.20807,-6.34082,0,0,0,0,0,0,0,-1,720,582,-3.2081,6.34083
-497,442,-13.6886,-0.250122,0,0,0,0,0,0,0,-1,727,582,-13.6886,0.250143
-490,442,-9.09039,-3.64862,0,0,0,0,0,0,0,-1,734,582,-9.09037,3.64861
-483,442,-7.3457,-0.569519,0,0,0,0,0,0,0,-1,741,582,-7.34569,0.5695
-476,442,-3.43018,-2.74347,0,0,0,0,0,0,0,-1,748,582,-3.43019,2.74346
-469,442,-3.53326,-3.37463,0,0,0,0,0,0,0,-1,755,582,-3.53325,3.37461
-462,442,-3.31213,-4.03308,0.0126782,0.0109822,-0.0125938,0.0244525,-0.000792162,-0.751783,0.0165721,0.0381096,762,582,-3.31212,4.03308
-455,442,-3.44489,-4.3949,0.00938101,0.00914507,-0.0100417,0.0193054,-0.000779327,-0.779525,0.0131378,0.0290466,769,582,-3.44489,4.39491
-448,442,-3.37946,-4.70428,0.00679633,0.00764913,-0.00787959,0.0151139,-0.00066839,-0.812429,0.0103059,0.014912,776,582,-3.37943,4.70428
-441,442,-3.37653,-5.0116,0.00488899,0.00637693,-0.00616214,0.0118398,-0.000573924,-0.845474,0.00809133,0.0139591,783,582,-3.37653,5.01158
-434,442,-3.38879,-5.32471,0.00332221,0.00480203,-0.00450934,0.00863176,-0.000507524,-0.866716,0.00593093,0.0132377,790,582,-3.38876,5.32471
-427,442,-3.40417,-5.63458,0.00199369,0.00340008,-0.00291299,0.00569355,-0.000299781,-0.903832,0.00389947,0.0135935,797,582,-3.40416,5.63457
-420,442,-3.40088,-5.9483,0.000649581,0.00196602,-0.00140037,0.00285515,-0.000239553,-1.00509,0.0019881,0.0143763,804,582,-3.40086,5.94828
-413,442,-3.38867,-6.25745,-0.000542453,0.000543044,-5.57885e-05,0.000545904,-0.000545312,-1.51958,0.000630014,0.0115482,811,582,-3.38865,6.25742
-406,442,-3.41425,-6.56818,-0.00132701,-0.000842391,0.00118193,0.000121807,-0.00229121,0.886504,0.00156965,0.00900987,818,582,-3.41425,6.56818
-399,442,-3.4411,-6.87561,-0.00215112,-0.00241589,0.00244269,0.00016277,-0.00472978,0.758326,0.00320882,0.00826846,825,582,-3.4411,6.87561
-392,442,-3.4364,-7.17139,-0.00292803,-0.00439962,0.00373542,0.000143376,-0.00747103,0.688155,0.00502916,0.0105283,832,582,-3.43638,7.17137
-385,442,-3.4212,-7.47955,-0.00378453,-0.00636595,0.00505643,0.00014333,-0.0102938,0.660436,0.00691081,0.0128369,839,582,-3.42118,7.47954
-378,442,-3.41589,-7.78979,-0.00457101,-0.00870857,0.00643977,0.000124124,-0.0134037,0.629979,0.00897746,0.0128211,846,582,-3.41588,7.78982
-371,442,-3.4021,-8.11212,-0.00501155,-0.0108635,0.00760997,0.000215568,-0.0160906,0.601865,0.0107997,0.0237609,853,582,-3.40208,8.11214
-364,442,-3.61774,-8.36261,-0.00526817,-0.0141102,0.0089827,0.00032253,-0.0197009,0.556717,0.0132427,0.0392536,860,582,-3.61774,8.36259
-357,442,-3.41656,-8.61255,0,0,0,0,0,0,0,-1,867,582,-3.41657,8.61256
-350,442,-1.75372,-6.27618,0,0,0,0,0,0,0,-1,874,582,-1.75371,6.27618
-343,442,-1.4599,-4.63605,0,0,0,0,0,0,0,-1,881,582,-1.4599,4.63607
-336,442,-1.4054,-2.64313,0,0,0,0,0,0,0,-1,888,582,-1.40539,2.64315
-329,442,-0.952576,-2.76923,0,0,0,0,0,0,0,-1,895,582,-0.952571,2.7692
-322,442,-0.972534,-2.63208,0,0,0,0,0,0,0,-1,902,582,-0.972512,2.6321
-315,442,-0.445557,-2.89764,0,0,0,0,0,0,0,-1,909,582,-0.445582,2.89765
-308,442,-0.654175,-3.07831,0,0,0,0,0,0,0,-1,916,582,-0.654145,3.07832
-301,442,-1.37427,-2.41455,0,0,0,0,0,0,0,-1,923,582,-1.37425,2.41453
-294,442,-2.99963,-2.07855,0,0,0,0,0,0,0,-1,930,582,-2.99964,2.07857
-287,442,-5.62799,-2.76422,0,0,0,0,0,0,0,-1,937,582,-5.628,2.76424
-280,442,0,0,0,0,0,0,0,0,0,-1,944,582,0,0
-273,442,0,0,0,0,0,0,0,0,0,-1,951,582,0,0
-266,442,0,0,0,0,0,0,0,0,0,-1,958,582,0,0
-259,442,0,0,0,0,0,0,0,0,0,-1,965,582,0,0
-252,442,0,0,0,0,0,0,0,0,0,-1,972,582,0,0
-245,442,0,0,0,0,0,0,0,0,0,-1,979,582,0,0
-238,442,0,0,0,0,0,0,0,0,0,-1,986,582,0,0
-231,442,0,0,0,0,0,0,0,0,0,-1,993,582,0,0
-224,442,0,0,0,0,0,0,0,0,0,-1,1000,582,0,0
-217,442,0,0,0,0,0,0,0,0,0,-1,1007,582,0,0
-210,442,0,0,0,0,0,0,0,0,0,-1,1014,582,0,0
-203,442,0,0,0,0,0,0,0,0,0,-1,1021,582,0,0
-196,442,0,0,0,0,0,0,0,0,0,-1,1028,582,0,0
-189,442,0,0,0,0,0,0,0,0,0,-1,1035,582,0,0
-182,442,0,0,0,0,0,0,0,0,0,-1,1042,582,0,0
-175,442,0,0,0,0,0,0,0,0,0,-1,1049,582,0,0
-168,442,0,0,0,0,0,0,0,0,0,-1,1056,582,0,0
-161,442,0,0,0,0,0,0,0,0,0,-1,1063,582,0,0
-154,442,0,0,0,0,0,0,0,0,0,-1,1070,582,0,0
-147,442,0,0,0,0,0,0,0,0,0,-1,1077,582,0,0
-140,442,0,0,0,0,0,0,0,0,0,-1,1084,582,0,0
-133,442,0,0,0,0,0,0,0,0,0,-1,1091,582,0,0
-126,442,0,0,0,0,0,0,0,0,0,-1,1098,582,0,0
-119,442,0,0,0,0,0,0,0,0,0,-1,1105,582,0,0
-112,442,0,0,0,0,0,0,0,0,0,-1,1112,582,0,0
-105,442,0,0,0,0,0,0,0,0,0,-1,1119,582,0,0
-98,442,0,0,0,0,0,0,0,0,0,-1,1126,582,0,0
-91,442,0,0,0,0,0,0,0,0,0,-1,1133,582,0,0
-84,442,0,0,0,0,0,0,0,0,0,-1,1140,582,0,0
-77,442,0,0,0,0,0,0,0,0,0,-1,1147,582,0,0
-70,442,0,0,0,0,0,0,0,0,0,-1,1154,582,0,0
-63,442,0,0,0,0,0,0,0,0,0,-1,1161,582,0,0
-56,442,0,0,0,0,0,0,0,0,0,-1,1168,582,0,0
-49,442,0,0,0,0,0,0,0,0,0,-1,1175,582,0,0
-42,442,0,0,0,0,0,0,0,0,0,-1,1182,582,0,0
-35,442,0,0,0,0,0,0,0,0,0,-1,1189,582,0,0
-28,442,0,0,0,0,0,0,0,0,0,-1,1196,582,0,0
-21,442,0,0,0,0,0,0,0,0,0,-1,1203,582,0,0
-14,442,0,0,0,0,0,0,0,0,0,-1,1210,582,0,0
-7,442,0,0,0,0,0,0,0,0,0,-1,1217,582,0,0
0,442,0,0,0,0,0,0,0,0,0,-1,1224,582,0,0
7,442,0,0,0,0,0,0,0,0,0,-1,1231,582,0,0
14,442,0,0,0,0,0,0,0,0,0,-1,1238,582,0,0
21,442,0,0,0,0,0,0,0,0,0,-1,1245,582,0,0
28,442,0,0,0,0,0,0,0,0,0,-1,1252,582,0,0
35,442,0,0,0,0,0,0,0,0,0,-1,1259,582,0,0
42,442,0,0,0,0,0,0,0,0,0,-1,1266,582,0,0
49,442,0,0,0,0,0,0,0,0,0,-1,1273,582,0,0
56,442,0,0,0,0,0,0,0,0,0,-1,1280,582,0,0
63,442,0,0,0,0,0,0,0,0,0,-1,1287,582,0,0
70,442,0,0,0,0,0,0,0,0,0,-1,1294,582,0,0
77,442,0,0,0,0,0,0,0,0,0,-1,1301,582,0,0
84,442,0,0,0,0,0,0,0,0,0,-1,1308,582,0,0
91,442,0,0,0,0,0,0,0,0,0,-1,1315,582,0,0
98,442,0,0,0,0,0,0,0,0,0,-1,1322,582,0,0
105,442,0,0,0,0,0,0,0,0,0,-1,1329,582,0,0
112,442,0,0,0,0,0,0,0,0,0,-1,1336,582,0,0
119,442,0,0,0,0,0,0,0,0,0,-1,1343,582,0,0
126,442,0,0,0,0,0,0,0,0,0,-1,1350,582,0,0
133,442,0,0,0,0,0,0,0,0,0,-1,1357,582,0,0
140,442,0,0,0,0,0,0,0,0,0,-1,1364,582,0,0
147,442,0,0,0,0,0,0,0,0,0,-1,1371,582,0,0
154,442,0,0,0,0,0,0,0,0,0,-1,1378,582,0,0
161,442,0,0,0,0,0,0,0,0,0,-1,1385,582,0,0
168,442,0,0,0,0,0,0,0,0,0,-1,1392,582,0,0
175,442,0,0,0,0,0,0,0,0,0,-1,1399,582,0,0
182,442,0,0,0,0,0,0,0,0,0,-1,1406,582,0,0
189,442,0,0,0,0,0,0,0,0,0,-1,1413,582,0,0
196,442,0,0,0,0,0,0,0,0,0,-1,1420,582,0,0
203,442,0,0,0,0,0,0,0,0,0,-1,1427,582,0,0
210,442,0,0,0,0,0,0,0,0,0,-1,1434,582,0,0
217,442,0,0,0,0,0,0,0,0,0,-1,1441,582,0,0
224,442,0,0,0,0,0,0,0,0,0,-1,1448,582,0,0
231,442,0,0,0,0,0,0,0,0,0,-1,1455,582,0,0
238,442,0,0,0,0,0,0,0,0,0,-1,1462,582,0,0
245,442,0,0,0,0,0,0,0,0,0,-1,1469,582,0,0
252,442,0,0,0,0,0,0,0,0,0,-1,1476,582,0,0
259,442,0,0,0,0,0,0,0,0,0,-1,1483,582,0,0
266,442,0,0,0,0,0,0,0,0,0,-1,1490,582,0,0
273,442,0,0,0,0,0,0,0,0,0,-1,1497,582,0,0
280,442,0,0,0,0,0,0,0,0,0,-1,1504,582,0,0
287,442,0,0,0,0,0,0,0,0,0,-1,1511,582,0,0
294,442,0,0,0,0,0,0,0,0,0,-1,1518,582,0,0
301,442,0,0,0,0,0,0,0,0,0,-1,1525,582,0,0
308,442,0,0,0,0,0,0,0,0,0,-1,1532,582,0,0
315,442,0,0,0,0,0,0,0,0,0,-1,1539,582,0,0
322,442,0,0,0,0,0,0,0,0,0,-1,1546,582,0,0
329,442,0,0,0,0,0,0,0,0,0,-1,1553,582,0,0
336,442,0,0,0,0,0,0,0,0,0,-1,1560,582,0,0
343,442,0,0,0,0,0,0,0,0,0,-1,1567,582,0,0
350,442,0,0,0,0,0,0,0,0,0,-1,1574,582,0,0
357,442,0,0,0,0,0,0,0,0,0,-1,1581,582,0,0
364,442,0,0,0,0,0,0,0,0,0,-1,1588,582,0,0
371,442,0,0,0,0,0,0,0,0,0,-1,1595,582,0,0
378,442,0,0,0,0,0,0,0,0,0,-1,1602,582,0,0
385,442,0,0,0,0,0,0,0,0,0,-1,1609,582,0,0
392,442,0,0,0,0,0,0,0,0,0,-1,1616,582,0,0
399,442,0,0,0,0,0,0,0,0,0,-1,1623,582,0,0
406,442,17.6321,4.08295,0,0,0,0,0,0,0,-1,1630,582,17.6321,-4.08293
413,442,22.1273,3.56525,0,0,0,0,0,0,0,-1,1637,582,22.1273,-3.56525
420,442,22.7478,1.55011,0,0,0,0,0,0,0,-1,1644,582,22.7478,-1.55009
427,442,23.2969,-0.456787,0,0,0,0,0,0,0,-1,1651,582,23.2968,0.456769
434,442,23.9512,-2.49365,0,0,0,0,0,0,0,-1,1658,582,23.9512,2.49366
441,442,24.8251,-4.43958,0,0,0,0,0,0,0,-1,1665,582,24.8251,4.43956
448,442,4.7749,-5.88562,0,0,0,0,0,0,0,-1,1672,582,4.7749,5.8856
455,442,4.87024,-4.60687,0,0,0,0,0,0,0,-1,1679,582,4.87019,4.60686
462,442,5.02307,-3.72821,0,0,0,0,0,0,0,-1,1686,582,5.02311,3.7282
469,442,5.12976,-2.98834,0,0,0,0,0,0,0,-1,1693,582,5.12971,2.98834
476,442,5.4624,1.76947,0,0,0,0,0,0,0,-1,1700,582,5.46234,-1.76944
483,442,5.98486,1.87042,0,0,0,0,0,0,0,-1,1707,582,5.98492,-1.87045
490,442,5.04407,-2.35834,0,0,0,0,0,0,0,-1,1714,582,5.04411,2.35837
497,442,6.20984,-3.07831,0,0,0,0,0,0,0,-1,1721,582,6.2098,3.07833
504,442,9.86499,-6.39178,0,0,0,0,0,0,0,-1,1728,582,9.86502,6.3918
511,442,9.90161,-6.02325,0.004789,0.00423911,0.00341142,0.00793654,0.00109158,0.745187,0.00496731,0.0267328,1735,582,9.90163,6.02324
518,442,9.97937,-5.65436,0.00395146,0.00319945,0.00271813,0.00631946,0.000831443,0.716668,0.00396499,0.0110375,1742,582,9.97935,5.65435
525,442,9.96277,-5.33142,0.00308282,0.00254641,0.00215354,0.00498479,0.000644438,0.723447,0.00313057,0.0103085,1749,582,9.96272,5.33144
532,442,9.96753,-4.98871,0.00223977,0.00197955,0.00165707,0.00377183,0.000447487,0.746219,0.00237946,0.00998244,1756,582,9.96756,4.98872
539,442,9.9624,-4.64594,0.00146814,0.00144415,0.00119105,0.00264726,0.000265035,0.780363,0.00168346,0.0116802,1763,582,9.96235,4.64593
546,442,9.95215,-4.3385,0.000889222,0.00130769,0.00101779,0.00213753,5.93846e-05,0.886775,0.00140564,0.0149751,1770,582,9.95211,4.33852
553,442,9.93713,-4.01666,0.000399718,0.00135666,0.000984967,0.00197322,-0.000216844,1.0115,0.0013934,0.0150393,1777,582,9.93708,4.01667
560,442,9.94983,-3.67554,-6.84562e-05,0.00150648,0.00107994,0.00205557,-0.00061754,1.10042,0.00161604,0.0145247,1784,582,9.9498,3.67555
567,442,9.92505,-3.32458,-0.000374095,0.00190924,0.0013837,0.00256146,-0.00102632,1.13032,0.00213368,0.0102263,1791,582,9.92506,3.32456
574,442,9.91492,-2.98871,-0.000574219,0.00251615,0.00187746,0.00340252,-0.00146059,1.12971,0.00288137,0.0122427,1798,582,9.91491,2.98872
581,442,9.95337,-2.59882,-0.000676157,0.00343237,0.00264634,0.0047282,-0.00197198,1.11545,0.00397596,0.0210915,1805,582,9.95339,2.5988
588,442,9.89587,-2.39642,-0.000602473,0.00469167,0.00369936,0.00659347,-0.00250428,1.09594,0.00542657,0.0337225,1812,582,9.8959,2.39645
595,442,9.95215,-1.74066,-0.000451928,0.00658563,0.00506273,0.00923232,-0.00309862,1.08909,0.00740704,0.0466391,1819,582,9.95211,1.74064
602,442,9.80334,-1.17517,0,0,0,0,0,0,0,-1,1826,582,9.80332,1.17516
609,442,12.761,2.97223,0,0,0,0,0,0,0,-1,1833,582,12.761,-2.97221
616,442,9.78345,-0.103394,0,0,0,0,0,0,0,-1,1840,582,9.78341,0.103424
623,442,9.23828,0.326721,0,0,0,0,0,0,0,-1,1847,582,9.23829,-0.326727
630,442,7.74304,2.3924,0,0,0,0,0,0,0,-1,1854,582,7.7431,-2.39238
637,442,5.87805,1.84027,0,0,0,0,0,0,0,-1,1861,582,5.87807,-1.84025
644,442,0,0,0,0,0,0,0,0,0,-1,1868,582,0,0
651,442,0,0,0,0,0,0,0,0,0,-1,1875,582,0,0
658,442,0,0,0,0,0,0,0,0,0,-1,1882,582,0,0
665,442,0,0,0,0,0,0,0,0,0,-1,1889,582,0,0
672,442,0,0,0,0,0,0,0,0,0,-1,1896,582,0,0
679,442,0,0,0,0,0,0,0,0,0,-1,1903,582,0,0
686,442,0,0,0,0,0,0,0,0,0,-1,1910,582,0,0
693,442,0,0,0,0,0,0,0,0,0,-1,1917,582,0,0
700,442,0,0,0,0,0,0,0,0,0,-1,1924,582,0,0
707,442,0,0,0,0,0,0,0,0,0,-1,1931,582,0,0
714,442,0,0,0,0,0,0,0,0,0,-1,1938,582,0,0
721,442,0,0,0,0,0,0,0,0,0,-1,1945,582,0,0
728,442,0,0,0,0,0,0,0,0,0,-1,1952,582,0,0
735,442,0,0,0,0,0,0,0,0,0,-1,1959,582,0,0
742,442,0,0,0,0,0,0,0,0,0,-1,1966,582,0,0
749,442,0,0,0,0,0,0,0,0,0,-1,1973,582,0,0
756,442,0,0,0,0,0,0,0,0,0,-1,1980,582,0,0
763,442,0,0,0,0,0,0,0,0,0,-1,1987,582,0,0
770,442,0,0,0,0,0,0,0,0,0,-1,1994,582,0,0
777,442,0,0,0,0,0,0,0,0,0,-1,2001,582,0,0
784,442,0,0,0,0,0,0,0,0,0,-1,2008,582,0,0
791,442,0,0,0,0,0,0,0,0,0,-1,2015,582,0,0
798,442,0,0,0,0,0,0,0,0,0,-1,2022,582,0,0
805,442,0,0,0,0,0,0,0,0,0,-1,2029,582,0,0
812,442,0,0,0,0,0,0,0,0,0,-1,2036,582,0,0
-700,435,0,0,0,0,0,0,0,0,0,-1,524,589,0,0
-693,435,0,0,0,0,0,0,0,0,0,-1,531,589,0,0
-686,435,0,0,0,0,0,0,0,0,0,-1,538,589,0,0
-679,435,0,0,0,0,0,0,0,0,0,-1,545,589,0,0
-672,435,0,0,0,0,0,0,0,0,0,-1,552,589,0,0
-665,435,0,0,0,0,0,0,0,0,0,-1,559,589,0,0
-658,435,0,0,0,0,0,0,0,0,0,-1,566,589,0,0
-651,435,0,0,0,0,0,0,0,0,0,-1,573,589,0,0
-644,435,0,0,0,0,0,0,0,0,0,-1,580,589,0,0
-637,435,0,0,0,0,0,0,0,0,0,-1,587,589,0,0
-630,435,0,0,0,0,0,0,0,0,0,-1,594,589,0,0
-623,435,0,0,0,0,0,0,0,0,0,-1,601,589,0,0
-616,435,0,0,0,0,0,0,0,0,0,-1,608,589,0,0
-609,435,0,0,0,0,0,0,0,0,0,-1,615,589,0,0
-602,435,0,0,0,0,0,0,0,0,0,-1,622,589,0,0
-595,435,0,0,0,0,0,0,0,0,0,-1,629,589,0,0
-588,435,0,0,0,0,0,0,0,0,0,-1,636,589,0,0
-581,435,0,0,0,0,0,0,0,0,0,-1,643,589,0,0
-574,435,0,0,0,0,0,0,0,0,0,-1,650,589,0,0
-567,435,0,0,0,0,0,0,0,0,0,-1,657,589,0,0
-560,435,0,0,0,0,0,0,0,0,0,-1,664,589,0,0
-553,435,0,0,0,0,0,0,0,0,0,-1,671,589,0,0
-546,435,0,0,0,0,0,0,0,0,0,-1,678,589,0,0
-539,435,0,0,0,0,0,0,0,0,0,-1,685,589,0,0
-532,435,0,0,0,0,0,0,0,0,0,-1,692,589,0,0
-525,435,-10.0776,10.0547,0,0,0,0,0,0,0,-1,699,589,-10.0776,-10.0547
-518,435,-1.83093,-5.82367,0,0,0,0,0,0,0,-1,706,589,-1.83093,5.8237
-511,435,-2.45154,-5.33118,0,0,0,0,0,0,0,-1,713,589,-2.45151,5.33115
-504,435,-3.07208,-4.83862,0,0,0,0,0,0,0,-1,720,589,-3.0721,4.8386
-497,435,-6.31012,-5.84698,0,0,0,0,0,0,0,-1,727,589,-6.31012,5.84697
-490,435,-5.81903,-0.458679,0,0,0,0,0,0,0,-1,734,589,-5.81902,0.458684
-483,435,-6.2019,-1.34552,0,0,0,0,0,0,0,-1,741,589,-6.20193,1.34554
-476,435,-3.94159,-3.1629,0,0,0,0,0,0,0,-1,748,589,-3.94159,3.16292
-469,435,-3.74188,-3.54688,0.0139659,0.00989553,-0.0121552,0.0242551,-0.000393709,-0.702451,0.0163029,0.0313589,755,589,-3.74189,3.54685
-462,435,-3.62695,-4.04626,0.01047,0.00826684,-0.00973001,0.0191606,-0.00042375,-0.729031,0.0129173,0.0167979,762,589,-3.62694,4.04624
-455,435,-3.71368,-4.3537,0.0077798,0.00674447,-0.00769369,0.0149732,-0.000448955,-0.751807,0.0101351,0.015413,769,589,-3.71367,4.35368
-448,435,-3.69617,-4.69141,0.00557634,0.00552422,-0.0059053,0.0114556,-0.000355078,-0.783192,0.00775816,0.0133174,776,589,-3.69614,4.6914
-441,435,-3.68359,-5.00452,0.00386929,0.00452631,-0.00448159,0.00869142,-0.000295809,-0.821984,0.00589536,0.0111911,783,589,-3.68357,5.0045
-434,435,-3.69611,-5.31006,0.00242044,0.00316757,-0.00303447,0.00585138,-0.00026337,-0.846644,0.00399161,0.0126992,790,589,-3.69611,5.31005
-427,435,-3.71643,-5.63733,0.00114952,0.00190171,-0.00155929,0.00312963,-7.83952e-05,-0.903736,0.00211303,0.010625,797,589,-3.71644,5.63731
-420,435,-3.71118,-5.94171,-0.000179009,0.00057107,-0.000155126,0.000601886,-0.000209825,-1.3747,0.000486522,0.0107429,804,589,-3.7112,5.94172
-413,435,-3.70831,-6.25586,-0.00146649,-0.000832126,0.00118564,7.80278e-05,-0.00237664,0.916096,0.00161107,0.0109189,811,589,-3.7083,6.25588
-406,435,-3.71741,-6.56573,-0.00237974,-0.00224917,0.0024547,0.000141115,-0.00477002,0.798693,0.00322808,0.0102461,818,589,-3.7174,6.56575
-399,435,-3.73395,-6.8642,-0.00339787,-0.00392788,0.00380247,0.00014882,-0.00747457,0.750607,0.00503339,0.00885968,825,589,-3.73396,6.86421
-392,435,-3.74689,-7.16345,-0.00442423,-0.00605494,0.00522972,5.33136e-05,-0.0105325,0.708066,0.00703949,0.0104433,832,589,-3.74688,7.16344
-385,435,-3.74072,-7.47717,-0.00565839,-0.00834803,0.00681132,-6.04e-05,-0.013946,0.687932,0.00927728,0.013709,839,589,-3.74072,7.47718
-378,435,-3.73083,-7.74561,-0.00698537,-0.0111991,0.00857563,-0.000261608,-0.0179229,0.664943,0.0118624,0.022757,846,589,-3.73082,7.74559
-371,435,-3.7644,-7.89844,-0.0080273,-0.0139137,0.0102295,-0.000326003,-0.021615,0.645323,0.0143026,0.0409699,853,589,-3.76441,7.89846
-364,435,-4.32056,-7.98022,-0.00899376,-0.018181,0.012272,-0.000483798,-0.026691,0.606313,0.0176349,0.0460287,860,589,-4.32059,7.98021
-357,435,-4.72681,-8.23859,0,0,0,0,0,0,0,-1,867,589,-4.72683,8.23861
-350,435,-0.86676,-3.69836,0,0,0,0,0,0,0,-1,874,589,-0.866784,3.69834
-343,435,-1.60706,-2.36835,0,0,0,0,0,0,0,-1,881,589,-1.60706,2.36838
-336,435,-2.07263,-1.94012,0,0,0,0,0,0,0,-1,888,589,-2.07265,1.94014
-329,435,-2.55963,-1.5517,0,0,0,0,0,0,0,-1,895,589,-2.5596,1.55168
-322,435,-3.08545,-1.55255,0,0,0,0,0,0,0,-1,902,589,-3.08544,1.55254
-315,435,-0.404297,-2.63763,0,0,0,0,0,0,0,-1,909,589,-0.404276,2.63761
-308,435,-1.70056,-1.90369,0,0,0,0,0,0,0,-1,916,589,-1.70056,1.90367
-301,435,-1.25232,-2.05511,0,0,0,0,0,0,0,-1,923,589,-1.25234,2.05514
-294,435,-1.79974,-1.97321,0,0,0,0,0,0,0,-1,930,589,-1.79973,1.97322
-287,435,0,0,0,0,0,0,0,0,0,-1,937,589,0,0
-280,435,0,0,0,0,0,0,0,0,0,-1,944,589,0,0
-273,435,0,0,0,0,0,0,0,0,0,-1,951,589,0,0
-266,435,0,0,0,0,0,0,0,0,0,-1,958,589,0,0
-259,435,0,0,0,0,0,0,0,0,0,-1,965,589,0,0
-252,435,0,0,0,0,0,0,0,0,0,-1,972,589,0,0
-245,435,0,0,0,0,0,0,0,0,0,-1,979,589,0,0
-238,435,0,0,0,0,0,0,0,0,0,-1,986,589,0,0
-231,435,0,0,0,0,0,0,0,0,0,-1,993,589,0,0
-224,435,0,0,0,0,0,0,0,0,0,-1,1000,589,0,0
-217,435,0,0,0,0,0,0,0,0,0,-1,1007,589,0,0
-210,435,0,0,0,0,0,0,0,0,0,-1,1014,589,0,0
-203,435,0,0,0,0,0,0,0,0,0,-1,1021,589,0,0
-196,435,0,0,0,0,0,0,0,0,0,-1,1028,589,0,0
-189,435,0,0,0,0,0,0,0,0,0,-1,1035,589,0,0
-182,435,0,0,0,0,0,0,0,0,0,-1,1042,589,0,0
-175,435,0,0,0,0,0,0,0,0,0,-1,1049,589,0,0
-168,435,0,0,0,0,0,0,0,0,0,-1,1056,589,0,0
-161,435,0,0,0,0,0,0,0,0,0,-1,1063,589,0,0
-154,435,0,0,0,0,0,0,0,0,0,-1,1070,589,0,0
-147,435,0,0,0,0,0,0,0,0,0,-1,1077,589,0,0
-140,435,0,0,0,0,0,0,0,0,0,-1,1084,589,0,0
-133,435,0,0,0,0,0,0,0,0,0,-1,1091,589,0,0
-126,435,0,0,0,0,0,0,0,0,0,-1,1098,589,0,0
-119,435,0,0,0,0,0,0,0,0,0,-1,1105,589,0,0
-112,435,0,0,0,0,0,0,0,0,0,-1,1112,589,0,0
-105,435,0,0,0,0,0,0,0,0,0,-1,1119,589,0,0
-98,435,0,0,0,0,0,0,0,0,0,-1,1126,589,0,0
-91,435,0,0,0,0,0,0,0,0,0,-1,1133,589,0,0
-84,435,0,0,0,0,0,0,0,0,0,-1,1140,589,0,0
-77,435,0,0,0,0,0,0,0,0,0,-1,1147,589,0,0
-70,435,0,0,0,0,0,0,0,0,0,-1,1154,589,0,0
-63,435,0,0,0,0,0,0,0,0,0,-1,1161,589,0,0
-56,435,0,0,0,0,0,0,0,0,0,-1,1168,589,0,0
-49,435,0,0,0,0,0,0,0,0,0,-1,1175,589,0,0
-42,435,0,0,0,0,0,0,0,0,0,-1,1182,589,0,0
-35,435,0,0,0,0,0,0,0,0,0,-1,1189,589,0,0
-28,435,0,0,0,0,0,0,0,0,0,-1,1196,589,0,0
-21,435,0,0,0,0,0,0,0,0,0,-1,1203,589,0,0
-14,435,0,0,0,0,0,0,0,0,0,-1,1210,589,0,0
-7,435,0,0,0,0,0,0,0,0,0,-1,1217,589,0,0
0,435,0,0,0,0,0,0,0,0,0,-1,1224,589,0,0
7,435,0,0,0,0,0,0,0,0,0,-1,1231,589,0,0
14,435,0,0,0,0,0,0,0,0,0,-1,1238,589,0,0
21,435,0,0,0,0,0,0,0,0,0,-1,1245,589,0,0
28,435,0,0,0,0,0,0,0,0,0,-1,1252,589,0,0
35,435,0,0,0,0,0,0,0,0,0,-1,1259,589,0,0
42,435,0,0,0,0,0,0,0,0,0,-1,1266,589,0,0
49,435,0,0,0,0,0,0,0,0,0,-1,1273,589,0,0
56,435,0,0,0,0,0,0,0,0,0,-1,1280,589,0,0
63,435,0,0,0,0,0,0,0,0,0,-1,1287,589,0,0
70,435,0,0,0,0,0,0,0,0,0,-1,1294,589,0,0
77,435,0,0,0,0,0,0,0,0,0,-1,1301,589,0,0
84,435,0,0,0,0,0,0,0,0,0,-1,1308,589,0,0
91,435,0,0,0,0,0,0,0,0,0,-1,1315,589,0,0
98,435,0,0,0,0,0,0,0,0,0,-1,1322,589,0,0
105,435,0,0,0,0,0,0,0,0,0,-1,1329,589,0,0
112,435,0,0,0,0,0,0,0,0,0,-1,1336,589,0,0
119,435,0,0,0,0,0,0,0,0,0,-1,1343,589,0,0
126,435,0,0,0,0,0,0,0,0,0,-1,1350,589,0,0
133,435,0,0,0,0,0,0,0,0,0,-1,1357,589,0,0
140,435,0,0,0,0,0,0,0,0,0,-1,1364,589,0,0
147,435,0,0,0,0,0,0,0,0,0,-1,1371,589,0,0
154,435,0,0,0,0,0,0,0,0,0,-1,1378,589,0,0
161,435,0,0,0,0,0,0,0,0,0,-1,1385,589,0,0
168,435,0,0,0,0,0,0,0,0,0,-1,1392,589,0,0
175,435,0,0,0,0,0,0,0,0,0,-1,1399,589,0,0
182,435,0,0,0,0,0,0,0,0,0,-1,1406,589,0,0
189,435,0,0,0,0,0,0,0,0,0,-1,1413,589,0,0
196,435,0,0,0,0,0,0,0,0,0,-1,1420,589,0,0
203,435,0,0,0,0,0,0,0,0,0,-1,1427,589,0,0
210,435,0,0,0,0,0,0,0,0,0,-1,1434,589,0,0
217,435,0,0,0,0,0,0,0,0,0,-1,1441,589,0,0
224,435,0,0,0,0,0,0,0,0,0,-1,1448,589,0,0
231,435,0,0,0,0,0,0,0,0,0,-1,1455,589,0,0
238,435,0,0,0,0,0,0,0,0,0,-1,1462,589,0,0
245,435,0,0,0,0,0,0,0,0,0,-1,1469,589,0,0
252,435,0,0,0,0,0,0,0,0,0,-1,1476,589,0,0
259,435,0,0,0,0,0,0,0,0,0,-1,1483,589,0,0
266,435,0,0,0,0,0,0,0,0,0,-1,1490,589,0,0
273,435,0,0,0,0,0,0,0,0,0,-1,1497,589,0,0
280,435,0,0,0,0,0,0,0,0,0,-1,1504,589,0,0
287,435,0,0,0,0,0,0,0,0,0,-1,1511,589,0,0
294,435,0,0,0,0,0,0,0,0,0,-1,1518,589,0,0
301,435,0,0,0,0,0,0,0,0,0,-1,1525,589,0,0
308,435,0,0,0,0,0,0,0,0,0,-1,1532,589,0,0
315,435,0,0,0,0,0,0,0,0,0,-1,1539,589,0,0
322,435,0,0,0,0,0,0,0,0,0,-1,1546,589,0,0
329,435,0,0,0,0,0,0,0,0,0,-1,1553,589,0,0
336,435,0,0,0,0,0,0,0,0,0,-1,1560,589,0,0
343,435,0,0,0,0,0,0,0,0,0,-1,1567,589,0,0
350,435,0,0,0,0,0,0,0,0,0,-1,1574,589,0,0
357,435,0,0,0,0,0,0,0,0,0,-1,1581,589,0,0
364,435,0,0,0,0,0,0,0,0,0,-1,1588,589,0,0
371,435,0,0,0,0,0,0,0,0,0,-1,1595,589,0,0
378,435,0,0,0,0,0,0,0,0,0,-1,1602,589,0,0
385,435,0,0,0,0,0,0,0,0,0,-1,1609,589,0,0
392,435,0,0,0,0,0,0,0,0,0,-1,1616,589,0,0
399,435,0,0,0,0,0,0,0,0,0,-1,1623,589,0,0
406,435,0,0,0,0,0,0,0,0,0,-1,1630,589,0,0
413,435,20.4565,3.49835,0,0,0,0,0,0,0,-1,1637,589,20.4565,-3.49836
420,435,21.4015,1.49609,0,0,0,0,0,0,0,-1,1644,589,21.4015,-1.49609
427,435,22.0464,-0.373962,0,0,0,0,0,0,0,-1,1651,589,22.0464,0.373972
434,435,22.1863,-1.54407,0,0,0,0,0,0,0,-1,1658,589,22.1862,1.54405
441,435,22.3992,-2.38287,0,0,0,0,0,0,0,-1,1665,589,22.3992,2.38289
448,435,7.4585,-0.00292969,0,0,0,0,0,0,0,-1,1672,589,7.45848,0.00294131
455,435,5.49915,-5.047,0,0,0,0,0,0,0,-1,1679,589,5.49914,5.04703
462,435,5.60669,-4.71466,0,0,0,0,0,0,0,-1,1686,589,5.60675,4.71469
469,435,5.87708,1.22351,0,0,0,0,0,0,0,-1,1693,589,5.87703,-1.22351
476,435,6.14136,1.37714,0,0,0,0,0,0,0,-1,1700,589,6.14138,-1.37712
483,435,6.49243,1.36169,0,0,0,0,0,0,0,-1,1707,589,6.49242,-1.36171
490,435,4.38391,-1.36218,0,0,0,0,0,0,0,-1,1714,589,4.38389,1.3622
497,435,7.23499,-3.64551,0,0,0,0,0,0,0,-1,1721,589,7.23495,3.64551
504,435,7.31189,-3.75909,0,0,0,0,0,0,0,-1,1728,589,7.31184,3.75911
511,435,10.2257,-6.01605,0,0,0,0,0,0,0,-1,1735,589,10.2257,6.01606
518,435,10.2893,-5.6604,0.00458989,0.00368769,0.00322794,0.0073981,0.000879479,0.715974,0.00466661,0.0222362,1742,589,10.2893,5.66043
525,435,10.2887,-5.32166,0.00360875,0.00292303,0.00252142,0.00581051,0.000721266,0.717823,0.00365704,0.0124184,1749,589,10.2887,5.32163
532,435,10.3016,-4.97125,0.00269159,0.00222243,0.00190138,0.0043728,0.000541211,0.724022,0.00275259,0.0133682,1756,589,10.3016,4.97127
539,435,10.3148,-4.63123,0.00186703,0.00160461,0.00131962,0.00306195,0.000409694,0.735845,0.00191937,0.0148361,1763,589,10.3149,4.63122
546,435,10.2888,-4.31836,0.00124436,0.00130822,0.00100194,0.00227873,0.000273842,0.801326,0.0014366,0.0144436,1770,589,10.2888,4.31836
553,435,10.2679,-3.98779,0.000748955,0.00122866,0.00087611,0.00189716,8.04589e-05,0.919009,0.00123882,0.0106044,1777,589,10.268,3.98779
560,435,10.2593,-3.64404,0.000284834,0.00127877,0.000894114,0.00180474,-0.000241144,1.03905,0.00129107,0.00921212,1784,589,10.2593,3.64404
567,435,10.2649,-3.30243,-2.35621e-05,0.00158111,0.00111491,0.00215237,-0.000594821,1.09729,0.0016689,0.00855518,1791,589,10.2649,3.30243
574,435,10.241,-2.98401,-0.00020523,0.00208165,0.00152,0.00284027,-0.000963853,1.10787,0.00228364,0.00974025,1798,589,10.241,2.98403
581,435,10.2242,-2.66437,-0.000283127,0.0028295,0.00214596,0.00392409,-0.00137771,1.09913,0.0031765,0.0170879,1805,589,10.2242,2.66437
588,435,10.235,-2.34167,-0.000239281,0.00387019,0.0030015,0.00545289,-0.00182198,1.08555,0.00437105,0.0262645,1812,589,10.2349,2.3417
595,435,10.1702,-2.00293,-0.000106713,0.00535593,0.00412941,0.00757558,-0.00232636,1.07758,0.00597867,0.0284454,1819,589,10.1702,2.00295
602,435,10.1609,-1.44641,-0.00013523,0.00722635,0.00545451,0.0101258,-0.0030347,1.08221,0.0079574,0.0488906,1826,589,10.1609,1.4464
609,435,10.209,-1.02911,0,0,0,0,0,0,0,-1,1833,589,10.209,1.02911
616,435,5.05151,-2.75269,0,0,0,0,0,0,0,-1,1840,589,5.05157,2.7527
623,435,11.7588,3.9704,0,0,0,0,0,0,0,-1,1847,589,11.7587,-3.97043
630,435,4.72742,-0.87561,0,0,0,0,0,0,0,-1,1854,589,4.7274,0.875636
637,435,5.05286,1.48792,0,0,0,0,0,0,0,-1,1861,589,5.05291,-1.48792
644,435,0,0,0,0,0,0,0,0,0,-1,1868,589,0,0
651,435,0,0,0,0,0,0,0,0,0,-1,1875,589,0,0
658,435,0,0,0,0,0,0,0,0,0,-1,1882,589,0,0
665,435,0,0,0,0,0,0,0,0,0,-1,1889,589,0,0
672,435,0,0,0,0,0,0,0,0,0,-1,1896,589,0,0
679,435,0,0,0,0,0,0,0,0,0,-1,1903,589,0,0
686,435,0,0,0,0,0,0,0,0,0,-1,1910,589,0,0
693,435,0,0,0,0,0,0,0,0,0,-1,1917,589,0,0
700,435,0,0,0,0,0,0,0,0,0,-1,1924,589,0,0
707,435,0,0,0,0,0,0,0,0,0,-1,1931,589,0,0
714,435,0,0,0,0,0,0,0,0,0,-1,1938,589,0,0
721,435,0,0,0,0,0,0,0,0,0,-1,1945,589,0,0
728,435,0,0,0,0,0,0,0,0,0,-1,1952,589,0,0
735,435,0,0,0,0,0,0,0,0,0,-1,1959,589,0,0
742,435,0,0,0,0,0,0,0,0,0,-1,1966,589,0,0
749,435,0,0,0,0,0,0,0,0,0,-1,1973,589,0,0
756,435,0,0,0,0,0,0,0,0,0,-1,1980,589,0,0
763,435,0,0,0,0,0,0,0,0,0,-1,1987,589,0,0
770,435,0,0,0,0,0,0,0,0,0,-1,1994,589,0,0
777,435,0,0,0,0,0,0,0,0,0,-1,2001,589,0,0
784,435,0,0,0,0,0,0,0,0,0,-1,2008,589,0,0
791,435,0,0,0,0,0,0,0,0,0,-1,2015,589,0,0
798,435,0,0,0,0,0,0,0,0,0,-1,2022,589,0,0
805,435,0,0,0,0,0,0,0,0,0,-1,2029,589,0,0
812,435,0,0,0,0,0,0,0,0,0,-1,2036,589,0,0
-700,428,0,0,0,0,0,0,0,0,0,-1,524,596,0,0
-693,428,0,0,0,0,0,0,0,0,0,-1,531,596,0,0
-686,428,0,0,0,0,0,0,0,0,0,-1,538,596,0,0
-679,428,0,0,0,0,0,0,0,0,0,-1,545,596,0,0
-672,428,0,0,0,0,0,0,0,0,0,-1,552,596,0,0
-665,428,0,0,0,0,0,0,0,0,0,-1,559,596,0,0
-658,428,0,0,0,0,0,0,0,0,0,-1,566,596,0,0
-651,428,0,0,0,0,0,0,0,0,0,-1,573,596,0,0
-644,428,0,0,0,0,0,0,0,0,0,-1,580,596,0,0
-637,428,0,0,0,0,0,0,0,0,0,-1,587,596,0,0
-630,428,0,0,0,0,0,0,0,0,0,-1,594,596,0,0
-623,428,0,0,0,0,0,0,0,0,0,-1,601,596,0,0
-616,428,0,0,0,0,0,0,0,0,0,-1,608,596,0,0
-609,428,0,0,0,0,0,0,0,0,0,-1,615,596,0,0
-602,428,0,0,0,0,0,0,0,0,0,-1,622,596,0,0
-595,428,0,0,0,0,0,0,0,0,0,-1,629,596,0,0
-588,428,0,0,0,0,0,0,0,0,0,-1,636,596,0,0
-581,428,0,0,0,0,0,0,0,0,0,-1,643,596,0,0
-574,428,0,0,0,0,0,0,0,0,0,-1,650,596,0,0
-567,428,0,0,0,0,0,0,0,0,0,-1,657,596,0,0
-560,428,0,0,0,0,0,0,0,0,0,-1,664,596,0,0
-553,428,0,0,0,0,0,0,0,0,0,-1,671,596,0,0
-546,428,0,0,0,0,0,0,0,0,0,-1,678,596,0,0
-539,428,0,0,0,0,0,0,0,0,0,-1,685,596,0,0
-532,428,0,0,0,0,0,0,0,0,0,-1,692,596,0,0
-525,428,-9.59918,7.58618,0,0,0,0,0,0,0,-1,699,596,-9.59918,-7.5862
-518,428,-2.92285,-4.81854,0,0,0,0,0,0,0,-1,706,596,-2.92285,4.81856
-511,428,-3.68811,-4.79474,0,0,0,0,0,0,0,-1,713,596,-3.68811,4.79474
-504,428,-4.45337,-4.77094,0,0,0,0,0,0,0,-1,720,596,-4.45337,4.77092
-497,428,-2.85516,-3.52179,0,0,0,0,0,0,0,-1,727,596,-2.85517,3.52181
-490,428,-4.45392,-1.88556,0,0,0,0,0,0,0,-1,734,596,-4.45389,1.88555
-483,428,-4.69781,-2.83472,0,0,0,0,0,0,0,-1,741,596,-4.69784,2.8347
-476,428,-4.74072,-3.12219,0.014825,0.00846644,-0.0110053,0.0231011,0.000190383,-0.644783,0.0153376,0.0435006,748,596,-4.74075,3.12221
-469,428,-3.94659,-3.68787,0.0112332,0.00700346,-0.00892836,0.0182937,-5.70975e-05,-0.669107,0.0122149,0.0207033,755,596,-3.94657,3.68784
-462,428,-3.9798,-3.99127,0.00840604,0.0057178,-0.0070728,0.0142613,-0.000137464,-0.691498,0.00955368,0.0194456,762,596,-3.97982,3.9913
-455,428,-4.02002,-4.34558,0.00618385,0.00445433,-0.00545543,0.0108426,-0.000204456,-0.706795,0.00729753,0.0126236,769,596,-4.02001,4.34555
-448,428,-4.0274,-4.67035,0.00431678,0.00343365,-0.00396932,0.00786902,-0.000118591,-0.730003,0.00528599,0.0109786,776,596,-4.02738,4.67037
-441,428,-4.01697,-4.98663,0.00279604,0.00265405,-0.00278649,0.00551244,-6.23525e-05,-0.772662,0.00369592,0.0131397,783,596,-4.01697,4.98662
-434,428,-4.02161,-5.32397,0.00147658,0.00150384,-0.00153092,0.0030212,-4.07746e-05,-0.78985,0.00202786,0.0103823,790,596,-4.02162,5.32398
-427,428,-4.03333,-5.64355,0.000286763,0.000390337,-0.000196353,0.000541617,0.000135483,-0.914335,0.000325457,0.0107276,797,596,-4.0333,5.64353
-420,428,-4.02124,-5.93066,-0.000978831,-0.000798912,0.00105591,0.000170864,-0.00194861,0.827894,0.00135961,0.0104138,804,596,-4.02127,5.93065
-413,428,-4.0061,-6.22766,-0.00233059,-0.0021481,0.00235217,0.000114596,-0.00459328,0.804784,0.00310109,0.0127153,811,596,-4.00611,6.22766
-406,428,-4.02533,-6.53644,-0.00339995,-0.00357917,0.00362338,0.000134927,-0.00711405,0.773035,0.00478831,0.0151058,818,596,-4.02533,6.53647
-399,428,-4.03833,-6.85358,-0.00466115,-0.00536072,0.00503482,3.60208e-05,-0.0100579,0.750717,0.0067173,0.0138063,825,596,-4.03834,6.85359
-392,428,-4.03387,-7.19012,-0.00602769,-0.00764494,0.00659635,-0.000190584,-0.013482,0.724409,0.00892518,0.0154714,832,596,-4.0339,7.19013
-385,428,-4.07037,-7.49438,-0.00779998,-0.010371,0.00849194,-0.000496817,-0.0176742,0.710278,0.0116207,0.0272305,839,596,-4.07035,7.49438
-378,428,-4.22876,-7.54901,-0.00991938,-0.0138823,0.0107294,-0.000990029,-0.0228116,0.694089,0.0148887,0.0484031,846,596,-4.22876,7.54903
-371,428,-4.0531,-7.73401,0,0,0,0,0,0,0,-1,853,596,-4.05309,7.73404
-364,428,-4.94714,-7.63257,0,0,0,0,0,0,0,-1,860,596,-4.94712,7.63256
-357,428,-3.20996,-4.70966,0,0,0,0,0,0,0,-1,867,596,-3.20997,4.70965
-350,428,-1.62793,-3.94055,0,0,0,0,0,0,0,-1,874,596,-1.62794,3.94055
-343,428,-0.0567017,-4.80994,0,0,0,0,0,0,0,-1,881,596,-0.0567096,4.80996
-336,428,-3.29175,-1.39569,0,0,0,0,0,0,0,-1,888,596,-3.29172,1.39568
-329,428,-3.71564,-0.791321,0,0,0,0,0,0,0,-1,895,596,-3.71564,0.791299
-322,428,-5.52863,-3.59827,0,0,0,0,0,0,0,-1,902,596,-5.52865,3.59829
-315,428,-4.57172,-1.22052,0,0,0,0,0,0,0,-1,909,596,-4.57171,1.22052
-308,428,-5.94324,-0.810791,0,0,0,0,0,0,0,-1,916,596,-5.94321,0.810803
-301,428,0,0,0,0,0,0,0,0,0,-1,923,596,0,0
-294,428,0,0,0,0,0,0,0,0,0,-1,930,596,0,0
-287,428,0,0,0,0,0,0,0,0,0,-1,937,596,0,0
-280,428,0,0,0,0,0,0,0,0,0,-1,944,596,0,0
-273,428,0,0,0,0,0,0,0,0,0,-1,951,596,0,0
-266,428,0,0,0,0,0,0,0,0,0,-1,958,596,0,0
-259,428,0,0,0,0,0,0,0,0,0,-1,965,596,0,0
-252,428,0,0,0,0,0,0,0,0,0,-1,972,596,0,0
-245,428,0,0,0,0,0,0,0,0,0,-1,979,596,0,0
-238,428,0,0,0,0,0,0,0,0,0,-1,986,596,0,0
-231,428,0,0,0,0,0,0,0,0,0,-1,993,596,0,0
-224,428,0,0,0,0,0,0,0,0,0,-1,1000,596,0,0
-217,428,0,0,0,0,0,0,0,0,0,-1,1007,596,0,0
-210,428,0,0,0,0,0,0,0,0,0,-1,1014,596,0,0
-203,428,0,0,0,0,0,0,0,0,0,-1,1021,596,0,0
-196,428,0,0,0,0,0,0,0,0,0,-1,1028,596,0,0
-189,428,0,0,0,0,0,0,0,0,0,-1,1035,596,0,0
-182,428,0,0,0,0,0,0,0,0,0,-1,1042,596,0,0
-175,428,0,0,0,0,0,0,0,0,0,-1,1049,596,0,0
-168,428,0,0,0,0,0,0,0,0,0,-1,1056,596,0,0
-161,428,0,0,0,0,0,0,0,0,0,-1,1063,596,0,0
-154,428,0,0,0,0,0,0,0,0,0,-1,1070,596,0,0
-147,428,0,0,0,0,0,0,0,0,0,-1,1077,596,0,0
-140,428,0,0,0,0,0,0,0,0,0,-1,1084,596,0,0
-133,428,0,0,0,0,0,0,0,0,0,-1,1091,596,0,0
-126,428,0,0,0,0,0,0,0,0,0,-1,1098,596,0,0
-119,428,0,0,0,0,0,0,0,0,0,-1,1105,596,0,0
-112,428,0,0,0,0,0,0,0,0,0,-1,1112,596,0,0
-105,428,0,0,0,0,0,0,0,0,0,-1,1119,596,0,0
-98,428,0,0,0,0,0,0,0,0,0,-1,1126,596,0,0
-91,428,0,0,0,0,0,0,0,0,0,-1,1133,596,0,0
-84,428,0,0,0,0,0,0,0,0,0,-1,1140,596,0,0
-77,428,0,0,0,0,0,0,0,0,0,-1,1147,596,0,0
-70,428,0,0,0,0,0,0,0,0,0,-1,1154,596,0,0
-63,428,0,0,0,0,0,0,0,0,0,-1,1161,596,0,0
-56,428,0,0,0,0,0,0,0,0,0,-1,1168,596,0,0
-49,428,0,0,0,0,0,0,0,0,0,-1,1175,596,0,0
-42,428,0,0,0,0,0,0,0,0,0,-1,1182,596,0,0
-35,428,0,0,0,0,0,0,0,0,0,-1,1189,596,0,0
-28,428,0,0,0,0,0,0,0,0,0,-1,1196,596,0,0
-21,428,0,0,0,0,0,0,0,0,0,-1,1203,596,0,0
-14,428,0,0,0,0,0,0,0,0,0,-1,1210,596,0,0
-7,428,0,0,0,0,0,0,0,0,0,-1,1217,596,0,0
0,428,0,0,0,0,0,0,0,0,0,-1,1224,596,0,0
7,428,0,0,0,0,0,0,0,0,0,-1,1231,596,0,0
14,428,0,0,0,0,0,0,0,0,0,-1,1238,596,0,0
21,428,0,0,0,0,0,0,0,0,0,-1,1245,596,0,0
28,428,0,0,0,0,0,0,0,0,0,-1,1252,596,0,0
35,428,0,0,0,0,0,0,0,0,0,-1,1259,596,0,0
42,428,0,0,0,0,0,0,0,0,0,-1,1266,596,0,0
49,428,0,0,0,0,0,0,0,0,0,-1,1273,596,0,0
56,428,0,0,0,0,0,0,0,0,0,-1,1280,596,0,0
63,428,0,0,0,0,0,0,0,0,0,-1,1287,596,0,0
70,428,0,0,0,0,0,0,0,0,0,-1,1294,596,0,0
77,428,0,0,0,0,0,0,0,0,0,-1,1301,596,0,0
84,428,0,0,0,0,0,0,0,0,0,-1,1308,596,0,0
91,428,0,0,0,0,0,0,0,0,0,-1,1315,596,0,0
98,428,0,0,0,0,0,0,0,0,0,-1,1322,596,0,0
105,428,0,0,0,0,0,0,0,0,0,-1,1329,596,0,0
112,428,0,0,0,0,0,0,0,0,0,-1,1336,596,0,0
119,428,0,0,0,0,0,0,0,0,0,-1,1343,596,0,0
126,428,0,0,0,0,0,0,0,0,0,-1,1350,596,0,0
133,428,0,0,0,0,0,0,0,0,0,-1,1357,596,0,0
140,428,0,0,0,0,0,0,0,0,0,-1,1364,596,0,0
147,428,0,0,0,0,0,0,0,0,0,-1,1371,596,0,0
154,428,0,0,0,0,0,0,0,0,0,-1,1378,596,0,0
161,428,0,0,0,0,0,0,0,0,0,-1,1385,596,0,0
168,428,0,0,0,0,0,0,0,0,0,-1,1392,596,0,0
175,428,0,0,0,0,0,0,0,0,0,-1,1399,596,0,0
182,428,0,0,0,0,0,0,0,0,0,-1,1406,596,0,0
189,428,0,0,0,0,0,0,0,0,0,-1,1413,596,0,0
196,428,0,0,0,0,0,0,0,0,0,-1,1420,596,0,0
203,428,0,0,0,0,0,0,0,0,0,-1,1427,596,0,0
210,428,0,0,0,0,0,0,0,0,0,-1,1434,596,0,0
217,428,0,0,0,0,0,0,0,0,0,-1,1441,596,0,0
224,428,0,0,0,0,0,0,0,0,0,-1,1448,596,0,0
231,428,0,0,0,0,0,0,0,0,0,-1,1455,596,0,0
238,428,0,0,0,0,0,0,0,0,0,-1,1462,596,0,0
245,428,0,0,0,0,0,0,0,0,0,-1,1469,596,0,0
252,428,0,0,0,0,0,0,0,0,0,-1,1476,596,0,0
259,428,0,0,0,0,0,0,0,0,0,-1,1483,596,0,0
266,428,0,0,0,0,0,0,0,0,0,-1,1490,596,0,0
273,428,0,0,0,0,0,0,0,0,0,-1,1497,596,0,0
280,428,0,0,0,0,0,0,0,0,0,-1,1504,596,0,0
287,428,0,0,0,0,0,0,0,0,0,-1,1511,596,0,0
294,428,0,0,0,0,0,0,0,0,0,-1,1518,596,0,0
301,428,0,0,0,0,0,0,0,0,0,-1,1525,596,0,0
308,428,0,0,0,0,0,0,0,0,0,-1,1532,596,0,0
315,428,0,0,0,0,0,0,0,0,0,-1,1539,596,0,0
322,428,0,0,0,0,0,0,0,0,0,-1,1546,596,0,0
329,428,0,0,0,0,0,0,0,0,0,-1,1553,596,0,0
336,428,0,0,0,0,0,0,0,0,0,-1,1560,596,0,0
343,428,0,0,0,0,0,0,0,0,0,-1,1567,596,0,0
350,428,0,0,0,0,0,0,0,0,0,-1,1574,596,0,0
357,428,0,0,0,0,0,0,0,0,0,-1,1581,596,0,0
364,428,0,0,0,0,0,0,0,0,0,-1,1588,596,0,0
371,428,0,0,0,0,0,0,0,0,0,-1,1595,596,0,0
378,428,0,0,0,0,0,0,0,0,0,-1,1602,596,0,0
385,428,0,0,0,0,0,0,0,0,0,-1,1609,596,0,0
392,428,0,0,0,0,0,0,0,0,0,-1,1616,596,0,0
399,428,0,0,0,0,0,0,0,0,0,-1,1623,596,0,0
406,428,0,0,0,0,0,0,0,0,0,-1,1630,596,0,0
413,428,0,0,0,0,0,0,0,0,0,-1,1637,596,0,0
420,428,19.8469,1.3399,0,0,0,0,0,0,0,-1,1644,596,19.8469,-1.33992
427,428,20.7299,-0.225281,0,0,0,0,0,0,0,-1,1651,596,20.7299,0.225262
434,428,19.8915,-0.583069,0,0,0,0,0,0,0,-1,1658,596,19.8915,0.583075
441,428,8.17993,0.607483,0,0,0,0,0,0,0,-1,1665,596,8.17997,-0.607513
448,428,7.84338,-0.385986,0,0,0,0,0,0,0,-1,1672,596,7.84336,0.385978
455,428,6.64038,2.1123,0,0,0,0,0,0,0,-1,1679,596,6.64037,-2.11229
462,428,4.84106,4.12341,0,0,0,0,0,0,0,-1,1686,596,4.84107,-4.12339
469,428,7.83789,3.10083,0,0,0,0,0,0,0,-1,1693,596,7.83785,-3.10086
476,428,7.61255,1.73956,0,0,0,0,0,0,0,-1,1700,596,7.61252,-1.73958
483,428,7.22766,1.05121,0,0,0,0,0,0,0,-1,1707,596,7.2277,-1.05121
490,428,5.4071,-3.2793,0,0,0,0,0,0,0,-1,1714,596,5.40707,3.27929
497,428,7.84106,-3.65491,0,0,0,0,0,0,0,-1,1721,596,7.84107,3.65491
504,428,6.92139,-2.83356,0,0,0,0,0,0,0,-1,1728,596,6.92137,2.83353
511,428,7.88501,-3.78723,0,0,0,0,0,0,0,-1,1735,596,7.88502,3.78722
518,428,10.5835,-5.68829,0,0,0,0,0,0,0,-1,1742,596,10.5836,5.68829
525,428,10.514,-5.39709,0.00385862,0.00361565,0.00301923,0.00675881,0.000715461,0.765291,0.00428733,0.0434118,1749,596,10.5141,5.39709
532,428,10.5913,-4.94806,0.00283835,0.00271497,0.00221343,0.00499095,0.000562374,0.771466,0.00315658,0.0185651,1756,596,10.5913,4.94805
539,428,10.6537,-4.65619,0.00194735,0.00197295,0.00147813,0.00343834,0.000481963,0.789727,0.00214966,0.0192806,1763,596,10.6537,4.6562
546,428,10.6415,-4.34283,0.00127926,0.00145056,0.000982532,0.00235117,0.000378656,0.828875,0.00145772,0.0157284,1770,596,10.6415,4.34283
553,428,10.6,-3.99078,0.00079469,0.00118897,0.000746437,0.00176386,0.0002198,0.914505,0.00110992,0.0106367,1777,596,10.6,3.99077
560,428,10.6068,-3.63403,0.00036686,0.00110291,0.000681679,0.00150957,-3.97947e-05,1.03292,0.0010199,0.0108759,1784,596,10.6068,3.63404
567,428,10.609,-3.32568,9.62559e-05,0.00126798,0.000818123,0.00168838,-0.000324141,1.09613,0.00124775,0.0104719,1791,596,10.609,3.32571
574,428,10.5856,-3.00299,-3.01459e-05,0.00162618,0.00113488,0.00220294,-0.000606904,1.1006,0.00170727,0.0129369,1798,596,10.5855,3.00297
581,428,10.5637,-2.63928,-5.48841e-05,0.00218736,0.00163487,0.00304859,-0.000916109,1.08595,0.00239685,0.01122,1805,596,10.5637,2.63926
588,428,10.5665,-2.28937,1.61223e-05,0.00301303,0.00233678,0.00429053,-0.00126138,1.0705,0.00336067,0.0154325,1812,596,10.5666,2.28937
595,428,10.5564,-1.94464,0.00018386,0.00416322,0.0032562,0.00598951,-0.00164243,1.05965,0.00463845,0.0109364,1819,596,10.5565,1.94463
602,428,10.5231,-1.58734,0.000278519,0.00563593,0.00433245,0.0080509,-0.00213645,1.06228,0.00620329,0.0200218,1826,596,10.5231,1.58732
609,428,10.5771,-1.2403,0,0,0,0,0,0,0,-1,1833,596,10.5772,1.24029
616,428,5.88977,-0.239319,0,0,0,0,0,0,0,-1,1840,596,5.88983,0.239293
623,428,9.02405,1.30554,0,0,0,0,0,0,0,-1,1847,596,9.02407,-1.30554
630,428,7.07996,6.88562,0,0,0,0,0,0,0,-1,1854,596,7.0799,-6.88565
637,428,3.95435,1.90857,0,0,0,0,0,0,0,-1,1861,596,3.95439,-1.90858
644,428,5.75476,0.888977,0,0,0,0,0,0,0,-1,1868,596,5.75472,-0.888955
651,428,0,0,0,0,0,0,0,0,0,-1,1875,596,0,0
658,428,0,0,0,0,0,0,0,0,0,-1,1882,596,0,0
665,428,0,0,0,0,0,0,0,0,0,-1,1889,596,0,0
672,428,0,0,0,0,0,0,0,0,0,-1,1896,596,0,0
679,428,0,0,0,0,0,0,0,0,0,-1,1903,596,0,0
686,428,0,0,0,0,0,0,0,0,0,-1,1910,596,0,0
693,428,0,0,0,0,0,0,0,0,0,-1,1917,596,0,0
700,428,0,0,0,0,0,0,0,0,0,-1,1924,596,0,0
707,428,0,0,0,0,0,0,0,0,0,-1,1931,596,0,0
714,428,0,0,0,0,0,0,0,0,0,-1,1938,596,0,0
721,428,0,0,0,0,0,0,0,0,0,-1,1945,596,0,0
728,428,0,0,0,0,0,0,0,0,0,-1,1952,596,0,0
735,428,0,0,0,0,0,0,0,0,0,-1,1959,596,0,0
742,428,0,0,0,0,0,0,0,0,0,-1,1966,596,0,0
749,428,0,0,0,0,0,0,0,0,0,-1,1973,596,0,0
756,428,0,0,0,0,0,0,0,0,0,-1,1980,596,0,0
763,428,0,0,0,0,0,0,0,0,0,-1,1987,596,0,0
770,428,0,0,0,0,0,0,0,0,0,-1,1994,596,0,0
777,428,0,0,0,0,0,0,0,0,0,-1,2001,596,0,0
784,428,0,0,0,0,0,0,0,0,0,-1,2008,596,0,0
791,428,0,0,0,0,0,0,0,0,0,-1,2015,596,0,0
798,428,0,0,0,0,0,0,0,0,0,-1,2022,596,0,0
805,428,0,0,0,0,0,0,0,0,0,-1,2029,596,0,0
812,428,0,0,0,0,0,0,0,0,0,-1,2036,596,0,0
-700,421,0,0,0,0,0,0,0,0,0,-1,524,603,0,0
-693,421,0,0,0,0,0,0,0,0,0,-1,531,603,0,0
-686,421,0,0,0,0,0,0,0,0,0,-1,538,603,0,0
-679,421,0,0,0,0,0,0,0,0,0,-1,545,603,0,0
-672,421,0,0,0,0,0,0,0,0,0,-1,552,603,0,0
-665,421,0,0,0,0,0,0,0,0,0,-1,559,603,0,0
-658,421,0,0,0,0,0,0,0,0,0,-1,566,603,0,0
-651,421,0,0,0,0,0,0,0,0,0,-1,573,603,0,0
-644,421,0,0,0,0,0,0,0,0,0,-1,580,603,0,0
-637,421,0,0,0,0,0,0,0,0,0,-1,587,603,0,0
-630,421,0,0,0,0,0,0,0,0,0,-1,594,603,0,0
-623,421,0,0,0,0,0,0,0,0,0,-1,601,603,0,0
-616,421,0,0,0,0,0,0,0,0,0,-1,608,603,0,0
-609,421,0,0,0,0,0,0,0,0,0,-1,615,603,0,0
-602,421,0,0,0,0,0,0,0,0,0,-1,622,603,0,0
-595,421,0,0,0,0,0,0,0,0,0,-1,629,603,0,0
-588,421,0,0,0,0,0,0,0,0,0,-1,636,603,0,0
-581,421,0,0,0,0,0,0,0,0,0,-1,643,603,0,0
-574,421,0,0,0,0,0,0,0,0,0,-1,650,603,0,0
-567,421,0,0,0,0,0,0,0,0,0,-1,657,603,0,0
-560,421,0,0,0,0,0,0,0,0,0,-1,664,603,0,0
-553,421,0,0,0,0,0,0,0,0,0,-1,671,603,0,0
-546,421,0,0,0,0,0,0,0,0,0,-1,678,603,0,0
-539,421,0,0,0,0,0,0,0,0,0,-1,685,603,0,0
-532,421,-8.97382,6.95636,0,0,0,0,0,0,0,-1,692,603,-8.97384,-6.95634
-525,421,-2.11481,-8.04272,0,0,0,0,0,0,0,-1,699,603,-2.11483,8.0427
-518,421,-3.05908,-5.07233,0,0,0,0,0,0,0,-1,706,603,-3.0591,5.07235
-511,421,-4.63525,-4.08447,0,0,0,0,0,0,0,-1,713,603,-4.63524,4.08449
-504,421,-4.97272,-4.38385,0,0,0,0,0,0,0,-1,720,603,-4.9727,4.38383
-497,421,-4.67682,-1.86725,0,0,0,0,0,0,0,-1,727,603,-4.6768,1.86727
-490,421,-4.49963,-2.1369,0,0,0,0,0,0,0,-1,734,603,-4.49966,2.13689
-483,421,-4.64606,-2.88116,0.0144167,0.00709378,-0.00944738,0.0208873,0.000623144,-0.600529,0.0137219,0.0490418,741,603,-4.64606,2.88117
-476,421,-4.30359,-3.41241,0.0114218,0.0060028,-0.00802577,0.0171831,0.000241517,-0.622604,0.0113758,0.0262465,748,603,-4.30356,3.41241
-469,421,-4.32233,-3.67651,0.008836,0.00494666,-0.00661721,0.0137884,-5.71599e-06,-0.642482,0.00919416,0.0194091,755,603,-4.32232,3.67654
-462,421,-4.32959,-4.03809,0.00668553,0.0039948,-0.00528242,0.0107912,-0.000110887,-0.660706,0.00723139,0.0186663,762,603,-4.3296,4.03807
-455,421,-4.34711,-4.34711,0.00493529,0.00298522,-0.00404977,0.00812575,-0.000205241,-0.667265,0.00548686,0.0192117,769,603,-4.34712,4.34714
-448,421,-4.36133,-4.6499,0.0034108,0.00211601,-0.00283852,0.00567481,-0.000148003,-0.673279,0.00383349,0.0183063,776,603,-4.36132,4.64989
-441,421,-4.34851,-4.99518,0.00208136,0.00147191,-0.00184491,0.00364654,-9.3273e-05,-0.703551,0.00246271,0.0138666,783,603,-4.34849,4.99516
-434,421,-4.35681,-5.32471,0.000886743,0.000456321,-0.000721757,0.00142469,-8.16275e-05,-0.640507,0.000978139,0.0103274,790,603,-4.35681,5.32469
-427,421,-4.34875,-5.63385,-0.000240461,-0.000587653,0.000545057,0.000157977,-0.000986091,0.631231,0.000715887,0.0097542,797,603,-4.34874,5.63385
-420,421,-4.33057,-5.92767,-0.00145978,-0.00172493,0.00174313,0.000155807,-0.00334052,0.747444,0.00228072,0.0102045,804,603,-4.33057,5.92769
-413,421,-4.3222,-6.20435,-0.00292998,-0.00312235,0.00313703,0.00011234,-0.00616467,0.770072,0.00414773,0.0128055,811,603,-4.32223,6.20436
-406,421,-4.35931,-6.54315,-0.00428717,-0.00469002,0.00459385,0.00010967,-0.00908686,0.763489,0.00609479,0.0183672,818,603,-4.35929,6.54317
-399,421,-4.32605,-6.93054,-0.00595615,-0.00670489,0.00627444,-4.49251e-05,-0.0126161,0.7556,0.00839581,0.0198537,825,603,-4.32607,6.93057
-392,421,-4.3877,-7.19391,-0.00788846,-0.00928185,0.00822243,-0.000333264,-0.0168371,0.743134,0.0111153,0.0261508,832,603,-4.38769,7.1939
-385,421,-4.32941,-7.51337,0,0,0,0,0,0,0,-1,839,603,-4.32941,7.51335
-378,421,-4.84064,-7.60522,0,0,0,0,0,0,0,-1,846,603,-4.84063,7.60524
-371,421,-5.65082,-7.01849,0,0,0,0,0,0,0,-1,853,603,-5.65082,7.0185
-364,421,-5.94189,-7.09875,0,0,0,0,0,0,0,-1,860,603,-5.94192,7.09878
-357,421,-7.62531,-8.26337,0,0,0,0,0,0,0,-1,867,603,-7.62532,8.26337
-350,421,-5.38019,-3.75024,0,0,0,0,0,0,0,-1,874,603,-5.38017,3.75026
-343,421,-6.22797,-2.57123,0,0,0,0,0,0,0,-1,881,603,-6.22798,2.57121
-336,421,-6.22882,-2.59369,0,0,0,0,0,0,0,-1,888,603,-6.22883,2.5937
-329,421,-4.50134,-1.49469,0,0,0,0,0,0,0,-1,895,603,-4.50137,1.49468
-322,421,-6.30377,-0.285339,0,0,0,0,0,0,0,-1,902,603,-6.30379,0.285355
-315,421,-4.47821,-1.26733,0,0,0,0,0,0,0,-1,909,603,-4.47824,1.26732
-308,421,0,0,0,0,0,0,0,0,0,-1,916,603,0,0
-301,421,0,0,0,0,0,0,0,0,0,-1,923,603,0,0
-294,421,0,0,0,0,0,0,0,0,0,-1,930,603,0,0
-287,421,0,0,0,0,0,0,0,0,0,-1,937,603,0,0
-280,421,0,0,0,0,0,0,0,0,0,-1,944,603,0,0
-273,421,0,0,0,0,0,0,0,0,0,-1,951,603,0,0
-266,421,0,0,0,0,0,0,0,0,0,-1,958,603,0,0
-259,421,0,0,0,0,0,0,0,0,0,-1,965,603,0,0
-252,421,0,0,0,0,0,0,0,0,0,-1,972,603,0,0
-245,421,0,0,0,0,0,0,0,0,0,-1,979,603,0,0
-238,421,0,0,0,0,0,0,0,0,0,-1,986,603,0,0
-231,421,0,0,0,0,0,0,0,0,0,-1,993,603,0,0
-224,421,0,0,0,0,0,0,0,0,0,-1,1000,603,0,0
-217,421,0,0,0,0,0,0,0,0,0,-1,1007,603,0,0
-210,421,0,0,0,0,0,0,0,0,0,-1,1014,603,0,0
-203,421,0,0,0,0,0,0,0,0,0,-1,1021,603,0,0
-196,421,0,0,0,0,0,0,0,0,0,-1,1028,603,0,0
-189,421,0,0,0,0,0,0,0,0,0,-1,1035,603,0,0
-182,421,0,0,0,0,0,0,0,0,0,-1,1042,603,0,0
-175,421,0,0,0,0,0,0,0,0,0,-1,1049,603,0,0
-168,421,0,0,0,0,0,0,0,0,0,-1,1056,603,0,0
-161,421,0,0,0,0,0,0,0,0,0,-1,1063,603,0,0
-154,421,0,0,0,0,0,0,0,0,0,-1,1070,603,0,0
-147,421,0,0,0,0,0,0,0,0,0,-1,1077,603,0,0
-140,421,0,0,0,0,0,0,0,0,0,-1,1084,603,0,0
-133,421,0,0,0,0,0,0,0,0,0,-1,1091,603,0,0
-126,421,0,0,0,0,0,0,0,0,0,-1,1098,603,0,0
-119,421,0,0,0,0,0,0,0,0,0,-1,1105,603,0,0
-112,421,0,0,0,0,0,0,0,0,0,-1,1112,603,0,0
-105,421,0,0,0,0,0,0,0,0,0,-1,1119,603,0,0
-98,421,0,0,0,0,0,0,0,0,0,-1,1126,603,0,0
-91,421,0,0,0,0,0,0,0,0,0,-1,1133,603,0,0
-84,421,0,0,0,0,0,0,0,0,0,-1,1140,603,0,0
-77,421,0,0,0,0,0,0,0,0,0,-1,1147,603,0,0
-70,421,0,0,0,0,0,0,0,0,0,-1,1154,603,0,0
-63,421,0,0,0,0,0,0,0,0,0,-1,1161,603,0,0
-56,421,0,0,0,0,0,0,0,0,0,-1,1168,603,0,0
-49,421,0,0,0,0,0,0,0,0,0,-1,1175,603,0,0
-42,421,0,0,0,0,0,0,0,0,0,-1,1182,603,0,0
-35,421,0,0,0,0,0,0,0,0,0,-1,1189,603,0,0
-28,421,0,0,0,0,0,0,0,0,0,-1,1196,603,0,0
-21,421,0,0,0,0,0,0,0,0,0,-1,1203,603,0,0
-14,421,0,0,0,0,0,0,0,0,0,-1,1210,603,0,0
-7,421,0,0,0,0,0,0,0,0,0,-1,1217,603,0,0
0,421,0,0,0,0,0,0,0,0,0,-1,1224,603,0,0
7,421,0,0,0,0,0,0,0,0,0,-1,1231,603,0,0
14,421,0,0,0,0,0,0,0,0,0,-1,1238,603,0,0
21,421,0,0,0,0,0,0,0,0,0,-1,1245,603,0,0
28,421,0,0,0,0,0,0,0,0,0,-1,1252,603,0,0
35,421,0,0,0,0,0,0,0,0,0,-1,1259,603,0,0
42,421,0,0,0,0,0,0,0,0,0,-1,1266,603,0,0
49,421,0,0,0,0,0,0,0,0,0,-1,1273,603,0,0
56,421,0,0,0,0,0,0,0,0,0,-1,1280,603,0,0
63,421,0,0,0,0,0,0,0,0,0,-1,1287,603,0,0
70,421,0,0,0,0,0,0,0,0,0,-1,1294,603,0,0
77,421,0,0,0,0,0,0,0,0,0,-1,1301,603,0,0
84,421,0,0,0,0,0,0,0,0,0,-1,1308,603,0,0
91,421,0,0,0,0,0,0,0,0,0,-1,1315,603,0,0
98,421,0,0,0,0,0,0,0,0,0,-1,1322,603,0,0
105,421,0,0,0,0,0,0,0,0,0,-1,1329,603,0,0
112,421,0,0,0,0,0,0,0,0,0,-1,1336,603,0,0
119,421,0,0,0,0,0,0,0,0,0,-1,1343,603,0,0
126,421,0,0,0,0,0,0,0,0,0,-1,1350,603,0,0
133,421,0,0,0,0,0,0,0,0,0,-1,1357,603,0,0
140,421,0,0,0,0,0,0,0,0,0,-1,1364,603,0,0
147,421,0,0,0,0,0,0,0,0,0,-1,1371,603,0,0
154,421,0,0,0,0,0,0,0,0,0,-1,1378,603,0,0
161,421,0,0,0,0,0,0,0,0,0,-1,1385,603,0,0
168,421,0,0,0,0,0,0,0,0,0,-1,1392,603,0,0
175,421,0,0,0,0,0,0,0,0,0,-1,1399,603,0,0
182,421,0,0,0,0,0,0,0,0,0,-1,1406,603,0,0
189,421,0,0,0,0,0,0,0,0,0,-1,1413,603,0,0
196,421,0,0,0,0,0,0,0,0,0,-1,1420,603,0,0
203,421,0,0,0,0,0,0,0,0,0,-1,1427,603,0,0
210,421,0,0,0,0,0,0,0,0,0,-1,1434,603,0,0
217,421,0,0,0,0,0,0,0,0,0,-1,1441,603,0,0
224,421,0,0,0,0,0,0,0,0,0,-1,1448,603,0,0
231,421,0,0,0,0,0,0,0,0,0,-1,1455,603,0,0
238,421,0,0,0,0,0,0,0,0,0,-1,1462,603,0,0
245,421,0,0,0,0,0,0,0,0,0,-1,1469,603,0,0
252,421,0,0,0,0,0,0,0,0,0,-1,1476,603,0,0
259,421,0,0,0,0,0,0,0,0,0,-1,1483,603,0,0
266,421,0,0,0,0,0,0,0,0,0,-1,1490,603,0,0
273,421,0,0,0,0,0,0,0,0,0,-1,1497,603,0,0
280,421,0,0,0,0,0,0,0,0,0,-1,1504,603,0,0
287,421,0,0,0,0,0,0,0,0,0,-1,1511,603,0,0
294,421,0,0,0,0,0,0,0,0,0,-1,1518,603,0,0
301,421,0,0,0,0,0,0,0,0,0,-1,1525,603,0,0
308,421,0,0,0,0,0,0,0,0,0,-1,1532,603,0,0
315,421,0,0,0,0,0,0,0,0,0,-1,1539,603,0,0
322,421,0,0,0,0,0,0,0,0,0,-1,1546,603,0,0
329,421,0,0,0,0,0,0,0,0,0,-1,1553,603,0,0
336,421,0,0,0,0,0,0,0,0,0,-1,1560,603,0,0
343,421,0,0,0,0,0,0,0,0,0,-1,1567,603,0,0
350,421,0,0,0,0,0,0,0,0,0,-1,1574,603,0,0
357,421,0,0,0,0,0,0,0,0,0,-1,1581,603,0,0
364,421,0,0,0,0,0,0,0,0,0,-1,1588,603,0,0
371,421,0,0,0,0,0,0,0,0,0,-1,1595,603,0,0
378,421,0,0,0,0,0,0,0,0,0,-1,1602,603,0,0
385,421,0,0,0,0,0,0,0,0,0,-1,1609,603,0,0
392,421,0,0,0,0,0,0,0,0,0,-1,1616,603,0,0
399,421,0,0,0,0,0,0,0,0,0,-1,1623,603,0,0
406,421,0,0,0,0,0,0,0,0,0,-1,1630,603,0,0
413,421,0,0,0,0,0,0,0,0,0,-1,1637,603,0,0
420,421,0,0,0,0,0,0,0,0,0,-1,1644,603,0,0
427,421,0,0,0,0,0,0,0,0,0,-1,1651,603,0,0
434,421,3.68176,-0.0327759,0,0,0,0,0,0,0,-1,1658,603,3.6818,0.0328037
441,421,8.06689,0.527832,0,0,0,0,0,0,0,-1,1665,603,8.06693,-0.527851
448,421,6.93921,0.802246,0,0,0,0,0,0,0,-1,1672,603,6.93923,-0.802251
455,421,7.29456,2.14825,0,0,0,0,0,0,0,-1,1679,603,7.29461,-2.14827
462,421,7.86902,3.53174,0,0,0,0,0,0,0,-1,1686,603,7.869,-3.53173
469,421,8.06604,2.81213,0,0,0,0,0,0,0,-1,1693,603,8.06606,-2.81212
476,421,8.26306,2.09253,0,0,0,0,0,0,0,-1,1700,603,8.26312,-2.09251
483,421,8.05322,0.798096,0,0,0,0,0,0,0,-1,1707,603,8.05323,-0.7981
490,421,7.51233,0.213074,0,0,0,0,0,0,0,-1,1714,603,7.51235,-0.213043
497,421,7.49634,-2.86688,0,0,0,0,0,0,0,-1,1721,603,7.4963,2.86688
504,421,6.90491,-2.18671,0,0,0,0,0,0,0,-1,1728,603,6.90491,2.18669
511,421,6.31348,-1.50653,0,0,0,0,0,0,0,-1,1735,603,6.31353,1.5065
518,421,6.27588,-2.49878,0,0,0,0,0,0,0,-1,1742,603,6.2759,2.4988
525,421,10.7416,-5.53125,0,0,0,0,0,0,0,-1,1749,603,10.7416,5.53123
532,421,10.8698,-4.99872,0.00290318,0.00360798,0.00273451,0.0060127,0.00049846,0.849481,0.00385308,0.0371886,1756,603,10.8698,4.99872
539,421,10.984,-4.65814,0.00192237,0.00269432,0.00184072,0.00418909,0.000427599,0.888745,0.00266167,0.0208153,1763,603,10.984,4.65816
546,421,10.9728,-4.341,0.00119876,0.00188584,0.00115916,0.0027513,0.000333301,0.929459,0.00173381,0.0129124,1770,603,10.9728,4.34098
553,421,10.9602,-3.97565,0.000723142,0.00139365,0.000801563,0.00192724,0.000189545,0.983467,0.00122654,0.0113921,1777,603,10.9602,3.97563
560,421,10.9506,-3.62799,0.00032762,0.00113821,0.000637268,0.00148815,-2.23153e-05,1.06863,0.00099962,0.0131514,1784,603,10.9506,3.62798
567,421,10.9427,-3.34619,8.55461e-05,0.00112807,0.00066554,0.00145218,-0.000238567,1.11761,0.00105666,0.016052,1791,603,10.9427,3.34616
574,421,10.9287,-3.02789,-1.71087e-06,0.00131437,0.000868263,0.00174577,-0.00043312,1.10966,0.00133191,0.0183642,1798,603,10.9288,3.02786
581,421,10.9279,-2.6134,8.85778e-06,0.00167434,0.00121978,0.00231852,-0.00063533,1.08491,0.00179533,0.0152452,1805,603,10.9279,2.61338
588,421,10.913,-2.27991,0.000103588,0.00227997,0.00175259,0.00325472,-0.000871163,1.06322,0.00251109,0.011083,1812,603,10.9129,2.27992
595,421,10.9167,-1.91718,0.000319444,0.00315922,0.00247907,0.00459623,-0.00111757,1.04547,0.00349672,0.0148303,1819,603,10.9168,1.91719
602,421,10.8899,-1.62238,0.000525674,0.00429886,0.003328,0.00623782,-0.00141328,1.04326,0.004701,0.0145502,1826,603,10.89,1.62235
609,421,10.8423,-1.26471,0.000892273,0.00558125,0.00437267,0.0081983,-0.00172478,1.03148,0.00612199,0.0347968,1833,603,10.8423,1.2647
616,421,11.1156,-0.826416,0,0,0,0,0,0,0,-1,1840,603,11.1156,0.82642
623,421,6.19885,0.376648,0,0,0,0,0,0,0,-1,1847,603,6.19881,-0.376624
630,421,6.54993,0.778748,0,0,0,0,0,0,0,-1,1854,603,6.54991,-0.778744
637,421,3.74512,1.65405,0,0,0,0,0,0,0,-1,1861,603,3.74517,-1.65407
644,421,3.58081,0.354675,0,0,0,0,0,0,0,-1,1868,603,3.58082,-0.354704
651,421,3.28687,3.66351,0,0,0,0,0,0,0,-1,1875,603,3.28688,-3.66353
658,421,0,0,0,0,0,0,0,0,0,-1,1882,603,0,0
665,421,0,0,0,0,0,0,0,0,0,-1,1889,603,0,0
672,421,0,0,0,0,0,0,0,0,0,-1,1896,603,0,0
679,421,0,0,0,0,0,0,0,0,0,-1,1903,603,0,0
686,421,0,0,0,0,0,0,0,0,0,-1,1910,603,0,0
693,421,0,0,0,0,0,0,0,0,0,-1,1917,603,0,0
700,421,0,0,0,0,0,0,0,0,0,-1,1924,603,0,0
707,421,0,0,0,0,0,0,0,0,0,-1,1931,603,0,0
714,421,0,0,0,0,0,0,0,0,0,-1,1938,603,0,0
721,421,0,0,0,0,0,0,0,0,0,-1,1945,603,0,0
728,421,0,0,0,0,0,0,0,0,0,-1,1952,603,0,0
735,421,0,0,0,0,0,0,0,0,0,-1,1959,603,0,0
742,421,0,0,0,0,0,0,0,0,0,-1,1966,603,0,0
749,421,0,0,0,0,0,0,0,0,0,-1,1973,603,0,0
756,421,0,0,0,0,0,0,0,0,0,-1,1980,603,0,0
763,421,0,0,0,0,0,0,0,0,0,-1,1987,603,0,0
770,421,0,0,0,0,0,0,0,0,0,-1,1994,603,0,0
777,421,0,0,0,0,0,0,0,0,0,-1,2001,603,0,0
784,421,0,0,0,0,0,0,0,0,0,-1,2008,603,0,0
791,421,0,0,0,0,0,0,0,0,0,-1,2015,603,0,0
798,421,0,0,0,0,0,0,0,0,0,-1,2022,603,0,0
805,421,0,0,0,0,0,0,0,0,0,-1,2029,603,0,0
812,421,0,0,0,0,0,0,0,0,0,-1,2036,603,0,0
-700,414,0,0,0,0,0,0,0,0,0,-1,524,610,0,0
-693,414,0,0,0,0,0,0,0,0,0,-1,531,610,0,0
-686,414,0,0,0,0,0,0,0,0,0,-1,538,610,0,0
-679,414,0,0,0,0,0,0,0,0,0,-1,545,610,0,0
-672,414,0,0,0,0,0,0,0,0,0,-1,552,610,0,0
-665,414,0,0,0,0,0,0,0,0,0,-1,559,610,0,0
-658,414,0,0,0,0,0,0,0,0,0,-1,566,610,0,0
-651,414,0,0,0,0,0,0,0,0,0,-1,573,610,0,0
-644,414,0,0,0,0,0,0,0,0,0,-1,580,610,0,0
-637,414,0,0,0,0,0,0,0,0,0,-1,587,610,0,0
-630,414,0,0,0,0,0,0,0,0,0,-1,594,610,0,0
-623,414,0,0,0,0,0,0,0,0,0,-1,601,610,0,0
-616,414,0,0,0,0,0,0,0,0,0,-1,608,610,0,0
-609,414,0,0,0,0,0,0,0,0,0,-1,615,610,0,0
-602,414,0,0,0,0,0,0,0,0,0,-1,622,610,0,0
-595,414,0,0,0,0,0,0,0,0,0,-1,629,610,0,0
-588,414,0,0,0,0,0,0,0,0,0,-1,636,610,0,0
-581,414,0,0,0,0,0,0,0,0,0,-1,643,610,0,0
-574,414,0,0,0,0,0,0,0,0,0,-1,650,610,0,0
-567,414,0,0,0,0,0,0,0,0,0,-1,657,610,0,0
-560,414,0,0,0,0,0,0,0,0,0,-1,664,610,0,0
-553,414,0,0,0,0,0,0,0,0,0,-1,671,610,0,0
-546,414,0,0,0,0,0,0,0,0,0,-1,678,610,0,0
-539,414,-7.50146,5.65619,0,0,0,0,0,0,0,-1,685,610,-7.50149,-5.65617
-532,414,-8.15204,4.01605,0,0,0,0,0,0,0,-1,692,610,-8.15206,-4.01606
-525,414,-3.47137,-3.27924,0,0,0,0,0,0,0,-1,699,610,-3.47136,3.27922
-518,414,-3.41998,-4.42413,0,0,0,0,0,0,0,-1,706,610,-3.42001,4.4241
-511,414,-3.92542,-4.97021,0,0,0,0,0,0,0,-1,713,610,-3.92542,4.97023
-504,414,-1.62408,-3.64496,0,0,0,0,0,0,0,-1,720,610,-1.62406,3.64499
-497,414,-4.71692,-3.10107,0,0,0,0,0,0,0,-1,727,610,-4.71695,3.10107
-490,414,-4.7323,-2.49335,0.0128853,0.00588328,-0.0074173,0.0175864,0.00118227,-0.564895,0.0113507,0.0422908,734,610,-4.73232,2.49336
-483,414,-4.59595,-3.0177,0.0108042,0.00508482,-0.00668757,0.0152179,0.000671182,-0.583356,0.00992908,0.0225845,741,610,-4.59594,3.0177
-476,414,-4.6311,-3.38452,0.00882519,0.00433996,-0.00583804,0.0128365,0.000328611,-0.602019,0.00845029,0.0143909,748,610,-4.63108,3.3845
-469,414,-4.66614,-3.68018,0.00703311,0.00359064,-0.00491531,0.0105198,0.00010391,-0.616981,0.00697885,0.0123995,755,610,-4.66617,3.68018
-462,414,-4.66071,-4.02411,0.00543454,0.00289772,-0.003975,0.0083386,-6.34277e-06,-0.630957,0.00556118,0.0213515,762,610,-4.66071,4.02411
-455,414,-4.68866,-4.36426,0.00407398,0.00208817,-0.0030265,0.00626628,-0.000104129,-0.626895,0.00421266,0.0241343,769,610,-4.68867,4.36427
-448,414,-4.68127,-4.66766,0.00283048,0.00132168,-0.00201871,0.00423114,-7.89852e-05,-0.606581,0.00284746,0.023541,776,610,-4.6813,4.66763
-441,414,-4.65399,-5.00543,0.00163102,0.000736546,-0.00114188,0.00241012,-4.25595e-05,-0.598748,0.00162112,0.016413,783,610,-4.65398,5.00541
-434,414,-4.67584,-5.33026,0.000493657,-0.000201706,-9.87513e-05,0.00050741,-0.000215458,-0.13837,0.000428544,0.00971507,790,610,-4.67584,5.33025
-427,414,-4.67554,-5.63739,-0.000647732,-0.00124788,0.00113287,0.000224133,-0.00211975,0.655931,0.00149349,0.0104223,797,610,-4.67555,5.63738
-420,414,-4.65289,-5.93567,-0.00189333,-0.00242099,0.00231192,0.000169768,-0.00448409,0.728586,0.00304756,0.00953236,804,610,-4.6529,5.93569
-413,414,-4.65814,-6.24268,-0.00357819,-0.00397397,0.00386424,9.32235e-05,-0.00764539,0.759815,0.00512828,0.0100529,811,610,-4.65815,6.24269
-406,414,-4.65723,-6.64758,-0.0053904,-0.00581655,0.00559446,-4.95603e-06,-0.011202,0.766364,0.00746635,0.0181692,818,610,-4.65723,6.6476
-399,414,-4.68842,-6.87207,-0.00767939,-0.00822713,0.00766484,-0.000283525,-0.015623,0.767541,0.0103221,0.0304622,825,610,-4.68842,6.87209
-392,414,-4.77881,-7.01117,-0.0104779,-0.0112831,0.0101892,-0.000683318,-0.0210777,0.76565,0.0138296,0.0351494,832,610,-4.77881,7.01114
-385,414,-5.15375,-7.14893,0,0,0,0,0,0,0,-1,839,610,-5.15374,7.1489
-378,414,-5.60559,-7.33612,0,0,0,0,0,0,0,-1,846,610,-5.60558,7.33611
-371,414,-6.52948,-6.48608,0,0,0,0,0,0,0,-1,853,610,-6.52945,6.48606
-364,414,-6.76282,-6.58759,0,0,0,0,0,0,0,-1,860,610,-6.7628,6.58756
-357,414,-9.08685,-8.86188,0,0,0,0,0,0,0,-1,867,610,-9.08688,8.86187
-350,414,-6.4502,-2.41821,0,0,0,0,0,0,0,-1,874,610,-6.45021,2.41822
-343,414,-6.80249,-2.32117,0,0,0,0,0,0,0,-1,881,610,-6.80252,2.32116
-336,414,-7.11017,-2.52026,0,0,0,0,0,0,0,-1,888,610,-7.11016,2.52026
-329,414,-7.59747,-2.70313,0,0,0,0,0,0,0,-1,895,610,-7.59747,2.70315
-322,414,-4.42236,-1.29163,0,0,0,0,0,0,0,-1,902,610,-4.42238,1.2916
-315,414,0,0,0,0,0,0,0,0,0,-1,909,610,0,0
-308,414,0,0,0,0,0,0,0,0,0,-1,916,610,0,0
-301,414,0,0,0,0,0,0,0,0,0,-1,923,610,0,0
-294,414,0,0,0,0,0,0,0,0,0,-1,930,610,0,0
-287,414,0,0,0,0,0,0,0,0,0,-1,937,610,0,0
-280,414,0,0,0,0,0,0,0,0,0,-1,944,610,0,0
-273,414,0,0,0,0,0,0,0,0,0,-1,951,610,0,0
-266,414,0,0,0,0,0,0,0,0,0,-1,958,610,0,0
-259,414,0,0,0,0,0,0,0,0,0,-1,965,610,0,0
-252,414,0,0,0,0,0,0,0,0,0,-1,972,610,0,0
-245,414,0,0,0,0,0,0,0,0,0,-1,979,610,0,0
-238,414,0,0,0,0,0,0,0,0,0,-1,986,610,0,0
-231,414,0,0,0,0,0,0,0,0,0,-1,993,610,0,0
-224,414,0,0,0,0,0,0,0,0,0,-1,1000,610,0,0
-217,414,0,0,0,0,0,0,0,0,0,-1,1007,610,0,0
-210,414,0,0,0,0,0,0,0,0,0,-1,1014,610,0,0
-203,414,0,0,0,0,0,0,0,0,0,-1,1021,610,0,0
-196,414,0,0,0,0,0,0,0,0,0,-1,1028,610,0,0
-189,414,0,0,0,0,0,0,0,0,0,-1,1035,610,0,0
-182,414,0,0,0,0,0,0,0,0,0,-1,1042,610,0,0
-175,414,0,0,0,0,0,0,0,0,0,-1,1049,610,0,0
-168,414,0,0,0,0,0,0,0,0,0,-1,1056,610,0,0
-161,414,0,0,0,0,0,0,0,0,0,-1,1063,610,0,0
-154,414,0,0,0,0,0,0,0,0,0,-1,1070,610,0,0
-147,414,0,0,0,0,0,0,0,0,0,-1,1077,610,0,0
-140,414,0,0,0,0,0,0,0,0,0,-1,1084,610,0,0
-133,414,0,0,0,0,0,0,0,0,0,-1,1091,610,0,0
-126,414,0,0,0,0,0,0,0,0,0,-1,1098,610,0,0
-119,414,0,0,0,0,0,0,0,0,0,-1,1105,610,0,0
-112,414,0,0,0,0,0,0,0,0,0,-1,1112,610,0,0
-105,414,0,0,0,0,0,0,0,0,0,-1,1119,610,0,0
-98,414,0,0,0,0,0,0,0,0,0,-1,1126,610,0,0
-91,414,0,0,0,0,0,0,0,0,0,-1,1133,610,0,0
-84,414,0,0,0,0,0,0,0,0,0,-1,1140,610,0,0
-77,414,0,0,0,0,0,0,0,0,0,-1,1147,610,0,0
-70,414,0,0,0,0,0,0,0,0,0,-1,1154,610,0,0
-63,414,0,0,0,0,0,0,0,0,0,-1,1161,610,0,0
-56,414,0,0,0,0,0,0,0,0,0,-1,1168,610,0,0
-49,414,0,0,0,0,0,0,0,0,0,-1,1175,610,0,0
-42,414,0,0,0,0,0,0,0,0,0,-1,1182,610,0,0
-35,414,0,0,0,0,0,0,0,0,0,-1,1189,610,0,0
-28,414,0,0,0,0,0,0,0,0,0,-1,1196,610,0,0
-21,414,0,0,0,0,0,0,0,0,0,-1,1203,610,0,0
-14,414,0,0,0,0,0,0,0,0,0,-1,1210,610,0,0
-7,414,0,0,0,0,0,0,0,0,0,-1,1217,610,0,0
0,414,0,0,0,0,0,0,0,0,0,-1,1224,610,0,0
7,414,0,0,0,0,0,0,0,0,0,-1,1231,610,0,0
14,414,0,0,0,0,0,0,0,0,0,-1,1238,610,0,0
21,414,0,0,0,0,0,0,0,0,0,-1,1245,610,0,0
28,414,0,0,0,0,0,0,0,0,0,-1,1252,610,0,0
35,414,0,0,0,0,0,0,0,0,0,-1,1259,610,0,0
42,414,0,0,0,0,0,0,0,0,0,-1,1266,610,0,0
49,414,0,0,0,0,0,0,0,0,0,-1,1273,610,0,0
56,414,0,0,0,0,0,0,0,0,0,-1,1280,610,0,0
63,414,0,0,0,0,0,0,0,0,0,-1,1287,610,0,0
70,414,0,0,0,0,0,0,0,0,0,-1,1294,610,0,0
77,414,0,0,0,0,0,0,0,0,0,-1,1301,610,0,0
84,414,0,0,0,0,0,0,0,0,0,-1,1308,610,0,0
91,414,0,0,0,0,0,0,0,0,0,-1,1315,610,0,0
98,414,0,0,0,0,0,0,0,0,0,-1,1322,610,0,0
105,414,0,0,0,0,0,0,0,0,0,-1,1329,610,0,0
112,414,0,0,0,0,0,0,0,0,0,-1,1336,610,0,0
119,414,0,0,0,0,0,0,0,0,0,-1,1343,610,0,0
126,414,0,0,0,0,0,0,0,0,0,-1,1350,610,0,0
133,414,0,0,0,0,0,0,0,0,0,-1,1357,610,0,0
140,414,0,0,0,0,0,0,0,0,0,-1,1364,610,0,0
147,414,0,0,0,0,0,0,0,0,0,-1,1371,610,0,0
154,414,0,0,0,0,0,0,0,0,0,-1,1378,610,0,0
161,414,0,0,0,0,0,0,0,0,0,-1,1385,610,0,0
168,414,0,0,0,0,0,0,0,0,0,-1,1392,610,0,0
175,414,0,0,0,0,0,0,0,0,0,-1,1399,610,0,0
182,414,0,0,0,0,0,0,0,0,0,-1,1406,610,0,0
189,414,0,0,0,0,0,0,0,0,0,-1,1413,610,0,0
196,414,0,0,0,0,0,0,0,0,0,-1,1420,610,0,0
203,414,0,0,0,0,0,0,0,0,0,-1,1427,610,0,0
210,414,0,0,0,0,0,0,0,0,0,-1,1434,610,0,0
217,414,0,0,0,0,0,0,0,0,0,-1,1441,610,0,0
224,414,0,0,0,0,0,0,0,0,0,-1,1448,610,0,0
231,414,0,0,0,0,0,0,0,0,0,-1,1455,610,0,0
238,414,0,0,0,0,0,0,0,0,0,-1,1462,610,0,0
245,414,0,0,0,0,0,0,0,0,0,-1,1469,610,0,0
252,414,0,0,0,0,0,0,0,0,0,-1,1476,610,0,0
259,414,0,0,0,0,0,0,0,0,0,-1,1483,610,0,0
266,414,0,0,0,0,0,0,0,0,0,-1,1490,610,0,0
273,414,0,0,0,0,0,0,0,0,0,-1,1497,610,0,0
280,414,0,0,0,0,0,0,0,0,0,-1,1504,610,0,0
287,414,0,0,0,0,0,0,0,0,0,-1,1511,610,0,0
294,414,0,0,0,0,0,0,0,0,0,-1,1518,610,0,0
301,414,0,0,0,0,0,0,0,0,0,-1,1525,610,0,0
308,414,0,0,0,0,0,0,0,0,0,-1,1532,610,0,0
315,414,0,0,0,0,0,0,0,0,0,-1,1539,610,0,0
322,414,0,0,0,0,0,0,0,0,0,-1,1546,610,0,0
329,414,0,0,0,0,0,0,0,0,0,-1,1553,610,0,0
336,414,0,0,0,0,0,0,0,0,0,-1,1560,610,0,0
343,414,0,0,0,0,0,0,0,0,0,-1,1567,610,0,0
350,414,0,0,0,0,0,0,0,0,0,-1,1574,610,0,0
357,414,0,0,0,0,0,0,0,0,0,-1,1581,610,0,0
364,414,0,0,0,0,0,0,0,0,0,-1,1588,610,0,0
371,414,0,0,0,0,0,0,0,0,0,-1,1595,610,0,0
378,414,0,0,0,0,0,0,0,0,0,-1,1602,610,0,0
385,414,0,0,0,0,0,0,0,0,0,-1,1609,610,0,0
392,414,0,0,0,0,0,0,0,0,0,-1,1616,610,0,0
399,414,0,0,0,0,0,0,0,0,0,-1,1623,610,0,0
406,414,0,0,0,0,0,0,0,0,0,-1,1630,610,0,0
413,414,0,0,0,0,0,0,0,0,0,-1,1637,610,0,0
420,414,0,0,0,0,0,0,0,0,0,-1,1644,610,0,0
427,414,0,0,0,0,0,0,0,0,0,-1,1651,610,0,0
434,414,0,0,0,0,0,0,0,0,0,-1,1658,610,0,0
441,414,7.84375,0.584412,0,0,0,0,0,0,0,-1,1665,610,7.84379,-0.584394
448,414,7.40808,1.25446,0,0,0,0,0,0,0,-1,1672,610,7.40807,-1.25446
455,414,6.3512,1.73846,0,0,0,0,0,0,0,-1,1679,610,6.3512,-1.73847
462,414,8.18103,3.22113,0,0,0,0,0,0,0,-1,1686,610,8.18108,-3.22112
469,414,8.38513,2.49579,0,0,0,0,0,0,0,-1,1693,610,8.38516,-2.49576
476,414,8.64099,1.71161,0,0,0,0,0,0,0,-1,1700,610,8.64097,-1.71164
483,414,8.62744,0.687622,0,0,0,0,0,0,0,-1,1707,610,8.62749,-0.687615
490,414,8.38831,-0.0302734,0,0,0,0,0,0,0,-1,1714,610,8.38835,0.0302913
497,414,4.71094,-0.110046,0,0,0,0,0,0,0,-1,1721,610,4.71089,0.110024
504,414,7.19568,-1.43835,0,0,0,0,0,0,0,-1,1728,610,7.19563,1.43836
511,414,5.94153,-1.28772,0,0,0,0,0,0,0,-1,1735,610,5.94151,1.28769
518,414,4.53381,-0.0996704,0,0,0,0,0,0,0,-1,1742,610,4.53378,0.0996819
525,414,6.18811,-1.64056,0,0,0,0,0,0,0,-1,1749,610,6.18814,1.64055
532,414,11.2291,-5.21008,0,0,0,0,0,0,0,-1,1756,610,11.2292,5.21008
539,414,11.2517,-4.75391,0.00167749,0.00333363,0.0020895,0.00475317,0.000257954,0.974055,0.00308639,0.0478628,1763,610,11.2517,4.7539
546,414,11.2885,-4.30225,0.000916041,0.00226898,0.00124695,0.00301113,0.000173888,1.03393,0.00195204,0.013514,1770,610,11.2884,4.30224
553,414,11.3103,-3.97095,0.000482146,0.00158514,0.000800935,0.00200608,6.1199e-05,1.0869,0.00131746,0.0117058,1777,610,11.3104,3.97095
560,414,11.3047,-3.62744,0.000151477,0.00121675,0.000575081,0.00146796,-9.97358e-05,1.15895,0.00101352,0.0137005,1784,610,11.3047,3.62741
567,414,11.2902,-3.31873,-3.63537e-05,0.0010835,0.000534861,0.00129791,-0.000250762,1.18954,0.00095984,0.022337,1791,610,11.2902,3.31872
574,414,11.2714,-2.99799,-6.327e-05,0.00116075,0.000668478,0.00145506,-0.000357583,1.15606,0.00110863,0.0207855,1798,610,11.2713,2.99797
581,414,11.2881,-2.62097,2.06654e-06,0.0013982,0.00092788,0.00186128,-0.000461013,1.10789,0.0014197,0.0161026,1805,610,11.288,2.62097
588,414,11.2542,-2.28882,0.00014093,0.00186595,0.00134946,0.00260499,-0.00059811,1.06975,0.00196658,0.0154531,1812,610,11.2542,2.2888
595,414,11.269,-1.92334,0.000422805,0.0025742,0.00194198,0.00371851,-0.000721505,1.03832,0.00275122,0.021063,1819,610,11.269,1.92335
602,414,11.2589,-1.57703,0.000642896,0.00350124,0.00261723,0.00505408,-0.00090995,1.03531,0.00371009,0.0227959,1826,610,11.259,1.57703
609,414,11.1658,-1.24188,0.000645867,0.00436831,0.00325916,0.00626026,-0.00124608,1.04484,0.00464491,0.0236189,1833,610,11.1658,1.24185
616,414,11.4852,-0.682739,0,0,0,0,0,0,0,-1,1840,610,11.4852,0.682711
623,414,9.6969,0.0378418,0,0,0,0,0,0,0,-1,1847,610,9.69685,-0.0378644
630,414,5.47144,0.499329,0,0,0,0,0,0,0,-1,1854,610,5.47142,-0.499303
637,414,7.65186,3.90131,0,0,0,0,0,0,0,-1,1861,610,7.65181,-3.90128
644,414,5.87073,1.51422,0,0,0,0,0,0,0,-1,1868,610,5.87076,-1.51424
651,414,3.6377,0.820557,0,0,0,0,0,0,0,-1,1875,610,3.6377,-0.820543
658,414,2.29761,3.87323,0,0,0,0,0,0,0,-1,1882,610,2.29758,-3.87325
665,414,0,0,0,0,0,0,0,0,0,-1,1889,610,0,0
672,414,0,0,0,0,0,0,0,0,0,-1,1896,610,0,0
679,414,0,0,0,0,0,0,0,0,0,-1,1903,610,0,0
686,414,0,0,0,0,0,0,0,0,0,-1,1910,610,0,0
693,414,0,0,0,0,0,0,0,0,0,-1,1917,610,0,0
700,414,0,0,0,0,0,0,0,0,0,-1,1924,610,0,0
707,414,0,0,0,0,0,0,0,0,0,-1,1931,610,0,0
714,414,0,0,0,0,0,0,0,0,0,-1,1938,610,0,0
721,414,0,0,0,0,0,0,0,0,0,-1,1945,610,0,0
728,414,0,0,0,0,0,0,0,0,0,-1,1952,610,0,0
735,414,0,0,0,0,0,0,0,0,0,-1,1959,610,0,0
742,414,0,0,0,0,0,0,0,0,0,-1,1966,610,0,0
749,414,0,0,0,0,0,0,0,0,0,-1,1973,610,0,0
756,414,0,0,0,0,0,0,0,0,0,-1,1980,610,0,0
763,414,0,0,0,0,0,0,0,0,0,-1,1987,610,0,0
770,414,0,0,0,0,0,0,0,0,0,-1,1994,610,0,0
777,414,0,0,0,0,0,0,0,0,0,-1,2001,610,0,0
784,414,0,0,0,0,0,0,0,0,0,-1,2008,610,0,0
791,414,0,0,0,0,0,0,0,0,0,-1,2015,610,0,0
798,414,0,0,0,0,0,0,0,0,0,-1,2022,610,0,0
805,414,0,0,0,0,0,0,0,0,0,-1,2029,610,0,0
812,414,0,0,0,0,0,0,0,0,0,-1,2036,610,0,0
-700,407,0,0,0,0,0,0,0,0,0,-1,524,617,0,0
-693,407,0,0,0,0,0,0,0,0,0,-1,531,617,0,0
-686,407,0,0,0,0,0,0,0,0,0,-1,538,617,0,0
-679,407,0,0,0,0,0,0,0,0,0,-1,545,617,0,0
-672,407,0,0,0,0,0,0,0,0,0,-1,552,617,0,0
-665,407,0,0,0,0,0,0,0,0,0,-1,559,617,0,0
-658,407,0,0,0,0,0,0,0,0,0,-1,566,617,0,0
-651,407,0,0,0,0,0,0,0,0,0,-1,573,617,0,0
-644,407,0,0,0,0,0,0,0,0,0,-1,580,617,0,0
-637,407,0,0,0,0,0,0,0,0,0,-1,587,617,0,0
-630,407,0,0,0,0,0,0,0,0,0,-1,594,617,0,0
-623,407,0,0,0,0,0,0,0,0,0,-1,601,617,0,0
-616,407,0,0,0,0,0,0,0,0,0,-1,608,617,0,0
-609,407,0,0,0,0,0,0,0,0,0,-1,615,617,0,0
-602,407,0,0,0,0,0,0,0,0,0,-1,622,617,0,0
-595,407,0,0,0,0,0,0,0,0,0,-1,629,617,0,0
-588,407,0,0,0,0,0,0,0,0,0,-1,636,617,0,0
-581,407,0,0,0,0,0,0,0,0,0,-1,643,617,0,0
-574,407,0,0,0,0,0,0,0,0,0,-1,650,617,0,0
-567,407,0,0,0,0,0,0,0,0,0,-1,657,617,0,0
-560,407,0,0,0,0,0,0,0,0,0,-1,664,617,0,0
-553,407,0,0,0,0,0,0,0,0,0,-1,671,617,0,0
-546,407,-8.54517,-0.658142,0,0,0,0,0,0,0,-1,678,617,-8.54515,0.658112
-539,407,-6.09442,-1.01154,0,0,0,0,0,0,0,-1,685,617,-6.09441,1.01155
-532,407,-7.75665,1.62152,0,0,0,0,0,0,0,-1,692,617,-7.75667,-1.62154
-525,407,-3.78247,-2.67639,0,0,0,0,0,0,0,-1,699,617,-3.78246,2.67638
-518,407,-4.77777,-6.01947,0,0,0,0,0,0,0,-1,706,617,-4.77777,6.01945
-511,407,-4.26392,-4.37659,0,0,0,0,0,0,0,-1,713,617,-4.26393,4.37658
-504,407,-5.07019,-3.13544,0,0,0,0,0,0,0,-1,720,617,-5.07018,3.13544
-497,407,-4.96649,-2.96307,0.0103515,0.0049248,-0.00507302,0.0133912,0.00188509,-0.539825,0.00837019,0.0407344,727,617,-4.96647,2.96308
-490,407,-4.94342,-2.7699,0.00904029,0.00415403,-0.0048123,0.0119941,0.00120021,-0.55051,0.00762755,0.0251681,734,617,-4.94341,2.7699
-483,407,-4.90637,-3.03662,0.00778261,0.00356789,-0.00449186,0.0106369,0.000713618,-0.566066,0.00686576,0.0162097,741,617,-4.90637,3.03665
-476,407,-4.93939,-3.34393,0.00651898,0.00302831,-0.00403025,0.00916559,0.000381703,-0.58106,0.00598721,0.0114502,748,617,-4.93942,3.34393
-469,407,-4.97186,-3.65149,0.00532699,0.00249898,-0.00347854,0.00766793,0.000158036,-0.592352,0.0050601,0.012323,755,617,-4.97186,3.65152
-462,407,-4.98328,-3.98096,0.00417705,0.00199625,-0.00285413,0.00614198,3.1319e-05,-0.602933,0.00408425,0.0197596,762,617,-4.9833,3.98098
-455,407,-4.9975,-4.34589,0.00314338,0.00135577,-0.00213524,0.00456434,-6.51856e-05,-0.587181,0.00306485,0.0214561,769,617,-4.99751,4.34588
-448,407,-4.97595,-4.65527,0.00215772,0.000685069,-0.0013162,0.00292956,-8.67688e-05,-0.53037,0.00198259,0.0188846,776,617,-4.97597,4.65527
-441,407,-4.97491,-4.97662,0.00110062,0.000134123,-0.000545031,0.00134579,-0.000111042,-0.422704,0.000936405,0.0141612,783,617,-4.97492,4.97663
-434,407,-5.00763,-5.29285,5.58793e-05,-0.000708277,0.000403483,0.000229483,-0.000881881,0.40632,0.000677496,0.0102845,790,617,-5.00764,5.29285
-427,407,-4.98718,-5.61383,-0.00105083,-0.00174331,0.00156167,0.00020252,-0.00299666,0.676306,0.00206859,0.0110527,797,617,-4.98721,5.6138
-420,407,-4.95978,-5.91803,-0.00226143,-0.00295129,0.00268525,0.000100957,-0.00531367,0.721521,0.00357658,0.0105568,804,617,-4.95978,5.91804
-413,407,-4.95032,-6.22552,-0.00411976,-0.00468874,0.0043975,2.44193e-06,-0.00881094,0.753097,0.00587477,0.0120433,811,617,-4.95029,6.22554
-406,407,-5.01398,-6.47412,-0.00644531,-0.00689693,0.00645596,-0.000211214,-0.013131,0.767917,0.00868447,0.027538,818,617,-5.01401,6.47413
-399,407,-5.08551,-6.53375,-0.00952182,-0.00984234,0.00903698,-0.000643674,-0.0187205,0.776532,0.0122714,0.0456515,825,617,-5.08551,6.53377
-392,407,-5.0545,-6.95715,0,0,0,0,0,0,0,-1,832,617,-5.05448,6.95718
-385,407,-5.39923,-6.84857,0,0,0,0,0,0,0,-1,839,617,-5.39921,6.84855
-378,407,-7.28882,-5.95453,0,0,0,0,0,0,0,-1,846,617,-7.28881,5.95453
-371,407,-7.4007,-5.79449,0,0,0,0,0,0,0,-1,853,617,-7.40072,5.79447
-364,407,-10.0638,-6.6228,0,0,0,0,0,0,0,-1,860,617,-10.0639,6.62279
-357,407,-6.64447,-1.83337,0,0,0,0,0,0,0,-1,867,617,-6.64446,1.8334
-350,407,-7.03351,-1.77551,0,0,0,0,0,0,0,-1,874,617,-7.03349,1.77551
-343,407,-7.40967,-1.95026,0,0,0,0,0,0,0,-1,881,617,-7.40969,1.95026
-336,407,-8.10229,-2.40662,0,0,0,0,0,0,0,-1,888,617,-8.10229,2.40664
-329,407,-8.81232,-2.76331,0,0,0,0,0,0,0,-1,895,617,-8.81235,2.76331
-322,407,0,0,0,0,0,0,0,0,0,-1,902,617,0,0
-315,407,0,0,0,0,0,0,0,0,0,-1,909,617,0,0
-308,407,0,0,0,0,0,0,0,0,0,-1,916,617,0,0
-301,407,0,0,0,0,0,0,0,0,0,-1,923,617,0,0
-294,407,0,0,0,0,0,0,0,0,0,-1,930,617,0,0
-287,407,0,0,0,0,0,0,0,0,0,-1,937,617,0,0
-280,407,0,0,0,0,0,0,0,0,0,-1,944,617,0,0
-273,407,0,0,0,0,0,0,0,0,0,-1,951,617,0,0
-266,407,0,0,0,0,0,0,0,0,0,-1,958,617,0,0
-259,407,0,0,0,0,0,0,0,0,0,-1,965,617,0,0
-252,407,0,0,0,0,0,0,0,0,0,-1,972,617,0,0
-245,407,0,0,0,0,0,0,0,0,0,-1,979,617,0,0
-238,407,0,0,0,0,0,0,0,0,0,-1,986,617,0,0
-231,407,0,0,0,0,0,0,0,0,0,-1,993,617,0,0
-224,407,0,0,0,0,0,0,0,0,0,-1,1000,617,0,0
-217,407,0,0,0,0,0,0,0,0,0,-1,1007,617,0,0
-210,407,0,0,0,0,0,0,0,0,0,-1,1014,617,0,0
-203,407,0,0,0,0,0,0,0,0,0,-1,1021,617,0,0
-196,407,0,0,0,0,0,0,0,0,0,-1,1028,617,0,0
-189,407,0,0,0,0,0,0,0,0,0,-1,1035,617,0,0
-182,407,0,0,0,0,0,0,0,0,0,-1,1042,617,0,0
-175,407,0,0,0,0,0,0,0,0,0,-1,1049,617,0,0
-168,407,0,0,0,0,0,0,0,0,0,-1,1056,617,0,0
-161,407,0,0,0,0,0,0,0,0,0,-1,1063,617,0,0
-154,407,0,0,0,0,0,0,0,0,0,-1,1070,617,0,0
-147,407,0,0,0,0,0,0,0,0,0,-1,1077,617,0,0
-140,407,0,0,0,0,0,0,0,0,0,-1,1084,617,0,0
-133,407,0,0,0,0,0,0,0,0,0,-1,1091,617,0,0
-126,407,0,0,0,0,0,0,0,0,0,-1,1098,617,0,0
-119,407,0,0,0,0,0,0,0,0,0,-1,1105,617,0,0
-112,407,0,0,0,0,0,0,0,0,0,-1,1112,617,0,0
-105,407,0,0,0,0,0,0,0,0,0,-1,1119,617,0,0
-98,407,0,0,0,0,0,0,0,0,0,-1,1126,617,0,0
-91,407,0,0,0,0,0,0,0,0,0,-1,1133,617,0,0
-84,407,0,0,0,0,0,0,0,0,0,-1,1140,617,0,0
-77,407,0,0,0,0,0,0,0,0,0,-1,1147,617,0,0
-70,407,0,0,0,0,0,0,0,0,0,-1,1154,617,0,0
-63,407,0,0,0,0,0,0,0,0,0,-1,1161,617,0,0
-56,407,0,0,0,0,0,0,0,0,0,-1,1168,617,0,0
-49,407,0,0,0,0,0,0,0,0,0,-1,1175,617,0,0
-42,407,0,0,0,0,0,0,0,0,0,-1,1182,617,0,0
-35,407,0,0,0,0,0,0,0,0,0,-1,1189,617,0,0
-28,407,0,0,0,0,0,0,0,0,0,-1,1196,617,0,0
-21,407,0,0,0,0,0,0,0,0,0,-1,1203,617,0,0
-14,407,0,0,0,0,0,0,0,0,0,-1,1210,617,0,0
-7,407,0,0,0,0,0,0,0,0,0,-1,1217,617,0,0
0,407,0,0,0,0,0,0,0,0,0,-1,1224,617,0,0
7,407,0,0,0,0,0,0,0,0,0,-1,1231,617,0,0
14,407,0,0,0,0,0,0,0,0,0,-1,1238,617,0,0
21,407,0,0,0,0,0,0,0,0,0,-1,1245,617,0,0
28,407,0,0,0,0,0,0,0,0,0,-1,1252,617,0,0
35,407,0,0,0,0,0,0,0,0,0,-1,1259,617,0,0
42,407,0,0,0,0,0,0,0,0,0,-1,1266,617,0,0
49,407,0,0,0,0,0,0,0,0,0,-1,1273,617,0,0
56,407,0,0,0,0,0,0,0,0,0,-1,1280,617,0,0
63,407,0,0,0,0,0,0,0,0,0,-1,1287,617,0,0
70,407,0,0,0,0,0,0,0,0,0,-1,1294,617,0,0
77,407,0,0,0,0,0,0,0,0,0,-1,1301,617,0,0
84,407,0,0,0,0,0,0,0,0,0,-1,1308,617,0,0
91,407,0,0,0,0,0,0,0,0,0,-1,1315,617,0,0
98,407,0,0,0,0,0,0,0,0,0,-1,1322,617,0,0
105,407,0,0,0,0,0,0,0,0,0,-1,1329,617,0,0
112,407,0,0,0,0,0,0,0,0,0,-1,1336,617,0,0
119,407,0,0,0,0,0,0,0,0,0,-1,1343,617,0,0
126,407,0,0,0,0,0,0,0,0,0,-1,1350,617,0,0
133,407,0,0,0,0,0,0,0,0,0,-1,1357,617,0,0
140,407,0,0,0,0,0,0,0,0,0,-1,1364,617,0,0
147,407,0,0,0,0,0,0,0,0,0,-1,1371,617,0,0
154,407,0,0,0,0,0,0,0,0,0,-1,1378,617,0,0
161,407,0,0,0,0,0,0,0,0,0,-1,1385,617,0,0
168,407,0,0,0,0,0,0,0,0,0,-1,1392,617,0,0
175,407,0,0,0,0,0,0,0,0,0,-1,1399,617,0,0
182,407,0,0,0,0,0,0,0,0,0,-1,1406,617,0,0
189,407,0,0,0,0,0,0,0,0,0,-1,1413,617,0,0
196,407,0,0,0,0,0,0,0,0,0,-1,1420,617,0,0
203,407,0,0,0,0,0,0,0,0,0,-1,1427,617,0,0
210,407,0,0,0,0,0,0,0,0,0,-1,1434,617,0,0
217,407,0,0,0,0,0,0,0,0,0,-1,1441,617,0,0
224,407,0,0,0,0,0,0,0,0,0,-1,1448,617,0,0
231,407,0,0,0,0,0,0,0,0,0,-1,1455,617,0,0
238,407,0,0,0,0,0,0,0,0,0,-1,1462,617,0,0
245,407,0,0,0,0,0,0,0,0,0,-1,1469,617,0,0
252,407,0,0,0,0,0,0,0,0,0,-1,1476,617,0,0
259,407,0,0,0,0,0,0,0,0,0,-1,1483,617,0,0
266,407,0,0,0,0,0,0,0,0,0,-1,1490,617,0,0
273,407,0,0,0,0,0,0,0,0,0,-1,1497,617,0,0
280,407,0,0,0,0,0,0,0,0,0,-1,1504,617,0,0
287,407,0,0,0,0,0,0,0,0,0,-1,1511,617,0,0
294,407,0,0,0,0,0,0,0,0,0,-1,1518,617,0,0
301,407,0,0,0,0,0,0,0,0,0,-1,1525,617,0,0
308,407,0,0,0,0,0,0,0,0,0,-1,1532,617,0,0
315,407,0,0,0,0,0,0,0,0,0,-1,1539,617,0,0
322,407,0,0,0,0,0,0,0,0,0,-1,1546,617,0,0
329,407,0,0,0,0,0,0,0,0,0,-1,1553,617,0,0
336,407,0,0,0,0,0,0,0,0,0,-1,1560,617,0,0
343,407,0,0,0,0,0,0,0,0,0,-1,1567,617,0,0
350,407,0,0,0,0,0,0,0,0,0,-1,1574,617,0,0
357,407,0,0,0,0,0,0,0,0,0,-1,1581,617,0,0
364,407,0,0,0,0,0,0,0,0,0,-1,1588,617,0,0
371,407,0,0,0,0,0,0,0,0,0,-1,1595,617,0,0
378,407,0,0,0,0,0,0,0,0,0,-1,1602,617,0,0
385,407,0,0,0,0,0,0,0,0,0,-1,1609,617,0,0
392,407,0,0,0,0,0,0,0,0,0,-1,1616,617,0,0
399,407,0,0,0,0,0,0,0,0,0,-1,1623,617,0,0
406,407,0,0,0,0,0,0,0,0,0,-1,1630,617,0,0
413,407,0,0,0,0,0,0,0,0,0,-1,1637,617,0,0
420,407,0,0,0,0,0,0,0,0,0,-1,1644,617,0,0
427,407,0,0,0,0,0,0,0,0,0,-1,1651,617,0,0
434,407,0,0,0,0,0,0,0,0,0,-1,1658,617,0,0
441,407,0,0,0,0,0,0,0,0,0,-1,1665,617,0,0
448,407,7.02893,2.13843,0,0,0,0,0,0,0,-1,1672,617,7.02899,-2.13844
455,407,7.55237,2.29242,0,0,0,0,0,0,0,-1,1679,617,7.55236,-2.29244
462,407,8.2926,2.46173,0,0,0,0,0,0,0,-1,1686,617,8.29261,-2.46174
469,407,8.71509,2.22681,0,0,0,0,0,0,0,-1,1693,617,8.71511,-2.22681
476,407,8.89917,1.47766,0,0,0,0,0,0,0,-1,1700,617,8.89914,-1.47768
483,407,9.02612,0.682983,0,0,0,0,0,0,0,-1,1707,617,9.02608,-0.683004
490,407,9.12659,0.000671387,0,0,0,0,0,0,0,-1,1714,617,9.12653,-0.000675931
497,407,7.76819,0.855835,0,0,0,0,0,0,0,-1,1721,617,7.7682,-0.855865
504,407,4.69336,0.160706,0,0,0,0,0,0,0,-1,1728,617,4.69337,-0.1607
511,407,4.07104,-0.00140381,0,0,0,0,0,0,0,-1,1735,617,4.07109,0.00141425
518,407,6.09534,1.9411,0,0,0,0,0,0,0,-1,1742,617,6.09532,-1.94113
525,407,5.72534,-1.35986,0,0,0,0,0,0,0,-1,1749,617,5.72529,1.35988
532,407,7.31763,-2.34937,0,0,0,0,0,0,0,-1,1756,617,7.31766,2.34937
539,407,11.5671,-4.65686,0,0,0,0,0,0,0,-1,1763,617,11.5672,4.65686
546,407,11.639,-4.27618,8.00809e-05,0.00267228,0.00126044,0.0031841,-0.000431739,1.18507,0.00228031,0.0168965,1770,617,11.639,4.2762
553,407,11.632,-3.96307,-0.000236112,0.00180128,0.000717831,0.00202879,-0.000463619,1.26387,0.00153065,0.0141862,1777,617,11.6319,3.96308
560,407,11.6454,-3.6153,-0.000437582,0.00132354,0.000429854,0.00142286,-0.000536899,1.34373,0.00116937,0.0161374,1784,617,11.6454,3.61529
567,407,11.639,-3.29059,-0.000514293,0.00106746,0.000327704,0.00113266,-0.000579498,1.37439,0.00100557,0.0284766,1791,617,11.639,3.2906
574,407,11.5997,-2.94623,-0.000419457,0.00104595,0.00041104,0.00115337,-0.000526877,1.31518,0.000992315,0.0251263,1798,617,11.5998,2.94623
581,407,11.5957,-2.58813,-0.000230615,0.00118648,0.000611888,0.00141412,-0.000458255,1.21463,0.00112699,0.0177144,1805,617,11.5957,2.58811
588,407,11.5922,-2.29541,3.45559e-05,0.00154551,0.000966626,0.00201686,-0.000436797,1.1171,0.00151136,0.0119864,1812,617,11.5922,2.29541
595,407,11.6261,-1.9519,0.000460396,0.00211463,0.00148078,0.00298363,-0.00040861,1.0401,0.00213834,0.0215798,1819,617,11.6261,1.9519
602,407,11.6155,-1.56921,0.000799971,0.00287333,0.00207514,0.00415633,-0.000483033,1.01705,0.00294513,0.0180541,1826,617,11.6154,1.56922
609,407,11.5692,-1.21155,0.000727652,0.00345309,0.00251924,0.00495456,-0.000773817,1.03332,0.00358889,0.015687,1833,617,11.5692,1.21158
616,407,11.6409,-0.761902,0.000417278,0.00452507,0.00314739,0.00622944,-0.00128709,1.07449,0.00464185,0.0287704,1840,617,11.6409,0.761926
623,407,11.8809,-0.237427,0,0,0,0,0,0,0,-1,1847,617,11.8809,0.237435
630,407,7.06177,0.814575,0,0,0,0,0,0,0,-1,1854,617,7.06178,-0.814579
637,407,6.27808,1.17114,0,0,0,0,0,0,0,-1,1861,617,6.27803,-1.17116
644,407,5.09766,2.27747,0,0,0,0,0,0,0,-1,1868,617,5.09764,-2.27746
651,407,7.37524,0.0513916,0,0,0,0,0,0,0,-1,1875,617,7.3752,-0.0513923
658,407,3.76685,0.594177,0,0,0,0,0,0,0,-1,1882,617,3.76683,-0.594184
665,407,5.76123,0.375061,0,0,0,0,0,0,0,-1,1889,617,5.76118,-0.37509
672,407,0,0,0,0,0,0,0,0,0,-1,1896,617,0,0
679,407,0,0,0,0,0,0,0,0,0,-1,1903,617,0,0
686,407,0,0,0,0,0,0,0,0,0,-1,1910,617,0,0
693,407,0,0,0,0,0,0,0,0,0,-1,1917,617,0,0
700,407,0,0,0,0,0,0,0,0,0,-1,1924,617,0,0
707,407,0,0,0,0,0,0,0,0,0,-1,1931,617,0,0
714,407,0,0,0,0,0,0,0,0,0,-1,1938,617,0,0
721,407,0,0,0,0,0,0,0,0,0,-1,1945,617,0,0
728,407,0,0,0,0,0,0,0,0,0,-1,1952,617,0,0
735,407,0,0,0,0,0,0,0,0,0,-1,1959,617,0,0
742,407,0,0,0,0,0,0,0,0,0,-1,1966,617,0,0
749,407,0,0,0,0,0,0,0,0,0,-1,1973,617,0,0
756,407,0,0,0,0,0,0,0,0,0,-1,1980,617,0,0
763,407,0,0,0,0,0,0,0,0,0,-1,1987,617,0,0
770,407,0,0,0,0,0,0,0,0,0,-1,1994,617,0,0
777,407,0,0,0,0,0,0,0,0,0,-1,2001,617,0,0
784,407,0,0,0,0,0,0,0,0,0,-1,2008,617,0,0
791,407,0,0,0,0,0,0,0,0,0,-1,2015,617,0,0
798,407,0,0,0,0,0,0,0,0,0,-1,2022,617,0,0
805,407,0,0,0,0,0,0,0,0,0,-1,2029,617,0,0
812,407,0,0,0,0,0,0,0,0,0,-1,2036,617,0,0
-700,400,0,0,0,0,0,0,0,0,0,-1,524,624,0,0
-693,400,0,0,0,0,0,0,0,0,0,-1,531,624,0,0
-686,400,0,0,0,0,0,0,0,0,0,-1,538,624,0,0
-679,400,0,0,0,0,0,0,0,0,0,-1,545,624,0,0
-672,400,0,0,0,0,0,0,0,0,0,-1,552,624,0,0
-665,400,0,0,0,0,0,0,0,0,0,-1,559,624,0,0
-658,400,0,0,0,0,0,0,0,0,0,-1,566,624,0,0
-651,400,0,0,0,0,0,0,0,0,0,-1,573,624,0,0
-644,400,0,0,0,0,0,0,0,0,0,-1,580,624,0,0
-637,400,0,0,0,0,0,0,0,0,0,-1,587,624,0,0
-630,400,0,0,0,0,0,0,0,0,0,-1,594,624,0,0
-623,400,0,0,0,0,0,0,0,0,0,-1,601,624,0,0
-616,400,0,0,0,0,0,0,0,0,0,-1,608,624,0,0
-609,400,0,0,0,0,0,0,0,0,0,-1,615,624,0,0
-602,400,0,0,0,0,0,0,0,0,0,-1,622,624,0,0
-595,400,0,0,0,0,0,0,0,0,0,-1,629,624,0,0
-588,400,0,0,0,0,0,0,0,0,0,-1,636,624,0,0
-581,400,0,0,0,0,0,0,0,0,0,-1,643,624,0,0
-574,400,0,0,0,0,0,0,0,0,0,-1,650,624,0,0
-567,400,0,0,0,0,0,0,0,0,0,-1,657,624,0,0
-560,400,0,0,0,0,0,0,0,0,0,-1,664,624,0,0
-553,400,0,0,0,0,0,0,0,0,0,-1,671,624,0,0
-546,400,-8.41174,-1.4599,0,0,0,0,0,0,0,-1,678,624,-8.41173,1.45989
-539,400,-5.69104,-1.7337,0,0,0,0,0,0,0,-1,685,624,-5.69103,1.7337
-532,400,-3.03632,-2.03912,0,0,0,0,0,0,0,-1,692,624,-3.03632,2.03909
-525,400,-6.20813,-7.04071,0,0,0,0,0,0,0,-1,699,624,-6.20814,7.04071
-518,400,-4.9964,-5.26758,0,0,0,0,0,0,0,-1,706,624,-4.99638,5.26759
-511,400,-4.81049,-4.1651,0,0,0,0,0,0,0,-1,713,624,-4.8105,4.16513
-504,400,-4.86584,-3.35675,0,0,0,0,0,0,0,-1,720,624,-4.86587,3.35677
-497,400,-5.26135,-2.65479,0.00761151,0.0044472,-0.00360922,0.00997012,0.00208858,-0.57883,0.0060715,0.0357689,727,624,-5.26134,2.6548
-490,400,-5.24042,-2.69464,0.00644411,0.00320625,-0.00327217,0.00847594,0.00117442,-0.555676,0.00530268,0.0173,734,624,-5.24043,2.69464
-483,400,-5.26312,-3.02887,0.00555043,0.00253225,-0.00303968,0.007435,0.000647668,-0.554991,0.0047555,0.0148285,741,624,-5.2631,3.02889
-476,400,-5.26636,-3.3374,0.00477256,0.00208308,-0.00279417,0.00652874,0.000326899,-0.561124,0.00424772,0.0132476,748,624,-5.26635,3.33743
-469,400,-5.28265,-3.64349,0.00404752,0.00172858,-0.0024965,0.00564066,0.000135434,-0.568,0.00371612,0.0145151,755,624,-5.28268,3.64348
-462,400,-5.26038,-3.98792,0.00325062,0.00137597,-0.00211339,0.00462522,1.37719e-06,-0.576673,0.00308302,0.0199756,762,624,-5.26036,3.98788
-455,400,-5.26257,-4.30121,0.00246265,0.000887713,-0.0015696,0.00343124,-8.08757e-05,-0.552894,0.00231492,0.0206069,769,624,-5.26258,4.30121
-448,400,-5.2912,-4.61639,0.00167305,0.000303559,-0.000898389,0.0021179,-0.000141288,-0.459768,0.00146131,0.0155986,776,624,-5.29121,4.61637
-441,400,-5.30804,-4.93353,0.000711892,-0.000253025,-0.000181533,0.000744914,-0.000286048,-0.179941,0.000614564,0.0147268,783,624,-5.30804,4.93354
-434,400,-5.32458,-5.25507,-0.000281583,-0.000987901,0.000706158,0.000154803,-0.00142429,0.553529,0.00100511,0.0115332,790,624,-5.3246,5.25508
-427,400,-5.30682,-5.56519,-0.00139067,-0.00199421,0.00180161,0.000134267,-0.00351915,0.702419,0.00239211,0.0104545,797,624,-5.30682,5.56516
-420,400,-5.23895,-5.89972,-0.00260579,-0.00322023,0.00287904,-1.76292e-05,-0.0058084,0.732244,0.0038664,0.0141876,804,624,-5.23896,5.89972
-413,400,-5.3255,-6.16577,-0.00469464,-0.00514515,0.00477917,-0.000135422,-0.00970437,0.761849,0.00642491,0.0313296,811,624,-5.32548,6.16574
-406,400,-5.6059,-6.42615,-0.00766994,-0.00775873,0.00722723,-0.000486964,-0.0149417,0.782327,0.00980285,0.0423686,818,624,-5.60588,6.42616
-399,400,-5.70233,-6.79779,0,0,0,0,0,0,0,-1,825,624,-5.70231,6.79779
-392,400,-4.92285,-6.63354,0,0,0,0,0,0,0,-1,832,624,-4.92285,6.63354
-385,400,-3.68738,-5.04205,0,0,0,0,0,0,0,-1,839,624,-3.68736,5.04207
-378,400,-6.84064,-1.28662,0,0,0,0,0,0,0,-1,846,624,-6.84062,1.28662
-371,400,-6.98865,-1.2572,0,0,0,0,0,0,0,-1,853,624,-6.98865,1.25721
-364,400,-6.97247,-1.24133,0,0,0,0,0,0,0,-1,860,624,-6.97249,1.24135
-357,400,-7.18329,-1.23218,0,0,0,0,0,0,0,-1,867,624,-7.18327,1.2322
-350,400,-7.40186,-1.19409,0,0,0,0,0,0,0,-1,874,624,-7.40187,1.19407
-343,400,-8.09357,-1.51147,0,0,0,0,0,0,0,-1,881,624,-8.09355,1.51148
-336,400,0,0,0,0,0,0,0,0,0,-1,888,624,0,0
-329,400,0,0,0,0,0,0,0,0,0,-1,895,624,0,0
-322,400,0,0,0,0,0,0,0,0,0,-1,902,624,0,0
-315,400,0,0,0,0,0,0,0,0,0,-1,909,624,0,0
-308,400,0,0,0,0,0,0,0,0,0,-1,916,624,0,0
-301,400,0,0,0,0,0,0,0,0,0,-1,923,624,0,0
-294,400,0,0,0,0,0,0,0,0,0,-1,930,624,0,0
-287,400,0,0,0,0,0,0,0,0,0,-1,937,624,0,0
-280,400,0,0,0,0,0,0,0,0,0,-1,944,624,0,0
-273,400,0,0,0,0,0,0,0,0,0,-1,951,624,0,0
-266,400,0,0,0,0,0,0,0,0,0,-1,958,624,0,0
-259,400,0,0,0,0,0,0,0,0,0,-1,965,624,0,0
-252,400,0,0,0,0,0,0,0,0,0,-1,972,624,0,0
-245,400,0,0,0,0,0,0,0,0,0,-1,979,624,0,0
-238,400,0,0,0,0,0,0,0,0,0,-1,986,624,0,0
-231,400,0,0,0,0,0,0,0,0,0,-1,993,624,0,0
-224,400,0,0,0,0,0,0,0,0,0,-1,1000,624,0,0
-217,400,0,0,0,0,0,0,0,0,0,-1,1007,624,0,0
-210,400,0,0,0,0,0,0,0,0,0,-1,1014,624,0,0
-203,400,0,0,0,0,0,0,0,0,0,-1,1021,624,0,0
-196,400,0,0,0,0,0,0,0,0,0,-1,1028,624,0,0
-189,400,0,0,0,0,0,0,0,0,0,-1,1035,624,0,0
-182,400,0,0,0,0,0,0,0,0,0,-1,1042,624,0,0
-175,400,0,0,0,0,0,0,0,0,0,-1,1049,624,0,0
-168,400,0,0,0,0,0,0,0,0,0,-1,1056,624,0,0
-161,400,0,0,0,0,0,0,0,0,0,-1,1063,624,0,0
-154,400,0,0,0,0,0,0,0,0,0,-1,1070,624,0,0
-147,400,0,0,0,0,0,0,0,0,0,-1,1077,624,0,0
-140,400,0,0,0,0,0,0,0,0,0,-1,1084,624,0,0
-133,400,0,0,0,0,0,0,0,0,0,-1,1091,624,0,0
-126,400,0,0,0,0,0,0,0,0,0,-1,1098,624,0,0
-119,400,0,0,0,0,0,0,0,0,0,-1,1105,624,0,0
-112,400,0,0,0,0,0,0,0,0,0,-1,1112,624,0,0
-105,400,0,0,0,0,0,0,0,0,0,-1,1119,624,0,0
-98,400,0,0,0,0,0,0,0,0,0,-1,1126,624,0,0
-91,400,0,0,0,0,0,0,0,0,0,-1,1133,624,0,0
-84,400,0,0,0,0,0,0,0,0,0,-1,1140,624,0,0
-77,400,0,0,0,0,0,0,0,0,0,-1,1147,624,0,0
-70,400,0,0,0,0,0,0,0,0,0,-1,1154,624,0,0
-63,400,0,0,0,0,0,0,0,0,0,-1,1161,624,0,0
-56,400,0,0,0,0,0,0,0,0,0,-1,1168,624,0,0
-49,400,0,0,0,0,0,0,0,0,0,-1,1175,624,0,0
-42,400,0,0,0,0,0,0,0,0,0,-1,1182,624,0,0
-35,400,0,0,0,0,0,0,0,0,0,-1,1189,624,0,0
-28,400,0,0,0,0,0,0,0,0,0,-1,1196,624,0,0
-21,400,0,0,0,0,0,0,0,0,0,-1,1203,624,0,0
-14,400,0,0,0,0,0,0,0,0,0,-1,1210,624,0,0
-7,400,0,0,0,0,0,0,0,0,0,-1,1217,624,0,0
0,400,0,0,0,0,0,0,0,0,0,-1,1224,624,0,0
7,400,0,0,0,0,0,0,0,0,0,-1,1231,624,0,0
14,400,0,0,0,0,0,0,0,0,0,-1,1238,624,0,0
21,400,0,0,0,0,0,0,0,0,0,-1,1245,624,0,0
28,400,0,0,0,0,0,0,0,0,0,-1,1252,624,0,0
35,400,0,0,0,0,0,0,0,0,0,-1,1259,624,0,0
42,400,0,0,0,0,0,0,0,0,0,-1,1266,624,0,0
49,400,0,0,0,0,0,0,0,0,0,-1,1273,624,0,0
56,400,0,0,0,0,0,0,0,0,0,-1,1280,624,0,0
63,400,0,0,0,0,0,0,0,0,0,-1,1287,624,0,0
70,400,0,0,0,0,0,0,0,0,0,-1,1294,624,0,0
77,400,0,0,0,0,0,0,0,0,0,-1,1301,624,0,0
84,400,0,0,0,0,0,0,0,0,0,-1,1308,624,0,0
91,400,0,0,0,0,0,0,0,0,0,-1,1315,624,0,0
98,400,0,0,0,0,0,0,0,0,0,-1,1322,624,0,0
105,400,0,0,0,0,0,0,0,0,0,-1,1329,624,0,0
112,400,0,0,0,0,0,0,0,0,0,-1,1336,624,0,0
119,400,0,0,0,0,0,0,0,0,0,-1,1343,624,0,0
126,400,0,0,0,0,0,0,0,0,0,-1,1350,624,0,0
133,400,0,0,0,0,0,0,0,0,0,-1,1357,624,0,0
140,400,0,0,0,0,0,0,0,0,0,-1,1364,624,0,0
147,400,0,0,0,0,0,0,0,0,0,-1,1371,624,0,0
154,400,0,0,0,0,0,0,0,0,0,-1,1378,624,0,0
161,400,0,0,0,0,0,0,0,0,0,-1,1385,624,0,0
168,400,0,0,0,0,0,0,0,0,0,-1,1392,624,0,0
175,400,0,0,0,0,0,0,0,0,0,-1,1399,624,0,0
182,400,0,0,0,0,0,0,0,0,0,-1,1406,624,0,0
189,400,0,0,0,0,0,0,0,0,0,-1,1413,624,0,0
196,400,0,0,0,0,0,0,0,0,0,-1,1420,624,0,0
203,400,0,0,0,0,0,0,0,0,0,-1,1427,624,0,0
210,400,0,0,0,0,0,0,0,0,0,-1,1434,624,0,0
217,400,0,0,0,0,0,0,0,0,0,-1,1441,624,0,0
224,400,0,0,0,0,0,0,0,0,0,-1,1448,624,0,0
231,400,0,0,0,0,0,0,0,0,0,-1,1455,624,0,0
238,400,0,0,0,0,0,0,0,0,0,-1,1462,624,0,0
245,400,0,0,0,0,0,0,0,0,0,-1,1469,624,0,0
252,400,0,0,0,0,0,0,0,0,0,-1,1476,624,0,0
259,400,0,0,0,0,0,0,0,0,0,-1,1483,624,0,0
266,400,0,0,0,0,0,0,0,0,0,-1,1490,624,0,0
273,400,0,0,0,0,0,0,0,0,0,-1,1497,624,0,0
280,400,0,0,0,0,0,0,0,0,0,-1,1504,624,0,0
287,400,0,0,0,0,0,0,0,0,0,-1,1511,624,0,0
294,400,0,0,0,0,0,0,0,0,0,-1,1518,624,0,0
301,400,0,0,0,0,0,0,0,0,0,-1,1525,624,0,0
308,400,0,0,0,0,0,0,0,0,0,-1,1532,624,0,0
315,400,0,0,0,0,0,0,0,0,0,-1,1539,624,0,0
322,400,0,0,0,0,0,0,0,0,0,-1,1546,624,0,0
329,400,0,0,0,0,0,0,0,0,0,-1,1553,624,0,0
336,400,0,0,0,0,0,0,0,0,0,-1,1560,624,0,0
343,400,0,0,0,0,0,0,0,0,0,-1,1567,624,0,0
350,400,0,0,0,0,0,0,0,0,0,-1,1574,624,0,0
357,400,0,0,0,0,0,0,0,0,0,-1,1581,624,0,0
364,400,0,0,0,0,0,0,0,0,0,-1,1588,624,0,0
371,400,0,0,0,0,0,0,0,0,0,-1,1595,624,0,0
378,400,0,0,0,0,0,0,0,0,0,-1,1602,624,0,0
385,400,0,0,0,0,0,0,0,0,0,-1,1609,624,0,0
392,400,0,0,0,0,0,0,0,0,0,-1,1616,624,0,0
399,400,0,0,0,0,0,0,0,0,0,-1,1623,624,0,0
406,400,0,0,0,0,0,0,0,0,0,-1,1630,624,0,0
413,400,0,0,0,0,0,0,0,0,0,-1,1637,624,0,0
420,400,0,0,0,0,0,0,0,0,0,-1,1644,624,0,0
427,400,0,0,0,0,0,0,0,0,0,-1,1651,624,0,0
434,400,0,0,0,0,0,0,0,0,0,-1,1658,624,0,0
441,400,0,0,0,0,0,0,0,0,0,-1,1665,624,0,0
448,400,0,0,0,0,0,0,0,0,0,-1,1672,624,0,0
455,400,8.91309,2.75885,0,0,0,0,0,0,0,-1,1679,624,8.91312,-2.75885
462,400,8.90356,2.37878,0,0,0,0,0,0,0,-1,1686,624,8.90353,-2.37878
469,400,9.14429,1.76849,0,0,0,0,0,0,0,-1,1693,624,9.14432,-1.76847
476,400,9.23254,1.25995,0,0,0,0,0,0,0,-1,1700,624,9.23252,-1.25994
483,400,9.59766,0.562439,0,0,0,0,0,0,0,-1,1707,624,9.59771,-0.56242
490,400,9.92578,-0.213745,0,0,0,0,0,0,0,-1,1714,624,9.92579,0.21376
497,400,9.19141,0.175232,0,0,0,0,0,0,0,-1,1721,624,9.19138,-0.175209
504,400,9.23438,0.00823975,0,0,0,0,0,0,0,-1,1728,624,9.23436,-0.00823766
511,400,6.16687,3.3501,0,0,0,0,0,0,0,-1,1735,624,6.16682,-3.35007
518,400,6.55237,1.74994,0,0,0,0,0,0,0,-1,1742,624,6.55236,-1.74993
525,400,6.99731,1.08783,0,0,0,0,0,0,0,-1,1749,624,6.99736,-1.08785
532,400,6.96582,-1.74982,0,0,0,0,0,0,0,-1,1756,624,6.96585,1.74983
539,400,12.08,-4.65973,0,0,0,0,0,0,0,-1,1763,624,12.08,4.65972
546,400,12.042,-4.33234,-0.000930183,0.00315152,0.0012153,0.00348596,-0.00126463,1.30225,0.00284094,0.0348107,1770,624,12.042,4.33233
553,400,11.9277,-3.95258,-0.00106261,0.00208578,0.000603553,0.00219751,-0.00117435,1.38774,0.0019764,0.0182814,1777,624,11.9278,3.95255
560,400,11.9686,-3.58978,-0.00107898,0.0014938,0.000275429,0.00152296,-0.00110814,1.46533,0.00152535,0.0142249,1784,624,11.9687,3.58976
567,400,11.9794,-3.2782,-0.00101623,0.00110781,0.00012286,0.0011149,-0.00102331,1.51321,0.00123487,0.017872,1791,624,11.9794,3.27818
574,400,11.9427,-2.95422,-0.000787786,0.000987048,0.000169408,0.00100307,-0.000803811,1.47648,0.00104532,0.0194226,1798,624,11.9428,2.95423
581,400,11.911,-2.58417,-0.000482863,0.0010364,0.000328486,0.00110438,-0.000550845,1.36672,0.000973293,0.0191607,1805,624,11.9111,2.58416
588,400,11.9232,-2.22443,-0.000123594,0.00129303,0.000632798,0.00153453,-0.000365092,1.20622,0.00116396,0.0142799,1812,624,11.9232,2.22443
595,400,11.9597,-1.9173,0.000376276,0.00173703,0.00108296,0.0023356,-0.000222298,1.06587,0.00163621,0.0128495,1819,624,11.9597,1.91728
602,400,11.9604,-1.58881,0.000756274,0.00234685,0.00161257,0.00334958,-0.000246451,1.01449,0.00231957,0.0129534,1826,624,11.9604,1.5888
609,400,11.9142,-1.23077,0.00056459,0.00273048,0.00191239,0.00384526,-0.000550194,1.04303,0.00276521,0.0138533,1833,624,11.9142,1.2308
616,400,11.9259,-0.878601,6.49797e-05,0.00343512,0.00229874,0.00460025,-0.00110015,1.10168,0.00349181,0.0177225,1840,624,11.9259,0.87858
623,400,12.046,-0.305115,0,0,0,0,0,0,0,-1,1847,624,12.046,0.30511
630,400,11.9432,0.09021,0,0,0,0,0,0,0,-1,1854,624,11.9432,-0.0902007
637,400,6.92896,1.01917,0,0,0,0,0,0,0,-1,1861,624,6.92899,-1.01918
644,400,8.65381,1.4599,0,0,0,0,0,0,0,-1,1868,624,8.65379,-1.45991
651,400,7.90601,0.424072,0,0,0,0,0,0,0,-1,1875,624,7.90598,-0.424097
658,400,8.69031,1.0484,0,0,0,0,0,0,0,-1,1882,624,8.6903,-1.0484
665,400,5.98438,0.522522,0,0,0,0,0,0,0,-1,1889,624,5.98442,-0.522552
672,400,0,0,0,0,0,0,0,0,0,-1,1896,624,0,0
679,400,0,0,0,0,0,0,0,0,0,-1,1903,624,0,0
686,400,0,0,0,0,0,0,0,0,0,-1,1910,624,0,0
693,400,0,0,0,0,0,0,0,0,0,-1,1917,624,0,0
700,400,0,0,0,0,0,0,0,0,0,-1,1924,624,0,0
707,400,0,0,0,0,0,0,0,0,0,-1,1931,624,0,0
714,400,0,0,0,0,0,0,0,0,0,-1,1938,624,0,0
721,400,0,0,0,0,0,0,0,0,0,-1,1945,624,0,0
728,400,0,0,0,0,0,0,0,0,0,-1,1952,624,0,0
735,400,0,0,0,0,0,0,0,0,0,-1,1959,624,0,0
742,400,0,0,0,0,0,0,0,0,0,-1,1966,624,0,0
749,400,0,0,0,0,0,0,0,0,0,-1,1973,624,0,0
756,400,0,0,0,0,0,0,0,0,0,-1,1980,624,0,0
763,400,0,0,0,0,0,0,0,0,0,-1,1987,624,0,0
770,400,0,0,0,0,0,0,0,0,0,-1,1994,624,0,0
777,400,0,0,0,0,0,0,0,0,0,-1,2001,624,0,0
784,400,0,0,0,0,0,0,0,0,0,-1,2008,624,0,0
791,400,0,0,0,0,0,0,0,0,0,-1,2015,624,0,0
798,400,0,0,0,0,0,0,0,0,0,-1,2022,624,0,0
805,400,0,0,0,0,0,0,0,0,0,-1,2029,624,0,0
812,400,0,0,0,0,0,0,0,0,0,-1,2036,624,0,0
-700,393,0,0,0,0,0,0,0,0,0,-1,524,631,0,0
-693,393,0,0,0,0,0,0,0,0,0,-1,531,631,0,0
-686,393,0,0,0,0,0,0,0,0,0,-1,538,631,0,0
-679,393,0,0,0,0,0,0,0,0,0,-1,545,631,0,0
-672,393,0,0,0,0,0,0,0,0,0,-1,552,631,0,0
-665,393,0,0,0,0,0,0,0,0,0,-1,559,631,0,0
-658,393,0,0,0,0,0,0,0,0,0,-1,566,631,0,0
-651,393,0,0,0,0,0,0,0,0,0,-1,573,631,0,0
-644,393,0,0,0,0,0,0,0,0,0,-1,580,631,0,0
-637,393,0,0,0,0,0,0,0,0,0,-1,587,631,0,0
-630,393,0,0,0,0,0,0,0,0,0,-1,594,631,0,0
-623,393,0,0,0,0,0,0,0,0,0,-1,601,631,0,0
-616,393,0,0,0,0,0,0,0,0,0,-1,608,631,0,0
-609,393,0,0,0,0,0,0,0,0,0,-1,615,631,0,0
-602,393,0,0,0,0,0,0,0,0,0,-1,622,631,0,0
-595,393,0,0,0,0,0,0,0,0,0,-1,629,631,0,0
-588,393,0,0,0,0,0,0,0,0,0,-1,636,631,0,0
-581,393,0,0,0,0,0,0,0,0,0,-1,643,631,0,0
-574,393,0,0,0,0,0,0,0,0,0,-1,650,631,0,0
-567,393,0,0,0,0,0,0,0,0,0,-1,657,631,0,0
-560,393,0,0,0,0,0,0,0,0,0,-1,664,631,0,0
-553,393,-2.35107,3.92633,0,0,0,0,0,0,0,-1,671,631,-2.35108,-3.92634
-546,393,-1.78778,2.4856,0,0,0,0,0,0,0,-1,678,631,-1.78778,-2.48557
-539,393,-5.2113,-2.20245,0,0,0,0,0,0,0,-1,685,631,-5.21128,2.20247
-532,393,-2.83643,-2.01624,0,0,0,0,0,0,0,-1,692,631,-2.83642,2.01626
-525,393,-5.43378,-4.97723,0,0,0,0,0,0,0,-1,699,631,-5.4338,4.97722
-518,393,-5.43475,-0.526367,0,0,0,0,0,0,0,-1,706,631,-5.43477,0.526344
-511,393,-5.4248,-1.25842,0,0,0,0,0,0,0,-1,713,631,-5.42479,1.25841
-504,393,-5.80139,-1.8537,0,0,0,0,0,0,0,-1,720,631,-5.80138,1.85371
-497,393,-5.60632,-2.2829,0.00566751,0.00391062,-0.00248201,0.00742194,0.00215619,-0.615315,0.00440864,0.0259243,727,631,-5.60631,2.28287
-490,393,-5.57251,-2.69537,0.00449762,0.00256621,-0.0021547,0.00589313,0.0011707,-0.574726,0.0036025,0.0147137,734,631,-5.57251,2.69539
-483,393,-5.56885,-3.05151,0.00383916,0.00187943,-0.00202098,0.00510529,0.000613297,-0.559672,0.00321863,0.0192304,741,631,-5.56884,3.05153
-476,393,-5.57117,-3.33136,0.00342975,0.00152392,-0.00196618,0.00466176,0.000291904,-0.559751,0.00301525,0.0159694,748,631,-5.57115,3.33136
-469,393,-5.59094,-3.63831,0.00306198,0.00132043,-0.00187702,0.00426037,0.000122041,-0.568217,0.00280045,0.0123545,755,631,-5.59095,3.63831
-462,393,-5.58228,-3.99213,0.00255837,0.0011002,-0.00169217,0.00367183,-1.32704e-05,-0.581987,0.00245232,0.014587,762,631,-5.58229,3.99212
-455,393,-5.59735,-4.32489,0.00197593,0.000765304,-0.00129728,0.00280217,-6.09386e-05,-0.567112,0.00188875,0.0145545,769,631,-5.59738,4.32491
-448,393,-5.62506,-4.64539,0.00135678,0.000268527,-0.000752708,0.00174144,-0.000116132,-0.472436,0.00120154,0.0141257,776,631,-5.62504,4.64539
-441,393,-5.62543,-4.95465,0.000493976,-0.000332356,-5.49831e-05,0.000497618,-0.000335998,-0.0661501,0.000484294,0.0129466,783,631,-5.62542,4.95464
-434,393,-5.6145,-5.23981,-0.000435089,-0.000960282,0.00079801,0.00014242,-0.00153779,0.626447,0.00107581,0.0119311,790,631,-5.61448,5.23983
-427,393,-5.57477,-5.57465,-0.00153213,-0.00193213,0.00184144,0.000120138,-0.0035844,0.731304,0.00243064,0.019608,797,631,-5.57475,5.57462
-420,393,-5.59253,-5.88544,-0.00274644,-0.00317772,0.00289448,-5.95753e-05,-0.00586459,0.748216,0.00389002,0.0403697,804,631,-5.59256,5.88545
-413,393,-5.70996,-6.22424,0,0,0,0,0,0,0,-1,811,631,-5.70994,6.22427
-406,393,-6.13226,-6.5838,0,0,0,0,0,0,0,-1,818,631,-6.13227,6.58383
-399,393,-5.07343,-5.92365,0,0,0,0,0,0,0,-1,825,631,-5.07344,5.92364
-392,393,-2.08063,-3.02386,0,0,0,0,0,0,0,-1,832,631,-2.08063,3.02384
-385,393,-3.16931,-0.624756,0,0,0,0,0,0,0,-1,839,631,-3.16928,0.624764
-378,393,-7.33081,-0.872314,0,0,0,0,0,0,0,-1,846,631,-7.33081,0.872325
-371,393,-7.47858,-0.811096,0,0,0,0,0,0,0,-1,853,631,-7.47859,0.811075
-364,393,-7.64917,-0.662415,0,0,0,0,0,0,0,-1,860,631,-7.64917,0.662406
-357,393,-8.09686,-0.726013,0,0,0,0,0,0,0,-1,867,631,-8.09689,0.726029
-350,393,-8.38788,-0.511841,0,0,0,0,0,0,0,-1,874,631,-8.38785,0.511811
-343,393,0,0,0,0,0,0,0,0,0,-1,881,631,0,0
-336,393,0,0,0,0,0,0,0,0,0,-1,888,631,0,0
-329,393,0,0,0,0,0,0,0,0,0,-1,895,631,0,0
-322,393,0,0,0,0,0,0,0,0,0,-1,902,631,0,0
-315,393,0,0,0,0,0,0,0,0,0,-1,909,631,0,0
-308,393,0,0,0,0,0,0,0,0,0,-1,916,631,0,0
-301,393,0,0,0,0,0,0,0,0,0,-1,923,631,0,0
-294,393,0,0,0,0,0,0,0,0,0,-1,930,631,0,0
-287,393,0,0,0,0,0,0,0,0,0,-1,937,631,0,0
-280,393,0,0,0,0,0,0,0,0,0,-1,944,631,0,0
-273,393,0,0,0,0,0,0,0,0,0,-1,951,631,0,0
-266,393,0,0,0,0,0,0,0,0,0,-1,958,631,0,0
-259,393,0,0,0,0,0,0,0,0,0,-1,965,631,0,0
-252,393,0,0,0,0,0,0,0,0,0,-1,972,631,0,0
-245,393,0,0,0,0,0,0,0,0,0,-1,979,631,0,0
-238,393,0,0,0,0,0,0,0,0,0,-1,986,631,0,0
-231,393,0,0,0,0,0,0,0,0,0,-1,993,631,0,0
-224,393,0,0,0,0,0,0,0,0,0,-1,1000,631,0,0
-217,393,0,0,0,0,0,0,0,0,0,-1,1007,631,0,0
-210,393,0,0,0,0,0,0,0,0,0,-1,1014,631,0,0
-203,393,0,0,0,0,0,0,0,0,0,-1,1021,631,0,0
-196,393,0,0,0,0,0,0,0,0,0,-1,1028,631,0,0
-189,393,0,0,0,0,0,0,0,0,0,-1,1035,631,0,0
-182,393,0,0,0,0,0,0,0,0,0,-1,1042,631,0,0
-175,393,0,0,0,0,0,0,0,0,0,-1,1049,631,0,0
-168,393,0,0,0,0,0,0,0,0,0,-1,1056,631,0,0
-161,393,0,0,0,0,0,0,0,0,0,-1,1063,631,0,0
-154,393,0,0,0,0,0,0,0,0,0,-1,1070,631,0,0
-147,393,0,0,0,0,0,0,0,0,0,-1,1077,631,0,0
-140,393,0,0,0,0,0,0,0,0,0,-1,1084,631,0,0
-133,393,0,0,0,0,0,0,0,0,0,-1,1091,631,0,0
-126,393,0,0,0,0,0,0,0,0,0,-1,1098,631,0,0
-119,393,0,0,0,0,0,0,0,0,0,-1,1105,631,0,0
-112,393,0,0,0,0,0,0,0,0,0,-1,1112,631,0,0
-105,393,0,0,0,0,0,0,0,0,0,-1,1119,631,0,0
-98,393,0,0,0,0,0,0,0,0,0,-1,1126,631,0,0
-91,393,0,0,0,0,0,0,0,0,0,-1,1133,631,0,0
-84,393,0,0,0,0,0,0,0,0,0,-1,1140,631,0,0
-77,393,0,0,0,0,0,0,0,0,0,-1,1147,631,0,0
-70,393,0,0,0,0,0,0,0,0,0,-1,1154,631,0,0
-63,393,0,0,0,0,0,0,0,0,0,-1,1161,631,0,0
-56,393,0,0,0,0,0,0,0,0,0,-1,1168,631,0,0
-49,393,0,0,0,0,0,0,0,0,0,-1,1175,631,0,0
-42,393,0,0,0,0,0,0,0,0,0,-1,1182,631,0,0
-35,393,0,0,0,0,0,0,0,0,0,-1,1189,631,0,0
-28,393,0,0,0,0,0,0,0,0,0,-1,1196,631,0,0
-21,393,0,0,0,0,0,0,0,0,0,-1,1203,631,0,0
-14,393,0,0,0,0,0,0,0,0,0,-1,1210,631,0,0
-7,393,0,0,0,0,0,0,0,0,0,-1,1217,631,0,0
0,393,0,0,0,0,0,0,0,0,0,-1,1224,631,0,0
7,393,0,0,0,0,0,0,0,0,0,-1,1231,631,0,0
14,393,0,0,0,0,0,0,0,0,0,-1,1238,631,0,0
21,393,0,0,0,0,0,0,0,0,0,-1,1245,631,0,0
28,393,0,0,0,0,0,0,0,0,0,-1,1252,631,0,0
35,393,0,0,0,0,0,0,0,0,0,-1,1259,631,0,0
42,393,0,0,0,0,0,0,0,0,0,-1,1266,631,0,0
49,393,0,0,0,0,0,0,0,0,0,-1,1273,631,0,0
56,393,0,0,0,0,0,0,0,0,0,-1,1280,631,0,0
63,393,0,0,0,0,0,0,0,0,0,-1,1287,631,0,0
70,393,0,0,0,0,0,0,0,0,0,-1,1294,631,0,0
77,393,0,0,0,0,0,0,0,0,0,-1,1301,631,0,0
84,393,0,0,0,0,0,0,0,0,0,-1,1308,631,0,0
91,393,0,0,0,0,0,0,0,0,0,-1,1315,631,0,0
98,393,0,0,0,0,0,0,0,0,0,-1,1322,631,0,0
105,393,0,0,0,0,0,0,0,0,0,-1,1329,631,0,0
112,393,0,0,0,0,0,0,0,0,0,-1,1336,631,0,0
119,393,0,0,0,0,0,0,0,0,0,-1,1343,631,0,0
126,393,0,0,0,0,0,0,0,0,0,-1,1350,631,0,0
133,393,0,0,0,0,0,0,0,0,0,-1,1357,631,0,0
140,393,0,0,0,0,0,0,0,0,0,-1,1364,631,0,0
147,393,0,0,0,0,0,0,0,0,0,-1,1371,631,0,0
154,393,0,0,0,0,0,0,0,0,0,-1,1378,631,0,0
161,393,0,0,0,0,0,0,0,0,0,-1,1385,631,0,0
168,393,0,0,0,0,0,0,0,0,0,-1,1392,631,0,0
175,393,0,0,0,0,0,0,0,0,0,-1,1399,631,0,0
182,393,0,0,0,0,0,0,0,0,0,-1,1406,631,0,0
189,393,0,0,0,0,0,0,0,0,0,-1,1413,631,0,0
196,393,0,0,0,0,0,0,0,0,0,-1,1420,631,0,0
203,393,0,0,0,0,0,0,0,0,0,-1,1427,631,0,0
210,393,0,0,0,0,0,0,0,0,0,-1,1434,631,0,0
217,393,0,0,0,0,0,0,0,0,0,-1,1441,631,0,0
224,393,0,0,0,0,0,0,0,0,0,-1,1448,631,0,0
231,393,0,0,0,0,0,0,0,0,0,-1,1455,631,0,0
238,393,0,0,0,0,0,0,0,0,0,-1,1462,631,0,0
245,393,0,0,0,0,0,0,0,0,0,-1,1469,631,0,0
252,393,0,0,0,0,0,0,0,0,0,-1,1476,631,0,0
259,393,0,0,0,0,0,0,0,0,0,-1,1483,631,0,0
266,393,0,0,0,0,0,0,0,0,0,-1,1490,631,0,0
273,393,0,0,0,0,0,0,0,0,0,-1,1497,631,0,0
280,393,0,0,0,0,0,0,0,0,0,-1,1504,631,0,0
287,393,0,0,0,0,0,0,0,0,0,-1,1511,631,0,0
294,393,0,0,0,0,0,0,0,0,0,-1,1518,631,0,0
301,393,0,0,0,0,0,0,0,0,0,-1,1525,631,0,0
308,393,0,0,0,0,0,0,0,0,0,-1,1532,631,0,0
315,393,0,0,0,0,0,0,0,0,0,-1,1539,631,0,0
322,393,0,0,0,0,0,0,0,0,0,-1,1546,631,0,0
329,393,0,0,0,0,0,0,0,0,0,-1,1553,631,0,0
336,393,0,0,0,0,0,0,0,0,0,-1,1560,631,0,0
343,393,0,0,0,0,0,0,0,0,0,-1,1567,631,0,0
350,393,0,0,0,0,0,0,0,0,0,-1,1574,631,0,0
357,393,0,0,0,0,0,0,0,0,0,-1,1581,631,0,0
364,393,0,0,0,0,0,0,0,0,0,-1,1588,631,0,0
371,393,0,0,0,0,0,0,0,0,0,-1,1595,631,0,0
378,393,0,0,0,0,0,0,0,0,0,-1,1602,631,0,0
385,393,0,0,0,0,0,0,0,0,0,-1,1609,631,0,0
392,393,0,0,0,0,0,0,0,0,0,-1,1616,631,0,0
399,393,0,0,0,0,0,0,0,0,0,-1,1623,631,0,0
406,393,0,0,0,0,0,0,0,0,0,-1,1630,631,0,0
413,393,0,0,0,0,0,0,0,0,0,-1,1637,631,0,0
420,393,0,0,0,0,0,0,0,0,0,-1,1644,631,0,0
427,393,0,0,0,0,0,0,0,0,0,-1,1651,631,0,0
434,393,0,0,0,0,0,0,0,0,0,-1,1658,631,0,0
441,393,0,0,0,0,0,0,0,0,0,-1,1665,631,0,0
448,393,0,0,0,0,0,0,0,0,0,-1,1672,631,0,0
455,393,0,0,0,0,0,0,0,0,0,-1,1679,631,0,0
462,393,8.51099,1.89502,0,0,0,0,0,0,0,-1,1686,631,8.51103,-1.89504
469,393,9.39465,1.51703,0,0,0,0,0,0,0,-1,1693,631,9.39465,-1.51703
476,393,9.95569,1.185,0,0,0,0,0,0,0,-1,1700,631,9.95575,-1.18497
483,393,10.5267,0.887329,0,0,0,0,0,0,0,-1,1707,631,10.5267,-0.887321
490,393,10.9303,0.761414,0,0,0,0,0,0,0,-1,1714,631,10.9303,-0.761386
497,393,8.32153,1.88104,0,0,0,0,0,0,0,-1,1721,631,8.32148,-1.88103
504,393,9.46985,1.78711,0,0,0,0,0,0,0,-1,1728,631,9.46986,-1.78713
511,393,9.66565,-0.375977,0,0,0,0,0,0,0,-1,1735,631,9.66571,0.375949
518,393,7.01599,1.62482,0,0,0,0,0,0,0,-1,1742,631,7.01597,-1.62483
525,393,7.88245,-1.13422,0,0,0,0,0,0,0,-1,1749,631,7.88246,1.13423
532,393,7.06335,-1.18103,0,0,0,0,0,0,0,-1,1756,631,7.06332,1.18101
539,393,9.91626,-2.46301,0,0,0,0,0,0,0,-1,1763,631,9.91625,2.46302
546,393,12.3853,-4.38257,0,0,0,0,0,0,0,-1,1770,631,12.3853,4.38255
553,393,12.2676,-3.89429,-0.00226935,0.00255083,0.000589153,0.0026218,-0.00234032,1.45092,0.00286642,0.0329924,1777,631,12.2675,3.89431
560,393,12.3098,-3.59619,-0.00203839,0.0017683,0.000165345,0.00177547,-0.00204556,1.52747,0.00220791,0.0166068,1784,631,12.3098,3.59619
567,393,12.2975,-3.24908,-0.0018095,0.00119271,-7.67678e-05,0.00119467,-0.00181146,-1.54525,0.00174773,0.0137462,1791,631,12.2975,3.24906
574,393,12.2993,-2.94739,-0.0014281,0.000928946,-9.7312e-05,0.000932957,-0.00143211,-1.5296,0.00137557,0.0152249,1798,631,12.2993,2.94738
581,393,12.2726,-2.57037,-0.000983307,0.000860685,5.97557e-06,0.000860704,-0.000983326,1.56756,0.00106544,0.0158804,1805,631,12.2725,2.57036
588,393,12.2635,-2.20544,-0.000498229,0.00100303,0.000256626,0.00104568,-0.000540885,1.40608,0.000931332,0.0170009,1812,631,12.2635,2.20546
595,393,12.2844,-1.9024,0.000105856,0.00133171,0.000647577,0.00161043,-0.000172865,1.16436,0.00113564,0.0134411,1819,631,12.2844,1.90241
602,393,12.2886,-1.58582,0.000563715,0.00182257,0.00112443,0.00248175,-9.54698e-05,1.04056,0.00168723,0.0146437,1826,631,12.2886,1.58581
609,393,12.2761,-1.23792,0.00036106,0.0020874,0.00133842,0.00281685,-0.000368389,1.0718,0.00201197,0.0163038,1833,631,12.2761,1.23794
616,393,12.2644,-0.881714,-7.45353e-05,0.00256605,0.00157666,0.00330222,-0.000810705,1.13396,0.00251564,0.0162492,1840,631,12.2644,0.88174
623,393,12.2854,-0.459778,-0.000870896,0.00285661,0.00166299,0.00349067,-0.00150496,1.20653,0.00295921,0.0252724,1847,631,12.2854,0.459771
630,393,12.3433,0.0424805,0,0,0,0,0,0,0,-1,1854,631,12.3432,-0.0424502
637,393,11.4626,0.608887,0,0,0,0,0,0,0,-1,1861,631,11.4627,-0.608904
644,393,8.97583,1.30585,0,0,0,0,0,0,0,-1,1868,631,8.97586,-1.30584
651,393,11.348,0.53302,0,0,0,0,0,0,0,-1,1875,631,11.348,-0.53305
658,393,9.21338,1.50836,0,0,0,0,0,0,0,-1,1882,631,9.21338,-1.50834
665,393,6.1001,2.32129,0,0,0,0,0,0,0,-1,1889,631,6.10012,-2.3213
672,393,7.14575,2.43225,0,0,0,0,0,0,0,-1,1896,631,7.14572,-2.43222
679,393,0,0,0,0,0,0,0,0,0,-1,1903,631,0,0
686,393,0,0,0,0,0,0,0,0,0,-1,1910,631,0,0
693,393,0,0,0,0,0,0,0,0,0,-1,1917,631,0,0
700,393,0,0,0,0,0,0,0,0,0,-1,1924,631,0,0
707,393,0,0,0,0,0,0,0,0,0,-1,1931,631,0,0
714,393,0,0,0,0,0,0,0,0,0,-1,1938,631,0,0
721,393,0,0,0,0,0,0,0,0,0,-1,1945,631,0,0
728,393,0,0,0,0,0,0,0,0,0,-1,1952,631,0,0
735,393,0,0,0,0,0,0,0,0,0,-1,1959,631,0,0
742,393,0,0,0,0,0,0,0,0,0,-1,1966,631,0,0
749,393,0,0,0,0,0,0,0,0,0,-1,1973,631,0,0
756,393,0,0,0,0,0,0,0,0,0,-1,1980,631,0,0
763,393,0,0,0,0,0,0,0,0,0,-1,1987,631,0,0
770,393,0,0,0,0,0,0,0,0,0,-1,1994,631,0,0
777,393,0,0,0,0,0,0,0,0,0,-1,2001,631,0,0
784,393,0,0,0,0,0,0,0,0,0,-1,2008,631,0,0
791,393,0,0,0,0,0,0,0,0,0,-1,2015,631,0,0
798,393,0,0,0,0,0,0,0,0,0,-1,2022,631,0,0
805,393,0,0,0,0,0,0,0,0,0,-1,2029,631,0,0
812,393,0,0,0,0,0,0,0,0,0,-1,2036,631,0,0
-700,386,0,0,0,0,0,0,0,0,0,-1,524,638,0,0
-693,386,0,0,0,0,0,0,0,0,0,-1,531,638,0,0
-686,386,0,0,0,0,0,0,0,0,0,-1,538,638,0,0
-679,386,0,0,0,0,0,0,0,0,0,-1,545,638,0,0
-672,386,0,0,0,0,0,0,0,0,0,-1,552,638,0,0
-665,386,0,0,0,0,0,0,0,0,0,-1,559,638,0,0
-658,386,0,0,0,0,0,0,0,0,0,-1,566,638,0,0
-651,386,0,0,0,0,0,0,0,0,0,-1,573,638,0,0
-644,386,0,0,0,0,0,0,0,0,0,-1,580,638,0,0
-637,386,0,0,0,0,0,0,0,0,0,-1,587,638,0,0
-630,386,0,0,0,0,0,0,0,0,0,-1,594,638,0,0
-623,386,0,0,0,0,0,0,0,0,0,-1,601,638,0,0
-616,386,0,0,0,0,0,0,0,0,0,-1,608,638,0,0
-609,386,0,0,0,0,0,0,0,0,0,-1,615,638,0,0
-602,386,0,0,0,0,0,0,0,0,0,-1,622,638,0,0
-595,386,0,0,0,0,0,0,0,0,0,-1,629,638,0,0
-588,386,0,0,0,0,0,0,0,0,0,-1,636,638,0,0
-581,386,0,0,0,0,0,0,0,0,0,-1,643,638,0,0
-574,386,0,0,0,0,0,0,0,0,0,-1,650,638,0,0
-567,386,0,0,0,0,0,0,0,0,0,-1,657,638,0,0
-560,386,-3.97229,-5.13898,0,0,0,0,0,0,0,-1,664,638,-3.97232,5.13897
-553,386,-4.94244,-5.54309,0,0,0,0,0,0,0,-1,671,638,-4.94242,5.5431
-546,386,-1.78668,1.72827,0,0,0,0,0,0,0,-1,678,638,-1.78668,-1.72829
-539,386,-0.879456,-2.90009,0,0,0,0,0,0,0,-1,685,638,-0.879442,2.90008
-532,386,-4.83362,1.61053,0,0,0,0,0,0,0,-1,692,638,-4.83361,-1.61051
-525,386,-6.47321,-0.67926,0,0,0,0,0,0,0,-1,699,638,-6.4732,0.679281
-518,386,-5.73877,-0.908691,0,0,0,0,0,0,0,-1,706,638,-5.73876,0.908691
-511,386,-5.66632,-1.47119,0.00842969,0.00680565,-0.00405035,0.0117486,0.00348673,-0.686468,0.00696732,0.0485107,713,638,-5.6663,1.47118
-504,386,-5.86359,-1.99164,0.00611688,0.00458728,-0.00279979,0.00825445,0.00244972,-0.652069,0.00489517,0.0308267,720,638,-5.86357,1.99161
-497,386,-5.9325,-2.36304,0.00438782,0.00343485,-0.0018791,0.0058499,0.00197276,-0.66123,0.00343658,0.0133124,727,638,-5.93251,2.36306
-490,386,-5.90472,-2.70599,0.00324562,0.00218105,-0.00146141,0.00426866,0.00115801,-0.610753,0.00254902,0.01287,734,638,-5.9047,2.706
-483,386,-5.8786,-3.06366,0.00274507,0.00152166,-0.00136943,0.0036332,0.00063353,-0.57535,0.00224101,0.0167948,741,638,-5.8786,3.06369
-476,386,-5.88184,-3.36963,0.00258914,0.00125234,-0.00144803,0.00351559,0.000325895,-0.569172,0.002243,0.0152905,748,638,-5.88183,3.36962
-469,386,-5.91486,-3.65479,0.00246839,0.00116543,-0.00151364,0.0034648,0.000169023,-0.582178,0.00225564,0.011078,755,638,-5.91488,3.65479
-462,386,-5.91077,-3.99908,0.00218562,0.00105416,-0.00149287,0.00321636,2.34219e-05,-0.604282,0.00213648,0.0102928,762,638,-5.91079,3.99906
-455,386,-5.93219,-4.33368,0.00174428,0.000874826,-0.00123216,0.00261615,2.95299e-06,-0.615807,0.00174312,0.0124555,769,638,-5.93217,4.3337
-448,386,-5.93622,-4.65656,0.00123604,0.000467289,-0.000813083,0.00175102,-4.76957e-05,-0.564598,0.00118357,0.013366,776,638,-5.9362,4.65655
-441,386,-5.93567,-4.9436,0.000442656,-0.000210821,-0.000132268,0.000468413,-0.000236578,-0.192324,0.000414297,0.0133501,783,638,-5.93569,4.94359
-434,386,-5.87695,-5.29791,-0.000438858,-0.000739564,0.000683935,0.000111055,-0.00128948,0.677202,0.00089896,0.0258828,790,638,-5.87697,5.29789
-427,386,-5.771,-5.74701,0,0,0,0,0,0,0,-1,797,638,-5.77101,5.74701
-420,386,-5.94946,-5.94122,0,0,0,0,0,0,0,-1,804,638,-5.94946,5.94123
-413,386,-5.45691,-5.35785,0,0,0,0,0,0,0,-1,811,638,-5.45691,5.35783
-406,386,-4.51135,-4.10999,0,0,0,0,0,0,0,-1,818,638,-4.51135,4.10996
-399,386,-3.57117,-3.42126,0,0,0,0,0,0,0,-1,825,638,-3.57116,3.42129
-392,386,-4.00977,0.403625,0,0,0,0,0,0,0,-1,832,638,-4.0098,-0.403616
-385,386,-3.2406,-0.118469,0,0,0,0,0,0,0,-1,839,638,-3.24058,0.118485
-378,386,-2.55243,-1.22748,0,0,0,0,0,0,0,-1,846,638,-2.55243,1.22748
-371,386,-7.95807,-0.330261,0,0,0,0,0,0,0,-1,853,638,-7.95806,0.330284
-364,386,-8.90637,-0.665955,0,0,0,0,0,0,0,-1,860,638,-8.90635,0.665951
-357,386,-9.10364,-0.388733,0,0,0,0,0,0,0,-1,867,638,-9.10364,0.388744
-350,386,0,0,0,0,0,0,0,0,0,-1,874,638,0,0
-343,386,0,0,0,0,0,0,0,0,0,-1,881,638,0,0
-336,386,0,0,0,0,0,0,0,0,0,-1,888,638,0,0
-329,386,0,0,0,0,0,0,0,0,0,-1,895,638,0,0
-322,386,0,0,0,0,0,0,0,0,0,-1,902,638,0,0
-315,386,0,0,0,0,0,0,0,0,0,-1,909,638,0,0
-308,386,0,0,0,0,0,0,0,0,0,-1,916,638,0,0
-301,386,0,0,0,0,0,0,0,0,0,-1,923,638,0,0
-294,386,0,0,0,0,0,0,0,0,0,-1,930,638,0,0
-287,386,0,0,0,0,0,0,0,0,0,-1,937,638,0,0
-280,386,0,0,0,0,0,0,0,0,0,-1,944,638,0,0
-273,386,0,0,0,0,0,0,0,0,0,-1,951,638,0,0
-266,386,0,0,0,0,0,0,0,0,0,-1,958,638,0,0
-259,386,0,0,0,0,0,0,0,0,0,-1,965,638,0,0
-252,386,0,0,0,0,0,0,0,0,0,-1,972,638,0,0
-245,386,0,0,0,0,0,0,0,0,0,-1,979,638,0,0
-238,386,0,0,0,0,0,0,0,0,0,-1,986,638,0,0
-231,386,0,0,0,0,0,0,0,0,0,-1,993,638,0,0
-224,386,0,0,0,0,0,0,0,0,0,-1,1000,638,0,0
-217,386,0,0,0,0,0,0,0,0,0,-1,1007,638,0,0
-210,386,0,0,0,0,0,0,0,0,0,-1,1014,638,0,0
-203,386,0,0,0,0,0,0,0,0,0,-1,1021,638,0,0
-196,386,0,0,0,0,0,0,0,0,0,-1,1028,638,0,0
-189,386,0,0,0,0,0,0,0,0,0,-1,1035,638,0,0
-182,386,0,0,0,0,0,0,0,0,0,-1,1042,638,0,0
-175,386,0,0,0,0,0,0,0,0,0,-1,1049,638,0,0
-168,386,0,0,0,0,0,0,0,0,0,-1,1056,638,0,0
-161,386,0,0,0,0,0,0,0,0,0,-1,1063,638,0,0
-154,386,0,0,0,0,0,0,0,0,0,-1,1070,638,0,0
-147,386,0,0,0,0,0,0,0,0,0,-1,1077,638,0,0
-140,386,0,0,0,0,0,0,0,0,0,-1,1084,638,0,0
-133,386,0,0,0,0,0,0,0,0,0,-1,1091,638,0,0
-126,386,0,0,0,0,0,0,0,0,0,-1,1098,638,0,0
-119,386,0,0,0,0,0,0,0,0,0,-1,1105,638,0,0
-112,386,0,0,0,0,0,0,0,0,0,-1,1112,638,0,0
-105,386,0,0,0,0,0,0,0,0,0,-1,1119,638,0,0
-98,386,0,0,0,0,0,0,0,0,0,-1,1126,638,0,0
-91,386,0,0,0,0,0,0,0,0,0,-1,1133,638,0,0
-84,386,0,0,0,0,0,0,0,0,0,-1,1140,638,0,0
-77,386,0,0,0,0,0,0,0,0,0,-1,1147,638,0,0
-70,386,0,0,0,0,0,0,0,0,0,-1,1154,638,0,0
-63,386,0,0,0,0,0,0,0,0,0,-1,1161,638,0,0
-56,386,0,0,0,0,0,0,0,0,0,-1,1168,638,0,0
-49,386,0,0,0,0,0,0,0,0,0,-1,1175,638,0,0
-42,386,0,0,0,0,0,0,0,0,0,-1,1182,638,0,0
-35,386,0,0,0,0,0,0,0,0,0,-1,1189,638,0,0
-28,386,0,0,0,0,0,0,0,0,0,-1,1196,638,0,0
-21,386,0,0,0,0,0,0,0,0,0,-1,1203,638,0,0
-14,386,0,0,0,0,0,0,0,0,0,-1,1210,638,0,0
-7,386,0,0,0,0,0,0,0,0,0,-1,1217,638,0,0
0,386,0,0,0,0,0,0,0,0,0,-1,1224,638,0,0
7,386,0,0,0,0,0,0,0,0,0,-1,1231,638,0,0
14,386,0,0,0,0,0,0,0,0,0,-1,1238,638,0,0
21,386,0,0,0,0,0,0,0,0,0,-1,1245,638,0,0
28,386,0,0,0,0,0,0,0,0,0,-1,1252,638,0,0
35,386,0,0,0,0,0,0,0,0,0,-1,1259,638,0,0
42,386,0,0,0,0,0,0,0,0,0,-1,1266,638,0,0
49,386,0,0,0,0,0,0,0,0,0,-1,1273,638,0,0
56,386,0,0,0,0,0,0,0,0,0,-1,1280,638,0,0
63,386,0,0,0,0,0,0,0,0,0,-1,1287,638,0,0
70,386,0,0,0,0,0,0,0,0,0,-1,1294,638,0,0
77,386,0,0,0,0,0,0,0,0,0,-1,1301,638,0,0
84,386,0,0,0,0,0,0,0,0,0,-1,1308,638,0,0
91,386,0,0,0,0,0,0,0,0,0,-1,1315,638,0,0
98,386,0,0,0,0,0,0,0,0,0,-1,1322,638,0,0
105,386,0,0,0,0,0,0,0,0,0,-1,1329,638,0,0
112,386,0,0,0,0,0,0,0,0,0,-1,1336,638,0,0
119,386,0,0,0,0,0,0,0,0,0,-1,1343,638,0,0
126,386,0,0,0,0,0,0,0,0,0,-1,1350,638,0,0
133,386,0,0,0,0,0,0,0,0,0,-1,1357,638,0,0
140,386,0,0,0,0,0,0,0,0,0,-1,1364,638,0,0
147,386,0,0,0,0,0,0,0,0,0,-1,1371,638,0,0
154,386,0,0,0,0,0,0,0,0,0,-1,1378,638,0,0
161,386,0,0,0,0,0,0,0,0,0,-1,1385,638,0,0
168,386,0,0,0,0,0,0,0,0,0,-1,1392,638,0,0
175,386,0,0,0,0,0,0,0,0,0,-1,1399,638,0,0
182,386,0,0,0,0,0,0,0,0,0,-1,1406,638,0,0
189,386,0,0,0,0,0,0,0,0,0,-1,1413,638,0,0
196,386,0,0,0,0,0,0,0,0,0,-1,1420,638,0,0
203,386,0,0,0,0,0,0,0,0,0,-1,1427,638,0,0
210,386,0,0,0,0,0,0,0,0,0,-1,1434,638,0,0
217,386,0,0,0,0,0,0,0,0,0,-1,1441,638,0,0
224,386,0,0,0,0,0,0,0,0,0,-1,1448,638,0,0
231,386,0,0,0,0,0,0,0,0,0,-1,1455,638,0,0
238,386,0,0,0,0,0,0,0,0,0,-1,1462,638,0,0
245,386,0,0,0,0,0,0,0,0,0,-1,1469,638,0,0
252,386,0,0,0,0,0,0,0,0,0,-1,1476,638,0,0
259,386,0,0,0,0,0,0,0,0,0,-1,1483,638,0,0
266,386,0,0,0,0,0,0,0,0,0,-1,1490,638,0,0
273,386,0,0,0,0,0,0,0,0,0,-1,1497,638,0,0
280,386,0,0,0,0,0,0,0,0,0,-1,1504,638,0,0
287,386,0,0,0,0,0,0,0,0,0,-1,1511,638,0,0
294,386,0,0,0,0,0,0,0,0,0,-1,1518,638,0,0
301,386,0,0,0,0,0,0,0,0,0,-1,1525,638,0,0
308,386,0,0,0,0,0,0,0,0,0,-1,1532,638,0,0
315,386,0,0,0,0,0,0,0,0,0,-1,1539,638,0,0
322,386,0,0,0,0,0,0,0,0,0,-1,1546,638,0,0
329,386,0,0,0,0,0,0,0,0,0,-1,1553,638,0,0
336,386,0,0,0,0,0,0,0,0,0,-1,1560,638,0,0
343,386,0,0,0,0,0,0,0,0,0,-1,1567,638,0,0
350,386,0,0,0,0,0,0,0,0,0,-1,1574,638,0,0
357,386,0,0,0,0,0,0,0,0,0,-1,1581,638,0,0
364,386,0,0,0,0,0,0,0,0,0,-1,1588,638,0,0
371,386,0,0,0,0,0,0,0,0,0,-1,1595,638,0,0
378,386,0,0,0,0,0,0,0,0,0,-1,1602,638,0,0
385,386,0,0,0,0,0,0,0,0,0,-1,1609,638,0,0
392,386,0,0,0,0,0,0,0,0,0,-1,1616,638,0,0
399,386,0,0,0,0,0,0,0,0,0,-1,1623,638,0,0
406,386,0,0,0,0,0,0,0,0,0,-1,1630,638,0,0
413,386,0,0,0,0,0,0,0,0,0,-1,1637,638,0,0
420,386,0,0,0,0,0,0,0,0,0,-1,1644,638,0,0
427,386,0,0,0,0,0,0,0,0,0,-1,1651,638,0,0
434,386,0,0,0,0,0,0,0,0,0,-1,1658,638,0,0
441,386,0,0,0,0,0,0,0,0,0,-1,1665,638,0,0
448,386,0,0,0,0,0,0,0,0,0,-1,1672,638,0,0
455,386,0,0,0,0,0,0,0,0,0,-1,1679,638,0,0
462,386,0,0,0,0,0,0,0,0,0,-1,1686,638,0,0
469,386,9.84692,1.55804,0,0,0,0,0,0,0,-1,1693,638,9.84691,-1.55807
476,386,10.6145,0.986511,0,0,0,0,0,0,0,-1,1700,638,10.6145,-0.986529
483,386,11.4113,0.732971,0,0,0,0,0,0,0,-1,1707,638,11.4112,-0.732958
490,386,7.79785,1.79572,0,0,0,0,0,0,0,-1,1714,638,7.79788,-1.7957
497,386,8.96362,1.77081,0,0,0,0,0,0,0,-1,1721,638,8.96357,-1.77081
504,386,10.0555,1.69427,0,0,0,0,0,0,0,-1,1728,638,10.0555,-1.69426
511,386,11.2172,1.534,0,0,0,0,0,0,0,-1,1735,638,11.2172,-1.53398
518,386,7.41553,1.75238,0,0,0,0,0,0,0,-1,1742,638,7.41547,-1.75238
525,386,8.82422,-1.1449,0,0,0,0,0,0,0,-1,1749,638,8.82426,1.14492
532,386,10.6432,0.617371,0,0,0,0,0,0,0,-1,1756,638,10.6432,-0.617359
539,386,9.62061,-0.393616,0,0,0,0,0,0,0,-1,1763,638,9.62059,0.393634
546,386,10.7963,-2.854,0,0,0,0,0,0,0,-1,1770,638,10.7962,2.854
553,386,12.8447,-3.83673,0,0,0,0,0,0,0,-1,1777,638,12.8447,3.83671
560,386,12.7153,-3.48315,-0.00327439,0.00240749,0.000241965,0.00241777,-0.00328467,1.52831,0.00330496,0.0346214,1784,638,12.7153,3.48318
567,386,12.5958,-3.22186,-0.00278011,0.00151992,-0.000149528,0.00152511,-0.0027853,-1.53608,0.00252382,0.0199378,1791,638,12.5959,3.22187
574,386,12.621,-2.90466,-0.00219,0.00102309,-0.000283742,0.00104795,-0.00221487,-1.48339,0.00192353,0.0139098,1798,638,12.621,2.90463
581,386,12.614,-2.58447,-0.00157762,0.000771654,-0.000273131,0.00080299,-0.00160896,-1.45656,0.00141822,0.0140942,1805,638,12.6141,2.58447
588,386,12.6205,-2.24152,-0.000954337,0.000750177,-0.00010607,0.000756753,-0.000960912,-1.50889,0.000994027,0.0131201,1812,638,12.6205,2.24154
595,386,12.6082,-1.91205,-0.000257375,0.000930708,0.000199829,0.000963418,-0.000290085,1.40855,0.000757715,0.013636,1819,638,12.6082,1.91207
602,386,12.5928,-1.59149,0.000262881,0.00128289,0.000602151,0.00156199,-1.62229e-05,1.13676,0.00104678,0.0142329,1826,638,12.5928,1.59147
609,386,12.6036,-1.24115,6.8985e-05,0.00143475,0.000733407,0.00175397,-0.000250239,1.16027,0.00126103,0.0146943,1833,638,12.6036,1.24114
616,386,12.609,-0.866516,-0.000304742,0.00171583,0.000845666,0.00202305,-0.000611965,1.22233,0.00159238,0.0123864,1840,638,12.6091,0.866524
623,386,12.5895,-0.526306,-0.0010689,0.00188096,0.000814573,0.00209095,-0.00127888,1.3185,0.00196431,0.0101213,1847,638,12.5895,0.526279
630,386,12.6654,-0.166321,-0.00245427,0.00167963,0.000445108,0.00172702,-0.00250165,1.46474,0.00245504,0.0245204,1854,638,12.6654,0.166316
637,386,12.7991,0.195496,0,0,0,0,0,0,0,-1,1861,638,12.7991,-0.195505
644,386,11.6521,0.723328,0,0,0,0,0,0,0,-1,1868,638,11.6521,-0.723355
651,386,9.3866,1.31097,0,0,0,0,0,0,0,-1,1875,638,9.3866,-1.31095
658,386,12.0731,-0.00415039,0,0,0,0,0,0,0,-1,1882,638,12.0731,0.00412803
665,386,6.33167,1.78601,0,0,0,0,0,0,0,-1,1889,638,6.33171,-1.78601
672,386,7.23352,2.14435,0,0,0,0,0,0,0,-1,1896,638,7.23353,-2.14433
679,386,8.07764,2.57104,0,0,0,0,0,0,0,-1,1903,638,8.07758,-2.57103
686,386,0,0,0,0,0,0,0,0,0,-1,1910,638,0,0
693,386,0,0,0,0,0,0,0,0,0,-1,1917,638,0,0
700,386,0,0,0,0,0,0,0,0,0,-1,1924,638,0,0
707,386,0,0,0,0,0,0,0,0,0,-1,1931,638,0,0
714,386,0,0,0,0,0,0,0,0,0,-1,1938,638,0,0
721,386,0,0,0,0,0,0,0,0,0,-1,1945,638,0,0
728,386,0,0,0,0,0,0,0,0,0,-1,1952,638,0,0
735,386,0,0,0,0,0,0,0,0,0,-1,1959,638,0,0
742,386,0,0,0,0,0,0,0,0,0,-1,1966,638,0,0
749,386,0,0,0,0,0,0,0,0,0,-1,1973,638,0,0
756,386,0,0,0,0,0,0,0,0,0,-1,1980,638,0,0
763,386,0,0,0,0,0,0,0,0,0,-1,1987,638,0,0
770,386,0,0,0,0,0,0,0,0,0,-1,1994,638,0,0
777,386,0,0,0,0,0,0,0,0,0,-1,2001,638,0,0
784,386,0,0,0,0,0,0,0,0,0,-1,2008,638,0,0
791,386,0,0,0,0,0,0,0,0,0,-1,2015,638,0,0
798,386,0,0,0,0,0,0,0,0,0,-1,2022,638,0,0
805,386,0,0,0,0,0,0,0,0,0,-1,2029,638,0,0
812,386,0,0,0,0,0,0,0,0,0,-1,2036,638,0,0
-700,379,0,0,0,0,0,0,0,0,0,-1,524,645,0,0
-693,379,0,0,0,0,0,0,0,0,0,-1,531,645,0,0
-686,379,0,0,0,0,0,0,0,0,0,-1,538,645,0,0
-679,379,0,0,0,0,0,0,0,0,0,-1,545,645,0,0
-672,379,0,0,0,0,0,0,0,0,0,-1,552,645,0,0
-665,379,0,0,0,0,0,0,0,0,0,-1,559,645,0,0
-658,379,0,0,0,0,0,0,0,0,0,-1,566,645,0,0
-651,379,0,0,0,0,0,0,0,0,0,-1,573,645,0,0
-644,379,0,0,0,0,0,0,0,0,0,-1,580,645,0,0
-637,379,0,0,0,0,0,0,0,0,0,-1,587,645,0,0
-630,379,0,0,0,0,0,0,0,0,0,-1,594,645,0,0
-623,379,0,0,0,0,0,0,0,0,0,-1,601,645,0,0
-616,379,0,0,0,0,0,0,0,0,0,-1,608,645,0,0
-609,379,0,0,0,0,0,0,0,0,0,-1,615,645,0,0
-602,379,0,0,0,0,0,0,0,0,0,-1,622,645,0,0
-595,379,0,0,0,0,0,0,0,0,0,-1,629,645,0,0
-588,379,0,0,0,0,0,0,0,0,0,-1,636,645,0,0
-581,379,0,0,0,0,0,0,0,0,0,-1,643,645,0,0
-574,379,0,0,0,0,0,0,0,0,0,-1,650,645,0,0
-567,379,-8.78058,0.59668,0,0,0,0,0,0,0,-1,657,645,-8.7806,-0.596692
-560,379,-9.53485,-0.211304,0,0,0,0,0,0,0,-1,664,645,-9.53487,0.211282
-553,379,-5.17108,-4.53119,0,0,0,0,0,0,0,-1,671,645,-5.17106,4.53117
-546,379,-6.23053,-4.92102,0,0,0,0,0,0,0,-1,678,645,-6.23054,4.92105
-539,379,-0.71698,-2.19427,0,0,0,0,0,0,0,-1,685,645,-0.716959,2.19427
-532,379,-7.03894,-0.104492,0,0,0,0,0,0,0,-1,692,645,-7.03894,0.104518
-525,379,-6.44568,-0.956726,0,0,0,0,0,0,0,-1,699,645,-6.4457,0.956724
-518,379,-6.21033,-1.45618,0.01097,0.0102194,-0.0060596,0.0166659,0.0045235,-0.754472,0.00995159,0.0482842,706,645,-6.21033,1.45618
-511,379,-6.05804,-1.81244,0.00739256,0.00689626,-0.00380566,0.0109582,0.00333067,-0.752842,0.00648679,0.0368024,713,645,-6.05805,1.81243
-504,379,-6.15485,-2.0896,0.00510292,0.00436502,-0.0024101,0.00717214,0.00229579,-0.709444,0.00422924,0.0203968,720,645,-6.15483,2.08958
-497,379,-6.21722,-2.37091,0.0033795,0.00308845,-0.00138728,0.00462887,0.00183909,-0.73314,0.0026912,0.0109081,727,645,-6.21722,2.37089
-490,379,-6.20691,-2.68561,0.00230419,0.00186981,-0.000976714,0.00308757,0.00108643,-0.675996,0.0018085,0.0115027,734,645,-6.20689,2.68563
-483,379,-6.2049,-3.02509,0.0019357,0.00124292,-0.000930692,0.00258237,0.000596246,-0.607246,0.00156126,0.0131025,741,645,-6.20492,3.02509
-476,379,-6.19159,-3.32697,0.00196883,0.00105639,-0.00111527,0.00271758,0.000307638,-0.591248,0.00171838,0.0129593,748,645,-6.19159,3.32697
-469,379,-6.21588,-3.62683,0.00205162,0.00108425,-0.00131746,0.00297138,0.000164489,-0.609469,0.00192843,0.0113814,755,645,-6.21589,3.62684
-462,379,-6.22052,-3.98035,0.00199261,0.00109401,-0.00146158,0.00307239,1.42325e-05,-0.63628,0.00204353,0.00868233,762,645,-6.22051,3.98034
-455,379,-6.23468,-4.30597,0.00171454,0.00112005,-0.00135942,0.00280883,2.57608e-05,-0.677765,0.00186403,0.00962921,769,645,-6.23467,4.30596
-448,379,-6.23212,-4.60742,0.00134997,0.000859089,-0.00110576,0.0022372,-2.81401e-05,-0.676185,0.00150094,0.0122305,776,645,-6.23211,4.60743
-441,379,-6.1983,-4.95178,0.000695602,0.000139206,-0.000488733,0.000979769,-0.000144961,-0.526657,0.000706474,0.0184776,783,645,-6.19833,4.95177
-434,379,-6.07257,-5.44354,0,0,0,0,0,0,0,-1,790,645,-6.07258,5.44355
-427,379,-4.16113,-4.13452,0,0,0,0,0,0,0,-1,797,645,-4.16116,4.1345
-420,379,-4.63953,-3.46869,0,0,0,0,0,0,0,-1,804,645,-4.63953,3.46872
-413,379,-4.62543,-3.7912,0,0,0,0,0,0,0,-1,811,645,-4.62541,3.79123
-406,379,-4.64063,-4.38489,0,0,0,0,0,0,0,-1,818,645,-4.64065,4.3849
-399,379,-2.93536,-1.40118,0,0,0,0,0,0,0,-1,825,645,-2.93534,1.40119
-392,379,-4.16711,-0.466003,0,0,0,0,0,0,0,-1,832,645,-4.16714,0.465992
-385,379,-3.51862,0.441101,0,0,0,0,0,0,0,-1,839,645,-3.51859,-0.441072
-378,379,-5.3504,0.212219,0,0,0,0,0,0,0,-1,846,645,-5.35038,-0.212241
-371,379,-4.32092,-0.186707,0,0,0,0,0,0,0,-1,853,645,-4.3209,0.186707
-364,379,-3.40887,-0.549805,0,0,0,0,0,0,0,-1,860,645,-3.4089,0.549802
-357,379,0,0,0,0,0,0,0,0,0,-1,867,645,0,0
-350,379,0,0,0,0,0,0,0,0,0,-1,874,645,0,0
-343,379,0,0,0,0,0,0,0,0,0,-1,881,645,0,0
-336,379,0,0,0,0,0,0,0,0,0,-1,888,645,0,0
-329,379,0,0,0,0,0,0,0,0,0,-1,895,645,0,0
-322,379,0,0,0,0,0,0,0,0,0,-1,902,645,0,0
-315,379,0,0,0,0,0,0,0,0,0,-1,909,645,0,0
-308,379,0,0,0,0,0,0,0,0,0,-1,916,645,0,0
-301,379,0,0,0,0,0,0,0,0,0,-1,923,645,0,0
-294,379,0,0,0,0,0,0,0,0,0,-1,930,645,0,0
-287,379,0,0,0,0,0,0,0,0,0,-1,937,645,0,0
-280,379,0,0,0,0,0,0,0,0,0,-1,944,645,0,0
-273,379,0,0,0,0,0,0,0,0,0,-1,951,645,0,0
-266,379,0,0,0,0,0,0,0,0,0,-1,958,645,0,0
-259,379,0,0,0,0,0,0,0,0,0,-1,965,645,0,0
-252,379,0,0,0,0,0,0,0,0,0,-1,972,645,0,0
-245,379,0,0,0,0,0,0,0,0,0,-1,979,645,0,0
-238,379,0,0,0,0,0,0,0,0,0,-1,986,645,0,0
-231,379,0,0,0,0,0,0,0,0,0,-1,993,645,0,0
-224,379,0,0,0,0,0,0,0,0,0,-1,1000,645,0,0
-217,379,0,0,0,0,0,0,0,0,0,-1,1007,645,0,0
-210,379,0,0,0,0,0,0,0,0,0,-1,1014,645,0,0
-203,379,0,0,0,0,0,0,0,0,0,-1,1021,645,0,0
-196,379,0,0,0,0,0,0,0,0,0,-1,1028,645,0,0
-189,379,0,0,0,0,0,0,0,0,0,-1,1035,645,0,0
-182,379,0,0,0,0,0,0,0,0,0,-1,1042,645,0,0
-175,379,0,0,0,0,0,0,0,0,0,-1,1049,645,0,0
-168,379,0,0,0,0,0,0,0,0,0,-1,1056,645,0,0
-161,379,0,0,0,0,0,0,0,0,0,-1,1063,645,0,0
-154,379,0,0,0,0,0,0,0,0,0,-1,1070,645,0,0
-147,379,0,0,0,0,0,0,0,0,0,-1,1077,645,0,0
-140,379,0,0,0,0,0,0,0,0,0,-1,1084,645,0,0
-133,379,0,0,0,0,0,0,0,0,0,-1,1091,645,0,0
-126,379,0,0,0,0,0,0,0,0,0,-1,1098,645,0,0
-119,379,0,0,0,0,0,0,0,0,0,-1,1105,645,0,0
-112,379,0,0,0,0,0,0,0,0,0,-1,1112,645,0,0
-105,379,0,0,0,0,0,0,0,0,0,-1,1119,645,0,0
-98,379,0,0,0,0,0,0,0,0,0,-1,1126,645,0,0
-91,379,0,0,0,0,0,0,0,0,0,-1,1133,645,0,0
-84,379,0,0,0,0,0,0,0,0,0,-1,1140,645,0,0
-77,379,0,0,0,0,0,0,0,0,0,-1,1147,645,0,0
-70,379,0,0,0,0,0,0,0,0,0,-1,1154,645,0,0
-63,379,0,0,0,0,0,0,0,0,0,-1,1161,645,0,0
-56,379,0,0,0,0,0,0,0,0,0,-1,1168,645,0,0
-49,379,0,0,0,0,0,0,0,0,0,-1,1175,645,0,0
-42,379,0,0,0,0,0,0,0,0,0,-1,1182,645,0,0
-35,379,0,0,0,0,0,0,0,0,0,-1,1189,645,0,0
-28,379,0,0,0,0,0,0,0,0,0,-1,1196,645,0,0
-21,379,0,0,0,0,0,0,0,0,0,-1,1203,645,0,0
-14,379,0,0,0,0,0,0,0,0,0,-1,1210,645,0,0
-7,379,0,0,0,0,0,0,0,0,0,-1,1217,645,0,0
0,379,0,0,0,0,0,0,0,0,0,-1,1224,645,0,0
7,379,0,0,0,0,0,0,0,0,0,-1,1231,645,0,0
14,379,0,0,0,0,0,0,0,0,0,-1,1238,645,0,0
21,379,0,0,0,0,0,0,0,0,0,-1,1245,645,0,0
28,379,0,0,0,0,0,0,0,0,0,-1,1252,645,0,0
35,379,0,0,0,0,0,0,0,0,0,-1,1259,645,0,0
42,379,0,0,0,0,0,0,0,0,0,-1,1266,645,0,0
49,379,0,0,0,0,0,0,0,0,0,-1,1273,645,0,0
56,379,0,0,0,0,0,0,0,0,0,-1,1280,645,0,0
63,379,0,0,0,0,0,0,0,0,0,-1,1287,645,0,0
70,379,0,0,0,0,0,0,0,0,0,-1,1294,645,0,0
77,379,0,0,0,0,0,0,0,0,0,-1,1301,645,0,0
84,379,0,0,0,0,0,0,0,0,0,-1,1308,645,0,0
91,379,0,0,0,0,0,0,0,0,0,-1,1315,645,0,0
98,379,0,0,0,0,0,0,0,0,0,-1,1322,645,0,0
105,379,0,0,0,0,0,0,0,0,0,-1,1329,645,0,0
112,379,0,0,0,0,0,0,0,0,0,-1,1336,645,0,0
119,379,0,0,0,0,0,0,0,0,0,-1,1343,645,0,0
126,379,0,0,0,0,0,0,0,0,0,-1,1350,645,0,0
133,379,0,0,0,0,0,0,0,0,0,-1,1357,645,0,0
140,379,0,0,0,0,0,0,0,0,0,-1,1364,645,0,0
147,379,0,0,0,0,0,0,0,0,0,-1,1371,645,0,0
154,379,0,0,0,0,0,0,0,0,0,-1,1378,645,0,0
161,379,0,0,0,0,0,0,0,0,0,-1,1385,645,0,0
168,379,0,0,0,0,0,0,0,0,0,-1,1392,645,0,0
175,379,0,0,0,0,0,0,0,0,0,-1,1399,645,0,0
182,379,0,0,0,0,0,0,0,0,0,-1,1406,645,0,0
189,379,0,0,0,0,0,0,0,0,0,-1,1413,645,0,0
196,379,0,0,0,0,0,0,0,0,0,-1,1420,645,0,0
203,379,0,0,0,0,0,0,0,0,0,-1,1427,645,0,0
210,379,0,0,0,0,0,0,0,0,0,-1,1434,645,0,0
217,379,0,0,0,0,0,0,0,0,0,-1,1441,645,0,0
224,379,0,0,0,0,0,0,0,0,0,-1,1448,645,0,0
231,379,0,0,0,0,0,0,0,0,0,-1,1455,645,0,0
238,379,0,0,0,0,0,0,0,0,0,-1,1462,645,0,0
245,379,0,0,0,0,0,0,0,0,0,-1,1469,645,0,0
252,379,0,0,0,0,0,0,0,0,0,-1,1476,645,0,0
259,379,0,0,0,0,0,0,0,0,0,-1,1483,645,0,0
266,379,0,0,0,0,0,0,0,0,0,-1,1490,645,0,0
273,379,0,0,0,0,0,0,0,0,0,-1,1497,645,0,0
280,379,0,0,0,0,0,0,0,0,0,-1,1504,645,0,0
287,379,0,0,0,0,0,0,0,0,0,-1,1511,645,0,0
294,379,0,0,0,0,0,0,0,0,0,-1,1518,645,0,0
301,379,0,0,0,0,0,0,0,0,0,-1,1525,645,0,0
308,379,0,0,0,0,0,0,0,0,0,-1,1532,645,0,0
315,379,0,0,0,0,0,0,0,0,0,-1,1539,645,0,0
322,379,0,0,0,0,0,0,0,0,0,-1,1546,645,0,0
329,379,0,0,0,0,0,0,0,0,0,-1,1553,645,0,0
336,379,0,0,0,0,0,0,0,0,0,-1,1560,645,0,0
343,379,0,0,0,0,0,0,0,0,0,-1,1567,645,0,0
350,379,0,0,0,0,0,0,0,0,0,-1,1574,645,0,0
357,379,0,0,0,0,0,0,0,0,0,-1,1581,645,0,0
364,379,0,0,0,0,0,0,0,0,0,-1,1588,645,0,0
371,379,0,0,0,0,0,0,0,0,0,-1,1595,645,0,0
378,379,0,0,0,0,0,0,0,0,0,-1,1602,645,0,0
385,379,0,0,0,0,0,0,0,0,0,-1,1609,645,0,0
392,379,0,0,0,0,0,0,0,0,0,-1,1616,645,0,0
399,379,0,0,0,0,0,0,0,0,0,-1,1623,645,0,0
406,379,0,0,0,0,0,0,0,0,0,-1,1630,645,0,0
413,379,0,0,0,0,0,0,0,0,0,-1,1637,645,0,0
420,379,0,0,0,0,0,0,0,0,0,-1,1644,645,0,0
427,379,0,0,0,0,0,0,0,0,0,-1,1651,645,0,0
434,379,0,0,0,0,0,0,0,0,0,-1,1658,645,0,0
441,379,0,0,0,0,0,0,0,0,0,-1,1665,645,0,0
448,379,0,0,0,0,0,0,0,0,0,-1,1672,645,0,0
455,379,0,0,0,0,0,0,0,0,0,-1,1679,645,0,0
462,379,0,0,0,0,0,0,0,0,0,-1,1686,645,0,0
469,379,0,0,0,0,0,0,0,0,0,-1,1693,645,0,0
476,379,11.1787,0.830383,0,0,0,0,0,0,0,-1,1700,645,11.1787,-0.830365
483,379,7.4231,1.54321,0,0,0,0,0,0,0,-1,1707,645,7.42314,-1.54324
490,379,8.52881,1.56677,0,0,0,0,0,0,0,-1,1714,645,8.52878,-1.56677
497,379,9.63599,1.49573,0,0,0,0,0,0,0,-1,1721,645,9.63604,-1.4957
504,379,10.0833,1.35229,0,0,0,0,0,0,0,-1,1728,645,10.0832,-1.35227
511,379,8.14343,1.59912,0,0,0,0,0,0,0,-1,1735,645,8.14347,-1.59912
518,379,12.7955,-0.324097,0,0,0,0,0,0,0,-1,1742,645,12.7955,0.324101
525,379,6.03711,1.10352,0,0,0,0,0,0,0,-1,1749,645,6.03711,-1.10351
532,379,8.70947,0.887817,0,0,0,0,0,0,0,-1,1756,645,8.70953,-0.887808
539,379,9.87097,0.111389,0,0,0,0,0,0,0,-1,1763,645,9.87095,-0.111395
546,379,8.42383,-0.730652,0,0,0,0,0,0,0,-1,1770,645,8.42378,0.730638
553,379,13.3292,-3.98486,0,0,0,0,0,0,0,-1,1777,645,13.3292,3.98489
560,379,13.1393,-3.52661,-0.00486059,0.00324595,0.000321268,0.00325866,-0.0048733,1.53125,0.00472574,0.0380411,1784,645,13.1392,3.5266
567,379,12.8726,-3.19513,-0.00396225,0.00199072,-0.000206039,0.00199784,-0.00396937,-1.53624,0.00350729,0.0235324,1791,645,12.8725,3.19511
574,379,12.9745,-2.89703,-0.00305567,0.00123692,-0.000414718,0.00127662,-0.00309537,-1.47536,0.00259595,0.0128664,1798,645,12.9744,2.89703
581,379,12.984,-2.57837,-0.0021935,0.000803054,-0.000454732,0.000870541,-0.00226099,-1.42346,0.00186645,0.0148386,1805,645,12.9841,2.57836
588,379,12.98,-2.25525,-0.00137806,0.000623048,-0.000335106,0.000677674,-0.00143269,-1.40921,0.00124414,0.017467,1812,645,12.98,2.25524
595,379,12.9716,-1.92285,-0.000563691,0.000666196,-8.87251e-05,0.000672563,-0.000570058,-1.49915,0.000718241,0.0146039,1819,645,12.9716,1.92287
602,379,12.9452,-1.59674,4.04637e-05,0.000893436,0.000257746,0.00096527,-3.13708e-05,1.29899,0.000654221,0.0146193,1826,645,12.9452,1.59672
609,379,12.9263,-1.25256,-0.000107344,0.000957304,0.000338951,0.00105606,-0.000206096,1.2873,0.000781844,0.0155165,1833,645,12.9262,1.25255
616,379,12.9282,-0.878601,-0.000422428,0.00105547,0.000345847,0.0011324,-0.000499356,1.35193,0.000965439,0.0123915,1840,645,12.9282,0.878578
623,379,12.9408,-0.520325,-0.00119194,0.00111043,0.000224899,0.0011322,-0.0012137,1.47433,0.00135468,0.0112021,1847,645,12.9407,0.520306
630,379,12.9404,-0.194031,-0.00258292,0.000813993,-0.000167743,0.000822256,-0.00259118,-1.52157,0.00205707,0.0130227,1854,645,12.9404,0.194018
637,379,12.9604,0.1828,-0.00503166,0.000260392,-0.00100859,0.000446099,-0.00521737,-1.38871,0.00363608,0.0233313,1861,645,12.9605,-0.182773
644,379,13.1501,0.746643,0,0,0,0,0,0,0,-1,1868,645,13.1502,-0.746626
651,379,12.9515,0.220825,0,0,0,0,0,0,0,-1,1875,645,12.9515,-0.220814
658,379,12.4617,0.287048,0,0,0,0,0,0,0,-1,1882,645,12.4617,-0.287068
665,379,11.9719,0.353333,0,0,0,0,0,0,0,-1,1889,645,11.9719,-0.353321
672,379,7.57605,2.15326,0,0,0,0,0,0,0,-1,1896,645,7.57599,-2.15326
679,379,8.55078,2.50409,0,0,0,0,0,0,0,-1,1903,645,8.55073,-2.50406
686,379,0,0,0,0,0,0,0,0,0,-1,1910,645,0,0
693,379,0,0,0,0,0,0,0,0,0,-1,1917,645,0,0
700,379,0,0,0,0,0,0,0,0,0,-1,1924,645,0,0
707,379,0,0,0,0,0,0,0,0,0,-1,1931,645,0,0
714,379,0,0,0,0,0,0,0,0,0,-1,1938,645,0,0
721,379,0,0,0,0,0,0,0,0,0,-1,1945,645,0,0
728,379,0,0,0,0,0,0,0,0,0,-1,1952,645,0,0
735,379,0,0,0,0,0,0,0,0,0,-1,1959,645,0,0
742,379,0,0,0,0,0,0,0,0,0,-1,1966,645,0,0
749,379,0,0,0,0,0,0,0,0,0,-1,1973,645,0,0
756,379,0,0,0,0,0,0,0,0,0,-1,1980,645,0,0
763,379,0,0,0,0,0,0,0,0,0,-1,1987,645,0,0
770,379,0,0,0,0,0,0,0,0,0,-1,1994,645,0,0
777,379,0,0,0,0,0,0,0,0,0,-1,2001,645,0,0
784,379,0,0,0,0,0,0,0,0,0,-1,2008,645,0,0
791,379,0,0,0,0,0,0,0,0,0,-1,2015,645,0,0
798,379,0,0,0,0,0,0,0,0,0,-1,2022,645,0,0
805,379,0,0,0,0,0,0,0,0,0,-1,2029,645,0,0
812,379,0,0,0,0,0,0,0,0,0,-1,2036,645,0,0
-700,372,0,0,0,0,0,0,0,0,0,-1,524,652,0,0
-693,372,0,0,0,0,0,0,0,0,0,-1,531,652,0,0
-686,372,0,0,0,0,0,0,0,0,0,-1,538,652,0,0
-679,372,0,0,0,0,0,0,0,0,0,-1,545,652,0,0
-672,372,0,0,0,0,0,0,0,0,0,-1,552,652,0,0
-665,372,0,0,0,0,0,0,0,0,0,-1,559,652,0,0
-658,372,0,0,0,0,0,0,0,0,0,-1,566,652,0,0
-651,372,0,0,0,0,0,0,0,0,0,-1,573,652,0,0
-644,372,0,0,0,0,0,0,0,0,0,-1,580,652,0,0
-637,372,0,0,0,0,0,0,0,0,0,-1,587,652,0,0
-630,372,0,0,0,0,0,0,0,0,0,-1,594,652,0,0
-623,372,0,0,0,0,0,0,0,0,0,-1,601,652,0,0
-616,372,0,0,0,0,0,0,0,0,0,-1,608,652,0,0
-609,372,0,0,0,0,0,0,0,0,0,-1,615,652,0,0
-602,372,0,0,0,0,0,0,0,0,0,-1,622,652,0,0
-595,372,0,0,0,0,0,0,0,0,0,-1,629,652,0,0
-588,372,0,0,0,0,0,0,0,0,0,-1,636,652,0,0
-581,372,0,0,0,0,0,0,0,0,0,-1,643,652,0,0
-574,372,0,0,0,0,0,0,0,0,0,-1,650,652,0,0
-567,372,-7.93744,0.73407,0,0,0,0,0,0,0,-1,657,652,-7.93741,-0.734076
-560,372,-8.78552,-0.158203,0,0,0,0,0,0,0,-1,664,652,-8.78552,0.158216
-553,372,-7.95551,1.61694,0,0,0,0,0,0,0,-1,671,652,-7.95552,-1.61697
-546,372,-4.2403,-3.75372,0,0,0,0,0,0,0,-1,678,652,-4.24028,3.75369
-539,372,-6.12787,1.69818,0,0,0,0,0,0,0,-1,685,652,-6.12788,-1.69816
-532,372,-6.87598,-0.320129,0,0,0,0,0,0,0,-1,692,652,-6.87601,0.3201
-525,372,-6.68268,-0.841125,0,0,0,0,0,0,0,-1,699,652,-6.68269,0.841105
-518,372,-6.49475,-1.40814,0.00945562,0.00957796,-0.00537597,0.0148931,0.00414047,-0.791087,0.00887652,0.0358616,706,652,-6.49477,1.40813
-511,372,-6.49939,-1.75873,0.00610916,0.00642264,-0.00325985,0.00952952,0.00300228,-0.80942,0.00562594,0.0225748,713,652,-6.4994,1.75872
-504,372,-6.5199,-2.04431,0.00394989,0.00393148,-0.00190711,0.00584781,0.00203356,-0.782985,0.00342802,0.0131765,720,652,-6.51991,2.04433
-497,372,-6.52234,-2.38043,0.00233722,0.0026947,-0.000915446,0.00344869,0.00158323,-0.881811,0.00199333,0.0108265,727,652,-6.52237,2.38041
-490,372,-6.53143,-2.68872,0.00138493,0.00157445,-0.000571268,0.00205876,0.000900614,-0.86759,0.00119172,0.0117756,734,652,-6.53146,2.6887
-483,372,-6.5213,-3.00067,0.0012045,0.00102176,-0.000618757,0.0017386,0.000487668,-0.712094,0.00103552,0.0119375,741,652,-6.5213,3.00067
-476,372,-6.52448,-3.28931,0.00150447,0.000950902,-0.00095085,0.002218,0.000237369,-0.643767,0.00140624,0.0132884,748,652,-6.52447,3.28932
-469,372,-6.5343,-3.59802,0.00190395,0.00112243,-0.00133935,0.00290838,0.000117998,-0.643462,0.00190081,0.0108082,755,652,-6.5343,3.598
-462,372,-6.53564,-3.96295,0.0022357,0.00130098,-0.00171425,0.00354516,-8.48155e-06,-0.652317,0.00236627,0.00920299,762,652,-6.53562,3.96293
-455,372,-6.55878,-4.27765,0.00232841,0.00161602,-0.00186175,0.00386773,7.67005e-05,-0.690879,0.0025533,0.00964417,769,652,-6.5588,4.27764
-448,372,-6.54425,-4.58783,0.00232335,0.00158989,-0.00186859,0.00386086,5.23819e-05,-0.6885,0.00255662,0.0114637,776,652,-6.54428,4.58784
-441,372,-6.40668,-5.06891,0.00208607,0.000924243,-0.00143099,0.00304956,-3.92465e-05,-0.592584,0.00204625,0.0395321,783,652,-6.40667,5.0689
-434,372,-6.38031,-5.64886,0,0,0,0,0,0,0,-1,790,652,-6.3803,5.64885
-427,372,-4.54248,-3.56268,0,0,0,0,0,0,0,-1,797,652,-4.54247,3.56266
-420,372,-4.66168,-2.93597,0,0,0,0,0,0,0,-1,804,652,-4.66166,2.93599
-413,372,-4.74762,-3.29541,0,0,0,0,0,0,0,-1,811,652,-4.74763,3.29542
-406,372,-0.885437,-0.583923,0,0,0,0,0,0,0,-1,818,652,-0.885437,0.5839
-399,372,-3.97357,-0.825012,0,0,0,0,0,0,0,-1,825,652,-3.97359,0.825037
-392,372,-7.64337,0.173035,0,0,0,0,0,0,0,-1,832,652,-7.64337,-0.173019
-385,372,-6.48871,-0.0271606,0,0,0,0,0,0,0,-1,839,652,-6.48874,0.0271353
-378,372,-5.33044,-0.242432,0,0,0,0,0,0,0,-1,846,652,-5.33042,0.242457
-371,372,-4.40802,-0.495667,0,0,0,0,0,0,0,-1,853,652,-4.40802,0.495661
-364,372,0,0,0,0,0,0,0,0,0,-1,860,652,0,0
-357,372,0,0,0,0,0,0,0,0,0,-1,867,652,0,0
-350,372,0,0,0,0,0,0,0,0,0,-1,874,652,0,0
-343,372,0,0,0,0,0,0,0,0,0,-1,881,652,0,0
-336,372,0,0,0,0,0,0,0,0,0,-1,888,652,0,0
-329,372,0,0,0,0,0,0,0,0,0,-1,895,652,0,0
-322,372,0,0,0,0,0,0,0,0,0,-1,902,652,0,0
-315,372,0,0,0,0,0,0,0,0,0,-1,909,652,0,0
-308,372,0,0,0,0,0,0,0,0,0,-1,916,652,0,0
-301,372,0,0,0,0,0,0,0,0,0,-1,923,652,0,0
-294,372,0,0,0,0,0,0,0,0,0,-1,930,652,0,0
-287,372,0,0,0,0,0,0,0,0,0,-1,937,652,0,0
-280,372,0,0,0,0,0,0,0,0,0,-1,944,652,0,0
-273,372,0,0,0,0,0,0,0,0,0,-1,951,652,0,0
-266,372,0,0,0,0,0,0,0,0,0,-1,958,652,0,0
-259,372,0,0,0,0,0,0,0,0,0,-1,965,652,0,0
-252,372,0,0,0,0,0,0,0,0,0,-1,972,652,0,0
-245,372,0,0,0,0,0,0,0,0,0,-1,979,652,0,0
-238,372,0,0,0,0,0,0,0,0,0,-1,986,652,0,0
-231,372,0,0,0,0,0,0,0,0,0,-1,993,652,0,0
-224,372,0,0,0,0,0,0,0,0,0,-1,1000,652,0,0
-217,372,0,0,0,0,0,0,0,0,0,-1,1007,652,0,0
-210,372,0,0,0,0,0,0,0,0,0,-1,1014,652,0,0
-203,372,0,0,0,0,0,0,0,0,0,-1,1021,652,0,0
-196,372,0,0,0,0,0,0,0,0,0,-1,1028,652,0,0
-189,372,0,0,0,0,0,0,0,0,0,-1,1035,652,0,0
-182,372,0,0,0,0,0,0,0,0,0,-1,1042,652,0,0
-175,372,0,0,0,0,0,0,0,0,0,-1,1049,652,0,0
-168,372,0,0,0,0,0,0,0,0,0,-1,1056,652,0,0
-161,372,0,0,0,0,0,0,0,0,0,-1,1063,652,0,0
-154,372,0,0,0,0,0,0,0,0,0,-1,1070,652,0,0
-147,372,0,0,0,0,0,0,0,0,0,-1,1077,652,0,0
-140,372,0,0,0,0,0,0,0,0,0,-1,1084,652,0,0
-133,372,0,0,0,0,0,0,0,0,0,-1,1091,652,0,0
-126,372,0,0,0,0,0,0,0,0,0,-1,1098,652,0,0
-119,372,0,0,0,0,0,0,0,0,0,-1,1105,652,0,0
-112,372,0,0,0,0,0,0,0,0,0,-1,1112,652,0,0
-105,372,0,0,0,0,0,0,0,0,0,-1,1119,652,0,0
-98,372,0,0,0,0,0,0,0,0,0,-1,1126,652,0,0
-91,372,0,0,0,0,0,0,0,0,0,-1,1133,652,0,0
-84,372,0,0,0,0,0,0,0,0,0,-1,1140,652,0,0
-77,372,0,0,0,0,0,0,0,0,0,-1,1147,652,0,0
-70,372,0,0,0,0,0,0,0,0,0,-1,1154,652,0,0
-63,372,0,0,0,0,0,0,0,0,0,-1,1161,652,0,0
-56,372,0,0,0,0,0,0,0,0,0,-1,1168,652,0,0
-49,372,0,0,0,0,0,0,0,0,0,-1,1175,652,0,0
-42,372,0,0,0,0,0,0,0,0,0,-1,1182,652,0,0
-35,372,0,0,0,0,0,0,0,0,0,-1,1189,652,0,0
-28,372,0,0,0,0,0,0,0,0,0,-1,1196,652,0,0
-21,372,0,0,0,0,0,0,0,0,0,-1,1203,652,0,0
-14,372,0,0,0,0,0,0,0,0,0,-1,1210,652,0,0
-7,372,0,0,0,0,0,0,0,0,0,-1,1217,652,0,0
0,372,0,0,0,0,0,0,0,0,0,-1,1224,652,0,0
7,372,0,0,0,0,0,0,0,0,0,-1,1231,652,0,0
14,372,0,0,0,0,0,0,0,0,0,-1,1238,652,0,0
21,372,0,0,0,0,0,0,0,0,0,-1,1245,652,0,0
28,372,0,0,0,0,0,0,0,0,0,-1,1252,652,0,0
35,372,0,0,0,0,0,0,0,0,0,-1,1259,652,0,0
42,372,0,0,0,0,0,0,0,0,0,-1,1266,652,0,0
49,372,0,0,0,0,0,0,0,0,0,-1,1273,652,0,0
56,372,0,0,0,0,0,0,0,0,0,-1,1280,652,0,0
63,372,0,0,0,0,0,0,0,0,0,-1,1287,652,0,0
70,372,0,0,0,0,0,0,0,0,0,-1,1294,652,0,0
77,372,0,0,0,0,0,0,0,0,0,-1,1301,652,0,0
84,372,0,0,0,0,0,0,0,0,0,-1,1308,652,0,0
91,372,0,0,0,0,0,0,0,0,0,-1,1315,652,0,0
98,372,0,0,0,0,0,0,0,0,0,-1,1322,652,0,0
105,372,0,0,0,0,0,0,0,0,0,-1,1329,652,0,0
112,372,0,0,0,0,0,0,0,0,0,-1,1336,652,0,0
119,372,0,0,0,0,0,0,0,0,0,-1,1343,652,0,0
126,372,0,0,0,0,0,0,0,0,0,-1,1350,652,0,0
133,372,0,0,0,0,0,0,0,0,0,-1,1357,652,0,0
140,372,0,0,0,0,0,0,0,0,0,-1,1364,652,0,0
147,372,0,0,0,0,0,0,0,0,0,-1,1371,652,0,0
154,372,0,0,0,0,0,0,0,0,0,-1,1378,652,0,0
161,372,0,0,0,0,0,0,0,0,0,-1,1385,652,0,0
168,372,0,0,0,0,0,0,0,0,0,-1,1392,652,0,0
175,372,0,0,0,0,0,0,0,0,0,-1,1399,652,0,0
182,372,0,0,0,0,0,0,0,0,0,-1,1406,652,0,0
189,372,0,0,0,0,0,0,0,0,0,-1,1413,652,0,0
196,372,0,0,0,0,0,0,0,0,0,-1,1420,652,0,0
203,372,0,0,0,0,0,0,0,0,0,-1,1427,652,0,0
210,372,0,0,0,0,0,0,0,0,0,-1,1434,652,0,0
217,372,0,0,0,0,0,0,0,0,0,-1,1441,652,0,0
224,372,0,0,0,0,0,0,0,0,0,-1,1448,652,0,0
231,372,0,0,0,0,0,0,0,0,0,-1,1455,652,0,0
238,372,0,0,0,0,0,0,0,0,0,-1,1462,652,0,0
245,372,0,0,0,0,0,0,0,0,0,-1,1469,652,0,0
252,372,0,0,0,0,0,0,0,0,0,-1,1476,652,0,0
259,372,0,0,0,0,0,0,0,0,0,-1,1483,652,0,0
266,372,0,0,0,0,0,0,0,0,0,-1,1490,652,0,0
273,372,0,0,0,0,0,0,0,0,0,-1,1497,652,0,0
280,372,0,0,0,0,0,0,0,0,0,-1,1504,652,0,0
287,372,0,0,0,0,0,0,0,0,0,-1,1511,652,0,0
294,372,0,0,0,0,0,0,0,0,0,-1,1518,652,0,0
301,372,0,0,0,0,0,0,0,0,0,-1,1525,652,0,0
308,372,0,0,0,0,0,0,0,0,0,-1,1532,652,0,0
315,372,0,0,0,0,0,0,0,0,0,-1,1539,652,0,0
322,372,0,0,0,0,0,0,0,0,0,-1,1546,652,0,0
329,372,0,0,0,0,0,0,0,0,0,-1,1553,652,0,0
336,372,0,0,0,0,0,0,0,0,0,-1,1560,652,0,0
343,372,0,0,0,0,0,0,0,0,0,-1,1567,652,0,0
350,372,0,0,0,0,0,0,0,0,0,-1,1574,652,0,0
357,372,0,0,0,0,0,0,0,0,0,-1,1581,652,0,0
364,372,0,0,0,0,0,0,0,0,0,-1,1588,652,0,0
371,372,0,0,0,0,0,0,0,0,0,-1,1595,652,0,0
378,372,0,0,0,0,0,0,0,0,0,-1,1602,652,0,0
385,372,0,0,0,0,0,0,0,0,0,-1,1609,652,0,0
392,372,0,0,0,0,0,0,0,0,0,-1,1616,652,0,0
399,372,0,0,0,0,0,0,0,0,0,-1,1623,652,0,0
406,372,0,0,0,0,0,0,0,0,0,-1,1630,652,0,0
413,372,0,0,0,0,0,0,0,0,0,-1,1637,652,0,0
420,372,0,0,0,0,0,0,0,0,0,-1,1644,652,0,0
427,372,0,0,0,0,0,0,0,0,0,-1,1651,652,0,0
434,372,0,0,0,0,0,0,0,0,0,-1,1658,652,0,0
441,372,0,0,0,0,0,0,0,0,0,-1,1665,652,0,0
448,372,0,0,0,0,0,0,0,0,0,-1,1672,652,0,0
455,372,0,0,0,0,0,0,0,0,0,-1,1679,652,0,0
462,372,0,0,0,0,0,0,0,0,0,-1,1686,652,0,0
469,372,0,0,0,0,0,0,0,0,0,-1,1693,652,0,0
476,372,0,0,0,0,0,0,0,0,0,-1,1700,652,0,0
483,372,8.74182,1.53125,0,0,0,0,0,0,0,-1,1707,652,8.74186,-1.53126
490,372,9.78455,1.67096,0,0,0,0,0,0,0,-1,1714,652,9.7846,-1.67093
497,372,9.97644,1.46069,0,0,0,0,0,0,0,-1,1721,652,9.97647,-1.46071
504,372,10.1216,1.28375,0,0,0,0,0,0,0,-1,1728,652,10.1216,-1.28376
511,372,11.7367,-0.0272217,0,0,0,0,0,0,0,-1,1735,652,11.7367,0.0272326
518,372,12.0657,-0.0995483,0,0,0,0,0,0,0,-1,1742,652,12.0657,0.0995285
525,372,12.3947,-0.171814,0,0,0,0,0,0,0,-1,1749,652,12.3946,0.171824
532,372,9.36597,1.72034,0,0,0,0,0,0,0,-1,1756,652,9.36597,-1.72036
539,372,7.82886,-0.0865479,0,0,0,0,0,0,0,-1,1763,652,7.82882,0.0865771
546,372,10.953,-0.187195,0,0,0,0,0,0,0,-1,1770,652,10.953,0.187181
553,372,13.4268,-4.30804,0,0,0,0,0,0,0,-1,1777,652,13.4268,4.30806
560,372,13.3691,-3.7674,-0.00697788,0.00401406,0.000159962,0.00401639,-0.0069802,1.55625,0.00642529,0.047311,1784,652,13.3692,3.7674
567,372,13.2627,-3.23004,-0.00549389,0.0023711,-0.00044357,0.00239604,-0.00551882,-1.51464,0.00468671,0.029225,1791,652,13.2627,3.23006
574,372,13.3508,-2.87268,-0.00417836,0.00136659,-0.000674999,0.00144757,-0.00425935,-1.45139,0.0034256,0.0192177,1798,652,13.3508,2.8727
581,372,13.3339,-2.57428,-0.00299983,0.000785547,-0.00070336,0.000912013,-0.0031263,-1.39289,0.00244556,0.0162767,1805,652,13.3339,2.57428
588,372,13.3125,-2.23962,-0.00195738,0.000488261,-0.000582419,0.000619879,-0.00208899,-1.34855,0.00163884,0.016892,1812,652,13.3125,2.23962
595,372,13.312,-1.91998,-0.00101044,0.000431231,-0.000356702,0.000514659,-0.00109387,-1.34104,0.000948539,0.014238,1819,652,13.312,1.91996
602,372,13.3162,-1.59821,-0.000282873,0.000578954,-2.11683e-05,0.000579473,-0.000283392,-1.54625,0.000507858,0.0144838,1826,652,13.3162,1.59822
609,372,13.2661,-1.23981,-0.000290534,0.000622472,8.05657e-05,0.000629527,-0.000297589,1.48345,0.000546587,0.0151583,1833,652,13.2662,1.23979
616,372,13.2603,-0.874329,-0.000489297,0.000596061,3.8164e-05,0.000597401,-0.000490637,1.53569,0.000629186,0.0146436,1840,652,13.2602,0.874305
623,372,13.2893,-0.518738,-0.00119339,0.000594738,-0.00011524,0.000602134,-0.00120078,-1.5067,0.00105987,0.0124002,1847,652,13.2893,0.518764
630,372,13.2924,-0.179565,-0.00252279,0.000265953,-0.000509958,0.00035628,-0.00261311,-1.39549,0.00187217,0.0172572,1854,652,13.2924,0.179592
637,372,13.3146,0.151001,-0.00465188,-0.00021609,-0.0012482,0.000111023,-0.00497899,-1.31449,0.00335695,0.022107,1861,652,13.3146,-0.150974
644,372,13.3615,0.570862,-0.00764215,-0.00124575,-0.00241945,-0.000433681,-0.00845421,-1.24697,0.00549729,0.0262276,1868,652,13.3615,-0.570836
651,372,13.4622,0.90033,0,0,0,0,0,0,0,-1,1875,652,13.4622,-0.900323
658,372,12.7369,0.517456,0,0,0,0,0,0,0,-1,1882,652,12.7369,-0.517435
665,372,12.0464,0.652954,0,0,0,0,0,0,0,-1,1889,652,12.0464,-0.652947
672,372,9.34106,1.48444,0,0,0,0,0,0,0,-1,1896,652,9.34109,-1.48444
679,372,10.7308,2.32391,0,0,0,0,0,0,0,-1,1903,652,10.7309,-2.3239
686,372,11.6295,2.52997,0,0,0,0,0,0,0,-1,1910,652,11.6296,-2.52996
693,372,0,0,0,0,0,0,0,0,0,-1,1917,652,0,0
700,372,0,0,0,0,0,0,0,0,0,-1,1924,652,0,0
707,372,0,0,0,0,0,0,0,0,0,-1,1931,652,0,0
714,372,0,0,0,0,0,0,0,0,0,-1,1938,652,0,0
721,372,0,0,0,0,0,0,0,0,0,-1,1945,652,0,0
728,372,0,0,0,0,0,0,0,0,0,-1,1952,652,0,0
735,372,0,0,0,0,0,0,0,0,0,-1,1959,652,0,0
742,372,0,0,0,0,0,0,0,0,0,-1,1966,652,0,0
749,372,0,0,0,0,0,0,0,0,0,-1,1973,652,0,0
756,372,0,0,0,0,0,0,0,0,0,-1,1980,652,0,0
763,372,0,0,0,0,0,0,0,0,0,-1,1987,652,0,0
770,372,0,0,0,0,0,0,0,0,0,-1,1994,652,0,0
777,372,0,0,0,0,0,0,0,0,0,-1,2001,652,0,0
784,372,0,0,0,0,0,0,0,0,0,-1,2008,652,0,0
791,372,0,0,0,0,0,0,0,0,0,-1,2015,652,0,0
798,372,0,0,0,0,0,0,0,0,0,-1,2022,652,0,0
805,372,0,0,0,0,0,0,0,0,0,-1,2029,652,0,0
812,372,0,0,0,0,0,0,0,0,0,-1,2036,652,0,0
-700,365,0,0,0,0,0,0,0,0,0,-1,524,659,0,0
-693,365,0,0,0,0,0,0,0,0,0,-1,531,659,0,0
-686,365,0,0,0,0,0,0,0,0,0,-1,538,659,0,0
-679,365,0,0,0,0,0,0,0,0,0,-1,545,659,0,0
-672,365,0,0,0,0,0,0,0,0,0,-1,552,659,0,0
-665,365,0,0,0,0,0,0,0,0,0,-1,559,659,0,0
-658,365,0,0,0,0,0,0,0,0,0,-1,566,659,0,0
-651,365,0,0,0,0,0,0,0,0,0,-1,573,659,0,0
-644,365,0,0,0,0,0,0,0,0,0,-1,580,659,0,0
-637,365,0,0,0,0,0,0,0,0,0,-1,587,659,0,0
-630,365,0,0,0,0,0,0,0,0,0,-1,594,659,0,0
-623,365,0,0,0,0,0,0,0,0,0,-1,601,659,0,0
-616,365,0,0,0,0,0,0,0,0,0,-1,608,659,0,0
-609,365,0,0,0,0,0,0,0,0,0,-1,615,659,0,0
-602,365,0,0,0,0,0,0,0,0,0,-1,622,659,0,0
-595,365,0,0,0,0,0,0,0,0,0,-1,629,659,0,0
-588,365,0,0,0,0,0,0,0,0,0,-1,636,659,0,0
-581,365,0,0,0,0,0,0,0,0,0,-1,643,659,0,0
-574,365,-7.69281,1.59015,0,0,0,0,0,0,0,-1,650,659,-7.69282,-1.59018
-567,365,-8.2583,1.72638,0,0,0,0,0,0,0,-1,657,659,-8.25827,-1.72637
-560,365,-7.17767,0.275757,0,0,0,0,0,0,0,-1,664,659,-7.17768,-0.27577
-553,365,-8.82336,3.15826,0,0,0,0,0,0,0,-1,671,659,-8.82338,-3.15825
-546,365,-8.1958,2.18658,0,0,0,0,0,0,0,-1,678,659,-8.19578,-2.18657
-539,365,-7.14679,0.828735,0,0,0,0,0,0,0,-1,685,659,-7.14679,-0.828714
-532,365,-7.11157,0.432983,0,0,0,0,0,0,0,-1,692,659,-7.11159,-0.432995
-525,365,-6.70605,-0.803223,0,0,0,0,0,0,0,-1,699,659,-6.70607,0.803201
-518,365,-6.86548,-1.35345,0,0,0,0,0,0,0,-1,706,659,-6.86545,1.35343
-511,365,-6.84515,-1.72461,0.00547639,0.00596969,-0.0029168,0.00865026,0.00279583,-0.827579,0.00509723,0.0227349,713,659,-6.84515,1.72458
-504,365,-6.82697,-2.03662,0.00348879,0.00358001,-0.00164026,0.0051753,0.0018935,-0.799299,0.00302358,0.0115648,720,659,-6.82695,2.03663
-497,365,-6.83624,-2.37299,0.00203317,0.00242604,-0.000724144,0.00297992,0.00147929,-0.917843,0.00172047,0.0115128,727,659,-6.83625,2.37299
-490,365,-6.83881,-2.69714,0.00121072,0.00143437,-0.000463514,0.00179935,0.00084573,-0.903763,0.00103948,0.0126385,734,659,-6.83882,2.69715
-483,365,-6.82782,-3.00415,0.00117042,0.000979573,-0.000609928,0.00169234,0.000457649,-0.707802,0.00101082,0.0122187,741,659,-6.82782,3.00416
-476,365,-6.82593,-3.31104,0.00163423,0.00102944,-0.0010763,0.0024498,0.00021386,-0.648449,0.00156679,0.0135913,748,659,-6.82596,3.31101
-469,365,-6.83197,-3.62695,0.00221224,0.00132706,-0.00162664,0.00345543,8.38749e-05,-0.652569,0.00227618,0.013368,755,659,-6.83199,3.62695
-462,365,-6.85956,-3.96088,0.00279577,0.00166893,-0.00221379,0.00451672,-5.20144e-05,-0.660792,0.00302863,0.0129195,762,659,-6.85953,3.96085
-455,365,-6.87903,-4.27002,0.00312032,0.00228598,-0.00261102,0.00534728,5.90142e-05,-0.706181,0.00354535,0.0140409,769,659,-6.87902,4.27002
-448,365,-6.79095,-4.64496,0.00333873,0.00254047,-0.00289634,0.00586331,1.58895e-05,-0.716927,0.00390358,0.0244899,776,659,-6.79096,4.64498
-441,365,-6.59833,-5.11505,0,0,0,0,0,0,0,-1,783,659,-6.59834,5.11504
-434,365,-5.45056,-3.98041,0,0,0,0,0,0,0,-1,790,659,-5.45055,3.98042
-427,365,-5.05377,-4.74689,0,0,0,0,0,0,0,-1,797,659,-5.05376,4.7469
-420,365,-4.58813,-3.16376,0,0,0,0,0,0,0,-1,804,659,-4.58816,3.16374
-413,365,0.141357,0.672729,0,0,0,0,0,0,0,-1,811,659,0.141365,-0.672714
-406,365,-1.75067,-0.934448,0,0,0,0,0,0,0,-1,818,659,-1.7507,0.934424
-399,365,-4.10242,-1.25439,0,0,0,0,0,0,0,-1,825,659,-4.10244,1.25438
-392,365,-7.46545,-0.779724,0,0,0,0,0,0,0,-1,832,659,-7.46543,0.779744
-385,365,-6.27875,-0.887573,0,0,0,0,0,0,0,-1,839,659,-6.27874,0.887545
-378,365,-5.34503,-0.263306,0,0,0,0,0,0,0,-1,846,659,-5.34504,0.263275
-371,365,0,0,0,0,0,0,0,0,0,-1,853,659,0,0
-364,365,0,0,0,0,0,0,0,0,0,-1,860,659,0,0
-357,365,0,0,0,0,0,0,0,0,0,-1,867,659,0,0
-350,365,0,0,0,0,0,0,0,0,0,-1,874,659,0,0
-343,365,0,0,0,0,0,0,0,0,0,-1,881,659,0,0
-336,365,0,0,0,0,0,0,0,0,0,-1,888,659,0,0
-329,365,0,0,0,0,0,0,0,0,0,-1,895,659,0,0
-322,365,0,0,0,0,0,0,0,0,0,-1,902,659,0,0
-315,365,0,0,0,0,0,0,0,0,0,-1,909,659,0,0
-308,365,0,0,0,0,0,0,0,0,0,-1,916,659,0,0
-301,365,0,0,0,0,0,0,0,0,0,-1,923,659,0,0
-294,365,0,0,0,0,0,0,0,0,0,-1,930,659,0,0
-287,365,0,0,0,0,0,0,0,0,0,-1,937,659,0,0
-280,365,0,0,0,0,0,0,0,0,0,-1,944,659,0,0
-273,365,0,0,0,0,0,0,0,0,0,-1,951,659,0,0
-266,365,0,0,0,0,0,0,0,0,0,-1,958,659,0,0
-259,365,0,0,0,0,0,0,0,0,0,-1,965,659,0,0
-252,365,0,0,0,0,0,0,0,0,0,-1,972,659,0,0
-245,365,0,0,0,0,0,0,0,0,0,-1,979,659,0,0
-238,365,0,0,0,0,0,0,0,0,0,-1,986,659,0,0
-231,365,0,0,0,0,0,0,0,0,0,-1,993,659,0,0
-224,365,0,0,0,0,0,0,0,0,0,-1,1000,659,0,0
-217,365,0,0,0,0,0,0,0,0,0,-1,1007,659,0,0
-210,365,0,0,0,0,0,0,0,0,0,-1,1014,659,0,0
-203,365,0,0,0,0,0,0,0,0,0,-1,1021,659,0,0
-196,365,0,0,0,0,0,0,0,0,0,-1,1028,659,0,0
-189,365,0,0,0,0,0,0,0,0,0,-1,1035,659,0,0
-182,365,0,0,0,0,0,0,0,0,0,-1,1042,659,0,0
-175,365,0,0,0,0,0,0,0,0,0,-1,1049,659,0,0
-168,365,0,0,0,0,0,0,0,0,0,-1,1056,659,0,0
-161,365,0,0,0,0,0,0,0,0,0,-1,1063,659,0,0
-154,365,0,0,0,0,0,0,0,0,0,-1,1070,659,0,0
-147,365,0,0,0,0,0,0,0,0,0,-1,1077,659,0,0
-140,365,0,0,0,0,0,0,0,0,0,-1,1084,659,0,0
-133,365,0,0,0,0,0,0,0,0,0,-1,1091,659,0,0
-126,365,0,0,0,0,0,0,0,0,0,-1,1098,659,0,0
-119,365,0,0,0,0,0,0,0,0,0,-1,1105,659,0,0
-112,365,0,0,0,0,0,0,0,0,0,-1,1112,659,0,0
-105,365,0,0,0,0,0,0,0,0,0,-1,1119,659,0,0
-98,365,0,0,0,0,0,0,0,0,0,-1,1126,659,0,0
-91,365,0,0,0,0,0,0,0,0,0,-1,1133,659,0,0
-84,365,0,0,0,0,0,0,0,0,0,-1,1140,659,0,0
-77,365,0,0,0,0,0,0,0,0,0,-1,1147,659,0,0
-70,365,0,0,0,0,0,0,0,0,0,-1,1154,659,0,0
-63,365,0,0,0,0,0,0,0,0,0,-1,1161,659,0,0
-56,365,0,0,0,0,0,0,0,0,0,-1,1168,659,0,0
-49,365,0,0,0,0,0,0,0,0,0,-1,1175,659,0,0
-42,365,0,0,0,0,0,0,0,0,0,-1,1182,659,0,0
-35,365,0,0,0,0,0,0,0,0,0,-1,1189,659,0,0
-28,365,0,0,0,0,0,0,0,0,0,-1,1196,659,0,0
-21,365,0,0,0,0,0,0,0,0,0,-1,1203,659,0,0
-14,365,0,0,0,0,0,0,0,0,0,-1,1210,659,0,0
-7,365,0,0,0,0,0,0,0,0,0,-1,1217,659,0,0
0,365,0,0,0,0,0,0,0,0,0,-1,1224,659,0,0
7,365,0,0,0,0,0,0,0,0,0,-1,1231,659,0,0
14,365,0,0,0,0,0,0,0,0,0,-1,1238,659,0,0
21,365,0,0,0,0,0,0,0,0,0,-1,1245,659,0,0
28,365,0,0,0,0,0,0,0,0,0,-1,1252,659,0,0
35,365,0,0,0,0,0,0,0,0,0,-1,1259,659,0,0
42,365,0,0,0,0,0,0,0,0,0,-1,1266,659,0,0
49,365,0,0,0,0,0,0,0,0,0,-1,1273,659,0,0
56,365,0,0,0,0,0,0,0,0,0,-1,1280,659,0,0
63,365,0,0,0,0,0,0,0,0,0,-1,1287,659,0,0
70,365,0,0,0,0,0,0,0,0,0,-1,1294,659,0,0
77,365,0,0,0,0,0,0,0,0,0,-1,1301,659,0,0
84,365,0,0,0,0,0,0,0,0,0,-1,1308,659,0,0
91,365,0,0,0,0,0,0,0,0,0,-1,1315,659,0,0
98,365,0,0,0,0,0,0,0,0,0,-1,1322,659,0,0
105,365,0,0,0,0,0,0,0,0,0,-1,1329,659,0,0
112,365,0,0,0,0,0,0,0,0,0,-1,1336,659,0,0
119,365,0,0,0,0,0,0,0,0,0,-1,1343,659,0,0
126,365,0,0,0,0,0,0,0,0,0,-1,1350,659,0,0
133,365,0,0,0,0,0,0,0,0,0,-1,1357,659,0,0
140,365,0,0,0,0,0,0,0,0,0,-1,1364,659,0,0
147,365,0,0,0,0,0,0,0,0,0,-1,1371,659,0,0
154,365,0,0,0,0,0,0,0,0,0,-1,1378,659,0,0
161,365,0,0,0,0,0,0,0,0,0,-1,1385,659,0,0
168,365,0,0,0,0,0,0,0,0,0,-1,1392,659,0,0
175,365,0,0,0,0,0,0,0,0,0,-1,1399,659,0,0
182,365,0,0,0,0,0,0,0,0,0,-1,1406,659,0,0
189,365,0,0,0,0,0,0,0,0,0,-1,1413,659,0,0
196,365,0,0,0,0,0,0,0,0,0,-1,1420,659,0,0
203,365,0,0,0,0,0,0,0,0,0,-1,1427,659,0,0
210,365,0,0,0,0,0,0,0,0,0,-1,1434,659,0,0
217,365,0,0,0,0,0,0,0,0,0,-1,1441,659,0,0
224,365,0,0,0,0,0,0,0,0,0,-1,1448,659,0,0
231,365,0,0,0,0,0,0,0,0,0,-1,1455,659,0,0
238,365,0,0,0,0,0,0,0,0,0,-1,1462,659,0,0
245,365,0,0,0,0,0,0,0,0,0,-1,1469,659,0,0
252,365,0,0,0,0,0,0,0,0,0,-1,1476,659,0,0
259,365,0,0,0,0,0,0,0,0,0,-1,1483,659,0,0
266,365,0,0,0,0,0,0,0,0,0,-1,1490,659,0,0
273,365,0,0,0,0,0,0,0,0,0,-1,1497,659,0,0
280,365,0,0,0,0,0,0,0,0,0,-1,1504,659,0,0
287,365,0,0,0,0,0,0,0,0,0,-1,1511,659,0,0
294,365,0,0,0,0,0,0,0,0,0,-1,1518,659,0,0
301,365,0,0,0,0,0,0,0,0,0,-1,1525,659,0,0
308,365,0,0,0,0,0,0,0,0,0,-1,1532,659,0,0
315,365,0,0,0,0,0,0,0,0,0,-1,1539,659,0,0
322,365,0,0,0,0,0,0,0,0,0,-1,1546,659,0,0
329,365,0,0,0,0,0,0,0,0,0,-1,1553,659,0,0
336,365,0,0,0,0,0,0,0,0,0,-1,1560,659,0,0
343,365,0,0,0,0,0,0,0,0,0,-1,1567,659,0,0
350,365,0,0,0,0,0,0,0,0,0,-1,1574,659,0,0
357,365,0,0,0,0,0,0,0,0,0,-1,1581,659,0,0
364,365,0,0,0,0,0,0,0,0,0,-1,1588,659,0,0
371,365,0,0,0,0,0,0,0,0,0,-1,1595,659,0,0
378,365,0,0,0,0,0,0,0,0,0,-1,1602,659,0,0
385,365,0,0,0,0,0,0,0,0,0,-1,1609,659,0,0
392,365,0,0,0,0,0,0,0,0,0,-1,1616,659,0,0
399,365,0,0,0,0,0,0,0,0,0,-1,1623,659,0,0
406,365,0,0,0,0,0,0,0,0,0,-1,1630,659,0,0
413,365,0,0,0,0,0,0,0,0,0,-1,1637,659,0,0
420,365,0,0,0,0,0,0,0,0,0,-1,1644,659,0,0
427,365,0,0,0,0,0,0,0,0,0,-1,1651,659,0,0
434,365,0,0,0,0,0,0,0,0,0,-1,1658,659,0,0
441,365,0,0,0,0,0,0,0,0,0,-1,1665,659,0,0
448,365,0,0,0,0,0,0,0,0,0,-1,1672,659,0,0
455,365,0,0,0,0,0,0,0,0,0,-1,1679,659,0,0
462,365,0,0,0,0,0,0,0,0,0,-1,1686,659,0,0
469,365,0,0,0,0,0,0,0,0,0,-1,1693,659,0,0
476,365,0,0,0,0,0,0,0,0,0,-1,1700,659,0,0
483,365,0,0,0,0,0,0,0,0,0,-1,1707,659,0,0
490,365,8.39551,0.471252,0,0,0,0,0,0,0,-1,1714,659,8.39551,-0.471241
497,365,9.89233,1.35394,0,0,0,0,0,0,0,-1,1721,659,9.89237,-1.35396
504,365,10.1414,1.18005,0,0,0,0,0,0,0,-1,1728,659,10.1413,-1.18004
511,365,10.5151,0.993896,0,0,0,0,0,0,0,-1,1735,659,10.5152,-0.993894
518,365,11.2029,0.398132,0,0,0,0,0,0,0,-1,1742,659,11.2029,-0.398136
525,365,15.5748,3.85303,0,0,0,0,0,0,0,-1,1749,659,15.5748,-3.85303
532,365,11.2446,1.00629,0,0,0,0,0,0,0,-1,1756,659,11.2446,-1.00631
539,365,12.6301,1.03204,0,0,0,0,0,0,0,-1,1763,659,12.6302,-1.03204
546,365,11.647,0.84198,0,0,0,0,0,0,0,-1,1770,659,11.6469,-0.841955
553,365,12.028,-0.558899,0,0,0,0,0,0,0,-1,1777,659,12.028,0.558873
560,365,13.6729,-4.05017,0,0,0,0,0,0,0,-1,1784,659,13.6729,4.05014
567,365,13.7496,-3.37714,0,0,0,0,0,0,0,-1,1791,659,13.7496,3.37715
574,365,13.8186,-2.85864,0,0,0,0,0,0,0,-1,1798,659,13.8186,2.85863
581,365,13.6563,-2.64331,0.00199525,0.00104888,0.000546382,0.00224487,0.000799271,0.428534,0.00131386,0.027863,1805,659,13.6562,2.64329
588,365,13.6145,-2.24591,0.000952217,0.000546912,0.000101069,0.000976022,0.000523107,0.231316,0.000563992,0.013588,1812,659,13.6145,2.24592
595,365,13.6376,-1.87219,0.000497245,0.000323686,-7.8298e-05,0.000527346,0.000293584,-0.367032,0.000305116,0.0131369,1819,659,13.6375,1.8722
602,365,13.6332,-1.53931,0.000409786,0.000350983,-3.98607e-06,0.000410055,0.000350714,-0.0673762,0.000255894,0.0146641,1826,659,13.6331,1.53932
609,365,13.5946,-1.19739,-0.000114677,0.000342869,-3.01105e-05,0.000344842,-0.00011665,-1.50536,0.000277088,0.0151844,1833,659,13.5946,1.19738
616,365,13.6171,-0.854736,-0.000433308,0.000251386,-0.000184689,0.000298027,-0.000479949,-1.32343,0.000453239,0.0167998,1840,659,13.6171,0.854729
623,365,13.6344,-0.517029,-0.00106002,0.000214397,-0.000354289,0.000306267,-0.00115189,-1.31708,0.000887802,0.0115404,1847,659,13.6343,0.517001
630,365,13.6171,-0.178711,-0.00230029,-0.000127894,-0.000736365,9.81814e-05,-0.00252636,-1.27292,0.0017179,0.0154446,1854,659,13.6171,0.178727
637,365,13.6179,0.147827,-0.00412803,-0.00055049,-0.00137856,-8.09163e-05,-0.00459761,-1.2425,0.00303846,0.0212869,1861,659,13.6179,-0.147844
644,365,13.6229,0.478088,-0.00669509,-0.00144662,-0.00243041,-0.000494051,-0.00764766,-1.19726,0.00494199,0.0152124,1868,659,13.6229,-0.478065
651,365,13.7843,0.854675,-0.0098081,-0.00254439,-0.00378931,-0.000927513,-0.011425,-1.16749,0.00732708,0.0332688,1875,659,13.7844,-0.854683
658,365,13.1333,0.766357,-0.0136879,-0.00409877,-0.00559209,-0.00152725,-0.0162594,-1.13978,0.0103681,0.0493479,1882,659,13.1332,-0.76638
665,365,12.598,0.920166,0,0,0,0,0,0,0,-1,1889,659,12.5981,-0.92015
672,365,10.0579,2.15088,0,0,0,0,0,0,0,-1,1896,659,10.0579,-2.15088
679,365,10.9718,2.19208,0,0,0,0,0,0,0,-1,1903,659,10.9718,-2.19211
686,365,12.2134,2.17108,0,0,0,0,0,0,0,-1,1910,659,12.2134,-2.17109
693,365,13.7141,1.98279,0,0,0,0,0,0,0,-1,1917,659,13.7141,-1.98278
700,365,0,0,0,0,0,0,0,0,0,-1,1924,659,0,0
707,365,0,0,0,0,0,0,0,0,0,-1,1931,659,0,0
714,365,0,0,0,0,0,0,0,0,0,-1,1938,659,0,0
721,365,0,0,0,0,0,0,0,0,0,-1,1945,659,0,0
728,365,0,0,0,0,0,0,0,0,0,-1,1952,659,0,0
735,365,0,0,0,0,0,0,0,0,0,-1,1959,659,0,0
742,365,0,0,0,0,0,0,0,0,0,-1,1966,659,0,0
749,365,0,0,0,0,0,0,0,0,0,-1,1973,659,0,0
756,365,0,0,0,0,0,0,0,0,0,-1,1980,659,0,0
763,365,0,0,0,0,0,0,0,0,0,-1,1987,659,0,0
770,365,0,0,0,0,0,0,0,0,0,-1,1994,659,0,0
777,365,0,0,0,0,0,0,0,0,0,-1,2001,659,0,0
784,365,0,0,0,0,0,0,0,0,0,-1,2008,659,0,0
791,365,0,0,0,0,0,0,0,0,0,-1,2015,659,0,0
798,365,0,0,0,0,0,0,0,0,0,-1,2022,659,0,0
805,365,0,0,0,0,0,0,0,0,0,-1,2029,659,0,0
812,365,0,0,0,0,0,0,0,0,0,-1,2036,659,0,0
-700,358,0,0,0,0,0,0,0,0,0,-1,524,666,0,0
-693,358,0,0,0,0,0,0,0,0,0,-1,531,666,0,0
-686,358,0,0,0,0,0,0,0,0,0,-1,538,666,0,0
-679,358,0,0,0,0,0,0,0,0,0,-1,545,666,0,0
-672,358,0,0,0,0,0,0,0,0,0,-1,552,666,0,0
-665,358,0,0,0,0,0,0,0,0,0,-1,559,666,0,0
-658,358,0,0,0,0,0,0,0,0,0,-1,566,666,0,0
-651,358,0,0,0,0,0,0,0,0,0,-1,573,666,0,0
-644,358,0,0,0,0,0,0,0,0,0,-1,580,666,0,0
-637,358,0,0,0,0,0,0,0,0,0,-1,587,666,0,0
-630,358,0,0,0,0,0,0,0,0,0,-1,594,666,0,0
-623,358,0,0,0,0,0,0,0,0,0,-1,601,666,0,0
-616,358,0,0,0,0,0,0,0,0,0,-1,608,666,0,0
-609,358,0,0,0,0,0,0,0,0,0,-1,615,666,0,0
-602,358,0,0,0,0,0,0,0,0,0,-1,622,666,0,0
-595,358,0,0,0,0,0,0,0,0,0,-1,629,666,0,0
-588,358,0,0,0,0,0,0,0,0,0,-1,636,666,0,0
-581,358,-8.31616,1.61993,0,0,0,0,0,0,0,-1,643,666,-8.31614,-1.61993
-574,358,-8.22406,1.75385,0,0,0,0,0,0,0,-1,650,666,-8.22408,-1.75383
-567,358,-8.14215,1.91577,0,0,0,0,0,0,0,-1,657,666,-8.14214,-1.91579
-560,358,-6.117,1.40564,0,0,0,0,0,0,0,-1,664,666,-6.11702,-1.40564
-553,358,-8.5199,2.20667,0,0,0,0,0,0,0,-1,671,666,-8.51989,-2.20664
-546,358,-7.92914,1.32001,0,0,0,0,0,0,0,-1,678,666,-7.92915,-1.32
-539,358,-7.39453,0.605469,0,0,0,0,0,0,0,-1,685,666,-7.39456,-0.605478
-532,358,-6.85999,-0.10907,0,0,0,0,0,0,0,-1,692,666,-6.85996,0.109045
-525,358,-7.08191,-1.16882,0.0117751,0.0117058,-0.00712095,0.0188615,0.0046194,-0.782965,0.0113522,0.0385223,699,666,-7.0819,1.16884
-518,358,-7.04889,-1.32916,0.00786604,0.00808858,-0.00450395,0.0124826,0.00347199,-0.797749,0.00743957,0.0327489,706,666,-7.04888,1.32914
-511,358,-7.1543,-1.7157,0.00509324,0.00541049,-0.00270148,0.007958,0.00254573,-0.814724,0.00469286,0.0150867,713,666,-7.15432,1.7157
-504,358,-7.15631,-2.02191,0.00328655,0.00316668,-0.00151416,0.00474196,0.00171127,-0.765616,0.00277287,0.0108291,720,666,-7.15628,2.02189
-497,358,-7.15314,-2.35083,0.00199493,0.00211981,-0.000698462,0.00275862,0.00135612,-0.829976,0.00159276,0.010338,727,666,-7.15314,2.35085
-490,358,-7.14978,-2.68152,0.00131716,0.00129841,-0.000528616,0.00183649,0.000779088,-0.776531,0.00106435,0.0102923,734,666,-7.1498,2.68149
-483,358,-7.15326,-2.99182,0.00140535,0.000995484,-0.000775364,0.00200241,0.000398428,-0.656199,0.00122394,0.0101021,741,666,-7.15328,2.99185
-476,358,-7.14197,-3.29443,0.00197612,0.00120104,-0.00135478,0.00299769,0.00017946,-0.646091,0.00194141,0.0117738,748,666,-7.142,3.29442
-469,358,-7.14935,-3.60211,0.00265675,0.00163303,-0.0020356,0.00424386,4.59184e-05,-0.662225,0.00281406,0.0145061,755,666,-7.14937,3.60209
-462,358,-7.19775,-3.93848,0.00342162,0.00216255,-0.00280648,0.0056683,-8.41348e-05,-0.675067,0.00380722,0.0166555,762,666,-7.19775,3.93848
-455,358,-7.13452,-4.28772,0.00393144,0.00314231,-0.00346853,0.00702777,4.59773e-05,-0.728763,0.00466993,0.0250572,769,666,-7.13453,4.28771
-448,358,-6.97791,-4.79291,0,0,0,0,0,0,0,-1,776,666,-6.97792,4.79293
-441,358,-5.56293,-3.98041,0,0,0,0,0,0,0,-1,783,666,-5.56291,3.98043
-434,358,-5.21558,-4.43127,0,0,0,0,0,0,0,-1,790,666,-5.21559,4.43125
-427,358,-3.56189,-3.15729,0,0,0,0,0,0,0,-1,797,666,-3.56192,3.15729
-420,358,0.200195,1.08234,0,0,0,0,0,0,0,-1,804,666,0.200174,-1.08231
-413,358,0.0325317,0.161072,0,0,0,0,0,0,0,-1,811,666,0.0325501,-0.161098
-406,358,-3.85846,0.753113,0,0,0,0,0,0,0,-1,818,666,-3.85846,-0.753129
-399,358,-1.31213,0.190735,0,0,0,0,0,0,0,-1,825,666,-1.31215,-0.190763
-392,358,-3.73914,-0.832214,0,0,0,0,0,0,0,-1,832,666,-3.73915,0.832202
-385,358,-5.95178,-1.69141,0,0,0,0,0,0,0,-1,839,666,-5.9518,1.69143
-378,358,0,0,0,0,0,0,0,0,0,-1,846,666,0,0
-371,358,0,0,0,0,0,0,0,0,0,-1,853,666,0,0
-364,358,0,0,0,0,0,0,0,0,0,-1,860,666,0,0
-357,358,0,0,0,0,0,0,0,0,0,-1,867,666,0,0
-350,358,0,0,0,0,0,0,0,0,0,-1,874,666,0,0
-343,358,0,0,0,0,0,0,0,0,0,-1,881,666,0,0
-336,358,0,0,0,0,0,0,0,0,0,-1,888,666,0,0
-329,358,0,0,0,0,0,0,0,0,0,-1,895,666,0,0
-322,358,0,0,0,0,0,0,0,0,0,-1,902,666,0,0
-315,358,0,0,0,0,0,0,0,0,0,-1,909,666,0,0
-308,358,0,0,0,0,0,0,0,0,0,-1,916,666,0,0
-301,358,0,0,0,0,0,0,0,0,0,-1,923,666,0,0
-294,358,0,0,0,0,0,0,0,0,0,-1,930,666,0,0
-287,358,0,0,0,0,0,0,0,0,0,-1,937,666,0,0
-280,358,0,0,0,0,0,0,0,0,0,-1,944,666,0,0
-273,358,0,0,0,0,0,0,0,0,0,-1,951,666,0,0
-266,358,0,0,0,0,0,0,0,0,0,-1,958,666,0,0
-259,358,0,0,0,0,0,0,0,0,0,-1,965,666,0,0
-252,358,0,0,0,0,0,0,0,0,0,-1,972,666,0,0
-245,358,0,0,0,0,0,0,0,0,0,-1,979,666,0,0
-238,358,0,0,0,0,0,0,0,0,0,-1,986,666,0,0
-231,358,0,0,0,0,0,0,0,0,0,-1,993,666,0,0
-224,358,0,0,0,0,0,0,0,0,0,-1,1000,666,0,0
-217,358,0,0,0,0,0,0,0,0,0,-1,1007,666,0,0
-210,358,0,0,0,0,0,0,0,0,0,-1,1014,666,0,0
-203,358,0,0,0,0,0,0,0,0,0,-1,1021,666,0,0
-196,358,0,0,0,0,0,0,0,0,0,-1,1028,666,0,0
-189,358,0,0,0,0,0,0,0,0,0,-1,1035,666,0,0
-182,358,0,0,0,0,0,0,0,0,0,-1,1042,666,0,0
-175,358,0,0,0,0,0,0,0,0,0,-1,1049,666,0,0
-168,358,0,0,0,0,0,0,0,0,0,-1,1056,666,0,0
-161,358,0,0,0,0,0,0,0,0,0,-1,1063,666,0,0
-154,358,0,0,0,0,0,0,0,0,0,-1,1070,666,0,0
-147,358,0,0,0,0,0,0,0,0,0,-1,1077,666,0,0
-140,358,0,0,0,0,0,0,0,0,0,-1,1084,666,0,0
-133,358,0,0,0,0,0,0,0,0,0,-1,1091,666,0,0
-126,358,0,0,0,0,0,0,0,0,0,-1,1098,666,0,0
-119,358,0,0,0,0,0,0,0,0,0,-1,1105,666,0,0
-112,358,0,0,0,0,0,0,0,0,0,-1,1112,666,0,0
-105,358,0,0,0,0,0,0,0,0,0,-1,1119,666,0,0
-98,358,0,0,0,0,0,0,0,0,0,-1,1126,666,0,0
-91,358,0,0,0,0,0,0,0,0,0,-1,1133,666,0,0
-84,358,0,0,0,0,0,0,0,0,0,-1,1140,666,0,0
-77,358,0,0,0,0,0,0,0,0,0,-1,1147,666,0,0
-70,358,0,0,0,0,0,0,0,0,0,-1,1154,666,0,0
-63,358,0,0,0,0,0,0,0,0,0,-1,1161,666,0,0
-56,358,0,0,0,0,0,0,0,0,0,-1,1168,666,0,0
-49,358,0,0,0,0,0,0,0,0,0,-1,1175,666,0,0
-42,358,0,0,0,0,0,0,0,0,0,-1,1182,666,0,0
-35,358,0,0,0,0,0,0,0,0,0,-1,1189,666,0,0
-28,358,0,0,0,0,0,0,0,0,0,-1,1196,666,0,0
-21,358,0,0,0,0,0,0,0,0,0,-1,1203,666,0,0
-14,358,0,0,0,0,0,0,0,0,0,-1,1210,666,0,0
-7,358,0,0,0,0,0,0,0,0,0,-1,1217,666,0,0
0,358,0,0,0,0,0,0,0,0,0,-1,1224,666,0,0
7,358,0,0,0,0,0,0,0,0,0,-1,1231,666,0,0
14,358,0,0,0,0,0,0,0,0,0,-1,1238,666,0,0
21,358,0,0,0,0,0,0,0,0,0,-1,1245,666,0,0
28,358,0,0,0,0,0,0,0,0,0,-1,1252,666,0,0
35,358,0,0,0,0,0,0,0,0,0,-1,1259,666,0,0
42,358,0,0,0,0,0,0,0,0,0,-1,1266,666,0,0
49,358,0,0,0,0,0,0,0,0,0,-1,1273,666,0,0
56,358,0,0,0,0,0,0,0,0,0,-1,1280,666,0,0
63,358,0,0,0,0,0,0,0,0,0,-1,1287,666,0,0
70,358,0,0,0,0,0,0,0,0,0,-1,1294,666,0,0
77,358,0,0,0,0,0,0,0,0,0,-1,1301,666,0,0
84,358,0,0,0,0,0,0,0,0,0,-1,1308,666,0,0
91,358,0,0,0,0,0,0,0,0,0,-1,1315,666,0,0
98,358,0,0,0,0,0,0,0,0,0,-1,1322,666,0,0
105,358,0,0,0,0,0,0,0,0,0,-1,1329,666,0,0
112,358,0,0,0,0,0,0,0,0,0,-1,1336,666,0,0
119,358,0,0,0,0,0,0,0,0,0,-1,1343,666,0,0
126,358,0,0,0,0,0,0,0,0,0,-1,1350,666,0,0
133,358,0,0,0,0,0,0,0,0,0,-1,1357,666,0,0
140,358,0,0,0,0,0,0,0,0,0,-1,1364,666,0,0
147,358,0,0,0,0,0,0,0,0,0,-1,1371,666,0,0
154,358,0,0,0,0,0,0,0,0,0,-1,1378,666,0,0
161,358,0,0,0,0,0,0,0,0,0,-1,1385,666,0,0
168,358,0,0,0,0,0,0,0,0,0,-1,1392,666,0,0
175,358,0,0,0,0,0,0,0,0,0,-1,1399,666,0,0
182,358,0,0,0,0,0,0,0,0,0,-1,1406,666,0,0
189,358,0,0,0,0,0,0,0,0,0,-1,1413,666,0,0
196,358,0,0,0,0,0,0,0,0,0,-1,1420,666,0,0
203,358,0,0,0,0,0,0,0,0,0,-1,1427,666,0,0
210,358,0,0,0,0,0,0,0,0,0,-1,1434,666,0,0
217,358,0,0,0,0,0,0,0,0,0,-1,1441,666,0,0
224,358,0,0,0,0,0,0,0,0,0,-1,1448,666,0,0
231,358,0,0,0,0,0,0,0,0,0,-1,1455,666,0,0
238,358,0,0,0,0,0,0,0,0,0,-1,1462,666,0,0
245,358,0,0,0,0,0,0,0,0,0,-1,1469,666,0,0
252,358,0,0,0,0,0,0,0,0,0,-1,1476,666,0,0
259,358,0,0,0,0,0,0,0,0,0,-1,1483,666,0,0
266,358,0,0,0,0,0,0,0,0,0,-1,1490,666,0,0
273,358,0,0,0,0,0,0,0,0,0,-1,1497,666,0,0
280,358,0,0,0,0,0,0,0,0,0,-1,1504,666,0,0
287,358,0,0,0,0,0,0,0,0,0,-1,1511,666,0,0
294,358,0,0,0,0,0,0,0,0,0,-1,1518,666,0,0
301,358,0,0,0,0,0,0,0,0,0,-1,1525,666,0,0
308,358,0,0,0,0,0,0,0,0,0,-1,1532,666,0,0
315,358,0,0,0,0,0,0,0,0,0,-1,1539,666,0,0
322,358,0,0,0,0,0,0,0,0,0,-1,1546,666,0,0
329,358,0,0,0,0,0,0,0,0,0,-1,1553,666,0,0
336,358,0,0,0,0,0,0,0,0,0,-1,1560,666,0,0
343,358,0,0,0,0,0,0,0,0,0,-1,1567,666,0,0
350,358,0,0,0,0,0,0,0,0,0,-1,1574,666,0,0
357,358,0,0,0,0,0,0,0,0,0,-1,1581,666,0,0
364,358,0,0,0,0,0,0,0,0,0,-1,1588,666,0,0
371,358,0,0,0,0,0,0,0,0,0,-1,1595,666,0,0
378,358,0,0,0,0,0,0,0,0,0,-1,1602,666,0,0
385,358,0,0,0,0,0,0,0,0,0,-1,1609,666,0,0
392,358,0,0,0,0,0,0,0,0,0,-1,1616,666,0,0
399,358,0,0,0,0,0,0,0,0,0,-1,1623,666,0,0
406,358,0,0,0,0,0,0,0,0,0,-1,1630,666,0,0
413,358,0,0,0,0,0,0,0,0,0,-1,1637,666,0,0
420,358,0,0,0,0,0,0,0,0,0,-1,1644,666,0,0
427,358,0,0,0,0,0,0,0,0,0,-1,1651,666,0,0
434,358,0,0,0,0,0,0,0,0,0,-1,1658,666,0,0
441,358,0,0,0,0,0,0,0,0,0,-1,1665,666,0,0
448,358,0,0,0,0,0,0,0,0,0,-1,1672,666,0,0
455,358,0,0,0,0,0,0,0,0,0,-1,1679,666,0,0
462,358,0,0,0,0,0,0,0,0,0,-1,1686,666,0,0
469,358,0,0,0,0,0,0,0,0,0,-1,1693,666,0,0
476,358,0,0,0,0,0,0,0,0,0,-1,1700,666,0,0
483,358,0,0,0,0,0,0,0,0,0,-1,1707,666,0,0
490,358,0,0,0,0,0,0,0,0,0,-1,1714,666,0,0
497,358,8.57239,1.1322,0,0,0,0,0,0,0,-1,1721,666,8.57234,-1.13219
504,358,10.5972,0.832947,0,0,0,0,0,0,0,-1,1728,666,10.5972,-0.832968
511,358,10.6873,0.868469,0,0,0,0,0,0,0,-1,1735,666,10.6872,-0.868484
518,358,16.5884,2.34894,0,0,0,0,0,0,0,-1,1742,666,16.5884,-2.34894
525,358,15.7626,3.65344,0,0,0,0,0,0,0,-1,1749,666,15.7626,-3.65342
532,358,14.9368,4.95789,0,0,0,0,0,0,0,-1,1756,666,14.9367,-4.9579
539,358,15.1597,3.42694,0,0,0,0,0,0,0,-1,1763,666,15.1597,-3.42692
546,358,12.3792,1.53558,0,0,0,0,0,0,0,-1,1770,666,12.3792,-1.5356
553,358,11.6584,1.26172,0,0,0,0,0,0,0,-1,1777,666,11.6585,-1.26175
560,358,10.8234,1.43042,0,0,0,0,0,0,0,-1,1784,666,10.8233,-1.43041
567,358,10.1333,-0.955139,0,0,0,0,0,0,0,-1,1791,666,10.1333,0.955132
574,358,14.6268,-2.87158,0,0,0,0,0,0,0,-1,1798,666,14.6268,2.8716
581,358,14.2111,-2.51422,0.00939837,0.00219811,0.00340852,0.010756,0.000840519,0.379033,0.00690753,0.0471996,1805,666,14.211,2.51421
588,358,13.9038,-2.25598,0.00570244,0.00120372,0.0019334,0.00641916,0.000486997,0.355002,0.0041267,0.0227281,1812,666,13.9038,2.25596
595,358,13.965,-1.86243,0.00330693,0.000606374,0.000984406,0.00362767,0.000285633,0.314975,0.00232908,0.0128266,1819,666,13.9649,1.86245
602,358,13.951,-1.51855,0.0019946,0.000361252,0.000520892,0.00214658,0.000209275,0.283883,0.00136665,0.0121442,1826,666,13.951,1.51853
609,358,13.9172,-1.19482,0.000550888,0.000134864,0.00014653,0.000597317,8.84358e-05,0.306846,0.000372251,0.0147986,1833,666,13.9172,1.19481
616,358,13.9232,-0.851685,-0.00015973,7.7621e-06,-0.000247046,0.000184871,-0.000336839,-0.948814,0.000305439,0.0150198,1840,666,13.9232,0.851663
623,358,13.9487,-0.521912,-0.000723972,-5.40851e-05,-0.000425132,0.000152196,-0.000930253,-1.11904,0.00067663,0.0139274,1847,666,13.9487,0.521909
630,358,13.9149,-0.212708,-0.00186446,-0.000395192,-0.000795692,-4.68611e-05,-0.00221279,-1.15816,0.00145982,0.0179596,1854,666,13.9149,0.212704
637,358,13.9092,0.11084,-0.00342869,-0.000744129,-0.00135524,-0.000178952,-0.00399387,-1.17569,0.00260498,0.0247944,1861,666,13.9092,-0.110816
644,358,13.937,0.442322,-0.00567054,-0.00147581,-0.00230408,-0.000457454,-0.00668889,-1.15463,0.00431487,0.0189318,1868,666,13.937,-0.4423
651,358,14.019,0.849548,-0.00831548,-0.0023852,-0.00347389,-0.000783065,-0.00991761,-1.13867,0.00636679,0.0236636,1875,666,14.0191,-0.849544
658,358,13.6783,1.10577,-0.0114522,-0.00356162,-0.00492908,-0.00119333,-0.0138205,-1.12289,0.00884275,0.0412825,1882,666,13.6783,-1.10575
665,358,13.2751,1.57727,0,0,0,0,0,0,0,-1,1889,666,13.2751,-1.57727
672,358,12.4299,1.47272,0,0,0,0,0,0,0,-1,1896,666,12.4299,-1.4727
679,358,12.1294,2.19702,0,0,0,0,0,0,0,-1,1903,666,12.1294,-2.19703
686,358,11.9557,2.2002,0,0,0,0,0,0,0,-1,1910,666,11.9557,-2.20021
693,358,13.188,2.52203,0,0,0,0,0,0,0,-1,1917,666,13.188,-2.52202
700,358,0,0,0,0,0,0,0,0,0,-1,1924,666,0,0
707,358,0,0,0,0,0,0,0,0,0,-1,1931,666,0,0
714,358,0,0,0,0,0,0,0,0,0,-1,1938,666,0,0
721,358,0,0,0,0,0,0,0,0,0,-1,1945,666,0,0
728,358,0,0,0,0,0,0,0,0,0,-1,1952,666,0,0
735,358,0,0,0,0,0,0,0,0,0,-1,1959,666,0,0
742,358,0,0,0,0,0,0,0,0,0,-1,1966,666,0,0
749,358,0,0,0,0,0,0,0,0,0,-1,1973,666,0,0
756,358,0,0,0,0,0,0,0,0,0,-1,1980,666,0,0
763,358,0,0,0,0,0,0,0,0,0,-1,1987,666,0,0
770,358,0,0,0,0,0,0,0,0,0,-1,1994,666,0,0
777,358,0,0,0,0,0,0,0,0,0,-1,2001,666,0,0
784,358,0,0,0,0,0,0,0,0,0,-1,2008,666,0,0
791,358,0,0,0,0,0,0,0,0,0,-1,2015,666,0,0
798,358,0,0,0,0,0,0,0,0,0,-1,2022,666,0,0
805,358,0,0,0,0,0,0,0,0,0,-1,2029,666,0,0
812,358,0,0,0,0,0,0,0,0,0,-1,2036,666,0,0
-700,351,0,0,0,0,0,0,0,0,0,-1,524,673,0,0
-693,351,0,0,0,0,0,0,0,0,0,-1,531,673,0,0
-686,351,0,0,0,0,0,0,0,0,0,-1,538,673,0,0
-679,351,0,0,0,0,0,0,0,0,0,-1,545,673,0,0
-672,351,0,0,0,0,0,0,0,0,0,-1,552,673,0,0
-665,351,0,0,0,0,0,0,0,0,0,-1,559,673,0,0
-658,351,0,0,0,0,0,0,0,0,0,-1,566,673,0,0
-651,351,0,0,0,0,0,0,0,0,0,-1,573,673,0,0
-644,351,0,0,0,0,0,0,0,0,0,-1,580,673,0,0
-637,351,0,0,0,0,0,0,0,0,0,-1,587,673,0,0
-630,351,0,0,0,0,0,0,0,0,0,-1,594,673,0,0
-623,351,0,0,0,0,0,0,0,0,0,-1,601,673,0,0
-616,351,0,0,0,0,0,0,0,0,0,-1,608,673,0,0
-609,351,0,0,0,0,0,0,0,0,0,-1,615,673,0,0
-602,351,0,0,0,0,0,0,0,0,0,-1,622,673,0,0
-595,351,0,0,0,0,0,0,0,0,0,-1,629,673,0,0
-588,351,0,0,0,0,0,0,0,0,0,-1,636,673,0,0
-581,351,-9.0647,1.71906,0,0,0,0,0,0,0,-1,643,673,-9.06472,-1.71908
-574,351,-8.23584,2.64764,0,0,0,0,0,0,0,-1,650,673,-8.23584,-2.64764
-567,351,-6.17303,1.88818,0,0,0,0,0,0,0,-1,657,673,-6.17304,-1.88818
-560,351,-6.31812,1.38171,0,0,0,0,0,0,0,-1,664,673,-6.31809,-1.38174
-553,351,-8.42572,1.14948,0,0,0,0,0,0,0,-1,671,673,-8.42572,-1.14948
-546,351,-8.09436,0.761536,0.0272203,0.0258449,-0.018718,0.0452633,0.00780194,-0.767036,0.0279403,0.0430442,678,673,-8.09438,-0.761562
-539,351,-7.69495,0.195618,0.0200239,0.0195837,-0.0135309,0.0333365,0.00627111,-0.777265,0.0204569,0.0450948,685,673,-7.69492,-0.195637
-532,351,-7.29889,-0.481812,0.0144104,0.0145102,-0.00953612,0.0239965,0.00492402,-0.788014,0.0146351,0.0347444,692,673,-7.29887,0.481789
-525,351,-7.41187,-1.11768,0.0100667,0.0104644,-0.00646458,0.0167332,0.0037979,-0.800776,0.0101297,0.026593,699,673,-7.41188,1.11771
-518,351,-7.47363,-1.3548,0.00686081,0.00732343,-0.00423685,0.0113353,0.00284896,-0.812668,0.00680886,0.0125532,706,673,-7.47364,1.35482
-511,351,-7.46002,-1.68604,0.00462063,0.004996,-0.00270307,0.00751789,0.00209873,-0.82006,0.00447935,0.0113218,713,673,-7.46005,1.68604
-504,351,-7.48108,-2.01587,0.00312139,0.00293936,-0.00164687,0.00467975,0.00138099,-0.757793,0.00277645,0.0104466,720,673,-7.4811,2.0159
-497,351,-7.48938,-2.32239,0.00205835,0.00194606,-0.000912161,0.00291609,0.00108832,-0.754661,0.00170155,0.00974445,727,673,-7.48938,2.32239
-490,351,-7.48785,-2.64716,0.00158353,0.00124594,-0.000782131,0.00221487,0.000614593,-0.679121,0.00132029,0.00982377,734,673,-7.48785,2.64714
-483,351,-7.48694,-2.97534,0.00183725,0.00104971,-0.00105683,0.00257128,0.000315675,-0.607068,0.00161925,0.011575,741,673,-7.48696,2.97535
-476,351,-7.50592,-3.28522,0.002507,0.00134375,-0.00164109,0.00366648,0.000184267,-0.615097,0.00238527,0.0110677,748,673,-7.50589,3.2852
-469,351,-7.4892,-3.56122,0.00326541,0.00181911,-0.00232891,0.00498086,0.000103658,-0.634863,0.00328657,0.0136957,755,673,-7.48921,3.56125
-462,351,-7.48669,-3.91986,0.00420124,0.00248092,-0.0031704,0.00662609,5.60677e-05,-0.652932,0.00439882,0.0200781,762,673,-7.4867,3.91985
-455,351,-7.47974,-4.32532,0,0,0,0,0,0,0,-1,769,673,-7.47973,4.32531
-448,351,-6.61456,-4.38654,0,0,0,0,0,0,0,-1,776,673,-6.61456,4.38654
-441,351,-4.31567,-2.3009,0,0,0,0,0,0,0,-1,783,673,-4.31565,2.30089
-434,351,-3.81708,-2.28003,0,0,0,0,0,0,0,-1,790,673,-3.81706,2.28006
-427,351,-2.05157,-2.7785,0,0,0,0,0,0,0,-1,797,673,-2.05157,2.77848
-420,351,-1.06989,-2.43665,0,0,0,0,0,0,0,-1,804,673,-1.06991,2.43663
-413,351,-0.392334,-2.06671,0,0,0,0,0,0,0,-1,811,673,-0.392363,2.06672
-406,351,-1.86316,-2.58105,0,0,0,0,0,0,0,-1,818,673,-1.86313,2.58106
-399,351,1.00952,-1.53455,0,0,0,0,0,0,0,-1,825,673,1.00954,1.53457
-392,351,-1.02197,0.877136,0,0,0,0,0,0,0,-1,832,673,-1.02195,-0.877143
-385,351,-1.47205,1.04437,0,0,0,0,0,0,0,-1,839,673,-1.47207,-1.04435
-378,351,0,0,0,0,0,0,0,0,0,-1,846,673,0,0
-371,351,0,0,0,0,0,0,0,0,0,-1,853,673,0,0
-364,351,0,0,0,0,0,0,0,0,0,-1,860,673,0,0
-357,351,0,0,0,0,0,0,0,0,0,-1,867,673,0,0
-350,351,0,0,0,0,0,0,0,0,0,-1,874,673,0,0
-343,351,0,0,0,0,0,0,0,0,0,-1,881,673,0,0
-336,351,0,0,0,0,0,0,0,0,0,-1,888,673,0,0
-329,351,0,0,0,0,0,0,0,0,0,-1,895,673,0,0
-322,351,0,0,0,0,0,0,0,0,0,-1,902,673,0,0
-315,351,0,0,0,0,0,0,0,0,0,-1,909,673,0,0
-308,351,0,0,0,0,0,0,0,0,0,-1,916,673,0,0
-301,351,0,0,0,0,0,0,0,0,0,-1,923,673,0,0
-294,351,0,0,0,0,0,0,0,0,0,-1,930,673,0,0
-287,351,0,0,0,0,0,0,0,0,0,-1,937,673,0,0
-280,351,0,0,0,0,0,0,0,0,0,-1,944,673,0,0
-273,351,0,0,0,0,0,0,0,0,0,-1,951,673,0,0
-266,351,0,0,0,0,0,0,0,0,0,-1,958,673,0,0
-259,351,0,0,0,0,0,0,0,0,0,-1,965,673,0,0
-252,351,0,0,0,0,0,0,0,0,0,-1,972,673,0,0
-245,351,0,0,0,0,0,0,0,0,0,-1,979,673,0,0
-238,351,0,0,0,0,0,0,0,0,0,-1,986,673,0,0
-231,351,0,0,0,0,0,0,0,0,0,-1,993,673,0,0
-224,351,0,0,0,0,0,0,0,0,0,-1,1000,673,0,0
-217,351,0,0,0,0,0,0,0,0,0,-1,1007,673,0,0
-210,351,0,0,0,0,0,0,0,0,0,-1,1014,673,0,0
-203,351,0,0,0,0,0,0,0,0,0,-1,1021,673,0,0
-196,351,0,0,0,0,0,0,0,0,0,-1,1028,673,0,0
-189,351,0,0,0,0,0,0,0,0,0,-1,1035,673,0,0
-182,351,0,0,0,0,0,0,0,0,0,-1,1042,673,0,0
-175,351,0,0,0,0,0,0,0,0,0,-1,1049,673,0,0
-168,351,0,0,0,0,0,0,0,0,0,-1,1056,673,0,0
-161,351,0,0,0,0,0,0,0,0,0,-1,1063,673,0,0
-154,351,0,0,0,0,0,0,0,0,0,-1,1070,673,0,0
-147,351,0,0,0,0,0,0,0,0,0,-1,1077,673,0,0
-140,351,0,0,0,0,0,0,0,0,0,-1,1084,673,0,0
-133,351,0,0,0,0,0,0,0,0,0,-1,1091,673,0,0
-126,351,0,0,0,0,0,0,0,0,0,-1,1098,673,0,0
-119,351,0,0,0,0,0,0,0,0,0,-1,1105,673,0,0
-112,351,0,0,0,0,0,0,0,0,0,-1,1112,673,0,0
-105,351,0,0,0,0,0,0,0,0,0,-1,1119,673,0,0
-98,351,0,0,0,0,0,0,0,0,0,-1,1126,673,0,0
-91,351,0,0,0,0,0,0,0,0,0,-1,1133,673,0,0
-84,351,0,0,0,0,0,0,0,0,0,-1,1140,673,0,0
-77,351,0,0,0,0,0,0,0,0,0,-1,1147,673,0,0
-70,351,0,0,0,0,0,0,0,0,0,-1,1154,673,0,0
-63,351,0,0,0,0,0,0,0,0,0,-1,1161,673,0,0
-56,351,0,0,0,0,0,0,0,0,0,-1,1168,673,0,0
-49,351,0,0,0,0,0,0,0,0,0,-1,1175,673,0,0
-42,351,0,0,0,0,0,0,0,0,0,-1,1182,673,0,0
-35,351,0,0,0,0,0,0,0,0,0,-1,1189,673,0,0
-28,351,0,0,0,0,0,0,0,0,0,-1,1196,673,0,0
-21,351,0,0,0,0,0,0,0,0,0,-1,1203,673,0,0
-14,351,0,0,0,0,0,0,0,0,0,-1,1210,673,0,0
-7,351,0,0,0,0,0,0,0,0,0,-1,1217,673,0,0
0,351,0,0,0,0,0,0,0,0,0,-1,1224,673,0,0
7,351,0,0,0,0,0,0,0,0,0,-1,1231,673,0,0
14,351,0,0,0,0,0,0,0,0,0,-1,1238,673,0,0
21,351,0,0,0,0,0,0,0,0,0,-1,1245,673,0,0
28,351,0,0,0,0,0,0,0,0,0,-1,1252,673,0,0
35,351,0,0,0,0,0,0,0,0,0,-1,1259,673,0,0
42,351,0,0,0,0,0,0,0,0,0,-1,1266,673,0,0
49,351,0,0,0,0,0,0,0,0,0,-1,1273,673,0,0
56,351,0,0,0,0,0,0,0,0,0,-1,1280,673,0,0
63,351,0,0,0,0,0,0,0,0,0,-1,1287,673,0,0
70,351,0,0,0,0,0,0,0,0,0,-1,1294,673,0,0
77,351,0,0,0,0,0,0,0,0,0,-1,1301,673,0,0
84,351,0,0,0,0,0,0,0,0,0,-1,1308,673,0,0
91,351,0,0,0,0,0,0,0,0,0,-1,1315,673,0,0
98,351,0,0,0,0,0,0,0,0,0,-1,1322,673,0,0
105,351,0,0,0,0,0,0,0,0,0,-1,1329,673,0,0
112,351,0,0,0,0,0,0,0,0,0,-1,1336,673,0,0
119,351,0,0,0,0,0,0,0,0,0,-1,1343,673,0,0
126,351,0,0,0,0,0,0,0,0,0,-1,1350,673,0,0
133,351,0,0,0,0,0,0,0,0,0,-1,1357,673,0,0
140,351,0,0,0,0,0,0,0,0,0,-1,1364,673,0,0
147,351,0,0,0,0,0,0,0,0,0,-1,1371,673,0,0
154,351,0,0,0,0,0,0,0,0,0,-1,1378,673,0,0
161,351,0,0,0,0,0,0,0,0,0,-1,1385,673,0,0
168,351,0,0,0,0,0,0,0,0,0,-1,1392,673,0,0
175,351,0,0,0,0,0,0,0,0,0,-1,1399,673,0,0
182,351,0,0,0,0,0,0,0,0,0,-1,1406,673,0,0
189,351,0,0,0,0,0,0,0,0,0,-1,1413,673,0,0
196,351,0,0,0,0,0,0,0,0,0,-1,1420,673,0,0
203,351,0,0,0,0,0,0,0,0,0,-1,1427,673,0,0
210,351,0,0,0,0,0,0,0,0,0,-1,1434,673,0,0
217,351,0,0,0,0,0,0,0,0,0,-1,1441,673,0,0
224,351,0,0,0,0,0,0,0,0,0,-1,1448,673,0,0
231,351,0,0,0,0,0,0,0,0,0,-1,1455,673,0,0
238,351,0,0,0,0,0,0,0,0,0,-1,1462,673,0,0
245,351,0,0,0,0,0,0,0,0,0,-1,1469,673,0,0
252,351,0,0,0,0,0,0,0,0,0,-1,1476,673,0,0
259,351,0,0,0,0,0,0,0,0,0,-1,1483,673,0,0
266,351,0,0,0,0,0,0,0,0,0,-1,1490,673,0,0
273,351,0,0,0,0,0,0,0,0,0,-1,1497,673,0,0
280,351,0,0,0,0,0,0,0,0,0,-1,1504,673,0,0
287,351,0,0,0,0,0,0,0,0,0,-1,1511,673,0,0
294,351,0,0,0,0,0,0,0,0,0,-1,1518,673,0,0
301,351,0,0,0,0,0,0,0,0,0,-1,1525,673,0,0
308,351,0,0,0,0,0,0,0,0,0,-1,1532,673,0,0
315,351,0,0,0,0,0,0,0,0,0,-1,1539,673,0,0
322,351,0,0,0,0,0,0,0,0,0,-1,1546,673,0,0
329,351,0,0,0,0,0,0,0,0,0,-1,1553,673,0,0
336,351,0,0,0,0,0,0,0,0,0,-1,1560,673,0,0
343,351,0,0,0,0,0,0,0,0,0,-1,1567,673,0,0
350,351,0,0,0,0,0,0,0,0,0,-1,1574,673,0,0
357,351,0,0,0,0,0,0,0,0,0,-1,1581,673,0,0
364,351,0,0,0,0,0,0,0,0,0,-1,1588,673,0,0
371,351,0,0,0,0,0,0,0,0,0,-1,1595,673,0,0
378,351,0,0,0,0,0,0,0,0,0,-1,1602,673,0,0
385,351,0,0,0,0,0,0,0,0,0,-1,1609,673,0,0
392,351,0,0,0,0,0,0,0,0,0,-1,1616,673,0,0
399,351,0,0,0,0,0,0,0,0,0,-1,1623,673,0,0
406,351,0,0,0,0,0,0,0,0,0,-1,1630,673,0,0
413,351,0,0,0,0,0,0,0,0,0,-1,1637,673,0,0
420,351,0,0,0,0,0,0,0,0,0,-1,1644,673,0,0
427,351,0,0,0,0,0,0,0,0,0,-1,1651,673,0,0
434,351,0,0,0,0,0,0,0,0,0,-1,1658,673,0,0
441,351,0,0,0,0,0,0,0,0,0,-1,1665,673,0,0
448,351,0,0,0,0,0,0,0,0,0,-1,1672,673,0,0
455,351,0,0,0,0,0,0,0,0,0,-1,1679,673,0,0
462,351,0,0,0,0,0,0,0,0,0,-1,1686,673,0,0
469,351,0,0,0,0,0,0,0,0,0,-1,1693,673,0,0
476,351,0,0,0,0,0,0,0,0,0,-1,1700,673,0,0
483,351,0,0,0,0,0,0,0,0,0,-1,1707,673,0,0
490,351,0,0,0,0,0,0,0,0,0,-1,1714,673,0,0
497,351,0,0,0,0,0,0,0,0,0,-1,1721,673,0,0
504,351,10.8842,1.61615,0,0,0,0,0,0,0,-1,1728,673,10.8842,-1.61618
511,351,15.4548,0.0236816,0,0,0,0,0,0,0,-1,1735,673,15.4549,-0.0236664
518,351,16.7448,2.49268,0,0,0,0,0,0,0,-1,1742,673,16.7448,-2.49269
525,351,16.0701,3.43225,0,0,0,0,0,0,0,-1,1749,673,16.07,-3.43227
532,351,16.4181,3.33472,0,0,0,0,0,0,0,-1,1756,673,16.4181,-3.33473
539,351,15.3387,3.54486,0,0,0,0,0,0,0,-1,1763,673,15.3387,-3.54485
546,351,13.9387,4.59357,0,0,0,0,0,0,0,-1,1770,673,13.9388,-4.59359
553,351,12.0682,2.02832,0,0,0,0,0,0,0,-1,1777,673,12.0683,-2.02831
560,351,12.0173,0.55304,0,0,0,0,0,0,0,-1,1784,673,12.0174,-0.553028
567,351,10.7827,0.130188,0,0,0,0,0,0,0,-1,1791,673,10.7827,-0.130183
574,351,13.405,-1.09204,0,0,0,0,0,0,0,-1,1798,673,13.405,1.09207
581,351,13.9502,-2.13342,0,0,0,0,0,0,0,-1,1805,673,13.9502,2.1334
588,351,14.238,-2.14795,0.0135861,0.00438103,0.00886083,0.0189684,-0.0010013,0.545865,0.0129923,0.0454203,1812,673,14.238,2.14794
595,351,14.2813,-1.94055,0.00891603,0.00276364,0.00591121,0.0125036,-0.000823902,0.545481,0.00862348,0.0235006,1819,673,14.2812,1.94054
602,351,14.3113,-1.56982,0.00564227,0.00164281,0.00370265,0.00785069,-0.00056561,0.537801,0.00543216,0.017443,1826,673,14.3112,1.56984
609,351,14.3073,-1.22015,0.00247383,0.00058892,0.00194588,0.00369347,-0.000630722,0.55988,0.00269725,0.0164081,1833,673,14.3073,1.22016
616,351,14.2716,-0.856812,0.000682574,0.000149612,0.000525668,0.00100545,-0.000173262,0.550807,0.000734893,0.0143135,1840,673,14.2716,0.856804
623,351,14.2737,-0.518005,-0.000186198,-0.000175173,-0.000135937,-4.46373e-05,-0.000316734,-0.805663,0.000197962,0.0151847,1847,673,14.2737,0.517979
630,351,14.2928,-0.220276,-0.00134712,-0.000564733,-0.00069759,-0.000156137,-0.00175572,-1.04094,0.00112206,0.026095,1854,673,14.2929,0.220253
637,351,14.3077,0.131592,-0.0026946,-0.000852375,-0.00121976,-0.000245002,-0.00330197,-1.10879,0.00212436,0.0294774,1861,673,14.3078,-0.131602
644,351,14.2723,0.479553,-0.00462885,-0.0014305,-0.00206112,-0.00042092,-0.00563843,-1.11533,0.0036268,0.0211919,1868,673,14.2724,-0.479583
651,351,14.2762,0.828857,-0.00685503,-0.00215601,-0.00304894,-0.000656331,-0.0083547,-1.11368,0.00536442,0.0167269,1875,673,14.2762,-0.828859
658,351,14.2261,1.19806,-0.00938383,-0.00299978,-0.00420643,-0.00091136,-0.0114723,-1.10997,0.00736321,0.0275315,1882,673,14.2261,-1.19809
665,351,13.8789,1.37018,-0.0121053,-0.00387877,-0.00539544,-0.00120751,-0.0147765,-1.11108,0.00947421,0.0365935,1889,673,13.8789,-1.3702
672,351,13.6587,1.69995,0,0,0,0,0,0,0,-1,1896,673,13.6586,-1.69998
679,351,14.1252,1.85681,0,0,0,0,0,0,0,-1,1903,673,14.1253,-1.85682
686,351,13.0294,2.1189,0,0,0,0,0,0,0,-1,1910,673,13.0294,-2.11892
693,351,13.5187,2.34595,0,0,0,0,0,0,0,-1,1917,673,13.5187,-2.34596
700,351,14.5629,-2.40173,0,0,0,0,0,0,0,-1,1924,673,14.5629,2.40172
707,351,0,0,0,0,0,0,0,0,0,-1,1931,673,0,0
714,351,0,0,0,0,0,0,0,0,0,-1,1938,673,0,0
721,351,0,0,0,0,0,0,0,0,0,-1,1945,673,0,0
728,351,0,0,0,0,0,0,0,0,0,-1,1952,673,0,0
735,351,0,0,0,0,0,0,0,0,0,-1,1959,673,0,0
742,351,0,0,0,0,0,0,0,0,0,-1,1966,673,0,0
749,351,0,0,0,0,0,0,0,0,0,-1,1973,673,0,0
756,351,0,0,0,0,0,0,0,0,0,-1,1980,673,0,0
763,351,0,0,0,0,0,0,0,0,0,-1,1987,673,0,0
770,351,0,0,0,0,0,0,0,0,0,-1,1994,673,0,0
777,351,0,0,0,0,0,0,0,0,0,-1,2001,673,0,0
784,351,0,0,0,0,0,0,0,0,0,-1,2008,673,0,0
791,351,0,0,0,0,0,0,0,0,0,-1,2015,673,0,0
798,351,0,0,0,0,0,0,0,0,0,-1,2022,673,0,0
805,351,0,0,0,0,0,0,0,0,0,-1,2029,673,0,0
812,351,0,0,0,0,0,0,0,0,0,-1,2036,673,0,0
-700,344,0,0,0,0,0,0,0,0,0,-1,524,680,0,0
-693,344,0,0,0,0,0,0,0,0,0,-1,531,680,0,0
-686,344,0,0,0,0,0,0,0,0,0,-1,538,680,0,0
-679,344,0,0,0,0,0,0,0,0,0,-1,545,680,0,0
-672,344,0,0,0,0,0,0,0,0,0,-1,552,680,0,0
-665,344,0,0,0,0,0,0,0,0,0,-1,559,680,0,0
-658,344,0,0,0,0,0,0,0,0,0,-1,566,680,0,0
-651,344,0,0,0,0,0,0,0,0,0,-1,573,680,0,0
-644,344,0,0,0,0,0,0,0,0,0,-1,580,680,0,0
-637,344,0,0,0,0,0,0,0,0,0,-1,587,680,0,0
-630,344,0,0,0,0,0,0,0,0,0,-1,594,680,0,0
-623,344,0,0,0,0,0,0,0,0,0,-1,601,680,0,0
-616,344,0,0,0,0,0,0,0,0,0,-1,608,680,0,0
-609,344,0,0,0,0,0,0,0,0,0,-1,615,680,0,0
-602,344,0,0,0,0,0,0,0,0,0,-1,622,680,0,0
-595,344,0,0,0,0,0,0,0,0,0,-1,629,680,0,0
-588,344,-9.27826,1.47302,0,0,0,0,0,0,0,-1,636,680,-9.27829,-1.473
-581,344,-10.0098,1.71753,0,0,0,0,0,0,0,-1,643,680,-10.0098,-1.7175
-574,344,-6.25641,2.37372,0,0,0,0,0,0,0,-1,650,680,-6.25642,-2.37369
-567,344,-6.3551,1.8786,0,0,0,0,0,0,0,-1,657,680,-6.35512,-1.87858
-560,344,-8.71021,1.47369,0,0,0,0,0,0,0,-1,664,680,-8.71021,-1.47368
-553,344,-8.89868,0.567566,0.0255737,0.027445,-0.0191785,0.0457107,0.00730808,-0.809772,0.0283535,0.0446709,671,680,-8.89868,-0.567548
-546,344,-8.35059,0.153809,0.0201115,0.0214296,-0.0146882,0.0354735,0.00606761,-0.807818,0.0219084,0.04183,678,680,-8.35059,-0.1538
-539,344,-7.82764,-0.289307,0.0152867,0.0164639,-0.0108796,0.0267709,0.00497974,-0.812424,0.0164407,0.0386583,685,680,-7.82762,0.289293
-532,344,-7.6734,-0.725769,0.011323,0.0123301,-0.00782262,0.0196653,0.00398772,-0.817539,0.0120038,0.0235061,692,680,-7.67341,0.725776
-525,344,-7.79266,-1.01782,0.00812665,0.00896914,-0.00540628,0.0139706,0.00312523,-0.824278,0.00846647,0.0214172,699,680,-7.79268,1.01784
-518,344,-7.79645,-1.37732,0.00573778,0.00631946,-0.0036455,0.0096857,0.00237153,-0.825204,0.0058297,0.0177731,706,680,-7.79646,1.37733
-511,344,-7.80768,-1.70459,0.00403716,0.00434476,-0.00239384,0.00658973,0.00179219,-0.817478,0.00393426,0.0162947,713,680,-7.8077,1.70462
-504,344,-7.82135,-2.04034,0.00284397,0.00251413,-0.00150686,0.00419491,0.00116319,-0.730891,0.00250074,0.0167531,720,680,-7.82132,2.04036
-497,344,-7.81573,-2.35071,0.00201965,0.00158651,-0.000918601,0.00274687,0.000859298,-0.669632,0.00162252,0.0143212,727,680,-7.81573,2.3507
-490,344,-7.81366,-2.66699,0.0017832,0.00102408,-0.000894828,0.00237564,0.00043164,-0.584815,0.00146129,0.0136269,734,680,-7.81365,2.66701
-483,344,-7.79993,-2.96674,0.00222619,0.000959332,-0.00126513,0.00300761,0.000177916,-0.553302,0.00194847,0.0128978,741,680,-7.79996,2.96675
-476,344,-7.80304,-3.27527,0.00299029,0.00134301,-0.00190656,0.00424352,8.97837e-05,-0.581505,0.00279956,0.0131391,748,680,-7.80307,3.27526
-469,344,-7.81219,-3.60486,0.00382963,0.00184005,-0.00265808,0.00567297,-3.2899e-06,-0.606341,0.00378308,0.0138773,755,680,-7.81217,3.60489
-462,344,-7.79553,-3.98926,0.0050242,0.00264608,-0.00364063,0.00766503,5.25243e-06,-0.627555,0.00510827,0.031087,762,680,-7.79552,3.98924
-455,344,-7.70117,-4.33875,0,0,0,0,0,0,0,-1,769,680,-7.70118,4.33873
-448,344,-5.67657,-2.72864,0,0,0,0,0,0,0,-1,776,680,-5.6766,2.72863
-441,344,-5.09229,-2.34167,0,0,0,0,0,0,0,-1,783,680,-5.09229,2.34168
-434,344,-4.28778,-2.08807,0,0,0,0,0,0,0,-1,790,680,-4.28778,2.08809
-427,344,-3.06506,-1.45404,0,0,0,0,0,0,0,-1,797,680,-3.06505,1.45402
-420,344,-1.96582,-1.57574,0,0,0,0,0,0,0,-1,804,680,-1.96579,1.57574
-413,344,-0.817993,-1.4751,0,0,0,0,0,0,0,-1,811,680,-0.818017,1.47511
-406,344,-0.00714111,-1.25189,0,0,0,0,0,0,0,-1,818,680,-0.00714956,1.25191
-399,344,0.240051,-1.75769,0,0,0,0,0,0,0,-1,825,680,0.240079,1.75767
-392,344,1.11353,-2.05615,0,0,0,0,0,0,0,-1,832,680,1.11351,2.05616
-385,344,0,0,0,0,0,0,0,0,0,-1,839,680,0,0
-378,344,0,0,0,0,0,0,0,0,0,-1,846,680,0,0
-371,344,0,0,0,0,0,0,0,0,0,-1,853,680,0,0
-364,344,0,0,0,0,0,0,0,0,0,-1,860,680,0,0
-357,344,0,0,0,0,0,0,0,0,0,-1,867,680,0,0
-350,344,0,0,0,0,0,0,0,0,0,-1,874,680,0,0
-343,344,0,0,0,0,0,0,0,0,0,-1,881,680,0,0
-336,344,0,0,0,0,0,0,0,0,0,-1,888,680,0,0
-329,344,0,0,0,0,0,0,0,0,0,-1,895,680,0,0
-322,344,0,0,0,0,0,0,0,0,0,-1,902,680,0,0
-315,344,0,0,0,0,0,0,0,0,0,-1,909,680,0,0
-308,344,0,0,0,0,0,0,0,0,0,-1,916,680,0,0
-301,344,0,0,0,0,0,0,0,0,0,-1,923,680,0,0
-294,344,0,0,0,0,0,0,0,0,0,-1,930,680,0,0
-287,344,0,0,0,0,0,0,0,0,0,-1,937,680,0,0
-280,344,0,0,0,0,0,0,0,0,0,-1,944,680,0,0
-273,344,0,0,0,0,0,0,0,0,0,-1,951,680,0,0
-266,344,0,0,0,0,0,0,0,0,0,-1,958,680,0,0
-259,344,0,0,0,0,0,0,0,0,0,-1,965,680,0,0
-252,344,0,0,0,0,0,0,0,0,0,-1,972,680,0,0
-245,344,0,0,0,0,0,0,0,0,0,-1,979,680,0,0
-238,344,0,0,0,0,0,0,0,0,0,-1,986,680,0,0
-231,344,0,0,0,0,0,0,0,0,0,-1,993,680,0,0
-224,344,0,0,0,0,0,0,0,0,0,-1,1000,680,0,0
-217,344,0,0,0,0,0,0,0,0,0,-1,1007,680,0,0
-210,344,0,0,0,0,0,0,0,0,0,-1,1014,680,0,0
-203,344,0,0,0,0,0,0,0,0,0,-1,1021,680,0,0
-196,344,0,0,0,0,0,0,0,0,0,-1,1028,680,0,0
-189,344,0,0,0,0,0,0,0,0,0,-1,1035,680,0,0
-182,344,0,0,0,0,0,0,0,0,0,-1,1042,680,0,0
-175,344,0,0,0,0,0,0,0,0,0,-1,1049,680,0,0
-168,344,0,0,0,0,0,0,0,0,0,-1,1056,680,0,0
-161,344,0,0,0,0,0,0,0,0,0,-1,1063,680,0,0
-154,344,0,0,0,0,0,0,0,0,0,-1,1070,680,0,0
-147,344,0,0,0,0,0,0,0,0,0,-1,1077,680,0,0
-140,344,0,0,0,0,0,0,0,0,0,-1,1084,680,0,0
-133,344,0,0,0,0,0,0,0,0,0,-1,1091,680,0,0
-126,344,0,0,0,0,0,0,0,0,0,-1,1098,680,0,0
-119,344,0,0,0,0,0,0,0,0,0,-1,1105,680,0,0
-112,344,0,0,0,0,0,0,0,0,0,-1,1112,680,0,0
-105,344,0,0,0,0,0,0,0,0,0,-1,1119,680,0,0
-98,344,0,0,0,0,0,0,0,0,0,-1,1126,680,0,0
-91,344,0,0,0,0,0,0,0,0,0,-1,1133,680,0,0
-84,344,0,0,0,0,0,0,0,0,0,-1,1140,680,0,0
-77,344,0,0,0,0,0,0,0,0,0,-1,1147,680,0,0
-70,344,0,0,0,0,0,0,0,0,0,-1,1154,680,0,0
-63,344,0,0,0,0,0,0,0,0,0,-1,1161,680,0,0
-56,344,0,0,0,0,0,0,0,0,0,-1,1168,680,0,0
-49,344,0,0,0,0,0,0,0,0,0,-1,1175,680,0,0
-42,344,0,0,0,0,0,0,0,0,0,-1,1182,680,0,0
-35,344,0,0,0,0,0,0,0,0,0,-1,1189,680,0,0
-28,344,0,0,0,0,0,0,0,0,0,-1,1196,680,0,0
-21,344,0,0,0,0,0,0,0,0,0,-1,1203,680,0,0
-14,344,0,0,0,0,0,0,0,0,0,-1,1210,680,0,0
-7,344,0,0,0,0,0,0,0,0,0,-1,1217,680,0,0
0,344,0,0,0,0,0,0,0,0,0,-1,1224,680,0,0
7,344,0,0,0,0,0,0,0,0,0,-1,1231,680,0,0
14,344,0,0,0,0,0,0,0,0,0,-1,1238,680,0,0
21,344,0,0,0,0,0,0,0,0,0,-1,1245,680,0,0
28,344,0,0,0,0,0,0,0,0,0,-1,1252,680,0,0
35,344,0,0,0,0,0,0,0,0,0,-1,1259,680,0,0
42,344,0,0,0,0,0,0,0,0,0,-1,1266,680,0,0
49,344,0,0,0,0,0,0,0,0,0,-1,1273,680,0,0
56,344,0,0,0,0,0,0,0,0,0,-1,1280,680,0,0
63,344,0,0,0,0,0,0,0,0,0,-1,1287,680,0,0
70,344,0,0,0,0,0,0,0,0,0,-1,1294,680,0,0
77,344,0,0,0,0,0,0,0,0,0,-1,1301,680,0,0
84,344,0,0,0,0,0,0,0,0,0,-1,1308,680,0,0
91,344,0,0,0,0,0,0,0,0,0,-1,1315,680,0,0
98,344,0,0,0,0,0,0,0,0,0,-1,1322,680,0,0
105,344,0,0,0,0,0,0,0,0,0,-1,1329,680,0,0
112,344,0,0,0,0,0,0,0,0,0,-1,1336,680,0,0
119,344,0,0,0,0,0,0,0,0,0,-1,1343,680,0,0
126,344,0,0,0,0,0,0,0,0,0,-1,1350,680,0,0
133,344,0,0,0,0,0,0,0,0,0,-1,1357,680,0,0
140,344,0,0,0,0,0,0,0,0,0,-1,1364,680,0,0
147,344,0,0,0,0,0,0,0,0,0,-1,1371,680,0,0
154,344,0,0,0,0,0,0,0,0,0,-1,1378,680,0,0
161,344,0,0,0,0,0,0,0,0,0,-1,1385,680,0,0
168,344,0,0,0,0,0,0,0,0,0,-1,1392,680,0,0
175,344,0,0,0,0,0,0,0,0,0,-1,1399,680,0,0
182,344,0,0,0,0,0,0,0,0,0,-1,1406,680,0,0
189,344,0,0,0,0,0,0,0,0,0,-1,1413,680,0,0
196,344,0,0,0,0,0,0,0,0,0,-1,1420,680,0,0
203,344,0,0,0,0,0,0,0,0,0,-1,1427,680,0,0
210,344,0,0,0,0,0,0,0,0,0,-1,1434,680,0,0
217,344,0,0,0,0,0,0,0,0,0,-1,1441,680,0,0
224,344,0,0,0,0,0,0,0,0,0,-1,1448,680,0,0
231,344,0,0,0,0,0,0,0,0,0,-1,1455,680,0,0
238,344,0,0,0,0,0,0,0,0,0,-1,1462,680,0,0
245,344,0,0,0,0,0,0,0,0,0,-1,1469,680,0,0
252,344,0,0,0,0,0,0,0,0,0,-1,1476,680,0,0
259,344,0,0,0,0,0,0,0,0,0,-1,1483,680,0,0
266,344,0,0,0,0,0,0,0,0,0,-1,1490,680,0,0
273,344,0,0,0,0,0,0,0,0,0,-1,1497,680,0,0
280,344,0,0,0,0,0,0,0,0,0,-1,1504,680,0,0
287,344,0,0,0,0,0,0,0,0,0,-1,1511,680,0,0
294,344,0,0,0,0,0,0,0,0,0,-1,1518,680,0,0
301,344,0,0,0,0,0,0,0,0,0,-1,1525,680,0,0
308,344,0,0,0,0,0,0,0,0,0,-1,1532,680,0,0
315,344,0,0,0,0,0,0,0,0,0,-1,1539,680,0,0
322,344,0,0,0,0,0,0,0,0,0,-1,1546,680,0,0
329,344,0,0,0,0,0,0,0,0,0,-1,1553,680,0,0
336,344,0,0,0,0,0,0,0,0,0,-1,1560,680,0,0
343,344,0,0,0,0,0,0,0,0,0,-1,1567,680,0,0
350,344,0,0,0,0,0,0,0,0,0,-1,1574,680,0,0
357,344,0,0,0,0,0,0,0,0,0,-1,1581,680,0,0
364,344,0,0,0,0,0,0,0,0,0,-1,1588,680,0,0
371,344,0,0,0,0,0,0,0,0,0,-1,1595,680,0,0
378,344,0,0,0,0,0,0,0,0,0,-1,1602,680,0,0
385,344,0,0,0,0,0,0,0,0,0,-1,1609,680,0,0
392,344,0,0,0,0,0,0,0,0,0,-1,1616,680,0,0
399,344,0,0,0,0,0,0,0,0,0,-1,1623,680,0,0
406,344,0,0,0,0,0,0,0,0,0,-1,1630,680,0,0
413,344,0,0,0,0,0,0,0,0,0,-1,1637,680,0,0
420,344,0,0,0,0,0,0,0,0,0,-1,1644,680,0,0
427,344,0,0,0,0,0,0,0,0,0,-1,1651,680,0,0
434,344,0,0,0,0,0,0,0,0,0,-1,1658,680,0,0
441,344,0,0,0,0,0,0,0,0,0,-1,1665,680,0,0
448,344,0,0,0,0,0,0,0,0,0,-1,1672,680,0,0
455,344,0,0,0,0,0,0,0,0,0,-1,1679,680,0,0
462,344,0,0,0,0,0,0,0,0,0,-1,1686,680,0,0
469,344,0,0,0,0,0,0,0,0,0,-1,1693,680,0,0
476,344,0,0,0,0,0,0,0,0,0,-1,1700,680,0,0
483,344,0,0,0,0,0,0,0,0,0,-1,1707,680,0,0
490,344,0,0,0,0,0,0,0,0,0,-1,1714,680,0,0
497,344,0,0,0,0,0,0,0,0,0,-1,1721,680,0,0
504,344,0,0,0,0,0,0,0,0,0,-1,1728,680,0,0
511,344,15.4819,0.452637,0,0,0,0,0,0,0,-1,1735,680,15.4819,-0.452656
518,344,17.1357,2.31207,0,0,0,0,0,0,0,-1,1742,680,17.1358,-2.31207
525,344,16.4807,2.83368,0,0,0,0,0,0,0,-1,1749,680,16.4807,-2.83368
532,344,19.5029,6.32385,0,0,0,0,0,0,0,-1,1756,680,19.503,-6.32388
539,344,15.3691,3.78113,0,0,0,0,0,0,0,-1,1763,680,15.3691,-3.78113
546,344,14.6722,4.30243,0,0,0,0,0,0,0,-1,1770,680,14.6722,-4.30241
553,344,14.8136,4.35681,0,0,0,0,0,0,0,-1,1777,680,14.8136,-4.35679
560,344,11.9363,2.14185,0,0,0,0,0,0,0,-1,1784,680,11.9362,-2.14182
567,344,11.397,0.925842,0,0,0,0,0,0,0,-1,1791,680,11.397,-0.92583
574,344,10.0004,0.504639,0,0,0,0,0,0,0,-1,1798,680,10.0004,-0.504645
581,344,13.6709,-0.969604,0,0,0,0,0,0,0,-1,1805,680,13.6709,0.969629
588,344,14.7228,-2.22955,0,0,0,0,0,0,0,-1,1812,680,14.7228,2.22957
595,344,14.5361,-1.99377,0,0,0,0,0,0,0,-1,1819,680,14.5361,1.99379
602,344,14.7518,-1.50891,0.0107624,0.00342862,0.00816033,0.0160418,-0.00185084,0.57424,0.0113619,0.0364461,1826,680,14.7519,1.50894
609,344,14.6549,-1.18671,0.00586972,0.00163222,0.00509379,0.00926784,-0.0017659,0.588309,0.00684356,0.0157271,1833,680,14.6549,1.18673
616,344,14.6705,-0.822388,0.00266247,0.000799422,0.00243455,0.00433763,-0.000875733,0.602678,0.00322356,0.0221185,1840,680,14.6705,0.822409
623,344,14.6338,-0.505066,0.00102623,7.38189e-06,0.000845129,0.0015036,-0.000469985,0.514169,0.0011904,0.018248,1847,680,14.6338,0.50505
630,344,14.6532,-0.18811,-0.000467888,-0.000514507,-0.000218153,-0.000271803,-0.000710593,-0.732176,0.00041402,0.0235992,1854,680,14.6531,0.188099
637,344,14.6824,0.159973,-0.00181549,-0.000804272,-0.000900787,-0.000276897,-0.00234287,-1.04114,0.00147828,0.0237768,1861,680,14.6824,-0.15996
644,344,14.6635,0.513916,-0.00349129,-0.00125236,-0.00166403,-0.000366286,-0.00437737,-1.0815,0.00280414,0.0166977,1868,680,14.6635,-0.513905
651,344,14.6216,0.83728,-0.00531883,-0.00180293,-0.00247205,-0.000527493,-0.00659426,-1.09448,0.00423132,0.0118564,1875,680,14.6216,-0.837279
658,344,14.5999,1.22443,-0.00732989,-0.00237089,-0.00337377,-0.00066347,-0.0090373,-1.10229,0.00581634,0.0195528,1882,680,14.5999,-1.22443
665,344,14.501,1.55133,-0.00944584,-0.00290647,-0.00426929,-0.000798635,-0.0115537,-1.11219,0.00745052,0.0308557,1889,680,14.5009,-1.55133
672,344,14.5861,1.76569,-0.0116419,-0.00333722,-0.00513601,-0.000884979,-0.0140941,-1.12534,0.00911543,0.0259815,1896,680,14.586,-1.76571
679,344,14.7191,1.95709,0,0,0,0,0,0,0,-1,1903,680,14.7191,-1.95712
686,344,15.024,1.82709,0,0,0,0,0,0,0,-1,1910,680,15.024,-1.82706
693,344,12.4362,-1.42346,0,0,0,0,0,0,0,-1,1917,680,12.4361,1.42348
700,344,17.5396,2.61206,0,0,0,0,0,0,0,-1,1924,680,17.5396,-2.61204
707,344,18.5829,3.29352,0,0,0,0,0,0,0,-1,1931,680,18.5828,-3.2935
714,344,0,0,0,0,0,0,0,0,0,-1,1938,680,0,0
721,344,0,0,0,0,0,0,0,0,0,-1,1945,680,0,0
728,344,0,0,0,0,0,0,0,0,0,-1,1952,680,0,0
735,344,0,0,0,0,0,0,0,0,0,-1,1959,680,0,0
742,344,0,0,0,0,0,0,0,0,0,-1,1966,680,0,0
749,344,0,0,0,0,0,0,0,0,0,-1,1973,680,0,0
756,344,0,0,0,0,0,0,0,0,0,-1,1980,680,0,0
763,344,0,0,0,0,0,0,0,0,0,-1,1987,680,0,0
770,344,0,0,0,0,0,0,0,0,0,-1,1994,680,0,0
777,344,0,0,0,0,0,0,0,0,0,-1,2001,680,0,0
784,344,0,0,0,0,0,0,0,0,0,-1,2008,680,0,0
791,344,0,0,0,0,0,0,0,0,0,-1,2015,680,0,0
798,344,0,0,0,0,0,0,0,0,0,-1,2022,680,0,0
805,344,0,0,0,0,0,0,0,0,0,-1,2029,680,0,0
812,344,0,0,0,0,0,0,0,0,0,-1,2036,680,0,0
-700,337,0,0,0,0,0,0,0,0,0,-1,524,687,0,0
-693,337,0,0,0,0,0,0,0,0,0,-1,531,687,0,0
-686,337,0,0,0,0,0,0,0,0,0,-1,538,687,0,0
-679,337,0,0,0,0,0,0,0,0,0,-1,545,687,0,0
-672,337,0,0,0,0,0,0,0,0,0,-1,552,687,0,0
-665,337,0,0,0,0,0,0,0,0,0,-1,559,687,0,0
-658,337,0,0,0,0,0,0,0,0,0,-1,566,687,0,0
-651,337,0,0,0,0,0,0,0,0,0,-1,573,687,0,0
-644,337,0,0,0,0,0,0,0,0,0,-1,580,687,0,0
-637,337,0,0,0,0,0,0,0,0,0,-1,587,687,0,0
-630,337,0,0,0,0,0,0,0,0,0,-1,594,687,0,0
-623,337,0,0,0,0,0,0,0,0,0,-1,601,687,0,0
-616,337,0,0,0,0,0,0,0,0,0,-1,608,687,0,0
-609,337,0,0,0,0,0,0,0,0,0,-1,615,687,0,0
-602,337,0,0,0,0,0,0,0,0,0,-1,622,687,0,0
-595,337,0,0,0,0,0,0,0,0,0,-1,629,687,0,0
-588,337,-10.8413,1.27863,0,0,0,0,0,0,0,-1,636,687,-10.8413,-1.27861
-581,337,-11.2157,1.31567,0,0,0,0,0,0,0,-1,643,687,-11.2157,-1.3157
-574,337,-6.03339,2.0321,0,0,0,0,0,0,0,-1,650,687,-6.03337,-2.03213
-567,337,-8.23407,1.50378,0,0,0,0,0,0,0,-1,657,687,-8.23409,-1.50378
-560,337,-8.54114,1.1792,0.0193558,0.0269353,-0.0165186,0.0400933,0.0061978,-0.898159,0.0249212,0.0492315,664,687,-8.54113,-1.17922
-553,337,-8.60065,1.16205,0.0168543,0.0216622,-0.0135474,0.0330173,0.00549923,-0.873207,0.0204267,0.0439451,671,687,-8.60067,-1.16203
-546,337,-8.35999,0.344055,0.0138345,0.0170426,-0.0106704,0.0262289,0.00464822,-0.860004,0.0161609,0.0372646,678,687,-8.36001,-0.344065
-539,337,-8.05695,-0.382324,0.0109368,0.0132119,-0.00809843,0.0202523,0.0038964,-0.855174,0.0124083,0.0261841,685,687,-8.05693,0.382343
-532,337,-8.0816,-0.752991,0.00837569,0.00993512,-0.0059196,0.0151261,0.00318468,-0.85088,0.00920798,0.0159421,692,687,-8.08159,0.752964
-525,337,-8.12292,-1.07281,0.00619855,0.00721611,-0.00413406,0.0108726,0.00254208,-0.846625,0.00656713,0.0151635,699,687,-8.12295,1.07279
-518,337,-8.12866,-1.40289,0.00453966,0.00503836,-0.00283206,0.00763202,0.001946,-0.829308,0.00457932,0.0221513,706,687,-8.12865,1.40287
-511,337,-8.1615,-1.72839,0.00335719,0.00342514,-0.00187585,0.00526732,0.00151501,-0.794454,0.0031312,0.0224927,713,687,-8.16151,1.72842
-504,337,-8.15332,-2.05023,0.00248578,0.00187891,-0.00118024,0.00340097,0.000963721,-0.659575,0.00202405,0.0223124,720,687,-8.15334,2.05025
-497,337,-8.11841,-2.36334,0.00193456,0.00107136,-0.000784037,0.00239794,0.000607975,-0.53379,0.00143942,0.0156639,727,687,-8.11843,2.36333
-490,337,-8.11719,-2.67834,0.00198386,0.000692507,-0.000914529,0.00245767,0.000218691,-0.478021,0.00157063,0.0138145,734,687,-8.11717,2.67834
-483,337,-8.11957,-2.97681,0.00265696,0.000826317,-0.00144243,0.00344998,3.32956e-05,-0.502674,0.00228897,0.0134013,741,687,-8.11958,2.97683
-476,337,-8.11456,-3.30035,0.00354683,0.00136405,-0.00220955,0.00491984,-8.95374e-06,-0.556004,0.00328288,0.0125512,748,687,-8.11454,3.30038
-469,337,-8.11359,-3.67725,0.00450434,0.00194406,-0.00312267,0.00659908,-0.000150687,-0.590871,0.00445047,0.0261008,755,687,-8.11358,3.67726
-462,337,-8.02106,-3.97522,0,0,0,0,0,0,0,-1,762,687,-8.02104,3.97523
-455,337,-6.00574,-3.12933,0,0,0,0,0,0,0,-1,769,687,-6.00576,3.12934
-448,337,-5.30627,-2.07202,0,0,0,0,0,0,0,-1,776,687,-5.30628,2.07205
-441,337,-4.24762,-1.49597,0,0,0,0,0,0,0,-1,783,687,-4.24762,1.49598
-434,337,-6.86908,1.37531,0,0,0,0,0,0,0,-1,790,687,-6.86908,-1.3753
-427,337,-9.92004,2.487,0,0,0,0,0,0,0,-1,797,687,-9.92002,-2.48701
-420,337,-2.95996,-1.76697,0,0,0,0,0,0,0,-1,804,687,-2.95998,1.76696
-413,337,-1.29169,-1.99487,0,0,0,0,0,0,0,-1,811,687,-1.29171,1.9949
-406,337,-1.02356,-1.89563,0,0,0,0,0,0,0,-1,818,687,-1.02357,1.89564
-399,337,-0.472839,-2.21338,0,0,0,0,0,0,0,-1,825,687,-0.472837,2.2134
-392,337,0,0,0,0,0,0,0,0,0,-1,832,687,0,0
-385,337,0,0,0,0,0,0,0,0,0,-1,839,687,0,0
-378,337,0,0,0,0,0,0,0,0,0,-1,846,687,0,0
-371,337,0,0,0,0,0,0,0,0,0,-1,853,687,0,0
-364,337,0,0,0,0,0,0,0,0,0,-1,860,687,0,0
-357,337,0,0,0,0,0,0,0,0,0,-1,867,687,0,0
-350,337,0,0,0,0,0,0,0,0,0,-1,874,687,0,0
-343,337,0,0,0,0,0,0,0,0,0,-1,881,687,0,0
-336,337,0,0,0,0,0,0,0,0,0,-1,888,687,0,0
-329,337,0,0,0,0,0,0,0,0,0,-1,895,687,0,0
-322,337,0,0,0,0,0,0,0,0,0,-1,902,687,0,0
-315,337,0,0,0,0,0,0,0,0,0,-1,909,687,0,0
-308,337,0,0,0,0,0,0,0,0,0,-1,916,687,0,0
-301,337,0,0,0,0,0,0,0,0,0,-1,923,687,0,0
-294,337,0,0,0,0,0,0,0,0,0,-1,930,687,0,0
-287,337,0,0,0,0,0,0,0,0,0,-1,937,687,0,0
-280,337,0,0,0,0,0,0,0,0,0,-1,944,687,0,0
-273,337,0,0,0,0,0,0,0,0,0,-1,951,687,0,0
-266,337,0,0,0,0,0,0,0,0,0,-1,958,687,0,0
-259,337,0,0,0,0,0,0,0,0,0,-1,965,687,0,0
-252,337,0,0,0,0,0,0,0,0,0,-1,972,687,0,0
-245,337,0,0,0,0,0,0,0,0,0,-1,979,687,0,0
-238,337,0,0,0,0,0,0,0,0,0,-1,986,687,0,0
-231,337,0,0,0,0,0,0,0,0,0,-1,993,687,0,0
-224,337,0,0,0,0,0,0,0,0,0,-1,1000,687,0,0
-217,337,0,0,0,0,0,0,0,0,0,-1,1007,687,0,0
-210,337,0,0,0,0,0,0,0,0,0,-1,1014,687,0,0
-203,337,0,0,0,0,0,0,0,0,0,-1,1021,687,0,0
-196,337,0,0,0,0,0,0,0,0,0,-1,1028,687,0,0
-189,337,0,0,0,0,0,0,0,0,0,-1,1035,687,0,0
-182,337,0,0,0,0,0,0,0,0,0,-1,1042,687,0,0
-175,337,0,0,0,0,0,0,0,0,0,-1,1049,687,0,0
-168,337,0,0,0,0,0,0,0,0,0,-1,1056,687,0,0
-161,337,0,0,0,0,0,0,0,0,0,-1,1063,687,0,0
-154,337,0,0,0,0,0,0,0,0,0,-1,1070,687,0,0
-147,337,0,0,0,0,0,0,0,0,0,-1,1077,687,0,0
-140,337,0,0,0,0,0,0,0,0,0,-1,1084,687,0,0
-133,337,0,0,0,0,0,0,0,0,0,-1,1091,687,0,0
-126,337,0,0,0,0,0,0,0,0,0,-1,1098,687,0,0
-119,337,0,0,0,0,0,0,0,0,0,-1,1105,687,0,0
-112,337,0,0,0,0,0,0,0,0,0,-1,1112,687,0,0
-105,337,0,0,0,0,0,0,0,0,0,-1,1119,687,0,0
-98,337,0,0,0,0,0,0,0,0,0,-1,1126,687,0,0
-91,337,0,0,0,0,0,0,0,0,0,-1,1133,687,0,0
-84,337,0,0,0,0,0,0,0,0,0,-1,1140,687,0,0
-77,337,0,0,0,0,0,0,0,0,0,-1,1147,687,0,0
-70,337,0,0,0,0,0,0,0,0,0,-1,1154,687,0,0
-63,337,0,0,0,0,0,0,0,0,0,-1,1161,687,0,0
-56,337,0,0,0,0,0,0,0,0,0,-1,1168,687,0,0
-49,337,0,0,0,0,0,0,0,0,0,-1,1175,687,0,0
-42,337,0,0,0,0,0,0,0,0,0,-1,1182,687,0,0
-35,337,0,0,0,0,0,0,0,0,0,-1,1189,687,0,0
-28,337,0,0,0,0,0,0,0,0,0,-1,1196,687,0,0
-21,337,0,0,0,0,0,0,0,0,0,-1,1203,687,0,0
-14,337,0,0,0,0,0,0,0,0,0,-1,1210,687,0,0
-7,337,0,0,0,0,0,0,0,0,0,-1,1217,687,0,0
0,337,0,0,0,0,0,0,0,0,0,-1,1224,687,0,0
7,337,0,0,0,0,0,0,0,0,0,-1,1231,687,0,0
14,337,0,0,0,0,0,0,0,0,0,-1,1238,687,0,0
21,337,0,0,0,0,0,0,0,0,0,-1,1245,687,0,0
28,337,0,0,0,0,0,0,0,0,0,-1,1252,687,0,0
35,337,0,0,0,0,0,0,0,0,0,-1,1259,687,0,0
42,337,0,0,0,0,0,0,0,0,0,-1,1266,687,0,0
49,337,0,0,0,0,0,0,0,0,0,-1,1273,687,0,0
56,337,0,0,0,0,0,0,0,0,0,-1,1280,687,0,0
63,337,0,0,0,0,0,0,0,0,0,-1,1287,687,0,0
70,337,0,0,0,0,0,0,0,0,0,-1,1294,687,0,0
77,337,0,0,0,0,0,0,0,0,0,-1,1301,687,0,0
84,337,0,0,0,0,0,0,0,0,0,-1,1308,687,0,0
91,337,0,0,0,0,0,0,0,0,0,-1,1315,687,0,0
98,337,0,0,0,0,0,0,0,0,0,-1,1322,687,0,0
105,337,0,0,0,0,0,0,0,0,0,-1,1329,687,0,0
112,337,0,0,0,0,0,0,0,0,0,-1,1336,687,0,0
119,337,0,0,0,0,0,0,0,0,0,-1,1343,687,0,0
126,337,0,0,0,0,0,0,0,0,0,-1,1350,687,0,0
133,337,0,0,0,0,0,0,0,0,0,-1,1357,687,0,0
140,337,0,0,0,0,0,0,0,0,0,-1,1364,687,0,0
147,337,0,0,0,0,0,0,0,0,0,-1,1371,687,0,0
154,337,0,0,0,0,0,0,0,0,0,-1,1378,687,0,0
161,337,0,0,0,0,0,0,0,0,0,-1,1385,687,0,0
168,337,0,0,0,0,0,0,0,0,0,-1,1392,687,0,0
175,337,0,0,0,0,0,0,0,0,0,-1,1399,687,0,0
182,337,0,0,0,0,0,0,0,0,0,-1,1406,687,0,0
189,337,0,0,0,0,0,0,0,0,0,-1,1413,687,0,0
196,337,0,0,0,0,0,0,0,0,0,-1,1420,687,0,0
203,337,0,0,0,0,0,0,0,0,0,-1,1427,687,0,0
210,337,0,0,0,0,0,0,0,0,0,-1,1434,687,0,0
217,337,0,0,0,0,0,0,0,0,0,-1,1441,687,0,0
224,337,0,0,0,0,0,0,0,0,0,-1,1448,687,0,0
231,337,0,0,0,0,0,0,0,0,0,-1,1455,687,0,0
238,337,0,0,0,0,0,0,0,0,0,-1,1462,687,0,0
245,337,0,0,0,0,0,0,0,0,0,-1,1469,687,0,0
252,337,0,0,0,0,0,0,0,0,0,-1,1476,687,0,0
259,337,0,0,0,0,0,0,0,0,0,-1,1483,687,0,0
266,337,0,0,0,0,0,0,0,0,0,-1,1490,687,0,0
273,337,0,0,0,0,0,0,0,0,0,-1,1497,687,0,0
280,337,0,0,0,0,0,0,0,0,0,-1,1504,687,0,0
287,337,0,0,0,0,0,0,0,0,0,-1,1511,687,0,0
294,337,0,0,0,0,0,0,0,0,0,-1,1518,687,0,0
301,337,0,0,0,0,0,0,0,0,0,-1,1525,687,0,0
308,337,0,0,0,0,0,0,0,0,0,-1,1532,687,0,0
315,337,0,0,0,0,0,0,0,0,0,-1,1539,687,0,0
322,337,0,0,0,0,0,0,0,0,0,-1,1546,687,0,0
329,337,0,0,0,0,0,0,0,0,0,-1,1553,687,0,0
336,337,0,0,0,0,0,0,0,0,0,-1,1560,687,0,0
343,337,0,0,0,0,0,0,0,0,0,-1,1567,687,0,0
350,337,0,0,0,0,0,0,0,0,0,-1,1574,687,0,0
357,337,0,0,0,0,0,0,0,0,0,-1,1581,687,0,0
364,337,0,0,0,0,0,0,0,0,0,-1,1588,687,0,0
371,337,0,0,0,0,0,0,0,0,0,-1,1595,687,0,0
378,337,0,0,0,0,0,0,0,0,0,-1,1602,687,0,0
385,337,0,0,0,0,0,0,0,0,0,-1,1609,687,0,0
392,337,0,0,0,0,0,0,0,0,0,-1,1616,687,0,0
399,337,0,0,0,0,0,0,0,0,0,-1,1623,687,0,0
406,337,0,0,0,0,0,0,0,0,0,-1,1630,687,0,0
413,337,0,0,0,0,0,0,0,0,0,-1,1637,687,0,0
420,337,0,0,0,0,0,0,0,0,0,-1,1644,687,0,0
427,337,0,0,0,0,0,0,0,0,0,-1,1651,687,0,0
434,337,0,0,0,0,0,0,0,0,0,-1,1658,687,0,0
441,337,0,0,0,0,0,0,0,0,0,-1,1665,687,0,0
448,337,0,0,0,0,0,0,0,0,0,-1,1672,687,0,0
455,337,0,0,0,0,0,0,0,0,0,-1,1679,687,0,0
462,337,0,0,0,0,0,0,0,0,0,-1,1686,687,0,0
469,337,0,0,0,0,0,0,0,0,0,-1,1693,687,0,0
476,337,0,0,0,0,0,0,0,0,0,-1,1700,687,0,0
483,337,0,0,0,0,0,0,0,0,0,-1,1707,687,0,0
490,337,0,0,0,0,0,0,0,0,0,-1,1714,687,0,0
497,337,0,0,0,0,0,0,0,0,0,-1,1721,687,0,0
504,337,0,0,0,0,0,0,0,0,0,-1,1728,687,0,0
511,337,0,0,0,0,0,0,0,0,0,-1,1735,687,0,0
518,337,18.0369,1.64581,0,0,0,0,0,0,0,-1,1742,687,18.0368,-1.64581
525,337,21.0253,4.16956,0,0,0,0,0,0,0,-1,1749,687,21.0253,-4.16956
532,337,20.4332,5.16278,0,0,0,0,0,0,0,-1,1756,687,20.4333,-5.16281
539,337,19.9229,6.04456,0,0,0,0,0,0,0,-1,1763,687,19.9228,-6.04456
546,337,15.0701,4.06219,0,0,0,0,0,0,0,-1,1770,687,15.0701,-4.06219
553,337,19.068,3.61273,0,0,0,0,0,0,0,-1,1777,687,19.068,-3.6127
560,337,18.4053,3.62793,0,0,0,0,0,0,0,-1,1784,687,18.4052,-3.6279
567,337,11.9288,1.38776,0,0,0,0,0,0,0,-1,1791,687,11.9288,-1.38777
574,337,10.704,1.19476,0,0,0,0,0,0,0,-1,1798,687,10.704,-1.19478
581,337,8.50427,0.561768,0,0,0,0,0,0,0,-1,1805,687,8.5043,-0.561754
588,337,8.5885,-0.0536499,0,0,0,0,0,0,0,-1,1812,687,8.58844,0.0536788
595,337,13.8816,-1.70703,0,0,0,0,0,0,0,-1,1819,687,13.8816,1.70702
602,337,14.9246,-1.5661,0,0,0,0,0,0,0,-1,1826,687,14.9245,1.56609
609,337,14.9927,-1.133,0.00938989,0.00231031,0.00854359,0.015098,-0.00339776,0.589003,0.0113684,0.0244514,1833,687,14.9926,1.13302
616,337,15.0018,-0.810913,0.00486054,0.00131041,0.00473115,0.00813866,-0.00196771,0.605931,0.00618687,0.0173139,1840,687,15.0019,0.81093
623,337,15.0013,-0.485229,0.00250327,0.000203918,0.00221129,0.00384589,-0.00113871,0.545674,0.00301603,0.0141959,1847,687,15.0013,0.485216
630,337,14.985,-0.142273,0.0006213,-0.000389356,0.000538048,0.000854113,-0.000622169,0.408374,0.000855831,0.0166937,1854,687,14.9849,0.142286
637,337,15.0145,0.193298,-0.000883936,-0.000677027,-0.000480994,-0.000288488,-0.00127248,-0.891327,0.000770376,0.0159585,1861,687,15.0145,-0.193321
644,337,14.9993,0.539978,-0.00245661,-0.0010222,-0.00126775,-0.000282845,-0.00319596,-1.04282,0.0020429,0.011139,1868,687,14.9993,-0.53996
651,337,14.9507,0.845276,-0.0039671,-0.00142134,-0.00193388,-0.000379022,-0.00500942,-1.07646,0.00322071,0.00945874,1875,687,14.9507,-0.845304
658,337,14.9531,1.19324,-0.00547026,-0.00171338,-0.00257398,-0.000405306,-0.00677834,-1.10062,0.00439003,0.0108181,1882,687,14.9532,-1.19322
665,337,14.9695,1.53625,-0.00705876,-0.00194848,-0.00320683,-0.000403311,-0.00860392,-1.12179,0.00560635,0.0142282,1889,687,14.9694,-1.53623
672,337,14.9542,1.80615,-0.00857321,-0.00199152,-0.00371393,-0.000320218,-0.0102445,-1.14793,0.00672548,0.0211944,1896,687,14.9542,-1.80616
679,337,14.9208,2.05902,-0.010149,-0.00184788,-0.00409881,-0.00016514,-0.0118317,-1.18123,0.00783334,0.0422724,1903,687,14.9208,-2.059
686,337,14.9966,2.39856,0,0,0,0,0,0,0,-1,1910,687,14.9965,-2.39856
693,337,16.5415,2.21411,0,0,0,0,0,0,0,-1,1917,687,16.5415,-2.2141
700,337,17.2661,2.44379,0,0,0,0,0,0,0,-1,1924,687,17.2661,-2.44378
707,337,17.3544,5.61853,0,0,0,0,0,0,0,-1,1931,687,17.3543,-5.61851
714,337,0,0,0,0,0,0,0,0,0,-1,1938,687,0,0
721,337,0,0,0,0,0,0,0,0,0,-1,1945,687,0,0
728,337,0,0,0,0,0,0,0,0,0,-1,1952,687,0,0
735,337,0,0,0,0,0,0,0,0,0,-1,1959,687,0,0
742,337,0,0,0,0,0,0,0,0,0,-1,1966,687,0,0
749,337,0,0,0,0,0,0,0,0,0,-1,1973,687,0,0
756,337,0,0,0,0,0,0,0,0,0,-1,1980,687,0,0
763,337,0,0,0,0,0,0,0,0,0,-1,1987,687,0,0
770,337,0,0,0,0,0,0,0,0,0,-1,1994,687,0,0
777,337,0,0,0,0,0,0,0,0,0,-1,2001,687,0,0
784,337,0,0,0,0,0,0,0,0,0,-1,2008,687,0,0
791,337,0,0,0,0,0,0,0,0,0,-1,2015,687,0,0
798,337,0,0,0,0,0,0,0,0,0,-1,2022,687,0,0
805,337,0,0,0,0,0,0,0,0,0,-1,2029,687,0,0
812,337,0,0,0,0,0,0,0,0,0,-1,2036,687,0,0
-700,330,0,0,0,0,0,0,0,0,0,-1,524,694,0,0
-693,330,0,0,0,0,0,0,0,0,0,-1,531,694,0,0
-686,330,0,0,0,0,0,0,0,0,0,-1,538,694,0,0
-679,330,0,0,0,0,0,0,0,0,0,-1,545,694,0,0
-672,330,0,0,0,0,0,0,0,0,0,-1,552,694,0,0
-665,330,0,0,0,0,0,0,0,0,0,-1,559,694,0,0
-658,330,0,0,0,0,0,0,0,0,0,-1,566,694,0,0
-651,330,0,0,0,0,0,0,0,0,0,-1,573,694,0,0
-644,330,0,0,0,0,0,0,0,0,0,-1,580,694,0,0
-637,330,0,0,0,0,0,0,0,0,0,-1,587,694,0,0
-630,330,0,0,0,0,0,0,0,0,0,-1,594,694,0,0
-623,330,0,0,0,0,0,0,0,0,0,-1,601,694,0,0
-616,330,0,0,0,0,0,0,0,0,0,-1,608,694,0,0
-609,330,0,0,0,0,0,0,0,0,0,-1,615,694,0,0
-602,330,0,0,0,0,0,0,0,0,0,-1,622,694,0,0
-595,330,-4.67883,1.65515,0,0,0,0,0,0,0,-1,629,694,-4.67881,-1.65515
-588,330,-8.5047,2.67346,0,0,0,0,0,0,0,-1,636,694,-8.50469,-2.67348
-581,330,-12.4227,0.947083,0,0,0,0,0,0,0,-1,643,694,-12.4227,-0.947109
-574,330,-9.02118,1.87952,0,0,0,0,0,0,0,-1,650,694,-9.02115,-1.87953
-567,330,-8.35577,0.909973,0,0,0,0,0,0,0,-1,657,694,-8.35575,-0.909945
-560,330,-8.50305,0.666809,0.0108398,0.020101,-0.0105863,0.0270252,0.00391562,-0.991568,0.0168638,0.0497448,664,694,-8.50306,-0.666797
-553,330,-8.35187,0.323608,0.0100804,0.0162623,-0.00891717,0.022609,0.00373363,-0.952232,0.0139951,0.0415094,671,694,-8.35186,-0.323623
-546,330,-8.33978,0.10022,0,0,0,0,0,0,0,-1,678,694,-8.33981,-0.100218
-539,330,-8.34125,-0.437134,0.00731191,0.00998963,-0.00559376,0.0144025,0.00289902,-0.902863,0.00879606,0.0135846,685,694,-8.34128,0.437121
-532,330,-8.44196,-0.73291,0.00590203,0.00748404,-0.00414933,0.0109171,0.00246898,-0.879586,0.00661059,0.0108834,692,694,-8.44196,0.732905
-525,330,-8.43909,-1.08295,0.00458288,0.00537145,-0.00290337,0.00790719,0.00204714,-0.852886,0.00473884,0.0110389,699,694,-8.4391,1.08296
-518,330,-8.43707,-1.38263,0.00358839,0.00364862,-0.00202763,0.00564636,0.00159065,-0.792824,0.00336189,0.0144705,706,694,-8.43706,1.38262
-511,330,-8.47021,-1.71057,0.00289316,0.00240461,-0.00136677,0.00403731,0.00126045,-0.696971,0.00238512,0.0195956,713,694,-8.47019,1.71058
-504,330,-8.45435,-2.03241,0.00232431,0.0012071,-0.000879508,0.00280762,0.000723799,-0.502472,0.00168318,0.0176186,720,694,-8.45435,2.0324
-497,330,-8.44073,-2.33014,0.00202499,0.000605183,-0.000696799,0.00230982,0.000320355,-0.388041,0.00144498,0.0125668,727,694,-8.44073,2.33013
-490,330,-8.43402,-2.65277,0.00233766,0.000486503,-0.0010049,0.00277828,4.58776e-05,-0.413232,0.00183709,0.0131523,734,694,-8.43402,2.65277
-483,330,-8.43317,-2.97803,0.00321697,0.000939903,-0.00172132,0.00414222,1.4653e-05,-0.493214,0.00275661,0.0130534,741,694,-8.43317,2.97802
-476,330,-8.45801,-3.30048,0.00419408,0.00177833,-0.00265531,0.00590333,6.90771e-05,-0.571941,0.00391273,0.0256245,748,694,-8.45801,3.3005
-469,330,-8.31909,-3.76154,0,0,0,0,0,0,0,-1,755,694,-8.31907,3.76154
-462,330,-7.26733,-3.84833,0,0,0,0,0,0,0,-1,762,694,-7.26731,3.84832
-455,330,-5.04254,-1.79303,0,0,0,0,0,0,0,-1,769,694,-5.04252,1.79305
-448,330,-4.89886,-1.66156,0,0,0,0,0,0,0,-1,776,694,-4.89886,1.66157
-441,330,-5.30676,-2.34045,0,0,0,0,0,0,0,-1,783,694,-5.30679,2.34048
-434,330,-7.20428,1.00024,0,0,0,0,0,0,0,-1,790,694,-7.20431,-1.00027
-427,330,-16.0428,2.89258,0,0,0,0,0,0,0,-1,797,694,-16.0428,-2.89259
-420,330,-15.2923,3.32672,0,0,0,0,0,0,0,-1,804,694,-15.2923,-3.32675
-413,330,-10.4567,2.56183,0,0,0,0,0,0,0,-1,811,694,-10.4567,-2.56182
-406,330,-1.65375,-1.74371,0,0,0,0,0,0,0,-1,818,694,-1.65375,1.74371
-399,330,0,0,0,0,0,0,0,0,0,-1,825,694,0,0
-392,330,0,0,0,0,0,0,0,0,0,-1,832,694,0,0
-385,330,0,0,0,0,0,0,0,0,0,-1,839,694,0,0
-378,330,0,0,0,0,0,0,0,0,0,-1,846,694,0,0
-371,330,0,0,0,0,0,0,0,0,0,-1,853,694,0,0
-364,330,0,0,0,0,0,0,0,0,0,-1,860,694,0,0
-357,330,0,0,0,0,0,0,0,0,0,-1,867,694,0,0
-350,330,0,0,0,0,0,0,0,0,0,-1,874,694,0,0
-343,330,0,0,0,0,0,0,0,0,0,-1,881,694,0,0
-336,330,0,0,0,0,0,0,0,0,0,-1,888,694,0,0
-329,330,0,0,0,0,0,0,0,0,0,-1,895,694,0,0
-322,330,0,0,0,0,0,0,0,0,0,-1,902,694,0,0
-315,330,0,0,0,0,0,0,0,0,0,-1,909,694,0,0
-308,330,0,0,0,0,0,0,0,0,0,-1,916,694,0,0
-301,330,0,0,0,0,0,0,0,0,0,-1,923,694,0,0
-294,330,0,0,0,0,0,0,0,0,0,-1,930,694,0,0
-287,330,0,0,0,0,0,0,0,0,0,-1,937,694,0,0
-280,330,0,0,0,0,0,0,0,0,0,-1,944,694,0,0
-273,330,0,0,0,0,0,0,0,0,0,-1,951,694,0,0
-266,330,0,0,0,0,0,0,0,0,0,-1,958,694,0,0
-259,330,0,0,0,0,0,0,0,0,0,-1,965,694,0,0
-252,330,0,0,0,0,0,0,0,0,0,-1,972,694,0,0
-245,330,0,0,0,0,0,0,0,0,0,-1,979,694,0,0
-238,330,0,0,0,0,0,0,0,0,0,-1,986,694,0,0
-231,330,0,0,0,0,0,0,0,0,0,-1,993,694,0,0
-224,330,0,0,0,0,0,0,0,0,0,-1,1000,694,0,0
-217,330,0,0,0,0,0,0,0,0,0,-1,1007,694,0,0
-210,330,0,0,0,0,0,0,0,0,0,-1,1014,694,0,0
-203,330,0,0,0,0,0,0,0,0,0,-1,1021,694,0,0
-196,330,0,0,0,0,0,0,0,0,0,-1,1028,694,0,0
-189,330,0,0,0,0,0,0,0,0,0,-1,1035,694,0,0
-182,330,0,0,0,0,0,0,0,0,0,-1,1042,694,0,0
-175,330,0,0,0,0,0,0,0,0,0,-1,1049,694,0,0
-168,330,0,0,0,0,0,0,0,0,0,-1,1056,694,0,0
-161,330,0,0,0,0,0,0,0,0,0,-1,1063,694,0,0
-154,330,0,0,0,0,0,0,0,0,0,-1,1070,694,0,0
-147,330,0,0,0,0,0,0,0,0,0,-1,1077,694,0,0
-140,330,0,0,0,0,0,0,0,0,0,-1,1084,694,0,0
-133,330,0,0,0,0,0,0,0,0,0,-1,1091,694,0,0
-126,330,0,0,0,0,0,0,0,0,0,-1,1098,694,0,0
-119,330,0,0,0,0,0,0,0,0,0,-1,1105,694,0,0
-112,330,0,0,0,0,0,0,0,0,0,-1,1112,694,0,0
-105,330,0,0,0,0,0,0,0,0,0,-1,1119,694,0,0
-98,330,0,0,0,0,0,0,0,0,0,-1,1126,694,0,0
-91,330,0,0,0,0,0,0,0,0,0,-1,1133,694,0,0
-84,330,0,0,0,0,0,0,0,0,0,-1,1140,694,0,0
-77,330,0,0,0,0,0,0,0,0,0,-1,1147,694,0,0
-70,330,0,0,0,0,0,0,0,0,0,-1,1154,694,0,0
-63,330,0,0,0,0,0,0,0,0,0,-1,1161,694,0,0
-56,330,0,0,0,0,0,0,0,0,0,-1,1168,694,0,0
-49,330,0,0,0,0,0,0,0,0,0,-1,1175,694,0,0
-42,330,0,0,0,0,0,0,0,0,0,-1,1182,694,0,0
-35,330,0,0,0,0,0,0,0,0,0,-1,1189,694,0,0
-28,330,0,0,0,0,0,0,0,0,0,-1,1196,694,0,0
-21,330,0,0,0,0,0,0,0,0,0,-1,1203,694,0,0
-14,330,0,0,0,0,0,0,0,0,0,-1,1210,694,0,0
-7,330,0,0,0,0,0,0,0,0,0,-1,1217,694,0,0
0,330,0,0,0,0,0,0,0,0,0,-1,1224,694,0,0
7,330,0,0,0,0,0,0,0,0,0,-1,1231,694,0,0
14,330,0,0,0,0,0,0,0,0,0,-1,1238,694,0,0
21,330,0,0,0,0,0,0,0,0,0,-1,1245,694,0,0
28,330,0,0,0,0,0,0,0,0,0,-1,1252,694,0,0
35,330,0,0,0,0,0,0,0,0,0,-1,1259,694,0,0
42,330,0,0,0,0,0,0,0,0,0,-1,1266,694,0,0
49,330,0,0,0,0,0,0,0,0,0,-1,1273,694,0,0
56,330,0,0,0,0,0,0,0,0,0,-1,1280,694,0,0
63,330,0,0,0,0,0,0,0,0,0,-1,1287,694,0,0
70,330,0,0,0,0,0,0,0,0,0,-1,1294,694,0,0
77,330,0,0,0,0,0,0,0,0,0,-1,1301,694,0,0
84,330,0,0,0,0,0,0,0,0,0,-1,1308,694,0,0
91,330,0,0,0,0,0,0,0,0,0,-1,1315,694,0,0
98,330,0,0,0,0,0,0,0,0,0,-1,1322,694,0,0
105,330,0,0,0,0,0,0,0,0,0,-1,1329,694,0,0
112,330,0,0,0,0,0,0,0,0,0,-1,1336,694,0,0
119,330,0,0,0,0,0,0,0,0,0,-1,1343,694,0,0
126,330,0,0,0,0,0,0,0,0,0,-1,1350,694,0,0
133,330,0,0,0,0,0,0,0,0,0,-1,1357,694,0,0
140,330,0,0,0,0,0,0,0,0,0,-1,1364,694,0,0
147,330,0,0,0,0,0,0,0,0,0,-1,1371,694,0,0
154,330,0,0,0,0,0,0,0,0,0,-1,1378,694,0,0
161,330,0,0,0,0,0,0,0,0,0,-1,1385,694,0,0
168,330,0,0,0,0,0,0,0,0,0,-1,1392,694,0,0
175,330,0,0,0,0,0,0,0,0,0,-1,1399,694,0,0
182,330,0,0,0,0,0,0,0,0,0,-1,1406,694,0,0
189,330,0,0,0,0,0,0,0,0,0,-1,1413,694,0,0
196,330,0,0,0,0,0,0,0,0,0,-1,1420,694,0,0
203,330,0,0,0,0,0,0,0,0,0,-1,1427,694,0,0
210,330,0,0,0,0,0,0,0,0,0,-1,1434,694,0,0
217,330,0,0,0,0,0,0,0,0,0,-1,1441,694,0,0
224,330,0,0,0,0,0,0,0,0,0,-1,1448,694,0,0
231,330,0,0,0,0,0,0,0,0,0,-1,1455,694,0,0
238,330,0,0,0,0,0,0,0,0,0,-1,1462,694,0,0
245,330,0,0,0,0,0,0,0,0,0,-1,1469,694,0,0
252,330,0,0,0,0,0,0,0,0,0,-1,1476,694,0,0
259,330,0,0,0,0,0,0,0,0,0,-1,1483,694,0,0
266,330,0,0,0,0,0,0,0,0,0,-1,1490,694,0,0
273,330,0,0,0,0,0,0,0,0,0,-1,1497,694,0,0
280,330,0,0,0,0,0,0,0,0,0,-1,1504,694,0,0
287,330,0,0,0,0,0,0,0,0,0,-1,1511,694,0,0
294,330,0,0,0,0,0,0,0,0,0,-1,1518,694,0,0
301,330,0,0,0,0,0,0,0,0,0,-1,1525,694,0,0
308,330,0,0,0,0,0,0,0,0,0,-1,1532,694,0,0
315,330,0,0,0,0,0,0,0,0,0,-1,1539,694,0,0
322,330,0,0,0,0,0,0,0,0,0,-1,1546,694,0,0
329,330,0,0,0,0,0,0,0,0,0,-1,1553,694,0,0
336,330,0,0,0,0,0,0,0,0,0,-1,1560,694,0,0
343,330,0,0,0,0,0,0,0,0,0,-1,1567,694,0,0
350,330,0,0,0,0,0,0,0,0,0,-1,1574,694,0,0
357,330,0,0,0,0,0,0,0,0,0,-1,1581,694,0,0
364,330,0,0,0,0,0,0,0,0,0,-1,1588,694,0,0
371,330,0,0,0,0,0,0,0,0,0,-1,1595,694,0,0
378,330,0,0,0,0,0,0,0,0,0,-1,1602,694,0,0
385,330,0,0,0,0,0,0,0,0,0,-1,1609,694,0,0
392,330,0,0,0,0,0,0,0,0,0,-1,1616,694,0,0
399,330,0,0,0,0,0,0,0,0,0,-1,1623,694,0,0
406,330,0,0,0,0,0,0,0,0,0,-1,1630,694,0,0
413,330,0,0,0,0,0,0,0,0,0,-1,1637,694,0,0
420,330,0,0,0,0,0,0,0,0,0,-1,1644,694,0,0
427,330,0,0,0,0,0,0,0,0,0,-1,1651,694,0,0
434,330,0,0,0,0,0,0,0,0,0,-1,1658,694,0,0
441,330,0,0,0,0,0,0,0,0,0,-1,1665,694,0,0
448,330,0,0,0,0,0,0,0,0,0,-1,1672,694,0,0
455,330,0,0,0,0,0,0,0,0,0,-1,1679,694,0,0
462,330,0,0,0,0,0,0,0,0,0,-1,1686,694,0,0
469,330,0,0,0,0,0,0,0,0,0,-1,1693,694,0,0
476,330,0,0,0,0,0,0,0,0,0,-1,1700,694,0,0
483,330,0,0,0,0,0,0,0,0,0,-1,1707,694,0,0
490,330,0,0,0,0,0,0,0,0,0,-1,1714,694,0,0
497,330,0,0,0,0,0,0,0,0,0,-1,1721,694,0,0
504,330,0,0,0,0,0,0,0,0,0,-1,1728,694,0,0
511,330,0,0,0,0,0,0,0,0,0,-1,1735,694,0,0
518,330,0,0,0,0,0,0,0,0,0,-1,1742,694,0,0
525,330,21.8806,2.67316,0,0,0,0,0,0,0,-1,1749,694,21.8806,-2.67316
532,330,21.4119,3.82379,0,0,0,0,0,0,0,-1,1756,694,21.4118,-3.82381
539,330,22.2223,4.29657,0,0,0,0,0,0,0,-1,1763,694,22.2223,-4.2966
546,330,23.2045,4.75311,0,0,0,0,0,0,0,-1,1770,694,23.2044,-4.7531
553,330,19.3512,3.78687,0,0,0,0,0,0,0,-1,1777,694,19.3512,-3.78684
560,330,31.0944,1.66516,0,0,0,0,0,0,0,-1,1784,694,31.0943,-1.66516
567,330,18.0321,3.98578,0,0,0,0,0,0,0,-1,1791,694,18.0321,-3.98576
574,330,12.0454,2.1662,0,0,0,0,0,0,0,-1,1798,694,12.0455,-2.16618
581,330,11.4215,4.50836,0,0,0,0,0,0,0,-1,1805,694,11.4215,-4.50837
588,330,6.45667,-0.0630493,0,0,0,0,0,0,0,-1,1812,694,6.45661,0.0630695
595,330,8.23193,-0.258484,0,0,0,0,0,0,0,-1,1819,694,8.23188,0.258459
602,330,15.0404,-1.66394,0,0,0,0,0,0,0,-1,1826,694,15.0404,1.66391
609,330,15.2161,-1.18146,0.013811,0.00270782,0.0112475,0.0208024,-0.00428362,0.556148,0.0154948,0.0387415,1833,694,15.216,1.18148
616,330,15.3385,-0.809875,0.00790551,0.00165348,0.00671901,0.0121901,-0.00263111,0.567667,0.00913102,0.0113515,1840,694,15.3385,0.809896
623,330,15.3436,-0.473755,0.00455706,0.000310492,0.00349915,0.00652675,-0.00165919,0.512696,0.00499691,0.0132492,1847,694,15.3436,0.473766
630,330,15.3398,-0.124817,0.00194335,-0.000342865,0.00140688,0.00261298,-0.00101249,0.444236,0.00216009,0.0129152,1854,694,15.3398,0.124813
637,330,15.3435,0.208069,5.70567e-05,-0.00053291,-1.12469e-05,5.7271e-05,-0.000533124,-0.0190544,0.000375963,0.0120938,1861,694,15.3435,-0.208075
644,330,15.3077,0.536072,-0.00154512,-0.000780305,-0.000892309,-0.000191913,-0.00213351,-0.987839,0.00136288,0.00801959,1868,694,15.3077,-0.536078
651,330,15.2948,0.857971,-0.00283954,-0.00105117,-0.00145589,-0.000236793,-0.00365392,-1.06079,0.00236098,0.0106413,1875,694,15.2948,-0.857986
658,330,15.2832,1.18146,-0.00404485,-0.00115501,-0.00193304,-0.000186548,-0.00501332,-1.10634,0.0032818,0.0116437,1882,694,15.2833,-1.18145
665,330,15.2808,1.52527,-0.00533248,-0.00119578,-0.00241376,-8.54037e-05,-0.00644286,-1.13964,0.00426706,0.0106958,1889,694,15.2807,-1.52526
672,330,15.3132,1.87256,-0.00651332,-0.00102321,-0.00274854,0.000116299,-0.00765282,-1.17778,0.00514109,0.0155036,1896,694,15.3132,-1.87257
679,330,15.1504,2.22009,-0.00766678,-0.000624003,-0.00293371,0.000437931,-0.00872871,-1.22349,0.00597047,0.0293468,1903,694,15.1504,-2.22006
686,330,15.2985,2.76563,-0.0086435,0.00016321,-0.00284675,0.00100328,-0.00948358,-1.28384,0.00668197,0.0474147,1910,694,15.2984,-2.76564
693,330,15.4772,3.06342,0,0,0,0,0,0,0,-1,1917,694,15.4772,-3.06344
700,330,17.1072,4.13,0,0,0,0,0,0,0,-1,1924,694,17.1071,-4.13002
707,330,16.663,4.88672,0,0,0,0,0,0,0,-1,1931,694,16.6629,-4.88673
714,330,16.5454,5.80896,0,0,0,0,0,0,0,-1,1938,694,16.5454,-5.80899
721,330,0,0,0,0,0,0,0,0,0,-1,1945,694,0,0
728,330,0,0,0,0,0,0,0,0,0,-1,1952,694,0,0
735,330,0,0,0,0,0,0,0,0,0,-1,1959,694,0,0
742,330,0,0,0,0,0,0,0,0,0,-1,1966,694,0,0
749,330,0,0,0,0,0,0,0,0,0,-1,1973,694,0,0
756,330,0,0,0,0,0,0,0,0,0,-1,1980,694,0,0
763,330,0,0,0,0,0,0,0,0,0,-1,1987,694,0,0
770,330,0,0,0,0,0,0,0,0,0,-1,1994,694,0,0
777,330,0,0,0,0,0,0,0,0,0,-1,2001,694,0,0
784,330,0,0,0,0,0,0,0,0,0,-1,2008,694,0,0
791,330,0,0,0,0,0,0,0,0,0,-1,2015,694,0,0
798,330,0,0,0,0,0,0,0,0,0,-1,2022,694,0,0
805,330,0,0,0,0,0,0,0,0,0,-1,2029,694,0,0
812,330,0,0,0,0,0,0,0,0,0,-1,2036,694,0,0
-700,323,0,0,0,0,0,0,0,0,0,-1,524,701,0,0
-693,323,0,0,0,0,0,0,0,0,0,-1,531,701,0,0
-686,323,0,0,0,0,0,0,0,0,0,-1,538,701,0,0
-679,323,0,0,0,0,0,0,0,0,0,-1,545,701,0,0
-672,323,0,0,0,0,0,0,0,0,0,-1,552,701,0,0
-665,323,0,0,0,0,0,0,0,0,0,-1,559,701,0,0
-658,323,0,0,0,0,0,0,0,0,0,-1,566,701,0,0
-651,323,0,0,0,0,0,0,0,0,0,-1,573,701,0,0
-644,323,0,0,0,0,0,0,0,0,0,-1,580,701,0,0
-637,323,0,0,0,0,0,0,0,0,0,-1,587,701,0,0
-630,323,0,0,0,0,0,0,0,0,0,-1,594,701,0,0
-623,323,0,0,0,0,0,0,0,0,0,-1,601,701,0,0
-616,323,0,0,0,0,0,0,0,0,0,-1,608,701,0,0
-609,323,0,0,0,0,0,0,0,0,0,-1,615,701,0,0
-602,323,-4.15833,2.12256,0,0,0,0,0,0,0,-1,622,701,-4.1583,-2.12257
-595,323,-4.052,1.79156,0,0,0,0,0,0,0,-1,629,701,-4.05198,-1.79158
-588,323,-4.07019,1.94543,0,0,0,0,0,0,0,-1,636,701,-4.07019,-1.94542
-581,323,-6.63727,0.562805,0,0,0,0,0,0,0,-1,643,701,-6.63728,-0.56279
-574,323,-6.15887,0.426697,0,0,0,0,0,0,0,-1,650,701,-6.15887,-0.426727
-567,323,-8.20746,0.122803,0,0,0,0,0,0,0,-1,657,701,-8.20745,-0.122813
-560,323,-8.75403,0.315186,0,0,0,0,0,0,0,-1,664,701,-8.75404,-0.315199
-553,323,-8.68909,0.0443726,0.00424239,0.0116615,-0.00516489,0.0143109,0.00159293,-1.09682,0.00905646,0.0346151,671,701,-8.68908,-0.044374
-546,323,-8.72302,-0.15509,0.0042572,0.00931652,-0.00436423,0.0118312,0.00174249,-1.04805,0.00737559,0.0134945,678,701,-8.723,0.155098
-539,323,-8.72931,-0.401855,0.00397462,0.00731457,-0.00352043,0.00954104,0.00174815,-1.00686,0.00586546,0.0129038,685,701,-8.72932,0.401885
-532,323,-8.74738,-0.731995,0.00350083,0.005482,-0.00268783,0.00735597,0.00162685,-0.961948,0.00446168,0.0103594,692,701,-8.7474,0.73197
-525,323,-8.75293,-1.06006,0.00291931,0.00388986,-0.00189859,0.00536421,0.00144496,-0.910518,0.00320497,0.00761561,699,701,-8.75293,1.06006
-518,323,-8.74963,-1.35797,0.00247745,0.00259141,-0.0013794,0.00391501,0.00115385,-0.806041,0.00232296,0.00965305,706,701,-8.74964,1.35795
-511,323,-8.76154,-1.67847,0.00212651,0.00172206,-0.000932316,0.00287828,0.000970289,-0.678598,0.00169092,0.0138432,713,701,-8.76154,1.67846
-504,323,-8.76837,-1.99194,0.00170126,0.000904789,-0.000554709,0.00198588,0.000620168,-0.474073,0.00117317,0.0141961,720,701,-8.7684,1.99193
-497,323,-8.76782,-2.29852,0.00138746,0.000614048,-0.000411902,0.00156574,0.000435772,-0.408467,0.000933127,0.0117,727,701,-8.76782,2.29852
-490,323,-8.77521,-2.62976,0.00149779,0.000874535,-0.000619375,0.00187951,0.00049281,-0.552324,0.0011253,0.0140336,734,701,-8.77519,2.62978
-483,323,-8.78107,-2.9552,0.00186247,0.00187743,-0.00110976,0.00297973,0.000760165,-0.788768,0.0017878,0.0201793,741,701,-8.78105,2.95519
-476,323,-8.66675,-3.32208,0.00190103,0.00340851,-0.00163594,0.004456,0.00085354,-1.00127,0.00273098,0.0492307,748,701,-8.66673,3.32206
-469,323,-8.24457,-3.7746,0,0,0,0,0,0,0,-1,755,701,-8.24458,3.77462
-462,323,-5.29431,-1.45697,0,0,0,0,0,0,0,-1,762,701,-5.29431,1.45699
-455,323,-5.0658,-1.36639,0,0,0,0,0,0,0,-1,769,701,-5.06578,1.3664
-448,323,-4.91608,-1.59601,0,0,0,0,0,0,0,-1,776,701,-4.91606,1.59604
-441,323,-14.4006,0.535217,0,0,0,0,0,0,0,-1,783,701,-14.4006,-0.535203
-434,323,-15.3158,2.479,0,0,0,0,0,0,0,-1,790,701,-15.3158,-2.47898
-427,323,-15.4075,2.98248,0,0,0,0,0,0,0,-1,797,701,-15.4075,-2.98248
-420,323,-14.8839,3.49579,0,0,0,0,0,0,0,-1,804,701,-14.8839,-3.49579
-413,323,-14.0645,4.22607,0,0,0,0,0,0,0,-1,811,701,-14.0645,-4.22605
-406,323,0,0,0,0,0,0,0,0,0,-1,818,701,0,0
-399,323,0,0,0,0,0,0,0,0,0,-1,825,701,0,0
-392,323,0,0,0,0,0,0,0,0,0,-1,832,701,0,0
-385,323,0,0,0,0,0,0,0,0,0,-1,839,701,0,0
-378,323,0,0,0,0,0,0,0,0,0,-1,846,701,0,0
-371,323,0,0,0,0,0,0,0,0,0,-1,853,701,0,0
-364,323,0,0,0,0,0,0,0,0,0,-1,860,701,0,0
-357,323,0,0,0,0,0,0,0,0,0,-1,867,701,0,0
-350,323,0,0,0,0,0,0,0,0,0,-1,874,701,0,0
-343,323,0,0,0,0,0,0,0,0,0,-1,881,701,0,0
-336,323,0,0,0,0,0,0,0,0,0,-1,888,701,0,0
-329,323,0,0,0,0,0,0,0,0,0,-1,895,701,0,0
-322,323,0,0,0,0,0,0,0,0,0,-1,902,701,0,0
-315,323,0,0,0,0,0,0,0,0,0,-1,909,701,0,0
-308,323,0,0,0,0,0,0,0,0,0,-1,916,701,0,0
-301,323,0,0,0,0,0,0,0,0,0,-1,923,701,0,0
-294,323,0,0,0,0,0,0,0,0,0,-1,930,701,0,0
-287,323,0,0,0,0,0,0,0,0,0,-1,937,701,0,0
-280,323,0,0,0,0,0,0,0,0,0,-1,944,701,0,0
-273,323,0,0,0,0,0,0,0,0,0,-1,951,701,0,0
-266,323,0,0,0,0,0,0,0,0,0,-1,958,701,0,0
-259,323,0,0,0,0,0,0,0,0,0,-1,965,701,0,0
-252,323,0,0,0,0,0,0,0,0,0,-1,972,701,0,0
-245,323,0,0,0,0,0,0,0,0,0,-1,979,701,0,0
-238,323,0,0,0,0,0,0,0,0,0,-1,986,701,0,0
-231,323,0,0,0,0,0,0,0,0,0,-1,993,701,0,0
-224,323,0,0,0,0,0,0,0,0,0,-1,1000,701,0,0
-217,323,0,0,0,0,0,0,0,0,0,-1,1007,701,0,0
-210,323,0,0,0,0,0,0,0,0,0,-1,1014,701,0,0
-203,323,0,0,0,0,0,0,0,0,0,-1,1021,701,0,0
-196,323,0,0,0,0,0,0,0,0,0,-1,1028,701,0,0
-189,323,0,0,0,0,0,0,0,0,0,-1,1035,701,0,0
-182,323,0,0,0,0,0,0,0,0,0,-1,1042,701,0,0
-175,323,0,0,0,0,0,0,0,0,0,-1,1049,701,0,0
-168,323,0,0,0,0,0,0,0,0,0,-1,1056,701,0,0
-161,323,0,0,0,0,0,0,0,0,0,-1,1063,701,0,0
-154,323,0,0,0,0,0,0,0,0,0,-1,1070,701,0,0
-147,323,0,0,0,0,0,0,0,0,0,-1,1077,701,0,0
-140,323,0,0,0,0,0,0,0,0,0,-1,1084,701,0,0
-133,323,0,0,0,0,0,0,0,0,0,-1,1091,701,0,0
-126,323,0,0,0,0,0,0,0,0,0,-1,1098,701,0,0
-119,323,0,0,0,0,0,0,0,0,0,-1,1105,701,0,0
-112,323,0,0,0,0,0,0,0,0,0,-1,1112,701,0,0
-105,323,0,0,0,0,0,0,0,0,0,-1,1119,701,0,0
-98,323,0,0,0,0,0,0,0,0,0,-1,1126,701,0,0
-91,323,0,0,0,0,0,0,0,0,0,-1,1133,701,0,0
-84,323,0,0,0,0,0,0,0,0,0,-1,1140,701,0,0
-77,323,0,0,0,0,0,0,0,0,0,-1,1147,701,0,0
-70,323,0,0,0,0,0,0,0,0,0,-1,1154,701,0,0
-63,323,0,0,0,0,0,0,0,0,0,-1,1161,701,0,0
-56,323,0,0,0,0,0,0,0,0,0,-1,1168,701,0,0
-49,323,0,0,0,0,0,0,0,0,0,-1,1175,701,0,0
-42,323,0,0,0,0,0,0,0,0,0,-1,1182,701,0,0
-35,323,0,0,0,0,0,0,0,0,0,-1,1189,701,0,0
-28,323,0,0,0,0,0,0,0,0,0,-1,1196,701,0,0
-21,323,0,0,0,0,0,0,0,0,0,-1,1203,701,0,0
-14,323,0,0,0,0,0,0,0,0,0,-1,1210,701,0,0
-7,323,0,0,0,0,0,0,0,0,0,-1,1217,701,0,0
0,323,0,0,0,0,0,0,0,0,0,-1,1224,701,0,0
7,323,0,0,0,0,0,0,0,0,0,-1,1231,701,0,0
14,323,0,0,0,0,0,0,0,0,0,-1,1238,701,0,0
21,323,0,0,0,0,0,0,0,0,0,-1,1245,701,0,0
28,323,0,0,0,0,0,0,0,0,0,-1,1252,701,0,0
35,323,0,0,0,0,0,0,0,0,0,-1,1259,701,0,0
42,323,0,0,0,0,0,0,0,0,0,-1,1266,701,0,0
49,323,0,0,0,0,0,0,0,0,0,-1,1273,701,0,0
56,323,0,0,0,0,0,0,0,0,0,-1,1280,701,0,0
63,323,0,0,0,0,0,0,0,0,0,-1,1287,701,0,0
70,323,0,0,0,0,0,0,0,0,0,-1,1294,701,0,0
77,323,0,0,0,0,0,0,0,0,0,-1,1301,701,0,0
84,323,0,0,0,0,0,0,0,0,0,-1,1308,701,0,0
91,323,0,0,0,0,0,0,0,0,0,-1,1315,701,0,0
98,323,0,0,0,0,0,0,0,0,0,-1,1322,701,0,0
105,323,0,0,0,0,0,0,0,0,0,-1,1329,701,0,0
112,323,0,0,0,0,0,0,0,0,0,-1,1336,701,0,0
119,323,0,0,0,0,0,0,0,0,0,-1,1343,701,0,0
126,323,0,0,0,0,0,0,0,0,0,-1,1350,701,0,0
133,323,0,0,0,0,0,0,0,0,0,-1,1357,701,0,0
140,323,0,0,0,0,0,0,0,0,0,-1,1364,701,0,0
147,323,0,0,0,0,0,0,0,0,0,-1,1371,701,0,0
154,323,0,0,0,0,0,0,0,0,0,-1,1378,701,0,0
161,323,0,0,0,0,0,0,0,0,0,-1,1385,701,0,0
168,323,0,0,0,0,0,0,0,0,0,-1,1392,701,0,0
175,323,0,0,0,0,0,0,0,0,0,-1,1399,701,0,0
182,323,0,0,0,0,0,0,0,0,0,-1,1406,701,0,0
189,323,0,0,0,0,0,0,0,0,0,-1,1413,701,0,0
196,323,0,0,0,0,0,0,0,0,0,-1,1420,701,0,0
203,323,0,0,0,0,0,0,0,0,0,-1,1427,701,0,0
210,323,0,0,0,0,0,0,0,0,0,-1,1434,701,0,0
217,323,0,0,0,0,0,0,0,0,0,-1,1441,701,0,0
224,323,0,0,0,0,0,0,0,0,0,-1,1448,701,0,0
231,323,0,0,0,0,0,0,0,0,0,-1,1455,701,0,0
238,323,0,0,0,0,0,0,0,0,0,-1,1462,701,0,0
245,323,0,0,0,0,0,0,0,0,0,-1,1469,701,0,0
252,323,0,0,0,0,0,0,0,0,0,-1,1476,701,0,0
259,323,0,0,0,0,0,0,0,0,0,-1,1483,701,0,0
266,323,0,0,0,0,0,0,0,0,0,-1,1490,701,0,0
273,323,0,0,0,0,0,0,0,0,0,-1,1497,701,0,0
280,323,0,0,0,0,0,0,0,0,0,-1,1504,701,0,0
287,323,0,0,0,0,0,0,0,0,0,-1,1511,701,0,0
294,323,0,0,0,0,0,0,0,0,0,-1,1518,701,0,0
301,323,0,0,0,0,0,0,0,0,0,-1,1525,701,0,0
308,323,0,0,0,0,0,0,0,0,0,-1,1532,701,0,0
315,323,0,0,0,0,0,0,0,0,0,-1,1539,701,0,0
322,323,0,0,0,0,0,0,0,0,0,-1,1546,701,0,0
329,323,0,0,0,0,0,0,0,0,0,-1,1553,701,0,0
336,323,0,0,0,0,0,0,0,0,0,-1,1560,701,0,0
343,323,0,0,0,0,0,0,0,0,0,-1,1567,701,0,0
350,323,0,0,0,0,0,0,0,0,0,-1,1574,701,0,0
357,323,0,0,0,0,0,0,0,0,0,-1,1581,701,0,0
364,323,0,0,0,0,0,0,0,0,0,-1,1588,701,0,0
371,323,0,0,0,0,0,0,0,0,0,-1,1595,701,0,0
378,323,0,0,0,0,0,0,0,0,0,-1,1602,701,0,0
385,323,0,0,0,0,0,0,0,0,0,-1,1609,701,0,0
392,323,0,0,0,0,0,0,0,0,0,-1,1616,701,0,0
399,323,0,0,0,0,0,0,0,0,0,-1,1623,701,0,0
406,323,0,0,0,0,0,0,0,0,0,-1,1630,701,0,0
413,323,0,0,0,0,0,0,0,0,0,-1,1637,701,0,0
420,323,0,0,0,0,0,0,0,0,0,-1,1644,701,0,0
427,323,0,0,0,0,0,0,0,0,0,-1,1651,701,0,0
434,323,0,0,0,0,0,0,0,0,0,-1,1658,701,0,0
441,323,0,0,0,0,0,0,0,0,0,-1,1665,701,0,0
448,323,0,0,0,0,0,0,0,0,0,-1,1672,701,0,0
455,323,0,0,0,0,0,0,0,0,0,-1,1679,701,0,0
462,323,0,0,0,0,0,0,0,0,0,-1,1686,701,0,0
469,323,0,0,0,0,0,0,0,0,0,-1,1693,701,0,0
476,323,0,0,0,0,0,0,0,0,0,-1,1700,701,0,0
483,323,0,0,0,0,0,0,0,0,0,-1,1707,701,0,0
490,323,0,0,0,0,0,0,0,0,0,-1,1714,701,0,0
497,323,0,0,0,0,0,0,0,0,0,-1,1721,701,0,0
504,323,0,0,0,0,0,0,0,0,0,-1,1728,701,0,0
511,323,0,0,0,0,0,0,0,0,0,-1,1735,701,0,0
518,323,0,0,0,0,0,0,0,0,0,-1,1742,701,0,0
525,323,0,0,0,0,0,0,0,0,0,-1,1749,701,0,0
532,323,22.2468,2.71307,0,0,0,0,0,0,0,-1,1756,701,22.2468,-2.71308
539,323,22.6949,3.42468,0,0,0,0,0,0,0,-1,1763,701,22.6949,-3.4247
546,323,23.5679,4.21869,0,0,0,0,0,0,0,-1,1770,701,23.5679,-4.21866
553,323,28.6703,3.07184,0,0,0,0,0,0,0,-1,1777,701,28.6703,-3.07183
560,323,30.0328,1.90747,0,0,0,0,0,0,0,-1,1784,701,30.0328,-1.9075
567,323,30.9888,1.33337,0,0,0,0,0,0,0,-1,1791,701,30.9888,-1.33339
574,323,12.514,5.89685,0,0,0,0,0,0,0,-1,1798,701,12.5141,-5.89683
581,323,11.821,5.3476,0,0,0,0,0,0,0,-1,1805,701,11.821,-5.34762
588,323,11.7933,7.00818,0,0,0,0,0,0,0,-1,1812,701,11.7933,-7.00819
595,323,6.67847,0.06604,0,0,0,0,0,0,0,-1,1819,701,6.67841,-0.0660418
602,323,11.2856,-0.595459,0,0,0,0,0,0,0,-1,1826,701,11.2856,0.595433
609,323,15.6086,-1.16217,0,0,0,0,0,0,0,-1,1833,701,15.6086,1.16215
616,323,15.6581,-0.801453,0.0102566,0.00223293,0.00863407,0.0157654,-0.00327584,0.567912,0.0117554,0.0149613,1840,701,15.6581,0.801446
623,323,15.67,-0.447815,0.00629522,0.000361183,0.00484784,0.00901193,-0.00235553,0.51079,0.00692792,0.01245,1847,701,15.67,0.447787
630,323,15.6637,-0.0990601,0.00313271,-0.000484293,0.00231493,0.00426182,-0.00161341,0.453802,0.00350506,0.0131096,1854,701,15.6637,0.0990542
637,323,15.6572,0.226563,0.000841006,-0.000607182,0.000419602,0.000953798,-0.000719974,0.262599,0.000969491,0.0103733,1861,701,15.6572,-0.226581
644,323,15.6473,0.545349,-0.000812973,-0.00072467,-0.000591756,-0.000175421,-0.00136222,-0.822635,0.000855689,0.00792903,1868,701,15.6473,-0.545327
651,323,15.6462,0.884033,-0.00190083,-0.000820449,-0.00106217,-0.000168995,-0.00255229,-1.02064,0.00164809,0.00999018,1875,701,15.6463,-0.884034
658,323,15.6117,1.21698,-0.00283953,-0.000737454,-0.0014127,-2.76985e-05,-0.00354929,-1.10522,0.00235701,0.013188,1882,701,15.6116,-1.217
665,323,15.5891,1.5318,-0.00384634,-0.000598308,-0.00177188,0.00018121,-0.00462586,-1.15634,0.00314605,0.0115631,1889,701,15.5891,-1.53179
672,323,15.6079,1.88678,-0.00473613,-0.000271153,-0.00199283,0.000488913,-0.00549619,-1.20643,0.0038375,0.0102678,1896,701,15.6079,-1.8868
679,323,15.5726,2.2608,-0.00552042,0.000270216,-0.00205903,0.000927708,-0.00617791,-1.26171,0.00446012,0.0213425,1903,701,15.5726,-2.26082
686,323,15.4557,2.50879,-0.0061458,0.000989866,-0.00193028,0.00147856,-0.0066345,-1.32283,0.00498942,0.0433677,1910,701,15.4557,-2.50876
693,323,15.3918,2.77374,0,0,0,0,0,0,0,-1,1917,701,15.3919,-2.77373
700,323,10.7705,0.828613,0,0,0,0,0,0,0,-1,1924,701,10.7705,-0.828591
707,323,16.9005,4.79193,0,0,0,0,0,0,0,-1,1931,701,16.9005,-4.7919
714,323,16.2346,6.25958,0,0,0,0,0,0,0,-1,1938,701,16.2346,-6.25956
721,323,0,0,0,0,0,0,0,0,0,-1,1945,701,0,0
728,323,0,0,0,0,0,0,0,0,0,-1,1952,701,0,0
735,323,0,0,0,0,0,0,0,0,0,-1,1959,701,0,0
742,323,0,0,0,0,0,0,0,0,0,-1,1966,701,0,0
749,323,0,0,0,0,0,0,0,0,0,-1,1973,701,0,0
756,323,0,0,0,0,0,0,0,0,0,-1,1980,701,0,0
763,323,0,0,0,0,0,0,0,0,0,-1,1987,701,0,0
770,323,0,0,0,0,0,0,0,0,0,-1,1994,701,0,0
777,323,0,0,0,0,0,0,0,0,0,-1,2001,701,0,0
784,323,0,0,0,0,0,0,0,0,0,-1,2008,701,0,0
791,323,0,0,0,0,0,0,0,0,0,-1,2015,701,0,0
798,323,0,0,0,0,0,0,0,0,0,-1,2022,701,0,0
805,323,0,0,0,0,0,0,0,0,0,-1,2029,701,0,0
812,323,0,0,0,0,0,0,0,0,0,-1,2036,701,0,0
-700,316,0,0,0,0,0,0,0,0,0,-1,524,708,0,0
-693,316,0,0,0,0,0,0,0,0,0,-1,531,708,0,0
-686,316,0,0,0,0,0,0,0,0,0,-1,538,708,0,0
-679,316,0,0,0,0,0,0,0,0,0,-1,545,708,0,0
-672,316,0,0,0,0,0,0,0,0,0,-1,552,708,0,0
-665,316,0,0,0,0,0,0,0,0,0,-1,559,708,0,0
-658,316,0,0,0,0,0,0,0,0,0,-1,566,708,0,0
-651,316,0,0,0,0,0,0,0,0,0,-1,573,708,0,0
-644,316,0,0,0,0,0,0,0,0,0,-1,580,708,0,0
-637,316,0,0,0,0,0,0,0,0,0,-1,587,708,0,0
-630,316,0,0,0,0,0,0,0,0,0,-1,594,708,0,0
-623,316,0,0,0,0,0,0,0,0,0,-1,601,708,0,0
-616,316,0,0,0,0,0,0,0,0,0,-1,608,708,0,0
-609,316,0,0,0,0,0,0,0,0,0,-1,615,708,0,0
-602,316,-0.451782,-0.0494995,0,0,0,0,0,0,0,-1,622,708,-0.451768,0.0495022
-595,316,-3.3761,2.17188,0,0,0,0,0,0,0,-1,629,708,-3.37609,-2.17189
-588,316,-5.00177,2.60675,0,0,0,0,0,0,0,-1,636,708,-5.00175,-2.60676
-581,316,-3.94653,0.393433,0,0,0,0,0,0,0,-1,643,708,-3.94655,-0.39342
-574,316,-7.51819,2.09735,0,0,0,0,0,0,0,-1,650,708,-7.51818,-2.09732
-567,316,-7.76483,1.01813,0,0,0,0,0,0,0,-1,657,708,-7.76483,-1.01811
-560,316,-8.80719,0.160583,0,0,0,0,0,0,0,-1,664,708,-8.80718,-0.160563
-553,316,-8.93304,0.0238647,-0.000455623,0.00809836,-0.00211472,0.0085926,-0.000949867,-1.3412,0.00606985,0.0332152,671,708,-8.93303,-0.0238519
-546,316,-9.08551,-0.112183,0.00062721,0.00650177,-0.00200564,0.0071212,7.7805e-06,-1.27124,0.00474488,0.0183807,678,708,-9.08552,0.112191
-539,316,-9.05237,-0.417358,0.00123496,0.00509807,-0.00174696,0.00577089,0.000562139,-1.20317,0.00367424,0.0135292,685,708,-9.05237,0.417374
-532,316,-9.06842,-0.737793,0.00154563,0.00375143,-0.00141403,0.00444181,0.000855243,-1.1166,0.0027213,0.0112999,692,708,-9.06841,0.737804
-525,316,-9.0675,-1.03577,0.00153871,0.00256795,-0.000964422,0.00314646,0.000960195,-1.03048,0.00186202,0.00925594,699,708,-9.06753,1.03578
-518,316,-9.04578,-1.35291,0.00144869,0.00164175,-0.000651976,0.0022043,0.000886138,-0.858892,0.00128078,0.00956029,706,708,-9.04576,1.35292
-511,316,-9.05371,-1.67114,0.0012089,0.00109679,-0.000236456,0.00139586,0.000909837,-0.669015,0.000818186,0.0103566,713,708,-9.05368,1.67114
-504,316,-9.07611,-1.99689,0.000693167,0.000579844,0.000257657,0.000900318,0.000372692,0.677166,0.000522358,0.0131388,720,708,-9.07611,1.99686
-497,316,-9.07892,-2.29187,2.76041e-05,0.000535647,0.000712103,0.00103768,-0.000474428,0.956723,0.000892976,0.0122856,727,708,-9.0789,2.29188
-490,316,-9.08594,-2.60559,-0.000585305,0.0010501,0.00111306,0.00161353,-0.00114874,1.1022,0.00160231,0.0156532,734,708,-9.08593,2.60559
-483,316,-9.02478,-2.98773,-0.00139784,0.0024161,0.00153549,0.00295745,-0.00193919,1.23184,0.00284738,0.0498819,741,708,-9.02475,2.98773
-476,316,-8.81793,-3.43005,0,0,0,0,0,0,0,-1,748,708,-8.81792,3.43005
-469,316,-6.24194,-1.42725,0,0,0,0,0,0,0,-1,755,708,-6.24192,1.42725
-462,316,-5.74237,-1.40039,0,0,0,0,0,0,0,-1,762,708,-5.74238,1.40039
-455,316,-5.44745,-1.21899,0,0,0,0,0,0,0,-1,769,708,-5.44746,1.21898
-448,316,-14.8945,0.655396,0,0,0,0,0,0,0,-1,776,708,-14.8946,-0.655396
-441,316,-14.9626,0.576111,0,0,0,0,0,0,0,-1,783,708,-14.9626,-0.576115
-434,316,-15.272,0.942993,0,0,0,0,0,0,0,-1,790,708,-15.272,-0.942979
-427,316,-14.6848,3.17792,0,0,0,0,0,0,0,-1,797,708,-14.6848,-3.1779
-420,316,-13.5587,2.737,0,0,0,0,0,0,0,-1,804,708,-13.5587,-2.73703
-413,316,0,0,0,0,0,0,0,0,0,-1,811,708,0,0
-406,316,0,0,0,0,0,0,0,0,0,-1,818,708,0,0
-399,316,0,0,0,0,0,0,0,0,0,-1,825,708,0,0
-392,316,0,0,0,0,0,0,0,0,0,-1,832,708,0,0
-385,316,0,0,0,0,0,0,0,0,0,-1,839,708,0,0
-378,316,0,0,0,0,0,0,0,0,0,-1,846,708,0,0
-371,316,0,0,0,0,0,0,0,0,0,-1,853,708,0,0
-364,316,0,0,0,0,0,0,0,0,0,-1,860,708,0,0
-357,316,0,0,0,0,0,0,0,0,0,-1,867,708,0,0
-350,316,0,0,0,0,0,0,0,0,0,-1,874,708,0,0
-343,316,0,0,0,0,0,0,0,0,0,-1,881,708,0,0
-336,316,0,0,0,0,0,0,0,0,0,-1,888,708,0,0
-329,316,0,0,0,0,0,0,0,0,0,-1,895,708,0,0
-322,316,0,0,0,0,0,0,0,0,0,-1,902,708,0,0
-315,316,0,0,0,0,0,0,0,0,0,-1,909,708,0,0
-308,316,0,0,0,0,0,0,0,0,0,-1,916,708,0,0
-301,316,0,0,0,0,0,0,0,0,0,-1,923,708,0,0
-294,316,0,0,0,0,0,0,0,0,0,-1,930,708,0,0
-287,316,0,0,0,0,0,0,0,0,0,-1,937,708,0,0
-280,316,0,0,0,0,0,0,0,0,0,-1,944,708,0,0
-273,316,0,0,0,0,0,0,0,0,0,-1,951,708,0,0
-266,316,0,0,0,0,0,0,0,0,0,-1,958,708,0,0
-259,316,0,0,0,0,0,0,0,0,0,-1,965,708,0,0
-252,316,0,0,0,0,0,0,0,0,0,-1,972,708,0,0
-245,316,0,0,0,0,0,0,0,0,0,-1,979,708,0,0
-238,316,0,0,0,0,0,0,0,0,0,-1,986,708,0,0
-231,316,0,0,0,0,0,0,0,0,0,-1,993,708,0,0
-224,316,0,0,0,0,0,0,0,0,0,-1,1000,708,0,0
-217,316,0,0,0,0,0,0,0,0,0,-1,1007,708,0,0
-210,316,0,0,0,0,0,0,0,0,0,-1,1014,708,0,0
-203,316,0,0,0,0,0,0,0,0,0,-1,1021,708,0,0
-196,316,0,0,0,0,0,0,0,0,0,-1,1028,708,0,0
-189,316,0,0,0,0,0,0,0,0,0,-1,1035,708,0,0
-182,316,0,0,0,0,0,0,0,0,0,-1,1042,708,0,0
-175,316,0,0,0,0,0,0,0,0,0,-1,1049,708,0,0
-168,316,0,0,0,0,0,0,0,0,0,-1,1056,708,0,0
-161,316,0,0,0,0,0,0,0,0,0,-1,1063,708,0,0
-154,316,0,0,0,0,0,0,0,0,0,-1,1070,708,0,0
-147,316,0,0,0,0,0,0,0,0,0,-1,1077,708,0,0
-140,316,0,0,0,0,0,0,0,0,0,-1,1084,708,0,0
-133,316,0,0,0,0,0,0,0,0,0,-1,1091,708,0,0
-126,316,0,0,0,0,0,0,0,0,0,-1,1098,708,0,0
-119,316,0,0,0,0,0,0,0,0,0,-1,1105,708,0,0
-112,316,0,0,0,0,0,0,0,0,0,-1,1112,708,0,0
-105,316,0,0,0,0,0,0,0,0,0,-1,1119,708,0,0
-98,316,0,0,0,0,0,0,0,0,0,-1,1126,708,0,0
-91,316,0,0,0,0,0,0,0,0,0,-1,1133,708,0,0
-84,316,0,0,0,0,0,0,0,0,0,-1,1140,708,0,0
-77,316,0,0,0,0,0,0,0,0,0,-1,1147,708,0,0
-70,316,0,0,0,0,0,0,0,0,0,-1,1154,708,0,0
-63,316,0,0,0,0,0,0,0,0,0,-1,1161,708,0,0
-56,316,0,0,0,0,0,0,0,0,0,-1,1168,708,0,0
-49,316,0,0,0,0,0,0,0,0,0,-1,1175,708,0,0
-42,316,0,0,0,0,0,0,0,0,0,-1,1182,708,0,0
-35,316,0,0,0,0,0,0,0,0,0,-1,1189,708,0,0
-28,316,0,0,0,0,0,0,0,0,0,-1,1196,708,0,0
-21,316,0,0,0,0,0,0,0,0,0,-1,1203,708,0,0
-14,316,0,0,0,0,0,0,0,0,0,-1,1210,708,0,0
-7,316,0,0,0,0,0,0,0,0,0,-1,1217,708,0,0
0,316,0,0,0,0,0,0,0,0,0,-1,1224,708,0,0
7,316,0,0,0,0,0,0,0,0,0,-1,1231,708,0,0
14,316,0,0,0,0,0,0,0,0,0,-1,1238,708,0,0
21,316,0,0,0,0,0,0,0,0,0,-1,1245,708,0,0
28,316,0,0,0,0,0,0,0,0,0,-1,1252,708,0,0
35,316,0,0,0,0,0,0,0,0,0,-1,1259,708,0,0
42,316,0,0,0,0,0,0,0,0,0,-1,1266,708,0,0
49,316,0,0,0,0,0,0,0,0,0,-1,1273,708,0,0
56,316,0,0,0,0,0,0,0,0,0,-1,1280,708,0,0
63,316,0,0,0,0,0,0,0,0,0,-1,1287,708,0,0
70,316,0,0,0,0,0,0,0,0,0,-1,1294,708,0,0
77,316,0,0,0,0,0,0,0,0,0,-1,1301,708,0,0
84,316,0,0,0,0,0,0,0,0,0,-1,1308,708,0,0
91,316,0,0,0,0,0,0,0,0,0,-1,1315,708,0,0
98,316,0,0,0,0,0,0,0,0,0,-1,1322,708,0,0
105,316,0,0,0,0,0,0,0,0,0,-1,1329,708,0,0
112,316,0,0,0,0,0,0,0,0,0,-1,1336,708,0,0
119,316,0,0,0,0,0,0,0,0,0,-1,1343,708,0,0
126,316,0,0,0,0,0,0,0,0,0,-1,1350,708,0,0
133,316,0,0,0,0,0,0,0,0,0,-1,1357,708,0,0
140,316,0,0,0,0,0,0,0,0,0,-1,1364,708,0,0
147,316,0,0,0,0,0,0,0,0,0,-1,1371,708,0,0
154,316,0,0,0,0,0,0,0,0,0,-1,1378,708,0,0
161,316,0,0,0,0,0,0,0,0,0,-1,1385,708,0,0
168,316,0,0,0,0,0,0,0,0,0,-1,1392,708,0,0
175,316,0,0,0,0,0,0,0,0,0,-1,1399,708,0,0
182,316,0,0,0,0,0,0,0,0,0,-1,1406,708,0,0
189,316,0,0,0,0,0,0,0,0,0,-1,1413,708,0,0
196,316,0,0,0,0,0,0,0,0,0,-1,1420,708,0,0
203,316,0,0,0,0,0,0,0,0,0,-1,1427,708,0,0
210,316,0,0,0,0,0,0,0,0,0,-1,1434,708,0,0
217,316,0,0,0,0,0,0,0,0,0,-1,1441,708,0,0
224,316,0,0,0,0,0,0,0,0,0,-1,1448,708,0,0
231,316,0,0,0,0,0,0,0,0,0,-1,1455,708,0,0
238,316,0,0,0,0,0,0,0,0,0,-1,1462,708,0,0
245,316,0,0,0,0,0,0,0,0,0,-1,1469,708,0,0
252,316,0,0,0,0,0,0,0,0,0,-1,1476,708,0,0
259,316,0,0,0,0,0,0,0,0,0,-1,1483,708,0,0
266,316,0,0,0,0,0,0,0,0,0,-1,1490,708,0,0
273,316,0,0,0,0,0,0,0,0,0,-1,1497,708,0,0
280,316,0,0,0,0,0,0,0,0,0,-1,1504,708,0,0
287,316,0,0,0,0,0,0,0,0,0,-1,1511,708,0,0
294,316,0,0,0,0,0,0,0,0,0,-1,1518,708,0,0
301,316,0,0,0,0,0,0,0,0,0,-1,1525,708,0,0
308,316,0,0,0,0,0,0,0,0,0,-1,1532,708,0,0
315,316,0,0,0,0,0,0,0,0,0,-1,1539,708,0,0
322,316,0,0,0,0,0,0,0,0,0,-1,1546,708,0,0
329,316,0,0,0,0,0,0,0,0,0,-1,1553,708,0,0
336,316,0,0,0,0,0,0,0,0,0,-1,1560,708,0,0
343,316,0,0,0,0,0,0,0,0,0,-1,1567,708,0,0
350,316,0,0,0,0,0,0,0,0,0,-1,1574,708,0,0
357,316,0,0,0,0,0,0,0,0,0,-1,1581,708,0,0
364,316,0,0,0,0,0,0,0,0,0,-1,1588,708,0,0
371,316,0,0,0,0,0,0,0,0,0,-1,1595,708,0,0
378,316,0,0,0,0,0,0,0,0,0,-1,1602,708,0,0
385,316,0,0,0,0,0,0,0,0,0,-1,1609,708,0,0
392,316,0,0,0,0,0,0,0,0,0,-1,1616,708,0,0
399,316,0,0,0,0,0,0,0,0,0,-1,1623,708,0,0
406,316,0,0,0,0,0,0,0,0,0,-1,1630,708,0,0
413,316,0,0,0,0,0,0,0,0,0,-1,1637,708,0,0
420,316,0,0,0,0,0,0,0,0,0,-1,1644,708,0,0
427,316,0,0,0,0,0,0,0,0,0,-1,1651,708,0,0
434,316,0,0,0,0,0,0,0,0,0,-1,1658,708,0,0
441,316,0,0,0,0,0,0,0,0,0,-1,1665,708,0,0
448,316,0,0,0,0,0,0,0,0,0,-1,1672,708,0,0
455,316,0,0,0,0,0,0,0,0,0,-1,1679,708,0,0
462,316,0,0,0,0,0,0,0,0,0,-1,1686,708,0,0
469,316,0,0,0,0,0,0,0,0,0,-1,1693,708,0,0
476,316,0,0,0,0,0,0,0,0,0,-1,1700,708,0,0
483,316,0,0,0,0,0,0,0,0,0,-1,1707,708,0,0
490,316,0,0,0,0,0,0,0,0,0,-1,1714,708,0,0
497,316,0,0,0,0,0,0,0,0,0,-1,1721,708,0,0
504,316,0,0,0,0,0,0,0,0,0,-1,1728,708,0,0
511,316,0,0,0,0,0,0,0,0,0,-1,1735,708,0,0
518,316,0,0,0,0,0,0,0,0,0,-1,1742,708,0,0
525,316,0,0,0,0,0,0,0,0,0,-1,1749,708,0,0
532,316,22.8335,1.74329,0,0,0,0,0,0,0,-1,1756,708,22.8335,-1.74327
539,316,23.8202,2.48529,0,0,0,0,0,0,0,-1,1763,708,23.8202,-2.48526
546,316,27.2035,2.64258,0,0,0,0,0,0,0,-1,1770,708,27.2035,-2.64257
553,316,27.7338,2.81726,0.121073,0.0392499,0.060425,0.153134,0.00718936,0.487814,0.0997792,0.0437609,1777,708,27.7337,-2.81723
560,316,28.7885,2.14148,0.100237,0.032169,0.0548009,0.130713,0.00169372,0.507521,0.0865826,0.0434014,1784,708,28.7884,-2.1415
567,316,29.8258,1.57428,0,0,0,0,0,0,0,-1,1791,708,29.8258,-1.57428
574,316,30.6538,1.13232,0,0,0,0,0,0,0,-1,1798,708,30.6539,-1.13233
581,316,23.7242,2.23938,0,0,0,0,0,0,0,-1,1805,708,23.7243,-2.23941
588,316,19.7659,2.90198,0,0,0,0,0,0,0,-1,1812,708,19.7659,-2.902
595,316,12.5363,1.50702,0,0,0,0,0,0,0,-1,1819,708,12.5363,-1.50701
602,316,7.79919,0.0422363,0,0,0,0,0,0,0,-1,1826,708,7.79923,-0.0422066
609,316,15.8579,-1.21332,0,0,0,0,0,0,0,-1,1833,708,15.8579,1.21334
616,316,15.9746,-0.797791,0.0123552,0.00263713,0.00881466,0.0175614,-0.00256905,0.533499,0.0126512,0.0205984,1840,708,15.9746,0.797816
623,316,16.0112,-0.444458,0.00799026,0.000190479,0.00498753,0.0104216,-0.00224087,0.453586,0.0078027,0.0107393,1847,708,16.0112,0.444473
630,316,15.9736,-0.128479,0.00428096,-0.000978075,0.00238432,0.005201,-0.00189811,0.368266,0.00424396,0.0121129,1854,708,15.9736,0.12846
637,316,15.9755,0.220703,0.00152218,-0.00106974,0.000228809,0.00154222,-0.00108978,0.0873773,0.00152705,0.0119025,1861,708,15.9754,-0.220732
644,316,15.9958,0.579773,-0.000291054,-0.00105338,-0.000731846,0.000152941,-0.00149737,-0.545315,0.00105294,0.0121873,1868,708,15.9959,-0.579744
651,316,15.9711,0.916199,-0.00124127,-0.000897355,-0.000950818,-0.000103069,-0.00203555,-0.874856,0.00132402,0.0134075,1875,708,15.9711,-0.91622
658,316,15.9733,1.242,-0.00193836,-0.000570995,-0.00112224,5.94218e-05,-0.00256877,-1.05898,0.00173266,0.0210967,1882,708,15.9732,-1.24201
665,316,15.9258,1.57813,-0.00268985,-0.000214169,-0.00129614,0.000340262,-0.00324428,-1.1666,0.00228473,0.0162335,1889,708,15.9258,-1.57813
672,316,15.9366,1.88391,-0.00330374,0.000392506,-0.00127657,0.000790535,-0.00370176,-1.26855,0.00276923,0.0120436,1896,708,15.9367,-1.8839
679,316,15.9617,2.26282,-0.00376144,0.00117618,-0.00110828,0.00141353,-0.00399879,-1.35982,0.00324145,0.0179236,1903,708,15.9617,-2.26283
686,316,15.7795,2.54535,-0.004071,0.00197807,-0.000799445,0.00208194,-0.00417487,-1.44159,0.00367912,0.0332781,1910,708,15.7795,-2.54534
693,316,15.4327,2.79138,0,0,0,0,0,0,0,-1,1917,708,15.4328,-2.79139
700,316,12.8749,2.89136,0,0,0,0,0,0,0,-1,1924,708,12.8748,-2.89137
707,316,15.7089,5.41486,0,0,0,0,0,0,0,-1,1931,708,15.7088,-5.41487
714,316,16.1727,5.52045,0,0,0,0,0,0,0,-1,1938,708,16.1728,-5.52042
721,316,16.7094,6.53351,0,0,0,0,0,0,0,-1,1945,708,16.7094,-6.5335
728,316,0,0,0,0,0,0,0,0,0,-1,1952,708,0,0
735,316,0,0,0,0,0,0,0,0,0,-1,1959,708,0,0
742,316,0,0,0,0,0,0,0,0,0,-1,1966,708,0,0
749,316,0,0,0,0,0,0,0,0,0,-1,1973,708,0,0
756,316,0,0,0,0,0,0,0,0,0,-1,1980,708,0,0
763,316,0,0,0,0,0,0,0,0,0,-1,1987,708,0,0
770,316,0,0,0,0,0,0,0,0,0,-1,1994,708,0,0
777,316,0,0,0,0,0,0,0,0,0,-1,2001,708,0,0
784,316,0,0,0,0,0,0,0,0,0,-1,2008,708,0,0
791,316,0,0,0,0,0,0,0,0,0,-1,2015,708,0,0
798,316,0,0,0,0,0,0,0,0,0,-1,2022,708,0,0
805,316,0,0,0,0,0,0,0,0,0,-1,2029,708,0,0
812,316,0,0,0,0,0,0,0,0,0,-1,2036,708,0,0
-700,309,0,0,0,0,0,0,0,0,0,-1,524,715,0,0
-693,309,0,0,0,0,0,0,0,0,0,-1,531,715,0,0
-686,309,0,0,0,0,0,0,0,0,0,-1,538,715,0,0
-679,309,0,0,0,0,0,0,0,0,0,-1,545,715,0,0
-672,309,0,0,0,0,0,0,0,0,0,-1,552,715,0,0
-665,309,0,0,0,0,0,0,0,0,0,-1,559,715,0,0
-658,309,0,0,0,0,0,0,0,0,0,-1,566,715,0,0
-651,309,0,0,0,0,0,0,0,0,0,-1,573,715,0,0
-644,309,0,0,0,0,0,0,0,0,0,-1,580,715,0,0
-637,309,0,0,0,0,0,0,0,0,0,-1,587,715,0,0
-630,309,0,0,0,0,0,0,0,0,0,-1,594,715,0,0
-623,309,0,0,0,0,0,0,0,0,0,-1,601,715,0,0
-616,309,0,0,0,0,0,0,0,0,0,-1,608,715,0,0
-609,309,-5.95392,-3.93689,0,0,0,0,0,0,0,-1,615,715,-5.95392,3.93686
-602,309,-4.99786,-3.31287,0,0,0,0,0,0,0,-1,622,715,-4.99786,3.31284
-595,309,-6.80847,2.4046,0,0,0,0,0,0,0,-1,629,715,-6.80845,-2.40458
-588,309,-6.08795,2.19324,0,0,0,0,0,0,0,-1,636,715,-6.08793,-2.19325
-581,309,-5.97552,1.3277,0,0,0,0,0,0,0,-1,643,715,-5.97552,-1.32769
-574,309,-8.49042,-0.105652,0,0,0,0,0,0,0,-1,650,715,-8.49044,0.105668
-567,309,-8.45062,-0.0786743,0,0,0,0,0,0,0,-1,657,715,-8.45061,0.078664
-560,309,-9.27197,0.0686035,0,0,0,0,0,0,0,-1,664,715,-9.27195,-0.0686182
-553,309,-9.31506,0.0848389,-0.00342011,0.00527001,0.000120935,0.00527169,-0.0034218,1.55688,0.00505692,0.0338279,671,715,-9.31504,-0.0848489
-546,309,-9.38281,-0.0968628,-0.0018264,0.00420938,-0.000219492,0.00421735,-0.00183438,-1.5345,0.00358312,0.0171198,678,715,-9.38282,0.0968884
-539,309,-9.37073,-0.422119,-0.00072618,0.00324116,-0.000359734,0.00327352,-0.000758535,-1.4811,0.00247426,0.0151268,685,715,-9.3707,0.422111
-532,309,-9.38672,-0.735962,3.5728e-05,0.00225935,-0.000367646,0.00231856,-2.34806e-05,-1.41112,0.00155359,0.0123733,692,715,-9.38673,0.735965
-525,309,-9.38495,-1.05127,0.000417952,0.00140681,-0.000177172,0.00143759,0.000387167,-1.39875,0.000858935,0.0150468,699,715,-9.38497,1.05125
-518,309,-9.38135,-1.35657,0.000597366,0.000841253,4.02121e-05,0.000847712,0.000590907,1.41153,0.000501938,0.0151266,706,715,-9.38132,1.35659
-511,309,-9.38885,-1.65717,0.00050607,0.000648498,0.000472965,0.00105558,9.89877e-05,0.860121,0.000673155,0.0115207,713,715,-9.38887,1.65719
-504,309,-9.38922,-1.97382,0.000101103,0.00048314,0.00107406,0.00138303,-0.00079879,0.873402,0.00127464,0.00984307,720,715,-9.38922,1.97384
-497,309,-9.3847,-2.28302,-0.000565408,0.000771176,0.0018239,0.00204536,-0.00183959,0.961007,0.00224403,0.0143728,727,715,-9.38472,2.28305
-490,309,-9.37152,-2.59485,-0.0012614,0.00164538,0.00270246,0.00326048,-0.0028765,1.03211,0.0035455,0.0334695,734,715,-9.37153,2.59486
-483,309,-9.1615,-3.10986,0,0,0,0,0,0,0,-1,741,715,-9.16152,3.10988
-476,309,-5.29486,-1.2262,0,0,0,0,0,0,0,-1,748,715,-5.29484,1.22622
-469,309,-4.22717,-0.592896,0,0,0,0,0,0,0,-1,755,715,-4.2272,0.592905
-462,309,-10.428,2.46948,0,0,0,0,0,0,0,-1,762,715,-10.428,-2.46947
-455,309,-15.8216,0.00915527,0,0,0,0,0,0,0,-1,769,715,-15.8216,-0.00913359
-448,309,-19.2673,1.19257,0,0,0,0,0,0,0,-1,776,715,-19.2673,-1.19254
-441,309,-19.8181,1.4425,0,0,0,0,0,0,0,-1,783,715,-19.8181,-1.44249
-434,309,-15.3519,1.06873,0,0,0,0,0,0,0,-1,790,715,-15.3519,-1.06874
-427,309,-15.1996,1.32141,0,0,0,0,0,0,0,-1,797,715,-15.1996,-1.3214
-420,309,-13.3781,3.26843,0,0,0,0,0,0,0,-1,804,715,-13.3781,-3.26842
-413,309,0,0,0,0,0,0,0,0,0,-1,811,715,0,0
-406,309,0,0,0,0,0,0,0,0,0,-1,818,715,0,0
-399,309,0,0,0,0,0,0,0,0,0,-1,825,715,0,0
-392,309,0,0,0,0,0,0,0,0,0,-1,832,715,0,0
-385,309,0,0,0,0,0,0,0,0,0,-1,839,715,0,0
-378,309,0,0,0,0,0,0,0,0,0,-1,846,715,0,0
-371,309,0,0,0,0,0,0,0,0,0,-1,853,715,0,0
-364,309,0,0,0,0,0,0,0,0,0,-1,860,715,0,0
-357,309,0,0,0,0,0,0,0,0,0,-1,867,715,0,0
-350,309,0,0,0,0,0,0,0,0,0,-1,874,715,0,0
-343,309,0,0,0,0,0,0,0,0,0,-1,881,715,0,0
-336,309,0,0,0,0,0,0,0,0,0,-1,888,715,0,0
-329,309,0,0,0,0,0,0,0,0,0,-1,895,715,0,0
-322,309,0,0,0,0,0,0,0,0,0,-1,902,715,0,0
-315,309,0,0,0,0,0,0,0,0,0,-1,909,715,0,0
-308,309,0,0,0,0,0,0,0,0,0,-1,916,715,0,0
-301,309,0,0,0,0,0,0,0,0,0,-1,923,715,0,0
-294,309,0,0,0,0,0,0,0,0,0,-1,930,715,0,0
-287,309,0,0,0,0,0,0,0,0,0,-1,937,715,0,0
-280,309,0,0,0,0,0,0,0,0,0,-1,944,715,0,0
-273,309,0,0,0,0,0,0,0,0,0,-1,951,715,0,0
-266,309,0,0,0,0,0,0,0,0,0,-1,958,715,0,0
-259,309,0,0,0,0,0,0,0,0,0,-1,965,715,0,0
-252,309,0,0,0,0,0,0,0,0,0,-1,972,715,0,0
-245,309,0,0,0,0,0,0,0,0,0,-1,979,715,0,0
-238,309,0,0,0,0,0,0,0,0,0,-1,986,715,0,0
-231,309,0,0,0,0,0,0,0,0,0,-1,993,715,0,0
-224,309,0,0,0,0,0,0,0,0,0,-1,1000,715,0,0
-217,309,0,0,0,0,0,0,0,0,0,-1,1007,715,0,0
-210,309,0,0,0,0,0,0,0,0,0,-1,1014,715,0,0
-203,309,0,0,0,0,0,0,0,0,0,-1,1021,715,0,0
-196,309,0,0,0,0,0,0,0,0,0,-1,1028,715,0,0
-189,309,0,0,0,0,0,0,0,0,0,-1,1035,715,0,0
-182,309,0,0,0,0,0,0,0,0,0,-1,1042,715,0,0
-175,309,0,0,0,0,0,0,0,0,0,-1,1049,715,0,0
-168,309,0,0,0,0,0,0,0,0,0,-1,1056,715,0,0
-161,309,0,0,0,0,0,0,0,0,0,-1,1063,715,0,0
-154,309,0,0,0,0,0,0,0,0,0,-1,1070,715,0,0
-147,309,0,0,0,0,0,0,0,0,0,-1,1077,715,0,0
-140,309,0,0,0,0,0,0,0,0,0,-1,1084,715,0,0
-133,309,0,0,0,0,0,0,0,0,0,-1,1091,715,0,0
-126,309,0,0,0,0,0,0,0,0,0,-1,1098,715,0,0
-119,309,0,0,0,0,0,0,0,0,0,-1,1105,715,0,0
-112,309,0,0,0,0,0,0,0,0,0,-1,1112,715,0,0
-105,309,0,0,0,0,0,0,0,0,0,-1,1119,715,0,0
-98,309,0,0,0,0,0,0,0,0,0,-1,1126,715,0,0
-91,309,0,0,0,0,0,0,0,0,0,-1,1133,715,0,0
-84,309,0,0,0,0,0,0,0,0,0,-1,1140,715,0,0
-77,309,0,0,0,0,0,0,0,0,0,-1,1147,715,0,0
-70,309,0,0,0,0,0,0,0,0,0,-1,1154,715,0,0
-63,309,0,0,0,0,0,0,0,0,0,-1,1161,715,0,0
-56,309,0,0,0,0,0,0,0,0,0,-1,1168,715,0,0
-49,309,0,0,0,0,0,0,0,0,0,-1,1175,715,0,0
-42,309,0,0,0,0,0,0,0,0,0,-1,1182,715,0,0
-35,309,0,0,0,0,0,0,0,0,0,-1,1189,715,0,0
-28,309,0,0,0,0,0,0,0,0,0,-1,1196,715,0,0
-21,309,0,0,0,0,0,0,0,0,0,-1,1203,715,0,0
-14,309,0,0,0,0,0,0,0,0,0,-1,1210,715,0,0
-7,309,0,0,0,0,0,0,0,0,0,-1,1217,715,0,0
0,309,0,0,0,0,0,0,0,0,0,-1,1224,715,0,0
7,309,0,0,0,0,0,0,0,0,0,-1,1231,715,0,0
14,309,0,0,0,0,0,0,0,0,0,-1,1238,715,0,0
21,309,0,0,0,0,0,0,0,0,0,-1,1245,715,0,0
28,309,0,0,0,0,0,0,0,0,0,-1,1252,715,0,0
35,309,0,0,0,0,0,0,0,0,0,-1,1259,715,0,0
42,309,0,0,0,0,0,0,0,0,0,-1,1266,715,0,0
49,309,0,0,0,0,0,0,0,0,0,-1,1273,715,0,0
56,309,0,0,0,0,0,0,0,0,0,-1,1280,715,0,0
63,309,0,0,0,0,0,0,0,0,0,-1,1287,715,0,0
70,309,0,0,0,0,0,0,0,0,0,-1,1294,715,0,0
77,309,0,0,0,0,0,0,0,0,0,-1,1301,715,0,0
84,309,0,0,0,0,0,0,0,0,0,-1,1308,715,0,0
91,309,0,0,0,0,0,0,0,0,0,-1,1315,715,0,0
98,309,0,0,0,0,0,0,0,0,0,-1,1322,715,0,0
105,309,0,0,0,0,0,0,0,0,0,-1,1329,715,0,0
112,309,0,0,0,0,0,0,0,0,0,-1,1336,715,0,0
119,309,0,0,0,0,0,0,0,0,0,-1,1343,715,0,0
126,309,0,0,0,0,0,0,0,0,0,-1,1350,715,0,0
133,309,0,0,0,0,0,0,0,0,0,-1,1357,715,0,0
140,309,0,0,0,0,0,0,0,0,0,-1,1364,715,0,0
147,309,0,0,0,0,0,0,0,0,0,-1,1371,715,0,0
154,309,0,0,0,0,0,0,0,0,0,-1,1378,715,0,0
161,309,0,0,0,0,0,0,0,0,0,-1,1385,715,0,0
168,309,0,0,0,0,0,0,0,0,0,-1,1392,715,0,0
175,309,0,0,0,0,0,0,0,0,0,-1,1399,715,0,0
182,309,0,0,0,0,0,0,0,0,0,-1,1406,715,0,0
189,309,0,0,0,0,0,0,0,0,0,-1,1413,715,0,0
196,309,0,0,0,0,0,0,0,0,0,-1,1420,715,0,0
203,309,0,0,0,0,0,0,0,0,0,-1,1427,715,0,0
210,309,0,0,0,0,0,0,0,0,0,-1,1434,715,0,0
217,309,0,0,0,0,0,0,0,0,0,-1,1441,715,0,0
224,309,0,0,0,0,0,0,0,0,0,-1,1448,715,0,0
231,309,0,0,0,0,0,0,0,0,0,-1,1455,715,0,0
238,309,0,0,0,0,0,0,0,0,0,-1,1462,715,0,0
245,309,0,0,0,0,0,0,0,0,0,-1,1469,715,0,0
252,309,0,0,0,0,0,0,0,0,0,-1,1476,715,0,0
259,309,0,0,0,0,0,0,0,0,0,-1,1483,715,0,0
266,309,0,0,0,0,0,0,0,0,0,-1,1490,715,0,0
273,309,0,0,0,0,0,0,0,0,0,-1,1497,715,0,0
280,309,0,0,0,0,0,0,0,0,0,-1,1504,715,0,0
287,309,0,0,0,0,0,0,0,0,0,-1,1511,715,0,0
294,309,0,0,0,0,0,0,0,0,0,-1,1518,715,0,0
301,309,0,0,0,0,0,0,0,0,0,-1,1525,715,0,0
308,309,0,0,0,0,0,0,0,0,0,-1,1532,715,0,0
315,309,0,0,0,0,0,0,0,0,0,-1,1539,715,0,0
322,309,0,0,0,0,0,0,0,0,0,-1,1546,715,0,0
329,309,0,0,0,0,0,0,0,0,0,-1,1553,715,0,0
336,309,0,0,0,0,0,0,0,0,0,-1,1560,715,0,0
343,309,0,0,0,0,0,0,0,0,0,-1,1567,715,0,0
350,309,0,0,0,0,0,0,0,0,0,-1,1574,715,0,0
357,309,0,0,0,0,0,0,0,0,0,-1,1581,715,0,0
364,309,0,0,0,0,0,0,0,0,0,-1,1588,715,0,0
371,309,0,0,0,0,0,0,0,0,0,-1,1595,715,0,0
378,309,0,0,0,0,0,0,0,0,0,-1,1602,715,0,0
385,309,0,0,0,0,0,0,0,0,0,-1,1609,715,0,0
392,309,0,0,0,0,0,0,0,0,0,-1,1616,715,0,0
399,309,0,0,0,0,0,0,0,0,0,-1,1623,715,0,0
406,309,0,0,0,0,0,0,0,0,0,-1,1630,715,0,0
413,309,0,0,0,0,0,0,0,0,0,-1,1637,715,0,0
420,309,0,0,0,0,0,0,0,0,0,-1,1644,715,0,0
427,309,0,0,0,0,0,0,0,0,0,-1,1651,715,0,0
434,309,0,0,0,0,0,0,0,0,0,-1,1658,715,0,0
441,309,0,0,0,0,0,0,0,0,0,-1,1665,715,0,0
448,309,0,0,0,0,0,0,0,0,0,-1,1672,715,0,0
455,309,0,0,0,0,0,0,0,0,0,-1,1679,715,0,0
462,309,0,0,0,0,0,0,0,0,0,-1,1686,715,0,0
469,309,0,0,0,0,0,0,0,0,0,-1,1693,715,0,0
476,309,0,0,0,0,0,0,0,0,0,-1,1700,715,0,0
483,309,0,0,0,0,0,0,0,0,0,-1,1707,715,0,0
490,309,0,0,0,0,0,0,0,0,0,-1,1714,715,0,0
497,309,0,0,0,0,0,0,0,0,0,-1,1721,715,0,0
504,309,0,0,0,0,0,0,0,0,0,-1,1728,715,0,0
511,309,0,0,0,0,0,0,0,0,0,-1,1735,715,0,0
518,309,0,0,0,0,0,0,0,0,0,-1,1742,715,0,0
525,309,0,0,0,0,0,0,0,0,0,-1,1749,715,0,0
532,309,0,0,0,0,0,0,0,0,0,-1,1756,715,0,0
539,309,23.7823,1.90894,0,0,0,0,0,0,0,-1,1763,715,23.7823,-1.90896
546,309,26.2792,2.49823,0,0,0,0,0,0,0,-1,1770,715,26.2792,-2.49821
553,309,26.8336,2.63495,0.11809,0.0431152,0.0633543,0.154217,0.00698814,0.518249,0.100563,0.0398776,1777,715,26.8336,-2.63496
560,309,27.5536,2.32672,0.100801,0.0349276,0.0585236,0.135019,0.000708826,0.529093,0.0897775,0.0412466,1784,715,27.5536,-2.3267
567,309,27.9944,3.16217,0,0,0,0,0,0,0,-1,1791,715,27.9944,-3.16219
574,309,28.6277,3.22412,0,0,0,0,0,0,0,-1,1798,715,28.6277,-3.22413
581,309,28.7903,3.70422,0,0,0,0,0,0,0,-1,1805,715,28.7903,-3.70421
588,309,24.2113,3.86719,0,0,0,0,0,0,0,-1,1812,715,24.2113,-3.86717
595,309,19.585,3.71558,0,0,0,0,0,0,0,-1,1819,715,19.5849,-3.71555
602,309,11.0811,3.47772,0,0,0,0,0,0,0,-1,1826,715,11.0811,-3.47772
609,309,16.1005,-1.30237,0,0,0,0,0,0,0,-1,1833,715,16.1004,1.30237
616,309,16.2556,-0.836853,0.0137401,0.0032609,0.00915976,0.0190529,-0.00205198,0.525602,0.0134383,0.0305031,1840,715,16.2556,0.836861
623,309,16.347,-0.432373,0.00928338,0.000483927,0.00539751,0.0118472,-0.00207987,0.443446,0.00867492,0.0114996,1847,715,16.347,0.432393
630,309,16.3098,-0.111267,0.00533877,-0.00104315,0.00282266,0.00640805,-0.00211243,0.362115,0.00512345,0.0103616,1854,715,16.3098,0.111264
637,309,16.3024,0.235779,0.00223903,-0.00122332,0.000390511,0.00228253,-0.00126682,0.110931,0.002077,0.0133117,1861,715,16.3024,-0.235784
644,309,16.2938,0.58783,0.00027765,-0.001219,-0.000605657,0.000492035,-0.00143339,-0.340208,0.00115508,0.0146889,1868,715,16.2938,-0.587846
651,309,16.2883,0.918091,-0.000520318,-0.000902392,-0.000661798,-2.25364e-05,-0.00140017,-0.644886,0.000926029,0.0132471,1875,715,16.2883,-0.918083
658,309,16.2963,1.24261,-0.000970534,-0.000431869,-0.000754606,0.000100029,-0.00150243,-0.95681,0.00103657,0.0183693,1882,715,16.2963,-1.24263
665,309,16.2886,1.57813,-0.00148498,6.42979e-05,-0.000834969,0.000428623,-0.0018493,-1.15937,0.00139782,0.0163246,1889,715,16.2886,-1.57812
672,309,16.2961,1.91229,-0.00191191,0.000837031,-0.000713429,0.00101116,-0.00208604,-1.33141,0.00182371,0.0136805,1896,715,16.2962,-1.91231
679,309,16.3127,2.25378,-0.00216739,0.00173455,-0.000471059,0.00179061,-0.00222345,-1.45234,0.00232201,0.0145478,1903,715,16.3128,-2.2538
686,309,16.262,2.55695,-0.00226611,0.00265257,-0.000103446,0.00265475,-0.00226829,-1.54978,0.00284523,0.0234897,1910,715,16.2619,-2.55693
693,309,15.9298,2.7749,-0.00191861,0.00423513,0.000709041,0.00431577,-0.00199925,1.45755,0.00372685,0.040278,1917,715,15.9298,-2.77487
700,309,15.7537,3.0249,0,0,0,0,0,0,0,-1,1924,715,15.7537,-3.02493
707,309,15.6318,4.58655,0,0,0,0,0,0,0,-1,1931,715,15.6318,-4.58657
714,309,16.7573,6.68286,0,0,0,0,0,0,0,-1,1938,715,16.7574,-6.68284
721,309,16.8337,5.4458,0,0,0,0,0,0,0,-1,1945,715,16.8338,-5.44582
728,309,0,0,0,0,0,0,0,0,0,-1,1952,715,0,0
735,309,0,0,0,0,0,0,0,0,0,-1,1959,715,0,0
742,309,0,0,0,0,0,0,0,0,0,-1,1966,715,0,0
749,309,0,0,0,0,0,0,0,0,0,-1,1973,715,0,0
756,309,0,0,0,0,0,0,0,0,0,-1,1980,715,0,0
763,309,0,0,0,0,0,0,0,0,0,-1,1987,715,0,0
770,309,0,0,0,0,0,0,0,0,0,-1,1994,715,0,0
777,309,0,0,0,0,0,0,0,0,0,-1,2001,715,0,0
784,309,0,0,0,0,0,0,0,0,0,-1,2008,715,0,0
791,309,0,0,0,0,0,0,0,0,0,-1,2015,715,0,0
798,309,0,0,0,0,0,0,0,0,0,-1,2022,715,0,0
805,309,0,0,0,0,0,0,0,0,0,-1,2029,715,0,0
812,309,0,0,0,0,0,0,0,0,0,-1,2036,715,0,0
-700,302,0,0,0,0,0,0,0,0,0,-1,524,722,0,0
-693,302,0,0,0,0,0,0,0,0,0,-1,531,722,0,0
-686,302,0,0,0,0,0,0,0,0,0,-1,538,722,0,0
-679,302,0,0,0,0,0,0,0,0,0,-1,545,722,0,0
-672,302,0,0,0,0,0,0,0,0,0,-1,552,722,0,0
-665,302,0,0,0,0,0,0,0,0,0,-1,559,722,0,0
-658,302,0,0,0,0,0,0,0,0,0,-1,566,722,0,0
-651,302,0,0,0,0,0,0,0,0,0,-1,573,722,0,0
-644,302,0,0,0,0,0,0,0,0,0,-1,580,722,0,0
-637,302,0,0,0,0,0,0,0,0,0,-1,587,722,0,0
-630,302,0,0,0,0,0,0,0,0,0,-1,594,722,0,0
-623,302,0,0,0,0,0,0,0,0,0,-1,601,722,0,0
-616,302,0,0,0,0,0,0,0,0,0,-1,608,722,0,0
-609,302,-7.79266,-3.71649,0,0,0,0,0,0,0,-1,615,722,-7.79267,3.7165
-602,302,0.92865,-1.99158,0,0,0,0,0,0,0,-1,622,722,0.928637,1.99157
-595,302,-7.89941,2.13641,0,0,0,0,0,0,0,-1,629,722,-7.89939,-2.13639
-588,302,-7.10895,1.79163,0,0,0,0,0,0,0,-1,636,722,-7.10896,-1.79163
-581,302,-8.59845,0.402344,0,0,0,0,0,0,0,-1,643,722,-8.59848,-0.402343
-574,302,-8.55273,0.37439,0,0,0,0,0,0,0,-1,650,722,-8.55276,-0.374384
-567,302,-8.89014,0.224731,-0.00862119,0.004856,0.00242465,0.00527894,-0.00904413,1.3981,0.00836412,0.0483747,657,722,-8.89012,-0.224715
-560,302,-9.39551,0.262878,-0.00646719,0.00392158,0.00181959,0.00423106,-0.00677668,1.40233,0.00641172,0.0484275,664,722,-9.39549,-0.262896
-553,302,-9.67548,0.22467,-0.00481711,0.00313179,0.00138723,0.00336693,-0.00505225,1.40289,0.00489317,0.0198038,671,722,-9.67545,-0.22466
-546,302,-9.68182,-0.108582,-0.00325696,0.00252568,0.000855391,0.00264956,-0.00338084,1.42697,0.00349018,0.014973,678,722,-9.68181,0.108597
-539,302,-9.70782,-0.393982,-0.00195856,0.00185826,0.000503417,0.00192354,-0.00202384,1.44184,0.00227927,0.0146256,685,722,-9.70785,0.393995
-532,302,-9.70074,-0.720581,-0.000979304,0.00111633,0.000320279,0.00116419,-0.00102716,1.42247,0.001266,0.0139229,692,722,-9.70073,0.720571
-525,302,-9.67493,-1.06537,-0.00039175,0.000484984,0.000365008,0.000617052,-0.000523819,1.22363,0.000659415,0.0193923,699,722,-9.67495,1.06538
-518,302,-9.71045,-1.35638,-0.000146881,0.000191418,0.000596434,0.000642224,-0.000597687,0.92357,0.000716017,0.0193808,706,722,-9.71048,1.35637
-511,302,-9.72144,-1.63751,-0.000263359,0.000264946,0.00110923,0.00114104,-0.00113945,0.902291,0.00131665,0.0100434,713,722,-9.72143,1.63753
-504,302,-9.70715,-1.97021,-0.000658582,0.000370619,0.00183802,0.00176472,-0.00205269,0.921891,0.00220607,0.00961527,720,722,-9.70715,1.97019
-497,302,-9.7168,-2.2746,-0.00140418,0.000936445,0.00283825,0.00283619,-0.00330393,0.980946,0.00354843,0.0143419,727,722,-9.7168,2.2746
-490,302,-9.60016,-2.52521,-0.0022405,0.00208414,0.00404606,0.00450943,-0.0046658,1.0308,0.00529758,0.048456,734,722,-9.60016,2.5252
-483,302,-9.1344,-2.62775,0,0,0,0,0,0,0,-1,741,722,-9.13438,2.62777
-476,302,-4.29749,-0.203491,0,0,0,0,0,0,0,-1,748,722,-4.29751,0.203464
-469,302,-12.369,1.42859,0,0,0,0,0,0,0,-1,755,722,-12.3689,-1.42857
-462,302,-17.4766,0.310791,0,0,0,0,0,0,0,-1,762,722,-17.4766,-0.310788
-455,302,-17.8736,1.4895,0,0,0,0,0,0,0,-1,769,722,-17.8736,-1.48952
-448,302,-18.8477,1.4176,0,0,0,0,0,0,0,-1,776,722,-18.8476,-1.41757
-441,302,-19.3027,1.54785,0,0,0,0,0,0,0,-1,783,722,-19.3027,-1.54786
-434,302,-19.7321,1.78467,0,0,0,0,0,0,0,-1,790,722,-19.732,-1.78469
-427,302,-15.3611,1.80798,0,0,0,0,0,0,0,-1,797,722,-15.3611,-1.80801
-420,302,0,0,0,0,0,0,0,0,0,-1,804,722,0,0
-413,302,0,0,0,0,0,0,0,0,0,-1,811,722,0,0
-406,302,0,0,0,0,0,0,0,0,0,-1,818,722,0,0
-399,302,0,0,0,0,0,0,0,0,0,-1,825,722,0,0
-392,302,0,0,0,0,0,0,0,0,0,-1,832,722,0,0
-385,302,0,0,0,0,0,0,0,0,0,-1,839,722,0,0
-378,302,0,0,0,0,0,0,0,0,0,-1,846,722,0,0
-371,302,0,0,0,0,0,0,0,0,0,-1,853,722,0,0
-364,302,0,0,0,0,0,0,0,0,0,-1,860,722,0,0
-357,302,0,0,0,0,0,0,0,0,0,-1,867,722,0,0
-350,302,0,0,0,0,0,0,0,0,0,-1,874,722,0,0
-343,302,0,0,0,0,0,0,0,0,0,-1,881,722,0,0
-336,302,0,0,0,0,0,0,0,0,0,-1,888,722,0,0
-329,302,0,0,0,0,0,0,0,0,0,-1,895,722,0,0
-322,302,0,0,0,0,0,0,0,0,0,-1,902,722,0,0
-315,302,0,0,0,0,0,0,0,0,0,-1,909,722,0,0
-308,302,0,0,0,0,0,0,0,0,0,-1,916,722,0,0
-301,302,0,0,0,0,0,0,0,0,0,-1,923,722,0,0
-294,302,0,0,0,0,0,0,0,0,0,-1,930,722,0,0
-287,302,0,0,0,0,0,0,0,0,0,-1,937,722,0,0
-280,302,0,0,0,0,0,0,0,0,0,-1,944,722,0,0
-273,302,0,0,0,0,0,0,0,0,0,-1,951,722,0,0
-266,302,0,0,0,0,0,0,0,0,0,-1,958,722,0,0
-259,302,0,0,0,0,0,0,0,0,0,-1,965,722,0,0
-252,302,0,0,0,0,0,0,0,0,0,-1,972,722,0,0
-245,302,0,0,0,0,0,0,0,0,0,-1,979,722,0,0
-238,302,0,0,0,0,0,0,0,0,0,-1,986,722,0,0
-231,302,0,0,0,0,0,0,0,0,0,-1,993,722,0,0
-224,302,0,0,0,0,0,0,0,0,0,-1,1000,722,0,0
-217,302,0,0,0,0,0,0,0,0,0,-1,1007,722,0,0
-210,302,0,0,0,0,0,0,0,0,0,-1,1014,722,0,0
-203,302,0,0,0,0,0,0,0,0,0,-1,1021,722,0,0
-196,302,0,0,0,0,0,0,0,0,0,-1,1028,722,0,0
-189,302,0,0,0,0,0,0,0,0,0,-1,1035,722,0,0
-182,302,0,0,0,0,0,0,0,0,0,-1,1042,722,0,0
-175,302,0,0,0,0,0,0,0,0,0,-1,1049,722,0,0
-168,302,0,0,0,0,0,0,0,0,0,-1,1056,722,0,0
-161,302,0,0,0,0,0,0,0,0,0,-1,1063,722,0,0
-154,302,0,0,0,0,0,0,0,0,0,-1,1070,722,0,0
-147,302,0,0,0,0,0,0,0,0,0,-1,1077,722,0,0
-140,302,0,0,0,0,0,0,0,0,0,-1,1084,722,0,0
-133,302,0,0,0,0,0,0,0,0,0,-1,1091,722,0,0
-126,302,0,0,0,0,0,0,0,0,0,-1,1098,722,0,0
-119,302,0,0,0,0,0,0,0,0,0,-1,1105,722,0,0
-112,302,0,0,0,0,0,0,0,0,0,-1,1112,722,0,0
-105,302,0,0,0,0,0,0,0,0,0,-1,1119,722,0,0
-98,302,0,0,0,0,0,0,0,0,0,-1,1126,722,0,0
-91,302,0,0,0,0,0,0,0,0,0,-1,1133,722,0,0
-84,302,0,0,0,0,0,0,0,0,0,-1,1140,722,0,0
-77,302,0,0,0,0,0,0,0,0,0,-1,1147,722,0,0
-70,302,0,0,0,0,0,0,0,0,0,-1,1154,722,0,0
-63,302,0,0,0,0,0,0,0,0,0,-1,1161,722,0,0
-56,302,0,0,0,0,0,0,0,0,0,-1,1168,722,0,0
-49,302,0,0,0,0,0,0,0,0,0,-1,1175,722,0,0
-42,302,0,0,0,0,0,0,0,0,0,-1,1182,722,0,0
-35,302,0,0,0,0,0,0,0,0,0,-1,1189,722,0,0
-28,302,0,0,0,0,0,0,0,0,0,-1,1196,722,0,0
-21,302,0,0,0,0,0,0,0,0,0,-1,1203,722,0,0
-14,302,0,0,0,0,0,0,0,0,0,-1,1210,722,0,0
-7,302,0,0,0,0,0,0,0,0,0,-1,1217,722,0,0
0,302,0,0,0,0,0,0,0,0,0,-1,1224,722,0,0
7,302,0,0,0,0,0,0,0,0,0,-1,1231,722,0,0
14,302,0,0,0,0,0,0,0,0,0,-1,1238,722,0,0
21,302,0,0,0,0,0,0,0,0,0,-1,1245,722,0,0
28,302,0,0,0,0,0,0,0,0,0,-1,1252,722,0,0
35,302,0,0,0,0,0,0,0,0,0,-1,1259,722,0,0
42,302,0,0,0,0,0,0,0,0,0,-1,1266,722,0,0
49,302,0,0,0,0,0,0,0,0,0,-1,1273,722,0,0
56,302,0,0,0,0,0,0,0,0,0,-1,1280,722,0,0
63,302,0,0,0,0,0,0,0,0,0,-1,1287,722,0,0
70,302,0,0,0,0,0,0,0,0,0,-1,1294,722,0,0
77,302,0,0,0,0,0,0,0,0,0,-1,1301,722,0,0
84,302,0,0,0,0,0,0,0,0,0,-1,1308,722,0,0
91,302,0,0,0,0,0,0,0,0,0,-1,1315,722,0,0
98,302,0,0,0,0,0,0,0,0,0,-1,1322,722,0,0
105,302,0,0,0,0,0,0,0,0,0,-1,1329,722,0,0
112,302,0,0,0,0,0,0,0,0,0,-1,1336,722,0,0
119,302,0,0,0,0,0,0,0,0,0,-1,1343,722,0,0
126,302,0,0,0,0,0,0,0,0,0,-1,1350,722,0,0
133,302,0,0,0,0,0,0,0,0,0,-1,1357,722,0,0
140,302,0,0,0,0,0,0,0,0,0,-1,1364,722,0,0
147,302,0,0,0,0,0,0,0,0,0,-1,1371,722,0,0
154,302,0,0,0,0,0,0,0,0,0,-1,1378,722,0,0
161,302,0,0,0,0,0,0,0,0,0,-1,1385,722,0,0
168,302,0,0,0,0,0,0,0,0,0,-1,1392,722,0,0
175,302,0,0,0,0,0,0,0,0,0,-1,1399,722,0,0
182,302,0,0,0,0,0,0,0,0,0,-1,1406,722,0,0
189,302,0,0,0,0,0,0,0,0,0,-1,1413,722,0,0
196,302,0,0,0,0,0,0,0,0,0,-1,1420,722,0,0
203,302,0,0,0,0,0,0,0,0,0,-1,1427,722,0,0
210,302,0,0,0,0,0,0,0,0,0,-1,1434,722,0,0
217,302,0,0,0,0,0,0,0,0,0,-1,1441,722,0,0
224,302,0,0,0,0,0,0,0,0,0,-1,1448,722,0,0
231,302,0,0,0,0,0,0,0,0,0,-1,1455,722,0,0
238,302,0,0,0,0,0,0,0,0,0,-1,1462,722,0,0
245,302,0,0,0,0,0,0,0,0,0,-1,1469,722,0,0
252,302,0,0,0,0,0,0,0,0,0,-1,1476,722,0,0
259,302,0,0,0,0,0,0,0,0,0,-1,1483,722,0,0
266,302,0,0,0,0,0,0,0,0,0,-1,1490,722,0,0
273,302,0,0,0,0,0,0,0,0,0,-1,1497,722,0,0
280,302,0,0,0,0,0,0,0,0,0,-1,1504,722,0,0
287,302,0,0,0,0,0,0,0,0,0,-1,1511,722,0,0
294,302,0,0,0,0,0,0,0,0,0,-1,1518,722,0,0
301,302,0,0,0,0,0,0,0,0,0,-1,1525,722,0,0
308,302,0,0,0,0,0,0,0,0,0,-1,1532,722,0,0
315,302,0,0,0,0,0,0,0,0,0,-1,1539,722,0,0
322,302,0,0,0,0,0,0,0,0,0,-1,1546,722,0,0
329,302,0,0,0,0,0,0,0,0,0,-1,1553,722,0,0
336,302,0,0,0,0,0,0,0,0,0,-1,1560,722,0,0
343,302,0,0,0,0,0,0,0,0,0,-1,1567,722,0,0
350,302,0,0,0,0,0,0,0,0,0,-1,1574,722,0,0
357,302,0,0,0,0,0,0,0,0,0,-1,1581,722,0,0
364,302,0,0,0,0,0,0,0,0,0,-1,1588,722,0,0
371,302,0,0,0,0,0,0,0,0,0,-1,1595,722,0,0
378,302,0,0,0,0,0,0,0,0,0,-1,1602,722,0,0
385,302,0,0,0,0,0,0,0,0,0,-1,1609,722,0,0
392,302,0,0,0,0,0,0,0,0,0,-1,1616,722,0,0
399,302,0,0,0,0,0,0,0,0,0,-1,1623,722,0,0
406,302,0,0,0,0,0,0,0,0,0,-1,1630,722,0,0
413,302,0,0,0,0,0,0,0,0,0,-1,1637,722,0,0
420,302,0,0,0,0,0,0,0,0,0,-1,1644,722,0,0
427,302,0,0,0,0,0,0,0,0,0,-1,1651,722,0,0
434,302,0,0,0,0,0,0,0,0,0,-1,1658,722,0,0
441,302,0,0,0,0,0,0,0,0,0,-1,1665,722,0,0
448,302,0,0,0,0,0,0,0,0,0,-1,1672,722,0,0
455,302,0,0,0,0,0,0,0,0,0,-1,1679,722,0,0
462,302,0,0,0,0,0,0,0,0,0,-1,1686,722,0,0
469,302,0,0,0,0,0,0,0,0,0,-1,1693,722,0,0
476,302,0,0,0,0,0,0,0,0,0,-1,1700,722,0,0
483,302,0,0,0,0,0,0,0,0,0,-1,1707,722,0,0
490,302,0,0,0,0,0,0,0,0,0,-1,1714,722,0,0
497,302,0,0,0,0,0,0,0,0,0,-1,1721,722,0,0
504,302,0,0,0,0,0,0,0,0,0,-1,1728,722,0,0
511,302,0,0,0,0,0,0,0,0,0,-1,1735,722,0,0
518,302,0,0,0,0,0,0,0,0,0,-1,1742,722,0,0
525,302,0,0,0,0,0,0,0,0,0,-1,1749,722,0,0
532,302,0,0,0,0,0,0,0,0,0,-1,1756,722,0,0
539,302,0,0,0,0,0,0,0,0,0,-1,1763,722,0,0
546,302,25.4285,1.86597,0,0,0,0,0,0,0,-1,1770,722,25.4285,-1.86594
553,302,26.0726,2.16431,0.10499,0.04765,0.0556692,0.138938,0.013702,0.547607,0.0884128,0.0454128,1777,722,26.0727,-2.16428
560,302,26.6375,2.28345,0.0962654,0.0375151,0.0566395,0.130694,0.00308641,0.546177,0.086119,0.0450368,1784,722,26.6375,-2.28347
567,302,27.1978,2.72742,0.0834584,0.030293,0.052181,0.115438,-0.00168619,0.549816,0.0775266,0.0458592,1791,722,27.1978,-2.72742
574,302,27.6527,2.91058,0.0701067,0.0246951,0.0450515,0.0978508,-0.00304903,0.551979,0.0662736,0.0433644,1798,722,27.6527,-2.91058
581,302,28.0494,3.46948,0.0577534,0.0200265,0.0375074,0.0808737,-0.0030938,0.552405,0.0549761,0.0473974,1805,722,28.0494,-3.46949
588,302,28.5369,3.9776,0,0,0,0,0,0,0,-1,1812,722,28.5369,-3.97761
595,302,24.4933,4.84674,0,0,0,0,0,0,0,-1,1819,722,24.4933,-4.84673
602,302,14.7349,5.21246,0,0,0,0,0,0,0,-1,1826,722,14.7349,-5.21247
609,302,11.1578,-0.125854,0,0,0,0,0,0,0,-1,1833,722,11.1579,0.125839
616,302,16.4906,-0.857605,0,0,0,0,0,0,0,-1,1840,722,16.4906,0.857634
623,302,16.6588,-0.416809,0.0106177,0.000549298,0.00558928,0.0131057,-0.00193869,0.418801,0.00944988,0.0146352,1847,722,16.6588,0.416792
630,302,16.6383,-0.0887451,0.00659484,-0.00124082,0.00316162,0.00771141,-0.00235739,0.339492,0.00608101,0.0104743,1854,722,16.6383,0.0887679
637,302,16.6128,0.252808,0.00314998,-0.00149719,0.000533217,0.00321038,-0.00155759,0.112787,0.00280737,0.013639,1861,722,16.6128,-0.252788
644,302,16.6194,0.587524,0.000894571,-0.00155748,-0.000521125,0.00100073,-0.00166364,-0.200957,0.00155406,0.0152214,1868,722,16.6194,-0.587538
651,302,16.6295,0.921936,6.53312e-05,-0.00108765,-0.00045921,0.000225872,-0.00124819,-0.336321,0.000916738,0.0146461,1875,722,16.6295,-0.921931
658,302,16.6466,1.24487,-0.000279639,-0.000505582,-0.000548551,0.000167452,-0.000952674,-0.683845,0.000697664,0.0154337,1882,722,16.6466,-1.24486
665,302,16.6262,1.57251,-0.000668603,7.27354e-05,-0.000604114,0.000410832,-0.0010067,-1.06057,0.00084217,0.0143605,1889,722,16.6262,-1.57251
672,302,16.6222,1.90796,-0.000979947,0.000953598,-0.000422463,0.00104187,-0.00106822,-1.36481,0.00121829,0.0107807,1896,722,16.6222,-1.90798
679,302,16.6244,2.24408,-0.00103616,0.00185575,-0.000110569,0.00185997,-0.00104038,-1.53264,0.00169666,0.00897711,1903,722,16.6243,-2.2441
686,302,16.65,2.54791,-0.000920088,0.00278103,0.000318981,0.00280832,-0.000947378,1.48545,0.00225534,0.0145203,1910,722,16.65,-2.54794
693,302,16.4191,2.76428,-0.000341742,0.0041996,0.00114314,0.00447112,-0.000613258,1.3376,0.00320478,0.031723,1917,722,16.419,-2.7643
700,302,16.9135,3.29181,0,0,0,0,0,0,0,-1,1924,722,16.9134,-3.29179
707,302,16.7321,4.76685,0,0,0,0,0,0,0,-1,1931,722,16.7321,-4.76687
714,302,17.2,5.77594,0,0,0,0,0,0,0,-1,1938,722,17.2,-5.77595
721,302,17.7914,6.60394,0,0,0,0,0,0,0,-1,1945,722,17.7914,-6.60395
728,302,17.2798,4.81702,0,0,0,0,0,0,0,-1,1952,722,17.2798,-4.81703
735,302,0,0,0,0,0,0,0,0,0,-1,1959,722,0,0
742,302,0,0,0,0,0,0,0,0,0,-1,1966,722,0,0
749,302,0,0,0,0,0,0,0,0,0,-1,1973,722,0,0
756,302,0,0,0,0,0,0,0,0,0,-1,1980,722,0,0
763,302,0,0,0,0,0,0,0,0,0,-1,1987,722,0,0
770,302,0,0,0,0,0,0,0,0,0,-1,1994,722,0,0
777,302,0,0,0,0,0,0,0,0,0,-1,2001,722,0,0
784,302,0,0,0,0,0,0,0,0,0,-1,2008,722,0,0
791,302,0,0,0,0,0,0,0,0,0,-1,2015,722,0,0
798,302,0,0,0,0,0,0,0,0,0,-1,2022,722,0,0
805,302,0,0,0,0,0,0,0,0,0,-1,2029,722,0,0
812,302,0,0,0,0,0,0,0,0,0,-1,2036,722,0,0
-700,295,0,0,0,0,0,0,0,0,0,-1,524,729,0,0
-693,295,0,0,0,0,0,0,0,0,0,-1,531,729,0,0
-686,295,0,0,0,0,0,0,0,0,0,-1,538,729,0,0
-679,295,0,0,0,0,0,0,0,0,0,-1,545,729,0,0
-672,295,0,0,0,0,0,0,0,0,0,-1,552,729,0,0
-665,295,0,0,0,0,0,0,0,0,0,-1,559,729,0,0
-658,295,0,0,0,0,0,0,0,0,0,-1,566,729,0,0
-651,295,0,0,0,0,0,0,0,0,0,-1,573,729,0,0
-644,295,0,0,0,0,0,0,0,0,0,-1,580,729,0,0
-637,295,0,0,0,0,0,0,0,0,0,-1,587,729,0,0
-630,295,0,0,0,0,0,0,0,0,0,-1,594,729,0,0
-623,295,0,0,0,0,0,0,0,0,0,-1,601,729,0,0
-616,295,-13.4911,1.31738,0,0,0,0,0,0,0,-1,608,729,-13.4911,-1.3174
-609,295,-10.2864,0.832031,0,0,0,0,0,0,0,-1,615,729,-10.2863,-0.832034
-602,295,-8.19006,3.01587,0,0,0,0,0,0,0,-1,622,729,-8.19005,-3.01588
-595,295,-0.615479,-1.95447,0,0,0,0,0,0,0,-1,629,729,-0.615481,1.95445
-588,295,-7.98999,1.56903,0,0,0,0,0,0,0,-1,636,729,-7.98997,-1.56905
-581,295,-8.40094,1.5567,0,0,0,0,0,0,0,-1,643,729,-8.40095,-1.5567
-574,295,-8.80267,1.06805,-0.00990681,0.00237885,0.00284462,0.00300552,-0.0105335,1.35396,0.00820965,0.0435597,650,729,-8.80269,-1.06802
-567,295,-9.32605,0.557556,-0.00869138,0.00183255,0.00293469,0.00259559,-0.00945442,1.31642,0.00732311,0.0440517,657,729,-9.32607,-0.557541
-560,295,-9.94519,0.482849,-0.00707987,0.00142377,0.00261082,0.00216138,-0.00781748,1.29545,0.00606194,0.0288197,664,729,-9.94519,-0.482823
-553,295,-9.96246,0.176941,-0.00581029,0.000986615,0.0023284,0.00170774,-0.00653141,1.27046,0.00502128,0.0172045,671,729,-9.96248,-0.176968
-546,295,-10.01,-0.112915,-0.00440075,0.00074444,0.00174124,0.00127832,-0.00493463,1.27329,0.00378844,0.0196872,678,729,-10.01,0.112945
-539,295,-10.026,-0.37915,-0.00308941,0.000329345,0.00130055,0.000767853,-0.00352792,1.2456,0.00264531,0.0175727,685,729,-10.026,0.379135
-532,295,-10.0232,-0.710632,-0.00203648,-0.000191027,0.0010297,0.000268892,-0.0024964,1.15073,0.00176076,0.0152906,692,729,-10.0232,0.710658
-525,295,-9.99908,-1.04437,-0.00131546,-0.00063839,0.000977022,5.70857e-05,-0.00201094,0.952174,0.00136005,0.0155734,699,729,-9.99909,1.04438
-518,295,-10.0077,-1.33667,-0.00103728,-0.00070199,0.00129395,0.000435133,-0.0021744,0.849819,0.00161431,0.0114687,706,729,-10.0077,1.33669
-511,295,-10.0088,-1.63715,-0.00112901,-0.000453181,0.00192037,0.00115878,-0.00274097,0.872488,0.00231247,0.00884215,713,729,-10.0088,1.63712
-504,295,-10.0102,-1.9671,-0.00138516,-0.000216865,0.00277128,0.00203116,-0.00363319,0.889271,0.00331362,0.00993769,720,729,-10.0102,1.96708
-497,295,-10.0336,-2.23889,-0.00195551,0.000429257,0.00397661,0.0033884,-0.00491465,0.931058,0.00482069,0.0173315,727,729,-10.0336,2.23887
-490,295,-10.1185,-2.63434,0,0,0,0,0,0,0,-1,734,729,-10.1185,2.63436
-483,295,-6.84503,-0.454651,0,0,0,0,0,0,0,-1,741,729,-6.84505,0.454639
-476,295,-13.1738,-0.836243,0,0,0,0,0,0,0,-1,748,729,-13.1738,0.836223
-469,295,-17.9111,-2.08649,0,0,0,0,0,0,0,-1,755,729,-17.9111,2.08651
-462,295,-17.9293,-0.330566,0,0,0,0,0,0,0,-1,762,729,-17.9293,0.330568
-455,295,-18.0007,1.13708,0,0,0,0,0,0,0,-1,769,729,-18.0007,-1.13706
-448,295,-18.4366,1.44049,0,0,0,0,0,0,0,-1,776,729,-18.4367,-1.44051
-441,295,-18.7786,1.55328,0,0,0,0,0,0,0,-1,783,729,-18.7786,-1.55331
-434,295,-15.7352,0.180969,0,0,0,0,0,0,0,-1,790,729,-15.7352,-0.180951
-427,295,0,0,0,0,0,0,0,0,0,-1,797,729,0,0
-420,295,0,0,0,0,0,0,0,0,0,-1,804,729,0,0
-413,295,0,0,0,0,0,0,0,0,0,-1,811,729,0,0
-406,295,0,0,0,0,0,0,0,0,0,-1,818,729,0,0
-399,295,0,0,0,0,0,0,0,0,0,-1,825,729,0,0
-392,295,0,0,0,0,0,0,0,0,0,-1,832,729,0,0
-385,295,0,0,0,0,0,0,0,0,0,-1,839,729,0,0
-378,295,0,0,0,0,0,0,0,0,0,-1,846,729,0,0
-371,295,0,0,0,0,0,0,0,0,0,-1,853,729,0,0
-364,295,0,0,0,0,0,0,0,0,0,-1,860,729,0,0
-357,295,0,0,0,0,0,0,0,0,0,-1,867,729,0,0
-350,295,0,0,0,0,0,0,0,0,0,-1,874,729,0,0
-343,295,0,0,0,0,0,0,0,0,0,-1,881,729,0,0
-336,295,0,0,0,0,0,0,0,0,0,-1,888,729,0,0
-329,295,0,0,0,0,0,0,0,0,0,-1,895,729,0,0
-322,295,0,0,0,0,0,0,0,0,0,-1,902,729,0,0
-315,295,0,0,0,0,0,0,0,0,0,-1,909,729,0,0
-308,295,0,0,0,0,0,0,0,0,0,-1,916,729,0,0
-301,295,0,0,0,0,0,0,0,0,0,-1,923,729,0,0
-294,295,0,0,0,0,0,0,0,0,0,-1,930,729,0,0
-287,295,0,0,0,0,0,0,0,0,0,-1,937,729,0,0
-280,295,0,0,0,0,0,0,0,0,0,-1,944,729,0,0
-273,295,0,0,0,0,0,0,0,0,0,-1,951,729,0,0
-266,295,0,0,0,0,0,0,0,0,0,-1,958,729,0,0
-259,295,0,0,0,0,0,0,0,0,0,-1,965,729,0,0
-252,295,0,0,0,0,0,0,0,0,0,-1,972,729,0,0
-245,295,0,0,0,0,0,0,0,0,0,-1,979,729,0,0
-238,295,0,0,0,0,0,0,0,0,0,-1,986,729,0,0
-231,295,0,0,0,0,0,0,0,0,0,-1,993,729,0,0
-224,295,0,0,0,0,0,0,0,0,0,-1,1000,729,0,0
-217,295,0,0,0,0,0,0,0,0,0,-1,1007,729,0,0
-210,295,0,0,0,0,0,0,0,0,0,-1,1014,729,0,0
-203,295,0,0,0,0,0,0,0,0,0,-1,1021,729,0,0
-196,295,0,0,0,0,0,0,0,0,0,-1,1028,729,0,0
-189,295,0,0,0,0,0,0,0,0,0,-1,1035,729,0,0
-182,295,0,0,0,0,0,0,0,0,0,-1,1042,729,0,0
-175,295,0,0,0,0,0,0,0,0,0,-1,1049,729,0,0
-168,295,0,0,0,0,0,0,0,0,0,-1,1056,729,0,0
-161,295,0,0,0,0,0,0,0,0,0,-1,1063,729,0,0
-154,295,0,0,0,0,0,0,0,0,0,-1,1070,729,0,0
-147,295,0,0,0,0,0,0,0,0,0,-1,1077,729,0,0
-140,295,0,0,0,0,0,0,0,0,0,-1,1084,729,0,0
-133,295,0,0,0,0,0,0,0,0,0,-1,1091,729,0,0
-126,295,0,0,0,0,0,0,0,0,0,-1,1098,729,0,0
-119,295,0,0,0,0,0,0,0,0,0,-1,1105,729,0,0
-112,295,0,0,0,0,0,0,0,0,0,-1,1112,729,0,0
-105,295,0,0,0,0,0,0,0,0,0,-1,1119,729,0,0
-98,295,0,0,0,0,0,0,0,0,0,-1,1126,729,0,0
-91,295,0,0,0,0,0,0,0,0,0,-1,1133,729,0,0
-84,295,0,0,0,0,0,0,0,0,0,-1,1140,729,0,0
-77,295,0,0,0,0,0,0,0,0,0,-1,1147,729,0,0
-70,295,0,0,0,0,0,0,0,0,0,-1,1154,729,0,0
-63,295,0,0,0,0,0,0,0,0,0,-1,1161,729,0,0
-56,295,0,0,0,0,0,0,0,0,0,-1,1168,729,0,0
-49,295,0,0,0,0,0,0,0,0,0,-1,1175,729,0,0
-42,295,0,0,0,0,0,0,0,0,0,-1,1182,729,0,0
-35,295,0,0,0,0,0,0,0,0,0,-1,1189,729,0,0
-28,295,0,0,0,0,0,0,0,0,0,-1,1196,729,0,0
-21,295,0,0,0,0,0,0,0,0,0,-1,1203,729,0,0
-14,295,0,0,0,0,0,0,0,0,0,-1,1210,729,0,0
-7,295,0,0,0,0,0,0,0,0,0,-1,1217,729,0,0
0,295,0,0,0,0,0,0,0,0,0,-1,1224,729,0,0
7,295,0,0,0,0,0,0,0,0,0,-1,1231,729,0,0
14,295,0,0,0,0,0,0,0,0,0,-1,1238,729,0,0
21,295,0,0,0,0,0,0,0,0,0,-1,1245,729,0,0
28,295,0,0,0,0,0,0,0,0,0,-1,1252,729,0,0
35,295,0,0,0,0,0,0,0,0,0,-1,1259,729,0,0
42,295,0,0,0,0,0,0,0,0,0,-1,1266,729,0,0
49,295,0,0,0,0,0,0,0,0,0,-1,1273,729,0,0
56,295,0,0,0,0,0,0,0,0,0,-1,1280,729,0,0
63,295,0,0,0,0,0,0,0,0,0,-1,1287,729,0,0
70,295,0,0,0,0,0,0,0,0,0,-1,1294,729,0,0
77,295,0,0,0,0,0,0,0,0,0,-1,1301,729,0,0
84,295,0,0,0,0,0,0,0,0,0,-1,1308,729,0,0
91,295,0,0,0,0,0,0,0,0,0,-1,1315,729,0,0
98,295,0,0,0,0,0,0,0,0,0,-1,1322,729,0,0
105,295,0,0,0,0,0,0,0,0,0,-1,1329,729,0,0
112,295,0,0,0,0,0,0,0,0,0,-1,1336,729,0,0
119,295,0,0,0,0,0,0,0,0,0,-1,1343,729,0,0
126,295,0,0,0,0,0,0,0,0,0,-1,1350,729,0,0
133,295,0,0,0,0,0,0,0,0,0,-1,1357,729,0,0
140,295,0,0,0,0,0,0,0,0,0,-1,1364,729,0,0
147,295,0,0,0,0,0,0,0,0,0,-1,1371,729,0,0
154,295,0,0,0,0,0,0,0,0,0,-1,1378,729,0,0
161,295,0,0,0,0,0,0,0,0,0,-1,1385,729,0,0
168,295,0,0,0,0,0,0,0,0,0,-1,1392,729,0,0
175,295,0,0,0,0,0,0,0,0,0,-1,1399,729,0,0
182,295,0,0,0,0,0,0,0,0,0,-1,1406,729,0,0
189,295,0,0,0,0,0,0,0,0,0,-1,1413,729,0,0
196,295,0,0,0,0,0,0,0,0,0,-1,1420,729,0,0
203,295,0,0,0,0,0,0,0,0,0,-1,1427,729,0,0
210,295,0,0,0,0,0,0,0,0,0,-1,1434,729,0,0
217,295,0,0,0,0,0,0,0,0,0,-1,1441,729,0,0
224,295,0,0,0,0,0,0,0,0,0,-1,1448,729,0,0
231,295,0,0,0,0,0,0,0,0,0,-1,1455,729,0,0
238,295,0,0,0,0,0,0,0,0,0,-1,1462,729,0,0
245,295,0,0,0,0,0,0,0,0,0,-1,1469,729,0,0
252,295,0,0,0,0,0,0,0,0,0,-1,1476,729,0,0
259,295,0,0,0,0,0,0,0,0,0,-1,1483,729,0,0
266,295,0,0,0,0,0,0,0,0,0,-1,1490,729,0,0
273,295,0,0,0,0,0,0,0,0,0,-1,1497,729,0,0
280,295,0,0,0,0,0,0,0,0,0,-1,1504,729,0,0
287,295,0,0,0,0,0,0,0,0,0,-1,1511,729,0,0
294,295,0,0,0,0,0,0,0,0,0,-1,1518,729,0,0
301,295,0,0,0,0,0,0,0,0,0,-1,1525,729,0,0
308,295,0,0,0,0,0,0,0,0,0,-1,1532,729,0,0
315,295,0,0,0,0,0,0,0,0,0,-1,1539,729,0,0
322,295,0,0,0,0,0,0,0,0,0,-1,1546,729,0,0
329,295,0,0,0,0,0,0,0,0,0,-1,1553,729,0,0
336,295,0,0,0,0,0,0,0,0,0,-1,1560,729,0,0
343,295,0,0,0,0,0,0,0,0,0,-1,1567,729,0,0
350,295,0,0,0,0,0,0,0,0,0,-1,1574,729,0,0
357,295,0,0,0,0,0,0,0,0,0,-1,1581,729,0,0
364,295,0,0,0,0,0,0,0,0,0,-1,1588,729,0,0
371,295,0,0,0,0,0,0,0,0,0,-1,1595,729,0,0
378,295,0,0,0,0,0,0,0,0,0,-1,1602,729,0,0
385,295,0,0,0,0,0,0,0,0,0,-1,1609,729,0,0
392,295,0,0,0,0,0,0,0,0,0,-1,1616,729,0,0
399,295,0,0,0,0,0,0,0,0,0,-1,1623,729,0,0
406,295,0,0,0,0,0,0,0,0,0,-1,1630,729,0,0
413,295,0,0,0,0,0,0,0,0,0,-1,1637,729,0,0
420,295,0,0,0,0,0,0,0,0,0,-1,1644,729,0,0
427,295,0,0,0,0,0,0,0,0,0,-1,1651,729,0,0
434,295,0,0,0,0,0,0,0,0,0,-1,1658,729,0,0
441,295,0,0,0,0,0,0,0,0,0,-1,1665,729,0,0
448,295,0,0,0,0,0,0,0,0,0,-1,1672,729,0,0
455,295,0,0,0,0,0,0,0,0,0,-1,1679,729,0,0
462,295,0,0,0,0,0,0,0,0,0,-1,1686,729,0,0
469,295,0,0,0,0,0,0,0,0,0,-1,1693,729,0,0
476,295,0,0,0,0,0,0,0,0,0,-1,1700,729,0,0
483,295,0,0,0,0,0,0,0,0,0,-1,1707,729,0,0
490,295,0,0,0,0,0,0,0,0,0,-1,1714,729,0,0
497,295,0,0,0,0,0,0,0,0,0,-1,1721,729,0,0
504,295,0,0,0,0,0,0,0,0,0,-1,1728,729,0,0
511,295,0,0,0,0,0,0,0,0,0,-1,1735,729,0,0
518,295,0,0,0,0,0,0,0,0,0,-1,1742,729,0,0
525,295,0,0,0,0,0,0,0,0,0,-1,1749,729,0,0
532,295,0,0,0,0,0,0,0,0,0,-1,1756,729,0,0
539,295,0,0,0,0,0,0,0,0,0,-1,1763,729,0,0
546,295,24.8582,3.44745,0,0,0,0,0,0,0,-1,1770,729,24.8582,-3.44744
553,295,25.3491,1.77911,0,0,0,0,0,0,0,-1,1777,729,25.3491,-1.7791
560,295,25.8529,1.85632,0,0,0,0,0,0,0,-1,1784,729,25.8528,-1.85634
567,295,26.41,2.30804,0.0770348,0.0310542,0.04765,0.106951,0.00113824,0.56063,0.0709242,0.0465601,1791,729,26.41,-2.30802
574,295,26.8809,2.73346,0.0667534,0.0250075,0.0425317,0.0932579,-0.00149703,0.557283,0.0626769,0.0468282,1798,729,26.8808,-2.73347
581,295,27.3853,3.33539,0.056035,0.0200622,0.0357715,0.0780875,-0.00199033,0.55245,0.0527343,0.0483464,1805,729,27.3852,-3.33539
588,295,27.983,3.7854,0.046209,0.0157153,0.0290219,0.0637453,-0.00182102,0.543535,0.0431167,0.049297,1812,729,27.983,-3.78541
595,295,28.6051,4.16907,0,0,0,0,0,0,0,-1,1819,729,28.6051,-4.16905
602,295,24.8396,3.80621,0,0,0,0,0,0,0,-1,1826,729,24.8396,-3.80622
609,295,11.7737,2.19989,0,0,0,0,0,0,0,-1,1833,729,11.7736,-2.19988
616,295,17.0341,-0.711548,0,0,0,0,0,0,0,-1,1840,729,17.034,0.71152
623,295,16.9767,-0.392639,0.0119745,0.000511201,0.00510707,0.0139197,-0.001434,0.363919,0.00979286,0.0316999,1847,729,16.9767,0.392612
630,295,16.9475,-0.0672607,0.00800739,-0.00140856,0.0029452,0.00885273,-0.00225389,0.279507,0.00677918,0.0116967,1854,729,16.9475,0.0672868
637,295,16.9532,0.266724,0.00437664,-0.00170013,0.000367652,0.00439881,-0.00172229,0.0602084,0.00364489,0.0132329,1861,729,16.9532,-0.266719
644,295,16.9563,0.606995,0.00174385,-0.0018822,-0.000651738,0.00185743,-0.00199578,-0.172546,0.00222513,0.0129972,1868,729,16.9563,-0.606971
651,295,16.9609,0.941956,0.000684383,-0.00131501,-0.000403979,0.000762922,-0.00139355,-0.192019,0.00126266,0.0129945,1875,729,16.9609,-0.941934
658,295,16.964,1.24231,0.000311608,-0.000666949,-0.000437102,0.000478418,-0.000833759,-0.364568,0.000766789,0.0125304,1882,729,16.964,-1.24234
665,295,16.9587,1.56061,8.23737e-06,-7.65083e-05,-0.000411299,0.00037934,-0.000447611,-0.734068,0.000477982,0.0114427,1889,729,16.9587,-1.5606
672,295,16.9401,1.89923,-0.00016922,0.000906916,-0.000142582,0.000925487,-0.000187791,-1.44128,0.000688183,0.0122977,1896,729,16.94,-1.89921
679,295,16.9385,2.24194,-4.5532e-05,0.00186196,0.000286915,0.00190418,-8.77538e-05,1.42469,0.00129969,0.0096607,1903,729,16.9385,-2.24192
686,295,16.9709,2.54871,0.000246358,0.00285729,0.000830065,0.00309884,4.81098e-06,1.28762,0.00206429,0.00950777,1910,729,16.971,-2.54871
693,295,16.9478,2.84528,0.000967316,0.00421675,0.00173933,0.00497215,0.000211914,1.16107,0.00324644,0.0271487,1917,729,16.9478,-2.84527
700,295,17.0369,3.24701,0.00253617,0.00609817,0.00341914,0.00817236,0.000461982,1.02551,0.00530096,0.0411388,1924,729,17.0368,-3.24702
707,295,17.3033,3.81927,0,0,0,0,0,0,0,-1,1931,729,17.3034,-3.81927
714,295,17.4906,4.63068,0,0,0,0,0,0,0,-1,1938,729,17.4906,-4.63066
721,295,18.3792,5.32281,0,0,0,0,0,0,0,-1,1945,729,18.3791,-5.32283
728,295,17.379,3.74866,0,0,0,0,0,0,0,-1,1952,729,17.379,-3.74863
735,295,0,0,0,0,0,0,0,0,0,-1,1959,729,0,0
742,295,0,0,0,0,0,0,0,0,0,-1,1966,729,0,0
749,295,0,0,0,0,0,0,0,0,0,-1,1973,729,0,0
756,295,0,0,0,0,0,0,0,0,0,-1,1980,729,0,0
763,295,0,0,0,0,0,0,0,0,0,-1,1987,729,0,0
770,295,0,0,0,0,0,0,0,0,0,-1,1994,729,0,0
777,295,0,0,0,0,0,0,0,0,0,-1,2001,729,0,0
784,295,0,0,0,0,0,0,0,0,0,-1,2008,729,0,0
791,295,0,0,0,0,0,0,0,0,0,-1,2015,729,0,0
798,295,0,0,0,0,0,0,0,0,0,-1,2022,729,0,0
805,295,0,0,0,0,0,0,0,0,0,-1,2029,729,0,0
812,295,0,0,0,0,0,0,0,0,0,-1,2036,729,0,0
-700,288,0,0,0,0,0,0,0,0,0,-1,524,736,0,0
-693,288,0,0,0,0,0,0,0,0,0,-1,531,736,0,0
-686,288,0,0,0,0,0,0,0,0,0,-1,538,736,0,0
-679,288,0,0,0,0,0,0,0,0,0,-1,545,736,0,0
-672,288,0,0,0,0,0,0,0,0,0,-1,552,736,0,0
-665,288,0,0,0,0,0,0,0,0,0,-1,559,736,0,0
-658,288,0,0,0,0,0,0,0,0,0,-1,566,736,0,0
-651,288,0,0,0,0,0,0,0,0,0,-1,573,736,0,0
-644,288,0,0,0,0,0,0,0,0,0,-1,580,736,0,0
-637,288,0,0,0,0,0,0,0,0,0,-1,587,736,0,0
-630,288,0,0,0,0,0,0,0,0,0,-1,594,736,0,0
-623,288,0,0,0,0,0,0,0,0,0,-1,601,736,0,0
-616,288,-10.3702,1.7489,0,0,0,0,0,0,0,-1,608,736,-10.3702,-1.74891
-609,288,-9.12115,0.733032,0,0,0,0,0,0,0,-1,615,736,-9.12114,-0.733034
-602,288,-10.1458,-1.85559,0,0,0,0,0,0,0,-1,622,736,-10.1458,1.85556
-595,288,-7.63208,1.81769,0,0,0,0,0,0,0,-1,629,736,-7.63205,-1.81766
-588,288,-8.19269,1.50598,0,0,0,0,0,0,0,-1,636,736,-8.19268,-1.50601
-581,288,-10.1176,1.41467,0,0,0,0,0,0,0,-1,643,736,-10.1176,-1.41467
-574,288,-9.98248,1.16876,-0.00946466,0.00152592,0.00263984,0.0021271,-0.0100658,1.34688,0.00752054,0.0439549,650,736,-9.98249,-1.16874
-567,288,-10.0693,0.783875,-0.00861615,0.00115341,0.00297178,0.00198637,-0.00944911,1.29752,0.00705536,0.0290874,657,736,-10.0693,-0.783881
-560,288,-10.2844,0.469788,-0.00737177,0.000799407,0.0028904,0.00171846,-0.00829082,1.26294,0.00618019,0.014741,664,736,-10.2844,-0.469759
-553,288,-10.2697,0.209534,-0.00641411,0.000365866,0.00277501,0.00135682,-0.00740507,1.22781,0.00544563,0.0172786,671,736,-10.2696,-0.209512
-546,288,-10.2991,-0.0874023,-0.00515249,0.000213523,0.00222226,0.00101433,-0.0059533,1.22492,0.00434661,0.0190537,678,736,-10.2991,0.0873735
-539,288,-10.3226,-0.392395,-0.00389689,-0.000130498,0.00179449,0.00058758,-0.00461497,1.19015,0.00329004,0.0163822,685,736,-10.3226,0.392382
-532,288,-10.3112,-0.701355,-0.00286679,-0.000569741,0.0015412,0.000203821,-0.00364035,1.10561,0.00249761,0.0129066,692,736,-10.3112,0.701359
-525,288,-10.311,-1.00702,-0.00209719,-0.000945467,0.00147489,6.20012e-05,-0.00310466,0.971518,0.00209074,0.0130297,699,736,-10.311,1.00701
-518,288,-10.3274,-1.31427,-0.00182763,-0.000879426,0.00192878,0.000632661,-0.00333972,0.905912,0.00246458,0.0125245,706,736,-10.3274,1.31429
-511,288,-10.3342,-1.63,-0.00186192,-0.000560669,0.00265041,0.0015178,-0.00394039,0.905759,0.00325311,0.00874976,713,736,-10.3342,1.63002
-504,288,-10.3292,-1.94843,-0.00191359,-0.000320432,0.0035406,0.00251209,-0.00474611,0.896048,0.00425618,0.00988026,720,736,-10.3292,1.94842
-497,288,-10.3187,-2.16467,-0.00222835,0.000262271,0.00479883,0.00397474,-0.00594082,0.912349,0.00576214,0.0241708,727,736,-10.3187,2.16469
-490,288,-10.227,-2.35779,0,0,0,0,0,0,0,-1,734,736,-10.227,2.35777
-483,288,-11.9398,1.15936,0,0,0,0,0,0,0,-1,741,736,-11.9398,-1.15935
-476,288,-17.7608,-0.457031,0,0,0,0,0,0,0,-1,748,736,-17.7608,0.457059
-469,288,-18.3768,1.74255,0,0,0,0,0,0,0,-1,755,736,-18.3768,-1.74256
-462,288,-18.0359,0.809814,0,0,0,0,0,0,0,-1,762,736,-18.0359,-0.809793
-455,288,-17.9432,1.00409,0,0,0,0,0,0,0,-1,769,736,-17.9432,-1.00407
-448,288,-17.9913,1.47595,0,0,0,0,0,0,0,-1,776,736,-17.9913,-1.47592
-441,288,-18.2269,1.86346,0,0,0,0,0,0,0,-1,783,736,-18.2269,-1.86347
-434,288,-16.6378,0.542969,0,0,0,0,0,0,0,-1,790,736,-16.6378,-0.542993
-427,288,0,0,0,0,0,0,0,0,0,-1,797,736,0,0
-420,288,0,0,0,0,0,0,0,0,0,-1,804,736,0,0
-413,288,0,0,0,0,0,0,0,0,0,-1,811,736,0,0
-406,288,0,0,0,0,0,0,0,0,0,-1,818,736,0,0
-399,288,0,0,0,0,0,0,0,0,0,-1,825,736,0,0
-392,288,0,0,0,0,0,0,0,0,0,-1,832,736,0,0
-385,288,0,0,0,0,0,0,0,0,0,-1,839,736,0,0
-378,288,0,0,0,0,0,0,0,0,0,-1,846,736,0,0
-371,288,0,0,0,0,0,0,0,0,0,-1,853,736,0,0
-364,288,0,0,0,0,0,0,0,0,0,-1,860,736,0,0
-357,288,0,0,0,0,0,0,0,0,0,-1,867,736,0,0
-350,288,0,0,0,0,0,0,0,0,0,-1,874,736,0,0
-343,288,0,0,0,0,0,0,0,0,0,-1,881,736,0,0
-336,288,0,0,0,0,0,0,0,0,0,-1,888,736,0,0
-329,288,0,0,0,0,0,0,0,0,0,-1,895,736,0,0
-322,288,0,0,0,0,0,0,0,0,0,-1,902,736,0,0
-315,288,0,0,0,0,0,0,0,0,0,-1,909,736,0,0
-308,288,0,0,0,0,0,0,0,0,0,-1,916,736,0,0
-301,288,0,0,0,0,0,0,0,0,0,-1,923,736,0,0
-294,288,0,0,0,0,0,0,0,0,0,-1,930,736,0,0
-287,288,0,0,0,0,0,0,0,0,0,-1,937,736,0,0
-280,288,0,0,0,0,0,0,0,0,0,-1,944,736,0,0
-273,288,0,0,0,0,0,0,0,0,0,-1,951,736,0,0
-266,288,0,0,0,0,0,0,0,0,0,-1,958,736,0,0
-259,288,0,0,0,0,0,0,0,0,0,-1,965,736,0,0
-252,288,0,0,0,0,0,0,0,0,0,-1,972,736,0,0
-245,288,0,0,0,0,0,0,0,0,0,-1,979,736,0,0
-238,288,0,0,0,0,0,0,0,0,0,-1,986,736,0,0
-231,288,0,0,0,0,0,0,0,0,0,-1,993,736,0,0
-224,288,0,0,0,0,0,0,0,0,0,-1,1000,736,0,0
-217,288,0,0,0,0,0,0,0,0,0,-1,1007,736,0,0
-210,288,0,0,0,0,0,0,0,0,0,-1,1014,736,0,0
-203,288,0,0,0,0,0,0,0,0,0,-1,1021,736,0,0
-196,288,0,0,0,0,0,0,0,0,0,-1,1028,736,0,0
-189,288,0,0,0,0,0,0,0,0,0,-1,1035,736,0,0
-182,288,0,0,0,0,0,0,0,0,0,-1,1042,736,0,0
-175,288,0,0,0,0,0,0,0,0,0,-1,1049,736,0,0
-168,288,0,0,0,0,0,0,0,0,0,-1,1056,736,0,0
-161,288,0,0,0,0,0,0,0,0,0,-1,1063,736,0,0
-154,288,0,0,0,0,0,0,0,0,0,-1,1070,736,0,0
-147,288,0,0,0,0,0,0,0,0,0,-1,1077,736,0,0
-140,288,0,0,0,0,0,0,0,0,0,-1,1084,736,0,0
-133,288,0,0,0,0,0,0,0,0,0,-1,1091,736,0,0
-126,288,0,0,0,0,0,0,0,0,0,-1,1098,736,0,0
-119,288,0,0,0,0,0,0,0,0,0,-1,1105,736,0,0
-112,288,0,0,0,0,0,0,0,0,0,-1,1112,736,0,0
-105,288,0,0,0,0,0,0,0,0,0,-1,1119,736,0,0
-98,288,0,0,0,0,0,0,0,0,0,-1,1126,736,0,0
-91,288,0,0,0,0,0,0,0,0,0,-1,1133,736,0,0
-84,288,0,0,0,0,0,0,0,0,0,-1,1140,736,0,0
-77,288,0,0,0,0,0,0,0,0,0,-1,1147,736,0,0
-70,288,0,0,0,0,0,0,0,0,0,-1,1154,736,0,0
-63,288,0,0,0,0,0,0,0,0,0,-1,1161,736,0,0
-56,288,0,0,0,0,0,0,0,0,0,-1,1168,736,0,0
-49,288,0,0,0,0,0,0,0,0,0,-1,1175,736,0,0
-42,288,0,0,0,0,0,0,0,0,0,-1,1182,736,0,0
-35,288,0,0,0,0,0,0,0,0,0,-1,1189,736,0,0
-28,288,0,0,0,0,0,0,0,0,0,-1,1196,736,0,0
-21,288,0,0,0,0,0,0,0,0,0,-1,1203,736,0,0
-14,288,0,0,0,0,0,0,0,0,0,-1,1210,736,0,0
-7,288,0,0,0,0,0,0,0,0,0,-1,1217,736,0,0
0,288,0,0,0,0,0,0,0,0,0,-1,1224,736,0,0
7,288,0,0,0,0,0,0,0,0,0,-1,1231,736,0,0
14,288,0,0,0,0,0,0,0,0,0,-1,1238,736,0,0
21,288,0,0,0,0,0,0,0,0,0,-1,1245,736,0,0
28,288,0,0,0,0,0,0,0,0,0,-1,1252,736,0,0
35,288,0,0,0,0,0,0,0,0,0,-1,1259,736,0,0
42,288,0,0,0,0,0,0,0,0,0,-1,1266,736,0,0
49,288,0,0,0,0,0,0,0,0,0,-1,1273,736,0,0
56,288,0,0,0,0,0,0,0,0,0,-1,1280,736,0,0
63,288,0,0,0,0,0,0,0,0,0,-1,1287,736,0,0
70,288,0,0,0,0,0,0,0,0,0,-1,1294,736,0,0
77,288,0,0,0,0,0,0,0,0,0,-1,1301,736,0,0
84,288,0,0,0,0,0,0,0,0,0,-1,1308,736,0,0
91,288,0,0,0,0,0,0,0,0,0,-1,1315,736,0,0
98,288,0,0,0,0,0,0,0,0,0,-1,1322,736,0,0
105,288,0,0,0,0,0,0,0,0,0,-1,1329,736,0,0
112,288,0,0,0,0,0,0,0,0,0,-1,1336,736,0,0
119,288,0,0,0,0,0,0,0,0,0,-1,1343,736,0,0
126,288,0,0,0,0,0,0,0,0,0,-1,1350,736,0,0
133,288,0,0,0,0,0,0,0,0,0,-1,1357,736,0,0
140,288,0,0,0,0,0,0,0,0,0,-1,1364,736,0,0
147,288,0,0,0,0,0,0,0,0,0,-1,1371,736,0,0
154,288,0,0,0,0,0,0,0,0,0,-1,1378,736,0,0
161,288,0,0,0,0,0,0,0,0,0,-1,1385,736,0,0
168,288,0,0,0,0,0,0,0,0,0,-1,1392,736,0,0
175,288,0,0,0,0,0,0,0,0,0,-1,1399,736,0,0
182,288,0,0,0,0,0,0,0,0,0,-1,1406,736,0,0
189,288,0,0,0,0,0,0,0,0,0,-1,1413,736,0,0
196,288,0,0,0,0,0,0,0,0,0,-1,1420,736,0,0
203,288,0,0,0,0,0,0,0,0,0,-1,1427,736,0,0
210,288,0,0,0,0,0,0,0,0,0,-1,1434,736,0,0
217,288,0,0,0,0,0,0,0,0,0,-1,1441,736,0,0
224,288,0,0,0,0,0,0,0,0,0,-1,1448,736,0,0
231,288,0,0,0,0,0,0,0,0,0,-1,1455,736,0,0
238,288,0,0,0,0,0,0,0,0,0,-1,1462,736,0,0
245,288,0,0,0,0,0,0,0,0,0,-1,1469,736,0,0
252,288,0,0,0,0,0,0,0,0,0,-1,1476,736,0,0
259,288,0,0,0,0,0,0,0,0,0,-1,1483,736,0,0
266,288,0,0,0,0,0,0,0,0,0,-1,1490,736,0,0
273,288,0,0,0,0,0,0,0,0,0,-1,1497,736,0,0
280,288,0,0,0,0,0,0,0,0,0,-1,1504,736,0,0
287,288,0,0,0,0,0,0,0,0,0,-1,1511,736,0,0
294,288,0,0,0,0,0,0,0,0,0,-1,1518,736,0,0
301,288,0,0,0,0,0,0,0,0,0,-1,1525,736,0,0
308,288,0,0,0,0,0,0,0,0,0,-1,1532,736,0,0
315,288,0,0,0,0,0,0,0,0,0,-1,1539,736,0,0
322,288,0,0,0,0,0,0,0,0,0,-1,1546,736,0,0
329,288,0,0,0,0,0,0,0,0,0,-1,1553,736,0,0
336,288,0,0,0,0,0,0,0,0,0,-1,1560,736,0,0
343,288,0,0,0,0,0,0,0,0,0,-1,1567,736,0,0
350,288,0,0,0,0,0,0,0,0,0,-1,1574,736,0,0
357,288,0,0,0,0,0,0,0,0,0,-1,1581,736,0,0
364,288,0,0,0,0,0,0,0,0,0,-1,1588,736,0,0
371,288,0,0,0,0,0,0,0,0,0,-1,1595,736,0,0
378,288,0,0,0,0,0,0,0,0,0,-1,1602,736,0,0
385,288,0,0,0,0,0,0,0,0,0,-1,1609,736,0,0
392,288,0,0,0,0,0,0,0,0,0,-1,1616,736,0,0
399,288,0,0,0,0,0,0,0,0,0,-1,1623,736,0,0
406,288,0,0,0,0,0,0,0,0,0,-1,1630,736,0,0
413,288,0,0,0,0,0,0,0,0,0,-1,1637,736,0,0
420,288,0,0,0,0,0,0,0,0,0,-1,1644,736,0,0
427,288,0,0,0,0,0,0,0,0,0,-1,1651,736,0,0
434,288,0,0,0,0,0,0,0,0,0,-1,1658,736,0,0
441,288,0,0,0,0,0,0,0,0,0,-1,1665,736,0,0
448,288,0,0,0,0,0,0,0,0,0,-1,1672,736,0,0
455,288,0,0,0,0,0,0,0,0,0,-1,1679,736,0,0
462,288,0,0,0,0,0,0,0,0,0,-1,1686,736,0,0
469,288,0,0,0,0,0,0,0,0,0,-1,1693,736,0,0
476,288,0,0,0,0,0,0,0,0,0,-1,1700,736,0,0
483,288,0,0,0,0,0,0,0,0,0,-1,1707,736,0,0
490,288,0,0,0,0,0,0,0,0,0,-1,1714,736,0,0
497,288,0,0,0,0,0,0,0,0,0,-1,1721,736,0,0
504,288,0,0,0,0,0,0,0,0,0,-1,1728,736,0,0
511,288,0,0,0,0,0,0,0,0,0,-1,1735,736,0,0
518,288,0,0,0,0,0,0,0,0,0,-1,1742,736,0,0
525,288,0,0,0,0,0,0,0,0,0,-1,1749,736,0,0
532,288,0,0,0,0,0,0,0,0,0,-1,1756,736,0,0
539,288,0,0,0,0,0,0,0,0,0,-1,1763,736,0,0
546,288,0,0,0,0,0,0,0,0,0,-1,1770,736,0,0
553,288,24.8458,3.78448,0,0,0,0,0,0,0,-1,1777,736,24.8458,-3.7845
560,288,27.0035,3.81567,0,0,0,0,0,0,0,-1,1784,736,27.0036,-3.81569
567,288,25.6512,1.8335,0,0,0,0,0,0,0,-1,1791,736,25.6512,-1.83348
574,288,25.8767,4.28125,0,0,0,0,0,0,0,-1,1798,736,25.8766,-4.28125
581,288,27.1274,3.12329,0.0518024,0.0192671,0.0310365,0.0705762,0.000493374,0.544009,0.0468872,0.0495004,1805,736,27.1274,-3.12329
588,288,27.4534,3.66693,0.0432166,0.0148932,0.0252741,0.0580261,8.36141e-05,0.53003,0.0386562,0.0480434,1812,736,27.4534,-3.66692
595,288,28.0294,3.9649,0,0,0,0,0,0,0,-1,1819,736,28.0294,-3.96493
602,288,20.5166,4.94885,0,0,0,0,0,0,0,-1,1826,736,20.5166,-4.94885
609,288,17.5223,4.86414,0,0,0,0,0,0,0,-1,1833,736,17.5223,-4.86412
616,288,13.4886,0.801331,0,0,0,0,0,0,0,-1,1840,736,13.4886,-0.80132
623,288,17.1997,-0.349915,0,0,0,0,0,0,0,-1,1847,736,17.1997,0.349945
630,288,17.2484,-0.0341797,0.00847883,-0.00144922,0.00282412,0.00922595,-0.00219634,0.258625,0.00699858,0.0213456,1854,736,17.2485,0.0341672
637,288,17.2861,0.282471,0.00497574,-0.00174179,0.000455249,0.00500646,-0.00177251,0.0673597,0.00405958,0.0105378,1861,736,17.2861,-0.282457
644,288,17.2932,0.603088,0.00218201,-0.00204908,-0.000513662,0.00224348,-0.00211055,-0.119097,0.00251419,0.0102738,1868,736,17.2932,-0.603069
651,288,17.2887,0.926208,0.000948447,-0.00148505,-0.000200827,0.000964909,-0.00150151,-0.0817886,0.00143518,0.0107407,1875,736,17.2887,-0.926226
658,288,17.2987,1.25507,0.000553171,-0.000866084,-0.000307717,0.000617017,-0.00092993,-0.204579,0.0008992,0.0156586,1882,736,17.2987,-1.25508
665,288,17.3069,1.57928,0.0003233,-0.00034225,-0.00029133,0.000432806,-0.000451756,-0.359544,0.000510741,0.0161992,1889,736,17.3069,-1.57929
672,288,17.2911,1.90051,0.000225814,0.000685923,6.59081e-06,0.000686018,0.000225719,1.55648,0.000403717,0.0139811,1896,736,17.2912,-1.9005
679,288,17.2942,2.23499,0.000427895,0.0016861,0.000484981,0.00185134,0.000262657,1.24242,0.00115666,0.0123576,1903,736,17.2941,-2.23497
686,288,17.2788,2.52936,0.000779457,0.0027857,0.00110336,0.00327376,0.000291388,1.15432,0.00209216,0.0101319,1910,736,17.2788,-2.52938
693,288,17.2886,2.87793,0.00150653,0.00412584,0.00202991,0.00523191,0.000400465,1.07189,0.00336241,0.0135008,1917,736,17.2885,-2.87795
700,288,17.2607,3.23914,0.00297932,0.0059304,0.00364434,0.00838658,0.000523143,0.977754,0.00542509,0.0266255,1924,736,17.2607,-3.23914
707,288,17.772,3.59332,0.00532436,0.00843076,0.00605254,0.0131262,0.000628905,0.910998,0.00854889,0.0396075,1931,736,17.772,-3.59329
714,288,18.3091,3.96295,0,0,0,0,0,0,0,-1,1938,736,18.309,-3.96292
721,288,18.0732,3.69385,0,0,0,0,0,0,0,-1,1945,736,18.0732,-3.69387
728,288,19.3208,3.91455,0,0,0,0,0,0,0,-1,1952,736,19.3209,-3.91455
735,288,18.7712,3.51312,0,0,0,0,0,0,0,-1,1959,736,18.7713,-3.51309
742,288,0,0,0,0,0,0,0,0,0,-1,1966,736,0,0
749,288,0,0,0,0,0,0,0,0,0,-1,1973,736,0,0
756,288,0,0,0,0,0,0,0,0,0,-1,1980,736,0,0
763,288,0,0,0,0,0,0,0,0,0,-1,1987,736,0,0
770,288,0,0,0,0,0,0,0,0,0,-1,1994,736,0,0
777,288,0,0,0,0,0,0,0,0,0,-1,2001,736,0,0
784,288,0,0,0,0,0,0,0,0,0,-1,2008,736,0,0
791,288,0,0,0,0,0,0,0,0,0,-1,2015,736,0,0
798,288,0,0,0,0,0,0,0,0,0,-1,2022,736,0,0
805,288,0,0,0,0,0,0,0,0,0,-1,2029,736,0,0
812,288,0,0,0,0,0,0,0,0,0,-1,2036,736,0,0
-700,281,0,0,0,0,0,0,0,0,0,-1,524,743,0,0
-693,281,0,0,0,0,0,0,0,0,0,-1,531,743,0,0
-686,281,0,0,0,0,0,0,0,0,0,-1,538,743,0,0
-679,281,0,0,0,0,0,0,0,0,0,-1,545,743,0,0
-672,281,0,0,0,0,0,0,0,0,0,-1,552,743,0,0
-665,281,0,0,0,0,0,0,0,0,0,-1,559,743,0,0
-658,281,0,0,0,0,0,0,0,0,0,-1,566,743,0,0
-651,281,0,0,0,0,0,0,0,0,0,-1,573,743,0,0
-644,281,0,0,0,0,0,0,0,0,0,-1,580,743,0,0
-637,281,0,0,0,0,0,0,0,0,0,-1,587,743,0,0
-630,281,0,0,0,0,0,0,0,0,0,-1,594,743,0,0
-623,281,-11.6334,3.75549,0,0,0,0,0,0,0,-1,601,743,-11.6334,-3.75548
-616,281,-9.72345,2.48981,0,0,0,0,0,0,0,-1,608,743,-9.72343,-2.48981
-609,281,-9.72656,1.04468,0,0,0,0,0,0,0,-1,615,743,-9.72654,-1.04468
-602,281,-10.4272,-0.473633,0,0,0,0,0,0,0,-1,622,743,-10.4273,0.473616
-595,281,-10.4797,-1.07404,0,0,0,0,0,0,0,-1,629,743,-10.4798,1.07402
-588,281,-10.9063,2.01617,0,0,0,0,0,0,0,-1,636,743,-10.9063,-2.0162
-581,281,-10.712,1.53674,-0.0054672,0.00130214,0.000510831,0.00134047,-0.00550553,1.4959,0.00418929,0.049026,643,743,-10.712,-1.53677
-574,281,-10.4777,1.08014,-0.00715715,0.000284629,0.0022374,0.000905514,-0.00777803,1.30011,0.00551204,0.0314991,650,743,-10.4777,-1.08013
-567,281,-10.5832,0.807007,-0.00693541,0.00016019,0.00277289,0.00111525,-0.00789047,1.23909,0.00566876,0.0151762,657,743,-10.5832,-0.807003
-560,281,-10.6084,0.488953,-0.00621808,-3.38593e-05,0.00289465,0.00110961,-0.00736155,1.19458,0.00531631,0.00794492,664,743,-10.6084,-0.488957
-553,281,-10.5845,0.191467,-0.00575941,-0.000304998,0.00294555,0.000982014,-0.00704642,1.15886,0.00505683,0.0124283,671,743,-10.5845,-0.191471
-546,281,-10.5774,-0.081665,-0.00490957,-0.000241012,0.00245971,0.000815734,-0.00596631,1.16502,0.00427547,0.0149048,678,743,-10.5774,0.0816772
-539,281,-10.5896,-0.405273,-0.00399737,-0.000379929,0.00206783,0.0005586,-0.0049359,1.14473,0.00349172,0.0135362,685,743,-10.5896,0.405283
-532,281,-10.6137,-0.682556,-0.00327216,-0.000615647,0.00185234,0.000335447,-0.00422326,1.09644,0.00293372,0.0124962,692,743,-10.6137,0.682576
-525,281,-10.6268,-0.979065,-0.00270523,-0.000820525,0.0017715,0.000243671,-0.00376942,1.02984,0.00259799,0.0145332,699,743,-10.6268,0.979081
-518,281,-10.6288,-1.3089,-0.00260305,-0.000580252,0.00233712,0.000954921,-0.00413823,0.989609,0.00312612,0.0131509,706,743,-10.6288,1.30887
-511,281,-10.6399,-1.63892,-0.00266011,-0.000178148,0.00310101,0.00192098,-0.00475924,0.975732,0.00397117,0.0116275,713,743,-10.6399,1.63891
-504,281,-10.6467,-1.94049,-0.00255626,5.33433e-05,0.0039757,0.00293289,-0.0054358,0.943957,0.00490317,0.0132445,720,743,-10.6467,1.94049
-497,281,-10.5196,-2.34882,-0.00262011,0.000497599,0.00522396,0.00439033,-0.00651284,0.930394,0.00633459,0.0370792,727,743,-10.5196,2.3488
-490,281,-10.3295,-2.7226,0,0,0,0,0,0,0,-1,734,743,-10.3294,2.72256
-483,281,-12.2316,0.679565,0,0,0,0,0,0,0,-1,741,743,-12.2316,-0.679541
-476,281,-17.5752,1.27625,0,0,0,0,0,0,0,-1,748,743,-17.5752,-1.27623
-469,281,-18.5024,1.71149,0,0,0,0,0,0,0,-1,755,743,-18.5024,-1.71148
-462,281,-19.0267,1.83307,0,0,0,0,0,0,0,-1,762,743,-19.0267,-1.83306
-455,281,-19.1846,1.91852,0,0,0,0,0,0,0,-1,769,743,-19.1846,-1.91854
-448,281,-17.7654,1.80695,0,0,0,0,0,0,0,-1,776,743,-17.7654,-1.80694
-441,281,-17.6766,2.42328,0,0,0,0,0,0,0,-1,783,743,-17.6766,-2.42327
-434,281,0,0,0,0,0,0,0,0,0,-1,790,743,0,0
-427,281,0,0,0,0,0,0,0,0,0,-1,797,743,0,0
-420,281,0,0,0,0,0,0,0,0,0,-1,804,743,0,0
-413,281,0,0,0,0,0,0,0,0,0,-1,811,743,0,0
-406,281,0,0,0,0,0,0,0,0,0,-1,818,743,0,0
-399,281,0,0,0,0,0,0,0,0,0,-1,825,743,0,0
-392,281,0,0,0,0,0,0,0,0,0,-1,832,743,0,0
-385,281,0,0,0,0,0,0,0,0,0,-1,839,743,0,0
-378,281,0,0,0,0,0,0,0,0,0,-1,846,743,0,0
-371,281,0,0,0,0,0,0,0,0,0,-1,853,743,0,0
-364,281,0,0,0,0,0,0,0,0,0,-1,860,743,0,0
-357,281,0,0,0,0,0,0,0,0,0,-1,867,743,0,0
-350,281,0,0,0,0,0,0,0,0,0,-1,874,743,0,0
-343,281,0,0,0,0,0,0,0,0,0,-1,881,743,0,0
-336,281,0,0,0,0,0,0,0,0,0,-1,888,743,0,0
-329,281,0,0,0,0,0,0,0,0,0,-1,895,743,0,0
-322,281,0,0,0,0,0,0,0,0,0,-1,902,743,0,0
-315,281,0,0,0,0,0,0,0,0,0,-1,909,743,0,0
-308,281,0,0,0,0,0,0,0,0,0,-1,916,743,0,0
-301,281,0,0,0,0,0,0,0,0,0,-1,923,743,0,0
-294,281,0,0,0,0,0,0,0,0,0,-1,930,743,0,0
-287,281,0,0,0,0,0,0,0,0,0,-1,937,743,0,0
-280,281,0,0,0,0,0,0,0,0,0,-1,944,743,0,0
-273,281,0,0,0,0,0,0,0,0,0,-1,951,743,0,0
-266,281,0,0,0,0,0,0,0,0,0,-1,958,743,0,0
-259,281,0,0,0,0,0,0,0,0,0,-1,965,743,0,0
-252,281,0,0,0,0,0,0,0,0,0,-1,972,743,0,0
-245,281,0,0,0,0,0,0,0,0,0,-1,979,743,0,0
-238,281,0,0,0,0,0,0,0,0,0,-1,986,743,0,0
-231,281,0,0,0,0,0,0,0,0,0,-1,993,743,0,0
-224,281,0,0,0,0,0,0,0,0,0,-1,1000,743,0,0
-217,281,0,0,0,0,0,0,0,0,0,-1,1007,743,0,0
-210,281,0,0,0,0,0,0,0,0,0,-1,1014,743,0,0
-203,281,0,0,0,0,0,0,0,0,0,-1,1021,743,0,0
-196,281,0,0,0,0,0,0,0,0,0,-1,1028,743,0,0
-189,281,0,0,0,0,0,0,0,0,0,-1,1035,743,0,0
-182,281,0,0,0,0,0,0,0,0,0,-1,1042,743,0,0
-175,281,0,0,0,0,0,0,0,0,0,-1,1049,743,0,0
-168,281,0,0,0,0,0,0,0,0,0,-1,1056,743,0,0
-161,281,0,0,0,0,0,0,0,0,0,-1,1063,743,0,0
-154,281,0,0,0,0,0,0,0,0,0,-1,1070,743,0,0
-147,281,0,0,0,0,0,0,0,0,0,-1,1077,743,0,0
-140,281,0,0,0,0,0,0,0,0,0,-1,1084,743,0,0
-133,281,0,0,0,0,0,0,0,0,0,-1,1091,743,0,0
-126,281,0,0,0,0,0,0,0,0,0,-1,1098,743,0,0
-119,281,0,0,0,0,0,0,0,0,0,-1,1105,743,0,0
-112,281,0,0,0,0,0,0,0,0,0,-1,1112,743,0,0
-105,281,0,0,0,0,0,0,0,0,0,-1,1119,743,0,0
-98,281,0,0,0,0,0,0,0,0,0,-1,1126,743,0,0
-91,281,0,0,0,0,0,0,0,0,0,-1,1133,743,0,0
-84,281,0,0,0,0,0,0,0,0,0,-1,1140,743,0,0
-77,281,0,0,0,0,0,0,0,0,0,-1,1147,743,0,0
-70,281,0,0,0,0,0,0,0,0,0,-1,1154,743,0,0
-63,281,0,0,0,0,0,0,0,0,0,-1,1161,743,0,0
-56,281,0,0,0,0,0,0,0,0,0,-1,1168,743,0,0
-49,281,0,0,0,0,0,0,0,0,0,-1,1175,743,0,0
-42,281,0,0,0,0,0,0,0,0,0,-1,1182,743,0,0
-35,281,0,0,0,0,0,0,0,0,0,-1,1189,743,0,0
-28,281,0,0,0,0,0,0,0,0,0,-1,1196,743,0,0
-21,281,0,0,0,0,0,0,0,0,0,-1,1203,743,0,0
-14,281,0,0,0,0,0,0,0,0,0,-1,1210,743,0,0
-7,281,0,0,0,0,0,0,0,0,0,-1,1217,743,0,0
0,281,0,0,0,0,0,0,0,0,0,-1,1224,743,0,0
7,281,0,0,0,0,0,0,0,0,0,-1,1231,743,0,0
14,281,0,0,0,0,0,0,0,0,0,-1,1238,743,0,0
21,281,0,0,0,0,0,0,0,0,0,-1,1245,743,0,0
28,281,0,0,0,0,0,0,0,0,0,-1,1252,743,0,0
35,281,0,0,0,0,0,0,0,0,0,-1,1259,743,0,0
42,281,0,0,0,0,0,0,0,0,0,-1,1266,743,0,0
49,281,0,0,0,0,0,0,0,0,0,-1,1273,743,0,0
56,281,0,0,0,0,0,0,0,0,0,-1,1280,743,0,0
63,281,0,0,0,0,0,0,0,0,0,-1,1287,743,0,0
70,281,0,0,0,0,0,0,0,0,0,-1,1294,743,0,0
77,281,0,0,0,0,0,0,0,0,0,-1,1301,743,0,0
84,281,0,0,0,0,0,0,0,0,0,-1,1308,743,0,0
91,281,0,0,0,0,0,0,0,0,0,-1,1315,743,0,0
98,281,0,0,0,0,0,0,0,0,0,-1,1322,743,0,0
105,281,0,0,0,0,0,0,0,0,0,-1,1329,743,0,0
112,281,0,0,0,0,0,0,0,0,0,-1,1336,743,0,0
119,281,0,0,0,0,0,0,0,0,0,-1,1343,743,0,0
126,281,0,0,0,0,0,0,0,0,0,-1,1350,743,0,0
133,281,0,0,0,0,0,0,0,0,0,-1,1357,743,0,0
140,281,0,0,0,0,0,0,0,0,0,-1,1364,743,0,0
147,281,0,0,0,0,0,0,0,0,0,-1,1371,743,0,0
154,281,0,0,0,0,0,0,0,0,0,-1,1378,743,0,0
161,281,0,0,0,0,0,0,0,0,0,-1,1385,743,0,0
168,281,0,0,0,0,0,0,0,0,0,-1,1392,743,0,0
175,281,0,0,0,0,0,0,0,0,0,-1,1399,743,0,0
182,281,0,0,0,0,0,0,0,0,0,-1,1406,743,0,0
189,281,0,0,0,0,0,0,0,0,0,-1,1413,743,0,0
196,281,0,0,0,0,0,0,0,0,0,-1,1420,743,0,0
203,281,0,0,0,0,0,0,0,0,0,-1,1427,743,0,0
210,281,0,0,0,0,0,0,0,0,0,-1,1434,743,0,0
217,281,0,0,0,0,0,0,0,0,0,-1,1441,743,0,0
224,281,0,0,0,0,0,0,0,0,0,-1,1448,743,0,0
231,281,0,0,0,0,0,0,0,0,0,-1,1455,743,0,0
238,281,0,0,0,0,0,0,0,0,0,-1,1462,743,0,0
245,281,0,0,0,0,0,0,0,0,0,-1,1469,743,0,0
252,281,0,0,0,0,0,0,0,0,0,-1,1476,743,0,0
259,281,0,0,0,0,0,0,0,0,0,-1,1483,743,0,0
266,281,0,0,0,0,0,0,0,0,0,-1,1490,743,0,0
273,281,0,0,0,0,0,0,0,0,0,-1,1497,743,0,0
280,281,0,0,0,0,0,0,0,0,0,-1,1504,743,0,0
287,281,0,0,0,0,0,0,0,0,0,-1,1511,743,0,0
294,281,0,0,0,0,0,0,0,0,0,-1,1518,743,0,0
301,281,0,0,0,0,0,0,0,0,0,-1,1525,743,0,0
308,281,0,0,0,0,0,0,0,0,0,-1,1532,743,0,0
315,281,0,0,0,0,0,0,0,0,0,-1,1539,743,0,0
322,281,0,0,0,0,0,0,0,0,0,-1,1546,743,0,0
329,281,0,0,0,0,0,0,0,0,0,-1,1553,743,0,0
336,281,0,0,0,0,0,0,0,0,0,-1,1560,743,0,0
343,281,0,0,0,0,0,0,0,0,0,-1,1567,743,0,0
350,281,0,0,0,0,0,0,0,0,0,-1,1574,743,0,0
357,281,0,0,0,0,0,0,0,0,0,-1,1581,743,0,0
364,281,0,0,0,0,0,0,0,0,0,-1,1588,743,0,0
371,281,0,0,0,0,0,0,0,0,0,-1,1595,743,0,0
378,281,0,0,0,0,0,0,0,0,0,-1,1602,743,0,0
385,281,0,0,0,0,0,0,0,0,0,-1,1609,743,0,0
392,281,0,0,0,0,0,0,0,0,0,-1,1616,743,0,0
399,281,0,0,0,0,0,0,0,0,0,-1,1623,743,0,0
406,281,0,0,0,0,0,0,0,0,0,-1,1630,743,0,0
413,281,0,0,0,0,0,0,0,0,0,-1,1637,743,0,0
420,281,0,0,0,0,0,0,0,0,0,-1,1644,743,0,0
427,281,0,0,0,0,0,0,0,0,0,-1,1651,743,0,0
434,281,0,0,0,0,0,0,0,0,0,-1,1658,743,0,0
441,281,0,0,0,0,0,0,0,0,0,-1,1665,743,0,0
448,281,0,0,0,0,0,0,0,0,0,-1,1672,743,0,0
455,281,0,0,0,0,0,0,0,0,0,-1,1679,743,0,0
462,281,0,0,0,0,0,0,0,0,0,-1,1686,743,0,0
469,281,0,0,0,0,0,0,0,0,0,-1,1693,743,0,0
476,281,0,0,0,0,0,0,0,0,0,-1,1700,743,0,0
483,281,0,0,0,0,0,0,0,0,0,-1,1707,743,0,0
490,281,0,0,0,0,0,0,0,0,0,-1,1714,743,0,0
497,281,0,0,0,0,0,0,0,0,0,-1,1721,743,0,0
504,281,0,0,0,0,0,0,0,0,0,-1,1728,743,0,0
511,281,0,0,0,0,0,0,0,0,0,-1,1735,743,0,0
518,281,0,0,0,0,0,0,0,0,0,-1,1742,743,0,0
525,281,0,0,0,0,0,0,0,0,0,-1,1749,743,0,0
532,281,0,0,0,0,0,0,0,0,0,-1,1756,743,0,0
539,281,0,0,0,0,0,0,0,0,0,-1,1763,743,0,0
546,281,0,0,0,0,0,0,0,0,0,-1,1770,743,0,0
553,281,0,0,0,0,0,0,0,0,0,-1,1777,743,0,0
560,281,27.1642,3.54712,0,0,0,0,0,0,0,-1,1784,743,27.1641,-3.54715
567,281,25.8134,4.5213,0,0,0,0,0,0,0,-1,1791,743,25.8133,-4.52132
574,281,26.2173,4.0072,0.0527495,0.0236653,0.0284546,0.0701626,0.00625214,0.549169,0.0448366,0.0470393,1798,743,26.2172,-4.00723
581,281,26.8221,3.56323,0.0465178,0.0181386,0.0252009,0.0612493,0.00340706,0.528991,0.0397459,0.0449726,1805,743,26.8222,-3.56321
588,281,27.1969,3.83478,0.0393515,0.0137189,0.0207086,0.0508889,0.0021815,0.508302,0.0332227,0.0450495,1812,743,27.1968,-3.83477
595,281,27.5609,4.18365,0,0,0,0,0,0,0,-1,1819,743,27.5609,-4.18368
602,281,26.5714,3.45642,0,0,0,0,0,0,0,-1,1826,743,26.5715,-3.45644
609,281,20.3328,4.56146,0,0,0,0,0,0,0,-1,1833,743,20.3328,-4.56145
616,281,19.7532,0.0239868,0,0,0,0,0,0,0,-1,1840,743,19.7532,-0.0239913
623,281,17.4698,-0.345642,0,0,0,0,0,0,0,-1,1847,743,17.4698,0.345616
630,281,17.559,-0.0534058,0.00855375,-0.00150938,0.0025556,0.00916557,-0.00212119,0.234979,0.00692657,0.0388423,1854,743,17.5589,0.0533989
637,281,17.6085,0.273499,0.00531663,-0.00177318,0.000517534,0.00535421,-0.00181076,0.0724849,0.00430202,0.0141895,1861,743,17.6085,-0.273504
644,281,17.6298,0.598328,0.00253251,-0.00215849,-0.000339391,0.00255694,-0.00218292,-0.0718507,0.00273939,0.0109011,1868,743,17.6298,-0.598323
651,281,17.6392,0.91864,0.0011693,-0.00165003,-1.58837e-05,0.00116939,-0.00165012,-0.00563362,0.00163571,0.0107082,1875,743,17.6392,-0.918613
658,281,17.6244,1.26855,0.000744275,-0.00110407,-0.000225333,0.000771349,-0.00113115,-0.119578,0.00110493,0.0180602,1882,743,17.6244,-1.26856
665,281,17.6199,1.5882,0.000560578,-0.000685198,-0.000262819,0.000613755,-0.000738375,-0.199637,0.000781757,0.0201109,1889,743,17.6199,-1.58821
672,281,17.6171,1.90839,0.00055044,0.00037605,2.0186e-05,0.000552746,0.000373744,0.113748,0.000325663,0.0119631,1896,743,17.6171,-1.90841
679,281,17.6193,2.21765,0.000832395,0.00141116,0.000514934,0.00171245,0.000531099,1.04139,0.00101216,0.0185721,1903,743,17.6192,-2.21766
686,281,17.5868,2.52332,0.00124428,0.00261315,0.00118503,0.0032972,0.000560234,1.04728,0.00203723,0.0148808,1910,743,17.5868,-2.52333
693,281,17.5802,2.83466,0.00197293,0.00394066,0.0021115,0.00528626,0.000627331,1.00342,0.00333479,0.0107774,1917,743,17.5802,-2.83465
700,281,17.5784,3.15485,0.00333567,0.00565669,0.00362582,0.00830319,0.000689166,0.94028,0.00532064,0.0191597,1924,743,17.5784,-3.15482
707,281,17.5715,3.31891,0.00544767,0.00794613,0.00584208,0.012671,0.000722749,0.890728,0.00821705,0.0390923,1931,743,17.5715,-3.3189
714,281,17.6049,3.45154,0,0,0,0,0,0,0,-1,1938,743,17.6049,-3.45153
721,281,16.9656,3.22174,0,0,0,0,0,0,0,-1,1945,743,16.9656,-3.22172
728,281,19.0251,3.63934,0,0,0,0,0,0,0,-1,1952,743,19.0252,-3.63932
735,281,19.0869,2.50311,0,0,0,0,0,0,0,-1,1959,743,19.0869,-2.5031
742,281,0,0,0,0,0,0,0,0,0,-1,1966,743,0,0
749,281,0,0,0,0,0,0,0,0,0,-1,1973,743,0,0
756,281,0,0,0,0,0,0,0,0,0,-1,1980,743,0,0
763,281,0,0,0,0,0,0,0,0,0,-1,1987,743,0,0
770,281,0,0,0,0,0,0,0,0,0,-1,1994,743,0,0
777,281,0,0,0,0,0,0,0,0,0,-1,2001,743,0,0
784,281,0,0,0,0,0,0,0,0,0,-1,2008,743,0,0
791,281,0,0,0,0,0,0,0,0,0,-1,2015,743,0,0
798,281,0,0,0,0,0,0,0,0,0,-1,2022,743,0,0
805,281,0,0,0,0,0,0,0,0,0,-1,2029,743,0,0
812,281,0,0,0,0,0,0,0,0,0,-1,2036,743,0,0
-700,274,0,0,0,0,0,0,0,0,0,-1,524,750,0,0
-693,274,0,0,0,0,0,0,0,0,0,-1,531,750,0,0
-686,274,0,0,0,0,0,0,0,0,0,-1,538,750,0,0
-679,274,0,0,0,0,0,0,0,0,0,-1,545,750,0,0
-672,274,0,0,0,0,0,0,0,0,0,-1,552,750,0,0
-665,274,0,0,0,0,0,0,0,0,0,-1,559,750,0,0
-658,274,0,0,0,0,0,0,0,0,0,-1,566,750,0,0
-651,274,0,0,0,0,0,0,0,0,0,-1,573,750,0,0
-644,274,0,0,0,0,0,0,0,0,0,-1,580,750,0,0
-637,274,0,0,0,0,0,0,0,0,0,-1,587,750,0,0
-630,274,0,0,0,0,0,0,0,0,0,-1,594,750,0,0
-623,274,-10.353,3.28625,0,0,0,0,0,0,0,-1,601,750,-10.353,-3.28627
-616,274,-10.1837,2.06488,0,0,0,0,0,0,0,-1,608,750,-10.1837,-2.0649
-609,274,-10.475,1.40955,0,0,0,0,0,0,0,-1,615,750,-10.475,-1.40956
-602,274,-10.8454,2.81104,0,0,0,0,0,0,0,-1,622,750,-10.8454,-2.81104
-595,274,-10.8245,3.17975,0,0,0,0,0,0,0,-1,629,750,-10.8245,-3.17974
-588,274,-10.7324,2.0257,0,0,0,0,0,0,0,-1,636,750,-10.7324,-2.0257
-581,274,-10.7802,1.56171,-0.001851,0.000650472,-0.00103624,0.00102397,-0.0022245,-1.22485,0.00191773,0.0366003,643,750,-10.7801,-1.56168
-574,274,-10.8291,1.08185,-0.00419518,-0.000367183,0.000960675,-0.000139619,-0.00442274,1.3382,0.00290307,0.0202633,650,750,-10.8291,-1.08185
-567,274,-10.8972,0.801086,-0.0046491,-0.000435785,0.00177712,0.000213672,-0.00529856,1.22042,0.00360571,0.019316,657,750,-10.8972,-0.801112
-560,274,-10.9,0.520264,-0.00457901,-0.000563762,0.00219275,0.000401607,-0.00554438,1.15608,0.00383714,0.0146009,664,750,-10.9,-0.520257
-553,274,-10.9,0.187805,-0.00467812,-0.000705202,0.00250506,0.000505421,-0.00588874,1.12062,0.00410469,0.00874849,671,750,-10.9,-0.187835
-546,274,-10.8959,-0.111877,-0.00432238,-0.000543612,0.00221192,0.00047602,-0.00534201,1.13886,0.00373015,0.0105289,678,750,-10.896,0.111848
-539,274,-10.906,-0.409729,-0.00382723,-0.00057997,0.00198272,0.000359084,-0.00476628,1.12847,0.00330373,0.0118448,685,750,-10.906,0.4097
-532,274,-10.9179,-0.681824,-0.00345592,-0.000723189,0.00194147,0.000284523,-0.00446363,1.09203,0.00307499,0.0119377,692,750,-10.9179,0.681793
-525,274,-10.9175,-0.979919,-0.00310132,-0.000907578,0.00197058,0.000250838,-0.00425974,1.03936,0.00292702,0.0120973,699,750,-10.9175,0.97993
-518,274,-10.9146,-1.31244,-0.00311905,-0.000626244,0.00269677,0.00109823,-0.00484352,1.00187,0.00365058,0.0128547,706,750,-10.9146,1.31242
-511,274,-10.9303,-1.64313,-0.00313478,-0.000240914,0.00350468,0.00210377,-0.00547947,0.981169,0.00452047,0.0124255,713,750,-10.9303,1.64312
-504,274,-10.9583,-1.96008,-0.0028482,-5.43101e-05,0.00434687,0.00311457,-0.00601708,0.94087,0.0053602,0.0214365,720,750,-10.9583,1.96011
-497,274,-11.0438,-2.32037,-0.00265667,0.000276798,0.0055373,0.00453833,-0.0069182,0.914866,0.00666183,0.0447764,727,750,-11.0438,2.32035
-490,274,-11.1143,-2.66522,0,0,0,0,0,0,0,-1,734,750,-11.1143,2.66521
-483,274,-17.9419,0.918274,0,0,0,0,0,0,0,-1,741,750,-17.9419,-0.918264
-476,274,-17.8922,1.48376,0,0,0,0,0,0,0,-1,748,750,-17.8921,-1.48375
-469,274,-18.6769,1.55377,-0.00249962,0.00534643,0.0122766,0.0143116,-0.0114648,0.940046,0.0149123,0.0470996,755,750,-18.6769,-1.55379
-462,274,-19.1336,1.69281,-0.00414829,0.0081277,0.0144028,0.0176458,-0.0136664,0.986828,0.0181267,0.0496059,762,750,-19.1336,-1.69279
-455,274,-19.2347,1.85114,0,0,0,0,0,0,0,-1,769,750,-19.2348,-1.85116
-448,274,-19.2645,1.99432,0,0,0,0,0,0,0,-1,776,750,-19.2645,-1.99433
-441,274,0,0,0,0,0,0,0,0,0,-1,783,750,0,0
-434,274,0,0,0,0,0,0,0,0,0,-1,790,750,0,0
-427,274,0,0,0,0,0,0,0,0,0,-1,797,750,0,0
-420,274,0,0,0,0,0,0,0,0,0,-1,804,750,0,0
-413,274,0,0,0,0,0,0,0,0,0,-1,811,750,0,0
-406,274,0,0,0,0,0,0,0,0,0,-1,818,750,0,0
-399,274,0,0,0,0,0,0,0,0,0,-1,825,750,0,0
-392,274,0,0,0,0,0,0,0,0,0,-1,832,750,0,0
-385,274,0,0,0,0,0,0,0,0,0,-1,839,750,0,0
-378,274,0,0,0,0,0,0,0,0,0,-1,846,750,0,0
-371,274,0,0,0,0,0,0,0,0,0,-1,853,750,0,0
-364,274,0,0,0,0,0,0,0,0,0,-1,860,750,0,0
-357,274,0,0,0,0,0,0,0,0,0,-1,867,750,0,0
-350,274,0,0,0,0,0,0,0,0,0,-1,874,750,0,0
-343,274,0,0,0,0,0,0,0,0,0,-1,881,750,0,0
-336,274,0,0,0,0,0,0,0,0,0,-1,888,750,0,0
-329,274,0,0,0,0,0,0,0,0,0,-1,895,750,0,0
-322,274,0,0,0,0,0,0,0,0,0,-1,902,750,0,0
-315,274,0,0,0,0,0,0,0,0,0,-1,909,750,0,0
-308,274,0,0,0,0,0,0,0,0,0,-1,916,750,0,0
-301,274,0,0,0,0,0,0,0,0,0,-1,923,750,0,0
-294,274,0,0,0,0,0,0,0,0,0,-1,930,750,0,0
-287,274,0,0,0,0,0,0,0,0,0,-1,937,750,0,0
-280,274,0,0,0,0,0,0,0,0,0,-1,944,750,0,0
-273,274,0,0,0,0,0,0,0,0,0,-1,951,750,0,0
-266,274,0,0,0,0,0,0,0,0,0,-1,958,750,0,0
-259,274,0,0,0,0,0,0,0,0,0,-1,965,750,0,0
-252,274,0,0,0,0,0,0,0,0,0,-1,972,750,0,0
-245,274,0,0,0,0,0,0,0,0,0,-1,979,750,0,0
-238,274,0,0,0,0,0,0,0,0,0,-1,986,750,0,0
-231,274,0,0,0,0,0,0,0,0,0,-1,993,750,0,0
-224,274,0,0,0,0,0,0,0,0,0,-1,1000,750,0,0
-217,274,0,0,0,0,0,0,0,0,0,-1,1007,750,0,0
-210,274,0,0,0,0,0,0,0,0,0,-1,1014,750,0,0
-203,274,0,0,0,0,0,0,0,0,0,-1,1021,750,0,0
-196,274,0,0,0,0,0,0,0,0,0,-1,1028,750,0,0
-189,274,0,0,0,0,0,0,0,0,0,-1,1035,750,0,0
-182,274,0,0,0,0,0,0,0,0,0,-1,1042,750,0,0
-175,274,0,0,0,0,0,0,0,0,0,-1,1049,750,0,0
-168,274,0,0,0,0,0,0,0,0,0,-1,1056,750,0,0
-161,274,0,0,0,0,0,0,0,0,0,-1,1063,750,0,0
-154,274,0,0,0,0,0,0,0,0,0,-1,1070,750,0,0
-147,274,0,0,0,0,0,0,0,0,0,-1,1077,750,0,0
-140,274,0,0,0,0,0,0,0,0,0,-1,1084,750,0,0
-133,274,0,0,0,0,0,0,0,0,0,-1,1091,750,0,0
-126,274,0,0,0,0,0,0,0,0,0,-1,1098,750,0,0
-119,274,0,0,0,0,0,0,0,0,0,-1,1105,750,0,0
-112,274,0,0,0,0,0,0,0,0,0,-1,1112,750,0,0
-105,274,0,0,0,0,0,0,0,0,0,-1,1119,750,0,0
-98,274,0,0,0,0,0,0,0,0,0,-1,1126,750,0,0
-91,274,0,0,0,0,0,0,0,0,0,-1,1133,750,0,0
-84,274,0,0,0,0,0,0,0,0,0,-1,1140,750,0,0
-77,274,0,0,0,0,0,0,0,0,0,-1,1147,750,0,0
-70,274,0,0,0,0,0,0,0,0,0,-1,1154,750,0,0
-63,274,0,0,0,0,0,0,0,0,0,-1,1161,750,0,0
-56,274,0,0,0,0,0,0,0,0,0,-1,1168,750,0,0
-49,274,0,0,0,0,0,0,0,0,0,-1,1175,750,0,0
-42,274,0,0,0,0,0,0,0,0,0,-1,1182,750,0,0
-35,274,0,0,0,0,0,0,0,0,0,-1,1189,750,0,0
-28,274,0,0,0,0,0,0,0,0,0,-1,1196,750,0,0
-21,274,0,0,0,0,0,0,0,0,0,-1,1203,750,0,0
-14,274,0,0,0,0,0,0,0,0,0,-1,1210,750,0,0
-7,274,0,0,0,0,0,0,0,0,0,-1,1217,750,0,0
0,274,0,0,0,0,0,0,0,0,0,-1,1224,750,0,0
7,274,0,0,0,0,0,0,0,0,0,-1,1231,750,0,0
14,274,0,0,0,0,0,0,0,0,0,-1,1238,750,0,0
21,274,0,0,0,0,0,0,0,0,0,-1,1245,750,0,0
28,274,0,0,0,0,0,0,0,0,0,-1,1252,750,0,0
35,274,0,0,0,0,0,0,0,0,0,-1,1259,750,0,0
42,274,0,0,0,0,0,0,0,0,0,-1,1266,750,0,0
49,274,0,0,0,0,0,0,0,0,0,-1,1273,750,0,0
56,274,0,0,0,0,0,0,0,0,0,-1,1280,750,0,0
63,274,0,0,0,0,0,0,0,0,0,-1,1287,750,0,0
70,274,0,0,0,0,0,0,0,0,0,-1,1294,750,0,0
77,274,0,0,0,0,0,0,0,0,0,-1,1301,750,0,0
84,274,0,0,0,0,0,0,0,0,0,-1,1308,750,0,0
91,274,0,0,0,0,0,0,0,0,0,-1,1315,750,0,0
98,274,0,0,0,0,0,0,0,0,0,-1,1322,750,0,0
105,274,0,0,0,0,0,0,0,0,0,-1,1329,750,0,0
112,274,0,0,0,0,0,0,0,0,0,-1,1336,750,0,0
119,274,0,0,0,0,0,0,0,0,0,-1,1343,750,0,0
126,274,0,0,0,0,0,0,0,0,0,-1,1350,750,0,0
133,274,0,0,0,0,0,0,0,0,0,-1,1357,750,0,0
140,274,0,0,0,0,0,0,0,0,0,-1,1364,750,0,0
147,274,0,0,0,0,0,0,0,0,0,-1,1371,750,0,0
154,274,0,0,0,0,0,0,0,0,0,-1,1378,750,0,0
161,274,0,0,0,0,0,0,0,0,0,-1,1385,750,0,0
168,274,0,0,0,0,0,0,0,0,0,-1,1392,750,0,0
175,274,0,0,0,0,0,0,0,0,0,-1,1399,750,0,0
182,274,0,0,0,0,0,0,0,0,0,-1,1406,750,0,0
189,274,0,0,0,0,0,0,0,0,0,-1,1413,750,0,0
196,274,0,0,0,0,0,0,0,0,0,-1,1420,750,0,0
203,274,0,0,0,0,0,0,0,0,0,-1,1427,750,0,0
210,274,0,0,0,0,0,0,0,0,0,-1,1434,750,0,0
217,274,0,0,0,0,0,0,0,0,0,-1,1441,750,0,0
224,274,0,0,0,0,0,0,0,0,0,-1,1448,750,0,0
231,274,0,0,0,0,0,0,0,0,0,-1,1455,750,0,0
238,274,0,0,0,0,0,0,0,0,0,-1,1462,750,0,0
245,274,0,0,0,0,0,0,0,0,0,-1,1469,750,0,0
252,274,0,0,0,0,0,0,0,0,0,-1,1476,750,0,0
259,274,0,0,0,0,0,0,0,0,0,-1,1483,750,0,0
266,274,0,0,0,0,0,0,0,0,0,-1,1490,750,0,0
273,274,0,0,0,0,0,0,0,0,0,-1,1497,750,0,0
280,274,0,0,0,0,0,0,0,0,0,-1,1504,750,0,0
287,274,0,0,0,0,0,0,0,0,0,-1,1511,750,0,0
294,274,0,0,0,0,0,0,0,0,0,-1,1518,750,0,0
301,274,0,0,0,0,0,0,0,0,0,-1,1525,750,0,0
308,274,0,0,0,0,0,0,0,0,0,-1,1532,750,0,0
315,274,0,0,0,0,0,0,0,0,0,-1,1539,750,0,0
322,274,0,0,0,0,0,0,0,0,0,-1,1546,750,0,0
329,274,0,0,0,0,0,0,0,0,0,-1,1553,750,0,0
336,274,0,0,0,0,0,0,0,0,0,-1,1560,750,0,0
343,274,0,0,0,0,0,0,0,0,0,-1,1567,750,0,0
350,274,0,0,0,0,0,0,0,0,0,-1,1574,750,0,0
357,274,0,0,0,0,0,0,0,0,0,-1,1581,750,0,0
364,274,0,0,0,0,0,0,0,0,0,-1,1588,750,0,0
371,274,0,0,0,0,0,0,0,0,0,-1,1595,750,0,0
378,274,0,0,0,0,0,0,0,0,0,-1,1602,750,0,0
385,274,0,0,0,0,0,0,0,0,0,-1,1609,750,0,0
392,274,0,0,0,0,0,0,0,0,0,-1,1616,750,0,0
399,274,0,0,0,0,0,0,0,0,0,-1,1623,750,0,0
406,274,0,0,0,0,0,0,0,0,0,-1,1630,750,0,0
413,274,0,0,0,0,0,0,0,0,0,-1,1637,750,0,0
420,274,0,0,0,0,0,0,0,0,0,-1,1644,750,0,0
427,274,0,0,0,0,0,0,0,0,0,-1,1651,750,0,0
434,274,0,0,0,0,0,0,0,0,0,-1,1658,750,0,0
441,274,0,0,0,0,0,0,0,0,0,-1,1665,750,0,0
448,274,0,0,0,0,0,0,0,0,0,-1,1672,750,0,0
455,274,0,0,0,0,0,0,0,0,0,-1,1679,750,0,0
462,274,0,0,0,0,0,0,0,0,0,-1,1686,750,0,0
469,274,0,0,0,0,0,0,0,0,0,-1,1693,750,0,0
476,274,0,0,0,0,0,0,0,0,0,-1,1700,750,0,0
483,274,0,0,0,0,0,0,0,0,0,-1,1707,750,0,0
490,274,0,0,0,0,0,0,0,0,0,-1,1714,750,0,0
497,274,0,0,0,0,0,0,0,0,0,-1,1721,750,0,0
504,274,0,0,0,0,0,0,0,0,0,-1,1728,750,0,0
511,274,0,0,0,0,0,0,0,0,0,-1,1735,750,0,0
518,274,0,0,0,0,0,0,0,0,0,-1,1742,750,0,0
525,274,0,0,0,0,0,0,0,0,0,-1,1749,750,0,0
532,274,0,0,0,0,0,0,0,0,0,-1,1756,750,0,0
539,274,0,0,0,0,0,0,0,0,0,-1,1763,750,0,0
546,274,0,0,0,0,0,0,0,0,0,-1,1770,750,0,0
553,274,0,0,0,0,0,0,0,0,0,-1,1777,750,0,0
560,274,27.0779,3.41571,0,0,0,0,0,0,0,-1,1784,750,27.0779,-3.41572
567,274,26.7433,3.77686,0.0410704,0.0303777,0.0158579,0.052459,0.0189891,0.622811,0.0306694,0.0421939,1791,750,26.7433,-3.77687
574,274,26.6494,3.7572,0.0440556,0.0224188,0.0198964,0.0558846,0.0105898,0.536386,0.0342761,0.0462054,1798,750,26.6495,-3.75718
581,274,27.2935,3.64844,0,0,0,0,0,0,0,-1,1805,750,27.2934,-3.64841
588,274,27.1343,3.85999,0,0,0,0,0,0,0,-1,1812,750,27.1342,-3.85999
595,274,27.2,4.04333,0,0,0,0,0,0,0,-1,1819,750,27.2,-4.04335
602,274,26.6516,3.29724,0,0,0,0,0,0,0,-1,1826,750,26.6516,-3.29724
609,274,28.4102,3.68622,0,0,0,0,0,0,0,-1,1833,750,28.4101,-3.68619
616,274,26.0671,4.83429,0,0,0,0,0,0,0,-1,1840,750,26.0672,-4.83429
623,274,18.0841,-0.20929,0,0,0,0,0,0,0,-1,1847,750,18.0841,0.209285
630,274,18.0282,0.00726318,0.0084138,-0.00145706,0.002121,0.00885026,-0.00189351,0.202944,0.0066222,0.0453312,1854,750,18.0283,-0.00724336
637,274,17.9359,0.270813,0.00547944,-0.00169134,0.000435067,0.00550574,-0.00171764,0.0603771,0.00435738,0.0142711,1861,750,17.936,-0.270809
644,274,17.9453,0.600952,0.00279266,-0.00210056,-0.000262656,0.00280671,-0.00211462,-0.0534727,0.00285068,0.0121302,1868,750,17.9453,-0.60094
651,274,17.9528,0.934082,0.00129913,-0.00172366,3.4422e-05,0.00129952,-0.00172405,0.0113855,0.00175139,0.0124866,1875,750,17.9528,-0.934105
658,274,17.959,1.25134,0.000783714,-0.00133469,-0.000301614,0.00082582,-0.0013768,-0.138706,0.00128488,0.0151816,1882,750,17.959,-1.25136
665,274,17.9478,1.57532,0.000593886,-0.00110687,-0.000426941,0.000695044,-0.00120803,-0.232647,0.00111197,0.0160182,1889,750,17.9477,-1.57531
672,274,17.9249,1.91644,0.000634247,-9.97619e-05,-0.000202337,0.000686327,-0.000151843,-0.251928,0.000515672,0.0134261,1896,750,17.9249,-1.91644
679,274,17.9296,2.23157,0.000982695,0.000891837,0.000273835,0.00121484,0.000659688,0.703197,0.000702255,0.01452,1903,750,17.9296,-2.23155
686,274,17.9176,2.55255,0.00148415,0.00209834,0.000986803,0.00282472,0.000757759,0.936249,0.00168823,0.0147984,1910,750,17.9176,-2.55255
693,274,17.9072,2.87225,0.00225212,0.00336264,0.00192534,0.00481119,0.000803566,0.925787,0.00297599,0.0114078,1917,750,17.9072,-2.87226
700,274,17.9121,3.18689,0.00356428,0.00492183,0.00335063,0.00766175,0.000824364,0.885336,0.00485642,0.0133168,1924,750,17.9121,-3.18692
707,274,17.8928,3.47955,0.00555278,0.00691191,0.00539542,0.0116704,0.000794295,0.848044,0.00752948,0.0212556,1931,750,17.8929,-3.47958
714,274,17.9594,3.81995,0.00819602,0.00927397,0.00817082,0.0169236,0.000546422,0.818332,0.0111047,0.0427749,1938,750,17.9593,-3.81997
721,274,18.0901,4.96417,0,0,0,0,0,0,0,-1,1945,750,18.0901,-4.96418
728,274,19.2209,3.95154,0,0,0,0,0,0,0,-1,1952,750,19.221,-3.95151
735,274,20.6608,4.10931,0,0,0,0,0,0,0,-1,1959,750,20.6607,-4.10932
742,274,11.7815,-0.740234,0,0,0,0,0,0,0,-1,1966,750,11.7815,0.740253
749,274,0,0,0,0,0,0,0,0,0,-1,1973,750,0,0
756,274,0,0,0,0,0,0,0,0,0,-1,1980,750,0,0
763,274,0,0,0,0,0,0,0,0,0,-1,1987,750,0,0
770,274,0,0,0,0,0,0,0,0,0,-1,1994,750,0,0
777,274,0,0,0,0,0,0,0,0,0,-1,2001,750,0,0
784,274,0,0,0,0,0,0,0,0,0,-1,2008,750,0,0
791,274,0,0,0,0,0,0,0,0,0,-1,2015,750,0,0
798,274,0,0,0,0,0,0,0,0,0,-1,2022,750,0,0
805,274,0,0,0,0,0,0,0,0,0,-1,2029,750,0,0
812,274,0,0,0,0,0,0,0,0,0,-1,2036,750,0,0
-700,267,0,0,0,0,0,0,0,0,0,-1,524,757,0,0
-693,267,0,0,0,0,0,0,0,0,0,-1,531,757,0,0
-686,267,0,0,0,0,0,0,0,0,0,-1,538,757,0,0
-679,267,0,0,0,0,0,0,0,0,0,-1,545,757,0,0
-672,267,0,0,0,0,0,0,0,0,0,-1,552,757,0,0
-665,267,0,0,0,0,0,0,0,0,0,-1,559,757,0,0
-658,267,0,0,0,0,0,0,0,0,0,-1,566,757,0,0
-651,267,0,0,0,0,0,0,0,0,0,-1,573,757,0,0
-644,267,0,0,0,0,0,0,0,0,0,-1,580,757,0,0
-637,267,0,0,0,0,0,0,0,0,0,-1,587,757,0,0
-630,267,-11.1992,3.89575,0,0,0,0,0,0,0,-1,594,757,-11.1992,-3.89575
-623,267,-10.895,3.50098,0,0,0,0,0,0,0,-1,601,757,-10.895,-3.50096
-616,267,-10.9207,2.94617,0,0,0,0,0,0,0,-1,608,757,-10.9207,-2.94619
-609,267,-11.6998,2.80499,0,0,0,0,0,0,0,-1,615,757,-11.6998,-2.80497
-602,267,-11.2249,2.71851,0,0,0,0,0,0,0,-1,622,757,-11.2249,-2.71853
-595,267,-10.2808,2.53687,0,0,0,0,0,0,0,-1,629,757,-10.2807,-2.53686
-588,267,-10.6507,2.03015,0.00655238,0.00407332,-0.00566315,0.0111101,-0.000484359,-0.677659,0.00757333,0.044589,636,757,-10.6507,-2.03017
-581,267,-11.1036,1.5022,0.00154474,0.00148341,-0.00281226,0.0043265,-0.00129835,-0.779946,0.00340076,0.0287188,643,757,-11.1035,-1.50221
-574,267,-11.1495,1.09088,-0.00135611,0.000269596,-0.000562449,0.000445216,-0.00153173,-1.26815,0.00119747,0.0159004,650,757,-11.1495,-1.09089
-567,267,-11.1805,0.847534,-0.00241359,4.75046e-05,0.000539343,0.000160511,-0.0025266,1.36426,0.00174037,0.0222294,657,757,-11.1805,-0.847509
-560,267,-11.1749,0.55426,-0.00297036,-0.000213377,0.00127342,0.000284789,-0.00346852,1.1979,0.00241289,0.0231263,664,757,-11.1749,-0.55429
-553,267,-11.1917,0.231567,-0.00360915,-0.000374413,0.0018799,0.000488117,-0.00447168,1.14063,0.00315643,0.0176636,671,757,-11.1916,-0.231586
-546,267,-11.2078,-0.103516,-0.00374946,-0.000294914,0.00184415,0.000504543,-0.00454892,1.16174,0.00321402,0.0118396,678,757,-11.2077,0.103526
-539,267,-11.2156,-0.403992,-0.00369701,-0.000380032,0.00183897,0.000437845,-0.00451489,1.15232,0.00316598,0.0112212,685,757,-11.2156,0.404007
-532,267,-11.2004,-0.675415,-0.00369043,-0.000548383,0.0020063,0.000428799,-0.00466761,1.11756,0.00326408,0.0104127,692,757,-11.2004,0.675443
-525,267,-11.218,-0.96814,-0.0035268,-0.000814307,0.00216842,0.000387076,-0.00472818,1.06486,0.00328875,0.0100293,699,757,-11.218,0.968142
-518,267,-11.2388,-1.31311,-0.00360653,-0.00057952,0.00302023,0.00128521,-0.00547126,1.01767,0.0041429,0.010623,706,757,-11.2388,1.31312
-511,267,-11.2446,-1.62329,-0.0035405,-0.000274631,0.00383735,0.00226277,-0.00607791,0.986561,0.00498059,0.0150795,713,757,-11.2446,1.62327
-504,267,-11.3201,-1.86578,-0.00309218,-0.000179391,0.00463788,0.00322539,-0.00649696,0.937534,0.00571815,0.0284695,720,757,-11.32,1.86581
-497,267,-11.4412,-2.14209,-0.00268674,1.24923e-05,0.00577565,0.00459411,-0.00726836,0.900175,0.00690657,0.0497624,727,757,-11.4411,2.14206
-490,267,-11.5207,-2.42542,0,0,0,0,0,0,0,-1,734,757,-11.5207,2.42539
-483,267,-18.2355,0.567261,-0.00175198,0.00106362,0.00873257,0.00850114,-0.00918949,0.865317,0.0102163,0.0437298,741,757,-18.2355,-0.567287
-476,267,-18.5118,0.899841,0,0,0,0,0,0,0,-1,748,757,-18.5118,-0.899838
-469,267,-18.8387,1.21503,-0.0017406,0.00397274,0.0127473,0.0141796,-0.0119474,0.895627,0.0151028,0.0448363,755,757,-18.8387,-1.21505
-462,267,-19.2427,1.52838,-0.00297642,0.00615192,0.0149685,0.0172366,-0.0140611,0.93338,0.0181007,0.04747,762,757,-19.2427,-1.52837
-455,267,-19.3002,1.71271,0,0,0,0,0,0,0,-1,769,757,-19.3002,-1.71269
-448,267,-17.7267,1.81305,0,0,0,0,0,0,0,-1,776,757,-17.7268,-1.81304
-441,267,0,0,0,0,0,0,0,0,0,-1,783,757,0,0
-434,267,0,0,0,0,0,0,0,0,0,-1,790,757,0,0
-427,267,0,0,0,0,0,0,0,0,0,-1,797,757,0,0
-420,267,0,0,0,0,0,0,0,0,0,-1,804,757,0,0
-413,267,0,0,0,0,0,0,0,0,0,-1,811,757,0,0
-406,267,0,0,0,0,0,0,0,0,0,-1,818,757,0,0
-399,267,0,0,0,0,0,0,0,0,0,-1,825,757,0,0
-392,267,0,0,0,0,0,0,0,0,0,-1,832,757,0,0
-385,267,0,0,0,0,0,0,0,0,0,-1,839,757,0,0
-378,267,0,0,0,0,0,0,0,0,0,-1,846,757,0,0
-371,267,0,0,0,0,0,0,0,0,0,-1,853,757,0,0
-364,267,0,0,0,0,0,0,0,0,0,-1,860,757,0,0
-357,267,0,0,0,0,0,0,0,0,0,-1,867,757,0,0
-350,267,0,0,0,0,0,0,0,0,0,-1,874,757,0,0
-343,267,0,0,0,0,0,0,0,0,0,-1,881,757,0,0
-336,267,0,0,0,0,0,0,0,0,0,-1,888,757,0,0
-329,267,0,0,0,0,0,0,0,0,0,-1,895,757,0,0
-322,267,0,0,0,0,0,0,0,0,0,-1,902,757,0,0
-315,267,0,0,0,0,0,0,0,0,0,-1,909,757,0,0
-308,267,0,0,0,0,0,0,0,0,0,-1,916,757,0,0
-301,267,0,0,0,0,0,0,0,0,0,-1,923,757,0,0
-294,267,0,0,0,0,0,0,0,0,0,-1,930,757,0,0
-287,267,0,0,0,0,0,0,0,0,0,-1,937,757,0,0
-280,267,0,0,0,0,0,0,0,0,0,-1,944,757,0,0
-273,267,0,0,0,0,0,0,0,0,0,-1,951,757,0,0
-266,267,0,0,0,0,0,0,0,0,0,-1,958,757,0,0
-259,267,0,0,0,0,0,0,0,0,0,-1,965,757,0,0
-252,267,0,0,0,0,0,0,0,0,0,-1,972,757,0,0
-245,267,0,0,0,0,0,0,0,0,0,-1,979,757,0,0
-238,267,0,0,0,0,0,0,0,0,0,-1,986,757,0,0
-231,267,0,0,0,0,0,0,0,0,0,-1,993,757,0,0
-224,267,0,0,0,0,0,0,0,0,0,-1,1000,757,0,0
-217,267,0,0,0,0,0,0,0,0,0,-1,1007,757,0,0
-210,267,0,0,0,0,0,0,0,0,0,-1,1014,757,0,0
-203,267,0,0,0,0,0,0,0,0,0,-1,1021,757,0,0
-196,267,0,0,0,0,0,0,0,0,0,-1,1028,757,0,0
-189,267,0,0,0,0,0,0,0,0,0,-1,1035,757,0,0
-182,267,0,0,0,0,0,0,0,0,0,-1,1042,757,0,0
-175,267,0,0,0,0,0,0,0,0,0,-1,1049,757,0,0
-168,267,0,0,0,0,0,0,0,0,0,-1,1056,757,0,0
-161,267,0,0,0,0,0,0,0,0,0,-1,1063,757,0,0
-154,267,0,0,0,0,0,0,0,0,0,-1,1070,757,0,0
-147,267,0,0,0,0,0,0,0,0,0,-1,1077,757,0,0
-140,267,0,0,0,0,0,0,0,0,0,-1,1084,757,0,0
-133,267,0,0,0,0,0,0,0,0,0,-1,1091,757,0,0
-126,267,0,0,0,0,0,0,0,0,0,-1,1098,757,0,0
-119,267,0,0,0,0,0,0,0,0,0,-1,1105,757,0,0
-112,267,0,0,0,0,0,0,0,0,0,-1,1112,757,0,0
-105,267,0,0,0,0,0,0,0,0,0,-1,1119,757,0,0
-98,267,0,0,0,0,0,0,0,0,0,-1,1126,757,0,0
-91,267,0,0,0,0,0,0,0,0,0,-1,1133,757,0,0
-84,267,0,0,0,0,0,0,0,0,0,-1,1140,757,0,0
-77,267,0,0,0,0,0,0,0,0,0,-1,1147,757,0,0
-70,267,0,0,0,0,0,0,0,0,0,-1,1154,757,0,0
-63,267,0,0,0,0,0,0,0,0,0,-1,1161,757,0,0
-56,267,0,0,0,0,0,0,0,0,0,-1,1168,757,0,0
-49,267,0,0,0,0,0,0,0,0,0,-1,1175,757,0,0
-42,267,0,0,0,0,0,0,0,0,0,-1,1182,757,0,0
-35,267,0,0,0,0,0,0,0,0,0,-1,1189,757,0,0
-28,267,0,0,0,0,0,0,0,0,0,-1,1196,757,0,0
-21,267,0,0,0,0,0,0,0,0,0,-1,1203,757,0,0
-14,267,0,0,0,0,0,0,0,0,0,-1,1210,757,0,0
-7,267,0,0,0,0,0,0,0,0,0,-1,1217,757,0,0
0,267,0,0,0,0,0,0,0,0,0,-1,1224,757,0,0
7,267,0,0,0,0,0,0,0,0,0,-1,1231,757,0,0
14,267,0,0,0,0,0,0,0,0,0,-1,1238,757,0,0
21,267,0,0,0,0,0,0,0,0,0,-1,1245,757,0,0
28,267,0,0,0,0,0,0,0,0,0,-1,1252,757,0,0
35,267,0,0,0,0,0,0,0,0,0,-1,1259,757,0,0
42,267,0,0,0,0,0,0,0,0,0,-1,1266,757,0,0
49,267,0,0,0,0,0,0,0,0,0,-1,1273,757,0,0
56,267,0,0,0,0,0,0,0,0,0,-1,1280,757,0,0
63,267,0,0,0,0,0,0,0,0,0,-1,1287,757,0,0
70,267,0,0,0,0,0,0,0,0,0,-1,1294,757,0,0
77,267,0,0,0,0,0,0,0,0,0,-1,1301,757,0,0
84,267,0,0,0,0,0,0,0,0,0,-1,1308,757,0,0
91,267,0,0,0,0,0,0,0,0,0,-1,1315,757,0,0
98,267,0,0,0,0,0,0,0,0,0,-1,1322,757,0,0
105,267,0,0,0,0,0,0,0,0,0,-1,1329,757,0,0
112,267,0,0,0,0,0,0,0,0,0,-1,1336,757,0,0
119,267,0,0,0,0,0,0,0,0,0,-1,1343,757,0,0
126,267,0,0,0,0,0,0,0,0,0,-1,1350,757,0,0
133,267,0,0,0,0,0,0,0,0,0,-1,1357,757,0,0
140,267,0,0,0,0,0,0,0,0,0,-1,1364,757,0,0
147,267,0,0,0,0,0,0,0,0,0,-1,1371,757,0,0
154,267,0,0,0,0,0,0,0,0,0,-1,1378,757,0,0
161,267,0,0,0,0,0,0,0,0,0,-1,1385,757,0,0
168,267,0,0,0,0,0,0,0,0,0,-1,1392,757,0,0
175,267,0,0,0,0,0,0,0,0,0,-1,1399,757,0,0
182,267,0,0,0,0,0,0,0,0,0,-1,1406,757,0,0
189,267,0,0,0,0,0,0,0,0,0,-1,1413,757,0,0
196,267,0,0,0,0,0,0,0,0,0,-1,1420,757,0,0
203,267,0,0,0,0,0,0,0,0,0,-1,1427,757,0,0
210,267,0,0,0,0,0,0,0,0,0,-1,1434,757,0,0
217,267,0,0,0,0,0,0,0,0,0,-1,1441,757,0,0
224,267,0,0,0,0,0,0,0,0,0,-1,1448,757,0,0
231,267,0,0,0,0,0,0,0,0,0,-1,1455,757,0,0
238,267,0,0,0,0,0,0,0,0,0,-1,1462,757,0,0
245,267,0,0,0,0,0,0,0,0,0,-1,1469,757,0,0
252,267,0,0,0,0,0,0,0,0,0,-1,1476,757,0,0
259,267,0,0,0,0,0,0,0,0,0,-1,1483,757,0,0
266,267,0,0,0,0,0,0,0,0,0,-1,1490,757,0,0
273,267,0,0,0,0,0,0,0,0,0,-1,1497,757,0,0
280,267,0,0,0,0,0,0,0,0,0,-1,1504,757,0,0
287,267,0,0,0,0,0,0,0,0,0,-1,1511,757,0,0
294,267,0,0,0,0,0,0,0,0,0,-1,1518,757,0,0
301,267,0,0,0,0,0,0,0,0,0,-1,1525,757,0,0
308,267,0,0,0,0,0,0,0,0,0,-1,1532,757,0,0
315,267,0,0,0,0,0,0,0,0,0,-1,1539,757,0,0
322,267,0,0,0,0,0,0,0,0,0,-1,1546,757,0,0
329,267,0,0,0,0,0,0,0,0,0,-1,1553,757,0,0
336,267,0,0,0,0,0,0,0,0,0,-1,1560,757,0,0
343,267,0,0,0,0,0,0,0,0,0,-1,1567,757,0,0
350,267,0,0,0,0,0,0,0,0,0,-1,1574,757,0,0
357,267,0,0,0,0,0,0,0,0,0,-1,1581,757,0,0
364,267,0,0,0,0,0,0,0,0,0,-1,1588,757,0,0
371,267,0,0,0,0,0,0,0,0,0,-1,1595,757,0,0
378,267,0,0,0,0,0,0,0,0,0,-1,1602,757,0,0
385,267,0,0,0,0,0,0,0,0,0,-1,1609,757,0,0
392,267,0,0,0,0,0,0,0,0,0,-1,1616,757,0,0
399,267,0,0,0,0,0,0,0,0,0,-1,1623,757,0,0
406,267,0,0,0,0,0,0,0,0,0,-1,1630,757,0,0
413,267,0,0,0,0,0,0,0,0,0,-1,1637,757,0,0
420,267,0,0,0,0,0,0,0,0,0,-1,1644,757,0,0
427,267,0,0,0,0,0,0,0,0,0,-1,1651,757,0,0
434,267,0,0,0,0,0,0,0,0,0,-1,1658,757,0,0
441,267,0,0,0,0,0,0,0,0,0,-1,1665,757,0,0
448,267,0,0,0,0,0,0,0,0,0,-1,1672,757,0,0
455,267,0,0,0,0,0,0,0,0,0,-1,1679,757,0,0
462,267,0,0,0,0,0,0,0,0,0,-1,1686,757,0,0
469,267,0,0,0,0,0,0,0,0,0,-1,1693,757,0,0
476,267,0,0,0,0,0,0,0,0,0,-1,1700,757,0,0
483,267,0,0,0,0,0,0,0,0,0,-1,1707,757,0,0
490,267,0,0,0,0,0,0,0,0,0,-1,1714,757,0,0
497,267,0,0,0,0,0,0,0,0,0,-1,1721,757,0,0
504,267,0,0,0,0,0,0,0,0,0,-1,1728,757,0,0
511,267,0,0,0,0,0,0,0,0,0,-1,1735,757,0,0
518,267,0,0,0,0,0,0,0,0,0,-1,1742,757,0,0
525,267,0,0,0,0,0,0,0,0,0,-1,1749,757,0,0
532,267,0,0,0,0,0,0,0,0,0,-1,1756,757,0,0
539,267,0,0,0,0,0,0,0,0,0,-1,1763,757,0,0
546,267,0,0,0,0,0,0,0,0,0,-1,1770,757,0,0
553,267,0,0,0,0,0,0,0,0,0,-1,1777,757,0,0
560,267,0,0,0,0,0,0,0,0,0,-1,1784,757,0,0
567,267,27.0275,3.45264,0.0283558,0.0290021,0.00600052,0.0346882,0.0226697,0.812296,0.0203395,0.0366531,1791,757,27.0275,-3.45262
574,267,27.1157,3.51752,0.0347494,0.0209347,0.0113444,0.0411239,0.0145602,0.511937,0.0240777,0.0393673,1798,757,27.1157,-3.51752
581,267,27.2198,3.50616,0.0348972,0.0156825,0.0130531,0.0414974,0.00908233,0.468152,0.0251893,0.040226,1805,757,27.2198,-3.50615
588,267,27.136,3.63806,0.0311532,0.0114421,0.0116357,0.0365463,0.00604896,0.43402,0.0226191,0.0444525,1812,757,27.1359,-3.63806
595,267,27.5046,2.81189,0.0266438,0.00823966,0.00960215,0.0307414,0.00414214,0.403335,0.0192626,0.0487059,1819,757,27.5047,-2.81189
602,267,27.6274,2.99792,0,0,0,0,0,0,0,-1,1826,757,27.6275,-2.99792
609,267,27.9956,3.58258,0,0,0,0,0,0,0,-1,1833,757,27.9956,-3.58256
616,267,27.5559,3.99921,0,0,0,0,0,0,0,-1,1840,757,27.5559,-3.99918
623,267,18.6276,0.738831,0,0,0,0,0,0,0,-1,1847,757,18.6275,-0.73882
630,267,18.4191,0.650085,0.00821419,-0.00104837,0.00203133,0.00864009,-0.00147427,0.206671,0.00630916,0.0459953,1854,757,18.4191,-0.650095
637,267,18.2441,0.357605,0.00560885,-0.00124376,0.000737537,0.00568733,-0.00132224,0.106011,0.0043006,0.0256741,1861,757,18.2441,-0.357589
644,267,18.2635,0.621155,0.00308379,-0.0016387,0.000228168,0.00309479,-0.0016497,0.0481656,0.00278126,0.0116985,1868,757,18.2635,-0.621172
651,267,18.251,0.943359,0.00151654,-0.00140082,0.000494812,0.00159818,-0.00148246,0.163519,0.00177902,0.0134156,1875,757,18.251,-0.943332
658,267,18.2789,1.25464,0.000905482,-0.00120889,2.7995e-05,0.000905853,-0.00120926,0.0132372,0.00122534,0.0151607,1882,757,18.279,-1.25463
665,267,18.2827,1.58087,0.000666739,-0.0012517,-0.000246364,0.000697872,-0.00128284,-0.125702,0.00116007,0.0160434,1889,757,18.2827,-1.58086
672,267,18.2548,1.91016,0.000735707,-0.000398821,-0.000162621,0.000758557,-0.00042167,-0.139594,0.000690596,0.0136926,1896,757,18.2547,-1.91016
679,267,18.2531,2.23029,0.00112144,0.000463799,0.000216018,0.00118605,0.000399191,0.290622,0.000696852,0.0128647,1903,757,18.2531,-2.2303
686,267,18.2413,2.56592,0.00167084,0.00160146,0.000903482,0.0025403,0.000731999,0.76621,0.00150988,0.0123275,1910,757,18.2413,-2.56595
693,267,18.222,2.87012,0.00246685,0.00281595,0.00180342,0.00445325,0.000829556,0.833642,0.00273458,0.0123223,1917,757,18.2221,-2.8701
700,267,18.2251,3.17444,0.00370246,0.00427352,0.00312081,0.00712183,0.000854145,0.831017,0.00449034,0.0137485,1924,757,18.225,-3.17445
707,267,18.2141,3.46729,0.00553361,0.00605888,0.00495904,0.0107622,0.000830258,0.811854,0.0069147,0.0138794,1931,757,18.2141,-3.46728
714,267,18.2391,3.77747,0.0079309,0.00809726,0.00735784,0.0153724,0.000655769,0.79105,0.0100368,0.0287936,1938,757,18.2392,-3.77744
721,267,18.2941,4.5296,0.0110793,0.0109132,0.0107514,0.021748,0.000244523,0.781534,0.0144178,0.0472362,1945,757,18.294,-4.52958
728,267,18.2549,5.03894,0,0,0,0,0,0,0,-1,1952,757,18.2549,-5.03895
735,267,21.0341,5.23145,0,0,0,0,0,0,0,-1,1959,757,21.034,-5.23142
742,267,18.1177,3.56561,0,0,0,0,0,0,0,-1,1966,757,18.1176,-3.56564
749,267,0,0,0,0,0,0,0,0,0,-1,1973,757,0,0
756,267,0,0,0,0,0,0,0,0,0,-1,1980,757,0,0
763,267,0,0,0,0,0,0,0,0,0,-1,1987,757,0,0
770,267,0,0,0,0,0,0,0,0,0,-1,1994,757,0,0
777,267,0,0,0,0,0,0,0,0,0,-1,2001,757,0,0
784,267,0,0,0,0,0,0,0,0,0,-1,2008,757,0,0
791,267,0,0,0,0,0,0,0,0,0,-1,2015,757,0,0
798,267,0,0,0,0,0,0,0,0,0,-1,2022,757,0,0
805,267,0,0,0,0,0,0,0,0,0,-1,2029,757,0,0
812,267,0,0,0,0,0,0,0,0,0,-1,2036,757,0,0
-700,260,0,0,0,0,0,0,0,0,0,-1,524,764,0,0
-693,260,0,0,0,0,0,0,0,0,0,-1,531,764,0,0
-686,260,0,0,0,0,0,0,0,0,0,-1,538,764,0,0
-679,260,0,0,0,0,0,0,0,0,0,-1,545,764,0,0
-672,260,0,0,0,0,0,0,0,0,0,-1,552,764,0,0
-665,260,0,0,0,0,0,0,0,0,0,-1,559,764,0,0
-658,260,0,0,0,0,0,0,0,0,0,-1,566,764,0,0
-651,260,0,0,0,0,0,0,0,0,0,-1,573,764,0,0
-644,260,0,0,0,0,0,0,0,0,0,-1,580,764,0,0
-637,260,0,0,0,0,0,0,0,0,0,-1,587,764,0,0
-630,260,-11.6306,4.16473,0,0,0,0,0,0,0,-1,594,764,-11.6306,-4.16472
-623,260,-12.9502,-1.31525,0,0,0,0,0,0,0,-1,601,764,-12.9502,1.31524
-616,260,-11.3715,3.32965,0,0,0,0,0,0,0,-1,608,764,-11.3714,-3.32964
-609,260,-12.9626,3.42682,0,0,0,0,0,0,0,-1,615,764,-12.9626,-3.42684
-602,260,-11.5001,2.50262,0,0,0,0,0,0,0,-1,622,764,-11.5001,-2.5026
-595,260,-11.5241,2.28723,0,0,0,0,0,0,0,-1,629,764,-11.5241,-2.28725
-588,260,-11.5121,1.80511,0.00910341,0.00470818,-0.00651426,0.0137807,3.08352e-05,-0.622715,0.0091769,0.044738,636,764,-11.5122,-1.80508
-581,260,-11.4841,1.36249,0.00400992,0.00202558,-0.00388296,0.00702547,-0.000989966,-0.660315,0.00504611,0.0247102,643,764,-11.4842,-1.36246
-574,260,-11.479,1.08307,0.000805864,0.000712211,-0.00154369,0.00230344,-0.000785366,-0.770236,0.00185373,0.0163464,650,764,-11.479,-1.08306
-567,260,-11.4905,0.831665,-0.000651133,0.000391779,-0.00029354,0.000468723,-0.000728077,-1.31444,0.00069636,0.0164434,657,764,-11.4905,-0.831673
-560,260,-11.4839,0.550598,-0.00168196,4.39359e-05,0.000637709,0.000253998,-0.00189203,1.25259,0.00135398,0.0196254,664,764,-11.4839,-0.550585
-553,260,-11.4955,0.233398,-0.0027389,-6.87863e-05,0.00143622,0.000557048,-0.00336474,1.15985,0.00245004,0.0179962,671,764,-11.4955,-0.233405
-546,260,-11.5152,-0.0778198,-0.00329146,-5.46769e-05,0.00161873,0.000615922,-0.00396206,1.17804,0.0028688,0.0122172,678,764,-11.5152,0.0777995
-539,260,-11.502,-0.375916,-0.00359492,-0.000148819,0.00180679,0.000624807,-0.00436855,1.16624,0.00314142,0.0117786,685,764,-11.502,0.375917
-532,260,-11.4935,-0.644287,-0.0038519,-0.000292003,0.00214394,0.000714572,-0.00485848,1.13185,0.00350156,0.0138079,692,764,-11.4935,0.644297
-525,260,-11.5104,-0.949646,-0.00376088,-0.000598228,0.00239403,0.000689584,-0.00504869,1.07727,0.00361763,0.0130913,699,764,-11.5104,0.949622
-518,260,-11.5363,-1.28979,-0.00379863,-0.000405402,0.00328807,0.00159797,-0.005802,1.02358,0.00449633,0.0134269,706,764,-11.5363,1.28982
-511,260,-11.5441,-1.58344,-0.00359817,-0.000187328,0.00405936,0.00251031,-0.0062958,0.984263,0.00523845,0.0228754,713,764,-11.5441,1.58341
-504,260,-11.665,-1.8078,-0.00299057,-0.000184373,0.00477642,0.00339077,-0.00656571,0.928257,0.00584499,0.044261,720,764,-11.665,1.80783
-497,260,-11.7872,-2.06122,0,0,0,0,0,0,0,-1,727,764,-11.7872,2.06124
-490,260,-18.5233,0.369934,0,0,0,0,0,0,0,-1,734,764,-18.5233,-0.369924
-483,260,-18.7258,0.751648,0,0,0,0,0,0,0,-1,741,764,-18.7258,-0.751629
-476,260,-19.5073,0.814331,0,0,0,0,0,0,0,-1,748,764,-19.5072,-0.814317
-469,260,-19.5655,1.15662,0.000161552,0.00203199,0.0119304,0.0130638,-0.0108702,0.824513,0.0138376,0.0479837,755,764,-19.5655,-1.15661
-462,260,-19.3592,1.32599,3.70365e-05,0.00324806,0.0135951,0.0153321,-0.012047,0.844173,0.0158453,0.0443574,762,764,-19.3592,-1.32597
-455,260,-19.2404,1.24066,-0.00165523,0.00511422,0.0150171,0.0171234,-0.0136644,0.896241,0.0178127,0.0462792,769,764,-19.2404,-1.24067
-448,260,0,0,0,0,0,0,0,0,0,-1,776,764,0,0
-441,260,0,0,0,0,0,0,0,0,0,-1,783,764,0,0
-434,260,0,0,0,0,0,0,0,0,0,-1,790,764,0,0
-427,260,0,0,0,0,0,0,0,0,0,-1,797,764,0,0
-420,260,0,0,0,0,0,0,0,0,0,-1,804,764,0,0
-413,260,0,0,0,0,0,0,0,0,0,-1,811,764,0,0
-406,260,0,0,0,0,0,0,0,0,0,-1,818,764,0,0
-399,260,0,0,0,0,0,0,0,0,0,-1,825,764,0,0
-392,260,0,0,0,0,0,0,0,0,0,-1,832,764,0,0
-385,260,0,0,0,0,0,0,0,0,0,-1,839,764,0,0
-378,260,0,0,0,0,0,0,0,0,0,-1,846,764,0,0
-371,260,0,0,0,0,0,0,0,0,0,-1,853,764,0,0
-364,260,0,0,0,0,0,0,0,0,0,-1,860,764,0,0
-357,260,0,0,0,0,0,0,0,0,0,-1,867,764,0,0
-350,260,0,0,0,0,0,0,0,0,0,-1,874,764,0,0
-343,260,0,0,0,0,0,0,0,0,0,-1,881,764,0,0
-336,260,0,0,0,0,0,0,0,0,0,-1,888,764,0,0
-329,260,0,0,0,0,0,0,0,0,0,-1,895,764,0,0
-322,260,0,0,0,0,0,0,0,0,0,-1,902,764,0,0
-315,260,0,0,0,0,0,0,0,0,0,-1,909,764,0,0
-308,260,0,0,0,0,0,0,0,0,0,-1,916,764,0,0
-301,260,0,0,0,0,0,0,0,0,0,-1,923,764,0,0
-294,260,0,0,0,0,0,0,0,0,0,-1,930,764,0,0
-287,260,0,0,0,0,0,0,0,0,0,-1,937,764,0,0
-280,260,0,0,0,0,0,0,0,0,0,-1,944,764,0,0
-273,260,0,0,0,0,0,0,0,0,0,-1,951,764,0,0
-266,260,0,0,0,0,0,0,0,0,0,-1,958,764,0,0
-259,260,0,0,0,0,0,0,0,0,0,-1,965,764,0,0
-252,260,0,0,0,0,0,0,0,0,0,-1,972,764,0,0
-245,260,0,0,0,0,0,0,0,0,0,-1,979,764,0,0
-238,260,0,0,0,0,0,0,0,0,0,-1,986,764,0,0
-231,260,0,0,0,0,0,0,0,0,0,-1,993,764,0,0
-224,260,0,0,0,0,0,0,0,0,0,-1,1000,764,0,0
-217,260,0,0,0,0,0,0,0,0,0,-1,1007,764,0,0
-210,260,0,0,0,0,0,0,0,0,0,-1,1014,764,0,0
-203,260,0,0,0,0,0,0,0,0,0,-1,1021,764,0,0
-196,260,0,0,0,0,0,0,0,0,0,-1,1028,764,0,0
-189,260,0,0,0,0,0,0,0,0,0,-1,1035,764,0,0
-182,260,0,0,0,0,0,0,0,0,0,-1,1042,764,0,0
-175,260,0,0,0,0,0,0,0,0,0,-1,1049,764,0,0
-168,260,0,0,0,0,0,0,0,0,0,-1,1056,764,0,0
-161,260,0,0,0,0,0,0,0,0,0,-1,1063,764,0,0
-154,260,0,0,0,0,0,0,0,0,0,-1,1070,764,0,0
-147,260,0,0,0,0,0,0,0,0,0,-1,1077,764,0,0
-140,260,0,0,0,0,0,0,0,0,0,-1,1084,764,0,0
-133,260,0,0,0,0,0,0,0,0,0,-1,1091,764,0,0
-126,260,0,0,0,0,0,0,0,0,0,-1,1098,764,0,0
-119,260,0,0,0,0,0,0,0,0,0,-1,1105,764,0,0
-112,260,0,0,0,0,0,0,0,0,0,-1,1112,764,0,0
-105,260,0,0,0,0,0,0,0,0,0,-1,1119,764,0,0
-98,260,0,0,0,0,0,0,0,0,0,-1,1126,764,0,0
-91,260,0,0,0,0,0,0,0,0,0,-1,1133,764,0,0
-84,260,0,0,0,0,0,0,0,0,0,-1,1140,764,0,0
-77,260,0,0,0,0,0,0,0,0,0,-1,1147,764,0,0
-70,260,0,0,0,0,0,0,0,0,0,-1,1154,764,0,0
-63,260,0,0,0,0,0,0,0,0,0,-1,1161,764,0,0
-56,260,0,0,0,0,0,0,0,0,0,-1,1168,764,0,0
-49,260,0,0,0,0,0,0,0,0,0,-1,1175,764,0,0
-42,260,0,0,0,0,0,0,0,0,0,-1,1182,764,0,0
-35,260,0,0,0,0,0,0,0,0,0,-1,1189,764,0,0
-28,260,0,0,0,0,0,0,0,0,0,-1,1196,764,0,0
-21,260,0,0,0,0,0,0,0,0,0,-1,1203,764,0,0
-14,260,0,0,0,0,0,0,0,0,0,-1,1210,764,0,0
-7,260,0,0,0,0,0,0,0,0,0,-1,1217,764,0,0
0,260,0,0,0,0,0,0,0,0,0,-1,1224,764,0,0
7,260,0,0,0,0,0,0,0,0,0,-1,1231,764,0,0
14,260,0,0,0,0,0,0,0,0,0,-1,1238,764,0,0
21,260,0,0,0,0,0,0,0,0,0,-1,1245,764,0,0
28,260,0,0,0,0,0,0,0,0,0,-1,1252,764,0,0
35,260,0,0,0,0,0,0,0,0,0,-1,1259,764,0,0
42,260,0,0,0,0,0,0,0,0,0,-1,1266,764,0,0
49,260,0,0,0,0,0,0,0,0,0,-1,1273,764,0,0
56,260,0,0,0,0,0,0,0,0,0,-1,1280,764,0,0
63,260,0,0,0,0,0,0,0,0,0,-1,1287,764,0,0
70,260,0,0,0,0,0,0,0,0,0,-1,1294,764,0,0
77,260,0,0,0,0,0,0,0,0,0,-1,1301,764,0,0
84,260,0,0,0,0,0,0,0,0,0,-1,1308,764,0,0
91,260,0,0,0,0,0,0,0,0,0,-1,1315,764,0,0
98,260,0,0,0,0,0,0,0,0,0,-1,1322,764,0,0
105,260,0,0,0,0,0,0,0,0,0,-1,1329,764,0,0
112,260,0,0,0,0,0,0,0,0,0,-1,1336,764,0,0
119,260,0,0,0,0,0,0,0,0,0,-1,1343,764,0,0
126,260,0,0,0,0,0,0,0,0,0,-1,1350,764,0,0
133,260,0,0,0,0,0,0,0,0,0,-1,1357,764,0,0
140,260,0,0,0,0,0,0,0,0,0,-1,1364,764,0,0
147,260,0,0,0,0,0,0,0,0,0,-1,1371,764,0,0
154,260,0,0,0,0,0,0,0,0,0,-1,1378,764,0,0
161,260,0,0,0,0,0,0,0,0,0,-1,1385,764,0,0
168,260,0,0,0,0,0,0,0,0,0,-1,1392,764,0,0
175,260,0,0,0,0,0,0,0,0,0,-1,1399,764,0,0
182,260,0,0,0,0,0,0,0,0,0,-1,1406,764,0,0
189,260,0,0,0,0,0,0,0,0,0,-1,1413,764,0,0
196,260,0,0,0,0,0,0,0,0,0,-1,1420,764,0,0
203,260,0,0,0,0,0,0,0,0,0,-1,1427,764,0,0
210,260,0,0,0,0,0,0,0,0,0,-1,1434,764,0,0
217,260,0,0,0,0,0,0,0,0,0,-1,1441,764,0,0
224,260,0,0,0,0,0,0,0,0,0,-1,1448,764,0,0
231,260,0,0,0,0,0,0,0,0,0,-1,1455,764,0,0
238,260,0,0,0,0,0,0,0,0,0,-1,1462,764,0,0
245,260,0,0,0,0,0,0,0,0,0,-1,1469,764,0,0
252,260,0,0,0,0,0,0,0,0,0,-1,1476,764,0,0
259,260,0,0,0,0,0,0,0,0,0,-1,1483,764,0,0
266,260,0,0,0,0,0,0,0,0,0,-1,1490,764,0,0
273,260,0,0,0,0,0,0,0,0,0,-1,1497,764,0,0
280,260,0,0,0,0,0,0,0,0,0,-1,1504,764,0,0
287,260,0,0,0,0,0,0,0,0,0,-1,1511,764,0,0
294,260,0,0,0,0,0,0,0,0,0,-1,1518,764,0,0
301,260,0,0,0,0,0,0,0,0,0,-1,1525,764,0,0
308,260,0,0,0,0,0,0,0,0,0,-1,1532,764,0,0
315,260,0,0,0,0,0,0,0,0,0,-1,1539,764,0,0
322,260,0,0,0,0,0,0,0,0,0,-1,1546,764,0,0
329,260,0,0,0,0,0,0,0,0,0,-1,1553,764,0,0
336,260,0,0,0,0,0,0,0,0,0,-1,1560,764,0,0
343,260,0,0,0,0,0,0,0,0,0,-1,1567,764,0,0
350,260,0,0,0,0,0,0,0,0,0,-1,1574,764,0,0
357,260,0,0,0,0,0,0,0,0,0,-1,1581,764,0,0
364,260,0,0,0,0,0,0,0,0,0,-1,1588,764,0,0
371,260,0,0,0,0,0,0,0,0,0,-1,1595,764,0,0
378,260,0,0,0,0,0,0,0,0,0,-1,1602,764,0,0
385,260,0,0,0,0,0,0,0,0,0,-1,1609,764,0,0
392,260,0,0,0,0,0,0,0,0,0,-1,1616,764,0,0
399,260,0,0,0,0,0,0,0,0,0,-1,1623,764,0,0
406,260,0,0,0,0,0,0,0,0,0,-1,1630,764,0,0
413,260,0,0,0,0,0,0,0,0,0,-1,1637,764,0,0
420,260,0,0,0,0,0,0,0,0,0,-1,1644,764,0,0
427,260,0,0,0,0,0,0,0,0,0,-1,1651,764,0,0
434,260,0,0,0,0,0,0,0,0,0,-1,1658,764,0,0
441,260,0,0,0,0,0,0,0,0,0,-1,1665,764,0,0
448,260,0,0,0,0,0,0,0,0,0,-1,1672,764,0,0
455,260,0,0,0,0,0,0,0,0,0,-1,1679,764,0,0
462,260,0,0,0,0,0,0,0,0,0,-1,1686,764,0,0
469,260,0,0,0,0,0,0,0,0,0,-1,1693,764,0,0
476,260,0,0,0,0,0,0,0,0,0,-1,1700,764,0,0
483,260,0,0,0,0,0,0,0,0,0,-1,1707,764,0,0
490,260,0,0,0,0,0,0,0,0,0,-1,1714,764,0,0
497,260,0,0,0,0,0,0,0,0,0,-1,1721,764,0,0
504,260,0,0,0,0,0,0,0,0,0,-1,1728,764,0,0
511,260,0,0,0,0,0,0,0,0,0,-1,1735,764,0,0
518,260,0,0,0,0,0,0,0,0,0,-1,1742,764,0,0
525,260,0,0,0,0,0,0,0,0,0,-1,1749,764,0,0
532,260,0,0,0,0,0,0,0,0,0,-1,1756,764,0,0
539,260,0,0,0,0,0,0,0,0,0,-1,1763,764,0,0
546,260,0,0,0,0,0,0,0,0,0,-1,1770,764,0,0
553,260,0,0,0,0,0,0,0,0,0,-1,1777,764,0,0
560,260,0,0,0,0,0,0,0,0,0,-1,1784,764,0,0
567,260,0,0,0,0,0,0,0,0,0,-1,1791,764,0,0
574,260,27.1332,3.24072,0.023765,0.0193897,0.00370638,0.0258812,0.0172735,0.518792,0.0152191,0.0365032,1798,764,27.1332,-3.24071
581,260,27.1528,3.36011,0.0277149,0.014574,0.00754718,0.031151,0.0111379,0.427236,0.0182267,0.0398649,1805,764,27.1528,-3.36012
588,260,27.1598,3.45074,0.0262164,0.0105456,0.0076852,0.0293563,0.00740578,0.38786,0.0176286,0.0425743,1812,764,27.1598,-3.45073
595,260,27.5664,2.83398,0.0230897,0.00759193,0.00681422,0.0256596,0.00502195,0.360654,0.0157025,0.0468028,1819,764,27.5664,-2.83398
602,260,27.6367,2.80939,0.0195798,0.00535656,0.00564966,0.0215508,0.00338557,0.335667,0.0133822,0.043821,1826,764,27.6367,-2.80939
609,260,27.7114,3.43951,0.0159827,0.00340006,0.00435591,0.0173435,0.00203928,0.302793,0.010946,0.0387585,1833,764,27.7114,-3.43952
616,260,27.3323,3.80231,0,0,0,0,0,0,0,-1,1840,764,27.3323,-3.80231
623,260,26.9409,4.04071,0,0,0,0,0,0,0,-1,1847,764,26.941,-4.04068
630,260,18.6482,1.00922,0,0,0,0,0,0,0,-1,1854,764,18.6482,-1.00919
637,260,18.603,0.3974,0,0,0,0,0,0,0,-1,1861,764,18.603,-0.397415
644,260,18.6058,0.666748,0.00304459,-0.000953124,0.000798814,0.0031983,-0.00110683,0.190096,0.00258149,0.0246243,1868,764,18.6058,-0.666725
651,260,18.605,0.957642,0.00150068,-0.000796939,0.00103893,0.00190079,-0.00119705,0.367608,0.00180385,0.0134392,1875,764,18.605,-0.957641
658,260,18.597,1.28656,0.000847043,-0.0007418,0.00047929,0.000980427,-0.000875185,0.271428,0.00107191,0.0162153,1882,764,18.597,-1.28654
665,260,18.5864,1.61298,0.000576675,-0.00104935,5.50317e-05,0.000578536,-0.00105121,0.0337928,0.000954032,0.016747,1889,764,18.5864,-1.61297
672,260,18.5793,1.92645,0.000676901,-0.000428732,-4.69826e-05,0.000678893,-0.000430725,-0.042392,0.000645957,0.0142329,1896,764,18.5793,-1.92642
679,260,18.5592,2.24567,0.00108682,0.000224113,0.0001745,0.00112078,0.000190154,0.192207,0.00069256,0.0126035,1903,764,18.5592,-2.24568
686,260,18.5431,2.56348,0.00167075,0.00119429,0.000763519,0.00223234,0.000632697,0.634177,0.00132853,0.0145262,1910,764,18.5431,-2.56345
693,260,18.5265,2.85388,0.00255664,0.00230312,0.00154565,0.00398072,0.000879042,0.744485,0.00241473,0.0151553,1917,764,18.5264,-2.85389
700,260,18.5159,3.16852,0.0039578,0.00358459,0.002661,0.00643873,0.00110366,0.750392,0.003976,0.0136963,1924,764,18.5159,-3.16855
707,260,18.5089,3.46484,0.00618955,0.00503667,0.00414388,0.00979689,0.00142933,0.716288,0.00611079,0.0134986,1931,764,18.5089,-3.46485
714,260,18.5172,3.76563,0.00911186,0.00660482,0.00598829,0.0139764,0.00174026,0.682223,0.0087951,0.0238805,1938,764,18.5172,-3.76561
721,260,18.4094,4.08478,0.0132608,0.0085837,0.00840967,0.019651,0.00219348,0.649785,0.0124342,0.0433953,1945,764,18.4095,-4.0848
728,260,18.2715,4.4079,0,0,0,0,0,0,0,-1,1952,764,18.2715,-4.40793
735,260,18.6809,4.4082,0,0,0,0,0,0,0,-1,1959,764,18.681,-4.4082
742,260,21.7131,5.37915,0,0,0,0,0,0,0,-1,1966,764,21.7131,-5.37913
749,260,18.9454,4.52777,0,0,0,0,0,0,0,-1,1973,764,18.9455,-4.5278
756,260,0,0,0,0,0,0,0,0,0,-1,1980,764,0,0
763,260,0,0,0,0,0,0,0,0,0,-1,1987,764,0,0
770,260,0,0,0,0,0,0,0,0,0,-1,1994,764,0,0
777,260,0,0,0,0,0,0,0,0,0,-1,2001,764,0,0
784,260,0,0,0,0,0,0,0,0,0,-1,2008,764,0,0
791,260,0,0,0,0,0,0,0,0,0,-1,2015,764,0,0
798,260,0,0,0,0,0,0,0,0,0,-1,2022,764,0,0
805,260,0,0,0,0,0,0,0,0,0,-1,2029,764,0,0
812,260,0,0,0,0,0,0,0,0,0,-1,2036,764,0,0
-700,253,0,0,0,0,0,0,0,0,0,-1,524,771,0,0
-693,253,0,0,0,0,0,0,0,0,0,-1,531,771,0,0
-686,253,0,0,0,0,0,0,0,0,0,-1,538,771,0,0
-679,253,0,0,0,0,0,0,0,0,0,-1,545,771,0,0
-672,253,0,0,0,0,0,0,0,0,0,-1,552,771,0,0
-665,253,0,0,0,0,0,0,0,0,0,-1,559,771,0,0
-658,253,0,0,0,0,0,0,0,0,0,-1,566,771,0,0
-651,253,0,0,0,0,0,0,0,0,0,-1,573,771,0,0
-644,253,0,0,0,0,0,0,0,0,0,-1,580,771,0,0
-637,253,-14.2829,6.10547,0,0,0,0,0,0,0,-1,587,771,-14.2829,-6.10547
-630,253,-12.8535,-1.91815,0,0,0,0,0,0,0,-1,594,771,-12.8534,1.91815
-623,253,-12.5468,-1.28418,0,0,0,0,0,0,0,-1,601,771,-12.5468,1.28416
-616,253,-13.0685,3.58081,0,0,0,0,0,0,0,-1,608,771,-13.0686,-3.58083
-609,253,-12.7487,3.36511,0.0322185,0.0156548,-0.0179605,0.0437147,0.00415864,-0.569369,0.0278606,0.0450887,615,771,-12.7486,-3.36511
-602,253,-11.9103,2.33777,0.023418,0.0106049,-0.0136556,0.0320952,0.00192765,-0.566065,0.0207841,0.0483239,622,771,-11.9103,-2.33775
-595,253,-11.8689,2.10168,0.0160845,0.00722481,-0.00969424,0.022313,0.000996229,-0.571087,0.0145547,0.0463334,629,771,-11.8689,-2.10171
-588,253,-11.8114,1.71649,0.010231,0.00484246,-0.00663404,0.014697,0.000376463,-0.592508,0.00967498,0.039507,636,771,-11.8114,-1.71652
-581,253,-11.761,1.34515,0.00528705,0.00220492,-0.00425083,0.00826753,-0.000775567,-0.6115,0.00578756,0.0233093,643,771,-11.761,-1.34518
-574,253,-11.7871,1.07959,0.00206992,0.000895968,-0.0019833,0.00355128,-0.000585391,-0.641525,0.00258484,0.0191658,650,771,-11.7871,-1.07958
-567,253,-11.7881,0.786255,0.00043867,0.000543921,-0.000712001,0.00120524,-0.000222648,-0.822287,0.000887072,0.0159998,657,771,-11.7881,-0.786229
-560,253,-11.7729,0.512695,-0.000884235,0.000210991,0.000278265,0.000277635,-0.000950879,1.33573,0.000743938,0.0121592,664,771,-11.7729,-0.512675
-553,253,-11.7837,0.222168,-0.0022588,0.000213523,0.00114794,0.000664329,-0.00270961,1.19659,0.0020638,0.0115369,671,771,-11.7837,-0.222153
-546,253,-11.8157,-0.0511475,-0.00317896,0.000225292,0.0014642,0.000768408,-0.00372208,1.2156,0.00277324,0.0104201,678,771,-11.8157,0.051129
-539,253,-11.8173,-0.362549,-0.00378797,0.000219604,0.0017391,0.00086905,-0.00443742,1.2134,0.00328649,0.0115297,685,771,-11.8173,0.362524
-532,253,-11.8029,-0.660645,-0.0042262,0.000211934,0.00211113,0.00105573,-0.00507,1.19056,0.00378136,0.0163008,692,771,-11.8029,0.660671
-525,253,-11.7886,-0.971985,-0.00418686,-4.05509e-05,0.00234797,0.00101853,-0.00524594,1.14706,0.00388161,0.013381,699,771,-11.7886,0.971954
-518,253,-11.8257,-1.26758,-0.00415336,0.000147811,0.00315853,0.00181839,-0.00582394,1.08429,0.00460989,0.0163371,706,771,-11.8257,1.26756
-511,253,-11.9846,-1.55066,-0.00381583,0.000307584,0.00383302,0.0025982,-0.00610645,1.03214,0.00515989,0.0383804,713,771,-11.9846,1.55065
-504,253,-11.9761,-1.75104,0,0,0,0,0,0,0,-1,720,771,-11.976,1.75106
-497,253,-11.6247,-1.33386,0,0,0,0,0,0,0,-1,727,771,-11.6247,1.33387
-490,253,-19.1319,3.30243,0,0,0,0,0,0,0,-1,734,771,-19.1319,-3.30245
-483,253,-19.6198,0.637329,0,0,0,0,0,0,0,-1,741,771,-19.6198,-0.63731
-476,253,-19.4758,0.827087,0,0,0,0,0,0,0,-1,748,771,-19.4758,-0.827066
-469,253,-19.3231,0.997803,0,0,0,0,0,0,0,-1,755,771,-19.3231,-0.997798
-462,253,-19.3215,1.18646,0.00459135,0.00023495,0.0111321,0.0137563,-0.00893,0.688784,0.0131964,0.0450311,762,771,-19.3215,-1.18644
-455,253,-19.1909,1.25879,0.00499049,0.000385844,0.0113173,0.0142373,-0.00886095,0.685051,0.0134557,0.0342387,769,771,-19.1909,-1.25881
-448,253,0,0,0,0,0,0,0,0,0,-1,776,771,0,0
-441,253,0,0,0,0,0,0,0,0,0,-1,783,771,0,0
-434,253,0,0,0,0,0,0,0,0,0,-1,790,771,0,0
-427,253,0,0,0,0,0,0,0,0,0,-1,797,771,0,0
-420,253,0,0,0,0,0,0,0,0,0,-1,804,771,0,0
-413,253,0,0,0,0,0,0,0,0,0,-1,811,771,0,0
-406,253,0,0,0,0,0,0,0,0,0,-1,818,771,0,0
-399,253,0,0,0,0,0,0,0,0,0,-1,825,771,0,0
-392,253,0,0,0,0,0,0,0,0,0,-1,832,771,0,0
-385,253,0,0,0,0,0,0,0,0,0,-1,839,771,0,0
-378,253,0,0,0,0,0,0,0,0,0,-1,846,771,0,0
-371,253,0,0,0,0,0,0,0,0,0,-1,853,771,0,0
-364,253,0,0,0,0,0,0,0,0,0,-1,860,771,0,0
-357,253,0,0,0,0,0,0,0,0,0,-1,867,771,0,0
-350,253,0,0,0,0,0,0,0,0,0,-1,874,771,0,0
-343,253,0,0,0,0,0,0,0,0,0,-1,881,771,0,0
-336,253,0,0,0,0,0,0,0,0,0,-1,888,771,0,0
-329,253,0,0,0,0,0,0,0,0,0,-1,895,771,0,0
-322,253,0,0,0,0,0,0,0,0,0,-1,902,771,0,0
-315,253,0,0,0,0,0,0,0,0,0,-1,909,771,0,0
-308,253,0,0,0,0,0,0,0,0,0,-1,916,771,0,0
-301,253,0,0,0,0,0,0,0,0,0,-1,923,771,0,0
-294,253,0,0,0,0,0,0,0,0,0,-1,930,771,0,0
-287,253,0,0,0,0,0,0,0,0,0,-1,937,771,0,0
-280,253,0,0,0,0,0,0,0,0,0,-1,944,771,0,0
-273,253,0,0,0,0,0,0,0,0,0,-1,951,771,0,0
-266,253,0,0,0,0,0,0,0,0,0,-1,958,771,0,0
-259,253,0,0,0,0,0,0,0,0,0,-1,965,771,0,0
-252,253,0,0,0,0,0,0,0,0,0,-1,972,771,0,0
-245,253,0,0,0,0,0,0,0,0,0,-1,979,771,0,0
-238,253,0,0,0,0,0,0,0,0,0,-1,986,771,0,0
-231,253,0,0,0,0,0,0,0,0,0,-1,993,771,0,0
-224,253,0,0,0,0,0,0,0,0,0,-1,1000,771,0,0
-217,253,0,0,0,0,0,0,0,0,0,-1,1007,771,0,0
-210,253,0,0,0,0,0,0,0,0,0,-1,1014,771,0,0
-203,253,0,0,0,0,0,0,0,0,0,-1,1021,771,0,0
-196,253,0,0,0,0,0,0,0,0,0,-1,1028,771,0,0
-189,253,0,0,0,0,0,0,0,0,0,-1,1035,771,0,0
-182,253,0,0,0,0,0,0,0,0,0,-1,1042,771,0,0
-175,253,0,0,0,0,0,0,0,0,0,-1,1049,771,0,0
-168,253,0,0,0,0,0,0,0,0,0,-1,1056,771,0,0
-161,253,0,0,0,0,0,0,0,0,0,-1,1063,771,0,0
-154,253,0,0,0,0,0,0,0,0,0,-1,1070,771,0,0
-147,253,0,0,0,0,0,0,0,0,0,-1,1077,771,0,0
-140,253,0,0,0,0,0,0,0,0,0,-1,1084,771,0,0
-133,253,0,0,0,0,0,0,0,0,0,-1,1091,771,0,0
-126,253,0,0,0,0,0,0,0,0,0,-1,1098,771,0,0
-119,253,0,0,0,0,0,0,0,0,0,-1,1105,771,0,0
-112,253,0,0,0,0,0,0,0,0,0,-1,1112,771,0,0
-105,253,0,0,0,0,0,0,0,0,0,-1,1119,771,0,0
-98,253,0,0,0,0,0,0,0,0,0,-1,1126,771,0,0
-91,253,0,0,0,0,0,0,0,0,0,-1,1133,771,0,0
-84,253,0,0,0,0,0,0,0,0,0,-1,1140,771,0,0
-77,253,0,0,0,0,0,0,0,0,0,-1,1147,771,0,0
-70,253,0,0,0,0,0,0,0,0,0,-1,1154,771,0,0
-63,253,0,0,0,0,0,0,0,0,0,-1,1161,771,0,0
-56,253,0,0,0,0,0,0,0,0,0,-1,1168,771,0,0
-49,253,0,0,0,0,0,0,0,0,0,-1,1175,771,0,0
-42,253,0,0,0,0,0,0,0,0,0,-1,1182,771,0,0
-35,253,0,0,0,0,0,0,0,0,0,-1,1189,771,0,0
-28,253,0,0,0,0,0,0,0,0,0,-1,1196,771,0,0
-21,253,0,0,0,0,0,0,0,0,0,-1,1203,771,0,0
-14,253,0,0,0,0,0,0,0,0,0,-1,1210,771,0,0
-7,253,0,0,0,0,0,0,0,0,0,-1,1217,771,0,0
0,253,0,0,0,0,0,0,0,0,0,-1,1224,771,0,0
7,253,0,0,0,0,0,0,0,0,0,-1,1231,771,0,0
14,253,0,0,0,0,0,0,0,0,0,-1,1238,771,0,0
21,253,0,0,0,0,0,0,0,0,0,-1,1245,771,0,0
28,253,0,0,0,0,0,0,0,0,0,-1,1252,771,0,0
35,253,0,0,0,0,0,0,0,0,0,-1,1259,771,0,0
42,253,0,0,0,0,0,0,0,0,0,-1,1266,771,0,0
49,253,0,0,0,0,0,0,0,0,0,-1,1273,771,0,0
56,253,0,0,0,0,0,0,0,0,0,-1,1280,771,0,0
63,253,0,0,0,0,0,0,0,0,0,-1,1287,771,0,0
70,253,0,0,0,0,0,0,0,0,0,-1,1294,771,0,0
77,253,0,0,0,0,0,0,0,0,0,-1,1301,771,0,0
84,253,0,0,0,0,0,0,0,0,0,-1,1308,771,0,0
91,253,0,0,0,0,0,0,0,0,0,-1,1315,771,0,0
98,253,0,0,0,0,0,0,0,0,0,-1,1322,771,0,0
105,253,0,0,0,0,0,0,0,0,0,-1,1329,771,0,0
112,253,0,0,0,0,0,0,0,0,0,-1,1336,771,0,0
119,253,0,0,0,0,0,0,0,0,0,-1,1343,771,0,0
126,253,0,0,0,0,0,0,0,0,0,-1,1350,771,0,0
133,253,0,0,0,0,0,0,0,0,0,-1,1357,771,0,0
140,253,0,0,0,0,0,0,0,0,0,-1,1364,771,0,0
147,253,0,0,0,0,0,0,0,0,0,-1,1371,771,0,0
154,253,0,0,0,0,0,0,0,0,0,-1,1378,771,0,0
161,253,0,0,0,0,0,0,0,0,0,-1,1385,771,0,0
168,253,0,0,0,0,0,0,0,0,0,-1,1392,771,0,0
175,253,0,0,0,0,0,0,0,0,0,-1,1399,771,0,0
182,253,0,0,0,0,0,0,0,0,0,-1,1406,771,0,0
189,253,0,0,0,0,0,0,0,0,0,-1,1413,771,0,0
196,253,0,0,0,0,0,0,0,0,0,-1,1420,771,0,0
203,253,0,0,0,0,0,0,0,0,0,-1,1427,771,0,0
210,253,0,0,0,0,0,0,0,0,0,-1,1434,771,0,0
217,253,0,0,0,0,0,0,0,0,0,-1,1441,771,0,0
224,253,0,0,0,0,0,0,0,0,0,-1,1448,771,0,0
231,253,0,0,0,0,0,0,0,0,0,-1,1455,771,0,0
238,253,0,0,0,0,0,0,0,0,0,-1,1462,771,0,0
245,253,0,0,0,0,0,0,0,0,0,-1,1469,771,0,0
252,253,0,0,0,0,0,0,0,0,0,-1,1476,771,0,0
259,253,0,0,0,0,0,0,0,0,0,-1,1483,771,0,0
266,253,0,0,0,0,0,0,0,0,0,-1,1490,771,0,0
273,253,0,0,0,0,0,0,0,0,0,-1,1497,771,0,0
280,253,0,0,0,0,0,0,0,0,0,-1,1504,771,0,0
287,253,0,0,0,0,0,0,0,0,0,-1,1511,771,0,0
294,253,0,0,0,0,0,0,0,0,0,-1,1518,771,0,0
301,253,0,0,0,0,0,0,0,0,0,-1,1525,771,0,0
308,253,0,0,0,0,0,0,0,0,0,-1,1532,771,0,0
315,253,0,0,0,0,0,0,0,0,0,-1,1539,771,0,0
322,253,0,0,0,0,0,0,0,0,0,-1,1546,771,0,0
329,253,0,0,0,0,0,0,0,0,0,-1,1553,771,0,0
336,253,0,0,0,0,0,0,0,0,0,-1,1560,771,0,0
343,253,0,0,0,0,0,0,0,0,0,-1,1567,771,0,0
350,253,0,0,0,0,0,0,0,0,0,-1,1574,771,0,0
357,253,0,0,0,0,0,0,0,0,0,-1,1581,771,0,0
364,253,0,0,0,0,0,0,0,0,0,-1,1588,771,0,0
371,253,0,0,0,0,0,0,0,0,0,-1,1595,771,0,0
378,253,0,0,0,0,0,0,0,0,0,-1,1602,771,0,0
385,253,0,0,0,0,0,0,0,0,0,-1,1609,771,0,0
392,253,0,0,0,0,0,0,0,0,0,-1,1616,771,0,0
399,253,0,0,0,0,0,0,0,0,0,-1,1623,771,0,0
406,253,0,0,0,0,0,0,0,0,0,-1,1630,771,0,0
413,253,0,0,0,0,0,0,0,0,0,-1,1637,771,0,0
420,253,0,0,0,0,0,0,0,0,0,-1,1644,771,0,0
427,253,0,0,0,0,0,0,0,0,0,-1,1651,771,0,0
434,253,0,0,0,0,0,0,0,0,0,-1,1658,771,0,0
441,253,0,0,0,0,0,0,0,0,0,-1,1665,771,0,0
448,253,0,0,0,0,0,0,0,0,0,-1,1672,771,0,0
455,253,0,0,0,0,0,0,0,0,0,-1,1679,771,0,0
462,253,0,0,0,0,0,0,0,0,0,-1,1686,771,0,0
469,253,0,0,0,0,0,0,0,0,0,-1,1693,771,0,0
476,253,0,0,0,0,0,0,0,0,0,-1,1700,771,0,0
483,253,0,0,0,0,0,0,0,0,0,-1,1707,771,0,0
490,253,0,0,0,0,0,0,0,0,0,-1,1714,771,0,0
497,253,0,0,0,0,0,0,0,0,0,-1,1721,771,0,0
504,253,0,0,0,0,0,0,0,0,0,-1,1728,771,0,0
511,253,0,0,0,0,0,0,0,0,0,-1,1735,771,0,0
518,253,0,0,0,0,0,0,0,0,0,-1,1742,771,0,0
525,253,0,0,0,0,0,0,0,0,0,-1,1749,771,0,0
532,253,0,0,0,0,0,0,0,0,0,-1,1756,771,0,0
539,253,0,0,0,0,0,0,0,0,0,-1,1763,771,0,0
546,253,0,0,0,0,0,0,0,0,0,-1,1770,771,0,0
553,253,0,0,0,0,0,0,0,0,0,-1,1777,771,0,0
560,253,0,0,0,0,0,0,0,0,0,-1,1784,771,0,0
567,253,0,0,0,0,0,0,0,0,0,-1,1791,771,0,0
574,253,27.0627,3.13348,0.0143637,0.0163119,-0.0031903,0.0186735,0.0120021,-0.933568,0.0109266,0.0357019,1798,771,27.0628,-3.1335
581,253,27.0588,3.21063,0.0213991,0.0124739,0.00245883,0.0220317,0.0118414,0.2518,0.0127319,0.038332,1805,771,27.0588,-3.21063
588,253,27.1958,3.25769,0.0218582,0.00908499,0.00409245,0.0230569,0.00788629,0.284935,0.0135316,0.0404615,1812,771,27.1958,-3.25768
595,253,27.6296,2.98236,0.0199938,0.00665179,0.00437765,0.0213019,0.00534368,0.290369,0.0127975,0.0443148,1819,771,27.6296,-2.98238
602,253,27.7747,2.74542,0.0173164,0.00482097,0.00410154,0.0185424,0.00359496,0.290461,0.0113546,0.0437303,1826,771,27.7747,-2.74543
609,253,27.6902,3.30133,0.0143422,0.00321033,0.00344798,0.0153237,0.00222888,0.277309,0.00955983,0.0404392,1833,771,27.6902,-3.30134
616,253,27.6741,3.92828,0,0,0,0,0,0,0,-1,1840,771,27.6741,-3.92826
623,253,27.3928,4.60028,0,0,0,0,0,0,0,-1,1847,771,27.3928,-4.60029
630,253,26.719,2.90491,0,0,0,0,0,0,0,-1,1854,771,26.719,-2.90489
637,253,18.3062,0.442322,0,0,0,0,0,0,0,-1,1861,771,18.3062,-0.442344
644,253,18.6013,0.714722,0.00304547,-0.000333635,0.00120113,0.00342891,-0.000717073,0.309006,0.00255868,0.0456407,1868,771,18.6013,-0.71472
651,253,18.8834,0.976135,0.00157914,-0.000205007,0.0013836,0.00233332,-0.000959186,0.499061,0.00195533,0.0237562,1875,771,18.8834,-0.976164
658,253,18.9128,1.31335,0.000918042,-0.000193597,0.000802219,0.00133818,-0.000613734,0.482442,0.00115252,0.0190327,1882,771,18.9128,-1.31334
665,253,18.8213,1.61639,0.000601262,-0.000672803,0.000301044,0.000668813,-0.000740354,0.220733,0.000813932,0.020725,1889,771,18.8213,-1.61639
672,253,18.8352,1.9248,0.000682554,-0.00029093,5.98256e-05,0.000686217,-0.000294593,0.0611484,0.000581123,0.0167129,1896,771,18.8352,-1.92479
679,253,18.8706,2.26007,0.00105938,0.000111783,0.000137343,0.00107888,9.2278e-05,0.141072,0.000690555,0.0134726,1903,771,18.8707,-2.26008
686,253,18.859,2.56976,0.00162774,0.000841768,0.000617471,0.00196668,0.000502834,0.502004,0.00117978,0.019036,1910,771,18.8591,-2.56979
693,253,18.8425,2.87207,0.00258601,0.00178713,0.00128025,0.00352769,0.00084546,0.634182,0.00212675,0.0193192,1917,771,18.8425,-2.87205
700,253,18.8381,3.16797,0.00423312,0.00282286,0.00223534,0.0058719,0.00118407,0.632615,0.00358568,0.0155029,1924,771,18.8382,-3.16795
707,253,18.8312,3.47839,0.00697504,0.00388484,0.00356796,0.00931808,0.0015418,0.581064,0.00576723,0.0137051,1931,771,18.8312,-3.4784
714,253,18.8322,3.77734,0.0104773,0.00496347,0.00513815,0.0135514,0.00188932,0.539167,0.00847499,0.0182709,1938,771,18.8322,-3.77736
721,253,18.8118,4.09961,0.015588,0.00610951,0.0071288,0.0194091,0.00228836,0.492044,0.0122481,0.0326523,1945,771,18.8118,-4.0996
728,253,19.1177,4.65039,0.0236394,0.00735058,0.00991573,0.0283267,0.00266326,0.441583,0.0180623,0.0452428,1952,771,19.1177,-4.65037
735,253,19.6624,5.27826,0,0,0,0,0,0,0,-1,1959,771,19.6623,-5.27825
742,253,19.6271,5.6355,0,0,0,0,0,0,0,-1,1966,771,19.6271,-5.63548
749,253,21.9449,7.89307,0,0,0,0,0,0,0,-1,1973,771,21.945,-7.89304
756,253,0,0,0,0,0,0,0,0,0,-1,1980,771,0,0
763,253,0,0,0,0,0,0,0,0,0,-1,1987,771,0,0
770,253,0,0,0,0,0,0,0,0,0,-1,1994,771,0,0
777,253,0,0,0,0,0,0,0,0,0,-1,2001,771,0,0
784,253,0,0,0,0,0,0,0,0,0,-1,2008,771,0,0
791,253,0,0,0,0,0,0,0,0,0,-1,2015,771,0,0
798,253,0,0,0,0,0,0,0,0,0,-1,2022,771,0,0
805,253,0,0,0,0,0,0,0,0,0,-1,2029,771,0,0
812,253,0,0,0,0,0,0,0,0,0,-1,2036,771,0,0
-700,246,0,0,0,0,0,0,0,0,0,-1,524,778,0,0
-693,246,0,0,0,0,0,0,0,0,0,-1,531,778,0,0
-686,246,0,0,0,0,0,0,0,0,0,-1,538,778,0,0
-679,246,0,0,0,0,0,0,0,0,0,-1,545,778,0,0
-672,246,0,0,0,0,0,0,0,0,0,-1,552,778,0,0
-665,246,0,0,0,0,0,0,0,0,0,-1,559,778,0,0
-658,246,0,0,0,0,0,0,0,0,0,-1,566,778,0,0
-651,246,0,0,0,0,0,0,0,0,0,-1,573,778,0,0
-644,246,0,0,0,0,0,0,0,0,0,-1,580,778,0,0
-637,246,-13.9846,5.15112,0,0,0,0,0,0,0,-1,587,778,-13.9846,-5.15114
-630,246,-13.3455,4.49945,0,0,0,0,0,0,0,-1,594,778,-13.3455,-4.49945
-623,246,-12.8809,3.68573,0,0,0,0,0,0,0,-1,601,778,-12.8809,-3.68575
-616,246,-12.6735,3.49957,0.038758,0.0188448,-0.0201568,0.0512831,0.00631967,-0.555998,0.032289,0.048778,608,778,-12.6735,-3.49955
-609,246,-12.5685,3.21912,0.0298319,0.0134089,-0.0162294,0.039809,0.00343185,-0.551194,0.0254725,0.0480537,615,778,-12.5685,-3.21909
-602,246,-12.4897,2.67212,0.0221018,0.0093443,-0.012536,0.0297886,0.00165753,-0.550052,0.0193303,0.0487664,622,778,-12.4898,-2.67214
-595,246,-12.179,2.16077,0.0157356,0.00679716,-0.00903391,0.0213453,0.00118742,-0.555692,0.0138514,0.0437086,629,778,-12.179,-2.16076
-588,246,-12.0132,1.68933,0.0105725,0.00486559,-0.00638658,0.0147141,0.000724002,-0.575308,0.00957718,0.0288865,636,778,-12.0133,-1.68932
-581,246,-12.0789,1.37671,0.00598523,0.00234,-0.00432736,0.00885813,-0.000532913,-0.586081,0.00609084,0.0155147,643,778,-12.0789,-1.37671
-574,246,-12.084,1.05792,0.00295691,0.00107905,-0.00220981,0.00441899,-0.000383033,-0.584509,0.00308162,0.016072,650,778,-12.084,-1.05793
-567,246,-12.0949,0.774048,0.00129874,0.000721084,-0.000968329,0.0020204,-5.75208e-07,-0.640462,0.00134712,0.0164976,657,778,-12.0949,-0.774021
-560,246,-12.0985,0.497681,-0.000185397,0.000439659,2.97934e-05,0.000441076,-0.000186814,1.52327,0.000372288,0.0131927,664,778,-12.0985,-0.497657
-553,246,-12.0693,0.242371,-0.00178819,0.000598062,0.000924696,0.000914444,-0.00210457,1.24113,0.0017876,0.01239,671,778,-12.0693,-0.242346
-546,246,-12.0858,-0.0310059,-0.00300721,0.000684834,0.00134528,0.00112301,-0.00344539,1.25592,0.00274883,0.0106185,678,778,-12.0858,0.0310286
-539,246,-12.1024,-0.34668,-0.00384384,0.000858479,0.00166213,0.00138666,-0.00437202,1.26311,0.0034705,0.0107514,685,778,-12.1024,0.346656
-532,246,-12.0995,-0.658936,-0.00438738,0.00108805,0.00201625,0.00175038,-0.00504971,1.2534,0.00407717,0.0127781,692,778,-12.0995,0.658933
-525,246,-12.0906,-0.945679,-0.00438156,0.000971602,0.00220653,0.00176386,-0.00517382,1.22608,0.00416362,0.0137851,699,778,-12.0906,0.945699
-518,246,-12.1243,-1.185,-0.00430029,0.00120585,0.00287395,0.0024326,-0.00552704,1.16736,0.00470984,0.0214096,706,778,-12.1242,1.18501
-511,246,-12.5206,-1.31763,-0.00389714,0.00134785,0.00342324,0.00303767,-0.00558696,1.11226,0.00505142,0.0449694,713,778,-12.5206,1.31762
-504,246,-12.9101,-1.50183,0,0,0,0,0,0,0,-1,720,778,-12.9101,1.50181
-497,246,-11.0357,-0.569824,0,0,0,0,0,0,0,-1,727,778,-11.0357,0.569839
-490,246,-19.6348,1.26025,0,0,0,0,0,0,0,-1,734,778,-19.6348,-1.26024
-483,246,-19.5182,1.26892,0,0,0,0,0,0,0,-1,741,778,-19.5182,-1.26894
-476,246,-19.4556,0.905334,0.00359784,-0.000559988,0.00723953,0.00905103,-0.00601318,0.64558,0.00875608,0.0466559,748,778,-19.4556,-0.905351
-469,246,-19.2062,1.17523,0.00627514,-0.00123886,0.00796543,0.0113251,-0.00628885,0.565037,0.0103071,0.0415836,755,778,-19.2062,-1.17524
-462,246,-19.0897,1.39355,0.00919951,-0.00223373,0.00818124,0.0134635,-0.00649771,0.480456,0.0117562,0.0483871,762,778,-19.0897,-1.39356
-455,246,0,0,0,0,0,0,0,0,0,-1,769,778,0,0
-448,246,0,0,0,0,0,0,0,0,0,-1,776,778,0,0
-441,246,0,0,0,0,0,0,0,0,0,-1,783,778,0,0
-434,246,0,0,0,0,0,0,0,0,0,-1,790,778,0,0
-427,246,0,0,0,0,0,0,0,0,0,-1,797,778,0,0
-420,246,0,0,0,0,0,0,0,0,0,-1,804,778,0,0
-413,246,0,0,0,0,0,0,0,0,0,-1,811,778,0,0
-406,246,0,0,0,0,0,0,0,0,0,-1,818,778,0,0
-399,246,0,0,0,0,0,0,0,0,0,-1,825,778,0,0
-392,246,0,0,0,0,0,0,0,0,0,-1,832,778,0,0
-385,246,0,0,0,0,0,0,0,0,0,-1,839,778,0,0
-378,246,0,0,0,0,0,0,0,0,0,-1,846,778,0,0
-371,246,0,0,0,0,0,0,0,0,0,-1,853,778,0,0
-364,246,0,0,0,0,0,0,0,0,0,-1,860,778,0,0
-357,246,0,0,0,0,0,0,0,0,0,-1,867,778,0,0
-350,246,0,0,0,0,0,0,0,0,0,-1,874,778,0,0
-343,246,0,0,0,0,0,0,0,0,0,-1,881,778,0,0
-336,246,0,0,0,0,0,0,0,0,0,-1,888,778,0,0
-329,246,0,0,0,0,0,0,0,0,0,-1,895,778,0,0
-322,246,0,0,0,0,0,0,0,0,0,-1,902,778,0,0
-315,246,0,0,0,0,0,0,0,0,0,-1,909,778,0,0
-308,246,0,0,0,0,0,0,0,0,0,-1,916,778,0,0
-301,246,0,0,0,0,0,0,0,0,0,-1,923,778,0,0
-294,246,0,0,0,0,0,0,0,0,0,-1,930,778,0,0
-287,246,0,0,0,0,0,0,0,0,0,-1,937,778,0,0
-280,246,0,0,0,0,0,0,0,0,0,-1,944,778,0,0
-273,246,0,0,0,0,0,0,0,0,0,-1,951,778,0,0
-266,246,0,0,0,0,0,0,0,0,0,-1,958,778,0,0
-259,246,0,0,0,0,0,0,0,0,0,-1,965,778,0,0
-252,246,0,0,0,0,0,0,0,0,0,-1,972,778,0,0
-245,246,0,0,0,0,0,0,0,0,0,-1,979,778,0,0
-238,246,0,0,0,0,0,0,0,0,0,-1,986,778,0,0
-231,246,0,0,0,0,0,0,0,0,0,-1,993,778,0,0
-224,246,0,0,0,0,0,0,0,0,0,-1,1000,778,0,0
-217,246,0,0,0,0,0,0,0,0,0,-1,1007,778,0,0
-210,246,0,0,0,0,0,0,0,0,0,-1,1014,778,0,0
-203,246,0,0,0,0,0,0,0,0,0,-1,1021,778,0,0
-196,246,0,0,0,0,0,0,0,0,0,-1,1028,778,0,0
-189,246,0,0,0,0,0,0,0,0,0,-1,1035,778,0,0
-182,246,0,0,0,0,0,0,0,0,0,-1,1042,778,0,0
-175,246,0,0,0,0,0,0,0,0,0,-1,1049,778,0,0
-168,246,0,0,0,0,0,0,0,0,0,-1,1056,778,0,0
-161,246,0,0,0,0,0,0,0,0,0,-1,1063,778,0,0
-154,246,0,0,0,0,0,0,0,0,0,-1,1070,778,0,0
-147,246,0,0,0,0,0,0,0,0,0,-1,1077,778,0,0
-140,246,0,0,0,0,0,0,0,0,0,-1,1084,778,0,0
-133,246,0,0,0,0,0,0,0,0,0,-1,1091,778,0,0
-126,246,0,0,0,0,0,0,0,0,0,-1,1098,778,0,0
-119,246,0,0,0,0,0,0,0,0,0,-1,1105,778,0,0
-112,246,0,0,0,0,0,0,0,0,0,-1,1112,778,0,0
-105,246,0,0,0,0,0,0,0,0,0,-1,1119,778,0,0
-98,246,0,0,0,0,0,0,0,0,0,-1,1126,778,0,0
-91,246,0,0,0,0,0,0,0,0,0,-1,1133,778,0,0
-84,246,0,0,0,0,0,0,0,0,0,-1,1140,778,0,0
-77,246,0,0,0,0,0,0,0,0,0,-1,1147,778,0,0
-70,246,0,0,0,0,0,0,0,0,0,-1,1154,778,0,0
-63,246,0,0,0,0,0,0,0,0,0,-1,1161,778,0,0
-56,246,0,0,0,0,0,0,0,0,0,-1,1168,778,0,0
-49,246,0,0,0,0,0,0,0,0,0,-1,1175,778,0,0
-42,246,0,0,0,0,0,0,0,0,0,-1,1182,778,0,0
-35,246,0,0,0,0,0,0,0,0,0,-1,1189,778,0,0
-28,246,0,0,0,0,0,0,0,0,0,-1,1196,778,0,0
-21,246,0,0,0,0,0,0,0,0,0,-1,1203,778,0,0
-14,246,0,0,0,0,0,0,0,0,0,-1,1210,778,0,0
-7,246,0,0,0,0,0,0,0,0,0,-1,1217,778,0,0
0,246,0,0,0,0,0,0,0,0,0,-1,1224,778,0,0
7,246,0,0,0,0,0,0,0,0,0,-1,1231,778,0,0
14,246,0,0,0,0,0,0,0,0,0,-1,1238,778,0,0
21,246,0,0,0,0,0,0,0,0,0,-1,1245,778,0,0
28,246,0,0,0,0,0,0,0,0,0,-1,1252,778,0,0
35,246,0,0,0,0,0,0,0,0,0,-1,1259,778,0,0
42,246,0,0,0,0,0,0,0,0,0,-1,1266,778,0,0
49,246,0,0,0,0,0,0,0,0,0,-1,1273,778,0,0
56,246,0,0,0,0,0,0,0,0,0,-1,1280,778,0,0
63,246,0,0,0,0,0,0,0,0,0,-1,1287,778,0,0
70,246,0,0,0,0,0,0,0,0,0,-1,1294,778,0,0
77,246,0,0,0,0,0,0,0,0,0,-1,1301,778,0,0
84,246,0,0,0,0,0,0,0,0,0,-1,1308,778,0,0
91,246,0,0,0,0,0,0,0,0,0,-1,1315,778,0,0
98,246,0,0,0,0,0,0,0,0,0,-1,1322,778,0,0
105,246,0,0,0,0,0,0,0,0,0,-1,1329,778,0,0
112,246,0,0,0,0,0,0,0,0,0,-1,1336,778,0,0
119,246,0,0,0,0,0,0,0,0,0,-1,1343,778,0,0
126,246,0,0,0,0,0,0,0,0,0,-1,1350,778,0,0
133,246,0,0,0,0,0,0,0,0,0,-1,1357,778,0,0
140,246,0,0,0,0,0,0,0,0,0,-1,1364,778,0,0
147,246,0,0,0,0,0,0,0,0,0,-1,1371,778,0,0
154,246,0,0,0,0,0,0,0,0,0,-1,1378,778,0,0
161,246,0,0,0,0,0,0,0,0,0,-1,1385,778,0,0
168,246,0,0,0,0,0,0,0,0,0,-1,1392,778,0,0
175,246,0,0,0,0,0,0,0,0,0,-1,1399,778,0,0
182,246,0,0,0,0,0,0,0,0,0,-1,1406,778,0,0
189,246,0,0,0,0,0,0,0,0,0,-1,1413,778,0,0
196,246,0,0,0,0,0,0,0,0,0,-1,1420,778,0,0
203,246,0,0,0,0,0,0,0,0,0,-1,1427,778,0,0
210,246,0,0,0,0,0,0,0,0,0,-1,1434,778,0,0
217,246,0,0,0,0,0,0,0,0,0,-1,1441,778,0,0
224,246,0,0,0,0,0,0,0,0,0,-1,1448,778,0,0
231,246,0,0,0,0,0,0,0,0,0,-1,1455,778,0,0
238,246,0,0,0,0,0,0,0,0,0,-1,1462,778,0,0
245,246,0,0,0,0,0,0,0,0,0,-1,1469,778,0,0
252,246,0,0,0,0,0,0,0,0,0,-1,1476,778,0,0
259,246,0,0,0,0,0,0,0,0,0,-1,1483,778,0,0
266,246,0,0,0,0,0,0,0,0,0,-1,1490,778,0,0
273,246,0,0,0,0,0,0,0,0,0,-1,1497,778,0,0
280,246,0,0,0,0,0,0,0,0,0,-1,1504,778,0,0
287,246,0,0,0,0,0,0,0,0,0,-1,1511,778,0,0
294,246,0,0,0,0,0,0,0,0,0,-1,1518,778,0,0
301,246,0,0,0,0,0,0,0,0,0,-1,1525,778,0,0
308,246,0,0,0,0,0,0,0,0,0,-1,1532,778,0,0
315,246,0,0,0,0,0,0,0,0,0,-1,1539,778,0,0
322,246,0,0,0,0,0,0,0,0,0,-1,1546,778,0,0
329,246,0,0,0,0,0,0,0,0,0,-1,1553,778,0,0
336,246,0,0,0,0,0,0,0,0,0,-1,1560,778,0,0
343,246,0,0,0,0,0,0,0,0,0,-1,1567,778,0,0
350,246,0,0,0,0,0,0,0,0,0,-1,1574,778,0,0
357,246,0,0,0,0,0,0,0,0,0,-1,1581,778,0,0
364,246,0,0,0,0,0,0,0,0,0,-1,1588,778,0,0
371,246,0,0,0,0,0,0,0,0,0,-1,1595,778,0,0
378,246,0,0,0,0,0,0,0,0,0,-1,1602,778,0,0
385,246,0,0,0,0,0,0,0,0,0,-1,1609,778,0,0
392,246,0,0,0,0,0,0,0,0,0,-1,1616,778,0,0
399,246,0,0,0,0,0,0,0,0,0,-1,1623,778,0,0
406,246,0,0,0,0,0,0,0,0,0,-1,1630,778,0,0
413,246,0,0,0,0,0,0,0,0,0,-1,1637,778,0,0
420,246,0,0,0,0,0,0,0,0,0,-1,1644,778,0,0
427,246,0,0,0,0,0,0,0,0,0,-1,1651,778,0,0
434,246,0,0,0,0,0,0,0,0,0,-1,1658,778,0,0
441,246,0,0,0,0,0,0,0,0,0,-1,1665,778,0,0
448,246,0,0,0,0,0,0,0,0,0,-1,1672,778,0,0
455,246,0,0,0,0,0,0,0,0,0,-1,1679,778,0,0
462,246,0,0,0,0,0,0,0,0,0,-1,1686,778,0,0
469,246,0,0,0,0,0,0,0,0,0,-1,1693,778,0,0
476,246,0,0,0,0,0,0,0,0,0,-1,1700,778,0,0
483,246,0,0,0,0,0,0,0,0,0,-1,1707,778,0,0
490,246,0,0,0,0,0,0,0,0,0,-1,1714,778,0,0
497,246,0,0,0,0,0,0,0,0,0,-1,1721,778,0,0
504,246,0,0,0,0,0,0,0,0,0,-1,1728,778,0,0
511,246,0,0,0,0,0,0,0,0,0,-1,1735,778,0,0
518,246,0,0,0,0,0,0,0,0,0,-1,1742,778,0,0
525,246,0,0,0,0,0,0,0,0,0,-1,1749,778,0,0
532,246,0,0,0,0,0,0,0,0,0,-1,1756,778,0,0
539,246,0,0,0,0,0,0,0,0,0,-1,1763,778,0,0
546,246,0,0,0,0,0,0,0,0,0,-1,1770,778,0,0
553,246,0,0,0,0,0,0,0,0,0,-1,1777,778,0,0
560,246,0,0,0,0,0,0,0,0,0,-1,1784,778,0,0
567,246,0,0,0,0,0,0,0,0,0,-1,1791,778,0,0
574,246,0,0,0,0,0,0,0,0,0,-1,1798,778,0,0
581,246,27.083,3.29193,0.0156078,0.0093378,-0.00286757,0.0167215,0.00822413,-0.370438,0.00965457,0.0371113,1805,778,27.083,-3.29195
588,246,27.1514,3.17706,0.017534,0.00693354,-0.000118498,0.0175353,0.00693221,-0.0111767,0.0101977,0.0423871,1812,778,27.1514,-3.17706
595,246,27.374,3.14587,0.0168422,0.0052901,0.00133504,0.0169945,0.00513782,0.113572,0.0100642,0.0393714,1819,778,27.374,-3.14586
602,246,27.6475,3.07513,0.0150275,0.00406463,0.00213902,0.01543,0.00366205,0.186028,0.00930928,0.0429956,1826,778,27.6475,-3.07512
609,246,28.1536,2.95166,0.0126754,0.00292596,0.00233704,0.0132066,0.0023947,0.223525,0.0081247,0.0499476,1833,778,28.1536,-2.95168
616,246,27.4431,4.33276,0,0,0,0,0,0,0,-1,1840,778,27.4431,-4.33277
623,246,27.3512,4.08887,0,0,0,0,0,0,0,-1,1847,778,27.3513,-4.08886
630,246,27.2075,3.83093,0,0,0,0,0,0,0,-1,1854,778,27.2076,-3.83095
637,246,26.3402,1.97174,0,0,0,0,0,0,0,-1,1861,778,26.3402,-1.97177
644,246,18.7505,0.781433,0,0,0,0,0,0,0,-1,1868,778,18.7505,-0.781416
651,246,19.1449,1.01196,0.00158893,6.0159e-05,0.00167914,0.00266948,-0.0010204,0.571804,0.00220013,0.0364757,1875,778,19.1448,-1.01195
658,246,19.1766,1.31677,0.000904218,-1.83669e-05,0.00108571,0.00162257,-0.000736717,0.584515,0.00139377,0.0220617,1882,778,19.1767,-1.3168
665,246,19.1466,1.62543,0.000500457,-0.000581603,0.000539957,0.000723801,-0.000804947,0.392203,0.000883038,0.0205587,1889,778,19.1466,-1.62542
672,246,19.1542,1.94989,0.000508729,-0.000378206,0.0001687,0.000539733,-0.00040921,0.181753,0.000549597,0.0200479,1896,778,19.1542,-1.9499
679,246,19.1947,2.24835,0.000810837,-0.000163717,8.36752e-05,0.000817969,-0.000170849,0.0850307,0.000610287,0.0209953,1903,778,19.1947,-2.24837
686,246,19.2123,2.57776,0.00132238,0.000376371,0.00040697,0.00147336,0.000225391,0.355248,0.000916398,0.023172,1910,778,19.2123,-2.57779
693,246,19.189,2.88562,0.00229125,0.00123014,0.000917359,0.00282043,0.00070096,0.523224,0.00169564,0.0180947,1917,778,19.189,-2.88559
700,246,19.1805,3.16394,0.00404922,0.00207611,0.00173348,0.00505722,0.00106811,0.526698,0.00307785,0.0142911,1924,778,19.1805,-3.16393
707,246,19.1725,3.47498,0.00695134,0.00282661,0.00300412,0.00853288,0.00124506,0.48459,0.00532233,0.0129293,1931,778,19.1725,-3.47499
714,246,19.1542,3.79602,0.0105881,0.00354543,0.00443625,0.0127307,0.00140284,0.449934,0.00806033,0.012033,1938,778,19.1542,-3.79599
721,246,19.1593,4.07727,0.0158241,0.00406559,0.00621475,0.0184999,0.0013898,0.406566,0.0118971,0.0177565,1945,778,19.1593,-4.07725
728,246,19.3134,4.80597,0.0238108,0.00437225,0.00869874,0.027135,0.00104805,0.365022,0.017751,0.0366303,1952,778,19.3134,-4.806
735,246,19.7325,5.67377,0,0,0,0,0,0,0,-1,1959,778,19.7326,-5.67378
742,246,20.8088,6.71283,0,0,0,0,0,0,0,-1,1966,778,20.8089,-6.71284
749,246,21.9369,7.98645,0,0,0,0,0,0,0,-1,1973,778,21.9369,-7.98648
756,246,22.9113,9.36029,0,0,0,0,0,0,0,-1,1980,778,22.9112,-9.3603
763,246,0,0,0,0,0,0,0,0,0,-1,1987,778,0,0
770,246,0,0,0,0,0,0,0,0,0,-1,1994,778,0,0
777,246,0,0,0,0,0,0,0,0,0,-1,2001,778,0,0
784,246,0,0,0,0,0,0,0,0,0,-1,2008,778,0,0
791,246,0,0,0,0,0,0,0,0,0,-1,2015,778,0,0
798,246,0,0,0,0,0,0,0,0,0,-1,2022,778,0,0
805,246,0,0,0,0,0,0,0,0,0,-1,2029,778,0,0
812,246,0,0,0,0,0,0,0,0,0,-1,2036,778,0,0
-700,239,0,0,0,0,0,0,0,0,0,-1,524,785,0,0
-693,239,0,0,0,0,0,0,0,0,0,-1,531,785,0,0
-686,239,0,0,0,0,0,0,0,0,0,-1,538,785,0,0
-679,239,0,0,0,0,0,0,0,0,0,-1,545,785,0,0
-672,239,0,0,0,0,0,0,0,0,0,-1,552,785,0,0
-665,239,0,0,0,0,0,0,0,0,0,-1,559,785,0,0
-658,239,0,0,0,0,0,0,0,0,0,-1,566,785,0,0
-651,239,0,0,0,0,0,0,0,0,0,-1,573,785,0,0
-644,239,0,0,0,0,0,0,0,0,0,-1,580,785,0,0
-637,239,-13.4119,4.37518,0.0621111,0.0349449,-0.0267765,0.0785527,0.0185034,-0.550672,0.0474197,0.0470552,587,785,-13.4119,-4.3752
-630,239,-13.0021,4.08374,0.0518924,0.0263527,-0.0239876,0.0662974,0.0119477,-0.540801,0.040803,0.0481143,594,785,-13.0022,-4.08374
-623,239,-12.6897,3.79004,0,0,0,0,0,0,0,-1,601,785,-12.6897,-3.79001
-616,239,-12.447,3.54004,0.0342151,0.0145261,-0.0172294,0.0442141,0.00452707,-0.525844,0.0280889,0.0448948,608,785,-12.447,-3.54004
-609,239,-12.3327,3.28601,0.0267292,0.0105313,-0.0140072,0.0348103,0.00245018,-0.523279,0.0224348,0.0484061,615,785,-12.3327,-3.286
-602,239,-12.3933,2.57166,0,0,0,0,0,0,0,-1,622,785,-12.3933,-2.57164
-595,239,-12.343,2.12146,0.014728,0.00572494,-0.00794404,0.0193572,0.00109566,-0.527629,0.0125556,0.0393311,629,785,-12.3429,-2.12145
-588,239,-12.3098,1.67664,0.0102812,0.00436969,-0.00572246,0.0137662,0.000884724,-0.54701,0.00889723,0.0173065,636,785,-12.3098,-1.67661
-581,239,-12.3608,1.36115,0.00615001,0.00214744,-0.00402083,0.00864007,-0.000342625,-0.554483,0.00587758,0.0096154,643,785,-12.3609,-1.36113
-574,239,-12.371,1.06812,0.00337224,0.000976185,-0.00211146,0.00460187,-0.000253448,-0.527349,0.00315579,0.0102279,650,785,-12.3709,-1.06812
-567,239,-12.4079,0.776794,0.00172947,0.000650371,-0.000953832,0.00228578,9.4059e-05,-0.528004,0.00149349,0.0124896,657,785,-12.4079,-0.77678
-560,239,-12.3994,0.521118,0.000135236,0.000466097,-2.52644e-05,0.000468015,0.000133318,-1.49502,0.000278422,0.0131455,664,785,-12.3994,-0.521107
-553,239,-12.3735,0.255493,-0.00161216,0.000813298,0.000803279,0.00105521,-0.00185407,1.27828,0.00170065,0.0136822,671,785,-12.3735,-0.255465
-546,239,-12.4019,-0.0374756,-0.00297569,0.000965199,0.00125335,0.00133004,-0.00334053,1.28753,0.00277858,0.0146605,678,785,-12.4019,0.0374909
-539,239,-12.4029,-0.350769,-0.00384987,0.00128553,0.00155303,0.00171866,-0.004283,1.29881,0.00356893,0.0154581,685,785,-12.4029,0.350766
-532,239,-12.3756,-0.657349,-0.00436866,0.00168168,0.00185053,0.00220279,-0.00488977,1.2963,0.0041917,0.0129104,692,785,-12.3756,0.657361
-525,239,-12.3812,-0.917419,-0.00431852,0.0016731,0.00198749,0.00227242,-0.00491785,1.27792,0.00424393,0.0165922,699,785,-12.3811,0.917412
-518,239,-12.4526,-1.06018,-0.004168,0.00194238,0.00251022,0.00284135,-0.00506697,1.2269,0.00462575,0.040252,706,785,-12.4526,1.06017
-511,239,-12.8493,-1.16687,-0.0036843,0.00208967,0.00293437,0.00331914,-0.00491378,1.17403,0.0047829,0.042603,713,785,-12.8493,1.16685
-504,239,-12.9221,-1.33551,-0.00274572,0.00202891,0.00328618,0.0037034,-0.00442021,1.09953,0.00469625,0.0445661,720,785,-12.9221,1.33549
-497,239,-13.0291,-1.67883,0,0,0,0,0,0,0,-1,727,785,-13.0291,1.6788
-490,239,-19.4524,1.32892,0.000416284,0.00119669,0.00433283,0.00515685,-0.00354388,0.830306,0.00505206,0.0496012,734,785,-19.4524,-1.32893
-483,239,-19.3496,1.32263,0.00280921,0.000372257,0.00490224,0.00664214,-0.00346067,0.663589,0.00592848,0.0446239,741,785,-19.3496,-1.3226
-476,239,-19.2293,1.25513,0.00583372,-0.000733178,0.00538675,0.00885884,-0.0037583,0.511695,0.00748029,0.0415451,748,785,-19.2293,-1.25513
-469,239,-19.1331,1.31891,0.00959281,-0.00213497,0.00555731,0.0118078,-0.00434999,0.379281,0.00965428,0.0441824,755,785,-19.1331,-1.31889
-462,239,-19.0446,1.49799,0.0137639,-0.00412133,0.00509236,0.0151122,-0.00546961,0.258826,0.0123099,0.047086,762,785,-19.0446,-1.49799
-455,239,0,0,0,0,0,0,0,0,0,-1,769,785,0,0
-448,239,0,0,0,0,0,0,0,0,0,-1,776,785,0,0
-441,239,0,0,0,0,0,0,0,0,0,-1,783,785,0,0
-434,239,0,0,0,0,0,0,0,0,0,-1,790,785,0,0
-427,239,0,0,0,0,0,0,0,0,0,-1,797,785,0,0
-420,239,0,0,0,0,0,0,0,0,0,-1,804,785,0,0
-413,239,0,0,0,0,0,0,0,0,0,-1,811,785,0,0
-406,239,0,0,0,0,0,0,0,0,0,-1,818,785,0,0
-399,239,0,0,0,0,0,0,0,0,0,-1,825,785,0,0
-392,239,0,0,0,0,0,0,0,0,0,-1,832,785,0,0
-385,239,0,0,0,0,0,0,0,0,0,-1,839,785,0,0
-378,239,0,0,0,0,0,0,0,0,0,-1,846,785,0,0
-371,239,0,0,0,0,0,0,0,0,0,-1,853,785,0,0
-364,239,0,0,0,0,0,0,0,0,0,-1,860,785,0,0
-357,239,0,0,0,0,0,0,0,0,0,-1,867,785,0,0
-350,239,0,0,0,0,0,0,0,0,0,-1,874,785,0,0
-343,239,0,0,0,0,0,0,0,0,0,-1,881,785,0,0
-336,239,0,0,0,0,0,0,0,0,0,-1,888,785,0,0
-329,239,0,0,0,0,0,0,0,0,0,-1,895,785,0,0
-322,239,0,0,0,0,0,0,0,0,0,-1,902,785,0,0
-315,239,0,0,0,0,0,0,0,0,0,-1,909,785,0,0
-308,239,0,0,0,0,0,0,0,0,0,-1,916,785,0,0
-301,239,0,0,0,0,0,0,0,0,0,-1,923,785,0,0
-294,239,0,0,0,0,0,0,0,0,0,-1,930,785,0,0
-287,239,0,0,0,0,0,0,0,0,0,-1,937,785,0,0
-280,239,0,0,0,0,0,0,0,0,0,-1,944,785,0,0
-273,239,0,0,0,0,0,0,0,0,0,-1,951,785,0,0
-266,239,0,0,0,0,0,0,0,0,0,-1,958,785,0,0
-259,239,0,0,0,0,0,0,0,0,0,-1,965,785,0,0
-252,239,0,0,0,0,0,0,0,0,0,-1,972,785,0,0
-245,239,0,0,0,0,0,0,0,0,0,-1,979,785,0,0
-238,239,0,0,0,0,0,0,0,0,0,-1,986,785,0,0
-231,239,0,0,0,0,0,0,0,0,0,-1,993,785,0,0
-224,239,0,0,0,0,0,0,0,0,0,-1,1000,785,0,0
-217,239,0,0,0,0,0,0,0,0,0,-1,1007,785,0,0
-210,239,0,0,0,0,0,0,0,0,0,-1,1014,785,0,0
-203,239,0,0,0,0,0,0,0,0,0,-1,1021,785,0,0
-196,239,0,0,0,0,0,0,0,0,0,-1,1028,785,0,0
-189,239,0,0,0,0,0,0,0,0,0,-1,1035,785,0,0
-182,239,0,0,0,0,0,0,0,0,0,-1,1042,785,0,0
-175,239,0,0,0,0,0,0,0,0,0,-1,1049,785,0,0
-168,239,0,0,0,0,0,0,0,0,0,-1,1056,785,0,0
-161,239,0,0,0,0,0,0,0,0,0,-1,1063,785,0,0
-154,239,0,0,0,0,0,0,0,0,0,-1,1070,785,0,0
-147,239,0,0,0,0,0,0,0,0,0,-1,1077,785,0,0
-140,239,0,0,0,0,0,0,0,0,0,-1,1084,785,0,0
-133,239,0,0,0,0,0,0,0,0,0,-1,1091,785,0,0
-126,239,0,0,0,0,0,0,0,0,0,-1,1098,785,0,0
-119,239,0,0,0,0,0,0,0,0,0,-1,1105,785,0,0
-112,239,0,0,0,0,0,0,0,0,0,-1,1112,785,0,0
-105,239,0,0,0,0,0,0,0,0,0,-1,1119,785,0,0
-98,239,0,0,0,0,0,0,0,0,0,-1,1126,785,0,0
-91,239,0,0,0,0,0,0,0,0,0,-1,1133,785,0,0
-84,239,0,0,0,0,0,0,0,0,0,-1,1140,785,0,0
-77,239,0,0,0,0,0,0,0,0,0,-1,1147,785,0,0
-70,239,0,0,0,0,0,0,0,0,0,-1,1154,785,0,0
-63,239,0,0,0,0,0,0,0,0,0,-1,1161,785,0,0
-56,239,0,0,0,0,0,0,0,0,0,-1,1168,785,0,0
-49,239,0,0,0,0,0,0,0,0,0,-1,1175,785,0,0
-42,239,0,0,0,0,0,0,0,0,0,-1,1182,785,0,0
-35,239,0,0,0,0,0,0,0,0,0,-1,1189,785,0,0
-28,239,0,0,0,0,0,0,0,0,0,-1,1196,785,0,0
-21,239,0,0,0,0,0,0,0,0,0,-1,1203,785,0,0
-14,239,0,0,0,0,0,0,0,0,0,-1,1210,785,0,0
-7,239,0,0,0,0,0,0,0,0,0,-1,1217,785,0,0
0,239,0,0,0,0,0,0,0,0,0,-1,1224,785,0,0
7,239,0,0,0,0,0,0,0,0,0,-1,1231,785,0,0
14,239,0,0,0,0,0,0,0,0,0,-1,1238,785,0,0
21,239,0,0,0,0,0,0,0,0,0,-1,1245,785,0,0
28,239,0,0,0,0,0,0,0,0,0,-1,1252,785,0,0
35,239,0,0,0,0,0,0,0,0,0,-1,1259,785,0,0
42,239,0,0,0,0,0,0,0,0,0,-1,1266,785,0,0
49,239,0,0,0,0,0,0,0,0,0,-1,1273,785,0,0
56,239,0,0,0,0,0,0,0,0,0,-1,1280,785,0,0
63,239,0,0,0,0,0,0,0,0,0,-1,1287,785,0,0
70,239,0,0,0,0,0,0,0,0,0,-1,1294,785,0,0
77,239,0,0,0,0,0,0,0,0,0,-1,1301,785,0,0
84,239,0,0,0,0,0,0,0,0,0,-1,1308,785,0,0
91,239,0,0,0,0,0,0,0,0,0,-1,1315,785,0,0
98,239,0,0,0,0,0,0,0,0,0,-1,1322,785,0,0
105,239,0,0,0,0,0,0,0,0,0,-1,1329,785,0,0
112,239,0,0,0,0,0,0,0,0,0,-1,1336,785,0,0
119,239,0,0,0,0,0,0,0,0,0,-1,1343,785,0,0
126,239,0,0,0,0,0,0,0,0,0,-1,1350,785,0,0
133,239,0,0,0,0,0,0,0,0,0,-1,1357,785,0,0
140,239,0,0,0,0,0,0,0,0,0,-1,1364,785,0,0
147,239,0,0,0,0,0,0,0,0,0,-1,1371,785,0,0
154,239,0,0,0,0,0,0,0,0,0,-1,1378,785,0,0
161,239,0,0,0,0,0,0,0,0,0,-1,1385,785,0,0
168,239,0,0,0,0,0,0,0,0,0,-1,1392,785,0,0
175,239,0,0,0,0,0,0,0,0,0,-1,1399,785,0,0
182,239,0,0,0,0,0,0,0,0,0,-1,1406,785,0,0
189,239,0,0,0,0,0,0,0,0,0,-1,1413,785,0,0
196,239,0,0,0,0,0,0,0,0,0,-1,1420,785,0,0
203,239,0,0,0,0,0,0,0,0,0,-1,1427,785,0,0
210,239,0,0,0,0,0,0,0,0,0,-1,1434,785,0,0
217,239,0,0,0,0,0,0,0,0,0,-1,1441,785,0,0
224,239,0,0,0,0,0,0,0,0,0,-1,1448,785,0,0
231,239,0,0,0,0,0,0,0,0,0,-1,1455,785,0,0
238,239,0,0,0,0,0,0,0,0,0,-1,1462,785,0,0
245,239,0,0,0,0,0,0,0,0,0,-1,1469,785,0,0
252,239,0,0,0,0,0,0,0,0,0,-1,1476,785,0,0
259,239,0,0,0,0,0,0,0,0,0,-1,1483,785,0,0
266,239,0,0,0,0,0,0,0,0,0,-1,1490,785,0,0
273,239,0,0,0,0,0,0,0,0,0,-1,1497,785,0,0
280,239,0,0,0,0,0,0,0,0,0,-1,1504,785,0,0
287,239,0,0,0,0,0,0,0,0,0,-1,1511,785,0,0
294,239,0,0,0,0,0,0,0,0,0,-1,1518,785,0,0
301,239,0,0,0,0,0,0,0,0,0,-1,1525,785,0,0
308,239,0,0,0,0,0,0,0,0,0,-1,1532,785,0,0
315,239,0,0,0,0,0,0,0,0,0,-1,1539,785,0,0
322,239,0,0,0,0,0,0,0,0,0,-1,1546,785,0,0
329,239,0,0,0,0,0,0,0,0,0,-1,1553,785,0,0
336,239,0,0,0,0,0,0,0,0,0,-1,1560,785,0,0
343,239,0,0,0,0,0,0,0,0,0,-1,1567,785,0,0
350,239,0,0,0,0,0,0,0,0,0,-1,1574,785,0,0
357,239,0,0,0,0,0,0,0,0,0,-1,1581,785,0,0
364,239,0,0,0,0,0,0,0,0,0,-1,1588,785,0,0
371,239,0,0,0,0,0,0,0,0,0,-1,1595,785,0,0
378,239,0,0,0,0,0,0,0,0,0,-1,1602,785,0,0
385,239,0,0,0,0,0,0,0,0,0,-1,1609,785,0,0
392,239,0,0,0,0,0,0,0,0,0,-1,1616,785,0,0
399,239,0,0,0,0,0,0,0,0,0,-1,1623,785,0,0
406,239,0,0,0,0,0,0,0,0,0,-1,1630,785,0,0
413,239,0,0,0,0,0,0,0,0,0,-1,1637,785,0,0
420,239,0,0,0,0,0,0,0,0,0,-1,1644,785,0,0
427,239,0,0,0,0,0,0,0,0,0,-1,1651,785,0,0
434,239,0,0,0,0,0,0,0,0,0,-1,1658,785,0,0
441,239,0,0,0,0,0,0,0,0,0,-1,1665,785,0,0
448,239,0,0,0,0,0,0,0,0,0,-1,1672,785,0,0
455,239,0,0,0,0,0,0,0,0,0,-1,1679,785,0,0
462,239,0,0,0,0,0,0,0,0,0,-1,1686,785,0,0
469,239,0,0,0,0,0,0,0,0,0,-1,1693,785,0,0
476,239,0,0,0,0,0,0,0,0,0,-1,1700,785,0,0
483,239,0,0,0,0,0,0,0,0,0,-1,1707,785,0,0
490,239,0,0,0,0,0,0,0,0,0,-1,1714,785,0,0
497,239,0,0,0,0,0,0,0,0,0,-1,1721,785,0,0
504,239,0,0,0,0,0,0,0,0,0,-1,1728,785,0,0
511,239,0,0,0,0,0,0,0,0,0,-1,1735,785,0,0
518,239,0,0,0,0,0,0,0,0,0,-1,1742,785,0,0
525,239,0,0,0,0,0,0,0,0,0,-1,1749,785,0,0
532,239,0,0,0,0,0,0,0,0,0,-1,1756,785,0,0
539,239,0,0,0,0,0,0,0,0,0,-1,1763,785,0,0
546,239,0,0,0,0,0,0,0,0,0,-1,1770,785,0,0
553,239,0,0,0,0,0,0,0,0,0,-1,1777,785,0,0
560,239,0,0,0,0,0,0,0,0,0,-1,1784,785,0,0
567,239,0,0,0,0,0,0,0,0,0,-1,1791,785,0,0
574,239,0,0,0,0,0,0,0,0,0,-1,1798,785,0,0
581,239,27.0662,3.33667,0.0112579,0.00618912,-0.0056049,0.0148748,0.00257226,-0.573067,0.00918003,0.036364,1805,785,27.0661,-3.33667
588,239,27.0569,3.26801,0.0136863,0.00470289,-0.00283287,0.014505,0.00388418,-0.28134,0.00867031,0.040262,1812,785,27.0569,-3.26798
595,239,27.1887,3.23352,0.0137416,0.0038852,-0.000872178,0.0138182,0.00380861,-0.0875819,0.00824133,0.0359227,1819,785,27.1887,-3.23353
602,239,27.3192,3.13959,0.0126286,0.00335044,0.000669358,0.0126766,0.0033024,0.0716489,0.00759356,0.0395397,1826,785,27.3192,-3.13961
609,239,27.5492,3.0528,0,0,0,0,0,0,0,-1,1833,785,27.5492,-3.0528
616,239,27.4412,3.12347,0,0,0,0,0,0,0,-1,1840,785,27.4412,-3.12349
623,239,27.3229,3.48413,0.00710538,0.00153266,0.0021912,0.00786376,0.000774287,0.333197,0.00500441,0.0433642,1847,785,27.3229,-3.48415
630,239,27.2117,3.7887,0.00559046,0.000892304,0.00229574,0.00652598,-4.32173e-05,0.386958,0.00436513,0.0407174,1854,785,27.2117,-3.78867
637,239,27.2228,4.02618,0,0,0,0,0,0,0,-1,1861,785,27.2228,-4.02621
644,239,18.3466,0.735413,0,0,0,0,0,0,0,-1,1868,785,18.3465,-0.735414
651,239,19.406,1.04175,0,0,0,0,0,0,0,-1,1875,785,19.406,-1.04176
658,239,19.4733,1.3504,0.000660926,0.000233106,0.00127168,0.00173656,-0.000842528,0.702073,0.00151857,0.0223852,1882,785,19.4732,-1.35038
665,239,19.5034,1.64557,0.00018094,-0.000356053,0.000705743,0.000667535,-0.000842648,0.60363,0.000873856,0.0145565,1889,785,19.5034,-1.64556
672,239,19.4792,1.95459,0.000111817,-0.000313497,0.000222691,0.00020708,-0.000408759,0.404222,0.000361854,0.0205351,1896,785,19.4792,-1.95457
679,239,19.5237,2.28436,0.000338266,-0.000297764,-2.93148e-05,0.000339615,-0.000299112,-0.0459604,0.000369016,0.0218861,1903,785,19.5236,-2.28435
686,239,19.5377,2.61102,0.000786116,5.34592e-06,0.000111506,0.000801728,-1.02668e-05,0.139112,0.00053794,0.0234059,1910,785,19.5377,-2.61102
693,239,19.5042,2.89996,0.00175262,0.000737583,0.000449125,0.00192281,0.000567393,0.362217,0.00114079,0.0154398,1917,785,19.5042,-2.89993
700,239,19.5017,3.1886,0.00362251,0.00140973,0.00111854,0.00408941,0.000942835,0.39543,0.00247266,0.0115194,1924,785,19.5017,-3.18859
707,239,19.4991,3.48511,0.00670687,0.00197206,0.00229367,0.00763576,0.00104318,0.38479,0.00478087,0.0110977,1931,785,19.4992,-3.48508
714,239,19.4954,3.76605,0.0105013,0.00248636,0.00359538,0.0118777,0.00110991,0.365624,0.00757568,0.010197,1938,785,19.4953,-3.76605
721,239,19.4596,4.06824,0.0158851,0.00265422,0.00515419,0.0176559,0.000883377,0.330939,0.0114875,0.0217904,1945,785,19.4596,-4.06827
728,239,19.4019,4.41534,0.0238451,0.0024778,0.00727849,0.0260888,0.000234093,0.299023,0.0173151,0.0384624,1952,785,19.4019,-4.41535
735,239,19.4885,4.81592,0,0,0,0,0,0,0,-1,1959,785,19.4885,-4.81593
742,239,20.6833,6.84631,0,0,0,0,0,0,0,-1,1966,785,20.6833,-6.8463
749,239,21.9871,7.99042,0,0,0,0,0,0,0,-1,1973,785,21.9871,-7.99042
756,239,22.9199,1.97351,0,0,0,0,0,0,0,-1,1980,785,22.9199,-1.97352
763,239,0,0,0,0,0,0,0,0,0,-1,1987,785,0,0
770,239,0,0,0,0,0,0,0,0,0,-1,1994,785,0,0
777,239,0,0,0,0,0,0,0,0,0,-1,2001,785,0,0
784,239,0,0,0,0,0,0,0,0,0,-1,2008,785,0,0
791,239,0,0,0,0,0,0,0,0,0,-1,2015,785,0,0
798,239,0,0,0,0,0,0,0,0,0,-1,2022,785,0,0
805,239,0,0,0,0,0,0,0,0,0,-1,2029,785,0,0
812,239,0,0,0,0,0,0,0,0,0,-1,2036,785,0,0
-700,232,0,0,0,0,0,0,0,0,0,-1,524,792,0,0
-693,232,0,0,0,0,0,0,0,0,0,-1,531,792,0,0
-686,232,0,0,0,0,0,0,0,0,0,-1,538,792,0,0
-679,232,0,0,0,0,0,0,0,0,0,-1,545,792,0,0
-672,232,0,0,0,0,0,0,0,0,0,-1,552,792,0,0
-665,232,0,0,0,0,0,0,0,0,0,-1,559,792,0,0
-658,232,0,0,0,0,0,0,0,0,0,-1,566,792,0,0
-651,232,0,0,0,0,0,0,0,0,0,-1,573,792,0,0
-644,232,-13.6357,4.45636,0,0,0,0,0,0,0,-1,580,792,-13.6357,-4.45636
-637,232,-13.4122,3.76544,0.0500887,0.0219888,-0.0212628,0.0615242,0.0105533,-0.49344,0.0379901,0.0483235,587,792,-13.4122,-3.76547
-630,232,-12.7401,3.56012,0.0419834,0.0167783,-0.0190023,0.0521825,0.00657922,-0.492594,0.0328158,0.0482443,594,792,-12.7401,-3.56009
-623,232,-12.3914,3.51147,0,0,0,0,0,0,0,-1,601,792,-12.3914,-3.51148
-616,232,-12.2322,3.44702,0,0,0,0,0,0,0,-1,608,792,-12.2322,-3.44702
-609,232,-12.1626,3.10083,0,0,0,0,0,0,0,-1,615,792,-12.1626,-3.10084
-602,232,-12.8339,2.40424,0,0,0,0,0,0,0,-1,622,792,-12.8339,-2.40423
-595,232,-12.7161,2.04236,0.0124967,0.0044153,-0.00650462,0.0161135,0.000798501,-0.507465,0.0104863,0.0362258,629,792,-12.7161,-2.04235
-588,232,-12.6471,1.66309,0.00884701,0.00362345,-0.004687,0.0116008,0.000869656,-0.531206,0.0074609,0.0127916,636,792,-12.6471,-1.66308
-581,232,-12.6411,1.36194,0.00529602,0.00173835,-0.00334969,0.0073099,-0.000275535,-0.541312,0.00496766,0.00794001,643,792,-12.6411,-1.36192
-574,232,-12.6517,1.08221,0.00290196,0.000668131,-0.00172437,0.00383954,-0.000269448,-0.498011,0.00265407,0.00775743,650,792,-12.6517,-1.08224
-567,232,-12.6766,0.810181,0.00142235,0.000390219,-0.000736975,0.00180598,6.58788e-06,-0.479951,0.0012018,0.00933841,657,792,-12.6767,-0.810164
-560,232,-12.6819,0.539429,-0.000127298,0.000315423,1.74698e-05,0.000316111,-0.000127986,1.53142,0.000263957,0.0121544,664,792,-12.6819,-0.53945
-553,232,-12.6875,0.250732,-0.00185844,0.000819738,0.000682461,0.000983617,-0.00202232,1.33513,0.00176968,0.0134496,671,792,-12.6875,-0.250713
-546,232,-12.7136,-0.0396729,-0.00316804,0.00101185,0.00108336,0.00127595,-0.00343214,1.33168,0.00281163,0.0212896,678,792,-12.7136,0.0396939
-539,232,-12.6928,-0.345764,-0.00389041,0.00142932,0.00127149,0.00171761,-0.00417869,1.34784,0.00350168,0.0253127,685,792,-12.6928,0.345765
-532,232,-12.6722,-0.631775,-0.00429014,0.00194407,0.00147572,0.00227575,-0.00462181,1.34972,0.00405837,0.0175416,692,792,-12.6722,0.631786
-525,232,-12.7288,-0.886292,-0.00415554,0.00202927,0.00154406,0.00239333,-0.00451959,1.33925,0.00405361,0.0305322,699,792,-12.7288,0.886304
-518,232,-12.7807,-0.969116,0,0,0,0,0,0,0,-1,706,792,-12.7807,0.969101
-511,232,-13.2211,-1.45612,-0.00330653,0.00253158,0.00220049,0.00326808,-0.00404303,1.24782,0.00422896,0.0425151,713,792,-13.2211,1.45614
-504,232,-13.5475,-1.95325,-0.00223723,0.00253525,0.00241589,0.00354469,-0.00324668,1.17501,0.00392226,0.0474413,720,792,-13.5476,1.95324
-497,232,-13.8657,-2.23724,0,0,0,0,0,0,0,-1,727,792,-13.8657,2.23723
-490,232,-19.3339,1.36987,0.00152414,0.00167829,0.00304181,0.004644,-0.00144158,0.798065,0.00367209,0.0458325,734,792,-19.3339,-1.36987
-483,232,-19.2036,1.36072,0.00450206,0.000685996,0.00330669,0.00641172,-0.00122367,0.523722,0.00473537,0.0413275,741,792,-19.2036,-1.36072
-476,232,-19.1095,1.32892,0.00837711,-0.000768417,0.00339704,0.00950084,-0.00189215,0.319466,0.00704977,0.0351344,748,792,-19.1095,-1.32892
-469,232,-19.0662,1.38696,0.0132406,-0.00272153,0.00306012,0.0138072,-0.00328808,0.183067,0.0104743,0.0340046,755,792,-19.0662,-1.38696
-462,232,0,0,0,0,0,0,0,0,0,-1,762,792,0,0
-455,232,0,0,0,0,0,0,0,0,0,-1,769,792,0,0
-448,232,0,0,0,0,0,0,0,0,0,-1,776,792,0,0
-441,232,0,0,0,0,0,0,0,0,0,-1,783,792,0,0
-434,232,0,0,0,0,0,0,0,0,0,-1,790,792,0,0
-427,232,0,0,0,0,0,0,0,0,0,-1,797,792,0,0
-420,232,0,0,0,0,0,0,0,0,0,-1,804,792,0,0
-413,232,0,0,0,0,0,0,0,0,0,-1,811,792,0,0
-406,232,0,0,0,0,0,0,0,0,0,-1,818,792,0,0
-399,232,0,0,0,0,0,0,0,0,0,-1,825,792,0,0
-392,232,0,0,0,0,0,0,0,0,0,-1,832,792,0,0
-385,232,0,0,0,0,0,0,0,0,0,-1,839,792,0,0
-378,232,0,0,0,0,0,0,0,0,0,-1,846,792,0,0
-371,232,0,0,0,0,0,0,0,0,0,-1,853,792,0,0
-364,232,0,0,0,0,0,0,0,0,0,-1,860,792,0,0
-357,232,0,0,0,0,0,0,0,0,0,-1,867,792,0,0
-350,232,0,0,0,0,0,0,0,0,0,-1,874,792,0,0
-343,232,0,0,0,0,0,0,0,0,0,-1,881,792,0,0
-336,232,0,0,0,0,0,0,0,0,0,-1,888,792,0,0
-329,232,0,0,0,0,0,0,0,0,0,-1,895,792,0,0
-322,232,0,0,0,0,0,0,0,0,0,-1,902,792,0,0
-315,232,0,0,0,0,0,0,0,0,0,-1,909,792,0,0
-308,232,0,0,0,0,0,0,0,0,0,-1,916,792,0,0
-301,232,0,0,0,0,0,0,0,0,0,-1,923,792,0,0
-294,232,0,0,0,0,0,0,0,0,0,-1,930,792,0,0
-287,232,0,0,0,0,0,0,0,0,0,-1,937,792,0,0
-280,232,0,0,0,0,0,0,0,0,0,-1,944,792,0,0
-273,232,0,0,0,0,0,0,0,0,0,-1,951,792,0,0
-266,232,0,0,0,0,0,0,0,0,0,-1,958,792,0,0
-259,232,0,0,0,0,0,0,0,0,0,-1,965,792,0,0
-252,232,0,0,0,0,0,0,0,0,0,-1,972,792,0,0
-245,232,0,0,0,0,0,0,0,0,0,-1,979,792,0,0
-238,232,0,0,0,0,0,0,0,0,0,-1,986,792,0,0
-231,232,0,0,0,0,0,0,0,0,0,-1,993,792,0,0
-224,232,0,0,0,0,0,0,0,0,0,-1,1000,792,0,0
-217,232,0,0,0,0,0,0,0,0,0,-1,1007,792,0,0
-210,232,0,0,0,0,0,0,0,0,0,-1,1014,792,0,0
-203,232,0,0,0,0,0,0,0,0,0,-1,1021,792,0,0
-196,232,0,0,0,0,0,0,0,0,0,-1,1028,792,0,0
-189,232,0,0,0,0,0,0,0,0,0,-1,1035,792,0,0
-182,232,0,0,0,0,0,0,0,0,0,-1,1042,792,0,0
-175,232,0,0,0,0,0,0,0,0,0,-1,1049,792,0,0
-168,232,0,0,0,0,0,0,0,0,0,-1,1056,792,0,0
-161,232,0,0,0,0,0,0,0,0,0,-1,1063,792,0,0
-154,232,0,0,0,0,0,0,0,0,0,-1,1070,792,0,0
-147,232,0,0,0,0,0,0,0,0,0,-1,1077,792,0,0
-140,232,0,0,0,0,0,0,0,0,0,-1,1084,792,0,0
-133,232,0,0,0,0,0,0,0,0,0,-1,1091,792,0,0
-126,232,0,0,0,0,0,0,0,0,0,-1,1098,792,0,0
-119,232,0,0,0,0,0,0,0,0,0,-1,1105,792,0,0
-112,232,0,0,0,0,0,0,0,0,0,-1,1112,792,0,0
-105,232,0,0,0,0,0,0,0,0,0,-1,1119,792,0,0
-98,232,0,0,0,0,0,0,0,0,0,-1,1126,792,0,0
-91,232,0,0,0,0,0,0,0,0,0,-1,1133,792,0,0
-84,232,0,0,0,0,0,0,0,0,0,-1,1140,792,0,0
-77,232,0,0,0,0,0,0,0,0,0,-1,1147,792,0,0
-70,232,0,0,0,0,0,0,0,0,0,-1,1154,792,0,0
-63,232,0,0,0,0,0,0,0,0,0,-1,1161,792,0,0
-56,232,0,0,0,0,0,0,0,0,0,-1,1168,792,0,0
-49,232,0,0,0,0,0,0,0,0,0,-1,1175,792,0,0
-42,232,0,0,0,0,0,0,0,0,0,-1,1182,792,0,0
-35,232,0,0,0,0,0,0,0,0,0,-1,1189,792,0,0
-28,232,0,0,0,0,0,0,0,0,0,-1,1196,792,0,0
-21,232,0,0,0,0,0,0,0,0,0,-1,1203,792,0,0
-14,232,0,0,0,0,0,0,0,0,0,-1,1210,792,0,0
-7,232,0,0,0,0,0,0,0,0,0,-1,1217,792,0,0
0,232,0,0,0,0,0,0,0,0,0,-1,1224,792,0,0
7,232,0,0,0,0,0,0,0,0,0,-1,1231,792,0,0
14,232,0,0,0,0,0,0,0,0,0,-1,1238,792,0,0
21,232,0,0,0,0,0,0,0,0,0,-1,1245,792,0,0
28,232,0,0,0,0,0,0,0,0,0,-1,1252,792,0,0
35,232,0,0,0,0,0,0,0,0,0,-1,1259,792,0,0
42,232,0,0,0,0,0,0,0,0,0,-1,1266,792,0,0
49,232,0,0,0,0,0,0,0,0,0,-1,1273,792,0,0
56,232,0,0,0,0,0,0,0,0,0,-1,1280,792,0,0
63,232,0,0,0,0,0,0,0,0,0,-1,1287,792,0,0
70,232,0,0,0,0,0,0,0,0,0,-1,1294,792,0,0
77,232,0,0,0,0,0,0,0,0,0,-1,1301,792,0,0
84,232,0,0,0,0,0,0,0,0,0,-1,1308,792,0,0
91,232,0,0,0,0,0,0,0,0,0,-1,1315,792,0,0
98,232,0,0,0,0,0,0,0,0,0,-1,1322,792,0,0
105,232,0,0,0,0,0,0,0,0,0,-1,1329,792,0,0
112,232,0,0,0,0,0,0,0,0,0,-1,1336,792,0,0
119,232,0,0,0,0,0,0,0,0,0,-1,1343,792,0,0
126,232,0,0,0,0,0,0,0,0,0,-1,1350,792,0,0
133,232,0,0,0,0,0,0,0,0,0,-1,1357,792,0,0
140,232,0,0,0,0,0,0,0,0,0,-1,1364,792,0,0
147,232,0,0,0,0,0,0,0,0,0,-1,1371,792,0,0
154,232,0,0,0,0,0,0,0,0,0,-1,1378,792,0,0
161,232,0,0,0,0,0,0,0,0,0,-1,1385,792,0,0
168,232,0,0,0,0,0,0,0,0,0,-1,1392,792,0,0
175,232,0,0,0,0,0,0,0,0,0,-1,1399,792,0,0
182,232,0,0,0,0,0,0,0,0,0,-1,1406,792,0,0
189,232,0,0,0,0,0,0,0,0,0,-1,1413,792,0,0
196,232,0,0,0,0,0,0,0,0,0,-1,1420,792,0,0
203,232,0,0,0,0,0,0,0,0,0,-1,1427,792,0,0
210,232,0,0,0,0,0,0,0,0,0,-1,1434,792,0,0
217,232,0,0,0,0,0,0,0,0,0,-1,1441,792,0,0
224,232,0,0,0,0,0,0,0,0,0,-1,1448,792,0,0
231,232,0,0,0,0,0,0,0,0,0,-1,1455,792,0,0
238,232,0,0,0,0,0,0,0,0,0,-1,1462,792,0,0
245,232,0,0,0,0,0,0,0,0,0,-1,1469,792,0,0
252,232,0,0,0,0,0,0,0,0,0,-1,1476,792,0,0
259,232,0,0,0,0,0,0,0,0,0,-1,1483,792,0,0
266,232,0,0,0,0,0,0,0,0,0,-1,1490,792,0,0
273,232,0,0,0,0,0,0,0,0,0,-1,1497,792,0,0
280,232,0,0,0,0,0,0,0,0,0,-1,1504,792,0,0
287,232,0,0,0,0,0,0,0,0,0,-1,1511,792,0,0
294,232,0,0,0,0,0,0,0,0,0,-1,1518,792,0,0
301,232,0,0,0,0,0,0,0,0,0,-1,1525,792,0,0
308,232,0,0,0,0,0,0,0,0,0,-1,1532,792,0,0
315,232,0,0,0,0,0,0,0,0,0,-1,1539,792,0,0
322,232,0,0,0,0,0,0,0,0,0,-1,1546,792,0,0
329,232,0,0,0,0,0,0,0,0,0,-1,1553,792,0,0
336,232,0,0,0,0,0,0,0,0,0,-1,1560,792,0,0
343,232,0,0,0,0,0,0,0,0,0,-1,1567,792,0,0
350,232,0,0,0,0,0,0,0,0,0,-1,1574,792,0,0
357,232,0,0,0,0,0,0,0,0,0,-1,1581,792,0,0
364,232,0,0,0,0,0,0,0,0,0,-1,1588,792,0,0
371,232,0,0,0,0,0,0,0,0,0,-1,1595,792,0,0
378,232,0,0,0,0,0,0,0,0,0,-1,1602,792,0,0
385,232,0,0,0,0,0,0,0,0,0,-1,1609,792,0,0
392,232,0,0,0,0,0,0,0,0,0,-1,1616,792,0,0
399,232,0,0,0,0,0,0,0,0,0,-1,1623,792,0,0
406,232,0,0,0,0,0,0,0,0,0,-1,1630,792,0,0
413,232,0,0,0,0,0,0,0,0,0,-1,1637,792,0,0
420,232,0,0,0,0,0,0,0,0,0,-1,1644,792,0,0
427,232,0,0,0,0,0,0,0,0,0,-1,1651,792,0,0
434,232,0,0,0,0,0,0,0,0,0,-1,1658,792,0,0
441,232,0,0,0,0,0,0,0,0,0,-1,1665,792,0,0
448,232,0,0,0,0,0,0,0,0,0,-1,1672,792,0,0
455,232,0,0,0,0,0,0,0,0,0,-1,1679,792,0,0
462,232,0,0,0,0,0,0,0,0,0,-1,1686,792,0,0
469,232,0,0,0,0,0,0,0,0,0,-1,1693,792,0,0
476,232,0,0,0,0,0,0,0,0,0,-1,1700,792,0,0
483,232,0,0,0,0,0,0,0,0,0,-1,1707,792,0,0
490,232,0,0,0,0,0,0,0,0,0,-1,1714,792,0,0
497,232,0,0,0,0,0,0,0,0,0,-1,1721,792,0,0
504,232,0,0,0,0,0,0,0,0,0,-1,1728,792,0,0
511,232,0,0,0,0,0,0,0,0,0,-1,1735,792,0,0
518,232,0,0,0,0,0,0,0,0,0,-1,1742,792,0,0
525,232,0,0,0,0,0,0,0,0,0,-1,1749,792,0,0
532,232,0,0,0,0,0,0,0,0,0,-1,1756,792,0,0
539,232,0,0,0,0,0,0,0,0,0,-1,1763,792,0,0
546,232,0,0,0,0,0,0,0,0,0,-1,1770,792,0,0
553,232,0,0,0,0,0,0,0,0,0,-1,1777,792,0,0
560,232,0,0,0,0,0,0,0,0,0,-1,1784,792,0,0
567,232,0,0,0,0,0,0,0,0,0,-1,1791,792,0,0
574,232,0,0,0,0,0,0,0,0,0,-1,1798,792,0,0
581,232,0,0,0,0,0,0,0,0,0,-1,1805,792,0,0
588,232,27.0642,3.29651,0.0110281,0.00257945,-0.00400292,0.0126234,0.000984118,-0.379248,0.00810749,0.0395987,1812,792,27.0642,-3.2965
595,232,27.1663,3.32318,0.0115228,0.00260116,-0.00190794,0.0119137,0.00221026,-0.202082,0.00731783,0.0366844,1819,792,27.1663,-3.32316
602,232,27.2019,3.20282,0.0108432,0.00280867,4.09679e-05,0.0108434,0.00280846,0.0050988,0.00649834,0.0358728,1826,792,27.2019,-3.20282
609,232,27.2836,3.12946,0.00946687,0.00265046,0.00129809,0.0097057,0.00241163,0.181955,0.00583514,0.0400672,1833,792,27.2836,-3.12943
616,232,27.4288,3.14081,0.00770469,0.00233072,0.00194904,0.00833714,0.00169827,0.313774,0.00508739,0.0439452,1840,792,27.4288,-3.14082
623,232,27.2197,3.42426,0.00616663,0.00190308,0.00231779,0.00718392,0.00088579,0.41359,0.00452302,0.0447837,1847,792,27.2198,-3.42423
630,232,27.2593,3.56146,0.00481611,0.00135,0.00240725,0.00604925,0.000116857,0.473409,0.00399445,0.0467453,1854,792,27.2593,-3.56147
637,232,27.2979,3.69904,0,0,0,0,0,0,0,-1,1861,792,27.2978,-3.69903
644,232,19.702,1.69574,0,0,0,0,0,0,0,-1,1868,792,19.702,-1.69577
651,232,19.9037,1.28345,0,0,0,0,0,0,0,-1,1875,792,19.9037,-1.28343
658,232,19.8555,1.44849,0.000476314,0.000410203,0.00129946,0.00174314,-0.000856619,0.772682,0.00152978,0.0286781,1882,792,19.8555,-1.44847
665,232,19.8071,1.66833,-2.2932e-05,-0.000140584,0.000739133,0.000659712,-0.000823228,0.745688,0.000857909,0.0128549,1889,792,19.8071,-1.66835
672,232,19.7887,1.96637,-0.000157743,-0.00020256,0.000201085,2.21783e-05,-0.000382481,0.729909,0.000262693,0.0184282,1896,792,19.7887,-1.96635
679,232,19.8207,2.29517,-3.70137e-05,-0.000349651,-0.000166194,3.48252e-05,-0.00042149,-0.408004,0.000293292,0.0201614,1903,792,19.8207,-2.29516
686,232,19.8315,2.62335,0.000296719,-0.000300429,-0.000199878,0.000357447,-0.000361156,-0.29496,0.000414888,0.0192118,1910,792,19.8315,-2.62338
693,232,19.8092,2.89252,0.00118468,0.000249855,-5.21836e-05,0.00118758,0.000246951,-0.0555916,0.000723591,0.0108062,1917,792,19.8092,-2.89254
700,232,19.8145,3.17908,0.00305493,0.000714062,0.000452359,0.00313931,0.000629687,0.184402,0.00191775,0.0124298,1924,792,19.8145,-3.17909
707,232,19.8081,3.48096,0.00618876,0.00115143,0.00150197,0.0066026,0.00073759,0.26886,0.00417763,0.0124972,1931,792,19.8081,-3.48093
714,232,19.8031,3.76489,0.010042,0.00154108,0.00267515,0.0108138,0.000769308,0.280871,0.00696694,0.0135428,1938,792,19.8031,-3.76492
721,232,19.7738,4.04407,0.015455,0.00152378,0.0040386,0.0165411,0.000437686,0.262713,0.0108845,0.0205805,1945,792,19.7738,-4.04407
728,232,19.7638,4.31842,0.0232449,0.00113252,0.00585118,0.0246978,-0.00032031,0.243375,0.016573,0.0364801,1952,792,19.7638,-4.31842
735,232,19.9,4.6676,0,0,0,0,0,0,0,-1,1959,792,19.9,-4.66762
742,232,19.0656,4.9986,0,0,0,0,0,0,0,-1,1966,792,19.0655,-4.99857
749,232,21.8735,1.04327,0,0,0,0,0,0,0,-1,1973,792,21.8735,-1.04329
756,232,22.5247,2.21851,0,0,0,0,0,0,0,-1,1980,792,22.5247,-2.21852
763,232,22.8801,3.64465,0,0,0,0,0,0,0,-1,1987,792,22.8801,-3.64465
770,232,0,0,0,0,0,0,0,0,0,-1,1994,792,0,0
777,232,0,0,0,0,0,0,0,0,0,-1,2001,792,0,0
784,232,0,0,0,0,0,0,0,0,0,-1,2008,792,0,0
791,232,0,0,0,0,0,0,0,0,0,-1,2015,792,0,0
798,232,0,0,0,0,0,0,0,0,0,-1,2022,792,0,0
805,232,0,0,0,0,0,0,0,0,0,-1,2029,792,0,0
812,232,0,0,0,0,0,0,0,0,0,-1,2036,792,0,0
-700,225,0,0,0,0,0,0,0,0,0,-1,524,799,0,0
-693,225,0,0,0,0,0,0,0,0,0,-1,531,799,0,0
-686,225,0,0,0,0,0,0,0,0,0,-1,538,799,0,0
-679,225,0,0,0,0,0,0,0,0,0,-1,545,799,0,0
-672,225,0,0,0,0,0,0,0,0,0,-1,552,799,0,0
-665,225,0,0,0,0,0,0,0,0,0,-1,559,799,0,0
-658,225,0,0,0,0,0,0,0,0,0,-1,566,799,0,0
-651,225,0,0,0,0,0,0,0,0,0,-1,573,799,0,0
-644,225,-14.5764,0.239258,0,0,0,0,0,0,0,-1,580,799,-14.5763,-0.239238
-637,225,-13.2621,3.50519,0,0,0,0,0,0,0,-1,587,799,-13.2622,-3.50517
-630,225,-12.514,2.92529,0,0,0,0,0,0,0,-1,594,799,-12.514,-2.92531
-623,225,-11.4196,-0.0824585,0,0,0,0,0,0,0,-1,601,799,-11.4196,0.0824783
-616,225,-12.0232,3.35443,0,0,0,0,0,0,0,-1,608,799,-12.0232,-3.35441
-609,225,-13.3616,2.37927,0,0,0,0,0,0,0,-1,615,799,-13.3616,-2.37929
-602,225,-13.3264,2.13824,0.0132281,0.00312061,-0.00669335,0.0165613,-0.000212608,-0.462038,0.0111124,0.0467818,622,799,-13.3264,-2.13825
-595,225,-13.0489,1.94104,0.00989502,0.00293506,-0.00481058,0.0123524,0.000477709,-0.472269,0.00808039,0.030345,629,799,-13.0489,-1.94103
-588,225,-12.9526,1.64398,0.00697242,0.00267908,-0.00337285,0.00882379,0.000827713,-0.502001,0.00562695,0.012882,636,799,-12.9526,-1.644
-581,225,-12.9249,1.36505,0.0040447,0.00122463,-0.00238868,0.00540847,-0.000139145,-0.51877,0.00365291,0.0103003,643,799,-12.9249,-1.36503
-574,225,-12.9326,1.08142,0.00211323,0.000381333,-0.00109189,0.00264087,-0.000146306,-0.450146,0.00181132,0.00803292,650,799,-12.9326,-1.08144
-567,225,-12.9587,0.799927,0.000855346,0.00022483,-0.000337224,0.00100172,7.84519e-05,-0.409525,0.000643262,0.0100042,657,799,-12.9587,-0.799915
-560,225,-12.9681,0.527893,-0.000578778,0.000340582,0.000179182,0.000374269,-0.000612466,1.38496,0.000575198,0.0109338,664,799,-12.9681,-0.527886
-553,225,-12.9654,0.244812,-0.00224109,0.00104138,0.000613097,0.00115215,-0.00235186,1.39204,0.00206219,0.0115625,671,799,-12.9654,-0.244802
-546,225,-12.981,-0.0352783,-0.00346002,0.0014138,0.000904761,0.00157634,-0.00362256,1.39305,0.0030781,0.0204521,678,799,-12.981,0.0352612
-539,225,-12.9224,-0.340942,-0.00403744,0.00196155,0.00100999,0.00212702,-0.00420292,1.4084,0.00371952,0.0263671,685,799,-12.9224,0.340956
-532,225,-12.9831,-0.584534,-0.00435696,0.00262035,0.0011347,0.00280024,-0.00453686,1.41357,0.00427544,0.0216826,692,799,-12.9831,0.584505
-525,225,-13.096,-0.798584,0,0,0,0,0,0,0,-1,699,799,-13.096,0.798579
-518,225,-13.4009,-0.805237,0,0,0,0,0,0,0,-1,706,799,-13.4009,0.805226
-511,225,-13.511,-1.61249,0,0,0,0,0,0,0,-1,713,799,-13.511,1.61247
-504,225,-14.1482,-2.19861,0,0,0,0,0,0,0,-1,720,799,-14.1482,2.19864
-497,225,-19.1052,1.01593,-0.000234198,0.00331966,0.00183355,0.00409603,-0.00101058,1.17026,0.00312254,0.046001,727,799,-19.1052,-1.01595
-490,225,-19.1915,1.26276,0.0023961,0.00264602,0.00195012,0.00447518,0.000566942,0.817394,0.00281358,0.0404714,734,799,-19.1915,-1.26274
-483,225,-19.0852,1.35547,0.00607054,0.001445,0.00194101,0.00677711,0.000738427,0.349112,0.00429315,0.0327041,741,799,-19.0852,-1.35546
-476,225,-18.9752,1.41394,0.0109323,-0.000373351,0.00168939,0.0111794,-0.000620397,0.145204,0.00766808,0.0297582,748,799,-18.9752,-1.41395
-469,225,-18.9001,1.39636,0.0170119,-0.00283483,0.000936561,0.017056,-0.00287893,0.0470503,0.0124418,0.0341137,755,799,-18.9001,-1.39635
-462,225,0,0,0,0,0,0,0,0,0,-1,762,799,0,0
-455,225,0,0,0,0,0,0,0,0,0,-1,769,799,0,0
-448,225,0,0,0,0,0,0,0,0,0,-1,776,799,0,0
-441,225,0,0,0,0,0,0,0,0,0,-1,783,799,0,0
-434,225,0,0,0,0,0,0,0,0,0,-1,790,799,0,0
-427,225,0,0,0,0,0,0,0,0,0,-1,797,799,0,0
-420,225,0,0,0,0,0,0,0,0,0,-1,804,799,0,0
-413,225,0,0,0,0,0,0,0,0,0,-1,811,799,0,0
-406,225,0,0,0,0,0,0,0,0,0,-1,818,799,0,0
-399,225,0,0,0,0,0,0,0,0,0,-1,825,799,0,0
-392,225,0,0,0,0,0,0,0,0,0,-1,832,799,0,0
-385,225,0,0,0,0,0,0,0,0,0,-1,839,799,0,0
-378,225,0,0,0,0,0,0,0,0,0,-1,846,799,0,0
-371,225,0,0,0,0,0,0,0,0,0,-1,853,799,0,0
-364,225,0,0,0,0,0,0,0,0,0,-1,860,799,0,0
-357,225,0,0,0,0,0,0,0,0,0,-1,867,799,0,0
-350,225,0,0,0,0,0,0,0,0,0,-1,874,799,0,0
-343,225,0,0,0,0,0,0,0,0,0,-1,881,799,0,0
-336,225,0,0,0,0,0,0,0,0,0,-1,888,799,0,0
-329,225,0,0,0,0,0,0,0,0,0,-1,895,799,0,0
-322,225,0,0,0,0,0,0,0,0,0,-1,902,799,0,0
-315,225,0,0,0,0,0,0,0,0,0,-1,909,799,0,0
-308,225,0,0,0,0,0,0,0,0,0,-1,916,799,0,0
-301,225,0,0,0,0,0,0,0,0,0,-1,923,799,0,0
-294,225,0,0,0,0,0,0,0,0,0,-1,930,799,0,0
-287,225,0,0,0,0,0,0,0,0,0,-1,937,799,0,0
-280,225,0,0,0,0,0,0,0,0,0,-1,944,799,0,0
-273,225,0,0,0,0,0,0,0,0,0,-1,951,799,0,0
-266,225,0,0,0,0,0,0,0,0,0,-1,958,799,0,0
-259,225,0,0,0,0,0,0,0,0,0,-1,965,799,0,0
-252,225,0,0,0,0,0,0,0,0,0,-1,972,799,0,0
-245,225,0,0,0,0,0,0,0,0,0,-1,979,799,0,0
-238,225,0,0,0,0,0,0,0,0,0,-1,986,799,0,0
-231,225,0,0,0,0,0,0,0,0,0,-1,993,799,0,0
-224,225,0,0,0,0,0,0,0,0,0,-1,1000,799,0,0
-217,225,0,0,0,0,0,0,0,0,0,-1,1007,799,0,0
-210,225,0,0,0,0,0,0,0,0,0,-1,1014,799,0,0
-203,225,0,0,0,0,0,0,0,0,0,-1,1021,799,0,0
-196,225,0,0,0,0,0,0,0,0,0,-1,1028,799,0,0
-189,225,0,0,0,0,0,0,0,0,0,-1,1035,799,0,0
-182,225,0,0,0,0,0,0,0,0,0,-1,1042,799,0,0
-175,225,0,0,0,0,0,0,0,0,0,-1,1049,799,0,0
-168,225,0,0,0,0,0,0,0,0,0,-1,1056,799,0,0
-161,225,0,0,0,0,0,0,0,0,0,-1,1063,799,0,0
-154,225,0,0,0,0,0,0,0,0,0,-1,1070,799,0,0
-147,225,0,0,0,0,0,0,0,0,0,-1,1077,799,0,0
-140,225,0,0,0,0,0,0,0,0,0,-1,1084,799,0,0
-133,225,0,0,0,0,0,0,0,0,0,-1,1091,799,0,0
-126,225,0,0,0,0,0,0,0,0,0,-1,1098,799,0,0
-119,225,0,0,0,0,0,0,0,0,0,-1,1105,799,0,0
-112,225,0,0,0,0,0,0,0,0,0,-1,1112,799,0,0
-105,225,0,0,0,0,0,0,0,0,0,-1,1119,799,0,0
-98,225,0,0,0,0,0,0,0,0,0,-1,1126,799,0,0
-91,225,0,0,0,0,0,0,0,0,0,-1,1133,799,0,0
-84,225,0,0,0,0,0,0,0,0,0,-1,1140,799,0,0
-77,225,0,0,0,0,0,0,0,0,0,-1,1147,799,0,0
-70,225,0,0,0,0,0,0,0,0,0,-1,1154,799,0,0
-63,225,0,0,0,0,0,0,0,0,0,-1,1161,799,0,0
-56,225,0,0,0,0,0,0,0,0,0,-1,1168,799,0,0
-49,225,0,0,0,0,0,0,0,0,0,-1,1175,799,0,0
-42,225,0,0,0,0,0,0,0,0,0,-1,1182,799,0,0
-35,225,0,0,0,0,0,0,0,0,0,-1,1189,799,0,0
-28,225,0,0,0,0,0,0,0,0,0,-1,1196,799,0,0
-21,225,0,0,0,0,0,0,0,0,0,-1,1203,799,0,0
-14,225,0,0,0,0,0,0,0,0,0,-1,1210,799,0,0
-7,225,0,0,0,0,0,0,0,0,0,-1,1217,799,0,0
0,225,0,0,0,0,0,0,0,0,0,-1,1224,799,0,0
7,225,0,0,0,0,0,0,0,0,0,-1,1231,799,0,0
14,225,0,0,0,0,0,0,0,0,0,-1,1238,799,0,0
21,225,0,0,0,0,0,0,0,0,0,-1,1245,799,0,0
28,225,0,0,0,0,0,0,0,0,0,-1,1252,799,0,0
35,225,0,0,0,0,0,0,0,0,0,-1,1259,799,0,0
42,225,0,0,0,0,0,0,0,0,0,-1,1266,799,0,0
49,225,0,0,0,0,0,0,0,0,0,-1,1273,799,0,0
56,225,0,0,0,0,0,0,0,0,0,-1,1280,799,0,0
63,225,0,0,0,0,0,0,0,0,0,-1,1287,799,0,0
70,225,0,0,0,0,0,0,0,0,0,-1,1294,799,0,0
77,225,0,0,0,0,0,0,0,0,0,-1,1301,799,0,0
84,225,0,0,0,0,0,0,0,0,0,-1,1308,799,0,0
91,225,0,0,0,0,0,0,0,0,0,-1,1315,799,0,0
98,225,0,0,0,0,0,0,0,0,0,-1,1322,799,0,0
105,225,0,0,0,0,0,0,0,0,0,-1,1329,799,0,0
112,225,0,0,0,0,0,0,0,0,0,-1,1336,799,0,0
119,225,0,0,0,0,0,0,0,0,0,-1,1343,799,0,0
126,225,0,0,0,0,0,0,0,0,0,-1,1350,799,0,0
133,225,0,0,0,0,0,0,0,0,0,-1,1357,799,0,0
140,225,0,0,0,0,0,0,0,0,0,-1,1364,799,0,0
147,225,0,0,0,0,0,0,0,0,0,-1,1371,799,0,0
154,225,0,0,0,0,0,0,0,0,0,-1,1378,799,0,0
161,225,0,0,0,0,0,0,0,0,0,-1,1385,799,0,0
168,225,0,0,0,0,0,0,0,0,0,-1,1392,799,0,0
175,225,0,0,0,0,0,0,0,0,0,-1,1399,799,0,0
182,225,0,0,0,0,0,0,0,0,0,-1,1406,799,0,0
189,225,0,0,0,0,0,0,0,0,0,-1,1413,799,0,0
196,225,0,0,0,0,0,0,0,0,0,-1,1420,799,0,0
203,225,0,0,0,0,0,0,0,0,0,-1,1427,799,0,0
210,225,0,0,0,0,0,0,0,0,0,-1,1434,799,0,0
217,225,0,0,0,0,0,0,0,0,0,-1,1441,799,0,0
224,225,0,0,0,0,0,0,0,0,0,-1,1448,799,0,0
231,225,0,0,0,0,0,0,0,0,0,-1,1455,799,0,0
238,225,0,0,0,0,0,0,0,0,0,-1,1462,799,0,0
245,225,0,0,0,0,0,0,0,0,0,-1,1469,799,0,0
252,225,0,0,0,0,0,0,0,0,0,-1,1476,799,0,0
259,225,0,0,0,0,0,0,0,0,0,-1,1483,799,0,0
266,225,0,0,0,0,0,0,0,0,0,-1,1490,799,0,0
273,225,0,0,0,0,0,0,0,0,0,-1,1497,799,0,0
280,225,0,0,0,0,0,0,0,0,0,-1,1504,799,0,0
287,225,0,0,0,0,0,0,0,0,0,-1,1511,799,0,0
294,225,0,0,0,0,0,0,0,0,0,-1,1518,799,0,0
301,225,0,0,0,0,0,0,0,0,0,-1,1525,799,0,0
308,225,0,0,0,0,0,0,0,0,0,-1,1532,799,0,0
315,225,0,0,0,0,0,0,0,0,0,-1,1539,799,0,0
322,225,0,0,0,0,0,0,0,0,0,-1,1546,799,0,0
329,225,0,0,0,0,0,0,0,0,0,-1,1553,799,0,0
336,225,0,0,0,0,0,0,0,0,0,-1,1560,799,0,0
343,225,0,0,0,0,0,0,0,0,0,-1,1567,799,0,0
350,225,0,0,0,0,0,0,0,0,0,-1,1574,799,0,0
357,225,0,0,0,0,0,0,0,0,0,-1,1581,799,0,0
364,225,0,0,0,0,0,0,0,0,0,-1,1588,799,0,0
371,225,0,0,0,0,0,0,0,0,0,-1,1595,799,0,0
378,225,0,0,0,0,0,0,0,0,0,-1,1602,799,0,0
385,225,0,0,0,0,0,0,0,0,0,-1,1609,799,0,0
392,225,0,0,0,0,0,0,0,0,0,-1,1616,799,0,0
399,225,0,0,0,0,0,0,0,0,0,-1,1623,799,0,0
406,225,0,0,0,0,0,0,0,0,0,-1,1630,799,0,0
413,225,0,0,0,0,0,0,0,0,0,-1,1637,799,0,0
420,225,0,0,0,0,0,0,0,0,0,-1,1644,799,0,0
427,225,0,0,0,0,0,0,0,0,0,-1,1651,799,0,0
434,225,0,0,0,0,0,0,0,0,0,-1,1658,799,0,0
441,225,0,0,0,0,0,0,0,0,0,-1,1665,799,0,0
448,225,0,0,0,0,0,0,0,0,0,-1,1672,799,0,0
455,225,0,0,0,0,0,0,0,0,0,-1,1679,799,0,0
462,225,0,0,0,0,0,0,0,0,0,-1,1686,799,0,0
469,225,0,0,0,0,0,0,0,0,0,-1,1693,799,0,0
476,225,0,0,0,0,0,0,0,0,0,-1,1700,799,0,0
483,225,0,0,0,0,0,0,0,0,0,-1,1707,799,0,0
490,225,0,0,0,0,0,0,0,0,0,-1,1714,799,0,0
497,225,0,0,0,0,0,0,0,0,0,-1,1721,799,0,0
504,225,0,0,0,0,0,0,0,0,0,-1,1728,799,0,0
511,225,0,0,0,0,0,0,0,0,0,-1,1735,799,0,0
518,225,0,0,0,0,0,0,0,0,0,-1,1742,799,0,0
525,225,0,0,0,0,0,0,0,0,0,-1,1749,799,0,0
532,225,0,0,0,0,0,0,0,0,0,-1,1756,799,0,0
539,225,0,0,0,0,0,0,0,0,0,-1,1763,799,0,0
546,225,0,0,0,0,0,0,0,0,0,-1,1770,799,0,0
553,225,0,0,0,0,0,0,0,0,0,-1,1777,799,0,0
560,225,0,0,0,0,0,0,0,0,0,-1,1784,799,0,0
567,225,0,0,0,0,0,0,0,0,0,-1,1791,799,0,0
574,225,0,0,0,0,0,0,0,0,0,-1,1798,799,0,0
581,225,0,0,0,0,0,0,0,0,0,-1,1805,799,0,0
588,225,27.0201,3.48767,0.00836707,0.000500052,-0.00528618,0.0110227,-0.00215553,-0.465537,0.00816238,0.0367742,1812,799,27.0202,-3.48767
595,225,27.0729,3.28497,0.00918207,0.0012123,-0.00295947,0.0101608,0.000233537,-0.319398,0.0066974,0.033964,1819,799,27.0729,-3.28497
602,225,27.1388,3.13605,0.00885637,0.00219531,-0.000599487,0.00890989,0.00214179,-0.0890453,0.0053703,0.0340145,1826,799,27.1388,-3.13604
609,225,27.1757,3.18964,0.00794823,0.0026645,0.00112027,0.00817594,0.00243679,0.20053,0.00484703,0.0329067,1833,799,27.1757,-3.18961
616,225,27.1974,3.17822,0.00652547,0.00263244,0.00200078,0.00737038,0.00178754,0.399573,0.00443936,0.0366023,1840,799,27.1974,-3.17824
623,225,27.2273,3.31665,0.00518737,0.00237301,0.0024391,0.0065961,0.000964281,0.523758,0.00411382,0.0383516,1847,799,27.2273,-3.31663
630,225,27.3129,3.39166,0.00403382,0.00190337,0.00246403,0.00565302,0.00028417,0.581374,0.00367762,0.0422004,1854,799,27.3129,-3.39169
637,225,27.4025,3.48291,0.00296117,0.00154748,0.00225939,0.0046217,-0.000113053,0.633797,0.0031195,0.0436528,1861,799,27.4025,-3.48293
644,225,27.4729,3.56763,0,0,0,0,0,0,0,-1,1868,799,27.4729,-3.56764
651,225,20.2,1.74951,0,0,0,0,0,0,0,-1,1875,799,20.2,-1.74949
658,225,20.3688,1.77869,0.000298237,0.000588337,0.00127319,0.00172471,-0.000838135,0.842117,0.00150888,0.0395058,1882,799,20.3688,-1.77869
665,225,20.1422,1.6889,-0.000186466,7.7176e-05,0.000759928,0.000716632,-0.000825921,0.871276,0.000891338,0.0153795,1889,799,20.1422,-1.68891
672,225,20.1053,2.02057,-0.000356947,-0.000102971,0.000244835,4.58493e-05,-0.000505768,1.02463,0.000353454,0.0171846,1896,799,20.1053,-2.02059
679,225,20.1241,2.31628,-0.000311533,-0.000391467,-0.000154243,-0.000192164,-0.000510837,-0.658627,0.000297931,0.0182829,1903,799,20.1242,-2.31626
686,225,20.1321,2.60834,-3.54268e-05,-0.000527648,-0.000319478,0.000121745,-0.00068482,-0.457198,0.000502073,0.0114314,1910,799,20.1321,-2.60832
693,225,20.0956,2.8905,0.000854272,-0.00012691,-0.000329117,0.000954441,-0.000227079,-0.295449,0.000723957,0.0103265,1917,799,20.0955,-2.89049
700,225,20.1011,3.18164,0.00280322,0.000180671,2.7851e-05,0.00280351,0.000180375,0.0106182,0.00181188,0.0114754,1924,799,20.1011,-3.18162
707,225,20.0947,3.49115,0.00606578,0.000570503,0.000960484,0.00622882,0.000407464,0.168144,0.00402361,0.011819,1931,799,20.0947,-3.49118
714,225,20.0944,3.78369,0.0100588,0.00090509,0.00203304,0.01049,0.000473867,0.20901,0.00684085,0.012743,1938,799,20.0944,-3.78366
721,225,20.0981,4.06543,0.0155851,0.000644133,0.00318555,0.016236,-6.7018e-06,0.201535,0.0108262,0.0139914,1945,799,20.0981,-4.06544
728,225,20.0616,4.25684,0.0232121,-0.000247742,0.00455816,0.0240666,-0.00110225,0.185317,0.0164242,0.0241355,1952,799,20.0617,-4.25682
735,225,20.3562,4.55212,0.0338571,-0.00201168,0.00636885,0.0349544,-0.00310897,0.170614,0.0244053,0.0489657,1959,799,20.3562,-4.55211
742,225,20.1881,5.2782,0,0,0,0,0,0,0,-1,1966,799,20.1881,-5.27818
749,225,19.3298,4.87958,0,0,0,0,0,0,0,-1,1973,799,19.3298,-4.87956
756,225,21.9852,2.52942,0,0,0,0,0,0,0,-1,1980,799,21.9853,-2.52944
763,225,22.6511,3.70258,0,0,0,0,0,0,0,-1,1987,799,22.6511,-3.70258
770,225,0,0,0,0,0,0,0,0,0,-1,1994,799,0,0
777,225,0,0,0,0,0,0,0,0,0,-1,2001,799,0,0
784,225,0,0,0,0,0,0,0,0,0,-1,2008,799,0,0
791,225,0,0,0,0,0,0,0,0,0,-1,2015,799,0,0
798,225,0,0,0,0,0,0,0,0,0,-1,2022,799,0,0
805,225,0,0,0,0,0,0,0,0,0,-1,2029,799,0,0
812,225,0,0,0,0,0,0,0,0,0,-1,2036,799,0,0
-700,218,0,0,0,0,0,0,0,0,0,-1,524,806,0,0
-693,218,0,0,0,0,0,0,0,0,0,-1,531,806,0,0
-686,218,0,0,0,0,0,0,0,0,0,-1,538,806,0,0
-679,218,0,0,0,0,0,0,0,0,0,-1,545,806,0,0
-672,218,0,0,0,0,0,0,0,0,0,-1,552,806,0,0
-665,218,0,0,0,0,0,0,0,0,0,-1,559,806,0,0
-658,218,0,0,0,0,0,0,0,0,0,-1,566,806,0,0
-651,218,-15.491,0.611572,0,0,0,0,0,0,0,-1,573,806,-15.4911,-0.611563
-644,218,-15.3907,0.602234,0.0350262,0.00411451,-0.0110926,0.0385948,0.0005459,-0.311253,0.0255498,0.0441929,580,806,-15.3907,-0.602208
-637,218,-15.0925,0.479858,0.0308566,0.00331365,-0.010033,0.0341237,4.65121e-05,-0.31481,0.0227337,0.0468981,587,806,-15.0925,-0.47983
-630,218,-14.8153,0.351135,0,0,0,0,0,0,0,-1,594,806,-14.8153,-0.351156
-623,218,-13.6068,4.34662,0,0,0,0,0,0,0,-1,601,806,-13.6068,-4.34659
-616,218,-13.6738,2.45477,0,0,0,0,0,0,0,-1,608,806,-13.6738,-2.45475
-609,218,-13.2588,2.23547,0,0,0,0,0,0,0,-1,615,806,-13.2588,-2.2355
-602,218,-13.2477,2.03394,0.0107899,0.00117621,-0.0042584,0.0124049,-0.000438764,-0.362486,0.00841997,0.0368043,622,806,-13.2478,-2.03392
-595,218,-13.2567,1.8974,0.00804028,0.00147141,-0.00302449,0.00922071,0.000290977,-0.37211,0.00605248,0.0175835,629,806,-13.2566,-1.89739
-588,218,-13.2223,1.6582,0.00558905,0.00170812,-0.00201349,0.00644493,0.000852237,-0.401933,0.0040426,0.0118428,636,806,-13.2223,-1.65819
-581,218,-13.2174,1.37842,0.00313129,0.000779978,-0.0013918,0.00377752,0.000133747,-0.434693,0.00247497,0.0106403,643,806,-13.2174,-1.37841
-574,218,-13.2283,1.09167,0.00155799,0.000219707,-0.000462878,0.00170249,7.52113e-05,-0.302583,0.00111077,0.0098003,650,806,-13.2283,-1.09165
-567,218,-13.2262,0.796143,0.000462403,0.000224452,5.14371e-05,0.000473046,0.000213809,0.204033,0.000273532,0.0163896,657,806,-13.2262,-0.796144
-560,218,-13.2391,0.526062,-0.000856817,0.000512519,0.000331498,0.000588549,-0.000932847,1.34534,0.000885844,0.0164549,664,806,-13.2391,-0.526093
-553,218,-13.234,0.248047,-0.00239386,0.00131788,0.000541579,0.00139529,-0.00247127,1.42883,0.00226098,0.0175679,671,806,-13.234,-0.248049
-546,218,-13.2385,-0.0507813,-0.00344503,0.00176642,0.00069314,0.00185703,-0.00353565,1.4408,0.00316335,0.0151652,678,806,-13.2385,0.0508102
-539,218,-13.2456,-0.352234,-0.00387982,0.00236206,0.000704382,0.00244056,-0.00395832,1.45981,0.00372888,0.0226428,685,806,-13.2456,0.352238
-532,218,-13.3398,-0.511353,-0.00412313,0.00309236,0.000740242,0.00316751,-0.00419829,1.46961,0.00426651,0.0272394,692,806,-13.3398,0.511342
-525,218,-13.5802,-0.624573,0,0,0,0,0,0,0,-1,699,806,-13.5802,0.624557
-518,218,-13.5487,-1.2641,0,0,0,0,0,0,0,-1,706,806,-13.5487,1.26412
-511,218,-19.1194,1.38422,0,0,0,0,0,0,0,-1,713,806,-19.1194,-1.38424
-504,218,-19.1274,1.12476,0,0,0,0,0,0,0,-1,720,806,-19.1274,-1.12477
-497,218,-19.0494,1.23633,0.000736366,0.00393027,0.00076427,0.00410374,0.000562905,1.34761,0.00256883,0.0473929,727,806,-19.0494,-1.23634
-490,218,-19.0388,1.32452,0.00393015,0.00311131,0.000661599,0.00429877,0.0027427,0.508322,0.00251322,0.035596,734,806,-19.0388,-1.32454
-483,218,-19.0693,1.34558,0.00845217,0.00160392,0.000371799,0.00847229,0.00158379,0.0540793,0.00520127,0.0306069,741,806,-19.0693,-1.34557
-476,218,-18.9326,1.3985,0.0143279,-0.000654354,-0.000164935,0.0143297,-0.000656169,-0.0110069,0.00977922,0.0327523,748,806,-18.9325,-1.39847
-469,218,0,0,0,0,0,0,0,0,0,-1,755,806,0,0
-462,218,0,0,0,0,0,0,0,0,0,-1,762,806,0,0
-455,218,0,0,0,0,0,0,0,0,0,-1,769,806,0,0
-448,218,0,0,0,0,0,0,0,0,0,-1,776,806,0,0
-441,218,0,0,0,0,0,0,0,0,0,-1,783,806,0,0
-434,218,0,0,0,0,0,0,0,0,0,-1,790,806,0,0
-427,218,0,0,0,0,0,0,0,0,0,-1,797,806,0,0
-420,218,0,0,0,0,0,0,0,0,0,-1,804,806,0,0
-413,218,0,0,0,0,0,0,0,0,0,-1,811,806,0,0
-406,218,0,0,0,0,0,0,0,0,0,-1,818,806,0,0
-399,218,0,0,0,0,0,0,0,0,0,-1,825,806,0,0
-392,218,0,0,0,0,0,0,0,0,0,-1,832,806,0,0
-385,218,0,0,0,0,0,0,0,0,0,-1,839,806,0,0
-378,218,0,0,0,0,0,0,0,0,0,-1,846,806,0,0
-371,218,0,0,0,0,0,0,0,0,0,-1,853,806,0,0
-364,218,0,0,0,0,0,0,0,0,0,-1,860,806,0,0
-357,218,0,0,0,0,0,0,0,0,0,-1,867,806,0,0
-350,218,0,0,0,0,0,0,0,0,0,-1,874,806,0,0
-343,218,0,0,0,0,0,0,0,0,0,-1,881,806,0,0
-336,218,0,0,0,0,0,0,0,0,0,-1,888,806,0,0
-329,218,0,0,0,0,0,0,0,0,0,-1,895,806,0,0
-322,218,0,0,0,0,0,0,0,0,0,-1,902,806,0,0
-315,218,0,0,0,0,0,0,0,0,0,-1,909,806,0,0
-308,218,0,0,0,0,0,0,0,0,0,-1,916,806,0,0
-301,218,0,0,0,0,0,0,0,0,0,-1,923,806,0,0
-294,218,0,0,0,0,0,0,0,0,0,-1,930,806,0,0
-287,218,0,0,0,0,0,0,0,0,0,-1,937,806,0,0
-280,218,0,0,0,0,0,0,0,0,0,-1,944,806,0,0
-273,218,0,0,0,0,0,0,0,0,0,-1,951,806,0,0
-266,218,0,0,0,0,0,0,0,0,0,-1,958,806,0,0
-259,218,0,0,0,0,0,0,0,0,0,-1,965,806,0,0
-252,218,0,0,0,0,0,0,0,0,0,-1,972,806,0,0
-245,218,0,0,0,0,0,0,0,0,0,-1,979,806,0,0
-238,218,0,0,0,0,0,0,0,0,0,-1,986,806,0,0
-231,218,0,0,0,0,0,0,0,0,0,-1,993,806,0,0
-224,218,0,0,0,0,0,0,0,0,0,-1,1000,806,0,0
-217,218,0,0,0,0,0,0,0,0,0,-1,1007,806,0,0
-210,218,0,0,0,0,0,0,0,0,0,-1,1014,806,0,0
-203,218,0,0,0,0,0,0,0,0,0,-1,1021,806,0,0
-196,218,0,0,0,0,0,0,0,0,0,-1,1028,806,0,0
-189,218,0,0,0,0,0,0,0,0,0,-1,1035,806,0,0
-182,218,0,0,0,0,0,0,0,0,0,-1,1042,806,0,0
-175,218,0,0,0,0,0,0,0,0,0,-1,1049,806,0,0
-168,218,0,0,0,0,0,0,0,0,0,-1,1056,806,0,0
-161,218,0,0,0,0,0,0,0,0,0,-1,1063,806,0,0
-154,218,0,0,0,0,0,0,0,0,0,-1,1070,806,0,0
-147,218,0,0,0,0,0,0,0,0,0,-1,1077,806,0,0
-140,218,0,0,0,0,0,0,0,0,0,-1,1084,806,0,0
-133,218,0,0,0,0,0,0,0,0,0,-1,1091,806,0,0
-126,218,0,0,0,0,0,0,0,0,0,-1,1098,806,0,0
-119,218,0,0,0,0,0,0,0,0,0,-1,1105,806,0,0
-112,218,0,0,0,0,0,0,0,0,0,-1,1112,806,0,0
-105,218,0,0,0,0,0,0,0,0,0,-1,1119,806,0,0
-98,218,0,0,0,0,0,0,0,0,0,-1,1126,806,0,0
-91,218,0,0,0,0,0,0,0,0,0,-1,1133,806,0,0
-84,218,0,0,0,0,0,0,0,0,0,-1,1140,806,0,0
-77,218,0,0,0,0,0,0,0,0,0,-1,1147,806,0,0
-70,218,0,0,0,0,0,0,0,0,0,-1,1154,806,0,0
-63,218,0,0,0,0,0,0,0,0,0,-1,1161,806,0,0
-56,218,0,0,0,0,0,0,0,0,0,-1,1168,806,0,0
-49,218,0,0,0,0,0,0,0,0,0,-1,1175,806,0,0
-42,218,0,0,0,0,0,0,0,0,0,-1,1182,806,0,0
-35,218,0,0,0,0,0,0,0,0,0,-1,1189,806,0,0
-28,218,0,0,0,0,0,0,0,0,0,-1,1196,806,0,0
-21,218,0,0,0,0,0,0,0,0,0,-1,1203,806,0,0
-14,218,0,0,0,0,0,0,0,0,0,-1,1210,806,0,0
-7,218,0,0,0,0,0,0,0,0,0,-1,1217,806,0,0
0,218,0,0,0,0,0,0,0,0,0,-1,1224,806,0,0
7,218,0,0,0,0,0,0,0,0,0,-1,1231,806,0,0
14,218,0,0,0,0,0,0,0,0,0,-1,1238,806,0,0
21,218,0,0,0,0,0,0,0,0,0,-1,1245,806,0,0
28,218,0,0,0,0,0,0,0,0,0,-1,1252,806,0,0
35,218,0,0,0,0,0,0,0,0,0,-1,1259,806,0,0
42,218,0,0,0,0,0,0,0,0,0,-1,1266,806,0,0
49,218,0,0,0,0,0,0,0,0,0,-1,1273,806,0,0
56,218,0,0,0,0,0,0,0,0,0,-1,1280,806,0,0
63,218,0,0,0,0,0,0,0,0,0,-1,1287,806,0,0
70,218,0,0,0,0,0,0,0,0,0,-1,1294,806,0,0
77,218,0,0,0,0,0,0,0,0,0,-1,1301,806,0,0
84,218,0,0,0,0,0,0,0,0,0,-1,1308,806,0,0
91,218,0,0,0,0,0,0,0,0,0,-1,1315,806,0,0
98,218,0,0,0,0,0,0,0,0,0,-1,1322,806,0,0
105,218,0,0,0,0,0,0,0,0,0,-1,1329,806,0,0
112,218,0,0,0,0,0,0,0,0,0,-1,1336,806,0,0
119,218,0,0,0,0,0,0,0,0,0,-1,1343,806,0,0
126,218,0,0,0,0,0,0,0,0,0,-1,1350,806,0,0
133,218,0,0,0,0,0,0,0,0,0,-1,1357,806,0,0
140,218,0,0,0,0,0,0,0,0,0,-1,1364,806,0,0
147,218,0,0,0,0,0,0,0,0,0,-1,1371,806,0,0
154,218,0,0,0,0,0,0,0,0,0,-1,1378,806,0,0
161,218,0,0,0,0,0,0,0,0,0,-1,1385,806,0,0
168,218,0,0,0,0,0,0,0,0,0,-1,1392,806,0,0
175,218,0,0,0,0,0,0,0,0,0,-1,1399,806,0,0
182,218,0,0,0,0,0,0,0,0,0,-1,1406,806,0,0
189,218,0,0,0,0,0,0,0,0,0,-1,1413,806,0,0
196,218,0,0,0,0,0,0,0,0,0,-1,1420,806,0,0
203,218,0,0,0,0,0,0,0,0,0,-1,1427,806,0,0
210,218,0,0,0,0,0,0,0,0,0,-1,1434,806,0,0
217,218,0,0,0,0,0,0,0,0,0,-1,1441,806,0,0
224,218,0,0,0,0,0,0,0,0,0,-1,1448,806,0,0
231,218,0,0,0,0,0,0,0,0,0,-1,1455,806,0,0
238,218,0,0,0,0,0,0,0,0,0,-1,1462,806,0,0
245,218,0,0,0,0,0,0,0,0,0,-1,1469,806,0,0
252,218,0,0,0,0,0,0,0,0,0,-1,1476,806,0,0
259,218,0,0,0,0,0,0,0,0,0,-1,1483,806,0,0
266,218,0,0,0,0,0,0,0,0,0,-1,1490,806,0,0
273,218,0,0,0,0,0,0,0,0,0,-1,1497,806,0,0
280,218,0,0,0,0,0,0,0,0,0,-1,1504,806,0,0
287,218,0,0,0,0,0,0,0,0,0,-1,1511,806,0,0
294,218,0,0,0,0,0,0,0,0,0,-1,1518,806,0,0
301,218,0,0,0,0,0,0,0,0,0,-1,1525,806,0,0
308,218,0,0,0,0,0,0,0,0,0,-1,1532,806,0,0
315,218,0,0,0,0,0,0,0,0,0,-1,1539,806,0,0
322,218,0,0,0,0,0,0,0,0,0,-1,1546,806,0,0
329,218,0,0,0,0,0,0,0,0,0,-1,1553,806,0,0
336,218,0,0,0,0,0,0,0,0,0,-1,1560,806,0,0
343,218,0,0,0,0,0,0,0,0,0,-1,1567,806,0,0
350,218,0,0,0,0,0,0,0,0,0,-1,1574,806,0,0
357,218,0,0,0,0,0,0,0,0,0,-1,1581,806,0,0
364,218,0,0,0,0,0,0,0,0,0,-1,1588,806,0,0
371,218,0,0,0,0,0,0,0,0,0,-1,1595,806,0,0
378,218,0,0,0,0,0,0,0,0,0,-1,1602,806,0,0
385,218,0,0,0,0,0,0,0,0,0,-1,1609,806,0,0
392,218,0,0,0,0,0,0,0,0,0,-1,1616,806,0,0
399,218,0,0,0,0,0,0,0,0,0,-1,1623,806,0,0
406,218,0,0,0,0,0,0,0,0,0,-1,1630,806,0,0
413,218,0,0,0,0,0,0,0,0,0,-1,1637,806,0,0
420,218,0,0,0,0,0,0,0,0,0,-1,1644,806,0,0
427,218,0,0,0,0,0,0,0,0,0,-1,1651,806,0,0
434,218,0,0,0,0,0,0,0,0,0,-1,1658,806,0,0
441,218,0,0,0,0,0,0,0,0,0,-1,1665,806,0,0
448,218,0,0,0,0,0,0,0,0,0,-1,1672,806,0,0
455,218,0,0,0,0,0,0,0,0,0,-1,1679,806,0,0
462,218,0,0,0,0,0,0,0,0,0,-1,1686,806,0,0
469,218,0,0,0,0,0,0,0,0,0,-1,1693,806,0,0
476,218,0,0,0,0,0,0,0,0,0,-1,1700,806,0,0
483,218,0,0,0,0,0,0,0,0,0,-1,1707,806,0,0
490,218,0,0,0,0,0,0,0,0,0,-1,1714,806,0,0
497,218,0,0,0,0,0,0,0,0,0,-1,1721,806,0,0
504,218,0,0,0,0,0,0,0,0,0,-1,1728,806,0,0
511,218,0,0,0,0,0,0,0,0,0,-1,1735,806,0,0
518,218,0,0,0,0,0,0,0,0,0,-1,1742,806,0,0
525,218,0,0,0,0,0,0,0,0,0,-1,1749,806,0,0
532,218,0,0,0,0,0,0,0,0,0,-1,1756,806,0,0
539,218,0,0,0,0,0,0,0,0,0,-1,1763,806,0,0
546,218,0,0,0,0,0,0,0,0,0,-1,1770,806,0,0
553,218,0,0,0,0,0,0,0,0,0,-1,1777,806,0,0
560,218,0,0,0,0,0,0,0,0,0,-1,1784,806,0,0
567,218,0,0,0,0,0,0,0,0,0,-1,1791,806,0,0
574,218,0,0,0,0,0,0,0,0,0,-1,1798,806,0,0
581,218,0,0,0,0,0,0,0,0,0,-1,1805,806,0,0
588,218,0,0,0,0,0,0,0,0,0,-1,1812,806,0,0
595,218,27.0938,3.19482,0.00801176,-0.000936596,-0.00454549,0.00991565,-0.00284049,-0.396652,0.00773316,0.0372503,1819,806,27.0938,-3.19482
602,218,27.1436,3.09271,0.00776171,0.000955573,-0.00172631,0.00817453,0.000542753,-0.234727,0.00527808,0.033945,1826,806,27.1436,-3.0927
609,218,27.12,3.16016,0.00711345,0.00231737,0.000617995,0.0071918,0.00223902,0.12611,0.00424958,0.0311523,1833,806,27.12,-3.16014
616,218,27.125,3.19098,0.00588609,0.00279035,0.00186845,0.00676454,0.00191191,0.439482,0.00402664,0.0330917,1840,806,27.125,-3.19096
623,218,27.1857,3.18555,0.00460233,0.00284912,0.00245556,0.00633306,0.00111839,0.613955,0.00390302,0.0363052,1847,806,27.1857,-3.18557
630,218,27.2709,3.28247,0.00347974,0.00250345,0.00251457,0.00555311,0.000430078,0.689527,0.00356737,0.0387398,1854,806,27.2709,-3.28246
637,218,27.3375,3.44446,0.00248539,0.00211231,0.00232364,0.00462997,-3.22668e-05,0.745345,0.00309746,0.0411662,1861,806,27.3375,-3.44448
644,218,27.3475,3.70868,0.00149481,0.00172766,0.00207061,0.00368512,-0.000462649,0.813483,0.00262459,0.0439235,1868,806,27.3475,-3.70869
651,218,27.4413,3.78339,0,0,0,0,0,0,0,-1,1875,806,27.4413,-3.78341
658,218,20.651,1.63184,0,0,0,0,0,0,0,-1,1882,806,20.651,-1.63181
665,218,20.5491,1.7749,-0.000267289,0.000410848,0.000812531,0.000952219,-0.000808661,0.983063,0.00101777,0.0358208,1889,806,20.5491,-1.77493
672,218,20.4388,2.00964,-0.000472613,0.000109682,0.000345584,0.000270414,-0.000633345,1.13545,0.000535626,0.0129182,1896,806,20.4389,-2.00966
679,218,20.4326,2.31818,-0.000477727,-0.000293204,-6.29507e-05,-0.000273774,-0.000497157,-1.27142,0.000287525,0.0115678,1903,806,20.4327,-2.31819
686,218,20.4324,2.5957,-0.000255873,-0.000603995,-0.00034693,-4.17879e-05,-0.00081808,-0.552887,0.000532005,0.011424,1910,806,20.4324,-2.59569
693,218,20.4114,2.88696,0.000587838,-0.000353211,-0.000495961,0.000800958,-0.000566332,-0.405855,0.00079327,0.0115544,1917,806,20.4114,-2.88695
700,218,20.4011,3.18372,0.00249268,-0.00019821,-0.0002735,0.0025202,-0.000225727,-0.100273,0.0017602,0.0097821,1924,806,20.4012,-3.18374
707,218,20.3807,3.48328,0.00567135,0.000130633,0.000553286,0.00572606,7.59235e-05,0.0985615,0.00379232,0.00788603,1931,806,20.3807,-3.48325
714,218,20.3824,3.77728,0.00961187,0.000403824,0.00154241,0.00986337,0.000152328,0.161631,0.00652539,0.00968144,1938,806,20.3824,-3.7773
721,218,20.421,4.06079,0.0151075,-0.000106133,0.00254404,0.0155216,-0.000520276,0.161374,0.0105255,0.0127806,1945,806,20.4211,-4.0608
728,218,20.4269,4.35199,0.0224424,-0.00147274,0.00362158,0.0229788,-0.00200914,0.147044,0.0160309,0.0190852,1952,806,20.4268,-4.35198
735,218,20.415,4.66748,0.0323193,-0.00387758,0.00493252,0.0329794,-0.00453769,0.133038,0.0236445,0.0344891,1959,806,20.415,-4.66751
742,218,20.5869,5.03101,0.0455645,-0.0078355,0.00653455,0.0463525,-0.00862351,0.120011,0.0341411,0.0497708,1966,806,20.587,-5.03102
749,218,20.709,5.21362,0,0,0,0,0,0,0,-1,1973,806,20.709,-5.21364
756,218,22.7239,4.44958,0,0,0,0,0,0,0,-1,1980,806,22.7239,-4.44958
763,218,22.6211,3.88098,0,0,0,0,0,0,0,-1,1987,806,22.6211,-3.88099
770,218,0,0,0,0,0,0,0,0,0,-1,1994,806,0,0
777,218,0,0,0,0,0,0,0,0,0,-1,2001,806,0,0
784,218,0,0,0,0,0,0,0,0,0,-1,2008,806,0,0
791,218,0,0,0,0,0,0,0,0,0,-1,2015,806,0,0
798,218,0,0,0,0,0,0,0,0,0,-1,2022,806,0,0
805,218,0,0,0,0,0,0,0,0,0,-1,2029,806,0,0
812,218,0,0,0,0,0,0,0,0,0,-1,2036,806,0,0
-700,211,0,0,0,0,0,0,0,0,0,-1,524,813,0,0
-693,211,0,0,0,0,0,0,0,0,0,-1,531,813,0,0
-686,211,0,0,0,0,0,0,0,0,0,-1,538,813,0,0
-679,211,0,0,0,0,0,0,0,0,0,-1,545,813,0,0
-672,211,0,0,0,0,0,0,0,0,0,-1,552,813,0,0
-665,211,0,0,0,0,0,0,0,0,0,-1,559,813,0,0
-658,211,0,0,0,0,0,0,0,0,0,-1,566,813,0,0
-651,211,-15.9993,0.820618,0,0,0,0,0,0,0,-1,573,813,-15.9993,-0.820604
-644,211,-15.8925,0.584595,0.0255514,-0.00448228,-0.00566214,0.0265834,-0.00551428,-0.180284,0.0198178,0.0420946,580,813,-15.8925,-0.584597
-637,211,-15.792,0.382507,0.0233541,-0.00379039,-0.00541025,0.0243927,-0.00482898,-0.189661,0.0180876,0.0460891,587,813,-15.792,-0.382537
-630,211,-13.373,3.33014,0,0,0,0,0,0,0,-1,594,813,-13.3731,-3.33016
-623,211,-14.1273,3.89575,0,0,0,0,0,0,0,-1,601,813,-14.1273,-3.89577
-616,211,-13.5792,2.56537,0,0,0,0,0,0,0,-1,608,813,-13.5792,-2.56534
-609,211,-13.5099,2.31976,0.0115223,-0.00143337,-0.00314827,0.0122468,-0.00215789,-0.226195,0.0089708,0.0366561,615,813,-13.5099,-2.31977
-602,211,-13.4528,2.09668,0.00892218,-0.000745016,-0.002554,0.00955544,-0.00137828,-0.243048,0.00687592,0.0186134,622,813,-13.4527,-2.09667
-595,211,-13.4849,1.89203,0.00669251,3.83321e-05,-0.0017336,0.00711707,-0.000386232,-0.240175,0.00487856,0.0101619,629,813,-13.4849,-1.89203
-588,211,-13.4939,1.64551,0.00464929,0.000711342,-0.00100081,0.00488905,0.000471589,-0.235128,0.00311409,0.0108129,636,813,-13.4939,-1.64553
-581,211,-13.5087,1.37061,0.00260209,0.000291177,-0.000649047,0.0027719,0.000121363,-0.2559,0.00180884,0.0110824,643,813,-13.5087,-1.37059
-574,211,-13.5222,1.07922,0.00124324,2.66564e-05,-4.07848e-05,0.0012446,2.52907e-05,-0.033474,0.000821436,0.0126139,650,813,-13.5222,-1.0792
-567,211,-13.5156,0.817444,0.000236155,0.000197688,0.000269117,0.000486725,-5.28821e-05,0.749724,0.000343471,0.0191255,657,813,-13.5156,-0.817471
-560,211,-13.528,0.553101,-0.00097737,0.000607644,0.000334414,0.000675311,-0.00104504,1.37115,0.00100086,0.0205419,664,813,-13.528,-0.553103
-553,211,-13.5085,0.283691,-0.00236799,0.0013816,0.000335997,0.00141147,-0.00239786,1.48213,0.00222376,0.0188276,671,813,-13.5085,-0.283675
-546,211,-13.6011,0.10614,-0.00321267,0.00176664,0.00034956,0.00179106,-0.00323709,1.50105,0.00294275,0.0267777,678,813,-13.6011,-0.106169
-539,211,-13.5735,-0.217102,-0.00351514,0.0023152,0.000273594,0.00232801,-0.00352795,1.52401,0.00340452,0.0200901,685,813,-13.5735,0.217112
-532,211,-13.663,-0.381348,0,0,0,0,0,0,0,-1,692,813,-13.663,0.381333
-525,211,-14.3009,2.3233,0,0,0,0,0,0,0,-1,699,813,-14.3009,-2.3233
-518,211,-18.5098,1.95288,0,0,0,0,0,0,0,-1,706,813,-18.5098,-1.9529
-511,211,-18.9835,1.39758,0,0,0,0,0,0,0,-1,713,813,-18.9835,-1.39758
-504,211,-19.317,1.0415,0,0,0,0,0,0,0,-1,720,813,-19.317,-1.04151
-497,211,-19.2037,1.16357,0.00208978,0.00387784,-0.000629811,0.00407741,0.00189022,-1.26394,0.00235617,0.0457088,727,813,-19.2037,-1.16354
-490,211,-19.078,1.3457,0.00596246,0.00289197,-0.000974113,0.00624543,0.00260901,-0.282701,0.00362203,0.0344656,734,813,-19.078,-1.34569
-483,211,-19.0398,1.40094,0.0114389,0.000982211,-0.00150387,0.0116509,0.000770224,-0.140038,0.0075237,0.0315578,741,813,-19.0398,-1.40092
-476,211,-18.9734,1.41412,0.0183089,-0.00189033,-0.00209672,0.0185243,-0.00210568,-0.102348,0.0131079,0.0359368,748,813,-18.9734,-1.41415
-469,211,0,0,0,0,0,0,0,0,0,-1,755,813,0,0
-462,211,0,0,0,0,0,0,0,0,0,-1,762,813,0,0
-455,211,0,0,0,0,0,0,0,0,0,-1,769,813,0,0
-448,211,0,0,0,0,0,0,0,0,0,-1,776,813,0,0
-441,211,0,0,0,0,0,0,0,0,0,-1,783,813,0,0
-434,211,0,0,0,0,0,0,0,0,0,-1,790,813,0,0
-427,211,0,0,0,0,0,0,0,0,0,-1,797,813,0,0
-420,211,0,0,0,0,0,0,0,0,0,-1,804,813,0,0
-413,211,0,0,0,0,0,0,0,0,0,-1,811,813,0,0
-406,211,0,0,0,0,0,0,0,0,0,-1,818,813,0,0
-399,211,0,0,0,0,0,0,0,0,0,-1,825,813,0,0
-392,211,0,0,0,0,0,0,0,0,0,-1,832,813,0,0
-385,211,0,0,0,0,0,0,0,0,0,-1,839,813,0,0
-378,211,0,0,0,0,0,0,0,0,0,-1,846,813,0,0
-371,211,0,0,0,0,0,0,0,0,0,-1,853,813,0,0
-364,211,0,0,0,0,0,0,0,0,0,-1,860,813,0,0
-357,211,0,0,0,0,0,0,0,0,0,-1,867,813,0,0
-350,211,0,0,0,0,0,0,0,0,0,-1,874,813,0,0
-343,211,0,0,0,0,0,0,0,0,0,-1,881,813,0,0
-336,211,0,0,0,0,0,0,0,0,0,-1,888,813,0,0
-329,211,0,0,0,0,0,0,0,0,0,-1,895,813,0,0
-322,211,0,0,0,0,0,0,0,0,0,-1,902,813,0,0
-315,211,0,0,0,0,0,0,0,0,0,-1,909,813,0,0
-308,211,0,0,0,0,0,0,0,0,0,-1,916,813,0,0
-301,211,0,0,0,0,0,0,0,0,0,-1,923,813,0,0
-294,211,0,0,0,0,0,0,0,0,0,-1,930,813,0,0
-287,211,0,0,0,0,0,0,0,0,0,-1,937,813,0,0
-280,211,0,0,0,0,0,0,0,0,0,-1,944,813,0,0
-273,211,0,0,0,0,0,0,0,0,0,-1,951,813,0,0
-266,211,0,0,0,0,0,0,0,0,0,-1,958,813,0,0
-259,211,0,0,0,0,0,0,0,0,0,-1,965,813,0,0
-252,211,0,0,0,0,0,0,0,0,0,-1,972,813,0,0
-245,211,0,0,0,0,0,0,0,0,0,-1,979,813,0,0
-238,211,0,0,0,0,0,0,0,0,0,-1,986,813,0,0
-231,211,0,0,0,0,0,0,0,0,0,-1,993,813,0,0
-224,211,0,0,0,0,0,0,0,0,0,-1,1000,813,0,0
-217,211,0,0,0,0,0,0,0,0,0,-1,1007,813,0,0
-210,211,0,0,0,0,0,0,0,0,0,-1,1014,813,0,0
-203,211,0,0,0,0,0,0,0,0,0,-1,1021,813,0,0
-196,211,0,0,0,0,0,0,0,0,0,-1,1028,813,0,0
-189,211,0,0,0,0,0,0,0,0,0,-1,1035,813,0,0
-182,211,0,0,0,0,0,0,0,0,0,-1,1042,813,0,0
-175,211,0,0,0,0,0,0,0,0,0,-1,1049,813,0,0
-168,211,0,0,0,0,0,0,0,0,0,-1,1056,813,0,0
-161,211,0,0,0,0,0,0,0,0,0,-1,1063,813,0,0
-154,211,0,0,0,0,0,0,0,0,0,-1,1070,813,0,0
-147,211,0,0,0,0,0,0,0,0,0,-1,1077,813,0,0
-140,211,0,0,0,0,0,0,0,0,0,-1,1084,813,0,0
-133,211,0,0,0,0,0,0,0,0,0,-1,1091,813,0,0
-126,211,0,0,0,0,0,0,0,0,0,-1,1098,813,0,0
-119,211,0,0,0,0,0,0,0,0,0,-1,1105,813,0,0
-112,211,0,0,0,0,0,0,0,0,0,-1,1112,813,0,0
-105,211,0,0,0,0,0,0,0,0,0,-1,1119,813,0,0
-98,211,0,0,0,0,0,0,0,0,0,-1,1126,813,0,0
-91,211,0,0,0,0,0,0,0,0,0,-1,1133,813,0,0
-84,211,0,0,0,0,0,0,0,0,0,-1,1140,813,0,0
-77,211,0,0,0,0,0,0,0,0,0,-1,1147,813,0,0
-70,211,0,0,0,0,0,0,0,0,0,-1,1154,813,0,0
-63,211,0,0,0,0,0,0,0,0,0,-1,1161,813,0,0
-56,211,0,0,0,0,0,0,0,0,0,-1,1168,813,0,0
-49,211,0,0,0,0,0,0,0,0,0,-1,1175,813,0,0
-42,211,0,0,0,0,0,0,0,0,0,-1,1182,813,0,0
-35,211,0,0,0,0,0,0,0,0,0,-1,1189,813,0,0
-28,211,0,0,0,0,0,0,0,0,0,-1,1196,813,0,0
-21,211,0,0,0,0,0,0,0,0,0,-1,1203,813,0,0
-14,211,0,0,0,0,0,0,0,0,0,-1,1210,813,0,0
-7,211,0,0,0,0,0,0,0,0,0,-1,1217,813,0,0
0,211,0,0,0,0,0,0,0,0,0,-1,1224,813,0,0
7,211,0,0,0,0,0,0,0,0,0,-1,1231,813,0,0
14,211,0,0,0,0,0,0,0,0,0,-1,1238,813,0,0
21,211,0,0,0,0,0,0,0,0,0,-1,1245,813,0,0
28,211,0,0,0,0,0,0,0,0,0,-1,1252,813,0,0
35,211,0,0,0,0,0,0,0,0,0,-1,1259,813,0,0
42,211,0,0,0,0,0,0,0,0,0,-1,1266,813,0,0
49,211,0,0,0,0,0,0,0,0,0,-1,1273,813,0,0
56,211,0,0,0,0,0,0,0,0,0,-1,1280,813,0,0
63,211,0,0,0,0,0,0,0,0,0,-1,1287,813,0,0
70,211,0,0,0,0,0,0,0,0,0,-1,1294,813,0,0
77,211,0,0,0,0,0,0,0,0,0,-1,1301,813,0,0
84,211,0,0,0,0,0,0,0,0,0,-1,1308,813,0,0
91,211,0,0,0,0,0,0,0,0,0,-1,1315,813,0,0
98,211,0,0,0,0,0,0,0,0,0,-1,1322,813,0,0
105,211,0,0,0,0,0,0,0,0,0,-1,1329,813,0,0
112,211,0,0,0,0,0,0,0,0,0,-1,1336,813,0,0
119,211,0,0,0,0,0,0,0,0,0,-1,1343,813,0,0
126,211,0,0,0,0,0,0,0,0,0,-1,1350,813,0,0
133,211,0,0,0,0,0,0,0,0,0,-1,1357,813,0,0
140,211,0,0,0,0,0,0,0,0,0,-1,1364,813,0,0
147,211,0,0,0,0,0,0,0,0,0,-1,1371,813,0,0
154,211,0,0,0,0,0,0,0,0,0,-1,1378,813,0,0
161,211,0,0,0,0,0,0,0,0,0,-1,1385,813,0,0
168,211,0,0,0,0,0,0,0,0,0,-1,1392,813,0,0
175,211,0,0,0,0,0,0,0,0,0,-1,1399,813,0,0
182,211,0,0,0,0,0,0,0,0,0,-1,1406,813,0,0
189,211,0,0,0,0,0,0,0,0,0,-1,1413,813,0,0
196,211,0,0,0,0,0,0,0,0,0,-1,1420,813,0,0
203,211,0,0,0,0,0,0,0,0,0,-1,1427,813,0,0
210,211,0,0,0,0,0,0,0,0,0,-1,1434,813,0,0
217,211,0,0,0,0,0,0,0,0,0,-1,1441,813,0,0
224,211,0,0,0,0,0,0,0,0,0,-1,1448,813,0,0
231,211,0,0,0,0,0,0,0,0,0,-1,1455,813,0,0
238,211,0,0,0,0,0,0,0,0,0,-1,1462,813,0,0
245,211,0,0,0,0,0,0,0,0,0,-1,1469,813,0,0
252,211,0,0,0,0,0,0,0,0,0,-1,1476,813,0,0
259,211,0,0,0,0,0,0,0,0,0,-1,1483,813,0,0
266,211,0,0,0,0,0,0,0,0,0,-1,1490,813,0,0
273,211,0,0,0,0,0,0,0,0,0,-1,1497,813,0,0
280,211,0,0,0,0,0,0,0,0,0,-1,1504,813,0,0
287,211,0,0,0,0,0,0,0,0,0,-1,1511,813,0,0
294,211,0,0,0,0,0,0,0,0,0,-1,1518,813,0,0
301,211,0,0,0,0,0,0,0,0,0,-1,1525,813,0,0
308,211,0,0,0,0,0,0,0,0,0,-1,1532,813,0,0
315,211,0,0,0,0,0,0,0,0,0,-1,1539,813,0,0
322,211,0,0,0,0,0,0,0,0,0,-1,1546,813,0,0
329,211,0,0,0,0,0,0,0,0,0,-1,1553,813,0,0
336,211,0,0,0,0,0,0,0,0,0,-1,1560,813,0,0
343,211,0,0,0,0,0,0,0,0,0,-1,1567,813,0,0
350,211,0,0,0,0,0,0,0,0,0,-1,1574,813,0,0
357,211,0,0,0,0,0,0,0,0,0,-1,1581,813,0,0
364,211,0,0,0,0,0,0,0,0,0,-1,1588,813,0,0
371,211,0,0,0,0,0,0,0,0,0,-1,1595,813,0,0
378,211,0,0,0,0,0,0,0,0,0,-1,1602,813,0,0
385,211,0,0,0,0,0,0,0,0,0,-1,1609,813,0,0
392,211,0,0,0,0,0,0,0,0,0,-1,1616,813,0,0
399,211,0,0,0,0,0,0,0,0,0,-1,1623,813,0,0
406,211,0,0,0,0,0,0,0,0,0,-1,1630,813,0,0
413,211,0,0,0,0,0,0,0,0,0,-1,1637,813,0,0
420,211,0,0,0,0,0,0,0,0,0,-1,1644,813,0,0
427,211,0,0,0,0,0,0,0,0,0,-1,1651,813,0,0
434,211,0,0,0,0,0,0,0,0,0,-1,1658,813,0,0
441,211,0,0,0,0,0,0,0,0,0,-1,1665,813,0,0
448,211,0,0,0,0,0,0,0,0,0,-1,1672,813,0,0
455,211,0,0,0,0,0,0,0,0,0,-1,1679,813,0,0
462,211,0,0,0,0,0,0,0,0,0,-1,1686,813,0,0
469,211,0,0,0,0,0,0,0,0,0,-1,1693,813,0,0
476,211,0,0,0,0,0,0,0,0,0,-1,1700,813,0,0
483,211,0,0,0,0,0,0,0,0,0,-1,1707,813,0,0
490,211,0,0,0,0,0,0,0,0,0,-1,1714,813,0,0
497,211,0,0,0,0,0,0,0,0,0,-1,1721,813,0,0
504,211,0,0,0,0,0,0,0,0,0,-1,1728,813,0,0
511,211,0,0,0,0,0,0,0,0,0,-1,1735,813,0,0
518,211,0,0,0,0,0,0,0,0,0,-1,1742,813,0,0
525,211,0,0,0,0,0,0,0,0,0,-1,1749,813,0,0
532,211,0,0,0,0,0,0,0,0,0,-1,1756,813,0,0
539,211,0,0,0,0,0,0,0,0,0,-1,1763,813,0,0
546,211,0,0,0,0,0,0,0,0,0,-1,1770,813,0,0
553,211,0,0,0,0,0,0,0,0,0,-1,1777,813,0,0
560,211,0,0,0,0,0,0,0,0,0,-1,1784,813,0,0
567,211,0,0,0,0,0,0,0,0,0,-1,1791,813,0,0
574,211,0,0,0,0,0,0,0,0,0,-1,1798,813,0,0
581,211,0,0,0,0,0,0,0,0,0,-1,1805,813,0,0
588,211,0,0,0,0,0,0,0,0,0,-1,1812,813,0,0
595,211,27.1901,3.03021,0.0067867,-0.00434454,-0.00651712,0.00979131,-0.00734915,-0.431992,0.00992948,0.0395576,1819,813,27.19,-3.03021
602,211,27.0927,2.95337,0.00651329,-0.00140157,-0.00313085,0.007602,-0.00249028,-0.334655,0.0060708,0.0371893,1826,813,27.0927,-2.95339
609,211,27.0184,3.09619,0.00610449,0.00104722,-9.77509e-06,0.00610451,0.0010472,-0.00193287,0.00376941,0.0383532,1833,813,27.0185,-3.09622
616,211,27.0298,3.20013,0.00514485,0.00223528,0.00176566,0.00597785,0.00140228,0.440817,0.00360977,0.0323293,1840,813,27.0298,-3.20013
623,211,27.1434,3.16071,0.00400972,0.00275567,0.00261227,0.00606917,0.00069622,0.667611,0.00383516,0.0326957,1847,813,27.1435,-3.16073
630,211,27.2198,3.17847,0.00297695,0.00263984,0.00276822,0.00558174,3.50534e-05,0.754992,0.00370953,0.0367145,1854,813,27.2199,-3.17845
637,211,27.2407,3.30365,0.00205336,0.00229674,0.0025833,0.00476122,-0.000411117,0.808934,0.00331968,0.0388545,1861,813,27.2407,-3.30364
644,211,27.2133,3.59229,0.00119052,0.00189996,0.00225903,0.00383195,-0.000741472,0.863274,0.0028343,0.0373847,1868,813,27.2132,-3.59227
651,211,26.4857,3.83069,0,0,0,0,0,0,0,-1,1875,813,26.4858,-3.83068
658,211,25.5463,3.75641,0,0,0,0,0,0,0,-1,1882,813,25.5462,-3.75642
665,211,20.7402,1.85101,0,0,0,0,0,0,0,-1,1889,813,20.7403,-1.851
672,211,20.6724,2.06287,-0.000588406,0.000155037,0.000434263,0.000354946,-0.000788315,1.13938,0.000675685,0.02271,1896,813,20.6723,-2.06286
679,211,20.7026,2.32086,-0.000654322,-0.000274224,-3.98398e-06,-0.000274182,-0.000654364,-1.56032,0.000379446,0.0135853,1903,813,20.7026,-2.32089
686,211,20.7153,2.6181,-0.000496125,-0.000708339,-0.000422927,-0.000166197,-0.00103827,-0.662492,0.000643968,0.0109998,1910,813,20.7153,-2.6181
693,211,20.7218,2.88654,0.000280395,-0.000598911,-0.000722477,0.000686477,-0.00100499,-0.512062,0.000982325,0.0113831,1917,813,20.7218,-2.88651
700,211,20.6594,3.16663,0.00207205,-0.000609077,-0.000639425,0.00221674,-0.000753766,-0.222532,0.00178301,0.0133062,1924,813,20.6594,-3.1666
707,211,20.6479,3.49707,0.00505848,-0.000370889,4.54239e-05,0.00505886,-0.000371269,0.00836555,0.0035029,0.0196775,1931,813,20.6479,-3.49707
714,211,20.6907,3.81207,0.00884815,-0.00019399,0.000916254,0.00894006,-0.000285901,0.0999775,0.00605759,0.0209268,1938,813,20.6907,-3.81209
721,211,20.7295,4.05182,0.0141831,-0.000856469,0.00177651,0.0143901,-0.00106347,0.115995,0.00996683,0.016926,1945,813,20.7295,-4.05182
728,211,20.7612,4.30804,0.021136,-0.00244263,0.00263664,0.0214272,-0.00273387,0.110013,0.0152778,0.0155095,1952,813,20.7612,-4.30803
735,211,20.7444,4.59375,0.030254,-0.00499604,0.00366417,0.0306309,-0.00537289,0.102488,0.0224271,0.023219,1959,813,20.7444,-4.59373
742,211,20.9136,4.82379,0.0423019,-0.00908867,0.00489088,0.0427632,-0.00954999,0.0940458,0.0321682,0.0427109,1966,813,20.9135,-4.8238
749,211,21.8986,4.58124,0.057739,-0.0155938,0.0061206,0.0582464,-0.0161012,0.0827007,0.045165,0.0431651,1973,813,21.8986,-4.58121
756,211,22.8842,4.5744,0.0769462,-0.025524,0.00702269,0.0774253,-0.026003,0.0681096,0.0621258,0.0447408,1980,813,22.8842,-4.5744
763,211,23.8352,4.57544,0,0,0,0,0,0,0,-1,1987,813,23.8352,-4.57545
770,211,23.2322,5.31158,0,0,0,0,0,0,0,-1,1994,813,23.2322,-5.31161
777,211,0,0,0,0,0,0,0,0,0,-1,2001,813,0,0
784,211,0,0,0,0,0,0,0,0,0,-1,2008,813,0,0
791,211,0,0,0,0,0,0,0,0,0,-1,2015,813,0,0
798,211,0,0,0,0,0,0,0,0,0,-1,2022,813,0,0
805,211,0,0,0,0,0,0,0,0,0,-1,2029,813,0,0
812,211,0,0,0,0,0,0,0,0,0,-1,2036,813,0,0
-700,204,0,0,0,0,0,0,0,0,0,-1,524,820,0,0
-693,204,0,0,0,0,0,0,0,0,0,-1,531,820,0,0
-686,204,0,0,0,0,0,0,0,0,0,-1,538,820,0,0
-679,204,0,0,0,0,0,0,0,0,0,-1,545,820,0,0
-672,204,0,0,0,0,0,0,0,0,0,-1,552,820,0,0
-665,204,0,0,0,0,0,0,0,0,0,-1,559,820,0,0
-658,204,0,0,0,0,0,0,0,0,0,-1,566,820,0,0
-651,204,-15.8956,1.16547,0.018582,-0.0127336,0.000623386,0.0185944,-0.012746,0.0198961,0.0181991,0.0436927,573,820,-15.8956,-1.16549
-644,204,-15.9023,0.604126,0.0188289,-0.01116,-0.00067818,0.0188443,-0.0111753,-0.0225989,0.0175193,0.0440277,580,820,-15.9023,-0.604137
-637,204,-15.897,0.0715332,0,0,0,0,0,0,0,-1,587,820,-15.897,-0.0715196
-630,204,-13.3306,3.21899,0,0,0,0,0,0,0,-1,594,820,-13.3306,-3.219
-623,204,-13.1,2.33014,0,0,0,0,0,0,0,-1,601,820,-13.1,-2.33013
-616,204,-13.5366,2.22314,0.0110357,-0.00463244,-0.00126736,0.0111376,-0.0047343,-0.080193,0.00940892,0.0480462,608,820,-13.5366,-2.22312
-609,204,-13.7733,2.40381,0.00889071,-0.00354682,-0.00125618,0.00901631,-0.00367243,-0.0996578,0.0075393,0.0320321,615,820,-13.7733,-2.40381
-602,204,-13.7372,2.14722,0.00685893,-0.00227713,-0.00109456,0.00698823,-0.00240644,-0.11759,0.00563494,0.0136866,622,820,-13.7372,-2.14721
-595,204,-13.7708,1.86035,0.00505314,-0.00114149,-0.000671275,0.00512505,-0.0012134,-0.106714,0.00388485,0.0135604,629,820,-13.7708,-1.86034
-588,204,-13.7856,1.59467,0.00339594,-0.00013046,-0.000206138,0.00340794,-0.000142469,-0.0581914,0.00232091,0.0121287,636,820,-13.7856,-1.59468
-581,204,-13.7933,1.32623,0.00179582,-9.06508e-05,-9.50346e-05,0.00180059,-9.54262e-05,-0.0502076,0.00123343,0.0122656,643,820,-13.7933,-1.32623
-574,204,-13.7935,1.08154,0.000741235,-0.000116468,0.000218384,0.000793637,-0.00016887,0.235503,0.000593445,0.0134156,650,820,-13.7935,-1.08156
-567,204,-13.7678,0.829407,-8.52837e-05,0.000172669,0.000336473,0.000404038,-0.000316653,0.96842,0.00041711,0.0133762,657,820,-13.7678,-0.829427
-560,204,-13.7846,0.555542,-0.00110654,0.000627382,0.000217547,0.00065426,-0.00113342,1.44787,0.0010444,0.0126642,664,820,-13.7846,-0.555528
-553,204,-13.7929,0.296753,-0.00228849,0.0012707,5.60929e-05,0.00127159,-0.00228938,1.55504,0.00208373,0.0120293,671,820,-13.7929,-0.296727
-546,204,-13.8202,0.0958862,-0.00294461,0.00158719,-3.25431e-05,0.00158742,-0.00294485,-1.56362,0.00265554,0.0193717,678,820,-13.8202,-0.0959064
-539,204,-13.8229,-0.179565,-0.00313262,0.00207361,-0.000175054,0.00207949,-0.0031385,-1.53722,0.00303322,0.0348821,685,820,-13.8229,0.179547
-532,204,-13.7697,-0.52594,0,0,0,0,0,0,0,-1,692,820,-13.7696,0.52597
-525,204,-18.5754,1.87091,0,0,0,0,0,0,0,-1,699,820,-18.5755,-1.87093
-518,204,-18.6304,1.79517,-0.00260626,0.00356029,-0.000806529,0.00366403,-0.00271,-1.44287,0.00369376,0.0466694,706,820,-18.6304,-1.7952
-511,204,-18.7888,1.60718,-0.00162567,0.00382564,-0.00104503,0.0040191,-0.00181914,-1.38774,0.00344956,0.0460351,713,820,-18.7888,-1.60717
-504,204,-19.0938,1.22321,7.05148e-05,0.00386464,-0.00133178,0.00428544,-0.000350286,-1.26475,0.00298059,0.0471286,720,820,-19.0938,-1.22321
-497,204,-19.1788,1.17938,0.00282976,0.00342323,-0.00169301,0.00484531,0.00140768,-0.872152,0.00287811,0.0391237,727,820,-19.1787,-1.17936
-490,204,-19.162,1.23901,0.00727207,0.00220151,-0.00219401,0.0080896,0.00138398,-0.356681,0.00499605,0.033894,734,820,-19.162,-1.23902
-483,204,-19.083,1.30518,0.0136587,-0.000189397,-0.00287024,0.0142301,-0.000760728,-0.196485,0.00975019,0.0390146,741,820,-19.083,-1.3052
-476,204,0,0,0,0,0,0,0,0,0,-1,748,820,0,0
-469,204,0,0,0,0,0,0,0,0,0,-1,755,820,0,0
-462,204,0,0,0,0,0,0,0,0,0,-1,762,820,0,0
-455,204,0,0,0,0,0,0,0,0,0,-1,769,820,0,0
-448,204,0,0,0,0,0,0,0,0,0,-1,776,820,0,0
-441,204,0,0,0,0,0,0,0,0,0,-1,783,820,0,0
-434,204,0,0,0,0,0,0,0,0,0,-1,790,820,0,0
-427,204,0,0,0,0,0,0,0,0,0,-1,797,820,0,0
-420,204,0,0,0,0,0,0,0,0,0,-1,804,820,0,0
-413,204,0,0,0,0,0,0,0,0,0,-1,811,820,0,0
-406,204,0,0,0,0,0,0,0,0,0,-1,818,820,0,0
-399,204,0,0,0,0,0,0,0,0,0,-1,825,820,0,0
-392,204,0,0,0,0,0,0,0,0,0,-1,832,820,0,0
-385,204,0,0,0,0,0,0,0,0,0,-1,839,820,0,0
-378,204,0,0,0,0,0,0,0,0,0,-1,846,820,0,0
-371,204,0,0,0,0,0,0,0,0,0,-1,853,820,0,0
-364,204,0,0,0,0,0,0,0,0,0,-1,860,820,0,0
-357,204,0,0,0,0,0,0,0,0,0,-1,867,820,0,0
-350,204,0,0,0,0,0,0,0,0,0,-1,874,820,0,0
-343,204,0,0,0,0,0,0,0,0,0,-1,881,820,0,0
-336,204,0,0,0,0,0,0,0,0,0,-1,888,820,0,0
-329,204,0,0,0,0,0,0,0,0,0,-1,895,820,0,0
-322,204,0,0,0,0,0,0,0,0,0,-1,902,820,0,0
-315,204,0,0,0,0,0,0,0,0,0,-1,909,820,0,0
-308,204,0,0,0,0,0,0,0,0,0,-1,916,820,0,0
-301,204,0,0,0,0,0,0,0,0,0,-1,923,820,0,0
-294,204,0,0,0,0,0,0,0,0,0,-1,930,820,0,0
-287,204,0,0,0,0,0,0,0,0,0,-1,937,820,0,0
-280,204,0,0,0,0,0,0,0,0,0,-1,944,820,0,0
-273,204,0,0,0,0,0,0,0,0,0,-1,951,820,0,0
-266,204,0,0,0,0,0,0,0,0,0,-1,958,820,0,0
-259,204,0,0,0,0,0,0,0,0,0,-1,965,820,0,0
-252,204,0,0,0,0,0,0,0,0,0,-1,972,820,0,0
-245,204,0,0,0,0,0,0,0,0,0,-1,979,820,0,0
-238,204,0,0,0,0,0,0,0,0,0,-1,986,820,0,0
-231,204,0,0,0,0,0,0,0,0,0,-1,993,820,0,0
-224,204,0,0,0,0,0,0,0,0,0,-1,1000,820,0,0
-217,204,0,0,0,0,0,0,0,0,0,-1,1007,820,0,0
-210,204,0,0,0,0,0,0,0,0,0,-1,1014,820,0,0
-203,204,0,0,0,0,0,0,0,0,0,-1,1021,820,0,0
-196,204,0,0,0,0,0,0,0,0,0,-1,1028,820,0,0
-189,204,0,0,0,0,0,0,0,0,0,-1,1035,820,0,0
-182,204,0,0,0,0,0,0,0,0,0,-1,1042,820,0,0
-175,204,0,0,0,0,0,0,0,0,0,-1,1049,820,0,0
-168,204,0,0,0,0,0,0,0,0,0,-1,1056,820,0,0
-161,204,0,0,0,0,0,0,0,0,0,-1,1063,820,0,0
-154,204,0,0,0,0,0,0,0,0,0,-1,1070,820,0,0
-147,204,0,0,0,0,0,0,0,0,0,-1,1077,820,0,0
-140,204,0,0,0,0,0,0,0,0,0,-1,1084,820,0,0
-133,204,0,0,0,0,0,0,0,0,0,-1,1091,820,0,0
-126,204,0,0,0,0,0,0,0,0,0,-1,1098,820,0,0
-119,204,0,0,0,0,0,0,0,0,0,-1,1105,820,0,0
-112,204,0,0,0,0,0,0,0,0,0,-1,1112,820,0,0
-105,204,0,0,0,0,0,0,0,0,0,-1,1119,820,0,0
-98,204,0,0,0,0,0,0,0,0,0,-1,1126,820,0,0
-91,204,0,0,0,0,0,0,0,0,0,-1,1133,820,0,0
-84,204,0,0,0,0,0,0,0,0,0,-1,1140,820,0,0
-77,204,0,0,0,0,0,0,0,0,0,-1,1147,820,0,0
-70,204,0,0,0,0,0,0,0,0,0,-1,1154,820,0,0
-63,204,0,0,0,0,0,0,0,0,0,-1,1161,820,0,0
-56,204,0,0,0,0,0,0,0,0,0,-1,1168,820,0,0
-49,204,0,0,0,0,0,0,0,0,0,-1,1175,820,0,0
-42,204,0,0,0,0,0,0,0,0,0,-1,1182,820,0,0
-35,204,0,0,0,0,0,0,0,0,0,-1,1189,820,0,0
-28,204,0,0,0,0,0,0,0,0,0,-1,1196,820,0,0
-21,204,0,0,0,0,0,0,0,0,0,-1,1203,820,0,0
-14,204,0,0,0,0,0,0,0,0,0,-1,1210,820,0,0
-7,204,0,0,0,0,0,0,0,0,0,-1,1217,820,0,0
0,204,0,0,0,0,0,0,0,0,0,-1,1224,820,0,0
7,204,0,0,0,0,0,0,0,0,0,-1,1231,820,0,0
14,204,0,0,0,0,0,0,0,0,0,-1,1238,820,0,0
21,204,0,0,0,0,0,0,0,0,0,-1,1245,820,0,0
28,204,0,0,0,0,0,0,0,0,0,-1,1252,820,0,0
35,204,0,0,0,0,0,0,0,0,0,-1,1259,820,0,0
42,204,0,0,0,0,0,0,0,0,0,-1,1266,820,0,0
49,204,0,0,0,0,0,0,0,0,0,-1,1273,820,0,0
56,204,0,0,0,0,0,0,0,0,0,-1,1280,820,0,0
63,204,0,0,0,0,0,0,0,0,0,-1,1287,820,0,0
70,204,0,0,0,0,0,0,0,0,0,-1,1294,820,0,0
77,204,0,0,0,0,0,0,0,0,0,-1,1301,820,0,0
84,204,0,0,0,0,0,0,0,0,0,-1,1308,820,0,0
91,204,0,0,0,0,0,0,0,0,0,-1,1315,820,0,0
98,204,0,0,0,0,0,0,0,0,0,-1,1322,820,0,0
105,204,0,0,0,0,0,0,0,0,0,-1,1329,820,0,0
112,204,0,0,0,0,0,0,0,0,0,-1,1336,820,0,0
119,204,0,0,0,0,0,0,0,0,0,-1,1343,820,0,0
126,204,0,0,0,0,0,0,0,0,0,-1,1350,820,0,0
133,204,0,0,0,0,0,0,0,0,0,-1,1357,820,0,0
140,204,0,0,0,0,0,0,0,0,0,-1,1364,820,0,0
147,204,0,0,0,0,0,0,0,0,0,-1,1371,820,0,0
154,204,0,0,0,0,0,0,0,0,0,-1,1378,820,0,0
161,204,0,0,0,0,0,0,0,0,0,-1,1385,820,0,0
168,204,0,0,0,0,0,0,0,0,0,-1,1392,820,0,0
175,204,0,0,0,0,0,0,0,0,0,-1,1399,820,0,0
182,204,0,0,0,0,0,0,0,0,0,-1,1406,820,0,0
189,204,0,0,0,0,0,0,0,0,0,-1,1413,820,0,0
196,204,0,0,0,0,0,0,0,0,0,-1,1420,820,0,0
203,204,0,0,0,0,0,0,0,0,0,-1,1427,820,0,0
210,204,0,0,0,0,0,0,0,0,0,-1,1434,820,0,0
217,204,0,0,0,0,0,0,0,0,0,-1,1441,820,0,0
224,204,0,0,0,0,0,0,0,0,0,-1,1448,820,0,0
231,204,0,0,0,0,0,0,0,0,0,-1,1455,820,0,0
238,204,0,0,0,0,0,0,0,0,0,-1,1462,820,0,0
245,204,0,0,0,0,0,0,0,0,0,-1,1469,820,0,0
252,204,0,0,0,0,0,0,0,0,0,-1,1476,820,0,0
259,204,0,0,0,0,0,0,0,0,0,-1,1483,820,0,0
266,204,0,0,0,0,0,0,0,0,0,-1,1490,820,0,0
273,204,0,0,0,0,0,0,0,0,0,-1,1497,820,0,0
280,204,0,0,0,0,0,0,0,0,0,-1,1504,820,0,0
287,204,0,0,0,0,0,0,0,0,0,-1,1511,820,0,0
294,204,0,0,0,0,0,0,0,0,0,-1,1518,820,0,0
301,204,0,0,0,0,0,0,0,0,0,-1,1525,820,0,0
308,204,0,0,0,0,0,0,0,0,0,-1,1532,820,0,0
315,204,0,0,0,0,0,0,0,0,0,-1,1539,820,0,0
322,204,0,0,0,0,0,0,0,0,0,-1,1546,820,0,0
329,204,0,0,0,0,0,0,0,0,0,-1,1553,820,0,0
336,204,0,0,0,0,0,0,0,0,0,-1,1560,820,0,0
343,204,0,0,0,0,0,0,0,0,0,-1,1567,820,0,0
350,204,0,0,0,0,0,0,0,0,0,-1,1574,820,0,0
357,204,0,0,0,0,0,0,0,0,0,-1,1581,820,0,0
364,204,0,0,0,0,0,0,0,0,0,-1,1588,820,0,0
371,204,0,0,0,0,0,0,0,0,0,-1,1595,820,0,0
378,204,0,0,0,0,0,0,0,0,0,-1,1602,820,0,0
385,204,0,0,0,0,0,0,0,0,0,-1,1609,820,0,0
392,204,0,0,0,0,0,0,0,0,0,-1,1616,820,0,0
399,204,0,0,0,0,0,0,0,0,0,-1,1623,820,0,0
406,204,0,0,0,0,0,0,0,0,0,-1,1630,820,0,0
413,204,0,0,0,0,0,0,0,0,0,-1,1637,820,0,0
420,204,0,0,0,0,0,0,0,0,0,-1,1644,820,0,0
427,204,0,0,0,0,0,0,0,0,0,-1,1651,820,0,0
434,204,0,0,0,0,0,0,0,0,0,-1,1658,820,0,0
441,204,0,0,0,0,0,0,0,0,0,-1,1665,820,0,0
448,204,0,0,0,0,0,0,0,0,0,-1,1672,820,0,0
455,204,0,0,0,0,0,0,0,0,0,-1,1679,820,0,0
462,204,0,0,0,0,0,0,0,0,0,-1,1686,820,0,0
469,204,0,0,0,0,0,0,0,0,0,-1,1693,820,0,0
476,204,0,0,0,0,0,0,0,0,0,-1,1700,820,0,0
483,204,0,0,0,0,0,0,0,0,0,-1,1707,820,0,0
490,204,0,0,0,0,0,0,0,0,0,-1,1714,820,0,0
497,204,0,0,0,0,0,0,0,0,0,-1,1721,820,0,0
504,204,0,0,0,0,0,0,0,0,0,-1,1728,820,0,0
511,204,0,0,0,0,0,0,0,0,0,-1,1735,820,0,0
518,204,0,0,0,0,0,0,0,0,0,-1,1742,820,0,0
525,204,0,0,0,0,0,0,0,0,0,-1,1749,820,0,0
532,204,0,0,0,0,0,0,0,0,0,-1,1756,820,0,0
539,204,0,0,0,0,0,0,0,0,0,-1,1763,820,0,0
546,204,0,0,0,0,0,0,0,0,0,-1,1770,820,0,0
553,204,0,0,0,0,0,0,0,0,0,-1,1777,820,0,0
560,204,0,0,0,0,0,0,0,0,0,-1,1784,820,0,0
567,204,0,0,0,0,0,0,0,0,0,-1,1791,820,0,0
574,204,0,0,0,0,0,0,0,0,0,-1,1798,820,0,0
581,204,0,0,0,0,0,0,0,0,0,-1,1805,820,0,0
588,204,0,0,0,0,0,0,0,0,0,-1,1812,820,0,0
595,204,0,0,0,0,0,0,0,0,0,-1,1819,820,0,0
602,204,27.1685,3.10657,0.00546052,-0.0033787,-0.00441061,0.00728483,-0.005203,-0.39219,0.00724317,0.0385458,1826,820,27.1685,-3.10654
609,204,27.0764,3.1579,0.00514223,-0.000492322,-0.00111015,0.00535307,-0.000703161,-0.187684,0.00382471,0.0416847,1833,820,27.0764,-3.1579
616,204,27.0774,3.21008,0.00438835,0.00108707,0.000929222,0.00463193,0.000843493,0.256364,0.00284872,0.0377701,1840,820,27.0774,-3.21009
623,204,27.1069,3.18335,0.00339056,0.00192614,0.0020202,0.00480715,0.000509543,0.61154,0.00304914,0.0294396,1847,820,27.1069,-3.18337
630,204,27.1471,3.17072,0.00244051,0.00207022,0.00236269,0.0046253,-0.000114568,0.746297,0.00312242,0.0273451,1854,820,27.1471,-3.17069
637,204,27.1888,3.16095,0.00159308,0.00185296,0.00227625,0.00400298,-0.000556939,0.813909,0.00287235,0.0317213,1861,820,27.1889,-3.16092
644,204,27.2338,3.06403,0.000871728,0.00152957,0.00199259,0.00322021,-0.000818907,0.867197,0.00246553,0.037763,1868,820,27.2337,-3.064
651,204,27.3003,2.92584,0,0,0,0,0,0,0,-1,1875,820,27.3003,-2.92582
658,204,26.5464,3.24603,0,0,0,0,0,0,0,-1,1882,820,26.5464,-3.24603
665,204,20.951,1.74225,0,0,0,0,0,0,0,-1,1889,820,20.9511,-1.74224
672,204,20.9342,1.90851,-0.00059179,4.16159e-06,0.000404723,0.000208769,-0.000796398,1.10272,0.000612498,0.0489384,1896,820,20.9342,-1.90853
679,204,20.9706,2.22394,-0.000660579,-0.000361296,2.86265e-06,-0.000361269,-0.000660607,1.56123,0.00038196,0.026376,1903,820,20.9706,-2.22391
686,204,21.0071,2.62323,-0.00051255,-0.00075203,-0.000443261,-0.00017314,-0.00109144,-0.65348,0.00067733,0.0122771,1910,820,21.0071,-2.62324
693,204,20.9452,2.89874,0.000194997,-0.000721394,-0.000805957,0.000663899,-0.0011903,-0.526926,0.0010848,0.0154332,1917,820,20.9452,-2.89874
700,204,20.9877,3.18561,0.00180246,-0.000833927,-0.000798016,0.0020252,-0.00105666,-0.272185,0.00180837,0.0165354,1924,820,20.9876,-3.18561
707,204,20.9576,3.50171,0.00445235,-0.000629004,-0.000227524,0.00446252,-0.000639171,-0.0446571,0.00320936,0.0139383,1931,820,20.9577,-3.50173
714,204,20.9825,3.84271,0.00788237,-0.000474813,0.000536617,0.00791668,-0.000509129,0.0638608,0.00545542,0.0218904,1938,820,20.9825,-3.84271
721,204,20.994,4.06195,0.0128527,-0.00118324,0.00129039,0.0129704,-0.00130088,0.0909191,0.00911155,0.0219613,1945,820,20.9941,-4.06195
728,204,20.9895,4.29865,0.0192119,-0.00278716,0.00199875,0.019392,-0.00296728,0.0898758,0.0140221,0.0134358,1952,820,20.9895,-4.29863
735,204,20.9662,4.59357,0.0273538,-0.00527712,0.00280857,0.0275937,-0.00551709,0.0852355,0.020484,0.0150529,1959,820,20.9662,-4.59358
742,204,21.0442,4.80994,0.0378444,-0.00916426,0.00372652,0.0381379,-0.00945783,0.0786187,0.0290949,0.0290967,1966,820,21.0442,-4.80992
749,204,21.9622,4.81073,0.0511517,-0.0152816,0.00457106,0.0514647,-0.0155946,0.0683773,0.040521,0.0397342,1973,820,21.9622,-4.81073
756,204,23.1373,4.8017,0.0674648,-0.0245435,0.00499146,0.0677348,-0.0248135,0.0540387,0.0553151,0.0473895,1980,820,23.1373,-4.80167
763,204,24.3949,4.73309,0,0,0,0,0,0,0,-1,1987,820,24.3948,-4.7331
770,204,23.0879,4.85107,0,0,0,0,0,0,0,-1,1994,820,23.0879,-4.85109
777,204,0,0,0,0,0,0,0,0,0,-1,2001,820,0,0
784,204,0,0,0,0,0,0,0,0,0,-1,2008,820,0,0
791,204,0,0,0,0,0,0,0,0,0,-1,2015,820,0,0
798,204,0,0,0,0,0,0,0,0,0,-1,2022,820,0,0
805,204,0,0,0,0,0,0,0,0,0,-1,2029,820,0,0
812,204,0,0,0,0,0,0,0,0,0,-1,2036,820,0,0
-700,197,0,0,0,0,0,0,0,0,0,-1,524,827,0,0
-693,197,0,0,0,0,0,0,0,0,0,-1,531,827,0,0
-686,197,0,0,0,0,0,0,0,0,0,-1,538,827,0,0
-679,197,0,0,0,0,0,0,0,0,0,-1,545,827,0,0
-672,197,0,0,0,0,0,0,0,0,0,-1,552,827,0,0
-665,197,0,0,0,0,0,0,0,0,0,-1,559,827,0,0
-658,197,-15.635,2.2287,0,0,0,0,0,0,0,-1,566,827,-15.635,-2.22867
-651,197,-15.7,1.71082,0.00959146,-0.0135957,0.00560313,0.0108745,-0.0148787,0.225097,0.0149284,0.0480919,573,827,-15.7,-1.71084
-644,197,-15.744,1.21051,0.0111896,-0.0130156,0.00359844,0.0117132,-0.0135392,0.144502,0.0145922,0.046186,580,827,-15.744,-1.21051
-637,197,-13.742,4.0274,0,0,0,0,0,0,0,-1,587,827,-13.742,-4.02738
-630,197,-13.5525,3.35193,0,0,0,0,0,0,0,-1,594,827,-13.5525,-3.35192
-623,197,-13.4125,2.71661,0,0,0,0,0,0,0,-1,601,827,-13.4125,-2.7166
-616,197,-13.6273,2.42889,0.00731385,-0.00621181,0.000897382,0.00737313,-0.00627108,0.0659613,0.00788605,0.0460671,608,827,-13.6273,-2.42886
-609,197,-13.9627,2.32306,0.00602083,-0.00493212,0.00048111,0.00604192,-0.00495321,0.0438127,0.00635841,0.0318066,615,827,-13.9627,-2.32306
-602,197,-14.0314,2.12927,0.00476939,-0.00323246,0.00040681,0.00479001,-0.00325309,0.0506653,0.00467186,0.0155393,622,827,-14.0314,-2.12927
-595,197,-14.0525,1.90479,0.00330056,-0.00190071,0.000440086,0.00333753,-0.00193768,0.0838173,0.00308118,0.0167486,629,827,-14.0525,-1.90481
-588,197,-14.0748,1.59467,0.00198494,-0.00068921,0.000629289,0.00212562,-0.000829895,0.219945,0.00176018,0.0187447,636,827,-14.0747,-1.59464
-581,197,-14.0605,1.32294,0.000793858,-0.000332119,0.000503319,0.000986043,-0.000524303,0.364749,0.000885478,0.0112251,643,827,-14.0605,-1.32293
-574,197,-14.05,1.0979,5.74279e-06,-0.000225814,0.000532248,0.000434659,-0.000654731,0.678303,0.000633223,0.0125468,650,827,-14.05,-1.09789
-567,197,-14.0563,0.827454,-0.000639756,0.000108164,0.000494261,0.000353994,-0.000885586,1.10926,0.000737283,0.0139915,657,827,-14.0562,-0.827482
-560,197,-14.0739,0.576477,-0.00145444,0.00055822,0.00026585,0.000592744,-0.00148896,1.44166,0.00123845,0.0146956,664,827,-14.0739,-0.576448
-553,197,-14.1444,0.329712,-0.00238522,0.00107575,-1.53849e-05,0.00107582,-0.00238528,-1.56635,0.00204538,0.0164985,671,827,-14.1444,-0.329737
-546,197,-14.0589,0.0803833,-0.00282328,0.00133095,-0.000182403,0.00133895,-0.00283127,-1.527,0.00245853,0.0294741,678,827,-14.0589,-0.0803532
-539,197,-14.0089,-0.139709,0,0,0,0,0,0,0,-1,685,827,-14.0088,0.139699
-532,197,-14.0699,0.615479,0,0,0,0,0,0,0,-1,692,827,-14.0699,-0.615466
-525,197,-19.0014,1.32501,0,0,0,0,0,0,0,-1,699,827,-19.0014,-1.32502
-518,197,-18.7972,1.59155,-0.00222939,0.00317783,-0.00117805,0.00342334,-0.0024749,-1.36533,0.00341999,0.0419519,706,827,-18.7972,-1.59153
-511,197,-18.8444,1.51855,-0.0011625,0.00341247,-0.00148342,0.00385136,-0.00160139,-1.28314,0.00323625,0.0408731,713,827,-18.8443,-1.51858
-504,197,-19.0266,1.29034,0.000763991,0.00336271,-0.00185455,0.00432779,-0.000201087,-1.09097,0.0029545,0.0402462,720,827,-19.0266,-1.29035
-497,197,-19.1947,1.01654,0.00396029,0.00270663,-0.00230668,0.00572379,0.000943125,-0.652729,0.00354357,0.0405289,727,827,-19.1947,-1.01654
-490,197,-19.1343,1.01984,0.00920418,0.00112318,-0.00288321,0.0101274,0.000199951,-0.30989,0.00668595,0.0379769,734,827,-19.1343,-1.01985
-483,197,-19.0922,1.02209,0.0167206,-0.00186127,-0.00358972,0.01739,-0.00253063,-0.184349,0.0125224,0.0388056,741,827,-19.0922,-1.02207
-476,197,0,0,0,0,0,0,0,0,0,-1,748,827,0,0
-469,197,0,0,0,0,0,0,0,0,0,-1,755,827,0,0
-462,197,0,0,0,0,0,0,0,0,0,-1,762,827,0,0
-455,197,0,0,0,0,0,0,0,0,0,-1,769,827,0,0
-448,197,0,0,0,0,0,0,0,0,0,-1,776,827,0,0
-441,197,0,0,0,0,0,0,0,0,0,-1,783,827,0,0
-434,197,0,0,0,0,0,0,0,0,0,-1,790,827,0,0
-427,197,0,0,0,0,0,0,0,0,0,-1,797,827,0,0
-420,197,0,0,0,0,0,0,0,0,0,-1,804,827,0,0
-413,197,0,0,0,0,0,0,0,0,0,-1,811,827,0,0
-406,197,0,0,0,0,0,0,0,0,0,-1,818,827,0,0
-399,197,0,0,0,0,0,0,0,0,0,-1,825,827,0,0
-392,197,0,0,0,0,0,0,0,0,0,-1,832,827,0,0
-385,197,0,0,0,0,0,0,0,0,0,-1,839,827,0,0
-378,197,0,0,0,0,0,0,0,0,0,-1,846,827,0,0
-371,197,0,0,0,0,0,0,0,0,0,-1,853,827,0,0
-364,197,0,0,0,0,0,0,0,0,0,-1,860,827,0,0
-357,197,0,0,0,0,0,0,0,0,0,-1,867,827,0,0
-350,197,0,0,0,0,0,0,0,0,0,-1,874,827,0,0
-343,197,0,0,0,0,0,0,0,0,0,-1,881,827,0,0
-336,197,0,0,0,0,0,0,0,0,0,-1,888,827,0,0
-329,197,0,0,0,0,0,0,0,0,0,-1,895,827,0,0
-322,197,0,0,0,0,0,0,0,0,0,-1,902,827,0,0
-315,197,0,0,0,0,0,0,0,0,0,-1,909,827,0,0
-308,197,0,0,0,0,0,0,0,0,0,-1,916,827,0,0
-301,197,0,0,0,0,0,0,0,0,0,-1,923,827,0,0
-294,197,0,0,0,0,0,0,0,0,0,-1,930,827,0,0
-287,197,0,0,0,0,0,0,0,0,0,-1,937,827,0,0
-280,197,0,0,0,0,0,0,0,0,0,-1,944,827,0,0
-273,197,0,0,0,0,0,0,0,0,0,-1,951,827,0,0
-266,197,0,0,0,0,0,0,0,0,0,-1,958,827,0,0
-259,197,0,0,0,0,0,0,0,0,0,-1,965,827,0,0
-252,197,0,0,0,0,0,0,0,0,0,-1,972,827,0,0
-245,197,0,0,0,0,0,0,0,0,0,-1,979,827,0,0
-238,197,0,0,0,0,0,0,0,0,0,-1,986,827,0,0
-231,197,0,0,0,0,0,0,0,0,0,-1,993,827,0,0
-224,197,0,0,0,0,0,0,0,0,0,-1,1000,827,0,0
-217,197,0,0,0,0,0,0,0,0,0,-1,1007,827,0,0
-210,197,0,0,0,0,0,0,0,0,0,-1,1014,827,0,0
-203,197,0,0,0,0,0,0,0,0,0,-1,1021,827,0,0
-196,197,0,0,0,0,0,0,0,0,0,-1,1028,827,0,0
-189,197,0,0,0,0,0,0,0,0,0,-1,1035,827,0,0
-182,197,0,0,0,0,0,0,0,0,0,-1,1042,827,0,0
-175,197,0,0,0,0,0,0,0,0,0,-1,1049,827,0,0
-168,197,0,0,0,0,0,0,0,0,0,-1,1056,827,0,0
-161,197,0,0,0,0,0,0,0,0,0,-1,1063,827,0,0
-154,197,0,0,0,0,0,0,0,0,0,-1,1070,827,0,0
-147,197,0,0,0,0,0,0,0,0,0,-1,1077,827,0,0
-140,197,0,0,0,0,0,0,0,0,0,-1,1084,827,0,0
-133,197,0,0,0,0,0,0,0,0,0,-1,1091,827,0,0
-126,197,0,0,0,0,0,0,0,0,0,-1,1098,827,0,0
-119,197,0,0,0,0,0,0,0,0,0,-1,1105,827,0,0
-112,197,0,0,0,0,0,0,0,0,0,-1,1112,827,0,0
-105,197,0,0,0,0,0,0,0,0,0,-1,1119,827,0,0
-98,197,0,0,0,0,0,0,0,0,0,-1,1126,827,0,0
-91,197,0,0,0,0,0,0,0,0,0,-1,1133,827,0,0
-84,197,0,0,0,0,0,0,0,0,0,-1,1140,827,0,0
-77,197,0,0,0,0,0,0,0,0,0,-1,1147,827,0,0
-70,197,0,0,0,0,0,0,0,0,0,-1,1154,827,0,0
-63,197,0,0,0,0,0,0,0,0,0,-1,1161,827,0,0
-56,197,0,0,0,0,0,0,0,0,0,-1,1168,827,0,0
-49,197,0,0,0,0,0,0,0,0,0,-1,1175,827,0,0
-42,197,0,0,0,0,0,0,0,0,0,-1,1182,827,0,0
-35,197,0,0,0,0,0,0,0,0,0,-1,1189,827,0,0
-28,197,0,0,0,0,0,0,0,0,0,-1,1196,827,0,0
-21,197,0,0,0,0,0,0,0,0,0,-1,1203,827,0,0
-14,197,0,0,0,0,0,0,0,0,0,-1,1210,827,0,0
-7,197,0,0,0,0,0,0,0,0,0,-1,1217,827,0,0
0,197,0,0,0,0,0,0,0,0,0,-1,1224,827,0,0
7,197,0,0,0,0,0,0,0,0,0,-1,1231,827,0,0
14,197,0,0,0,0,0,0,0,0,0,-1,1238,827,0,0
21,197,0,0,0,0,0,0,0,0,0,-1,1245,827,0,0
28,197,0,0,0,0,0,0,0,0,0,-1,1252,827,0,0
35,197,0,0,0,0,0,0,0,0,0,-1,1259,827,0,0
42,197,0,0,0,0,0,0,0,0,0,-1,1266,827,0,0
49,197,0,0,0,0,0,0,0,0,0,-1,1273,827,0,0
56,197,0,0,0,0,0,0,0,0,0,-1,1280,827,0,0
63,197,0,0,0,0,0,0,0,0,0,-1,1287,827,0,0
70,197,0,0,0,0,0,0,0,0,0,-1,1294,827,0,0
77,197,0,0,0,0,0,0,0,0,0,-1,1301,827,0,0
84,197,0,0,0,0,0,0,0,0,0,-1,1308,827,0,0
91,197,0,0,0,0,0,0,0,0,0,-1,1315,827,0,0
98,197,0,0,0,0,0,0,0,0,0,-1,1322,827,0,0
105,197,0,0,0,0,0,0,0,0,0,-1,1329,827,0,0
112,197,0,0,0,0,0,0,0,0,0,-1,1336,827,0,0
119,197,0,0,0,0,0,0,0,0,0,-1,1343,827,0,0
126,197,0,0,0,0,0,0,0,0,0,-1,1350,827,0,0
133,197,0,0,0,0,0,0,0,0,0,-1,1357,827,0,0
140,197,0,0,0,0,0,0,0,0,0,-1,1364,827,0,0
147,197,0,0,0,0,0,0,0,0,0,-1,1371,827,0,0
154,197,0,0,0,0,0,0,0,0,0,-1,1378,827,0,0
161,197,0,0,0,0,0,0,0,0,0,-1,1385,827,0,0
168,197,0,0,0,0,0,0,0,0,0,-1,1392,827,0,0
175,197,0,0,0,0,0,0,0,0,0,-1,1399,827,0,0
182,197,0,0,0,0,0,0,0,0,0,-1,1406,827,0,0
189,197,0,0,0,0,0,0,0,0,0,-1,1413,827,0,0
196,197,0,0,0,0,0,0,0,0,0,-1,1420,827,0,0
203,197,0,0,0,0,0,0,0,0,0,-1,1427,827,0,0
210,197,0,0,0,0,0,0,0,0,0,-1,1434,827,0,0
217,197,0,0,0,0,0,0,0,0,0,-1,1441,827,0,0
224,197,0,0,0,0,0,0,0,0,0,-1,1448,827,0,0
231,197,0,0,0,0,0,0,0,0,0,-1,1455,827,0,0
238,197,0,0,0,0,0,0,0,0,0,-1,1462,827,0,0
245,197,0,0,0,0,0,0,0,0,0,-1,1469,827,0,0
252,197,0,0,0,0,0,0,0,0,0,-1,1476,827,0,0
259,197,0,0,0,0,0,0,0,0,0,-1,1483,827,0,0
266,197,0,0,0,0,0,0,0,0,0,-1,1490,827,0,0
273,197,0,0,0,0,0,0,0,0,0,-1,1497,827,0,0
280,197,0,0,0,0,0,0,0,0,0,-1,1504,827,0,0
287,197,0,0,0,0,0,0,0,0,0,-1,1511,827,0,0
294,197,0,0,0,0,0,0,0,0,0,-1,1518,827,0,0
301,197,0,0,0,0,0,0,0,0,0,-1,1525,827,0,0
308,197,0,0,0,0,0,0,0,0,0,-1,1532,827,0,0
315,197,0,0,0,0,0,0,0,0,0,-1,1539,827,0,0
322,197,0,0,0,0,0,0,0,0,0,-1,1546,827,0,0
329,197,0,0,0,0,0,0,0,0,0,-1,1553,827,0,0
336,197,0,0,0,0,0,0,0,0,0,-1,1560,827,0,0
343,197,0,0,0,0,0,0,0,0,0,-1,1567,827,0,0
350,197,0,0,0,0,0,0,0,0,0,-1,1574,827,0,0
357,197,0,0,0,0,0,0,0,0,0,-1,1581,827,0,0
364,197,0,0,0,0,0,0,0,0,0,-1,1588,827,0,0
371,197,0,0,0,0,0,0,0,0,0,-1,1595,827,0,0
378,197,0,0,0,0,0,0,0,0,0,-1,1602,827,0,0
385,197,0,0,0,0,0,0,0,0,0,-1,1609,827,0,0
392,197,0,0,0,0,0,0,0,0,0,-1,1616,827,0,0
399,197,0,0,0,0,0,0,0,0,0,-1,1623,827,0,0
406,197,0,0,0,0,0,0,0,0,0,-1,1630,827,0,0
413,197,0,0,0,0,0,0,0,0,0,-1,1637,827,0,0
420,197,0,0,0,0,0,0,0,0,0,-1,1644,827,0,0
427,197,0,0,0,0,0,0,0,0,0,-1,1651,827,0,0
434,197,0,0,0,0,0,0,0,0,0,-1,1658,827,0,0
441,197,0,0,0,0,0,0,0,0,0,-1,1665,827,0,0
448,197,0,0,0,0,0,0,0,0,0,-1,1672,827,0,0
455,197,0,0,0,0,0,0,0,0,0,-1,1679,827,0,0
462,197,0,0,0,0,0,0,0,0,0,-1,1686,827,0,0
469,197,0,0,0,0,0,0,0,0,0,-1,1693,827,0,0
476,197,0,0,0,0,0,0,0,0,0,-1,1700,827,0,0
483,197,0,0,0,0,0,0,0,0,0,-1,1707,827,0,0
490,197,0,0,0,0,0,0,0,0,0,-1,1714,827,0,0
497,197,0,0,0,0,0,0,0,0,0,-1,1721,827,0,0
504,197,0,0,0,0,0,0,0,0,0,-1,1728,827,0,0
511,197,0,0,0,0,0,0,0,0,0,-1,1735,827,0,0
518,197,0,0,0,0,0,0,0,0,0,-1,1742,827,0,0
525,197,0,0,0,0,0,0,0,0,0,-1,1749,827,0,0
532,197,0,0,0,0,0,0,0,0,0,-1,1756,827,0,0
539,197,0,0,0,0,0,0,0,0,0,-1,1763,827,0,0
546,197,0,0,0,0,0,0,0,0,0,-1,1770,827,0,0
553,197,0,0,0,0,0,0,0,0,0,-1,1777,827,0,0
560,197,0,0,0,0,0,0,0,0,0,-1,1784,827,0,0
567,197,0,0,0,0,0,0,0,0,0,-1,1791,827,0,0
574,197,0,0,0,0,0,0,0,0,0,-1,1798,827,0,0
581,197,0,0,0,0,0,0,0,0,0,-1,1805,827,0,0
588,197,0,0,0,0,0,0,0,0,0,-1,1812,827,0,0
595,197,0,0,0,0,0,0,0,0,0,-1,1819,827,0,0
602,197,27.1865,3.36682,0,0,0,0,0,0,0,-1,1826,827,27.1865,-3.36683
609,197,27.0361,3.29773,0.00426947,-0.0015384,-0.00224964,0.00503892,-0.00230785,-0.329558,0.00433825,0.0429231,1833,827,27.0361,-3.29774
616,197,27.1483,3.21375,0.00360761,0.000205267,-2.72791e-05,0.00360783,0.000205049,-0.00801705,0.00233987,0.0409091,1840,827,27.1483,-3.21377
623,197,27.1261,3.1087,0.00270156,0.0012252,0.00129027,0.00344989,0.000476873,0.525567,0.0021586,0.0365692,1847,827,27.1261,-3.10868
630,197,27.1147,3.17542,0.00182816,0.00156706,0.001848,0.00355021,-0.000154999,0.750135,0.00242013,0.0295332,1854,827,27.1147,-3.17543
637,197,27.1125,3.18896,0.00106095,0.00144114,0.00188555,0.00314615,-0.00064406,0.835638,0.00234183,0.0258852,1861,827,27.1125,-3.18894
644,197,27.1331,3.12354,0.000462637,0.00116541,0.00167785,0.00252828,-0.000900229,0.888619,0.00205249,0.0307593,1868,827,27.1331,-3.12353
651,197,27.1879,3.07825,9.19342e-05,0.000677677,0.00139353,0.00180878,-0.00103917,0.888973,0.00166416,0.0423524,1875,827,27.1878,-3.07827
658,197,27.2373,3.12189,0,0,0,0,0,0,0,-1,1882,827,27.2373,-3.12187
665,197,14.0618,1.80304,0,0,0,0,0,0,0,-1,1889,827,14.0617,-1.80303
672,197,21.4443,1.85498,0,0,0,0,0,0,0,-1,1896,827,21.4443,-1.855
679,197,21.365,2.33246,-0.000744997,-0.000475743,-6.10897e-06,-0.000475605,-0.000745135,-1.54812,0.000435654,0.0329404,1903,827,21.365,-2.33244
686,197,21.2643,2.63879,-0.000596234,-0.000800467,-0.000445008,-0.000241776,-0.00115492,-0.672615,0.000703348,0.0181581,1910,827,21.2643,-2.63881
693,197,21.2372,2.94513,2.81493e-05,-0.000805464,-0.000830415,0.000540492,-0.00131781,-0.552805,0.00110373,0.0145273,1917,827,21.2372,-2.94512
700,197,21.2413,3.22015,0.00140933,-0.000949487,-0.000868838,0.00169481,-0.00123496,-0.317458,0.00169843,0.0204117,1924,827,21.2413,-3.22015
707,197,21.2933,3.49481,0.00360913,-0.000708122,-0.000427283,0.00365102,-0.000750004,-0.097708,0.00271872,0.00840023,1931,827,21.2933,-3.49478
714,197,21.2781,3.7807,0.00650292,-0.000507286,0.00018316,0.0065077,-0.000512068,0.0261039,0.00451884,0.0104855,1938,827,21.2781,-3.78073
721,197,21.2632,4.0387,0.0109329,-0.00118501,0.000784588,0.0109835,-0.0012356,0.0643879,0.00776701,0.0112875,1945,827,21.2632,-4.03867
728,197,21.2469,4.31696,0.0166329,-0.00277057,0.001307,0.0167205,-0.00285821,0.066956,0.0122118,0.0102173,1952,827,21.2469,-4.31696
735,197,21.2234,4.59778,0.0238215,-0.00518632,0.0018684,0.0239413,-0.00530617,0.0640576,0.0179923,0.0113716,1959,827,21.2234,-4.59781
742,197,21.2555,4.88379,0.0328768,-0.00890565,0.00244242,0.0330191,-0.00904793,0.0581914,0.025568,0.0190713,1966,827,21.2554,-4.88382
749,197,21.4087,5.22162,0.0441787,-0.0147388,0.00282776,0.0443141,-0.0148742,0.0478487,0.0355535,0.0408417,1973,827,21.4087,-5.22165
756,197,21.5475,5.58148,0.0580276,-0.0235802,0.00271725,0.058118,-0.0236705,0.0332474,0.0485966,0.0484125,1980,827,21.5475,-5.5815
763,197,21.4492,5.80847,0,0,0,0,0,0,0,-1,1987,827,21.4493,-5.8085
770,197,21.0817,5.95746,0,0,0,0,0,0,0,-1,1994,827,21.0817,-5.95744
777,197,0,0,0,0,0,0,0,0,0,-1,2001,827,0,0
784,197,0,0,0,0,0,0,0,0,0,-1,2008,827,0,0
791,197,0,0,0,0,0,0,0,0,0,-1,2015,827,0,0
798,197,0,0,0,0,0,0,0,0,0,-1,2022,827,0,0
805,197,0,0,0,0,0,0,0,0,0,-1,2029,827,0,0
812,197,0,0,0,0,0,0,0,0,0,-1,2036,827,0,0
-700,190,0,0,0,0,0,0,0,0,0,-1,524,834,0,0
-693,190,0,0,0,0,0,0,0,0,0,-1,531,834,0,0
-686,190,0,0,0,0,0,0,0,0,0,-1,538,834,0,0
-679,190,0,0,0,0,0,0,0,0,0,-1,545,834,0,0
-672,190,0,0,0,0,0,0,0,0,0,-1,552,834,0,0
-665,190,0,0,0,0,0,0,0,0,0,-1,559,834,0,0
-658,190,-14.9769,1.95441,0,0,0,0,0,0,0,-1,566,834,-14.977,-1.95439
-651,190,-15.4526,2.04431,0,0,0,0,0,0,0,-1,573,834,-15.4526,-2.04431
-644,190,-15.5843,1.71387,0.0067072,-0.013298,0.00640755,0.00858352,-0.0151743,0.284866,0.0138914,0.0463319,580,834,-15.5843,-1.71388
-637,190,-15.4623,1.44849,0.00765442,-0.0123027,0.00476704,0.00873463,-0.0133829,0.222836,0.0128632,0.0482868,587,834,-15.4623,-1.44846
-630,190,-13.9767,3.5177,0,0,0,0,0,0,0,-1,594,834,-13.9767,-3.5177
-623,190,-14.1459,2.92444,0,0,0,0,0,0,0,-1,601,834,-14.1459,-2.92445
-616,190,-14.192,2.62415,0.00559712,-0.00715395,0.00229697,0.00599827,-0.00755511,0.172901,0.00784223,0.0433404,608,834,-14.192,-2.62412
-609,190,-14.2994,2.32056,0.00476777,-0.00579485,0.0016336,0.00501465,-0.00604173,0.149991,0.00639258,0.0228146,615,834,-14.2994,-2.32054
-602,190,-14.309,2.10901,0.00388521,-0.00382713,0.00145465,0.00415045,-0.00409237,0.180361,0.00475904,0.014307,622,834,-14.309,-2.10898
-595,190,-14.3164,1.92188,0.00254266,-0.00240736,0.00126864,0.00284886,-0.00271356,0.23683,0.00321178,0.0174558,629,834,-14.3164,-1.92186
-588,190,-14.3289,1.6167,0.0013648,-0.00112421,0.00129282,0.00191478,-0.00167419,0.402217,0.00207364,0.0154555,636,834,-14.3289,-1.61671
-581,190,-14.3097,1.35022,0.000362336,-0.000558786,0.00102338,0.00102402,-0.00122047,0.573956,0.00129751,0.0106417,643,834,-14.3097,-1.35024
-574,190,-14.2968,1.08923,-0.000369672,-0.000391164,0.00086933,0.000488979,-0.00124981,0.779218,0.00103543,0.0104867,650,834,-14.2968,-1.08925
-567,190,-14.2993,0.801086,-0.000951102,-5.13736e-05,0.000727795,0.000354369,-0.00135684,1.06222,0.00104295,0.0136161,657,834,-14.2992,-0.80109
-560,190,-14.3726,0.568359,-0.00159919,0.000401006,0.000405402,0.000480049,-0.00167824,1.37824,0.00130853,0.0250629,664,834,-14.3726,-0.568387
-553,190,-14.4276,0.321838,-0.00233991,0.000798808,2.77265e-05,0.000799053,-0.00234016,1.56196,0.00188382,0.0226057,671,834,-14.4275,-0.321837
-546,190,-14.3814,0.0481567,-0.002604,0.0010099,-0.000231817,0.00102471,-0.00261881,-1.507,0.00216966,0.0419908,678,834,-14.3814,-0.0481601
-539,190,-14.5706,-0.0740967,0,0,0,0,0,0,0,-1,685,834,-14.5706,0.0741113
-532,190,-15.0157,-0.154724,0,0,0,0,0,0,0,-1,692,834,-15.0157,0.154752
-525,190,-18.9734,1.35089,-0.00231001,0.00240057,-0.00111393,0.0026507,-0.00256015,-1.34991,0.00300864,0.0486653,699,834,-18.9734,-1.35092
-518,190,-18.9644,1.37323,-0.00180356,0.00275011,-0.00151774,0.00320961,-0.00226305,-1.27682,0.00317536,0.0443846,706,834,-18.9643,-1.37321
-511,190,-19.0204,1.22913,-0.000625433,0.00292126,-0.00191045,0.00375456,-0.00145873,-1.1595,0.00310566,0.0393298,713,834,-19.0204,-1.22914
-504,190,-19.1933,0.900146,0.00154224,0.00272038,-0.00237973,0.00458287,-0.000320245,-0.906728,0.00316739,0.0427527,720,834,-19.1933,-0.900123
-497,190,-19.0856,0.723755,0.00525705,0.00172152,-0.00294631,0.00692523,5.33394e-05,-0.515192,0.00459914,0.0459552,727,834,-19.0855,-0.723746
-490,190,-18.982,0.96936,0.0112954,-0.000399668,-0.00358912,0.012309,-0.00141329,-0.275248,0.00871537,0.0417881,734,834,-18.982,-0.969338
-483,190,0,0,0,0,0,0,0,0,0,-1,741,834,0,0
-476,190,0,0,0,0,0,0,0,0,0,-1,748,834,0,0
-469,190,0,0,0,0,0,0,0,0,0,-1,755,834,0,0
-462,190,0,0,0,0,0,0,0,0,0,-1,762,834,0,0
-455,190,0,0,0,0,0,0,0,0,0,-1,769,834,0,0
-448,190,0,0,0,0,0,0,0,0,0,-1,776,834,0,0
-441,190,0,0,0,0,0,0,0,0,0,-1,783,834,0,0
-434,190,0,0,0,0,0,0,0,0,0,-1,790,834,0,0
-427,190,0,0,0,0,0,0,0,0,0,-1,797,834,0,0
-420,190,0,0,0,0,0,0,0,0,0,-1,804,834,0,0
-413,190,0,0,0,0,0,0,0,0,0,-1,811,834,0,0
-406,190,0,0,0,0,0,0,0,0,0,-1,818,834,0,0
-399,190,0,0,0,0,0,0,0,0,0,-1,825,834,0,0
-392,190,0,0,0,0,0,0,0,0,0,-1,832,834,0,0
-385,190,0,0,0,0,0,0,0,0,0,-1,839,834,0,0
-378,190,0,0,0,0,0,0,0,0,0,-1,846,834,0,0
-371,190,0,0,0,0,0,0,0,0,0,-1,853,834,0,0
-364,190,0,0,0,0,0,0,0,0,0,-1,860,834,0,0
-357,190,0,0,0,0,0,0,0,0,0,-1,867,834,0,0
-350,190,0,0,0,0,0,0,0,0,0,-1,874,834,0,0
-343,190,0,0,0,0,0,0,0,0,0,-1,881,834,0,0
-336,190,0,0,0,0,0,0,0,0,0,-1,888,834,0,0
-329,190,0,0,0,0,0,0,0,0,0,-1,895,834,0,0
-322,190,0,0,0,0,0,0,0,0,0,-1,902,834,0,0
-315,190,0,0,0,0,0,0,0,0,0,-1,909,834,0,0
-308,190,0,0,0,0,0,0,0,0,0,-1,916,834,0,0
-301,190,0,0,0,0,0,0,0,0,0,-1,923,834,0,0
-294,190,0,0,0,0,0,0,0,0,0,-1,930,834,0,0
-287,190,0,0,0,0,0,0,0,0,0,-1,937,834,0,0
-280,190,0,0,0,0,0,0,0,0,0,-1,944,834,0,0
-273,190,0,0,0,0,0,0,0,0,0,-1,951,834,0,0
-266,190,0,0,0,0,0,0,0,0,0,-1,958,834,0,0
-259,190,0,0,0,0,0,0,0,0,0,-1,965,834,0,0
-252,190,0,0,0,0,0,0,0,0,0,-1,972,834,0,0
-245,190,0,0,0,0,0,0,0,0,0,-1,979,834,0,0
-238,190,0,0,0,0,0,0,0,0,0,-1,986,834,0,0
-231,190,0,0,0,0,0,0,0,0,0,-1,993,834,0,0
-224,190,0,0,0,0,0,0,0,0,0,-1,1000,834,0,0
-217,190,0,0,0,0,0,0,0,0,0,-1,1007,834,0,0
-210,190,0,0,0,0,0,0,0,0,0,-1,1014,834,0,0
-203,190,0,0,0,0,0,0,0,0,0,-1,1021,834,0,0
-196,190,0,0,0,0,0,0,0,0,0,-1,1028,834,0,0
-189,190,0,0,0,0,0,0,0,0,0,-1,1035,834,0,0
-182,190,0,0,0,0,0,0,0,0,0,-1,1042,834,0,0
-175,190,0,0,0,0,0,0,0,0,0,-1,1049,834,0,0
-168,190,0,0,0,0,0,0,0,0,0,-1,1056,834,0,0
-161,190,0,0,0,0,0,0,0,0,0,-1,1063,834,0,0
-154,190,0,0,0,0,0,0,0,0,0,-1,1070,834,0,0
-147,190,0,0,0,0,0,0,0,0,0,-1,1077,834,0,0
-140,190,0,0,0,0,0,0,0,0,0,-1,1084,834,0,0
-133,190,0,0,0,0,0,0,0,0,0,-1,1091,834,0,0
-126,190,0,0,0,0,0,0,0,0,0,-1,1098,834,0,0
-119,190,0,0,0,0,0,0,0,0,0,-1,1105,834,0,0
-112,190,0,0,0,0,0,0,0,0,0,-1,1112,834,0,0
-105,190,0,0,0,0,0,0,0,0,0,-1,1119,834,0,0
-98,190,0,0,0,0,0,0,0,0,0,-1,1126,834,0,0
-91,190,0,0,0,0,0,0,0,0,0,-1,1133,834,0,0
-84,190,0,0,0,0,0,0,0,0,0,-1,1140,834,0,0
-77,190,0,0,0,0,0,0,0,0,0,-1,1147,834,0,0
-70,190,0,0,0,0,0,0,0,0,0,-1,1154,834,0,0
-63,190,0,0,0,0,0,0,0,0,0,-1,1161,834,0,0
-56,190,0,0,0,0,0,0,0,0,0,-1,1168,834,0,0
-49,190,0,0,0,0,0,0,0,0,0,-1,1175,834,0,0
-42,190,0,0,0,0,0,0,0,0,0,-1,1182,834,0,0
-35,190,0,0,0,0,0,0,0,0,0,-1,1189,834,0,0
-28,190,0,0,0,0,0,0,0,0,0,-1,1196,834,0,0
-21,190,0,0,0,0,0,0,0,0,0,-1,1203,834,0,0
-14,190,0,0,0,0,0,0,0,0,0,-1,1210,834,0,0
-7,190,0,0,0,0,0,0,0,0,0,-1,1217,834,0,0
0,190,0,0,0,0,0,0,0,0,0,-1,1224,834,0,0
7,190,0,0,0,0,0,0,0,0,0,-1,1231,834,0,0
14,190,0,0,0,0,0,0,0,0,0,-1,1238,834,0,0
21,190,0,0,0,0,0,0,0,0,0,-1,1245,834,0,0
28,190,0,0,0,0,0,0,0,0,0,-1,1252,834,0,0
35,190,0,0,0,0,0,0,0,0,0,-1,1259,834,0,0
42,190,0,0,0,0,0,0,0,0,0,-1,1266,834,0,0
49,190,0,0,0,0,0,0,0,0,0,-1,1273,834,0,0
56,190,0,0,0,0,0,0,0,0,0,-1,1280,834,0,0
63,190,0,0,0,0,0,0,0,0,0,-1,1287,834,0,0
70,190,0,0,0,0,0,0,0,0,0,-1,1294,834,0,0
77,190,0,0,0,0,0,0,0,0,0,-1,1301,834,0,0
84,190,0,0,0,0,0,0,0,0,0,-1,1308,834,0,0
91,190,0,0,0,0,0,0,0,0,0,-1,1315,834,0,0
98,190,0,0,0,0,0,0,0,0,0,-1,1322,834,0,0
105,190,0,0,0,0,0,0,0,0,0,-1,1329,834,0,0
112,190,0,0,0,0,0,0,0,0,0,-1,1336,834,0,0
119,190,0,0,0,0,0,0,0,0,0,-1,1343,834,0,0
126,190,0,0,0,0,0,0,0,0,0,-1,1350,834,0,0
133,190,0,0,0,0,0,0,0,0,0,-1,1357,834,0,0
140,190,0,0,0,0,0,0,0,0,0,-1,1364,834,0,0
147,190,0,0,0,0,0,0,0,0,0,-1,1371,834,0,0
154,190,0,0,0,0,0,0,0,0,0,-1,1378,834,0,0
161,190,0,0,0,0,0,0,0,0,0,-1,1385,834,0,0
168,190,0,0,0,0,0,0,0,0,0,-1,1392,834,0,0
175,190,0,0,0,0,0,0,0,0,0,-1,1399,834,0,0
182,190,0,0,0,0,0,0,0,0,0,-1,1406,834,0,0
189,190,0,0,0,0,0,0,0,0,0,-1,1413,834,0,0
196,190,0,0,0,0,0,0,0,0,0,-1,1420,834,0,0
203,190,0,0,0,0,0,0,0,0,0,-1,1427,834,0,0
210,190,0,0,0,0,0,0,0,0,0,-1,1434,834,0,0
217,190,0,0,0,0,0,0,0,0,0,-1,1441,834,0,0
224,190,0,0,0,0,0,0,0,0,0,-1,1448,834,0,0
231,190,0,0,0,0,0,0,0,0,0,-1,1455,834,0,0
238,190,0,0,0,0,0,0,0,0,0,-1,1462,834,0,0
245,190,0,0,0,0,0,0,0,0,0,-1,1469,834,0,0
252,190,0,0,0,0,0,0,0,0,0,-1,1476,834,0,0
259,190,0,0,0,0,0,0,0,0,0,-1,1483,834,0,0
266,190,0,0,0,0,0,0,0,0,0,-1,1490,834,0,0
273,190,0,0,0,0,0,0,0,0,0,-1,1497,834,0,0
280,190,0,0,0,0,0,0,0,0,0,-1,1504,834,0,0
287,190,0,0,0,0,0,0,0,0,0,-1,1511,834,0,0
294,190,0,0,0,0,0,0,0,0,0,-1,1518,834,0,0
301,190,0,0,0,0,0,0,0,0,0,-1,1525,834,0,0
308,190,0,0,0,0,0,0,0,0,0,-1,1532,834,0,0
315,190,0,0,0,0,0,0,0,0,0,-1,1539,834,0,0
322,190,0,0,0,0,0,0,0,0,0,-1,1546,834,0,0
329,190,0,0,0,0,0,0,0,0,0,-1,1553,834,0,0
336,190,0,0,0,0,0,0,0,0,0,-1,1560,834,0,0
343,190,0,0,0,0,0,0,0,0,0,-1,1567,834,0,0
350,190,0,0,0,0,0,0,0,0,0,-1,1574,834,0,0
357,190,0,0,0,0,0,0,0,0,0,-1,1581,834,0,0
364,190,0,0,0,0,0,0,0,0,0,-1,1588,834,0,0
371,190,0,0,0,0,0,0,0,0,0,-1,1595,834,0,0
378,190,0,0,0,0,0,0,0,0,0,-1,1602,834,0,0
385,190,0,0,0,0,0,0,0,0,0,-1,1609,834,0,0
392,190,0,0,0,0,0,0,0,0,0,-1,1616,834,0,0
399,190,0,0,0,0,0,0,0,0,0,-1,1623,834,0,0
406,190,0,0,0,0,0,0,0,0,0,-1,1630,834,0,0
413,190,0,0,0,0,0,0,0,0,0,-1,1637,834,0,0
420,190,0,0,0,0,0,0,0,0,0,-1,1644,834,0,0
427,190,0,0,0,0,0,0,0,0,0,-1,1651,834,0,0
434,190,0,0,0,0,0,0,0,0,0,-1,1658,834,0,0
441,190,0,0,0,0,0,0,0,0,0,-1,1665,834,0,0
448,190,0,0,0,0,0,0,0,0,0,-1,1672,834,0,0
455,190,0,0,0,0,0,0,0,0,0,-1,1679,834,0,0
462,190,0,0,0,0,0,0,0,0,0,-1,1686,834,0,0
469,190,0,0,0,0,0,0,0,0,0,-1,1693,834,0,0
476,190,0,0,0,0,0,0,0,0,0,-1,1700,834,0,0
483,190,0,0,0,0,0,0,0,0,0,-1,1707,834,0,0
490,190,0,0,0,0,0,0,0,0,0,-1,1714,834,0,0
497,190,0,0,0,0,0,0,0,0,0,-1,1721,834,0,0
504,190,0,0,0,0,0,0,0,0,0,-1,1728,834,0,0
511,190,0,0,0,0,0,0,0,0,0,-1,1735,834,0,0
518,190,0,0,0,0,0,0,0,0,0,-1,1742,834,0,0
525,190,0,0,0,0,0,0,0,0,0,-1,1749,834,0,0
532,190,0,0,0,0,0,0,0,0,0,-1,1756,834,0,0
539,190,0,0,0,0,0,0,0,0,0,-1,1763,834,0,0
546,190,0,0,0,0,0,0,0,0,0,-1,1770,834,0,0
553,190,0,0,0,0,0,0,0,0,0,-1,1777,834,0,0
560,190,0,0,0,0,0,0,0,0,0,-1,1784,834,0,0
567,190,0,0,0,0,0,0,0,0,0,-1,1791,834,0,0
574,190,0,0,0,0,0,0,0,0,0,-1,1798,834,0,0
581,190,0,0,0,0,0,0,0,0,0,-1,1805,834,0,0
588,190,0,0,0,0,0,0,0,0,0,-1,1812,834,0,0
595,190,0,0,0,0,0,0,0,0,0,-1,1819,834,0,0
602,190,27.046,3.09198,0,0,0,0,0,0,0,-1,1826,834,27.046,-3.09199
609,190,27.0638,3.34174,0.00276409,-0.00238881,-0.00309381,0.00421378,-0.00383849,-0.438194,0.00465067,0.0411767,1833,834,27.0638,-3.34171
616,190,27.1987,3.15948,0.00232621,-0.000776046,-0.000784603,0.00251335,-0.000963193,-0.23415,0.00207263,0.0397615,1840,834,27.1988,-3.15949
623,190,27.214,3.04364,0.00171111,0.00027202,0.000702051,0.00199686,-1.37322e-05,0.386547,0.00133584,0.0371698,1847,834,27.2139,-3.04367
630,190,27.1674,3.17163,0.00112408,0.000781664,0.0014527,0.00241562,-0.000509881,0.726742,0.00180455,0.0390669,1854,834,27.1673,-3.17165
637,190,27.1378,3.22308,0.000564377,0.000774554,0.00160118,0.00227409,-0.000935157,0.818167,0.00190585,0.0335326,1861,834,27.1378,-3.22311
644,190,27.0828,3.25531,0.00013877,0.000583621,0.00146389,0.00184189,-0.0011195,0.860792,0.00172663,0.0252454,1868,834,27.0828,-3.25528
651,190,27.0515,3.35626,-7.75048e-05,0.000192556,0.00122367,0.00128862,-0.00117357,0.84035,0.00142207,0.0350477,1875,834,27.0515,-3.35626
658,190,27.1934,3.24829,0,0,0,0,0,0,0,-1,1882,834,27.1934,-3.24832
665,190,25.9916,3.05157,0,0,0,0,0,0,0,-1,1889,834,25.9916,-3.05156
672,190,21.9271,2.36603,0,0,0,0,0,0,0,-1,1896,834,21.9271,-2.36606
679,190,21.6744,2.60449,-0.000710837,-0.000598884,-1.29205e-05,-0.000597413,-0.000712308,-1.45737,0.000441585,0.0395903,1903,834,21.6745,-2.60448
686,190,21.5107,2.70203,-0.00056678,-0.000808746,-0.000424634,-0.00024623,-0.0011293,-0.64662,0.000685686,0.0161827,1910,834,21.5108,-2.70202
693,190,21.5342,2.93451,-3.99892e-05,-0.000795385,-0.000802609,0.000469352,-0.00130473,-0.565477,0.00106144,0.0124344,1917,834,21.5342,-2.93452
700,190,21.545,3.23126,0.00107714,-0.000923043,-0.00087192,0.00140386,-0.00124976,-0.35852,0.00153293,0.0108765,1924,834,21.545,-3.23128
707,190,21.5605,3.49121,0.00283125,-0.000659092,-0.00054524,0.00291444,-0.000742283,-0.15141,0.00223192,0.0117326,1931,834,21.5606,-3.4912
714,190,21.568,3.75372,0.00517885,-0.000466093,-0.000108991,0.00518095,-0.000468197,-0.0192982,0.00362014,0.0109465,1938,834,21.568,-3.75374
721,190,21.5533,4.04175,0.0090015,-0.00115072,0.000298287,0.00901026,-0.00115947,0.0293477,0.00642828,0.010014,1945,834,21.5533,-4.04177
728,190,21.5262,4.31415,0.0139887,-0.00271943,0.000596041,0.01401,-0.00274066,0.0356133,0.0103749,0.0119831,1952,834,21.5263,-4.31415
735,190,21.5248,4.58075,0.0202465,-0.00507488,0.000877149,0.0202769,-0.00510523,0.0345854,0.0155024,0.0117601,1959,834,21.5247,-4.58078
742,190,21.5139,4.9021,0.02794,-0.00862235,0.00108579,0.0279722,-0.00865456,0.0296622,0.0221051,0.0153419,1966,834,21.5139,-4.90211
749,190,21.5198,5.37744,0.0373858,-0.014153,0.00100438,0.0374054,-0.0141726,0.019478,0.0307691,0.0368926,1973,834,21.5197,-5.37744
756,190,21.7655,5.80249,0.0489438,-0.022521,0.000370614,0.0489457,-0.0225229,0.00518578,0.042192,0.0485201,1980,834,21.7655,-5.80252
763,190,21.8341,6.12976,0,0,0,0,0,0,0,-1,1987,834,21.8341,-6.12976
770,190,21.9644,4.87927,0,0,0,0,0,0,0,-1,1994,834,21.9644,-4.87925
777,190,22.2739,4.59698,0,0,0,0,0,0,0,-1,2001,834,22.2739,-4.59696
784,190,0,0,0,0,0,0,0,0,0,-1,2008,834,0,0
791,190,0,0,0,0,0,0,0,0,0,-1,2015,834,0,0
798,190,0,0,0,0,0,0,0,0,0,-1,2022,834,0,0
805,190,0,0,0,0,0,0,0,0,0,-1,2029,834,0,0
812,190,0,0,0,0,0,0,0,0,0,-1,2036,834,0,0
-700,183,0,0,0,0,0,0,0,0,0,-1,524,841,0,0
-693,183,0,0,0,0,0,0,0,0,0,-1,531,841,0,0
-686,183,0,0,0,0,0,0,0,0,0,-1,538,841,0,0
-679,183,0,0,0,0,0,0,0,0,0,-1,545,841,0,0
-672,183,0,0,0,0,0,0,0,0,0,-1,552,841,0,0
-665,183,0,0,0,0,0,0,0,0,0,-1,559,841,0,0
-658,183,-15.1046,2.56299,-0.00688739,-0.0094037,0.0138134,0.00572507,-0.0220162,0.739983,0.016912,0.0497447,566,841,-15.1046,-2.563
-651,183,-15.2452,2.43842,-0.000603787,-0.0133383,0.00997434,0.00486235,-0.0188045,0.501322,0.0144328,0.0486263,573,841,-15.2452,-2.4384
-644,183,-15.3791,2.25159,0.0028997,-0.0142695,0.00755264,0.00574916,-0.017119,0.360768,0.0137361,0.0453971,580,841,-15.3791,-2.25156
-637,183,-15.4816,1.94617,0.00464354,-0.0135794,0.00591087,0.00639288,-0.0153287,0.287741,0.0128898,0.0496499,587,841,-15.4816,-1.94616
-630,183,-14.5359,3.09076,0,0,0,0,0,0,0,-1,594,841,-14.5359,-3.09074
-623,183,-14.5247,2.85718,0,0,0,0,0,0,0,-1,601,841,-14.5247,-2.85715
-616,183,-14.5333,2.60986,0.00432171,-0.00832407,0.00315536,0.00506531,-0.00906767,0.231439,0.00826802,0.0397587,608,841,-14.5333,-2.60984
-609,183,-14.5697,2.37634,0.00394548,-0.0068364,0.00241902,0.00446334,-0.00735425,0.210894,0.00689061,0.0158467,615,841,-14.5697,-2.37635
-602,183,-14.5742,2.12628,0.00342962,-0.00453827,0.00222608,0.00400936,-0.00511801,0.254773,0.00528264,0.010156,622,841,-14.5742,-2.12626
-595,183,-14.5694,1.86621,0.00220122,-0.00294885,0.00186454,0.00280538,-0.00355301,0.313354,0.00367947,0.00998726,629,841,-14.5694,-1.86623
-588,183,-14.5662,1.60938,0.00115889,-0.00154477,0.00174847,0.00201717,-0.00240305,0.456321,0.00255526,0.0104608,636,841,-14.5661,-1.60936
-581,183,-14.5729,1.36145,0.000333075,-0.000684771,0.00135495,0.00127153,-0.00162322,0.605749,0.00167539,0.011181,643,841,-14.5728,-1.36146
-574,183,-14.554,1.12042,-0.000375369,-0.000388318,0.00106922,0.000687396,-0.00145108,0.78237,0.00126062,0.011512,650,841,-14.554,-1.12045
-567,183,-14.4952,0.846558,-0.000943197,-2.24197e-05,0.000874395,0.000505384,-0.001471,1.02772,0.0011856,0.0227416,657,841,-14.4952,-0.846546
-560,183,-14.6583,0.64917,-0.00150497,0.000388091,0.000509208,0.000516368,-0.00163325,1.32402,0.00129572,0.0268917,664,841,-14.6583,-0.649191
-553,183,-14.6032,0.290405,-0.00210879,0.000563195,5.7031e-05,0.000564412,-0.00211001,1.54947,0.00162776,0.0236103,671,841,-14.6032,-0.290417
-546,183,-14.8408,0.0518799,0,0,0,0,0,0,0,-1,678,841,-14.8408,-0.0518852
-539,183,-15.1441,-0.182922,0,0,0,0,0,0,0,-1,685,841,-15.1441,0.182904
-532,183,-18.712,1.60822,0,0,0,0,0,0,0,-1,692,841,-18.712,-1.60824
-525,183,-18.8611,1.46417,-0.00199353,0.00169646,-0.00128804,0.00210159,-0.00239866,-1.26606,0.00260011,0.0456344,699,841,-18.8612,-1.46415
-518,183,-18.9739,1.36456,-0.00147509,0.00187204,-0.00173997,0.00261267,-0.00221571,-1.16837,0.0027908,0.0419506,706,841,-18.9739,-1.36455
-511,183,-19.0728,1.19025,-0.000199301,0.00182896,-0.00217665,0.00321614,-0.00158648,-1.0034,0.0028255,0.0395803,713,841,-19.0728,-1.19026
-504,183,-19.2402,1.03229,0.00225331,0.00132968,-0.00267506,0.00450613,-0.000923143,-0.699922,0.00335441,0.0433518,720,841,-19.2402,-1.03229
-497,183,-19.1298,1.46454,0.00670142,-8.55711e-05,-0.00330032,0.00804163,-0.00142578,-0.38574,0.00589411,0.045721,727,841,-19.1298,-1.46454
-490,183,-18.78,0.950012,0.0137369,-0.00267628,-0.00387284,0.0146049,-0.00354422,-0.220465,0.0111081,0.0433766,734,841,-18.78,-0.94999
-483,183,0,0,0,0,0,0,0,0,0,-1,741,841,0,0
-476,183,0,0,0,0,0,0,0,0,0,-1,748,841,0,0
-469,183,0,0,0,0,0,0,0,0,0,-1,755,841,0,0
-462,183,0,0,0,0,0,0,0,0,0,-1,762,841,0,0
-455,183,0,0,0,0,0,0,0,0,0,-1,769,841,0,0
-448,183,0,0,0,0,0,0,0,0,0,-1,776,841,0,0
-441,183,0,0,0,0,0,0,0,0,0,-1,783,841,0,0
-434,183,0,0,0,0,0,0,0,0,0,-1,790,841,0,0
-427,183,0,0,0,0,0,0,0,0,0,-1,797,841,0,0
-420,183,0,0,0,0,0,0,0,0,0,-1,804,841,0,0
-413,183,0,0,0,0,0,0,0,0,0,-1,811,841,0,0
-406,183,0,0,0,0,0,0,0,0,0,-1,818,841,0,0
-399,183,0,0,0,0,0,0,0,0,0,-1,825,841,0,0
-392,183,0,0,0,0,0,0,0,0,0,-1,832,841,0,0
-385,183,0,0,0,0,0,0,0,0,0,-1,839,841,0,0
-378,183,0,0,0,0,0,0,0,0,0,-1,846,841,0,0
-371,183,0,0,0,0,0,0,0,0,0,-1,853,841,0,0
-364,183,0,0,0,0,0,0,0,0,0,-1,860,841,0,0
-357,183,0,0,0,0,0,0,0,0,0,-1,867,841,0,0
-350,183,0,0,0,0,0,0,0,0,0,-1,874,841,0,0
-343,183,0,0,0,0,0,0,0,0,0,-1,881,841,0,0
-336,183,0,0,0,0,0,0,0,0,0,-1,888,841,0,0
-329,183,0,0,0,0,0,0,0,0,0,-1,895,841,0,0
-322,183,0,0,0,0,0,0,0,0,0,-1,902,841,0,0
-315,183,0,0,0,0,0,0,0,0,0,-1,909,841,0,0
-308,183,0,0,0,0,0,0,0,0,0,-1,916,841,0,0
-301,183,0,0,0,0,0,0,0,0,0,-1,923,841,0,0
-294,183,0,0,0,0,0,0,0,0,0,-1,930,841,0,0
-287,183,0,0,0,0,0,0,0,0,0,-1,937,841,0,0
-280,183,0,0,0,0,0,0,0,0,0,-1,944,841,0,0
-273,183,0,0,0,0,0,0,0,0,0,-1,951,841,0,0
-266,183,0,0,0,0,0,0,0,0,0,-1,958,841,0,0
-259,183,0,0,0,0,0,0,0,0,0,-1,965,841,0,0
-252,183,0,0,0,0,0,0,0,0,0,-1,972,841,0,0
-245,183,0,0,0,0,0,0,0,0,0,-1,979,841,0,0
-238,183,0,0,0,0,0,0,0,0,0,-1,986,841,0,0
-231,183,0,0,0,0,0,0,0,0,0,-1,993,841,0,0
-224,183,0,0,0,0,0,0,0,0,0,-1,1000,841,0,0
-217,183,0,0,0,0,0,0,0,0,0,-1,1007,841,0,0
-210,183,0,0,0,0,0,0,0,0,0,-1,1014,841,0,0
-203,183,0,0,0,0,0,0,0,0,0,-1,1021,841,0,0
-196,183,0,0,0,0,0,0,0,0,0,-1,1028,841,0,0
-189,183,0,0,0,0,0,0,0,0,0,-1,1035,841,0,0
-182,183,0,0,0,0,0,0,0,0,0,-1,1042,841,0,0
-175,183,0,0,0,0,0,0,0,0,0,-1,1049,841,0,0
-168,183,0,0,0,0,0,0,0,0,0,-1,1056,841,0,0
-161,183,0,0,0,0,0,0,0,0,0,-1,1063,841,0,0
-154,183,0,0,0,0,0,0,0,0,0,-1,1070,841,0,0
-147,183,0,0,0,0,0,0,0,0,0,-1,1077,841,0,0
-140,183,0,0,0,0,0,0,0,0,0,-1,1084,841,0,0
-133,183,0,0,0,0,0,0,0,0,0,-1,1091,841,0,0
-126,183,0,0,0,0,0,0,0,0,0,-1,1098,841,0,0
-119,183,0,0,0,0,0,0,0,0,0,-1,1105,841,0,0
-112,183,0,0,0,0,0,0,0,0,0,-1,1112,841,0,0
-105,183,0,0,0,0,0,0,0,0,0,-1,1119,841,0,0
-98,183,0,0,0,0,0,0,0,0,0,-1,1126,841,0,0
-91,183,0,0,0,0,0,0,0,0,0,-1,1133,841,0,0
-84,183,0,0,0,0,0,0,0,0,0,-1,1140,841,0,0
-77,183,0,0,0,0,0,0,0,0,0,-1,1147,841,0,0
-70,183,0,0,0,0,0,0,0,0,0,-1,1154,841,0,0
-63,183,0,0,0,0,0,0,0,0,0,-1,1161,841,0,0
-56,183,0,0,0,0,0,0,0,0,0,-1,1168,841,0,0
-49,183,0,0,0,0,0,0,0,0,0,-1,1175,841,0,0
-42,183,0,0,0,0,0,0,0,0,0,-1,1182,841,0,0
-35,183,0,0,0,0,0,0,0,0,0,-1,1189,841,0,0
-28,183,0,0,0,0,0,0,0,0,0,-1,1196,841,0,0
-21,183,0,0,0,0,0,0,0,0,0,-1,1203,841,0,0
-14,183,0,0,0,0,0,0,0,0,0,-1,1210,841,0,0
-7,183,0,0,0,0,0,0,0,0,0,-1,1217,841,0,0
0,183,0,0,0,0,0,0,0,0,0,-1,1224,841,0,0
7,183,0,0,0,0,0,0,0,0,0,-1,1231,841,0,0
14,183,0,0,0,0,0,0,0,0,0,-1,1238,841,0,0
21,183,0,0,0,0,0,0,0,0,0,-1,1245,841,0,0
28,183,0,0,0,0,0,0,0,0,0,-1,1252,841,0,0
35,183,0,0,0,0,0,0,0,0,0,-1,1259,841,0,0
42,183,0,0,0,0,0,0,0,0,0,-1,1266,841,0,0
49,183,0,0,0,0,0,0,0,0,0,-1,1273,841,0,0
56,183,0,0,0,0,0,0,0,0,0,-1,1280,841,0,0
63,183,0,0,0,0,0,0,0,0,0,-1,1287,841,0,0
70,183,0,0,0,0,0,0,0,0,0,-1,1294,841,0,0
77,183,0,0,0,0,0,0,0,0,0,-1,1301,841,0,0
84,183,0,0,0,0,0,0,0,0,0,-1,1308,841,0,0
91,183,0,0,0,0,0,0,0,0,0,-1,1315,841,0,0
98,183,0,0,0,0,0,0,0,0,0,-1,1322,841,0,0
105,183,0,0,0,0,0,0,0,0,0,-1,1329,841,0,0
112,183,0,0,0,0,0,0,0,0,0,-1,1336,841,0,0
119,183,0,0,0,0,0,0,0,0,0,-1,1343,841,0,0
126,183,0,0,0,0,0,0,0,0,0,-1,1350,841,0,0
133,183,0,0,0,0,0,0,0,0,0,-1,1357,841,0,0
140,183,0,0,0,0,0,0,0,0,0,-1,1364,841,0,0
147,183,0,0,0,0,0,0,0,0,0,-1,1371,841,0,0
154,183,0,0,0,0,0,0,0,0,0,-1,1378,841,0,0
161,183,0,0,0,0,0,0,0,0,0,-1,1385,841,0,0
168,183,0,0,0,0,0,0,0,0,0,-1,1392,841,0,0
175,183,0,0,0,0,0,0,0,0,0,-1,1399,841,0,0
182,183,0,0,0,0,0,0,0,0,0,-1,1406,841,0,0
189,183,0,0,0,0,0,0,0,0,0,-1,1413,841,0,0
196,183,0,0,0,0,0,0,0,0,0,-1,1420,841,0,0
203,183,0,0,0,0,0,0,0,0,0,-1,1427,841,0,0
210,183,0,0,0,0,0,0,0,0,0,-1,1434,841,0,0
217,183,0,0,0,0,0,0,0,0,0,-1,1441,841,0,0
224,183,0,0,0,0,0,0,0,0,0,-1,1448,841,0,0
231,183,0,0,0,0,0,0,0,0,0,-1,1455,841,0,0
238,183,0,0,0,0,0,0,0,0,0,-1,1462,841,0,0
245,183,0,0,0,0,0,0,0,0,0,-1,1469,841,0,0
252,183,0,0,0,0,0,0,0,0,0,-1,1476,841,0,0
259,183,0,0,0,0,0,0,0,0,0,-1,1483,841,0,0
266,183,0,0,0,0,0,0,0,0,0,-1,1490,841,0,0
273,183,0,0,0,0,0,0,0,0,0,-1,1497,841,0,0
280,183,0,0,0,0,0,0,0,0,0,-1,1504,841,0,0
287,183,0,0,0,0,0,0,0,0,0,-1,1511,841,0,0
294,183,0,0,0,0,0,0,0,0,0,-1,1518,841,0,0
301,183,0,0,0,0,0,0,0,0,0,-1,1525,841,0,0
308,183,0,0,0,0,0,0,0,0,0,-1,1532,841,0,0
315,183,0,0,0,0,0,0,0,0,0,-1,1539,841,0,0
322,183,0,0,0,0,0,0,0,0,0,-1,1546,841,0,0
329,183,0,0,0,0,0,0,0,0,0,-1,1553,841,0,0
336,183,0,0,0,0,0,0,0,0,0,-1,1560,841,0,0
343,183,0,0,0,0,0,0,0,0,0,-1,1567,841,0,0
350,183,0,0,0,0,0,0,0,0,0,-1,1574,841,0,0
357,183,0,0,0,0,0,0,0,0,0,-1,1581,841,0,0
364,183,0,0,0,0,0,0,0,0,0,-1,1588,841,0,0
371,183,0,0,0,0,0,0,0,0,0,-1,1595,841,0,0
378,183,0,0,0,0,0,0,0,0,0,-1,1602,841,0,0
385,183,0,0,0,0,0,0,0,0,0,-1,1609,841,0,0
392,183,0,0,0,0,0,0,0,0,0,-1,1616,841,0,0
399,183,0,0,0,0,0,0,0,0,0,-1,1623,841,0,0
406,183,0,0,0,0,0,0,0,0,0,-1,1630,841,0,0
413,183,0,0,0,0,0,0,0,0,0,-1,1637,841,0,0
420,183,0,0,0,0,0,0,0,0,0,-1,1644,841,0,0
427,183,0,0,0,0,0,0,0,0,0,-1,1651,841,0,0
434,183,0,0,0,0,0,0,0,0,0,-1,1658,841,0,0
441,183,0,0,0,0,0,0,0,0,0,-1,1665,841,0,0
448,183,0,0,0,0,0,0,0,0,0,-1,1672,841,0,0
455,183,0,0,0,0,0,0,0,0,0,-1,1679,841,0,0
462,183,0,0,0,0,0,0,0,0,0,-1,1686,841,0,0
469,183,0,0,0,0,0,0,0,0,0,-1,1693,841,0,0
476,183,0,0,0,0,0,0,0,0,0,-1,1700,841,0,0
483,183,0,0,0,0,0,0,0,0,0,-1,1707,841,0,0
490,183,0,0,0,0,0,0,0,0,0,-1,1714,841,0,0
497,183,0,0,0,0,0,0,0,0,0,-1,1721,841,0,0
504,183,0,0,0,0,0,0,0,0,0,-1,1728,841,0,0
511,183,0,0,0,0,0,0,0,0,0,-1,1735,841,0,0
518,183,0,0,0,0,0,0,0,0,0,-1,1742,841,0,0
525,183,0,0,0,0,0,0,0,0,0,-1,1749,841,0,0
532,183,0,0,0,0,0,0,0,0,0,-1,1756,841,0,0
539,183,0,0,0,0,0,0,0,0,0,-1,1763,841,0,0
546,183,0,0,0,0,0,0,0,0,0,-1,1770,841,0,0
553,183,0,0,0,0,0,0,0,0,0,-1,1777,841,0,0
560,183,0,0,0,0,0,0,0,0,0,-1,1784,841,0,0
567,183,0,0,0,0,0,0,0,0,0,-1,1791,841,0,0
574,183,0,0,0,0,0,0,0,0,0,-1,1798,841,0,0
581,183,0,0,0,0,0,0,0,0,0,-1,1805,841,0,0
588,183,0,0,0,0,0,0,0,0,0,-1,1812,841,0,0
595,183,0,0,0,0,0,0,0,0,0,-1,1819,841,0,0
602,183,0,0,0,0,0,0,0,0,0,-1,1826,841,0,0
609,183,27.082,3.43945,0.00145884,-0.00323051,-0.00366825,0.00346773,-0.0052394,-0.501033,0.00506164,0.0394487,1833,841,27.0821,-3.43946
616,183,27.1324,3.30212,0.00136227,-0.00185373,-0.00150455,0.00195639,-0.00244785,-0.376087,0.00254806,0.0367826,1840,841,27.1325,-3.30213
623,183,27.1362,3.09924,0.00109445,-0.000824818,-1.71141e-05,0.0010946,-0.000824971,-0.00891604,0.00111191,0.041443,1847,841,27.1362,-3.09925
630,183,27.3285,2.97046,0.000808996,-0.000131696,0.000868069,0.00132595,-0.000648654,0.537124,0.00116218,0.0417246,1854,841,27.3285,-2.97046
637,183,27.171,3.18335,0.000424751,4.23272e-05,0.00114378,0.00139319,-0.00092611,0.702576,0.00134807,0.035757,1861,841,27.171,-3.18332
644,183,27.0576,3.24139,0.000110627,-4.67633e-06,0.00110608,0.00116056,-0.00105461,0.75936,0.00127941,0.0276836,1868,841,27.0576,-3.24138
651,183,27.0916,3.25793,-4.24972e-05,-0.000245103,0.000925993,0.000787717,-0.00107532,0.730915,0.00107989,0.0240003,1875,841,27.0915,-3.25792
658,183,27.2196,3.14404,-0.000147969,-0.000384671,0.000640204,0.000384732,-0.000917371,0.693998,0.000772451,0.0412898,1882,841,27.2196,-3.14402
665,183,27.3472,3.02557,0,0,0,0,0,0,0,-1,1889,841,27.3471,-3.02557
672,183,21.8582,2.39771,0,0,0,0,0,0,0,-1,1896,841,21.8581,-2.39768
679,183,21.8813,2.55005,-0.000606518,-0.000631583,-4.52125e-05,-0.000572133,-0.000665968,-0.650199,0.000416241,0.0442074,1903,841,21.8814,-2.55002
686,183,21.8817,2.70532,-0.000460995,-0.000704386,-0.000403312,-0.000161419,-0.00100396,-0.638872,0.000622518,0.0200184,1910,841,21.8818,-2.7053
693,183,21.8832,2.98273,-3.52899e-05,-0.000669835,-0.000741332,0.000453809,-0.00115893,-0.583204,0.000960326,0.015844,1917,841,21.8832,-2.98275
700,183,21.8558,3.25067,0.00083046,-0.000774319,-0.000813382,0.00117062,-0.00111448,-0.396101,0.00131944,0.0150885,1924,841,21.8559,-3.25067
707,183,21.8444,3.5061,0.00219147,-0.000526953,-0.000568595,0.00230561,-0.00064109,-0.198102,0.00178947,0.0117635,1931,841,21.8444,-3.5061
714,183,21.8309,3.76086,0.00403618,-0.000365766,-0.000261478,0.00405165,-0.000381243,-0.0591236,0.00283674,0.0153236,1938,841,21.8309,-3.76085
721,183,21.8195,4.0415,0.0072342,-0.0010287,-5.37104e-06,0.0072342,-0.00102871,-0.000650018,0.00519974,0.0138431,1945,841,21.8195,-4.04148
728,183,21.8082,4.30719,0.0114869,-0.00251238,0.000115416,0.0114879,-0.00251333,0.00824369,0.00861938,0.0126171,1952,841,21.8083,-4.30722
735,183,21.821,4.56183,0.0168356,-0.00474826,0.000164174,0.0168369,-0.00474951,0.00760574,0.013098,0.0121471,1959,841,21.8211,-4.56184
742,183,21.8175,4.84259,0.0232683,-0.00805169,6.58334e-05,0.0232684,-0.00805183,0.00210195,0.0187807,0.0112546,1966,841,21.8175,-4.84258
749,183,21.7939,5.22925,0.0310427,-0.0131908,-0.000408602,0.0310464,-0.0131946,-0.00923634,0.0262266,0.0317732,1973,841,21.794,-5.22926
756,183,22.0292,5.61792,0.0405176,-0.0209768,-0.00150449,0.0405544,-0.0210136,-0.0244459,0.0361381,0.0480381,1980,841,22.0292,-5.61793
763,183,22.2667,5.84778,0,0,0,0,0,0,0,-1,1987,841,22.2667,-5.84776
770,183,22.4983,4.5835,0,0,0,0,0,0,0,-1,1994,841,22.4982,-4.58352
777,183,22.6794,3.4577,0,0,0,0,0,0,0,-1,2001,841,22.6794,-3.45769
784,183,0,0,0,0,0,0,0,0,0,-1,2008,841,0,0
791,183,0,0,0,0,0,0,0,0,0,-1,2015,841,0,0
798,183,0,0,0,0,0,0,0,0,0,-1,2022,841,0,0
805,183,0,0,0,0,0,0,0,0,0,-1,2029,841,0,0
812,183,0,0,0,0,0,0,0,0,0,-1,2036,841,0,0
-700,176,0,0,0,0,0,0,0,0,0,-1,524,848,0,0
-693,176,0,0,0,0,0,0,0,0,0,-1,531,848,0,0
-686,176,0,0,0,0,0,0,0,0,0,-1,538,848,0,0
-679,176,0,0,0,0,0,0,0,0,0,-1,545,848,0,0
-672,176,0,0,0,0,0,0,0,0,0,-1,552,848,0,0
-665,176,-15.5983,2.6416,-0.021413,0.00245656,0.0181333,0.0122302,-0.0311867,1.07645,0.0258509,0.047586,559,848,-15.5983,-2.64162
-658,176,-15.7065,2.79584,-0.0108316,-0.00704826,0.0124495,0.00365249,-0.0215323,0.860795,0.0157145,0.0463831,566,848,-15.7066,-2.79584
-651,176,-15.7703,2.72107,-0.0044027,-0.0114782,0.00915324,0.00187269,-0.0177536,0.600991,0.0125068,0.0459203,573,848,-15.7703,-2.72108
-644,176,-15.6804,2.46484,-0.000337872,-0.013026,0.00706829,0.00281584,-0.0161797,0.419671,0.0118373,0.0433726,580,848,-15.6804,-2.46483
-637,176,-15.6157,2.20844,0.00206017,-0.0128705,0.00565697,0.0039614,-0.0147718,0.324225,0.0114001,0.0455469,587,848,-15.6157,-2.20845
-630,176,-15.6708,2.05573,0.00320865,-0.011699,0.00467914,0.00455561,-0.013046,0.280287,0.010549,0.0427342,594,848,-15.6707,-2.05574
-623,176,-14.7645,2.79401,0,0,0,0,0,0,0,-1,601,848,-14.7645,-2.79401
-616,176,-14.7644,2.547,0.00332191,-0.00846796,0.00318577,0.00412767,-0.00927372,0.247731,0.00792516,0.0292148,608,848,-14.7644,-2.54701
-609,176,-14.8236,2.37939,0.00330945,-0.00712646,0.00252098,0.00388653,-0.00770353,0.225032,0.00681141,0.0119311,615,848,-14.8236,-2.37942
-602,176,-14.8445,2.11316,0.00308123,-0.00471827,0.0024511,0.00378756,-0.0054246,0.280566,0.00534656,0.0117581,622,848,-14.8445,-2.11318
-595,176,-14.8557,1.85333,0.00188904,-0.00313222,0.0020321,0.00260838,-0.00385156,0.340224,0.0037526,0.0106822,629,848,-14.8556,-1.85331
-588,176,-14.8253,1.6026,0.000916425,-0.00180904,0.00182795,0.0018337,-0.00272632,0.465091,0.00264949,0.0112381,636,848,-14.8252,-1.6026
-581,176,-14.8328,1.38239,0.000199877,-0.000846134,0.00142133,0.00119137,-0.00183763,0.609102,0.00176201,0.011004,643,848,-14.8328,-1.3824
-574,176,-14.8261,1.14685,-0.000516611,-0.000494431,0.00111731,0.00061184,-0.00162288,0.790361,0.00133351,0.013725,650,848,-14.8261,-1.14683
-567,176,-14.7594,0.979126,-0.00109432,-0.000147154,0.000947419,0.000438453,-0.00167993,1.01717,0.00129116,0.0306283,657,848,-14.7594,-0.979113
-560,176,-14.913,0.667542,-0.00154192,0.000172312,0.000627876,0.000377682,-0.00174729,1.25468,0.00130904,0.0237744,664,848,-14.9129,-0.667558
-553,176,-14.7716,0.312317,-0.00196627,0.000161386,0.000209315,0.000181782,-0.00198667,1.47366,0.00138901,0.0426502,671,848,-14.7716,-0.31231
-546,176,-14.4562,-0.0910645,0,0,0,0,0,0,0,-1,678,848,-14.4562,0.0910405
-539,176,-18.4716,1.87219,0,0,0,0,0,0,0,-1,685,848,-18.4716,-1.87219
-532,176,-18.662,1.67731,-0.00188613,0.000660081,-0.000728845,0.00085395,-0.00208,-1.31082,0.00174252,0.0427455,692,848,-18.662,-1.67729
-525,176,-18.9177,1.39758,-0.00163228,0.000755453,-0.00112127,0.00119944,-0.00207626,-1.19377,0.00191368,0.0456569,699,848,-18.9177,-1.3976
-518,176,-18.9833,1.35272,-0.00103095,0.000707174,-0.00157949,0.0016409,-0.00196468,-1.0369,0.00208448,0.0366088,706,848,-18.9834,-1.35271
-511,176,-19.0685,1.27289,0.000432548,0.000360504,-0.00204161,0.00243845,-0.0016454,-0.776577,0.00237259,0.0367165,713,848,-19.0686,-1.27287
-504,176,-19.1684,1.15875,0.00322019,-0.000557676,-0.00261269,0.00455526,-0.00189275,-0.472406,0.00382709,0.0408606,720,848,-19.1684,-1.15874
-497,176,-19.1714,1.06714,0.00849786,-0.00246094,-0.00344953,0.00949326,-0.00345634,-0.28093,0.00774253,0.0421663,727,848,-19.1715,-1.06716
-490,176,-19.008,1.03491,0.0162765,-0.00535207,-0.00417928,0.017056,-0.00613154,-0.184389,0.0138737,0.041016,734,848,-19.008,-1.03489
-483,176,0,0,0,0,0,0,0,0,0,-1,741,848,0,0
-476,176,0,0,0,0,0,0,0,0,0,-1,748,848,0,0
-469,176,0,0,0,0,0,0,0,0,0,-1,755,848,0,0
-462,176,0,0,0,0,0,0,0,0,0,-1,762,848,0,0
-455,176,0,0,0,0,0,0,0,0,0,-1,769,848,0,0
-448,176,0,0,0,0,0,0,0,0,0,-1,776,848,0,0
-441,176,0,0,0,0,0,0,0,0,0,-1,783,848,0,0
-434,176,0,0,0,0,0,0,0,0,0,-1,790,848,0,0
-427,176,0,0,0,0,0,0,0,0,0,-1,797,848,0,0
-420,176,0,0,0,0,0,0,0,0,0,-1,804,848,0,0
-413,176,0,0,0,0,0,0,0,0,0,-1,811,848,0,0
-406,176,0,0,0,0,0,0,0,0,0,-1,818,848,0,0
-399,176,0,0,0,0,0,0,0,0,0,-1,825,848,0,0
-392,176,0,0,0,0,0,0,0,0,0,-1,832,848,0,0
-385,176,0,0,0,0,0,0,0,0,0,-1,839,848,0,0
-378,176,0,0,0,0,0,0,0,0,0,-1,846,848,0,0
-371,176,0,0,0,0,0,0,0,0,0,-1,853,848,0,0
-364,176,0,0,0,0,0,0,0,0,0,-1,860,848,0,0
-357,176,0,0,0,0,0,0,0,0,0,-1,867,848,0,0
-350,176,0,0,0,0,0,0,0,0,0,-1,874,848,0,0
-343,176,0,0,0,0,0,0,0,0,0,-1,881,848,0,0
-336,176,0,0,0,0,0,0,0,0,0,-1,888,848,0,0
-329,176,0,0,0,0,0,0,0,0,0,-1,895,848,0,0
-322,176,0,0,0,0,0,0,0,0,0,-1,902,848,0,0
-315,176,0,0,0,0,0,0,0,0,0,-1,909,848,0,0
-308,176,0,0,0,0,0,0,0,0,0,-1,916,848,0,0
-301,176,0,0,0,0,0,0,0,0,0,-1,923,848,0,0
-294,176,0,0,0,0,0,0,0,0,0,-1,930,848,0,0
-287,176,0,0,0,0,0,0,0,0,0,-1,937,848,0,0
-280,176,0,0,0,0,0,0,0,0,0,-1,944,848,0,0
-273,176,0,0,0,0,0,0,0,0,0,-1,951,848,0,0
-266,176,0,0,0,0,0,0,0,0,0,-1,958,848,0,0
-259,176,0,0,0,0,0,0,0,0,0,-1,965,848,0,0
-252,176,0,0,0,0,0,0,0,0,0,-1,972,848,0,0
-245,176,0,0,0,0,0,0,0,0,0,-1,979,848,0,0
-238,176,0,0,0,0,0,0,0,0,0,-1,986,848,0,0
-231,176,0,0,0,0,0,0,0,0,0,-1,993,848,0,0
-224,176,0,0,0,0,0,0,0,0,0,-1,1000,848,0,0
-217,176,0,0,0,0,0,0,0,0,0,-1,1007,848,0,0
-210,176,0,0,0,0,0,0,0,0,0,-1,1014,848,0,0
-203,176,0,0,0,0,0,0,0,0,0,-1,1021,848,0,0
-196,176,0,0,0,0,0,0,0,0,0,-1,1028,848,0,0
-189,176,0,0,0,0,0,0,0,0,0,-1,1035,848,0,0
-182,176,0,0,0,0,0,0,0,0,0,-1,1042,848,0,0
-175,176,0,0,0,0,0,0,0,0,0,-1,1049,848,0,0
-168,176,0,0,0,0,0,0,0,0,0,-1,1056,848,0,0
-161,176,0,0,0,0,0,0,0,0,0,-1,1063,848,0,0
-154,176,0,0,0,0,0,0,0,0,0,-1,1070,848,0,0
-147,176,0,0,0,0,0,0,0,0,0,-1,1077,848,0,0
-140,176,0,0,0,0,0,0,0,0,0,-1,1084,848,0,0
-133,176,0,0,0,0,0,0,0,0,0,-1,1091,848,0,0
-126,176,0,0,0,0,0,0,0,0,0,-1,1098,848,0,0
-119,176,0,0,0,0,0,0,0,0,0,-1,1105,848,0,0
-112,176,0,0,0,0,0,0,0,0,0,-1,1112,848,0,0
-105,176,0,0,0,0,0,0,0,0,0,-1,1119,848,0,0
-98,176,0,0,0,0,0,0,0,0,0,-1,1126,848,0,0
-91,176,0,0,0,0,0,0,0,0,0,-1,1133,848,0,0
-84,176,0,0,0,0,0,0,0,0,0,-1,1140,848,0,0
-77,176,0,0,0,0,0,0,0,0,0,-1,1147,848,0,0
-70,176,0,0,0,0,0,0,0,0,0,-1,1154,848,0,0
-63,176,0,0,0,0,0,0,0,0,0,-1,1161,848,0,0
-56,176,0,0,0,0,0,0,0,0,0,-1,1168,848,0,0
-49,176,0,0,0,0,0,0,0,0,0,-1,1175,848,0,0
-42,176,0,0,0,0,0,0,0,0,0,-1,1182,848,0,0
-35,176,0,0,0,0,0,0,0,0,0,-1,1189,848,0,0
-28,176,0,0,0,0,0,0,0,0,0,-1,1196,848,0,0
-21,176,0,0,0,0,0,0,0,0,0,-1,1203,848,0,0
-14,176,0,0,0,0,0,0,0,0,0,-1,1210,848,0,0
-7,176,0,0,0,0,0,0,0,0,0,-1,1217,848,0,0
0,176,0,0,0,0,0,0,0,0,0,-1,1224,848,0,0
7,176,0,0,0,0,0,0,0,0,0,-1,1231,848,0,0
14,176,0,0,0,0,0,0,0,0,0,-1,1238,848,0,0
21,176,0,0,0,0,0,0,0,0,0,-1,1245,848,0,0
28,176,0,0,0,0,0,0,0,0,0,-1,1252,848,0,0
35,176,0,0,0,0,0,0,0,0,0,-1,1259,848,0,0
42,176,0,0,0,0,0,0,0,0,0,-1,1266,848,0,0
49,176,0,0,0,0,0,0,0,0,0,-1,1273,848,0,0
56,176,0,0,0,0,0,0,0,0,0,-1,1280,848,0,0
63,176,0,0,0,0,0,0,0,0,0,-1,1287,848,0,0
70,176,0,0,0,0,0,0,0,0,0,-1,1294,848,0,0
77,176,0,0,0,0,0,0,0,0,0,-1,1301,848,0,0
84,176,0,0,0,0,0,0,0,0,0,-1,1308,848,0,0
91,176,0,0,0,0,0,0,0,0,0,-1,1315,848,0,0
98,176,0,0,0,0,0,0,0,0,0,-1,1322,848,0,0
105,176,0,0,0,0,0,0,0,0,0,-1,1329,848,0,0
112,176,0,0,0,0,0,0,0,0,0,-1,1336,848,0,0
119,176,0,0,0,0,0,0,0,0,0,-1,1343,848,0,0
126,176,0,0,0,0,0,0,0,0,0,-1,1350,848,0,0
133,176,0,0,0,0,0,0,0,0,0,-1,1357,848,0,0
140,176,0,0,0,0,0,0,0,0,0,-1,1364,848,0,0
147,176,0,0,0,0,0,0,0,0,0,-1,1371,848,0,0
154,176,0,0,0,0,0,0,0,0,0,-1,1378,848,0,0
161,176,0,0,0,0,0,0,0,0,0,-1,1385,848,0,0
168,176,0,0,0,0,0,0,0,0,0,-1,1392,848,0,0
175,176,0,0,0,0,0,0,0,0,0,-1,1399,848,0,0
182,176,0,0,0,0,0,0,0,0,0,-1,1406,848,0,0
189,176,0,0,0,0,0,0,0,0,0,-1,1413,848,0,0
196,176,0,0,0,0,0,0,0,0,0,-1,1420,848,0,0
203,176,0,0,0,0,0,0,0,0,0,-1,1427,848,0,0
210,176,0,0,0,0,0,0,0,0,0,-1,1434,848,0,0
217,176,0,0,0,0,0,0,0,0,0,-1,1441,848,0,0
224,176,0,0,0,0,0,0,0,0,0,-1,1448,848,0,0
231,176,0,0,0,0,0,0,0,0,0,-1,1455,848,0,0
238,176,0,0,0,0,0,0,0,0,0,-1,1462,848,0,0
245,176,0,0,0,0,0,0,0,0,0,-1,1469,848,0,0
252,176,0,0,0,0,0,0,0,0,0,-1,1476,848,0,0
259,176,0,0,0,0,0,0,0,0,0,-1,1483,848,0,0
266,176,0,0,0,0,0,0,0,0,0,-1,1490,848,0,0
273,176,0,0,0,0,0,0,0,0,0,-1,1497,848,0,0
280,176,0,0,0,0,0,0,0,0,0,-1,1504,848,0,0
287,176,0,0,0,0,0,0,0,0,0,-1,1511,848,0,0
294,176,0,0,0,0,0,0,0,0,0,-1,1518,848,0,0
301,176,0,0,0,0,0,0,0,0,0,-1,1525,848,0,0
308,176,0,0,0,0,0,0,0,0,0,-1,1532,848,0,0
315,176,0,0,0,0,0,0,0,0,0,-1,1539,848,0,0
322,176,0,0,0,0,0,0,0,0,0,-1,1546,848,0,0
329,176,0,0,0,0,0,0,0,0,0,-1,1553,848,0,0
336,176,0,0,0,0,0,0,0,0,0,-1,1560,848,0,0
343,176,0,0,0,0,0,0,0,0,0,-1,1567,848,0,0
350,176,0,0,0,0,0,0,0,0,0,-1,1574,848,0,0
357,176,0,0,0,0,0,0,0,0,0,-1,1581,848,0,0
364,176,0,0,0,0,0,0,0,0,0,-1,1588,848,0,0
371,176,0,0,0,0,0,0,0,0,0,-1,1595,848,0,0
378,176,0,0,0,0,0,0,0,0,0,-1,1602,848,0,0
385,176,0,0,0,0,0,0,0,0,0,-1,1609,848,0,0
392,176,0,0,0,0,0,0,0,0,0,-1,1616,848,0,0
399,176,0,0,0,0,0,0,0,0,0,-1,1623,848,0,0
406,176,0,0,0,0,0,0,0,0,0,-1,1630,848,0,0
413,176,0,0,0,0,0,0,0,0,0,-1,1637,848,0,0
420,176,0,0,0,0,0,0,0,0,0,-1,1644,848,0,0
427,176,0,0,0,0,0,0,0,0,0,-1,1651,848,0,0
434,176,0,0,0,0,0,0,0,0,0,-1,1658,848,0,0
441,176,0,0,0,0,0,0,0,0,0,-1,1665,848,0,0
448,176,0,0,0,0,0,0,0,0,0,-1,1672,848,0,0
455,176,0,0,0,0,0,0,0,0,0,-1,1679,848,0,0
462,176,0,0,0,0,0,0,0,0,0,-1,1686,848,0,0
469,176,0,0,0,0,0,0,0,0,0,-1,1693,848,0,0
476,176,0,0,0,0,0,0,0,0,0,-1,1700,848,0,0
483,176,0,0,0,0,0,0,0,0,0,-1,1707,848,0,0
490,176,0,0,0,0,0,0,0,0,0,-1,1714,848,0,0
497,176,0,0,0,0,0,0,0,0,0,-1,1721,848,0,0
504,176,0,0,0,0,0,0,0,0,0,-1,1728,848,0,0
511,176,0,0,0,0,0,0,0,0,0,-1,1735,848,0,0
518,176,0,0,0,0,0,0,0,0,0,-1,1742,848,0,0
525,176,0,0,0,0,0,0,0,0,0,-1,1749,848,0,0
532,176,0,0,0,0,0,0,0,0,0,-1,1756,848,0,0
539,176,0,0,0,0,0,0,0,0,0,-1,1763,848,0,0
546,176,0,0,0,0,0,0,0,0,0,-1,1770,848,0,0
553,176,0,0,0,0,0,0,0,0,0,-1,1777,848,0,0
560,176,0,0,0,0,0,0,0,0,0,-1,1784,848,0,0
567,176,0,0,0,0,0,0,0,0,0,-1,1791,848,0,0
574,176,0,0,0,0,0,0,0,0,0,-1,1798,848,0,0
581,176,0,0,0,0,0,0,0,0,0,-1,1805,848,0,0
588,176,0,0,0,0,0,0,0,0,0,-1,1812,848,0,0
595,176,0,0,0,0,0,0,0,0,0,-1,1819,848,0,0
602,176,0,0,0,0,0,0,0,0,0,-1,1826,848,0,0
609,176,27.0427,3.44421,0.000127189,-0.00389297,-0.00433013,0.00289105,-0.00665682,-0.568095,0.00565358,0.0396619,1833,848,27.0427,-3.44424
616,176,27.0563,3.37683,0.000300547,-0.00270969,-0.00226694,0.00151653,-0.00392567,-0.49234,0.00324306,0.0393156,1840,848,27.0563,-3.37684
623,176,27.0487,3.25317,0.000362107,-0.00167766,-0.000763222,0.000616063,-0.00193162,-0.321219,0.00153488,0.0441079,1847,848,27.0488,-3.25315
630,176,27.2988,3.06775,0.000423979,-0.000771306,0.000271765,0.000482867,-0.000830195,0.213389,0.000766886,0.0402749,1854,848,27.2988,-3.06776
637,176,27.2061,3.14484,0.000281402,-0.000357804,0.000707638,0.000738264,-0.000814665,0.573286,0.000896946,0.0316359,1861,848,27.2061,-3.14486
644,176,27.058,3.19873,0.000118462,-0.000230369,0.000791203,0.000754245,-0.000866153,0.676911,0.00093628,0.030765,1868,848,27.058,-3.1987
651,176,27.0654,3.23676,2.37383e-05,-0.000318203,0.000678464,0.000552442,-0.000846907,0.66197,0.000813855,0.0307203,1875,848,27.0654,-3.23676
658,176,27.131,3.21851,-6.81314e-05,-0.000371112,0.000450277,0.000255456,-0.000694699,0.623127,0.000567775,0.035456,1882,848,27.131,-3.21849
665,176,27.1742,3.36353,0,0,0,0,0,0,0,-1,1889,848,27.1742,-3.3635
672,176,16.9304,2.80719,0,0,0,0,0,0,0,-1,1896,848,16.9305,-2.80719
679,176,22.3419,2.43353,0,0,0,0,0,0,0,-1,1903,848,22.3419,-2.4335
686,176,22.2505,2.75415,-0.000346067,-0.000476867,-0.000395709,-1.039e-05,-0.000812544,-0.703502,0.000538266,0.0281327,1910,848,22.2505,-2.75413
693,176,22.174,3.04309,-3.58655e-05,-0.00045987,-0.000684411,0.000468626,-0.000964362,-0.635205,0.000843677,0.0144941,1917,848,22.1739,-3.0431
700,176,22.1428,3.28894,0.000586913,-0.000572207,-0.000761161,0.000964043,-0.000949337,-0.460015,0.0011047,0.0162932,1924,848,22.1429,-3.28895
707,176,22.1488,3.52539,0.0015909,-0.000388211,-0.000597307,0.00175719,-0.000554509,-0.271536,0.00139357,0.013452,1931,848,22.1488,-3.52537
714,176,22.1506,3.79559,0.00298635,-0.000264809,-0.000407009,0.00303652,-0.000314987,-0.122667,0.0021371,0.0112395,1938,848,22.1506,-3.79561
721,176,22.1029,4.04144,0.00566144,-0.000722119,-0.000192173,0.00566722,-0.000727899,-0.030068,0.00404268,0.010637,1945,848,22.1029,-4.04142
728,176,22.0961,4.30933,0.00926972,-0.001933,-0.000144366,0.00927158,-0.00193486,-0.0128838,0.00691681,0.013615,1952,848,22.096,-4.30931
735,176,22.0944,4.54706,0.0138869,-0.00381322,-0.00018365,0.0138888,-0.00381513,-0.0103741,0.0107588,0.0136403,1959,848,22.0944,-4.54707
742,176,22.1207,4.79816,0.0194008,-0.00656984,-0.000376356,0.0194062,-0.00657529,-0.0144876,0.0155982,0.0171863,1966,848,22.1207,-4.79817
749,176,22.1171,5.08734,0.0260163,-0.0109146,-0.000939856,0.0260402,-0.0109385,-0.0254272,0.0219351,0.0283846,1973,848,22.1171,-5.08735
756,176,22.6515,5.0932,0.0340757,-0.0175931,-0.00209725,0.0341607,-0.0176781,-0.0405014,0.0304293,0.0460277,1980,848,22.6515,-5.09323
763,176,23.1675,5.18335,0,0,0,0,0,0,0,-1,1987,848,23.1675,-5.18337
770,176,22.0106,5.27985,0.0537441,-0.0410564,-0.00739923,0.0543181,-0.0416305,-0.0774257,0.0555571,0.0481405,1994,848,22.0106,-5.27984
777,176,22.2689,4.24261,0.0646141,-0.0596209,-0.0124014,0.0658399,-0.0608467,-0.0985269,0.0731615,0.0459453,2001,848,22.269,-4.24261
784,176,0,0,0,0,0,0,0,0,0,-1,2008,848,0,0
791,176,0,0,0,0,0,0,0,0,0,-1,2015,848,0,0
798,176,0,0,0,0,0,0,0,0,0,-1,2022,848,0,0
805,176,0,0,0,0,0,0,0,0,0,-1,2029,848,0,0
812,176,0,0,0,0,0,0,0,0,0,-1,2036,848,0,0
-700,169,0,0,0,0,0,0,0,0,0,-1,524,855,0,0
-693,169,0,0,0,0,0,0,0,0,0,-1,531,855,0,0
-686,169,0,0,0,0,0,0,0,0,0,-1,538,855,0,0
-679,169,0,0,0,0,0,0,0,0,0,-1,545,855,0,0
-672,169,0,0,0,0,0,0,0,0,0,-1,552,855,0,0
-665,169,-16.2941,2.49634,0,0,0,0,0,0,0,-1,559,855,-16.2941,-2.49631
-658,169,-17.1801,2.005,0,0,0,0,0,0,0,-1,566,855,-17.1801,-2.00501
-651,169,-16.9132,2.1073,-0.00557865,-0.00790901,0.00664234,-7.45058e-08,-0.0134876,0.698573,0.0089917,0.0485057,573,855,-16.9132,-2.10728
-644,169,-16.4589,2.38544,-0.00108328,-0.00996566,0.00513245,0.00126274,-0.0123117,0.428739,0.00865945,0.0454219,580,855,-16.4589,-2.38547
-637,169,-15.9969,2.51471,0.00169578,-0.0103767,0.00421791,0.00302343,-0.0117044,0.304948,0.00898197,0.044072,587,855,-15.9969,-2.51473
-630,169,-15.6219,2.52283,0.00311769,-0.00974422,0.00365696,0.00408475,-0.0107113,0.258524,0.00882344,0.0457048,594,855,-15.6219,-2.52281
-623,169,-15.3412,2.53021,0.00362138,-0.00848096,0.00328901,0.00445746,-0.00931704,0.248932,0.00811601,0.0384345,601,855,-15.3412,-2.53021
-616,169,-15.0829,2.54681,0.00349566,-0.00746631,0.00270456,0.00412662,-0.00809727,0.229195,0.0071805,0.022154,608,855,-15.0829,-2.54679
-609,169,-15.0753,2.35553,0.00351224,-0.006505,0.0022841,0.00400848,-0.00700123,0.21393,0.00643426,0.0134156,615,855,-15.0753,-2.35553
-602,169,-15.0854,2.10974,0.00328203,-0.0042779,0.00244649,0.00400467,-0.00500054,0.287211,0.00520975,0.0129704,622,855,-15.0855,-2.10977
-595,169,-15.105,1.84406,0.00192382,-0.00291551,0.00203883,0.00266827,-0.00365996,0.350093,0.00366853,0.0116964,629,855,-15.1051,-1.84406
-588,169,-15.0782,1.60785,0.000850608,-0.00185513,0.00180036,0.00174975,-0.00275427,0.463186,0.00262187,0.00950052,636,855,-15.0782,-1.60787
-581,169,-15.0881,1.38965,9.25152e-05,-0.000972104,0.00140318,0.00106096,-0.00194055,0.604105,0.00175755,0.0103571,643,855,-15.0881,-1.38967
-574,169,-15.1686,1.1557,-0.000695111,-0.000626768,0.00112291,0.000462492,-0.00178437,0.800609,0.00137002,0.0146224,650,855,-15.1686,-1.15572
-567,169,-15.0751,1.00562,-0.00127093,-0.000321981,0.000979844,0.000292221,-0.00188514,1.01088,0.00136463,0.028219,657,855,-15.0751,-1.00562
-560,169,-15.1442,0.771484,-0.00166104,-5.98298e-05,0.000715775,0.000213485,-0.00193435,1.20604,0.0013663,0.0285998,664,855,-15.1442,-0.771479
-553,169,-15.0475,0.343201,-0.00198526,-0.000130585,0.000358244,-6.37933e-05,-0.00205205,1.38647,0.00134727,0.0393889,671,855,-15.0475,-0.343215
-546,169,-14.6592,-0.16864,0,0,0,0,0,0,0,-1,678,855,-14.6592,0.168617
-539,169,-18.9128,1.44348,0,0,0,0,0,0,0,-1,685,855,-18.9128,-1.44348
-532,169,-18.9788,1.31622,-0.0018435,0.000212181,-0.000530162,0.000340857,-0.00197217,-1.33269,0.00144189,0.038239,692,855,-18.9788,-1.3162
-525,169,-19.0504,1.19055,-0.00160263,0.00019416,-0.000910627,0.000574966,-0.00198344,-1.17472,0.00154991,0.0447002,699,855,-19.0504,-1.19056
-518,169,-19.1353,1.13049,-0.000949325,-6.4525e-05,-0.00135935,0.000922598,-0.00193645,-0.942718,0.00168491,0.0391479,706,855,-19.1353,-1.13052
-511,169,-19.2253,1.09198,0.000726774,-0.000762572,-0.00186239,0.00198785,-0.00202365,-0.59521,0.00231607,0.0392843,713,855,-19.2253,-1.09198
-504,169,-19.1102,1.03638,0.0038934,-0.0023444,-0.00252261,0.00478587,-0.00323688,-0.340047,0.00466063,0.0415305,720,855,-19.1102,-1.03638
-497,169,-19.0491,0.824829,0.0101329,-0.00516617,-0.00358268,0.0109303,-0.00596358,-0.219005,0.00989321,0.0407964,727,855,-19.0491,-0.824812
-490,169,0,0,0,0,0,0,0,0,0,-1,734,855,0,0
-483,169,0,0,0,0,0,0,0,0,0,-1,741,855,0,0
-476,169,0,0,0,0,0,0,0,0,0,-1,748,855,0,0
-469,169,0,0,0,0,0,0,0,0,0,-1,755,855,0,0
-462,169,0,0,0,0,0,0,0,0,0,-1,762,855,0,0
-455,169,0,0,0,0,0,0,0,0,0,-1,769,855,0,0
-448,169,0,0,0,0,0,0,0,0,0,-1,776,855,0,0
-441,169,0,0,0,0,0,0,0,0,0,-1,783,855,0,0
-434,169,0,0,0,0,0,0,0,0,0,-1,790,855,0,0
-427,169,0,0,0,0,0,0,0,0,0,-1,797,855,0,0
-420,169,0,0,0,0,0,0,0,0,0,-1,804,855,0,0
-413,169,0,0,0,0,0,0,0,0,0,-1,811,855,0,0
-406,169,0,0,0,0,0,0,0,0,0,-1,818,855,0,0
-399,169,0,0,0,0,0,0,0,0,0,-1,825,855,0,0
-392,169,0,0,0,0,0,0,0,0,0,-1,832,855,0,0
-385,169,0,0,0,0,0,0,0,0,0,-1,839,855,0,0
-378,169,0,0,0,0,0,0,0,0,0,-1,846,855,0,0
-371,169,0,0,0,0,0,0,0,0,0,-1,853,855,0,0
-364,169,0,0,0,0,0,0,0,0,0,-1,860,855,0,0
-357,169,0,0,0,0,0,0,0,0,0,-1,867,855,0,0
-350,169,0,0,0,0,0,0,0,0,0,-1,874,855,0,0
-343,169,0,0,0,0,0,0,0,0,0,-1,881,855,0,0
-336,169,0,0,0,0,0,0,0,0,0,-1,888,855,0,0
-329,169,0,0,0,0,0,0,0,0,0,-1,895,855,0,0
-322,169,0,0,0,0,0,0,0,0,0,-1,902,855,0,0
-315,169,0,0,0,0,0,0,0,0,0,-1,909,855,0,0
-308,169,0,0,0,0,0,0,0,0,0,-1,916,855,0,0
-301,169,0,0,0,0,0,0,0,0,0,-1,923,855,0,0
-294,169,0,0,0,0,0,0,0,0,0,-1,930,855,0,0
-287,169,0,0,0,0,0,0,0,0,0,-1,937,855,0,0
-280,169,0,0,0,0,0,0,0,0,0,-1,944,855,0,0
-273,169,0,0,0,0,0,0,0,0,0,-1,951,855,0,0
-266,169,0,0,0,0,0,0,0,0,0,-1,958,855,0,0
-259,169,0,0,0,0,0,0,0,0,0,-1,965,855,0,0
-252,169,0,0,0,0,0,0,0,0,0,-1,972,855,0,0
-245,169,0,0,0,0,0,0,0,0,0,-1,979,855,0,0
-238,169,0,0,0,0,0,0,0,0,0,-1,986,855,0,0
-231,169,0,0,0,0,0,0,0,0,0,-1,993,855,0,0
-224,169,0,0,0,0,0,0,0,0,0,-1,1000,855,0,0
-217,169,0,0,0,0,0,0,0,0,0,-1,1007,855,0,0
-210,169,0,0,0,0,0,0,0,0,0,-1,1014,855,0,0
-203,169,0,0,0,0,0,0,0,0,0,-1,1021,855,0,0
-196,169,0,0,0,0,0,0,0,0,0,-1,1028,855,0,0
-189,169,0,0,0,0,0,0,0,0,0,-1,1035,855,0,0
-182,169,0,0,0,0,0,0,0,0,0,-1,1042,855,0,0
-175,169,0,0,0,0,0,0,0,0,0,-1,1049,855,0,0
-168,169,0,0,0,0,0,0,0,0,0,-1,1056,855,0,0
-161,169,0,0,0,0,0,0,0,0,0,-1,1063,855,0,0
-154,169,0,0,0,0,0,0,0,0,0,-1,1070,855,0,0
-147,169,0,0,0,0,0,0,0,0,0,-1,1077,855,0,0
-140,169,0,0,0,0,0,0,0,0,0,-1,1084,855,0,0
-133,169,0,0,0,0,0,0,0,0,0,-1,1091,855,0,0
-126,169,0,0,0,0,0,0,0,0,0,-1,1098,855,0,0
-119,169,0,0,0,0,0,0,0,0,0,-1,1105,855,0,0
-112,169,0,0,0,0,0,0,0,0,0,-1,1112,855,0,0
-105,169,0,0,0,0,0,0,0,0,0,-1,1119,855,0,0
-98,169,0,0,0,0,0,0,0,0,0,-1,1126,855,0,0
-91,169,0,0,0,0,0,0,0,0,0,-1,1133,855,0,0
-84,169,0,0,0,0,0,0,0,0,0,-1,1140,855,0,0
-77,169,0,0,0,0,0,0,0,0,0,-1,1147,855,0,0
-70,169,0,0,0,0,0,0,0,0,0,-1,1154,855,0,0
-63,169,0,0,0,0,0,0,0,0,0,-1,1161,855,0,0
-56,169,0,0,0,0,0,0,0,0,0,-1,1168,855,0,0
-49,169,0,0,0,0,0,0,0,0,0,-1,1175,855,0,0
-42,169,0,0,0,0,0,0,0,0,0,-1,1182,855,0,0
-35,169,0,0,0,0,0,0,0,0,0,-1,1189,855,0,0
-28,169,0,0,0,0,0,0,0,0,0,-1,1196,855,0,0
-21,169,0,0,0,0,0,0,0,0,0,-1,1203,855,0,0
-14,169,0,0,0,0,0,0,0,0,0,-1,1210,855,0,0
-7,169,0,0,0,0,0,0,0,0,0,-1,1217,855,0,0
0,169,0,0,0,0,0,0,0,0,0,-1,1224,855,0,0
7,169,0,0,0,0,0,0,0,0,0,-1,1231,855,0,0
14,169,0,0,0,0,0,0,0,0,0,-1,1238,855,0,0
21,169,0,0,0,0,0,0,0,0,0,-1,1245,855,0,0
28,169,0,0,0,0,0,0,0,0,0,-1,1252,855,0,0
35,169,0,0,0,0,0,0,0,0,0,-1,1259,855,0,0
42,169,0,0,0,0,0,0,0,0,0,-1,1266,855,0,0
49,169,0,0,0,0,0,0,0,0,0,-1,1273,855,0,0
56,169,0,0,0,0,0,0,0,0,0,-1,1280,855,0,0
63,169,0,0,0,0,0,0,0,0,0,-1,1287,855,0,0
70,169,0,0,0,0,0,0,0,0,0,-1,1294,855,0,0
77,169,0,0,0,0,0,0,0,0,0,-1,1301,855,0,0
84,169,0,0,0,0,0,0,0,0,0,-1,1308,855,0,0
91,169,0,0,0,0,0,0,0,0,0,-1,1315,855,0,0
98,169,0,0,0,0,0,0,0,0,0,-1,1322,855,0,0
105,169,0,0,0,0,0,0,0,0,0,-1,1329,855,0,0
112,169,0,0,0,0,0,0,0,0,0,-1,1336,855,0,0
119,169,0,0,0,0,0,0,0,0,0,-1,1343,855,0,0
126,169,0,0,0,0,0,0,0,0,0,-1,1350,855,0,0
133,169,0,0,0,0,0,0,0,0,0,-1,1357,855,0,0
140,169,0,0,0,0,0,0,0,0,0,-1,1364,855,0,0
147,169,0,0,0,0,0,0,0,0,0,-1,1371,855,0,0
154,169,0,0,0,0,0,0,0,0,0,-1,1378,855,0,0
161,169,0,0,0,0,0,0,0,0,0,-1,1385,855,0,0
168,169,0,0,0,0,0,0,0,0,0,-1,1392,855,0,0
175,169,0,0,0,0,0,0,0,0,0,-1,1399,855,0,0
182,169,0,0,0,0,0,0,0,0,0,-1,1406,855,0,0
189,169,0,0,0,0,0,0,0,0,0,-1,1413,855,0,0
196,169,0,0,0,0,0,0,0,0,0,-1,1420,855,0,0
203,169,0,0,0,0,0,0,0,0,0,-1,1427,855,0,0
210,169,0,0,0,0,0,0,0,0,0,-1,1434,855,0,0
217,169,0,0,0,0,0,0,0,0,0,-1,1441,855,0,0
224,169,0,0,0,0,0,0,0,0,0,-1,1448,855,0,0
231,169,0,0,0,0,0,0,0,0,0,-1,1455,855,0,0
238,169,0,0,0,0,0,0,0,0,0,-1,1462,855,0,0
245,169,0,0,0,0,0,0,0,0,0,-1,1469,855,0,0
252,169,0,0,0,0,0,0,0,0,0,-1,1476,855,0,0
259,169,0,0,0,0,0,0,0,0,0,-1,1483,855,0,0
266,169,0,0,0,0,0,0,0,0,0,-1,1490,855,0,0
273,169,0,0,0,0,0,0,0,0,0,-1,1497,855,0,0
280,169,0,0,0,0,0,0,0,0,0,-1,1504,855,0,0
287,169,0,0,0,0,0,0,0,0,0,-1,1511,855,0,0
294,169,0,0,0,0,0,0,0,0,0,-1,1518,855,0,0
301,169,0,0,0,0,0,0,0,0,0,-1,1525,855,0,0
308,169,0,0,0,0,0,0,0,0,0,-1,1532,855,0,0
315,169,0,0,0,0,0,0,0,0,0,-1,1539,855,0,0
322,169,0,0,0,0,0,0,0,0,0,-1,1546,855,0,0
329,169,0,0,0,0,0,0,0,0,0,-1,1553,855,0,0
336,169,0,0,0,0,0,0,0,0,0,-1,1560,855,0,0
343,169,0,0,0,0,0,0,0,0,0,-1,1567,855,0,0
350,169,0,0,0,0,0,0,0,0,0,-1,1574,855,0,0
357,169,0,0,0,0,0,0,0,0,0,-1,1581,855,0,0
364,169,0,0,0,0,0,0,0,0,0,-1,1588,855,0,0
371,169,0,0,0,0,0,0,0,0,0,-1,1595,855,0,0
378,169,0,0,0,0,0,0,0,0,0,-1,1602,855,0,0
385,169,0,0,0,0,0,0,0,0,0,-1,1609,855,0,0
392,169,0,0,0,0,0,0,0,0,0,-1,1616,855,0,0
399,169,0,0,0,0,0,0,0,0,0,-1,1623,855,0,0
406,169,0,0,0,0,0,0,0,0,0,-1,1630,855,0,0
413,169,0,0,0,0,0,0,0,0,0,-1,1637,855,0,0
420,169,0,0,0,0,0,0,0,0,0,-1,1644,855,0,0
427,169,0,0,0,0,0,0,0,0,0,-1,1651,855,0,0
434,169,0,0,0,0,0,0,0,0,0,-1,1658,855,0,0
441,169,0,0,0,0,0,0,0,0,0,-1,1665,855,0,0
448,169,0,0,0,0,0,0,0,0,0,-1,1672,855,0,0
455,169,0,0,0,0,0,0,0,0,0,-1,1679,855,0,0
462,169,0,0,0,0,0,0,0,0,0,-1,1686,855,0,0
469,169,0,0,0,0,0,0,0,0,0,-1,1693,855,0,0
476,169,0,0,0,0,0,0,0,0,0,-1,1700,855,0,0
483,169,0,0,0,0,0,0,0,0,0,-1,1707,855,0,0
490,169,0,0,0,0,0,0,0,0,0,-1,1714,855,0,0
497,169,0,0,0,0,0,0,0,0,0,-1,1721,855,0,0
504,169,0,0,0,0,0,0,0,0,0,-1,1728,855,0,0
511,169,0,0,0,0,0,0,0,0,0,-1,1735,855,0,0
518,169,0,0,0,0,0,0,0,0,0,-1,1742,855,0,0
525,169,0,0,0,0,0,0,0,0,0,-1,1749,855,0,0
532,169,0,0,0,0,0,0,0,0,0,-1,1756,855,0,0
539,169,0,0,0,0,0,0,0,0,0,-1,1763,855,0,0
546,169,0,0,0,0,0,0,0,0,0,-1,1770,855,0,0
553,169,0,0,0,0,0,0,0,0,0,-1,1777,855,0,0
560,169,0,0,0,0,0,0,0,0,0,-1,1784,855,0,0
567,169,0,0,0,0,0,0,0,0,0,-1,1791,855,0,0
574,169,0,0,0,0,0,0,0,0,0,-1,1798,855,0,0
581,169,0,0,0,0,0,0,0,0,0,-1,1805,855,0,0
588,169,0,0,0,0,0,0,0,0,0,-1,1812,855,0,0
595,169,0,0,0,0,0,0,0,0,0,-1,1819,855,0,0
602,169,0,0,0,0,0,0,0,0,0,-1,1826,855,0,0
609,169,0,0,0,0,0,0,0,0,0,-1,1833,855,0,0
616,169,27.2528,2.94958,-0.00123836,-0.00363456,-0.00284359,0.000649224,-0.00552214,-0.586017,0.00391581,0.0446838,1840,855,27.2528,-2.94956
623,169,27.3899,2.8045,-0.000800817,-0.00257124,-0.00141101,-2.03268e-05,-0.00335173,-0.505252,0.00222774,0.0452395,1847,855,27.3898,-2.80449
630,169,27.2778,3.00879,-0.000290619,-0.00145895,-0.00030102,-0.000217622,-0.00153195,-0.237905,0.000957042,0.039931,1854,855,27.2778,-3.00876
637,169,27.2086,3.10406,-6.61091e-05,-0.000765544,0.000275578,2.94209e-05,-0.000861074,0.33369,0.000584103,0.0346742,1861,855,27.2086,-3.10405
644,169,27.0934,3.19781,1.69663e-05,-0.000423247,0.000475317,0.000320666,-0.000726947,0.568562,0.000619816,0.0350149,1868,855,27.0934,-3.19784
651,169,27.0565,3.26605,5.90575e-05,-0.000329788,0.00044709,0.000352169,-0.000622899,0.580301,0.000570143,0.03621,1875,855,27.0566,-3.26607
658,169,27.1058,3.26697,4.66843e-05,-0.000296913,0.000289057,0.000211142,-0.000461371,0.517273,0.000397134,0.0362232,1882,855,27.1058,-3.26697
665,169,27.1722,3.27118,-0.000135218,-0.000250449,0.000159075,-2.36465e-05,-0.000362021,0.611651,0.000233864,0.0489794,1889,855,27.1722,-3.27115
672,169,27.2435,3.35376,0,0,0,0,0,0,0,-1,1896,855,27.2435,-3.35375
679,169,22.3546,2.4588,0,0,0,0,0,0,0,-1,1903,855,22.3546,-2.45883
686,169,22.4011,2.76752,-0.000129116,-0.000240156,-0.000368905,0.000188423,-0.000557696,-0.710709,0.000448013,0.0261982,1910,855,22.4012,-2.76753
693,169,22.4274,3.05994,8.03632e-05,-0.000225506,-0.00059296,0.000539794,-0.000684936,-0.65919,0.000708751,0.01368,1917,855,22.4274,-3.05992
700,169,22.4286,3.32764,0.000488591,-0.000332521,-0.000659937,0.000855256,-0.000699187,-0.507138,0.000898965,0.0135324,1924,855,22.4286,-3.32761
707,169,22.4165,3.55896,0.00118489,-0.000218437,-0.000564869,0.00138401,-0.000417556,-0.338904,0.00108888,0.01437,1931,855,22.4166,-3.55897
714,169,22.3794,3.79572,0.00212215,-0.000149267,-0.000518636,0.00223497,-0.000262084,-0.21419,0.00158458,0.0127386,1938,855,22.3794,-3.7957
721,169,22.348,4.05157,0.00417084,-0.000432339,-0.000419529,0.00420876,-0.000470263,-0.0901494,0.00297501,0.0136632,1945,855,22.3481,-4.05156
728,169,22.36,4.31342,0.00704872,-0.00135338,-0.000496349,0.00707794,-0.0013826,-0.0588018,0.00524064,0.0119436,1952,855,22.36,-4.31343
735,169,22.3596,4.55316,0.0108516,-0.00286851,-0.00068731,0.0108859,-0.00290286,-0.0499285,0.00839392,0.0182972,1959,855,22.3597,-4.55317
742,169,22.3798,4.80646,0.0152525,-0.00518054,-0.000942119,0.0152959,-0.00522389,-0.0459776,0.0123136,0.0150487,1966,855,22.3797,-4.80647
749,169,22.394,5.03961,0.0203306,-0.00886235,-0.00142005,0.0203995,-0.00893127,-0.0484908,0.0173602,0.0252627,1973,855,22.394,-5.03962
756,169,22.4729,5.17572,0.0264954,-0.0145077,-0.00235293,0.02663,-0.0146423,-0.0571341,0.0241613,0.0493695,1980,855,22.4729,-5.17574
763,169,22.5918,5.35016,0,0,0,0,0,0,0,-1,1987,855,22.5918,-5.35015
770,169,21.4769,5.96228,0.040931,-0.0346533,-0.0058253,0.0413773,-0.0350996,-0.0764684,0.0442035,0.0454912,1994,855,21.4769,-5.96228
777,169,21.9879,5.10004,0.0481904,-0.0505336,-0.00854224,0.0489241,-0.0512673,-0.0856779,0.0578508,0.0435518,2001,855,21.9879,-5.10005
784,169,22.3809,4.56689,0.0543935,-0.0710705,-0.0119774,0.0555267,-0.0722037,-0.0943298,0.0739544,0.0475728,2008,855,22.3808,-4.56686
791,169,0,0,0,0,0,0,0,0,0,-1,2015,855,0,0
798,169,0,0,0,0,0,0,0,0,0,-1,2022,855,0,0
805,169,0,0,0,0,0,0,0,0,0,-1,2029,855,0,0
812,169,0,0,0,0,0,0,0,0,0,-1,2036,855,0,0
-700,162,0,0,0,0,0,0,0,0,0,-1,524,862,0,0
-693,162,0,0,0,0,0,0,0,0,0,-1,531,862,0,0
-686,162,0,0,0,0,0,0,0,0,0,-1,538,862,0,0
-679,162,0,0,0,0,0,0,0,0,0,-1,545,862,0,0
-672,162,0,0,0,0,0,0,0,0,0,-1,552,862,0,0
-665,162,-17.0987,2.46625,-0.0233989,0.00575056,0.0083019,0.00794915,-0.0255975,1.31191,0.0202419,0.0459864,559,862,-17.0987,-2.46624
-658,162,-17.5044,2.47516,0,0,0,0,0,0,0,-1,566,862,-17.5044,-2.47514
-651,162,-17.6415,2.12872,0,0,0,0,0,0,0,-1,573,862,-17.6415,-2.12874
-644,162,-17.2343,2.341,0,0,0,0,0,0,0,-1,580,862,-17.2343,-2.34102
-637,162,-16.4752,2.81573,0,0,0,0,0,0,0,-1,587,862,-16.4752,-2.81574
-630,162,-16.0607,2.6795,0.00242084,-0.00864792,0.00178157,0.00270053,-0.00892761,0.155717,0.00702707,0.0437409,594,862,-16.0607,-2.6795
-623,162,-15.4089,2.59387,0.00325581,-0.00751261,0.00191627,0.00358665,-0.00784345,0.170963,0.00674999,0.0325249,601,862,-15.409,-2.5939
-616,162,-15.3167,2.55273,0.00335985,-0.006727,0.0017064,0.00364071,-0.00700786,0.163126,0.00624956,0.0188042,608,862,-15.3167,-2.55276
-609,162,-15.3192,2.33258,0.00350625,-0.00597376,0.00167589,0.0037938,-0.0062613,0.169922,0.00586329,0.0129336,615,862,-15.3192,-2.33259
-602,162,-15.3323,2.09692,0.00337001,-0.00383609,0.00216398,0.00396991,-0.00443599,0.270429,0.00485563,0.0114622,622,862,-15.3323,-2.09694
-595,162,-15.3383,1.86426,0.00199296,-0.00259994,0.00190482,0.00268013,-0.00328712,0.346225,0.00345113,0.0110563,629,862,-15.3383,-1.86423
-588,162,-15.3384,1.62372,0.00093892,-0.00176954,0.0016942,0.00175362,-0.00258424,0.44823,0.00251972,0.0107439,636,862,-15.3384,-1.6237
-581,162,-15.4214,1.39746,0.000185592,-0.00101227,0.00132165,0.00103769,-0.00186437,0.572656,0.00169801,0.0134495,643,862,-15.4214,-1.39748
-574,162,-15.5258,1.17419,-0.00067176,-0.000713761,0.00108585,0.000393294,-0.00177882,0.775729,0.00133641,0.0192204,650,862,-15.5258,-1.1742
-567,162,-15.4685,0.957031,-0.00127839,-0.00047313,0.000988404,0.000191504,-0.00194303,0.978813,0.00136368,0.0323735,657,862,-15.4685,-0.957009
-560,162,-15.3986,0.552612,-0.00164103,-0.000277638,0.000791141,8.49905e-05,-0.00200366,1.14101,0.00136499,0.0286188,664,862,-15.3985,-0.55259
-553,162,-15.2578,0.278992,-0.00191425,-0.000402545,0.000511412,-0.000245788,-0.002071,1.27337,0.00130647,0.0341854,671,862,-15.2577,-0.279001
-546,162,-15.1142,-0.0286255,0,0,0,0,0,0,0,-1,678,862,-15.1142,0.0286521
-539,162,-18.9444,1.35608,0,0,0,0,0,0,0,-1,685,862,-18.9444,-1.35607
-532,162,-19.0011,1.27502,-0.00189998,-0.000246251,-0.000209591,-0.000220101,-0.00192613,-1.44667,0.00121737,0.0376408,692,862,-19.0011,-1.27505
-525,162,-19.124,1.20093,-0.00173832,-0.000388115,-0.000526047,-0.000207361,-0.00191907,-1.23983,0.00121617,0.0400069,699,862,-19.1239,-1.20093
-518,162,-19.3009,1.34363,-0.00109748,-0.00086447,-0.000917709,-5.59013e-05,-0.00190605,-0.848537,0.00125248,0.0392846,706,862,-19.3009,-1.34363
-511,162,-19.3091,1.51398,0.000681503,-0.0019178,-0.00141458,0.00130282,-0.00253912,-0.413857,0.0022561,0.0432378,713,862,-19.3091,-1.51401
-504,162,-19.1736,1.30908,0.00395322,-0.00423789,-0.00210067,0.00446053,-0.00474521,-0.236963,0.00531578,0.04507,720,862,-19.1736,-1.30905
-497,162,-18.9262,1.22827,0.010738,-0.00785847,-0.00335544,0.0113249,-0.00844539,-0.173162,0.0114547,0.0432062,727,862,-18.9262,-1.22829
-490,162,0,0,0,0,0,0,0,0,0,-1,734,862,0,0
-483,162,0,0,0,0,0,0,0,0,0,-1,741,862,0,0
-476,162,0,0,0,0,0,0,0,0,0,-1,748,862,0,0
-469,162,0,0,0,0,0,0,0,0,0,-1,755,862,0,0
-462,162,0,0,0,0,0,0,0,0,0,-1,762,862,0,0
-455,162,0,0,0,0,0,0,0,0,0,-1,769,862,0,0
-448,162,0,0,0,0,0,0,0,0,0,-1,776,862,0,0
-441,162,0,0,0,0,0,0,0,0,0,-1,783,862,0,0
-434,162,0,0,0,0,0,0,0,0,0,-1,790,862,0,0
-427,162,0,0,0,0,0,0,0,0,0,-1,797,862,0,0
-420,162,0,0,0,0,0,0,0,0,0,-1,804,862,0,0
-413,162,0,0,0,0,0,0,0,0,0,-1,811,862,0,0
-406,162,0,0,0,0,0,0,0,0,0,-1,818,862,0,0
-399,162,0,0,0,0,0,0,0,0,0,-1,825,862,0,0
-392,162,0,0,0,0,0,0,0,0,0,-1,832,862,0,0
-385,162,0,0,0,0,0,0,0,0,0,-1,839,862,0,0
-378,162,0,0,0,0,0,0,0,0,0,-1,846,862,0,0
-371,162,0,0,0,0,0,0,0,0,0,-1,853,862,0,0
-364,162,0,0,0,0,0,0,0,0,0,-1,860,862,0,0
-357,162,0,0,0,0,0,0,0,0,0,-1,867,862,0,0
-350,162,0,0,0,0,0,0,0,0,0,-1,874,862,0,0
-343,162,0,0,0,0,0,0,0,0,0,-1,881,862,0,0
-336,162,0,0,0,0,0,0,0,0,0,-1,888,862,0,0
-329,162,0,0,0,0,0,0,0,0,0,-1,895,862,0,0
-322,162,0,0,0,0,0,0,0,0,0,-1,902,862,0,0
-315,162,0,0,0,0,0,0,0,0,0,-1,909,862,0,0
-308,162,0,0,0,0,0,0,0,0,0,-1,916,862,0,0
-301,162,0,0,0,0,0,0,0,0,0,-1,923,862,0,0
-294,162,0,0,0,0,0,0,0,0,0,-1,930,862,0,0
-287,162,0,0,0,0,0,0,0,0,0,-1,937,862,0,0
-280,162,0,0,0,0,0,0,0,0,0,-1,944,862,0,0
-273,162,0,0,0,0,0,0,0,0,0,-1,951,862,0,0
-266,162,0,0,0,0,0,0,0,0,0,-1,958,862,0,0
-259,162,0,0,0,0,0,0,0,0,0,-1,965,862,0,0
-252,162,0,0,0,0,0,0,0,0,0,-1,972,862,0,0
-245,162,0,0,0,0,0,0,0,0,0,-1,979,862,0,0
-238,162,0,0,0,0,0,0,0,0,0,-1,986,862,0,0
-231,162,0,0,0,0,0,0,0,0,0,-1,993,862,0,0
-224,162,0,0,0,0,0,0,0,0,0,-1,1000,862,0,0
-217,162,0,0,0,0,0,0,0,0,0,-1,1007,862,0,0
-210,162,0,0,0,0,0,0,0,0,0,-1,1014,862,0,0
-203,162,0,0,0,0,0,0,0,0,0,-1,1021,862,0,0
-196,162,0,0,0,0,0,0,0,0,0,-1,1028,862,0,0
-189,162,0,0,0,0,0,0,0,0,0,-1,1035,862,0,0
-182,162,0,0,0,0,0,0,0,0,0,-1,1042,862,0,0
-175,162,0,0,0,0,0,0,0,0,0,-1,1049,862,0,0
-168,162,0,0,0,0,0,0,0,0,0,-1,1056,862,0,0
-161,162,0,0,0,0,0,0,0,0,0,-1,1063,862,0,0
-154,162,0,0,0,0,0,0,0,0,0,-1,1070,862,0,0
-147,162,0,0,0,0,0,0,0,0,0,-1,1077,862,0,0
-140,162,0,0,0,0,0,0,0,0,0,-1,1084,862,0,0
-133,162,0,0,0,0,0,0,0,0,0,-1,1091,862,0,0
-126,162,0,0,0,0,0,0,0,0,0,-1,1098,862,0,0
-119,162,0,0,0,0,0,0,0,0,0,-1,1105,862,0,0
-112,162,0,0,0,0,0,0,0,0,0,-1,1112,862,0,0
-105,162,0,0,0,0,0,0,0,0,0,-1,1119,862,0,0
-98,162,0,0,0,0,0,0,0,0,0,-1,1126,862,0,0
-91,162,0,0,0,0,0,0,0,0,0,-1,1133,862,0,0
-84,162,0,0,0,0,0,0,0,0,0,-1,1140,862,0,0
-77,162,0,0,0,0,0,0,0,0,0,-1,1147,862,0,0
-70,162,0,0,0,0,0,0,0,0,0,-1,1154,862,0,0
-63,162,0,0,0,0,0,0,0,0,0,-1,1161,862,0,0
-56,162,0,0,0,0,0,0,0,0,0,-1,1168,862,0,0
-49,162,0,0,0,0,0,0,0,0,0,-1,1175,862,0,0
-42,162,0,0,0,0,0,0,0,0,0,-1,1182,862,0,0
-35,162,0,0,0,0,0,0,0,0,0,-1,1189,862,0,0
-28,162,0,0,0,0,0,0,0,0,0,-1,1196,862,0,0
-21,162,0,0,0,0,0,0,0,0,0,-1,1203,862,0,0
-14,162,0,0,0,0,0,0,0,0,0,-1,1210,862,0,0
-7,162,0,0,0,0,0,0,0,0,0,-1,1217,862,0,0
0,162,0,0,0,0,0,0,0,0,0,-1,1224,862,0,0
7,162,0,0,0,0,0,0,0,0,0,-1,1231,862,0,0
14,162,0,0,0,0,0,0,0,0,0,-1,1238,862,0,0
21,162,0,0,0,0,0,0,0,0,0,-1,1245,862,0,0
28,162,0,0,0,0,0,0,0,0,0,-1,1252,862,0,0
35,162,0,0,0,0,0,0,0,0,0,-1,1259,862,0,0
42,162,0,0,0,0,0,0,0,0,0,-1,1266,862,0,0
49,162,0,0,0,0,0,0,0,0,0,-1,1273,862,0,0
56,162,0,0,0,0,0,0,0,0,0,-1,1280,862,0,0
63,162,0,0,0,0,0,0,0,0,0,-1,1287,862,0,0
70,162,0,0,0,0,0,0,0,0,0,-1,1294,862,0,0
77,162,0,0,0,0,0,0,0,0,0,-1,1301,862,0,0
84,162,0,0,0,0,0,0,0,0,0,-1,1308,862,0,0
91,162,0,0,0,0,0,0,0,0,0,-1,1315,862,0,0
98,162,0,0,0,0,0,0,0,0,0,-1,1322,862,0,0
105,162,0,0,0,0,0,0,0,0,0,-1,1329,862,0,0
112,162,0,0,0,0,0,0,0,0,0,-1,1336,862,0,0
119,162,0,0,0,0,0,0,0,0,0,-1,1343,862,0,0
126,162,0,0,0,0,0,0,0,0,0,-1,1350,862,0,0
133,162,0,0,0,0,0,0,0,0,0,-1,1357,862,0,0
140,162,0,0,0,0,0,0,0,0,0,-1,1364,862,0,0
147,162,0,0,0,0,0,0,0,0,0,-1,1371,862,0,0
154,162,0,0,0,0,0,0,0,0,0,-1,1378,862,0,0
161,162,0,0,0,0,0,0,0,0,0,-1,1385,862,0,0
168,162,0,0,0,0,0,0,0,0,0,-1,1392,862,0,0
175,162,0,0,0,0,0,0,0,0,0,-1,1399,862,0,0
182,162,0,0,0,0,0,0,0,0,0,-1,1406,862,0,0
189,162,0,0,0,0,0,0,0,0,0,-1,1413,862,0,0
196,162,0,0,0,0,0,0,0,0,0,-1,1420,862,0,0
203,162,0,0,0,0,0,0,0,0,0,-1,1427,862,0,0
210,162,0,0,0,0,0,0,0,0,0,-1,1434,862,0,0
217,162,0,0,0,0,0,0,0,0,0,-1,1441,862,0,0
224,162,0,0,0,0,0,0,0,0,0,-1,1448,862,0,0
231,162,0,0,0,0,0,0,0,0,0,-1,1455,862,0,0
238,162,0,0,0,0,0,0,0,0,0,-1,1462,862,0,0
245,162,0,0,0,0,0,0,0,0,0,-1,1469,862,0,0
252,162,0,0,0,0,0,0,0,0,0,-1,1476,862,0,0
259,162,0,0,0,0,0,0,0,0,0,-1,1483,862,0,0
266,162,0,0,0,0,0,0,0,0,0,-1,1490,862,0,0
273,162,0,0,0,0,0,0,0,0,0,-1,1497,862,0,0
280,162,0,0,0,0,0,0,0,0,0,-1,1504,862,0,0
287,162,0,0,0,0,0,0,0,0,0,-1,1511,862,0,0
294,162,0,0,0,0,0,0,0,0,0,-1,1518,862,0,0
301,162,0,0,0,0,0,0,0,0,0,-1,1525,862,0,0
308,162,0,0,0,0,0,0,0,0,0,-1,1532,862,0,0
315,162,0,0,0,0,0,0,0,0,0,-1,1539,862,0,0
322,162,0,0,0,0,0,0,0,0,0,-1,1546,862,0,0
329,162,0,0,0,0,0,0,0,0,0,-1,1553,862,0,0
336,162,0,0,0,0,0,0,0,0,0,-1,1560,862,0,0
343,162,0,0,0,0,0,0,0,0,0,-1,1567,862,0,0
350,162,0,0,0,0,0,0,0,0,0,-1,1574,862,0,0
357,162,0,0,0,0,0,0,0,0,0,-1,1581,862,0,0
364,162,0,0,0,0,0,0,0,0,0,-1,1588,862,0,0
371,162,0,0,0,0,0,0,0,0,0,-1,1595,862,0,0
378,162,0,0,0,0,0,0,0,0,0,-1,1602,862,0,0
385,162,0,0,0,0,0,0,0,0,0,-1,1609,862,0,0
392,162,0,0,0,0,0,0,0,0,0,-1,1616,862,0,0
399,162,0,0,0,0,0,0,0,0,0,-1,1623,862,0,0
406,162,0,0,0,0,0,0,0,0,0,-1,1630,862,0,0
413,162,0,0,0,0,0,0,0,0,0,-1,1637,862,0,0
420,162,0,0,0,0,0,0,0,0,0,-1,1644,862,0,0
427,162,0,0,0,0,0,0,0,0,0,-1,1651,862,0,0
434,162,0,0,0,0,0,0,0,0,0,-1,1658,862,0,0
441,162,0,0,0,0,0,0,0,0,0,-1,1665,862,0,0
448,162,0,0,0,0,0,0,0,0,0,-1,1672,862,0,0
455,162,0,0,0,0,0,0,0,0,0,-1,1679,862,0,0
462,162,0,0,0,0,0,0,0,0,0,-1,1686,862,0,0
469,162,0,0,0,0,0,0,0,0,0,-1,1693,862,0,0
476,162,0,0,0,0,0,0,0,0,0,-1,1700,862,0,0
483,162,0,0,0,0,0,0,0,0,0,-1,1707,862,0,0
490,162,0,0,0,0,0,0,0,0,0,-1,1714,862,0,0
497,162,0,0,0,0,0,0,0,0,0,-1,1721,862,0,0
504,162,0,0,0,0,0,0,0,0,0,-1,1728,862,0,0
511,162,0,0,0,0,0,0,0,0,0,-1,1735,862,0,0
518,162,0,0,0,0,0,0,0,0,0,-1,1742,862,0,0
525,162,0,0,0,0,0,0,0,0,0,-1,1749,862,0,0
532,162,0,0,0,0,0,0,0,0,0,-1,1756,862,0,0
539,162,0,0,0,0,0,0,0,0,0,-1,1763,862,0,0
546,162,0,0,0,0,0,0,0,0,0,-1,1770,862,0,0
553,162,0,0,0,0,0,0,0,0,0,-1,1777,862,0,0
560,162,0,0,0,0,0,0,0,0,0,-1,1784,862,0,0
567,162,0,0,0,0,0,0,0,0,0,-1,1791,862,0,0
574,162,0,0,0,0,0,0,0,0,0,-1,1798,862,0,0
581,162,0,0,0,0,0,0,0,0,0,-1,1805,862,0,0
588,162,0,0,0,0,0,0,0,0,0,-1,1812,862,0,0
595,162,0,0,0,0,0,0,0,0,0,-1,1819,862,0,0
602,162,0,0,0,0,0,0,0,0,0,-1,1826,862,0,0
609,162,0,0,0,0,0,0,0,0,0,-1,1833,862,0,0
616,162,27.1132,2.91284,-0.00287136,-0.00453606,-0.00291106,-0.000675986,-0.00673143,-0.646151,0.00428012,0.043166,1840,862,27.1131,-2.91286
623,162,27.1714,2.9881,-0.00204925,-0.00343183,-0.00178414,-0.000827159,-0.00465392,-0.600572,0.00286695,0.0440048,1847,862,27.1714,-2.98807
630,162,27.1434,2.9707,-0.00111883,-0.0022407,-0.000854502,-0.000657603,-0.00270193,-0.494951,0.00162701,0.0427126,1854,862,27.1434,-2.9707
637,162,27.1013,3.11719,-0.000537947,-0.0013742,-0.00032499,-0.0004265,-0.00148565,-0.330357,0.000883284,0.0412028,1861,862,27.1013,-3.11718
644,162,27.0999,3.18884,-0.000294518,-0.000855912,-8.97684e-05,-0.000280513,-0.000869917,-0.154763,0.000512692,0.0387565,1868,862,27.0999,-3.18887
651,162,27.1129,3.1969,-0.000174902,-0.000603183,-6.21229e-05,-0.000166072,-0.000612012,-0.141176,0.000365453,0.0364104,1875,862,27.113,-3.19691
658,162,27.1102,3.19421,-0.000173115,-0.000473183,-0.000136788,-0.000120119,-0.000526179,-0.369625,0.000318391,0.0356879,1882,862,27.1102,-3.19421
665,162,27.1389,3.18555,-0.000348323,-0.000368288,-0.000181294,-0.000176737,-0.000539874,-0.757894,0.000317829,0.0418061,1889,862,27.1389,-3.18557
672,162,27.1796,3.20105,0,0,0,0,0,0,0,-1,1896,862,27.1796,-3.20108
679,162,22.9215,2.65155,0,0,0,0,0,0,0,-1,1903,862,22.9215,-2.65157
686,162,22.7542,2.85144,-0.000346783,-0.000209415,-0.00047846,0.000205266,-0.000761464,-0.856687,0.000588128,0.0385698,1910,862,22.7541,-2.85146
693,162,22.6621,3.09131,-0.000257678,-0.000166715,-0.000601185,0.000390706,-0.000815099,-0.823153,0.0007104,0.017451,1917,862,22.6621,-3.09132
700,162,22.686,3.3291,-2.18021e-05,-0.00021255,-0.000597181,0.000487573,-0.000721925,-0.706213,0.00070266,0.0170224,1924,862,22.6861,-3.32908
707,162,22.6769,3.52454,0.000480881,-0.000126154,-0.000518086,0.00077781,-0.000423083,-0.520426,0.000703347,0.0123281,1931,862,22.6769,-3.52452
714,162,22.6426,3.77545,0.00116355,-7.44972e-05,-0.000543379,0.00136821,-0.000279155,-0.360206,0.00101803,0.0150573,1938,862,22.6426,-3.77548
721,162,22.5765,4.11432,0.00277216,-0.000257505,-0.00054953,0.00286875,-0.000354101,-0.174001,0.0020408,0.0252611,1945,862,22.5766,-4.11433
728,162,22.5707,4.33759,0.00503637,-0.00106346,-0.00079458,0.00513818,-0.00116526,-0.12743,0.00387276,0.0212425,1952,862,22.5707,-4.33757
735,162,22.6057,4.56146,0.00817948,-0.00260848,-0.0011568,0.00830213,-0.00273113,-0.10563,0.00663521,0.010883,1959,862,22.6058,-4.56144
742,162,22.6318,4.82404,0.011764,-0.0048962,-0.00138744,0.0118788,-0.00501096,-0.082521,0.0100164,0.0122109,1966,862,22.6319,-4.82405
749,162,22.646,5.06232,0.0155844,-0.00852454,-0.00170462,0.0157044,-0.00864447,-0.0702392,0.0142534,0.0179969,1973,862,22.646,-5.06234
756,162,22.6686,5.20837,0.0202944,-0.0139997,-0.00229218,0.0204469,-0.0141523,-0.0664451,0.0200857,0.0425485,1980,862,22.6686,-5.20836
763,162,22.5557,5.25555,0,0,0,0,0,0,0,-1,1987,862,22.5557,-5.25556
770,162,21.1454,6.81622,0,0,0,0,0,0,0,-1,1994,862,21.1454,-6.81625
777,162,22.4752,6.00488,0,0,0,0,0,0,0,-1,2001,862,22.4752,-6.00487
784,162,22.3711,5.29395,0,0,0,0,0,0,0,-1,2008,862,22.3711,-5.29397
791,162,0,0,0,0,0,0,0,0,0,-1,2015,862,0,0
798,162,0,0,0,0,0,0,0,0,0,-1,2022,862,0,0
805,162,0,0,0,0,0,0,0,0,0,-1,2029,862,0,0
812,162,0,0,0,0,0,0,0,0,0,-1,2036,862,0,0
-700,155,0,0,0,0,0,0,0,0,0,-1,524,869,0,0
-693,155,0,0,0,0,0,0,0,0,0,-1,531,869,0,0
-686,155,0,0,0,0,0,0,0,0,0,-1,538,869,0,0
-679,155,0,0,0,0,0,0,0,0,0,-1,545,869,0,0
-672,155,0,0,0,0,0,0,0,0,0,-1,552,869,0,0
-665,155,-17.8887,2.34296,0,0,0,0,0,0,0,-1,559,869,-17.8887,-2.34298
-658,155,-17.8616,1.97937,0,0,0,0,0,0,0,-1,566,869,-17.8616,-1.97936
-651,155,-17.9313,1.87195,0,0,0,0,0,0,0,-1,573,869,-17.9313,-1.87196
-644,155,-17.9697,1.75317,0,0,0,0,0,0,0,-1,580,869,-17.9697,-1.75316
-637,155,-15.8085,2.7948,0,0,0,0,0,0,0,-1,587,869,-15.8085,-2.79478
-630,155,-15.6993,2.74188,0.00179736,-0.00800568,3.93717e-06,0.00179736,-0.00800568,0.000401628,0.00602626,0.0459628,594,869,-15.6993,-2.74189
-623,155,-15.5646,2.68317,0.00280062,-0.00684543,0.00060317,0.00283819,-0.006883,0.0622073,0.00577221,0.0258377,601,869,-15.5646,-2.68318
-616,155,-15.5399,2.55017,0.00304164,-0.00616293,0.000767614,0.00310521,-0.00622651,0.0826343,0.00548721,0.0143268,608,869,-15.5399,-2.55016
-609,155,-15.5604,2.31409,0.00326403,-0.00549073,0.00107139,0.00339324,-0.00561994,0.120018,0.00525643,0.0131161,615,869,-15.5604,-2.31411
-602,155,-15.5835,2.0954,0.00316169,-0.00339484,0.00185114,0.00364823,-0.00388138,0.257019,0.00434792,0.0121978,622,869,-15.5835,-2.09538
-595,155,-15.5976,1.87195,0.00177645,-0.00222539,0.00177434,0.00244984,-0.00289879,0.362726,0.00309166,0.0113213,629,869,-15.5976,-1.87193
-588,155,-15.5991,1.63574,0.000748139,-0.00156838,0.00163284,0.00159181,-0.00241206,0.476911,0.00232775,0.0120432,636,869,-15.5991,-1.63573
-581,155,-15.7093,1.46338,-2.5954e-05,-0.000976798,0.00130159,0.000884327,-0.00188708,0.610295,0.00163461,0.0184395,643,869,-15.7093,-1.46335
-574,155,-15.7646,1.29456,-0.000934174,-0.000752107,0.00111114,0.000271726,-0.00195801,0.826271,0.0014047,0.0243072,650,869,-15.7646,-1.29454
-567,155,-15.6947,0.903137,-0.00153756,-0.000595677,0.00105018,8.43244e-05,-0.00221757,0.996176,0.00150727,0.0239128,657,869,-15.6947,-0.90313
-560,155,-15.6187,0.53833,-0.0018586,-0.000476777,0.000915428,-2.07939e-05,-0.00231458,1.10866,0.00153617,0.0220904,664,869,-15.6186,-0.538326
-553,155,-15.3903,0.125977,0,0,0,0,0,0,0,-1,671,869,-15.3903,-0.126001
-546,155,-19.1071,1.08472,0,0,0,0,0,0,0,-1,678,869,-19.1071,-1.08472
-539,155,-19.0533,1.11755,-0.00217176,-0.000749682,0.000339068,-0.000672975,-0.00224846,1.34831,0.00133255,0.0439113,685,869,-19.0534,-1.11753
-532,155,-19.004,1.24756,-0.00220651,-0.000764223,0.000164084,-0.000745791,-0.00222494,1.45893,0.00130762,0.0354006,692,869,-19.004,-1.24756
-525,155,-19.0168,1.38055,-0.00211246,-0.0010556,-0.000101361,-0.00104597,-0.0021221,-1.47604,0.00122523,0.0370294,699,869,-19.0168,-1.38053
-518,155,-19.0746,1.5144,-0.00145629,-0.00176025,-0.000475176,-0.00110938,-0.00210716,-0.63062,0.00121714,0.0414001,706,869,-19.0746,-1.51443
-511,155,-18.9798,1.50354,0.000369454,-0.00315182,-0.00103116,0.000649192,-0.00343156,-0.264909,0.002532,0.0444014,713,869,-18.9798,-1.50355
-504,155,-18.9816,1.60986,0.00350315,-0.00620776,-0.00182773,0.00383576,-0.00654037,-0.180011,0.00605812,0.043844,720,869,-18.9816,-1.60984
-497,155,0,0,0,0,0,0,0,0,0,-1,727,869,0,0
-490,155,0,0,0,0,0,0,0,0,0,-1,734,869,0,0
-483,155,0,0,0,0,0,0,0,0,0,-1,741,869,0,0
-476,155,0,0,0,0,0,0,0,0,0,-1,748,869,0,0
-469,155,0,0,0,0,0,0,0,0,0,-1,755,869,0,0
-462,155,0,0,0,0,0,0,0,0,0,-1,762,869,0,0
-455,155,0,0,0,0,0,0,0,0,0,-1,769,869,0,0
-448,155,0,0,0,0,0,0,0,0,0,-1,776,869,0,0
-441,155,0,0,0,0,0,0,0,0,0,-1,783,869,0,0
-434,155,0,0,0,0,0,0,0,0,0,-1,790,869,0,0
-427,155,0,0,0,0,0,0,0,0,0,-1,797,869,0,0
-420,155,0,0,0,0,0,0,0,0,0,-1,804,869,0,0
-413,155,0,0,0,0,0,0,0,0,0,-1,811,869,0,0
-406,155,0,0,0,0,0,0,0,0,0,-1,818,869,0,0
-399,155,0,0,0,0,0,0,0,0,0,-1,825,869,0,0
-392,155,0,0,0,0,0,0,0,0,0,-1,832,869,0,0
-385,155,0,0,0,0,0,0,0,0,0,-1,839,869,0,0
-378,155,0,0,0,0,0,0,0,0,0,-1,846,869,0,0
-371,155,0,0,0,0,0,0,0,0,0,-1,853,869,0,0
-364,155,0,0,0,0,0,0,0,0,0,-1,860,869,0,0
-357,155,0,0,0,0,0,0,0,0,0,-1,867,869,0,0
-350,155,0,0,0,0,0,0,0,0,0,-1,874,869,0,0
-343,155,0,0,0,0,0,0,0,0,0,-1,881,869,0,0
-336,155,0,0,0,0,0,0,0,0,0,-1,888,869,0,0
-329,155,0,0,0,0,0,0,0,0,0,-1,895,869,0,0
-322,155,0,0,0,0,0,0,0,0,0,-1,902,869,0,0
-315,155,0,0,0,0,0,0,0,0,0,-1,909,869,0,0
-308,155,0,0,0,0,0,0,0,0,0,-1,916,869,0,0
-301,155,0,0,0,0,0,0,0,0,0,-1,923,869,0,0
-294,155,0,0,0,0,0,0,0,0,0,-1,930,869,0,0
-287,155,0,0,0,0,0,0,0,0,0,-1,937,869,0,0
-280,155,0,0,0,0,0,0,0,0,0,-1,944,869,0,0
-273,155,0,0,0,0,0,0,0,0,0,-1,951,869,0,0
-266,155,0,0,0,0,0,0,0,0,0,-1,958,869,0,0
-259,155,0,0,0,0,0,0,0,0,0,-1,965,869,0,0
-252,155,0,0,0,0,0,0,0,0,0,-1,972,869,0,0
-245,155,0,0,0,0,0,0,0,0,0,-1,979,869,0,0
-238,155,0,0,0,0,0,0,0,0,0,-1,986,869,0,0
-231,155,0,0,0,0,0,0,0,0,0,-1,993,869,0,0
-224,155,0,0,0,0,0,0,0,0,0,-1,1000,869,0,0
-217,155,0,0,0,0,0,0,0,0,0,-1,1007,869,0,0
-210,155,0,0,0,0,0,0,0,0,0,-1,1014,869,0,0
-203,155,0,0,0,0,0,0,0,0,0,-1,1021,869,0,0
-196,155,0,0,0,0,0,0,0,0,0,-1,1028,869,0,0
-189,155,0,0,0,0,0,0,0,0,0,-1,1035,869,0,0
-182,155,0,0,0,0,0,0,0,0,0,-1,1042,869,0,0
-175,155,0,0,0,0,0,0,0,0,0,-1,1049,869,0,0
-168,155,0,0,0,0,0,0,0,0,0,-1,1056,869,0,0
-161,155,0,0,0,0,0,0,0,0,0,-1,1063,869,0,0
-154,155,0,0,0,0,0,0,0,0,0,-1,1070,869,0,0
-147,155,0,0,0,0,0,0,0,0,0,-1,1077,869,0,0
-140,155,0,0,0,0,0,0,0,0,0,-1,1084,869,0,0
-133,155,0,0,0,0,0,0,0,0,0,-1,1091,869,0,0
-126,155,0,0,0,0,0,0,0,0,0,-1,1098,869,0,0
-119,155,0,0,0,0,0,0,0,0,0,-1,1105,869,0,0
-112,155,0,0,0,0,0,0,0,0,0,-1,1112,869,0,0
-105,155,0,0,0,0,0,0,0,0,0,-1,1119,869,0,0
-98,155,0,0,0,0,0,0,0,0,0,-1,1126,869,0,0
-91,155,0,0,0,0,0,0,0,0,0,-1,1133,869,0,0
-84,155,0,0,0,0,0,0,0,0,0,-1,1140,869,0,0
-77,155,0,0,0,0,0,0,0,0,0,-1,1147,869,0,0
-70,155,0,0,0,0,0,0,0,0,0,-1,1154,869,0,0
-63,155,0,0,0,0,0,0,0,0,0,-1,1161,869,0,0
-56,155,0,0,0,0,0,0,0,0,0,-1,1168,869,0,0
-49,155,0,0,0,0,0,0,0,0,0,-1,1175,869,0,0
-42,155,0,0,0,0,0,0,0,0,0,-1,1182,869,0,0
-35,155,0,0,0,0,0,0,0,0,0,-1,1189,869,0,0
-28,155,0,0,0,0,0,0,0,0,0,-1,1196,869,0,0
-21,155,0,0,0,0,0,0,0,0,0,-1,1203,869,0,0
-14,155,0,0,0,0,0,0,0,0,0,-1,1210,869,0,0
-7,155,0,0,0,0,0,0,0,0,0,-1,1217,869,0,0
0,155,0,0,0,0,0,0,0,0,0,-1,1224,869,0,0
7,155,0,0,0,0,0,0,0,0,0,-1,1231,869,0,0
14,155,0,0,0,0,0,0,0,0,0,-1,1238,869,0,0
21,155,0,0,0,0,0,0,0,0,0,-1,1245,869,0,0
28,155,0,0,0,0,0,0,0,0,0,-1,1252,869,0,0
35,155,0,0,0,0,0,0,0,0,0,-1,1259,869,0,0
42,155,0,0,0,0,0,0,0,0,0,-1,1266,869,0,0
49,155,0,0,0,0,0,0,0,0,0,-1,1273,869,0,0
56,155,0,0,0,0,0,0,0,0,0,-1,1280,869,0,0
63,155,0,0,0,0,0,0,0,0,0,-1,1287,869,0,0
70,155,0,0,0,0,0,0,0,0,0,-1,1294,869,0,0
77,155,0,0,0,0,0,0,0,0,0,-1,1301,869,0,0
84,155,0,0,0,0,0,0,0,0,0,-1,1308,869,0,0
91,155,0,0,0,0,0,0,0,0,0,-1,1315,869,0,0
98,155,0,0,0,0,0,0,0,0,0,-1,1322,869,0,0
105,155,0,0,0,0,0,0,0,0,0,-1,1329,869,0,0
112,155,0,0,0,0,0,0,0,0,0,-1,1336,869,0,0
119,155,0,0,0,0,0,0,0,0,0,-1,1343,869,0,0
126,155,0,0,0,0,0,0,0,0,0,-1,1350,869,0,0
133,155,0,0,0,0,0,0,0,0,0,-1,1357,869,0,0
140,155,0,0,0,0,0,0,0,0,0,-1,1364,869,0,0
147,155,0,0,0,0,0,0,0,0,0,-1,1371,869,0,0
154,155,0,0,0,0,0,0,0,0,0,-1,1378,869,0,0
161,155,0,0,0,0,0,0,0,0,0,-1,1385,869,0,0
168,155,0,0,0,0,0,0,0,0,0,-1,1392,869,0,0
175,155,0,0,0,0,0,0,0,0,0,-1,1399,869,0,0
182,155,0,0,0,0,0,0,0,0,0,-1,1406,869,0,0
189,155,0,0,0,0,0,0,0,0,0,-1,1413,869,0,0
196,155,0,0,0,0,0,0,0,0,0,-1,1420,869,0,0
203,155,0,0,0,0,0,0,0,0,0,-1,1427,869,0,0
210,155,0,0,0,0,0,0,0,0,0,-1,1434,869,0,0
217,155,0,0,0,0,0,0,0,0,0,-1,1441,869,0,0
224,155,0,0,0,0,0,0,0,0,0,-1,1448,869,0,0
231,155,0,0,0,0,0,0,0,0,0,-1,1455,869,0,0
238,155,0,0,0,0,0,0,0,0,0,-1,1462,869,0,0
245,155,0,0,0,0,0,0,0,0,0,-1,1469,869,0,0
252,155,0,0,0,0,0,0,0,0,0,-1,1476,869,0,0
259,155,0,0,0,0,0,0,0,0,0,-1,1483,869,0,0
266,155,0,0,0,0,0,0,0,0,0,-1,1490,869,0,0
273,155,0,0,0,0,0,0,0,0,0,-1,1497,869,0,0
280,155,0,0,0,0,0,0,0,0,0,-1,1504,869,0,0
287,155,0,0,0,0,0,0,0,0,0,-1,1511,869,0,0
294,155,0,0,0,0,0,0,0,0,0,-1,1518,869,0,0
301,155,0,0,0,0,0,0,0,0,0,-1,1525,869,0,0
308,155,0,0,0,0,0,0,0,0,0,-1,1532,869,0,0
315,155,0,0,0,0,0,0,0,0,0,-1,1539,869,0,0
322,155,0,0,0,0,0,0,0,0,0,-1,1546,869,0,0
329,155,0,0,0,0,0,0,0,0,0,-1,1553,869,0,0
336,155,0,0,0,0,0,0,0,0,0,-1,1560,869,0,0
343,155,0,0,0,0,0,0,0,0,0,-1,1567,869,0,0
350,155,0,0,0,0,0,0,0,0,0,-1,1574,869,0,0
357,155,0,0,0,0,0,0,0,0,0,-1,1581,869,0,0
364,155,0,0,0,0,0,0,0,0,0,-1,1588,869,0,0
371,155,0,0,0,0,0,0,0,0,0,-1,1595,869,0,0
378,155,0,0,0,0,0,0,0,0,0,-1,1602,869,0,0
385,155,0,0,0,0,0,0,0,0,0,-1,1609,869,0,0
392,155,0,0,0,0,0,0,0,0,0,-1,1616,869,0,0
399,155,0,0,0,0,0,0,0,0,0,-1,1623,869,0,0
406,155,0,0,0,0,0,0,0,0,0,-1,1630,869,0,0
413,155,0,0,0,0,0,0,0,0,0,-1,1637,869,0,0
420,155,0,0,0,0,0,0,0,0,0,-1,1644,869,0,0
427,155,0,0,0,0,0,0,0,0,0,-1,1651,869,0,0
434,155,0,0,0,0,0,0,0,0,0,-1,1658,869,0,0
441,155,0,0,0,0,0,0,0,0,0,-1,1665,869,0,0
448,155,0,0,0,0,0,0,0,0,0,-1,1672,869,0,0
455,155,0,0,0,0,0,0,0,0,0,-1,1679,869,0,0
462,155,0,0,0,0,0,0,0,0,0,-1,1686,869,0,0
469,155,0,0,0,0,0,0,0,0,0,-1,1693,869,0,0
476,155,0,0,0,0,0,0,0,0,0,-1,1700,869,0,0
483,155,0,0,0,0,0,0,0,0,0,-1,1707,869,0,0
490,155,0,0,0,0,0,0,0,0,0,-1,1714,869,0,0
497,155,0,0,0,0,0,0,0,0,0,-1,1721,869,0,0
504,155,0,0,0,0,0,0,0,0,0,-1,1728,869,0,0
511,155,0,0,0,0,0,0,0,0,0,-1,1735,869,0,0
518,155,0,0,0,0,0,0,0,0,0,-1,1742,869,0,0
525,155,0,0,0,0,0,0,0,0,0,-1,1749,869,0,0
532,155,0,0,0,0,0,0,0,0,0,-1,1756,869,0,0
539,155,0,0,0,0,0,0,0,0,0,-1,1763,869,0,0
546,155,0,0,0,0,0,0,0,0,0,-1,1770,869,0,0
553,155,0,0,0,0,0,0,0,0,0,-1,1777,869,0,0
560,155,0,0,0,0,0,0,0,0,0,-1,1784,869,0,0
567,155,0,0,0,0,0,0,0,0,0,-1,1791,869,0,0
574,155,0,0,0,0,0,0,0,0,0,-1,1798,869,0,0
581,155,0,0,0,0,0,0,0,0,0,-1,1805,869,0,0
588,155,0,0,0,0,0,0,0,0,0,-1,1812,869,0,0
595,155,0,0,0,0,0,0,0,0,0,-1,1819,869,0,0
602,155,0,0,0,0,0,0,0,0,0,-1,1826,869,0,0
609,155,0,0,0,0,0,0,0,0,0,-1,1833,869,0,0
616,155,27.2135,3.08771,-0.00479759,-0.0044232,-0.00239533,-0.00220776,-0.00701303,-0.824394,0.00414052,0.0473761,1840,869,27.2134,-3.0877
623,155,27.1198,3.21826,-0.00343207,-0.00341046,-0.00162423,-0.00179699,-0.00504553,-0.788724,0.00295295,0.0451609,1847,869,27.1197,-3.21827
630,155,26.9895,3.30316,-0.0020091,-0.00237742,-0.000979149,-0.00119694,-0.00318958,-0.692445,0.00186051,0.0469094,1854,869,26.9895,-3.30316
637,155,26.9948,3.36261,-0.00102049,-0.00157062,-0.000614701,-0.000622118,-0.00196899,-0.575021,0.00116219,0.0455901,1861,869,26.9948,-3.36258
644,155,27.0698,3.2832,-0.000534,-0.00104008,-0.000442637,-0.000277181,-0.0012969,-0.525734,0.000788616,0.0379042,1868,869,27.0698,-3.28319
651,155,27.1415,3.13647,-0.000326077,-0.000718883,-0.000419367,-5.9401e-05,-0.000985559,-0.566401,0.000638161,0.0339326,1875,869,27.1415,-3.1365
658,155,27.118,3.0788,-0.000311594,-0.000551951,-0.000451994,3.5926e-05,-0.000899471,-0.655462,0.000611974,0.028848,1882,869,27.1181,-3.07883
665,155,27.0764,3.14648,-0.000471046,-0.000426649,-0.000442063,-6.22703e-06,-0.000891468,-0.810485,0.000592247,0.0328934,1889,869,27.0764,-3.14648
672,155,27.098,3.18188,-0.000627942,-0.000407614,-0.000425438,-7.83078e-05,-0.000957248,-0.912086,0.00061373,0.041471,1896,869,27.098,-3.1819
679,155,27.0931,3.22504,0,0,0,0,0,0,0,-1,1903,869,27.0931,-3.22504
686,155,22.829,2.8288,0,0,0,0,0,0,0,-1,1910,869,22.829,-2.82877
693,155,22.8848,3.05774,-0.000480658,-0.000157222,-0.000612045,0.00031411,-0.00095199,-0.914559,0.000761279,0.0250918,1917,869,22.8848,-3.05776
700,155,22.9746,3.32996,-0.000469943,-0.000130293,-0.000553149,0.000278514,-0.000878749,-0.934338,0.00069746,0.0188242,1924,869,22.9746,-3.32997
707,155,23.0514,3.62445,-0.000182406,-4.65665e-05,-0.000475639,0.000365977,-0.00059495,-0.856317,0.000560017,0.0136914,1931,869,23.0513,-3.62445
714,155,22.9828,3.83191,0.000248259,1.05333e-05,-0.000528014,0.000670624,-0.000411831,-0.674687,0.000630881,0.0247892,1938,869,22.9828,-3.83191
721,155,22.877,4.08417,0.00140317,-2.88379e-05,-0.00055164,0.00159103,-0.000216697,-0.328229,0.0011398,0.02514,1945,869,22.8769,-4.08415
728,155,22.8501,4.32623,0.00299353,-0.000706751,-0.000852787,0.00318061,-0.000893831,-0.215953,0.0024728,0.0192006,1952,869,22.8501,-4.32624
735,155,22.8774,4.56158,0.00528571,-0.0023001,-0.00128112,0.00549623,-0.00251062,-0.162868,0.00472867,0.0155875,1959,869,22.8774,-4.56156
742,155,22.8949,4.82245,0.00776343,-0.00450659,-0.00139066,0.00791907,-0.00466223,-0.111455,0.0073445,0.0165854,1966,869,22.8949,-4.82243
749,155,22.8997,5.07117,0.0101093,-0.00798952,-0.00142436,0.0102207,-0.00810093,-0.0780587,0.0106016,0.0141664,1973,869,22.8997,-5.07114
756,155,22.921,5.27869,0.0131361,-0.0132107,-0.00159821,0.0132327,-0.0133073,-0.0603654,0.0153229,0.0252,1980,869,22.921,-5.27867
763,155,22.7339,5.29419,0.0163803,-0.0207561,-0.00154997,0.0164449,-0.0208207,-0.0416405,0.0215647,0.0434181,1987,869,22.7339,-5.29421
770,155,22.5347,5.30835,0,0,0,0,0,0,0,-1,1994,869,22.5347,-5.30836
777,155,22.5568,5.74396,0.0224966,-0.0444532,0.000179612,0.0224971,-0.0444537,0.00268277,0.0393408,0.0480921,2001,869,22.5567,-5.74397
784,155,22.6451,5.93243,0,0,0,0,0,0,0,-1,2008,869,22.6451,-5.93243
791,155,0,0,0,0,0,0,0,0,0,-1,2015,869,0,0
798,155,0,0,0,0,0,0,0,0,0,-1,2022,869,0,0
805,155,0,0,0,0,0,0,0,0,0,-1,2029,869,0,0
812,155,0,0,0,0,0,0,0,0,0,-1,2036,869,0,0
-700,148,0,0,0,0,0,0,0,0,0,-1,524,876,0,0
-693,148,0,0,0,0,0,0,0,0,0,-1,531,876,0,0
-686,148,0,0,0,0,0,0,0,0,0,-1,538,876,0,0
-679,148,0,0,0,0,0,0,0,0,0,-1,545,876,0,0
-672,148,-18.8141,2.10327,-0.031054,0.014342,0.00314963,0.0145595,-0.0312715,1.50186,0.0270405,0.0439893,552,876,-18.8141,-2.10326
-665,148,-18.576,2.13708,-0.0202572,0.00320309,-0.000981008,0.00324404,-0.0202982,-1.52908,0.014733,0.0464138,559,876,-18.5761,-2.1371
-658,148,-20.767,0.744507,-0.0124235,-0.00301628,-0.00257682,-0.00235669,-0.0130831,-1.32021,0.0080523,0.0459595,566,876,-20.7669,-0.744481
-651,148,-18.5461,1.51221,0,0,0,0,0,0,0,-1,573,876,-18.5462,-1.51223
-644,148,-18.6263,1.4408,0,0,0,0,0,0,0,-1,580,876,-18.6263,-1.44077
-637,148,-16.0666,2.89105,0,0,0,0,0,0,0,-1,587,876,-16.0666,-2.89104
-630,148,-15.8973,2.83734,0.00211783,-0.00726999,-0.000974602,0.00221794,-0.0073701,-0.102361,0.00579594,0.0462032,594,876,-15.8973,-2.83735
-623,148,-15.7022,2.76013,0.00300832,-0.00610702,-0.00012816,0.00301012,-0.00610883,-0.0140561,0.00536519,0.0232781,601,876,-15.7022,-2.76013
-616,148,-15.7684,2.55719,0.003175,-0.00549882,0.000250003,0.0031822,-0.00550602,0.0287908,0.0050756,0.0128804,608,876,-15.7684,-2.55721
-609,148,-15.8015,2.32129,0.00320662,-0.00485776,0.000682209,0.00326392,-0.00491507,0.0838017,0.00475411,0.0118953,615,876,-15.8015,-2.32131
-602,148,-15.824,2.10028,0.00296956,-0.00285022,0.00160738,0.00338399,-0.00326466,0.252336,0.00383881,0.0125556,622,876,-15.8241,-2.10027
-595,148,-15.8392,1.87335,0.00154544,-0.00178014,0.00163168,0.00221229,-0.00244699,0.387978,0.00269118,0.0106974,629,876,-15.8393,-1.87333
-588,148,-15.8563,1.60071,0.000549241,-0.00129161,0.00152914,0.0014136,-0.00215596,0.514481,0.00207569,0.0147439,636,876,-15.8563,-1.60071
-581,148,-15.9437,1.41052,-0.000214492,-0.000822379,0.00123648,0.000754851,-0.00179172,0.664881,0.00151034,0.0243728,643,876,-15.9437,-1.41055
-574,148,-15.7842,1.23187,-0.00114944,-0.00064143,0.00108576,0.000219643,-0.00201052,0.900303,0.00141924,0.0285427,650,876,-15.7842,-1.23189
-567,148,-15.8588,0.963257,-0.00174052,-0.000560645,0.00106423,6.62213e-05,-0.00236738,1.03848,0.00160078,0.0341419,657,876,-15.8587,-0.963277
-560,148,-15.8107,0.626221,-0.00203102,-0.000499889,0.00101253,3.92122e-06,-0.00253483,1.10909,0.0016912,0.037631,664,876,-15.8107,-0.626239
-553,148,-17.0684,0.875305,0,0,0,0,0,0,0,-1,671,876,-17.0684,-0.875333
-546,148,-18.5297,1.26447,0,0,0,0,0,0,0,-1,678,876,-18.5297,-1.2645
-539,148,-19.0296,1.12402,-0.00235892,-0.000864167,0.000710302,-0.000580476,-0.00264261,1.19081,0.00160366,0.0350735,685,876,-19.0296,-1.124
-532,148,-18.9619,1.26843,-0.00243524,-0.000992501,0.000618586,-0.000763595,-0.00266415,1.21638,0.00158415,0.0339001,692,876,-18.9619,-1.26843
-525,148,-18.9084,1.40009,-0.00240623,-0.00141784,0.000434987,-0.00125367,-0.0025704,1.20991,0.00148417,0.0358381,699,876,-18.9084,-1.40007
-518,148,-18.899,1.51233,-0.00181293,-0.0023175,0.000101455,-0.0017933,-0.00233714,0.191177,0.00141216,0.0422227,706,876,-18.899,-1.51233
-511,148,-18.977,1.88617,-0.000149246,-0.00397802,-0.000505415,-8.36523e-05,-0.00404361,-0.12906,0.00266829,0.0420293,713,876,-18.977,-1.88619
-504,148,-19.1591,2.13165,0,0,0,0,0,0,0,-1,720,876,-19.159,-2.13167
-497,148,0,0,0,0,0,0,0,0,0,-1,727,876,0,0
-490,148,0,0,0,0,0,0,0,0,0,-1,734,876,0,0
-483,148,0,0,0,0,0,0,0,0,0,-1,741,876,0,0
-476,148,0,0,0,0,0,0,0,0,0,-1,748,876,0,0
-469,148,0,0,0,0,0,0,0,0,0,-1,755,876,0,0
-462,148,0,0,0,0,0,0,0,0,0,-1,762,876,0,0
-455,148,0,0,0,0,0,0,0,0,0,-1,769,876,0,0
-448,148,0,0,0,0,0,0,0,0,0,-1,776,876,0,0
-441,148,0,0,0,0,0,0,0,0,0,-1,783,876,0,0
-434,148,0,0,0,0,0,0,0,0,0,-1,790,876,0,0
-427,148,0,0,0,0,0,0,0,0,0,-1,797,876,0,0
-420,148,0,0,0,0,0,0,0,0,0,-1,804,876,0,0
-413,148,0,0,0,0,0,0,0,0,0,-1,811,876,0,0
-406,148,0,0,0,0,0,0,0,0,0,-1,818,876,0,0
-399,148,0,0,0,0,0,0,0,0,0,-1,825,876,0,0
-392,148,0,0,0,0,0,0,0,0,0,-1,832,876,0,0
-385,148,0,0,0,0,0,0,0,0,0,-1,839,876,0,0
-378,148,0,0,0,0,0,0,0,0,0,-1,846,876,0,0
-371,148,0,0,0,0,0,0,0,0,0,-1,853,876,0,0
-364,148,0,0,0,0,0,0,0,0,0,-1,860,876,0,0
-357,148,0,0,0,0,0,0,0,0,0,-1,867,876,0,0
-350,148,0,0,0,0,0,0,0,0,0,-1,874,876,0,0
-343,148,0,0,0,0,0,0,0,0,0,-1,881,876,0,0
-336,148,0,0,0,0,0,0,0,0,0,-1,888,876,0,0
-329,148,0,0,0,0,0,0,0,0,0,-1,895,876,0,0
-322,148,0,0,0,0,0,0,0,0,0,-1,902,876,0,0
-315,148,0,0,0,0,0,0,0,0,0,-1,909,876,0,0
-308,148,0,0,0,0,0,0,0,0,0,-1,916,876,0,0
-301,148,0,0,0,0,0,0,0,0,0,-1,923,876,0,0
-294,148,0,0,0,0,0,0,0,0,0,-1,930,876,0,0
-287,148,0,0,0,0,0,0,0,0,0,-1,937,876,0,0
-280,148,0,0,0,0,0,0,0,0,0,-1,944,876,0,0
-273,148,0,0,0,0,0,0,0,0,0,-1,951,876,0,0
-266,148,0,0,0,0,0,0,0,0,0,-1,958,876,0,0
-259,148,0,0,0,0,0,0,0,0,0,-1,965,876,0,0
-252,148,0,0,0,0,0,0,0,0,0,-1,972,876,0,0
-245,148,0,0,0,0,0,0,0,0,0,-1,979,876,0,0
-238,148,0,0,0,0,0,0,0,0,0,-1,986,876,0,0
-231,148,0,0,0,0,0,0,0,0,0,-1,993,876,0,0
-224,148,0,0,0,0,0,0,0,0,0,-1,1000,876,0,0
-217,148,0,0,0,0,0,0,0,0,0,-1,1007,876,0,0
-210,148,0,0,0,0,0,0,0,0,0,-1,1014,876,0,0
-203,148,0,0,0,0,0,0,0,0,0,-1,1021,876,0,0
-196,148,0,0,0,0,0,0,0,0,0,-1,1028,876,0,0
-189,148,0,0,0,0,0,0,0,0,0,-1,1035,876,0,0
-182,148,0,0,0,0,0,0,0,0,0,-1,1042,876,0,0
-175,148,0,0,0,0,0,0,0,0,0,-1,1049,876,0,0
-168,148,0,0,0,0,0,0,0,0,0,-1,1056,876,0,0
-161,148,0,0,0,0,0,0,0,0,0,-1,1063,876,0,0
-154,148,0,0,0,0,0,0,0,0,0,-1,1070,876,0,0
-147,148,0,0,0,0,0,0,0,0,0,-1,1077,876,0,0
-140,148,0,0,0,0,0,0,0,0,0,-1,1084,876,0,0
-133,148,0,0,0,0,0,0,0,0,0,-1,1091,876,0,0
-126,148,0,0,0,0,0,0,0,0,0,-1,1098,876,0,0
-119,148,0,0,0,0,0,0,0,0,0,-1,1105,876,0,0
-112,148,0,0,0,0,0,0,0,0,0,-1,1112,876,0,0
-105,148,0,0,0,0,0,0,0,0,0,-1,1119,876,0,0
-98,148,0,0,0,0,0,0,0,0,0,-1,1126,876,0,0
-91,148,0,0,0,0,0,0,0,0,0,-1,1133,876,0,0
-84,148,0,0,0,0,0,0,0,0,0,-1,1140,876,0,0
-77,148,0,0,0,0,0,0,0,0,0,-1,1147,876,0,0
-70,148,0,0,0,0,0,0,0,0,0,-1,1154,876,0,0
-63,148,0,0,0,0,0,0,0,0,0,-1,1161,876,0,0
-56,148,0,0,0,0,0,0,0,0,0,-1,1168,876,0,0
-49,148,0,0,0,0,0,0,0,0,0,-1,1175,876,0,0
-42,148,0,0,0,0,0,0,0,0,0,-1,1182,876,0,0
-35,148,0,0,0,0,0,0,0,0,0,-1,1189,876,0,0
-28,148,0,0,0,0,0,0,0,0,0,-1,1196,876,0,0
-21,148,0,0,0,0,0,0,0,0,0,-1,1203,876,0,0
-14,148,0,0,0,0,0,0,0,0,0,-1,1210,876,0,0
-7,148,0,0,0,0,0,0,0,0,0,-1,1217,876,0,0
0,148,0,0,0,0,0,0,0,0,0,-1,1224,876,0,0
7,148,0,0,0,0,0,0,0,0,0,-1,1231,876,0,0
14,148,0,0,0,0,0,0,0,0,0,-1,1238,876,0,0
21,148,0,0,0,0,0,0,0,0,0,-1,1245,876,0,0
28,148,0,0,0,0,0,0,0,0,0,-1,1252,876,0,0
35,148,0,0,0,0,0,0,0,0,0,-1,1259,876,0,0
42,148,0,0,0,0,0,0,0,0,0,-1,1266,876,0,0
49,148,0,0,0,0,0,0,0,0,0,-1,1273,876,0,0
56,148,0,0,0,0,0,0,0,0,0,-1,1280,876,0,0
63,148,0,0,0,0,0,0,0,0,0,-1,1287,876,0,0
70,148,0,0,0,0,0,0,0,0,0,-1,1294,876,0,0
77,148,0,0,0,0,0,0,0,0,0,-1,1301,876,0,0
84,148,0,0,0,0,0,0,0,0,0,-1,1308,876,0,0
91,148,0,0,0,0,0,0,0,0,0,-1,1315,876,0,0
98,148,0,0,0,0,0,0,0,0,0,-1,1322,876,0,0
105,148,0,0,0,0,0,0,0,0,0,-1,1329,876,0,0
112,148,0,0,0,0,0,0,0,0,0,-1,1336,876,0,0
119,148,0,0,0,0,0,0,0,0,0,-1,1343,876,0,0
126,148,0,0,0,0,0,0,0,0,0,-1,1350,876,0,0
133,148,0,0,0,0,0,0,0,0,0,-1,1357,876,0,0
140,148,0,0,0,0,0,0,0,0,0,-1,1364,876,0,0
147,148,0,0,0,0,0,0,0,0,0,-1,1371,876,0,0
154,148,0,0,0,0,0,0,0,0,0,-1,1378,876,0,0
161,148,0,0,0,0,0,0,0,0,0,-1,1385,876,0,0
168,148,0,0,0,0,0,0,0,0,0,-1,1392,876,0,0
175,148,0,0,0,0,0,0,0,0,0,-1,1399,876,0,0
182,148,0,0,0,0,0,0,0,0,0,-1,1406,876,0,0
189,148,0,0,0,0,0,0,0,0,0,-1,1413,876,0,0
196,148,0,0,0,0,0,0,0,0,0,-1,1420,876,0,0
203,148,0,0,0,0,0,0,0,0,0,-1,1427,876,0,0
210,148,0,0,0,0,0,0,0,0,0,-1,1434,876,0,0
217,148,0,0,0,0,0,0,0,0,0,-1,1441,876,0,0
224,148,0,0,0,0,0,0,0,0,0,-1,1448,876,0,0
231,148,0,0,0,0,0,0,0,0,0,-1,1455,876,0,0
238,148,0,0,0,0,0,0,0,0,0,-1,1462,876,0,0
245,148,0,0,0,0,0,0,0,0,0,-1,1469,876,0,0
252,148,0,0,0,0,0,0,0,0,0,-1,1476,876,0,0
259,148,0,0,0,0,0,0,0,0,0,-1,1483,876,0,0
266,148,0,0,0,0,0,0,0,0,0,-1,1490,876,0,0
273,148,0,0,0,0,0,0,0,0,0,-1,1497,876,0,0
280,148,0,0,0,0,0,0,0,0,0,-1,1504,876,0,0
287,148,0,0,0,0,0,0,0,0,0,-1,1511,876,0,0
294,148,0,0,0,0,0,0,0,0,0,-1,1518,876,0,0
301,148,0,0,0,0,0,0,0,0,0,-1,1525,876,0,0
308,148,0,0,0,0,0,0,0,0,0,-1,1532,876,0,0
315,148,0,0,0,0,0,0,0,0,0,-1,1539,876,0,0
322,148,0,0,0,0,0,0,0,0,0,-1,1546,876,0,0
329,148,0,0,0,0,0,0,0,0,0,-1,1553,876,0,0
336,148,0,0,0,0,0,0,0,0,0,-1,1560,876,0,0
343,148,0,0,0,0,0,0,0,0,0,-1,1567,876,0,0
350,148,0,0,0,0,0,0,0,0,0,-1,1574,876,0,0
357,148,0,0,0,0,0,0,0,0,0,-1,1581,876,0,0
364,148,0,0,0,0,0,0,0,0,0,-1,1588,876,0,0
371,148,0,0,0,0,0,0,0,0,0,-1,1595,876,0,0
378,148,0,0,0,0,0,0,0,0,0,-1,1602,876,0,0
385,148,0,0,0,0,0,0,0,0,0,-1,1609,876,0,0
392,148,0,0,0,0,0,0,0,0,0,-1,1616,876,0,0
399,148,0,0,0,0,0,0,0,0,0,-1,1623,876,0,0
406,148,0,0,0,0,0,0,0,0,0,-1,1630,876,0,0
413,148,0,0,0,0,0,0,0,0,0,-1,1637,876,0,0
420,148,0,0,0,0,0,0,0,0,0,-1,1644,876,0,0
427,148,0,0,0,0,0,0,0,0,0,-1,1651,876,0,0
434,148,0,0,0,0,0,0,0,0,0,-1,1658,876,0,0
441,148,0,0,0,0,0,0,0,0,0,-1,1665,876,0,0
448,148,0,0,0,0,0,0,0,0,0,-1,1672,876,0,0
455,148,0,0,0,0,0,0,0,0,0,-1,1679,876,0,0
462,148,0,0,0,0,0,0,0,0,0,-1,1686,876,0,0
469,148,0,0,0,0,0,0,0,0,0,-1,1693,876,0,0
476,148,0,0,0,0,0,0,0,0,0,-1,1700,876,0,0
483,148,0,0,0,0,0,0,0,0,0,-1,1707,876,0,0
490,148,0,0,0,0,0,0,0,0,0,-1,1714,876,0,0
497,148,0,0,0,0,0,0,0,0,0,-1,1721,876,0,0
504,148,0,0,0,0,0,0,0,0,0,-1,1728,876,0,0
511,148,0,0,0,0,0,0,0,0,0,-1,1735,876,0,0
518,148,0,0,0,0,0,0,0,0,0,-1,1742,876,0,0
525,148,0,0,0,0,0,0,0,0,0,-1,1749,876,0,0
532,148,0,0,0,0,0,0,0,0,0,-1,1756,876,0,0
539,148,0,0,0,0,0,0,0,0,0,-1,1763,876,0,0
546,148,0,0,0,0,0,0,0,0,0,-1,1770,876,0,0
553,148,0,0,0,0,0,0,0,0,0,-1,1777,876,0,0
560,148,0,0,0,0,0,0,0,0,0,-1,1784,876,0,0
567,148,0,0,0,0,0,0,0,0,0,-1,1791,876,0,0
574,148,0,0,0,0,0,0,0,0,0,-1,1798,876,0,0
581,148,0,0,0,0,0,0,0,0,0,-1,1805,876,0,0
588,148,0,0,0,0,0,0,0,0,0,-1,1812,876,0,0
595,148,0,0,0,0,0,0,0,0,0,-1,1819,876,0,0
602,148,0,0,0,0,0,0,0,0,0,-1,1826,876,0,0
609,148,0,0,0,0,0,0,0,0,0,-1,1833,876,0,0
616,148,0,0,0,0,0,0,0,0,0,-1,1840,876,0,0
623,148,27.0975,3.35974,-0.00475067,-0.00264947,-0.00175272,-0.0016566,-0.00574354,-1.05539,0.00341356,0.0439556,1847,876,27.0976,-3.35972
630,148,26.915,3.38184,-0.00290412,-0.00182931,-0.00123711,-0.00101793,-0.00371551,-0.990303,0.00221701,0.0430837,1854,876,26.9151,-3.38186
637,148,26.9423,3.32281,-0.00159014,-0.00115726,-0.000938509,-0.000410558,-0.00233684,-0.898727,0.00144068,0.0404329,1861,876,26.9423,-3.32282
644,148,27.0313,3.18896,-0.000895276,-0.000700697,-0.00078417,-7.80466e-06,-0.00158817,-0.847116,0.00105619,0.0365953,1868,876,27.0313,-3.18896
651,148,27.1041,3.05054,-0.000614439,-0.00039711,-0.000739427,0.000241594,-0.00125314,-0.858355,0.00092652,0.0379361,1875,876,27.1042,-3.05057
658,148,27.0859,3.11182,-0.000596032,-0.000254447,-0.000730883,0.000325334,-0.00117581,-0.900178,0.000911875,0.0340815,1882,876,27.0859,-3.11182
665,148,27.024,3.18793,-0.000745132,-0.000177096,-0.000671763,0.000268223,-0.00119045,-0.985399,0.000896517,0.0240401,1889,876,27.024,-3.1879
672,148,27.0844,3.18793,-0.000884111,-0.000178178,-0.000613246,0.000176426,-0.00123872,-1.04653,0.000890464,0.026254,1896,876,27.0843,-3.18791
679,148,27.1024,3.10016,0,0,0,0,0,0,0,-1,1903,876,27.1025,-3.10015
686,148,21.6195,2.40845,0,0,0,0,0,0,0,-1,1910,876,21.6196,-2.40846
693,148,22.9235,3.01965,0,0,0,0,0,0,0,-1,1917,876,22.9234,-3.01967
700,148,23.248,3.36536,-0.000915018,-2.63345e-06,-0.0005575,0.000261534,-0.00117919,-1.12829,0.00088626,0.0198903,1924,876,23.2481,-3.36534
707,148,23.3658,3.71057,-0.000811415,5.22523e-05,-0.000505327,0.000285126,-0.00104429,-1.13897,0.000808178,0.0164698,1931,876,23.3659,-3.71058
714,148,23.2905,3.88483,-0.000539951,8.43729e-05,-0.000590727,0.000440345,-0.000895923,-1.02847,0.000786298,0.0158624,1938,876,23.2906,-3.88482
721,148,23.1462,4.06818,0.00031519,0.000174989,-0.000655251,0.00090408,-0.000413901,-0.73211,0.000778281,0.0166325,1945,876,23.1463,-4.06817
728,148,23.1285,4.29358,0.00142068,-0.000294003,-0.00104494,0.00191498,-0.000788304,-0.441849,0.00160529,0.0182121,1952,876,23.1286,-4.29355
735,148,23.1622,4.56549,0.00306553,-0.00170913,-0.00157534,0.00353845,-0.00218205,-0.291642,0.00333354,0.0177063,1959,876,23.1623,-4.56552
742,148,23.147,4.84967,0.00459737,-0.00355603,-0.001598,0.00489938,-0.00385804,-0.186788,0.005068,0.0196513,1966,876,23.147,-4.84966
749,148,23.1429,5.07239,0.00565322,-0.00649151,-0.00135944,0.00580353,-0.00664182,-0.110121,0.00719076,0.015848,1973,876,23.143,-5.07236
756,148,23.135,5.29865,0.00722208,-0.0109551,-0.00113411,0.00729257,-0.0110255,-0.0620712,0.0106489,0.0199398,1980,876,23.1351,-5.29864
763,148,22.9788,5.31384,0.00869154,-0.0173454,-0.000388429,0.00869734,-0.0173512,-0.0149139,0.0153133,0.041794,1987,876,22.9787,-5.31386
770,148,22.7747,5.34003,0,0,0,0,0,0,0,-1,1994,876,22.7747,-5.34005
777,148,22.62,5.46094,0,0,0,0,0,0,0,-1,2001,876,22.6201,-5.46095
784,148,22.708,5.62415,0,0,0,0,0,0,0,-1,2008,876,22.7081,-5.62415
791,148,21.6748,6.60858,0,0,0,0,0,0,0,-1,2015,876,21.6749,-6.60855
798,148,0,0,0,0,0,0,0,0,0,-1,2022,876,0,0
805,148,0,0,0,0,0,0,0,0,0,-1,2029,876,0,0
812,148,0,0,0,0,0,0,0,0,0,-1,2036,876,0,0
-700,141,0,0,0,0,0,0,0,0,0,-1,524,883,0,0
-693,141,0,0,0,0,0,0,0,0,0,-1,531,883,0,0
-686,141,0,0,0,0,0,0,0,0,0,-1,538,883,0,0
-679,141,0,0,0,0,0,0,0,0,0,-1,545,883,0,0
-672,141,-19.9227,1.55591,-0.0269324,0.00900798,-0.00405998,0.0094609,-0.0273854,-1.4597,0.0220963,0.0423365,552,883,-19.9227,-1.55591
-665,141,-20.1546,1.39429,-0.0171832,0.000131145,-0.00633455,0.00220119,-0.0192533,-1.25495,0.0136286,0.0444148,559,883,-20.1546,-1.39428
-658,141,-20.4033,1.11786,-0.01008,-0.00472492,-0.0066738,-0.000211569,-0.0145933,-0.976168,0.00965914,0.0451002,566,883,-20.4032,-1.11789
-651,141,-20.5543,1.10687,-0.0048438,-0.00713785,-0.00605789,0.000174698,-0.0121563,-0.691834,0.00816309,0.0403125,573,883,-20.5543,-1.10688
-644,141,-20.513,1.49152,-0.00108622,-0.00797236,-0.00494348,0.00149506,-0.0105536,-0.481216,0.0075834,0.0428475,580,883,-20.513,-1.4915
-637,141,-16.473,3.04126,0,0,0,0,0,0,0,-1,587,883,-16.473,-3.04126
-630,141,-16.1916,2.92474,0.00271674,-0.006953,-0.00231093,0.00324064,-0.0074769,-0.222935,0.00634685,0.0408107,594,883,-16.1916,-2.92475
-623,141,-15.8885,2.75171,0.00336916,-0.00566928,-0.00109375,0.00349963,-0.00579976,-0.118728,0.00542347,0.0223523,601,883,-15.8885,-2.75169
-616,141,-16.0143,2.52136,0.00336825,-0.00500874,-0.000389111,0.00338628,-0.00502678,-0.046317,0.00488797,0.0121992,608,883,-16.0143,-2.52139
-609,141,-16.0452,2.30609,0.00314782,-0.00432623,0.000266899,0.00315734,-0.00433575,0.0356496,0.00434393,0.013496,615,883,-16.0452,-2.30606
-602,141,-16.0544,2.09808,0.00263126,-0.00237994,0.00133918,0.00296669,-0.00271537,0.245423,0.00328161,0.0129522,622,883,-16.0544,-2.09808
-595,141,-16.0646,1.86163,0.00111772,-0.00139208,0.00145026,0.00178064,-0.002055,0.428746,0.00221639,0.0108305,629,883,-16.0646,-1.86163
-588,141,-16.2116,1.63037,0.000159989,-0.00105226,0.00138327,0.0010641,-0.00195637,0.578906,0.00176905,0.0163888,636,883,-16.2116,-1.63034
-581,141,-16.196,1.43567,-0.000598364,-0.000689932,0.00111612,0.000472909,-0.00176121,0.764899,0.00135947,0.0220829,643,883,-16.196,-1.4357
-574,141,-15.976,1.27496,-0.00155127,-0.000547158,0.000992602,6.31339e-05,-0.00216156,1.01954,0.00146254,0.0291999,650,883,-15.976,-1.27499
-567,141,-15.991,1.12433,-0.00215219,-0.000516645,0.000994996,-4.64859e-05,-0.00262235,1.12937,0.00173295,0.0323434,657,883,-15.991,-1.1243
-560,141,-16.1975,1.16412,-0.00245076,-0.000490062,0.00100096,-6.93395e-05,-0.00287148,1.1729,0.00189163,0.0445485,664,883,-16.1975,-1.16415
-553,141,-16.85,1.89899,0,0,0,0,0,0,0,-1,671,883,-16.85,-1.899
-546,141,-18.9127,1.3175,-0.0027914,-0.00079672,0.000950718,-0.000416181,-0.00317194,1.19006,0.00199046,0.0356587,678,883,-18.9127,-1.31752
-539,141,-18.96,1.22815,-0.00289656,-0.000884028,0.000990963,-0.000477999,-0.00330259,1.18193,0.00206095,0.0290833,685,883,-18.9599,-1.22814
-532,141,-18.9621,1.26758,-0.00304184,-0.00110001,0.00101958,-0.00066301,-0.00347884,1.16587,0.00213285,0.0287258,692,883,-18.9621,-1.26756
-525,141,-18.8589,1.36066,-0.00311034,-0.00161551,0.000964944,-0.00114237,-0.00358348,1.11492,0.00211373,0.036684,699,883,-18.8589,-1.36063
-518,141,-18.8469,1.48804,-0.00265156,-0.00264395,0.000759922,-0.00188783,-0.00340769,0.787901,0.00197125,0.0417753,706,883,-18.8469,-1.48804
-511,141,-18.9585,1.6217,-0.00127128,-0.0044223,0.000248945,-0.00125173,-0.00444184,0.0783569,0.00264464,0.0391529,713,883,-18.9585,-1.6217
-504,141,-19.0364,1.64343,0,0,0,0,0,0,0,-1,720,883,-19.0364,-1.64345
-497,141,0,0,0,0,0,0,0,0,0,-1,727,883,0,0
-490,141,0,0,0,0,0,0,0,0,0,-1,734,883,0,0
-483,141,0,0,0,0,0,0,0,0,0,-1,741,883,0,0
-476,141,0,0,0,0,0,0,0,0,0,-1,748,883,0,0
-469,141,0,0,0,0,0,0,0,0,0,-1,755,883,0,0
-462,141,0,0,0,0,0,0,0,0,0,-1,762,883,0,0
-455,141,0,0,0,0,0,0,0,0,0,-1,769,883,0,0
-448,141,0,0,0,0,0,0,0,0,0,-1,776,883,0,0
-441,141,0,0,0,0,0,0,0,0,0,-1,783,883,0,0
-434,141,0,0,0,0,0,0,0,0,0,-1,790,883,0,0
-427,141,0,0,0,0,0,0,0,0,0,-1,797,883,0,0
-420,141,0,0,0,0,0,0,0,0,0,-1,804,883,0,0
-413,141,0,0,0,0,0,0,0,0,0,-1,811,883,0,0
-406,141,0,0,0,0,0,0,0,0,0,-1,818,883,0,0
-399,141,0,0,0,0,0,0,0,0,0,-1,825,883,0,0
-392,141,0,0,0,0,0,0,0,0,0,-1,832,883,0,0
-385,141,0,0,0,0,0,0,0,0,0,-1,839,883,0,0
-378,141,0,0,0,0,0,0,0,0,0,-1,846,883,0,0
-371,141,0,0,0,0,0,0,0,0,0,-1,853,883,0,0
-364,141,0,0,0,0,0,0,0,0,0,-1,860,883,0,0
-357,141,0,0,0,0,0,0,0,0,0,-1,867,883,0,0
-350,141,0,0,0,0,0,0,0,0,0,-1,874,883,0,0
-343,141,0,0,0,0,0,0,0,0,0,-1,881,883,0,0
-336,141,0,0,0,0,0,0,0,0,0,-1,888,883,0,0
-329,141,0,0,0,0,0,0,0,0,0,-1,895,883,0,0
-322,141,0,0,0,0,0,0,0,0,0,-1,902,883,0,0
-315,141,0,0,0,0,0,0,0,0,0,-1,909,883,0,0
-308,141,0,0,0,0,0,0,0,0,0,-1,916,883,0,0
-301,141,0,0,0,0,0,0,0,0,0,-1,923,883,0,0
-294,141,0,0,0,0,0,0,0,0,0,-1,930,883,0,0
-287,141,0,0,0,0,0,0,0,0,0,-1,937,883,0,0
-280,141,0,0,0,0,0,0,0,0,0,-1,944,883,0,0
-273,141,0,0,0,0,0,0,0,0,0,-1,951,883,0,0
-266,141,0,0,0,0,0,0,0,0,0,-1,958,883,0,0
-259,141,0,0,0,0,0,0,0,0,0,-1,965,883,0,0
-252,141,0,0,0,0,0,0,0,0,0,-1,972,883,0,0
-245,141,0,0,0,0,0,0,0,0,0,-1,979,883,0,0
-238,141,0,0,0,0,0,0,0,0,0,-1,986,883,0,0
-231,141,0,0,0,0,0,0,0,0,0,-1,993,883,0,0
-224,141,0,0,0,0,0,0,0,0,0,-1,1000,883,0,0
-217,141,0,0,0,0,0,0,0,0,0,-1,1007,883,0,0
-210,141,0,0,0,0,0,0,0,0,0,-1,1014,883,0,0
-203,141,0,0,0,0,0,0,0,0,0,-1,1021,883,0,0
-196,141,0,0,0,0,0,0,0,0,0,-1,1028,883,0,0
-189,141,0,0,0,0,0,0,0,0,0,-1,1035,883,0,0
-182,141,0,0,0,0,0,0,0,0,0,-1,1042,883,0,0
-175,141,0,0,0,0,0,0,0,0,0,-1,1049,883,0,0
-168,141,0,0,0,0,0,0,0,0,0,-1,1056,883,0,0
-161,141,0,0,0,0,0,0,0,0,0,-1,1063,883,0,0
-154,141,0,0,0,0,0,0,0,0,0,-1,1070,883,0,0
-147,141,0,0,0,0,0,0,0,0,0,-1,1077,883,0,0
-140,141,0,0,0,0,0,0,0,0,0,-1,1084,883,0,0
-133,141,0,0,0,0,0,0,0,0,0,-1,1091,883,0,0
-126,141,0,0,0,0,0,0,0,0,0,-1,1098,883,0,0
-119,141,0,0,0,0,0,0,0,0,0,-1,1105,883,0,0
-112,141,0,0,0,0,0,0,0,0,0,-1,1112,883,0,0
-105,141,0,0,0,0,0,0,0,0,0,-1,1119,883,0,0
-98,141,0,0,0,0,0,0,0,0,0,-1,1126,883,0,0
-91,141,0,0,0,0,0,0,0,0,0,-1,1133,883,0,0
-84,141,0,0,0,0,0,0,0,0,0,-1,1140,883,0,0
-77,141,0,0,0,0,0,0,0,0,0,-1,1147,883,0,0
-70,141,0,0,0,0,0,0,0,0,0,-1,1154,883,0,0
-63,141,0,0,0,0,0,0,0,0,0,-1,1161,883,0,0
-56,141,0,0,0,0,0,0,0,0,0,-1,1168,883,0,0
-49,141,0,0,0,0,0,0,0,0,0,-1,1175,883,0,0
-42,141,0,0,0,0,0,0,0,0,0,-1,1182,883,0,0
-35,141,0,0,0,0,0,0,0,0,0,-1,1189,883,0,0
-28,141,0,0,0,0,0,0,0,0,0,-1,1196,883,0,0
-21,141,0,0,0,0,0,0,0,0,0,-1,1203,883,0,0
-14,141,0,0,0,0,0,0,0,0,0,-1,1210,883,0,0
-7,141,0,0,0,0,0,0,0,0,0,-1,1217,883,0,0
0,141,0,0,0,0,0,0,0,0,0,-1,1224,883,0,0
7,141,0,0,0,0,0,0,0,0,0,-1,1231,883,0,0
14,141,0,0,0,0,0,0,0,0,0,-1,1238,883,0,0
21,141,0,0,0,0,0,0,0,0,0,-1,1245,883,0,0
28,141,0,0,0,0,0,0,0,0,0,-1,1252,883,0,0
35,141,0,0,0,0,0,0,0,0,0,-1,1259,883,0,0
42,141,0,0,0,0,0,0,0,0,0,-1,1266,883,0,0
49,141,0,0,0,0,0,0,0,0,0,-1,1273,883,0,0
56,141,0,0,0,0,0,0,0,0,0,-1,1280,883,0,0
63,141,0,0,0,0,0,0,0,0,0,-1,1287,883,0,0
70,141,0,0,0,0,0,0,0,0,0,-1,1294,883,0,0
77,141,0,0,0,0,0,0,0,0,0,-1,1301,883,0,0
84,141,0,0,0,0,0,0,0,0,0,-1,1308,883,0,0
91,141,0,0,0,0,0,0,0,0,0,-1,1315,883,0,0
98,141,0,0,0,0,0,0,0,0,0,-1,1322,883,0,0
105,141,0,0,0,0,0,0,0,0,0,-1,1329,883,0,0
112,141,0,0,0,0,0,0,0,0,0,-1,1336,883,0,0
119,141,0,0,0,0,0,0,0,0,0,-1,1343,883,0,0
126,141,0,0,0,0,0,0,0,0,0,-1,1350,883,0,0
133,141,0,0,0,0,0,0,0,0,0,-1,1357,883,0,0
140,141,0,0,0,0,0,0,0,0,0,-1,1364,883,0,0
147,141,0,0,0,0,0,0,0,0,0,-1,1371,883,0,0
154,141,0,0,0,0,0,0,0,0,0,-1,1378,883,0,0
161,141,0,0,0,0,0,0,0,0,0,-1,1385,883,0,0
168,141,0,0,0,0,0,0,0,0,0,-1,1392,883,0,0
175,141,0,0,0,0,0,0,0,0,0,-1,1399,883,0,0
182,141,0,0,0,0,0,0,0,0,0,-1,1406,883,0,0
189,141,0,0,0,0,0,0,0,0,0,-1,1413,883,0,0
196,141,0,0,0,0,0,0,0,0,0,-1,1420,883,0,0
203,141,0,0,0,0,0,0,0,0,0,-1,1427,883,0,0
210,141,0,0,0,0,0,0,0,0,0,-1,1434,883,0,0
217,141,0,0,0,0,0,0,0,0,0,-1,1441,883,0,0
224,141,0,0,0,0,0,0,0,0,0,-1,1448,883,0,0
231,141,0,0,0,0,0,0,0,0,0,-1,1455,883,0,0
238,141,0,0,0,0,0,0,0,0,0,-1,1462,883,0,0
245,141,0,0,0,0,0,0,0,0,0,-1,1469,883,0,0
252,141,0,0,0,0,0,0,0,0,0,-1,1476,883,0,0
259,141,0,0,0,0,0,0,0,0,0,-1,1483,883,0,0
266,141,0,0,0,0,0,0,0,0,0,-1,1490,883,0,0
273,141,0,0,0,0,0,0,0,0,0,-1,1497,883,0,0
280,141,0,0,0,0,0,0,0,0,0,-1,1504,883,0,0
287,141,0,0,0,0,0,0,0,0,0,-1,1511,883,0,0
294,141,0,0,0,0,0,0,0,0,0,-1,1518,883,0,0
301,141,0,0,0,0,0,0,0,0,0,-1,1525,883,0,0
308,141,0,0,0,0,0,0,0,0,0,-1,1532,883,0,0
315,141,0,0,0,0,0,0,0,0,0,-1,1539,883,0,0
322,141,0,0,0,0,0,0,0,0,0,-1,1546,883,0,0
329,141,0,0,0,0,0,0,0,0,0,-1,1553,883,0,0
336,141,0,0,0,0,0,0,0,0,0,-1,1560,883,0,0
343,141,0,0,0,0,0,0,0,0,0,-1,1567,883,0,0
350,141,0,0,0,0,0,0,0,0,0,-1,1574,883,0,0
357,141,0,0,0,0,0,0,0,0,0,-1,1581,883,0,0
364,141,0,0,0,0,0,0,0,0,0,-1,1588,883,0,0
371,141,0,0,0,0,0,0,0,0,0,-1,1595,883,0,0
378,141,0,0,0,0,0,0,0,0,0,-1,1602,883,0,0
385,141,0,0,0,0,0,0,0,0,0,-1,1609,883,0,0
392,141,0,0,0,0,0,0,0,0,0,-1,1616,883,0,0
399,141,0,0,0,0,0,0,0,0,0,-1,1623,883,0,0
406,141,0,0,0,0,0,0,0,0,0,-1,1630,883,0,0
413,141,0,0,0,0,0,0,0,0,0,-1,1637,883,0,0
420,141,0,0,0,0,0,0,0,0,0,-1,1644,883,0,0
427,141,0,0,0,0,0,0,0,0,0,-1,1651,883,0,0
434,141,0,0,0,0,0,0,0,0,0,-1,1658,883,0,0
441,141,0,0,0,0,0,0,0,0,0,-1,1665,883,0,0
448,141,0,0,0,0,0,0,0,0,0,-1,1672,883,0,0
455,141,0,0,0,0,0,0,0,0,0,-1,1679,883,0,0
462,141,0,0,0,0,0,0,0,0,0,-1,1686,883,0,0
469,141,0,0,0,0,0,0,0,0,0,-1,1693,883,0,0
476,141,0,0,0,0,0,0,0,0,0,-1,1700,883,0,0
483,141,0,0,0,0,0,0,0,0,0,-1,1707,883,0,0
490,141,0,0,0,0,0,0,0,0,0,-1,1714,883,0,0
497,141,0,0,0,0,0,0,0,0,0,-1,1721,883,0,0
504,141,0,0,0,0,0,0,0,0,0,-1,1728,883,0,0
511,141,0,0,0,0,0,0,0,0,0,-1,1735,883,0,0
518,141,0,0,0,0,0,0,0,0,0,-1,1742,883,0,0
525,141,0,0,0,0,0,0,0,0,0,-1,1749,883,0,0
532,141,0,0,0,0,0,0,0,0,0,-1,1756,883,0,0
539,141,0,0,0,0,0,0,0,0,0,-1,1763,883,0,0
546,141,0,0,0,0,0,0,0,0,0,-1,1770,883,0,0
553,141,0,0,0,0,0,0,0,0,0,-1,1777,883,0,0
560,141,0,0,0,0,0,0,0,0,0,-1,1784,883,0,0
567,141,0,0,0,0,0,0,0,0,0,-1,1791,883,0,0
574,141,0,0,0,0,0,0,0,0,0,-1,1798,883,0,0
581,141,0,0,0,0,0,0,0,0,0,-1,1805,883,0,0
588,141,0,0,0,0,0,0,0,0,0,-1,1812,883,0,0
595,141,0,0,0,0,0,0,0,0,0,-1,1819,883,0,0
602,141,0,0,0,0,0,0,0,0,0,-1,1826,883,0,0
609,141,0,0,0,0,0,0,0,0,0,-1,1833,883,0,0
616,141,0,0,0,0,0,0,0,0,0,-1,1840,883,0,0
623,141,27.1462,3.39136,-0.00621819,-0.0015396,-0.00167178,-0.00100363,-0.00675416,-1.26055,0.00420831,0.0433748,1847,883,27.1462,-3.39137
630,141,26.8861,3.30457,-0.00385598,-0.000729303,-0.00136522,-0.000217104,-0.00436817,-1.21187,0.00284251,0.0438509,1854,883,26.8861,-3.30456
637,141,26.8616,3.22736,-0.00216987,-6.94854e-05,-0.00117971,0.000459761,-0.00269911,-1.14909,0.00197062,0.0423198,1861,883,26.8616,-3.22736
644,141,27.0242,3.12549,-0.00121337,0.000351626,-0.00105383,0.000881704,-0.00174345,-1.10475,0.00154261,0.0404596,1868,883,27.0241,-3.1255
651,141,27.1775,3.31122,-0.000835124,0.000616983,-0.000964211,0.00109793,-0.00131607,-1.10811,0.00139562,0.0399423,1875,883,27.1775,-3.31122
658,141,27.176,3.31207,-0.000803537,0.000690963,-0.000883384,0.00110076,-0.00121333,-1.13645,0.00133657,0.0364325,1882,883,27.1761,-3.31207
665,141,27.0493,3.17145,-0.000918441,0.000636071,-0.000751859,0.000940211,-0.00122258,-1.1864,0.00125223,0.0260421,1889,883,27.0493,-3.17144
672,141,27.068,3.20453,-0.00103376,0.000525879,-0.000633556,0.000750803,-0.00125869,-1.22966,0.00117247,0.0174907,1896,883,27.068,-3.20455
679,141,27.0416,3.1568,-0.000926321,0.000518265,-0.00056996,0.00071606,-0.00112412,-1.23677,0.0010711,0.0241907,1903,883,27.0416,-3.1568
686,141,27.0138,3.09943,0,0,0,0,0,0,0,-1,1910,883,27.0137,-3.09941
693,141,23.2255,3.03241,0,0,0,0,0,0,0,-1,1917,883,23.2255,-3.03244
700,141,23.4635,3.35492,-0.00110531,0.000221163,-0.00041415,0.000339849,-0.00122399,-1.2917,0.000949766,0.0202995,1924,883,23.4635,-3.35491
707,141,23.4913,3.62622,-0.00105104,0.000158643,-0.000390914,0.000273973,-0.00116637,-1.28391,0.000883183,0.0165282,1931,883,23.4913,-3.62619
714,141,23.3834,3.82336,-0.000810422,0.000120748,-0.000525148,0.000356982,-0.00104666,-1.14807,0.000842368,0.0163954,1938,883,23.3834,-3.82334
721,141,23.3912,4.07373,-4.51692e-05,0.000278879,-0.000660586,0.000797021,-0.000563312,-0.905661,0.000789242,0.012302,1945,883,23.3912,-4.07375
728,141,23.4225,4.28876,0.000868621,-8.4776e-05,-0.00117135,0.00165656,-0.000872712,-0.59215,0.00148346,0.0136875,1952,883,23.4225,-4.28878
735,141,23.3871,4.58307,0.00221543,-0.00139085,-0.00180399,0.00296292,-0.00213834,-0.392817,0.00295801,0.014254,1959,883,23.3871,-4.58306
742,141,23.3704,4.82813,0.00328274,-0.00298994,-0.00179584,0.00376049,-0.0034677,-0.260011,0.00417434,0.0160381,1966,883,23.3704,-4.8281
749,141,23.3787,5.04565,0.00364561,-0.0055694,-0.00140195,0.00385418,-0.00577797,-0.147687,0.00559798,0.0130904,1973,883,23.3786,-5.04567
756,141,23.3562,5.29431,0.00437628,-0.00954545,-0.000916223,0.00443632,-0.00960549,-0.0654363,0.00828813,0.0188821,1980,883,23.3562,-5.29431
763,141,23.3566,5.34277,0.00476119,-0.0152172,0.0002851,0.00476525,-0.0152213,0.0142665,0.0120541,0.0427576,1987,883,23.3566,-5.3428
770,141,23.334,5.39661,0,0,0,0,0,0,0,-1,1994,883,23.3339,-5.39659
777,141,22.6678,5.17053,0,0,0,0,0,0,0,-1,2001,883,22.6678,-5.17054
784,141,22.6803,7.02869,0,0,0,0,0,0,0,-1,2008,883,22.6803,-7.02866
791,141,24.9222,5.34216,0,0,0,0,0,0,0,-1,2015,883,24.9223,-5.34214
798,141,0,0,0,0,0,0,0,0,0,-1,2022,883,0,0
805,141,0,0,0,0,0,0,0,0,0,-1,2029,883,0,0
812,141,0,0,0,0,0,0,0,0,0,-1,2036,883,0,0
-700,134,0,0,0,0,0,0,0,0,0,-1,524,890,0,0
-693,134,0,0,0,0,0,0,0,0,0,-1,531,890,0,0
-686,134,0,0,0,0,0,0,0,0,0,-1,538,890,0,0
-679,134,0,0,0,0,0,0,0,0,0,-1,545,890,0,0
-672,134,-19.5645,1.16925,0,0,0,0,0,0,0,-1,552,890,-19.5645,-1.16926
-665,134,-19.4128,1.79572,-0.0145458,-0.00503196,-0.0116018,0.00275025,-0.022328,-0.979953,0.0158816,0.0440857,559,890,-19.4128,-1.79571
-658,134,-19.4964,1.49292,-0.00879178,-0.00799783,-0.010737,0.00234957,-0.0191392,-0.803876,0.0136104,0.0423983,566,890,-19.4964,-1.49293
-651,134,-19.5769,1.52753,-0.00444752,-0.00910272,-0.00917672,0.00269219,-0.0162424,-0.661196,0.0118283,0.0413529,573,890,-19.5769,-1.52753
-644,134,-19.6106,1.60718,-0.00127745,-0.00902977,-0.00730734,0.00311814,-0.0134254,-0.541544,0.0101505,0.0431986,580,890,-19.6106,-1.60717
-637,134,-16.8572,2.78833,0,0,0,0,0,0,0,-1,587,890,-16.8572,-2.78833
-630,134,-16.4785,2.76147,0.00200062,-0.00700064,-0.00361369,0.00327186,-0.00827188,-0.338263,0.00687001,0.0408738,594,890,-16.4785,-2.76149
-623,134,-16.1472,2.71307,0.0025701,-0.00547902,-0.00202177,0.00304938,-0.00595831,-0.232766,0.00529021,0.0216488,601,890,-16.1472,-2.7131
-616,134,-16.265,2.50372,0.00256938,-0.00464669,-0.000960833,0.00269512,-0.00477243,-0.130132,0.00436664,0.011842,608,890,-16.2649,-2.50371
-609,134,-16.3148,2.30469,0.00226847,-0.00384647,-0.000102573,0.00227019,-0.00384819,-0.0167679,0.0035714,0.0120305,615,890,-16.3148,-2.30469
-602,134,-16.301,2.09668,0.00176808,-0.0019922,0.00109543,0.00206392,-0.00228804,0.263776,0.00251372,0.0128614,622,890,-16.301,-2.09668
-595,134,-16.2764,1.9007,0.000422171,-0.001065,0.00132046,0.00119402,-0.00183685,0.528966,0.00176294,0.0127446,629,890,-16.2764,-1.90067
-588,134,-16.4948,1.72113,-0.000438928,-0.000874444,0.0012933,0.000654819,-0.00196819,0.701994,0.00157641,0.0210762,636,890,-16.4948,-1.72115
-581,134,-16.4653,1.39124,-0.00114322,-0.000677802,0.00102548,0.000141043,-0.00196206,0.896972,0.0013575,0.0289049,643,890,-16.4652,-1.39121
-574,134,-16.4282,1.1629,-0.00206994,-0.000588773,0.00090524,-0.000159774,-0.00249894,1.12824,0.00161533,0.0317427,650,890,-16.4282,-1.16291
-567,134,-16.2042,0.981445,-0.00266321,-0.000589528,0.000906485,-0.000249142,-0.00300359,1.21159,0.00192473,0.0254445,657,890,-16.2042,-0.981416
-560,134,-16.7728,1.78827,0,0,0,0,0,0,0,-1,664,890,-16.7728,-1.7883
-553,134,-18.8852,1.26215,0,0,0,0,0,0,0,-1,671,890,-18.8852,-1.26215
-546,134,-18.9171,1.26019,-0.00338748,-0.000814802,0.001,-0.000471823,-0.00373046,1.24039,0.00234557,0.0252846,678,890,-18.917,-1.26022
-539,134,-18.9328,1.25751,-0.00359625,-0.000861246,0.00109782,-0.000475101,-0.00398239,1.23257,0.00251159,0.01754,685,890,-18.9328,-1.25753
-532,134,-18.9562,1.2785,-0.00388017,-0.00101394,0.00119592,-0.000580491,-0.00431361,1.22309,0.0027031,0.02324,692,890,-18.9562,-1.27848
-525,134,-18.8494,1.39398,-0.00416784,-0.00143699,0.00119919,-0.000985148,-0.00461968,1.21046,0.00280958,0.0352533,699,890,-18.8495,-1.39395
-518,134,-18.8497,1.49554,-0.00411271,-0.00231655,0.0010468,-0.00183538,-0.00459388,1.13994,0.00267007,0.0405074,706,890,-18.8497,-1.49553
-511,134,-19.0436,1.48651,-0.00338254,-0.00375687,0.000528525,-0.00300902,-0.00413039,0.615223,0.0024663,0.0433112,713,890,-19.0436,-1.48654
-504,134,0,0,0,0,0,0,0,0,0,-1,720,890,0,0
-497,134,0,0,0,0,0,0,0,0,0,-1,727,890,0,0
-490,134,0,0,0,0,0,0,0,0,0,-1,734,890,0,0
-483,134,0,0,0,0,0,0,0,0,0,-1,741,890,0,0
-476,134,0,0,0,0,0,0,0,0,0,-1,748,890,0,0
-469,134,0,0,0,0,0,0,0,0,0,-1,755,890,0,0
-462,134,0,0,0,0,0,0,0,0,0,-1,762,890,0,0
-455,134,0,0,0,0,0,0,0,0,0,-1,769,890,0,0
-448,134,0,0,0,0,0,0,0,0,0,-1,776,890,0,0
-441,134,0,0,0,0,0,0,0,0,0,-1,783,890,0,0
-434,134,0,0,0,0,0,0,0,0,0,-1,790,890,0,0
-427,134,0,0,0,0,0,0,0,0,0,-1,797,890,0,0
-420,134,0,0,0,0,0,0,0,0,0,-1,804,890,0,0
-413,134,0,0,0,0,0,0,0,0,0,-1,811,890,0,0
-406,134,0,0,0,0,0,0,0,0,0,-1,818,890,0,0
-399,134,0,0,0,0,0,0,0,0,0,-1,825,890,0,0
-392,134,0,0,0,0,0,0,0,0,0,-1,832,890,0,0
-385,134,0,0,0,0,0,0,0,0,0,-1,839,890,0,0
-378,134,0,0,0,0,0,0,0,0,0,-1,846,890,0,0
-371,134,0,0,0,0,0,0,0,0,0,-1,853,890,0,0
-364,134,0,0,0,0,0,0,0,0,0,-1,860,890,0,0
-357,134,0,0,0,0,0,0,0,0,0,-1,867,890,0,0
-350,134,0,0,0,0,0,0,0,0,0,-1,874,890,0,0
-343,134,0,0,0,0,0,0,0,0,0,-1,881,890,0,0
-336,134,0,0,0,0,0,0,0,0,0,-1,888,890,0,0
-329,134,0,0,0,0,0,0,0,0,0,-1,895,890,0,0
-322,134,0,0,0,0,0,0,0,0,0,-1,902,890,0,0
-315,134,0,0,0,0,0,0,0,0,0,-1,909,890,0,0
-308,134,0,0,0,0,0,0,0,0,0,-1,916,890,0,0
-301,134,0,0,0,0,0,0,0,0,0,-1,923,890,0,0
-294,134,0,0,0,0,0,0,0,0,0,-1,930,890,0,0
-287,134,0,0,0,0,0,0,0,0,0,-1,937,890,0,0
-280,134,0,0,0,0,0,0,0,0,0,-1,944,890,0,0
-273,134,0,0,0,0,0,0,0,0,0,-1,951,890,0,0
-266,134,0,0,0,0,0,0,0,0,0,-1,958,890,0,0
-259,134,0,0,0,0,0,0,0,0,0,-1,965,890,0,0
-252,134,0,0,0,0,0,0,0,0,0,-1,972,890,0,0
-245,134,0,0,0,0,0,0,0,0,0,-1,979,890,0,0
-238,134,0,0,0,0,0,0,0,0,0,-1,986,890,0,0
-231,134,0,0,0,0,0,0,0,0,0,-1,993,890,0,0
-224,134,0,0,0,0,0,0,0,0,0,-1,1000,890,0,0
-217,134,0,0,0,0,0,0,0,0,0,-1,1007,890,0,0
-210,134,0,0,0,0,0,0,0,0,0,-1,1014,890,0,0
-203,134,0,0,0,0,0,0,0,0,0,-1,1021,890,0,0
-196,134,0,0,0,0,0,0,0,0,0,-1,1028,890,0,0
-189,134,0,0,0,0,0,0,0,0,0,-1,1035,890,0,0
-182,134,0,0,0,0,0,0,0,0,0,-1,1042,890,0,0
-175,134,0,0,0,0,0,0,0,0,0,-1,1049,890,0,0
-168,134,0,0,0,0,0,0,0,0,0,-1,1056,890,0,0
-161,134,0,0,0,0,0,0,0,0,0,-1,1063,890,0,0
-154,134,0,0,0,0,0,0,0,0,0,-1,1070,890,0,0
-147,134,0,0,0,0,0,0,0,0,0,-1,1077,890,0,0
-140,134,0,0,0,0,0,0,0,0,0,-1,1084,890,0,0
-133,134,0,0,0,0,0,0,0,0,0,-1,1091,890,0,0
-126,134,0,0,0,0,0,0,0,0,0,-1,1098,890,0,0
-119,134,0,0,0,0,0,0,0,0,0,-1,1105,890,0,0
-112,134,0,0,0,0,0,0,0,0,0,-1,1112,890,0,0
-105,134,0,0,0,0,0,0,0,0,0,-1,1119,890,0,0
-98,134,0,0,0,0,0,0,0,0,0,-1,1126,890,0,0
-91,134,0,0,0,0,0,0,0,0,0,-1,1133,890,0,0
-84,134,0,0,0,0,0,0,0,0,0,-1,1140,890,0,0
-77,134,0,0,0,0,0,0,0,0,0,-1,1147,890,0,0
-70,134,0,0,0,0,0,0,0,0,0,-1,1154,890,0,0
-63,134,0,0,0,0,0,0,0,0,0,-1,1161,890,0,0
-56,134,0,0,0,0,0,0,0,0,0,-1,1168,890,0,0
-49,134,0,0,0,0,0,0,0,0,0,-1,1175,890,0,0
-42,134,0,0,0,0,0,0,0,0,0,-1,1182,890,0,0
-35,134,0,0,0,0,0,0,0,0,0,-1,1189,890,0,0
-28,134,0,0,0,0,0,0,0,0,0,-1,1196,890,0,0
-21,134,0,0,0,0,0,0,0,0,0,-1,1203,890,0,0
-14,134,0,0,0,0,0,0,0,0,0,-1,1210,890,0,0
-7,134,0,0,0,0,0,0,0,0,0,-1,1217,890,0,0
0,134,0,0,0,0,0,0,0,0,0,-1,1224,890,0,0
7,134,0,0,0,0,0,0,0,0,0,-1,1231,890,0,0
14,134,0,0,0,0,0,0,0,0,0,-1,1238,890,0,0
21,134,0,0,0,0,0,0,0,0,0,-1,1245,890,0,0
28,134,0,0,0,0,0,0,0,0,0,-1,1252,890,0,0
35,134,0,0,0,0,0,0,0,0,0,-1,1259,890,0,0
42,134,0,0,0,0,0,0,0,0,0,-1,1266,890,0,0
49,134,0,0,0,0,0,0,0,0,0,-1,1273,890,0,0
56,134,0,0,0,0,0,0,0,0,0,-1,1280,890,0,0
63,134,0,0,0,0,0,0,0,0,0,-1,1287,890,0,0
70,134,0,0,0,0,0,0,0,0,0,-1,1294,890,0,0
77,134,0,0,0,0,0,0,0,0,0,-1,1301,890,0,0
84,134,0,0,0,0,0,0,0,0,0,-1,1308,890,0,0
91,134,0,0,0,0,0,0,0,0,0,-1,1315,890,0,0
98,134,0,0,0,0,0,0,0,0,0,-1,1322,890,0,0
105,134,0,0,0,0,0,0,0,0,0,-1,1329,890,0,0
112,134,0,0,0,0,0,0,0,0,0,-1,1336,890,0,0
119,134,0,0,0,0,0,0,0,0,0,-1,1343,890,0,0
126,134,0,0,0,0,0,0,0,0,0,-1,1350,890,0,0
133,134,0,0,0,0,0,0,0,0,0,-1,1357,890,0,0
140,134,0,0,0,0,0,0,0,0,0,-1,1364,890,0,0
147,134,0,0,0,0,0,0,0,0,0,-1,1371,890,0,0
154,134,0,0,0,0,0,0,0,0,0,-1,1378,890,0,0
161,134,0,0,0,0,0,0,0,0,0,-1,1385,890,0,0
168,134,0,0,0,0,0,0,0,0,0,-1,1392,890,0,0
175,134,0,0,0,0,0,0,0,0,0,-1,1399,890,0,0
182,134,0,0,0,0,0,0,0,0,0,-1,1406,890,0,0
189,134,0,0,0,0,0,0,0,0,0,-1,1413,890,0,0
196,134,0,0,0,0,0,0,0,0,0,-1,1420,890,0,0
203,134,0,0,0,0,0,0,0,0,0,-1,1427,890,0,0
210,134,0,0,0,0,0,0,0,0,0,-1,1434,890,0,0
217,134,0,0,0,0,0,0,0,0,0,-1,1441,890,0,0
224,134,0,0,0,0,0,0,0,0,0,-1,1448,890,0,0
231,134,0,0,0,0,0,0,0,0,0,-1,1455,890,0,0
238,134,0,0,0,0,0,0,0,0,0,-1,1462,890,0,0
245,134,0,0,0,0,0,0,0,0,0,-1,1469,890,0,0
252,134,0,0,0,0,0,0,0,0,0,-1,1476,890,0,0
259,134,0,0,0,0,0,0,0,0,0,-1,1483,890,0,0
266,134,0,0,0,0,0,0,0,0,0,-1,1490,890,0,0
273,134,0,0,0,0,0,0,0,0,0,-1,1497,890,0,0
280,134,0,0,0,0,0,0,0,0,0,-1,1504,890,0,0
287,134,0,0,0,0,0,0,0,0,0,-1,1511,890,0,0
294,134,0,0,0,0,0,0,0,0,0,-1,1518,890,0,0
301,134,0,0,0,0,0,0,0,0,0,-1,1525,890,0,0
308,134,0,0,0,0,0,0,0,0,0,-1,1532,890,0,0
315,134,0,0,0,0,0,0,0,0,0,-1,1539,890,0,0
322,134,0,0,0,0,0,0,0,0,0,-1,1546,890,0,0
329,134,0,0,0,0,0,0,0,0,0,-1,1553,890,0,0
336,134,0,0,0,0,0,0,0,0,0,-1,1560,890,0,0
343,134,0,0,0,0,0,0,0,0,0,-1,1567,890,0,0
350,134,0,0,0,0,0,0,0,0,0,-1,1574,890,0,0
357,134,0,0,0,0,0,0,0,0,0,-1,1581,890,0,0
364,134,0,0,0,0,0,0,0,0,0,-1,1588,890,0,0
371,134,0,0,0,0,0,0,0,0,0,-1,1595,890,0,0
378,134,0,0,0,0,0,0,0,0,0,-1,1602,890,0,0
385,134,0,0,0,0,0,0,0,0,0,-1,1609,890,0,0
392,134,0,0,0,0,0,0,0,0,0,-1,1616,890,0,0
399,134,0,0,0,0,0,0,0,0,0,-1,1623,890,0,0
406,134,0,0,0,0,0,0,0,0,0,-1,1630,890,0,0
413,134,0,0,0,0,0,0,0,0,0,-1,1637,890,0,0
420,134,0,0,0,0,0,0,0,0,0,-1,1644,890,0,0
427,134,0,0,0,0,0,0,0,0,0,-1,1651,890,0,0
434,134,0,0,0,0,0,0,0,0,0,-1,1658,890,0,0
441,134,0,0,0,0,0,0,0,0,0,-1,1665,890,0,0
448,134,0,0,0,0,0,0,0,0,0,-1,1672,890,0,0
455,134,0,0,0,0,0,0,0,0,0,-1,1679,890,0,0
462,134,0,0,0,0,0,0,0,0,0,-1,1686,890,0,0
469,134,0,0,0,0,0,0,0,0,0,-1,1693,890,0,0
476,134,0,0,0,0,0,0,0,0,0,-1,1700,890,0,0
483,134,0,0,0,0,0,0,0,0,0,-1,1707,890,0,0
490,134,0,0,0,0,0,0,0,0,0,-1,1714,890,0,0
497,134,0,0,0,0,0,0,0,0,0,-1,1721,890,0,0
504,134,0,0,0,0,0,0,0,0,0,-1,1728,890,0,0
511,134,0,0,0,0,0,0,0,0,0,-1,1735,890,0,0
518,134,0,0,0,0,0,0,0,0,0,-1,1742,890,0,0
525,134,0,0,0,0,0,0,0,0,0,-1,1749,890,0,0
532,134,0,0,0,0,0,0,0,0,0,-1,1756,890,0,0
539,134,0,0,0,0,0,0,0,0,0,-1,1763,890,0,0
546,134,0,0,0,0,0,0,0,0,0,-1,1770,890,0,0
553,134,0,0,0,0,0,0,0,0,0,-1,1777,890,0,0
560,134,0,0,0,0,0,0,0,0,0,-1,1784,890,0,0
567,134,0,0,0,0,0,0,0,0,0,-1,1791,890,0,0
574,134,0,0,0,0,0,0,0,0,0,-1,1798,890,0,0
581,134,0,0,0,0,0,0,0,0,0,-1,1805,890,0,0
588,134,0,0,0,0,0,0,0,0,0,-1,1812,890,0,0
595,134,0,0,0,0,0,0,0,0,0,-1,1819,890,0,0
602,134,0,0,0,0,0,0,0,0,0,-1,1826,890,0,0
609,134,0,0,0,0,0,0,0,0,0,-1,1833,890,0,0
616,134,0,0,0,0,0,0,0,0,0,-1,1840,890,0,0
623,134,27.1229,3.49011,-0.00744416,-0.000301812,-0.0017207,9.11143e-05,-0.00783709,-1.34629,0.00525536,0.044122,1847,890,27.1229,-3.49014
630,134,26.8932,3.45612,-0.00452752,0.00039688,-0.00159169,0.000866556,-0.0049972,-1.28386,0.00365472,0.0456122,1854,890,26.8931,-3.45614
637,134,26.7587,3.32965,-0.00251515,0.000932686,-0.00148032,0.00148104,-0.00306351,-1.21604,0.00267629,0.043437,1861,890,26.7587,-3.32964
644,134,27.0804,3.30927,-0.00132845,0.00122796,-0.00132824,0.00179313,-0.00189361,-1.1685,0.00212881,0.0402696,1868,890,27.0805,-3.30924
651,134,27.2599,3.49854,-0.000894017,0.00139215,-0.00113564,0.00186037,-0.00136224,-1.17973,0.00186797,0.0416273,1875,890,27.2599,-3.49851
658,134,27.2135,3.31866,-0.000894817,0.00138119,-0.000937974,0.00171792,-0.00123155,-1.22613,0.00171058,0.038334,1882,890,27.2135,-3.31864
665,134,27.1277,3.10388,-0.00103322,0.00122442,-0.000713986,0.00143127,-0.00124007,-1.28881,0.00154361,0.0309063,1889,890,27.1277,-3.10387
672,134,27.0947,3.12689,-0.00116492,0.00102447,-0.000513828,0.00113906,-0.00127951,-1.35137,0.00139715,0.0192584,1896,890,27.0947,-3.12691
679,134,27.066,3.11621,-0.0010923,0.000914119,-0.000383241,0.000984829,-0.00116301,-1.38834,0.00124148,0.0146591,1903,890,27.066,-3.11621
686,134,27.0476,3.11804,0,0,0,0,0,0,0,-1,1910,890,27.0476,-3.11805
693,134,23.5913,3.15692,0,0,0,0,0,0,0,-1,1917,890,23.5913,-3.15693
700,134,23.5869,3.29962,-0.00131948,0.000381376,-0.000141684,0.000393098,-0.0013312,-1.48825,0.00104348,0.0268334,1924,890,23.587,-3.29964
707,134,23.4357,3.42432,-0.00133369,0.000233636,-0.000138534,0.000245787,-0.00134584,-1.48331,0.000989384,0.0208941,1931,890,23.4357,-3.42435
714,134,23.4897,3.75012,-0.00112175,0.000135855,-0.000320594,0.000212866,-0.00119876,-1.33505,0.000878766,0.0191692,1938,890,23.4897,-3.75012
721,134,23.6394,4.0675,-0.000431593,0.000322071,-0.000506341,0.000576415,-0.000685937,-1.1053,0.000729733,0.0153115,1945,890,23.6394,-4.06752
728,134,23.675,4.30713,0.000318993,-5.32732e-05,-0.00108991,0.00123855,-0.000972828,-0.700825,0.00127981,0.014698,1952,890,23.675,-4.30715
735,134,23.6709,4.58179,0.00137955,-0.00137723,-0.00174764,0.00222696,-0.00222464,-0.451487,0.00257013,0.020503,1959,890,23.6709,-4.5818
742,134,23.6379,4.81226,0.00199644,-0.0028792,-0.00164275,0.00249827,-0.00338103,-0.296483,0.00340715,0.014244,1966,890,23.6379,-4.81227
749,134,23.6383,5.0166,0.00170321,-0.00524382,-0.00108746,0.00186946,-0.00541006,-0.151703,0.0043654,0.0113941,1973,890,23.6383,-5.01658
756,134,23.6255,5.23962,0.00162181,-0.00884413,-0.000411252,0.00163794,-0.00886026,-0.0392137,0.00652175,0.0150768,1980,890,23.6255,-5.23963
763,134,23.6931,5.44147,0.00102718,-0.0138955,0.00107542,0.00110428,-0.0139726,0.0715731,0.00970415,0.0361735,1987,890,23.6931,-5.44144
770,134,23.7592,5.651,0,0,0,0,0,0,0,-1,1994,890,23.7592,-5.65099
777,134,23.6069,5.38086,0,0,0,0,0,0,0,-1,2001,890,23.607,-5.38085
784,134,25.0131,4.93384,0,0,0,0,0,0,0,-1,2008,890,25.013,-4.93385
791,134,24.731,5.66901,0,0,0,0,0,0,0,-1,2015,890,24.731,-5.66899
798,134,0,0,0,0,0,0,0,0,0,-1,2022,890,0,0
805,134,0,0,0,0,0,0,0,0,0,-1,2029,890,0,0
812,134,0,0,0,0,0,0,0,0,0,-1,2036,890,0,0
-700,127,0,0,0,0,0,0,0,0,0,-1,524,897,0,0
-693,127,0,0,0,0,0,0,0,0,0,-1,531,897,0,0
-686,127,0,0,0,0,0,0,0,0,0,-1,538,897,0,0
-679,127,-18.5836,0.990234,0,0,0,0,0,0,0,-1,545,897,-18.5836,-0.990232
-672,127,-18.5463,1.20532,-0.0168072,-0.00738932,-0.0162281,0.00479922,-0.0289958,-0.926607,0.0211129,0.0468075,552,897,-18.5463,-1.2053
-665,127,-18.543,1.46027,-0.0108118,-0.0106926,-0.0156381,0.004886,-0.0263904,-0.787305,0.0194282,0.0453394,559,897,-18.543,-1.46029
-658,127,-18.6127,1.73999,-0.00630313,-0.0117733,-0.0138545,0.0050837,-0.0231601,-0.687945,0.0173842,0.0447549,566,897,-18.6127,-1.73997
-651,127,-18.6468,1.97162,-0.00289645,-0.0115435,-0.0115614,0.00512344,-0.0195633,-0.606469,0.0150437,0.0429122,573,897,-18.6468,-1.97163
-644,127,-17.8352,2.71204,0,0,0,0,0,0,0,-1,580,897,-17.8352,-2.71204
-637,127,-16.6843,2.3302,0,0,0,0,0,0,0,-1,587,897,-16.6843,-2.33018
-630,127,-16.5198,2.54462,0.00196672,-0.00737061,-0.00457169,0.00383233,-0.00923622,-0.387452,0.00775717,0.0338254,594,897,-16.5198,-2.54463
-623,127,-16.4512,2.63818,0.00224235,-0.00554884,-0.00268684,0.00307907,-0.00638555,-0.301895,0.00557445,0.013625,601,897,-16.4513,-2.63816
-616,127,-16.4927,2.49335,0.00205972,-0.00446245,-0.00132119,0.00231719,-0.00471992,-0.192464,0.00414107,0.00997969,608,897,-16.4928,-2.49335
-609,127,-16.5238,2.29852,0.00154775,-0.00346648,-0.000343847,0.00157122,-0.00348995,-0.068149,0.00299124,0.0138115,615,897,-16.5238,-2.29852
-602,127,-16.5157,2.10736,0.000886459,-0.00165918,0.000909629,0.00117809,-0.00195081,0.310248,0.00182474,0.0152062,622,897,-16.5157,-2.10736
-595,127,-16.4897,1.91974,-0.000395647,-0.000762615,0.00122929,0.000663777,-0.00182204,0.711315,0.00148621,0.0159427,629,897,-16.4897,-1.91974
-588,127,-16.6149,1.71924,-0.00117029,-0.000645836,0.00125931,0.000378263,-0.00219439,0.888047,0.00160395,0.0217062,636,897,-16.615,-1.71924
-581,127,-16.6965,1.41473,-0.00182234,-0.000564275,0.00100065,-1.13692e-05,-0.00237524,1.066,0.00157972,0.0351273,643,897,-16.6965,-1.41474
-574,127,-16.7508,0.948853,0,0,0,0,0,0,0,-1,650,897,-16.7508,-0.948846
-567,127,-16.3159,1.13843,0,0,0,0,0,0,0,-1,657,897,-16.3159,-1.13842
-560,127,-18.9678,1.21667,0,0,0,0,0,0,0,-1,664,897,-18.9677,-1.2167
-553,127,-18.8849,1.2226,-0.00372172,-0.00064914,0.000962641,-0.000372459,-0.0039984,1.29092,0.00255053,0.0481537,671,897,-18.8849,-1.22261
-546,127,-18.9167,1.25665,-0.00396953,-0.000668777,0.00101842,-0.000379842,-0.00425846,1.29435,0.00272121,0.0222807,678,897,-18.9167,-1.25668
-539,127,-18.9292,1.24896,-0.0042729,-0.000655143,0.00116343,-0.000313297,-0.00461474,1.28501,0.00297756,0.0198192,685,897,-18.9292,-1.24898
-532,127,-18.9004,1.26154,-0.00469284,-0.000717028,0.00128383,-0.000338505,-0.00507137,1.28408,0.00327391,0.0167556,692,897,-18.9004,-1.26156
-525,127,-18.9393,1.35699,-0.00525251,-0.00100267,0.00127809,-0.000647911,-0.00560727,1.30004,0.00354202,0.0330428,699,897,-18.9393,-1.35699
-518,127,-18.9563,1.42401,-0.00586724,-0.00164643,0.00111494,-0.00137002,-0.00614365,1.32778,0.00372406,0.0406127,706,897,-18.9563,-1.424
-511,127,-18.9326,1.35028,-0.00609566,-0.00260471,0.000511793,-0.00253122,-0.00616914,1.42819,0.00358081,0.0430866,713,897,-18.9325,-1.35029
-504,127,0,0,0,0,0,0,0,0,0,-1,720,897,0,0
-497,127,0,0,0,0,0,0,0,0,0,-1,727,897,0,0
-490,127,0,0,0,0,0,0,0,0,0,-1,734,897,0,0
-483,127,0,0,0,0,0,0,0,0,0,-1,741,897,0,0
-476,127,0,0,0,0,0,0,0,0,0,-1,748,897,0,0
-469,127,0,0,0,0,0,0,0,0,0,-1,755,897,0,0
-462,127,0,0,0,0,0,0,0,0,0,-1,762,897,0,0
-455,127,0,0,0,0,0,0,0,0,0,-1,769,897,0,0
-448,127,0,0,0,0,0,0,0,0,0,-1,776,897,0,0
-441,127,0,0,0,0,0,0,0,0,0,-1,783,897,0,0
-434,127,0,0,0,0,0,0,0,0,0,-1,790,897,0,0
-427,127,0,0,0,0,0,0,0,0,0,-1,797,897,0,0
-420,127,0,0,0,0,0,0,0,0,0,-1,804,897,0,0
-413,127,0,0,0,0,0,0,0,0,0,-1,811,897,0,0
-406,127,0,0,0,0,0,0,0,0,0,-1,818,897,0,0
-399,127,0,0,0,0,0,0,0,0,0,-1,825,897,0,0
-392,127,0,0,0,0,0,0,0,0,0,-1,832,897,0,0
-385,127,0,0,0,0,0,0,0,0,0,-1,839,897,0,0
-378,127,0,0,0,0,0,0,0,0,0,-1,846,897,0,0
-371,127,0,0,0,0,0,0,0,0,0,-1,853,897,0,0
-364,127,0,0,0,0,0,0,0,0,0,-1,860,897,0,0
-357,127,0,0,0,0,0,0,0,0,0,-1,867,897,0,0
-350,127,0,0,0,0,0,0,0,0,0,-1,874,897,0,0
-343,127,0,0,0,0,0,0,0,0,0,-1,881,897,0,0
-336,127,0,0,0,0,0,0,0,0,0,-1,888,897,0,0
-329,127,0,0,0,0,0,0,0,0,0,-1,895,897,0,0
-322,127,0,0,0,0,0,0,0,0,0,-1,902,897,0,0
-315,127,0,0,0,0,0,0,0,0,0,-1,909,897,0,0
-308,127,0,0,0,0,0,0,0,0,0,-1,916,897,0,0
-301,127,0,0,0,0,0,0,0,0,0,-1,923,897,0,0
-294,127,0,0,0,0,0,0,0,0,0,-1,930,897,0,0
-287,127,0,0,0,0,0,0,0,0,0,-1,937,897,0,0
-280,127,0,0,0,0,0,0,0,0,0,-1,944,897,0,0
-273,127,0,0,0,0,0,0,0,0,0,-1,951,897,0,0
-266,127,0,0,0,0,0,0,0,0,0,-1,958,897,0,0
-259,127,0,0,0,0,0,0,0,0,0,-1,965,897,0,0
-252,127,0,0,0,0,0,0,0,0,0,-1,972,897,0,0
-245,127,0,0,0,0,0,0,0,0,0,-1,979,897,0,0
-238,127,0,0,0,0,0,0,0,0,0,-1,986,897,0,0
-231,127,0,0,0,0,0,0,0,0,0,-1,993,897,0,0
-224,127,0,0,0,0,0,0,0,0,0,-1,1000,897,0,0
-217,127,0,0,0,0,0,0,0,0,0,-1,1007,897,0,0
-210,127,0,0,0,0,0,0,0,0,0,-1,1014,897,0,0
-203,127,0,0,0,0,0,0,0,0,0,-1,1021,897,0,0
-196,127,0,0,0,0,0,0,0,0,0,-1,1028,897,0,0
-189,127,0,0,0,0,0,0,0,0,0,-1,1035,897,0,0
-182,127,0,0,0,0,0,0,0,0,0,-1,1042,897,0,0
-175,127,0,0,0,0,0,0,0,0,0,-1,1049,897,0,0
-168,127,0,0,0,0,0,0,0,0,0,-1,1056,897,0,0
-161,127,0,0,0,0,0,0,0,0,0,-1,1063,897,0,0
-154,127,0,0,0,0,0,0,0,0,0,-1,1070,897,0,0
-147,127,0,0,0,0,0,0,0,0,0,-1,1077,897,0,0
-140,127,0,0,0,0,0,0,0,0,0,-1,1084,897,0,0
-133,127,0,0,0,0,0,0,0,0,0,-1,1091,897,0,0
-126,127,0,0,0,0,0,0,0,0,0,-1,1098,897,0,0
-119,127,0,0,0,0,0,0,0,0,0,-1,1105,897,0,0
-112,127,0,0,0,0,0,0,0,0,0,-1,1112,897,0,0
-105,127,0,0,0,0,0,0,0,0,0,-1,1119,897,0,0
-98,127,0,0,0,0,0,0,0,0,0,-1,1126,897,0,0
-91,127,0,0,0,0,0,0,0,0,0,-1,1133,897,0,0
-84,127,0,0,0,0,0,0,0,0,0,-1,1140,897,0,0
-77,127,0,0,0,0,0,0,0,0,0,-1,1147,897,0,0
-70,127,0,0,0,0,0,0,0,0,0,-1,1154,897,0,0
-63,127,0,0,0,0,0,0,0,0,0,-1,1161,897,0,0
-56,127,0,0,0,0,0,0,0,0,0,-1,1168,897,0,0
-49,127,0,0,0,0,0,0,0,0,0,-1,1175,897,0,0
-42,127,0,0,0,0,0,0,0,0,0,-1,1182,897,0,0
-35,127,0,0,0,0,0,0,0,0,0,-1,1189,897,0,0
-28,127,0,0,0,0,0,0,0,0,0,-1,1196,897,0,0
-21,127,0,0,0,0,0,0,0,0,0,-1,1203,897,0,0
-14,127,0,0,0,0,0,0,0,0,0,-1,1210,897,0,0
-7,127,0,0,0,0,0,0,0,0,0,-1,1217,897,0,0
0,127,0,0,0,0,0,0,0,0,0,-1,1224,897,0,0
7,127,0,0,0,0,0,0,0,0,0,-1,1231,897,0,0
14,127,0,0,0,0,0,0,0,0,0,-1,1238,897,0,0
21,127,0,0,0,0,0,0,0,0,0,-1,1245,897,0,0
28,127,0,0,0,0,0,0,0,0,0,-1,1252,897,0,0
35,127,0,0,0,0,0,0,0,0,0,-1,1259,897,0,0
42,127,0,0,0,0,0,0,0,0,0,-1,1266,897,0,0
49,127,0,0,0,0,0,0,0,0,0,-1,1273,897,0,0
56,127,0,0,0,0,0,0,0,0,0,-1,1280,897,0,0
63,127,0,0,0,0,0,0,0,0,0,-1,1287,897,0,0
70,127,0,0,0,0,0,0,0,0,0,-1,1294,897,0,0
77,127,0,0,0,0,0,0,0,0,0,-1,1301,897,0,0
84,127,0,0,0,0,0,0,0,0,0,-1,1308,897,0,0
91,127,0,0,0,0,0,0,0,0,0,-1,1315,897,0,0
98,127,0,0,0,0,0,0,0,0,0,-1,1322,897,0,0
105,127,0,0,0,0,0,0,0,0,0,-1,1329,897,0,0
112,127,0,0,0,0,0,0,0,0,0,-1,1336,897,0,0
119,127,0,0,0,0,0,0,0,0,0,-1,1343,897,0,0
126,127,0,0,0,0,0,0,0,0,0,-1,1350,897,0,0
133,127,0,0,0,0,0,0,0,0,0,-1,1357,897,0,0
140,127,0,0,0,0,0,0,0,0,0,-1,1364,897,0,0
147,127,0,0,0,0,0,0,0,0,0,-1,1371,897,0,0
154,127,0,0,0,0,0,0,0,0,0,-1,1378,897,0,0
161,127,0,0,0,0,0,0,0,0,0,-1,1385,897,0,0
168,127,0,0,0,0,0,0,0,0,0,-1,1392,897,0,0
175,127,0,0,0,0,0,0,0,0,0,-1,1399,897,0,0
182,127,0,0,0,0,0,0,0,0,0,-1,1406,897,0,0
189,127,0,0,0,0,0,0,0,0,0,-1,1413,897,0,0
196,127,0,0,0,0,0,0,0,0,0,-1,1420,897,0,0
203,127,0,0,0,0,0,0,0,0,0,-1,1427,897,0,0
210,127,0,0,0,0,0,0,0,0,0,-1,1434,897,0,0
217,127,0,0,0,0,0,0,0,0,0,-1,1441,897,0,0
224,127,0,0,0,0,0,0,0,0,0,-1,1448,897,0,0
231,127,0,0,0,0,0,0,0,0,0,-1,1455,897,0,0
238,127,0,0,0,0,0,0,0,0,0,-1,1462,897,0,0
245,127,0,0,0,0,0,0,0,0,0,-1,1469,897,0,0
252,127,0,0,0,0,0,0,0,0,0,-1,1476,897,0,0
259,127,0,0,0,0,0,0,0,0,0,-1,1483,897,0,0
266,127,0,0,0,0,0,0,0,0,0,-1,1490,897,0,0
273,127,0,0,0,0,0,0,0,0,0,-1,1497,897,0,0
280,127,0,0,0,0,0,0,0,0,0,-1,1504,897,0,0
287,127,0,0,0,0,0,0,0,0,0,-1,1511,897,0,0
294,127,0,0,0,0,0,0,0,0,0,-1,1518,897,0,0
301,127,0,0,0,0,0,0,0,0,0,-1,1525,897,0,0
308,127,0,0,0,0,0,0,0,0,0,-1,1532,897,0,0
315,127,0,0,0,0,0,0,0,0,0,-1,1539,897,0,0
322,127,0,0,0,0,0,0,0,0,0,-1,1546,897,0,0
329,127,0,0,0,0,0,0,0,0,0,-1,1553,897,0,0
336,127,0,0,0,0,0,0,0,0,0,-1,1560,897,0,0
343,127,0,0,0,0,0,0,0,0,0,-1,1567,897,0,0
350,127,0,0,0,0,0,0,0,0,0,-1,1574,897,0,0
357,127,0,0,0,0,0,0,0,0,0,-1,1581,897,0,0
364,127,0,0,0,0,0,0,0,0,0,-1,1588,897,0,0
371,127,0,0,0,0,0,0,0,0,0,-1,1595,897,0,0
378,127,0,0,0,0,0,0,0,0,0,-1,1602,897,0,0
385,127,0,0,0,0,0,0,0,0,0,-1,1609,897,0,0
392,127,0,0,0,0,0,0,0,0,0,-1,1616,897,0,0
399,127,0,0,0,0,0,0,0,0,0,-1,1623,897,0,0
406,127,0,0,0,0,0,0,0,0,0,-1,1630,897,0,0
413,127,0,0,0,0,0,0,0,0,0,-1,1637,897,0,0
420,127,0,0,0,0,0,0,0,0,0,-1,1644,897,0,0
427,127,0,0,0,0,0,0,0,0,0,-1,1651,897,0,0
434,127,0,0,0,0,0,0,0,0,0,-1,1658,897,0,0
441,127,0,0,0,0,0,0,0,0,0,-1,1665,897,0,0
448,127,0,0,0,0,0,0,0,0,0,-1,1672,897,0,0
455,127,0,0,0,0,0,0,0,0,0,-1,1679,897,0,0
462,127,0,0,0,0,0,0,0,0,0,-1,1686,897,0,0
469,127,0,0,0,0,0,0,0,0,0,-1,1693,897,0,0
476,127,0,0,0,0,0,0,0,0,0,-1,1700,897,0,0
483,127,0,0,0,0,0,0,0,0,0,-1,1707,897,0,0
490,127,0,0,0,0,0,0,0,0,0,-1,1714,897,0,0
497,127,0,0,0,0,0,0,0,0,0,-1,1721,897,0,0
504,127,0,0,0,0,0,0,0,0,0,-1,1728,897,0,0
511,127,0,0,0,0,0,0,0,0,0,-1,1735,897,0,0
518,127,0,0,0,0,0,0,0,0,0,-1,1742,897,0,0
525,127,0,0,0,0,0,0,0,0,0,-1,1749,897,0,0
532,127,0,0,0,0,0,0,0,0,0,-1,1756,897,0,0
539,127,0,0,0,0,0,0,0,0,0,-1,1763,897,0,0
546,127,0,0,0,0,0,0,0,0,0,-1,1770,897,0,0
553,127,0,0,0,0,0,0,0,0,0,-1,1777,897,0,0
560,127,0,0,0,0,0,0,0,0,0,-1,1784,897,0,0
567,127,0,0,0,0,0,0,0,0,0,-1,1791,897,0,0
574,127,0,0,0,0,0,0,0,0,0,-1,1798,897,0,0
581,127,0,0,0,0,0,0,0,0,0,-1,1805,897,0,0
588,127,0,0,0,0,0,0,0,0,0,-1,1812,897,0,0
595,127,0,0,0,0,0,0,0,0,0,-1,1819,897,0,0
602,127,0,0,0,0,0,0,0,0,0,-1,1826,897,0,0
609,127,0,0,0,0,0,0,0,0,0,-1,1833,897,0,0
616,127,0,0,0,0,0,0,0,0,0,-1,1840,897,0,0
623,127,0,0,0,0,0,0,0,0,0,-1,1847,897,0,0
630,127,26.9485,3.4809,-0.00490153,0.00122956,-0.00191334,0.00177766,-0.00544963,-1.2918,0.0043485,0.0430359,1854,897,26.9485,-3.48091
637,127,26.9385,3.32886,-0.00270415,0.00156188,-0.00180962,0.00222609,-0.00336836,-1.21902,0.00325232,0.0421149,1861,897,26.9384,-3.32888
644,127,27.0122,3.328,-0.00140814,0.00169845,-0.00159585,0.00237214,-0.00208183,-1.17134,0.00257332,0.0405161,1868,897,27.0122,-3.32802
651,127,27.0938,3.34601,-0.0010174,0.00175142,-0.00127413,0.0022485,-0.00151448,-1.19883,0.00218629,0.040836,1875,897,27.0937,-3.34601
658,127,27.0328,3.20459,-0.00112889,0.00168689,-0.000929128,0.00196584,-0.00140784,-1.27913,0.00195666,0.0400992,1882,897,27.0328,-3.20457
665,127,27.0823,3.08618,-0.00134342,0.00148728,-0.000593766,0.00160678,-0.00146292,-1.37219,0.00177294,0.0356963,1889,897,27.0822,-3.08616
672,127,27.0889,3.04846,-0.00150922,0.0012527,-0.000308468,0.00128674,-0.00154325,-1.46091,0.00163613,0.0302093,1896,897,27.0889,-3.04847
679,127,27.0833,3.06061,-0.00146723,0.00109258,-0.000113041,0.00109756,-0.00147221,-1.52675,0.00148891,0.0208594,1903,897,27.0832,-3.06061
686,127,26.9701,3.15607,0,0,0,0,0,0,0,-1,1910,897,26.9701,-3.15607
693,127,25.3309,3.21704,0,0,0,0,0,0,0,-1,1917,897,25.331,-3.21701
700,127,23.9073,3.32361,-0.00167867,0.000492842,0.000214573,0.000513841,-0.00169967,1.47324,0.0013377,0.0380202,1924,897,23.9073,-3.3236
707,127,23.6761,3.49066,-0.0017194,0.000320102,0.000204246,0.000340355,-0.00173966,1.47196,0.0012883,0.0259872,1931,897,23.6761,-3.49064
714,127,23.7467,3.75275,-0.00150273,0.000188086,-1.61353e-05,0.00018824,-0.00150288,-1.56125,0.0010702,0.0210831,1938,897,23.7467,-3.75273
721,127,23.9211,4.10034,-0.000856646,0.000376398,-0.000247678,0.000424289,-0.000904536,-1.3798,0.000783721,0.0140273,1945,897,23.9211,-4.10033
728,127,23.9255,4.32281,-0.000203983,-6.82002e-05,-0.000888418,0.000754917,-0.0010271,-0.823533,0.00103284,0.0128839,1952,897,23.9255,-4.32282
735,127,23.922,4.57532,0.000658997,-0.00148524,-0.00155398,0.00147481,-0.00230106,-0.483435,0.00219733,0.0195511,1959,897,23.9219,-4.57535
742,127,23.8972,4.79132,0.000919933,-0.00298962,-0.00137595,0.00135564,-0.00342532,-0.306666,0.0028452,0.0168667,1966,897,23.8972,-4.79135
749,127,23.8745,4.99792,0.000102323,-0.00522553,-0.000731357,0.000200893,-0.0053241,-0.13397,0.00361823,0.0118591,1973,897,23.8745,-4.99794
756,127,23.8615,5.19574,-0.000664908,-0.00855681,4.20715e-05,-0.000664684,-0.00855703,0.00533078,0.00549654,0.0134838,1980,897,23.8615,-5.19573
763,127,23.8728,5.3938,-0.00207364,-0.0131238,0.0016871,-0.0018218,-0.0133757,0.14818,0.00837615,0.0219745,1987,897,23.8728,-5.39383
770,127,24.7109,5.89941,-0.00432216,-0.0190057,0.00444277,-0.00308257,-0.0202453,0.272094,0.0125957,0.0438772,1994,897,24.711,-5.89943
777,127,25.6721,6.43652,0,0,0,0,0,0,0,-1,2001,897,25.6721,-6.43654
784,127,24.7694,5.159,0,0,0,0,0,0,0,-1,2008,897,24.7694,-5.15897
791,127,24.5842,6.01587,0,0,0,0,0,0,0,-1,2015,897,24.5843,-6.01588
798,127,0,0,0,0,0,0,0,0,0,-1,2022,897,0,0
805,127,0,0,0,0,0,0,0,0,0,-1,2029,897,0,0
812,127,0,0,0,0,0,0,0,0,0,-1,2036,897,0,0
-700,120,0,0,0,0,0,0,0,0,0,-1,524,904,0,0
-693,120,0,0,0,0,0,0,0,0,0,-1,531,904,0,0
-686,120,0,0,0,0,0,0,0,0,0,-1,538,904,0,0
-679,120,-17.5854,0.872192,0,0,0,0,0,0,0,-1,545,904,-17.5854,-0.87218
-672,120,-17.6453,1.17291,-0.0114799,-0.0167882,-0.0195341,0.00557948,-0.0338477,-0.717875,0.0246364,0.0435117,552,904,-17.6453,-1.17293
-665,120,-17.6562,1.69055,-0.00721614,-0.0173119,-0.0183186,0.00673739,-0.0312655,-0.650954,0.0234148,0.0448698,559,904,-17.6562,-1.69052
-658,120,-17.7297,2.00159,-0.00398867,-0.0163831,-0.0160193,0.00699039,-0.0273622,-0.600835,0.0209637,0.0441018,566,904,-17.7297,-2.00162
-651,120,-17.7196,2.42468,0,0,0,0,0,0,0,-1,573,904,-17.7196,-2.42469
-644,120,-17.361,2.37079,0.000240039,-0.0125384,-0.0104174,0.00607145,-0.0183699,-0.510319,0.0146946,0.0463182,580,904,-17.361,-2.37078
-637,120,-16.8879,2.65472,0.00132907,-0.0102606,-0.00770017,0.00517128,-0.0141028,-0.462829,0.0115193,0.0422439,587,904,-16.888,-2.65469
-630,120,-16.7058,2.7326,0.00180679,-0.00802769,-0.00529841,0.00411813,-0.010339,-0.411347,0.00860056,0.0236538,594,904,-16.7058,-2.73261
-623,120,-16.7012,2.64319,0.00179515,-0.00582731,-0.00320678,0.00296477,-0.00699693,-0.349741,0.00590635,0.011293,601,904,-16.7012,-2.64317
-616,120,-16.6978,2.4776,0.0014266,-0.00442356,-0.00160919,0.00184002,-0.00483698,-0.251474,0.00398231,0.00987779,608,904,-16.6978,-2.47762
-609,120,-16.7288,2.27991,0.000701678,-0.0031735,-0.000560134,0.000781018,-0.00325284,-0.140708,0.0024704,0.0124099,615,904,-16.7287,-2.27989
-602,120,-16.7454,2.0932,-0.000102897,-0.00139504,0.000691157,0.000197133,-0.00169507,0.409551,0.00120116,0.0128915,622,904,-16.7453,-2.09322
-595,120,-16.7161,1.91925,-0.0013298,-0.000503736,0.00108306,0.000242372,-0.00207591,0.967565,0.0014714,0.0191067,629,904,-16.716,-1.91925
-588,120,-16.7475,1.69232,-0.00204174,-0.000434897,0.00117907,0.000188461,-0.0026651,1.08447,0.00184277,0.0259901,636,904,-16.7475,-1.69231
-581,120,-16.9018,1.47375,-0.00262575,-0.000481461,0.000946673,-0.000123331,-0.00298388,1.20913,0.00194944,0.0345094,643,904,-16.9018,-1.47378
-574,120,-16.803,1.19794,-0.0033942,-0.000554527,0.000806765,-0.000341327,-0.0036074,1.31244,0.00229961,0.0252901,650,904,-16.803,-1.19796
-567,120,-16.6046,0.675964,0,0,0,0,0,0,0,-1,657,904,-16.6046,-0.675936
-560,120,-18.9341,1.24792,0,0,0,0,0,0,0,-1,664,904,-18.9341,-1.24794
-553,120,-18.8651,1.25793,-0.00427063,-0.000769349,0.000946192,-0.00053001,-0.00450997,1.32304,0.00284647,0.0366415,671,904,-18.865,-1.25794
-546,120,-18.8921,1.30591,-0.0044548,-0.000860479,0.0010486,-0.000576933,-0.00473835,1.30671,0.00298523,0.0308869,678,904,-18.8921,-1.3059
-539,120,-18.8635,1.24524,-0.00470465,-0.000899994,0.00120906,-0.000548285,-0.00505636,1.28771,0.00320382,0.025102,685,904,-18.8635,-1.24521
-532,120,-18.8263,1.21039,-0.00510375,-0.00101195,0.00134083,-0.000611725,-0.00550398,1.28072,0.00348336,0.0278667,692,904,-18.8263,-1.21041
-525,120,-19.0476,1.22998,-0.0057751,-0.00131846,0.00129766,-0.000968145,-0.00612541,1.30713,0.0038022,0.0362823,699,904,-19.0476,-1.23001
-518,120,-19.2759,1.23334,0,0,0,0,0,0,0,-1,706,904,-19.2759,-1.23332
-511,120,-19.0231,1.4516,0,0,0,0,0,0,0,-1,713,904,-19.0231,-1.45161
-504,120,0,0,0,0,0,0,0,0,0,-1,720,904,0,0
-497,120,0,0,0,0,0,0,0,0,0,-1,727,904,0,0
-490,120,0,0,0,0,0,0,0,0,0,-1,734,904,0,0
-483,120,0,0,0,0,0,0,0,0,0,-1,741,904,0,0
-476,120,0,0,0,0,0,0,0,0,0,-1,748,904,0,0
-469,120,0,0,0,0,0,0,0,0,0,-1,755,904,0,0
-462,120,0,0,0,0,0,0,0,0,0,-1,762,904,0,0
-455,120,0,0,0,0,0,0,0,0,0,-1,769,904,0,0
-448,120,0,0,0,0,0,0,0,0,0,-1,776,904,0,0
-441,120,0,0,0,0,0,0,0,0,0,-1,783,904,0,0
-434,120,0,0,0,0,0,0,0,0,0,-1,790,904,0,0
-427,120,0,0,0,0,0,0,0,0,0,-1,797,904,0,0
-420,120,0,0,0,0,0,0,0,0,0,-1,804,904,0,0
-413,120,0,0,0,0,0,0,0,0,0,-1,811,904,0,0
-406,120,0,0,0,0,0,0,0,0,0,-1,818,904,0,0
-399,120,0,0,0,0,0,0,0,0,0,-1,825,904,0,0
-392,120,0,0,0,0,0,0,0,0,0,-1,832,904,0,0
-385,120,0,0,0,0,0,0,0,0,0,-1,839,904,0,0
-378,120,0,0,0,0,0,0,0,0,0,-1,846,904,0,0
-371,120,0,0,0,0,0,0,0,0,0,-1,853,904,0,0
-364,120,0,0,0,0,0,0,0,0,0,-1,860,904,0,0
-357,120,0,0,0,0,0,0,0,0,0,-1,867,904,0,0
-350,120,0,0,0,0,0,0,0,0,0,-1,874,904,0,0
-343,120,0,0,0,0,0,0,0,0,0,-1,881,904,0,0
-336,120,0,0,0,0,0,0,0,0,0,-1,888,904,0,0
-329,120,0,0,0,0,0,0,0,0,0,-1,895,904,0,0
-322,120,0,0,0,0,0,0,0,0,0,-1,902,904,0,0
-315,120,0,0,0,0,0,0,0,0,0,-1,909,904,0,0
-308,120,0,0,0,0,0,0,0,0,0,-1,916,904,0,0
-301,120,0,0,0,0,0,0,0,0,0,-1,923,904,0,0
-294,120,0,0,0,0,0,0,0,0,0,-1,930,904,0,0
-287,120,0,0,0,0,0,0,0,0,0,-1,937,904,0,0
-280,120,0,0,0,0,0,0,0,0,0,-1,944,904,0,0
-273,120,0,0,0,0,0,0,0,0,0,-1,951,904,0,0
-266,120,0,0,0,0,0,0,0,0,0,-1,958,904,0,0
-259,120,0,0,0,0,0,0,0,0,0,-1,965,904,0,0
-252,120,0,0,0,0,0,0,0,0,0,-1,972,904,0,0
-245,120,0,0,0,0,0,0,0,0,0,-1,979,904,0,0
-238,120,0,0,0,0,0,0,0,0,0,-1,986,904,0,0
-231,120,0,0,0,0,0,0,0,0,0,-1,993,904,0,0
-224,120,0,0,0,0,0,0,0,0,0,-1,1000,904,0,0
-217,120,0,0,0,0,0,0,0,0,0,-1,1007,904,0,0
-210,120,0,0,0,0,0,0,0,0,0,-1,1014,904,0,0
-203,120,0,0,0,0,0,0,0,0,0,-1,1021,904,0,0
-196,120,0,0,0,0,0,0,0,0,0,-1,1028,904,0,0
-189,120,0,0,0,0,0,0,0,0,0,-1,1035,904,0,0
-182,120,0,0,0,0,0,0,0,0,0,-1,1042,904,0,0
-175,120,0,0,0,0,0,0,0,0,0,-1,1049,904,0,0
-168,120,0,0,0,0,0,0,0,0,0,-1,1056,904,0,0
-161,120,0,0,0,0,0,0,0,0,0,-1,1063,904,0,0
-154,120,0,0,0,0,0,0,0,0,0,-1,1070,904,0,0
-147,120,0,0,0,0,0,0,0,0,0,-1,1077,904,0,0
-140,120,0,0,0,0,0,0,0,0,0,-1,1084,904,0,0
-133,120,0,0,0,0,0,0,0,0,0,-1,1091,904,0,0
-126,120,0,0,0,0,0,0,0,0,0,-1,1098,904,0,0
-119,120,0,0,0,0,0,0,0,0,0,-1,1105,904,0,0
-112,120,0,0,0,0,0,0,0,0,0,-1,1112,904,0,0
-105,120,0,0,0,0,0,0,0,0,0,-1,1119,904,0,0
-98,120,0,0,0,0,0,0,0,0,0,-1,1126,904,0,0
-91,120,0,0,0,0,0,0,0,0,0,-1,1133,904,0,0
-84,120,0,0,0,0,0,0,0,0,0,-1,1140,904,0,0
-77,120,0,0,0,0,0,0,0,0,0,-1,1147,904,0,0
-70,120,0,0,0,0,0,0,0,0,0,-1,1154,904,0,0
-63,120,0,0,0,0,0,0,0,0,0,-1,1161,904,0,0
-56,120,0,0,0,0,0,0,0,0,0,-1,1168,904,0,0
-49,120,0,0,0,0,0,0,0,0,0,-1,1175,904,0,0
-42,120,0,0,0,0,0,0,0,0,0,-1,1182,904,0,0
-35,120,0,0,0,0,0,0,0,0,0,-1,1189,904,0,0
-28,120,0,0,0,0,0,0,0,0,0,-1,1196,904,0,0
-21,120,0,0,0,0,0,0,0,0,0,-1,1203,904,0,0
-14,120,0,0,0,0,0,0,0,0,0,-1,1210,904,0,0
-7,120,0,0,0,0,0,0,0,0,0,-1,1217,904,0,0
0,120,0,0,0,0,0,0,0,0,0,-1,1224,904,0,0
7,120,0,0,0,0,0,0,0,0,0,-1,1231,904,0,0
14,120,0,0,0,0,0,0,0,0,0,-1,1238,904,0,0
21,120,0,0,0,0,0,0,0,0,0,-1,1245,904,0,0
28,120,0,0,0,0,0,0,0,0,0,-1,1252,904,0,0
35,120,0,0,0,0,0,0,0,0,0,-1,1259,904,0,0
42,120,0,0,0,0,0,0,0,0,0,-1,1266,904,0,0
49,120,0,0,0,0,0,0,0,0,0,-1,1273,904,0,0
56,120,0,0,0,0,0,0,0,0,0,-1,1280,904,0,0
63,120,0,0,0,0,0,0,0,0,0,-1,1287,904,0,0
70,120,0,0,0,0,0,0,0,0,0,-1,1294,904,0,0
77,120,0,0,0,0,0,0,0,0,0,-1,1301,904,0,0
84,120,0,0,0,0,0,0,0,0,0,-1,1308,904,0,0
91,120,0,0,0,0,0,0,0,0,0,-1,1315,904,0,0
98,120,0,0,0,0,0,0,0,0,0,-1,1322,904,0,0
105,120,0,0,0,0,0,0,0,0,0,-1,1329,904,0,0
112,120,0,0,0,0,0,0,0,0,0,-1,1336,904,0,0
119,120,0,0,0,0,0,0,0,0,0,-1,1343,904,0,0
126,120,0,0,0,0,0,0,0,0,0,-1,1350,904,0,0
133,120,0,0,0,0,0,0,0,0,0,-1,1357,904,0,0
140,120,0,0,0,0,0,0,0,0,0,-1,1364,904,0,0
147,120,0,0,0,0,0,0,0,0,0,-1,1371,904,0,0
154,120,0,0,0,0,0,0,0,0,0,-1,1378,904,0,0
161,120,0,0,0,0,0,0,0,0,0,-1,1385,904,0,0
168,120,0,0,0,0,0,0,0,0,0,-1,1392,904,0,0
175,120,0,0,0,0,0,0,0,0,0,-1,1399,904,0,0
182,120,0,0,0,0,0,0,0,0,0,-1,1406,904,0,0
189,120,0,0,0,0,0,0,0,0,0,-1,1413,904,0,0
196,120,0,0,0,0,0,0,0,0,0,-1,1420,904,0,0
203,120,0,0,0,0,0,0,0,0,0,-1,1427,904,0,0
210,120,0,0,0,0,0,0,0,0,0,-1,1434,904,0,0
217,120,0,0,0,0,0,0,0,0,0,-1,1441,904,0,0
224,120,0,0,0,0,0,0,0,0,0,-1,1448,904,0,0
231,120,0,0,0,0,0,0,0,0,0,-1,1455,904,0,0
238,120,0,0,0,0,0,0,0,0,0,-1,1462,904,0,0
245,120,0,0,0,0,0,0,0,0,0,-1,1469,904,0,0
252,120,0,0,0,0,0,0,0,0,0,-1,1476,904,0,0
259,120,0,0,0,0,0,0,0,0,0,-1,1483,904,0,0
266,120,0,0,0,0,0,0,0,0,0,-1,1490,904,0,0
273,120,0,0,0,0,0,0,0,0,0,-1,1497,904,0,0
280,120,0,0,0,0,0,0,0,0,0,-1,1504,904,0,0
287,120,0,0,0,0,0,0,0,0,0,-1,1511,904,0,0
294,120,0,0,0,0,0,0,0,0,0,-1,1518,904,0,0
301,120,0,0,0,0,0,0,0,0,0,-1,1525,904,0,0
308,120,0,0,0,0,0,0,0,0,0,-1,1532,904,0,0
315,120,0,0,0,0,0,0,0,0,0,-1,1539,904,0,0
322,120,0,0,0,0,0,0,0,0,0,-1,1546,904,0,0
329,120,0,0,0,0,0,0,0,0,0,-1,1553,904,0,0
336,120,0,0,0,0,0,0,0,0,0,-1,1560,904,0,0
343,120,0,0,0,0,0,0,0,0,0,-1,1567,904,0,0
350,120,0,0,0,0,0,0,0,0,0,-1,1574,904,0,0
357,120,0,0,0,0,0,0,0,0,0,-1,1581,904,0,0
364,120,0,0,0,0,0,0,0,0,0,-1,1588,904,0,0
371,120,0,0,0,0,0,0,0,0,0,-1,1595,904,0,0
378,120,0,0,0,0,0,0,0,0,0,-1,1602,904,0,0
385,120,0,0,0,0,0,0,0,0,0,-1,1609,904,0,0
392,120,0,0,0,0,0,0,0,0,0,-1,1616,904,0,0
399,120,0,0,0,0,0,0,0,0,0,-1,1623,904,0,0
406,120,0,0,0,0,0,0,0,0,0,-1,1630,904,0,0
413,120,0,0,0,0,0,0,0,0,0,-1,1637,904,0,0
420,120,0,0,0,0,0,0,0,0,0,-1,1644,904,0,0
427,120,0,0,0,0,0,0,0,0,0,-1,1651,904,0,0
434,120,0,0,0,0,0,0,0,0,0,-1,1658,904,0,0
441,120,0,0,0,0,0,0,0,0,0,-1,1665,904,0,0
448,120,0,0,0,0,0,0,0,0,0,-1,1672,904,0,0
455,120,0,0,0,0,0,0,0,0,0,-1,1679,904,0,0
462,120,0,0,0,0,0,0,0,0,0,-1,1686,904,0,0
469,120,0,0,0,0,0,0,0,0,0,-1,1693,904,0,0
476,120,0,0,0,0,0,0,0,0,0,-1,1700,904,0,0
483,120,0,0,0,0,0,0,0,0,0,-1,1707,904,0,0
490,120,0,0,0,0,0,0,0,0,0,-1,1714,904,0,0
497,120,0,0,0,0,0,0,0,0,0,-1,1721,904,0,0
504,120,0,0,0,0,0,0,0,0,0,-1,1728,904,0,0
511,120,0,0,0,0,0,0,0,0,0,-1,1735,904,0,0
518,120,0,0,0,0,0,0,0,0,0,-1,1742,904,0,0
525,120,0,0,0,0,0,0,0,0,0,-1,1749,904,0,0
532,120,0,0,0,0,0,0,0,0,0,-1,1756,904,0,0
539,120,0,0,0,0,0,0,0,0,0,-1,1763,904,0,0
546,120,0,0,0,0,0,0,0,0,0,-1,1770,904,0,0
553,120,0,0,0,0,0,0,0,0,0,-1,1777,904,0,0
560,120,0,0,0,0,0,0,0,0,0,-1,1784,904,0,0
567,120,0,0,0,0,0,0,0,0,0,-1,1791,904,0,0
574,120,0,0,0,0,0,0,0,0,0,-1,1798,904,0,0
581,120,0,0,0,0,0,0,0,0,0,-1,1805,904,0,0
588,120,0,0,0,0,0,0,0,0,0,-1,1812,904,0,0
595,120,0,0,0,0,0,0,0,0,0,-1,1819,904,0,0
602,120,0,0,0,0,0,0,0,0,0,-1,1826,904,0,0
609,120,0,0,0,0,0,0,0,0,0,-1,1833,904,0,0
616,120,0,0,0,0,0,0,0,0,0,-1,1840,904,0,0
623,120,0,0,0,0,0,0,0,0,0,-1,1847,904,0,0
630,120,27.1145,3.30835,-0.00504206,0.00191862,-0.00192183,0.00241398,-0.00553741,-1.31853,0.00470732,0.0422912,1854,904,27.1145,-3.30835
637,120,27.089,3.26898,-0.00272118,0.00214277,-0.00187756,0.00278321,-0.00336162,-1.24207,0.00355295,0.043474,1861,904,27.0889,-3.26899
644,120,27.0203,3.2049,-0.00133233,0.0021678,-0.00168971,0.0028504,-0.00201493,-1.18687,0.00282277,0.0410422,1868,904,27.0203,-3.20491
651,120,26.9657,3.11157,-0.000987055,0.00211244,-0.00132589,0.00260223,-0.00147684,-1.21694,0.00238474,0.0416337,1875,904,26.9657,-3.11158
658,120,26.9698,3.0943,-0.00120285,0.00198875,-0.000895761,0.00222297,-0.00143706,-1.31505,0.0021293,0.0398268,1882,904,26.9699,-3.09432
665,120,27.0375,3.13007,-0.0015082,0.00173706,-0.000479996,0.00180657,-0.00157771,-1.42699,0.0019554,0.0346949,1889,904,27.0375,-3.13007
672,120,27.0991,2.98407,-0.00173813,0.00146693,-0.000136955,0.00147277,-0.00174397,-1.52817,0.00185939,0.0332475,1896,904,27.0991,-2.98406
679,120,27.0491,2.96436,-0.00175388,0.00124959,0.000107968,0.00125347,-0.00175776,1.53491,0.00174664,0.0276627,1903,904,27.049,-2.96436
686,120,27.0522,3.11206,-0.00172151,0.000898067,0.000255882,0.000922827,-0.00174627,1.47433,0.00156526,0.0172374,1910,904,27.0522,-3.11205
693,120,25.8844,3.36334,0,0,0,0,0,0,0,-1,1917,904,25.8844,-3.36337
700,120,24.1504,3.45801,0,0,0,0,0,0,0,-1,1924,904,24.1504,-3.45799
707,120,24.0282,3.66333,-0.00207503,0.000345793,0.000491565,0.000441801,-0.00217104,1.37791,0.0016149,0.0223647,1931,904,24.0282,-3.66334
714,120,24.1389,3.90747,-0.00189406,0.000216725,0.000262595,0.000248903,-0.00192623,1.44887,0.00137466,0.017688,1938,904,24.1389,-3.90744
721,120,24.1615,4.11182,-0.00134108,0.000460577,7.58378e-06,0.000460609,-0.00134111,1.56659,0.00108083,0.0132593,1945,904,24.1615,-4.1118
728,120,24.1506,4.35718,-0.000830055,3.63937e-05,-0.000637272,0.000373753,-0.00116741,-1.08392,0.000928289,0.00999535,1952,904,24.1506,-4.35717
735,120,24.1234,4.56268,-0.000226256,-0.00133549,-0.00124854,0.000585309,-0.00214705,-0.576383,0.00166121,0.0132542,1959,904,24.1234,-4.5627
742,120,24.1063,4.78754,-0.000376111,-0.00261437,-0.000977764,-9.14768e-06,-0.00298133,-0.359042,0.00198451,0.0139196,1966,904,24.1063,-4.78756
749,120,24.1019,4.98401,-0.00169659,-0.00449351,-0.00023425,-0.0016771,-0.00451299,-0.0829823,0.00263405,0.010647,1973,904,24.1019,-4.984
756,120,24.0935,5.17761,-0.00312851,-0.00731899,0.000682944,-0.00302002,-0.00742749,0.157545,0.00431313,0.0118182,1980,904,24.0935,-5.17759
763,120,24.0443,5.34827,-0.00530779,-0.0111617,0.00252439,-0.00436957,-0.0120999,0.355844,0.00707514,0.0227032,1987,904,24.0444,-5.34825
770,120,23.9241,4.91669,-0.00839424,-0.016043,0.00544189,-0.0055673,-0.0188699,0.479108,0.0111955,0.0459936,1994,904,23.9241,-4.9167
777,120,23.9034,4.42358,0,0,0,0,0,0,0,-1,2001,904,23.9034,-4.42356
784,120,23.5463,3.98169,0,0,0,0,0,0,0,-1,2008,904,23.5462,-3.98172
791,120,24.3042,6.52417,-0.0262781,-0.0347989,0.0233907,-0.00676292,-0.0543141,0.695315,0.0341788,0.044712,2015,904,24.3042,-6.52418
798,120,23.7292,7.04034,-0.0362749,-0.0405158,0.0330538,-0.00527361,-0.0715171,0.753366,0.046021,0.0458017,2022,904,23.7293,-7.04037
805,120,0,0,0,0,0,0,0,0,0,-1,2029,904,0,0
812,120,0,0,0,0,0,0,0,0,0,-1,2036,904,0,0
-700,113,0,0,0,0,0,0,0,0,0,-1,524,911,0,0
-693,113,0,0,0,0,0,0,0,0,0,-1,531,911,0,0
-686,113,0,0,0,0,0,0,0,0,0,-1,538,911,0,0
-679,113,-16.5223,1.13342,-0.0192264,0.00765227,-0.0136292,0.0133537,-0.0249279,-1.17459,0.0224361,0.0450932,545,911,-16.5223,-1.13343
-672,113,-16.8063,1.57062,-0.01326,-0.00407443,-0.0164891,0.00844958,-0.025784,-0.921222,0.0205921,0.0481238,552,911,-16.8063,-1.57065
-665,113,-16.7864,1.86334,-0.00856386,-0.00956882,-0.0162963,0.00723775,-0.0253704,-0.769986,0.0197728,0.048836,559,911,-16.7864,-1.86334
-658,113,-16.7953,2.19391,-0.00527466,-0.0116131,-0.0147751,0.0066673,-0.0235551,-0.67975,0.0183345,0.0466496,566,911,-16.7953,-2.19394
-651,113,-16.8175,2.47821,-0.00288435,-0.0116796,-0.012585,0.00604922,-0.0206132,-0.617313,0.0161409,0.0467423,573,911,-16.8175,-2.4782
-644,113,-16.9871,2.43628,-0.00117953,-0.0106204,-0.0101035,0.00525183,-0.0170518,-0.566861,0.0134643,0.0426061,580,911,-16.9872,-2.43631
-637,113,-16.9173,2.85413,-0.000101674,-0.00899728,-0.00763276,0.00428466,-0.0133836,-0.521588,0.0106421,0.0342243,587,911,-16.9173,-2.85413
-630,113,-16.9144,2.78113,0.000382012,-0.00717607,-0.00538784,0.003184,-0.00997806,-0.479565,0.00792941,0.0161631,594,911,-16.9144,-2.78113
-623,113,-16.9254,2.64404,0.000450586,-0.00553746,-0.00341861,0.0020009,-0.00708778,-0.425756,0.00551452,0.0112009,601,911,-16.9254,-2.64407
-616,113,-16.9139,2.45221,0.000155489,-0.00436812,-0.00180171,0.00078538,-0.00499801,-0.336326,0.0036223,0.00971336,608,911,-16.914,-2.45222
-609,113,-16.9189,2.26477,-0.000545319,-0.00299078,-0.000852035,-0.000277736,-0.00325836,-0.304298,0.00208583,0.0105693,615,911,-16.9189,-2.26476
-602,113,-16.9578,2.08307,-0.00135935,-0.0012523,0.000343464,-0.000958217,-0.00165343,0.862692,0.000958628,0.0139813,622,911,-16.9578,-2.08309
-595,113,-16.9514,1.94324,-0.00245218,-0.000360892,0.000824238,-7.50938e-05,-0.00273798,1.23703,0.00180081,0.0190631,629,911,-16.9513,-1.94321
-588,113,-16.9187,1.74469,-0.00306159,-0.000340221,0.000999616,-1.25059e-05,-0.00338931,1.254,0.00225538,0.0209814,636,911,-16.9187,-1.74468
-581,113,-16.9371,1.53156,-0.00353795,-0.00047158,0.000802387,-0.000274309,-0.00373523,1.32972,0.00240394,0.0214493,643,911,-16.9372,-1.53154
-574,113,-16.8541,1.21326,-0.00416475,-0.000594895,0.000650561,-0.000480034,-0.00427961,1.39604,0.00270729,0.023465,650,911,-16.8541,-1.21323
-567,113,-17.0679,0.864075,0,0,0,0,0,0,0,-1,657,911,-17.0679,-0.864047
-560,113,-18.8364,1.33038,0,0,0,0,0,0,0,-1,664,911,-18.8364,-1.33037
-553,113,-18.9219,1.26117,-0.00486093,-0.0007693,0.000796271,-0.000619801,-0.00501043,1.38521,0.00315405,0.0379681,671,911,-18.9219,-1.26118
-546,113,-18.9195,1.27625,-0.00495917,-0.000807044,0.000930648,-0.000607993,-0.00515822,1.36009,0.00325513,0.0362059,678,911,-18.9195,-1.27624
-539,113,-18.8708,1.29132,-0.00509292,-0.000787184,0.00109799,-0.000523357,-0.00535675,1.33498,0.00341013,0.0369818,685,911,-18.8708,-1.29132
-532,113,-18.8237,1.15552,-0.00538012,-0.000790564,0.00122583,-0.000483674,-0.00568701,1.32549,0.00364084,0.0384311,692,911,-18.8237,-1.15554
-525,113,-19.0891,1.06342,-0.00605238,-0.000897059,0.0011387,-0.000656746,-0.00629269,1.36281,0.00399425,0.0384321,699,911,-19.0891,-1.06344
-518,113,-19.2347,1.32123,-0.00782318,-0.00107068,0.000906803,-0.000951022,-0.00794284,1.4396,0.00500841,0.0420919,706,911,-19.2347,-1.32125
-511,113,-19.0526,1.49023,0,0,0,0,0,0,0,-1,713,911,-19.0526,-1.49026
-504,113,0,0,0,0,0,0,0,0,0,-1,720,911,0,0
-497,113,0,0,0,0,0,0,0,0,0,-1,727,911,0,0
-490,113,0,0,0,0,0,0,0,0,0,-1,734,911,0,0
-483,113,0,0,0,0,0,0,0,0,0,-1,741,911,0,0
-476,113,0,0,0,0,0,0,0,0,0,-1,748,911,0,0
-469,113,0,0,0,0,0,0,0,0,0,-1,755,911,0,0
-462,113,0,0,0,0,0,0,0,0,0,-1,762,911,0,0
-455,113,0,0,0,0,0,0,0,0,0,-1,769,911,0,0
-448,113,0,0,0,0,0,0,0,0,0,-1,776,911,0,0
-441,113,0,0,0,0,0,0,0,0,0,-1,783,911,0,0
-434,113,0,0,0,0,0,0,0,0,0,-1,790,911,0,0
-427,113,0,0,0,0,0,0,0,0,0,-1,797,911,0,0
-420,113,0,0,0,0,0,0,0,0,0,-1,804,911,0,0
-413,113,0,0,0,0,0,0,0,0,0,-1,811,911,0,0
-406,113,0,0,0,0,0,0,0,0,0,-1,818,911,0,0
-399,113,0,0,0,0,0,0,0,0,0,-1,825,911,0,0
-392,113,0,0,0,0,0,0,0,0,0,-1,832,911,0,0
-385,113,0,0,0,0,0,0,0,0,0,-1,839,911,0,0
-378,113,0,0,0,0,0,0,0,0,0,-1,846,911,0,0
-371,113,0,0,0,0,0,0,0,0,0,-1,853,911,0,0
-364,113,0,0,0,0,0,0,0,0,0,-1,860,911,0,0
-357,113,0,0,0,0,0,0,0,0,0,-1,867,911,0,0
-350,113,0,0,0,0,0,0,0,0,0,-1,874,911,0,0
-343,113,0,0,0,0,0,0,0,0,0,-1,881,911,0,0
-336,113,0,0,0,0,0,0,0,0,0,-1,888,911,0,0
-329,113,0,0,0,0,0,0,0,0,0,-1,895,911,0,0
-322,113,0,0,0,0,0,0,0,0,0,-1,902,911,0,0
-315,113,0,0,0,0,0,0,0,0,0,-1,909,911,0,0
-308,113,0,0,0,0,0,0,0,0,0,-1,916,911,0,0
-301,113,0,0,0,0,0,0,0,0,0,-1,923,911,0,0
-294,113,0,0,0,0,0,0,0,0,0,-1,930,911,0,0
-287,113,0,0,0,0,0,0,0,0,0,-1,937,911,0,0
-280,113,0,0,0,0,0,0,0,0,0,-1,944,911,0,0
-273,113,0,0,0,0,0,0,0,0,0,-1,951,911,0,0
-266,113,0,0,0,0,0,0,0,0,0,-1,958,911,0,0
-259,113,0,0,0,0,0,0,0,0,0,-1,965,911,0,0
-252,113,0,0,0,0,0,0,0,0,0,-1,972,911,0,0
-245,113,0,0,0,0,0,0,0,0,0,-1,979,911,0,0
-238,113,0,0,0,0,0,0,0,0,0,-1,986,911,0,0
-231,113,0,0,0,0,0,0,0,0,0,-1,993,911,0,0
-224,113,0,0,0,0,0,0,0,0,0,-1,1000,911,0,0
-217,113,0,0,0,0,0,0,0,0,0,-1,1007,911,0,0
-210,113,0,0,0,0,0,0,0,0,0,-1,1014,911,0,0
-203,113,0,0,0,0,0,0,0,0,0,-1,1021,911,0,0
-196,113,0,0,0,0,0,0,0,0,0,-1,1028,911,0,0
-189,113,0,0,0,0,0,0,0,0,0,-1,1035,911,0,0
-182,113,0,0,0,0,0,0,0,0,0,-1,1042,911,0,0
-175,113,0,0,0,0,0,0,0,0,0,-1,1049,911,0,0
-168,113,0,0,0,0,0,0,0,0,0,-1,1056,911,0,0
-161,113,0,0,0,0,0,0,0,0,0,-1,1063,911,0,0
-154,113,0,0,0,0,0,0,0,0,0,-1,1070,911,0,0
-147,113,0,0,0,0,0,0,0,0,0,-1,1077,911,0,0
-140,113,0,0,0,0,0,0,0,0,0,-1,1084,911,0,0
-133,113,0,0,0,0,0,0,0,0,0,-1,1091,911,0,0
-126,113,0,0,0,0,0,0,0,0,0,-1,1098,911,0,0
-119,113,0,0,0,0,0,0,0,0,0,-1,1105,911,0,0
-112,113,0,0,0,0,0,0,0,0,0,-1,1112,911,0,0
-105,113,0,0,0,0,0,0,0,0,0,-1,1119,911,0,0
-98,113,0,0,0,0,0,0,0,0,0,-1,1126,911,0,0
-91,113,0,0,0,0,0,0,0,0,0,-1,1133,911,0,0
-84,113,0,0,0,0,0,0,0,0,0,-1,1140,911,0,0
-77,113,0,0,0,0,0,0,0,0,0,-1,1147,911,0,0
-70,113,0,0,0,0,0,0,0,0,0,-1,1154,911,0,0
-63,113,0,0,0,0,0,0,0,0,0,-1,1161,911,0,0
-56,113,0,0,0,0,0,0,0,0,0,-1,1168,911,0,0
-49,113,0,0,0,0,0,0,0,0,0,-1,1175,911,0,0
-42,113,0,0,0,0,0,0,0,0,0,-1,1182,911,0,0
-35,113,0,0,0,0,0,0,0,0,0,-1,1189,911,0,0
-28,113,0,0,0,0,0,0,0,0,0,-1,1196,911,0,0
-21,113,0,0,0,0,0,0,0,0,0,-1,1203,911,0,0
-14,113,0,0,0,0,0,0,0,0,0,-1,1210,911,0,0
-7,113,0,0,0,0,0,0,0,0,0,-1,1217,911,0,0
0,113,0,0,0,0,0,0,0,0,0,-1,1224,911,0,0
7,113,0,0,0,0,0,0,0,0,0,-1,1231,911,0,0
14,113,0,0,0,0,0,0,0,0,0,-1,1238,911,0,0
21,113,0,0,0,0,0,0,0,0,0,-1,1245,911,0,0
28,113,0,0,0,0,0,0,0,0,0,-1,1252,911,0,0
35,113,0,0,0,0,0,0,0,0,0,-1,1259,911,0,0
42,113,0,0,0,0,0,0,0,0,0,-1,1266,911,0,0
49,113,0,0,0,0,0,0,0,0,0,-1,1273,911,0,0
56,113,0,0,0,0,0,0,0,0,0,-1,1280,911,0,0
63,113,0,0,0,0,0,0,0,0,0,-1,1287,911,0,0
70,113,0,0,0,0,0,0,0,0,0,-1,1294,911,0,0
77,113,0,0,0,0,0,0,0,0,0,-1,1301,911,0,0
84,113,0,0,0,0,0,0,0,0,0,-1,1308,911,0,0
91,113,0,0,0,0,0,0,0,0,0,-1,1315,911,0,0
98,113,0,0,0,0,0,0,0,0,0,-1,1322,911,0,0
105,113,0,0,0,0,0,0,0,0,0,-1,1329,911,0,0
112,113,0,0,0,0,0,0,0,0,0,-1,1336,911,0,0
119,113,0,0,0,0,0,0,0,0,0,-1,1343,911,0,0
126,113,0,0,0,0,0,0,0,0,0,-1,1350,911,0,0
133,113,0,0,0,0,0,0,0,0,0,-1,1357,911,0,0
140,113,0,0,0,0,0,0,0,0,0,-1,1364,911,0,0
147,113,0,0,0,0,0,0,0,0,0,-1,1371,911,0,0
154,113,0,0,0,0,0,0,0,0,0,-1,1378,911,0,0
161,113,0,0,0,0,0,0,0,0,0,-1,1385,911,0,0
168,113,0,0,0,0,0,0,0,0,0,-1,1392,911,0,0
175,113,0,0,0,0,0,0,0,0,0,-1,1399,911,0,0
182,113,0,0,0,0,0,0,0,0,0,-1,1406,911,0,0
189,113,0,0,0,0,0,0,0,0,0,-1,1413,911,0,0
196,113,0,0,0,0,0,0,0,0,0,-1,1420,911,0,0
203,113,0,0,0,0,0,0,0,0,0,-1,1427,911,0,0
210,113,0,0,0,0,0,0,0,0,0,-1,1434,911,0,0
217,113,0,0,0,0,0,0,0,0,0,-1,1441,911,0,0
224,113,0,0,0,0,0,0,0,0,0,-1,1448,911,0,0
231,113,0,0,0,0,0,0,0,0,0,-1,1455,911,0,0
238,113,0,0,0,0,0,0,0,0,0,-1,1462,911,0,0
245,113,0,0,0,0,0,0,0,0,0,-1,1469,911,0,0
252,113,0,0,0,0,0,0,0,0,0,-1,1476,911,0,0
259,113,0,0,0,0,0,0,0,0,0,-1,1483,911,0,0
266,113,0,0,0,0,0,0,0,0,0,-1,1490,911,0,0
273,113,0,0,0,0,0,0,0,0,0,-1,1497,911,0,0
280,113,0,0,0,0,0,0,0,0,0,-1,1504,911,0,0
287,113,0,0,0,0,0,0,0,0,0,-1,1511,911,0,0
294,113,0,0,0,0,0,0,0,0,0,-1,1518,911,0,0
301,113,0,0,0,0,0,0,0,0,0,-1,1525,911,0,0
308,113,0,0,0,0,0,0,0,0,0,-1,1532,911,0,0
315,113,0,0,0,0,0,0,0,0,0,-1,1539,911,0,0
322,113,0,0,0,0,0,0,0,0,0,-1,1546,911,0,0
329,113,0,0,0,0,0,0,0,0,0,-1,1553,911,0,0
336,113,0,0,0,0,0,0,0,0,0,-1,1560,911,0,0
343,113,0,0,0,0,0,0,0,0,0,-1,1567,911,0,0
350,113,0,0,0,0,0,0,0,0,0,-1,1574,911,0,0
357,113,0,0,0,0,0,0,0,0,0,-1,1581,911,0,0
364,113,0,0,0,0,0,0,0,0,0,-1,1588,911,0,0
371,113,0,0,0,0,0,0,0,0,0,-1,1595,911,0,0
378,113,0,0,0,0,0,0,0,0,0,-1,1602,911,0,0
385,113,0,0,0,0,0,0,0,0,0,-1,1609,911,0,0
392,113,0,0,0,0,0,0,0,0,0,-1,1616,911,0,0
399,113,0,0,0,0,0,0,0,0,0,-1,1623,911,0,0
406,113,0,0,0,0,0,0,0,0,0,-1,1630,911,0,0
413,113,0,0,0,0,0,0,0,0,0,-1,1637,911,0,0
420,113,0,0,0,0,0,0,0,0,0,-1,1644,911,0,0
427,113,0,0,0,0,0,0,0,0,0,-1,1651,911,0,0
434,113,0,0,0,0,0,0,0,0,0,-1,1658,911,0,0
441,113,0,0,0,0,0,0,0,0,0,-1,1665,911,0,0
448,113,0,0,0,0,0,0,0,0,0,-1,1672,911,0,0
455,113,0,0,0,0,0,0,0,0,0,-1,1679,911,0,0
462,113,0,0,0,0,0,0,0,0,0,-1,1686,911,0,0
469,113,0,0,0,0,0,0,0,0,0,-1,1693,911,0,0
476,113,0,0,0,0,0,0,0,0,0,-1,1700,911,0,0
483,113,0,0,0,0,0,0,0,0,0,-1,1707,911,0,0
490,113,0,0,0,0,0,0,0,0,0,-1,1714,911,0,0
497,113,0,0,0,0,0,0,0,0,0,-1,1721,911,0,0
504,113,0,0,0,0,0,0,0,0,0,-1,1728,911,0,0
511,113,0,0,0,0,0,0,0,0,0,-1,1735,911,0,0
518,113,0,0,0,0,0,0,0,0,0,-1,1742,911,0,0
525,113,0,0,0,0,0,0,0,0,0,-1,1749,911,0,0
532,113,0,0,0,0,0,0,0,0,0,-1,1756,911,0,0
539,113,0,0,0,0,0,0,0,0,0,-1,1763,911,0,0
546,113,0,0,0,0,0,0,0,0,0,-1,1770,911,0,0
553,113,0,0,0,0,0,0,0,0,0,-1,1777,911,0,0
560,113,0,0,0,0,0,0,0,0,0,-1,1784,911,0,0
567,113,0,0,0,0,0,0,0,0,0,-1,1791,911,0,0
574,113,0,0,0,0,0,0,0,0,0,-1,1798,911,0,0
581,113,0,0,0,0,0,0,0,0,0,-1,1805,911,0,0
588,113,0,0,0,0,0,0,0,0,0,-1,1812,911,0,0
595,113,0,0,0,0,0,0,0,0,0,-1,1819,911,0,0
602,113,0,0,0,0,0,0,0,0,0,-1,1826,911,0,0
609,113,0,0,0,0,0,0,0,0,0,-1,1833,911,0,0
616,113,0,0,0,0,0,0,0,0,0,-1,1840,911,0,0
623,113,0,0,0,0,0,0,0,0,0,-1,1847,911,0,0
630,113,27.2013,3.23993,-0.00446339,0.00295677,-0.00198987,0.00345671,-0.00496333,-1.32465,0.00488718,0.0433586,1854,911,27.2013,-3.23991
637,113,27.1287,3.38379,-0.00212584,0.00296977,-0.00191731,0.0036106,-0.00276667,-1.24824,0.00369265,0.0413834,1861,911,27.1287,-3.3838
644,113,27.1313,3.30273,-0.000778235,0.00279123,-0.00170488,0.00347467,-0.00146167,-1.18954,0.00292792,0.0384893,1868,911,27.1314,-3.30275
651,113,27.1442,3.04645,-0.000604627,0.0025403,-0.0012895,0.00300142,-0.00106574,-1.22737,0.00243521,0.0418426,1875,911,27.1441,-3.04645
658,113,27.1968,2.97864,-0.00103787,0.00228861,-0.000769126,0.00245783,-0.0012071,-1.35423,0.00215663,0.0403114,1882,911,27.1968,-2.97863
665,113,27.2218,3.08765,-0.00153239,0.00194037,-0.000268789,0.00196105,-0.00155307,-1.49401,0.00203343,0.0358399,1889,911,27.2218,-3.08762
672,113,27.1106,3.10626,-0.00189537,0.00161207,0.000138093,0.0016175,-0.0019008,1.53151,0.00203349,0.0350473,1896,911,27.1105,-3.10626
679,113,27.0431,3.09259,-0.0020241,0.00132373,0.000434083,0.0013791,-0.00207947,1.44393,0.00201041,0.0309784,1903,911,27.043,-3.09262
686,113,27.0419,3.05359,-0.00204332,0.000919555,0.000603117,0.00103762,-0.00216138,1.37748,0.00188455,0.0225028,1910,911,27.0419,-3.0536
693,113,27.0316,3.11377,-0.00209136,0.000697666,0.000743872,0.000883663,-0.00227736,1.32578,0.00188322,0.0341361,1917,911,27.0317,-3.11378
700,113,25.4786,3.42877,0,0,0,0,0,0,0,-1,1924,911,25.4786,-3.4288
707,113,24.2827,3.65796,0,0,0,0,0,0,0,-1,1931,911,24.2827,-3.65797
714,113,24.3088,3.85608,-0.00221988,0.000235113,0.000557318,0.000355708,-0.00234047,1.3577,0.0016914,0.0175675,1938,911,24.3088,-3.8561
721,113,24.3297,4.08844,-0.00172967,0.000552386,0.00025265,0.000580023,-0.0017573,1.46184,0.00140536,0.0165939,1945,911,24.3297,-4.08846
728,113,24.3706,4.3631,-0.00129398,0.000151492,-0.000431003,0.000270249,-0.00141274,-1.30193,0.00104364,0.0182969,1952,911,24.3706,-4.36311
735,113,24.3424,4.5882,-0.000873996,-0.0010515,-0.00102661,6.76867e-05,-0.00199319,-0.742279,0.00135192,0.0171502,1959,911,24.3424,-4.5882
742,113,24.3375,4.77979,-0.00131882,-0.00200639,-0.000760489,-0.000828021,-0.00249719,-0.573116,0.00146876,0.0129387,1966,911,24.3375,-4.77981
749,113,24.3528,4.98145,-0.00300475,-0.00341908,-5.15024e-05,-0.00299844,-0.00342538,-0.121835,0.00215542,0.00930407,1973,911,24.3528,-4.98144
756,113,24.3511,5.17303,-0.00500229,-0.00564628,0.000855037,-0.00441063,-0.00623794,0.605316,0.00370299,0.0105461,1980,911,24.3511,-5.17306
763,113,24.2909,5.37738,-0.00790285,-0.00869216,0.00273332,-0.00553584,-0.0110592,0.713701,0.00638501,0.0211328,1987,911,24.2909,-5.37737
770,113,23.9713,5.2959,-0.0117952,-0.0125467,0.00563763,-0.00652085,-0.0178211,0.752123,0.0104116,0.0437824,1994,911,23.9713,-5.2959
777,113,23.6366,4.7384,-0.0169593,-0.0171461,0.00987556,-0.00717667,-0.0269287,0.78067,0.0161024,0.0482812,2001,911,23.6366,-4.73841
784,113,23.364,4.54291,-0.0236761,-0.0222546,0.0156693,-0.00727989,-0.0386508,0.808063,0.023716,0.0475867,2008,911,23.364,-4.54293
791,113,24.0371,6.97626,-0.0321605,-0.0273878,0.0230626,-0.00658843,-0.0529599,0.836951,0.0333282,0.046401,2015,911,24.0371,-6.97627
798,113,23.5104,7.31909,-0.0426971,-0.031839,0.0322078,-0.0046059,-0.0699302,0.868895,0.0451632,0.0452782,2022,911,23.5104,-7.3191
805,113,0,0,0,0,0,0,0,0,0,-1,2029,911,0,0
812,113,0,0,0,0,0,0,0,0,0,-1,2036,911,0,0
-700,106,0,0,0,0,0,0,0,0,0,-1,524,918,0,0
-693,106,0,0,0,0,0,0,0,0,0,-1,531,918,0,0
-686,106,0,0,0,0,0,0,0,0,0,-1,538,918,0,0
-679,106,-15.8726,1.50342,-0.0246563,0.0307188,-0.00826749,0.0319268,-0.0258643,-1.42571,0.0334268,0.0445357,545,918,-15.8726,-1.50341
-672,106,-15.9066,1.76251,-0.0160589,0.0135661,-0.010601,0.0169687,-0.0194615,-1.26021,0.0210494,0.0485201,552,918,-15.9066,-1.76254
-665,106,-15.8898,2.03516,-0.0100203,0.00335842,-0.0109682,0.00951617,-0.0161781,-1.05923,0.0149999,0.0492441,559,918,-15.8898,-2.03513
-658,106,-16.389,2.68689,-0.00596734,-0.00240903,-0.0103254,0.00628934,-0.0146657,-0.870715,0.0124164,0.0453498,566,918,-16.389,-2.68692
-651,106,-16.002,2.87701,-0.00322807,-0.00524786,-0.00904438,0.00486262,-0.0133385,-0.729798,0.0108816,0.0474513,573,918,-16.002,-2.87703
-644,106,-16.4713,2.81842,-0.00142491,-0.00617594,-0.00738943,0.00396145,-0.0115623,-0.629878,0.00931387,0.0406505,580,918,-16.4713,-2.81843
-637,106,-16.9577,2.78925,0,0,0,0,0,0,0,-1,587,918,-16.9577,-2.78925
-630,106,-17.0912,2.8269,2.03397e-05,-0.00516568,-0.003951,0.00215323,-0.00729856,-0.495006,0.00572018,0.0123063,594,918,-17.0912,-2.82688
-623,106,-17.1329,2.62665,-2.79785e-05,-0.00444719,-0.00247081,0.00107712,-0.00555228,-0.420574,0.0041079,0.0115279,601,918,-17.1329,-2.62666
-616,106,-17.1331,2.42126,-0.000462435,-0.00377792,-0.00124982,-4.40837e-05,-0.00419627,-0.323006,0.00278294,0.0116555,608,918,-17.1331,-2.42128
-609,106,-17.1234,2.24689,-0.00134777,-0.00255614,-0.00071329,-0.00101717,-0.00288674,-0.434013,0.0016907,0.0111948,615,918,-17.1234,-2.24687
-602,106,-17.1348,2.07684,-0.00229977,-0.000993854,0.000263801,-0.000942578,-0.00235105,1.37882,0.00136623,0.0140821,622,918,-17.1348,-2.07683
-595,106,-17.2003,1.91638,-0.00341904,-0.000240185,0.000705192,-9.07693e-05,-0.00356845,1.362,0.0023493,0.0181193,629,918,-17.2003,-1.91639
-588,106,-17.1655,1.70178,-0.00401131,-0.000272369,0.000869855,-7.99068e-05,-0.00420378,1.35305,0.00277627,0.0200006,636,918,-17.1656,-1.70181
-581,106,-17.0616,1.487,-0.00440268,-0.000434569,0.000670397,-0.000324368,-0.00451288,1.40787,0.0029065,0.0147305,643,918,-17.0617,-1.48703
-574,106,-17.1288,1.3125,-0.00485733,-0.000553629,0.000481472,-0.000500423,-0.00491054,1.46074,0.00312029,0.0260712,650,918,-17.1288,-1.31248
-567,106,-17.9678,1.34253,0,0,0,0,0,0,0,-1,657,918,-17.9678,-1.34253
-560,106,-18.8648,1.35474,-0.00532267,-0.000581184,0.000487961,-0.000531487,-0.00537237,1.4693,0.00341822,0.042201,664,918,-18.8648,-1.35471
-553,106,-18.9324,1.30182,-0.00534917,-0.000572819,0.000576094,-0.000504317,-0.00541767,1.45244,0.00345596,0.0344465,671,918,-18.9323,-1.30182
-546,106,-18.9387,1.18164,-0.00534034,-0.000460893,0.00069051,-0.000365058,-0.00543617,1.43289,0.00350876,0.0384331,678,918,-18.9387,-1.18163
-539,106,-18.9249,1.28723,-0.00532012,-0.000267035,0.000803504,-0.000142345,-0.00544482,1.41684,0.00358337,0.0418903,685,918,-18.9249,-1.28722
-532,106,-18.8533,1.44891,-0.00545582,9.68521e-06,0.000839158,0.000135625,-0.00558176,1.42183,0.00376719,0.0405241,692,918,-18.8533,-1.4489
-525,106,-19.1308,1.22064,-0.00616654,0.000392711,0.000577048,0.00044309,-0.00621692,1.48371,0.00429992,0.0379167,699,918,-19.1308,-1.22064
-518,106,-19.1371,1.2879,-0.00868148,0.00110225,0.000185608,0.00110577,-0.008685,1.55183,0.00619159,0.0386803,706,918,-19.1371,-1.28791
-511,106,0,0,0,0,0,0,0,0,0,-1,713,918,0,0
-504,106,0,0,0,0,0,0,0,0,0,-1,720,918,0,0
-497,106,0,0,0,0,0,0,0,0,0,-1,727,918,0,0
-490,106,0,0,0,0,0,0,0,0,0,-1,734,918,0,0
-483,106,0,0,0,0,0,0,0,0,0,-1,741,918,0,0
-476,106,0,0,0,0,0,0,0,0,0,-1,748,918,0,0
-469,106,0,0,0,0,0,0,0,0,0,-1,755,918,0,0
-462,106,0,0,0,0,0,0,0,0,0,-1,762,918,0,0
-455,106,0,0,0,0,0,0,0,0,0,-1,769,918,0,0
-448,106,0,0,0,0,0,0,0,0,0,-1,776,918,0,0
-441,106,0,0,0,0,0,0,0,0,0,-1,783,918,0,0
-434,106,0,0,0,0,0,0,0,0,0,-1,790,918,0,0
-427,106,0,0,0,0,0,0,0,0,0,-1,797,918,0,0
-420,106,0,0,0,0,0,0,0,0,0,-1,804,918,0,0
-413,106,0,0,0,0,0,0,0,0,0,-1,811,918,0,0
-406,106,0,0,0,0,0,0,0,0,0,-1,818,918,0,0
-399,106,0,0,0,0,0,0,0,0,0,-1,825,918,0,0
-392,106,0,0,0,0,0,0,0,0,0,-1,832,918,0,0
-385,106,0,0,0,0,0,0,0,0,0,-1,839,918,0,0
-378,106,0,0,0,0,0,0,0,0,0,-1,846,918,0,0
-371,106,0,0,0,0,0,0,0,0,0,-1,853,918,0,0
-364,106,0,0,0,0,0,0,0,0,0,-1,860,918,0,0
-357,106,0,0,0,0,0,0,0,0,0,-1,867,918,0,0
-350,106,0,0,0,0,0,0,0,0,0,-1,874,918,0,0
-343,106,0,0,0,0,0,0,0,0,0,-1,881,918,0,0
-336,106,0,0,0,0,0,0,0,0,0,-1,888,918,0,0
-329,106,0,0,0,0,0,0,0,0,0,-1,895,918,0,0
-322,106,0,0,0,0,0,0,0,0,0,-1,902,918,0,0
-315,106,0,0,0,0,0,0,0,0,0,-1,909,918,0,0
-308,106,0,0,0,0,0,0,0,0,0,-1,916,918,0,0
-301,106,0,0,0,0,0,0,0,0,0,-1,923,918,0,0
-294,106,0,0,0,0,0,0,0,0,0,-1,930,918,0,0
-287,106,0,0,0,0,0,0,0,0,0,-1,937,918,0,0
-280,106,0,0,0,0,0,0,0,0,0,-1,944,918,0,0
-273,106,0,0,0,0,0,0,0,0,0,-1,951,918,0,0
-266,106,0,0,0,0,0,0,0,0,0,-1,958,918,0,0
-259,106,0,0,0,0,0,0,0,0,0,-1,965,918,0,0
-252,106,0,0,0,0,0,0,0,0,0,-1,972,918,0,0
-245,106,0,0,0,0,0,0,0,0,0,-1,979,918,0,0
-238,106,0,0,0,0,0,0,0,0,0,-1,986,918,0,0
-231,106,0,0,0,0,0,0,0,0,0,-1,993,918,0,0
-224,106,0,0,0,0,0,0,0,0,0,-1,1000,918,0,0
-217,106,0,0,0,0,0,0,0,0,0,-1,1007,918,0,0
-210,106,0,0,0,0,0,0,0,0,0,-1,1014,918,0,0
-203,106,0,0,0,0,0,0,0,0,0,-1,1021,918,0,0
-196,106,0,0,0,0,0,0,0,0,0,-1,1028,918,0,0
-189,106,0,0,0,0,0,0,0,0,0,-1,1035,918,0,0
-182,106,0,0,0,0,0,0,0,0,0,-1,1042,918,0,0
-175,106,0,0,0,0,0,0,0,0,0,-1,1049,918,0,0
-168,106,0,0,0,0,0,0,0,0,0,-1,1056,918,0,0
-161,106,0,0,0,0,0,0,0,0,0,-1,1063,918,0,0
-154,106,0,0,0,0,0,0,0,0,0,-1,1070,918,0,0
-147,106,0,0,0,0,0,0,0,0,0,-1,1077,918,0,0
-140,106,0,0,0,0,0,0,0,0,0,-1,1084,918,0,0
-133,106,0,0,0,0,0,0,0,0,0,-1,1091,918,0,0
-126,106,0,0,0,0,0,0,0,0,0,-1,1098,918,0,0
-119,106,0,0,0,0,0,0,0,0,0,-1,1105,918,0,0
-112,106,0,0,0,0,0,0,0,0,0,-1,1112,918,0,0
-105,106,0,0,0,0,0,0,0,0,0,-1,1119,918,0,0
-98,106,0,0,0,0,0,0,0,0,0,-1,1126,918,0,0
-91,106,0,0,0,0,0,0,0,0,0,-1,1133,918,0,0
-84,106,0,0,0,0,0,0,0,0,0,-1,1140,918,0,0
-77,106,0,0,0,0,0,0,0,0,0,-1,1147,918,0,0
-70,106,0,0,0,0,0,0,0,0,0,-1,1154,918,0,0
-63,106,0,0,0,0,0,0,0,0,0,-1,1161,918,0,0
-56,106,0,0,0,0,0,0,0,0,0,-1,1168,918,0,0
-49,106,0,0,0,0,0,0,0,0,0,-1,1175,918,0,0
-42,106,0,0,0,0,0,0,0,0,0,-1,1182,918,0,0
-35,106,0,0,0,0,0,0,0,0,0,-1,1189,918,0,0
-28,106,0,0,0,0,0,0,0,0,0,-1,1196,918,0,0
-21,106,0,0,0,0,0,0,0,0,0,-1,1203,918,0,0
-14,106,0,0,0,0,0,0,0,0,0,-1,1210,918,0,0
-7,106,0,0,0,0,0,0,0,0,0,-1,1217,918,0,0
0,106,0,0,0,0,0,0,0,0,0,-1,1224,918,0,0
7,106,0,0,0,0,0,0,0,0,0,-1,1231,918,0,0
14,106,0,0,0,0,0,0,0,0,0,-1,1238,918,0,0
21,106,0,0,0,0,0,0,0,0,0,-1,1245,918,0,0
28,106,0,0,0,0,0,0,0,0,0,-1,1252,918,0,0
35,106,0,0,0,0,0,0,0,0,0,-1,1259,918,0,0
42,106,0,0,0,0,0,0,0,0,0,-1,1266,918,0,0
49,106,0,0,0,0,0,0,0,0,0,-1,1273,918,0,0
56,106,0,0,0,0,0,0,0,0,0,-1,1280,918,0,0
63,106,0,0,0,0,0,0,0,0,0,-1,1287,918,0,0
70,106,0,0,0,0,0,0,0,0,0,-1,1294,918,0,0
77,106,0,0,0,0,0,0,0,0,0,-1,1301,918,0,0
84,106,0,0,0,0,0,0,0,0,0,-1,1308,918,0,0
91,106,0,0,0,0,0,0,0,0,0,-1,1315,918,0,0
98,106,0,0,0,0,0,0,0,0,0,-1,1322,918,0,0
105,106,0,0,0,0,0,0,0,0,0,-1,1329,918,0,0
112,106,0,0,0,0,0,0,0,0,0,-1,1336,918,0,0
119,106,0,0,0,0,0,0,0,0,0,-1,1343,918,0,0
126,106,0,0,0,0,0,0,0,0,0,-1,1350,918,0,0
133,106,0,0,0,0,0,0,0,0,0,-1,1357,918,0,0
140,106,0,0,0,0,0,0,0,0,0,-1,1364,918,0,0
147,106,0,0,0,0,0,0,0,0,0,-1,1371,918,0,0
154,106,0,0,0,0,0,0,0,0,0,-1,1378,918,0,0
161,106,0,0,0,0,0,0,0,0,0,-1,1385,918,0,0
168,106,0,0,0,0,0,0,0,0,0,-1,1392,918,0,0
175,106,0,0,0,0,0,0,0,0,0,-1,1399,918,0,0
182,106,0,0,0,0,0,0,0,0,0,-1,1406,918,0,0
189,106,0,0,0,0,0,0,0,0,0,-1,1413,918,0,0
196,106,0,0,0,0,0,0,0,0,0,-1,1420,918,0,0
203,106,0,0,0,0,0,0,0,0,0,-1,1427,918,0,0
210,106,0,0,0,0,0,0,0,0,0,-1,1434,918,0,0
217,106,0,0,0,0,0,0,0,0,0,-1,1441,918,0,0
224,106,0,0,0,0,0,0,0,0,0,-1,1448,918,0,0
231,106,0,0,0,0,0,0,0,0,0,-1,1455,918,0,0
238,106,0,0,0,0,0,0,0,0,0,-1,1462,918,0,0
245,106,0,0,0,0,0,0,0,0,0,-1,1469,918,0,0
252,106,0,0,0,0,0,0,0,0,0,-1,1476,918,0,0
259,106,0,0,0,0,0,0,0,0,0,-1,1483,918,0,0
266,106,0,0,0,0,0,0,0,0,0,-1,1490,918,0,0
273,106,0,0,0,0,0,0,0,0,0,-1,1497,918,0,0
280,106,0,0,0,0,0,0,0,0,0,-1,1504,918,0,0
287,106,0,0,0,0,0,0,0,0,0,-1,1511,918,0,0
294,106,0,0,0,0,0,0,0,0,0,-1,1518,918,0,0
301,106,0,0,0,0,0,0,0,0,0,-1,1525,918,0,0
308,106,0,0,0,0,0,0,0,0,0,-1,1532,918,0,0
315,106,0,0,0,0,0,0,0,0,0,-1,1539,918,0,0
322,106,0,0,0,0,0,0,0,0,0,-1,1546,918,0,0
329,106,0,0,0,0,0,0,0,0,0,-1,1553,918,0,0
336,106,0,0,0,0,0,0,0,0,0,-1,1560,918,0,0
343,106,0,0,0,0,0,0,0,0,0,-1,1567,918,0,0
350,106,0,0,0,0,0,0,0,0,0,-1,1574,918,0,0
357,106,0,0,0,0,0,0,0,0,0,-1,1581,918,0,0
364,106,0,0,0,0,0,0,0,0,0,-1,1588,918,0,0
371,106,0,0,0,0,0,0,0,0,0,-1,1595,918,0,0
378,106,0,0,0,0,0,0,0,0,0,-1,1602,918,0,0
385,106,0,0,0,0,0,0,0,0,0,-1,1609,918,0,0
392,106,0,0,0,0,0,0,0,0,0,-1,1616,918,0,0
399,106,0,0,0,0,0,0,0,0,0,-1,1623,918,0,0
406,106,0,0,0,0,0,0,0,0,0,-1,1630,918,0,0
413,106,0,0,0,0,0,0,0,0,0,-1,1637,918,0,0
420,106,0,0,0,0,0,0,0,0,0,-1,1644,918,0,0
427,106,0,0,0,0,0,0,0,0,0,-1,1651,918,0,0
434,106,0,0,0,0,0,0,0,0,0,-1,1658,918,0,0
441,106,0,0,0,0,0,0,0,0,0,-1,1665,918,0,0
448,106,0,0,0,0,0,0,0,0,0,-1,1672,918,0,0
455,106,0,0,0,0,0,0,0,0,0,-1,1679,918,0,0
462,106,0,0,0,0,0,0,0,0,0,-1,1686,918,0,0
469,106,0,0,0,0,0,0,0,0,0,-1,1693,918,0,0
476,106,0,0,0,0,0,0,0,0,0,-1,1700,918,0,0
483,106,0,0,0,0,0,0,0,0,0,-1,1707,918,0,0
490,106,0,0,0,0,0,0,0,0,0,-1,1714,918,0,0
497,106,0,0,0,0,0,0,0,0,0,-1,1721,918,0,0
504,106,0,0,0,0,0,0,0,0,0,-1,1728,918,0,0
511,106,0,0,0,0,0,0,0,0,0,-1,1735,918,0,0
518,106,0,0,0,0,0,0,0,0,0,-1,1742,918,0,0
525,106,0,0,0,0,0,0,0,0,0,-1,1749,918,0,0
532,106,0,0,0,0,0,0,0,0,0,-1,1756,918,0,0
539,106,0,0,0,0,0,0,0,0,0,-1,1763,918,0,0
546,106,0,0,0,0,0,0,0,0,0,-1,1770,918,0,0
553,106,0,0,0,0,0,0,0,0,0,-1,1777,918,0,0
560,106,0,0,0,0,0,0,0,0,0,-1,1784,918,0,0
567,106,0,0,0,0,0,0,0,0,0,-1,1791,918,0,0
574,106,0,0,0,0,0,0,0,0,0,-1,1798,918,0,0
581,106,0,0,0,0,0,0,0,0,0,-1,1805,918,0,0
588,106,0,0,0,0,0,0,0,0,0,-1,1812,918,0,0
595,106,0,0,0,0,0,0,0,0,0,-1,1819,918,0,0
602,106,0,0,0,0,0,0,0,0,0,-1,1826,918,0,0
609,106,0,0,0,0,0,0,0,0,0,-1,1833,918,0,0
616,106,0,0,0,0,0,0,0,0,0,-1,1840,918,0,0
623,106,0,0,0,0,0,0,0,0,0,-1,1847,918,0,0
630,106,27.2502,2.99182,-0.00377479,0.00501242,-0.00248282,0.00566542,-0.00442778,-1.31362,0.0058419,0.0405707,1854,918,27.2502,-2.99179
637,106,27.1006,3.38605,-0.00150998,0.00444345,-0.00217298,0.00515221,-0.00221874,-1.25551,0.00436651,0.0395707,1861,918,27.1006,-3.38605
644,106,27.075,3.29547,-0.000230307,0.0038427,-0.00177835,0.00450988,-0.000897482,-1.21188,0.00334611,0.0373948,1868,918,27.075,-3.29549
651,106,27.058,3.08264,-0.000193803,0.00326078,-0.00121718,0.00364656,-0.000579579,-1.26387,0.00264548,0.0389083,1875,918,27.058,-3.08266
658,106,27.1986,3.06689,-0.000782518,0.00279529,-0.000548484,0.00287749,-0.000864713,-1.42204,0.00226233,0.0377446,1882,918,27.1986,-3.06688
665,106,27.2505,3.1369,-0.00143425,0.00230554,8.33021e-05,0.0023074,-0.00143611,1.54854,0.00218074,0.0389818,1889,918,27.2505,-3.13689
672,106,27.1655,3.24341,-0.00191807,0.00187321,0.00058869,0.00196251,-0.00200737,1.42024,0.00229206,0.039014,1896,918,27.1655,-3.2434
679,106,27.0978,3.25623,-0.00214357,0.00149569,0.000943149,0.00172559,-0.00237347,1.3317,0.00237643,0.0337992,1903,918,27.0978,-3.25624
686,106,27.0393,3.08398,-0.00220328,0.0010416,0.00112,0.00139063,-0.00255232,1.2687,0.00230916,0.0264821,1910,918,27.0393,-3.08397
693,106,27.0243,3.11328,-0.00223017,0.000787259,0.00125129,0.00123863,-0.00268154,1.2246,0.00231385,0.0206907,1917,918,27.0242,-3.1133
700,106,27.0239,3.17017,0,0,0,0,0,0,0,-1,1924,918,27.024,-3.17018
707,106,24.4601,3.6228,0,0,0,0,0,0,0,-1,1931,918,24.4601,-3.62278
714,106,24.5397,3.85193,-0.00237982,0.000359438,0.00095694,0.000660623,-0.00268101,1.26587,0.00204346,0.0214485,1938,918,24.5396,-3.85194
721,106,24.5701,4.10419,-0.00194,0.000660451,0.000578107,0.000783178,-0.00206272,1.36161,0.00169754,0.0184906,1945,918,24.57,-4.10419
728,106,24.6204,4.36108,-0.00154569,0.000189501,-0.00017532,0.000207038,-0.00156323,-1.4711,0.00111758,0.0181324,1952,918,24.6204,-4.36109
735,106,24.5978,4.56128,-0.00121394,-0.000960655,-0.000817585,-0.000259962,-0.00191463,-0.862236,0.0011992,0.0167296,1959,918,24.5978,-4.56127
742,106,24.5801,4.76154,-0.00175562,-0.00177619,-0.000672833,-0.00109299,-0.00243881,-0.777758,0.00141057,0.0117515,1966,918,24.5801,-4.76153
749,106,24.5811,4.97522,-0.00336534,-0.00288039,-0.00028185,-0.00275106,-0.00349466,-1.14062,0.00212571,0.00914317,1973,918,24.5811,-4.97523
756,106,24.5654,5.15509,-0.00527567,-0.0047757,0.000174546,-0.00472079,-0.00533057,1.26603,0.0033689,0.00971786,1980,918,24.5654,-5.15511
763,106,24.5363,5.36377,-0.00809234,-0.00734966,0.0015313,-0.00614531,-0.00929668,0.904352,0.00545943,0.0173019,1987,918,24.5363,-5.36375
770,106,24.3853,5.6236,-0.0117943,-0.0105173,0.00370105,-0.00740012,-0.0149116,0.870816,0.00860927,0.0357036,1994,918,24.3853,-5.62359
777,106,24.2114,5.86469,-0.0165488,-0.014212,0.00685183,-0.00842966,-0.0223311,0.869846,0.0130213,0.0441866,2001,918,24.2114,-5.86467
784,106,24.1725,6.36102,-0.0225809,-0.018243,0.0111816,-0.00902195,-0.031802,0.881195,0.018925,0.0451296,2008,918,24.1725,-6.36099
791,106,23.8126,7.05054,-0.0300384,-0.0221595,0.0166759,-0.00896402,-0.0432339,0.901391,0.0263479,0.0429054,2015,918,23.8127,-7.05052
798,106,23.2385,7.46558,-0.0391374,-0.0252975,0.023386,-0.00782913,-0.0566058,0.929244,0.0354171,0.0460267,2022,918,23.2385,-7.46559
805,106,0,0,0,0,0,0,0,0,0,-1,2029,918,0,0
812,106,0,0,0,0,0,0,0,0,0,-1,2036,918,0,0
-700,99,0,0,0,0,0,0,0,0,0,-1,524,925,0,0
-693,99,0,0,0,0,0,0,0,0,0,-1,531,925,0,0
-686,99,0,0,0,0,0,0,0,0,0,-1,538,925,0,0
-679,99,-15.1287,1.52625,0,0,0,0,0,0,0,-1,545,925,-15.1286,-1.52622
-672,99,-15.0814,1.8454,0,0,0,0,0,0,0,-1,552,925,-15.0814,-1.84543
-665,99,-17.0853,2.67249,-0.0170201,0.0126631,-0.00560241,0.0136853,-0.0180423,-1.39032,0.0183754,0.0483076,559,925,-17.0853,-2.67249
-658,99,-16.4273,3.23224,-0.0110372,0.00540347,-0.00568774,0.00717935,-0.012813,-1.26816,0.0116944,0.0446197,566,925,-16.4273,-3.23222
-651,99,-15.9241,3.34576,-0.00680629,0.000881805,-0.0052315,0.0035297,-0.00945418,-1.10225,0.00775201,0.0499912,573,925,-15.9241,-3.34576
-644,99,-16.238,2.96912,0,0,0,0,0,0,0,-1,580,925,-16.238,-2.9691
-637,99,-17.1797,2.96667,-0.00199036,-0.00264271,-0.00347132,0.00117008,-0.00580315,-0.738554,0.00431204,0.0313688,587,925,-17.1797,-2.96665
-630,99,-17.274,2.81641,-0.00108783,-0.00290252,-0.00241125,0.000581138,-0.00457149,-0.605445,0.00325869,0.0137838,594,925,-17.274,-2.8164
-623,99,-17.3294,2.62433,-0.000853151,-0.00310289,-0.00143954,-0.000151104,-0.00380493,-0.453748,0.00248778,0.00900429,601,925,-17.3294,-2.62433
-616,99,-17.3473,2.43542,-0.00115679,-0.00299294,-0.000643055,-0.000953983,-0.00319575,-0.305511,0.00189434,0.0102623,608,925,-17.3473,-2.4354
-609,99,-17.3378,2.25702,-0.0020224,-0.0020783,-0.00051847,-0.00153113,-0.00256957,-0.758469,0.00149261,0.0104123,615,925,-17.3378,-2.25702
-602,99,-17.3313,2.10626,-0.00301409,-0.000699245,0.000207914,-0.000680719,-0.00303262,1.48193,0.00183736,0.0115583,622,925,-17.3313,-2.10626
-595,99,-17.3811,1.9408,-0.00412095,-9.00064e-05,0.000585364,-6.72182e-06,-0.00420423,1.42947,0.00280058,0.0153696,629,925,-17.3811,-1.94082
-588,99,-17.3712,1.74939,-0.00471839,-0.000169952,0.000713499,-6.06545e-05,-0.00482769,1.41879,0.00319843,0.0156856,636,925,-17.3712,-1.7494
-581,99,-17.2859,1.53699,-0.00507287,-0.000355863,0.000492274,-0.000305037,-0.00512369,1.46791,0.00331879,0.0117277,643,925,-17.2859,-1.53697
-574,99,-17.4566,1.35394,-0.00543723,-0.000476719,0.000276015,-0.000461408,-0.00545254,1.51538,0.0034914,0.0221857,650,925,-17.4566,-1.35397
-567,99,-18.8078,1.26715,0,0,0,0,0,0,0,-1,657,925,-18.8078,-1.26718
-560,99,-18.8848,1.22839,-0.00580736,-0.000481681,0.000247206,-0.000470231,-0.00581881,1.52451,0.00373235,0.0339444,664,925,-18.8847,-1.22839
-553,99,-18.9456,1.17566,-0.00572105,-0.000413912,0.00030355,-0.000396606,-0.00573835,1.51385,0.00370046,0.0367244,671,925,-18.9456,-1.17568
-546,99,-18.8936,1.00714,-0.00554071,-0.000258202,0.000354996,-0.000234453,-0.00556446,1.50399,0.00363401,0.0391082,678,925,-18.8936,-1.00714
-539,99,-18.9074,1.21735,-0.00530418,3.89092e-06,0.000360956,2.83241e-05,-0.00532861,1.50321,0.00356189,0.0399353,685,925,-18.9074,-1.21734
-532,99,-18.9127,1.7063,-0.0051882,0.000395902,0.000215083,0.000404175,-0.00519647,1.53236,0.00360659,0.0446206,692,925,-18.9127,-1.70628
-525,99,-19.03,1.42957,-0.00579046,0.00102211,-0.000368174,0.00104195,-0.0058103,-1.51696,0.00426351,0.0418575,699,925,-19.03,-1.42956
-518,99,-19.1209,1.38208,-0.00872372,0.00218545,-0.0011239,0.00230004,-0.0088383,-1.46919,0.00679,0.0396672,706,925,-19.1209,-1.38211
-511,99,0,0,0,0,0,0,0,0,0,-1,713,925,0,0
-504,99,0,0,0,0,0,0,0,0,0,-1,720,925,0,0
-497,99,0,0,0,0,0,0,0,0,0,-1,727,925,0,0
-490,99,0,0,0,0,0,0,0,0,0,-1,734,925,0,0
-483,99,0,0,0,0,0,0,0,0,0,-1,741,925,0,0
-476,99,0,0,0,0,0,0,0,0,0,-1,748,925,0,0
-469,99,0,0,0,0,0,0,0,0,0,-1,755,925,0,0
-462,99,0,0,0,0,0,0,0,0,0,-1,762,925,0,0
-455,99,0,0,0,0,0,0,0,0,0,-1,769,925,0,0
-448,99,0,0,0,0,0,0,0,0,0,-1,776,925,0,0
-441,99,0,0,0,0,0,0,0,0,0,-1,783,925,0,0
-434,99,0,0,0,0,0,0,0,0,0,-1,790,925,0,0
-427,99,0,0,0,0,0,0,0,0,0,-1,797,925,0,0
-420,99,0,0,0,0,0,0,0,0,0,-1,804,925,0,0
-413,99,0,0,0,0,0,0,0,0,0,-1,811,925,0,0
-406,99,0,0,0,0,0,0,0,0,0,-1,818,925,0,0
-399,99,0,0,0,0,0,0,0,0,0,-1,825,925,0,0
-392,99,0,0,0,0,0,0,0,0,0,-1,832,925,0,0
-385,99,0,0,0,0,0,0,0,0,0,-1,839,925,0,0
-378,99,0,0,0,0,0,0,0,0,0,-1,846,925,0,0
-371,99,0,0,0,0,0,0,0,0,0,-1,853,925,0,0
-364,99,0,0,0,0,0,0,0,0,0,-1,860,925,0,0
-357,99,0,0,0,0,0,0,0,0,0,-1,867,925,0,0
-350,99,0,0,0,0,0,0,0,0,0,-1,874,925,0,0
-343,99,0,0,0,0,0,0,0,0,0,-1,881,925,0,0
-336,99,0,0,0,0,0,0,0,0,0,-1,888,925,0,0
-329,99,0,0,0,0,0,0,0,0,0,-1,895,925,0,0
-322,99,0,0,0,0,0,0,0,0,0,-1,902,925,0,0
-315,99,0,0,0,0,0,0,0,0,0,-1,909,925,0,0
-308,99,0,0,0,0,0,0,0,0,0,-1,916,925,0,0
-301,99,0,0,0,0,0,0,0,0,0,-1,923,925,0,0
-294,99,0,0,0,0,0,0,0,0,0,-1,930,925,0,0
-287,99,0,0,0,0,0,0,0,0,0,-1,937,925,0,0
-280,99,0,0,0,0,0,0,0,0,0,-1,944,925,0,0
-273,99,0,0,0,0,0,0,0,0,0,-1,951,925,0,0
-266,99,0,0,0,0,0,0,0,0,0,-1,958,925,0,0
-259,99,0,0,0,0,0,0,0,0,0,-1,965,925,0,0
-252,99,0,0,0,0,0,0,0,0,0,-1,972,925,0,0
-245,99,0,0,0,0,0,0,0,0,0,-1,979,925,0,0
-238,99,0,0,0,0,0,0,0,0,0,-1,986,925,0,0
-231,99,0,0,0,0,0,0,0,0,0,-1,993,925,0,0
-224,99,0,0,0,0,0,0,0,0,0,-1,1000,925,0,0
-217,99,0,0,0,0,0,0,0,0,0,-1,1007,925,0,0
-210,99,0,0,0,0,0,0,0,0,0,-1,1014,925,0,0
-203,99,0,0,0,0,0,0,0,0,0,-1,1021,925,0,0
-196,99,0,0,0,0,0,0,0,0,0,-1,1028,925,0,0
-189,99,0,0,0,0,0,0,0,0,0,-1,1035,925,0,0
-182,99,0,0,0,0,0,0,0,0,0,-1,1042,925,0,0
-175,99,0,0,0,0,0,0,0,0,0,-1,1049,925,0,0
-168,99,0,0,0,0,0,0,0,0,0,-1,1056,925,0,0
-161,99,0,0,0,0,0,0,0,0,0,-1,1063,925,0,0
-154,99,0,0,0,0,0,0,0,0,0,-1,1070,925,0,0
-147,99,0,0,0,0,0,0,0,0,0,-1,1077,925,0,0
-140,99,0,0,0,0,0,0,0,0,0,-1,1084,925,0,0
-133,99,0,0,0,0,0,0,0,0,0,-1,1091,925,0,0
-126,99,0,0,0,0,0,0,0,0,0,-1,1098,925,0,0
-119,99,0,0,0,0,0,0,0,0,0,-1,1105,925,0,0
-112,99,0,0,0,0,0,0,0,0,0,-1,1112,925,0,0
-105,99,0,0,0,0,0,0,0,0,0,-1,1119,925,0,0
-98,99,0,0,0,0,0,0,0,0,0,-1,1126,925,0,0
-91,99,0,0,0,0,0,0,0,0,0,-1,1133,925,0,0
-84,99,0,0,0,0,0,0,0,0,0,-1,1140,925,0,0
-77,99,0,0,0,0,0,0,0,0,0,-1,1147,925,0,0
-70,99,0,0,0,0,0,0,0,0,0,-1,1154,925,0,0
-63,99,0,0,0,0,0,0,0,0,0,-1,1161,925,0,0
-56,99,0,0,0,0,0,0,0,0,0,-1,1168,925,0,0
-49,99,0,0,0,0,0,0,0,0,0,-1,1175,925,0,0
-42,99,0,0,0,0,0,0,0,0,0,-1,1182,925,0,0
-35,99,0,0,0,0,0,0,0,0,0,-1,1189,925,0,0
-28,99,0,0,0,0,0,0,0,0,0,-1,1196,925,0,0
-21,99,0,0,0,0,0,0,0,0,0,-1,1203,925,0,0
-14,99,0,0,0,0,0,0,0,0,0,-1,1210,925,0,0
-7,99,0,0,0,0,0,0,0,0,0,-1,1217,925,0,0
0,99,0,0,0,0,0,0,0,0,0,-1,1224,925,0,0
7,99,0,0,0,0,0,0,0,0,0,-1,1231,925,0,0
14,99,0,0,0,0,0,0,0,0,0,-1,1238,925,0,0
21,99,0,0,0,0,0,0,0,0,0,-1,1245,925,0,0
28,99,0,0,0,0,0,0,0,0,0,-1,1252,925,0,0
35,99,0,0,0,0,0,0,0,0,0,-1,1259,925,0,0
42,99,0,0,0,0,0,0,0,0,0,-1,1266,925,0,0
49,99,0,0,0,0,0,0,0,0,0,-1,1273,925,0,0
56,99,0,0,0,0,0,0,0,0,0,-1,1280,925,0,0
63,99,0,0,0,0,0,0,0,0,0,-1,1287,925,0,0
70,99,0,0,0,0,0,0,0,0,0,-1,1294,925,0,0
77,99,0,0,0,0,0,0,0,0,0,-1,1301,925,0,0
84,99,0,0,0,0,0,0,0,0,0,-1,1308,925,0,0
91,99,0,0,0,0,0,0,0,0,0,-1,1315,925,0,0
98,99,0,0,0,0,0,0,0,0,0,-1,1322,925,0,0
105,99,0,0,0,0,0,0,0,0,0,-1,1329,925,0,0
112,99,0,0,0,0,0,0,0,0,0,-1,1336,925,0,0
119,99,0,0,0,0,0,0,0,0,0,-1,1343,925,0,0
126,99,0,0,0,0,0,0,0,0,0,-1,1350,925,0,0
133,99,0,0,0,0,0,0,0,0,0,-1,1357,925,0,0
140,99,0,0,0,0,0,0,0,0,0,-1,1364,925,0,0
147,99,0,0,0,0,0,0,0,0,0,-1,1371,925,0,0
154,99,0,0,0,0,0,0,0,0,0,-1,1378,925,0,0
161,99,0,0,0,0,0,0,0,0,0,-1,1385,925,0,0
168,99,0,0,0,0,0,0,0,0,0,-1,1392,925,0,0
175,99,0,0,0,0,0,0,0,0,0,-1,1399,925,0,0
182,99,0,0,0,0,0,0,0,0,0,-1,1406,925,0,0
189,99,0,0,0,0,0,0,0,0,0,-1,1413,925,0,0
196,99,0,0,0,0,0,0,0,0,0,-1,1420,925,0,0
203,99,0,0,0,0,0,0,0,0,0,-1,1427,925,0,0
210,99,0,0,0,0,0,0,0,0,0,-1,1434,925,0,0
217,99,0,0,0,0,0,0,0,0,0,-1,1441,925,0,0
224,99,0,0,0,0,0,0,0,0,0,-1,1448,925,0,0
231,99,0,0,0,0,0,0,0,0,0,-1,1455,925,0,0
238,99,0,0,0,0,0,0,0,0,0,-1,1462,925,0,0
245,99,0,0,0,0,0,0,0,0,0,-1,1469,925,0,0
252,99,0,0,0,0,0,0,0,0,0,-1,1476,925,0,0
259,99,0,0,0,0,0,0,0,0,0,-1,1483,925,0,0
266,99,0,0,0,0,0,0,0,0,0,-1,1490,925,0,0
273,99,0,0,0,0,0,0,0,0,0,-1,1497,925,0,0
280,99,0,0,0,0,0,0,0,0,0,-1,1504,925,0,0
287,99,0,0,0,0,0,0,0,0,0,-1,1511,925,0,0
294,99,0,0,0,0,0,0,0,0,0,-1,1518,925,0,0
301,99,0,0,0,0,0,0,0,0,0,-1,1525,925,0,0
308,99,0,0,0,0,0,0,0,0,0,-1,1532,925,0,0
315,99,0,0,0,0,0,0,0,0,0,-1,1539,925,0,0
322,99,0,0,0,0,0,0,0,0,0,-1,1546,925,0,0
329,99,0,0,0,0,0,0,0,0,0,-1,1553,925,0,0
336,99,0,0,0,0,0,0,0,0,0,-1,1560,925,0,0
343,99,0,0,0,0,0,0,0,0,0,-1,1567,925,0,0
350,99,0,0,0,0,0,0,0,0,0,-1,1574,925,0,0
357,99,0,0,0,0,0,0,0,0,0,-1,1581,925,0,0
364,99,0,0,0,0,0,0,0,0,0,-1,1588,925,0,0
371,99,0,0,0,0,0,0,0,0,0,-1,1595,925,0,0
378,99,0,0,0,0,0,0,0,0,0,-1,1602,925,0,0
385,99,0,0,0,0,0,0,0,0,0,-1,1609,925,0,0
392,99,0,0,0,0,0,0,0,0,0,-1,1616,925,0,0
399,99,0,0,0,0,0,0,0,0,0,-1,1623,925,0,0
406,99,0,0,0,0,0,0,0,0,0,-1,1630,925,0,0
413,99,0,0,0,0,0,0,0,0,0,-1,1637,925,0,0
420,99,0,0,0,0,0,0,0,0,0,-1,1644,925,0,0
427,99,0,0,0,0,0,0,0,0,0,-1,1651,925,0,0
434,99,0,0,0,0,0,0,0,0,0,-1,1658,925,0,0
441,99,0,0,0,0,0,0,0,0,0,-1,1665,925,0,0
448,99,0,0,0,0,0,0,0,0,0,-1,1672,925,0,0
455,99,0,0,0,0,0,0,0,0,0,-1,1679,925,0,0
462,99,0,0,0,0,0,0,0,0,0,-1,1686,925,0,0
469,99,0,0,0,0,0,0,0,0,0,-1,1693,925,0,0
476,99,0,0,0,0,0,0,0,0,0,-1,1700,925,0,0
483,99,0,0,0,0,0,0,0,0,0,-1,1707,925,0,0
490,99,0,0,0,0,0,0,0,0,0,-1,1714,925,0,0
497,99,0,0,0,0,0,0,0,0,0,-1,1721,925,0,0
504,99,0,0,0,0,0,0,0,0,0,-1,1728,925,0,0
511,99,0,0,0,0,0,0,0,0,0,-1,1735,925,0,0
518,99,0,0,0,0,0,0,0,0,0,-1,1742,925,0,0
525,99,0,0,0,0,0,0,0,0,0,-1,1749,925,0,0
532,99,0,0,0,0,0,0,0,0,0,-1,1756,925,0,0
539,99,0,0,0,0,0,0,0,0,0,-1,1763,925,0,0
546,99,0,0,0,0,0,0,0,0,0,-1,1770,925,0,0
553,99,0,0,0,0,0,0,0,0,0,-1,1777,925,0,0
560,99,0,0,0,0,0,0,0,0,0,-1,1784,925,0,0
567,99,0,0,0,0,0,0,0,0,0,-1,1791,925,0,0
574,99,0,0,0,0,0,0,0,0,0,-1,1798,925,0,0
581,99,0,0,0,0,0,0,0,0,0,-1,1805,925,0,0
588,99,0,0,0,0,0,0,0,0,0,-1,1812,925,0,0
595,99,0,0,0,0,0,0,0,0,0,-1,1819,925,0,0
602,99,0,0,0,0,0,0,0,0,0,-1,1826,925,0,0
609,99,0,0,0,0,0,0,0,0,0,-1,1833,925,0,0
616,99,0,0,0,0,0,0,0,0,0,-1,1840,925,0,0
623,99,0,0,0,0,0,0,0,0,0,-1,1847,925,0,0
630,99,0,0,0,0,0,0,0,0,0,-1,1854,925,0,0
637,99,27.059,3.25183,-0.000681763,0.00565377,-0.00205312,0.00626093,-0.00128892,-1.28327,0.00466335,0.0400589,1861,925,27.0589,-3.2518
644,99,26.9664,3.2027,0.000372441,0.00464082,-0.00153487,0.00513543,-0.000122172,-1.25905,0.00346506,0.0364545,1868,925,26.9664,-3.20271
651,99,26.9915,3.10364,0.000210459,0.00378327,-0.00091664,0.00400472,-1.09887e-05,-1.33375,0.00267348,0.0366849,1875,925,26.9914,-3.10361
658,99,27.215,3.01929,-0.000545173,0.00317825,-0.000187388,0.00318766,-0.00055458,-1.52064,0.00233205,0.0368323,1882,925,27.215,-3.01931
665,99,27.2526,2.98962,-0.00136521,0.002661,0.000532401,0.00273021,-0.00143443,1.44152,0.00244294,0.0392307,1889,925,27.2526,-2.98963
672,99,27.1852,3.23364,-0.00198588,0.0022043,0.00111532,0.00248267,-0.00226426,1.3262,0.00274161,0.0398324,1896,925,27.1852,-3.23367
679,99,27.1323,3.24042,-0.00230867,0.00181722,0.00151611,0.00231442,-0.00280586,1.2539,0.00296073,0.0359832,1903,925,27.1323,-3.24044
686,99,27.056,3.12317,-0.00240584,0.00136885,0.00170179,0.0020228,-0.00305979,1.20392,0.00295472,0.0280692,1910,925,27.056,-3.12319
693,99,27.0181,3.15869,-0.00241007,0.00112093,0.00182211,0.00189257,-0.00318171,1.17021,0.00296098,0.0203085,1917,925,27.0181,-3.15867
700,99,26.9818,3.31818,0,0,0,0,0,0,0,-1,1924,925,26.9818,-3.31817
707,99,24.8269,3.6217,0,0,0,0,0,0,0,-1,1931,925,24.8269,-3.62167
714,99,24.8351,3.88776,-0.00250813,0.000773125,0.00143101,0.00130953,-0.00304453,1.21217,0.00257948,0.0220939,1938,925,24.8351,-3.88777
721,99,24.774,4.10834,-0.00210156,0.00104154,0.000998541,0.00133194,-0.00239196,1.28778,0.00217883,0.0210347,1945,925,24.774,-4.10833
728,99,24.8325,4.33728,-0.00174674,0.000498256,0.000181604,0.000512852,-0.00176133,1.4906,0.00137737,0.0158348,1952,925,24.8325,-4.33727
735,99,24.8274,4.54474,-0.00150776,-0.000636998,-0.00052592,-0.000389628,-0.00175513,-1.13114,0.00106426,0.0144141,1959,925,24.8274,-4.54473
742,99,24.8077,4.75031,-0.00211026,-0.00132195,-0.000549448,-0.0010399,-0.00239231,-1.09654,0.00138512,0.0129416,1966,925,24.8078,-4.75029
749,99,24.792,4.95728,-0.00363094,-0.00210274,-0.000502086,-0.00195255,-0.00378114,-1.28012,0.00218343,0.0108129,1973,925,24.7919,-4.95726
756,99,24.7638,5.11829,-0.00543063,-0.00364224,-0.000513014,-0.00350553,-0.00556734,-1.31036,0.00325013,0.0106028,1980,925,24.7638,-5.1183
763,99,24.7645,5.28088,-0.00812857,-0.00568644,0.000278186,-0.00565516,-0.00815986,1.4588,0.00482672,0.0126483,1987,925,24.7645,-5.2809
770,99,24.7017,5.52814,-0.0116396,-0.00810244,0.00173691,-0.00739216,-0.0123499,1.18261,0.00717622,0.0239451,1994,925,24.7017,-5.52813
777,99,24.833,5.44775,0,0,0,0,0,0,0,-1,2001,925,24.833,-5.44778
784,99,25.0436,5.41327,0,0,0,0,0,0,0,-1,2008,925,25.0435,-5.41327
791,99,23.5333,6.68677,-0.0278306,-0.0162347,0.0105672,-0.00997931,-0.034086,1.03631,0.0202351,0.046453,2015,925,23.5333,-6.68677
798,99,22.993,7.17017,-0.0354896,-0.0179177,0.0150237,-0.00929954,-0.0441078,1.04998,0.0268477,0.0491154,2022,925,22.993,-7.17015
805,99,0,0,0,0,0,0,0,0,0,-1,2029,925,0,0
812,99,0,0,0,0,0,0,0,0,0,-1,2036,925,0,0
-700,92,0,0,0,0,0,0,0,0,0,-1,524,932,0,0
-693,92,0,0,0,0,0,0,0,0,0,-1,531,932,0,0
-686,92,-17.5189,0.634155,0,0,0,0,0,0,0,-1,538,932,-17.5189,-0.63416
-679,92,-17.3987,0.717102,0,0,0,0,0,0,0,-1,545,932,-17.3987,-0.717077
-672,92,-17.2122,0.901855,0,0,0,0,0,0,0,-1,552,932,-17.2122,-0.901878
-665,92,-17.3431,3.21948,0,0,0,0,0,0,0,-1,559,932,-17.3431,-3.21946
-658,92,-16.5442,3.69867,-0.0155554,0.0103701,-0.00129999,0.0104351,-0.0156204,-1.52082,0.0151421,0.0447081,566,932,-16.5442,-3.69864
-651,92,-15.6663,3.65735,-0.0102525,0.00520595,-0.00141499,0.0053344,-0.0103809,-1.48026,0.00922786,0.0484848,573,932,-15.6663,-3.65735
-644,92,-15.5394,4.09412,0,0,0,0,0,0,0,-1,580,932,-15.5394,-4.09409
-637,92,-17.4272,2.94653,-0.00368815,5.23709e-05,-0.00112732,0.000365854,-0.00400163,-1.29957,0.00279769,0.0270247,587,932,-17.4272,-2.94652
-630,92,-17.4782,2.77557,-0.00223179,-0.000959714,-0.000701946,-0.000648507,-0.00254299,-1.15349,0.00152581,0.0127356,594,932,-17.4782,-2.77558
-623,92,-17.5091,2.61285,-0.00162837,-0.00197776,-0.0002831,-0.0014704,-0.00213573,-0.508955,0.00126193,0.00944355,601,932,-17.5091,-2.61288
-616,92,-17.5313,2.43451,-0.00172287,-0.00233686,3.84315e-05,-0.00172047,-0.00233926,0.0622685,0.00139961,0.00888328,608,932,-17.5313,-2.43449
-609,92,-17.5331,2.26178,-0.00252558,-0.0015761,-0.000294435,-0.00149221,-0.00260947,-1.29323,0.00151175,0.00808972,615,932,-17.5331,-2.26176
-602,92,-17.5132,2.09631,-0.00359472,-0.00035288,8.54493e-05,-0.000350629,-0.00359698,1.54446,0.00229007,0.00888319,622,932,-17.5132,-2.09634
-595,92,-17.4568,1.901,-0.00462874,0.000146983,0.000362604,0.000174358,-0.00465611,1.49545,0.0031638,0.0160886,629,932,-17.4569,-1.90101
-588,92,-17.4615,1.74188,-0.00517941,6.20916e-05,0.000443404,9.93367e-05,-0.00521665,1.487,0.00351135,0.0174556,636,932,-17.4615,-1.74191
-581,92,-17.468,1.56915,-0.00544587,-0.000116507,0.000218762,-0.000107543,-0.00545483,1.52984,0.00360124,0.0156553,643,932,-17.4679,-1.56916
-574,92,-17.7988,1.43176,-0.00566919,-0.000256001,1.66014e-05,-0.00025595,-0.00566924,1.56773,0.00369713,0.0285973,650,932,-17.7988,-1.43174
-567,92,-18.4005,1.29218,0,0,0,0,0,0,0,-1,657,932,-18.4005,-1.29215
-560,92,-18.819,1.11499,-0.00581737,-0.000262921,-3.88873e-05,-0.000262649,-0.00581764,-1.5638,0.00379391,0.0354298,664,932,-18.819,-1.11502
-553,92,-18.8511,0.980591,-0.00554979,-0.000217557,5.84199e-07,-0.000217557,-0.00554979,1.57069,0.00362951,0.0400133,671,932,-18.8511,-0.980583
-546,92,-18.8677,0.892639,-0.00513374,-0.000113817,1.41205e-05,-0.000113777,-0.00513377,1.56798,0.00338523,0.0408408,678,932,-18.8677,-0.892612
-539,92,-18.9216,0.983948,-0.00461928,6.01051e-05,-5.82475e-05,6.08303e-05,-0.00462001,-1.55835,0.00310048,0.0405921,685,932,-18.9216,-0.983939
-532,92,-18.97,1.32086,-0.00419605,0.000318661,-0.000364595,0.000347915,-0.00422531,-1.49073,0.00293971,0.0459517,692,932,-18.9701,-1.32086
-525,92,-18.9674,1.45178,-0.00467515,0.000799772,-0.0012647,0.0010778,-0.00495318,-1.3544,0.00371389,0.0410048,699,932,-18.9674,-1.45181
-518,92,-19.1304,1.51733,-0.00789056,0.00177598,-0.00244734,0.00236028,-0.00847485,-1.33644,0.00657933,0.0417828,706,932,-19.1304,-1.51731
-511,92,0,0,0,0,0,0,0,0,0,-1,713,932,0,0
-504,92,0,0,0,0,0,0,0,0,0,-1,720,932,0,0
-497,92,0,0,0,0,0,0,0,0,0,-1,727,932,0,0
-490,92,0,0,0,0,0,0,0,0,0,-1,734,932,0,0
-483,92,0,0,0,0,0,0,0,0,0,-1,741,932,0,0
-476,92,0,0,0,0,0,0,0,0,0,-1,748,932,0,0
-469,92,0,0,0,0,0,0,0,0,0,-1,755,932,0,0
-462,92,0,0,0,0,0,0,0,0,0,-1,762,932,0,0
-455,92,0,0,0,0,0,0,0,0,0,-1,769,932,0,0
-448,92,0,0,0,0,0,0,0,0,0,-1,776,932,0,0
-441,92,0,0,0,0,0,0,0,0,0,-1,783,932,0,0
-434,92,0,0,0,0,0,0,0,0,0,-1,790,932,0,0
-427,92,0,0,0,0,0,0,0,0,0,-1,797,932,0,0
-420,92,0,0,0,0,0,0,0,0,0,-1,804,932,0,0
-413,92,0,0,0,0,0,0,0,0,0,-1,811,932,0,0
-406,92,0,0,0,0,0,0,0,0,0,-1,818,932,0,0
-399,92,0,0,0,0,0,0,0,0,0,-1,825,932,0,0
-392,92,0,0,0,0,0,0,0,0,0,-1,832,932,0,0
-385,92,0,0,0,0,0,0,0,0,0,-1,839,932,0,0
-378,92,0,0,0,0,0,0,0,0,0,-1,846,932,0,0
-371,92,0,0,0,0,0,0,0,0,0,-1,853,932,0,0
-364,92,0,0,0,0,0,0,0,0,0,-1,860,932,0,0
-357,92,0,0,0,0,0,0,0,0,0,-1,867,932,0,0
-350,92,0,0,0,0,0,0,0,0,0,-1,874,932,0,0
-343,92,0,0,0,0,0,0,0,0,0,-1,881,932,0,0
-336,92,0,0,0,0,0,0,0,0,0,-1,888,932,0,0
-329,92,0,0,0,0,0,0,0,0,0,-1,895,932,0,0
-322,92,0,0,0,0,0,0,0,0,0,-1,902,932,0,0
-315,92,0,0,0,0,0,0,0,0,0,-1,909,932,0,0
-308,92,0,0,0,0,0,0,0,0,0,-1,916,932,0,0
-301,92,0,0,0,0,0,0,0,0,0,-1,923,932,0,0
-294,92,0,0,0,0,0,0,0,0,0,-1,930,932,0,0
-287,92,0,0,0,0,0,0,0,0,0,-1,937,932,0,0
-280,92,0,0,0,0,0,0,0,0,0,-1,944,932,0,0
-273,92,0,0,0,0,0,0,0,0,0,-1,951,932,0,0
-266,92,0,0,0,0,0,0,0,0,0,-1,958,932,0,0
-259,92,0,0,0,0,0,0,0,0,0,-1,965,932,0,0
-252,92,0,0,0,0,0,0,0,0,0,-1,972,932,0,0
-245,92,0,0,0,0,0,0,0,0,0,-1,979,932,0,0
-238,92,0,0,0,0,0,0,0,0,0,-1,986,932,0,0
-231,92,0,0,0,0,0,0,0,0,0,-1,993,932,0,0
-224,92,0,0,0,0,0,0,0,0,0,-1,1000,932,0,0
-217,92,0,0,0,0,0,0,0,0,0,-1,1007,932,0,0
-210,92,0,0,0,0,0,0,0,0,0,-1,1014,932,0,0
-203,92,0,0,0,0,0,0,0,0,0,-1,1021,932,0,0
-196,92,0,0,0,0,0,0,0,0,0,-1,1028,932,0,0
-189,92,0,0,0,0,0,0,0,0,0,-1,1035,932,0,0
-182,92,0,0,0,0,0,0,0,0,0,-1,1042,932,0,0
-175,92,0,0,0,0,0,0,0,0,0,-1,1049,932,0,0
-168,92,0,0,0,0,0,0,0,0,0,-1,1056,932,0,0
-161,92,0,0,0,0,0,0,0,0,0,-1,1063,932,0,0
-154,92,0,0,0,0,0,0,0,0,0,-1,1070,932,0,0
-147,92,0,0,0,0,0,0,0,0,0,-1,1077,932,0,0
-140,92,0,0,0,0,0,0,0,0,0,-1,1084,932,0,0
-133,92,0,0,0,0,0,0,0,0,0,-1,1091,932,0,0
-126,92,0,0,0,0,0,0,0,0,0,-1,1098,932,0,0
-119,92,0,0,0,0,0,0,0,0,0,-1,1105,932,0,0
-112,92,0,0,0,0,0,0,0,0,0,-1,1112,932,0,0
-105,92,0,0,0,0,0,0,0,0,0,-1,1119,932,0,0
-98,92,0,0,0,0,0,0,0,0,0,-1,1126,932,0,0
-91,92,0,0,0,0,0,0,0,0,0,-1,1133,932,0,0
-84,92,0,0,0,0,0,0,0,0,0,-1,1140,932,0,0
-77,92,0,0,0,0,0,0,0,0,0,-1,1147,932,0,0
-70,92,0,0,0,0,0,0,0,0,0,-1,1154,932,0,0
-63,92,0,0,0,0,0,0,0,0,0,-1,1161,932,0,0
-56,92,0,0,0,0,0,0,0,0,0,-1,1168,932,0,0
-49,92,0,0,0,0,0,0,0,0,0,-1,1175,932,0,0
-42,92,0,0,0,0,0,0,0,0,0,-1,1182,932,0,0
-35,92,0,0,0,0,0,0,0,0,0,-1,1189,932,0,0
-28,92,0,0,0,0,0,0,0,0,0,-1,1196,932,0,0
-21,92,0,0,0,0,0,0,0,0,0,-1,1203,932,0,0
-14,92,0,0,0,0,0,0,0,0,0,-1,1210,932,0,0
-7,92,0,0,0,0,0,0,0,0,0,-1,1217,932,0,0
0,92,0,0,0,0,0,0,0,0,0,-1,1224,932,0,0
7,92,0,0,0,0,0,0,0,0,0,-1,1231,932,0,0
14,92,0,0,0,0,0,0,0,0,0,-1,1238,932,0,0
21,92,0,0,0,0,0,0,0,0,0,-1,1245,932,0,0
28,92,0,0,0,0,0,0,0,0,0,-1,1252,932,0,0
35,92,0,0,0,0,0,0,0,0,0,-1,1259,932,0,0
42,92,0,0,0,0,0,0,0,0,0,-1,1266,932,0,0
49,92,0,0,0,0,0,0,0,0,0,-1,1273,932,0,0
56,92,0,0,0,0,0,0,0,0,0,-1,1280,932,0,0
63,92,0,0,0,0,0,0,0,0,0,-1,1287,932,0,0
70,92,0,0,0,0,0,0,0,0,0,-1,1294,932,0,0
77,92,0,0,0,0,0,0,0,0,0,-1,1301,932,0,0
84,92,0,0,0,0,0,0,0,0,0,-1,1308,932,0,0
91,92,0,0,0,0,0,0,0,0,0,-1,1315,932,0,0
98,92,0,0,0,0,0,0,0,0,0,-1,1322,932,0,0
105,92,0,0,0,0,0,0,0,0,0,-1,1329,932,0,0
112,92,0,0,0,0,0,0,0,0,0,-1,1336,932,0,0
119,92,0,0,0,0,0,0,0,0,0,-1,1343,932,0,0
126,92,0,0,0,0,0,0,0,0,0,-1,1350,932,0,0
133,92,0,0,0,0,0,0,0,0,0,-1,1357,932,0,0
140,92,0,0,0,0,0,0,0,0,0,-1,1364,932,0,0
147,92,0,0,0,0,0,0,0,0,0,-1,1371,932,0,0
154,92,0,0,0,0,0,0,0,0,0,-1,1378,932,0,0
161,92,0,0,0,0,0,0,0,0,0,-1,1385,932,0,0
168,92,0,0,0,0,0,0,0,0,0,-1,1392,932,0,0
175,92,0,0,0,0,0,0,0,0,0,-1,1399,932,0,0
182,92,0,0,0,0,0,0,0,0,0,-1,1406,932,0,0
189,92,0,0,0,0,0,0,0,0,0,-1,1413,932,0,0
196,92,0,0,0,0,0,0,0,0,0,-1,1420,932,0,0
203,92,0,0,0,0,0,0,0,0,0,-1,1427,932,0,0
210,92,0,0,0,0,0,0,0,0,0,-1,1434,932,0,0
217,92,0,0,0,0,0,0,0,0,0,-1,1441,932,0,0
224,92,0,0,0,0,0,0,0,0,0,-1,1448,932,0,0
231,92,0,0,0,0,0,0,0,0,0,-1,1455,932,0,0
238,92,0,0,0,0,0,0,0,0,0,-1,1462,932,0,0
245,92,0,0,0,0,0,0,0,0,0,-1,1469,932,0,0
252,92,0,0,0,0,0,0,0,0,0,-1,1476,932,0,0
259,92,0,0,0,0,0,0,0,0,0,-1,1483,932,0,0
266,92,0,0,0,0,0,0,0,0,0,-1,1490,932,0,0
273,92,0,0,0,0,0,0,0,0,0,-1,1497,932,0,0
280,92,0,0,0,0,0,0,0,0,0,-1,1504,932,0,0
287,92,0,0,0,0,0,0,0,0,0,-1,1511,932,0,0
294,92,0,0,0,0,0,0,0,0,0,-1,1518,932,0,0
301,92,0,0,0,0,0,0,0,0,0,-1,1525,932,0,0
308,92,0,0,0,0,0,0,0,0,0,-1,1532,932,0,0
315,92,0,0,0,0,0,0,0,0,0,-1,1539,932,0,0
322,92,0,0,0,0,0,0,0,0,0,-1,1546,932,0,0
329,92,0,0,0,0,0,0,0,0,0,-1,1553,932,0,0
336,92,0,0,0,0,0,0,0,0,0,-1,1560,932,0,0
343,92,0,0,0,0,0,0,0,0,0,-1,1567,932,0,0
350,92,0,0,0,0,0,0,0,0,0,-1,1574,932,0,0
357,92,0,0,0,0,0,0,0,0,0,-1,1581,932,0,0
364,92,0,0,0,0,0,0,0,0,0,-1,1588,932,0,0
371,92,0,0,0,0,0,0,0,0,0,-1,1595,932,0,0
378,92,0,0,0,0,0,0,0,0,0,-1,1602,932,0,0
385,92,0,0,0,0,0,0,0,0,0,-1,1609,932,0,0
392,92,0,0,0,0,0,0,0,0,0,-1,1616,932,0,0
399,92,0,0,0,0,0,0,0,0,0,-1,1623,932,0,0
406,92,0,0,0,0,0,0,0,0,0,-1,1630,932,0,0
413,92,0,0,0,0,0,0,0,0,0,-1,1637,932,0,0
420,92,0,0,0,0,0,0,0,0,0,-1,1644,932,0,0
427,92,0,0,0,0,0,0,0,0,0,-1,1651,932,0,0
434,92,0,0,0,0,0,0,0,0,0,-1,1658,932,0,0
441,92,0,0,0,0,0,0,0,0,0,-1,1665,932,0,0
448,92,0,0,0,0,0,0,0,0,0,-1,1672,932,0,0
455,92,0,0,0,0,0,0,0,0,0,-1,1679,932,0,0
462,92,0,0,0,0,0,0,0,0,0,-1,1686,932,0,0
469,92,0,0,0,0,0,0,0,0,0,-1,1693,932,0,0
476,92,0,0,0,0,0,0,0,0,0,-1,1700,932,0,0
483,92,0,0,0,0,0,0,0,0,0,-1,1707,932,0,0
490,92,0,0,0,0,0,0,0,0,0,-1,1714,932,0,0
497,92,0,0,0,0,0,0,0,0,0,-1,1721,932,0,0
504,92,0,0,0,0,0,0,0,0,0,-1,1728,932,0,0
511,92,0,0,0,0,0,0,0,0,0,-1,1735,932,0,0
518,92,0,0,0,0,0,0,0,0,0,-1,1742,932,0,0
525,92,0,0,0,0,0,0,0,0,0,-1,1749,932,0,0
532,92,0,0,0,0,0,0,0,0,0,-1,1756,932,0,0
539,92,0,0,0,0,0,0,0,0,0,-1,1763,932,0,0
546,92,0,0,0,0,0,0,0,0,0,-1,1770,932,0,0
553,92,0,0,0,0,0,0,0,0,0,-1,1777,932,0,0
560,92,0,0,0,0,0,0,0,0,0,-1,1784,932,0,0
567,92,0,0,0,0,0,0,0,0,0,-1,1791,932,0,0
574,92,0,0,0,0,0,0,0,0,0,-1,1798,932,0,0
581,92,0,0,0,0,0,0,0,0,0,-1,1805,932,0,0
588,92,0,0,0,0,0,0,0,0,0,-1,1812,932,0,0
595,92,0,0,0,0,0,0,0,0,0,-1,1819,932,0,0
602,92,0,0,0,0,0,0,0,0,0,-1,1826,932,0,0
609,92,0,0,0,0,0,0,0,0,0,-1,1833,932,0,0
616,92,0,0,0,0,0,0,0,0,0,-1,1840,932,0,0
623,92,0,0,0,0,0,0,0,0,0,-1,1847,932,0,0
630,92,0,0,0,0,0,0,0,0,0,-1,1854,932,0,0
637,92,27.1008,3.05499,0.000508861,0.00571651,-0.00158534,0.00616116,6.421e-05,-1.29735,0.00408621,0.0424966,1861,932,27.1008,-3.05498
644,92,26.9994,3.14917,0.00114118,0.00461783,-0.00107648,0.00492415,0.000834858,-1.29356,0.0030429,0.0384635,1868,932,26.9993,-3.14917
651,92,27.1381,2.95898,0.000724061,0.00372795,-0.000503578,0.00381012,0.000641888,-1.40904,0.00235545,0.0390652,1875,932,27.1381,-2.95897
658,92,27.2953,2.8902,-0.000196274,0.00315409,0.000196387,0.00316556,-0.000207746,1.51245,0.00218292,0.0409612,1882,932,27.2953,-2.89022
665,92,27.3417,2.84503,-0.00117281,0.00272575,0.000934541,0.0029382,-0.00138526,1.34727,0.00254926,0.0407626,1889,932,27.3417,-2.845
672,92,27.2229,3.25439,-0.00191834,0.00234152,0.00155328,0.00284774,-0.00242455,1.25575,0.00304723,0.040387,1896,932,27.2228,-3.25438
679,92,27.0844,3.52692,0,0,0,0,0,0,0,-1,1903,932,27.0843,-3.52689
686,92,27.0713,3.12299,-0.00249477,0.00160287,0.00216711,0.00253634,-0.00342824,1.16407,0.00345646,0.0297495,1910,932,27.0713,-3.12301
693,92,27.0327,3.16632,-0.00249507,0.00137738,0.00227096,0.00242548,-0.00354317,1.1384,0.00346609,0.0194276,1917,932,27.0328,-3.1663
700,92,27.0171,3.27942,-0.00264813,0.00117776,0.00227158,0.00223457,-0.00370494,1.13535,0.00346403,0.0406176,1924,932,27.0171,-3.27941
707,92,25.3461,3.77551,0,0,0,0,0,0,0,-1,1931,932,25.3461,-3.77552
714,92,24.9718,4.00812,-0.00257459,0.0010867,0.0017798,0.00180928,-0.00329717,1.18514,0.00298963,0.0466211,1938,932,24.9717,-4.00809
721,92,25.0769,4.17419,-0.002214,0.00133035,0.0013148,0.00176483,-0.00264847,1.25164,0.00256499,0.0247224,1945,932,25.077,-4.17422
728,92,25.0417,4.42426,-0.00191293,0.000792983,0.00049139,0.000879455,-0.00199941,1.39661,0.00170352,0.0181787,1952,932,25.0418,-4.42423
735,92,25.0155,4.56812,-0.00177229,-0.000236377,-0.000249563,-0.000196844,-0.00181182,-1.41369,0.00114791,0.016441,1959,932,25.0155,-4.56814
742,92,25.049,4.73334,-0.00238796,-0.000707779,-0.0004556,-0.00059219,-0.00250355,-1.32233,0.00151083,0.0181721,1966,932,25.049,-4.73332
749,92,25.0087,4.93744,-0.00377596,-0.00113338,-0.00072569,-0.000947207,-0.00396213,-1.31967,0.00238912,0.0153219,1973,932,25.0087,-4.93741
756,92,24.9557,5.11328,-0.00540049,-0.00220096,-0.00118326,-0.00181091,-0.00579053,-1.25238,0.00342043,0.0129747,1980,932,24.9557,-5.11325
763,92,24.9904,5.2785,-0.00786661,-0.00356828,-0.000989763,-0.00335133,-0.00808357,-1.35501,0.0046897,0.014917,1987,932,24.9904,-5.2785
770,92,24.9927,5.4834,-0.0110852,-0.00510067,-0.000273024,-0.00508824,-0.0110977,-1.5253,0.00641459,0.0240386,1994,932,24.9927,-5.48342
777,92,25.0463,5.40375,-0.0149552,-0.0066836,0.000824848,-0.00660215,-0.0150366,1.47237,0.00870285,0.0405907,2001,932,25.0463,-5.40374
784,92,25.2067,5.36249,0,0,0,0,0,0,0,-1,2008,932,25.2066,-5.3625
791,92,25.302,5.28107,0,0,0,0,0,0,0,-1,2015,932,25.3021,-5.28107
798,92,22.5645,6.80621,0,0,0,0,0,0,0,-1,2022,932,22.5644,-6.80621
805,92,0,0,0,0,0,0,0,0,0,-1,2029,932,0,0
812,92,0,0,0,0,0,0,0,0,0,-1,2036,932,0,0
-700,85,0,0,0,0,0,0,0,0,0,-1,524,939,0,0
-693,85,0,0,0,0,0,0,0,0,0,-1,531,939,0,0
-686,85,-16.5591,3.08728,0,0,0,0,0,0,0,-1,538,939,-16.5591,-3.08729
-679,85,-16.4877,2.69342,0,0,0,0,0,0,0,-1,545,939,-16.4876,-2.6934
-672,85,-13.3305,5.43323,0,0,0,0,0,0,0,-1,552,939,-13.3305,-5.43324
-665,85,-14.2732,4.95435,0,0,0,0,0,0,0,-1,559,939,-14.2732,-4.95436
-658,85,-15.235,4.40356,-0.0216285,0.016952,0.00330444,0.017233,-0.0219095,1.48597,0.0226526,0.0458269,566,939,-15.2351,-4.40358
-651,85,-16.1773,3.70892,-0.01524,0.01061,0.00264099,0.0108771,-0.0155071,1.47002,0.0153109,0.0422418,573,939,-16.1773,-3.70892
-644,85,-17.1334,3.05585,0,0,0,0,0,0,0,-1,580,939,-17.1334,-3.05585
-637,85,-17.6204,2.87805,-0.00659338,0.003302,0.00149569,0.00352313,-0.00681451,1.42401,0.00606844,0.0178048,587,939,-17.6204,-2.87804
-630,85,-17.6729,2.72095,-0.00428457,0.00124269,0.00121672,0.00149867,-0.00454056,1.36343,0.00363119,0.0113778,594,939,-17.6729,-2.72096
-623,85,-17.6983,2.55981,-0.00299444,-0.000656867,0.0010243,-0.000271548,-0.00337976,1.21099,0.00216833,0.00994955,601,939,-17.6983,-2.5598
-616,85,-17.7021,2.41492,-0.00262224,-0.00156741,0.000727556,-0.00119621,-0.00299344,1.09902,0.00173984,0.00953527,608,939,-17.7021,-2.41492
-609,85,-17.7031,2.25439,-0.00312693,-0.00104978,-0.00013999,-0.00104039,-0.00313632,-1.5038,0.00184462,0.0110413,615,939,-17.7031,-2.25438
-602,85,-17.7107,2.09784,-0.00407066,8.38116e-05,-0.000119241,8.72312e-05,-0.00407408,-1.54213,0.00274559,0.015091,622,939,-17.7107,-2.09785
-595,85,-17.6589,1.94006,-0.00507706,0.000452521,4.63569e-06,0.000452525,-0.00507707,1.56996,0.00354519,0.0174241,629,939,-17.6589,-1.94005
-588,85,-17.6338,1.76672,-0.0056013,0.000376358,2.00652e-05,0.000376425,-0.00560137,1.56744,0.00386583,0.0159175,636,939,-17.6338,-1.76674
-581,85,-17.6547,1.62439,-0.00579263,0.000226397,-0.00016649,0.000230998,-0.00579723,-1.54316,0.00394407,0.018575,643,939,-17.6547,-1.62439
-574,85,-18.0213,1.49121,-0.00588911,0.000121287,-0.000298819,0.000136107,-0.00590393,-1.52124,0.0039821,0.0343547,650,939,-18.0213,-1.49122
-567,85,-18.616,1.36523,0,0,0,0,0,0,0,-1,657,939,-18.616,-1.36523
-560,85,-18.7341,1.18011,-0.00578361,0.000154567,-0.000206482,0.000161738,-0.00579078,-1.53608,0.00391555,0.0350886,664,939,-18.7341,-1.1801
-553,85,-18.7284,1.02594,-0.00530387,0.000200663,-5.21303e-05,0.000201157,-0.00530436,-1.56133,0.00360516,0.0405258,671,939,-18.7284,-1.02593
-546,85,-18.7239,1.03473,-0.00461039,0.000279717,9.49805e-05,0.000281561,-0.00461223,1.55138,0.00317284,0.0413945,678,939,-18.7239,-1.03474
-539,85,-18.8939,1.19775,-0.00375892,0.000397462,0.000167434,0.000404196,-0.00376565,1.5306,0.00265544,0.0390138,685,939,-18.8939,-1.19772
-532,85,-18.8833,1.34827,-0.00296319,0.000567328,-2.27839e-05,0.000567475,-0.00296333,-1.56434,0.00218937,0.0400877,692,939,-18.8833,-1.34829
-525,85,-18.8444,1.35071,-0.00326751,0.000961566,-0.000893626,0.00114264,-0.00344858,-1.37087,0.00275994,0.0366799,699,939,-18.8443,-1.35071
-518,85,-19.0552,1.37982,-0.00661274,0.00180015,-0.00213225,0.0023097,-0.0071223,-1.33622,0.00567694,0.0379391,706,939,-19.0552,-1.37985
-511,85,0,0,0,0,0,0,0,0,0,-1,713,939,0,0
-504,85,0,0,0,0,0,0,0,0,0,-1,720,939,0,0
-497,85,0,0,0,0,0,0,0,0,0,-1,727,939,0,0
-490,85,0,0,0,0,0,0,0,0,0,-1,734,939,0,0
-483,85,0,0,0,0,0,0,0,0,0,-1,741,939,0,0
-476,85,0,0,0,0,0,0,0,0,0,-1,748,939,0,0
-469,85,0,0,0,0,0,0,0,0,0,-1,755,939,0,0
-462,85,0,0,0,0,0,0,0,0,0,-1,762,939,0,0
-455,85,0,0,0,0,0,0,0,0,0,-1,769,939,0,0
-448,85,0,0,0,0,0,0,0,0,0,-1,776,939,0,0
-441,85,0,0,0,0,0,0,0,0,0,-1,783,939,0,0
-434,85,0,0,0,0,0,0,0,0,0,-1,790,939,0,0
-427,85,0,0,0,0,0,0,0,0,0,-1,797,939,0,0
-420,85,0,0,0,0,0,0,0,0,0,-1,804,939,0,0
-413,85,0,0,0,0,0,0,0,0,0,-1,811,939,0,0
-406,85,0,0,0,0,0,0,0,0,0,-1,818,939,0,0
-399,85,0,0,0,0,0,0,0,0,0,-1,825,939,0,0
-392,85,0,0,0,0,0,0,0,0,0,-1,832,939,0,0
-385,85,0,0,0,0,0,0,0,0,0,-1,839,939,0,0
-378,85,0,0,0,0,0,0,0,0,0,-1,846,939,0,0
-371,85,0,0,0,0,0,0,0,0,0,-1,853,939,0,0
-364,85,0,0,0,0,0,0,0,0,0,-1,860,939,0,0
-357,85,0,0,0,0,0,0,0,0,0,-1,867,939,0,0
-350,85,0,0,0,0,0,0,0,0,0,-1,874,939,0,0
-343,85,0,0,0,0,0,0,0,0,0,-1,881,939,0,0
-336,85,0,0,0,0,0,0,0,0,0,-1,888,939,0,0
-329,85,0,0,0,0,0,0,0,0,0,-1,895,939,0,0
-322,85,0,0,0,0,0,0,0,0,0,-1,902,939,0,0
-315,85,0,0,0,0,0,0,0,0,0,-1,909,939,0,0
-308,85,0,0,0,0,0,0,0,0,0,-1,916,939,0,0
-301,85,0,0,0,0,0,0,0,0,0,-1,923,939,0,0
-294,85,0,0,0,0,0,0,0,0,0,-1,930,939,0,0
-287,85,0,0,0,0,0,0,0,0,0,-1,937,939,0,0
-280,85,0,0,0,0,0,0,0,0,0,-1,944,939,0,0
-273,85,0,0,0,0,0,0,0,0,0,-1,951,939,0,0
-266,85,0,0,0,0,0,0,0,0,0,-1,958,939,0,0
-259,85,0,0,0,0,0,0,0,0,0,-1,965,939,0,0
-252,85,0,0,0,0,0,0,0,0,0,-1,972,939,0,0
-245,85,0,0,0,0,0,0,0,0,0,-1,979,939,0,0
-238,85,0,0,0,0,0,0,0,0,0,-1,986,939,0,0
-231,85,0,0,0,0,0,0,0,0,0,-1,993,939,0,0
-224,85,0,0,0,0,0,0,0,0,0,-1,1000,939,0,0
-217,85,0,0,0,0,0,0,0,0,0,-1,1007,939,0,0
-210,85,0,0,0,0,0,0,0,0,0,-1,1014,939,0,0
-203,85,0,0,0,0,0,0,0,0,0,-1,1021,939,0,0
-196,85,0,0,0,0,0,0,0,0,0,-1,1028,939,0,0
-189,85,0,0,0,0,0,0,0,0,0,-1,1035,939,0,0
-182,85,0,0,0,0,0,0,0,0,0,-1,1042,939,0,0
-175,85,0,0,0,0,0,0,0,0,0,-1,1049,939,0,0
-168,85,0,0,0,0,0,0,0,0,0,-1,1056,939,0,0
-161,85,0,0,0,0,0,0,0,0,0,-1,1063,939,0,0
-154,85,0,0,0,0,0,0,0,0,0,-1,1070,939,0,0
-147,85,0,0,0,0,0,0,0,0,0,-1,1077,939,0,0
-140,85,0,0,0,0,0,0,0,0,0,-1,1084,939,0,0
-133,85,0,0,0,0,0,0,0,0,0,-1,1091,939,0,0
-126,85,0,0,0,0,0,0,0,0,0,-1,1098,939,0,0
-119,85,0,0,0,0,0,0,0,0,0,-1,1105,939,0,0
-112,85,0,0,0,0,0,0,0,0,0,-1,1112,939,0,0
-105,85,0,0,0,0,0,0,0,0,0,-1,1119,939,0,0
-98,85,0,0,0,0,0,0,0,0,0,-1,1126,939,0,0
-91,85,0,0,0,0,0,0,0,0,0,-1,1133,939,0,0
-84,85,0,0,0,0,0,0,0,0,0,-1,1140,939,0,0
-77,85,0,0,0,0,0,0,0,0,0,-1,1147,939,0,0
-70,85,0,0,0,0,0,0,0,0,0,-1,1154,939,0,0
-63,85,0,0,0,0,0,0,0,0,0,-1,1161,939,0,0
-56,85,0,0,0,0,0,0,0,0,0,-1,1168,939,0,0
-49,85,0,0,0,0,0,0,0,0,0,-1,1175,939,0,0
-42,85,0,0,0,0,0,0,0,0,0,-1,1182,939,0,0
-35,85,0,0,0,0,0,0,0,0,0,-1,1189,939,0,0
-28,85,0,0,0,0,0,0,0,0,0,-1,1196,939,0,0
-21,85,0,0,0,0,0,0,0,0,0,-1,1203,939,0,0
-14,85,0,0,0,0,0,0,0,0,0,-1,1210,939,0,0
-7,85,0,0,0,0,0,0,0,0,0,-1,1217,939,0,0
0,85,0,0,0,0,0,0,0,0,0,-1,1224,939,0,0
7,85,0,0,0,0,0,0,0,0,0,-1,1231,939,0,0
14,85,0,0,0,0,0,0,0,0,0,-1,1238,939,0,0
21,85,0,0,0,0,0,0,0,0,0,-1,1245,939,0,0
28,85,0,0,0,0,0,0,0,0,0,-1,1252,939,0,0
35,85,0,0,0,0,0,0,0,0,0,-1,1259,939,0,0
42,85,0,0,0,0,0,0,0,0,0,-1,1266,939,0,0
49,85,0,0,0,0,0,0,0,0,0,-1,1273,939,0,0
56,85,0,0,0,0,0,0,0,0,0,-1,1280,939,0,0
63,85,0,0,0,0,0,0,0,0,0,-1,1287,939,0,0
70,85,0,0,0,0,0,0,0,0,0,-1,1294,939,0,0
77,85,0,0,0,0,0,0,0,0,0,-1,1301,939,0,0
84,85,0,0,0,0,0,0,0,0,0,-1,1308,939,0,0
91,85,0,0,0,0,0,0,0,0,0,-1,1315,939,0,0
98,85,0,0,0,0,0,0,0,0,0,-1,1322,939,0,0
105,85,0,0,0,0,0,0,0,0,0,-1,1329,939,0,0
112,85,0,0,0,0,0,0,0,0,0,-1,1336,939,0,0
119,85,0,0,0,0,0,0,0,0,0,-1,1343,939,0,0
126,85,0,0,0,0,0,0,0,0,0,-1,1350,939,0,0
133,85,0,0,0,0,0,0,0,0,0,-1,1357,939,0,0
140,85,0,0,0,0,0,0,0,0,0,-1,1364,939,0,0
147,85,0,0,0,0,0,0,0,0,0,-1,1371,939,0,0
154,85,0,0,0,0,0,0,0,0,0,-1,1378,939,0,0
161,85,0,0,0,0,0,0,0,0,0,-1,1385,939,0,0
168,85,0,0,0,0,0,0,0,0,0,-1,1392,939,0,0
175,85,0,0,0,0,0,0,0,0,0,-1,1399,939,0,0
182,85,0,0,0,0,0,0,0,0,0,-1,1406,939,0,0
189,85,0,0,0,0,0,0,0,0,0,-1,1413,939,0,0
196,85,0,0,0,0,0,0,0,0,0,-1,1420,939,0,0
203,85,0,0,0,0,0,0,0,0,0,-1,1427,939,0,0
210,85,0,0,0,0,0,0,0,0,0,-1,1434,939,0,0
217,85,0,0,0,0,0,0,0,0,0,-1,1441,939,0,0
224,85,0,0,0,0,0,0,0,0,0,-1,1448,939,0,0
231,85,0,0,0,0,0,0,0,0,0,-1,1455,939,0,0
238,85,0,0,0,0,0,0,0,0,0,-1,1462,939,0,0
245,85,0,0,0,0,0,0,0,0,0,-1,1469,939,0,0
252,85,0,0,0,0,0,0,0,0,0,-1,1476,939,0,0
259,85,0,0,0,0,0,0,0,0,0,-1,1483,939,0,0
266,85,0,0,0,0,0,0,0,0,0,-1,1490,939,0,0
273,85,0,0,0,0,0,0,0,0,0,-1,1497,939,0,0
280,85,0,0,0,0,0,0,0,0,0,-1,1504,939,0,0
287,85,0,0,0,0,0,0,0,0,0,-1,1511,939,0,0
294,85,0,0,0,0,0,0,0,0,0,-1,1518,939,0,0
301,85,0,0,0,0,0,0,0,0,0,-1,1525,939,0,0
308,85,0,0,0,0,0,0,0,0,0,-1,1532,939,0,0
315,85,0,0,0,0,0,0,0,0,0,-1,1539,939,0,0
322,85,0,0,0,0,0,0,0,0,0,-1,1546,939,0,0
329,85,0,0,0,0,0,0,0,0,0,-1,1553,939,0,0
336,85,0,0,0,0,0,0,0,0,0,-1,1560,939,0,0
343,85,0,0,0,0,0,0,0,0,0,-1,1567,939,0,0
350,85,0,0,0,0,0,0,0,0,0,-1,1574,939,0,0
357,85,0,0,0,0,0,0,0,0,0,-1,1581,939,0,0
364,85,0,0,0,0,0,0,0,0,0,-1,1588,939,0,0
371,85,0,0,0,0,0,0,0,0,0,-1,1595,939,0,0
378,85,0,0,0,0,0,0,0,0,0,-1,1602,939,0,0
385,85,0,0,0,0,0,0,0,0,0,-1,1609,939,0,0
392,85,0,0,0,0,0,0,0,0,0,-1,1616,939,0,0
399,85,0,0,0,0,0,0,0,0,0,-1,1623,939,0,0
406,85,0,0,0,0,0,0,0,0,0,-1,1630,939,0,0
413,85,0,0,0,0,0,0,0,0,0,-1,1637,939,0,0
420,85,0,0,0,0,0,0,0,0,0,-1,1644,939,0,0
427,85,0,0,0,0,0,0,0,0,0,-1,1651,939,0,0
434,85,0,0,0,0,0,0,0,0,0,-1,1658,939,0,0
441,85,0,0,0,0,0,0,0,0,0,-1,1665,939,0,0
448,85,0,0,0,0,0,0,0,0,0,-1,1672,939,0,0
455,85,0,0,0,0,0,0,0,0,0,-1,1679,939,0,0
462,85,0,0,0,0,0,0,0,0,0,-1,1686,939,0,0
469,85,0,0,0,0,0,0,0,0,0,-1,1693,939,0,0
476,85,0,0,0,0,0,0,0,0,0,-1,1700,939,0,0
483,85,0,0,0,0,0,0,0,0,0,-1,1707,939,0,0
490,85,0,0,0,0,0,0,0,0,0,-1,1714,939,0,0
497,85,0,0,0,0,0,0,0,0,0,-1,1721,939,0,0
504,85,0,0,0,0,0,0,0,0,0,-1,1728,939,0,0
511,85,0,0,0,0,0,0,0,0,0,-1,1735,939,0,0
518,85,0,0,0,0,0,0,0,0,0,-1,1742,939,0,0
525,85,0,0,0,0,0,0,0,0,0,-1,1749,939,0,0
532,85,0,0,0,0,0,0,0,0,0,-1,1756,939,0,0
539,85,0,0,0,0,0,0,0,0,0,-1,1763,939,0,0
546,85,0,0,0,0,0,0,0,0,0,-1,1770,939,0,0
553,85,0,0,0,0,0,0,0,0,0,-1,1777,939,0,0
560,85,0,0,0,0,0,0,0,0,0,-1,1784,939,0,0
567,85,0,0,0,0,0,0,0,0,0,-1,1791,939,0,0
574,85,0,0,0,0,0,0,0,0,0,-1,1798,939,0,0
581,85,0,0,0,0,0,0,0,0,0,-1,1805,939,0,0
588,85,0,0,0,0,0,0,0,0,0,-1,1812,939,0,0
595,85,0,0,0,0,0,0,0,0,0,-1,1819,939,0,0
602,85,0,0,0,0,0,0,0,0,0,-1,1826,939,0,0
609,85,0,0,0,0,0,0,0,0,0,-1,1833,939,0,0
616,85,0,0,0,0,0,0,0,0,0,-1,1840,939,0,0
623,85,0,0,0,0,0,0,0,0,0,-1,1847,939,0,0
630,85,0,0,0,0,0,0,0,0,0,-1,1854,939,0,0
637,85,27.014,2.99615,0.00169605,0.0057439,-0.00107462,0.0060115,0.00142845,-1.32674,0.00362654,0.0481289,1861,939,27.014,-2.99616
644,85,26.9735,2.75061,0.00182847,0.00452491,-0.000571837,0.00464117,0.00171221,-1.37022,0.0027101,0.042165,1868,939,26.9736,-2.75061
651,85,27.1814,2.61121,0.00114522,0.00355213,-5.30867e-05,0.0035533,0.00114405,-1.54875,0.0020944,0.0414191,1875,939,27.1814,-2.6112
658,85,27.3044,2.76685,0.000108583,0.00295357,0.000602531,0.00307592,-1.37637e-05,1.37047,0.00205522,0.0418161,1882,939,27.3044,-2.76686
665,85,27.3479,2.80438,-0.000975939,0.0025606,0.0013465,0.0030149,-0.00143025,1.24539,0.0026202,0.0411974,1889,939,27.3479,-2.80441
672,85,27.2203,3.08887,-0.00181787,0.00221385,0.00198781,0.00302908,-0.0026331,1.1816,0.00327173,0.0402693,1896,939,27.2203,-3.08884
679,85,27.0669,3.28986,-0.0023392,0.00190797,0.00242739,0.00300958,-0.00344081,1.14477,0.0037269,0.0404186,1903,939,27.0669,-3.28985
686,85,26.9501,3.22192,-0.00253447,0.00155444,0.00261769,0.00283144,-0.00381147,1.11693,0.00384917,0.0336925,1910,939,26.9501,-3.22192
693,85,27.0106,3.15851,-0.00254562,0.0013454,0.00270832,0.00273456,-0.00393478,1.09686,0.00387127,0.0237094,1917,939,27.0106,-3.15853
700,85,27.0381,3.20233,-0.00270553,0.00115116,0.00266973,0.00251613,-0.00407051,1.09817,0.00383793,0.0285998,1924,939,27.0381,-3.20233
707,85,26.7816,3.60046,0,0,0,0,0,0,0,-1,1931,939,26.7816,-3.60046
714,85,25.2528,3.93225,0,0,0,0,0,0,0,-1,1938,939,25.2528,-3.93224
721,85,25.2577,4.18542,-0.00236325,0.00136757,0.00161937,0.00197241,-0.00296809,1.21334,0.00287164,0.0242287,1945,939,25.2577,-4.1854
728,85,25.23,4.45355,-0.00214919,0.000908761,0.00081066,0.00111037,-0.0023508,1.32704,0.00204064,0.0194258,1952,939,25.23,-4.45358
735,85,25.2161,4.58008,-0.00213968,7.82784e-05,5.22067e-05,7.95065e-05,-0.00214091,1.54728,0.0014545,0.018407,1959,939,25.216,-4.58008
742,85,25.249,4.74341,-0.00279072,-0.000148402,-0.000298633,-0.000115072,-0.00282405,-1.45964,0.00184554,0.0156297,1966,939,25.249,-4.74343
749,85,25.1886,4.93726,-0.00407136,-0.00017378,-0.000838179,-1.17254e-06,-0.00424397,-1.3677,0.00282892,0.0132889,1973,939,25.1887,-4.93728
756,85,25.1525,5.10162,-0.00552838,-0.000714087,-0.00168976,-0.000180203,-0.00606226,-1.26477,0.0039828,0.0124917,1980,939,25.1525,-5.10163
763,85,25.1743,5.27899,-0.00773805,-0.00135189,-0.00206074,-0.000744655,-0.00834529,-1.28424,0.00533267,0.0128761,1987,939,25.1743,-5.27898
770,85,25.171,5.43909,-0.0106188,-0.00197345,-0.00206197,-0.00150684,-0.0110854,-1.34825,0.00694271,0.0188245,1994,939,25.1711,-5.43912
777,85,25.1227,5.38354,-0.0139561,-0.00244605,-0.00194256,-0.00212704,-0.0142751,-1.40803,0.0088929,0.0399453,2001,939,25.1227,-5.38356
784,85,25.0991,5.31091,0,0,0,0,0,0,0,-1,2008,939,25.0992,-5.31091
791,85,25.3346,6.81818,0,0,0,0,0,0,0,-1,2015,939,25.3345,-6.81815
798,85,25.0042,6.27289,-0.0268334,-0.000884062,-0.001728,-0.000769498,-0.026948,-1.50459,0.0177144,0.0471123,2022,939,25.0041,-6.27289
805,85,24.7961,5.68909,-0.0316153,0.00221986,-0.00256246,0.00241282,-0.0318083,-1.49563,0.0220538,0.0488282,2029,939,24.7961,-5.68908
812,85,0,0,0,0,0,0,0,0,0,-1,2036,939,0,0
-700,78,0,0,0,0,0,0,0,0,0,-1,524,946,0,0
-693,78,0,0,0,0,0,0,0,0,0,-1,531,946,0,0
-686,78,-16.9069,2.85126,0,0,0,0,0,0,0,-1,538,946,-16.9069,-2.85127
-679,78,-13.9858,3.85956,0,0,0,0,0,0,0,-1,545,946,-13.9858,-3.85957
-672,78,-14.9593,3.68152,0,0,0,0,0,0,0,-1,552,946,-14.9593,-3.68153
-665,78,-15.2688,4.60303,0,0,0,0,0,0,0,-1,559,946,-15.2688,-4.60305
-658,78,-16.2266,3.9931,0,0,0,0,0,0,0,-1,566,946,-16.2266,-3.9931
-651,78,-16.9623,3.53668,0,0,0,0,0,0,0,-1,573,946,-16.9623,-3.53669
-644,78,-17.7166,2.9422,-0.0140177,0.0113251,0.00571541,0.0125544,-0.015247,1.35893,0.0160763,0.0274724,580,946,-17.7166,-2.94218
-637,78,-17.7849,2.81573,-0.00935813,0.00731204,0.00422235,0.00832051,-0.0103666,1.33635,0.0108105,0.0137869,587,946,-17.7848,-2.81576
-630,78,-17.8457,2.66144,-0.00624742,0.00372029,0.00312289,0.00461786,-0.00714499,1.29092,0.00684333,0.0134408,594,946,-17.8457,-2.66146
-623,78,-17.8759,2.51727,-0.0042974,0.000870498,0.0022631,0.00172143,-0.00514833,1.21115,0.00412748,0.0129583,601,946,-17.8759,-2.51725
-616,78,-17.8719,2.38818,-0.00341325,-0.000728963,0.00129172,-0.000208342,-0.00393387,1.18767,0.00255596,0.0108309,608,946,-17.872,-2.38817
-609,78,-17.842,2.24249,-0.00360699,-0.000609714,-7.7783e-05,-0.000607697,-0.003609,-1.54487,0.00223119,0.0120171,615,946,-17.842,-2.24249
-602,78,-17.8553,2.07837,-0.00443703,0.000344618,-0.000361941,0.000371859,-0.00446427,-1.49567,0.00310756,0.0165456,622,946,-17.8553,-2.07836
-595,78,-17.827,1.90808,-0.00541844,0.000524419,-0.000374551,0.000547932,-0.00544195,-1.5081,0.00382372,0.015767,629,946,-17.8269,-1.9081
-588,78,-17.8313,1.81342,-0.00595195,0.000390434,-0.000432652,0.000419812,-0.00598132,-1.503,0.0041346,0.013067,636,946,-17.8313,-1.81343
-581,78,-17.9207,1.69391,-0.00610505,0.000230388,-0.000568555,0.000281007,-0.00615567,-1.482,0.00420058,0.0225306,643,946,-17.9207,-1.6939
-574,78,-18.3339,1.47571,-0.0061025,0.000171662,-0.000609095,0.000230246,-0.00616109,-1.47491,0.00418625,0.0290148,650,946,-18.3338,-1.47568
-567,78,-18.8033,1.30359,0,0,0,0,0,0,0,-1,657,946,-18.8033,-1.30359
-560,78,-18.8245,1.23376,-0.00573293,0.000275009,-0.000300871,0.000290039,-0.00574796,-1.52088,0.00393222,0.0320902,664,946,-18.8245,-1.23374
-553,78,-18.6718,1.03473,-0.00502104,0.000394105,8.47236e-08,0.000394105,-0.00502104,1.57078,0.00348616,0.0397459,671,946,-18.6717,-1.03473
-546,78,-18.669,1.185,-0.00401509,0.000584278,0.000313201,0.000605508,-0.00403632,1.50312,0.00291376,0.0387285,678,946,-18.669,-1.18499
-539,78,-18.7862,1.44171,-0.00277094,0.000864345,0.000564616,0.000950019,-0.00285662,1.42021,0.00228781,0.0352005,685,946,-18.7862,-1.4417
-532,78,-18.7422,1.48639,-0.00153566,0.00127814,0.000526841,0.00137355,-0.00163107,1.39164,0.00173684,0.0348255,692,946,-18.7422,-1.4864
-525,78,-18.7256,1.32489,-0.00152549,0.00206745,-0.000263687,0.0020867,-0.00154473,-1.49793,0.00210438,0.0344124,699,946,-18.7256,-1.32491
-518,78,-18.8573,1.21863,-0.00461624,0.00339287,-0.00149347,0.0036623,-0.00488567,-1.39231,0.00495199,0.0374535,706,946,-18.8573,-1.21864
-511,78,0,0,0,0,0,0,0,0,0,-1,713,946,0,0
-504,78,0,0,0,0,0,0,0,0,0,-1,720,946,0,0
-497,78,0,0,0,0,0,0,0,0,0,-1,727,946,0,0
-490,78,0,0,0,0,0,0,0,0,0,-1,734,946,0,0
-483,78,0,0,0,0,0,0,0,0,0,-1,741,946,0,0
-476,78,0,0,0,0,0,0,0,0,0,-1,748,946,0,0
-469,78,0,0,0,0,0,0,0,0,0,-1,755,946,0,0
-462,78,0,0,0,0,0,0,0,0,0,-1,762,946,0,0
-455,78,0,0,0,0,0,0,0,0,0,-1,769,946,0,0
-448,78,0,0,0,0,0,0,0,0,0,-1,776,946,0,0
-441,78,0,0,0,0,0,0,0,0,0,-1,783,946,0,0
-434,78,0,0,0,0,0,0,0,0,0,-1,790,946,0,0
-427,78,0,0,0,0,0,0,0,0,0,-1,797,946,0,0
-420,78,0,0,0,0,0,0,0,0,0,-1,804,946,0,0
-413,78,0,0,0,0,0,0,0,0,0,-1,811,946,0,0
-406,78,0,0,0,0,0,0,0,0,0,-1,818,946,0,0
-399,78,0,0,0,0,0,0,0,0,0,-1,825,946,0,0
-392,78,0,0,0,0,0,0,0,0,0,-1,832,946,0,0
-385,78,0,0,0,0,0,0,0,0,0,-1,839,946,0,0
-378,78,0,0,0,0,0,0,0,0,0,-1,846,946,0,0
-371,78,0,0,0,0,0,0,0,0,0,-1,853,946,0,0
-364,78,0,0,0,0,0,0,0,0,0,-1,860,946,0,0
-357,78,0,0,0,0,0,0,0,0,0,-1,867,946,0,0
-350,78,0,0,0,0,0,0,0,0,0,-1,874,946,0,0
-343,78,0,0,0,0,0,0,0,0,0,-1,881,946,0,0
-336,78,0,0,0,0,0,0,0,0,0,-1,888,946,0,0
-329,78,0,0,0,0,0,0,0,0,0,-1,895,946,0,0
-322,78,0,0,0,0,0,0,0,0,0,-1,902,946,0,0
-315,78,0,0,0,0,0,0,0,0,0,-1,909,946,0,0
-308,78,0,0,0,0,0,0,0,0,0,-1,916,946,0,0
-301,78,0,0,0,0,0,0,0,0,0,-1,923,946,0,0
-294,78,0,0,0,0,0,0,0,0,0,-1,930,946,0,0
-287,78,0,0,0,0,0,0,0,0,0,-1,937,946,0,0
-280,78,0,0,0,0,0,0,0,0,0,-1,944,946,0,0
-273,78,0,0,0,0,0,0,0,0,0,-1,951,946,0,0
-266,78,0,0,0,0,0,0,0,0,0,-1,958,946,0,0
-259,78,0,0,0,0,0,0,0,0,0,-1,965,946,0,0
-252,78,0,0,0,0,0,0,0,0,0,-1,972,946,0,0
-245,78,0,0,0,0,0,0,0,0,0,-1,979,946,0,0
-238,78,0,0,0,0,0,0,0,0,0,-1,986,946,0,0
-231,78,0,0,0,0,0,0,0,0,0,-1,993,946,0,0
-224,78,0,0,0,0,0,0,0,0,0,-1,1000,946,0,0
-217,78,0,0,0,0,0,0,0,0,0,-1,1007,946,0,0
-210,78,0,0,0,0,0,0,0,0,0,-1,1014,946,0,0
-203,78,0,0,0,0,0,0,0,0,0,-1,1021,946,0,0
-196,78,0,0,0,0,0,0,0,0,0,-1,1028,946,0,0
-189,78,0,0,0,0,0,0,0,0,0,-1,1035,946,0,0
-182,78,0,0,0,0,0,0,0,0,0,-1,1042,946,0,0
-175,78,0,0,0,0,0,0,0,0,0,-1,1049,946,0,0
-168,78,0,0,0,0,0,0,0,0,0,-1,1056,946,0,0
-161,78,0,0,0,0,0,0,0,0,0,-1,1063,946,0,0
-154,78,0,0,0,0,0,0,0,0,0,-1,1070,946,0,0
-147,78,0,0,0,0,0,0,0,0,0,-1,1077,946,0,0
-140,78,0,0,0,0,0,0,0,0,0,-1,1084,946,0,0
-133,78,0,0,0,0,0,0,0,0,0,-1,1091,946,0,0
-126,78,0,0,0,0,0,0,0,0,0,-1,1098,946,0,0
-119,78,0,0,0,0,0,0,0,0,0,-1,1105,946,0,0
-112,78,0,0,0,0,0,0,0,0,0,-1,1112,946,0,0
-105,78,0,0,0,0,0,0,0,0,0,-1,1119,946,0,0
-98,78,0,0,0,0,0,0,0,0,0,-1,1126,946,0,0
-91,78,0,0,0,0,0,0,0,0,0,-1,1133,946,0,0
-84,78,0,0,0,0,0,0,0,0,0,-1,1140,946,0,0
-77,78,0,0,0,0,0,0,0,0,0,-1,1147,946,0,0
-70,78,0,0,0,0,0,0,0,0,0,-1,1154,946,0,0
-63,78,0,0,0,0,0,0,0,0,0,-1,1161,946,0,0
-56,78,0,0,0,0,0,0,0,0,0,-1,1168,946,0,0
-49,78,0,0,0,0,0,0,0,0,0,-1,1175,946,0,0
-42,78,0,0,0,0,0,0,0,0,0,-1,1182,946,0,0
-35,78,0,0,0,0,0,0,0,0,0,-1,1189,946,0,0
-28,78,0,0,0,0,0,0,0,0,0,-1,1196,946,0,0
-21,78,0,0,0,0,0,0,0,0,0,-1,1203,946,0,0
-14,78,0,0,0,0,0,0,0,0,0,-1,1210,946,0,0
-7,78,0,0,0,0,0,0,0,0,0,-1,1217,946,0,0
0,78,0,0,0,0,0,0,0,0,0,-1,1224,946,0,0
7,78,0,0,0,0,0,0,0,0,0,-1,1231,946,0,0
14,78,0,0,0,0,0,0,0,0,0,-1,1238,946,0,0
21,78,0,0,0,0,0,0,0,0,0,-1,1245,946,0,0
28,78,0,0,0,0,0,0,0,0,0,-1,1252,946,0,0
35,78,0,0,0,0,0,0,0,0,0,-1,1259,946,0,0
42,78,0,0,0,0,0,0,0,0,0,-1,1266,946,0,0
49,78,0,0,0,0,0,0,0,0,0,-1,1273,946,0,0
56,78,0,0,0,0,0,0,0,0,0,-1,1280,946,0,0
63,78,0,0,0,0,0,0,0,0,0,-1,1287,946,0,0
70,78,0,0,0,0,0,0,0,0,0,-1,1294,946,0,0
77,78,0,0,0,0,0,0,0,0,0,-1,1301,946,0,0
84,78,0,0,0,0,0,0,0,0,0,-1,1308,946,0,0
91,78,0,0,0,0,0,0,0,0,0,-1,1315,946,0,0
98,78,0,0,0,0,0,0,0,0,0,-1,1322,946,0,0
105,78,0,0,0,0,0,0,0,0,0,-1,1329,946,0,0
112,78,0,0,0,0,0,0,0,0,0,-1,1336,946,0,0
119,78,0,0,0,0,0,0,0,0,0,-1,1343,946,0,0
126,78,0,0,0,0,0,0,0,0,0,-1,1350,946,0,0
133,78,0,0,0,0,0,0,0,0,0,-1,1357,946,0,0
140,78,0,0,0,0,0,0,0,0,0,-1,1364,946,0,0
147,78,0,0,0,0,0,0,0,0,0,-1,1371,946,0,0
154,78,0,0,0,0,0,0,0,0,0,-1,1378,946,0,0
161,78,0,0,0,0,0,0,0,0,0,-1,1385,946,0,0
168,78,0,0,0,0,0,0,0,0,0,-1,1392,946,0,0
175,78,0,0,0,0,0,0,0,0,0,-1,1399,946,0,0
182,78,0,0,0,0,0,0,0,0,0,-1,1406,946,0,0
189,78,0,0,0,0,0,0,0,0,0,-1,1413,946,0,0
196,78,0,0,0,0,0,0,0,0,0,-1,1420,946,0,0
203,78,0,0,0,0,0,0,0,0,0,-1,1427,946,0,0
210,78,0,0,0,0,0,0,0,0,0,-1,1434,946,0,0
217,78,0,0,0,0,0,0,0,0,0,-1,1441,946,0,0
224,78,0,0,0,0,0,0,0,0,0,-1,1448,946,0,0
231,78,0,0,0,0,0,0,0,0,0,-1,1455,946,0,0
238,78,0,0,0,0,0,0,0,0,0,-1,1462,946,0,0
245,78,0,0,0,0,0,0,0,0,0,-1,1469,946,0,0
252,78,0,0,0,0,0,0,0,0,0,-1,1476,946,0,0
259,78,0,0,0,0,0,0,0,0,0,-1,1483,946,0,0
266,78,0,0,0,0,0,0,0,0,0,-1,1490,946,0,0
273,78,0,0,0,0,0,0,0,0,0,-1,1497,946,0,0
280,78,0,0,0,0,0,0,0,0,0,-1,1504,946,0,0
287,78,0,0,0,0,0,0,0,0,0,-1,1511,946,0,0
294,78,0,0,0,0,0,0,0,0,0,-1,1518,946,0,0
301,78,0,0,0,0,0,0,0,0,0,-1,1525,946,0,0
308,78,0,0,0,0,0,0,0,0,0,-1,1532,946,0,0
315,78,0,0,0,0,0,0,0,0,0,-1,1539,946,0,0
322,78,0,0,0,0,0,0,0,0,0,-1,1546,946,0,0
329,78,0,0,0,0,0,0,0,0,0,-1,1553,946,0,0
336,78,0,0,0,0,0,0,0,0,0,-1,1560,946,0,0
343,78,0,0,0,0,0,0,0,0,0,-1,1567,946,0,0
350,78,0,0,0,0,0,0,0,0,0,-1,1574,946,0,0
357,78,0,0,0,0,0,0,0,0,0,-1,1581,946,0,0
364,78,0,0,0,0,0,0,0,0,0,-1,1588,946,0,0
371,78,0,0,0,0,0,0,0,0,0,-1,1595,946,0,0
378,78,0,0,0,0,0,0,0,0,0,-1,1602,946,0,0
385,78,0,0,0,0,0,0,0,0,0,-1,1609,946,0,0
392,78,0,0,0,0,0,0,0,0,0,-1,1616,946,0,0
399,78,0,0,0,0,0,0,0,0,0,-1,1623,946,0,0
406,78,0,0,0,0,0,0,0,0,0,-1,1630,946,0,0
413,78,0,0,0,0,0,0,0,0,0,-1,1637,946,0,0
420,78,0,0,0,0,0,0,0,0,0,-1,1644,946,0,0
427,78,0,0,0,0,0,0,0,0,0,-1,1651,946,0,0
434,78,0,0,0,0,0,0,0,0,0,-1,1658,946,0,0
441,78,0,0,0,0,0,0,0,0,0,-1,1665,946,0,0
448,78,0,0,0,0,0,0,0,0,0,-1,1672,946,0,0
455,78,0,0,0,0,0,0,0,0,0,-1,1679,946,0,0
462,78,0,0,0,0,0,0,0,0,0,-1,1686,946,0,0
469,78,0,0,0,0,0,0,0,0,0,-1,1693,946,0,0
476,78,0,0,0,0,0,0,0,0,0,-1,1700,946,0,0
483,78,0,0,0,0,0,0,0,0,0,-1,1707,946,0,0
490,78,0,0,0,0,0,0,0,0,0,-1,1714,946,0,0
497,78,0,0,0,0,0,0,0,0,0,-1,1721,946,0,0
504,78,0,0,0,0,0,0,0,0,0,-1,1728,946,0,0
511,78,0,0,0,0,0,0,0,0,0,-1,1735,946,0,0
518,78,0,0,0,0,0,0,0,0,0,-1,1742,946,0,0
525,78,0,0,0,0,0,0,0,0,0,-1,1749,946,0,0
532,78,0,0,0,0,0,0,0,0,0,-1,1756,946,0,0
539,78,0,0,0,0,0,0,0,0,0,-1,1763,946,0,0
546,78,0,0,0,0,0,0,0,0,0,-1,1770,946,0,0
553,78,0,0,0,0,0,0,0,0,0,-1,1777,946,0,0
560,78,0,0,0,0,0,0,0,0,0,-1,1784,946,0,0
567,78,0,0,0,0,0,0,0,0,0,-1,1791,946,0,0
574,78,0,0,0,0,0,0,0,0,0,-1,1798,946,0,0
581,78,0,0,0,0,0,0,0,0,0,-1,1805,946,0,0
588,78,0,0,0,0,0,0,0,0,0,-1,1812,946,0,0
595,78,0,0,0,0,0,0,0,0,0,-1,1819,946,0,0
602,78,0,0,0,0,0,0,0,0,0,-1,1826,946,0,0
609,78,0,0,0,0,0,0,0,0,0,-1,1833,946,0,0
616,78,0,0,0,0,0,0,0,0,0,-1,1840,946,0,0
623,78,0,0,0,0,0,0,0,0,0,-1,1847,946,0,0
630,78,0,0,0,0,0,0,0,0,0,-1,1854,946,0,0
637,78,27.0363,3.17639,0.0029311,0.00630245,-0.000754083,0.00646343,0.00277012,-1.36047,0.00374433,0.045662,1861,946,27.0362,-3.1764
644,78,26.9999,3.04816,0.00249108,0.00485501,-0.0001823,0.00486899,0.00247711,-1.49428,0.00281126,0.0431914,1868,946,26.9999,-3.04814
651,78,27.1605,2.81586,0.00152644,0.00372687,0.00029461,0.00376563,0.00148767,1.43998,0.00218999,0.0413583,1875,946,27.1605,-2.81584
658,78,27.15,2.93372,0.000421738,0.0030218,0.000907452,0.00330718,0.000136351,1.2661,0.00216077,0.0392053,1882,946,27.15,-2.93371
665,78,27.1475,2.98682,-0.000706234,0.00262329,0.00166977,0.00331641,-0.00139935,1.17735,0.00279663,0.0388236,1889,946,27.1475,-2.98679
672,78,27.1011,3.06897,-0.00160119,0.00231367,0.00235046,0.00341503,-0.00270255,1.13261,0.00353996,0.0383791,1896,946,27.1011,-3.06896
679,78,27.053,3.1546,-0.00219253,0.00204908,0.00283065,0.00346528,-0.00360873,1.1069,0.00408446,0.0401697,1903,946,27.053,-3.15458
686,78,26.9498,3.10889,-0.00244328,0.00174312,0.00305212,0.00335086,-0.00405101,1.08597,0.00427984,0.0375201,1910,946,26.9498,-3.10887
693,78,27.0137,3.09375,-0.00248343,0.00155401,0.00314849,0.00327537,-0.00420479,1.07047,0.00432977,0.0284707,1917,946,27.0137,-3.09375
700,78,27.0135,3.12347,-0.00267015,0.00136868,0.00309766,0.00304704,-0.00434851,1.07426,0.00429181,0.0206425,1924,946,27.0136,-3.12344
707,78,26.8033,3.54297,-0.00278438,0.00128611,0.00287408,0.00277259,-0.00427086,1.09348,0.00409709,0.0409391,1931,946,26.8034,-3.54295
714,78,25.3179,4.05469,0,0,0,0,0,0,0,-1,1938,946,25.3178,-4.05471
721,78,25.3812,4.19818,-0.0024735,0.00158087,0.00196573,0.00237743,-0.00327007,1.18579,0.00327413,0.0234347,1945,946,25.3812,-4.19815
728,78,25.4221,4.41974,-0.00237197,0.00119295,0.00118735,0.00155221,-0.00273123,1.27698,0.00250408,0.0218903,1952,946,25.4221,-4.41972
735,78,25.421,4.60638,-0.00251344,0.000537691,0.000412502,0.000592476,-0.00256823,1.43876,0.00194004,0.0159081,1959,946,25.421,-4.60641
742,78,25.4167,4.77191,-0.00321276,0.000497347,-0.000106534,0.000500403,-0.00321582,-1.54211,0.00232867,0.0146338,1966,946,25.4168,-4.7719
749,78,25.3723,4.93256,-0.00438492,0.000758529,-0.000922789,0.000919076,-0.00454547,-1.39854,0.0033786,0.013955,1973,946,25.3723,-4.93254
756,78,25.3888,5.0675,-0.0056718,0.000648331,-0.00215178,0.00131138,-0.00633484,-1.27189,0.00472146,0.0144334,1980,946,25.3888,-5.06751
763,78,25.3776,5.23181,-0.00759675,0.000602682,-0.00308517,0.00163385,-0.00862791,-1.24824,0.00636682,0.0127376,1987,946,25.3776,-5.23182
770,78,25.3608,5.40106,-0.0101007,0.000720623,-0.00380064,0.00192208,-0.0113022,-1.26462,0.00825043,0.0165476,1994,946,25.3609,-5.40106
777,78,25.2909,5.5235,-0.0128936,0.00110035,-0.00459617,0.00247491,-0.0142681,-1.2802,0.0104353,0.0369194,2001,946,25.2909,-5.5235
784,78,25.2167,5.63733,0,0,0,0,0,0,0,-1,2008,946,25.2167,-5.63731
791,78,25.1105,6.83502,0,0,0,0,0,0,0,-1,2015,946,25.1105,-6.83501
798,78,24.804,6.28406,-0.0223661,0.00539713,-0.00917516,0.00815531,-0.0251243,-1.27878,0.0200292,0.0451136,2022,946,24.8039,-6.28404
805,78,24.5391,5.67853,-0.0250616,0.00908338,-0.012475,0.0131555,-0.0291338,-1.25528,0.0249899,0.0488583,2029,946,24.5392,-5.67851
812,78,0,0,0,0,0,0,0,0,0,-1,2036,946,0,0
-700,71,0,0,0,0,0,0,0,0,0,-1,524,953,0,0
-693,71,0,0,0,0,0,0,0,0,0,-1,531,953,0,0
-686,71,-17.4501,1.1922,0,0,0,0,0,0,0,-1,538,953,-17.4502,-1.19223
-679,71,-14.7132,3.77747,0,0,0,0,0,0,0,-1,545,953,-14.7132,-3.77745
-672,71,-15.6321,3.59113,0,0,0,0,0,0,0,-1,552,953,-15.6322,-3.59114
-665,71,-16.1714,4.12384,0,0,0,0,0,0,0,-1,559,953,-16.1714,-4.12383
-658,71,-17.1794,3.57031,0,0,0,0,0,0,0,-1,566,953,-17.1795,-3.57029
-651,71,-18.1876,3.01672,0,0,0,0,0,0,0,-1,573,953,-18.1875,-3.01674
-644,71,-17.9633,2.90985,-0.0175608,0.0154976,0.00843361,0.0175248,-0.019588,1.3349,0.0214382,0.0323217,580,953,-17.9633,-2.90986
-637,71,-17.9729,2.80328,-0.0120071,0.0105437,0.0062066,0.0121391,-0.0136024,1.3192,0.0148699,0.0142976,587,953,-17.9729,-2.80327
-630,71,-18.0165,2.66553,-0.00812235,0.00590016,0.00446031,0.00719866,-0.00942085,1.2875,0.00962383,0.0138674,594,953,-18.0166,-2.66556
-623,71,-18.0583,2.51001,-0.00550006,0.00230255,0.0030613,0.00336026,-0.00655777,1.23813,0.00582452,0.0136518,601,953,-18.0583,-2.51002
-616,71,-18.0507,2.3606,-0.00405309,0.000178916,0.00152871,0.000673356,-0.00454753,1.25798,0.00327926,0.0128984,608,953,-18.0507,-2.36061
-609,71,-18.0118,2.245,-0.00384726,-8.01073e-05,-0.000199685,-6.95521e-05,-0.00385782,-1.51799,0.00254901,0.0148047,615,953,-18.0118,-2.24499
-602,71,-17.9781,2.09393,-0.00447796,0.00071278,-0.000738891,0.000815911,-0.00458109,-1.43212,0.00335923,0.0174918,622,953,-17.9781,-2.09394
-595,71,-17.9985,1.94342,-0.00534715,0.00072152,-0.00085562,0.000839846,-0.00546547,-1.43337,0.00395345,0.0175815,629,953,-17.9985,-1.94343
-588,71,-18.0084,1.84106,-0.00584517,0.000531207,-0.000962595,0.000673354,-0.00598732,-1.42419,0.00423388,0.0177353,636,953,-18.0084,-1.84106
-581,71,-18.1754,1.56403,-0.00595147,0.000351821,-0.00105874,0.000524902,-0.00612455,-1.40875,0.00426877,0.0271302,643,953,-18.1753,-1.564
-574,71,-18.6567,1.31921,-0.00586536,0.000285187,-0.00100488,0.000445202,-0.00602538,-1.41288,0.00417324,0.0324257,650,953,-18.6567,-1.31924
-567,71,-18.8581,1.15448,-0.00578628,0.000332275,-0.000831227,0.000443189,-0.00589719,-1.43815,0.00408721,0.0198499,657,953,-18.8581,-1.15449
-560,71,-18.8431,1.17059,-0.0052763,0.000384397,-0.000465764,0.000422464,-0.00531437,-1.48925,0.0036918,0.0277717,664,953,-18.8432,-1.17061
-553,71,-18.8319,1.09357,-0.0043945,0.000514487,-1.65092e-05,0.000514542,-0.00439456,-1.56743,0.00311541,0.041474,671,953,-18.8319,-1.09355
-546,71,-18.7839,1.41095,-0.00318526,0.000730163,0.000461364,0.000783792,-0.00323889,1.45508,0.00246246,0.0395446,678,953,-18.7839,-1.41097
-539,71,-18.8275,1.58777,-0.00170527,0.00105887,0.000882986,0.00131686,-0.00196325,1.28654,0.00190599,0.0361768,685,953,-18.8275,-1.58774
-532,71,-18.7682,1.5083,-0.000252619,0.00158453,0.000973509,0.00200442,-0.000672514,1.16358,0.00160803,0.0395541,692,953,-18.7683,-1.50831
-525,71,-18.67,1.36084,-0.000160706,0.00262134,0.000228661,0.00264,-0.000179375,1.48933,0.00182274,0.0402359,699,953,-18.67,-1.36081
-518,71,0,0,0,0,0,0,0,0,0,-1,706,953,0,0
-511,71,0,0,0,0,0,0,0,0,0,-1,713,953,0,0
-504,71,0,0,0,0,0,0,0,0,0,-1,720,953,0,0
-497,71,0,0,0,0,0,0,0,0,0,-1,727,953,0,0
-490,71,0,0,0,0,0,0,0,0,0,-1,734,953,0,0
-483,71,0,0,0,0,0,0,0,0,0,-1,741,953,0,0
-476,71,0,0,0,0,0,0,0,0,0,-1,748,953,0,0
-469,71,0,0,0,0,0,0,0,0,0,-1,755,953,0,0
-462,71,0,0,0,0,0,0,0,0,0,-1,762,953,0,0
-455,71,0,0,0,0,0,0,0,0,0,-1,769,953,0,0
-448,71,0,0,0,0,0,0,0,0,0,-1,776,953,0,0
-441,71,0,0,0,0,0,0,0,0,0,-1,783,953,0,0
-434,71,0,0,0,0,0,0,0,0,0,-1,790,953,0,0
-427,71,0,0,0,0,0,0,0,0,0,-1,797,953,0,0
-420,71,0,0,0,0,0,0,0,0,0,-1,804,953,0,0
-413,71,0,0,0,0,0,0,0,0,0,-1,811,953,0,0
-406,71,0,0,0,0,0,0,0,0,0,-1,818,953,0,0
-399,71,0,0,0,0,0,0,0,0,0,-1,825,953,0,0
-392,71,0,0,0,0,0,0,0,0,0,-1,832,953,0,0
-385,71,0,0,0,0,0,0,0,0,0,-1,839,953,0,0
-378,71,0,0,0,0,0,0,0,0,0,-1,846,953,0,0
-371,71,0,0,0,0,0,0,0,0,0,-1,853,953,0,0
-364,71,0,0,0,0,0,0,0,0,0,-1,860,953,0,0
-357,71,0,0,0,0,0,0,0,0,0,-1,867,953,0,0
-350,71,0,0,0,0,0,0,0,0,0,-1,874,953,0,0
-343,71,0,0,0,0,0,0,0,0,0,-1,881,953,0,0
-336,71,0,0,0,0,0,0,0,0,0,-1,888,953,0,0
-329,71,0,0,0,0,0,0,0,0,0,-1,895,953,0,0
-322,71,0,0,0,0,0,0,0,0,0,-1,902,953,0,0
-315,71,0,0,0,0,0,0,0,0,0,-1,909,953,0,0
-308,71,0,0,0,0,0,0,0,0,0,-1,916,953,0,0
-301,71,0,0,0,0,0,0,0,0,0,-1,923,953,0,0
-294,71,0,0,0,0,0,0,0,0,0,-1,930,953,0,0
-287,71,0,0,0,0,0,0,0,0,0,-1,937,953,0,0
-280,71,0,0,0,0,0,0,0,0,0,-1,944,953,0,0
-273,71,0,0,0,0,0,0,0,0,0,-1,951,953,0,0
-266,71,0,0,0,0,0,0,0,0,0,-1,958,953,0,0
-259,71,0,0,0,0,0,0,0,0,0,-1,965,953,0,0
-252,71,0,0,0,0,0,0,0,0,0,-1,972,953,0,0
-245,71,0,0,0,0,0,0,0,0,0,-1,979,953,0,0
-238,71,0,0,0,0,0,0,0,0,0,-1,986,953,0,0
-231,71,0,0,0,0,0,0,0,0,0,-1,993,953,0,0
-224,71,0,0,0,0,0,0,0,0,0,-1,1000,953,0,0
-217,71,0,0,0,0,0,0,0,0,0,-1,1007,953,0,0
-210,71,0,0,0,0,0,0,0,0,0,-1,1014,953,0,0
-203,71,0,0,0,0,0,0,0,0,0,-1,1021,953,0,0
-196,71,0,0,0,0,0,0,0,0,0,-1,1028,953,0,0
-189,71,0,0,0,0,0,0,0,0,0,-1,1035,953,0,0
-182,71,0,0,0,0,0,0,0,0,0,-1,1042,953,0,0
-175,71,0,0,0,0,0,0,0,0,0,-1,1049,953,0,0
-168,71,0,0,0,0,0,0,0,0,0,-1,1056,953,0,0
-161,71,0,0,0,0,0,0,0,0,0,-1,1063,953,0,0
-154,71,0,0,0,0,0,0,0,0,0,-1,1070,953,0,0
-147,71,0,0,0,0,0,0,0,0,0,-1,1077,953,0,0
-140,71,0,0,0,0,0,0,0,0,0,-1,1084,953,0,0
-133,71,0,0,0,0,0,0,0,0,0,-1,1091,953,0,0
-126,71,0,0,0,0,0,0,0,0,0,-1,1098,953,0,0
-119,71,0,0,0,0,0,0,0,0,0,-1,1105,953,0,0
-112,71,0,0,0,0,0,0,0,0,0,-1,1112,953,0,0
-105,71,0,0,0,0,0,0,0,0,0,-1,1119,953,0,0
-98,71,0,0,0,0,0,0,0,0,0,-1,1126,953,0,0
-91,71,0,0,0,0,0,0,0,0,0,-1,1133,953,0,0
-84,71,0,0,0,0,0,0,0,0,0,-1,1140,953,0,0
-77,71,0,0,0,0,0,0,0,0,0,-1,1147,953,0,0
-70,71,0,0,0,0,0,0,0,0,0,-1,1154,953,0,0
-63,71,0,0,0,0,0,0,0,0,0,-1,1161,953,0,0
-56,71,0,0,0,0,0,0,0,0,0,-1,1168,953,0,0
-49,71,0,0,0,0,0,0,0,0,0,-1,1175,953,0,0
-42,71,0,0,0,0,0,0,0,0,0,-1,1182,953,0,0
-35,71,0,0,0,0,0,0,0,0,0,-1,1189,953,0,0
-28,71,0,0,0,0,0,0,0,0,0,-1,1196,953,0,0
-21,71,0,0,0,0,0,0,0,0,0,-1,1203,953,0,0
-14,71,0,0,0,0,0,0,0,0,0,-1,1210,953,0,0
-7,71,0,0,0,0,0,0,0,0,0,-1,1217,953,0,0
0,71,0,0,0,0,0,0,0,0,0,-1,1224,953,0,0
7,71,0,0,0,0,0,0,0,0,0,-1,1231,953,0,0
14,71,0,0,0,0,0,0,0,0,0,-1,1238,953,0,0
21,71,0,0,0,0,0,0,0,0,0,-1,1245,953,0,0
28,71,0,0,0,0,0,0,0,0,0,-1,1252,953,0,0
35,71,0,0,0,0,0,0,0,0,0,-1,1259,953,0,0
42,71,0,0,0,0,0,0,0,0,0,-1,1266,953,0,0
49,71,0,0,0,0,0,0,0,0,0,-1,1273,953,0,0
56,71,0,0,0,0,0,0,0,0,0,-1,1280,953,0,0
63,71,0,0,0,0,0,0,0,0,0,-1,1287,953,0,0
70,71,0,0,0,0,0,0,0,0,0,-1,1294,953,0,0
77,71,0,0,0,0,0,0,0,0,0,-1,1301,953,0,0
84,71,0,0,0,0,0,0,0,0,0,-1,1308,953,0,0
91,71,0,0,0,0,0,0,0,0,0,-1,1315,953,0,0
98,71,0,0,0,0,0,0,0,0,0,-1,1322,953,0,0
105,71,0,0,0,0,0,0,0,0,0,-1,1329,953,0,0
112,71,0,0,0,0,0,0,0,0,0,-1,1336,953,0,0
119,71,0,0,0,0,0,0,0,0,0,-1,1343,953,0,0
126,71,0,0,0,0,0,0,0,0,0,-1,1350,953,0,0
133,71,0,0,0,0,0,0,0,0,0,-1,1357,953,0,0
140,71,0,0,0,0,0,0,0,0,0,-1,1364,953,0,0
147,71,0,0,0,0,0,0,0,0,0,-1,1371,953,0,0
154,71,0,0,0,0,0,0,0,0,0,-1,1378,953,0,0
161,71,0,0,0,0,0,0,0,0,0,-1,1385,953,0,0
168,71,0,0,0,0,0,0,0,0,0,-1,1392,953,0,0
175,71,0,0,0,0,0,0,0,0,0,-1,1399,953,0,0
182,71,0,0,0,0,0,0,0,0,0,-1,1406,953,0,0
189,71,0,0,0,0,0,0,0,0,0,-1,1413,953,0,0
196,71,0,0,0,0,0,0,0,0,0,-1,1420,953,0,0
203,71,0,0,0,0,0,0,0,0,0,-1,1427,953,0,0
210,71,0,0,0,0,0,0,0,0,0,-1,1434,953,0,0
217,71,0,0,0,0,0,0,0,0,0,-1,1441,953,0,0
224,71,0,0,0,0,0,0,0,0,0,-1,1448,953,0,0
231,71,0,0,0,0,0,0,0,0,0,-1,1455,953,0,0
238,71,0,0,0,0,0,0,0,0,0,-1,1462,953,0,0
245,71,0,0,0,0,0,0,0,0,0,-1,1469,953,0,0
252,71,0,0,0,0,0,0,0,0,0,-1,1476,953,0,0
259,71,0,0,0,0,0,0,0,0,0,-1,1483,953,0,0
266,71,0,0,0,0,0,0,0,0,0,-1,1490,953,0,0
273,71,0,0,0,0,0,0,0,0,0,-1,1497,953,0,0
280,71,0,0,0,0,0,0,0,0,0,-1,1504,953,0,0
287,71,0,0,0,0,0,0,0,0,0,-1,1511,953,0,0
294,71,0,0,0,0,0,0,0,0,0,-1,1518,953,0,0
301,71,0,0,0,0,0,0,0,0,0,-1,1525,953,0,0
308,71,0,0,0,0,0,0,0,0,0,-1,1532,953,0,0
315,71,0,0,0,0,0,0,0,0,0,-1,1539,953,0,0
322,71,0,0,0,0,0,0,0,0,0,-1,1546,953,0,0
329,71,0,0,0,0,0,0,0,0,0,-1,1553,953,0,0
336,71,0,0,0,0,0,0,0,0,0,-1,1560,953,0,0
343,71,0,0,0,0,0,0,0,0,0,-1,1567,953,0,0
350,71,0,0,0,0,0,0,0,0,0,-1,1574,953,0,0
357,71,0,0,0,0,0,0,0,0,0,-1,1581,953,0,0
364,71,0,0,0,0,0,0,0,0,0,-1,1588,953,0,0
371,71,0,0,0,0,0,0,0,0,0,-1,1595,953,0,0
378,71,0,0,0,0,0,0,0,0,0,-1,1602,953,0,0
385,71,0,0,0,0,0,0,0,0,0,-1,1609,953,0,0
392,71,0,0,0,0,0,0,0,0,0,-1,1616,953,0,0
399,71,0,0,0,0,0,0,0,0,0,-1,1623,953,0,0
406,71,0,0,0,0,0,0,0,0,0,-1,1630,953,0,0
413,71,0,0,0,0,0,0,0,0,0,-1,1637,953,0,0
420,71,0,0,0,0,0,0,0,0,0,-1,1644,953,0,0
427,71,0,0,0,0,0,0,0,0,0,-1,1651,953,0,0
434,71,0,0,0,0,0,0,0,0,0,-1,1658,953,0,0
441,71,0,0,0,0,0,0,0,0,0,-1,1665,953,0,0
448,71,0,0,0,0,0,0,0,0,0,-1,1672,953,0,0
455,71,0,0,0,0,0,0,0,0,0,-1,1679,953,0,0
462,71,0,0,0,0,0,0,0,0,0,-1,1686,953,0,0
469,71,0,0,0,0,0,0,0,0,0,-1,1693,953,0,0
476,71,0,0,0,0,0,0,0,0,0,-1,1700,953,0,0
483,71,0,0,0,0,0,0,0,0,0,-1,1707,953,0,0
490,71,0,0,0,0,0,0,0,0,0,-1,1714,953,0,0
497,71,0,0,0,0,0,0,0,0,0,-1,1721,953,0,0
504,71,0,0,0,0,0,0,0,0,0,-1,1728,953,0,0
511,71,0,0,0,0,0,0,0,0,0,-1,1735,953,0,0
518,71,0,0,0,0,0,0,0,0,0,-1,1742,953,0,0
525,71,0,0,0,0,0,0,0,0,0,-1,1749,953,0,0
532,71,0,0,0,0,0,0,0,0,0,-1,1756,953,0,0
539,71,0,0,0,0,0,0,0,0,0,-1,1763,953,0,0
546,71,0,0,0,0,0,0,0,0,0,-1,1770,953,0,0
553,71,0,0,0,0,0,0,0,0,0,-1,1777,953,0,0
560,71,0,0,0,0,0,0,0,0,0,-1,1784,953,0,0
567,71,0,0,0,0,0,0,0,0,0,-1,1791,953,0,0
574,71,0,0,0,0,0,0,0,0,0,-1,1798,953,0,0
581,71,0,0,0,0,0,0,0,0,0,-1,1805,953,0,0
588,71,0,0,0,0,0,0,0,0,0,-1,1812,953,0,0
595,71,0,0,0,0,0,0,0,0,0,-1,1819,953,0,0
602,71,0,0,0,0,0,0,0,0,0,-1,1826,953,0,0
609,71,0,0,0,0,0,0,0,0,0,-1,1833,953,0,0
616,71,0,0,0,0,0,0,0,0,0,-1,1840,953,0,0
623,71,0,0,0,0,0,0,0,0,0,-1,1847,953,0,0
630,71,0,0,0,0,0,0,0,0,0,-1,1854,953,0,0
637,71,27.0808,3.12732,0.00391549,0.0060849,-0.000547483,0.00621524,0.00378516,-1.33708,0.00361669,0.0418728,1861,953,27.0808,-3.12734
644,71,27.0854,3.1377,0.00297677,0.0046048,3.2889e-05,0.00460547,0.00297611,1.55061,0.0026966,0.0421707,1868,953,27.0855,-3.13768
651,71,27.1456,3.21881,0.00178378,0.00348297,0.000438558,0.00358948,0.00167727,1.33253,0.00207387,0.0413641,1875,953,27.1457,-3.21881
658,71,27.1204,3.1228,0.00065265,0.00277893,0.000985955,0.00316575,0.000265835,1.19692,0.00202771,0.0398446,1882,953,27.1203,-3.1228
665,71,27.0928,3.0719,-0.000469756,0.00247522,0.00177697,0.00331051,-0.00130505,1.13138,0.00274736,0.0390651,1889,953,27.0928,-3.07188
672,71,27.025,3.20392,-0.00137249,0.0023329,0.00255381,0.00363527,-0.00267486,1.0992,0.00365719,0.0378006,1896,953,27.025,-3.20391
679,71,26.9924,3.01721,-0.00198888,0.00222295,0.00313635,0.0038948,-0.00366074,1.08105,0.00436289,0.0375847,1903,953,26.9924,-3.01719
686,71,27.0735,2.90088,-0.00227499,0.00205593,0.00344911,0.00396301,-0.00418207,1.06571,0.00470313,0.037255,1910,953,27.0735,-2.9009
693,71,27.1091,3.01306,-0.00235283,0.00194842,0.00360369,0.00399443,-0.00439884,1.05442,0.00484773,0.0326035,1917,953,27.1091,-3.01308
700,71,27.0112,3.04773,-0.00258152,0.00181669,0.00358841,0.00382623,-0.00459107,1.0603,0.00486641,0.0261513,1924,953,27.0113,-3.04773
707,71,26.9232,3.41614,-0.00270705,0.00178381,0.00336985,0.00358781,-0.00451104,1.07928,0.00468599,0.0302414,1931,953,26.9232,-3.41617
714,71,25.8169,4.12494,0,0,0,0,0,0,0,-1,1938,953,25.8169,-4.12493
721,71,25.684,4.23224,-0.00258972,0.00198875,0.00239685,0.00301395,-0.00361492,1.16662,0.00383242,0.0327658,1945,953,25.6839,-4.23222
728,71,25.5734,4.4491,-0.00263727,0.00164401,0.00164041,0.00220027,-0.00319353,1.24387,0.00313167,0.0201579,1952,953,25.5734,-4.44909
735,71,25.5935,4.63184,-0.00295847,0.00111028,0.000812448,0.00126651,-0.0031147,1.38082,0.00260343,0.0141886,1959,953,25.5936,-4.63185
742,71,25.6051,4.78021,-0.00373557,0.00113902,8.06472e-05,0.00114036,-0.0037369,1.55426,0.0029459,0.0144498,1966,953,25.6051,-4.7802
749,71,25.5911,4.9259,-0.00485217,0.00151517,-0.00101863,0.00167416,-0.00501116,-1.41597,0.00401686,0.0163358,1973,953,25.5911,-4.92593
756,71,25.5895,5.05853,-0.0060205,0.00162968,-0.00260082,0.00243013,-0.00682095,-1.27223,0.00553802,0.0159864,1980,953,25.5895,-5.05852
763,71,25.5641,5.21655,-0.00770405,0.00192663,-0.00405021,0.00340349,-0.00918091,-1.22114,0.0075165,0.0132261,1987,953,25.5641,-5.21653
770,71,25.5159,5.37097,-0.00985041,0.00252912,-0.00540939,0.00455974,-0.011881,-1.21169,0.00980078,0.0145714,1994,953,25.5159,-5.37098
777,71,25.4146,5.51526,-0.0121079,0.00350878,-0.00694951,0.00615347,-0.0147526,-1.20716,0.0124058,0.0323046,2001,953,25.4146,-5.51525
784,71,25.2318,5.75867,-0.0143957,0.00492775,-0.00891835,0.00841463,-0.0178826,-1.19809,0.0155073,0.0444446,2008,953,25.2318,-5.75867
791,71,24.9315,6.21814,-0.0164773,0.0069173,-0.0115571,0.0116637,-0.0212236,-1.18111,0.0192531,0.0436178,2015,953,24.9315,-6.21811
798,71,24.6616,6.26849,-0.0180008,0.00974594,-0.0151908,0.0164452,-0.0247,-1.15545,0.023914,0.0448212,2022,953,24.6616,-6.26847
805,71,24.3638,5.72699,0,0,0,0,0,0,0,-1,2029,953,24.3638,-5.72699
812,71,0,0,0,0,0,0,0,0,0,-1,2036,953,0,0
-700,64,0,0,0,0,0,0,0,0,0,-1,524,960,0,0
-693,64,0,0,0,0,0,0,0,0,0,-1,531,960,0,0
-686,64,-14.589,3.6167,0,0,0,0,0,0,0,-1,538,960,-14.589,-3.61673
-679,64,-15.2758,3.53107,-0.0715763,0.0794999,0.0329415,0.0863702,-0.0784466,1.36518,0.0951937,0.0439042,545,960,-15.2758,-3.53109
-672,64,-16.3317,3.49011,-0.059009,0.0629616,0.028421,0.069259,-0.0653063,1.35274,0.0777025,0.0472249,552,960,-16.3317,-3.49009
-665,64,-17.1309,3.42944,-0.047515,0.048544,0.0239381,0.0541788,-0.0531499,1.33961,0.0619672,0.0451203,559,960,-17.1309,-3.42943
-658,64,-18.0699,3.14917,0,0,0,0,0,0,0,-1,566,960,-18.07,-3.14919
-651,64,-19.0835,2.59833,0,0,0,0,0,0,0,-1,573,960,-19.0835,-2.59832
-644,64,-18.2485,2.74731,-0.0207865,0.0185174,0.0121524,0.0219713,-0.0242403,1.29388,0.026691,0.0315655,580,960,-18.2485,-2.74731
-637,64,-18.1485,2.74207,-0.0145825,0.0129781,0.00851864,0.0153985,-0.0170029,1.29396,0.0187146,0.0154045,587,960,-18.1485,-2.74205
-630,64,-18.1705,2.65015,-0.0100514,0.00761525,0.00574574,0.00931954,-0.0117556,1.28245,0.0121948,0.0133453,594,960,-18.1705,-2.65012
-623,64,-18.1972,2.52344,-0.0067959,0.00359973,0.00363175,0.0047428,-0.00793897,1.26587,0.00739893,0.0139994,601,960,-18.1972,-2.52343
-616,64,-18.196,2.38141,-0.0047899,0.00114864,0.00157746,0.00154165,-0.00518291,1.32662,0.00406773,0.0164729,608,960,-18.1961,-2.38138
-609,64,-18.1743,2.2619,-0.00414866,0.000582009,-0.00043002,0.00062078,-0.00418743,-1.48088,0.00301989,0.015191,615,960,-18.1743,-2.26191
-602,64,-18.1544,2.12952,-0.00452645,0.00126794,-0.00121439,0.00151216,-0.00477067,-1.37234,0.00378652,0.017253,622,960,-18.1544,-2.12951
-595,64,-18.1628,2.00763,-0.0052277,0.00117468,-0.00142888,0.0014791,-0.00553212,-1.36089,0.00426743,0.0174801,629,960,-18.1628,-2.00765
-588,64,-18.1685,1.94141,-0.00562677,0.000939795,-0.00159037,0.00130469,-0.00599167,-1.34526,0.00449294,0.0242733,636,960,-18.1685,-1.94141
-581,64,-18.3907,1.58008,-0.00566161,0.000724021,-0.00163472,0.00111818,-0.00605577,-1.3342,0.00445691,0.0323871,643,960,-18.3907,-1.58008
-574,64,-18.7554,1.25665,-0.00549368,0.00063903,-0.00146619,0.000971533,-0.00582618,-1.34779,0.00424519,0.0356052,650,960,-18.7554,-1.25668
-567,64,-18.8209,1.18475,-0.00530682,0.000672151,-0.0011682,0.000892294,-0.00552697,-1.38453,0.00401526,0.0249995,657,960,-18.8209,-1.18474
-560,64,-18.8536,1.12561,-0.00467177,0.000706196,-0.000635838,0.000780349,-0.00474592,-1.4547,0.00345358,0.0336628,664,960,-18.8536,-1.1256
-553,64,-18.774,1.11597,-0.00362536,0.000810089,1.89906e-05,0.000810171,-0.00362544,1.56651,0.00272743,0.040488,671,960,-18.774,-1.11599
-546,64,-18.7722,1.50623,-0.0022118,0.000996798,0.000741059,0.00115968,-0.00237468,1.35443,0.00208037,0.0406276,678,960,-18.7722,-1.50624
-539,64,-19.0869,1.71155,-0.000478375,0.00129834,0.00143253,0.0020956,-0.00127564,1.06294,0.00196548,0.038612,685,960,-19.0869,-1.71158
-532,64,-18.9492,1.57581,0.0012357,0.00185735,0.00177257,0.00334614,-0.000253087,0.872192,0.00231973,0.0402987,692,960,-18.9491,-1.5758
-525,64,-18.7098,1.34998,0.0015364,0.0030317,0.00124922,0.00373991,0.000828189,1.05505,0.00226818,0.0416456,699,960,-18.7098,-1.34996
-518,64,0,0,0,0,0,0,0,0,0,-1,706,960,0,0
-511,64,0,0,0,0,0,0,0,0,0,-1,713,960,0,0
-504,64,0,0,0,0,0,0,0,0,0,-1,720,960,0,0
-497,64,0,0,0,0,0,0,0,0,0,-1,727,960,0,0
-490,64,0,0,0,0,0,0,0,0,0,-1,734,960,0,0
-483,64,0,0,0,0,0,0,0,0,0,-1,741,960,0,0
-476,64,0,0,0,0,0,0,0,0,0,-1,748,960,0,0
-469,64,0,0,0,0,0,0,0,0,0,-1,755,960,0,0
-462,64,0,0,0,0,0,0,0,0,0,-1,762,960,0,0
-455,64,0,0,0,0,0,0,0,0,0,-1,769,960,0,0
-448,64,0,0,0,0,0,0,0,0,0,-1,776,960,0,0
-441,64,0,0,0,0,0,0,0,0,0,-1,783,960,0,0
-434,64,0,0,0,0,0,0,0,0,0,-1,790,960,0,0
-427,64,0,0,0,0,0,0,0,0,0,-1,797,960,0,0
-420,64,0,0,0,0,0,0,0,0,0,-1,804,960,0,0
-413,64,0,0,0,0,0,0,0,0,0,-1,811,960,0,0
-406,64,0,0,0,0,0,0,0,0,0,-1,818,960,0,0
-399,64,0,0,0,0,0,0,0,0,0,-1,825,960,0,0
-392,64,0,0,0,0,0,0,0,0,0,-1,832,960,0,0
-385,64,0,0,0,0,0,0,0,0,0,-1,839,960,0,0
-378,64,0,0,0,0,0,0,0,0,0,-1,846,960,0,0
-371,64,0,0,0,0,0,0,0,0,0,-1,853,960,0,0
-364,64,0,0,0,0,0,0,0,0,0,-1,860,960,0,0
-357,64,0,0,0,0,0,0,0,0,0,-1,867,960,0,0
-350,64,0,0,0,0,0,0,0,0,0,-1,874,960,0,0
-343,64,0,0,0,0,0,0,0,0,0,-1,881,960,0,0
-336,64,0,0,0,0,0,0,0,0,0,-1,888,960,0,0
-329,64,0,0,0,0,0,0,0,0,0,-1,895,960,0,0
-322,64,0,0,0,0,0,0,0,0,0,-1,902,960,0,0
-315,64,0,0,0,0,0,0,0,0,0,-1,909,960,0,0
-308,64,0,0,0,0,0,0,0,0,0,-1,916,960,0,0
-301,64,0,0,0,0,0,0,0,0,0,-1,923,960,0,0
-294,64,0,0,0,0,0,0,0,0,0,-1,930,960,0,0
-287,64,0,0,0,0,0,0,0,0,0,-1,937,960,0,0
-280,64,0,0,0,0,0,0,0,0,0,-1,944,960,0,0
-273,64,0,0,0,0,0,0,0,0,0,-1,951,960,0,0
-266,64,0,0,0,0,0,0,0,0,0,-1,958,960,0,0
-259,64,0,0,0,0,0,0,0,0,0,-1,965,960,0,0
-252,64,0,0,0,0,0,0,0,0,0,-1,972,960,0,0
-245,64,0,0,0,0,0,0,0,0,0,-1,979,960,0,0
-238,64,0,0,0,0,0,0,0,0,0,-1,986,960,0,0
-231,64,0,0,0,0,0,0,0,0,0,-1,993,960,0,0
-224,64,0,0,0,0,0,0,0,0,0,-1,1000,960,0,0
-217,64,0,0,0,0,0,0,0,0,0,-1,1007,960,0,0
-210,64,0,0,0,0,0,0,0,0,0,-1,1014,960,0,0
-203,64,0,0,0,0,0,0,0,0,0,-1,1021,960,0,0
-196,64,0,0,0,0,0,0,0,0,0,-1,1028,960,0,0
-189,64,0,0,0,0,0,0,0,0,0,-1,1035,960,0,0
-182,64,0,0,0,0,0,0,0,0,0,-1,1042,960,0,0
-175,64,0,0,0,0,0,0,0,0,0,-1,1049,960,0,0
-168,64,0,0,0,0,0,0,0,0,0,-1,1056,960,0,0
-161,64,0,0,0,0,0,0,0,0,0,-1,1063,960,0,0
-154,64,0,0,0,0,0,0,0,0,0,-1,1070,960,0,0
-147,64,0,0,0,0,0,0,0,0,0,-1,1077,960,0,0
-140,64,0,0,0,0,0,0,0,0,0,-1,1084,960,0,0
-133,64,0,0,0,0,0,0,0,0,0,-1,1091,960,0,0
-126,64,0,0,0,0,0,0,0,0,0,-1,1098,960,0,0
-119,64,0,0,0,0,0,0,0,0,0,-1,1105,960,0,0
-112,64,0,0,0,0,0,0,0,0,0,-1,1112,960,0,0
-105,64,0,0,0,0,0,0,0,0,0,-1,1119,960,0,0
-98,64,0,0,0,0,0,0,0,0,0,-1,1126,960,0,0
-91,64,0,0,0,0,0,0,0,0,0,-1,1133,960,0,0
-84,64,0,0,0,0,0,0,0,0,0,-1,1140,960,0,0
-77,64,0,0,0,0,0,0,0,0,0,-1,1147,960,0,0
-70,64,0,0,0,0,0,0,0,0,0,-1,1154,960,0,0
-63,64,0,0,0,0,0,0,0,0,0,-1,1161,960,0,0
-56,64,0,0,0,0,0,0,0,0,0,-1,1168,960,0,0
-49,64,0,0,0,0,0,0,0,0,0,-1,1175,960,0,0
-42,64,0,0,0,0,0,0,0,0,0,-1,1182,960,0,0
-35,64,0,0,0,0,0,0,0,0,0,-1,1189,960,0,0
-28,64,0,0,0,0,0,0,0,0,0,-1,1196,960,0,0
-21,64,0,0,0,0,0,0,0,0,0,-1,1203,960,0,0
-14,64,0,0,0,0,0,0,0,0,0,-1,1210,960,0,0
-7,64,0,0,0,0,0,0,0,0,0,-1,1217,960,0,0
0,64,0,0,0,0,0,0,0,0,0,-1,1224,960,0,0
7,64,0,0,0,0,0,0,0,0,0,-1,1231,960,0,0
14,64,0,0,0,0,0,0,0,0,0,-1,1238,960,0,0
21,64,0,0,0,0,0,0,0,0,0,-1,1245,960,0,0
28,64,0,0,0,0,0,0,0,0,0,-1,1252,960,0,0
35,64,0,0,0,0,0,0,0,0,0,-1,1259,960,0,0
42,64,0,0,0,0,0,0,0,0,0,-1,1266,960,0,0
49,64,0,0,0,0,0,0,0,0,0,-1,1273,960,0,0
56,64,0,0,0,0,0,0,0,0,0,-1,1280,960,0,0
63,64,0,0,0,0,0,0,0,0,0,-1,1287,960,0,0
70,64,0,0,0,0,0,0,0,0,0,-1,1294,960,0,0
77,64,0,0,0,0,0,0,0,0,0,-1,1301,960,0,0
84,64,0,0,0,0,0,0,0,0,0,-1,1308,960,0,0
91,64,0,0,0,0,0,0,0,0,0,-1,1315,960,0,0
98,64,0,0,0,0,0,0,0,0,0,-1,1322,960,0,0
105,64,0,0,0,0,0,0,0,0,0,-1,1329,960,0,0
112,64,0,0,0,0,0,0,0,0,0,-1,1336,960,0,0
119,64,0,0,0,0,0,0,0,0,0,-1,1343,960,0,0
126,64,0,0,0,0,0,0,0,0,0,-1,1350,960,0,0
133,64,0,0,0,0,0,0,0,0,0,-1,1357,960,0,0
140,64,0,0,0,0,0,0,0,0,0,-1,1364,960,0,0
147,64,0,0,0,0,0,0,0,0,0,-1,1371,960,0,0
154,64,0,0,0,0,0,0,0,0,0,-1,1378,960,0,0
161,64,0,0,0,0,0,0,0,0,0,-1,1385,960,0,0
168,64,0,0,0,0,0,0,0,0,0,-1,1392,960,0,0
175,64,0,0,0,0,0,0,0,0,0,-1,1399,960,0,0
182,64,0,0,0,0,0,0,0,0,0,-1,1406,960,0,0
189,64,0,0,0,0,0,0,0,0,0,-1,1413,960,0,0
196,64,0,0,0,0,0,0,0,0,0,-1,1420,960,0,0
203,64,0,0,0,0,0,0,0,0,0,-1,1427,960,0,0
210,64,0,0,0,0,0,0,0,0,0,-1,1434,960,0,0
217,64,0,0,0,0,0,0,0,0,0,-1,1441,960,0,0
224,64,0,0,0,0,0,0,0,0,0,-1,1448,960,0,0
231,64,0,0,0,0,0,0,0,0,0,-1,1455,960,0,0
238,64,0,0,0,0,0,0,0,0,0,-1,1462,960,0,0
245,64,0,0,0,0,0,0,0,0,0,-1,1469,960,0,0
252,64,0,0,0,0,0,0,0,0,0,-1,1476,960,0,0
259,64,0,0,0,0,0,0,0,0,0,-1,1483,960,0,0
266,64,0,0,0,0,0,0,0,0,0,-1,1490,960,0,0
273,64,0,0,0,0,0,0,0,0,0,-1,1497,960,0,0
280,64,0,0,0,0,0,0,0,0,0,-1,1504,960,0,0
287,64,0,0,0,0,0,0,0,0,0,-1,1511,960,0,0
294,64,0,0,0,0,0,0,0,0,0,-1,1518,960,0,0
301,64,0,0,0,0,0,0,0,0,0,-1,1525,960,0,0
308,64,0,0,0,0,0,0,0,0,0,-1,1532,960,0,0
315,64,0,0,0,0,0,0,0,0,0,-1,1539,960,0,0
322,64,0,0,0,0,0,0,0,0,0,-1,1546,960,0,0
329,64,0,0,0,0,0,0,0,0,0,-1,1553,960,0,0
336,64,0,0,0,0,0,0,0,0,0,-1,1560,960,0,0
343,64,0,0,0,0,0,0,0,0,0,-1,1567,960,0,0
350,64,0,0,0,0,0,0,0,0,0,-1,1574,960,0,0
357,64,0,0,0,0,0,0,0,0,0,-1,1581,960,0,0
364,64,0,0,0,0,0,0,0,0,0,-1,1588,960,0,0
371,64,0,0,0,0,0,0,0,0,0,-1,1595,960,0,0
378,64,0,0,0,0,0,0,0,0,0,-1,1602,960,0,0
385,64,0,0,0,0,0,0,0,0,0,-1,1609,960,0,0
392,64,0,0,0,0,0,0,0,0,0,-1,1616,960,0,0
399,64,0,0,0,0,0,0,0,0,0,-1,1623,960,0,0
406,64,0,0,0,0,0,0,0,0,0,-1,1630,960,0,0
413,64,0,0,0,0,0,0,0,0,0,-1,1637,960,0,0
420,64,0,0,0,0,0,0,0,0,0,-1,1644,960,0,0
427,64,0,0,0,0,0,0,0,0,0,-1,1651,960,0,0
434,64,0,0,0,0,0,0,0,0,0,-1,1658,960,0,0
441,64,0,0,0,0,0,0,0,0,0,-1,1665,960,0,0
448,64,0,0,0,0,0,0,0,0,0,-1,1672,960,0,0
455,64,0,0,0,0,0,0,0,0,0,-1,1679,960,0,0
462,64,0,0,0,0,0,0,0,0,0,-1,1686,960,0,0
469,64,0,0,0,0,0,0,0,0,0,-1,1693,960,0,0
476,64,0,0,0,0,0,0,0,0,0,-1,1700,960,0,0
483,64,0,0,0,0,0,0,0,0,0,-1,1707,960,0,0
490,64,0,0,0,0,0,0,0,0,0,-1,1714,960,0,0
497,64,0,0,0,0,0,0,0,0,0,-1,1721,960,0,0
504,64,0,0,0,0,0,0,0,0,0,-1,1728,960,0,0
511,64,0,0,0,0,0,0,0,0,0,-1,1735,960,0,0
518,64,0,0,0,0,0,0,0,0,0,-1,1742,960,0,0
525,64,0,0,0,0,0,0,0,0,0,-1,1749,960,0,0
532,64,0,0,0,0,0,0,0,0,0,-1,1756,960,0,0
539,64,0,0,0,0,0,0,0,0,0,-1,1763,960,0,0
546,64,0,0,0,0,0,0,0,0,0,-1,1770,960,0,0
553,64,0,0,0,0,0,0,0,0,0,-1,1777,960,0,0
560,64,0,0,0,0,0,0,0,0,0,-1,1784,960,0,0
567,64,0,0,0,0,0,0,0,0,0,-1,1791,960,0,0
574,64,0,0,0,0,0,0,0,0,0,-1,1798,960,0,0
581,64,0,0,0,0,0,0,0,0,0,-1,1805,960,0,0
588,64,0,0,0,0,0,0,0,0,0,-1,1812,960,0,0
595,64,0,0,0,0,0,0,0,0,0,-1,1819,960,0,0
602,64,0,0,0,0,0,0,0,0,0,-1,1826,960,0,0
609,64,0,0,0,0,0,0,0,0,0,-1,1833,960,0,0
616,64,0,0,0,0,0,0,0,0,0,-1,1840,960,0,0
623,64,0,0,0,0,0,0,0,0,0,-1,1847,960,0,0
630,64,0,0,0,0,0,0,0,0,0,-1,1854,960,0,0
637,64,0,0,0,0,0,0,0,0,0,-1,1861,960,0,0
644,64,26.8866,2.96497,0.00342653,0.00407662,0.000568456,0.0044064,0.00309675,1.04511,0.00261285,0.042502,1868,960,26.8865,-2.96498
651,64,27.0735,3.10815,0.0020057,0.00300459,0.000838149,0.00348082,0.00152947,1.05409,0.00201456,0.040915,1875,960,27.0735,-3.10815
658,64,27.0548,3.22638,0.000831893,0.00232255,0.00122233,0.00300886,0.000145577,1.05918,0.00195919,0.0384681,1882,960,27.0548,-3.22638
665,64,27.0403,3.2384,-0.000300627,0.00210639,0.00193093,0.00317817,-0.0013724,1.06408,0.00269534,0.0437854,1889,960,27.0402,-3.23838
672,64,27.1107,3.10681,-0.00121278,0.00210883,0.00270176,0.00361942,-0.00272337,1.06098,0.00367418,0.044971,1896,960,27.1107,-3.10679
679,64,27.0586,3.03143,-0.00185618,0.00214683,0.00331898,0.00402111,-0.00373045,1.05673,0.00447642,0.0387733,1903,960,27.0585,-3.03141
686,64,27.0895,3.12042,-0.00218222,0.00212523,0.00368939,0.00424352,-0.00430051,1.0496,0.00493294,0.0364005,1910,960,27.0894,-3.12042
693,64,27.0421,3.09491,-0.00230559,0.00211142,0.00388589,0.00437255,-0.00456672,1.04381,0.0051615,0.0328851,1917,960,27.0421,-3.09493
700,64,27.0281,3.07086,-0.00256986,0.00204214,0.0038852,0.00425415,-0.00478187,1.05322,0.00521991,0.0267881,1924,960,27.028,-3.07087
707,64,26.9784,3.34393,-0.00269255,0.00206912,0.00366597,0.00405953,-0.00468295,1.07339,0.00505175,0.0331526,1931,960,26.9784,-3.34392
714,64,26.5851,3.9278,0,0,0,0,0,0,0,-1,1938,960,26.585,-3.92778
721,64,25.7587,4.29413,0,0,0,0,0,0,0,-1,1945,960,25.7587,-4.29414
728,64,25.7092,4.49017,-0.00270792,0.00207698,0.0020868,0.0028592,-0.00349014,1.21216,0.00367182,0.0161478,1952,960,25.7092,-4.49014
735,64,25.7234,4.65472,-0.0031032,0.00174733,0.00128577,0.00206708,-0.00342295,1.32706,0.00320173,0.0197765,1959,960,25.7234,-4.65471
742,64,25.7792,4.77802,-0.00380555,0.00193973,0.000408019,0.00196856,-0.00383438,1.50025,0.00340757,0.0171047,1966,960,25.7792,-4.778
749,64,25.7421,4.91321,-0.00472508,0.00250495,-0.00089623,0.00261439,-0.00483452,-1.44929,0.00436384,0.0132307,1973,960,25.7421,-4.91318
756,64,25.7385,5.0448,-0.00562715,0.0028904,-0.00270654,0.00367766,-0.00641441,-1.28773,0.00589764,0.0138291,1980,960,25.7385,-5.04477
763,64,25.7273,5.17767,-0.00692808,0.00357861,-0.00456816,0.005287,-0.00863647,-1.21292,0.00811588,0.0122374,1987,960,25.7272,-5.17769
770,64,25.6814,5.32935,-0.00858795,0.00471667,-0.00652186,0.00738036,-0.0112516,-1.18305,0.0108343,0.012268,1994,960,25.6813,-5.32936
777,64,25.6063,5.47437,-0.010229,0.00632159,-0.00881976,0.0101405,-0.0140478,-1.16218,0.0140257,0.0285302,2001,960,25.6064,-5.47436
784,64,25.5228,5.63995,-0.0117174,0.00838593,-0.011784,0.013823,-0.0171544,-1.13851,0.0179192,0.043769,2008,960,25.5228,-5.63995
791,64,25.1705,5.96832,-0.0127612,0.0109861,-0.015726,0.0188176,-0.0205927,-1.10876,0.0227612,0.0466479,2015,960,25.1705,-5.9683
798,64,24.7695,6.32184,-0.0129381,0.0142935,-0.0210177,0.0257203,-0.0243649,-1.07282,0.0289202,0.0456109,2022,960,24.7695,-6.32186
805,64,24.5854,6.56287,0,0,0,0,0,0,0,-1,2029,960,24.5854,-6.5629
812,64,0,0,0,0,0,0,0,0,0,-1,2036,960,0,0
-700,57,0,0,0,0,0,0,0,0,0,-1,524,967,0,0
-693,57,0,0,0,0,0,0,0,0,0,-1,531,967,0,0
-686,57,-15.6487,1.18359,-0.0863068,0.103551,0.049869,0.115853,-0.0986086,1.32894,0.123953,0.044706,538,967,-15.6488,-1.18357
-679,57,-16.0848,0.965027,-0.0731479,0.0843903,0.0438361,0.0957665,-0.0845241,1.31688,0.104158,0.0460591,545,967,-16.0848,-0.96504
-672,57,-16.7856,0.792969,-0.0606446,0.067037,0.0376827,0.0773288,-0.0709364,1.30418,0.0856274,0.0457277,552,967,-16.7856,-0.792989
-665,57,-17.6375,3.19067,-0.049114,0.0518993,0.0316089,0.060975,-0.0581896,1.2912,0.0688059,0.048234,559,967,-17.6375,-3.19069
-658,57,-18.9697,2.78168,0,0,0,0,0,0,0,-1,566,967,-18.9697,-2.7817
-651,57,-18.9482,2.34943,-0.0296752,0.0286,0.0204712,0.0350724,-0.0361476,1.26457,0.0411204,0.0417607,573,967,-18.9482,-2.34941
-644,57,-18.3259,2.66333,-0.0219542,0.0202609,0.0156912,0.0254543,-0.0271477,1.25117,0.030375,0.0300178,580,967,-18.3258,-2.66331
-637,57,-18.2698,2.68329,-0.0156644,0.01444,0.0108409,0.0179375,-0.019162,1.25871,0.0214233,0.0161671,587,967,-18.2698,-2.6833
-630,57,-18.3159,2.60815,-0.0109488,0.00862206,0.00711238,0.0109338,-0.0132605,1.25654,0.0139901,0.0137151,594,967,-18.3159,-2.60815
-623,57,-18.3184,2.51129,-0.00741878,0.00442662,0.00419951,0.00576438,-0.00875654,1.26241,0.00844277,0.0131947,601,967,-18.3184,-2.51132
-616,57,-18.314,2.39288,-0.00510851,0.00186986,0.0016583,0.00224388,-0.00548253,1.34896,0.00458962,0.0143538,608,967,-18.314,-2.39286
-609,57,-18.321,2.25195,-0.00414513,0.00109269,-0.000586327,0.00115752,-0.00420997,-1.46067,0.00326168,0.0135616,615,967,-18.321,-2.25196
-602,57,-18.3154,2.13153,-0.00431909,0.0016986,-0.00161757,0.00210585,-0.00472634,-1.32416,0.00404012,0.0112258,622,967,-18.3154,-2.13152
-595,57,-18.2993,2.04224,-0.00487816,0.00150573,-0.00196471,0.00206193,-0.00543436,-1.29492,0.00447159,0.0124171,629,967,-18.2992,-2.04225
-588,57,-18.324,2.01862,-0.00522048,0.00125085,-0.00217804,0.00191562,-0.00588525,-1.27456,0.00469419,0.0185797,636,967,-18.324,-2.01859
-581,57,-18.5618,1.57758,-0.00521685,0.00104057,-0.00217314,0.00172124,-0.00589752,-1.26726,0.00461372,0.0276725,643,967,-18.5618,-1.57758
-574,57,-18.8485,1.09521,0,0,0,0,0,0,0,-1,650,967,-18.8485,-1.09521
-567,57,-18.8054,1.16144,-0.0047395,0.00102191,-0.00144147,0.00136243,-0.00508002,-1.33882,0.00392054,0.0322801,657,967,-18.8054,-1.16142
-560,57,-18.7971,1.19672,-0.00402919,0.00106993,-0.000711237,0.00116728,-0.00412653,-1.43477,0.00321162,0.0407597,664,967,-18.7971,-1.19669
-553,57,-18.7339,1.03528,-0.00288814,0.00118094,0.000192021,0.00118998,-0.00289718,1.52375,0.00242737,0.0408122,671,967,-18.7339,-1.03529
-546,57,-18.7488,1.41553,-0.00135445,0.0013668,0.00121123,0.00182781,-0.00181547,1.20711,0.00210345,0.0413313,678,967,-18.7488,-1.41552
-539,57,-18.9813,1.71973,0.000534566,0.00166279,0.00223483,0.0034036,-0.00120625,0.909025,0.00276044,0.0436491,685,967,-18.9812,-1.71973
-532,57,-18.9346,1.51715,0.00237381,0.00226368,0.00288441,0.00520368,-0.000566192,0.775854,0.00367243,0.0419893,692,967,-18.9346,-1.51715
-525,57,-18.7653,1.17627,0.00277885,0.00352487,0.00266354,0.00584139,0.000462337,0.854967,0.00374966,0.0405889,699,967,-18.7653,-1.17629
-518,57,0,0,0,0,0,0,0,0,0,-1,706,967,0,0
-511,57,0,0,0,0,0,0,0,0,0,-1,713,967,0,0
-504,57,0,0,0,0,0,0,0,0,0,-1,720,967,0,0
-497,57,0,0,0,0,0,0,0,0,0,-1,727,967,0,0
-490,57,0,0,0,0,0,0,0,0,0,-1,734,967,0,0
-483,57,0,0,0,0,0,0,0,0,0,-1,741,967,0,0
-476,57,0,0,0,0,0,0,0,0,0,-1,748,967,0,0
-469,57,0,0,0,0,0,0,0,0,0,-1,755,967,0,0
-462,57,0,0,0,0,0,0,0,0,0,-1,762,967,0,0
-455,57,0,0,0,0,0,0,0,0,0,-1,769,967,0,0
-448,57,0,0,0,0,0,0,0,0,0,-1,776,967,0,0
-441,57,0,0,0,0,0,0,0,0,0,-1,783,967,0,0
-434,57,0,0,0,0,0,0,0,0,0,-1,790,967,0,0
-427,57,0,0,0,0,0,0,0,0,0,-1,797,967,0,0
-420,57,0,0,0,0,0,0,0,0,0,-1,804,967,0,0
-413,57,0,0,0,0,0,0,0,0,0,-1,811,967,0,0
-406,57,0,0,0,0,0,0,0,0,0,-1,818,967,0,0
-399,57,0,0,0,0,0,0,0,0,0,-1,825,967,0,0
-392,57,0,0,0,0,0,0,0,0,0,-1,832,967,0,0
-385,57,0,0,0,0,0,0,0,0,0,-1,839,967,0,0
-378,57,0,0,0,0,0,0,0,0,0,-1,846,967,0,0
-371,57,0,0,0,0,0,0,0,0,0,-1,853,967,0,0
-364,57,0,0,0,0,0,0,0,0,0,-1,860,967,0,0
-357,57,0,0,0,0,0,0,0,0,0,-1,867,967,0,0
-350,57,0,0,0,0,0,0,0,0,0,-1,874,967,0,0
-343,57,0,0,0,0,0,0,0,0,0,-1,881,967,0,0
-336,57,0,0,0,0,0,0,0,0,0,-1,888,967,0,0
-329,57,0,0,0,0,0,0,0,0,0,-1,895,967,0,0
-322,57,0,0,0,0,0,0,0,0,0,-1,902,967,0,0
-315,57,0,0,0,0,0,0,0,0,0,-1,909,967,0,0
-308,57,0,0,0,0,0,0,0,0,0,-1,916,967,0,0
-301,57,0,0,0,0,0,0,0,0,0,-1,923,967,0,0
-294,57,0,0,0,0,0,0,0,0,0,-1,930,967,0,0
-287,57,0,0,0,0,0,0,0,0,0,-1,937,967,0,0
-280,57,0,0,0,0,0,0,0,0,0,-1,944,967,0,0
-273,57,0,0,0,0,0,0,0,0,0,-1,951,967,0,0
-266,57,0,0,0,0,0,0,0,0,0,-1,958,967,0,0
-259,57,0,0,0,0,0,0,0,0,0,-1,965,967,0,0
-252,57,0,0,0,0,0,0,0,0,0,-1,972,967,0,0
-245,57,0,0,0,0,0,0,0,0,0,-1,979,967,0,0
-238,57,0,0,0,0,0,0,0,0,0,-1,986,967,0,0
-231,57,0,0,0,0,0,0,0,0,0,-1,993,967,0,0
-224,57,0,0,0,0,0,0,0,0,0,-1,1000,967,0,0
-217,57,0,0,0,0,0,0,0,0,0,-1,1007,967,0,0
-210,57,0,0,0,0,0,0,0,0,0,-1,1014,967,0,0
-203,57,0,0,0,0,0,0,0,0,0,-1,1021,967,0,0
-196,57,0,0,0,0,0,0,0,0,0,-1,1028,967,0,0
-189,57,0,0,0,0,0,0,0,0,0,-1,1035,967,0,0
-182,57,0,0,0,0,0,0,0,0,0,-1,1042,967,0,0
-175,57,0,0,0,0,0,0,0,0,0,-1,1049,967,0,0
-168,57,0,0,0,0,0,0,0,0,0,-1,1056,967,0,0
-161,57,0,0,0,0,0,0,0,0,0,-1,1063,967,0,0
-154,57,0,0,0,0,0,0,0,0,0,-1,1070,967,0,0
-147,57,0,0,0,0,0,0,0,0,0,-1,1077,967,0,0
-140,57,0,0,0,0,0,0,0,0,0,-1,1084,967,0,0
-133,57,0,0,0,0,0,0,0,0,0,-1,1091,967,0,0
-126,57,0,0,0,0,0,0,0,0,0,-1,1098,967,0,0
-119,57,0,0,0,0,0,0,0,0,0,-1,1105,967,0,0
-112,57,0,0,0,0,0,0,0,0,0,-1,1112,967,0,0
-105,57,0,0,0,0,0,0,0,0,0,-1,1119,967,0,0
-98,57,0,0,0,0,0,0,0,0,0,-1,1126,967,0,0
-91,57,0,0,0,0,0,0,0,0,0,-1,1133,967,0,0
-84,57,0,0,0,0,0,0,0,0,0,-1,1140,967,0,0
-77,57,0,0,0,0,0,0,0,0,0,-1,1147,967,0,0
-70,57,0,0,0,0,0,0,0,0,0,-1,1154,967,0,0
-63,57,0,0,0,0,0,0,0,0,0,-1,1161,967,0,0
-56,57,0,0,0,0,0,0,0,0,0,-1,1168,967,0,0
-49,57,0,0,0,0,0,0,0,0,0,-1,1175,967,0,0
-42,57,0,0,0,0,0,0,0,0,0,-1,1182,967,0,0
-35,57,0,0,0,0,0,0,0,0,0,-1,1189,967,0,0
-28,57,0,0,0,0,0,0,0,0,0,-1,1196,967,0,0
-21,57,0,0,0,0,0,0,0,0,0,-1,1203,967,0,0
-14,57,0,0,0,0,0,0,0,0,0,-1,1210,967,0,0
-7,57,0,0,0,0,0,0,0,0,0,-1,1217,967,0,0
0,57,0,0,0,0,0,0,0,0,0,-1,1224,967,0,0
7,57,0,0,0,0,0,0,0,0,0,-1,1231,967,0,0
14,57,0,0,0,0,0,0,0,0,0,-1,1238,967,0,0
21,57,0,0,0,0,0,0,0,0,0,-1,1245,967,0,0
28,57,0,0,0,0,0,0,0,0,0,-1,1252,967,0,0
35,57,0,0,0,0,0,0,0,0,0,-1,1259,967,0,0
42,57,0,0,0,0,0,0,0,0,0,-1,1266,967,0,0
49,57,0,0,0,0,0,0,0,0,0,-1,1273,967,0,0
56,57,0,0,0,0,0,0,0,0,0,-1,1280,967,0,0
63,57,0,0,0,0,0,0,0,0,0,-1,1287,967,0,0
70,57,0,0,0,0,0,0,0,0,0,-1,1294,967,0,0
77,57,0,0,0,0,0,0,0,0,0,-1,1301,967,0,0
84,57,0,0,0,0,0,0,0,0,0,-1,1308,967,0,0
91,57,0,0,0,0,0,0,0,0,0,-1,1315,967,0,0
98,57,0,0,0,0,0,0,0,0,0,-1,1322,967,0,0
105,57,0,0,0,0,0,0,0,0,0,-1,1329,967,0,0
112,57,0,0,0,0,0,0,0,0,0,-1,1336,967,0,0
119,57,0,0,0,0,0,0,0,0,0,-1,1343,967,0,0
126,57,0,0,0,0,0,0,0,0,0,-1,1350,967,0,0
133,57,0,0,0,0,0,0,0,0,0,-1,1357,967,0,0
140,57,0,0,0,0,0,0,0,0,0,-1,1364,967,0,0
147,57,0,0,0,0,0,0,0,0,0,-1,1371,967,0,0
154,57,0,0,0,0,0,0,0,0,0,-1,1378,967,0,0
161,57,0,0,0,0,0,0,0,0,0,-1,1385,967,0,0
168,57,0,0,0,0,0,0,0,0,0,-1,1392,967,0,0
175,57,0,0,0,0,0,0,0,0,0,-1,1399,967,0,0
182,57,0,0,0,0,0,0,0,0,0,-1,1406,967,0,0
189,57,0,0,0,0,0,0,0,0,0,-1,1413,967,0,0
196,57,0,0,0,0,0,0,0,0,0,-1,1420,967,0,0
203,57,0,0,0,0,0,0,0,0,0,-1,1427,967,0,0
210,57,0,0,0,0,0,0,0,0,0,-1,1434,967,0,0
217,57,0,0,0,0,0,0,0,0,0,-1,1441,967,0,0
224,57,0,0,0,0,0,0,0,0,0,-1,1448,967,0,0
231,57,0,0,0,0,0,0,0,0,0,-1,1455,967,0,0
238,57,0,0,0,0,0,0,0,0,0,-1,1462,967,0,0
245,57,0,0,0,0,0,0,0,0,0,-1,1469,967,0,0
252,57,0,0,0,0,0,0,0,0,0,-1,1476,967,0,0
259,57,0,0,0,0,0,0,0,0,0,-1,1483,967,0,0
266,57,0,0,0,0,0,0,0,0,0,-1,1490,967,0,0
273,57,0,0,0,0,0,0,0,0,0,-1,1497,967,0,0
280,57,0,0,0,0,0,0,0,0,0,-1,1504,967,0,0
287,57,0,0,0,0,0,0,0,0,0,-1,1511,967,0,0
294,57,0,0,0,0,0,0,0,0,0,-1,1518,967,0,0
301,57,0,0,0,0,0,0,0,0,0,-1,1525,967,0,0
308,57,0,0,0,0,0,0,0,0,0,-1,1532,967,0,0
315,57,0,0,0,0,0,0,0,0,0,-1,1539,967,0,0
322,57,0,0,0,0,0,0,0,0,0,-1,1546,967,0,0
329,57,0,0,0,0,0,0,0,0,0,-1,1553,967,0,0
336,57,0,0,0,0,0,0,0,0,0,-1,1560,967,0,0
343,57,0,0,0,0,0,0,0,0,0,-1,1567,967,0,0
350,57,0,0,0,0,0,0,0,0,0,-1,1574,967,0,0
357,57,0,0,0,0,0,0,0,0,0,-1,1581,967,0,0
364,57,0,0,0,0,0,0,0,0,0,-1,1588,967,0,0
371,57,0,0,0,0,0,0,0,0,0,-1,1595,967,0,0
378,57,0,0,0,0,0,0,0,0,0,-1,1602,967,0,0
385,57,0,0,0,0,0,0,0,0,0,-1,1609,967,0,0
392,57,0,0,0,0,0,0,0,0,0,-1,1616,967,0,0
399,57,0,0,0,0,0,0,0,0,0,-1,1623,967,0,0
406,57,0,0,0,0,0,0,0,0,0,-1,1630,967,0,0
413,57,0,0,0,0,0,0,0,0,0,-1,1637,967,0,0
420,57,0,0,0,0,0,0,0,0,0,-1,1644,967,0,0
427,57,0,0,0,0,0,0,0,0,0,-1,1651,967,0,0
434,57,0,0,0,0,0,0,0,0,0,-1,1658,967,0,0
441,57,0,0,0,0,0,0,0,0,0,-1,1665,967,0,0
448,57,0,0,0,0,0,0,0,0,0,-1,1672,967,0,0
455,57,0,0,0,0,0,0,0,0,0,-1,1679,967,0,0
462,57,0,0,0,0,0,0,0,0,0,-1,1686,967,0,0
469,57,0,0,0,0,0,0,0,0,0,-1,1693,967,0,0
476,57,0,0,0,0,0,0,0,0,0,-1,1700,967,0,0
483,57,0,0,0,0,0,0,0,0,0,-1,1707,967,0,0
490,57,0,0,0,0,0,0,0,0,0,-1,1714,967,0,0
497,57,0,0,0,0,0,0,0,0,0,-1,1721,967,0,0
504,57,0,0,0,0,0,0,0,0,0,-1,1728,967,0,0
511,57,0,0,0,0,0,0,0,0,0,-1,1735,967,0,0
518,57,0,0,0,0,0,0,0,0,0,-1,1742,967,0,0
525,57,0,0,0,0,0,0,0,0,0,-1,1749,967,0,0
532,57,0,0,0,0,0,0,0,0,0,-1,1756,967,0,0
539,57,0,0,0,0,0,0,0,0,0,-1,1763,967,0,0
546,57,0,0,0,0,0,0,0,0,0,-1,1770,967,0,0
553,57,0,0,0,0,0,0,0,0,0,-1,1777,967,0,0
560,57,0,0,0,0,0,0,0,0,0,-1,1784,967,0,0
567,57,0,0,0,0,0,0,0,0,0,-1,1791,967,0,0
574,57,0,0,0,0,0,0,0,0,0,-1,1798,967,0,0
581,57,0,0,0,0,0,0,0,0,0,-1,1805,967,0,0
588,57,0,0,0,0,0,0,0,0,0,-1,1812,967,0,0
595,57,0,0,0,0,0,0,0,0,0,-1,1819,967,0,0
602,57,0,0,0,0,0,0,0,0,0,-1,1826,967,0,0
609,57,0,0,0,0,0,0,0,0,0,-1,1833,967,0,0
616,57,0,0,0,0,0,0,0,0,0,-1,1840,967,0,0
623,57,0,0,0,0,0,0,0,0,0,-1,1847,967,0,0
630,57,0,0,0,0,0,0,0,0,0,-1,1854,967,0,0
637,57,0,0,0,0,0,0,0,0,0,-1,1861,967,0,0
644,57,27.007,2.91418,0.00356677,0.00353172,0.000977282,0.00452668,0.00257181,0.776435,0.00262156,0.0418866,1868,967,27.0069,-2.91421
651,57,27.0361,2.99133,0.00204039,0.00265552,0.00117296,0.00356057,0.00113535,0.913618,0.00210018,0.0339678,1875,967,27.0362,-2.99133
658,57,27.0732,3.23206,0.000931125,0.00206447,0.00142461,0.00303097,-3.5378e-05,0.974691,0.00203254,0.0343352,1882,967,27.0733,-3.23204
665,57,26.9885,3.25714,-7.11384e-05,0.0019188,0.00202963,0.00318422,-0.00133656,1.0133,0.00268175,0.0455008,1889,967,26.9885,-3.25712
672,57,27.1091,2.91479,-0.000852569,0.00201655,0.0027626,0.00369486,-0.00253088,1.02487,0.00361531,0.0465584,1896,967,27.1091,-2.91477
679,57,27.0752,3.05017,-0.0014259,0.00214008,0.00338686,0.00418461,-0.00347043,1.02769,0.00442604,0.0401877,1903,967,27.0752,-3.05018
686,57,27.0406,3.1394,-0.00173331,0.00219745,0.00379909,0.00450943,-0.00404528,1.02411,0.00494149,0.0372744,1910,967,27.0407,-3.13941
693,57,26.9813,3.12469,-0.00187479,0.00222907,0.00403088,0.00470023,-0.00434596,1.02083,0.00522416,0.0305126,1917,967,26.9813,-3.12471
700,57,27.0234,3.09943,-0.00217053,0.00219386,0.00404793,0.00461033,-0.004587,1.03261,0.00531009,0.0218578,1924,967,27.0234,-3.0994
707,57,26.9922,3.34589,-0.00231142,0.00223589,0.00383749,0.0044227,-0.00449824,1.05284,0.00515057,0.0359166,1931,967,26.9922,-3.34587
714,57,26.8425,4.11395,0,0,0,0,0,0,0,-1,1938,967,26.8426,-4.11393
721,57,25.9894,4.32764,0,0,0,0,0,0,0,-1,1945,967,25.9894,-4.32765
728,57,25.8708,4.51331,-0.00251713,0.00248691,0.00246909,0.00350007,-0.0035303,1.18141,0.004059,0.0215909,1952,967,25.8709,-4.51333
735,57,25.9021,4.65179,-0.00306839,0.00246183,0.00171202,0.00294893,-0.00355548,1.29361,0.00376076,0.0225504,1959,967,25.9021,-4.65177
742,57,25.9366,4.76666,-0.00387177,0.00286222,0.000712564,0.00293679,-0.00394634,1.46652,0.0039882,0.0162129,1966,967,25.9366,-4.76668
749,57,25.901,4.8985,-0.00484543,0.00366409,-0.000729653,0.0037262,-0.00490754,-1.48588,0.00500022,0.0128588,1973,967,25.9009,-4.89847
756,57,25.8657,5.00842,-0.0057235,0.00438418,-0.00267779,0.00504977,-0.00638909,-1.32717,0.0066193,0.0104569,1980,967,25.8657,-5.00842
763,57,25.8612,5.12909,-0.00699402,0.00549839,-0.00484214,0.00715544,-0.00865107,-1.24107,0.0091395,0.0102408,1987,967,25.8613,-5.12909
770,57,25.8563,5.255,-0.00861519,0.00715492,-0.00728863,0.0100076,-0.0114678,-1.19774,0.0124084,0.0106268,1994,967,25.8564,-5.25499
777,57,25.7781,5.34705,-0.0101982,0.00926817,-0.010215,0.0136446,-0.0145747,-1.16602,0.0162954,0.0257863,2001,967,25.778,-5.34705
784,57,25.5707,5.24304,-0.0115959,0.0116808,-0.0139845,0.0182364,-0.0181515,-1.13244,0.0210086,0.0441323,2008,967,25.5707,-5.24303
791,57,25.4565,5.61011,0,0,0,0,0,0,0,-1,2015,967,25.4566,-5.61012
798,57,25.0444,5.79248,-0.0123307,0.0173356,-0.0255799,0.0320718,-0.027067,-1.04814,0.0341846,0.0478516,2022,967,25.0444,-5.79251
805,57,25.533,4.72394,-0.0105153,0.0205276,-0.0343843,0.0427315,-0.0327191,-0.997411,0.0436891,0.0454086,2029,967,25.5329,-4.72392
812,57,0,0,0,0,0,0,0,0,0,-1,2036,967,0,0
-700,50,0,0,0,0,0,0,0,0,0,-1,524,974,0,0
-693,50,-14.0556,-0.372803,-0.0973333,0.11954,0.0672886,0.138721,-0.116514,1.29311,0.147546,0.0434077,531,974,-14.0556,0.372775
-686,50,-15.126,0.704346,-0.085546,0.101171,0.0590379,0.118272,-0.102647,1.28885,0.127654,0.0430215,538,974,-15.126,-0.704369
-679,50,-15.8448,1.00146,-0.0728352,0.0827865,0.0510127,0.0980177,-0.0880664,1.28065,0.107487,0.0461242,545,974,-15.8448,-1.00145
-672,50,-16.7551,0.933716,-0.0605354,0.0659173,0.0432933,0.0793192,-0.0739372,1.27059,0.0885008,0.0480418,552,974,-16.7551,-0.933718
-665,50,-17.3201,1.24994,-0.049093,0.0511127,0.0359541,0.0626782,-0.0606586,1.25957,0.0712117,0.0495164,559,974,-17.3201,-1.24994
-658,50,-17.5726,1.48639,-0.0387805,0.0385674,0.0291192,0.0483042,-0.0485173,1.24811,0.0559,0.0456793,566,974,-17.5726,-1.48641
-651,50,-18.1655,2.0249,-0.0297389,0.028269,0.0229204,0.0362323,-0.0377022,1.23641,0.0426889,0.0402311,573,974,-18.1655,-2.02491
-644,50,-18.341,2.63208,-0.0220306,0.0200954,0.0174199,0.0263655,-0.0283008,1.22529,0.0315682,0.024969,580,974,-18.341,-2.6321
-637,50,-18.3915,2.62543,-0.0159024,0.0145479,0.0118844,0.0186371,-0.0199916,1.2394,0.0223069,0.0142767,587,974,-18.3915,-2.62542
-630,50,-18.4171,2.56909,-0.0112162,0.00874473,0.00757559,0.0112942,-0.0137657,1.24616,0.0144918,0.0109849,594,974,-18.4171,-2.5691
-623,50,-18.4133,2.48633,-0.00747439,0.00471183,0.00416085,0.00599698,-0.00875954,1.27123,0.0085693,0.0116148,601,974,-18.4133,-2.48636
-616,50,-18.4223,2.38727,-0.00497934,0.0022961,0.00134476,0.0025367,-0.00521994,1.39375,0.00456674,0.0114431,608,974,-18.4223,-2.3873
-609,50,-18.4313,2.27466,-0.00379138,0.00138612,-0.000996821,0.0015714,-0.00397666,-1.38702,0.00330199,0.0105242,615,974,-18.4313,-2.27466
-602,50,-18.4359,2.15479,-0.00377277,0.00189633,-0.00222071,0.00266264,-0.00453909,-1.23851,0.00420471,0.0112469,622,974,-18.4359,-2.15481
-595,50,-18.4099,2.05896,-0.00416859,0.00161252,-0.00269135,0.00267148,-0.00522755,-1.19593,0.00463941,0.0117315,629,974,-18.4098,-2.05898
-588,50,-18.4587,1.93829,-0.0044477,0.00133743,-0.00296177,0.00258479,-0.00569506,-1.17219,0.00489151,0.0139676,636,974,-18.4587,-1.93829
-581,50,-18.6874,1.47736,-0.0044068,0.00115064,-0.00291372,0.00239821,-0.00565437,-1.16624,0.00477418,0.02123,643,974,-18.6874,-1.47735
-574,50,-18.7927,1.13489,-0.004194,0.00112111,-0.0024985,0.00211117,-0.00518406,-1.19352,0.00433466,0.0252498,650,974,-18.7927,-1.1349
-567,50,-18.7513,1.12964,-0.0039184,0.00117473,-0.00187436,0.00179016,-0.00453383,-1.25355,0.00376396,0.0338367,657,974,-18.7513,-1.12962
-560,50,-18.7587,1.23541,-0.00323516,0.00126599,-0.000903138,0.00144044,-0.00340961,-1.37999,0.00287608,0.041153,664,974,-18.7586,-1.2354
-553,50,-18.7789,1.23438,-0.00214722,0.00144773,0.000312004,0.00147461,-0.0021741,1.48486,0.00211945,0.0394173,671,974,-18.7789,-1.23435
-546,50,-18.7953,1.34534,-0.000683488,0.00173605,0.00171399,0.00262421,-0.00157165,1.09271,0.00244776,0.0378726,678,974,-18.7953,-1.34534
-539,50,-18.6544,1.71429,0.00113524,0.00218322,0.00317446,0.00487665,-0.00155818,0.867193,0.00387633,0.0449149,685,974,-18.6544,-1.71432
-532,50,-18.7142,1.46283,0.00284179,0.00304884,0.00423457,0.00718115,-0.00129052,0.797619,0.00527054,0.0473499,692,974,-18.7142,-1.46284
-525,50,-18.7654,1.05878,0,0,0,0,0,0,0,-1,699,974,-18.7654,-1.0588
-518,50,0,0,0,0,0,0,0,0,0,-1,706,974,0,0
-511,50,0,0,0,0,0,0,0,0,0,-1,713,974,0,0
-504,50,0,0,0,0,0,0,0,0,0,-1,720,974,0,0
-497,50,0,0,0,0,0,0,0,0,0,-1,727,974,0,0
-490,50,0,0,0,0,0,0,0,0,0,-1,734,974,0,0
-483,50,0,0,0,0,0,0,0,0,0,-1,741,974,0,0
-476,50,0,0,0,0,0,0,0,0,0,-1,748,974,0,0
-469,50,0,0,0,0,0,0,0,0,0,-1,755,974,0,0
-462,50,0,0,0,0,0,0,0,0,0,-1,762,974,0,0
-455,50,0,0,0,0,0,0,0,0,0,-1,769,974,0,0
-448,50,0,0,0,0,0,0,0,0,0,-1,776,974,0,0
-441,50,0,0,0,0,0,0,0,0,0,-1,783,974,0,0
-434,50,0,0,0,0,0,0,0,0,0,-1,790,974,0,0
-427,50,0,0,0,0,0,0,0,0,0,-1,797,974,0,0
-420,50,0,0,0,0,0,0,0,0,0,-1,804,974,0,0
-413,50,0,0,0,0,0,0,0,0,0,-1,811,974,0,0
-406,50,0,0,0,0,0,0,0,0,0,-1,818,974,0,0
-399,50,0,0,0,0,0,0,0,0,0,-1,825,974,0,0
-392,50,0,0,0,0,0,0,0,0,0,-1,832,974,0,0
-385,50,0,0,0,0,0,0,0,0,0,-1,839,974,0,0
-378,50,0,0,0,0,0,0,0,0,0,-1,846,974,0,0
-371,50,0,0,0,0,0,0,0,0,0,-1,853,974,0,0
-364,50,0,0,0,0,0,0,0,0,0,-1,860,974,0,0
-357,50,0,0,0,0,0,0,0,0,0,-1,867,974,0,0
-350,50,0,0,0,0,0,0,0,0,0,-1,874,974,0,0
-343,50,0,0,0,0,0,0,0,0,0,-1,881,974,0,0
-336,50,0,0,0,0,0,0,0,0,0,-1,888,974,0,0
-329,50,0,0,0,0,0,0,0,0,0,-1,895,974,0,0
-322,50,0,0,0,0,0,0,0,0,0,-1,902,974,0,0
-315,50,0,0,0,0,0,0,0,0,0,-1,909,974,0,0
-308,50,0,0,0,0,0,0,0,0,0,-1,916,974,0,0
-301,50,0,0,0,0,0,0,0,0,0,-1,923,974,0,0
-294,50,0,0,0,0,0,0,0,0,0,-1,930,974,0,0
-287,50,0,0,0,0,0,0,0,0,0,-1,937,974,0,0
-280,50,0,0,0,0,0,0,0,0,0,-1,944,974,0,0
-273,50,0,0,0,0,0,0,0,0,0,-1,951,974,0,0
-266,50,0,0,0,0,0,0,0,0,0,-1,958,974,0,0
-259,50,0,0,0,0,0,0,0,0,0,-1,965,974,0,0
-252,50,0,0,0,0,0,0,0,0,0,-1,972,974,0,0
-245,50,0,0,0,0,0,0,0,0,0,-1,979,974,0,0
-238,50,0,0,0,0,0,0,0,0,0,-1,986,974,0,0
-231,50,0,0,0,0,0,0,0,0,0,-1,993,974,0,0
-224,50,0,0,0,0,0,0,0,0,0,-1,1000,974,0,0
-217,50,0,0,0,0,0,0,0,0,0,-1,1007,974,0,0
-210,50,0,0,0,0,0,0,0,0,0,-1,1014,974,0,0
-203,50,0,0,0,0,0,0,0,0,0,-1,1021,974,0,0
-196,50,0,0,0,0,0,0,0,0,0,-1,1028,974,0,0
-189,50,0,0,0,0,0,0,0,0,0,-1,1035,974,0,0
-182,50,0,0,0,0,0,0,0,0,0,-1,1042,974,0,0
-175,50,0,0,0,0,0,0,0,0,0,-1,1049,974,0,0
-168,50,0,0,0,0,0,0,0,0,0,-1,1056,974,0,0
-161,50,0,0,0,0,0,0,0,0,0,-1,1063,974,0,0
-154,50,0,0,0,0,0,0,0,0,0,-1,1070,974,0,0
-147,50,0,0,0,0,0,0,0,0,0,-1,1077,974,0,0
-140,50,0,0,0,0,0,0,0,0,0,-1,1084,974,0,0
-133,50,0,0,0,0,0,0,0,0,0,-1,1091,974,0,0
-126,50,0,0,0,0,0,0,0,0,0,-1,1098,974,0,0
-119,50,0,0,0,0,0,0,0,0,0,-1,1105,974,0,0
-112,50,0,0,0,0,0,0,0,0,0,-1,1112,974,0,0
-105,50,0,0,0,0,0,0,0,0,0,-1,1119,974,0,0
-98,50,0,0,0,0,0,0,0,0,0,-1,1126,974,0,0
-91,50,0,0,0,0,0,0,0,0,0,-1,1133,974,0,0
-84,50,0,0,0,0,0,0,0,0,0,-1,1140,974,0,0
-77,50,0,0,0,0,0,0,0,0,0,-1,1147,974,0,0
-70,50,0,0,0,0,0,0,0,0,0,-1,1154,974,0,0
-63,50,0,0,0,0,0,0,0,0,0,-1,1161,974,0,0
-56,50,0,0,0,0,0,0,0,0,0,-1,1168,974,0,0
-49,50,0,0,0,0,0,0,0,0,0,-1,1175,974,0,0
-42,50,0,0,0,0,0,0,0,0,0,-1,1182,974,0,0
-35,50,0,0,0,0,0,0,0,0,0,-1,1189,974,0,0
-28,50,0,0,0,0,0,0,0,0,0,-1,1196,974,0,0
-21,50,0,0,0,0,0,0,0,0,0,-1,1203,974,0,0
-14,50,0,0,0,0,0,0,0,0,0,-1,1210,974,0,0
-7,50,0,0,0,0,0,0,0,0,0,-1,1217,974,0,0
0,50,0,0,0,0,0,0,0,0,0,-1,1224,974,0,0
7,50,0,0,0,0,0,0,0,0,0,-1,1231,974,0,0
14,50,0,0,0,0,0,0,0,0,0,-1,1238,974,0,0
21,50,0,0,0,0,0,0,0,0,0,-1,1245,974,0,0
28,50,0,0,0,0,0,0,0,0,0,-1,1252,974,0,0
35,50,0,0,0,0,0,0,0,0,0,-1,1259,974,0,0
42,50,0,0,0,0,0,0,0,0,0,-1,1266,974,0,0
49,50,0,0,0,0,0,0,0,0,0,-1,1273,974,0,0
56,50,0,0,0,0,0,0,0,0,0,-1,1280,974,0,0
63,50,0,0,0,0,0,0,0,0,0,-1,1287,974,0,0
70,50,0,0,0,0,0,0,0,0,0,-1,1294,974,0,0
77,50,0,0,0,0,0,0,0,0,0,-1,1301,974,0,0
84,50,0,0,0,0,0,0,0,0,0,-1,1308,974,0,0
91,50,0,0,0,0,0,0,0,0,0,-1,1315,974,0,0
98,50,0,0,0,0,0,0,0,0,0,-1,1322,974,0,0
105,50,0,0,0,0,0,0,0,0,0,-1,1329,974,0,0
112,50,0,0,0,0,0,0,0,0,0,-1,1336,974,0,0
119,50,0,0,0,0,0,0,0,0,0,-1,1343,974,0,0
126,50,0,0,0,0,0,0,0,0,0,-1,1350,974,0,0
133,50,0,0,0,0,0,0,0,0,0,-1,1357,974,0,0
140,50,0,0,0,0,0,0,0,0,0,-1,1364,974,0,0
147,50,0,0,0,0,0,0,0,0,0,-1,1371,974,0,0
154,50,0,0,0,0,0,0,0,0,0,-1,1378,974,0,0
161,50,0,0,0,0,0,0,0,0,0,-1,1385,974,0,0
168,50,0,0,0,0,0,0,0,0,0,-1,1392,974,0,0
175,50,0,0,0,0,0,0,0,0,0,-1,1399,974,0,0
182,50,0,0,0,0,0,0,0,0,0,-1,1406,974,0,0
189,50,0,0,0,0,0,0,0,0,0,-1,1413,974,0,0
196,50,0,0,0,0,0,0,0,0,0,-1,1420,974,0,0
203,50,0,0,0,0,0,0,0,0,0,-1,1427,974,0,0
210,50,0,0,0,0,0,0,0,0,0,-1,1434,974,0,0
217,50,0,0,0,0,0,0,0,0,0,-1,1441,974,0,0
224,50,0,0,0,0,0,0,0,0,0,-1,1448,974,0,0
231,50,0,0,0,0,0,0,0,0,0,-1,1455,974,0,0
238,50,0,0,0,0,0,0,0,0,0,-1,1462,974,0,0
245,50,0,0,0,0,0,0,0,0,0,-1,1469,974,0,0
252,50,0,0,0,0,0,0,0,0,0,-1,1476,974,0,0
259,50,0,0,0,0,0,0,0,0,0,-1,1483,974,0,0
266,50,0,0,0,0,0,0,0,0,0,-1,1490,974,0,0
273,50,0,0,0,0,0,0,0,0,0,-1,1497,974,0,0
280,50,0,0,0,0,0,0,0,0,0,-1,1504,974,0,0
287,50,0,0,0,0,0,0,0,0,0,-1,1511,974,0,0
294,50,0,0,0,0,0,0,0,0,0,-1,1518,974,0,0
301,50,0,0,0,0,0,0,0,0,0,-1,1525,974,0,0
308,50,0,0,0,0,0,0,0,0,0,-1,1532,974,0,0
315,50,0,0,0,0,0,0,0,0,0,-1,1539,974,0,0
322,50,0,0,0,0,0,0,0,0,0,-1,1546,974,0,0
329,50,0,0,0,0,0,0,0,0,0,-1,1553,974,0,0
336,50,0,0,0,0,0,0,0,0,0,-1,1560,974,0,0
343,50,0,0,0,0,0,0,0,0,0,-1,1567,974,0,0
350,50,0,0,0,0,0,0,0,0,0,-1,1574,974,0,0
357,50,0,0,0,0,0,0,0,0,0,-1,1581,974,0,0
364,50,0,0,0,0,0,0,0,0,0,-1,1588,974,0,0
371,50,0,0,0,0,0,0,0,0,0,-1,1595,974,0,0
378,50,0,0,0,0,0,0,0,0,0,-1,1602,974,0,0
385,50,0,0,0,0,0,0,0,0,0,-1,1609,974,0,0
392,50,0,0,0,0,0,0,0,0,0,-1,1616,974,0,0
399,50,0,0,0,0,0,0,0,0,0,-1,1623,974,0,0
406,50,0,0,0,0,0,0,0,0,0,-1,1630,974,0,0
413,50,0,0,0,0,0,0,0,0,0,-1,1637,974,0,0
420,50,0,0,0,0,0,0,0,0,0,-1,1644,974,0,0
427,50,0,0,0,0,0,0,0,0,0,-1,1651,974,0,0
434,50,0,0,0,0,0,0,0,0,0,-1,1658,974,0,0
441,50,0,0,0,0,0,0,0,0,0,-1,1665,974,0,0
448,50,0,0,0,0,0,0,0,0,0,-1,1672,974,0,0
455,50,0,0,0,0,0,0,0,0,0,-1,1679,974,0,0
462,50,0,0,0,0,0,0,0,0,0,-1,1686,974,0,0
469,50,0,0,0,0,0,0,0,0,0,-1,1693,974,0,0
476,50,0,0,0,0,0,0,0,0,0,-1,1700,974,0,0
483,50,0,0,0,0,0,0,0,0,0,-1,1707,974,0,0
490,50,0,0,0,0,0,0,0,0,0,-1,1714,974,0,0
497,50,0,0,0,0,0,0,0,0,0,-1,1721,974,0,0
504,50,0,0,0,0,0,0,0,0,0,-1,1728,974,0,0
511,50,0,0,0,0,0,0,0,0,0,-1,1735,974,0,0
518,50,0,0,0,0,0,0,0,0,0,-1,1742,974,0,0
525,50,0,0,0,0,0,0,0,0,0,-1,1749,974,0,0
532,50,0,0,0,0,0,0,0,0,0,-1,1756,974,0,0
539,50,0,0,0,0,0,0,0,0,0,-1,1763,974,0,0
546,50,0,0,0,0,0,0,0,0,0,-1,1770,974,0,0
553,50,0,0,0,0,0,0,0,0,0,-1,1777,974,0,0
560,50,0,0,0,0,0,0,0,0,0,-1,1784,974,0,0
567,50,0,0,0,0,0,0,0,0,0,-1,1791,974,0,0
574,50,0,0,0,0,0,0,0,0,0,-1,1798,974,0,0
581,50,0,0,0,0,0,0,0,0,0,-1,1805,974,0,0
588,50,0,0,0,0,0,0,0,0,0,-1,1812,974,0,0
595,50,0,0,0,0,0,0,0,0,0,-1,1819,974,0,0
602,50,0,0,0,0,0,0,0,0,0,-1,1826,974,0,0
609,50,0,0,0,0,0,0,0,0,0,-1,1833,974,0,0
616,50,0,0,0,0,0,0,0,0,0,-1,1840,974,0,0
623,50,0,0,0,0,0,0,0,0,0,-1,1847,974,0,0
630,50,0,0,0,0,0,0,0,0,0,-1,1854,974,0,0
637,50,0,0,0,0,0,0,0,0,0,-1,1861,974,0,0
644,50,27.1506,2.7392,0.00375883,0.00281794,0.000798831,0.00421545,0.00236132,0.519284,0.00243966,0.0386848,1868,974,27.1506,-2.73921
651,50,27.1492,2.96875,0.00203032,0.00220105,0.00103006,0.00314928,0.0010821,0.826741,0.00184765,0.0309823,1875,974,27.1492,-2.96873
658,50,27.1119,3.17621,0.000912152,0.00173301,0.00123724,0.00262613,1.90393e-05,0.945552,0.00174444,0.0371797,1882,974,27.1119,-3.17624
665,50,26.9535,3.22192,-2.54569e-05,0.00165511,0.00179504,0.0027968,-0.00116715,1.00431,0.00235218,0.0434514,1889,974,26.9535,-3.22195
672,50,26.8335,2.84045,-0.000745403,0.00183244,0.00257779,0.00342558,-0.00233855,1.01723,0.00334759,0.0412939,1896,974,26.8335,-2.84044
679,50,26.8462,3.06549,-0.00131131,0.00200835,0.00332155,0.00406171,-0.00336466,1.01711,0.00429391,0.039369,1903,974,26.8462,-3.06552
686,50,26.9413,3.13342,-0.00164877,0.00211487,0.00387914,0.00454454,-0.00407844,1.01123,0.00498091,0.0412253,1910,974,26.9413,-3.13344
693,50,26.9415,3.0816,-0.00183534,0.00216762,0.00423234,0.00484787,-0.0045156,1.00627,0.00540714,0.0365571,1917,974,26.9415,-3.08162
700,50,26.9789,3.10071,-0.00216688,0.00213989,0.00434853,0.00483901,-0.004866,1.0153,0.0056032,0.0190173,1924,974,26.9789,-3.10073
707,50,26.9779,3.29382,-0.00232314,0.0021716,0.00421786,0.00470346,-0.004855,1.03018,0.00551881,0.0284023,1931,974,26.9779,-3.29381
714,50,26.924,3.6944,-0.00231623,0.00227153,0.0038893,0.00449302,-0.00453772,1.05184,0.00521392,0.0474113,1938,974,26.924,-3.69438
721,50,26.0972,4.2757,0,0,0,0,0,0,0,-1,1945,974,26.0972,-4.27569
728,50,26.0405,4.48157,-0.00270307,0.0025614,0.00308024,0.00398089,-0.00412257,1.13896,0.00467877,0.0226495,1952,974,26.0405,-4.48155
735,50,26.0621,4.62866,-0.00333373,0.00273308,0.00235496,0.00353991,-0.00414056,1.24072,0.00443884,0.0195641,1959,974,26.0622,-4.62865
742,50,26.0725,4.75848,-0.00413669,0.00323589,0.00123196,0.00343631,-0.0043371,1.40953,0.00449801,0.0145229,1966,974,26.0725,-4.75849
749,50,26.0482,4.87286,-0.00504286,0.00414224,-0.000366768,0.00415687,-0.00505748,-1.53095,0.00532837,0.0147014,1973,974,26.0483,-4.87286
756,50,26.0171,4.98718,-0.0058387,0.00505279,-0.00244324,0.00557576,-0.00636167,-1.35993,0.00689705,0.011443,1980,974,26.0171,-4.98719
763,50,26.0107,5.10278,-0.00696755,0.00637523,-0.00486882,0.00796294,-0.00855527,-1.25557,0.00953884,0.0111888,1987,974,26.0107,-5.10281
770,50,25.9829,5.1994,-0.00840139,0.0082467,-0.00772719,0.0112804,-0.0114351,-1.19668,0.0131149,0.0111347,1994,974,25.9829,-5.19943
777,50,25.9041,5.28363,-0.00977963,0.0105304,-0.0111117,0.0154284,-0.0146776,-1.15562,0.0173835,0.0224613,2001,974,25.904,-5.28365
784,50,25.6919,5.15216,-0.0109851,0.0129335,-0.0153827,0.0204589,-0.0185105,-1.11582,0.0225083,0.0400658,2008,974,25.6919,-5.15214
791,50,25.6011,5.15027,-0.0116393,0.0153659,-0.0210093,0.0268375,-0.0231108,-1.07101,0.0288644,0.0480578,2015,974,25.601,-5.15027
798,50,25.6674,4.97943,-0.0112444,0.0176771,-0.0284171,0.0351013,-0.0286685,-1.02076,0.0368799,0.0482494,2022,974,25.6674,-4.97946
805,50,25.8789,4.74872,-0.00915518,0.0195967,-0.0381773,0.0460151,-0.0355735,-0.965466,0.0472336,0.0429544,2029,974,25.8789,-4.74875
812,50,0,0,0,0,0,0,0,0,0,-1,2036,974,0,0
-700,43,0,0,0,0,0,0,0,0,0,-1,524,981,0,0
-693,43,-14.2339,-0.466553,-0.0851258,0.0985343,0.0825312,0.130171,-0.116763,1.20474,0.142638,0.0426801,531,981,-14.2339,0.466549
-686,43,-14.9465,0.410156,-0.0776409,0.0850148,0.0697737,0.110844,-0.10347,1.21626,0.123758,0.0435631,538,981,-14.9466,-0.410165
-679,43,-15.6959,1.02399,-0.0679681,0.0706942,0.0584898,0.0920706,-0.0893445,1.2204,0.104744,0.0470307,545,981,-15.6959,-1.02401
-672,43,-16.4116,0.99707,-0.057729,0.0570829,0.0484102,0.0747701,-0.0754162,1.2205,0.0867104,0.0491482,552,981,-16.4116,-0.997095
-665,43,-17.1691,1.30115,-0.0476396,0.0448174,0.0393788,0.0593159,-0.062138,1.21802,0.0701278,0.0471288,559,981,-17.1691,-1.30116
-658,43,-17.5957,1.72217,-0.0381795,0.0341982,0.031342,0.0458837,-0.049865,1.21392,0.0552965,0.0433316,566,981,-17.5957,-1.72214
-651,43,-18.035,2.19525,-0.0296251,0.0253221,0.0242965,0.0345244,-0.0388273,1.20874,0.0423739,0.0367703,573,981,-18.0349,-2.19527
-644,43,-18.4686,2.63898,-0.0221525,0.0181859,0.0181736,0.0251658,-0.0291324,1.2041,0.031377,0.0199076,580,981,-18.4686,-2.63897
-637,43,-18.505,2.59473,-0.0162258,0.0134186,0.0120577,0.0177036,-0.0205108,1.22934,0.022083,0.0143196,587,981,-18.505,-2.59472
-630,43,-18.5033,2.52838,-0.0115604,0.0080685,0.00731344,0.0104937,-0.0139857,1.2506,0.014181,0.013084,594,981,-18.5033,-2.52837
-623,43,-18.5205,2.45422,-0.00768711,0.00460056,0.00361775,0.00558658,-0.00867313,1.30471,0.00829688,0.0114081,601,981,-18.5205,-2.45423
-616,43,-18.5237,2.36243,-0.00500868,0.00250229,0.000729023,0.0025724,-0.00507878,1.47493,0.00449572,0.0101596,608,981,-18.5237,-2.36243
-609,43,-18.5259,2.26898,-0.00352684,0.00157852,-0.00156846,0.00202188,-0.0039702,-1.29531,0.00351996,0.0125723,615,981,-18.5259,-2.26895
-602,43,-18.5334,2.1615,-0.00326536,0.00199094,-0.00288301,0.00326394,-0.00453835,-1.15499,0.00452464,0.0157014,622,981,-18.5335,-2.16152
-595,43,-18.5088,2.07147,-0.00346511,0.00164499,-0.00342222,0.00336075,-0.00518088,-1.10606,0.00496869,0.0143291,629,981,-18.5088,-2.07149
-588,43,-18.5111,1.84039,-0.00365523,0.0013654,-0.00370412,0.0033297,-0.00561954,-1.0832,0.00522292,0.0142361,636,981,-18.5111,-1.84037
-581,43,-18.6916,1.40387,-0.00360791,0.00117376,-0.00359448,0.00309991,-0.00553406,-1.07887,0.00505042,0.0202722,643,981,-18.6916,-1.4039
-574,43,-18.7835,1.20453,-0.00343454,0.0011486,-0.00304469,0.00266773,-0.00495367,-1.10799,0.00446571,0.02811,650,981,-18.7835,-1.20454
-567,43,-18.7256,1.18988,-0.00319767,0.0011994,-0.00223507,0.00213601,-0.00413427,-1.17398,0.00368091,0.0350667,657,981,-18.7256,-1.18987
-560,43,-18.7332,1.30933,-0.00260575,0.00131306,-0.00101957,0.00156245,-0.00285514,-1.3309,0.00258664,0.038744,664,981,-18.7332,-1.30932
-553,43,-18.7657,1.29834,-0.00164646,0.00154557,0.000515872,0.00162687,-0.00172776,1.41448,0.00193709,0.037929,671,981,-18.7658,-1.29835
-546,43,-18.7419,1.26294,-0.00033701,0.00192143,0.00231951,0.00337199,-0.00178757,1.01193,0.00302533,0.0378971,678,981,-18.7419,-1.26293
-539,43,-18.5521,1.43774,0.00132013,0.00252152,0.00424399,0.00620712,-0.00236546,0.855701,0.00511235,0.0429183,685,981,-18.5521,-1.43772
-532,43,-18.434,1.46802,0.00281767,0.00368942,0.00574806,0.00901811,-0.00251102,0.823241,0.00700083,0.0467546,692,981,-18.434,-1.468
-525,43,-18.4353,1.55414,0.00300654,0.00570758,0.00645824,0.010955,-0.00224088,0.888471,0.00815359,0.0464145,699,981,-18.4353,-1.55415
-518,43,0,0,0,0,0,0,0,0,0,-1,706,981,0,0
-511,43,0,0,0,0,0,0,0,0,0,-1,713,981,0,0
-504,43,0,0,0,0,0,0,0,0,0,-1,720,981,0,0
-497,43,0,0,0,0,0,0,0,0,0,-1,727,981,0,0
-490,43,0,0,0,0,0,0,0,0,0,-1,734,981,0,0
-483,43,0,0,0,0,0,0,0,0,0,-1,741,981,0,0
-476,43,0,0,0,0,0,0,0,0,0,-1,748,981,0,0
-469,43,0,0,0,0,0,0,0,0,0,-1,755,981,0,0
-462,43,0,0,0,0,0,0,0,0,0,-1,762,981,0,0
-455,43,0,0,0,0,0,0,0,0,0,-1,769,981,0,0
-448,43,0,0,0,0,0,0,0,0,0,-1,776,981,0,0
-441,43,0,0,0,0,0,0,0,0,0,-1,783,981,0,0
-434,43,0,0,0,0,0,0,0,0,0,-1,790,981,0,0
-427,43,0,0,0,0,0,0,0,0,0,-1,797,981,0,0
-420,43,0,0,0,0,0,0,0,0,0,-1,804,981,0,0
-413,43,0,0,0,0,0,0,0,0,0,-1,811,981,0,0
-406,43,0,0,0,0,0,0,0,0,0,-1,818,981,0,0
-399,43,0,0,0,0,0,0,0,0,0,-1,825,981,0,0
-392,43,0,0,0,0,0,0,0,0,0,-1,832,981,0,0
-385,43,0,0,0,0,0,0,0,0,0,-1,839,981,0,0
-378,43,0,0,0,0,0,0,0,0,0,-1,846,981,0,0
-371,43,0,0,0,0,0,0,0,0,0,-1,853,981,0,0
-364,43,0,0,0,0,0,0,0,0,0,-1,860,981,0,0
-357,43,0,0,0,0,0,0,0,0,0,-1,867,981,0,0
-350,43,0,0,0,0,0,0,0,0,0,-1,874,981,0,0
-343,43,0,0,0,0,0,0,0,0,0,-1,881,981,0,0
-336,43,0,0,0,0,0,0,0,0,0,-1,888,981,0,0
-329,43,0,0,0,0,0,0,0,0,0,-1,895,981,0,0
-322,43,0,0,0,0,0,0,0,0,0,-1,902,981,0,0
-315,43,0,0,0,0,0,0,0,0,0,-1,909,981,0,0
-308,43,0,0,0,0,0,0,0,0,0,-1,916,981,0,0
-301,43,0,0,0,0,0,0,0,0,0,-1,923,981,0,0
-294,43,0,0,0,0,0,0,0,0,0,-1,930,981,0,0
-287,43,0,0,0,0,0,0,0,0,0,-1,937,981,0,0
-280,43,0,0,0,0,0,0,0,0,0,-1,944,981,0,0
-273,43,0,0,0,0,0,0,0,0,0,-1,951,981,0,0
-266,43,0,0,0,0,0,0,0,0,0,-1,958,981,0,0
-259,43,0,0,0,0,0,0,0,0,0,-1,965,981,0,0
-252,43,0,0,0,0,0,0,0,0,0,-1,972,981,0,0
-245,43,0,0,0,0,0,0,0,0,0,-1,979,981,0,0
-238,43,0,0,0,0,0,0,0,0,0,-1,986,981,0,0
-231,43,0,0,0,0,0,0,0,0,0,-1,993,981,0,0
-224,43,0,0,0,0,0,0,0,0,0,-1,1000,981,0,0
-217,43,0,0,0,0,0,0,0,0,0,-1,1007,981,0,0
-210,43,0,0,0,0,0,0,0,0,0,-1,1014,981,0,0
-203,43,0,0,0,0,0,0,0,0,0,-1,1021,981,0,0
-196,43,0,0,0,0,0,0,0,0,0,-1,1028,981,0,0
-189,43,0,0,0,0,0,0,0,0,0,-1,1035,981,0,0
-182,43,0,0,0,0,0,0,0,0,0,-1,1042,981,0,0
-175,43,0,0,0,0,0,0,0,0,0,-1,1049,981,0,0
-168,43,0,0,0,0,0,0,0,0,0,-1,1056,981,0,0
-161,43,0,0,0,0,0,0,0,0,0,-1,1063,981,0,0
-154,43,0,0,0,0,0,0,0,0,0,-1,1070,981,0,0
-147,43,0,0,0,0,0,0,0,0,0,-1,1077,981,0,0
-140,43,0,0,0,0,0,0,0,0,0,-1,1084,981,0,0
-133,43,0,0,0,0,0,0,0,0,0,-1,1091,981,0,0
-126,43,0,0,0,0,0,0,0,0,0,-1,1098,981,0,0
-119,43,0,0,0,0,0,0,0,0,0,-1,1105,981,0,0
-112,43,0,0,0,0,0,0,0,0,0,-1,1112,981,0,0
-105,43,0,0,0,0,0,0,0,0,0,-1,1119,981,0,0
-98,43,0,0,0,0,0,0,0,0,0,-1,1126,981,0,0
-91,43,0,0,0,0,0,0,0,0,0,-1,1133,981,0,0
-84,43,0,0,0,0,0,0,0,0,0,-1,1140,981,0,0
-77,43,0,0,0,0,0,0,0,0,0,-1,1147,981,0,0
-70,43,0,0,0,0,0,0,0,0,0,-1,1154,981,0,0
-63,43,0,0,0,0,0,0,0,0,0,-1,1161,981,0,0
-56,43,0,0,0,0,0,0,0,0,0,-1,1168,981,0,0
-49,43,0,0,0,0,0,0,0,0,0,-1,1175,981,0,0
-42,43,0,0,0,0,0,0,0,0,0,-1,1182,981,0,0
-35,43,0,0,0,0,0,0,0,0,0,-1,1189,981,0,0
-28,43,0,0,0,0,0,0,0,0,0,-1,1196,981,0,0
-21,43,0,0,0,0,0,0,0,0,0,-1,1203,981,0,0
-14,43,0,0,0,0,0,0,0,0,0,-1,1210,981,0,0
-7,43,0,0,0,0,0,0,0,0,0,-1,1217,981,0,0
0,43,0,0,0,0,0,0,0,0,0,-1,1224,981,0,0
7,43,0,0,0,0,0,0,0,0,0,-1,1231,981,0,0
14,43,0,0,0,0,0,0,0,0,0,-1,1238,981,0,0
21,43,0,0,0,0,0,0,0,0,0,-1,1245,981,0,0
28,43,0,0,0,0,0,0,0,0,0,-1,1252,981,0,0
35,43,0,0,0,0,0,0,0,0,0,-1,1259,981,0,0
42,43,0,0,0,0,0,0,0,0,0,-1,1266,981,0,0
49,43,0,0,0,0,0,0,0,0,0,-1,1273,981,0,0
56,43,0,0,0,0,0,0,0,0,0,-1,1280,981,0,0
63,43,0,0,0,0,0,0,0,0,0,-1,1287,981,0,0
70,43,0,0,0,0,0,0,0,0,0,-1,1294,981,0,0
77,43,0,0,0,0,0,0,0,0,0,-1,1301,981,0,0
84,43,0,0,0,0,0,0,0,0,0,-1,1308,981,0,0
91,43,0,0,0,0,0,0,0,0,0,-1,1315,981,0,0
98,43,0,0,0,0,0,0,0,0,0,-1,1322,981,0,0
105,43,0,0,0,0,0,0,0,0,0,-1,1329,981,0,0
112,43,0,0,0,0,0,0,0,0,0,-1,1336,981,0,0
119,43,0,0,0,0,0,0,0,0,0,-1,1343,981,0,0
126,43,0,0,0,0,0,0,0,0,0,-1,1350,981,0,0
133,43,0,0,0,0,0,0,0,0,0,-1,1357,981,0,0
140,43,0,0,0,0,0,0,0,0,0,-1,1364,981,0,0
147,43,0,0,0,0,0,0,0,0,0,-1,1371,981,0,0
154,43,0,0,0,0,0,0,0,0,0,-1,1378,981,0,0
161,43,0,0,0,0,0,0,0,0,0,-1,1385,981,0,0
168,43,0,0,0,0,0,0,0,0,0,-1,1392,981,0,0
175,43,0,0,0,0,0,0,0,0,0,-1,1399,981,0,0
182,43,0,0,0,0,0,0,0,0,0,-1,1406,981,0,0
189,43,0,0,0,0,0,0,0,0,0,-1,1413,981,0,0
196,43,0,0,0,0,0,0,0,0,0,-1,1420,981,0,0
203,43,0,0,0,0,0,0,0,0,0,-1,1427,981,0,0
210,43,0,0,0,0,0,0,0,0,0,-1,1434,981,0,0
217,43,0,0,0,0,0,0,0,0,0,-1,1441,981,0,0
224,43,0,0,0,0,0,0,0,0,0,-1,1448,981,0,0
231,43,0,0,0,0,0,0,0,0,0,-1,1455,981,0,0
238,43,0,0,0,0,0,0,0,0,0,-1,1462,981,0,0
245,43,0,0,0,0,0,0,0,0,0,-1,1469,981,0,0
252,43,0,0,0,0,0,0,0,0,0,-1,1476,981,0,0
259,43,0,0,0,0,0,0,0,0,0,-1,1483,981,0,0
266,43,0,0,0,0,0,0,0,0,0,-1,1490,981,0,0
273,43,0,0,0,0,0,0,0,0,0,-1,1497,981,0,0
280,43,0,0,0,0,0,0,0,0,0,-1,1504,981,0,0
287,43,0,0,0,0,0,0,0,0,0,-1,1511,981,0,0
294,43,0,0,0,0,0,0,0,0,0,-1,1518,981,0,0
301,43,0,0,0,0,0,0,0,0,0,-1,1525,981,0,0
308,43,0,0,0,0,0,0,0,0,0,-1,1532,981,0,0
315,43,0,0,0,0,0,0,0,0,0,-1,1539,981,0,0
322,43,0,0,0,0,0,0,0,0,0,-1,1546,981,0,0
329,43,0,0,0,0,0,0,0,0,0,-1,1553,981,0,0
336,43,0,0,0,0,0,0,0,0,0,-1,1560,981,0,0
343,43,0,0,0,0,0,0,0,0,0,-1,1567,981,0,0
350,43,0,0,0,0,0,0,0,0,0,-1,1574,981,0,0
357,43,0,0,0,0,0,0,0,0,0,-1,1581,981,0,0
364,43,0,0,0,0,0,0,0,0,0,-1,1588,981,0,0
371,43,0,0,0,0,0,0,0,0,0,-1,1595,981,0,0
378,43,0,0,0,0,0,0,0,0,0,-1,1602,981,0,0
385,43,0,0,0,0,0,0,0,0,0,-1,1609,981,0,0
392,43,0,0,0,0,0,0,0,0,0,-1,1616,981,0,0
399,43,0,0,0,0,0,0,0,0,0,-1,1623,981,0,0
406,43,0,0,0,0,0,0,0,0,0,-1,1630,981,0,0
413,43,0,0,0,0,0,0,0,0,0,-1,1637,981,0,0
420,43,0,0,0,0,0,0,0,0,0,-1,1644,981,0,0
427,43,0,0,0,0,0,0,0,0,0,-1,1651,981,0,0
434,43,0,0,0,0,0,0,0,0,0,-1,1658,981,0,0
441,43,0,0,0,0,0,0,0,0,0,-1,1665,981,0,0
448,43,0,0,0,0,0,0,0,0,0,-1,1672,981,0,0
455,43,0,0,0,0,0,0,0,0,0,-1,1679,981,0,0
462,43,0,0,0,0,0,0,0,0,0,-1,1686,981,0,0
469,43,0,0,0,0,0,0,0,0,0,-1,1693,981,0,0
476,43,0,0,0,0,0,0,0,0,0,-1,1700,981,0,0
483,43,0,0,0,0,0,0,0,0,0,-1,1707,981,0,0
490,43,0,0,0,0,0,0,0,0,0,-1,1714,981,0,0
497,43,0,0,0,0,0,0,0,0,0,-1,1721,981,0,0
504,43,0,0,0,0,0,0,0,0,0,-1,1728,981,0,0
511,43,0,0,0,0,0,0,0,0,0,-1,1735,981,0,0
518,43,0,0,0,0,0,0,0,0,0,-1,1742,981,0,0
525,43,0,0,0,0,0,0,0,0,0,-1,1749,981,0,0
532,43,0,0,0,0,0,0,0,0,0,-1,1756,981,0,0
539,43,0,0,0,0,0,0,0,0,0,-1,1763,981,0,0
546,43,0,0,0,0,0,0,0,0,0,-1,1770,981,0,0
553,43,0,0,0,0,0,0,0,0,0,-1,1777,981,0,0
560,43,0,0,0,0,0,0,0,0,0,-1,1784,981,0,0
567,43,0,0,0,0,0,0,0,0,0,-1,1791,981,0,0
574,43,0,0,0,0,0,0,0,0,0,-1,1798,981,0,0
581,43,0,0,0,0,0,0,0,0,0,-1,1805,981,0,0
588,43,0,0,0,0,0,0,0,0,0,-1,1812,981,0,0
595,43,0,0,0,0,0,0,0,0,0,-1,1819,981,0,0
602,43,0,0,0,0,0,0,0,0,0,-1,1826,981,0,0
609,43,0,0,0,0,0,0,0,0,0,-1,1833,981,0,0
616,43,0,0,0,0,0,0,0,0,0,-1,1840,981,0,0
623,43,0,0,0,0,0,0,0,0,0,-1,1847,981,0,0
630,43,0,0,0,0,0,0,0,0,0,-1,1854,981,0,0
637,43,0,0,0,0,0,0,0,0,0,-1,1861,981,0,0
644,43,27.089,2.79993,0.00329923,0.00215412,0.00115338,0.00401435,0.001439,0.555011,0.00234843,0.0378988,1868,981,27.089,-2.79995
651,43,27.2261,2.91034,0.00159062,0.00164338,0.00119565,0.00281294,0.000421052,0.796429,0.00175189,0.0375391,1875,981,27.2261,-2.91036
658,43,27.2267,3.13318,0.000598602,0.00123581,0.00122091,0.00217901,-0.000344594,0.913029,0.00158011,0.0384401,1882,981,27.2266,-3.13319
665,43,27.0977,3.16919,-0.000181647,0.00119088,0.00161916,0.00226321,-0.00125397,0.985842,0.00205832,0.0379389,1889,981,27.0977,-3.16917
672,43,26.9235,2.95233,-0.000764812,0.00143066,0.00237366,0.00294813,-0.00228228,1.00198,0.00302792,0.0377265,1896,981,26.9234,-2.95234
679,43,26.9003,2.9574,-0.00126699,0.0016603,0.00320952,0.00372416,-0.00333085,0.999327,0.00407532,0.0390651,1903,981,26.9002,-2.95738
686,43,26.9373,3.07623,-0.00158624,0.00181517,0.00389346,0.00436316,-0.00413423,0.991315,0.00490656,0.0400059,1910,981,26.9372,-3.07622
693,43,26.9044,2.96075,-0.0017938,0.00191223,0.00438299,0.00481781,-0.00469939,0.98539,0.0054949,0.0366161,1917,981,26.9045,-2.96077
700,43,26.9524,3.01538,-0.00214169,0.00190887,0.00462796,0.0049353,-0.00516812,0.991653,0.00583373,0.0310254,1924,981,26.9524,-3.01539
707,43,27.001,3.1106,-0.00229521,0.00195046,0.00459421,0.00488857,-0.00523332,1.00182,0.00584501,0.0241617,1931,981,27.001,-3.11058
714,43,27.0173,3.35303,-0.00231967,0.00206558,0.00433974,0.00473515,-0.00498924,1.01931,0.00561502,0.0274743,1938,981,27.0173,-3.35301
721,43,26.3394,4.26605,0,0,0,0,0,0,0,-1,1945,981,26.3394,-4.26605
728,43,26.3002,4.45264,-0.0028657,0.00241242,0.00373177,0.004344,-0.00479728,1.09316,0.00527988,0.0205691,1952,981,26.3002,-4.45261
735,43,26.2179,4.62463,-0.00356166,0.00261171,0.00303211,0.00385184,-0.00480179,1.18256,0.0050062,0.0138119,1959,981,26.2179,-4.62465
742,43,26.1791,4.74518,-0.00435665,0.00307876,0.0017969,0.00349024,-0.00476813,1.34568,0.00478696,0.0154658,1966,981,26.1791,-4.7452
749,43,26.158,4.86304,-0.0052453,0.00386682,6.24348e-05,0.00386725,-0.00524572,1.56394,0.0052814,0.0166243,1973,981,26.1579,-4.86305
756,43,26.1781,4.94763,-0.00603237,0.0046972,-0.00210133,0.00509406,-0.00642923,-1.38414,0.00666784,0.0156786,1980,981,26.1781,-4.94766
763,43,26.1781,5.04163,-0.0071118,0.00585597,-0.00472603,0.00739555,-0.00865139,-1.25587,0.00927416,0.018561,1987,981,26.1781,-5.04162
770,43,26.111,5.1709,-0.00848163,0.00747527,-0.0079157,0.0107358,-0.0117421,-1.18007,0.012982,0.0156166,1994,981,26.111,-5.17087
777,43,26.0344,5.27625,-0.00980614,0.00944941,-0.0116383,0.014926,-0.0152828,-1.13097,0.0174415,0.0203748,2001,981,26.0344,-5.27627
784,43,25.9613,5.38116,-0.0110017,0.011443,-0.0162262,0.0199496,-0.0195083,-1.08794,0.0227815,0.0411182,2008,981,25.9613,-5.38114
791,43,26.1462,4.9848,-0.0116635,0.0133553,-0.0222568,0.0263772,-0.0246854,-1.04142,0.0294864,0.0466079,2015,981,26.1463,-4.98478
798,43,23.8618,4.86987,0,0,0,0,0,0,0,-1,2022,981,23.8618,-4.86984
805,43,26.4368,4.67371,0,0,0,0,0,0,0,-1,2029,981,26.4369,-4.67372
812,43,24.2563,6.30634,0,0,0,0,0,0,0,-1,2036,981,24.2564,-6.30631
-700,36,0,0,0,0,0,0,0,0,0,-1,524,988,0,0
-693,36,-14.257,-0.536743,0,0,0,0,0,0,0,-1,531,988,-14.257,0.536738
-686,36,-14.7829,0.565002,-0.0615056,0.0769642,0.0748309,0.109676,-0.0942174,1.15869,0.117831,0.0438131,538,988,-14.7829,-0.565009
-679,36,-15.3989,0.719482,-0.0554813,0.0640816,0.0615943,0.0901353,-0.081535,1.17063,0.0991554,0.0457525,545,988,-15.3989,-0.719487
-672,36,-16.393,0.75415,-0.0482591,0.0519044,0.0501413,0.0726911,-0.0690458,1.1778,0.0818409,0.046285,552,988,-16.393,-0.75413
-665,36,-16.9507,1.27869,-0.0406078,0.0409207,0.0401976,0.0574065,-0.0570936,1.1816,0.0661068,0.0434345,559,988,-16.9507,-1.27868
-658,36,-18.4954,2.65442,-0.0330866,0.0313714,0.0315962,0.0442758,-0.045991,1.18305,0.0521187,0.0466625,566,988,-18.4954,-2.65444
-651,36,-18.5417,2.62659,-0.0260403,0.0233384,0.0242295,0.0332415,-0.0359433,1.1828,0.039954,0.0352252,573,988,-18.5417,-2.62658
-644,36,-18.5963,2.58337,-0.019684,0.0168445,0.0178928,0.0241484,-0.026988,1.18323,0.0295388,0.021431,580,988,-18.5963,-2.58336
-637,36,-18.6187,2.55499,-0.0146166,0.0126177,0.0115021,0.0168254,-0.0188243,1.2201,0.0205931,0.017007,587,988,-18.6187,-2.55497
-630,36,-18.6119,2.51837,-0.0105755,0.00704377,0.00690844,0.0094295,-0.0129613,1.23828,0.0129808,0.0134486,594,988,-18.612,-2.5184
-623,36,-18.6238,2.43988,-0.00707573,0.00422098,0.00304101,0.00498759,-0.00784234,1.32385,0.00746823,0.0114494,601,988,-18.6239,-2.43989
-616,36,-18.613,2.35248,-0.00455684,0.00250163,0.000177411,0.00250609,-0.0045613,1.54568,0.00413747,0.00943229,608,988,-18.613,-2.35248
-609,36,-18.6187,2.2735,-0.00310704,0.00176856,-0.00209433,0.00254465,-0.00388313,-1.21592,0.00373781,0.0145805,615,988,-18.6187,-2.27349
-602,36,-18.6193,2.17273,-0.00271575,0.0020915,-0.00343109,0.00387712,-0.00450137,-1.09094,0.0048418,0.0205085,622,988,-18.6193,-2.17274
-595,36,-18.5639,2.08081,-0.00269806,0.00173837,-0.00400999,0.00410279,-0.00506248,-1.03804,0.00530123,0.0219005,629,988,-18.5639,-2.08081
-588,36,-18.6005,1.73859,-0.00278073,0.00146394,-0.00428861,0.00412663,-0.00544342,-1.01517,0.00554268,0.0204966,636,988,-18.6005,-1.73856
-581,36,-18.7115,1.2937,-0.00272529,0.00126628,-0.00412954,0.00385702,-0.00531604,-1.0105,0.00531835,0.0249792,643,988,-18.7115,-1.29368
-574,36,-18.7404,1.19647,-0.00261795,0.00124202,-0.00348511,0.00329585,-0.00467178,-1.03827,0.00462292,0.0293687,650,988,-18.7404,-1.19645
-567,36,-18.745,1.15344,-0.00247045,0.00127877,-0.00253632,0.00255806,-0.00374974,-1.10364,0.00366341,0.035047,657,988,-18.745,-1.15343
-560,36,-18.7921,1.17816,-0.00204498,0.00138779,-0.0011343,0.00172873,-0.00238593,-1.27881,0.00238568,0.0377488,664,988,-18.7921,-1.17815
-553,36,-18.8538,1.35742,-0.00130663,0.00160781,0.000652266,0.00174713,-0.00144595,1.36036,0.00184626,0.0388247,671,988,-18.8538,-1.35741
-546,36,-18.8028,1.0932,-0.000255948,0.00195585,0.00277744,0.00383946,-0.00213956,0.974863,0.00349819,0.0406964,678,988,-18.8028,-1.09318
-539,36,-18.6979,1.01001,0.00111976,0.00253164,0.00505785,0.00693257,-0.00328117,0.854737,0.00602121,0.0436291,685,988,-18.6979,-1.01
-532,36,-18.5358,1.42877,0.00230419,0.00372995,0.00687751,0.00993143,-0.00389729,0.83704,0.00823348,0.044977,692,988,-18.5358,-1.42875
-525,36,-18.6843,1.90723,0.00237034,0.00572373,0.00799856,0.0122194,-0.00412537,0.888715,0.0098148,0.0469056,699,988,-18.6843,-1.90721
-518,36,0,0,0,0,0,0,0,0,0,-1,706,988,0,0
-511,36,0,0,0,0,0,0,0,0,0,-1,713,988,0,0
-504,36,0,0,0,0,0,0,0,0,0,-1,720,988,0,0
-497,36,0,0,0,0,0,0,0,0,0,-1,727,988,0,0
-490,36,0,0,0,0,0,0,0,0,0,-1,734,988,0,0
-483,36,0,0,0,0,0,0,0,0,0,-1,741,988,0,0
-476,36,0,0,0,0,0,0,0,0,0,-1,748,988,0,0
-469,36,0,0,0,0,0,0,0,0,0,-1,755,988,0,0
-462,36,0,0,0,0,0,0,0,0,0,-1,762,988,0,0
-455,36,0,0,0,0,0,0,0,0,0,-1,769,988,0,0
-448,36,0,0,0,0,0,0,0,0,0,-1,776,988,0,0
-441,36,0,0,0,0,0,0,0,0,0,-1,783,988,0,0
-434,36,0,0,0,0,0,0,0,0,0,-1,790,988,0,0
-427,36,0,0,0,0,0,0,0,0,0,-1,797,988,0,0
-420,36,0,0,0,0,0,0,0,0,0,-1,804,988,0,0
-413,36,0,0,0,0,0,0,0,0,0,-1,811,988,0,0
-406,36,0,0,0,0,0,0,0,0,0,-1,818,988,0,0
-399,36,0,0,0,0,0,0,0,0,0,-1,825,988,0,0
-392,36,0,0,0,0,0,0,0,0,0,-1,832,988,0,0
-385,36,0,0,0,0,0,0,0,0,0,-1,839,988,0,0
-378,36,0,0,0,0,0,0,0,0,0,-1,846,988,0,0
-371,36,0,0,0,0,0,0,0,0,0,-1,853,988,0,0
-364,36,0,0,0,0,0,0,0,0,0,-1,860,988,0,0
-357,36,0,0,0,0,0,0,0,0,0,-1,867,988,0,0
-350,36,0,0,0,0,0,0,0,0,0,-1,874,988,0,0
-343,36,0,0,0,0,0,0,0,0,0,-1,881,988,0,0
-336,36,0,0,0,0,0,0,0,0,0,-1,888,988,0,0
-329,36,0,0,0,0,0,0,0,0,0,-1,895,988,0,0
-322,36,0,0,0,0,0,0,0,0,0,-1,902,988,0,0
-315,36,0,0,0,0,0,0,0,0,0,-1,909,988,0,0
-308,36,0,0,0,0,0,0,0,0,0,-1,916,988,0,0
-301,36,0,0,0,0,0,0,0,0,0,-1,923,988,0,0
-294,36,0,0,0,0,0,0,0,0,0,-1,930,988,0,0
-287,36,0,0,0,0,0,0,0,0,0,-1,937,988,0,0
-280,36,0,0,0,0,0,0,0,0,0,-1,944,988,0,0
-273,36,0,0,0,0,0,0,0,0,0,-1,951,988,0,0
-266,36,0,0,0,0,0,0,0,0,0,-1,958,988,0,0
-259,36,0,0,0,0,0,0,0,0,0,-1,965,988,0,0
-252,36,0,0,0,0,0,0,0,0,0,-1,972,988,0,0
-245,36,0,0,0,0,0,0,0,0,0,-1,979,988,0,0
-238,36,0,0,0,0,0,0,0,0,0,-1,986,988,0,0
-231,36,0,0,0,0,0,0,0,0,0,-1,993,988,0,0
-224,36,0,0,0,0,0,0,0,0,0,-1,1000,988,0,0
-217,36,0,0,0,0,0,0,0,0,0,-1,1007,988,0,0
-210,36,0,0,0,0,0,0,0,0,0,-1,1014,988,0,0
-203,36,0,0,0,0,0,0,0,0,0,-1,1021,988,0,0
-196,36,0,0,0,0,0,0,0,0,0,-1,1028,988,0,0
-189,36,0,0,0,0,0,0,0,0,0,-1,1035,988,0,0
-182,36,0,0,0,0,0,0,0,0,0,-1,1042,988,0,0
-175,36,0,0,0,0,0,0,0,0,0,-1,1049,988,0,0
-168,36,0,0,0,0,0,0,0,0,0,-1,1056,988,0,0
-161,36,0,0,0,0,0,0,0,0,0,-1,1063,988,0,0
-154,36,0,0,0,0,0,0,0,0,0,-1,1070,988,0,0
-147,36,0,0,0,0,0,0,0,0,0,-1,1077,988,0,0
-140,36,0,0,0,0,0,0,0,0,0,-1,1084,988,0,0
-133,36,0,0,0,0,0,0,0,0,0,-1,1091,988,0,0
-126,36,0,0,0,0,0,0,0,0,0,-1,1098,988,0,0
-119,36,0,0,0,0,0,0,0,0,0,-1,1105,988,0,0
-112,36,0,0,0,0,0,0,0,0,0,-1,1112,988,0,0
-105,36,0,0,0,0,0,0,0,0,0,-1,1119,988,0,0
-98,36,0,0,0,0,0,0,0,0,0,-1,1126,988,0,0
-91,36,0,0,0,0,0,0,0,0,0,-1,1133,988,0,0
-84,36,0,0,0,0,0,0,0,0,0,-1,1140,988,0,0
-77,36,0,0,0,0,0,0,0,0,0,-1,1147,988,0,0
-70,36,0,0,0,0,0,0,0,0,0,-1,1154,988,0,0
-63,36,0,0,0,0,0,0,0,0,0,-1,1161,988,0,0
-56,36,0,0,0,0,0,0,0,0,0,-1,1168,988,0,0
-49,36,0,0,0,0,0,0,0,0,0,-1,1175,988,0,0
-42,36,0,0,0,0,0,0,0,0,0,-1,1182,988,0,0
-35,36,0,0,0,0,0,0,0,0,0,-1,1189,988,0,0
-28,36,0,0,0,0,0,0,0,0,0,-1,1196,988,0,0
-21,36,0,0,0,0,0,0,0,0,0,-1,1203,988,0,0
-14,36,0,0,0,0,0,0,0,0,0,-1,1210,988,0,0
-7,36,0,0,0,0,0,0,0,0,0,-1,1217,988,0,0
0,36,0,0,0,0,0,0,0,0,0,-1,1224,988,0,0
7,36,0,0,0,0,0,0,0,0,0,-1,1231,988,0,0
14,36,0,0,0,0,0,0,0,0,0,-1,1238,988,0,0
21,36,0,0,0,0,0,0,0,0,0,-1,1245,988,0,0
28,36,0,0,0,0,0,0,0,0,0,-1,1252,988,0,0
35,36,0,0,0,0,0,0,0,0,0,-1,1259,988,0,0
42,36,0,0,0,0,0,0,0,0,0,-1,1266,988,0,0
49,36,0,0,0,0,0,0,0,0,0,-1,1273,988,0,0
56,36,0,0,0,0,0,0,0,0,0,-1,1280,988,0,0
63,36,0,0,0,0,0,0,0,0,0,-1,1287,988,0,0
70,36,0,0,0,0,0,0,0,0,0,-1,1294,988,0,0
77,36,0,0,0,0,0,0,0,0,0,-1,1301,988,0,0
84,36,0,0,0,0,0,0,0,0,0,-1,1308,988,0,0
91,36,0,0,0,0,0,0,0,0,0,-1,1315,988,0,0
98,36,0,0,0,0,0,0,0,0,0,-1,1322,988,0,0
105,36,0,0,0,0,0,0,0,0,0,-1,1329,988,0,0
112,36,0,0,0,0,0,0,0,0,0,-1,1336,988,0,0
119,36,0,0,0,0,0,0,0,0,0,-1,1343,988,0,0
126,36,0,0,0,0,0,0,0,0,0,-1,1350,988,0,0
133,36,0,0,0,0,0,0,0,0,0,-1,1357,988,0,0
140,36,0,0,0,0,0,0,0,0,0,-1,1364,988,0,0
147,36,0,0,0,0,0,0,0,0,0,-1,1371,988,0,0
154,36,0,0,0,0,0,0,0,0,0,-1,1378,988,0,0
161,36,0,0,0,0,0,0,0,0,0,-1,1385,988,0,0
168,36,0,0,0,0,0,0,0,0,0,-1,1392,988,0,0
175,36,0,0,0,0,0,0,0,0,0,-1,1399,988,0,0
182,36,0,0,0,0,0,0,0,0,0,-1,1406,988,0,0
189,36,0,0,0,0,0,0,0,0,0,-1,1413,988,0,0
196,36,0,0,0,0,0,0,0,0,0,-1,1420,988,0,0
203,36,0,0,0,0,0,0,0,0,0,-1,1427,988,0,0
210,36,0,0,0,0,0,0,0,0,0,-1,1434,988,0,0
217,36,0,0,0,0,0,0,0,0,0,-1,1441,988,0,0
224,36,0,0,0,0,0,0,0,0,0,-1,1448,988,0,0
231,36,0,0,0,0,0,0,0,0,0,-1,1455,988,0,0
238,36,0,0,0,0,0,0,0,0,0,-1,1462,988,0,0
245,36,0,0,0,0,0,0,0,0,0,-1,1469,988,0,0
252,36,0,0,0,0,0,0,0,0,0,-1,1476,988,0,0
259,36,0,0,0,0,0,0,0,0,0,-1,1483,988,0,0
266,36,0,0,0,0,0,0,0,0,0,-1,1490,988,0,0
273,36,0,0,0,0,0,0,0,0,0,-1,1497,988,0,0
280,36,0,0,0,0,0,0,0,0,0,-1,1504,988,0,0
287,36,0,0,0,0,0,0,0,0,0,-1,1511,988,0,0
294,36,0,0,0,0,0,0,0,0,0,-1,1518,988,0,0
301,36,0,0,0,0,0,0,0,0,0,-1,1525,988,0,0
308,36,0,0,0,0,0,0,0,0,0,-1,1532,988,0,0
315,36,0,0,0,0,0,0,0,0,0,-1,1539,988,0,0
322,36,0,0,0,0,0,0,0,0,0,-1,1546,988,0,0
329,36,0,0,0,0,0,0,0,0,0,-1,1553,988,0,0
336,36,0,0,0,0,0,0,0,0,0,-1,1560,988,0,0
343,36,0,0,0,0,0,0,0,0,0,-1,1567,988,0,0
350,36,0,0,0,0,0,0,0,0,0,-1,1574,988,0,0
357,36,0,0,0,0,0,0,0,0,0,-1,1581,988,0,0
364,36,0,0,0,0,0,0,0,0,0,-1,1588,988,0,0
371,36,0,0,0,0,0,0,0,0,0,-1,1595,988,0,0
378,36,0,0,0,0,0,0,0,0,0,-1,1602,988,0,0
385,36,0,0,0,0,0,0,0,0,0,-1,1609,988,0,0
392,36,0,0,0,0,0,0,0,0,0,-1,1616,988,0,0
399,36,0,0,0,0,0,0,0,0,0,-1,1623,988,0,0
406,36,0,0,0,0,0,0,0,0,0,-1,1630,988,0,0
413,36,0,0,0,0,0,0,0,0,0,-1,1637,988,0,0
420,36,0,0,0,0,0,0,0,0,0,-1,1644,988,0,0
427,36,0,0,0,0,0,0,0,0,0,-1,1651,988,0,0
434,36,0,0,0,0,0,0,0,0,0,-1,1658,988,0,0
441,36,0,0,0,0,0,0,0,0,0,-1,1665,988,0,0
448,36,0,0,0,0,0,0,0,0,0,-1,1672,988,0,0
455,36,0,0,0,0,0,0,0,0,0,-1,1679,988,0,0
462,36,0,0,0,0,0,0,0,0,0,-1,1686,988,0,0
469,36,0,0,0,0,0,0,0,0,0,-1,1693,988,0,0
476,36,0,0,0,0,0,0,0,0,0,-1,1700,988,0,0
483,36,0,0,0,0,0,0,0,0,0,-1,1707,988,0,0
490,36,0,0,0,0,0,0,0,0,0,-1,1714,988,0,0
497,36,0,0,0,0,0,0,0,0,0,-1,1721,988,0,0
504,36,0,0,0,0,0,0,0,0,0,-1,1728,988,0,0
511,36,0,0,0,0,0,0,0,0,0,-1,1735,988,0,0
518,36,0,0,0,0,0,0,0,0,0,-1,1742,988,0,0
525,36,0,0,0,0,0,0,0,0,0,-1,1749,988,0,0
532,36,0,0,0,0,0,0,0,0,0,-1,1756,988,0,0
539,36,0,0,0,0,0,0,0,0,0,-1,1763,988,0,0
546,36,0,0,0,0,0,0,0,0,0,-1,1770,988,0,0
553,36,0,0,0,0,0,0,0,0,0,-1,1777,988,0,0
560,36,0,0,0,0,0,0,0,0,0,-1,1784,988,0,0
567,36,0,0,0,0,0,0,0,0,0,-1,1791,988,0,0
574,36,0,0,0,0,0,0,0,0,0,-1,1798,988,0,0
581,36,0,0,0,0,0,0,0,0,0,-1,1805,988,0,0
588,36,0,0,0,0,0,0,0,0,0,-1,1812,988,0,0
595,36,0,0,0,0,0,0,0,0,0,-1,1819,988,0,0
602,36,0,0,0,0,0,0,0,0,0,-1,1826,988,0,0
609,36,0,0,0,0,0,0,0,0,0,-1,1833,988,0,0
616,36,0,0,0,0,0,0,0,0,0,-1,1840,988,0,0
623,36,0,0,0,0,0,0,0,0,0,-1,1847,988,0,0
630,36,0,0,0,0,0,0,0,0,0,-1,1854,988,0,0
637,36,0,0,0,0,0,0,0,0,0,-1,1861,988,0,0
644,36,26.9427,2.87762,0,0,0,0,0,0,0,-1,1868,988,26.9428,-2.87761
651,36,26.9282,3.0777,0,0,0,0,0,0,0,-1,1875,988,26.9282,-3.07768
658,36,27.049,3.41119,0,0,0,0,0,0,0,-1,1882,988,27.0489,-3.41118
665,36,27.186,3.16846,-0.000374123,0.000788848,0.00161155,0.00192061,-0.00150588,0.958541,0.00198311,0.0341182,1889,988,27.186,-3.16846
672,36,27.0658,3.05664,-0.000820842,0.00105923,0.00222472,0.00253437,-0.00229597,0.985292,0.00278993,0.0366696,1896,988,27.0658,-3.05662
679,36,27.0093,3.03516,-0.00125215,0.00132768,0.00305933,0.00335792,-0.00328238,0.984906,0.00383386,0.0383678,1903,988,27.0093,-3.03515
686,36,26.924,3.1189,-0.00155133,0.00151551,0.00380172,0.00408142,-0.00411723,0.977093,0.00473351,0.0348762,1910,988,26.9239,-3.1189
693,36,26.8483,3.15204,-0.00177298,0.00164208,0.00438381,0.00463917,-0.00477007,0.971113,0.0054326,0.0357559,1917,988,26.8482,-3.15202
700,36,26.9307,3.12323,-0.0021182,0.0016712,0.00472543,0.00486762,-0.00531463,0.976064,0.00588061,0.035145,1924,988,26.9307,-3.1232
707,36,27.025,3.08215,-0.00225603,0.00173071,0.00475258,0.00489103,-0.00541635,0.98397,0.00595354,0.0246986,1931,988,27.025,-3.08217
714,36,27.0205,3.33911,-0.00231814,0.00184846,0.00455834,0.004777,-0.00524669,0.999741,0.0057893,0.0240039,1938,988,27.0206,-3.33914
721,36,26.6538,4.34711,0,0,0,0,0,0,0,-1,1945,988,26.6539,-4.34709
728,36,26.4827,4.5033,-0.00300814,0.00226052,0.004165,0.00455437,-0.00530198,1.06738,0.00569602,0.0217377,1952,988,26.4827,-4.50327
735,36,26.328,4.65112,-0.00373435,0.00249851,0.00351574,0.00408023,-0.00531607,1.14803,0.00544057,0.0171744,1959,988,26.328,-4.65115
742,36,26.2959,4.75476,-0.00455712,0.0029485,0.00225792,0.00357539,-0.00518401,1.29998,0.00508559,0.0140799,1966,988,26.2959,-4.75477
749,36,26.2982,4.85052,-0.00551016,0.00362852,0.000526762,0.00365878,-0.00554043,1.51341,0.00534807,0.0154018,1973,988,26.2983,-4.85051
756,36,26.2894,4.91406,-0.00635351,0.00445389,-0.00158591,0.00468181,-0.00658143,-1.42806,0.00653359,0.0141957,1980,988,26.2895,-4.91407
763,36,26.2546,5.01056,-0.00743695,0.00557928,-0.00419521,0.00681425,-0.00867192,-1.28451,0.00896236,0.015756,1987,988,26.2546,-5.01057
770,36,26.2031,5.12653,-0.00883238,0.00711022,-0.00742116,0.01003,-0.0117521,-1.19596,0.012589,0.0132682,1994,988,26.2031,-5.12655
777,36,26.1443,5.26117,-0.0101889,0.00902423,-0.011112,0.0141065,-0.0152712,-1.14183,0.0169657,0.0217851,2001,988,26.1442,-5.26116
784,36,26.0133,5.35254,-0.0113974,0.0109867,-0.0155295,0.0189369,-0.0193476,-1.09764,0.022104,0.0430571,2008,988,26.0133,-5.35255
791,36,24.5641,5.28687,0,0,0,0,0,0,0,-1,2015,988,24.564,-5.28686
798,36,24.7456,5.09399,0,0,0,0,0,0,0,-1,2022,988,24.7456,-5.094
805,36,25.2832,5.20502,0,0,0,0,0,0,0,-1,2029,988,25.2832,-5.20501
812,36,24.1541,5.8067,0,0,0,0,0,0,0,-1,2036,988,24.1541,-5.80667
-700,29,0,0,0,0,0,0,0,0,0,-1,524,995,0,0
-693,29,-15.7624,-1.81427,-0.0488964,0.0872059,0.0955379,0.136451,-0.0981417,1.09486,0.136043,0.0443227,531,995,-15.7624,1.81428
-686,29,-16.1707,-1.96381,-0.0471422,0.0736706,0.078655,0.112438,-0.0859101,1.11286,0.114858,0.0438211,538,995,-16.1707,1.96378
-679,29,-15.8457,0.305054,0,0,0,0,0,0,0,-1,545,995,-15.8457,-0.30503
-672,29,-16.296,0.865295,-0.0380446,0.0485597,0.0518298,0.0727958,-0.0622806,1.1334,0.0780651,0.0445577,552,995,-16.296,-0.865304
-665,29,-16.798,1.36908,-0.0323901,0.0380081,0.0411828,0.0569846,-0.0513667,1.13901,0.0625847,0.0433083,559,995,-16.798,-1.3691
-658,29,-18.6429,2.55243,0,0,0,0,0,0,0,-1,566,995,-18.6429,-2.55243
-651,29,-18.5997,2.44897,-0.0211818,0.02149,0.0243781,0.0325502,-0.0322421,1.14487,0.037408,0.0356083,573,995,-18.5997,-2.44896
-644,29,-18.5848,2.5141,-0.0161071,0.0154793,0.0177597,0.0234523,-0.0240801,1.14883,0.0274436,0.0207162,580,995,-18.5848,-2.51413
-637,29,-18.6835,2.48041,-0.0121271,0.0117215,0.0110306,0.016041,-0.0164466,1.19755,0.0187573,0.0149878,587,995,-18.6835,-2.48041
-630,29,-18.707,2.48425,-0.00872905,0.00595851,0.0063888,0.00834858,-0.0111191,1.21281,0.0112776,0.0115747,594,995,-18.707,-2.48424
-623,29,-18.7051,2.44189,-0.00568576,0.00365911,0.00230522,0.00419683,-0.00622347,1.34163,0.00605397,0.0100319,601,995,-18.7051,-2.44188
-616,29,-18.6744,2.34247,-0.00356404,0.00225033,-0.000524013,0.00229717,-0.00361089,-1.48163,0.00343902,0.012308,608,995,-18.6744,-2.34247
-609,29,-18.67,2.26324,-0.00231745,0.00170577,-0.00276198,0.00311104,-0.00372272,-1.10014,0.00395074,0.0205648,615,995,-18.67,-2.26327
-602,29,-18.6761,2.1665,-0.00203342,0.00197378,-0.00411917,0.00455079,-0.00461042,-1.01176,0.00528926,0.0233244,622,995,-18.6761,-2.16651
-595,29,-18.5922,2.07648,-0.00198042,0.00162471,-0.00474434,0.00489738,-0.00525309,-0.966945,0.00586157,0.0219138,629,995,-18.5922,-2.07648
-588,29,-18.6503,1.71063,-0.00199262,0.0013589,-0.00500448,0.00496073,-0.00559445,-0.946957,0.0060977,0.0263568,636,995,-18.6503,-1.71066
-581,29,-18.7235,1.29456,-0.00195886,0.0011653,-0.00478796,0.00463955,-0.00543311,-0.94308,0.00582147,0.037861,643,995,-18.7235,-1.29456
-574,29,-18.6962,1.12872,-0.00195164,0.00115167,-0.00405862,0.00394513,-0.0047451,-0.967981,0.00502439,0.0342572,650,995,-18.6961,-1.12873
-567,29,-18.7046,1.02936,-0.00194758,0.00119031,-0.00296678,0.00297746,-0.00373473,-1.02862,0.00388349,0.0343449,657,995,-18.7046,-1.02934
-560,29,-18.8688,0.908936,-0.00175378,0.00131598,-0.00136565,0.00183557,-0.00227338,-1.20724,0.00237679,0.0378647,664,995,-18.8688,-0.908952
-553,29,-19.0157,1.12927,-0.00131228,0.00153808,0.000698601,0.00170009,-0.00147429,1.34291,0.00183427,0.0390955,671,995,-19.0157,-1.12925
-546,29,-18.8889,1.14636,-0.00059563,0.00185296,0.00319539,0.00405056,-0.00279324,0.968344,0.00397344,0.0413631,678,995,-18.8889,-1.14638
-539,29,-18.8401,0.942078,0.000437909,0.00235482,0.0058885,0.00736236,-0.00456963,0.866074,0.00695155,0.0431944,685,995,-18.8401,-0.942061
-532,29,-18.8782,1.34723,0.00130491,0.00345218,0.00805589,0.0105057,-0.00574857,0.851644,0.00951742,0.0470826,692,995,-18.8782,-1.34722
-525,29,-18.933,1.50214,0.00129499,0.00517736,0.0096896,0.0131183,-0.00664596,0.884258,0.0116131,0.0464517,699,995,-18.9331,-1.50213
-518,29,0,0,0,0,0,0,0,0,0,-1,706,995,0,0
-511,29,0,0,0,0,0,0,0,0,0,-1,713,995,0,0
-504,29,0,0,0,0,0,0,0,0,0,-1,720,995,0,0
-497,29,0,0,0,0,0,0,0,0,0,-1,727,995,0,0
-490,29,0,0,0,0,0,0,0,0,0,-1,734,995,0,0
-483,29,0,0,0,0,0,0,0,0,0,-1,741,995,0,0
-476,29,0,0,0,0,0,0,0,0,0,-1,748,995,0,0
-469,29,0,0,0,0,0,0,0,0,0,-1,755,995,0,0
-462,29,0,0,0,0,0,0,0,0,0,-1,762,995,0,0
-455,29,0,0,0,0,0,0,0,0,0,-1,769,995,0,0
-448,29,0,0,0,0,0,0,0,0,0,-1,776,995,0,0
-441,29,0,0,0,0,0,0,0,0,0,-1,783,995,0,0
-434,29,0,0,0,0,0,0,0,0,0,-1,790,995,0,0
-427,29,0,0,0,0,0,0,0,0,0,-1,797,995,0,0
-420,29,0,0,0,0,0,0,0,0,0,-1,804,995,0,0
-413,29,0,0,0,0,0,0,0,0,0,-1,811,995,0,0
-406,29,0,0,0,0,0,0,0,0,0,-1,818,995,0,0
-399,29,0,0,0,0,0,0,0,0,0,-1,825,995,0,0
-392,29,0,0,0,0,0,0,0,0,0,-1,832,995,0,0
-385,29,0,0,0,0,0,0,0,0,0,-1,839,995,0,0
-378,29,0,0,0,0,0,0,0,0,0,-1,846,995,0,0
-371,29,0,0,0,0,0,0,0,0,0,-1,853,995,0,0
-364,29,0,0,0,0,0,0,0,0,0,-1,860,995,0,0
-357,29,0,0,0,0,0,0,0,0,0,-1,867,995,0,0
-350,29,0,0,0,0,0,0,0,0,0,-1,874,995,0,0
-343,29,0,0,0,0,0,0,0,0,0,-1,881,995,0,0
-336,29,0,0,0,0,0,0,0,0,0,-1,888,995,0,0
-329,29,0,0,0,0,0,0,0,0,0,-1,895,995,0,0
-322,29,0,0,0,0,0,0,0,0,0,-1,902,995,0,0
-315,29,0,0,0,0,0,0,0,0,0,-1,909,995,0,0
-308,29,0,0,0,0,0,0,0,0,0,-1,916,995,0,0
-301,29,0,0,0,0,0,0,0,0,0,-1,923,995,0,0
-294,29,0,0,0,0,0,0,0,0,0,-1,930,995,0,0
-287,29,0,0,0,0,0,0,0,0,0,-1,937,995,0,0
-280,29,0,0,0,0,0,0,0,0,0,-1,944,995,0,0
-273,29,0,0,0,0,0,0,0,0,0,-1,951,995,0,0
-266,29,0,0,0,0,0,0,0,0,0,-1,958,995,0,0
-259,29,0,0,0,0,0,0,0,0,0,-1,965,995,0,0
-252,29,0,0,0,0,0,0,0,0,0,-1,972,995,0,0
-245,29,0,0,0,0,0,0,0,0,0,-1,979,995,0,0
-238,29,0,0,0,0,0,0,0,0,0,-1,986,995,0,0
-231,29,0,0,0,0,0,0,0,0,0,-1,993,995,0,0
-224,29,0,0,0,0,0,0,0,0,0,-1,1000,995,0,0
-217,29,0,0,0,0,0,0,0,0,0,-1,1007,995,0,0
-210,29,0,0,0,0,0,0,0,0,0,-1,1014,995,0,0
-203,29,0,0,0,0,0,0,0,0,0,-1,1021,995,0,0
-196,29,0,0,0,0,0,0,0,0,0,-1,1028,995,0,0
-189,29,0,0,0,0,0,0,0,0,0,-1,1035,995,0,0
-182,29,0,0,0,0,0,0,0,0,0,-1,1042,995,0,0
-175,29,0,0,0,0,0,0,0,0,0,-1,1049,995,0,0
-168,29,0,0,0,0,0,0,0,0,0,-1,1056,995,0,0
-161,29,0,0,0,0,0,0,0,0,0,-1,1063,995,0,0
-154,29,0,0,0,0,0,0,0,0,0,-1,1070,995,0,0
-147,29,0,0,0,0,0,0,0,0,0,-1,1077,995,0,0
-140,29,0,0,0,0,0,0,0,0,0,-1,1084,995,0,0
-133,29,0,0,0,0,0,0,0,0,0,-1,1091,995,0,0
-126,29,0,0,0,0,0,0,0,0,0,-1,1098,995,0,0
-119,29,0,0,0,0,0,0,0,0,0,-1,1105,995,0,0
-112,29,0,0,0,0,0,0,0,0,0,-1,1112,995,0,0
-105,29,0,0,0,0,0,0,0,0,0,-1,1119,995,0,0
-98,29,0,0,0,0,0,0,0,0,0,-1,1126,995,0,0
-91,29,0,0,0,0,0,0,0,0,0,-1,1133,995,0,0
-84,29,0,0,0,0,0,0,0,0,0,-1,1140,995,0,0
-77,29,0,0,0,0,0,0,0,0,0,-1,1147,995,0,0
-70,29,0,0,0,0,0,0,0,0,0,-1,1154,995,0,0
-63,29,0,0,0,0,0,0,0,0,0,-1,1161,995,0,0
-56,29,0,0,0,0,0,0,0,0,0,-1,1168,995,0,0
-49,29,0,0,0,0,0,0,0,0,0,-1,1175,995,0,0
-42,29,0,0,0,0,0,0,0,0,0,-1,1182,995,0,0
-35,29,0,0,0,0,0,0,0,0,0,-1,1189,995,0,0
-28,29,0,0,0,0,0,0,0,0,0,-1,1196,995,0,0
-21,29,0,0,0,0,0,0,0,0,0,-1,1203,995,0,0
-14,29,0,0,0,0,0,0,0,0,0,-1,1210,995,0,0
-7,29,0,0,0,0,0,0,0,0,0,-1,1217,995,0,0
0,29,0,0,0,0,0,0,0,0,0,-1,1224,995,0,0
7,29,0,0,0,0,0,0,0,0,0,-1,1231,995,0,0
14,29,0,0,0,0,0,0,0,0,0,-1,1238,995,0,0
21,29,0,0,0,0,0,0,0,0,0,-1,1245,995,0,0
28,29,0,0,0,0,0,0,0,0,0,-1,1252,995,0,0
35,29,0,0,0,0,0,0,0,0,0,-1,1259,995,0,0
42,29,0,0,0,0,0,0,0,0,0,-1,1266,995,0,0
49,29,0,0,0,0,0,0,0,0,0,-1,1273,995,0,0
56,29,0,0,0,0,0,0,0,0,0,-1,1280,995,0,0
63,29,0,0,0,0,0,0,0,0,0,-1,1287,995,0,0
70,29,0,0,0,0,0,0,0,0,0,-1,1294,995,0,0
77,29,0,0,0,0,0,0,0,0,0,-1,1301,995,0,0
84,29,0,0,0,0,0,0,0,0,0,-1,1308,995,0,0
91,29,0,0,0,0,0,0,0,0,0,-1,1315,995,0,0
98,29,0,0,0,0,0,0,0,0,0,-1,1322,995,0,0
105,29,0,0,0,0,0,0,0,0,0,-1,1329,995,0,0
112,29,0,0,0,0,0,0,0,0,0,-1,1336,995,0,0
119,29,0,0,0,0,0,0,0,0,0,-1,1343,995,0,0
126,29,0,0,0,0,0,0,0,0,0,-1,1350,995,0,0
133,29,0,0,0,0,0,0,0,0,0,-1,1357,995,0,0
140,29,0,0,0,0,0,0,0,0,0,-1,1364,995,0,0
147,29,0,0,0,0,0,0,0,0,0,-1,1371,995,0,0
154,29,0,0,0,0,0,0,0,0,0,-1,1378,995,0,0
161,29,0,0,0,0,0,0,0,0,0,-1,1385,995,0,0
168,29,0,0,0,0,0,0,0,0,0,-1,1392,995,0,0
175,29,0,0,0,0,0,0,0,0,0,-1,1399,995,0,0
182,29,0,0,0,0,0,0,0,0,0,-1,1406,995,0,0
189,29,0,0,0,0,0,0,0,0,0,-1,1413,995,0,0
196,29,0,0,0,0,0,0,0,0,0,-1,1420,995,0,0
203,29,0,0,0,0,0,0,0,0,0,-1,1427,995,0,0
210,29,0,0,0,0,0,0,0,0,0,-1,1434,995,0,0
217,29,0,0,0,0,0,0,0,0,0,-1,1441,995,0,0
224,29,0,0,0,0,0,0,0,0,0,-1,1448,995,0,0
231,29,0,0,0,0,0,0,0,0,0,-1,1455,995,0,0
238,29,0,0,0,0,0,0,0,0,0,-1,1462,995,0,0
245,29,0,0,0,0,0,0,0,0,0,-1,1469,995,0,0
252,29,0,0,0,0,0,0,0,0,0,-1,1476,995,0,0
259,29,0,0,0,0,0,0,0,0,0,-1,1483,995,0,0
266,29,0,0,0,0,0,0,0,0,0,-1,1490,995,0,0
273,29,0,0,0,0,0,0,0,0,0,-1,1497,995,0,0
280,29,0,0,0,0,0,0,0,0,0,-1,1504,995,0,0
287,29,0,0,0,0,0,0,0,0,0,-1,1511,995,0,0
294,29,0,0,0,0,0,0,0,0,0,-1,1518,995,0,0
301,29,0,0,0,0,0,0,0,0,0,-1,1525,995,0,0
308,29,0,0,0,0,0,0,0,0,0,-1,1532,995,0,0
315,29,0,0,0,0,0,0,0,0,0,-1,1539,995,0,0
322,29,0,0,0,0,0,0,0,0,0,-1,1546,995,0,0
329,29,0,0,0,0,0,0,0,0,0,-1,1553,995,0,0
336,29,0,0,0,0,0,0,0,0,0,-1,1560,995,0,0
343,29,0,0,0,0,0,0,0,0,0,-1,1567,995,0,0
350,29,0,0,0,0,0,0,0,0,0,-1,1574,995,0,0
357,29,0,0,0,0,0,0,0,0,0,-1,1581,995,0,0
364,29,0,0,0,0,0,0,0,0,0,-1,1588,995,0,0
371,29,0,0,0,0,0,0,0,0,0,-1,1595,995,0,0
378,29,0,0,0,0,0,0,0,0,0,-1,1602,995,0,0
385,29,0,0,0,0,0,0,0,0,0,-1,1609,995,0,0
392,29,0,0,0,0,0,0,0,0,0,-1,1616,995,0,0
399,29,0,0,0,0,0,0,0,0,0,-1,1623,995,0,0
406,29,0,0,0,0,0,0,0,0,0,-1,1630,995,0,0
413,29,0,0,0,0,0,0,0,0,0,-1,1637,995,0,0
420,29,0,0,0,0,0,0,0,0,0,-1,1644,995,0,0
427,29,0,0,0,0,0,0,0,0,0,-1,1651,995,0,0
434,29,0,0,0,0,0,0,0,0,0,-1,1658,995,0,0
441,29,0,0,0,0,0,0,0,0,0,-1,1665,995,0,0
448,29,0,0,0,0,0,0,0,0,0,-1,1672,995,0,0
455,29,0,0,0,0,0,0,0,0,0,-1,1679,995,0,0
462,29,0,0,0,0,0,0,0,0,0,-1,1686,995,0,0
469,29,0,0,0,0,0,0,0,0,0,-1,1693,995,0,0
476,29,0,0,0,0,0,0,0,0,0,-1,1700,995,0,0
483,29,0,0,0,0,0,0,0,0,0,-1,1707,995,0,0
490,29,0,0,0,0,0,0,0,0,0,-1,1714,995,0,0
497,29,0,0,0,0,0,0,0,0,0,-1,1721,995,0,0
504,29,0,0,0,0,0,0,0,0,0,-1,1728,995,0,0
511,29,0,0,0,0,0,0,0,0,0,-1,1735,995,0,0
518,29,0,0,0,0,0,0,0,0,0,-1,1742,995,0,0
525,29,0,0,0,0,0,0,0,0,0,-1,1749,995,0,0
532,29,0,0,0,0,0,0,0,0,0,-1,1756,995,0,0
539,29,0,0,0,0,0,0,0,0,0,-1,1763,995,0,0
546,29,0,0,0,0,0,0,0,0,0,-1,1770,995,0,0
553,29,0,0,0,0,0,0,0,0,0,-1,1777,995,0,0
560,29,0,0,0,0,0,0,0,0,0,-1,1784,995,0,0
567,29,0,0,0,0,0,0,0,0,0,-1,1791,995,0,0
574,29,0,0,0,0,0,0,0,0,0,-1,1798,995,0,0
581,29,0,0,0,0,0,0,0,0,0,-1,1805,995,0,0
588,29,0,0,0,0,0,0,0,0,0,-1,1812,995,0,0
595,29,0,0,0,0,0,0,0,0,0,-1,1819,995,0,0
602,29,0,0,0,0,0,0,0,0,0,-1,1826,995,0,0
609,29,0,0,0,0,0,0,0,0,0,-1,1833,995,0,0
616,29,0,0,0,0,0,0,0,0,0,-1,1840,995,0,0
623,29,0,0,0,0,0,0,0,0,0,-1,1847,995,0,0
630,29,0,0,0,0,0,0,0,0,0,-1,1854,995,0,0
637,29,0,0,0,0,0,0,0,0,0,-1,1861,995,0,0
644,29,26.941,3.08472,0.001896,0.0017577,0.00282077,0.00464847,-0.000994761,0.773143,0.00347831,0.0415219,1868,995,26.941,-3.08472
651,29,27.0249,2.85577,0.000500765,0.00130466,0.00227595,0.00321388,-0.00140846,0.8728,0.00273572,0.0442448,1875,995,27.0249,-2.85575
658,29,26.9586,3.05176,-0.000111942,0.000882696,0.00178042,0.00223395,-0.0014632,0.92159,0.00214995,0.0435408,1882,995,26.9587,-3.05179
665,29,26.9756,3.21753,-0.00052058,0.000760303,0.00169673,0.00193343,-0.00169371,0.96586,0.00209566,0.0396011,1889,995,26.9755,-3.21753
672,29,26.9307,3.19244,-0.000807701,0.000954145,0.00216969,0.00241492,-0.00226848,0.978238,0.0027044,0.0391437,1896,995,26.9306,-3.19246
679,29,26.9547,3.06122,-0.00115513,0.00115246,0.00299845,0.00321145,-0.00321412,0.969064,0.0037098,0.0393993,1903,995,26.9547,-3.06123
686,29,26.9305,3.11981,-0.00143416,0.0012849,0.00379333,0.00395497,-0.00410423,0.957467,0.00465324,0.0373694,1910,995,26.9305,-3.11983
693,29,26.9451,3.23682,-0.00166726,0.00136536,0.00445579,0.00455577,-0.00485768,0.949402,0.00543579,0.0367374,1917,995,26.9451,-3.23683
700,29,26.9896,3.2041,-0.00200942,0.00137749,0.00489085,0.00485977,-0.0054917,0.952063,0.00598013,0.0346724,1924,995,26.9897,-3.20412
707,29,26.9921,3.11267,-0.00214102,0.00142424,0.00499548,0.00494563,-0.00566241,0.95678,0.00612921,0.0226655,1931,995,26.9921,-3.11267
714,29,26.9934,3.39197,-0.00224753,0.0015228,0.00486785,0.00485777,-0.0055825,0.97014,0.00603253,0.0239775,1938,995,26.9935,-3.39199
721,29,26.7205,4.28851,0,0,0,0,0,0,0,-1,1945,995,26.7205,-4.28853
728,29,26.5071,4.51276,-0.00305314,0.00197497,0.00463209,0.00473128,-0.00580945,1.03403,0.0060963,0.0226804,1952,995,26.5071,-4.51273
735,29,26.3934,4.69,-0.00379387,0.00225829,0.00403412,0.00427516,-0.00581073,1.10719,0.00584554,0.0144893,1959,995,26.3935,-4.69002
742,29,26.4,4.76721,-0.00463117,0.00270187,0.0027708,0.00363108,-0.00556038,1.24723,0.00534551,0.0119598,1966,995,26.4,-4.76719
749,29,26.3966,4.85181,-0.00561661,0.00331383,0.00107156,0.0034406,-0.00574339,1.45303,0.00535765,0.012393,1973,995,26.3967,-4.85179
756,29,26.386,4.93951,-0.0064887,0.00418673,-0.000948758,0.00427039,-0.00657236,-1.48284,0.00630692,0.0122454,1980,995,26.386,-4.9395
763,29,26.3594,5.01758,-0.00753944,0.0053737,-0.00346983,0.006247,-0.00841274,-1.32423,0.00849454,0.0117955,1987,995,26.3594,-5.01758
770,29,26.3052,5.0719,-0.0089092,0.00692952,-0.00662039,0.00933226,-0.0113119,-1.22265,0.0119372,0.012278,1994,995,26.3051,-5.0719
777,29,26.2573,5.18359,-0.0102268,0.00891522,-0.0101286,0.0132795,-0.0145911,-1.16395,0.016097,0.0204288,2001,995,26.2574,-5.1836
784,29,26.0891,5.39124,-0.0113579,0.0110313,-0.0141747,0.0178988,-0.0182255,-1.11963,0.0208567,0.0397595,2008,995,26.0892,-5.39126
791,29,25.797,5.56323,-0.0117813,0.0133397,-0.0193726,0.0238673,-0.022309,-1.07301,0.026665,0.0428299,2015,995,25.797,-5.56321
798,29,25.5709,5.552,-0.0107781,0.0159408,-0.0260361,0.0318448,-0.0266821,-1.02244,0.0338344,0.0423086,2022,995,25.5709,-5.55198
805,29,25.7246,5.66931,0,0,0,0,0,0,0,-1,2029,995,25.7246,-5.66931
812,29,25.9048,5.78461,0,0,0,0,0,0,0,-1,2036,995,25.9048,-5.78458
-700,22,0,0,0,0,0,0,0,0,0,-1,524,1002,0,0
-693,22,-15.7734,-1.22577,0,0,0,0,0,0,0,-1,531,1002,-15.7734,1.22578
-686,22,-16.2164,-0.467529,0,0,0,0,0,0,0,-1,538,1002,-16.2164,0.467546
-679,22,-15.8668,0.358765,0,0,0,0,0,0,0,-1,545,1002,-15.8667,-0.35876
-672,22,-16.2835,0.913391,-0.0318315,0.0455326,0.0523249,0.0719213,-0.0582201,1.1037,0.0752758,0.0463705,552,1002,-16.2835,-0.913411
-665,22,-16.5113,1.35992,-0.0271858,0.0353002,0.0412093,0.0557711,-0.0476567,1.10975,0.0597753,0.0420083,559,1002,-16.5113,-1.35992
-658,22,-18.3224,2.52454,0,0,0,0,0,0,0,-1,566,1002,-18.3224,-2.52451
-651,22,-18.4501,2.51971,-0.0179793,0.0196178,0.0239114,0.0312353,-0.0295968,1.11853,0.0351257,0.0409086,573,1002,-18.4501,-2.51974
-644,22,-18.6148,2.48407,-0.0137177,0.0140602,0.0171287,0.0222234,-0.0218809,1.12606,0.0254638,0.0214134,580,1002,-18.6148,-2.48405
-637,22,-18.7221,2.4505,-0.0104882,0.0106795,0.0102253,0.0148121,-0.0146209,1.18671,0.0169933,0.0155069,587,1002,-18.7221,-2.45047
-630,22,-18.7598,2.43768,-0.00746239,0.00490736,0.00563734,0.00709102,-0.00964605,1.20124,0.00970061,0.0116227,594,1002,-18.7598,-2.43767
-623,22,-18.7844,2.41284,-0.00458436,0.00299699,0.00143208,0.00325849,-0.00484585,1.39019,0.00470886,0.00963784,601,1002,-18.7843,-2.41285
-616,22,-18.7302,2.32233,-0.00278288,0.00186747,-0.00130326,0.0022078,-0.00312322,-1.31536,0.00309295,0.0159932,608,1002,-18.7303,-2.32236
-609,22,-18.7257,2.27301,-0.00168982,0.0014781,-0.00348451,0.00372177,-0.00393349,-0.998723,0.00442032,0.0278201,615,1002,-18.7257,-2.27304
-602,22,-18.7508,2.20062,-0.0014215,0.00165093,-0.00478546,0.00514071,-0.00491128,-0.940711,0.00580402,0.0283665,622,1002,-18.7508,-2.20065
-595,22,-18.6721,2.07721,-0.00128568,0.00127482,-0.00542771,0.00557122,-0.00558208,-0.901218,0.00643937,0.0235646,629,1002,-18.6721,-2.07722
-588,22,-18.6741,1.72644,-0.00124756,0.00098697,-0.00564942,0.00562854,-0.00588913,-0.883022,0.0066503,0.0291912,636,1002,-18.6741,-1.72642
-581,22,-18.7089,1.39575,-0.00123185,0.000787133,-0.00537146,0.00524314,-0.00568786,-0.878283,0.00631276,0.0388485,643,1002,-18.7089,-1.39574
-574,22,-18.7176,1.23572,-0.00132148,0.000775617,-0.00457242,0.00441818,-0.00496404,-0.898109,0.00541988,0.0346139,650,1002,-18.7176,-1.23574
-567,22,-18.6865,1.16437,-0.00147673,0.000829053,-0.00334716,0.00321631,-0.00386398,-0.951254,0.00409351,0.0330888,657,1002,-18.6865,-1.16436
-560,22,-18.7615,1.0509,-0.00153136,0.00100218,-0.00155805,0.00174345,-0.00227264,-1.12672,0.00232539,0.0384519,664,1002,-18.7615,-1.05087
-553,22,-18.9327,1.1828,-0.00141984,0.00128517,0.000776273,0.00149211,-0.00162678,1.31027,0.00180125,0.0402178,671,1002,-18.9328,-1.18277
-546,22,-18.8557,1.25134,-0.00108737,0.00166147,0.00365194,0.00418906,-0.00361496,0.965376,0.00450971,0.0396174,678,1002,-18.8556,-1.25134
-539,22,-18.8154,1.1087,-0.000454136,0.00222433,0.00677857,0.0077947,-0.0060245,0.882927,0.00800031,0.0393697,685,1002,-18.8154,-1.10868
-532,22,-18.8677,1.19855,6.29883e-05,0.00339983,0.00932519,0.0112047,-0.00774186,0.873919,0.0109995,0.0422961,692,1002,-18.8677,-1.19858
-525,22,0,0,0,0,0,0,0,0,0,-1,699,1002,0,0
-518,22,0,0,0,0,0,0,0,0,0,-1,706,1002,0,0
-511,22,0,0,0,0,0,0,0,0,0,-1,713,1002,0,0
-504,22,0,0,0,0,0,0,0,0,0,-1,720,1002,0,0
-497,22,0,0,0,0,0,0,0,0,0,-1,727,1002,0,0
-490,22,0,0,0,0,0,0,0,0,0,-1,734,1002,0,0
-483,22,0,0,0,0,0,0,0,0,0,-1,741,1002,0,0
-476,22,0,0,0,0,0,0,0,0,0,-1,748,1002,0,0
-469,22,0,0,0,0,0,0,0,0,0,-1,755,1002,0,0
-462,22,0,0,0,0,0,0,0,0,0,-1,762,1002,0,0
-455,22,0,0,0,0,0,0,0,0,0,-1,769,1002,0,0
-448,22,0,0,0,0,0,0,0,0,0,-1,776,1002,0,0
-441,22,0,0,0,0,0,0,0,0,0,-1,783,1002,0,0
-434,22,0,0,0,0,0,0,0,0,0,-1,790,1002,0,0
-427,22,0,0,0,0,0,0,0,0,0,-1,797,1002,0,0
-420,22,0,0,0,0,0,0,0,0,0,-1,804,1002,0,0
-413,22,0,0,0,0,0,0,0,0,0,-1,811,1002,0,0
-406,22,0,0,0,0,0,0,0,0,0,-1,818,1002,0,0
-399,22,0,0,0,0,0,0,0,0,0,-1,825,1002,0,0
-392,22,0,0,0,0,0,0,0,0,0,-1,832,1002,0,0
-385,22,0,0,0,0,0,0,0,0,0,-1,839,1002,0,0
-378,22,0,0,0,0,0,0,0,0,0,-1,846,1002,0,0
-371,22,0,0,0,0,0,0,0,0,0,-1,853,1002,0,0
-364,22,0,0,0,0,0,0,0,0,0,-1,860,1002,0,0
-357,22,0,0,0,0,0,0,0,0,0,-1,867,1002,0,0
-350,22,0,0,0,0,0,0,0,0,0,-1,874,1002,0,0
-343,22,0,0,0,0,0,0,0,0,0,-1,881,1002,0,0
-336,22,0,0,0,0,0,0,0,0,0,-1,888,1002,0,0
-329,22,0,0,0,0,0,0,0,0,0,-1,895,1002,0,0
-322,22,0,0,0,0,0,0,0,0,0,-1,902,1002,0,0
-315,22,0,0,0,0,0,0,0,0,0,-1,909,1002,0,0
-308,22,0,0,0,0,0,0,0,0,0,-1,916,1002,0,0
-301,22,0,0,0,0,0,0,0,0,0,-1,923,1002,0,0
-294,22,0,0,0,0,0,0,0,0,0,-1,930,1002,0,0
-287,22,0,0,0,0,0,0,0,0,0,-1,937,1002,0,0
-280,22,0,0,0,0,0,0,0,0,0,-1,944,1002,0,0
-273,22,0,0,0,0,0,0,0,0,0,-1,951,1002,0,0
-266,22,0,0,0,0,0,0,0,0,0,-1,958,1002,0,0
-259,22,0,0,0,0,0,0,0,0,0,-1,965,1002,0,0
-252,22,0,0,0,0,0,0,0,0,0,-1,972,1002,0,0
-245,22,0,0,0,0,0,0,0,0,0,-1,979,1002,0,0
-238,22,0,0,0,0,0,0,0,0,0,-1,986,1002,0,0
-231,22,0,0,0,0,0,0,0,0,0,-1,993,1002,0,0
-224,22,0,0,0,0,0,0,0,0,0,-1,1000,1002,0,0
-217,22,0,0,0,0,0,0,0,0,0,-1,1007,1002,0,0
-210,22,0,0,0,0,0,0,0,0,0,-1,1014,1002,0,0
-203,22,0,0,0,0,0,0,0,0,0,-1,1021,1002,0,0
-196,22,0,0,0,0,0,0,0,0,0,-1,1028,1002,0,0
-189,22,0,0,0,0,0,0,0,0,0,-1,1035,1002,0,0
-182,22,0,0,0,0,0,0,0,0,0,-1,1042,1002,0,0
-175,22,0,0,0,0,0,0,0,0,0,-1,1049,1002,0,0
-168,22,0,0,0,0,0,0,0,0,0,-1,1056,1002,0,0
-161,22,0,0,0,0,0,0,0,0,0,-1,1063,1002,0,0
-154,22,0,0,0,0,0,0,0,0,0,-1,1070,1002,0,0
-147,22,0,0,0,0,0,0,0,0,0,-1,1077,1002,0,0
-140,22,0,0,0,0,0,0,0,0,0,-1,1084,1002,0,0
-133,22,0,0,0,0,0,0,0,0,0,-1,1091,1002,0,0
-126,22,0,0,0,0,0,0,0,0,0,-1,1098,1002,0,0
-119,22,0,0,0,0,0,0,0,0,0,-1,1105,1002,0,0
-112,22,0,0,0,0,0,0,0,0,0,-1,1112,1002,0,0
-105,22,0,0,0,0,0,0,0,0,0,-1,1119,1002,0,0
-98,22,0,0,0,0,0,0,0,0,0,-1,1126,1002,0,0
-91,22,0,0,0,0,0,0,0,0,0,-1,1133,1002,0,0
-84,22,0,0,0,0,0,0,0,0,0,-1,1140,1002,0,0
-77,22,0,0,0,0,0,0,0,0,0,-1,1147,1002,0,0
-70,22,0,0,0,0,0,0,0,0,0,-1,1154,1002,0,0
-63,22,0,0,0,0,0,0,0,0,0,-1,1161,1002,0,0
-56,22,0,0,0,0,0,0,0,0,0,-1,1168,1002,0,0
-49,22,0,0,0,0,0,0,0,0,0,-1,1175,1002,0,0
-42,22,0,0,0,0,0,0,0,0,0,-1,1182,1002,0,0
-35,22,0,0,0,0,0,0,0,0,0,-1,1189,1002,0,0
-28,22,0,0,0,0,0,0,0,0,0,-1,1196,1002,0,0
-21,22,0,0,0,0,0,0,0,0,0,-1,1203,1002,0,0
-14,22,0,0,0,0,0,0,0,0,0,-1,1210,1002,0,0
-7,22,0,0,0,0,0,0,0,0,0,-1,1217,1002,0,0
0,22,0,0,0,0,0,0,0,0,0,-1,1224,1002,0,0
7,22,0,0,0,0,0,0,0,0,0,-1,1231,1002,0,0
14,22,0,0,0,0,0,0,0,0,0,-1,1238,1002,0,0
21,22,0,0,0,0,0,0,0,0,0,-1,1245,1002,0,0
28,22,0,0,0,0,0,0,0,0,0,-1,1252,1002,0,0
35,22,0,0,0,0,0,0,0,0,0,-1,1259,1002,0,0
42,22,0,0,0,0,0,0,0,0,0,-1,1266,1002,0,0
49,22,0,0,0,0,0,0,0,0,0,-1,1273,1002,0,0
56,22,0,0,0,0,0,0,0,0,0,-1,1280,1002,0,0
63,22,0,0,0,0,0,0,0,0,0,-1,1287,1002,0,0
70,22,0,0,0,0,0,0,0,0,0,-1,1294,1002,0,0
77,22,0,0,0,0,0,0,0,0,0,-1,1301,1002,0,0
84,22,0,0,0,0,0,0,0,0,0,-1,1308,1002,0,0
91,22,0,0,0,0,0,0,0,0,0,-1,1315,1002,0,0
98,22,0,0,0,0,0,0,0,0,0,-1,1322,1002,0,0
105,22,0,0,0,0,0,0,0,0,0,-1,1329,1002,0,0
112,22,0,0,0,0,0,0,0,0,0,-1,1336,1002,0,0
119,22,0,0,0,0,0,0,0,0,0,-1,1343,1002,0,0
126,22,0,0,0,0,0,0,0,0,0,-1,1350,1002,0,0
133,22,0,0,0,0,0,0,0,0,0,-1,1357,1002,0,0
140,22,0,0,0,0,0,0,0,0,0,-1,1364,1002,0,0
147,22,0,0,0,0,0,0,0,0,0,-1,1371,1002,0,0
154,22,0,0,0,0,0,0,0,0,0,-1,1378,1002,0,0
161,22,0,0,0,0,0,0,0,0,0,-1,1385,1002,0,0
168,22,0,0,0,0,0,0,0,0,0,-1,1392,1002,0,0
175,22,0,0,0,0,0,0,0,0,0,-1,1399,1002,0,0
182,22,0,0,0,0,0,0,0,0,0,-1,1406,1002,0,0
189,22,0,0,0,0,0,0,0,0,0,-1,1413,1002,0,0
196,22,0,0,0,0,0,0,0,0,0,-1,1420,1002,0,0
203,22,0,0,0,0,0,0,0,0,0,-1,1427,1002,0,0
210,22,0,0,0,0,0,0,0,0,0,-1,1434,1002,0,0
217,22,0,0,0,0,0,0,0,0,0,-1,1441,1002,0,0
224,22,0,0,0,0,0,0,0,0,0,-1,1448,1002,0,0
231,22,0,0,0,0,0,0,0,0,0,-1,1455,1002,0,0
238,22,0,0,0,0,0,0,0,0,0,-1,1462,1002,0,0
245,22,0,0,0,0,0,0,0,0,0,-1,1469,1002,0,0
252,22,0,0,0,0,0,0,0,0,0,-1,1476,1002,0,0
259,22,0,0,0,0,0,0,0,0,0,-1,1483,1002,0,0
266,22,0,0,0,0,0,0,0,0,0,-1,1490,1002,0,0
273,22,0,0,0,0,0,0,0,0,0,-1,1497,1002,0,0
280,22,0,0,0,0,0,0,0,0,0,-1,1504,1002,0,0
287,22,0,0,0,0,0,0,0,0,0,-1,1511,1002,0,0
294,22,0,0,0,0,0,0,0,0,0,-1,1518,1002,0,0
301,22,0,0,0,0,0,0,0,0,0,-1,1525,1002,0,0
308,22,0,0,0,0,0,0,0,0,0,-1,1532,1002,0,0
315,22,0,0,0,0,0,0,0,0,0,-1,1539,1002,0,0
322,22,0,0,0,0,0,0,0,0,0,-1,1546,1002,0,0
329,22,0,0,0,0,0,0,0,0,0,-1,1553,1002,0,0
336,22,0,0,0,0,0,0,0,0,0,-1,1560,1002,0,0
343,22,0,0,0,0,0,0,0,0,0,-1,1567,1002,0,0
350,22,0,0,0,0,0,0,0,0,0,-1,1574,1002,0,0
357,22,0,0,0,0,0,0,0,0,0,-1,1581,1002,0,0
364,22,0,0,0,0,0,0,0,0,0,-1,1588,1002,0,0
371,22,0,0,0,0,0,0,0,0,0,-1,1595,1002,0,0
378,22,0,0,0,0,0,0,0,0,0,-1,1602,1002,0,0
385,22,0,0,0,0,0,0,0,0,0,-1,1609,1002,0,0
392,22,0,0,0,0,0,0,0,0,0,-1,1616,1002,0,0
399,22,0,0,0,0,0,0,0,0,0,-1,1623,1002,0,0
406,22,0,0,0,0,0,0,0,0,0,-1,1630,1002,0,0
413,22,0,0,0,0,0,0,0,0,0,-1,1637,1002,0,0
420,22,0,0,0,0,0,0,0,0,0,-1,1644,1002,0,0
427,22,0,0,0,0,0,0,0,0,0,-1,1651,1002,0,0
434,22,0,0,0,0,0,0,0,0,0,-1,1658,1002,0,0
441,22,0,0,0,0,0,0,0,0,0,-1,1665,1002,0,0
448,22,0,0,0,0,0,0,0,0,0,-1,1672,1002,0,0
455,22,0,0,0,0,0,0,0,0,0,-1,1679,1002,0,0
462,22,0,0,0,0,0,0,0,0,0,-1,1686,1002,0,0
469,22,0,0,0,0,0,0,0,0,0,-1,1693,1002,0,0
476,22,0,0,0,0,0,0,0,0,0,-1,1700,1002,0,0
483,22,0,0,0,0,0,0,0,0,0,-1,1707,1002,0,0
490,22,0,0,0,0,0,0,0,0,0,-1,1714,1002,0,0
497,22,0,0,0,0,0,0,0,0,0,-1,1721,1002,0,0
504,22,0,0,0,0,0,0,0,0,0,-1,1728,1002,0,0
511,22,0,0,0,0,0,0,0,0,0,-1,1735,1002,0,0
518,22,0,0,0,0,0,0,0,0,0,-1,1742,1002,0,0
525,22,0,0,0,0,0,0,0,0,0,-1,1749,1002,0,0
532,22,0,0,0,0,0,0,0,0,0,-1,1756,1002,0,0
539,22,0,0,0,0,0,0,0,0,0,-1,1763,1002,0,0
546,22,0,0,0,0,0,0,0,0,0,-1,1770,1002,0,0
553,22,0,0,0,0,0,0,0,0,0,-1,1777,1002,0,0
560,22,0,0,0,0,0,0,0,0,0,-1,1784,1002,0,0
567,22,0,0,0,0,0,0,0,0,0,-1,1791,1002,0,0
574,22,0,0,0,0,0,0,0,0,0,-1,1798,1002,0,0
581,22,0,0,0,0,0,0,0,0,0,-1,1805,1002,0,0
588,22,0,0,0,0,0,0,0,0,0,-1,1812,1002,0,0
595,22,0,0,0,0,0,0,0,0,0,-1,1819,1002,0,0
602,22,0,0,0,0,0,0,0,0,0,-1,1826,1002,0,0
609,22,0,0,0,0,0,0,0,0,0,-1,1833,1002,0,0
616,22,0,0,0,0,0,0,0,0,0,-1,1840,1002,0,0
623,22,0,0,0,0,0,0,0,0,0,-1,1847,1002,0,0
630,22,0,0,0,0,0,0,0,0,0,-1,1854,1002,0,0
637,22,0,0,0,0,0,0,0,0,0,-1,1861,1002,0,0
644,22,26.9399,3.04132,0.000796637,0.00165445,0.00359684,0.00484786,-0.00239677,0.844741,0.00426174,0.0389385,1868,1002,26.94,-3.04132
651,22,27.0966,2.67773,-0.000277404,0.00119484,0.00280951,0.00336307,-0.00244563,0.913524,0.00336757,0.0425479,1875,1002,27.0965,-2.67772
658,22,26.9315,2.84491,-0.000603176,0.00078167,0.00209819,0.00229874,-0.00212024,0.944776,0.00255199,0.0457231,1882,1002,26.9315,-2.84493
665,22,26.849,3.14642,-0.0007547,0.000617312,0.0017846,0.00184322,-0.00198061,0.968892,0.00220816,0.0426397,1889,1002,26.8489,-3.14642
672,22,26.9471,3.03082,-0.000838853,0.000759586,0.00210748,0.0022143,-0.00229357,0.966635,0.00260276,0.0419095,1896,1002,26.9471,-3.03083
679,22,27.0011,2.83203,-0.0010658,0.000896507,0.00291701,0.00299295,-0.00316225,0.947632,0.00355415,0.0408823,1903,1002,27.0011,-2.83201
686,22,26.9923,2.86273,-0.00129531,0.000975636,0.00375213,0.00376033,-0.00408001,0.932328,0.00452788,0.0403377,1910,1002,26.9923,-2.86276
693,22,27.0205,3.10858,-0.0015165,0.00100983,0.00449012,0.00441108,-0.00491775,0.922515,0.00538865,0.037755,1917,1002,27.0205,-3.1086
700,22,27.0645,3.20355,-0.00184612,0.000992805,0.00501414,0.00478453,-0.00563785,0.923335,0.00602409,0.0337323,1924,1002,27.0644,-3.20355
707,22,26.9857,3.13593,-0.00196743,0.00102355,0.00518995,0.00492918,-0.00587306,0.925674,0.00624461,0.0269963,1931,1002,26.9857,-3.1359
714,22,26.9734,3.25037,-0.00211223,0.0011251,0.0051325,0.00488813,-0.00587526,0.93815,0.00622295,0.0231821,1938,1002,26.9734,-3.25034
721,22,26.9087,3.87592,-0.00244128,0.00133263,0.00511004,0.00489298,-0.00600163,0.962265,0.00630085,0.030639,1945,1002,26.9086,-3.87592
728,22,26.441,4.66663,0,0,0,0,0,0,0,-1,1952,1002,26.4411,-4.66661
735,22,26.4963,4.74066,-0.00374843,0.00193525,0.0045102,0.00442427,-0.00623744,1.06652,0.00618514,0.0148477,1959,1002,26.4964,-4.74067
742,22,26.5009,4.78534,-0.00457232,0.00238323,0.00328537,0.00368966,-0.00587875,1.19232,0.00557231,0.01527,1966,1002,26.5009,-4.78535
749,22,26.4727,4.84045,-0.00556624,0.0029511,0.00165487,0.00326134,-0.00587647,1.38548,0.00534725,0.0117963,1973,1002,26.4726,-4.84046
756,22,26.4658,4.90125,-0.00644273,0.00388815,-0.000217336,0.00389272,-0.0064473,-1.54977,0.00603024,0.0161997,1980,1002,26.4659,-4.90122
763,22,26.4207,4.99664,-0.00745115,0.0051465,-0.00259137,0.00565872,-0.00796337,-1.37565,0.00790215,0.0172443,1987,1002,26.4206,-4.99662
770,22,26.3922,5.04407,-0.00875422,0.00673778,-0.00557187,0.0085336,-0.01055,-1.25901,0.0110384,0.011087,1994,1002,26.3923,-5.04406
777,22,26.3511,5.08832,-0.0100034,0.00878049,-0.0087823,0.0122469,-0.0134698,-1.19486,0.0148532,0.0185272,2001,1002,26.3511,-5.08832
784,22,26.2666,5.25952,-0.0110675,0.0110009,-0.0123237,0.0165084,-0.0165749,-1.15052,0.0191007,0.0394929,2008,1002,26.2666,-5.25949
791,22,26.1733,5.53821,-0.0114021,0.0135266,-0.0168309,0.0220059,-0.0198814,-1.10412,0.024194,0.0467115,2015,1002,26.1733,-5.53818
798,22,26.1211,6.0152,-0.010246,0.0165411,-0.0225861,0.0294062,-0.0231111,-1.05303,0.0303934,0.0466311,2022,1002,26.121,-6.01522
805,22,26.0771,6.16687,0,0,0,0,0,0,0,-1,2029,1002,26.0772,-6.16687
812,22,24.9063,5.58636,0,0,0,0,0,0,0,-1,2036,1002,24.9063,-5.58638
-700,15,0,0,0,0,0,0,0,0,0,-1,524,1009,0,0
-693,15,-15.3936,-0.789124,-0.0383769,0.0834666,0.09737,0.137403,-0.0923132,1.06494,0.133476,0.0480487,531,1009,-15.3936,0.789137
-686,15,-15.7194,-0.126526,-0.0354343,0.0699654,0.0794718,0.112623,-0.0780918,1.07817,0.110709,0.0463644,538,1009,-15.7194,0.126549
-679,15,-16.0603,0.462769,-0.0316882,0.0568798,0.0641719,0.0905644,-0.0653728,1.08742,0.0904212,0.0481422,545,1009,-16.0603,-0.46275
-672,15,-16.2819,0.863708,-0.0275436,0.0450222,0.0511117,0.0714199,-0.0539412,1.09406,0.0726114,0.0447307,552,1009,-16.2819,-0.863684
-665,15,-16.3282,1.13092,-0.0232674,0.0347246,0.0400039,0.0551359,-0.0436787,1.099,0.0571783,0.0392941,559,1009,-16.3282,-1.13094
-658,15,-18.3879,2.13513,0,0,0,0,0,0,0,-1,566,1009,-18.3879,-2.13512
-651,15,-18.5329,2.28595,-0.015203,0.0190447,0.0228593,0.0304826,-0.0266409,1.10686,0.0330051,0.0407269,573,1009,-18.5329,-2.28598
-644,15,-18.7125,2.43665,-0.0115014,0.0135769,0.0161052,0.0214487,-0.0193732,1.11617,0.0235787,0.0230697,580,1009,-18.7125,-2.43665
-637,15,-18.7499,2.46558,-0.00884528,0.0102674,0.00921667,0.0139878,-0.0125656,1.18714,0.015338,0.0180455,587,1009,-18.75,-2.46556
-630,15,-18.7742,2.4093,-0.00610191,0.00429241,0.00483489,0.0061936,-0.00800311,1.19615,0.00821864,0.0124808,594,1009,-18.7742,-2.4093
-623,15,-18.8017,2.38361,-0.00336356,0.00257374,0.000644764,0.00264295,-0.00343277,1.46386,0.00351769,0.00912725,601,1009,-18.8017,-2.38359
-616,15,-18.8137,2.33356,-0.00191792,0.00160727,-0.00193807,0.00246437,-0.00277503,-1.15441,0.00302674,0.0138249,608,1009,-18.8137,-2.33357
-609,15,-18.8001,2.28162,-0.00103119,0.00131571,-0.00403993,0.00434916,-0.00406464,-0.926741,0.00485864,0.0207995,615,1009,-18.8001,-2.28164
-602,15,-18.7847,2.22174,-0.000820106,0.00135383,-0.00523623,0.00561472,-0.005081,-0.887738,0.00617774,0.0216598,622,1009,-18.7846,-2.22172
-595,15,-18.712,1.86401,-0.000636974,0.000937676,-0.0058467,0.00604983,-0.00574913,-0.852326,0.00681287,0.0268311,629,1009,-18.7121,-1.86401
-588,15,-18.6738,1.49847,-0.000566534,0.000616216,-0.00601976,0.00607358,-0.0060239,-0.83436,0.00698451,0.0307398,636,1009,-18.6738,-1.49846
-581,15,-18.7131,1.28717,-0.00057381,0.000408173,-0.00570843,0.00564668,-0.00581232,-0.828298,0.00661609,0.0364802,643,1009,-18.7131,-1.28719
-574,15,-18.7138,1.25415,-0.000769713,0.000385942,-0.00489793,0.00474001,-0.00512378,-0.844114,0.0056963,0.0329264,650,1009,-18.7138,-1.25418
-567,15,-18.7069,1.29858,-0.00110359,0.000456519,-0.00364215,0.00340121,-0.00404829,-0.890892,0.00430638,0.0335337,657,1009,-18.7069,-1.29856
-560,15,-18.6736,1.1532,-0.00143069,0.000677288,-0.00178828,0.00169907,-0.00245247,-1.05169,0.00241002,0.0400499,664,1009,-18.6736,-1.15322
-553,15,-18.7676,1.17609,-0.00169355,0.00103519,0.000660351,0.0011866,-0.00184495,1.34541,0.00176397,0.0407917,671,1009,-18.7676,-1.17611
-546,15,-18.8129,1.49103,0,0,0,0,0,0,0,-1,678,1009,-18.8129,-1.49103
-539,15,-18.7158,1.31598,-0.00175097,0.00219859,0.00703713,0.00753278,-0.00708516,0.922191,0.00844099,0.0382215,685,1009,-18.7158,-1.316
-532,15,-18.7051,1.32581,-0.00178777,0.00354527,0.00969201,0.0109309,-0.00917338,0.91964,0.011622,0.0384885,692,1009,-18.7051,-1.3258
-525,15,0,0,0,0,0,0,0,0,0,-1,699,1009,0,0
-518,15,0,0,0,0,0,0,0,0,0,-1,706,1009,0,0
-511,15,0,0,0,0,0,0,0,0,0,-1,713,1009,0,0
-504,15,0,0,0,0,0,0,0,0,0,-1,720,1009,0,0
-497,15,0,0,0,0,0,0,0,0,0,-1,727,1009,0,0
-490,15,0,0,0,0,0,0,0,0,0,-1,734,1009,0,0
-483,15,0,0,0,0,0,0,0,0,0,-1,741,1009,0,0
-476,15,0,0,0,0,0,0,0,0,0,-1,748,1009,0,0
-469,15,0,0,0,0,0,0,0,0,0,-1,755,1009,0,0
-462,15,0,0,0,0,0,0,0,0,0,-1,762,1009,0,0
-455,15,0,0,0,0,0,0,0,0,0,-1,769,1009,0,0
-448,15,0,0,0,0,0,0,0,0,0,-1,776,1009,0,0
-441,15,0,0,0,0,0,0,0,0,0,-1,783,1009,0,0
-434,15,0,0,0,0,0,0,0,0,0,-1,790,1009,0,0
-427,15,0,0,0,0,0,0,0,0,0,-1,797,1009,0,0
-420,15,0,0,0,0,0,0,0,0,0,-1,804,1009,0,0
-413,15,0,0,0,0,0,0,0,0,0,-1,811,1009,0,0
-406,15,0,0,0,0,0,0,0,0,0,-1,818,1009,0,0
-399,15,0,0,0,0,0,0,0,0,0,-1,825,1009,0,0
-392,15,0,0,0,0,0,0,0,0,0,-1,832,1009,0,0
-385,15,0,0,0,0,0,0,0,0,0,-1,839,1009,0,0
-378,15,0,0,0,0,0,0,0,0,0,-1,846,1009,0,0
-371,15,0,0,0,0,0,0,0,0,0,-1,853,1009,0,0
-364,15,0,0,0,0,0,0,0,0,0,-1,860,1009,0,0
-357,15,0,0,0,0,0,0,0,0,0,-1,867,1009,0,0
-350,15,0,0,0,0,0,0,0,0,0,-1,874,1009,0,0
-343,15,0,0,0,0,0,0,0,0,0,-1,881,1009,0,0
-336,15,0,0,0,0,0,0,0,0,0,-1,888,1009,0,0
-329,15,0,0,0,0,0,0,0,0,0,-1,895,1009,0,0
-322,15,0,0,0,0,0,0,0,0,0,-1,902,1009,0,0
-315,15,0,0,0,0,0,0,0,0,0,-1,909,1009,0,0
-308,15,0,0,0,0,0,0,0,0,0,-1,916,1009,0,0
-301,15,0,0,0,0,0,0,0,0,0,-1,923,1009,0,0
-294,15,0,0,0,0,0,0,0,0,0,-1,930,1009,0,0
-287,15,0,0,0,0,0,0,0,0,0,-1,937,1009,0,0
-280,15,0,0,0,0,0,0,0,0,0,-1,944,1009,0,0
-273,15,0,0,0,0,0,0,0,0,0,-1,951,1009,0,0
-266,15,0,0,0,0,0,0,0,0,0,-1,958,1009,0,0
-259,15,0,0,0,0,0,0,0,0,0,-1,965,1009,0,0
-252,15,0,0,0,0,0,0,0,0,0,-1,972,1009,0,0
-245,15,0,0,0,0,0,0,0,0,0,-1,979,1009,0,0
-238,15,0,0,0,0,0,0,0,0,0,-1,986,1009,0,0
-231,15,0,0,0,0,0,0,0,0,0,-1,993,1009,0,0
-224,15,0,0,0,0,0,0,0,0,0,-1,1000,1009,0,0
-217,15,0,0,0,0,0,0,0,0,0,-1,1007,1009,0,0
-210,15,0,0,0,0,0,0,0,0,0,-1,1014,1009,0,0
-203,15,0,0,0,0,0,0,0,0,0,-1,1021,1009,0,0
-196,15,0,0,0,0,0,0,0,0,0,-1,1028,1009,0,0
-189,15,0,0,0,0,0,0,0,0,0,-1,1035,1009,0,0
-182,15,0,0,0,0,0,0,0,0,0,-1,1042,1009,0,0
-175,15,0,0,0,0,0,0,0,0,0,-1,1049,1009,0,0
-168,15,0,0,0,0,0,0,0,0,0,-1,1056,1009,0,0
-161,15,0,0,0,0,0,0,0,0,0,-1,1063,1009,0,0
-154,15,0,0,0,0,0,0,0,0,0,-1,1070,1009,0,0
-147,15,0,0,0,0,0,0,0,0,0,-1,1077,1009,0,0
-140,15,0,0,0,0,0,0,0,0,0,-1,1084,1009,0,0
-133,15,0,0,0,0,0,0,0,0,0,-1,1091,1009,0,0
-126,15,0,0,0,0,0,0,0,0,0,-1,1098,1009,0,0
-119,15,0,0,0,0,0,0,0,0,0,-1,1105,1009,0,0
-112,15,0,0,0,0,0,0,0,0,0,-1,1112,1009,0,0
-105,15,0,0,0,0,0,0,0,0,0,-1,1119,1009,0,0
-98,15,0,0,0,0,0,0,0,0,0,-1,1126,1009,0,0
-91,15,0,0,0,0,0,0,0,0,0,-1,1133,1009,0,0
-84,15,0,0,0,0,0,0,0,0,0,-1,1140,1009,0,0
-77,15,0,0,0,0,0,0,0,0,0,-1,1147,1009,0,0
-70,15,0,0,0,0,0,0,0,0,0,-1,1154,1009,0,0
-63,15,0,0,0,0,0,0,0,0,0,-1,1161,1009,0,0
-56,15,0,0,0,0,0,0,0,0,0,-1,1168,1009,0,0
-49,15,0,0,0,0,0,0,0,0,0,-1,1175,1009,0,0
-42,15,0,0,0,0,0,0,0,0,0,-1,1182,1009,0,0
-35,15,0,0,0,0,0,0,0,0,0,-1,1189,1009,0,0
-28,15,0,0,0,0,0,0,0,0,0,-1,1196,1009,0,0
-21,15,0,0,0,0,0,0,0,0,0,-1,1203,1009,0,0
-14,15,0,0,0,0,0,0,0,0,0,-1,1210,1009,0,0
-7,15,0,0,0,0,0,0,0,0,0,-1,1217,1009,0,0
0,15,0,0,0,0,0,0,0,0,0,-1,1224,1009,0,0
7,15,0,0,0,0,0,0,0,0,0,-1,1231,1009,0,0
14,15,0,0,0,0,0,0,0,0,0,-1,1238,1009,0,0
21,15,0,0,0,0,0,0,0,0,0,-1,1245,1009,0,0
28,15,0,0,0,0,0,0,0,0,0,-1,1252,1009,0,0
35,15,0,0,0,0,0,0,0,0,0,-1,1259,1009,0,0
42,15,0,0,0,0,0,0,0,0,0,-1,1266,1009,0,0
49,15,0,0,0,0,0,0,0,0,0,-1,1273,1009,0,0
56,15,0,0,0,0,0,0,0,0,0,-1,1280,1009,0,0
63,15,0,0,0,0,0,0,0,0,0,-1,1287,1009,0,0
70,15,0,0,0,0,0,0,0,0,0,-1,1294,1009,0,0
77,15,0,0,0,0,0,0,0,0,0,-1,1301,1009,0,0
84,15,0,0,0,0,0,0,0,0,0,-1,1308,1009,0,0
91,15,0,0,0,0,0,0,0,0,0,-1,1315,1009,0,0
98,15,0,0,0,0,0,0,0,0,0,-1,1322,1009,0,0
105,15,0,0,0,0,0,0,0,0,0,-1,1329,1009,0,0
112,15,0,0,0,0,0,0,0,0,0,-1,1336,1009,0,0
119,15,0,0,0,0,0,0,0,0,0,-1,1343,1009,0,0
126,15,0,0,0,0,0,0,0,0,0,-1,1350,1009,0,0
133,15,0,0,0,0,0,0,0,0,0,-1,1357,1009,0,0
140,15,0,0,0,0,0,0,0,0,0,-1,1364,1009,0,0
147,15,0,0,0,0,0,0,0,0,0,-1,1371,1009,0,0
154,15,0,0,0,0,0,0,0,0,0,-1,1378,1009,0,0
161,15,0,0,0,0,0,0,0,0,0,-1,1385,1009,0,0
168,15,0,0,0,0,0,0,0,0,0,-1,1392,1009,0,0
175,15,0,0,0,0,0,0,0,0,0,-1,1399,1009,0,0
182,15,0,0,0,0,0,0,0,0,0,-1,1406,1009,0,0
189,15,0,0,0,0,0,0,0,0,0,-1,1413,1009,0,0
196,15,0,0,0,0,0,0,0,0,0,-1,1420,1009,0,0
203,15,0,0,0,0,0,0,0,0,0,-1,1427,1009,0,0
210,15,0,0,0,0,0,0,0,0,0,-1,1434,1009,0,0
217,15,0,0,0,0,0,0,0,0,0,-1,1441,1009,0,0
224,15,0,0,0,0,0,0,0,0,0,-1,1448,1009,0,0
231,15,0,0,0,0,0,0,0,0,0,-1,1455,1009,0,0
238,15,0,0,0,0,0,0,0,0,0,-1,1462,1009,0,0
245,15,0,0,0,0,0,0,0,0,0,-1,1469,1009,0,0
252,15,0,0,0,0,0,0,0,0,0,-1,1476,1009,0,0
259,15,0,0,0,0,0,0,0,0,0,-1,1483,1009,0,0
266,15,0,0,0,0,0,0,0,0,0,-1,1490,1009,0,0
273,15,0,0,0,0,0,0,0,0,0,-1,1497,1009,0,0
280,15,0,0,0,0,0,0,0,0,0,-1,1504,1009,0,0
287,15,0,0,0,0,0,0,0,0,0,-1,1511,1009,0,0
294,15,0,0,0,0,0,0,0,0,0,-1,1518,1009,0,0
301,15,0,0,0,0,0,0,0,0,0,-1,1525,1009,0,0
308,15,0,0,0,0,0,0,0,0,0,-1,1532,1009,0,0
315,15,0,0,0,0,0,0,0,0,0,-1,1539,1009,0,0
322,15,0,0,0,0,0,0,0,0,0,-1,1546,1009,0,0
329,15,0,0,0,0,0,0,0,0,0,-1,1553,1009,0,0
336,15,0,0,0,0,0,0,0,0,0,-1,1560,1009,0,0
343,15,0,0,0,0,0,0,0,0,0,-1,1567,1009,0,0
350,15,0,0,0,0,0,0,0,0,0,-1,1574,1009,0,0
357,15,0,0,0,0,0,0,0,0,0,-1,1581,1009,0,0
364,15,0,0,0,0,0,0,0,0,0,-1,1588,1009,0,0
371,15,0,0,0,0,0,0,0,0,0,-1,1595,1009,0,0
378,15,0,0,0,0,0,0,0,0,0,-1,1602,1009,0,0
385,15,0,0,0,0,0,0,0,0,0,-1,1609,1009,0,0
392,15,0,0,0,0,0,0,0,0,0,-1,1616,1009,0,0
399,15,0,0,0,0,0,0,0,0,0,-1,1623,1009,0,0
406,15,0,0,0,0,0,0,0,0,0,-1,1630,1009,0,0
413,15,0,0,0,0,0,0,0,0,0,-1,1637,1009,0,0
420,15,0,0,0,0,0,0,0,0,0,-1,1644,1009,0,0
427,15,0,0,0,0,0,0,0,0,0,-1,1651,1009,0,0
434,15,0,0,0,0,0,0,0,0,0,-1,1658,1009,0,0
441,15,0,0,0,0,0,0,0,0,0,-1,1665,1009,0,0
448,15,0,0,0,0,0,0,0,0,0,-1,1672,1009,0,0
455,15,0,0,0,0,0,0,0,0,0,-1,1679,1009,0,0
462,15,0,0,0,0,0,0,0,0,0,-1,1686,1009,0,0
469,15,0,0,0,0,0,0,0,0,0,-1,1693,1009,0,0
476,15,0,0,0,0,0,0,0,0,0,-1,1700,1009,0,0
483,15,0,0,0,0,0,0,0,0,0,-1,1707,1009,0,0
490,15,0,0,0,0,0,0,0,0,0,-1,1714,1009,0,0
497,15,0,0,0,0,0,0,0,0,0,-1,1721,1009,0,0
504,15,0,0,0,0,0,0,0,0,0,-1,1728,1009,0,0
511,15,0,0,0,0,0,0,0,0,0,-1,1735,1009,0,0
518,15,0,0,0,0,0,0,0,0,0,-1,1742,1009,0,0
525,15,0,0,0,0,0,0,0,0,0,-1,1749,1009,0,0
532,15,0,0,0,0,0,0,0,0,0,-1,1756,1009,0,0
539,15,0,0,0,0,0,0,0,0,0,-1,1763,1009,0,0
546,15,0,0,0,0,0,0,0,0,0,-1,1770,1009,0,0
553,15,0,0,0,0,0,0,0,0,0,-1,1777,1009,0,0
560,15,0,0,0,0,0,0,0,0,0,-1,1784,1009,0,0
567,15,0,0,0,0,0,0,0,0,0,-1,1791,1009,0,0
574,15,0,0,0,0,0,0,0,0,0,-1,1798,1009,0,0
581,15,0,0,0,0,0,0,0,0,0,-1,1805,1009,0,0
588,15,0,0,0,0,0,0,0,0,0,-1,1812,1009,0,0
595,15,0,0,0,0,0,0,0,0,0,-1,1819,1009,0,0
602,15,0,0,0,0,0,0,0,0,0,-1,1826,1009,0,0
609,15,0,0,0,0,0,0,0,0,0,-1,1833,1009,0,0
616,15,0,0,0,0,0,0,0,0,0,-1,1840,1009,0,0
623,15,0,0,0,0,0,0,0,0,0,-1,1847,1009,0,0
630,15,0,0,0,0,0,0,0,0,0,-1,1854,1009,0,0
637,15,0,0,0,0,0,0,0,0,0,-1,1861,1009,0,0
644,15,27.021,2.83466,-0.000332789,0.000223773,0.00432213,0.00427657,-0.00438559,0.817546,0.00500123,0.0403314,1868,1009,27.021,-2.83464
651,15,27.0464,2.85077,-0.00101949,5.27555e-06,0.00332783,0.00285994,-0.00387415,0.861783,0.0039026,0.0393796,1875,1009,27.0463,-2.85079
658,15,26.9514,2.98389,-0.00104441,-0.000161442,0.00243234,0.00186915,-0.00307501,0.875174,0.00288267,0.0422225,1882,1009,26.9514,-2.98389
665,15,26.9686,3.19983,-0.000972591,-0.000156399,0.00191159,0.00139017,-0.00251916,0.890562,0.00228821,0.0424107,1889,1009,26.9687,-3.1998
672,15,27.0232,3.12799,-0.000893369,0.000109239,0.00209831,0.00176529,-0.00254942,0.902655,0.00250478,0.0394646,1896,1009,27.0232,-3.12797
679,15,27.0339,3.00702,-0.00102375,0.000326302,0.00289812,0.00262697,-0.00332442,0.899817,0.00344389,0.0389529,1903,1009,27.034,-3.00699
686,15,27.0063,2.97089,-0.00121634,0.000452146,0.00377856,0.00348746,-0.00425165,0.894047,0.00447543,0.043174,1910,1009,27.0063,-2.97087
693,15,27.022,3.08142,-0.00142668,0.000512159,0.0046008,0.00424456,-0.00515908,0.889232,0.00543774,0.0394678,1917,1009,27.022,-3.0814
700,15,27.0475,3.09644,-0.00173706,0.000517795,0.00522255,0.00473322,-0.00595249,0.891705,0.00618277,0.0311397,1924,1009,27.0475,-3.09645
707,15,26.9802,3.12311,-0.00183867,0.000566788,0.0054569,0.00495193,-0.00622382,0.893867,0.00646624,0.0247366,1931,1009,26.9802,-3.12309
714,15,27.0792,2.47876,0,0,0,0,0,0,0,-1,1938,1009,27.0792,-2.47878
721,15,26.9736,3.63867,0,0,0,0,0,0,0,-1,1945,1009,26.9737,-3.63869
728,15,26.5951,4.64728,0,0,0,0,0,0,0,-1,1952,1009,26.5951,-4.64726
735,15,26.5641,4.73926,-0.00364681,0.00157985,0.0050056,0.00461325,-0.0066802,1.02598,0.00655657,0.0160336,1959,1009,26.5641,-4.73927
742,15,26.5416,4.823,-0.00440839,0.00205009,0.00381707,0.00382065,-0.00617896,1.13648,0.00582655,0.0177878,1966,1009,26.5417,-4.823
749,15,26.5183,4.84515,-0.00538049,0.00260013,0.002236,0.0031839,-0.00596427,1.31542,0.0053624,0.0111697,1973,1009,26.5183,-4.84514
756,15,26.5334,4.87054,-0.00623828,0.00360146,0.000459311,0.00362285,-0.00625967,1.52425,0.00577298,0.0123564,1980,1009,26.5335,-4.87057
763,15,26.5001,4.94366,-0.00717214,0.00496107,-0.00180867,0.00522495,-0.00743602,-1.42592,0.00734688,0.0115073,1987,1009,26.5001,-4.94367
770,15,26.4788,4.99072,-0.00839925,0.00663422,-0.00466231,0.00796274,-0.00972777,-1.29321,0.0102305,0.0104835,1994,1009,26.4788,-4.99072
777,15,26.4248,5.02417,-0.0095732,0.00877651,-0.00764285,0.0115428,-0.0123395,-1.22352,0.013791,0.0194944,2001,1009,26.4249,-5.02414
784,15,26.3469,5.02448,-0.0105791,0.0111313,-0.0107765,0.0155721,-0.0150199,-1.17992,0.0176633,0.0396387,2008,1009,26.347,-5.02446
791,15,26.2736,5.0321,0,0,0,0,0,0,0,-1,2015,1009,26.2735,-5.03209
798,15,26.5977,6.46356,0,0,0,0,0,0,0,-1,2022,1009,26.5977,-6.46359
805,15,25.9019,5.71405,0,0,0,0,0,0,0,-1,2029,1009,25.9018,-5.71406
812,15,25.5881,5.72107,0,0,0,0,0,0,0,-1,2036,1009,25.588,-5.72108
-700,8,0,0,0,0,0,0,0,0,0,-1,524,1016,0,0
-693,8,-21.0602,1.1684,-0.0355415,0.0797528,0.0949901,0.13322,-0.0890083,1.05813,0.129147,0.0469738,531,1016,-21.0602,-1.16837
-686,8,-20.2924,1.39905,-0.0319939,0.0669814,0.0771906,0.109186,-0.0741983,1.07045,0.106517,0.0445303,538,1016,-20.2923,-1.39903
-679,8,-19.5809,1.71307,-0.0279948,0.0544644,0.0620547,0.0877376,-0.0612679,1.07862,0.0864797,0.0452647,545,1016,-19.5809,-1.71306
-672,8,-19.1862,1.87604,-0.0238439,0.0430466,0.049186,0.0690812,-0.0498784,1.08398,0.068979,0.0466211,552,1016,-19.1861,-1.87605
-665,8,-18.8124,1.93109,0,0,0,0,0,0,0,-1,559,1016,-18.8124,-1.93107
-658,8,-18.733,2.03796,-0.0159596,0.0247661,0.0291474,0.039959,-0.0311525,1.0903,0.0411611,0.036291,566,1016,-18.733,-2.03799
-651,8,-18.657,2.20825,-0.0125172,0.0179899,0.0215814,0.0291641,-0.0236914,1.09303,0.0305706,0.0230265,573,1016,-18.657,-2.20823
-644,8,-18.6494,2.3075,-0.00930723,0.0127882,0.0149302,0.0203136,-0.0168327,1.10392,0.0214778,0.0248746,580,1016,-18.6493,-2.30748
-637,8,-18.708,2.36743,-0.00716162,0.00963206,0.00814633,0.0129343,-0.0104639,1.18567,0.0135341,0.0215582,587,1016,-18.708,-2.36744
-630,8,-18.7999,2.36609,-0.00471633,0.0035769,0.00402549,0.00520947,-0.0063489,1.18551,0.00668403,0.0150553,594,1016,-18.7999,-2.36611
-623,8,-18.8032,2.36249,-0.00222729,0.00219503,-6.87415e-05,0.0021961,-0.00222835,-1.55526,0.00255448,0.0133566,601,1016,-18.8032,-2.3625
-616,8,-18.829,2.33655,-0.00116064,0.00142995,-0.00251766,0.00296598,-0.00269667,-1.02298,0.00327057,0.0128003,608,1016,-18.8291,-2.33655
-609,8,-18.8296,2.28583,-0.000517974,0.00118358,-0.0045832,0.0049943,-0.00432869,-0.877168,0.0053872,0.0159513,615,1016,-18.8296,-2.28585
-602,8,-18.8033,2.28156,-0.00040175,0.00108243,-0.00570286,0.00609128,-0.0054106,-0.850098,0.00664449,0.0223125,622,1016,-18.8034,-2.28158
-595,8,-18.7289,1.78729,0,0,0,0,0,0,0,-1,629,1016,-18.7289,-1.78728
-588,8,-18.7017,1.23175,0,0,0,0,0,0,0,-1,636,1016,-18.7016,-1.23176
-581,8,-18.6986,1.20966,-0.000131431,9.35237e-05,-0.00607627,0.00605836,-0.00609627,-0.794653,0.00701749,0.0306226,643,1016,-18.6986,-1.20964
-574,8,-18.6902,1.2569,-0.000406173,6.06589e-05,-0.00526035,0.00509277,-0.00543829,-0.80757,0.0060812,0.0349121,650,1016,-18.6903,-1.2569
-567,8,-18.65,1.21075,-0.000869951,0.000138906,-0.0039725,0.00363887,-0.00436992,-0.84855,0.0046303,0.0374518,657,1016,-18.65,-1.21076
-560,8,-18.6364,0.878601,-0.0014084,0.000377304,-0.00205543,0.00172542,-0.00275652,-0.990296,0.00261038,0.0408068,664,1016,-18.6364,-0.878603
-553,8,-18.6562,1.14581,-0.00198054,0.000759399,0.000501086,0.000848163,-0.00206931,1.39547,0.00173289,0.0416935,671,1016,-18.6562,-1.1458
-546,8,-18.6375,1.3078,-0.0025473,0.00125414,0.00372738,0.00353745,-0.00483061,1.02118,0.00485049,0.0404014,678,1016,-18.6375,-1.30778
-539,8,-18.8145,1.6095,-0.00298299,0.00195312,0.00718257,0.00707985,-0.00810971,0.950887,0.00877641,0.039667,685,1016,-18.8145,-1.60951
-532,8,-18.7925,1.53619,-0.00355466,0.00330299,0.00980276,0.0102593,-0.010511,0.953638,0.011992,0.0394741,692,1016,-18.7925,-1.53618
-525,8,0,0,0,0,0,0,0,0,0,-1,699,1016,0,0
-518,8,0,0,0,0,0,0,0,0,0,-1,706,1016,0,0
-511,8,0,0,0,0,0,0,0,0,0,-1,713,1016,0,0
-504,8,0,0,0,0,0,0,0,0,0,-1,720,1016,0,0
-497,8,0,0,0,0,0,0,0,0,0,-1,727,1016,0,0
-490,8,0,0,0,0,0,0,0,0,0,-1,734,1016,0,0
-483,8,0,0,0,0,0,0,0,0,0,-1,741,1016,0,0
-476,8,0,0,0,0,0,0,0,0,0,-1,748,1016,0,0
-469,8,0,0,0,0,0,0,0,0,0,-1,755,1016,0,0
-462,8,0,0,0,0,0,0,0,0,0,-1,762,1016,0,0
-455,8,0,0,0,0,0,0,0,0,0,-1,769,1016,0,0
-448,8,0,0,0,0,0,0,0,0,0,-1,776,1016,0,0
-441,8,0,0,0,0,0,0,0,0,0,-1,783,1016,0,0
-434,8,0,0,0,0,0,0,0,0,0,-1,790,1016,0,0
-427,8,0,0,0,0,0,0,0,0,0,-1,797,1016,0,0
-420,8,0,0,0,0,0,0,0,0,0,-1,804,1016,0,0
-413,8,0,0,0,0,0,0,0,0,0,-1,811,1016,0,0
-406,8,0,0,0,0,0,0,0,0,0,-1,818,1016,0,0
-399,8,0,0,0,0,0,0,0,0,0,-1,825,1016,0,0
-392,8,0,0,0,0,0,0,0,0,0,-1,832,1016,0,0
-385,8,0,0,0,0,0,0,0,0,0,-1,839,1016,0,0
-378,8,0,0,0,0,0,0,0,0,0,-1,846,1016,0,0
-371,8,0,0,0,0,0,0,0,0,0,-1,853,1016,0,0
-364,8,0,0,0,0,0,0,0,0,0,-1,860,1016,0,0
-357,8,0,0,0,0,0,0,0,0,0,-1,867,1016,0,0
-350,8,0,0,0,0,0,0,0,0,0,-1,874,1016,0,0
-343,8,0,0,0,0,0,0,0,0,0,-1,881,1016,0,0
-336,8,0,0,0,0,0,0,0,0,0,-1,888,1016,0,0
-329,8,0,0,0,0,0,0,0,0,0,-1,895,1016,0,0
-322,8,0,0,0,0,0,0,0,0,0,-1,902,1016,0,0
-315,8,0,0,0,0,0,0,0,0,0,-1,909,1016,0,0
-308,8,0,0,0,0,0,0,0,0,0,-1,916,1016,0,0
-301,8,0,0,0,0,0,0,0,0,0,-1,923,1016,0,0
-294,8,0,0,0,0,0,0,0,0,0,-1,930,1016,0,0
-287,8,0,0,0,0,0,0,0,0,0,-1,937,1016,0,0
-280,8,0,0,0,0,0,0,0,0,0,-1,944,1016,0,0
-273,8,0,0,0,0,0,0,0,0,0,-1,951,1016,0,0
-266,8,0,0,0,0,0,0,0,0,0,-1,958,1016,0,0
-259,8,0,0,0,0,0,0,0,0,0,-1,965,1016,0,0
-252,8,0,0,0,0,0,0,0,0,0,-1,972,1016,0,0
-245,8,0,0,0,0,0,0,0,0,0,-1,979,1016,0,0
-238,8,0,0,0,0,0,0,0,0,0,-1,986,1016,0,0
-231,8,0,0,0,0,0,0,0,0,0,-1,993,1016,0,0
-224,8,0,0,0,0,0,0,0,0,0,-1,1000,1016,0,0
-217,8,0,0,0,0,0,0,0,0,0,-1,1007,1016,0,0
-210,8,0,0,0,0,0,0,0,0,0,-1,1014,1016,0,0
-203,8,0,0,0,0,0,0,0,0,0,-1,1021,1016,0,0
-196,8,0,0,0,0,0,0,0,0,0,-1,1028,1016,0,0
-189,8,0,0,0,0,0,0,0,0,0,-1,1035,1016,0,0
-182,8,0,0,0,0,0,0,0,0,0,-1,1042,1016,0,0
-175,8,0,0,0,0,0,0,0,0,0,-1,1049,1016,0,0
-168,8,0,0,0,0,0,0,0,0,0,-1,1056,1016,0,0
-161,8,0,0,0,0,0,0,0,0,0,-1,1063,1016,0,0
-154,8,0,0,0,0,0,0,0,0,0,-1,1070,1016,0,0
-147,8,0,0,0,0,0,0,0,0,0,-1,1077,1016,0,0
-140,8,0,0,0,0,0,0,0,0,0,-1,1084,1016,0,0
-133,8,0,0,0,0,0,0,0,0,0,-1,1091,1016,0,0
-126,8,0,0,0,0,0,0,0,0,0,-1,1098,1016,0,0
-119,8,0,0,0,0,0,0,0,0,0,-1,1105,1016,0,0
-112,8,0,0,0,0,0,0,0,0,0,-1,1112,1016,0,0
-105,8,0,0,0,0,0,0,0,0,0,-1,1119,1016,0,0
-98,8,0,0,0,0,0,0,0,0,0,-1,1126,1016,0,0
-91,8,0,0,0,0,0,0,0,0,0,-1,1133,1016,0,0
-84,8,0,0,0,0,0,0,0,0,0,-1,1140,1016,0,0
-77,8,0,0,0,0,0,0,0,0,0,-1,1147,1016,0,0
-70,8,0,0,0,0,0,0,0,0,0,-1,1154,1016,0,0
-63,8,0,0,0,0,0,0,0,0,0,-1,1161,1016,0,0
-56,8,0,0,0,0,0,0,0,0,0,-1,1168,1016,0,0
-49,8,0,0,0,0,0,0,0,0,0,-1,1175,1016,0,0
-42,8,0,0,0,0,0,0,0,0,0,-1,1182,1016,0,0
-35,8,0,0,0,0,0,0,0,0,0,-1,1189,1016,0,0
-28,8,0,0,0,0,0,0,0,0,0,-1,1196,1016,0,0
-21,8,0,0,0,0,0,0,0,0,0,-1,1203,1016,0,0
-14,8,0,0,0,0,0,0,0,0,0,-1,1210,1016,0,0
-7,8,0,0,0,0,0,0,0,0,0,-1,1217,1016,0,0
0,8,0,0,0,0,0,0,0,0,0,-1,1224,1016,0,0
7,8,0,0,0,0,0,0,0,0,0,-1,1231,1016,0,0
14,8,0,0,0,0,0,0,0,0,0,-1,1238,1016,0,0
21,8,0,0,0,0,0,0,0,0,0,-1,1245,1016,0,0
28,8,0,0,0,0,0,0,0,0,0,-1,1252,1016,0,0
35,8,0,0,0,0,0,0,0,0,0,-1,1259,1016,0,0
42,8,0,0,0,0,0,0,0,0,0,-1,1266,1016,0,0
49,8,0,0,0,0,0,0,0,0,0,-1,1273,1016,0,0
56,8,0,0,0,0,0,0,0,0,0,-1,1280,1016,0,0
63,8,0,0,0,0,0,0,0,0,0,-1,1287,1016,0,0
70,8,0,0,0,0,0,0,0,0,0,-1,1294,1016,0,0
77,8,0,0,0,0,0,0,0,0,0,-1,1301,1016,0,0
84,8,0,0,0,0,0,0,0,0,0,-1,1308,1016,0,0
91,8,0,0,0,0,0,0,0,0,0,-1,1315,1016,0,0
98,8,0,0,0,0,0,0,0,0,0,-1,1322,1016,0,0
105,8,0,0,0,0,0,0,0,0,0,-1,1329,1016,0,0
112,8,0,0,0,0,0,0,0,0,0,-1,1336,1016,0,0
119,8,0,0,0,0,0,0,0,0,0,-1,1343,1016,0,0
126,8,0,0,0,0,0,0,0,0,0,-1,1350,1016,0,0
133,8,0,0,0,0,0,0,0,0,0,-1,1357,1016,0,0
140,8,0,0,0,0,0,0,0,0,0,-1,1364,1016,0,0
147,8,0,0,0,0,0,0,0,0,0,-1,1371,1016,0,0
154,8,0,0,0,0,0,0,0,0,0,-1,1378,1016,0,0
161,8,0,0,0,0,0,0,0,0,0,-1,1385,1016,0,0
168,8,0,0,0,0,0,0,0,0,0,-1,1392,1016,0,0
175,8,0,0,0,0,0,0,0,0,0,-1,1399,1016,0,0
182,8,0,0,0,0,0,0,0,0,0,-1,1406,1016,0,0
189,8,0,0,0,0,0,0,0,0,0,-1,1413,1016,0,0
196,8,0,0,0,0,0,0,0,0,0,-1,1420,1016,0,0
203,8,0,0,0,0,0,0,0,0,0,-1,1427,1016,0,0
210,8,0,0,0,0,0,0,0,0,0,-1,1434,1016,0,0
217,8,0,0,0,0,0,0,0,0,0,-1,1441,1016,0,0
224,8,0,0,0,0,0,0,0,0,0,-1,1448,1016,0,0
231,8,0,0,0,0,0,0,0,0,0,-1,1455,1016,0,0
238,8,0,0,0,0,0,0,0,0,0,-1,1462,1016,0,0
245,8,0,0,0,0,0,0,0,0,0,-1,1469,1016,0,0
252,8,0,0,0,0,0,0,0,0,0,-1,1476,1016,0,0
259,8,0,0,0,0,0,0,0,0,0,-1,1483,1016,0,0
266,8,0,0,0,0,0,0,0,0,0,-1,1490,1016,0,0
273,8,0,0,0,0,0,0,0,0,0,-1,1497,1016,0,0
280,8,0,0,0,0,0,0,0,0,0,-1,1504,1016,0,0
287,8,0,0,0,0,0,0,0,0,0,-1,1511,1016,0,0
294,8,0,0,0,0,0,0,0,0,0,-1,1518,1016,0,0
301,8,0,0,0,0,0,0,0,0,0,-1,1525,1016,0,0
308,8,0,0,0,0,0,0,0,0,0,-1,1532,1016,0,0
315,8,0,0,0,0,0,0,0,0,0,-1,1539,1016,0,0
322,8,0,0,0,0,0,0,0,0,0,-1,1546,1016,0,0
329,8,0,0,0,0,0,0,0,0,0,-1,1553,1016,0,0
336,8,0,0,0,0,0,0,0,0,0,-1,1560,1016,0,0
343,8,0,0,0,0,0,0,0,0,0,-1,1567,1016,0,0
350,8,0,0,0,0,0,0,0,0,0,-1,1574,1016,0,0
357,8,0,0,0,0,0,0,0,0,0,-1,1581,1016,0,0
364,8,0,0,0,0,0,0,0,0,0,-1,1588,1016,0,0
371,8,0,0,0,0,0,0,0,0,0,-1,1595,1016,0,0
378,8,0,0,0,0,0,0,0,0,0,-1,1602,1016,0,0
385,8,0,0,0,0,0,0,0,0,0,-1,1609,1016,0,0
392,8,0,0,0,0,0,0,0,0,0,-1,1616,1016,0,0
399,8,0,0,0,0,0,0,0,0,0,-1,1623,1016,0,0
406,8,0,0,0,0,0,0,0,0,0,-1,1630,1016,0,0
413,8,0,0,0,0,0,0,0,0,0,-1,1637,1016,0,0
420,8,0,0,0,0,0,0,0,0,0,-1,1644,1016,0,0
427,8,0,0,0,0,0,0,0,0,0,-1,1651,1016,0,0
434,8,0,0,0,0,0,0,0,0,0,-1,1658,1016,0,0
441,8,0,0,0,0,0,0,0,0,0,-1,1665,1016,0,0
448,8,0,0,0,0,0,0,0,0,0,-1,1672,1016,0,0
455,8,0,0,0,0,0,0,0,0,0,-1,1679,1016,0,0
462,8,0,0,0,0,0,0,0,0,0,-1,1686,1016,0,0
469,8,0,0,0,0,0,0,0,0,0,-1,1693,1016,0,0
476,8,0,0,0,0,0,0,0,0,0,-1,1700,1016,0,0
483,8,0,0,0,0,0,0,0,0,0,-1,1707,1016,0,0
490,8,0,0,0,0,0,0,0,0,0,-1,1714,1016,0,0
497,8,0,0,0,0,0,0,0,0,0,-1,1721,1016,0,0
504,8,0,0,0,0,0,0,0,0,0,-1,1728,1016,0,0
511,8,0,0,0,0,0,0,0,0,0,-1,1735,1016,0,0
518,8,0,0,0,0,0,0,0,0,0,-1,1742,1016,0,0
525,8,0,0,0,0,0,0,0,0,0,-1,1749,1016,0,0
532,8,0,0,0,0,0,0,0,0,0,-1,1756,1016,0,0
539,8,0,0,0,0,0,0,0,0,0,-1,1763,1016,0,0
546,8,0,0,0,0,0,0,0,0,0,-1,1770,1016,0,0
553,8,0,0,0,0,0,0,0,0,0,-1,1777,1016,0,0
560,8,0,0,0,0,0,0,0,0,0,-1,1784,1016,0,0
567,8,0,0,0,0,0,0,0,0,0,-1,1791,1016,0,0
574,8,0,0,0,0,0,0,0,0,0,-1,1798,1016,0,0
581,8,0,0,0,0,0,0,0,0,0,-1,1805,1016,0,0
588,8,0,0,0,0,0,0,0,0,0,-1,1812,1016,0,0
595,8,0,0,0,0,0,0,0,0,0,-1,1819,1016,0,0
602,8,0,0,0,0,0,0,0,0,0,-1,1826,1016,0,0
609,8,0,0,0,0,0,0,0,0,0,-1,1833,1016,0,0
616,8,0,0,0,0,0,0,0,0,0,-1,1840,1016,0,0
623,8,0,0,0,0,0,0,0,0,0,-1,1847,1016,0,0
630,8,0,0,0,0,0,0,0,0,0,-1,1854,1016,0,0
637,8,0,0,0,0,0,0,0,0,0,-1,1861,1016,0,0
644,8,26.9392,2.96393,-0.00173356,-0.000931717,0.00524971,0.00393236,-0.00659764,0.823509,0.00614407,0.0439612,1868,1016,26.9392,-2.96394
651,8,26.9667,2.97681,-0.00187699,-0.000945082,0.00398867,0.00260476,-0.00542684,0.843544,0.0047315,0.0383196,1875,1016,26.9667,-2.97684
658,8,26.917,3.0495,-0.00154321,-0.000891928,0.00288426,0.00168502,-0.00412016,0.841612,0.00344851,0.0378761,1882,1016,26.917,-3.04949
665,8,26.9418,3.16071,-0.00120918,-0.000731077,0.00213737,0.00118057,-0.00312083,0.841089,0.00256625,0.0401457,1889,1016,26.9417,-3.16073
672,8,26.9325,3.14288,-0.000940903,-0.000371928,0.00216824,0.0015304,-0.00284323,0.850629,0.00256276,0.0389735,1896,1016,26.9325,-3.14288
679,8,26.9172,3.10382,-0.000950855,-0.000112927,0.00292765,0.00242559,-0.00348937,0.856468,0.00343336,0.0377619,1903,1016,26.9172,-3.1038
686,8,26.9708,3.10901,-0.00109331,1.76769e-05,0.00382683,0.00332912,-0.00440475,0.857474,0.00447952,0.0407398,1910,1016,26.9708,-3.10899
693,8,26.9926,3.07684,-0.00128715,6.16829e-05,0.00471262,0.0041479,-0.00537336,0.85647,0.00551226,0.0380413,1917,1016,26.9926,-3.07682
700,8,27.0399,3.06842,-0.0015681,6.12906e-05,0.0054177,0.00472521,-0.00623202,0.860028,0.00634606,0.0300951,1924,1016,27.0399,-3.06843
707,8,27.0078,3.04626,-0.00165451,0.000104815,0.00570276,0.00499536,-0.00654505,0.861921,0.00668285,0.0215797,1931,1016,27.0078,-3.04624
714,8,27.0472,2.55255,0,0,0,0,0,0,0,-1,1938,1016,27.0473,-2.55252
721,8,27.0466,3.57928,0,0,0,0,0,0,0,-1,1945,1016,27.0466,-3.57926
728,8,26.5569,4.6875,0,0,0,0,0,0,0,-1,1952,1016,26.5569,-4.6875
735,8,26.5432,4.72937,-0.00350613,0.00112299,0.00544148,0.00472172,-0.00710485,0.986484,0.00687413,0.0198902,1959,1016,26.5432,-4.72936
742,8,26.5781,4.74774,-0.00421432,0.00163187,0.00430744,0.0039144,-0.00649684,1.08351,0.00607226,0.0208572,1966,1016,26.5782,-4.74774
749,8,26.5743,4.83112,-0.0051521,0.00219662,0.00280459,0.00314467,-0.00610014,1.24482,0.00542765,0.0153931,1973,1016,26.5743,-4.83111
756,8,26.5702,4.85669,-0.00594801,0.00331941,0.00114798,0.0034595,-0.0060881,1.44937,0.00558151,0.0140036,1980,1016,26.5702,-4.85666
763,8,26.5707,4.90125,-0.00674058,0.00489515,-0.000957326,0.00497339,-0.00681881,-1.48925,0.00683596,0.0127569,1987,1016,26.5707,-4.90122
770,8,26.5531,4.92896,-0.00779335,0.00678868,-0.00360917,0.00763309,-0.00863775,-1.34097,0.00939994,0.0133188,1994,1016,26.5531,-4.92895
777,8,26.4705,4.95734,-0.00873546,0.0092171,-0.00628481,0.0111986,-0.0107169,-1.26538,0.0126539,0.0176741,2001,1016,26.4705,-4.95733
784,8,26.2552,4.91638,-0.00947761,0.0119349,-0.00893154,0.0151712,-0.012714,-1.22316,0.0161204,0.035304,2008,1016,26.2553,-4.91638
791,8,25.6661,4.77966,-0.00951035,0.0151789,-0.012205,0.0201938,-0.0145252,-1.18094,0.0201339,0.0439175,2015,1016,25.6662,-4.77969
798,8,24.9642,4.7019,-0.00811418,0.0192355,-0.0163198,0.0268524,-0.0157311,-1.13412,0.0248635,0.0483133,2022,1016,24.9643,-4.70189
805,8,24.3853,4.76227,0,0,0,0,0,0,0,-1,2029,1016,24.3851,-4.76229
812,8,26.2036,5.86078,0,0,0,0,0,0,0,-1,2036,1016,26.2037,-5.86076
-700,1,0,0,0,0,0,0,0,0,0,-1,524,1023,0,0
-693,1,-20.6271,2.2511,-0.035139,0.0804195,0.0930025,0.13213,-0.0868491,1.06335,0.127325,0.0431746,531,1023,-20.6271,-2.25113
-686,1,-19.8542,2.41241,-0.0310204,0.0679261,0.0749341,0.108246,-0.0713398,1.07716,0.104411,0.0478619,538,1023,-19.8542,-2.41239
-679,1,-19.1972,2.185,0,0,0,0,0,0,0,-1,545,1023,-19.1972,-2.18498
-672,1,-19.0323,2.15955,-0.0222745,0.0440049,0.0469893,0.0683651,-0.0466347,1.09252,0.0667891,0.0481242,552,1023,-19.0323,-2.15955
-665,1,-18.8917,2.15063,-0.0181248,0.0339199,0.0362908,0.0525538,-0.0367588,1.09644,0.0518328,0.0448653,559,1023,-18.8917,-2.15065
-658,1,-18.7823,2.20953,-0.0143836,0.0254023,0.0274082,0.0393758,-0.0283572,1.09932,0.0392778,0.0328023,566,1023,-18.7823,-2.20955
-651,1,-18.7123,2.28973,-0.0111084,0.0184435,0.0201269,0.0286359,-0.0213008,1.10203,0.0289345,0.017309,573,1023,-18.7123,-2.28971
-644,1,-18.6217,2.3999,-0.00808187,0.0130657,0.0136325,0.0197444,-0.0147606,1.11525,0.0199906,0.0243915,580,1023,-18.6217,-2.39992
-637,1,-18.7136,2.35205,-0.00618477,0.00969952,0.00703754,0.0123689,-0.00885416,1.20826,0.012309,0.0208743,587,1023,-18.7136,-2.35206
-630,1,-18.8521,2.30939,-0.00388599,0.00337676,0.00318341,0.00457457,-0.0050838,1.21092,0.00557884,0.0191023,594,1023,-18.8521,-2.3094
-623,1,-18.8151,2.33386,-0.00148324,0.00193744,-0.000739737,0.00209055,-0.00163635,-1.36669,0.00215705,0.0135187,601,1023,-18.8151,-2.33387
-616,1,-18.8338,2.3147,-0.000677143,0.00111609,-0.00302226,0.00337193,-0.00293298,-0.929598,0.00364308,0.0151083,608,1023,-18.8338,-2.31469
-609,1,-18.8213,2.31891,-0.000219138,0.000900606,-0.00504895,0.00542063,-0.00473916,-0.840617,0.00587016,0.0162082,615,1023,-18.8213,-2.31889
-602,1,-18.7802,2.32324,-0.000192578,0.000675603,-0.00615152,0.00640833,-0.00592531,-0.820623,0.00712265,0.0135214,622,1023,-18.7801,-2.32325
-595,1,-18.7175,2.31635,2.71053e-05,0.000218106,-0.00674714,0.00687042,-0.00662521,-0.792475,0.00779214,0.0203474,629,1023,-18.7175,-2.31633
-588,1,-18.7139,1.79376,0.000136697,-0.000115087,-0.0068374,0.00684936,-0.00682775,-0.776193,0.00789649,0.0293857,636,1023,-18.7139,-1.79375
-581,1,-18.7115,1.25513,0.000103062,-0.000342245,-0.00646439,0.00634863,-0.00658781,-0.768183,0.00746929,0.0278045,643,1023,-18.7115,-1.25515
-574,1,-18.7001,1.31006,-0.000213738,-0.000377818,-0.00563939,0.00534421,-0.00593576,-0.778125,0.00651548,0.0342735,650,1023,-18.7001,-1.31006
-567,1,-18.5818,1.1347,-0.000754888,-0.00027769,-0.00429964,0.00378997,-0.00482255,-0.813116,0.00498434,0.0389261,657,1023,-18.5818,-1.13471
-560,1,-18.4919,0.856628,-0.00143007,-1.08763e-05,-0.00228285,0.00167012,-0.00311106,-0.936083,0.00280189,0.0413494,664,1023,-18.492,-0.856615
-553,1,-18.5754,1.12054,-0.00220731,0.000396469,0.00044023,0.000468886,-0.00227973,1.40776,0.00169784,0.0404382,671,1023,-18.5754,-1.12055
-546,1,-18.6801,1.41107,-0.0030627,0.000894107,0.00392105,0.0033076,-0.00547619,1.01904,0.00512258,0.0403924,678,1023,-18.6801,-1.41105
-539,1,-18.8103,1.53668,-0.00383884,0.00153394,0.00762001,0.00692724,-0.00923213,0.954868,0.0093612,0.0399389,685,1023,-18.8103,-1.5367
-532,1,-18.763,1.44855,-0.00471837,0.00271715,0.0102958,0.00994584,-0.0119471,0.958661,0.0126575,0.0407076,692,1023,-18.763,-1.44856
-525,1,0,0,0,0,0,0,0,0,0,-1,699,1023,0,0
-518,1,0,0,0,0,0,0,0,0,0,-1,706,1023,0,0
-511,1,0,0,0,0,0,0,0,0,0,-1,713,1023,0,0
-504,1,0,0,0,0,0,0,0,0,0,-1,720,1023,0,0
-497,1,0,0,0,0,0,0,0,0,0,-1,727,1023,0,0
-490,1,0,0,0,0,0,0,0,0,0,-1,734,1023,0,0
-483,1,0,0,0,0,0,0,0,0,0,-1,741,1023,0,0
-476,1,0,0,0,0,0,0,0,0,0,-1,748,1023,0,0
-469,1,0,0,0,0,0,0,0,0,0,-1,755,1023,0,0
-462,1,0,0,0,0,0,0,0,0,0,-1,762,1023,0,0
-455,1,0,0,0,0,0,0,0,0,0,-1,769,1023,0,0
-448,1,0,0,0,0,0,0,0,0,0,-1,776,1023,0,0
-441,1,0,0,0,0,0,0,0,0,0,-1,783,1023,0,0
-434,1,0,0,0,0,0,0,0,0,0,-1,790,1023,0,0
-427,1,0,0,0,0,0,0,0,0,0,-1,797,1023,0,0
-420,1,0,0,0,0,0,0,0,0,0,-1,804,1023,0,0
-413,1,0,0,0,0,0,0,0,0,0,-1,811,1023,0,0
-406,1,0,0,0,0,0,0,0,0,0,-1,818,1023,0,0
-399,1,0,0,0,0,0,0,0,0,0,-1,825,1023,0,0
-392,1,0,0,0,0,0,0,0,0,0,-1,832,1023,0,0
-385,1,0,0,0,0,0,0,0,0,0,-1,839,1023,0,0
-378,1,0,0,0,0,0,0,0,0,0,-1,846,1023,0,0
-371,1,0,0,0,0,0,0,0,0,0,-1,853,1023,0,0
-364,1,0,0,0,0,0,0,0,0,0,-1,860,1023,0,0
-357,1,0,0,0,0,0,0,0,0,0,-1,867,1023,0,0
-350,1,0,0,0,0,0,0,0,0,0,-1,874,1023,0,0
-343,1,0,0,0,0,0,0,0,0,0,-1,881,1023,0,0
-336,1,0,0,0,0,0,0,0,0,0,-1,888,1023,0,0
-329,1,0,0,0,0,0,0,0,0,0,-1,895,1023,0,0
-322,1,0,0,0,0,0,0,0,0,0,-1,902,1023,0,0
-315,1,0,0,0,0,0,0,0,0,0,-1,909,1023,0,0
-308,1,0,0,0,0,0,0,0,0,0,-1,916,1023,0,0
-301,1,0,0,0,0,0,0,0,0,0,-1,923,1023,0,0
-294,1,0,0,0,0,0,0,0,0,0,-1,930,1023,0,0
-287,1,0,0,0,0,0,0,0,0,0,-1,937,1023,0,0
-280,1,0,0,0,0,0,0,0,0,0,-1,944,1023,0,0
-273,1,0,0,0,0,0,0,0,0,0,-1,951,1023,0,0
-266,1,0,0,0,0,0,0,0,0,0,-1,958,1023,0,0
-259,1,0,0,0,0,0,0,0,0,0,-1,965,1023,0,0
-252,1,0,0,0,0,0,0,0,0,0,-1,972,1023,0,0
-245,1,0,0,0,0,0,0,0,0,0,-1,979,1023,0,0
-238,1,0,0,0,0,0,0,0,0,0,-1,986,1023,0,0
-231,1,0,0,0,0,0,0,0,0,0,-1,993,1023,0,0
-224,1,0,0,0,0,0,0,0,0,0,-1,1000,1023,0,0
-217,1,0,0,0,0,0,0,0,0,0,-1,1007,1023,0,0
-210,1,0,0,0,0,0,0,0,0,0,-1,1014,1023,0,0
-203,1,0,0,0,0,0,0,0,0,0,-1,1021,1023,0,0
-196,1,0,0,0,0,0,0,0,0,0,-1,1028,1023,0,0
-189,1,0,0,0,0,0,0,0,0,0,-1,1035,1023,0,0
-182,1,0,0,0,0,0,0,0,0,0,-1,1042,1023,0,0
-175,1,0,0,0,0,0,0,0,0,0,-1,1049,1023,0,0
-168,1,0,0,0,0,0,0,0,0,0,-1,1056,1023,0,0
-161,1,0,0,0,0,0,0,0,0,0,-1,1063,1023,0,0
-154,1,0,0,0,0,0,0,0,0,0,-1,1070,1023,0,0
-147,1,0,0,0,0,0,0,0,0,0,-1,1077,1023,0,0
-140,1,0,0,0,0,0,0,0,0,0,-1,1084,1023,0,0
-133,1,0,0,0,0,0,0,0,0,0,-1,1091,1023,0,0
-126,1,0,0,0,0,0,0,0,0,0,-1,1098,1023,0,0
-119,1,0,0,0,0,0,0,0,0,0,-1,1105,1023,0,0
-112,1,0,0,0,0,0,0,0,0,0,-1,1112,1023,0,0
-105,1,0,0,0,0,0,0,0,0,0,-1,1119,1023,0,0
-98,1,0,0,0,0,0,0,0,0,0,-1,1126,1023,0,0
-91,1,0,0,0,0,0,0,0,0,0,-1,1133,1023,0,0
-84,1,0,0,0,0,0,0,0,0,0,-1,1140,1023,0,0
-77,1,0,0,0,0,0,0,0,0,0,-1,1147,1023,0,0
-70,1,0,0,0,0,0,0,0,0,0,-1,1154,1023,0,0
-63,1,0,0,0,0,0,0,0,0,0,-1,1161,1023,0,0
-56,1,0,0,0,0,0,0,0,0,0,-1,1168,1023,0,0
-49,1,0,0,0,0,0,0,0,0,0,-1,1175,1023,0,0
-42,1,0,0,0,0,0,0,0,0,0,-1,1182,1023,0,0
-35,1,0,0,0,0,0,0,0,0,0,-1,1189,1023,0,0
-28,1,0,0,0,0,0,0,0,0,0,-1,1196,1023,0,0
-21,1,0,0,0,0,0,0,0,0,0,-1,1203,1023,0,0
-14,1,0,0,0,0,0,0,0,0,0,-1,1210,1023,0,0
-7,1,0,0,0,0,0,0,0,0,0,-1,1217,1023,0,0
0,1,0,0,0,0,0,0,0,0,0,-1,1224,1023,0,0
7,1,0,0,0,0,0,0,0,0,0,-1,1231,1023,0,0
14,1,0,0,0,0,0,0,0,0,0,-1,1238,1023,0,0
21,1,0,0,0,0,0,0,0,0,0,-1,1245,1023,0,0
28,1,0,0,0,0,0,0,0,0,0,-1,1252,1023,0,0
35,1,0,0,0,0,0,0,0,0,0,-1,1259,1023,0,0
42,1,0,0,0,0,0,0,0,0,0,-1,1266,1023,0,0
49,1,0,0,0,0,0,0,0,0,0,-1,1273,1023,0,0
56,1,0,0,0,0,0,0,0,0,0,-1,1280,1023,0,0
63,1,0,0,0,0,0,0,0,0,0,-1,1287,1023,0,0
70,1,0,0,0,0,0,0,0,0,0,-1,1294,1023,0,0
77,1,0,0,0,0,0,0,0,0,0,-1,1301,1023,0,0
84,1,0,0,0,0,0,0,0,0,0,-1,1308,1023,0,0
91,1,0,0,0,0,0,0,0,0,0,-1,1315,1023,0,0
98,1,0,0,0,0,0,0,0,0,0,-1,1322,1023,0,0
105,1,0,0,0,0,0,0,0,0,0,-1,1329,1023,0,0
112,1,0,0,0,0,0,0,0,0,0,-1,1336,1023,0,0
119,1,0,0,0,0,0,0,0,0,0,-1,1343,1023,0,0
126,1,0,0,0,0,0,0,0,0,0,-1,1350,1023,0,0
133,1,0,0,0,0,0,0,0,0,0,-1,1357,1023,0,0
140,1,0,0,0,0,0,0,0,0,0,-1,1364,1023,0,0
147,1,0,0,0,0,0,0,0,0,0,-1,1371,1023,0,0
154,1,0,0,0,0,0,0,0,0,0,-1,1378,1023,0,0
161,1,0,0,0,0,0,0,0,0,0,-1,1385,1023,0,0
168,1,0,0,0,0,0,0,0,0,0,-1,1392,1023,0,0
175,1,0,0,0,0,0,0,0,0,0,-1,1399,1023,0,0
182,1,0,0,0,0,0,0,0,0,0,-1,1406,1023,0,0
189,1,0,0,0,0,0,0,0,0,0,-1,1413,1023,0,0
196,1,0,0,0,0,0,0,0,0,0,-1,1420,1023,0,0
203,1,0,0,0,0,0,0,0,0,0,-1,1427,1023,0,0
210,1,0,0,0,0,0,0,0,0,0,-1,1434,1023,0,0
217,1,0,0,0,0,0,0,0,0,0,-1,1441,1023,0,0
224,1,0,0,0,0,0,0,0,0,0,-1,1448,1023,0,0
231,1,0,0,0,0,0,0,0,0,0,-1,1455,1023,0,0
238,1,0,0,0,0,0,0,0,0,0,-1,1462,1023,0,0
245,1,0,0,0,0,0,0,0,0,0,-1,1469,1023,0,0
252,1,0,0,0,0,0,0,0,0,0,-1,1476,1023,0,0
259,1,0,0,0,0,0,0,0,0,0,-1,1483,1023,0,0
266,1,0,0,0,0,0,0,0,0,0,-1,1490,1023,0,0
273,1,0,0,0,0,0,0,0,0,0,-1,1497,1023,0,0
280,1,0,0,0,0,0,0,0,0,0,-1,1504,1023,0,0
287,1,0,0,0,0,0,0,0,0,0,-1,1511,1023,0,0
294,1,0,0,0,0,0,0,0,0,0,-1,1518,1023,0,0
301,1,0,0,0,0,0,0,0,0,0,-1,1525,1023,0,0
308,1,0,0,0,0,0,0,0,0,0,-1,1532,1023,0,0
315,1,0,0,0,0,0,0,0,0,0,-1,1539,1023,0,0
322,1,0,0,0,0,0,0,0,0,0,-1,1546,1023,0,0
329,1,0,0,0,0,0,0,0,0,0,-1,1553,1023,0,0
336,1,0,0,0,0,0,0,0,0,0,-1,1560,1023,0,0
343,1,0,0,0,0,0,0,0,0,0,-1,1567,1023,0,0
350,1,0,0,0,0,0,0,0,0,0,-1,1574,1023,0,0
357,1,0,0,0,0,0,0,0,0,0,-1,1581,1023,0,0
364,1,0,0,0,0,0,0,0,0,0,-1,1588,1023,0,0
371,1,0,0,0,0,0,0,0,0,0,-1,1595,1023,0,0
378,1,0,0,0,0,0,0,0,0,0,-1,1602,1023,0,0
385,1,0,0,0,0,0,0,0,0,0,-1,1609,1023,0,0
392,1,0,0,0,0,0,0,0,0,0,-1,1616,1023,0,0
399,1,0,0,0,0,0,0,0,0,0,-1,1623,1023,0,0
406,1,0,0,0,0,0,0,0,0,0,-1,1630,1023,0,0
413,1,0,0,0,0,0,0,0,0,0,-1,1637,1023,0,0
420,1,0,0,0,0,0,0,0,0,0,-1,1644,1023,0,0
427,1,0,0,0,0,0,0,0,0,0,-1,1651,1023,0,0
434,1,0,0,0,0,0,0,0,0,0,-1,1658,1023,0,0
441,1,0,0,0,0,0,0,0,0,0,-1,1665,1023,0,0
448,1,0,0,0,0,0,0,0,0,0,-1,1672,1023,0,0
455,1,0,0,0,0,0,0,0,0,0,-1,1679,1023,0,0
462,1,0,0,0,0,0,0,0,0,0,-1,1686,1023,0,0
469,1,0,0,0,0,0,0,0,0,0,-1,1693,1023,0,0
476,1,0,0,0,0,0,0,0,0,0,-1,1700,1023,0,0
483,1,0,0,0,0,0,0,0,0,0,-1,1707,1023,0,0
490,1,0,0,0,0,0,0,0,0,0,-1,1714,1023,0,0
497,1,0,0,0,0,0,0,0,0,0,-1,1721,1023,0,0
504,1,0,0,0,0,0,0,0,0,0,-1,1728,1023,0,0
511,1,0,0,0,0,0,0,0,0,0,-1,1735,1023,0,0
518,1,0,0,0,0,0,0,0,0,0,-1,1742,1023,0,0
525,1,0,0,0,0,0,0,0,0,0,-1,1749,1023,0,0
532,1,0,0,0,0,0,0,0,0,0,-1,1756,1023,0,0
539,1,0,0,0,0,0,0,0,0,0,-1,1763,1023,0,0
546,1,0,0,0,0,0,0,0,0,0,-1,1770,1023,0,0
553,1,0,0,0,0,0,0,0,0,0,-1,1777,1023,0,0
560,1,0,0,0,0,0,0,0,0,0,-1,1784,1023,0,0
567,1,0,0,0,0,0,0,0,0,0,-1,1791,1023,0,0
574,1,0,0,0,0,0,0,0,0,0,-1,1798,1023,0,0
581,1,0,0,0,0,0,0,0,0,0,-1,1805,1023,0,0
588,1,0,0,0,0,0,0,0,0,0,-1,1812,1023,0,0
595,1,0,0,0,0,0,0,0,0,0,-1,1819,1023,0,0
602,1,0,0,0,0,0,0,0,0,0,-1,1826,1023,0,0
609,1,0,0,0,0,0,0,0,0,0,-1,1833,1023,0,0
616,1,0,0,0,0,0,0,0,0,0,-1,1840,1023,0,0
623,1,0,0,0,0,0,0,0,0,0,-1,1847,1023,0,0
630,1,0,0,0,0,0,0,0,0,0,-1,1854,1023,0,0
637,1,0,0,0,0,0,0,0,0,0,-1,1861,1023,0,0
644,1,0,0,0,0,0,0,0,0,0,-1,1868,1023,0,0
651,1,26.974,2.97668,-0.00275708,-0.00142234,0.00471159,0.00266891,-0.00684833,0.855752,0.00566863,0.0380106,1875,1023,26.974,-2.97668
658,1,26.9309,3.09033,-0.00202639,-0.0012254,0.00329333,0.0016917,-0.00494349,0.845905,0.00398123,0.0387409,1882,1023,26.9309,-3.09031
665,1,26.856,3.24408,-0.0014393,-0.000970594,0.00228502,0.00109206,-0.00350196,0.8365,0.00277133,0.0423317,1889,1023,26.8559,-3.24408
672,1,26.8145,3.09558,-0.000993832,-0.000569158,0.00212561,0.00135469,-0.00291768,0.83518,0.00252108,0.0424382,1896,1023,26.8145,-3.09557
679,1,26.8877,2.95325,-0.000893572,-0.000309685,0.00281281,0.0022263,-0.00342955,0.837108,0.00328995,0.0390959,1903,1023,26.8876,-2.95325
686,1,26.9379,3.02362,-0.000998829,-0.000211524,0.00371177,0.00312741,-0.00433776,0.838228,0.00432886,0.0378068,1910,1023,26.9378,-3.02365
693,1,26.9478,3.16968,-0.00118523,-0.000214115,0.00464247,0.00396813,-0.00536747,0.837504,0.00541005,0.0336873,1917,1023,26.9477,-3.16967
700,1,27.0293,3.17572,-0.00144783,-0.000249275,0.0054104,0.00459494,-0.00629204,0.840555,0.006311,0.0283933,1924,1023,27.0293,-3.17571
707,1,26.9882,3.06836,-0.00151545,-0.000233263,0.00573861,0.00489995,-0.00664866,0.841026,0.00669302,0.0213186,1931,1023,26.9881,-3.06839
714,1,27.0817,2.48297,0,0,0,0,0,0,0,-1,1938,1023,27.0817,-2.48297
721,1,26.9828,3.62042,-0.00214414,2.33277e-05,0.00600658,0.00504316,-0.00716397,0.87465,0.00708316,0.0305421,1945,1023,26.9828,-3.62042
728,1,26.6194,4.53735,-0.00274554,0.000326737,0.00609281,0.00507407,-0.00749287,0.908886,0.00730019,0.0303316,1952,1023,26.6193,-4.53735
735,1,26.5348,4.77112,-0.00337539,0.000731011,0.00572425,0.00475915,-0.00740352,0.957593,0.00707723,0.0190038,1959,1023,26.5347,-4.77113
742,1,26.5826,4.78986,-0.00403903,0.001274,0.00469899,0.00401541,-0.00678044,1.04267,0.00630076,0.0201708,1966,1023,26.5827,-4.78984
749,1,26.568,4.83319,-0.00497966,0.00186715,0.00338836,0.00326045,-0.00637296,1.18067,0.00565779,0.0178269,1973,1023,26.568,-4.83321
756,1,26.5889,4.86725,-0.00575989,0.00311495,0.00196869,0.00353206,-0.006177,1.36201,0.00567444,0.0135564,1980,1023,26.5889,-4.86724
763,1,26.5752,4.87079,-0.00644349,0.00488555,0.000140577,0.0048873,-0.00644523,1.55839,0.00656342,0.0132358,1987,1023,26.5752,-4.87078
770,1,26.5509,4.88702,-0.00744714,0.00699678,-0.00210899,0.00729842,-0.00774878,-1.42873,0.0086888,0.0128186,1994,1023,26.5509,-4.887
777,1,26.4807,4.89435,-0.00834195,0.0096938,-0.00424694,0.0106438,-0.00929195,-1.35073,0.0115187,0.0153419,2001,1023,26.4807,-4.89432
784,1,26.3226,4.89771,-0.00908994,0.0127346,-0.00613467,0.0143408,-0.0106961,-1.31472,0.0145061,0.0345564,2008,1023,26.3227,-4.89768
791,1,25.9036,4.85559,-0.00926074,0.0163617,-0.00838766,0.0188632,-0.0117623,-1.28096,0.0178394,0.0427927,2015,1023,25.9035,-4.85561
798,1,25.543,4.70599,-0.008207,0.0208822,-0.0111912,0.0246894,-0.0120142,-1.24288,0.0216079,0.0437175,2022,1023,25.5429,-4.70601
805,1,25.3713,4.9646,0,0,0,0,0,0,0,-1,2029,1023,25.3714,-4.96459
812,1,27.2749,6.59998,0,0,0,0,0,0,0,-1,2036,1023,27.2748,-6.59996
-700,-6,0,0,0,0,0,0,0,0,0,-1,524,1030,0,0
-693,-6,-20.1942,3.31482,0,0,0,0,0,0,0,-1,531,1030,-20.1942,-3.31483
-686,-6,-21.8689,4.74377,0,0,0,0,0,0,0,-1,538,1030,-21.8689,-4.74373
-679,-6,-21.361,4.54297,0,0,0,0,0,0,0,-1,545,1030,-21.361,-4.54295
-672,-6,-20.9634,4.39954,0,0,0,0,0,0,0,-1,552,1030,-20.9634,-4.39957
-665,-6,-18.717,2.41638,-0.0163741,0.0375257,0.0353273,0.0550091,-0.0338574,1.11124,0.0517893,0.0438674,559,1030,-18.7171,-2.4164
-658,-6,-18.6862,2.2439,-0.012679,0.0282685,0.0265762,0.0413428,-0.0257532,1.11361,0.0390849,0.0367064,566,1030,-18.6861,-2.24395
-651,-6,-18.7646,2.12805,-0.00952972,0.0206046,0.0194278,0.0301232,-0.0190483,1.11522,0.0286282,0.0337794,573,1030,-18.7646,-2.1281
-644,-6,-18.6621,2.35474,-0.0066826,0.0145279,0.0128852,0.020611,-0.0127657,1.12972,0.0194467,0.0398785,580,1030,-18.6621,-2.35477
-637,-6,-18.7538,2.396,-0.00501622,0.0105496,0.00639522,0.0128401,-0.00730667,1.22688,0.0117771,0.0237122,587,1030,-18.7538,-2.39598
-630,-6,-18.811,2.3103,-0.00284902,0.00368543,0.00272853,0.00467492,-0.00383852,1.2229,0.00492314,0.0156472,594,1030,-18.8111,-2.31034
-623,-6,-18.7934,2.3175,-0.000555867,0.00187337,-0.00106221,0.00227231,-0.000954815,-1.21152,0.00191424,0.0136098,601,1030,-18.7934,-2.31755
-616,-6,-18.7917,2.31897,-4.07524e-05,0.000831458,-0.00326485,0.0036892,-0.00289849,-0.851793,0.00381253,0.0135137,608,1030,-18.7917,-2.31902
-609,-6,-18.7656,2.33459,0.000221128,0.000575742,-0.00532947,0.00573086,-0.00493399,-0.802027,0.00616308,0.0146114,615,1030,-18.7656,-2.33454
-602,-6,-18.7651,2.37061,0.000118948,0.000236501,-0.00639318,0.00657118,-0.00621573,-0.789995,0.00738348,0.0122818,622,1030,-18.7651,-2.37066
-595,-6,-18.7039,2.37256,0.00026226,-0.000225944,-0.00695122,0.00697367,-0.00693735,-0.767847,0.00803154,0.0167037,629,1030,-18.7039,-2.37255
-588,-6,-18.6901,1.75647,0.000333004,-0.0005624,-0.00699079,0.00689042,-0.00711981,-0.753421,0.00808917,0.0191047,636,1030,-18.6901,-1.75642
-581,-6,-18.7366,1.27039,0.000275878,-0.000785496,-0.00658045,0.006347,-0.00685662,-0.745162,0.00762501,0.0218274,643,1030,-18.7366,-1.27037
-574,-6,-18.7542,1.36206,-6.07961e-05,-0.000803748,-0.00577802,0.00535768,-0.00622222,-0.753297,0.00669186,0.0304649,650,1030,-18.7542,-1.36201
-567,-6,-18.684,1.46301,-0.000660835,-0.000668792,-0.0044262,0.00376139,-0.00509102,-0.784949,0.00513012,0.039503,657,1030,-18.684,-1.46302
-560,-6,-18.5164,1.41809,-0.00145116,-0.00036021,-0.00236452,0.00152094,-0.00333231,-0.89876,0.00286634,0.0419415,664,1030,-18.5163,-1.41808
-553,-6,-18.5103,1.0686,-0.00240851,8.63647e-05,0.000458785,0.000168056,-0.00249021,1.39458,0.0017189,0.0408938,671,1030,-18.5103,-1.06859
-546,-6,-18.6527,1.22864,-0.00352902,0.000605071,0.00412186,0.00314914,-0.00607309,1.01781,0.00541293,0.0409886,678,1030,-18.6527,-1.22859
-539,-6,-18.7671,1.32495,-0.00461551,0.00119613,0.00799758,0.00679942,-0.0102188,0.959652,0.00989137,0.041062,685,1030,-18.7671,-1.32497
-532,-6,-18.804,1.41943,-0.00576261,0.00219185,0.0106981,0.00962815,-0.0131989,0.963365,0.0132328,0.0404451,692,1030,-18.804,-1.41944
-525,-6,0,0,0,0,0,0,0,0,0,-1,699,1030,0,0
-518,-6,0,0,0,0,0,0,0,0,0,-1,706,1030,0,0
-511,-6,0,0,0,0,0,0,0,0,0,-1,713,1030,0,0
-504,-6,0,0,0,0,0,0,0,0,0,-1,720,1030,0,0
-497,-6,0,0,0,0,0,0,0,0,0,-1,727,1030,0,0
-490,-6,0,0,0,0,0,0,0,0,0,-1,734,1030,0,0
-483,-6,0,0,0,0,0,0,0,0,0,-1,741,1030,0,0
-476,-6,0,0,0,0,0,0,0,0,0,-1,748,1030,0,0
-469,-6,0,0,0,0,0,0,0,0,0,-1,755,1030,0,0
-462,-6,0,0,0,0,0,0,0,0,0,-1,762,1030,0,0
-455,-6,0,0,0,0,0,0,0,0,0,-1,769,1030,0,0
-448,-6,0,0,0,0,0,0,0,0,0,-1,776,1030,0,0
-441,-6,0,0,0,0,0,0,0,0,0,-1,783,1030,0,0
-434,-6,0,0,0,0,0,0,0,0,0,-1,790,1030,0,0
-427,-6,0,0,0,0,0,0,0,0,0,-1,797,1030,0,0
-420,-6,0,0,0,0,0,0,0,0,0,-1,804,1030,0,0
-413,-6,0,0,0,0,0,0,0,0,0,-1,811,1030,0,0
-406,-6,0,0,0,0,0,0,0,0,0,-1,818,1030,0,0
-399,-6,0,0,0,0,0,0,0,0,0,-1,825,1030,0,0
-392,-6,0,0,0,0,0,0,0,0,0,-1,832,1030,0,0
-385,-6,0,0,0,0,0,0,0,0,0,-1,839,1030,0,0
-378,-6,0,0,0,0,0,0,0,0,0,-1,846,1030,0,0
-371,-6,0,0,0,0,0,0,0,0,0,-1,853,1030,0,0
-364,-6,0,0,0,0,0,0,0,0,0,-1,860,1030,0,0
-357,-6,0,0,0,0,0,0,0,0,0,-1,867,1030,0,0
-350,-6,0,0,0,0,0,0,0,0,0,-1,874,1030,0,0
-343,-6,0,0,0,0,0,0,0,0,0,-1,881,1030,0,0
-336,-6,0,0,0,0,0,0,0,0,0,-1,888,1030,0,0
-329,-6,0,0,0,0,0,0,0,0,0,-1,895,1030,0,0
-322,-6,0,0,0,0,0,0,0,0,0,-1,902,1030,0,0
-315,-6,0,0,0,0,0,0,0,0,0,-1,909,1030,0,0
-308,-6,0,0,0,0,0,0,0,0,0,-1,916,1030,0,0
-301,-6,0,0,0,0,0,0,0,0,0,-1,923,1030,0,0
-294,-6,0,0,0,0,0,0,0,0,0,-1,930,1030,0,0
-287,-6,0,0,0,0,0,0,0,0,0,-1,937,1030,0,0
-280,-6,0,0,0,0,0,0,0,0,0,-1,944,1030,0,0
-273,-6,0,0,0,0,0,0,0,0,0,-1,951,1030,0,0
-266,-6,0,0,0,0,0,0,0,0,0,-1,958,1030,0,0
-259,-6,0,0,0,0,0,0,0,0,0,-1,965,1030,0,0
-252,-6,0,0,0,0,0,0,0,0,0,-1,972,1030,0,0
-245,-6,0,0,0,0,0,0,0,0,0,-1,979,1030,0,0
-238,-6,0,0,0,0,0,0,0,0,0,-1,986,1030,0,0
-231,-6,0,0,0,0,0,0,0,0,0,-1,993,1030,0,0
-224,-6,0,0,0,0,0,0,0,0,0,-1,1000,1030,0,0
-217,-6,0,0,0,0,0,0,0,0,0,-1,1007,1030,0,0
-210,-6,0,0,0,0,0,0,0,0,0,-1,1014,1030,0,0
-203,-6,0,0,0,0,0,0,0,0,0,-1,1021,1030,0,0
-196,-6,0,0,0,0,0,0,0,0,0,-1,1028,1030,0,0
-189,-6,0,0,0,0,0,0,0,0,0,-1,1035,1030,0,0
-182,-6,0,0,0,0,0,0,0,0,0,-1,1042,1030,0,0
-175,-6,0,0,0,0,0,0,0,0,0,-1,1049,1030,0,0
-168,-6,0,0,0,0,0,0,0,0,0,-1,1056,1030,0,0
-161,-6,0,0,0,0,0,0,0,0,0,-1,1063,1030,0,0
-154,-6,0,0,0,0,0,0,0,0,0,-1,1070,1030,0,0
-147,-6,0,0,0,0,0,0,0,0,0,-1,1077,1030,0,0
-140,-6,0,0,0,0,0,0,0,0,0,-1,1084,1030,0,0
-133,-6,0,0,0,0,0,0,0,0,0,-1,1091,1030,0,0
-126,-6,0,0,0,0,0,0,0,0,0,-1,1098,1030,0,0
-119,-6,0,0,0,0,0,0,0,0,0,-1,1105,1030,0,0
-112,-6,0,0,0,0,0,0,0,0,0,-1,1112,1030,0,0
-105,-6,0,0,0,0,0,0,0,0,0,-1,1119,1030,0,0
-98,-6,0,0,0,0,0,0,0,0,0,-1,1126,1030,0,0
-91,-6,0,0,0,0,0,0,0,0,0,-1,1133,1030,0,0
-84,-6,0,0,0,0,0,0,0,0,0,-1,1140,1030,0,0
-77,-6,0,0,0,0,0,0,0,0,0,-1,1147,1030,0,0
-70,-6,0,0,0,0,0,0,0,0,0,-1,1154,1030,0,0
-63,-6,0,0,0,0,0,0,0,0,0,-1,1161,1030,0,0
-56,-6,0,0,0,0,0,0,0,0,0,-1,1168,1030,0,0
-49,-6,0,0,0,0,0,0,0,0,0,-1,1175,1030,0,0
-42,-6,0,0,0,0,0,0,0,0,0,-1,1182,1030,0,0
-35,-6,0,0,0,0,0,0,0,0,0,-1,1189,1030,0,0
-28,-6,0,0,0,0,0,0,0,0,0,-1,1196,1030,0,0
-21,-6,0,0,0,0,0,0,0,0,0,-1,1203,1030,0,0
-14,-6,0,0,0,0,0,0,0,0,0,-1,1210,1030,0,0
-7,-6,0,0,0,0,0,0,0,0,0,-1,1217,1030,0,0
0,-6,0,0,0,0,0,0,0,0,0,-1,1224,1030,0,0
7,-6,0,0,0,0,0,0,0,0,0,-1,1231,1030,0,0
14,-6,0,0,0,0,0,0,0,0,0,-1,1238,1030,0,0
21,-6,0,0,0,0,0,0,0,0,0,-1,1245,1030,0,0
28,-6,0,0,0,0,0,0,0,0,0,-1,1252,1030,0,0
35,-6,0,0,0,0,0,0,0,0,0,-1,1259,1030,0,0
42,-6,0,0,0,0,0,0,0,0,0,-1,1266,1030,0,0
49,-6,0,0,0,0,0,0,0,0,0,-1,1273,1030,0,0
56,-6,0,0,0,0,0,0,0,0,0,-1,1280,1030,0,0
63,-6,0,0,0,0,0,0,0,0,0,-1,1287,1030,0,0
70,-6,0,0,0,0,0,0,0,0,0,-1,1294,1030,0,0
77,-6,0,0,0,0,0,0,0,0,0,-1,1301,1030,0,0
84,-6,0,0,0,0,0,0,0,0,0,-1,1308,1030,0,0
91,-6,0,0,0,0,0,0,0,0,0,-1,1315,1030,0,0
98,-6,0,0,0,0,0,0,0,0,0,-1,1322,1030,0,0
105,-6,0,0,0,0,0,0,0,0,0,-1,1329,1030,0,0
112,-6,0,0,0,0,0,0,0,0,0,-1,1336,1030,0,0
119,-6,0,0,0,0,0,0,0,0,0,-1,1343,1030,0,0
126,-6,0,0,0,0,0,0,0,0,0,-1,1350,1030,0,0
133,-6,0,0,0,0,0,0,0,0,0,-1,1357,1030,0,0
140,-6,0,0,0,0,0,0,0,0,0,-1,1364,1030,0,0
147,-6,0,0,0,0,0,0,0,0,0,-1,1371,1030,0,0
154,-6,0,0,0,0,0,0,0,0,0,-1,1378,1030,0,0
161,-6,0,0,0,0,0,0,0,0,0,-1,1385,1030,0,0
168,-6,0,0,0,0,0,0,0,0,0,-1,1392,1030,0,0
175,-6,0,0,0,0,0,0,0,0,0,-1,1399,1030,0,0
182,-6,0,0,0,0,0,0,0,0,0,-1,1406,1030,0,0
189,-6,0,0,0,0,0,0,0,0,0,-1,1413,1030,0,0
196,-6,0,0,0,0,0,0,0,0,0,-1,1420,1030,0,0
203,-6,0,0,0,0,0,0,0,0,0,-1,1427,1030,0,0
210,-6,0,0,0,0,0,0,0,0,0,-1,1434,1030,0,0
217,-6,0,0,0,0,0,0,0,0,0,-1,1441,1030,0,0
224,-6,0,0,0,0,0,0,0,0,0,-1,1448,1030,0,0
231,-6,0,0,0,0,0,0,0,0,0,-1,1455,1030,0,0
238,-6,0,0,0,0,0,0,0,0,0,-1,1462,1030,0,0
245,-6,0,0,0,0,0,0,0,0,0,-1,1469,1030,0,0
252,-6,0,0,0,0,0,0,0,0,0,-1,1476,1030,0,0
259,-6,0,0,0,0,0,0,0,0,0,-1,1483,1030,0,0
266,-6,0,0,0,0,0,0,0,0,0,-1,1490,1030,0,0
273,-6,0,0,0,0,0,0,0,0,0,-1,1497,1030,0,0
280,-6,0,0,0,0,0,0,0,0,0,-1,1504,1030,0,0
287,-6,0,0,0,0,0,0,0,0,0,-1,1511,1030,0,0
294,-6,0,0,0,0,0,0,0,0,0,-1,1518,1030,0,0
301,-6,0,0,0,0,0,0,0,0,0,-1,1525,1030,0,0
308,-6,0,0,0,0,0,0,0,0,0,-1,1532,1030,0,0
315,-6,0,0,0,0,0,0,0,0,0,-1,1539,1030,0,0
322,-6,0,0,0,0,0,0,0,0,0,-1,1546,1030,0,0
329,-6,0,0,0,0,0,0,0,0,0,-1,1553,1030,0,0
336,-6,0,0,0,0,0,0,0,0,0,-1,1560,1030,0,0
343,-6,0,0,0,0,0,0,0,0,0,-1,1567,1030,0,0
350,-6,0,0,0,0,0,0,0,0,0,-1,1574,1030,0,0
357,-6,0,0,0,0,0,0,0,0,0,-1,1581,1030,0,0
364,-6,0,0,0,0,0,0,0,0,0,-1,1588,1030,0,0
371,-6,0,0,0,0,0,0,0,0,0,-1,1595,1030,0,0
378,-6,0,0,0,0,0,0,0,0,0,-1,1602,1030,0,0
385,-6,0,0,0,0,0,0,0,0,0,-1,1609,1030,0,0
392,-6,0,0,0,0,0,0,0,0,0,-1,1616,1030,0,0
399,-6,0,0,0,0,0,0,0,0,0,-1,1623,1030,0,0
406,-6,0,0,0,0,0,0,0,0,0,-1,1630,1030,0,0
413,-6,0,0,0,0,0,0,0,0,0,-1,1637,1030,0,0
420,-6,0,0,0,0,0,0,0,0,0,-1,1644,1030,0,0
427,-6,0,0,0,0,0,0,0,0,0,-1,1651,1030,0,0
434,-6,0,0,0,0,0,0,0,0,0,-1,1658,1030,0,0
441,-6,0,0,0,0,0,0,0,0,0,-1,1665,1030,0,0
448,-6,0,0,0,0,0,0,0,0,0,-1,1672,1030,0,0
455,-6,0,0,0,0,0,0,0,0,0,-1,1679,1030,0,0
462,-6,0,0,0,0,0,0,0,0,0,-1,1686,1030,0,0
469,-6,0,0,0,0,0,0,0,0,0,-1,1693,1030,0,0
476,-6,0,0,0,0,0,0,0,0,0,-1,1700,1030,0,0
483,-6,0,0,0,0,0,0,0,0,0,-1,1707,1030,0,0
490,-6,0,0,0,0,0,0,0,0,0,-1,1714,1030,0,0
497,-6,0,0,0,0,0,0,0,0,0,-1,1721,1030,0,0
504,-6,0,0,0,0,0,0,0,0,0,-1,1728,1030,0,0
511,-6,0,0,0,0,0,0,0,0,0,-1,1735,1030,0,0
518,-6,0,0,0,0,0,0,0,0,0,-1,1742,1030,0,0
525,-6,0,0,0,0,0,0,0,0,0,-1,1749,1030,0,0
532,-6,0,0,0,0,0,0,0,0,0,-1,1756,1030,0,0
539,-6,0,0,0,0,0,0,0,0,0,-1,1763,1030,0,0
546,-6,0,0,0,0,0,0,0,0,0,-1,1770,1030,0,0
553,-6,0,0,0,0,0,0,0,0,0,-1,1777,1030,0,0
560,-6,0,0,0,0,0,0,0,0,0,-1,1784,1030,0,0
567,-6,0,0,0,0,0,0,0,0,0,-1,1791,1030,0,0
574,-6,0,0,0,0,0,0,0,0,0,-1,1798,1030,0,0
581,-6,0,0,0,0,0,0,0,0,0,-1,1805,1030,0,0
588,-6,0,0,0,0,0,0,0,0,0,-1,1812,1030,0,0
595,-6,0,0,0,0,0,0,0,0,0,-1,1819,1030,0,0
602,-6,0,0,0,0,0,0,0,0,0,-1,1826,1030,0,0
609,-6,0,0,0,0,0,0,0,0,0,-1,1833,1030,0,0
616,-6,0,0,0,0,0,0,0,0,0,-1,1840,1030,0,0
623,-6,0,0,0,0,0,0,0,0,0,-1,1847,1030,0,0
630,-6,0,0,0,0,0,0,0,0,0,-1,1854,1030,0,0
637,-6,0,0,0,0,0,0,0,0,0,-1,1861,1030,0,0
644,-6,0,0,0,0,0,0,0,0,0,-1,1868,1030,0,0
651,-6,27.1504,3.00281,-0.00318303,-0.00145597,0.00530648,0.00305679,-0.00769578,0.866057,0.00639768,0.0367008,1875,1030,27.1504,-3.00283
658,-6,26.9805,3.31458,-0.00218492,-0.00125669,0.0035618,0.00187111,-0.00531272,0.850185,0.00430332,0.0411324,1882,1030,26.9805,-3.31457
665,-6,26.9451,3.32446,-0.00145648,-0.00101636,0.0023077,0.00108175,-0.00355459,0.832934,0.00280083,0.0447813,1889,1030,26.945,-3.32445
672,-6,27.02,3.10413,-0.000921057,-0.000682667,0.00195843,0.00116019,-0.00276392,0.815792,0.0023278,0.0418357,1896,1030,27.02,-3.1041
679,-6,27.2343,2.70227,-0.000771227,-0.00051809,0.00256417,0.00192263,-0.00321195,0.810058,0.00299544,0.0403667,1903,1030,27.2343,-2.70228
686,-6,26.9863,2.95264,-0.000868354,-0.000513846,0.00345466,0.0027681,-0.0041503,0.81103,0.00402083,0.035643,1910,1030,26.9863,-2.95259
693,-6,26.9286,3.23962,-0.00105413,-0.000599938,0.00441804,0.00359684,-0.0052509,0.811077,0.00513791,0.0335259,1917,1030,26.9286,-3.23957
700,-6,26.9744,3.18237,-0.00129565,-0.000691261,0.00524158,0.00425683,-0.00624374,0.814193,0.00609857,0.0288211,1924,1030,26.9743,-3.18237
707,-6,26.9714,3.10669,-0.00135065,-0.000710414,0.00560146,0.00458007,-0.00664113,0.813942,0.00651489,0.0237573,1931,1030,26.9715,-3.10674
714,-6,26.938,2.60229,0,0,0,0,0,0,0,-1,1938,1030,26.938,-2.60226
721,-6,26.8466,3.76465,-0.00199758,-0.000482538,0.00598516,0.00479285,-0.00727297,0.848347,0.00701509,0.0357884,1945,1030,26.8466,-3.76464
728,-6,26.5494,4.70923,-0.00259369,-0.000173167,0.00613287,0.00486772,-0.00763457,0.882816,0.00727688,0.0347017,1952,1030,26.5494,-4.7092
735,-6,26.5795,4.75757,-0.0031702,0.000293337,0.0058479,0.0046605,-0.00753737,0.929352,0.00710743,0.0200254,1959,1030,26.5795,-4.75761
742,-6,26.6171,4.78943,-0.00375369,0.000910722,0.00496403,0.00406311,-0.00690607,1.00501,0.00640357,0.0168189,1966,1030,26.6171,-4.78942
749,-6,26.595,4.85132,-0.00461743,0.00158165,0.00381936,0.00340091,-0.0064367,1.12627,0.00576919,0.0147085,1973,1030,26.5949,-4.85137
756,-6,26.6211,4.83923,-0.00526014,0.00296654,0.00256022,0.00369822,-0.00599183,1.29243,0.00564655,0.0139404,1980,1030,26.6212,-4.83928
763,-6,26.5892,4.80286,-0.00569073,0.00491843,0.000927793,0.00499895,-0.00577126,1.48422,0.00622351,0.0135163,1987,1030,26.5892,-4.8029
770,-6,26.5544,4.81482,-0.00640401,0.0072543,-0.00105239,0.00733491,-0.00648463,-1.49435,0.00798375,0.0121245,1994,1030,26.5545,-4.81479
777,-6,26.4875,4.83203,-0.00689185,0.0101642,-0.00288366,0.0106385,-0.0073662,-1.40776,0.0104521,0.0149191,2001,1030,26.4876,-4.83207
784,-6,26.3938,4.75061,-0.00714067,0.0134357,-0.00435453,0.0143193,-0.00802427,-1.3706,0.0130696,0.0350843,2008,1030,26.3938,-4.75065
791,-6,26.2848,4.66028,-0.00675493,0.017283,-0.00606897,0.0187284,-0.00820028,-1.337,0.0159384,0.0453425,2015,1030,26.2848,-4.66033
798,-6,26.1648,4.75989,-0.00510993,0.0220013,-0.00822436,0.0243011,-0.00740975,-1.29813,0.0191545,0.0450632,2022,1030,26.1648,-4.75986
805,-6,27.1531,6.36676,0,0,0,0,0,0,0,-1,2029,1030,27.153,-6.36678
812,-6,27.4629,6.09149,0,0,0,0,0,0,0,-1,2036,1030,27.463,-6.09152
-700,-13,0,0,0,0,0,0,0,0,0,-1,524,1037,0,0
-693,-13,-21.463,3.63123,0,0,0,0,0,0,0,-1,531,1037,-21.463,-3.63128
-686,-13,-21.143,3.68176,-0.0299227,0.0783912,0.0707083,0.1133,-0.0648312,1.1122,0.104105,0.046425,538,1037,-21.143,-3.68178
-679,-13,-20.6536,3.74634,-0.0251286,0.0652397,0.0560923,0.0920831,-0.0519719,1.12445,0.084238,0.0474,545,1037,-20.6536,-3.74638
-672,-13,-20.2363,3.86255,-0.0203478,0.0526755,0.0438907,0.0732559,-0.0409281,1.13234,0.0667991,0.0496614,552,1037,-20.2363,-3.86251
-665,-13,-20.0214,3.35522,-0.0158853,0.0412784,0.033717,0.0568979,-0.0315048,1.13698,0.0517364,0.0440257,559,1037,-20.0214,-3.3552
-658,-13,-18.473,1.98401,-0.0119823,0.0313521,0.0253034,0.0429975,-0.0236278,1.13947,0.0390042,0.0434938,566,1037,-18.4729,-1.98402
-651,-13,-18.6238,1.82288,-0.00873506,0.0230134,0.018435,0.031467,-0.0171886,1.14085,0.0284916,0.0406861,573,1037,-18.6238,-1.82285
-644,-13,-18.7043,2.13721,-0.00587448,0.0162535,0.0119988,0.0215108,-0.0111318,1.15784,0.0191611,0.02921,580,1037,-18.7044,-2.13719
-637,-13,-18.7252,2.29565,-0.00425998,0.011603,0.00571346,0.0134466,-0.00610357,1.25867,0.0115496,0.0196096,587,1037,-18.7252,-2.29562
-630,-13,-18.7644,2.26367,-0.00219756,0.00418645,0.00219391,0.00486771,-0.00287881,1.26972,0.00452132,0.0127387,594,1037,-18.7644,-2.26371
-623,-13,-18.7579,2.31091,5.49872e-05,0.00195748,-0.00143199,0.00272538,-0.000712918,-1.07857,0.00209538,0.0116912,601,1037,-18.7578,-2.31093
-616,-13,-18.7375,2.33679,0.00032733,0.000679473,-0.00357986,0.00408759,-0.00308079,-0.80997,0.00415225,0.0110978,608,1037,-18.7375,-2.33674
-609,-13,-18.7005,2.34082,0.000421947,0.000286429,-0.00568067,0.00603526,-0.00532688,-0.779434,0.00656418,0.0156241,615,1037,-18.7005,-2.3408
-602,-13,-18.7278,2.3717,0.000225338,-0.000171098,-0.00670851,0.00673855,-0.00668431,-0.770629,0.00774972,0.0115321,622,1037,-18.7278,-2.37171
-595,-13,-18.766,2.39246,0,0,0,0,0,0,0,-1,629,1037,-18.766,-2.39246
-588,-13,-18.5461,1.67407,0,0,0,0,0,0,0,-1,636,1037,-18.5462,-1.67404
-581,-13,-18.6142,0.90918,0,0,0,0,0,0,0,-1,643,1037,-18.6142,-0.909149
-574,-13,-18.7845,1.42297,-0.000115573,-0.00126753,-0.00597839,0.00531452,-0.00669763,-0.737375,0.00695052,0.0342432,650,1037,-18.7845,-1.42292
-567,-13,-18.7777,1.52869,-0.000745492,-0.00112841,-0.00460093,0.00366796,-0.00554186,-0.764604,0.00535385,0.0412425,657,1037,-18.7777,-1.5287
-560,-13,-18.5299,1.33826,-0.00160375,-0.000806445,-0.00249071,0.00131731,-0.00372751,-0.864754,0.0030214,0.0431941,664,1037,-18.5299,-1.33829
-553,-13,-18.5617,1.02124,-0.00268539,-0.000333058,0.000415578,-0.000261797,-0.00275665,1.40098,0.00175702,0.0417064,671,1037,-18.5617,-1.02118
-546,-13,-18.8211,0.953247,-0.00401637,0.000230739,0.00420951,0.002822,-0.00660763,1.01901,0.00558853,0.0386834,678,1037,-18.8211,-0.953187
-539,-13,-18.8891,1.22693,-0.00537798,0.000851664,0.00816569,0.00647644,-0.0110028,0.967606,0.0102038,0.0420961,685,1037,-18.8891,-1.22695
-532,-13,-18.9265,1.22913,-0.00684309,0.00175875,0.010689,0.00897965,-0.014064,0.976672,0.0134118,0.0431471,692,1037,-18.9265,-1.22917
-525,-13,0,0,0,0,0,0,0,0,0,-1,699,1037,0,0
-518,-13,0,0,0,0,0,0,0,0,0,-1,706,1037,0,0
-511,-13,0,0,0,0,0,0,0,0,0,-1,713,1037,0,0
-504,-13,0,0,0,0,0,0,0,0,0,-1,720,1037,0,0
-497,-13,0,0,0,0,0,0,0,0,0,-1,727,1037,0,0
-490,-13,0,0,0,0,0,0,0,0,0,-1,734,1037,0,0
-483,-13,0,0,0,0,0,0,0,0,0,-1,741,1037,0,0
-476,-13,0,0,0,0,0,0,0,0,0,-1,748,1037,0,0
-469,-13,0,0,0,0,0,0,0,0,0,-1,755,1037,0,0
-462,-13,0,0,0,0,0,0,0,0,0,-1,762,1037,0,0
-455,-13,0,0,0,0,0,0,0,0,0,-1,769,1037,0,0
-448,-13,0,0,0,0,0,0,0,0,0,-1,776,1037,0,0
-441,-13,0,0,0,0,0,0,0,0,0,-1,783,1037,0,0
-434,-13,0,0,0,0,0,0,0,0,0,-1,790,1037,0,0
-427,-13,0,0,0,0,0,0,0,0,0,-1,797,1037,0,0
-420,-13,0,0,0,0,0,0,0,0,0,-1,804,1037,0,0
-413,-13,0,0,0,0,0,0,0,0,0,-1,811,1037,0,0
-406,-13,0,0,0,0,0,0,0,0,0,-1,818,1037,0,0
-399,-13,0,0,0,0,0,0,0,0,0,-1,825,1037,0,0
-392,-13,0,0,0,0,0,0,0,0,0,-1,832,1037,0,0
-385,-13,0,0,0,0,0,0,0,0,0,-1,839,1037,0,0
-378,-13,0,0,0,0,0,0,0,0,0,-1,846,1037,0,0
-371,-13,0,0,0,0,0,0,0,0,0,-1,853,1037,0,0
-364,-13,0,0,0,0,0,0,0,0,0,-1,860,1037,0,0
-357,-13,0,0,0,0,0,0,0,0,0,-1,867,1037,0,0
-350,-13,0,0,0,0,0,0,0,0,0,-1,874,1037,0,0
-343,-13,0,0,0,0,0,0,0,0,0,-1,881,1037,0,0
-336,-13,0,0,0,0,0,0,0,0,0,-1,888,1037,0,0
-329,-13,0,0,0,0,0,0,0,0,0,-1,895,1037,0,0
-322,-13,0,0,0,0,0,0,0,0,0,-1,902,1037,0,0
-315,-13,0,0,0,0,0,0,0,0,0,-1,909,1037,0,0
-308,-13,0,0,0,0,0,0,0,0,0,-1,916,1037,0,0
-301,-13,0,0,0,0,0,0,0,0,0,-1,923,1037,0,0
-294,-13,0,0,0,0,0,0,0,0,0,-1,930,1037,0,0
-287,-13,0,0,0,0,0,0,0,0,0,-1,937,1037,0,0
-280,-13,0,0,0,0,0,0,0,0,0,-1,944,1037,0,0
-273,-13,0,0,0,0,0,0,0,0,0,-1,951,1037,0,0
-266,-13,0,0,0,0,0,0,0,0,0,-1,958,1037,0,0
-259,-13,0,0,0,0,0,0,0,0,0,-1,965,1037,0,0
-252,-13,0,0,0,0,0,0,0,0,0,-1,972,1037,0,0
-245,-13,0,0,0,0,0,0,0,0,0,-1,979,1037,0,0
-238,-13,0,0,0,0,0,0,0,0,0,-1,986,1037,0,0
-231,-13,0,0,0,0,0,0,0,0,0,-1,993,1037,0,0
-224,-13,0,0,0,0,0,0,0,0,0,-1,1000,1037,0,0
-217,-13,0,0,0,0,0,0,0,0,0,-1,1007,1037,0,0
-210,-13,0,0,0,0,0,0,0,0,0,-1,1014,1037,0,0
-203,-13,0,0,0,0,0,0,0,0,0,-1,1021,1037,0,0
-196,-13,0,0,0,0,0,0,0,0,0,-1,1028,1037,0,0
-189,-13,0,0,0,0,0,0,0,0,0,-1,1035,1037,0,0
-182,-13,0,0,0,0,0,0,0,0,0,-1,1042,1037,0,0
-175,-13,0,0,0,0,0,0,0,0,0,-1,1049,1037,0,0
-168,-13,0,0,0,0,0,0,0,0,0,-1,1056,1037,0,0
-161,-13,0,0,0,0,0,0,0,0,0,-1,1063,1037,0,0
-154,-13,0,0,0,0,0,0,0,0,0,-1,1070,1037,0,0
-147,-13,0,0,0,0,0,0,0,0,0,-1,1077,1037,0,0
-140,-13,0,0,0,0,0,0,0,0,0,-1,1084,1037,0,0
-133,-13,0,0,0,0,0,0,0,0,0,-1,1091,1037,0,0
-126,-13,0,0,0,0,0,0,0,0,0,-1,1098,1037,0,0
-119,-13,0,0,0,0,0,0,0,0,0,-1,1105,1037,0,0
-112,-13,0,0,0,0,0,0,0,0,0,-1,1112,1037,0,0
-105,-13,0,0,0,0,0,0,0,0,0,-1,1119,1037,0,0
-98,-13,0,0,0,0,0,0,0,0,0,-1,1126,1037,0,0
-91,-13,0,0,0,0,0,0,0,0,0,-1,1133,1037,0,0
-84,-13,0,0,0,0,0,0,0,0,0,-1,1140,1037,0,0
-77,-13,0,0,0,0,0,0,0,0,0,-1,1147,1037,0,0
-70,-13,0,0,0,0,0,0,0,0,0,-1,1154,1037,0,0
-63,-13,0,0,0,0,0,0,0,0,0,-1,1161,1037,0,0
-56,-13,0,0,0,0,0,0,0,0,0,-1,1168,1037,0,0
-49,-13,0,0,0,0,0,0,0,0,0,-1,1175,1037,0,0
-42,-13,0,0,0,0,0,0,0,0,0,-1,1182,1037,0,0
-35,-13,0,0,0,0,0,0,0,0,0,-1,1189,1037,0,0
-28,-13,0,0,0,0,0,0,0,0,0,-1,1196,1037,0,0
-21,-13,0,0,0,0,0,0,0,0,0,-1,1203,1037,0,0
-14,-13,0,0,0,0,0,0,0,0,0,-1,1210,1037,0,0
-7,-13,0,0,0,0,0,0,0,0,0,-1,1217,1037,0,0
0,-13,0,0,0,0,0,0,0,0,0,-1,1224,1037,0,0
7,-13,0,0,0,0,0,0,0,0,0,-1,1231,1037,0,0
14,-13,0,0,0,0,0,0,0,0,0,-1,1238,1037,0,0
21,-13,0,0,0,0,0,0,0,0,0,-1,1245,1037,0,0
28,-13,0,0,0,0,0,0,0,0,0,-1,1252,1037,0,0
35,-13,0,0,0,0,0,0,0,0,0,-1,1259,1037,0,0
42,-13,0,0,0,0,0,0,0,0,0,-1,1266,1037,0,0
49,-13,0,0,0,0,0,0,0,0,0,-1,1273,1037,0,0
56,-13,0,0,0,0,0,0,0,0,0,-1,1280,1037,0,0
63,-13,0,0,0,0,0,0,0,0,0,-1,1287,1037,0,0
70,-13,0,0,0,0,0,0,0,0,0,-1,1294,1037,0,0
77,-13,0,0,0,0,0,0,0,0,0,-1,1301,1037,0,0
84,-13,0,0,0,0,0,0,0,0,0,-1,1308,1037,0,0
91,-13,0,0,0,0,0,0,0,0,0,-1,1315,1037,0,0
98,-13,0,0,0,0,0,0,0,0,0,-1,1322,1037,0,0
105,-13,0,0,0,0,0,0,0,0,0,-1,1329,1037,0,0
112,-13,0,0,0,0,0,0,0,0,0,-1,1336,1037,0,0
119,-13,0,0,0,0,0,0,0,0,0,-1,1343,1037,0,0
126,-13,0,0,0,0,0,0,0,0,0,-1,1350,1037,0,0
133,-13,0,0,0,0,0,0,0,0,0,-1,1357,1037,0,0
140,-13,0,0,0,0,0,0,0,0,0,-1,1364,1037,0,0
147,-13,0,0,0,0,0,0,0,0,0,-1,1371,1037,0,0
154,-13,0,0,0,0,0,0,0,0,0,-1,1378,1037,0,0
161,-13,0,0,0,0,0,0,0,0,0,-1,1385,1037,0,0
168,-13,0,0,0,0,0,0,0,0,0,-1,1392,1037,0,0
175,-13,0,0,0,0,0,0,0,0,0,-1,1399,1037,0,0
182,-13,0,0,0,0,0,0,0,0,0,-1,1406,1037,0,0
189,-13,0,0,0,0,0,0,0,0,0,-1,1413,1037,0,0
196,-13,0,0,0,0,0,0,0,0,0,-1,1420,1037,0,0
203,-13,0,0,0,0,0,0,0,0,0,-1,1427,1037,0,0
210,-13,0,0,0,0,0,0,0,0,0,-1,1434,1037,0,0
217,-13,0,0,0,0,0,0,0,0,0,-1,1441,1037,0,0
224,-13,0,0,0,0,0,0,0,0,0,-1,1448,1037,0,0
231,-13,0,0,0,0,0,0,0,0,0,-1,1455,1037,0,0
238,-13,0,0,0,0,0,0,0,0,0,-1,1462,1037,0,0
245,-13,0,0,0,0,0,0,0,0,0,-1,1469,1037,0,0
252,-13,0,0,0,0,0,0,0,0,0,-1,1476,1037,0,0
259,-13,0,0,0,0,0,0,0,0,0,-1,1483,1037,0,0
266,-13,0,0,0,0,0,0,0,0,0,-1,1490,1037,0,0
273,-13,0,0,0,0,0,0,0,0,0,-1,1497,1037,0,0
280,-13,0,0,0,0,0,0,0,0,0,-1,1504,1037,0,0
287,-13,0,0,0,0,0,0,0,0,0,-1,1511,1037,0,0
294,-13,0,0,0,0,0,0,0,0,0,-1,1518,1037,0,0
301,-13,0,0,0,0,0,0,0,0,0,-1,1525,1037,0,0
308,-13,0,0,0,0,0,0,0,0,0,-1,1532,1037,0,0
315,-13,0,0,0,0,0,0,0,0,0,-1,1539,1037,0,0
322,-13,0,0,0,0,0,0,0,0,0,-1,1546,1037,0,0
329,-13,0,0,0,0,0,0,0,0,0,-1,1553,1037,0,0
336,-13,0,0,0,0,0,0,0,0,0,-1,1560,1037,0,0
343,-13,0,0,0,0,0,0,0,0,0,-1,1567,1037,0,0
350,-13,0,0,0,0,0,0,0,0,0,-1,1574,1037,0,0
357,-13,0,0,0,0,0,0,0,0,0,-1,1581,1037,0,0
364,-13,0,0,0,0,0,0,0,0,0,-1,1588,1037,0,0
371,-13,0,0,0,0,0,0,0,0,0,-1,1595,1037,0,0
378,-13,0,0,0,0,0,0,0,0,0,-1,1602,1037,0,0
385,-13,0,0,0,0,0,0,0,0,0,-1,1609,1037,0,0
392,-13,0,0,0,0,0,0,0,0,0,-1,1616,1037,0,0
399,-13,0,0,0,0,0,0,0,0,0,-1,1623,1037,0,0
406,-13,0,0,0,0,0,0,0,0,0,-1,1630,1037,0,0
413,-13,0,0,0,0,0,0,0,0,0,-1,1637,1037,0,0
420,-13,0,0,0,0,0,0,0,0,0,-1,1644,1037,0,0
427,-13,0,0,0,0,0,0,0,0,0,-1,1651,1037,0,0
434,-13,0,0,0,0,0,0,0,0,0,-1,1658,1037,0,0
441,-13,0,0,0,0,0,0,0,0,0,-1,1665,1037,0,0
448,-13,0,0,0,0,0,0,0,0,0,-1,1672,1037,0,0
455,-13,0,0,0,0,0,0,0,0,0,-1,1679,1037,0,0
462,-13,0,0,0,0,0,0,0,0,0,-1,1686,1037,0,0
469,-13,0,0,0,0,0,0,0,0,0,-1,1693,1037,0,0
476,-13,0,0,0,0,0,0,0,0,0,-1,1700,1037,0,0
483,-13,0,0,0,0,0,0,0,0,0,-1,1707,1037,0,0
490,-13,0,0,0,0,0,0,0,0,0,-1,1714,1037,0,0
497,-13,0,0,0,0,0,0,0,0,0,-1,1721,1037,0,0
504,-13,0,0,0,0,0,0,0,0,0,-1,1728,1037,0,0
511,-13,0,0,0,0,0,0,0,0,0,-1,1735,1037,0,0
518,-13,0,0,0,0,0,0,0,0,0,-1,1742,1037,0,0
525,-13,0,0,0,0,0,0,0,0,0,-1,1749,1037,0,0
532,-13,0,0,0,0,0,0,0,0,0,-1,1756,1037,0,0
539,-13,0,0,0,0,0,0,0,0,0,-1,1763,1037,0,0
546,-13,0,0,0,0,0,0,0,0,0,-1,1770,1037,0,0
553,-13,0,0,0,0,0,0,0,0,0,-1,1777,1037,0,0
560,-13,0,0,0,0,0,0,0,0,0,-1,1784,1037,0,0
567,-13,0,0,0,0,0,0,0,0,0,-1,1791,1037,0,0
574,-13,0,0,0,0,0,0,0,0,0,-1,1798,1037,0,0
581,-13,0,0,0,0,0,0,0,0,0,-1,1805,1037,0,0
588,-13,0,0,0,0,0,0,0,0,0,-1,1812,1037,0,0
595,-13,0,0,0,0,0,0,0,0,0,-1,1819,1037,0,0
602,-13,0,0,0,0,0,0,0,0,0,-1,1826,1037,0,0
609,-13,0,0,0,0,0,0,0,0,0,-1,1833,1037,0,0
616,-13,0,0,0,0,0,0,0,0,0,-1,1840,1037,0,0
623,-13,0,0,0,0,0,0,0,0,0,-1,1847,1037,0,0
630,-13,0,0,0,0,0,0,0,0,0,-1,1854,1037,0,0
637,-13,0,0,0,0,0,0,0,0,0,-1,1861,1037,0,0
644,-13,0,0,0,0,0,0,0,0,0,-1,1868,1037,0,0
651,-13,27.1217,2.90076,-0.00353624,-0.000678044,0.00618523,0.00424104,-0.00845532,0.898931,0.00746364,0.0381403,1875,1037,27.1217,-2.90072
658,-13,26.9359,3.36829,-0.00226146,-0.000647939,0.00413868,0.00276188,-0.00567128,0.881657,0.00496453,0.0451185,1882,1037,26.9359,-3.36832
665,-13,27.1251,3.45361,-0.00140408,-0.000558926,0.00265163,0.00170359,-0.0036666,0.864416,0.00316877,0.0442154,1889,1037,27.1251,-3.45363
672,-13,27.2183,3.07776,-0.000798525,-0.000374729,0.00213612,0.00155997,-0.00273323,0.834835,0.00250934,0.0351019,1896,1037,27.2183,-3.0778
679,-13,27.1243,2.87219,-0.000605406,-0.000355379,0.00264768,0.00217024,-0.00313103,0.808989,0.0030774,0.036745,1903,1037,27.1243,-2.87219
686,-13,26.9579,3.00903,-0.000694042,-0.000474287,0.00349871,0.00291627,-0.0040846,0.801096,0.00406067,0.0376649,1910,1037,26.9578,-3.00908
693,-13,26.8588,3.2085,-0.000877646,-0.00065869,0.00445211,0.00368529,-0.00522162,0.797691,0.00516784,0.0374341,1917,1037,26.8588,-3.20855
700,-13,26.9011,3.10986,-0.00109546,-0.000820577,0.00528825,0.00433202,-0.00624806,0.79839,0.00614171,0.0355136,1924,1037,26.9011,-3.1099
707,-13,27.0084,3.06555,-0.00114502,-0.00088937,0.0056463,0.00463055,-0.00666494,0.796716,0.00655662,0.0292481,1931,1037,27.0085,-3.06555
714,-13,27.0037,3.22009,-0.00135643,-0.000875502,0.00584437,0.00473335,-0.00696528,0.805959,0.00679506,0.0226111,1938,1037,27.0037,-3.22008
721,-13,26.7233,3.89453,0,0,0,0,0,0,0,-1,1945,1037,26.7233,-3.89452
728,-13,26.631,4.78296,0,0,0,0,0,0,0,-1,1952,1037,26.631,-4.78299
735,-13,26.6157,4.80591,-0.00293127,5.68953e-05,0.00594407,0.00469178,-0.00756615,0.908526,0.00714168,0.0192408,1959,1037,26.6157,-4.80591
742,-13,26.604,4.82471,-0.00344053,0.000734506,0.00517701,0.00422903,-0.00693506,0.977041,0.0065084,0.012597,1966,1037,26.604,-4.82471
749,-13,26.6082,4.86328,-0.00419295,0.00151904,0.00416054,0.0037095,-0.00638342,1.08618,0.00589492,0.0176547,1973,1037,26.6082,-4.86327
756,-13,26.63,4.83655,-0.00464166,0.00298517,0.00300698,0.00402809,-0.00568459,1.23694,0.00563474,0.0142638,1980,1037,26.63,-4.83655
763,-13,26.6206,4.81165,-0.00477401,0.0050624,0.00151011,0.00528902,-0.00500063,1.42184,0.00594151,0.0155984,1987,1037,26.6206,-4.81163
770,-13,26.5669,4.80444,-0.00510721,0.00758834,-0.0002841,0.00759469,-0.00511357,-1.54843,0.00738358,0.0137204,1994,1037,26.5669,-4.80448
777,-13,26.4952,4.75537,-0.00504979,0.0107289,-0.00191011,0.0109568,-0.00527773,-1.45203,0.00956228,0.0113776,2001,1037,26.4952,-4.75538
784,-13,26.4845,4.69739,-0.00458065,0.014261,-0.00310193,0.0147585,-0.00507819,-1.41175,0.0118986,0.0254185,2008,1037,26.4845,-4.69738
791,-13,26.4438,4.60022,-0.00332485,0.0183647,-0.00444745,0.0192412,-0.00420138,-1.3762,0.0144332,0.0452764,2015,1037,26.4438,-4.60023
798,-13,27.3103,5.64209,0,0,0,0,0,0,0,-1,2022,1037,27.3102,-5.64211
805,-13,27.1631,5.84424,0.00417506,0.0295293,-0.0083888,0.0320535,0.00165082,-1.27851,0.0208406,0.0431001,2029,1037,27.1631,-5.84421
812,-13,27.4443,5.62439,0.0118989,0.037328,-0.0113454,0.0416539,0.00757298,-1.20652,0.0256208,0.0422031,2036,1037,27.4444,-5.62434
-700,-20,-13.929,-0.397095,0,0,0,0,0,0,0,-1,524,1044,-13.929,0.397074
-693,-20,-13.7409,0.10498,-0.0392625,0.0924041,0.0845276,0.133711,-0.080569,1.11625,0.124976,0.0472669,531,1044,-13.7409,-0.104943
-686,-20,-13.7189,0.461182,-0.0338049,0.0802264,0.0678369,0.111826,-0.0654043,1.13487,0.103487,0.0437893,538,1044,-13.7188,-0.461227
-679,-20,-19.8892,2.88989,-0.027999,0.0673264,0.0539041,0.0916177,-0.0522903,1.14741,0.0841132,0.0458103,545,1044,-19.8892,-2.88991
-672,-20,-19.5756,2.99988,-0.0223432,0.0548058,0.0422196,0.0734195,-0.0409569,1.15556,0.0669159,0.0473252,552,1044,-19.5756,-2.99988
-665,-20,-18.149,1.19055,0,0,0,0,0,0,0,-1,559,1044,-18.149,-1.19055
-658,-20,-18.4307,1.31921,0,0,0,0,0,0,0,-1,566,1044,-18.4307,-1.31923
-651,-20,-18.5931,1.9364,-0.0090436,0.0244381,0.0176748,0.0320418,-0.0166473,1.16453,0.0285752,0.0416104,573,1044,-18.5932,-1.93635
-644,-20,-18.6331,2.01685,-0.00592414,0.0172797,0.0112989,0.0218725,-0.010517,1.18471,0.0190793,0.0276682,580,1044,-18.6331,-2.01682
-637,-20,-18.6572,2.14966,-0.00413213,0.0121768,0.00519475,0.0136908,-0.00564621,1.28719,0.0114818,0.0164354,587,1044,-18.6572,-2.14963
-630,-20,-18.6886,2.23669,-0.00203686,0.00461742,0.00175278,0.00505088,-0.00247032,1.32836,0.00442675,0.0139821,594,1044,-18.6886,-2.23674
-623,-20,-18.6999,2.29651,0.000195391,0.00209258,-0.00173863,0.00312456,-0.000836586,-1.03513,0.00241078,0.0141876,601,1044,-18.6999,-2.29655
-616,-20,-18.6947,2.33008,0.000280412,0.000661209,-0.0038802,0.00435568,-0.00341406,-0.809913,0.00449682,0.0136445,608,1044,-18.6947,-2.33014
-609,-20,-18.6876,2.33496,0.000228212,0.000155912,-0.00603444,0.00622661,-0.00584249,-0.782403,0.00696928,0.0149557,615,1044,-18.6875,-2.33502
-602,-20,-18.6896,2.37354,-2.98427e-05,-0.000395112,-0.0070762,0.00686608,-0.00729104,-0.772496,0.00817485,0.0115472,622,1044,-18.6895,-2.37358
-595,-20,-18.6924,2.36975,1.59576e-05,-0.000891458,-0.00757186,0.00714769,-0.00802319,-0.755474,0.00876377,0.0171161,629,1044,-18.6924,-2.36969
-588,-20,-18.663,1.74036,2.32141e-05,-0.0012468,-0.00756947,0.00698427,-0.00820785,-0.743551,0.00878065,0.0229152,636,1044,-18.663,-1.74031
-581,-20,-18.7233,0.919678,0,0,0,0,0,0,0,-1,643,1044,-18.7234,-0.919687
-574,-20,-18.6963,1.39417,0,0,0,0,0,0,0,-1,650,1044,-18.6963,-1.39412
-567,-20,-18.612,1.5979,0,0,0,0,0,0,0,-1,657,1044,-18.612,-1.59787
-560,-20,-18.4643,1.24854,-0.00171461,-0.0011324,-0.00291781,0.00150879,-0.0043558,-0.835119,0.0035164,0.0480476,664,1044,-18.4643,-1.24852
-553,-20,-18.5406,0.966309,-0.00272453,-0.000716039,2.45541e-05,-0.000715739,-0.00272483,1.55857,0.00163119,0.0431148,671,1044,-18.5406,-0.966256
-546,-20,-18.6683,1.08093,-0.00401203,-0.000231213,0.00387412,0.00218912,-0.00643236,1.01238,0.00517467,0.0360288,678,1044,-18.6683,-1.08098
-539,-20,-18.7256,1.33997,-0.00537629,0.000255903,0.00780822,0.00574033,-0.0108607,0.958467,0.0097354,0.0420943,685,1044,-18.7256,-1.33996
-532,-20,-18.8319,1.49353,-0.00694552,0.000804146,0.0100163,0.00766898,-0.0138104,0.969959,0.0125689,0.0460972,692,1044,-18.8319,-1.49357
-525,-20,0,0,0,0,0,0,0,0,0,-1,699,1044,0,0
-518,-20,0,0,0,0,0,0,0,0,0,-1,706,1044,0,0
-511,-20,0,0,0,0,0,0,0,0,0,-1,713,1044,0,0
-504,-20,0,0,0,0,0,0,0,0,0,-1,720,1044,0,0
-497,-20,0,0,0,0,0,0,0,0,0,-1,727,1044,0,0
-490,-20,0,0,0,0,0,0,0,0,0,-1,734,1044,0,0
-483,-20,0,0,0,0,0,0,0,0,0,-1,741,1044,0,0
-476,-20,0,0,0,0,0,0,0,0,0,-1,748,1044,0,0
-469,-20,0,0,0,0,0,0,0,0,0,-1,755,1044,0,0
-462,-20,0,0,0,0,0,0,0,0,0,-1,762,1044,0,0
-455,-20,0,0,0,0,0,0,0,0,0,-1,769,1044,0,0
-448,-20,0,0,0,0,0,0,0,0,0,-1,776,1044,0,0
-441,-20,0,0,0,0,0,0,0,0,0,-1,783,1044,0,0
-434,-20,0,0,0,0,0,0,0,0,0,-1,790,1044,0,0
-427,-20,0,0,0,0,0,0,0,0,0,-1,797,1044,0,0
-420,-20,0,0,0,0,0,0,0,0,0,-1,804,1044,0,0
-413,-20,0,0,0,0,0,0,0,0,0,-1,811,1044,0,0
-406,-20,0,0,0,0,0,0,0,0,0,-1,818,1044,0,0
-399,-20,0,0,0,0,0,0,0,0,0,-1,825,1044,0,0
-392,-20,0,0,0,0,0,0,0,0,0,-1,832,1044,0,0
-385,-20,0,0,0,0,0,0,0,0,0,-1,839,1044,0,0
-378,-20,0,0,0,0,0,0,0,0,0,-1,846,1044,0,0
-371,-20,0,0,0,0,0,0,0,0,0,-1,853,1044,0,0
-364,-20,0,0,0,0,0,0,0,0,0,-1,860,1044,0,0
-357,-20,0,0,0,0,0,0,0,0,0,-1,867,1044,0,0
-350,-20,0,0,0,0,0,0,0,0,0,-1,874,1044,0,0
-343,-20,0,0,0,0,0,0,0,0,0,-1,881,1044,0,0
-336,-20,0,0,0,0,0,0,0,0,0,-1,888,1044,0,0
-329,-20,0,0,0,0,0,0,0,0,0,-1,895,1044,0,0
-322,-20,0,0,0,0,0,0,0,0,0,-1,902,1044,0,0
-315,-20,0,0,0,0,0,0,0,0,0,-1,909,1044,0,0
-308,-20,0,0,0,0,0,0,0,0,0,-1,916,1044,0,0
-301,-20,0,0,0,0,0,0,0,0,0,-1,923,1044,0,0
-294,-20,0,0,0,0,0,0,0,0,0,-1,930,1044,0,0
-287,-20,0,0,0,0,0,0,0,0,0,-1,937,1044,0,0
-280,-20,0,0,0,0,0,0,0,0,0,-1,944,1044,0,0
-273,-20,0,0,0,0,0,0,0,0,0,-1,951,1044,0,0
-266,-20,0,0,0,0,0,0,0,0,0,-1,958,1044,0,0
-259,-20,0,0,0,0,0,0,0,0,0,-1,965,1044,0,0
-252,-20,0,0,0,0,0,0,0,0,0,-1,972,1044,0,0
-245,-20,0,0,0,0,0,0,0,0,0,-1,979,1044,0,0
-238,-20,0,0,0,0,0,0,0,0,0,-1,986,1044,0,0
-231,-20,0,0,0,0,0,0,0,0,0,-1,993,1044,0,0
-224,-20,0,0,0,0,0,0,0,0,0,-1,1000,1044,0,0
-217,-20,0,0,0,0,0,0,0,0,0,-1,1007,1044,0,0
-210,-20,0,0,0,0,0,0,0,0,0,-1,1014,1044,0,0
-203,-20,0,0,0,0,0,0,0,0,0,-1,1021,1044,0,0
-196,-20,0,0,0,0,0,0,0,0,0,-1,1028,1044,0,0
-189,-20,0,0,0,0,0,0,0,0,0,-1,1035,1044,0,0
-182,-20,0,0,0,0,0,0,0,0,0,-1,1042,1044,0,0
-175,-20,0,0,0,0,0,0,0,0,0,-1,1049,1044,0,0
-168,-20,0,0,0,0,0,0,0,0,0,-1,1056,1044,0,0
-161,-20,0,0,0,0,0,0,0,0,0,-1,1063,1044,0,0
-154,-20,0,0,0,0,0,0,0,0,0,-1,1070,1044,0,0
-147,-20,0,0,0,0,0,0,0,0,0,-1,1077,1044,0,0
-140,-20,0,0,0,0,0,0,0,0,0,-1,1084,1044,0,0
-133,-20,0,0,0,0,0,0,0,0,0,-1,1091,1044,0,0
-126,-20,0,0,0,0,0,0,0,0,0,-1,1098,1044,0,0
-119,-20,0,0,0,0,0,0,0,0,0,-1,1105,1044,0,0
-112,-20,0,0,0,0,0,0,0,0,0,-1,1112,1044,0,0
-105,-20,0,0,0,0,0,0,0,0,0,-1,1119,1044,0,0
-98,-20,0,0,0,0,0,0,0,0,0,-1,1126,1044,0,0
-91,-20,0,0,0,0,0,0,0,0,0,-1,1133,1044,0,0
-84,-20,0,0,0,0,0,0,0,0,0,-1,1140,1044,0,0
-77,-20,0,0,0,0,0,0,0,0,0,-1,1147,1044,0,0
-70,-20,0,0,0,0,0,0,0,0,0,-1,1154,1044,0,0
-63,-20,0,0,0,0,0,0,0,0,0,-1,1161,1044,0,0
-56,-20,0,0,0,0,0,0,0,0,0,-1,1168,1044,0,0
-49,-20,0,0,0,0,0,0,0,0,0,-1,1175,1044,0,0
-42,-20,0,0,0,0,0,0,0,0,0,-1,1182,1044,0,0
-35,-20,0,0,0,0,0,0,0,0,0,-1,1189,1044,0,0
-28,-20,0,0,0,0,0,0,0,0,0,-1,1196,1044,0,0
-21,-20,0,0,0,0,0,0,0,0,0,-1,1203,1044,0,0
-14,-20,0,0,0,0,0,0,0,0,0,-1,1210,1044,0,0
-7,-20,0,0,0,0,0,0,0,0,0,-1,1217,1044,0,0
0,-20,0,0,0,0,0,0,0,0,0,-1,1224,1044,0,0
7,-20,0,0,0,0,0,0,0,0,0,-1,1231,1044,0,0
14,-20,0,0,0,0,0,0,0,0,0,-1,1238,1044,0,0
21,-20,0,0,0,0,0,0,0,0,0,-1,1245,1044,0,0
28,-20,0,0,0,0,0,0,0,0,0,-1,1252,1044,0,0
35,-20,0,0,0,0,0,0,0,0,0,-1,1259,1044,0,0
42,-20,0,0,0,0,0,0,0,0,0,-1,1266,1044,0,0
49,-20,0,0,0,0,0,0,0,0,0,-1,1273,1044,0,0
56,-20,0,0,0,0,0,0,0,0,0,-1,1280,1044,0,0
63,-20,0,0,0,0,0,0,0,0,0,-1,1287,1044,0,0
70,-20,0,0,0,0,0,0,0,0,0,-1,1294,1044,0,0
77,-20,0,0,0,0,0,0,0,0,0,-1,1301,1044,0,0
84,-20,0,0,0,0,0,0,0,0,0,-1,1308,1044,0,0
91,-20,0,0,0,0,0,0,0,0,0,-1,1315,1044,0,0
98,-20,0,0,0,0,0,0,0,0,0,-1,1322,1044,0,0
105,-20,0,0,0,0,0,0,0,0,0,-1,1329,1044,0,0
112,-20,0,0,0,0,0,0,0,0,0,-1,1336,1044,0,0
119,-20,0,0,0,0,0,0,0,0,0,-1,1343,1044,0,0
126,-20,0,0,0,0,0,0,0,0,0,-1,1350,1044,0,0
133,-20,0,0,0,0,0,0,0,0,0,-1,1357,1044,0,0
140,-20,0,0,0,0,0,0,0,0,0,-1,1364,1044,0,0
147,-20,0,0,0,0,0,0,0,0,0,-1,1371,1044,0,0
154,-20,0,0,0,0,0,0,0,0,0,-1,1378,1044,0,0
161,-20,0,0,0,0,0,0,0,0,0,-1,1385,1044,0,0
168,-20,0,0,0,0,0,0,0,0,0,-1,1392,1044,0,0
175,-20,0,0,0,0,0,0,0,0,0,-1,1399,1044,0,0
182,-20,0,0,0,0,0,0,0,0,0,-1,1406,1044,0,0
189,-20,0,0,0,0,0,0,0,0,0,-1,1413,1044,0,0
196,-20,0,0,0,0,0,0,0,0,0,-1,1420,1044,0,0
203,-20,0,0,0,0,0,0,0,0,0,-1,1427,1044,0,0
210,-20,0,0,0,0,0,0,0,0,0,-1,1434,1044,0,0
217,-20,0,0,0,0,0,0,0,0,0,-1,1441,1044,0,0
224,-20,0,0,0,0,0,0,0,0,0,-1,1448,1044,0,0
231,-20,0,0,0,0,0,0,0,0,0,-1,1455,1044,0,0
238,-20,0,0,0,0,0,0,0,0,0,-1,1462,1044,0,0
245,-20,0,0,0,0,0,0,0,0,0,-1,1469,1044,0,0
252,-20,0,0,0,0,0,0,0,0,0,-1,1476,1044,0,0
259,-20,0,0,0,0,0,0,0,0,0,-1,1483,1044,0,0
266,-20,0,0,0,0,0,0,0,0,0,-1,1490,1044,0,0
273,-20,0,0,0,0,0,0,0,0,0,-1,1497,1044,0,0
280,-20,0,0,0,0,0,0,0,0,0,-1,1504,1044,0,0
287,-20,0,0,0,0,0,0,0,0,0,-1,1511,1044,0,0
294,-20,0,0,0,0,0,0,0,0,0,-1,1518,1044,0,0
301,-20,0,0,0,0,0,0,0,0,0,-1,1525,1044,0,0
308,-20,0,0,0,0,0,0,0,0,0,-1,1532,1044,0,0
315,-20,0,0,0,0,0,0,0,0,0,-1,1539,1044,0,0
322,-20,0,0,0,0,0,0,0,0,0,-1,1546,1044,0,0
329,-20,0,0,0,0,0,0,0,0,0,-1,1553,1044,0,0
336,-20,0,0,0,0,0,0,0,0,0,-1,1560,1044,0,0
343,-20,0,0,0,0,0,0,0,0,0,-1,1567,1044,0,0
350,-20,0,0,0,0,0,0,0,0,0,-1,1574,1044,0,0
357,-20,0,0,0,0,0,0,0,0,0,-1,1581,1044,0,0
364,-20,0,0,0,0,0,0,0,0,0,-1,1588,1044,0,0
371,-20,0,0,0,0,0,0,0,0,0,-1,1595,1044,0,0
378,-20,0,0,0,0,0,0,0,0,0,-1,1602,1044,0,0
385,-20,0,0,0,0,0,0,0,0,0,-1,1609,1044,0,0
392,-20,0,0,0,0,0,0,0,0,0,-1,1616,1044,0,0
399,-20,0,0,0,0,0,0,0,0,0,-1,1623,1044,0,0
406,-20,0,0,0,0,0,0,0,0,0,-1,1630,1044,0,0
413,-20,0,0,0,0,0,0,0,0,0,-1,1637,1044,0,0
420,-20,0,0,0,0,0,0,0,0,0,-1,1644,1044,0,0
427,-20,0,0,0,0,0,0,0,0,0,-1,1651,1044,0,0
434,-20,0,0,0,0,0,0,0,0,0,-1,1658,1044,0,0
441,-20,0,0,0,0,0,0,0,0,0,-1,1665,1044,0,0
448,-20,0,0,0,0,0,0,0,0,0,-1,1672,1044,0,0
455,-20,0,0,0,0,0,0,0,0,0,-1,1679,1044,0,0
462,-20,0,0,0,0,0,0,0,0,0,-1,1686,1044,0,0
469,-20,0,0,0,0,0,0,0,0,0,-1,1693,1044,0,0
476,-20,0,0,0,0,0,0,0,0,0,-1,1700,1044,0,0
483,-20,0,0,0,0,0,0,0,0,0,-1,1707,1044,0,0
490,-20,0,0,0,0,0,0,0,0,0,-1,1714,1044,0,0
497,-20,0,0,0,0,0,0,0,0,0,-1,1721,1044,0,0
504,-20,0,0,0,0,0,0,0,0,0,-1,1728,1044,0,0
511,-20,0,0,0,0,0,0,0,0,0,-1,1735,1044,0,0
518,-20,0,0,0,0,0,0,0,0,0,-1,1742,1044,0,0
525,-20,0,0,0,0,0,0,0,0,0,-1,1749,1044,0,0
532,-20,0,0,0,0,0,0,0,0,0,-1,1756,1044,0,0
539,-20,0,0,0,0,0,0,0,0,0,-1,1763,1044,0,0
546,-20,0,0,0,0,0,0,0,0,0,-1,1770,1044,0,0
553,-20,0,0,0,0,0,0,0,0,0,-1,1777,1044,0,0
560,-20,0,0,0,0,0,0,0,0,0,-1,1784,1044,0,0
567,-20,0,0,0,0,0,0,0,0,0,-1,1791,1044,0,0
574,-20,0,0,0,0,0,0,0,0,0,-1,1798,1044,0,0
581,-20,0,0,0,0,0,0,0,0,0,-1,1805,1044,0,0
588,-20,0,0,0,0,0,0,0,0,0,-1,1812,1044,0,0
595,-20,0,0,0,0,0,0,0,0,0,-1,1819,1044,0,0
602,-20,0,0,0,0,0,0,0,0,0,-1,1826,1044,0,0
609,-20,0,0,0,0,0,0,0,0,0,-1,1833,1044,0,0
616,-20,0,0,0,0,0,0,0,0,0,-1,1840,1044,0,0
623,-20,0,0,0,0,0,0,0,0,0,-1,1847,1044,0,0
630,-20,0,0,0,0,0,0,0,0,0,-1,1854,1044,0,0
637,-20,0,0,0,0,0,0,0,0,0,-1,1861,1044,0,0
644,-20,0,0,0,0,0,0,0,0,0,-1,1868,1044,0,0
651,-20,26.9219,2.88184,-0.00363991,0.000212358,0.00695984,0.00550767,-0.00893523,0.920394,0.00841652,0.0395401,1875,1044,26.9219,-2.88188
658,-20,26.8317,2.92188,-0.0021781,0.000131661,0.00466561,0.0037832,-0.00582964,0.906725,0.00559174,0.042351,1882,1044,26.8317,-2.92194
665,-20,26.9558,3.23889,-0.00124308,0.000103629,0.00300211,0.00250698,-0.00364642,0.895719,0.00357291,0.0396244,1889,1044,26.9558,-3.23883
672,-20,27.0801,3.15698,-0.000592959,0.000175874,0.00234088,0.00216369,-0.00258078,0.866781,0.00274275,0.0250316,1896,1044,27.0801,-3.15696
679,-20,27.0404,3.01074,-0.000376841,7.91129e-05,0.00273146,0.00259209,-0.00288982,0.827033,0.00316654,0.026957,1903,1044,27.0404,-3.01078
686,-20,26.9404,3.0614,-0.000480187,-0.000147366,0.00350547,0.00319564,-0.00382319,0.809116,0.00405772,0.0371766,1910,1044,26.9404,-3.06142
693,-20,26.889,3.07556,-0.000687522,-0.000423792,0.00440594,0.00385226,-0.00496357,0.800358,0.00510328,0.0412385,1917,1044,26.889,-3.07556
700,-20,26.8857,3.13672,-0.00091603,-0.000657103,0.00521414,0.00442918,-0.00600232,0.79781,0.00604542,0.0368576,1924,1044,26.8858,-3.13666
707,-20,27.0012,3.06653,-0.000983292,-0.000782291,0.00555903,0.00467715,-0.00644273,0.794437,0.00644698,0.0285996,1931,1044,27.0012,-3.06649
714,-20,27.0232,3.17468,-0.00120528,-0.000834086,0.00576034,0.00474364,-0.00678301,0.801503,0.00668955,0.0204647,1938,1044,27.0232,-3.17473
721,-20,27.0004,3.5094,-0.0016524,-0.000759163,0.00597542,0.0047863,-0.00719787,0.8227,0.0069656,0.021774,1945,1044,27.0003,-3.50942
728,-20,26.7174,4.76685,0,0,0,0,0,0,0,-1,1952,1044,26.7174,-4.76681
735,-20,26.6216,4.82129,-0.00276027,-2.78052e-05,0.00585374,0.00461703,-0.0074051,0.900043,0.00700292,0.0177553,1959,1044,26.6216,-4.82132
742,-20,26.5759,4.83813,-0.00318137,0.000659485,0.00516756,0.00425193,-0.00677381,0.963305,0.00642097,0.0166267,1966,1044,26.576,-4.8381
749,-20,26.6038,4.83728,-0.00379377,0.00149975,0.00426842,0.00387542,-0.00616943,1.06292,0.00584959,0.0180798,1973,1044,26.6038,-4.83732
756,-20,26.6174,4.80518,-0.00397031,0.00289423,0.00321106,0.00416211,-0.00523818,1.19474,0.0054391,0.0138884,1980,1044,26.6174,-4.80513
763,-20,26.5753,4.78528,-0.00370652,0.00491521,0.00182211,0.00528448,-0.00407579,1.37085,0.00541915,0.0173557,1987,1044,26.5753,-4.78526
770,-20,26.5382,4.82397,-0.00353207,0.00738468,0.000182998,0.00738774,-0.00353514,1.55404,0.00643576,0.0155172,1994,1044,26.5382,-4.82402
777,-20,26.4755,4.75977,-0.0027858,0.0104717,-0.00129203,0.0105964,-0.00291054,-1.47455,0.0082083,0.0113608,2001,1044,26.4755,-4.75981
784,-20,26.5015,4.74109,-0.00143583,0.0138954,-0.00227749,0.0142266,-0.001767,-1.4264,0.0101249,0.0162314,2008,1044,26.5014,-4.7411
791,-20,26.8501,5.34692,0,0,0,0,0,0,0,-1,2015,1044,26.8501,-5.3469
798,-20,27.0549,5.2981,0.00470311,0.0224873,-0.00471098,0.0236582,0.00353227,-1.3272,0.0147365,0.0452378,2022,1044,27.055,-5.29814
805,-20,27.1433,5.30872,0.0108488,0.0282454,-0.00650894,0.0304111,0.00868311,-1.24959,0.0180883,0.0417518,2029,1044,27.1434,-5.30872
812,-20,27.3699,5.16797,0.0199622,0.0354309,-0.00893994,0.0395179,0.0158753,-1.14201,0.0229621,0.0424604,2036,1044,27.3699,-5.16797
-700,-27,-14.0854,-0.203125,-0.05068,0.100974,0.103736,0.153642,-0.103348,1.101,0.149317,0.0483926,524,1051,-14.0854,0.203141
-693,-27,-14.5703,0.146118,-0.0455542,0.091795,0.0837081,0.131394,-0.0851535,1.12893,0.125971,0.0466948,531,1051,-14.5703,-0.14609
-686,-27,-14.8491,0.393799,-0.0391043,0.079831,0.0673582,0.110216,-0.0694895,1.14703,0.104637,0.044957,538,1051,-14.8491,-0.393795
-679,-27,-19.1019,1.97571,-0.0323094,0.0671994,0.0536085,0.0905844,-0.0556944,1.15946,0.0852511,0.0445998,545,1051,-19.1019,-1.97575
-672,-27,-18.2526,1.04822,0,0,0,0,0,0,0,-1,552,1051,-18.2526,-1.04826
-665,-27,-18.2704,1.10706,-0.0197226,0.0434901,0.0322684,0.0570525,-0.033285,1.17292,0.0527546,0.0448693,559,1051,-18.2704,-1.10708
-658,-27,-18.3808,1.37573,-0.0145486,0.0333484,0.0241688,0.0434243,-0.0246246,1.17581,0.0397847,0.0433368,566,1051,-18.3808,-1.37574
-651,-27,-18.5009,2.03687,-0.0103339,0.0246695,0.0175495,0.0319528,-0.0176172,1.17741,0.0290154,0.0355149,573,1051,-18.5009,-2.03687
-644,-27,-18.5681,2.05554,-0.00677476,0.0173893,0.01109,0.0217074,-0.0110929,1.19949,0.0192649,0.0169613,580,1051,-18.5681,-2.05551
-637,-27,-18.5903,2.08252,-0.00462862,0.0120106,0.00507713,0.0134374,-0.00605545,1.29683,0.0115201,0.0131931,587,1051,-18.5903,-2.08256
-630,-27,-18.6222,2.20776,-0.00234866,0.00481049,0.00157776,0.00514278,-0.00268095,1.36322,0.00459097,0.0175406,594,1051,-18.6222,-2.20771
-623,-27,-18.6143,2.29456,5.76756e-06,0.00214526,-0.00179717,0.00316697,-0.00101594,-1.05385,0.0025192,0.0167604,601,1051,-18.6143,-2.29451
-616,-27,-18.5884,2.34424,7.97677e-05,0.000674483,-0.00396943,0.00435768,-0.00360343,-0.822784,0.00460322,0.0144414,608,1051,-18.5884,-2.34422
-609,-27,-18.6269,2.36646,1.78683e-05,0.000132417,-0.00617926,0.00625467,-0.00610438,-0.790032,0.00713568,0.0141572,615,1051,-18.6269,-2.36642
-602,-27,-18.6173,2.44885,-0.000219004,-0.000392034,-0.00727382,0.00696882,-0.00757986,-0.779451,0.00840215,0.0119848,622,1051,-18.6173,-2.44881
-595,-27,-18.6343,2.49805,-0.000176668,-0.000831738,-0.00777526,0.00727795,-0.00828636,-0.764348,0.00899234,0.0113757,629,1051,-18.6343,-2.49809
-588,-27,-18.6809,1.87024,-0.000154861,-0.00112085,-0.00777171,0.00714885,-0.00842456,-0.754364,0.00900136,0.0198092,636,1051,-18.6809,-1.87027
-581,-27,-18.7239,0.966553,0,0,0,0,0,0,0,-1,643,1051,-18.724,-0.96657
-574,-27,-18.672,1.27124,-0.000470812,-0.00134537,-0.00665397,0.00576023,-0.00757642,-0.752587,0.00772368,0.0384266,650,1051,-18.672,-1.27124
-567,-27,-18.5541,1.07031,-0.000957632,-0.0012297,-0.005281,0.00418909,-0.00637642,-0.772521,0.00614342,0.049479,657,1051,-18.5541,-1.07033
-560,-27,-18.4986,0.750122,0,0,0,0,0,0,0,-1,664,1051,-18.4986,-0.750147
-553,-27,-18.6102,0.99231,-0.00254846,-0.000638551,-0.000104244,-0.000632878,-0.00255413,-1.51643,0.00153589,0.0442735,671,1051,-18.6102,-0.992337
-546,-27,-18.6945,1.19019,-0.00373577,-0.000316841,0.0038876,0.00222054,-0.00627315,0.992535,0.0050865,0.0396821,678,1051,-18.6945,-1.1902
-539,-27,-18.6808,1.35303,-0.00503486,-0.000126583,0.00796656,0.00575528,-0.0109167,0.934813,0.00977814,0.0422043,685,1051,-18.6808,-1.35302
-532,-27,-18.6995,1.54102,-0.00661529,-0.000177434,0.0101722,0.00727299,-0.0140657,0.938635,0.0125263,0.0431039,692,1051,-18.6995,-1.54106
-525,-27,0,0,0,0,0,0,0,0,0,-1,699,1051,0,0
-518,-27,0,0,0,0,0,0,0,0,0,-1,706,1051,0,0
-511,-27,0,0,0,0,0,0,0,0,0,-1,713,1051,0,0
-504,-27,0,0,0,0,0,0,0,0,0,-1,720,1051,0,0
-497,-27,0,0,0,0,0,0,0,0,0,-1,727,1051,0,0
-490,-27,0,0,0,0,0,0,0,0,0,-1,734,1051,0,0
-483,-27,0,0,0,0,0,0,0,0,0,-1,741,1051,0,0
-476,-27,0,0,0,0,0,0,0,0,0,-1,748,1051,0,0
-469,-27,0,0,0,0,0,0,0,0,0,-1,755,1051,0,0
-462,-27,0,0,0,0,0,0,0,0,0,-1,762,1051,0,0
-455,-27,0,0,0,0,0,0,0,0,0,-1,769,1051,0,0
-448,-27,0,0,0,0,0,0,0,0,0,-1,776,1051,0,0
-441,-27,0,0,0,0,0,0,0,0,0,-1,783,1051,0,0
-434,-27,0,0,0,0,0,0,0,0,0,-1,790,1051,0,0
-427,-27,0,0,0,0,0,0,0,0,0,-1,797,1051,0,0
-420,-27,0,0,0,0,0,0,0,0,0,-1,804,1051,0,0
-413,-27,0,0,0,0,0,0,0,0,0,-1,811,1051,0,0
-406,-27,0,0,0,0,0,0,0,0,0,-1,818,1051,0,0
-399,-27,0,0,0,0,0,0,0,0,0,-1,825,1051,0,0
-392,-27,0,0,0,0,0,0,0,0,0,-1,832,1051,0,0
-385,-27,0,0,0,0,0,0,0,0,0,-1,839,1051,0,0
-378,-27,0,0,0,0,0,0,0,0,0,-1,846,1051,0,0
-371,-27,0,0,0,0,0,0,0,0,0,-1,853,1051,0,0
-364,-27,0,0,0,0,0,0,0,0,0,-1,860,1051,0,0
-357,-27,0,0,0,0,0,0,0,0,0,-1,867,1051,0,0
-350,-27,0,0,0,0,0,0,0,0,0,-1,874,1051,0,0
-343,-27,0,0,0,0,0,0,0,0,0,-1,881,1051,0,0
-336,-27,0,0,0,0,0,0,0,0,0,-1,888,1051,0,0
-329,-27,0,0,0,0,0,0,0,0,0,-1,895,1051,0,0
-322,-27,0,0,0,0,0,0,0,0,0,-1,902,1051,0,0
-315,-27,0,0,0,0,0,0,0,0,0,-1,909,1051,0,0
-308,-27,0,0,0,0,0,0,0,0,0,-1,916,1051,0,0
-301,-27,0,0,0,0,0,0,0,0,0,-1,923,1051,0,0
-294,-27,0,0,0,0,0,0,0,0,0,-1,930,1051,0,0
-287,-27,0,0,0,0,0,0,0,0,0,-1,937,1051,0,0
-280,-27,0,0,0,0,0,0,0,0,0,-1,944,1051,0,0
-273,-27,0,0,0,0,0,0,0,0,0,-1,951,1051,0,0
-266,-27,0,0,0,0,0,0,0,0,0,-1,958,1051,0,0
-259,-27,0,0,0,0,0,0,0,0,0,-1,965,1051,0,0
-252,-27,0,0,0,0,0,0,0,0,0,-1,972,1051,0,0
-245,-27,0,0,0,0,0,0,0,0,0,-1,979,1051,0,0
-238,-27,0,0,0,0,0,0,0,0,0,-1,986,1051,0,0
-231,-27,0,0,0,0,0,0,0,0,0,-1,993,1051,0,0
-224,-27,0,0,0,0,0,0,0,0,0,-1,1000,1051,0,0
-217,-27,0,0,0,0,0,0,0,0,0,-1,1007,1051,0,0
-210,-27,0,0,0,0,0,0,0,0,0,-1,1014,1051,0,0
-203,-27,0,0,0,0,0,0,0,0,0,-1,1021,1051,0,0
-196,-27,0,0,0,0,0,0,0,0,0,-1,1028,1051,0,0
-189,-27,0,0,0,0,0,0,0,0,0,-1,1035,1051,0,0
-182,-27,0,0,0,0,0,0,0,0,0,-1,1042,1051,0,0
-175,-27,0,0,0,0,0,0,0,0,0,-1,1049,1051,0,0
-168,-27,0,0,0,0,0,0,0,0,0,-1,1056,1051,0,0
-161,-27,0,0,0,0,0,0,0,0,0,-1,1063,1051,0,0
-154,-27,0,0,0,0,0,0,0,0,0,-1,1070,1051,0,0
-147,-27,0,0,0,0,0,0,0,0,0,-1,1077,1051,0,0
-140,-27,0,0,0,0,0,0,0,0,0,-1,1084,1051,0,0
-133,-27,0,0,0,0,0,0,0,0,0,-1,1091,1051,0,0
-126,-27,0,0,0,0,0,0,0,0,0,-1,1098,1051,0,0
-119,-27,0,0,0,0,0,0,0,0,0,-1,1105,1051,0,0
-112,-27,0,0,0,0,0,0,0,0,0,-1,1112,1051,0,0
-105,-27,0,0,0,0,0,0,0,0,0,-1,1119,1051,0,0
-98,-27,0,0,0,0,0,0,0,0,0,-1,1126,1051,0,0
-91,-27,0,0,0,0,0,0,0,0,0,-1,1133,1051,0,0
-84,-27,0,0,0,0,0,0,0,0,0,-1,1140,1051,0,0
-77,-27,0,0,0,0,0,0,0,0,0,-1,1147,1051,0,0
-70,-27,0,0,0,0,0,0,0,0,0,-1,1154,1051,0,0
-63,-27,0,0,0,0,0,0,0,0,0,-1,1161,1051,0,0
-56,-27,0,0,0,0,0,0,0,0,0,-1,1168,1051,0,0
-49,-27,0,0,0,0,0,0,0,0,0,-1,1175,1051,0,0
-42,-27,0,0,0,0,0,0,0,0,0,-1,1182,1051,0,0
-35,-27,0,0,0,0,0,0,0,0,0,-1,1189,1051,0,0
-28,-27,0,0,0,0,0,0,0,0,0,-1,1196,1051,0,0
-21,-27,0,0,0,0,0,0,0,0,0,-1,1203,1051,0,0
-14,-27,0,0,0,0,0,0,0,0,0,-1,1210,1051,0,0
-7,-27,0,0,0,0,0,0,0,0,0,-1,1217,1051,0,0
0,-27,0,0,0,0,0,0,0,0,0,-1,1224,1051,0,0
7,-27,0,0,0,0,0,0,0,0,0,-1,1231,1051,0,0
14,-27,0,0,0,0,0,0,0,0,0,-1,1238,1051,0,0
21,-27,0,0,0,0,0,0,0,0,0,-1,1245,1051,0,0
28,-27,0,0,0,0,0,0,0,0,0,-1,1252,1051,0,0
35,-27,0,0,0,0,0,0,0,0,0,-1,1259,1051,0,0
42,-27,0,0,0,0,0,0,0,0,0,-1,1266,1051,0,0
49,-27,0,0,0,0,0,0,0,0,0,-1,1273,1051,0,0
56,-27,0,0,0,0,0,0,0,0,0,-1,1280,1051,0,0
63,-27,0,0,0,0,0,0,0,0,0,-1,1287,1051,0,0
70,-27,0,0,0,0,0,0,0,0,0,-1,1294,1051,0,0
77,-27,0,0,0,0,0,0,0,0,0,-1,1301,1051,0,0
84,-27,0,0,0,0,0,0,0,0,0,-1,1308,1051,0,0
91,-27,0,0,0,0,0,0,0,0,0,-1,1315,1051,0,0
98,-27,0,0,0,0,0,0,0,0,0,-1,1322,1051,0,0
105,-27,0,0,0,0,0,0,0,0,0,-1,1329,1051,0,0
112,-27,0,0,0,0,0,0,0,0,0,-1,1336,1051,0,0
119,-27,0,0,0,0,0,0,0,0,0,-1,1343,1051,0,0
126,-27,0,0,0,0,0,0,0,0,0,-1,1350,1051,0,0
133,-27,0,0,0,0,0,0,0,0,0,-1,1357,1051,0,0
140,-27,0,0,0,0,0,0,0,0,0,-1,1364,1051,0,0
147,-27,0,0,0,0,0,0,0,0,0,-1,1371,1051,0,0
154,-27,0,0,0,0,0,0,0,0,0,-1,1378,1051,0,0
161,-27,0,0,0,0,0,0,0,0,0,-1,1385,1051,0,0
168,-27,0,0,0,0,0,0,0,0,0,-1,1392,1051,0,0
175,-27,0,0,0,0,0,0,0,0,0,-1,1399,1051,0,0
182,-27,0,0,0,0,0,0,0,0,0,-1,1406,1051,0,0
189,-27,0,0,0,0,0,0,0,0,0,-1,1413,1051,0,0
196,-27,0,0,0,0,0,0,0,0,0,-1,1420,1051,0,0
203,-27,0,0,0,0,0,0,0,0,0,-1,1427,1051,0,0
210,-27,0,0,0,0,0,0,0,0,0,-1,1434,1051,0,0
217,-27,0,0,0,0,0,0,0,0,0,-1,1441,1051,0,0
224,-27,0,0,0,0,0,0,0,0,0,-1,1448,1051,0,0
231,-27,0,0,0,0,0,0,0,0,0,-1,1455,1051,0,0
238,-27,0,0,0,0,0,0,0,0,0,-1,1462,1051,0,0
245,-27,0,0,0,0,0,0,0,0,0,-1,1469,1051,0,0
252,-27,0,0,0,0,0,0,0,0,0,-1,1476,1051,0,0
259,-27,0,0,0,0,0,0,0,0,0,-1,1483,1051,0,0
266,-27,0,0,0,0,0,0,0,0,0,-1,1490,1051,0,0
273,-27,0,0,0,0,0,0,0,0,0,-1,1497,1051,0,0
280,-27,0,0,0,0,0,0,0,0,0,-1,1504,1051,0,0
287,-27,0,0,0,0,0,0,0,0,0,-1,1511,1051,0,0
294,-27,0,0,0,0,0,0,0,0,0,-1,1518,1051,0,0
301,-27,0,0,0,0,0,0,0,0,0,-1,1525,1051,0,0
308,-27,0,0,0,0,0,0,0,0,0,-1,1532,1051,0,0
315,-27,0,0,0,0,0,0,0,0,0,-1,1539,1051,0,0
322,-27,0,0,0,0,0,0,0,0,0,-1,1546,1051,0,0
329,-27,0,0,0,0,0,0,0,0,0,-1,1553,1051,0,0
336,-27,0,0,0,0,0,0,0,0,0,-1,1560,1051,0,0
343,-27,0,0,0,0,0,0,0,0,0,-1,1567,1051,0,0
350,-27,0,0,0,0,0,0,0,0,0,-1,1574,1051,0,0
357,-27,0,0,0,0,0,0,0,0,0,-1,1581,1051,0,0
364,-27,0,0,0,0,0,0,0,0,0,-1,1588,1051,0,0
371,-27,0,0,0,0,0,0,0,0,0,-1,1595,1051,0,0
378,-27,0,0,0,0,0,0,0,0,0,-1,1602,1051,0,0
385,-27,0,0,0,0,0,0,0,0,0,-1,1609,1051,0,0
392,-27,0,0,0,0,0,0,0,0,0,-1,1616,1051,0,0
399,-27,0,0,0,0,0,0,0,0,0,-1,1623,1051,0,0
406,-27,0,0,0,0,0,0,0,0,0,-1,1630,1051,0,0
413,-27,0,0,0,0,0,0,0,0,0,-1,1637,1051,0,0
420,-27,0,0,0,0,0,0,0,0,0,-1,1644,1051,0,0
427,-27,0,0,0,0,0,0,0,0,0,-1,1651,1051,0,0
434,-27,0,0,0,0,0,0,0,0,0,-1,1658,1051,0,0
441,-27,0,0,0,0,0,0,0,0,0,-1,1665,1051,0,0
448,-27,0,0,0,0,0,0,0,0,0,-1,1672,1051,0,0
455,-27,0,0,0,0,0,0,0,0,0,-1,1679,1051,0,0
462,-27,0,0,0,0,0,0,0,0,0,-1,1686,1051,0,0
469,-27,0,0,0,0,0,0,0,0,0,-1,1693,1051,0,0
476,-27,0,0,0,0,0,0,0,0,0,-1,1700,1051,0,0
483,-27,0,0,0,0,0,0,0,0,0,-1,1707,1051,0,0
490,-27,0,0,0,0,0,0,0,0,0,-1,1714,1051,0,0
497,-27,0,0,0,0,0,0,0,0,0,-1,1721,1051,0,0
504,-27,0,0,0,0,0,0,0,0,0,-1,1728,1051,0,0
511,-27,0,0,0,0,0,0,0,0,0,-1,1735,1051,0,0
518,-27,0,0,0,0,0,0,0,0,0,-1,1742,1051,0,0
525,-27,0,0,0,0,0,0,0,0,0,-1,1749,1051,0,0
532,-27,0,0,0,0,0,0,0,0,0,-1,1756,1051,0,0
539,-27,0,0,0,0,0,0,0,0,0,-1,1763,1051,0,0
546,-27,0,0,0,0,0,0,0,0,0,-1,1770,1051,0,0
553,-27,0,0,0,0,0,0,0,0,0,-1,1777,1051,0,0
560,-27,0,0,0,0,0,0,0,0,0,-1,1784,1051,0,0
567,-27,0,0,0,0,0,0,0,0,0,-1,1791,1051,0,0
574,-27,0,0,0,0,0,0,0,0,0,-1,1798,1051,0,0
581,-27,0,0,0,0,0,0,0,0,0,-1,1805,1051,0,0
588,-27,0,0,0,0,0,0,0,0,0,-1,1812,1051,0,0
595,-27,0,0,0,0,0,0,0,0,0,-1,1819,1051,0,0
602,-27,0,0,0,0,0,0,0,0,0,-1,1826,1051,0,0
609,-27,0,0,0,0,0,0,0,0,0,-1,1833,1051,0,0
616,-27,0,0,0,0,0,0,0,0,0,-1,1840,1051,0,0
623,-27,0,0,0,0,0,0,0,0,0,-1,1847,1051,0,0
630,-27,0,0,0,0,0,0,0,0,0,-1,1854,1051,0,0
637,-27,0,0,0,0,0,0,0,0,0,-1,1861,1051,0,0
644,-27,0,0,0,0,0,0,0,0,0,-1,1868,1051,0,0
651,-27,27.0291,2.98975,-0.00381342,0.000740194,0.00744017,0.00624413,-0.00931735,0.933881,0.00904264,0.0401104,1875,1051,27.0291,-2.98974
658,-27,26.8673,3.11719,-0.0021814,0.000561648,0.00493333,0.00431056,-0.00593031,0.92098,0.00593717,0.0394102,1882,1051,26.8673,-3.11718
665,-27,26.8655,3.14001,-0.00117456,0.000431161,0.00312929,0.00285894,-0.00360234,0.910971,0.00373865,0.0378664,1889,1051,26.8654,-3.13996
672,-27,26.8967,3.12671,-0.000476169,0.000408218,0.00235445,0.00236164,-0.00242959,0.878223,0.00276632,0.0299026,1896,1051,26.8967,-3.12674
679,-27,26.9155,3.04895,-0.000239184,0.000208328,0.00264539,0.00263941,-0.00267026,0.827589,0.00306556,0.0272343,1903,1051,26.9156,-3.04896
686,-27,26.9781,2.96008,-0.00036345,-9.829e-05,0.00335751,0.00312926,-0.003591,0.805132,0.00388299,0.0397392,1910,1051,26.9782,-2.96008
693,-27,26.9126,3.01819,-0.000595244,-0.000433488,0.0042105,0.00369691,-0.00472564,0.795001,0.00487484,0.0433861,1917,1051,26.9126,-3.01819
700,-27,26.9344,3.06091,-0.00083978,-0.000703864,0.00498135,0.00421,-0.00575364,0.792219,0.00577547,0.0343761,1924,1051,26.9345,-3.06092
707,-27,26.9697,3.07056,-0.000931959,-0.000848115,0.00531677,0.0044269,-0.00620697,0.78934,0.00616807,0.0205894,1931,1051,26.9697,-3.07056
714,-27,26.9962,3.15955,-0.00116734,-0.000924116,0.00552507,0.00448068,-0.00657214,0.796402,0.00641931,0.015287,1938,1051,26.9962,-3.1596
721,-27,27.0094,3.46765,-0.0016094,-0.000881737,0.00574373,0.00450968,-0.00700081,0.817028,0.00669726,0.0200118,1945,1051,27.0094,-3.4676
728,-27,26.7139,4.8147,0,0,0,0,0,0,0,-1,1952,1051,26.7139,-4.8147
735,-27,26.5743,4.85938,-0.00266877,-0.000168509,0.00563103,0.00434949,-0.00718677,0.89463,0.00672727,0.0186536,1959,1051,26.5744,-4.8594
742,-27,26.5317,4.86743,-0.00299528,0.000508663,0.00505494,0.00410663,-0.00659324,0.952213,0.00623293,0.0171617,1966,1051,26.5317,-4.86742
749,-27,26.578,4.83435,-0.00346172,0.0012865,0.00434979,0.0038679,-0.00604312,1.0352,0.00576789,0.0124651,1973,1051,26.578,-4.8344
756,-27,26.5536,4.79626,-0.00340062,0.00250074,0.00354371,0.00416139,-0.00506127,1.13257,0.00533315,0.0115095,1980,1051,26.5536,-4.79632
763,-27,26.5168,4.74292,-0.0028122,0.004335,0.00238056,0.00505531,-0.00353251,1.27697,0.00498409,0.0131283,1987,1051,26.5169,-4.74288
770,-27,26.4851,4.71069,-0.00222424,0.00653942,0.0011018,0.00667582,-0.00236064,1.44763,0.00541186,0.0141379,1994,1051,26.4851,-4.71069
777,-27,26.4574,4.70667,-0.000938306,0.00931511,6.32076e-05,0.0093155,-0.000938695,1.56463,0.00654571,0.0142419,2001,1051,26.4574,-4.70671
784,-27,26.4377,4.76404,0.00109438,0.0123472,-0.000406516,0.0123619,0.00107972,-1.53473,0.00790595,0.0227263,2008,1051,26.4378,-4.76402
791,-27,26.6693,4.99585,0.0041386,0.0158165,-0.000876881,0.015882,0.00407312,-1.49626,0.00952512,0.0419605,2015,1051,26.6693,-4.99581
798,-27,26.7864,5.09949,0.00888167,0.0200196,-0.00156564,0.0202355,0.00866578,-1.43377,0.011723,0.0466361,2022,1051,26.7864,-5.09943
805,-27,26.8267,4.99634,0.0160235,0.0252782,-0.00263842,0.0259775,0.0153242,-1.31169,0.0150787,0.0452289,2029,1051,26.8267,-4.99639
812,-27,26.8689,4.98816,0,0,0,0,0,0,0,-1,2036,1051,26.8689,-4.98822
-700,-34,-15.1853,-0.0699463,-0.0551877,0.0989724,0.103408,0.150868,-0.107083,1.10567,0.149641,0.0436872,524,1058,-15.1853,0.0699541
-693,-34,-15.6262,0.0385742,-0.0491762,0.0900376,0.0839362,0.129474,-0.0886125,1.13157,0.126647,0.0448567,531,1058,-15.6261,-0.0386126
-686,-34,-15.9097,0.171875,-0.0421328,0.0785675,0.0678076,0.108992,-0.0725571,1.14904,0.105519,0.0475179,538,1058,-15.9097,-0.171824
-679,-34,-18.3905,1.09399,-0.03487,0.0664458,0.0541173,0.0899155,-0.0583397,1.16159,0.0862399,0.0422273,545,1058,-18.3905,-1.09405
-672,-34,-18.6263,0.815308,0,0,0,0,0,0,0,-1,552,1058,-18.6263,-0.815255
-665,-34,-18.496,1.14648,-0.0214917,0.0434608,0.0326752,0.0570538,-0.0350847,1.17657,0.0536978,0.0430472,559,1058,-18.496,-1.1465
-658,-34,-18.383,1.56665,-0.0159476,0.0334931,0.0244919,0.0435714,-0.0260259,1.18042,0.0406054,0.0417769,566,1058,-18.383,-1.56667
-651,-34,-18.3596,1.95349,-0.0113882,0.0248846,0.0177964,0.0321577,-0.0186613,1.18283,0.0296833,0.0290094,573,1058,-18.3596,-1.95355
-644,-34,-18.5314,2.01685,-0.00754643,0.0175333,0.0111921,0.0218015,-0.0118146,1.20646,0.0196917,0.013834,580,1058,-18.5314,-2.01679
-637,-34,-18.5563,2.073,-0.00515507,0.0119587,0.00521382,0.013422,-0.00661838,1.29718,0.0117905,0.0142558,587,1058,-18.5563,-2.07302
-630,-34,-18.5611,2.19641,-0.00279682,0.00495978,0.00145843,0.00522493,-0.00306197,1.39095,0.00483847,0.0150205,594,1058,-18.5611,-2.19644
-623,-34,-18.5383,2.28137,-0.000402833,0.00211388,-0.00191614,0.00314791,-0.00143686,-1.07594,0.00270777,0.0123799,601,1058,-18.5383,-2.28132
-616,-34,-18.4809,2.37573,-0.000353339,0.000600512,-0.00418222,0.00433291,-0.00408574,-0.842171,0.00486121,0.0185243,608,1058,-18.4809,-2.37568
-609,-34,-18.4936,2.42712,-0.000448336,-3.05432e-06,-0.0064617,0.00623984,-0.00669123,-0.802619,0.00746727,0.0186315,615,1058,-18.4936,-2.42711
-602,-34,-18.5463,2.47302,-0.000690988,-0.000551672,-0.00762557,0.00700456,-0.00824722,-0.789965,0.00881535,0.0143854,622,1058,-18.5463,-2.47297
-595,-34,-18.5956,2.71997,0,0,0,0,0,0,0,-1,629,1058,-18.5956,-2.72003
-588,-34,-18.6554,1.89319,0,0,0,0,0,0,0,-1,636,1058,-18.6554,-1.89321
-581,-34,-18.7152,1.06641,0,0,0,0,0,0,0,-1,643,1058,-18.7152,-1.0664
-574,-34,-18.6717,1.26074,-0.000898031,-0.00137525,-0.00695331,0.00582076,-0.00809404,-0.768247,0.00806937,0.0383353,650,1058,-18.6717,-1.2607
-567,-34,-18.5151,1.12598,-0.00126874,-0.00121418,-0.00549325,0.00425185,-0.00673478,-0.787881,0.0063969,0.0437556,657,1058,-18.5151,-1.126
-560,-34,-18.5385,0.874878,-0.0017925,-0.000918753,-0.00319343,0.00186755,-0.00457881,-0.853378,0.00382996,0.0455017,664,1058,-18.5384,-0.874901
-553,-34,-18.6028,1.00305,-0.00247595,-0.000542486,5.00766e-05,-0.00054119,-0.00247725,1.54492,0.00150392,0.0448145,671,1058,-18.6029,-1.00302
-546,-34,-18.6948,1.21033,-0.00339245,-0.000189756,0.00435316,0.00284725,-0.00642945,0.961646,0.0054874,0.0456315,678,1058,-18.6948,-1.21037
-539,-34,-18.7437,1.3551,-0.00445005,-8.56208e-06,0.00878837,0.0068353,-0.0112939,0.909153,0.0105719,0.0445457,685,1058,-18.7437,-1.35513
-532,-34,-18.7372,1.40308,-0.0059616,-0.000290946,0.0112481,0.00847364,-0.0147262,0.908862,0.0135556,0.0420764,692,1058,-18.7372,-1.40307
-525,-34,0,0,0,0,0,0,0,0,0,-1,699,1058,0,0
-518,-34,0,0,0,0,0,0,0,0,0,-1,706,1058,0,0
-511,-34,0,0,0,0,0,0,0,0,0,-1,713,1058,0,0
-504,-34,0,0,0,0,0,0,0,0,0,-1,720,1058,0,0
-497,-34,0,0,0,0,0,0,0,0,0,-1,727,1058,0,0
-490,-34,0,0,0,0,0,0,0,0,0,-1,734,1058,0,0
-483,-34,0,0,0,0,0,0,0,0,0,-1,741,1058,0,0
-476,-34,0,0,0,0,0,0,0,0,0,-1,748,1058,0,0
-469,-34,0,0,0,0,0,0,0,0,0,-1,755,1058,0,0
-462,-34,0,0,0,0,0,0,0,0,0,-1,762,1058,0,0
-455,-34,0,0,0,0,0,0,0,0,0,-1,769,1058,0,0
-448,-34,0,0,0,0,0,0,0,0,0,-1,776,1058,0,0
-441,-34,0,0,0,0,0,0,0,0,0,-1,783,1058,0,0
-434,-34,0,0,0,0,0,0,0,0,0,-1,790,1058,0,0
-427,-34,0,0,0,0,0,0,0,0,0,-1,797,1058,0,0
-420,-34,0,0,0,0,0,0,0,0,0,-1,804,1058,0,0
-413,-34,0,0,0,0,0,0,0,0,0,-1,811,1058,0,0
-406,-34,0,0,0,0,0,0,0,0,0,-1,818,1058,0,0
-399,-34,0,0,0,0,0,0,0,0,0,-1,825,1058,0,0
-392,-34,0,0,0,0,0,0,0,0,0,-1,832,1058,0,0
-385,-34,0,0,0,0,0,0,0,0,0,-1,839,1058,0,0
-378,-34,0,0,0,0,0,0,0,0,0,-1,846,1058,0,0
-371,-34,0,0,0,0,0,0,0,0,0,-1,853,1058,0,0
-364,-34,0,0,0,0,0,0,0,0,0,-1,860,1058,0,0
-357,-34,0,0,0,0,0,0,0,0,0,-1,867,1058,0,0
-350,-34,0,0,0,0,0,0,0,0,0,-1,874,1058,0,0
-343,-34,0,0,0,0,0,0,0,0,0,-1,881,1058,0,0
-336,-34,0,0,0,0,0,0,0,0,0,-1,888,1058,0,0
-329,-34,0,0,0,0,0,0,0,0,0,-1,895,1058,0,0
-322,-34,0,0,0,0,0,0,0,0,0,-1,902,1058,0,0
-315,-34,0,0,0,0,0,0,0,0,0,-1,909,1058,0,0
-308,-34,0,0,0,0,0,0,0,0,0,-1,916,1058,0,0
-301,-34,0,0,0,0,0,0,0,0,0,-1,923,1058,0,0
-294,-34,0,0,0,0,0,0,0,0,0,-1,930,1058,0,0
-287,-34,0,0,0,0,0,0,0,0,0,-1,937,1058,0,0
-280,-34,0,0,0,0,0,0,0,0,0,-1,944,1058,0,0
-273,-34,0,0,0,0,0,0,0,0,0,-1,951,1058,0,0
-266,-34,0,0,0,0,0,0,0,0,0,-1,958,1058,0,0
-259,-34,0,0,0,0,0,0,0,0,0,-1,965,1058,0,0
-252,-34,0,0,0,0,0,0,0,0,0,-1,972,1058,0,0
-245,-34,0,0,0,0,0,0,0,0,0,-1,979,1058,0,0
-238,-34,0,0,0,0,0,0,0,0,0,-1,986,1058,0,0
-231,-34,0,0,0,0,0,0,0,0,0,-1,993,1058,0,0
-224,-34,0,0,0,0,0,0,0,0,0,-1,1000,1058,0,0
-217,-34,0,0,0,0,0,0,0,0,0,-1,1007,1058,0,0
-210,-34,0,0,0,0,0,0,0,0,0,-1,1014,1058,0,0
-203,-34,0,0,0,0,0,0,0,0,0,-1,1021,1058,0,0
-196,-34,0,0,0,0,0,0,0,0,0,-1,1028,1058,0,0
-189,-34,0,0,0,0,0,0,0,0,0,-1,1035,1058,0,0
-182,-34,0,0,0,0,0,0,0,0,0,-1,1042,1058,0,0
-175,-34,0,0,0,0,0,0,0,0,0,-1,1049,1058,0,0
-168,-34,0,0,0,0,0,0,0,0,0,-1,1056,1058,0,0
-161,-34,0,0,0,0,0,0,0,0,0,-1,1063,1058,0,0
-154,-34,0,0,0,0,0,0,0,0,0,-1,1070,1058,0,0
-147,-34,0,0,0,0,0,0,0,0,0,-1,1077,1058,0,0
-140,-34,0,0,0,0,0,0,0,0,0,-1,1084,1058,0,0
-133,-34,0,0,0,0,0,0,0,0,0,-1,1091,1058,0,0
-126,-34,0,0,0,0,0,0,0,0,0,-1,1098,1058,0,0
-119,-34,0,0,0,0,0,0,0,0,0,-1,1105,1058,0,0
-112,-34,0,0,0,0,0,0,0,0,0,-1,1112,1058,0,0
-105,-34,0,0,0,0,0,0,0,0,0,-1,1119,1058,0,0
-98,-34,0,0,0,0,0,0,0,0,0,-1,1126,1058,0,0
-91,-34,0,0,0,0,0,0,0,0,0,-1,1133,1058,0,0
-84,-34,0,0,0,0,0,0,0,0,0,-1,1140,1058,0,0
-77,-34,0,0,0,0,0,0,0,0,0,-1,1147,1058,0,0
-70,-34,0,0,0,0,0,0,0,0,0,-1,1154,1058,0,0
-63,-34,0,0,0,0,0,0,0,0,0,-1,1161,1058,0,0
-56,-34,0,0,0,0,0,0,0,0,0,-1,1168,1058,0,0
-49,-34,0,0,0,0,0,0,0,0,0,-1,1175,1058,0,0
-42,-34,0,0,0,0,0,0,0,0,0,-1,1182,1058,0,0
-35,-34,0,0,0,0,0,0,0,0,0,-1,1189,1058,0,0
-28,-34,0,0,0,0,0,0,0,0,0,-1,1196,1058,0,0
-21,-34,0,0,0,0,0,0,0,0,0,-1,1203,1058,0,0
-14,-34,0,0,0,0,0,0,0,0,0,-1,1210,1058,0,0
-7,-34,0,0,0,0,0,0,0,0,0,-1,1217,1058,0,0
0,-34,0,0,0,0,0,0,0,0,0,-1,1224,1058,0,0
7,-34,0,0,0,0,0,0,0,0,0,-1,1231,1058,0,0
14,-34,0,0,0,0,0,0,0,0,0,-1,1238,1058,0,0
21,-34,0,0,0,0,0,0,0,0,0,-1,1245,1058,0,0
28,-34,0,0,0,0,0,0,0,0,0,-1,1252,1058,0,0
35,-34,0,0,0,0,0,0,0,0,0,-1,1259,1058,0,0
42,-34,0,0,0,0,0,0,0,0,0,-1,1266,1058,0,0
49,-34,0,0,0,0,0,0,0,0,0,-1,1273,1058,0,0
56,-34,0,0,0,0,0,0,0,0,0,-1,1280,1058,0,0
63,-34,0,0,0,0,0,0,0,0,0,-1,1287,1058,0,0
70,-34,0,0,0,0,0,0,0,0,0,-1,1294,1058,0,0
77,-34,0,0,0,0,0,0,0,0,0,-1,1301,1058,0,0
84,-34,0,0,0,0,0,0,0,0,0,-1,1308,1058,0,0
91,-34,0,0,0,0,0,0,0,0,0,-1,1315,1058,0,0
98,-34,0,0,0,0,0,0,0,0,0,-1,1322,1058,0,0
105,-34,0,0,0,0,0,0,0,0,0,-1,1329,1058,0,0
112,-34,0,0,0,0,0,0,0,0,0,-1,1336,1058,0,0
119,-34,0,0,0,0,0,0,0,0,0,-1,1343,1058,0,0
126,-34,0,0,0,0,0,0,0,0,0,-1,1350,1058,0,0
133,-34,0,0,0,0,0,0,0,0,0,-1,1357,1058,0,0
140,-34,0,0,0,0,0,0,0,0,0,-1,1364,1058,0,0
147,-34,0,0,0,0,0,0,0,0,0,-1,1371,1058,0,0
154,-34,0,0,0,0,0,0,0,0,0,-1,1378,1058,0,0
161,-34,0,0,0,0,0,0,0,0,0,-1,1385,1058,0,0
168,-34,0,0,0,0,0,0,0,0,0,-1,1392,1058,0,0
175,-34,0,0,0,0,0,0,0,0,0,-1,1399,1058,0,0
182,-34,0,0,0,0,0,0,0,0,0,-1,1406,1058,0,0
189,-34,0,0,0,0,0,0,0,0,0,-1,1413,1058,0,0
196,-34,0,0,0,0,0,0,0,0,0,-1,1420,1058,0,0
203,-34,0,0,0,0,0,0,0,0,0,-1,1427,1058,0,0
210,-34,0,0,0,0,0,0,0,0,0,-1,1434,1058,0,0
217,-34,0,0,0,0,0,0,0,0,0,-1,1441,1058,0,0
224,-34,0,0,0,0,0,0,0,0,0,-1,1448,1058,0,0
231,-34,0,0,0,0,0,0,0,0,0,-1,1455,1058,0,0
238,-34,0,0,0,0,0,0,0,0,0,-1,1462,1058,0,0
245,-34,0,0,0,0,0,0,0,0,0,-1,1469,1058,0,0
252,-34,0,0,0,0,0,0,0,0,0,-1,1476,1058,0,0
259,-34,0,0,0,0,0,0,0,0,0,-1,1483,1058,0,0
266,-34,0,0,0,0,0,0,0,0,0,-1,1490,1058,0,0
273,-34,0,0,0,0,0,0,0,0,0,-1,1497,1058,0,0
280,-34,0,0,0,0,0,0,0,0,0,-1,1504,1058,0,0
287,-34,0,0,0,0,0,0,0,0,0,-1,1511,1058,0,0
294,-34,0,0,0,0,0,0,0,0,0,-1,1518,1058,0,0
301,-34,0,0,0,0,0,0,0,0,0,-1,1525,1058,0,0
308,-34,0,0,0,0,0,0,0,0,0,-1,1532,1058,0,0
315,-34,0,0,0,0,0,0,0,0,0,-1,1539,1058,0,0
322,-34,0,0,0,0,0,0,0,0,0,-1,1546,1058,0,0
329,-34,0,0,0,0,0,0,0,0,0,-1,1553,1058,0,0
336,-34,0,0,0,0,0,0,0,0,0,-1,1560,1058,0,0
343,-34,0,0,0,0,0,0,0,0,0,-1,1567,1058,0,0
350,-34,0,0,0,0,0,0,0,0,0,-1,1574,1058,0,0
357,-34,0,0,0,0,0,0,0,0,0,-1,1581,1058,0,0
364,-34,0,0,0,0,0,0,0,0,0,-1,1588,1058,0,0
371,-34,0,0,0,0,0,0,0,0,0,-1,1595,1058,0,0
378,-34,0,0,0,0,0,0,0,0,0,-1,1602,1058,0,0
385,-34,0,0,0,0,0,0,0,0,0,-1,1609,1058,0,0
392,-34,0,0,0,0,0,0,0,0,0,-1,1616,1058,0,0
399,-34,0,0,0,0,0,0,0,0,0,-1,1623,1058,0,0
406,-34,0,0,0,0,0,0,0,0,0,-1,1630,1058,0,0
413,-34,0,0,0,0,0,0,0,0,0,-1,1637,1058,0,0
420,-34,0,0,0,0,0,0,0,0,0,-1,1644,1058,0,0
427,-34,0,0,0,0,0,0,0,0,0,-1,1651,1058,0,0
434,-34,0,0,0,0,0,0,0,0,0,-1,1658,1058,0,0
441,-34,0,0,0,0,0,0,0,0,0,-1,1665,1058,0,0
448,-34,0,0,0,0,0,0,0,0,0,-1,1672,1058,0,0
455,-34,0,0,0,0,0,0,0,0,0,-1,1679,1058,0,0
462,-34,0,0,0,0,0,0,0,0,0,-1,1686,1058,0,0
469,-34,0,0,0,0,0,0,0,0,0,-1,1693,1058,0,0
476,-34,0,0,0,0,0,0,0,0,0,-1,1700,1058,0,0
483,-34,0,0,0,0,0,0,0,0,0,-1,1707,1058,0,0
490,-34,0,0,0,0,0,0,0,0,0,-1,1714,1058,0,0
497,-34,0,0,0,0,0,0,0,0,0,-1,1721,1058,0,0
504,-34,0,0,0,0,0,0,0,0,0,-1,1728,1058,0,0
511,-34,0,0,0,0,0,0,0,0,0,-1,1735,1058,0,0
518,-34,0,0,0,0,0,0,0,0,0,-1,1742,1058,0,0
525,-34,0,0,0,0,0,0,0,0,0,-1,1749,1058,0,0
532,-34,0,0,0,0,0,0,0,0,0,-1,1756,1058,0,0
539,-34,0,0,0,0,0,0,0,0,0,-1,1763,1058,0,0
546,-34,0,0,0,0,0,0,0,0,0,-1,1770,1058,0,0
553,-34,0,0,0,0,0,0,0,0,0,-1,1777,1058,0,0
560,-34,0,0,0,0,0,0,0,0,0,-1,1784,1058,0,0
567,-34,0,0,0,0,0,0,0,0,0,-1,1791,1058,0,0
574,-34,0,0,0,0,0,0,0,0,0,-1,1798,1058,0,0
581,-34,0,0,0,0,0,0,0,0,0,-1,1805,1058,0,0
588,-34,0,0,0,0,0,0,0,0,0,-1,1812,1058,0,0
595,-34,0,0,0,0,0,0,0,0,0,-1,1819,1058,0,0
602,-34,0,0,0,0,0,0,0,0,0,-1,1826,1058,0,0
609,-34,0,0,0,0,0,0,0,0,0,-1,1833,1058,0,0
616,-34,0,0,0,0,0,0,0,0,0,-1,1840,1058,0,0
623,-34,0,0,0,0,0,0,0,0,0,-1,1847,1058,0,0
630,-34,0,0,0,0,0,0,0,0,0,-1,1854,1058,0,0
637,-34,0,0,0,0,0,0,0,0,0,-1,1861,1058,0,0
644,-34,0,0,0,0,0,0,0,0,0,-1,1868,1058,0,0
651,-34,27.0236,3.24329,-0.00364429,0.00155272,0.00754513,0.00693427,-0.00902583,0.951235,0.0092409,0.0394274,1875,1058,27.0235,-3.24335
658,-34,26.9551,3.41284,-0.00197372,0.00130882,0.00498178,0.00491273,-0.00557763,0.944526,0.00606066,0.0424749,1882,1058,26.955,-3.4129
665,-34,26.8632,3.42114,-0.000972725,0.00105752,0.00314735,0.0033494,-0.0032646,0.941398,0.0038187,0.0426912,1889,1058,26.8632,-3.4211
672,-34,26.8593,3.18848,-0.000281225,0.000841278,0.00235534,0.00270131,-0.00214126,0.902362,0.00280209,0.0384207,1896,1058,26.8593,-3.18847
679,-34,27.0476,3.07092,-5.32718e-05,0.000417834,0.00256839,0.00276145,-0.00239689,0.831126,0.00298065,0.0350594,1903,1058,27.0476,-3.0709
686,-34,27.1018,2.95898,-0.000212087,-7.38752e-05,0.00320945,0.00306721,-0.00335317,0.796162,0.00370804,0.0414987,1910,1058,27.1018,-2.95898
693,-34,26.9495,2.97156,-0.000468258,-0.000545027,0.00399639,0.00348993,-0.00450321,0.780596,0.00462719,0.0439667,1917,1058,26.9495,-2.97162
700,-34,26.9884,2.98914,-0.000732602,-0.000891789,0.00470577,0.00389424,-0.00551863,0.776942,0.00546144,0.0349641,1924,1058,26.9884,-2.98914
707,-34,26.9139,3.06274,-0.000851836,-0.00109951,0.00502188,0.00404774,-0.00599908,0.773071,0.00583689,0.0198694,1931,1058,26.914,-3.06271
714,-34,26.9424,3.15125,-0.00109358,-0.00122907,0.00522538,0.00406449,-0.00638714,0.778916,0.00608372,0.01314,1938,1058,26.9424,-3.15125
721,-34,27.0032,3.54065,-0.00152492,-0.00122054,0.00542842,0.00405782,-0.00680328,0.799412,0.00633709,0.0246795,1945,1058,27.0031,-3.54063
728,-34,26.7834,4.45447,0,0,0,0,0,0,0,-1,1952,1058,26.7835,-4.45451
735,-34,26.5028,4.89893,-0.00256957,-0.000508291,0.00531968,0.00387967,-0.00695753,0.881083,0.00634042,0.0143611,1959,1058,26.5029,-4.89896
742,-34,26.4811,4.8656,-0.00284362,0.000188456,0.00487428,0.00377702,-0.00643218,0.93617,0.00596036,0.0142135,1966,1058,26.4811,-4.86566
749,-34,26.5054,4.83154,-0.00321674,0.000938708,0.0043688,0.00369869,-0.00597672,1.00736,0.00563747,0.0125876,1973,1058,26.5054,-4.83153
756,-34,26.5114,4.78784,-0.00303244,0.00202265,0.00377764,0.00404033,-0.00505012,1.08023,0.00525916,0.00957753,1980,1058,26.5113,-4.78782
763,-34,26.4906,4.72668,-0.00231399,0.00359252,0.00280075,0.00470939,-0.00343085,1.19135,0.00471905,0.0100388,1987,1058,26.4906,-4.72663
770,-34,26.4585,4.68079,-0.0015558,0.00547125,0.00182113,0.00591517,-0.00199972,1.3317,0.00475239,0.0149905,1994,1058,26.4585,-4.68073
777,-34,26.4159,4.6571,-4.99143e-05,0.00778471,0.00113904,0.00794695,-0.000212155,1.42931,0.00537008,0.0161794,2001,1058,26.4159,-4.65713
784,-34,26.358,4.63416,0.00224395,0.0101648,0.00100785,0.0102911,0.00211773,1.4462,0.00627506,0.0326301,2008,1058,26.3581,-4.63415
791,-34,26.4639,5.01636,0.00553194,0.0128257,0.000880237,0.0129304,0.00542722,1.45238,0.0074974,0.0469172,2015,1058,26.4639,-5.01631
798,-34,26.4526,4.9574,0.0105106,0.0159876,0.000534447,0.0160393,0.010459,1.47443,0.00940199,0.0490396,2022,1058,26.4527,-4.95735
805,-34,26.4297,4.83838,0,0,0,0,0,0,0,-1,2029,1058,26.4296,-4.83834
812,-34,26.5586,5.36523,0,0,0,0,0,0,0,-1,2036,1058,26.5585,-5.36521
-700,-41,-16.5458,-0.244507,-0.0555395,0.097944,0.0989699,0.146439,-0.104035,1.11518,0.145301,0.0440877,524,1065,-16.5458,0.244554
-693,-41,-16.7169,0.0584717,-0.0496551,0.0891257,0.0803863,0.125928,-0.0864579,1.14146,0.123325,0.0416717,531,1065,-16.7169,-0.0584164
-686,-41,-17.0007,0.220337,-0.0427926,0.0779202,0.0649355,0.106218,-0.0710901,1.15983,0.103036,0.0430119,538,1065,-17.0007,-0.220299
-679,-41,-18.0267,0.457031,-0.0356674,0.0660843,0.0517949,0.0878105,-0.0573936,1.17362,0.0844445,0.0436217,545,1065,-18.0267,-0.457074
-672,-41,-18.3713,0.619629,-0.0287497,0.0544377,0.0406263,0.0709864,-0.0452984,1.18398,0.0676809,0.0416423,552,1065,-18.3714,-0.619633
-665,-41,-18.5477,0.915405,-0.0223389,0.0434896,0.0312016,0.0559283,-0.0347776,1.19145,0.0528415,0.0403732,559,1065,-18.5477,-0.915425
-658,-41,-18.3235,1.38318,-0.0167024,0.0335914,0.0233579,0.0427659,-0.0258769,1.19653,0.0400288,0.0376239,566,1065,-18.3235,-1.38317
-651,-41,-18.2411,1.81213,-0.0119991,0.0249902,0.0169613,0.0315901,-0.018599,1.19971,0.0292985,0.0285232,573,1065,-18.2411,-1.81219
-644,-41,-18.4606,1.98291,-0.0080346,0.0175644,0.0105286,0.0213383,-0.0118085,1.22662,0.0193992,0.0145345,580,1065,-18.4606,-1.98294
-637,-41,-18.4752,2.06506,-0.00551025,0.011753,0.00502054,0.0131069,-0.00686415,1.30739,0.0117166,0.0152945,587,1065,-18.4751,-2.06503
-630,-41,-18.4767,2.16541,-0.00316223,0.00500728,0.00128231,0.00520383,-0.00335878,1.4187,0.00498173,0.0124014,594,1065,-18.4768,-2.16545
-623,-41,-18.4558,2.25183,-0.000788674,0.00197352,-0.00193351,0.00296853,-0.00178368,-1.09553,0.00277197,0.0104186,601,1065,-18.4558,-2.25184
-616,-41,-18.4291,2.34692,-0.000753794,0.00040756,-0.00422304,0.00408965,-0.00443589,-0.853721,0.00492358,0.0135134,608,1065,-18.429,-2.34697
-609,-41,-18.3983,2.43774,-0.000874447,-0.000316987,-0.00651233,0.00592258,-0.00711401,-0.806785,0.00753715,0.0202327,615,1065,-18.3983,-2.43775
-602,-41,-18.4624,2.49927,-0.00111657,-0.000961915,-0.0077128,0.00667394,-0.00875243,-0.790411,0.00893333,0.0122478,622,1065,-18.4624,-2.49925
-595,-41,-18.514,2.55933,0,0,0,0,0,0,0,-1,629,1065,-18.514,-2.55933
-588,-41,-18.608,1.85181,-0.00111623,-0.00170175,-0.00823589,0.0068321,-0.00965008,-0.767632,0.00956224,0.0247219,636,1065,-18.608,-1.85183
-581,-41,-18.6877,1.1488,-0.00114952,-0.00181967,-0.00780191,0.00632451,-0.0092937,-0.763938,0.00907133,0.0346734,643,1065,-18.6877,-1.14876
-574,-41,-18.751,1.052,-0.00129814,-0.00181483,-0.00703533,0.00548359,-0.00859655,-0.767046,0.00819513,0.0380032,650,1065,-18.751,-1.05194
-567,-41,-18.5937,1.20239,-0.00156746,-0.00164015,-0.00554257,0.00393889,-0.0071465,-0.78212,0.00648885,0.0428862,657,1065,-18.5937,-1.20239
-560,-41,-18.4993,0.9552,-0.00194046,-0.00130748,-0.0031842,0.00157592,-0.00482386,-0.834933,0.00385027,0.0442409,664,1065,-18.4993,-0.955237
-553,-41,-18.5717,0.971802,-0.00241783,-0.000853664,0.000149116,-0.000839575,-0.00243192,1.47659,0.00142631,0.0435131,671,1065,-18.5717,-0.971854
-546,-41,-18.6689,1.17102,-0.00307446,-0.000354584,0.00457234,0.00305577,-0.00648481,0.929945,0.0056256,0.0429282,678,1065,-18.669,-1.17102
-539,-41,-18.7134,1.31934,-0.00389536,3.70673e-05,0.00915285,0.00743252,-0.0112908,0.8912,0.0108862,0.0423589,685,1065,-18.7134,-1.31929
-532,-41,-18.6816,1.27283,-0.00534001,-0.000160748,0.0116673,0.00920084,-0.0147016,0.894606,0.0139214,0.0400316,692,1065,-18.6816,-1.27277
-525,-41,0,0,0,0,0,0,0,0,0,-1,699,1065,0,0
-518,-41,0,0,0,0,0,0,0,0,0,-1,706,1065,0,0
-511,-41,0,0,0,0,0,0,0,0,0,-1,713,1065,0,0
-504,-41,0,0,0,0,0,0,0,0,0,-1,720,1065,0,0
-497,-41,0,0,0,0,0,0,0,0,0,-1,727,1065,0,0
-490,-41,0,0,0,0,0,0,0,0,0,-1,734,1065,0,0
-483,-41,0,0,0,0,0,0,0,0,0,-1,741,1065,0,0
-476,-41,0,0,0,0,0,0,0,0,0,-1,748,1065,0,0
-469,-41,0,0,0,0,0,0,0,0,0,-1,755,1065,0,0
-462,-41,0,0,0,0,0,0,0,0,0,-1,762,1065,0,0
-455,-41,0,0,0,0,0,0,0,0,0,-1,769,1065,0,0
-448,-41,0,0,0,0,0,0,0,0,0,-1,776,1065,0,0
-441,-41,0,0,0,0,0,0,0,0,0,-1,783,1065,0,0
-434,-41,0,0,0,0,0,0,0,0,0,-1,790,1065,0,0
-427,-41,0,0,0,0,0,0,0,0,0,-1,797,1065,0,0
-420,-41,0,0,0,0,0,0,0,0,0,-1,804,1065,0,0
-413,-41,0,0,0,0,0,0,0,0,0,-1,811,1065,0,0
-406,-41,0,0,0,0,0,0,0,0,0,-1,818,1065,0,0
-399,-41,0,0,0,0,0,0,0,0,0,-1,825,1065,0,0
-392,-41,0,0,0,0,0,0,0,0,0,-1,832,1065,0,0
-385,-41,0,0,0,0,0,0,0,0,0,-1,839,1065,0,0
-378,-41,0,0,0,0,0,0,0,0,0,-1,846,1065,0,0
-371,-41,0,0,0,0,0,0,0,0,0,-1,853,1065,0,0
-364,-41,0,0,0,0,0,0,0,0,0,-1,860,1065,0,0
-357,-41,0,0,0,0,0,0,0,0,0,-1,867,1065,0,0
-350,-41,0,0,0,0,0,0,0,0,0,-1,874,1065,0,0
-343,-41,0,0,0,0,0,0,0,0,0,-1,881,1065,0,0
-336,-41,0,0,0,0,0,0,0,0,0,-1,888,1065,0,0
-329,-41,0,0,0,0,0,0,0,0,0,-1,895,1065,0,0
-322,-41,0,0,0,0,0,0,0,0,0,-1,902,1065,0,0
-315,-41,0,0,0,0,0,0,0,0,0,-1,909,1065,0,0
-308,-41,0,0,0,0,0,0,0,0,0,-1,916,1065,0,0
-301,-41,0,0,0,0,0,0,0,0,0,-1,923,1065,0,0
-294,-41,0,0,0,0,0,0,0,0,0,-1,930,1065,0,0
-287,-41,0,0,0,0,0,0,0,0,0,-1,937,1065,0,0
-280,-41,0,0,0,0,0,0,0,0,0,-1,944,1065,0,0
-273,-41,0,0,0,0,0,0,0,0,0,-1,951,1065,0,0
-266,-41,0,0,0,0,0,0,0,0,0,-1,958,1065,0,0
-259,-41,0,0,0,0,0,0,0,0,0,-1,965,1065,0,0
-252,-41,0,0,0,0,0,0,0,0,0,-1,972,1065,0,0
-245,-41,0,0,0,0,0,0,0,0,0,-1,979,1065,0,0
-238,-41,0,0,0,0,0,0,0,0,0,-1,986,1065,0,0
-231,-41,0,0,0,0,0,0,0,0,0,-1,993,1065,0,0
-224,-41,0,0,0,0,0,0,0,0,0,-1,1000,1065,0,0
-217,-41,0,0,0,0,0,0,0,0,0,-1,1007,1065,0,0
-210,-41,0,0,0,0,0,0,0,0,0,-1,1014,1065,0,0
-203,-41,0,0,0,0,0,0,0,0,0,-1,1021,1065,0,0
-196,-41,0,0,0,0,0,0,0,0,0,-1,1028,1065,0,0
-189,-41,0,0,0,0,0,0,0,0,0,-1,1035,1065,0,0
-182,-41,0,0,0,0,0,0,0,0,0,-1,1042,1065,0,0
-175,-41,0,0,0,0,0,0,0,0,0,-1,1049,1065,0,0
-168,-41,0,0,0,0,0,0,0,0,0,-1,1056,1065,0,0
-161,-41,0,0,0,0,0,0,0,0,0,-1,1063,1065,0,0
-154,-41,0,0,0,0,0,0,0,0,0,-1,1070,1065,0,0
-147,-41,0,0,0,0,0,0,0,0,0,-1,1077,1065,0,0
-140,-41,0,0,0,0,0,0,0,0,0,-1,1084,1065,0,0
-133,-41,0,0,0,0,0,0,0,0,0,-1,1091,1065,0,0
-126,-41,0,0,0,0,0,0,0,0,0,-1,1098,1065,0,0
-119,-41,0,0,0,0,0,0,0,0,0,-1,1105,1065,0,0
-112,-41,0,0,0,0,0,0,0,0,0,-1,1112,1065,0,0
-105,-41,0,0,0,0,0,0,0,0,0,-1,1119,1065,0,0
-98,-41,0,0,0,0,0,0,0,0,0,-1,1126,1065,0,0
-91,-41,0,0,0,0,0,0,0,0,0,-1,1133,1065,0,0
-84,-41,0,0,0,0,0,0,0,0,0,-1,1140,1065,0,0
-77,-41,0,0,0,0,0,0,0,0,0,-1,1147,1065,0,0
-70,-41,0,0,0,0,0,0,0,0,0,-1,1154,1065,0,0
-63,-41,0,0,0,0,0,0,0,0,0,-1,1161,1065,0,0
-56,-41,0,0,0,0,0,0,0,0,0,-1,1168,1065,0,0
-49,-41,0,0,0,0,0,0,0,0,0,-1,1175,1065,0,0
-42,-41,0,0,0,0,0,0,0,0,0,-1,1182,1065,0,0
-35,-41,0,0,0,0,0,0,0,0,0,-1,1189,1065,0,0
-28,-41,0,0,0,0,0,0,0,0,0,-1,1196,1065,0,0
-21,-41,0,0,0,0,0,0,0,0,0,-1,1203,1065,0,0
-14,-41,0,0,0,0,0,0,0,0,0,-1,1210,1065,0,0
-7,-41,0,0,0,0,0,0,0,0,0,-1,1217,1065,0,0
0,-41,0,0,0,0,0,0,0,0,0,-1,1224,1065,0,0
7,-41,0,0,0,0,0,0,0,0,0,-1,1231,1065,0,0
14,-41,0,0,0,0,0,0,0,0,0,-1,1238,1065,0,0
21,-41,0,0,0,0,0,0,0,0,0,-1,1245,1065,0,0
28,-41,0,0,0,0,0,0,0,0,0,-1,1252,1065,0,0
35,-41,0,0,0,0,0,0,0,0,0,-1,1259,1065,0,0
42,-41,0,0,0,0,0,0,0,0,0,-1,1266,1065,0,0
49,-41,0,0,0,0,0,0,0,0,0,-1,1273,1065,0,0
56,-41,0,0,0,0,0,0,0,0,0,-1,1280,1065,0,0
63,-41,0,0,0,0,0,0,0,0,0,-1,1287,1065,0,0
70,-41,0,0,0,0,0,0,0,0,0,-1,1294,1065,0,0
77,-41,0,0,0,0,0,0,0,0,0,-1,1301,1065,0,0
84,-41,0,0,0,0,0,0,0,0,0,-1,1308,1065,0,0
91,-41,0,0,0,0,0,0,0,0,0,-1,1315,1065,0,0
98,-41,0,0,0,0,0,0,0,0,0,-1,1322,1065,0,0
105,-41,0,0,0,0,0,0,0,0,0,-1,1329,1065,0,0
112,-41,0,0,0,0,0,0,0,0,0,-1,1336,1065,0,0
119,-41,0,0,0,0,0,0,0,0,0,-1,1343,1065,0,0
126,-41,0,0,0,0,0,0,0,0,0,-1,1350,1065,0,0
133,-41,0,0,0,0,0,0,0,0,0,-1,1357,1065,0,0
140,-41,0,0,0,0,0,0,0,0,0,-1,1364,1065,0,0
147,-41,0,0,0,0,0,0,0,0,0,-1,1371,1065,0,0
154,-41,0,0,0,0,0,0,0,0,0,-1,1378,1065,0,0
161,-41,0,0,0,0,0,0,0,0,0,-1,1385,1065,0,0
168,-41,0,0,0,0,0,0,0,0,0,-1,1392,1065,0,0
175,-41,0,0,0,0,0,0,0,0,0,-1,1399,1065,0,0
182,-41,0,0,0,0,0,0,0,0,0,-1,1406,1065,0,0
189,-41,0,0,0,0,0,0,0,0,0,-1,1413,1065,0,0
196,-41,0,0,0,0,0,0,0,0,0,-1,1420,1065,0,0
203,-41,0,0,0,0,0,0,0,0,0,-1,1427,1065,0,0
210,-41,0,0,0,0,0,0,0,0,0,-1,1434,1065,0,0
217,-41,0,0,0,0,0,0,0,0,0,-1,1441,1065,0,0
224,-41,0,0,0,0,0,0,0,0,0,-1,1448,1065,0,0
231,-41,0,0,0,0,0,0,0,0,0,-1,1455,1065,0,0
238,-41,0,0,0,0,0,0,0,0,0,-1,1462,1065,0,0
245,-41,0,0,0,0,0,0,0,0,0,-1,1469,1065,0,0
252,-41,0,0,0,0,0,0,0,0,0,-1,1476,1065,0,0
259,-41,0,0,0,0,0,0,0,0,0,-1,1483,1065,0,0
266,-41,0,0,0,0,0,0,0,0,0,-1,1490,1065,0,0
273,-41,0,0,0,0,0,0,0,0,0,-1,1497,1065,0,0
280,-41,0,0,0,0,0,0,0,0,0,-1,1504,1065,0,0
287,-41,0,0,0,0,0,0,0,0,0,-1,1511,1065,0,0
294,-41,0,0,0,0,0,0,0,0,0,-1,1518,1065,0,0
301,-41,0,0,0,0,0,0,0,0,0,-1,1525,1065,0,0
308,-41,0,0,0,0,0,0,0,0,0,-1,1532,1065,0,0
315,-41,0,0,0,0,0,0,0,0,0,-1,1539,1065,0,0
322,-41,0,0,0,0,0,0,0,0,0,-1,1546,1065,0,0
329,-41,0,0,0,0,0,0,0,0,0,-1,1553,1065,0,0
336,-41,0,0,0,0,0,0,0,0,0,-1,1560,1065,0,0
343,-41,0,0,0,0,0,0,0,0,0,-1,1567,1065,0,0
350,-41,0,0,0,0,0,0,0,0,0,-1,1574,1065,0,0
357,-41,0,0,0,0,0,0,0,0,0,-1,1581,1065,0,0
364,-41,0,0,0,0,0,0,0,0,0,-1,1588,1065,0,0
371,-41,0,0,0,0,0,0,0,0,0,-1,1595,1065,0,0
378,-41,0,0,0,0,0,0,0,0,0,-1,1602,1065,0,0
385,-41,0,0,0,0,0,0,0,0,0,-1,1609,1065,0,0
392,-41,0,0,0,0,0,0,0,0,0,-1,1616,1065,0,0
399,-41,0,0,0,0,0,0,0,0,0,-1,1623,1065,0,0
406,-41,0,0,0,0,0,0,0,0,0,-1,1630,1065,0,0
413,-41,0,0,0,0,0,0,0,0,0,-1,1637,1065,0,0
420,-41,0,0,0,0,0,0,0,0,0,-1,1644,1065,0,0
427,-41,0,0,0,0,0,0,0,0,0,-1,1651,1065,0,0
434,-41,0,0,0,0,0,0,0,0,0,-1,1658,1065,0,0
441,-41,0,0,0,0,0,0,0,0,0,-1,1665,1065,0,0
448,-41,0,0,0,0,0,0,0,0,0,-1,1672,1065,0,0
455,-41,0,0,0,0,0,0,0,0,0,-1,1679,1065,0,0
462,-41,0,0,0,0,0,0,0,0,0,-1,1686,1065,0,0
469,-41,0,0,0,0,0,0,0,0,0,-1,1693,1065,0,0
476,-41,0,0,0,0,0,0,0,0,0,-1,1700,1065,0,0
483,-41,0,0,0,0,0,0,0,0,0,-1,1707,1065,0,0
490,-41,0,0,0,0,0,0,0,0,0,-1,1714,1065,0,0
497,-41,0,0,0,0,0,0,0,0,0,-1,1721,1065,0,0
504,-41,0,0,0,0,0,0,0,0,0,-1,1728,1065,0,0
511,-41,0,0,0,0,0,0,0,0,0,-1,1735,1065,0,0
518,-41,0,0,0,0,0,0,0,0,0,-1,1742,1065,0,0
525,-41,0,0,0,0,0,0,0,0,0,-1,1749,1065,0,0
532,-41,0,0,0,0,0,0,0,0,0,-1,1756,1065,0,0
539,-41,0,0,0,0,0,0,0,0,0,-1,1763,1065,0,0
546,-41,0,0,0,0,0,0,0,0,0,-1,1770,1065,0,0
553,-41,0,0,0,0,0,0,0,0,0,-1,1777,1065,0,0
560,-41,0,0,0,0,0,0,0,0,0,-1,1784,1065,0,0
567,-41,0,0,0,0,0,0,0,0,0,-1,1791,1065,0,0
574,-41,0,0,0,0,0,0,0,0,0,-1,1798,1065,0,0
581,-41,0,0,0,0,0,0,0,0,0,-1,1805,1065,0,0
588,-41,0,0,0,0,0,0,0,0,0,-1,1812,1065,0,0
595,-41,0,0,0,0,0,0,0,0,0,-1,1819,1065,0,0
602,-41,0,0,0,0,0,0,0,0,0,-1,1826,1065,0,0
609,-41,0,0,0,0,0,0,0,0,0,-1,1833,1065,0,0
616,-41,0,0,0,0,0,0,0,0,0,-1,1840,1065,0,0
623,-41,0,0,0,0,0,0,0,0,0,-1,1847,1065,0,0
630,-41,0,0,0,0,0,0,0,0,0,-1,1854,1065,0,0
637,-41,0,0,0,0,0,0,0,0,0,-1,1861,1065,0,0
644,-41,0,0,0,0,0,0,0,0,0,-1,1868,1065,0,0
651,-41,26.8586,3.27197,-0.00309661,0.00234727,0.00665177,0.00681247,-0.00756181,0.979606,0.00830276,0.035596,1875,1065,26.8587,-3.27202
658,-41,26.9089,3.48779,-0.00150366,0.00212553,0.00441062,0.00508025,-0.00445838,0.980552,0.00551103,0.0411285,1882,1065,26.9089,-3.48784
665,-41,26.8143,3.53967,-0.000583344,0.00179771,0.00278386,0.00363493,-0.00242056,0.987457,0.00351949,0.0421644,1889,1065,26.8144,-3.53972
672,-41,26.7776,3.22119,3.84929e-05,0.00145316,0.0021444,0.00300387,-0.00151222,0.944705,0.00265435,0.040797,1896,1065,26.7776,-3.22119
679,-41,27.0171,3.31921,0.00019966,0.000882818,0.00239032,0.00295584,-0.00187336,0.856368,0.00281139,0.0368265,1903,1065,27.017,-3.31917
686,-41,27.0496,3.29675,-3.42954e-05,0.000256063,0.00300863,0.00312302,-0.00290125,0.809507,0.0034789,0.0390676,1910,1065,27.0496,-3.2968
693,-41,27.0106,3.02563,-0.000340487,-0.00032367,0.00374058,0.00340851,-0.00407267,0.786522,0.00432493,0.0448288,1917,1065,27.0106,-3.02564
700,-41,27.0168,2.98401,-0.000646144,-0.000735135,0.00439915,0.00370874,-0.00509002,0.780341,0.00510078,0.0387398,1924,1065,27.0168,-2.98402
707,-41,26.9447,3.0542,-0.000810547,-0.00100657,0.00469822,0.00379069,-0.0056078,0.774969,0.00545992,0.0233894,1931,1065,26.9447,-3.05419
714,-41,26.9395,3.0885,-0.00106719,-0.00120752,0.00488417,0.00374731,-0.00602203,0.778216,0.00569107,0.0133481,1938,1065,26.9395,-3.08852
721,-41,27.0046,3.73499,-0.00149553,-0.0012591,0.00505791,0.00368198,-0.0064366,0.797082,0.00591368,0.0341633,1945,1065,27.0046,-3.73503
728,-41,26.554,4.922,0,0,0,0,0,0,0,-1,1952,1065,26.5539,-4.92196
735,-41,26.4719,4.90515,-0.00251691,-0.000620934,0.00495835,0.00347924,-0.00661709,0.879853,0.00592221,0.0163041,1959,1065,26.472,-4.90513
742,-41,26.4259,4.86523,-0.00275066,5.98216e-05,0.00464796,0.00351032,-0.00620117,0.932197,0.00567822,0.0137486,1966,1065,26.4259,-4.8652
749,-41,26.4313,4.823,-0.00303787,0.000727527,0.00436811,0.0036014,-0.00591174,0.988873,0.00554614,0.0125178,1973,1065,26.4313,-4.82305
756,-41,26.4556,4.76941,-0.00274633,0.00160593,0.00404178,0.00402017,-0.00516057,1.03235,0.00531412,0.0117571,1980,1065,26.4556,-4.76944
763,-41,26.4364,4.70239,-0.00192498,0.00285272,0.0033045,0.00454141,-0.00361367,1.09837,0.00471848,0.00983427,1987,1065,26.4364,-4.70244
770,-41,26.4093,4.65527,-0.00104036,0.00430517,0.0026902,0.00542462,-0.00215981,1.17647,0.00451208,0.0125456,1994,1065,26.4093,-4.65528
777,-41,26.3679,4.60852,0.000622956,0.00601384,0.0024633,0.00696987,-0.000333076,1.20058,0.00476149,0.0144923,2001,1065,26.3679,-4.60849
784,-41,26.324,4.52698,0.00310078,0.00756573,0.00280439,0.00891774,0.00174877,1.12157,0.00545646,0.0247683,2008,1065,26.324,-4.52697
791,-41,26.3483,4.4519,0.00654104,0.00916472,0.00317286,0.0112862,0.00441952,0.981424,0.00656697,0.043252,2015,1065,26.3483,-4.45194
798,-41,26.1689,4.70874,0.0116387,0.010914,0.00336197,0.0146578,0.00789489,0.731713,0.00847108,0.046412,2022,1065,26.169,-4.70871
805,-41,26.1702,4.60498,0.0190345,0.0129707,0.00312283,0.0203551,0.01165,0.400085,0.011793,0.0448884,2029,1065,26.1702,-4.60492
812,-41,26.4163,4.60632,0.0293995,0.0155215,0.00206855,0.0297013,0.0152197,0.144858,0.0171498,0.0482633,2036,1065,26.4162,-4.60631
-700,-48,-17.6122,-0.552002,-0.0554484,0.100391,0.100456,0.149605,-0.104662,1.11526,0.147563,0.0464076,524,1072,-17.6122,0.551942
-693,-48,-18.0407,-0.0753174,-0.0498359,0.0909186,0.0814688,0.128199,-0.087116,1.14164,0.125064,0.0427605,531,1072,-18.0407,0.07533
-686,-48,-18.2418,0.246582,-0.0432363,0.0793108,0.0657667,0.107924,-0.0718499,1.16042,0.104487,0.0456228,538,1072,-18.2418,-0.246544
-679,-48,-18.3113,0.23938,-0.0362874,0.0672088,0.0524359,0.0891315,-0.0582101,1.1748,0.0856899,0.048691,545,1072,-18.3113,-0.239334
-672,-48,-18.4586,0.304688,-0.0294592,0.0553662,0.0411048,0.0720166,-0.0461095,1.18593,0.0687447,0.0471381,552,1072,-18.4585,-0.304714
-665,-48,-18.4691,0.668701,-0.0230515,0.0442482,0.0315397,0.0567185,-0.0355218,1.19428,0.0537216,0.0467048,559,1072,-18.4691,-0.668693
-658,-48,-18.2278,1.18372,-0.0173393,0.0341911,0.0235805,0.0433527,-0.0265009,1.20022,0.0407193,0.042937,566,1072,-18.2278,-1.18374
-651,-48,-18.2432,1.65845,-0.0125006,0.0254403,0.0170938,0.0320056,-0.0190659,1.20409,0.0297999,0.0309933,573,1072,-18.2432,-1.65844
-644,-48,-18.3268,1.97644,-0.00844636,0.0178817,0.0105824,0.0216079,-0.0121725,1.23224,0.0197551,0.0156046,580,1072,-18.3268,-1.97647
-637,-48,-18.3221,2.02209,-0.00570855,0.0116796,0.00518743,0.0131096,-0.00713852,1.30182,0.0118585,0.0156705,587,1072,-18.3221,-2.02209
-630,-48,-18.3132,2.12939,-0.00337012,0.00526716,0.00123686,0.00544079,-0.00354375,1.43133,0.00522562,0.0174766,594,1072,-18.3133,-2.12938
-623,-48,-18.3653,2.23193,-0.0010445,0.00211176,-0.00189175,0.00299721,-0.00192995,-1.13303,0.00286686,0.0102955,601,1072,-18.3653,-2.23198
-616,-48,-18.3631,2.33179,-0.00101663,0.000528066,-0.00422212,0.0040479,-0.00453646,-0.875862,0.00495886,0.00895177,608,1072,-18.3631,-2.33183
-609,-48,-18.3495,2.43628,-0.00116889,-0.000303236,-0.0064979,0.00577624,-0.00724836,-0.818654,0.00753575,0.0108995,615,1072,-18.3495,-2.43632
-602,-48,-18.3693,2.52258,-0.00144896,-0.00102991,-0.00776229,0.00652568,-0.00900456,-0.798891,0.00900438,0.0118625,622,1072,-18.3693,-2.52255
-595,-48,-18.4423,2.60645,0,0,0,0,0,0,0,-1,629,1072,-18.4424,-2.60647
-588,-48,-18.5139,1.88879,-0.00149176,-0.00178091,-0.0083764,0.00674131,-0.010014,-0.776769,0.00973499,0.0339206,636,1072,-18.5139,-1.88876
-581,-48,-18.6225,1.10327,-0.00152408,-0.00188594,-0.00795558,0.00625263,-0.00966264,-0.774029,0.00925872,0.039225,643,1072,-18.6225,-1.10326
-574,-48,-18.7876,0.878418,-0.00163564,-0.00189926,-0.00719723,0.00543098,-0.00896589,-0.776242,0.00839514,0.0404781,650,1072,-18.7876,-0.878362
-567,-48,-18.4247,1.29126,-0.0018144,-0.00174884,-0.00570604,0.00392451,-0.00748775,-0.788271,0.00669507,0.0420956,657,1072,-18.4247,-1.29129
-560,-48,-18.4996,0.987305,-0.00205247,-0.00143792,-0.0033522,0.00162107,-0.00511145,-0.831102,0.00405741,0.0436784,664,1072,-18.4996,-0.987345
-553,-48,-18.6411,0.897583,-0.00234526,-0.000991741,-3.21222e-05,-0.000990979,-0.00234602,-1.54708,0.0013599,0.0429073,671,1072,-18.6411,-0.89755
-546,-48,-18.6878,1.03662,-0.00276221,-0.000456605,0.00434623,0.00288711,-0.00610593,0.915034,0.00530184,0.0411088,678,1072,-18.6878,-1.03663
-539,-48,-18.7439,1.20813,-0.00333511,5.21976e-05,0.00888889,0.00740735,-0.0106903,0.879538,0.0105058,0.0408424,685,1072,-18.7439,-1.20809
-532,-48,-18.6536,1.42407,-0.00466564,-8.95553e-05,0.0112904,0.00914227,-0.0138975,0.885372,0.0133961,0.039923,692,1072,-18.6536,-1.42408
-525,-48,0,0,0,0,0,0,0,0,0,-1,699,1072,0,0
-518,-48,0,0,0,0,0,0,0,0,0,-1,706,1072,0,0
-511,-48,0,0,0,0,0,0,0,0,0,-1,713,1072,0,0
-504,-48,0,0,0,0,0,0,0,0,0,-1,720,1072,0,0
-497,-48,0,0,0,0,0,0,0,0,0,-1,727,1072,0,0
-490,-48,0,0,0,0,0,0,0,0,0,-1,734,1072,0,0
-483,-48,0,0,0,0,0,0,0,0,0,-1,741,1072,0,0
-476,-48,0,0,0,0,0,0,0,0,0,-1,748,1072,0,0
-469,-48,0,0,0,0,0,0,0,0,0,-1,755,1072,0,0
-462,-48,0,0,0,0,0,0,0,0,0,-1,762,1072,0,0
-455,-48,0,0,0,0,0,0,0,0,0,-1,769,1072,0,0
-448,-48,0,0,0,0,0,0,0,0,0,-1,776,1072,0,0
-441,-48,0,0,0,0,0,0,0,0,0,-1,783,1072,0,0
-434,-48,0,0,0,0,0,0,0,0,0,-1,790,1072,0,0
-427,-48,0,0,0,0,0,0,0,0,0,-1,797,1072,0,0
-420,-48,0,0,0,0,0,0,0,0,0,-1,804,1072,0,0
-413,-48,0,0,0,0,0,0,0,0,0,-1,811,1072,0,0
-406,-48,0,0,0,0,0,0,0,0,0,-1,818,1072,0,0
-399,-48,0,0,0,0,0,0,0,0,0,-1,825,1072,0,0
-392,-48,0,0,0,0,0,0,0,0,0,-1,832,1072,0,0
-385,-48,0,0,0,0,0,0,0,0,0,-1,839,1072,0,0
-378,-48,0,0,0,0,0,0,0,0,0,-1,846,1072,0,0
-371,-48,0,0,0,0,0,0,0,0,0,-1,853,1072,0,0
-364,-48,0,0,0,0,0,0,0,0,0,-1,860,1072,0,0
-357,-48,0,0,0,0,0,0,0,0,0,-1,867,1072,0,0
-350,-48,0,0,0,0,0,0,0,0,0,-1,874,1072,0,0
-343,-48,0,0,0,0,0,0,0,0,0,-1,881,1072,0,0
-336,-48,0,0,0,0,0,0,0,0,0,-1,888,1072,0,0
-329,-48,0,0,0,0,0,0,0,0,0,-1,895,1072,0,0
-322,-48,0,0,0,0,0,0,0,0,0,-1,902,1072,0,0
-315,-48,0,0,0,0,0,0,0,0,0,-1,909,1072,0,0
-308,-48,0,0,0,0,0,0,0,0,0,-1,916,1072,0,0
-301,-48,0,0,0,0,0,0,0,0,0,-1,923,1072,0,0
-294,-48,0,0,0,0,0,0,0,0,0,-1,930,1072,0,0
-287,-48,0,0,0,0,0,0,0,0,0,-1,937,1072,0,0
-280,-48,0,0,0,0,0,0,0,0,0,-1,944,1072,0,0
-273,-48,0,0,0,0,0,0,0,0,0,-1,951,1072,0,0
-266,-48,0,0,0,0,0,0,0,0,0,-1,958,1072,0,0
-259,-48,0,0,0,0,0,0,0,0,0,-1,965,1072,0,0
-252,-48,0,0,0,0,0,0,0,0,0,-1,972,1072,0,0
-245,-48,0,0,0,0,0,0,0,0,0,-1,979,1072,0,0
-238,-48,0,0,0,0,0,0,0,0,0,-1,986,1072,0,0
-231,-48,0,0,0,0,0,0,0,0,0,-1,993,1072,0,0
-224,-48,0,0,0,0,0,0,0,0,0,-1,1000,1072,0,0
-217,-48,0,0,0,0,0,0,0,0,0,-1,1007,1072,0,0
-210,-48,0,0,0,0,0,0,0,0,0,-1,1014,1072,0,0
-203,-48,0,0,0,0,0,0,0,0,0,-1,1021,1072,0,0
-196,-48,0,0,0,0,0,0,0,0,0,-1,1028,1072,0,0
-189,-48,0,0,0,0,0,0,0,0,0,-1,1035,1072,0,0
-182,-48,0,0,0,0,0,0,0,0,0,-1,1042,1072,0,0
-175,-48,0,0,0,0,0,0,0,0,0,-1,1049,1072,0,0
-168,-48,0,0,0,0,0,0,0,0,0,-1,1056,1072,0,0
-161,-48,0,0,0,0,0,0,0,0,0,-1,1063,1072,0,0
-154,-48,0,0,0,0,0,0,0,0,0,-1,1070,1072,0,0
-147,-48,0,0,0,0,0,0,0,0,0,-1,1077,1072,0,0
-140,-48,0,0,0,0,0,0,0,0,0,-1,1084,1072,0,0
-133,-48,0,0,0,0,0,0,0,0,0,-1,1091,1072,0,0
-126,-48,0,0,0,0,0,0,0,0,0,-1,1098,1072,0,0
-119,-48,0,0,0,0,0,0,0,0,0,-1,1105,1072,0,0
-112,-48,0,0,0,0,0,0,0,0,0,-1,1112,1072,0,0
-105,-48,0,0,0,0,0,0,0,0,0,-1,1119,1072,0,0
-98,-48,0,0,0,0,0,0,0,0,0,-1,1126,1072,0,0
-91,-48,0,0,0,0,0,0,0,0,0,-1,1133,1072,0,0
-84,-48,0,0,0,0,0,0,0,0,0,-1,1140,1072,0,0
-77,-48,0,0,0,0,0,0,0,0,0,-1,1147,1072,0,0
-70,-48,0,0,0,0,0,0,0,0,0,-1,1154,1072,0,0
-63,-48,0,0,0,0,0,0,0,0,0,-1,1161,1072,0,0
-56,-48,0,0,0,0,0,0,0,0,0,-1,1168,1072,0,0
-49,-48,0,0,0,0,0,0,0,0,0,-1,1175,1072,0,0
-42,-48,0,0,0,0,0,0,0,0,0,-1,1182,1072,0,0
-35,-48,0,0,0,0,0,0,0,0,0,-1,1189,1072,0,0
-28,-48,0,0,0,0,0,0,0,0,0,-1,1196,1072,0,0
-21,-48,0,0,0,0,0,0,0,0,0,-1,1203,1072,0,0
-14,-48,0,0,0,0,0,0,0,0,0,-1,1210,1072,0,0
-7,-48,0,0,0,0,0,0,0,0,0,-1,1217,1072,0,0
0,-48,0,0,0,0,0,0,0,0,0,-1,1224,1072,0,0
7,-48,0,0,0,0,0,0,0,0,0,-1,1231,1072,0,0
14,-48,0,0,0,0,0,0,0,0,0,-1,1238,1072,0,0
21,-48,0,0,0,0,0,0,0,0,0,-1,1245,1072,0,0
28,-48,0,0,0,0,0,0,0,0,0,-1,1252,1072,0,0
35,-48,0,0,0,0,0,0,0,0,0,-1,1259,1072,0,0
42,-48,0,0,0,0,0,0,0,0,0,-1,1266,1072,0,0
49,-48,0,0,0,0,0,0,0,0,0,-1,1273,1072,0,0
56,-48,0,0,0,0,0,0,0,0,0,-1,1280,1072,0,0
63,-48,0,0,0,0,0,0,0,0,0,-1,1287,1072,0,0
70,-48,0,0,0,0,0,0,0,0,0,-1,1294,1072,0,0
77,-48,0,0,0,0,0,0,0,0,0,-1,1301,1072,0,0
84,-48,0,0,0,0,0,0,0,0,0,-1,1308,1072,0,0
91,-48,0,0,0,0,0,0,0,0,0,-1,1315,1072,0,0
98,-48,0,0,0,0,0,0,0,0,0,-1,1322,1072,0,0
105,-48,0,0,0,0,0,0,0,0,0,-1,1329,1072,0,0
112,-48,0,0,0,0,0,0,0,0,0,-1,1336,1072,0,0
119,-48,0,0,0,0,0,0,0,0,0,-1,1343,1072,0,0
126,-48,0,0,0,0,0,0,0,0,0,-1,1350,1072,0,0
133,-48,0,0,0,0,0,0,0,0,0,-1,1357,1072,0,0
140,-48,0,0,0,0,0,0,0,0,0,-1,1364,1072,0,0
147,-48,0,0,0,0,0,0,0,0,0,-1,1371,1072,0,0
154,-48,0,0,0,0,0,0,0,0,0,-1,1378,1072,0,0
161,-48,0,0,0,0,0,0,0,0,0,-1,1385,1072,0,0
168,-48,0,0,0,0,0,0,0,0,0,-1,1392,1072,0,0
175,-48,0,0,0,0,0,0,0,0,0,-1,1399,1072,0,0
182,-48,0,0,0,0,0,0,0,0,0,-1,1406,1072,0,0
189,-48,0,0,0,0,0,0,0,0,0,-1,1413,1072,0,0
196,-48,0,0,0,0,0,0,0,0,0,-1,1420,1072,0,0
203,-48,0,0,0,0,0,0,0,0,0,-1,1427,1072,0,0
210,-48,0,0,0,0,0,0,0,0,0,-1,1434,1072,0,0
217,-48,0,0,0,0,0,0,0,0,0,-1,1441,1072,0,0
224,-48,0,0,0,0,0,0,0,0,0,-1,1448,1072,0,0
231,-48,0,0,0,0,0,0,0,0,0,-1,1455,1072,0,0
238,-48,0,0,0,0,0,0,0,0,0,-1,1462,1072,0,0
245,-48,0,0,0,0,0,0,0,0,0,-1,1469,1072,0,0
252,-48,0,0,0,0,0,0,0,0,0,-1,1476,1072,0,0
259,-48,0,0,0,0,0,0,0,0,0,-1,1483,1072,0,0
266,-48,0,0,0,0,0,0,0,0,0,-1,1490,1072,0,0
273,-48,0,0,0,0,0,0,0,0,0,-1,1497,1072,0,0
280,-48,0,0,0,0,0,0,0,0,0,-1,1504,1072,0,0
287,-48,0,0,0,0,0,0,0,0,0,-1,1511,1072,0,0
294,-48,0,0,0,0,0,0,0,0,0,-1,1518,1072,0,0
301,-48,0,0,0,0,0,0,0,0,0,-1,1525,1072,0,0
308,-48,0,0,0,0,0,0,0,0,0,-1,1532,1072,0,0
315,-48,0,0,0,0,0,0,0,0,0,-1,1539,1072,0,0
322,-48,0,0,0,0,0,0,0,0,0,-1,1546,1072,0,0
329,-48,0,0,0,0,0,0,0,0,0,-1,1553,1072,0,0
336,-48,0,0,0,0,0,0,0,0,0,-1,1560,1072,0,0
343,-48,0,0,0,0,0,0,0,0,0,-1,1567,1072,0,0
350,-48,0,0,0,0,0,0,0,0,0,-1,1574,1072,0,0
357,-48,0,0,0,0,0,0,0,0,0,-1,1581,1072,0,0
364,-48,0,0,0,0,0,0,0,0,0,-1,1588,1072,0,0
371,-48,0,0,0,0,0,0,0,0,0,-1,1595,1072,0,0
378,-48,0,0,0,0,0,0,0,0,0,-1,1602,1072,0,0
385,-48,0,0,0,0,0,0,0,0,0,-1,1609,1072,0,0
392,-48,0,0,0,0,0,0,0,0,0,-1,1616,1072,0,0
399,-48,0,0,0,0,0,0,0,0,0,-1,1623,1072,0,0
406,-48,0,0,0,0,0,0,0,0,0,-1,1630,1072,0,0
413,-48,0,0,0,0,0,0,0,0,0,-1,1637,1072,0,0
420,-48,0,0,0,0,0,0,0,0,0,-1,1644,1072,0,0
427,-48,0,0,0,0,0,0,0,0,0,-1,1651,1072,0,0
434,-48,0,0,0,0,0,0,0,0,0,-1,1658,1072,0,0
441,-48,0,0,0,0,0,0,0,0,0,-1,1665,1072,0,0
448,-48,0,0,0,0,0,0,0,0,0,-1,1672,1072,0,0
455,-48,0,0,0,0,0,0,0,0,0,-1,1679,1072,0,0
462,-48,0,0,0,0,0,0,0,0,0,-1,1686,1072,0,0
469,-48,0,0,0,0,0,0,0,0,0,-1,1693,1072,0,0
476,-48,0,0,0,0,0,0,0,0,0,-1,1700,1072,0,0
483,-48,0,0,0,0,0,0,0,0,0,-1,1707,1072,0,0
490,-48,0,0,0,0,0,0,0,0,0,-1,1714,1072,0,0
497,-48,0,0,0,0,0,0,0,0,0,-1,1721,1072,0,0
504,-48,0,0,0,0,0,0,0,0,0,-1,1728,1072,0,0
511,-48,0,0,0,0,0,0,0,0,0,-1,1735,1072,0,0
518,-48,0,0,0,0,0,0,0,0,0,-1,1742,1072,0,0
525,-48,0,0,0,0,0,0,0,0,0,-1,1749,1072,0,0
532,-48,0,0,0,0,0,0,0,0,0,-1,1756,1072,0,0
539,-48,0,0,0,0,0,0,0,0,0,-1,1763,1072,0,0
546,-48,0,0,0,0,0,0,0,0,0,-1,1770,1072,0,0
553,-48,0,0,0,0,0,0,0,0,0,-1,1777,1072,0,0
560,-48,0,0,0,0,0,0,0,0,0,-1,1784,1072,0,0
567,-48,0,0,0,0,0,0,0,0,0,-1,1791,1072,0,0
574,-48,0,0,0,0,0,0,0,0,0,-1,1798,1072,0,0
581,-48,0,0,0,0,0,0,0,0,0,-1,1805,1072,0,0
588,-48,0,0,0,0,0,0,0,0,0,-1,1812,1072,0,0
595,-48,0,0,0,0,0,0,0,0,0,-1,1819,1072,0,0
602,-48,0,0,0,0,0,0,0,0,0,-1,1826,1072,0,0
609,-48,0,0,0,0,0,0,0,0,0,-1,1833,1072,0,0
616,-48,0,0,0,0,0,0,0,0,0,-1,1840,1072,0,0
623,-48,0,0,0,0,0,0,0,0,0,-1,1847,1072,0,0
630,-48,0,0,0,0,0,0,0,0,0,-1,1854,1072,0,0
637,-48,0,0,0,0,0,0,0,0,0,-1,1861,1072,0,0
644,-48,0,0,0,0,0,0,0,0,0,-1,1868,1072,0,0
651,-48,26.924,3.07117,-0.00249211,0.00259734,0.00526834,0.00590334,-0.00579811,1.01038,0.00675593,0.0324241,1875,1072,26.9239,-3.07115
658,-48,26.8218,3.21448,-0.000994839,0.0024538,0.00347454,0.00460836,-0.0031494,1.01573,0.00450527,0.0383867,1882,1072,26.8218,-3.21448
665,-48,26.7703,3.14233,-0.000166644,0.00214479,0.00216176,0.00344037,-0.00146223,1.03088,0.00290631,0.042339,1889,1072,26.7702,-3.14238
672,-48,26.7272,3.13879,0.000373745,0.00176066,0.00174026,0.00294054,-0.000806131,0.974996,0.00227714,0.0402486,1896,1072,26.7272,-3.13885
679,-48,26.813,3.24939,0.00044084,0.00114212,0.00206015,0.00288125,-0.0012983,0.869691,0.00247008,0.03786,1903,1072,26.813,-3.2494
686,-48,26.8795,3.17871,0.000107135,0.000471531,0.00267879,0.00297431,-0.00239564,0.819353,0.00310634,0.0386383,1910,1072,26.8795,-3.17869
693,-48,26.96,3.09705,-0.000269984,-0.00014434,0.00336572,0.00315914,-0.00357347,0.79473,0.00388953,0.0428596,1917,1072,26.96,-3.09701
700,-48,27.0785,2.98999,-0.000631589,-0.000574678,0.00397723,0.0033742,-0.00458046,0.788975,0.00461019,0.0389467,1924,1072,27.0785,-2.99002
707,-48,27.0017,3.05359,-0.000848828,-0.000861275,0.0042695,0.00341445,-0.00512455,0.784669,0.00496284,0.025135,1931,1072,27.0018,-3.05361
714,-48,26.9816,2.95325,0,0,0,0,0,0,0,-1,1938,1072,26.9816,-2.95327
721,-48,26.8275,4.18384,0,0,0,0,0,0,0,-1,1945,1072,26.8276,-4.18383
728,-48,26.4723,5.02905,0,0,0,0,0,0,0,-1,1952,1072,26.4723,-5.02904
735,-48,26.4132,4.9729,-0.00254232,-0.000625628,0.00453583,0.003052,-0.00621994,0.889509,0.00545632,0.0173487,1959,1072,26.4132,-4.97293
742,-48,26.3418,4.89539,-0.00270284,4.81015e-05,0.0043716,0.00325551,-0.00591025,0.937814,0.00536533,0.0140543,1966,1072,26.3417,-4.8954
749,-48,26.3662,4.80701,-0.0028368,0.000637166,0.00434613,0.00358056,-0.0057802,0.975506,0.00545395,0.0127868,1973,1072,26.3663,-4.80707
756,-48,26.3711,4.75,-0.00237585,0.00135508,0.0043249,0.00419969,-0.00522045,0.989009,0.00544935,0.0115429,1980,1072,26.3711,-4.74996
763,-48,26.3505,4.69727,-0.00135462,0.0023637,0.00388917,0.00481524,-0.00380615,1.00836,0.00498892,0.0115859,1987,1072,26.3505,-4.69727
770,-48,26.343,4.62573,-0.000206178,0.0035077,0.00372412,0.00581217,-0.00251065,1.01667,0.00492959,0.0131151,1994,1072,26.3431,-4.62575
777,-48,26.3015,4.54187,0.00175909,0.00474922,0.00406189,0.00758246,-0.00107415,0.96174,0.00544843,0.0113689,2001,1072,26.3015,-4.54182
784,-48,26.24,4.42969,0.00454191,0.00567926,0.00498225,0.0101252,9.59812e-05,0.842223,0.00671836,0.0228785,2008,1072,26.24,-4.42968
791,-48,26.1366,4.32214,0.00825608,0.0064814,0.00597064,0.013405,0.00133252,0.711629,0.00852724,0.0408189,2015,1072,26.1366,-4.32208
798,-48,25.9204,4.38977,0.0135686,0.00714962,0.00684473,0.017919,0.00279927,0.566169,0.0111308,0.0445461,2022,1072,25.9204,-4.3898
805,-48,25.9897,4.27588,0.0210589,0.00773576,0.00732966,0.0243019,0.00449277,0.416556,0.0149307,0.0426842,2029,1072,25.9897,-4.27589
812,-48,26.416,4.00256,0.0313238,0.00829576,0.00699575,0.0332824,0.00633709,0.272989,0.0204066,0.0436342,2036,1072,26.4159,-4.00261
-700,-55,-19.348,-1.4353,-0.0518913,0.102768,0.103712,0.154806,-0.10393,1.10574,0.150341,0.0467957,524,1079,-19.348,1.43526
-693,-55,-19.4734,-0.590698,-0.046747,0.0925758,0.0847718,0.132637,-0.0868078,1.12933,0.127614,0.046044,531,1079,-19.4734,0.590642
-686,-55,-19.4323,0.0957031,-0.0406193,0.0805137,0.0689445,0.111717,-0.0718224,1.1458,0.106797,0.0462293,538,1079,-19.4323,-0.0956509
-679,-55,-18.5381,-0.17627,0,0,0,0,0,0,0,-1,545,1079,-18.5381,0.176213
-672,-55,-18.6129,-0.09375,0,0,0,0,0,0,0,-1,552,1079,-18.6129,0.0937705
-665,-55,-18.4263,0.484131,0,0,0,0,0,0,0,-1,559,1079,-18.4264,-0.484153
-658,-55,-18.1614,1.10999,-0.0161418,0.0345904,0.0253693,0.0450996,-0.026651,1.17807,0.0418792,0.0496271,566,1079,-18.1614,-1.10998
-651,-55,-18.2047,1.50647,-0.0115434,0.0257352,0.0184741,0.0333392,-0.0191475,1.18032,0.0306702,0.035376,573,1079,-18.2047,-1.50649
-644,-55,-18.2347,1.92261,-0.00775404,0.0180956,0.011677,0.0225892,-0.0122477,1.20344,0.0204064,0.0172319,580,1079,-18.2347,-1.92261
-637,-55,-18.2296,1.98804,-0.00514681,0.0115889,0.00605476,0.0135497,-0.00710761,1.25761,0.0121183,0.0144378,587,1079,-18.2296,-1.98804
-630,-55,-18.2012,2.10681,-0.00311356,0.00550326,0.0016712,0.00581603,-0.00342632,1.38578,0.00539521,0.0169441,594,1079,-18.2012,-2.10685
-623,-55,-18.2558,2.23743,-0.00110539,0.00228216,-0.00158411,0.00290749,-0.00173073,-1.19482,0.00270646,0.0149797,601,1079,-18.2558,-2.23738
-616,-55,-18.2732,2.34058,-0.00120168,0.00070274,-0.00399598,0.00385839,-0.00435733,-0.902363,0.00474627,0.0133901,608,1079,-18.2732,-2.34056
-609,-55,-18.256,2.46741,-0.00145764,-0.000190664,-0.00623172,0.00543968,-0.00708799,-0.836052,0.00725369,0.013536,615,1079,-18.2561,-2.46741
-602,-55,-18.2522,2.5636,-0.00181067,-0.000946997,-0.00754513,0.00617865,-0.00893632,-0.813984,0.00877491,0.0128122,622,1079,-18.2522,-2.56357
-595,-55,-18.119,2.74036,0,0,0,0,0,0,0,-1,629,1079,-18.119,-2.74032
-588,-55,-18.2863,1.9231,0,0,0,0,0,0,0,-1,636,1079,-18.2863,-1.92304
-581,-55,-18.4536,1.10571,0,0,0,0,0,0,0,-1,643,1079,-18.4535,-1.10576
-574,-55,-18.5811,1.37769,-0.00204517,-0.00177866,-0.00710228,0.00519162,-0.00901545,-0.794778,0.00830089,0.0388708,650,1079,-18.5811,-1.37771
-567,-55,-18.5334,1.21191,-0.00213772,-0.00165207,-0.00565589,0.0037662,-0.00755599,-0.806851,0.00665782,0.0405762,657,1079,-18.5335,-1.21192
-560,-55,-18.4645,1.00061,-0.00225158,-0.00139092,-0.00337068,0.00157678,-0.00521929,-0.848889,0.00410728,0.0447301,664,1079,-18.4645,-1.00062
-553,-55,-18.5074,0.816772,-0.00238741,-0.00102727,-0.000151221,-0.00101066,-0.00240402,-1.4614,0.00139381,0.0452126,671,1079,-18.5074,-0.816766
-546,-55,-18.5602,0.97229,-0.00260262,-0.000606747,0.00407743,0.0025931,-0.00580246,0.905412,0.00496383,0.0413695,678,1079,-18.5602,-0.972256
-539,-55,-18.5865,1.22449,-0.0029955,-0.000224617,0.00847962,0.006982,-0.0102021,0.866375,0.00997915,0.0406578,685,1079,-18.5865,-1.22452
-532,-55,-18.7182,1.57617,-0.00435151,-0.000682596,0.0107371,0.00837562,-0.0134097,0.870007,0.0126892,0.0395833,692,1079,-18.7182,-1.57622
-525,-55,0,0,0,0,0,0,0,0,0,-1,699,1079,0,0
-518,-55,0,0,0,0,0,0,0,0,0,-1,706,1079,0,0
-511,-55,0,0,0,0,0,0,0,0,0,-1,713,1079,0,0
-504,-55,0,0,0,0,0,0,0,0,0,-1,720,1079,0,0
-497,-55,0,0,0,0,0,0,0,0,0,-1,727,1079,0,0
-490,-55,0,0,0,0,0,0,0,0,0,-1,734,1079,0,0
-483,-55,0,0,0,0,0,0,0,0,0,-1,741,1079,0,0
-476,-55,0,0,0,0,0,0,0,0,0,-1,748,1079,0,0
-469,-55,0,0,0,0,0,0,0,0,0,-1,755,1079,0,0
-462,-55,0,0,0,0,0,0,0,0,0,-1,762,1079,0,0
-455,-55,0,0,0,0,0,0,0,0,0,-1,769,1079,0,0
-448,-55,0,0,0,0,0,0,0,0,0,-1,776,1079,0,0
-441,-55,0,0,0,0,0,0,0,0,0,-1,783,1079,0,0
-434,-55,0,0,0,0,0,0,0,0,0,-1,790,1079,0,0
-427,-55,0,0,0,0,0,0,0,0,0,-1,797,1079,0,0
-420,-55,0,0,0,0,0,0,0,0,0,-1,804,1079,0,0
-413,-55,0,0,0,0,0,0,0,0,0,-1,811,1079,0,0
-406,-55,0,0,0,0,0,0,0,0,0,-1,818,1079,0,0
-399,-55,0,0,0,0,0,0,0,0,0,-1,825,1079,0,0
-392,-55,0,0,0,0,0,0,0,0,0,-1,832,1079,0,0
-385,-55,0,0,0,0,0,0,0,0,0,-1,839,1079,0,0
-378,-55,0,0,0,0,0,0,0,0,0,-1,846,1079,0,0
-371,-55,0,0,0,0,0,0,0,0,0,-1,853,1079,0,0
-364,-55,0,0,0,0,0,0,0,0,0,-1,860,1079,0,0
-357,-55,0,0,0,0,0,0,0,0,0,-1,867,1079,0,0
-350,-55,0,0,0,0,0,0,0,0,0,-1,874,1079,0,0
-343,-55,0,0,0,0,0,0,0,0,0,-1,881,1079,0,0
-336,-55,0,0,0,0,0,0,0,0,0,-1,888,1079,0,0
-329,-55,0,0,0,0,0,0,0,0,0,-1,895,1079,0,0
-322,-55,0,0,0,0,0,0,0,0,0,-1,902,1079,0,0
-315,-55,0,0,0,0,0,0,0,0,0,-1,909,1079,0,0
-308,-55,0,0,0,0,0,0,0,0,0,-1,916,1079,0,0
-301,-55,0,0,0,0,0,0,0,0,0,-1,923,1079,0,0
-294,-55,0,0,0,0,0,0,0,0,0,-1,930,1079,0,0
-287,-55,0,0,0,0,0,0,0,0,0,-1,937,1079,0,0
-280,-55,0,0,0,0,0,0,0,0,0,-1,944,1079,0,0
-273,-55,0,0,0,0,0,0,0,0,0,-1,951,1079,0,0
-266,-55,0,0,0,0,0,0,0,0,0,-1,958,1079,0,0
-259,-55,0,0,0,0,0,0,0,0,0,-1,965,1079,0,0
-252,-55,0,0,0,0,0,0,0,0,0,-1,972,1079,0,0
-245,-55,0,0,0,0,0,0,0,0,0,-1,979,1079,0,0
-238,-55,0,0,0,0,0,0,0,0,0,-1,986,1079,0,0
-231,-55,0,0,0,0,0,0,0,0,0,-1,993,1079,0,0
-224,-55,0,0,0,0,0,0,0,0,0,-1,1000,1079,0,0
-217,-55,0,0,0,0,0,0,0,0,0,-1,1007,1079,0,0
-210,-55,0,0,0,0,0,0,0,0,0,-1,1014,1079,0,0
-203,-55,0,0,0,0,0,0,0,0,0,-1,1021,1079,0,0
-196,-55,0,0,0,0,0,0,0,0,0,-1,1028,1079,0,0
-189,-55,0,0,0,0,0,0,0,0,0,-1,1035,1079,0,0
-182,-55,0,0,0,0,0,0,0,0,0,-1,1042,1079,0,0
-175,-55,0,0,0,0,0,0,0,0,0,-1,1049,1079,0,0
-168,-55,0,0,0,0,0,0,0,0,0,-1,1056,1079,0,0
-161,-55,0,0,0,0,0,0,0,0,0,-1,1063,1079,0,0
-154,-55,0,0,0,0,0,0,0,0,0,-1,1070,1079,0,0
-147,-55,0,0,0,0,0,0,0,0,0,-1,1077,1079,0,0
-140,-55,0,0,0,0,0,0,0,0,0,-1,1084,1079,0,0
-133,-55,0,0,0,0,0,0,0,0,0,-1,1091,1079,0,0
-126,-55,0,0,0,0,0,0,0,0,0,-1,1098,1079,0,0
-119,-55,0,0,0,0,0,0,0,0,0,-1,1105,1079,0,0
-112,-55,0,0,0,0,0,0,0,0,0,-1,1112,1079,0,0
-105,-55,0,0,0,0,0,0,0,0,0,-1,1119,1079,0,0
-98,-55,0,0,0,0,0,0,0,0,0,-1,1126,1079,0,0
-91,-55,0,0,0,0,0,0,0,0,0,-1,1133,1079,0,0
-84,-55,0,0,0,0,0,0,0,0,0,-1,1140,1079,0,0
-77,-55,0,0,0,0,0,0,0,0,0,-1,1147,1079,0,0
-70,-55,0,0,0,0,0,0,0,0,0,-1,1154,1079,0,0
-63,-55,0,0,0,0,0,0,0,0,0,-1,1161,1079,0,0
-56,-55,0,0,0,0,0,0,0,0,0,-1,1168,1079,0,0
-49,-55,0,0,0,0,0,0,0,0,0,-1,1175,1079,0,0
-42,-55,0,0,0,0,0,0,0,0,0,-1,1182,1079,0,0
-35,-55,0,0,0,0,0,0,0,0,0,-1,1189,1079,0,0
-28,-55,0,0,0,0,0,0,0,0,0,-1,1196,1079,0,0
-21,-55,0,0,0,0,0,0,0,0,0,-1,1203,1079,0,0
-14,-55,0,0,0,0,0,0,0,0,0,-1,1210,1079,0,0
-7,-55,0,0,0,0,0,0,0,0,0,-1,1217,1079,0,0
0,-55,0,0,0,0,0,0,0,0,0,-1,1224,1079,0,0
7,-55,0,0,0,0,0,0,0,0,0,-1,1231,1079,0,0
14,-55,0,0,0,0,0,0,0,0,0,-1,1238,1079,0,0
21,-55,0,0,0,0,0,0,0,0,0,-1,1245,1079,0,0
28,-55,0,0,0,0,0,0,0,0,0,-1,1252,1079,0,0
35,-55,0,0,0,0,0,0,0,0,0,-1,1259,1079,0,0
42,-55,0,0,0,0,0,0,0,0,0,-1,1266,1079,0,0
49,-55,0,0,0,0,0,0,0,0,0,-1,1273,1079,0,0
56,-55,0,0,0,0,0,0,0,0,0,-1,1280,1079,0,0
63,-55,0,0,0,0,0,0,0,0,0,-1,1287,1079,0,0
70,-55,0,0,0,0,0,0,0,0,0,-1,1294,1079,0,0
77,-55,0,0,0,0,0,0,0,0,0,-1,1301,1079,0,0
84,-55,0,0,0,0,0,0,0,0,0,-1,1308,1079,0,0
91,-55,0,0,0,0,0,0,0,0,0,-1,1315,1079,0,0
98,-55,0,0,0,0,0,0,0,0,0,-1,1322,1079,0,0
105,-55,0,0,0,0,0,0,0,0,0,-1,1329,1079,0,0
112,-55,0,0,0,0,0,0,0,0,0,-1,1336,1079,0,0
119,-55,0,0,0,0,0,0,0,0,0,-1,1343,1079,0,0
126,-55,0,0,0,0,0,0,0,0,0,-1,1350,1079,0,0
133,-55,0,0,0,0,0,0,0,0,0,-1,1357,1079,0,0
140,-55,0,0,0,0,0,0,0,0,0,-1,1364,1079,0,0
147,-55,0,0,0,0,0,0,0,0,0,-1,1371,1079,0,0
154,-55,0,0,0,0,0,0,0,0,0,-1,1378,1079,0,0
161,-55,0,0,0,0,0,0,0,0,0,-1,1385,1079,0,0
168,-55,0,0,0,0,0,0,0,0,0,-1,1392,1079,0,0
175,-55,0,0,0,0,0,0,0,0,0,-1,1399,1079,0,0
182,-55,0,0,0,0,0,0,0,0,0,-1,1406,1079,0,0
189,-55,0,0,0,0,0,0,0,0,0,-1,1413,1079,0,0
196,-55,0,0,0,0,0,0,0,0,0,-1,1420,1079,0,0
203,-55,0,0,0,0,0,0,0,0,0,-1,1427,1079,0,0
210,-55,0,0,0,0,0,0,0,0,0,-1,1434,1079,0,0
217,-55,0,0,0,0,0,0,0,0,0,-1,1441,1079,0,0
224,-55,0,0,0,0,0,0,0,0,0,-1,1448,1079,0,0
231,-55,0,0,0,0,0,0,0,0,0,-1,1455,1079,0,0
238,-55,0,0,0,0,0,0,0,0,0,-1,1462,1079,0,0
245,-55,0,0,0,0,0,0,0,0,0,-1,1469,1079,0,0
252,-55,0,0,0,0,0,0,0,0,0,-1,1476,1079,0,0
259,-55,0,0,0,0,0,0,0,0,0,-1,1483,1079,0,0
266,-55,0,0,0,0,0,0,0,0,0,-1,1490,1079,0,0
273,-55,0,0,0,0,0,0,0,0,0,-1,1497,1079,0,0
280,-55,0,0,0,0,0,0,0,0,0,-1,1504,1079,0,0
287,-55,0,0,0,0,0,0,0,0,0,-1,1511,1079,0,0
294,-55,0,0,0,0,0,0,0,0,0,-1,1518,1079,0,0
301,-55,0,0,0,0,0,0,0,0,0,-1,1525,1079,0,0
308,-55,0,0,0,0,0,0,0,0,0,-1,1532,1079,0,0
315,-55,0,0,0,0,0,0,0,0,0,-1,1539,1079,0,0
322,-55,0,0,0,0,0,0,0,0,0,-1,1546,1079,0,0
329,-55,0,0,0,0,0,0,0,0,0,-1,1553,1079,0,0
336,-55,0,0,0,0,0,0,0,0,0,-1,1560,1079,0,0
343,-55,0,0,0,0,0,0,0,0,0,-1,1567,1079,0,0
350,-55,0,0,0,0,0,0,0,0,0,-1,1574,1079,0,0
357,-55,0,0,0,0,0,0,0,0,0,-1,1581,1079,0,0
364,-55,0,0,0,0,0,0,0,0,0,-1,1588,1079,0,0
371,-55,0,0,0,0,0,0,0,0,0,-1,1595,1079,0,0
378,-55,0,0,0,0,0,0,0,0,0,-1,1602,1079,0,0
385,-55,0,0,0,0,0,0,0,0,0,-1,1609,1079,0,0
392,-55,0,0,0,0,0,0,0,0,0,-1,1616,1079,0,0
399,-55,0,0,0,0,0,0,0,0,0,-1,1623,1079,0,0
406,-55,0,0,0,0,0,0,0,0,0,-1,1630,1079,0,0
413,-55,0,0,0,0,0,0,0,0,0,-1,1637,1079,0,0
420,-55,0,0,0,0,0,0,0,0,0,-1,1644,1079,0,0
427,-55,0,0,0,0,0,0,0,0,0,-1,1651,1079,0,0
434,-55,0,0,0,0,0,0,0,0,0,-1,1658,1079,0,0
441,-55,0,0,0,0,0,0,0,0,0,-1,1665,1079,0,0
448,-55,0,0,0,0,0,0,0,0,0,-1,1672,1079,0,0
455,-55,0,0,0,0,0,0,0,0,0,-1,1679,1079,0,0
462,-55,0,0,0,0,0,0,0,0,0,-1,1686,1079,0,0
469,-55,0,0,0,0,0,0,0,0,0,-1,1693,1079,0,0
476,-55,0,0,0,0,0,0,0,0,0,-1,1700,1079,0,0
483,-55,0,0,0,0,0,0,0,0,0,-1,1707,1079,0,0
490,-55,0,0,0,0,0,0,0,0,0,-1,1714,1079,0,0
497,-55,0,0,0,0,0,0,0,0,0,-1,1721,1079,0,0
504,-55,0,0,0,0,0,0,0,0,0,-1,1728,1079,0,0
511,-55,0,0,0,0,0,0,0,0,0,-1,1735,1079,0,0
518,-55,0,0,0,0,0,0,0,0,0,-1,1742,1079,0,0
525,-55,0,0,0,0,0,0,0,0,0,-1,1749,1079,0,0
532,-55,0,0,0,0,0,0,0,0,0,-1,1756,1079,0,0
539,-55,0,0,0,0,0,0,0,0,0,-1,1763,1079,0,0
546,-55,0,0,0,0,0,0,0,0,0,-1,1770,1079,0,0
553,-55,0,0,0,0,0,0,0,0,0,-1,1777,1079,0,0
560,-55,0,0,0,0,0,0,0,0,0,-1,1784,1079,0,0
567,-55,0,0,0,0,0,0,0,0,0,-1,1791,1079,0,0
574,-55,0,0,0,0,0,0,0,0,0,-1,1798,1079,0,0
581,-55,0,0,0,0,0,0,0,0,0,-1,1805,1079,0,0
588,-55,0,0,0,0,0,0,0,0,0,-1,1812,1079,0,0
595,-55,0,0,0,0,0,0,0,0,0,-1,1819,1079,0,0
602,-55,0,0,0,0,0,0,0,0,0,-1,1826,1079,0,0
609,-55,0,0,0,0,0,0,0,0,0,-1,1833,1079,0,0
616,-55,0,0,0,0,0,0,0,0,0,-1,1840,1079,0,0
623,-55,0,0,0,0,0,0,0,0,0,-1,1847,1079,0,0
630,-55,0,0,0,0,0,0,0,0,0,-1,1854,1079,0,0
637,-55,0,0,0,0,0,0,0,0,0,-1,1861,1079,0,0
644,-55,0,0,0,0,0,0,0,0,0,-1,1868,1079,0,0
651,-55,27.0151,3.00342,-0.0014233,0.00229935,0.00389177,0.004752,-0.00387596,1.00846,0.00498991,0.0334496,1875,1079,27.0151,-3.00336
658,-55,27.0391,3.16565,-0.000227595,0.00227282,0.00259786,0.00390564,-0.00186042,1.00966,0.00339813,0.0344452,1882,1079,27.039,-3.16568
665,-55,26.9274,3.23132,0.000429874,0.00205648,0.00160248,0.00304023,-0.000553878,1.02022,0.00223445,0.0392156,1889,1079,26.9274,-3.23132
672,-55,26.9587,3.11926,0.000743731,0.00168245,0.00146929,0.00275553,-0.00032935,0.939999,0.00195607,0.0390537,1896,1079,26.9587,-3.1193
679,-55,27.0858,3.12769,0.000568498,0.00108769,0.0019293,0.00277478,-0.00111859,0.852273,0.00231464,0.0361106,1903,1079,27.0858,-3.12763
686,-55,27.1281,2.94397,3.67193e-05,0.000444199,0.00259818,0.00284662,-0.0023657,0.824526,0.0030136,0.0389826,1910,1079,27.1281,-2.94394
693,-55,26.9543,3.00916,-0.000481804,-0.00014046,0.00328138,0.00297468,-0.00359695,0.811381,0.0037998,0.0424527,1917,1079,26.9543,-3.0091
700,-55,26.9988,3.03223,-0.00094943,-0.000531405,0.00386876,0.00313398,-0.00461482,0.812385,0.00450092,0.0363088,1924,1079,26.9987,-3.0322
707,-55,26.9877,3.06238,-0.00123625,-0.000791026,0.00416828,0.00316058,-0.00518786,0.812076,0.00486712,0.0234141,1931,1079,26.9877,-3.06235
714,-55,27.0391,2.75,0,0,0,0,0,0,0,-1,1938,1079,27.0391,-2.74997
721,-55,26.8212,4.22522,0,0,0,0,0,0,0,-1,1945,1079,26.8212,-4.22522
728,-55,26.347,5.04895,0,0,0,0,0,0,0,-1,1952,1079,26.347,-5.04891
735,-55,26.2864,4.97375,-0.0028435,-0.00058477,0.00430684,0.00273832,-0.00616659,0.913624,0.00526672,0.0160478,1959,1079,26.2863,-4.97376
742,-55,26.2777,4.91052,-0.00289789,0.000135231,0.00426368,0.00314403,-0.00590669,0.956267,0.00530596,0.0159508,1966,1079,26.2777,-4.9105
749,-55,26.3091,4.81128,-0.00286177,0.000692104,0.00444941,0.00370628,-0.00587594,0.975378,0.00557937,0.0122121,1973,1079,26.3091,-4.81132
756,-55,26.29,4.74438,-0.00222071,0.00133522,0.0047162,0.00459746,-0.00548295,0.965656,0.00582741,0.0106637,1980,1079,26.29,-4.74442
763,-55,26.2621,4.69971,-0.00101885,0.0021976,0.00463504,0.00549549,-0.00431674,0.952385,0.0056787,0.0138924,1987,1079,26.2621,-4.69968
770,-55,26.2476,4.59741,0.000379369,0.00315259,0.00497165,0.00692738,-0.00339542,0.921394,0.00607504,0.0151119,1994,1079,26.2476,-4.59741
777,-55,26.2336,4.48669,0.00251299,0.00406253,0.00604578,0.00938298,-0.00280746,0.849126,0.00737156,0.0121603,2001,1079,26.2337,-4.48665
784,-55,26.2018,4.37341,0.00541108,0.00460267,0.00771643,0.0127339,-0.00272013,0.759231,0.00952631,0.0285945,2008,1079,26.2018,-4.3734
791,-55,26.0698,4.14746,0.00916662,0.00489187,0.00949435,0.0167612,-0.00270271,0.674684,0.0121754,0.0438788,2015,1079,26.0699,-4.14743
798,-55,25.8793,4.04688,0,0,0,0,0,0,0,-1,2022,1079,25.8793,-4.0469
805,-55,26.2446,4.23364,0.0215949,0.00443166,0.0126668,0.0283133,-0.00228673,0.487668,0.0196821,0.0428198,2029,1079,26.2447,-4.23369
812,-55,26.8142,4.03894,0.0312957,0.00359785,0.0132721,0.0366286,-0.00173502,0.382066,0.0250175,0.0423208,2036,1079,26.8142,-4.03893
-700,-62,-20.3301,-1.97192,0,0,0,0,0,0,0,-1,524,1086,-20.3301,1.97191
-693,-62,-20.5761,-1.1189,0,0,0,0,0,0,0,-1,531,1086,-20.5761,1.11889
-686,-62,-20.2763,-0.0527344,-0.0362748,0.0812244,0.0688727,0.113001,-0.0680513,1.13852,0.105599,0.0495357,538,1086,-20.2763,0.0527351
-679,-62,-19.3781,0.793213,0,0,0,0,0,0,0,-1,545,1086,-19.3781,-0.793166
-672,-62,-18.8782,1.80627,0,0,0,0,0,0,0,-1,552,1086,-18.8781,-1.80632
-665,-62,-18.2849,2.86072,0,0,0,0,0,0,0,-1,559,1086,-18.2849,-2.8607
-658,-62,-17.6783,3.90259,0,0,0,0,0,0,0,-1,566,1086,-17.6783,-3.90255
-651,-62,-18.0703,1.70874,-0.0102316,0.0255727,0.0188639,0.033677,-0.0183359,1.16502,0.0304619,0.0390803,573,1086,-18.0702,-1.7087
-644,-62,-18.129,1.87317,-0.00685517,0.0179317,0.012106,0.0228631,-0.0117866,1.18396,0.0203429,0.0128891,580,1086,-18.129,-1.87315
-637,-62,-18.1401,1.98755,-0.00456441,0.011318,0.00653989,0.0136643,-0.00691072,1.22633,0.0120904,0.0111977,587,1086,-18.1401,-1.9876
-630,-62,-18.1336,2.10522,-0.00291707,0.0056439,0.00195383,0.00606873,-0.0033419,1.35669,0.00550874,0.0128576,594,1086,-18.1336,-2.10518
-623,-62,-18.1396,2.24683,-0.00119932,0.00233972,-0.00137121,0.00280882,-0.00166842,-1.24117,0.00261274,0.014125,601,1086,-18.1396,-2.24681
-616,-62,-18.1445,2.37244,-0.00135904,0.000741105,-0.003811,0.00364405,-0.00426199,-0.919831,0.0045692,0.0135207,608,1086,-18.1445,-2.37238
-609,-62,-18.1318,2.49951,-0.00165912,-0.000220458,-0.00595477,0.00505828,-0.00693785,-0.845506,0.00695425,0.0128801,615,1086,-18.1317,-2.49957
-602,-62,-18.1015,2.5957,-0.00205508,-0.000978714,-0.00728734,0.00579029,-0.00882408,-0.822257,0.00849799,0.0132532,622,1086,-18.1015,-2.59575
-595,-62,-18.0501,2.70032,-0.00221812,-0.00139987,-0.00792772,0.00612928,-0.00974727,-0.811179,0.00924532,0.0199584,629,1086,-18.0501,-2.7003
-588,-62,-18.2128,2.1416,-0.00224599,-0.00168224,-0.00800157,0.00604241,-0.00997065,-0.803004,0.00933741,0.0361501,636,1086,-18.2127,-2.14157
-581,-62,-18.4448,1.46191,0,0,0,0,0,0,0,-1,643,1086,-18.4447,-1.4619
-574,-62,-18.6219,1.32239,-0.00233972,-0.00187088,-0.00696509,0.00486373,-0.00907433,-0.80222,0.00816862,0.0353568,650,1086,-18.6219,-1.32241
-567,-62,-18.6434,1.10437,-0.00236734,-0.001815,-0.00558833,0.00350398,-0.00768632,-0.810088,0.00660942,0.0410076,657,1086,-18.6434,-1.10431
-560,-62,-18.6522,0.86853,-0.00238632,-0.00165519,-0.00340975,0.00140853,-0.00545004,-0.8388,0.00418269,0.0445902,664,1086,-18.6522,-0.868586
-553,-62,-18.5825,0.875,-0.00241215,-0.00142508,-0.000345532,-0.00131614,-0.00252108,-1.26539,0.00145602,0.0401611,671,1086,-18.5825,-0.874974
-546,-62,-18.5651,1.1123,-0.00248205,-0.00117142,0.00366505,0.00189644,-0.00554991,0.873864,0.00446831,0.0326815,678,1086,-18.5651,-1.11232
-539,-62,-18.717,1.35364,-0.00272168,-0.000964351,0.00787836,0.00608419,-0.00977022,0.840933,0.00923564,0.0380101,685,1086,-18.7171,-1.35362
-532,-62,-18.7598,1.54236,-0.00406199,-0.00176407,0.00998052,0.00713341,-0.0129595,0.842706,0.0117621,0.0384877,692,1086,-18.7598,-1.54233
-525,-62,0,0,0,0,0,0,0,0,0,-1,699,1086,0,0
-518,-62,0,0,0,0,0,0,0,0,0,-1,706,1086,0,0
-511,-62,0,0,0,0,0,0,0,0,0,-1,713,1086,0,0
-504,-62,0,0,0,0,0,0,0,0,0,-1,720,1086,0,0
-497,-62,0,0,0,0,0,0,0,0,0,-1,727,1086,0,0
-490,-62,0,0,0,0,0,0,0,0,0,-1,734,1086,0,0
-483,-62,0,0,0,0,0,0,0,0,0,-1,741,1086,0,0
-476,-62,0,0,0,0,0,0,0,0,0,-1,748,1086,0,0
-469,-62,0,0,0,0,0,0,0,0,0,-1,755,1086,0,0
-462,-62,0,0,0,0,0,0,0,0,0,-1,762,1086,0,0
-455,-62,0,0,0,0,0,0,0,0,0,-1,769,1086,0,0
-448,-62,0,0,0,0,0,0,0,0,0,-1,776,1086,0,0
-441,-62,0,0,0,0,0,0,0,0,0,-1,783,1086,0,0
-434,-62,0,0,0,0,0,0,0,0,0,-1,790,1086,0,0
-427,-62,0,0,0,0,0,0,0,0,0,-1,797,1086,0,0
-420,-62,0,0,0,0,0,0,0,0,0,-1,804,1086,0,0
-413,-62,0,0,0,0,0,0,0,0,0,-1,811,1086,0,0
-406,-62,0,0,0,0,0,0,0,0,0,-1,818,1086,0,0
-399,-62,0,0,0,0,0,0,0,0,0,-1,825,1086,0,0
-392,-62,0,0,0,0,0,0,0,0,0,-1,832,1086,0,0
-385,-62,0,0,0,0,0,0,0,0,0,-1,839,1086,0,0
-378,-62,0,0,0,0,0,0,0,0,0,-1,846,1086,0,0
-371,-62,0,0,0,0,0,0,0,0,0,-1,853,1086,0,0
-364,-62,0,0,0,0,0,0,0,0,0,-1,860,1086,0,0
-357,-62,0,0,0,0,0,0,0,0,0,-1,867,1086,0,0
-350,-62,0,0,0,0,0,0,0,0,0,-1,874,1086,0,0
-343,-62,0,0,0,0,0,0,0,0,0,-1,881,1086,0,0
-336,-62,0,0,0,0,0,0,0,0,0,-1,888,1086,0,0
-329,-62,0,0,0,0,0,0,0,0,0,-1,895,1086,0,0
-322,-62,0,0,0,0,0,0,0,0,0,-1,902,1086,0,0
-315,-62,0,0,0,0,0,0,0,0,0,-1,909,1086,0,0
-308,-62,0,0,0,0,0,0,0,0,0,-1,916,1086,0,0
-301,-62,0,0,0,0,0,0,0,0,0,-1,923,1086,0,0
-294,-62,0,0,0,0,0,0,0,0,0,-1,930,1086,0,0
-287,-62,0,0,0,0,0,0,0,0,0,-1,937,1086,0,0
-280,-62,0,0,0,0,0,0,0,0,0,-1,944,1086,0,0
-273,-62,0,0,0,0,0,0,0,0,0,-1,951,1086,0,0
-266,-62,0,0,0,0,0,0,0,0,0,-1,958,1086,0,0
-259,-62,0,0,0,0,0,0,0,0,0,-1,965,1086,0,0
-252,-62,0,0,0,0,0,0,0,0,0,-1,972,1086,0,0
-245,-62,0,0,0,0,0,0,0,0,0,-1,979,1086,0,0
-238,-62,0,0,0,0,0,0,0,0,0,-1,986,1086,0,0
-231,-62,0,0,0,0,0,0,0,0,0,-1,993,1086,0,0
-224,-62,0,0,0,0,0,0,0,0,0,-1,1000,1086,0,0
-217,-62,0,0,0,0,0,0,0,0,0,-1,1007,1086,0,0
-210,-62,0,0,0,0,0,0,0,0,0,-1,1014,1086,0,0
-203,-62,0,0,0,0,0,0,0,0,0,-1,1021,1086,0,0
-196,-62,0,0,0,0,0,0,0,0,0,-1,1028,1086,0,0
-189,-62,0,0,0,0,0,0,0,0,0,-1,1035,1086,0,0
-182,-62,0,0,0,0,0,0,0,0,0,-1,1042,1086,0,0
-175,-62,0,0,0,0,0,0,0,0,0,-1,1049,1086,0,0
-168,-62,0,0,0,0,0,0,0,0,0,-1,1056,1086,0,0
-161,-62,0,0,0,0,0,0,0,0,0,-1,1063,1086,0,0
-154,-62,0,0,0,0,0,0,0,0,0,-1,1070,1086,0,0
-147,-62,0,0,0,0,0,0,0,0,0,-1,1077,1086,0,0
-140,-62,0,0,0,0,0,0,0,0,0,-1,1084,1086,0,0
-133,-62,0,0,0,0,0,0,0,0,0,-1,1091,1086,0,0
-126,-62,0,0,0,0,0,0,0,0,0,-1,1098,1086,0,0
-119,-62,0,0,0,0,0,0,0,0,0,-1,1105,1086,0,0
-112,-62,0,0,0,0,0,0,0,0,0,-1,1112,1086,0,0
-105,-62,0,0,0,0,0,0,0,0,0,-1,1119,1086,0,0
-98,-62,0,0,0,0,0,0,0,0,0,-1,1126,1086,0,0
-91,-62,0,0,0,0,0,0,0,0,0,-1,1133,1086,0,0
-84,-62,0,0,0,0,0,0,0,0,0,-1,1140,1086,0,0
-77,-62,0,0,0,0,0,0,0,0,0,-1,1147,1086,0,0
-70,-62,0,0,0,0,0,0,0,0,0,-1,1154,1086,0,0
-63,-62,0,0,0,0,0,0,0,0,0,-1,1161,1086,0,0
-56,-62,0,0,0,0,0,0,0,0,0,-1,1168,1086,0,0
-49,-62,0,0,0,0,0,0,0,0,0,-1,1175,1086,0,0
-42,-62,0,0,0,0,0,0,0,0,0,-1,1182,1086,0,0
-35,-62,0,0,0,0,0,0,0,0,0,-1,1189,1086,0,0
-28,-62,0,0,0,0,0,0,0,0,0,-1,1196,1086,0,0
-21,-62,0,0,0,0,0,0,0,0,0,-1,1203,1086,0,0
-14,-62,0,0,0,0,0,0,0,0,0,-1,1210,1086,0,0
-7,-62,0,0,0,0,0,0,0,0,0,-1,1217,1086,0,0
0,-62,0,0,0,0,0,0,0,0,0,-1,1224,1086,0,0
7,-62,0,0,0,0,0,0,0,0,0,-1,1231,1086,0,0
14,-62,0,0,0,0,0,0,0,0,0,-1,1238,1086,0,0
21,-62,0,0,0,0,0,0,0,0,0,-1,1245,1086,0,0
28,-62,0,0,0,0,0,0,0,0,0,-1,1252,1086,0,0
35,-62,0,0,0,0,0,0,0,0,0,-1,1259,1086,0,0
42,-62,0,0,0,0,0,0,0,0,0,-1,1266,1086,0,0
49,-62,0,0,0,0,0,0,0,0,0,-1,1273,1086,0,0
56,-62,0,0,0,0,0,0,0,0,0,-1,1280,1086,0,0
63,-62,0,0,0,0,0,0,0,0,0,-1,1287,1086,0,0
70,-62,0,0,0,0,0,0,0,0,0,-1,1294,1086,0,0
77,-62,0,0,0,0,0,0,0,0,0,-1,1301,1086,0,0
84,-62,0,0,0,0,0,0,0,0,0,-1,1308,1086,0,0
91,-62,0,0,0,0,0,0,0,0,0,-1,1315,1086,0,0
98,-62,0,0,0,0,0,0,0,0,0,-1,1322,1086,0,0
105,-62,0,0,0,0,0,0,0,0,0,-1,1329,1086,0,0
112,-62,0,0,0,0,0,0,0,0,0,-1,1336,1086,0,0
119,-62,0,0,0,0,0,0,0,0,0,-1,1343,1086,0,0
126,-62,0,0,0,0,0,0,0,0,0,-1,1350,1086,0,0
133,-62,0,0,0,0,0,0,0,0,0,-1,1357,1086,0,0
140,-62,0,0,0,0,0,0,0,0,0,-1,1364,1086,0,0
147,-62,0,0,0,0,0,0,0,0,0,-1,1371,1086,0,0
154,-62,0,0,0,0,0,0,0,0,0,-1,1378,1086,0,0
161,-62,0,0,0,0,0,0,0,0,0,-1,1385,1086,0,0
168,-62,0,0,0,0,0,0,0,0,0,-1,1392,1086,0,0
175,-62,0,0,0,0,0,0,0,0,0,-1,1399,1086,0,0
182,-62,0,0,0,0,0,0,0,0,0,-1,1406,1086,0,0
189,-62,0,0,0,0,0,0,0,0,0,-1,1413,1086,0,0
196,-62,0,0,0,0,0,0,0,0,0,-1,1420,1086,0,0
203,-62,0,0,0,0,0,0,0,0,0,-1,1427,1086,0,0
210,-62,0,0,0,0,0,0,0,0,0,-1,1434,1086,0,0
217,-62,0,0,0,0,0,0,0,0,0,-1,1441,1086,0,0
224,-62,0,0,0,0,0,0,0,0,0,-1,1448,1086,0,0
231,-62,0,0,0,0,0,0,0,0,0,-1,1455,1086,0,0
238,-62,0,0,0,0,0,0,0,0,0,-1,1462,1086,0,0
245,-62,0,0,0,0,0,0,0,0,0,-1,1469,1086,0,0
252,-62,0,0,0,0,0,0,0,0,0,-1,1476,1086,0,0
259,-62,0,0,0,0,0,0,0,0,0,-1,1483,1086,0,0
266,-62,0,0,0,0,0,0,0,0,0,-1,1490,1086,0,0
273,-62,0,0,0,0,0,0,0,0,0,-1,1497,1086,0,0
280,-62,0,0,0,0,0,0,0,0,0,-1,1504,1086,0,0
287,-62,0,0,0,0,0,0,0,0,0,-1,1511,1086,0,0
294,-62,0,0,0,0,0,0,0,0,0,-1,1518,1086,0,0
301,-62,0,0,0,0,0,0,0,0,0,-1,1525,1086,0,0
308,-62,0,0,0,0,0,0,0,0,0,-1,1532,1086,0,0
315,-62,0,0,0,0,0,0,0,0,0,-1,1539,1086,0,0
322,-62,0,0,0,0,0,0,0,0,0,-1,1546,1086,0,0
329,-62,0,0,0,0,0,0,0,0,0,-1,1553,1086,0,0
336,-62,0,0,0,0,0,0,0,0,0,-1,1560,1086,0,0
343,-62,0,0,0,0,0,0,0,0,0,-1,1567,1086,0,0
350,-62,0,0,0,0,0,0,0,0,0,-1,1574,1086,0,0
357,-62,0,0,0,0,0,0,0,0,0,-1,1581,1086,0,0
364,-62,0,0,0,0,0,0,0,0,0,-1,1588,1086,0,0
371,-62,0,0,0,0,0,0,0,0,0,-1,1595,1086,0,0
378,-62,0,0,0,0,0,0,0,0,0,-1,1602,1086,0,0
385,-62,0,0,0,0,0,0,0,0,0,-1,1609,1086,0,0
392,-62,0,0,0,0,0,0,0,0,0,-1,1616,1086,0,0
399,-62,0,0,0,0,0,0,0,0,0,-1,1623,1086,0,0
406,-62,0,0,0,0,0,0,0,0,0,-1,1630,1086,0,0
413,-62,0,0,0,0,0,0,0,0,0,-1,1637,1086,0,0
420,-62,0,0,0,0,0,0,0,0,0,-1,1644,1086,0,0
427,-62,0,0,0,0,0,0,0,0,0,-1,1651,1086,0,0
434,-62,0,0,0,0,0,0,0,0,0,-1,1658,1086,0,0
441,-62,0,0,0,0,0,0,0,0,0,-1,1665,1086,0,0
448,-62,0,0,0,0,0,0,0,0,0,-1,1672,1086,0,0
455,-62,0,0,0,0,0,0,0,0,0,-1,1679,1086,0,0
462,-62,0,0,0,0,0,0,0,0,0,-1,1686,1086,0,0
469,-62,0,0,0,0,0,0,0,0,0,-1,1693,1086,0,0
476,-62,0,0,0,0,0,0,0,0,0,-1,1700,1086,0,0
483,-62,0,0,0,0,0,0,0,0,0,-1,1707,1086,0,0
490,-62,0,0,0,0,0,0,0,0,0,-1,1714,1086,0,0
497,-62,0,0,0,0,0,0,0,0,0,-1,1721,1086,0,0
504,-62,0,0,0,0,0,0,0,0,0,-1,1728,1086,0,0
511,-62,0,0,0,0,0,0,0,0,0,-1,1735,1086,0,0
518,-62,0,0,0,0,0,0,0,0,0,-1,1742,1086,0,0
525,-62,0,0,0,0,0,0,0,0,0,-1,1749,1086,0,0
532,-62,0,0,0,0,0,0,0,0,0,-1,1756,1086,0,0
539,-62,0,0,0,0,0,0,0,0,0,-1,1763,1086,0,0
546,-62,0,0,0,0,0,0,0,0,0,-1,1770,1086,0,0
553,-62,0,0,0,0,0,0,0,0,0,-1,1777,1086,0,0
560,-62,0,0,0,0,0,0,0,0,0,-1,1784,1086,0,0
567,-62,0,0,0,0,0,0,0,0,0,-1,1791,1086,0,0
574,-62,0,0,0,0,0,0,0,0,0,-1,1798,1086,0,0
581,-62,0,0,0,0,0,0,0,0,0,-1,1805,1086,0,0
588,-62,0,0,0,0,0,0,0,0,0,-1,1812,1086,0,0
595,-62,0,0,0,0,0,0,0,0,0,-1,1819,1086,0,0
602,-62,0,0,0,0,0,0,0,0,0,-1,1826,1086,0,0
609,-62,0,0,0,0,0,0,0,0,0,-1,1833,1086,0,0
616,-62,0,0,0,0,0,0,0,0,0,-1,1840,1086,0,0
623,-62,0,0,0,0,0,0,0,0,0,-1,1847,1086,0,0
630,-62,0,0,0,0,0,0,0,0,0,-1,1854,1086,0,0
637,-62,0,0,0,0,0,0,0,0,0,-1,1861,1086,0,0
644,-62,0,0,0,0,0,0,0,0,0,-1,1868,1086,0,0
651,-62,26.9281,2.80273,-0.00026754,0.00161028,0.00242978,0.00327624,-0.00193351,0.969769,0.00304097,0.0397022,1875,1086,26.9282,-2.80271
658,-62,26.981,2.9458,0.000553945,0.00173264,0.00165625,0.00290127,-0.000614683,0.95633,0.00216832,0.0399506,1882,1086,26.9809,-2.94586
665,-62,26.9868,3.07434,0.000996983,0.00162627,0.000991212,0.00235158,0.000271675,0.939085,0.00148547,0.0395099,1889,1086,26.9869,-3.07433
672,-62,27.1146,3.12476,0.0010322,0.00127721,0.00117232,0.00233341,-2.3991e-05,0.837458,0.00156366,0.0368787,1896,1086,27.1146,-3.12478
679,-62,27.2029,3.17017,0.000564118,0.000722011,0.00182399,0.00246876,-0.00118263,0.807026,0.00215128,0.0356682,1903,1086,27.2029,-3.17016
686,-62,27.2427,3.05774,-0.000190526,0.00012042,0.00259379,0.0025634,-0.0026335,0.815333,0.00300052,0.0374293,1910,1086,27.2427,-3.05772
693,-62,27.0608,3.09216,-0.000861652,-0.000418106,0.00331295,0.00268049,-0.00396024,0.818819,0.00385769,0.0383397,1917,1086,27.0608,-3.09219
700,-62,26.9724,3.07214,-0.00144148,-0.000748661,0.00390838,0.00282863,-0.00501877,0.829599,0.00458914,0.0306696,1924,1086,26.9724,-3.0721
707,-62,26.9519,3.03491,-0.00179896,-0.000961374,0.00423762,0.0028781,-0.00563843,0.834652,0.00500237,0.0185994,1931,1086,26.9519,-3.03493
714,-62,26.9738,3.08765,-0.00211539,-0.00117412,0.0044034,0.00278373,-0.00607324,0.838636,0.00522981,0.0240969,1938,1086,26.9738,-3.08762
721,-62,26.9613,4.20667,0,0,0,0,0,0,0,-1,1945,1086,26.9613,-4.20666
728,-62,26.2288,5.0885,0,0,0,0,0,0,0,-1,1952,1086,26.2288,-5.08856
735,-62,26.2144,4.97021,-0.00328796,-0.000697056,0.00421598,0.00241801,-0.00640303,0.934456,0.00526321,0.0182211,1959,1086,26.2143,-4.97027
742,-62,26.1929,4.9375,-0.00328738,4.06852e-05,0.00422773,0.00292008,-0.00616677,0.972886,0.00535676,0.0170647,1966,1086,26.1928,-4.93753
749,-62,26.1923,4.81775,-0.00313653,0.000552763,0.00452581,0.00359541,-0.00617918,0.978912,0.00570871,0.0141847,1973,1086,26.1922,-4.81779
756,-62,26.1532,4.76404,-0.00241476,0.00115872,0.00500301,0.00468447,-0.00594051,0.956906,0.00614861,0.0129043,1980,1086,26.1532,-4.76399
763,-62,26.1619,4.68054,-0.0011681,0.00192756,0.00521797,0.00582243,-0.00506297,0.929582,0.00628978,0.0139915,1987,1086,26.1618,-4.6805
770,-62,26.1697,4.56238,0.000284222,0.00274991,0.00595293,0.00759632,-0.00456219,0.887504,0.0070922,0.0114444,1994,1086,26.1696,-4.56236
777,-62,26.1351,4.42065,0.002296,0.00342173,0.00768396,0.0105634,-0.00484568,0.821959,0.00909831,0.0128305,2001,1086,26.1351,-4.42068
784,-62,26.095,4.25574,0.00493542,0.00373855,0.010045,0.0143998,-0.00572587,0.755646,0.0119739,0.0274575,2008,1086,26.095,-4.25579
791,-62,26.0381,3.96887,0.00830471,0.00375005,0.0126204,0.0188516,-0.00679685,0.696135,0.0153436,0.044728,2015,1086,26.038,-3.96884
798,-62,25.9709,3.79492,0,0,0,0,0,0,0,-1,2022,1086,25.971,-3.7949
805,-62,26.3887,4.46948,0.0192932,0.0025401,0.0178327,0.0306187,-0.0087854,0.565828,0.0238857,0.0416619,2029,1086,26.3887,-4.46946
812,-62,26.8755,4.16504,0.0278074,0.00120608,0.019666,0.0382483,-0.00923476,0.488067,0.0290702,0.0448701,2036,1086,26.8756,-4.16507
-700,-69,-17.5657,-1.06482,0,0,0,0,0,0,0,-1,524,1093,-17.5657,1.06482
-693,-69,-21.9868,-1.10498,0,0,0,0,0,0,0,-1,531,1093,-21.9868,1.10499
-686,-69,-20.6385,-0.134888,0,0,0,0,0,0,0,-1,538,1093,-20.6385,0.134852
-679,-69,-19.2902,0.835327,0,0,0,0,0,0,0,-1,545,1093,-19.2902,-0.835285
-672,-69,-18.7271,1.67236,0,0,0,0,0,0,0,-1,552,1093,-18.7271,-1.6724
-665,-69,-18.1017,2.76367,0,0,0,0,0,0,0,-1,559,1093,-18.1017,-2.76372
-658,-69,-17.7856,1.50708,-0.0137117,0.0324133,0.0274765,0.0452233,-0.0265217,1.13454,0.0418885,0.0472953,566,1093,-17.7856,-1.50705
-651,-69,-17.9286,1.74219,-0.00978671,0.0240397,0.0201261,0.0334156,-0.0191626,1.13483,0.0307255,0.0348936,573,1093,-17.9286,-1.74224
-644,-69,-17.986,1.85803,-0.0066141,0.0167724,0.0131834,0.0227011,-0.0125428,1.14818,0.0206279,0.0102117,580,1093,-17.986,-1.85803
-637,-69,-18.001,1.97327,-0.00441767,0.0103894,0.00746874,0.0135022,-0.00753053,1.1759,0.0123053,0.0120948,587,1093,-18.0011,-1.9733
-630,-69,-17.9982,2.09351,-0.00289379,0.00573402,0.00232224,0.00631936,-0.00347913,1.32388,0.00573583,0.0138569,594,1093,-17.9983,-2.09354
-623,-69,-17.9866,2.22632,-0.00130469,0.00237246,-0.00111886,0.00268614,-0.00161837,-1.29746,0.00251057,0.0129596,601,1093,-17.9866,-2.22635
-616,-69,-17.9728,2.33093,-0.0014193,0.000750659,-0.00360696,0.00343229,-0.00410093,-0.931494,0.00435502,0.0131448,608,1093,-17.9728,-2.33095
-609,-69,-17.9692,2.45886,-0.00165257,-0.00037607,-0.00564613,0.00466777,-0.00669641,-0.84168,0.00659587,0.0117183,615,1093,-17.9692,-2.45881
-602,-69,-17.98,2.59705,-0.0020339,-0.00118643,-0.00697593,0.00537863,-0.00859895,-0.815732,0.00814104,0.0153811,622,1093,-17.98,-2.59707
-595,-69,-17.9434,2.69397,-0.00226604,-0.00161833,-0.00757426,0.00563899,-0.00952336,-0.806764,0.00884923,0.0209802,629,1093,-17.9434,-2.69393
-588,-69,-18.1774,2.37585,-0.00233335,-0.00191545,-0.00762584,0.0055043,-0.0097531,-0.799095,0.00892199,0.0328077,636,1093,-18.1775,-2.3759
-581,-69,-18.5486,1.72205,-0.0023886,-0.00204331,-0.0072766,0.00506269,-0.0094946,-0.797259,0.00853351,0.038946,643,1093,-18.5486,-1.72201
-574,-69,-18.6594,1.24719,-0.00243234,-0.00213714,-0.00659703,0.00431394,-0.00888342,-0.796583,0.00777025,0.0330254,650,1093,-18.6594,-1.24714
-567,-69,-18.6628,1.02881,-0.00244674,-0.00211092,-0.00525952,0.00298338,-0.00754103,-0.801355,0.00626331,0.0401908,657,1093,-18.6629,-1.02876
-560,-69,-18.7779,0.913086,-0.00245022,-0.00196746,-0.00317635,0.000976671,-0.00539435,-0.823322,0.00396212,0.0435387,664,1093,-18.7779,-0.913088
-553,-69,-18.6597,1.18884,-0.00248288,-0.00172414,-0.000286107,-0.00162835,-0.00257867,-1.24771,0.00150585,0.0411045,671,1093,-18.6597,-1.18886
-546,-69,-18.5873,1.33142,-0.00256471,-0.00139913,0.00345161,0.00151854,-0.00548238,0.869032,0.00425246,0.0381227,678,1093,-18.5873,-1.3314
-539,-69,-18.6035,1.41479,-0.00280512,-0.00103991,0.00740158,0.0055315,-0.00937654,0.844741,0.00870206,0.0416442,685,1093,-18.6035,-1.41474
-532,-69,-18.5716,1.55933,-0.00420637,-0.00168953,0.00927243,0.00640949,-0.0123054,0.852844,0.0109823,0.0407797,692,1093,-18.5716,-1.55927
-525,-69,0,0,0,0,0,0,0,0,0,-1,699,1093,0,0
-518,-69,0,0,0,0,0,0,0,0,0,-1,706,1093,0,0
-511,-69,0,0,0,0,0,0,0,0,0,-1,713,1093,0,0
-504,-69,0,0,0,0,0,0,0,0,0,-1,720,1093,0,0
-497,-69,0,0,0,0,0,0,0,0,0,-1,727,1093,0,0
-490,-69,0,0,0,0,0,0,0,0,0,-1,734,1093,0,0
-483,-69,0,0,0,0,0,0,0,0,0,-1,741,1093,0,0
-476,-69,0,0,0,0,0,0,0,0,0,-1,748,1093,0,0
-469,-69,0,0,0,0,0,0,0,0,0,-1,755,1093,0,0
-462,-69,0,0,0,0,0,0,0,0,0,-1,762,1093,0,0
-455,-69,0,0,0,0,0,0,0,0,0,-1,769,1093,0,0
-448,-69,0,0,0,0,0,0,0,0,0,-1,776,1093,0,0
-441,-69,0,0,0,0,0,0,0,0,0,-1,783,1093,0,0
-434,-69,0,0,0,0,0,0,0,0,0,-1,790,1093,0,0
-427,-69,0,0,0,0,0,0,0,0,0,-1,797,1093,0,0
-420,-69,0,0,0,0,0,0,0,0,0,-1,804,1093,0,0
-413,-69,0,0,0,0,0,0,0,0,0,-1,811,1093,0,0
-406,-69,0,0,0,0,0,0,0,0,0,-1,818,1093,0,0
-399,-69,0,0,0,0,0,0,0,0,0,-1,825,1093,0,0
-392,-69,0,0,0,0,0,0,0,0,0,-1,832,1093,0,0
-385,-69,0,0,0,0,0,0,0,0,0,-1,839,1093,0,0
-378,-69,0,0,0,0,0,0,0,0,0,-1,846,1093,0,0
-371,-69,0,0,0,0,0,0,0,0,0,-1,853,1093,0,0
-364,-69,0,0,0,0,0,0,0,0,0,-1,860,1093,0,0
-357,-69,0,0,0,0,0,0,0,0,0,-1,867,1093,0,0
-350,-69,0,0,0,0,0,0,0,0,0,-1,874,1093,0,0
-343,-69,0,0,0,0,0,0,0,0,0,-1,881,1093,0,0
-336,-69,0,0,0,0,0,0,0,0,0,-1,888,1093,0,0
-329,-69,0,0,0,0,0,0,0,0,0,-1,895,1093,0,0
-322,-69,0,0,0,0,0,0,0,0,0,-1,902,1093,0,0
-315,-69,0,0,0,0,0,0,0,0,0,-1,909,1093,0,0
-308,-69,0,0,0,0,0,0,0,0,0,-1,916,1093,0,0
-301,-69,0,0,0,0,0,0,0,0,0,-1,923,1093,0,0
-294,-69,0,0,0,0,0,0,0,0,0,-1,930,1093,0,0
-287,-69,0,0,0,0,0,0,0,0,0,-1,937,1093,0,0
-280,-69,0,0,0,0,0,0,0,0,0,-1,944,1093,0,0
-273,-69,0,0,0,0,0,0,0,0,0,-1,951,1093,0,0
-266,-69,0,0,0,0,0,0,0,0,0,-1,958,1093,0,0
-259,-69,0,0,0,0,0,0,0,0,0,-1,965,1093,0,0
-252,-69,0,0,0,0,0,0,0,0,0,-1,972,1093,0,0
-245,-69,0,0,0,0,0,0,0,0,0,-1,979,1093,0,0
-238,-69,0,0,0,0,0,0,0,0,0,-1,986,1093,0,0
-231,-69,0,0,0,0,0,0,0,0,0,-1,993,1093,0,0
-224,-69,0,0,0,0,0,0,0,0,0,-1,1000,1093,0,0
-217,-69,0,0,0,0,0,0,0,0,0,-1,1007,1093,0,0
-210,-69,0,0,0,0,0,0,0,0,0,-1,1014,1093,0,0
-203,-69,0,0,0,0,0,0,0,0,0,-1,1021,1093,0,0
-196,-69,0,0,0,0,0,0,0,0,0,-1,1028,1093,0,0
-189,-69,0,0,0,0,0,0,0,0,0,-1,1035,1093,0,0
-182,-69,0,0,0,0,0,0,0,0,0,-1,1042,1093,0,0
-175,-69,0,0,0,0,0,0,0,0,0,-1,1049,1093,0,0
-168,-69,0,0,0,0,0,0,0,0,0,-1,1056,1093,0,0
-161,-69,0,0,0,0,0,0,0,0,0,-1,1063,1093,0,0
-154,-69,0,0,0,0,0,0,0,0,0,-1,1070,1093,0,0
-147,-69,0,0,0,0,0,0,0,0,0,-1,1077,1093,0,0
-140,-69,0,0,0,0,0,0,0,0,0,-1,1084,1093,0,0
-133,-69,0,0,0,0,0,0,0,0,0,-1,1091,1093,0,0
-126,-69,0,0,0,0,0,0,0,0,0,-1,1098,1093,0,0
-119,-69,0,0,0,0,0,0,0,0,0,-1,1105,1093,0,0
-112,-69,0,0,0,0,0,0,0,0,0,-1,1112,1093,0,0
-105,-69,0,0,0,0,0,0,0,0,0,-1,1119,1093,0,0
-98,-69,0,0,0,0,0,0,0,0,0,-1,1126,1093,0,0
-91,-69,0,0,0,0,0,0,0,0,0,-1,1133,1093,0,0
-84,-69,0,0,0,0,0,0,0,0,0,-1,1140,1093,0,0
-77,-69,0,0,0,0,0,0,0,0,0,-1,1147,1093,0,0
-70,-69,0,0,0,0,0,0,0,0,0,-1,1154,1093,0,0
-63,-69,0,0,0,0,0,0,0,0,0,-1,1161,1093,0,0
-56,-69,0,0,0,0,0,0,0,0,0,-1,1168,1093,0,0
-49,-69,0,0,0,0,0,0,0,0,0,-1,1175,1093,0,0
-42,-69,0,0,0,0,0,0,0,0,0,-1,1182,1093,0,0
-35,-69,0,0,0,0,0,0,0,0,0,-1,1189,1093,0,0
-28,-69,0,0,0,0,0,0,0,0,0,-1,1196,1093,0,0
-21,-69,0,0,0,0,0,0,0,0,0,-1,1203,1093,0,0
-14,-69,0,0,0,0,0,0,0,0,0,-1,1210,1093,0,0
-7,-69,0,0,0,0,0,0,0,0,0,-1,1217,1093,0,0
0,-69,0,0,0,0,0,0,0,0,0,-1,1224,1093,0,0
7,-69,0,0,0,0,0,0,0,0,0,-1,1231,1093,0,0
14,-69,0,0,0,0,0,0,0,0,0,-1,1238,1093,0,0
21,-69,0,0,0,0,0,0,0,0,0,-1,1245,1093,0,0
28,-69,0,0,0,0,0,0,0,0,0,-1,1252,1093,0,0
35,-69,0,0,0,0,0,0,0,0,0,-1,1259,1093,0,0
42,-69,0,0,0,0,0,0,0,0,0,-1,1266,1093,0,0
49,-69,0,0,0,0,0,0,0,0,0,-1,1273,1093,0,0
56,-69,0,0,0,0,0,0,0,0,0,-1,1280,1093,0,0
63,-69,0,0,0,0,0,0,0,0,0,-1,1287,1093,0,0
70,-69,0,0,0,0,0,0,0,0,0,-1,1294,1093,0,0
77,-69,0,0,0,0,0,0,0,0,0,-1,1301,1093,0,0
84,-69,0,0,0,0,0,0,0,0,0,-1,1308,1093,0,0
91,-69,0,0,0,0,0,0,0,0,0,-1,1315,1093,0,0
98,-69,0,0,0,0,0,0,0,0,0,-1,1322,1093,0,0
105,-69,0,0,0,0,0,0,0,0,0,-1,1329,1093,0,0
112,-69,0,0,0,0,0,0,0,0,0,-1,1336,1093,0,0
119,-69,0,0,0,0,0,0,0,0,0,-1,1343,1093,0,0
126,-69,0,0,0,0,0,0,0,0,0,-1,1350,1093,0,0
133,-69,0,0,0,0,0,0,0,0,0,-1,1357,1093,0,0
140,-69,0,0,0,0,0,0,0,0,0,-1,1364,1093,0,0
147,-69,0,0,0,0,0,0,0,0,0,-1,1371,1093,0,0
154,-69,0,0,0,0,0,0,0,0,0,-1,1378,1093,0,0
161,-69,0,0,0,0,0,0,0,0,0,-1,1385,1093,0,0
168,-69,0,0,0,0,0,0,0,0,0,-1,1392,1093,0,0
175,-69,0,0,0,0,0,0,0,0,0,-1,1399,1093,0,0
182,-69,0,0,0,0,0,0,0,0,0,-1,1406,1093,0,0
189,-69,0,0,0,0,0,0,0,0,0,-1,1413,1093,0,0
196,-69,0,0,0,0,0,0,0,0,0,-1,1420,1093,0,0
203,-69,0,0,0,0,0,0,0,0,0,-1,1427,1093,0,0
210,-69,0,0,0,0,0,0,0,0,0,-1,1434,1093,0,0
217,-69,0,0,0,0,0,0,0,0,0,-1,1441,1093,0,0
224,-69,0,0,0,0,0,0,0,0,0,-1,1448,1093,0,0
231,-69,0,0,0,0,0,0,0,0,0,-1,1455,1093,0,0
238,-69,0,0,0,0,0,0,0,0,0,-1,1462,1093,0,0
245,-69,0,0,0,0,0,0,0,0,0,-1,1469,1093,0,0
252,-69,0,0,0,0,0,0,0,0,0,-1,1476,1093,0,0
259,-69,0,0,0,0,0,0,0,0,0,-1,1483,1093,0,0
266,-69,0,0,0,0,0,0,0,0,0,-1,1490,1093,0,0
273,-69,0,0,0,0,0,0,0,0,0,-1,1497,1093,0,0
280,-69,0,0,0,0,0,0,0,0,0,-1,1504,1093,0,0
287,-69,0,0,0,0,0,0,0,0,0,-1,1511,1093,0,0
294,-69,0,0,0,0,0,0,0,0,0,-1,1518,1093,0,0
301,-69,0,0,0,0,0,0,0,0,0,-1,1525,1093,0,0
308,-69,0,0,0,0,0,0,0,0,0,-1,1532,1093,0,0
315,-69,0,0,0,0,0,0,0,0,0,-1,1539,1093,0,0
322,-69,0,0,0,0,0,0,0,0,0,-1,1546,1093,0,0
329,-69,0,0,0,0,0,0,0,0,0,-1,1553,1093,0,0
336,-69,0,0,0,0,0,0,0,0,0,-1,1560,1093,0,0
343,-69,0,0,0,0,0,0,0,0,0,-1,1567,1093,0,0
350,-69,0,0,0,0,0,0,0,0,0,-1,1574,1093,0,0
357,-69,0,0,0,0,0,0,0,0,0,-1,1581,1093,0,0
364,-69,0,0,0,0,0,0,0,0,0,-1,1588,1093,0,0
371,-69,0,0,0,0,0,0,0,0,0,-1,1595,1093,0,0
378,-69,0,0,0,0,0,0,0,0,0,-1,1602,1093,0,0
385,-69,0,0,0,0,0,0,0,0,0,-1,1609,1093,0,0
392,-69,0,0,0,0,0,0,0,0,0,-1,1616,1093,0,0
399,-69,0,0,0,0,0,0,0,0,0,-1,1623,1093,0,0
406,-69,0,0,0,0,0,0,0,0,0,-1,1630,1093,0,0
413,-69,0,0,0,0,0,0,0,0,0,-1,1637,1093,0,0
420,-69,0,0,0,0,0,0,0,0,0,-1,1644,1093,0,0
427,-69,0,0,0,0,0,0,0,0,0,-1,1651,1093,0,0
434,-69,0,0,0,0,0,0,0,0,0,-1,1658,1093,0,0
441,-69,0,0,0,0,0,0,0,0,0,-1,1665,1093,0,0
448,-69,0,0,0,0,0,0,0,0,0,-1,1672,1093,0,0
455,-69,0,0,0,0,0,0,0,0,0,-1,1679,1093,0,0
462,-69,0,0,0,0,0,0,0,0,0,-1,1686,1093,0,0
469,-69,0,0,0,0,0,0,0,0,0,-1,1693,1093,0,0
476,-69,0,0,0,0,0,0,0,0,0,-1,1700,1093,0,0
483,-69,0,0,0,0,0,0,0,0,0,-1,1707,1093,0,0
490,-69,0,0,0,0,0,0,0,0,0,-1,1714,1093,0,0
497,-69,0,0,0,0,0,0,0,0,0,-1,1721,1093,0,0
504,-69,0,0,0,0,0,0,0,0,0,-1,1728,1093,0,0
511,-69,0,0,0,0,0,0,0,0,0,-1,1735,1093,0,0
518,-69,0,0,0,0,0,0,0,0,0,-1,1742,1093,0,0
525,-69,0,0,0,0,0,0,0,0,0,-1,1749,1093,0,0
532,-69,0,0,0,0,0,0,0,0,0,-1,1756,1093,0,0
539,-69,0,0,0,0,0,0,0,0,0,-1,1763,1093,0,0
546,-69,0,0,0,0,0,0,0,0,0,-1,1770,1093,0,0
553,-69,0,0,0,0,0,0,0,0,0,-1,1777,1093,0,0
560,-69,0,0,0,0,0,0,0,0,0,-1,1784,1093,0,0
567,-69,0,0,0,0,0,0,0,0,0,-1,1791,1093,0,0
574,-69,0,0,0,0,0,0,0,0,0,-1,1798,1093,0,0
581,-69,0,0,0,0,0,0,0,0,0,-1,1805,1093,0,0
588,-69,0,0,0,0,0,0,0,0,0,-1,1812,1093,0,0
595,-69,0,0,0,0,0,0,0,0,0,-1,1819,1093,0,0
602,-69,0,0,0,0,0,0,0,0,0,-1,1826,1093,0,0
609,-69,0,0,0,0,0,0,0,0,0,-1,1833,1093,0,0
616,-69,0,0,0,0,0,0,0,0,0,-1,1840,1093,0,0
623,-69,0,0,0,0,0,0,0,0,0,-1,1847,1093,0,0
630,-69,0,0,0,0,0,0,0,0,0,-1,1854,1093,0,0
637,-69,0,0,0,0,0,0,0,0,0,-1,1861,1093,0,0
644,-69,0,0,0,0,0,0,0,0,0,-1,1868,1093,0,0
651,-69,26.9249,2.74976,0.0010025,0.000856952,0.000490892,0.00142598,0.00043347,0.711809,0.000844118,0.0430882,1875,1093,26.925,-2.74976
658,-69,26.8906,2.67725,0.001384,0.00106768,0.000322084,0.00158466,0.00086702,0.557169,0.000916258,0.0456747,1882,1093,26.8906,-2.67728
665,-69,26.8774,2.95447,0.0015422,0.00103733,9.56729e-05,0.00155972,0.00101981,0.181137,0.000914604,0.0435079,1889,1093,26.8774,-2.9545
672,-69,26.936,3.10291,0.00127943,0.000710992,0.000643438,0.00169863,0.000291796,0.577425,0.00104877,0.0381175,1896,1093,26.9361,-3.1029
679,-69,26.9471,3.12109,0.000527734,0.000189432,0.00154084,0.00190868,-0.00119152,0.730728,0.00180579,0.0367203,1903,1093,26.9471,-3.12108
686,-69,27.02,3.12622,-0.000410769,-0.000365817,0.00244797,0.00205978,-0.00283637,0.789989,0.00283862,0.0378917,1910,1093,27.02,-3.12621
693,-69,26.9962,3.09766,-0.00119588,-0.000852277,0.00323449,0.00221497,-0.00426313,0.811931,0.00380193,0.0362329,1917,1093,26.9962,-3.0976
700,-69,26.9469,3.01855,-0.00187084,-0.00112657,0.00386421,0.00238338,-0.00538079,0.833402,0.00459265,0.0277375,1924,1093,26.9469,-3.01861
707,-69,26.9381,3.01172,-0.00228446,-0.00130174,0.00425753,0.00249269,-0.00607889,0.842849,0.00509113,0.0175121,1931,1093,26.9381,-3.01173
714,-69,26.9779,3.02344,-0.00260942,-0.0014709,0.00444696,0.00244309,-0.00652341,0.849057,0.0053525,0.0211513,1938,1093,26.978,-3.02342
721,-69,26.9464,4.92566,0,0,0,0,0,0,0,-1,1945,1093,26.9464,-4.92569
728,-69,26.3647,5.0083,-0.00337326,-0.00130071,0.00437793,0.00216192,-0.00683589,0.901612,0.00542349,0.036288,1952,1093,26.3648,-5.00828
735,-69,26.1095,5.05725,-0.00366004,-0.000920098,0.00415839,0.00208818,-0.00666831,0.944523,0.00528106,0.0211663,1959,1093,26.1095,-5.05729
742,-69,26.1023,4.95349,-0.00360602,-0.000129524,0.0042204,0.00269657,-0.00643212,0.980746,0.00541555,0.016326,1966,1093,26.1022,-4.95351
749,-69,26.0157,4.83606,-0.00335596,0.000394961,0.00459697,0.00348433,-0.00644532,0.97908,0.00581723,0.0175592,1973,1093,26.0158,-4.83603
756,-69,26.0447,4.75769,-0.00258624,0.000989641,0.0052655,0.00476247,-0.00635907,0.949069,0.00644304,0.0144906,1980,1093,26.0447,-4.75767
763,-69,26.0458,4.64612,-0.00133698,0.00166881,0.00578024,0.00613834,-0.00580652,0.912585,0.00689726,0.0145116,1987,1093,26.0458,-4.64618
770,-69,26.0558,4.53442,0.000115079,0.00239492,0.00692092,0.00826917,-0.00575916,0.867019,0.00814236,0.0146689,1994,1093,26.0558,-4.53441
777,-69,26.024,4.41357,0.00195113,0.00285734,0.00924509,0.0116604,-0.00685195,0.809884,0.0108076,0.0189659,2001,1093,26.024,-4.41355
784,-69,25.9825,4.24902,0.00427443,0.00294547,0.0122845,0.0159124,-0.00869247,0.758379,0.014408,0.0319341,2008,1093,25.9825,-4.24898
791,-69,25.9677,3.91882,0.00720115,0.0026148,0.0157256,0.0207999,-0.010984,0.712997,0.0186399,0.0438184,2015,1093,25.9677,-3.91878
798,-69,25.9513,3.7196,0,0,0,0,0,0,0,-1,2022,1093,25.9513,-3.71963
805,-69,26.1733,4.91589,0.0166794,0.000320176,0.0232254,0.0331234,-0.0161239,0.616089,0.0289921,0.0436249,2029,1093,26.1734,-4.91587
812,-69,26.7156,4.65649,0.0240036,-0.0018587,0.0264619,0.0405249,-0.01838,0.558127,0.0348007,0.0451102,2036,1093,26.7156,-4.6565
-700,-76,0,0,0,0,0,0,0,0,0,-1,524,1100,0,0
-693,-76,-16.0314,1.36804,0,0,0,0,0,0,0,-1,531,1100,-16.0314,-1.36804
-686,-76,-21.1533,-0.0234375,0,0,0,0,0,0,0,-1,538,1100,-21.1533,0.0234925
-679,-76,-15.8974,2.02319,0,0,0,0,0,0,0,-1,545,1100,-15.8974,-2.0232
-672,-76,-17.3665,1.30408,0,0,0,0,0,0,0,-1,552,1100,-17.3665,-1.30409
-665,-76,-17.4601,1.34448,-0.0131892,0.0419172,0.0331719,0.0574865,-0.0287585,1.13197,0.050706,0.0446042,559,1100,-17.4601,-1.34447
-658,-76,-17.6756,1.48889,-0.0093087,0.0320717,0.0254308,0.0441658,-0.0214028,1.12688,0.0386089,0.0451873,566,1100,-17.6756,-1.48892
-651,-76,-17.7589,1.66675,-0.00616998,0.0237341,0.0187985,0.0328018,-0.0152376,1.12136,0.0283468,0.0281801,573,1100,-17.7589,-1.66671
-644,-76,-17.7944,1.82874,-0.00377525,0.0165508,0.0125088,0.0225047,-0.0097292,1.12655,0.0190913,0.0102895,580,1100,-17.7944,-1.82874
-637,-76,-17.8408,1.95129,-0.00223976,0.0100828,0.00754706,0.0136642,-0.00582114,1.12772,0.0115496,0.0132638,587,1100,-17.8408,-1.95128
-630,-76,-17.8475,2.07275,-0.00152372,0.00584289,0.0025737,0.00665299,-0.00233381,1.26585,0.00538458,0.0148096,594,1100,-17.8475,-2.07277
-623,-76,-17.838,2.20728,-0.000573531,0.00248095,-0.000803801,0.00267956,-0.00077214,-1.32856,0.00209181,0.0136921,601,1100,-17.838,-2.20725
-616,-76,-17.8411,2.32239,-0.000888761,0.000870133,-0.0031517,0.00326279,-0.00328142,-0.921457,0.0037783,0.0120892,608,1100,-17.8411,-2.32237
-609,-76,-17.8392,2.46411,-0.0013092,-0.000381079,-0.0050762,0.00425223,-0.0059425,-0.830981,0.00591284,0.0124634,615,1100,-17.8391,-2.46412
-602,-76,-17.8364,2.60254,-0.00185533,-0.00126249,-0.00632281,0.00477084,-0.00788866,-0.808821,0.00738249,0.0164886,622,1100,-17.8363,-2.6025
-595,-76,-17.8099,2.70337,-0.00214375,-0.00167799,-0.00683537,0.00492846,-0.00875021,-0.802427,0.00799947,0.0221467,629,1100,-17.8099,-2.7034
-588,-76,-17.7722,2.80518,0,0,0,0,0,0,0,-1,636,1100,-17.7722,-2.8052
-581,-76,-18.4459,1.45117,-0.00226816,-0.00198587,-0.00653557,0.00441007,-0.00866411,-0.796195,0.00768042,0.0388887,643,1100,-18.4459,-1.45113
-574,-76,-18.605,0.985962,-0.00229937,-0.00201652,-0.005915,0.00375875,-0.00807463,-0.797351,0.00698183,0.036211,650,1100,-18.6051,-0.985968
-567,-76,-18.4789,0.882446,-0.00230853,-0.00189524,-0.00471597,0.00261861,-0.00682238,-0.807293,0.00562799,0.0417465,657,1100,-18.4789,-0.882464
-560,-76,-18.5508,0.968872,-0.0023078,-0.00160092,-0.00288031,0.000947559,-0.00485627,-0.846448,0.00359523,0.0435769,664,1100,-18.5508,-0.968911
-553,-76,-18.5149,1.15344,-0.00235092,-0.00112282,-0.000374226,-0.00101778,-0.00245597,-1.29713,0.00142486,0.0452841,671,1100,-18.5149,-1.15346
-546,-76,-18.5471,1.30347,-0.0024328,-0.000437406,0.00281307,0.00154966,-0.00441986,0.95581,0.00357683,0.0422523,678,1100,-18.5471,-1.3035
-539,-76,-18.5011,1.30261,-0.00260848,0.000426592,0.00616213,0.0052553,-0.00743719,0.906129,0.00736401,0.0411846,685,1100,-18.5011,-1.30261
-532,-76,-18.4573,1.38696,-0.00385233,0.00040174,0.00753354,0.00610276,-0.00955335,0.922988,0.00911195,0.0406121,692,1100,-18.4573,-1.38699
-525,-76,0,0,0,0,0,0,0,0,0,-1,699,1100,0,0
-518,-76,0,0,0,0,0,0,0,0,0,-1,706,1100,0,0
-511,-76,0,0,0,0,0,0,0,0,0,-1,713,1100,0,0
-504,-76,0,0,0,0,0,0,0,0,0,-1,720,1100,0,0
-497,-76,0,0,0,0,0,0,0,0,0,-1,727,1100,0,0
-490,-76,0,0,0,0,0,0,0,0,0,-1,734,1100,0,0
-483,-76,0,0,0,0,0,0,0,0,0,-1,741,1100,0,0
-476,-76,0,0,0,0,0,0,0,0,0,-1,748,1100,0,0
-469,-76,0,0,0,0,0,0,0,0,0,-1,755,1100,0,0
-462,-76,0,0,0,0,0,0,0,0,0,-1,762,1100,0,0
-455,-76,0,0,0,0,0,0,0,0,0,-1,769,1100,0,0
-448,-76,0,0,0,0,0,0,0,0,0,-1,776,1100,0,0
-441,-76,0,0,0,0,0,0,0,0,0,-1,783,1100,0,0
-434,-76,0,0,0,0,0,0,0,0,0,-1,790,1100,0,0
-427,-76,0,0,0,0,0,0,0,0,0,-1,797,1100,0,0
-420,-76,0,0,0,0,0,0,0,0,0,-1,804,1100,0,0
-413,-76,0,0,0,0,0,0,0,0,0,-1,811,1100,0,0
-406,-76,0,0,0,0,0,0,0,0,0,-1,818,1100,0,0
-399,-76,0,0,0,0,0,0,0,0,0,-1,825,1100,0,0
-392,-76,0,0,0,0,0,0,0,0,0,-1,832,1100,0,0
-385,-76,0,0,0,0,0,0,0,0,0,-1,839,1100,0,0
-378,-76,0,0,0,0,0,0,0,0,0,-1,846,1100,0,0
-371,-76,0,0,0,0,0,0,0,0,0,-1,853,1100,0,0
-364,-76,0,0,0,0,0,0,0,0,0,-1,860,1100,0,0
-357,-76,0,0,0,0,0,0,0,0,0,-1,867,1100,0,0
-350,-76,0,0,0,0,0,0,0,0,0,-1,874,1100,0,0
-343,-76,0,0,0,0,0,0,0,0,0,-1,881,1100,0,0
-336,-76,0,0,0,0,0,0,0,0,0,-1,888,1100,0,0
-329,-76,0,0,0,0,0,0,0,0,0,-1,895,1100,0,0
-322,-76,0,0,0,0,0,0,0,0,0,-1,902,1100,0,0
-315,-76,0,0,0,0,0,0,0,0,0,-1,909,1100,0,0
-308,-76,0,0,0,0,0,0,0,0,0,-1,916,1100,0,0
-301,-76,0,0,0,0,0,0,0,0,0,-1,923,1100,0,0
-294,-76,0,0,0,0,0,0,0,0,0,-1,930,1100,0,0
-287,-76,0,0,0,0,0,0,0,0,0,-1,937,1100,0,0
-280,-76,0,0,0,0,0,0,0,0,0,-1,944,1100,0,0
-273,-76,0,0,0,0,0,0,0,0,0,-1,951,1100,0,0
-266,-76,0,0,0,0,0,0,0,0,0,-1,958,1100,0,0
-259,-76,0,0,0,0,0,0,0,0,0,-1,965,1100,0,0
-252,-76,0,0,0,0,0,0,0,0,0,-1,972,1100,0,0
-245,-76,0,0,0,0,0,0,0,0,0,-1,979,1100,0,0
-238,-76,0,0,0,0,0,0,0,0,0,-1,986,1100,0,0
-231,-76,0,0,0,0,0,0,0,0,0,-1,993,1100,0,0
-224,-76,0,0,0,0,0,0,0,0,0,-1,1000,1100,0,0
-217,-76,0,0,0,0,0,0,0,0,0,-1,1007,1100,0,0
-210,-76,0,0,0,0,0,0,0,0,0,-1,1014,1100,0,0
-203,-76,0,0,0,0,0,0,0,0,0,-1,1021,1100,0,0
-196,-76,0,0,0,0,0,0,0,0,0,-1,1028,1100,0,0
-189,-76,0,0,0,0,0,0,0,0,0,-1,1035,1100,0,0
-182,-76,0,0,0,0,0,0,0,0,0,-1,1042,1100,0,0
-175,-76,0,0,0,0,0,0,0,0,0,-1,1049,1100,0,0
-168,-76,0,0,0,0,0,0,0,0,0,-1,1056,1100,0,0
-161,-76,0,0,0,0,0,0,0,0,0,-1,1063,1100,0,0
-154,-76,0,0,0,0,0,0,0,0,0,-1,1070,1100,0,0
-147,-76,0,0,0,0,0,0,0,0,0,-1,1077,1100,0,0
-140,-76,0,0,0,0,0,0,0,0,0,-1,1084,1100,0,0
-133,-76,0,0,0,0,0,0,0,0,0,-1,1091,1100,0,0
-126,-76,0,0,0,0,0,0,0,0,0,-1,1098,1100,0,0
-119,-76,0,0,0,0,0,0,0,0,0,-1,1105,1100,0,0
-112,-76,0,0,0,0,0,0,0,0,0,-1,1112,1100,0,0
-105,-76,0,0,0,0,0,0,0,0,0,-1,1119,1100,0,0
-98,-76,0,0,0,0,0,0,0,0,0,-1,1126,1100,0,0
-91,-76,0,0,0,0,0,0,0,0,0,-1,1133,1100,0,0
-84,-76,0,0,0,0,0,0,0,0,0,-1,1140,1100,0,0
-77,-76,0,0,0,0,0,0,0,0,0,-1,1147,1100,0,0
-70,-76,0,0,0,0,0,0,0,0,0,-1,1154,1100,0,0
-63,-76,0,0,0,0,0,0,0,0,0,-1,1161,1100,0,0
-56,-76,0,0,0,0,0,0,0,0,0,-1,1168,1100,0,0
-49,-76,0,0,0,0,0,0,0,0,0,-1,1175,1100,0,0
-42,-76,0,0,0,0,0,0,0,0,0,-1,1182,1100,0,0
-35,-76,0,0,0,0,0,0,0,0,0,-1,1189,1100,0,0
-28,-76,0,0,0,0,0,0,0,0,0,-1,1196,1100,0,0
-21,-76,0,0,0,0,0,0,0,0,0,-1,1203,1100,0,0
-14,-76,0,0,0,0,0,0,0,0,0,-1,1210,1100,0,0
-7,-76,0,0,0,0,0,0,0,0,0,-1,1217,1100,0,0
0,-76,0,0,0,0,0,0,0,0,0,-1,1224,1100,0,0
7,-76,0,0,0,0,0,0,0,0,0,-1,1231,1100,0,0
14,-76,0,0,0,0,0,0,0,0,0,-1,1238,1100,0,0
21,-76,0,0,0,0,0,0,0,0,0,-1,1245,1100,0,0
28,-76,0,0,0,0,0,0,0,0,0,-1,1252,1100,0,0
35,-76,0,0,0,0,0,0,0,0,0,-1,1259,1100,0,0
42,-76,0,0,0,0,0,0,0,0,0,-1,1266,1100,0,0
49,-76,0,0,0,0,0,0,0,0,0,-1,1273,1100,0,0
56,-76,0,0,0,0,0,0,0,0,0,-1,1280,1100,0,0
63,-76,0,0,0,0,0,0,0,0,0,-1,1287,1100,0,0
70,-76,0,0,0,0,0,0,0,0,0,-1,1294,1100,0,0
77,-76,0,0,0,0,0,0,0,0,0,-1,1301,1100,0,0
84,-76,0,0,0,0,0,0,0,0,0,-1,1308,1100,0,0
91,-76,0,0,0,0,0,0,0,0,0,-1,1315,1100,0,0
98,-76,0,0,0,0,0,0,0,0,0,-1,1322,1100,0,0
105,-76,0,0,0,0,0,0,0,0,0,-1,1329,1100,0,0
112,-76,0,0,0,0,0,0,0,0,0,-1,1336,1100,0,0
119,-76,0,0,0,0,0,0,0,0,0,-1,1343,1100,0,0
126,-76,0,0,0,0,0,0,0,0,0,-1,1350,1100,0,0
133,-76,0,0,0,0,0,0,0,0,0,-1,1357,1100,0,0
140,-76,0,0,0,0,0,0,0,0,0,-1,1364,1100,0,0
147,-76,0,0,0,0,0,0,0,0,0,-1,1371,1100,0,0
154,-76,0,0,0,0,0,0,0,0,0,-1,1378,1100,0,0
161,-76,0,0,0,0,0,0,0,0,0,-1,1385,1100,0,0
168,-76,0,0,0,0,0,0,0,0,0,-1,1392,1100,0,0
175,-76,0,0,0,0,0,0,0,0,0,-1,1399,1100,0,0
182,-76,0,0,0,0,0,0,0,0,0,-1,1406,1100,0,0
189,-76,0,0,0,0,0,0,0,0,0,-1,1413,1100,0,0
196,-76,0,0,0,0,0,0,0,0,0,-1,1420,1100,0,0
203,-76,0,0,0,0,0,0,0,0,0,-1,1427,1100,0,0
210,-76,0,0,0,0,0,0,0,0,0,-1,1434,1100,0,0
217,-76,0,0,0,0,0,0,0,0,0,-1,1441,1100,0,0
224,-76,0,0,0,0,0,0,0,0,0,-1,1448,1100,0,0
231,-76,0,0,0,0,0,0,0,0,0,-1,1455,1100,0,0
238,-76,0,0,0,0,0,0,0,0,0,-1,1462,1100,0,0
245,-76,0,0,0,0,0,0,0,0,0,-1,1469,1100,0,0
252,-76,0,0,0,0,0,0,0,0,0,-1,1476,1100,0,0
259,-76,0,0,0,0,0,0,0,0,0,-1,1483,1100,0,0
266,-76,0,0,0,0,0,0,0,0,0,-1,1490,1100,0,0
273,-76,0,0,0,0,0,0,0,0,0,-1,1497,1100,0,0
280,-76,0,0,0,0,0,0,0,0,0,-1,1504,1100,0,0
287,-76,0,0,0,0,0,0,0,0,0,-1,1511,1100,0,0
294,-76,0,0,0,0,0,0,0,0,0,-1,1518,1100,0,0
301,-76,0,0,0,0,0,0,0,0,0,-1,1525,1100,0,0
308,-76,0,0,0,0,0,0,0,0,0,-1,1532,1100,0,0
315,-76,0,0,0,0,0,0,0,0,0,-1,1539,1100,0,0
322,-76,0,0,0,0,0,0,0,0,0,-1,1546,1100,0,0
329,-76,0,0,0,0,0,0,0,0,0,-1,1553,1100,0,0
336,-76,0,0,0,0,0,0,0,0,0,-1,1560,1100,0,0
343,-76,0,0,0,0,0,0,0,0,0,-1,1567,1100,0,0
350,-76,0,0,0,0,0,0,0,0,0,-1,1574,1100,0,0
357,-76,0,0,0,0,0,0,0,0,0,-1,1581,1100,0,0
364,-76,0,0,0,0,0,0,0,0,0,-1,1588,1100,0,0
371,-76,0,0,0,0,0,0,0,0,0,-1,1595,1100,0,0
378,-76,0,0,0,0,0,0,0,0,0,-1,1602,1100,0,0
385,-76,0,0,0,0,0,0,0,0,0,-1,1609,1100,0,0
392,-76,0,0,0,0,0,0,0,0,0,-1,1616,1100,0,0
399,-76,0,0,0,0,0,0,0,0,0,-1,1623,1100,0,0
406,-76,0,0,0,0,0,0,0,0,0,-1,1630,1100,0,0
413,-76,0,0,0,0,0,0,0,0,0,-1,1637,1100,0,0
420,-76,0,0,0,0,0,0,0,0,0,-1,1644,1100,0,0
427,-76,0,0,0,0,0,0,0,0,0,-1,1651,1100,0,0
434,-76,0,0,0,0,0,0,0,0,0,-1,1658,1100,0,0
441,-76,0,0,0,0,0,0,0,0,0,-1,1665,1100,0,0
448,-76,0,0,0,0,0,0,0,0,0,-1,1672,1100,0,0
455,-76,0,0,0,0,0,0,0,0,0,-1,1679,1100,0,0
462,-76,0,0,0,0,0,0,0,0,0,-1,1686,1100,0,0
469,-76,0,0,0,0,0,0,0,0,0,-1,1693,1100,0,0
476,-76,0,0,0,0,0,0,0,0,0,-1,1700,1100,0,0
483,-76,0,0,0,0,0,0,0,0,0,-1,1707,1100,0,0
490,-76,0,0,0,0,0,0,0,0,0,-1,1714,1100,0,0
497,-76,0,0,0,0,0,0,0,0,0,-1,1721,1100,0,0
504,-76,0,0,0,0,0,0,0,0,0,-1,1728,1100,0,0
511,-76,0,0,0,0,0,0,0,0,0,-1,1735,1100,0,0
518,-76,0,0,0,0,0,0,0,0,0,-1,1742,1100,0,0
525,-76,0,0,0,0,0,0,0,0,0,-1,1749,1100,0,0
532,-76,0,0,0,0,0,0,0,0,0,-1,1756,1100,0,0
539,-76,0,0,0,0,0,0,0,0,0,-1,1763,1100,0,0
546,-76,0,0,0,0,0,0,0,0,0,-1,1770,1100,0,0
553,-76,0,0,0,0,0,0,0,0,0,-1,1777,1100,0,0
560,-76,0,0,0,0,0,0,0,0,0,-1,1784,1100,0,0
567,-76,0,0,0,0,0,0,0,0,0,-1,1791,1100,0,0
574,-76,0,0,0,0,0,0,0,0,0,-1,1798,1100,0,0
581,-76,0,0,0,0,0,0,0,0,0,-1,1805,1100,0,0
588,-76,0,0,0,0,0,0,0,0,0,-1,1812,1100,0,0
595,-76,0,0,0,0,0,0,0,0,0,-1,1819,1100,0,0
602,-76,0,0,0,0,0,0,0,0,0,-1,1826,1100,0,0
609,-76,0,0,0,0,0,0,0,0,0,-1,1833,1100,0,0
616,-76,0,0,0,0,0,0,0,0,0,-1,1840,1100,0,0
623,-76,0,0,0,0,0,0,0,0,0,-1,1847,1100,0,0
630,-76,0,0,0,0,0,0,0,0,0,-1,1854,1100,0,0
637,-76,0,0,0,0,0,0,0,0,0,-1,1861,1100,0,0
644,-76,0,0,0,0,0,0,0,0,0,-1,1868,1100,0,0
651,-76,26.8416,2.91748,0.00185361,0.000240806,-0.00101946,0.00234705,-0.000252631,-0.45078,0.00165535,0.0417719,1875,1100,26.8415,-2.91751
658,-76,26.7893,2.73914,0.0018826,0.000456927,-0.00069614,0.00216613,0.000173397,-0.386774,0.0013899,0.0439994,1882,1100,26.7893,-2.73913
665,-76,26.8501,2.89856,0.00181064,0.000465354,-0.000546351,0.00200457,0.000271424,-0.341081,0.00125572,0.040134,1889,1100,26.8501,-2.89859
672,-76,26.88,3.00586,0.00129433,0.000164207,0.000308354,0.00137299,8.55478e-05,0.249768,0.000888185,0.0371078,1896,1100,26.88,-3.00581
679,-76,26.8472,3.05432,0.000328735,-0.000308796,0.00138492,0.0014311,-0.00141116,0.672284,0.001641,0.0371437,1903,1100,26.8472,-3.05438
686,-76,27.0166,3.1366,-0.000723891,-0.000799429,0.00237713,0.00161577,-0.00313909,0.777455,0.00279179,0.0380609,1910,1100,27.0166,-3.1366
693,-76,26.9697,3.06226,-0.00156979,-0.00121814,0.00319747,0.00180834,-0.00459626,0.812865,0.00381269,0.0386106,1917,1100,26.9697,-3.0623
700,-76,26.954,3.00732,-0.00229455,-0.00143922,0.00384799,0.00200479,-0.00573857,0.840741,0.00464064,0.0303302,1924,1100,26.954,-3.00735
707,-76,26.9423,3.04199,-0.00272898,-0.00158271,0.00426817,0.00215064,-0.00646233,0.852139,0.00517623,0.0197167,1931,1100,26.9422,-3.042
714,-76,26.8986,3.45068,0,0,0,0,0,0,0,-1,1938,1100,26.8985,-3.45065
721,-76,26.561,4.40881,0,0,0,0,0,0,0,-1,1945,1100,26.5611,-4.40879
728,-76,26.1427,5.12695,-0.00371868,-0.00146286,0.00431032,0.00186468,-0.00704622,0.913367,0.0054269,0.0282585,1952,1100,26.1426,-5.12692
735,-76,25.8315,5.0658,-0.00394392,-0.00109985,0.00404382,0.00176469,-0.00680845,0.954473,0.00522744,0.0233491,1959,1100,25.8316,-5.0658
742,-76,25.9598,4.94531,-0.00378825,-0.000286359,0.00409327,0.00241473,-0.00648935,0.987502,0.00531717,0.0158441,1966,1100,25.9598,-4.94532
749,-76,25.8972,4.82239,-0.00337895,0.000216427,0.00445165,0.00321966,-0.00638219,0.977298,0.00564297,0.0167592,1973,1100,25.8972,-4.8224
756,-76,25.9303,4.73804,-0.00250031,0.000792909,0.00514122,0.00454476,-0.00625217,0.940375,0.00625954,0.0149431,1980,1100,25.9303,-4.73803
763,-76,25.951,4.59741,-0.00118047,0.00142693,0.00581406,0.00608166,-0.0058352,0.89569,0.00688069,0.0146006,1987,1100,25.9511,-4.59744
770,-76,25.9381,4.50745,0.000398206,0.00210265,0.00709627,0.00839769,-0.00589683,0.845159,0.00829494,0.0147575,1994,1100,25.9381,-4.5075
777,-76,25.9279,4.43958,0.00221535,0.0024636,0.00966597,0.0120062,-0.00732729,0.791818,0.0112707,0.0175467,2001,1100,25.9278,-4.43964
784,-76,25.9315,4.34827,0.00440171,0.00246923,0.0129899,0.0164612,-0.00959029,0.748275,0.0152142,0.0311169,2008,1100,25.9315,-4.34829
791,-76,25.9009,4.29285,0.00707187,0.00203587,0.0168838,0.0216244,-0.0125166,0.711375,0.0199437,0.0423233,2015,1100,25.9009,-4.29283
798,-76,25.7227,4.02124,0.0106364,0.00108501,0.0212704,0.0276606,-0.0159392,0.674968,0.0254738,0.0411826,2022,1100,25.7227,-4.02118
805,-76,25.2815,6.64539,0.0153501,-0.000492524,0.0258973,0.0345105,-0.0196529,0.63698,0.031661,0.0455919,2029,1100,25.2816,-6.64543
812,-76,24.8284,6.95569,0,0,0,0,0,0,0,-1,2036,1100,24.8283,-6.95571
-700,-83,0,0,0,0,0,0,0,0,0,-1,524,1107,0,0
-693,-83,-16.4157,0.805786,-0.0124662,0.102386,0.061427,0.129049,-0.0391296,1.16127,0.101619,0.0467343,531,1107,-16.4157,-0.805758
-686,-83,-16.4525,0.994141,-0.00775204,0.0850451,0.0535307,0.109487,-0.0321939,1.14247,0.085761,0.0474196,538,1107,-16.4525,-0.994104
-679,-83,-16.656,1.58325,-0.00416898,0.0695929,0.0452252,0.0910688,-0.0256449,1.12746,0.0708257,0.044573,545,1107,-16.656,-1.5832
-672,-83,-17.2712,1.00659,0,0,0,0,0,0,0,-1,552,1107,-17.2712,-1.00655
-665,-83,-17.3969,1.17505,0.000419089,0.0438528,0.0295846,0.0588356,-0.0145638,1.10201,0.0448732,0.0442727,559,1107,-17.3969,-1.17505
-658,-83,-17.6509,1.33289,0.00157639,0.0334647,0.0227954,0.0453386,-0.0102976,1.09057,0.0341793,0.0409408,566,1107,-17.6509,-1.33285
-651,-83,-17.6282,1.54956,0.00213976,0.0247283,0.0169279,0.0337838,-0.00691578,1.07958,0.0251468,0.0299275,573,1107,-17.6282,-1.54957
-644,-83,-17.6263,1.76135,0.00226891,0.0172971,0.0113946,0.0234321,-0.00386609,1.07689,0.0170568,0.0144232,580,1107,-17.6263,-1.7613
-637,-83,-17.6633,1.92786,0.00207433,0.0105522,0.00712674,0.0146054,-0.00197883,1.05369,0.0104591,0.0111982,587,1107,-17.6633,-1.92784
-630,-83,-17.6816,2.09595,0.00124439,0.00614625,0.00256329,0.00724179,0.000148842,1.1669,0.00477902,0.0166599,594,1107,-17.6816,-2.09592
-623,-83,-17.6869,2.19812,0.000613067,0.00272408,-0.000612418,0.00288888,0.000448266,-1.30793,0.00179525,0.0161853,601,1107,-17.6869,-2.19812
-616,-83,-17.6986,2.32629,-0.000428319,0.00101231,-0.00274256,0.00312757,-0.00254358,-0.913819,0.00328002,0.0132422,608,1107,-17.6986,-2.32633
-609,-83,-17.7075,2.47888,-0.00095825,-0.000344082,-0.00448463,0.00384396,-0.0051463,-0.819582,0.00520865,0.0132871,615,1107,-17.7075,-2.47889
-602,-83,-17.7086,2.6427,-0.00161343,-0.00129657,-0.00561112,0.00415836,-0.00706836,-0.799512,0.00655393,0.0144701,622,1107,-17.7086,-2.64272
-595,-83,-17.6569,2.79395,-0.00195101,-0.00167879,-0.00604199,0.00422863,-0.00785842,-0.79666,0.00708257,0.0178626,629,1107,-17.6568,-2.79393
-588,-83,-17.9031,2.37964,-0.00203739,-0.0018687,-0.00604289,0.00409043,-0.00799652,-0.792376,0.00709883,0.0392607,636,1107,-17.9032,-2.37964
-581,-83,-18.42,1.33838,-0.00210307,-0.00186545,-0.00576943,0.00378639,-0.00775491,-0.795693,0.00679341,0.0438484,643,1107,-18.42,-1.33833
-574,-83,-18.5163,0.956421,-0.00215966,-0.00182186,-0.00524195,0.00325391,-0.00723543,-0.801503,0.00619974,0.0365434,650,1107,-18.5163,-0.95646
-567,-83,-18.4408,0.918579,-0.00220254,-0.001601,-0.00423779,0.00234668,-0.00615022,-0.820825,0.00506687,0.0413596,657,1107,-18.4408,-0.918567
-560,-83,-18.4488,0.923828,-0.00224458,-0.00117042,-0.00271378,0.00105892,-0.00447392,-0.88309,0.00339115,0.0426145,664,1107,-18.4488,-0.923804
-553,-83,-18.4744,1.06042,-0.00234094,-0.000503546,-0.000647508,-0.00029829,-0.0025462,-1.26382,0.00160729,0.0425128,671,1107,-18.4743,-1.06044
-546,-83,-18.5167,1.2832,-0.00246828,0.000437062,0.00197,0.00143207,-0.00346329,1.10309,0.00290631,0.040181,678,1107,-18.5167,-1.28325
-539,-83,-18.5019,1.32678,-0.00261759,0.00162058,0.00476079,0.0047126,-0.00570961,0.994789,0.00602644,0.0405577,685,1107,-18.5019,-1.32674
-532,-83,-18.5037,1.30334,-0.00365718,0.00195402,0.0058208,0.00561008,-0.00731324,1.00997,0.00748285,0.0420391,692,1107,-18.5037,-1.30334
-525,-83,0,0,0,0,0,0,0,0,0,-1,699,1107,0,0
-518,-83,0,0,0,0,0,0,0,0,0,-1,706,1107,0,0
-511,-83,0,0,0,0,0,0,0,0,0,-1,713,1107,0,0
-504,-83,0,0,0,0,0,0,0,0,0,-1,720,1107,0,0
-497,-83,0,0,0,0,0,0,0,0,0,-1,727,1107,0,0
-490,-83,0,0,0,0,0,0,0,0,0,-1,734,1107,0,0
-483,-83,0,0,0,0,0,0,0,0,0,-1,741,1107,0,0
-476,-83,0,0,0,0,0,0,0,0,0,-1,748,1107,0,0
-469,-83,0,0,0,0,0,0,0,0,0,-1,755,1107,0,0
-462,-83,0,0,0,0,0,0,0,0,0,-1,762,1107,0,0
-455,-83,0,0,0,0,0,0,0,0,0,-1,769,1107,0,0
-448,-83,0,0,0,0,0,0,0,0,0,-1,776,1107,0,0
-441,-83,0,0,0,0,0,0,0,0,0,-1,783,1107,0,0
-434,-83,0,0,0,0,0,0,0,0,0,-1,790,1107,0,0
-427,-83,0,0,0,0,0,0,0,0,0,-1,797,1107,0,0
-420,-83,0,0,0,0,0,0,0,0,0,-1,804,1107,0,0
-413,-83,0,0,0,0,0,0,0,0,0,-1,811,1107,0,0
-406,-83,0,0,0,0,0,0,0,0,0,-1,818,1107,0,0
-399,-83,0,0,0,0,0,0,0,0,0,-1,825,1107,0,0
-392,-83,0,0,0,0,0,0,0,0,0,-1,832,1107,0,0
-385,-83,0,0,0,0,0,0,0,0,0,-1,839,1107,0,0
-378,-83,0,0,0,0,0,0,0,0,0,-1,846,1107,0,0
-371,-83,0,0,0,0,0,0,0,0,0,-1,853,1107,0,0
-364,-83,0,0,0,0,0,0,0,0,0,-1,860,1107,0,0
-357,-83,0,0,0,0,0,0,0,0,0,-1,867,1107,0,0
-350,-83,0,0,0,0,0,0,0,0,0,-1,874,1107,0,0
-343,-83,0,0,0,0,0,0,0,0,0,-1,881,1107,0,0
-336,-83,0,0,0,0,0,0,0,0,0,-1,888,1107,0,0
-329,-83,0,0,0,0,0,0,0,0,0,-1,895,1107,0,0
-322,-83,0,0,0,0,0,0,0,0,0,-1,902,1107,0,0
-315,-83,0,0,0,0,0,0,0,0,0,-1,909,1107,0,0
-308,-83,0,0,0,0,0,0,0,0,0,-1,916,1107,0,0
-301,-83,0,0,0,0,0,0,0,0,0,-1,923,1107,0,0
-294,-83,0,0,0,0,0,0,0,0,0,-1,930,1107,0,0
-287,-83,0,0,0,0,0,0,0,0,0,-1,937,1107,0,0
-280,-83,0,0,0,0,0,0,0,0,0,-1,944,1107,0,0
-273,-83,0,0,0,0,0,0,0,0,0,-1,951,1107,0,0
-266,-83,0,0,0,0,0,0,0,0,0,-1,958,1107,0,0
-259,-83,0,0,0,0,0,0,0,0,0,-1,965,1107,0,0
-252,-83,0,0,0,0,0,0,0,0,0,-1,972,1107,0,0
-245,-83,0,0,0,0,0,0,0,0,0,-1,979,1107,0,0
-238,-83,0,0,0,0,0,0,0,0,0,-1,986,1107,0,0
-231,-83,0,0,0,0,0,0,0,0,0,-1,993,1107,0,0
-224,-83,0,0,0,0,0,0,0,0,0,-1,1000,1107,0,0
-217,-83,0,0,0,0,0,0,0,0,0,-1,1007,1107,0,0
-210,-83,0,0,0,0,0,0,0,0,0,-1,1014,1107,0,0
-203,-83,0,0,0,0,0,0,0,0,0,-1,1021,1107,0,0
-196,-83,0,0,0,0,0,0,0,0,0,-1,1028,1107,0,0
-189,-83,0,0,0,0,0,0,0,0,0,-1,1035,1107,0,0
-182,-83,0,0,0,0,0,0,0,0,0,-1,1042,1107,0,0
-175,-83,0,0,0,0,0,0,0,0,0,-1,1049,1107,0,0
-168,-83,0,0,0,0,0,0,0,0,0,-1,1056,1107,0,0
-161,-83,0,0,0,0,0,0,0,0,0,-1,1063,1107,0,0
-154,-83,0,0,0,0,0,0,0,0,0,-1,1070,1107,0,0
-147,-83,0,0,0,0,0,0,0,0,0,-1,1077,1107,0,0
-140,-83,0,0,0,0,0,0,0,0,0,-1,1084,1107,0,0
-133,-83,0,0,0,0,0,0,0,0,0,-1,1091,1107,0,0
-126,-83,0,0,0,0,0,0,0,0,0,-1,1098,1107,0,0
-119,-83,0,0,0,0,0,0,0,0,0,-1,1105,1107,0,0
-112,-83,0,0,0,0,0,0,0,0,0,-1,1112,1107,0,0
-105,-83,0,0,0,0,0,0,0,0,0,-1,1119,1107,0,0
-98,-83,0,0,0,0,0,0,0,0,0,-1,1126,1107,0,0
-91,-83,0,0,0,0,0,0,0,0,0,-1,1133,1107,0,0
-84,-83,0,0,0,0,0,0,0,0,0,-1,1140,1107,0,0
-77,-83,0,0,0,0,0,0,0,0,0,-1,1147,1107,0,0
-70,-83,0,0,0,0,0,0,0,0,0,-1,1154,1107,0,0
-63,-83,0,0,0,0,0,0,0,0,0,-1,1161,1107,0,0
-56,-83,0,0,0,0,0,0,0,0,0,-1,1168,1107,0,0
-49,-83,0,0,0,0,0,0,0,0,0,-1,1175,1107,0,0
-42,-83,0,0,0,0,0,0,0,0,0,-1,1182,1107,0,0
-35,-83,0,0,0,0,0,0,0,0,0,-1,1189,1107,0,0
-28,-83,0,0,0,0,0,0,0,0,0,-1,1196,1107,0,0
-21,-83,0,0,0,0,0,0,0,0,0,-1,1203,1107,0,0
-14,-83,0,0,0,0,0,0,0,0,0,-1,1210,1107,0,0
-7,-83,0,0,0,0,0,0,0,0,0,-1,1217,1107,0,0
0,-83,0,0,0,0,0,0,0,0,0,-1,1224,1107,0,0
7,-83,0,0,0,0,0,0,0,0,0,-1,1231,1107,0,0
14,-83,0,0,0,0,0,0,0,0,0,-1,1238,1107,0,0
21,-83,0,0,0,0,0,0,0,0,0,-1,1245,1107,0,0
28,-83,0,0,0,0,0,0,0,0,0,-1,1252,1107,0,0
35,-83,0,0,0,0,0,0,0,0,0,-1,1259,1107,0,0
42,-83,0,0,0,0,0,0,0,0,0,-1,1266,1107,0,0
49,-83,0,0,0,0,0,0,0,0,0,-1,1273,1107,0,0
56,-83,0,0,0,0,0,0,0,0,0,-1,1280,1107,0,0
63,-83,0,0,0,0,0,0,0,0,0,-1,1287,1107,0,0
70,-83,0,0,0,0,0,0,0,0,0,-1,1294,1107,0,0
77,-83,0,0,0,0,0,0,0,0,0,-1,1301,1107,0,0
84,-83,0,0,0,0,0,0,0,0,0,-1,1308,1107,0,0
91,-83,0,0,0,0,0,0,0,0,0,-1,1315,1107,0,0
98,-83,0,0,0,0,0,0,0,0,0,-1,1322,1107,0,0
105,-83,0,0,0,0,0,0,0,0,0,-1,1329,1107,0,0
112,-83,0,0,0,0,0,0,0,0,0,-1,1336,1107,0,0
119,-83,0,0,0,0,0,0,0,0,0,-1,1343,1107,0,0
126,-83,0,0,0,0,0,0,0,0,0,-1,1350,1107,0,0
133,-83,0,0,0,0,0,0,0,0,0,-1,1357,1107,0,0
140,-83,0,0,0,0,0,0,0,0,0,-1,1364,1107,0,0
147,-83,0,0,0,0,0,0,0,0,0,-1,1371,1107,0,0
154,-83,0,0,0,0,0,0,0,0,0,-1,1378,1107,0,0
161,-83,0,0,0,0,0,0,0,0,0,-1,1385,1107,0,0
168,-83,0,0,0,0,0,0,0,0,0,-1,1392,1107,0,0
175,-83,0,0,0,0,0,0,0,0,0,-1,1399,1107,0,0
182,-83,0,0,0,0,0,0,0,0,0,-1,1406,1107,0,0
189,-83,0,0,0,0,0,0,0,0,0,-1,1413,1107,0,0
196,-83,0,0,0,0,0,0,0,0,0,-1,1420,1107,0,0
203,-83,0,0,0,0,0,0,0,0,0,-1,1427,1107,0,0
210,-83,0,0,0,0,0,0,0,0,0,-1,1434,1107,0,0
217,-83,0,0,0,0,0,0,0,0,0,-1,1441,1107,0,0
224,-83,0,0,0,0,0,0,0,0,0,-1,1448,1107,0,0
231,-83,0,0,0,0,0,0,0,0,0,-1,1455,1107,0,0
238,-83,0,0,0,0,0,0,0,0,0,-1,1462,1107,0,0
245,-83,0,0,0,0,0,0,0,0,0,-1,1469,1107,0,0
252,-83,0,0,0,0,0,0,0,0,0,-1,1476,1107,0,0
259,-83,0,0,0,0,0,0,0,0,0,-1,1483,1107,0,0
266,-83,0,0,0,0,0,0,0,0,0,-1,1490,1107,0,0
273,-83,0,0,0,0,0,0,0,0,0,-1,1497,1107,0,0
280,-83,0,0,0,0,0,0,0,0,0,-1,1504,1107,0,0
287,-83,0,0,0,0,0,0,0,0,0,-1,1511,1107,0,0
294,-83,0,0,0,0,0,0,0,0,0,-1,1518,1107,0,0
301,-83,0,0,0,0,0,0,0,0,0,-1,1525,1107,0,0
308,-83,0,0,0,0,0,0,0,0,0,-1,1532,1107,0,0
315,-83,0,0,0,0,0,0,0,0,0,-1,1539,1107,0,0
322,-83,0,0,0,0,0,0,0,0,0,-1,1546,1107,0,0
329,-83,0,0,0,0,0,0,0,0,0,-1,1553,1107,0,0
336,-83,0,0,0,0,0,0,0,0,0,-1,1560,1107,0,0
343,-83,0,0,0,0,0,0,0,0,0,-1,1567,1107,0,0
350,-83,0,0,0,0,0,0,0,0,0,-1,1574,1107,0,0
357,-83,0,0,0,0,0,0,0,0,0,-1,1581,1107,0,0
364,-83,0,0,0,0,0,0,0,0,0,-1,1588,1107,0,0
371,-83,0,0,0,0,0,0,0,0,0,-1,1595,1107,0,0
378,-83,0,0,0,0,0,0,0,0,0,-1,1602,1107,0,0
385,-83,0,0,0,0,0,0,0,0,0,-1,1609,1107,0,0
392,-83,0,0,0,0,0,0,0,0,0,-1,1616,1107,0,0
399,-83,0,0,0,0,0,0,0,0,0,-1,1623,1107,0,0
406,-83,0,0,0,0,0,0,0,0,0,-1,1630,1107,0,0
413,-83,0,0,0,0,0,0,0,0,0,-1,1637,1107,0,0
420,-83,0,0,0,0,0,0,0,0,0,-1,1644,1107,0,0
427,-83,0,0,0,0,0,0,0,0,0,-1,1651,1107,0,0
434,-83,0,0,0,0,0,0,0,0,0,-1,1658,1107,0,0
441,-83,0,0,0,0,0,0,0,0,0,-1,1665,1107,0,0
448,-83,0,0,0,0,0,0,0,0,0,-1,1672,1107,0,0
455,-83,0,0,0,0,0,0,0,0,0,-1,1679,1107,0,0
462,-83,0,0,0,0,0,0,0,0,0,-1,1686,1107,0,0
469,-83,0,0,0,0,0,0,0,0,0,-1,1693,1107,0,0
476,-83,0,0,0,0,0,0,0,0,0,-1,1700,1107,0,0
483,-83,0,0,0,0,0,0,0,0,0,-1,1707,1107,0,0
490,-83,0,0,0,0,0,0,0,0,0,-1,1714,1107,0,0
497,-83,0,0,0,0,0,0,0,0,0,-1,1721,1107,0,0
504,-83,0,0,0,0,0,0,0,0,0,-1,1728,1107,0,0
511,-83,0,0,0,0,0,0,0,0,0,-1,1735,1107,0,0
518,-83,0,0,0,0,0,0,0,0,0,-1,1742,1107,0,0
525,-83,0,0,0,0,0,0,0,0,0,-1,1749,1107,0,0
532,-83,0,0,0,0,0,0,0,0,0,-1,1756,1107,0,0
539,-83,0,0,0,0,0,0,0,0,0,-1,1763,1107,0,0
546,-83,0,0,0,0,0,0,0,0,0,-1,1770,1107,0,0
553,-83,0,0,0,0,0,0,0,0,0,-1,1777,1107,0,0
560,-83,0,0,0,0,0,0,0,0,0,-1,1784,1107,0,0
567,-83,0,0,0,0,0,0,0,0,0,-1,1791,1107,0,0
574,-83,0,0,0,0,0,0,0,0,0,-1,1798,1107,0,0
581,-83,0,0,0,0,0,0,0,0,0,-1,1805,1107,0,0
588,-83,0,0,0,0,0,0,0,0,0,-1,1812,1107,0,0
595,-83,0,0,0,0,0,0,0,0,0,-1,1819,1107,0,0
602,-83,0,0,0,0,0,0,0,0,0,-1,1826,1107,0,0
609,-83,0,0,0,0,0,0,0,0,0,-1,1833,1107,0,0
616,-83,0,0,0,0,0,0,0,0,0,-1,1840,1107,0,0
623,-83,0,0,0,0,0,0,0,0,0,-1,1847,1107,0,0
630,-83,0,0,0,0,0,0,0,0,0,-1,1854,1107,0,0
637,-83,0,0,0,0,0,0,0,0,0,-1,1861,1107,0,0
644,-83,26.8741,2.97009,0.00277143,-0.000571424,-0.00315378,0.00466931,-0.00246931,-0.541728,0.00418622,0.0359162,1868,1107,26.8741,-2.97006
651,-83,26.9744,2.90796,0.00244582,-0.000120085,-0.00192365,0.0034751,-0.00114936,-0.491303,0.0027802,0.0436963,1875,1107,26.9744,-2.90798
658,-83,26.8242,2.77502,0.00219648,7.46605e-05,-0.00128712,0.00280356,-0.000532425,-0.440721,0.00206948,0.0485967,1882,1107,26.8242,-2.77507
665,-83,26.7683,2.80457,0.0019337,8.92514e-05,-0.000878881,0.00228542,-0.000262466,-0.380668,0.00161821,0.0426111,1889,1107,26.7683,-2.80459
672,-83,26.865,2.93469,0.00120856,-0.000195251,0.0001818,0.00123172,-0.000218413,0.12672,0.000902804,0.0390784,1896,1107,26.865,-2.9347
679,-83,26.9711,3.08008,0.00010183,-0.000621388,0.00135287,0.00114059,-0.00166015,0.654806,0.00162625,0.0381617,1903,1107,26.9711,-3.08011
686,-83,27.0121,3.13745,-0.00100826,-0.00105285,0.00237888,0.00134843,-0.00340954,0.780712,0.00283163,0.0355376,1910,1107,27.0121,-3.13747
693,-83,26.9753,3.11255,-0.00188042,-0.00141139,0.0032059,0.00156856,-0.00486037,0.821909,0.00387054,0.0356979,1917,1107,26.9754,-3.11257
700,-83,26.9758,3.09839,-0.00262192,-0.00158674,0.00385723,0.00178747,-0.00599613,0.852094,0.00470775,0.0305034,1924,1107,26.9758,-3.09841
707,-83,26.9517,3.05164,-0.00306609,-0.00169798,0.00429299,0.00196511,-0.00672918,0.864405,0.00526486,0.0188731,1931,1107,26.9516,-3.05169
714,-83,26.9545,3.44055,-0.0033786,-0.00177193,0.00447467,0.00197094,-0.00712147,0.874217,0.00552312,0.0386353,1938,1107,26.9545,-3.44049
721,-83,25.8378,5.33679,0,0,0,0,0,0,0,-1,1945,1107,25.8377,-5.33681
728,-83,25.8245,5.15405,-0.00397553,-0.00150057,0.00426882,0.00170652,-0.00718261,0.926475,0.0054471,0.0224927,1952,1107,25.8245,-5.15404
735,-83,25.7083,5.01233,-0.00411328,-0.00118293,0.00394835,0.00156333,-0.00685954,0.963066,0.00517348,0.0242196,1959,1107,25.7083,-5.01237
742,-83,25.8188,4.94067,-0.00382706,-0.000370975,0.00394421,0.00220714,-0.00640517,0.991864,0.00516547,0.015149,1966,1107,25.8189,-4.94065
749,-83,25.8375,4.83911,-0.00321454,9.97583e-05,0.0042386,0.00299364,-0.00610843,0.971745,0.00535667,0.0125813,1973,1107,25.8376,-4.83912
756,-83,25.8613,4.72632,-0.00214498,0.000689241,0.00487007,0.00434418,-0.00579993,0.926981,0.00587677,0.0148256,1980,1107,25.8613,-4.72628
763,-83,25.8646,4.59106,-0.000639437,0.00137055,0.00561872,0.00607345,-0.00534233,0.873895,0.00659541,0.0117046,1987,1107,25.8646,-4.59112
770,-83,25.8439,4.49963,0.0012393,0.00209201,0.00689582,0.00857464,-0.00524333,0.816273,0.00805472,0.0135009,1994,1107,25.8439,-4.49957
777,-83,25.8163,4.39771,0.00326674,0.00252503,0.00949671,0.0123998,-0.00660807,0.765882,0.0111427,0.0143644,2001,1107,25.8162,-4.39772
784,-83,25.7871,4.34985,0.00557941,0.00269305,0.0128929,0.0171097,-0.00883723,0.729662,0.0152321,0.0241052,2008,1107,25.7871,-4.34989
791,-83,25.6707,4.88586,0.00829555,0.00253107,0.016993,0.022649,-0.0118224,0.701391,0.0202266,0.0407183,2015,1107,25.6706,-4.88583
798,-83,25.5432,5.73254,0.0117363,0.00201129,0.0217494,0.0291601,-0.0154125,0.675422,0.0261388,0.0430449,2022,1107,25.5432,-5.7325
805,-83,25.1873,6.36707,0.016017,0.00107869,0.0269975,0.0365596,-0.0194638,0.650443,0.0328433,0.0452734,2029,1107,25.1872,-6.36712
812,-83,24.4568,6.65735,0.0212652,-0.000311483,0.0324389,0.0446627,-0.023709,0.624864,0.0400876,0.0481317,2036,1107,24.4569,-6.6573
-700,-90,0,0,0,0,0,0,0,0,0,-1,524,1114,0,0
-693,-90,-16.3695,0.447021,-0.00539131,0.105044,0.0516919,0.125464,-0.0258111,1.19458,0.0934425,0.0437001,531,1114,-16.3695,-0.447011
-686,-90,-16.5797,0.32312,-0.000191149,0.0869495,0.0463521,0.106994,-0.020236,1.16263,0.0789443,0.0455153,538,1114,-16.5796,-0.323094
-679,-90,-17.0962,0.816772,0.00314377,0.0709159,0.0398681,0.0893532,-0.0152935,1.13763,0.0652667,0.0442688,545,1114,-17.0962,-0.816756
-672,-90,-17.6194,1.43286,0,0,0,0,0,0,0,-1,552,1114,-17.6194,-1.4329
-665,-90,-17.481,0.79187,0,0,0,0,0,0,0,-1,559,1114,-17.481,-0.791896
-658,-90,-17.6167,1.16125,0.0062867,0.0338368,0.0207561,0.044973,-0.00484947,1.07836,0.0317223,0.0440781,566,1114,-17.6167,-1.16127
-651,-90,-17.4781,1.39685,0.00581248,0.0249864,0.0155471,0.0336647,-0.00286583,1.06168,0.0234569,0.031114,573,1114,-17.4782,-1.39682
-644,-90,-17.5034,1.68677,0.00497747,0.017558,0.0106633,0.0236481,-0.00111258,1.05188,0.016149,0.0142744,580,1114,-17.5034,-1.68682
-637,-90,-17.5153,1.9071,0.00407219,0.0107421,0.00697086,0.0151347,-0.000320391,1.00851,0.0101982,0.0118035,587,1114,-17.5153,-1.90704
-630,-90,-17.5223,2.05786,0.00266053,0.00629445,0.00267848,0.0077141,0.00124089,1.08342,0.00478306,0.0117147,594,1114,-17.5224,-2.05785
-623,-90,-17.5223,2.20349,0.00135789,0.00283532,-0.000324429,0.00290342,0.00128979,-1.36389,0.00167976,0.0101324,601,1114,-17.5223,-2.20352
-616,-90,-17.5354,2.3772,3.80384e-05,0.00100541,-0.00229446,0.00286661,-0.00182317,-0.88928,0.00272989,0.00938199,608,1114,-17.5354,-2.37715
-609,-90,-17.551,2.50708,-0.000538082,-0.000453169,-0.00389326,0.00339786,-0.00438911,-0.790851,0.00450794,0.0126337,615,1114,-17.551,-2.50704
-602,-90,-17.592,2.65662,-0.00126032,-0.00145507,-0.00491461,0.00355788,-0.00627327,-0.775493,0.00574773,0.0123788,622,1114,-17.592,-2.65659
-595,-90,-17.5106,2.84045,-0.0015972,-0.00182942,-0.00528331,0.00357127,-0.00699789,-0.774411,0.00620809,0.0131773,629,1114,-17.5106,-2.8405
-588,-90,-17.6778,2.64441,-0.00166055,-0.0020004,-0.00526789,0.00344016,-0.0071011,-0.769276,0.00620714,0.0330526,636,1114,-17.6778,-2.64439
-581,-90,-18.1953,2.29346,0,0,0,0,0,0,0,-1,643,1114,-18.1953,-2.2935
-574,-90,-18.5356,1.08704,-0.00178467,-0.00187923,-0.00460214,0.00277044,-0.00643434,-0.780261,0.00545291,0.0346843,650,1114,-18.5356,-1.08703
-567,-90,-18.4646,1.02893,-0.00185321,-0.00160786,-0.00379221,0.00206365,-0.00552473,-0.801567,0.00453051,0.0352412,657,1114,-18.4646,-1.02898
-560,-90,-18.459,1.14807,-0.0019349,-0.0011069,-0.00256662,0.0010789,-0.00412069,-0.86536,0.00316859,0.0381602,664,1114,-18.459,-1.14813
-553,-90,-18.4711,1.40088,-0.00208255,-0.000342095,-0.000908184,4.54913e-05,-0.00247013,-1.16743,0.00166213,0.0394915,671,1114,-18.4711,-1.40088
-546,-90,-18.5482,1.57666,-0.00225935,0.000733021,0.00120536,0.00115815,-0.00268448,1.23172,0.00227614,0.0413154,678,1114,-18.5482,-1.5766
-539,-90,-18.6841,1.47473,-0.0023834,0.00210501,0.00353088,0.00404453,-0.00432292,1.06849,0.00483184,0.0405237,685,1114,-18.6841,-1.47471
-532,-90,-18.6591,1.25049,-0.00313595,0.00274116,0.00441771,0.00510838,-0.00550317,1.07888,0.006128,0.0396731,692,1114,-18.6591,-1.25052
-525,-90,0,0,0,0,0,0,0,0,0,-1,699,1114,0,0
-518,-90,0,0,0,0,0,0,0,0,0,-1,706,1114,0,0
-511,-90,0,0,0,0,0,0,0,0,0,-1,713,1114,0,0
-504,-90,0,0,0,0,0,0,0,0,0,-1,720,1114,0,0
-497,-90,0,0,0,0,0,0,0,0,0,-1,727,1114,0,0
-490,-90,0,0,0,0,0,0,0,0,0,-1,734,1114,0,0
-483,-90,0,0,0,0,0,0,0,0,0,-1,741,1114,0,0
-476,-90,0,0,0,0,0,0,0,0,0,-1,748,1114,0,0
-469,-90,0,0,0,0,0,0,0,0,0,-1,755,1114,0,0
-462,-90,0,0,0,0,0,0,0,0,0,-1,762,1114,0,0
-455,-90,0,0,0,0,0,0,0,0,0,-1,769,1114,0,0
-448,-90,0,0,0,0,0,0,0,0,0,-1,776,1114,0,0
-441,-90,0,0,0,0,0,0,0,0,0,-1,783,1114,0,0
-434,-90,0,0,0,0,0,0,0,0,0,-1,790,1114,0,0
-427,-90,0,0,0,0,0,0,0,0,0,-1,797,1114,0,0
-420,-90,0,0,0,0,0,0,0,0,0,-1,804,1114,0,0
-413,-90,0,0,0,0,0,0,0,0,0,-1,811,1114,0,0
-406,-90,0,0,0,0,0,0,0,0,0,-1,818,1114,0,0
-399,-90,0,0,0,0,0,0,0,0,0,-1,825,1114,0,0
-392,-90,0,0,0,0,0,0,0,0,0,-1,832,1114,0,0
-385,-90,0,0,0,0,0,0,0,0,0,-1,839,1114,0,0
-378,-90,0,0,0,0,0,0,0,0,0,-1,846,1114,0,0
-371,-90,0,0,0,0,0,0,0,0,0,-1,853,1114,0,0
-364,-90,0,0,0,0,0,0,0,0,0,-1,860,1114,0,0
-357,-90,0,0,0,0,0,0,0,0,0,-1,867,1114,0,0
-350,-90,0,0,0,0,0,0,0,0,0,-1,874,1114,0,0
-343,-90,0,0,0,0,0,0,0,0,0,-1,881,1114,0,0
-336,-90,0,0,0,0,0,0,0,0,0,-1,888,1114,0,0
-329,-90,0,0,0,0,0,0,0,0,0,-1,895,1114,0,0
-322,-90,0,0,0,0,0,0,0,0,0,-1,902,1114,0,0
-315,-90,0,0,0,0,0,0,0,0,0,-1,909,1114,0,0
-308,-90,0,0,0,0,0,0,0,0,0,-1,916,1114,0,0
-301,-90,0,0,0,0,0,0,0,0,0,-1,923,1114,0,0
-294,-90,0,0,0,0,0,0,0,0,0,-1,930,1114,0,0
-287,-90,0,0,0,0,0,0,0,0,0,-1,937,1114,0,0
-280,-90,0,0,0,0,0,0,0,0,0,-1,944,1114,0,0
-273,-90,0,0,0,0,0,0,0,0,0,-1,951,1114,0,0
-266,-90,0,0,0,0,0,0,0,0,0,-1,958,1114,0,0
-259,-90,0,0,0,0,0,0,0,0,0,-1,965,1114,0,0
-252,-90,0,0,0,0,0,0,0,0,0,-1,972,1114,0,0
-245,-90,0,0,0,0,0,0,0,0,0,-1,979,1114,0,0
-238,-90,0,0,0,0,0,0,0,0,0,-1,986,1114,0,0
-231,-90,0,0,0,0,0,0,0,0,0,-1,993,1114,0,0
-224,-90,0,0,0,0,0,0,0,0,0,-1,1000,1114,0,0
-217,-90,0,0,0,0,0,0,0,0,0,-1,1007,1114,0,0
-210,-90,0,0,0,0,0,0,0,0,0,-1,1014,1114,0,0
-203,-90,0,0,0,0,0,0,0,0,0,-1,1021,1114,0,0
-196,-90,0,0,0,0,0,0,0,0,0,-1,1028,1114,0,0
-189,-90,0,0,0,0,0,0,0,0,0,-1,1035,1114,0,0
-182,-90,0,0,0,0,0,0,0,0,0,-1,1042,1114,0,0
-175,-90,0,0,0,0,0,0,0,0,0,-1,1049,1114,0,0
-168,-90,0,0,0,0,0,0,0,0,0,-1,1056,1114,0,0
-161,-90,0,0,0,0,0,0,0,0,0,-1,1063,1114,0,0
-154,-90,0,0,0,0,0,0,0,0,0,-1,1070,1114,0,0
-147,-90,0,0,0,0,0,0,0,0,0,-1,1077,1114,0,0
-140,-90,0,0,0,0,0,0,0,0,0,-1,1084,1114,0,0
-133,-90,0,0,0,0,0,0,0,0,0,-1,1091,1114,0,0
-126,-90,0,0,0,0,0,0,0,0,0,-1,1098,1114,0,0
-119,-90,0,0,0,0,0,0,0,0,0,-1,1105,1114,0,0
-112,-90,0,0,0,0,0,0,0,0,0,-1,1112,1114,0,0
-105,-90,0,0,0,0,0,0,0,0,0,-1,1119,1114,0,0
-98,-90,0,0,0,0,0,0,0,0,0,-1,1126,1114,0,0
-91,-90,0,0,0,0,0,0,0,0,0,-1,1133,1114,0,0
-84,-90,0,0,0,0,0,0,0,0,0,-1,1140,1114,0,0
-77,-90,0,0,0,0,0,0,0,0,0,-1,1147,1114,0,0
-70,-90,0,0,0,0,0,0,0,0,0,-1,1154,1114,0,0
-63,-90,0,0,0,0,0,0,0,0,0,-1,1161,1114,0,0
-56,-90,0,0,0,0,0,0,0,0,0,-1,1168,1114,0,0
-49,-90,0,0,0,0,0,0,0,0,0,-1,1175,1114,0,0
-42,-90,0,0,0,0,0,0,0,0,0,-1,1182,1114,0,0
-35,-90,0,0,0,0,0,0,0,0,0,-1,1189,1114,0,0
-28,-90,0,0,0,0,0,0,0,0,0,-1,1196,1114,0,0
-21,-90,0,0,0,0,0,0,0,0,0,-1,1203,1114,0,0
-14,-90,0,0,0,0,0,0,0,0,0,-1,1210,1114,0,0
-7,-90,0,0,0,0,0,0,0,0,0,-1,1217,1114,0,0
0,-90,0,0,0,0,0,0,0,0,0,-1,1224,1114,0,0
7,-90,0,0,0,0,0,0,0,0,0,-1,1231,1114,0,0
14,-90,0,0,0,0,0,0,0,0,0,-1,1238,1114,0,0
21,-90,0,0,0,0,0,0,0,0,0,-1,1245,1114,0,0
28,-90,0,0,0,0,0,0,0,0,0,-1,1252,1114,0,0
35,-90,0,0,0,0,0,0,0,0,0,-1,1259,1114,0,0
42,-90,0,0,0,0,0,0,0,0,0,-1,1266,1114,0,0
49,-90,0,0,0,0,0,0,0,0,0,-1,1273,1114,0,0
56,-90,0,0,0,0,0,0,0,0,0,-1,1280,1114,0,0
63,-90,0,0,0,0,0,0,0,0,0,-1,1287,1114,0,0
70,-90,0,0,0,0,0,0,0,0,0,-1,1294,1114,0,0
77,-90,0,0,0,0,0,0,0,0,0,-1,1301,1114,0,0
84,-90,0,0,0,0,0,0,0,0,0,-1,1308,1114,0,0
91,-90,0,0,0,0,0,0,0,0,0,-1,1315,1114,0,0
98,-90,0,0,0,0,0,0,0,0,0,-1,1322,1114,0,0
105,-90,0,0,0,0,0,0,0,0,0,-1,1329,1114,0,0
112,-90,0,0,0,0,0,0,0,0,0,-1,1336,1114,0,0
119,-90,0,0,0,0,0,0,0,0,0,-1,1343,1114,0,0
126,-90,0,0,0,0,0,0,0,0,0,-1,1350,1114,0,0
133,-90,0,0,0,0,0,0,0,0,0,-1,1357,1114,0,0
140,-90,0,0,0,0,0,0,0,0,0,-1,1364,1114,0,0
147,-90,0,0,0,0,0,0,0,0,0,-1,1371,1114,0,0
154,-90,0,0,0,0,0,0,0,0,0,-1,1378,1114,0,0
161,-90,0,0,0,0,0,0,0,0,0,-1,1385,1114,0,0
168,-90,0,0,0,0,0,0,0,0,0,-1,1392,1114,0,0
175,-90,0,0,0,0,0,0,0,0,0,-1,1399,1114,0,0
182,-90,0,0,0,0,0,0,0,0,0,-1,1406,1114,0,0
189,-90,0,0,0,0,0,0,0,0,0,-1,1413,1114,0,0
196,-90,0,0,0,0,0,0,0,0,0,-1,1420,1114,0,0
203,-90,0,0,0,0,0,0,0,0,0,-1,1427,1114,0,0
210,-90,0,0,0,0,0,0,0,0,0,-1,1434,1114,0,0
217,-90,0,0,0,0,0,0,0,0,0,-1,1441,1114,0,0
224,-90,0,0,0,0,0,0,0,0,0,-1,1448,1114,0,0
231,-90,0,0,0,0,0,0,0,0,0,-1,1455,1114,0,0
238,-90,0,0,0,0,0,0,0,0,0,-1,1462,1114,0,0
245,-90,0,0,0,0,0,0,0,0,0,-1,1469,1114,0,0
252,-90,0,0,0,0,0,0,0,0,0,-1,1476,1114,0,0
259,-90,0,0,0,0,0,0,0,0,0,-1,1483,1114,0,0
266,-90,0,0,0,0,0,0,0,0,0,-1,1490,1114,0,0
273,-90,0,0,0,0,0,0,0,0,0,-1,1497,1114,0,0
280,-90,0,0,0,0,0,0,0,0,0,-1,1504,1114,0,0
287,-90,0,0,0,0,0,0,0,0,0,-1,1511,1114,0,0
294,-90,0,0,0,0,0,0,0,0,0,-1,1518,1114,0,0
301,-90,0,0,0,0,0,0,0,0,0,-1,1525,1114,0,0
308,-90,0,0,0,0,0,0,0,0,0,-1,1532,1114,0,0
315,-90,0,0,0,0,0,0,0,0,0,-1,1539,1114,0,0
322,-90,0,0,0,0,0,0,0,0,0,-1,1546,1114,0,0
329,-90,0,0,0,0,0,0,0,0,0,-1,1553,1114,0,0
336,-90,0,0,0,0,0,0,0,0,0,-1,1560,1114,0,0
343,-90,0,0,0,0,0,0,0,0,0,-1,1567,1114,0,0
350,-90,0,0,0,0,0,0,0,0,0,-1,1574,1114,0,0
357,-90,0,0,0,0,0,0,0,0,0,-1,1581,1114,0,0
364,-90,0,0,0,0,0,0,0,0,0,-1,1588,1114,0,0
371,-90,0,0,0,0,0,0,0,0,0,-1,1595,1114,0,0
378,-90,0,0,0,0,0,0,0,0,0,-1,1602,1114,0,0
385,-90,0,0,0,0,0,0,0,0,0,-1,1609,1114,0,0
392,-90,0,0,0,0,0,0,0,0,0,-1,1616,1114,0,0
399,-90,0,0,0,0,0,0,0,0,0,-1,1623,1114,0,0
406,-90,0,0,0,0,0,0,0,0,0,-1,1630,1114,0,0
413,-90,0,0,0,0,0,0,0,0,0,-1,1637,1114,0,0
420,-90,0,0,0,0,0,0,0,0,0,-1,1644,1114,0,0
427,-90,0,0,0,0,0,0,0,0,0,-1,1651,1114,0,0
434,-90,0,0,0,0,0,0,0,0,0,-1,1658,1114,0,0
441,-90,0,0,0,0,0,0,0,0,0,-1,1665,1114,0,0
448,-90,0,0,0,0,0,0,0,0,0,-1,1672,1114,0,0
455,-90,0,0,0,0,0,0,0,0,0,-1,1679,1114,0,0
462,-90,0,0,0,0,0,0,0,0,0,-1,1686,1114,0,0
469,-90,0,0,0,0,0,0,0,0,0,-1,1693,1114,0,0
476,-90,0,0,0,0,0,0,0,0,0,-1,1700,1114,0,0
483,-90,0,0,0,0,0,0,0,0,0,-1,1707,1114,0,0
490,-90,0,0,0,0,0,0,0,0,0,-1,1714,1114,0,0
497,-90,0,0,0,0,0,0,0,0,0,-1,1721,1114,0,0
504,-90,0,0,0,0,0,0,0,0,0,-1,1728,1114,0,0
511,-90,0,0,0,0,0,0,0,0,0,-1,1735,1114,0,0
518,-90,0,0,0,0,0,0,0,0,0,-1,1742,1114,0,0
525,-90,0,0,0,0,0,0,0,0,0,-1,1749,1114,0,0
532,-90,0,0,0,0,0,0,0,0,0,-1,1756,1114,0,0
539,-90,0,0,0,0,0,0,0,0,0,-1,1763,1114,0,0
546,-90,0,0,0,0,0,0,0,0,0,-1,1770,1114,0,0
553,-90,0,0,0,0,0,0,0,0,0,-1,1777,1114,0,0
560,-90,0,0,0,0,0,0,0,0,0,-1,1784,1114,0,0
567,-90,0,0,0,0,0,0,0,0,0,-1,1791,1114,0,0
574,-90,0,0,0,0,0,0,0,0,0,-1,1798,1114,0,0
581,-90,0,0,0,0,0,0,0,0,0,-1,1805,1114,0,0
588,-90,0,0,0,0,0,0,0,0,0,-1,1812,1114,0,0
595,-90,0,0,0,0,0,0,0,0,0,-1,1819,1114,0,0
602,-90,0,0,0,0,0,0,0,0,0,-1,1826,1114,0,0
609,-90,0,0,0,0,0,0,0,0,0,-1,1833,1114,0,0
616,-90,0,0,0,0,0,0,0,0,0,-1,1840,1114,0,0
623,-90,0,0,0,0,0,0,0,0,0,-1,1847,1114,0,0
630,-90,0,0,0,0,0,0,0,0,0,-1,1854,1114,0,0
637,-90,0,0,0,0,0,0,0,0,0,-1,1861,1114,0,0
644,-90,26.8829,3.07874,0.00364252,-0.0010189,-0.00411421,0.00604033,-0.00341672,-0.527686,0.00552963,0.0363625,1868,1114,26.883,-3.07875
651,-90,26.8448,2.91125,0.00289543,-0.000591885,-0.00259734,0.00428012,-0.00197657,-0.489788,0.00369301,0.042784,1875,1114,26.8449,-2.91126
658,-90,26.854,2.74121,0.00249812,-0.000363836,-0.00182025,0.00338253,-0.00124824,-0.45228,0.00276661,0.0467439,1882,1114,26.854,-2.74119
665,-90,26.9546,2.72583,0.00196411,-0.000330962,-0.00114518,0.00243777,-0.000804618,-0.392184,0.00194954,0.0436658,1889,1114,26.9546,-2.7258
672,-90,27.088,2.90869,0.000945058,-0.000577807,0.000135279,0.000956982,-0.000589731,0.0879147,0.000901347,0.0451866,1896,1114,27.088,-2.9087
679,-90,27.0109,3.09937,-0.000360692,-0.000941935,0.00142037,0.000798482,-0.00210111,0.684486,0.00172947,0.0405494,1903,1114,27.0108,-3.09934
686,-90,26.9762,3.24487,-0.00157205,-0.00131036,0.00250989,0.0010721,-0.0039545,0.81144,0.00305702,0.034199,1910,1114,26.9762,-3.24487
693,-90,26.9832,3.14685,-0.00249457,-0.00160813,0.00336567,0.00134337,-0.00544608,0.850866,0.0041516,0.0330642,1917,1114,26.9832,-3.14687
700,-90,26.9758,3.08704,-0.00326433,-0.00174438,0.00402953,0.00159622,-0.00660493,0.878603,0.00502066,0.0297432,1924,1114,26.9759,-3.08702
707,-90,27.0486,2.6864,0,0,0,0,0,0,0,-1,1931,1114,27.0486,-2.68636
714,-90,26.8263,3.72327,0,0,0,0,0,0,0,-1,1938,1114,26.8263,-3.72321
721,-90,25.7384,5.3396,0,0,0,0,0,0,0,-1,1945,1114,25.7385,-5.33954
728,-90,25.7318,5.21509,-0.00445924,-0.00150844,0.00438261,0.00164045,-0.00760813,0.947764,0.00569817,0.0191374,1952,1114,25.7318,-5.21506
735,-90,25.6892,5.04932,-0.00445955,-0.00123557,0.00400436,0.00146908,-0.00716421,0.976753,0.00533371,0.0228432,1959,1114,25.6893,-5.04928
742,-90,25.7035,4.92957,-0.00401213,-0.00044721,0.0039352,0.00209039,-0.00654973,0.998052,0.00520513,0.0200839,1966,1114,25.7034,-4.92958
749,-90,25.7744,4.79871,-0.00317729,3.13336e-05,0.00413677,0.00286399,-0.00600994,0.970378,0.00522959,0.0141149,1973,1114,25.7744,-4.7987
756,-90,25.7717,4.70007,-0.00190614,0.000714196,0.00468869,0.00427233,-0.00546427,0.921639,0.00563545,0.0142701,1980,1114,25.7718,-4.70008
763,-90,25.7561,4.58545,-0.000148675,0.00157458,0.00544968,0.00623032,-0.00480442,0.863802,0.00638862,0.0124111,1987,1114,25.7561,-4.5854
770,-90,25.7263,4.4718,0.00195991,0.00247851,0.00674779,0.00897198,-0.00453356,0.804603,0.00793654,0.015079,1994,1114,25.7264,-4.47184
777,-90,25.6792,4.37708,0.00412729,0.00318471,0.0093734,0.0130412,-0.00572925,0.76028,0.0111078,0.0134161,2001,1114,25.6792,-4.37714
784,-90,25.6699,4.31738,0.00651107,0.00377968,0.0128418,0.0180596,-0.00776884,0.732423,0.0153015,0.0269717,2008,1114,25.67,-4.3174
791,-90,25.5684,4.44519,0.00925709,0.00425923,0.0171198,0.0240594,-0.010543,0.712926,0.0204794,0.0431311,2015,1114,25.5684,-4.44522
798,-90,25.5046,5.45374,0.012594,0.00465702,0.0221856,0.0311632,-0.0139122,0.696895,0.026652,0.0432157,2022,1114,25.5047,-5.45375
805,-90,25.2913,6.41187,0.016507,0.00500026,0.0279439,0.0392836,-0.0177764,0.683872,0.0337147,0.0442463,2029,1114,25.2913,-6.41183
812,-90,25.0547,7.40991,0.0209772,0.00535249,0.0342048,0.0482505,-0.0219208,0.673125,0.0414531,0.0470436,2036,1114,25.0546,-7.40995
-700,-97,0,0,0,0,0,0,0,0,0,-1,524,1121,0,0
-693,-97,-16.3439,-1.05725,4.46317e-05,0.106437,0.0427492,0.121486,-0.0150038,1.23233,0.0864269,0.0465488,531,1121,-16.3439,1.05723
-686,-97,-16.7184,-0.411743,0.00604491,0.0878301,0.0401207,0.104225,-0.0103502,1.18286,0.0731779,0.0459045,538,1121,-16.7184,0.411721
-679,-97,-17.0971,0.12915,0.00944504,0.0713285,0.0354807,0.0874641,-0.00669053,1.14398,0.0606627,0.0452779,545,1121,-17.0971,-0.129151
-672,-97,-17.6738,0.562256,0,0,0,0,0,0,0,-1,552,1121,-17.6738,-0.562229
-665,-97,-18.3281,0.587158,0,0,0,0,0,0,0,-1,559,1121,-18.3281,-0.587215
-658,-97,-17.8906,0.997803,0.0106566,0.0335691,0.0193793,0.0446251,-0.000399427,1.05234,0.0298841,0.0429554,566,1121,-17.8906,-0.997769
-651,-97,-17.3515,1.47595,0.00928352,0.0247149,0.0146711,0.0335755,0.000422927,1.02748,0.0222441,0.0312748,573,1121,-17.3515,-1.47591
-644,-97,-17.3659,1.69788,0.00759828,0.0174151,0.0102881,0.0239057,0.00110769,1.00798,0.015581,0.0114148,580,1121,-17.3659,-1.69792
-637,-97,-17.3585,1.88525,0.00604714,0.0106633,0.0070666,0.0157892,0.000921241,0.943246,0.0102329,0.0118603,587,1121,-17.3585,-1.8852
-630,-97,-17.3605,2.03516,0.00415703,0.00626184,0.00297405,0.0083642,0.00205467,0.955454,0.00503304,0.010057,594,1121,-17.3605,-2.03519
-623,-97,-17.3663,2.19641,0.00229902,0.00281421,7.51495e-05,0.00282495,0.00228828,1.42887,0.00173234,0.0114093,601,1121,-17.3663,-2.19644
-616,-97,-17.3598,2.37866,0.000664348,0.000963785,-0.00171313,0.00253372,-0.000905591,-0.828985,0.00205852,0.0127043,608,1121,-17.3598,-2.37867
-609,-97,-17.3908,2.53723,5.2445e-05,-0.000535731,-0.00314567,0.00291775,-0.00340103,-0.738789,0.00365171,0.0154385,615,1121,-17.3908,-2.53727
-602,-97,-17.4221,2.66394,-0.00066983,-0.00151775,-0.00403345,0.00296189,-0.00514946,-0.733035,0.00473952,0.0145729,622,1121,-17.4221,-2.6639
-595,-97,-17.343,2.83813,-0.000959805,-0.00185711,-0.00433448,0.00294918,-0.0057661,-0.733828,0.00511863,0.0170515,629,1121,-17.343,-2.83808
-588,-97,-17.3127,2.99658,0,0,0,0,0,0,0,-1,636,1121,-17.3127,-2.99663
-581,-97,-18.6579,1.24951,0,0,0,0,0,0,0,-1,643,1121,-18.6579,-1.24953
-574,-97,-18.5867,1.20325,-0.00111523,-0.00173608,-0.0037931,0.00238013,-0.00523144,-0.744569,0.00449614,0.0377483,650,1121,-18.5867,-1.20323
-567,-97,-18.4893,1.17432,-0.00122858,-0.00139496,-0.00319198,0.00188129,-0.00450483,-0.77237,0.00378932,0.0353118,657,1121,-18.4893,-1.17432
-560,-97,-18.4283,1.38367,-0.00138441,-0.00080628,-0.00228043,0.00120334,-0.00339402,-0.848441,0.0027529,0.0387536,664,1121,-18.4284,-1.38371
-553,-97,-18.4706,1.57739,-0.00163229,7.45895e-05,-0.00104677,0.000571738,-0.00212944,-1.1274,0.00164369,0.0434388,671,1121,-18.4706,-1.57743
-546,-97,-18.5497,1.50415,-0.00192188,0.00130867,0.00053802,0.00139592,-0.00200913,1.41003,0.0019765,0.043493,678,1121,-18.5497,-1.5042
-539,-97,-18.691,1.33081,-0.00209283,0.00291357,0.00234944,0.00384343,-0.00302268,1.19394,0.00397358,0.0410234,685,1121,-18.691,-1.33079
-532,-97,-18.6858,1.0835,-0.00258157,0.00395876,0.00311929,0.00520789,-0.0038307,1.1899,0.00523858,0.0395432,692,1121,-18.6858,-1.08349
-525,-97,0,0,0,0,0,0,0,0,0,-1,699,1121,0,0
-518,-97,0,0,0,0,0,0,0,0,0,-1,706,1121,0,0
-511,-97,0,0,0,0,0,0,0,0,0,-1,713,1121,0,0
-504,-97,0,0,0,0,0,0,0,0,0,-1,720,1121,0,0
-497,-97,0,0,0,0,0,0,0,0,0,-1,727,1121,0,0
-490,-97,0,0,0,0,0,0,0,0,0,-1,734,1121,0,0
-483,-97,0,0,0,0,0,0,0,0,0,-1,741,1121,0,0
-476,-97,0,0,0,0,0,0,0,0,0,-1,748,1121,0,0
-469,-97,0,0,0,0,0,0,0,0,0,-1,755,1121,0,0
-462,-97,0,0,0,0,0,0,0,0,0,-1,762,1121,0,0
-455,-97,0,0,0,0,0,0,0,0,0,-1,769,1121,0,0
-448,-97,0,0,0,0,0,0,0,0,0,-1,776,1121,0,0
-441,-97,0,0,0,0,0,0,0,0,0,-1,783,1121,0,0
-434,-97,0,0,0,0,0,0,0,0,0,-1,790,1121,0,0
-427,-97,0,0,0,0,0,0,0,0,0,-1,797,1121,0,0
-420,-97,0,0,0,0,0,0,0,0,0,-1,804,1121,0,0
-413,-97,0,0,0,0,0,0,0,0,0,-1,811,1121,0,0
-406,-97,0,0,0,0,0,0,0,0,0,-1,818,1121,0,0
-399,-97,0,0,0,0,0,0,0,0,0,-1,825,1121,0,0
-392,-97,0,0,0,0,0,0,0,0,0,-1,832,1121,0,0
-385,-97,0,0,0,0,0,0,0,0,0,-1,839,1121,0,0
-378,-97,0,0,0,0,0,0,0,0,0,-1,846,1121,0,0
-371,-97,0,0,0,0,0,0,0,0,0,-1,853,1121,0,0
-364,-97,0,0,0,0,0,0,0,0,0,-1,860,1121,0,0
-357,-97,0,0,0,0,0,0,0,0,0,-1,867,1121,0,0
-350,-97,0,0,0,0,0,0,0,0,0,-1,874,1121,0,0
-343,-97,0,0,0,0,0,0,0,0,0,-1,881,1121,0,0
-336,-97,0,0,0,0,0,0,0,0,0,-1,888,1121,0,0
-329,-97,0,0,0,0,0,0,0,0,0,-1,895,1121,0,0
-322,-97,0,0,0,0,0,0,0,0,0,-1,902,1121,0,0
-315,-97,0,0,0,0,0,0,0,0,0,-1,909,1121,0,0
-308,-97,0,0,0,0,0,0,0,0,0,-1,916,1121,0,0
-301,-97,0,0,0,0,0,0,0,0,0,-1,923,1121,0,0
-294,-97,0,0,0,0,0,0,0,0,0,-1,930,1121,0,0
-287,-97,0,0,0,0,0,0,0,0,0,-1,937,1121,0,0
-280,-97,0,0,0,0,0,0,0,0,0,-1,944,1121,0,0
-273,-97,0,0,0,0,0,0,0,0,0,-1,951,1121,0,0
-266,-97,0,0,0,0,0,0,0,0,0,-1,958,1121,0,0
-259,-97,0,0,0,0,0,0,0,0,0,-1,965,1121,0,0
-252,-97,0,0,0,0,0,0,0,0,0,-1,972,1121,0,0
-245,-97,0,0,0,0,0,0,0,0,0,-1,979,1121,0,0
-238,-97,0,0,0,0,0,0,0,0,0,-1,986,1121,0,0
-231,-97,0,0,0,0,0,0,0,0,0,-1,993,1121,0,0
-224,-97,0,0,0,0,0,0,0,0,0,-1,1000,1121,0,0
-217,-97,0,0,0,0,0,0,0,0,0,-1,1007,1121,0,0
-210,-97,0,0,0,0,0,0,0,0,0,-1,1014,1121,0,0
-203,-97,0,0,0,0,0,0,0,0,0,-1,1021,1121,0,0
-196,-97,0,0,0,0,0,0,0,0,0,-1,1028,1121,0,0
-189,-97,0,0,0,0,0,0,0,0,0,-1,1035,1121,0,0
-182,-97,0,0,0,0,0,0,0,0,0,-1,1042,1121,0,0
-175,-97,0,0,0,0,0,0,0,0,0,-1,1049,1121,0,0
-168,-97,0,0,0,0,0,0,0,0,0,-1,1056,1121,0,0
-161,-97,0,0,0,0,0,0,0,0,0,-1,1063,1121,0,0
-154,-97,0,0,0,0,0,0,0,0,0,-1,1070,1121,0,0
-147,-97,0,0,0,0,0,0,0,0,0,-1,1077,1121,0,0
-140,-97,0,0,0,0,0,0,0,0,0,-1,1084,1121,0,0
-133,-97,0,0,0,0,0,0,0,0,0,-1,1091,1121,0,0
-126,-97,0,0,0,0,0,0,0,0,0,-1,1098,1121,0,0
-119,-97,0,0,0,0,0,0,0,0,0,-1,1105,1121,0,0
-112,-97,0,0,0,0,0,0,0,0,0,-1,1112,1121,0,0
-105,-97,0,0,0,0,0,0,0,0,0,-1,1119,1121,0,0
-98,-97,0,0,0,0,0,0,0,0,0,-1,1126,1121,0,0
-91,-97,0,0,0,0,0,0,0,0,0,-1,1133,1121,0,0
-84,-97,0,0,0,0,0,0,0,0,0,-1,1140,1121,0,0
-77,-97,0,0,0,0,0,0,0,0,0,-1,1147,1121,0,0
-70,-97,0,0,0,0,0,0,0,0,0,-1,1154,1121,0,0
-63,-97,0,0,0,0,0,0,0,0,0,-1,1161,1121,0,0
-56,-97,0,0,0,0,0,0,0,0,0,-1,1168,1121,0,0
-49,-97,0,0,0,0,0,0,0,0,0,-1,1175,1121,0,0
-42,-97,0,0,0,0,0,0,0,0,0,-1,1182,1121,0,0
-35,-97,0,0,0,0,0,0,0,0,0,-1,1189,1121,0,0
-28,-97,0,0,0,0,0,0,0,0,0,-1,1196,1121,0,0
-21,-97,0,0,0,0,0,0,0,0,0,-1,1203,1121,0,0
-14,-97,0,0,0,0,0,0,0,0,0,-1,1210,1121,0,0
-7,-97,0,0,0,0,0,0,0,0,0,-1,1217,1121,0,0
0,-97,0,0,0,0,0,0,0,0,0,-1,1224,1121,0,0
7,-97,0,0,0,0,0,0,0,0,0,-1,1231,1121,0,0
14,-97,0,0,0,0,0,0,0,0,0,-1,1238,1121,0,0
21,-97,0,0,0,0,0,0,0,0,0,-1,1245,1121,0,0
28,-97,0,0,0,0,0,0,0,0,0,-1,1252,1121,0,0
35,-97,0,0,0,0,0,0,0,0,0,-1,1259,1121,0,0
42,-97,0,0,0,0,0,0,0,0,0,-1,1266,1121,0,0
49,-97,0,0,0,0,0,0,0,0,0,-1,1273,1121,0,0
56,-97,0,0,0,0,0,0,0,0,0,-1,1280,1121,0,0
63,-97,0,0,0,0,0,0,0,0,0,-1,1287,1121,0,0
70,-97,0,0,0,0,0,0,0,0,0,-1,1294,1121,0,0
77,-97,0,0,0,0,0,0,0,0,0,-1,1301,1121,0,0
84,-97,0,0,0,0,0,0,0,0,0,-1,1308,1121,0,0
91,-97,0,0,0,0,0,0,0,0,0,-1,1315,1121,0,0
98,-97,0,0,0,0,0,0,0,0,0,-1,1322,1121,0,0
105,-97,0,0,0,0,0,0,0,0,0,-1,1329,1121,0,0
112,-97,0,0,0,0,0,0,0,0,0,-1,1336,1121,0,0
119,-97,0,0,0,0,0,0,0,0,0,-1,1343,1121,0,0
126,-97,0,0,0,0,0,0,0,0,0,-1,1350,1121,0,0
133,-97,0,0,0,0,0,0,0,0,0,-1,1357,1121,0,0
140,-97,0,0,0,0,0,0,0,0,0,-1,1364,1121,0,0
147,-97,0,0,0,0,0,0,0,0,0,-1,1371,1121,0,0
154,-97,0,0,0,0,0,0,0,0,0,-1,1378,1121,0,0
161,-97,0,0,0,0,0,0,0,0,0,-1,1385,1121,0,0
168,-97,0,0,0,0,0,0,0,0,0,-1,1392,1121,0,0
175,-97,0,0,0,0,0,0,0,0,0,-1,1399,1121,0,0
182,-97,0,0,0,0,0,0,0,0,0,-1,1406,1121,0,0
189,-97,0,0,0,0,0,0,0,0,0,-1,1413,1121,0,0
196,-97,0,0,0,0,0,0,0,0,0,-1,1420,1121,0,0
203,-97,0,0,0,0,0,0,0,0,0,-1,1427,1121,0,0
210,-97,0,0,0,0,0,0,0,0,0,-1,1434,1121,0,0
217,-97,0,0,0,0,0,0,0,0,0,-1,1441,1121,0,0
224,-97,0,0,0,0,0,0,0,0,0,-1,1448,1121,0,0
231,-97,0,0,0,0,0,0,0,0,0,-1,1455,1121,0,0
238,-97,0,0,0,0,0,0,0,0,0,-1,1462,1121,0,0
245,-97,0,0,0,0,0,0,0,0,0,-1,1469,1121,0,0
252,-97,0,0,0,0,0,0,0,0,0,-1,1476,1121,0,0
259,-97,0,0,0,0,0,0,0,0,0,-1,1483,1121,0,0
266,-97,0,0,0,0,0,0,0,0,0,-1,1490,1121,0,0
273,-97,0,0,0,0,0,0,0,0,0,-1,1497,1121,0,0
280,-97,0,0,0,0,0,0,0,0,0,-1,1504,1121,0,0
287,-97,0,0,0,0,0,0,0,0,0,-1,1511,1121,0,0
294,-97,0,0,0,0,0,0,0,0,0,-1,1518,1121,0,0
301,-97,0,0,0,0,0,0,0,0,0,-1,1525,1121,0,0
308,-97,0,0,0,0,0,0,0,0,0,-1,1532,1121,0,0
315,-97,0,0,0,0,0,0,0,0,0,-1,1539,1121,0,0
322,-97,0,0,0,0,0,0,0,0,0,-1,1546,1121,0,0
329,-97,0,0,0,0,0,0,0,0,0,-1,1553,1121,0,0
336,-97,0,0,0,0,0,0,0,0,0,-1,1560,1121,0,0
343,-97,0,0,0,0,0,0,0,0,0,-1,1567,1121,0,0
350,-97,0,0,0,0,0,0,0,0,0,-1,1574,1121,0,0
357,-97,0,0,0,0,0,0,0,0,0,-1,1581,1121,0,0
364,-97,0,0,0,0,0,0,0,0,0,-1,1588,1121,0,0
371,-97,0,0,0,0,0,0,0,0,0,-1,1595,1121,0,0
378,-97,0,0,0,0,0,0,0,0,0,-1,1602,1121,0,0
385,-97,0,0,0,0,0,0,0,0,0,-1,1609,1121,0,0
392,-97,0,0,0,0,0,0,0,0,0,-1,1616,1121,0,0
399,-97,0,0,0,0,0,0,0,0,0,-1,1623,1121,0,0
406,-97,0,0,0,0,0,0,0,0,0,-1,1630,1121,0,0
413,-97,0,0,0,0,0,0,0,0,0,-1,1637,1121,0,0
420,-97,0,0,0,0,0,0,0,0,0,-1,1644,1121,0,0
427,-97,0,0,0,0,0,0,0,0,0,-1,1651,1121,0,0
434,-97,0,0,0,0,0,0,0,0,0,-1,1658,1121,0,0
441,-97,0,0,0,0,0,0,0,0,0,-1,1665,1121,0,0
448,-97,0,0,0,0,0,0,0,0,0,-1,1672,1121,0,0
455,-97,0,0,0,0,0,0,0,0,0,-1,1679,1121,0,0
462,-97,0,0,0,0,0,0,0,0,0,-1,1686,1121,0,0
469,-97,0,0,0,0,0,0,0,0,0,-1,1693,1121,0,0
476,-97,0,0,0,0,0,0,0,0,0,-1,1700,1121,0,0
483,-97,0,0,0,0,0,0,0,0,0,-1,1707,1121,0,0
490,-97,0,0,0,0,0,0,0,0,0,-1,1714,1121,0,0
497,-97,0,0,0,0,0,0,0,0,0,-1,1721,1121,0,0
504,-97,0,0,0,0,0,0,0,0,0,-1,1728,1121,0,0
511,-97,0,0,0,0,0,0,0,0,0,-1,1735,1121,0,0
518,-97,0,0,0,0,0,0,0,0,0,-1,1742,1121,0,0
525,-97,0,0,0,0,0,0,0,0,0,-1,1749,1121,0,0
532,-97,0,0,0,0,0,0,0,0,0,-1,1756,1121,0,0
539,-97,0,0,0,0,0,0,0,0,0,-1,1763,1121,0,0
546,-97,0,0,0,0,0,0,0,0,0,-1,1770,1121,0,0
553,-97,0,0,0,0,0,0,0,0,0,-1,1777,1121,0,0
560,-97,0,0,0,0,0,0,0,0,0,-1,1784,1121,0,0
567,-97,0,0,0,0,0,0,0,0,0,-1,1791,1121,0,0
574,-97,0,0,0,0,0,0,0,0,0,-1,1798,1121,0,0
581,-97,0,0,0,0,0,0,0,0,0,-1,1805,1121,0,0
588,-97,0,0,0,0,0,0,0,0,0,-1,1812,1121,0,0
595,-97,0,0,0,0,0,0,0,0,0,-1,1819,1121,0,0
602,-97,0,0,0,0,0,0,0,0,0,-1,1826,1121,0,0
609,-97,0,0,0,0,0,0,0,0,0,-1,1833,1121,0,0
616,-97,0,0,0,0,0,0,0,0,0,-1,1840,1121,0,0
623,-97,0,0,0,0,0,0,0,0,0,-1,1847,1121,0,0
630,-97,0,0,0,0,0,0,0,0,0,-1,1854,1121,0,0
637,-97,0,0,0,0,0,0,0,0,0,-1,1861,1121,0,0
644,-97,26.9052,3.28735,0.00379519,-0.00191845,-0.00419167,0.00601099,-0.00413426,-0.486281,0.00589067,0.0402221,1868,1121,26.9051,-3.28741
651,-97,26.8501,3.12048,0.00285255,-0.0014642,-0.00275308,0.00419247,-0.00280412,-0.452949,0.0040659,0.038234,1875,1121,26.8501,-3.12045
658,-97,26.8848,2.86084,0.00238051,-0.00115814,-0.00200671,0.00328651,-0.00206415,-0.424091,0.00311596,0.0371667,1882,1121,26.8847,-2.86081
665,-97,26.9607,2.68018,0.00171645,-0.00101845,-0.00124154,0.00219598,-0.00149798,-0.368587,0.00214536,0.0378798,1889,1121,26.9607,-2.68023
672,-97,26.7751,3.02063,0,0,0,0,0,0,0,-1,1896,1121,26.7752,-3.0206
679,-97,26.9175,3.27515,-0.000832672,-0.00137007,0.0013983,0.000322515,-0.00252525,0.690476,0.00180066,0.041572,1903,1121,26.9175,-3.27515
686,-97,26.8881,3.34424,-0.00204908,-0.00162211,0.00248809,0.000661636,-0.00433283,0.828195,0.00313248,0.0353974,1910,1121,26.888,-3.3442
693,-97,26.9529,3.0957,-0.0029521,-0.00181788,0.00333162,0.000994551,-0.00576454,0.8697,0.00421385,0.0323419,1917,1121,26.9529,-3.09574
700,-97,26.9619,2.99951,-0.00370767,-0.00189724,0.00399598,0.00129477,-0.00689968,0.896784,0.00508661,0.0260639,1924,1121,26.9619,-2.99949
707,-97,27.0326,2.896,0,0,0,0,0,0,0,-1,1931,1121,27.0325,-2.89605
714,-97,26.6539,4.06262,0,0,0,0,0,0,0,-1,1938,1121,26.654,-4.06267
721,-97,25.637,5.32849,0,0,0,0,0,0,0,-1,1945,1121,25.637,-5.32854
728,-97,25.6412,5.23572,-0.0047363,-0.00141998,0.00435805,0.0015847,-0.00774098,0.967183,0.00576199,0.0183937,1952,1121,25.6412,-5.23566
735,-97,25.6061,5.0791,-0.0046118,-0.00117411,0.00396631,0.00142978,-0.00721569,0.989864,0.00535111,0.020293,1959,1121,25.6061,-5.07904
742,-97,25.5941,4.94604,-0.00400432,-0.000419541,0.00383035,0.00201705,-0.00644091,1.00424,0.005101,0.016459,1966,1121,25.5941,-4.94599
749,-97,25.6075,4.81897,-0.00296099,6.98661e-05,0.00388477,0.00272432,-0.00561545,0.971367,0.00491046,0.0176456,1973,1121,25.6075,-4.81895
756,-97,25.6053,4.68323,-0.00149208,0.000831287,0.00425754,0.00408278,-0.00474358,0.918583,0.00510066,0.0150938,1980,1121,25.6054,-4.68322
763,-97,25.595,4.56006,0.000492823,0.00184376,0.0049684,0.0061824,-0.00384582,0.85296,0.00584195,0.0127758,1987,1121,25.595,-4.56009
770,-97,25.5651,4.45093,0.00285627,0.00289694,0.00616844,0.00904508,-0.00329187,0.787046,0.00737639,0.0107325,1994,1121,25.565,-4.45092
777,-97,25.5701,4.32898,0.00523019,0.00382928,0.00864449,0.0132026,-0.00414309,0.744972,0.0104599,0.013303,2001,1121,25.5701,-4.32904
784,-97,25.5242,4.3136,0.00780236,0.00478461,0.0119928,0.0183808,-0.00579382,0.722819,0.0145742,0.0323179,2008,1121,25.5242,-4.31354
791,-97,25.3516,4.35315,0.0107588,0.00582134,0.0161823,0.0246596,-0.00807943,0.709703,0.0196933,0.0433367,2015,1121,25.3516,-4.35319
798,-97,25.5861,5.08154,0.0142419,0.00702037,0.0212287,0.0321647,-0.0109024,0.70116,0.0258552,0.0445537,2022,1121,25.5861,-5.08157
805,-97,25.6775,6.22302,0.0181111,0.00848315,0.0271014,0.0408227,-0.0142285,0.6975,0.0329969,0.0444566,2029,1121,25.6776,-6.22307
812,-97,25.865,7.349,0.0222154,0.0103838,0.0337144,0.0505291,-0.0179299,0.698548,0.0409913,0.0494128,2036,1121,25.865,-7.34902
-700,-104,0,0,0,0,0,0,0,0,0,-1,524,1128,0,0
-693,-104,-16.9221,-1.30347,0,0,0,0,0,0,0,-1,531,1128,-16.9221,1.3035
-686,-104,-17.0999,-0.906616,0.0136996,0.0857788,0.0338051,0.0991521,0.000326298,1.19409,0.0659929,0.0484364,538,1128,-17.0999,0.90667
-679,-104,-17.3679,-0.484497,0.0168575,0.0694124,0.031065,0.0838233,0.00244664,1.13645,0.0550848,0.044986,545,1128,-17.3679,0.484548
-672,-104,-18.6238,-0.342407,0,0,0,0,0,0,0,-1,552,1128,-18.6238,0.342467
-665,-104,-18.3268,0.13562,0.0171264,0.0427423,0.0225884,0.0559013,0.00396748,1.0433,0.036018,0.0466367,559,1128,-18.3269,-0.135569
-658,-104,-17.9147,0.654541,0.0153202,0.0323636,0.0180862,0.0438351,0.00384864,1.00556,0.0280288,0.042598,566,1128,-17.9147,-0.654588
-651,-104,-17.2407,1.53064,0.0128768,0.0238284,0.0138804,0.033274,0.00343117,0.973275,0.021132,0.0356473,573,1128,-17.2407,-1.53067
-644,-104,-17.2114,1.68555,0.0102041,0.0169107,0.00997653,0.0240824,0.00303241,0.947525,0.0151457,0.0144311,580,1128,-17.2114,-1.68557
-637,-104,-17.1645,1.86609,0.00794473,0.0104455,0.0071889,0.0164919,0.00189828,0.871503,0.0104197,0.0103769,587,1128,-17.1645,-1.86603
-630,-104,-17.1825,2.005,0.00558794,0.00619548,0.00327135,0.00917713,0.00260629,0.831694,0.00546074,0.0123918,594,1128,-17.1825,-2.00501
-623,-104,-17.1922,2.1792,0.00313781,0.00283483,0.000498553,0.00350738,0.00246526,0.637901,0.00207981,0.0143659,601,1128,-17.1922,-2.17921
-616,-104,-17.2501,2.38696,0.00116163,0.000999043,-0.00111547,0.00219876,-3.80898e-05,-0.749024,0.0014787,0.0153957,608,1128,-17.25,-2.38694
-609,-104,-17.3212,2.48511,0.000534889,-0.000507482,-0.00239348,0.00246328,-0.00243587,-0.678196,0.00282854,0.0187322,615,1128,-17.3212,-2.48508
-602,-104,-17.22,2.66248,-0.000132898,-0.00144237,-0.0031691,0.00244839,-0.00402366,-0.683531,0.00377335,0.018021,622,1128,-17.2199,-2.66248
-595,-104,-17.1539,2.88196,-0.000349967,-0.00173624,-0.00342749,0.00245377,-0.00453997,-0.685629,0.00409728,0.0167162,629,1128,-17.1539,-2.882
-588,-104,-17.2985,2.96094,-0.000337339,-0.00180305,-0.00341514,0.00242269,-0.00456308,-0.679706,0.00409585,0.0363603,636,1128,-17.2985,-2.96092
-581,-104,-18.5813,1.10962,0,0,0,0,0,0,0,-1,643,1128,-18.5813,-1.10964
-574,-104,-18.5889,1.22791,-0.000422825,-0.00136443,-0.00306264,0.00220499,-0.00399225,-0.709133,0.00362724,0.0454184,650,1128,-18.5889,-1.22791
-567,-104,-18.4429,1.31787,-0.000554071,-0.000938829,-0.00265675,0.00191725,-0.00341015,-0.749256,0.00311578,0.0347244,657,1128,-18.4429,-1.31789
-560,-104,-18.3169,1.31262,-0.000754167,-0.000263747,-0.00203399,0.00153976,-0.00255767,-0.845387,0.00238986,0.0404271,664,1128,-18.3169,-1.31264
-553,-104,-18.5469,1.35938,-0.00106916,0.000708313,-0.00119001,0.00130483,-0.00166568,-1.10613,0.00171924,0.0441542,671,1128,-18.5469,-1.35933
-546,-104,-18.5585,1.2467,-0.00145495,0.00203038,-8.97498e-05,0.00203269,-0.00145726,-1.54507,0.00202403,0.044281,678,1128,-18.5585,-1.24666
-539,-104,-18.6039,1.26208,-0.00171102,0.00372309,0.00123285,0.00398971,-0.00197764,1.35781,0.00350993,0.0433851,685,1128,-18.6039,-1.26212
-532,-104,-18.734,1.24463,-0.00196193,0.00499977,0.00191145,0.00549006,-0.00245222,1.31971,0.00469596,0.0452409,692,1128,-18.734,-1.24458
-525,-104,-18.8558,1.24829,0,0,0,0,0,0,0,-1,699,1128,-18.8558,-1.24831
-518,-104,0,0,0,0,0,0,0,0,0,-1,706,1128,0,0
-511,-104,0,0,0,0,0,0,0,0,0,-1,713,1128,0,0
-504,-104,0,0,0,0,0,0,0,0,0,-1,720,1128,0,0
-497,-104,0,0,0,0,0,0,0,0,0,-1,727,1128,0,0
-490,-104,0,0,0,0,0,0,0,0,0,-1,734,1128,0,0
-483,-104,0,0,0,0,0,0,0,0,0,-1,741,1128,0,0
-476,-104,0,0,0,0,0,0,0,0,0,-1,748,1128,0,0
-469,-104,0,0,0,0,0,0,0,0,0,-1,755,1128,0,0
-462,-104,0,0,0,0,0,0,0,0,0,-1,762,1128,0,0
-455,-104,0,0,0,0,0,0,0,0,0,-1,769,1128,0,0
-448,-104,0,0,0,0,0,0,0,0,0,-1,776,1128,0,0
-441,-104,0,0,0,0,0,0,0,0,0,-1,783,1128,0,0
-434,-104,0,0,0,0,0,0,0,0,0,-1,790,1128,0,0
-427,-104,0,0,0,0,0,0,0,0,0,-1,797,1128,0,0
-420,-104,0,0,0,0,0,0,0,0,0,-1,804,1128,0,0
-413,-104,0,0,0,0,0,0,0,0,0,-1,811,1128,0,0
-406,-104,0,0,0,0,0,0,0,0,0,-1,818,1128,0,0
-399,-104,0,0,0,0,0,0,0,0,0,-1,825,1128,0,0
-392,-104,0,0,0,0,0,0,0,0,0,-1,832,1128,0,0
-385,-104,0,0,0,0,0,0,0,0,0,-1,839,1128,0,0
-378,-104,0,0,0,0,0,0,0,0,0,-1,846,1128,0,0
-371,-104,0,0,0,0,0,0,0,0,0,-1,853,1128,0,0
-364,-104,0,0,0,0,0,0,0,0,0,-1,860,1128,0,0
-357,-104,0,0,0,0,0,0,0,0,0,-1,867,1128,0,0
-350,-104,0,0,0,0,0,0,0,0,0,-1,874,1128,0,0
-343,-104,0,0,0,0,0,0,0,0,0,-1,881,1128,0,0
-336,-104,0,0,0,0,0,0,0,0,0,-1,888,1128,0,0
-329,-104,0,0,0,0,0,0,0,0,0,-1,895,1128,0,0
-322,-104,0,0,0,0,0,0,0,0,0,-1,902,1128,0,0
-315,-104,0,0,0,0,0,0,0,0,0,-1,909,1128,0,0
-308,-104,0,0,0,0,0,0,0,0,0,-1,916,1128,0,0
-301,-104,0,0,0,0,0,0,0,0,0,-1,923,1128,0,0
-294,-104,0,0,0,0,0,0,0,0,0,-1,930,1128,0,0
-287,-104,0,0,0,0,0,0,0,0,0,-1,937,1128,0,0
-280,-104,0,0,0,0,0,0,0,0,0,-1,944,1128,0,0
-273,-104,0,0,0,0,0,0,0,0,0,-1,951,1128,0,0
-266,-104,0,0,0,0,0,0,0,0,0,-1,958,1128,0,0
-259,-104,0,0,0,0,0,0,0,0,0,-1,965,1128,0,0
-252,-104,0,0,0,0,0,0,0,0,0,-1,972,1128,0,0
-245,-104,0,0,0,0,0,0,0,0,0,-1,979,1128,0,0
-238,-104,0,0,0,0,0,0,0,0,0,-1,986,1128,0,0
-231,-104,0,0,0,0,0,0,0,0,0,-1,993,1128,0,0
-224,-104,0,0,0,0,0,0,0,0,0,-1,1000,1128,0,0
-217,-104,0,0,0,0,0,0,0,0,0,-1,1007,1128,0,0
-210,-104,0,0,0,0,0,0,0,0,0,-1,1014,1128,0,0
-203,-104,0,0,0,0,0,0,0,0,0,-1,1021,1128,0,0
-196,-104,0,0,0,0,0,0,0,0,0,-1,1028,1128,0,0
-189,-104,0,0,0,0,0,0,0,0,0,-1,1035,1128,0,0
-182,-104,0,0,0,0,0,0,0,0,0,-1,1042,1128,0,0
-175,-104,0,0,0,0,0,0,0,0,0,-1,1049,1128,0,0
-168,-104,0,0,0,0,0,0,0,0,0,-1,1056,1128,0,0
-161,-104,0,0,0,0,0,0,0,0,0,-1,1063,1128,0,0
-154,-104,0,0,0,0,0,0,0,0,0,-1,1070,1128,0,0
-147,-104,0,0,0,0,0,0,0,0,0,-1,1077,1128,0,0
-140,-104,0,0,0,0,0,0,0,0,0,-1,1084,1128,0,0
-133,-104,0,0,0,0,0,0,0,0,0,-1,1091,1128,0,0
-126,-104,0,0,0,0,0,0,0,0,0,-1,1098,1128,0,0
-119,-104,0,0,0,0,0,0,0,0,0,-1,1105,1128,0,0
-112,-104,0,0,0,0,0,0,0,0,0,-1,1112,1128,0,0
-105,-104,0,0,0,0,0,0,0,0,0,-1,1119,1128,0,0
-98,-104,0,0,0,0,0,0,0,0,0,-1,1126,1128,0,0
-91,-104,0,0,0,0,0,0,0,0,0,-1,1133,1128,0,0
-84,-104,0,0,0,0,0,0,0,0,0,-1,1140,1128,0,0
-77,-104,0,0,0,0,0,0,0,0,0,-1,1147,1128,0,0
-70,-104,0,0,0,0,0,0,0,0,0,-1,1154,1128,0,0
-63,-104,0,0,0,0,0,0,0,0,0,-1,1161,1128,0,0
-56,-104,0,0,0,0,0,0,0,0,0,-1,1168,1128,0,0
-49,-104,0,0,0,0,0,0,0,0,0,-1,1175,1128,0,0
-42,-104,0,0,0,0,0,0,0,0,0,-1,1182,1128,0,0
-35,-104,0,0,0,0,0,0,0,0,0,-1,1189,1128,0,0
-28,-104,0,0,0,0,0,0,0,0,0,-1,1196,1128,0,0
-21,-104,0,0,0,0,0,0,0,0,0,-1,1203,1128,0,0
-14,-104,0,0,0,0,0,0,0,0,0,-1,1210,1128,0,0
-7,-104,0,0,0,0,0,0,0,0,0,-1,1217,1128,0,0
0,-104,0,0,0,0,0,0,0,0,0,-1,1224,1128,0,0
7,-104,0,0,0,0,0,0,0,0,0,-1,1231,1128,0,0
14,-104,0,0,0,0,0,0,0,0,0,-1,1238,1128,0,0
21,-104,0,0,0,0,0,0,0,0,0,-1,1245,1128,0,0
28,-104,0,0,0,0,0,0,0,0,0,-1,1252,1128,0,0
35,-104,0,0,0,0,0,0,0,0,0,-1,1259,1128,0,0
42,-104,0,0,0,0,0,0,0,0,0,-1,1266,1128,0,0
49,-104,0,0,0,0,0,0,0,0,0,-1,1273,1128,0,0
56,-104,0,0,0,0,0,0,0,0,0,-1,1280,1128,0,0
63,-104,0,0,0,0,0,0,0,0,0,-1,1287,1128,0,0
70,-104,0,0,0,0,0,0,0,0,0,-1,1294,1128,0,0
77,-104,0,0,0,0,0,0,0,0,0,-1,1301,1128,0,0
84,-104,0,0,0,0,0,0,0,0,0,-1,1308,1128,0,0
91,-104,0,0,0,0,0,0,0,0,0,-1,1315,1128,0,0
98,-104,0,0,0,0,0,0,0,0,0,-1,1322,1128,0,0
105,-104,0,0,0,0,0,0,0,0,0,-1,1329,1128,0,0
112,-104,0,0,0,0,0,0,0,0,0,-1,1336,1128,0,0
119,-104,0,0,0,0,0,0,0,0,0,-1,1343,1128,0,0
126,-104,0,0,0,0,0,0,0,0,0,-1,1350,1128,0,0
133,-104,0,0,0,0,0,0,0,0,0,-1,1357,1128,0,0
140,-104,0,0,0,0,0,0,0,0,0,-1,1364,1128,0,0
147,-104,0,0,0,0,0,0,0,0,0,-1,1371,1128,0,0
154,-104,0,0,0,0,0,0,0,0,0,-1,1378,1128,0,0
161,-104,0,0,0,0,0,0,0,0,0,-1,1385,1128,0,0
168,-104,0,0,0,0,0,0,0,0,0,-1,1392,1128,0,0
175,-104,0,0,0,0,0,0,0,0,0,-1,1399,1128,0,0
182,-104,0,0,0,0,0,0,0,0,0,-1,1406,1128,0,0
189,-104,0,0,0,0,0,0,0,0,0,-1,1413,1128,0,0
196,-104,0,0,0,0,0,0,0,0,0,-1,1420,1128,0,0
203,-104,0,0,0,0,0,0,0,0,0,-1,1427,1128,0,0
210,-104,0,0,0,0,0,0,0,0,0,-1,1434,1128,0,0
217,-104,0,0,0,0,0,0,0,0,0,-1,1441,1128,0,0
224,-104,0,0,0,0,0,0,0,0,0,-1,1448,1128,0,0
231,-104,0,0,0,0,0,0,0,0,0,-1,1455,1128,0,0
238,-104,0,0,0,0,0,0,0,0,0,-1,1462,1128,0,0
245,-104,0,0,0,0,0,0,0,0,0,-1,1469,1128,0,0
252,-104,0,0,0,0,0,0,0,0,0,-1,1476,1128,0,0
259,-104,0,0,0,0,0,0,0,0,0,-1,1483,1128,0,0
266,-104,0,0,0,0,0,0,0,0,0,-1,1490,1128,0,0
273,-104,0,0,0,0,0,0,0,0,0,-1,1497,1128,0,0
280,-104,0,0,0,0,0,0,0,0,0,-1,1504,1128,0,0
287,-104,0,0,0,0,0,0,0,0,0,-1,1511,1128,0,0
294,-104,0,0,0,0,0,0,0,0,0,-1,1518,1128,0,0
301,-104,0,0,0,0,0,0,0,0,0,-1,1525,1128,0,0
308,-104,0,0,0,0,0,0,0,0,0,-1,1532,1128,0,0
315,-104,0,0,0,0,0,0,0,0,0,-1,1539,1128,0,0
322,-104,0,0,0,0,0,0,0,0,0,-1,1546,1128,0,0
329,-104,0,0,0,0,0,0,0,0,0,-1,1553,1128,0,0
336,-104,0,0,0,0,0,0,0,0,0,-1,1560,1128,0,0
343,-104,0,0,0,0,0,0,0,0,0,-1,1567,1128,0,0
350,-104,0,0,0,0,0,0,0,0,0,-1,1574,1128,0,0
357,-104,0,0,0,0,0,0,0,0,0,-1,1581,1128,0,0
364,-104,0,0,0,0,0,0,0,0,0,-1,1588,1128,0,0
371,-104,0,0,0,0,0,0,0,0,0,-1,1595,1128,0,0
378,-104,0,0,0,0,0,0,0,0,0,-1,1602,1128,0,0
385,-104,0,0,0,0,0,0,0,0,0,-1,1609,1128,0,0
392,-104,0,0,0,0,0,0,0,0,0,-1,1616,1128,0,0
399,-104,0,0,0,0,0,0,0,0,0,-1,1623,1128,0,0
406,-104,0,0,0,0,0,0,0,0,0,-1,1630,1128,0,0
413,-104,0,0,0,0,0,0,0,0,0,-1,1637,1128,0,0
420,-104,0,0,0,0,0,0,0,0,0,-1,1644,1128,0,0
427,-104,0,0,0,0,0,0,0,0,0,-1,1651,1128,0,0
434,-104,0,0,0,0,0,0,0,0,0,-1,1658,1128,0,0
441,-104,0,0,0,0,0,0,0,0,0,-1,1665,1128,0,0
448,-104,0,0,0,0,0,0,0,0,0,-1,1672,1128,0,0
455,-104,0,0,0,0,0,0,0,0,0,-1,1679,1128,0,0
462,-104,0,0,0,0,0,0,0,0,0,-1,1686,1128,0,0
469,-104,0,0,0,0,0,0,0,0,0,-1,1693,1128,0,0
476,-104,0,0,0,0,0,0,0,0,0,-1,1700,1128,0,0
483,-104,0,0,0,0,0,0,0,0,0,-1,1707,1128,0,0
490,-104,0,0,0,0,0,0,0,0,0,-1,1714,1128,0,0
497,-104,0,0,0,0,0,0,0,0,0,-1,1721,1128,0,0
504,-104,0,0,0,0,0,0,0,0,0,-1,1728,1128,0,0
511,-104,0,0,0,0,0,0,0,0,0,-1,1735,1128,0,0
518,-104,0,0,0,0,0,0,0,0,0,-1,1742,1128,0,0
525,-104,0,0,0,0,0,0,0,0,0,-1,1749,1128,0,0
532,-104,0,0,0,0,0,0,0,0,0,-1,1756,1128,0,0
539,-104,0,0,0,0,0,0,0,0,0,-1,1763,1128,0,0
546,-104,0,0,0,0,0,0,0,0,0,-1,1770,1128,0,0
553,-104,0,0,0,0,0,0,0,0,0,-1,1777,1128,0,0
560,-104,0,0,0,0,0,0,0,0,0,-1,1784,1128,0,0
567,-104,0,0,0,0,0,0,0,0,0,-1,1791,1128,0,0
574,-104,0,0,0,0,0,0,0,0,0,-1,1798,1128,0,0
581,-104,0,0,0,0,0,0,0,0,0,-1,1805,1128,0,0
588,-104,0,0,0,0,0,0,0,0,0,-1,1812,1128,0,0
595,-104,0,0,0,0,0,0,0,0,0,-1,1819,1128,0,0
602,-104,0,0,0,0,0,0,0,0,0,-1,1826,1128,0,0
609,-104,0,0,0,0,0,0,0,0,0,-1,1833,1128,0,0
616,-104,0,0,0,0,0,0,0,0,0,-1,1840,1128,0,0
623,-104,0,0,0,0,0,0,0,0,0,-1,1847,1128,0,0
630,-104,0,0,0,0,0,0,0,0,0,-1,1854,1128,0,0
637,-104,0,0,0,0,0,0,0,0,0,-1,1861,1128,0,0
644,-104,26.7999,3.27148,0.00401883,-0.00211636,-0.00342816,0.0055515,-0.00364903,-0.420425,0.00534965,0.037542,1868,1128,26.7999,-3.27153
651,-104,26.8646,3.26404,0.00291775,-0.0017632,-0.00222798,0.00380864,-0.00265409,-0.38039,0.00375105,0.0374668,1875,1128,26.8647,-3.26409
658,-104,26.9556,2.96423,0.00235775,-0.00148721,-0.00163723,0.00296043,-0.00208989,-0.352718,0.00293021,0.0403667,1882,1128,26.9556,-2.96429
665,-104,26.8914,2.90308,0.00153262,-0.00135469,-0.000898507,0.00178939,-0.00161146,-0.278357,0.00196438,0.043373,1889,1128,26.8914,-2.90306
672,-104,26.8799,3.14014,0.000246434,-0.0014604,0.00038914,0.000330967,-0.00154493,0.213908,0.00115618,0.0427842,1896,1128,26.8799,-3.14008
679,-104,26.8834,3.19067,-0.00114778,-0.00167405,0.00160577,0.00021627,-0.00303809,0.704185,0.0021012,0.0400921,1903,1128,26.8834,-3.19063
686,-104,26.8555,3.04602,-0.00233707,-0.00188945,0.00263823,0.000534443,-0.00476097,0.827714,0.0033663,0.038547,1910,1128,26.8554,-3.04604
693,-104,26.92,3.00732,-0.00319719,-0.00203904,0.00343287,0.000863256,-0.00609949,0.868954,0.00438251,0.0334221,1917,1128,26.9201,-3.0073
700,-104,26.9819,3.00049,-0.00392437,-0.0021066,0.0040723,0.00115701,-0.00718798,0.895193,0.00522057,0.0230373,1924,1128,26.9819,-3.00048
707,-104,26.9659,3.12756,0,0,0,0,0,0,0,-1,1931,1128,26.9659,-3.12751
714,-104,26.3502,4.24829,-0.0045818,-0.00195589,0.00469203,0.00160342,-0.00814111,0.921822,0.00603333,0.0449383,1938,1128,26.3502,-4.24829
721,-104,25.569,5.34729,-0.00481304,-0.00172096,0.00461312,0.0015983,-0.0081323,0.947086,0.00602538,0.0300762,1945,1128,25.5689,-5.34727
728,-104,25.522,5.19287,-0.00479125,-0.00147291,0.00439696,0.00156751,-0.00783167,0.96581,0.00581448,0.0212199,1952,1128,25.522,-5.19288
735,-104,25.5203,5.04688,-0.00452929,-0.00120533,0.00394924,0.00141739,-0.00715202,0.984567,0.00530398,0.0201959,1959,1128,25.5202,-5.04691
742,-104,25.4712,4.94995,-0.00375792,-0.000430735,0.00369406,0.00195705,-0.0061457,0.996967,0.00488203,0.0135671,1966,1128,25.4712,-4.94995
749,-104,25.4432,4.8324,-0.00249354,0.000105732,0.0035356,0.00257299,-0.0049608,0.961525,0.00442186,0.0167195,1973,1128,25.4433,-4.83244
756,-104,25.4362,4.69189,-0.000778799,0.000958681,0.00362255,0.00381521,-0.00363533,0.903083,0.00430198,0.0166492,1980,1128,25.4362,-4.69195
763,-104,25.434,4.552,0.00146858,0.00217271,0.0041299,0.00596552,-0.00232423,0.82792,0.0049376,0.0152068,1987,1128,25.434,-4.55195
770,-104,25.4185,4.4342,0.00411372,0.00339679,0.00504903,0.00881699,-0.00130648,0.749959,0.00635839,0.0122188,1994,1128,25.4185,-4.43422
777,-104,25.4105,4.28394,0.00678904,0.00457199,0.00714047,0.0129065,-0.00154549,0.70839,0.00916306,0.0183986,2001,1128,25.4106,-4.28392
784,-104,25.3572,3.70557,0,0,0,0,0,0,0,-1,2008,1128,25.3571,-3.70562
791,-104,25.3414,3.34607,0.0131096,0.00753069,0.0138527,0.0244509,-0.00381064,0.686044,0.017708,0.0470902,2015,1128,25.3414,-3.34608
798,-104,25.663,4.4762,0.0170106,0.00957636,0.0184586,0.0321227,-0.00553567,0.686039,0.0234789,0.0467106,2022,1128,25.6629,-4.47624
805,-104,26.0659,5.62659,0.0211834,0.0122439,0.0239271,0.0410546,-0.00762737,0.69306,0.0302346,0.0434845,2029,1128,26.0659,-5.62663
812,-104,26.1201,6.93738,0.0253656,0.0158578,0.0302566,0.0512395,-0.0100161,0.707476,0.0379417,0.0477064,2036,1128,26.1202,-6.93742
-700,-111,0,0,0,0,0,0,0,0,0,-1,524,1135,0,0
-693,-111,-16.8852,1.59033,0,0,0,0,0,0,0,-1,531,1135,-16.8852,-1.59034
-686,-111,-17.5673,-1.26672,0,0,0,0,0,0,0,-1,538,1135,-17.5672,1.26678
-679,-111,-17.7285,-0.893433,0.0264568,0.064464,0.0253773,0.0771644,0.0137563,1.10678,0.0475258,0.0454926,545,1135,-17.7285,0.893387
-672,-111,-17.9536,-0.47937,0.0261151,0.0511959,0.0232639,0.065084,0.0122269,1.0326,0.0399425,0.0464602,552,1135,-17.9536,0.479381
-665,-111,-18.1435,-0.0379639,0.0238969,0.0398784,0.020113,0.0535299,0.0102455,0.974483,0.0328091,0.0499964,559,1135,-18.1435,0.0380034
-658,-111,-17.1144,1.51819,0,0,0,0,0,0,0,-1,566,1135,-17.1144,-1.5182
-651,-111,-17.0294,1.60669,0.0166999,0.022573,0.0129372,0.0329027,0.00637016,0.897001,0.0201502,0.0384367,573,1135,-17.0294,-1.60673
-644,-111,-16.9887,1.71045,0.0128957,0.0162758,0.00958819,0.0243218,0.00484975,0.872635,0.014864,0.0232227,580,1135,-16.9887,-1.71046
-637,-111,-16.9859,1.85034,0.00986445,0.0102674,0.00723194,0.0173007,0.0028312,0.799325,0.0107155,0.00896693,587,1135,-16.9859,-1.85039
-630,-111,-17.0056,1.99707,0.00699095,0.00624501,0.00349494,0.0101328,0.00310319,0.732241,0.00599477,0.0138335,594,1135,-17.0056,-1.99708
-623,-111,-17.0213,2.16321,0.0039038,0.00299142,0.000863738,0.00442442,0.0024708,0.542438,0.00256025,0.0127137,601,1135,-17.0213,-2.16323
-616,-111,-17.068,2.3501,0.00161212,0.00114108,-0.000623096,0.00204272,0.000710479,-0.604708,0.00119744,0.0136422,608,1135,-17.068,-2.35011
-609,-111,-17.178,2.50671,0.000987325,-0.000365058,-0.00178612,0.00222096,-0.0015987,-0.604445,0.00221502,0.0186892,615,1135,-17.178,-2.50667
-602,-111,-17.1306,2.67676,0.00039245,-0.00124824,-0.00246118,0.0021664,-0.00302219,-0.624532,0.00300919,0.0201931,622,1135,-17.1306,-2.67677
-595,-111,-17.0499,2.88745,0.000262895,-0.00152177,-0.00270413,0.00221812,-0.003477,-0.62603,0.00331475,0.0146431,629,1135,-17.0499,-2.88741
-588,-111,-16.9854,3.04651,0.000316401,-0.00152691,-0.00273421,0.00228012,-0.00349063,-0.622838,0.00335609,0.0413177,636,1135,-16.9854,-3.04649
-581,-111,-16.9055,2.99951,0,0,0,0,0,0,0,-1,643,1135,-16.9055,-2.9995
-574,-111,-18.5615,1.21069,0,0,0,0,0,0,0,-1,650,1135,-18.5614,-1.21071
-567,-111,-18.4872,1.33032,0.000233125,-0.000590331,-0.00230281,0.00216072,-0.00251793,-0.696936,0.00270384,0.0360167,657,1135,-18.4872,-1.33034
-560,-111,-18.467,1.22009,4.81562e-05,8.11322e-05,-0.00192441,0.00198912,-0.00185983,-0.789682,0.00222261,0.0373661,664,1135,-18.467,-1.22007
-553,-111,-18.4786,1.08789,-0.000241157,0.00103765,-0.00138868,0.00192706,-0.00113057,-1.00115,0.00178518,0.0412948,671,1135,-18.4786,-1.08787
-546,-111,-18.4453,1.02502,-0.000582491,0.00232794,-0.000646868,0.00246524,-0.000719786,-1.36165,0.00192872,0.0397037,678,1135,-18.4453,-1.02504
-539,-111,-18.5237,1.26611,-0.000724789,0.00397635,0.000349047,0.00400212,-0.000750564,1.49709,0.00295027,0.0420627,685,1135,-18.5237,-1.26613
-532,-111,-18.6141,1.49902,-0.000451576,0.00540768,0.00102478,0.00558174,-0.000625639,1.40255,0.00394627,0.0442621,692,1135,-18.614,-1.49908
-525,-111,-18.7815,1.40491,0,0,0,0,0,0,0,-1,699,1135,-18.7815,-1.40491
-518,-111,0,0,0,0,0,0,0,0,0,-1,706,1135,0,0
-511,-111,0,0,0,0,0,0,0,0,0,-1,713,1135,0,0
-504,-111,0,0,0,0,0,0,0,0,0,-1,720,1135,0,0
-497,-111,0,0,0,0,0,0,0,0,0,-1,727,1135,0,0
-490,-111,0,0,0,0,0,0,0,0,0,-1,734,1135,0,0
-483,-111,0,0,0,0,0,0,0,0,0,-1,741,1135,0,0
-476,-111,0,0,0,0,0,0,0,0,0,-1,748,1135,0,0
-469,-111,0,0,0,0,0,0,0,0,0,-1,755,1135,0,0
-462,-111,0,0,0,0,0,0,0,0,0,-1,762,1135,0,0
-455,-111,0,0,0,0,0,0,0,0,0,-1,769,1135,0,0
-448,-111,0,0,0,0,0,0,0,0,0,-1,776,1135,0,0
-441,-111,0,0,0,0,0,0,0,0,0,-1,783,1135,0,0
-434,-111,0,0,0,0,0,0,0,0,0,-1,790,1135,0,0
-427,-111,0,0,0,0,0,0,0,0,0,-1,797,1135,0,0
-420,-111,0,0,0,0,0,0,0,0,0,-1,804,1135,0,0
-413,-111,0,0,0,0,0,0,0,0,0,-1,811,1135,0,0
-406,-111,0,0,0,0,0,0,0,0,0,-1,818,1135,0,0
-399,-111,0,0,0,0,0,0,0,0,0,-1,825,1135,0,0
-392,-111,0,0,0,0,0,0,0,0,0,-1,832,1135,0,0
-385,-111,0,0,0,0,0,0,0,0,0,-1,839,1135,0,0
-378,-111,0,0,0,0,0,0,0,0,0,-1,846,1135,0,0
-371,-111,0,0,0,0,0,0,0,0,0,-1,853,1135,0,0
-364,-111,0,0,0,0,0,0,0,0,0,-1,860,1135,0,0
-357,-111,0,0,0,0,0,0,0,0,0,-1,867,1135,0,0
-350,-111,0,0,0,0,0,0,0,0,0,-1,874,1135,0,0
-343,-111,0,0,0,0,0,0,0,0,0,-1,881,1135,0,0
-336,-111,0,0,0,0,0,0,0,0,0,-1,888,1135,0,0
-329,-111,0,0,0,0,0,0,0,0,0,-1,895,1135,0,0
-322,-111,0,0,0,0,0,0,0,0,0,-1,902,1135,0,0
-315,-111,0,0,0,0,0,0,0,0,0,-1,909,1135,0,0
-308,-111,0,0,0,0,0,0,0,0,0,-1,916,1135,0,0
-301,-111,0,0,0,0,0,0,0,0,0,-1,923,1135,0,0
-294,-111,0,0,0,0,0,0,0,0,0,-1,930,1135,0,0
-287,-111,0,0,0,0,0,0,0,0,0,-1,937,1135,0,0
-280,-111,0,0,0,0,0,0,0,0,0,-1,944,1135,0,0
-273,-111,0,0,0,0,0,0,0,0,0,-1,951,1135,0,0
-266,-111,0,0,0,0,0,0,0,0,0,-1,958,1135,0,0
-259,-111,0,0,0,0,0,0,0,0,0,-1,965,1135,0,0
-252,-111,0,0,0,0,0,0,0,0,0,-1,972,1135,0,0
-245,-111,0,0,0,0,0,0,0,0,0,-1,979,1135,0,0
-238,-111,0,0,0,0,0,0,0,0,0,-1,986,1135,0,0
-231,-111,0,0,0,0,0,0,0,0,0,-1,993,1135,0,0
-224,-111,0,0,0,0,0,0,0,0,0,-1,1000,1135,0,0
-217,-111,0,0,0,0,0,0,0,0,0,-1,1007,1135,0,0
-210,-111,0,0,0,0,0,0,0,0,0,-1,1014,1135,0,0
-203,-111,0,0,0,0,0,0,0,0,0,-1,1021,1135,0,0
-196,-111,0,0,0,0,0,0,0,0,0,-1,1028,1135,0,0
-189,-111,0,0,0,0,0,0,0,0,0,-1,1035,1135,0,0
-182,-111,0,0,0,0,0,0,0,0,0,-1,1042,1135,0,0
-175,-111,0,0,0,0,0,0,0,0,0,-1,1049,1135,0,0
-168,-111,0,0,0,0,0,0,0,0,0,-1,1056,1135,0,0
-161,-111,0,0,0,0,0,0,0,0,0,-1,1063,1135,0,0
-154,-111,0,0,0,0,0,0,0,0,0,-1,1070,1135,0,0
-147,-111,0,0,0,0,0,0,0,0,0,-1,1077,1135,0,0
-140,-111,0,0,0,0,0,0,0,0,0,-1,1084,1135,0,0
-133,-111,0,0,0,0,0,0,0,0,0,-1,1091,1135,0,0
-126,-111,0,0,0,0,0,0,0,0,0,-1,1098,1135,0,0
-119,-111,0,0,0,0,0,0,0,0,0,-1,1105,1135,0,0
-112,-111,0,0,0,0,0,0,0,0,0,-1,1112,1135,0,0
-105,-111,0,0,0,0,0,0,0,0,0,-1,1119,1135,0,0
-98,-111,0,0,0,0,0,0,0,0,0,-1,1126,1135,0,0
-91,-111,0,0,0,0,0,0,0,0,0,-1,1133,1135,0,0
-84,-111,0,0,0,0,0,0,0,0,0,-1,1140,1135,0,0
-77,-111,0,0,0,0,0,0,0,0,0,-1,1147,1135,0,0
-70,-111,0,0,0,0,0,0,0,0,0,-1,1154,1135,0,0
-63,-111,0,0,0,0,0,0,0,0,0,-1,1161,1135,0,0
-56,-111,0,0,0,0,0,0,0,0,0,-1,1168,1135,0,0
-49,-111,0,0,0,0,0,0,0,0,0,-1,1175,1135,0,0
-42,-111,0,0,0,0,0,0,0,0,0,-1,1182,1135,0,0
-35,-111,0,0,0,0,0,0,0,0,0,-1,1189,1135,0,0
-28,-111,0,0,0,0,0,0,0,0,0,-1,1196,1135,0,0
-21,-111,0,0,0,0,0,0,0,0,0,-1,1203,1135,0,0
-14,-111,0,0,0,0,0,0,0,0,0,-1,1210,1135,0,0
-7,-111,0,0,0,0,0,0,0,0,0,-1,1217,1135,0,0
0,-111,0,0,0,0,0,0,0,0,0,-1,1224,1135,0,0
7,-111,0,0,0,0,0,0,0,0,0,-1,1231,1135,0,0
14,-111,0,0,0,0,0,0,0,0,0,-1,1238,1135,0,0
21,-111,0,0,0,0,0,0,0,0,0,-1,1245,1135,0,0
28,-111,0,0,0,0,0,0,0,0,0,-1,1252,1135,0,0
35,-111,0,0,0,0,0,0,0,0,0,-1,1259,1135,0,0
42,-111,0,0,0,0,0,0,0,0,0,-1,1266,1135,0,0
49,-111,0,0,0,0,0,0,0,0,0,-1,1273,1135,0,0
56,-111,0,0,0,0,0,0,0,0,0,-1,1280,1135,0,0
63,-111,0,0,0,0,0,0,0,0,0,-1,1287,1135,0,0
70,-111,0,0,0,0,0,0,0,0,0,-1,1294,1135,0,0
77,-111,0,0,0,0,0,0,0,0,0,-1,1301,1135,0,0
84,-111,0,0,0,0,0,0,0,0,0,-1,1308,1135,0,0
91,-111,0,0,0,0,0,0,0,0,0,-1,1315,1135,0,0
98,-111,0,0,0,0,0,0,0,0,0,-1,1322,1135,0,0
105,-111,0,0,0,0,0,0,0,0,0,-1,1329,1135,0,0
112,-111,0,0,0,0,0,0,0,0,0,-1,1336,1135,0,0
119,-111,0,0,0,0,0,0,0,0,0,-1,1343,1135,0,0
126,-111,0,0,0,0,0,0,0,0,0,-1,1350,1135,0,0
133,-111,0,0,0,0,0,0,0,0,0,-1,1357,1135,0,0
140,-111,0,0,0,0,0,0,0,0,0,-1,1364,1135,0,0
147,-111,0,0,0,0,0,0,0,0,0,-1,1371,1135,0,0
154,-111,0,0,0,0,0,0,0,0,0,-1,1378,1135,0,0
161,-111,0,0,0,0,0,0,0,0,0,-1,1385,1135,0,0
168,-111,0,0,0,0,0,0,0,0,0,-1,1392,1135,0,0
175,-111,0,0,0,0,0,0,0,0,0,-1,1399,1135,0,0
182,-111,0,0,0,0,0,0,0,0,0,-1,1406,1135,0,0
189,-111,0,0,0,0,0,0,0,0,0,-1,1413,1135,0,0
196,-111,0,0,0,0,0,0,0,0,0,-1,1420,1135,0,0
203,-111,0,0,0,0,0,0,0,0,0,-1,1427,1135,0,0
210,-111,0,0,0,0,0,0,0,0,0,-1,1434,1135,0,0
217,-111,0,0,0,0,0,0,0,0,0,-1,1441,1135,0,0
224,-111,0,0,0,0,0,0,0,0,0,-1,1448,1135,0,0
231,-111,0,0,0,0,0,0,0,0,0,-1,1455,1135,0,0
238,-111,0,0,0,0,0,0,0,0,0,-1,1462,1135,0,0
245,-111,0,0,0,0,0,0,0,0,0,-1,1469,1135,0,0
252,-111,0,0,0,0,0,0,0,0,0,-1,1476,1135,0,0
259,-111,0,0,0,0,0,0,0,0,0,-1,1483,1135,0,0
266,-111,0,0,0,0,0,0,0,0,0,-1,1490,1135,0,0
273,-111,0,0,0,0,0,0,0,0,0,-1,1497,1135,0,0
280,-111,0,0,0,0,0,0,0,0,0,-1,1504,1135,0,0
287,-111,0,0,0,0,0,0,0,0,0,-1,1511,1135,0,0
294,-111,0,0,0,0,0,0,0,0,0,-1,1518,1135,0,0
301,-111,0,0,0,0,0,0,0,0,0,-1,1525,1135,0,0
308,-111,0,0,0,0,0,0,0,0,0,-1,1532,1135,0,0
315,-111,0,0,0,0,0,0,0,0,0,-1,1539,1135,0,0
322,-111,0,0,0,0,0,0,0,0,0,-1,1546,1135,0,0
329,-111,0,0,0,0,0,0,0,0,0,-1,1553,1135,0,0
336,-111,0,0,0,0,0,0,0,0,0,-1,1560,1135,0,0
343,-111,0,0,0,0,0,0,0,0,0,-1,1567,1135,0,0
350,-111,0,0,0,0,0,0,0,0,0,-1,1574,1135,0,0
357,-111,0,0,0,0,0,0,0,0,0,-1,1581,1135,0,0
364,-111,0,0,0,0,0,0,0,0,0,-1,1588,1135,0,0
371,-111,0,0,0,0,0,0,0,0,0,-1,1595,1135,0,0
378,-111,0,0,0,0,0,0,0,0,0,-1,1602,1135,0,0
385,-111,0,0,0,0,0,0,0,0,0,-1,1609,1135,0,0
392,-111,0,0,0,0,0,0,0,0,0,-1,1616,1135,0,0
399,-111,0,0,0,0,0,0,0,0,0,-1,1623,1135,0,0
406,-111,0,0,0,0,0,0,0,0,0,-1,1630,1135,0,0
413,-111,0,0,0,0,0,0,0,0,0,-1,1637,1135,0,0
420,-111,0,0,0,0,0,0,0,0,0,-1,1644,1135,0,0
427,-111,0,0,0,0,0,0,0,0,0,-1,1651,1135,0,0
434,-111,0,0,0,0,0,0,0,0,0,-1,1658,1135,0,0
441,-111,0,0,0,0,0,0,0,0,0,-1,1665,1135,0,0
448,-111,0,0,0,0,0,0,0,0,0,-1,1672,1135,0,0
455,-111,0,0,0,0,0,0,0,0,0,-1,1679,1135,0,0
462,-111,0,0,0,0,0,0,0,0,0,-1,1686,1135,0,0
469,-111,0,0,0,0,0,0,0,0,0,-1,1693,1135,0,0
476,-111,0,0,0,0,0,0,0,0,0,-1,1700,1135,0,0
483,-111,0,0,0,0,0,0,0,0,0,-1,1707,1135,0,0
490,-111,0,0,0,0,0,0,0,0,0,-1,1714,1135,0,0
497,-111,0,0,0,0,0,0,0,0,0,-1,1721,1135,0,0
504,-111,0,0,0,0,0,0,0,0,0,-1,1728,1135,0,0
511,-111,0,0,0,0,0,0,0,0,0,-1,1735,1135,0,0
518,-111,0,0,0,0,0,0,0,0,0,-1,1742,1135,0,0
525,-111,0,0,0,0,0,0,0,0,0,-1,1749,1135,0,0
532,-111,0,0,0,0,0,0,0,0,0,-1,1756,1135,0,0
539,-111,0,0,0,0,0,0,0,0,0,-1,1763,1135,0,0
546,-111,0,0,0,0,0,0,0,0,0,-1,1770,1135,0,0
553,-111,0,0,0,0,0,0,0,0,0,-1,1777,1135,0,0
560,-111,0,0,0,0,0,0,0,0,0,-1,1784,1135,0,0
567,-111,0,0,0,0,0,0,0,0,0,-1,1791,1135,0,0
574,-111,0,0,0,0,0,0,0,0,0,-1,1798,1135,0,0
581,-111,0,0,0,0,0,0,0,0,0,-1,1805,1135,0,0
588,-111,0,0,0,0,0,0,0,0,0,-1,1812,1135,0,0
595,-111,0,0,0,0,0,0,0,0,0,-1,1819,1135,0,0
602,-111,0,0,0,0,0,0,0,0,0,-1,1826,1135,0,0
609,-111,0,0,0,0,0,0,0,0,0,-1,1833,1135,0,0
616,-111,0,0,0,0,0,0,0,0,0,-1,1840,1135,0,0
623,-111,0,0,0,0,0,0,0,0,0,-1,1847,1135,0,0
630,-111,0,0,0,0,0,0,0,0,0,-1,1854,1135,0,0
637,-111,0,0,0,0,0,0,0,0,0,-1,1861,1135,0,0
644,-111,26.8837,3.29077,0.0034109,-0.00195352,-0.00236072,0.00430181,-0.00284444,-0.360866,0.00415439,0.0376979,1868,1135,26.8837,-3.29077
651,-111,26.9723,3.30432,0.00247816,-0.00167802,-0.00142905,0.0029221,-0.00212196,-0.301203,0.00292438,0.0385634,1875,1135,26.9723,-3.30438
658,-111,27.1558,2.92981,0,0,0,0,0,0,0,-1,1882,1135,27.1558,-2.92986
665,-111,27.0785,3.09985,0.00121198,-0.00134505,-0.000351738,0.00125948,-0.00139255,-0.134236,0.00153179,0.0465413,1889,1135,27.0785,-3.09989
672,-111,26.9951,3.25598,-4.56352e-05,-0.00148978,0.000786347,0.000299874,-0.00183529,0.413992,0.00133476,0.0434255,1896,1135,26.9951,-3.25595
679,-111,26.9957,3.23547,-0.00136605,-0.00171709,0.00184681,0.000313559,-0.0033967,0.738021,0.0023759,0.0409077,1903,1135,26.9958,-3.23551
686,-111,26.8995,3.08411,-0.00249036,-0.00194621,0.00274997,0.000545108,-0.00498168,0.834706,0.00351693,0.0384947,1910,1135,26.8995,-3.08409
693,-111,26.8922,3.01941,-0.00328261,-0.00208393,0.00343249,0.000801152,-0.00616769,0.871831,0.00440321,0.0338444,1917,1135,26.8922,-3.01937
700,-111,26.9562,3.0188,-0.00397115,-0.00218161,0.00399744,0.00101997,-0.00717273,0.895501,0.00515555,0.0214327,1924,1135,26.9562,-3.01875
707,-111,26.7867,3.33545,0,0,0,0,0,0,0,-1,1931,1135,26.7868,-3.33551
714,-111,25.9861,4.42139,-0.00461031,-0.0020123,0.00452345,0.00139496,-0.00801758,0.925221,0.00586559,0.0321128,1938,1135,25.9861,-4.42142
721,-111,25.3711,5.36914,-0.00482762,-0.00175823,0.00444575,0.00141026,-0.00799611,0.951597,0.00585769,0.014782,1945,1135,25.3711,-5.36909
728,-111,25.3597,5.20227,-0.00472288,-0.00151776,0.00422668,0.00139997,-0.00764061,0.966602,0.00561883,0.0166474,1952,1135,25.3597,-5.20226
735,-111,25.3568,5.06726,-0.00433162,-0.0012627,0.00373683,0.00124245,-0.00683677,0.980217,0.00502347,0.0154824,1959,1135,25.3568,-5.06725
742,-111,25.3273,4.96765,-0.00343584,-0.000513195,0.00335371,0.00168373,-0.00563277,0.990862,0.00442454,0.0107193,1966,1135,25.3272,-4.96771
749,-111,25.2964,4.83081,-0.0020127,0.000119151,0.00297904,0.00221723,-0.00411077,0.957205,0.00370759,0.0143684,1973,1135,25.2963,-4.83087
756,-111,25.2904,4.68787,-5.82802e-05,0.00107486,0.00272349,0.00329008,-0.00227351,0.887951,0.00322996,0.0159066,1980,1135,25.2904,-4.68781
763,-111,25.2938,4.54871,0.0024496,0.00252191,0.00288911,0.00537509,-0.000403581,0.791655,0.00372521,0.0131806,1987,1135,25.2938,-4.54868
770,-111,25.3007,4.42188,0.0053281,0.00395802,0.00338212,0.00809387,0.00119226,0.685476,0.00504567,0.0105622,1994,1135,25.3006,-4.42191
777,-111,25.249,4.2561,0.00826709,0.0054217,0.00487772,0.0119254,0.00176343,0.643499,0.00743249,0.0231512,2001,1135,25.2491,-4.25606
784,-111,25.2441,3.72253,0.011539,0.00719224,0.00712211,0.016812,0.00191929,0.637305,0.0106262,0.0403564,2008,1135,25.2441,-3.72258
791,-111,25.2644,3.15466,0,0,0,0,0,0,0,-1,2015,1135,25.2644,-3.15472
798,-111,25.0563,1.89307,0,0,0,0,0,0,0,-1,2022,1135,25.0563,-1.89303
805,-111,26.7913,4.94971,0.0240957,0.0160656,0.0181811,0.0386998,0.00146142,0.676724,0.0253268,0.0449096,2029,1135,26.7913,-4.94969
812,-111,26.3923,6.03186,0.0285138,0.0211912,0.0234716,0.0486079,0.00109707,0.708027,0.0320459,0.0455423,2036,1135,26.3924,-6.03187
-700,-118,0,0,0,0,0,0,0,0,0,-1,524,1142,0,0
-693,-118,-17.3672,-0.830811,0,0,0,0,0,0,0,-1,531,1142,-17.3673,0.830781
-686,-118,-17.8732,-1.66345,0,0,0,0,0,0,0,-1,538,1142,-17.8732,1.66351
-679,-118,-18.0036,-1.3219,0.0349068,0.0582609,0.028005,0.0769258,0.0162419,0.98292,0.0468186,0.0456842,545,1142,-18.0036,1.32188
-672,-118,-18.0059,-1.47461,0.0331913,0.0465906,0.0256673,0.0664182,0.0133637,0.91306,0.0405647,0.0464605,552,1142,-18.0058,1.47456
-665,-118,-18.2544,-0.606445,0.0295153,0.0366656,0.0222204,0.0555967,0.0105843,0.865162,0.0340885,0.0457817,559,1142,-18.2544,0.606428
-658,-118,-16.9587,1.76697,0,0,0,0,0,0,0,-1,566,1142,-16.9588,-1.76702
-651,-118,-16.8362,1.71411,0.0198032,0.0213692,0.0143949,0.0350024,0.00617005,0.81257,0.0215743,0.0384511,573,1142,-16.8362,-1.71409
-644,-118,-16.7558,1.67676,0.0150861,0.0156932,0.0107672,0.0261611,0.00461821,0.799491,0.0161233,0.0247788,580,1142,-16.7558,-1.67679
-637,-118,-16.7936,1.85876,0.0114016,0.0102389,0.00826729,0.019108,0.00253257,0.750297,0.011984,0.0146417,587,1142,-16.7936,-1.85875
-630,-118,-16.8414,2.01184,0.00815084,0.00650671,0.0043596,0.0117652,0.00289235,0.69221,0.00707913,0.0181501,594,1142,-16.8414,-2.01182
-623,-118,-16.8536,2.18494,0.00452834,0.00337183,0.00164126,0.00569024,0.00220993,0.616027,0.00331244,0.015542,601,1142,-16.8536,-2.18494
-616,-118,-16.8538,2.354,0.00199694,0.00149335,0.000103758,0.00201748,0.00147281,0.195436,0.00120518,0.0137764,608,1142,-16.8538,-2.35403
-609,-118,-16.933,2.48376,0.00137341,9.29551e-06,-0.00103863,0.00193391,-0.000551205,-0.494866,0.00150699,0.017665,615,1142,-16.933,-2.48377
-602,-118,-16.9243,2.71619,0.000869506,-0.000837845,-0.0016522,0.00187554,-0.00184388,-0.546943,0.00214744,0.0175734,622,1142,-16.9242,-2.71614
-595,-118,-16.9598,2.85999,0.000809035,-0.00116636,-0.00194043,0.00199868,-0.002356,-0.549984,0.002517,0.0154169,629,1142,-16.9598,-2.86004
-588,-118,-16.7235,3.09033,0.000888267,-0.00117613,-0.0020365,0.00213922,-0.00242708,-0.550843,0.0026381,0.0306105,636,1142,-16.7235,-3.0903
-581,-118,-16.5208,3.22583,0,0,0,0,0,0,0,-1,643,1142,-16.5208,-3.22578
-574,-118,-18.4932,1.16357,0,0,0,0,0,0,0,-1,650,1142,-18.4932,-1.16357
-567,-118,-18.4915,1.24292,0.00099972,-0.000277374,-0.00184926,0.00231758,-0.00159523,-0.619158,0.00227186,0.0403983,657,1142,-18.4915,-1.24296
-560,-118,-18.4984,1.24329,0.000869385,0.000343064,-0.00167285,0.00229964,-0.00108719,-0.707381,0.00199672,0.0373972,664,1142,-18.4983,-1.24325
-553,-118,-18.4604,1.24683,0.000656526,0.00122461,-0.00140055,0.00236963,-0.000488494,-0.885445,0.00176526,0.0399545,671,1142,-18.4604,-1.24688
-546,-118,-18.3875,1.2301,0.000425025,0.00241159,-0.000975076,0.00281021,2.64089e-05,-1.18272,0.00186473,0.0399627,678,1142,-18.3874,-1.23009
-539,-118,-18.5564,1.60791,0.000447667,0.0039234,-0.000274145,0.00394489,0.000426177,-1.49257,0.00250001,0.0411712,685,1142,-18.5564,-1.60786
-532,-118,-18.7004,1.6936,0.00124179,0.00540839,0.000466454,0.00545997,0.00119021,1.46066,0.00331525,0.0428208,692,1142,-18.7004,-1.69358
-525,-118,-18.9064,1.70154,0,0,0,0,0,0,0,-1,699,1142,-18.9065,-1.70158
-518,-118,0,0,0,0,0,0,0,0,0,-1,706,1142,0,0
-511,-118,0,0,0,0,0,0,0,0,0,-1,713,1142,0,0
-504,-118,0,0,0,0,0,0,0,0,0,-1,720,1142,0,0
-497,-118,0,0,0,0,0,0,0,0,0,-1,727,1142,0,0
-490,-118,0,0,0,0,0,0,0,0,0,-1,734,1142,0,0
-483,-118,0,0,0,0,0,0,0,0,0,-1,741,1142,0,0
-476,-118,0,0,0,0,0,0,0,0,0,-1,748,1142,0,0
-469,-118,0,0,0,0,0,0,0,0,0,-1,755,1142,0,0
-462,-118,0,0,0,0,0,0,0,0,0,-1,762,1142,0,0
-455,-118,0,0,0,0,0,0,0,0,0,-1,769,1142,0,0
-448,-118,0,0,0,0,0,0,0,0,0,-1,776,1142,0,0
-441,-118,0,0,0,0,0,0,0,0,0,-1,783,1142,0,0
-434,-118,0,0,0,0,0,0,0,0,0,-1,790,1142,0,0
-427,-118,0,0,0,0,0,0,0,0,0,-1,797,1142,0,0
-420,-118,0,0,0,0,0,0,0,0,0,-1,804,1142,0,0
-413,-118,0,0,0,0,0,0,0,0,0,-1,811,1142,0,0
-406,-118,0,0,0,0,0,0,0,0,0,-1,818,1142,0,0
-399,-118,0,0,0,0,0,0,0,0,0,-1,825,1142,0,0
-392,-118,0,0,0,0,0,0,0,0,0,-1,832,1142,0,0
-385,-118,0,0,0,0,0,0,0,0,0,-1,839,1142,0,0
-378,-118,0,0,0,0,0,0,0,0,0,-1,846,1142,0,0
-371,-118,0,0,0,0,0,0,0,0,0,-1,853,1142,0,0
-364,-118,0,0,0,0,0,0,0,0,0,-1,860,1142,0,0
-357,-118,0,0,0,0,0,0,0,0,0,-1,867,1142,0,0
-350,-118,0,0,0,0,0,0,0,0,0,-1,874,1142,0,0
-343,-118,0,0,0,0,0,0,0,0,0,-1,881,1142,0,0
-336,-118,0,0,0,0,0,0,0,0,0,-1,888,1142,0,0
-329,-118,0,0,0,0,0,0,0,0,0,-1,895,1142,0,0
-322,-118,0,0,0,0,0,0,0,0,0,-1,902,1142,0,0
-315,-118,0,0,0,0,0,0,0,0,0,-1,909,1142,0,0
-308,-118,0,0,0,0,0,0,0,0,0,-1,916,1142,0,0
-301,-118,0,0,0,0,0,0,0,0,0,-1,923,1142,0,0
-294,-118,0,0,0,0,0,0,0,0,0,-1,930,1142,0,0
-287,-118,0,0,0,0,0,0,0,0,0,-1,937,1142,0,0
-280,-118,0,0,0,0,0,0,0,0,0,-1,944,1142,0,0
-273,-118,0,0,0,0,0,0,0,0,0,-1,951,1142,0,0
-266,-118,0,0,0,0,0,0,0,0,0,-1,958,1142,0,0
-259,-118,0,0,0,0,0,0,0,0,0,-1,965,1142,0,0
-252,-118,0,0,0,0,0,0,0,0,0,-1,972,1142,0,0
-245,-118,0,0,0,0,0,0,0,0,0,-1,979,1142,0,0
-238,-118,0,0,0,0,0,0,0,0,0,-1,986,1142,0,0
-231,-118,0,0,0,0,0,0,0,0,0,-1,993,1142,0,0
-224,-118,0,0,0,0,0,0,0,0,0,-1,1000,1142,0,0
-217,-118,0,0,0,0,0,0,0,0,0,-1,1007,1142,0,0
-210,-118,0,0,0,0,0,0,0,0,0,-1,1014,1142,0,0
-203,-118,0,0,0,0,0,0,0,0,0,-1,1021,1142,0,0
-196,-118,0,0,0,0,0,0,0,0,0,-1,1028,1142,0,0
-189,-118,0,0,0,0,0,0,0,0,0,-1,1035,1142,0,0
-182,-118,0,0,0,0,0,0,0,0,0,-1,1042,1142,0,0
-175,-118,0,0,0,0,0,0,0,0,0,-1,1049,1142,0,0
-168,-118,0,0,0,0,0,0,0,0,0,-1,1056,1142,0,0
-161,-118,0,0,0,0,0,0,0,0,0,-1,1063,1142,0,0
-154,-118,0,0,0,0,0,0,0,0,0,-1,1070,1142,0,0
-147,-118,0,0,0,0,0,0,0,0,0,-1,1077,1142,0,0
-140,-118,0,0,0,0,0,0,0,0,0,-1,1084,1142,0,0
-133,-118,0,0,0,0,0,0,0,0,0,-1,1091,1142,0,0
-126,-118,0,0,0,0,0,0,0,0,0,-1,1098,1142,0,0
-119,-118,0,0,0,0,0,0,0,0,0,-1,1105,1142,0,0
-112,-118,0,0,0,0,0,0,0,0,0,-1,1112,1142,0,0
-105,-118,0,0,0,0,0,0,0,0,0,-1,1119,1142,0,0
-98,-118,0,0,0,0,0,0,0,0,0,-1,1126,1142,0,0
-91,-118,0,0,0,0,0,0,0,0,0,-1,1133,1142,0,0
-84,-118,0,0,0,0,0,0,0,0,0,-1,1140,1142,0,0
-77,-118,0,0,0,0,0,0,0,0,0,-1,1147,1142,0,0
-70,-118,0,0,0,0,0,0,0,0,0,-1,1154,1142,0,0
-63,-118,0,0,0,0,0,0,0,0,0,-1,1161,1142,0,0
-56,-118,0,0,0,0,0,0,0,0,0,-1,1168,1142,0,0
-49,-118,0,0,0,0,0,0,0,0,0,-1,1175,1142,0,0
-42,-118,0,0,0,0,0,0,0,0,0,-1,1182,1142,0,0
-35,-118,0,0,0,0,0,0,0,0,0,-1,1189,1142,0,0
-28,-118,0,0,0,0,0,0,0,0,0,-1,1196,1142,0,0
-21,-118,0,0,0,0,0,0,0,0,0,-1,1203,1142,0,0
-14,-118,0,0,0,0,0,0,0,0,0,-1,1210,1142,0,0
-7,-118,0,0,0,0,0,0,0,0,0,-1,1217,1142,0,0
0,-118,0,0,0,0,0,0,0,0,0,-1,1224,1142,0,0
7,-118,0,0,0,0,0,0,0,0,0,-1,1231,1142,0,0
14,-118,0,0,0,0,0,0,0,0,0,-1,1238,1142,0,0
21,-118,0,0,0,0,0,0,0,0,0,-1,1245,1142,0,0
28,-118,0,0,0,0,0,0,0,0,0,-1,1252,1142,0,0
35,-118,0,0,0,0,0,0,0,0,0,-1,1259,1142,0,0
42,-118,0,0,0,0,0,0,0,0,0,-1,1266,1142,0,0
49,-118,0,0,0,0,0,0,0,0,0,-1,1273,1142,0,0
56,-118,0,0,0,0,0,0,0,0,0,-1,1280,1142,0,0
63,-118,0,0,0,0,0,0,0,0,0,-1,1287,1142,0,0
70,-118,0,0,0,0,0,0,0,0,0,-1,1294,1142,0,0
77,-118,0,0,0,0,0,0,0,0,0,-1,1301,1142,0,0
84,-118,0,0,0,0,0,0,0,0,0,-1,1308,1142,0,0
91,-118,0,0,0,0,0,0,0,0,0,-1,1315,1142,0,0
98,-118,0,0,0,0,0,0,0,0,0,-1,1322,1142,0,0
105,-118,0,0,0,0,0,0,0,0,0,-1,1329,1142,0,0
112,-118,0,0,0,0,0,0,0,0,0,-1,1336,1142,0,0
119,-118,0,0,0,0,0,0,0,0,0,-1,1343,1142,0,0
126,-118,0,0,0,0,0,0,0,0,0,-1,1350,1142,0,0
133,-118,0,0,0,0,0,0,0,0,0,-1,1357,1142,0,0
140,-118,0,0,0,0,0,0,0,0,0,-1,1364,1142,0,0
147,-118,0,0,0,0,0,0,0,0,0,-1,1371,1142,0,0
154,-118,0,0,0,0,0,0,0,0,0,-1,1378,1142,0,0
161,-118,0,0,0,0,0,0,0,0,0,-1,1385,1142,0,0
168,-118,0,0,0,0,0,0,0,0,0,-1,1392,1142,0,0
175,-118,0,0,0,0,0,0,0,0,0,-1,1399,1142,0,0
182,-118,0,0,0,0,0,0,0,0,0,-1,1406,1142,0,0
189,-118,0,0,0,0,0,0,0,0,0,-1,1413,1142,0,0
196,-118,0,0,0,0,0,0,0,0,0,-1,1420,1142,0,0
203,-118,0,0,0,0,0,0,0,0,0,-1,1427,1142,0,0
210,-118,0,0,0,0,0,0,0,0,0,-1,1434,1142,0,0
217,-118,0,0,0,0,0,0,0,0,0,-1,1441,1142,0,0
224,-118,0,0,0,0,0,0,0,0,0,-1,1448,1142,0,0
231,-118,0,0,0,0,0,0,0,0,0,-1,1455,1142,0,0
238,-118,0,0,0,0,0,0,0,0,0,-1,1462,1142,0,0
245,-118,0,0,0,0,0,0,0,0,0,-1,1469,1142,0,0
252,-118,0,0,0,0,0,0,0,0,0,-1,1476,1142,0,0
259,-118,0,0,0,0,0,0,0,0,0,-1,1483,1142,0,0
266,-118,0,0,0,0,0,0,0,0,0,-1,1490,1142,0,0
273,-118,0,0,0,0,0,0,0,0,0,-1,1497,1142,0,0
280,-118,0,0,0,0,0,0,0,0,0,-1,1504,1142,0,0
287,-118,0,0,0,0,0,0,0,0,0,-1,1511,1142,0,0
294,-118,0,0,0,0,0,0,0,0,0,-1,1518,1142,0,0
301,-118,0,0,0,0,0,0,0,0,0,-1,1525,1142,0,0
308,-118,0,0,0,0,0,0,0,0,0,-1,1532,1142,0,0
315,-118,0,0,0,0,0,0,0,0,0,-1,1539,1142,0,0
322,-118,0,0,0,0,0,0,0,0,0,-1,1546,1142,0,0
329,-118,0,0,0,0,0,0,0,0,0,-1,1553,1142,0,0
336,-118,0,0,0,0,0,0,0,0,0,-1,1560,1142,0,0
343,-118,0,0,0,0,0,0,0,0,0,-1,1567,1142,0,0
350,-118,0,0,0,0,0,0,0,0,0,-1,1574,1142,0,0
357,-118,0,0,0,0,0,0,0,0,0,-1,1581,1142,0,0
364,-118,0,0,0,0,0,0,0,0,0,-1,1588,1142,0,0
371,-118,0,0,0,0,0,0,0,0,0,-1,1595,1142,0,0
378,-118,0,0,0,0,0,0,0,0,0,-1,1602,1142,0,0
385,-118,0,0,0,0,0,0,0,0,0,-1,1609,1142,0,0
392,-118,0,0,0,0,0,0,0,0,0,-1,1616,1142,0,0
399,-118,0,0,0,0,0,0,0,0,0,-1,1623,1142,0,0
406,-118,0,0,0,0,0,0,0,0,0,-1,1630,1142,0,0
413,-118,0,0,0,0,0,0,0,0,0,-1,1637,1142,0,0
420,-118,0,0,0,0,0,0,0,0,0,-1,1644,1142,0,0
427,-118,0,0,0,0,0,0,0,0,0,-1,1651,1142,0,0
434,-118,0,0,0,0,0,0,0,0,0,-1,1658,1142,0,0
441,-118,0,0,0,0,0,0,0,0,0,-1,1665,1142,0,0
448,-118,0,0,0,0,0,0,0,0,0,-1,1672,1142,0,0
455,-118,0,0,0,0,0,0,0,0,0,-1,1679,1142,0,0
462,-118,0,0,0,0,0,0,0,0,0,-1,1686,1142,0,0
469,-118,0,0,0,0,0,0,0,0,0,-1,1693,1142,0,0
476,-118,0,0,0,0,0,0,0,0,0,-1,1700,1142,0,0
483,-118,0,0,0,0,0,0,0,0,0,-1,1707,1142,0,0
490,-118,0,0,0,0,0,0,0,0,0,-1,1714,1142,0,0
497,-118,0,0,0,0,0,0,0,0,0,-1,1721,1142,0,0
504,-118,0,0,0,0,0,0,0,0,0,-1,1728,1142,0,0
511,-118,0,0,0,0,0,0,0,0,0,-1,1735,1142,0,0
518,-118,0,0,0,0,0,0,0,0,0,-1,1742,1142,0,0
525,-118,0,0,0,0,0,0,0,0,0,-1,1749,1142,0,0
532,-118,0,0,0,0,0,0,0,0,0,-1,1756,1142,0,0
539,-118,0,0,0,0,0,0,0,0,0,-1,1763,1142,0,0
546,-118,0,0,0,0,0,0,0,0,0,-1,1770,1142,0,0
553,-118,0,0,0,0,0,0,0,0,0,-1,1777,1142,0,0
560,-118,0,0,0,0,0,0,0,0,0,-1,1784,1142,0,0
567,-118,0,0,0,0,0,0,0,0,0,-1,1791,1142,0,0
574,-118,0,0,0,0,0,0,0,0,0,-1,1798,1142,0,0
581,-118,0,0,0,0,0,0,0,0,0,-1,1805,1142,0,0
588,-118,0,0,0,0,0,0,0,0,0,-1,1812,1142,0,0
595,-118,0,0,0,0,0,0,0,0,0,-1,1819,1142,0,0
602,-118,0,0,0,0,0,0,0,0,0,-1,1826,1142,0,0
609,-118,0,0,0,0,0,0,0,0,0,-1,1833,1142,0,0
616,-118,0,0,0,0,0,0,0,0,0,-1,1840,1142,0,0
623,-118,0,0,0,0,0,0,0,0,0,-1,1847,1142,0,0
630,-118,0,0,0,0,0,0,0,0,0,-1,1854,1142,0,0
637,-118,0,0,0,0,0,0,0,0,0,-1,1861,1142,0,0
644,-118,26.9225,3.44543,0.00242911,-0.00232628,-0.00167597,0.00296042,-0.00285759,-0.306995,0.0033592,0.0398483,1868,1142,26.9225,-3.44545
651,-118,27.1757,3.35388,0.00179556,-0.00193036,-0.00101336,0.00205334,-0.00218814,-0.249093,0.00244923,0.0410729,1875,1142,27.1757,-3.35383
658,-118,27.0835,3.03198,0.00155707,-0.00157251,-0.000762927,0.00173315,-0.00174859,-0.226822,0.00201019,0.0425907,1882,1142,27.0835,-3.03199
665,-118,27.2074,3.20227,0.000793648,-0.00142217,-0.000161455,0.00080535,-0.00143387,-0.0723552,0.00130968,0.043724,1889,1142,27.2074,-3.20227
672,-118,27.0723,3.38623,-0.000388057,-0.00151535,0.000836711,5.71478e-05,-0.00196056,0.488988,0.0013265,0.0456259,1896,1142,27.0723,-3.38621
679,-118,26.9504,3.34448,-0.00162221,-0.00170474,0.00177442,0.000111429,-0.00343838,0.773772,0.00233028,0.042426,1903,1142,26.9505,-3.34443
686,-118,26.942,3.20105,-0.00267755,-0.00191811,0.00257629,0.000306297,-0.00490195,0.858566,0.00337471,0.0347972,1910,1142,26.942,-3.20101
693,-118,26.8955,3.08459,-0.00338352,-0.00202745,0.00317454,0.000540656,-0.00595162,0.89061,0.0041597,0.0308144,1917,1142,26.8955,-3.08462
700,-118,26.9285,3.06458,-0.00402012,-0.00214452,0.00368026,0.000715545,-0.00688018,0.910152,0.00484296,0.0163194,1924,1142,26.9285,-3.06452
707,-118,26.9935,3.15344,0,0,0,0,0,0,0,-1,1931,1142,26.9935,-3.15341
714,-118,25.7983,4.64514,0,0,0,0,0,0,0,-1,1938,1142,25.7983,-4.64512
721,-118,25.2076,5.41638,-0.00487106,-0.00172222,0.00410555,0.00110044,-0.00769372,0.968493,0.00553257,0.0121647,1945,1142,25.2077,-5.4164
728,-118,25.2056,5.26013,-0.00469566,-0.00150264,0.00395705,0.00116783,-0.00736613,0.97714,0.00534275,0.0145067,1952,1142,25.2056,-5.26016
735,-118,25.1906,5.11804,-0.00421344,-0.00127503,0.00350165,0.00105315,-0.00654162,0.984031,0.00475119,0.0133188,1959,1142,25.1906,-5.11805
742,-118,25.2323,5.00488,-0.00329438,-0.000561569,0.00300952,0.00137721,-0.00523316,0.998498,0.00402712,0.0184824,1966,1142,25.2323,-5.00482
749,-118,25.1947,4.82813,-0.00179515,0.000208565,0.00241423,0.00182056,-0.00340715,0.982075,0.00306421,0.019786,1973,1142,25.1947,-4.82818
756,-118,25.1638,4.67737,0.000365386,0.00129766,0.00182699,0.00271704,-0.00105399,0.910303,0.00224667,0.0178865,1980,1142,25.1638,-4.67739
763,-118,25.1786,4.53149,0.0030672,0.00300103,0.00160027,0.00463472,0.0014335,0.775063,0.00273997,0.0099445,1987,1142,25.1786,-4.53144
770,-118,25.1627,4.40869,0.00607783,0.00468678,0.00164786,0.00717093,0.00359368,0.585701,0.00414014,0.0118917,1994,1142,25.1627,-4.40868
777,-118,25.1255,4.28418,0.00918425,0.00648541,0.00251293,0.0106872,0.0049825,0.538998,0.00617492,0.0266811,2001,1142,25.1255,-4.28416
784,-118,25.1448,3.6687,0.0127027,0.00871359,0.00398979,0.0151687,0.00624759,0.553607,0.0088029,0.0439986,2008,1142,25.1448,-3.66868
791,-118,24.4796,2.82568,0,0,0,0,0,0,0,-1,2015,1142,24.4796,-2.82572
798,-118,25.4307,2.12976,0,0,0,0,0,0,0,-1,2022,1142,25.4307,-2.12976
805,-118,26.3816,1.43384,0,0,0,0,0,0,0,-1,2029,1142,26.3817,-1.4338
812,-118,26.4402,0.564819,0,0,0,0,0,0,0,-1,2036,1142,26.4401,-0.564772
-700,-125,0,0,0,0,0,0,0,0,0,-1,524,1149,0,0
-693,-125,-18.1172,-1.72961,0.0357886,0.0764911,0.0325411,0.0945208,0.017759,1.06484,0.0580076,0.0486412,531,1149,-18.1172,1.7296
-686,-125,-18.2219,-1.86804,0,0,0,0,0,0,0,-1,538,1149,-18.2219,1.86805
-679,-125,-18.2424,-1.72021,0.0448056,0.0513382,0.0336292,0.0818594,0.0142844,0.833809,0.0504895,0.0461729,545,1149,-18.2425,1.72024
-672,-125,-18.2089,-1.59167,0.0419076,0.0414391,0.0301536,0.0718278,0.0115188,0.781514,0.0445448,0.0473728,552,1149,-18.2089,1.59165
-665,-125,-18.3206,-1.14551,0.0368657,0.0330119,0.0257462,0.0607569,0.00912062,0.748046,0.0378327,0.0421566,559,1149,-18.3206,1.1455
-658,-125,-16.7918,1.24902,0.0308146,0.0258727,0.021041,0.0495292,0.00715811,0.726948,0.030911,0.0423109,566,1149,-16.7918,-1.249
-651,-125,-16.56,1.55115,0.0245404,0.0198318,0.0164822,0.0388356,0.00553667,0.714458,0.0242564,0.0337551,573,1149,-16.56,-1.55112
-644,-125,-16.5587,1.69336,0.0187237,0.0148175,0.0123536,0.0292776,0.00426355,0.706998,0.0182639,0.0221945,580,1149,-16.5586,-1.69338
-637,-125,-16.5825,1.83423,0.014132,0.00996069,0.0095143,0.0217866,0.00230613,0.677498,0.01382,0.0133827,587,1149,-16.5825,-1.83421
-630,-125,-16.6055,2.00891,0.0102066,0.00651512,0.00529975,0.0139728,0.00274889,0.617834,0.00854753,0.0149959,594,1149,-16.6055,-2.00895
-623,-125,-16.644,2.20032,0.00587228,0.0035226,0.0024344,0.00740051,0.00199437,0.560584,0.00442144,0.0134787,601,1149,-16.644,-2.20028
-616,-125,-16.6381,2.36072,0.00290964,0.00164059,0.000808547,0.00330292,0.00124732,0.452705,0.00192588,0.0125622,608,1149,-16.6381,-2.36066
-609,-125,-16.7021,2.48486,0.00200564,0.0001929,-0.000313707,0.00205839,0.000140146,-0.166604,0.00132801,0.01805,615,1149,-16.7021,-2.48487
-602,-125,-16.739,2.71582,0.00140164,-0.000611813,-0.000847902,0.00171113,-0.000921307,-0.349985,0.00154247,0.0170033,622,1149,-16.739,-2.71578
-595,-125,-16.7227,2.92798,0.0013752,-0.000992737,-0.00120519,0.00188069,-0.00149823,-0.397141,0.00195498,0.0165017,629,1149,-16.7226,-2.92792
-588,-125,-16.5139,3.16553,0.00142304,-0.0010345,-0.00139371,0.00205231,-0.00166376,-0.424105,0.00214938,0.0242458,636,1149,-16.5139,-3.16554
-581,-125,-16.3148,3.38062,0,0,0,0,0,0,0,-1,643,1149,-16.3148,-3.38057
-574,-125,-18.4174,1.15515,0,0,0,0,0,0,0,-1,650,1149,-18.4174,-1.15517
-567,-125,-18.4725,1.26453,0.00172585,-0.000261693,-0.00135067,0.00240895,-0.00094479,-0.468235,0.00199684,0.0395059,657,1149,-18.4725,-1.26458
-560,-125,-18.5435,1.34338,0.00165783,0.000276988,-0.00130154,0.00244073,-0.000505915,-0.541538,0.00181939,0.0394083,664,1149,-18.5435,-1.34336
-553,-125,-18.5996,1.32361,0.00152722,0.00103878,-0.00119143,0.0024992,6.67971e-05,-0.684306,0.00164432,0.0405691,671,1149,-18.5996,-1.32366
-546,-125,-18.6464,1.25989,0.00141878,0.00205607,-0.000951657,0.00274101,0.000733837,-0.946949,0.00163846,0.0395677,678,1149,-18.6464,-1.25993
-539,-125,-18.5398,1.27307,0.00158998,0.00332976,-0.000397306,0.0034162,0.00150354,-1.35658,0.00197705,0.0396648,685,1149,-18.5398,-1.27304
-532,-125,-18.4695,1.33008,0.00280046,0.00466603,0.00052198,0.00480215,0.00266435,1.31571,0.00277807,0.0387013,692,1149,-18.4695,-1.33006
-525,-125,-18.4492,1.13757,0.00443967,0.00641593,0.00154319,0.00726024,0.00359536,1.07017,0.00419177,0.0397686,699,1149,-18.4492,-1.13758
-518,-125,0,0,0,0,0,0,0,0,0,-1,706,1149,0,0
-511,-125,0,0,0,0,0,0,0,0,0,-1,713,1149,0,0
-504,-125,0,0,0,0,0,0,0,0,0,-1,720,1149,0,0
-497,-125,0,0,0,0,0,0,0,0,0,-1,727,1149,0,0
-490,-125,0,0,0,0,0,0,0,0,0,-1,734,1149,0,0
-483,-125,0,0,0,0,0,0,0,0,0,-1,741,1149,0,0
-476,-125,0,0,0,0,0,0,0,0,0,-1,748,1149,0,0
-469,-125,0,0,0,0,0,0,0,0,0,-1,755,1149,0,0
-462,-125,0,0,0,0,0,0,0,0,0,-1,762,1149,0,0
-455,-125,0,0,0,0,0,0,0,0,0,-1,769,1149,0,0
-448,-125,0,0,0,0,0,0,0,0,0,-1,776,1149,0,0
-441,-125,0,0,0,0,0,0,0,0,0,-1,783,1149,0,0
-434,-125,0,0,0,0,0,0,0,0,0,-1,790,1149,0,0
-427,-125,0,0,0,0,0,0,0,0,0,-1,797,1149,0,0
-420,-125,0,0,0,0,0,0,0,0,0,-1,804,1149,0,0
-413,-125,0,0,0,0,0,0,0,0,0,-1,811,1149,0,0
-406,-125,0,0,0,0,0,0,0,0,0,-1,818,1149,0,0
-399,-125,0,0,0,0,0,0,0,0,0,-1,825,1149,0,0
-392,-125,0,0,0,0,0,0,0,0,0,-1,832,1149,0,0
-385,-125,0,0,0,0,0,0,0,0,0,-1,839,1149,0,0
-378,-125,0,0,0,0,0,0,0,0,0,-1,846,1149,0,0
-371,-125,0,0,0,0,0,0,0,0,0,-1,853,1149,0,0
-364,-125,0,0,0,0,0,0,0,0,0,-1,860,1149,0,0
-357,-125,0,0,0,0,0,0,0,0,0,-1,867,1149,0,0
-350,-125,0,0,0,0,0,0,0,0,0,-1,874,1149,0,0
-343,-125,0,0,0,0,0,0,0,0,0,-1,881,1149,0,0
-336,-125,0,0,0,0,0,0,0,0,0,-1,888,1149,0,0
-329,-125,0,0,0,0,0,0,0,0,0,-1,895,1149,0,0
-322,-125,0,0,0,0,0,0,0,0,0,-1,902,1149,0,0
-315,-125,0,0,0,0,0,0,0,0,0,-1,909,1149,0,0
-308,-125,0,0,0,0,0,0,0,0,0,-1,916,1149,0,0
-301,-125,0,0,0,0,0,0,0,0,0,-1,923,1149,0,0
-294,-125,0,0,0,0,0,0,0,0,0,-1,930,1149,0,0
-287,-125,0,0,0,0,0,0,0,0,0,-1,937,1149,0,0
-280,-125,0,0,0,0,0,0,0,0,0,-1,944,1149,0,0
-273,-125,0,0,0,0,0,0,0,0,0,-1,951,1149,0,0
-266,-125,0,0,0,0,0,0,0,0,0,-1,958,1149,0,0
-259,-125,0,0,0,0,0,0,0,0,0,-1,965,1149,0,0
-252,-125,0,0,0,0,0,0,0,0,0,-1,972,1149,0,0
-245,-125,0,0,0,0,0,0,0,0,0,-1,979,1149,0,0
-238,-125,0,0,0,0,0,0,0,0,0,-1,986,1149,0,0
-231,-125,0,0,0,0,0,0,0,0,0,-1,993,1149,0,0
-224,-125,0,0,0,0,0,0,0,0,0,-1,1000,1149,0,0
-217,-125,0,0,0,0,0,0,0,0,0,-1,1007,1149,0,0
-210,-125,0,0,0,0,0,0,0,0,0,-1,1014,1149,0,0
-203,-125,0,0,0,0,0,0,0,0,0,-1,1021,1149,0,0
-196,-125,0,0,0,0,0,0,0,0,0,-1,1028,1149,0,0
-189,-125,0,0,0,0,0,0,0,0,0,-1,1035,1149,0,0
-182,-125,0,0,0,0,0,0,0,0,0,-1,1042,1149,0,0
-175,-125,0,0,0,0,0,0,0,0,0,-1,1049,1149,0,0
-168,-125,0,0,0,0,0,0,0,0,0,-1,1056,1149,0,0
-161,-125,0,0,0,0,0,0,0,0,0,-1,1063,1149,0,0
-154,-125,0,0,0,0,0,0,0,0,0,-1,1070,1149,0,0
-147,-125,0,0,0,0,0,0,0,0,0,-1,1077,1149,0,0
-140,-125,0,0,0,0,0,0,0,0,0,-1,1084,1149,0,0
-133,-125,0,0,0,0,0,0,0,0,0,-1,1091,1149,0,0
-126,-125,0,0,0,0,0,0,0,0,0,-1,1098,1149,0,0
-119,-125,0,0,0,0,0,0,0,0,0,-1,1105,1149,0,0
-112,-125,0,0,0,0,0,0,0,0,0,-1,1112,1149,0,0
-105,-125,0,0,0,0,0,0,0,0,0,-1,1119,1149,0,0
-98,-125,0,0,0,0,0,0,0,0,0,-1,1126,1149,0,0
-91,-125,0,0,0,0,0,0,0,0,0,-1,1133,1149,0,0
-84,-125,0,0,0,0,0,0,0,0,0,-1,1140,1149,0,0
-77,-125,0,0,0,0,0,0,0,0,0,-1,1147,1149,0,0
-70,-125,0,0,0,0,0,0,0,0,0,-1,1154,1149,0,0
-63,-125,0,0,0,0,0,0,0,0,0,-1,1161,1149,0,0
-56,-125,0,0,0,0,0,0,0,0,0,-1,1168,1149,0,0
-49,-125,0,0,0,0,0,0,0,0,0,-1,1175,1149,0,0
-42,-125,0,0,0,0,0,0,0,0,0,-1,1182,1149,0,0
-35,-125,0,0,0,0,0,0,0,0,0,-1,1189,1149,0,0
-28,-125,0,0,0,0,0,0,0,0,0,-1,1196,1149,0,0
-21,-125,0,0,0,0,0,0,0,0,0,-1,1203,1149,0,0
-14,-125,0,0,0,0,0,0,0,0,0,-1,1210,1149,0,0
-7,-125,0,0,0,0,0,0,0,0,0,-1,1217,1149,0,0
0,-125,0,0,0,0,0,0,0,0,0,-1,1224,1149,0,0
7,-125,0,0,0,0,0,0,0,0,0,-1,1231,1149,0,0
14,-125,0,0,0,0,0,0,0,0,0,-1,1238,1149,0,0
21,-125,0,0,0,0,0,0,0,0,0,-1,1245,1149,0,0
28,-125,0,0,0,0,0,0,0,0,0,-1,1252,1149,0,0
35,-125,0,0,0,0,0,0,0,0,0,-1,1259,1149,0,0
42,-125,0,0,0,0,0,0,0,0,0,-1,1266,1149,0,0
49,-125,0,0,0,0,0,0,0,0,0,-1,1273,1149,0,0
56,-125,0,0,0,0,0,0,0,0,0,-1,1280,1149,0,0
63,-125,0,0,0,0,0,0,0,0,0,-1,1287,1149,0,0
70,-125,0,0,0,0,0,0,0,0,0,-1,1294,1149,0,0
77,-125,0,0,0,0,0,0,0,0,0,-1,1301,1149,0,0
84,-125,0,0,0,0,0,0,0,0,0,-1,1308,1149,0,0
91,-125,0,0,0,0,0,0,0,0,0,-1,1315,1149,0,0
98,-125,0,0,0,0,0,0,0,0,0,-1,1322,1149,0,0
105,-125,0,0,0,0,0,0,0,0,0,-1,1329,1149,0,0
112,-125,0,0,0,0,0,0,0,0,0,-1,1336,1149,0,0
119,-125,0,0,0,0,0,0,0,0,0,-1,1343,1149,0,0
126,-125,0,0,0,0,0,0,0,0,0,-1,1350,1149,0,0
133,-125,0,0,0,0,0,0,0,0,0,-1,1357,1149,0,0
140,-125,0,0,0,0,0,0,0,0,0,-1,1364,1149,0,0
147,-125,0,0,0,0,0,0,0,0,0,-1,1371,1149,0,0
154,-125,0,0,0,0,0,0,0,0,0,-1,1378,1149,0,0
161,-125,0,0,0,0,0,0,0,0,0,-1,1385,1149,0,0
168,-125,0,0,0,0,0,0,0,0,0,-1,1392,1149,0,0
175,-125,0,0,0,0,0,0,0,0,0,-1,1399,1149,0,0
182,-125,0,0,0,0,0,0,0,0,0,-1,1406,1149,0,0
189,-125,0,0,0,0,0,0,0,0,0,-1,1413,1149,0,0
196,-125,0,0,0,0,0,0,0,0,0,-1,1420,1149,0,0
203,-125,0,0,0,0,0,0,0,0,0,-1,1427,1149,0,0
210,-125,0,0,0,0,0,0,0,0,0,-1,1434,1149,0,0
217,-125,0,0,0,0,0,0,0,0,0,-1,1441,1149,0,0
224,-125,0,0,0,0,0,0,0,0,0,-1,1448,1149,0,0
231,-125,0,0,0,0,0,0,0,0,0,-1,1455,1149,0,0
238,-125,0,0,0,0,0,0,0,0,0,-1,1462,1149,0,0
245,-125,0,0,0,0,0,0,0,0,0,-1,1469,1149,0,0
252,-125,0,0,0,0,0,0,0,0,0,-1,1476,1149,0,0
259,-125,0,0,0,0,0,0,0,0,0,-1,1483,1149,0,0
266,-125,0,0,0,0,0,0,0,0,0,-1,1490,1149,0,0
273,-125,0,0,0,0,0,0,0,0,0,-1,1497,1149,0,0
280,-125,0,0,0,0,0,0,0,0,0,-1,1504,1149,0,0
287,-125,0,0,0,0,0,0,0,0,0,-1,1511,1149,0,0
294,-125,0,0,0,0,0,0,0,0,0,-1,1518,1149,0,0
301,-125,0,0,0,0,0,0,0,0,0,-1,1525,1149,0,0
308,-125,0,0,0,0,0,0,0,0,0,-1,1532,1149,0,0
315,-125,0,0,0,0,0,0,0,0,0,-1,1539,1149,0,0
322,-125,0,0,0,0,0,0,0,0,0,-1,1546,1149,0,0
329,-125,0,0,0,0,0,0,0,0,0,-1,1553,1149,0,0
336,-125,0,0,0,0,0,0,0,0,0,-1,1560,1149,0,0
343,-125,0,0,0,0,0,0,0,0,0,-1,1567,1149,0,0
350,-125,0,0,0,0,0,0,0,0,0,-1,1574,1149,0,0
357,-125,0,0,0,0,0,0,0,0,0,-1,1581,1149,0,0
364,-125,0,0,0,0,0,0,0,0,0,-1,1588,1149,0,0
371,-125,0,0,0,0,0,0,0,0,0,-1,1595,1149,0,0
378,-125,0,0,0,0,0,0,0,0,0,-1,1602,1149,0,0
385,-125,0,0,0,0,0,0,0,0,0,-1,1609,1149,0,0
392,-125,0,0,0,0,0,0,0,0,0,-1,1616,1149,0,0
399,-125,0,0,0,0,0,0,0,0,0,-1,1623,1149,0,0
406,-125,0,0,0,0,0,0,0,0,0,-1,1630,1149,0,0
413,-125,0,0,0,0,0,0,0,0,0,-1,1637,1149,0,0
420,-125,0,0,0,0,0,0,0,0,0,-1,1644,1149,0,0
427,-125,0,0,0,0,0,0,0,0,0,-1,1651,1149,0,0
434,-125,0,0,0,0,0,0,0,0,0,-1,1658,1149,0,0
441,-125,0,0,0,0,0,0,0,0,0,-1,1665,1149,0,0
448,-125,0,0,0,0,0,0,0,0,0,-1,1672,1149,0,0
455,-125,0,0,0,0,0,0,0,0,0,-1,1679,1149,0,0
462,-125,0,0,0,0,0,0,0,0,0,-1,1686,1149,0,0
469,-125,0,0,0,0,0,0,0,0,0,-1,1693,1149,0,0
476,-125,0,0,0,0,0,0,0,0,0,-1,1700,1149,0,0
483,-125,0,0,0,0,0,0,0,0,0,-1,1707,1149,0,0
490,-125,0,0,0,0,0,0,0,0,0,-1,1714,1149,0,0
497,-125,0,0,0,0,0,0,0,0,0,-1,1721,1149,0,0
504,-125,0,0,0,0,0,0,0,0,0,-1,1728,1149,0,0
511,-125,0,0,0,0,0,0,0,0,0,-1,1735,1149,0,0
518,-125,0,0,0,0,0,0,0,0,0,-1,1742,1149,0,0
525,-125,0,0,0,0,0,0,0,0,0,-1,1749,1149,0,0
532,-125,0,0,0,0,0,0,0,0,0,-1,1756,1149,0,0
539,-125,0,0,0,0,0,0,0,0,0,-1,1763,1149,0,0
546,-125,0,0,0,0,0,0,0,0,0,-1,1770,1149,0,0
553,-125,0,0,0,0,0,0,0,0,0,-1,1777,1149,0,0
560,-125,0,0,0,0,0,0,0,0,0,-1,1784,1149,0,0
567,-125,0,0,0,0,0,0,0,0,0,-1,1791,1149,0,0
574,-125,0,0,0,0,0,0,0,0,0,-1,1798,1149,0,0
581,-125,0,0,0,0,0,0,0,0,0,-1,1805,1149,0,0
588,-125,0,0,0,0,0,0,0,0,0,-1,1812,1149,0,0
595,-125,0,0,0,0,0,0,0,0,0,-1,1819,1149,0,0
602,-125,0,0,0,0,0,0,0,0,0,-1,1826,1149,0,0
609,-125,0,0,0,0,0,0,0,0,0,-1,1833,1149,0,0
616,-125,0,0,0,0,0,0,0,0,0,-1,1840,1149,0,0
623,-125,0,0,0,0,0,0,0,0,0,-1,1847,1149,0,0
630,-125,0,0,0,0,0,0,0,0,0,-1,1854,1149,0,0
637,-125,0,0,0,0,0,0,0,0,0,-1,1861,1149,0,0
644,-125,27.0023,3.21973,0.00231945,-0.00244008,-0.000679716,0.00241462,-0.00253525,-0.139107,0.00285809,0.0400575,1868,1149,27.0024,-3.21972
651,-125,27.1195,2.88403,0.00171267,-0.00190429,-0.000391007,0.00175445,-0.00194607,-0.106465,0.00213745,0.0422688,1875,1149,27.1195,-2.88403
658,-125,26.9884,2.86194,0.00144275,-0.00146452,-0.00036823,0.00148866,-0.00151043,-0.124049,0.00173155,0.0432841,1882,1149,26.9883,-2.86189
665,-125,27.0409,3.26868,0.00062611,-0.00127227,6.78616e-05,0.000628532,-0.00127469,0.0356865,0.00111974,0.0424514,1889,1149,27.0409,-3.26865
672,-125,26.9775,3.41528,-0.000520159,-0.00132978,0.000846843,1.36544e-05,-0.00186359,0.562442,0.00124697,0.0433932,1896,1149,26.9776,-3.41533
679,-125,26.8862,3.43506,-0.00167133,-0.00149463,0.00161844,3.78734e-05,-0.00320383,0.812667,0.00214863,0.039295,1903,1149,26.8862,-3.43512
686,-125,26.9452,3.32043,-0.00264304,-0.00169898,0.00229182,0.000168915,-0.00451094,0.886959,0.00306515,0.0345401,1910,1149,26.9452,-3.32045
693,-125,26.8964,3.14685,-0.00326659,-0.00178488,0.00278839,0.000359403,-0.00541087,0.915244,0.00373282,0.028716,1917,1149,26.8964,-3.14687
700,-125,26.9218,3.11023,-0.00385065,-0.00191044,0.00323594,0.000497682,-0.00625877,0.931031,0.00434791,0.0114993,1924,1149,26.9217,-3.11024
707,-125,27.0715,3.22034,0,0,0,0,0,0,0,-1,1931,1149,27.0715,-3.22039
714,-125,25.6953,5.12036,0,0,0,0,0,0,0,-1,1938,1149,25.6953,-5.12037
721,-125,24.9956,5.43872,-0.00468103,-0.00155689,0.00364337,0.000845161,-0.00708308,0.987917,0.00502751,0.0201693,1945,1149,24.9956,-5.43877
728,-125,25.0282,5.27466,-0.00450375,-0.00136092,0.00354912,0.000949105,-0.00681378,0.993807,0.00488969,0.0147003,1952,1149,25.0282,-5.27468
735,-125,25.0366,5.1394,-0.00398224,-0.00115005,0.0031373,0.000875943,-0.00600823,0.997396,0.00432712,0.0167175,1959,1149,25.0366,-5.13946
742,-125,25.0658,5.01233,-0.00320588,-0.000422343,0.0025221,0.00106651,-0.00469473,1.03752,0.0035393,0.0216332,1966,1149,25.0658,-5.01235
749,-125,25.0323,4.85095,-0.00186831,0.000520506,0.00172265,0.00142231,-0.00277011,1.08852,0.00246184,0.0256802,1973,1149,25.0323,-4.8509
756,-125,25.015,4.68994,0.000153411,0.00179574,0.000834339,0.00214523,-0.00019608,1.17412,0.00149979,0.021074,1980,1149,25.0151,-4.68994
763,-125,25.0287,4.53088,0.00254677,0.00379172,0.00018922,0.00381984,0.00251865,1.42324,0.00224241,0.0113108,1987,1149,25.0287,-4.53087
770,-125,25.0242,4.3551,0.00510536,0.00583607,-0.000228576,0.00590168,0.00503975,-1.29127,0.00368094,0.0132565,1994,1149,25.0242,-4.35509
777,-125,24.9988,4.20972,0.00770447,0.00812015,4.15327e-05,0.00812426,0.00770036,1.47218,0.00528055,0.0263012,2001,1149,24.9988,-4.20976
784,-125,24.9629,3.64722,0.0106175,0.0109787,0.000847494,0.0116646,0.00993161,0.890366,0.00726796,0.0431814,2008,1149,24.9629,-3.64723
791,-125,25.0878,3.0144,0.0138709,0.0145523,0.0022875,0.0165243,0.0118988,0.85933,0.00984356,0.043408,2015,1149,25.0878,-3.01444
798,-125,25.8334,2.35864,0.0174185,0.0190258,0.00458509,0.0228771,0.0135672,0.872153,0.0132841,0.0440163,2022,1149,25.8334,-2.35867
805,-125,26.1272,1.66479,0.0209153,0.0246263,0.00801407,0.0309969,0.0145447,0.899157,0.0179073,0.0497428,2029,1149,26.1272,-1.66477
812,-125,26.4639,0.967285,0,0,0,0,0,0,0,-1,2036,1149,26.4639,-0.967344
-700,-132,0,0,0,0,0,0,0,0,0,-1,524,1156,0,0
-693,-132,-14.0471,-1.43152,0,0,0,0,0,0,0,-1,531,1156,-14.0471,1.43149
-686,-132,-18.8237,-2.36462,0,0,0,0,0,0,0,-1,538,1156,-18.8237,2.36466
-679,-132,-18.9758,-2.18591,0.0528313,0.0441258,0.0395762,0.0882934,0.00866373,0.730627,0.0561974,0.0494343,545,1156,-18.9759,2.1859
-672,-132,-14.9059,0.224854,0.0486553,0.0360145,0.0347766,0.0776811,0.00698865,0.695508,0.0496222,0.0428371,552,1156,-14.9059,-0.224817
-665,-132,-16.1201,1.00476,0,0,0,0,0,0,0,-1,559,1156,-16.12,-1.00475
-658,-132,-16.2751,1.12549,0.03512,0.0231071,0.0237434,0.0536049,0.00462223,0.661511,0.0342998,0.0428163,566,1156,-16.2751,-1.12551
-651,-132,-16.4501,1.43115,0.027818,0.0179702,0.0185111,0.0420489,0.00373936,0.655409,0.026873,0.0370799,573,1156,-16.4501,-1.43117
-644,-132,-16.4255,1.65869,0.0211454,0.0136249,0.0138674,0.0317533,0.00301701,0.653003,0.0202383,0.0199024,580,1156,-16.4255,-1.65867
-637,-132,-16.4105,1.83826,0.0158654,0.00936915,0.0106588,0.02376,0.00147453,0.6375,0.0153721,0.011738,587,1156,-16.4105,-1.8383
-630,-132,-16.402,2.03137,0.0114772,0.0062675,0.00614684,0.0155484,0.00219636,0.584983,0.00971655,0.0102966,594,1156,-16.402,-2.03143
-623,-132,-16.4119,2.2229,0.00655866,0.00349323,0.0030865,0.00847206,0.00157983,0.554942,0.00520202,0.014933,601,1156,-16.4119,-2.22289
-616,-132,-16.4359,2.35156,0.0032089,0.00166523,0.00130286,0.00395138,0.00092274,0.517985,0.00238689,0.0181507,608,1156,-16.4358,-2.35152
-609,-132,-16.3834,2.49854,0.00209106,0.000288937,0.000137701,0.00210152,0.000278475,0.0758239,0.00131803,0.0165116,615,1156,-16.3834,-2.49848
-602,-132,-16.4893,2.66528,0.00144939,-0.000459043,-0.000413632,0.00153518,-0.000544836,-0.204515,0.00124545,0.0155263,622,1156,-16.4893,-2.66524
-595,-132,-16.5168,2.91296,0.00141366,-0.000877679,-0.000863675,0.00170274,-0.00116675,-0.322984,0.00166631,0.019581,629,1156,-16.5168,-2.91296
-588,-132,-16.4003,3.18469,0.0013876,-0.000950065,-0.00115997,0.00186549,-0.00142796,-0.390798,0.00190706,0.0196682,636,1156,-16.4003,-3.18472
-581,-132,-16.1627,3.50305,0,0,0,0,0,0,0,-1,643,1156,-16.1626,-3.50305
-574,-132,-18.4322,1.35303,0,0,0,0,0,0,0,-1,650,1156,-18.4322,-1.35303
-567,-132,-18.4879,1.28479,0.00193016,-0.000303207,-0.00124859,0.00248858,-0.000861623,-0.420554,0.00200883,0.0404626,657,1156,-18.4879,-1.28484
-560,-132,-18.5664,1.3031,0.00199969,0.000154044,-0.00127067,0.00264729,-0.00049355,-0.471335,0.0019503,0.0372155,664,1156,-18.5664,-1.30307
-553,-132,-18.6917,1.27478,0.00207542,0.000796027,-0.00124038,0.00283134,4.01081e-05,-0.547322,0.00187434,0.0395178,671,1156,-18.6917,-1.27483
-546,-132,-18.7872,0.918091,0.00227421,0.00164078,-0.00108324,0.00308608,0.000828902,-0.643173,0.00184426,0.0404588,678,1156,-18.7872,-0.918087
-539,-132,-18.5286,0.674927,0.00280528,0.00267227,-0.000589135,0.00333165,0.0021459,-0.729196,0.00194997,0.0426848,685,1156,-18.5286,-0.674957
-532,-132,-18.3084,0.852417,0.00453152,0.00379085,0.000453395,0.0047466,0.00357576,0.442945,0.0028553,0.0415739,692,1156,-18.3084,-0.852455
-525,-132,-18.3726,1.07227,0.00688295,0.00523126,0.00186758,0.00809913,0.00401508,0.577224,0.00467609,0.039611,699,1156,-18.3726,-1.07223
-518,-132,0,0,0,0,0,0,0,0,0,-1,706,1156,0,0
-511,-132,0,0,0,0,0,0,0,0,0,-1,713,1156,0,0
-504,-132,0,0,0,0,0,0,0,0,0,-1,720,1156,0,0
-497,-132,0,0,0,0,0,0,0,0,0,-1,727,1156,0,0
-490,-132,0,0,0,0,0,0,0,0,0,-1,734,1156,0,0
-483,-132,0,0,0,0,0,0,0,0,0,-1,741,1156,0,0
-476,-132,0,0,0,0,0,0,0,0,0,-1,748,1156,0,0
-469,-132,0,0,0,0,0,0,0,0,0,-1,755,1156,0,0
-462,-132,0,0,0,0,0,0,0,0,0,-1,762,1156,0,0
-455,-132,0,0,0,0,0,0,0,0,0,-1,769,1156,0,0
-448,-132,0,0,0,0,0,0,0,0,0,-1,776,1156,0,0
-441,-132,0,0,0,0,0,0,0,0,0,-1,783,1156,0,0
-434,-132,0,0,0,0,0,0,0,0,0,-1,790,1156,0,0
-427,-132,0,0,0,0,0,0,0,0,0,-1,797,1156,0,0
-420,-132,0,0,0,0,0,0,0,0,0,-1,804,1156,0,0
-413,-132,0,0,0,0,0,0,0,0,0,-1,811,1156,0,0
-406,-132,0,0,0,0,0,0,0,0,0,-1,818,1156,0,0
-399,-132,0,0,0,0,0,0,0,0,0,-1,825,1156,0,0
-392,-132,0,0,0,0,0,0,0,0,0,-1,832,1156,0,0
-385,-132,0,0,0,0,0,0,0,0,0,-1,839,1156,0,0
-378,-132,0,0,0,0,0,0,0,0,0,-1,846,1156,0,0
-371,-132,0,0,0,0,0,0,0,0,0,-1,853,1156,0,0
-364,-132,0,0,0,0,0,0,0,0,0,-1,860,1156,0,0
-357,-132,0,0,0,0,0,0,0,0,0,-1,867,1156,0,0
-350,-132,0,0,0,0,0,0,0,0,0,-1,874,1156,0,0
-343,-132,0,0,0,0,0,0,0,0,0,-1,881,1156,0,0
-336,-132,0,0,0,0,0,0,0,0,0,-1,888,1156,0,0
-329,-132,0,0,0,0,0,0,0,0,0,-1,895,1156,0,0
-322,-132,0,0,0,0,0,0,0,0,0,-1,902,1156,0,0
-315,-132,0,0,0,0,0,0,0,0,0,-1,909,1156,0,0
-308,-132,0,0,0,0,0,0,0,0,0,-1,916,1156,0,0
-301,-132,0,0,0,0,0,0,0,0,0,-1,923,1156,0,0
-294,-132,0,0,0,0,0,0,0,0,0,-1,930,1156,0,0
-287,-132,0,0,0,0,0,0,0,0,0,-1,937,1156,0,0
-280,-132,0,0,0,0,0,0,0,0,0,-1,944,1156,0,0
-273,-132,0,0,0,0,0,0,0,0,0,-1,951,1156,0,0
-266,-132,0,0,0,0,0,0,0,0,0,-1,958,1156,0,0
-259,-132,0,0,0,0,0,0,0,0,0,-1,965,1156,0,0
-252,-132,0,0,0,0,0,0,0,0,0,-1,972,1156,0,0
-245,-132,0,0,0,0,0,0,0,0,0,-1,979,1156,0,0
-238,-132,0,0,0,0,0,0,0,0,0,-1,986,1156,0,0
-231,-132,0,0,0,0,0,0,0,0,0,-1,993,1156,0,0
-224,-132,0,0,0,0,0,0,0,0,0,-1,1000,1156,0,0
-217,-132,0,0,0,0,0,0,0,0,0,-1,1007,1156,0,0
-210,-132,0,0,0,0,0,0,0,0,0,-1,1014,1156,0,0
-203,-132,0,0,0,0,0,0,0,0,0,-1,1021,1156,0,0
-196,-132,0,0,0,0,0,0,0,0,0,-1,1028,1156,0,0
-189,-132,0,0,0,0,0,0,0,0,0,-1,1035,1156,0,0
-182,-132,0,0,0,0,0,0,0,0,0,-1,1042,1156,0,0
-175,-132,0,0,0,0,0,0,0,0,0,-1,1049,1156,0,0
-168,-132,0,0,0,0,0,0,0,0,0,-1,1056,1156,0,0
-161,-132,0,0,0,0,0,0,0,0,0,-1,1063,1156,0,0
-154,-132,0,0,0,0,0,0,0,0,0,-1,1070,1156,0,0
-147,-132,0,0,0,0,0,0,0,0,0,-1,1077,1156,0,0
-140,-132,0,0,0,0,0,0,0,0,0,-1,1084,1156,0,0
-133,-132,0,0,0,0,0,0,0,0,0,-1,1091,1156,0,0
-126,-132,0,0,0,0,0,0,0,0,0,-1,1098,1156,0,0
-119,-132,0,0,0,0,0,0,0,0,0,-1,1105,1156,0,0
-112,-132,0,0,0,0,0,0,0,0,0,-1,1112,1156,0,0
-105,-132,0,0,0,0,0,0,0,0,0,-1,1119,1156,0,0
-98,-132,0,0,0,0,0,0,0,0,0,-1,1126,1156,0,0
-91,-132,0,0,0,0,0,0,0,0,0,-1,1133,1156,0,0
-84,-132,0,0,0,0,0,0,0,0,0,-1,1140,1156,0,0
-77,-132,0,0,0,0,0,0,0,0,0,-1,1147,1156,0,0
-70,-132,0,0,0,0,0,0,0,0,0,-1,1154,1156,0,0
-63,-132,0,0,0,0,0,0,0,0,0,-1,1161,1156,0,0
-56,-132,0,0,0,0,0,0,0,0,0,-1,1168,1156,0,0
-49,-132,0,0,0,0,0,0,0,0,0,-1,1175,1156,0,0
-42,-132,0,0,0,0,0,0,0,0,0,-1,1182,1156,0,0
-35,-132,0,0,0,0,0,0,0,0,0,-1,1189,1156,0,0
-28,-132,0,0,0,0,0,0,0,0,0,-1,1196,1156,0,0
-21,-132,0,0,0,0,0,0,0,0,0,-1,1203,1156,0,0
-14,-132,0,0,0,0,0,0,0,0,0,-1,1210,1156,0,0
-7,-132,0,0,0,0,0,0,0,0,0,-1,1217,1156,0,0
0,-132,0,0,0,0,0,0,0,0,0,-1,1224,1156,0,0
7,-132,0,0,0,0,0,0,0,0,0,-1,1231,1156,0,0
14,-132,0,0,0,0,0,0,0,0,0,-1,1238,1156,0,0
21,-132,0,0,0,0,0,0,0,0,0,-1,1245,1156,0,0
28,-132,0,0,0,0,0,0,0,0,0,-1,1252,1156,0,0
35,-132,0,0,0,0,0,0,0,0,0,-1,1259,1156,0,0
42,-132,0,0,0,0,0,0,0,0,0,-1,1266,1156,0,0
49,-132,0,0,0,0,0,0,0,0,0,-1,1273,1156,0,0
56,-132,0,0,0,0,0,0,0,0,0,-1,1280,1156,0,0
63,-132,0,0,0,0,0,0,0,0,0,-1,1287,1156,0,0
70,-132,0,0,0,0,0,0,0,0,0,-1,1294,1156,0,0
77,-132,0,0,0,0,0,0,0,0,0,-1,1301,1156,0,0
84,-132,0,0,0,0,0,0,0,0,0,-1,1308,1156,0,0
91,-132,0,0,0,0,0,0,0,0,0,-1,1315,1156,0,0
98,-132,0,0,0,0,0,0,0,0,0,-1,1322,1156,0,0
105,-132,0,0,0,0,0,0,0,0,0,-1,1329,1156,0,0
112,-132,0,0,0,0,0,0,0,0,0,-1,1336,1156,0,0
119,-132,0,0,0,0,0,0,0,0,0,-1,1343,1156,0,0
126,-132,0,0,0,0,0,0,0,0,0,-1,1350,1156,0,0
133,-132,0,0,0,0,0,0,0,0,0,-1,1357,1156,0,0
140,-132,0,0,0,0,0,0,0,0,0,-1,1364,1156,0,0
147,-132,0,0,0,0,0,0,0,0,0,-1,1371,1156,0,0
154,-132,0,0,0,0,0,0,0,0,0,-1,1378,1156,0,0
161,-132,0,0,0,0,0,0,0,0,0,-1,1385,1156,0,0
168,-132,0,0,0,0,0,0,0,0,0,-1,1392,1156,0,0
175,-132,0,0,0,0,0,0,0,0,0,-1,1399,1156,0,0
182,-132,0,0,0,0,0,0,0,0,0,-1,1406,1156,0,0
189,-132,0,0,0,0,0,0,0,0,0,-1,1413,1156,0,0
196,-132,0,0,0,0,0,0,0,0,0,-1,1420,1156,0,0
203,-132,0,0,0,0,0,0,0,0,0,-1,1427,1156,0,0
210,-132,0,0,0,0,0,0,0,0,0,-1,1434,1156,0,0
217,-132,0,0,0,0,0,0,0,0,0,-1,1441,1156,0,0
224,-132,0,0,0,0,0,0,0,0,0,-1,1448,1156,0,0
231,-132,0,0,0,0,0,0,0,0,0,-1,1455,1156,0,0
238,-132,0,0,0,0,0,0,0,0,0,-1,1462,1156,0,0
245,-132,0,0,0,0,0,0,0,0,0,-1,1469,1156,0,0
252,-132,0,0,0,0,0,0,0,0,0,-1,1476,1156,0,0
259,-132,0,0,0,0,0,0,0,0,0,-1,1483,1156,0,0
266,-132,0,0,0,0,0,0,0,0,0,-1,1490,1156,0,0
273,-132,0,0,0,0,0,0,0,0,0,-1,1497,1156,0,0
280,-132,0,0,0,0,0,0,0,0,0,-1,1504,1156,0,0
287,-132,0,0,0,0,0,0,0,0,0,-1,1511,1156,0,0
294,-132,0,0,0,0,0,0,0,0,0,-1,1518,1156,0,0
301,-132,0,0,0,0,0,0,0,0,0,-1,1525,1156,0,0
308,-132,0,0,0,0,0,0,0,0,0,-1,1532,1156,0,0
315,-132,0,0,0,0,0,0,0,0,0,-1,1539,1156,0,0
322,-132,0,0,0,0,0,0,0,0,0,-1,1546,1156,0,0
329,-132,0,0,0,0,0,0,0,0,0,-1,1553,1156,0,0
336,-132,0,0,0,0,0,0,0,0,0,-1,1560,1156,0,0
343,-132,0,0,0,0,0,0,0,0,0,-1,1567,1156,0,0
350,-132,0,0,0,0,0,0,0,0,0,-1,1574,1156,0,0
357,-132,0,0,0,0,0,0,0,0,0,-1,1581,1156,0,0
364,-132,0,0,0,0,0,0,0,0,0,-1,1588,1156,0,0
371,-132,0,0,0,0,0,0,0,0,0,-1,1595,1156,0,0
378,-132,0,0,0,0,0,0,0,0,0,-1,1602,1156,0,0
385,-132,0,0,0,0,0,0,0,0,0,-1,1609,1156,0,0
392,-132,0,0,0,0,0,0,0,0,0,-1,1616,1156,0,0
399,-132,0,0,0,0,0,0,0,0,0,-1,1623,1156,0,0
406,-132,0,0,0,0,0,0,0,0,0,-1,1630,1156,0,0
413,-132,0,0,0,0,0,0,0,0,0,-1,1637,1156,0,0
420,-132,0,0,0,0,0,0,0,0,0,-1,1644,1156,0,0
427,-132,0,0,0,0,0,0,0,0,0,-1,1651,1156,0,0
434,-132,0,0,0,0,0,0,0,0,0,-1,1658,1156,0,0
441,-132,0,0,0,0,0,0,0,0,0,-1,1665,1156,0,0
448,-132,0,0,0,0,0,0,0,0,0,-1,1672,1156,0,0
455,-132,0,0,0,0,0,0,0,0,0,-1,1679,1156,0,0
462,-132,0,0,0,0,0,0,0,0,0,-1,1686,1156,0,0
469,-132,0,0,0,0,0,0,0,0,0,-1,1693,1156,0,0
476,-132,0,0,0,0,0,0,0,0,0,-1,1700,1156,0,0
483,-132,0,0,0,0,0,0,0,0,0,-1,1707,1156,0,0
490,-132,0,0,0,0,0,0,0,0,0,-1,1714,1156,0,0
497,-132,0,0,0,0,0,0,0,0,0,-1,1721,1156,0,0
504,-132,0,0,0,0,0,0,0,0,0,-1,1728,1156,0,0
511,-132,0,0,0,0,0,0,0,0,0,-1,1735,1156,0,0
518,-132,0,0,0,0,0,0,0,0,0,-1,1742,1156,0,0
525,-132,0,0,0,0,0,0,0,0,0,-1,1749,1156,0,0
532,-132,0,0,0,0,0,0,0,0,0,-1,1756,1156,0,0
539,-132,0,0,0,0,0,0,0,0,0,-1,1763,1156,0,0
546,-132,0,0,0,0,0,0,0,0,0,-1,1770,1156,0,0
553,-132,0,0,0,0,0,0,0,0,0,-1,1777,1156,0,0
560,-132,0,0,0,0,0,0,0,0,0,-1,1784,1156,0,0
567,-132,0,0,0,0,0,0,0,0,0,-1,1791,1156,0,0
574,-132,0,0,0,0,0,0,0,0,0,-1,1798,1156,0,0
581,-132,0,0,0,0,0,0,0,0,0,-1,1805,1156,0,0
588,-132,0,0,0,0,0,0,0,0,0,-1,1812,1156,0,0
595,-132,0,0,0,0,0,0,0,0,0,-1,1819,1156,0,0
602,-132,0,0,0,0,0,0,0,0,0,-1,1826,1156,0,0
609,-132,0,0,0,0,0,0,0,0,0,-1,1833,1156,0,0
616,-132,0,0,0,0,0,0,0,0,0,-1,1840,1156,0,0
623,-132,0,0,0,0,0,0,0,0,0,-1,1847,1156,0,0
630,-132,0,0,0,0,0,0,0,0,0,-1,1854,1156,0,0
637,-132,0,0,0,0,0,0,0,0,0,-1,1861,1156,0,0
644,-132,27.0703,3.07922,0.00187902,-0.00221385,0.000361037,0.00191062,-0.00224546,0.0873127,0.00240211,0.0427716,1868,1156,27.0703,-3.07925
651,-132,27.0317,2.91541,0.00141955,-0.00156025,0.000409571,0.00147482,-0.00161552,0.134136,0.00178482,0.043378,1875,1156,27.0318,-2.91535
658,-132,26.8629,3.19653,0.00118304,-0.00106385,0.000267067,0.00121435,-0.00109515,0.116695,0.00133398,0.0445241,1882,1156,26.8629,-3.19655
665,-132,26.8451,3.24475,0.000382947,-0.000865988,0.000550074,0.00059067,-0.00107371,0.361072,0.000974328,0.0421518,1889,1156,26.8451,-3.24478
672,-132,26.8351,3.38635,-0.000686761,-0.000928,0.00110676,0.000305934,-0.00192069,0.73112,0.00139368,0.0403456,1896,1156,26.8351,-3.38635
679,-132,26.8108,3.14832,-0.00174717,-0.00111613,0.00170337,0.000300702,-0.003164,0.876977,0.00221638,0.0417317,1903,1156,26.8108,-3.14828
686,-132,26.8538,3.13159,-0.00264116,-0.00135101,0.00223146,0.000326742,-0.00431891,0.926103,0.00299414,0.0379619,1910,1156,26.8538,-3.13162
693,-132,26.8773,3.11194,-0.00319925,-0.00144516,0.00261172,0.000432843,-0.00507725,0.947388,0.00353795,0.0269365,1917,1156,26.8773,-3.11197
700,-132,26.9457,3.14026,-0.00374724,-0.00160771,0.00297901,0.00048779,-0.00584274,0.957778,0.00406751,0.0258963,1924,1156,26.9457,-3.14029
707,-132,25.9084,4.42883,0,0,0,0,0,0,0,-1,1931,1156,25.9085,-4.42881
714,-132,24.726,5.66003,0,0,0,0,0,0,0,-1,1938,1156,24.726,-5.66003
721,-132,24.8198,5.46509,-0.00456164,-0.00139674,0.00329323,0.000674509,-0.00663289,1.00937,0.00466305,0.0240704,1945,1156,24.8198,-5.46507
728,-132,24.8499,5.26575,-0.00436482,-0.00124967,0.00320995,0.000760638,-0.00637513,1.01128,0.004525,0.0150504,1952,1156,24.8499,-5.26571
735,-132,24.8571,5.1217,-0.00379424,-0.00106212,0.00280408,0.000690952,-0.00554731,1.01206,0.00394873,0.0171152,1959,1156,24.857,-5.12167
742,-132,24.8655,4.96948,-0.00307099,-0.000326445,0.00205381,0.000771354,-0.00416879,1.07992,0.00306879,0.0193496,1966,1156,24.8654,-4.96946
749,-132,24.8612,4.83362,-0.00178432,0.00082105,0.00101448,0.00116947,-0.00213274,1.23997,0.00193338,0.0239247,1973,1156,24.8612,-4.83359
756,-132,24.873,4.68494,0.000267023,0.0022516,-0.000308617,0.00229848,0.000220138,-1.42003,0.00146447,0.0222572,1980,1156,24.873,-4.68499
763,-132,24.8727,4.53247,0.00258534,0.00443486,-0.00149233,0.00526573,0.00175447,-1.06278,0.00309605,0.0127896,1987,1156,24.8727,-4.53249
770,-132,24.8708,4.39294,0.00501223,0.00675276,-0.00256275,0.00858898,0.00317601,-0.949081,0.0050146,0.0121421,1994,1156,24.8709,-4.39298
777,-132,24.8339,4.21582,0.00753786,0.00941655,-0.00317005,0.0117835,0.0051709,-0.929436,0.00682016,0.0207131,2001,1156,24.8338,-4.21583
784,-132,24.7977,3.79822,0.0103817,0.0127413,-0.00341992,0.0151792,0.00794377,-0.951499,0.00876689,0.0405598,2008,1156,24.7978,-3.79828
791,-132,25.2603,3.22437,0.0135209,0.0168286,-0.00312529,0.0187107,0.0116388,-1.02876,0.0109093,0.0457157,2015,1156,25.2602,-3.22431
798,-132,26.0491,2.74121,0.016892,0.0218246,-0.00198198,0.0225223,0.0161943,-1.23232,0.0134127,0.0453572,2022,1156,26.049,-2.74126
805,-132,26.75,2.26624,0.0201437,0.0278647,0.000445756,0.0278904,0.020118,1.51332,0.0166201,0.0476896,2029,1156,26.7499,-2.26629
812,-132,27.3035,1.80896,0,0,0,0,0,0,0,-1,2036,1156,27.3034,-1.80901
-700,-139,0,0,0,0,0,0,0,0,0,-1,524,1163,0,0
-693,-139,-14.7081,-1.69678,0,0,0,0,0,0,0,-1,531,1163,-14.7081,1.69672
-686,-139,-14.981,-0.935791,0.0600717,0.0452372,0.0521569,0.105336,-2.72468e-05,0.714767,0.0702332,0.0495389,538,1163,-14.981,0.935751
-679,-139,-15.3166,-0.214111,0.0595858,0.0372957,0.0470855,0.0968273,5.41881e-05,0.669188,0.0645335,0.0491856,545,1163,-15.3166,0.214155
-672,-139,-15.721,0.147705,0.0545318,0.0306523,0.0405831,0.0848951,0.000288982,0.642332,0.0565007,0.0436607,552,1163,-15.721,-0.147757
-665,-139,-15.8944,0.410156,0.0472285,0.0249922,0.0337219,0.0716178,0.000602931,0.626159,0.0475455,0.0408704,559,1163,-15.8944,-0.410139
-658,-139,-15.8898,0.7677,0.0390763,0.0201135,0.0270715,0.0582787,0.00091101,0.616956,0.0385524,0.0432264,566,1163,-15.8898,-0.767646
-651,-139,-16.0961,1.2533,0.030906,0.0158561,0.0209754,0.0456654,0.00109671,0.613174,0.0300847,0.042458,573,1163,-16.0961,-1.25327
-644,-139,-16.215,1.60559,0.0234747,0.0121917,0.015678,0.0344953,0.00117109,0.612694,0.0226166,0.0228653,580,1163,-16.215,-1.60557
-637,-139,-16.2073,1.79773,0.0175171,0.00857825,0.0119685,0.0258234,0.000271871,0.606701,0.0171257,0.0123648,587,1163,-16.2073,-1.79772
-630,-139,-16.2199,2.00037,0.0127261,0.00590243,0.00713276,0.017221,0.00140749,0.562317,0.0110414,0.0105352,594,1163,-16.2199,-2.00035
-623,-139,-16.2375,2.18762,0.00733563,0.00348311,0.00385629,0.00971999,0.00109875,0.55377,0.00614657,0.0158312,601,1163,-16.2375,-2.18767
-616,-139,-16.2372,2.32751,0.0036528,0.00180086,0.00188853,0.00483015,0.000623512,0.557465,0.0030337,0.0163631,608,1163,-16.2372,-2.32756
-609,-139,-16.1883,2.53088,0.00231078,0.000577845,0.00067071,0.00254004,0.000348586,0.329365,0.00158996,0.0231002,615,1163,-16.1883,-2.53087
-602,-139,-16.2832,2.74475,0.00162366,-2.25099e-05,9.1879e-05,0.00162877,-2.76222e-05,0.0555838,0.00109517,0.0189884,622,1163,-16.2832,-2.74472
-595,-139,-16.348,2.94006,0.00158048,-0.000414515,-0.000459395,0.00168119,-0.000515218,-0.215795,0.00132632,0.0184719,629,1163,-16.348,-2.94001
-588,-139,-16.259,3.16675,0.00149376,-0.000478436,-0.00087551,0.00182634,-0.000811014,-0.363032,0.00155984,0.0197824,636,1163,-16.259,-3.16673
-581,-139,-15.9797,3.48254,0,0,0,0,0,0,0,-1,643,1163,-15.9797,-3.48257
-574,-139,-18.3775,1.2959,0,0,0,0,0,0,0,-1,650,1163,-18.3775,-1.29588
-567,-139,-18.5132,1.29968,0.00226379,0.000165902,-0.00115713,0.00277666,-0.000346961,-0.4172,0.00197693,0.0465251,657,1163,-18.5132,-1.29969
-560,-139,-18.5187,1.30334,0.0024345,0.000573645,-0.00127817,0.00308503,-7.68818e-05,-0.470783,0.00208279,0.0349257,664,1163,-18.5187,-1.30335
-553,-139,-18.5616,1.297,0.0026703,0.0011152,-0.0013593,0.00345872,0.00032678,-0.525602,0.00220498,0.0405173,671,1163,-18.5616,-1.29703
-546,-139,-18.7185,0.990356,0.00310237,0.00179045,-0.00132609,0.00392586,0.000966951,-0.555716,0.00236185,0.0452903,678,1163,-18.7185,-0.990319
-539,-139,-18.4659,0.695435,0.0038543,0.00256386,-0.0009662,0.00437091,0.00204725,-0.491009,0.00252523,0.043605,685,1163,-18.466,-0.69541
-532,-139,-18.3105,0.81311,0.00576103,0.00341917,4.87501e-05,0.00576205,0.00341816,0.0208048,0.00334594,0.0417525,692,1163,-18.3106,-0.813067
-525,-139,-18.2465,1.08032,0.00844654,0.00457977,0.00164733,0.00905317,0.00397314,0.35284,0.00523986,0.0409642,699,1163,-18.2465,-1.0803
-518,-139,0,0,0,0,0,0,0,0,0,-1,706,1163,0,0
-511,-139,0,0,0,0,0,0,0,0,0,-1,713,1163,0,0
-504,-139,0,0,0,0,0,0,0,0,0,-1,720,1163,0,0
-497,-139,0,0,0,0,0,0,0,0,0,-1,727,1163,0,0
-490,-139,0,0,0,0,0,0,0,0,0,-1,734,1163,0,0
-483,-139,0,0,0,0,0,0,0,0,0,-1,741,1163,0,0
-476,-139,0,0,0,0,0,0,0,0,0,-1,748,1163,0,0
-469,-139,0,0,0,0,0,0,0,0,0,-1,755,1163,0,0
-462,-139,0,0,0,0,0,0,0,0,0,-1,762,1163,0,0
-455,-139,0,0,0,0,0,0,0,0,0,-1,769,1163,0,0
-448,-139,0,0,0,0,0,0,0,0,0,-1,776,1163,0,0
-441,-139,0,0,0,0,0,0,0,0,0,-1,783,1163,0,0
-434,-139,0,0,0,0,0,0,0,0,0,-1,790,1163,0,0
-427,-139,0,0,0,0,0,0,0,0,0,-1,797,1163,0,0
-420,-139,0,0,0,0,0,0,0,0,0,-1,804,1163,0,0
-413,-139,0,0,0,0,0,0,0,0,0,-1,811,1163,0,0
-406,-139,0,0,0,0,0,0,0,0,0,-1,818,1163,0,0
-399,-139,0,0,0,0,0,0,0,0,0,-1,825,1163,0,0
-392,-139,0,0,0,0,0,0,0,0,0,-1,832,1163,0,0
-385,-139,0,0,0,0,0,0,0,0,0,-1,839,1163,0,0
-378,-139,0,0,0,0,0,0,0,0,0,-1,846,1163,0,0
-371,-139,0,0,0,0,0,0,0,0,0,-1,853,1163,0,0
-364,-139,0,0,0,0,0,0,0,0,0,-1,860,1163,0,0
-357,-139,0,0,0,0,0,0,0,0,0,-1,867,1163,0,0
-350,-139,0,0,0,0,0,0,0,0,0,-1,874,1163,0,0
-343,-139,0,0,0,0,0,0,0,0,0,-1,881,1163,0,0
-336,-139,0,0,0,0,0,0,0,0,0,-1,888,1163,0,0
-329,-139,0,0,0,0,0,0,0,0,0,-1,895,1163,0,0
-322,-139,0,0,0,0,0,0,0,0,0,-1,902,1163,0,0
-315,-139,0,0,0,0,0,0,0,0,0,-1,909,1163,0,0
-308,-139,0,0,0,0,0,0,0,0,0,-1,916,1163,0,0
-301,-139,0,0,0,0,0,0,0,0,0,-1,923,1163,0,0
-294,-139,0,0,0,0,0,0,0,0,0,-1,930,1163,0,0
-287,-139,0,0,0,0,0,0,0,0,0,-1,937,1163,0,0
-280,-139,0,0,0,0,0,0,0,0,0,-1,944,1163,0,0
-273,-139,0,0,0,0,0,0,0,0,0,-1,951,1163,0,0
-266,-139,0,0,0,0,0,0,0,0,0,-1,958,1163,0,0
-259,-139,0,0,0,0,0,0,0,0,0,-1,965,1163,0,0
-252,-139,0,0,0,0,0,0,0,0,0,-1,972,1163,0,0
-245,-139,0,0,0,0,0,0,0,0,0,-1,979,1163,0,0
-238,-139,0,0,0,0,0,0,0,0,0,-1,986,1163,0,0
-231,-139,0,0,0,0,0,0,0,0,0,-1,993,1163,0,0
-224,-139,0,0,0,0,0,0,0,0,0,-1,1000,1163,0,0
-217,-139,0,0,0,0,0,0,0,0,0,-1,1007,1163,0,0
-210,-139,0,0,0,0,0,0,0,0,0,-1,1014,1163,0,0
-203,-139,0,0,0,0,0,0,0,0,0,-1,1021,1163,0,0
-196,-139,0,0,0,0,0,0,0,0,0,-1,1028,1163,0,0
-189,-139,0,0,0,0,0,0,0,0,0,-1,1035,1163,0,0
-182,-139,0,0,0,0,0,0,0,0,0,-1,1042,1163,0,0
-175,-139,0,0,0,0,0,0,0,0,0,-1,1049,1163,0,0
-168,-139,0,0,0,0,0,0,0,0,0,-1,1056,1163,0,0
-161,-139,0,0,0,0,0,0,0,0,0,-1,1063,1163,0,0
-154,-139,0,0,0,0,0,0,0,0,0,-1,1070,1163,0,0
-147,-139,0,0,0,0,0,0,0,0,0,-1,1077,1163,0,0
-140,-139,0,0,0,0,0,0,0,0,0,-1,1084,1163,0,0
-133,-139,0,0,0,0,0,0,0,0,0,-1,1091,1163,0,0
-126,-139,0,0,0,0,0,0,0,0,0,-1,1098,1163,0,0
-119,-139,0,0,0,0,0,0,0,0,0,-1,1105,1163,0,0
-112,-139,0,0,0,0,0,0,0,0,0,-1,1112,1163,0,0
-105,-139,0,0,0,0,0,0,0,0,0,-1,1119,1163,0,0
-98,-139,0,0,0,0,0,0,0,0,0,-1,1126,1163,0,0
-91,-139,0,0,0,0,0,0,0,0,0,-1,1133,1163,0,0
-84,-139,0,0,0,0,0,0,0,0,0,-1,1140,1163,0,0
-77,-139,0,0,0,0,0,0,0,0,0,-1,1147,1163,0,0
-70,-139,0,0,0,0,0,0,0,0,0,-1,1154,1163,0,0
-63,-139,0,0,0,0,0,0,0,0,0,-1,1161,1163,0,0
-56,-139,0,0,0,0,0,0,0,0,0,-1,1168,1163,0,0
-49,-139,0,0,0,0,0,0,0,0,0,-1,1175,1163,0,0
-42,-139,0,0,0,0,0,0,0,0,0,-1,1182,1163,0,0
-35,-139,0,0,0,0,0,0,0,0,0,-1,1189,1163,0,0
-28,-139,0,0,0,0,0,0,0,0,0,-1,1196,1163,0,0
-21,-139,0,0,0,0,0,0,0,0,0,-1,1203,1163,0,0
-14,-139,0,0,0,0,0,0,0,0,0,-1,1210,1163,0,0
-7,-139,0,0,0,0,0,0,0,0,0,-1,1217,1163,0,0
0,-139,0,0,0,0,0,0,0,0,0,-1,1224,1163,0,0
7,-139,0,0,0,0,0,0,0,0,0,-1,1231,1163,0,0
14,-139,0,0,0,0,0,0,0,0,0,-1,1238,1163,0,0
21,-139,0,0,0,0,0,0,0,0,0,-1,1245,1163,0,0
28,-139,0,0,0,0,0,0,0,0,0,-1,1252,1163,0,0
35,-139,0,0,0,0,0,0,0,0,0,-1,1259,1163,0,0
42,-139,0,0,0,0,0,0,0,0,0,-1,1266,1163,0,0
49,-139,0,0,0,0,0,0,0,0,0,-1,1273,1163,0,0
56,-139,0,0,0,0,0,0,0,0,0,-1,1280,1163,0,0
63,-139,0,0,0,0,0,0,0,0,0,-1,1287,1163,0,0
70,-139,0,0,0,0,0,0,0,0,0,-1,1294,1163,0,0
77,-139,0,0,0,0,0,0,0,0,0,-1,1301,1163,0,0
84,-139,0,0,0,0,0,0,0,0,0,-1,1308,1163,0,0
91,-139,0,0,0,0,0,0,0,0,0,-1,1315,1163,0,0
98,-139,0,0,0,0,0,0,0,0,0,-1,1322,1163,0,0
105,-139,0,0,0,0,0,0,0,0,0,-1,1329,1163,0,0
112,-139,0,0,0,0,0,0,0,0,0,-1,1336,1163,0,0
119,-139,0,0,0,0,0,0,0,0,0,-1,1343,1163,0,0
126,-139,0,0,0,0,0,0,0,0,0,-1,1350,1163,0,0
133,-139,0,0,0,0,0,0,0,0,0,-1,1357,1163,0,0
140,-139,0,0,0,0,0,0,0,0,0,-1,1364,1163,0,0
147,-139,0,0,0,0,0,0,0,0,0,-1,1371,1163,0,0
154,-139,0,0,0,0,0,0,0,0,0,-1,1378,1163,0,0
161,-139,0,0,0,0,0,0,0,0,0,-1,1385,1163,0,0
168,-139,0,0,0,0,0,0,0,0,0,-1,1392,1163,0,0
175,-139,0,0,0,0,0,0,0,0,0,-1,1399,1163,0,0
182,-139,0,0,0,0,0,0,0,0,0,-1,1406,1163,0,0
189,-139,0,0,0,0,0,0,0,0,0,-1,1413,1163,0,0
196,-139,0,0,0,0,0,0,0,0,0,-1,1420,1163,0,0
203,-139,0,0,0,0,0,0,0,0,0,-1,1427,1163,0,0
210,-139,0,0,0,0,0,0,0,0,0,-1,1434,1163,0,0
217,-139,0,0,0,0,0,0,0,0,0,-1,1441,1163,0,0
224,-139,0,0,0,0,0,0,0,0,0,-1,1448,1163,0,0
231,-139,0,0,0,0,0,0,0,0,0,-1,1455,1163,0,0
238,-139,0,0,0,0,0,0,0,0,0,-1,1462,1163,0,0
245,-139,0,0,0,0,0,0,0,0,0,-1,1469,1163,0,0
252,-139,0,0,0,0,0,0,0,0,0,-1,1476,1163,0,0
259,-139,0,0,0,0,0,0,0,0,0,-1,1483,1163,0,0
266,-139,0,0,0,0,0,0,0,0,0,-1,1490,1163,0,0
273,-139,0,0,0,0,0,0,0,0,0,-1,1497,1163,0,0
280,-139,0,0,0,0,0,0,0,0,0,-1,1504,1163,0,0
287,-139,0,0,0,0,0,0,0,0,0,-1,1511,1163,0,0
294,-139,0,0,0,0,0,0,0,0,0,-1,1518,1163,0,0
301,-139,0,0,0,0,0,0,0,0,0,-1,1525,1163,0,0
308,-139,0,0,0,0,0,0,0,0,0,-1,1532,1163,0,0
315,-139,0,0,0,0,0,0,0,0,0,-1,1539,1163,0,0
322,-139,0,0,0,0,0,0,0,0,0,-1,1546,1163,0,0
329,-139,0,0,0,0,0,0,0,0,0,-1,1553,1163,0,0
336,-139,0,0,0,0,0,0,0,0,0,-1,1560,1163,0,0
343,-139,0,0,0,0,0,0,0,0,0,-1,1567,1163,0,0
350,-139,0,0,0,0,0,0,0,0,0,-1,1574,1163,0,0
357,-139,0,0,0,0,0,0,0,0,0,-1,1581,1163,0,0
364,-139,0,0,0,0,0,0,0,0,0,-1,1588,1163,0,0
371,-139,0,0,0,0,0,0,0,0,0,-1,1595,1163,0,0
378,-139,0,0,0,0,0,0,0,0,0,-1,1602,1163,0,0
385,-139,0,0,0,0,0,0,0,0,0,-1,1609,1163,0,0
392,-139,0,0,0,0,0,0,0,0,0,-1,1616,1163,0,0
399,-139,0,0,0,0,0,0,0,0,0,-1,1623,1163,0,0
406,-139,0,0,0,0,0,0,0,0,0,-1,1630,1163,0,0
413,-139,0,0,0,0,0,0,0,0,0,-1,1637,1163,0,0
420,-139,0,0,0,0,0,0,0,0,0,-1,1644,1163,0,0
427,-139,0,0,0,0,0,0,0,0,0,-1,1651,1163,0,0
434,-139,0,0,0,0,0,0,0,0,0,-1,1658,1163,0,0
441,-139,0,0,0,0,0,0,0,0,0,-1,1665,1163,0,0
448,-139,0,0,0,0,0,0,0,0,0,-1,1672,1163,0,0
455,-139,0,0,0,0,0,0,0,0,0,-1,1679,1163,0,0
462,-139,0,0,0,0,0,0,0,0,0,-1,1686,1163,0,0
469,-139,0,0,0,0,0,0,0,0,0,-1,1693,1163,0,0
476,-139,0,0,0,0,0,0,0,0,0,-1,1700,1163,0,0
483,-139,0,0,0,0,0,0,0,0,0,-1,1707,1163,0,0
490,-139,0,0,0,0,0,0,0,0,0,-1,1714,1163,0,0
497,-139,0,0,0,0,0,0,0,0,0,-1,1721,1163,0,0
504,-139,0,0,0,0,0,0,0,0,0,-1,1728,1163,0,0
511,-139,0,0,0,0,0,0,0,0,0,-1,1735,1163,0,0
518,-139,0,0,0,0,0,0,0,0,0,-1,1742,1163,0,0
525,-139,0,0,0,0,0,0,0,0,0,-1,1749,1163,0,0
532,-139,0,0,0,0,0,0,0,0,0,-1,1756,1163,0,0
539,-139,0,0,0,0,0,0,0,0,0,-1,1763,1163,0,0
546,-139,0,0,0,0,0,0,0,0,0,-1,1770,1163,0,0
553,-139,0,0,0,0,0,0,0,0,0,-1,1777,1163,0,0
560,-139,0,0,0,0,0,0,0,0,0,-1,1784,1163,0,0
567,-139,0,0,0,0,0,0,0,0,0,-1,1791,1163,0,0
574,-139,0,0,0,0,0,0,0,0,0,-1,1798,1163,0,0
581,-139,0,0,0,0,0,0,0,0,0,-1,1805,1163,0,0
588,-139,0,0,0,0,0,0,0,0,0,-1,1812,1163,0,0
595,-139,0,0,0,0,0,0,0,0,0,-1,1819,1163,0,0
602,-139,0,0,0,0,0,0,0,0,0,-1,1826,1163,0,0
609,-139,0,0,0,0,0,0,0,0,0,-1,1833,1163,0,0
616,-139,0,0,0,0,0,0,0,0,0,-1,1840,1163,0,0
623,-139,0,0,0,0,0,0,0,0,0,-1,1847,1163,0,0
630,-139,0,0,0,0,0,0,0,0,0,-1,1854,1163,0,0
637,-139,0,0,0,0,0,0,0,0,0,-1,1861,1163,0,0
644,-139,26.848,2.98767,0.00126108,-0.00185671,0.00109942,0.00160977,-0.0022054,0.307124,0.00221162,0.0423779,1868,1163,26.8481,-2.98762
651,-139,26.8319,2.92871,0.00101856,-0.00113007,0.00102931,0.00143208,-0.00154358,0.382005,0.0017184,0.0420222,1875,1163,26.8319,-2.92874
658,-139,26.8795,3.17102,0.000848736,-0.000572753,0.000814599,0.00121907,-0.000943086,0.42669,0.00125171,0.0419749,1882,1163,26.8795,-3.17099
665,-139,26.83,3.34375,0.000111845,-0.000355767,0.000998332,0.000903385,-0.00114731,0.670373,0.00118676,0.0392083,1889,1163,26.8299,-3.34372
672,-139,26.9011,3.27637,-0.000863157,-0.00041975,0.00138621,0.000762378,-0.00204528,0.864694,0.00167646,0.0391738,1896,1163,26.9011,-3.27642
679,-139,26.9327,3.11755,-0.00185761,-0.000639951,0.00184881,0.000697699,-0.00319526,0.94446,0.00239683,0.0386522,1903,1163,26.9327,-3.1176
686,-139,26.8654,3.09424,-0.00269577,-0.000915994,0.00225698,0.000620198,-0.00423196,0.973182,0.00304914,0.0330587,1910,1163,26.8654,-3.09419
693,-139,26.8981,3.08679,-0.00320353,-0.0010336,0.00253841,0.000641988,-0.00487913,0.987357,0.0034865,0.0187147,1917,1163,26.8981,-3.08674
700,-139,26.7634,3.71655,0,0,0,0,0,0,0,-1,1924,1163,26.7634,-3.71656
707,-139,25.6948,4.65955,-0.00408394,-0.00133073,0.00299618,0.00058996,-0.00600463,1.00074,0.00421353,0.0357575,1931,1163,25.6948,-4.6596
714,-139,24.724,5.69348,0,0,0,0,0,0,0,-1,1938,1163,24.724,-5.6935
721,-139,24.7214,5.42444,-0.00451669,-0.00118657,0.00302793,0.000603918,-0.00630718,1.03678,0.00441987,0.0234654,1945,1163,24.7215,-5.42444
728,-139,24.7061,5.24219,-0.00422011,-0.00110935,0.00294778,0.000668227,-0.00599769,1.02816,0.0042388,0.0228536,1952,1163,24.7061,-5.24219
735,-139,24.6622,5.15332,-0.00356295,-0.000969745,0.00253062,0.0005771,-0.0051098,1.02214,0.00361429,0.0170198,1959,1163,24.6623,-5.15334
742,-139,24.7,4.95374,-0.00283782,-0.000264218,0.00162695,0.000523306,-0.00362534,1.11999,0.00260888,0.0205213,1966,1163,24.6999,-4.95377
749,-139,24.6814,4.79041,-0.00154223,0.000997144,0.000384752,0.00105416,-0.00159924,1.42368,0.00154268,0.0181741,1973,1163,24.6814,-4.79037
756,-139,24.667,4.64514,0.000606947,0.00244844,-0.00119595,0.00303703,1.83651e-05,-1.11345,0.00201859,0.0104381,1980,1163,24.667,-4.6451
763,-139,24.672,4.49512,0.00298298,0.00473622,-0.00275412,0.00674987,0.000969332,-0.939475,0.00421413,0.0106896,1987,1163,24.672,-4.49509
770,-139,24.671,4.35962,0.00538605,0.00719888,-0.00427073,0.0106583,0.00192661,-0.889965,0.00655836,0.0116823,1994,1163,24.6711,-4.35958
777,-139,24.6423,4.23535,0.00792861,0.0101343,-0.00548429,0.0146255,0.00343737,-0.88462,0.00883046,0.0210376,2001,1163,24.6424,-4.23531
784,-139,24.6543,4.06042,0.0107546,0.0138509,-0.00639274,0.0188803,0.00572524,-0.904198,0.0111784,0.0400778,2008,1163,24.6543,-4.0604
791,-139,25.3816,3.44849,0,0,0,0,0,0,0,-1,2015,1163,25.3816,-3.44844
798,-139,26.4026,2.92932,0,0,0,0,0,0,0,-1,2022,1163,26.4027,-2.92931
805,-139,27.1313,2.44348,0,0,0,0,0,0,0,-1,2029,1163,27.1314,-2.44344
812,-139,0,0,0,0,0,0,0,0,0,-1,2036,1163,0,0
-700,-146,0,0,0,0,0,0,0,0,0,-1,524,1170,0,0
-693,-146,-15.582,-1.31506,0,0,0,0,0,0,0,-1,531,1170,-15.582,1.31509
-686,-146,-15.8554,-0.758545,0.0653949,0.0370395,0.0649581,0.117705,-0.0152701,0.677954,0.0840235,0.0492858,538,1170,-15.8554,0.758554
-679,-146,-16.1111,-0.319092,0.0646261,0.0309358,0.0568214,0.107047,-0.0114848,0.641296,0.0754845,0.048495,545,1170,-16.1111,0.319065
-672,-146,-16.4151,0.0830078,0.0590315,0.0258252,0.0478479,0.093075,-0.00821836,0.618399,0.064963,0.0427741,552,1170,-16.4151,-0.0830369
-665,-146,-15.8,0.232178,0.0510947,0.0214261,0.0390521,0.0780351,-0.00551428,0.603886,0.0539555,0.0439769,559,1170,-15.8,-0.232238
-658,-146,-15.6586,0.719971,0.0423087,0.0175637,0.0309277,0.0632469,-0.00337453,0.595125,0.0433333,0.0436967,566,1170,-15.6586,-0.719924
-651,-146,-15.8062,1.3634,0.0335345,0.0141125,0.0237228,0.049457,-0.00180991,0.591126,0.0335909,0.0380424,573,1170,-15.8062,-1.36345
-644,-146,-15.983,1.55444,0.0255289,0.0110559,0.0176145,0.0373354,-0.000750663,0.590495,0.0251443,0.0207614,580,1170,-15.983,-1.55438
-637,-146,-15.9848,1.76404,0.0189747,0.00804704,0.0132416,0.0278354,-0.000813705,0.589727,0.018834,0.0108282,587,1170,-15.9848,-1.76408
-630,-146,-16.0158,1.96729,0.013835,0.00570269,0.00801163,0.0187533,0.000784414,0.550571,0.0122491,0.0100581,594,1170,-16.0158,-1.96724
-623,-146,-16.0323,2.16223,0.00802205,0.00358725,0.00440726,0.0107383,0.000871005,0.552326,0.00688691,0.0129048,601,1170,-16.0323,-2.16223
-616,-146,-16.0609,2.35876,0.00394765,0.00203911,0.00216358,0.00535806,0.000628705,0.5777,0.003382,0.0182618,608,1170,-16.0608,-2.35881
-609,-146,-15.9661,2.55969,0.0022656,0.000959321,0.000803315,0.00264779,0.000577131,0.444072,0.00160772,0.0174844,615,1170,-15.9661,-2.5597
-602,-146,-15.8123,2.81995,0,0,0,0,0,0,0,-1,622,1170,-15.8122,-2.82
-595,-146,-16.1835,2.97705,0.00133453,9.76278e-05,-0.000520893,0.00152466,-9.25072e-05,-0.34999,0.00104864,0.0188583,629,1170,-16.1835,-2.97707
-588,-146,-16.0932,3.19507,0.00114545,2.91546e-05,-0.00105895,0.00178434,-0.00060974,-0.542862,0.00143661,0.0205805,636,1170,-16.0932,-3.19507
-581,-146,-16.0043,3.44263,0.00114895,0.00016943,-0.00136671,0.002111,-0.000792629,-0.613352,0.00173306,0.0386192,643,1170,-16.0043,-3.44262
-574,-146,-16.0641,3.59998,0,0,0,0,0,0,0,-1,650,1170,-16.0641,-3.60001
-567,-146,-18.5519,1.25867,0,0,0,0,0,0,0,-1,657,1170,-18.5519,-1.25866
-560,-146,-18.5054,1.32202,0.00247517,0.000867485,-0.00158073,0.0034447,-0.000102052,-0.550176,0.00233123,0.0352312,664,1170,-18.5054,-1.32198
-553,-146,-18.4486,1.3761,0.00291598,0.00124868,-0.00165828,0.00393836,0.000226296,-0.552487,0.00255349,0.0391007,671,1170,-18.4486,-1.37612
-546,-146,-18.4521,1.36389,0.00365415,0.00168171,-0.00158111,0.0045314,0.000804451,-0.506548,0.00279169,0.0451239,678,1170,-18.4521,-1.36391
-539,-146,-18.4226,1.11682,0.00473558,0.0021173,-0.00113921,0.00516185,0.00169103,-0.358052,0.00303867,0.0436488,685,1170,-18.4226,-1.11684
-532,-146,-18.397,0.730957,0.00689871,0.00256189,2.80508e-05,0.00689889,0.0025617,0.00646768,0.00402681,0.0398536,692,1170,-18.397,-0.731002
-525,-146,-18.2566,0.871094,0.0099755,0.00325854,0.00189499,0.0104732,0.00276081,0.256856,0.00626794,0.0426389,699,1170,-18.2566,-0.871067
-518,-146,0,0,0,0,0,0,0,0,0,-1,706,1170,0,0
-511,-146,0,0,0,0,0,0,0,0,0,-1,713,1170,0,0
-504,-146,0,0,0,0,0,0,0,0,0,-1,720,1170,0,0
-497,-146,0,0,0,0,0,0,0,0,0,-1,727,1170,0,0
-490,-146,0,0,0,0,0,0,0,0,0,-1,734,1170,0,0
-483,-146,0,0,0,0,0,0,0,0,0,-1,741,1170,0,0
-476,-146,0,0,0,0,0,0,0,0,0,-1,748,1170,0,0
-469,-146,0,0,0,0,0,0,0,0,0,-1,755,1170,0,0
-462,-146,0,0,0,0,0,0,0,0,0,-1,762,1170,0,0
-455,-146,0,0,0,0,0,0,0,0,0,-1,769,1170,0,0
-448,-146,0,0,0,0,0,0,0,0,0,-1,776,1170,0,0
-441,-146,0,0,0,0,0,0,0,0,0,-1,783,1170,0,0
-434,-146,0,0,0,0,0,0,0,0,0,-1,790,1170,0,0
-427,-146,0,0,0,0,0,0,0,0,0,-1,797,1170,0,0
-420,-146,0,0,0,0,0,0,0,0,0,-1,804,1170,0,0
-413,-146,0,0,0,0,0,0,0,0,0,-1,811,1170,0,0
-406,-146,0,0,0,0,0,0,0,0,0,-1,818,1170,0,0
-399,-146,0,0,0,0,0,0,0,0,0,-1,825,1170,0,0
-392,-146,0,0,0,0,0,0,0,0,0,-1,832,1170,0,0
-385,-146,0,0,0,0,0,0,0,0,0,-1,839,1170,0,0
-378,-146,0,0,0,0,0,0,0,0,0,-1,846,1170,0,0
-371,-146,0,0,0,0,0,0,0,0,0,-1,853,1170,0,0
-364,-146,0,0,0,0,0,0,0,0,0,-1,860,1170,0,0
-357,-146,0,0,0,0,0,0,0,0,0,-1,867,1170,0,0
-350,-146,0,0,0,0,0,0,0,0,0,-1,874,1170,0,0
-343,-146,0,0,0,0,0,0,0,0,0,-1,881,1170,0,0
-336,-146,0,0,0,0,0,0,0,0,0,-1,888,1170,0,0
-329,-146,0,0,0,0,0,0,0,0,0,-1,895,1170,0,0
-322,-146,0,0,0,0,0,0,0,0,0,-1,902,1170,0,0
-315,-146,0,0,0,0,0,0,0,0,0,-1,909,1170,0,0
-308,-146,0,0,0,0,0,0,0,0,0,-1,916,1170,0,0
-301,-146,0,0,0,0,0,0,0,0,0,-1,923,1170,0,0
-294,-146,0,0,0,0,0,0,0,0,0,-1,930,1170,0,0
-287,-146,0,0,0,0,0,0,0,0,0,-1,937,1170,0,0
-280,-146,0,0,0,0,0,0,0,0,0,-1,944,1170,0,0
-273,-146,0,0,0,0,0,0,0,0,0,-1,951,1170,0,0
-266,-146,0,0,0,0,0,0,0,0,0,-1,958,1170,0,0
-259,-146,0,0,0,0,0,0,0,0,0,-1,965,1170,0,0
-252,-146,0,0,0,0,0,0,0,0,0,-1,972,1170,0,0
-245,-146,0,0,0,0,0,0,0,0,0,-1,979,1170,0,0
-238,-146,0,0,0,0,0,0,0,0,0,-1,986,1170,0,0
-231,-146,0,0,0,0,0,0,0,0,0,-1,993,1170,0,0
-224,-146,0,0,0,0,0,0,0,0,0,-1,1000,1170,0,0
-217,-146,0,0,0,0,0,0,0,0,0,-1,1007,1170,0,0
-210,-146,0,0,0,0,0,0,0,0,0,-1,1014,1170,0,0
-203,-146,0,0,0,0,0,0,0,0,0,-1,1021,1170,0,0
-196,-146,0,0,0,0,0,0,0,0,0,-1,1028,1170,0,0
-189,-146,0,0,0,0,0,0,0,0,0,-1,1035,1170,0,0
-182,-146,0,0,0,0,0,0,0,0,0,-1,1042,1170,0,0
-175,-146,0,0,0,0,0,0,0,0,0,-1,1049,1170,0,0
-168,-146,0,0,0,0,0,0,0,0,0,-1,1056,1170,0,0
-161,-146,0,0,0,0,0,0,0,0,0,-1,1063,1170,0,0
-154,-146,0,0,0,0,0,0,0,0,0,-1,1070,1170,0,0
-147,-146,0,0,0,0,0,0,0,0,0,-1,1077,1170,0,0
-140,-146,0,0,0,0,0,0,0,0,0,-1,1084,1170,0,0
-133,-146,0,0,0,0,0,0,0,0,0,-1,1091,1170,0,0
-126,-146,0,0,0,0,0,0,0,0,0,-1,1098,1170,0,0
-119,-146,0,0,0,0,0,0,0,0,0,-1,1105,1170,0,0
-112,-146,0,0,0,0,0,0,0,0,0,-1,1112,1170,0,0
-105,-146,0,0,0,0,0,0,0,0,0,-1,1119,1170,0,0
-98,-146,0,0,0,0,0,0,0,0,0,-1,1126,1170,0,0
-91,-146,0,0,0,0,0,0,0,0,0,-1,1133,1170,0,0
-84,-146,0,0,0,0,0,0,0,0,0,-1,1140,1170,0,0
-77,-146,0,0,0,0,0,0,0,0,0,-1,1147,1170,0,0
-70,-146,0,0,0,0,0,0,0,0,0,-1,1154,1170,0,0
-63,-146,0,0,0,0,0,0,0,0,0,-1,1161,1170,0,0
-56,-146,0,0,0,0,0,0,0,0,0,-1,1168,1170,0,0
-49,-146,0,0,0,0,0,0,0,0,0,-1,1175,1170,0,0
-42,-146,0,0,0,0,0,0,0,0,0,-1,1182,1170,0,0
-35,-146,0,0,0,0,0,0,0,0,0,-1,1189,1170,0,0
-28,-146,0,0,0,0,0,0,0,0,0,-1,1196,1170,0,0
-21,-146,0,0,0,0,0,0,0,0,0,-1,1203,1170,0,0
-14,-146,0,0,0,0,0,0,0,0,0,-1,1210,1170,0,0
-7,-146,0,0,0,0,0,0,0,0,0,-1,1217,1170,0,0
0,-146,0,0,0,0,0,0,0,0,0,-1,1224,1170,0,0
7,-146,0,0,0,0,0,0,0,0,0,-1,1231,1170,0,0
14,-146,0,0,0,0,0,0,0,0,0,-1,1238,1170,0,0
21,-146,0,0,0,0,0,0,0,0,0,-1,1245,1170,0,0
28,-146,0,0,0,0,0,0,0,0,0,-1,1252,1170,0,0
35,-146,0,0,0,0,0,0,0,0,0,-1,1259,1170,0,0
42,-146,0,0,0,0,0,0,0,0,0,-1,1266,1170,0,0
49,-146,0,0,0,0,0,0,0,0,0,-1,1273,1170,0,0
56,-146,0,0,0,0,0,0,0,0,0,-1,1280,1170,0,0
63,-146,0,0,0,0,0,0,0,0,0,-1,1287,1170,0,0
70,-146,0,0,0,0,0,0,0,0,0,-1,1294,1170,0,0
77,-146,0,0,0,0,0,0,0,0,0,-1,1301,1170,0,0
84,-146,0,0,0,0,0,0,0,0,0,-1,1308,1170,0,0
91,-146,0,0,0,0,0,0,0,0,0,-1,1315,1170,0,0
98,-146,0,0,0,0,0,0,0,0,0,-1,1322,1170,0,0
105,-146,0,0,0,0,0,0,0,0,0,-1,1329,1170,0,0
112,-146,0,0,0,0,0,0,0,0,0,-1,1336,1170,0,0
119,-146,0,0,0,0,0,0,0,0,0,-1,1343,1170,0,0
126,-146,0,0,0,0,0,0,0,0,0,-1,1350,1170,0,0
133,-146,0,0,0,0,0,0,0,0,0,-1,1357,1170,0,0
140,-146,0,0,0,0,0,0,0,0,0,-1,1364,1170,0,0
147,-146,0,0,0,0,0,0,0,0,0,-1,1371,1170,0,0
154,-146,0,0,0,0,0,0,0,0,0,-1,1378,1170,0,0
161,-146,0,0,0,0,0,0,0,0,0,-1,1385,1170,0,0
168,-146,0,0,0,0,0,0,0,0,0,-1,1392,1170,0,0
175,-146,0,0,0,0,0,0,0,0,0,-1,1399,1170,0,0
182,-146,0,0,0,0,0,0,0,0,0,-1,1406,1170,0,0
189,-146,0,0,0,0,0,0,0,0,0,-1,1413,1170,0,0
196,-146,0,0,0,0,0,0,0,0,0,-1,1420,1170,0,0
203,-146,0,0,0,0,0,0,0,0,0,-1,1427,1170,0,0
210,-146,0,0,0,0,0,0,0,0,0,-1,1434,1170,0,0
217,-146,0,0,0,0,0,0,0,0,0,-1,1441,1170,0,0
224,-146,0,0,0,0,0,0,0,0,0,-1,1448,1170,0,0
231,-146,0,0,0,0,0,0,0,0,0,-1,1455,1170,0,0
238,-146,0,0,0,0,0,0,0,0,0,-1,1462,1170,0,0
245,-146,0,0,0,0,0,0,0,0,0,-1,1469,1170,0,0
252,-146,0,0,0,0,0,0,0,0,0,-1,1476,1170,0,0
259,-146,0,0,0,0,0,0,0,0,0,-1,1483,1170,0,0
266,-146,0,0,0,0,0,0,0,0,0,-1,1490,1170,0,0
273,-146,0,0,0,0,0,0,0,0,0,-1,1497,1170,0,0
280,-146,0,0,0,0,0,0,0,0,0,-1,1504,1170,0,0
287,-146,0,0,0,0,0,0,0,0,0,-1,1511,1170,0,0
294,-146,0,0,0,0,0,0,0,0,0,-1,1518,1170,0,0
301,-146,0,0,0,0,0,0,0,0,0,-1,1525,1170,0,0
308,-146,0,0,0,0,0,0,0,0,0,-1,1532,1170,0,0
315,-146,0,0,0,0,0,0,0,0,0,-1,1539,1170,0,0
322,-146,0,0,0,0,0,0,0,0,0,-1,1546,1170,0,0
329,-146,0,0,0,0,0,0,0,0,0,-1,1553,1170,0,0
336,-146,0,0,0,0,0,0,0,0,0,-1,1560,1170,0,0
343,-146,0,0,0,0,0,0,0,0,0,-1,1567,1170,0,0
350,-146,0,0,0,0,0,0,0,0,0,-1,1574,1170,0,0
357,-146,0,0,0,0,0,0,0,0,0,-1,1581,1170,0,0
364,-146,0,0,0,0,0,0,0,0,0,-1,1588,1170,0,0
371,-146,0,0,0,0,0,0,0,0,0,-1,1595,1170,0,0
378,-146,0,0,0,0,0,0,0,0,0,-1,1602,1170,0,0
385,-146,0,0,0,0,0,0,0,0,0,-1,1609,1170,0,0
392,-146,0,0,0,0,0,0,0,0,0,-1,1616,1170,0,0
399,-146,0,0,0,0,0,0,0,0,0,-1,1623,1170,0,0
406,-146,0,0,0,0,0,0,0,0,0,-1,1630,1170,0,0
413,-146,0,0,0,0,0,0,0,0,0,-1,1637,1170,0,0
420,-146,0,0,0,0,0,0,0,0,0,-1,1644,1170,0,0
427,-146,0,0,0,0,0,0,0,0,0,-1,1651,1170,0,0
434,-146,0,0,0,0,0,0,0,0,0,-1,1658,1170,0,0
441,-146,0,0,0,0,0,0,0,0,0,-1,1665,1170,0,0
448,-146,0,0,0,0,0,0,0,0,0,-1,1672,1170,0,0
455,-146,0,0,0,0,0,0,0,0,0,-1,1679,1170,0,0
462,-146,0,0,0,0,0,0,0,0,0,-1,1686,1170,0,0
469,-146,0,0,0,0,0,0,0,0,0,-1,1693,1170,0,0
476,-146,0,0,0,0,0,0,0,0,0,-1,1700,1170,0,0
483,-146,0,0,0,0,0,0,0,0,0,-1,1707,1170,0,0
490,-146,0,0,0,0,0,0,0,0,0,-1,1714,1170,0,0
497,-146,0,0,0,0,0,0,0,0,0,-1,1721,1170,0,0
504,-146,0,0,0,0,0,0,0,0,0,-1,1728,1170,0,0
511,-146,0,0,0,0,0,0,0,0,0,-1,1735,1170,0,0
518,-146,0,0,0,0,0,0,0,0,0,-1,1742,1170,0,0
525,-146,0,0,0,0,0,0,0,0,0,-1,1749,1170,0,0
532,-146,0,0,0,0,0,0,0,0,0,-1,1756,1170,0,0
539,-146,0,0,0,0,0,0,0,0,0,-1,1763,1170,0,0
546,-146,0,0,0,0,0,0,0,0,0,-1,1770,1170,0,0
553,-146,0,0,0,0,0,0,0,0,0,-1,1777,1170,0,0
560,-146,0,0,0,0,0,0,0,0,0,-1,1784,1170,0,0
567,-146,0,0,0,0,0,0,0,0,0,-1,1791,1170,0,0
574,-146,0,0,0,0,0,0,0,0,0,-1,1798,1170,0,0
581,-146,0,0,0,0,0,0,0,0,0,-1,1805,1170,0,0
588,-146,0,0,0,0,0,0,0,0,0,-1,1812,1170,0,0
595,-146,0,0,0,0,0,0,0,0,0,-1,1819,1170,0,0
602,-146,0,0,0,0,0,0,0,0,0,-1,1826,1170,0,0
609,-146,0,0,0,0,0,0,0,0,0,-1,1833,1170,0,0
616,-146,0,0,0,0,0,0,0,0,0,-1,1840,1170,0,0
623,-146,0,0,0,0,0,0,0,0,0,-1,1847,1170,0,0
630,-146,0,0,0,0,0,0,0,0,0,-1,1854,1170,0,0
637,-146,26.9855,2.76196,0.00139984,-0.00227522,0.0016139,0.00200796,-0.00288334,0.360348,0.00283903,0.0390942,1861,1170,26.9855,-2.76193
644,-146,26.9034,2.96326,0.00107151,-0.00134414,0.00161927,0.0018838,-0.00215643,0.46496,0.0023344,0.0403654,1868,1170,26.9034,-2.96327
651,-146,26.9066,3.05164,0.000851001,-0.00064143,0.00139094,0.00168325,-0.00147368,0.539194,0.00182399,0.0376467,1875,1170,26.9066,-3.05163
658,-146,26.9075,3.26685,0.000542393,-0.000173434,0.00116264,0.00140096,-0.001032,0.636079,0.00141005,0.0381402,1882,1170,26.9074,-3.26681
665,-146,26.9072,3.38171,-0.000260829,-6.77026e-05,0.00132589,0.00116513,-0.00149366,0.821749,0.00153896,0.0384612,1889,1170,26.9072,-3.38171
672,-146,27.0239,3.33228,-0.00122414,-0.000217249,0.00164617,0.00100074,-0.00244213,0.933796,0.00204499,0.0378289,1896,1170,27.024,-3.33228
679,-146,27.0089,3.12598,-0.00220122,-0.000510965,0.00206983,0.000879621,-0.00359181,0.979223,0.00273531,0.0302433,1903,1170,27.009,-3.12599
686,-146,26.881,3.07983,-0.00299686,-0.000835484,0.00242349,0.000737355,-0.00456969,0.995127,0.00331966,0.0197725,1910,1170,26.8809,-3.07979
693,-146,26.9308,3.08777,-0.00344862,-0.000971062,0.00265648,0.000721276,-0.00514096,1.00357,0.0036913,0.0115689,1917,1170,26.9308,-3.08782
700,-146,26.5743,3.92078,0,0,0,0,0,0,0,-1,1924,1170,26.5743,-3.92083
707,-146,25.424,4.88782,0,0,0,0,0,0,0,-1,1931,1170,25.4239,-4.88778
714,-146,24.5829,5.64294,0,0,0,0,0,0,0,-1,1938,1170,24.5829,-5.643
721,-146,24.6409,5.45142,0,0,0,0,0,0,0,-1,1945,1170,24.6409,-5.45138
728,-146,24.6989,5.25977,0,0,0,0,0,0,0,-1,1952,1170,24.6989,-5.25976
735,-146,24.5118,5.16248,-0.0032553,-0.00101217,0.00245505,0.000565371,-0.00483285,0.999662,0.00342594,0.0169109,1959,1170,24.5118,-5.16242
742,-146,24.506,4.9574,-0.0024416,-0.000318123,0.00135255,0.000339637,-0.00309936,1.11816,0.00218826,0.0167004,1966,1170,24.506,-4.95737
749,-146,24.4852,4.79749,-0.00112374,0.00104457,-8.32748e-05,0.00104776,-0.00112693,-1.53247,0.00125584,0.0153659,1973,1170,24.4853,-4.79753
756,-146,24.4944,4.63818,0.00103992,0.00252439,-0.00184132,0.00376745,-0.000203133,-0.976986,0.00258201,0.011271,1980,1170,24.4944,-4.63823
763,-146,24.4933,4.46582,0.00329719,0.00480114,-0.00368515,0.00781026,0.000288075,-0.886044,0.00511352,0.0108476,1987,1170,24.4933,-4.46578
770,-146,24.4763,4.32837,0.00547229,0.00731817,-0.00555389,0.0120253,0.000765172,-0.867735,0.00777436,0.0118089,1994,1170,24.4763,-4.32841
777,-146,24.4613,4.21997,0.00770293,0.0104059,-0.00728228,0.016461,0.0016478,-0.877147,0.0104681,0.0200452,2001,1170,24.4613,-4.21992
784,-146,24.4139,4.1012,0.0100135,0.0143715,-0.00875826,0.0212177,0.00316722,-0.907319,0.0132165,0.0401248,2008,1170,24.4139,-4.10118
791,-146,24.3733,3.97852,0,0,0,0,0,0,0,-1,2015,1170,24.3732,-3.97853
798,-146,25.012,4.32556,0,0,0,0,0,0,0,-1,2022,1170,25.0119,-4.32552
805,-146,27.4946,2.59839,0,0,0,0,0,0,0,-1,2029,1170,27.4946,-2.59834
812,-146,0,0,0,0,0,0,0,0,0,-1,2036,1170,0,0
-700,-153,0,0,0,0,0,0,0,0,0,-1,524,1177,0,0
-693,-153,0,0,0,0,0,0,0,0,0,-1,531,1177,0,0
-686,-153,-16.749,-1.02722,0.0672289,0.0302402,0.078687,0.129566,-0.0320966,0.669974,0.0988289,0.0471125,538,1177,-16.749,1.02724
-679,-153,-16.8596,-0.377563,0.0664561,0.0258404,0.0671967,0.116347,-0.0240501,0.638654,0.0867002,0.0486895,545,1177,-16.8596,0.377583
-672,-153,-16.4711,0.281738,0.0607515,0.022032,0.0555656,0.100233,-0.0174499,0.617768,0.0733342,0.0425929,552,1177,-16.4711,-0.281733
-665,-153,-15.5724,0.216187,0.0526365,0.0186528,0.0447197,0.0834837,-0.0121944,0.60384,0.0601342,0.0459135,559,1177,-15.5725,-0.21623
-658,-153,-15.4247,0.703491,0.0436497,0.0155945,0.0350464,0.0673715,-0.00812735,0.595034,0.0478541,0.049833,566,1177,-15.4248,-0.703431
-651,-153,-15.7578,1.13843,0.034683,0.0127763,0.0266868,0.0525769,-0.00511757,0.59066,0.0368757,0.0456153,573,1177,-15.7578,-1.13848
-644,-153,-15.7999,1.51904,0.0264497,0.0101965,0.0197231,0.0396548,-0.00300861,0.589979,0.0274943,0.0275254,580,1177,-15.7999,-1.5191
-637,-153,-15.7796,1.76404,0.0195833,0.00769098,0.0146494,0.0294474,-0.00217305,0.592608,0.0203946,0.0110434,587,1177,-15.7796,-1.764
-630,-153,-15.7957,1.96399,0.0143101,0.0055482,0.00900185,0.0199405,-8.21417e-05,0.558933,0.0133211,0.00952107,594,1177,-15.7956,-1.96405
-623,-153,-15.8109,2.16174,0.00832857,0.00362375,0.00498908,0.011492,0.000460303,0.565099,0.00751262,0.0101073,601,1177,-15.8109,-2.16171
-616,-153,-15.8246,2.34802,0.00397184,0.00214621,0.00238452,0.00561229,0.000505761,0.6026,0.00358485,0.0125327,608,1177,-15.8246,-2.34797
-609,-153,-15.7786,2.56946,0.00193927,0.00112027,0.000806131,0.00243395,0.000625592,0.550392,0.0014595,0.0171633,615,1177,-15.7786,-2.56946
-602,-153,-15.7703,2.78845,0.00104048,0.000651994,5.48102e-05,0.00104806,0.000644409,0.137512,0.000610398,0.0347507,622,1177,-15.7703,-2.78844
-595,-153,-15.9656,2.97327,0.000831683,0.000191825,-0.000760618,0.00133692,-0.000313409,-0.586322,0.00101205,0.0298119,629,1177,-15.9656,-2.97324
-588,-153,-15.9562,3.20569,0.000493301,5.48392e-05,-0.00140626,0.00169731,-0.00114917,-0.708072,0.00165354,0.0180866,636,1177,-15.9562,-3.20568
-581,-153,-15.809,3.36841,0.00048091,0.000106286,-0.00177082,0.00207429,-0.0014871,-0.732706,0.00206547,0.0239454,643,1177,-15.8089,-3.36841
-574,-153,-15.9106,3.44202,0,0,0,0,0,0,0,-1,650,1177,-15.9106,-3.44199
-567,-153,-18.5993,1.3645,0,0,0,0,0,0,0,-1,657,1177,-18.5993,-1.36456
-560,-153,-18.4984,1.26392,0.00214124,0.00046052,-0.00188697,0.00336652,-0.000764755,-0.575908,0.00253796,0.0400064,664,1177,-18.4984,-1.26393
-553,-153,-18.407,1.14404,0.00276002,0.000666048,-0.00189452,0.00387761,-0.000451538,-0.532964,0.00274798,0.0385793,671,1177,-18.407,-1.14399
-546,-153,-18.3996,1.03064,0.00377399,0.000872813,-0.00170265,0.00456019,8.66125e-05,-0.432583,0.00301167,0.0416773,678,1177,-18.3996,-1.03059
-539,-153,-18.6038,1.21704,0.00519069,0.00103605,-0.00110721,0.00546734,0.000759402,-0.244849,0.00341998,0.0423986,685,1177,-18.6038,-1.21702
-532,-153,-18.5428,0.572754,0.00765226,0.00116487,0.000234437,0.00766072,0.00115641,0.0360746,0.00476865,0.0445735,692,1177,-18.5428,-0.572696
-525,-153,-18.4092,0.780396,0.0112296,0.0014508,0.00236762,0.0117727,0.000907723,0.225477,0.00756408,0.0447587,699,1177,-18.4092,-0.780372
-518,-153,0,0,0,0,0,0,0,0,0,-1,706,1177,0,0
-511,-153,0,0,0,0,0,0,0,0,0,-1,713,1177,0,0
-504,-153,0,0,0,0,0,0,0,0,0,-1,720,1177,0,0
-497,-153,0,0,0,0,0,0,0,0,0,-1,727,1177,0,0
-490,-153,0,0,0,0,0,0,0,0,0,-1,734,1177,0,0
-483,-153,0,0,0,0,0,0,0,0,0,-1,741,1177,0,0
-476,-153,0,0,0,0,0,0,0,0,0,-1,748,1177,0,0
-469,-153,0,0,0,0,0,0,0,0,0,-1,755,1177,0,0
-462,-153,0,0,0,0,0,0,0,0,0,-1,762,1177,0,0
-455,-153,0,0,0,0,0,0,0,0,0,-1,769,1177,0,0
-448,-153,0,0,0,0,0,0,0,0,0,-1,776,1177,0,0
-441,-153,0,0,0,0,0,0,0,0,0,-1,783,1177,0,0
-434,-153,0,0,0,0,0,0,0,0,0,-1,790,1177,0,0
-427,-153,0,0,0,0,0,0,0,0,0,-1,797,1177,0,0
-420,-153,0,0,0,0,0,0,0,0,0,-1,804,1177,0,0
-413,-153,0,0,0,0,0,0,0,0,0,-1,811,1177,0,0
-406,-153,0,0,0,0,0,0,0,0,0,-1,818,1177,0,0
-399,-153,0,0,0,0,0,0,0,0,0,-1,825,1177,0,0
-392,-153,0,0,0,0,0,0,0,0,0,-1,832,1177,0,0
-385,-153,0,0,0,0,0,0,0,0,0,-1,839,1177,0,0
-378,-153,0,0,0,0,0,0,0,0,0,-1,846,1177,0,0
-371,-153,0,0,0,0,0,0,0,0,0,-1,853,1177,0,0
-364,-153,0,0,0,0,0,0,0,0,0,-1,860,1177,0,0
-357,-153,0,0,0,0,0,0,0,0,0,-1,867,1177,0,0
-350,-153,0,0,0,0,0,0,0,0,0,-1,874,1177,0,0
-343,-153,0,0,0,0,0,0,0,0,0,-1,881,1177,0,0
-336,-153,0,0,0,0,0,0,0,0,0,-1,888,1177,0,0
-329,-153,0,0,0,0,0,0,0,0,0,-1,895,1177,0,0
-322,-153,0,0,0,0,0,0,0,0,0,-1,902,1177,0,0
-315,-153,0,0,0,0,0,0,0,0,0,-1,909,1177,0,0
-308,-153,0,0,0,0,0,0,0,0,0,-1,916,1177,0,0
-301,-153,0,0,0,0,0,0,0,0,0,-1,923,1177,0,0
-294,-153,0,0,0,0,0,0,0,0,0,-1,930,1177,0,0
-287,-153,0,0,0,0,0,0,0,0,0,-1,937,1177,0,0
-280,-153,0,0,0,0,0,0,0,0,0,-1,944,1177,0,0
-273,-153,0,0,0,0,0,0,0,0,0,-1,951,1177,0,0
-266,-153,0,0,0,0,0,0,0,0,0,-1,958,1177,0,0
-259,-153,0,0,0,0,0,0,0,0,0,-1,965,1177,0,0
-252,-153,0,0,0,0,0,0,0,0,0,-1,972,1177,0,0
-245,-153,0,0,0,0,0,0,0,0,0,-1,979,1177,0,0
-238,-153,0,0,0,0,0,0,0,0,0,-1,986,1177,0,0
-231,-153,0,0,0,0,0,0,0,0,0,-1,993,1177,0,0
-224,-153,0,0,0,0,0,0,0,0,0,-1,1000,1177,0,0
-217,-153,0,0,0,0,0,0,0,0,0,-1,1007,1177,0,0
-210,-153,0,0,0,0,0,0,0,0,0,-1,1014,1177,0,0
-203,-153,0,0,0,0,0,0,0,0,0,-1,1021,1177,0,0
-196,-153,0,0,0,0,0,0,0,0,0,-1,1028,1177,0,0
-189,-153,0,0,0,0,0,0,0,0,0,-1,1035,1177,0,0
-182,-153,0,0,0,0,0,0,0,0,0,-1,1042,1177,0,0
-175,-153,0,0,0,0,0,0,0,0,0,-1,1049,1177,0,0
-168,-153,0,0,0,0,0,0,0,0,0,-1,1056,1177,0,0
-161,-153,0,0,0,0,0,0,0,0,0,-1,1063,1177,0,0
-154,-153,0,0,0,0,0,0,0,0,0,-1,1070,1177,0,0
-147,-153,0,0,0,0,0,0,0,0,0,-1,1077,1177,0,0
-140,-153,0,0,0,0,0,0,0,0,0,-1,1084,1177,0,0
-133,-153,0,0,0,0,0,0,0,0,0,-1,1091,1177,0,0
-126,-153,0,0,0,0,0,0,0,0,0,-1,1098,1177,0,0
-119,-153,0,0,0,0,0,0,0,0,0,-1,1105,1177,0,0
-112,-153,0,0,0,0,0,0,0,0,0,-1,1112,1177,0,0
-105,-153,0,0,0,0,0,0,0,0,0,-1,1119,1177,0,0
-98,-153,0,0,0,0,0,0,0,0,0,-1,1126,1177,0,0
-91,-153,0,0,0,0,0,0,0,0,0,-1,1133,1177,0,0
-84,-153,0,0,0,0,0,0,0,0,0,-1,1140,1177,0,0
-77,-153,0,0,0,0,0,0,0,0,0,-1,1147,1177,0,0
-70,-153,0,0,0,0,0,0,0,0,0,-1,1154,1177,0,0
-63,-153,0,0,0,0,0,0,0,0,0,-1,1161,1177,0,0
-56,-153,0,0,0,0,0,0,0,0,0,-1,1168,1177,0,0
-49,-153,0,0,0,0,0,0,0,0,0,-1,1175,1177,0,0
-42,-153,0,0,0,0,0,0,0,0,0,-1,1182,1177,0,0
-35,-153,0,0,0,0,0,0,0,0,0,-1,1189,1177,0,0
-28,-153,0,0,0,0,0,0,0,0,0,-1,1196,1177,0,0
-21,-153,0,0,0,0,0,0,0,0,0,-1,1203,1177,0,0
-14,-153,0,0,0,0,0,0,0,0,0,-1,1210,1177,0,0
-7,-153,0,0,0,0,0,0,0,0,0,-1,1217,1177,0,0
0,-153,0,0,0,0,0,0,0,0,0,-1,1224,1177,0,0
7,-153,0,0,0,0,0,0,0,0,0,-1,1231,1177,0,0
14,-153,0,0,0,0,0,0,0,0,0,-1,1238,1177,0,0
21,-153,0,0,0,0,0,0,0,0,0,-1,1245,1177,0,0
28,-153,0,0,0,0,0,0,0,0,0,-1,1252,1177,0,0
35,-153,0,0,0,0,0,0,0,0,0,-1,1259,1177,0,0
42,-153,0,0,0,0,0,0,0,0,0,-1,1266,1177,0,0
49,-153,0,0,0,0,0,0,0,0,0,-1,1273,1177,0,0
56,-153,0,0,0,0,0,0,0,0,0,-1,1280,1177,0,0
63,-153,0,0,0,0,0,0,0,0,0,-1,1287,1177,0,0
70,-153,0,0,0,0,0,0,0,0,0,-1,1294,1177,0,0
77,-153,0,0,0,0,0,0,0,0,0,-1,1301,1177,0,0
84,-153,0,0,0,0,0,0,0,0,0,-1,1308,1177,0,0
91,-153,0,0,0,0,0,0,0,0,0,-1,1315,1177,0,0
98,-153,0,0,0,0,0,0,0,0,0,-1,1322,1177,0,0
105,-153,0,0,0,0,0,0,0,0,0,-1,1329,1177,0,0
112,-153,0,0,0,0,0,0,0,0,0,-1,1336,1177,0,0
119,-153,0,0,0,0,0,0,0,0,0,-1,1343,1177,0,0
126,-153,0,0,0,0,0,0,0,0,0,-1,1350,1177,0,0
133,-153,0,0,0,0,0,0,0,0,0,-1,1357,1177,0,0
140,-153,0,0,0,0,0,0,0,0,0,-1,1364,1177,0,0
147,-153,0,0,0,0,0,0,0,0,0,-1,1371,1177,0,0
154,-153,0,0,0,0,0,0,0,0,0,-1,1378,1177,0,0
161,-153,0,0,0,0,0,0,0,0,0,-1,1385,1177,0,0
168,-153,0,0,0,0,0,0,0,0,0,-1,1392,1177,0,0
175,-153,0,0,0,0,0,0,0,0,0,-1,1399,1177,0,0
182,-153,0,0,0,0,0,0,0,0,0,-1,1406,1177,0,0
189,-153,0,0,0,0,0,0,0,0,0,-1,1413,1177,0,0
196,-153,0,0,0,0,0,0,0,0,0,-1,1420,1177,0,0
203,-153,0,0,0,0,0,0,0,0,0,-1,1427,1177,0,0
210,-153,0,0,0,0,0,0,0,0,0,-1,1434,1177,0,0
217,-153,0,0,0,0,0,0,0,0,0,-1,1441,1177,0,0
224,-153,0,0,0,0,0,0,0,0,0,-1,1448,1177,0,0
231,-153,0,0,0,0,0,0,0,0,0,-1,1455,1177,0,0
238,-153,0,0,0,0,0,0,0,0,0,-1,1462,1177,0,0
245,-153,0,0,0,0,0,0,0,0,0,-1,1469,1177,0,0
252,-153,0,0,0,0,0,0,0,0,0,-1,1476,1177,0,0
259,-153,0,0,0,0,0,0,0,0,0,-1,1483,1177,0,0
266,-153,0,0,0,0,0,0,0,0,0,-1,1490,1177,0,0
273,-153,0,0,0,0,0,0,0,0,0,-1,1497,1177,0,0
280,-153,0,0,0,0,0,0,0,0,0,-1,1504,1177,0,0
287,-153,0,0,0,0,0,0,0,0,0,-1,1511,1177,0,0
294,-153,0,0,0,0,0,0,0,0,0,-1,1518,1177,0,0
301,-153,0,0,0,0,0,0,0,0,0,-1,1525,1177,0,0
308,-153,0,0,0,0,0,0,0,0,0,-1,1532,1177,0,0
315,-153,0,0,0,0,0,0,0,0,0,-1,1539,1177,0,0
322,-153,0,0,0,0,0,0,0,0,0,-1,1546,1177,0,0
329,-153,0,0,0,0,0,0,0,0,0,-1,1553,1177,0,0
336,-153,0,0,0,0,0,0,0,0,0,-1,1560,1177,0,0
343,-153,0,0,0,0,0,0,0,0,0,-1,1567,1177,0,0
350,-153,0,0,0,0,0,0,0,0,0,-1,1574,1177,0,0
357,-153,0,0,0,0,0,0,0,0,0,-1,1581,1177,0,0
364,-153,0,0,0,0,0,0,0,0,0,-1,1588,1177,0,0
371,-153,0,0,0,0,0,0,0,0,0,-1,1595,1177,0,0
378,-153,0,0,0,0,0,0,0,0,0,-1,1602,1177,0,0
385,-153,0,0,0,0,0,0,0,0,0,-1,1609,1177,0,0
392,-153,0,0,0,0,0,0,0,0,0,-1,1616,1177,0,0
399,-153,0,0,0,0,0,0,0,0,0,-1,1623,1177,0,0
406,-153,0,0,0,0,0,0,0,0,0,-1,1630,1177,0,0
413,-153,0,0,0,0,0,0,0,0,0,-1,1637,1177,0,0
420,-153,0,0,0,0,0,0,0,0,0,-1,1644,1177,0,0
427,-153,0,0,0,0,0,0,0,0,0,-1,1651,1177,0,0
434,-153,0,0,0,0,0,0,0,0,0,-1,1658,1177,0,0
441,-153,0,0,0,0,0,0,0,0,0,-1,1665,1177,0,0
448,-153,0,0,0,0,0,0,0,0,0,-1,1672,1177,0,0
455,-153,0,0,0,0,0,0,0,0,0,-1,1679,1177,0,0
462,-153,0,0,0,0,0,0,0,0,0,-1,1686,1177,0,0
469,-153,0,0,0,0,0,0,0,0,0,-1,1693,1177,0,0
476,-153,0,0,0,0,0,0,0,0,0,-1,1700,1177,0,0
483,-153,0,0,0,0,0,0,0,0,0,-1,1707,1177,0,0
490,-153,0,0,0,0,0,0,0,0,0,-1,1714,1177,0,0
497,-153,0,0,0,0,0,0,0,0,0,-1,1721,1177,0,0
504,-153,0,0,0,0,0,0,0,0,0,-1,1728,1177,0,0
511,-153,0,0,0,0,0,0,0,0,0,-1,1735,1177,0,0
518,-153,0,0,0,0,0,0,0,0,0,-1,1742,1177,0,0
525,-153,0,0,0,0,0,0,0,0,0,-1,1749,1177,0,0
532,-153,0,0,0,0,0,0,0,0,0,-1,1756,1177,0,0
539,-153,0,0,0,0,0,0,0,0,0,-1,1763,1177,0,0
546,-153,0,0,0,0,0,0,0,0,0,-1,1770,1177,0,0
553,-153,0,0,0,0,0,0,0,0,0,-1,1777,1177,0,0
560,-153,0,0,0,0,0,0,0,0,0,-1,1784,1177,0,0
567,-153,0,0,0,0,0,0,0,0,0,-1,1791,1177,0,0
574,-153,0,0,0,0,0,0,0,0,0,-1,1798,1177,0,0
581,-153,0,0,0,0,0,0,0,0,0,-1,1805,1177,0,0
588,-153,0,0,0,0,0,0,0,0,0,-1,1812,1177,0,0
595,-153,0,0,0,0,0,0,0,0,0,-1,1819,1177,0,0
602,-153,0,0,0,0,0,0,0,0,0,-1,1826,1177,0,0
609,-153,0,0,0,0,0,0,0,0,0,-1,1833,1177,0,0
616,-153,0,0,0,0,0,0,0,0,0,-1,1840,1177,0,0
623,-153,0,0,0,0,0,0,0,0,0,-1,1847,1177,0,0
630,-153,0,0,0,0,0,0,0,0,0,-1,1854,1177,0,0
637,-153,26.9312,2.80518,0.00112788,-0.00145561,0.00212182,0.00232022,-0.00264796,0.511968,0.00287046,0.0365891,1861,1177,26.9311,-2.80523
644,-153,26.9045,2.87988,0.000963205,-0.000801557,0.00196423,0.00223415,-0.0020725,0.574294,0.00248703,0.0371818,1868,1177,26.9046,-2.87984
651,-153,26.8762,3.08459,0.000831808,-0.00032555,0.00163603,0.00198848,-0.00148222,0.61541,0.00201091,0.031278,1875,1177,26.8762,-3.0846
658,-153,26.8981,3.16968,0.000518403,-0.000136107,0.00142628,0.00165449,-0.0012722,0.672627,0.00169452,0.0353821,1882,1177,26.8981,-3.16974
665,-153,26.9486,3.14941,-0.000195502,-0.000263979,0.00156616,0.00133679,-0.00179627,0.774469,0.00181535,0.0379464,1889,1177,26.9487,-3.14938
672,-153,26.9644,3.09937,-0.00106382,-0.000548508,0.00182854,0.00104044,-0.00265277,0.855391,0.00219897,0.0372171,1896,1177,26.9644,-3.09933
679,-153,26.9039,3.09521,-0.00198725,-0.000906459,0.00221179,0.00082999,-0.0037237,0.905214,0.00280043,0.0279599,1903,1177,26.9039,-3.09521
686,-153,26.9049,3.10156,-0.00274429,-0.00124059,0.00250324,0.000621267,-0.00460615,0.931287,0.00329742,0.0148804,1910,1177,26.9049,-3.10157
693,-153,26.9686,3.10327,-0.00316497,-0.00134187,0.00268441,0.000581537,-0.00508838,0.949075,0.00360178,0.020661,1917,1177,26.9687,-3.10332
700,-153,27.0553,3.10559,0,0,0,0,0,0,0,-1,1924,1177,27.0553,-3.1056
707,-153,24.304,5.82239,0,0,0,0,0,0,0,-1,1931,1177,24.304,-5.82242
714,-153,24.4733,5.50806,-0.00421577,-0.00158071,0.00290943,0.000295607,-0.00609209,0.998008,0.00416343,0.0366019,1938,1177,24.4733,-5.50807
721,-153,24.4757,5.38599,-0.00419624,-0.0015185,0.00289179,0.000329326,-0.00604406,1.0022,0.00414351,0.028683,1945,1177,24.4758,-5.38605
728,-153,24.5765,5.23145,-0.00360328,-0.00141669,0.0027736,0.000471313,-0.00549129,0.973137,0.00382765,0.0358681,1952,1177,24.5766,-5.23141
735,-153,24.3381,5.13281,-0.00261743,-0.00108364,0.00231507,0.000588255,-0.00428932,0.945341,0.00307445,0.0181617,1959,1177,24.3381,-5.13286
742,-153,24.3354,4.97925,-0.00166649,-0.000363818,0.00107373,0.000240686,-0.002271,1.05803,0.00160027,0.0144802,1966,1177,24.3354,-4.97929
749,-153,24.3352,4.81458,-0.000247821,0.00110003,-0.000476186,0.00125128,-0.000399079,-1.26323,0.000994281,0.015594,1973,1177,24.3352,-4.81454
756,-153,24.3425,4.63098,0.00197857,0.0025922,-0.00224874,0.00455497,1.58083e-05,-0.853199,0.00303139,0.0107085,1980,1177,24.3425,-4.63093
763,-153,24.3195,4.46204,0.00418511,0.00477767,-0.00423343,0.00872517,0.0002376,-0.820334,0.00573922,0.0101851,1987,1177,24.3195,-4.46207
770,-153,24.3063,4.31714,0.0062003,0.00729326,-0.0062953,0.0130658,0.000427803,-0.828693,0.00857146,0.00990044,1994,1177,24.3063,-4.31718
777,-153,24.3293,4.13501,0.00807227,0.0104408,-0.00834619,0.0176863,0.000826758,-0.855875,0.0115252,0.0205457,2001,1177,24.3294,-4.135
784,-153,24.5886,3.71069,0.00966842,0.0144998,-0.0101745,0.0225414,0.00162679,-0.901954,0.0145158,0.0421434,2008,1177,24.5886,-3.71074
791,-153,24.8036,3.28821,0,0,0,0,0,0,0,-1,2015,1177,24.8036,-3.28824
798,-153,24.8364,3.69934,0,0,0,0,0,0,0,-1,2022,1177,24.8365,-3.69928
805,-153,25.6428,4.52185,0,0,0,0,0,0,0,-1,2029,1177,25.6427,-4.52179
812,-153,0,0,0,0,0,0,0,0,0,-1,2036,1177,0,0
-700,-160,0,0,0,0,0,0,0,0,0,-1,524,1184,0,0
-693,-160,0,0,0,0,0,0,0,0,0,-1,531,1184,0,0
-686,-160,-17.6044,-1.24622,0,0,0,0,0,0,0,-1,538,1184,-17.6044,1.24618
-679,-160,-17.2914,-0.325317,0,0,0,0,0,0,0,-1,545,1184,-17.2914,0.325322
-672,-160,-16.5643,0.624878,0,0,0,0,0,0,0,-1,552,1184,-16.5642,-0.624911
-665,-160,-15.2859,0.307861,0,0,0,0,0,0,0,-1,559,1184,-15.2859,-0.307905
-658,-160,-15.2096,0.54187,0,0,0,0,0,0,0,-1,566,1184,-15.2096,-0.541823
-651,-160,-15.7346,1.10193,0,0,0,0,0,0,0,-1,573,1184,-15.7346,-1.10191
-644,-160,-15.6293,1.42224,0.0278307,0.00924545,0.0217937,0.0422302,-0.00515404,0.583874,0.0300193,0.037006,580,1184,-15.6293,-1.42225
-637,-160,-15.5643,1.74536,0.0206679,0.00708595,0.0160107,0.0312683,-0.00351449,0.584823,0.0221103,0.0135617,587,1184,-15.5644,-1.7453
-630,-160,-15.5895,1.93542,0.0151524,0.00516874,0.00997294,0.0213131,-0.000991909,0.553359,0.0145506,0.00858769,594,1184,-15.5895,-1.93545
-623,-160,-15.6237,2.12476,0.00895992,0.00346799,0.00557548,0.012429,-1.05007e-06,0.556581,0.00828632,0.0110745,601,1184,-15.6237,-2.12472
-616,-160,-15.6259,2.34497,0.00423714,0.00211629,0.00261993,0.00600312,0.000350317,0.5931,0.00389057,0.00959632,608,1184,-15.6259,-2.34493
-609,-160,-15.6053,2.60376,0.00173242,0.00116489,0.000818799,0.00231523,0.000582078,0.618595,0.00139068,0.0123809,615,1184,-15.6053,-2.60374
-602,-160,-15.5735,2.8739,0.000636786,0.000688874,-3.96072e-05,0.000710232,0.000615427,-1.07623,0.000445264,0.0227806,622,1184,-15.5735,-2.87396
-595,-160,-15.591,3.09412,0.000270638,0.000122965,-0.000966516,0.00116613,-0.000772531,-0.747275,0.00112695,0.0305094,629,1184,-15.591,-3.09408
-588,-160,-15.7149,3.37756,0,0,0,0,0,0,0,-1,636,1184,-15.7149,-3.37758
-581,-160,-15.5971,3.42151,0,0,0,0,0,0,0,-1,643,1184,-15.5971,-3.42152
-574,-160,-15.837,3.61584,0,0,0,0,0,0,0,-1,650,1184,-15.837,-3.6159
-567,-160,-18.6258,1.31226,0,0,0,0,0,0,0,-1,657,1184,-18.6258,-1.31231
-560,-160,-18.4985,1.20813,0.0014662,-0.000182781,-0.00217882,0.00297131,-0.0016879,-0.60452,0.0027238,0.0403759,664,1184,-18.4986,-1.20815
-553,-160,-18.3934,1.14832,0.00215272,-0.000130431,-0.00214493,0.00344095,-0.00141865,-0.540853,0.00288553,0.0391533,671,1184,-18.3934,-1.1483
-546,-160,-18.3369,1.12,0.00329767,-9.13605e-05,-0.00188576,0.00413839,-0.000932089,-0.419382,0.00311644,0.0401038,678,1184,-18.3369,-1.12004
-539,-160,-18.4492,0.980225,0.00490601,-9.33461e-05,-0.00121777,0.00518686,-0.0003742,-0.226666,0.00358915,0.0421441,685,1184,-18.4492,-0.98017
-532,-160,-18.6166,0.985596,0.00756203,-0.000103536,0.000173173,0.00756594,-0.000107446,0.0225757,0.00508015,0.0469619,692,1184,-18.6166,-0.985645
-525,-160,-18.4445,1.02063,0.0115576,1.65197e-05,0.00241826,0.0120438,-0.000469707,0.198419,0.00819027,0.047046,699,1184,-18.4445,-1.02059
-518,-160,-18.2507,1.20483,0.0150656,0.000501747,0.00447482,0.0163306,-0.000763285,0.275511,0.0111502,0.0414923,706,1184,-18.2507,-1.20482
-511,-160,0,0,0,0,0,0,0,0,0,-1,713,1184,0,0
-504,-160,0,0,0,0,0,0,0,0,0,-1,720,1184,0,0
-497,-160,0,0,0,0,0,0,0,0,0,-1,727,1184,0,0
-490,-160,0,0,0,0,0,0,0,0,0,-1,734,1184,0,0
-483,-160,0,0,0,0,0,0,0,0,0,-1,741,1184,0,0
-476,-160,0,0,0,0,0,0,0,0,0,-1,748,1184,0,0
-469,-160,0,0,0,0,0,0,0,0,0,-1,755,1184,0,0
-462,-160,0,0,0,0,0,0,0,0,0,-1,762,1184,0,0
-455,-160,0,0,0,0,0,0,0,0,0,-1,769,1184,0,0
-448,-160,0,0,0,0,0,0,0,0,0,-1,776,1184,0,0
-441,-160,0,0,0,0,0,0,0,0,0,-1,783,1184,0,0
-434,-160,0,0,0,0,0,0,0,0,0,-1,790,1184,0,0
-427,-160,0,0,0,0,0,0,0,0,0,-1,797,1184,0,0
-420,-160,0,0,0,0,0,0,0,0,0,-1,804,1184,0,0
-413,-160,0,0,0,0,0,0,0,0,0,-1,811,1184,0,0
-406,-160,0,0,0,0,0,0,0,0,0,-1,818,1184,0,0
-399,-160,0,0,0,0,0,0,0,0,0,-1,825,1184,0,0
-392,-160,0,0,0,0,0,0,0,0,0,-1,832,1184,0,0
-385,-160,0,0,0,0,0,0,0,0,0,-1,839,1184,0,0
-378,-160,0,0,0,0,0,0,0,0,0,-1,846,1184,0,0
-371,-160,0,0,0,0,0,0,0,0,0,-1,853,1184,0,0
-364,-160,0,0,0,0,0,0,0,0,0,-1,860,1184,0,0
-357,-160,0,0,0,0,0,0,0,0,0,-1,867,1184,0,0
-350,-160,0,0,0,0,0,0,0,0,0,-1,874,1184,0,0
-343,-160,0,0,0,0,0,0,0,0,0,-1,881,1184,0,0
-336,-160,0,0,0,0,0,0,0,0,0,-1,888,1184,0,0
-329,-160,0,0,0,0,0,0,0,0,0,-1,895,1184,0,0
-322,-160,0,0,0,0,0,0,0,0,0,-1,902,1184,0,0
-315,-160,0,0,0,0,0,0,0,0,0,-1,909,1184,0,0
-308,-160,0,0,0,0,0,0,0,0,0,-1,916,1184,0,0
-301,-160,0,0,0,0,0,0,0,0,0,-1,923,1184,0,0
-294,-160,0,0,0,0,0,0,0,0,0,-1,930,1184,0,0
-287,-160,0,0,0,0,0,0,0,0,0,-1,937,1184,0,0
-280,-160,0,0,0,0,0,0,0,0,0,-1,944,1184,0,0
-273,-160,0,0,0,0,0,0,0,0,0,-1,951,1184,0,0
-266,-160,0,0,0,0,0,0,0,0,0,-1,958,1184,0,0
-259,-160,0,0,0,0,0,0,0,0,0,-1,965,1184,0,0
-252,-160,0,0,0,0,0,0,0,0,0,-1,972,1184,0,0
-245,-160,0,0,0,0,0,0,0,0,0,-1,979,1184,0,0
-238,-160,0,0,0,0,0,0,0,0,0,-1,986,1184,0,0
-231,-160,0,0,0,0,0,0,0,0,0,-1,993,1184,0,0
-224,-160,0,0,0,0,0,0,0,0,0,-1,1000,1184,0,0
-217,-160,0,0,0,0,0,0,0,0,0,-1,1007,1184,0,0
-210,-160,0,0,0,0,0,0,0,0,0,-1,1014,1184,0,0
-203,-160,0,0,0,0,0,0,0,0,0,-1,1021,1184,0,0
-196,-160,0,0,0,0,0,0,0,0,0,-1,1028,1184,0,0
-189,-160,0,0,0,0,0,0,0,0,0,-1,1035,1184,0,0
-182,-160,0,0,0,0,0,0,0,0,0,-1,1042,1184,0,0
-175,-160,0,0,0,0,0,0,0,0,0,-1,1049,1184,0,0
-168,-160,0,0,0,0,0,0,0,0,0,-1,1056,1184,0,0
-161,-160,0,0,0,0,0,0,0,0,0,-1,1063,1184,0,0
-154,-160,0,0,0,0,0,0,0,0,0,-1,1070,1184,0,0
-147,-160,0,0,0,0,0,0,0,0,0,-1,1077,1184,0,0
-140,-160,0,0,0,0,0,0,0,0,0,-1,1084,1184,0,0
-133,-160,0,0,0,0,0,0,0,0,0,-1,1091,1184,0,0
-126,-160,0,0,0,0,0,0,0,0,0,-1,1098,1184,0,0
-119,-160,0,0,0,0,0,0,0,0,0,-1,1105,1184,0,0
-112,-160,0,0,0,0,0,0,0,0,0,-1,1112,1184,0,0
-105,-160,0,0,0,0,0,0,0,0,0,-1,1119,1184,0,0
-98,-160,0,0,0,0,0,0,0,0,0,-1,1126,1184,0,0
-91,-160,0,0,0,0,0,0,0,0,0,-1,1133,1184,0,0
-84,-160,0,0,0,0,0,0,0,0,0,-1,1140,1184,0,0
-77,-160,0,0,0,0,0,0,0,0,0,-1,1147,1184,0,0
-70,-160,0,0,0,0,0,0,0,0,0,-1,1154,1184,0,0
-63,-160,0,0,0,0,0,0,0,0,0,-1,1161,1184,0,0
-56,-160,0,0,0,0,0,0,0,0,0,-1,1168,1184,0,0
-49,-160,0,0,0,0,0,0,0,0,0,-1,1175,1184,0,0
-42,-160,0,0,0,0,0,0,0,0,0,-1,1182,1184,0,0
-35,-160,0,0,0,0,0,0,0,0,0,-1,1189,1184,0,0
-28,-160,0,0,0,0,0,0,0,0,0,-1,1196,1184,0,0
-21,-160,0,0,0,0,0,0,0,0,0,-1,1203,1184,0,0
-14,-160,0,0,0,0,0,0,0,0,0,-1,1210,1184,0,0
-7,-160,0,0,0,0,0,0,0,0,0,-1,1217,1184,0,0
0,-160,0,0,0,0,0,0,0,0,0,-1,1224,1184,0,0
7,-160,0,0,0,0,0,0,0,0,0,-1,1231,1184,0,0
14,-160,0,0,0,0,0,0,0,0,0,-1,1238,1184,0,0
21,-160,0,0,0,0,0,0,0,0,0,-1,1245,1184,0,0
28,-160,0,0,0,0,0,0,0,0,0,-1,1252,1184,0,0
35,-160,0,0,0,0,0,0,0,0,0,-1,1259,1184,0,0
42,-160,0,0,0,0,0,0,0,0,0,-1,1266,1184,0,0
49,-160,0,0,0,0,0,0,0,0,0,-1,1273,1184,0,0
56,-160,0,0,0,0,0,0,0,0,0,-1,1280,1184,0,0
63,-160,0,0,0,0,0,0,0,0,0,-1,1287,1184,0,0
70,-160,0,0,0,0,0,0,0,0,0,-1,1294,1184,0,0
77,-160,0,0,0,0,0,0,0,0,0,-1,1301,1184,0,0
84,-160,0,0,0,0,0,0,0,0,0,-1,1308,1184,0,0
91,-160,0,0,0,0,0,0,0,0,0,-1,1315,1184,0,0
98,-160,0,0,0,0,0,0,0,0,0,-1,1322,1184,0,0
105,-160,0,0,0,0,0,0,0,0,0,-1,1329,1184,0,0
112,-160,0,0,0,0,0,0,0,0,0,-1,1336,1184,0,0
119,-160,0,0,0,0,0,0,0,0,0,-1,1343,1184,0,0
126,-160,0,0,0,0,0,0,0,0,0,-1,1350,1184,0,0
133,-160,0,0,0,0,0,0,0,0,0,-1,1357,1184,0,0
140,-160,0,0,0,0,0,0,0,0,0,-1,1364,1184,0,0
147,-160,0,0,0,0,0,0,0,0,0,-1,1371,1184,0,0
154,-160,0,0,0,0,0,0,0,0,0,-1,1378,1184,0,0
161,-160,0,0,0,0,0,0,0,0,0,-1,1385,1184,0,0
168,-160,0,0,0,0,0,0,0,0,0,-1,1392,1184,0,0
175,-160,0,0,0,0,0,0,0,0,0,-1,1399,1184,0,0
182,-160,0,0,0,0,0,0,0,0,0,-1,1406,1184,0,0
189,-160,0,0,0,0,0,0,0,0,0,-1,1413,1184,0,0
196,-160,0,0,0,0,0,0,0,0,0,-1,1420,1184,0,0
203,-160,0,0,0,0,0,0,0,0,0,-1,1427,1184,0,0
210,-160,0,0,0,0,0,0,0,0,0,-1,1434,1184,0,0
217,-160,0,0,0,0,0,0,0,0,0,-1,1441,1184,0,0
224,-160,0,0,0,0,0,0,0,0,0,-1,1448,1184,0,0
231,-160,0,0,0,0,0,0,0,0,0,-1,1455,1184,0,0
238,-160,0,0,0,0,0,0,0,0,0,-1,1462,1184,0,0
245,-160,0,0,0,0,0,0,0,0,0,-1,1469,1184,0,0
252,-160,0,0,0,0,0,0,0,0,0,-1,1476,1184,0,0
259,-160,0,0,0,0,0,0,0,0,0,-1,1483,1184,0,0
266,-160,0,0,0,0,0,0,0,0,0,-1,1490,1184,0,0
273,-160,0,0,0,0,0,0,0,0,0,-1,1497,1184,0,0
280,-160,0,0,0,0,0,0,0,0,0,-1,1504,1184,0,0
287,-160,0,0,0,0,0,0,0,0,0,-1,1511,1184,0,0
294,-160,0,0,0,0,0,0,0,0,0,-1,1518,1184,0,0
301,-160,0,0,0,0,0,0,0,0,0,-1,1525,1184,0,0
308,-160,0,0,0,0,0,0,0,0,0,-1,1532,1184,0,0
315,-160,0,0,0,0,0,0,0,0,0,-1,1539,1184,0,0
322,-160,0,0,0,0,0,0,0,0,0,-1,1546,1184,0,0
329,-160,0,0,0,0,0,0,0,0,0,-1,1553,1184,0,0
336,-160,0,0,0,0,0,0,0,0,0,-1,1560,1184,0,0
343,-160,0,0,0,0,0,0,0,0,0,-1,1567,1184,0,0
350,-160,0,0,0,0,0,0,0,0,0,-1,1574,1184,0,0
357,-160,0,0,0,0,0,0,0,0,0,-1,1581,1184,0,0
364,-160,0,0,0,0,0,0,0,0,0,-1,1588,1184,0,0
371,-160,0,0,0,0,0,0,0,0,0,-1,1595,1184,0,0
378,-160,0,0,0,0,0,0,0,0,0,-1,1602,1184,0,0
385,-160,0,0,0,0,0,0,0,0,0,-1,1609,1184,0,0
392,-160,0,0,0,0,0,0,0,0,0,-1,1616,1184,0,0
399,-160,0,0,0,0,0,0,0,0,0,-1,1623,1184,0,0
406,-160,0,0,0,0,0,0,0,0,0,-1,1630,1184,0,0
413,-160,0,0,0,0,0,0,0,0,0,-1,1637,1184,0,0
420,-160,0,0,0,0,0,0,0,0,0,-1,1644,1184,0,0
427,-160,0,0,0,0,0,0,0,0,0,-1,1651,1184,0,0
434,-160,0,0,0,0,0,0,0,0,0,-1,1658,1184,0,0
441,-160,0,0,0,0,0,0,0,0,0,-1,1665,1184,0,0
448,-160,0,0,0,0,0,0,0,0,0,-1,1672,1184,0,0
455,-160,0,0,0,0,0,0,0,0,0,-1,1679,1184,0,0
462,-160,0,0,0,0,0,0,0,0,0,-1,1686,1184,0,0
469,-160,0,0,0,0,0,0,0,0,0,-1,1693,1184,0,0
476,-160,0,0,0,0,0,0,0,0,0,-1,1700,1184,0,0
483,-160,0,0,0,0,0,0,0,0,0,-1,1707,1184,0,0
490,-160,0,0,0,0,0,0,0,0,0,-1,1714,1184,0,0
497,-160,0,0,0,0,0,0,0,0,0,-1,1721,1184,0,0
504,-160,0,0,0,0,0,0,0,0,0,-1,1728,1184,0,0
511,-160,0,0,0,0,0,0,0,0,0,-1,1735,1184,0,0
518,-160,0,0,0,0,0,0,0,0,0,-1,1742,1184,0,0
525,-160,0,0,0,0,0,0,0,0,0,-1,1749,1184,0,0
532,-160,0,0,0,0,0,0,0,0,0,-1,1756,1184,0,0
539,-160,0,0,0,0,0,0,0,0,0,-1,1763,1184,0,0
546,-160,0,0,0,0,0,0,0,0,0,-1,1770,1184,0,0
553,-160,0,0,0,0,0,0,0,0,0,-1,1777,1184,0,0
560,-160,0,0,0,0,0,0,0,0,0,-1,1784,1184,0,0
567,-160,0,0,0,0,0,0,0,0,0,-1,1791,1184,0,0
574,-160,0,0,0,0,0,0,0,0,0,-1,1798,1184,0,0
581,-160,0,0,0,0,0,0,0,0,0,-1,1805,1184,0,0
588,-160,0,0,0,0,0,0,0,0,0,-1,1812,1184,0,0
595,-160,0,0,0,0,0,0,0,0,0,-1,1819,1184,0,0
602,-160,0,0,0,0,0,0,0,0,0,-1,1826,1184,0,0
609,-160,0,0,0,0,0,0,0,0,0,-1,1833,1184,0,0
616,-160,0,0,0,0,0,0,0,0,0,-1,1840,1184,0,0
623,-160,0,0,0,0,0,0,0,0,0,-1,1847,1184,0,0
630,-160,0,0,0,0,0,0,0,0,0,-1,1854,1184,0,0
637,-160,26.8818,2.84094,0.000840874,-0.00104954,0.00199757,0.00210557,-0.00231424,0.564417,0.00255273,0.041372,1861,1184,26.8818,-2.8409
644,-160,26.746,2.83545,0.000903117,-0.000541916,0.00181664,0.00213565,-0.00177445,0.596128,0.00226071,0.0421111,1868,1184,26.7459,-2.83544
651,-160,26.6952,3.04456,0.000910775,-0.000180536,0.00150433,0.00196535,-0.00123511,0.611416,0.00186375,0.0395916,1875,1184,26.6951,-3.04451
658,-160,26.7306,3.05127,0.000635656,-0.000117984,0.00139301,0.00170191,-0.00118424,0.653306,0.00167523,0.0407369,1882,1184,26.7306,-3.05128
665,-160,26.9342,2.98376,6.79994e-05,-0.000335047,0.00151381,0.00139364,-0.00166069,0.719226,0.00176567,0.0386637,1889,1184,26.9343,-2.98381
672,-160,26.9504,3.04932,-0.000666917,-0.000658959,0.00170477,0.00104183,-0.00236771,0.786565,0.0020175,0.0339163,1896,1184,26.9504,-3.04932
679,-160,26.9017,3.09851,-0.00150953,-0.00102797,0.00202773,0.000773228,-0.00331073,0.844494,0.002505,0.024954,1903,1184,26.9017,-3.09857
686,-160,26.9204,3.078,-0.00219976,-0.00135405,0.00223309,0.000495872,-0.00404968,0.878969,0.00287935,0.0140945,1910,1184,26.9204,-3.07797
693,-160,26.9568,3.12891,-0.00257117,-0.00143006,0.00234227,0.000410149,-0.00441138,0.904867,0.00308673,0.0352978,1917,1184,26.9568,-3.12889
700,-160,25.4562,4.64795,0,0,0,0,0,0,0,-1,1924,1184,25.4561,-4.648
707,-160,24.1315,6.03369,0,0,0,0,0,0,0,-1,1931,1184,24.1315,-6.03371
714,-160,24.3717,5.71069,-0.00359424,-0.00163799,0.00243161,4.85149e-06,-0.00523708,0.976622,0.00349301,0.0493279,1938,1184,24.3717,-5.7107
721,-160,24.3647,5.30371,-0.00353856,-0.00159686,0.00242241,4.20043e-05,-0.00517743,0.975987,0.00346571,0.0225183,1945,1184,24.3647,-5.30374
728,-160,24.3605,5.2356,-0.00289929,-0.0015066,0.00231169,0.000211349,-0.00461724,0.931689,0.00315098,0.0198538,1952,1184,24.3605,-5.23555
735,-160,24.1831,5.14075,-0.0017483,-0.00107846,0.00188171,0.0004979,-0.00332466,0.873469,0.00239968,0.0138583,1959,1184,24.1831,-5.1408
742,-160,24.182,4.95337,-0.000668401,-0.000340676,0.000623457,0.000140093,-0.00114917,0.913906,0.000816826,0.0149514,1966,1184,24.1821,-4.95337
749,-160,24.186,4.78601,0.000812852,0.00120802,-0.000853477,0.00188648,0.000134385,-0.899146,0.00121534,0.0167343,1973,1184,24.186,-4.78601
756,-160,24.1805,4.61755,0.00307257,0.00271883,-0.00238973,0.00529197,0.000499432,-0.748459,0.00337385,0.0109377,1980,1184,24.1805,-4.6176
763,-160,24.1525,4.45959,0.00527213,0.00481125,-0.00429093,0.00933881,0.000744577,-0.758572,0.00599312,0.0107376,1987,1184,24.1525,-4.45958
770,-160,24.1173,4.29346,0.00722163,0.00733702,-0.00631189,0.0135915,0.000967169,-0.789968,0.00875642,0.0170072,1994,1184,24.1173,-4.29346
777,-160,24.1989,4.15735,0.00886771,0.0105289,-0.00844145,0.0181805,0.00121611,-0.834439,0.011736,0.0310814,2001,1184,24.1988,-4.1574
784,-160,24.6986,3.71985,0.00990025,0.0146178,-0.0103717,0.0228956,0.00162243,-0.897207,0.0147527,0.0427549,2008,1184,24.6986,-3.71987
791,-160,24.9702,3.28528,0.0100743,0.0198102,-0.0117498,0.0276605,0.0022239,-0.981784,0.0177456,0.0470875,2015,1184,24.9702,-3.28522
798,-160,24.7535,3.14697,0.00924232,0.0262566,-0.0119263,0.0323989,0.00309997,-1.0952,0.0206437,0.04471,2022,1184,24.7536,-3.14693
805,-160,24.8101,3.15918,0,0,0,0,0,0,0,-1,2029,1184,24.81,-3.15917
812,-160,0,0,0,0,0,0,0,0,0,-1,2036,1184,0,0
-700,-167,0,0,0,0,0,0,0,0,0,-1,524,1191,0,0
-693,-167,0,0,0,0,0,0,0,0,0,-1,531,1191,0,0
-686,-167,-18.513,-1.38049,0.0643978,0.0261523,0.104234,0.151248,-0.0606983,0.694677,0.126035,0.0468616,538,1191,-18.513,1.38046
-679,-167,-18.3386,-0.46936,0.067251,0.0211497,0.0856258,0.132875,-0.0444739,0.653914,0.106548,0.0446817,545,1191,-18.3387,0.46936
-672,-167,-18.1558,0.403687,0.0634824,0.0173903,0.0689436,0.11313,-0.032257,0.6241,0.0881617,0.0460005,552,1191,-18.1558,-0.403731
-665,-167,-17.8254,1.05835,0.0562657,0.0144461,0.0544731,0.0937043,-0.0229925,0.602142,0.0713789,0.0492966,559,1191,-17.8255,-1.0583
-658,-167,-15.6118,0.725098,0,0,0,0,0,0,0,-1,566,1191,-15.6117,-0.72513
-651,-167,-15.5558,0.978271,0.0385265,0.00994005,0.0319602,0.059244,-0.0107775,0.575129,0.0435355,0.04926,573,1191,-15.5559,-0.978227
-644,-167,-15.3342,1.45142,0.0298841,0.00807857,0.0235952,0.0449737,-0.00701103,0.568973,0.032572,0.039109,580,1191,-15.3342,-1.45136
-637,-167,-15.3373,1.73218,0.022345,0.00629059,0.0172604,0.0333535,-0.00471791,0.567743,0.0239636,0.0163652,587,1191,-15.3373,-1.73218
-630,-167,-15.36,1.92053,0.0164998,0.00460516,0.0109612,0.0230232,-0.00191827,0.536836,0.0160265,0.00914192,594,1191,-15.36,-1.92056
-623,-167,-15.3723,2.11426,0.0100554,0.003169,0.0062886,0.0137818,-0.000557318,0.534925,0.00937913,0.0107439,601,1191,-15.3722,-2.1143
-616,-167,-15.3946,2.33813,0.00485984,0.00205333,0.0030191,0.00678586,0.000127303,0.567855,0.00448208,0.0136795,608,1191,-15.3946,-2.33818
-609,-167,-15.4025,2.57935,0.00167923,0.0012108,0.000963725,0.00243679,0.000453238,0.666192,0.00149651,0.0133298,615,1191,-15.4026,-2.57936
-602,-167,-15.4098,2.77905,0.00021413,0.000749458,-5.01576e-05,0.000754117,0.000209471,-1.47818,0.000449496,0.0137454,622,1191,-15.4098,-2.77907
-595,-167,-15.3977,3.02161,-0.000391522,0.000159721,-0.00110664,0.00102455,-0.00125635,-0.907445,0.00131914,0.022175,629,1191,-15.3977,-3.02156
-588,-167,-15.4246,3.22937,-0.00107029,-0.000105713,-0.00192702,0.00139846,-0.00257446,-0.908018,0.00232702,0.0227352,636,1191,-15.4246,-3.22932
-581,-167,-15.4023,3.36487,-0.00119003,-0.00028499,-0.00241094,0.00171553,-0.00319055,-0.878165,0.00287488,0.0242965,643,1191,-15.4024,-3.3649
-574,-167,-15.5855,3.77905,0,0,0,0,0,0,0,-1,650,1191,-15.5855,-3.77908
-567,-167,-16.9358,1.15186,0,0,0,0,0,0,0,-1,657,1191,-16.9358,-1.15183
-560,-167,-18.473,1.07007,0.00055162,-0.000577002,-0.00245949,0.0025107,-0.00253609,-0.672629,0.00291378,0.0431482,664,1191,-18.473,-1.07004
-553,-167,-18.4458,1.25342,0.00126818,-0.000655047,-0.0024126,0.00290374,-0.00229061,-0.595757,0.00300592,0.0399108,671,1191,-18.4458,-1.25346
-546,-167,-18.388,1.31189,0.00245446,-0.000754867,-0.00213669,0.00352195,-0.00182235,-0.463326,0.00313711,0.0368208,678,1191,-18.388,-1.31195
-539,-167,-18.3976,1.2854,0.00414187,-0.000884919,-0.00148539,0.00454798,-0.00129103,-0.266884,0.00354166,0.03975,685,1191,-18.3976,-1.28538
-532,-167,-18.5854,1.12598,0.00681548,-0.00100598,-0.000210696,0.00682115,-0.00101165,-0.0269122,0.00491945,0.0435235,692,1191,-18.5854,-1.12601
-525,-167,-18.4962,1.10596,0.0109225,-0.00098987,0.00188251,0.0112129,-0.00128028,0.153062,0.00793653,0.0449189,699,1191,-18.4961,-1.10596
-518,-167,-18.22,1.10828,0.0148871,-0.000598505,0.00384594,0.0157897,-0.00150106,0.230506,0.0110608,0.0438327,706,1191,-18.22,-1.10823
-511,-167,0,0,0,0,0,0,0,0,0,-1,713,1191,0,0
-504,-167,0,0,0,0,0,0,0,0,0,-1,720,1191,0,0
-497,-167,0,0,0,0,0,0,0,0,0,-1,727,1191,0,0
-490,-167,0,0,0,0,0,0,0,0,0,-1,734,1191,0,0
-483,-167,0,0,0,0,0,0,0,0,0,-1,741,1191,0,0
-476,-167,0,0,0,0,0,0,0,0,0,-1,748,1191,0,0
-469,-167,0,0,0,0,0,0,0,0,0,-1,755,1191,0,0
-462,-167,0,0,0,0,0,0,0,0,0,-1,762,1191,0,0
-455,-167,0,0,0,0,0,0,0,0,0,-1,769,1191,0,0
-448,-167,0,0,0,0,0,0,0,0,0,-1,776,1191,0,0
-441,-167,0,0,0,0,0,0,0,0,0,-1,783,1191,0,0
-434,-167,0,0,0,0,0,0,0,0,0,-1,790,1191,0,0
-427,-167,0,0,0,0,0,0,0,0,0,-1,797,1191,0,0
-420,-167,0,0,0,0,0,0,0,0,0,-1,804,1191,0,0
-413,-167,0,0,0,0,0,0,0,0,0,-1,811,1191,0,0
-406,-167,0,0,0,0,0,0,0,0,0,-1,818,1191,0,0
-399,-167,0,0,0,0,0,0,0,0,0,-1,825,1191,0,0
-392,-167,0,0,0,0,0,0,0,0,0,-1,832,1191,0,0
-385,-167,0,0,0,0,0,0,0,0,0,-1,839,1191,0,0
-378,-167,0,0,0,0,0,0,0,0,0,-1,846,1191,0,0
-371,-167,0,0,0,0,0,0,0,0,0,-1,853,1191,0,0
-364,-167,0,0,0,0,0,0,0,0,0,-1,860,1191,0,0
-357,-167,0,0,0,0,0,0,0,0,0,-1,867,1191,0,0
-350,-167,0,0,0,0,0,0,0,0,0,-1,874,1191,0,0
-343,-167,0,0,0,0,0,0,0,0,0,-1,881,1191,0,0
-336,-167,0,0,0,0,0,0,0,0,0,-1,888,1191,0,0
-329,-167,0,0,0,0,0,0,0,0,0,-1,895,1191,0,0
-322,-167,0,0,0,0,0,0,0,0,0,-1,902,1191,0,0
-315,-167,0,0,0,0,0,0,0,0,0,-1,909,1191,0,0
-308,-167,0,0,0,0,0,0,0,0,0,-1,916,1191,0,0
-301,-167,0,0,0,0,0,0,0,0,0,-1,923,1191,0,0
-294,-167,0,0,0,0,0,0,0,0,0,-1,930,1191,0,0
-287,-167,0,0,0,0,0,0,0,0,0,-1,937,1191,0,0
-280,-167,0,0,0,0,0,0,0,0,0,-1,944,1191,0,0
-273,-167,0,0,0,0,0,0,0,0,0,-1,951,1191,0,0
-266,-167,0,0,0,0,0,0,0,0,0,-1,958,1191,0,0
-259,-167,0,0,0,0,0,0,0,0,0,-1,965,1191,0,0
-252,-167,0,0,0,0,0,0,0,0,0,-1,972,1191,0,0
-245,-167,0,0,0,0,0,0,0,0,0,-1,979,1191,0,0
-238,-167,0,0,0,0,0,0,0,0,0,-1,986,1191,0,0
-231,-167,0,0,0,0,0,0,0,0,0,-1,993,1191,0,0
-224,-167,0,0,0,0,0,0,0,0,0,-1,1000,1191,0,0
-217,-167,0,0,0,0,0,0,0,0,0,-1,1007,1191,0,0
-210,-167,0,0,0,0,0,0,0,0,0,-1,1014,1191,0,0
-203,-167,0,0,0,0,0,0,0,0,0,-1,1021,1191,0,0
-196,-167,0,0,0,0,0,0,0,0,0,-1,1028,1191,0,0
-189,-167,0,0,0,0,0,0,0,0,0,-1,1035,1191,0,0
-182,-167,0,0,0,0,0,0,0,0,0,-1,1042,1191,0,0
-175,-167,0,0,0,0,0,0,0,0,0,-1,1049,1191,0,0
-168,-167,0,0,0,0,0,0,0,0,0,-1,1056,1191,0,0
-161,-167,0,0,0,0,0,0,0,0,0,-1,1063,1191,0,0
-154,-167,0,0,0,0,0,0,0,0,0,-1,1070,1191,0,0
-147,-167,0,0,0,0,0,0,0,0,0,-1,1077,1191,0,0
-140,-167,0,0,0,0,0,0,0,0,0,-1,1084,1191,0,0
-133,-167,0,0,0,0,0,0,0,0,0,-1,1091,1191,0,0
-126,-167,0,0,0,0,0,0,0,0,0,-1,1098,1191,0,0
-119,-167,0,0,0,0,0,0,0,0,0,-1,1105,1191,0,0
-112,-167,0,0,0,0,0,0,0,0,0,-1,1112,1191,0,0
-105,-167,0,0,0,0,0,0,0,0,0,-1,1119,1191,0,0
-98,-167,0,0,0,0,0,0,0,0,0,-1,1126,1191,0,0
-91,-167,0,0,0,0,0,0,0,0,0,-1,1133,1191,0,0
-84,-167,0,0,0,0,0,0,0,0,0,-1,1140,1191,0,0
-77,-167,0,0,0,0,0,0,0,0,0,-1,1147,1191,0,0
-70,-167,0,0,0,0,0,0,0,0,0,-1,1154,1191,0,0
-63,-167,0,0,0,0,0,0,0,0,0,-1,1161,1191,0,0
-56,-167,0,0,0,0,0,0,0,0,0,-1,1168,1191,0,0
-49,-167,0,0,0,0,0,0,0,0,0,-1,1175,1191,0,0
-42,-167,0,0,0,0,0,0,0,0,0,-1,1182,1191,0,0
-35,-167,0,0,0,0,0,0,0,0,0,-1,1189,1191,0,0
-28,-167,0,0,0,0,0,0,0,0,0,-1,1196,1191,0,0
-21,-167,0,0,0,0,0,0,0,0,0,-1,1203,1191,0,0
-14,-167,0,0,0,0,0,0,0,0,0,-1,1210,1191,0,0
-7,-167,0,0,0,0,0,0,0,0,0,-1,1217,1191,0,0
0,-167,0,0,0,0,0,0,0,0,0,-1,1224,1191,0,0
7,-167,0,0,0,0,0,0,0,0,0,-1,1231,1191,0,0
14,-167,0,0,0,0,0,0,0,0,0,-1,1238,1191,0,0
21,-167,0,0,0,0,0,0,0,0,0,-1,1245,1191,0,0
28,-167,0,0,0,0,0,0,0,0,0,-1,1252,1191,0,0
35,-167,0,0,0,0,0,0,0,0,0,-1,1259,1191,0,0
42,-167,0,0,0,0,0,0,0,0,0,-1,1266,1191,0,0
49,-167,0,0,0,0,0,0,0,0,0,-1,1273,1191,0,0
56,-167,0,0,0,0,0,0,0,0,0,-1,1280,1191,0,0
63,-167,0,0,0,0,0,0,0,0,0,-1,1287,1191,0,0
70,-167,0,0,0,0,0,0,0,0,0,-1,1294,1191,0,0
77,-167,0,0,0,0,0,0,0,0,0,-1,1301,1191,0,0
84,-167,0,0,0,0,0,0,0,0,0,-1,1308,1191,0,0
91,-167,0,0,0,0,0,0,0,0,0,-1,1315,1191,0,0
98,-167,0,0,0,0,0,0,0,0,0,-1,1322,1191,0,0
105,-167,0,0,0,0,0,0,0,0,0,-1,1329,1191,0,0
112,-167,0,0,0,0,0,0,0,0,0,-1,1336,1191,0,0
119,-167,0,0,0,0,0,0,0,0,0,-1,1343,1191,0,0
126,-167,0,0,0,0,0,0,0,0,0,-1,1350,1191,0,0
133,-167,0,0,0,0,0,0,0,0,0,-1,1357,1191,0,0
140,-167,0,0,0,0,0,0,0,0,0,-1,1364,1191,0,0
147,-167,0,0,0,0,0,0,0,0,0,-1,1371,1191,0,0
154,-167,0,0,0,0,0,0,0,0,0,-1,1378,1191,0,0
161,-167,0,0,0,0,0,0,0,0,0,-1,1385,1191,0,0
168,-167,0,0,0,0,0,0,0,0,0,-1,1392,1191,0,0
175,-167,0,0,0,0,0,0,0,0,0,-1,1399,1191,0,0
182,-167,0,0,0,0,0,0,0,0,0,-1,1406,1191,0,0
189,-167,0,0,0,0,0,0,0,0,0,-1,1413,1191,0,0
196,-167,0,0,0,0,0,0,0,0,0,-1,1420,1191,0,0
203,-167,0,0,0,0,0,0,0,0,0,-1,1427,1191,0,0
210,-167,0,0,0,0,0,0,0,0,0,-1,1434,1191,0,0
217,-167,0,0,0,0,0,0,0,0,0,-1,1441,1191,0,0
224,-167,0,0,0,0,0,0,0,0,0,-1,1448,1191,0,0
231,-167,0,0,0,0,0,0,0,0,0,-1,1455,1191,0,0
238,-167,0,0,0,0,0,0,0,0,0,-1,1462,1191,0,0
245,-167,0,0,0,0,0,0,0,0,0,-1,1469,1191,0,0
252,-167,0,0,0,0,0,0,0,0,0,-1,1476,1191,0,0
259,-167,0,0,0,0,0,0,0,0,0,-1,1483,1191,0,0
266,-167,0,0,0,0,0,0,0,0,0,-1,1490,1191,0,0
273,-167,0,0,0,0,0,0,0,0,0,-1,1497,1191,0,0
280,-167,0,0,0,0,0,0,0,0,0,-1,1504,1191,0,0
287,-167,0,0,0,0,0,0,0,0,0,-1,1511,1191,0,0
294,-167,0,0,0,0,0,0,0,0,0,-1,1518,1191,0,0
301,-167,0,0,0,0,0,0,0,0,0,-1,1525,1191,0,0
308,-167,0,0,0,0,0,0,0,0,0,-1,1532,1191,0,0
315,-167,0,0,0,0,0,0,0,0,0,-1,1539,1191,0,0
322,-167,0,0,0,0,0,0,0,0,0,-1,1546,1191,0,0
329,-167,0,0,0,0,0,0,0,0,0,-1,1553,1191,0,0
336,-167,0,0,0,0,0,0,0,0,0,-1,1560,1191,0,0
343,-167,0,0,0,0,0,0,0,0,0,-1,1567,1191,0,0
350,-167,0,0,0,0,0,0,0,0,0,-1,1574,1191,0,0
357,-167,0,0,0,0,0,0,0,0,0,-1,1581,1191,0,0
364,-167,0,0,0,0,0,0,0,0,0,-1,1588,1191,0,0
371,-167,0,0,0,0,0,0,0,0,0,-1,1595,1191,0,0
378,-167,0,0,0,0,0,0,0,0,0,-1,1602,1191,0,0
385,-167,0,0,0,0,0,0,0,0,0,-1,1609,1191,0,0
392,-167,0,0,0,0,0,0,0,0,0,-1,1616,1191,0,0
399,-167,0,0,0,0,0,0,0,0,0,-1,1623,1191,0,0
406,-167,0,0,0,0,0,0,0,0,0,-1,1630,1191,0,0
413,-167,0,0,0,0,0,0,0,0,0,-1,1637,1191,0,0
420,-167,0,0,0,0,0,0,0,0,0,-1,1644,1191,0,0
427,-167,0,0,0,0,0,0,0,0,0,-1,1651,1191,0,0
434,-167,0,0,0,0,0,0,0,0,0,-1,1658,1191,0,0
441,-167,0,0,0,0,0,0,0,0,0,-1,1665,1191,0,0
448,-167,0,0,0,0,0,0,0,0,0,-1,1672,1191,0,0
455,-167,0,0,0,0,0,0,0,0,0,-1,1679,1191,0,0
462,-167,0,0,0,0,0,0,0,0,0,-1,1686,1191,0,0
469,-167,0,0,0,0,0,0,0,0,0,-1,1693,1191,0,0
476,-167,0,0,0,0,0,0,0,0,0,-1,1700,1191,0,0
483,-167,0,0,0,0,0,0,0,0,0,-1,1707,1191,0,0
490,-167,0,0,0,0,0,0,0,0,0,-1,1714,1191,0,0
497,-167,0,0,0,0,0,0,0,0,0,-1,1721,1191,0,0
504,-167,0,0,0,0,0,0,0,0,0,-1,1728,1191,0,0
511,-167,0,0,0,0,0,0,0,0,0,-1,1735,1191,0,0
518,-167,0,0,0,0,0,0,0,0,0,-1,1742,1191,0,0
525,-167,0,0,0,0,0,0,0,0,0,-1,1749,1191,0,0
532,-167,0,0,0,0,0,0,0,0,0,-1,1756,1191,0,0
539,-167,0,0,0,0,0,0,0,0,0,-1,1763,1191,0,0
546,-167,0,0,0,0,0,0,0,0,0,-1,1770,1191,0,0
553,-167,0,0,0,0,0,0,0,0,0,-1,1777,1191,0,0
560,-167,0,0,0,0,0,0,0,0,0,-1,1784,1191,0,0
567,-167,0,0,0,0,0,0,0,0,0,-1,1791,1191,0,0
574,-167,0,0,0,0,0,0,0,0,0,-1,1798,1191,0,0
581,-167,0,0,0,0,0,0,0,0,0,-1,1805,1191,0,0
588,-167,0,0,0,0,0,0,0,0,0,-1,1812,1191,0,0
595,-167,0,0,0,0,0,0,0,0,0,-1,1819,1191,0,0
602,-167,0,0,0,0,0,0,0,0,0,-1,1826,1191,0,0
609,-167,0,0,0,0,0,0,0,0,0,-1,1833,1191,0,0
616,-167,0,0,0,0,0,0,0,0,0,-1,1840,1191,0,0
623,-167,0,0,0,0,0,0,0,0,0,-1,1847,1191,0,0
630,-167,0,0,0,0,0,0,0,0,0,-1,1854,1191,0,0
637,-167,26.8505,3.08191,0.000560734,-0.00083231,0.001762,0.00175889,-0.00203047,0.597174,0.00218966,0.045246,1861,1191,26.8504,-3.08189
644,-167,26.6504,2.77283,0.000995392,-0.000379542,0.00149062,0.00194944,-0.00133359,0.569336,0.00190654,0.0470783,1868,1191,26.6504,-2.77287
651,-167,26.6538,3.01758,0.00129547,-4.45023e-05,0.0011586,0.00196385,-0.000712889,0.523254,0.00160069,0.0456406,1875,1191,26.6538,-3.01761
658,-167,26.6721,3.02173,0.00119162,-7.34337e-06,0.00111381,0.00185703,-0.000672752,0.538518,0.00151298,0.0452749,1882,1191,26.6722,-3.02171
665,-167,27.0939,3.17725,0.000792762,-0.00023396,0.00123516,0.001617,-0.0010582,0.588448,0.00155571,0.0399779,1889,1191,27.0938,-3.17729
672,-167,27.0031,3.14233,0.000128887,-0.000554265,0.00142484,0.00125252,-0.0016779,0.667754,0.00169781,0.0277428,1896,1191,27.0031,-3.14232
679,-167,26.9015,3.09216,-0.000705772,-0.000908603,0.00175158,0.000947329,-0.0025617,0.756481,0.00209619,0.0189692,1903,1191,26.9015,-3.09221
686,-167,26.8823,3.03735,-0.001403,-0.0012202,0.00193213,0.000622685,-0.00324589,0.809033,0.00239858,0.0251155,1910,1191,26.8823,-3.03735
693,-167,26.4299,3.89148,0,0,0,0,0,0,0,-1,1917,1191,26.43,-3.89149
700,-167,25.1055,4.8927,0,0,0,0,0,0,0,-1,1924,1191,25.1054,-4.89273
707,-167,23.9088,5.93042,0,0,0,0,0,0,0,-1,1931,1191,23.9088,-5.93038
714,-167,24.5055,5.81714,0,0,0,0,0,0,0,-1,1938,1191,24.5055,-5.81715
721,-167,24.2794,5.36108,-0.00292944,-0.00146929,0.00213956,6.13297e-05,-0.00446005,0.949817,0.00299402,0.0296012,1945,1191,24.2794,-5.36104
728,-167,24.1559,5.2793,-0.00225886,-0.00145274,0.00206248,0.000245695,-0.00395729,0.881894,0.00272379,0.0203696,1952,1191,24.1559,-5.27924
735,-167,24.0027,5.17944,-0.000913685,-0.000932921,0.00165845,0.000735175,-0.00258178,0.782498,0.00201154,0.0133601,1959,1191,24.0027,-5.17941
742,-167,23.9883,4.98083,0.000398944,-0.000132275,0.000424275,0.000633892,-0.000367223,0.505727,0.000584789,0.0144805,1966,1191,23.9883,-4.98082
749,-167,23.9799,4.78247,0.00214011,0.00159146,-0.000869821,0.00277784,0.000953732,-0.632647,0.00162982,0.0138341,1973,1191,23.9799,-4.78249
756,-167,23.9807,4.62354,0.00470322,0.00323163,-0.00204866,0.00614421,0.00179063,-0.612994,0.00364879,0.0107064,1980,1191,23.9807,-4.6235
763,-167,23.9672,4.45166,0.00724034,0.00538867,-0.00367849,0.0101077,0.0025213,-0.662114,0.00607502,0.0111159,1987,1191,23.9672,-4.4517
770,-167,23.9291,4.33716,0.00951061,0.00813611,-0.0054136,0.0142804,0.00336632,-0.722262,0.00862012,0.0222643,1994,1191,23.9291,-4.33711
777,-167,23.9967,4.23926,0.0113603,0.0116477,-0.00725085,0.0187563,0.00425171,-0.795305,0.0113554,0.0415394,2001,1191,23.9968,-4.23928
784,-167,24.0674,4.12512,0,0,0,0,0,0,0,-1,2008,1191,24.0674,-4.12514
791,-167,25.2435,3.09131,0.012018,0.0217351,-0.00974807,0.0277683,0.00598476,-1.01659,0.0168748,0.0445427,2015,1191,25.2435,-3.09137
798,-167,24.587,2.53772,0.0101835,0.028563,-0.00938736,0.03251,0.0062365,-1.17278,0.0199226,0.0458257,2022,1191,24.587,-2.53767
805,-167,24.9851,2.26514,0.00597621,0.0364932,-0.00659217,0.0378563,0.00461308,-1.36689,0.023849,0.0472021,2029,1191,24.985,-2.26516
812,-167,0,0,0,0,0,0,0,0,0,-1,2036,1191,0,0
-700,-174,0,0,0,0,0,0,0,0,0,-1,524,1198,0,0
-693,-174,0,0,0,0,0,0,0,0,0,-1,531,1198,0,0
-686,-174,-19.6034,-1.5498,0.0639505,0.0259268,0.111594,0.158141,-0.0682635,0.701025,0.134104,0.0457001,538,1198,-19.6034,1.54977
-679,-174,-19.6077,-0.70874,0.0688511,0.0200862,0.0905871,0.13828,-0.0493425,0.653934,0.112307,0.0459505,545,1198,-19.6077,0.7088
-672,-174,-19.4436,0.203613,0.0660064,0.0159565,0.0723623,0.117549,-0.0355858,0.618921,0.0925374,0.0478915,552,1198,-19.4436,-0.203601
-665,-174,-19.1887,1.21338,0.0591126,0.0129281,0.0568906,0.0974191,-0.0253783,0.592604,0.0748535,0.0475816,559,1198,-19.1887,-1.21341
-658,-174,-15.8369,-0.564819,0.050406,0.0105952,0.0439628,0.0787599,-0.0177586,0.572817,0.0593189,0.0430438,566,1198,-15.8369,0.564877
-651,-174,-15.7762,0.260498,0.0412176,0.00869027,0.0333234,0.0620343,-0.0121265,0.558375,0.0459351,0.0438143,573,1198,-15.7763,-0.260445
-644,-174,-15.3101,0.930542,0.0322856,0.00705842,0.0246721,0.0473815,-0.00803747,0.549095,0.0345796,0.0414476,580,1198,-15.3101,-0.930568
-637,-174,-15.077,1.70496,0.0243284,0.0055384,0.0180264,0.0352612,-0.00539437,0.545175,0.0254965,0.0220084,587,1198,-15.077,-1.70494
-630,-174,-15.1078,1.90955,0.0180685,0.00402803,0.011647,0.0246474,-0.00255091,0.514179,0.0173446,0.0119968,594,1198,-15.1078,-1.90957
-623,-174,-15.1315,2.11829,0.0113872,0.00280551,0.00682593,0.0151589,-0.000966188,0.504803,0.0104429,0.0133346,601,1198,-15.1316,-2.11826
-616,-174,-15.1554,2.35266,0.00579565,0.00188113,0.00335517,0.00772272,-4.59363e-05,0.521352,0.00516386,0.0190488,608,1198,-15.1554,-2.35271
-609,-174,-15.1876,2.57068,0.001924,0.00117971,0.00108956,0.00270321,0.0004005,0.620832,0.00168459,0.0211035,615,1198,-15.1876,-2.57068
-602,-174,-15.1819,2.77295,4.69326e-05,0.000761217,-0.000106813,0.000776848,3.13019e-05,-1.42549,0.000507786,0.0142395,622,1198,-15.1819,-2.77296
-595,-174,-15.1948,3.01172,-0.000823248,0.000209185,-0.00131228,0.00110313,-0.0017172,-0.972789,0.00164113,0.0146587,629,1198,-15.1947,-3.01168
-588,-174,-15.3176,3.18787,-0.00164304,-6.53834e-05,-0.00221333,0.00149549,-0.00320391,-0.95658,0.00277232,0.0190287,636,1198,-15.3176,-3.18781
-581,-174,-15.2792,3.39771,-0.00175516,-0.000457625,-0.00280815,0.00177573,-0.00398851,-0.898921,0.00340875,0.0229569,643,1198,-15.2792,-3.39769
-574,-174,-15.4739,3.73486,0,0,0,0,0,0,0,-1,650,1198,-15.4739,-3.73484
-567,-174,-16.4919,0.926514,0,0,0,0,0,0,0,-1,657,1198,-16.4919,-0.92657
-560,-174,-18.4432,0.992432,0,0,0,0,0,0,0,-1,664,1198,-18.4432,-0.99246
-553,-174,-18.4495,1.30005,0.000685195,-0.00119245,-0.00298338,0.00287398,-0.00338124,-0.632961,0.0036154,0.0392717,671,1198,-18.4495,-1.30003
-546,-174,-18.4147,1.30444,0.00181515,-0.00142531,-0.00275999,0.00339534,-0.00300551,-0.51998,0.00369782,0.0312674,678,1198,-18.4147,-1.30449
-539,-174,-18.3943,1.35559,0.00341668,-0.00166569,-0.00218807,0.00422889,-0.0024779,-0.355434,0.00391591,0.0363642,685,1198,-18.3943,-1.35557
-532,-174,-18.5954,1.21619,0.00585072,-0.00185251,-0.00104712,0.00599052,-0.00199231,-0.132725,0.00479771,0.0441972,692,1198,-18.5954,-1.21615
-525,-174,-18.6589,1.2262,0.00958748,-0.00183356,0.000928747,0.00966251,-0.00190859,0.0806131,0.00716313,0.0433399,699,1198,-18.6589,-1.22623
-518,-174,-18.3178,1.35974,0.0135385,-0.0013313,0.00302566,0.0141306,-0.00192338,0.193243,0.0101226,0.0401218,706,1198,-18.3178,-1.35972
-511,-174,0,0,0,0,0,0,0,0,0,-1,713,1198,0,0
-504,-174,0,0,0,0,0,0,0,0,0,-1,720,1198,0,0
-497,-174,0,0,0,0,0,0,0,0,0,-1,727,1198,0,0
-490,-174,0,0,0,0,0,0,0,0,0,-1,734,1198,0,0
-483,-174,0,0,0,0,0,0,0,0,0,-1,741,1198,0,0
-476,-174,0,0,0,0,0,0,0,0,0,-1,748,1198,0,0
-469,-174,0,0,0,0,0,0,0,0,0,-1,755,1198,0,0
-462,-174,0,0,0,0,0,0,0,0,0,-1,762,1198,0,0
-455,-174,0,0,0,0,0,0,0,0,0,-1,769,1198,0,0
-448,-174,0,0,0,0,0,0,0,0,0,-1,776,1198,0,0
-441,-174,0,0,0,0,0,0,0,0,0,-1,783,1198,0,0
-434,-174,0,0,0,0,0,0,0,0,0,-1,790,1198,0,0
-427,-174,0,0,0,0,0,0,0,0,0,-1,797,1198,0,0
-420,-174,0,0,0,0,0,0,0,0,0,-1,804,1198,0,0
-413,-174,0,0,0,0,0,0,0,0,0,-1,811,1198,0,0
-406,-174,0,0,0,0,0,0,0,0,0,-1,818,1198,0,0
-399,-174,0,0,0,0,0,0,0,0,0,-1,825,1198,0,0
-392,-174,0,0,0,0,0,0,0,0,0,-1,832,1198,0,0
-385,-174,0,0,0,0,0,0,0,0,0,-1,839,1198,0,0
-378,-174,0,0,0,0,0,0,0,0,0,-1,846,1198,0,0
-371,-174,0,0,0,0,0,0,0,0,0,-1,853,1198,0,0
-364,-174,0,0,0,0,0,0,0,0,0,-1,860,1198,0,0
-357,-174,0,0,0,0,0,0,0,0,0,-1,867,1198,0,0
-350,-174,0,0,0,0,0,0,0,0,0,-1,874,1198,0,0
-343,-174,0,0,0,0,0,0,0,0,0,-1,881,1198,0,0
-336,-174,0,0,0,0,0,0,0,0,0,-1,888,1198,0,0
-329,-174,0,0,0,0,0,0,0,0,0,-1,895,1198,0,0
-322,-174,0,0,0,0,0,0,0,0,0,-1,902,1198,0,0
-315,-174,0,0,0,0,0,0,0,0,0,-1,909,1198,0,0
-308,-174,0,0,0,0,0,0,0,0,0,-1,916,1198,0,0
-301,-174,0,0,0,0,0,0,0,0,0,-1,923,1198,0,0
-294,-174,0,0,0,0,0,0,0,0,0,-1,930,1198,0,0
-287,-174,0,0,0,0,0,0,0,0,0,-1,937,1198,0,0
-280,-174,0,0,0,0,0,0,0,0,0,-1,944,1198,0,0
-273,-174,0,0,0,0,0,0,0,0,0,-1,951,1198,0,0
-266,-174,0,0,0,0,0,0,0,0,0,-1,958,1198,0,0
-259,-174,0,0,0,0,0,0,0,0,0,-1,965,1198,0,0
-252,-174,0,0,0,0,0,0,0,0,0,-1,972,1198,0,0
-245,-174,0,0,0,0,0,0,0,0,0,-1,979,1198,0,0
-238,-174,0,0,0,0,0,0,0,0,0,-1,986,1198,0,0
-231,-174,0,0,0,0,0,0,0,0,0,-1,993,1198,0,0
-224,-174,0,0,0,0,0,0,0,0,0,-1,1000,1198,0,0
-217,-174,0,0,0,0,0,0,0,0,0,-1,1007,1198,0,0
-210,-174,0,0,0,0,0,0,0,0,0,-1,1014,1198,0,0
-203,-174,0,0,0,0,0,0,0,0,0,-1,1021,1198,0,0
-196,-174,0,0,0,0,0,0,0,0,0,-1,1028,1198,0,0
-189,-174,0,0,0,0,0,0,0,0,0,-1,1035,1198,0,0
-182,-174,0,0,0,0,0,0,0,0,0,-1,1042,1198,0,0
-175,-174,0,0,0,0,0,0,0,0,0,-1,1049,1198,0,0
-168,-174,0,0,0,0,0,0,0,0,0,-1,1056,1198,0,0
-161,-174,0,0,0,0,0,0,0,0,0,-1,1063,1198,0,0
-154,-174,0,0,0,0,0,0,0,0,0,-1,1070,1198,0,0
-147,-174,0,0,0,0,0,0,0,0,0,-1,1077,1198,0,0
-140,-174,0,0,0,0,0,0,0,0,0,-1,1084,1198,0,0
-133,-174,0,0,0,0,0,0,0,0,0,-1,1091,1198,0,0
-126,-174,0,0,0,0,0,0,0,0,0,-1,1098,1198,0,0
-119,-174,0,0,0,0,0,0,0,0,0,-1,1105,1198,0,0
-112,-174,0,0,0,0,0,0,0,0,0,-1,1112,1198,0,0
-105,-174,0,0,0,0,0,0,0,0,0,-1,1119,1198,0,0
-98,-174,0,0,0,0,0,0,0,0,0,-1,1126,1198,0,0
-91,-174,0,0,0,0,0,0,0,0,0,-1,1133,1198,0,0
-84,-174,0,0,0,0,0,0,0,0,0,-1,1140,1198,0,0
-77,-174,0,0,0,0,0,0,0,0,0,-1,1147,1198,0,0
-70,-174,0,0,0,0,0,0,0,0,0,-1,1154,1198,0,0
-63,-174,0,0,0,0,0,0,0,0,0,-1,1161,1198,0,0
-56,-174,0,0,0,0,0,0,0,0,0,-1,1168,1198,0,0
-49,-174,0,0,0,0,0,0,0,0,0,-1,1175,1198,0,0
-42,-174,0,0,0,0,0,0,0,0,0,-1,1182,1198,0,0
-35,-174,0,0,0,0,0,0,0,0,0,-1,1189,1198,0,0
-28,-174,0,0,0,0,0,0,0,0,0,-1,1196,1198,0,0
-21,-174,0,0,0,0,0,0,0,0,0,-1,1203,1198,0,0
-14,-174,0,0,0,0,0,0,0,0,0,-1,1210,1198,0,0
-7,-174,0,0,0,0,0,0,0,0,0,-1,1217,1198,0,0
0,-174,0,0,0,0,0,0,0,0,0,-1,1224,1198,0,0
7,-174,0,0,0,0,0,0,0,0,0,-1,1231,1198,0,0
14,-174,0,0,0,0,0,0,0,0,0,-1,1238,1198,0,0
21,-174,0,0,0,0,0,0,0,0,0,-1,1245,1198,0,0
28,-174,0,0,0,0,0,0,0,0,0,-1,1252,1198,0,0
35,-174,0,0,0,0,0,0,0,0,0,-1,1259,1198,0,0
42,-174,0,0,0,0,0,0,0,0,0,-1,1266,1198,0,0
49,-174,0,0,0,0,0,0,0,0,0,-1,1273,1198,0,0
56,-174,0,0,0,0,0,0,0,0,0,-1,1280,1198,0,0
63,-174,0,0,0,0,0,0,0,0,0,-1,1287,1198,0,0
70,-174,0,0,0,0,0,0,0,0,0,-1,1294,1198,0,0
77,-174,0,0,0,0,0,0,0,0,0,-1,1301,1198,0,0
84,-174,0,0,0,0,0,0,0,0,0,-1,1308,1198,0,0
91,-174,0,0,0,0,0,0,0,0,0,-1,1315,1198,0,0
98,-174,0,0,0,0,0,0,0,0,0,-1,1322,1198,0,0
105,-174,0,0,0,0,0,0,0,0,0,-1,1329,1198,0,0
112,-174,0,0,0,0,0,0,0,0,0,-1,1336,1198,0,0
119,-174,0,0,0,0,0,0,0,0,0,-1,1343,1198,0,0
126,-174,0,0,0,0,0,0,0,0,0,-1,1350,1198,0,0
133,-174,0,0,0,0,0,0,0,0,0,-1,1357,1198,0,0
140,-174,0,0,0,0,0,0,0,0,0,-1,1364,1198,0,0
147,-174,0,0,0,0,0,0,0,0,0,-1,1371,1198,0,0
154,-174,0,0,0,0,0,0,0,0,0,-1,1378,1198,0,0
161,-174,0,0,0,0,0,0,0,0,0,-1,1385,1198,0,0
168,-174,0,0,0,0,0,0,0,0,0,-1,1392,1198,0,0
175,-174,0,0,0,0,0,0,0,0,0,-1,1399,1198,0,0
182,-174,0,0,0,0,0,0,0,0,0,-1,1406,1198,0,0
189,-174,0,0,0,0,0,0,0,0,0,-1,1413,1198,0,0
196,-174,0,0,0,0,0,0,0,0,0,-1,1420,1198,0,0
203,-174,0,0,0,0,0,0,0,0,0,-1,1427,1198,0,0
210,-174,0,0,0,0,0,0,0,0,0,-1,1434,1198,0,0
217,-174,0,0,0,0,0,0,0,0,0,-1,1441,1198,0,0
224,-174,0,0,0,0,0,0,0,0,0,-1,1448,1198,0,0
231,-174,0,0,0,0,0,0,0,0,0,-1,1455,1198,0,0
238,-174,0,0,0,0,0,0,0,0,0,-1,1462,1198,0,0
245,-174,0,0,0,0,0,0,0,0,0,-1,1469,1198,0,0
252,-174,0,0,0,0,0,0,0,0,0,-1,1476,1198,0,0
259,-174,0,0,0,0,0,0,0,0,0,-1,1483,1198,0,0
266,-174,0,0,0,0,0,0,0,0,0,-1,1490,1198,0,0
273,-174,0,0,0,0,0,0,0,0,0,-1,1497,1198,0,0
280,-174,0,0,0,0,0,0,0,0,0,-1,1504,1198,0,0
287,-174,0,0,0,0,0,0,0,0,0,-1,1511,1198,0,0
294,-174,0,0,0,0,0,0,0,0,0,-1,1518,1198,0,0
301,-174,0,0,0,0,0,0,0,0,0,-1,1525,1198,0,0
308,-174,0,0,0,0,0,0,0,0,0,-1,1532,1198,0,0
315,-174,0,0,0,0,0,0,0,0,0,-1,1539,1198,0,0
322,-174,0,0,0,0,0,0,0,0,0,-1,1546,1198,0,0
329,-174,0,0,0,0,0,0,0,0,0,-1,1553,1198,0,0
336,-174,0,0,0,0,0,0,0,0,0,-1,1560,1198,0,0
343,-174,0,0,0,0,0,0,0,0,0,-1,1567,1198,0,0
350,-174,0,0,0,0,0,0,0,0,0,-1,1574,1198,0,0
357,-174,0,0,0,0,0,0,0,0,0,-1,1581,1198,0,0
364,-174,0,0,0,0,0,0,0,0,0,-1,1588,1198,0,0
371,-174,0,0,0,0,0,0,0,0,0,-1,1595,1198,0,0
378,-174,0,0,0,0,0,0,0,0,0,-1,1602,1198,0,0
385,-174,0,0,0,0,0,0,0,0,0,-1,1609,1198,0,0
392,-174,0,0,0,0,0,0,0,0,0,-1,1616,1198,0,0
399,-174,0,0,0,0,0,0,0,0,0,-1,1623,1198,0,0
406,-174,0,0,0,0,0,0,0,0,0,-1,1630,1198,0,0
413,-174,0,0,0,0,0,0,0,0,0,-1,1637,1198,0,0
420,-174,0,0,0,0,0,0,0,0,0,-1,1644,1198,0,0
427,-174,0,0,0,0,0,0,0,0,0,-1,1651,1198,0,0
434,-174,0,0,0,0,0,0,0,0,0,-1,1658,1198,0,0
441,-174,0,0,0,0,0,0,0,0,0,-1,1665,1198,0,0
448,-174,0,0,0,0,0,0,0,0,0,-1,1672,1198,0,0
455,-174,0,0,0,0,0,0,0,0,0,-1,1679,1198,0,0
462,-174,0,0,0,0,0,0,0,0,0,-1,1686,1198,0,0
469,-174,0,0,0,0,0,0,0,0,0,-1,1693,1198,0,0
476,-174,0,0,0,0,0,0,0,0,0,-1,1700,1198,0,0
483,-174,0,0,0,0,0,0,0,0,0,-1,1707,1198,0,0
490,-174,0,0,0,0,0,0,0,0,0,-1,1714,1198,0,0
497,-174,0,0,0,0,0,0,0,0,0,-1,1721,1198,0,0
504,-174,0,0,0,0,0,0,0,0,0,-1,1728,1198,0,0
511,-174,0,0,0,0,0,0,0,0,0,-1,1735,1198,0,0
518,-174,0,0,0,0,0,0,0,0,0,-1,1742,1198,0,0
525,-174,0,0,0,0,0,0,0,0,0,-1,1749,1198,0,0
532,-174,0,0,0,0,0,0,0,0,0,-1,1756,1198,0,0
539,-174,0,0,0,0,0,0,0,0,0,-1,1763,1198,0,0
546,-174,0,0,0,0,0,0,0,0,0,-1,1770,1198,0,0
553,-174,0,0,0,0,0,0,0,0,0,-1,1777,1198,0,0
560,-174,0,0,0,0,0,0,0,0,0,-1,1784,1198,0,0
567,-174,0,0,0,0,0,0,0,0,0,-1,1791,1198,0,0
574,-174,0,0,0,0,0,0,0,0,0,-1,1798,1198,0,0
581,-174,0,0,0,0,0,0,0,0,0,-1,1805,1198,0,0
588,-174,0,0,0,0,0,0,0,0,0,-1,1812,1198,0,0
595,-174,0,0,0,0,0,0,0,0,0,-1,1819,1198,0,0
602,-174,0,0,0,0,0,0,0,0,0,-1,1826,1198,0,0
609,-174,0,0,0,0,0,0,0,0,0,-1,1833,1198,0,0
616,-174,0,0,0,0,0,0,0,0,0,-1,1840,1198,0,0
623,-174,0,0,0,0,0,0,0,0,0,-1,1847,1198,0,0
630,-174,0,0,0,0,0,0,0,0,0,-1,1854,1198,0,0
637,-174,26.6891,3.18188,0.000347714,-0.000862149,0.00141676,0.00128329,-0.00179772,0.583624,0.00178707,0.0432379,1861,1198,26.6891,-3.18188
644,-174,26.8711,3.26978,0.000999962,-0.000517774,0.00111102,0.00158655,-0.00110436,0.485773,0.00156189,0.0440286,1868,1198,26.8711,-3.26979
651,-174,27.0546,3.12573,0.00147182,-0.000262077,0.000829849,0.00180498,-0.000595232,0.381768,0.00144324,0.0427941,1875,1198,27.0546,-3.12575
658,-174,27.0594,3.21924,0.00148259,-0.000288743,0.000887255,0.00185057,-0.000656722,0.393147,0.00150129,0.0413851,1882,1198,27.0595,-3.21919
665,-174,27.0115,3.18555,0.0011813,-0.000547826,0.00109425,0.00171132,-0.00107784,0.451062,0.00162411,0.0367682,1889,1198,27.0114,-3.18549
672,-174,26.927,3.09912,0.000543187,-0.000855375,0.00137196,0.0013838,-0.00169598,0.549711,0.00178115,0.0257476,1896,1198,26.927,-3.09912
679,-174,26.8507,3.02588,-0.000269362,-0.00116397,0.00175858,0.00109791,-0.00253124,0.660861,0.00214907,0.0193767,1903,1198,26.8507,-3.02587
686,-174,26.8571,2.98083,-0.000962148,-0.00142819,0.00196949,0.000788063,-0.0031784,0.726515,0.00242469,0.042992,1910,1198,26.857,-2.98084
693,-174,26.8595,2.95776,0,0,0,0,0,0,0,-1,1917,1198,26.8595,-2.9578
700,-174,23.7094,6.15979,0,0,0,0,0,0,0,-1,1924,1198,23.7093,-6.15973
707,-174,23.9595,5.95105,-0.00236505,-0.00154621,0.00226503,0.000346103,-0.00425736,0.874811,0.00296036,0.0467023,1931,1198,23.9595,-5.95101
714,-174,24.118,5.73279,-0.00269688,-0.00153227,0.00225378,0.000213217,-0.00444236,0.911818,0.00303515,0.0300701,1938,1198,24.1181,-5.73285
721,-174,24.0583,5.47498,-0.00258066,-0.00145889,0.00233363,0.000380313,-0.00441987,0.903335,0.00308118,0.0236226,1945,1198,24.0583,-5.47498
728,-174,23.8644,5.34375,-0.00178431,-0.00142194,0.00225096,0.000655113,-0.00386136,0.825559,0.00281811,0.0154513,1952,1198,23.8644,-5.3438
735,-174,23.8138,5.17908,-0.000145823,-0.000793549,0.00184202,0.00140058,-0.00233996,0.698378,0.00218218,0.0108473,1959,1198,23.8138,-5.17905
742,-174,23.797,4.96997,0.00156989,7.80243e-05,0.000601156,0.00178198,-0.000134064,0.339168,0.0012351,0.0180849,1966,1198,23.797,-4.97
749,-174,23.782,4.79199,0.00379065,0.00191978,-0.000546166,0.00393843,0.00177201,-0.264235,0.00227765,0.0163097,1973,1198,23.7819,-4.79194
756,-174,23.7791,4.61011,0.00684995,0.00369434,-0.00138669,0.00737271,0.00317158,-0.36051,0.00427045,0.0102601,1980,1198,23.7791,-4.61009
763,-174,23.7681,4.43323,0.00992563,0.00601007,-0.00262915,0.0112459,0.00468985,-0.465366,0.00652253,0.0129634,1987,1198,23.768,-4.43325
770,-174,23.7745,4.30713,0.0127582,0.00902059,-0.00390392,0.0152176,0.00656124,-0.562165,0.00881359,0.0250062,1994,1198,23.7746,-4.3071
777,-174,23.4055,3.88635,0.0150398,0.0129471,-0.00511908,0.0192184,0.00876854,-0.684588,0.0111099,0.0426042,2001,1198,23.4055,-3.88631
784,-174,22.8517,3.48889,0,0,0,0,0,0,0,-1,2008,1198,22.8517,-3.48886
791,-174,25.8762,2.55835,0.0156094,0.0245036,-0.00567595,0.0272671,0.0128459,-1.1177,0.0157514,0.0460786,2015,1198,25.8762,-2.55838
798,-174,24.1818,1.7771,0.0128549,0.0325433,-0.0038174,0.0332576,0.0121406,-1.38583,0.019433,0.0452589,2022,1198,24.1818,-1.77705
805,-174,23.8767,2.29382,0.00668744,0.0421663,0.00105309,0.0421975,0.00665621,1.54115,0.0261963,0.0455287,2029,1198,23.8767,-2.29387
812,-174,0,0,0,0,0,0,0,0,0,-1,2036,1198,0,0
-700,-181,0,0,0,0,0,0,0,0,0,-1,524,1205,0,0
-693,-181,0,0,0,0,0,0,0,0,0,-1,531,1205,0,0
-686,-181,-20.792,-2.17175,0,0,0,0,0,0,0,-1,538,1205,-20.792,2.17175
-679,-181,-20.7559,-0.926147,0,0,0,0,0,0,0,-1,545,1205,-20.7558,0.926191
-672,-181,-20.1099,0.216675,0,0,0,0,0,0,0,-1,552,1205,-20.11,-0.216614
-665,-181,-15.9673,-1.25977,0,0,0,0,0,0,0,-1,559,1205,-15.9674,1.25981
-658,-181,-15.5519,-0.376465,0.0522338,0.00894014,0.0460084,0.0814334,-0.0202594,0.565514,0.0621526,0.0446038,566,1205,-15.5519,0.37651
-651,-181,-15.3452,0.311157,0.0427579,0.00729564,0.0346486,0.0639487,-0.0138951,0.548899,0.0479402,0.0432751,573,1205,-15.3452,-0.311098
-644,-181,-15.1094,0.933472,0.0335585,0.00592982,0.0255448,0.0487851,-0.00929675,0.537526,0.0360244,0.0392145,580,1205,-15.1094,-0.933514
-637,-181,-14.824,1.66919,0.025268,0.00474158,0.018364,0.0360421,-0.00603254,0.530582,0.0262708,0.0230625,587,1205,-14.824,-1.66919
-630,-181,-14.8791,1.90234,0.0187433,0.00340266,0.0119701,0.0252898,-0.00314383,0.500462,0.0179996,0.0119441,594,1205,-14.8791,-1.90233
-623,-181,-14.9198,2.11877,0.0120507,0.0023728,0.00711271,0.0158144,-0.00139093,0.486699,0.0110358,0.0146306,601,1205,-14.9198,-2.11873
-616,-181,-14.9099,2.35864,0.00636858,0.00159164,0.00351315,0.00822829,-0.000268072,0.486856,0.00557703,0.0148491,608,1205,-14.9099,-2.35864
-609,-181,-14.926,2.58435,0.00215525,0.00106704,0.00117602,0.00290694,0.000315352,0.56873,0.00184186,0.0147566,615,1205,-14.926,-2.5843
-602,-181,-14.9279,2.80554,4.168e-05,0.000707383,-0.000125632,0.000730303,1.87597e-05,-1.39034,0.000480738,0.0129527,622,1205,-14.9279,-2.80556
-595,-181,-14.9739,3.00464,-0.00100816,0.000165121,-0.00141105,0.00110662,-0.00194966,-0.982401,0.00178678,0.0135208,629,1205,-14.9739,-3.00463
-588,-181,-15.0486,3.25757,-0.0019283,-0.000176167,-0.00232161,0.00142918,-0.00353364,-0.965813,0.0029499,0.0157241,636,1205,-15.0486,-3.25759
-581,-181,-15.0204,3.55188,-0.0020554,-0.0007784,-0.0029424,0.00159398,-0.00442778,-0.892242,0.0036027,0.0188983,643,1205,-15.0205,-3.55191
-574,-181,-15.4022,3.59155,-0.00151261,-0.00108094,-0.00309622,0.00180696,-0.00440051,-0.820197,0.00368668,0.0471828,650,1205,-15.4021,-3.59153
-567,-181,-16.105,3.53308,0,0,0,0,0,0,0,-1,657,1205,-16.105,-3.53308
-560,-181,-18.6241,1.37341,0,0,0,0,0,0,0,-1,664,1205,-18.6242,-1.37343
-553,-181,-18.491,1.28845,0.000209639,-0.00191282,-0.00308628,0.00241205,-0.00411523,-0.619804,0.00381105,0.0426778,671,1205,-18.491,-1.28851
-546,-181,-18.3644,1.22327,0.00116565,-0.0022699,-0.00288948,0.0028094,-0.00391365,-0.517218,0.00389897,0.0362038,678,1205,-18.3644,-1.22322
-539,-181,-18.4114,1.31152,0.00250968,-0.00263053,-0.00240385,0.00345865,-0.0035795,-0.375992,0.00406368,0.0390362,685,1205,-18.4114,-1.31149
-532,-181,-18.6239,1.40894,0.00450059,-0.00292003,-0.00144238,0.0047711,-0.00319053,-0.185385,0.00462674,0.0438997,692,1205,-18.6239,-1.40891
-525,-181,-18.5557,1.3573,0.00759709,-0.00299043,0.000264718,0.00760371,-0.00299704,0.024982,0.00631004,0.0415925,699,1205,-18.5557,-1.35731
-518,-181,-18.386,1.37366,0.0112046,-0.00262396,0.00226826,0.0115672,-0.00298652,0.158496,0.00887605,0.0368572,706,1205,-18.386,-1.37365
-511,-181,0,0,0,0,0,0,0,0,0,-1,713,1205,0,0
-504,-181,0,0,0,0,0,0,0,0,0,-1,720,1205,0,0
-497,-181,0,0,0,0,0,0,0,0,0,-1,727,1205,0,0
-490,-181,0,0,0,0,0,0,0,0,0,-1,734,1205,0,0
-483,-181,0,0,0,0,0,0,0,0,0,-1,741,1205,0,0
-476,-181,0,0,0,0,0,0,0,0,0,-1,748,1205,0,0
-469,-181,0,0,0,0,0,0,0,0,0,-1,755,1205,0,0
-462,-181,0,0,0,0,0,0,0,0,0,-1,762,1205,0,0
-455,-181,0,0,0,0,0,0,0,0,0,-1,769,1205,0,0
-448,-181,0,0,0,0,0,0,0,0,0,-1,776,1205,0,0
-441,-181,0,0,0,0,0,0,0,0,0,-1,783,1205,0,0
-434,-181,0,0,0,0,0,0,0,0,0,-1,790,1205,0,0
-427,-181,0,0,0,0,0,0,0,0,0,-1,797,1205,0,0
-420,-181,0,0,0,0,0,0,0,0,0,-1,804,1205,0,0
-413,-181,0,0,0,0,0,0,0,0,0,-1,811,1205,0,0
-406,-181,0,0,0,0,0,0,0,0,0,-1,818,1205,0,0
-399,-181,0,0,0,0,0,0,0,0,0,-1,825,1205,0,0
-392,-181,0,0,0,0,0,0,0,0,0,-1,832,1205,0,0
-385,-181,0,0,0,0,0,0,0,0,0,-1,839,1205,0,0
-378,-181,0,0,0,0,0,0,0,0,0,-1,846,1205,0,0
-371,-181,0,0,0,0,0,0,0,0,0,-1,853,1205,0,0
-364,-181,0,0,0,0,0,0,0,0,0,-1,860,1205,0,0
-357,-181,0,0,0,0,0,0,0,0,0,-1,867,1205,0,0
-350,-181,0,0,0,0,0,0,0,0,0,-1,874,1205,0,0
-343,-181,0,0,0,0,0,0,0,0,0,-1,881,1205,0,0
-336,-181,0,0,0,0,0,0,0,0,0,-1,888,1205,0,0
-329,-181,0,0,0,0,0,0,0,0,0,-1,895,1205,0,0
-322,-181,0,0,0,0,0,0,0,0,0,-1,902,1205,0,0
-315,-181,0,0,0,0,0,0,0,0,0,-1,909,1205,0,0
-308,-181,0,0,0,0,0,0,0,0,0,-1,916,1205,0,0
-301,-181,0,0,0,0,0,0,0,0,0,-1,923,1205,0,0
-294,-181,0,0,0,0,0,0,0,0,0,-1,930,1205,0,0
-287,-181,0,0,0,0,0,0,0,0,0,-1,937,1205,0,0
-280,-181,0,0,0,0,0,0,0,0,0,-1,944,1205,0,0
-273,-181,0,0,0,0,0,0,0,0,0,-1,951,1205,0,0
-266,-181,0,0,0,0,0,0,0,0,0,-1,958,1205,0,0
-259,-181,0,0,0,0,0,0,0,0,0,-1,965,1205,0,0
-252,-181,0,0,0,0,0,0,0,0,0,-1,972,1205,0,0
-245,-181,0,0,0,0,0,0,0,0,0,-1,979,1205,0,0
-238,-181,0,0,0,0,0,0,0,0,0,-1,986,1205,0,0
-231,-181,0,0,0,0,0,0,0,0,0,-1,993,1205,0,0
-224,-181,0,0,0,0,0,0,0,0,0,-1,1000,1205,0,0
-217,-181,0,0,0,0,0,0,0,0,0,-1,1007,1205,0,0
-210,-181,0,0,0,0,0,0,0,0,0,-1,1014,1205,0,0
-203,-181,0,0,0,0,0,0,0,0,0,-1,1021,1205,0,0
-196,-181,0,0,0,0,0,0,0,0,0,-1,1028,1205,0,0
-189,-181,0,0,0,0,0,0,0,0,0,-1,1035,1205,0,0
-182,-181,0,0,0,0,0,0,0,0,0,-1,1042,1205,0,0
-175,-181,0,0,0,0,0,0,0,0,0,-1,1049,1205,0,0
-168,-181,0,0,0,0,0,0,0,0,0,-1,1056,1205,0,0
-161,-181,0,0,0,0,0,0,0,0,0,-1,1063,1205,0,0
-154,-181,0,0,0,0,0,0,0,0,0,-1,1070,1205,0,0
-147,-181,0,0,0,0,0,0,0,0,0,-1,1077,1205,0,0
-140,-181,0,0,0,0,0,0,0,0,0,-1,1084,1205,0,0
-133,-181,0,0,0,0,0,0,0,0,0,-1,1091,1205,0,0
-126,-181,0,0,0,0,0,0,0,0,0,-1,1098,1205,0,0
-119,-181,0,0,0,0,0,0,0,0,0,-1,1105,1205,0,0
-112,-181,0,0,0,0,0,0,0,0,0,-1,1112,1205,0,0
-105,-181,0,0,0,0,0,0,0,0,0,-1,1119,1205,0,0
-98,-181,0,0,0,0,0,0,0,0,0,-1,1126,1205,0,0
-91,-181,0,0,0,0,0,0,0,0,0,-1,1133,1205,0,0
-84,-181,0,0,0,0,0,0,0,0,0,-1,1140,1205,0,0
-77,-181,0,0,0,0,0,0,0,0,0,-1,1147,1205,0,0
-70,-181,0,0,0,0,0,0,0,0,0,-1,1154,1205,0,0
-63,-181,0,0,0,0,0,0,0,0,0,-1,1161,1205,0,0
-56,-181,0,0,0,0,0,0,0,0,0,-1,1168,1205,0,0
-49,-181,0,0,0,0,0,0,0,0,0,-1,1175,1205,0,0
-42,-181,0,0,0,0,0,0,0,0,0,-1,1182,1205,0,0
-35,-181,0,0,0,0,0,0,0,0,0,-1,1189,1205,0,0
-28,-181,0,0,0,0,0,0,0,0,0,-1,1196,1205,0,0
-21,-181,0,0,0,0,0,0,0,0,0,-1,1203,1205,0,0
-14,-181,0,0,0,0,0,0,0,0,0,-1,1210,1205,0,0
-7,-181,0,0,0,0,0,0,0,0,0,-1,1217,1205,0,0
0,-181,0,0,0,0,0,0,0,0,0,-1,1224,1205,0,0
7,-181,0,0,0,0,0,0,0,0,0,-1,1231,1205,0,0
14,-181,0,0,0,0,0,0,0,0,0,-1,1238,1205,0,0
21,-181,0,0,0,0,0,0,0,0,0,-1,1245,1205,0,0
28,-181,0,0,0,0,0,0,0,0,0,-1,1252,1205,0,0
35,-181,0,0,0,0,0,0,0,0,0,-1,1259,1205,0,0
42,-181,0,0,0,0,0,0,0,0,0,-1,1266,1205,0,0
49,-181,0,0,0,0,0,0,0,0,0,-1,1273,1205,0,0
56,-181,0,0,0,0,0,0,0,0,0,-1,1280,1205,0,0
63,-181,0,0,0,0,0,0,0,0,0,-1,1287,1205,0,0
70,-181,0,0,0,0,0,0,0,0,0,-1,1294,1205,0,0
77,-181,0,0,0,0,0,0,0,0,0,-1,1301,1205,0,0
84,-181,0,0,0,0,0,0,0,0,0,-1,1308,1205,0,0
91,-181,0,0,0,0,0,0,0,0,0,-1,1315,1205,0,0
98,-181,0,0,0,0,0,0,0,0,0,-1,1322,1205,0,0
105,-181,0,0,0,0,0,0,0,0,0,-1,1329,1205,0,0
112,-181,0,0,0,0,0,0,0,0,0,-1,1336,1205,0,0
119,-181,0,0,0,0,0,0,0,0,0,-1,1343,1205,0,0
126,-181,0,0,0,0,0,0,0,0,0,-1,1350,1205,0,0
133,-181,0,0,0,0,0,0,0,0,0,-1,1357,1205,0,0
140,-181,0,0,0,0,0,0,0,0,0,-1,1364,1205,0,0
147,-181,0,0,0,0,0,0,0,0,0,-1,1371,1205,0,0
154,-181,0,0,0,0,0,0,0,0,0,-1,1378,1205,0,0
161,-181,0,0,0,0,0,0,0,0,0,-1,1385,1205,0,0
168,-181,0,0,0,0,0,0,0,0,0,-1,1392,1205,0,0
175,-181,0,0,0,0,0,0,0,0,0,-1,1399,1205,0,0
182,-181,0,0,0,0,0,0,0,0,0,-1,1406,1205,0,0
189,-181,0,0,0,0,0,0,0,0,0,-1,1413,1205,0,0
196,-181,0,0,0,0,0,0,0,0,0,-1,1420,1205,0,0
203,-181,0,0,0,0,0,0,0,0,0,-1,1427,1205,0,0
210,-181,0,0,0,0,0,0,0,0,0,-1,1434,1205,0,0
217,-181,0,0,0,0,0,0,0,0,0,-1,1441,1205,0,0
224,-181,0,0,0,0,0,0,0,0,0,-1,1448,1205,0,0
231,-181,0,0,0,0,0,0,0,0,0,-1,1455,1205,0,0
238,-181,0,0,0,0,0,0,0,0,0,-1,1462,1205,0,0
245,-181,0,0,0,0,0,0,0,0,0,-1,1469,1205,0,0
252,-181,0,0,0,0,0,0,0,0,0,-1,1476,1205,0,0
259,-181,0,0,0,0,0,0,0,0,0,-1,1483,1205,0,0
266,-181,0,0,0,0,0,0,0,0,0,-1,1490,1205,0,0
273,-181,0,0,0,0,0,0,0,0,0,-1,1497,1205,0,0
280,-181,0,0,0,0,0,0,0,0,0,-1,1504,1205,0,0
287,-181,0,0,0,0,0,0,0,0,0,-1,1511,1205,0,0
294,-181,0,0,0,0,0,0,0,0,0,-1,1518,1205,0,0
301,-181,0,0,0,0,0,0,0,0,0,-1,1525,1205,0,0
308,-181,0,0,0,0,0,0,0,0,0,-1,1532,1205,0,0
315,-181,0,0,0,0,0,0,0,0,0,-1,1539,1205,0,0
322,-181,0,0,0,0,0,0,0,0,0,-1,1546,1205,0,0
329,-181,0,0,0,0,0,0,0,0,0,-1,1553,1205,0,0
336,-181,0,0,0,0,0,0,0,0,0,-1,1560,1205,0,0
343,-181,0,0,0,0,0,0,0,0,0,-1,1567,1205,0,0
350,-181,0,0,0,0,0,0,0,0,0,-1,1574,1205,0,0
357,-181,0,0,0,0,0,0,0,0,0,-1,1581,1205,0,0
364,-181,0,0,0,0,0,0,0,0,0,-1,1588,1205,0,0
371,-181,0,0,0,0,0,0,0,0,0,-1,1595,1205,0,0
378,-181,0,0,0,0,0,0,0,0,0,-1,1602,1205,0,0
385,-181,0,0,0,0,0,0,0,0,0,-1,1609,1205,0,0
392,-181,0,0,0,0,0,0,0,0,0,-1,1616,1205,0,0
399,-181,0,0,0,0,0,0,0,0,0,-1,1623,1205,0,0
406,-181,0,0,0,0,0,0,0,0,0,-1,1630,1205,0,0
413,-181,0,0,0,0,0,0,0,0,0,-1,1637,1205,0,0
420,-181,0,0,0,0,0,0,0,0,0,-1,1644,1205,0,0
427,-181,0,0,0,0,0,0,0,0,0,-1,1651,1205,0,0
434,-181,0,0,0,0,0,0,0,0,0,-1,1658,1205,0,0
441,-181,0,0,0,0,0,0,0,0,0,-1,1665,1205,0,0
448,-181,0,0,0,0,0,0,0,0,0,-1,1672,1205,0,0
455,-181,0,0,0,0,0,0,0,0,0,-1,1679,1205,0,0
462,-181,0,0,0,0,0,0,0,0,0,-1,1686,1205,0,0
469,-181,0,0,0,0,0,0,0,0,0,-1,1693,1205,0,0
476,-181,0,0,0,0,0,0,0,0,0,-1,1700,1205,0,0
483,-181,0,0,0,0,0,0,0,0,0,-1,1707,1205,0,0
490,-181,0,0,0,0,0,0,0,0,0,-1,1714,1205,0,0
497,-181,0,0,0,0,0,0,0,0,0,-1,1721,1205,0,0
504,-181,0,0,0,0,0,0,0,0,0,-1,1728,1205,0,0
511,-181,0,0,0,0,0,0,0,0,0,-1,1735,1205,0,0
518,-181,0,0,0,0,0,0,0,0,0,-1,1742,1205,0,0
525,-181,0,0,0,0,0,0,0,0,0,-1,1749,1205,0,0
532,-181,0,0,0,0,0,0,0,0,0,-1,1756,1205,0,0
539,-181,0,0,0,0,0,0,0,0,0,-1,1763,1205,0,0
546,-181,0,0,0,0,0,0,0,0,0,-1,1770,1205,0,0
553,-181,0,0,0,0,0,0,0,0,0,-1,1777,1205,0,0
560,-181,0,0,0,0,0,0,0,0,0,-1,1784,1205,0,0
567,-181,0,0,0,0,0,0,0,0,0,-1,1791,1205,0,0
574,-181,0,0,0,0,0,0,0,0,0,-1,1798,1205,0,0
581,-181,0,0,0,0,0,0,0,0,0,-1,1805,1205,0,0
588,-181,0,0,0,0,0,0,0,0,0,-1,1812,1205,0,0
595,-181,0,0,0,0,0,0,0,0,0,-1,1819,1205,0,0
602,-181,0,0,0,0,0,0,0,0,0,-1,1826,1205,0,0
609,-181,0,0,0,0,0,0,0,0,0,-1,1833,1205,0,0
616,-181,0,0,0,0,0,0,0,0,0,-1,1840,1205,0,0
623,-181,0,0,0,0,0,0,0,0,0,-1,1847,1205,0,0
630,-181,26.816,3.28198,-0.00145862,-0.000676817,0.00207222,0.00104104,-0.00317648,0.878623,0.0025369,0.0383328,1854,1205,26.816,-3.28196
637,-181,26.7832,3.31592,0.000446811,-0.000577698,0.000881905,0.000954439,-0.00108533,0.522288,0.00117847,0.039281,1861,1205,26.7832,-3.31596
644,-181,26.854,3.31946,0.00114171,-0.00042929,0.000580747,0.00133308,-0.000620661,0.31832,0.00115272,0.0408561,1868,1205,26.854,-3.31951
651,-181,27.0863,3.22412,0.00164706,-0.000377199,0.000394157,0.0017211,-0.00045124,0.185682,0.00132371,0.0387121,1875,1205,27.0863,-3.22413
658,-181,27.0262,3.10266,0.00171916,-0.000564394,0.000553534,0.00184626,-0.000691496,0.225707,0.00151489,0.0369378,1882,1205,27.0263,-3.10272
665,-181,26.8563,3.12634,0.00149817,-0.000921824,0.000840081,0.00176121,-0.00118486,0.30344,0.00171173,0.0335544,1889,1205,26.8563,-3.12632
672,-181,26.8516,3.06897,0.000916621,-0.00127647,0.00119584,0.00144256,-0.0018024,0.414343,0.00187732,0.022362,1896,1205,26.8516,-3.06901
679,-181,26.8674,3.01624,0.000167989,-0.00157366,0.00162875,0.0011441,-0.00254976,0.539904,0.00218352,0.0250696,1903,1205,26.8674,-3.01619
686,-181,26.8358,3.14124,-0.000484242,-0.00181187,0.0018721,0.000838247,-0.00313436,0.615022,0.00241792,0.0456231,1910,1205,26.8358,-3.14121
693,-181,26.8179,3.25269,0,0,0,0,0,0,0,-1,1917,1205,26.8179,-3.25265
700,-181,24.0782,5.97168,0,0,0,0,0,0,0,-1,1924,1205,24.0782,-5.97169
707,-181,23.9493,5.81006,-0.00196664,-0.00182028,0.00228384,0.000391544,-0.00417847,0.801414,0.00292491,0.0378128,1931,1205,23.9493,-5.81003
714,-181,23.9321,5.65051,-0.0022893,-0.00177574,0.00230707,0.000288797,-0.00435384,0.840821,0.00300346,0.0276581,1938,1205,23.9321,-5.65055
721,-181,23.7677,5.50854,-0.00214303,-0.00163174,0.00242745,0.000553496,-0.00432826,0.837862,0.00308659,0.0179149,1945,1205,23.7678,-5.50859
728,-181,23.6042,5.37866,-0.00123599,-0.00154459,0.00233688,0.000951684,-0.00373226,0.752433,0.0028587,0.0113687,1952,1205,23.6042,-5.37864
735,-181,23.6315,5.17847,0.000720902,-0.000764643,0.00190986,0.00202734,-0.00207108,0.599941,0.00236627,0.010469,1959,1205,23.6315,-5.17845
742,-181,23.6129,4.99609,0.00284688,0.000200504,0.000709966,0.00302531,2.20668e-05,0.246232,0.00200956,0.0155171,1966,1205,23.6129,-4.99613
749,-181,23.6028,4.797,0.00551035,0.00215029,-0.000255564,0.00552967,0.00213096,-0.0754808,0.00322041,0.014393,1973,1205,23.6027,-4.79701
756,-181,23.6039,4.59192,0.00900363,0.00409462,-0.00072282,0.00910785,0.00399041,-0.143196,0.00527182,0.0107331,1980,1205,23.6038,-4.59194
763,-181,23.5796,4.41272,0.012613,0.00661742,-0.00154004,0.0129855,0.00624498,-0.237283,0.00749898,0.0118826,1987,1205,23.5795,-4.41271
770,-181,23.5942,4.22717,0.0160425,0.00999097,-0.00226761,0.0167979,0.00923556,-0.32157,0.00971429,0.0258171,1994,1205,23.5943,-4.22715
777,-181,23.6539,3.99792,0.0188199,0.0145086,-0.00271768,0.0201331,0.0131954,-0.450108,0.0118095,0.0474255,2001,1205,23.6539,-3.99791
784,-181,23.7111,3.78015,0,0,0,0,0,0,0,-1,2008,1205,23.711,-3.78009
791,-181,26.475,2.06824,0,0,0,0,0,0,0,-1,2015,1205,26.475,-2.06819
798,-181,24.1494,0.945801,0,0,0,0,0,0,0,-1,2022,1205,24.1494,-0.945857
805,-181,0,0,0,0,0,0,0,0,0,-1,2029,1205,0,0
812,-181,0,0,0,0,0,0,0,0,0,-1,2036,1205,0,0
-700,-188,0,0,0,0,0,0,0,0,0,-1,524,1212,0,0
-693,-188,0,0,0,0,0,0,0,0,0,-1,531,1212,0,0
-686,-188,0,0,0,0,0,0,0,0,0,-1,538,1212,0,0
-679,-188,-21.1663,-0.918701,0,0,0,0,0,0,0,-1,545,1212,-21.1663,0.918675
-672,-188,-20.7462,0.0673828,0,0,0,0,0,0,0,-1,552,1212,-20.7461,-0.0673251
-665,-188,-16.0758,-0.994263,0,0,0,0,0,0,0,-1,559,1212,-16.0758,0.99426
-658,-188,-15.3655,-0.184692,0.0479849,0.00627515,0.0446536,0.0764136,-0.0221535,0.566932,0.0597128,0.044669,566,1212,-15.3656,0.184708
-651,-188,-14.9619,0.437134,0.0400022,0.0052058,0.0338123,0.0606299,-0.0154219,0.547787,0.0464225,0.0460713,573,1212,-14.9619,-0.437117
-644,-188,-14.9692,1.00098,0.0319339,0.00434633,0.0250948,0.0467761,-0.0104959,0.534105,0.0352081,0.0407485,580,1212,-14.9692,-1.00097
-637,-188,-14.6455,1.66028,0.0244155,0.00358697,0.0181647,0.0349395,-0.00693712,0.525112,0.0259167,0.0205215,587,1212,-14.6455,-1.66026
-630,-188,-14.6675,1.89978,0.0182367,0.00259186,0.0119989,0.0247378,-0.00390927,0.496534,0.0179375,0.00984357,594,1212,-14.6676,-1.89972
-623,-188,-14.673,2.13477,0.0123391,0.00181033,0.00723912,0.0160256,-0.00187618,0.471019,0.0113609,0.0108074,601,1212,-14.673,-2.13478
-616,-188,-14.6728,2.35999,0.00713165,0.00131941,0.00366772,0.00890503,-0.000453971,0.450368,0.00609365,0.0109749,608,1212,-14.6728,-2.35996
-609,-188,-14.6646,2.60852,0.00259716,0.000939608,0.00128555,0.00329793,0.000238838,0.499083,0.00212349,0.0139681,615,1212,-14.6646,-2.60847
-602,-188,-14.6588,2.85535,0.000191958,0.000642562,-0.000101813,0.000664499,0.000170021,-1.35858,0.000398601,0.0169768,622,1212,-14.6588,-2.85534
-595,-188,-14.6735,3.06616,-0.00102027,0.000124853,-0.00139703,0.0010621,-0.00195751,-0.979879,0.00176874,0.0123724,629,1212,-14.6735,-3.06614
-588,-188,-14.7089,3.28845,-0.00200541,-0.000237942,-0.00225972,0.00130471,-0.00354806,-0.971795,0.00289982,0.0111714,636,1212,-14.7089,-3.28851
-581,-188,-14.7589,3.52661,-0.00212905,-0.00101185,-0.00289051,0.00137354,-0.00451444,-0.880849,0.003557,0.0126281,643,1212,-14.7589,-3.5266
-574,-188,-14.9256,3.61951,-0.00160414,-0.00138486,-0.00307801,0.00158546,-0.00457446,-0.803201,0.00369336,0.0342033,650,1212,-14.9256,-3.61947
-567,-188,-15.1075,3.63696,0,0,0,0,0,0,0,-1,657,1212,-15.1075,-3.63694
-560,-188,-18.6916,1.26489,0,0,0,0,0,0,0,-1,664,1212,-18.6916,-1.26488
-553,-188,-18.4991,1.17542,-0.000180134,-0.00245882,-0.00297958,0.0018705,-0.00450946,-0.602784,0.00378705,0.0477386,671,1212,-18.4991,-1.17545
-546,-188,-18.3977,1.18005,0.000517488,-0.00292192,-0.00280564,0.00208853,-0.00449296,-0.510456,0.00388343,0.0440567,678,1212,-18.3977,-1.18008
-539,-188,-18.3567,1.28674,0.00149972,-0.00337454,-0.00242147,0.00249815,-0.00437298,-0.391088,0.00401597,0.0361167,685,1212,-18.3567,-1.28672
-532,-188,-18.3536,1.24072,0.00292496,-0.00375196,-0.00166884,0.00331884,-0.00414584,-0.231777,0.00431854,0.0389225,692,1212,-18.3535,-1.24076
-525,-188,-18.2233,1.09473,0.00521216,-0.00391367,-0.000300352,0.00522203,-0.00392354,-0.0328649,0.00529791,0.0395735,699,1212,-18.2233,-1.09472
-518,-188,-18.2156,1.20667,0.00811627,-0.00368473,0.00146136,0.00829454,-0.003863,0.121391,0.00717291,0.0375784,706,1212,-18.2157,-1.20668
-511,-188,-18.3377,1.31445,0.0129008,-0.00236128,0.00388846,0.0138344,-0.00329487,0.235633,0.0104951,0.0352227,713,1212,-18.3377,-1.31443
-504,-188,0,0,0,0,0,0,0,0,0,-1,720,1212,0,0
-497,-188,0,0,0,0,0,0,0,0,0,-1,727,1212,0,0
-490,-188,0,0,0,0,0,0,0,0,0,-1,734,1212,0,0
-483,-188,0,0,0,0,0,0,0,0,0,-1,741,1212,0,0
-476,-188,0,0,0,0,0,0,0,0,0,-1,748,1212,0,0
-469,-188,0,0,0,0,0,0,0,0,0,-1,755,1212,0,0
-462,-188,0,0,0,0,0,0,0,0,0,-1,762,1212,0,0
-455,-188,0,0,0,0,0,0,0,0,0,-1,769,1212,0,0
-448,-188,0,0,0,0,0,0,0,0,0,-1,776,1212,0,0
-441,-188,0,0,0,0,0,0,0,0,0,-1,783,1212,0,0
-434,-188,0,0,0,0,0,0,0,0,0,-1,790,1212,0,0
-427,-188,0,0,0,0,0,0,0,0,0,-1,797,1212,0,0
-420,-188,0,0,0,0,0,0,0,0,0,-1,804,1212,0,0
-413,-188,0,0,0,0,0,0,0,0,0,-1,811,1212,0,0
-406,-188,0,0,0,0,0,0,0,0,0,-1,818,1212,0,0
-399,-188,0,0,0,0,0,0,0,0,0,-1,825,1212,0,0
-392,-188,0,0,0,0,0,0,0,0,0,-1,832,1212,0,0
-385,-188,0,0,0,0,0,0,0,0,0,-1,839,1212,0,0
-378,-188,0,0,0,0,0,0,0,0,0,-1,846,1212,0,0
-371,-188,0,0,0,0,0,0,0,0,0,-1,853,1212,0,0
-364,-188,0,0,0,0,0,0,0,0,0,-1,860,1212,0,0
-357,-188,0,0,0,0,0,0,0,0,0,-1,867,1212,0,0
-350,-188,0,0,0,0,0,0,0,0,0,-1,874,1212,0,0
-343,-188,0,0,0,0,0,0,0,0,0,-1,881,1212,0,0
-336,-188,0,0,0,0,0,0,0,0,0,-1,888,1212,0,0
-329,-188,0,0,0,0,0,0,0,0,0,-1,895,1212,0,0
-322,-188,0,0,0,0,0,0,0,0,0,-1,902,1212,0,0
-315,-188,0,0,0,0,0,0,0,0,0,-1,909,1212,0,0
-308,-188,0,0,0,0,0,0,0,0,0,-1,916,1212,0,0
-301,-188,0,0,0,0,0,0,0,0,0,-1,923,1212,0,0
-294,-188,0,0,0,0,0,0,0,0,0,-1,930,1212,0,0
-287,-188,0,0,0,0,0,0,0,0,0,-1,937,1212,0,0
-280,-188,0,0,0,0,0,0,0,0,0,-1,944,1212,0,0
-273,-188,0,0,0,0,0,0,0,0,0,-1,951,1212,0,0
-266,-188,0,0,0,0,0,0,0,0,0,-1,958,1212,0,0
-259,-188,0,0,0,0,0,0,0,0,0,-1,965,1212,0,0
-252,-188,0,0,0,0,0,0,0,0,0,-1,972,1212,0,0
-245,-188,0,0,0,0,0,0,0,0,0,-1,979,1212,0,0
-238,-188,0,0,0,0,0,0,0,0,0,-1,986,1212,0,0
-231,-188,0,0,0,0,0,0,0,0,0,-1,993,1212,0,0
-224,-188,0,0,0,0,0,0,0,0,0,-1,1000,1212,0,0
-217,-188,0,0,0,0,0,0,0,0,0,-1,1007,1212,0,0
-210,-188,0,0,0,0,0,0,0,0,0,-1,1014,1212,0,0
-203,-188,0,0,0,0,0,0,0,0,0,-1,1021,1212,0,0
-196,-188,0,0,0,0,0,0,0,0,0,-1,1028,1212,0,0
-189,-188,0,0,0,0,0,0,0,0,0,-1,1035,1212,0,0
-182,-188,0,0,0,0,0,0,0,0,0,-1,1042,1212,0,0
-175,-188,0,0,0,0,0,0,0,0,0,-1,1049,1212,0,0
-168,-188,0,0,0,0,0,0,0,0,0,-1,1056,1212,0,0
-161,-188,0,0,0,0,0,0,0,0,0,-1,1063,1212,0,0
-154,-188,0,0,0,0,0,0,0,0,0,-1,1070,1212,0,0
-147,-188,0,0,0,0,0,0,0,0,0,-1,1077,1212,0,0
-140,-188,0,0,0,0,0,0,0,0,0,-1,1084,1212,0,0
-133,-188,0,0,0,0,0,0,0,0,0,-1,1091,1212,0,0
-126,-188,0,0,0,0,0,0,0,0,0,-1,1098,1212,0,0
-119,-188,0,0,0,0,0,0,0,0,0,-1,1105,1212,0,0
-112,-188,0,0,0,0,0,0,0,0,0,-1,1112,1212,0,0
-105,-188,0,0,0,0,0,0,0,0,0,-1,1119,1212,0,0
-98,-188,0,0,0,0,0,0,0,0,0,-1,1126,1212,0,0
-91,-188,0,0,0,0,0,0,0,0,0,-1,1133,1212,0,0
-84,-188,0,0,0,0,0,0,0,0,0,-1,1140,1212,0,0
-77,-188,0,0,0,0,0,0,0,0,0,-1,1147,1212,0,0
-70,-188,0,0,0,0,0,0,0,0,0,-1,1154,1212,0,0
-63,-188,0,0,0,0,0,0,0,0,0,-1,1161,1212,0,0
-56,-188,0,0,0,0,0,0,0,0,0,-1,1168,1212,0,0
-49,-188,0,0,0,0,0,0,0,0,0,-1,1175,1212,0,0
-42,-188,0,0,0,0,0,0,0,0,0,-1,1182,1212,0,0
-35,-188,0,0,0,0,0,0,0,0,0,-1,1189,1212,0,0
-28,-188,0,0,0,0,0,0,0,0,0,-1,1196,1212,0,0
-21,-188,0,0,0,0,0,0,0,0,0,-1,1203,1212,0,0
-14,-188,0,0,0,0,0,0,0,0,0,-1,1210,1212,0,0
-7,-188,0,0,0,0,0,0,0,0,0,-1,1217,1212,0,0
0,-188,0,0,0,0,0,0,0,0,0,-1,1224,1212,0,0
7,-188,0,0,0,0,0,0,0,0,0,-1,1231,1212,0,0
14,-188,0,0,0,0,0,0,0,0,0,-1,1238,1212,0,0
21,-188,0,0,0,0,0,0,0,0,0,-1,1245,1212,0,0
28,-188,0,0,0,0,0,0,0,0,0,-1,1252,1212,0,0
35,-188,0,0,0,0,0,0,0,0,0,-1,1259,1212,0,0
42,-188,0,0,0,0,0,0,0,0,0,-1,1266,1212,0,0
49,-188,0,0,0,0,0,0,0,0,0,-1,1273,1212,0,0
56,-188,0,0,0,0,0,0,0,0,0,-1,1280,1212,0,0
63,-188,0,0,0,0,0,0,0,0,0,-1,1287,1212,0,0
70,-188,0,0,0,0,0,0,0,0,0,-1,1294,1212,0,0
77,-188,0,0,0,0,0,0,0,0,0,-1,1301,1212,0,0
84,-188,0,0,0,0,0,0,0,0,0,-1,1308,1212,0,0
91,-188,0,0,0,0,0,0,0,0,0,-1,1315,1212,0,0
98,-188,0,0,0,0,0,0,0,0,0,-1,1322,1212,0,0
105,-188,0,0,0,0,0,0,0,0,0,-1,1329,1212,0,0
112,-188,0,0,0,0,0,0,0,0,0,-1,1336,1212,0,0
119,-188,0,0,0,0,0,0,0,0,0,-1,1343,1212,0,0
126,-188,0,0,0,0,0,0,0,0,0,-1,1350,1212,0,0
133,-188,0,0,0,0,0,0,0,0,0,-1,1357,1212,0,0
140,-188,0,0,0,0,0,0,0,0,0,-1,1364,1212,0,0
147,-188,0,0,0,0,0,0,0,0,0,-1,1371,1212,0,0
154,-188,0,0,0,0,0,0,0,0,0,-1,1378,1212,0,0
161,-188,0,0,0,0,0,0,0,0,0,-1,1385,1212,0,0
168,-188,0,0,0,0,0,0,0,0,0,-1,1392,1212,0,0
175,-188,0,0,0,0,0,0,0,0,0,-1,1399,1212,0,0
182,-188,0,0,0,0,0,0,0,0,0,-1,1406,1212,0,0
189,-188,0,0,0,0,0,0,0,0,0,-1,1413,1212,0,0
196,-188,0,0,0,0,0,0,0,0,0,-1,1420,1212,0,0
203,-188,0,0,0,0,0,0,0,0,0,-1,1427,1212,0,0
210,-188,0,0,0,0,0,0,0,0,0,-1,1434,1212,0,0
217,-188,0,0,0,0,0,0,0,0,0,-1,1441,1212,0,0
224,-188,0,0,0,0,0,0,0,0,0,-1,1448,1212,0,0
231,-188,0,0,0,0,0,0,0,0,0,-1,1455,1212,0,0
238,-188,0,0,0,0,0,0,0,0,0,-1,1462,1212,0,0
245,-188,0,0,0,0,0,0,0,0,0,-1,1469,1212,0,0
252,-188,0,0,0,0,0,0,0,0,0,-1,1476,1212,0,0
259,-188,0,0,0,0,0,0,0,0,0,-1,1483,1212,0,0
266,-188,0,0,0,0,0,0,0,0,0,-1,1490,1212,0,0
273,-188,0,0,0,0,0,0,0,0,0,-1,1497,1212,0,0
280,-188,0,0,0,0,0,0,0,0,0,-1,1504,1212,0,0
287,-188,0,0,0,0,0,0,0,0,0,-1,1511,1212,0,0
294,-188,0,0,0,0,0,0,0,0,0,-1,1518,1212,0,0
301,-188,0,0,0,0,0,0,0,0,0,-1,1525,1212,0,0
308,-188,0,0,0,0,0,0,0,0,0,-1,1532,1212,0,0
315,-188,0,0,0,0,0,0,0,0,0,-1,1539,1212,0,0
322,-188,0,0,0,0,0,0,0,0,0,-1,1546,1212,0,0
329,-188,0,0,0,0,0,0,0,0,0,-1,1553,1212,0,0
336,-188,0,0,0,0,0,0,0,0,0,-1,1560,1212,0,0
343,-188,0,0,0,0,0,0,0,0,0,-1,1567,1212,0,0
350,-188,0,0,0,0,0,0,0,0,0,-1,1574,1212,0,0
357,-188,0,0,0,0,0,0,0,0,0,-1,1581,1212,0,0
364,-188,0,0,0,0,0,0,0,0,0,-1,1588,1212,0,0
371,-188,0,0,0,0,0,0,0,0,0,-1,1595,1212,0,0
378,-188,0,0,0,0,0,0,0,0,0,-1,1602,1212,0,0
385,-188,0,0,0,0,0,0,0,0,0,-1,1609,1212,0,0
392,-188,0,0,0,0,0,0,0,0,0,-1,1616,1212,0,0
399,-188,0,0,0,0,0,0,0,0,0,-1,1623,1212,0,0
406,-188,0,0,0,0,0,0,0,0,0,-1,1630,1212,0,0
413,-188,0,0,0,0,0,0,0,0,0,-1,1637,1212,0,0
420,-188,0,0,0,0,0,0,0,0,0,-1,1644,1212,0,0
427,-188,0,0,0,0,0,0,0,0,0,-1,1651,1212,0,0
434,-188,0,0,0,0,0,0,0,0,0,-1,1658,1212,0,0
441,-188,0,0,0,0,0,0,0,0,0,-1,1665,1212,0,0
448,-188,0,0,0,0,0,0,0,0,0,-1,1672,1212,0,0
455,-188,0,0,0,0,0,0,0,0,0,-1,1679,1212,0,0
462,-188,0,0,0,0,0,0,0,0,0,-1,1686,1212,0,0
469,-188,0,0,0,0,0,0,0,0,0,-1,1693,1212,0,0
476,-188,0,0,0,0,0,0,0,0,0,-1,1700,1212,0,0
483,-188,0,0,0,0,0,0,0,0,0,-1,1707,1212,0,0
490,-188,0,0,0,0,0,0,0,0,0,-1,1714,1212,0,0
497,-188,0,0,0,0,0,0,0,0,0,-1,1721,1212,0,0
504,-188,0,0,0,0,0,0,0,0,0,-1,1728,1212,0,0
511,-188,0,0,0,0,0,0,0,0,0,-1,1735,1212,0,0
518,-188,0,0,0,0,0,0,0,0,0,-1,1742,1212,0,0
525,-188,0,0,0,0,0,0,0,0,0,-1,1749,1212,0,0
532,-188,0,0,0,0,0,0,0,0,0,-1,1756,1212,0,0
539,-188,0,0,0,0,0,0,0,0,0,-1,1763,1212,0,0
546,-188,0,0,0,0,0,0,0,0,0,-1,1770,1212,0,0
553,-188,0,0,0,0,0,0,0,0,0,-1,1777,1212,0,0
560,-188,0,0,0,0,0,0,0,0,0,-1,1784,1212,0,0
567,-188,0,0,0,0,0,0,0,0,0,-1,1791,1212,0,0
574,-188,0,0,0,0,0,0,0,0,0,-1,1798,1212,0,0
581,-188,0,0,0,0,0,0,0,0,0,-1,1805,1212,0,0
588,-188,0,0,0,0,0,0,0,0,0,-1,1812,1212,0,0
595,-188,0,0,0,0,0,0,0,0,0,-1,1819,1212,0,0
602,-188,0,0,0,0,0,0,0,0,0,-1,1826,1212,0,0
609,-188,0,0,0,0,0,0,0,0,0,-1,1833,1212,0,0
616,-188,0,0,0,0,0,0,0,0,0,-1,1840,1212,0,0
623,-188,0,0,0,0,0,0,0,0,0,-1,1847,1212,0,0
630,-188,26.8831,3.30115,-0.00086224,0.000131368,0.00129875,0.00102509,-0.00175596,0.968074,0.00162402,0.0404869,1854,1212,26.8831,-3.30115
637,-188,26.8119,3.33142,0.000807021,2.33624e-05,0.00028488,0.000899637,-6.9253e-05,0.314325,0.000624124,0.0428515,1861,1212,26.8119,-3.33141
644,-188,26.7529,3.23828,0.00146299,-1.55156e-05,6.98485e-05,0.00146628,-1.88081e-05,0.0471028,0.000983852,0.0378292,1868,1212,26.753,-3.23823
651,-188,26.8945,3.0741,0.00193748,-0.000210106,2.16061e-05,0.00193769,-0.000210323,0.0100593,0.00136731,0.0311816,1875,1212,26.8945,-3.07407
658,-188,26.9475,3.0415,0.00204166,-0.000580955,0.000269949,0.00206916,-0.000608453,0.101513,0.00162079,0.0324035,1882,1212,26.9475,-3.04151
665,-188,26.7927,3.10449,0.00187416,-0.00105494,0.000611573,0.00199673,-0.0011775,0.197786,0.00185287,0.028774,1889,1212,26.7927,-3.10447
672,-188,26.8333,3.06274,0.00135312,-0.00149134,0.00101039,0.00167548,-0.0018137,0.308845,0.00201501,0.0214379,1896,1212,26.8332,-3.06275
679,-188,26.8488,2.98267,0.000687193,-0.00181421,0.00145825,0.00135763,-0.00248464,0.430933,0.00224992,0.0416234,1903,1212,26.8487,-2.98266
686,-188,26.7052,3.20752,9.20727e-05,-0.00206355,0.00171596,0.00104064,-0.00301212,0.504982,0.00243039,0.0410859,1910,1212,26.7053,-3.20754
693,-188,26.6173,3.31396,0,0,0,0,0,0,0,-1,1917,1212,26.6173,-3.31399
700,-188,23.808,5.6958,0,0,0,0,0,0,0,-1,1924,1212,23.808,-5.69581
707,-188,23.5984,5.8468,-0.00146747,-0.00210253,0.00226306,0.000500229,-0.00407022,0.715698,0.00289467,0.0199611,1931,1212,23.5984,-5.84683
714,-188,23.5686,5.72571,-0.00176808,-0.0020662,0.0023066,0.000394267,-0.00422855,0.753131,0.00295922,0.0170012,1938,1212,23.5686,-5.72575
721,-188,23.4587,5.57593,-0.00157598,-0.00185194,0.00247096,0.000760855,-0.00418877,0.757507,0.00307765,0.0138548,1945,1212,23.4587,-5.57595
728,-188,23.4052,5.38184,-0.000526013,-0.00170524,0.00237921,0.00133555,-0.0035668,0.663936,0.00292646,0.0094897,1952,1212,23.4051,-5.38184
735,-188,23.4111,5.17493,0.00181332,-0.000819625,0.0019787,0.00287347,-0.00187978,0.491863,0.00276421,0.0125713,1959,1212,23.4112,-5.17488
742,-188,23.3966,4.97375,0.00445425,0.000168849,0.000926075,0.00464582,-2.27129e-05,0.203976,0.00310481,0.013963,1966,1212,23.3966,-4.9737
749,-188,23.391,4.79248,0.00768688,0.00205196,0.000219148,0.00769539,0.00204345,0.038813,0.00460288,0.0131006,1973,1212,23.391,-4.79248
756,-188,23.3966,4.59314,0.0117282,0.00393598,0.000113039,0.0117299,0.00393434,0.0145026,0.00689345,0.0112261,1980,1212,23.3967,-4.59316
763,-188,23.3817,4.40002,0.0160756,0.00639455,-0.00027052,0.0160832,0.00638699,-0.0279141,0.00935093,0.0132391,1987,1212,23.3817,-4.40001
770,-188,23.382,4.18665,0.0203647,0.00976991,-0.000454996,0.0203842,0.00975041,-0.0428403,0.0117725,0.0227208,1994,1212,23.3819,-4.18669
777,-188,24.2083,4.18994,0.0239646,0.0143915,-0.000187864,0.0239682,0.0143879,-0.0196142,0.0139305,0.0436204,2001,1212,24.2082,-4.1899
784,-188,24.937,4.16699,0,0,0,0,0,0,0,-1,2008,1212,24.9371,-4.16702
791,-188,24.4567,3.09326,0,0,0,0,0,0,0,-1,2015,1212,24.4567,-3.09327
798,-188,25.4847,3.54468,0,0,0,0,0,0,0,-1,2022,1212,25.4847,-3.54466
805,-188,0,0,0,0,0,0,0,0,0,-1,2029,1212,0,0
812,-188,0,0,0,0,0,0,0,0,0,-1,2036,1212,0,0
-700,-195,0,0,0,0,0,0,0,0,0,-1,524,1219,0,0
-693,-195,0,0,0,0,0,0,0,0,0,-1,531,1219,0,0
-686,-195,0,0,0,0,0,0,0,0,0,-1,538,1219,0,0
-679,-195,-10.9906,-0.421753,0,0,0,0,0,0,0,-1,545,1219,-10.9906,0.421697
-672,-195,-21.4369,-0.121704,0,0,0,0,0,0,0,-1,552,1219,-21.4369,0.121747
-665,-195,-15.6291,-0.4823,0,0,0,0,0,0,0,-1,559,1219,-15.6291,0.482293
-658,-195,-15.3177,0.0217285,0.0532115,0.00335722,0.0394515,0.0749511,-0.0183824,0.503646,0.05709,0.0450073,566,1219,-15.3177,-0.0217787
-651,-195,-15.0217,0.521729,0.0441272,0.00295059,0.0300063,0.0599292,-0.0128514,0.484719,0.0448545,0.0455275,573,1219,-15.0217,-0.521738
-644,-195,-14.6852,1.09424,0.0351223,0.00267632,0.0224538,0.0466006,-0.00880196,0.472563,0.0343787,0.0427415,580,1219,-14.6852,-1.09424
-637,-195,-14.3727,1.6615,0,0,0,0,0,0,0,-1,587,1219,-14.3727,-1.66152
-630,-195,-14.4322,1.89819,0.0198738,0.00179549,0.0110132,0.0250824,-0.00341302,0.441762,0.0179676,0.00774017,594,1219,-14.4322,-1.8982
-623,-195,-14.4456,2.12891,0.0134956,0.00128847,0.0067194,0.0164697,-0.00168561,0.416693,0.0115826,0.00761626,601,1219,-14.4456,-2.12885
-616,-195,-14.4404,2.37622,0.00798635,0.00117546,0.00353215,0.00948734,-0.000325536,0.40183,0.00643615,0.00959019,608,1219,-14.4404,-2.37623
-609,-195,-14.4393,2.61926,0.00313968,0.000908146,0.00133025,0.00376014,0.000287679,0.436431,0.00241658,0.0174064,615,1219,-14.4393,-2.61932
-602,-195,-14.4421,2.84058,0.00043465,0.000639464,-3.46347e-05,0.000645162,0.000428952,-1.40773,0.000379175,0.0212378,622,1219,-14.4421,-2.84053
-595,-195,-14.4698,3.07874,-0.000932567,0.000193503,-0.00131113,0.00105737,-0.00179644,-0.988206,0.00166597,0.0152224,629,1219,-14.4699,-3.07871
-588,-195,-14.4678,3.29236,-0.00195053,-0.000102971,-0.00210629,0.00127321,-0.00332671,-0.992057,0.00274256,0.00877613,636,1219,-14.4679,-3.29234
-581,-195,-14.5295,3.45349,-0.00206362,-0.000984825,-0.00273597,0.00126441,-0.00431286,-0.882725,0.00337657,0.0135472,643,1219,-14.5295,-3.45352
-574,-195,-14.7003,3.43506,-0.00159141,-0.00140901,-0.00296621,0.0014674,-0.00446782,-0.800767,0.00356967,0.0309421,650,1219,-14.7003,-3.43501
-567,-195,-14.8499,3.39404,0,0,0,0,0,0,0,-1,657,1219,-14.8499,-3.39402
-560,-195,-17.2854,0.244507,0,0,0,0,0,0,0,-1,664,1219,-17.2854,-0.244526
-553,-195,-18.4727,1.09485,0,0,0,0,0,0,0,-1,671,1219,-18.4727,-1.09481
-546,-195,-18.2923,1.18152,-9.46919e-05,-0.0031812,-0.00255184,0.00134426,-0.00462014,-0.513442,0.00361253,0.048394,678,1219,-18.2923,-1.18149
-539,-195,-18.366,1.23657,0.000534077,-0.00369374,-0.00224131,0.00150109,-0.00466076,-0.407321,0.00371017,0.037398,685,1219,-18.366,-1.23661
-532,-195,-18.2986,1.04004,0.00143991,-0.00411606,-0.00165828,0.00189721,-0.00457337,-0.269081,0.00384082,0.0336063,692,1219,-18.2986,-1.04007
-525,-195,-18.1084,0.927246,0.00300175,-0.00430014,-0.000603274,0.00305126,-0.00434964,-0.0818791,0.00429477,0.0379234,699,1219,-18.1084,-0.927299
-518,-195,-18.0881,1.12451,0.00517982,-0.00405171,0.000823624,0.00525272,-0.00412462,0.0882894,0.00542705,0.0383235,706,1219,-18.0881,-1.12453
-511,-195,-18.0981,1.26282,0.00951445,-0.00252609,0.00289433,0.0101741,-0.0031857,0.22407,0.00805734,0.0394823,713,1219,-18.0981,-1.26277
-504,-195,0,0,0,0,0,0,0,0,0,-1,720,1219,0,0
-497,-195,0,0,0,0,0,0,0,0,0,-1,727,1219,0,0
-490,-195,0,0,0,0,0,0,0,0,0,-1,734,1219,0,0
-483,-195,0,0,0,0,0,0,0,0,0,-1,741,1219,0,0
-476,-195,0,0,0,0,0,0,0,0,0,-1,748,1219,0,0
-469,-195,0,0,0,0,0,0,0,0,0,-1,755,1219,0,0
-462,-195,0,0,0,0,0,0,0,0,0,-1,762,1219,0,0
-455,-195,0,0,0,0,0,0,0,0,0,-1,769,1219,0,0
-448,-195,0,0,0,0,0,0,0,0,0,-1,776,1219,0,0
-441,-195,0,0,0,0,0,0,0,0,0,-1,783,1219,0,0
-434,-195,0,0,0,0,0,0,0,0,0,-1,790,1219,0,0
-427,-195,0,0,0,0,0,0,0,0,0,-1,797,1219,0,0
-420,-195,0,0,0,0,0,0,0,0,0,-1,804,1219,0,0
-413,-195,0,0,0,0,0,0,0,0,0,-1,811,1219,0,0
-406,-195,0,0,0,0,0,0,0,0,0,-1,818,1219,0,0
-399,-195,0,0,0,0,0,0,0,0,0,-1,825,1219,0,0
-392,-195,0,0,0,0,0,0,0,0,0,-1,832,1219,0,0
-385,-195,0,0,0,0,0,0,0,0,0,-1,839,1219,0,0
-378,-195,0,0,0,0,0,0,0,0,0,-1,846,1219,0,0
-371,-195,0,0,0,0,0,0,0,0,0,-1,853,1219,0,0
-364,-195,0,0,0,0,0,0,0,0,0,-1,860,1219,0,0
-357,-195,0,0,0,0,0,0,0,0,0,-1,867,1219,0,0
-350,-195,0,0,0,0,0,0,0,0,0,-1,874,1219,0,0
-343,-195,0,0,0,0,0,0,0,0,0,-1,881,1219,0,0
-336,-195,0,0,0,0,0,0,0,0,0,-1,888,1219,0,0
-329,-195,0,0,0,0,0,0,0,0,0,-1,895,1219,0,0
-322,-195,0,0,0,0,0,0,0,0,0,-1,902,1219,0,0
-315,-195,0,0,0,0,0,0,0,0,0,-1,909,1219,0,0
-308,-195,0,0,0,0,0,0,0,0,0,-1,916,1219,0,0
-301,-195,0,0,0,0,0,0,0,0,0,-1,923,1219,0,0
-294,-195,0,0,0,0,0,0,0,0,0,-1,930,1219,0,0
-287,-195,0,0,0,0,0,0,0,0,0,-1,937,1219,0,0
-280,-195,0,0,0,0,0,0,0,0,0,-1,944,1219,0,0
-273,-195,0,0,0,0,0,0,0,0,0,-1,951,1219,0,0
-266,-195,0,0,0,0,0,0,0,0,0,-1,958,1219,0,0
-259,-195,0,0,0,0,0,0,0,0,0,-1,965,1219,0,0
-252,-195,0,0,0,0,0,0,0,0,0,-1,972,1219,0,0
-245,-195,0,0,0,0,0,0,0,0,0,-1,979,1219,0,0
-238,-195,0,0,0,0,0,0,0,0,0,-1,986,1219,0,0
-231,-195,0,0,0,0,0,0,0,0,0,-1,993,1219,0,0
-224,-195,0,0,0,0,0,0,0,0,0,-1,1000,1219,0,0
-217,-195,0,0,0,0,0,0,0,0,0,-1,1007,1219,0,0
-210,-195,0,0,0,0,0,0,0,0,0,-1,1014,1219,0,0
-203,-195,0,0,0,0,0,0,0,0,0,-1,1021,1219,0,0
-196,-195,0,0,0,0,0,0,0,0,0,-1,1028,1219,0,0
-189,-195,0,0,0,0,0,0,0,0,0,-1,1035,1219,0,0
-182,-195,0,0,0,0,0,0,0,0,0,-1,1042,1219,0,0
-175,-195,0,0,0,0,0,0,0,0,0,-1,1049,1219,0,0
-168,-195,0,0,0,0,0,0,0,0,0,-1,1056,1219,0,0
-161,-195,0,0,0,0,0,0,0,0,0,-1,1063,1219,0,0
-154,-195,0,0,0,0,0,0,0,0,0,-1,1070,1219,0,0
-147,-195,0,0,0,0,0,0,0,0,0,-1,1077,1219,0,0
-140,-195,0,0,0,0,0,0,0,0,0,-1,1084,1219,0,0
-133,-195,0,0,0,0,0,0,0,0,0,-1,1091,1219,0,0
-126,-195,0,0,0,0,0,0,0,0,0,-1,1098,1219,0,0
-119,-195,0,0,0,0,0,0,0,0,0,-1,1105,1219,0,0
-112,-195,0,0,0,0,0,0,0,0,0,-1,1112,1219,0,0
-105,-195,0,0,0,0,0,0,0,0,0,-1,1119,1219,0,0
-98,-195,0,0,0,0,0,0,0,0,0,-1,1126,1219,0,0
-91,-195,0,0,0,0,0,0,0,0,0,-1,1133,1219,0,0
-84,-195,0,0,0,0,0,0,0,0,0,-1,1140,1219,0,0
-77,-195,0,0,0,0,0,0,0,0,0,-1,1147,1219,0,0
-70,-195,0,0,0,0,0,0,0,0,0,-1,1154,1219,0,0
-63,-195,0,0,0,0,0,0,0,0,0,-1,1161,1219,0,0
-56,-195,0,0,0,0,0,0,0,0,0,-1,1168,1219,0,0
-49,-195,0,0,0,0,0,0,0,0,0,-1,1175,1219,0,0
-42,-195,0,0,0,0,0,0,0,0,0,-1,1182,1219,0,0
-35,-195,0,0,0,0,0,0,0,0,0,-1,1189,1219,0,0
-28,-195,0,0,0,0,0,0,0,0,0,-1,1196,1219,0,0
-21,-195,0,0,0,0,0,0,0,0,0,-1,1203,1219,0,0
-14,-195,0,0,0,0,0,0,0,0,0,-1,1210,1219,0,0
-7,-195,0,0,0,0,0,0,0,0,0,-1,1217,1219,0,0
0,-195,0,0,0,0,0,0,0,0,0,-1,1224,1219,0,0
7,-195,0,0,0,0,0,0,0,0,0,-1,1231,1219,0,0
14,-195,0,0,0,0,0,0,0,0,0,-1,1238,1219,0,0
21,-195,0,0,0,0,0,0,0,0,0,-1,1245,1219,0,0
28,-195,0,0,0,0,0,0,0,0,0,-1,1252,1219,0,0
35,-195,0,0,0,0,0,0,0,0,0,-1,1259,1219,0,0
42,-195,0,0,0,0,0,0,0,0,0,-1,1266,1219,0,0
49,-195,0,0,0,0,0,0,0,0,0,-1,1273,1219,0,0
56,-195,0,0,0,0,0,0,0,0,0,-1,1280,1219,0,0
63,-195,0,0,0,0,0,0,0,0,0,-1,1287,1219,0,0
70,-195,0,0,0,0,0,0,0,0,0,-1,1294,1219,0,0
77,-195,0,0,0,0,0,0,0,0,0,-1,1301,1219,0,0
84,-195,0,0,0,0,0,0,0,0,0,-1,1308,1219,0,0
91,-195,0,0,0,0,0,0,0,0,0,-1,1315,1219,0,0
98,-195,0,0,0,0,0,0,0,0,0,-1,1322,1219,0,0
105,-195,0,0,0,0,0,0,0,0,0,-1,1329,1219,0,0
112,-195,0,0,0,0,0,0,0,0,0,-1,1336,1219,0,0
119,-195,0,0,0,0,0,0,0,0,0,-1,1343,1219,0,0
126,-195,0,0,0,0,0,0,0,0,0,-1,1350,1219,0,0
133,-195,0,0,0,0,0,0,0,0,0,-1,1357,1219,0,0
140,-195,0,0,0,0,0,0,0,0,0,-1,1364,1219,0,0
147,-195,0,0,0,0,0,0,0,0,0,-1,1371,1219,0,0
154,-195,0,0,0,0,0,0,0,0,0,-1,1378,1219,0,0
161,-195,0,0,0,0,0,0,0,0,0,-1,1385,1219,0,0
168,-195,0,0,0,0,0,0,0,0,0,-1,1392,1219,0,0
175,-195,0,0,0,0,0,0,0,0,0,-1,1399,1219,0,0
182,-195,0,0,0,0,0,0,0,0,0,-1,1406,1219,0,0
189,-195,0,0,0,0,0,0,0,0,0,-1,1413,1219,0,0
196,-195,0,0,0,0,0,0,0,0,0,-1,1420,1219,0,0
203,-195,0,0,0,0,0,0,0,0,0,-1,1427,1219,0,0
210,-195,0,0,0,0,0,0,0,0,0,-1,1434,1219,0,0
217,-195,0,0,0,0,0,0,0,0,0,-1,1441,1219,0,0
224,-195,0,0,0,0,0,0,0,0,0,-1,1448,1219,0,0
231,-195,0,0,0,0,0,0,0,0,0,-1,1455,1219,0,0
238,-195,0,0,0,0,0,0,0,0,0,-1,1462,1219,0,0
245,-195,0,0,0,0,0,0,0,0,0,-1,1469,1219,0,0
252,-195,0,0,0,0,0,0,0,0,0,-1,1476,1219,0,0
259,-195,0,0,0,0,0,0,0,0,0,-1,1483,1219,0,0
266,-195,0,0,0,0,0,0,0,0,0,-1,1490,1219,0,0
273,-195,0,0,0,0,0,0,0,0,0,-1,1497,1219,0,0
280,-195,0,0,0,0,0,0,0,0,0,-1,1504,1219,0,0
287,-195,0,0,0,0,0,0,0,0,0,-1,1511,1219,0,0
294,-195,0,0,0,0,0,0,0,0,0,-1,1518,1219,0,0
301,-195,0,0,0,0,0,0,0,0,0,-1,1525,1219,0,0
308,-195,0,0,0,0,0,0,0,0,0,-1,1532,1219,0,0
315,-195,0,0,0,0,0,0,0,0,0,-1,1539,1219,0,0
322,-195,0,0,0,0,0,0,0,0,0,-1,1546,1219,0,0
329,-195,0,0,0,0,0,0,0,0,0,-1,1553,1219,0,0
336,-195,0,0,0,0,0,0,0,0,0,-1,1560,1219,0,0
343,-195,0,0,0,0,0,0,0,0,0,-1,1567,1219,0,0
350,-195,0,0,0,0,0,0,0,0,0,-1,1574,1219,0,0
357,-195,0,0,0,0,0,0,0,0,0,-1,1581,1219,0,0
364,-195,0,0,0,0,0,0,0,0,0,-1,1588,1219,0,0
371,-195,0,0,0,0,0,0,0,0,0,-1,1595,1219,0,0
378,-195,0,0,0,0,0,0,0,0,0,-1,1602,1219,0,0
385,-195,0,0,0,0,0,0,0,0,0,-1,1609,1219,0,0
392,-195,0,0,0,0,0,0,0,0,0,-1,1616,1219,0,0
399,-195,0,0,0,0,0,0,0,0,0,-1,1623,1219,0,0
406,-195,0,0,0,0,0,0,0,0,0,-1,1630,1219,0,0
413,-195,0,0,0,0,0,0,0,0,0,-1,1637,1219,0,0
420,-195,0,0,0,0,0,0,0,0,0,-1,1644,1219,0,0
427,-195,0,0,0,0,0,0,0,0,0,-1,1651,1219,0,0
434,-195,0,0,0,0,0,0,0,0,0,-1,1658,1219,0,0
441,-195,0,0,0,0,0,0,0,0,0,-1,1665,1219,0,0
448,-195,0,0,0,0,0,0,0,0,0,-1,1672,1219,0,0
455,-195,0,0,0,0,0,0,0,0,0,-1,1679,1219,0,0
462,-195,0,0,0,0,0,0,0,0,0,-1,1686,1219,0,0
469,-195,0,0,0,0,0,0,0,0,0,-1,1693,1219,0,0
476,-195,0,0,0,0,0,0,0,0,0,-1,1700,1219,0,0
483,-195,0,0,0,0,0,0,0,0,0,-1,1707,1219,0,0
490,-195,0,0,0,0,0,0,0,0,0,-1,1714,1219,0,0
497,-195,0,0,0,0,0,0,0,0,0,-1,1721,1219,0,0
504,-195,0,0,0,0,0,0,0,0,0,-1,1728,1219,0,0
511,-195,0,0,0,0,0,0,0,0,0,-1,1735,1219,0,0
518,-195,0,0,0,0,0,0,0,0,0,-1,1742,1219,0,0
525,-195,0,0,0,0,0,0,0,0,0,-1,1749,1219,0,0
532,-195,0,0,0,0,0,0,0,0,0,-1,1756,1219,0,0
539,-195,0,0,0,0,0,0,0,0,0,-1,1763,1219,0,0
546,-195,0,0,0,0,0,0,0,0,0,-1,1770,1219,0,0
553,-195,0,0,0,0,0,0,0,0,0,-1,1777,1219,0,0
560,-195,0,0,0,0,0,0,0,0,0,-1,1784,1219,0,0
567,-195,0,0,0,0,0,0,0,0,0,-1,1791,1219,0,0
574,-195,0,0,0,0,0,0,0,0,0,-1,1798,1219,0,0
581,-195,0,0,0,0,0,0,0,0,0,-1,1805,1219,0,0
588,-195,0,0,0,0,0,0,0,0,0,-1,1812,1219,0,0
595,-195,0,0,0,0,0,0,0,0,0,-1,1819,1219,0,0
602,-195,0,0,0,0,0,0,0,0,0,-1,1826,1219,0,0
609,-195,0,0,0,0,0,0,0,0,0,-1,1833,1219,0,0
616,-195,0,0,0,0,0,0,0,0,0,-1,1840,1219,0,0
623,-195,0,0,0,0,0,0,0,0,0,-1,1847,1219,0,0
630,-195,26.8462,3.13342,-0.000621323,0.000770667,0.000787283,0.00112549,-0.000976148,1.14736,0.0012144,0.0388059,1854,1219,26.8462,-3.13339
637,-195,26.8932,3.17004,0.000926711,0.000502078,-6.34412e-05,0.000935986,0.000492802,-0.14518,0.000540645,0.0398583,1861,1219,26.8932,-3.17004
644,-195,26.8101,3.14441,0.00162112,0.00031254,-0.000192035,0.00164872,0.000284941,-0.142742,0.00101756,0.0361181,1868,1219,26.81,-3.1444
651,-195,26.8696,3.03723,0.00212578,-6.44425e-05,-0.000131885,0.0021337,-7.23556e-05,-0.0599267,0.00144719,0.0274168,1875,1219,26.8697,-3.03718
658,-195,26.8794,3.06348,0.0023637,-0.000516658,0.000105355,0.00236755,-0.000520506,0.0365119,0.00177746,0.0249574,1882,1219,26.8795,-3.06343
665,-195,26.8461,3.09546,0.00230728,-0.00101624,0.000424887,0.00236074,-0.0010697,0.125161,0.00202678,0.0214485,1889,1219,26.8461,-3.09541
672,-195,26.874,3.01404,0.00191296,-0.00146855,0.000788708,0.00208788,-0.00164346,0.218238,0.00215937,0.0310251,1896,1219,26.874,-3.01401
679,-195,26.7317,2.81299,0.00139336,-0.0017777,0.00118878,0.00178952,-0.00217386,0.321676,0.00229185,0.0474836,1903,1219,26.7317,-2.81299
686,-195,26.3289,3.11719,0.00090832,-0.00202235,0.00141984,0.00148337,-0.00259739,0.384816,0.00238511,0.0482587,1910,1219,26.3289,-3.11717
693,-195,23.532,5.93677,0,0,0,0,0,0,0,-1,1917,1219,23.532,-5.93676
700,-195,23.3995,6.0072,-2.71116e-05,-0.00211105,0.00184804,0.00105246,-0.00319063,0.5287,0.00255132,0.0460745,1924,1219,23.3996,-6.00715
707,-195,23.243,6.02917,-0.000566707,-0.00210929,0.00200528,0.000810495,-0.0034865,0.601804,0.00263636,0.0210183,1931,1219,23.243,-6.02916
714,-195,23.2152,5.78809,-0.00082752,-0.00206364,0.00205162,0.000697118,-0.00358828,0.639094,0.00265524,0.0204595,1938,1219,23.2152,-5.78807
721,-195,23.2111,5.59558,-0.000608981,-0.0018166,0.00225859,0.00112511,-0.00355069,0.654783,0.00281806,0.0124699,1945,1219,23.211,-5.5956
728,-195,23.199,5.40161,0.000551549,-0.00165922,0.00219268,0.00190171,-0.00300939,0.551927,0.00285936,0.0101998,1952,1219,23.199,-5.40158
735,-195,23.182,5.18237,0.00319561,-0.000768519,0.00187993,0.00394535,-0.00151825,0.379479,0.00325651,0.0122114,1959,1219,23.182,-5.18231
742,-195,23.1792,4.96887,0.00631381,0.000128764,0.00105125,0.0064876,-4.50287e-05,0.163839,0.00434015,0.0136384,1966,1219,23.1792,-4.96891
749,-195,23.1829,4.78674,0.0101283,0.00175145,0.000619235,0.0101738,0.00170592,0.0733904,0.00629149,0.0128945,1973,1219,23.1828,-4.78679
756,-195,23.1875,4.599,0.0148617,0.00334702,0.000760428,0.0149117,0.00329702,0.0656598,0.0090447,0.0119832,1980,1219,23.1874,-4.59895
763,-195,23.1852,4.38098,0.0202738,0.00546076,0.000687574,0.0203056,0.00542892,0.0462842,0.0121391,0.0134696,1987,1219,23.1851,-4.381
770,-195,23.2294,4.22327,0.026036,0.00840912,0.000848524,0.0260768,0.00836837,0.0479901,0.015374,0.0260487,1994,1219,23.2293,-4.22329
777,-195,24.1675,4.27979,0.0314731,0.0125011,0.00154088,0.0315974,0.0123768,0.0805156,0.0183849,0.0428869,2001,1219,24.1675,-4.2798
784,-195,24.9724,4.32385,0,0,0,0,0,0,0,-1,2008,1219,24.9724,-4.3239
791,-195,24.8317,3.2179,0,0,0,0,0,0,0,-1,2015,1219,24.8317,-3.21789
798,-195,25.8237,3.72168,0,0,0,0,0,0,0,-1,2022,1219,25.8237,-3.72173
805,-195,0,0,0,0,0,0,0,0,0,-1,2029,1219,0,0
812,-195,0,0,0,0,0,0,0,0,0,-1,2036,1219,0,0
-700,-202,0,0,0,0,0,0,0,0,0,-1,524,1226,0,0
-693,-202,0,0,0,0,0,0,0,0,0,-1,531,1226,0,0
-686,-202,0,0,0,0,0,0,0,0,0,-1,538,1226,0,0
-679,-202,-9.82788,-0.381714,0,0,0,0,0,0,0,-1,545,1226,-9.82788,0.381657
-672,-202,-14.6539,-0.548584,0,0,0,0,0,0,0,-1,552,1226,-14.654,0.548573
-665,-202,-14.2833,-0.610596,0,0,0,0,0,0,0,-1,559,1226,-14.2833,0.61058
-658,-202,-13.8458,-0.431274,0.0570988,0.00126148,0.0320125,0.0716566,-0.0132963,0.4268,0.0527646,0.0472668,566,1226,-13.8458,0.431334
-651,-202,-14.6597,0.375488,0.0471146,0.00134701,0.0243469,0.057644,-0.00918234,0.408183,0.0418274,0.0475667,573,1226,-14.6596,-0.375456
-644,-202,-14.3528,1.16602,0.0374484,0.00148324,0.0183591,0.0451647,-0.00623303,0.39788,0.032388,0.0473869,580,1226,-14.3528,-1.16599
-637,-202,-14.0746,1.71338,0,0,0,0,0,0,0,-1,587,1226,-14.0746,-1.71341
-630,-202,-14.1677,1.8927,0.0210826,0.00125757,0.00925956,0.0247346,-0.00239448,0.375677,0.0173431,0.0133524,594,1226,-14.1677,-1.89274
-623,-202,-14.1925,2.11267,0.0143726,0.000967958,0.00577865,0.0165198,-0.00117924,0.355764,0.0114266,0.00748781,601,1226,-14.1925,-2.11269
-616,-202,-14.2026,2.36096,0.00874102,0.00110755,0.00311893,0.00985331,-4.73624e-06,0.342562,0.00657045,0.00831651,608,1226,-14.2026,-2.36092
-609,-202,-14.215,2.5896,0.00370283,0.000873585,0.00129658,0.00420714,0.000369281,0.370943,0.00269013,0.0212551,615,1226,-14.215,-2.58954
-602,-202,-14.2197,2.8053,0.000711823,0.000567209,4.15683e-05,0.00072292,0.000556112,0.260874,0.000437086,0.0211372,622,1226,-14.2197,-2.80534
-595,-202,-14.2552,3.04468,-0.000767429,0.000154184,-0.00120999,0.000988147,-0.00160139,-0.967336,0.00150898,0.0157135,629,1226,-14.2552,-3.04469
-588,-202,-14.2043,3.32324,-0.00172733,-0.000116737,-0.00193957,0.00117807,-0.00302214,-0.982166,0.00250168,0.00789276,636,1226,-14.2043,-3.32321
-581,-202,-14.2238,3.46436,-0.00176948,-0.0011358,-0.00254881,0.00111579,-0.00402107,-0.847235,0.00311988,0.0176173,643,1226,-14.2237,-3.46441
-574,-202,-14.3683,3.50427,-0.00132585,-0.0016258,-0.00282486,0.00135301,-0.00430466,-0.758877,0.00341142,0.0266396,650,1226,-14.3683,-3.50422
-567,-202,-14.4786,3.54736,0,0,0,0,0,0,0,-1,657,1226,-14.4786,-3.5474
-560,-202,-10.929,2.73096,0,0,0,0,0,0,0,-1,664,1226,-10.929,-2.73092
-553,-202,-18.0406,1.1637,0,0,0,0,0,0,0,-1,671,1226,-18.0407,-1.1637
-546,-202,-18.0842,1.17407,-0.000326985,-0.00365236,-0.0023451,0.000885049,-0.00486439,-0.477026,0.00357466,0.0476987,678,1226,-18.0842,-1.1741
-539,-202,-18.2714,1.18445,-2.35267e-05,-0.00423022,-0.00210683,0.000850172,-0.00510392,-0.393113,0.00371854,0.0418708,685,1226,-18.2714,-1.18443
-532,-202,-18.3559,1.18469,0.000399889,-0.00470174,-0.00166552,0.000895484,-0.00519734,-0.289218,0.00379873,0.0304549,692,1226,-18.3559,-1.18473
-525,-202,-18.2764,1.05176,0.00126789,-0.00491307,-0.000854747,0.00138392,-0.00502909,-0.134915,0.00389683,0.0347201,699,1226,-18.2764,-1.0518
-518,-202,-18.1542,1.22034,0.00261877,-0.00465622,0.000326501,0.00263339,-0.00467084,0.04476,0.00427144,0.0381619,706,1226,-18.1542,-1.2203
-511,-202,-18.0194,1.2782,0.00613523,-0.00304096,0.00217575,0.00662498,-0.00353071,0.221405,0.00595342,0.0395843,713,1226,-18.0194,-1.27824
-504,-202,0,0,0,0,0,0,0,0,0,-1,720,1226,0,0
-497,-202,0,0,0,0,0,0,0,0,0,-1,727,1226,0,0
-490,-202,0,0,0,0,0,0,0,0,0,-1,734,1226,0,0
-483,-202,0,0,0,0,0,0,0,0,0,-1,741,1226,0,0
-476,-202,0,0,0,0,0,0,0,0,0,-1,748,1226,0,0
-469,-202,0,0,0,0,0,0,0,0,0,-1,755,1226,0,0
-462,-202,0,0,0,0,0,0,0,0,0,-1,762,1226,0,0
-455,-202,0,0,0,0,0,0,0,0,0,-1,769,1226,0,0
-448,-202,0,0,0,0,0,0,0,0,0,-1,776,1226,0,0
-441,-202,0,0,0,0,0,0,0,0,0,-1,783,1226,0,0
-434,-202,0,0,0,0,0,0,0,0,0,-1,790,1226,0,0
-427,-202,0,0,0,0,0,0,0,0,0,-1,797,1226,0,0
-420,-202,0,0,0,0,0,0,0,0,0,-1,804,1226,0,0
-413,-202,0,0,0,0,0,0,0,0,0,-1,811,1226,0,0
-406,-202,0,0,0,0,0,0,0,0,0,-1,818,1226,0,0
-399,-202,0,0,0,0,0,0,0,0,0,-1,825,1226,0,0
-392,-202,0,0,0,0,0,0,0,0,0,-1,832,1226,0,0
-385,-202,0,0,0,0,0,0,0,0,0,-1,839,1226,0,0
-378,-202,0,0,0,0,0,0,0,0,0,-1,846,1226,0,0
-371,-202,0,0,0,0,0,0,0,0,0,-1,853,1226,0,0
-364,-202,0,0,0,0,0,0,0,0,0,-1,860,1226,0,0
-357,-202,0,0,0,0,0,0,0,0,0,-1,867,1226,0,0
-350,-202,0,0,0,0,0,0,0,0,0,-1,874,1226,0,0
-343,-202,0,0,0,0,0,0,0,0,0,-1,881,1226,0,0
-336,-202,0,0,0,0,0,0,0,0,0,-1,888,1226,0,0
-329,-202,0,0,0,0,0,0,0,0,0,-1,895,1226,0,0
-322,-202,0,0,0,0,0,0,0,0,0,-1,902,1226,0,0
-315,-202,0,0,0,0,0,0,0,0,0,-1,909,1226,0,0
-308,-202,0,0,0,0,0,0,0,0,0,-1,916,1226,0,0
-301,-202,0,0,0,0,0,0,0,0,0,-1,923,1226,0,0
-294,-202,0,0,0,0,0,0,0,0,0,-1,930,1226,0,0
-287,-202,0,0,0,0,0,0,0,0,0,-1,937,1226,0,0
-280,-202,0,0,0,0,0,0,0,0,0,-1,944,1226,0,0
-273,-202,0,0,0,0,0,0,0,0,0,-1,951,1226,0,0
-266,-202,0,0,0,0,0,0,0,0,0,-1,958,1226,0,0
-259,-202,0,0,0,0,0,0,0,0,0,-1,965,1226,0,0
-252,-202,0,0,0,0,0,0,0,0,0,-1,972,1226,0,0
-245,-202,0,0,0,0,0,0,0,0,0,-1,979,1226,0,0
-238,-202,0,0,0,0,0,0,0,0,0,-1,986,1226,0,0
-231,-202,0,0,0,0,0,0,0,0,0,-1,993,1226,0,0
-224,-202,0,0,0,0,0,0,0,0,0,-1,1000,1226,0,0
-217,-202,0,0,0,0,0,0,0,0,0,-1,1007,1226,0,0
-210,-202,0,0,0,0,0,0,0,0,0,-1,1014,1226,0,0
-203,-202,0,0,0,0,0,0,0,0,0,-1,1021,1226,0,0
-196,-202,0,0,0,0,0,0,0,0,0,-1,1028,1226,0,0
-189,-202,0,0,0,0,0,0,0,0,0,-1,1035,1226,0,0
-182,-202,0,0,0,0,0,0,0,0,0,-1,1042,1226,0,0
-175,-202,0,0,0,0,0,0,0,0,0,-1,1049,1226,0,0
-168,-202,0,0,0,0,0,0,0,0,0,-1,1056,1226,0,0
-161,-202,0,0,0,0,0,0,0,0,0,-1,1063,1226,0,0
-154,-202,0,0,0,0,0,0,0,0,0,-1,1070,1226,0,0
-147,-202,0,0,0,0,0,0,0,0,0,-1,1077,1226,0,0
-140,-202,0,0,0,0,0,0,0,0,0,-1,1084,1226,0,0
-133,-202,0,0,0,0,0,0,0,0,0,-1,1091,1226,0,0
-126,-202,0,0,0,0,0,0,0,0,0,-1,1098,1226,0,0
-119,-202,0,0,0,0,0,0,0,0,0,-1,1105,1226,0,0
-112,-202,0,0,0,0,0,0,0,0,0,-1,1112,1226,0,0
-105,-202,0,0,0,0,0,0,0,0,0,-1,1119,1226,0,0
-98,-202,0,0,0,0,0,0,0,0,0,-1,1126,1226,0,0
-91,-202,0,0,0,0,0,0,0,0,0,-1,1133,1226,0,0
-84,-202,0,0,0,0,0,0,0,0,0,-1,1140,1226,0,0
-77,-202,0,0,0,0,0,0,0,0,0,-1,1147,1226,0,0
-70,-202,0,0,0,0,0,0,0,0,0,-1,1154,1226,0,0
-63,-202,0,0,0,0,0,0,0,0,0,-1,1161,1226,0,0
-56,-202,0,0,0,0,0,0,0,0,0,-1,1168,1226,0,0
-49,-202,0,0,0,0,0,0,0,0,0,-1,1175,1226,0,0
-42,-202,0,0,0,0,0,0,0,0,0,-1,1182,1226,0,0
-35,-202,0,0,0,0,0,0,0,0,0,-1,1189,1226,0,0
-28,-202,0,0,0,0,0,0,0,0,0,-1,1196,1226,0,0
-21,-202,0,0,0,0,0,0,0,0,0,-1,1203,1226,0,0
-14,-202,0,0,0,0,0,0,0,0,0,-1,1210,1226,0,0
-7,-202,0,0,0,0,0,0,0,0,0,-1,1217,1226,0,0
0,-202,0,0,0,0,0,0,0,0,0,-1,1224,1226,0,0
7,-202,0,0,0,0,0,0,0,0,0,-1,1231,1226,0,0
14,-202,0,0,0,0,0,0,0,0,0,-1,1238,1226,0,0
21,-202,0,0,0,0,0,0,0,0,0,-1,1245,1226,0,0
28,-202,0,0,0,0,0,0,0,0,0,-1,1252,1226,0,0
35,-202,0,0,0,0,0,0,0,0,0,-1,1259,1226,0,0
42,-202,0,0,0,0,0,0,0,0,0,-1,1266,1226,0,0
49,-202,0,0,0,0,0,0,0,0,0,-1,1273,1226,0,0
56,-202,0,0,0,0,0,0,0,0,0,-1,1280,1226,0,0
63,-202,0,0,0,0,0,0,0,0,0,-1,1287,1226,0,0
70,-202,0,0,0,0,0,0,0,0,0,-1,1294,1226,0,0
77,-202,0,0,0,0,0,0,0,0,0,-1,1301,1226,0,0
84,-202,0,0,0,0,0,0,0,0,0,-1,1308,1226,0,0
91,-202,0,0,0,0,0,0,0,0,0,-1,1315,1226,0,0
98,-202,0,0,0,0,0,0,0,0,0,-1,1322,1226,0,0
105,-202,0,0,0,0,0,0,0,0,0,-1,1329,1226,0,0
112,-202,0,0,0,0,0,0,0,0,0,-1,1336,1226,0,0
119,-202,0,0,0,0,0,0,0,0,0,-1,1343,1226,0,0
126,-202,0,0,0,0,0,0,0,0,0,-1,1350,1226,0,0
133,-202,0,0,0,0,0,0,0,0,0,-1,1357,1226,0,0
140,-202,0,0,0,0,0,0,0,0,0,-1,1364,1226,0,0
147,-202,0,0,0,0,0,0,0,0,0,-1,1371,1226,0,0
154,-202,0,0,0,0,0,0,0,0,0,-1,1378,1226,0,0
161,-202,0,0,0,0,0,0,0,0,0,-1,1385,1226,0,0
168,-202,0,0,0,0,0,0,0,0,0,-1,1392,1226,0,0
175,-202,0,0,0,0,0,0,0,0,0,-1,1399,1226,0,0
182,-202,0,0,0,0,0,0,0,0,0,-1,1406,1226,0,0
189,-202,0,0,0,0,0,0,0,0,0,-1,1413,1226,0,0
196,-202,0,0,0,0,0,0,0,0,0,-1,1420,1226,0,0
203,-202,0,0,0,0,0,0,0,0,0,-1,1427,1226,0,0
210,-202,0,0,0,0,0,0,0,0,0,-1,1434,1226,0,0
217,-202,0,0,0,0,0,0,0,0,0,-1,1441,1226,0,0
224,-202,0,0,0,0,0,0,0,0,0,-1,1448,1226,0,0
231,-202,0,0,0,0,0,0,0,0,0,-1,1455,1226,0,0
238,-202,0,0,0,0,0,0,0,0,0,-1,1462,1226,0,0
245,-202,0,0,0,0,0,0,0,0,0,-1,1469,1226,0,0
252,-202,0,0,0,0,0,0,0,0,0,-1,1476,1226,0,0
259,-202,0,0,0,0,0,0,0,0,0,-1,1483,1226,0,0
266,-202,0,0,0,0,0,0,0,0,0,-1,1490,1226,0,0
273,-202,0,0,0,0,0,0,0,0,0,-1,1497,1226,0,0
280,-202,0,0,0,0,0,0,0,0,0,-1,1504,1226,0,0
287,-202,0,0,0,0,0,0,0,0,0,-1,1511,1226,0,0
294,-202,0,0,0,0,0,0,0,0,0,-1,1518,1226,0,0
301,-202,0,0,0,0,0,0,0,0,0,-1,1525,1226,0,0
308,-202,0,0,0,0,0,0,0,0,0,-1,1532,1226,0,0
315,-202,0,0,0,0,0,0,0,0,0,-1,1539,1226,0,0
322,-202,0,0,0,0,0,0,0,0,0,-1,1546,1226,0,0
329,-202,0,0,0,0,0,0,0,0,0,-1,1553,1226,0,0
336,-202,0,0,0,0,0,0,0,0,0,-1,1560,1226,0,0
343,-202,0,0,0,0,0,0,0,0,0,-1,1567,1226,0,0
350,-202,0,0,0,0,0,0,0,0,0,-1,1574,1226,0,0
357,-202,0,0,0,0,0,0,0,0,0,-1,1581,1226,0,0
364,-202,0,0,0,0,0,0,0,0,0,-1,1588,1226,0,0
371,-202,0,0,0,0,0,0,0,0,0,-1,1595,1226,0,0
378,-202,0,0,0,0,0,0,0,0,0,-1,1602,1226,0,0
385,-202,0,0,0,0,0,0,0,0,0,-1,1609,1226,0,0
392,-202,0,0,0,0,0,0,0,0,0,-1,1616,1226,0,0
399,-202,0,0,0,0,0,0,0,0,0,-1,1623,1226,0,0
406,-202,0,0,0,0,0,0,0,0,0,-1,1630,1226,0,0
413,-202,0,0,0,0,0,0,0,0,0,-1,1637,1226,0,0
420,-202,0,0,0,0,0,0,0,0,0,-1,1644,1226,0,0
427,-202,0,0,0,0,0,0,0,0,0,-1,1651,1226,0,0
434,-202,0,0,0,0,0,0,0,0,0,-1,1658,1226,0,0
441,-202,0,0,0,0,0,0,0,0,0,-1,1665,1226,0,0
448,-202,0,0,0,0,0,0,0,0,0,-1,1672,1226,0,0
455,-202,0,0,0,0,0,0,0,0,0,-1,1679,1226,0,0
462,-202,0,0,0,0,0,0,0,0,0,-1,1686,1226,0,0
469,-202,0,0,0,0,0,0,0,0,0,-1,1693,1226,0,0
476,-202,0,0,0,0,0,0,0,0,0,-1,1700,1226,0,0
483,-202,0,0,0,0,0,0,0,0,0,-1,1707,1226,0,0
490,-202,0,0,0,0,0,0,0,0,0,-1,1714,1226,0,0
497,-202,0,0,0,0,0,0,0,0,0,-1,1721,1226,0,0
504,-202,0,0,0,0,0,0,0,0,0,-1,1728,1226,0,0
511,-202,0,0,0,0,0,0,0,0,0,-1,1735,1226,0,0
518,-202,0,0,0,0,0,0,0,0,0,-1,1742,1226,0,0
525,-202,0,0,0,0,0,0,0,0,0,-1,1749,1226,0,0
532,-202,0,0,0,0,0,0,0,0,0,-1,1756,1226,0,0
539,-202,0,0,0,0,0,0,0,0,0,-1,1763,1226,0,0
546,-202,0,0,0,0,0,0,0,0,0,-1,1770,1226,0,0
553,-202,0,0,0,0,0,0,0,0,0,-1,1777,1226,0,0
560,-202,0,0,0,0,0,0,0,0,0,-1,1784,1226,0,0
567,-202,0,0,0,0,0,0,0,0,0,-1,1791,1226,0,0
574,-202,0,0,0,0,0,0,0,0,0,-1,1798,1226,0,0
581,-202,0,0,0,0,0,0,0,0,0,-1,1805,1226,0,0
588,-202,0,0,0,0,0,0,0,0,0,-1,1812,1226,0,0
595,-202,0,0,0,0,0,0,0,0,0,-1,1819,1226,0,0
602,-202,0,0,0,0,0,0,0,0,0,-1,1826,1226,0,0
609,-202,0,0,0,0,0,0,0,0,0,-1,1833,1226,0,0
616,-202,0,0,0,0,0,0,0,0,0,-1,1840,1226,0,0
623,-202,0,0,0,0,0,0,0,0,0,-1,1847,1226,0,0
630,-202,26.8218,3.07886,-0.000193306,0.00104044,0.000149612,0.00105832,-0.00021119,1.45183,0.000785468,0.0344331,1854,1226,26.8218,-3.07883
637,-202,26.934,3.16406,0.00108459,0.000700744,-0.000472544,0.0014027,0.000382637,-0.592498,0.00083726,0.0345069,1861,1226,26.9339,-3.16411
644,-202,26.9281,3.18201,0.00176037,0.000421255,-0.00048664,0.00191854,0.000263089,-0.314246,0.00120097,0.0324215,1868,1226,26.9281,-3.18205
651,-202,26.8848,3.12952,0.0022832,-4.57253e-05,-0.000327097,0.00232827,-9.07938e-05,-0.136921,0.00158331,0.026094,1875,1226,26.8847,-3.12949
658,-202,26.8552,3.10046,0.0025758,-0.000512266,-6.44641e-05,0.00257714,-0.000513611,-0.0208631,0.00191243,0.0224177,1882,1226,26.8552,-3.10047
665,-202,26.8857,3.06421,0.00258587,-0.000975522,0.000253327,0.0026038,-0.000993451,0.0706574,0.00214512,0.0200353,1889,1226,26.8858,-3.06426
672,-202,27.0004,3.12073,0.00229405,-0.00140549,0.000585618,0.00238454,-0.00149598,0.153303,0.00225991,0.0409544,1896,1226,27.0003,-3.12079
679,-202,27.2413,3.66516,0.00190681,-0.00168203,0.000946463,0.00214112,-0.00191634,0.242682,0.00234377,0.0464543,1903,1226,27.2413,-3.66514
686,-202,27.3898,3.9917,0,0,0,0,0,0,0,-1,1910,1226,27.3897,-3.99166
693,-202,22.8734,6.45386,0,0,0,0,0,0,0,-1,1917,1226,22.8734,-6.45392
700,-202,22.8888,6.23669,0.000624116,-0.00207779,0.00167649,0.00142623,-0.00287991,0.446257,0.00253293,0.033627,1924,1226,22.8888,-6.23674
707,-202,22.9398,5.98328,8.06084e-05,-0.00209436,0.00186966,0.00115605,-0.0031698,0.521989,0.00258616,0.0276547,1931,1226,22.9399,-5.98327
714,-202,22.9883,5.79248,-0.000167145,-0.0020328,0.00191751,0.0010324,-0.00323235,0.559012,0.00256914,0.015957,1938,1226,22.9883,-5.79253
721,-202,23.015,5.58704,5.76978e-05,-0.0017192,0.00216128,0.00150602,-0.00316752,0.590389,0.00275452,0.0124352,1945,1226,23.015,-5.58709
728,-202,23.0045,5.39343,0.00137019,-0.00153244,0.0021141,0.00248319,-0.00264545,0.484596,0.00296152,0.0106449,1952,1226,23.0045,-5.39344
735,-202,22.9913,5.19238,0.00435845,-0.000698015,0.001885,0.00498382,-0.00132338,0.320334,0.00384045,0.0111769,1959,1226,22.9913,-5.19242
742,-202,22.9895,4.98376,0.00798291,9.32174e-05,0.00128268,0.00818621,-0.000110079,0.157185,0.00549453,0.0102928,1966,1226,22.9895,-4.98373
749,-202,22.9869,4.78162,0.0123825,0.00142066,0.00107465,0.0124869,0.0013163,0.0968075,0.00792234,0.00926565,1973,1226,22.987,-4.78166
756,-202,22.9757,4.57397,0.0178308,0.00269963,0.00140643,0.0179604,0.00257002,0.0919,0.0112155,0.00994773,1980,1226,22.9757,-4.574
763,-202,22.9838,4.37842,0.0243456,0.00440168,0.00162651,0.0244774,0.00426991,0.0808422,0.0150976,0.0149313,1987,1226,22.9838,-4.37842
770,-202,23.1609,4.44263,0.0316427,0.00679317,0.00215033,0.0318274,0.00660847,0.0856853,0.0193944,0.0352327,1994,1226,23.1609,-4.44257
777,-202,24.2203,4.26367,0.0391015,0.0101662,0.00328323,0.0394693,0.00979835,0.111578,0.0237309,0.0475745,2001,1226,24.2203,-4.26362
784,-202,25.0858,4.16931,0.0458577,0.0148712,0.00550654,0.0468071,0.0139217,0.170746,0.0277536,0.0457164,2008,1226,25.0858,-4.16936
791,-202,25.9094,4.07227,0,0,0,0,0,0,0,-1,2015,1226,25.9094,-4.07231
798,-202,26.2422,3.99561,0,0,0,0,0,0,0,-1,2022,1226,26.2422,-3.9956
805,-202,0,0,0,0,0,0,0,0,0,-1,2029,1226,0,0
812,-202,0,0,0,0,0,0,0,0,0,-1,2036,1226,0,0
-700,-209,0,0,0,0,0,0,0,0,0,-1,524,1233,0,0
-693,-209,0,0,0,0,0,0,0,0,0,-1,531,1233,0,0
-686,-209,0,0,0,0,0,0,0,0,0,-1,538,1233,0,0
-679,-209,-16.0316,-0.057251,0,0,0,0,0,0,0,-1,545,1233,-16.0315,0.0572229
-672,-209,-15.4368,-0.0963135,0,0,0,0,0,0,0,-1,552,1233,-15.4367,0.0963051
-665,-209,-14.7715,-0.178955,0.0700264,-0.00254705,0.0332166,0.0829339,-0.0154545,0.370627,0.0610958,0.0455345,559,1233,-14.7715,0.178897
-658,-209,-14.1499,-0.120483,0.0595288,-0.00158846,0.0250694,0.0684962,-0.0105558,0.34352,0.0495589,0.0455931,566,1233,-14.1499,0.120427
-651,-209,-14.1683,0.251587,0,0,0,0,0,0,0,-1,573,1233,-14.1683,-0.251529
-644,-209,-14.0192,1.03748,0,0,0,0,0,0,0,-1,580,1233,-14.0192,-1.03746
-637,-209,-13.8702,1.82336,0,0,0,0,0,0,0,-1,587,1233,-13.8702,-1.82339
-630,-209,-13.8834,1.8175,0.0216044,0.000995928,0.00779515,0.0242208,-0.00162042,0.323824,0.0167135,0.0228047,594,1233,-13.8834,-1.8175
-623,-209,-13.939,2.09229,0.0147555,0.000967637,0.00506538,0.0164164,-0.000693213,0.316837,0.0111825,0.010878,601,1233,-13.939,-2.09227
-616,-209,-13.9547,2.34436,0.00916769,0.00138027,0.00286902,0.0101105,0.000437428,0.317511,0.00659938,0.0121908,608,1233,-13.9547,-2.34437
-609,-209,-13.967,2.599,0.00412199,0.00113258,0.00141199,0.00468346,0.000571107,0.378475,0.00295042,0.0142928,615,1233,-13.967,-2.59897
-602,-209,-13.9729,2.82849,0.00101144,0.000737822,0.000301571,0.00120578,0.000543479,0.572453,0.000697286,0.0150688,622,1233,-13.9729,-2.82853
-595,-209,-13.9543,3.06934,-0.000441601,0.000301965,-0.00088789,0.000892768,-0.0010324,-0.983671,0.00111247,0.0117728,629,1233,-13.9543,-3.06935
-588,-209,-13.935,3.32813,-0.00124524,-5.86692e-05,-0.00153802,0.00099653,-0.00230044,-0.969477,0.0019525,0.012741,636,1233,-13.935,-3.32807
-581,-209,-13.8527,3.57556,-0.00118684,-0.00123296,-0.00211145,0.000901673,-0.00332147,-0.779938,0.00256819,0.0176531,643,1233,-13.8527,-3.57553
-574,-209,-14.0303,3.74341,-0.000766139,-0.00179603,-0.00243548,0.00120824,-0.0037704,-0.681215,0.00299862,0.0240573,650,1233,-14.0303,-3.7434
-567,-209,-14.1918,3.81665,0,0,0,0,0,0,0,-1,657,1233,-14.1919,-3.81661
-560,-209,-13.9294,4.16626,0,0,0,0,0,0,0,-1,664,1233,-13.9294,-4.16621
-553,-209,-17.8685,1.36841,0,0,0,0,0,0,0,-1,671,1233,-17.8685,-1.36844
-546,-209,-17.8797,1.276,-0.000244211,-0.00410102,-0.00192132,0.000549552,-0.00489479,-0.391778,0.00346095,0.0461332,678,1233,-17.8797,-1.27606
-539,-209,-18.2148,1.2262,-0.000251981,-0.00473001,-0.00175154,0.000351727,-0.00533372,-0.331921,0.00367867,0.0404041,685,1233,-18.2148,-1.22626
-532,-209,-18.272,1.28271,-0.00026828,-0.00524324,-0.00144595,0.000121448,-0.00563296,-0.263275,0.00379644,0.0328773,692,1233,-18.272,-1.2827
-525,-209,-18.3811,1.32837,-4.30392e-05,-0.00549002,-0.000878037,9.49993e-05,-0.00562806,-0.155937,0.0037841,0.0340815,699,1233,-18.3811,-1.32834
-518,-209,-18.4489,1.38953,0.00048075,-0.00522754,6.63173e-06,0.000480757,-0.00522755,0.00116177,0.00365584,0.0405281,706,1233,-18.4489,-1.3895
-511,-209,-18.4055,1.37317,0.00292101,-0.0035778,0.00152092,0.00325934,-0.00391613,0.218886,0.00414854,0.040344,713,1233,-18.4055,-1.37318
-504,-209,0,0,0,0,0,0,0,0,0,-1,720,1233,0,0
-497,-209,0,0,0,0,0,0,0,0,0,-1,727,1233,0,0
-490,-209,0,0,0,0,0,0,0,0,0,-1,734,1233,0,0
-483,-209,0,0,0,0,0,0,0,0,0,-1,741,1233,0,0
-476,-209,0,0,0,0,0,0,0,0,0,-1,748,1233,0,0
-469,-209,0,0,0,0,0,0,0,0,0,-1,755,1233,0,0
-462,-209,0,0,0,0,0,0,0,0,0,-1,762,1233,0,0
-455,-209,0,0,0,0,0,0,0,0,0,-1,769,1233,0,0
-448,-209,0,0,0,0,0,0,0,0,0,-1,776,1233,0,0
-441,-209,0,0,0,0,0,0,0,0,0,-1,783,1233,0,0
-434,-209,0,0,0,0,0,0,0,0,0,-1,790,1233,0,0
-427,-209,0,0,0,0,0,0,0,0,0,-1,797,1233,0,0
-420,-209,0,0,0,0,0,0,0,0,0,-1,804,1233,0,0
-413,-209,0,0,0,0,0,0,0,0,0,-1,811,1233,0,0
-406,-209,0,0,0,0,0,0,0,0,0,-1,818,1233,0,0
-399,-209,0,0,0,0,0,0,0,0,0,-1,825,1233,0,0
-392,-209,0,0,0,0,0,0,0,0,0,-1,832,1233,0,0
-385,-209,0,0,0,0,0,0,0,0,0,-1,839,1233,0,0
-378,-209,0,0,0,0,0,0,0,0,0,-1,846,1233,0,0
-371,-209,0,0,0,0,0,0,0,0,0,-1,853,1233,0,0
-364,-209,0,0,0,0,0,0,0,0,0,-1,860,1233,0,0
-357,-209,0,0,0,0,0,0,0,0,0,-1,867,1233,0,0
-350,-209,0,0,0,0,0,0,0,0,0,-1,874,1233,0,0
-343,-209,0,0,0,0,0,0,0,0,0,-1,881,1233,0,0
-336,-209,0,0,0,0,0,0,0,0,0,-1,888,1233,0,0
-329,-209,0,0,0,0,0,0,0,0,0,-1,895,1233,0,0
-322,-209,0,0,0,0,0,0,0,0,0,-1,902,1233,0,0
-315,-209,0,0,0,0,0,0,0,0,0,-1,909,1233,0,0
-308,-209,0,0,0,0,0,0,0,0,0,-1,916,1233,0,0
-301,-209,0,0,0,0,0,0,0,0,0,-1,923,1233,0,0
-294,-209,0,0,0,0,0,0,0,0,0,-1,930,1233,0,0
-287,-209,0,0,0,0,0,0,0,0,0,-1,937,1233,0,0
-280,-209,0,0,0,0,0,0,0,0,0,-1,944,1233,0,0
-273,-209,0,0,0,0,0,0,0,0,0,-1,951,1233,0,0
-266,-209,0,0,0,0,0,0,0,0,0,-1,958,1233,0,0
-259,-209,0,0,0,0,0,0,0,0,0,-1,965,1233,0,0
-252,-209,0,0,0,0,0,0,0,0,0,-1,972,1233,0,0
-245,-209,0,0,0,0,0,0,0,0,0,-1,979,1233,0,0
-238,-209,0,0,0,0,0,0,0,0,0,-1,986,1233,0,0
-231,-209,0,0,0,0,0,0,0,0,0,-1,993,1233,0,0
-224,-209,0,0,0,0,0,0,0,0,0,-1,1000,1233,0,0
-217,-209,0,0,0,0,0,0,0,0,0,-1,1007,1233,0,0
-210,-209,0,0,0,0,0,0,0,0,0,-1,1014,1233,0,0
-203,-209,0,0,0,0,0,0,0,0,0,-1,1021,1233,0,0
-196,-209,0,0,0,0,0,0,0,0,0,-1,1028,1233,0,0
-189,-209,0,0,0,0,0,0,0,0,0,-1,1035,1233,0,0
-182,-209,0,0,0,0,0,0,0,0,0,-1,1042,1233,0,0
-175,-209,0,0,0,0,0,0,0,0,0,-1,1049,1233,0,0
-168,-209,0,0,0,0,0,0,0,0,0,-1,1056,1233,0,0
-161,-209,0,0,0,0,0,0,0,0,0,-1,1063,1233,0,0
-154,-209,0,0,0,0,0,0,0,0,0,-1,1070,1233,0,0
-147,-209,0,0,0,0,0,0,0,0,0,-1,1077,1233,0,0
-140,-209,0,0,0,0,0,0,0,0,0,-1,1084,1233,0,0
-133,-209,0,0,0,0,0,0,0,0,0,-1,1091,1233,0,0
-126,-209,0,0,0,0,0,0,0,0,0,-1,1098,1233,0,0
-119,-209,0,0,0,0,0,0,0,0,0,-1,1105,1233,0,0
-112,-209,0,0,0,0,0,0,0,0,0,-1,1112,1233,0,0
-105,-209,0,0,0,0,0,0,0,0,0,-1,1119,1233,0,0
-98,-209,0,0,0,0,0,0,0,0,0,-1,1126,1233,0,0
-91,-209,0,0,0,0,0,0,0,0,0,-1,1133,1233,0,0
-84,-209,0,0,0,0,0,0,0,0,0,-1,1140,1233,0,0
-77,-209,0,0,0,0,0,0,0,0,0,-1,1147,1233,0,0
-70,-209,0,0,0,0,0,0,0,0,0,-1,1154,1233,0,0
-63,-209,0,0,0,0,0,0,0,0,0,-1,1161,1233,0,0
-56,-209,0,0,0,0,0,0,0,0,0,-1,1168,1233,0,0
-49,-209,0,0,0,0,0,0,0,0,0,-1,1175,1233,0,0
-42,-209,0,0,0,0,0,0,0,0,0,-1,1182,1233,0,0
-35,-209,0,0,0,0,0,0,0,0,0,-1,1189,1233,0,0
-28,-209,0,0,0,0,0,0,0,0,0,-1,1196,1233,0,0
-21,-209,0,0,0,0,0,0,0,0,0,-1,1203,1233,0,0
-14,-209,0,0,0,0,0,0,0,0,0,-1,1210,1233,0,0
-7,-209,0,0,0,0,0,0,0,0,0,-1,1217,1233,0,0
0,-209,0,0,0,0,0,0,0,0,0,-1,1224,1233,0,0
7,-209,0,0,0,0,0,0,0,0,0,-1,1231,1233,0,0
14,-209,0,0,0,0,0,0,0,0,0,-1,1238,1233,0,0
21,-209,0,0,0,0,0,0,0,0,0,-1,1245,1233,0,0
28,-209,0,0,0,0,0,0,0,0,0,-1,1252,1233,0,0
35,-209,0,0,0,0,0,0,0,0,0,-1,1259,1233,0,0
42,-209,0,0,0,0,0,0,0,0,0,-1,1266,1233,0,0
49,-209,0,0,0,0,0,0,0,0,0,-1,1273,1233,0,0
56,-209,0,0,0,0,0,0,0,0,0,-1,1280,1233,0,0
63,-209,0,0,0,0,0,0,0,0,0,-1,1287,1233,0,0
70,-209,0,0,0,0,0,0,0,0,0,-1,1294,1233,0,0
77,-209,0,0,0,0,0,0,0,0,0,-1,1301,1233,0,0
84,-209,0,0,0,0,0,0,0,0,0,-1,1308,1233,0,0
91,-209,0,0,0,0,0,0,0,0,0,-1,1315,1233,0,0
98,-209,0,0,0,0,0,0,0,0,0,-1,1322,1233,0,0
105,-209,0,0,0,0,0,0,0,0,0,-1,1329,1233,0,0
112,-209,0,0,0,0,0,0,0,0,0,-1,1336,1233,0,0
119,-209,0,0,0,0,0,0,0,0,0,-1,1343,1233,0,0
126,-209,0,0,0,0,0,0,0,0,0,-1,1350,1233,0,0
133,-209,0,0,0,0,0,0,0,0,0,-1,1357,1233,0,0
140,-209,0,0,0,0,0,0,0,0,0,-1,1364,1233,0,0
147,-209,0,0,0,0,0,0,0,0,0,-1,1371,1233,0,0
154,-209,0,0,0,0,0,0,0,0,0,-1,1378,1233,0,0
161,-209,0,0,0,0,0,0,0,0,0,-1,1385,1233,0,0
168,-209,0,0,0,0,0,0,0,0,0,-1,1392,1233,0,0
175,-209,0,0,0,0,0,0,0,0,0,-1,1399,1233,0,0
182,-209,0,0,0,0,0,0,0,0,0,-1,1406,1233,0,0
189,-209,0,0,0,0,0,0,0,0,0,-1,1413,1233,0,0
196,-209,0,0,0,0,0,0,0,0,0,-1,1420,1233,0,0
203,-209,0,0,0,0,0,0,0,0,0,-1,1427,1233,0,0
210,-209,0,0,0,0,0,0,0,0,0,-1,1434,1233,0,0
217,-209,0,0,0,0,0,0,0,0,0,-1,1441,1233,0,0
224,-209,0,0,0,0,0,0,0,0,0,-1,1448,1233,0,0
231,-209,0,0,0,0,0,0,0,0,0,-1,1455,1233,0,0
238,-209,0,0,0,0,0,0,0,0,0,-1,1462,1233,0,0
245,-209,0,0,0,0,0,0,0,0,0,-1,1469,1233,0,0
252,-209,0,0,0,0,0,0,0,0,0,-1,1476,1233,0,0
259,-209,0,0,0,0,0,0,0,0,0,-1,1483,1233,0,0
266,-209,0,0,0,0,0,0,0,0,0,-1,1490,1233,0,0
273,-209,0,0,0,0,0,0,0,0,0,-1,1497,1233,0,0
280,-209,0,0,0,0,0,0,0,0,0,-1,1504,1233,0,0
287,-209,0,0,0,0,0,0,0,0,0,-1,1511,1233,0,0
294,-209,0,0,0,0,0,0,0,0,0,-1,1518,1233,0,0
301,-209,0,0,0,0,0,0,0,0,0,-1,1525,1233,0,0
308,-209,0,0,0,0,0,0,0,0,0,-1,1532,1233,0,0
315,-209,0,0,0,0,0,0,0,0,0,-1,1539,1233,0,0
322,-209,0,0,0,0,0,0,0,0,0,-1,1546,1233,0,0
329,-209,0,0,0,0,0,0,0,0,0,-1,1553,1233,0,0
336,-209,0,0,0,0,0,0,0,0,0,-1,1560,1233,0,0
343,-209,0,0,0,0,0,0,0,0,0,-1,1567,1233,0,0
350,-209,0,0,0,0,0,0,0,0,0,-1,1574,1233,0,0
357,-209,0,0,0,0,0,0,0,0,0,-1,1581,1233,0,0
364,-209,0,0,0,0,0,0,0,0,0,-1,1588,1233,0,0
371,-209,0,0,0,0,0,0,0,0,0,-1,1595,1233,0,0
378,-209,0,0,0,0,0,0,0,0,0,-1,1602,1233,0,0
385,-209,0,0,0,0,0,0,0,0,0,-1,1609,1233,0,0
392,-209,0,0,0,0,0,0,0,0,0,-1,1616,1233,0,0
399,-209,0,0,0,0,0,0,0,0,0,-1,1623,1233,0,0
406,-209,0,0,0,0,0,0,0,0,0,-1,1630,1233,0,0
413,-209,0,0,0,0,0,0,0,0,0,-1,1637,1233,0,0
420,-209,0,0,0,0,0,0,0,0,0,-1,1644,1233,0,0
427,-209,0,0,0,0,0,0,0,0,0,-1,1651,1233,0,0
434,-209,0,0,0,0,0,0,0,0,0,-1,1658,1233,0,0
441,-209,0,0,0,0,0,0,0,0,0,-1,1665,1233,0,0
448,-209,0,0,0,0,0,0,0,0,0,-1,1672,1233,0,0
455,-209,0,0,0,0,0,0,0,0,0,-1,1679,1233,0,0
462,-209,0,0,0,0,0,0,0,0,0,-1,1686,1233,0,0
469,-209,0,0,0,0,0,0,0,0,0,-1,1693,1233,0,0
476,-209,0,0,0,0,0,0,0,0,0,-1,1700,1233,0,0
483,-209,0,0,0,0,0,0,0,0,0,-1,1707,1233,0,0
490,-209,0,0,0,0,0,0,0,0,0,-1,1714,1233,0,0
497,-209,0,0,0,0,0,0,0,0,0,-1,1721,1233,0,0
504,-209,0,0,0,0,0,0,0,0,0,-1,1728,1233,0,0
511,-209,0,0,0,0,0,0,0,0,0,-1,1735,1233,0,0
518,-209,0,0,0,0,0,0,0,0,0,-1,1742,1233,0,0
525,-209,0,0,0,0,0,0,0,0,0,-1,1749,1233,0,0
532,-209,0,0,0,0,0,0,0,0,0,-1,1756,1233,0,0
539,-209,0,0,0,0,0,0,0,0,0,-1,1763,1233,0,0
546,-209,0,0,0,0,0,0,0,0,0,-1,1770,1233,0,0
553,-209,0,0,0,0,0,0,0,0,0,-1,1777,1233,0,0
560,-209,0,0,0,0,0,0,0,0,0,-1,1784,1233,0,0
567,-209,0,0,0,0,0,0,0,0,0,-1,1791,1233,0,0
574,-209,0,0,0,0,0,0,0,0,0,-1,1798,1233,0,0
581,-209,0,0,0,0,0,0,0,0,0,-1,1805,1233,0,0
588,-209,0,0,0,0,0,0,0,0,0,-1,1812,1233,0,0
595,-209,0,0,0,0,0,0,0,0,0,-1,1819,1233,0,0
602,-209,0,0,0,0,0,0,0,0,0,-1,1826,1233,0,0
609,-209,0,0,0,0,0,0,0,0,0,-1,1833,1233,0,0
616,-209,0,0,0,0,0,0,0,0,0,-1,1840,1233,0,0
623,-209,26.8236,3.08752,-0.00103425,0.000127232,-0.000292058,0.000196535,-0.00110355,-1.33781,0.000809206,0.0322269,1847,1233,26.8235,-3.08758
630,-209,26.885,2.98779,0.000118435,0.00102862,-0.000266047,0.00110068,4.63746e-05,-1.30629,0.00071883,0.0348089,1854,1233,26.885,-2.98779
637,-209,26.8954,3.14038,0.00138771,0.000694701,-0.000542658,0.00168506,0.000397356,-0.501263,0.00101713,0.0346633,1861,1233,26.8953,-3.14034
644,-209,26.8671,3.1554,0.00218468,0.000419388,-0.000421872,0.00228032,0.00032375,-0.222932,0.00142461,0.0302264,1868,1233,26.8671,-3.15535
651,-209,26.8806,3.13464,0.00273527,-3.5426e-05,-0.000227722,0.00275386,-5.40176e-05,-0.0814609,0.00185417,0.022798,1875,1233,26.8806,-3.13467
658,-209,26.884,3.10156,0.0030251,-0.000448791,-2.23218e-05,0.00302524,-0.000448934,-0.00642525,0.00218192,0.0192148,1882,1233,26.884,-3.1016
665,-209,27.0115,3.13318,0.0030412,-0.000825472,0.000215149,0.00305314,-0.000837407,0.055414,0.00236452,0.033533,1889,1233,27.0115,-3.13323
672,-209,27.3333,3.32458,0.00279139,-0.00121558,0.000450098,0.00284133,-0.00126551,0.110494,0.00242857,0.0493738,1896,1233,27.3332,-3.32457
679,-209,27.7107,3.62354,0,0,0,0,0,0,0,-1,1903,1233,27.7107,-3.62348
686,-209,25.5172,2.09302,0,0,0,0,0,0,0,-1,1910,1233,25.5172,-2.09303
693,-209,22.6399,6.64929,0,0,0,0,0,0,0,-1,1917,1233,22.6399,-6.64931
700,-209,22.6803,6.31897,0.00122199,-0.00194626,0.00135626,0.00172327,-0.00244754,0.354029,0.00242009,0.0297288,1924,1233,22.6803,-6.31896
707,-209,22.7449,6.0022,0.000684646,-0.00197998,0.00158092,0.00141978,-0.00271512,0.435264,0.00242602,0.0230732,1931,1233,22.7449,-6.00218
714,-209,22.7708,5.81787,0.000439264,-0.00191486,0.00159618,0.00124545,-0.00272104,0.467696,0.00234228,0.0132426,1938,1233,22.7707,-5.81785
721,-209,22.793,5.59741,0.000622268,-0.00156628,0.00183515,0.00166463,-0.00260864,0.516557,0.00248716,0.0127017,1945,1233,22.793,-5.59742
728,-209,22.8124,5.39441,0.00198453,-0.00138991,0.00178888,0.00275634,-0.00216171,0.407319,0.00284635,0.0132765,1952,1233,22.8124,-5.39444
735,-209,22.804,5.19934,0.00510232,-0.000682401,0.00160007,0.00551541,-0.00109548,0.25265,0.00409128,0.0140973,1959,1233,22.804,-5.19937
742,-209,22.7928,4.9906,0.0089489,-6.39936e-05,0.00112331,0.00908679,-0.000201887,0.122145,0.00612626,0.0108568,1966,1233,22.7928,-4.99064
749,-209,22.7842,4.78137,0.0136152,0.000903342,0.000981312,0.0136905,0.000828034,0.0765917,0.00886391,0.00901914,1973,1233,22.7842,-4.78135
756,-209,22.7687,4.57739,0.0194762,0.00180725,0.0013164,0.0195737,0.00170972,0.0739595,0.0125182,0.00981223,1980,1233,22.7686,-4.5774
763,-209,22.7529,4.38135,0.0267408,0.00302229,0.00163854,0.0268534,0.00290963,0.0686482,0.0170155,0.0171351,1987,1233,22.753,-4.38133
770,-209,23.0106,4.41492,0.0351714,0.00478445,0.00231246,0.0353463,0.00460947,0.0755209,0.0221879,0.0403734,1994,1233,23.0107,-4.41494
777,-209,23.2808,4.427,0,0,0,0,0,0,0,-1,2001,1233,23.2808,-4.42702
784,-209,24.8726,4.13135,0.0531121,0.0109957,0.00604544,0.0539627,0.0101451,0.139782,0.0331155,0.0477967,2008,1233,24.8726,-4.13132
791,-209,25.7823,4.11926,0.0607816,0.0162315,0.0100476,0.0629428,0.0140703,0.211872,0.0381468,0.0441206,2015,1233,25.7823,-4.11922
798,-209,26.3594,4.35474,0,0,0,0,0,0,0,-1,2022,1233,26.3593,-4.35476
805,-209,0,0,0,0,0,0,0,0,0,-1,2029,1233,0,0
812,-209,0,0,0,0,0,0,0,0,0,-1,2036,1233,0,0
-700,-216,0,0,0,0,0,0,0,0,0,-1,524,1240,0,0
-693,-216,0,0,0,0,0,0,0,0,0,-1,531,1240,0,0
-686,-216,0,0,0,0,0,0,0,0,0,-1,538,1240,0,0
-679,-216,-9.30865,-3.81262,0,0,0,0,0,0,0,-1,545,1240,-9.30868,3.81268
-672,-216,-15.6483,-0.188599,0,0,0,0,0,0,0,-1,552,1240,-15.6482,0.188599
-665,-216,-15.0524,0.0510254,0.0711628,-0.00678234,0.021985,0.0769362,-0.0125557,0.256808,0.0559477,0.0484929,559,1240,-15.0524,-0.0510631
-658,-216,-14.4158,0.196045,0.0603742,-0.00435073,0.0167028,0.0644303,-0.00840686,0.238229,0.0460126,0.0457206,566,1240,-14.4158,-0.19606
-651,-216,-13.7869,0.235718,0.0495887,-0.00231196,0.01317,0.0527394,-0.00546262,0.234817,0.0371147,0.0443523,573,1240,-13.7869,-0.235662
-644,-216,-13.3307,0.756836,0,0,0,0,0,0,0,-1,580,1240,-13.3307,-0.756879
-637,-216,-12.8336,1.47473,0,0,0,0,0,0,0,-1,587,1240,-12.8336,-1.47469
-630,-216,-13.6914,1.6803,0.0219397,0.000907891,0.00616939,0.0236158,-0.000768234,0.265281,0.0160061,0.028941,594,1240,-13.6914,-1.68026
-623,-216,-13.684,2.06665,0.0150453,0.00110012,0.00425273,0.0162399,-9.44668e-05,0.273841,0.0108582,0.0127705,601,1240,-13.684,-2.06669
-616,-216,-13.7155,2.32739,0.00948593,0.00179017,0.00259117,0.0102771,0.000999043,0.296326,0.00654382,0.0138211,608,1240,-13.7155,-2.32737
-609,-216,-13.7201,2.58154,0.00447717,0.00146295,0.00157784,0.00515203,0.000788098,0.404161,0.00320446,0.0133625,615,1240,-13.7201,-2.58158
-602,-216,-13.7234,2.82141,0.00136218,0.000933866,0.000662994,0.00184475,0.000451298,0.629181,0.0011104,0.012128,622,1240,-13.7234,-2.82139
-595,-216,-13.7108,3.04797,4.47126e-05,0.00050333,-0.000429172,0.000760612,-0.00021257,-1.03075,0.000590819,0.0165356,629,1240,-13.7108,-3.048
-588,-216,-13.6989,3.30237,-0.00051412,0.000108231,-0.000988964,0.000833819,-0.00123971,-0.937819,0.00120477,0.0195851,636,1240,-13.6989,-3.30234
-581,-216,-13.6882,3.58411,-0.00031405,-0.00110406,-0.00151342,0.000855066,-0.00227317,-0.657746,0.00186692,0.0181747,643,1240,-13.6882,-3.58412
-574,-216,-13.6882,3.96118,8.23545e-05,-0.00167384,-0.00186136,0.00126235,-0.00285383,-0.565002,0.00243497,0.0236897,650,1240,-13.6882,-3.9612
-567,-216,-13.8796,4.30627,0.000160401,-0.0021381,-0.00161805,0.000995812,-0.00297351,-0.476607,0.00238462,0.0362789,657,1240,-13.8796,-4.30623
-560,-216,-14.1405,4.75525,0,0,0,0,0,0,0,-1,664,1240,-14.1405,-4.75525
-553,-216,-14.5433,1.39502,0,0,0,0,0,0,0,-1,671,1240,-14.5434,-1.395
-546,-216,-18.0519,1.17688,0,0,0,0,0,0,0,-1,678,1240,-18.052,-1.17688
-539,-216,-18.1172,1.37952,-0.0001356,-0.0047654,-0.0011457,0.000132405,-0.0050334,-0.22979,0.0034006,0.0428704,685,1240,-18.1173,-1.37948
-532,-216,-18.2438,1.45105,-0.000509252,-0.00535118,-0.000914192,-0.000342395,-0.00551804,-0.18053,0.00357004,0.0410042,692,1240,-18.2438,-1.45106
-525,-216,-18.3514,1.38159,-0.0008572,-0.00573596,-0.00052744,-0.00080083,-0.00579233,-0.10647,0.00362422,0.0392248,699,1240,-18.3514,-1.38157
-518,-216,-18.4979,1.49316,-0.00118076,-0.00571392,5.0482e-05,-0.0011802,-0.00571449,0.0111343,0.00348355,0.0400678,706,1240,-18.4979,-1.49314
-511,-216,-18.5343,1.49084,-0.000206863,-0.00457077,0.00107235,4.24087e-05,-0.00482004,0.228398,0.00322759,0.04064,713,1240,-18.5343,-1.49089
-504,-216,-18.3891,1.3385,0.00488157,-0.000973949,0.00397219,0.00688839,-0.00298077,0.467813,0.00584494,0.0404295,720,1240,-18.3891,-1.33856
-497,-216,0,0,0,0,0,0,0,0,0,-1,727,1240,0,0
-490,-216,0,0,0,0,0,0,0,0,0,-1,734,1240,0,0
-483,-216,0,0,0,0,0,0,0,0,0,-1,741,1240,0,0
-476,-216,0,0,0,0,0,0,0,0,0,-1,748,1240,0,0
-469,-216,0,0,0,0,0,0,0,0,0,-1,755,1240,0,0
-462,-216,0,0,0,0,0,0,0,0,0,-1,762,1240,0,0
-455,-216,0,0,0,0,0,0,0,0,0,-1,769,1240,0,0
-448,-216,0,0,0,0,0,0,0,0,0,-1,776,1240,0,0
-441,-216,0,0,0,0,0,0,0,0,0,-1,783,1240,0,0
-434,-216,0,0,0,0,0,0,0,0,0,-1,790,1240,0,0
-427,-216,0,0,0,0,0,0,0,0,0,-1,797,1240,0,0
-420,-216,0,0,0,0,0,0,0,0,0,-1,804,1240,0,0
-413,-216,0,0,0,0,0,0,0,0,0,-1,811,1240,0,0
-406,-216,0,0,0,0,0,0,0,0,0,-1,818,1240,0,0
-399,-216,0,0,0,0,0,0,0,0,0,-1,825,1240,0,0
-392,-216,0,0,0,0,0,0,0,0,0,-1,832,1240,0,0
-385,-216,0,0,0,0,0,0,0,0,0,-1,839,1240,0,0
-378,-216,0,0,0,0,0,0,0,0,0,-1,846,1240,0,0
-371,-216,0,0,0,0,0,0,0,0,0,-1,853,1240,0,0
-364,-216,0,0,0,0,0,0,0,0,0,-1,860,1240,0,0
-357,-216,0,0,0,0,0,0,0,0,0,-1,867,1240,0,0
-350,-216,0,0,0,0,0,0,0,0,0,-1,874,1240,0,0
-343,-216,0,0,0,0,0,0,0,0,0,-1,881,1240,0,0
-336,-216,0,0,0,0,0,0,0,0,0,-1,888,1240,0,0
-329,-216,0,0,0,0,0,0,0,0,0,-1,895,1240,0,0
-322,-216,0,0,0,0,0,0,0,0,0,-1,902,1240,0,0
-315,-216,0,0,0,0,0,0,0,0,0,-1,909,1240,0,0
-308,-216,0,0,0,0,0,0,0,0,0,-1,916,1240,0,0
-301,-216,0,0,0,0,0,0,0,0,0,-1,923,1240,0,0
-294,-216,0,0,0,0,0,0,0,0,0,-1,930,1240,0,0
-287,-216,0,0,0,0,0,0,0,0,0,-1,937,1240,0,0
-280,-216,0,0,0,0,0,0,0,0,0,-1,944,1240,0,0
-273,-216,0,0,0,0,0,0,0,0,0,-1,951,1240,0,0
-266,-216,0,0,0,0,0,0,0,0,0,-1,958,1240,0,0
-259,-216,0,0,0,0,0,0,0,0,0,-1,965,1240,0,0
-252,-216,0,0,0,0,0,0,0,0,0,-1,972,1240,0,0
-245,-216,0,0,0,0,0,0,0,0,0,-1,979,1240,0,0
-238,-216,0,0,0,0,0,0,0,0,0,-1,986,1240,0,0
-231,-216,0,0,0,0,0,0,0,0,0,-1,993,1240,0,0
-224,-216,0,0,0,0,0,0,0,0,0,-1,1000,1240,0,0
-217,-216,0,0,0,0,0,0,0,0,0,-1,1007,1240,0,0
-210,-216,0,0,0,0,0,0,0,0,0,-1,1014,1240,0,0
-203,-216,0,0,0,0,0,0,0,0,0,-1,1021,1240,0,0
-196,-216,0,0,0,0,0,0,0,0,0,-1,1028,1240,0,0
-189,-216,0,0,0,0,0,0,0,0,0,-1,1035,1240,0,0
-182,-216,0,0,0,0,0,0,0,0,0,-1,1042,1240,0,0
-175,-216,0,0,0,0,0,0,0,0,0,-1,1049,1240,0,0
-168,-216,0,0,0,0,0,0,0,0,0,-1,1056,1240,0,0
-161,-216,0,0,0,0,0,0,0,0,0,-1,1063,1240,0,0
-154,-216,0,0,0,0,0,0,0,0,0,-1,1070,1240,0,0
-147,-216,0,0,0,0,0,0,0,0,0,-1,1077,1240,0,0
-140,-216,0,0,0,0,0,0,0,0,0,-1,1084,1240,0,0
-133,-216,0,0,0,0,0,0,0,0,0,-1,1091,1240,0,0
-126,-216,0,0,0,0,0,0,0,0,0,-1,1098,1240,0,0
-119,-216,0,0,0,0,0,0,0,0,0,-1,1105,1240,0,0
-112,-216,0,0,0,0,0,0,0,0,0,-1,1112,1240,0,0
-105,-216,0,0,0,0,0,0,0,0,0,-1,1119,1240,0,0
-98,-216,0,0,0,0,0,0,0,0,0,-1,1126,1240,0,0
-91,-216,0,0,0,0,0,0,0,0,0,-1,1133,1240,0,0
-84,-216,0,0,0,0,0,0,0,0,0,-1,1140,1240,0,0
-77,-216,0,0,0,0,0,0,0,0,0,-1,1147,1240,0,0
-70,-216,0,0,0,0,0,0,0,0,0,-1,1154,1240,0,0
-63,-216,0,0,0,0,0,0,0,0,0,-1,1161,1240,0,0
-56,-216,0,0,0,0,0,0,0,0,0,-1,1168,1240,0,0
-49,-216,0,0,0,0,0,0,0,0,0,-1,1175,1240,0,0
-42,-216,0,0,0,0,0,0,0,0,0,-1,1182,1240,0,0
-35,-216,0,0,0,0,0,0,0,0,0,-1,1189,1240,0,0
-28,-216,0,0,0,0,0,0,0,0,0,-1,1196,1240,0,0
-21,-216,0,0,0,0,0,0,0,0,0,-1,1203,1240,0,0
-14,-216,0,0,0,0,0,0,0,0,0,-1,1210,1240,0,0
-7,-216,0,0,0,0,0,0,0,0,0,-1,1217,1240,0,0
0,-216,0,0,0,0,0,0,0,0,0,-1,1224,1240,0,0
7,-216,0,0,0,0,0,0,0,0,0,-1,1231,1240,0,0
14,-216,0,0,0,0,0,0,0,0,0,-1,1238,1240,0,0
21,-216,0,0,0,0,0,0,0,0,0,-1,1245,1240,0,0
28,-216,0,0,0,0,0,0,0,0,0,-1,1252,1240,0,0
35,-216,0,0,0,0,0,0,0,0,0,-1,1259,1240,0,0
42,-216,0,0,0,0,0,0,0,0,0,-1,1266,1240,0,0
49,-216,0,0,0,0,0,0,0,0,0,-1,1273,1240,0,0
56,-216,0,0,0,0,0,0,0,0,0,-1,1280,1240,0,0
63,-216,0,0,0,0,0,0,0,0,0,-1,1287,1240,0,0
70,-216,0,0,0,0,0,0,0,0,0,-1,1294,1240,0,0
77,-216,0,0,0,0,0,0,0,0,0,-1,1301,1240,0,0
84,-216,0,0,0,0,0,0,0,0,0,-1,1308,1240,0,0
91,-216,0,0,0,0,0,0,0,0,0,-1,1315,1240,0,0
98,-216,0,0,0,0,0,0,0,0,0,-1,1322,1240,0,0
105,-216,0,0,0,0,0,0,0,0,0,-1,1329,1240,0,0
112,-216,0,0,0,0,0,0,0,0,0,-1,1336,1240,0,0
119,-216,0,0,0,0,0,0,0,0,0,-1,1343,1240,0,0
126,-216,0,0,0,0,0,0,0,0,0,-1,1350,1240,0,0
133,-216,0,0,0,0,0,0,0,0,0,-1,1357,1240,0,0
140,-216,0,0,0,0,0,0,0,0,0,-1,1364,1240,0,0
147,-216,0,0,0,0,0,0,0,0,0,-1,1371,1240,0,0
154,-216,0,0,0,0,0,0,0,0,0,-1,1378,1240,0,0
161,-216,0,0,0,0,0,0,0,0,0,-1,1385,1240,0,0
168,-216,0,0,0,0,0,0,0,0,0,-1,1392,1240,0,0
175,-216,0,0,0,0,0,0,0,0,0,-1,1399,1240,0,0
182,-216,0,0,0,0,0,0,0,0,0,-1,1406,1240,0,0
189,-216,0,0,0,0,0,0,0,0,0,-1,1413,1240,0,0
196,-216,0,0,0,0,0,0,0,0,0,-1,1420,1240,0,0
203,-216,0,0,0,0,0,0,0,0,0,-1,1427,1240,0,0
210,-216,0,0,0,0,0,0,0,0,0,-1,1434,1240,0,0
217,-216,0,0,0,0,0,0,0,0,0,-1,1441,1240,0,0
224,-216,0,0,0,0,0,0,0,0,0,-1,1448,1240,0,0
231,-216,0,0,0,0,0,0,0,0,0,-1,1455,1240,0,0
238,-216,0,0,0,0,0,0,0,0,0,-1,1462,1240,0,0
245,-216,0,0,0,0,0,0,0,0,0,-1,1469,1240,0,0
252,-216,0,0,0,0,0,0,0,0,0,-1,1476,1240,0,0
259,-216,0,0,0,0,0,0,0,0,0,-1,1483,1240,0,0
266,-216,0,0,0,0,0,0,0,0,0,-1,1490,1240,0,0
273,-216,0,0,0,0,0,0,0,0,0,-1,1497,1240,0,0
280,-216,0,0,0,0,0,0,0,0,0,-1,1504,1240,0,0
287,-216,0,0,0,0,0,0,0,0,0,-1,1511,1240,0,0
294,-216,0,0,0,0,0,0,0,0,0,-1,1518,1240,0,0
301,-216,0,0,0,0,0,0,0,0,0,-1,1525,1240,0,0
308,-216,0,0,0,0,0,0,0,0,0,-1,1532,1240,0,0
315,-216,0,0,0,0,0,0,0,0,0,-1,1539,1240,0,0
322,-216,0,0,0,0,0,0,0,0,0,-1,1546,1240,0,0
329,-216,0,0,0,0,0,0,0,0,0,-1,1553,1240,0,0
336,-216,0,0,0,0,0,0,0,0,0,-1,1560,1240,0,0
343,-216,0,0,0,0,0,0,0,0,0,-1,1567,1240,0,0
350,-216,0,0,0,0,0,0,0,0,0,-1,1574,1240,0,0
357,-216,0,0,0,0,0,0,0,0,0,-1,1581,1240,0,0
364,-216,0,0,0,0,0,0,0,0,0,-1,1588,1240,0,0
371,-216,0,0,0,0,0,0,0,0,0,-1,1595,1240,0,0
378,-216,0,0,0,0,0,0,0,0,0,-1,1602,1240,0,0
385,-216,0,0,0,0,0,0,0,0,0,-1,1609,1240,0,0
392,-216,0,0,0,0,0,0,0,0,0,-1,1616,1240,0,0
399,-216,0,0,0,0,0,0,0,0,0,-1,1623,1240,0,0
406,-216,0,0,0,0,0,0,0,0,0,-1,1630,1240,0,0
413,-216,0,0,0,0,0,0,0,0,0,-1,1637,1240,0,0
420,-216,0,0,0,0,0,0,0,0,0,-1,1644,1240,0,0
427,-216,0,0,0,0,0,0,0,0,0,-1,1651,1240,0,0
434,-216,0,0,0,0,0,0,0,0,0,-1,1658,1240,0,0
441,-216,0,0,0,0,0,0,0,0,0,-1,1665,1240,0,0
448,-216,0,0,0,0,0,0,0,0,0,-1,1672,1240,0,0
455,-216,0,0,0,0,0,0,0,0,0,-1,1679,1240,0,0
462,-216,0,0,0,0,0,0,0,0,0,-1,1686,1240,0,0
469,-216,0,0,0,0,0,0,0,0,0,-1,1693,1240,0,0
476,-216,0,0,0,0,0,0,0,0,0,-1,1700,1240,0,0
483,-216,0,0,0,0,0,0,0,0,0,-1,1707,1240,0,0
490,-216,0,0,0,0,0,0,0,0,0,-1,1714,1240,0,0
497,-216,0,0,0,0,0,0,0,0,0,-1,1721,1240,0,0
504,-216,0,0,0,0,0,0,0,0,0,-1,1728,1240,0,0
511,-216,0,0,0,0,0,0,0,0,0,-1,1735,1240,0,0
518,-216,0,0,0,0,0,0,0,0,0,-1,1742,1240,0,0
525,-216,0,0,0,0,0,0,0,0,0,-1,1749,1240,0,0
532,-216,0,0,0,0,0,0,0,0,0,-1,1756,1240,0,0
539,-216,0,0,0,0,0,0,0,0,0,-1,1763,1240,0,0
546,-216,0,0,0,0,0,0,0,0,0,-1,1770,1240,0,0
553,-216,0,0,0,0,0,0,0,0,0,-1,1777,1240,0,0
560,-216,0,0,0,0,0,0,0,0,0,-1,1784,1240,0,0
567,-216,0,0,0,0,0,0,0,0,0,-1,1791,1240,0,0
574,-216,0,0,0,0,0,0,0,0,0,-1,1798,1240,0,0
581,-216,0,0,0,0,0,0,0,0,0,-1,1805,1240,0,0
588,-216,0,0,0,0,0,0,0,0,0,-1,1812,1240,0,0
595,-216,0,0,0,0,0,0,0,0,0,-1,1819,1240,0,0
602,-216,0,0,0,0,0,0,0,0,0,-1,1826,1240,0,0
609,-216,0,0,0,0,0,0,0,0,0,-1,1833,1240,0,0
616,-216,0,0,0,0,0,0,0,0,0,-1,1840,1240,0,0
623,-216,26.8624,3.04443,-0.000480228,0.00111546,-0.000443033,0.00123021,-0.000594981,-1.31735,0.00107484,0.0386435,1847,1240,26.8625,-3.04444
630,-216,26.9227,3.02283,0.000698856,0.00167618,-0.000239635,0.00173177,0.000643261,-1.34283,0.0010108,0.0364362,1854,1240,26.9227,-3.02283
637,-216,26.8677,3.12195,0.00195947,0.00135956,-0.000237224,0.00204194,0.00127709,-0.334574,0.00119121,0.0316448,1861,1240,26.8676,-3.12191
644,-216,26.8422,3.1427,0.00278646,0.00105668,-7.97051e-05,0.00279013,0.00105302,-0.0459484,0.00162694,0.0253626,1868,1240,26.8422,-3.14276
651,-216,26.8618,3.11194,0.00325808,0.000563275,6.18575e-05,0.00325949,0.000561856,0.0229383,0.00201203,0.0190919,1875,1240,26.8618,-3.11195
658,-216,26.905,3.09375,0.00346479,0.000127166,0.000161157,0.00347255,0.000119402,0.0481357,0.00227628,0.0255593,1882,1240,26.9051,-3.09374
665,-216,27.1958,3.24561,0.00343391,-0.000241084,0.000297754,0.00345788,-0.000265052,0.0803233,0.00239849,0.0412307,1889,1240,27.1958,-3.24566
672,-216,27.746,2.88538,0.00319579,-0.000655048,0.000418225,0.00324069,-0.000699946,0.106945,0.00242765,0.0461434,1896,1240,27.7459,-2.88536
679,-216,28.1689,3.01343,0,0,0,0,0,0,0,-1,1903,1240,28.169,-3.01337
686,-216,21.5172,6.19458,0,0,0,0,0,0,0,-1,1910,1240,21.5172,-6.19453
693,-216,22.5559,6.40417,0,0,0,0,0,0,0,-1,1917,1240,22.556,-6.40416
700,-216,22.5432,6.31921,0.00168615,-0.00159634,0.00107217,0.00200532,-0.00191551,0.289334,0.00226389,0.0250704,1924,1240,22.5433,-6.31926
707,-216,22.5551,6.05908,0.00119808,-0.00165415,0.0013219,0.00171651,-0.00217258,0.373747,0.0022505,0.0188145,1931,1240,22.555,-6.05904
714,-216,22.59,5.81384,0.000974896,-0.00162091,0.00128031,0.00150011,-0.00214612,0.389288,0.00211614,0.0133147,1938,1240,22.5899,-5.81386
721,-216,22.5878,5.61658,0.00111944,-0.00130207,0.00146909,0.00181241,-0.00199504,0.440751,0.00219907,0.0134667,1945,1240,22.5877,-5.61663
728,-216,22.6097,5.4071,0.00245395,-0.00118648,0.00133086,0.00288859,-0.00162112,0.315665,0.00263774,0.0124167,1952,1240,22.6098,-5.40712
735,-216,22.6167,5.20374,0.00551358,-0.000658657,0.00106167,0.00569109,-0.000836166,0.165666,0.0041013,0.0112507,1959,1240,22.6167,-5.20378
742,-216,22.5844,5.00903,0.00931971,-0.000274755,0.000560146,0.0093523,-0.000307347,0.058119,0.0063398,0.0109456,1966,1240,22.5843,-5.00904
749,-216,22.5713,4.78381,0.0139864,0.00022171,0.000262122,0.0139914,0.000216721,0.0190339,0.00925619,0.00918027,1973,1240,22.5712,-4.7838
756,-216,22.5594,4.57239,0.0199404,0.000634683,0.000341226,0.0199465,0.000628654,0.0176675,0.0130931,0.00932913,1980,1240,22.5595,-4.5724
763,-216,22.5719,4.36047,0.0275319,0.00118696,0.000436874,0.0275391,0.00117971,0.0165768,0.0179791,0.0150624,1987,1240,22.5719,-4.36046
770,-216,22.7999,4.32776,0.0365864,0.00207613,0.000877402,0.0366086,0.00205384,0.0254025,0.0237508,0.0369,1994,1240,22.7999,-4.32771
777,-216,23.358,4.44226,0.0466363,0.00345265,0.00193268,0.0467227,0.00336633,0.0446358,0.0300892,0.0486313,2001,1240,23.358,-4.44221
784,-216,23.6116,4.7334,0,0,0,0,0,0,0,-1,2008,1240,23.6115,-4.73336
791,-216,25.266,3.78296,0,0,0,0,0,0,0,-1,2015,1240,25.2659,-3.78301
798,-216,0,0,0,0,0,0,0,0,0,-1,2022,1240,0,0
805,-216,0,0,0,0,0,0,0,0,0,-1,2029,1240,0,0
812,-216,0,0,0,0,0,0,0,0,0,-1,2036,1240,0,0
-700,-223,0,0,0,0,0,0,0,0,0,-1,524,1247,0,0
-693,-223,0,0,0,0,0,0,0,0,0,-1,531,1247,0,0
-686,-223,0,0,0,0,0,0,0,0,0,-1,538,1247,0,0
-679,-223,0,0,0,0,0,0,0,0,0,-1,545,1247,0,0
-672,-223,-15.7151,-0.128418,0,0,0,0,0,0,0,-1,552,1247,-15.7152,0.128425
-665,-223,-15.1504,-0.0130615,0.0738302,-0.0118855,0.00795524,0.0745623,-0.0126176,0.0917651,0.054404,0.0498179,559,1247,-15.1504,0.0130037
-658,-223,-14.5396,0.108276,0.0621566,-0.00766798,0.00628238,0.0627173,-0.00822872,0.0890211,0.044807,0.0488201,566,1247,-14.5395,-0.108336
-651,-223,-13.7432,0.363892,0.050882,-0.00445791,0.00558961,0.0514409,-0.00501684,0.0996638,0.0360827,0.049495,573,1247,-13.7432,-0.363895
-644,-223,-12.759,0.825195,0,0,0,0,0,0,0,-1,580,1247,-12.759,-0.825153
-637,-223,-13.7949,1.44788,0,0,0,0,0,0,0,-1,587,1247,-13.7948,-1.44787
-630,-223,-13.6035,1.75098,0.0222234,0.000570375,0.00402008,0.0229457,-0.000151898,0.17777,0.015348,0.0384528,594,1247,-13.6035,-1.75098
-623,-223,-13.4476,2.05957,0.0151548,0.00106845,0.00318825,0.0158428,0.000380434,0.212537,0.0104374,0.0208338,601,1247,-13.4476,-2.05958
-616,-223,-13.4674,2.34753,0.00953762,0.00211248,0.00222629,0.010154,0.00149613,0.270086,0.00632982,0.0153437,608,1247,-13.4674,-2.34747
-609,-223,-13.4579,2.57666,0.00455782,0.00170954,0.00176548,0.00540196,0.0008654,0.446004,0.00335031,0.0119735,615,1247,-13.4579,-2.57671
-602,-223,-13.4655,2.81763,0.00150851,0.00105976,0.0010525,0.00236029,0.000207983,0.68038,0.00150898,0.0140307,622,1247,-13.4655,-2.81759
-595,-223,-13.4633,3.07764,0.000436257,0.000684872,4.19789e-05,0.000691769,0.00042936,1.40796,0.000403252,0.0183149,629,1247,-13.4633,-3.07758
-588,-223,-13.4482,3.33765,0.000168796,0.000283007,-0.000486868,0.000716108,-0.000264304,-0.843777,0.000585733,0.0220928,636,1247,-13.4482,-3.33768
-581,-223,-13.4704,3.59631,0.000537829,-0.000940673,-0.000990489,0.00103452,-0.00143737,-0.464818,0.00143345,0.0210632,643,1247,-13.4704,-3.59629
-574,-223,-13.4429,3.87854,0.000943149,-0.00151132,-0.00137029,0.00155542,-0.00212359,-0.420208,0.00213251,0.017877,650,1247,-13.4429,-3.87855
-567,-223,-13.1763,4.23352,0.000861844,-0.00193297,-0.0011204,0.00125554,-0.00232666,-0.33791,0.00209878,0.0271764,657,1247,-13.1763,-4.23352
-560,-223,-12.8793,4.67236,0,0,0,0,0,0,0,-1,664,1247,-12.8793,-4.67231
-553,-223,-11.4025,4.14722,0,0,0,0,0,0,0,-1,671,1247,-11.4025,-4.14719
-546,-223,-17.7397,1.12634,0,0,0,0,0,0,0,-1,678,1247,-17.7397,-1.12631
-539,-223,-18.0866,1.76074,0,0,0,0,0,0,0,-1,685,1247,-18.0866,-1.76079
-532,-223,-18.4138,2.20313,-0.000509234,-0.00523962,-0.000205452,-0.000500328,-0.00524853,-0.0433237,0.00334474,0.0441614,692,1247,-18.4138,-2.20311
-525,-223,-18.174,1.23755,-0.00128697,-0.0057547,0.000142377,-0.00128244,-0.00575924,0.0318247,0.00349142,0.0492886,699,1247,-18.174,-1.23761
-518,-223,-18.4406,1.4115,-0.00228208,-0.00599509,0.000577508,-0.00219434,-0.00608284,0.150792,0.00355705,0.0420536,706,1247,-18.4406,-1.4115
-511,-223,-18.5179,1.47363,-0.00255482,-0.0054327,0.00131067,-0.00204738,-0.00594014,0.369391,0.00348427,0.038701,713,1247,-18.5179,-1.47365
-504,-223,-18.4482,1.42542,0.000469901,-0.00270515,0.00344804,0.00267832,-0.00491358,0.569658,0.00444606,0.0402299,720,1247,-18.4482,-1.42535
-497,-223,0,0,0,0,0,0,0,0,0,-1,727,1247,0,0
-490,-223,0,0,0,0,0,0,0,0,0,-1,734,1247,0,0
-483,-223,0,0,0,0,0,0,0,0,0,-1,741,1247,0,0
-476,-223,0,0,0,0,0,0,0,0,0,-1,748,1247,0,0
-469,-223,0,0,0,0,0,0,0,0,0,-1,755,1247,0,0
-462,-223,0,0,0,0,0,0,0,0,0,-1,762,1247,0,0
-455,-223,0,0,0,0,0,0,0,0,0,-1,769,1247,0,0
-448,-223,0,0,0,0,0,0,0,0,0,-1,776,1247,0,0
-441,-223,0,0,0,0,0,0,0,0,0,-1,783,1247,0,0
-434,-223,0,0,0,0,0,0,0,0,0,-1,790,1247,0,0
-427,-223,0,0,0,0,0,0,0,0,0,-1,797,1247,0,0
-420,-223,0,0,0,0,0,0,0,0,0,-1,804,1247,0,0
-413,-223,0,0,0,0,0,0,0,0,0,-1,811,1247,0,0
-406,-223,0,0,0,0,0,0,0,0,0,-1,818,1247,0,0
-399,-223,0,0,0,0,0,0,0,0,0,-1,825,1247,0,0
-392,-223,0,0,0,0,0,0,0,0,0,-1,832,1247,0,0
-385,-223,0,0,0,0,0,0,0,0,0,-1,839,1247,0,0
-378,-223,0,0,0,0,0,0,0,0,0,-1,846,1247,0,0
-371,-223,0,0,0,0,0,0,0,0,0,-1,853,1247,0,0
-364,-223,0,0,0,0,0,0,0,0,0,-1,860,1247,0,0
-357,-223,0,0,0,0,0,0,0,0,0,-1,867,1247,0,0
-350,-223,0,0,0,0,0,0,0,0,0,-1,874,1247,0,0
-343,-223,0,0,0,0,0,0,0,0,0,-1,881,1247,0,0
-336,-223,0,0,0,0,0,0,0,0,0,-1,888,1247,0,0
-329,-223,0,0,0,0,0,0,0,0,0,-1,895,1247,0,0
-322,-223,0,0,0,0,0,0,0,0,0,-1,902,1247,0,0
-315,-223,0,0,0,0,0,0,0,0,0,-1,909,1247,0,0
-308,-223,0,0,0,0,0,0,0,0,0,-1,916,1247,0,0
-301,-223,0,0,0,0,0,0,0,0,0,-1,923,1247,0,0
-294,-223,0,0,0,0,0,0,0,0,0,-1,930,1247,0,0
-287,-223,0,0,0,0,0,0,0,0,0,-1,937,1247,0,0
-280,-223,0,0,0,0,0,0,0,0,0,-1,944,1247,0,0
-273,-223,0,0,0,0,0,0,0,0,0,-1,951,1247,0,0
-266,-223,0,0,0,0,0,0,0,0,0,-1,958,1247,0,0
-259,-223,0,0,0,0,0,0,0,0,0,-1,965,1247,0,0
-252,-223,0,0,0,0,0,0,0,0,0,-1,972,1247,0,0
-245,-223,0,0,0,0,0,0,0,0,0,-1,979,1247,0,0
-238,-223,0,0,0,0,0,0,0,0,0,-1,986,1247,0,0
-231,-223,0,0,0,0,0,0,0,0,0,-1,993,1247,0,0
-224,-223,0,0,0,0,0,0,0,0,0,-1,1000,1247,0,0
-217,-223,0,0,0,0,0,0,0,0,0,-1,1007,1247,0,0
-210,-223,0,0,0,0,0,0,0,0,0,-1,1014,1247,0,0
-203,-223,0,0,0,0,0,0,0,0,0,-1,1021,1247,0,0
-196,-223,0,0,0,0,0,0,0,0,0,-1,1028,1247,0,0
-189,-223,0,0,0,0,0,0,0,0,0,-1,1035,1247,0,0
-182,-223,0,0,0,0,0,0,0,0,0,-1,1042,1247,0,0
-175,-223,0,0,0,0,0,0,0,0,0,-1,1049,1247,0,0
-168,-223,0,0,0,0,0,0,0,0,0,-1,1056,1247,0,0
-161,-223,0,0,0,0,0,0,0,0,0,-1,1063,1247,0,0
-154,-223,0,0,0,0,0,0,0,0,0,-1,1070,1247,0,0
-147,-223,0,0,0,0,0,0,0,0,0,-1,1077,1247,0,0
-140,-223,0,0,0,0,0,0,0,0,0,-1,1084,1247,0,0
-133,-223,0,0,0,0,0,0,0,0,0,-1,1091,1247,0,0
-126,-223,0,0,0,0,0,0,0,0,0,-1,1098,1247,0,0
-119,-223,0,0,0,0,0,0,0,0,0,-1,1105,1247,0,0
-112,-223,0,0,0,0,0,0,0,0,0,-1,1112,1247,0,0
-105,-223,0,0,0,0,0,0,0,0,0,-1,1119,1247,0,0
-98,-223,0,0,0,0,0,0,0,0,0,-1,1126,1247,0,0
-91,-223,0,0,0,0,0,0,0,0,0,-1,1133,1247,0,0
-84,-223,0,0,0,0,0,0,0,0,0,-1,1140,1247,0,0
-77,-223,0,0,0,0,0,0,0,0,0,-1,1147,1247,0,0
-70,-223,0,0,0,0,0,0,0,0,0,-1,1154,1247,0,0
-63,-223,0,0,0,0,0,0,0,0,0,-1,1161,1247,0,0
-56,-223,0,0,0,0,0,0,0,0,0,-1,1168,1247,0,0
-49,-223,0,0,0,0,0,0,0,0,0,-1,1175,1247,0,0
-42,-223,0,0,0,0,0,0,0,0,0,-1,1182,1247,0,0
-35,-223,0,0,0,0,0,0,0,0,0,-1,1189,1247,0,0
-28,-223,0,0,0,0,0,0,0,0,0,-1,1196,1247,0,0
-21,-223,0,0,0,0,0,0,0,0,0,-1,1203,1247,0,0
-14,-223,0,0,0,0,0,0,0,0,0,-1,1210,1247,0,0
-7,-223,0,0,0,0,0,0,0,0,0,-1,1217,1247,0,0
0,-223,0,0,0,0,0,0,0,0,0,-1,1224,1247,0,0
7,-223,0,0,0,0,0,0,0,0,0,-1,1231,1247,0,0
14,-223,0,0,0,0,0,0,0,0,0,-1,1238,1247,0,0
21,-223,0,0,0,0,0,0,0,0,0,-1,1245,1247,0,0
28,-223,0,0,0,0,0,0,0,0,0,-1,1252,1247,0,0
35,-223,0,0,0,0,0,0,0,0,0,-1,1259,1247,0,0
42,-223,0,0,0,0,0,0,0,0,0,-1,1266,1247,0,0
49,-223,0,0,0,0,0,0,0,0,0,-1,1273,1247,0,0
56,-223,0,0,0,0,0,0,0,0,0,-1,1280,1247,0,0
63,-223,0,0,0,0,0,0,0,0,0,-1,1287,1247,0,0
70,-223,0,0,0,0,0,0,0,0,0,-1,1294,1247,0,0
77,-223,0,0,0,0,0,0,0,0,0,-1,1301,1247,0,0
84,-223,0,0,0,0,0,0,0,0,0,-1,1308,1247,0,0
91,-223,0,0,0,0,0,0,0,0,0,-1,1315,1247,0,0
98,-223,0,0,0,0,0,0,0,0,0,-1,1322,1247,0,0
105,-223,0,0,0,0,0,0,0,0,0,-1,1329,1247,0,0
112,-223,0,0,0,0,0,0,0,0,0,-1,1336,1247,0,0
119,-223,0,0,0,0,0,0,0,0,0,-1,1343,1247,0,0
126,-223,0,0,0,0,0,0,0,0,0,-1,1350,1247,0,0
133,-223,0,0,0,0,0,0,0,0,0,-1,1357,1247,0,0
140,-223,0,0,0,0,0,0,0,0,0,-1,1364,1247,0,0
147,-223,0,0,0,0,0,0,0,0,0,-1,1371,1247,0,0
154,-223,0,0,0,0,0,0,0,0,0,-1,1378,1247,0,0
161,-223,0,0,0,0,0,0,0,0,0,-1,1385,1247,0,0
168,-223,0,0,0,0,0,0,0,0,0,-1,1392,1247,0,0
175,-223,0,0,0,0,0,0,0,0,0,-1,1399,1247,0,0
182,-223,0,0,0,0,0,0,0,0,0,-1,1406,1247,0,0
189,-223,0,0,0,0,0,0,0,0,0,-1,1413,1247,0,0
196,-223,0,0,0,0,0,0,0,0,0,-1,1420,1247,0,0
203,-223,0,0,0,0,0,0,0,0,0,-1,1427,1247,0,0
210,-223,0,0,0,0,0,0,0,0,0,-1,1434,1247,0,0
217,-223,0,0,0,0,0,0,0,0,0,-1,1441,1247,0,0
224,-223,0,0,0,0,0,0,0,0,0,-1,1448,1247,0,0
231,-223,0,0,0,0,0,0,0,0,0,-1,1455,1247,0,0
238,-223,0,0,0,0,0,0,0,0,0,-1,1462,1247,0,0
245,-223,0,0,0,0,0,0,0,0,0,-1,1469,1247,0,0
252,-223,0,0,0,0,0,0,0,0,0,-1,1476,1247,0,0
259,-223,0,0,0,0,0,0,0,0,0,-1,1483,1247,0,0
266,-223,0,0,0,0,0,0,0,0,0,-1,1490,1247,0,0
273,-223,0,0,0,0,0,0,0,0,0,-1,1497,1247,0,0
280,-223,0,0,0,0,0,0,0,0,0,-1,1504,1247,0,0
287,-223,0,0,0,0,0,0,0,0,0,-1,1511,1247,0,0
294,-223,0,0,0,0,0,0,0,0,0,-1,1518,1247,0,0
301,-223,0,0,0,0,0,0,0,0,0,-1,1525,1247,0,0
308,-223,0,0,0,0,0,0,0,0,0,-1,1532,1247,0,0
315,-223,0,0,0,0,0,0,0,0,0,-1,1539,1247,0,0
322,-223,0,0,0,0,0,0,0,0,0,-1,1546,1247,0,0
329,-223,0,0,0,0,0,0,0,0,0,-1,1553,1247,0,0
336,-223,0,0,0,0,0,0,0,0,0,-1,1560,1247,0,0
343,-223,0,0,0,0,0,0,0,0,0,-1,1567,1247,0,0
350,-223,0,0,0,0,0,0,0,0,0,-1,1574,1247,0,0
357,-223,0,0,0,0,0,0,0,0,0,-1,1581,1247,0,0
364,-223,0,0,0,0,0,0,0,0,0,-1,1588,1247,0,0
371,-223,0,0,0,0,0,0,0,0,0,-1,1595,1247,0,0
378,-223,0,0,0,0,0,0,0,0,0,-1,1602,1247,0,0
385,-223,0,0,0,0,0,0,0,0,0,-1,1609,1247,0,0
392,-223,0,0,0,0,0,0,0,0,0,-1,1616,1247,0,0
399,-223,0,0,0,0,0,0,0,0,0,-1,1623,1247,0,0
406,-223,0,0,0,0,0,0,0,0,0,-1,1630,1247,0,0
413,-223,0,0,0,0,0,0,0,0,0,-1,1637,1247,0,0
420,-223,0,0,0,0,0,0,0,0,0,-1,1644,1247,0,0
427,-223,0,0,0,0,0,0,0,0,0,-1,1651,1247,0,0
434,-223,0,0,0,0,0,0,0,0,0,-1,1658,1247,0,0
441,-223,0,0,0,0,0,0,0,0,0,-1,1665,1247,0,0
448,-223,0,0,0,0,0,0,0,0,0,-1,1672,1247,0,0
455,-223,0,0,0,0,0,0,0,0,0,-1,1679,1247,0,0
462,-223,0,0,0,0,0,0,0,0,0,-1,1686,1247,0,0
469,-223,0,0,0,0,0,0,0,0,0,-1,1693,1247,0,0
476,-223,0,0,0,0,0,0,0,0,0,-1,1700,1247,0,0
483,-223,0,0,0,0,0,0,0,0,0,-1,1707,1247,0,0
490,-223,0,0,0,0,0,0,0,0,0,-1,1714,1247,0,0
497,-223,0,0,0,0,0,0,0,0,0,-1,1721,1247,0,0
504,-223,0,0,0,0,0,0,0,0,0,-1,1728,1247,0,0
511,-223,0,0,0,0,0,0,0,0,0,-1,1735,1247,0,0
518,-223,0,0,0,0,0,0,0,0,0,-1,1742,1247,0,0
525,-223,0,0,0,0,0,0,0,0,0,-1,1749,1247,0,0
532,-223,0,0,0,0,0,0,0,0,0,-1,1756,1247,0,0
539,-223,0,0,0,0,0,0,0,0,0,-1,1763,1247,0,0
546,-223,0,0,0,0,0,0,0,0,0,-1,1770,1247,0,0
553,-223,0,0,0,0,0,0,0,0,0,-1,1777,1247,0,0
560,-223,0,0,0,0,0,0,0,0,0,-1,1784,1247,0,0
567,-223,0,0,0,0,0,0,0,0,0,-1,1791,1247,0,0
574,-223,0,0,0,0,0,0,0,0,0,-1,1798,1247,0,0
581,-223,0,0,0,0,0,0,0,0,0,-1,1805,1247,0,0
588,-223,0,0,0,0,0,0,0,0,0,-1,1812,1247,0,0
595,-223,0,0,0,0,0,0,0,0,0,-1,1819,1247,0,0
602,-223,0,0,0,0,0,0,0,0,0,-1,1826,1247,0,0
609,-223,0,0,0,0,0,0,0,0,0,-1,1833,1247,0,0
616,-223,0,0,0,0,0,0,0,0,0,-1,1840,1247,0,0
623,-223,26.8845,3.06055,-8.29085e-06,0.00252055,-0.000234872,0.00254217,-2.99203e-05,-1.47897,0.00170484,0.0395879,1847,1247,26.8845,-3.06059
630,-223,26.8206,3.01489,0.00117718,0.00306117,0.000188224,0.00307979,0.00115856,1.47219,0.0017962,0.035895,1854,1247,26.8206,-3.01491
637,-223,26.8317,3.08594,0.00234196,0.00277757,0.000423541,0.00303602,0.00208351,1.02288,0.00179293,0.0288134,1861,1247,26.8317,-3.08595
644,-223,26.854,3.08801,0.00308927,0.00230559,0.000566771,0.00338646,0.0020084,0.482949,0.00196643,0.0209164,1868,1247,26.8539,-3.08807
651,-223,26.8356,3.04993,0.00345504,0.00162989,0.000616959,0.00364402,0.0014409,0.29724,0.00211916,0.0232502,1875,1247,26.8355,-3.0499
658,-223,26.8076,3.01672,0.00359832,0.00103675,0.000599822,0.00373182,0.000903255,0.218994,0.00224812,0.0430094,1882,1247,26.8076,-3.01672
665,-223,27.3184,3.30127,0,0,0,0,0,0,0,-1,1889,1247,27.3184,-3.30131
672,-223,27.707,2.14282,0,0,0,0,0,0,0,-1,1896,1247,27.707,-2.14281
679,-223,28.1307,2.01941,0,0,0,0,0,0,0,-1,1903,1247,28.1307,-2.01946
686,-223,22.2242,6.59094,0,0,0,0,0,0,0,-1,1910,1247,22.2243,-6.59097
693,-223,22.3088,6.46667,0.00260729,-0.00098563,0.000705333,0.00274079,-0.00111913,0.187066,0.00229315,0.030267,1917,1247,22.3088,-6.46668
700,-223,22.3639,6.27515,0.00203483,-0.00130541,0.000853264,0.00224017,-0.00151075,0.236165,0.00217921,0.0142591,1924,1247,22.3639,-6.27515
707,-223,22.3627,6.04431,0.00163165,-0.0013686,0.00105401,0.00196491,-0.00170186,0.30624,0.00211883,0.0133114,1931,1247,22.3626,-6.04434
714,-223,22.3843,5.82373,0.00145593,-0.00134753,0.000932959,0.00173802,-0.00162962,0.293624,0.00194465,0.0114314,1938,1247,22.3843,-5.82374
721,-223,22.3789,5.59827,0.0015969,-0.00105227,0.00104863,0.00196174,-0.00141711,0.33482,0.00195921,0.0140482,1945,1247,22.3789,-5.59829
728,-223,22.3496,5.39941,0.00290748,-0.000964158,0.000807677,0.00306921,-0.00112589,0.197635,0.00250717,0.0157427,1952,1247,22.3496,-5.39947
735,-223,22.3514,5.2085,0.00583432,-0.000619389,0.000467985,0.00586808,-0.000653148,0.072012,0.00414695,0.0136263,1959,1247,22.3515,-5.20848
742,-223,22.3345,5.01501,0.00957058,-0.000470805,-9.43e-06,0.00957059,-0.000470814,-0.000939112,0.00654298,0.0115039,1966,1247,22.3345,-5.01497
749,-223,22.3394,4.77429,0.0142225,-0.000422256,-0.000380552,0.0142323,-0.000432137,-0.0259623,0.0096355,0.0101315,1973,1247,22.3393,-4.77433
756,-223,22.3403,4.55176,0.0203199,-0.000539484,-0.000538747,0.0203338,-0.000553388,-0.0258046,0.0137441,0.0108423,1980,1247,22.3403,-4.55181
763,-223,22.3344,4.33557,0.0283203,-0.000740691,-0.000650777,0.0283349,-0.000755256,-0.0223785,0.0191466,0.0145889,1987,1247,22.3343,-4.33563
770,-223,22.3295,4.05396,0.0382199,-0.000920117,-0.000460349,0.0382253,-0.000925532,-0.0117594,0.0257976,0.0380491,1994,1247,22.3294,-4.05391
777,-223,23.7462,4.29553,0.0497678,-0.000962245,0.000308059,0.0497697,-0.000964116,0.00607221,0.0335058,0.047979,2001,1247,23.7463,-4.29556
784,-223,23.6725,4.75122,0.062584,-0.000545057,0.00204278,0.06265,-0.000611091,0.0323137,0.0419718,0.0498207,2008,1247,23.6725,-4.75125
791,-223,23.9191,4.94836,0,0,0,0,0,0,0,-1,2015,1247,23.919,-4.94832
798,-223,0,0,0,0,0,0,0,0,0,-1,2022,1247,0,0
805,-223,0,0,0,0,0,0,0,0,0,-1,2029,1247,0,0
812,-223,0,0,0,0,0,0,0,0,0,-1,2036,1247,0,0
-700,-230,0,0,0,0,0,0,0,0,0,-1,524,1254,0,0
-693,-230,0,0,0,0,0,0,0,0,0,-1,531,1254,0,0
-686,-230,0,0,0,0,0,0,0,0,0,-1,538,1254,0,0
-679,-230,0,0,0,0,0,0,0,0,0,-1,545,1254,0,0
-672,-230,-16.2636,-0.973511,0,0,0,0,0,0,0,-1,552,1254,-16.2636,0.973529
-665,-230,-15.3763,-0.449341,0,0,0,0,0,0,0,-1,559,1254,-15.3763,0.449303
-658,-230,-14.7658,-0.367065,0,0,0,0,0,0,0,-1,566,1254,-14.7658,0.367034
-651,-230,-13.6491,0.417236,0,0,0,0,0,0,0,-1,573,1254,-13.6491,-0.417235
-644,-230,-14.4104,2.40076,0,0,0,0,0,0,0,-1,580,1254,-14.4104,-2.40077
-637,-230,-13.0226,1.71399,0,0,0,0,0,0,0,-1,587,1254,-13.0226,-1.71401
-630,-230,-13.0842,1.88733,0.0213376,0.00123035,0.00225779,0.021588,0.000979949,0.110455,0.0140767,0.0452543,594,1254,-13.0842,-1.88729
-623,-230,-13.1653,2.09094,0.0143894,0.00193188,0.00242741,0.0148456,0.00147559,0.185803,0.00944374,0.0271261,601,1254,-13.1654,-2.09094
-616,-230,-13.1965,2.35156,0.00893132,0.00323308,0.0020804,0.00961003,0.00255437,0.315351,0.00574765,0.0157463,608,1254,-13.1965,-2.35161
-609,-230,-13.1807,2.58411,0.00429815,0.0026474,0.00210826,0.00573684,0.00120871,0.598821,0.0034921,0.011834,615,1254,-13.1807,-2.5841
-602,-230,-13.1924,2.83069,0.00158418,0.00173921,0.00158168,0.00324528,7.81162e-05,0.809882,0.00213796,0.0111803,622,1254,-13.1924,-2.83065
-595,-230,-13.2158,3.09265,0.000812931,0.00125995,0.000654269,0.00172783,0.000345046,0.949991,0.00105584,0.0174514,629,1254,-13.2158,-3.09264
-588,-230,-13.2173,3.36755,0.000877662,0.000735768,0.000166071,0.000987306,0.000626124,0.583529,0.000576822,0.0255409,636,1254,-13.2173,-3.36758
-581,-230,-13.2244,3.64868,0.00142804,-0.000524827,-0.000315739,0.00147782,-0.000574607,-0.156374,0.00122262,0.0244296,643,1254,-13.2244,-3.64869
-574,-230,-13.1971,3.88513,0.00187135,-0.00115137,-0.000729472,0.00203819,-0.0013182,-0.224839,0.00195262,0.0168596,650,1254,-13.1971,-3.88509
-567,-230,-12.9891,4.20471,0.00164203,-0.00155187,-0.000515865,0.00172329,-0.00163312,-0.156225,0.00193806,0.0245829,657,1254,-12.989,-4.20467
-560,-230,-12.6641,4.62415,0.00151944,-0.00224119,-0.000345563,0.00155093,-0.00227268,-0.0908756,0.00222063,0.0437921,664,1254,-12.6641,-4.62419
-553,-230,-12.0283,5.00916,0,0,0,0,0,0,0,-1,671,1254,-12.0283,-5.00912
-546,-230,-13.7867,1.05713,0,0,0,0,0,0,0,-1,678,1254,-13.7868,-1.05713
-539,-230,-17.3829,1.5022,0,0,0,0,0,0,0,-1,685,1254,-17.3829,-1.50222
-532,-230,-18.5878,2.724,0,0,0,0,0,0,0,-1,692,1254,-18.5878,-2.72397
-525,-230,-18.0842,1.1637,0,0,0,0,0,0,0,-1,699,1254,-18.0843,-1.16373
-518,-230,-18.2826,1.276,-0.00282348,-0.00586524,0.00146054,-0.00223575,-0.00645297,0.382581,0.00378372,0.0453014,706,1254,-18.2826,-1.27602
-511,-230,-18.376,1.26025,-0.0038669,-0.00576307,0.00207008,-0.00253813,-0.00709185,0.570657,0.00414924,0.0390218,713,1254,-18.376,-1.2602
-504,-230,-18.3,1.1521,-0.00290401,-0.00421197,0.00354411,4.59503e-05,-0.00716193,0.694161,0.00479001,0.0391622,720,1254,-18.3001,-1.15205
-497,-230,0,0,0,0,0,0,0,0,0,-1,727,1254,0,0
-490,-230,0,0,0,0,0,0,0,0,0,-1,734,1254,0,0
-483,-230,0,0,0,0,0,0,0,0,0,-1,741,1254,0,0
-476,-230,0,0,0,0,0,0,0,0,0,-1,748,1254,0,0
-469,-230,0,0,0,0,0,0,0,0,0,-1,755,1254,0,0
-462,-230,0,0,0,0,0,0,0,0,0,-1,762,1254,0,0
-455,-230,0,0,0,0,0,0,0,0,0,-1,769,1254,0,0
-448,-230,0,0,0,0,0,0,0,0,0,-1,776,1254,0,0
-441,-230,0,0,0,0,0,0,0,0,0,-1,783,1254,0,0
-434,-230,0,0,0,0,0,0,0,0,0,-1,790,1254,0,0
-427,-230,0,0,0,0,0,0,0,0,0,-1,797,1254,0,0
-420,-230,0,0,0,0,0,0,0,0,0,-1,804,1254,0,0
-413,-230,0,0,0,0,0,0,0,0,0,-1,811,1254,0,0
-406,-230,0,0,0,0,0,0,0,0,0,-1,818,1254,0,0
-399,-230,0,0,0,0,0,0,0,0,0,-1,825,1254,0,0
-392,-230,0,0,0,0,0,0,0,0,0,-1,832,1254,0,0
-385,-230,0,0,0,0,0,0,0,0,0,-1,839,1254,0,0
-378,-230,0,0,0,0,0,0,0,0,0,-1,846,1254,0,0
-371,-230,0,0,0,0,0,0,0,0,0,-1,853,1254,0,0
-364,-230,0,0,0,0,0,0,0,0,0,-1,860,1254,0,0
-357,-230,0,0,0,0,0,0,0,0,0,-1,867,1254,0,0
-350,-230,0,0,0,0,0,0,0,0,0,-1,874,1254,0,0
-343,-230,0,0,0,0,0,0,0,0,0,-1,881,1254,0,0
-336,-230,0,0,0,0,0,0,0,0,0,-1,888,1254,0,0
-329,-230,0,0,0,0,0,0,0,0,0,-1,895,1254,0,0
-322,-230,0,0,0,0,0,0,0,0,0,-1,902,1254,0,0
-315,-230,0,0,0,0,0,0,0,0,0,-1,909,1254,0,0
-308,-230,0,0,0,0,0,0,0,0,0,-1,916,1254,0,0
-301,-230,0,0,0,0,0,0,0,0,0,-1,923,1254,0,0
-294,-230,0,0,0,0,0,0,0,0,0,-1,930,1254,0,0
-287,-230,0,0,0,0,0,0,0,0,0,-1,937,1254,0,0
-280,-230,0,0,0,0,0,0,0,0,0,-1,944,1254,0,0
-273,-230,0,0,0,0,0,0,0,0,0,-1,951,1254,0,0
-266,-230,0,0,0,0,0,0,0,0,0,-1,958,1254,0,0
-259,-230,0,0,0,0,0,0,0,0,0,-1,965,1254,0,0
-252,-230,0,0,0,0,0,0,0,0,0,-1,972,1254,0,0
-245,-230,0,0,0,0,0,0,0,0,0,-1,979,1254,0,0
-238,-230,0,0,0,0,0,0,0,0,0,-1,986,1254,0,0
-231,-230,0,0,0,0,0,0,0,0,0,-1,993,1254,0,0
-224,-230,0,0,0,0,0,0,0,0,0,-1,1000,1254,0,0
-217,-230,0,0,0,0,0,0,0,0,0,-1,1007,1254,0,0
-210,-230,0,0,0,0,0,0,0,0,0,-1,1014,1254,0,0
-203,-230,0,0,0,0,0,0,0,0,0,-1,1021,1254,0,0
-196,-230,0,0,0,0,0,0,0,0,0,-1,1028,1254,0,0
-189,-230,0,0,0,0,0,0,0,0,0,-1,1035,1254,0,0
-182,-230,0,0,0,0,0,0,0,0,0,-1,1042,1254,0,0
-175,-230,0,0,0,0,0,0,0,0,0,-1,1049,1254,0,0
-168,-230,0,0,0,0,0,0,0,0,0,-1,1056,1254,0,0
-161,-230,0,0,0,0,0,0,0,0,0,-1,1063,1254,0,0
-154,-230,0,0,0,0,0,0,0,0,0,-1,1070,1254,0,0
-147,-230,0,0,0,0,0,0,0,0,0,-1,1077,1254,0,0
-140,-230,0,0,0,0,0,0,0,0,0,-1,1084,1254,0,0
-133,-230,0,0,0,0,0,0,0,0,0,-1,1091,1254,0,0
-126,-230,0,0,0,0,0,0,0,0,0,-1,1098,1254,0,0
-119,-230,0,0,0,0,0,0,0,0,0,-1,1105,1254,0,0
-112,-230,0,0,0,0,0,0,0,0,0,-1,1112,1254,0,0
-105,-230,0,0,0,0,0,0,0,0,0,-1,1119,1254,0,0
-98,-230,0,0,0,0,0,0,0,0,0,-1,1126,1254,0,0
-91,-230,0,0,0,0,0,0,0,0,0,-1,1133,1254,0,0
-84,-230,0,0,0,0,0,0,0,0,0,-1,1140,1254,0,0
-77,-230,0,0,0,0,0,0,0,0,0,-1,1147,1254,0,0
-70,-230,0,0,0,0,0,0,0,0,0,-1,1154,1254,0,0
-63,-230,0,0,0,0,0,0,0,0,0,-1,1161,1254,0,0
-56,-230,0,0,0,0,0,0,0,0,0,-1,1168,1254,0,0
-49,-230,0,0,0,0,0,0,0,0,0,-1,1175,1254,0,0
-42,-230,0,0,0,0,0,0,0,0,0,-1,1182,1254,0,0
-35,-230,0,0,0,0,0,0,0,0,0,-1,1189,1254,0,0
-28,-230,0,0,0,0,0,0,0,0,0,-1,1196,1254,0,0
-21,-230,0,0,0,0,0,0,0,0,0,-1,1203,1254,0,0
-14,-230,0,0,0,0,0,0,0,0,0,-1,1210,1254,0,0
-7,-230,0,0,0,0,0,0,0,0,0,-1,1217,1254,0,0
0,-230,0,0,0,0,0,0,0,0,0,-1,1224,1254,0,0
7,-230,0,0,0,0,0,0,0,0,0,-1,1231,1254,0,0
14,-230,0,0,0,0,0,0,0,0,0,-1,1238,1254,0,0
21,-230,0,0,0,0,0,0,0,0,0,-1,1245,1254,0,0
28,-230,0,0,0,0,0,0,0,0,0,-1,1252,1254,0,0
35,-230,0,0,0,0,0,0,0,0,0,-1,1259,1254,0,0
42,-230,0,0,0,0,0,0,0,0,0,-1,1266,1254,0,0
49,-230,0,0,0,0,0,0,0,0,0,-1,1273,1254,0,0
56,-230,0,0,0,0,0,0,0,0,0,-1,1280,1254,0,0
63,-230,0,0,0,0,0,0,0,0,0,-1,1287,1254,0,0
70,-230,0,0,0,0,0,0,0,0,0,-1,1294,1254,0,0
77,-230,0,0,0,0,0,0,0,0,0,-1,1301,1254,0,0
84,-230,0,0,0,0,0,0,0,0,0,-1,1308,1254,0,0
91,-230,0,0,0,0,0,0,0,0,0,-1,1315,1254,0,0
98,-230,0,0,0,0,0,0,0,0,0,-1,1322,1254,0,0
105,-230,0,0,0,0,0,0,0,0,0,-1,1329,1254,0,0
112,-230,0,0,0,0,0,0,0,0,0,-1,1336,1254,0,0
119,-230,0,0,0,0,0,0,0,0,0,-1,1343,1254,0,0
126,-230,0,0,0,0,0,0,0,0,0,-1,1350,1254,0,0
133,-230,0,0,0,0,0,0,0,0,0,-1,1357,1254,0,0
140,-230,0,0,0,0,0,0,0,0,0,-1,1364,1254,0,0
147,-230,0,0,0,0,0,0,0,0,0,-1,1371,1254,0,0
154,-230,0,0,0,0,0,0,0,0,0,-1,1378,1254,0,0
161,-230,0,0,0,0,0,0,0,0,0,-1,1385,1254,0,0
168,-230,0,0,0,0,0,0,0,0,0,-1,1392,1254,0,0
175,-230,0,0,0,0,0,0,0,0,0,-1,1399,1254,0,0
182,-230,0,0,0,0,0,0,0,0,0,-1,1406,1254,0,0
189,-230,0,0,0,0,0,0,0,0,0,-1,1413,1254,0,0
196,-230,0,0,0,0,0,0,0,0,0,-1,1420,1254,0,0
203,-230,0,0,0,0,0,0,0,0,0,-1,1427,1254,0,0
210,-230,0,0,0,0,0,0,0,0,0,-1,1434,1254,0,0
217,-230,0,0,0,0,0,0,0,0,0,-1,1441,1254,0,0
224,-230,0,0,0,0,0,0,0,0,0,-1,1448,1254,0,0
231,-230,0,0,0,0,0,0,0,0,0,-1,1455,1254,0,0
238,-230,0,0,0,0,0,0,0,0,0,-1,1462,1254,0,0
245,-230,0,0,0,0,0,0,0,0,0,-1,1469,1254,0,0
252,-230,0,0,0,0,0,0,0,0,0,-1,1476,1254,0,0
259,-230,0,0,0,0,0,0,0,0,0,-1,1483,1254,0,0
266,-230,0,0,0,0,0,0,0,0,0,-1,1490,1254,0,0
273,-230,0,0,0,0,0,0,0,0,0,-1,1497,1254,0,0
280,-230,0,0,0,0,0,0,0,0,0,-1,1504,1254,0,0
287,-230,0,0,0,0,0,0,0,0,0,-1,1511,1254,0,0
294,-230,0,0,0,0,0,0,0,0,0,-1,1518,1254,0,0
301,-230,0,0,0,0,0,0,0,0,0,-1,1525,1254,0,0
308,-230,0,0,0,0,0,0,0,0,0,-1,1532,1254,0,0
315,-230,0,0,0,0,0,0,0,0,0,-1,1539,1254,0,0
322,-230,0,0,0,0,0,0,0,0,0,-1,1546,1254,0,0
329,-230,0,0,0,0,0,0,0,0,0,-1,1553,1254,0,0
336,-230,0,0,0,0,0,0,0,0,0,-1,1560,1254,0,0
343,-230,0,0,0,0,0,0,0,0,0,-1,1567,1254,0,0
350,-230,0,0,0,0,0,0,0,0,0,-1,1574,1254,0,0
357,-230,0,0,0,0,0,0,0,0,0,-1,1581,1254,0,0
364,-230,0,0,0,0,0,0,0,0,0,-1,1588,1254,0,0
371,-230,0,0,0,0,0,0,0,0,0,-1,1595,1254,0,0
378,-230,0,0,0,0,0,0,0,0,0,-1,1602,1254,0,0
385,-230,0,0,0,0,0,0,0,0,0,-1,1609,1254,0,0
392,-230,0,0,0,0,0,0,0,0,0,-1,1616,1254,0,0
399,-230,0,0,0,0,0,0,0,0,0,-1,1623,1254,0,0
406,-230,0,0,0,0,0,0,0,0,0,-1,1630,1254,0,0
413,-230,0,0,0,0,0,0,0,0,0,-1,1637,1254,0,0
420,-230,0,0,0,0,0,0,0,0,0,-1,1644,1254,0,0
427,-230,0,0,0,0,0,0,0,0,0,-1,1651,1254,0,0
434,-230,0,0,0,0,0,0,0,0,0,-1,1658,1254,0,0
441,-230,0,0,0,0,0,0,0,0,0,-1,1665,1254,0,0
448,-230,0,0,0,0,0,0,0,0,0,-1,1672,1254,0,0
455,-230,0,0,0,0,0,0,0,0,0,-1,1679,1254,0,0
462,-230,0,0,0,0,0,0,0,0,0,-1,1686,1254,0,0
469,-230,0,0,0,0,0,0,0,0,0,-1,1693,1254,0,0
476,-230,0,0,0,0,0,0,0,0,0,-1,1700,1254,0,0
483,-230,0,0,0,0,0,0,0,0,0,-1,1707,1254,0,0
490,-230,0,0,0,0,0,0,0,0,0,-1,1714,1254,0,0
497,-230,0,0,0,0,0,0,0,0,0,-1,1721,1254,0,0
504,-230,0,0,0,0,0,0,0,0,0,-1,1728,1254,0,0
511,-230,0,0,0,0,0,0,0,0,0,-1,1735,1254,0,0
518,-230,0,0,0,0,0,0,0,0,0,-1,1742,1254,0,0
525,-230,0,0,0,0,0,0,0,0,0,-1,1749,1254,0,0
532,-230,0,0,0,0,0,0,0,0,0,-1,1756,1254,0,0
539,-230,0,0,0,0,0,0,0,0,0,-1,1763,1254,0,0
546,-230,0,0,0,0,0,0,0,0,0,-1,1770,1254,0,0
553,-230,0,0,0,0,0,0,0,0,0,-1,1777,1254,0,0
560,-230,0,0,0,0,0,0,0,0,0,-1,1784,1254,0,0
567,-230,0,0,0,0,0,0,0,0,0,-1,1791,1254,0,0
574,-230,0,0,0,0,0,0,0,0,0,-1,1798,1254,0,0
581,-230,0,0,0,0,0,0,0,0,0,-1,1805,1254,0,0
588,-230,0,0,0,0,0,0,0,0,0,-1,1812,1254,0,0
595,-230,0,0,0,0,0,0,0,0,0,-1,1819,1254,0,0
602,-230,0,0,0,0,0,0,0,0,0,-1,1826,1254,0,0
609,-230,0,0,0,0,0,0,0,0,0,-1,1833,1254,0,0
616,-230,26.9086,3.21045,-0.000180152,0.00395533,-0.00207367,0.00481601,-0.00104084,-1.17738,0.00360802,0.0385516,1840,1254,26.9085,-3.21046
623,-230,26.8773,3.11304,-0.000205301,0.00376248,-0.000440726,0.00381084,-0.000253666,-1.4615,0.0026292,0.0372537,1847,1254,26.8773,-3.11301
630,-230,26.8048,3.11047,0.00112527,0.00453607,0.00030891,0.00456382,0.00109751,1.4812,0.00275069,0.0318334,1854,1254,26.8048,-3.11049
637,-230,26.8027,3.06299,0.00224603,0.00435917,0.000797255,0.00462621,0.00197899,1.24759,0.00268022,0.0252558,1861,1254,26.8028,-3.06296
644,-230,26.7931,3.02551,0.00292199,0.00370424,0.000967509,0.00435669,0.00226954,0.977484,0.00251607,0.0194042,1868,1254,26.7931,-3.02554
651,-230,26.8092,3.0321,0.00322308,0.00283809,0.000976203,0.00402558,0.00203558,0.688054,0.00232422,0.0386032,1875,1254,26.8093,-3.0321
658,-230,26.5297,3.17871,0.00333616,0.00205747,0.000914883,0.00381295,0.00158067,0.480429,0.0022121,0.0477712,1882,1254,26.5297,-3.17876
665,-230,26.0441,3.19397,0,0,0,0,0,0,0,-1,1889,1254,26.0441,-3.19393
672,-230,27.4465,1.60596,0,0,0,0,0,0,0,-1,1896,1254,27.4466,-1.60593
679,-230,19.139,6.00427,0,0,0,0,0,0,0,-1,1903,1254,19.139,-6.0043
686,-230,22.0293,6.55054,0,0,0,0,0,0,0,-1,1910,1254,22.0292,-6.55055
693,-230,22.0813,6.44385,0.0026752,-0.00069889,0.000675749,0.0028055,-0.000829195,0.190491,0.00219946,0.0258121,1917,1254,22.0813,-6.44382
700,-230,22.1443,6.30139,0.00212491,-0.00112447,0.000719645,0.00227716,-0.00127672,0.208485,0.00207875,0.0110206,1924,1254,22.1443,-6.3014
707,-230,22.1539,6.08118,0.0017972,-0.00118996,0.000863685,0.00202894,-0.0014217,0.262142,0.00200249,0.00915718,1931,1254,22.1539,-6.08123
714,-230,22.1353,5.83557,0.00162182,-0.00116151,0.00066776,0.00177373,-0.00131343,0.22369,0.00178896,0.0123748,1938,1254,22.1352,-5.83557
721,-230,22.1366,5.60266,0.00167896,-0.000886822,0.000614521,0.00181855,-0.00102641,0.223358,0.00166363,0.0121186,1945,1254,22.1366,-5.60268
728,-230,22.1208,5.40112,0.00287127,-0.000823526,0.000171939,0.00287925,-0.00083151,0.0464017,0.00224852,0.0132013,1952,1254,22.1209,-5.40111
735,-230,22.1105,5.20862,0.00545506,-0.000657179,-0.000398469,0.00548093,-0.000683046,-0.0648263,0.00390162,0.0142805,1959,1254,22.1105,-5.20862
742,-230,22.1064,4.99756,0.00887045,-0.000745406,-0.00109769,0.00899416,-0.00086912,-0.112231,0.00630581,0.0108167,1966,1254,22.1064,-4.9976
749,-230,22.1166,4.75439,0.0132547,-0.00111372,-0.00186046,0.0134917,-0.00135071,-0.126699,0.00947683,0.010052,1973,1254,22.1166,-4.75435
756,-230,22.1182,4.52527,0.0192457,-0.00177107,-0.00267119,0.0195799,-0.00210526,-0.124462,0.0138086,0.012335,1980,1254,22.1182,-4.52532
763,-230,22.1375,4.21863,0.0272836,-0.00277029,-0.00351321,0.0276888,-0.00317551,-0.114835,0.0196036,0.0251168,1987,1254,22.1374,-4.21857
770,-230,22.2438,3.8667,0.0377366,-0.00412162,-0.00425059,0.0381639,-0.00454889,-0.100185,0.0270865,0.0438887,1994,1254,22.2438,-3.86675
777,-230,23.2764,4.45483,0,0,0,0,0,0,0,-1,2001,1254,23.2764,-4.45481
784,-230,23.7542,4.96033,0,0,0,0,0,0,0,-1,2008,1254,23.7542,-4.96031
791,-230,24.2738,5.66309,0,0,0,0,0,0,0,-1,2015,1254,24.2738,-5.66305
798,-230,0,0,0,0,0,0,0,0,0,-1,2022,1254,0,0
805,-230,0,0,0,0,0,0,0,0,0,-1,2029,1254,0,0
812,-230,0,0,0,0,0,0,0,0,0,-1,2036,1254,0,0
-700,-237,0,0,0,0,0,0,0,0,0,-1,524,1261,0,0
-693,-237,0,0,0,0,0,0,0,0,0,-1,531,1261,0,0
-686,-237,0,0,0,0,0,0,0,0,0,-1,538,1261,0,0
-679,-237,0,0,0,0,0,0,0,0,0,-1,545,1261,0,0
-672,-237,-15.9309,-1.39331,0.085581,-0.0257064,-0.0152175,0.0876243,-0.0277497,-0.133477,0.0695369,0.0488579,552,1261,-15.9309,1.39327
-665,-237,-15.944,-0.209961,0.0741636,-0.0155595,-0.0128062,0.0759556,-0.0173515,-0.139032,0.0573034,0.0468968,559,1261,-15.944,0.209949
-658,-237,-14.9404,-0.784668,0,0,0,0,0,0,0,-1,566,1261,-14.9403,0.784684
-651,-237,-14.9751,1.36694,0,0,0,0,0,0,0,-1,573,1261,-14.9751,-1.36697
-644,-237,-14.4343,1.37012,0,0,0,0,0,0,0,-1,580,1261,-14.4343,-1.37009
-637,-237,-12.6808,1.81604,0,0,0,0,0,0,0,-1,587,1261,-12.6808,-1.81598
-630,-237,-12.7769,1.99182,0.0222701,0.00290986,0.00134275,0.0223628,0.00281718,0.0689161,0.0140638,0.0468281,594,1261,-12.7769,-1.99188
-623,-237,-12.8564,2.12463,0.0150313,0.00356386,0.00214602,0.0154198,0.00317541,0.17907,0.00940186,0.0285709,601,1261,-12.8565,-2.12468
-616,-237,-12.9042,2.33203,0.00932122,0.00494887,0.00220619,0.0102409,0.00402914,0.394978,0.00595721,0.0138949,608,1261,-12.9043,-2.33198
-609,-237,-12.9176,2.57263,0.00451332,0.00405882,0.00262724,0.00692312,0.00164902,0.742256,0.00417572,0.0158831,615,1261,-12.9176,-2.57259
-602,-237,-12.92,2.84521,0.00184735,0.00277029,0.00234233,0.00469617,-7.85328e-05,0.882659,0.00315728,0.0116857,622,1261,-12.9201,-2.84518
-595,-237,-12.9666,3.1051,0.00134687,0.00201549,0.0014336,0.00315325,0.000209119,0.899949,0.00203604,0.0150326,629,1261,-12.9666,-3.10513
-588,-237,-12.9894,3.3512,0.00167079,0.00125376,0.000931189,0.00241653,0.000508028,0.675253,0.00147121,0.0259749,636,1261,-12.9894,-3.35124
-581,-237,-12.9924,3.62903,0.00234086,-9.7826e-05,0.000444102,0.00241922,-0.000176182,0.174641,0.00167463,0.0245252,643,1261,-12.9924,-3.629
-574,-237,-12.9542,3.89246,0.00280378,-0.000869221,9.14715e-06,0.0028038,-0.000869244,0.00249035,0.00221651,0.0158927,650,1261,-12.9542,-3.89246
-567,-237,-12.8984,4.17615,0.00245034,-0.0013274,0.000183292,0.00245922,-0.00133627,0.0483674,0.00222307,0.0177681,657,1261,-12.8983,-4.17614
-560,-237,-12.6295,4.53711,0.0021437,-0.00207291,0.000322046,0.00216815,-0.00209736,0.0757899,0.00246281,0.0344167,664,1261,-12.6295,-4.53714
-553,-237,-12.355,4.80481,0,0,0,0,0,0,0,-1,671,1261,-12.355,-4.80484
-546,-237,-11.192,1.14014,0,0,0,0,0,0,0,-1,678,1261,-11.192,-1.14011
-539,-237,-16.512,1.53455,0,0,0,0,0,0,0,-1,685,1261,-16.512,-1.53457
-532,-237,-17.5706,1.70459,0,0,0,0,0,0,0,-1,692,1261,-17.5705,-1.70457
-525,-237,-18.0622,1.2251,0,0,0,0,0,0,0,-1,699,1261,-18.0622,-1.22509
-518,-237,-18.18,1.22778,-0.00330438,-0.00542498,0.00243219,-0.00171142,-0.00701794,0.579846,0.00422531,0.0468213,706,1261,-18.18,-1.22775
-511,-237,-18.3226,1.27405,-0.00461631,-0.00541689,0.00313119,-0.00185993,-0.00817328,0.721823,0.00494683,0.0425488,713,1261,-18.3225,-1.27405
-504,-237,-18.435,1.28394,-0.00465604,-0.00459068,0.00453011,-9.31304e-05,-0.00915359,0.789005,0.00607159,0.042271,720,1261,-18.435,-1.28395
-497,-237,-18.5286,1.47925,-0.00386175,-0.00288863,0.00577465,0.00241992,-0.0091703,0.827428,0.0070598,0.0462586,727,1261,-18.5285,-1.47925
-490,-237,0,0,0,0,0,0,0,0,0,-1,734,1261,0,0
-483,-237,0,0,0,0,0,0,0,0,0,-1,741,1261,0,0
-476,-237,0,0,0,0,0,0,0,0,0,-1,748,1261,0,0
-469,-237,0,0,0,0,0,0,0,0,0,-1,755,1261,0,0
-462,-237,0,0,0,0,0,0,0,0,0,-1,762,1261,0,0
-455,-237,0,0,0,0,0,0,0,0,0,-1,769,1261,0,0
-448,-237,0,0,0,0,0,0,0,0,0,-1,776,1261,0,0
-441,-237,0,0,0,0,0,0,0,0,0,-1,783,1261,0,0
-434,-237,0,0,0,0,0,0,0,0,0,-1,790,1261,0,0
-427,-237,0,0,0,0,0,0,0,0,0,-1,797,1261,0,0
-420,-237,0,0,0,0,0,0,0,0,0,-1,804,1261,0,0
-413,-237,0,0,0,0,0,0,0,0,0,-1,811,1261,0,0
-406,-237,0,0,0,0,0,0,0,0,0,-1,818,1261,0,0
-399,-237,0,0,0,0,0,0,0,0,0,-1,825,1261,0,0
-392,-237,0,0,0,0,0,0,0,0,0,-1,832,1261,0,0
-385,-237,0,0,0,0,0,0,0,0,0,-1,839,1261,0,0
-378,-237,0,0,0,0,0,0,0,0,0,-1,846,1261,0,0
-371,-237,0,0,0,0,0,0,0,0,0,-1,853,1261,0,0
-364,-237,0,0,0,0,0,0,0,0,0,-1,860,1261,0,0
-357,-237,0,0,0,0,0,0,0,0,0,-1,867,1261,0,0
-350,-237,0,0,0,0,0,0,0,0,0,-1,874,1261,0,0
-343,-237,0,0,0,0,0,0,0,0,0,-1,881,1261,0,0
-336,-237,0,0,0,0,0,0,0,0,0,-1,888,1261,0,0
-329,-237,0,0,0,0,0,0,0,0,0,-1,895,1261,0,0
-322,-237,0,0,0,0,0,0,0,0,0,-1,902,1261,0,0
-315,-237,0,0,0,0,0,0,0,0,0,-1,909,1261,0,0
-308,-237,0,0,0,0,0,0,0,0,0,-1,916,1261,0,0
-301,-237,0,0,0,0,0,0,0,0,0,-1,923,1261,0,0
-294,-237,0,0,0,0,0,0,0,0,0,-1,930,1261,0,0
-287,-237,0,0,0,0,0,0,0,0,0,-1,937,1261,0,0
-280,-237,0,0,0,0,0,0,0,0,0,-1,944,1261,0,0
-273,-237,0,0,0,0,0,0,0,0,0,-1,951,1261,0,0
-266,-237,0,0,0,0,0,0,0,0,0,-1,958,1261,0,0
-259,-237,0,0,0,0,0,0,0,0,0,-1,965,1261,0,0
-252,-237,0,0,0,0,0,0,0,0,0,-1,972,1261,0,0
-245,-237,0,0,0,0,0,0,0,0,0,-1,979,1261,0,0
-238,-237,0,0,0,0,0,0,0,0,0,-1,986,1261,0,0
-231,-237,0,0,0,0,0,0,0,0,0,-1,993,1261,0,0
-224,-237,0,0,0,0,0,0,0,0,0,-1,1000,1261,0,0
-217,-237,0,0,0,0,0,0,0,0,0,-1,1007,1261,0,0
-210,-237,0,0,0,0,0,0,0,0,0,-1,1014,1261,0,0
-203,-237,0,0,0,0,0,0,0,0,0,-1,1021,1261,0,0
-196,-237,0,0,0,0,0,0,0,0,0,-1,1028,1261,0,0
-189,-237,0,0,0,0,0,0,0,0,0,-1,1035,1261,0,0
-182,-237,0,0,0,0,0,0,0,0,0,-1,1042,1261,0,0
-175,-237,0,0,0,0,0,0,0,0,0,-1,1049,1261,0,0
-168,-237,0,0,0,0,0,0,0,0,0,-1,1056,1261,0,0
-161,-237,0,0,0,0,0,0,0,0,0,-1,1063,1261,0,0
-154,-237,0,0,0,0,0,0,0,0,0,-1,1070,1261,0,0
-147,-237,0,0,0,0,0,0,0,0,0,-1,1077,1261,0,0
-140,-237,0,0,0,0,0,0,0,0,0,-1,1084,1261,0,0
-133,-237,0,0,0,0,0,0,0,0,0,-1,1091,1261,0,0
-126,-237,0,0,0,0,0,0,0,0,0,-1,1098,1261,0,0
-119,-237,0,0,0,0,0,0,0,0,0,-1,1105,1261,0,0
-112,-237,0,0,0,0,0,0,0,0,0,-1,1112,1261,0,0
-105,-237,0,0,0,0,0,0,0,0,0,-1,1119,1261,0,0
-98,-237,0,0,0,0,0,0,0,0,0,-1,1126,1261,0,0
-91,-237,0,0,0,0,0,0,0,0,0,-1,1133,1261,0,0
-84,-237,0,0,0,0,0,0,0,0,0,-1,1140,1261,0,0
-77,-237,0,0,0,0,0,0,0,0,0,-1,1147,1261,0,0
-70,-237,0,0,0,0,0,0,0,0,0,-1,1154,1261,0,0
-63,-237,0,0,0,0,0,0,0,0,0,-1,1161,1261,0,0
-56,-237,0,0,0,0,0,0,0,0,0,-1,1168,1261,0,0
-49,-237,0,0,0,0,0,0,0,0,0,-1,1175,1261,0,0
-42,-237,0,0,0,0,0,0,0,0,0,-1,1182,1261,0,0
-35,-237,0,0,0,0,0,0,0,0,0,-1,1189,1261,0,0
-28,-237,0,0,0,0,0,0,0,0,0,-1,1196,1261,0,0
-21,-237,0,0,0,0,0,0,0,0,0,-1,1203,1261,0,0
-14,-237,0,0,0,0,0,0,0,0,0,-1,1210,1261,0,0
-7,-237,0,0,0,0,0,0,0,0,0,-1,1217,1261,0,0
0,-237,0,0,0,0,0,0,0,0,0,-1,1224,1261,0,0
7,-237,0,0,0,0,0,0,0,0,0,-1,1231,1261,0,0
14,-237,0,0,0,0,0,0,0,0,0,-1,1238,1261,0,0
21,-237,0,0,0,0,0,0,0,0,0,-1,1245,1261,0,0
28,-237,0,0,0,0,0,0,0,0,0,-1,1252,1261,0,0
35,-237,0,0,0,0,0,0,0,0,0,-1,1259,1261,0,0
42,-237,0,0,0,0,0,0,0,0,0,-1,1266,1261,0,0
49,-237,0,0,0,0,0,0,0,0,0,-1,1273,1261,0,0
56,-237,0,0,0,0,0,0,0,0,0,-1,1280,1261,0,0
63,-237,0,0,0,0,0,0,0,0,0,-1,1287,1261,0,0
70,-237,0,0,0,0,0,0,0,0,0,-1,1294,1261,0,0
77,-237,0,0,0,0,0,0,0,0,0,-1,1301,1261,0,0
84,-237,0,0,0,0,0,0,0,0,0,-1,1308,1261,0,0
91,-237,0,0,0,0,0,0,0,0,0,-1,1315,1261,0,0
98,-237,0,0,0,0,0,0,0,0,0,-1,1322,1261,0,0
105,-237,0,0,0,0,0,0,0,0,0,-1,1329,1261,0,0
112,-237,0,0,0,0,0,0,0,0,0,-1,1336,1261,0,0
119,-237,0,0,0,0,0,0,0,0,0,-1,1343,1261,0,0
126,-237,0,0,0,0,0,0,0,0,0,-1,1350,1261,0,0
133,-237,0,0,0,0,0,0,0,0,0,-1,1357,1261,0,0
140,-237,0,0,0,0,0,0,0,0,0,-1,1364,1261,0,0
147,-237,0,0,0,0,0,0,0,0,0,-1,1371,1261,0,0
154,-237,0,0,0,0,0,0,0,0,0,-1,1378,1261,0,0
161,-237,0,0,0,0,0,0,0,0,0,-1,1385,1261,0,0
168,-237,0,0,0,0,0,0,0,0,0,-1,1392,1261,0,0
175,-237,0,0,0,0,0,0,0,0,0,-1,1399,1261,0,0
182,-237,0,0,0,0,0,0,0,0,0,-1,1406,1261,0,0
189,-237,0,0,0,0,0,0,0,0,0,-1,1413,1261,0,0
196,-237,0,0,0,0,0,0,0,0,0,-1,1420,1261,0,0
203,-237,0,0,0,0,0,0,0,0,0,-1,1427,1261,0,0
210,-237,0,0,0,0,0,0,0,0,0,-1,1434,1261,0,0
217,-237,0,0,0,0,0,0,0,0,0,-1,1441,1261,0,0
224,-237,0,0,0,0,0,0,0,0,0,-1,1448,1261,0,0
231,-237,0,0,0,0,0,0,0,0,0,-1,1455,1261,0,0
238,-237,0,0,0,0,0,0,0,0,0,-1,1462,1261,0,0
245,-237,0,0,0,0,0,0,0,0,0,-1,1469,1261,0,0
252,-237,0,0,0,0,0,0,0,0,0,-1,1476,1261,0,0
259,-237,0,0,0,0,0,0,0,0,0,-1,1483,1261,0,0
266,-237,0,0,0,0,0,0,0,0,0,-1,1490,1261,0,0
273,-237,0,0,0,0,0,0,0,0,0,-1,1497,1261,0,0
280,-237,0,0,0,0,0,0,0,0,0,-1,1504,1261,0,0
287,-237,0,0,0,0,0,0,0,0,0,-1,1511,1261,0,0
294,-237,0,0,0,0,0,0,0,0,0,-1,1518,1261,0,0
301,-237,0,0,0,0,0,0,0,0,0,-1,1525,1261,0,0
308,-237,0,0,0,0,0,0,0,0,0,-1,1532,1261,0,0
315,-237,0,0,0,0,0,0,0,0,0,-1,1539,1261,0,0
322,-237,0,0,0,0,0,0,0,0,0,-1,1546,1261,0,0
329,-237,0,0,0,0,0,0,0,0,0,-1,1553,1261,0,0
336,-237,0,0,0,0,0,0,0,0,0,-1,1560,1261,0,0
343,-237,0,0,0,0,0,0,0,0,0,-1,1567,1261,0,0
350,-237,0,0,0,0,0,0,0,0,0,-1,1574,1261,0,0
357,-237,0,0,0,0,0,0,0,0,0,-1,1581,1261,0,0
364,-237,0,0,0,0,0,0,0,0,0,-1,1588,1261,0,0
371,-237,0,0,0,0,0,0,0,0,0,-1,1595,1261,0,0
378,-237,0,0,0,0,0,0,0,0,0,-1,1602,1261,0,0
385,-237,0,0,0,0,0,0,0,0,0,-1,1609,1261,0,0
392,-237,0,0,0,0,0,0,0,0,0,-1,1616,1261,0,0
399,-237,0,0,0,0,0,0,0,0,0,-1,1623,1261,0,0
406,-237,0,0,0,0,0,0,0,0,0,-1,1630,1261,0,0
413,-237,0,0,0,0,0,0,0,0,0,-1,1637,1261,0,0
420,-237,0,0,0,0,0,0,0,0,0,-1,1644,1261,0,0
427,-237,0,0,0,0,0,0,0,0,0,-1,1651,1261,0,0
434,-237,0,0,0,0,0,0,0,0,0,-1,1658,1261,0,0
441,-237,0,0,0,0,0,0,0,0,0,-1,1665,1261,0,0
448,-237,0,0,0,0,0,0,0,0,0,-1,1672,1261,0,0
455,-237,0,0,0,0,0,0,0,0,0,-1,1679,1261,0,0
462,-237,0,0,0,0,0,0,0,0,0,-1,1686,1261,0,0
469,-237,0,0,0,0,0,0,0,0,0,-1,1693,1261,0,0
476,-237,0,0,0,0,0,0,0,0,0,-1,1700,1261,0,0
483,-237,0,0,0,0,0,0,0,0,0,-1,1707,1261,0,0
490,-237,0,0,0,0,0,0,0,0,0,-1,1714,1261,0,0
497,-237,0,0,0,0,0,0,0,0,0,-1,1721,1261,0,0
504,-237,0,0,0,0,0,0,0,0,0,-1,1728,1261,0,0
511,-237,0,0,0,0,0,0,0,0,0,-1,1735,1261,0,0
518,-237,0,0,0,0,0,0,0,0,0,-1,1742,1261,0,0
525,-237,0,0,0,0,0,0,0,0,0,-1,1749,1261,0,0
532,-237,0,0,0,0,0,0,0,0,0,-1,1756,1261,0,0
539,-237,0,0,0,0,0,0,0,0,0,-1,1763,1261,0,0
546,-237,0,0,0,0,0,0,0,0,0,-1,1770,1261,0,0
553,-237,0,0,0,0,0,0,0,0,0,-1,1777,1261,0,0
560,-237,0,0,0,0,0,0,0,0,0,-1,1784,1261,0,0
567,-237,0,0,0,0,0,0,0,0,0,-1,1791,1261,0,0
574,-237,0,0,0,0,0,0,0,0,0,-1,1798,1261,0,0
581,-237,0,0,0,0,0,0,0,0,0,-1,1805,1261,0,0
588,-237,0,0,0,0,0,0,0,0,0,-1,1812,1261,0,0
595,-237,0,0,0,0,0,0,0,0,0,-1,1819,1261,0,0
602,-237,0,0,0,0,0,0,0,0,0,-1,1826,1261,0,0
609,-237,0,0,0,0,0,0,0,0,0,-1,1833,1261,0,0
616,-237,26.8759,3.09387,0.000287523,0.004229,-0.00197583,0.00504891,-0.000532387,-1.17745,0.00355671,0.0375883,1840,1261,26.8759,-3.0939
623,-237,26.8925,3.07568,-0.000197855,0.00514511,-0.000289811,0.00516078,-0.000213529,-1.51677,0.00351386,0.0345732,1847,1261,26.8924,-3.07571
630,-237,26.8256,3.10986,0.000304311,0.0062882,0.000709068,0.00637108,0.000221438,1.45445,0.00417553,0.0261722,1854,1261,26.8256,-3.10983
637,-237,26.7893,3.0813,0.00083859,0.00613196,0.00129682,0.00643259,0.000537959,1.343,0.0041208,0.019373,1861,1261,26.7893,-3.08132
644,-237,26.8367,3.10901,0.00137552,0.00521825,0.00141463,0.00568285,0.000910921,1.25347,0.00352438,0.0387273,1868,1261,26.8366,-3.10902
651,-237,26.824,3.05627,0.0017512,0.00412965,0.00135178,0.00474086,0.00113999,1.14615,0.00285741,0.0499547,1875,1261,26.824,-3.05629
658,-237,26.6134,3.03113,0.0020104,0.00314574,0.0012276,0.00393057,0.00122558,1.00197,0.00232228,0.0484932,1882,1261,26.6134,-3.03111
665,-237,26.6106,2.99658,0,0,0,0,0,0,0,-1,1889,1261,26.6106,-2.99658
672,-237,24.717,0.565063,0,0,0,0,0,0,0,-1,1896,1261,24.717,-0.565059
679,-237,22.1511,6.73877,0,0,0,0,0,0,0,-1,1903,1261,22.1511,-6.73878
686,-237,22.1627,6.89417,0,0,0,0,0,0,0,-1,1910,1261,22.1628,-6.89413
693,-237,21.895,6.51111,0.00245359,-0.000459114,0.000589228,0.00256827,-0.000573797,0.192229,0.00193206,0.0243387,1917,1261,21.895,-6.51113
700,-237,21.9047,6.30701,0.00196721,-0.000920855,0.000497468,0.0020505,-0.00100414,0.165883,0.00179775,0.0105216,1924,1261,21.9046,-6.30698
707,-237,21.9279,6.09106,0.00178262,-0.000933825,0.000568933,0.00189697,-0.00104817,0.198338,0.00172375,0.00914526,1931,1261,21.9279,-6.09106
714,-237,21.9185,5.85596,0.00165104,-0.00087313,0.000288521,0.0016836,-0.000905689,0.112372,0.00151725,0.012667,1938,1261,21.9184,-5.85598
721,-237,21.8949,5.62646,0.00167888,-0.000650182,3.63811e-05,0.00167944,-0.00065075,0.0156154,0.00138835,0.0143324,1945,1261,21.8949,-5.62652
728,-237,21.9175,5.39978,0.00268474,-0.000621739,-0.000647003,0.00280683,-0.000743835,-0.186516,0.00216224,0.013563,1952,1261,21.9174,-5.39983
735,-237,21.881,5.1958,0.00480293,-0.000643008,-0.00147446,0.0051765,-0.00101658,-0.248143,0.00383504,0.0189172,1959,1261,21.881,-5.19578
742,-237,21.8997,4.98657,0.00754213,-0.000891915,-0.00252513,0.00824034,-0.00159013,-0.269766,0.00609316,0.0148088,1966,1261,21.8997,-4.98656
749,-237,21.8958,4.76123,0.0111271,-0.00147681,-0.00379142,0.0121797,-0.00252941,-0.270807,0.00908113,0.0096682,1973,1261,21.8957,-4.7612
756,-237,21.8534,4.52966,0.016092,-0.00245809,-0.00528613,0.0174926,-0.0038587,-0.259008,0.0131382,0.0139582,1980,1261,21.8534,-4.52966
763,-237,21.8451,4.22559,0.0227621,-0.0039063,-0.00702787,0.0245008,-0.00564498,-0.242528,0.0185048,0.0279614,1987,1261,21.8451,-4.22562
770,-237,22.3188,4.47888,0.0314269,-0.00586786,-0.00890746,0.0334451,-0.0078861,-0.222816,0.0253379,0.0389789,1994,1261,22.3188,-4.47887
777,-237,23.058,4.78967,0,0,0,0,0,0,0,-1,2001,1261,23.058,-4.78969
784,-237,23.8602,5.38794,0.0560321,-0.0113293,-0.012001,0.0581063,-0.0134035,-0.171146,0.043893,0.044535,2008,1261,23.8602,-5.38791
791,-237,24.3224,5.7356,0,0,0,0,0,0,0,-1,2015,1261,24.3224,-5.73554
798,-237,0,0,0,0,0,0,0,0,0,-1,2022,1261,0,0
805,-237,0,0,0,0,0,0,0,0,0,-1,2029,1261,0,0
812,-237,0,0,0,0,0,0,0,0,0,-1,2036,1261,0,0
-700,-244,0,0,0,0,0,0,0,0,0,-1,524,1268,0,0
-693,-244,0,0,0,0,0,0,0,0,0,-1,531,1268,0,0
-686,-244,0,0,0,0,0,0,0,0,0,-1,538,1268,0,0
-679,-244,0,0,0,0,0,0,0,0,0,-1,545,1268,0,0
-672,-244,-15.514,-0.473511,0.0858297,-0.0253084,-0.0272834,0.0921663,-0.0316449,-0.228203,0.0742746,0.0458318,552,1268,-15.514,0.473536
-665,-244,-14.8464,-0.105469,0.0747735,-0.0144158,-0.021232,0.07957,-0.0192123,-0.222177,0.0604767,0.0456428,559,1268,-14.8464,0.105449
-658,-244,-14.3283,0.786621,0.0635365,-0.00759279,-0.0148976,0.0665307,-0.010587,-0.198341,0.0482713,0.0434055,566,1268,-14.3283,-0.786578
-651,-244,-13.6961,1.27649,0,0,0,0,0,0,0,-1,573,1268,-13.6961,-1.27653
-644,-244,-13.2601,1.37378,0,0,0,0,0,0,0,-1,580,1268,-13.2601,-1.37383
-637,-244,-12.7844,1.60974,0,0,0,0,0,0,0,-1,587,1268,-12.7844,-1.60973
-630,-244,-12.6292,1.81177,0.0226357,0.00442224,0.000358395,0.0226427,0.00441519,0.0196673,0.0138598,0.0448749,594,1268,-12.6292,-1.81177
-623,-244,-12.6508,2.08203,0.0150983,0.00499001,0.00178332,0.0154037,0.00468462,0.169604,0.00911794,0.0334068,601,1268,-12.6508,-2.08204
-616,-244,-12.6456,2.33032,0.00910837,0.00640832,0.0022333,0.010368,0.00514871,0.513538,0.005986,0.0171482,608,1268,-12.6456,-2.33032
-609,-244,-12.6567,2.57581,0.00414559,0.00518829,0.00303094,0.00774239,0.00159149,0.870569,0.00472137,0.0146534,615,1268,-12.6567,-2.57581
-602,-244,-12.6525,2.84314,0.00159718,0.00354029,0.00296635,0.00569014,-0.000552667,0.943655,0.00399042,0.0152584,622,1268,-12.6525,-2.84309
-595,-244,-12.6837,3.10681,0.00136883,0.00253465,0.00205529,0.00408809,-0.000184608,0.923577,0.00278897,0.0165044,629,1268,-12.6837,-3.10682
-588,-244,-12.6967,3.36914,0.00191147,0.00156833,0.00151251,0.00326211,0.000217693,0.728922,0.00210593,0.0199582,636,1268,-12.6967,-3.36916
-581,-244,-12.6981,3.62732,0.00268834,0.000158409,0.00102943,0.00305428,-0.000207535,0.34155,0.00210877,0.0172201,643,1268,-12.6981,-3.6273
-574,-244,-12.6975,3.91235,0.00323228,-0.000767801,0.00060195,0.0033209,-0.000856421,0.146173,0.00254785,0.0138271,650,1268,-12.6975,-3.91232
-567,-244,-12.6953,4.17749,0.00290668,-0.0013088,0.000751432,0.00303663,-0.00143874,0.171232,0.00263818,0.0111582,657,1268,-12.6953,-4.1775
-560,-244,-12.6439,4.44446,0.00251626,-0.00210737,0.000897442,0.00268434,-0.00227545,0.185146,0.00286678,0.0197976,664,1268,-12.6439,-4.44447
-553,-244,-12.5466,4.74158,0,0,0,0,0,0,0,-1,671,1268,-12.5466,-4.74152
-546,-244,-11.2686,4.41772,0,0,0,0,0,0,0,-1,678,1268,-11.2686,-4.41767
-539,-244,-12.8706,0.3302,0,0,0,0,0,0,0,-1,685,1268,-12.8706,-0.330156
-532,-244,-16.4745,1.85803,0,0,0,0,0,0,0,-1,692,1268,-16.4745,-1.85799
-525,-244,-18.0615,0.682251,0,0,0,0,0,0,0,-1,699,1268,-18.0615,-0.682227
-518,-244,-18.2957,1.21228,-0.00363965,-0.00466094,0.00324572,-0.000864655,-0.00743594,0.707373,0.00469569,0.0468855,706,1268,-18.2957,-1.21234
-511,-244,-18.4295,1.5614,-0.00498693,-0.00426483,0.00410555,-0.000504482,-0.00874728,0.829256,0.00567084,0.0498682,713,1268,-18.4295,-1.56139
-504,-244,-18.4914,1.5188,-0.00524449,-0.00331893,0.0057821,0.00158,-0.0101434,0.867897,0.00734581,0.0466124,720,1268,-18.4914,-1.5188
-497,-244,-18.5355,1.60303,-0.00572652,-0.00248429,0.00678415,0.00286975,-0.0110806,0.902677,0.00850654,0.0460795,727,1268,-18.5355,-1.60301
-490,-244,0,0,0,0,0,0,0,0,0,-1,734,1268,0,0
-483,-244,0,0,0,0,0,0,0,0,0,-1,741,1268,0,0
-476,-244,0,0,0,0,0,0,0,0,0,-1,748,1268,0,0
-469,-244,0,0,0,0,0,0,0,0,0,-1,755,1268,0,0
-462,-244,0,0,0,0,0,0,0,0,0,-1,762,1268,0,0
-455,-244,0,0,0,0,0,0,0,0,0,-1,769,1268,0,0
-448,-244,0,0,0,0,0,0,0,0,0,-1,776,1268,0,0
-441,-244,0,0,0,0,0,0,0,0,0,-1,783,1268,0,0
-434,-244,0,0,0,0,0,0,0,0,0,-1,790,1268,0,0
-427,-244,0,0,0,0,0,0,0,0,0,-1,797,1268,0,0
-420,-244,0,0,0,0,0,0,0,0,0,-1,804,1268,0,0
-413,-244,0,0,0,0,0,0,0,0,0,-1,811,1268,0,0
-406,-244,0,0,0,0,0,0,0,0,0,-1,818,1268,0,0
-399,-244,0,0,0,0,0,0,0,0,0,-1,825,1268,0,0
-392,-244,0,0,0,0,0,0,0,0,0,-1,832,1268,0,0
-385,-244,0,0,0,0,0,0,0,0,0,-1,839,1268,0,0
-378,-244,0,0,0,0,0,0,0,0,0,-1,846,1268,0,0
-371,-244,0,0,0,0,0,0,0,0,0,-1,853,1268,0,0
-364,-244,0,0,0,0,0,0,0,0,0,-1,860,1268,0,0
-357,-244,0,0,0,0,0,0,0,0,0,-1,867,1268,0,0
-350,-244,0,0,0,0,0,0,0,0,0,-1,874,1268,0,0
-343,-244,0,0,0,0,0,0,0,0,0,-1,881,1268,0,0
-336,-244,0,0,0,0,0,0,0,0,0,-1,888,1268,0,0
-329,-244,0,0,0,0,0,0,0,0,0,-1,895,1268,0,0
-322,-244,0,0,0,0,0,0,0,0,0,-1,902,1268,0,0
-315,-244,0,0,0,0,0,0,0,0,0,-1,909,1268,0,0
-308,-244,0,0,0,0,0,0,0,0,0,-1,916,1268,0,0
-301,-244,0,0,0,0,0,0,0,0,0,-1,923,1268,0,0
-294,-244,0,0,0,0,0,0,0,0,0,-1,930,1268,0,0
-287,-244,0,0,0,0,0,0,0,0,0,-1,937,1268,0,0
-280,-244,0,0,0,0,0,0,0,0,0,-1,944,1268,0,0
-273,-244,0,0,0,0,0,0,0,0,0,-1,951,1268,0,0
-266,-244,0,0,0,0,0,0,0,0,0,-1,958,1268,0,0
-259,-244,0,0,0,0,0,0,0,0,0,-1,965,1268,0,0
-252,-244,0,0,0,0,0,0,0,0,0,-1,972,1268,0,0
-245,-244,0,0,0,0,0,0,0,0,0,-1,979,1268,0,0
-238,-244,0,0,0,0,0,0,0,0,0,-1,986,1268,0,0
-231,-244,0,0,0,0,0,0,0,0,0,-1,993,1268,0,0
-224,-244,0,0,0,0,0,0,0,0,0,-1,1000,1268,0,0
-217,-244,0,0,0,0,0,0,0,0,0,-1,1007,1268,0,0
-210,-244,0,0,0,0,0,0,0,0,0,-1,1014,1268,0,0
-203,-244,0,0,0,0,0,0,0,0,0,-1,1021,1268,0,0
-196,-244,0,0,0,0,0,0,0,0,0,-1,1028,1268,0,0
-189,-244,0,0,0,0,0,0,0,0,0,-1,1035,1268,0,0
-182,-244,0,0,0,0,0,0,0,0,0,-1,1042,1268,0,0
-175,-244,0,0,0,0,0,0,0,0,0,-1,1049,1268,0,0
-168,-244,0,0,0,0,0,0,0,0,0,-1,1056,1268,0,0
-161,-244,0,0,0,0,0,0,0,0,0,-1,1063,1268,0,0
-154,-244,0,0,0,0,0,0,0,0,0,-1,1070,1268,0,0
-147,-244,0,0,0,0,0,0,0,0,0,-1,1077,1268,0,0
-140,-244,0,0,0,0,0,0,0,0,0,-1,1084,1268,0,0
-133,-244,0,0,0,0,0,0,0,0,0,-1,1091,1268,0,0
-126,-244,0,0,0,0,0,0,0,0,0,-1,1098,1268,0,0
-119,-244,0,0,0,0,0,0,0,0,0,-1,1105,1268,0,0
-112,-244,0,0,0,0,0,0,0,0,0,-1,1112,1268,0,0
-105,-244,0,0,0,0,0,0,0,0,0,-1,1119,1268,0,0
-98,-244,0,0,0,0,0,0,0,0,0,-1,1126,1268,0,0
-91,-244,0,0,0,0,0,0,0,0,0,-1,1133,1268,0,0
-84,-244,0,0,0,0,0,0,0,0,0,-1,1140,1268,0,0
-77,-244,0,0,0,0,0,0,0,0,0,-1,1147,1268,0,0
-70,-244,0,0,0,0,0,0,0,0,0,-1,1154,1268,0,0
-63,-244,0,0,0,0,0,0,0,0,0,-1,1161,1268,0,0
-56,-244,0,0,0,0,0,0,0,0,0,-1,1168,1268,0,0
-49,-244,0,0,0,0,0,0,0,0,0,-1,1175,1268,0,0
-42,-244,0,0,0,0,0,0,0,0,0,-1,1182,1268,0,0
-35,-244,0,0,0,0,0,0,0,0,0,-1,1189,1268,0,0
-28,-244,0,0,0,0,0,0,0,0,0,-1,1196,1268,0,0
-21,-244,0,0,0,0,0,0,0,0,0,-1,1203,1268,0,0
-14,-244,0,0,0,0,0,0,0,0,0,-1,1210,1268,0,0
-7,-244,0,0,0,0,0,0,0,0,0,-1,1217,1268,0,0
0,-244,0,0,0,0,0,0,0,0,0,-1,1224,1268,0,0
7,-244,0,0,0,0,0,0,0,0,0,-1,1231,1268,0,0
14,-244,0,0,0,0,0,0,0,0,0,-1,1238,1268,0,0
21,-244,0,0,0,0,0,0,0,0,0,-1,1245,1268,0,0
28,-244,0,0,0,0,0,0,0,0,0,-1,1252,1268,0,0
35,-244,0,0,0,0,0,0,0,0,0,-1,1259,1268,0,0
42,-244,0,0,0,0,0,0,0,0,0,-1,1266,1268,0,0
49,-244,0,0,0,0,0,0,0,0,0,-1,1273,1268,0,0
56,-244,0,0,0,0,0,0,0,0,0,-1,1280,1268,0,0
63,-244,0,0,0,0,0,0,0,0,0,-1,1287,1268,0,0
70,-244,0,0,0,0,0,0,0,0,0,-1,1294,1268,0,0
77,-244,0,0,0,0,0,0,0,0,0,-1,1301,1268,0,0
84,-244,0,0,0,0,0,0,0,0,0,-1,1308,1268,0,0
91,-244,0,0,0,0,0,0,0,0,0,-1,1315,1268,0,0
98,-244,0,0,0,0,0,0,0,0,0,-1,1322,1268,0,0
105,-244,0,0,0,0,0,0,0,0,0,-1,1329,1268,0,0
112,-244,0,0,0,0,0,0,0,0,0,-1,1336,1268,0,0
119,-244,0,0,0,0,0,0,0,0,0,-1,1343,1268,0,0
126,-244,0,0,0,0,0,0,0,0,0,-1,1350,1268,0,0
133,-244,0,0,0,0,0,0,0,0,0,-1,1357,1268,0,0
140,-244,0,0,0,0,0,0,0,0,0,-1,1364,1268,0,0
147,-244,0,0,0,0,0,0,0,0,0,-1,1371,1268,0,0
154,-244,0,0,0,0,0,0,0,0,0,-1,1378,1268,0,0
161,-244,0,0,0,0,0,0,0,0,0,-1,1385,1268,0,0
168,-244,0,0,0,0,0,0,0,0,0,-1,1392,1268,0,0
175,-244,0,0,0,0,0,0,0,0,0,-1,1399,1268,0,0
182,-244,0,0,0,0,0,0,0,0,0,-1,1406,1268,0,0
189,-244,0,0,0,0,0,0,0,0,0,-1,1413,1268,0,0
196,-244,0,0,0,0,0,0,0,0,0,-1,1420,1268,0,0
203,-244,0,0,0,0,0,0,0,0,0,-1,1427,1268,0,0
210,-244,0,0,0,0,0,0,0,0,0,-1,1434,1268,0,0
217,-244,0,0,0,0,0,0,0,0,0,-1,1441,1268,0,0
224,-244,0,0,0,0,0,0,0,0,0,-1,1448,1268,0,0
231,-244,0,0,0,0,0,0,0,0,0,-1,1455,1268,0,0
238,-244,0,0,0,0,0,0,0,0,0,-1,1462,1268,0,0
245,-244,0,0,0,0,0,0,0,0,0,-1,1469,1268,0,0
252,-244,0,0,0,0,0,0,0,0,0,-1,1476,1268,0,0
259,-244,0,0,0,0,0,0,0,0,0,-1,1483,1268,0,0
266,-244,0,0,0,0,0,0,0,0,0,-1,1490,1268,0,0
273,-244,0,0,0,0,0,0,0,0,0,-1,1497,1268,0,0
280,-244,0,0,0,0,0,0,0,0,0,-1,1504,1268,0,0
287,-244,0,0,0,0,0,0,0,0,0,-1,1511,1268,0,0
294,-244,0,0,0,0,0,0,0,0,0,-1,1518,1268,0,0
301,-244,0,0,0,0,0,0,0,0,0,-1,1525,1268,0,0
308,-244,0,0,0,0,0,0,0,0,0,-1,1532,1268,0,0
315,-244,0,0,0,0,0,0,0,0,0,-1,1539,1268,0,0
322,-244,0,0,0,0,0,0,0,0,0,-1,1546,1268,0,0
329,-244,0,0,0,0,0,0,0,0,0,-1,1553,1268,0,0
336,-244,0,0,0,0,0,0,0,0,0,-1,1560,1268,0,0
343,-244,0,0,0,0,0,0,0,0,0,-1,1567,1268,0,0
350,-244,0,0,0,0,0,0,0,0,0,-1,1574,1268,0,0
357,-244,0,0,0,0,0,0,0,0,0,-1,1581,1268,0,0
364,-244,0,0,0,0,0,0,0,0,0,-1,1588,1268,0,0
371,-244,0,0,0,0,0,0,0,0,0,-1,1595,1268,0,0
378,-244,0,0,0,0,0,0,0,0,0,-1,1602,1268,0,0
385,-244,0,0,0,0,0,0,0,0,0,-1,1609,1268,0,0
392,-244,0,0,0,0,0,0,0,0,0,-1,1616,1268,0,0
399,-244,0,0,0,0,0,0,0,0,0,-1,1623,1268,0,0
406,-244,0,0,0,0,0,0,0,0,0,-1,1630,1268,0,0
413,-244,0,0,0,0,0,0,0,0,0,-1,1637,1268,0,0
420,-244,0,0,0,0,0,0,0,0,0,-1,1644,1268,0,0
427,-244,0,0,0,0,0,0,0,0,0,-1,1651,1268,0,0
434,-244,0,0,0,0,0,0,0,0,0,-1,1658,1268,0,0
441,-244,0,0,0,0,0,0,0,0,0,-1,1665,1268,0,0
448,-244,0,0,0,0,0,0,0,0,0,-1,1672,1268,0,0
455,-244,0,0,0,0,0,0,0,0,0,-1,1679,1268,0,0
462,-244,0,0,0,0,0,0,0,0,0,-1,1686,1268,0,0
469,-244,0,0,0,0,0,0,0,0,0,-1,1693,1268,0,0
476,-244,0,0,0,0,0,0,0,0,0,-1,1700,1268,0,0
483,-244,0,0,0,0,0,0,0,0,0,-1,1707,1268,0,0
490,-244,0,0,0,0,0,0,0,0,0,-1,1714,1268,0,0
497,-244,0,0,0,0,0,0,0,0,0,-1,1721,1268,0,0
504,-244,0,0,0,0,0,0,0,0,0,-1,1728,1268,0,0
511,-244,0,0,0,0,0,0,0,0,0,-1,1735,1268,0,0
518,-244,0,0,0,0,0,0,0,0,0,-1,1742,1268,0,0
525,-244,0,0,0,0,0,0,0,0,0,-1,1749,1268,0,0
532,-244,0,0,0,0,0,0,0,0,0,-1,1756,1268,0,0
539,-244,0,0,0,0,0,0,0,0,0,-1,1763,1268,0,0
546,-244,0,0,0,0,0,0,0,0,0,-1,1770,1268,0,0
553,-244,0,0,0,0,0,0,0,0,0,-1,1777,1268,0,0
560,-244,0,0,0,0,0,0,0,0,0,-1,1784,1268,0,0
567,-244,0,0,0,0,0,0,0,0,0,-1,1791,1268,0,0
574,-244,0,0,0,0,0,0,0,0,0,-1,1798,1268,0,0
581,-244,0,0,0,0,0,0,0,0,0,-1,1805,1268,0,0
588,-244,0,0,0,0,0,0,0,0,0,-1,1812,1268,0,0
595,-244,0,0,0,0,0,0,0,0,0,-1,1819,1268,0,0
602,-244,0,0,0,0,0,0,0,0,0,-1,1826,1268,0,0
609,-244,0,0,0,0,0,0,0,0,0,-1,1833,1268,0,0
616,-244,26.8267,3.06482,0.000651251,0.0058805,-0.00188579,0.00648961,4.21382e-05,-1.25837,0.00431243,0.0329283,1840,1268,26.8266,-3.06478
623,-244,26.8468,3.12891,-0.0016251,0.00756946,-0.000334021,0.00758158,-0.00163722,-1.53453,0.00567934,0.0274722,1847,1268,26.8468,-3.12888
630,-244,26.8313,3.15308,-0.00274678,0.0085398,0.000806299,0.00859711,-0.00280409,1.49984,0.00685988,0.0237313,1854,1268,26.8313,-3.15312
637,-244,26.8165,3.10449,-0.00272445,0.00788986,0.00147752,0.0080917,-0.00292629,1.43503,0.00659014,0.0358287,1861,1268,26.8166,-3.10453
644,-244,26.8361,3.16101,-0.0020103,0.00652727,0.00165354,0.00683634,-0.00231937,1.38602,0.0054963,0.0462665,1868,1268,26.836,-3.16105
651,-244,26.8273,3.08362,0,0,0,0,0,0,0,-1,1875,1268,26.8272,-3.08357
658,-244,26.147,2.77161,0,0,0,0,0,0,0,-1,1882,1268,26.147,-2.77158
665,-244,26.7638,2.47327,0,0,0,0,0,0,0,-1,1889,1268,26.7638,-2.47332
672,-244,22.9312,1.276,0,0,0,0,0,0,0,-1,1896,1268,22.9312,-1.27605
679,-244,21.798,6.83398,0,0,0,0,0,0,0,-1,1903,1268,21.798,-6.83403
686,-244,21.7737,6.80884,0.00202592,-0.000554219,0.000872601,0.00229332,-0.000821619,0.297355,0.00186412,0.0349719,1910,1268,21.7737,-6.80889
693,-244,21.6664,6.59131,0.00181388,-0.000460421,0.000689039,0.00200634,-0.000652889,0.272386,0.00160022,0.0134774,1917,1268,21.6664,-6.59131
700,-244,21.6509,6.33215,0.00145688,-0.0008786,0.000400764,0.00152374,-0.000945456,0.1653,0.00143856,0.00824008,1924,1268,21.6509,-6.33215
707,-244,21.6722,6.09814,0.00149597,-0.000757913,0.000339209,0.00154591,-0.000807857,0.146187,0.00138104,0.00917615,1931,1268,21.6722,-6.09813
714,-244,21.7101,5.8656,0.00153577,-0.000624812,-9.11741e-05,0.00153961,-0.000628652,-0.042099,0.00128815,0.0111891,1938,1268,21.7101,-5.86559
721,-244,21.6729,5.64917,0.00157724,-0.000421162,-0.000615898,0.00175181,-0.00059573,-0.276192,0.00140907,0.014751,1945,1268,21.6729,-5.64919
728,-244,21.6576,5.40784,0.0022948,-0.000420489,-0.00159878,0.0030346,-0.00116029,-0.433391,0.00250121,0.018855,1952,1268,21.6576,-5.40786
735,-244,21.6458,5.18188,0.00386273,-0.000601992,-0.00275172,0.00517373,-0.00191299,-0.444614,0.00423343,0.0228772,1959,1268,21.6457,-5.18183
742,-244,21.6875,4.96924,0.0058416,-0.00100724,-0.00426739,0.00788868,-0.00305431,-0.447278,0.00652021,0.0160301,1966,1268,21.6875,-4.9693
749,-244,21.6885,4.76111,0.00847247,-0.00181392,-0.00620583,0.0113893,-0.0047308,-0.439379,0.00956796,0.0184399,1973,1268,21.6885,-4.76112
756,-244,21.6208,4.58655,0.0121319,-0.00312548,-0.00864626,0.0160338,-0.00702739,-0.42392,0.0136487,0.025403,1980,1268,21.6209,-4.58659
763,-244,21.6051,4.31396,0.0170394,-0.00501813,-0.0116534,0.0220554,-0.0100342,-0.406465,0.0189553,0.0398318,1987,1268,21.6051,-4.31399
770,-244,21.9408,4.58948,0.0233797,-0.00759212,-0.0151566,0.0295626,-0.013775,-0.387327,0.0255684,0.0448132,1994,1268,21.9407,-4.58945
777,-244,22.2612,4.89258,0,0,0,0,0,0,0,-1,2001,1268,22.2612,-4.89253
784,-244,24.0007,5.75281,0,0,0,0,0,0,0,-1,2008,1268,24.0007,-5.75285
791,-244,0,0,0,0,0,0,0,0,0,-1,2015,1268,0,0
798,-244,0,0,0,0,0,0,0,0,0,-1,2022,1268,0,0
805,-244,0,0,0,0,0,0,0,0,0,-1,2029,1268,0,0
812,-244,0,0,0,0,0,0,0,0,0,-1,2036,1268,0,0
-700,-251,0,0,0,0,0,0,0,0,0,-1,524,1275,0,0
-693,-251,0,0,0,0,0,0,0,0,0,-1,531,1275,0,0
-686,-251,0,0,0,0,0,0,0,0,0,-1,538,1275,0,0
-679,-251,0,0,0,0,0,0,0,0,0,-1,545,1275,0,0
-672,-251,0,0,0,0,0,0,0,0,0,-1,552,1275,0,0
-665,-251,-13.1776,-0.00463867,0.0753639,-0.0118456,-0.0298564,0.0846058,-0.0210875,-0.300193,0.0645909,0.0441557,559,1275,-13.1776,0.00465887
-658,-251,-12.7122,0.684692,0.0645733,-0.00569949,-0.0202697,0.0700008,-0.011127,-0.261626,0.0507841,0.047162,566,1275,-12.7122,-0.684687
-651,-251,-12.4171,1.18616,0,0,0,0,0,0,0,-1,573,1275,-12.4171,-1.1861
-644,-251,-12.086,1.37756,0,0,0,0,0,0,0,-1,580,1275,-12.086,-1.37758
-637,-251,-12.2917,1.49475,0,0,0,0,0,0,0,-1,587,1275,-12.2917,-1.49481
-630,-251,-12.3483,1.77478,0,0,0,0,0,0,0,-1,594,1275,-12.3482,-1.77481
-623,-251,-12.1452,2.21033,0,0,0,0,0,0,0,-1,601,1275,-12.1452,-2.21028
-616,-251,-12.402,2.32642,0.00880422,0.0078016,0.0027195,0.0110682,0.00553759,0.694252,0.00639025,0.0203801,608,1275,-12.402,-2.32636
-609,-251,-12.4109,2.57068,0.00376287,0.00624633,0.00376558,0.00896963,0.00103956,0.944663,0.00566512,0.0190763,615,1275,-12.4109,-2.57063
-602,-251,-12.4133,2.81604,0.00136255,0.00431584,0.00373824,0.00685852,-0.00118012,0.973497,0.00501224,0.0144312,622,1275,-12.4133,-2.8161
-595,-251,-12.3926,3.08179,0.00135979,0.00308044,0.0027407,0.00509267,-0.000652438,0.937481,0.00363218,0.013451,629,1275,-12.3926,-3.08176
-588,-251,-12.3912,3.35303,0.0020316,0.00194645,0.00209679,0.00408624,-0.000108194,0.775248,0.00276093,0.0150896,636,1275,-12.3912,-3.35306
-581,-251,-12.4022,3.64832,0.00280573,0.000562344,0.00153747,0.0035872,-0.00021912,0.470249,0.00246775,0.0138514,643,1275,-12.4022,-3.6483
-574,-251,-12.3987,3.94568,0.003408,-0.000402456,0.00106592,0.00368591,-0.000680364,0.255043,0.00271265,0.0130043,650,1275,-12.3987,-3.94566
-567,-251,-12.41,4.18909,0.00315041,-0.000968884,0.00110862,0.00342982,-0.00124829,0.246891,0.00279708,0.0113872,657,1275,-12.4101,-4.18914
-560,-251,-12.3919,4.47119,0.00266576,-0.00177245,0.00119529,0.0029672,-0.0020739,0.247039,0.00292567,0.0179777,664,1275,-12.3919,-4.47118
-553,-251,-12.2221,4.48254,0,0,0,0,0,0,0,-1,671,1275,-12.2221,-4.48252
-546,-251,-12.1608,4.38013,0,0,0,0,0,0,0,-1,678,1275,-12.1608,-4.38013
-539,-251,-10.7916,0.366333,0,0,0,0,0,0,0,-1,685,1275,-10.7916,-0.366282
-532,-251,-10.7391,-0.00769043,0,0,0,0,0,0,0,-1,692,1275,-10.7391,0.00773227
-525,-251,-18.0333,1.73901,0,0,0,0,0,0,0,-1,699,1275,-18.0333,-1.73898
-518,-251,-18.2974,1.23169,0,0,0,0,0,0,0,-1,706,1275,-18.2974,-1.23166
-511,-251,-18.5635,1.90845,0,0,0,0,0,0,0,-1,713,1275,-18.5634,-1.9084
-504,-251,-18.4726,1.51807,0,0,0,0,0,0,0,-1,720,1275,-18.4726,-1.51813
-497,-251,-18.1566,1.16309,0,0,0,0,0,0,0,-1,727,1275,-18.1565,-1.16307
-490,-251,0,0,0,0,0,0,0,0,0,-1,734,1275,0,0
-483,-251,0,0,0,0,0,0,0,0,0,-1,741,1275,0,0
-476,-251,0,0,0,0,0,0,0,0,0,-1,748,1275,0,0
-469,-251,0,0,0,0,0,0,0,0,0,-1,755,1275,0,0
-462,-251,0,0,0,0,0,0,0,0,0,-1,762,1275,0,0
-455,-251,0,0,0,0,0,0,0,0,0,-1,769,1275,0,0
-448,-251,0,0,0,0,0,0,0,0,0,-1,776,1275,0,0
-441,-251,0,0,0,0,0,0,0,0,0,-1,783,1275,0,0
-434,-251,0,0,0,0,0,0,0,0,0,-1,790,1275,0,0
-427,-251,0,0,0,0,0,0,0,0,0,-1,797,1275,0,0
-420,-251,0,0,0,0,0,0,0,0,0,-1,804,1275,0,0
-413,-251,0,0,0,0,0,0,0,0,0,-1,811,1275,0,0
-406,-251,0,0,0,0,0,0,0,0,0,-1,818,1275,0,0
-399,-251,0,0,0,0,0,0,0,0,0,-1,825,1275,0,0
-392,-251,0,0,0,0,0,0,0,0,0,-1,832,1275,0,0
-385,-251,0,0,0,0,0,0,0,0,0,-1,839,1275,0,0
-378,-251,0,0,0,0,0,0,0,0,0,-1,846,1275,0,0
-371,-251,0,0,0,0,0,0,0,0,0,-1,853,1275,0,0
-364,-251,0,0,0,0,0,0,0,0,0,-1,860,1275,0,0
-357,-251,0,0,0,0,0,0,0,0,0,-1,867,1275,0,0
-350,-251,0,0,0,0,0,0,0,0,0,-1,874,1275,0,0
-343,-251,0,0,0,0,0,0,0,0,0,-1,881,1275,0,0
-336,-251,0,0,0,0,0,0,0,0,0,-1,888,1275,0,0
-329,-251,0,0,0,0,0,0,0,0,0,-1,895,1275,0,0
-322,-251,0,0,0,0,0,0,0,0,0,-1,902,1275,0,0
-315,-251,0,0,0,0,0,0,0,0,0,-1,909,1275,0,0
-308,-251,0,0,0,0,0,0,0,0,0,-1,916,1275,0,0
-301,-251,0,0,0,0,0,0,0,0,0,-1,923,1275,0,0
-294,-251,0,0,0,0,0,0,0,0,0,-1,930,1275,0,0
-287,-251,0,0,0,0,0,0,0,0,0,-1,937,1275,0,0
-280,-251,0,0,0,0,0,0,0,0,0,-1,944,1275,0,0
-273,-251,0,0,0,0,0,0,0,0,0,-1,951,1275,0,0
-266,-251,0,0,0,0,0,0,0,0,0,-1,958,1275,0,0
-259,-251,0,0,0,0,0,0,0,0,0,-1,965,1275,0,0
-252,-251,0,0,0,0,0,0,0,0,0,-1,972,1275,0,0
-245,-251,0,0,0,0,0,0,0,0,0,-1,979,1275,0,0
-238,-251,0,0,0,0,0,0,0,0,0,-1,986,1275,0,0
-231,-251,0,0,0,0,0,0,0,0,0,-1,993,1275,0,0
-224,-251,0,0,0,0,0,0,0,0,0,-1,1000,1275,0,0
-217,-251,0,0,0,0,0,0,0,0,0,-1,1007,1275,0,0
-210,-251,0,0,0,0,0,0,0,0,0,-1,1014,1275,0,0
-203,-251,0,0,0,0,0,0,0,0,0,-1,1021,1275,0,0
-196,-251,0,0,0,0,0,0,0,0,0,-1,1028,1275,0,0
-189,-251,0,0,0,0,0,0,0,0,0,-1,1035,1275,0,0
-182,-251,0,0,0,0,0,0,0,0,0,-1,1042,1275,0,0
-175,-251,0,0,0,0,0,0,0,0,0,-1,1049,1275,0,0
-168,-251,0,0,0,0,0,0,0,0,0,-1,1056,1275,0,0
-161,-251,0,0,0,0,0,0,0,0,0,-1,1063,1275,0,0
-154,-251,0,0,0,0,0,0,0,0,0,-1,1070,1275,0,0
-147,-251,0,0,0,0,0,0,0,0,0,-1,1077,1275,0,0
-140,-251,0,0,0,0,0,0,0,0,0,-1,1084,1275,0,0
-133,-251,0,0,0,0,0,0,0,0,0,-1,1091,1275,0,0
-126,-251,0,0,0,0,0,0,0,0,0,-1,1098,1275,0,0
-119,-251,0,0,0,0,0,0,0,0,0,-1,1105,1275,0,0
-112,-251,0,0,0,0,0,0,0,0,0,-1,1112,1275,0,0
-105,-251,0,0,0,0,0,0,0,0,0,-1,1119,1275,0,0
-98,-251,0,0,0,0,0,0,0,0,0,-1,1126,1275,0,0
-91,-251,0,0,0,0,0,0,0,0,0,-1,1133,1275,0,0
-84,-251,0,0,0,0,0,0,0,0,0,-1,1140,1275,0,0
-77,-251,0,0,0,0,0,0,0,0,0,-1,1147,1275,0,0
-70,-251,0,0,0,0,0,0,0,0,0,-1,1154,1275,0,0
-63,-251,0,0,0,0,0,0,0,0,0,-1,1161,1275,0,0
-56,-251,0,0,0,0,0,0,0,0,0,-1,1168,1275,0,0
-49,-251,0,0,0,0,0,0,0,0,0,-1,1175,1275,0,0
-42,-251,0,0,0,0,0,0,0,0,0,-1,1182,1275,0,0
-35,-251,0,0,0,0,0,0,0,0,0,-1,1189,1275,0,0
-28,-251,0,0,0,0,0,0,0,0,0,-1,1196,1275,0,0
-21,-251,0,0,0,0,0,0,0,0,0,-1,1203,1275,0,0
-14,-251,0,0,0,0,0,0,0,0,0,-1,1210,1275,0,0
-7,-251,0,0,0,0,0,0,0,0,0,-1,1217,1275,0,0
0,-251,0,0,0,0,0,0,0,0,0,-1,1224,1275,0,0
7,-251,0,0,0,0,0,0,0,0,0,-1,1231,1275,0,0
14,-251,0,0,0,0,0,0,0,0,0,-1,1238,1275,0,0
21,-251,0,0,0,0,0,0,0,0,0,-1,1245,1275,0,0
28,-251,0,0,0,0,0,0,0,0,0,-1,1252,1275,0,0
35,-251,0,0,0,0,0,0,0,0,0,-1,1259,1275,0,0
42,-251,0,0,0,0,0,0,0,0,0,-1,1266,1275,0,0
49,-251,0,0,0,0,0,0,0,0,0,-1,1273,1275,0,0
56,-251,0,0,0,0,0,0,0,0,0,-1,1280,1275,0,0
63,-251,0,0,0,0,0,0,0,0,0,-1,1287,1275,0,0
70,-251,0,0,0,0,0,0,0,0,0,-1,1294,1275,0,0
77,-251,0,0,0,0,0,0,0,0,0,-1,1301,1275,0,0
84,-251,0,0,0,0,0,0,0,0,0,-1,1308,1275,0,0
91,-251,0,0,0,0,0,0,0,0,0,-1,1315,1275,0,0
98,-251,0,0,0,0,0,0,0,0,0,-1,1322,1275,0,0
105,-251,0,0,0,0,0,0,0,0,0,-1,1329,1275,0,0
112,-251,0,0,0,0,0,0,0,0,0,-1,1336,1275,0,0
119,-251,0,0,0,0,0,0,0,0,0,-1,1343,1275,0,0
126,-251,0,0,0,0,0,0,0,0,0,-1,1350,1275,0,0
133,-251,0,0,0,0,0,0,0,0,0,-1,1357,1275,0,0
140,-251,0,0,0,0,0,0,0,0,0,-1,1364,1275,0,0
147,-251,0,0,0,0,0,0,0,0,0,-1,1371,1275,0,0
154,-251,0,0,0,0,0,0,0,0,0,-1,1378,1275,0,0
161,-251,0,0,0,0,0,0,0,0,0,-1,1385,1275,0,0
168,-251,0,0,0,0,0,0,0,0,0,-1,1392,1275,0,0
175,-251,0,0,0,0,0,0,0,0,0,-1,1399,1275,0,0
182,-251,0,0,0,0,0,0,0,0,0,-1,1406,1275,0,0
189,-251,0,0,0,0,0,0,0,0,0,-1,1413,1275,0,0
196,-251,0,0,0,0,0,0,0,0,0,-1,1420,1275,0,0
203,-251,0,0,0,0,0,0,0,0,0,-1,1427,1275,0,0
210,-251,0,0,0,0,0,0,0,0,0,-1,1434,1275,0,0
217,-251,0,0,0,0,0,0,0,0,0,-1,1441,1275,0,0
224,-251,0,0,0,0,0,0,0,0,0,-1,1448,1275,0,0
231,-251,0,0,0,0,0,0,0,0,0,-1,1455,1275,0,0
238,-251,0,0,0,0,0,0,0,0,0,-1,1462,1275,0,0
245,-251,0,0,0,0,0,0,0,0,0,-1,1469,1275,0,0
252,-251,0,0,0,0,0,0,0,0,0,-1,1476,1275,0,0
259,-251,0,0,0,0,0,0,0,0,0,-1,1483,1275,0,0
266,-251,0,0,0,0,0,0,0,0,0,-1,1490,1275,0,0
273,-251,0,0,0,0,0,0,0,0,0,-1,1497,1275,0,0
280,-251,0,0,0,0,0,0,0,0,0,-1,1504,1275,0,0
287,-251,0,0,0,0,0,0,0,0,0,-1,1511,1275,0,0
294,-251,0,0,0,0,0,0,0,0,0,-1,1518,1275,0,0
301,-251,0,0,0,0,0,0,0,0,0,-1,1525,1275,0,0
308,-251,0,0,0,0,0,0,0,0,0,-1,1532,1275,0,0
315,-251,0,0,0,0,0,0,0,0,0,-1,1539,1275,0,0
322,-251,0,0,0,0,0,0,0,0,0,-1,1546,1275,0,0
329,-251,0,0,0,0,0,0,0,0,0,-1,1553,1275,0,0
336,-251,0,0,0,0,0,0,0,0,0,-1,1560,1275,0,0
343,-251,0,0,0,0,0,0,0,0,0,-1,1567,1275,0,0
350,-251,0,0,0,0,0,0,0,0,0,-1,1574,1275,0,0
357,-251,0,0,0,0,0,0,0,0,0,-1,1581,1275,0,0
364,-251,0,0,0,0,0,0,0,0,0,-1,1588,1275,0,0
371,-251,0,0,0,0,0,0,0,0,0,-1,1595,1275,0,0
378,-251,0,0,0,0,0,0,0,0,0,-1,1602,1275,0,0
385,-251,0,0,0,0,0,0,0,0,0,-1,1609,1275,0,0
392,-251,0,0,0,0,0,0,0,0,0,-1,1616,1275,0,0
399,-251,0,0,0,0,0,0,0,0,0,-1,1623,1275,0,0
406,-251,0,0,0,0,0,0,0,0,0,-1,1630,1275,0,0
413,-251,0,0,0,0,0,0,0,0,0,-1,1637,1275,0,0
420,-251,0,0,0,0,0,0,0,0,0,-1,1644,1275,0,0
427,-251,0,0,0,0,0,0,0,0,0,-1,1651,1275,0,0
434,-251,0,0,0,0,0,0,0,0,0,-1,1658,1275,0,0
441,-251,0,0,0,0,0,0,0,0,0,-1,1665,1275,0,0
448,-251,0,0,0,0,0,0,0,0,0,-1,1672,1275,0,0
455,-251,0,0,0,0,0,0,0,0,0,-1,1679,1275,0,0
462,-251,0,0,0,0,0,0,0,0,0,-1,1686,1275,0,0
469,-251,0,0,0,0,0,0,0,0,0,-1,1693,1275,0,0
476,-251,0,0,0,0,0,0,0,0,0,-1,1700,1275,0,0
483,-251,0,0,0,0,0,0,0,0,0,-1,1707,1275,0,0
490,-251,0,0,0,0,0,0,0,0,0,-1,1714,1275,0,0
497,-251,0,0,0,0,0,0,0,0,0,-1,1721,1275,0,0
504,-251,0,0,0,0,0,0,0,0,0,-1,1728,1275,0,0
511,-251,0,0,0,0,0,0,0,0,0,-1,1735,1275,0,0
518,-251,0,0,0,0,0,0,0,0,0,-1,1742,1275,0,0
525,-251,0,0,0,0,0,0,0,0,0,-1,1749,1275,0,0
532,-251,0,0,0,0,0,0,0,0,0,-1,1756,1275,0,0
539,-251,0,0,0,0,0,0,0,0,0,-1,1763,1275,0,0
546,-251,0,0,0,0,0,0,0,0,0,-1,1770,1275,0,0
553,-251,0,0,0,0,0,0,0,0,0,-1,1777,1275,0,0
560,-251,0,0,0,0,0,0,0,0,0,-1,1784,1275,0,0
567,-251,0,0,0,0,0,0,0,0,0,-1,1791,1275,0,0
574,-251,0,0,0,0,0,0,0,0,0,-1,1798,1275,0,0
581,-251,0,0,0,0,0,0,0,0,0,-1,1805,1275,0,0
588,-251,0,0,0,0,0,0,0,0,0,-1,1812,1275,0,0
595,-251,0,0,0,0,0,0,0,0,0,-1,1819,1275,0,0
602,-251,0,0,0,0,0,0,0,0,0,-1,1826,1275,0,0
609,-251,26.7838,3.06055,0.00196935,0.00571638,-0.0037645,0.0080478,-0.000362071,-1.01629,0.00548987,0.0294347,1833,1275,26.7838,-3.0606
616,-251,26.824,3.05896,-0.00193818,0.00929774,-0.0020954,0.0096758,-0.00231624,-1.3923,0.00734537,0.0253292,1840,1275,26.824,-3.0589
623,-251,26.8347,3.14795,-0.00476918,0.0110689,-0.000193718,0.0110712,-0.00477155,-1.55857,0.00938479,0.0225569,1847,1275,26.8348,-3.14801
630,-251,26.8866,3.20081,-0.00597412,0.0112433,0.00130637,0.0113419,-0.00607267,1.4955,0.0102066,0.034762,1854,1275,26.8866,-3.20083
637,-251,26.8405,3.10193,-0.00548228,0.00981431,0.0020995,0.0100972,-0.00576521,1.43684,0.00927133,0.0420484,1861,1275,26.8404,-3.10192
644,-251,26.8372,3.12573,0,0,0,0,0,0,0,-1,1868,1275,26.8372,-3.12569
651,-251,26.3857,2.00867,0,0,0,0,0,0,0,-1,1875,1275,26.3857,-2.00862
658,-251,25.5459,2.3374,0,0,0,0,0,0,0,-1,1882,1275,25.5459,-2.33745
665,-251,24.4075,3.97217,0,0,0,0,0,0,0,-1,1889,1275,24.4075,-3.97212
672,-251,22.2653,1.81604,0,0,0,0,0,0,0,-1,1896,1275,22.2653,-1.81599
679,-251,21.3517,6.9231,0,0,0,0,0,0,0,-1,1903,1275,21.3517,-6.92305
686,-251,21.4178,6.79187,0.00165115,-0.000437838,0.00125548,0.00223982,-0.0010265,0.438438,0.00192869,0.0326852,1910,1275,21.4179,-6.79182
693,-251,21.4573,6.5802,0.00149368,-0.000217144,0.000913364,0.00188965,-0.000613116,0.409075,0.00150632,0.00969684,1917,1275,21.4572,-6.5802
700,-251,21.4371,6.34412,0.00119865,-0.000622455,0.000431477,0.00129571,-0.000719512,0.22126,0.00117924,0.00824542,1924,1275,21.4371,-6.34406
707,-251,21.4476,6.10352,0.00133818,-0.000452162,0.000226943,0.0013665,-0.000480482,0.124144,0.0011065,0.010063,1931,1275,21.4477,-6.10352
714,-251,21.4678,5.87109,0.00143069,-0.000317155,-0.000371643,0.00150643,-0.000392896,-0.201045,0.00115769,0.0114523,1938,1275,21.4677,-5.87111
721,-251,21.4198,5.64282,0.0013392,-0.000183638,-0.0011899,0.00199045,-0.00083488,-0.500776,0.00167606,0.0153326,1945,1275,21.4198,-5.64283
728,-251,21.4017,5.41907,0.00162664,-0.000249695,-0.00250657,0.00336486,-0.00198792,-0.606328,0.00312432,0.0173724,1952,1275,21.4017,-5.41912
735,-251,21.4409,5.18408,0.00253455,-0.000585284,-0.0040532,0.00531765,-0.00336838,-0.601705,0.0050568,0.0154418,1959,1275,21.4409,-5.18412
742,-251,21.4678,4.93567,0.00365305,-0.00113368,-0.0061545,0.00786317,-0.0053438,-0.599956,0.00767116,0.0145967,1966,1275,21.4678,-4.93567
749,-251,21.4366,4.74414,0.00517322,-0.00215084,-0.00896379,0.0111942,-0.00817179,-0.591476,0.0112262,0.0227173,1973,1275,21.4367,-4.74409
756,-251,21.4387,4.5116,0.00731,-0.00375517,-0.0126606,0.0155941,-0.0120393,-0.579406,0.0159981,0.0399876,1980,1275,21.4387,-4.51158
763,-251,21.5345,4.18579,0,0,0,0,0,0,0,-1,1987,1275,21.5346,-4.18578
770,-251,21.8917,5.28186,0,0,0,0,0,0,0,-1,1994,1275,21.8917,-5.28187
777,-251,21.6323,5.79919,0,0,0,0,0,0,0,-1,2001,1275,21.6324,-5.79916
784,-251,24.2349,5.94312,0,0,0,0,0,0,0,-1,2008,1275,24.2348,-5.94309
791,-251,0,0,0,0,0,0,0,0,0,-1,2015,1275,0,0
798,-251,0,0,0,0,0,0,0,0,0,-1,2022,1275,0,0
805,-251,0,0,0,0,0,0,0,0,0,-1,2029,1275,0,0
812,-251,0,0,0,0,0,0,0,0,0,-1,2036,1275,0,0
-700,-258,0,0,0,0,0,0,0,0,0,-1,524,1282,0,0
-693,-258,0,0,0,0,0,0,0,0,0,-1,531,1282,0,0
-686,-258,0,0,0,0,0,0,0,0,0,-1,538,1282,0,0
-679,-258,0,0,0,0,0,0,0,0,0,-1,545,1282,0,0
-672,-258,0,0,0,0,0,0,0,0,0,-1,552,1282,0,0
-665,-258,-11.2411,-0.0606689,0,0,0,0,0,0,0,-1,559,1282,-11.2411,0.0606706
-658,-258,-10.9189,0.664429,0,0,0,0,0,0,0,-1,566,1282,-10.9189,-0.664476
-651,-258,-15.2547,-2.78967,0,0,0,0,0,0,0,-1,573,1282,-15.2547,2.78961
-644,-258,-14.6714,-2.6748,0,0,0,0,0,0,0,-1,580,1282,-14.6714,2.67476
-637,-258,-14.0975,-2.53674,0,0,0,0,0,0,0,-1,587,1282,-14.0975,2.53675
-630,-258,-11.6945,1.49658,0,0,0,0,0,0,0,-1,594,1282,-11.6945,-1.49663
-623,-258,-11.9013,1.73914,0.0157908,0.0080205,0.00227721,0.016409,0.0074023,0.26508,0.00948882,0.0474335,601,1282,-11.9013,-1.73909
-616,-258,-12.1202,2.25952,0.00908858,0.00928889,0.00330937,0.0124996,0.00587785,0.800526,0.00722092,0.0328745,608,1282,-12.1202,-2.25954
-609,-258,-12.1323,2.56274,0.00383926,0.00737667,0.00456756,0.010506,0.000709912,0.970124,0.00677978,0.0167642,615,1282,-12.1323,-2.56276
-602,-258,-12.1233,2.82666,0.0013212,0.00517346,0.00454981,0.00818806,-0.00169339,0.985631,0.006102,0.0136072,622,1282,-12.1233,-2.82669
-595,-258,-12.118,3.08093,0.00135424,0.00373879,0.00340841,0.00615744,-0.00106441,0.953648,0.00450191,0.0113978,629,1282,-12.118,-3.0809
-588,-258,-12.1142,3.34705,0.00205009,0.0024852,0.00262667,0.00490331,-0.000368019,0.826716,0.00339819,0.0118819,636,1282,-12.1142,-3.34707
-581,-258,-12.1243,3.63098,0.00280736,0.00116952,0.00195664,0.00410954,-0.000132666,0.587207,0.00278497,0.0143252,643,1282,-12.1243,-3.63102
-574,-258,-12.1076,3.93274,0.00349661,0.000255337,0.00143086,0.00403788,-0.000285926,0.361643,0.00279211,0.0148112,650,1282,-12.1076,-3.93271
-567,-258,-12.1276,4.22131,0.00342168,-0.000282042,0.00133995,0.00385561,-0.000715977,0.313186,0.00283932,0.0142673,657,1282,-12.1276,-4.22133
-560,-258,-12.1353,4.48425,0.00298952,-0.00101131,0.00134403,0.0033991,-0.00142089,0.295801,0.00285988,0.024236,664,1282,-12.1352,-4.48422
-553,-258,-12.1174,4.71741,0,0,0,0,0,0,0,-1,671,1282,-12.1174,-4.71737
-546,-258,-12.2424,5.26294,0,0,0,0,0,0,0,-1,678,1282,-12.2424,-5.26288
-539,-258,-10.2228,4.05823,0,0,0,0,0,0,0,-1,685,1282,-10.2228,-4.05823
-532,-258,-10.2173,-0.353882,0,0,0,0,0,0,0,-1,692,1282,-10.2173,0.353836
-525,-258,-17.879,2.15051,0,0,0,0,0,0,0,-1,699,1282,-17.879,-2.15053
-518,-258,-17.5121,1.63855,0,0,0,0,0,0,0,-1,706,1282,-17.5121,-1.63857
-511,-258,-17.1924,1.08606,0,0,0,0,0,0,0,-1,713,1282,-17.1924,-1.08605
-504,-258,-16.7708,0.237671,0,0,0,0,0,0,0,-1,720,1282,-16.7708,-0.237611
-497,-258,-17.8047,0.730469,0,0,0,0,0,0,0,-1,727,1282,-17.8048,-0.730489
-490,-258,-15.4346,0.632935,0,0,0,0,0,0,0,-1,734,1282,-15.4346,-0.632917
-483,-258,0,0,0,0,0,0,0,0,0,-1,741,1282,0,0
-476,-258,0,0,0,0,0,0,0,0,0,-1,748,1282,0,0
-469,-258,0,0,0,0,0,0,0,0,0,-1,755,1282,0,0
-462,-258,0,0,0,0,0,0,0,0,0,-1,762,1282,0,0
-455,-258,0,0,0,0,0,0,0,0,0,-1,769,1282,0,0
-448,-258,0,0,0,0,0,0,0,0,0,-1,776,1282,0,0
-441,-258,0,0,0,0,0,0,0,0,0,-1,783,1282,0,0
-434,-258,0,0,0,0,0,0,0,0,0,-1,790,1282,0,0
-427,-258,0,0,0,0,0,0,0,0,0,-1,797,1282,0,0
-420,-258,0,0,0,0,0,0,0,0,0,-1,804,1282,0,0
-413,-258,0,0,0,0,0,0,0,0,0,-1,811,1282,0,0
-406,-258,0,0,0,0,0,0,0,0,0,-1,818,1282,0,0
-399,-258,0,0,0,0,0,0,0,0,0,-1,825,1282,0,0
-392,-258,0,0,0,0,0,0,0,0,0,-1,832,1282,0,0
-385,-258,0,0,0,0,0,0,0,0,0,-1,839,1282,0,0
-378,-258,0,0,0,0,0,0,0,0,0,-1,846,1282,0,0
-371,-258,0,0,0,0,0,0,0,0,0,-1,853,1282,0,0
-364,-258,0,0,0,0,0,0,0,0,0,-1,860,1282,0,0
-357,-258,0,0,0,0,0,0,0,0,0,-1,867,1282,0,0
-350,-258,0,0,0,0,0,0,0,0,0,-1,874,1282,0,0
-343,-258,0,0,0,0,0,0,0,0,0,-1,881,1282,0,0
-336,-258,0,0,0,0,0,0,0,0,0,-1,888,1282,0,0
-329,-258,0,0,0,0,0,0,0,0,0,-1,895,1282,0,0
-322,-258,0,0,0,0,0,0,0,0,0,-1,902,1282,0,0
-315,-258,0,0,0,0,0,0,0,0,0,-1,909,1282,0,0
-308,-258,0,0,0,0,0,0,0,0,0,-1,916,1282,0,0
-301,-258,0,0,0,0,0,0,0,0,0,-1,923,1282,0,0
-294,-258,0,0,0,0,0,0,0,0,0,-1,930,1282,0,0
-287,-258,0,0,0,0,0,0,0,0,0,-1,937,1282,0,0
-280,-258,0,0,0,0,0,0,0,0,0,-1,944,1282,0,0
-273,-258,0,0,0,0,0,0,0,0,0,-1,951,1282,0,0
-266,-258,0,0,0,0,0,0,0,0,0,-1,958,1282,0,0
-259,-258,0,0,0,0,0,0,0,0,0,-1,965,1282,0,0
-252,-258,0,0,0,0,0,0,0,0,0,-1,972,1282,0,0
-245,-258,0,0,0,0,0,0,0,0,0,-1,979,1282,0,0
-238,-258,0,0,0,0,0,0,0,0,0,-1,986,1282,0,0
-231,-258,0,0,0,0,0,0,0,0,0,-1,993,1282,0,0
-224,-258,0,0,0,0,0,0,0,0,0,-1,1000,1282,0,0
-217,-258,0,0,0,0,0,0,0,0,0,-1,1007,1282,0,0
-210,-258,0,0,0,0,0,0,0,0,0,-1,1014,1282,0,0
-203,-258,0,0,0,0,0,0,0,0,0,-1,1021,1282,0,0
-196,-258,0,0,0,0,0,0,0,0,0,-1,1028,1282,0,0
-189,-258,0,0,0,0,0,0,0,0,0,-1,1035,1282,0,0
-182,-258,0,0,0,0,0,0,0,0,0,-1,1042,1282,0,0
-175,-258,0,0,0,0,0,0,0,0,0,-1,1049,1282,0,0
-168,-258,0,0,0,0,0,0,0,0,0,-1,1056,1282,0,0
-161,-258,0,0,0,0,0,0,0,0,0,-1,1063,1282,0,0
-154,-258,0,0,0,0,0,0,0,0,0,-1,1070,1282,0,0
-147,-258,0,0,0,0,0,0,0,0,0,-1,1077,1282,0,0
-140,-258,0,0,0,0,0,0,0,0,0,-1,1084,1282,0,0
-133,-258,0,0,0,0,0,0,0,0,0,-1,1091,1282,0,0
-126,-258,0,0,0,0,0,0,0,0,0,-1,1098,1282,0,0
-119,-258,0,0,0,0,0,0,0,0,0,-1,1105,1282,0,0
-112,-258,0,0,0,0,0,0,0,0,0,-1,1112,1282,0,0
-105,-258,0,0,0,0,0,0,0,0,0,-1,1119,1282,0,0
-98,-258,0,0,0,0,0,0,0,0,0,-1,1126,1282,0,0
-91,-258,0,0,0,0,0,0,0,0,0,-1,1133,1282,0,0
-84,-258,0,0,0,0,0,0,0,0,0,-1,1140,1282,0,0
-77,-258,0,0,0,0,0,0,0,0,0,-1,1147,1282,0,0
-70,-258,0,0,0,0,0,0,0,0,0,-1,1154,1282,0,0
-63,-258,0,0,0,0,0,0,0,0,0,-1,1161,1282,0,0
-56,-258,0,0,0,0,0,0,0,0,0,-1,1168,1282,0,0
-49,-258,0,0,0,0,0,0,0,0,0,-1,1175,1282,0,0
-42,-258,0,0,0,0,0,0,0,0,0,-1,1182,1282,0,0
-35,-258,0,0,0,0,0,0,0,0,0,-1,1189,1282,0,0
-28,-258,0,0,0,0,0,0,0,0,0,-1,1196,1282,0,0
-21,-258,0,0,0,0,0,0,0,0,0,-1,1203,1282,0,0
-14,-258,0,0,0,0,0,0,0,0,0,-1,1210,1282,0,0
-7,-258,0,0,0,0,0,0,0,0,0,-1,1217,1282,0,0
0,-258,0,0,0,0,0,0,0,0,0,-1,1224,1282,0,0
7,-258,0,0,0,0,0,0,0,0,0,-1,1231,1282,0,0
14,-258,0,0,0,0,0,0,0,0,0,-1,1238,1282,0,0
21,-258,0,0,0,0,0,0,0,0,0,-1,1245,1282,0,0
28,-258,0,0,0,0,0,0,0,0,0,-1,1252,1282,0,0
35,-258,0,0,0,0,0,0,0,0,0,-1,1259,1282,0,0
42,-258,0,0,0,0,0,0,0,0,0,-1,1266,1282,0,0
49,-258,0,0,0,0,0,0,0,0,0,-1,1273,1282,0,0
56,-258,0,0,0,0,0,0,0,0,0,-1,1280,1282,0,0
63,-258,0,0,0,0,0,0,0,0,0,-1,1287,1282,0,0
70,-258,0,0,0,0,0,0,0,0,0,-1,1294,1282,0,0
77,-258,0,0,0,0,0,0,0,0,0,-1,1301,1282,0,0
84,-258,0,0,0,0,0,0,0,0,0,-1,1308,1282,0,0
91,-258,0,0,0,0,0,0,0,0,0,-1,1315,1282,0,0
98,-258,0,0,0,0,0,0,0,0,0,-1,1322,1282,0,0
105,-258,0,0,0,0,0,0,0,0,0,-1,1329,1282,0,0
112,-258,0,0,0,0,0,0,0,0,0,-1,1336,1282,0,0
119,-258,0,0,0,0,0,0,0,0,0,-1,1343,1282,0,0
126,-258,0,0,0,0,0,0,0,0,0,-1,1350,1282,0,0
133,-258,0,0,0,0,0,0,0,0,0,-1,1357,1282,0,0
140,-258,0,0,0,0,0,0,0,0,0,-1,1364,1282,0,0
147,-258,0,0,0,0,0,0,0,0,0,-1,1371,1282,0,0
154,-258,0,0,0,0,0,0,0,0,0,-1,1378,1282,0,0
161,-258,0,0,0,0,0,0,0,0,0,-1,1385,1282,0,0
168,-258,0,0,0,0,0,0,0,0,0,-1,1392,1282,0,0
175,-258,0,0,0,0,0,0,0,0,0,-1,1399,1282,0,0
182,-258,0,0,0,0,0,0,0,0,0,-1,1406,1282,0,0
189,-258,0,0,0,0,0,0,0,0,0,-1,1413,1282,0,0
196,-258,0,0,0,0,0,0,0,0,0,-1,1420,1282,0,0
203,-258,0,0,0,0,0,0,0,0,0,-1,1427,1282,0,0
210,-258,0,0,0,0,0,0,0,0,0,-1,1434,1282,0,0
217,-258,0,0,0,0,0,0,0,0,0,-1,1441,1282,0,0
224,-258,0,0,0,0,0,0,0,0,0,-1,1448,1282,0,0
231,-258,0,0,0,0,0,0,0,0,0,-1,1455,1282,0,0
238,-258,0,0,0,0,0,0,0,0,0,-1,1462,1282,0,0
245,-258,0,0,0,0,0,0,0,0,0,-1,1469,1282,0,0
252,-258,0,0,0,0,0,0,0,0,0,-1,1476,1282,0,0
259,-258,0,0,0,0,0,0,0,0,0,-1,1483,1282,0,0
266,-258,0,0,0,0,0,0,0,0,0,-1,1490,1282,0,0
273,-258,0,0,0,0,0,0,0,0,0,-1,1497,1282,0,0
280,-258,0,0,0,0,0,0,0,0,0,-1,1504,1282,0,0
287,-258,0,0,0,0,0,0,0,0,0,-1,1511,1282,0,0
294,-258,0,0,0,0,0,0,0,0,0,-1,1518,1282,0,0
301,-258,0,0,0,0,0,0,0,0,0,-1,1525,1282,0,0
308,-258,0,0,0,0,0,0,0,0,0,-1,1532,1282,0,0
315,-258,0,0,0,0,0,0,0,0,0,-1,1539,1282,0,0
322,-258,0,0,0,0,0,0,0,0,0,-1,1546,1282,0,0
329,-258,0,0,0,0,0,0,0,0,0,-1,1553,1282,0,0
336,-258,0,0,0,0,0,0,0,0,0,-1,1560,1282,0,0
343,-258,0,0,0,0,0,0,0,0,0,-1,1567,1282,0,0
350,-258,0,0,0,0,0,0,0,0,0,-1,1574,1282,0,0
357,-258,0,0,0,0,0,0,0,0,0,-1,1581,1282,0,0
364,-258,0,0,0,0,0,0,0,0,0,-1,1588,1282,0,0
371,-258,0,0,0,0,0,0,0,0,0,-1,1595,1282,0,0
378,-258,0,0,0,0,0,0,0,0,0,-1,1602,1282,0,0
385,-258,0,0,0,0,0,0,0,0,0,-1,1609,1282,0,0
392,-258,0,0,0,0,0,0,0,0,0,-1,1616,1282,0,0
399,-258,0,0,0,0,0,0,0,0,0,-1,1623,1282,0,0
406,-258,0,0,0,0,0,0,0,0,0,-1,1630,1282,0,0
413,-258,0,0,0,0,0,0,0,0,0,-1,1637,1282,0,0
420,-258,0,0,0,0,0,0,0,0,0,-1,1644,1282,0,0
427,-258,0,0,0,0,0,0,0,0,0,-1,1651,1282,0,0
434,-258,0,0,0,0,0,0,0,0,0,-1,1658,1282,0,0
441,-258,0,0,0,0,0,0,0,0,0,-1,1665,1282,0,0
448,-258,0,0,0,0,0,0,0,0,0,-1,1672,1282,0,0
455,-258,0,0,0,0,0,0,0,0,0,-1,1679,1282,0,0
462,-258,0,0,0,0,0,0,0,0,0,-1,1686,1282,0,0
469,-258,0,0,0,0,0,0,0,0,0,-1,1693,1282,0,0
476,-258,0,0,0,0,0,0,0,0,0,-1,1700,1282,0,0
483,-258,0,0,0,0,0,0,0,0,0,-1,1707,1282,0,0
490,-258,0,0,0,0,0,0,0,0,0,-1,1714,1282,0,0
497,-258,0,0,0,0,0,0,0,0,0,-1,1721,1282,0,0
504,-258,0,0,0,0,0,0,0,0,0,-1,1728,1282,0,0
511,-258,0,0,0,0,0,0,0,0,0,-1,1735,1282,0,0
518,-258,0,0,0,0,0,0,0,0,0,-1,1742,1282,0,0
525,-258,0,0,0,0,0,0,0,0,0,-1,1749,1282,0,0
532,-258,0,0,0,0,0,0,0,0,0,-1,1756,1282,0,0
539,-258,0,0,0,0,0,0,0,0,0,-1,1763,1282,0,0
546,-258,0,0,0,0,0,0,0,0,0,-1,1770,1282,0,0
553,-258,0,0,0,0,0,0,0,0,0,-1,1777,1282,0,0
560,-258,0,0,0,0,0,0,0,0,0,-1,1784,1282,0,0
567,-258,0,0,0,0,0,0,0,0,0,-1,1791,1282,0,0
574,-258,0,0,0,0,0,0,0,0,0,-1,1798,1282,0,0
581,-258,0,0,0,0,0,0,0,0,0,-1,1805,1282,0,0
588,-258,0,0,0,0,0,0,0,0,0,-1,1812,1282,0,0
595,-258,0,0,0,0,0,0,0,0,0,-1,1819,1282,0,0
602,-258,0,0,0,0,0,0,0,0,0,-1,1826,1282,0,0
609,-258,26.859,3.13513,-0.00192185,0.009333,-0.00385577,0.0105272,-0.00311607,-1.27044,0.00825526,0.0249751,1833,1282,26.859,-3.13513
616,-258,26.8224,3.11609,-0.00680621,0.0128501,-0.00171456,0.0129986,-0.00695464,-1.48444,0.0116948,0.0229956,1840,1282,26.8224,-3.11613
623,-258,26.8337,3.1333,-0.0097983,0.0140485,0.000550683,0.0140612,-0.00981101,1.54772,0.0138552,0.0333333,1847,1282,26.8337,-3.13331
630,-258,26.9392,3.14673,-0.0104549,0.0133229,0.00214386,0.0135146,-0.0106466,1.48159,0.0139822,0.0453873,1854,1282,26.9393,-3.14671
637,-258,27.1624,3.34412,-0.00922452,0.0113938,0.00285969,0.0117831,-0.0096138,1.4355,0.0123747,0.0454112,1861,1282,27.1624,-3.34416
644,-258,27.4475,3.80762,-0.00754143,0.00930742,0.0030096,0.00982887,-0.00806287,1.39924,0.0103466,0.0462467,1868,1282,27.4475,-3.80768
651,-258,27.7878,3.98279,0,0,0,0,0,0,0,-1,1875,1282,27.7879,-3.9828
658,-258,24.3635,4.37219,0,0,0,0,0,0,0,-1,1882,1282,24.3635,-4.37217
665,-258,23.847,4.86938,0,0,0,0,0,0,0,-1,1889,1282,23.8471,-4.86942
672,-258,22.703,2.80957,0,0,0,0,0,0,0,-1,1896,1282,22.703,-2.80962
679,-258,21.032,7.14587,0,0,0,0,0,0,0,-1,1903,1282,21.0319,-7.14593
686,-258,21.1563,6.86926,0.000534302,-1.14372e-07,0.00172756,0.00201519,-0.001481,0.708669,0.00202637,0.0338421,1910,1282,21.1563,-6.86928
693,-258,21.2454,6.58838,0.000353667,0.000289978,0.00130577,0.00162798,-0.000984334,0.773207,0.0015234,0.0101582,1917,1282,21.2454,-6.58839
700,-258,21.2296,6.33643,0.000148061,-0.000157872,0.000708486,0.000719906,-0.000729717,0.679077,0.000836946,0.0087271,1924,1282,21.2296,-6.33646
707,-258,21.2252,6.09253,0.000482069,-2.8906e-05,0.000372972,0.000678668,-0.000225505,0.485103,0.00054344,0.0104385,1931,1282,21.2253,-6.09255
714,-258,21.2297,5.86072,0.000736714,4.68369e-05,-0.000416564,0.000932615,-0.000149065,-0.43959,0.000676925,0.0104082,1938,1282,21.2298,-5.86076
721,-258,21.2214,5.62671,0.000606591,8.07322e-05,-0.00159557,0.00196075,-0.00127343,-0.703738,0.00188125,0.0130863,1945,1282,21.2214,-5.62665
728,-258,21.1943,5.41504,0.000567909,-5.26445e-05,-0.00328342,0.00355568,-0.00304041,-0.738289,0.00381213,0.0131728,1952,1282,21.1943,-5.41507
735,-258,21.2162,5.19446,0.000809661,-0.000485738,-0.00530629,0.00550764,-0.00518371,-0.724667,0.0061736,0.014682,1959,1282,21.2161,-5.19452
742,-258,21.2397,4.95215,0.00103595,-0.00113359,-0.00810248,0.00812596,-0.00822359,-0.718853,0.00943947,0.0156625,1966,1282,21.2398,-4.95214
749,-258,21.2404,4.74731,0.001317,-0.00232091,-0.0119426,0.0115784,-0.0125823,-0.709825,0.0139532,0.0286512,1973,1282,21.2404,-4.74733
756,-258,21.2612,4.57935,0.0017068,-0.00417688,-0.0170967,0.0161129,-0.018583,-0.700197,0.0200486,0.041293,1980,1282,21.2612,-4.57938
763,-258,21.0564,3.98181,0.00218201,-0.00690021,-0.0237177,0.0217894,-0.0265076,-0.69081,0.0279286,0.0455407,1987,1282,21.0563,-3.98181
770,-258,20.8724,3.19116,0.00264639,-0.0106537,-0.0318407,0.0285241,-0.0365314,-0.682451,0.0376545,0.0466186,1994,1282,20.8725,-3.19111
777,-258,22.6757,6.39929,0,0,0,0,0,0,0,-1,2001,1282,22.6757,-6.39929
784,-258,24.0685,6.47876,0,0,0,0,0,0,0,-1,2008,1282,24.0685,-6.47874
791,-258,0,0,0,0,0,0,0,0,0,-1,2015,1282,0,0
798,-258,0,0,0,0,0,0,0,0,0,-1,2022,1282,0,0
805,-258,0,0,0,0,0,0,0,0,0,-1,2029,1282,0,0
812,-258,0,0,0,0,0,0,0,0,0,-1,2036,1282,0,0
-700,-265,0,0,0,0,0,0,0,0,0,-1,524,1289,0,0
-693,-265,0,0,0,0,0,0,0,0,0,-1,531,1289,0,0
-686,-265,0,0,0,0,0,0,0,0,0,-1,538,1289,0,0
-679,-265,0,0,0,0,0,0,0,0,0,-1,545,1289,0,0
-672,-265,0,0,0,0,0,0,0,0,0,-1,552,1289,0,0
-665,-265,-9.34869,-0.105225,0,0,0,0,0,0,0,-1,559,1289,-9.34869,0.105199
-658,-265,-15.5964,-3.0603,0,0,0,0,0,0,0,-1,566,1289,-15.5964,3.06031
-651,-265,-14.9363,-3.16284,0,0,0,0,0,0,0,-1,573,1289,-14.9364,3.16279
-644,-265,-14.2364,-3.08154,0,0,0,0,0,0,0,-1,580,1289,-14.2364,3.08153
-637,-265,-13.5107,-2.95947,0,0,0,0,0,0,0,-1,587,1289,-13.5107,2.95949
-630,-265,-11.9803,0.788574,0,0,0,0,0,0,0,-1,594,1289,-11.9804,-0.788538
-623,-265,-11.8691,1.35266,0.0152215,0.0100676,0.00294277,0.0165561,0.00873295,0.425788,0.0095635,0.0447039,601,1289,-11.8691,-1.35268
-616,-265,-11.8012,1.94324,0.00844774,0.010929,0.00416065,0.0140301,0.00534671,0.930294,0.00817627,0.0376052,608,1289,-11.8012,-1.9432
-609,-265,-11.8517,2.55103,0.00343386,0.00847459,0.00546528,0.0119727,-6.42044e-05,1.00145,0.00800326,0.0173661,615,1289,-11.8518,-2.55102
-602,-265,-11.8593,2.8385,0.00117635,0.00591154,0.00527547,0.00932634,-0.00223845,0.996323,0.00708262,0.0144205,622,1289,-11.8593,-2.83854
-595,-265,-11.8477,3.1073,0.00119303,0.0042749,0.00390075,0.00692805,-0.00146011,0.973508,0.00517453,0.011463,629,1289,-11.8477,-3.10729
-588,-265,-11.8521,3.36914,0.00182617,0.00294087,0.00295154,0.00538723,-0.000620181,0.878716,0.00381505,0.0100413,636,1289,-11.8521,-3.36916
-581,-265,-11.8519,3.646,0.0025832,0.00170944,0.00218354,0.00437314,-8.04942e-05,0.686663,0.00294262,0.013095,643,1289,-11.8519,-3.646
-574,-265,-11.861,3.96362,0.0034161,0.000870706,0.0016342,0.00421472,7.20858e-05,0.454561,0.0027861,0.0145348,650,1289,-11.861,-3.96368
-567,-265,-11.9073,4.27368,0.00369277,0.000380683,0.00146036,0.00424469,-0.000171244,0.361345,0.00288857,0.0197497,657,1289,-11.9073,-4.27367
-560,-265,-11.9058,4.51807,0.00359777,-0.00019865,0.00144617,0.0040859,-0.000686776,0.325524,0.00297936,0.0208014,664,1289,-11.9058,-4.51809
-553,-265,-11.798,4.81055,0.00311524,-0.00095914,0.00142621,0.00356486,-0.00140876,0.305393,0.0029601,0.030214,671,1289,-11.798,-4.81051
-546,-265,-11.7637,5.22668,0.00205022,-0.00147869,0.00135491,0.00251042,-0.00193889,0.327426,0.00257587,0.0442156,678,1289,-11.7638,-5.22665
-539,-265,-11.8401,5.66272,0,0,0,0,0,0,0,-1,685,1289,-11.8401,-5.66267
-532,-265,-8.53998,3.41467,0,0,0,0,0,0,0,-1,692,1289,-8.53996,-3.41473
-525,-265,-12.1317,0.514648,0,0,0,0,0,0,0,-1,699,1289,-12.1317,-0.514634
-518,-265,-17.3415,1.62744,0,0,0,0,0,0,0,-1,706,1289,-17.3415,-1.62748
-511,-265,-17.0449,1.09778,0,0,0,0,0,0,0,-1,713,1289,-17.0449,-1.09783
-504,-265,-16.6753,0.434937,0,0,0,0,0,0,0,-1,720,1289,-16.6753,-0.434946
-497,-265,-16.3488,-0.0568848,0,0,0,0,0,0,0,-1,727,1289,-16.3487,0.0568992
-490,-265,-15.1696,0.492676,0,0,0,0,0,0,0,-1,734,1289,-15.1696,-0.492688
-483,-265,0,0,0,0,0,0,0,0,0,-1,741,1289,0,0
-476,-265,0,0,0,0,0,0,0,0,0,-1,748,1289,0,0
-469,-265,0,0,0,0,0,0,0,0,0,-1,755,1289,0,0
-462,-265,0,0,0,0,0,0,0,0,0,-1,762,1289,0,0
-455,-265,0,0,0,0,0,0,0,0,0,-1,769,1289,0,0
-448,-265,0,0,0,0,0,0,0,0,0,-1,776,1289,0,0
-441,-265,0,0,0,0,0,0,0,0,0,-1,783,1289,0,0
-434,-265,0,0,0,0,0,0,0,0,0,-1,790,1289,0,0
-427,-265,0,0,0,0,0,0,0,0,0,-1,797,1289,0,0
-420,-265,0,0,0,0,0,0,0,0,0,-1,804,1289,0,0
-413,-265,0,0,0,0,0,0,0,0,0,-1,811,1289,0,0
-406,-265,0,0,0,0,0,0,0,0,0,-1,818,1289,0,0
-399,-265,0,0,0,0,0,0,0,0,0,-1,825,1289,0,0
-392,-265,0,0,0,0,0,0,0,0,0,-1,832,1289,0,0
-385,-265,0,0,0,0,0,0,0,0,0,-1,839,1289,0,0
-378,-265,0,0,0,0,0,0,0,0,0,-1,846,1289,0,0
-371,-265,0,0,0,0,0,0,0,0,0,-1,853,1289,0,0
-364,-265,0,0,0,0,0,0,0,0,0,-1,860,1289,0,0
-357,-265,0,0,0,0,0,0,0,0,0,-1,867,1289,0,0
-350,-265,0,0,0,0,0,0,0,0,0,-1,874,1289,0,0
-343,-265,0,0,0,0,0,0,0,0,0,-1,881,1289,0,0
-336,-265,0,0,0,0,0,0,0,0,0,-1,888,1289,0,0
-329,-265,0,0,0,0,0,0,0,0,0,-1,895,1289,0,0
-322,-265,0,0,0,0,0,0,0,0,0,-1,902,1289,0,0
-315,-265,0,0,0,0,0,0,0,0,0,-1,909,1289,0,0
-308,-265,0,0,0,0,0,0,0,0,0,-1,916,1289,0,0
-301,-265,0,0,0,0,0,0,0,0,0,-1,923,1289,0,0
-294,-265,0,0,0,0,0,0,0,0,0,-1,930,1289,0,0
-287,-265,0,0,0,0,0,0,0,0,0,-1,937,1289,0,0
-280,-265,0,0,0,0,0,0,0,0,0,-1,944,1289,0,0
-273,-265,0,0,0,0,0,0,0,0,0,-1,951,1289,0,0
-266,-265,0,0,0,0,0,0,0,0,0,-1,958,1289,0,0
-259,-265,0,0,0,0,0,0,0,0,0,-1,965,1289,0,0
-252,-265,0,0,0,0,0,0,0,0,0,-1,972,1289,0,0
-245,-265,0,0,0,0,0,0,0,0,0,-1,979,1289,0,0
-238,-265,0,0,0,0,0,0,0,0,0,-1,986,1289,0,0
-231,-265,0,0,0,0,0,0,0,0,0,-1,993,1289,0,0
-224,-265,0,0,0,0,0,0,0,0,0,-1,1000,1289,0,0
-217,-265,0,0,0,0,0,0,0,0,0,-1,1007,1289,0,0
-210,-265,0,0,0,0,0,0,0,0,0,-1,1014,1289,0,0
-203,-265,0,0,0,0,0,0,0,0,0,-1,1021,1289,0,0
-196,-265,0,0,0,0,0,0,0,0,0,-1,1028,1289,0,0
-189,-265,0,0,0,0,0,0,0,0,0,-1,1035,1289,0,0
-182,-265,0,0,0,0,0,0,0,0,0,-1,1042,1289,0,0
-175,-265,0,0,0,0,0,0,0,0,0,-1,1049,1289,0,0
-168,-265,0,0,0,0,0,0,0,0,0,-1,1056,1289,0,0
-161,-265,0,0,0,0,0,0,0,0,0,-1,1063,1289,0,0
-154,-265,0,0,0,0,0,0,0,0,0,-1,1070,1289,0,0
-147,-265,0,0,0,0,0,0,0,0,0,-1,1077,1289,0,0
-140,-265,0,0,0,0,0,0,0,0,0,-1,1084,1289,0,0
-133,-265,0,0,0,0,0,0,0,0,0,-1,1091,1289,0,0
-126,-265,0,0,0,0,0,0,0,0,0,-1,1098,1289,0,0
-119,-265,0,0,0,0,0,0,0,0,0,-1,1105,1289,0,0
-112,-265,0,0,0,0,0,0,0,0,0,-1,1112,1289,0,0
-105,-265,0,0,0,0,0,0,0,0,0,-1,1119,1289,0,0
-98,-265,0,0,0,0,0,0,0,0,0,-1,1126,1289,0,0
-91,-265,0,0,0,0,0,0,0,0,0,-1,1133,1289,0,0
-84,-265,0,0,0,0,0,0,0,0,0,-1,1140,1289,0,0
-77,-265,0,0,0,0,0,0,0,0,0,-1,1147,1289,0,0
-70,-265,0,0,0,0,0,0,0,0,0,-1,1154,1289,0,0
-63,-265,0,0,0,0,0,0,0,0,0,-1,1161,1289,0,0
-56,-265,0,0,0,0,0,0,0,0,0,-1,1168,1289,0,0
-49,-265,0,0,0,0,0,0,0,0,0,-1,1175,1289,0,0
-42,-265,0,0,0,0,0,0,0,0,0,-1,1182,1289,0,0
-35,-265,0,0,0,0,0,0,0,0,0,-1,1189,1289,0,0
-28,-265,0,0,0,0,0,0,0,0,0,-1,1196,1289,0,0
-21,-265,0,0,0,0,0,0,0,0,0,-1,1203,1289,0,0
-14,-265,0,0,0,0,0,0,0,0,0,-1,1210,1289,0,0
-7,-265,0,0,0,0,0,0,0,0,0,-1,1217,1289,0,0
0,-265,0,0,0,0,0,0,0,0,0,-1,1224,1289,0,0
7,-265,0,0,0,0,0,0,0,0,0,-1,1231,1289,0,0
14,-265,0,0,0,0,0,0,0,0,0,-1,1238,1289,0,0
21,-265,0,0,0,0,0,0,0,0,0,-1,1245,1289,0,0
28,-265,0,0,0,0,0,0,0,0,0,-1,1252,1289,0,0
35,-265,0,0,0,0,0,0,0,0,0,-1,1259,1289,0,0
42,-265,0,0,0,0,0,0,0,0,0,-1,1266,1289,0,0
49,-265,0,0,0,0,0,0,0,0,0,-1,1273,1289,0,0
56,-265,0,0,0,0,0,0,0,0,0,-1,1280,1289,0,0
63,-265,0,0,0,0,0,0,0,0,0,-1,1287,1289,0,0
70,-265,0,0,0,0,0,0,0,0,0,-1,1294,1289,0,0
77,-265,0,0,0,0,0,0,0,0,0,-1,1301,1289,0,0
84,-265,0,0,0,0,0,0,0,0,0,-1,1308,1289,0,0
91,-265,0,0,0,0,0,0,0,0,0,-1,1315,1289,0,0
98,-265,0,0,0,0,0,0,0,0,0,-1,1322,1289,0,0
105,-265,0,0,0,0,0,0,0,0,0,-1,1329,1289,0,0
112,-265,0,0,0,0,0,0,0,0,0,-1,1336,1289,0,0
119,-265,0,0,0,0,0,0,0,0,0,-1,1343,1289,0,0
126,-265,0,0,0,0,0,0,0,0,0,-1,1350,1289,0,0
133,-265,0,0,0,0,0,0,0,0,0,-1,1357,1289,0,0
140,-265,0,0,0,0,0,0,0,0,0,-1,1364,1289,0,0
147,-265,0,0,0,0,0,0,0,0,0,-1,1371,1289,0,0
154,-265,0,0,0,0,0,0,0,0,0,-1,1378,1289,0,0
161,-265,0,0,0,0,0,0,0,0,0,-1,1385,1289,0,0
168,-265,0,0,0,0,0,0,0,0,0,-1,1392,1289,0,0
175,-265,0,0,0,0,0,0,0,0,0,-1,1399,1289,0,0
182,-265,0,0,0,0,0,0,0,0,0,-1,1406,1289,0,0
189,-265,0,0,0,0,0,0,0,0,0,-1,1413,1289,0,0
196,-265,0,0,0,0,0,0,0,0,0,-1,1420,1289,0,0
203,-265,0,0,0,0,0,0,0,0,0,-1,1427,1289,0,0
210,-265,0,0,0,0,0,0,0,0,0,-1,1434,1289,0,0
217,-265,0,0,0,0,0,0,0,0,0,-1,1441,1289,0,0
224,-265,0,0,0,0,0,0,0,0,0,-1,1448,1289,0,0
231,-265,0,0,0,0,0,0,0,0,0,-1,1455,1289,0,0
238,-265,0,0,0,0,0,0,0,0,0,-1,1462,1289,0,0
245,-265,0,0,0,0,0,0,0,0,0,-1,1469,1289,0,0
252,-265,0,0,0,0,0,0,0,0,0,-1,1476,1289,0,0
259,-265,0,0,0,0,0,0,0,0,0,-1,1483,1289,0,0
266,-265,0,0,0,0,0,0,0,0,0,-1,1490,1289,0,0
273,-265,0,0,0,0,0,0,0,0,0,-1,1497,1289,0,0
280,-265,0,0,0,0,0,0,0,0,0,-1,1504,1289,0,0
287,-265,0,0,0,0,0,0,0,0,0,-1,1511,1289,0,0
294,-265,0,0,0,0,0,0,0,0,0,-1,1518,1289,0,0
301,-265,0,0,0,0,0,0,0,0,0,-1,1525,1289,0,0
308,-265,0,0,0,0,0,0,0,0,0,-1,1532,1289,0,0
315,-265,0,0,0,0,0,0,0,0,0,-1,1539,1289,0,0
322,-265,0,0,0,0,0,0,0,0,0,-1,1546,1289,0,0
329,-265,0,0,0,0,0,0,0,0,0,-1,1553,1289,0,0
336,-265,0,0,0,0,0,0,0,0,0,-1,1560,1289,0,0
343,-265,0,0,0,0,0,0,0,0,0,-1,1567,1289,0,0
350,-265,0,0,0,0,0,0,0,0,0,-1,1574,1289,0,0
357,-265,0,0,0,0,0,0,0,0,0,-1,1581,1289,0,0
364,-265,0,0,0,0,0,0,0,0,0,-1,1588,1289,0,0
371,-265,0,0,0,0,0,0,0,0,0,-1,1595,1289,0,0
378,-265,0,0,0,0,0,0,0,0,0,-1,1602,1289,0,0
385,-265,0,0,0,0,0,0,0,0,0,-1,1609,1289,0,0
392,-265,0,0,0,0,0,0,0,0,0,-1,1616,1289,0,0
399,-265,0,0,0,0,0,0,0,0,0,-1,1623,1289,0,0
406,-265,0,0,0,0,0,0,0,0,0,-1,1630,1289,0,0
413,-265,0,0,0,0,0,0,0,0,0,-1,1637,1289,0,0
420,-265,0,0,0,0,0,0,0,0,0,-1,1644,1289,0,0
427,-265,0,0,0,0,0,0,0,0,0,-1,1651,1289,0,0
434,-265,0,0,0,0,0,0,0,0,0,-1,1658,1289,0,0
441,-265,0,0,0,0,0,0,0,0,0,-1,1665,1289,0,0
448,-265,0,0,0,0,0,0,0,0,0,-1,1672,1289,0,0
455,-265,0,0,0,0,0,0,0,0,0,-1,1679,1289,0,0
462,-265,0,0,0,0,0,0,0,0,0,-1,1686,1289,0,0
469,-265,0,0,0,0,0,0,0,0,0,-1,1693,1289,0,0
476,-265,0,0,0,0,0,0,0,0,0,-1,1700,1289,0,0
483,-265,0,0,0,0,0,0,0,0,0,-1,1707,1289,0,0
490,-265,0,0,0,0,0,0,0,0,0,-1,1714,1289,0,0
497,-265,0,0,0,0,0,0,0,0,0,-1,1721,1289,0,0
504,-265,0,0,0,0,0,0,0,0,0,-1,1728,1289,0,0
511,-265,0,0,0,0,0,0,0,0,0,-1,1735,1289,0,0
518,-265,0,0,0,0,0,0,0,0,0,-1,1742,1289,0,0
525,-265,0,0,0,0,0,0,0,0,0,-1,1749,1289,0,0
532,-265,0,0,0,0,0,0,0,0,0,-1,1756,1289,0,0
539,-265,0,0,0,0,0,0,0,0,0,-1,1763,1289,0,0
546,-265,0,0,0,0,0,0,0,0,0,-1,1770,1289,0,0
553,-265,0,0,0,0,0,0,0,0,0,-1,1777,1289,0,0
560,-265,0,0,0,0,0,0,0,0,0,-1,1784,1289,0,0
567,-265,0,0,0,0,0,0,0,0,0,-1,1791,1289,0,0
574,-265,0,0,0,0,0,0,0,0,0,-1,1798,1289,0,0
581,-265,0,0,0,0,0,0,0,0,0,-1,1805,1289,0,0
588,-265,0,0,0,0,0,0,0,0,0,-1,1812,1289,0,0
595,-265,0,0,0,0,0,0,0,0,0,-1,1819,1289,0,0
602,-265,26.8394,3.1217,-0.00144016,0.00751933,-0.00470446,0.00953574,-0.00345657,-1.16587,0.00777001,0.0269147,1826,1289,26.8394,-3.12166
609,-265,26.8638,3.07788,-0.00773967,0.0127673,-0.00298503,0.013193,-0.00816534,-1.42915,0.0124446,0.0280866,1833,1289,26.8637,-3.07794
616,-265,26.7971,3.0896,-0.0130324,0.0155453,-0.000195365,0.0155467,-0.0130337,-1.56396,0.0165221,0.0337968,1840,1289,26.7971,-3.08964
623,-265,26.8916,3.11206,-0.0155757,0.0157729,0.00232585,0.0159445,-0.0157473,1.49714,0.0182974,0.0474438,1847,1289,26.8916,-3.11207
630,-265,27.0411,3.17151,-0.0153339,0.0141931,0.0037947,0.0146729,-0.0158138,1.445,0.0176056,0.0494223,1854,1289,27.0411,-3.17146
637,-265,27.208,3.48779,-0.0133617,0.0119209,0.00428283,0.0126267,-0.0140675,1.40747,0.0154194,0.045676,1861,1289,27.208,-3.48774
644,-265,27.4543,3.57422,-0.011123,0.00968842,0.00426161,0.0105273,-0.0119618,1.37644,0.0129929,0.0462041,1868,1289,27.4544,-3.57423
651,-265,27.7838,3.43018,0,0,0,0,0,0,0,-1,1875,1289,27.7838,-3.43022
658,-265,23.6672,5.18201,0,0,0,0,0,0,0,-1,1882,1289,23.6673,-5.182
665,-265,22.5138,4.37842,0,0,0,0,0,0,0,-1,1889,1289,22.5138,-4.37837
672,-265,20.0045,6.62671,0,0,0,0,0,0,0,-1,1896,1289,20.0045,-6.62668
679,-265,20.8944,7.11414,0,0,0,0,0,0,0,-1,1903,1289,20.8944,-7.11411
686,-265,20.952,6.83496,-0.000866409,-0.00051895,0.0024303,0.00174382,-0.00312918,0.82108,0.00285108,0.019812,1910,1289,20.952,-6.83492
693,-265,20.9943,6.57446,-0.000929956,-0.000140487,0.0018841,0.00138979,-0.00246023,0.888659,0.00225126,0.0100383,1917,1289,20.9943,-6.57441
700,-265,20.9928,6.33862,-0.000887058,-0.000436025,0.00112418,0.000485036,-0.00180812,0.884387,0.00139548,0.0104006,1924,1289,20.9928,-6.33867
707,-265,21.0027,6.0863,-0.000311828,-0.000131759,0.000574085,0.000359309,-0.000802895,0.86318,0.000687097,0.0105131,1931,1289,21.0027,-6.08636
714,-265,20.9857,5.85498,0.000109431,8.50362e-05,-0.000498449,0.000595832,-0.000401365,-0.773165,0.00057937,0.0101506,1938,1289,20.9857,-5.85494
721,-265,20.9869,5.64148,-9.90809e-05,0.000148267,-0.00208669,0.00211494,-0.00206576,-0.814998,0.00241378,0.00932009,1945,1289,20.9869,-5.64153
728,-265,20.9648,5.43127,-0.000392206,4.13249e-05,-0.00416312,0.00399332,-0.0043442,-0.811409,0.00481509,0.0120906,1952,1289,20.9649,-5.4313
735,-265,20.9611,5.20837,-0.000737642,-0.000410724,-0.00670388,0.00613169,-0.00728005,-0.797587,0.00775273,0.0159424,1959,1289,20.9611,-5.20842
742,-265,21.0096,4.94568,-0.0013963,-0.00119474,-0.010344,0.00904893,-0.01164,-0.79027,0.0119759,0.0196669,1966,1289,21.0096,-4.9457
749,-265,21.0603,4.72131,-0.00232964,-0.00256858,-0.0154055,0.0129568,-0.017855,-0.781521,0.017864,0.0426098,1973,1289,21.0603,-4.72133
756,-265,21.2058,4.48438,0,0,0,0,0,0,0,-1,1980,1289,21.2058,-4.48439
763,-265,21.5181,4.13916,-0.00579354,-0.00791529,-0.0312562,0.0244198,-0.0381286,-0.768434,0.0364003,0.0451112,1987,1289,21.518,-4.13921
770,-265,21.1921,3.22021,-0.00886414,-0.0124031,-0.0425167,0.0319198,-0.0531871,-0.764601,0.0496453,0.0461175,1994,1289,21.1922,-3.22019
777,-265,20.8866,2.46118,-0.0131689,-0.0184866,-0.0560652,0.0403005,-0.071956,-0.761704,0.0656647,0.0474272,2001,1289,20.8866,-2.46114
784,-265,0,0,0,0,0,0,0,0,0,-1,2008,1289,0,0
791,-265,0,0,0,0,0,0,0,0,0,-1,2015,1289,0,0
798,-265,0,0,0,0,0,0,0,0,0,-1,2022,1289,0,0
805,-265,0,0,0,0,0,0,0,0,0,-1,2029,1289,0,0
812,-265,0,0,0,0,0,0,0,0,0,-1,2036,1289,0,0
-700,-272,0,0,0,0,0,0,0,0,0,-1,524,1296,0,0
-693,-272,0,0,0,0,0,0,0,0,0,-1,531,1296,0,0
-686,-272,0,0,0,0,0,0,0,0,0,-1,538,1296,0,0
-679,-272,0,0,0,0,0,0,0,0,0,-1,545,1296,0,0
-672,-272,0,0,0,0,0,0,0,0,0,-1,552,1296,0,0
-665,-272,0,0,0,0,0,0,0,0,0,-1,559,1296,0,0
-658,-272,-16.0052,-4.36731,0,0,0,0,0,0,0,-1,566,1296,-16.0053,4.36728
-651,-272,-15.1088,-3.83582,0,0,0,0,0,0,0,-1,573,1296,-15.1088,3.83587
-644,-272,-14.1842,-3.3291,0,0,0,0,0,0,0,-1,580,1296,-14.1842,3.32915
-637,-272,-13.5176,-2.703,0,0,0,0,0,0,0,-1,587,1296,-13.5176,2.70298
-630,-272,-11.3888,0.819092,0,0,0,0,0,0,0,-1,594,1296,-11.3888,-0.819139
-623,-272,-11.4418,1.3252,0.0143968,0.012189,0.00388088,0.0173278,0.0092581,0.646834,0.010012,0.0449457,601,1296,-11.4418,-1.32518
-616,-272,-11.3715,1.98938,0.00763754,0.0126101,0.00517922,0.0158689,0.00437875,1.00918,0.00946361,0.036789,608,1296,-11.3715,-1.98935
-609,-272,-11.5496,2.60278,0.00298072,0.00958443,0.00639655,0.0134811,-0.000915907,1.02366,0.00930771,0.0211851,615,1296,-11.5496,-2.60277
-602,-272,-11.5705,2.83374,0.00105068,0.00664834,0.00593303,0.0104096,-0.00271054,1.00579,0.00799782,0.0136928,622,1296,-11.5705,-2.83375
-595,-272,-11.5701,3.12305,0.00111508,0.00471365,0.00431356,0.00758815,-0.00175942,0.982988,0.0057359,0.0107461,629,1296,-11.57,-3.12303
-588,-272,-11.5664,3.40369,0.00160237,0.00324702,0.00318569,0.00571481,-0.000865417,0.911707,0.00412869,0.0105228,636,1296,-11.5664,-3.40363
-581,-272,-11.5797,3.66614,0.0022354,0.00204498,0.00230626,0.00444842,-0.000168031,0.764768,0.00302318,0.0102102,643,1296,-11.5797,-3.66609
-574,-272,-11.6204,3.96924,0.00302775,0.00123041,0.00172733,0.0040762,0.00018196,0.545535,0.00265889,0.0145491,650,1296,-11.6205,-3.96926
-567,-272,-11.6355,4.28186,0.00350626,0.000743808,0.00146905,0.00414144,0.000108628,0.4081,0.00272547,0.0197564,657,1296,-11.6355,-4.28191
-560,-272,-11.6204,4.52942,0.00370132,0.00031925,0.00147091,0.00425153,-0.000230962,0.357947,0.00291439,0.018334,664,1296,-11.6204,-4.52943
-553,-272,-11.5547,4.77417,0.00347975,-0.000231002,0.00157136,0.00405575,-0.000807001,0.351352,0.00300912,0.0146332,671,1296,-11.5547,-4.77418
-546,-272,-11.4866,5.13269,0.00263073,-0.000630184,0.00159623,0.00328202,-0.00128147,0.387396,0.00271781,0.0241714,678,1296,-11.4866,-5.13268
-539,-272,-11.5673,5.53772,0,0,0,0,0,0,0,-1,685,1296,-11.5673,-5.5377
-532,-272,-10.5572,4.53943,0,0,0,0,0,0,0,-1,692,1296,-10.5572,-4.53943
-525,-272,-11.9599,0.0393066,0,0,0,0,0,0,0,-1,699,1296,-11.9599,-0.0393577
-518,-272,-17.3625,1.27307,0,0,0,0,0,0,0,-1,706,1296,-17.3625,-1.27302
-511,-272,-16.4619,0.855835,0,0,0,0,0,0,0,-1,713,1296,-16.4619,-0.855808
-504,-272,-16.0373,0.502563,0,0,0,0,0,0,0,-1,720,1296,-16.0373,-0.502512
-497,-272,-14.6091,0.248779,0,0,0,0,0,0,0,-1,727,1296,-14.6091,-0.248728
-490,-272,-14.7272,0.464966,0,0,0,0,0,0,0,-1,734,1296,-14.7272,-0.464958
-483,-272,-15.3736,0.792603,0,0,0,0,0,0,0,-1,741,1296,-15.3736,-0.79263
-476,-272,0,0,0,0,0,0,0,0,0,-1,748,1296,0,0
-469,-272,0,0,0,0,0,0,0,0,0,-1,755,1296,0,0
-462,-272,0,0,0,0,0,0,0,0,0,-1,762,1296,0,0
-455,-272,0,0,0,0,0,0,0,0,0,-1,769,1296,0,0
-448,-272,0,0,0,0,0,0,0,0,0,-1,776,1296,0,0
-441,-272,0,0,0,0,0,0,0,0,0,-1,783,1296,0,0
-434,-272,0,0,0,0,0,0,0,0,0,-1,790,1296,0,0
-427,-272,0,0,0,0,0,0,0,0,0,-1,797,1296,0,0
-420,-272,0,0,0,0,0,0,0,0,0,-1,804,1296,0,0
-413,-272,0,0,0,0,0,0,0,0,0,-1,811,1296,0,0
-406,-272,0,0,0,0,0,0,0,0,0,-1,818,1296,0,0
-399,-272,0,0,0,0,0,0,0,0,0,-1,825,1296,0,0
-392,-272,0,0,0,0,0,0,0,0,0,-1,832,1296,0,0
-385,-272,0,0,0,0,0,0,0,0,0,-1,839,1296,0,0
-378,-272,0,0,0,0,0,0,0,0,0,-1,846,1296,0,0
-371,-272,0,0,0,0,0,0,0,0,0,-1,853,1296,0,0
-364,-272,0,0,0,0,0,0,0,0,0,-1,860,1296,0,0
-357,-272,0,0,0,0,0,0,0,0,0,-1,867,1296,0,0
-350,-272,0,0,0,0,0,0,0,0,0,-1,874,1296,0,0
-343,-272,0,0,0,0,0,0,0,0,0,-1,881,1296,0,0
-336,-272,0,0,0,0,0,0,0,0,0,-1,888,1296,0,0
-329,-272,0,0,0,0,0,0,0,0,0,-1,895,1296,0,0
-322,-272,0,0,0,0,0,0,0,0,0,-1,902,1296,0,0
-315,-272,0,0,0,0,0,0,0,0,0,-1,909,1296,0,0
-308,-272,0,0,0,0,0,0,0,0,0,-1,916,1296,0,0
-301,-272,0,0,0,0,0,0,0,0,0,-1,923,1296,0,0
-294,-272,0,0,0,0,0,0,0,0,0,-1,930,1296,0,0
-287,-272,0,0,0,0,0,0,0,0,0,-1,937,1296,0,0
-280,-272,0,0,0,0,0,0,0,0,0,-1,944,1296,0,0
-273,-272,0,0,0,0,0,0,0,0,0,-1,951,1296,0,0
-266,-272,0,0,0,0,0,0,0,0,0,-1,958,1296,0,0
-259,-272,0,0,0,0,0,0,0,0,0,-1,965,1296,0,0
-252,-272,0,0,0,0,0,0,0,0,0,-1,972,1296,0,0
-245,-272,0,0,0,0,0,0,0,0,0,-1,979,1296,0,0
-238,-272,0,0,0,0,0,0,0,0,0,-1,986,1296,0,0
-231,-272,0,0,0,0,0,0,0,0,0,-1,993,1296,0,0
-224,-272,0,0,0,0,0,0,0,0,0,-1,1000,1296,0,0
-217,-272,0,0,0,0,0,0,0,0,0,-1,1007,1296,0,0
-210,-272,0,0,0,0,0,0,0,0,0,-1,1014,1296,0,0
-203,-272,0,0,0,0,0,0,0,0,0,-1,1021,1296,0,0
-196,-272,0,0,0,0,0,0,0,0,0,-1,1028,1296,0,0
-189,-272,0,0,0,0,0,0,0,0,0,-1,1035,1296,0,0
-182,-272,0,0,0,0,0,0,0,0,0,-1,1042,1296,0,0
-175,-272,0,0,0,0,0,0,0,0,0,-1,1049,1296,0,0
-168,-272,0,0,0,0,0,0,0,0,0,-1,1056,1296,0,0
-161,-272,0,0,0,0,0,0,0,0,0,-1,1063,1296,0,0
-154,-272,0,0,0,0,0,0,0,0,0,-1,1070,1296,0,0
-147,-272,0,0,0,0,0,0,0,0,0,-1,1077,1296,0,0
-140,-272,0,0,0,0,0,0,0,0,0,-1,1084,1296,0,0
-133,-272,0,0,0,0,0,0,0,0,0,-1,1091,1296,0,0
-126,-272,0,0,0,0,0,0,0,0,0,-1,1098,1296,0,0
-119,-272,0,0,0,0,0,0,0,0,0,-1,1105,1296,0,0
-112,-272,0,0,0,0,0,0,0,0,0,-1,1112,1296,0,0
-105,-272,0,0,0,0,0,0,0,0,0,-1,1119,1296,0,0
-98,-272,0,0,0,0,0,0,0,0,0,-1,1126,1296,0,0
-91,-272,0,0,0,0,0,0,0,0,0,-1,1133,1296,0,0
-84,-272,0,0,0,0,0,0,0,0,0,-1,1140,1296,0,0
-77,-272,0,0,0,0,0,0,0,0,0,-1,1147,1296,0,0
-70,-272,0,0,0,0,0,0,0,0,0,-1,1154,1296,0,0
-63,-272,0,0,0,0,0,0,0,0,0,-1,1161,1296,0,0
-56,-272,0,0,0,0,0,0,0,0,0,-1,1168,1296,0,0
-49,-272,0,0,0,0,0,0,0,0,0,-1,1175,1296,0,0
-42,-272,0,0,0,0,0,0,0,0,0,-1,1182,1296,0,0
-35,-272,0,0,0,0,0,0,0,0,0,-1,1189,1296,0,0
-28,-272,0,0,0,0,0,0,0,0,0,-1,1196,1296,0,0
-21,-272,0,0,0,0,0,0,0,0,0,-1,1203,1296,0,0
-14,-272,0,0,0,0,0,0,0,0,0,-1,1210,1296,0,0
-7,-272,0,0,0,0,0,0,0,0,0,-1,1217,1296,0,0
0,-272,0,0,0,0,0,0,0,0,0,-1,1224,1296,0,0
7,-272,0,0,0,0,0,0,0,0,0,-1,1231,1296,0,0
14,-272,0,0,0,0,0,0,0,0,0,-1,1238,1296,0,0
21,-272,0,0,0,0,0,0,0,0,0,-1,1245,1296,0,0
28,-272,0,0,0,0,0,0,0,0,0,-1,1252,1296,0,0
35,-272,0,0,0,0,0,0,0,0,0,-1,1259,1296,0,0
42,-272,0,0,0,0,0,0,0,0,0,-1,1266,1296,0,0
49,-272,0,0,0,0,0,0,0,0,0,-1,1273,1296,0,0
56,-272,0,0,0,0,0,0,0,0,0,-1,1280,1296,0,0
63,-272,0,0,0,0,0,0,0,0,0,-1,1287,1296,0,0
70,-272,0,0,0,0,0,0,0,0,0,-1,1294,1296,0,0
77,-272,0,0,0,0,0,0,0,0,0,-1,1301,1296,0,0
84,-272,0,0,0,0,0,0,0,0,0,-1,1308,1296,0,0
91,-272,0,0,0,0,0,0,0,0,0,-1,1315,1296,0,0
98,-272,0,0,0,0,0,0,0,0,0,-1,1322,1296,0,0
105,-272,0,0,0,0,0,0,0,0,0,-1,1329,1296,0,0
112,-272,0,0,0,0,0,0,0,0,0,-1,1336,1296,0,0
119,-272,0,0,0,0,0,0,0,0,0,-1,1343,1296,0,0
126,-272,0,0,0,0,0,0,0,0,0,-1,1350,1296,0,0
133,-272,0,0,0,0,0,0,0,0,0,-1,1357,1296,0,0
140,-272,0,0,0,0,0,0,0,0,0,-1,1364,1296,0,0
147,-272,0,0,0,0,0,0,0,0,0,-1,1371,1296,0,0
154,-272,0,0,0,0,0,0,0,0,0,-1,1378,1296,0,0
161,-272,0,0,0,0,0,0,0,0,0,-1,1385,1296,0,0
168,-272,0,0,0,0,0,0,0,0,0,-1,1392,1296,0,0
175,-272,0,0,0,0,0,0,0,0,0,-1,1399,1296,0,0
182,-272,0,0,0,0,0,0,0,0,0,-1,1406,1296,0,0
189,-272,0,0,0,0,0,0,0,0,0,-1,1413,1296,0,0
196,-272,0,0,0,0,0,0,0,0,0,-1,1420,1296,0,0
203,-272,0,0,0,0,0,0,0,0,0,-1,1427,1296,0,0
210,-272,0,0,0,0,0,0,0,0,0,-1,1434,1296,0,0
217,-272,0,0,0,0,0,0,0,0,0,-1,1441,1296,0,0
224,-272,0,0,0,0,0,0,0,0,0,-1,1448,1296,0,0
231,-272,0,0,0,0,0,0,0,0,0,-1,1455,1296,0,0
238,-272,0,0,0,0,0,0,0,0,0,-1,1462,1296,0,0
245,-272,0,0,0,0,0,0,0,0,0,-1,1469,1296,0,0
252,-272,0,0,0,0,0,0,0,0,0,-1,1476,1296,0,0
259,-272,0,0,0,0,0,0,0,0,0,-1,1483,1296,0,0
266,-272,0,0,0,0,0,0,0,0,0,-1,1490,1296,0,0
273,-272,0,0,0,0,0,0,0,0,0,-1,1497,1296,0,0
280,-272,0,0,0,0,0,0,0,0,0,-1,1504,1296,0,0
287,-272,0,0,0,0,0,0,0,0,0,-1,1511,1296,0,0
294,-272,0,0,0,0,0,0,0,0,0,-1,1518,1296,0,0
301,-272,0,0,0,0,0,0,0,0,0,-1,1525,1296,0,0
308,-272,0,0,0,0,0,0,0,0,0,-1,1532,1296,0,0
315,-272,0,0,0,0,0,0,0,0,0,-1,1539,1296,0,0
322,-272,0,0,0,0,0,0,0,0,0,-1,1546,1296,0,0
329,-272,0,0,0,0,0,0,0,0,0,-1,1553,1296,0,0
336,-272,0,0,0,0,0,0,0,0,0,-1,1560,1296,0,0
343,-272,0,0,0,0,0,0,0,0,0,-1,1567,1296,0,0
350,-272,0,0,0,0,0,0,0,0,0,-1,1574,1296,0,0
357,-272,0,0,0,0,0,0,0,0,0,-1,1581,1296,0,0
364,-272,0,0,0,0,0,0,0,0,0,-1,1588,1296,0,0
371,-272,0,0,0,0,0,0,0,0,0,-1,1595,1296,0,0
378,-272,0,0,0,0,0,0,0,0,0,-1,1602,1296,0,0
385,-272,0,0,0,0,0,0,0,0,0,-1,1609,1296,0,0
392,-272,0,0,0,0,0,0,0,0,0,-1,1616,1296,0,0
399,-272,0,0,0,0,0,0,0,0,0,-1,1623,1296,0,0
406,-272,0,0,0,0,0,0,0,0,0,-1,1630,1296,0,0
413,-272,0,0,0,0,0,0,0,0,0,-1,1637,1296,0,0
420,-272,0,0,0,0,0,0,0,0,0,-1,1644,1296,0,0
427,-272,0,0,0,0,0,0,0,0,0,-1,1651,1296,0,0
434,-272,0,0,0,0,0,0,0,0,0,-1,1658,1296,0,0
441,-272,0,0,0,0,0,0,0,0,0,-1,1665,1296,0,0
448,-272,0,0,0,0,0,0,0,0,0,-1,1672,1296,0,0
455,-272,0,0,0,0,0,0,0,0,0,-1,1679,1296,0,0
462,-272,0,0,0,0,0,0,0,0,0,-1,1686,1296,0,0
469,-272,0,0,0,0,0,0,0,0,0,-1,1693,1296,0,0
476,-272,0,0,0,0,0,0,0,0,0,-1,1700,1296,0,0
483,-272,0,0,0,0,0,0,0,0,0,-1,1707,1296,0,0
490,-272,0,0,0,0,0,0,0,0,0,-1,1714,1296,0,0
497,-272,0,0,0,0,0,0,0,0,0,-1,1721,1296,0,0
504,-272,0,0,0,0,0,0,0,0,0,-1,1728,1296,0,0
511,-272,0,0,0,0,0,0,0,0,0,-1,1735,1296,0,0
518,-272,0,0,0,0,0,0,0,0,0,-1,1742,1296,0,0
525,-272,0,0,0,0,0,0,0,0,0,-1,1749,1296,0,0
532,-272,0,0,0,0,0,0,0,0,0,-1,1756,1296,0,0
539,-272,0,0,0,0,0,0,0,0,0,-1,1763,1296,0,0
546,-272,0,0,0,0,0,0,0,0,0,-1,1770,1296,0,0
553,-272,0,0,0,0,0,0,0,0,0,-1,1777,1296,0,0
560,-272,0,0,0,0,0,0,0,0,0,-1,1784,1296,0,0
567,-272,0,0,0,0,0,0,0,0,0,-1,1791,1296,0,0
574,-272,0,0,0,0,0,0,0,0,0,-1,1798,1296,0,0
581,-272,0,0,0,0,0,0,0,0,0,-1,1805,1296,0,0
588,-272,0,0,0,0,0,0,0,0,0,-1,1812,1296,0,0
595,-272,0,0,0,0,0,0,0,0,0,-1,1819,1296,0,0
602,-272,26.7694,3.02734,-0.0161883,0.00735427,-0.00132363,0.00742845,-0.0162624,-1.51481,0.0139913,0.0296233,1826,1296,26.7695,-3.0273
609,-272,26.7607,2.98425,-0.0228735,0.0137334,0.000228691,0.0137348,-0.022875,1.56455,0.0213551,0.0374824,1833,1296,26.7608,-2.9843
616,-272,26.6488,2.85107,-0.0266193,0.0163916,0.00270349,0.0165609,-0.0267886,1.50827,0.025259,0.0439374,1840,1296,26.6488,-2.85113
623,-272,26.8099,2.33521,-0.0264889,0.0163711,0.00460001,0.0168592,-0.026977,1.46507,0.0255326,0.0459838,1847,1296,26.8099,-2.33517
630,-272,26.731,2.68726,-0.0236596,0.0145794,0.00545943,0.0153436,-0.0244238,1.43173,0.0231584,0.0475642,1854,1296,26.731,-2.68724
637,-272,26.7825,3.57581,0,0,0,0,0,0,0,-1,1861,1296,26.7825,-3.57583
644,-272,27.5094,3.83691,0,0,0,0,0,0,0,-1,1868,1296,27.5094,-3.83686
651,-272,25.6642,2.26819,0,0,0,0,0,0,0,-1,1875,1296,25.6642,-2.26816
658,-272,21.92,5.5238,0,0,0,0,0,0,0,-1,1882,1296,21.9201,-5.52386
665,-272,22.0238,4.14417,0,0,0,0,0,0,0,-1,1889,1296,22.0238,-4.14421
672,-272,20.4003,6.89929,0,0,0,0,0,0,0,-1,1896,1296,20.4002,-6.89933
679,-272,20.6901,6.96497,-0.00518444,0.00153251,0.00422657,0.00357249,-0.00722441,1.12112,0.00635134,0.0392051,1903,1296,20.69,-6.96494
686,-272,20.738,6.84351,-0.0024381,-0.00134099,0.00316108,0.00131878,-0.00509786,0.87131,0.00391296,0.0151238,1910,1296,20.738,-6.84353
693,-272,20.7389,6.5791,-0.00222132,-0.000829662,0.00242809,0.00100033,-0.00405131,0.924946,0.00308879,0.0113449,1917,1296,20.7389,-6.57913
700,-272,20.7449,6.35034,-0.00176,-0.000875598,0.00146664,0.000214057,-0.00284965,0.931817,0.00197499,0.0110294,1924,1296,20.7449,-6.35033
707,-272,20.755,6.10559,-0.00082793,-0.00038115,0.000689385,0.000120136,-0.00132922,0.942081,0.000928782,0.0111387,1931,1296,20.755,-6.10564
714,-272,20.743,5.85974,-0.000145873,-4.04472e-05,-0.000629387,0.00053843,-0.000724751,-0.827177,0.000731938,0.0109572,1938,1296,20.743,-5.85976
721,-272,20.7432,5.6488,-0.000359295,3.28587e-05,-0.00257701,0.00242124,-0.00274767,-0.823369,0.00298626,0.0120795,1945,1296,20.7431,-5.64885
728,-272,20.7371,5.41907,-0.000853639,-0.000103673,-0.00496671,0.00450219,-0.0054595,-0.823076,0.00576023,0.0145848,1952,1296,20.737,-5.4191
735,-272,20.7468,5.17969,-0.00155951,-0.000613142,-0.00795737,0.0068851,-0.00905775,-0.815096,0.00923305,0.0137443,1959,1296,20.7468,-5.17968
742,-272,20.7351,4.90234,-0.00281317,-0.00148248,-0.0123116,0.0101818,-0.0144774,-0.812393,0.0143088,0.0236176,1966,1296,20.735,-4.90233
749,-272,20.7263,4.62256,-0.00471256,-0.00298601,-0.0184854,0.0146563,-0.0223549,-0.808731,0.0215219,0.046601,1973,1296,20.7264,-4.62251
756,-272,20.8495,4.41382,0,0,0,0,0,0,0,-1,1980,1296,20.8495,-4.41381
763,-272,22.3875,4.50854,0,0,0,0,0,0,0,-1,1987,1296,22.3875,-4.50857
770,-272,21.2019,3.73083,0,0,0,0,0,0,0,-1,1994,1296,21.2019,-3.73084
777,-272,21.1393,2.67664,0,0,0,0,0,0,0,-1,2001,1296,21.1393,-2.67667
784,-272,0,0,0,0,0,0,0,0,0,-1,2008,1296,0,0
791,-272,0,0,0,0,0,0,0,0,0,-1,2015,1296,0,0
798,-272,0,0,0,0,0,0,0,0,0,-1,2022,1296,0,0
805,-272,0,0,0,0,0,0,0,0,0,-1,2029,1296,0,0
812,-272,0,0,0,0,0,0,0,0,0,-1,2036,1296,0,0
-700,-279,0,0,0,0,0,0,0,0,0,-1,524,1303,0,0
-693,-279,0,0,0,0,0,0,0,0,0,-1,531,1303,0,0
-686,-279,0,0,0,0,0,0,0,0,0,-1,538,1303,0,0
-679,-279,0,0,0,0,0,0,0,0,0,-1,545,1303,0,0
-672,-279,0,0,0,0,0,0,0,0,0,-1,552,1303,0,0
-665,-279,0,0,0,0,0,0,0,0,0,-1,559,1303,0,0
-658,-279,-15.4918,-4.42908,0,0,0,0,0,0,0,-1,566,1303,-15.4918,4.42908
-651,-279,-14.8303,-4.04675,0,0,0,0,0,0,0,-1,573,1303,-14.8303,4.04676
-644,-279,-13.9756,-3.34924,0,0,0,0,0,0,0,-1,580,1303,-13.9756,3.34929
-637,-279,-13.1337,-2.72229,0,0,0,0,0,0,0,-1,587,1303,-13.1338,2.72227
-630,-279,-12.822,-1.93555,0,0,0,0,0,0,0,-1,594,1303,-12.8219,1.93553
-623,-279,-11.3766,1.36829,0,0,0,0,0,0,0,-1,601,1303,-11.3766,-1.3683
-616,-279,-11.4677,1.92773,0.00650841,0.0137071,0.00636298,0.0174182,0.00279729,1.04279,0.0108011,0.0415073,608,1303,-11.4677,-1.92778
-609,-279,-11.4586,2.45117,0.00236503,0.010249,0.00732409,0.0146246,-0.00201053,1.03228,0.0104843,0.0323421,615,1303,-11.4586,-2.45116
-602,-279,-11.2834,2.8302,0.000797922,0.00710269,0.00650604,0.0111798,-0.00327922,1.011,0.00875349,0.0123847,622,1303,-11.2834,-2.83015
-595,-279,-11.2889,3.12476,0.000882139,0.00491791,0.00463569,0.00795586,-0.00215582,0.990676,0.00614978,0.00991538,629,1303,-11.2889,-3.12471
-588,-279,-11.2764,3.4137,0.00116685,0.00336285,0.00334294,0.00578349,-0.0012538,0.944074,0.00433447,0.0109772,636,1303,-11.2764,-3.41374
-581,-279,-11.3034,3.67834,0.00157326,0.00219029,0.00238448,0.00428613,-0.000522579,0.849734,0.00304659,0.012028,643,1303,-11.3034,-3.67836
-574,-279,-11.3461,3.9519,0.00213933,0.00140841,0.0018107,0.00362109,-7.33472e-05,0.685819,0.00243888,0.0115335,650,1303,-11.3461,-3.95185
-567,-279,-11.343,4.24438,0.0025871,0.000934214,0.00154067,0.00350899,1.23233e-05,0.539221,0.00233523,0.015414,657,1303,-11.343,-4.24439
-560,-279,-11.3041,4.5238,0.00287615,0.000593753,0.00161795,0.00371488,-0.000244975,0.47825,0.00256215,0.0148424,664,1303,-11.3041,-4.52385
-553,-279,-11.2825,4.79138,0.00289115,0.000218962,0.00195742,0.00392501,-0.000814891,0.485929,0.00292637,0.0107686,671,1303,-11.2824,-4.79137
-546,-279,-11.2811,5.07043,0.00238384,-5.49008e-05,0.00228069,0.00375067,-0.00142173,0.539908,0.00308554,0.0154042,678,1303,-11.2812,-5.07045
-539,-279,-11.1787,5.4231,0.00140205,-0.000644512,0.00252769,0.00310573,-0.00234819,0.593067,0.00315893,0.0489701,685,1303,-11.1787,-5.4231
-532,-279,-11.0461,5.79041,0,0,0,0,0,0,0,-1,692,1303,-11.0461,-5.7904
-525,-279,-11.7063,-0.539185,0,0,0,0,0,0,0,-1,699,1303,-11.7063,0.539166
-518,-279,-16.8138,1.11963,0,0,0,0,0,0,0,-1,706,1303,-16.8138,-1.11968
-511,-279,-15.9417,0.708252,0,0,0,0,0,0,0,-1,713,1303,-15.9417,-0.70823
-504,-279,-15.1055,0.264282,0,0,0,0,0,0,0,-1,720,1303,-15.1055,-0.264245
-497,-279,-14.4391,-0.347168,0,0,0,0,0,0,0,-1,727,1303,-14.4392,0.347135
-490,-279,-13.9624,-1.07593,0,0,0,0,0,0,0,-1,734,1303,-13.9624,1.07595
-483,-279,-14.9331,0.736816,0,0,0,0,0,0,0,-1,741,1303,-14.9331,-0.736782
-476,-279,0,0,0,0,0,0,0,0,0,-1,748,1303,0,0
-469,-279,0,0,0,0,0,0,0,0,0,-1,755,1303,0,0
-462,-279,0,0,0,0,0,0,0,0,0,-1,762,1303,0,0
-455,-279,0,0,0,0,0,0,0,0,0,-1,769,1303,0,0
-448,-279,0,0,0,0,0,0,0,0,0,-1,776,1303,0,0
-441,-279,0,0,0,0,0,0,0,0,0,-1,783,1303,0,0
-434,-279,0,0,0,0,0,0,0,0,0,-1,790,1303,0,0
-427,-279,0,0,0,0,0,0,0,0,0,-1,797,1303,0,0
-420,-279,0,0,0,0,0,0,0,0,0,-1,804,1303,0,0
-413,-279,0,0,0,0,0,0,0,0,0,-1,811,1303,0,0
-406,-279,0,0,0,0,0,0,0,0,0,-1,818,1303,0,0
-399,-279,0,0,0,0,0,0,0,0,0,-1,825,1303,0,0
-392,-279,0,0,0,0,0,0,0,0,0,-1,832,1303,0,0
-385,-279,0,0,0,0,0,0,0,0,0,-1,839,1303,0,0
-378,-279,0,0,0,0,0,0,0,0,0,-1,846,1303,0,0
-371,-279,0,0,0,0,0,0,0,0,0,-1,853,1303,0,0
-364,-279,0,0,0,0,0,0,0,0,0,-1,860,1303,0,0
-357,-279,0,0,0,0,0,0,0,0,0,-1,867,1303,0,0
-350,-279,0,0,0,0,0,0,0,0,0,-1,874,1303,0,0
-343,-279,0,0,0,0,0,0,0,0,0,-1,881,1303,0,0
-336,-279,0,0,0,0,0,0,0,0,0,-1,888,1303,0,0
-329,-279,0,0,0,0,0,0,0,0,0,-1,895,1303,0,0
-322,-279,0,0,0,0,0,0,0,0,0,-1,902,1303,0,0
-315,-279,0,0,0,0,0,0,0,0,0,-1,909,1303,0,0
-308,-279,0,0,0,0,0,0,0,0,0,-1,916,1303,0,0
-301,-279,0,0,0,0,0,0,0,0,0,-1,923,1303,0,0
-294,-279,0,0,0,0,0,0,0,0,0,-1,930,1303,0,0
-287,-279,0,0,0,0,0,0,0,0,0,-1,937,1303,0,0
-280,-279,0,0,0,0,0,0,0,0,0,-1,944,1303,0,0
-273,-279,0,0,0,0,0,0,0,0,0,-1,951,1303,0,0
-266,-279,0,0,0,0,0,0,0,0,0,-1,958,1303,0,0
-259,-279,0,0,0,0,0,0,0,0,0,-1,965,1303,0,0
-252,-279,0,0,0,0,0,0,0,0,0,-1,972,1303,0,0
-245,-279,0,0,0,0,0,0,0,0,0,-1,979,1303,0,0
-238,-279,0,0,0,0,0,0,0,0,0,-1,986,1303,0,0
-231,-279,0,0,0,0,0,0,0,0,0,-1,993,1303,0,0
-224,-279,0,0,0,0,0,0,0,0,0,-1,1000,1303,0,0
-217,-279,0,0,0,0,0,0,0,0,0,-1,1007,1303,0,0
-210,-279,0,0,0,0,0,0,0,0,0,-1,1014,1303,0,0
-203,-279,0,0,0,0,0,0,0,0,0,-1,1021,1303,0,0
-196,-279,0,0,0,0,0,0,0,0,0,-1,1028,1303,0,0
-189,-279,0,0,0,0,0,0,0,0,0,-1,1035,1303,0,0
-182,-279,0,0,0,0,0,0,0,0,0,-1,1042,1303,0,0
-175,-279,0,0,0,0,0,0,0,0,0,-1,1049,1303,0,0
-168,-279,0,0,0,0,0,0,0,0,0,-1,1056,1303,0,0
-161,-279,0,0,0,0,0,0,0,0,0,-1,1063,1303,0,0
-154,-279,0,0,0,0,0,0,0,0,0,-1,1070,1303,0,0
-147,-279,0,0,0,0,0,0,0,0,0,-1,1077,1303,0,0
-140,-279,0,0,0,0,0,0,0,0,0,-1,1084,1303,0,0
-133,-279,0,0,0,0,0,0,0,0,0,-1,1091,1303,0,0
-126,-279,0,0,0,0,0,0,0,0,0,-1,1098,1303,0,0
-119,-279,0,0,0,0,0,0,0,0,0,-1,1105,1303,0,0
-112,-279,0,0,0,0,0,0,0,0,0,-1,1112,1303,0,0
-105,-279,0,0,0,0,0,0,0,0,0,-1,1119,1303,0,0
-98,-279,0,0,0,0,0,0,0,0,0,-1,1126,1303,0,0
-91,-279,0,0,0,0,0,0,0,0,0,-1,1133,1303,0,0
-84,-279,0,0,0,0,0,0,0,0,0,-1,1140,1303,0,0
-77,-279,0,0,0,0,0,0,0,0,0,-1,1147,1303,0,0
-70,-279,0,0,0,0,0,0,0,0,0,-1,1154,1303,0,0
-63,-279,0,0,0,0,0,0,0,0,0,-1,1161,1303,0,0
-56,-279,0,0,0,0,0,0,0,0,0,-1,1168,1303,0,0
-49,-279,0,0,0,0,0,0,0,0,0,-1,1175,1303,0,0
-42,-279,0,0,0,0,0,0,0,0,0,-1,1182,1303,0,0
-35,-279,0,0,0,0,0,0,0,0,0,-1,1189,1303,0,0
-28,-279,0,0,0,0,0,0,0,0,0,-1,1196,1303,0,0
-21,-279,0,0,0,0,0,0,0,0,0,-1,1203,1303,0,0
-14,-279,0,0,0,0,0,0,0,0,0,-1,1210,1303,0,0
-7,-279,0,0,0,0,0,0,0,0,0,-1,1217,1303,0,0
0,-279,0,0,0,0,0,0,0,0,0,-1,1224,1303,0,0
7,-279,0,0,0,0,0,0,0,0,0,-1,1231,1303,0,0
14,-279,0,0,0,0,0,0,0,0,0,-1,1238,1303,0,0
21,-279,0,0,0,0,0,0,0,0,0,-1,1245,1303,0,0
28,-279,0,0,0,0,0,0,0,0,0,-1,1252,1303,0,0
35,-279,0,0,0,0,0,0,0,0,0,-1,1259,1303,0,0
42,-279,0,0,0,0,0,0,0,0,0,-1,1266,1303,0,0
49,-279,0,0,0,0,0,0,0,0,0,-1,1273,1303,0,0
56,-279,0,0,0,0,0,0,0,0,0,-1,1280,1303,0,0
63,-279,0,0,0,0,0,0,0,0,0,-1,1287,1303,0,0
70,-279,0,0,0,0,0,0,0,0,0,-1,1294,1303,0,0
77,-279,0,0,0,0,0,0,0,0,0,-1,1301,1303,0,0
84,-279,0,0,0,0,0,0,0,0,0,-1,1308,1303,0,0
91,-279,0,0,0,0,0,0,0,0,0,-1,1315,1303,0,0
98,-279,0,0,0,0,0,0,0,0,0,-1,1322,1303,0,0
105,-279,0,0,0,0,0,0,0,0,0,-1,1329,1303,0,0
112,-279,0,0,0,0,0,0,0,0,0,-1,1336,1303,0,0
119,-279,0,0,0,0,0,0,0,0,0,-1,1343,1303,0,0
126,-279,0,0,0,0,0,0,0,0,0,-1,1350,1303,0,0
133,-279,0,0,0,0,0,0,0,0,0,-1,1357,1303,0,0
140,-279,0,0,0,0,0,0,0,0,0,-1,1364,1303,0,0
147,-279,0,0,0,0,0,0,0,0,0,-1,1371,1303,0,0
154,-279,0,0,0,0,0,0,0,0,0,-1,1378,1303,0,0
161,-279,0,0,0,0,0,0,0,0,0,-1,1385,1303,0,0
168,-279,0,0,0,0,0,0,0,0,0,-1,1392,1303,0,0
175,-279,0,0,0,0,0,0,0,0,0,-1,1399,1303,0,0
182,-279,0,0,0,0,0,0,0,0,0,-1,1406,1303,0,0
189,-279,0,0,0,0,0,0,0,0,0,-1,1413,1303,0,0
196,-279,0,0,0,0,0,0,0,0,0,-1,1420,1303,0,0
203,-279,0,0,0,0,0,0,0,0,0,-1,1427,1303,0,0
210,-279,0,0,0,0,0,0,0,0,0,-1,1434,1303,0,0
217,-279,0,0,0,0,0,0,0,0,0,-1,1441,1303,0,0
224,-279,0,0,0,0,0,0,0,0,0,-1,1448,1303,0,0
231,-279,0,0,0,0,0,0,0,0,0,-1,1455,1303,0,0
238,-279,0,0,0,0,0,0,0,0,0,-1,1462,1303,0,0
245,-279,0,0,0,0,0,0,0,0,0,-1,1469,1303,0,0
252,-279,0,0,0,0,0,0,0,0,0,-1,1476,1303,0,0
259,-279,0,0,0,0,0,0,0,0,0,-1,1483,1303,0,0
266,-279,0,0,0,0,0,0,0,0,0,-1,1490,1303,0,0
273,-279,0,0,0,0,0,0,0,0,0,-1,1497,1303,0,0
280,-279,0,0,0,0,0,0,0,0,0,-1,1504,1303,0,0
287,-279,0,0,0,0,0,0,0,0,0,-1,1511,1303,0,0
294,-279,0,0,0,0,0,0,0,0,0,-1,1518,1303,0,0
301,-279,0,0,0,0,0,0,0,0,0,-1,1525,1303,0,0
308,-279,0,0,0,0,0,0,0,0,0,-1,1532,1303,0,0
315,-279,0,0,0,0,0,0,0,0,0,-1,1539,1303,0,0
322,-279,0,0,0,0,0,0,0,0,0,-1,1546,1303,0,0
329,-279,0,0,0,0,0,0,0,0,0,-1,1553,1303,0,0
336,-279,0,0,0,0,0,0,0,0,0,-1,1560,1303,0,0
343,-279,0,0,0,0,0,0,0,0,0,-1,1567,1303,0,0
350,-279,0,0,0,0,0,0,0,0,0,-1,1574,1303,0,0
357,-279,0,0,0,0,0,0,0,0,0,-1,1581,1303,0,0
364,-279,0,0,0,0,0,0,0,0,0,-1,1588,1303,0,0
371,-279,0,0,0,0,0,0,0,0,0,-1,1595,1303,0,0
378,-279,0,0,0,0,0,0,0,0,0,-1,1602,1303,0,0
385,-279,0,0,0,0,0,0,0,0,0,-1,1609,1303,0,0
392,-279,0,0,0,0,0,0,0,0,0,-1,1616,1303,0,0
399,-279,0,0,0,0,0,0,0,0,0,-1,1623,1303,0,0
406,-279,0,0,0,0,0,0,0,0,0,-1,1630,1303,0,0
413,-279,0,0,0,0,0,0,0,0,0,-1,1637,1303,0,0
420,-279,0,0,0,0,0,0,0,0,0,-1,1644,1303,0,0
427,-279,0,0,0,0,0,0,0,0,0,-1,1651,1303,0,0
434,-279,0,0,0,0,0,0,0,0,0,-1,1658,1303,0,0
441,-279,0,0,0,0,0,0,0,0,0,-1,1665,1303,0,0
448,-279,0,0,0,0,0,0,0,0,0,-1,1672,1303,0,0
455,-279,0,0,0,0,0,0,0,0,0,-1,1679,1303,0,0
462,-279,0,0,0,0,0,0,0,0,0,-1,1686,1303,0,0
469,-279,0,0,0,0,0,0,0,0,0,-1,1693,1303,0,0
476,-279,0,0,0,0,0,0,0,0,0,-1,1700,1303,0,0
483,-279,0,0,0,0,0,0,0,0,0,-1,1707,1303,0,0
490,-279,0,0,0,0,0,0,0,0,0,-1,1714,1303,0,0
497,-279,0,0,0,0,0,0,0,0,0,-1,1721,1303,0,0
504,-279,0,0,0,0,0,0,0,0,0,-1,1728,1303,0,0
511,-279,0,0,0,0,0,0,0,0,0,-1,1735,1303,0,0
518,-279,0,0,0,0,0,0,0,0,0,-1,1742,1303,0,0
525,-279,0,0,0,0,0,0,0,0,0,-1,1749,1303,0,0
532,-279,0,0,0,0,0,0,0,0,0,-1,1756,1303,0,0
539,-279,0,0,0,0,0,0,0,0,0,-1,1763,1303,0,0
546,-279,0,0,0,0,0,0,0,0,0,-1,1770,1303,0,0
553,-279,0,0,0,0,0,0,0,0,0,-1,1777,1303,0,0
560,-279,0,0,0,0,0,0,0,0,0,-1,1784,1303,0,0
567,-279,0,0,0,0,0,0,0,0,0,-1,1791,1303,0,0
574,-279,0,0,0,0,0,0,0,0,0,-1,1798,1303,0,0
581,-279,0,0,0,0,0,0,0,0,0,-1,1805,1303,0,0
588,-279,0,0,0,0,0,0,0,0,0,-1,1812,1303,0,0
595,-279,0,0,0,0,0,0,0,0,0,-1,1819,1303,0,0
602,-279,26.7445,3.01074,-0.0336706,0.00368633,0.001995,0.00379257,-0.0337768,1.51759,0.0238826,0.0396335,1826,1303,26.7445,-3.01073
609,-279,26.6541,2.87097,-0.0410436,0.0108967,0.00312171,0.0110837,-0.0412305,1.51098,0.0318314,0.048222,1833,1303,26.654,-2.87102
616,-279,26.558,2.64429,-0.0423989,0.0137573,0.00508399,0.0142139,-0.0428554,1.48123,0.0343043,0.0456491,1840,1303,26.558,-2.64429
623,-279,26.8512,1.84888,-0.038913,0.0141591,0.00630252,0.0148973,-0.0396512,1.4542,0.0325565,0.0457772,1847,1303,26.8511,-1.8489
630,-279,26.3616,2.16748,-0.0331476,0.0130799,0.00661167,0.0140069,-0.0340746,1.43149,0.0285545,0.0446421,1854,1303,26.3616,-2.16753
637,-279,26.1615,2.85876,0,0,0,0,0,0,0,-1,1861,1303,26.1616,-2.85882
644,-279,25.2449,0.789795,0,0,0,0,0,0,0,-1,1868,1303,25.2449,-0.789757
651,-279,20.5229,2.6499,0,0,0,0,0,0,0,-1,1875,1303,20.523,-2.64987
658,-279,21.5076,7.65649,0,0,0,0,0,0,0,-1,1882,1303,21.5076,-7.65648
665,-279,18.9794,6.09607,0,0,0,0,0,0,0,-1,1889,1303,18.9793,-6.09601
672,-279,20.4573,7.11035,0,0,0,0,0,0,0,-1,1896,1303,20.4573,-7.11031
679,-279,20.525,7.14868,-0.00631067,0.00147735,0.00455534,0.00357621,-0.00840952,1.13904,0.00710504,0.0394476,1903,1303,20.525,-7.14865
686,-279,20.4688,6.84399,-0.00302434,-0.00163768,0.00336713,0.00110676,-0.00576878,0.886935,0.00426294,0.02035,1910,1303,20.4687,-6.84403
693,-279,20.4606,6.58923,-0.00257978,-0.00102806,0.00247964,0.000794266,-0.0044021,0.93702,0.00323218,0.0153878,1917,1303,20.4606,-6.58921
700,-279,20.4894,6.36243,-0.00193328,-0.000855556,0.00143491,0.000138339,-0.00292717,0.965019,0.00199916,0.0111128,1924,1303,20.4894,-6.36243
707,-279,20.4922,6.12964,-0.000976718,-0.000254785,0.000586151,7.26305e-05,-0.00130413,1.06139,0.000894616,0.00899237,1931,1303,20.4922,-6.12969
714,-279,20.4733,5.86902,-0.000296081,0.000172225,-0.000810085,0.000781319,-0.000905175,-0.926087,0.000974573,0.00998733,1938,1303,20.4733,-5.86906
721,-279,20.4937,5.63123,-0.00072512,0.000291533,-0.00294089,0.00276771,-0.00320129,-0.870976,0.00344923,0.0129634,1945,1303,20.4936,-5.63117
728,-279,20.5186,5.39844,-0.00152954,0.000170001,-0.00552629,0.00491148,-0.00627102,-0.861685,0.0064721,0.0142298,1952,1303,20.5185,-5.39841
735,-279,20.5226,5.17468,-0.00266238,-0.000287529,-0.00895719,0.0075606,-0.0105105,-0.851297,0.0104796,0.0129167,1959,1303,20.5226,-5.17472
742,-279,20.427,4.87354,-0.00458846,-0.00114719,-0.0140442,0.0112814,-0.017017,-0.846352,0.0164496,0.0256611,1966,1303,20.427,-4.87348
749,-279,20.3877,4.41882,-0.00754472,-0.00268346,-0.0213845,0.0164081,-0.0266363,-0.841987,0.0250844,0.0489495,1973,1303,20.3877,-4.41878
756,-279,20.4609,3.9823,0,0,0,0,0,0,0,-1,1980,1303,20.4609,-3.98235
763,-279,23.3822,4.88599,0,0,0,0,0,0,0,-1,1987,1303,23.3822,-4.88595
770,-279,22.9618,4.23877,-0.0276869,-0.0132964,-0.0624179,0.0423396,-0.0833229,-0.842782,0.0738262,0.0487898,1994,1303,22.9618,-4.2388
777,-279,21.6755,2.86829,0,0,0,0,0,0,0,-1,2001,1303,21.6755,-2.86834
784,-279,0,0,0,0,0,0,0,0,0,-1,2008,1303,0,0
791,-279,0,0,0,0,0,0,0,0,0,-1,2015,1303,0,0
798,-279,0,0,0,0,0,0,0,0,0,-1,2022,1303,0,0
805,-279,0,0,0,0,0,0,0,0,0,-1,2029,1303,0,0
812,-279,0,0,0,0,0,0,0,0,0,-1,2036,1303,0,0
-700,-286,0,0,0,0,0,0,0,0,0,-1,524,1310,0,0
-693,-286,0,0,0,0,0,0,0,0,0,-1,531,1310,0,0
-686,-286,0,0,0,0,0,0,0,0,0,-1,538,1310,0,0
-679,-286,0,0,0,0,0,0,0,0,0,-1,545,1310,0,0
-672,-286,0,0,0,0,0,0,0,0,0,-1,552,1310,0,0
-665,-286,0,0,0,0,0,0,0,0,0,-1,559,1310,0,0
-658,-286,-15.0103,-4.12451,0,0,0,0,0,0,0,-1,566,1310,-15.0103,4.12454
-651,-286,-13.8558,-4.67749,0,0,0,0,0,0,0,-1,573,1310,-13.8559,4.67754
-644,-286,-13.3774,-3.64172,0,0,0,0,0,0,0,-1,580,1310,-13.3774,3.64172
-637,-286,-12.8625,-2.63647,0,0,0,0,0,0,0,-1,587,1310,-12.8625,2.6365
-630,-286,-12.3671,-1.58972,0,0,0,0,0,0,0,-1,594,1310,-12.3671,1.5897
-623,-286,-11.4353,0.756592,0,0,0,0,0,0,0,-1,601,1310,-11.4353,-0.756539
-616,-286,-11.4254,1.42236,0.006629,0.0138851,0.00776793,0.0188305,0.00168364,1.00387,0.0120318,0.046905,608,1310,-11.4254,-1.42239
-609,-286,-11.2403,1.89575,0.00254287,0.0102697,0.00825196,0.0155178,-0.0027053,1.00433,0.0113549,0.0389737,615,1310,-11.2403,-1.89573
-602,-286,-11.0244,2.81445,0.000852822,0.00702789,0.00694971,0.011545,-0.00366433,0.994437,0.00916564,0.0157613,622,1310,-11.0244,-2.8145
-595,-286,-11.0318,3.12817,0.000681574,0.00477086,0.00481426,0.00795667,-0.00250424,0.986209,0.00630715,0.0111026,629,1310,-11.0318,-3.12819
-588,-286,-11.0089,3.39392,0.000764372,0.00322136,0.00335159,0.0055625,-0.00157678,0.961065,0.00433069,0.0117654,636,1310,-11.0089,-3.39393
-581,-286,-10.9993,3.65784,0.000997652,0.00208741,0.00228049,0.00388721,-0.000802156,0.902664,0.00289613,0.013285,643,1310,-10.9993,-3.65783
-574,-286,-11.0356,3.93616,0.0013785,0.00133216,0.00158395,0.00293945,-0.000228788,0.778085,0.00204017,0.0141227,650,1310,-11.0356,-3.93613
-567,-286,-11.0371,4.23621,0.0017676,0.000826686,0.0011693,0.00255754,3.67496e-05,0.594137,0.00169291,0.0131729,657,1310,-11.0371,-4.23621
-560,-286,-11.0217,4.52856,0.00211371,0.000440033,0.00109101,0.00265186,-9.81211e-05,0.458243,0.00180151,0.0125154,664,1310,-11.0217,-4.52854
-553,-286,-11.017,4.80737,0.00234344,0.000119959,0.00137814,0.00300236,-0.000538964,0.445994,0.00220331,0.00960157,671,1310,-11.017,-4.80732
-546,-286,-11.0074,5.10706,0.00224022,-0.000140623,0.00176039,0.0031749,-0.00107531,0.488103,0.00255171,0.0136252,678,1310,-11.0074,-5.10711
-539,-286,-11.0139,5.37317,0.00174963,-0.00069446,0.00219743,0.00304196,-0.0019868,0.531632,0.00292458,0.0341616,685,1310,-11.0139,-5.37313
-532,-286,-10.9668,5.62939,0,0,0,0,0,0,0,-1,692,1310,-10.9668,-5.62945
-525,-286,-11.4528,-1.11768,0,0,0,0,0,0,0,-1,699,1310,-11.4528,1.11769
-518,-286,-11.0701,1.37329,0,0,0,0,0,0,0,-1,706,1310,-11.0701,-1.37332
-511,-286,-15.6617,0.479004,0,0,0,0,0,0,0,-1,713,1310,-15.6617,-0.478996
-504,-286,-14.9544,-0.132568,0,0,0,0,0,0,0,-1,720,1310,-14.9544,0.132603
-497,-286,-14.8359,-0.798096,0,0,0,0,0,0,0,-1,727,1310,-14.8359,0.798043
-490,-286,-14.7894,-1.10425,0,0,0,0,0,0,0,-1,734,1310,-14.7893,1.10429
-483,-286,-14.576,-1.09082,0,0,0,0,0,0,0,-1,741,1310,-14.576,1.09077
-476,-286,-15.3409,0.904541,0,0,0,0,0,0,0,-1,748,1310,-15.3409,-0.904512
-469,-286,0,0,0,0,0,0,0,0,0,-1,755,1310,0,0
-462,-286,0,0,0,0,0,0,0,0,0,-1,762,1310,0,0
-455,-286,0,0,0,0,0,0,0,0,0,-1,769,1310,0,0
-448,-286,0,0,0,0,0,0,0,0,0,-1,776,1310,0,0
-441,-286,0,0,0,0,0,0,0,0,0,-1,783,1310,0,0
-434,-286,0,0,0,0,0,0,0,0,0,-1,790,1310,0,0
-427,-286,0,0,0,0,0,0,0,0,0,-1,797,1310,0,0
-420,-286,0,0,0,0,0,0,0,0,0,-1,804,1310,0,0
-413,-286,0,0,0,0,0,0,0,0,0,-1,811,1310,0,0
-406,-286,0,0,0,0,0,0,0,0,0,-1,818,1310,0,0
-399,-286,0,0,0,0,0,0,0,0,0,-1,825,1310,0,0
-392,-286,0,0,0,0,0,0,0,0,0,-1,832,1310,0,0
-385,-286,0,0,0,0,0,0,0,0,0,-1,839,1310,0,0
-378,-286,0,0,0,0,0,0,0,0,0,-1,846,1310,0,0
-371,-286,0,0,0,0,0,0,0,0,0,-1,853,1310,0,0
-364,-286,0,0,0,0,0,0,0,0,0,-1,860,1310,0,0
-357,-286,0,0,0,0,0,0,0,0,0,-1,867,1310,0,0
-350,-286,0,0,0,0,0,0,0,0,0,-1,874,1310,0,0
-343,-286,0,0,0,0,0,0,0,0,0,-1,881,1310,0,0
-336,-286,0,0,0,0,0,0,0,0,0,-1,888,1310,0,0
-329,-286,0,0,0,0,0,0,0,0,0,-1,895,1310,0,0
-322,-286,0,0,0,0,0,0,0,0,0,-1,902,1310,0,0
-315,-286,0,0,0,0,0,0,0,0,0,-1,909,1310,0,0
-308,-286,0,0,0,0,0,0,0,0,0,-1,916,1310,0,0
-301,-286,0,0,0,0,0,0,0,0,0,-1,923,1310,0,0
-294,-286,0,0,0,0,0,0,0,0,0,-1,930,1310,0,0
-287,-286,0,0,0,0,0,0,0,0,0,-1,937,1310,0,0
-280,-286,0,0,0,0,0,0,0,0,0,-1,944,1310,0,0
-273,-286,0,0,0,0,0,0,0,0,0,-1,951,1310,0,0
-266,-286,0,0,0,0,0,0,0,0,0,-1,958,1310,0,0
-259,-286,0,0,0,0,0,0,0,0,0,-1,965,1310,0,0
-252,-286,0,0,0,0,0,0,0,0,0,-1,972,1310,0,0
-245,-286,0,0,0,0,0,0,0,0,0,-1,979,1310,0,0
-238,-286,0,0,0,0,0,0,0,0,0,-1,986,1310,0,0
-231,-286,0,0,0,0,0,0,0,0,0,-1,993,1310,0,0
-224,-286,0,0,0,0,0,0,0,0,0,-1,1000,1310,0,0
-217,-286,0,0,0,0,0,0,0,0,0,-1,1007,1310,0,0
-210,-286,0,0,0,0,0,0,0,0,0,-1,1014,1310,0,0
-203,-286,0,0,0,0,0,0,0,0,0,-1,1021,1310,0,0
-196,-286,0,0,0,0,0,0,0,0,0,-1,1028,1310,0,0
-189,-286,0,0,0,0,0,0,0,0,0,-1,1035,1310,0,0
-182,-286,0,0,0,0,0,0,0,0,0,-1,1042,1310,0,0
-175,-286,0,0,0,0,0,0,0,0,0,-1,1049,1310,0,0
-168,-286,0,0,0,0,0,0,0,0,0,-1,1056,1310,0,0
-161,-286,0,0,0,0,0,0,0,0,0,-1,1063,1310,0,0
-154,-286,0,0,0,0,0,0,0,0,0,-1,1070,1310,0,0
-147,-286,0,0,0,0,0,0,0,0,0,-1,1077,1310,0,0
-140,-286,0,0,0,0,0,0,0,0,0,-1,1084,1310,0,0
-133,-286,0,0,0,0,0,0,0,0,0,-1,1091,1310,0,0
-126,-286,0,0,0,0,0,0,0,0,0,-1,1098,1310,0,0
-119,-286,0,0,0,0,0,0,0,0,0,-1,1105,1310,0,0
-112,-286,0,0,0,0,0,0,0,0,0,-1,1112,1310,0,0
-105,-286,0,0,0,0,0,0,0,0,0,-1,1119,1310,0,0
-98,-286,0,0,0,0,0,0,0,0,0,-1,1126,1310,0,0
-91,-286,0,0,0,0,0,0,0,0,0,-1,1133,1310,0,0
-84,-286,0,0,0,0,0,0,0,0,0,-1,1140,1310,0,0
-77,-286,0,0,0,0,0,0,0,0,0,-1,1147,1310,0,0
-70,-286,0,0,0,0,0,0,0,0,0,-1,1154,1310,0,0
-63,-286,0,0,0,0,0,0,0,0,0,-1,1161,1310,0,0
-56,-286,0,0,0,0,0,0,0,0,0,-1,1168,1310,0,0
-49,-286,0,0,0,0,0,0,0,0,0,-1,1175,1310,0,0
-42,-286,0,0,0,0,0,0,0,0,0,-1,1182,1310,0,0
-35,-286,0,0,0,0,0,0,0,0,0,-1,1189,1310,0,0
-28,-286,0,0,0,0,0,0,0,0,0,-1,1196,1310,0,0
-21,-286,0,0,0,0,0,0,0,0,0,-1,1203,1310,0,0
-14,-286,0,0,0,0,0,0,0,0,0,-1,1210,1310,0,0
-7,-286,0,0,0,0,0,0,0,0,0,-1,1217,1310,0,0
0,-286,0,0,0,0,0,0,0,0,0,-1,1224,1310,0,0
7,-286,0,0,0,0,0,0,0,0,0,-1,1231,1310,0,0
14,-286,0,0,0,0,0,0,0,0,0,-1,1238,1310,0,0
21,-286,0,0,0,0,0,0,0,0,0,-1,1245,1310,0,0
28,-286,0,0,0,0,0,0,0,0,0,-1,1252,1310,0,0
35,-286,0,0,0,0,0,0,0,0,0,-1,1259,1310,0,0
42,-286,0,0,0,0,0,0,0,0,0,-1,1266,1310,0,0
49,-286,0,0,0,0,0,0,0,0,0,-1,1273,1310,0,0
56,-286,0,0,0,0,0,0,0,0,0,-1,1280,1310,0,0
63,-286,0,0,0,0,0,0,0,0,0,-1,1287,1310,0,0
70,-286,0,0,0,0,0,0,0,0,0,-1,1294,1310,0,0
77,-286,0,0,0,0,0,0,0,0,0,-1,1301,1310,0,0
84,-286,0,0,0,0,0,0,0,0,0,-1,1308,1310,0,0
91,-286,0,0,0,0,0,0,0,0,0,-1,1315,1310,0,0
98,-286,0,0,0,0,0,0,0,0,0,-1,1322,1310,0,0
105,-286,0,0,0,0,0,0,0,0,0,-1,1329,1310,0,0
112,-286,0,0,0,0,0,0,0,0,0,-1,1336,1310,0,0
119,-286,0,0,0,0,0,0,0,0,0,-1,1343,1310,0,0
126,-286,0,0,0,0,0,0,0,0,0,-1,1350,1310,0,0
133,-286,0,0,0,0,0,0,0,0,0,-1,1357,1310,0,0
140,-286,0,0,0,0,0,0,0,0,0,-1,1364,1310,0,0
147,-286,0,0,0,0,0,0,0,0,0,-1,1371,1310,0,0
154,-286,0,0,0,0,0,0,0,0,0,-1,1378,1310,0,0
161,-286,0,0,0,0,0,0,0,0,0,-1,1385,1310,0,0
168,-286,0,0,0,0,0,0,0,0,0,-1,1392,1310,0,0
175,-286,0,0,0,0,0,0,0,0,0,-1,1399,1310,0,0
182,-286,0,0,0,0,0,0,0,0,0,-1,1406,1310,0,0
189,-286,0,0,0,0,0,0,0,0,0,-1,1413,1310,0,0
196,-286,0,0,0,0,0,0,0,0,0,-1,1420,1310,0,0
203,-286,0,0,0,0,0,0,0,0,0,-1,1427,1310,0,0
210,-286,0,0,0,0,0,0,0,0,0,-1,1434,1310,0,0
217,-286,0,0,0,0,0,0,0,0,0,-1,1441,1310,0,0
224,-286,0,0,0,0,0,0,0,0,0,-1,1448,1310,0,0
231,-286,0,0,0,0,0,0,0,0,0,-1,1455,1310,0,0
238,-286,0,0,0,0,0,0,0,0,0,-1,1462,1310,0,0
245,-286,0,0,0,0,0,0,0,0,0,-1,1469,1310,0,0
252,-286,0,0,0,0,0,0,0,0,0,-1,1476,1310,0,0
259,-286,0,0,0,0,0,0,0,0,0,-1,1483,1310,0,0
266,-286,0,0,0,0,0,0,0,0,0,-1,1490,1310,0,0
273,-286,0,0,0,0,0,0,0,0,0,-1,1497,1310,0,0
280,-286,0,0,0,0,0,0,0,0,0,-1,1504,1310,0,0
287,-286,0,0,0,0,0,0,0,0,0,-1,1511,1310,0,0
294,-286,0,0,0,0,0,0,0,0,0,-1,1518,1310,0,0
301,-286,0,0,0,0,0,0,0,0,0,-1,1525,1310,0,0
308,-286,0,0,0,0,0,0,0,0,0,-1,1532,1310,0,0
315,-286,0,0,0,0,0,0,0,0,0,-1,1539,1310,0,0
322,-286,0,0,0,0,0,0,0,0,0,-1,1546,1310,0,0
329,-286,0,0,0,0,0,0,0,0,0,-1,1553,1310,0,0
336,-286,0,0,0,0,0,0,0,0,0,-1,1560,1310,0,0
343,-286,0,0,0,0,0,0,0,0,0,-1,1567,1310,0,0
350,-286,0,0,0,0,0,0,0,0,0,-1,1574,1310,0,0
357,-286,0,0,0,0,0,0,0,0,0,-1,1581,1310,0,0
364,-286,0,0,0,0,0,0,0,0,0,-1,1588,1310,0,0
371,-286,0,0,0,0,0,0,0,0,0,-1,1595,1310,0,0
378,-286,0,0,0,0,0,0,0,0,0,-1,1602,1310,0,0
385,-286,0,0,0,0,0,0,0,0,0,-1,1609,1310,0,0
392,-286,0,0,0,0,0,0,0,0,0,-1,1616,1310,0,0
399,-286,0,0,0,0,0,0,0,0,0,-1,1623,1310,0,0
406,-286,0,0,0,0,0,0,0,0,0,-1,1630,1310,0,0
413,-286,0,0,0,0,0,0,0,0,0,-1,1637,1310,0,0
420,-286,0,0,0,0,0,0,0,0,0,-1,1644,1310,0,0
427,-286,0,0,0,0,0,0,0,0,0,-1,1651,1310,0,0
434,-286,0,0,0,0,0,0,0,0,0,-1,1658,1310,0,0
441,-286,0,0,0,0,0,0,0,0,0,-1,1665,1310,0,0
448,-286,0,0,0,0,0,0,0,0,0,-1,1672,1310,0,0
455,-286,0,0,0,0,0,0,0,0,0,-1,1679,1310,0,0
462,-286,0,0,0,0,0,0,0,0,0,-1,1686,1310,0,0
469,-286,0,0,0,0,0,0,0,0,0,-1,1693,1310,0,0
476,-286,0,0,0,0,0,0,0,0,0,-1,1700,1310,0,0
483,-286,0,0,0,0,0,0,0,0,0,-1,1707,1310,0,0
490,-286,0,0,0,0,0,0,0,0,0,-1,1714,1310,0,0
497,-286,0,0,0,0,0,0,0,0,0,-1,1721,1310,0,0
504,-286,0,0,0,0,0,0,0,0,0,-1,1728,1310,0,0
511,-286,0,0,0,0,0,0,0,0,0,-1,1735,1310,0,0
518,-286,0,0,0,0,0,0,0,0,0,-1,1742,1310,0,0
525,-286,0,0,0,0,0,0,0,0,0,-1,1749,1310,0,0
532,-286,0,0,0,0,0,0,0,0,0,-1,1756,1310,0,0
539,-286,0,0,0,0,0,0,0,0,0,-1,1763,1310,0,0
546,-286,0,0,0,0,0,0,0,0,0,-1,1770,1310,0,0
553,-286,0,0,0,0,0,0,0,0,0,-1,1777,1310,0,0
560,-286,0,0,0,0,0,0,0,0,0,-1,1784,1310,0,0
567,-286,0,0,0,0,0,0,0,0,0,-1,1791,1310,0,0
574,-286,0,0,0,0,0,0,0,0,0,-1,1798,1310,0,0
581,-286,0,0,0,0,0,0,0,0,0,-1,1805,1310,0,0
588,-286,0,0,0,0,0,0,0,0,0,-1,1812,1310,0,0
595,-286,26.2119,3.02991,0,0,0,0,0,0,0,-1,1819,1310,26.2119,-3.02994
602,-286,26.4429,2.62366,0,0,0,0,0,0,0,-1,1826,1310,26.4429,-2.62361
609,-286,26.6554,2.72046,0,0,0,0,0,0,0,-1,1833,1310,26.6554,-2.72041
616,-286,26.4562,2.49353,0,0,0,0,0,0,0,-1,1840,1310,26.4562,-2.49355
623,-286,27.3419,1.55786,-0.0504272,0.0106036,0.00798073,0.0116299,-0.0514535,1.4429,0.038765,0.0443882,1847,1310,27.342,-1.55784
630,-286,26.2289,1.63184,-0.0419812,0.0104735,0.00779481,0.0116073,-0.043115,1.42635,0.0332938,0.0438556,1854,1310,26.2289,-1.63179
637,-286,26.1605,2.30139,0,0,0,0,0,0,0,-1,1861,1310,26.1605,-2.30139
644,-286,25.3843,2.44324,0,0,0,0,0,0,0,-1,1868,1310,25.3843,-2.44327
651,-286,20.7119,7.67944,0,0,0,0,0,0,0,-1,1875,1310,20.7119,-7.67941
658,-286,21.1604,7.53088,0,0,0,0,0,0,0,-1,1882,1310,21.1604,-7.53093
665,-286,20.8934,7.35022,0,0,0,0,0,0,0,-1,1889,1310,20.8935,-7.35017
672,-286,20.4938,7.38379,-0.0109455,0.00309077,0.00490766,0.00463647,-0.0124912,1.26567,0.0102294,0.0397031,1896,1310,20.4937,-7.38378
679,-286,20.2053,7.13904,-0.00701505,0.00126225,0.00475891,0.0034304,-0.0091832,1.1433,0.0075307,0.0267747,1903,1310,20.2053,-7.13909
686,-286,20.1949,6.85046,-0.00333606,-0.00183896,0.00346188,0.000954368,-0.00612939,0.891872,0.00443872,0.0195557,1910,1310,20.1949,-6.85041
693,-286,20.1893,6.59534,-0.00273288,-0.00108911,0.00242073,0.000645454,-0.00446744,0.949052,0.00321511,0.0150932,1917,1310,20.1893,-6.59534
700,-286,20.2277,6.35693,-0.00200778,-0.000648805,0.00129691,0.000135838,-0.00279242,1.0267,0.00190851,0.0110976,1924,1310,20.2276,-6.35689
707,-286,20.2484,6.14014,-0.00114032,0.000123617,0.000375344,0.000226677,-0.00124338,1.30282,0.000913899,0.00860004,1931,1310,20.2484,-6.14015
714,-286,20.2349,5.89502,-0.000552473,0.00071675,-0.00107041,0.00132653,-0.00116225,-1.05298,0.00143794,0.00867776,1938,1310,20.2349,-5.895
721,-286,20.2455,5.63892,-0.00114314,0.00101642,-0.00329476,0.00340383,-0.00353055,-0.943746,0.00400379,0.0109476,1945,1310,20.2455,-5.63888
728,-286,20.2517,5.40405,-0.00209496,0.0010668,-0.00598939,0.00568043,-0.00670859,-0.914429,0.00716101,0.0134339,1952,1310,20.2517,-5.404
735,-286,20.2604,5.17334,-0.00348681,0.000787112,-0.00969895,0.00858173,-0.0112814,-0.89383,0.0115033,0.0154445,1959,1310,20.2604,-5.17334
742,-286,20.2192,4.86584,-0.00580163,0.000122217,-0.0153161,0.0127602,-0.0184396,-0.880912,0.0181124,0.0323167,1966,1310,20.2193,-4.86579
749,-286,20.2363,4.34497,-0.00940361,-0.00121941,-0.023517,0.0185589,-0.0291819,-0.871539,0.0277897,0.0463432,1973,1310,20.2363,-4.34502
756,-286,19.937,3.43127,0,0,0,0,0,0,0,-1,1980,1310,19.937,-3.43127
763,-286,19.5088,2.72485,0,0,0,0,0,0,0,-1,1987,1310,19.5088,-2.72489
770,-286,23.5067,4.29041,0,0,0,0,0,0,0,-1,1994,1310,23.5067,-4.2904
777,-286,0,0,0,0,0,0,0,0,0,-1,2001,1310,0,0
784,-286,0,0,0,0,0,0,0,0,0,-1,2008,1310,0,0
791,-286,0,0,0,0,0,0,0,0,0,-1,2015,1310,0,0
798,-286,0,0,0,0,0,0,0,0,0,-1,2022,1310,0,0
805,-286,0,0,0,0,0,0,0,0,0,-1,2029,1310,0,0
812,-286,0,0,0,0,0,0,0,0,0,-1,2036,1310,0,0
-700,-293,0,0,0,0,0,0,0,0,0,-1,524,1317,0,0
-693,-293,0,0,0,0,0,0,0,0,0,-1,531,1317,0,0
-686,-293,0,0,0,0,0,0,0,0,0,-1,538,1317,0,0
-679,-293,0,0,0,0,0,0,0,0,0,-1,545,1317,0,0
-672,-293,0,0,0,0,0,0,0,0,0,-1,552,1317,0,0
-665,-293,0,0,0,0,0,0,0,0,0,-1,559,1317,0,0
-658,-293,0,0,0,0,0,0,0,0,0,-1,566,1317,0,0
-651,-293,-11.5769,-4.42004,0,0,0,0,0,0,0,-1,573,1317,-11.5769,4.42001
-644,-293,-12.6685,-3.22656,0,0,0,0,0,0,0,-1,580,1317,-12.6685,3.22653
-637,-293,-12.2536,-2.94946,0,0,0,0,0,0,0,-1,587,1317,-12.2536,2.94942
-630,-293,-11.7927,-1.47021,0,0,0,0,0,0,0,-1,594,1317,-11.7926,1.47025
-623,-293,-11.3618,-0.11792,0,0,0,0,0,0,0,-1,601,1317,-11.3618,0.11794
-616,-293,-11.3245,1.01416,0,0,0,0,0,0,0,-1,608,1317,-11.3245,-1.0142
-609,-293,-10.5125,2.4115,0.0025383,0.00979855,0.00881462,0.0157013,-0.00336442,0.98073,0.0117507,0.043251,615,1317,-10.5125,-2.41149
-602,-293,-10.671,2.75073,0.000818011,0.00658445,0.00709276,0.0113576,-0.00395515,0.978447,0.00917871,0.0333597,622,1317,-10.6709,-2.75071
-595,-293,-10.7709,3.08704,0.000475591,0.00436235,0.00478954,0.00758776,-0.00274983,0.978127,0.00618244,0.0162379,629,1317,-10.7709,-3.08703
-588,-293,-10.7361,3.35645,0.000437426,0.00288785,0.00324207,0.00512849,-0.00180322,0.966058,0.00415269,0.015509,636,1317,-10.7361,-3.3564
-581,-293,-10.7175,3.63342,0.000588488,0.00184829,0.00214808,0.00345691,-0.00102014,0.928019,0.00270945,0.01769,643,1317,-10.7175,-3.63341
-574,-293,-10.7271,3.93567,0.000878094,0.00116486,0.00140954,0.00243829,-0.000395341,0.836085,0.00177207,0.0167175,650,1317,-10.7271,-3.93571
-567,-293,-10.7491,4.24902,0.00124394,0.000687559,0.000910435,0.00191774,1.37609e-05,0.637124,0.00127393,0.015905,657,1317,-10.7491,-4.24908
-560,-293,-10.7648,4.55005,0.00164031,0.000307196,0.000656454,0.00190929,3.82158e-05,0.388881,0.00126031,0.0162866,664,1317,-10.7648,-4.55
-553,-293,-10.7462,4.81934,0.00208514,0.000160604,0.000746651,0.00234084,-9.5097e-05,0.329946,0.0015932,0.0110445,671,1317,-10.7462,-4.81936
-546,-293,-10.7372,5.12231,0.0024284,9.93585e-05,0.000930331,0.00275439,-0.000226632,0.337034,0.00191628,0.00993303,678,1317,-10.7372,-5.12229
-539,-293,-10.7225,5.39917,0.0025586,-0.0001364,0.0011431,0.00297814,-0.000555939,0.351756,0.00219434,0.0267374,685,1317,-10.7224,-5.39918
-532,-293,-11.1313,5.49304,0,0,0,0,0,0,0,-1,692,1317,-11.1313,-5.49308
-525,-293,-8.20642,3.62256,0,0,0,0,0,0,0,-1,699,1317,-8.20639,-3.6226
-518,-293,-10.1053,0.314209,0,0,0,0,0,0,0,-1,706,1317,-10.1053,-0.314234
-511,-293,-11.6276,0.235352,0,0,0,0,0,0,0,-1,713,1317,-11.6276,-0.235372
-504,-293,-14.8224,-0.563721,0,0,0,0,0,0,0,-1,720,1317,-14.8224,0.563713
-497,-293,-14.8926,-0.689575,0,0,0,0,0,0,0,-1,727,1317,-14.8926,0.68961
-490,-293,-14.7461,-0.77771,0,0,0,0,0,0,0,-1,734,1317,-14.7461,0.777687
-483,-293,-14.5155,-0.898071,0,0,0,0,0,0,0,-1,741,1317,-14.5155,0.898124
-476,-293,-14.051,-0.78186,0,0,0,0,0,0,0,-1,748,1317,-14.051,0.781821
-469,-293,0,0,0,0,0,0,0,0,0,-1,755,1317,0,0
-462,-293,0,0,0,0,0,0,0,0,0,-1,762,1317,0,0
-455,-293,0,0,0,0,0,0,0,0,0,-1,769,1317,0,0
-448,-293,0,0,0,0,0,0,0,0,0,-1,776,1317,0,0
-441,-293,0,0,0,0,0,0,0,0,0,-1,783,1317,0,0
-434,-293,0,0,0,0,0,0,0,0,0,-1,790,1317,0,0
-427,-293,0,0,0,0,0,0,0,0,0,-1,797,1317,0,0
-420,-293,0,0,0,0,0,0,0,0,0,-1,804,1317,0,0
-413,-293,0,0,0,0,0,0,0,0,0,-1,811,1317,0,0
-406,-293,0,0,0,0,0,0,0,0,0,-1,818,1317,0,0
-399,-293,0,0,0,0,0,0,0,0,0,-1,825,1317,0,0
-392,-293,0,0,0,0,0,0,0,0,0,-1,832,1317,0,0
-385,-293,0,0,0,0,0,0,0,0,0,-1,839,1317,0,0
-378,-293,0,0,0,0,0,0,0,0,0,-1,846,1317,0,0
-371,-293,0,0,0,0,0,0,0,0,0,-1,853,1317,0,0
-364,-293,0,0,0,0,0,0,0,0,0,-1,860,1317,0,0
-357,-293,0,0,0,0,0,0,0,0,0,-1,867,1317,0,0
-350,-293,0,0,0,0,0,0,0,0,0,-1,874,1317,0,0
-343,-293,0,0,0,0,0,0,0,0,0,-1,881,1317,0,0
-336,-293,0,0,0,0,0,0,0,0,0,-1,888,1317,0,0
-329,-293,0,0,0,0,0,0,0,0,0,-1,895,1317,0,0
-322,-293,0,0,0,0,0,0,0,0,0,-1,902,1317,0,0
-315,-293,0,0,0,0,0,0,0,0,0,-1,909,1317,0,0
-308,-293,0,0,0,0,0,0,0,0,0,-1,916,1317,0,0
-301,-293,0,0,0,0,0,0,0,0,0,-1,923,1317,0,0
-294,-293,0,0,0,0,0,0,0,0,0,-1,930,1317,0,0
-287,-293,0,0,0,0,0,0,0,0,0,-1,937,1317,0,0
-280,-293,0,0,0,0,0,0,0,0,0,-1,944,1317,0,0
-273,-293,0,0,0,0,0,0,0,0,0,-1,951,1317,0,0
-266,-293,0,0,0,0,0,0,0,0,0,-1,958,1317,0,0
-259,-293,0,0,0,0,0,0,0,0,0,-1,965,1317,0,0
-252,-293,0,0,0,0,0,0,0,0,0,-1,972,1317,0,0
-245,-293,0,0,0,0,0,0,0,0,0,-1,979,1317,0,0
-238,-293,0,0,0,0,0,0,0,0,0,-1,986,1317,0,0
-231,-293,0,0,0,0,0,0,0,0,0,-1,993,1317,0,0
-224,-293,0,0,0,0,0,0,0,0,0,-1,1000,1317,0,0
-217,-293,0,0,0,0,0,0,0,0,0,-1,1007,1317,0,0
-210,-293,0,0,0,0,0,0,0,0,0,-1,1014,1317,0,0
-203,-293,0,0,0,0,0,0,0,0,0,-1,1021,1317,0,0
-196,-293,0,0,0,0,0,0,0,0,0,-1,1028,1317,0,0
-189,-293,0,0,0,0,0,0,0,0,0,-1,1035,1317,0,0
-182,-293,0,0,0,0,0,0,0,0,0,-1,1042,1317,0,0
-175,-293,0,0,0,0,0,0,0,0,0,-1,1049,1317,0,0
-168,-293,0,0,0,0,0,0,0,0,0,-1,1056,1317,0,0
-161,-293,0,0,0,0,0,0,0,0,0,-1,1063,1317,0,0
-154,-293,0,0,0,0,0,0,0,0,0,-1,1070,1317,0,0
-147,-293,0,0,0,0,0,0,0,0,0,-1,1077,1317,0,0
-140,-293,0,0,0,0,0,0,0,0,0,-1,1084,1317,0,0
-133,-293,0,0,0,0,0,0,0,0,0,-1,1091,1317,0,0
-126,-293,0,0,0,0,0,0,0,0,0,-1,1098,1317,0,0
-119,-293,0,0,0,0,0,0,0,0,0,-1,1105,1317,0,0
-112,-293,0,0,0,0,0,0,0,0,0,-1,1112,1317,0,0
-105,-293,0,0,0,0,0,0,0,0,0,-1,1119,1317,0,0
-98,-293,0,0,0,0,0,0,0,0,0,-1,1126,1317,0,0
-91,-293,0,0,0,0,0,0,0,0,0,-1,1133,1317,0,0
-84,-293,0,0,0,0,0,0,0,0,0,-1,1140,1317,0,0
-77,-293,0,0,0,0,0,0,0,0,0,-1,1147,1317,0,0
-70,-293,0,0,0,0,0,0,0,0,0,-1,1154,1317,0,0
-63,-293,0,0,0,0,0,0,0,0,0,-1,1161,1317,0,0
-56,-293,0,0,0,0,0,0,0,0,0,-1,1168,1317,0,0
-49,-293,0,0,0,0,0,0,0,0,0,-1,1175,1317,0,0
-42,-293,0,0,0,0,0,0,0,0,0,-1,1182,1317,0,0
-35,-293,0,0,0,0,0,0,0,0,0,-1,1189,1317,0,0
-28,-293,0,0,0,0,0,0,0,0,0,-1,1196,1317,0,0
-21,-293,0,0,0,0,0,0,0,0,0,-1,1203,1317,0,0
-14,-293,0,0,0,0,0,0,0,0,0,-1,1210,1317,0,0
-7,-293,0,0,0,0,0,0,0,0,0,-1,1217,1317,0,0
0,-293,0,0,0,0,0,0,0,0,0,-1,1224,1317,0,0
7,-293,0,0,0,0,0,0,0,0,0,-1,1231,1317,0,0
14,-293,0,0,0,0,0,0,0,0,0,-1,1238,1317,0,0
21,-293,0,0,0,0,0,0,0,0,0,-1,1245,1317,0,0
28,-293,0,0,0,0,0,0,0,0,0,-1,1252,1317,0,0
35,-293,0,0,0,0,0,0,0,0,0,-1,1259,1317,0,0
42,-293,0,0,0,0,0,0,0,0,0,-1,1266,1317,0,0
49,-293,0,0,0,0,0,0,0,0,0,-1,1273,1317,0,0
56,-293,0,0,0,0,0,0,0,0,0,-1,1280,1317,0,0
63,-293,0,0,0,0,0,0,0,0,0,-1,1287,1317,0,0
70,-293,0,0,0,0,0,0,0,0,0,-1,1294,1317,0,0
77,-293,0,0,0,0,0,0,0,0,0,-1,1301,1317,0,0
84,-293,0,0,0,0,0,0,0,0,0,-1,1308,1317,0,0
91,-293,0,0,0,0,0,0,0,0,0,-1,1315,1317,0,0
98,-293,0,0,0,0,0,0,0,0,0,-1,1322,1317,0,0
105,-293,0,0,0,0,0,0,0,0,0,-1,1329,1317,0,0
112,-293,0,0,0,0,0,0,0,0,0,-1,1336,1317,0,0
119,-293,0,0,0,0,0,0,0,0,0,-1,1343,1317,0,0
126,-293,0,0,0,0,0,0,0,0,0,-1,1350,1317,0,0
133,-293,0,0,0,0,0,0,0,0,0,-1,1357,1317,0,0
140,-293,0,0,0,0,0,0,0,0,0,-1,1364,1317,0,0
147,-293,0,0,0,0,0,0,0,0,0,-1,1371,1317,0,0
154,-293,0,0,0,0,0,0,0,0,0,-1,1378,1317,0,0
161,-293,0,0,0,0,0,0,0,0,0,-1,1385,1317,0,0
168,-293,0,0,0,0,0,0,0,0,0,-1,1392,1317,0,0
175,-293,0,0,0,0,0,0,0,0,0,-1,1399,1317,0,0
182,-293,0,0,0,0,0,0,0,0,0,-1,1406,1317,0,0
189,-293,0,0,0,0,0,0,0,0,0,-1,1413,1317,0,0
196,-293,0,0,0,0,0,0,0,0,0,-1,1420,1317,0,0
203,-293,0,0,0,0,0,0,0,0,0,-1,1427,1317,0,0
210,-293,0,0,0,0,0,0,0,0,0,-1,1434,1317,0,0
217,-293,0,0,0,0,0,0,0,0,0,-1,1441,1317,0,0
224,-293,0,0,0,0,0,0,0,0,0,-1,1448,1317,0,0
231,-293,0,0,0,0,0,0,0,0,0,-1,1455,1317,0,0
238,-293,0,0,0,0,0,0,0,0,0,-1,1462,1317,0,0
245,-293,0,0,0,0,0,0,0,0,0,-1,1469,1317,0,0
252,-293,0,0,0,0,0,0,0,0,0,-1,1476,1317,0,0
259,-293,0,0,0,0,0,0,0,0,0,-1,1483,1317,0,0
266,-293,0,0,0,0,0,0,0,0,0,-1,1490,1317,0,0
273,-293,0,0,0,0,0,0,0,0,0,-1,1497,1317,0,0
280,-293,0,0,0,0,0,0,0,0,0,-1,1504,1317,0,0
287,-293,0,0,0,0,0,0,0,0,0,-1,1511,1317,0,0
294,-293,0,0,0,0,0,0,0,0,0,-1,1518,1317,0,0
301,-293,0,0,0,0,0,0,0,0,0,-1,1525,1317,0,0
308,-293,0,0,0,0,0,0,0,0,0,-1,1532,1317,0,0
315,-293,0,0,0,0,0,0,0,0,0,-1,1539,1317,0,0
322,-293,0,0,0,0,0,0,0,0,0,-1,1546,1317,0,0
329,-293,0,0,0,0,0,0,0,0,0,-1,1553,1317,0,0
336,-293,0,0,0,0,0,0,0,0,0,-1,1560,1317,0,0
343,-293,0,0,0,0,0,0,0,0,0,-1,1567,1317,0,0
350,-293,0,0,0,0,0,0,0,0,0,-1,1574,1317,0,0
357,-293,0,0,0,0,0,0,0,0,0,-1,1581,1317,0,0
364,-293,0,0,0,0,0,0,0,0,0,-1,1588,1317,0,0
371,-293,0,0,0,0,0,0,0,0,0,-1,1595,1317,0,0
378,-293,0,0,0,0,0,0,0,0,0,-1,1602,1317,0,0
385,-293,0,0,0,0,0,0,0,0,0,-1,1609,1317,0,0
392,-293,0,0,0,0,0,0,0,0,0,-1,1616,1317,0,0
399,-293,0,0,0,0,0,0,0,0,0,-1,1623,1317,0,0
406,-293,0,0,0,0,0,0,0,0,0,-1,1630,1317,0,0
413,-293,0,0,0,0,0,0,0,0,0,-1,1637,1317,0,0
420,-293,0,0,0,0,0,0,0,0,0,-1,1644,1317,0,0
427,-293,0,0,0,0,0,0,0,0,0,-1,1651,1317,0,0
434,-293,0,0,0,0,0,0,0,0,0,-1,1658,1317,0,0
441,-293,0,0,0,0,0,0,0,0,0,-1,1665,1317,0,0
448,-293,0,0,0,0,0,0,0,0,0,-1,1672,1317,0,0
455,-293,0,0,0,0,0,0,0,0,0,-1,1679,1317,0,0
462,-293,0,0,0,0,0,0,0,0,0,-1,1686,1317,0,0
469,-293,0,0,0,0,0,0,0,0,0,-1,1693,1317,0,0
476,-293,0,0,0,0,0,0,0,0,0,-1,1700,1317,0,0
483,-293,0,0,0,0,0,0,0,0,0,-1,1707,1317,0,0
490,-293,0,0,0,0,0,0,0,0,0,-1,1714,1317,0,0
497,-293,0,0,0,0,0,0,0,0,0,-1,1721,1317,0,0
504,-293,0,0,0,0,0,0,0,0,0,-1,1728,1317,0,0
511,-293,0,0,0,0,0,0,0,0,0,-1,1735,1317,0,0
518,-293,0,0,0,0,0,0,0,0,0,-1,1742,1317,0,0
525,-293,0,0,0,0,0,0,0,0,0,-1,1749,1317,0,0
532,-293,0,0,0,0,0,0,0,0,0,-1,1756,1317,0,0
539,-293,0,0,0,0,0,0,0,0,0,-1,1763,1317,0,0
546,-293,0,0,0,0,0,0,0,0,0,-1,1770,1317,0,0
553,-293,0,0,0,0,0,0,0,0,0,-1,1777,1317,0,0
560,-293,0,0,0,0,0,0,0,0,0,-1,1784,1317,0,0
567,-293,0,0,0,0,0,0,0,0,0,-1,1791,1317,0,0
574,-293,0,0,0,0,0,0,0,0,0,-1,1798,1317,0,0
581,-293,0,0,0,0,0,0,0,0,0,-1,1805,1317,0,0
588,-293,0,0,0,0,0,0,0,0,0,-1,1812,1317,0,0
595,-293,26.2614,2.90149,0,0,0,0,0,0,0,-1,1819,1317,26.2614,-2.90155
602,-293,26.1267,2.84766,0,0,0,0,0,0,0,-1,1826,1317,26.1267,-2.8477
609,-293,26.4736,2.46631,0,0,0,0,0,0,0,-1,1833,1317,26.4736,-2.46631
616,-293,27.7386,2.18176,0,0,0,0,0,0,0,-1,1840,1317,27.7386,-2.18176
623,-293,27.6273,1.6344,-0.0620248,0.00644175,0.0100979,0.0079,-0.063483,1.42738,0.0451861,0.047803,1847,1317,27.6273,-1.63441
630,-293,25.9169,0.879761,-0.0509043,0.00735418,0.00927981,0.00879662,-0.0523467,1.41659,0.0381694,0.045612,1854,1317,25.9169,-0.879703
637,-293,26.2384,1.77319,0,0,0,0,0,0,0,-1,1861,1317,26.2384,-1.77319
644,-293,22.5355,3.37354,0,0,0,0,0,0,0,-1,1868,1317,22.5355,-3.37358
651,-293,21.0609,7.7168,0,0,0,0,0,0,0,-1,1875,1317,21.0609,-7.7168
658,-293,20.7572,7.6405,-0.0202381,0.00518451,0.00619173,0.00661233,-0.0216659,1.34416,0.0170802,0.0425863,1882,1317,20.7572,-7.64049
665,-293,20.4023,7.50293,-0.0154517,0.00367272,0.00580892,0.00529887,-0.0170778,1.29784,0.0135027,0.038696,1889,1317,20.4024,-7.50288
672,-293,20.0537,7.3822,-0.0120816,0.00248344,0.00519135,0.00414436,-0.0137425,1.26115,0.0108113,0.0183248,1896,1317,20.0537,-7.3822
679,-293,20.0125,7.12158,-0.00753552,0.000853526,0.00481754,0.0030467,-0.00972869,1.14359,0.00770484,0.0118405,1903,1317,20.0124,-7.12153
686,-293,19.9878,6.86475,-0.00362164,-0.00195333,0.0034568,0.000768533,-0.0063435,0.903789,0.00450707,0.0140879,1910,1317,19.9878,-6.8647
693,-293,19.9867,6.62134,-0.00281833,-0.00107767,0.00231297,0.000523293,-0.0044193,0.965346,0.00313522,0.0114057,1917,1317,19.9867,-6.62128
700,-293,19.9952,6.3645,-0.00198465,-0.000432608,0.00114988,0.000178608,-0.00259586,1.08223,0.00179308,0.0104583,1924,1317,19.9953,-6.36455
707,-293,20.0043,6.13843,-0.00115758,0.000427598,0.000198949,0.000452186,-0.00118217,1.44783,0.000974465,0.0117476,1931,1317,20.0043,-6.13838
714,-293,19.9954,5.90247,-0.000629385,0.0011192,-0.00123931,0.00176157,-0.00127176,-1.09259,0.00175889,0.00805047,1938,1317,19.9953,-5.90252
721,-293,20.0154,5.63733,-0.00139954,0.00154553,-0.0035322,0.00389985,-0.00375385,-0.982888,0.00441913,0.00901879,1945,1317,20.0153,-5.63736
728,-293,20.0128,5.38037,-0.0025048,0.00173792,-0.0063253,0.00628811,-0.00705499,-0.947193,0.00770788,0.0116816,1952,1317,20.0128,-5.38038
735,-293,19.9989,5.11902,-0.00430252,0.00170348,-0.01041,0.00953496,-0.012134,-0.925822,0.0125405,0.0175656,1959,1317,19.9989,-5.11905
742,-293,19.968,4.82593,-0.00717451,0.00132622,-0.0167024,0.0143106,-0.0201589,-0.909992,0.0199962,0.0354903,1966,1317,19.968,-4.82598
749,-293,20.2074,4.37378,-0.0117129,0.00034997,-0.0260297,0.0210379,-0.0324008,-0.899246,0.0310845,0.045458,1973,1317,20.2074,-4.37375
756,-293,20.698,3.70239,0,0,0,0,0,0,0,-1,1980,1317,20.6979,-3.70239
763,-293,26.6713,4.74097,0,0,0,0,0,0,0,-1,1987,1317,26.6713,-4.74098
770,-293,24.1349,4.69153,0,0,0,0,0,0,0,-1,1994,1317,24.1348,-4.69159
777,-293,0,0,0,0,0,0,0,0,0,-1,2001,1317,0,0
784,-293,0,0,0,0,0,0,0,0,0,-1,2008,1317,0,0
791,-293,0,0,0,0,0,0,0,0,0,-1,2015,1317,0,0
798,-293,0,0,0,0,0,0,0,0,0,-1,2022,1317,0,0
805,-293,0,0,0,0,0,0,0,0,0,-1,2029,1317,0,0
812,-293,0,0,0,0,0,0,0,0,0,-1,2036,1317,0,0
-700,-300,0,0,0,0,0,0,0,0,0,-1,524,1324,0,0
-693,-300,0,0,0,0,0,0,0,0,0,-1,531,1324,0,0
-686,-300,0,0,0,0,0,0,0,0,0,-1,538,1324,0,0
-679,-300,0,0,0,0,0,0,0,0,0,-1,545,1324,0,0
-672,-300,0,0,0,0,0,0,0,0,0,-1,552,1324,0,0
-665,-300,0,0,0,0,0,0,0,0,0,-1,559,1324,0,0
-658,-300,0,0,0,0,0,0,0,0,0,-1,566,1324,0,0
-651,-300,-10.6357,-3.51111,0,0,0,0,0,0,0,-1,573,1324,-10.6358,3.51114
-644,-300,-11.0798,-3.23413,0,0,0,0,0,0,0,-1,580,1324,-11.0798,3.23412
-637,-300,-11.4849,-2.86304,0,0,0,0,0,0,0,-1,587,1324,-11.4849,2.86303
-630,-300,-10.9883,-1.63635,0,0,0,0,0,0,0,-1,594,1324,-10.9883,1.63631
-623,-300,-10.4258,1.78076,0,0,0,0,0,0,0,-1,601,1324,-10.4258,-1.78078
-616,-300,-10.2778,2.04468,0,0,0,0,0,0,0,-1,608,1324,-10.2778,-2.04468
-609,-300,-10.3301,2.47205,0.00118447,0.00836475,0.00905176,0.0145123,-0.00496312,0.974194,0.011686,0.0496845,615,1324,-10.3301,-2.472
-602,-300,-10.3128,2.80457,2.55671e-06,0.00539833,0.00659956,0.00983016,-0.00442927,0.979432,0.00842723,0.0402656,622,1324,-10.3128,-2.80453
-595,-300,-10.4941,3.06702,-0.00031944,0.00336846,0.00428947,0.00619352,-0.0031445,0.988396,0.00548627,0.0225413,629,1324,-10.4941,-3.06703
-588,-300,-10.4349,3.36536,-0.000307315,0.00209263,0.00279243,0.003932,-0.00214669,0.98833,0.00355963,0.0208982,636,1324,-10.4349,-3.36532
-581,-300,-10.4327,3.67676,-6.78556e-05,0.0012618,0.00180568,0.00252116,-0.00132721,0.96179,0.00225722,0.0202657,643,1324,-10.4327,-3.67672
-574,-300,-10.4376,3.97778,0.000305546,0.000753248,0.00114666,0.0016977,-0.000638906,0.881796,0.00139444,0.0158069,650,1324,-10.4376,-3.97781
-567,-300,-10.4609,4.27625,0.000789442,0.00041971,0.000683869,0.00131299,-0.000103839,0.653392,0.000911914,0.0161545,657,1324,-10.461,-4.2763
-560,-300,-10.4771,4.56165,0.0013488,0.000152716,0.000361488,0.00144956,5.1953e-05,0.271844,0.000949528,0.015015,664,1324,-10.4771,-4.56164
-553,-300,-10.4645,4.82764,0.00203214,0.000237878,0.000330785,0.00209118,0.000178838,0.176625,0.00133849,0.0100662,671,1324,-10.4645,-4.82763
-546,-300,-10.4537,5.11353,0.00277385,0.000337464,0.000374036,0.00282998,0.000281335,0.148952,0.00180022,0.00799426,678,1324,-10.4537,-5.11352
-539,-300,-10.4288,5.42114,0.00349261,0.000437609,0.000347996,0.00353175,0.000398471,0.111999,0.00223356,0.0162904,685,1324,-10.4288,-5.42111
-532,-300,-10.667,5.53552,0.00429348,0.000343654,0.000202988,0.00430388,0.00033325,0.0512119,0.00276487,0.0431863,692,1324,-10.667,-5.53555
-525,-300,-10.9409,5.49634,0,0,0,0,0,0,0,-1,699,1324,-10.9409,-5.49634
-518,-300,-9.8349,-0.537109,0,0,0,0,0,0,0,-1,706,1324,-9.83487,0.537068
-511,-300,-12.8644,0.081665,0,0,0,0,0,0,0,-1,713,1324,-12.8644,-0.0817016
-504,-300,-13.4829,-0.165527,0,0,0,0,0,0,0,-1,720,1324,-13.4829,0.165544
-497,-300,-14.3456,-0.273682,0,0,0,0,0,0,0,-1,727,1324,-14.3456,0.273734
-490,-300,-14.6577,-0.732788,0,0,0,0,0,0,0,-1,734,1324,-14.6577,0.732783
-483,-300,-14.4426,-0.817871,0,0,0,0,0,0,0,-1,741,1324,-14.4426,0.81789
-476,-300,-13.1127,0.436401,0,0,0,0,0,0,0,-1,748,1324,-13.1126,-0.436348
-469,-300,0,0,0,0,0,0,0,0,0,-1,755,1324,0,0
-462,-300,0,0,0,0,0,0,0,0,0,-1,762,1324,0,0
-455,-300,0,0,0,0,0,0,0,0,0,-1,769,1324,0,0
-448,-300,0,0,0,0,0,0,0,0,0,-1,776,1324,0,0
-441,-300,0,0,0,0,0,0,0,0,0,-1,783,1324,0,0
-434,-300,0,0,0,0,0,0,0,0,0,-1,790,1324,0,0
-427,-300,0,0,0,0,0,0,0,0,0,-1,797,1324,0,0
-420,-300,0,0,0,0,0,0,0,0,0,-1,804,1324,0,0
-413,-300,0,0,0,0,0,0,0,0,0,-1,811,1324,0,0
-406,-300,0,0,0,0,0,0,0,0,0,-1,818,1324,0,0
-399,-300,0,0,0,0,0,0,0,0,0,-1,825,1324,0,0
-392,-300,0,0,0,0,0,0,0,0,0,-1,832,1324,0,0
-385,-300,0,0,0,0,0,0,0,0,0,-1,839,1324,0,0
-378,-300,0,0,0,0,0,0,0,0,0,-1,846,1324,0,0
-371,-300,0,0,0,0,0,0,0,0,0,-1,853,1324,0,0
-364,-300,0,0,0,0,0,0,0,0,0,-1,860,1324,0,0
-357,-300,0,0,0,0,0,0,0,0,0,-1,867,1324,0,0
-350,-300,0,0,0,0,0,0,0,0,0,-1,874,1324,0,0
-343,-300,0,0,0,0,0,0,0,0,0,-1,881,1324,0,0
-336,-300,0,0,0,0,0,0,0,0,0,-1,888,1324,0,0
-329,-300,0,0,0,0,0,0,0,0,0,-1,895,1324,0,0
-322,-300,0,0,0,0,0,0,0,0,0,-1,902,1324,0,0
-315,-300,0,0,0,0,0,0,0,0,0,-1,909,1324,0,0
-308,-300,0,0,0,0,0,0,0,0,0,-1,916,1324,0,0
-301,-300,0,0,0,0,0,0,0,0,0,-1,923,1324,0,0
-294,-300,0,0,0,0,0,0,0,0,0,-1,930,1324,0,0
-287,-300,0,0,0,0,0,0,0,0,0,-1,937,1324,0,0
-280,-300,0,0,0,0,0,0,0,0,0,-1,944,1324,0,0
-273,-300,0,0,0,0,0,0,0,0,0,-1,951,1324,0,0
-266,-300,0,0,0,0,0,0,0,0,0,-1,958,1324,0,0
-259,-300,0,0,0,0,0,0,0,0,0,-1,965,1324,0,0
-252,-300,0,0,0,0,0,0,0,0,0,-1,972,1324,0,0
-245,-300,0,0,0,0,0,0,0,0,0,-1,979,1324,0,0
-238,-300,0,0,0,0,0,0,0,0,0,-1,986,1324,0,0
-231,-300,0,0,0,0,0,0,0,0,0,-1,993,1324,0,0
-224,-300,0,0,0,0,0,0,0,0,0,-1,1000,1324,0,0
-217,-300,0,0,0,0,0,0,0,0,0,-1,1007,1324,0,0
-210,-300,0,0,0,0,0,0,0,0,0,-1,1014,1324,0,0
-203,-300,0,0,0,0,0,0,0,0,0,-1,1021,1324,0,0
-196,-300,0,0,0,0,0,0,0,0,0,-1,1028,1324,0,0
-189,-300,0,0,0,0,0,0,0,0,0,-1,1035,1324,0,0
-182,-300,0,0,0,0,0,0,0,0,0,-1,1042,1324,0,0
-175,-300,0,0,0,0,0,0,0,0,0,-1,1049,1324,0,0
-168,-300,0,0,0,0,0,0,0,0,0,-1,1056,1324,0,0
-161,-300,0,0,0,0,0,0,0,0,0,-1,1063,1324,0,0
-154,-300,0,0,0,0,0,0,0,0,0,-1,1070,1324,0,0
-147,-300,0,0,0,0,0,0,0,0,0,-1,1077,1324,0,0
-140,-300,0,0,0,0,0,0,0,0,0,-1,1084,1324,0,0
-133,-300,0,0,0,0,0,0,0,0,0,-1,1091,1324,0,0
-126,-300,0,0,0,0,0,0,0,0,0,-1,1098,1324,0,0
-119,-300,0,0,0,0,0,0,0,0,0,-1,1105,1324,0,0
-112,-300,0,0,0,0,0,0,0,0,0,-1,1112,1324,0,0
-105,-300,0,0,0,0,0,0,0,0,0,-1,1119,1324,0,0
-98,-300,0,0,0,0,0,0,0,0,0,-1,1126,1324,0,0
-91,-300,0,0,0,0,0,0,0,0,0,-1,1133,1324,0,0
-84,-300,0,0,0,0,0,0,0,0,0,-1,1140,1324,0,0
-77,-300,0,0,0,0,0,0,0,0,0,-1,1147,1324,0,0
-70,-300,0,0,0,0,0,0,0,0,0,-1,1154,1324,0,0
-63,-300,0,0,0,0,0,0,0,0,0,-1,1161,1324,0,0
-56,-300,0,0,0,0,0,0,0,0,0,-1,1168,1324,0,0
-49,-300,0,0,0,0,0,0,0,0,0,-1,1175,1324,0,0
-42,-300,0,0,0,0,0,0,0,0,0,-1,1182,1324,0,0
-35,-300,0,0,0,0,0,0,0,0,0,-1,1189,1324,0,0
-28,-300,0,0,0,0,0,0,0,0,0,-1,1196,1324,0,0
-21,-300,0,0,0,0,0,0,0,0,0,-1,1203,1324,0,0
-14,-300,0,0,0,0,0,0,0,0,0,-1,1210,1324,0,0
-7,-300,0,0,0,0,0,0,0,0,0,-1,1217,1324,0,0
0,-300,0,0,0,0,0,0,0,0,0,-1,1224,1324,0,0
7,-300,0,0,0,0,0,0,0,0,0,-1,1231,1324,0,0
14,-300,0,0,0,0,0,0,0,0,0,-1,1238,1324,0,0
21,-300,0,0,0,0,0,0,0,0,0,-1,1245,1324,0,0
28,-300,0,0,0,0,0,0,0,0,0,-1,1252,1324,0,0
35,-300,0,0,0,0,0,0,0,0,0,-1,1259,1324,0,0
42,-300,0,0,0,0,0,0,0,0,0,-1,1266,1324,0,0
49,-300,0,0,0,0,0,0,0,0,0,-1,1273,1324,0,0
56,-300,0,0,0,0,0,0,0,0,0,-1,1280,1324,0,0
63,-300,0,0,0,0,0,0,0,0,0,-1,1287,1324,0,0
70,-300,0,0,0,0,0,0,0,0,0,-1,1294,1324,0,0
77,-300,0,0,0,0,0,0,0,0,0,-1,1301,1324,0,0
84,-300,0,0,0,0,0,0,0,0,0,-1,1308,1324,0,0
91,-300,0,0,0,0,0,0,0,0,0,-1,1315,1324,0,0
98,-300,0,0,0,0,0,0,0,0,0,-1,1322,1324,0,0
105,-300,0,0,0,0,0,0,0,0,0,-1,1329,1324,0,0
112,-300,0,0,0,0,0,0,0,0,0,-1,1336,1324,0,0
119,-300,0,0,0,0,0,0,0,0,0,-1,1343,1324,0,0
126,-300,0,0,0,0,0,0,0,0,0,-1,1350,1324,0,0
133,-300,0,0,0,0,0,0,0,0,0,-1,1357,1324,0,0
140,-300,0,0,0,0,0,0,0,0,0,-1,1364,1324,0,0
147,-300,0,0,0,0,0,0,0,0,0,-1,1371,1324,0,0
154,-300,0,0,0,0,0,0,0,0,0,-1,1378,1324,0,0
161,-300,0,0,0,0,0,0,0,0,0,-1,1385,1324,0,0
168,-300,0,0,0,0,0,0,0,0,0,-1,1392,1324,0,0
175,-300,0,0,0,0,0,0,0,0,0,-1,1399,1324,0,0
182,-300,0,0,0,0,0,0,0,0,0,-1,1406,1324,0,0
189,-300,0,0,0,0,0,0,0,0,0,-1,1413,1324,0,0
196,-300,0,0,0,0,0,0,0,0,0,-1,1420,1324,0,0
203,-300,0,0,0,0,0,0,0,0,0,-1,1427,1324,0,0
210,-300,0,0,0,0,0,0,0,0,0,-1,1434,1324,0,0
217,-300,0,0,0,0,0,0,0,0,0,-1,1441,1324,0,0
224,-300,0,0,0,0,0,0,0,0,0,-1,1448,1324,0,0
231,-300,0,0,0,0,0,0,0,0,0,-1,1455,1324,0,0
238,-300,0,0,0,0,0,0,0,0,0,-1,1462,1324,0,0
245,-300,0,0,0,0,0,0,0,0,0,-1,1469,1324,0,0
252,-300,0,0,0,0,0,0,0,0,0,-1,1476,1324,0,0
259,-300,0,0,0,0,0,0,0,0,0,-1,1483,1324,0,0
266,-300,0,0,0,0,0,0,0,0,0,-1,1490,1324,0,0
273,-300,0,0,0,0,0,0,0,0,0,-1,1497,1324,0,0
280,-300,0,0,0,0,0,0,0,0,0,-1,1504,1324,0,0
287,-300,0,0,0,0,0,0,0,0,0,-1,1511,1324,0,0
294,-300,0,0,0,0,0,0,0,0,0,-1,1518,1324,0,0
301,-300,0,0,0,0,0,0,0,0,0,-1,1525,1324,0,0
308,-300,0,0,0,0,0,0,0,0,0,-1,1532,1324,0,0
315,-300,0,0,0,0,0,0,0,0,0,-1,1539,1324,0,0
322,-300,0,0,0,0,0,0,0,0,0,-1,1546,1324,0,0
329,-300,0,0,0,0,0,0,0,0,0,-1,1553,1324,0,0
336,-300,0,0,0,0,0,0,0,0,0,-1,1560,1324,0,0
343,-300,0,0,0,0,0,0,0,0,0,-1,1567,1324,0,0
350,-300,0,0,0,0,0,0,0,0,0,-1,1574,1324,0,0
357,-300,0,0,0,0,0,0,0,0,0,-1,1581,1324,0,0
364,-300,0,0,0,0,0,0,0,0,0,-1,1588,1324,0,0
371,-300,0,0,0,0,0,0,0,0,0,-1,1595,1324,0,0
378,-300,0,0,0,0,0,0,0,0,0,-1,1602,1324,0,0
385,-300,0,0,0,0,0,0,0,0,0,-1,1609,1324,0,0
392,-300,0,0,0,0,0,0,0,0,0,-1,1616,1324,0,0
399,-300,0,0,0,0,0,0,0,0,0,-1,1623,1324,0,0
406,-300,0,0,0,0,0,0,0,0,0,-1,1630,1324,0,0
413,-300,0,0,0,0,0,0,0,0,0,-1,1637,1324,0,0
420,-300,0,0,0,0,0,0,0,0,0,-1,1644,1324,0,0
427,-300,0,0,0,0,0,0,0,0,0,-1,1651,1324,0,0
434,-300,0,0,0,0,0,0,0,0,0,-1,1658,1324,0,0
441,-300,0,0,0,0,0,0,0,0,0,-1,1665,1324,0,0
448,-300,0,0,0,0,0,0,0,0,0,-1,1672,1324,0,0
455,-300,0,0,0,0,0,0,0,0,0,-1,1679,1324,0,0
462,-300,0,0,0,0,0,0,0,0,0,-1,1686,1324,0,0
469,-300,0,0,0,0,0,0,0,0,0,-1,1693,1324,0,0
476,-300,0,0,0,0,0,0,0,0,0,-1,1700,1324,0,0
483,-300,0,0,0,0,0,0,0,0,0,-1,1707,1324,0,0
490,-300,0,0,0,0,0,0,0,0,0,-1,1714,1324,0,0
497,-300,0,0,0,0,0,0,0,0,0,-1,1721,1324,0,0
504,-300,0,0,0,0,0,0,0,0,0,-1,1728,1324,0,0
511,-300,0,0,0,0,0,0,0,0,0,-1,1735,1324,0,0
518,-300,0,0,0,0,0,0,0,0,0,-1,1742,1324,0,0
525,-300,0,0,0,0,0,0,0,0,0,-1,1749,1324,0,0
532,-300,0,0,0,0,0,0,0,0,0,-1,1756,1324,0,0
539,-300,0,0,0,0,0,0,0,0,0,-1,1763,1324,0,0
546,-300,0,0,0,0,0,0,0,0,0,-1,1770,1324,0,0
553,-300,0,0,0,0,0,0,0,0,0,-1,1777,1324,0,0
560,-300,0,0,0,0,0,0,0,0,0,-1,1784,1324,0,0
567,-300,0,0,0,0,0,0,0,0,0,-1,1791,1324,0,0
574,-300,0,0,0,0,0,0,0,0,0,-1,1798,1324,0,0
581,-300,0,0,0,0,0,0,0,0,0,-1,1805,1324,0,0
588,-300,26.1029,2.76807,0,0,0,0,0,0,0,-1,1812,1324,26.1029,-2.76801
595,-300,26.2369,2.79822,0,0,0,0,0,0,0,-1,1819,1324,26.2369,-2.79819
602,-300,26.042,2.77356,0,0,0,0,0,0,0,-1,1826,1324,26.0419,-2.77358
609,-300,25.4828,2.4281,0,0,0,0,0,0,0,-1,1833,1324,25.4828,-2.42805
616,-300,27.8766,2.43298,0,0,0,0,0,0,0,-1,1840,1324,27.8766,-2.43299
623,-300,27.3523,2.01172,0,0,0,0,0,0,0,-1,1847,1324,27.3524,-2.01177
630,-300,25.7242,0.168213,0,0,0,0,0,0,0,-1,1854,1324,25.7242,-0.168273
637,-300,23.4525,1.64307,0,0,0,0,0,0,0,-1,1861,1324,23.4525,-1.64304
644,-300,19.2581,3.37158,0,0,0,0,0,0,0,-1,1868,1324,19.2581,-3.37159
651,-300,20.4589,7.56384,0,0,0,0,0,0,0,-1,1875,1324,20.4589,-7.56382
658,-300,20.0857,7.70105,-0.0230312,0.00397627,0.00659383,0.00550016,-0.0245551,1.34368,0.0184783,0.0451431,1882,1324,20.0857,-7.70105
665,-300,19.861,7.6637,-0.0169932,0.00256062,0.00606937,0.00429133,-0.0187239,1.29301,0.0141319,0.0343089,1889,1324,19.8609,-7.66369
672,-300,19.7439,7.41638,-0.01261,0.00168261,0.00524883,0.00340309,-0.0143305,1.25405,0.0108671,0.0112844,1896,1324,19.7439,-7.41638
679,-300,19.7592,7.13696,-0.00765361,0.000436912,0.0046053,0.00252133,-0.00973802,1.14577,0.00747556,0.0103684,1903,1324,19.7592,-7.13693
686,-300,19.7749,6.89429,-0.0037562,-0.00183737,0.00325586,0.000597489,-0.00619106,0.928679,0.00434027,0.0111463,1910,1324,19.7749,-6.89425
693,-300,19.7654,6.64661,-0.00278959,-0.000895074,0.00209393,0.000455891,-0.00414055,0.997815,0.0029242,0.0103273,1917,1324,19.7654,-6.64663
700,-300,19.7679,6.3811,-0.00189717,-0.000106167,0.000947903,0.000302341,-0.00230568,1.16389,0.00164718,0.0120532,1924,1324,19.768,-6.38112
707,-300,19.7638,6.12244,-0.00112753,0.000809375,8.22109e-06,0.00080941,-0.00112756,1.56655,0.00112333,0.00922642,1931,1324,19.7638,-6.1224
714,-300,19.7512,5.89453,-0.000677137,0.00159238,-0.00136615,0.00223358,-0.00131834,-1.13197,0.00207327,0.0105905,1938,1324,19.7512,-5.89459
721,-300,19.7722,5.64124,-0.00155448,0.00218187,-0.00364402,0.00440869,-0.0037813,-1.02226,0.00473312,0.0115621,1945,1324,19.7722,-5.64118
728,-300,19.788,5.37024,-0.00274836,0.00257374,-0.00648205,0.0069197,-0.00709432,-0.980172,0.00809121,0.0114786,1952,1324,19.788,-5.37022
735,-300,19.6665,5.20874,-0.00466702,0.00275753,-0.0108107,0.0104756,-0.0123851,-0.950784,0.013214,0.0208414,1959,1324,19.6665,-5.2088
742,-300,19.8003,4.89282,0,0,0,0,0,0,0,-1,1966,1324,19.8003,-4.8928
749,-300,20.1445,4.41785,0,0,0,0,0,0,0,-1,1973,1324,20.1445,-4.4178
756,-300,19.3037,4.59265,0,0,0,0,0,0,0,-1,1980,1324,19.3037,-4.59267
763,-300,22.6136,5.1571,0,0,0,0,0,0,0,-1,1987,1324,22.6136,-5.15706
770,-300,24.859,4.77979,0,0,0,0,0,0,0,-1,1994,1324,24.859,-4.77972
777,-300,0,0,0,0,0,0,0,0,0,-1,2001,1324,0,0
784,-300,0,0,0,0,0,0,0,0,0,-1,2008,1324,0,0
791,-300,0,0,0,0,0,0,0,0,0,-1,2015,1324,0,0
798,-300,0,0,0,0,0,0,0,0,0,-1,2022,1324,0,0
805,-300,0,0,0,0,0,0,0,0,0,-1,2029,1324,0,0
812,-300,0,0,0,0,0,0,0,0,0,-1,2036,1324,0,0
-700,-307,0,0,0,0,0,0,0,0,0,-1,524,1331,0,0
-693,-307,0,0,0,0,0,0,0,0,0,-1,531,1331,0,0
-686,-307,0,0,0,0,0,0,0,0,0,-1,538,1331,0,0
-679,-307,0,0,0,0,0,0,0,0,0,-1,545,1331,0,0
-672,-307,0,0,0,0,0,0,0,0,0,-1,552,1331,0,0
-665,-307,0,0,0,0,0,0,0,0,0,-1,559,1331,0,0
-658,-307,0,0,0,0,0,0,0,0,0,-1,566,1331,0,0
-651,-307,-10.0248,-3.078,0,0,0,0,0,0,0,-1,573,1331,-10.0248,3.07801
-644,-307,-10.3633,-3.08826,0,0,0,0,0,0,0,-1,580,1331,-10.3633,3.08829
-637,-307,-10.8338,-2.95007,0,0,0,0,0,0,0,-1,587,1331,-10.8338,2.95012
-630,-307,-9.56812,-2.03333,0,0,0,0,0,0,0,-1,594,1331,-9.56814,2.03327
-623,-307,-11.3083,1.38123,0,0,0,0,0,0,0,-1,601,1331,-11.3083,-1.38127
-616,-307,-10.1123,1.77795,0,0,0,0,0,0,0,-1,608,1331,-10.1123,-1.77801
-609,-307,-10.207,2.35205,0,0,0,0,0,0,0,-1,615,1331,-10.207,-2.35202
-602,-307,-10.1506,2.75623,0,0,0,0,0,0,0,-1,622,1331,-10.1506,-2.75628
-595,-307,-10.217,3.0791,-0.00138054,0.00195269,0.00328134,0.0039664,-0.00339425,1.02038,0.00425395,0.024278,629,1331,-10.217,-3.07916
-588,-307,-10.1513,3.3927,-0.00125817,0.000990272,0.00195857,0.00212434,-0.00239224,1.04594,0.00260918,0.0191732,636,1331,-10.1513,-3.39269
-581,-307,-10.1303,3.68835,-0.000891694,0.000450258,0.00117557,0.00113286,-0.0015743,1.04472,0.00156989,0.0163181,643,1331,-10.1303,-3.68834
-574,-307,-10.152,3.97327,-0.000398107,0.000166633,0.000678705,0.000619364,-0.000850838,0.982527,0.000852321,0.0128518,650,1331,-10.152,-3.97333
-567,-307,-10.1682,4.2677,0.000205851,3.77734e-05,0.000376724,0.000507796,-0.000264172,0.675656,0.000453034,0.0121774,657,1331,-10.1681,-4.26776
-560,-307,-10.1606,4.55701,0.000884107,-0.000106457,0.00016881,0.000912085,-0.000134435,0.164244,0.000657466,0.0127961,664,1331,-10.1607,-4.55696
-553,-307,-10.1697,4.82764,0.00167505,7.97749e-05,0.000222196,0.00170542,4.94047e-05,0.13584,0.00112084,0.0100508,671,1331,-10.1697,-4.82765
-546,-307,-10.1716,5.1167,0.00254195,0.000245999,0.00035049,0.00259426,0.000193687,0.148161,0.0016687,0.0096364,678,1331,-10.1716,-5.11674
-539,-307,-10.1486,5.42944,0.00341816,0.000397756,0.000448928,0.00348347,0.000332443,0.144472,0.00221982,0.0131347,685,1331,-10.1485,-5.42947
-532,-307,-10.1382,5.62964,0.00436595,0.000336143,0.000450087,0.00441561,0.000286485,0.109886,0.00285304,0.0384453,692,1331,-10.1383,-5.62962
-525,-307,-10.3398,5.81567,0,0,0,0,0,0,0,-1,699,1331,-10.3398,-5.81569
-518,-307,-9.77777,-1.56653,0,0,0,0,0,0,0,-1,706,1331,-9.77777,1.56651
-511,-307,-12.5226,0.26709,0,0,0,0,0,0,0,-1,713,1331,-12.5226,-0.267038
-504,-307,-12.5913,-0.308105,0,0,0,0,0,0,0,-1,720,1331,-12.5913,0.308124
-497,-307,-13.8586,-0.115845,0,0,0,0,0,0,0,-1,727,1331,-13.8587,0.115861
-490,-307,-14.5473,-0.673462,0,0,0,0,0,0,0,-1,734,1331,-14.5473,0.673408
-483,-307,-12.4939,1.26636,0,0,0,0,0,0,0,-1,741,1331,-12.4939,-1.26637
-476,-307,-12.8369,0.472534,0,0,0,0,0,0,0,-1,748,1331,-12.8368,-0.472485
-469,-307,-12.987,0.623047,0,0,0,0,0,0,0,-1,755,1331,-12.987,-0.622992
-462,-307,0,0,0,0,0,0,0,0,0,-1,762,1331,0,0
-455,-307,0,0,0,0,0,0,0,0,0,-1,769,1331,0,0
-448,-307,0,0,0,0,0,0,0,0,0,-1,776,1331,0,0
-441,-307,0,0,0,0,0,0,0,0,0,-1,783,1331,0,0
-434,-307,0,0,0,0,0,0,0,0,0,-1,790,1331,0,0
-427,-307,0,0,0,0,0,0,0,0,0,-1,797,1331,0,0
-420,-307,0,0,0,0,0,0,0,0,0,-1,804,1331,0,0
-413,-307,0,0,0,0,0,0,0,0,0,-1,811,1331,0,0
-406,-307,0,0,0,0,0,0,0,0,0,-1,818,1331,0,0
-399,-307,0,0,0,0,0,0,0,0,0,-1,825,1331,0,0
-392,-307,0,0,0,0,0,0,0,0,0,-1,832,1331,0,0
-385,-307,0,0,0,0,0,0,0,0,0,-1,839,1331,0,0
-378,-307,0,0,0,0,0,0,0,0,0,-1,846,1331,0,0
-371,-307,0,0,0,0,0,0,0,0,0,-1,853,1331,0,0
-364,-307,0,0,0,0,0,0,0,0,0,-1,860,1331,0,0
-357,-307,0,0,0,0,0,0,0,0,0,-1,867,1331,0,0
-350,-307,0,0,0,0,0,0,0,0,0,-1,874,1331,0,0
-343,-307,0,0,0,0,0,0,0,0,0,-1,881,1331,0,0
-336,-307,0,0,0,0,0,0,0,0,0,-1,888,1331,0,0
-329,-307,0,0,0,0,0,0,0,0,0,-1,895,1331,0,0
-322,-307,0,0,0,0,0,0,0,0,0,-1,902,1331,0,0
-315,-307,0,0,0,0,0,0,0,0,0,-1,909,1331,0,0
-308,-307,0,0,0,0,0,0,0,0,0,-1,916,1331,0,0
-301,-307,0,0,0,0,0,0,0,0,0,-1,923,1331,0,0
-294,-307,0,0,0,0,0,0,0,0,0,-1,930,1331,0,0
-287,-307,0,0,0,0,0,0,0,0,0,-1,937,1331,0,0
-280,-307,0,0,0,0,0,0,0,0,0,-1,944,1331,0,0
-273,-307,0,0,0,0,0,0,0,0,0,-1,951,1331,0,0
-266,-307,0,0,0,0,0,0,0,0,0,-1,958,1331,0,0
-259,-307,0,0,0,0,0,0,0,0,0,-1,965,1331,0,0
-252,-307,0,0,0,0,0,0,0,0,0,-1,972,1331,0,0
-245,-307,0,0,0,0,0,0,0,0,0,-1,979,1331,0,0
-238,-307,0,0,0,0,0,0,0,0,0,-1,986,1331,0,0
-231,-307,0,0,0,0,0,0,0,0,0,-1,993,1331,0,0
-224,-307,0,0,0,0,0,0,0,0,0,-1,1000,1331,0,0
-217,-307,0,0,0,0,0,0,0,0,0,-1,1007,1331,0,0
-210,-307,0,0,0,0,0,0,0,0,0,-1,1014,1331,0,0
-203,-307,0,0,0,0,0,0,0,0,0,-1,1021,1331,0,0
-196,-307,0,0,0,0,0,0,0,0,0,-1,1028,1331,0,0
-189,-307,0,0,0,0,0,0,0,0,0,-1,1035,1331,0,0
-182,-307,0,0,0,0,0,0,0,0,0,-1,1042,1331,0,0
-175,-307,0,0,0,0,0,0,0,0,0,-1,1049,1331,0,0
-168,-307,0,0,0,0,0,0,0,0,0,-1,1056,1331,0,0
-161,-307,0,0,0,0,0,0,0,0,0,-1,1063,1331,0,0
-154,-307,0,0,0,0,0,0,0,0,0,-1,1070,1331,0,0
-147,-307,0,0,0,0,0,0,0,0,0,-1,1077,1331,0,0
-140,-307,0,0,0,0,0,0,0,0,0,-1,1084,1331,0,0
-133,-307,0,0,0,0,0,0,0,0,0,-1,1091,1331,0,0
-126,-307,0,0,0,0,0,0,0,0,0,-1,1098,1331,0,0
-119,-307,0,0,0,0,0,0,0,0,0,-1,1105,1331,0,0
-112,-307,0,0,0,0,0,0,0,0,0,-1,1112,1331,0,0
-105,-307,0,0,0,0,0,0,0,0,0,-1,1119,1331,0,0
-98,-307,0,0,0,0,0,0,0,0,0,-1,1126,1331,0,0
-91,-307,0,0,0,0,0,0,0,0,0,-1,1133,1331,0,0
-84,-307,0,0,0,0,0,0,0,0,0,-1,1140,1331,0,0
-77,-307,0,0,0,0,0,0,0,0,0,-1,1147,1331,0,0
-70,-307,0,0,0,0,0,0,0,0,0,-1,1154,1331,0,0
-63,-307,0,0,0,0,0,0,0,0,0,-1,1161,1331,0,0
-56,-307,0,0,0,0,0,0,0,0,0,-1,1168,1331,0,0
-49,-307,0,0,0,0,0,0,0,0,0,-1,1175,1331,0,0
-42,-307,0,0,0,0,0,0,0,0,0,-1,1182,1331,0,0
-35,-307,0,0,0,0,0,0,0,0,0,-1,1189,1331,0,0
-28,-307,0,0,0,0,0,0,0,0,0,-1,1196,1331,0,0
-21,-307,0,0,0,0,0,0,0,0,0,-1,1203,1331,0,0
-14,-307,0,0,0,0,0,0,0,0,0,-1,1210,1331,0,0
-7,-307,0,0,0,0,0,0,0,0,0,-1,1217,1331,0,0
0,-307,0,0,0,0,0,0,0,0,0,-1,1224,1331,0,0
7,-307,0,0,0,0,0,0,0,0,0,-1,1231,1331,0,0
14,-307,0,0,0,0,0,0,0,0,0,-1,1238,1331,0,0
21,-307,0,0,0,0,0,0,0,0,0,-1,1245,1331,0,0
28,-307,0,0,0,0,0,0,0,0,0,-1,1252,1331,0,0
35,-307,0,0,0,0,0,0,0,0,0,-1,1259,1331,0,0
42,-307,0,0,0,0,0,0,0,0,0,-1,1266,1331,0,0
49,-307,0,0,0,0,0,0,0,0,0,-1,1273,1331,0,0
56,-307,0,0,0,0,0,0,0,0,0,-1,1280,1331,0,0
63,-307,0,0,0,0,0,0,0,0,0,-1,1287,1331,0,0
70,-307,0,0,0,0,0,0,0,0,0,-1,1294,1331,0,0
77,-307,0,0,0,0,0,0,0,0,0,-1,1301,1331,0,0
84,-307,0,0,0,0,0,0,0,0,0,-1,1308,1331,0,0
91,-307,0,0,0,0,0,0,0,0,0,-1,1315,1331,0,0
98,-307,0,0,0,0,0,0,0,0,0,-1,1322,1331,0,0
105,-307,0,0,0,0,0,0,0,0,0,-1,1329,1331,0,0
112,-307,0,0,0,0,0,0,0,0,0,-1,1336,1331,0,0
119,-307,0,0,0,0,0,0,0,0,0,-1,1343,1331,0,0
126,-307,0,0,0,0,0,0,0,0,0,-1,1350,1331,0,0
133,-307,0,0,0,0,0,0,0,0,0,-1,1357,1331,0,0
140,-307,0,0,0,0,0,0,0,0,0,-1,1364,1331,0,0
147,-307,0,0,0,0,0,0,0,0,0,-1,1371,1331,0,0
154,-307,0,0,0,0,0,0,0,0,0,-1,1378,1331,0,0
161,-307,0,0,0,0,0,0,0,0,0,-1,1385,1331,0,0
168,-307,0,0,0,0,0,0,0,0,0,-1,1392,1331,0,0
175,-307,0,0,0,0,0,0,0,0,0,-1,1399,1331,0,0
182,-307,0,0,0,0,0,0,0,0,0,-1,1406,1331,0,0
189,-307,0,0,0,0,0,0,0,0,0,-1,1413,1331,0,0
196,-307,0,0,0,0,0,0,0,0,0,-1,1420,1331,0,0
203,-307,0,0,0,0,0,0,0,0,0,-1,1427,1331,0,0
210,-307,0,0,0,0,0,0,0,0,0,-1,1434,1331,0,0
217,-307,0,0,0,0,0,0,0,0,0,-1,1441,1331,0,0
224,-307,0,0,0,0,0,0,0,0,0,-1,1448,1331,0,0
231,-307,0,0,0,0,0,0,0,0,0,-1,1455,1331,0,0
238,-307,0,0,0,0,0,0,0,0,0,-1,1462,1331,0,0
245,-307,0,0,0,0,0,0,0,0,0,-1,1469,1331,0,0
252,-307,0,0,0,0,0,0,0,0,0,-1,1476,1331,0,0
259,-307,0,0,0,0,0,0,0,0,0,-1,1483,1331,0,0
266,-307,0,0,0,0,0,0,0,0,0,-1,1490,1331,0,0
273,-307,0,0,0,0,0,0,0,0,0,-1,1497,1331,0,0
280,-307,0,0,0,0,0,0,0,0,0,-1,1504,1331,0,0
287,-307,0,0,0,0,0,0,0,0,0,-1,1511,1331,0,0
294,-307,0,0,0,0,0,0,0,0,0,-1,1518,1331,0,0
301,-307,0,0,0,0,0,0,0,0,0,-1,1525,1331,0,0
308,-307,0,0,0,0,0,0,0,0,0,-1,1532,1331,0,0
315,-307,0,0,0,0,0,0,0,0,0,-1,1539,1331,0,0
322,-307,0,0,0,0,0,0,0,0,0,-1,1546,1331,0,0
329,-307,0,0,0,0,0,0,0,0,0,-1,1553,1331,0,0
336,-307,0,0,0,0,0,0,0,0,0,-1,1560,1331,0,0
343,-307,0,0,0,0,0,0,0,0,0,-1,1567,1331,0,0
350,-307,0,0,0,0,0,0,0,0,0,-1,1574,1331,0,0
357,-307,0,0,0,0,0,0,0,0,0,-1,1581,1331,0,0
364,-307,0,0,0,0,0,0,0,0,0,-1,1588,1331,0,0
371,-307,0,0,0,0,0,0,0,0,0,-1,1595,1331,0,0
378,-307,0,0,0,0,0,0,0,0,0,-1,1602,1331,0,0
385,-307,0,0,0,0,0,0,0,0,0,-1,1609,1331,0,0
392,-307,0,0,0,0,0,0,0,0,0,-1,1616,1331,0,0
399,-307,0,0,0,0,0,0,0,0,0,-1,1623,1331,0,0
406,-307,0,0,0,0,0,0,0,0,0,-1,1630,1331,0,0
413,-307,0,0,0,0,0,0,0,0,0,-1,1637,1331,0,0
420,-307,0,0,0,0,0,0,0,0,0,-1,1644,1331,0,0
427,-307,0,0,0,0,0,0,0,0,0,-1,1651,1331,0,0
434,-307,0,0,0,0,0,0,0,0,0,-1,1658,1331,0,0
441,-307,0,0,0,0,0,0,0,0,0,-1,1665,1331,0,0
448,-307,0,0,0,0,0,0,0,0,0,-1,1672,1331,0,0
455,-307,0,0,0,0,0,0,0,0,0,-1,1679,1331,0,0
462,-307,0,0,0,0,0,0,0,0,0,-1,1686,1331,0,0
469,-307,0,0,0,0,0,0,0,0,0,-1,1693,1331,0,0
476,-307,0,0,0,0,0,0,0,0,0,-1,1700,1331,0,0
483,-307,0,0,0,0,0,0,0,0,0,-1,1707,1331,0,0
490,-307,0,0,0,0,0,0,0,0,0,-1,1714,1331,0,0
497,-307,0,0,0,0,0,0,0,0,0,-1,1721,1331,0,0
504,-307,0,0,0,0,0,0,0,0,0,-1,1728,1331,0,0
511,-307,0,0,0,0,0,0,0,0,0,-1,1735,1331,0,0
518,-307,0,0,0,0,0,0,0,0,0,-1,1742,1331,0,0
525,-307,0,0,0,0,0,0,0,0,0,-1,1749,1331,0,0
532,-307,0,0,0,0,0,0,0,0,0,-1,1756,1331,0,0
539,-307,0,0,0,0,0,0,0,0,0,-1,1763,1331,0,0
546,-307,0,0,0,0,0,0,0,0,0,-1,1770,1331,0,0
553,-307,0,0,0,0,0,0,0,0,0,-1,1777,1331,0,0
560,-307,0,0,0,0,0,0,0,0,0,-1,1784,1331,0,0
567,-307,0,0,0,0,0,0,0,0,0,-1,1791,1331,0,0
574,-307,0,0,0,0,0,0,0,0,0,-1,1798,1331,0,0
581,-307,0,0,0,0,0,0,0,0,0,-1,1805,1331,0,0
588,-307,26.0505,2.96167,0,0,0,0,0,0,0,-1,1812,1331,26.0505,-2.9617
595,-307,26.179,2.73352,0,0,0,0,0,0,0,-1,1819,1331,26.179,-2.73351
602,-307,25.817,2.63782,0,0,0,0,0,0,0,-1,1826,1331,25.817,-2.63786
609,-307,27.0099,2.5603,0,0,0,0,0,0,0,-1,1833,1331,27.0099,-2.56029
616,-307,26.8009,2.43213,-0.0933972,-0.00834166,0.0170612,-0.005047,-0.0966919,1.38004,0.0628465,0.0450308,1840,1331,26.801,-2.43207
623,-307,26.4875,2.3717,-0.0791101,-0.00423382,0.0145776,-0.00149585,-0.0818481,1.38514,0.0540737,0.0479299,1847,1331,26.4876,-2.37166
630,-307,25.7554,2.23279,0,0,0,0,0,0,0,-1,1854,1331,25.7553,-2.23285
637,-307,23.3761,4.40564,0,0,0,0,0,0,0,-1,1861,1331,23.3761,-4.40568
644,-307,22.6885,5.80408,0,0,0,0,0,0,0,-1,1868,1331,22.6884,-5.80408
651,-307,17.5013,5.80078,0,0,0,0,0,0,0,-1,1875,1331,17.5014,-5.80072
658,-307,19.85,7.25562,0,0,0,0,0,0,0,-1,1882,1331,19.85,-7.25556
665,-307,19.5194,7.65173,-0.0173401,0.00118388,0.00607125,0.00299639,-0.0191526,1.28068,0.0138755,0.0214074,1889,1331,19.5194,-7.65178
672,-307,19.5083,7.39941,-0.0120924,0.00076513,0.00505862,0.00251675,-0.013844,1.23745,0.0101726,0.00951604,1896,1331,19.5083,-7.39938
679,-307,19.5059,7.13855,-0.00716105,2.9765e-05,0.00417229,0.00194208,-0.00907336,1.14103,0.00678949,0.0100076,1903,1331,19.5059,-7.13856
686,-307,19.506,6.89441,-0.00362151,-0.00157001,0.0028942,0.000474833,-0.00566636,0.9557,0.00394538,0.00973298,1910,1331,19.506,-6.89445
693,-307,19.5227,6.63745,-0.00261727,-0.000586454,0.00176482,0.000434224,-0.00363795,1.04645,0.00258224,0.0113155,1917,1331,19.5227,-6.63748
700,-307,19.5212,6.37207,-0.00174729,0.00032176,0.000684716,0.000527831,-0.00195336,1.27846,0.00150927,0.0125625,1924,1331,19.5213,-6.37203
707,-307,19.51,6.10974,-0.00104924,0.00132166,-0.000224826,0.00134279,-0.00107037,-1.47708,0.0013962,0.0130049,1931,1331,19.51,-6.10976
714,-307,19.4956,5.89258,-0.000666073,0.00221551,-0.00147136,0.00283404,-0.0012846,-1.17285,0.00243334,0.0117856,1938,1331,19.4956,-5.89254
721,-307,19.5269,5.65308,-0.00151137,0.00294582,-0.00359079,0.00494338,-0.00350894,-1.06313,0.00490332,0.014036,1945,1331,19.5268,-5.65302
728,-307,19.4938,5.46326,-0.00263748,0.00355596,-0.00632304,0.00749987,-0.00658139,-1.01311,0.00813559,0.0250691,1952,1331,19.4938,-5.46327
735,-307,19.2531,5.23608,-0.00441237,0.00396441,-0.0106418,0.0112124,-0.0116603,-0.972878,0.0132064,0.0368332,1959,1331,19.253,-5.23603
742,-307,19.0198,4.99976,0,0,0,0,0,0,0,-1,1966,1331,19.0198,-4.99977
749,-307,18.9918,4.75366,0,0,0,0,0,0,0,-1,1973,1331,18.9918,-4.75363
756,-307,18.9485,5.61768,0,0,0,0,0,0,0,-1,1980,1331,18.9485,-5.6177
763,-307,18.6041,2.86731,0,0,0,0,0,0,0,-1,1987,1331,18.6042,-2.86734
770,-307,0,0,0,0,0,0,0,0,0,-1,1994,1331,0,0
777,-307,0,0,0,0,0,0,0,0,0,-1,2001,1331,0,0
784,-307,0,0,0,0,0,0,0,0,0,-1,2008,1331,0,0
791,-307,0,0,0,0,0,0,0,0,0,-1,2015,1331,0,0
798,-307,0,0,0,0,0,0,0,0,0,-1,2022,1331,0,0
805,-307,0,0,0,0,0,0,0,0,0,-1,2029,1331,0,0
812,-307,0,0,0,0,0,0,0,0,0,-1,2036,1331,0,0
-700,-314,0,0,0,0,0,0,0,0,0,-1,524,1338,0,0
-693,-314,0,0,0,0,0,0,0,0,0,-1,531,1338,0,0
-686,-314,0,0,0,0,0,0,0,0,0,-1,538,1338,0,0
-679,-314,0,0,0,0,0,0,0,0,0,-1,545,1338,0,0
-672,-314,0,0,0,0,0,0,0,0,0,-1,552,1338,0,0
-665,-314,0,0,0,0,0,0,0,0,0,-1,559,1338,0,0
-658,-314,0,0,0,0,0,0,0,0,0,-1,566,1338,0,0
-651,-314,0,0,0,0,0,0,0,0,0,-1,573,1338,0,0
-644,-314,-9.65363,-2.96204,0,0,0,0,0,0,0,-1,580,1338,-9.65365,2.96205
-637,-314,-10.6646,-0.940186,0,0,0,0,0,0,0,-1,587,1338,-10.6646,0.940217
-630,-314,-13.4453,1.84912,0,0,0,0,0,0,0,-1,594,1338,-13.4452,-1.84914
-623,-314,-11.7083,1.95923,0,0,0,0,0,0,0,-1,601,1338,-11.7083,-1.95925
-616,-314,-9.87512,2.07214,0,0,0,0,0,0,0,-1,608,1338,-9.87512,-2.07219
-609,-314,-9.4361,2.86292,0,0,0,0,0,0,0,-1,615,1338,-9.43612,-2.86286
-602,-314,-9.43823,2.90088,0,0,0,0,0,0,0,-1,622,1338,-9.43824,-2.90087
-595,-314,-9.71783,3.16174,-0.00240648,0.000115918,0.00168237,0.000957334,-0.0032479,1.10704,0.00254512,0.0444954,629,1338,-9.71783,-3.16178
-588,-314,-9.88708,3.36768,-0.00220402,-0.000361973,0.000648655,-0.000156481,-0.00240951,1.264,0.00155681,0.0192102,636,1338,-9.88709,-3.36766
-581,-314,-9.84387,3.68115,-0.00172845,-0.000507812,0.000150254,-0.000489588,-0.00174668,1.4501,0.00104039,0.0133704,643,1338,-9.84387,-3.6812
-574,-314,-9.86975,3.95813,-0.00111457,-0.000519355,-0.000122915,-0.000494972,-0.00113896,-1.37496,0.000659449,0.0130086,650,1338,-9.86974,-3.95808
-567,-314,-9.88342,4.25708,-0.000395701,-0.0003936,-0.000192172,-0.000202476,-0.000586825,-0.788131,0.000344185,0.0141589,657,1338,-9.8834,-4.2571
-560,-314,-9.86627,4.54773,0.000419089,-0.000378864,-0.000217643,0.000474591,-0.000434366,-0.249692,0.000524958,0.014834,664,1338,-9.8663,-4.54775
-553,-314,-9.89209,4.81909,0.00136033,-9.06627e-05,-1.32576e-05,0.00136046,-9.07839e-05,-0.00913588,0.000938696,0.0161274,671,1338,-9.89211,-4.81903
-546,-314,-9.93695,5.12695,0.00237632,0.000142064,0.000257247,0.00240556,0.000112828,0.113165,0.00156745,0.0168941,678,1338,-9.93692,-5.12699
-539,-314,-9.90369,5.44727,0.00342603,0.0003457,0.00052974,0.00351459,0.000257144,0.165637,0.00226222,0.0163491,685,1338,-9.90368,-5.44721
-532,-314,-9.71191,5.76758,0.00454524,0.000344962,0.000737726,0.00467105,0.000219158,0.168905,0.00304361,0.0336494,692,1338,-9.71192,-5.76756
-525,-314,-9.62915,6.01367,0,0,0,0,0,0,0,-1,699,1338,-9.62916,-6.01366
-518,-314,-8.52753,4.70032,0,0,0,0,0,0,0,-1,706,1338,-8.52755,-4.70034
-511,-314,-11.8597,0.384888,0,0,0,0,0,0,0,-1,713,1338,-11.8597,-0.384927
-504,-314,-11.4322,-0.187378,0,0,0,0,0,0,0,-1,720,1338,-11.4322,0.187381
-497,-314,-11.0047,-0.759644,0,0,0,0,0,0,0,-1,727,1338,-11.0047,0.759689
-490,-314,-11.5118,0.876831,0,0,0,0,0,0,0,-1,734,1338,-11.5118,-0.876798
-483,-314,-11.9443,1.5437,0,0,0,0,0,0,0,-1,741,1338,-11.9443,-1.54365
-476,-314,-12.3901,2.39111,0,0,0,0,0,0,0,-1,748,1338,-12.3901,-2.39112
-469,-314,-12.9529,0.492676,0,0,0,0,0,0,0,-1,755,1338,-12.9529,-0.492656
-462,-314,0,0,0,0,0,0,0,0,0,-1,762,1338,0,0
-455,-314,0,0,0,0,0,0,0,0,0,-1,769,1338,0,0
-448,-314,0,0,0,0,0,0,0,0,0,-1,776,1338,0,0
-441,-314,0,0,0,0,0,0,0,0,0,-1,783,1338,0,0
-434,-314,0,0,0,0,0,0,0,0,0,-1,790,1338,0,0
-427,-314,0,0,0,0,0,0,0,0,0,-1,797,1338,0,0
-420,-314,0,0,0,0,0,0,0,0,0,-1,804,1338,0,0
-413,-314,0,0,0,0,0,0,0,0,0,-1,811,1338,0,0
-406,-314,0,0,0,0,0,0,0,0,0,-1,818,1338,0,0
-399,-314,0,0,0,0,0,0,0,0,0,-1,825,1338,0,0
-392,-314,0,0,0,0,0,0,0,0,0,-1,832,1338,0,0
-385,-314,0,0,0,0,0,0,0,0,0,-1,839,1338,0,0
-378,-314,0,0,0,0,0,0,0,0,0,-1,846,1338,0,0
-371,-314,0,0,0,0,0,0,0,0,0,-1,853,1338,0,0
-364,-314,0,0,0,0,0,0,0,0,0,-1,860,1338,0,0
-357,-314,0,0,0,0,0,0,0,0,0,-1,867,1338,0,0
-350,-314,0,0,0,0,0,0,0,0,0,-1,874,1338,0,0
-343,-314,0,0,0,0,0,0,0,0,0,-1,881,1338,0,0
-336,-314,0,0,0,0,0,0,0,0,0,-1,888,1338,0,0
-329,-314,0,0,0,0,0,0,0,0,0,-1,895,1338,0,0
-322,-314,0,0,0,0,0,0,0,0,0,-1,902,1338,0,0
-315,-314,0,0,0,0,0,0,0,0,0,-1,909,1338,0,0
-308,-314,0,0,0,0,0,0,0,0,0,-1,916,1338,0,0
-301,-314,0,0,0,0,0,0,0,0,0,-1,923,1338,0,0
-294,-314,0,0,0,0,0,0,0,0,0,-1,930,1338,0,0
-287,-314,0,0,0,0,0,0,0,0,0,-1,937,1338,0,0
-280,-314,0,0,0,0,0,0,0,0,0,-1,944,1338,0,0
-273,-314,0,0,0,0,0,0,0,0,0,-1,951,1338,0,0
-266,-314,0,0,0,0,0,0,0,0,0,-1,958,1338,0,0
-259,-314,0,0,0,0,0,0,0,0,0,-1,965,1338,0,0
-252,-314,0,0,0,0,0,0,0,0,0,-1,972,1338,0,0
-245,-314,0,0,0,0,0,0,0,0,0,-1,979,1338,0,0
-238,-314,0,0,0,0,0,0,0,0,0,-1,986,1338,0,0
-231,-314,0,0,0,0,0,0,0,0,0,-1,993,1338,0,0
-224,-314,0,0,0,0,0,0,0,0,0,-1,1000,1338,0,0
-217,-314,0,0,0,0,0,0,0,0,0,-1,1007,1338,0,0
-210,-314,0,0,0,0,0,0,0,0,0,-1,1014,1338,0,0
-203,-314,0,0,0,0,0,0,0,0,0,-1,1021,1338,0,0
-196,-314,0,0,0,0,0,0,0,0,0,-1,1028,1338,0,0
-189,-314,0,0,0,0,0,0,0,0,0,-1,1035,1338,0,0
-182,-314,0,0,0,0,0,0,0,0,0,-1,1042,1338,0,0
-175,-314,0,0,0,0,0,0,0,0,0,-1,1049,1338,0,0
-168,-314,0,0,0,0,0,0,0,0,0,-1,1056,1338,0,0
-161,-314,0,0,0,0,0,0,0,0,0,-1,1063,1338,0,0
-154,-314,0,0,0,0,0,0,0,0,0,-1,1070,1338,0,0
-147,-314,0,0,0,0,0,0,0,0,0,-1,1077,1338,0,0
-140,-314,0,0,0,0,0,0,0,0,0,-1,1084,1338,0,0
-133,-314,0,0,0,0,0,0,0,0,0,-1,1091,1338,0,0
-126,-314,0,0,0,0,0,0,0,0,0,-1,1098,1338,0,0
-119,-314,0,0,0,0,0,0,0,0,0,-1,1105,1338,0,0
-112,-314,0,0,0,0,0,0,0,0,0,-1,1112,1338,0,0
-105,-314,0,0,0,0,0,0,0,0,0,-1,1119,1338,0,0
-98,-314,0,0,0,0,0,0,0,0,0,-1,1126,1338,0,0
-91,-314,0,0,0,0,0,0,0,0,0,-1,1133,1338,0,0
-84,-314,0,0,0,0,0,0,0,0,0,-1,1140,1338,0,0
-77,-314,0,0,0,0,0,0,0,0,0,-1,1147,1338,0,0
-70,-314,0,0,0,0,0,0,0,0,0,-1,1154,1338,0,0
-63,-314,0,0,0,0,0,0,0,0,0,-1,1161,1338,0,0
-56,-314,0,0,0,0,0,0,0,0,0,-1,1168,1338,0,0
-49,-314,0,0,0,0,0,0,0,0,0,-1,1175,1338,0,0
-42,-314,0,0,0,0,0,0,0,0,0,-1,1182,1338,0,0
-35,-314,0,0,0,0,0,0,0,0,0,-1,1189,1338,0,0
-28,-314,0,0,0,0,0,0,0,0,0,-1,1196,1338,0,0
-21,-314,0,0,0,0,0,0,0,0,0,-1,1203,1338,0,0
-14,-314,0,0,0,0,0,0,0,0,0,-1,1210,1338,0,0
-7,-314,0,0,0,0,0,0,0,0,0,-1,1217,1338,0,0
0,-314,0,0,0,0,0,0,0,0,0,-1,1224,1338,0,0
7,-314,0,0,0,0,0,0,0,0,0,-1,1231,1338,0,0
14,-314,0,0,0,0,0,0,0,0,0,-1,1238,1338,0,0
21,-314,0,0,0,0,0,0,0,0,0,-1,1245,1338,0,0
28,-314,0,0,0,0,0,0,0,0,0,-1,1252,1338,0,0
35,-314,0,0,0,0,0,0,0,0,0,-1,1259,1338,0,0
42,-314,0,0,0,0,0,0,0,0,0,-1,1266,1338,0,0
49,-314,0,0,0,0,0,0,0,0,0,-1,1273,1338,0,0
56,-314,0,0,0,0,0,0,0,0,0,-1,1280,1338,0,0
63,-314,0,0,0,0,0,0,0,0,0,-1,1287,1338,0,0
70,-314,0,0,0,0,0,0,0,0,0,-1,1294,1338,0,0
77,-314,0,0,0,0,0,0,0,0,0,-1,1301,1338,0,0
84,-314,0,0,0,0,0,0,0,0,0,-1,1308,1338,0,0
91,-314,0,0,0,0,0,0,0,0,0,-1,1315,1338,0,0
98,-314,0,0,0,0,0,0,0,0,0,-1,1322,1338,0,0
105,-314,0,0,0,0,0,0,0,0,0,-1,1329,1338,0,0
112,-314,0,0,0,0,0,0,0,0,0,-1,1336,1338,0,0
119,-314,0,0,0,0,0,0,0,0,0,-1,1343,1338,0,0
126,-314,0,0,0,0,0,0,0,0,0,-1,1350,1338,0,0
133,-314,0,0,0,0,0,0,0,0,0,-1,1357,1338,0,0
140,-314,0,0,0,0,0,0,0,0,0,-1,1364,1338,0,0
147,-314,0,0,0,0,0,0,0,0,0,-1,1371,1338,0,0
154,-314,0,0,0,0,0,0,0,0,0,-1,1378,1338,0,0
161,-314,0,0,0,0,0,0,0,0,0,-1,1385,1338,0,0
168,-314,0,0,0,0,0,0,0,0,0,-1,1392,1338,0,0
175,-314,0,0,0,0,0,0,0,0,0,-1,1399,1338,0,0
182,-314,0,0,0,0,0,0,0,0,0,-1,1406,1338,0,0
189,-314,0,0,0,0,0,0,0,0,0,-1,1413,1338,0,0
196,-314,0,0,0,0,0,0,0,0,0,-1,1420,1338,0,0
203,-314,0,0,0,0,0,0,0,0,0,-1,1427,1338,0,0
210,-314,0,0,0,0,0,0,0,0,0,-1,1434,1338,0,0
217,-314,0,0,0,0,0,0,0,0,0,-1,1441,1338,0,0
224,-314,0,0,0,0,0,0,0,0,0,-1,1448,1338,0,0
231,-314,0,0,0,0,0,0,0,0,0,-1,1455,1338,0,0
238,-314,0,0,0,0,0,0,0,0,0,-1,1462,1338,0,0
245,-314,0,0,0,0,0,0,0,0,0,-1,1469,1338,0,0
252,-314,0,0,0,0,0,0,0,0,0,-1,1476,1338,0,0
259,-314,0,0,0,0,0,0,0,0,0,-1,1483,1338,0,0
266,-314,0,0,0,0,0,0,0,0,0,-1,1490,1338,0,0
273,-314,0,0,0,0,0,0,0,0,0,-1,1497,1338,0,0
280,-314,0,0,0,0,0,0,0,0,0,-1,1504,1338,0,0
287,-314,0,0,0,0,0,0,0,0,0,-1,1511,1338,0,0
294,-314,0,0,0,0,0,0,0,0,0,-1,1518,1338,0,0
301,-314,0,0,0,0,0,0,0,0,0,-1,1525,1338,0,0
308,-314,0,0,0,0,0,0,0,0,0,-1,1532,1338,0,0
315,-314,0,0,0,0,0,0,0,0,0,-1,1539,1338,0,0
322,-314,0,0,0,0,0,0,0,0,0,-1,1546,1338,0,0
329,-314,0,0,0,0,0,0,0,0,0,-1,1553,1338,0,0
336,-314,0,0,0,0,0,0,0,0,0,-1,1560,1338,0,0
343,-314,0,0,0,0,0,0,0,0,0,-1,1567,1338,0,0
350,-314,0,0,0,0,0,0,0,0,0,-1,1574,1338,0,0
357,-314,0,0,0,0,0,0,0,0,0,-1,1581,1338,0,0
364,-314,0,0,0,0,0,0,0,0,0,-1,1588,1338,0,0
371,-314,0,0,0,0,0,0,0,0,0,-1,1595,1338,0,0
378,-314,0,0,0,0,0,0,0,0,0,-1,1602,1338,0,0
385,-314,0,0,0,0,0,0,0,0,0,-1,1609,1338,0,0
392,-314,0,0,0,0,0,0,0,0,0,-1,1616,1338,0,0
399,-314,0,0,0,0,0,0,0,0,0,-1,1623,1338,0,0
406,-314,0,0,0,0,0,0,0,0,0,-1,1630,1338,0,0
413,-314,0,0,0,0,0,0,0,0,0,-1,1637,1338,0,0
420,-314,0,0,0,0,0,0,0,0,0,-1,1644,1338,0,0
427,-314,0,0,0,0,0,0,0,0,0,-1,1651,1338,0,0
434,-314,0,0,0,0,0,0,0,0,0,-1,1658,1338,0,0
441,-314,0,0,0,0,0,0,0,0,0,-1,1665,1338,0,0
448,-314,0,0,0,0,0,0,0,0,0,-1,1672,1338,0,0
455,-314,0,0,0,0,0,0,0,0,0,-1,1679,1338,0,0
462,-314,0,0,0,0,0,0,0,0,0,-1,1686,1338,0,0
469,-314,0,0,0,0,0,0,0,0,0,-1,1693,1338,0,0
476,-314,0,0,0,0,0,0,0,0,0,-1,1700,1338,0,0
483,-314,0,0,0,0,0,0,0,0,0,-1,1707,1338,0,0
490,-314,0,0,0,0,0,0,0,0,0,-1,1714,1338,0,0
497,-314,0,0,0,0,0,0,0,0,0,-1,1721,1338,0,0
504,-314,0,0,0,0,0,0,0,0,0,-1,1728,1338,0,0
511,-314,0,0,0,0,0,0,0,0,0,-1,1735,1338,0,0
518,-314,0,0,0,0,0,0,0,0,0,-1,1742,1338,0,0
525,-314,0,0,0,0,0,0,0,0,0,-1,1749,1338,0,0
532,-314,0,0,0,0,0,0,0,0,0,-1,1756,1338,0,0
539,-314,0,0,0,0,0,0,0,0,0,-1,1763,1338,0,0
546,-314,0,0,0,0,0,0,0,0,0,-1,1770,1338,0,0
553,-314,0,0,0,0,0,0,0,0,0,-1,1777,1338,0,0
560,-314,0,0,0,0,0,0,0,0,0,-1,1784,1338,0,0
567,-314,0,0,0,0,0,0,0,0,0,-1,1791,1338,0,0
574,-314,0,0,0,0,0,0,0,0,0,-1,1798,1338,0,0
581,-314,26.3257,3.10205,0,0,0,0,0,0,0,-1,1805,1338,26.3257,-3.10202
588,-314,26.2523,2.90088,0,0,0,0,0,0,0,-1,1812,1338,26.2524,-2.90091
595,-314,26.1967,2.5896,0,0,0,0,0,0,0,-1,1819,1338,26.1966,-2.58955
602,-314,28.2283,3.47668,0,0,0,0,0,0,0,-1,1826,1338,28.2283,-3.47674
609,-314,26.171,2.65308,0,0,0,0,0,0,0,-1,1833,1338,26.171,-2.65308
616,-314,25.9943,2.50635,-0.0960857,-0.0147516,0.0202447,-0.0099912,-0.100846,1.33985,0.0641602,0.0461576,1840,1338,25.9942,-2.50631
623,-314,25.8379,2.81982,-0.0823358,-0.00973559,0.0168271,-0.00602506,-0.0860464,1.35376,0.0554651,0.0484199,1847,1338,25.8379,-2.81982
630,-314,24.5331,3.46082,0,0,0,0,0,0,0,-1,1854,1338,24.533,-3.46078
637,-314,22.1349,5.16418,0,0,0,0,0,0,0,-1,1861,1338,22.1349,-5.16414
644,-314,18.7517,6.2605,0,0,0,0,0,0,0,-1,1868,1338,18.7517,-6.26053
651,-314,19.8014,7.33875,0,0,0,0,0,0,0,-1,1875,1338,19.8014,-7.33871
658,-314,19.5254,7.57678,-0.0256,0.000604298,0.00661734,0.00218055,-0.0271762,1.33695,0.0188863,0.0434803,1882,1338,19.5254,-7.57677
665,-314,19.2306,7.69409,-0.0170127,-0.00038485,0.00567337,0.00136644,-0.018764,1.27139,0.0129888,0.0168063,1889,1338,19.2306,-7.69403
672,-314,19.262,7.44373,-0.0110753,-0.000232936,0.00455316,0.00142547,-0.0127337,1.2215,0.00900199,0.0116818,1896,1338,19.2619,-7.44367
679,-314,19.2511,7.16577,-0.00639141,-0.000404195,0.00352784,0.00122901,-0.00802461,1.13723,0.00580296,0.010555,1903,1338,19.2511,-7.16573
686,-314,19.2213,6.89453,-0.00326275,-0.00128621,0.00239136,0.000313042,-0.004862,0.981344,0.00335056,0.0122855,1910,1338,19.2213,-6.89458
693,-314,19.2249,6.62891,-0.00225548,-0.000191039,0.00136967,0.000491811,-0.00293833,1.10831,0.00214173,0.0118491,1917,1338,19.2249,-6.62892
700,-314,19.2397,6.37036,-0.0014231,0.000854782,0.000369387,0.000913185,-0.0014815,1.41399,0.00139549,0.0124383,1924,1338,19.2398,-6.37041
707,-314,19.2399,6.11841,-0.000797895,0.00196983,-0.000498086,0.00205674,-0.000884803,-1.39805,0.00174265,0.0120934,1931,1338,19.2398,-6.11836
714,-314,19.2323,5.8811,-0.00047793,0.00303358,-0.00152553,0.00360374,-0.0010481,-1.21312,0.00281761,0.0106171,1938,1338,19.2322,-5.88104
721,-314,19.2698,5.65784,-0.0012297,0.00400728,-0.00331756,0.00561522,-0.00283764,-1.11948,0.00496731,0.0170009,1945,1338,19.2697,-5.65784
728,-314,19.0923,5.45569,-0.00220857,0.0049773,-0.00577315,0.00818425,-0.00541551,-1.06374,0.00790588,0.0371692,1952,1338,19.0923,-5.45568
735,-314,18.954,5.01575,-0.0037008,0.00581276,-0.00980968,0.0119581,-0.00984616,-1.01115,0.0126084,0.0443729,1959,1338,18.954,-5.01569
742,-314,18.5327,4.88708,0,0,0,0,0,0,0,-1,1966,1338,18.5327,-4.88708
749,-314,21.0118,4.93518,0,0,0,0,0,0,0,-1,1973,1338,21.0119,-4.93517
756,-314,21.9174,5.31555,0,0,0,0,0,0,0,-1,1980,1338,21.9174,-5.31553
763,-314,18.5018,2.60217,0,0,0,0,0,0,0,-1,1987,1338,18.5018,-2.60218
770,-314,0,0,0,0,0,0,0,0,0,-1,1994,1338,0,0
777,-314,0,0,0,0,0,0,0,0,0,-1,2001,1338,0,0
784,-314,0,0,0,0,0,0,0,0,0,-1,2008,1338,0,0
791,-314,0,0,0,0,0,0,0,0,0,-1,2015,1338,0,0
798,-314,0,0,0,0,0,0,0,0,0,-1,2022,1338,0,0
805,-314,0,0,0,0,0,0,0,0,0,-1,2029,1338,0,0
812,-314,0,0,0,0,0,0,0,0,0,-1,2036,1338,0,0
-700,-321,0,0,0,0,0,0,0,0,0,-1,524,1345,0,0
-693,-321,0,0,0,0,0,0,0,0,0,-1,531,1345,0,0
-686,-321,0,0,0,0,0,0,0,0,0,-1,538,1345,0,0
-679,-321,0,0,0,0,0,0,0,0,0,-1,545,1345,0,0
-672,-321,0,0,0,0,0,0,0,0,0,-1,552,1345,0,0
-665,-321,0,0,0,0,0,0,0,0,0,-1,559,1345,0,0
-658,-321,0,0,0,0,0,0,0,0,0,-1,566,1345,0,0
-651,-321,0,0,0,0,0,0,0,0,0,-1,573,1345,0,0
-644,-321,-9.60559,-1.42322,0,0,0,0,0,0,0,-1,580,1345,-9.60561,1.42322
-637,-321,-9.51685,-1.29211,0,0,0,0,0,0,0,-1,587,1345,-9.51686,1.29212
-630,-321,-12.9164,2.08923,0,0,0,0,0,0,0,-1,594,1345,-12.9164,-2.08925
-623,-321,-11.2291,2.31238,0,0,0,0,0,0,0,-1,601,1345,-11.2291,-2.3124
-616,-321,-9.43048,2.25867,0,0,0,0,0,0,0,-1,608,1345,-9.43045,-2.2587
-609,-321,-7.95209,1.14758,0,0,0,0,0,0,0,-1,615,1345,-7.95208,-1.14757
-602,-321,-8.85791,2.50049,0,0,0,0,0,0,0,-1,622,1345,-8.85791,-2.50048
-595,-321,-9.83276,2.97278,0,0,0,0,0,0,0,-1,629,1345,-9.83278,-2.97282
-588,-321,-9.62988,3.31909,-0.00344111,-0.00154819,-0.00122376,-0.000947597,-0.0040417,-1.11455,0.00244071,0.0248683,636,1345,-9.62988,-3.31914
-581,-321,-9.58118,3.68347,-0.00277357,-0.0013411,-0.00133294,-0.000544149,-0.00357052,-1.03193,0.00222129,0.0132804,643,1345,-9.5812,-3.68343
-574,-321,-9.5929,3.97949,-0.00198599,-0.00113469,-0.00129603,-0.000196199,-0.00292448,-0.944061,0.00188765,0.0157451,650,1345,-9.5929,-3.97951
-567,-321,-9.59399,4.255,-0.00110049,-0.000819939,-0.00106251,0.000111513,-0.00203194,-0.85103,0.00139329,0.0212787,657,1345,-9.59398,-4.25497
-560,-321,-9.57043,4.55786,-0.000141191,-0.000669683,-0.000823236,0.000459169,-0.00127004,-0.6301,0.0010343,0.0251083,664,1345,-9.57043,-4.55783
-553,-321,-9.5993,4.83179,0.000929497,-0.000315878,-0.000403717,0.00104892,-0.0004353,-0.287606,0.000880987,0.0258279,671,1345,-9.59932,-4.83177
-546,-321,-9.64618,5.10706,0.0020667,-4.60831e-05,4.98325e-05,0.00206788,-4.72579e-05,0.0235687,0.0013946,0.0252963,678,1345,-9.64616,-5.107
-539,-321,-9.65948,5.43494,0.00324143,0.000175547,0.000506189,0.00332284,9.41349e-05,0.159467,0.00218452,0.0233056,685,1345,-9.65946,-5.43496
-532,-321,-9.53394,5.74939,0.00446865,0.00021195,0.000910958,0.0046554,2.51937e-05,0.202209,0.00309524,0.0206494,692,1345,-9.53395,-5.7494
-525,-321,-9.54822,6.17993,0.00560506,-9.61622e-05,0.000944459,0.00575744,-0.000248547,0.159968,0.00392377,0.0457877,699,1345,-9.54823,-6.17993
-518,-321,-9.70453,6.53345,0,0,0,0,0,0,0,-1,706,1345,-9.70452,-6.53347
-511,-321,-9.3302,5.29297,0,0,0,0,0,0,0,-1,713,1345,-9.33023,-5.29294
-504,-321,-10.4713,0.0145264,0,0,0,0,0,0,0,-1,720,1345,-10.4713,-0.0145296
-497,-321,-9.96771,0.313599,0,0,0,0,0,0,0,-1,727,1345,-9.96769,-0.313618
-490,-321,-10.7631,0.973511,0,0,0,0,0,0,0,-1,734,1345,-10.7631,-0.97353
-483,-321,-11.5586,1.63342,0,0,0,0,0,0,0,-1,741,1345,-11.5586,-1.63344
-476,-321,-12.3351,0.269897,0,0,0,0,0,0,0,-1,748,1345,-12.3351,-0.269887
-469,-321,-12.7842,0.195679,0,0,0,0,0,0,0,-1,755,1345,-12.7842,-0.195644
-462,-321,-13.8533,0.309937,0,0,0,0,0,0,0,-1,762,1345,-13.8533,-0.309916
-455,-321,0,0,0,0,0,0,0,0,0,-1,769,1345,0,0
-448,-321,0,0,0,0,0,0,0,0,0,-1,776,1345,0,0
-441,-321,0,0,0,0,0,0,0,0,0,-1,783,1345,0,0
-434,-321,0,0,0,0,0,0,0,0,0,-1,790,1345,0,0
-427,-321,0,0,0,0,0,0,0,0,0,-1,797,1345,0,0
-420,-321,0,0,0,0,0,0,0,0,0,-1,804,1345,0,0
-413,-321,0,0,0,0,0,0,0,0,0,-1,811,1345,0,0
-406,-321,0,0,0,0,0,0,0,0,0,-1,818,1345,0,0
-399,-321,0,0,0,0,0,0,0,0,0,-1,825,1345,0,0
-392,-321,0,0,0,0,0,0,0,0,0,-1,832,1345,0,0
-385,-321,0,0,0,0,0,0,0,0,0,-1,839,1345,0,0
-378,-321,0,0,0,0,0,0,0,0,0,-1,846,1345,0,0
-371,-321,0,0,0,0,0,0,0,0,0,-1,853,1345,0,0
-364,-321,0,0,0,0,0,0,0,0,0,-1,860,1345,0,0
-357,-321,0,0,0,0,0,0,0,0,0,-1,867,1345,0,0
-350,-321,0,0,0,0,0,0,0,0,0,-1,874,1345,0,0
-343,-321,0,0,0,0,0,0,0,0,0,-1,881,1345,0,0
-336,-321,0,0,0,0,0,0,0,0,0,-1,888,1345,0,0
-329,-321,0,0,0,0,0,0,0,0,0,-1,895,1345,0,0
-322,-321,0,0,0,0,0,0,0,0,0,-1,902,1345,0,0
-315,-321,0,0,0,0,0,0,0,0,0,-1,909,1345,0,0
-308,-321,0,0,0,0,0,0,0,0,0,-1,916,1345,0,0
-301,-321,0,0,0,0,0,0,0,0,0,-1,923,1345,0,0
-294,-321,0,0,0,0,0,0,0,0,0,-1,930,1345,0,0
-287,-321,0,0,0,0,0,0,0,0,0,-1,937,1345,0,0
-280,-321,0,0,0,0,0,0,0,0,0,-1,944,1345,0,0
-273,-321,0,0,0,0,0,0,0,0,0,-1,951,1345,0,0
-266,-321,0,0,0,0,0,0,0,0,0,-1,958,1345,0,0
-259,-321,0,0,0,0,0,0,0,0,0,-1,965,1345,0,0
-252,-321,0,0,0,0,0,0,0,0,0,-1,972,1345,0,0
-245,-321,0,0,0,0,0,0,0,0,0,-1,979,1345,0,0
-238,-321,0,0,0,0,0,0,0,0,0,-1,986,1345,0,0
-231,-321,0,0,0,0,0,0,0,0,0,-1,993,1345,0,0
-224,-321,0,0,0,0,0,0,0,0,0,-1,1000,1345,0,0
-217,-321,0,0,0,0,0,0,0,0,0,-1,1007,1345,0,0
-210,-321,0,0,0,0,0,0,0,0,0,-1,1014,1345,0,0
-203,-321,0,0,0,0,0,0,0,0,0,-1,1021,1345,0,0
-196,-321,0,0,0,0,0,0,0,0,0,-1,1028,1345,0,0
-189,-321,0,0,0,0,0,0,0,0,0,-1,1035,1345,0,0
-182,-321,0,0,0,0,0,0,0,0,0,-1,1042,1345,0,0
-175,-321,0,0,0,0,0,0,0,0,0,-1,1049,1345,0,0
-168,-321,0,0,0,0,0,0,0,0,0,-1,1056,1345,0,0
-161,-321,0,0,0,0,0,0,0,0,0,-1,1063,1345,0,0
-154,-321,0,0,0,0,0,0,0,0,0,-1,1070,1345,0,0
-147,-321,0,0,0,0,0,0,0,0,0,-1,1077,1345,0,0
-140,-321,0,0,0,0,0,0,0,0,0,-1,1084,1345,0,0
-133,-321,0,0,0,0,0,0,0,0,0,-1,1091,1345,0,0
-126,-321,0,0,0,0,0,0,0,0,0,-1,1098,1345,0,0
-119,-321,0,0,0,0,0,0,0,0,0,-1,1105,1345,0,0
-112,-321,0,0,0,0,0,0,0,0,0,-1,1112,1345,0,0
-105,-321,0,0,0,0,0,0,0,0,0,-1,1119,1345,0,0
-98,-321,0,0,0,0,0,0,0,0,0,-1,1126,1345,0,0
-91,-321,0,0,0,0,0,0,0,0,0,-1,1133,1345,0,0
-84,-321,0,0,0,0,0,0,0,0,0,-1,1140,1345,0,0
-77,-321,0,0,0,0,0,0,0,0,0,-1,1147,1345,0,0
-70,-321,0,0,0,0,0,0,0,0,0,-1,1154,1345,0,0
-63,-321,0,0,0,0,0,0,0,0,0,-1,1161,1345,0,0
-56,-321,0,0,0,0,0,0,0,0,0,-1,1168,1345,0,0
-49,-321,0,0,0,0,0,0,0,0,0,-1,1175,1345,0,0
-42,-321,0,0,0,0,0,0,0,0,0,-1,1182,1345,0,0
-35,-321,0,0,0,0,0,0,0,0,0,-1,1189,1345,0,0
-28,-321,0,0,0,0,0,0,0,0,0,-1,1196,1345,0,0
-21,-321,0,0,0,0,0,0,0,0,0,-1,1203,1345,0,0
-14,-321,0,0,0,0,0,0,0,0,0,-1,1210,1345,0,0
-7,-321,0,0,0,0,0,0,0,0,0,-1,1217,1345,0,0
0,-321,0,0,0,0,0,0,0,0,0,-1,1224,1345,0,0
7,-321,0,0,0,0,0,0,0,0,0,-1,1231,1345,0,0
14,-321,0,0,0,0,0,0,0,0,0,-1,1238,1345,0,0
21,-321,0,0,0,0,0,0,0,0,0,-1,1245,1345,0,0
28,-321,0,0,0,0,0,0,0,0,0,-1,1252,1345,0,0
35,-321,0,0,0,0,0,0,0,0,0,-1,1259,1345,0,0
42,-321,0,0,0,0,0,0,0,0,0,-1,1266,1345,0,0
49,-321,0,0,0,0,0,0,0,0,0,-1,1273,1345,0,0
56,-321,0,0,0,0,0,0,0,0,0,-1,1280,1345,0,0
63,-321,0,0,0,0,0,0,0,0,0,-1,1287,1345,0,0
70,-321,0,0,0,0,0,0,0,0,0,-1,1294,1345,0,0
77,-321,0,0,0,0,0,0,0,0,0,-1,1301,1345,0,0
84,-321,0,0,0,0,0,0,0,0,0,-1,1308,1345,0,0
91,-321,0,0,0,0,0,0,0,0,0,-1,1315,1345,0,0
98,-321,0,0,0,0,0,0,0,0,0,-1,1322,1345,0,0
105,-321,0,0,0,0,0,0,0,0,0,-1,1329,1345,0,0
112,-321,0,0,0,0,0,0,0,0,0,-1,1336,1345,0,0
119,-321,0,0,0,0,0,0,0,0,0,-1,1343,1345,0,0
126,-321,0,0,0,0,0,0,0,0,0,-1,1350,1345,0,0
133,-321,0,0,0,0,0,0,0,0,0,-1,1357,1345,0,0
140,-321,0,0,0,0,0,0,0,0,0,-1,1364,1345,0,0
147,-321,0,0,0,0,0,0,0,0,0,-1,1371,1345,0,0
154,-321,0,0,0,0,0,0,0,0,0,-1,1378,1345,0,0
161,-321,0,0,0,0,0,0,0,0,0,-1,1385,1345,0,0
168,-321,0,0,0,0,0,0,0,0,0,-1,1392,1345,0,0
175,-321,0,0,0,0,0,0,0,0,0,-1,1399,1345,0,0
182,-321,0,0,0,0,0,0,0,0,0,-1,1406,1345,0,0
189,-321,0,0,0,0,0,0,0,0,0,-1,1413,1345,0,0
196,-321,0,0,0,0,0,0,0,0,0,-1,1420,1345,0,0
203,-321,0,0,0,0,0,0,0,0,0,-1,1427,1345,0,0
210,-321,0,0,0,0,0,0,0,0,0,-1,1434,1345,0,0
217,-321,0,0,0,0,0,0,0,0,0,-1,1441,1345,0,0
224,-321,0,0,0,0,0,0,0,0,0,-1,1448,1345,0,0
231,-321,0,0,0,0,0,0,0,0,0,-1,1455,1345,0,0
238,-321,0,0,0,0,0,0,0,0,0,-1,1462,1345,0,0
245,-321,0,0,0,0,0,0,0,0,0,-1,1469,1345,0,0
252,-321,0,0,0,0,0,0,0,0,0,-1,1476,1345,0,0
259,-321,0,0,0,0,0,0,0,0,0,-1,1483,1345,0,0
266,-321,0,0,0,0,0,0,0,0,0,-1,1490,1345,0,0
273,-321,0,0,0,0,0,0,0,0,0,-1,1497,1345,0,0
280,-321,0,0,0,0,0,0,0,0,0,-1,1504,1345,0,0
287,-321,0,0,0,0,0,0,0,0,0,-1,1511,1345,0,0
294,-321,0,0,0,0,0,0,0,0,0,-1,1518,1345,0,0
301,-321,0,0,0,0,0,0,0,0,0,-1,1525,1345,0,0
308,-321,0,0,0,0,0,0,0,0,0,-1,1532,1345,0,0
315,-321,0,0,0,0,0,0,0,0,0,-1,1539,1345,0,0
322,-321,0,0,0,0,0,0,0,0,0,-1,1546,1345,0,0
329,-321,0,0,0,0,0,0,0,0,0,-1,1553,1345,0,0
336,-321,0,0,0,0,0,0,0,0,0,-1,1560,1345,0,0
343,-321,0,0,0,0,0,0,0,0,0,-1,1567,1345,0,0
350,-321,0,0,0,0,0,0,0,0,0,-1,1574,1345,0,0
357,-321,0,0,0,0,0,0,0,0,0,-1,1581,1345,0,0
364,-321,0,0,0,0,0,0,0,0,0,-1,1588,1345,0,0
371,-321,0,0,0,0,0,0,0,0,0,-1,1595,1345,0,0
378,-321,0,0,0,0,0,0,0,0,0,-1,1602,1345,0,0
385,-321,0,0,0,0,0,0,0,0,0,-1,1609,1345,0,0
392,-321,0,0,0,0,0,0,0,0,0,-1,1616,1345,0,0
399,-321,0,0,0,0,0,0,0,0,0,-1,1623,1345,0,0
406,-321,0,0,0,0,0,0,0,0,0,-1,1630,1345,0,0
413,-321,0,0,0,0,0,0,0,0,0,-1,1637,1345,0,0
420,-321,0,0,0,0,0,0,0,0,0,-1,1644,1345,0,0
427,-321,0,0,0,0,0,0,0,0,0,-1,1651,1345,0,0
434,-321,0,0,0,0,0,0,0,0,0,-1,1658,1345,0,0
441,-321,0,0,0,0,0,0,0,0,0,-1,1665,1345,0,0
448,-321,0,0,0,0,0,0,0,0,0,-1,1672,1345,0,0
455,-321,0,0,0,0,0,0,0,0,0,-1,1679,1345,0,0
462,-321,0,0,0,0,0,0,0,0,0,-1,1686,1345,0,0
469,-321,0,0,0,0,0,0,0,0,0,-1,1693,1345,0,0
476,-321,0,0,0,0,0,0,0,0,0,-1,1700,1345,0,0
483,-321,0,0,0,0,0,0,0,0,0,-1,1707,1345,0,0
490,-321,0,0,0,0,0,0,0,0,0,-1,1714,1345,0,0
497,-321,0,0,0,0,0,0,0,0,0,-1,1721,1345,0,0
504,-321,0,0,0,0,0,0,0,0,0,-1,1728,1345,0,0
511,-321,0,0,0,0,0,0,0,0,0,-1,1735,1345,0,0
518,-321,0,0,0,0,0,0,0,0,0,-1,1742,1345,0,0
525,-321,0,0,0,0,0,0,0,0,0,-1,1749,1345,0,0
532,-321,0,0,0,0,0,0,0,0,0,-1,1756,1345,0,0
539,-321,0,0,0,0,0,0,0,0,0,-1,1763,1345,0,0
546,-321,0,0,0,0,0,0,0,0,0,-1,1770,1345,0,0
553,-321,0,0,0,0,0,0,0,0,0,-1,1777,1345,0,0
560,-321,0,0,0,0,0,0,0,0,0,-1,1784,1345,0,0
567,-321,0,0,0,0,0,0,0,0,0,-1,1791,1345,0,0
574,-321,0,0,0,0,0,0,0,0,0,-1,1798,1345,0,0
581,-321,26.3009,2.84692,0,0,0,0,0,0,0,-1,1805,1345,26.3009,-2.84694
588,-321,26.2925,2.6582,0,0,0,0,0,0,0,-1,1812,1345,26.2924,-2.65818
595,-321,28.5955,3.81372,0,0,0,0,0,0,0,-1,1819,1345,28.5954,-3.8137
602,-321,26.6156,3.27356,-0.123501,-0.0339743,0.0351293,-0.0218357,-0.13564,1.2381,0.0840982,0.0474409,1826,1345,26.6156,-3.27357
609,-321,24.5323,3.05725,-0.113044,-0.0263156,0.0287244,-0.017665,-0.121695,1.27828,0.0759296,0.0472952,1833,1345,24.5323,-3.05723
616,-321,25.266,2.62866,0,0,0,0,0,0,0,-1,1840,1345,25.266,-2.6286
623,-321,25.0375,3.37952,0,0,0,0,0,0,0,-1,1847,1345,25.0374,-3.37956
630,-321,23.6674,4.34106,0,0,0,0,0,0,0,-1,1854,1345,23.6674,-4.34112
637,-321,21.7925,6.79224,0,0,0,0,0,0,0,-1,1861,1345,21.7925,-6.7922
644,-321,16.8844,6.71973,0,0,0,0,0,0,0,-1,1868,1345,16.8844,-6.71971
651,-321,19.4097,7.79358,0,0,0,0,0,0,0,-1,1875,1345,19.4097,-7.79361
658,-321,19.1086,7.87341,-0.0251618,-0.00155378,0.00606983,-8.46079e-05,-0.026631,1.33332,0.0177259,0.0350262,1882,1345,19.1086,-7.87339
665,-321,19.0022,7.71619,-0.0155746,-0.00197892,0.00498993,-0.000344082,-0.0172095,1.25419,0.01136,0.0163333,1889,1345,19.0022,-7.71618
672,-321,19.016,7.43311,-0.0092741,-0.00112341,0.00387001,0.000421334,-0.0108188,1.19102,0.00735703,0.0126707,1896,1345,19.016,-7.43314
679,-321,18.9915,7.16797,-0.00512684,-0.000663144,0.00281019,0.000693645,-0.00648363,1.12099,0.00457121,0.0113761,1903,1345,18.9915,-7.16791
686,-321,18.9662,6.90588,-0.00255338,-0.000877914,0.00183116,0.000298042,-0.00372934,0.99993,0.00259129,0.0112756,1910,1345,18.9662,-6.9059
693,-321,18.9658,6.651,-0.00166036,0.000294212,0.000932476,0.000667704,-0.00203385,1.18983,0.00162486,0.0114282,1917,1345,18.9658,-6.65096
700,-321,18.9653,6.38782,-0.000934695,0.00142882,1.38384e-05,0.0014289,-0.000934776,1.56494,0.00137457,0.0109788,1924,1345,18.9653,-6.3878
707,-321,18.9878,6.11829,-0.000406981,0.00265113,-0.000806278,0.00285069,-0.000606536,-1.32817,0.0021316,0.0125748,1931,1345,18.9878,-6.11825
714,-321,18.9717,5.85791,-0.000172978,0.00390242,-0.00158457,0.00444602,-0.000716572,-1.24032,0.00322948,0.0121285,1938,1345,18.9717,-5.85789
721,-321,18.9611,5.59802,-0.000796152,0.00518963,-0.00300015,0.00643447,-0.00204099,-1.17749,0.00510776,0.0229895,1945,1345,18.9611,-5.59797
728,-321,18.8285,5.49854,-0.00147586,0.00673758,-0.0049307,0.00904778,-0.00378606,-1.13264,0.00761438,0.0388608,1952,1345,18.8285,-5.49851
735,-321,19.312,5.3988,-0.00242655,0.00831988,-0.00831086,0.0128432,-0.0069499,-1.07236,0.0115952,0.0457438,1959,1345,19.312,-5.39877
742,-321,19.9045,5.30042,0,0,0,0,0,0,0,-1,1966,1345,19.9046,-5.30045
749,-321,20.356,5.06311,0,0,0,0,0,0,0,-1,1973,1345,20.356,-5.06314
756,-321,20.9575,4.70227,0,0,0,0,0,0,0,-1,1980,1345,20.9576,-4.70232
763,-321,18.5568,2.37817,0,0,0,0,0,0,0,-1,1987,1345,18.5568,-2.37812
770,-321,0,0,0,0,0,0,0,0,0,-1,1994,1345,0,0
777,-321,0,0,0,0,0,0,0,0,0,-1,2001,1345,0,0
784,-321,0,0,0,0,0,0,0,0,0,-1,2008,1345,0,0
791,-321,0,0,0,0,0,0,0,0,0,-1,2015,1345,0,0
798,-321,0,0,0,0,0,0,0,0,0,-1,2022,1345,0,0
805,-321,0,0,0,0,0,0,0,0,0,-1,2029,1345,0,0
812,-321,0,0,0,0,0,0,0,0,0,-1,2036,1345,0,0
-700,-328,0,0,0,0,0,0,0,0,0,-1,524,1352,0,0
-693,-328,0,0,0,0,0,0,0,0,0,-1,531,1352,0,0
-686,-328,0,0,0,0,0,0,0,0,0,-1,538,1352,0,0
-679,-328,0,0,0,0,0,0,0,0,0,-1,545,1352,0,0
-672,-328,0,0,0,0,0,0,0,0,0,-1,552,1352,0,0
-665,-328,0,0,0,0,0,0,0,0,0,-1,559,1352,0,0
-658,-328,0,0,0,0,0,0,0,0,0,-1,566,1352,0,0
-651,-328,0,0,0,0,0,0,0,0,0,-1,573,1352,0,0
-644,-328,0,0,0,0,0,0,0,0,0,-1,580,1352,0,0
-637,-328,-8.48846,-1.58057,0,0,0,0,0,0,0,-1,587,1352,-8.48846,1.58056
-630,-328,-8.60864,-2.23022,0,0,0,0,0,0,0,-1,594,1352,-8.60866,2.23021
-623,-328,-10.6782,2.60156,0,0,0,0,0,0,0,-1,601,1352,-10.6782,-2.60156
-616,-328,-8.22198,-0.25708,0,0,0,0,0,0,0,-1,608,1352,-8.22201,0.257067
-609,-328,-7.87439,0.192871,0,0,0,0,0,0,0,-1,615,1352,-7.87441,-0.192822
-602,-328,-7.63062,1.31665,0,0,0,0,0,0,0,-1,622,1352,-7.63064,-1.3166
-595,-328,-9.5061,2.82178,0,0,0,0,0,0,0,-1,629,1352,-9.50607,-2.82183
-588,-328,-9.22656,3.22437,-0.00505895,-0.00252417,-0.00318099,-0.000367389,-0.00721573,-0.974972,0.00469282,0.0484576,636,1352,-9.22653,-3.22436
-581,-328,-9.31305,3.65491,-0.00415293,-0.00201365,-0.0028397,-4.88197e-05,-0.00611776,-0.965516,0.00406233,0.0169709,643,1352,-9.31302,-3.65492
-574,-328,-9.28906,3.98242,-0.00314013,-0.00162705,-0.00246323,0.000193204,-0.00496039,-0.934392,0.00337317,0.0148294,650,1352,-9.28907,-3.98246
-567,-328,-9.3172,4.27783,-0.00203602,-0.00117095,-0.00192624,0.000370721,-0.00357769,-0.895841,0.00251782,0.0194167,657,1352,-9.3172,-4.27781
-560,-328,-9.26862,4.60461,-0.000887551,-0.000899288,-0.00141147,0.000518061,-0.0023049,-0.783319,0.00173526,0.0270107,664,1352,-9.26861,-4.6046
-553,-328,-9.29498,4.88513,0.000367484,-0.00049093,-0.000789443,0.000836853,-0.000960299,-0.536408,0.0010384,0.0285863,671,1352,-9.29499,-4.88509
-546,-328,-9.33728,5.15735,0.00171552,-0.000197545,-0.000153199,0.00172771,-0.000209735,-0.0794058,0.00122771,0.0261033,678,1352,-9.33728,-5.15738
-539,-328,-9.32678,5.44031,0.00308828,2.35987e-05,0.000463564,0.00315687,-4.4985e-05,0.146884,0.00211973,0.0223505,685,1352,-9.32679,-5.44033
-532,-328,-9.30475,5.75232,0.00452067,8.37454e-05,0.00104049,0.00475256,-0.000148139,0.219277,0.00321889,0.0161304,692,1352,-9.30476,-5.75235
-525,-328,-9.26208,6.078,0.00595725,-0.000213581,0.00129732,0.00621889,-0.000475227,0.199013,0.00431307,0.015423,699,1352,-9.26211,-6.07799
-518,-328,-9.21899,6.45776,0.00743371,-0.000333429,0.00134358,0.00765955,-0.000559277,0.166538,0.00530264,0.0483874,706,1352,-9.21898,-6.45777
-511,-328,-9.15521,6.81458,0,0,0,0,0,0,0,-1,713,1352,-9.15521,-6.81458
-504,-328,-8.60626,-0.905762,0,0,0,0,0,0,0,-1,720,1352,-8.60623,0.905787
-497,-328,-9.29102,-0.0517578,0,0,0,0,0,0,0,-1,727,1352,-9.29104,0.0518175
-490,-328,-10.0663,0.882813,0,0,0,0,0,0,0,-1,734,1352,-10.0663,-0.882795
-483,-328,-10.8181,1.72375,0,0,0,0,0,0,0,-1,741,1352,-10.8181,-1.72374
-476,-328,-12.1125,-0.0240479,0,0,0,0,0,0,0,-1,748,1352,-12.1125,0.024076
-469,-328,-12.9481,0.130005,0,0,0,0,0,0,0,-1,755,1352,-12.9481,-0.130043
-462,-328,-13.758,0.238892,0,0,0,0,0,0,0,-1,762,1352,-13.758,-0.238923
-455,-328,0,0,0,0,0,0,0,0,0,-1,769,1352,0,0
-448,-328,0,0,0,0,0,0,0,0,0,-1,776,1352,0,0
-441,-328,0,0,0,0,0,0,0,0,0,-1,783,1352,0,0
-434,-328,0,0,0,0,0,0,0,0,0,-1,790,1352,0,0
-427,-328,0,0,0,0,0,0,0,0,0,-1,797,1352,0,0
-420,-328,0,0,0,0,0,0,0,0,0,-1,804,1352,0,0
-413,-328,0,0,0,0,0,0,0,0,0,-1,811,1352,0,0
-406,-328,0,0,0,0,0,0,0,0,0,-1,818,1352,0,0
-399,-328,0,0,0,0,0,0,0,0,0,-1,825,1352,0,0
-392,-328,0,0,0,0,0,0,0,0,0,-1,832,1352,0,0
-385,-328,0,0,0,0,0,0,0,0,0,-1,839,1352,0,0
-378,-328,0,0,0,0,0,0,0,0,0,-1,846,1352,0,0
-371,-328,0,0,0,0,0,0,0,0,0,-1,853,1352,0,0
-364,-328,0,0,0,0,0,0,0,0,0,-1,860,1352,0,0
-357,-328,0,0,0,0,0,0,0,0,0,-1,867,1352,0,0
-350,-328,0,0,0,0,0,0,0,0,0,-1,874,1352,0,0
-343,-328,0,0,0,0,0,0,0,0,0,-1,881,1352,0,0
-336,-328,0,0,0,0,0,0,0,0,0,-1,888,1352,0,0
-329,-328,0,0,0,0,0,0,0,0,0,-1,895,1352,0,0
-322,-328,0,0,0,0,0,0,0,0,0,-1,902,1352,0,0
-315,-328,0,0,0,0,0,0,0,0,0,-1,909,1352,0,0
-308,-328,0,0,0,0,0,0,0,0,0,-1,916,1352,0,0
-301,-328,0,0,0,0,0,0,0,0,0,-1,923,1352,0,0
-294,-328,0,0,0,0,0,0,0,0,0,-1,930,1352,0,0
-287,-328,0,0,0,0,0,0,0,0,0,-1,937,1352,0,0
-280,-328,0,0,0,0,0,0,0,0,0,-1,944,1352,0,0
-273,-328,0,0,0,0,0,0,0,0,0,-1,951,1352,0,0
-266,-328,0,0,0,0,0,0,0,0,0,-1,958,1352,0,0
-259,-328,0,0,0,0,0,0,0,0,0,-1,965,1352,0,0
-252,-328,0,0,0,0,0,0,0,0,0,-1,972,1352,0,0
-245,-328,0,0,0,0,0,0,0,0,0,-1,979,1352,0,0
-238,-328,0,0,0,0,0,0,0,0,0,-1,986,1352,0,0
-231,-328,0,0,0,0,0,0,0,0,0,-1,993,1352,0,0
-224,-328,0,0,0,0,0,0,0,0,0,-1,1000,1352,0,0
-217,-328,0,0,0,0,0,0,0,0,0,-1,1007,1352,0,0
-210,-328,0,0,0,0,0,0,0,0,0,-1,1014,1352,0,0
-203,-328,0,0,0,0,0,0,0,0,0,-1,1021,1352,0,0
-196,-328,0,0,0,0,0,0,0,0,0,-1,1028,1352,0,0
-189,-328,0,0,0,0,0,0,0,0,0,-1,1035,1352,0,0
-182,-328,0,0,0,0,0,0,0,0,0,-1,1042,1352,0,0
-175,-328,0,0,0,0,0,0,0,0,0,-1,1049,1352,0,0
-168,-328,0,0,0,0,0,0,0,0,0,-1,1056,1352,0,0
-161,-328,0,0,0,0,0,0,0,0,0,-1,1063,1352,0,0
-154,-328,0,0,0,0,0,0,0,0,0,-1,1070,1352,0,0
-147,-328,0,0,0,0,0,0,0,0,0,-1,1077,1352,0,0
-140,-328,0,0,0,0,0,0,0,0,0,-1,1084,1352,0,0
-133,-328,0,0,0,0,0,0,0,0,0,-1,1091,1352,0,0
-126,-328,0,0,0,0,0,0,0,0,0,-1,1098,1352,0,0
-119,-328,0,0,0,0,0,0,0,0,0,-1,1105,1352,0,0
-112,-328,0,0,0,0,0,0,0,0,0,-1,1112,1352,0,0
-105,-328,0,0,0,0,0,0,0,0,0,-1,1119,1352,0,0
-98,-328,0,0,0,0,0,0,0,0,0,-1,1126,1352,0,0
-91,-328,0,0,0,0,0,0,0,0,0,-1,1133,1352,0,0
-84,-328,0,0,0,0,0,0,0,0,0,-1,1140,1352,0,0
-77,-328,0,0,0,0,0,0,0,0,0,-1,1147,1352,0,0
-70,-328,0,0,0,0,0,0,0,0,0,-1,1154,1352,0,0
-63,-328,0,0,0,0,0,0,0,0,0,-1,1161,1352,0,0
-56,-328,0,0,0,0,0,0,0,0,0,-1,1168,1352,0,0
-49,-328,0,0,0,0,0,0,0,0,0,-1,1175,1352,0,0
-42,-328,0,0,0,0,0,0,0,0,0,-1,1182,1352,0,0
-35,-328,0,0,0,0,0,0,0,0,0,-1,1189,1352,0,0
-28,-328,0,0,0,0,0,0,0,0,0,-1,1196,1352,0,0
-21,-328,0,0,0,0,0,0,0,0,0,-1,1203,1352,0,0
-14,-328,0,0,0,0,0,0,0,0,0,-1,1210,1352,0,0
-7,-328,0,0,0,0,0,0,0,0,0,-1,1217,1352,0,0
0,-328,0,0,0,0,0,0,0,0,0,-1,1224,1352,0,0
7,-328,0,0,0,0,0,0,0,0,0,-1,1231,1352,0,0
14,-328,0,0,0,0,0,0,0,0,0,-1,1238,1352,0,0
21,-328,0,0,0,0,0,0,0,0,0,-1,1245,1352,0,0
28,-328,0,0,0,0,0,0,0,0,0,-1,1252,1352,0,0
35,-328,0,0,0,0,0,0,0,0,0,-1,1259,1352,0,0
42,-328,0,0,0,0,0,0,0,0,0,-1,1266,1352,0,0
49,-328,0,0,0,0,0,0,0,0,0,-1,1273,1352,0,0
56,-328,0,0,0,0,0,0,0,0,0,-1,1280,1352,0,0
63,-328,0,0,0,0,0,0,0,0,0,-1,1287,1352,0,0
70,-328,0,0,0,0,0,0,0,0,0,-1,1294,1352,0,0
77,-328,0,0,0,0,0,0,0,0,0,-1,1301,1352,0,0
84,-328,0,0,0,0,0,0,0,0,0,-1,1308,1352,0,0
91,-328,0,0,0,0,0,0,0,0,0,-1,1315,1352,0,0
98,-328,0,0,0,0,0,0,0,0,0,-1,1322,1352,0,0
105,-328,0,0,0,0,0,0,0,0,0,-1,1329,1352,0,0
112,-328,0,0,0,0,0,0,0,0,0,-1,1336,1352,0,0
119,-328,0,0,0,0,0,0,0,0,0,-1,1343,1352,0,0
126,-328,0,0,0,0,0,0,0,0,0,-1,1350,1352,0,0
133,-328,0,0,0,0,0,0,0,0,0,-1,1357,1352,0,0
140,-328,0,0,0,0,0,0,0,0,0,-1,1364,1352,0,0
147,-328,0,0,0,0,0,0,0,0,0,-1,1371,1352,0,0
154,-328,0,0,0,0,0,0,0,0,0,-1,1378,1352,0,0
161,-328,0,0,0,0,0,0,0,0,0,-1,1385,1352,0,0
168,-328,0,0,0,0,0,0,0,0,0,-1,1392,1352,0,0
175,-328,0,0,0,0,0,0,0,0,0,-1,1399,1352,0,0
182,-328,0,0,0,0,0,0,0,0,0,-1,1406,1352,0,0
189,-328,0,0,0,0,0,0,0,0,0,-1,1413,1352,0,0
196,-328,0,0,0,0,0,0,0,0,0,-1,1420,1352,0,0
203,-328,0,0,0,0,0,0,0,0,0,-1,1427,1352,0,0
210,-328,0,0,0,0,0,0,0,0,0,-1,1434,1352,0,0
217,-328,0,0,0,0,0,0,0,0,0,-1,1441,1352,0,0
224,-328,0,0,0,0,0,0,0,0,0,-1,1448,1352,0,0
231,-328,0,0,0,0,0,0,0,0,0,-1,1455,1352,0,0
238,-328,0,0,0,0,0,0,0,0,0,-1,1462,1352,0,0
245,-328,0,0,0,0,0,0,0,0,0,-1,1469,1352,0,0
252,-328,0,0,0,0,0,0,0,0,0,-1,1476,1352,0,0
259,-328,0,0,0,0,0,0,0,0,0,-1,1483,1352,0,0
266,-328,0,0,0,0,0,0,0,0,0,-1,1490,1352,0,0
273,-328,0,0,0,0,0,0,0,0,0,-1,1497,1352,0,0
280,-328,0,0,0,0,0,0,0,0,0,-1,1504,1352,0,0
287,-328,0,0,0,0,0,0,0,0,0,-1,1511,1352,0,0
294,-328,0,0,0,0,0,0,0,0,0,-1,1518,1352,0,0
301,-328,0,0,0,0,0,0,0,0,0,-1,1525,1352,0,0
308,-328,0,0,0,0,0,0,0,0,0,-1,1532,1352,0,0
315,-328,0,0,0,0,0,0,0,0,0,-1,1539,1352,0,0
322,-328,0,0,0,0,0,0,0,0,0,-1,1546,1352,0,0
329,-328,0,0,0,0,0,0,0,0,0,-1,1553,1352,0,0
336,-328,0,0,0,0,0,0,0,0,0,-1,1560,1352,0,0
343,-328,0,0,0,0,0,0,0,0,0,-1,1567,1352,0,0
350,-328,0,0,0,0,0,0,0,0,0,-1,1574,1352,0,0
357,-328,0,0,0,0,0,0,0,0,0,-1,1581,1352,0,0
364,-328,0,0,0,0,0,0,0,0,0,-1,1588,1352,0,0
371,-328,0,0,0,0,0,0,0,0,0,-1,1595,1352,0,0
378,-328,0,0,0,0,0,0,0,0,0,-1,1602,1352,0,0
385,-328,0,0,0,0,0,0,0,0,0,-1,1609,1352,0,0
392,-328,0,0,0,0,0,0,0,0,0,-1,1616,1352,0,0
399,-328,0,0,0,0,0,0,0,0,0,-1,1623,1352,0,0
406,-328,0,0,0,0,0,0,0,0,0,-1,1630,1352,0,0
413,-328,0,0,0,0,0,0,0,0,0,-1,1637,1352,0,0
420,-328,0,0,0,0,0,0,0,0,0,-1,1644,1352,0,0
427,-328,0,0,0,0,0,0,0,0,0,-1,1651,1352,0,0
434,-328,0,0,0,0,0,0,0,0,0,-1,1658,1352,0,0
441,-328,0,0,0,0,0,0,0,0,0,-1,1665,1352,0,0
448,-328,0,0,0,0,0,0,0,0,0,-1,1672,1352,0,0
455,-328,0,0,0,0,0,0,0,0,0,-1,1679,1352,0,0
462,-328,0,0,0,0,0,0,0,0,0,-1,1686,1352,0,0
469,-328,0,0,0,0,0,0,0,0,0,-1,1693,1352,0,0
476,-328,0,0,0,0,0,0,0,0,0,-1,1700,1352,0,0
483,-328,0,0,0,0,0,0,0,0,0,-1,1707,1352,0,0
490,-328,0,0,0,0,0,0,0,0,0,-1,1714,1352,0,0
497,-328,0,0,0,0,0,0,0,0,0,-1,1721,1352,0,0
504,-328,0,0,0,0,0,0,0,0,0,-1,1728,1352,0,0
511,-328,0,0,0,0,0,0,0,0,0,-1,1735,1352,0,0
518,-328,0,0,0,0,0,0,0,0,0,-1,1742,1352,0,0
525,-328,0,0,0,0,0,0,0,0,0,-1,1749,1352,0,0
532,-328,0,0,0,0,0,0,0,0,0,-1,1756,1352,0,0
539,-328,0,0,0,0,0,0,0,0,0,-1,1763,1352,0,0
546,-328,0,0,0,0,0,0,0,0,0,-1,1770,1352,0,0
553,-328,0,0,0,0,0,0,0,0,0,-1,1777,1352,0,0
560,-328,0,0,0,0,0,0,0,0,0,-1,1784,1352,0,0
567,-328,0,0,0,0,0,0,0,0,0,-1,1791,1352,0,0
574,-328,25.7708,2.67505,0,0,0,0,0,0,0,-1,1798,1352,25.7708,-2.67501
581,-328,25.9161,2.8147,0,0,0,0,0,0,0,-1,1805,1352,25.9161,-2.81468
588,-328,26.6527,2.89294,0,0,0,0,0,0,0,-1,1812,1352,26.6527,-2.89299
595,-328,26.3816,4.73914,0,0,0,0,0,0,0,-1,1819,1352,26.3816,-4.73916
602,-328,24.8718,3.82837,-0.131587,-0.0408054,0.0390051,-0.0263486,-0.146043,1.21586,0.0898761,0.0480146,1826,1352,24.8719,-3.82842
609,-328,23.4105,2.99976,-0.117922,-0.0335759,0.032458,-0.0225316,-0.128966,1.24282,0.0795381,0.047461,1833,1352,23.4105,-2.99975
616,-328,21.9373,2.07288,-0.103584,-0.0273818,0.0269903,-0.0187906,-0.112175,1.26263,0.0693734,0.0459851,1840,1352,21.9372,-2.07291
623,-328,23.8899,4.09094,0,0,0,0,0,0,0,-1,1847,1352,23.8898,-4.09091
630,-328,22.0211,5.026,0,0,0,0,0,0,0,-1,1854,1352,22.0212,-5.02603
637,-328,21.15,5.53699,0,0,0,0,0,0,0,-1,1861,1352,21.15,-5.53704
644,-328,16.9579,6.3396,0,0,0,0,0,0,0,-1,1868,1352,16.9579,-6.33959
651,-328,18.8466,8.18835,0,0,0,0,0,0,0,-1,1875,1352,18.8465,-8.18833
658,-328,18.751,7.95386,-0.022374,-0.00340056,0.00517351,-0.00208159,-0.0236929,1.32117,0.0151492,0.0262866,1882,1352,18.7509,-7.95387
665,-328,18.7661,7.69189,-0.0126945,-0.00306345,0.00404542,-0.00158971,-0.0141682,1.22144,0.00896269,0.0136323,1889,1352,18.7661,-7.69194
672,-328,18.7384,7.43616,-0.00676325,-0.00155744,0.00301748,-0.000175332,-0.00814535,1.14128,0.00537275,0.0115174,1896,1352,18.7384,-7.43617
679,-328,18.738,7.16431,-0.0035686,-0.000578329,0.00205131,0.000464899,-0.00461183,1.10032,0.00324065,0.0137516,1903,1352,18.7381,-7.16433
686,-328,18.7242,6.90259,-0.00170863,-0.000306782,0.00126702,0.000440266,-0.00245568,1.03805,0.00180189,0.0124865,1910,1352,18.7242,-6.90264
693,-328,18.7223,6.65662,-0.00102482,0.000845929,0.000514731,0.000978203,-0.0011571,1.31926,0.00123426,0.00867695,1917,1352,18.7222,-6.65659
700,-328,18.7157,6.40979,-0.00042687,0.00198908,-0.000296854,0.00202502,-0.00046281,-1.45031,0.00152783,0.012543,1924,1352,18.7157,-6.40981
707,-328,18.7223,6.13489,2.02728e-05,0.00328884,-0.00105359,0.00359901,-0.000289907,-1.28448,0.00250158,0.0149105,1931,1352,18.7223,-6.13489
714,-328,18.7325,5.86401,0.00012949,0.00465463,-0.00171973,0.00523401,-0.000449891,-1.24584,0.00364856,0.0135287,1938,1352,18.7325,-5.86401
721,-328,18.632,5.66125,-0.000450828,0.00622532,-0.00302296,0.00739069,-0.0016162,-1.20285,0.00554494,0.0309734,1945,1352,18.6319,-5.66122
728,-328,18.6641,5.39795,-0.00101743,0.00821275,-0.00494843,0.0103642,-0.00316888,-1.16068,0.00817316,0.0427358,1952,1352,18.6641,-5.39796
735,-328,18.9348,4.92871,0,0,0,0,0,0,0,-1,1959,1352,18.9348,-4.92868
742,-328,19.6079,5.53479,0,0,0,0,0,0,0,-1,1966,1352,19.6079,-5.53483
749,-328,20.0469,5.34326,0,0,0,0,0,0,0,-1,1973,1352,20.0469,-5.3433
756,-328,18.8743,2.41199,0,0,0,0,0,0,0,-1,1980,1352,18.8743,-2.41197
763,-328,0,0,0,0,0,0,0,0,0,-1,1987,1352,0,0
770,-328,0,0,0,0,0,0,0,0,0,-1,1994,1352,0,0
777,-328,0,0,0,0,0,0,0,0,0,-1,2001,1352,0,0
784,-328,0,0,0,0,0,0,0,0,0,-1,2008,1352,0,0
791,-328,0,0,0,0,0,0,0,0,0,-1,2015,1352,0,0
798,-328,0,0,0,0,0,0,0,0,0,-1,2022,1352,0,0
805,-328,0,0,0,0,0,0,0,0,0,-1,2029,1352,0,0
812,-328,0,0,0,0,0,0,0,0,0,-1,2036,1352,0,0
-700,-335,0,0,0,0,0,0,0,0,0,-1,524,1359,0,0
-693,-335,0,0,0,0,0,0,0,0,0,-1,531,1359,0,0
-686,-335,0,0,0,0,0,0,0,0,0,-1,538,1359,0,0
-679,-335,0,0,0,0,0,0,0,0,0,-1,545,1359,0,0
-672,-335,0,0,0,0,0,0,0,0,0,-1,552,1359,0,0
-665,-335,0,0,0,0,0,0,0,0,0,-1,559,1359,0,0
-658,-335,0,0,0,0,0,0,0,0,0,-1,566,1359,0,0
-651,-335,0,0,0,0,0,0,0,0,0,-1,573,1359,0,0
-644,-335,0,0,0,0,0,0,0,0,0,-1,580,1359,0,0
-637,-335,-9.40179,4.18787,0,0,0,0,0,0,0,-1,587,1359,-9.40178,-4.18782
-630,-335,-6.07397,-2.99902,0,0,0,0,0,0,0,-1,594,1359,-6.07397,2.99902
-623,-335,-8.43304,1.09509,0,0,0,0,0,0,0,-1,601,1359,-8.43301,-1.09507
-616,-335,-7.80927,-0.485352,0,0,0,0,0,0,0,-1,608,1359,-7.80926,0.485291
-609,-335,-7.12256,-2.03601,0,0,0,0,0,0,0,-1,615,1359,-7.12253,2.03601
-602,-335,-8.74359,2.59106,0,0,0,0,0,0,0,-1,622,1359,-8.74357,-2.59102
-595,-335,-8.75464,3.13428,-0.00818919,-0.00521528,-0.00627921,-0.000249371,-0.0131551,-0.901659,0.00868814,0.048724,629,1359,-8.75462,-3.13428
-588,-335,-8.78125,3.55322,-0.00710088,-0.00403769,-0.0055363,0.000174966,-0.0113135,-0.920346,0.00760135,0.0466504,636,1359,-8.78122,-3.55326
-581,-335,-8.99066,3.68982,-0.0058408,-0.00295315,-0.00461153,0.000435296,-0.00922924,-0.93711,0.00630294,0.025075,643,1359,-8.99066,-3.68983
-574,-335,-8.99298,3.96436,-0.00452116,-0.0022272,-0.00381014,0.000604856,-0.00735322,-0.9316,0.0051157,0.0118763,650,1359,-8.993,-3.96441
-567,-335,-9.00018,4.29138,-0.00315997,-0.00155166,-0.00293392,0.000686312,-0.00539794,-0.919158,0.00384785,0.0165315,657,1359,-9.00019,-4.29144
-560,-335,-8.97711,4.57275,-0.0017797,-0.00108862,-0.00210886,0.000702819,-0.00357115,-0.866602,0.00264633,0.0252114,664,1359,-8.9771,-4.57279
-553,-335,-9.0376,4.8783,-0.000318516,-0.000609351,-0.0012721,0.000816449,-0.00174432,-0.728489,0.00151046,0.027266,671,1359,-9.03757,-4.87825
-546,-335,-9.04944,5.18555,0.00121006,-0.000303386,-0.000457373,0.00133755,-0.000430868,-0.271828,0.00106479,0.0235539,678,1359,-9.04945,-5.18556
-539,-335,-9.008,5.44104,0.0027366,-9.35941e-05,0.000297679,0.00276757,-0.000124565,0.103668,0.00188794,0.0200482,685,1359,-9.00797,-5.44109
-532,-335,-9.02502,5.74353,0.00430746,-1.44832e-05,0.00101235,0.00453284,-0.00023986,0.219054,0.00310494,0.0156813,692,1359,-9.02502,-5.7435
-525,-335,-8.95782,6.05859,0.00591849,-0.000280193,0.00144742,0.00623982,-0.000601516,0.218454,0.00437419,0.0104238,699,1359,-8.95784,-6.05863
-518,-335,-8.92987,6.35791,0.0075797,-0.000411512,0.00168964,0.00792227,-0.000754077,0.200034,0.00554997,0.0244746,706,1359,-8.92985,-6.35792
-511,-335,-8.89557,6.65991,0,0,0,0,0,0,0,-1,713,1359,-8.89555,-6.6599
-504,-335,-9.35767,5.99695,0,0,0,0,0,0,0,-1,720,1359,-9.35767,-5.99694
-497,-335,-8.75024,-0.650513,0,0,0,0,0,0,0,-1,727,1359,-8.75024,0.650521
-490,-335,-9.51971,0.417603,0,0,0,0,0,0,0,-1,734,1359,-9.51974,-0.41765
-483,-335,-10.2883,1.29224,0,0,0,0,0,0,0,-1,741,1359,-10.2883,-1.2922
-476,-335,-11.9938,-0.173462,0,0,0,0,0,0,0,-1,748,1359,-11.9938,0.173429
-469,-335,-12.8704,-0.204102,0,0,0,0,0,0,0,-1,755,1359,-12.8704,0.204117
-462,-335,-13.486,0.0218506,0,0,0,0,0,0,0,-1,762,1359,-13.4859,-0.0217908
-455,-335,-14.1504,0.549561,0,0,0,0,0,0,0,-1,769,1359,-14.1504,-0.549583
-448,-335,0,0,0,0,0,0,0,0,0,-1,776,1359,0,0
-441,-335,0,0,0,0,0,0,0,0,0,-1,783,1359,0,0
-434,-335,0,0,0,0,0,0,0,0,0,-1,790,1359,0,0
-427,-335,0,0,0,0,0,0,0,0,0,-1,797,1359,0,0
-420,-335,0,0,0,0,0,0,0,0,0,-1,804,1359,0,0
-413,-335,0,0,0,0,0,0,0,0,0,-1,811,1359,0,0
-406,-335,0,0,0,0,0,0,0,0,0,-1,818,1359,0,0
-399,-335,0,0,0,0,0,0,0,0,0,-1,825,1359,0,0
-392,-335,0,0,0,0,0,0,0,0,0,-1,832,1359,0,0
-385,-335,0,0,0,0,0,0,0,0,0,-1,839,1359,0,0
-378,-335,0,0,0,0,0,0,0,0,0,-1,846,1359,0,0
-371,-335,0,0,0,0,0,0,0,0,0,-1,853,1359,0,0
-364,-335,0,0,0,0,0,0,0,0,0,-1,860,1359,0,0
-357,-335,0,0,0,0,0,0,0,0,0,-1,867,1359,0,0
-350,-335,0,0,0,0,0,0,0,0,0,-1,874,1359,0,0
-343,-335,0,0,0,0,0,0,0,0,0,-1,881,1359,0,0
-336,-335,0,0,0,0,0,0,0,0,0,-1,888,1359,0,0
-329,-335,0,0,0,0,0,0,0,0,0,-1,895,1359,0,0
-322,-335,0,0,0,0,0,0,0,0,0,-1,902,1359,0,0
-315,-335,0,0,0,0,0,0,0,0,0,-1,909,1359,0,0
-308,-335,0,0,0,0,0,0,0,0,0,-1,916,1359,0,0
-301,-335,0,0,0,0,0,0,0,0,0,-1,923,1359,0,0
-294,-335,0,0,0,0,0,0,0,0,0,-1,930,1359,0,0
-287,-335,0,0,0,0,0,0,0,0,0,-1,937,1359,0,0
-280,-335,0,0,0,0,0,0,0,0,0,-1,944,1359,0,0
-273,-335,0,0,0,0,0,0,0,0,0,-1,951,1359,0,0
-266,-335,0,0,0,0,0,0,0,0,0,-1,958,1359,0,0
-259,-335,0,0,0,0,0,0,0,0,0,-1,965,1359,0,0
-252,-335,0,0,0,0,0,0,0,0,0,-1,972,1359,0,0
-245,-335,0,0,0,0,0,0,0,0,0,-1,979,1359,0,0
-238,-335,0,0,0,0,0,0,0,0,0,-1,986,1359,0,0
-231,-335,0,0,0,0,0,0,0,0,0,-1,993,1359,0,0
-224,-335,0,0,0,0,0,0,0,0,0,-1,1000,1359,0,0
-217,-335,0,0,0,0,0,0,0,0,0,-1,1007,1359,0,0
-210,-335,0,0,0,0,0,0,0,0,0,-1,1014,1359,0,0
-203,-335,0,0,0,0,0,0,0,0,0,-1,1021,1359,0,0
-196,-335,0,0,0,0,0,0,0,0,0,-1,1028,1359,0,0
-189,-335,0,0,0,0,0,0,0,0,0,-1,1035,1359,0,0
-182,-335,0,0,0,0,0,0,0,0,0,-1,1042,1359,0,0
-175,-335,0,0,0,0,0,0,0,0,0,-1,1049,1359,0,0
-168,-335,0,0,0,0,0,0,0,0,0,-1,1056,1359,0,0
-161,-335,0,0,0,0,0,0,0,0,0,-1,1063,1359,0,0
-154,-335,0,0,0,0,0,0,0,0,0,-1,1070,1359,0,0
-147,-335,0,0,0,0,0,0,0,0,0,-1,1077,1359,0,0
-140,-335,0,0,0,0,0,0,0,0,0,-1,1084,1359,0,0
-133,-335,0,0,0,0,0,0,0,0,0,-1,1091,1359,0,0
-126,-335,0,0,0,0,0,0,0,0,0,-1,1098,1359,0,0
-119,-335,0,0,0,0,0,0,0,0,0,-1,1105,1359,0,0
-112,-335,0,0,0,0,0,0,0,0,0,-1,1112,1359,0,0
-105,-335,0,0,0,0,0,0,0,0,0,-1,1119,1359,0,0
-98,-335,0,0,0,0,0,0,0,0,0,-1,1126,1359,0,0
-91,-335,0,0,0,0,0,0,0,0,0,-1,1133,1359,0,0
-84,-335,0,0,0,0,0,0,0,0,0,-1,1140,1359,0,0
-77,-335,0,0,0,0,0,0,0,0,0,-1,1147,1359,0,0
-70,-335,0,0,0,0,0,0,0,0,0,-1,1154,1359,0,0
-63,-335,0,0,0,0,0,0,0,0,0,-1,1161,1359,0,0
-56,-335,0,0,0,0,0,0,0,0,0,-1,1168,1359,0,0
-49,-335,0,0,0,0,0,0,0,0,0,-1,1175,1359,0,0
-42,-335,0,0,0,0,0,0,0,0,0,-1,1182,1359,0,0
-35,-335,0,0,0,0,0,0,0,0,0,-1,1189,1359,0,0
-28,-335,0,0,0,0,0,0,0,0,0,-1,1196,1359,0,0
-21,-335,0,0,0,0,0,0,0,0,0,-1,1203,1359,0,0
-14,-335,0,0,0,0,0,0,0,0,0,-1,1210,1359,0,0
-7,-335,0,0,0,0,0,0,0,0,0,-1,1217,1359,0,0
0,-335,0,0,0,0,0,0,0,0,0,-1,1224,1359,0,0
7,-335,0,0,0,0,0,0,0,0,0,-1,1231,1359,0,0
14,-335,0,0,0,0,0,0,0,0,0,-1,1238,1359,0,0
21,-335,0,0,0,0,0,0,0,0,0,-1,1245,1359,0,0
28,-335,0,0,0,0,0,0,0,0,0,-1,1252,1359,0,0
35,-335,0,0,0,0,0,0,0,0,0,-1,1259,1359,0,0
42,-335,0,0,0,0,0,0,0,0,0,-1,1266,1359,0,0
49,-335,0,0,0,0,0,0,0,0,0,-1,1273,1359,0,0
56,-335,0,0,0,0,0,0,0,0,0,-1,1280,1359,0,0
63,-335,0,0,0,0,0,0,0,0,0,-1,1287,1359,0,0
70,-335,0,0,0,0,0,0,0,0,0,-1,1294,1359,0,0
77,-335,0,0,0,0,0,0,0,0,0,-1,1301,1359,0,0
84,-335,0,0,0,0,0,0,0,0,0,-1,1308,1359,0,0
91,-335,0,0,0,0,0,0,0,0,0,-1,1315,1359,0,0
98,-335,0,0,0,0,0,0,0,0,0,-1,1322,1359,0,0
105,-335,0,0,0,0,0,0,0,0,0,-1,1329,1359,0,0
112,-335,0,0,0,0,0,0,0,0,0,-1,1336,1359,0,0
119,-335,0,0,0,0,0,0,0,0,0,-1,1343,1359,0,0
126,-335,0,0,0,0,0,0,0,0,0,-1,1350,1359,0,0
133,-335,0,0,0,0,0,0,0,0,0,-1,1357,1359,0,0
140,-335,0,0,0,0,0,0,0,0,0,-1,1364,1359,0,0
147,-335,0,0,0,0,0,0,0,0,0,-1,1371,1359,0,0
154,-335,0,0,0,0,0,0,0,0,0,-1,1378,1359,0,0
161,-335,0,0,0,0,0,0,0,0,0,-1,1385,1359,0,0
168,-335,0,0,0,0,0,0,0,0,0,-1,1392,1359,0,0
175,-335,0,0,0,0,0,0,0,0,0,-1,1399,1359,0,0
182,-335,0,0,0,0,0,0,0,0,0,-1,1406,1359,0,0
189,-335,0,0,0,0,0,0,0,0,0,-1,1413,1359,0,0
196,-335,0,0,0,0,0,0,0,0,0,-1,1420,1359,0,0
203,-335,0,0,0,0,0,0,0,0,0,-1,1427,1359,0,0
210,-335,0,0,0,0,0,0,0,0,0,-1,1434,1359,0,0
217,-335,0,0,0,0,0,0,0,0,0,-1,1441,1359,0,0
224,-335,0,0,0,0,0,0,0,0,0,-1,1448,1359,0,0
231,-335,0,0,0,0,0,0,0,0,0,-1,1455,1359,0,0
238,-335,0,0,0,0,0,0,0,0,0,-1,1462,1359,0,0
245,-335,0,0,0,0,0,0,0,0,0,-1,1469,1359,0,0
252,-335,0,0,0,0,0,0,0,0,0,-1,1476,1359,0,0
259,-335,0,0,0,0,0,0,0,0,0,-1,1483,1359,0,0
266,-335,0,0,0,0,0,0,0,0,0,-1,1490,1359,0,0
273,-335,0,0,0,0,0,0,0,0,0,-1,1497,1359,0,0
280,-335,0,0,0,0,0,0,0,0,0,-1,1504,1359,0,0
287,-335,0,0,0,0,0,0,0,0,0,-1,1511,1359,0,0
294,-335,0,0,0,0,0,0,0,0,0,-1,1518,1359,0,0
301,-335,0,0,0,0,0,0,0,0,0,-1,1525,1359,0,0
308,-335,0,0,0,0,0,0,0,0,0,-1,1532,1359,0,0
315,-335,0,0,0,0,0,0,0,0,0,-1,1539,1359,0,0
322,-335,0,0,0,0,0,0,0,0,0,-1,1546,1359,0,0
329,-335,0,0,0,0,0,0,0,0,0,-1,1553,1359,0,0
336,-335,0,0,0,0,0,0,0,0,0,-1,1560,1359,0,0
343,-335,0,0,0,0,0,0,0,0,0,-1,1567,1359,0,0
350,-335,0,0,0,0,0,0,0,0,0,-1,1574,1359,0,0
357,-335,0,0,0,0,0,0,0,0,0,-1,1581,1359,0,0
364,-335,0,0,0,0,0,0,0,0,0,-1,1588,1359,0,0
371,-335,0,0,0,0,0,0,0,0,0,-1,1595,1359,0,0
378,-335,0,0,0,0,0,0,0,0,0,-1,1602,1359,0,0
385,-335,0,0,0,0,0,0,0,0,0,-1,1609,1359,0,0
392,-335,0,0,0,0,0,0,0,0,0,-1,1616,1359,0,0
399,-335,0,0,0,0,0,0,0,0,0,-1,1623,1359,0,0
406,-335,0,0,0,0,0,0,0,0,0,-1,1630,1359,0,0
413,-335,0,0,0,0,0,0,0,0,0,-1,1637,1359,0,0
420,-335,0,0,0,0,0,0,0,0,0,-1,1644,1359,0,0
427,-335,0,0,0,0,0,0,0,0,0,-1,1651,1359,0,0
434,-335,0,0,0,0,0,0,0,0,0,-1,1658,1359,0,0
441,-335,0,0,0,0,0,0,0,0,0,-1,1665,1359,0,0
448,-335,0,0,0,0,0,0,0,0,0,-1,1672,1359,0,0
455,-335,0,0,0,0,0,0,0,0,0,-1,1679,1359,0,0
462,-335,0,0,0,0,0,0,0,0,0,-1,1686,1359,0,0
469,-335,0,0,0,0,0,0,0,0,0,-1,1693,1359,0,0
476,-335,0,0,0,0,0,0,0,0,0,-1,1700,1359,0,0
483,-335,0,0,0,0,0,0,0,0,0,-1,1707,1359,0,0
490,-335,0,0,0,0,0,0,0,0,0,-1,1714,1359,0,0
497,-335,0,0,0,0,0,0,0,0,0,-1,1721,1359,0,0
504,-335,0,0,0,0,0,0,0,0,0,-1,1728,1359,0,0
511,-335,0,0,0,0,0,0,0,0,0,-1,1735,1359,0,0
518,-335,0,0,0,0,0,0,0,0,0,-1,1742,1359,0,0
525,-335,0,0,0,0,0,0,0,0,0,-1,1749,1359,0,0
532,-335,0,0,0,0,0,0,0,0,0,-1,1756,1359,0,0
539,-335,0,0,0,0,0,0,0,0,0,-1,1763,1359,0,0
546,-335,0,0,0,0,0,0,0,0,0,-1,1770,1359,0,0
553,-335,0,0,0,0,0,0,0,0,0,-1,1777,1359,0,0
560,-335,0,0,0,0,0,0,0,0,0,-1,1784,1359,0,0
567,-335,0,0,0,0,0,0,0,0,0,-1,1791,1359,0,0
574,-335,25.2488,2.23474,0,0,0,0,0,0,0,-1,1798,1359,25.2487,-2.23478
581,-335,25.4922,2.50244,0,0,0,0,0,0,0,-1,1805,1359,25.4922,-2.5025
588,-335,25.6696,2.72046,0,0,0,0,0,0,0,-1,1812,1359,25.6695,-2.72047
595,-335,27.0143,1.71692,0,0,0,0,0,0,0,-1,1819,1359,27.0143,-1.71687
602,-335,23.4768,3.9281,0,0,0,0,0,0,0,-1,1826,1359,23.4768,-3.92813
609,-335,22.3484,3.05103,0,0,0,0,0,0,0,-1,1833,1359,22.3484,-3.05106
616,-335,21.4529,2.68201,-0.105138,-0.0338648,0.0308709,-0.022353,-0.11665,1.21387,0.0714903,0.0466282,1840,1359,21.4529,-2.68201
623,-335,20.203,1.89709,0,0,0,0,0,0,0,-1,1847,1359,20.2031,-1.89712
630,-335,19.1707,1.00952,0,0,0,0,0,0,0,-1,1854,1359,19.1707,-1.00953
637,-335,18.2009,6.65454,0,0,0,0,0,0,0,-1,1861,1359,18.2009,-6.6546
644,-335,18.6267,8.40979,0,0,0,0,0,0,0,-1,1868,1359,18.6267,-8.40981
651,-335,18.5211,8.19141,-0.0313598,-0.00680617,0.00662845,-0.00513104,-0.033035,1.32326,0.0205278,0.02911,1875,1359,18.5211,-8.19146
658,-335,18.4535,8.00745,-0.0184924,-0.00446064,0.00437486,-0.00320839,-0.0197446,1.29201,0.0122346,0.0169311,1882,1359,18.4535,-8.00745
665,-335,18.4807,7.72314,-0.00944319,-0.00351667,0.0032069,-0.00211356,-0.0108463,1.15836,0.00663944,0.0143047,1889,1359,18.4807,-7.72316
672,-335,18.4659,7.45154,-0.00427132,-0.00165777,0.00227838,-0.000338009,-0.00559108,1.04577,0.00361998,0.016407,1896,1359,18.466,-7.4516
679,-335,18.4736,7.21045,-0.00204978,-0.000420102,0.00141406,0.00039709,-0.00286697,1.04678,0.0020565,0.0138926,1903,1359,18.4737,-7.21049
686,-335,18.4902,6.92432,-0.000812918,0.000166605,0.000760856,0.000581702,-0.00122801,1.07136,0.00106682,0.0108727,1910,1359,18.4902,-6.92434
693,-335,18.4725,6.63879,-0.000299726,0.00131521,0.000134019,0.00132626,-0.000310772,1.48856,0.00100393,0.00977869,1917,1359,18.4725,-6.63884
700,-335,18.4534,6.41077,0.000190648,0.00249867,-0.000569147,0.00263138,5.79307e-05,-1.3417,0.00173527,0.0110425,1924,1359,18.4534,-6.41082
707,-335,18.4518,6.13855,0.000565621,0.00391037,-0.00126622,0.00433565,0.000140342,-1.24677,0.0028448,0.0148027,1931,1359,18.4518,-6.13851
714,-335,18.489,5.82251,0.000561433,0.00544707,-0.00181511,0.00604761,-3.91013e-05,-1.25128,0.00404483,0.0230676,1938,1359,18.489,-5.82254
721,-335,18.2505,5.47949,0.00043654,0.00745396,-0.00264977,0.0083421,-0.000451603,-1.24739,0.00571788,0.043216,1945,1359,18.2504,-5.47954
728,-335,18.0908,4.77832,0.000467113,0.0100991,-0.00415241,0.011642,-0.00107585,-1.21502,0.00814369,0.0483526,1952,1359,18.0909,-4.77831
735,-335,18.0345,4.18604,0,0,0,0,0,0,0,-1,1959,1359,18.0345,-4.18605
742,-335,17.8745,3.78577,0,0,0,0,0,0,0,-1,1966,1359,17.8746,-3.78578
749,-335,17.8118,3.04175,0,0,0,0,0,0,0,-1,1973,1359,17.8118,-3.04173
756,-335,18.9956,2.39343,0,0,0,0,0,0,0,-1,1980,1359,18.9956,-2.39348
763,-335,0,0,0,0,0,0,0,0,0,-1,1987,1359,0,0
770,-335,0,0,0,0,0,0,0,0,0,-1,1994,1359,0,0
777,-335,0,0,0,0,0,0,0,0,0,-1,2001,1359,0,0
784,-335,0,0,0,0,0,0,0,0,0,-1,2008,1359,0,0
791,-335,0,0,0,0,0,0,0,0,0,-1,2015,1359,0,0
798,-335,0,0,0,0,0,0,0,0,0,-1,2022,1359,0,0
805,-335,0,0,0,0,0,0,0,0,0,-1,2029,1359,0,0
812,-335,0,0,0,0,0,0,0,0,0,-1,2036,1359,0,0
-700,-342,0,0,0,0,0,0,0,0,0,-1,524,1366,0,0
-693,-342,0,0,0,0,0,0,0,0,0,-1,531,1366,0,0
-686,-342,0,0,0,0,0,0,0,0,0,-1,538,1366,0,0
-679,-342,0,0,0,0,0,0,0,0,0,-1,545,1366,0,0
-672,-342,0,0,0,0,0,0,0,0,0,-1,552,1366,0,0
-665,-342,0,0,0,0,0,0,0,0,0,-1,559,1366,0,0
-658,-342,0,0,0,0,0,0,0,0,0,-1,566,1366,0,0
-651,-342,0,0,0,0,0,0,0,0,0,-1,573,1366,0,0
-644,-342,0,0,0,0,0,0,0,0,0,-1,580,1366,0,0
-637,-342,-8.67786,-4.58557,0,0,0,0,0,0,0,-1,587,1366,-8.67788,4.5856
-630,-342,-8.60132,2.71777,0,0,0,0,0,0,0,-1,594,1366,-8.60135,-2.71779
-623,-342,-8.41168,0.662476,0,0,0,0,0,0,0,-1,601,1366,-8.41168,-0.662442
-616,-342,-6.625,-1.28015,0,0,0,0,0,0,0,-1,608,1366,-6.62499,1.28011
-609,-342,-7.83154,0.674561,0,0,0,0,0,0,0,-1,615,1366,-7.83155,-0.674598
-602,-342,-8.85358,2.29443,0,0,0,0,0,0,0,-1,622,1366,-8.85359,-2.29442
-595,-342,-8.64001,3.04272,0,0,0,0,0,0,0,-1,629,1366,-8.64,-3.04269
-588,-342,-8.62207,3.30493,0,0,0,0,0,0,0,-1,636,1366,-8.62204,-3.30493
-581,-342,-8.64111,3.61011,-0.00736398,-0.00383407,-0.00613718,0.000786897,-0.0119849,-0.925412,0.00826476,0.0436686,643,1366,-8.6411,-3.61016
-574,-342,-8.71368,3.97266,-0.00564887,-0.00275161,-0.00487691,0.000887274,-0.00928775,-0.929767,0.00650779,0.0118608,650,1366,-8.71365,-3.97269
-567,-342,-8.66254,4.26807,-0.00402025,-0.00186948,-0.00368013,0.000889174,-0.0067789,-0.927547,0.00484294,0.0163053,657,1366,-8.66253,-4.26803
-560,-342,-8.68854,4.53711,-0.00243551,-0.00120967,-0.00260068,0.000849336,-0.00449452,-0.901124,0.00331592,0.025646,664,1366,-8.68852,-4.53712
-553,-342,-8.7453,4.83337,-0.000835878,-0.000698615,-0.00161846,0.000852668,-0.00238716,-0.806588,0.00193919,0.0288385,671,1366,-8.74533,-4.83341
-546,-342,-8.72052,5.13953,0.000790189,-0.000366598,-0.000694762,0.0011158,-0.000692215,-0.438273,0.00105337,0.0275994,678,1366,-8.72054,-5.13948
-539,-342,-8.68207,5.45679,0.00238423,-0.000139199,0.000123264,0.00239024,-0.000145206,0.0486932,0.00164403,0.0237361,685,1366,-8.68205,-5.45677
-532,-342,-8.71313,5.77295,0.00401363,-3.44543e-06,0.000898028,0.00420524,-0.000195062,0.210222,0.00287073,0.0185901,692,1366,-8.71312,-5.77296
-525,-342,-8.66962,6.07996,0.00569609,-0.000156549,0.00144098,0.00603164,-0.000492097,0.228783,0.00419476,0.0118872,699,1366,-8.66959,-6.07992
-518,-342,-8.63501,6.39478,0.00741833,-0.000208432,0.00179794,0.00782093,-0.000611027,0.220287,0.0054291,0.0174452,706,1366,-8.63502,-6.39483
-511,-342,-8.70288,6.58801,0.00943066,-0.000120649,0.00255535,0.0100713,-0.000761329,0.245657,0.00698185,0.0496276,713,1366,-8.70287,-6.58798
-504,-342,-8.66742,6.76221,0,0,0,0,0,0,0,-1,720,1366,-8.6674,-6.76221
-497,-342,-8.26587,-0.943604,0,0,0,0,0,0,0,-1,727,1366,-8.26586,0.943543
-490,-342,-9.07153,-0.0227051,0,0,0,0,0,0,0,-1,734,1366,-9.07155,0.0227087
-483,-342,-9.87726,0.898071,0,0,0,0,0,0,0,-1,741,1366,-9.87724,-0.898125
-476,-342,-11.6371,-0.736328,0,0,0,0,0,0,0,-1,748,1366,-11.6371,0.736281
-469,-342,-12.6245,-0.987549,0,0,0,0,0,0,0,-1,755,1366,-12.6245,0.987553
-462,-342,-13.0912,-0.533203,0,0,0,0,0,0,0,-1,762,1366,-13.0912,0.533224
-455,-342,-13.7612,0.122925,0,0,0,0,0,0,0,-1,769,1366,-13.7612,-0.122896
-448,-342,-14.5278,0.826904,0,0,0,0,0,0,0,-1,776,1366,-14.5277,-0.826861
-441,-342,0,0,0,0,0,0,0,0,0,-1,783,1366,0,0
-434,-342,0,0,0,0,0,0,0,0,0,-1,790,1366,0,0
-427,-342,0,0,0,0,0,0,0,0,0,-1,797,1366,0,0
-420,-342,0,0,0,0,0,0,0,0,0,-1,804,1366,0,0
-413,-342,0,0,0,0,0,0,0,0,0,-1,811,1366,0,0
-406,-342,0,0,0,0,0,0,0,0,0,-1,818,1366,0,0
-399,-342,0,0,0,0,0,0,0,0,0,-1,825,1366,0,0
-392,-342,0,0,0,0,0,0,0,0,0,-1,832,1366,0,0
-385,-342,0,0,0,0,0,0,0,0,0,-1,839,1366,0,0
-378,-342,0,0,0,0,0,0,0,0,0,-1,846,1366,0,0
-371,-342,0,0,0,0,0,0,0,0,0,-1,853,1366,0,0
-364,-342,0,0,0,0,0,0,0,0,0,-1,860,1366,0,0
-357,-342,0,0,0,0,0,0,0,0,0,-1,867,1366,0,0
-350,-342,0,0,0,0,0,0,0,0,0,-1,874,1366,0,0
-343,-342,0,0,0,0,0,0,0,0,0,-1,881,1366,0,0
-336,-342,0,0,0,0,0,0,0,0,0,-1,888,1366,0,0
-329,-342,0,0,0,0,0,0,0,0,0,-1,895,1366,0,0
-322,-342,0,0,0,0,0,0,0,0,0,-1,902,1366,0,0
-315,-342,0,0,0,0,0,0,0,0,0,-1,909,1366,0,0
-308,-342,0,0,0,0,0,0,0,0,0,-1,916,1366,0,0
-301,-342,0,0,0,0,0,0,0,0,0,-1,923,1366,0,0
-294,-342,0,0,0,0,0,0,0,0,0,-1,930,1366,0,0
-287,-342,0,0,0,0,0,0,0,0,0,-1,937,1366,0,0
-280,-342,0,0,0,0,0,0,0,0,0,-1,944,1366,0,0
-273,-342,0,0,0,0,0,0,0,0,0,-1,951,1366,0,0
-266,-342,0,0,0,0,0,0,0,0,0,-1,958,1366,0,0
-259,-342,0,0,0,0,0,0,0,0,0,-1,965,1366,0,0
-252,-342,0,0,0,0,0,0,0,0,0,-1,972,1366,0,0
-245,-342,0,0,0,0,0,0,0,0,0,-1,979,1366,0,0
-238,-342,0,0,0,0,0,0,0,0,0,-1,986,1366,0,0
-231,-342,0,0,0,0,0,0,0,0,0,-1,993,1366,0,0
-224,-342,0,0,0,0,0,0,0,0,0,-1,1000,1366,0,0
-217,-342,0,0,0,0,0,0,0,0,0,-1,1007,1366,0,0
-210,-342,0,0,0,0,0,0,0,0,0,-1,1014,1366,0,0
-203,-342,0,0,0,0,0,0,0,0,0,-1,1021,1366,0,0
-196,-342,0,0,0,0,0,0,0,0,0,-1,1028,1366,0,0
-189,-342,0,0,0,0,0,0,0,0,0,-1,1035,1366,0,0
-182,-342,0,0,0,0,0,0,0,0,0,-1,1042,1366,0,0
-175,-342,0,0,0,0,0,0,0,0,0,-1,1049,1366,0,0
-168,-342,0,0,0,0,0,0,0,0,0,-1,1056,1366,0,0
-161,-342,0,0,0,0,0,0,0,0,0,-1,1063,1366,0,0
-154,-342,0,0,0,0,0,0,0,0,0,-1,1070,1366,0,0
-147,-342,0,0,0,0,0,0,0,0,0,-1,1077,1366,0,0
-140,-342,0,0,0,0,0,0,0,0,0,-1,1084,1366,0,0
-133,-342,0,0,0,0,0,0,0,0,0,-1,1091,1366,0,0
-126,-342,0,0,0,0,0,0,0,0,0,-1,1098,1366,0,0
-119,-342,0,0,0,0,0,0,0,0,0,-1,1105,1366,0,0
-112,-342,0,0,0,0,0,0,0,0,0,-1,1112,1366,0,0
-105,-342,0,0,0,0,0,0,0,0,0,-1,1119,1366,0,0
-98,-342,0,0,0,0,0,0,0,0,0,-1,1126,1366,0,0
-91,-342,0,0,0,0,0,0,0,0,0,-1,1133,1366,0,0
-84,-342,0,0,0,0,0,0,0,0,0,-1,1140,1366,0,0
-77,-342,0,0,0,0,0,0,0,0,0,-1,1147,1366,0,0
-70,-342,0,0,0,0,0,0,0,0,0,-1,1154,1366,0,0
-63,-342,0,0,0,0,0,0,0,0,0,-1,1161,1366,0,0
-56,-342,0,0,0,0,0,0,0,0,0,-1,1168,1366,0,0
-49,-342,0,0,0,0,0,0,0,0,0,-1,1175,1366,0,0
-42,-342,0,0,0,0,0,0,0,0,0,-1,1182,1366,0,0
-35,-342,0,0,0,0,0,0,0,0,0,-1,1189,1366,0,0
-28,-342,0,0,0,0,0,0,0,0,0,-1,1196,1366,0,0
-21,-342,0,0,0,0,0,0,0,0,0,-1,1203,1366,0,0
-14,-342,0,0,0,0,0,0,0,0,0,-1,1210,1366,0,0
-7,-342,0,0,0,0,0,0,0,0,0,-1,1217,1366,0,0
0,-342,0,0,0,0,0,0,0,0,0,-1,1224,1366,0,0
7,-342,0,0,0,0,0,0,0,0,0,-1,1231,1366,0,0
14,-342,0,0,0,0,0,0,0,0,0,-1,1238,1366,0,0
21,-342,0,0,0,0,0,0,0,0,0,-1,1245,1366,0,0
28,-342,0,0,0,0,0,0,0,0,0,-1,1252,1366,0,0
35,-342,0,0,0,0,0,0,0,0,0,-1,1259,1366,0,0
42,-342,0,0,0,0,0,0,0,0,0,-1,1266,1366,0,0
49,-342,0,0,0,0,0,0,0,0,0,-1,1273,1366,0,0
56,-342,0,0,0,0,0,0,0,0,0,-1,1280,1366,0,0
63,-342,0,0,0,0,0,0,0,0,0,-1,1287,1366,0,0
70,-342,0,0,0,0,0,0,0,0,0,-1,1294,1366,0,0
77,-342,0,0,0,0,0,0,0,0,0,-1,1301,1366,0,0
84,-342,0,0,0,0,0,0,0,0,0,-1,1308,1366,0,0
91,-342,0,0,0,0,0,0,0,0,0,-1,1315,1366,0,0
98,-342,0,0,0,0,0,0,0,0,0,-1,1322,1366,0,0
105,-342,0,0,0,0,0,0,0,0,0,-1,1329,1366,0,0
112,-342,0,0,0,0,0,0,0,0,0,-1,1336,1366,0,0
119,-342,0,0,0,0,0,0,0,0,0,-1,1343,1366,0,0
126,-342,0,0,0,0,0,0,0,0,0,-1,1350,1366,0,0
133,-342,0,0,0,0,0,0,0,0,0,-1,1357,1366,0,0
140,-342,0,0,0,0,0,0,0,0,0,-1,1364,1366,0,0
147,-342,0,0,0,0,0,0,0,0,0,-1,1371,1366,0,0
154,-342,0,0,0,0,0,0,0,0,0,-1,1378,1366,0,0
161,-342,0,0,0,0,0,0,0,0,0,-1,1385,1366,0,0
168,-342,0,0,0,0,0,0,0,0,0,-1,1392,1366,0,0
175,-342,0,0,0,0,0,0,0,0,0,-1,1399,1366,0,0
182,-342,0,0,0,0,0,0,0,0,0,-1,1406,1366,0,0
189,-342,0,0,0,0,0,0,0,0,0,-1,1413,1366,0,0
196,-342,0,0,0,0,0,0,0,0,0,-1,1420,1366,0,0
203,-342,0,0,0,0,0,0,0,0,0,-1,1427,1366,0,0
210,-342,0,0,0,0,0,0,0,0,0,-1,1434,1366,0,0
217,-342,0,0,0,0,0,0,0,0,0,-1,1441,1366,0,0
224,-342,0,0,0,0,0,0,0,0,0,-1,1448,1366,0,0
231,-342,0,0,0,0,0,0,0,0,0,-1,1455,1366,0,0
238,-342,0,0,0,0,0,0,0,0,0,-1,1462,1366,0,0
245,-342,0,0,0,0,0,0,0,0,0,-1,1469,1366,0,0
252,-342,0,0,0,0,0,0,0,0,0,-1,1476,1366,0,0
259,-342,0,0,0,0,0,0,0,0,0,-1,1483,1366,0,0
266,-342,0,0,0,0,0,0,0,0,0,-1,1490,1366,0,0
273,-342,0,0,0,0,0,0,0,0,0,-1,1497,1366,0,0
280,-342,0,0,0,0,0,0,0,0,0,-1,1504,1366,0,0
287,-342,0,0,0,0,0,0,0,0,0,-1,1511,1366,0,0
294,-342,0,0,0,0,0,0,0,0,0,-1,1518,1366,0,0
301,-342,0,0,0,0,0,0,0,0,0,-1,1525,1366,0,0
308,-342,0,0,0,0,0,0,0,0,0,-1,1532,1366,0,0
315,-342,0,0,0,0,0,0,0,0,0,-1,1539,1366,0,0
322,-342,0,0,0,0,0,0,0,0,0,-1,1546,1366,0,0
329,-342,0,0,0,0,0,0,0,0,0,-1,1553,1366,0,0
336,-342,0,0,0,0,0,0,0,0,0,-1,1560,1366,0,0
343,-342,0,0,0,0,0,0,0,0,0,-1,1567,1366,0,0
350,-342,0,0,0,0,0,0,0,0,0,-1,1574,1366,0,0
357,-342,0,0,0,0,0,0,0,0,0,-1,1581,1366,0,0
364,-342,0,0,0,0,0,0,0,0,0,-1,1588,1366,0,0
371,-342,0,0,0,0,0,0,0,0,0,-1,1595,1366,0,0
378,-342,0,0,0,0,0,0,0,0,0,-1,1602,1366,0,0
385,-342,0,0,0,0,0,0,0,0,0,-1,1609,1366,0,0
392,-342,0,0,0,0,0,0,0,0,0,-1,1616,1366,0,0
399,-342,0,0,0,0,0,0,0,0,0,-1,1623,1366,0,0
406,-342,0,0,0,0,0,0,0,0,0,-1,1630,1366,0,0
413,-342,0,0,0,0,0,0,0,0,0,-1,1637,1366,0,0
420,-342,0,0,0,0,0,0,0,0,0,-1,1644,1366,0,0
427,-342,0,0,0,0,0,0,0,0,0,-1,1651,1366,0,0
434,-342,0,0,0,0,0,0,0,0,0,-1,1658,1366,0,0
441,-342,0,0,0,0,0,0,0,0,0,-1,1665,1366,0,0
448,-342,0,0,0,0,0,0,0,0,0,-1,1672,1366,0,0
455,-342,0,0,0,0,0,0,0,0,0,-1,1679,1366,0,0
462,-342,0,0,0,0,0,0,0,0,0,-1,1686,1366,0,0
469,-342,0,0,0,0,0,0,0,0,0,-1,1693,1366,0,0
476,-342,0,0,0,0,0,0,0,0,0,-1,1700,1366,0,0
483,-342,0,0,0,0,0,0,0,0,0,-1,1707,1366,0,0
490,-342,0,0,0,0,0,0,0,0,0,-1,1714,1366,0,0
497,-342,0,0,0,0,0,0,0,0,0,-1,1721,1366,0,0
504,-342,0,0,0,0,0,0,0,0,0,-1,1728,1366,0,0
511,-342,0,0,0,0,0,0,0,0,0,-1,1735,1366,0,0
518,-342,0,0,0,0,0,0,0,0,0,-1,1742,1366,0,0
525,-342,0,0,0,0,0,0,0,0,0,-1,1749,1366,0,0
532,-342,0,0,0,0,0,0,0,0,0,-1,1756,1366,0,0
539,-342,0,0,0,0,0,0,0,0,0,-1,1763,1366,0,0
546,-342,0,0,0,0,0,0,0,0,0,-1,1770,1366,0,0
553,-342,0,0,0,0,0,0,0,0,0,-1,1777,1366,0,0
560,-342,0,0,0,0,0,0,0,0,0,-1,1784,1366,0,0
567,-342,26.2689,3.54883,0,0,0,0,0,0,0,-1,1791,1366,26.2689,-3.54877
574,-342,24.8918,1.84668,0,0,0,0,0,0,0,-1,1798,1366,24.8918,-1.84673
581,-342,25.1285,2.18738,0,0,0,0,0,0,0,-1,1805,1366,25.1285,-2.18737
588,-342,27.5955,0.260376,0,0,0,0,0,0,0,-1,1812,1366,27.5955,-0.260427
595,-342,26.51,0.429077,0,0,0,0,0,0,0,-1,1819,1366,26.51,-0.42907
602,-342,24.2635,3.77417,0,0,0,0,0,0,0,-1,1826,1366,24.2635,-3.77416
609,-342,22.6897,3.57434,0,0,0,0,0,0,0,-1,1833,1366,22.6896,-3.57436
616,-342,21.0116,3.13916,0,0,0,0,0,0,0,-1,1840,1366,21.0116,-3.13913
623,-342,19.4404,2.64111,0,0,0,0,0,0,0,-1,1847,1366,19.4405,-2.64116
630,-342,17.3431,0.773071,0,0,0,0,0,0,0,-1,1854,1366,17.3432,-0.773095
637,-342,16.196,6.76172,0,0,0,0,0,0,0,-1,1861,1366,16.1961,-6.76174
644,-342,18.1044,8.53748,0,0,0,0,0,0,0,-1,1868,1366,18.1044,-8.5375
651,-342,18.2175,8.30688,-0.0241397,-0.00713368,0.00525277,-0.00564205,-0.0256313,1.29411,0.0155518,0.0254709,1875,1366,18.2175,-8.3069
658,-342,18.2147,8.00586,-0.0129726,-0.00464193,0.00324844,-0.00352499,-0.0140896,1.23962,0.00846629,0.0202513,1882,1366,18.2148,-8.00586
665,-342,18.2037,7.70593,-0.00571035,-0.00345348,0.00228979,-0.00202917,-0.00713467,1.01434,0.00424492,0.016521,1889,1366,18.2038,-7.70591
672,-342,18.2078,7.45837,-0.00185305,-0.00158438,0.00160997,-0.000103148,-0.00333428,0.827023,0.00218928,0.0127539,1896,1366,18.2077,-7.45832
679,-342,18.2096,7.20654,-0.000694504,-0.000286444,0.000938789,0.00047023,-0.00145118,0.892401,0.00115651,0.0120589,1903,1366,18.2096,-7.20655
686,-342,18.2316,6.93982,3.75977e-06,0.00045395,0.000414462,0.000700498,-0.000242788,1.03416,0.000565574,0.00983815,1910,1366,18.2315,-6.93981
693,-342,18.209,6.65149,0.000342899,0.00156558,-6.81529e-05,0.00156937,0.000339112,-1.51528,0.000953523,0.0112192,1917,1366,18.209,-6.65145
700,-342,18.1862,6.39514,0.000727981,0.00279722,-0.000615934,0.00296669,0.000558519,-1.30231,0.0018204,0.0132994,1924,1366,18.1861,-6.39518
707,-342,18.1863,6.12769,0.00101336,0.00432949,-0.00121464,0.00472679,0.000616057,-1.25467,0.00296724,0.0130296,1931,1366,18.1863,-6.12774
714,-342,18.2101,5.89087,0.000886001,0.00607972,-0.00159819,0.00653211,0.000433616,-1.29495,0.00421763,0.0387968,1938,1366,18.21,-5.89085
721,-342,17.959,5.24695,0,0,0,0,0,0,0,-1,1945,1366,17.9589,-5.24699
728,-342,17.5746,4.00732,0,0,0,0,0,0,0,-1,1952,1366,17.5746,-4.00734
735,-342,17.7842,3.86951,0,0,0,0,0,0,0,-1,1959,1366,17.7842,-3.86951
742,-342,18.2644,3.12598,0,0,0,0,0,0,0,-1,1966,1366,18.2644,-3.12604
749,-342,18.7092,3.5918,0,0,0,0,0,0,0,-1,1973,1366,18.7092,-3.59177
756,-342,0,0,0,0,0,0,0,0,0,-1,1980,1366,0,0
763,-342,0,0,0,0,0,0,0,0,0,-1,1987,1366,0,0
770,-342,0,0,0,0,0,0,0,0,0,-1,1994,1366,0,0
777,-342,0,0,0,0,0,0,0,0,0,-1,2001,1366,0,0
784,-342,0,0,0,0,0,0,0,0,0,-1,2008,1366,0,0
791,-342,0,0,0,0,0,0,0,0,0,-1,2015,1366,0,0
798,-342,0,0,0,0,0,0,0,0,0,-1,2022,1366,0,0
805,-342,0,0,0,0,0,0,0,0,0,-1,2029,1366,0,0
812,-342,0,0,0,0,0,0,0,0,0,-1,2036,1366,0,0
-700,-349,0,0,0,0,0,0,0,0,0,-1,524,1373,0,0
-693,-349,0,0,0,0,0,0,0,0,0,-1,531,1373,0,0
-686,-349,0,0,0,0,0,0,0,0,0,-1,538,1373,0,0
-679,-349,0,0,0,0,0,0,0,0,0,-1,545,1373,0,0
-672,-349,0,0,0,0,0,0,0,0,0,-1,552,1373,0,0
-665,-349,0,0,0,0,0,0,0,0,0,-1,559,1373,0,0
-658,-349,0,0,0,0,0,0,0,0,0,-1,566,1373,0,0
-651,-349,0,0,0,0,0,0,0,0,0,-1,573,1373,0,0
-644,-349,0,0,0,0,0,0,0,0,0,-1,580,1373,0,0
-637,-349,0,0,0,0,0,0,0,0,0,-1,587,1373,0,0
-630,-349,-7.64117,-5.06177,0,0,0,0,0,0,0,-1,594,1373,-7.64118,5.0618
-623,-349,-8.63507,0.51123,0,0,0,0,0,0,0,-1,601,1373,-8.63505,-0.511275
-616,-349,-5.2066,-0.188232,0,0,0,0,0,0,0,-1,608,1373,-5.20659,0.188211
-609,-349,-7.12073,1.37048,0,0,0,0,0,0,0,-1,615,1373,-7.12072,-1.37044
-602,-349,-7.33228,1.49316,0,0,0,0,0,0,0,-1,622,1373,-7.33228,-1.49315
-595,-349,-8.36749,3.20313,0,0,0,0,0,0,0,-1,629,1373,-8.36749,-3.20312
-588,-349,-7.97101,3.71143,0,0,0,0,0,0,0,-1,636,1373,-7.97101,-3.71141
-581,-349,-8.12195,3.87927,-0.00788443,-0.00403347,-0.00703506,0.00133485,-0.0132527,-0.918976,0.00931206,0.047392,643,1373,-8.12192,-3.87932
-574,-349,-8.37708,3.96375,-0.00609772,-0.0028939,-0.00547248,0.00120631,-0.0101979,-0.927781,0.00723432,0.0241564,650,1373,-8.37707,-3.96378
-567,-349,-8.37207,4.28333,-0.00441869,-0.0019785,-0.00407626,0.00105635,-0.00745354,-0.930813,0.00535598,0.0166995,657,1373,-8.37206,-4.28338
-560,-349,-8.40344,4.58203,-0.00281795,-0.00127469,-0.00286733,0.000923023,-0.00501566,-0.91684,0.00369013,0.0205703,664,1373,-8.40345,-4.58204
-553,-349,-8.43353,4.85413,-0.0012223,-0.000769244,-0.00182126,0.000839522,-0.00283107,-0.847271,0.00222076,0.0272203,671,1373,-8.43351,-4.85411
-546,-349,-8.45544,5.16272,0.000398611,-0.000408384,-0.000859589,0.000944695,-0.000954468,-0.565961,0.00109649,0.0296657,678,1373,-8.45546,-5.16272
-539,-349,-8.42841,5.48645,0.00198417,-0.000156664,-2.9174e-05,0.00198457,-0.000157061,-0.013624,0.00137838,0.024028,685,1373,-8.42842,-5.48643
-532,-349,-8.40503,5.78845,0.00360527,4.72967e-05,0.000767082,0.0037636,-0.000111037,0.203551,0.00254689,0.0176132,692,1373,-8.40502,-5.78847
-525,-349,-8.38208,6.09363,0.00527852,2.45344e-05,0.00139049,0.00562383,-0.00032077,0.243409,0.00386059,0.0133714,699,1373,-8.38208,-6.09359
-518,-349,-8.38324,6.42688,0.00697745,5.88561e-05,0.00183954,0.00743614,-0.000399834,0.244368,0.00509594,0.0144678,706,1373,-8.38323,-6.42689
-511,-349,-8.25891,6.79626,0.00901045,0.000212743,0.00275522,0.00980208,-0.000578891,0.279785,0.00673598,0.0411681,713,1373,-8.25892,-6.79628
-504,-349,-8.14667,7.09094,0,0,0,0,0,0,0,-1,720,1373,-8.14667,-7.09094
-497,-349,-7.9339,5.58789,0,0,0,0,0,0,0,-1,727,1373,-7.93388,-5.58785
-490,-349,-8.73969,-0.503784,0,0,0,0,0,0,0,-1,734,1373,-8.73966,0.503752
-483,-349,-5.66974,3.7395,0,0,0,0,0,0,0,-1,741,1373,-5.66975,-3.73949
-476,-349,-10.8496,1.15759,0,0,0,0,0,0,0,-1,748,1373,-10.8496,-1.15756
-469,-349,-12.3314,-1.74878,0,0,0,0,0,0,0,-1,755,1373,-12.3314,1.74882
-462,-349,-12.6559,-0.995361,0,0,0,0,0,0,0,-1,762,1373,-12.656,0.995351
-455,-349,-13.2897,-0.234253,0,0,0,0,0,0,0,-1,769,1373,-13.2897,0.234261
-448,-349,-14.045,0.712891,0,0,0,0,0,0,0,-1,776,1373,-14.045,-0.712838
-441,-349,0,0,0,0,0,0,0,0,0,-1,783,1373,0,0
-434,-349,0,0,0,0,0,0,0,0,0,-1,790,1373,0,0
-427,-349,0,0,0,0,0,0,0,0,0,-1,797,1373,0,0
-420,-349,0,0,0,0,0,0,0,0,0,-1,804,1373,0,0
-413,-349,0,0,0,0,0,0,0,0,0,-1,811,1373,0,0
-406,-349,0,0,0,0,0,0,0,0,0,-1,818,1373,0,0
-399,-349,0,0,0,0,0,0,0,0,0,-1,825,1373,0,0
-392,-349,0,0,0,0,0,0,0,0,0,-1,832,1373,0,0
-385,-349,0,0,0,0,0,0,0,0,0,-1,839,1373,0,0
-378,-349,0,0,0,0,0,0,0,0,0,-1,846,1373,0,0
-371,-349,0,0,0,0,0,0,0,0,0,-1,853,1373,0,0
-364,-349,0,0,0,0,0,0,0,0,0,-1,860,1373,0,0
-357,-349,0,0,0,0,0,0,0,0,0,-1,867,1373,0,0
-350,-349,0,0,0,0,0,0,0,0,0,-1,874,1373,0,0
-343,-349,0,0,0,0,0,0,0,0,0,-1,881,1373,0,0
-336,-349,0,0,0,0,0,0,0,0,0,-1,888,1373,0,0
-329,-349,0,0,0,0,0,0,0,0,0,-1,895,1373,0,0
-322,-349,0,0,0,0,0,0,0,0,0,-1,902,1373,0,0
-315,-349,0,0,0,0,0,0,0,0,0,-1,909,1373,0,0
-308,-349,0,0,0,0,0,0,0,0,0,-1,916,1373,0,0
-301,-349,0,0,0,0,0,0,0,0,0,-1,923,1373,0,0
-294,-349,0,0,0,0,0,0,0,0,0,-1,930,1373,0,0
-287,-349,0,0,0,0,0,0,0,0,0,-1,937,1373,0,0
-280,-349,0,0,0,0,0,0,0,0,0,-1,944,1373,0,0
-273,-349,0,0,0,0,0,0,0,0,0,-1,951,1373,0,0
-266,-349,0,0,0,0,0,0,0,0,0,-1,958,1373,0,0
-259,-349,0,0,0,0,0,0,0,0,0,-1,965,1373,0,0
-252,-349,0,0,0,0,0,0,0,0,0,-1,972,1373,0,0
-245,-349,0,0,0,0,0,0,0,0,0,-1,979,1373,0,0
-238,-349,0,0,0,0,0,0,0,0,0,-1,986,1373,0,0
-231,-349,0,0,0,0,0,0,0,0,0,-1,993,1373,0,0
-224,-349,0,0,0,0,0,0,0,0,0,-1,1000,1373,0,0
-217,-349,0,0,0,0,0,0,0,0,0,-1,1007,1373,0,0
-210,-349,0,0,0,0,0,0,0,0,0,-1,1014,1373,0,0
-203,-349,0,0,0,0,0,0,0,0,0,-1,1021,1373,0,0
-196,-349,0,0,0,0,0,0,0,0,0,-1,1028,1373,0,0
-189,-349,0,0,0,0,0,0,0,0,0,-1,1035,1373,0,0
-182,-349,0,0,0,0,0,0,0,0,0,-1,1042,1373,0,0
-175,-349,0,0,0,0,0,0,0,0,0,-1,1049,1373,0,0
-168,-349,0,0,0,0,0,0,0,0,0,-1,1056,1373,0,0
-161,-349,0,0,0,0,0,0,0,0,0,-1,1063,1373,0,0
-154,-349,0,0,0,0,0,0,0,0,0,-1,1070,1373,0,0
-147,-349,0,0,0,0,0,0,0,0,0,-1,1077,1373,0,0
-140,-349,0,0,0,0,0,0,0,0,0,-1,1084,1373,0,0
-133,-349,0,0,0,0,0,0,0,0,0,-1,1091,1373,0,0
-126,-349,0,0,0,0,0,0,0,0,0,-1,1098,1373,0,0
-119,-349,0,0,0,0,0,0,0,0,0,-1,1105,1373,0,0
-112,-349,0,0,0,0,0,0,0,0,0,-1,1112,1373,0,0
-105,-349,0,0,0,0,0,0,0,0,0,-1,1119,1373,0,0
-98,-349,0,0,0,0,0,0,0,0,0,-1,1126,1373,0,0
-91,-349,0,0,0,0,0,0,0,0,0,-1,1133,1373,0,0
-84,-349,0,0,0,0,0,0,0,0,0,-1,1140,1373,0,0
-77,-349,0,0,0,0,0,0,0,0,0,-1,1147,1373,0,0
-70,-349,0,0,0,0,0,0,0,0,0,-1,1154,1373,0,0
-63,-349,0,0,0,0,0,0,0,0,0,-1,1161,1373,0,0
-56,-349,0,0,0,0,0,0,0,0,0,-1,1168,1373,0,0
-49,-349,0,0,0,0,0,0,0,0,0,-1,1175,1373,0,0
-42,-349,0,0,0,0,0,0,0,0,0,-1,1182,1373,0,0
-35,-349,0,0,0,0,0,0,0,0,0,-1,1189,1373,0,0
-28,-349,0,0,0,0,0,0,0,0,0,-1,1196,1373,0,0
-21,-349,0,0,0,0,0,0,0,0,0,-1,1203,1373,0,0
-14,-349,0,0,0,0,0,0,0,0,0,-1,1210,1373,0,0
-7,-349,0,0,0,0,0,0,0,0,0,-1,1217,1373,0,0
0,-349,0,0,0,0,0,0,0,0,0,-1,1224,1373,0,0
7,-349,0,0,0,0,0,0,0,0,0,-1,1231,1373,0,0
14,-349,0,0,0,0,0,0,0,0,0,-1,1238,1373,0,0
21,-349,0,0,0,0,0,0,0,0,0,-1,1245,1373,0,0
28,-349,0,0,0,0,0,0,0,0,0,-1,1252,1373,0,0
35,-349,0,0,0,0,0,0,0,0,0,-1,1259,1373,0,0
42,-349,0,0,0,0,0,0,0,0,0,-1,1266,1373,0,0
49,-349,0,0,0,0,0,0,0,0,0,-1,1273,1373,0,0
56,-349,0,0,0,0,0,0,0,0,0,-1,1280,1373,0,0
63,-349,0,0,0,0,0,0,0,0,0,-1,1287,1373,0,0
70,-349,0,0,0,0,0,0,0,0,0,-1,1294,1373,0,0
77,-349,0,0,0,0,0,0,0,0,0,-1,1301,1373,0,0
84,-349,0,0,0,0,0,0,0,0,0,-1,1308,1373,0,0
91,-349,0,0,0,0,0,0,0,0,0,-1,1315,1373,0,0
98,-349,0,0,0,0,0,0,0,0,0,-1,1322,1373,0,0
105,-349,0,0,0,0,0,0,0,0,0,-1,1329,1373,0,0
112,-349,0,0,0,0,0,0,0,0,0,-1,1336,1373,0,0
119,-349,0,0,0,0,0,0,0,0,0,-1,1343,1373,0,0
126,-349,0,0,0,0,0,0,0,0,0,-1,1350,1373,0,0
133,-349,0,0,0,0,0,0,0,0,0,-1,1357,1373,0,0
140,-349,0,0,0,0,0,0,0,0,0,-1,1364,1373,0,0
147,-349,0,0,0,0,0,0,0,0,0,-1,1371,1373,0,0
154,-349,0,0,0,0,0,0,0,0,0,-1,1378,1373,0,0
161,-349,0,0,0,0,0,0,0,0,0,-1,1385,1373,0,0
168,-349,0,0,0,0,0,0,0,0,0,-1,1392,1373,0,0
175,-349,0,0,0,0,0,0,0,0,0,-1,1399,1373,0,0
182,-349,0,0,0,0,0,0,0,0,0,-1,1406,1373,0,0
189,-349,0,0,0,0,0,0,0,0,0,-1,1413,1373,0,0
196,-349,0,0,0,0,0,0,0,0,0,-1,1420,1373,0,0
203,-349,0,0,0,0,0,0,0,0,0,-1,1427,1373,0,0
210,-349,0,0,0,0,0,0,0,0,0,-1,1434,1373,0,0
217,-349,0,0,0,0,0,0,0,0,0,-1,1441,1373,0,0
224,-349,0,0,0,0,0,0,0,0,0,-1,1448,1373,0,0
231,-349,0,0,0,0,0,0,0,0,0,-1,1455,1373,0,0
238,-349,0,0,0,0,0,0,0,0,0,-1,1462,1373,0,0
245,-349,0,0,0,0,0,0,0,0,0,-1,1469,1373,0,0
252,-349,0,0,0,0,0,0,0,0,0,-1,1476,1373,0,0
259,-349,0,0,0,0,0,0,0,0,0,-1,1483,1373,0,0
266,-349,0,0,0,0,0,0,0,0,0,-1,1490,1373,0,0
273,-349,0,0,0,0,0,0,0,0,0,-1,1497,1373,0,0
280,-349,0,0,0,0,0,0,0,0,0,-1,1504,1373,0,0
287,-349,0,0,0,0,0,0,0,0,0,-1,1511,1373,0,0
294,-349,0,0,0,0,0,0,0,0,0,-1,1518,1373,0,0
301,-349,0,0,0,0,0,0,0,0,0,-1,1525,1373,0,0
308,-349,0,0,0,0,0,0,0,0,0,-1,1532,1373,0,0
315,-349,0,0,0,0,0,0,0,0,0,-1,1539,1373,0,0
322,-349,0,0,0,0,0,0,0,0,0,-1,1546,1373,0,0
329,-349,0,0,0,0,0,0,0,0,0,-1,1553,1373,0,0
336,-349,0,0,0,0,0,0,0,0,0,-1,1560,1373,0,0
343,-349,0,0,0,0,0,0,0,0,0,-1,1567,1373,0,0
350,-349,0,0,0,0,0,0,0,0,0,-1,1574,1373,0,0
357,-349,0,0,0,0,0,0,0,0,0,-1,1581,1373,0,0
364,-349,0,0,0,0,0,0,0,0,0,-1,1588,1373,0,0
371,-349,0,0,0,0,0,0,0,0,0,-1,1595,1373,0,0
378,-349,0,0,0,0,0,0,0,0,0,-1,1602,1373,0,0
385,-349,0,0,0,0,0,0,0,0,0,-1,1609,1373,0,0
392,-349,0,0,0,0,0,0,0,0,0,-1,1616,1373,0,0
399,-349,0,0,0,0,0,0,0,0,0,-1,1623,1373,0,0
406,-349,0,0,0,0,0,0,0,0,0,-1,1630,1373,0,0
413,-349,0,0,0,0,0,0,0,0,0,-1,1637,1373,0,0
420,-349,0,0,0,0,0,0,0,0,0,-1,1644,1373,0,0
427,-349,0,0,0,0,0,0,0,0,0,-1,1651,1373,0,0
434,-349,0,0,0,0,0,0,0,0,0,-1,1658,1373,0,0
441,-349,0,0,0,0,0,0,0,0,0,-1,1665,1373,0,0
448,-349,0,0,0,0,0,0,0,0,0,-1,1672,1373,0,0
455,-349,0,0,0,0,0,0,0,0,0,-1,1679,1373,0,0
462,-349,0,0,0,0,0,0,0,0,0,-1,1686,1373,0,0
469,-349,0,0,0,0,0,0,0,0,0,-1,1693,1373,0,0
476,-349,0,0,0,0,0,0,0,0,0,-1,1700,1373,0,0
483,-349,0,0,0,0,0,0,0,0,0,-1,1707,1373,0,0
490,-349,0,0,0,0,0,0,0,0,0,-1,1714,1373,0,0
497,-349,0,0,0,0,0,0,0,0,0,-1,1721,1373,0,0
504,-349,0,0,0,0,0,0,0,0,0,-1,1728,1373,0,0
511,-349,0,0,0,0,0,0,0,0,0,-1,1735,1373,0,0
518,-349,0,0,0,0,0,0,0,0,0,-1,1742,1373,0,0
525,-349,0,0,0,0,0,0,0,0,0,-1,1749,1373,0,0
532,-349,0,0,0,0,0,0,0,0,0,-1,1756,1373,0,0
539,-349,0,0,0,0,0,0,0,0,0,-1,1763,1373,0,0
546,-349,0,0,0,0,0,0,0,0,0,-1,1770,1373,0,0
553,-349,0,0,0,0,0,0,0,0,0,-1,1777,1373,0,0
560,-349,26.057,4.97644,0,0,0,0,0,0,0,-1,1784,1373,26.057,-4.97641
567,-349,25.8689,3.7179,0,0,0,0,0,0,0,-1,1791,1373,25.8689,-3.7179
574,-349,26.4231,3.38586,0,0,0,0,0,0,0,-1,1798,1373,26.4231,-3.38586
581,-349,28.3,0.557617,0,0,0,0,0,0,0,-1,1805,1373,28.3,-0.557579
588,-349,27.1884,0.906372,-0.140721,-0.0734602,0.0657503,-0.0332387,-0.180943,1.0218,0.111217,0.0472822,1812,1373,27.1884,-0.906357
595,-349,26.0487,1.27209,0,0,0,0,0,0,0,-1,1819,1373,26.0487,-1.27215
602,-349,24.9091,1.83972,0,0,0,0,0,0,0,-1,1826,1373,24.9091,-1.83971
609,-349,22.7898,3.97815,0,0,0,0,0,0,0,-1,1833,1373,22.7898,-3.9782
616,-349,20.7064,3.54407,0,0,0,0,0,0,0,-1,1840,1373,20.7064,-3.54402
623,-349,18.8478,2.75769,0,0,0,0,0,0,0,-1,1847,1373,18.8478,-2.75774
630,-349,15.4948,6.47644,0,0,0,0,0,0,0,-1,1854,1373,15.4947,-6.4765
637,-349,16.5161,6.92639,0,0,0,0,0,0,0,-1,1861,1373,16.5161,-6.92636
644,-349,17.9314,8.79871,0,0,0,0,0,0,0,-1,1868,1373,17.9314,-8.79868
651,-349,18.0197,8.25623,-0.0165142,-0.0066937,0.00421525,-0.00513256,-0.0180753,1.2161,0.0107556,0.024991,1875,1373,18.0197,-8.25622
658,-349,17.9495,7.97253,-0.00757038,-0.00424164,0.00237519,-0.00300572,-0.00880629,1.09101,0.00516896,0.0267232,1882,1373,17.9495,-7.97257
665,-349,17.9473,7.7074,-0.00230778,-0.00297532,0.00152936,-0.00107619,-0.00420691,0.677961,0.00252356,0.0195844,1889,1373,17.9472,-7.7074
672,-349,17.9333,7.4502,0.000177582,-0.00125159,0.0010099,0.000700146,-0.00177415,0.477501,0.00147271,0.014103,1896,1373,17.9333,-7.45016
679,-349,17.9377,7.19836,0.000420075,-3.3886e-05,0.000513972,0.000754955,-0.000368767,0.577467,0.000661429,0.0138108,1903,1373,17.9378,-7.19838
686,-349,17.9696,6.96143,0.000692504,0.00072684,0.000136427,0.000847174,0.000572169,0.84799,0.000499046,0.0125395,1910,1373,17.9696,-6.96141
693,-349,17.9591,6.672,0.000859687,0.00175427,-0.000180423,0.00178929,0.00082467,-1.37909,0.0010341,0.0153153,1917,1373,17.9591,-6.67204
700,-349,17.9352,6.4093,0.00107845,0.00301911,-0.000574105,0.00317623,0.000921333,-1.30366,0.0018869,0.0160859,1924,1373,17.9352,-6.40927
707,-349,17.9645,6.11316,0.00119385,0.00465705,-0.0010722,0.00496212,0.000888778,-1.29359,0.00305522,0.0249709,1931,1373,17.9644,-6.11314
714,-349,17.9026,5.9093,0.000903801,0.00662569,-0.00137094,0.0069372,0.000592289,-1.34737,0.00444056,0.0430351,1938,1373,17.9025,-5.9093
721,-349,17.6345,5.54053,0,0,0,0,0,0,0,-1,1945,1373,17.6345,-5.54055
728,-349,18.6333,3.73218,0,0,0,0,0,0,0,-1,1952,1373,18.6333,-3.73214
735,-349,18.1918,3.39954,0,0,0,0,0,0,0,-1,1959,1373,18.1918,-3.3995
742,-349,20.7345,2.07483,0,0,0,0,0,0,0,-1,1966,1373,20.7345,-2.07485
749,-349,21.9037,1.45789,0,0,0,0,0,0,0,-1,1973,1373,21.9037,-1.45788
756,-349,0,0,0,0,0,0,0,0,0,-1,1980,1373,0,0
763,-349,0,0,0,0,0,0,0,0,0,-1,1987,1373,0,0
770,-349,0,0,0,0,0,0,0,0,0,-1,1994,1373,0,0
777,-349,0,0,0,0,0,0,0,0,0,-1,2001,1373,0,0
784,-349,0,0,0,0,0,0,0,0,0,-1,2008,1373,0,0
791,-349,0,0,0,0,0,0,0,0,0,-1,2015,1373,0,0
798,-349,0,0,0,0,0,0,0,0,0,-1,2022,1373,0,0
805,-349,0,0,0,0,0,0,0,0,0,-1,2029,1373,0,0
812,-349,0,0,0,0,0,0,0,0,0,-1,2036,1373,0,0
-700,-356,0,0,0,0,0,0,0,0,0,-1,524,1380,0,0
-693,-356,0,0,0,0,0,0,0,0,0,-1,531,1380,0,0
-686,-356,0,0,0,0,0,0,0,0,0,-1,538,1380,0,0
-679,-356,0,0,0,0,0,0,0,0,0,-1,545,1380,0,0
-672,-356,0,0,0,0,0,0,0,0,0,-1,552,1380,0,0
-665,-356,0,0,0,0,0,0,0,0,0,-1,559,1380,0,0
-658,-356,0,0,0,0,0,0,0,0,0,-1,566,1380,0,0
-651,-356,0,0,0,0,0,0,0,0,0,-1,573,1380,0,0
-644,-356,0,0,0,0,0,0,0,0,0,-1,580,1380,0,0
-637,-356,0,0,0,0,0,0,0,0,0,-1,587,1380,0,0
-630,-356,-8.23126,-5.01917,0,0,0,0,0,0,0,-1,594,1380,-8.23124,5.0192
-623,-356,-0.263855,-0.675781,0,0,0,0,0,0,0,-1,601,1380,-0.263835,0.675841
-616,-356,-8.26532,-3.43945,0,0,0,0,0,0,0,-1,608,1380,-8.2653,3.43948
-609,-356,-4.88483,0.734497,0,0,0,0,0,0,0,-1,615,1380,-4.88485,-0.734532
-602,-356,-9.06635,2.4021,0,0,0,0,0,0,0,-1,622,1380,-9.06634,-2.40206
-595,-356,-6.72919,2.52393,0,0,0,0,0,0,0,-1,629,1380,-6.72918,-2.52391
-588,-356,-7.81238,3.97498,0,0,0,0,0,0,0,-1,636,1380,-7.81238,-3.97495
-581,-356,-7.8446,4.18909,-0.00892856,-0.00406298,-0.00846269,0.00230965,-0.0153012,-0.92536,0.0110514,0.0473345,643,1380,-7.84459,-4.18908
-574,-356,-7.93524,4.08508,-0.00687814,-0.00285122,-0.00639115,0.00183613,-0.0115655,-0.937996,0.00838961,0.0330312,650,1380,-7.93523,-4.08508
-567,-356,-8.11084,4.2561,-0.00501408,-0.00192343,-0.0046647,0.00144525,-0.00838276,-0.945349,0.00612733,0.0172766,657,1380,-8.11086,-4.25613
-560,-356,-8.09784,4.58972,-0.00330284,-0.00120609,-0.00323608,0.0011472,-0.00565613,-0.942046,0.00420563,0.0179508,664,1380,-8.09781,-4.58969
-553,-356,-8.10034,4.88611,-0.00162334,-0.000723686,-0.00204924,0.000924521,-0.00327155,-0.893439,0.00254579,0.0208057,671,1380,-8.10034,-4.88609
-546,-356,-8.14276,5.16589,4.95513e-05,-0.000381284,-0.00100111,0.000858156,-0.00118989,-0.679424,0.0011876,0.0226008,678,1380,-8.14278,-5.16594
-539,-356,-8.12,5.4906,0.00167035,-0.000140012,-0.000111339,0.00167717,-0.000146834,-0.0611937,0.00117013,0.0153422,685,1380,-8.12002,-5.49064
-532,-356,-8.11273,5.79358,0.00331907,9.329e-05,0.000741189,0.00348122,-6.88625e-05,0.21538,0.00234411,0.0141968,692,1380,-8.11271,-5.7936
-525,-356,-8.09998,6.09021,0.00499863,0.000150133,0.00145285,0.00540065,-0.000251881,0.269952,0.00368726,0.0127084,699,1380,-8.1,-6.09022
-518,-356,-8.08691,6.43042,0.00665252,0.000147946,0.00193039,0.00718226,-0.0003818,0.267831,0.00492038,0.0126565,706,1380,-8.0869,-6.43041
-511,-356,-7.96045,6.79712,0.00857326,0.000265727,0.00279594,0.0094266,-0.000587609,0.296225,0.00648914,0.0285329,713,1380,-7.96046,-6.79714
-504,-356,-7.58575,6.89172,0,0,0,0,0,0,0,-1,720,1380,-7.58574,-6.89172
-497,-356,-5.68604,4.96387,0,0,0,0,0,0,0,-1,727,1380,-5.68605,-4.96385
-490,-356,-7.95288,5.5625,0,0,0,0,0,0,0,-1,734,1380,-7.95285,-5.56246
-483,-356,-7.2627,4.07446,0,0,0,0,0,0,0,-1,741,1380,-7.2627,-4.07441
-476,-356,-5.1936,4.16016,0,0,0,0,0,0,0,-1,748,1380,-5.1936,-4.16012
-469,-356,-10.0883,0.536011,0,0,0,0,0,0,0,-1,755,1380,-10.0883,-0.535989
-462,-356,-12.3481,-0.215698,0,0,0,0,0,0,0,-1,762,1380,-12.3481,0.215641
-455,-356,-13.1367,-0.264648,0,0,0,0,0,0,0,-1,769,1380,-13.1367,0.264647
-448,-356,-13.9116,-0.310181,0,0,0,0,0,0,0,-1,776,1380,-13.9115,0.310207
-441,-356,-13.1602,3.05603,0,0,0,0,0,0,0,-1,783,1380,-13.1602,-3.05609
-434,-356,0,0,0,0,0,0,0,0,0,-1,790,1380,0,0
-427,-356,0,0,0,0,0,0,0,0,0,-1,797,1380,0,0
-420,-356,0,0,0,0,0,0,0,0,0,-1,804,1380,0,0
-413,-356,0,0,0,0,0,0,0,0,0,-1,811,1380,0,0
-406,-356,0,0,0,0,0,0,0,0,0,-1,818,1380,0,0
-399,-356,0,0,0,0,0,0,0,0,0,-1,825,1380,0,0
-392,-356,0,0,0,0,0,0,0,0,0,-1,832,1380,0,0
-385,-356,0,0,0,0,0,0,0,0,0,-1,839,1380,0,0
-378,-356,0,0,0,0,0,0,0,0,0,-1,846,1380,0,0
-371,-356,0,0,0,0,0,0,0,0,0,-1,853,1380,0,0
-364,-356,0,0,0,0,0,0,0,0,0,-1,860,1380,0,0
-357,-356,0,0,0,0,0,0,0,0,0,-1,867,1380,0,0
-350,-356,0,0,0,0,0,0,0,0,0,-1,874,1380,0,0
-343,-356,0,0,0,0,0,0,0,0,0,-1,881,1380,0,0
-336,-356,0,0,0,0,0,0,0,0,0,-1,888,1380,0,0
-329,-356,0,0,0,0,0,0,0,0,0,-1,895,1380,0,0
-322,-356,0,0,0,0,0,0,0,0,0,-1,902,1380,0,0
-315,-356,0,0,0,0,0,0,0,0,0,-1,909,1380,0,0
-308,-356,0,0,0,0,0,0,0,0,0,-1,916,1380,0,0
-301,-356,0,0,0,0,0,0,0,0,0,-1,923,1380,0,0
-294,-356,0,0,0,0,0,0,0,0,0,-1,930,1380,0,0
-287,-356,0,0,0,0,0,0,0,0,0,-1,937,1380,0,0
-280,-356,0,0,0,0,0,0,0,0,0,-1,944,1380,0,0
-273,-356,0,0,0,0,0,0,0,0,0,-1,951,1380,0,0
-266,-356,0,0,0,0,0,0,0,0,0,-1,958,1380,0,0
-259,-356,0,0,0,0,0,0,0,0,0,-1,965,1380,0,0
-252,-356,0,0,0,0,0,0,0,0,0,-1,972,1380,0,0
-245,-356,0,0,0,0,0,0,0,0,0,-1,979,1380,0,0
-238,-356,0,0,0,0,0,0,0,0,0,-1,986,1380,0,0
-231,-356,0,0,0,0,0,0,0,0,0,-1,993,1380,0,0
-224,-356,0,0,0,0,0,0,0,0,0,-1,1000,1380,0,0
-217,-356,0,0,0,0,0,0,0,0,0,-1,1007,1380,0,0
-210,-356,0,0,0,0,0,0,0,0,0,-1,1014,1380,0,0
-203,-356,0,0,0,0,0,0,0,0,0,-1,1021,1380,0,0
-196,-356,0,0,0,0,0,0,0,0,0,-1,1028,1380,0,0
-189,-356,0,0,0,0,0,0,0,0,0,-1,1035,1380,0,0
-182,-356,0,0,0,0,0,0,0,0,0,-1,1042,1380,0,0
-175,-356,0,0,0,0,0,0,0,0,0,-1,1049,1380,0,0
-168,-356,0,0,0,0,0,0,0,0,0,-1,1056,1380,0,0
-161,-356,0,0,0,0,0,0,0,0,0,-1,1063,1380,0,0
-154,-356,0,0,0,0,0,0,0,0,0,-1,1070,1380,0,0
-147,-356,0,0,0,0,0,0,0,0,0,-1,1077,1380,0,0
-140,-356,0,0,0,0,0,0,0,0,0,-1,1084,1380,0,0
-133,-356,0,0,0,0,0,0,0,0,0,-1,1091,1380,0,0
-126,-356,0,0,0,0,0,0,0,0,0,-1,1098,1380,0,0
-119,-356,0,0,0,0,0,0,0,0,0,-1,1105,1380,0,0
-112,-356,0,0,0,0,0,0,0,0,0,-1,1112,1380,0,0
-105,-356,0,0,0,0,0,0,0,0,0,-1,1119,1380,0,0
-98,-356,0,0,0,0,0,0,0,0,0,-1,1126,1380,0,0
-91,-356,0,0,0,0,0,0,0,0,0,-1,1133,1380,0,0
-84,-356,0,0,0,0,0,0,0,0,0,-1,1140,1380,0,0
-77,-356,0,0,0,0,0,0,0,0,0,-1,1147,1380,0,0
-70,-356,0,0,0,0,0,0,0,0,0,-1,1154,1380,0,0
-63,-356,0,0,0,0,0,0,0,0,0,-1,1161,1380,0,0
-56,-356,0,0,0,0,0,0,0,0,0,-1,1168,1380,0,0
-49,-356,0,0,0,0,0,0,0,0,0,-1,1175,1380,0,0
-42,-356,0,0,0,0,0,0,0,0,0,-1,1182,1380,0,0
-35,-356,0,0,0,0,0,0,0,0,0,-1,1189,1380,0,0
-28,-356,0,0,0,0,0,0,0,0,0,-1,1196,1380,0,0
-21,-356,0,0,0,0,0,0,0,0,0,-1,1203,1380,0,0
-14,-356,0,0,0,0,0,0,0,0,0,-1,1210,1380,0,0
-7,-356,0,0,0,0,0,0,0,0,0,-1,1217,1380,0,0
0,-356,0,0,0,0,0,0,0,0,0,-1,1224,1380,0,0
7,-356,0,0,0,0,0,0,0,0,0,-1,1231,1380,0,0
14,-356,0,0,0,0,0,0,0,0,0,-1,1238,1380,0,0
21,-356,0,0,0,0,0,0,0,0,0,-1,1245,1380,0,0
28,-356,0,0,0,0,0,0,0,0,0,-1,1252,1380,0,0
35,-356,0,0,0,0,0,0,0,0,0,-1,1259,1380,0,0
42,-356,0,0,0,0,0,0,0,0,0,-1,1266,1380,0,0
49,-356,0,0,0,0,0,0,0,0,0,-1,1273,1380,0,0
56,-356,0,0,0,0,0,0,0,0,0,-1,1280,1380,0,0
63,-356,0,0,0,0,0,0,0,0,0,-1,1287,1380,0,0
70,-356,0,0,0,0,0,0,0,0,0,-1,1294,1380,0,0
77,-356,0,0,0,0,0,0,0,0,0,-1,1301,1380,0,0
84,-356,0,0,0,0,0,0,0,0,0,-1,1308,1380,0,0
91,-356,0,0,0,0,0,0,0,0,0,-1,1315,1380,0,0
98,-356,0,0,0,0,0,0,0,0,0,-1,1322,1380,0,0
105,-356,0,0,0,0,0,0,0,0,0,-1,1329,1380,0,0
112,-356,0,0,0,0,0,0,0,0,0,-1,1336,1380,0,0
119,-356,0,0,0,0,0,0,0,0,0,-1,1343,1380,0,0
126,-356,0,0,0,0,0,0,0,0,0,-1,1350,1380,0,0
133,-356,0,0,0,0,0,0,0,0,0,-1,1357,1380,0,0
140,-356,0,0,0,0,0,0,0,0,0,-1,1364,1380,0,0
147,-356,0,0,0,0,0,0,0,0,0,-1,1371,1380,0,0
154,-356,0,0,0,0,0,0,0,0,0,-1,1378,1380,0,0
161,-356,0,0,0,0,0,0,0,0,0,-1,1385,1380,0,0
168,-356,0,0,0,0,0,0,0,0,0,-1,1392,1380,0,0
175,-356,0,0,0,0,0,0,0,0,0,-1,1399,1380,0,0
182,-356,0,0,0,0,0,0,0,0,0,-1,1406,1380,0,0
189,-356,0,0,0,0,0,0,0,0,0,-1,1413,1380,0,0
196,-356,0,0,0,0,0,0,0,0,0,-1,1420,1380,0,0
203,-356,0,0,0,0,0,0,0,0,0,-1,1427,1380,0,0
210,-356,0,0,0,0,0,0,0,0,0,-1,1434,1380,0,0
217,-356,0,0,0,0,0,0,0,0,0,-1,1441,1380,0,0
224,-356,0,0,0,0,0,0,0,0,0,-1,1448,1380,0,0
231,-356,0,0,0,0,0,0,0,0,0,-1,1455,1380,0,0
238,-356,0,0,0,0,0,0,0,0,0,-1,1462,1380,0,0
245,-356,0,0,0,0,0,0,0,0,0,-1,1469,1380,0,0
252,-356,0,0,0,0,0,0,0,0,0,-1,1476,1380,0,0
259,-356,0,0,0,0,0,0,0,0,0,-1,1483,1380,0,0
266,-356,0,0,0,0,0,0,0,0,0,-1,1490,1380,0,0
273,-356,0,0,0,0,0,0,0,0,0,-1,1497,1380,0,0
280,-356,0,0,0,0,0,0,0,0,0,-1,1504,1380,0,0
287,-356,0,0,0,0,0,0,0,0,0,-1,1511,1380,0,0
294,-356,0,0,0,0,0,0,0,0,0,-1,1518,1380,0,0
301,-356,0,0,0,0,0,0,0,0,0,-1,1525,1380,0,0
308,-356,0,0,0,0,0,0,0,0,0,-1,1532,1380,0,0
315,-356,0,0,0,0,0,0,0,0,0,-1,1539,1380,0,0
322,-356,0,0,0,0,0,0,0,0,0,-1,1546,1380,0,0
329,-356,0,0,0,0,0,0,0,0,0,-1,1553,1380,0,0
336,-356,0,0,0,0,0,0,0,0,0,-1,1560,1380,0,0
343,-356,0,0,0,0,0,0,0,0,0,-1,1567,1380,0,0
350,-356,0,0,0,0,0,0,0,0,0,-1,1574,1380,0,0
357,-356,0,0,0,0,0,0,0,0,0,-1,1581,1380,0,0
364,-356,0,0,0,0,0,0,0,0,0,-1,1588,1380,0,0
371,-356,0,0,0,0,0,0,0,0,0,-1,1595,1380,0,0
378,-356,0,0,0,0,0,0,0,0,0,-1,1602,1380,0,0
385,-356,0,0,0,0,0,0,0,0,0,-1,1609,1380,0,0
392,-356,0,0,0,0,0,0,0,0,0,-1,1616,1380,0,0
399,-356,0,0,0,0,0,0,0,0,0,-1,1623,1380,0,0
406,-356,0,0,0,0,0,0,0,0,0,-1,1630,1380,0,0
413,-356,0,0,0,0,0,0,0,0,0,-1,1637,1380,0,0
420,-356,0,0,0,0,0,0,0,0,0,-1,1644,1380,0,0
427,-356,0,0,0,0,0,0,0,0,0,-1,1651,1380,0,0
434,-356,0,0,0,0,0,0,0,0,0,-1,1658,1380,0,0
441,-356,0,0,0,0,0,0,0,0,0,-1,1665,1380,0,0
448,-356,0,0,0,0,0,0,0,0,0,-1,1672,1380,0,0
455,-356,0,0,0,0,0,0,0,0,0,-1,1679,1380,0,0
462,-356,0,0,0,0,0,0,0,0,0,-1,1686,1380,0,0
469,-356,0,0,0,0,0,0,0,0,0,-1,1693,1380,0,0
476,-356,0,0,0,0,0,0,0,0,0,-1,1700,1380,0,0
483,-356,0,0,0,0,0,0,0,0,0,-1,1707,1380,0,0
490,-356,0,0,0,0,0,0,0,0,0,-1,1714,1380,0,0
497,-356,0,0,0,0,0,0,0,0,0,-1,1721,1380,0,0
504,-356,0,0,0,0,0,0,0,0,0,-1,1728,1380,0,0
511,-356,0,0,0,0,0,0,0,0,0,-1,1735,1380,0,0
518,-356,0,0,0,0,0,0,0,0,0,-1,1742,1380,0,0
525,-356,0,0,0,0,0,0,0,0,0,-1,1749,1380,0,0
532,-356,0,0,0,0,0,0,0,0,0,-1,1756,1380,0,0
539,-356,0,0,0,0,0,0,0,0,0,-1,1763,1380,0,0
546,-356,0,0,0,0,0,0,0,0,0,-1,1770,1380,0,0
553,-356,0,0,0,0,0,0,0,0,0,-1,1777,1380,0,0
560,-356,25.8486,5.06152,0,0,0,0,0,0,0,-1,1784,1380,25.8486,-5.0615
567,-356,25.6448,3.78015,0,0,0,0,0,0,0,-1,1791,1380,25.6447,-3.78021
574,-356,27.9353,0.239624,0,0,0,0,0,0,0,-1,1798,1380,27.9353,-0.239649
581,-356,27.2845,1.39233,-0.13976,-0.0814932,0.0754783,-0.0297209,-0.191532,0.969581,0.119025,0.0477276,1805,1380,27.2845,-1.39239
588,-356,26.6517,1.5116,-0.131422,-0.0729218,0.0681701,-0.0279916,-0.176352,0.988058,0.109438,0.04399,1812,1380,26.6518,-1.51165
595,-356,25.6527,1.79871,0,0,0,0,0,0,0,-1,1819,1380,25.6527,-1.79868
602,-356,19.4949,1.81091,0,0,0,0,0,0,0,-1,1826,1380,19.4948,-1.81086
609,-356,18.3176,1.85144,0,0,0,0,0,0,0,-1,1833,1380,18.3176,-1.85148
616,-356,20.2087,3.72729,0,0,0,0,0,0,0,-1,1840,1380,20.2088,-3.72729
623,-356,16.1803,1.07532,0,0,0,0,0,0,0,-1,1847,1380,16.1803,-1.07529
630,-356,16.4138,6.91553,0,0,0,0,0,0,0,-1,1854,1380,16.4138,-6.9155
637,-356,17.4728,8.53979,0,0,0,0,0,0,0,-1,1861,1380,17.4728,-8.53977
644,-356,17.6466,8.66614,-0.0214827,-0.00830963,0.00627405,-0.00579967,-0.0239926,1.19024,0.014455,0.0337736,1868,1380,17.6466,-8.66611
651,-356,17.7159,8.27612,-0.0116113,-0.00519578,0.00247466,-0.00435216,-0.0124549,1.24225,0.00729873,0.0166681,1875,1380,17.7159,-8.27608
658,-356,17.7028,7.94299,-0.0046878,-0.00317598,0.00116914,-0.00253966,-0.00532412,1.07237,0.00307496,0.015033,1882,1380,17.7027,-7.94294
665,-356,17.7091,7.71582,-0.00085251,-0.00212964,0.00067611,-0.000561081,-0.00242107,0.406974,0.00146333,0.0137572,1889,1380,17.7091,-7.71583
672,-356,17.66,7.47144,0.000833324,-0.00078958,0.000443186,0.000946463,-0.000902719,0.249947,0.00106773,0.0144796,1896,1380,17.6601,-7.47147
679,-356,17.6432,7.20178,0.000867461,0.000233721,0.000225821,0.000939695,0.000161488,0.309587,0.000580174,0.0172813,1903,1380,17.6432,-7.20173
686,-356,17.652,6.94543,0.0010278,0.000903187,-3.90209e-07,0.0010278,0.000903186,-0.00313128,0.000647672,0.0162735,1910,1380,17.652,-6.94542
693,-356,17.7064,6.69116,0.00117074,0.00183299,-0.000204187,0.00189089,0.00111285,-1.29451,0.00109739,0.0144918,1917,1380,17.7064,-6.6912
700,-356,17.6926,6.40442,0.00142064,0.00311138,-0.000531657,0.00326466,0.00126736,-1.29009,0.0019005,0.019696,1924,1380,17.6926,-6.4044
707,-356,17.6932,6.11328,0,0,0,0,0,0,0,-1,1931,1380,17.6932,-6.11331
714,-356,17.5895,5.39368,0,0,0,0,0,0,0,-1,1938,1380,17.5894,-5.39367
721,-356,17.2948,4.1958,0,0,0,0,0,0,0,-1,1945,1380,17.2948,-4.19584
728,-356,19.1846,2.31519,0,0,0,0,0,0,0,-1,1952,1380,19.1846,-2.31514
735,-356,20.0731,2.50842,0,0,0,0,0,0,0,-1,1959,1380,20.0731,-2.50844
742,-356,21.0111,2.43762,0,0,0,0,0,0,0,-1,1966,1380,21.0112,-2.43762
749,-356,22.1411,1.83276,0,0,0,0,0,0,0,-1,1973,1380,22.1411,-1.83275
756,-356,0,0,0,0,0,0,0,0,0,-1,1980,1380,0,0
763,-356,0,0,0,0,0,0,0,0,0,-1,1987,1380,0,0
770,-356,0,0,0,0,0,0,0,0,0,-1,1994,1380,0,0
777,-356,0,0,0,0,0,0,0,0,0,-1,2001,1380,0,0
784,-356,0,0,0,0,0,0,0,0,0,-1,2008,1380,0,0
791,-356,0,0,0,0,0,0,0,0,0,-1,2015,1380,0,0
798,-356,0,0,0,0,0,0,0,0,0,-1,2022,1380,0,0
805,-356,0,0,0,0,0,0,0,0,0,-1,2029,1380,0,0
812,-356,0,0,0,0,0,0,0,0,0,-1,2036,1380,0,0
-700,-363,0,0,0,0,0,0,0,0,0,-1,524,1387,0,0
-693,-363,0,0,0,0,0,0,0,0,0,-1,531,1387,0,0
-686,-363,0,0,0,0,0,0,0,0,0,-1,538,1387,0,0
-679,-363,0,0,0,0,0,0,0,0,0,-1,545,1387,0,0
-672,-363,0,0,0,0,0,0,0,0,0,-1,552,1387,0,0
-665,-363,0,0,0,0,0,0,0,0,0,-1,559,1387,0,0
-658,-363,0,0,0,0,0,0,0,0,0,-1,566,1387,0,0
-651,-363,0,0,0,0,0,0,0,0,0,-1,573,1387,0,0
-644,-363,0,0,0,0,0,0,0,0,0,-1,580,1387,0,0
-637,-363,0,0,0,0,0,0,0,0,0,-1,587,1387,0,0
-630,-363,0,0,0,0,0,0,0,0,0,-1,594,1387,0,0
-623,-363,-9.67566,-5.91846,0,0,0,0,0,0,0,-1,601,1387,-9.67563,5.91847
-616,-363,-9.02985,-2.98083,0,0,0,0,0,0,0,-1,608,1387,-9.02987,2.98079
-609,-363,-4.90265,0.195679,0,0,0,0,0,0,0,-1,615,1387,-4.90263,-0.195721
-602,-363,-9.65009,3.5321,0,0,0,0,0,0,0,-1,622,1387,-9.65007,-3.53211
-595,-363,-8.8374,3.49561,0,0,0,0,0,0,0,-1,629,1387,-8.83742,-3.49562
-588,-363,-7.64954,4.21643,0,0,0,0,0,0,0,-1,636,1387,-7.64956,-4.21642
-581,-363,-7.61981,4.31348,-0.00979814,-0.00448436,-0.00941238,0.00263893,-0.0169214,-0.922957,0.0122557,0.0448206,643,1387,-7.61983,-4.31349
-574,-363,-7.62677,4.17346,-0.00764733,-0.00333564,-0.00704313,0.00187421,-0.0128572,-0.933916,0.00925963,0.0366783,650,1387,-7.62678,-4.17348
-567,-363,-7.80139,4.2738,-0.00572117,-0.00245009,-0.00514963,0.00131748,-0.00948875,-0.939162,0.00680762,0.0242465,657,1387,-7.80141,-4.27382
-560,-363,-7.80194,4.56396,-0.00399672,-0.00171636,-0.00362229,0.00094096,-0.00665404,-0.937873,0.00478065,0.0133209,664,1387,-7.80193,-4.56396
-553,-363,-7.80676,4.89709,-0.00232165,-0.00120166,-0.00239367,0.000696647,-0.00421996,-0.900305,0.00307197,0.0132555,671,1387,-7.80679,-4.89712
-546,-363,-7.81226,5.18103,-0.000651359,-0.000786041,-0.00131258,0.000595606,-0.00203301,-0.759768,0.00159147,0.0132129,678,1387,-7.81224,-5.18109
-539,-363,-7.76996,5.47717,0.000971848,-0.000438447,-0.000390908,0.00107295,-0.000539552,-0.253094,0.000947806,0.014546,685,1387,-7.76998,-5.47719
-532,-363,-7.79413,5.79712,0.00262143,-5.316e-05,0.000508149,0.00271472,-0.00014645,0.181566,0.00186055,0.0124736,692,1387,-7.79412,-5.79707
-525,-363,-7.7984,6.0979,0.00429966,0.000223315,0.00132576,0.00469291,-0.000169928,0.288351,0.00318676,0.0110425,699,1387,-7.79843,-6.09784
-518,-363,-7.78796,6.41125,0.00594435,0.000349427,0.00188419,0.00651972,-0.000225939,0.296371,0.00442371,0.0102979,706,1387,-7.78798,-6.41125
-511,-363,-7.74969,6.74329,0.00758938,0.000460702,0.00263849,0.00845969,-0.00040961,0.318614,0.00578117,0.0181387,713,1387,-7.74969,-6.74326
-504,-363,-7.57782,7.08691,0.00874319,-5.16792e-05,0.0030851,0.00971746,-0.00102595,0.305889,0.00684597,0.0485415,720,1387,-7.57785,-7.08687
-497,-363,-7.18842,7.29944,0,0,0,0,0,0,0,-1,727,1387,-7.18839,-7.29945
-490,-363,-5.42413,4.6958,0,0,0,0,0,0,0,-1,734,1387,-5.42412,-4.69583
-483,-363,-6.28375,4.1394,0,0,0,0,0,0,0,-1,741,1387,-6.28374,-4.13944
-476,-363,-5.83807,4.31018,0,0,0,0,0,0,0,-1,748,1387,-5.8381,-4.31013
-469,-363,-10.7125,0.697754,0,0,0,0,0,0,0,-1,755,1387,-10.7125,-0.697811
-462,-363,-9.55951,-0.0830078,0,0,0,0,0,0,0,-1,762,1387,-9.55949,0.0830163
-455,-363,-13.1008,-0.290894,0,0,0,0,0,0,0,-1,769,1387,-13.1008,0.290921
-448,-363,-11.7324,2.46606,0,0,0,0,0,0,0,-1,776,1387,-11.7324,-2.46605
-441,-363,-12.4464,2.5354,0,0,0,0,0,0,0,-1,783,1387,-12.4463,-2.53537
-434,-363,-13.6918,2.14661,0,0,0,0,0,0,0,-1,790,1387,-13.6918,-2.14662
-427,-363,0,0,0,0,0,0,0,0,0,-1,797,1387,0,0
-420,-363,0,0,0,0,0,0,0,0,0,-1,804,1387,0,0
-413,-363,0,0,0,0,0,0,0,0,0,-1,811,1387,0,0
-406,-363,0,0,0,0,0,0,0,0,0,-1,818,1387,0,0
-399,-363,0,0,0,0,0,0,0,0,0,-1,825,1387,0,0
-392,-363,0,0,0,0,0,0,0,0,0,-1,832,1387,0,0
-385,-363,0,0,0,0,0,0,0,0,0,-1,839,1387,0,0
-378,-363,0,0,0,0,0,0,0,0,0,-1,846,1387,0,0
-371,-363,0,0,0,0,0,0,0,0,0,-1,853,1387,0,0
-364,-363,0,0,0,0,0,0,0,0,0,-1,860,1387,0,0
-357,-363,0,0,0,0,0,0,0,0,0,-1,867,1387,0,0
-350,-363,0,0,0,0,0,0,0,0,0,-1,874,1387,0,0
-343,-363,0,0,0,0,0,0,0,0,0,-1,881,1387,0,0
-336,-363,0,0,0,0,0,0,0,0,0,-1,888,1387,0,0
-329,-363,0,0,0,0,0,0,0,0,0,-1,895,1387,0,0
-322,-363,0,0,0,0,0,0,0,0,0,-1,902,1387,0,0
-315,-363,0,0,0,0,0,0,0,0,0,-1,909,1387,0,0
-308,-363,0,0,0,0,0,0,0,0,0,-1,916,1387,0,0
-301,-363,0,0,0,0,0,0,0,0,0,-1,923,1387,0,0
-294,-363,0,0,0,0,0,0,0,0,0,-1,930,1387,0,0
-287,-363,0,0,0,0,0,0,0,0,0,-1,937,1387,0,0
-280,-363,0,0,0,0,0,0,0,0,0,-1,944,1387,0,0
-273,-363,0,0,0,0,0,0,0,0,0,-1,951,1387,0,0
-266,-363,0,0,0,0,0,0,0,0,0,-1,958,1387,0,0
-259,-363,0,0,0,0,0,0,0,0,0,-1,965,1387,0,0
-252,-363,0,0,0,0,0,0,0,0,0,-1,972,1387,0,0
-245,-363,0,0,0,0,0,0,0,0,0,-1,979,1387,0,0
-238,-363,0,0,0,0,0,0,0,0,0,-1,986,1387,0,0
-231,-363,0,0,0,0,0,0,0,0,0,-1,993,1387,0,0
-224,-363,0,0,0,0,0,0,0,0,0,-1,1000,1387,0,0
-217,-363,0,0,0,0,0,0,0,0,0,-1,1007,1387,0,0
-210,-363,0,0,0,0,0,0,0,0,0,-1,1014,1387,0,0
-203,-363,0,0,0,0,0,0,0,0,0,-1,1021,1387,0,0
-196,-363,0,0,0,0,0,0,0,0,0,-1,1028,1387,0,0
-189,-363,0,0,0,0,0,0,0,0,0,-1,1035,1387,0,0
-182,-363,0,0,0,0,0,0,0,0,0,-1,1042,1387,0,0
-175,-363,0,0,0,0,0,0,0,0,0,-1,1049,1387,0,0
-168,-363,0,0,0,0,0,0,0,0,0,-1,1056,1387,0,0
-161,-363,0,0,0,0,0,0,0,0,0,-1,1063,1387,0,0
-154,-363,0,0,0,0,0,0,0,0,0,-1,1070,1387,0,0
-147,-363,0,0,0,0,0,0,0,0,0,-1,1077,1387,0,0
-140,-363,0,0,0,0,0,0,0,0,0,-1,1084,1387,0,0
-133,-363,0,0,0,0,0,0,0,0,0,-1,1091,1387,0,0
-126,-363,0,0,0,0,0,0,0,0,0,-1,1098,1387,0,0
-119,-363,0,0,0,0,0,0,0,0,0,-1,1105,1387,0,0
-112,-363,0,0,0,0,0,0,0,0,0,-1,1112,1387,0,0
-105,-363,0,0,0,0,0,0,0,0,0,-1,1119,1387,0,0
-98,-363,0,0,0,0,0,0,0,0,0,-1,1126,1387,0,0
-91,-363,0,0,0,0,0,0,0,0,0,-1,1133,1387,0,0
-84,-363,0,0,0,0,0,0,0,0,0,-1,1140,1387,0,0
-77,-363,0,0,0,0,0,0,0,0,0,-1,1147,1387,0,0
-70,-363,0,0,0,0,0,0,0,0,0,-1,1154,1387,0,0
-63,-363,0,0,0,0,0,0,0,0,0,-1,1161,1387,0,0
-56,-363,0,0,0,0,0,0,0,0,0,-1,1168,1387,0,0
-49,-363,0,0,0,0,0,0,0,0,0,-1,1175,1387,0,0
-42,-363,0,0,0,0,0,0,0,0,0,-1,1182,1387,0,0
-35,-363,0,0,0,0,0,0,0,0,0,-1,1189,1387,0,0
-28,-363,0,0,0,0,0,0,0,0,0,-1,1196,1387,0,0
-21,-363,0,0,0,0,0,0,0,0,0,-1,1203,1387,0,0
-14,-363,0,0,0,0,0,0,0,0,0,-1,1210,1387,0,0
-7,-363,0,0,0,0,0,0,0,0,0,-1,1217,1387,0,0
0,-363,0,0,0,0,0,0,0,0,0,-1,1224,1387,0,0
7,-363,0,0,0,0,0,0,0,0,0,-1,1231,1387,0,0
14,-363,0,0,0,0,0,0,0,0,0,-1,1238,1387,0,0
21,-363,0,0,0,0,0,0,0,0,0,-1,1245,1387,0,0
28,-363,0,0,0,0,0,0,0,0,0,-1,1252,1387,0,0
35,-363,0,0,0,0,0,0,0,0,0,-1,1259,1387,0,0
42,-363,0,0,0,0,0,0,0,0,0,-1,1266,1387,0,0
49,-363,0,0,0,0,0,0,0,0,0,-1,1273,1387,0,0
56,-363,0,0,0,0,0,0,0,0,0,-1,1280,1387,0,0
63,-363,0,0,0,0,0,0,0,0,0,-1,1287,1387,0,0
70,-363,0,0,0,0,0,0,0,0,0,-1,1294,1387,0,0
77,-363,0,0,0,0,0,0,0,0,0,-1,1301,1387,0,0
84,-363,0,0,0,0,0,0,0,0,0,-1,1308,1387,0,0
91,-363,0,0,0,0,0,0,0,0,0,-1,1315,1387,0,0
98,-363,0,0,0,0,0,0,0,0,0,-1,1322,1387,0,0
105,-363,0,0,0,0,0,0,0,0,0,-1,1329,1387,0,0
112,-363,0,0,0,0,0,0,0,0,0,-1,1336,1387,0,0
119,-363,0,0,0,0,0,0,0,0,0,-1,1343,1387,0,0
126,-363,0,0,0,0,0,0,0,0,0,-1,1350,1387,0,0
133,-363,0,0,0,0,0,0,0,0,0,-1,1357,1387,0,0
140,-363,0,0,0,0,0,0,0,0,0,-1,1364,1387,0,0
147,-363,0,0,0,0,0,0,0,0,0,-1,1371,1387,0,0
154,-363,0,0,0,0,0,0,0,0,0,-1,1378,1387,0,0
161,-363,0,0,0,0,0,0,0,0,0,-1,1385,1387,0,0
168,-363,0,0,0,0,0,0,0,0,0,-1,1392,1387,0,0
175,-363,0,0,0,0,0,0,0,0,0,-1,1399,1387,0,0
182,-363,0,0,0,0,0,0,0,0,0,-1,1406,1387,0,0
189,-363,0,0,0,0,0,0,0,0,0,-1,1413,1387,0,0
196,-363,0,0,0,0,0,0,0,0,0,-1,1420,1387,0,0
203,-363,0,0,0,0,0,0,0,0,0,-1,1427,1387,0,0
210,-363,0,0,0,0,0,0,0,0,0,-1,1434,1387,0,0
217,-363,0,0,0,0,0,0,0,0,0,-1,1441,1387,0,0
224,-363,0,0,0,0,0,0,0,0,0,-1,1448,1387,0,0
231,-363,0,0,0,0,0,0,0,0,0,-1,1455,1387,0,0
238,-363,0,0,0,0,0,0,0,0,0,-1,1462,1387,0,0
245,-363,0,0,0,0,0,0,0,0,0,-1,1469,1387,0,0
252,-363,0,0,0,0,0,0,0,0,0,-1,1476,1387,0,0
259,-363,0,0,0,0,0,0,0,0,0,-1,1483,1387,0,0
266,-363,0,0,0,0,0,0,0,0,0,-1,1490,1387,0,0
273,-363,0,0,0,0,0,0,0,0,0,-1,1497,1387,0,0
280,-363,0,0,0,0,0,0,0,0,0,-1,1504,1387,0,0
287,-363,0,0,0,0,0,0,0,0,0,-1,1511,1387,0,0
294,-363,0,0,0,0,0,0,0,0,0,-1,1518,1387,0,0
301,-363,0,0,0,0,0,0,0,0,0,-1,1525,1387,0,0
308,-363,0,0,0,0,0,0,0,0,0,-1,1532,1387,0,0
315,-363,0,0,0,0,0,0,0,0,0,-1,1539,1387,0,0
322,-363,0,0,0,0,0,0,0,0,0,-1,1546,1387,0,0
329,-363,0,0,0,0,0,0,0,0,0,-1,1553,1387,0,0
336,-363,0,0,0,0,0,0,0,0,0,-1,1560,1387,0,0
343,-363,0,0,0,0,0,0,0,0,0,-1,1567,1387,0,0
350,-363,0,0,0,0,0,0,0,0,0,-1,1574,1387,0,0
357,-363,0,0,0,0,0,0,0,0,0,-1,1581,1387,0,0
364,-363,0,0,0,0,0,0,0,0,0,-1,1588,1387,0,0
371,-363,0,0,0,0,0,0,0,0,0,-1,1595,1387,0,0
378,-363,0,0,0,0,0,0,0,0,0,-1,1602,1387,0,0
385,-363,0,0,0,0,0,0,0,0,0,-1,1609,1387,0,0
392,-363,0,0,0,0,0,0,0,0,0,-1,1616,1387,0,0
399,-363,0,0,0,0,0,0,0,0,0,-1,1623,1387,0,0
406,-363,0,0,0,0,0,0,0,0,0,-1,1630,1387,0,0
413,-363,0,0,0,0,0,0,0,0,0,-1,1637,1387,0,0
420,-363,0,0,0,0,0,0,0,0,0,-1,1644,1387,0,0
427,-363,0,0,0,0,0,0,0,0,0,-1,1651,1387,0,0
434,-363,0,0,0,0,0,0,0,0,0,-1,1658,1387,0,0
441,-363,0,0,0,0,0,0,0,0,0,-1,1665,1387,0,0
448,-363,0,0,0,0,0,0,0,0,0,-1,1672,1387,0,0
455,-363,0,0,0,0,0,0,0,0,0,-1,1679,1387,0,0
462,-363,0,0,0,0,0,0,0,0,0,-1,1686,1387,0,0
469,-363,0,0,0,0,0,0,0,0,0,-1,1693,1387,0,0
476,-363,0,0,0,0,0,0,0,0,0,-1,1700,1387,0,0
483,-363,0,0,0,0,0,0,0,0,0,-1,1707,1387,0,0
490,-363,0,0,0,0,0,0,0,0,0,-1,1714,1387,0,0
497,-363,0,0,0,0,0,0,0,0,0,-1,1721,1387,0,0
504,-363,0,0,0,0,0,0,0,0,0,-1,1728,1387,0,0
511,-363,0,0,0,0,0,0,0,0,0,-1,1735,1387,0,0
518,-363,0,0,0,0,0,0,0,0,0,-1,1742,1387,0,0
525,-363,0,0,0,0,0,0,0,0,0,-1,1749,1387,0,0
532,-363,0,0,0,0,0,0,0,0,0,-1,1756,1387,0,0
539,-363,0,0,0,0,0,0,0,0,0,-1,1763,1387,0,0
546,-363,0,0,0,0,0,0,0,0,0,-1,1770,1387,0,0
553,-363,20.5176,1.28699,0,0,0,0,0,0,0,-1,1777,1387,20.5176,-1.28699
560,-363,23.1362,6.22974,0,0,0,0,0,0,0,-1,1784,1387,23.1362,-6.22979
567,-363,29.2324,1.0957,0,0,0,0,0,0,0,-1,1791,1387,29.2324,-1.09573
574,-363,27.3572,1.28284,-0.140288,-0.0854848,0.0846109,-0.023949,-0.201824,0.941995,0.127319,0.0436217,1798,1387,27.3572,-1.28285
581,-363,26.5865,2.10876,-0.134306,-0.0802172,0.0791984,-0.0235729,-0.19095,0.949928,0.120215,0.0427794,1805,1387,26.5865,-2.10874
588,-363,25.8097,2.37146,-0.124018,-0.0724272,0.0699465,-0.0236712,-0.172774,0.962055,0.108159,0.0429843,1812,1387,25.8097,-2.37145
595,-363,24.7738,3.11304,0,0,0,0,0,0,0,-1,1819,1387,24.7738,-3.113
602,-363,18.4257,1.11853,0,0,0,0,0,0,0,-1,1826,1387,18.4257,-1.11853
609,-363,17.3979,1.55103,0,0,0,0,0,0,0,-1,1833,1387,17.3979,-1.55098
616,-363,16.229,1.08704,0,0,0,0,0,0,0,-1,1840,1387,16.229,-1.08706
623,-363,15.7283,7.16663,0,0,0,0,0,0,0,-1,1847,1387,15.7282,-7.16665
630,-363,17.5483,8.42493,0,0,0,0,0,0,0,-1,1854,1387,17.5483,-8.42497
637,-363,17.1537,8.69263,-0.0297069,-0.0146988,0.011963,-0.00808109,-0.0363246,1.06551,0.0220226,0.0458469,1861,1387,17.1537,-8.69258
644,-363,17.4098,8.58313,-0.0163909,-0.0068542,0.00511971,-0.00462622,-0.0186188,1.16034,0.0111938,0.0120416,1868,1387,17.4098,-8.58319
651,-363,17.4244,8.26831,-0.00760845,-0.00374373,0.00118753,-0.003408,-0.00794418,1.29527,0.00460197,0.0114465,1875,1387,17.4245,-8.26834
658,-363,17.4415,7.9812,-0.00237776,-0.00220869,0.000366595,-0.00191701,-0.00266944,0.898712,0.00158934,0.0121668,1882,1387,17.4415,-7.9812
665,-363,17.434,7.73914,0.000235898,-0.00144375,0.000208662,0.000261432,-0.00146928,0.121764,0.00107729,0.0115995,1889,1387,17.434,-7.73913
672,-363,17.4028,7.48279,0.00124008,-0.000516458,0.000212136,0.00126534,-0.000541714,0.1185,0.00107082,0.013293,1896,1387,17.4028,-7.48279
679,-363,17.3759,7.20984,0.00121653,0.000281387,0.000153993,0.00124123,0.000256681,0.159079,0.000756584,0.0153962,1903,1387,17.3759,-7.20985
686,-363,17.3878,6.94995,0.00141449,0.000827179,-2.04147e-06,0.0014145,0.000827172,-0.00347591,0.000820564,0.0151622,1910,1387,17.3878,-6.9499
693,-363,17.4336,6.6759,0.00169484,0.00160301,-0.000167846,0.00182294,0.00147491,-0.651897,0.0011175,0.0135389,1917,1387,17.4336,-6.67591
700,-363,17.5168,6.37231,0.00213554,0.00284034,-0.000481314,0.00308447,0.00189141,-1.10139,0.00179597,0.0205088,1924,1387,17.5169,-6.37231
707,-363,17.6462,6.08875,0,0,0,0,0,0,0,-1,1931,1387,17.6462,-6.08872
714,-363,16.5782,5.3147,0,0,0,0,0,0,0,-1,1938,1387,16.5783,-5.31472
721,-363,14.4045,4.51685,0,0,0,0,0,0,0,-1,1945,1387,14.4045,-4.51685
728,-363,19.9756,0.853027,0,0,0,0,0,0,0,-1,1952,1387,19.9756,-0.853059
735,-363,21.4297,1.2981,0,0,0,0,0,0,0,-1,1959,1387,21.4297,-1.29811
742,-363,21.3621,2.79663,0,0,0,0,0,0,0,-1,1966,1387,21.362,-2.7966
749,-363,0,0,0,0,0,0,0,0,0,-1,1973,1387,0,0
756,-363,0,0,0,0,0,0,0,0,0,-1,1980,1387,0,0
763,-363,0,0,0,0,0,0,0,0,0,-1,1987,1387,0,0
770,-363,0,0,0,0,0,0,0,0,0,-1,1994,1387,0,0
777,-363,0,0,0,0,0,0,0,0,0,-1,2001,1387,0,0
784,-363,0,0,0,0,0,0,0,0,0,-1,2008,1387,0,0
791,-363,0,0,0,0,0,0,0,0,0,-1,2015,1387,0,0
798,-363,0,0,0,0,0,0,0,0,0,-1,2022,1387,0,0
805,-363,0,0,0,0,0,0,0,0,0,-1,2029,1387,0,0
812,-363,0,0,0,0,0,0,0,0,0,-1,2036,1387,0,0
-700,-370,0,0,0,0,0,0,0,0,0,-1,524,1394,0,0
-693,-370,0,0,0,0,0,0,0,0,0,-1,531,1394,0,0
-686,-370,0,0,0,0,0,0,0,0,0,-1,538,1394,0,0
-679,-370,0,0,0,0,0,0,0,0,0,-1,545,1394,0,0
-672,-370,0,0,0,0,0,0,0,0,0,-1,552,1394,0,0
-665,-370,0,0,0,0,0,0,0,0,0,-1,559,1394,0,0
-658,-370,0,0,0,0,0,0,0,0,0,-1,566,1394,0,0
-651,-370,0,0,0,0,0,0,0,0,0,-1,573,1394,0,0
-644,-370,0,0,0,0,0,0,0,0,0,-1,580,1394,0,0
-637,-370,0,0,0,0,0,0,0,0,0,-1,587,1394,0,0
-630,-370,0,0,0,0,0,0,0,0,0,-1,594,1394,0,0
-623,-370,-10.1758,-7.10486,0,0,0,0,0,0,0,-1,601,1394,-10.1758,7.10483
-616,-370,-8.85925,-1.61475,0,0,0,0,0,0,0,-1,608,1394,-8.85925,1.61476
-609,-370,-5.39325,0.0421143,0,0,0,0,0,0,0,-1,615,1394,-5.39328,-0.0421372
-602,-370,-10.5386,4.50964,0,0,0,0,0,0,0,-1,622,1394,-10.5386,-4.50963
-595,-370,-9.43951,4.45178,0,0,0,0,0,0,0,-1,629,1394,-9.43954,-4.45176
-588,-370,-7.31812,4.18909,0,0,0,0,0,0,0,-1,636,1394,-7.31814,-4.18908
-581,-370,-7.31049,4.34412,-0.00955466,-0.00540191,-0.0100102,0.00274502,-0.0177016,-0.887661,0.0128145,0.0493544,643,1394,-7.31047,-4.34417
-574,-370,-7.32281,4.12256,-0.00763599,-0.00437423,-0.00758834,0.00175651,-0.0137667,-0.891247,0.00981585,0.0414843,650,1394,-7.32284,-4.12262
-567,-370,-7.38422,4.31934,-0.00589062,-0.00353216,-0.00570029,0.0011096,-0.0105324,-0.887396,0.00741916,0.030359,657,1394,-7.3842,-4.31933
-560,-370,-7.51068,4.54346,-0.00434331,-0.00275559,-0.0041896,0.000714696,-0.0078136,-0.87903,0.0054629,0.0160217,664,1394,-7.5107,-4.54347
-553,-370,-7.50635,4.89392,-0.00282788,-0.00215823,-0.00298708,0.000512726,-0.00549884,-0.841211,0.00384821,0.010062,671,1394,-7.50632,-4.89392
-546,-370,-7.47406,5.18884,-0.00128921,-0.0016033,-0.00190769,0.000467885,-0.0033604,-0.744329,0.00241141,0.0142861,678,1394,-7.47404,-5.18886
-539,-370,-7.43091,5.51794,0.000218978,-0.00107796,-0.000958901,0.000728095,-0.00158707,-0.488091,0.00136699,0.0186294,685,1394,-7.43092,-5.51788
-532,-370,-7.47467,5.83215,0.00177633,-0.000478783,3.09554e-06,0.00177633,-0.000478787,0.00137267,0.00137195,0.0199509,692,1394,-7.47468,-5.83213
-525,-370,-7.48242,6.10046,0.00337454,5.81005e-05,0.000950321,0.00362755,-0.00019491,0.260202,0.00248588,0.0141625,699,1394,-7.48244,-6.1005
-518,-370,-7.4931,6.38623,0.00495543,0.000370651,0.00165171,0.00548849,-0.000162413,0.312182,0.00371432,0.0106212,706,1394,-7.49309,-6.38623
-511,-370,-7.48859,6.69702,0.00638845,0.000567395,0.0024123,0.00725818,-0.000302335,0.346034,0.00494265,0.0137668,713,1394,-7.48856,-6.69701
-504,-370,-7.40594,7.05396,0.00702441,-8.98157e-05,0.00259632,0.00787115,-0.000936555,0.315254,0.00558585,0.0288383,720,1394,-7.40595,-7.05396
-497,-370,-7.30273,7.37854,0,0,0,0,0,0,0,-1,727,1394,-7.30271,-7.37855
-490,-370,-5.30695,4.5271,0,0,0,0,0,0,0,-1,734,1394,-5.30698,-4.52704
-483,-370,-6.02997,4.59253,0,0,0,0,0,0,0,-1,741,1394,-6.02994,-4.5925
-476,-370,-6.75293,4.65796,0,0,0,0,0,0,0,-1,748,1394,-6.7529,-4.65795
-469,-370,-10.584,1.14294,0,0,0,0,0,0,0,-1,755,1394,-10.584,-1.14293
-462,-370,-9.54462,0.387207,0,0,0,0,0,0,0,-1,762,1394,-9.5446,-0.387176
-455,-370,-8.50525,-0.36853,0,0,0,0,0,0,0,-1,769,1394,-8.50523,0.368582
-448,-370,-10.9543,2.28833,0,0,0,0,0,0,0,-1,776,1394,-10.9543,-2.28835
-441,-370,-11.8699,1.8313,0,0,0,0,0,0,0,-1,783,1394,-11.8699,-1.83127
-434,-370,-12.7855,1.37415,0,0,0,0,0,0,0,-1,790,1394,-12.7855,-1.37419
-427,-370,0,0,0,0,0,0,0,0,0,-1,797,1394,0,0
-420,-370,0,0,0,0,0,0,0,0,0,-1,804,1394,0,0
-413,-370,0,0,0,0,0,0,0,0,0,-1,811,1394,0,0
-406,-370,0,0,0,0,0,0,0,0,0,-1,818,1394,0,0
-399,-370,0,0,0,0,0,0,0,0,0,-1,825,1394,0,0
-392,-370,0,0,0,0,0,0,0,0,0,-1,832,1394,0,0
-385,-370,0,0,0,0,0,0,0,0,0,-1,839,1394,0,0
-378,-370,0,0,0,0,0,0,0,0,0,-1,846,1394,0,0
-371,-370,0,0,0,0,0,0,0,0,0,-1,853,1394,0,0
-364,-370,0,0,0,0,0,0,0,0,0,-1,860,1394,0,0
-357,-370,0,0,0,0,0,0,0,0,0,-1,867,1394,0,0
-350,-370,0,0,0,0,0,0,0,0,0,-1,874,1394,0,0
-343,-370,0,0,0,0,0,0,0,0,0,-1,881,1394,0,0
-336,-370,0,0,0,0,0,0,0,0,0,-1,888,1394,0,0
-329,-370,0,0,0,0,0,0,0,0,0,-1,895,1394,0,0
-322,-370,0,0,0,0,0,0,0,0,0,-1,902,1394,0,0
-315,-370,0,0,0,0,0,0,0,0,0,-1,909,1394,0,0
-308,-370,0,0,0,0,0,0,0,0,0,-1,916,1394,0,0
-301,-370,0,0,0,0,0,0,0,0,0,-1,923,1394,0,0
-294,-370,0,0,0,0,0,0,0,0,0,-1,930,1394,0,0
-287,-370,0,0,0,0,0,0,0,0,0,-1,937,1394,0,0
-280,-370,0,0,0,0,0,0,0,0,0,-1,944,1394,0,0
-273,-370,0,0,0,0,0,0,0,0,0,-1,951,1394,0,0
-266,-370,0,0,0,0,0,0,0,0,0,-1,958,1394,0,0
-259,-370,0,0,0,0,0,0,0,0,0,-1,965,1394,0,0
-252,-370,0,0,0,0,0,0,0,0,0,-1,972,1394,0,0
-245,-370,0,0,0,0,0,0,0,0,0,-1,979,1394,0,0
-238,-370,0,0,0,0,0,0,0,0,0,-1,986,1394,0,0
-231,-370,0,0,0,0,0,0,0,0,0,-1,993,1394,0,0
-224,-370,0,0,0,0,0,0,0,0,0,-1,1000,1394,0,0
-217,-370,0,0,0,0,0,0,0,0,0,-1,1007,1394,0,0
-210,-370,0,0,0,0,0,0,0,0,0,-1,1014,1394,0,0
-203,-370,0,0,0,0,0,0,0,0,0,-1,1021,1394,0,0
-196,-370,0,0,0,0,0,0,0,0,0,-1,1028,1394,0,0
-189,-370,0,0,0,0,0,0,0,0,0,-1,1035,1394,0,0
-182,-370,0,0,0,0,0,0,0,0,0,-1,1042,1394,0,0
-175,-370,0,0,0,0,0,0,0,0,0,-1,1049,1394,0,0
-168,-370,0,0,0,0,0,0,0,0,0,-1,1056,1394,0,0
-161,-370,0,0,0,0,0,0,0,0,0,-1,1063,1394,0,0
-154,-370,0,0,0,0,0,0,0,0,0,-1,1070,1394,0,0
-147,-370,0,0,0,0,0,0,0,0,0,-1,1077,1394,0,0
-140,-370,0,0,0,0,0,0,0,0,0,-1,1084,1394,0,0
-133,-370,0,0,0,0,0,0,0,0,0,-1,1091,1394,0,0
-126,-370,0,0,0,0,0,0,0,0,0,-1,1098,1394,0,0
-119,-370,0,0,0,0,0,0,0,0,0,-1,1105,1394,0,0
-112,-370,0,0,0,0,0,0,0,0,0,-1,1112,1394,0,0
-105,-370,0,0,0,0,0,0,0,0,0,-1,1119,1394,0,0
-98,-370,0,0,0,0,0,0,0,0,0,-1,1126,1394,0,0
-91,-370,0,0,0,0,0,0,0,0,0,-1,1133,1394,0,0
-84,-370,0,0,0,0,0,0,0,0,0,-1,1140,1394,0,0
-77,-370,0,0,0,0,0,0,0,0,0,-1,1147,1394,0,0
-70,-370,0,0,0,0,0,0,0,0,0,-1,1154,1394,0,0
-63,-370,0,0,0,0,0,0,0,0,0,-1,1161,1394,0,0
-56,-370,0,0,0,0,0,0,0,0,0,-1,1168,1394,0,0
-49,-370,0,0,0,0,0,0,0,0,0,-1,1175,1394,0,0
-42,-370,0,0,0,0,0,0,0,0,0,-1,1182,1394,0,0
-35,-370,0,0,0,0,0,0,0,0,0,-1,1189,1394,0,0
-28,-370,0,0,0,0,0,0,0,0,0,-1,1196,1394,0,0
-21,-370,0,0,0,0,0,0,0,0,0,-1,1203,1394,0,0
-14,-370,0,0,0,0,0,0,0,0,0,-1,1210,1394,0,0
-7,-370,0,0,0,0,0,0,0,0,0,-1,1217,1394,0,0
0,-370,0,0,0,0,0,0,0,0,0,-1,1224,1394,0,0
7,-370,0,0,0,0,0,0,0,0,0,-1,1231,1394,0,0
14,-370,0,0,0,0,0,0,0,0,0,-1,1238,1394,0,0
21,-370,0,0,0,0,0,0,0,0,0,-1,1245,1394,0,0
28,-370,0,0,0,0,0,0,0,0,0,-1,1252,1394,0,0
35,-370,0,0,0,0,0,0,0,0,0,-1,1259,1394,0,0
42,-370,0,0,0,0,0,0,0,0,0,-1,1266,1394,0,0
49,-370,0,0,0,0,0,0,0,0,0,-1,1273,1394,0,0
56,-370,0,0,0,0,0,0,0,0,0,-1,1280,1394,0,0
63,-370,0,0,0,0,0,0,0,0,0,-1,1287,1394,0,0
70,-370,0,0,0,0,0,0,0,0,0,-1,1294,1394,0,0
77,-370,0,0,0,0,0,0,0,0,0,-1,1301,1394,0,0
84,-370,0,0,0,0,0,0,0,0,0,-1,1308,1394,0,0
91,-370,0,0,0,0,0,0,0,0,0,-1,1315,1394,0,0
98,-370,0,0,0,0,0,0,0,0,0,-1,1322,1394,0,0
105,-370,0,0,0,0,0,0,0,0,0,-1,1329,1394,0,0
112,-370,0,0,0,0,0,0,0,0,0,-1,1336,1394,0,0
119,-370,0,0,0,0,0,0,0,0,0,-1,1343,1394,0,0
126,-370,0,0,0,0,0,0,0,0,0,-1,1350,1394,0,0
133,-370,0,0,0,0,0,0,0,0,0,-1,1357,1394,0,0
140,-370,0,0,0,0,0,0,0,0,0,-1,1364,1394,0,0
147,-370,0,0,0,0,0,0,0,0,0,-1,1371,1394,0,0
154,-370,0,0,0,0,0,0,0,0,0,-1,1378,1394,0,0
161,-370,0,0,0,0,0,0,0,0,0,-1,1385,1394,0,0
168,-370,0,0,0,0,0,0,0,0,0,-1,1392,1394,0,0
175,-370,0,0,0,0,0,0,0,0,0,-1,1399,1394,0,0
182,-370,0,0,0,0,0,0,0,0,0,-1,1406,1394,0,0
189,-370,0,0,0,0,0,0,0,0,0,-1,1413,1394,0,0
196,-370,0,0,0,0,0,0,0,0,0,-1,1420,1394,0,0
203,-370,0,0,0,0,0,0,0,0,0,-1,1427,1394,0,0
210,-370,0,0,0,0,0,0,0,0,0,-1,1434,1394,0,0
217,-370,0,0,0,0,0,0,0,0,0,-1,1441,1394,0,0
224,-370,0,0,0,0,0,0,0,0,0,-1,1448,1394,0,0
231,-370,0,0,0,0,0,0,0,0,0,-1,1455,1394,0,0
238,-370,0,0,0,0,0,0,0,0,0,-1,1462,1394,0,0
245,-370,0,0,0,0,0,0,0,0,0,-1,1469,1394,0,0
252,-370,0,0,0,0,0,0,0,0,0,-1,1476,1394,0,0
259,-370,0,0,0,0,0,0,0,0,0,-1,1483,1394,0,0
266,-370,0,0,0,0,0,0,0,0,0,-1,1490,1394,0,0
273,-370,0,0,0,0,0,0,0,0,0,-1,1497,1394,0,0
280,-370,0,0,0,0,0,0,0,0,0,-1,1504,1394,0,0
287,-370,0,0,0,0,0,0,0,0,0,-1,1511,1394,0,0
294,-370,0,0,0,0,0,0,0,0,0,-1,1518,1394,0,0
301,-370,0,0,0,0,0,0,0,0,0,-1,1525,1394,0,0
308,-370,0,0,0,0,0,0,0,0,0,-1,1532,1394,0,0
315,-370,0,0,0,0,0,0,0,0,0,-1,1539,1394,0,0
322,-370,0,0,0,0,0,0,0,0,0,-1,1546,1394,0,0
329,-370,0,0,0,0,0,0,0,0,0,-1,1553,1394,0,0
336,-370,0,0,0,0,0,0,0,0,0,-1,1560,1394,0,0
343,-370,0,0,0,0,0,0,0,0,0,-1,1567,1394,0,0
350,-370,0,0,0,0,0,0,0,0,0,-1,1574,1394,0,0
357,-370,0,0,0,0,0,0,0,0,0,-1,1581,1394,0,0
364,-370,0,0,0,0,0,0,0,0,0,-1,1588,1394,0,0
371,-370,0,0,0,0,0,0,0,0,0,-1,1595,1394,0,0
378,-370,0,0,0,0,0,0,0,0,0,-1,1602,1394,0,0
385,-370,0,0,0,0,0,0,0,0,0,-1,1609,1394,0,0
392,-370,0,0,0,0,0,0,0,0,0,-1,1616,1394,0,0
399,-370,0,0,0,0,0,0,0,0,0,-1,1623,1394,0,0
406,-370,0,0,0,0,0,0,0,0,0,-1,1630,1394,0,0
413,-370,0,0,0,0,0,0,0,0,0,-1,1637,1394,0,0
420,-370,0,0,0,0,0,0,0,0,0,-1,1644,1394,0,0
427,-370,0,0,0,0,0,0,0,0,0,-1,1651,1394,0,0
434,-370,0,0,0,0,0,0,0,0,0,-1,1658,1394,0,0
441,-370,0,0,0,0,0,0,0,0,0,-1,1665,1394,0,0
448,-370,0,0,0,0,0,0,0,0,0,-1,1672,1394,0,0
455,-370,0,0,0,0,0,0,0,0,0,-1,1679,1394,0,0
462,-370,0,0,0,0,0,0,0,0,0,-1,1686,1394,0,0
469,-370,0,0,0,0,0,0,0,0,0,-1,1693,1394,0,0
476,-370,0,0,0,0,0,0,0,0,0,-1,1700,1394,0,0
483,-370,0,0,0,0,0,0,0,0,0,-1,1707,1394,0,0
490,-370,0,0,0,0,0,0,0,0,0,-1,1714,1394,0,0
497,-370,0,0,0,0,0,0,0,0,0,-1,1721,1394,0,0
504,-370,0,0,0,0,0,0,0,0,0,-1,1728,1394,0,0
511,-370,0,0,0,0,0,0,0,0,0,-1,1735,1394,0,0
518,-370,0,0,0,0,0,0,0,0,0,-1,1742,1394,0,0
525,-370,0,0,0,0,0,0,0,0,0,-1,1749,1394,0,0
532,-370,0,0,0,0,0,0,0,0,0,-1,1756,1394,0,0
539,-370,0,0,0,0,0,0,0,0,0,-1,1763,1394,0,0
546,-370,21.7084,0.258667,0,0,0,0,0,0,0,-1,1770,1394,21.7084,-0.258678
553,-370,20.9537,1.46118,0,0,0,0,0,0,0,-1,1777,1394,20.9537,-1.46115
560,-370,20.2441,2.65051,0,0,0,0,0,0,0,-1,1784,1394,20.2442,-2.65048
567,-370,28.5261,1.94678,0,0,0,0,0,0,0,-1,1791,1394,28.5262,-1.94674
574,-370,27.0178,2.2406,-0.137111,-0.0836337,0.0913623,-0.0151775,-0.205567,0.927755,0.132276,0.0426761,1798,1394,27.0178,-2.24057
581,-370,26.0054,2.74878,-0.128642,-0.0784111,0.0827819,-0.0170185,-0.190035,0.932681,0.121415,0.0432611,1805,1394,26.0054,-2.74877
588,-370,25.0819,3.22119,-0.116952,-0.0709879,0.071948,-0.0184407,-0.1695,0.939991,0.107382,0.0447383,1812,1394,25.0819,-3.22125
595,-370,24.1304,3.72571,-0.103944,-0.0617863,0.0611409,-0.0181925,-0.147537,0.951395,0.0928898,0.0461235,1819,1394,24.1304,-3.72568
602,-370,23.2063,4.26685,0,0,0,0,0,0,0,-1,1826,1394,23.2063,-4.26688
609,-370,16.712,0.993286,0,0,0,0,0,0,0,-1,1833,1394,16.7121,-0.99323
616,-370,16.7764,7.23315,0,0,0,0,0,0,0,-1,1840,1394,16.7764,-7.23313
623,-370,17.4728,8.57385,0,0,0,0,0,0,0,-1,1847,1394,17.4728,-8.57383
630,-370,17.2491,8.89783,0,0,0,0,0,0,0,-1,1854,1394,17.2491,-8.89789
637,-370,16.968,8.94116,-0.0239847,-0.0128057,0.010342,-0.00663934,-0.030151,1.03315,0.0182937,0.0360379,1861,1394,16.968,-8.94121
644,-370,17.1443,8.5675,-0.0117908,-0.00531816,0.00363716,-0.00368593,-0.013423,1.14897,0.00800795,0.0109355,1868,1394,17.1443,-8.56749
651,-370,17.1591,8.26624,-0.00424976,-0.00235764,-7.81512e-05,-0.00235442,-0.00425299,-1.52959,0.00246016,0.0114251,1875,1394,17.159,-8.26626
658,-370,17.1766,7.98804,-0.00054439,-0.0013312,-0.00034072,-0.000417355,-0.00145824,-0.356877,0.000867189,0.0118181,1882,1394,17.1766,-7.98806
665,-370,17.1527,7.74231,0.00107314,-0.000878861,-0.000129224,0.00108165,-0.000887379,-0.0658181,0.00113866,0.012362,1889,1394,17.1527,-7.74232
672,-370,17.1176,7.49756,0.00155167,-0.000365444,0.000139199,0.00156173,-0.000375499,0.0721045,0.00118629,0.0139299,1896,1394,17.1175,-7.49761
679,-370,17.1107,7.21033,0.00145906,0.000169052,0.000279599,0.00151706,0.000111059,0.204517,0.000976458,0.0138828,1903,1394,17.1107,-7.21037
686,-370,17.1239,6.9447,0.00160584,0.000540673,0.000334272,0.00170205,0.000444462,0.280248,0.00101937,0.0132201,1910,1394,17.1239,-6.94468
693,-370,17.1471,6.65942,0.00196539,0.00107565,0.000337866,0.00207915,0.000961897,0.324769,0.00120151,0.0115195,1917,1394,17.1471,-6.65938
700,-370,17.2574,6.35327,0.00254625,0.00220026,0.000210302,0.00264557,0.00210094,0.441212,0.00161311,0.0222785,1924,1394,17.2575,-6.35324
707,-370,17.452,5.99561,0,0,0,0,0,0,0,-1,1931,1394,17.452,-5.9956
714,-370,16.9116,5.93018,0,0,0,0,0,0,0,-1,1938,1394,16.9116,-5.93014
721,-370,17.2007,4.69153,0,0,0,0,0,0,0,-1,1945,1394,17.2007,-4.69158
728,-370,20.5315,-0.313354,0,0,0,0,0,0,0,-1,1952,1394,20.5315,0.313332
735,-370,22.3652,0.233398,0,0,0,0,0,0,0,-1,1959,1394,22.3652,-0.233355
742,-370,24.1989,0.780029,0,0,0,0,0,0,0,-1,1966,1394,24.1989,-0.780041
749,-370,0,0,0,0,0,0,0,0,0,-1,1973,1394,0,0
756,-370,0,0,0,0,0,0,0,0,0,-1,1980,1394,0,0
763,-370,0,0,0,0,0,0,0,0,0,-1,1987,1394,0,0
770,-370,0,0,0,0,0,0,0,0,0,-1,1994,1394,0,0
777,-370,0,0,0,0,0,0,0,0,0,-1,2001,1394,0,0
784,-370,0,0,0,0,0,0,0,0,0,-1,2008,1394,0,0
791,-370,0,0,0,0,0,0,0,0,0,-1,2015,1394,0,0
798,-370,0,0,0,0,0,0,0,0,0,-1,2022,1394,0,0
805,-370,0,0,0,0,0,0,0,0,0,-1,2029,1394,0,0
812,-370,0,0,0,0,0,0,0,0,0,-1,2036,1394,0,0
-700,-377,0,0,0,0,0,0,0,0,0,-1,524,1401,0,0
-693,-377,0,0,0,0,0,0,0,0,0,-1,531,1401,0,0
-686,-377,0,0,0,0,0,0,0,0,0,-1,538,1401,0,0
-679,-377,0,0,0,0,0,0,0,0,0,-1,545,1401,0,0
-672,-377,0,0,0,0,0,0,0,0,0,-1,552,1401,0,0
-665,-377,0,0,0,0,0,0,0,0,0,-1,559,1401,0,0
-658,-377,0,0,0,0,0,0,0,0,0,-1,566,1401,0,0
-651,-377,0,0,0,0,0,0,0,0,0,-1,573,1401,0,0
-644,-377,0,0,0,0,0,0,0,0,0,-1,580,1401,0,0
-637,-377,0,0,0,0,0,0,0,0,0,-1,587,1401,0,0
-630,-377,0,0,0,0,0,0,0,0,0,-1,594,1401,0,0
-623,-377,0,0,0,0,0,0,0,0,0,-1,601,1401,0,0
-616,-377,-9.43915,-2.4906,0,0,0,0,0,0,0,-1,608,1401,-9.43915,2.49062
-609,-377,-7.2821,-1.35278,0,0,0,0,0,0,0,-1,615,1401,-7.28208,1.35279
-602,-377,-5.72253,0.430298,0,0,0,0,0,0,0,-1,622,1401,-5.72251,-0.430334
-595,-377,-10.3885,5.41382,0,0,0,0,0,0,0,-1,629,1401,-10.3886,-5.41381
-588,-377,-4.87274,1.41235,0,0,0,0,0,0,0,-1,636,1401,-4.87272,-1.41239
-581,-377,-7.03601,4.64685,0,0,0,0,0,0,0,-1,643,1401,-7.03602,-4.6469
-574,-377,-6.8136,3.98132,-0.00774181,-0.00536733,-0.00751288,0.00105154,-0.0141607,-0.863764,0.00980977,0.0474447,650,1401,-6.81362,-3.98135
-567,-377,-6.98639,4.36487,-0.00617337,-0.0045332,-0.00574377,0.00044873,-0.0111553,-0.856308,0.00759087,0.0327082,657,1401,-6.98639,-4.36489
-560,-377,-7.23541,4.59534,-0.00479207,-0.00370008,-0.00434873,0.000136797,-0.00862895,-0.847848,0.00579877,0.0251406,664,1401,-7.23542,-4.59533
-553,-377,-7.17371,4.8717,-0.00341811,-0.00303045,-0.00326218,4.36537e-05,-0.00649222,-0.815072,0.00434277,0.0127237,671,1401,-7.17368,-4.87164
-546,-377,-7.1806,5.23352,-0.00198442,-0.00236991,-0.00227568,0.000106664,-0.00446099,-0.74315,0.00301018,0.016766,678,1401,-7.18059,-5.23351
-539,-377,-7.14838,5.50989,-0.000545829,-0.00171949,-0.00138099,0.000367843,-0.00263316,-0.584491,0.00189002,0.0221461,685,1401,-7.14841,-5.50989
-532,-377,-7.18524,5.78699,0.000960582,-0.000990679,-0.000453578,0.00106086,-0.00109096,-0.217591,0.0012424,0.020279,692,1401,-7.18522,-5.78705
-525,-377,-7.12921,6.10156,0.00251211,-0.000309537,0.000507899,0.00260075,-0.000398175,0.172778,0.00188066,0.0174527,699,1401,-7.12921,-6.10157
-518,-377,-7.17584,6.39246,0.00407108,7.98405e-05,0.00123224,0.00442086,-0.000269944,0.276584,0.00304122,0.0112285,706,1401,-7.17581,-6.39245
-511,-377,-7.19135,6.71167,0.00537856,0.000284353,0.00188639,0.00600103,-0.000338122,0.31873,0.00411802,0.0104672,713,1401,-7.19133,-6.71165
-504,-377,-7.20795,7.03308,0.00576551,-0.000462856,0.00183715,0.00626703,-0.00096437,0.266491,0.00453379,0.0119309,720,1401,-7.20796,-7.03311
-497,-377,-6.94501,7.36768,0.00602107,-0.00213822,0.0014369,0.00626672,-0.00238387,0.169322,0.0051594,0.0301839,727,1401,-6.94503,-7.36765
-490,-377,-6.56244,7.82214,0,0,0,0,0,0,0,-1,734,1401,-6.56243,-7.82212
-483,-377,-5.6524,5.07324,0,0,0,0,0,0,0,-1,741,1401,-5.6524,-5.07325
-476,-377,-6.11682,5.10535,0,0,0,0,0,0,0,-1,748,1401,-6.11681,-5.10537
-469,-377,-10.3211,1.9281,0,0,0,0,0,0,0,-1,755,1401,-10.3211,-1.92808
-462,-377,-9.2204,1.0022,0,0,0,0,0,0,0,-1,762,1401,-9.22039,-1.00218
-455,-377,-8.11969,0.0762939,0,0,0,0,0,0,0,-1,769,1401,-8.11968,-0.0762759
-448,-377,-9.05334,0.877319,0,0,0,0,0,0,0,-1,776,1401,-9.05332,-0.877324
-441,-377,-11.212,0.763428,0,0,0,0,0,0,0,-1,783,1401,-11.212,-0.763415
-434,-377,-11.0984,0.996216,0,0,0,0,0,0,0,-1,790,1401,-11.0984,-0.996265
-427,-377,-11.1733,1.25732,0,0,0,0,0,0,0,-1,797,1401,-11.1733,-1.25732
-420,-377,0,0,0,0,0,0,0,0,0,-1,804,1401,0,0
-413,-377,0,0,0,0,0,0,0,0,0,-1,811,1401,0,0
-406,-377,0,0,0,0,0,0,0,0,0,-1,818,1401,0,0
-399,-377,0,0,0,0,0,0,0,0,0,-1,825,1401,0,0
-392,-377,0,0,0,0,0,0,0,0,0,-1,832,1401,0,0
-385,-377,0,0,0,0,0,0,0,0,0,-1,839,1401,0,0
-378,-377,0,0,0,0,0,0,0,0,0,-1,846,1401,0,0
-371,-377,0,0,0,0,0,0,0,0,0,-1,853,1401,0,0
-364,-377,0,0,0,0,0,0,0,0,0,-1,860,1401,0,0
-357,-377,0,0,0,0,0,0,0,0,0,-1,867,1401,0,0
-350,-377,0,0,0,0,0,0,0,0,0,-1,874,1401,0,0
-343,-377,0,0,0,0,0,0,0,0,0,-1,881,1401,0,0
-336,-377,0,0,0,0,0,0,0,0,0,-1,888,1401,0,0
-329,-377,0,0,0,0,0,0,0,0,0,-1,895,1401,0,0
-322,-377,0,0,0,0,0,0,0,0,0,-1,902,1401,0,0
-315,-377,0,0,0,0,0,0,0,0,0,-1,909,1401,0,0
-308,-377,0,0,0,0,0,0,0,0,0,-1,916,1401,0,0
-301,-377,0,0,0,0,0,0,0,0,0,-1,923,1401,0,0
-294,-377,0,0,0,0,0,0,0,0,0,-1,930,1401,0,0
-287,-377,0,0,0,0,0,0,0,0,0,-1,937,1401,0,0
-280,-377,0,0,0,0,0,0,0,0,0,-1,944,1401,0,0
-273,-377,0,0,0,0,0,0,0,0,0,-1,951,1401,0,0
-266,-377,0,0,0,0,0,0,0,0,0,-1,958,1401,0,0
-259,-377,0,0,0,0,0,0,0,0,0,-1,965,1401,0,0
-252,-377,0,0,0,0,0,0,0,0,0,-1,972,1401,0,0
-245,-377,0,0,0,0,0,0,0,0,0,-1,979,1401,0,0
-238,-377,0,0,0,0,0,0,0,0,0,-1,986,1401,0,0
-231,-377,0,0,0,0,0,0,0,0,0,-1,993,1401,0,0
-224,-377,0,0,0,0,0,0,0,0,0,-1,1000,1401,0,0
-217,-377,0,0,0,0,0,0,0,0,0,-1,1007,1401,0,0
-210,-377,0,0,0,0,0,0,0,0,0,-1,1014,1401,0,0
-203,-377,0,0,0,0,0,0,0,0,0,-1,1021,1401,0,0
-196,-377,0,0,0,0,0,0,0,0,0,-1,1028,1401,0,0
-189,-377,0,0,0,0,0,0,0,0,0,-1,1035,1401,0,0
-182,-377,0,0,0,0,0,0,0,0,0,-1,1042,1401,0,0
-175,-377,0,0,0,0,0,0,0,0,0,-1,1049,1401,0,0
-168,-377,0,0,0,0,0,0,0,0,0,-1,1056,1401,0,0
-161,-377,0,0,0,0,0,0,0,0,0,-1,1063,1401,0,0
-154,-377,0,0,0,0,0,0,0,0,0,-1,1070,1401,0,0
-147,-377,0,0,0,0,0,0,0,0,0,-1,1077,1401,0,0
-140,-377,0,0,0,0,0,0,0,0,0,-1,1084,1401,0,0
-133,-377,0,0,0,0,0,0,0,0,0,-1,1091,1401,0,0
-126,-377,0,0,0,0,0,0,0,0,0,-1,1098,1401,0,0
-119,-377,0,0,0,0,0,0,0,0,0,-1,1105,1401,0,0
-112,-377,0,0,0,0,0,0,0,0,0,-1,1112,1401,0,0
-105,-377,0,0,0,0,0,0,0,0,0,-1,1119,1401,0,0
-98,-377,0,0,0,0,0,0,0,0,0,-1,1126,1401,0,0
-91,-377,0,0,0,0,0,0,0,0,0,-1,1133,1401,0,0
-84,-377,0,0,0,0,0,0,0,0,0,-1,1140,1401,0,0
-77,-377,0,0,0,0,0,0,0,0,0,-1,1147,1401,0,0
-70,-377,0,0,0,0,0,0,0,0,0,-1,1154,1401,0,0
-63,-377,0,0,0,0,0,0,0,0,0,-1,1161,1401,0,0
-56,-377,0,0,0,0,0,0,0,0,0,-1,1168,1401,0,0
-49,-377,0,0,0,0,0,0,0,0,0,-1,1175,1401,0,0
-42,-377,0,0,0,0,0,0,0,0,0,-1,1182,1401,0,0
-35,-377,0,0,0,0,0,0,0,0,0,-1,1189,1401,0,0
-28,-377,0,0,0,0,0,0,0,0,0,-1,1196,1401,0,0
-21,-377,0,0,0,0,0,0,0,0,0,-1,1203,1401,0,0
-14,-377,0,0,0,0,0,0,0,0,0,-1,1210,1401,0,0
-7,-377,0,0,0,0,0,0,0,0,0,-1,1217,1401,0,0
0,-377,0,0,0,0,0,0,0,0,0,-1,1224,1401,0,0
7,-377,0,0,0,0,0,0,0,0,0,-1,1231,1401,0,0
14,-377,0,0,0,0,0,0,0,0,0,-1,1238,1401,0,0
21,-377,0,0,0,0,0,0,0,0,0,-1,1245,1401,0,0
28,-377,0,0,0,0,0,0,0,0,0,-1,1252,1401,0,0
35,-377,0,0,0,0,0,0,0,0,0,-1,1259,1401,0,0
42,-377,0,0,0,0,0,0,0,0,0,-1,1266,1401,0,0
49,-377,0,0,0,0,0,0,0,0,0,-1,1273,1401,0,0
56,-377,0,0,0,0,0,0,0,0,0,-1,1280,1401,0,0
63,-377,0,0,0,0,0,0,0,0,0,-1,1287,1401,0,0
70,-377,0,0,0,0,0,0,0,0,0,-1,1294,1401,0,0
77,-377,0,0,0,0,0,0,0,0,0,-1,1301,1401,0,0
84,-377,0,0,0,0,0,0,0,0,0,-1,1308,1401,0,0
91,-377,0,0,0,0,0,0,0,0,0,-1,1315,1401,0,0
98,-377,0,0,0,0,0,0,0,0,0,-1,1322,1401,0,0
105,-377,0,0,0,0,0,0,0,0,0,-1,1329,1401,0,0
112,-377,0,0,0,0,0,0,0,0,0,-1,1336,1401,0,0
119,-377,0,0,0,0,0,0,0,0,0,-1,1343,1401,0,0
126,-377,0,0,0,0,0,0,0,0,0,-1,1350,1401,0,0
133,-377,0,0,0,0,0,0,0,0,0,-1,1357,1401,0,0
140,-377,0,0,0,0,0,0,0,0,0,-1,1364,1401,0,0
147,-377,0,0,0,0,0,0,0,0,0,-1,1371,1401,0,0
154,-377,0,0,0,0,0,0,0,0,0,-1,1378,1401,0,0
161,-377,0,0,0,0,0,0,0,0,0,-1,1385,1401,0,0
168,-377,0,0,0,0,0,0,0,0,0,-1,1392,1401,0,0
175,-377,0,0,0,0,0,0,0,0,0,-1,1399,1401,0,0
182,-377,0,0,0,0,0,0,0,0,0,-1,1406,1401,0,0
189,-377,0,0,0,0,0,0,0,0,0,-1,1413,1401,0,0
196,-377,0,0,0,0,0,0,0,0,0,-1,1420,1401,0,0
203,-377,0,0,0,0,0,0,0,0,0,-1,1427,1401,0,0
210,-377,0,0,0,0,0,0,0,0,0,-1,1434,1401,0,0
217,-377,0,0,0,0,0,0,0,0,0,-1,1441,1401,0,0
224,-377,0,0,0,0,0,0,0,0,0,-1,1448,1401,0,0
231,-377,0,0,0,0,0,0,0,0,0,-1,1455,1401,0,0
238,-377,0,0,0,0,0,0,0,0,0,-1,1462,1401,0,0
245,-377,0,0,0,0,0,0,0,0,0,-1,1469,1401,0,0
252,-377,0,0,0,0,0,0,0,0,0,-1,1476,1401,0,0
259,-377,0,0,0,0,0,0,0,0,0,-1,1483,1401,0,0
266,-377,0,0,0,0,0,0,0,0,0,-1,1490,1401,0,0
273,-377,0,0,0,0,0,0,0,0,0,-1,1497,1401,0,0
280,-377,0,0,0,0,0,0,0,0,0,-1,1504,1401,0,0
287,-377,0,0,0,0,0,0,0,0,0,-1,1511,1401,0,0
294,-377,0,0,0,0,0,0,0,0,0,-1,1518,1401,0,0
301,-377,0,0,0,0,0,0,0,0,0,-1,1525,1401,0,0
308,-377,0,0,0,0,0,0,0,0,0,-1,1532,1401,0,0
315,-377,0,0,0,0,0,0,0,0,0,-1,1539,1401,0,0
322,-377,0,0,0,0,0,0,0,0,0,-1,1546,1401,0,0
329,-377,0,0,0,0,0,0,0,0,0,-1,1553,1401,0,0
336,-377,0,0,0,0,0,0,0,0,0,-1,1560,1401,0,0
343,-377,0,0,0,0,0,0,0,0,0,-1,1567,1401,0,0
350,-377,0,0,0,0,0,0,0,0,0,-1,1574,1401,0,0
357,-377,0,0,0,0,0,0,0,0,0,-1,1581,1401,0,0
364,-377,0,0,0,0,0,0,0,0,0,-1,1588,1401,0,0
371,-377,0,0,0,0,0,0,0,0,0,-1,1595,1401,0,0
378,-377,0,0,0,0,0,0,0,0,0,-1,1602,1401,0,0
385,-377,0,0,0,0,0,0,0,0,0,-1,1609,1401,0,0
392,-377,0,0,0,0,0,0,0,0,0,-1,1616,1401,0,0
399,-377,0,0,0,0,0,0,0,0,0,-1,1623,1401,0,0
406,-377,0,0,0,0,0,0,0,0,0,-1,1630,1401,0,0
413,-377,0,0,0,0,0,0,0,0,0,-1,1637,1401,0,0
420,-377,0,0,0,0,0,0,0,0,0,-1,1644,1401,0,0
427,-377,0,0,0,0,0,0,0,0,0,-1,1651,1401,0,0
434,-377,0,0,0,0,0,0,0,0,0,-1,1658,1401,0,0
441,-377,0,0,0,0,0,0,0,0,0,-1,1665,1401,0,0
448,-377,0,0,0,0,0,0,0,0,0,-1,1672,1401,0,0
455,-377,0,0,0,0,0,0,0,0,0,-1,1679,1401,0,0
462,-377,0,0,0,0,0,0,0,0,0,-1,1686,1401,0,0
469,-377,0,0,0,0,0,0,0,0,0,-1,1693,1401,0,0
476,-377,0,0,0,0,0,0,0,0,0,-1,1700,1401,0,0
483,-377,0,0,0,0,0,0,0,0,0,-1,1707,1401,0,0
490,-377,0,0,0,0,0,0,0,0,0,-1,1714,1401,0,0
497,-377,0,0,0,0,0,0,0,0,0,-1,1721,1401,0,0
504,-377,0,0,0,0,0,0,0,0,0,-1,1728,1401,0,0
511,-377,0,0,0,0,0,0,0,0,0,-1,1735,1401,0,0
518,-377,0,0,0,0,0,0,0,0,0,-1,1742,1401,0,0
525,-377,0,0,0,0,0,0,0,0,0,-1,1749,1401,0,0
532,-377,0,0,0,0,0,0,0,0,0,-1,1756,1401,0,0
539,-377,0,0,0,0,0,0,0,0,0,-1,1763,1401,0,0
546,-377,22.3663,0.877319,0,0,0,0,0,0,0,-1,1770,1401,22.3663,-0.877268
553,-377,21.2521,1.89001,0,0,0,0,0,0,0,-1,1777,1401,21.252,-1.89003
560,-377,20.1377,2.90283,0,0,0,0,0,0,0,-1,1784,1401,20.1378,-2.90279
567,-377,27.312,2.2157,0,0,0,0,0,0,0,-1,1791,1401,27.312,-2.21567
574,-377,26.295,2.85779,-0.131041,-0.0810314,0.0964729,-0.00637563,-0.205697,0.912204,0.135056,0.0409889,1798,1401,26.295,-2.85774
581,-377,25.3407,3.49402,-0.119753,-0.0761435,0.0862147,-0.00901901,-0.186878,0.909258,0.12169,0.0454946,1805,1401,25.3407,-3.49402
588,-377,24.4249,3.97327,0,0,0,0,0,0,0,-1,1812,1401,24.425,-3.97328
595,-377,22.7808,3.98792,0,0,0,0,0,0,0,-1,1819,1401,22.7807,-3.98785
602,-377,21.342,3.86182,0,0,0,0,0,0,0,-1,1826,1401,21.342,-3.86179
609,-377,15.0223,4.76135,0,0,0,0,0,0,0,-1,1833,1401,15.0224,-4.76129
616,-377,14.1842,5.78992,0,0,0,0,0,0,0,-1,1840,1401,14.1842,-5.78987
623,-377,15.8248,8.76721,0,0,0,0,0,0,0,-1,1847,1401,15.8248,-8.76725
630,-377,16.6775,9.28052,0,0,0,0,0,0,0,-1,1854,1401,16.6775,-9.28051
637,-377,16.8063,8.86536,-0.0164188,-0.0112434,0.00962975,-0.00385973,-0.0238025,0.916656,0.014751,0.0167817,1861,1401,16.8062,-8.86532
644,-377,16.8655,8.5553,-0.00647306,-0.00440853,0.00323555,-0.00204457,-0.00883703,0.939813,0.00534188,0.0106503,1868,1401,16.8655,-8.55534
651,-377,16.8767,8.25928,-0.0009816,-0.00161555,-0.000337937,-0.000835245,-0.00176191,-0.408696,0.00101769,0.0125074,1875,1401,16.8768,-8.25922
658,-377,16.8895,7.97314,0.000770117,-0.000982326,-0.000304649,0.000821567,-0.00103378,-0.167305,0.00107352,0.0142333,1882,1401,16.8895,-7.97314
665,-377,16.8824,7.71802,0.00141407,-0.000697982,-1.84092e-05,0.00141423,-0.000698143,-0.00871537,0.00124272,0.0165333,1889,1401,16.8824,-7.71796
672,-377,16.8524,7.48083,0.00157959,-0.000466778,0.000240028,0.00160736,-0.000494555,0.115212,0.00126897,0.0161712,1896,1401,16.8524,-7.48086
679,-377,16.8218,7.23535,0.00145123,-0.000144736,0.000432523,0.00156091,-0.000254417,0.248348,0.00113496,0.0168886,1903,1401,16.8217,-7.2353
686,-377,16.8369,6.95813,0.00140229,0.000132636,0.000625645,0.00165878,-0.000123849,0.389057,0.00114936,0.0144984,1910,1401,16.837,-6.95815
693,-377,16.9036,6.66125,0.0016687,0.000485271,0.000734615,0.00202027,0.000133702,0.446363,0.00130457,0.012177,1917,1401,16.9036,-6.66126
700,-377,16.8938,6.41724,0.00203582,0.00160086,0.000746042,0.00259543,0.00104124,0.643572,0.0015082,0.0307109,1924,1401,16.8938,-6.41718
707,-377,16.9746,6.09619,0,0,0,0,0,0,0,-1,1931,1401,16.9746,-6.09615
714,-377,16.5369,5.45959,0,0,0,0,0,0,0,-1,1938,1401,16.5369,-5.4596
721,-377,17.0913,5.42529,0,0,0,0,0,0,0,-1,1945,1401,17.0914,-5.42529
728,-377,14.5396,2.79724,0,0,0,0,0,0,0,-1,1952,1401,14.5396,-2.7972
735,-377,23.2977,-0.991089,0,0,0,0,0,0,0,-1,1959,1401,23.2978,0.991076
742,-377,0,0,0,0,0,0,0,0,0,-1,1966,1401,0,0
749,-377,0,0,0,0,0,0,0,0,0,-1,1973,1401,0,0
756,-377,0,0,0,0,0,0,0,0,0,-1,1980,1401,0,0
763,-377,0,0,0,0,0,0,0,0,0,-1,1987,1401,0,0
770,-377,0,0,0,0,0,0,0,0,0,-1,1994,1401,0,0
777,-377,0,0,0,0,0,0,0,0,0,-1,2001,1401,0,0
784,-377,0,0,0,0,0,0,0,0,0,-1,2008,1401,0,0
791,-377,0,0,0,0,0,0,0,0,0,-1,2015,1401,0,0
798,-377,0,0,0,0,0,0,0,0,0,-1,2022,1401,0,0
805,-377,0,0,0,0,0,0,0,0,0,-1,2029,1401,0,0
812,-377,0,0,0,0,0,0,0,0,0,-1,2036,1401,0,0
-700,-384,0,0,0,0,0,0,0,0,0,-1,524,1408,0,0
-693,-384,0,0,0,0,0,0,0,0,0,-1,531,1408,0,0
-686,-384,0,0,0,0,0,0,0,0,0,-1,538,1408,0,0
-679,-384,0,0,0,0,0,0,0,0,0,-1,545,1408,0,0
-672,-384,0,0,0,0,0,0,0,0,0,-1,552,1408,0,0
-665,-384,0,0,0,0,0,0,0,0,0,-1,559,1408,0,0
-658,-384,0,0,0,0,0,0,0,0,0,-1,566,1408,0,0
-651,-384,0,0,0,0,0,0,0,0,0,-1,573,1408,0,0
-644,-384,0,0,0,0,0,0,0,0,0,-1,580,1408,0,0
-637,-384,0,0,0,0,0,0,0,0,0,-1,587,1408,0,0
-630,-384,0,0,0,0,0,0,0,0,0,-1,594,1408,0,0
-623,-384,0,0,0,0,0,0,0,0,0,-1,601,1408,0,0
-616,-384,-10.019,-3.36646,0,0,0,0,0,0,0,-1,608,1408,-10.019,3.36648
-609,-384,-7.72357,-2.3418,0,0,0,0,0,0,0,-1,615,1408,-7.72358,2.34182
-602,-384,-5.59833,-1.04639,0,0,0,0,0,0,0,-1,622,1408,-5.59835,1.04638
-595,-384,-5.45123,0.327026,0,0,0,0,0,0,0,-1,629,1408,-5.45121,-0.327055
-588,-384,-6.98145,3.58984,0,0,0,0,0,0,0,-1,636,1408,-6.98146,-3.58988
-581,-384,-6.49988,3.97021,0,0,0,0,0,0,0,-1,643,1408,-6.49986,-3.97027
-574,-384,-6.46997,3.93628,0,0,0,0,0,0,0,-1,650,1408,-6.46999,-3.93624
-567,-384,-6.60791,4.29675,-0.00608744,-0.00598096,-0.00558608,-0.000447876,-0.0116205,-0.790163,0.00760213,0.0415334,657,1408,-6.60789,-4.29673
-560,-384,-6.79242,4.56104,-0.00499047,-0.00500307,-0.00438485,-0.000611912,-0.00938162,-0.78468,0.00606075,0.0344113,664,1408,-6.79244,-4.56099
-553,-384,-6.84784,4.86499,-0.00384023,-0.00417633,-0.00345024,-0.00055395,-0.00746261,-0.761064,0.00480109,0.0218276,671,1408,-6.84783,-4.86504
-546,-384,-6.86395,5.22681,-0.00257312,-0.00333564,-0.002575,-0.000351304,-0.00555746,-0.711901,0.0035936,0.0150747,678,1408,-6.86398,-5.22681
-539,-384,-6.91748,5.49902,-0.0012501,-0.00250257,-0.0017389,-2.81067e-05,-0.00372456,-0.612562,0.00247373,0.0162308,685,1408,-6.91745,-5.49905
-532,-384,-6.88153,5.75378,0.000153621,-0.00161845,-0.00085296,0.000497463,-0.00196229,-0.38319,0.00150174,0.020816,692,1408,-6.88154,-5.75379
-525,-384,-6.84216,6.10315,0.0016171,-0.000781285,0.000101664,0.0016214,-0.000785586,0.0422872,0.00141733,0.0197711,699,1408,-6.84214,-6.10314
-518,-384,-6.88953,6.41699,0.00310331,-0.00030303,0.000823052,0.00329176,-0.000491473,0.225078,0.00237534,0.0120789,706,1408,-6.88952,-6.41701
-511,-384,-6.89874,6.74585,0.00426001,-8.5433e-05,0.00136151,0.00465135,-0.000476775,0.279888,0.00327143,0.0101186,713,1408,-6.89876,-6.74581
-504,-384,-6.8916,7.04529,0.00447025,-0.000877904,0.00111714,0.00469422,-0.00110188,0.197865,0.00355417,0.0113104,720,1408,-6.89161,-7.04525
-497,-384,-6.86096,7.37073,0.00463517,-0.00256601,0.000471978,0.00466597,-0.00259682,0.0651701,0.00424952,0.0188283,727,1408,-6.86096,-7.37078
-490,-384,-6.62866,7.78735,0,0,0,0,0,0,0,-1,734,1408,-6.62865,-7.78731
-483,-384,-6.26471,7.61194,0,0,0,0,0,0,0,-1,741,1408,-6.26469,-7.61191
-476,-384,-6.02734,5.67761,0,0,0,0,0,0,0,-1,748,1408,-6.02736,-5.6776
-469,-384,-10.206,2.63721,0,0,0,0,0,0,0,-1,755,1408,-10.206,-2.6372
-462,-384,-9.04291,1.43542,0,0,0,0,0,0,0,-1,762,1408,-9.04293,-1.43545
-455,-384,-7.87988,0.233765,0,0,0,0,0,0,0,-1,769,1408,-7.87986,-0.233709
-448,-384,-9.35529,7.19226,0,0,0,0,0,0,0,-1,776,1408,-9.35531,-7.19226
-441,-384,-10.4697,1.79004,0,0,0,0,0,0,0,-1,783,1408,-10.4697,-1.79003
-434,-384,-10.6449,0.552246,0,0,0,0,0,0,0,-1,790,1408,-10.6449,-0.552216
-427,-384,-10.968,1.10583,0,0,0,0,0,0,0,-1,797,1408,-10.968,-1.10588
-420,-384,-12.5607,4.54858,0,0,0,0,0,0,0,-1,804,1408,-12.5607,-4.54859
-413,-384,0,0,0,0,0,0,0,0,0,-1,811,1408,0,0
-406,-384,0,0,0,0,0,0,0,0,0,-1,818,1408,0,0
-399,-384,0,0,0,0,0,0,0,0,0,-1,825,1408,0,0
-392,-384,0,0,0,0,0,0,0,0,0,-1,832,1408,0,0
-385,-384,0,0,0,0,0,0,0,0,0,-1,839,1408,0,0
-378,-384,0,0,0,0,0,0,0,0,0,-1,846,1408,0,0
-371,-384,0,0,0,0,0,0,0,0,0,-1,853,1408,0,0
-364,-384,0,0,0,0,0,0,0,0,0,-1,860,1408,0,0
-357,-384,0,0,0,0,0,0,0,0,0,-1,867,1408,0,0
-350,-384,0,0,0,0,0,0,0,0,0,-1,874,1408,0,0
-343,-384,0,0,0,0,0,0,0,0,0,-1,881,1408,0,0
-336,-384,0,0,0,0,0,0,0,0,0,-1,888,1408,0,0
-329,-384,0,0,0,0,0,0,0,0,0,-1,895,1408,0,0
-322,-384,0,0,0,0,0,0,0,0,0,-1,902,1408,0,0
-315,-384,0,0,0,0,0,0,0,0,0,-1,909,1408,0,0
-308,-384,0,0,0,0,0,0,0,0,0,-1,916,1408,0,0
-301,-384,0,0,0,0,0,0,0,0,0,-1,923,1408,0,0
-294,-384,0,0,0,0,0,0,0,0,0,-1,930,1408,0,0
-287,-384,0,0,0,0,0,0,0,0,0,-1,937,1408,0,0
-280,-384,0,0,0,0,0,0,0,0,0,-1,944,1408,0,0
-273,-384,0,0,0,0,0,0,0,0,0,-1,951,1408,0,0
-266,-384,0,0,0,0,0,0,0,0,0,-1,958,1408,0,0
-259,-384,0,0,0,0,0,0,0,0,0,-1,965,1408,0,0
-252,-384,0,0,0,0,0,0,0,0,0,-1,972,1408,0,0
-245,-384,0,0,0,0,0,0,0,0,0,-1,979,1408,0,0
-238,-384,0,0,0,0,0,0,0,0,0,-1,986,1408,0,0
-231,-384,0,0,0,0,0,0,0,0,0,-1,993,1408,0,0
-224,-384,0,0,0,0,0,0,0,0,0,-1,1000,1408,0,0
-217,-384,0,0,0,0,0,0,0,0,0,-1,1007,1408,0,0
-210,-384,0,0,0,0,0,0,0,0,0,-1,1014,1408,0,0
-203,-384,0,0,0,0,0,0,0,0,0,-1,1021,1408,0,0
-196,-384,0,0,0,0,0,0,0,0,0,-1,1028,1408,0,0
-189,-384,0,0,0,0,0,0,0,0,0,-1,1035,1408,0,0
-182,-384,0,0,0,0,0,0,0,0,0,-1,1042,1408,0,0
-175,-384,0,0,0,0,0,0,0,0,0,-1,1049,1408,0,0
-168,-384,0,0,0,0,0,0,0,0,0,-1,1056,1408,0,0
-161,-384,0,0,0,0,0,0,0,0,0,-1,1063,1408,0,0
-154,-384,0,0,0,0,0,0,0,0,0,-1,1070,1408,0,0
-147,-384,0,0,0,0,0,0,0,0,0,-1,1077,1408,0,0
-140,-384,0,0,0,0,0,0,0,0,0,-1,1084,1408,0,0
-133,-384,0,0,0,0,0,0,0,0,0,-1,1091,1408,0,0
-126,-384,0,0,0,0,0,0,0,0,0,-1,1098,1408,0,0
-119,-384,0,0,0,0,0,0,0,0,0,-1,1105,1408,0,0
-112,-384,0,0,0,0,0,0,0,0,0,-1,1112,1408,0,0
-105,-384,0,0,0,0,0,0,0,0,0,-1,1119,1408,0,0
-98,-384,0,0,0,0,0,0,0,0,0,-1,1126,1408,0,0
-91,-384,0,0,0,0,0,0,0,0,0,-1,1133,1408,0,0
-84,-384,0,0,0,0,0,0,0,0,0,-1,1140,1408,0,0
-77,-384,0,0,0,0,0,0,0,0,0,-1,1147,1408,0,0
-70,-384,0,0,0,0,0,0,0,0,0,-1,1154,1408,0,0
-63,-384,0,0,0,0,0,0,0,0,0,-1,1161,1408,0,0
-56,-384,0,0,0,0,0,0,0,0,0,-1,1168,1408,0,0
-49,-384,0,0,0,0,0,0,0,0,0,-1,1175,1408,0,0
-42,-384,0,0,0,0,0,0,0,0,0,-1,1182,1408,0,0
-35,-384,0,0,0,0,0,0,0,0,0,-1,1189,1408,0,0
-28,-384,0,0,0,0,0,0,0,0,0,-1,1196,1408,0,0
-21,-384,0,0,0,0,0,0,0,0,0,-1,1203,1408,0,0
-14,-384,0,0,0,0,0,0,0,0,0,-1,1210,1408,0,0
-7,-384,0,0,0,0,0,0,0,0,0,-1,1217,1408,0,0
0,-384,0,0,0,0,0,0,0,0,0,-1,1224,1408,0,0
7,-384,0,0,0,0,0,0,0,0,0,-1,1231,1408,0,0
14,-384,0,0,0,0,0,0,0,0,0,-1,1238,1408,0,0
21,-384,0,0,0,0,0,0,0,0,0,-1,1245,1408,0,0
28,-384,0,0,0,0,0,0,0,0,0,-1,1252,1408,0,0
35,-384,0,0,0,0,0,0,0,0,0,-1,1259,1408,0,0
42,-384,0,0,0,0,0,0,0,0,0,-1,1266,1408,0,0
49,-384,0,0,0,0,0,0,0,0,0,-1,1273,1408,0,0
56,-384,0,0,0,0,0,0,0,0,0,-1,1280,1408,0,0
63,-384,0,0,0,0,0,0,0,0,0,-1,1287,1408,0,0
70,-384,0,0,0,0,0,0,0,0,0,-1,1294,1408,0,0
77,-384,0,0,0,0,0,0,0,0,0,-1,1301,1408,0,0
84,-384,0,0,0,0,0,0,0,0,0,-1,1308,1408,0,0
91,-384,0,0,0,0,0,0,0,0,0,-1,1315,1408,0,0
98,-384,0,0,0,0,0,0,0,0,0,-1,1322,1408,0,0
105,-384,0,0,0,0,0,0,0,0,0,-1,1329,1408,0,0
112,-384,0,0,0,0,0,0,0,0,0,-1,1336,1408,0,0
119,-384,0,0,0,0,0,0,0,0,0,-1,1343,1408,0,0
126,-384,0,0,0,0,0,0,0,0,0,-1,1350,1408,0,0
133,-384,0,0,0,0,0,0,0,0,0,-1,1357,1408,0,0
140,-384,0,0,0,0,0,0,0,0,0,-1,1364,1408,0,0
147,-384,0,0,0,0,0,0,0,0,0,-1,1371,1408,0,0
154,-384,0,0,0,0,0,0,0,0,0,-1,1378,1408,0,0
161,-384,0,0,0,0,0,0,0,0,0,-1,1385,1408,0,0
168,-384,0,0,0,0,0,0,0,0,0,-1,1392,1408,0,0
175,-384,0,0,0,0,0,0,0,0,0,-1,1399,1408,0,0
182,-384,0,0,0,0,0,0,0,0,0,-1,1406,1408,0,0
189,-384,0,0,0,0,0,0,0,0,0,-1,1413,1408,0,0
196,-384,0,0,0,0,0,0,0,0,0,-1,1420,1408,0,0
203,-384,0,0,0,0,0,0,0,0,0,-1,1427,1408,0,0
210,-384,0,0,0,0,0,0,0,0,0,-1,1434,1408,0,0
217,-384,0,0,0,0,0,0,0,0,0,-1,1441,1408,0,0
224,-384,0,0,0,0,0,0,0,0,0,-1,1448,1408,0,0
231,-384,0,0,0,0,0,0,0,0,0,-1,1455,1408,0,0
238,-384,0,0,0,0,0,0,0,0,0,-1,1462,1408,0,0
245,-384,0,0,0,0,0,0,0,0,0,-1,1469,1408,0,0
252,-384,0,0,0,0,0,0,0,0,0,-1,1476,1408,0,0
259,-384,0,0,0,0,0,0,0,0,0,-1,1483,1408,0,0
266,-384,0,0,0,0,0,0,0,0,0,-1,1490,1408,0,0
273,-384,0,0,0,0,0,0,0,0,0,-1,1497,1408,0,0
280,-384,0,0,0,0,0,0,0,0,0,-1,1504,1408,0,0
287,-384,0,0,0,0,0,0,0,0,0,-1,1511,1408,0,0
294,-384,0,0,0,0,0,0,0,0,0,-1,1518,1408,0,0
301,-384,0,0,0,0,0,0,0,0,0,-1,1525,1408,0,0
308,-384,0,0,0,0,0,0,0,0,0,-1,1532,1408,0,0
315,-384,0,0,0,0,0,0,0,0,0,-1,1539,1408,0,0
322,-384,0,0,0,0,0,0,0,0,0,-1,1546,1408,0,0
329,-384,0,0,0,0,0,0,0,0,0,-1,1553,1408,0,0
336,-384,0,0,0,0,0,0,0,0,0,-1,1560,1408,0,0
343,-384,0,0,0,0,0,0,0,0,0,-1,1567,1408,0,0
350,-384,0,0,0,0,0,0,0,0,0,-1,1574,1408,0,0
357,-384,0,0,0,0,0,0,0,0,0,-1,1581,1408,0,0
364,-384,0,0,0,0,0,0,0,0,0,-1,1588,1408,0,0
371,-384,0,0,0,0,0,0,0,0,0,-1,1595,1408,0,0
378,-384,0,0,0,0,0,0,0,0,0,-1,1602,1408,0,0
385,-384,0,0,0,0,0,0,0,0,0,-1,1609,1408,0,0
392,-384,0,0,0,0,0,0,0,0,0,-1,1616,1408,0,0
399,-384,0,0,0,0,0,0,0,0,0,-1,1623,1408,0,0
406,-384,0,0,0,0,0,0,0,0,0,-1,1630,1408,0,0
413,-384,0,0,0,0,0,0,0,0,0,-1,1637,1408,0,0
420,-384,0,0,0,0,0,0,0,0,0,-1,1644,1408,0,0
427,-384,0,0,0,0,0,0,0,0,0,-1,1651,1408,0,0
434,-384,0,0,0,0,0,0,0,0,0,-1,1658,1408,0,0
441,-384,0,0,0,0,0,0,0,0,0,-1,1665,1408,0,0
448,-384,0,0,0,0,0,0,0,0,0,-1,1672,1408,0,0
455,-384,0,0,0,0,0,0,0,0,0,-1,1679,1408,0,0
462,-384,0,0,0,0,0,0,0,0,0,-1,1686,1408,0,0
469,-384,0,0,0,0,0,0,0,0,0,-1,1693,1408,0,0
476,-384,0,0,0,0,0,0,0,0,0,-1,1700,1408,0,0
483,-384,0,0,0,0,0,0,0,0,0,-1,1707,1408,0,0
490,-384,0,0,0,0,0,0,0,0,0,-1,1714,1408,0,0
497,-384,0,0,0,0,0,0,0,0,0,-1,1721,1408,0,0
504,-384,0,0,0,0,0,0,0,0,0,-1,1728,1408,0,0
511,-384,0,0,0,0,0,0,0,0,0,-1,1735,1408,0,0
518,-384,0,0,0,0,0,0,0,0,0,-1,1742,1408,0,0
525,-384,0,0,0,0,0,0,0,0,0,-1,1749,1408,0,0
532,-384,0,0,0,0,0,0,0,0,0,-1,1756,1408,0,0
539,-384,23.4208,1.19556,0,0,0,0,0,0,0,-1,1763,1408,23.4207,-1.19561
546,-384,22.3715,1.52161,0,0,0,0,0,0,0,-1,1770,1408,22.3715,-1.52159
553,-384,21.0801,2.1532,0,0,0,0,0,0,0,-1,1777,1408,21.0801,-2.15317
560,-384,19.7887,2.78479,0,0,0,0,0,0,0,-1,1784,1408,19.7887,-2.78475
567,-384,26.2842,2.68384,0,0,0,0,0,0,0,-1,1791,1408,26.2842,-2.6838
574,-384,25.271,3.3595,-0.126454,-0.0764115,0.100429,0.00206591,-0.204932,0.907486,0.137315,0.0413217,1798,1408,25.271,-3.35953
581,-384,24.3531,4.09058,-0.113429,-0.0720672,0.0895963,-0.00079602,-0.1847,0.898824,0.122869,0.0456285,1805,1408,24.3531,-4.09057
588,-384,23.3721,4.25439,0,0,0,0,0,0,0,-1,1812,1408,23.3721,-4.25442
595,-384,21.9355,4.22412,0,0,0,0,0,0,0,-1,1819,1408,21.9356,-4.22414
602,-384,20.6605,4.17261,0,0,0,0,0,0,0,-1,1826,1408,20.6606,-4.17265
609,-384,14.158,5.49475,0,0,0,0,0,0,0,-1,1833,1408,14.158,-5.49474
616,-384,14.7997,7.6908,0,0,0,0,0,0,0,-1,1840,1408,14.7996,-7.69079
623,-384,16.4293,9.58899,0,0,0,0,0,0,0,-1,1847,1408,16.4294,-9.58901
630,-384,16.6348,9.10217,-0.0219654,-0.0168523,0.0175781,-0.00164585,-0.0371719,0.857613,0.0242513,0.0330417,1854,1408,16.6348,-9.10214
637,-384,16.5886,8.87305,-0.0109785,-0.00940065,0.00949891,-0.000657965,-0.0197212,0.82683,0.0129337,0.0155339,1861,1408,16.5887,-8.87306
644,-384,16.5841,8.58386,-0.0030895,-0.00345249,0.0033871,0.000120968,-0.00666296,0.758631,0.00448284,0.0151937,1868,1408,16.5841,-8.58385
651,-384,16.5856,8.27612,0.000922946,-0.000969939,-7.28065e-05,0.000925742,-0.000972736,-0.0383877,0.0010962,0.0155041,1875,1408,16.5855,-8.27607
658,-384,16.5925,7.98682,0.00149705,-0.000712111,7.16844e-05,0.00149937,-0.000714435,0.0324033,0.00130465,0.0154497,1882,1408,16.5926,-7.98678
665,-384,16.6066,7.73108,0.00158822,-0.000625301,0.000419512,0.00166506,-0.00070214,0.181156,0.00140389,0.0163445,1889,1408,16.6066,-7.73113
672,-384,16.6144,7.47156,0.00156156,-0.00062146,0.000760176,0.00180019,-0.000860086,0.304167,0.00156755,0.0145502,1896,1408,16.6144,-7.47157
679,-384,16.5836,7.18787,0.0014912,-0.000558931,0.00107921,0.00195457,-0.00102231,0.405562,0.00174657,0.0154044,1903,1408,16.5836,-7.18784
686,-384,16.578,6.94031,0.00148922,-0.000548595,0.00140474,0.00220568,-0.00126505,0.471634,0.0020282,0.0129687,1910,1408,16.5781,-6.94033
693,-384,16.6455,6.65186,0.00190096,-0.000639938,0.00161099,0.00268217,-0.00142115,0.451518,0.00240606,0.0183111,1917,1408,16.6455,-6.65185
700,-384,16.7306,6.37061,0,0,0,0,0,0,0,-1,1924,1408,16.7306,-6.37056
707,-384,16.0974,5.97534,0,0,0,0,0,0,0,-1,1931,1408,16.0974,-5.97534
714,-384,16.038,5.0282,0,0,0,0,0,0,0,-1,1938,1408,16.038,-5.02819
721,-384,13.8843,2.8717,0,0,0,0,0,0,0,-1,1945,1408,13.8843,-2.87171
728,-384,15.4409,6.25745,0,0,0,0,0,0,0,-1,1952,1408,15.4409,-6.2574
735,-384,16.7598,6.71289,0,0,0,0,0,0,0,-1,1959,1408,16.7598,-6.71287
742,-384,0,0,0,0,0,0,0,0,0,-1,1966,1408,0,0
749,-384,0,0,0,0,0,0,0,0,0,-1,1973,1408,0,0
756,-384,0,0,0,0,0,0,0,0,0,-1,1980,1408,0,0
763,-384,0,0,0,0,0,0,0,0,0,-1,1987,1408,0,0
770,-384,0,0,0,0,0,0,0,0,0,-1,1994,1408,0,0
777,-384,0,0,0,0,0,0,0,0,0,-1,2001,1408,0,0
784,-384,0,0,0,0,0,0,0,0,0,-1,2008,1408,0,0
791,-384,0,0,0,0,0,0,0,0,0,-1,2015,1408,0,0
798,-384,0,0,0,0,0,0,0,0,0,-1,2022,1408,0,0
805,-384,0,0,0,0,0,0,0,0,0,-1,2029,1408,0,0
812,-384,0,0,0,0,0,0,0,0,0,-1,2036,1408,0,0
-700,-391,0,0,0,0,0,0,0,0,0,-1,524,1415,0,0
-693,-391,0,0,0,0,0,0,0,0,0,-1,531,1415,0,0
-686,-391,0,0,0,0,0,0,0,0,0,-1,538,1415,0,0
-679,-391,0,0,0,0,0,0,0,0,0,-1,545,1415,0,0
-672,-391,0,0,0,0,0,0,0,0,0,-1,552,1415,0,0
-665,-391,0,0,0,0,0,0,0,0,0,-1,559,1415,0,0
-658,-391,0,0,0,0,0,0,0,0,0,-1,566,1415,0,0
-651,-391,0,0,0,0,0,0,0,0,0,-1,573,1415,0,0
-644,-391,0,0,0,0,0,0,0,0,0,-1,580,1415,0,0
-637,-391,0,0,0,0,0,0,0,0,0,-1,587,1415,0,0
-630,-391,0,0,0,0,0,0,0,0,0,-1,594,1415,0,0
-623,-391,0,0,0,0,0,0,0,0,0,-1,601,1415,0,0
-616,-391,0,0,0,0,0,0,0,0,0,-1,608,1415,0,0
-609,-391,-7.71753,-3.69763,0,0,0,0,0,0,0,-1,615,1415,-7.71751,3.69759
-602,-391,-3.36749,-2.07458,0,0,0,0,0,0,0,-1,622,1415,-3.36751,2.07453
-595,-391,-5.84406,-0.57605,0,0,0,0,0,0,0,-1,629,1415,-5.84403,0.575992
-588,-391,-6.65753,3.22522,0,0,0,0,0,0,0,-1,636,1415,-6.65756,-3.22517
-581,-391,-6.56708,3.39697,0,0,0,0,0,0,0,-1,643,1415,-6.5671,-3.39703
-574,-391,-6.61365,3.24573,0,0,0,0,0,0,0,-1,650,1415,-6.61363,-3.24576
-567,-391,-6.55206,3.94641,-0.00585104,-0.00813975,-0.00538938,-0.00148586,-0.0125049,-0.680784,0.00788812,0.046091,657,1415,-6.55208,-3.9464
-560,-391,-6.26099,4.69873,-0.00510806,-0.00683298,-0.0043958,-0.00149091,-0.0104501,-0.688528,0.00652679,0.0419148,664,1415,-6.26097,-4.69871
-553,-391,-6.52393,4.86963,-0.00422016,-0.00568685,-0.00360859,-0.00127116,-0.00863586,-0.685152,0.00538377,0.0326039,671,1415,-6.52392,-4.8696
-546,-391,-6.58099,5.2074,-0.00313647,-0.00453655,-0.00283675,-0.000914658,-0.00675836,-0.664428,0.00423375,0.0124708,678,1415,-6.58099,-5.20741
-539,-391,-6.55725,5.52258,-0.00193004,-0.00341829,-0.0020348,-0.000507568,-0.00484076,-0.610103,0.003072,0.0135357,685,1415,-6.55723,-5.52256
-532,-391,-6.53967,5.82532,-0.000636372,-0.00232835,-0.00119878,-1.51327e-05,-0.00294959,-0.478124,0.00196137,0.0238093,692,1415,-6.53968,-5.82535
-525,-391,-6.54266,6.13953,0.000729007,-0.00129931,-0.000272119,0.00076488,-0.00133518,-0.131073,0.00122728,0.0223503,699,1415,-6.54267,-6.13956
-518,-391,-6.59125,6.43835,0.00213038,-0.000696246,0.000430659,0.00219454,-0.000760404,0.147889,0.00177175,0.0140699,706,1415,-6.59126,-6.43837
-511,-391,-6.58929,6.7489,0.00312875,-0.000440454,0.000843189,0.00331792,-0.000629623,0.220695,0.00244895,0.0131104,713,1415,-6.58928,-6.74888
-504,-391,-6.57898,7.05542,0.00321316,-0.00120948,0.000466724,0.00326188,-0.0012582,0.104004,0.00269378,0.0118609,720,1415,-6.57898,-7.0554
-497,-391,-6.57184,7.35217,0.00329516,-0.00276058,-0.00026614,0.00330684,-0.00277225,-0.0438358,0.00351428,0.010678,727,1415,-6.57185,-7.35215
-490,-391,-6.53308,7.7229,0.00254756,-0.00571443,-0.00205312,0.00302963,-0.00619651,-0.230623,0.00543031,0.0233759,734,1415,-6.5331,-7.72295
-483,-391,-6.44696,8.177,0,0,0,0,0,0,0,-1,741,1415,-6.44698,-8.17704
-476,-391,-6.05731,6.85303,0,0,0,0,0,0,0,-1,748,1415,-6.05728,-6.85304
-469,-391,-3.88953,5.0979,0,0,0,0,0,0,0,-1,755,1415,-3.88955,-5.09794
-462,-391,-8.67688,2.03125,0,0,0,0,0,0,0,-1,762,1415,-8.67685,-2.03121
-455,-391,-8.65576,6.46997,0,0,0,0,0,0,0,-1,769,1415,-8.65579,-6.46999
-448,-391,-8.39618,4.38403,0,0,0,0,0,0,0,-1,776,1415,-8.39617,-4.38405
-441,-391,-9.77704,2.5946,0,0,0,0,0,0,0,-1,783,1415,-9.77702,-2.5946
-434,-391,-11.5403,2.12878,0,0,0,0,0,0,0,-1,790,1415,-11.5403,-2.12881
-427,-391,-10.5311,2.50403,0,0,0,0,0,0,0,-1,797,1415,-10.5311,-2.504
-420,-391,-14.7087,1.24365,0,0,0,0,0,0,0,-1,804,1415,-14.7088,-1.24365
-413,-391,0,0,0,0,0,0,0,0,0,-1,811,1415,0,0
-406,-391,0,0,0,0,0,0,0,0,0,-1,818,1415,0,0
-399,-391,0,0,0,0,0,0,0,0,0,-1,825,1415,0,0
-392,-391,0,0,0,0,0,0,0,0,0,-1,832,1415,0,0
-385,-391,0,0,0,0,0,0,0,0,0,-1,839,1415,0,0
-378,-391,0,0,0,0,0,0,0,0,0,-1,846,1415,0,0
-371,-391,0,0,0,0,0,0,0,0,0,-1,853,1415,0,0
-364,-391,0,0,0,0,0,0,0,0,0,-1,860,1415,0,0
-357,-391,0,0,0,0,0,0,0,0,0,-1,867,1415,0,0
-350,-391,0,0,0,0,0,0,0,0,0,-1,874,1415,0,0
-343,-391,0,0,0,0,0,0,0,0,0,-1,881,1415,0,0
-336,-391,0,0,0,0,0,0,0,0,0,-1,888,1415,0,0
-329,-391,0,0,0,0,0,0,0,0,0,-1,895,1415,0,0
-322,-391,0,0,0,0,0,0,0,0,0,-1,902,1415,0,0
-315,-391,0,0,0,0,0,0,0,0,0,-1,909,1415,0,0
-308,-391,0,0,0,0,0,0,0,0,0,-1,916,1415,0,0
-301,-391,0,0,0,0,0,0,0,0,0,-1,923,1415,0,0
-294,-391,0,0,0,0,0,0,0,0,0,-1,930,1415,0,0
-287,-391,0,0,0,0,0,0,0,0,0,-1,937,1415,0,0
-280,-391,0,0,0,0,0,0,0,0,0,-1,944,1415,0,0
-273,-391,0,0,0,0,0,0,0,0,0,-1,951,1415,0,0
-266,-391,0,0,0,0,0,0,0,0,0,-1,958,1415,0,0
-259,-391,0,0,0,0,0,0,0,0,0,-1,965,1415,0,0
-252,-391,0,0,0,0,0,0,0,0,0,-1,972,1415,0,0
-245,-391,0,0,0,0,0,0,0,0,0,-1,979,1415,0,0
-238,-391,0,0,0,0,0,0,0,0,0,-1,986,1415,0,0
-231,-391,0,0,0,0,0,0,0,0,0,-1,993,1415,0,0
-224,-391,0,0,0,0,0,0,0,0,0,-1,1000,1415,0,0
-217,-391,0,0,0,0,0,0,0,0,0,-1,1007,1415,0,0
-210,-391,0,0,0,0,0,0,0,0,0,-1,1014,1415,0,0
-203,-391,0,0,0,0,0,0,0,0,0,-1,1021,1415,0,0
-196,-391,0,0,0,0,0,0,0,0,0,-1,1028,1415,0,0
-189,-391,0,0,0,0,0,0,0,0,0,-1,1035,1415,0,0
-182,-391,0,0,0,0,0,0,0,0,0,-1,1042,1415,0,0
-175,-391,0,0,0,0,0,0,0,0,0,-1,1049,1415,0,0
-168,-391,0,0,0,0,0,0,0,0,0,-1,1056,1415,0,0
-161,-391,0,0,0,0,0,0,0,0,0,-1,1063,1415,0,0
-154,-391,0,0,0,0,0,0,0,0,0,-1,1070,1415,0,0
-147,-391,0,0,0,0,0,0,0,0,0,-1,1077,1415,0,0
-140,-391,0,0,0,0,0,0,0,0,0,-1,1084,1415,0,0
-133,-391,0,0,0,0,0,0,0,0,0,-1,1091,1415,0,0
-126,-391,0,0,0,0,0,0,0,0,0,-1,1098,1415,0,0
-119,-391,0,0,0,0,0,0,0,0,0,-1,1105,1415,0,0
-112,-391,0,0,0,0,0,0,0,0,0,-1,1112,1415,0,0
-105,-391,0,0,0,0,0,0,0,0,0,-1,1119,1415,0,0
-98,-391,0,0,0,0,0,0,0,0,0,-1,1126,1415,0,0
-91,-391,0,0,0,0,0,0,0,0,0,-1,1133,1415,0,0
-84,-391,0,0,0,0,0,0,0,0,0,-1,1140,1415,0,0
-77,-391,0,0,0,0,0,0,0,0,0,-1,1147,1415,0,0
-70,-391,0,0,0,0,0,0,0,0,0,-1,1154,1415,0,0
-63,-391,0,0,0,0,0,0,0,0,0,-1,1161,1415,0,0
-56,-391,0,0,0,0,0,0,0,0,0,-1,1168,1415,0,0
-49,-391,0,0,0,0,0,0,0,0,0,-1,1175,1415,0,0
-42,-391,0,0,0,0,0,0,0,0,0,-1,1182,1415,0,0
-35,-391,0,0,0,0,0,0,0,0,0,-1,1189,1415,0,0
-28,-391,0,0,0,0,0,0,0,0,0,-1,1196,1415,0,0
-21,-391,0,0,0,0,0,0,0,0,0,-1,1203,1415,0,0
-14,-391,0,0,0,0,0,0,0,0,0,-1,1210,1415,0,0
-7,-391,0,0,0,0,0,0,0,0,0,-1,1217,1415,0,0
0,-391,0,0,0,0,0,0,0,0,0,-1,1224,1415,0,0
7,-391,0,0,0,0,0,0,0,0,0,-1,1231,1415,0,0
14,-391,0,0,0,0,0,0,0,0,0,-1,1238,1415,0,0
21,-391,0,0,0,0,0,0,0,0,0,-1,1245,1415,0,0
28,-391,0,0,0,0,0,0,0,0,0,-1,1252,1415,0,0
35,-391,0,0,0,0,0,0,0,0,0,-1,1259,1415,0,0
42,-391,0,0,0,0,0,0,0,0,0,-1,1266,1415,0,0
49,-391,0,0,0,0,0,0,0,0,0,-1,1273,1415,0,0
56,-391,0,0,0,0,0,0,0,0,0,-1,1280,1415,0,0
63,-391,0,0,0,0,0,0,0,0,0,-1,1287,1415,0,0
70,-391,0,0,0,0,0,0,0,0,0,-1,1294,1415,0,0
77,-391,0,0,0,0,0,0,0,0,0,-1,1301,1415,0,0
84,-391,0,0,0,0,0,0,0,0,0,-1,1308,1415,0,0
91,-391,0,0,0,0,0,0,0,0,0,-1,1315,1415,0,0
98,-391,0,0,0,0,0,0,0,0,0,-1,1322,1415,0,0
105,-391,0,0,0,0,0,0,0,0,0,-1,1329,1415,0,0
112,-391,0,0,0,0,0,0,0,0,0,-1,1336,1415,0,0
119,-391,0,0,0,0,0,0,0,0,0,-1,1343,1415,0,0
126,-391,0,0,0,0,0,0,0,0,0,-1,1350,1415,0,0
133,-391,0,0,0,0,0,0,0,0,0,-1,1357,1415,0,0
140,-391,0,0,0,0,0,0,0,0,0,-1,1364,1415,0,0
147,-391,0,0,0,0,0,0,0,0,0,-1,1371,1415,0,0
154,-391,0,0,0,0,0,0,0,0,0,-1,1378,1415,0,0
161,-391,0,0,0,0,0,0,0,0,0,-1,1385,1415,0,0
168,-391,0,0,0,0,0,0,0,0,0,-1,1392,1415,0,0
175,-391,0,0,0,0,0,0,0,0,0,-1,1399,1415,0,0
182,-391,0,0,0,0,0,0,0,0,0,-1,1406,1415,0,0
189,-391,0,0,0,0,0,0,0,0,0,-1,1413,1415,0,0
196,-391,0,0,0,0,0,0,0,0,0,-1,1420,1415,0,0
203,-391,0,0,0,0,0,0,0,0,0,-1,1427,1415,0,0
210,-391,0,0,0,0,0,0,0,0,0,-1,1434,1415,0,0
217,-391,0,0,0,0,0,0,0,0,0,-1,1441,1415,0,0
224,-391,0,0,0,0,0,0,0,0,0,-1,1448,1415,0,0
231,-391,0,0,0,0,0,0,0,0,0,-1,1455,1415,0,0
238,-391,0,0,0,0,0,0,0,0,0,-1,1462,1415,0,0
245,-391,0,0,0,0,0,0,0,0,0,-1,1469,1415,0,0
252,-391,0,0,0,0,0,0,0,0,0,-1,1476,1415,0,0
259,-391,0,0,0,0,0,0,0,0,0,-1,1483,1415,0,0
266,-391,0,0,0,0,0,0,0,0,0,-1,1490,1415,0,0
273,-391,0,0,0,0,0,0,0,0,0,-1,1497,1415,0,0
280,-391,0,0,0,0,0,0,0,0,0,-1,1504,1415,0,0
287,-391,0,0,0,0,0,0,0,0,0,-1,1511,1415,0,0
294,-391,0,0,0,0,0,0,0,0,0,-1,1518,1415,0,0
301,-391,0,0,0,0,0,0,0,0,0,-1,1525,1415,0,0
308,-391,0,0,0,0,0,0,0,0,0,-1,1532,1415,0,0
315,-391,0,0,0,0,0,0,0,0,0,-1,1539,1415,0,0
322,-391,0,0,0,0,0,0,0,0,0,-1,1546,1415,0,0
329,-391,0,0,0,0,0,0,0,0,0,-1,1553,1415,0,0
336,-391,0,0,0,0,0,0,0,0,0,-1,1560,1415,0,0
343,-391,0,0,0,0,0,0,0,0,0,-1,1567,1415,0,0
350,-391,0,0,0,0,0,0,0,0,0,-1,1574,1415,0,0
357,-391,0,0,0,0,0,0,0,0,0,-1,1581,1415,0,0
364,-391,0,0,0,0,0,0,0,0,0,-1,1588,1415,0,0
371,-391,0,0,0,0,0,0,0,0,0,-1,1595,1415,0,0
378,-391,0,0,0,0,0,0,0,0,0,-1,1602,1415,0,0
385,-391,0,0,0,0,0,0,0,0,0,-1,1609,1415,0,0
392,-391,0,0,0,0,0,0,0,0,0,-1,1616,1415,0,0
399,-391,0,0,0,0,0,0,0,0,0,-1,1623,1415,0,0
406,-391,0,0,0,0,0,0,0,0,0,-1,1630,1415,0,0
413,-391,0,0,0,0,0,0,0,0,0,-1,1637,1415,0,0
420,-391,0,0,0,0,0,0,0,0,0,-1,1644,1415,0,0
427,-391,0,0,0,0,0,0,0,0,0,-1,1651,1415,0,0
434,-391,0,0,0,0,0,0,0,0,0,-1,1658,1415,0,0
441,-391,0,0,0,0,0,0,0,0,0,-1,1665,1415,0,0
448,-391,0,0,0,0,0,0,0,0,0,-1,1672,1415,0,0
455,-391,0,0,0,0,0,0,0,0,0,-1,1679,1415,0,0
462,-391,0,0,0,0,0,0,0,0,0,-1,1686,1415,0,0
469,-391,0,0,0,0,0,0,0,0,0,-1,1693,1415,0,0
476,-391,0,0,0,0,0,0,0,0,0,-1,1700,1415,0,0
483,-391,0,0,0,0,0,0,0,0,0,-1,1707,1415,0,0
490,-391,0,0,0,0,0,0,0,0,0,-1,1714,1415,0,0
497,-391,0,0,0,0,0,0,0,0,0,-1,1721,1415,0,0
504,-391,0,0,0,0,0,0,0,0,0,-1,1728,1415,0,0
511,-391,0,0,0,0,0,0,0,0,0,-1,1735,1415,0,0
518,-391,0,0,0,0,0,0,0,0,0,-1,1742,1415,0,0
525,-391,0,0,0,0,0,0,0,0,0,-1,1749,1415,0,0
532,-391,31.6221,-1.93188,0,0,0,0,0,0,0,-1,1756,1415,31.6221,1.93183
539,-391,22.6211,1.52905,0,0,0,0,0,0,0,-1,1763,1415,22.6211,-1.529
546,-391,21.671,2.0199,0,0,0,0,0,0,0,-1,1770,1415,21.671,-2.01994
553,-391,20.5422,2.27222,0,0,0,0,0,0,0,-1,1777,1415,20.5423,-2.27224
560,-391,26.3085,2.54663,0,0,0,0,0,0,0,-1,1784,1415,26.3085,-2.54666
567,-391,25.274,3.42749,-0.134319,-0.0715249,0.109871,0.0113466,-0.217191,0.924572,0.14872,0.0439399,1791,1415,25.2741,-3.42752
574,-391,24.2732,4.0354,-0.121858,-0.0696319,0.100844,0.00842497,-0.199914,0.912087,0.136171,0.0451586,1798,1415,24.2732,-4.03542
581,-391,23.1665,4.65967,-0.108437,-0.0655675,0.0899537,0.00547002,-0.179474,0.90236,0.121514,0.0452001,1805,1415,23.1665,-4.65972
588,-391,22.3348,5.65869,0,0,0,0,0,0,0,-1,1812,1415,22.3349,-5.65863
595,-391,21.4221,6.3075,0,0,0,0,0,0,0,-1,1819,1415,21.4221,-6.3075
602,-391,15.1635,5.69849,0,0,0,0,0,0,0,-1,1826,1415,15.1635,-5.69847
609,-391,14.8285,7.50476,0,0,0,0,0,0,0,-1,1833,1415,14.8285,-7.50479
616,-391,16.087,9.91321,0,0,0,0,0,0,0,-1,1840,1415,16.087,-9.91322
623,-391,16.3391,9.37354,-0.0295335,-0.0218375,0.0254963,9.95472e-05,-0.0514705,0.860295,0.0343469,0.0336124,1847,1415,16.3391,-9.37351
630,-391,16.3424,9.0835,-0.0179399,-0.0140187,0.0160981,0.000237748,-0.0321964,0.845994,0.0215439,0.01905,1854,1415,16.3424,-9.08347
637,-391,16.3202,8.85791,-0.00851703,-0.0076135,0.00876464,0.000711009,-0.0168415,0.811147,0.011472,0.0145137,1861,1415,16.3202,-8.85788
644,-391,16.3043,8.59839,-0.00218326,-0.00276181,0.00335456,0.000894475,-0.00583954,0.742388,0.00422288,0.0154504,1868,1415,16.3044,-8.59845
651,-391,16.2938,8.30737,0.00108208,-0.000548591,0.000252681,0.00112033,-0.000586848,0.150263,0.00100155,0.0169251,1875,1415,16.2939,-8.30735
658,-391,16.3059,8.03796,0.00130124,-0.000404509,0.000444493,0.00141012,-0.000513387,0.24022,0.00115006,0.0159384,1882,1415,16.3059,-8.03795
665,-391,16.3234,7.76135,0.0011237,-0.00037338,0.000889501,0.00153771,-0.000787391,0.435621,0.0013655,0.0124715,1889,1415,16.3233,-7.76129
672,-391,16.34,7.47363,0.000945789,-0.000430007,0.00138929,0.00180816,-0.00129237,0.55552,0.00179833,0.011845,1896,1415,16.3399,-7.47369
679,-391,16.3196,7.19189,0.000844118,-0.000609362,0.00192797,0.00217777,-0.00194301,0.60516,0.00238042,0.0122122,1903,1415,16.3196,-7.19193
686,-391,16.3181,6.93335,0.000840012,-0.000889164,0.0025179,0.00263763,-0.00268678,0.620017,0.00307409,0.0145679,1910,1415,16.3181,-6.93329
693,-391,16.3269,6.77173,0.00142242,-0.00158703,0.00305048,0.00331911,-0.00348372,0.556272,0.003928,0.0317732,1917,1415,16.327,-6.77177
700,-391,16.3911,6.61829,0,0,0,0,0,0,0,-1,1924,1415,16.3911,-6.61823
707,-391,12.9524,5.96851,0,0,0,0,0,0,0,-1,1931,1415,12.9524,-5.96849
714,-391,15.6875,7.67896,0,0,0,0,0,0,0,-1,1938,1415,15.6875,-7.67893
721,-391,14.1808,8.08435,0,0,0,0,0,0,0,-1,1945,1415,14.1808,-8.08439
728,-391,13.8102,7.28174,0,0,0,0,0,0,0,-1,1952,1415,13.8102,-7.28174
735,-391,0,0,0,0,0,0,0,0,0,-1,1959,1415,0,0
742,-391,0,0,0,0,0,0,0,0,0,-1,1966,1415,0,0
749,-391,0,0,0,0,0,0,0,0,0,-1,1973,1415,0,0
756,-391,0,0,0,0,0,0,0,0,0,-1,1980,1415,0,0
763,-391,0,0,0,0,0,0,0,0,0,-1,1987,1415,0,0
770,-391,0,0,0,0,0,0,0,0,0,-1,1994,1415,0,0
777,-391,0,0,0,0,0,0,0,0,0,-1,2001,1415,0,0
784,-391,0,0,0,0,0,0,0,0,0,-1,2008,1415,0,0
791,-391,0,0,0,0,0,0,0,0,0,-1,2015,1415,0,0
798,-391,0,0,0,0,0,0,0,0,0,-1,2022,1415,0,0
805,-391,0,0,0,0,0,0,0,0,0,-1,2029,1415,0,0
812,-391,0,0,0,0,0,0,0,0,0,-1,2036,1415,0,0
-700,-398,0,0,0,0,0,0,0,0,0,-1,524,1422,0,0
-693,-398,0,0,0,0,0,0,0,0,0,-1,531,1422,0,0
-686,-398,0,0,0,0,0,0,0,0,0,-1,538,1422,0,0
-679,-398,0,0,0,0,0,0,0,0,0,-1,545,1422,0,0
-672,-398,0,0,0,0,0,0,0,0,0,-1,552,1422,0,0
-665,-398,0,0,0,0,0,0,0,0,0,-1,559,1422,0,0
-658,-398,0,0,0,0,0,0,0,0,0,-1,566,1422,0,0
-651,-398,0,0,0,0,0,0,0,0,0,-1,573,1422,0,0
-644,-398,0,0,0,0,0,0,0,0,0,-1,580,1422,0,0
-637,-398,0,0,0,0,0,0,0,0,0,-1,587,1422,0,0
-630,-398,0,0,0,0,0,0,0,0,0,-1,594,1422,0,0
-623,-398,0,0,0,0,0,0,0,0,0,-1,601,1422,0,0
-616,-398,0,0,0,0,0,0,0,0,0,-1,608,1422,0,0
-609,-398,-7.47125,-4.05322,0,0,0,0,0,0,0,-1,615,1422,-7.47128,4.05317
-602,-398,-4.58868,-2.77026,0,0,0,0,0,0,0,-1,622,1422,-4.58869,2.77023
-595,-398,-6.81799,-1.06433,0,0,0,0,0,0,0,-1,629,1422,-6.81797,1.06429
-588,-398,-6.61115,0.746948,0,0,0,0,0,0,0,-1,636,1422,-6.61114,-0.746938
-581,-398,-7.05273,2.53369,0,0,0,0,0,0,0,-1,643,1422,-7.05276,-2.53371
-574,-398,-6.5282,3.40173,0,0,0,0,0,0,0,-1,650,1422,-6.5282,-3.40172
-567,-398,-6.44373,4.0979,-0.00516524,-0.011257,-0.00473236,-0.00258327,-0.0138389,-0.499458,0.00849679,0.0451133,657,1422,-6.44374,-4.09795
-560,-398,-6.297,4.65759,-0.00483223,-0.00934415,-0.00412207,-0.00238917,-0.0117872,-0.535019,0.00719521,0.0433645,664,1422,-6.29701,-4.65757
-553,-398,-6.19153,4.97327,-0.00419828,-0.00758423,-0.00351343,-0.00199121,-0.0097913,-0.560883,0.00597543,0.0393264,671,1422,-6.19153,-4.97323
-546,-398,-6.27679,5.21057,-0.00328831,-0.00592803,-0.0028549,-0.00146294,-0.0077534,-0.568875,0.00475687,0.0184052,678,1422,-6.27677,-5.21057
-539,-398,-6.22388,5.56787,-0.00220622,-0.00441535,-0.00211398,-0.00092563,-0.00569594,-0.544654,0.00352944,0.0120323,685,1422,-6.22388,-5.56786
-532,-398,-6.22943,5.87207,-0.00104521,-0.00302345,-0.00133384,-0.000373758,-0.0036949,-0.466359,0.00234862,0.0205946,692,1422,-6.22942,-5.87209
-525,-398,-6.25031,6.14514,0.00017588,-0.00177821,-0.000468847,0.000282549,-0.00188487,-0.223705,0.00136058,0.0196564,699,1422,-6.25032,-6.14517
-518,-398,-6.25336,6.43652,0.00142588,-0.00101115,0.000176919,0.00143866,-0.00102393,0.0720922,0.00142848,0.0166232,706,1422,-6.25337,-6.43651
-511,-398,-6.25586,6.73108,0.00221831,-0.000674081,0.00045292,0.00228757,-0.000743346,0.151752,0.00182404,0.0132163,713,1422,-6.25584,-6.73107
-504,-398,-6.24884,7.05127,0.00214502,-0.00136031,-3.79045e-05,0.00214543,-0.00136072,-0.0108117,0.0020411,0.0137473,720,1422,-6.24883,-7.05131
-497,-398,-6.25397,7.35815,0.00212634,-0.0026527,-0.000786993,0.0022526,-0.00277896,-0.159082,0.00291027,0.0103281,727,1422,-6.25395,-7.35817
-490,-398,-6.26147,7.67908,0.00135415,-0.00542607,-0.00247945,0.0021641,-0.00623602,-0.315738,0.00503617,0.0115975,734,1422,-6.2615,-7.67902
-483,-398,-6.16669,8.08362,-0.000499379,-0.00910492,-0.00508463,0.00185873,-0.011463,-0.434247,0.008331,0.0280942,741,1422,-6.16666,-8.08356
-476,-398,-6.0874,8.34802,0,0,0,0,0,0,0,-1,748,1422,-6.0874,-8.34799
-469,-398,-5.90448,8.27112,0,0,0,0,0,0,0,-1,755,1422,-5.9045,-8.27115
-462,-398,-7.43787,8.50073,0,0,0,0,0,0,0,-1,762,1422,-7.4379,-8.50079
-455,-398,-8.08331,6.75024,0,0,0,0,0,0,0,-1,769,1422,-8.08333,-6.75022
-448,-398,-7.4505,5.25293,0,0,0,0,0,0,0,-1,776,1422,-7.4505,-5.25291
-441,-398,-7.61639,3.32141,0,0,0,0,0,0,0,-1,783,1422,-7.61637,-3.32145
-434,-398,-10.7618,3.297,0,0,0,0,0,0,0,-1,790,1422,-10.7618,-3.29704
-427,-398,-11.9061,2.24939,0,0,0,0,0,0,0,-1,797,1422,-11.9061,-2.24941
-420,-398,-13.467,2.32788,0,0,0,0,0,0,0,-1,804,1422,-13.467,-2.32787
-413,-398,-14.7983,2.15515,0,0,0,0,0,0,0,-1,811,1422,-14.7983,-2.15516
-406,-398,0,0,0,0,0,0,0,0,0,-1,818,1422,0,0
-399,-398,0,0,0,0,0,0,0,0,0,-1,825,1422,0,0
-392,-398,0,0,0,0,0,0,0,0,0,-1,832,1422,0,0
-385,-398,0,0,0,0,0,0,0,0,0,-1,839,1422,0,0
-378,-398,0,0,0,0,0,0,0,0,0,-1,846,1422,0,0
-371,-398,0,0,0,0,0,0,0,0,0,-1,853,1422,0,0
-364,-398,0,0,0,0,0,0,0,0,0,-1,860,1422,0,0
-357,-398,0,0,0,0,0,0,0,0,0,-1,867,1422,0,0
-350,-398,0,0,0,0,0,0,0,0,0,-1,874,1422,0,0
-343,-398,0,0,0,0,0,0,0,0,0,-1,881,1422,0,0
-336,-398,0,0,0,0,0,0,0,0,0,-1,888,1422,0,0
-329,-398,0,0,0,0,0,0,0,0,0,-1,895,1422,0,0
-322,-398,0,0,0,0,0,0,0,0,0,-1,902,1422,0,0
-315,-398,0,0,0,0,0,0,0,0,0,-1,909,1422,0,0
-308,-398,0,0,0,0,0,0,0,0,0,-1,916,1422,0,0
-301,-398,0,0,0,0,0,0,0,0,0,-1,923,1422,0,0
-294,-398,0,0,0,0,0,0,0,0,0,-1,930,1422,0,0
-287,-398,0,0,0,0,0,0,0,0,0,-1,937,1422,0,0
-280,-398,0,0,0,0,0,0,0,0,0,-1,944,1422,0,0
-273,-398,0,0,0,0,0,0,0,0,0,-1,951,1422,0,0
-266,-398,0,0,0,0,0,0,0,0,0,-1,958,1422,0,0
-259,-398,0,0,0,0,0,0,0,0,0,-1,965,1422,0,0
-252,-398,0,0,0,0,0,0,0,0,0,-1,972,1422,0,0
-245,-398,0,0,0,0,0,0,0,0,0,-1,979,1422,0,0
-238,-398,0,0,0,0,0,0,0,0,0,-1,986,1422,0,0
-231,-398,0,0,0,0,0,0,0,0,0,-1,993,1422,0,0
-224,-398,0,0,0,0,0,0,0,0,0,-1,1000,1422,0,0
-217,-398,0,0,0,0,0,0,0,0,0,-1,1007,1422,0,0
-210,-398,0,0,0,0,0,0,0,0,0,-1,1014,1422,0,0
-203,-398,0,0,0,0,0,0,0,0,0,-1,1021,1422,0,0
-196,-398,0,0,0,0,0,0,0,0,0,-1,1028,1422,0,0
-189,-398,0,0,0,0,0,0,0,0,0,-1,1035,1422,0,0
-182,-398,0,0,0,0,0,0,0,0,0,-1,1042,1422,0,0
-175,-398,0,0,0,0,0,0,0,0,0,-1,1049,1422,0,0
-168,-398,0,0,0,0,0,0,0,0,0,-1,1056,1422,0,0
-161,-398,0,0,0,0,0,0,0,0,0,-1,1063,1422,0,0
-154,-398,0,0,0,0,0,0,0,0,0,-1,1070,1422,0,0
-147,-398,0,0,0,0,0,0,0,0,0,-1,1077,1422,0,0
-140,-398,0,0,0,0,0,0,0,0,0,-1,1084,1422,0,0
-133,-398,0,0,0,0,0,0,0,0,0,-1,1091,1422,0,0
-126,-398,0,0,0,0,0,0,0,0,0,-1,1098,1422,0,0
-119,-398,0,0,0,0,0,0,0,0,0,-1,1105,1422,0,0
-112,-398,0,0,0,0,0,0,0,0,0,-1,1112,1422,0,0
-105,-398,0,0,0,0,0,0,0,0,0,-1,1119,1422,0,0
-98,-398,0,0,0,0,0,0,0,0,0,-1,1126,1422,0,0
-91,-398,0,0,0,0,0,0,0,0,0,-1,1133,1422,0,0
-84,-398,0,0,0,0,0,0,0,0,0,-1,1140,1422,0,0
-77,-398,0,0,0,0,0,0,0,0,0,-1,1147,1422,0,0
-70,-398,0,0,0,0,0,0,0,0,0,-1,1154,1422,0,0
-63,-398,0,0,0,0,0,0,0,0,0,-1,1161,1422,0,0
-56,-398,0,0,0,0,0,0,0,0,0,-1,1168,1422,0,0
-49,-398,0,0,0,0,0,0,0,0,0,-1,1175,1422,0,0
-42,-398,0,0,0,0,0,0,0,0,0,-1,1182,1422,0,0
-35,-398,0,0,0,0,0,0,0,0,0,-1,1189,1422,0,0
-28,-398,0,0,0,0,0,0,0,0,0,-1,1196,1422,0,0
-21,-398,0,0,0,0,0,0,0,0,0,-1,1203,1422,0,0
-14,-398,0,0,0,0,0,0,0,0,0,-1,1210,1422,0,0
-7,-398,0,0,0,0,0,0,0,0,0,-1,1217,1422,0,0
0,-398,0,0,0,0,0,0,0,0,0,-1,1224,1422,0,0
7,-398,0,0,0,0,0,0,0,0,0,-1,1231,1422,0,0
14,-398,0,0,0,0,0,0,0,0,0,-1,1238,1422,0,0
21,-398,0,0,0,0,0,0,0,0,0,-1,1245,1422,0,0
28,-398,0,0,0,0,0,0,0,0,0,-1,1252,1422,0,0
35,-398,0,0,0,0,0,0,0,0,0,-1,1259,1422,0,0
42,-398,0,0,0,0,0,0,0,0,0,-1,1266,1422,0,0
49,-398,0,0,0,0,0,0,0,0,0,-1,1273,1422,0,0
56,-398,0,0,0,0,0,0,0,0,0,-1,1280,1422,0,0
63,-398,0,0,0,0,0,0,0,0,0,-1,1287,1422,0,0
70,-398,0,0,0,0,0,0,0,0,0,-1,1294,1422,0,0
77,-398,0,0,0,0,0,0,0,0,0,-1,1301,1422,0,0
84,-398,0,0,0,0,0,0,0,0,0,-1,1308,1422,0,0
91,-398,0,0,0,0,0,0,0,0,0,-1,1315,1422,0,0
98,-398,0,0,0,0,0,0,0,0,0,-1,1322,1422,0,0
105,-398,0,0,0,0,0,0,0,0,0,-1,1329,1422,0,0
112,-398,0,0,0,0,0,0,0,0,0,-1,1336,1422,0,0
119,-398,0,0,0,0,0,0,0,0,0,-1,1343,1422,0,0
126,-398,0,0,0,0,0,0,0,0,0,-1,1350,1422,0,0
133,-398,0,0,0,0,0,0,0,0,0,-1,1357,1422,0,0
140,-398,0,0,0,0,0,0,0,0,0,-1,1364,1422,0,0
147,-398,0,0,0,0,0,0,0,0,0,-1,1371,1422,0,0
154,-398,0,0,0,0,0,0,0,0,0,-1,1378,1422,0,0
161,-398,0,0,0,0,0,0,0,0,0,-1,1385,1422,0,0
168,-398,0,0,0,0,0,0,0,0,0,-1,1392,1422,0,0
175,-398,0,0,0,0,0,0,0,0,0,-1,1399,1422,0,0
182,-398,0,0,0,0,0,0,0,0,0,-1,1406,1422,0,0
189,-398,0,0,0,0,0,0,0,0,0,-1,1413,1422,0,0
196,-398,0,0,0,0,0,0,0,0,0,-1,1420,1422,0,0
203,-398,0,0,0,0,0,0,0,0,0,-1,1427,1422,0,0
210,-398,0,0,0,0,0,0,0,0,0,-1,1434,1422,0,0
217,-398,0,0,0,0,0,0,0,0,0,-1,1441,1422,0,0
224,-398,0,0,0,0,0,0,0,0,0,-1,1448,1422,0,0
231,-398,0,0,0,0,0,0,0,0,0,-1,1455,1422,0,0
238,-398,0,0,0,0,0,0,0,0,0,-1,1462,1422,0,0
245,-398,0,0,0,0,0,0,0,0,0,-1,1469,1422,0,0
252,-398,0,0,0,0,0,0,0,0,0,-1,1476,1422,0,0
259,-398,0,0,0,0,0,0,0,0,0,-1,1483,1422,0,0
266,-398,0,0,0,0,0,0,0,0,0,-1,1490,1422,0,0
273,-398,0,0,0,0,0,0,0,0,0,-1,1497,1422,0,0
280,-398,0,0,0,0,0,0,0,0,0,-1,1504,1422,0,0
287,-398,0,0,0,0,0,0,0,0,0,-1,1511,1422,0,0
294,-398,0,0,0,0,0,0,0,0,0,-1,1518,1422,0,0
301,-398,0,0,0,0,0,0,0,0,0,-1,1525,1422,0,0
308,-398,0,0,0,0,0,0,0,0,0,-1,1532,1422,0,0
315,-398,0,0,0,0,0,0,0,0,0,-1,1539,1422,0,0
322,-398,0,0,0,0,0,0,0,0,0,-1,1546,1422,0,0
329,-398,0,0,0,0,0,0,0,0,0,-1,1553,1422,0,0
336,-398,0,0,0,0,0,0,0,0,0,-1,1560,1422,0,0
343,-398,0,0,0,0,0,0,0,0,0,-1,1567,1422,0,0
350,-398,0,0,0,0,0,0,0,0,0,-1,1574,1422,0,0
357,-398,0,0,0,0,0,0,0,0,0,-1,1581,1422,0,0
364,-398,0,0,0,0,0,0,0,0,0,-1,1588,1422,0,0
371,-398,0,0,0,0,0,0,0,0,0,-1,1595,1422,0,0
378,-398,0,0,0,0,0,0,0,0,0,-1,1602,1422,0,0
385,-398,0,0,0,0,0,0,0,0,0,-1,1609,1422,0,0
392,-398,0,0,0,0,0,0,0,0,0,-1,1616,1422,0,0
399,-398,0,0,0,0,0,0,0,0,0,-1,1623,1422,0,0
406,-398,0,0,0,0,0,0,0,0,0,-1,1630,1422,0,0
413,-398,0,0,0,0,0,0,0,0,0,-1,1637,1422,0,0
420,-398,0,0,0,0,0,0,0,0,0,-1,1644,1422,0,0
427,-398,0,0,0,0,0,0,0,0,0,-1,1651,1422,0,0
434,-398,0,0,0,0,0,0,0,0,0,-1,1658,1422,0,0
441,-398,0,0,0,0,0,0,0,0,0,-1,1665,1422,0,0
448,-398,0,0,0,0,0,0,0,0,0,-1,1672,1422,0,0
455,-398,0,0,0,0,0,0,0,0,0,-1,1679,1422,0,0
462,-398,0,0,0,0,0,0,0,0,0,-1,1686,1422,0,0
469,-398,0,0,0,0,0,0,0,0,0,-1,1693,1422,0,0
476,-398,0,0,0,0,0,0,0,0,0,-1,1700,1422,0,0
483,-398,0,0,0,0,0,0,0,0,0,-1,1707,1422,0,0
490,-398,0,0,0,0,0,0,0,0,0,-1,1714,1422,0,0
497,-398,0,0,0,0,0,0,0,0,0,-1,1721,1422,0,0
504,-398,0,0,0,0,0,0,0,0,0,-1,1728,1422,0,0
511,-398,0,0,0,0,0,0,0,0,0,-1,1735,1422,0,0
518,-398,0,0,0,0,0,0,0,0,0,-1,1742,1422,0,0
525,-398,0,0,0,0,0,0,0,0,0,-1,1749,1422,0,0
532,-398,30.7917,-1.17822,0,0,0,0,0,0,0,-1,1756,1422,30.7917,1.17826
539,-398,29.3938,-0.323364,0,0,0,0,0,0,0,-1,1763,1422,29.3937,0.323402
546,-398,28.048,0.531128,0,0,0,0,0,0,0,-1,1770,1422,28.0479,-0.531175
553,-398,26.5673,1.43127,0,0,0,0,0,0,0,-1,1777,1422,26.5673,-1.43126
560,-398,25.2944,2.77917,-0.139637,-0.06496,0.114021,0.01768,-0.222277,0.943631,0.154416,0.0420897,1784,1422,25.2945,-2.77913
567,-398,24.2112,3.81177,-0.127587,-0.0646598,0.106291,0.0147262,-0.206973,0.929297,0.143144,0.0437592,1791,1422,24.2112,-3.8118
574,-398,23.2596,4.76233,-0.114892,-0.0626749,0.0969726,0.0116424,-0.189209,0.916898,0.130194,0.0454602,1798,1422,23.2596,-4.76239
581,-398,22.0823,5.91931,0,0,0,0,0,0,0,-1,1805,1422,22.0823,-5.91934
588,-398,20.9825,6.74756,-0.0883939,-0.0543632,0.0755388,0.0060529,-0.14881,0.896176,0.101285,0.0489076,1812,1422,20.9826,-6.7475
595,-398,19.9556,7.65234,-0.0747343,-0.0473715,0.0643577,0.00474294,-0.126849,0.890131,0.0861903,0.0496614,1819,1422,19.9555,-7.65239
602,-398,18.9205,8.24561,0,0,0,0,0,0,0,-1,1826,1422,18.9205,-8.24562
609,-398,16.151,10.0095,0,0,0,0,0,0,0,-1,1833,1422,16.151,-10.0095
616,-398,16.1104,9.6637,-0.0366704,-0.0251077,0.0320868,0.00171442,-0.0634926,0.874531,0.0429113,0.0266304,1840,1422,16.1104,-9.66371
623,-398,16.0515,9.41431,-0.0255689,-0.018463,0.0225796,0.00084148,-0.0448734,0.863434,0.0302,0.0126255,1847,1422,16.0515,-9.41431
630,-398,16.0475,9.12427,-0.0151799,-0.0116065,0.0139343,0.000655124,-0.0274416,0.849161,0.0185166,0.0110919,1854,1422,16.0475,-9.12427
637,-398,16.0458,8.84766,-0.00735394,-0.00629682,0.00766388,0.000856704,-0.0145075,0.819827,0.00996949,0.0129079,1861,1422,16.0458,-8.84762
644,-398,16.0082,8.59204,-0.00224895,-0.00241932,0.00316842,0.000835426,-0.0055037,0.771958,0.00397697,0.0180727,1868,1422,16.0082,-8.59207
651,-398,16.0132,8.32629,0.000533212,-0.000466958,0.000625138,0.000833679,-0.000767424,0.44804,0.000924661,0.0251832,1875,1422,16.0131,-8.32624
658,-398,16.0448,8.07446,0.000709729,-0.000342965,0.000901252,0.00122708,-0.000860311,0.521106,0.00121134,0.0203354,1882,1422,16.0448,-8.07448
665,-398,16.0483,7.7793,0.000477746,-0.000316957,0.00144204,0.00157618,-0.00141539,0.65096,0.00172801,0.0137592,1889,1422,16.0483,-7.77932
672,-398,16.0507,7.49414,0.000222724,-0.00038919,0.00207292,0.00201214,-0.00217861,0.712129,0.00242017,0.0130034,1896,1422,16.0507,-7.49418
679,-398,16.0283,7.22632,3.61706e-05,-0.000591262,0.00276142,0.00250164,-0.00305673,0.728837,0.00321446,0.0124642,1903,1422,16.0283,-7.22629
686,-398,16.0388,6.93994,-7.43216e-05,-0.000903696,0.00354147,0.00307666,-0.00405468,0.727116,0.00413017,0.0209804,1910,1422,16.0388,-6.9399
693,-398,15.9711,6.90295,0,0,0,0,0,0,0,-1,1917,1422,15.9711,-6.90298
700,-398,14.0787,6.53918,0,0,0,0,0,0,0,-1,1924,1422,14.0787,-6.53921
707,-398,10.9731,5.479,0,0,0,0,0,0,0,-1,1931,1422,10.9732,-5.47896
714,-398,11.7313,6.17346,0,0,0,0,0,0,0,-1,1938,1422,11.7313,-6.17348
721,-398,13.9371,8.05103,0,0,0,0,0,0,0,-1,1945,1422,13.9372,-8.05102
728,-398,14.786,7.0282,0,0,0,0,0,0,0,-1,1952,1422,14.786,-7.0282
735,-398,0,0,0,0,0,0,0,0,0,-1,1959,1422,0,0
742,-398,0,0,0,0,0,0,0,0,0,-1,1966,1422,0,0
749,-398,0,0,0,0,0,0,0,0,0,-1,1973,1422,0,0
756,-398,0,0,0,0,0,0,0,0,0,-1,1980,1422,0,0
763,-398,0,0,0,0,0,0,0,0,0,-1,1987,1422,0,0
770,-398,0,0,0,0,0,0,0,0,0,-1,1994,1422,0,0
777,-398,0,0,0,0,0,0,0,0,0,-1,2001,1422,0,0
784,-398,0,0,0,0,0,0,0,0,0,-1,2008,1422,0,0
791,-398,0,0,0,0,0,0,0,0,0,-1,2015,1422,0,0
798,-398,0,0,0,0,0,0,0,0,0,-1,2022,1422,0,0
805,-398,0,0,0,0,0,0,0,0,0,-1,2029,1422,0,0
812,-398,0,0,0,0,0,0,0,0,0,-1,2036,1422,0,0
-700,-405,0,0,0,0,0,0,0,0,0,-1,524,1429,0,0
-693,-405,0,0,0,0,0,0,0,0,0,-1,531,1429,0,0
-686,-405,0,0,0,0,0,0,0,0,0,-1,538,1429,0,0
-679,-405,0,0,0,0,0,0,0,0,0,-1,545,1429,0,0
-672,-405,0,0,0,0,0,0,0,0,0,-1,552,1429,0,0
-665,-405,0,0,0,0,0,0,0,0,0,-1,559,1429,0,0
-658,-405,0,0,0,0,0,0,0,0,0,-1,566,1429,0,0
-651,-405,0,0,0,0,0,0,0,0,0,-1,573,1429,0,0
-644,-405,0,0,0,0,0,0,0,0,0,-1,580,1429,0,0
-637,-405,0,0,0,0,0,0,0,0,0,-1,587,1429,0,0
-630,-405,0,0,0,0,0,0,0,0,0,-1,594,1429,0,0
-623,-405,0,0,0,0,0,0,0,0,0,-1,601,1429,0,0
-616,-405,0,0,0,0,0,0,0,0,0,-1,608,1429,0,0
-609,-405,0,0,0,0,0,0,0,0,0,-1,615,1429,0,0
-602,-405,-5.80988,-3.46594,0,0,0,0,0,0,0,-1,622,1429,-5.80987,3.46592
-595,-405,-9.35413,2.01477,0,0,0,0,0,0,0,-1,629,1429,-9.35411,-2.01476
-588,-405,-7.35693,0.507202,0,0,0,0,0,0,0,-1,636,1429,-7.35696,-0.507187
-581,-405,-5.81323,0.708984,0,0,0,0,0,0,0,-1,643,1429,-5.81325,-0.708986
-574,-405,-7.38727,3.18872,0,0,0,0,0,0,0,-1,650,1429,-7.38724,-3.18872
-567,-405,-6.36487,4.29468,0,0,0,0,0,0,0,-1,657,1429,-6.36486,-4.29469
-560,-405,-6.12848,4.63953,0,0,0,0,0,0,0,-1,664,1429,-6.12846,-4.6395
-553,-405,-5.99597,4.87341,0,0,0,0,0,0,0,-1,671,1429,-5.996,-4.87344
-546,-405,-5.96155,5.19153,-0.00327092,-0.00716245,-0.00297314,-0.00166344,-0.00876993,-0.495651,0.00537858,0.0289588,678,1429,-5.96157,-5.19149
-539,-405,-5.96179,5.52136,-0.00236368,-0.00522597,-0.00229429,-0.00109077,-0.00649888,-0.506536,0.00401865,0.0115921,685,1429,-5.96182,-5.52137
-532,-405,-5.95972,5.82617,-0.00137808,-0.00355786,-0.00157195,-0.000555143,-0.00438079,-0.482278,0.00275419,0.0154737,692,1429,-5.95971,-5.82617
-525,-405,-5.95459,6.15491,-0.000343691,-0.00216456,-0.000776596,-5.74663e-05,-0.00245078,-0.353115,0.00161504,0.01495,699,1429,-5.95461,-6.15496
-518,-405,-5.94122,6.45422,0.000730327,-0.00128565,-0.000177706,0.000745872,-0.00130119,-0.0872521,0.00119628,0.0151323,706,1429,-5.94121,-6.45422
-511,-405,-5.94769,6.7467,0.00134362,-0.00090622,1.91374e-05,0.00134379,-0.000906383,0.00850528,0.00130729,0.0156055,713,1429,-5.9477,-6.74671
-504,-405,-5.93158,7.05298,0.0011783,-0.00152881,-0.00050141,0.00126818,-0.00161869,-0.177383,0.00167083,0.0169904,720,1429,-5.93157,-7.05304
-497,-405,-5.93573,7.37659,0.00111081,-0.00259947,-0.00120915,0.00147008,-0.00295873,-0.288815,0.00260468,0.0134599,727,1429,-5.93576,-7.37655
-490,-405,-5.95551,7.70544,0.000404585,-0.00516466,-0.0027366,0.00152421,-0.00628428,-0.388351,0.0047793,0.0119829,734,1429,-5.95552,-7.70541
-483,-405,-5.93921,8.00891,-0.00121934,-0.00854285,-0.00511248,0.00140746,-0.0111696,-0.474628,0.00795719,0.0129859,741,1429,-5.93922,-8.00891
-476,-405,-5.87311,8.3158,-0.00377001,-0.0131777,-0.00841413,0.00116583,-0.0181136,-0.530519,0.0124825,0.0327864,748,1429,-5.87311,-8.31575
-469,-405,-5.85815,8.38867,-0.00750438,-0.0198111,-0.0132751,0.000974143,-0.0282896,-0.568376,0.0191927,0.0445773,755,1429,-5.85813,-8.38865
-462,-405,-5.75787,8.57776,0,0,0,0,0,0,0,-1,762,1429,-5.75789,-8.57782
-455,-405,-7.19611,7.40637,0,0,0,0,0,0,0,-1,769,1429,-7.19611,-7.40634
-448,-405,-8.4649,6.82813,0,0,0,0,0,0,0,-1,776,1429,-8.46492,-6.82817
-441,-405,-6.6712,4.23767,0,0,0,0,0,0,0,-1,783,1429,-6.67121,-4.23764
-434,-405,-9.62549,3.94189,0,0,0,0,0,0,0,-1,790,1429,-9.62546,-3.94191
-427,-405,-10.9764,3.73926,0,0,0,0,0,0,0,-1,797,1429,-10.9764,-3.73923
-420,-405,-12.1187,3.68506,0,0,0,0,0,0,0,-1,804,1429,-12.1187,-3.68512
-413,-405,-13.5353,3.75659,0,0,0,0,0,0,0,-1,811,1429,-13.5353,-3.75655
-406,-405,-14.7374,3.99817,0,0,0,0,0,0,0,-1,818,1429,-14.7374,-3.99814
-399,-405,0,0,0,0,0,0,0,0,0,-1,825,1429,0,0
-392,-405,0,0,0,0,0,0,0,0,0,-1,832,1429,0,0
-385,-405,0,0,0,0,0,0,0,0,0,-1,839,1429,0,0
-378,-405,0,0,0,0,0,0,0,0,0,-1,846,1429,0,0
-371,-405,0,0,0,0,0,0,0,0,0,-1,853,1429,0,0
-364,-405,0,0,0,0,0,0,0,0,0,-1,860,1429,0,0
-357,-405,0,0,0,0,0,0,0,0,0,-1,867,1429,0,0
-350,-405,0,0,0,0,0,0,0,0,0,-1,874,1429,0,0
-343,-405,0,0,0,0,0,0,0,0,0,-1,881,1429,0,0
-336,-405,0,0,0,0,0,0,0,0,0,-1,888,1429,0,0
-329,-405,0,0,0,0,0,0,0,0,0,-1,895,1429,0,0
-322,-405,0,0,0,0,0,0,0,0,0,-1,902,1429,0,0
-315,-405,0,0,0,0,0,0,0,0,0,-1,909,1429,0,0
-308,-405,0,0,0,0,0,0,0,0,0,-1,916,1429,0,0
-301,-405,0,0,0,0,0,0,0,0,0,-1,923,1429,0,0
-294,-405,0,0,0,0,0,0,0,0,0,-1,930,1429,0,0
-287,-405,0,0,0,0,0,0,0,0,0,-1,937,1429,0,0
-280,-405,0,0,0,0,0,0,0,0,0,-1,944,1429,0,0
-273,-405,0,0,0,0,0,0,0,0,0,-1,951,1429,0,0
-266,-405,0,0,0,0,0,0,0,0,0,-1,958,1429,0,0
-259,-405,0,0,0,0,0,0,0,0,0,-1,965,1429,0,0
-252,-405,0,0,0,0,0,0,0,0,0,-1,972,1429,0,0
-245,-405,0,0,0,0,0,0,0,0,0,-1,979,1429,0,0
-238,-405,0,0,0,0,0,0,0,0,0,-1,986,1429,0,0
-231,-405,0,0,0,0,0,0,0,0,0,-1,993,1429,0,0
-224,-405,0,0,0,0,0,0,0,0,0,-1,1000,1429,0,0
-217,-405,0,0,0,0,0,0,0,0,0,-1,1007,1429,0,0
-210,-405,0,0,0,0,0,0,0,0,0,-1,1014,1429,0,0
-203,-405,0,0,0,0,0,0,0,0,0,-1,1021,1429,0,0
-196,-405,0,0,0,0,0,0,0,0,0,-1,1028,1429,0,0
-189,-405,0,0,0,0,0,0,0,0,0,-1,1035,1429,0,0
-182,-405,0,0,0,0,0,0,0,0,0,-1,1042,1429,0,0
-175,-405,0,0,0,0,0,0,0,0,0,-1,1049,1429,0,0
-168,-405,0,0,0,0,0,0,0,0,0,-1,1056,1429,0,0
-161,-405,0,0,0,0,0,0,0,0,0,-1,1063,1429,0,0
-154,-405,0,0,0,0,0,0,0,0,0,-1,1070,1429,0,0
-147,-405,0,0,0,0,0,0,0,0,0,-1,1077,1429,0,0
-140,-405,0,0,0,0,0,0,0,0,0,-1,1084,1429,0,0
-133,-405,0,0,0,0,0,0,0,0,0,-1,1091,1429,0,0
-126,-405,0,0,0,0,0,0,0,0,0,-1,1098,1429,0,0
-119,-405,0,0,0,0,0,0,0,0,0,-1,1105,1429,0,0
-112,-405,0,0,0,0,0,0,0,0,0,-1,1112,1429,0,0
-105,-405,0,0,0,0,0,0,0,0,0,-1,1119,1429,0,0
-98,-405,0,0,0,0,0,0,0,0,0,-1,1126,1429,0,0
-91,-405,0,0,0,0,0,0,0,0,0,-1,1133,1429,0,0
-84,-405,0,0,0,0,0,0,0,0,0,-1,1140,1429,0,0
-77,-405,0,0,0,0,0,0,0,0,0,-1,1147,1429,0,0
-70,-405,0,0,0,0,0,0,0,0,0,-1,1154,1429,0,0
-63,-405,0,0,0,0,0,0,0,0,0,-1,1161,1429,0,0
-56,-405,0,0,0,0,0,0,0,0,0,-1,1168,1429,0,0
-49,-405,0,0,0,0,0,0,0,0,0,-1,1175,1429,0,0
-42,-405,0,0,0,0,0,0,0,0,0,-1,1182,1429,0,0
-35,-405,0,0,0,0,0,0,0,0,0,-1,1189,1429,0,0
-28,-405,0,0,0,0,0,0,0,0,0,-1,1196,1429,0,0
-21,-405,0,0,0,0,0,0,0,0,0,-1,1203,1429,0,0
-14,-405,0,0,0,0,0,0,0,0,0,-1,1210,1429,0,0
-7,-405,0,0,0,0,0,0,0,0,0,-1,1217,1429,0,0
0,-405,0,0,0,0,0,0,0,0,0,-1,1224,1429,0,0
7,-405,0,0,0,0,0,0,0,0,0,-1,1231,1429,0,0
14,-405,0,0,0,0,0,0,0,0,0,-1,1238,1429,0,0
21,-405,0,0,0,0,0,0,0,0,0,-1,1245,1429,0,0
28,-405,0,0,0,0,0,0,0,0,0,-1,1252,1429,0,0
35,-405,0,0,0,0,0,0,0,0,0,-1,1259,1429,0,0
42,-405,0,0,0,0,0,0,0,0,0,-1,1266,1429,0,0
49,-405,0,0,0,0,0,0,0,0,0,-1,1273,1429,0,0
56,-405,0,0,0,0,0,0,0,0,0,-1,1280,1429,0,0
63,-405,0,0,0,0,0,0,0,0,0,-1,1287,1429,0,0
70,-405,0,0,0,0,0,0,0,0,0,-1,1294,1429,0,0
77,-405,0,0,0,0,0,0,0,0,0,-1,1301,1429,0,0
84,-405,0,0,0,0,0,0,0,0,0,-1,1308,1429,0,0
91,-405,0,0,0,0,0,0,0,0,0,-1,1315,1429,0,0
98,-405,0,0,0,0,0,0,0,0,0,-1,1322,1429,0,0
105,-405,0,0,0,0,0,0,0,0,0,-1,1329,1429,0,0
112,-405,0,0,0,0,0,0,0,0,0,-1,1336,1429,0,0
119,-405,0,0,0,0,0,0,0,0,0,-1,1343,1429,0,0
126,-405,0,0,0,0,0,0,0,0,0,-1,1350,1429,0,0
133,-405,0,0,0,0,0,0,0,0,0,-1,1357,1429,0,0
140,-405,0,0,0,0,0,0,0,0,0,-1,1364,1429,0,0
147,-405,0,0,0,0,0,0,0,0,0,-1,1371,1429,0,0
154,-405,0,0,0,0,0,0,0,0,0,-1,1378,1429,0,0
161,-405,0,0,0,0,0,0,0,0,0,-1,1385,1429,0,0
168,-405,0,0,0,0,0,0,0,0,0,-1,1392,1429,0,0
175,-405,0,0,0,0,0,0,0,0,0,-1,1399,1429,0,0
182,-405,0,0,0,0,0,0,0,0,0,-1,1406,1429,0,0
189,-405,0,0,0,0,0,0,0,0,0,-1,1413,1429,0,0
196,-405,0,0,0,0,0,0,0,0,0,-1,1420,1429,0,0
203,-405,0,0,0,0,0,0,0,0,0,-1,1427,1429,0,0
210,-405,0,0,0,0,0,0,0,0,0,-1,1434,1429,0,0
217,-405,0,0,0,0,0,0,0,0,0,-1,1441,1429,0,0
224,-405,0,0,0,0,0,0,0,0,0,-1,1448,1429,0,0
231,-405,0,0,0,0,0,0,0,0,0,-1,1455,1429,0,0
238,-405,0,0,0,0,0,0,0,0,0,-1,1462,1429,0,0
245,-405,0,0,0,0,0,0,0,0,0,-1,1469,1429,0,0
252,-405,0,0,0,0,0,0,0,0,0,-1,1476,1429,0,0
259,-405,0,0,0,0,0,0,0,0,0,-1,1483,1429,0,0
266,-405,0,0,0,0,0,0,0,0,0,-1,1490,1429,0,0
273,-405,0,0,0,0,0,0,0,0,0,-1,1497,1429,0,0
280,-405,0,0,0,0,0,0,0,0,0,-1,1504,1429,0,0
287,-405,0,0,0,0,0,0,0,0,0,-1,1511,1429,0,0
294,-405,0,0,0,0,0,0,0,0,0,-1,1518,1429,0,0
301,-405,0,0,0,0,0,0,0,0,0,-1,1525,1429,0,0
308,-405,0,0,0,0,0,0,0,0,0,-1,1532,1429,0,0
315,-405,0,0,0,0,0,0,0,0,0,-1,1539,1429,0,0
322,-405,0,0,0,0,0,0,0,0,0,-1,1546,1429,0,0
329,-405,0,0,0,0,0,0,0,0,0,-1,1553,1429,0,0
336,-405,0,0,0,0,0,0,0,0,0,-1,1560,1429,0,0
343,-405,0,0,0,0,0,0,0,0,0,-1,1567,1429,0,0
350,-405,0,0,0,0,0,0,0,0,0,-1,1574,1429,0,0
357,-405,0,0,0,0,0,0,0,0,0,-1,1581,1429,0,0
364,-405,0,0,0,0,0,0,0,0,0,-1,1588,1429,0,0
371,-405,0,0,0,0,0,0,0,0,0,-1,1595,1429,0,0
378,-405,0,0,0,0,0,0,0,0,0,-1,1602,1429,0,0
385,-405,0,0,0,0,0,0,0,0,0,-1,1609,1429,0,0
392,-405,0,0,0,0,0,0,0,0,0,-1,1616,1429,0,0
399,-405,0,0,0,0,0,0,0,0,0,-1,1623,1429,0,0
406,-405,0,0,0,0,0,0,0,0,0,-1,1630,1429,0,0
413,-405,0,0,0,0,0,0,0,0,0,-1,1637,1429,0,0
420,-405,0,0,0,0,0,0,0,0,0,-1,1644,1429,0,0
427,-405,0,0,0,0,0,0,0,0,0,-1,1651,1429,0,0
434,-405,0,0,0,0,0,0,0,0,0,-1,1658,1429,0,0
441,-405,0,0,0,0,0,0,0,0,0,-1,1665,1429,0,0
448,-405,0,0,0,0,0,0,0,0,0,-1,1672,1429,0,0
455,-405,0,0,0,0,0,0,0,0,0,-1,1679,1429,0,0
462,-405,0,0,0,0,0,0,0,0,0,-1,1686,1429,0,0
469,-405,0,0,0,0,0,0,0,0,0,-1,1693,1429,0,0
476,-405,0,0,0,0,0,0,0,0,0,-1,1700,1429,0,0
483,-405,0,0,0,0,0,0,0,0,0,-1,1707,1429,0,0
490,-405,0,0,0,0,0,0,0,0,0,-1,1714,1429,0,0
497,-405,0,0,0,0,0,0,0,0,0,-1,1721,1429,0,0
504,-405,0,0,0,0,0,0,0,0,0,-1,1728,1429,0,0
511,-405,0,0,0,0,0,0,0,0,0,-1,1735,1429,0,0
518,-405,0,0,0,0,0,0,0,0,0,-1,1742,1429,0,0
525,-405,31.1563,-1.40942,0,0,0,0,0,0,0,-1,1749,1429,31.1563,1.40937
532,-405,29.8248,-0.54187,-0.182429,-0.0518188,0.135723,0.0334933,-0.267741,1.00963,0.190642,0.0472348,1756,1429,29.8248,0.541878
539,-405,28.4384,0.320435,-0.169339,-0.0537229,0.128315,0.0292047,-0.252267,0.99704,0.17871,0.0492198,1763,1429,28.4383,-0.320476
546,-405,27.1021,1.15869,-0.154979,-0.0553473,0.120413,0.0251474,-0.235474,0.981533,0.166001,0.0465218,1770,1429,27.102,-1.15872
553,-405,25.6764,2.06506,0,0,0,0,0,0,0,-1,1777,1429,25.6764,-2.06501
560,-405,24.2328,3.2218,-0.130458,-0.0581397,0.107338,0.0189657,-0.207564,0.947865,0.145112,0.0432922,1784,1429,24.2327,-3.22182
567,-405,23.1583,4.31091,-0.118211,-0.0576866,0.0994285,0.0159828,-0.191881,0.933126,0.133567,0.0431977,1791,1429,23.1583,-4.31092
574,-405,21.9927,5.33142,-0.105753,-0.0557607,0.0904766,0.0131092,-0.174623,0.920172,0.121022,0.0436194,1798,1429,21.9927,-5.33147
581,-405,20.7406,6.36755,0,0,0,0,0,0,0,-1,1805,1429,20.7406,-6.36759
588,-405,19.5016,7.62805,-0.0803494,-0.0482461,0.0702502,0.00776298,-0.136359,0.897716,0.0936007,0.0454527,1812,1429,19.5016,-7.628
595,-405,18.4342,8.77954,-0.0672591,-0.041726,0.0594853,0.00634721,-0.115332,0.891103,0.0790889,0.0468921,1819,1429,18.4342,-8.77949
602,-405,16.1757,10.1296,0,0,0,0,0,0,0,-1,1826,1429,16.1756,-10.1296
609,-405,15.8206,9.97302,-0.0423985,-0.0275611,0.0380656,0.00380198,-0.0737616,0.881638,0.0504894,0.0262872,1833,1429,15.8205,-9.97304
616,-405,15.7854,9.73523,-0.0312756,-0.0210601,0.02812,0.00241228,-0.054748,0.875239,0.0373288,0.0112003,1840,1429,15.7854,-9.73526
623,-405,15.7804,9.42883,-0.0212906,-0.0151165,0.0193395,0.00138073,-0.0377878,0.864543,0.0256645,0.00878523,1847,1429,15.7804,-9.42889
630,-405,15.7837,9.13,-0.0123407,-0.00928387,0.0116755,0.000962801,-0.0225874,0.850483,0.0153893,0.00942257,1854,1429,15.7837,-9.12999
637,-405,15.774,8.86096,-0.00609435,-0.00501091,0.00648358,0.000953536,-0.0120588,0.827078,0.00837516,0.010928,1861,1429,15.7741,-8.86096
644,-405,15.7405,8.57568,-0.00219267,-0.00201269,0.00289186,0.000790583,-0.00499594,0.800953,0.00362302,0.0280301,1868,1429,15.7405,-8.57571
651,-405,15.7402,8.29993,4.18381e-05,-0.00037745,0.000953181,0.000808157,-0.00114377,0.677151,0.00113248,0.0291265,1875,1429,15.7403,-8.29989
658,-405,15.7562,8.06689,0.000123992,-0.000253115,0.00133206,0.00128078,-0.0014099,0.71509,0.00155406,0.021413,1882,1429,15.7562,-8.06689
665,-405,15.7814,7.78589,-0.000183425,-0.000207039,0.00198345,0.00178825,-0.00217872,0.782422,0.00229403,0.0184265,1889,1429,15.7814,-7.78589
672,-405,15.797,7.51013,-0.00054653,-0.000261154,0.00277725,0.00237707,-0.00318476,0.811064,0.00322239,0.0229854,1896,1429,15.797,-7.51012
679,-405,15.8224,7.23572,-0.000852718,-0.000447412,0.00366588,0.00302141,-0.00432154,0.813011,0.00426155,0.0213337,1903,1429,15.8224,-7.23569
686,-405,15.6876,6.90295,-0.00110662,-0.000755858,0.00471825,0.00379026,-0.00565274,0.803975,0.00548716,0.0380022,1910,1429,15.6876,-6.90295
693,-405,15.4884,6.67041,0,0,0,0,0,0,0,-1,1917,1429,15.4884,-6.67042
700,-405,9.1958,4.02026,0,0,0,0,0,0,0,-1,1924,1429,9.19579,-4.02025
707,-405,7.40308,3.83191,0,0,0,0,0,0,0,-1,1931,1429,7.40311,-3.83194
714,-405,7.33252,3.47388,0,0,0,0,0,0,0,-1,1938,1429,7.33255,-3.47383
721,-405,9.23523,0.993896,0,0,0,0,0,0,0,-1,1945,1429,9.23523,-0.993884
728,-405,0,0,0,0,0,0,0,0,0,-1,1952,1429,0,0
735,-405,0,0,0,0,0,0,0,0,0,-1,1959,1429,0,0
742,-405,0,0,0,0,0,0,0,0,0,-1,1966,1429,0,0
749,-405,0,0,0,0,0,0,0,0,0,-1,1973,1429,0,0
756,-405,0,0,0,0,0,0,0,0,0,-1,1980,1429,0,0
763,-405,0,0,0,0,0,0,0,0,0,-1,1987,1429,0,0
770,-405,0,0,0,0,0,0,0,0,0,-1,1994,1429,0,0
777,-405,0,0,0,0,0,0,0,0,0,-1,2001,1429,0,0
784,-405,0,0,0,0,0,0,0,0,0,-1,2008,1429,0,0
791,-405,0,0,0,0,0,0,0,0,0,-1,2015,1429,0,0
798,-405,0,0,0,0,0,0,0,0,0,-1,2022,1429,0,0
805,-405,0,0,0,0,0,0,0,0,0,-1,2029,1429,0,0
812,-405,0,0,0,0,0,0,0,0,0,-1,2036,1429,0,0
-700,-412,0,0,0,0,0,0,0,0,0,-1,524,1436,0,0
-693,-412,0,0,0,0,0,0,0,0,0,-1,531,1436,0,0
-686,-412,0,0,0,0,0,0,0,0,0,-1,538,1436,0,0
-679,-412,0,0,0,0,0,0,0,0,0,-1,545,1436,0,0
-672,-412,0,0,0,0,0,0,0,0,0,-1,552,1436,0,0
-665,-412,0,0,0,0,0,0,0,0,0,-1,559,1436,0,0
-658,-412,0,0,0,0,0,0,0,0,0,-1,566,1436,0,0
-651,-412,0,0,0,0,0,0,0,0,0,-1,573,1436,0,0
-644,-412,0,0,0,0,0,0,0,0,0,-1,580,1436,0,0
-637,-412,0,0,0,0,0,0,0,0,0,-1,587,1436,0,0
-630,-412,0,0,0,0,0,0,0,0,0,-1,594,1436,0,0
-623,-412,0,0,0,0,0,0,0,0,0,-1,601,1436,0,0
-616,-412,0,0,0,0,0,0,0,0,0,-1,608,1436,0,0
-609,-412,0,0,0,0,0,0,0,0,0,-1,615,1436,0,0
-602,-412,-3.72766,-3.50012,0,0,0,0,0,0,0,-1,622,1436,-3.72764,3.50017
-595,-412,-10.3706,0.65564,0,0,0,0,0,0,0,-1,629,1436,-10.3706,-0.655672
-588,-412,-8.17957,1.94934,0,0,0,0,0,0,0,-1,636,1436,-8.17956,-1.94939
-581,-412,-6.60065,-0.0554199,0,0,0,0,0,0,0,-1,643,1436,-6.60063,0.0554733
-574,-412,-5.41547,3.68811,0,0,0,0,0,0,0,-1,650,1436,-5.41549,-3.68817
-567,-412,-7.50354,3.65454,0,0,0,0,0,0,0,-1,657,1436,-7.50356,-3.65452
-560,-412,-5.12744,5.24524,0,0,0,0,0,0,0,-1,664,1436,-5.12741,-5.24524
-553,-412,-5.22131,5.42932,-0.00342267,-0.0104016,-0.002736,-0.00247793,-0.0113463,-0.332478,0.00688842,0.0495209,671,1436,-5.22132,-5.42927
-546,-412,-5.44061,5.36841,-0.00297653,-0.00749351,-0.00232744,-0.00199191,-0.00847813,-0.400216,0.00511897,0.0428312,678,1436,-5.44062,-5.36839
-539,-412,-5.63904,5.46252,-0.0022302,-0.00518657,-0.00174526,-0.00142125,-0.00599552,-0.434031,0.00361755,0.0185156,685,1436,-5.63906,-5.46255
-532,-412,-5.6427,5.82556,-0.00141939,-0.00335244,-0.00114891,-0.00088453,-0.0038873,-0.435701,0.00235278,0.0135418,692,1436,-5.64268,-5.8255
-525,-412,-5.63983,6.16882,-0.000562346,-0.00194357,-0.000518059,-0.000389634,-0.00211629,-0.321796,0.00130058,0.0157201,699,1436,-5.63985,-6.16877
-518,-412,-5.62628,6.46936,0.000323508,-0.0010933,-7.35286e-05,0.000327314,-0.0010971,-0.0517123,0.000861488,0.0163064,706,1436,-5.62629,-6.46931
-511,-412,-5.638,6.76855,0.000783736,-0.000784433,-3.18205e-05,0.000784381,-0.000785078,-0.0202804,0.000906128,0.0192952,713,1436,-5.63798,-6.76854
-504,-412,-5.62708,7.08252,0.000590347,-0.00141604,-0.000628054,0.000770728,-0.00159642,-0.279679,0.00139411,0.0188201,720,1436,-5.62709,-7.08253
-497,-412,-5.64337,7.39893,0.0005052,-0.00237258,-0.00136861,0.00105213,-0.00291952,-0.380185,0.00237602,0.0142356,727,1436,-5.64339,-7.39892
-490,-412,-5.65076,7.71057,-9.75722e-05,-0.00479904,-0.0028018,0.00120902,-0.00610563,-0.436359,0.00452756,0.0129038,734,1436,-5.65077,-7.7106
-483,-412,-5.66083,7.97009,-0.00140842,-0.00791019,-0.00498365,0.00129091,-0.0106095,-0.4964,0.00754024,0.00931781,741,1436,-5.66081,-7.97007
-476,-412,-5.57544,8.36328,-0.00349072,-0.0120579,-0.00798926,0.00129088,-0.0168395,-0.539318,0.0116804,0.0179378,748,1436,-5.57543,-8.36322
-469,-412,-5.54248,8.5697,-0.00647122,-0.0175849,-0.0121192,0.00130439,-0.0253605,-0.570443,0.0173581,0.0300969,755,1436,-5.54249,-8.5697
-462,-412,-5.50836,8.57788,-0.0106988,-0.0254805,-0.0178909,0.00126768,-0.037447,-0.589521,0.0253978,0.0382051,762,1436,-5.50835,-8.5779
-455,-412,-6.41547,8.14722,-0.0166799,-0.0359159,-0.0257551,0.00119449,-0.0537903,-0.606697,0.0362649,0.0489127,769,1436,-6.41549,-8.14726
-448,-412,-7.28546,7.86633,0,0,0,0,0,0,0,-1,776,1436,-7.28545,-7.86628
-441,-412,-6.25177,6.89502,0,0,0,0,0,0,0,-1,783,1436,-6.25175,-6.89499
-434,-412,-7.16119,5.89392,0,0,0,0,0,0,0,-1,790,1436,-7.16121,-5.89396
-427,-412,-10.0004,5.15271,0,0,0,0,0,0,0,-1,797,1436,-10.0004,-5.15266
-420,-412,-10.4468,4.9043,0,0,0,0,0,0,0,-1,804,1436,-10.4468,-4.90429
-413,-412,-11.5704,4.97766,0,0,0,0,0,0,0,-1,811,1436,-11.5704,-4.97771
-406,-412,-13.1968,5.70093,0,0,0,0,0,0,0,-1,818,1436,-13.1968,-5.70096
-399,-412,-10.5506,0.771973,0,0,0,0,0,0,0,-1,825,1436,-10.5506,-0.771954
-392,-412,0,0,0,0,0,0,0,0,0,-1,832,1436,0,0
-385,-412,0,0,0,0,0,0,0,0,0,-1,839,1436,0,0
-378,-412,0,0,0,0,0,0,0,0,0,-1,846,1436,0,0
-371,-412,0,0,0,0,0,0,0,0,0,-1,853,1436,0,0
-364,-412,0,0,0,0,0,0,0,0,0,-1,860,1436,0,0
-357,-412,0,0,0,0,0,0,0,0,0,-1,867,1436,0,0
-350,-412,0,0,0,0,0,0,0,0,0,-1,874,1436,0,0
-343,-412,0,0,0,0,0,0,0,0,0,-1,881,1436,0,0
-336,-412,0,0,0,0,0,0,0,0,0,-1,888,1436,0,0
-329,-412,0,0,0,0,0,0,0,0,0,-1,895,1436,0,0
-322,-412,0,0,0,0,0,0,0,0,0,-1,902,1436,0,0
-315,-412,0,0,0,0,0,0,0,0,0,-1,909,1436,0,0
-308,-412,0,0,0,0,0,0,0,0,0,-1,916,1436,0,0
-301,-412,0,0,0,0,0,0,0,0,0,-1,923,1436,0,0
-294,-412,0,0,0,0,0,0,0,0,0,-1,930,1436,0,0
-287,-412,0,0,0,0,0,0,0,0,0,-1,937,1436,0,0
-280,-412,0,0,0,0,0,0,0,0,0,-1,944,1436,0,0
-273,-412,0,0,0,0,0,0,0,0,0,-1,951,1436,0,0
-266,-412,0,0,0,0,0,0,0,0,0,-1,958,1436,0,0
-259,-412,0,0,0,0,0,0,0,0,0,-1,965,1436,0,0
-252,-412,0,0,0,0,0,0,0,0,0,-1,972,1436,0,0
-245,-412,0,0,0,0,0,0,0,0,0,-1,979,1436,0,0
-238,-412,0,0,0,0,0,0,0,0,0,-1,986,1436,0,0
-231,-412,0,0,0,0,0,0,0,0,0,-1,993,1436,0,0
-224,-412,0,0,0,0,0,0,0,0,0,-1,1000,1436,0,0
-217,-412,0,0,0,0,0,0,0,0,0,-1,1007,1436,0,0
-210,-412,0,0,0,0,0,0,0,0,0,-1,1014,1436,0,0
-203,-412,0,0,0,0,0,0,0,0,0,-1,1021,1436,0,0
-196,-412,0,0,0,0,0,0,0,0,0,-1,1028,1436,0,0
-189,-412,0,0,0,0,0,0,0,0,0,-1,1035,1436,0,0
-182,-412,0,0,0,0,0,0,0,0,0,-1,1042,1436,0,0
-175,-412,0,0,0,0,0,0,0,0,0,-1,1049,1436,0,0
-168,-412,0,0,0,0,0,0,0,0,0,-1,1056,1436,0,0
-161,-412,0,0,0,0,0,0,0,0,0,-1,1063,1436,0,0
-154,-412,0,0,0,0,0,0,0,0,0,-1,1070,1436,0,0
-147,-412,0,0,0,0,0,0,0,0,0,-1,1077,1436,0,0
-140,-412,0,0,0,0,0,0,0,0,0,-1,1084,1436,0,0
-133,-412,0,0,0,0,0,0,0,0,0,-1,1091,1436,0,0
-126,-412,0,0,0,0,0,0,0,0,0,-1,1098,1436,0,0
-119,-412,0,0,0,0,0,0,0,0,0,-1,1105,1436,0,0
-112,-412,0,0,0,0,0,0,0,0,0,-1,1112,1436,0,0
-105,-412,0,0,0,0,0,0,0,0,0,-1,1119,1436,0,0
-98,-412,0,0,0,0,0,0,0,0,0,-1,1126,1436,0,0
-91,-412,0,0,0,0,0,0,0,0,0,-1,1133,1436,0,0
-84,-412,0,0,0,0,0,0,0,0,0,-1,1140,1436,0,0
-77,-412,0,0,0,0,0,0,0,0,0,-1,1147,1436,0,0
-70,-412,0,0,0,0,0,0,0,0,0,-1,1154,1436,0,0
-63,-412,0,0,0,0,0,0,0,0,0,-1,1161,1436,0,0
-56,-412,0,0,0,0,0,0,0,0,0,-1,1168,1436,0,0
-49,-412,0,0,0,0,0,0,0,0,0,-1,1175,1436,0,0
-42,-412,0,0,0,0,0,0,0,0,0,-1,1182,1436,0,0
-35,-412,0,0,0,0,0,0,0,0,0,-1,1189,1436,0,0
-28,-412,0,0,0,0,0,0,0,0,0,-1,1196,1436,0,0
-21,-412,0,0,0,0,0,0,0,0,0,-1,1203,1436,0,0
-14,-412,0,0,0,0,0,0,0,0,0,-1,1210,1436,0,0
-7,-412,0,0,0,0,0,0,0,0,0,-1,1217,1436,0,0
0,-412,0,0,0,0,0,0,0,0,0,-1,1224,1436,0,0
7,-412,0,0,0,0,0,0,0,0,0,-1,1231,1436,0,0
14,-412,0,0,0,0,0,0,0,0,0,-1,1238,1436,0,0
21,-412,0,0,0,0,0,0,0,0,0,-1,1245,1436,0,0
28,-412,0,0,0,0,0,0,0,0,0,-1,1252,1436,0,0
35,-412,0,0,0,0,0,0,0,0,0,-1,1259,1436,0,0
42,-412,0,0,0,0,0,0,0,0,0,-1,1266,1436,0,0
49,-412,0,0,0,0,0,0,0,0,0,-1,1273,1436,0,0
56,-412,0,0,0,0,0,0,0,0,0,-1,1280,1436,0,0
63,-412,0,0,0,0,0,0,0,0,0,-1,1287,1436,0,0
70,-412,0,0,0,0,0,0,0,0,0,-1,1294,1436,0,0
77,-412,0,0,0,0,0,0,0,0,0,-1,1301,1436,0,0
84,-412,0,0,0,0,0,0,0,0,0,-1,1308,1436,0,0
91,-412,0,0,0,0,0,0,0,0,0,-1,1315,1436,0,0
98,-412,0,0,0,0,0,0,0,0,0,-1,1322,1436,0,0
105,-412,0,0,0,0,0,0,0,0,0,-1,1329,1436,0,0
112,-412,0,0,0,0,0,0,0,0,0,-1,1336,1436,0,0
119,-412,0,0,0,0,0,0,0,0,0,-1,1343,1436,0,0
126,-412,0,0,0,0,0,0,0,0,0,-1,1350,1436,0,0
133,-412,0,0,0,0,0,0,0,0,0,-1,1357,1436,0,0
140,-412,0,0,0,0,0,0,0,0,0,-1,1364,1436,0,0
147,-412,0,0,0,0,0,0,0,0,0,-1,1371,1436,0,0
154,-412,0,0,0,0,0,0,0,0,0,-1,1378,1436,0,0
161,-412,0,0,0,0,0,0,0,0,0,-1,1385,1436,0,0
168,-412,0,0,0,0,0,0,0,0,0,-1,1392,1436,0,0
175,-412,0,0,0,0,0,0,0,0,0,-1,1399,1436,0,0
182,-412,0,0,0,0,0,0,0,0,0,-1,1406,1436,0,0
189,-412,0,0,0,0,0,0,0,0,0,-1,1413,1436,0,0
196,-412,0,0,0,0,0,0,0,0,0,-1,1420,1436,0,0
203,-412,0,0,0,0,0,0,0,0,0,-1,1427,1436,0,0
210,-412,0,0,0,0,0,0,0,0,0,-1,1434,1436,0,0
217,-412,0,0,0,0,0,0,0,0,0,-1,1441,1436,0,0
224,-412,0,0,0,0,0,0,0,0,0,-1,1448,1436,0,0
231,-412,0,0,0,0,0,0,0,0,0,-1,1455,1436,0,0
238,-412,0,0,0,0,0,0,0,0,0,-1,1462,1436,0,0
245,-412,0,0,0,0,0,0,0,0,0,-1,1469,1436,0,0
252,-412,0,0,0,0,0,0,0,0,0,-1,1476,1436,0,0
259,-412,0,0,0,0,0,0,0,0,0,-1,1483,1436,0,0
266,-412,0,0,0,0,0,0,0,0,0,-1,1490,1436,0,0
273,-412,0,0,0,0,0,0,0,0,0,-1,1497,1436,0,0
280,-412,0,0,0,0,0,0,0,0,0,-1,1504,1436,0,0
287,-412,0,0,0,0,0,0,0,0,0,-1,1511,1436,0,0
294,-412,0,0,0,0,0,0,0,0,0,-1,1518,1436,0,0
301,-412,0,0,0,0,0,0,0,0,0,-1,1525,1436,0,0
308,-412,0,0,0,0,0,0,0,0,0,-1,1532,1436,0,0
315,-412,0,0,0,0,0,0,0,0,0,-1,1539,1436,0,0
322,-412,0,0,0,0,0,0,0,0,0,-1,1546,1436,0,0
329,-412,0,0,0,0,0,0,0,0,0,-1,1553,1436,0,0
336,-412,0,0,0,0,0,0,0,0,0,-1,1560,1436,0,0
343,-412,0,0,0,0,0,0,0,0,0,-1,1567,1436,0,0
350,-412,0,0,0,0,0,0,0,0,0,-1,1574,1436,0,0
357,-412,0,0,0,0,0,0,0,0,0,-1,1581,1436,0,0
364,-412,0,0,0,0,0,0,0,0,0,-1,1588,1436,0,0
371,-412,0,0,0,0,0,0,0,0,0,-1,1595,1436,0,0
378,-412,0,0,0,0,0,0,0,0,0,-1,1602,1436,0,0
385,-412,0,0,0,0,0,0,0,0,0,-1,1609,1436,0,0
392,-412,0,0,0,0,0,0,0,0,0,-1,1616,1436,0,0
399,-412,0,0,0,0,0,0,0,0,0,-1,1623,1436,0,0
406,-412,0,0,0,0,0,0,0,0,0,-1,1630,1436,0,0
413,-412,0,0,0,0,0,0,0,0,0,-1,1637,1436,0,0
420,-412,0,0,0,0,0,0,0,0,0,-1,1644,1436,0,0
427,-412,0,0,0,0,0,0,0,0,0,-1,1651,1436,0,0
434,-412,0,0,0,0,0,0,0,0,0,-1,1658,1436,0,0
441,-412,0,0,0,0,0,0,0,0,0,-1,1665,1436,0,0
448,-412,0,0,0,0,0,0,0,0,0,-1,1672,1436,0,0
455,-412,0,0,0,0,0,0,0,0,0,-1,1679,1436,0,0
462,-412,0,0,0,0,0,0,0,0,0,-1,1686,1436,0,0
469,-412,0,0,0,0,0,0,0,0,0,-1,1693,1436,0,0
476,-412,0,0,0,0,0,0,0,0,0,-1,1700,1436,0,0
483,-412,0,0,0,0,0,0,0,0,0,-1,1707,1436,0,0
490,-412,0,0,0,0,0,0,0,0,0,-1,1714,1436,0,0
497,-412,0,0,0,0,0,0,0,0,0,-1,1721,1436,0,0
504,-412,0,0,0,0,0,0,0,0,0,-1,1728,1436,0,0
511,-412,0,0,0,0,0,0,0,0,0,-1,1735,1436,0,0
518,-412,30.1038,-2.43384,0,0,0,0,0,0,0,-1,1742,1436,30.1038,2.43383
525,-412,29.5283,-1.42493,0,0,0,0,0,0,0,-1,1749,1436,29.5283,1.42495
532,-412,28.8533,-0.386597,-0.172466,-0.0465967,0.128239,0.0333181,-0.25238,1.01351,0.180388,0.0468714,1756,1436,28.8533,0.386632
539,-412,27.4921,0.943481,-0.15846,-0.0476545,0.11971,0.0288519,-0.234967,1.00212,0.167094,0.0479521,1763,1436,27.4921,-0.943425
546,-412,26.0988,1.75745,-0.143695,-0.0487355,0.111069,0.0245766,-0.217007,0.987383,0.153521,0.0448393,1770,1436,26.0988,-1.75742
553,-412,24.7855,2.69873,0,0,0,0,0,0,0,-1,1777,1436,24.7855,-2.69876
560,-412,23.3356,4.03918,0,0,0,0,0,0,0,-1,1784,1436,23.3356,-4.03924
567,-412,22.1183,5.15259,0,0,0,0,0,0,0,-1,1791,1436,22.1182,-5.15259
574,-412,20.8632,5.87646,0,0,0,0,0,0,0,-1,1798,1436,20.8632,-5.87643
581,-412,19.4615,7.02441,0,0,0,0,0,0,0,-1,1805,1436,19.4616,-7.02438
588,-412,17.7756,9.17175,0,0,0,0,0,0,0,-1,1812,1436,17.7756,-9.17175
595,-412,16.8644,9.62,-0.0592576,-0.0357716,0.053311,0.00707437,-0.102104,0.893804,0.0705455,0.045748,1819,1436,16.8644,-9.62002
602,-412,15.7667,10.2161,-0.0470322,-0.0291755,0.0429015,0.00571693,-0.0819245,0.88799,0.0566183,0.028553,1826,1436,15.7667,-10.2161
609,-412,15.5411,10.0082,-0.0361011,-0.0228097,0.0329827,0.00419016,-0.063101,0.884812,0.0435313,0.00952034,1833,1436,15.5411,-10.0082
616,-412,15.5027,9.71033,-0.0260363,-0.017029,0.0237689,0.00265917,-0.0457245,0.879027,0.0314069,0.00791822,1840,1436,15.5027,-9.71033
623,-412,15.4967,9.41992,-0.0173523,-0.0119026,0.0160007,0.00160355,-0.0308585,0.869736,0.0211271,0.00863898,1847,1436,15.4967,-9.41993
630,-412,15.5111,9.13245,-0.00990609,-0.00712833,0.009498,0.0010818,-0.0181162,0.857998,0.0124538,0.010246,1854,1436,15.5112,-9.13243
637,-412,15.5111,8.88953,-0.00508139,-0.00381535,0.0053698,0.000958618,-0.00985536,0.84407,0.00691197,0.0130628,1861,1436,15.511,-8.88957
644,-412,15.5056,8.59253,-0.00209927,-0.00151413,0.00262645,0.000835993,-0.0044494,0.840867,0.00328063,0.0153468,1868,1436,15.5056,-8.59259
651,-412,15.5061,8.24902,-0.000465884,-0.000221651,0.00134827,0.00101002,-0.00169756,0.830561,0.00157993,0.0250154,1875,1436,15.5061,-8.24904
658,-412,15.4908,8.04321,-0.000548544,-7.13261e-05,0.00188104,0.00158617,-0.00220604,0.848486,0.00219917,0.0166445,1882,1436,15.4909,-8.0432
665,-412,15.4916,7.78638,-0.000995841,2.40095e-05,0.00269984,0.00226166,-0.00323349,0.878735,0.00318912,0.0219996,1889,1436,15.4915,-7.78636
672,-412,15.5369,7.50891,-0.00153702,2.47147e-05,0.00372489,0.00304971,-0.00456201,0.888719,0.00442345,0.0272409,1896,1436,15.5369,-7.50896
679,-412,15.5912,7.22827,-0.00206364,-9.80855e-05,0.00490547,0.00392209,-0.00608381,0.884261,0.00582168,0.0364972,1903,1436,15.5912,-7.22822
686,-412,15.5377,6.88867,0,0,0,0,0,0,0,-1,1910,1436,15.5378,-6.88864
693,-412,11.9346,6.02344,0,0,0,0,0,0,0,-1,1917,1436,11.9346,-6.02343
700,-412,8.82764,5.8844,0,0,0,0,0,0,0,-1,1924,1436,8.82761,-5.88444
707,-412,6.59998,1.68994,0,0,0,0,0,0,0,-1,1931,1436,6.60002,-1.68995
714,-412,4.77283,-2.39832,0,0,0,0,0,0,0,-1,1938,1436,4.77288,2.39835
721,-412,0,0,0,0,0,0,0,0,0,-1,1945,1436,0,0
728,-412,0,0,0,0,0,0,0,0,0,-1,1952,1436,0,0
735,-412,0,0,0,0,0,0,0,0,0,-1,1959,1436,0,0
742,-412,0,0,0,0,0,0,0,0,0,-1,1966,1436,0,0
749,-412,0,0,0,0,0,0,0,0,0,-1,1973,1436,0,0
756,-412,0,0,0,0,0,0,0,0,0,-1,1980,1436,0,0
763,-412,0,0,0,0,0,0,0,0,0,-1,1987,1436,0,0
770,-412,0,0,0,0,0,0,0,0,0,-1,1994,1436,0,0
777,-412,0,0,0,0,0,0,0,0,0,-1,2001,1436,0,0
784,-412,0,0,0,0,0,0,0,0,0,-1,2008,1436,0,0
791,-412,0,0,0,0,0,0,0,0,0,-1,2015,1436,0,0
798,-412,0,0,0,0,0,0,0,0,0,-1,2022,1436,0,0
805,-412,0,0,0,0,0,0,0,0,0,-1,2029,1436,0,0
812,-412,0,0,0,0,0,0,0,0,0,-1,2036,1436,0,0
-700,-419,0,0,0,0,0,0,0,0,0,-1,524,1443,0,0
-693,-419,0,0,0,0,0,0,0,0,0,-1,531,1443,0,0
-686,-419,0,0,0,0,0,0,0,0,0,-1,538,1443,0,0
-679,-419,0,0,0,0,0,0,0,0,0,-1,545,1443,0,0
-672,-419,0,0,0,0,0,0,0,0,0,-1,552,1443,0,0
-665,-419,0,0,0,0,0,0,0,0,0,-1,559,1443,0,0
-658,-419,0,0,0,0,0,0,0,0,0,-1,566,1443,0,0
-651,-419,0,0,0,0,0,0,0,0,0,-1,573,1443,0,0
-644,-419,0,0,0,0,0,0,0,0,0,-1,580,1443,0,0
-637,-419,0,0,0,0,0,0,0,0,0,-1,587,1443,0,0
-630,-419,0,0,0,0,0,0,0,0,0,-1,594,1443,0,0
-623,-419,0,0,0,0,0,0,0,0,0,-1,601,1443,0,0
-616,-419,0,0,0,0,0,0,0,0,0,-1,608,1443,0,0
-609,-419,0,0,0,0,0,0,0,0,0,-1,615,1443,0,0
-602,-419,0,0,0,0,0,0,0,0,0,-1,622,1443,0,0
-595,-419,-11.4904,-0.622681,0,0,0,0,0,0,0,-1,629,1443,-11.4903,0.622714
-588,-419,-9.09369,0.742432,0,0,0,0,0,0,0,-1,636,1443,-9.09366,-0.742482
-581,-419,-6.39172,2.14673,0,0,0,0,0,0,0,-1,643,1443,-6.39175,-2.14668
-574,-419,-4.09772,3.54773,0,0,0,0,0,0,0,-1,650,1443,-4.09772,-3.54767
-567,-419,-6.14038,3.22498,0,0,0,0,0,0,0,-1,657,1443,-6.14037,-3.22497
-560,-419,-5.14929,6.03235,0,0,0,0,0,0,0,-1,664,1443,-5.14928,-6.0323
-553,-419,-4.98328,6.07849,-0.00218544,-0.0117994,-0.00158499,-0.00193088,-0.012054,-0.15925,0.00747596,0.0446564,671,1443,-4.98328,-6.07847
-546,-419,-4.96002,5.75269,-0.00196442,-0.00808632,-0.00131533,-0.00169378,-0.00835696,-0.202928,0.00510132,0.0468166,678,1443,-4.96004,-5.75267
-539,-419,-5.16638,5.52759,-0.00139569,-0.00532248,-0.000845441,-0.0012214,-0.00549677,-0.203303,0.00333283,0.037694,685,1443,-5.16638,-5.52753
-532,-419,-5.33099,5.82349,-0.000800229,-0.00327572,-0.000396745,-0.000738198,-0.00333775,-0.155096,0.00202447,0.0172626,692,1443,-5.33102,-5.82348
-525,-419,-5.32422,6.18115,-0.000168616,-0.00179408,4.92649e-05,-0.000167124,-0.00179557,0.0302711,0.00114541,0.0139481,699,1443,-5.32423,-6.18116
-518,-419,-5.30609,6.47791,0.000462765,-0.000914973,0.000327543,0.00053667,-0.000988878,0.22192,0.000893581,0.0172929,706,1443,-5.30609,-6.47785
-511,-419,-5.31232,6.79346,0.000727093,-0.000605284,0.000222319,0.00076321,-0.000641401,0.161049,0.000811968,0.0190839,713,1443,-5.31229,-6.79346
-504,-419,-5.34448,7.09436,0.000471035,-0.00114347,-0.000414974,0.000571449,-0.00124389,-0.237415,0.00107179,0.0190681,720,1443,-5.34451,-7.09434
-497,-419,-5.34686,7.38867,0.000308212,-0.00192975,-0.00117946,0.000815039,-0.00243658,-0.405853,0.00195358,0.0132241,727,1443,-5.34686,-7.38868
-490,-419,-5.33582,7.68933,-0.00025929,-0.00414501,-0.00253244,0.000989712,-0.00539401,-0.458193,0.00396727,0.011046,734,1443,-5.3358,-7.6893
-483,-419,-5.34259,7.98193,-0.00135171,-0.0069248,-0.00453023,0.00118037,-0.00945688,-0.509674,0.00673262,0.00972018,741,1443,-5.34261,-7.98197
-476,-419,-5.33917,8.30676,-0.0030642,-0.0105597,-0.00723688,0.00133779,-0.0149616,-0.546479,0.0104489,0.0104468,748,1443,-5.33918,-8.30677
-469,-419,-5.29395,8.66748,-0.00537885,-0.0152447,-0.010754,0.00151968,-0.0221432,-0.570365,0.0152939,0.0165399,755,1443,-5.29397,-8.66747
-462,-419,-5.24133,8.93372,-0.00842705,-0.0218141,-0.0154686,0.00173417,-0.0319753,-0.581205,0.0219178,0.0308589,762,1443,-5.24131,-8.93367
-455,-419,-5.58374,8.93555,-0.0126653,-0.0303756,-0.0217552,0.00196793,-0.0450088,-0.592119,0.0306829,0.0429574,769,1443,-5.58377,-8.93558
-448,-419,-6.06305,8.53613,0,0,0,0,0,0,0,-1,776,1443,-6.06305,-8.53612
-441,-419,-5.91144,6.87048,0,0,0,0,0,0,0,-1,783,1443,-5.91142,-6.87045
-434,-419,-5.73944,6.37537,0,0,0,0,0,0,0,-1,790,1443,-5.73946,-6.37532
-427,-419,-5.86658,7.24878,0,0,0,0,0,0,0,-1,797,1443,-5.86657,-7.24873
-420,-419,-8.74091,6.36597,0,0,0,0,0,0,0,-1,804,1443,-8.74089,-6.366
-413,-419,-9.88391,6.53955,0,0,0,0,0,0,0,-1,811,1443,-9.8839,-6.53955
-406,-419,-10.3372,2.75195,0,0,0,0,0,0,0,-1,818,1443,-10.3372,-2.75201
-399,-419,-11.5999,1.40002,0,0,0,0,0,0,0,-1,825,1443,-11.5999,-1.39998
-392,-419,0,0,0,0,0,0,0,0,0,-1,832,1443,0,0
-385,-419,0,0,0,0,0,0,0,0,0,-1,839,1443,0,0
-378,-419,0,0,0,0,0,0,0,0,0,-1,846,1443,0,0
-371,-419,0,0,0,0,0,0,0,0,0,-1,853,1443,0,0
-364,-419,0,0,0,0,0,0,0,0,0,-1,860,1443,0,0
-357,-419,0,0,0,0,0,0,0,0,0,-1,867,1443,0,0
-350,-419,0,0,0,0,0,0,0,0,0,-1,874,1443,0,0
-343,-419,0,0,0,0,0,0,0,0,0,-1,881,1443,0,0
-336,-419,0,0,0,0,0,0,0,0,0,-1,888,1443,0,0
-329,-419,0,0,0,0,0,0,0,0,0,-1,895,1443,0,0
-322,-419,0,0,0,0,0,0,0,0,0,-1,902,1443,0,0
-315,-419,0,0,0,0,0,0,0,0,0,-1,909,1443,0,0
-308,-419,0,0,0,0,0,0,0,0,0,-1,916,1443,0,0
-301,-419,0,0,0,0,0,0,0,0,0,-1,923,1443,0,0
-294,-419,0,0,0,0,0,0,0,0,0,-1,930,1443,0,0
-287,-419,0,0,0,0,0,0,0,0,0,-1,937,1443,0,0
-280,-419,0,0,0,0,0,0,0,0,0,-1,944,1443,0,0
-273,-419,0,0,0,0,0,0,0,0,0,-1,951,1443,0,0
-266,-419,0,0,0,0,0,0,0,0,0,-1,958,1443,0,0
-259,-419,0,0,0,0,0,0,0,0,0,-1,965,1443,0,0
-252,-419,0,0,0,0,0,0,0,0,0,-1,972,1443,0,0
-245,-419,0,0,0,0,0,0,0,0,0,-1,979,1443,0,0
-238,-419,0,0,0,0,0,0,0,0,0,-1,986,1443,0,0
-231,-419,0,0,0,0,0,0,0,0,0,-1,993,1443,0,0
-224,-419,0,0,0,0,0,0,0,0,0,-1,1000,1443,0,0
-217,-419,0,0,0,0,0,0,0,0,0,-1,1007,1443,0,0
-210,-419,0,0,0,0,0,0,0,0,0,-1,1014,1443,0,0
-203,-419,0,0,0,0,0,0,0,0,0,-1,1021,1443,0,0
-196,-419,0,0,0,0,0,0,0,0,0,-1,1028,1443,0,0
-189,-419,0,0,0,0,0,0,0,0,0,-1,1035,1443,0,0
-182,-419,0,0,0,0,0,0,0,0,0,-1,1042,1443,0,0
-175,-419,0,0,0,0,0,0,0,0,0,-1,1049,1443,0,0
-168,-419,0,0,0,0,0,0,0,0,0,-1,1056,1443,0,0
-161,-419,0,0,0,0,0,0,0,0,0,-1,1063,1443,0,0
-154,-419,0,0,0,0,0,0,0,0,0,-1,1070,1443,0,0
-147,-419,0,0,0,0,0,0,0,0,0,-1,1077,1443,0,0
-140,-419,0,0,0,0,0,0,0,0,0,-1,1084,1443,0,0
-133,-419,0,0,0,0,0,0,0,0,0,-1,1091,1443,0,0
-126,-419,0,0,0,0,0,0,0,0,0,-1,1098,1443,0,0
-119,-419,0,0,0,0,0,0,0,0,0,-1,1105,1443,0,0
-112,-419,0,0,0,0,0,0,0,0,0,-1,1112,1443,0,0
-105,-419,0,0,0,0,0,0,0,0,0,-1,1119,1443,0,0
-98,-419,0,0,0,0,0,0,0,0,0,-1,1126,1443,0,0
-91,-419,0,0,0,0,0,0,0,0,0,-1,1133,1443,0,0
-84,-419,0,0,0,0,0,0,0,0,0,-1,1140,1443,0,0
-77,-419,0,0,0,0,0,0,0,0,0,-1,1147,1443,0,0
-70,-419,0,0,0,0,0,0,0,0,0,-1,1154,1443,0,0
-63,-419,0,0,0,0,0,0,0,0,0,-1,1161,1443,0,0
-56,-419,0,0,0,0,0,0,0,0,0,-1,1168,1443,0,0
-49,-419,0,0,0,0,0,0,0,0,0,-1,1175,1443,0,0
-42,-419,0,0,0,0,0,0,0,0,0,-1,1182,1443,0,0
-35,-419,0,0,0,0,0,0,0,0,0,-1,1189,1443,0,0
-28,-419,0,0,0,0,0,0,0,0,0,-1,1196,1443,0,0
-21,-419,0,0,0,0,0,0,0,0,0,-1,1203,1443,0,0
-14,-419,0,0,0,0,0,0,0,0,0,-1,1210,1443,0,0
-7,-419,0,0,0,0,0,0,0,0,0,-1,1217,1443,0,0
0,-419,0,0,0,0,0,0,0,0,0,-1,1224,1443,0,0
7,-419,0,0,0,0,0,0,0,0,0,-1,1231,1443,0,0
14,-419,0,0,0,0,0,0,0,0,0,-1,1238,1443,0,0
21,-419,0,0,0,0,0,0,0,0,0,-1,1245,1443,0,0
28,-419,0,0,0,0,0,0,0,0,0,-1,1252,1443,0,0
35,-419,0,0,0,0,0,0,0,0,0,-1,1259,1443,0,0
42,-419,0,0,0,0,0,0,0,0,0,-1,1266,1443,0,0
49,-419,0,0,0,0,0,0,0,0,0,-1,1273,1443,0,0
56,-419,0,0,0,0,0,0,0,0,0,-1,1280,1443,0,0
63,-419,0,0,0,0,0,0,0,0,0,-1,1287,1443,0,0
70,-419,0,0,0,0,0,0,0,0,0,-1,1294,1443,0,0
77,-419,0,0,0,0,0,0,0,0,0,-1,1301,1443,0,0
84,-419,0,0,0,0,0,0,0,0,0,-1,1308,1443,0,0
91,-419,0,0,0,0,0,0,0,0,0,-1,1315,1443,0,0
98,-419,0,0,0,0,0,0,0,0,0,-1,1322,1443,0,0
105,-419,0,0,0,0,0,0,0,0,0,-1,1329,1443,0,0
112,-419,0,0,0,0,0,0,0,0,0,-1,1336,1443,0,0
119,-419,0,0,0,0,0,0,0,0,0,-1,1343,1443,0,0
126,-419,0,0,0,0,0,0,0,0,0,-1,1350,1443,0,0
133,-419,0,0,0,0,0,0,0,0,0,-1,1357,1443,0,0
140,-419,0,0,0,0,0,0,0,0,0,-1,1364,1443,0,0
147,-419,0,0,0,0,0,0,0,0,0,-1,1371,1443,0,0
154,-419,0,0,0,0,0,0,0,0,0,-1,1378,1443,0,0
161,-419,0,0,0,0,0,0,0,0,0,-1,1385,1443,0,0
168,-419,0,0,0,0,0,0,0,0,0,-1,1392,1443,0,0
175,-419,0,0,0,0,0,0,0,0,0,-1,1399,1443,0,0
182,-419,0,0,0,0,0,0,0,0,0,-1,1406,1443,0,0
189,-419,0,0,0,0,0,0,0,0,0,-1,1413,1443,0,0
196,-419,0,0,0,0,0,0,0,0,0,-1,1420,1443,0,0
203,-419,0,0,0,0,0,0,0,0,0,-1,1427,1443,0,0
210,-419,0,0,0,0,0,0,0,0,0,-1,1434,1443,0,0
217,-419,0,0,0,0,0,0,0,0,0,-1,1441,1443,0,0
224,-419,0,0,0,0,0,0,0,0,0,-1,1448,1443,0,0
231,-419,0,0,0,0,0,0,0,0,0,-1,1455,1443,0,0
238,-419,0,0,0,0,0,0,0,0,0,-1,1462,1443,0,0
245,-419,0,0,0,0,0,0,0,0,0,-1,1469,1443,0,0
252,-419,0,0,0,0,0,0,0,0,0,-1,1476,1443,0,0
259,-419,0,0,0,0,0,0,0,0,0,-1,1483,1443,0,0
266,-419,0,0,0,0,0,0,0,0,0,-1,1490,1443,0,0
273,-419,0,0,0,0,0,0,0,0,0,-1,1497,1443,0,0
280,-419,0,0,0,0,0,0,0,0,0,-1,1504,1443,0,0
287,-419,0,0,0,0,0,0,0,0,0,-1,1511,1443,0,0
294,-419,0,0,0,0,0,0,0,0,0,-1,1518,1443,0,0
301,-419,0,0,0,0,0,0,0,0,0,-1,1525,1443,0,0
308,-419,0,0,0,0,0,0,0,0,0,-1,1532,1443,0,0
315,-419,0,0,0,0,0,0,0,0,0,-1,1539,1443,0,0
322,-419,0,0,0,0,0,0,0,0,0,-1,1546,1443,0,0
329,-419,0,0,0,0,0,0,0,0,0,-1,1553,1443,0,0
336,-419,0,0,0,0,0,0,0,0,0,-1,1560,1443,0,0
343,-419,0,0,0,0,0,0,0,0,0,-1,1567,1443,0,0
350,-419,0,0,0,0,0,0,0,0,0,-1,1574,1443,0,0
357,-419,0,0,0,0,0,0,0,0,0,-1,1581,1443,0,0
364,-419,0,0,0,0,0,0,0,0,0,-1,1588,1443,0,0
371,-419,0,0,0,0,0,0,0,0,0,-1,1595,1443,0,0
378,-419,0,0,0,0,0,0,0,0,0,-1,1602,1443,0,0
385,-419,0,0,0,0,0,0,0,0,0,-1,1609,1443,0,0
392,-419,0,0,0,0,0,0,0,0,0,-1,1616,1443,0,0
399,-419,0,0,0,0,0,0,0,0,0,-1,1623,1443,0,0
406,-419,0,0,0,0,0,0,0,0,0,-1,1630,1443,0,0
413,-419,0,0,0,0,0,0,0,0,0,-1,1637,1443,0,0
420,-419,0,0,0,0,0,0,0,0,0,-1,1644,1443,0,0
427,-419,0,0,0,0,0,0,0,0,0,-1,1651,1443,0,0
434,-419,0,0,0,0,0,0,0,0,0,-1,1658,1443,0,0
441,-419,0,0,0,0,0,0,0,0,0,-1,1665,1443,0,0
448,-419,0,0,0,0,0,0,0,0,0,-1,1672,1443,0,0
455,-419,0,0,0,0,0,0,0,0,0,-1,1679,1443,0,0
462,-419,0,0,0,0,0,0,0,0,0,-1,1686,1443,0,0
469,-419,0,0,0,0,0,0,0,0,0,-1,1693,1443,0,0
476,-419,0,0,0,0,0,0,0,0,0,-1,1700,1443,0,0
483,-419,0,0,0,0,0,0,0,0,0,-1,1707,1443,0,0
490,-419,0,0,0,0,0,0,0,0,0,-1,1714,1443,0,0
497,-419,0,0,0,0,0,0,0,0,0,-1,1721,1443,0,0
504,-419,0,0,0,0,0,0,0,0,0,-1,1728,1443,0,0
511,-419,20.3005,3.7959,0,0,0,0,0,0,0,-1,1735,1443,20.3005,-3.79584
518,-419,21.3154,2.03027,0,0,0,0,0,0,0,-1,1742,1443,21.3155,-2.03029
525,-419,28.3439,-1.24475,0,0,0,0,0,0,0,-1,1749,1443,28.3438,1.24471
532,-419,27.5902,-0.272583,0,0,0,0,0,0,0,-1,1756,1443,27.5902,0.272526
539,-419,26.5278,1.60583,0,0,0,0,0,0,0,-1,1763,1443,26.5279,-1.60579
546,-419,24.9509,2.77539,0,0,0,0,0,0,0,-1,1770,1443,24.9509,-2.77537
553,-419,24.118,3.75525,0,0,0,0,0,0,0,-1,1777,1443,24.1181,-3.75526
560,-419,11.8199,8.26343,0,0,0,0,0,0,0,-1,1784,1443,11.82,-8.26341
567,-419,15.7008,5.70764,0,0,0,0,0,0,0,-1,1791,1443,15.7009,-5.70764
574,-419,19.5886,6.46155,0,0,0,0,0,0,0,-1,1798,1443,19.5886,-6.46157
581,-419,18.2771,8.85547,0,0,0,0,0,0,0,-1,1805,1443,18.2771,-8.85546
588,-419,16.2853,10.7152,0,0,0,0,0,0,0,-1,1812,1443,16.2853,-10.7153
595,-419,15.8073,10.4799,-0.0502083,-0.0294349,0.0457254,0.00706863,-0.0867118,0.89708,0.0603023,0.043086,1819,1443,15.8072,-10.4798
602,-419,15.2941,10.296,-0.0389951,-0.0234498,0.036048,0.00565401,-0.0680989,0.891582,0.0473965,0.0162826,1826,1443,15.2941,-10.296
609,-419,15.2322,10.0051,-0.0294168,-0.0179634,0.0271505,0.00405776,-0.051438,0.889337,0.0357215,0.0102873,1833,1443,15.2322,-10.0051
616,-419,15.2008,9.73218,-0.020761,-0.0130568,0.0190444,0.00252121,-0.036339,0.885187,0.0251086,0.0114765,1840,1443,15.2008,-9.73221
623,-419,15.2124,9.45789,-0.0135892,-0.00882252,0.0125388,0.00155741,-0.0239691,0.879316,0.016523,0.00947689,1847,1443,15.2124,-9.45791
630,-419,15.2377,9.17139,-0.00772502,-0.00514202,0.0073328,0.00101215,-0.0138792,0.872567,0.00960796,0.0115532,1854,1443,15.2377,-9.1714
637,-419,15.2278,8.90405,-0.00414681,-0.00262785,0.00423252,0.000912794,-0.00768746,0.874173,0.00545475,0.0131973,1861,1443,15.2278,-8.90402
644,-419,15.2117,8.64246,-0.00195591,-0.000898365,0.00229392,0.000926941,-0.00378122,0.898675,0.00287995,0.0120681,1868,1443,15.2117,-8.6425
651,-419,15.207,8.35339,-0.000945666,1.91836e-05,0.00171154,0.00131499,-0.00224147,0.922767,0.00207642,0.0111937,1875,1443,15.207,-8.35334
658,-419,15.207,8.07239,-0.00124372,0.000182228,0.00246801,0.00203818,-0.00309968,0.926013,0.00298737,0.0125575,1882,1443,15.2071,-8.07241
665,-419,15.2195,7.79297,-0.0018749,0.00032427,0.0035358,0.00292752,-0.00447814,0.936151,0.00430679,0.0194309,1889,1443,15.2195,-7.79298
672,-419,15.269,7.47351,-0.00265795,0.000388975,0.00490322,0.00399996,-0.00626893,0.936023,0.00597679,0.0263156,1896,1443,15.2691,-7.47353
679,-419,15.2487,7.41541,-0.00350233,0.000354777,0.00652715,0.00523233,-0.00837988,0.929044,0.00792874,0.0499273,1903,1443,15.2486,-7.41543
686,-419,15.1753,7.55334,0,0,0,0,0,0,0,-1,1910,1443,15.1753,-7.55329
693,-419,8.76086,5.60535,0,0,0,0,0,0,0,-1,1917,1443,8.76091,-5.6054
700,-419,11.0498,4.85156,0,0,0,0,0,0,0,-1,1924,1443,11.0498,-4.85153
707,-419,9.5752,1.80042,0,0,0,0,0,0,0,-1,1931,1443,9.57523,-1.80037
714,-419,5.77576,-1.25061,0,0,0,0,0,0,0,-1,1938,1443,5.7757,1.25056
721,-419,0,0,0,0,0,0,0,0,0,-1,1945,1443,0,0
728,-419,0,0,0,0,0,0,0,0,0,-1,1952,1443,0,0
735,-419,0,0,0,0,0,0,0,0,0,-1,1959,1443,0,0
742,-419,0,0,0,0,0,0,0,0,0,-1,1966,1443,0,0
749,-419,0,0,0,0,0,0,0,0,0,-1,1973,1443,0,0
756,-419,0,0,0,0,0,0,0,0,0,-1,1980,1443,0,0
763,-419,0,0,0,0,0,0,0,0,0,-1,1987,1443,0,0
770,-419,0,0,0,0,0,0,0,0,0,-1,1994,1443,0,0
777,-419,0,0,0,0,0,0,0,0,0,-1,2001,1443,0,0
784,-419,0,0,0,0,0,0,0,0,0,-1,2008,1443,0,0
791,-419,0,0,0,0,0,0,0,0,0,-1,2015,1443,0,0
798,-419,0,0,0,0,0,0,0,0,0,-1,2022,1443,0,0
805,-419,0,0,0,0,0,0,0,0,0,-1,2029,1443,0,0
812,-419,0,0,0,0,0,0,0,0,0,-1,2036,1443,0,0
-700,-426,0,0,0,0,0,0,0,0,0,-1,524,1450,0,0
-693,-426,0,0,0,0,0,0,0,0,0,-1,531,1450,0,0
-686,-426,0,0,0,0,0,0,0,0,0,-1,538,1450,0,0
-679,-426,0,0,0,0,0,0,0,0,0,-1,545,1450,0,0
-672,-426,0,0,0,0,0,0,0,0,0,-1,552,1450,0,0
-665,-426,0,0,0,0,0,0,0,0,0,-1,559,1450,0,0
-658,-426,0,0,0,0,0,0,0,0,0,-1,566,1450,0,0
-651,-426,0,0,0,0,0,0,0,0,0,-1,573,1450,0,0
-644,-426,0,0,0,0,0,0,0,0,0,-1,580,1450,0,0
-637,-426,0,0,0,0,0,0,0,0,0,-1,587,1450,0,0
-630,-426,0,0,0,0,0,0,0,0,0,-1,594,1450,0,0
-623,-426,0,0,0,0,0,0,0,0,0,-1,601,1450,0,0
-616,-426,0,0,0,0,0,0,0,0,0,-1,608,1450,0,0
-609,-426,0,0,0,0,0,0,0,0,0,-1,615,1450,0,0
-602,-426,0,0,0,0,0,0,0,0,0,-1,622,1450,0,0
-595,-426,0,0,0,0,0,0,0,0,0,-1,629,1450,0,0
-588,-426,-10.184,-0.554321,0,0,0,0,0,0,0,-1,636,1450,-10.184,0.554321
-581,-426,-7.3349,1.48157,0,0,0,0,0,0,0,-1,643,1450,-7.33491,-1.48152
-574,-426,-5.02856,2.89319,0,0,0,0,0,0,0,-1,650,1450,-5.02858,-2.89319
-567,-426,-3.04797,1.72644,0,0,0,0,0,0,0,-1,657,1450,-3.04797,-1.72639
-560,-426,-5.55682,3.44397,0,0,0,0,0,0,0,-1,664,1450,-5.55684,-3.44399
-553,-426,-4.44464,6.51843,0,0,0,0,0,0,0,-1,671,1450,-4.44466,-6.51839
-546,-426,-4.68146,5.25024,0,0,0,0,0,0,0,-1,678,1450,-4.68145,-5.25028
-539,-426,-4.75244,5.60535,0.000292394,-0.00512592,0.00161777,0.000738664,-0.00557219,0.269161,0.00398391,0.0421894,685,1450,-4.75247,-5.60533
-532,-426,-4.94672,5.85815,0.000654478,-0.00292915,0.00167981,0.00131875,-0.00359342,0.376574,0.00293565,0.031215,692,1450,-4.94674,-5.85816
-525,-426,-5.03497,6.13818,0.00102985,-0.0014345,0.00171536,0.00190972,-0.00231436,0.47394,0.0024425,0.0155797,699,1450,-5.03496,-6.13815
-518,-426,-5.00592,6.46985,0.00136999,-0.00057102,0.00162616,0.00229323,-0.00149426,0.516363,0.00220287,0.0156647,706,1450,-5.00592,-6.46991
-511,-426,-5.00446,6.79431,0.00140503,-0.000287438,0.00121954,0.00204318,-0.000925586,0.482089,0.00175404,0.0146787,713,1450,-5.00448,-6.79428
-504,-426,-5.03125,7.10132,0.00103927,-0.000734452,0.000417473,0.00113262,-0.000827798,0.21998,0.0011364,0.0144172,720,1450,-5.03125,-7.10126
-497,-426,-5.02771,7.41003,0.000737478,-0.00137908,-0.000490443,0.000845599,-0.0014872,-0.216985,0.00136372,0.0120704,727,1450,-5.02768,-7.41003
-490,-426,-5.04352,7.71021,0.000131777,-0.00336805,-0.00186961,0.000942649,-0.00417892,-0.409227,0.00314757,0.0125284,734,1450,-5.04353,-7.71023
-483,-426,-5.04669,8.00012,-0.000842601,-0.00580415,-0.00376829,0.00118819,-0.00783494,-0.494294,0.00566108,0.0123353,741,1450,-5.04668,-8.00012
-476,-426,-5.03656,8.32251,-0.00231347,-0.0089376,-0.006254,0.00145135,-0.0127024,-0.541878,0.00899119,0.00992729,748,1450,-5.03658,-8.32254
-469,-426,-5.02728,8.62769,-0.0041547,-0.0128907,-0.00924257,0.00170005,-0.0187454,-0.564656,0.0131005,0.0082586,755,1450,-5.02727,-8.6277
-462,-426,-4.92719,9.00439,-0.00637575,-0.0182845,-0.0130661,0.00202876,-0.026689,-0.571601,0.018506,0.0185426,762,1450,-4.92719,-9.00444
-455,-426,-5.06097,9.08569,-0.00927975,-0.0252497,-0.0180061,0.0024325,-0.0369619,-0.576698,0.0254908,0.0391569,769,1450,-5.06099,-9.08568
-448,-426,-4.94287,8.39319,0,0,0,0,0,0,0,-1,776,1450,-4.9429,-8.39323
-441,-426,-5.17145,7.63757,0,0,0,0,0,0,0,-1,783,1450,-5.17143,-7.63758
-434,-426,-5.04919,7.2854,0,0,0,0,0,0,0,-1,790,1450,-5.0492,-7.2854
-427,-426,-8.29462,8.21924,0,0,0,0,0,0,0,-1,797,1450,-8.29461,-8.21924
-420,-426,-5.00806,7.83728,0,0,0,0,0,0,0,-1,804,1450,-5.00805,-7.83733
-413,-426,-10.1148,5.0415,0,0,0,0,0,0,0,-1,811,1450,-10.1148,-5.04152
-406,-426,-11.4199,3.6438,0,0,0,0,0,0,0,-1,818,1450,-11.4198,-3.64382
-399,-426,-12.7595,2.29004,0,0,0,0,0,0,0,-1,825,1450,-12.7595,-2.29003
-392,-426,-12.4147,0.537354,0,0,0,0,0,0,0,-1,832,1450,-12.4147,-0.53731
-385,-426,0,0,0,0,0,0,0,0,0,-1,839,1450,0,0
-378,-426,0,0,0,0,0,0,0,0,0,-1,846,1450,0,0
-371,-426,0,0,0,0,0,0,0,0,0,-1,853,1450,0,0
-364,-426,0,0,0,0,0,0,0,0,0,-1,860,1450,0,0
-357,-426,0,0,0,0,0,0,0,0,0,-1,867,1450,0,0
-350,-426,0,0,0,0,0,0,0,0,0,-1,874,1450,0,0
-343,-426,0,0,0,0,0,0,0,0,0,-1,881,1450,0,0
-336,-426,0,0,0,0,0,0,0,0,0,-1,888,1450,0,0
-329,-426,0,0,0,0,0,0,0,0,0,-1,895,1450,0,0
-322,-426,0,0,0,0,0,0,0,0,0,-1,902,1450,0,0
-315,-426,0,0,0,0,0,0,0,0,0,-1,909,1450,0,0
-308,-426,0,0,0,0,0,0,0,0,0,-1,916,1450,0,0
-301,-426,0,0,0,0,0,0,0,0,0,-1,923,1450,0,0
-294,-426,0,0,0,0,0,0,0,0,0,-1,930,1450,0,0
-287,-426,0,0,0,0,0,0,0,0,0,-1,937,1450,0,0
-280,-426,0,0,0,0,0,0,0,0,0,-1,944,1450,0,0
-273,-426,0,0,0,0,0,0,0,0,0,-1,951,1450,0,0
-266,-426,0,0,0,0,0,0,0,0,0,-1,958,1450,0,0
-259,-426,0,0,0,0,0,0,0,0,0,-1,965,1450,0,0
-252,-426,0,0,0,0,0,0,0,0,0,-1,972,1450,0,0
-245,-426,0,0,0,0,0,0,0,0,0,-1,979,1450,0,0
-238,-426,0,0,0,0,0,0,0,0,0,-1,986,1450,0,0
-231,-426,0,0,0,0,0,0,0,0,0,-1,993,1450,0,0
-224,-426,0,0,0,0,0,0,0,0,0,-1,1000,1450,0,0
-217,-426,0,0,0,0,0,0,0,0,0,-1,1007,1450,0,0
-210,-426,0,0,0,0,0,0,0,0,0,-1,1014,1450,0,0
-203,-426,0,0,0,0,0,0,0,0,0,-1,1021,1450,0,0
-196,-426,0,0,0,0,0,0,0,0,0,-1,1028,1450,0,0
-189,-426,0,0,0,0,0,0,0,0,0,-1,1035,1450,0,0
-182,-426,0,0,0,0,0,0,0,0,0,-1,1042,1450,0,0
-175,-426,0,0,0,0,0,0,0,0,0,-1,1049,1450,0,0
-168,-426,0,0,0,0,0,0,0,0,0,-1,1056,1450,0,0
-161,-426,0,0,0,0,0,0,0,0,0,-1,1063,1450,0,0
-154,-426,0,0,0,0,0,0,0,0,0,-1,1070,1450,0,0
-147,-426,0,0,0,0,0,0,0,0,0,-1,1077,1450,0,0
-140,-426,0,0,0,0,0,0,0,0,0,-1,1084,1450,0,0
-133,-426,0,0,0,0,0,0,0,0,0,-1,1091,1450,0,0
-126,-426,0,0,0,0,0,0,0,0,0,-1,1098,1450,0,0
-119,-426,0,0,0,0,0,0,0,0,0,-1,1105,1450,0,0
-112,-426,0,0,0,0,0,0,0,0,0,-1,1112,1450,0,0
-105,-426,0,0,0,0,0,0,0,0,0,-1,1119,1450,0,0
-98,-426,0,0,0,0,0,0,0,0,0,-1,1126,1450,0,0
-91,-426,0,0,0,0,0,0,0,0,0,-1,1133,1450,0,0
-84,-426,0,0,0,0,0,0,0,0,0,-1,1140,1450,0,0
-77,-426,0,0,0,0,0,0,0,0,0,-1,1147,1450,0,0
-70,-426,0,0,0,0,0,0,0,0,0,-1,1154,1450,0,0
-63,-426,0,0,0,0,0,0,0,0,0,-1,1161,1450,0,0
-56,-426,0,0,0,0,0,0,0,0,0,-1,1168,1450,0,0
-49,-426,0,0,0,0,0,0,0,0,0,-1,1175,1450,0,0
-42,-426,0,0,0,0,0,0,0,0,0,-1,1182,1450,0,0
-35,-426,0,0,0,0,0,0,0,0,0,-1,1189,1450,0,0
-28,-426,0,0,0,0,0,0,0,0,0,-1,1196,1450,0,0
-21,-426,0,0,0,0,0,0,0,0,0,-1,1203,1450,0,0
-14,-426,0,0,0,0,0,0,0,0,0,-1,1210,1450,0,0
-7,-426,0,0,0,0,0,0,0,0,0,-1,1217,1450,0,0
0,-426,0,0,0,0,0,0,0,0,0,-1,1224,1450,0,0
7,-426,0,0,0,0,0,0,0,0,0,-1,1231,1450,0,0
14,-426,0,0,0,0,0,0,0,0,0,-1,1238,1450,0,0
21,-426,0,0,0,0,0,0,0,0,0,-1,1245,1450,0,0
28,-426,0,0,0,0,0,0,0,0,0,-1,1252,1450,0,0
35,-426,0,0,0,0,0,0,0,0,0,-1,1259,1450,0,0
42,-426,0,0,0,0,0,0,0,0,0,-1,1266,1450,0,0
49,-426,0,0,0,0,0,0,0,0,0,-1,1273,1450,0,0
56,-426,0,0,0,0,0,0,0,0,0,-1,1280,1450,0,0
63,-426,0,0,0,0,0,0,0,0,0,-1,1287,1450,0,0
70,-426,0,0,0,0,0,0,0,0,0,-1,1294,1450,0,0
77,-426,0,0,0,0,0,0,0,0,0,-1,1301,1450,0,0
84,-426,0,0,0,0,0,0,0,0,0,-1,1308,1450,0,0
91,-426,0,0,0,0,0,0,0,0,0,-1,1315,1450,0,0
98,-426,0,0,0,0,0,0,0,0,0,-1,1322,1450,0,0
105,-426,0,0,0,0,0,0,0,0,0,-1,1329,1450,0,0
112,-426,0,0,0,0,0,0,0,0,0,-1,1336,1450,0,0
119,-426,0,0,0,0,0,0,0,0,0,-1,1343,1450,0,0
126,-426,0,0,0,0,0,0,0,0,0,-1,1350,1450,0,0
133,-426,0,0,0,0,0,0,0,0,0,-1,1357,1450,0,0
140,-426,0,0,0,0,0,0,0,0,0,-1,1364,1450,0,0
147,-426,0,0,0,0,0,0,0,0,0,-1,1371,1450,0,0
154,-426,0,0,0,0,0,0,0,0,0,-1,1378,1450,0,0
161,-426,0,0,0,0,0,0,0,0,0,-1,1385,1450,0,0
168,-426,0,0,0,0,0,0,0,0,0,-1,1392,1450,0,0
175,-426,0,0,0,0,0,0,0,0,0,-1,1399,1450,0,0
182,-426,0,0,0,0,0,0,0,0,0,-1,1406,1450,0,0
189,-426,0,0,0,0,0,0,0,0,0,-1,1413,1450,0,0
196,-426,0,0,0,0,0,0,0,0,0,-1,1420,1450,0,0
203,-426,0,0,0,0,0,0,0,0,0,-1,1427,1450,0,0
210,-426,0,0,0,0,0,0,0,0,0,-1,1434,1450,0,0
217,-426,0,0,0,0,0,0,0,0,0,-1,1441,1450,0,0
224,-426,0,0,0,0,0,0,0,0,0,-1,1448,1450,0,0
231,-426,0,0,0,0,0,0,0,0,0,-1,1455,1450,0,0
238,-426,0,0,0,0,0,0,0,0,0,-1,1462,1450,0,0
245,-426,0,0,0,0,0,0,0,0,0,-1,1469,1450,0,0
252,-426,0,0,0,0,0,0,0,0,0,-1,1476,1450,0,0
259,-426,0,0,0,0,0,0,0,0,0,-1,1483,1450,0,0
266,-426,0,0,0,0,0,0,0,0,0,-1,1490,1450,0,0
273,-426,0,0,0,0,0,0,0,0,0,-1,1497,1450,0,0
280,-426,0,0,0,0,0,0,0,0,0,-1,1504,1450,0,0
287,-426,0,0,0,0,0,0,0,0,0,-1,1511,1450,0,0
294,-426,0,0,0,0,0,0,0,0,0,-1,1518,1450,0,0
301,-426,0,0,0,0,0,0,0,0,0,-1,1525,1450,0,0
308,-426,0,0,0,0,0,0,0,0,0,-1,1532,1450,0,0
315,-426,0,0,0,0,0,0,0,0,0,-1,1539,1450,0,0
322,-426,0,0,0,0,0,0,0,0,0,-1,1546,1450,0,0
329,-426,0,0,0,0,0,0,0,0,0,-1,1553,1450,0,0
336,-426,0,0,0,0,0,0,0,0,0,-1,1560,1450,0,0
343,-426,0,0,0,0,0,0,0,0,0,-1,1567,1450,0,0
350,-426,0,0,0,0,0,0,0,0,0,-1,1574,1450,0,0
357,-426,0,0,0,0,0,0,0,0,0,-1,1581,1450,0,0
364,-426,0,0,0,0,0,0,0,0,0,-1,1588,1450,0,0
371,-426,0,0,0,0,0,0,0,0,0,-1,1595,1450,0,0
378,-426,0,0,0,0,0,0,0,0,0,-1,1602,1450,0,0
385,-426,0,0,0,0,0,0,0,0,0,-1,1609,1450,0,0
392,-426,0,0,0,0,0,0,0,0,0,-1,1616,1450,0,0
399,-426,0,0,0,0,0,0,0,0,0,-1,1623,1450,0,0
406,-426,0,0,0,0,0,0,0,0,0,-1,1630,1450,0,0
413,-426,0,0,0,0,0,0,0,0,0,-1,1637,1450,0,0
420,-426,0,0,0,0,0,0,0,0,0,-1,1644,1450,0,0
427,-426,0,0,0,0,0,0,0,0,0,-1,1651,1450,0,0
434,-426,0,0,0,0,0,0,0,0,0,-1,1658,1450,0,0
441,-426,0,0,0,0,0,0,0,0,0,-1,1665,1450,0,0
448,-426,0,0,0,0,0,0,0,0,0,-1,1672,1450,0,0
455,-426,0,0,0,0,0,0,0,0,0,-1,1679,1450,0,0
462,-426,0,0,0,0,0,0,0,0,0,-1,1686,1450,0,0
469,-426,0,0,0,0,0,0,0,0,0,-1,1693,1450,0,0
476,-426,0,0,0,0,0,0,0,0,0,-1,1700,1450,0,0
483,-426,0,0,0,0,0,0,0,0,0,-1,1707,1450,0,0
490,-426,0,0,0,0,0,0,0,0,0,-1,1714,1450,0,0
497,-426,0,0,0,0,0,0,0,0,0,-1,1721,1450,0,0
504,-426,20.6873,3.38367,0,0,0,0,0,0,0,-1,1728,1450,20.6873,-3.38361
511,-426,19.6676,3.53748,0,0,0,0,0,0,0,-1,1735,1450,19.6676,-3.53749
518,-426,18.6853,3.32288,0,0,0,0,0,0,0,-1,1742,1450,18.6853,-3.3229
525,-426,18.9552,2.71033,0,0,0,0,0,0,0,-1,1749,1450,18.9552,-2.71034
532,-426,19.4333,2.70764,0,0,0,0,0,0,0,-1,1756,1450,19.4334,-2.70764
539,-426,25.1482,2.56287,0,0,0,0,0,0,0,-1,1763,1450,25.1482,-2.56286
546,-426,24.1136,3.75659,0,0,0,0,0,0,0,-1,1770,1450,24.1136,-3.7566
553,-426,23.0791,4.95032,0,0,0,0,0,0,0,-1,1777,1450,23.0791,-4.95034
560,-426,13.439,12.0522,0,0,0,0,0,0,0,-1,1784,1450,13.439,-12.0523
567,-426,13.3062,11.5671,0,0,0,0,0,0,0,-1,1791,1450,13.3061,-11.5672
574,-426,13.7202,10.1873,0,0,0,0,0,0,0,-1,1798,1450,13.7203,-10.1873
581,-426,14.3484,9.77771,0,0,0,0,0,0,0,-1,1805,1450,14.3484,-9.7777
588,-426,15.1472,10.9641,0,0,0,0,0,0,0,-1,1812,1450,15.1472,-10.9641
595,-426,15.0496,10.5439,-0.0400288,-0.0235103,0.0372206,0.0063564,-0.0698955,0.894579,0.0488538,0.0287415,1819,1450,15.0495,-10.544
602,-426,14.9626,10.2708,-0.0302083,-0.0182449,0.0285729,0.00496574,-0.053419,0.888582,0.037378,0.0149249,1826,1450,14.9626,-10.2707
609,-426,14.9423,9.98438,-0.0222822,-0.0136935,0.0209992,0.0034459,-0.0394217,0.886258,0.0275018,0.0116122,1833,1450,14.9422,-9.98434
616,-426,14.9277,9.73901,-0.015283,-0.00969513,0.0142728,0.0020546,-0.0270327,0.882052,0.0187443,0.013383,1840,1450,14.9278,-9.73901
623,-426,14.9392,9.46082,-0.00975481,-0.00632291,0.00917671,0.0012969,-0.0173746,0.877826,0.0120387,0.0109678,1847,1450,14.9392,-9.46082
630,-426,14.9594,9.17627,-0.00548422,-0.00358722,0.00530074,0.000849206,-0.00992065,0.87393,0.00691424,0.0114865,1854,1450,14.9593,-9.17627
637,-426,14.9619,8.90112,-0.00305016,-0.00172614,0.00315151,0.000832142,-0.00560844,0.888923,0.00404498,0.0125225,1861,1450,14.9619,-8.90116
644,-426,14.9393,8.63,-0.00163961,-0.000449521,0.00198188,0.00102472,-0.00311385,0.931238,0.00248881,0.0117913,1868,1450,14.9394,-8.63006
651,-426,14.9211,8.35388,-0.00133175,0.000121777,0.00207943,0.00159779,-0.00280776,0.953513,0.00257532,0.0111217,1875,1450,14.9211,-8.35386
658,-426,14.9424,8.0542,-0.00195505,0.000360614,0.0030584,0.00247301,-0.00406744,0.966348,0.00381335,0.0112317,1882,1450,14.9424,-8.0542
665,-426,14.9913,7.71375,-0.00287781,0.000649839,0.00437725,0.00360528,-0.00583324,0.976923,0.00549971,0.0191311,1889,1450,14.9913,-7.71374
672,-426,14.9216,7.41772,-0.00403493,0.000926282,0.00610889,0.00503901,-0.00814765,0.97826,0.00768351,0.0347477,1896,1450,14.9216,-7.41773
679,-426,14.8475,7.4967,0,0,0,0,0,0,0,-1,1903,1450,14.8475,-7.49675
686,-426,13.5326,8.03711,0,0,0,0,0,0,0,-1,1910,1450,13.5326,-8.03717
693,-426,11.8607,6.45215,0,0,0,0,0,0,0,-1,1917,1450,11.8607,-6.45215
700,-426,9.24304,2.95447,0,0,0,0,0,0,0,-1,1924,1450,9.24305,-2.95442
707,-426,8.44519,-1.21448,0,0,0,0,0,0,0,-1,1931,1450,8.44514,1.21454
714,-426,0,0,0,0,0,0,0,0,0,-1,1938,1450,0,0
721,-426,0,0,0,0,0,0,0,0,0,-1,1945,1450,0,0
728,-426,0,0,0,0,0,0,0,0,0,-1,1952,1450,0,0
735,-426,0,0,0,0,0,0,0,0,0,-1,1959,1450,0,0
742,-426,0,0,0,0,0,0,0,0,0,-1,1966,1450,0,0
749,-426,0,0,0,0,0,0,0,0,0,-1,1973,1450,0,0
756,-426,0,0,0,0,0,0,0,0,0,-1,1980,1450,0,0
763,-426,0,0,0,0,0,0,0,0,0,-1,1987,1450,0,0
770,-426,0,0,0,0,0,0,0,0,0,-1,1994,1450,0,0
777,-426,0,0,0,0,0,0,0,0,0,-1,2001,1450,0,0
784,-426,0,0,0,0,0,0,0,0,0,-1,2008,1450,0,0
791,-426,0,0,0,0,0,0,0,0,0,-1,2015,1450,0,0
798,-426,0,0,0,0,0,0,0,0,0,-1,2022,1450,0,0
805,-426,0,0,0,0,0,0,0,0,0,-1,2029,1450,0,0
812,-426,0,0,0,0,0,0,0,0,0,-1,2036,1450,0,0
-700,-433,0,0,0,0,0,0,0,0,0,-1,524,1457,0,0
-693,-433,0,0,0,0,0,0,0,0,0,-1,531,1457,0,0
-686,-433,0,0,0,0,0,0,0,0,0,-1,538,1457,0,0
-679,-433,0,0,0,0,0,0,0,0,0,-1,545,1457,0,0
-672,-433,0,0,0,0,0,0,0,0,0,-1,552,1457,0,0
-665,-433,0,0,0,0,0,0,0,0,0,-1,559,1457,0,0
-658,-433,0,0,0,0,0,0,0,0,0,-1,566,1457,0,0
-651,-433,0,0,0,0,0,0,0,0,0,-1,573,1457,0,0
-644,-433,0,0,0,0,0,0,0,0,0,-1,580,1457,0,0
-637,-433,0,0,0,0,0,0,0,0,0,-1,587,1457,0,0
-630,-433,0,0,0,0,0,0,0,0,0,-1,594,1457,0,0
-623,-433,0,0,0,0,0,0,0,0,0,-1,601,1457,0,0
-616,-433,0,0,0,0,0,0,0,0,0,-1,608,1457,0,0
-609,-433,0,0,0,0,0,0,0,0,0,-1,615,1457,0,0
-602,-433,0,0,0,0,0,0,0,0,0,-1,622,1457,0,0
-595,-433,0,0,0,0,0,0,0,0,0,-1,629,1457,0,0
-588,-433,-10.3756,-0.467041,0,0,0,0,0,0,0,-1,636,1457,-10.3756,0.467081
-581,-433,-8.12201,0.884033,0,0,0,0,0,0,0,-1,643,1457,-8.12204,-0.884056
-574,-433,-5.86847,2.23523,0,0,0,0,0,0,0,-1,650,1457,-5.86844,-2.23519
-567,-433,-5.42255,1.16833,0,0,0,0,0,0,0,-1,657,1457,-5.42254,-1.1683
-560,-433,-6.84027,1.86414,0,0,0,0,0,0,0,-1,664,1457,-6.84026,-1.86412
-553,-433,-5.74017,1.79163,0,0,0,0,0,0,0,-1,671,1457,-5.74015,-1.79166
-546,-433,-4.54755,5.19861,0,0,0,0,0,0,0,-1,678,1457,-4.54757,-5.19857
-539,-433,-4.58179,5.61877,0.00392934,-0.0043492,0.00567115,0.00681114,-0.00723101,0.470148,0.00810845,0.047938,685,1457,-4.58181,-5.61873
-532,-433,-4.56372,5.92944,0.0036676,-0.00209521,0.00507412,0.00662136,-0.00504897,0.527171,0.00675822,0.0365015,692,1457,-4.56372,-5.92949
-525,-433,-4.6745,6.18762,0.00345182,-0.000699223,0.0044689,0.00630366,-0.00355106,0.568001,0.00576313,0.0236506,699,1457,-4.67447,-6.18765
-518,-433,-4.68774,6.47327,0.00321768,6.06057e-05,0.00377997,0.00573548,-0.00245719,0.587603,0.00485463,0.0161986,706,1457,-4.68773,-6.47329
-511,-433,-4.69464,6.80396,0.00280979,0.0002474,0.00288236,0.00468287,-0.00162568,0.576265,0.00378212,0.0159669,713,1457,-4.69466,-6.80396
-504,-433,-4.70514,7.11938,0.00216313,-0.000170367,0.00176286,0.00311038,-0.00111761,0.493067,0.0025298,0.0124162,720,1457,-4.70512,-7.11944
-497,-433,-4.71759,7.40381,0.00158467,-0.000749338,0.00059919,0.00172951,-0.000894175,0.237172,0.00154016,0.0131067,727,1457,-4.71758,-7.40378
-490,-433,-4.74994,7.7019,0.000822614,-0.00254347,-0.000896278,0.00104639,-0.00276724,-0.244668,0.00227529,0.0161687,734,1457,-4.74991,-7.70184
-483,-433,-4.74646,8.02881,-0.000151535,-0.00468047,-0.00276586,0.0011586,-0.0059906,-0.442372,0.00443072,0.0170437,741,1457,-4.74645,-8.02883
-476,-433,-4.724,8.3396,-0.00149802,-0.00738375,-0.00508767,0.0014366,-0.0103184,-0.523194,0.00740438,0.0112403,748,1457,-4.724,-8.33964
-469,-433,-4.71832,8.64661,-0.00299837,-0.0107361,-0.00766701,0.0017206,-0.0154551,-0.551732,0.0109222,0.0105269,755,1457,-4.7183,-8.64656
-462,-433,-4.73389,8.95129,-0.00459217,-0.015112,-0.0107537,0.00211904,-0.0218232,-0.557942,0.0153041,0.0099608,762,1457,-4.73389,-8.95133
-455,-433,-4.57666,9.34558,-0.00660305,-0.0206653,-0.0146436,0.00260993,-0.0298783,-0.561577,0.0208434,0.0288722,769,1457,-4.57668,-9.34553
-448,-433,-4.62714,9,-0.00913138,-0.0276294,-0.0195929,0.0032859,-0.0400466,-0.564876,0.0278577,0.0427753,776,1457,-4.62713,-9.00004
-441,-433,-4.48584,8.47815,-0.0124742,-0.0361478,-0.0258096,0.00408346,-0.0527054,-0.570399,0.0365742,0.0471553,783,1457,-4.48586,-8.4782
-434,-433,-4.20837,8.15466,0,0,0,0,0,0,0,-1,790,1457,-4.2084,-8.1546
-427,-433,-3.87988,8.02539,0,0,0,0,0,0,0,-1,797,1457,-3.87986,-8.02541
-420,-433,-7.66504,8.89319,0,0,0,0,0,0,0,-1,804,1457,-7.66506,-8.89324
-413,-433,-3.63074,5.5813,0,0,0,0,0,0,0,-1,811,1457,-3.63072,-5.58129
-406,-433,-12.3472,4.69373,0,0,0,0,0,0,0,-1,818,1457,-12.3472,-4.69374
-399,-433,-12.055,2.83594,0,0,0,0,0,0,0,-1,825,1457,-12.055,-2.83594
-392,-433,-12.9772,1.6228,0,0,0,0,0,0,0,-1,832,1457,-12.9772,-1.62282
-385,-433,-13.7999,0.514771,0,0,0,0,0,0,0,-1,839,1457,-13.7999,-0.514788
-378,-433,0,0,0,0,0,0,0,0,0,-1,846,1457,0,0
-371,-433,0,0,0,0,0,0,0,0,0,-1,853,1457,0,0
-364,-433,0,0,0,0,0,0,0,0,0,-1,860,1457,0,0
-357,-433,0,0,0,0,0,0,0,0,0,-1,867,1457,0,0
-350,-433,0,0,0,0,0,0,0,0,0,-1,874,1457,0,0
-343,-433,0,0,0,0,0,0,0,0,0,-1,881,1457,0,0
-336,-433,0,0,0,0,0,0,0,0,0,-1,888,1457,0,0
-329,-433,0,0,0,0,0,0,0,0,0,-1,895,1457,0,0
-322,-433,0,0,0,0,0,0,0,0,0,-1,902,1457,0,0
-315,-433,0,0,0,0,0,0,0,0,0,-1,909,1457,0,0
-308,-433,0,0,0,0,0,0,0,0,0,-1,916,1457,0,0
-301,-433,0,0,0,0,0,0,0,0,0,-1,923,1457,0,0
-294,-433,0,0,0,0,0,0,0,0,0,-1,930,1457,0,0
-287,-433,0,0,0,0,0,0,0,0,0,-1,937,1457,0,0
-280,-433,0,0,0,0,0,0,0,0,0,-1,944,1457,0,0
-273,-433,0,0,0,0,0,0,0,0,0,-1,951,1457,0,0
-266,-433,0,0,0,0,0,0,0,0,0,-1,958,1457,0,0
-259,-433,0,0,0,0,0,0,0,0,0,-1,965,1457,0,0
-252,-433,0,0,0,0,0,0,0,0,0,-1,972,1457,0,0
-245,-433,0,0,0,0,0,0,0,0,0,-1,979,1457,0,0
-238,-433,0,0,0,0,0,0,0,0,0,-1,986,1457,0,0
-231,-433,0,0,0,0,0,0,0,0,0,-1,993,1457,0,0
-224,-433,0,0,0,0,0,0,0,0,0,-1,1000,1457,0,0
-217,-433,0,0,0,0,0,0,0,0,0,-1,1007,1457,0,0
-210,-433,0,0,0,0,0,0,0,0,0,-1,1014,1457,0,0
-203,-433,0,0,0,0,0,0,0,0,0,-1,1021,1457,0,0
-196,-433,0,0,0,0,0,0,0,0,0,-1,1028,1457,0,0
-189,-433,0,0,0,0,0,0,0,0,0,-1,1035,1457,0,0
-182,-433,0,0,0,0,0,0,0,0,0,-1,1042,1457,0,0
-175,-433,0,0,0,0,0,0,0,0,0,-1,1049,1457,0,0
-168,-433,0,0,0,0,0,0,0,0,0,-1,1056,1457,0,0
-161,-433,0,0,0,0,0,0,0,0,0,-1,1063,1457,0,0
-154,-433,0,0,0,0,0,0,0,0,0,-1,1070,1457,0,0
-147,-433,0,0,0,0,0,0,0,0,0,-1,1077,1457,0,0
-140,-433,0,0,0,0,0,0,0,0,0,-1,1084,1457,0,0
-133,-433,0,0,0,0,0,0,0,0,0,-1,1091,1457,0,0
-126,-433,0,0,0,0,0,0,0,0,0,-1,1098,1457,0,0
-119,-433,0,0,0,0,0,0,0,0,0,-1,1105,1457,0,0
-112,-433,0,0,0,0,0,0,0,0,0,-1,1112,1457,0,0
-105,-433,0,0,0,0,0,0,0,0,0,-1,1119,1457,0,0
-98,-433,0,0,0,0,0,0,0,0,0,-1,1126,1457,0,0
-91,-433,0,0,0,0,0,0,0,0,0,-1,1133,1457,0,0
-84,-433,0,0,0,0,0,0,0,0,0,-1,1140,1457,0,0
-77,-433,0,0,0,0,0,0,0,0,0,-1,1147,1457,0,0
-70,-433,0,0,0,0,0,0,0,0,0,-1,1154,1457,0,0
-63,-433,0,0,0,0,0,0,0,0,0,-1,1161,1457,0,0
-56,-433,0,0,0,0,0,0,0,0,0,-1,1168,1457,0,0
-49,-433,0,0,0,0,0,0,0,0,0,-1,1175,1457,0,0
-42,-433,0,0,0,0,0,0,0,0,0,-1,1182,1457,0,0
-35,-433,0,0,0,0,0,0,0,0,0,-1,1189,1457,0,0
-28,-433,0,0,0,0,0,0,0,0,0,-1,1196,1457,0,0
-21,-433,0,0,0,0,0,0,0,0,0,-1,1203,1457,0,0
-14,-433,0,0,0,0,0,0,0,0,0,-1,1210,1457,0,0
-7,-433,0,0,0,0,0,0,0,0,0,-1,1217,1457,0,0
0,-433,0,0,0,0,0,0,0,0,0,-1,1224,1457,0,0
7,-433,0,0,0,0,0,0,0,0,0,-1,1231,1457,0,0
14,-433,0,0,0,0,0,0,0,0,0,-1,1238,1457,0,0
21,-433,0,0,0,0,0,0,0,0,0,-1,1245,1457,0,0
28,-433,0,0,0,0,0,0,0,0,0,-1,1252,1457,0,0
35,-433,0,0,0,0,0,0,0,0,0,-1,1259,1457,0,0
42,-433,0,0,0,0,0,0,0,0,0,-1,1266,1457,0,0
49,-433,0,0,0,0,0,0,0,0,0,-1,1273,1457,0,0
56,-433,0,0,0,0,0,0,0,0,0,-1,1280,1457,0,0
63,-433,0,0,0,0,0,0,0,0,0,-1,1287,1457,0,0
70,-433,0,0,0,0,0,0,0,0,0,-1,1294,1457,0,0
77,-433,0,0,0,0,0,0,0,0,0,-1,1301,1457,0,0
84,-433,0,0,0,0,0,0,0,0,0,-1,1308,1457,0,0
91,-433,0,0,0,0,0,0,0,0,0,-1,1315,1457,0,0
98,-433,0,0,0,0,0,0,0,0,0,-1,1322,1457,0,0
105,-433,0,0,0,0,0,0,0,0,0,-1,1329,1457,0,0
112,-433,0,0,0,0,0,0,0,0,0,-1,1336,1457,0,0
119,-433,0,0,0,0,0,0,0,0,0,-1,1343,1457,0,0
126,-433,0,0,0,0,0,0,0,0,0,-1,1350,1457,0,0
133,-433,0,0,0,0,0,0,0,0,0,-1,1357,1457,0,0
140,-433,0,0,0,0,0,0,0,0,0,-1,1364,1457,0,0
147,-433,0,0,0,0,0,0,0,0,0,-1,1371,1457,0,0
154,-433,0,0,0,0,0,0,0,0,0,-1,1378,1457,0,0
161,-433,0,0,0,0,0,0,0,0,0,-1,1385,1457,0,0
168,-433,0,0,0,0,0,0,0,0,0,-1,1392,1457,0,0
175,-433,0,0,0,0,0,0,0,0,0,-1,1399,1457,0,0
182,-433,0,0,0,0,0,0,0,0,0,-1,1406,1457,0,0
189,-433,0,0,0,0,0,0,0,0,0,-1,1413,1457,0,0
196,-433,0,0,0,0,0,0,0,0,0,-1,1420,1457,0,0
203,-433,0,0,0,0,0,0,0,0,0,-1,1427,1457,0,0
210,-433,0,0,0,0,0,0,0,0,0,-1,1434,1457,0,0
217,-433,0,0,0,0,0,0,0,0,0,-1,1441,1457,0,0
224,-433,0,0,0,0,0,0,0,0,0,-1,1448,1457,0,0
231,-433,0,0,0,0,0,0,0,0,0,-1,1455,1457,0,0
238,-433,0,0,0,0,0,0,0,0,0,-1,1462,1457,0,0
245,-433,0,0,0,0,0,0,0,0,0,-1,1469,1457,0,0
252,-433,0,0,0,0,0,0,0,0,0,-1,1476,1457,0,0
259,-433,0,0,0,0,0,0,0,0,0,-1,1483,1457,0,0
266,-433,0,0,0,0,0,0,0,0,0,-1,1490,1457,0,0
273,-433,0,0,0,0,0,0,0,0,0,-1,1497,1457,0,0
280,-433,0,0,0,0,0,0,0,0,0,-1,1504,1457,0,0
287,-433,0,0,0,0,0,0,0,0,0,-1,1511,1457,0,0
294,-433,0,0,0,0,0,0,0,0,0,-1,1518,1457,0,0
301,-433,0,0,0,0,0,0,0,0,0,-1,1525,1457,0,0
308,-433,0,0,0,0,0,0,0,0,0,-1,1532,1457,0,0
315,-433,0,0,0,0,0,0,0,0,0,-1,1539,1457,0,0
322,-433,0,0,0,0,0,0,0,0,0,-1,1546,1457,0,0
329,-433,0,0,0,0,0,0,0,0,0,-1,1553,1457,0,0
336,-433,0,0,0,0,0,0,0,0,0,-1,1560,1457,0,0
343,-433,0,0,0,0,0,0,0,0,0,-1,1567,1457,0,0
350,-433,0,0,0,0,0,0,0,0,0,-1,1574,1457,0,0
357,-433,0,0,0,0,0,0,0,0,0,-1,1581,1457,0,0
364,-433,0,0,0,0,0,0,0,0,0,-1,1588,1457,0,0
371,-433,0,0,0,0,0,0,0,0,0,-1,1595,1457,0,0
378,-433,0,0,0,0,0,0,0,0,0,-1,1602,1457,0,0
385,-433,0,0,0,0,0,0,0,0,0,-1,1609,1457,0,0
392,-433,0,0,0,0,0,0,0,0,0,-1,1616,1457,0,0
399,-433,0,0,0,0,0,0,0,0,0,-1,1623,1457,0,0
406,-433,0,0,0,0,0,0,0,0,0,-1,1630,1457,0,0
413,-433,0,0,0,0,0,0,0,0,0,-1,1637,1457,0,0
420,-433,0,0,0,0,0,0,0,0,0,-1,1644,1457,0,0
427,-433,0,0,0,0,0,0,0,0,0,-1,1651,1457,0,0
434,-433,0,0,0,0,0,0,0,0,0,-1,1658,1457,0,0
441,-433,0,0,0,0,0,0,0,0,0,-1,1665,1457,0,0
448,-433,0,0,0,0,0,0,0,0,0,-1,1672,1457,0,0
455,-433,0,0,0,0,0,0,0,0,0,-1,1679,1457,0,0
462,-433,0,0,0,0,0,0,0,0,0,-1,1686,1457,0,0
469,-433,0,0,0,0,0,0,0,0,0,-1,1693,1457,0,0
476,-433,0,0,0,0,0,0,0,0,0,-1,1700,1457,0,0
483,-433,0,0,0,0,0,0,0,0,0,-1,1707,1457,0,0
490,-433,0,0,0,0,0,0,0,0,0,-1,1714,1457,0,0
497,-433,0,0,0,0,0,0,0,0,0,-1,1721,1457,0,0
504,-433,19.9058,3.03662,0,0,0,0,0,0,0,-1,1728,1457,19.9058,-3.03656
511,-433,19.0145,3.07837,0,0,0,0,0,0,0,-1,1735,1457,19.0146,-3.07834
518,-433,18.071,3.06433,0,0,0,0,0,0,0,-1,1742,1457,18.071,-3.06432
525,-433,17.2048,3.37085,0,0,0,0,0,0,0,-1,1749,1457,17.2049,-3.37083
532,-433,16.5637,3.36646,0,0,0,0,0,0,0,-1,1756,1457,16.5637,-3.36643
539,-433,15.9193,3.30396,0,0,0,0,0,0,0,-1,1763,1457,15.9193,-3.30394
546,-433,23.1903,4.81775,0,0,0,0,0,0,0,-1,1770,1457,23.1903,-4.81775
553,-433,14.2043,9.60327,0,0,0,0,0,0,0,-1,1777,1457,14.2043,-9.60327
560,-433,14.0828,11.8798,0,0,0,0,0,0,0,-1,1784,1457,14.0827,-11.8797
567,-433,13.9053,11.3655,0,0,0,0,0,0,0,-1,1791,1457,13.9052,-11.3654
574,-433,13.9436,10.625,0,0,0,0,0,0,0,-1,1798,1457,13.9437,-10.625
581,-433,14.4679,10.8927,0,0,0,0,0,0,0,-1,1805,1457,14.4679,-10.8927
588,-433,14.7887,10.5963,-0.0395052,-0.022738,0.0361584,0.00599599,-0.0682392,0.899314,0.0476175,0.044963,1812,1457,14.7887,-10.5964
595,-433,14.6611,10.5751,-0.0303503,-0.0180822,0.0283683,0.00480763,-0.0532401,0.891874,0.0371997,0.0241689,1819,1457,14.6612,-10.575
602,-433,14.6758,10.2782,-0.0222762,-0.0137038,0.0212319,0.00367022,-0.0396502,0.884997,0.0277379,0.0191374,1826,1457,14.6758,-10.2782
609,-433,14.6912,9.98132,-0.0161041,-0.0101458,0.0153208,0.00248279,-0.0287327,0.881426,0.0200341,0.0152334,1833,1457,14.6912,-9.98128
616,-433,14.6976,9.75183,-0.0107489,-0.00707318,0.0101721,0.00142575,-0.0192479,0.874773,0.0133326,0.012942,1840,1457,14.6976,-9.75183
623,-433,14.671,9.44531,-0.00669034,-0.0045024,0.0064894,0.000984595,-0.0121773,0.868902,0.00846552,0.0100439,1847,1457,14.671,-9.44526
630,-433,14.6603,9.16663,-0.00369488,-0.00255305,0.00382153,0.000739969,-0.0069879,0.859547,0.00492383,0.0125492,1854,1457,14.6603,-9.16666
637,-433,14.6768,8.89233,-0.0020646,-0.00119607,0.00241806,0.000826409,-0.00408708,0.874248,0.00303789,0.0130261,1861,1457,14.6768,-8.89235
644,-433,14.6788,8.61389,-0.00124285,-0.000276481,0.00186493,0.00116684,-0.00268617,0.912155,0.00228146,0.0140459,1868,1457,14.6788,-8.61388
651,-433,14.6627,8.33594,-0.00158562,-7.81366e-06,0.00257448,0.00189593,-0.00348936,0.934072,0.00315424,0.0112701,1875,1457,14.6628,-8.33588
658,-433,14.6566,8.03247,-0.00259648,0.0003413,0.00379965,0.00294611,-0.00520129,0.969843,0.00476359,0.0155127,1882,1457,14.6566,-8.03245
665,-433,14.5782,7.73218,-0.00388497,0.000851794,0.00539877,0.00437884,-0.00741201,0.992102,0.00688212,0.0242826,1889,1457,14.5783,-7.73214
672,-433,14.6882,7.9165,-0.0055165,0.001476,0.00754035,0.00629122,-0.0103317,1.00248,0.00969131,0.0441757,1896,1457,14.6882,-7.91655
679,-433,14.7113,8.13196,0,0,0,0,0,0,0,-1,1903,1457,14.7113,-8.13196
686,-433,13.6356,8.61694,0,0,0,0,0,0,0,-1,1910,1457,13.6356,-8.61694
693,-433,13.4081,8.39624,0,0,0,0,0,0,0,-1,1917,1457,13.4081,-8.39624
700,-433,7.16809,-1.5166,0,0,0,0,0,0,0,-1,1924,1457,7.16806,1.51656
707,-433,8.68359,-2.82202,0,0,0,0,0,0,0,-1,1931,1457,8.68359,2.82197
714,-433,0,0,0,0,0,0,0,0,0,-1,1938,1457,0,0
721,-433,0,0,0,0,0,0,0,0,0,-1,1945,1457,0,0
728,-433,0,0,0,0,0,0,0,0,0,-1,1952,1457,0,0
735,-433,0,0,0,0,0,0,0,0,0,-1,1959,1457,0,0
742,-433,0,0,0,0,0,0,0,0,0,-1,1966,1457,0,0
749,-433,0,0,0,0,0,0,0,0,0,-1,1973,1457,0,0
756,-433,0,0,0,0,0,0,0,0,0,-1,1980,1457,0,0
763,-433,0,0,0,0,0,0,0,0,0,-1,1987,1457,0,0
770,-433,0,0,0,0,0,0,0,0,0,-1,1994,1457,0,0
777,-433,0,0,0,0,0,0,0,0,0,-1,2001,1457,0,0
784,-433,0,0,0,0,0,0,0,0,0,-1,2008,1457,0,0
791,-433,0,0,0,0,0,0,0,0,0,-1,2015,1457,0,0
798,-433,0,0,0,0,0,0,0,0,0,-1,2022,1457,0,0
805,-433,0,0,0,0,0,0,0,0,0,-1,2029,1457,0,0
812,-433,0,0,0,0,0,0,0,0,0,-1,2036,1457,0,0
-700,-440,0,0,0,0,0,0,0,0,0,-1,524,1464,0,0
-693,-440,0,0,0,0,0,0,0,0,0,-1,531,1464,0,0
-686,-440,0,0,0,0,0,0,0,0,0,-1,538,1464,0,0
-679,-440,0,0,0,0,0,0,0,0,0,-1,545,1464,0,0
-672,-440,0,0,0,0,0,0,0,0,0,-1,552,1464,0,0
-665,-440,0,0,0,0,0,0,0,0,0,-1,559,1464,0,0
-658,-440,0,0,0,0,0,0,0,0,0,-1,566,1464,0,0
-651,-440,0,0,0,0,0,0,0,0,0,-1,573,1464,0,0
-644,-440,0,0,0,0,0,0,0,0,0,-1,580,1464,0,0
-637,-440,0,0,0,0,0,0,0,0,0,-1,587,1464,0,0
-630,-440,0,0,0,0,0,0,0,0,0,-1,594,1464,0,0
-623,-440,0,0,0,0,0,0,0,0,0,-1,601,1464,0,0
-616,-440,0,0,0,0,0,0,0,0,0,-1,608,1464,0,0
-609,-440,0,0,0,0,0,0,0,0,0,-1,615,1464,0,0
-602,-440,0,0,0,0,0,0,0,0,0,-1,622,1464,0,0
-595,-440,0,0,0,0,0,0,0,0,0,-1,629,1464,0,0
-588,-440,0,0,0,0,0,0,0,0,0,-1,636,1464,0,0
-581,-440,-8.97278,0.254517,0,0,0,0,0,0,0,-1,643,1464,-8.97276,-0.254526
-574,-440,-7.00818,-0.918579,0,0,0,0,0,0,0,-1,650,1464,-7.00817,0.918538
-567,-440,-6.12152,-0.0766602,0,0,0,0,0,0,0,-1,657,1464,-6.12151,0.0767097
-560,-440,-5.46747,0.82251,0,0,0,0,0,0,0,-1,664,1464,-5.46748,-0.822551
-553,-440,-6.84729,0.0831299,0,0,0,0,0,0,0,-1,671,1464,-6.84732,-0.083136
-546,-440,-5.63446,-0.153198,0,0,0,0,0,0,0,-1,678,1464,-5.63447,0.153147
-539,-440,-4.40808,5.64417,0,0,0,0,0,0,0,-1,685,1464,-4.40811,-5.64413
-532,-440,-4.40497,5.77429,0.0071644,-0.000806806,0.00897133,0.0129956,-0.00663801,0.576363,0.0115319,0.0437254,692,1464,-4.40494,-5.77431
-525,-440,-4.41461,6.20776,0.00636803,0.000277038,0.00762255,0.011531,-0.0048859,0.595344,0.00973366,0.0248053,699,1464,-4.41459,-6.20778
-518,-440,-4.41699,6.45654,0.0055861,0.000740223,0.00627052,0.00988552,-0.0035592,0.601034,0.00804366,0.0151814,706,1464,-4.41697,-6.45649
-511,-440,-4.3894,6.79089,0.0047463,0.000744667,0.00485326,0.007995,-0.00250403,0.589882,0.00633193,0.0156388,713,1464,-4.38941,-6.79085
-504,-440,-4.39716,7.11243,0.00380697,0.00027933,0.00339534,0.0058693,-0.00178299,0.545842,0.00462326,0.0180787,720,1464,-4.39717,-7.11242
-497,-440,-4.39905,7.39771,0.00293322,-0.000285611,0.00197239,0.00386949,-0.00122188,0.443195,0.00306913,0.0205942,727,1464,-4.39906,-7.39771
-490,-440,-4.41589,7.68738,0.00197964,-0.00187721,0.000347521,0.00201071,-0.00190827,0.089148,0.00226288,0.0218517,734,1464,-4.41587,-7.68741
-483,-440,-4.42657,8.02625,0.000937722,-0.00371275,-0.00151702,0.00138883,-0.00416386,-0.289036,0.00333663,0.0199636,741,1464,-4.42658,-8.0263
-476,-440,-4.42401,8.32373,-0.000379308,-0.00599577,-0.0037108,0.00146608,-0.00784116,-0.461488,0.00577846,0.013325,748,1464,-4.42399,-8.3237
-469,-440,-4.42627,8.63257,-0.00170254,-0.00877981,-0.00601887,0.00174086,-0.0122232,-0.519652,0.00878676,0.0126429,755,1464,-4.42625,-8.63254
-462,-440,-4.44348,8.93726,-0.00290882,-0.0121736,-0.00857197,0.0022024,-0.0172848,-0.537673,0.0123231,0.0143787,762,1464,-4.44348,-8.93731
-455,-440,-4.36871,9.31018,-0.00432136,-0.0164707,-0.011644,0.00273733,-0.0235294,-0.544971,0.0166737,0.0196446,769,1464,-4.36874,-9.31016
-448,-440,-4.09564,9.48828,-0.00590103,-0.0218455,-0.015457,0.00351857,-0.0312651,-0.547307,0.0221098,0.0354376,776,1464,-4.09564,-9.4883
-441,-440,-4.42322,9.07385,-0.00793944,-0.028526,-0.0201556,0.00439909,-0.0408645,-0.549316,0.0288215,0.0382495,783,1464,-4.42323,-9.07387
-434,-440,-3.23529,9.052,0,0,0,0,0,0,0,-1,790,1464,-3.23527,-9.05205
-427,-440,-5.25616,8.44397,0,0,0,0,0,0,0,-1,797,1464,-5.25618,-8.44396
-420,-440,-4.98608,8.01746,0,0,0,0,0,0,0,-1,804,1464,-4.98609,-8.01748
-413,-440,-3.46796,5.72278,0,0,0,0,0,0,0,-1,811,1464,-3.46797,-5.72276
-406,-440,-5.2887,5.20264,0,0,0,0,0,0,0,-1,818,1464,-5.2887,-5.20261
-399,-440,-12.7318,3.94421,0,0,0,0,0,0,0,-1,825,1464,-12.7318,-3.94419
-392,-440,-13.5565,2.51855,0,0,0,0,0,0,0,-1,832,1464,-13.5565,-2.51861
-385,-440,-14.6741,1.39795,0,0,0,0,0,0,0,-1,839,1464,-14.6741,-1.39801
-378,-440,-15.8063,0.293457,0,0,0,0,0,0,0,-1,846,1464,-15.8063,-0.293412
-371,-440,0,0,0,0,0,0,0,0,0,-1,853,1464,0,0
-364,-440,0,0,0,0,0,0,0,0,0,-1,860,1464,0,0
-357,-440,0,0,0,0,0,0,0,0,0,-1,867,1464,0,0
-350,-440,0,0,0,0,0,0,0,0,0,-1,874,1464,0,0
-343,-440,0,0,0,0,0,0,0,0,0,-1,881,1464,0,0
-336,-440,0,0,0,0,0,0,0,0,0,-1,888,1464,0,0
-329,-440,0,0,0,0,0,0,0,0,0,-1,895,1464,0,0
-322,-440,0,0,0,0,0,0,0,0,0,-1,902,1464,0,0
-315,-440,0,0,0,0,0,0,0,0,0,-1,909,1464,0,0
-308,-440,0,0,0,0,0,0,0,0,0,-1,916,1464,0,0
-301,-440,0,0,0,0,0,0,0,0,0,-1,923,1464,0,0
-294,-440,0,0,0,0,0,0,0,0,0,-1,930,1464,0,0
-287,-440,0,0,0,0,0,0,0,0,0,-1,937,1464,0,0
-280,-440,0,0,0,0,0,0,0,0,0,-1,944,1464,0,0
-273,-440,0,0,0,0,0,0,0,0,0,-1,951,1464,0,0
-266,-440,0,0,0,0,0,0,0,0,0,-1,958,1464,0,0
-259,-440,0,0,0,0,0,0,0,0,0,-1,965,1464,0,0
-252,-440,0,0,0,0,0,0,0,0,0,-1,972,1464,0,0
-245,-440,0,0,0,0,0,0,0,0,0,-1,979,1464,0,0
-238,-440,0,0,0,0,0,0,0,0,0,-1,986,1464,0,0
-231,-440,0,0,0,0,0,0,0,0,0,-1,993,1464,0,0
-224,-440,0,0,0,0,0,0,0,0,0,-1,1000,1464,0,0
-217,-440,0,0,0,0,0,0,0,0,0,-1,1007,1464,0,0
-210,-440,0,0,0,0,0,0,0,0,0,-1,1014,1464,0,0
-203,-440,0,0,0,0,0,0,0,0,0,-1,1021,1464,0,0
-196,-440,0,0,0,0,0,0,0,0,0,-1,1028,1464,0,0
-189,-440,0,0,0,0,0,0,0,0,0,-1,1035,1464,0,0
-182,-440,0,0,0,0,0,0,0,0,0,-1,1042,1464,0,0
-175,-440,0,0,0,0,0,0,0,0,0,-1,1049,1464,0,0
-168,-440,0,0,0,0,0,0,0,0,0,-1,1056,1464,0,0
-161,-440,0,0,0,0,0,0,0,0,0,-1,1063,1464,0,0
-154,-440,0,0,0,0,0,0,0,0,0,-1,1070,1464,0,0
-147,-440,0,0,0,0,0,0,0,0,0,-1,1077,1464,0,0
-140,-440,0,0,0,0,0,0,0,0,0,-1,1084,1464,0,0
-133,-440,0,0,0,0,0,0,0,0,0,-1,1091,1464,0,0
-126,-440,0,0,0,0,0,0,0,0,0,-1,1098,1464,0,0
-119,-440,0,0,0,0,0,0,0,0,0,-1,1105,1464,0,0
-112,-440,0,0,0,0,0,0,0,0,0,-1,1112,1464,0,0
-105,-440,0,0,0,0,0,0,0,0,0,-1,1119,1464,0,0
-98,-440,0,0,0,0,0,0,0,0,0,-1,1126,1464,0,0
-91,-440,0,0,0,0,0,0,0,0,0,-1,1133,1464,0,0
-84,-440,0,0,0,0,0,0,0,0,0,-1,1140,1464,0,0
-77,-440,0,0,0,0,0,0,0,0,0,-1,1147,1464,0,0
-70,-440,0,0,0,0,0,0,0,0,0,-1,1154,1464,0,0
-63,-440,0,0,0,0,0,0,0,0,0,-1,1161,1464,0,0
-56,-440,0,0,0,0,0,0,0,0,0,-1,1168,1464,0,0
-49,-440,0,0,0,0,0,0,0,0,0,-1,1175,1464,0,0
-42,-440,0,0,0,0,0,0,0,0,0,-1,1182,1464,0,0
-35,-440,0,0,0,0,0,0,0,0,0,-1,1189,1464,0,0
-28,-440,0,0,0,0,0,0,0,0,0,-1,1196,1464,0,0
-21,-440,0,0,0,0,0,0,0,0,0,-1,1203,1464,0,0
-14,-440,0,0,0,0,0,0,0,0,0,-1,1210,1464,0,0
-7,-440,0,0,0,0,0,0,0,0,0,-1,1217,1464,0,0
0,-440,0,0,0,0,0,0,0,0,0,-1,1224,1464,0,0
7,-440,0,0,0,0,0,0,0,0,0,-1,1231,1464,0,0
14,-440,0,0,0,0,0,0,0,0,0,-1,1238,1464,0,0
21,-440,0,0,0,0,0,0,0,0,0,-1,1245,1464,0,0
28,-440,0,0,0,0,0,0,0,0,0,-1,1252,1464,0,0
35,-440,0,0,0,0,0,0,0,0,0,-1,1259,1464,0,0
42,-440,0,0,0,0,0,0,0,0,0,-1,1266,1464,0,0
49,-440,0,0,0,0,0,0,0,0,0,-1,1273,1464,0,0
56,-440,0,0,0,0,0,0,0,0,0,-1,1280,1464,0,0
63,-440,0,0,0,0,0,0,0,0,0,-1,1287,1464,0,0
70,-440,0,0,0,0,0,0,0,0,0,-1,1294,1464,0,0
77,-440,0,0,0,0,0,0,0,0,0,-1,1301,1464,0,0
84,-440,0,0,0,0,0,0,0,0,0,-1,1308,1464,0,0
91,-440,0,0,0,0,0,0,0,0,0,-1,1315,1464,0,0
98,-440,0,0,0,0,0,0,0,0,0,-1,1322,1464,0,0
105,-440,0,0,0,0,0,0,0,0,0,-1,1329,1464,0,0
112,-440,0,0,0,0,0,0,0,0,0,-1,1336,1464,0,0
119,-440,0,0,0,0,0,0,0,0,0,-1,1343,1464,0,0
126,-440,0,0,0,0,0,0,0,0,0,-1,1350,1464,0,0
133,-440,0,0,0,0,0,0,0,0,0,-1,1357,1464,0,0
140,-440,0,0,0,0,0,0,0,0,0,-1,1364,1464,0,0
147,-440,0,0,0,0,0,0,0,0,0,-1,1371,1464,0,0
154,-440,0,0,0,0,0,0,0,0,0,-1,1378,1464,0,0
161,-440,0,0,0,0,0,0,0,0,0,-1,1385,1464,0,0
168,-440,0,0,0,0,0,0,0,0,0,-1,1392,1464,0,0
175,-440,0,0,0,0,0,0,0,0,0,-1,1399,1464,0,0
182,-440,0,0,0,0,0,0,0,0,0,-1,1406,1464,0,0
189,-440,0,0,0,0,0,0,0,0,0,-1,1413,1464,0,0
196,-440,0,0,0,0,0,0,0,0,0,-1,1420,1464,0,0
203,-440,0,0,0,0,0,0,0,0,0,-1,1427,1464,0,0
210,-440,0,0,0,0,0,0,0,0,0,-1,1434,1464,0,0
217,-440,0,0,0,0,0,0,0,0,0,-1,1441,1464,0,0
224,-440,0,0,0,0,0,0,0,0,0,-1,1448,1464,0,0
231,-440,0,0,0,0,0,0,0,0,0,-1,1455,1464,0,0
238,-440,0,0,0,0,0,0,0,0,0,-1,1462,1464,0,0
245,-440,0,0,0,0,0,0,0,0,0,-1,1469,1464,0,0
252,-440,0,0,0,0,0,0,0,0,0,-1,1476,1464,0,0
259,-440,0,0,0,0,0,0,0,0,0,-1,1483,1464,0,0
266,-440,0,0,0,0,0,0,0,0,0,-1,1490,1464,0,0
273,-440,0,0,0,0,0,0,0,0,0,-1,1497,1464,0,0
280,-440,0,0,0,0,0,0,0,0,0,-1,1504,1464,0,0
287,-440,0,0,0,0,0,0,0,0,0,-1,1511,1464,0,0
294,-440,0,0,0,0,0,0,0,0,0,-1,1518,1464,0,0
301,-440,0,0,0,0,0,0,0,0,0,-1,1525,1464,0,0
308,-440,0,0,0,0,0,0,0,0,0,-1,1532,1464,0,0
315,-440,0,0,0,0,0,0,0,0,0,-1,1539,1464,0,0
322,-440,0,0,0,0,0,0,0,0,0,-1,1546,1464,0,0
329,-440,0,0,0,0,0,0,0,0,0,-1,1553,1464,0,0
336,-440,0,0,0,0,0,0,0,0,0,-1,1560,1464,0,0
343,-440,0,0,0,0,0,0,0,0,0,-1,1567,1464,0,0
350,-440,0,0,0,0,0,0,0,0,0,-1,1574,1464,0,0
357,-440,0,0,0,0,0,0,0,0,0,-1,1581,1464,0,0
364,-440,0,0,0,0,0,0,0,0,0,-1,1588,1464,0,0
371,-440,0,0,0,0,0,0,0,0,0,-1,1595,1464,0,0
378,-440,0,0,0,0,0,0,0,0,0,-1,1602,1464,0,0
385,-440,0,0,0,0,0,0,0,0,0,-1,1609,1464,0,0
392,-440,0,0,0,0,0,0,0,0,0,-1,1616,1464,0,0
399,-440,0,0,0,0,0,0,0,0,0,-1,1623,1464,0,0
406,-440,0,0,0,0,0,0,0,0,0,-1,1630,1464,0,0
413,-440,0,0,0,0,0,0,0,0,0,-1,1637,1464,0,0
420,-440,0,0,0,0,0,0,0,0,0,-1,1644,1464,0,0
427,-440,0,0,0,0,0,0,0,0,0,-1,1651,1464,0,0
434,-440,0,0,0,0,0,0,0,0,0,-1,1658,1464,0,0
441,-440,0,0,0,0,0,0,0,0,0,-1,1665,1464,0,0
448,-440,0,0,0,0,0,0,0,0,0,-1,1672,1464,0,0
455,-440,0,0,0,0,0,0,0,0,0,-1,1679,1464,0,0
462,-440,0,0,0,0,0,0,0,0,0,-1,1686,1464,0,0
469,-440,0,0,0,0,0,0,0,0,0,-1,1693,1464,0,0
476,-440,0,0,0,0,0,0,0,0,0,-1,1700,1464,0,0
483,-440,0,0,0,0,0,0,0,0,0,-1,1707,1464,0,0
490,-440,0,0,0,0,0,0,0,0,0,-1,1714,1464,0,0
497,-440,16.965,-0.528442,0,0,0,0,0,0,0,-1,1721,1464,16.965,0.528492
504,-440,15.8052,0.670166,0,0,0,0,0,0,0,-1,1728,1464,15.8052,-0.670145
511,-440,17.5754,2.77832,0,0,0,0,0,0,0,-1,1735,1464,17.5754,-2.77826
518,-440,16.9017,3.07861,0,0,0,0,0,0,0,-1,1742,1464,16.9018,-3.07859
525,-440,18.4495,12.0867,0,0,0,0,0,0,0,-1,1749,1464,18.4495,-12.0867
532,-440,15.4319,3.64392,0,0,0,0,0,0,0,-1,1756,1464,15.4318,-3.64391
539,-440,14.8214,3.41321,0,0,0,0,0,0,0,-1,1763,1464,14.8214,-3.4132
546,-440,14.8651,10.7683,0,0,0,0,0,0,0,-1,1770,1464,14.8651,-10.7683
553,-440,16.0428,11.834,0,0,0,0,0,0,0,-1,1777,1464,16.0429,-11.8339
560,-440,15.6515,11.2565,0,0,0,0,0,0,0,-1,1784,1464,15.6515,-11.2565
567,-440,14.8495,11.0463,0,0,0,0,0,0,0,-1,1791,1464,14.8495,-11.0462
574,-440,14.5801,11.2408,0,0,0,0,0,0,0,-1,1798,1464,14.5801,-11.2408
581,-440,14.3965,11.0159,-0.0377883,-0.0206452,0.0339998,0.00584693,-0.0642804,0.908878,0.0449296,0.0456835,1805,1464,14.3965,-11.0159
588,-440,14.3301,10.8988,-0.0291248,-0.017179,0.026685,0.00419334,-0.0504972,0.895498,0.0351461,0.0377588,1812,1464,14.33,-10.8988
595,-440,14.3622,10.5853,-0.0217007,-0.0133065,0.0203397,0.00326463,-0.0382719,0.887145,0.0266695,0.0203106,1819,1464,14.3622,-10.5853
602,-440,14.3998,10.2708,-0.0154624,-0.00988425,0.0148503,0.00243664,-0.0277833,0.878223,0.0193855,0.0184103,1826,1464,14.3998,-10.2708
609,-440,14.4114,10.0021,-0.010909,-0.00723901,0.0105263,0.00161105,-0.0197591,0.871694,0.0137413,0.0162145,1833,1464,14.4114,-10.0021
616,-440,14.4125,9.76526,-0.00701265,-0.00499156,0.00681816,0.000890536,-0.0128948,0.858969,0.0089082,0.0173609,1840,1464,14.4124,-9.76525
623,-440,14.4258,9.45959,-0.00418073,-0.00308875,0.00433346,0.000732983,-0.00800246,0.848065,0.00559533,0.012943,1847,1464,14.4258,-9.45961
630,-440,14.382,9.15466,-0.00218762,-0.00175067,0.00263177,0.000671675,-0.00460997,0.82681,0.00331993,0.0108066,1854,1464,14.3819,-9.15463
637,-440,14.3932,8.9054,-0.00116594,-0.000760624,0.00179558,0.000843698,-0.00277026,0.841592,0.00218311,0.0145625,1861,1464,14.3931,-8.90534
644,-440,14.4054,8.63062,-0.000872574,-0.000125903,0.00176217,0.00130205,-0.00230053,0.889785,0.00210641,0.0141473,1868,1464,14.4054,-8.63062
651,-440,14.4175,8.32471,-0.00184835,-0.000104739,0.00303204,0.00217834,-0.00413143,0.925387,0.00370066,0.0136756,1875,1464,14.4175,-8.32468
658,-440,14.3163,8.0813,-0.00331249,0.000368496,0.00452691,0.00341476,-0.00635875,0.978475,0.00572743,0.0226871,1882,1464,14.3162,-8.08134
665,-440,14.3048,7.73389,-0.00507783,0.00112619,0.00646498,0.00519485,-0.00914649,1.00908,0.00838409,0.0348941,1889,1464,14.3049,-7.73392
672,-440,13.9009,7.48975,-0.00736287,0.00215906,0.00912109,0.00768697,-0.0128908,1.02593,0.0120065,0.0488601,1896,1464,13.9009,-7.4898
679,-440,13.7637,7.39392,0,0,0,0,0,0,0,-1,1903,1464,13.7636,-7.39387
686,-440,13.4614,8.94604,0,0,0,0,0,0,0,-1,1910,1464,13.4614,-8.94602
693,-440,9.88635,2.89795,0,0,0,0,0,0,0,-1,1917,1464,9.88638,-2.89798
700,-440,7.07825,-2.62061,0,0,0,0,0,0,0,-1,1924,1464,7.07829,2.62057
707,-440,0,0,0,0,0,0,0,0,0,-1,1931,1464,0,0
714,-440,0,0,0,0,0,0,0,0,0,-1,1938,1464,0,0
721,-440,0,0,0,0,0,0,0,0,0,-1,1945,1464,0,0
728,-440,0,0,0,0,0,0,0,0,0,-1,1952,1464,0,0
735,-440,0,0,0,0,0,0,0,0,0,-1,1959,1464,0,0
742,-440,0,0,0,0,0,0,0,0,0,-1,1966,1464,0,0
749,-440,0,0,0,0,0,0,0,0,0,-1,1973,1464,0,0
756,-440,0,0,0,0,0,0,0,0,0,-1,1980,1464,0,0
763,-440,0,0,0,0,0,0,0,0,0,-1,1987,1464,0,0
770,-440,0,0,0,0,0,0,0,0,0,-1,1994,1464,0,0
777,-440,0,0,0,0,0,0,0,0,0,-1,2001,1464,0,0
784,-440,0,0,0,0,0,0,0,0,0,-1,2008,1464,0,0
791,-440,0,0,0,0,0,0,0,0,0,-1,2015,1464,0,0
798,-440,0,0,0,0,0,0,0,0,0,-1,2022,1464,0,0
805,-440,0,0,0,0,0,0,0,0,0,-1,2029,1464,0,0
812,-440,0,0,0,0,0,0,0,0,0,-1,2036,1464,0,0
-700,-447,0,0,0,0,0,0,0,0,0,-1,524,1471,0,0
-693,-447,0,0,0,0,0,0,0,0,0,-1,531,1471,0,0
-686,-447,0,0,0,0,0,0,0,0,0,-1,538,1471,0,0
-679,-447,0,0,0,0,0,0,0,0,0,-1,545,1471,0,0
-672,-447,0,0,0,0,0,0,0,0,0,-1,552,1471,0,0
-665,-447,0,0,0,0,0,0,0,0,0,-1,559,1471,0,0
-658,-447,0,0,0,0,0,0,0,0,0,-1,566,1471,0,0
-651,-447,0,0,0,0,0,0,0,0,0,-1,573,1471,0,0
-644,-447,0,0,0,0,0,0,0,0,0,-1,580,1471,0,0
-637,-447,0,0,0,0,0,0,0,0,0,-1,587,1471,0,0
-630,-447,0,0,0,0,0,0,0,0,0,-1,594,1471,0,0
-623,-447,0,0,0,0,0,0,0,0,0,-1,601,1471,0,0
-616,-447,0,0,0,0,0,0,0,0,0,-1,608,1471,0,0
-609,-447,0,0,0,0,0,0,0,0,0,-1,615,1471,0,0
-602,-447,0,0,0,0,0,0,0,0,0,-1,622,1471,0,0
-595,-447,0,0,0,0,0,0,0,0,0,-1,629,1471,0,0
-588,-447,0,0,0,0,0,0,0,0,0,-1,636,1471,0,0
-581,-447,-7.06482,-1.50476,0,0,0,0,0,0,0,-1,643,1471,-7.0648,1.50474
-574,-447,-6.88092,-0.00585938,0,0,0,0,0,0,0,-1,650,1471,-6.88095,0.00589852
-567,-447,-6.8205,-1.32178,0,0,0,0,0,0,0,-1,657,1471,-6.82047,1.32172
-560,-447,-8.85748,2.80774,0,0,0,0,0,0,0,-1,664,1471,-8.85748,-2.80775
-553,-447,-7.60486,3.26794,0,0,0,0,0,0,0,-1,671,1471,-7.60487,-3.26799
-546,-447,-3.94501,1.8656,0,0,0,0,0,0,0,-1,678,1471,-3.945,-1.86554
-539,-447,-4.62946,4.80676,0,0,0,0,0,0,0,-1,685,1471,-4.62947,-4.8068
-532,-447,-4.3811,5.53381,0.011799,0.000872081,0.013838,0.021213,-0.00854191,0.597383,0.0176906,0.049345,692,1471,-4.38109,-5.5338
-525,-447,-4.03845,6.31995,0.0104604,0.00133417,0.0115175,0.0182857,-0.00649118,0.596789,0.0148354,0.0339983,699,1471,-4.03846,-6.31989
-518,-447,-4.10419,6.45483,0.00908251,0.00128142,0.00928165,0.0152499,-0.00488597,0.586481,0.0121279,0.0262086,706,1471,-4.10417,-6.45484
-511,-447,-4.10095,6.75208,0.00775717,0.00094697,0.00718475,0.0123029,-0.00359874,0.564109,0.00962835,0.0162205,713,1471,-4.10097,-6.75206
-504,-447,-4.10211,7.0968,0.00636891,0.000354567,0.00523488,0.00939888,-0.0026754,0.524688,0.00732249,0.0188034,720,1471,-4.10212,-7.09684
-497,-447,-4.10284,7.42065,0.00503592,-0.000231827,0.00343735,0.00673248,-0.00192839,0.458488,0.00525052,0.022483,727,1471,-4.10283,-7.42068
-490,-447,-4.07385,7.71643,0.0037328,-0.00160019,0.00160906,0.00418067,-0.00204806,0.271472,0.00366575,0.0227395,734,1471,-4.07385,-7.71642
-483,-447,-4.11401,8.03113,0.0024473,-0.00311847,-0.000297015,0.00246311,-0.00313427,-0.0531634,0.00323938,0.0207166,741,1471,-4.11401,-8.03113
-476,-447,-4.11896,8.32422,0.000977445,-0.00497391,-0.0023927,0.0018201,-0.00581657,-0.338613,0.00460589,0.0146929,748,1471,-4.11896,-8.32421
-469,-447,-4.11768,8.63647,-0.000385873,-0.00723104,-0.00450418,0.00184855,-0.00946546,-0.460504,0.00700823,0.014217,755,1471,-4.11766,-8.63643
-462,-447,-4.13092,8.95361,-0.00149868,-0.00974851,-0.00662688,0.0021822,-0.0134294,-0.507016,0.00976197,0.0135762,762,1471,-4.13095,-8.95366
-455,-447,-4.15039,9.28284,-0.00265156,-0.012965,-0.00902735,0.0025881,-0.0182047,-0.525898,0.0130848,0.0147239,769,1471,-4.15037,-9.2828
-448,-447,-4.04022,9.62561,-0.00377362,-0.0169696,-0.0119053,0.0032398,-0.0239831,-0.532365,0.0171708,0.0227756,776,1471,-4.04021,-9.62565
-441,-447,-4.06305,9.85083,-0.00486307,-0.0221166,-0.0153747,0.00413974,-0.0311194,-0.529735,0.0222549,0.0312941,783,1471,-4.06306,-9.85084
-434,-447,-4.23102,9.88074,-0.00636963,-0.0281504,-0.0197844,0.00532362,-0.0398437,-0.533802,0.0285032,0.0395816,790,1471,-4.23104,-9.88078
-427,-447,-4.28833,9.92371,0,0,0,0,0,0,0,-1,797,1471,-4.28836,-9.92372
-420,-447,-4.94312,8.77417,0,0,0,0,0,0,0,-1,804,1471,-4.94312,-8.77421
-413,-447,-4.27393,6.59705,0,0,0,0,0,0,0,-1,811,1471,-4.27392,-6.59707
-406,-447,-1.04279,6.18591,0,0,0,0,0,0,0,-1,818,1471,-1.04276,-6.18586
-399,-447,0.0134888,0.687622,0,0,0,0,0,0,0,-1,825,1471,0.0134841,-0.68767
-392,-447,-14.0646,3.76147,0,0,0,0,0,0,0,-1,832,1471,-14.0646,-3.7615
-385,-447,-15.1695,2.61865,0,0,0,0,0,0,0,-1,839,1471,-15.1695,-2.61871
-378,-447,-15.9424,1.49316,0,0,0,0,0,0,0,-1,846,1471,-15.9424,-1.49313
-371,-447,-17.3655,0.73291,0,0,0,0,0,0,0,-1,853,1471,-17.3655,-0.732946
-364,-447,0,0,0,0,0,0,0,0,0,-1,860,1471,0,0
-357,-447,0,0,0,0,0,0,0,0,0,-1,867,1471,0,0
-350,-447,0,0,0,0,0,0,0,0,0,-1,874,1471,0,0
-343,-447,0,0,0,0,0,0,0,0,0,-1,881,1471,0,0
-336,-447,0,0,0,0,0,0,0,0,0,-1,888,1471,0,0
-329,-447,0,0,0,0,0,0,0,0,0,-1,895,1471,0,0
-322,-447,0,0,0,0,0,0,0,0,0,-1,902,1471,0,0
-315,-447,0,0,0,0,0,0,0,0,0,-1,909,1471,0,0
-308,-447,0,0,0,0,0,0,0,0,0,-1,916,1471,0,0
-301,-447,0,0,0,0,0,0,0,0,0,-1,923,1471,0,0
-294,-447,0,0,0,0,0,0,0,0,0,-1,930,1471,0,0
-287,-447,0,0,0,0,0,0,0,0,0,-1,937,1471,0,0
-280,-447,0,0,0,0,0,0,0,0,0,-1,944,1471,0,0
-273,-447,0,0,0,0,0,0,0,0,0,-1,951,1471,0,0
-266,-447,0,0,0,0,0,0,0,0,0,-1,958,1471,0,0
-259,-447,0,0,0,0,0,0,0,0,0,-1,965,1471,0,0
-252,-447,0,0,0,0,0,0,0,0,0,-1,972,1471,0,0
-245,-447,0,0,0,0,0,0,0,0,0,-1,979,1471,0,0
-238,-447,0,0,0,0,0,0,0,0,0,-1,986,1471,0,0
-231,-447,0,0,0,0,0,0,0,0,0,-1,993,1471,0,0
-224,-447,0,0,0,0,0,0,0,0,0,-1,1000,1471,0,0
-217,-447,0,0,0,0,0,0,0,0,0,-1,1007,1471,0,0
-210,-447,0,0,0,0,0,0,0,0,0,-1,1014,1471,0,0
-203,-447,0,0,0,0,0,0,0,0,0,-1,1021,1471,0,0
-196,-447,0,0,0,0,0,0,0,0,0,-1,1028,1471,0,0
-189,-447,0,0,0,0,0,0,0,0,0,-1,1035,1471,0,0
-182,-447,0,0,0,0,0,0,0,0,0,-1,1042,1471,0,0
-175,-447,0,0,0,0,0,0,0,0,0,-1,1049,1471,0,0
-168,-447,0,0,0,0,0,0,0,0,0,-1,1056,1471,0,0
-161,-447,0,0,0,0,0,0,0,0,0,-1,1063,1471,0,0
-154,-447,0,0,0,0,0,0,0,0,0,-1,1070,1471,0,0
-147,-447,0,0,0,0,0,0,0,0,0,-1,1077,1471,0,0
-140,-447,0,0,0,0,0,0,0,0,0,-1,1084,1471,0,0
-133,-447,0,0,0,0,0,0,0,0,0,-1,1091,1471,0,0
-126,-447,0,0,0,0,0,0,0,0,0,-1,1098,1471,0,0
-119,-447,0,0,0,0,0,0,0,0,0,-1,1105,1471,0,0
-112,-447,0,0,0,0,0,0,0,0,0,-1,1112,1471,0,0
-105,-447,0,0,0,0,0,0,0,0,0,-1,1119,1471,0,0
-98,-447,0,0,0,0,0,0,0,0,0,-1,1126,1471,0,0
-91,-447,0,0,0,0,0,0,0,0,0,-1,1133,1471,0,0
-84,-447,0,0,0,0,0,0,0,0,0,-1,1140,1471,0,0
-77,-447,0,0,0,0,0,0,0,0,0,-1,1147,1471,0,0
-70,-447,0,0,0,0,0,0,0,0,0,-1,1154,1471,0,0
-63,-447,0,0,0,0,0,0,0,0,0,-1,1161,1471,0,0
-56,-447,0,0,0,0,0,0,0,0,0,-1,1168,1471,0,0
-49,-447,0,0,0,0,0,0,0,0,0,-1,1175,1471,0,0
-42,-447,0,0,0,0,0,0,0,0,0,-1,1182,1471,0,0
-35,-447,0,0,0,0,0,0,0,0,0,-1,1189,1471,0,0
-28,-447,0,0,0,0,0,0,0,0,0,-1,1196,1471,0,0
-21,-447,0,0,0,0,0,0,0,0,0,-1,1203,1471,0,0
-14,-447,0,0,0,0,0,0,0,0,0,-1,1210,1471,0,0
-7,-447,0,0,0,0,0,0,0,0,0,-1,1217,1471,0,0
0,-447,0,0,0,0,0,0,0,0,0,-1,1224,1471,0,0
7,-447,0,0,0,0,0,0,0,0,0,-1,1231,1471,0,0
14,-447,0,0,0,0,0,0,0,0,0,-1,1238,1471,0,0
21,-447,0,0,0,0,0,0,0,0,0,-1,1245,1471,0,0
28,-447,0,0,0,0,0,0,0,0,0,-1,1252,1471,0,0
35,-447,0,0,0,0,0,0,0,0,0,-1,1259,1471,0,0
42,-447,0,0,0,0,0,0,0,0,0,-1,1266,1471,0,0
49,-447,0,0,0,0,0,0,0,0,0,-1,1273,1471,0,0
56,-447,0,0,0,0,0,0,0,0,0,-1,1280,1471,0,0
63,-447,0,0,0,0,0,0,0,0,0,-1,1287,1471,0,0
70,-447,0,0,0,0,0,0,0,0,0,-1,1294,1471,0,0
77,-447,0,0,0,0,0,0,0,0,0,-1,1301,1471,0,0
84,-447,0,0,0,0,0,0,0,0,0,-1,1308,1471,0,0
91,-447,0,0,0,0,0,0,0,0,0,-1,1315,1471,0,0
98,-447,0,0,0,0,0,0,0,0,0,-1,1322,1471,0,0
105,-447,0,0,0,0,0,0,0,0,0,-1,1329,1471,0,0
112,-447,0,0,0,0,0,0,0,0,0,-1,1336,1471,0,0
119,-447,0,0,0,0,0,0,0,0,0,-1,1343,1471,0,0
126,-447,0,0,0,0,0,0,0,0,0,-1,1350,1471,0,0
133,-447,0,0,0,0,0,0,0,0,0,-1,1357,1471,0,0
140,-447,0,0,0,0,0,0,0,0,0,-1,1364,1471,0,0
147,-447,0,0,0,0,0,0,0,0,0,-1,1371,1471,0,0
154,-447,0,0,0,0,0,0,0,0,0,-1,1378,1471,0,0
161,-447,0,0,0,0,0,0,0,0,0,-1,1385,1471,0,0
168,-447,0,0,0,0,0,0,0,0,0,-1,1392,1471,0,0
175,-447,0,0,0,0,0,0,0,0,0,-1,1399,1471,0,0
182,-447,0,0,0,0,0,0,0,0,0,-1,1406,1471,0,0
189,-447,0,0,0,0,0,0,0,0,0,-1,1413,1471,0,0
196,-447,0,0,0,0,0,0,0,0,0,-1,1420,1471,0,0
203,-447,0,0,0,0,0,0,0,0,0,-1,1427,1471,0,0
210,-447,0,0,0,0,0,0,0,0,0,-1,1434,1471,0,0
217,-447,0,0,0,0,0,0,0,0,0,-1,1441,1471,0,0
224,-447,0,0,0,0,0,0,0,0,0,-1,1448,1471,0,0
231,-447,0,0,0,0,0,0,0,0,0,-1,1455,1471,0,0
238,-447,0,0,0,0,0,0,0,0,0,-1,1462,1471,0,0
245,-447,0,0,0,0,0,0,0,0,0,-1,1469,1471,0,0
252,-447,0,0,0,0,0,0,0,0,0,-1,1476,1471,0,0
259,-447,0,0,0,0,0,0,0,0,0,-1,1483,1471,0,0
266,-447,0,0,0,0,0,0,0,0,0,-1,1490,1471,0,0
273,-447,0,0,0,0,0,0,0,0,0,-1,1497,1471,0,0
280,-447,0,0,0,0,0,0,0,0,0,-1,1504,1471,0,0
287,-447,0,0,0,0,0,0,0,0,0,-1,1511,1471,0,0
294,-447,0,0,0,0,0,0,0,0,0,-1,1518,1471,0,0
301,-447,0,0,0,0,0,0,0,0,0,-1,1525,1471,0,0
308,-447,0,0,0,0,0,0,0,0,0,-1,1532,1471,0,0
315,-447,0,0,0,0,0,0,0,0,0,-1,1539,1471,0,0
322,-447,0,0,0,0,0,0,0,0,0,-1,1546,1471,0,0
329,-447,0,0,0,0,0,0,0,0,0,-1,1553,1471,0,0
336,-447,0,0,0,0,0,0,0,0,0,-1,1560,1471,0,0
343,-447,0,0,0,0,0,0,0,0,0,-1,1567,1471,0,0
350,-447,0,0,0,0,0,0,0,0,0,-1,1574,1471,0,0
357,-447,0,0,0,0,0,0,0,0,0,-1,1581,1471,0,0
364,-447,0,0,0,0,0,0,0,0,0,-1,1588,1471,0,0
371,-447,0,0,0,0,0,0,0,0,0,-1,1595,1471,0,0
378,-447,0,0,0,0,0,0,0,0,0,-1,1602,1471,0,0
385,-447,0,0,0,0,0,0,0,0,0,-1,1609,1471,0,0
392,-447,0,0,0,0,0,0,0,0,0,-1,1616,1471,0,0
399,-447,0,0,0,0,0,0,0,0,0,-1,1623,1471,0,0
406,-447,0,0,0,0,0,0,0,0,0,-1,1630,1471,0,0
413,-447,0,0,0,0,0,0,0,0,0,-1,1637,1471,0,0
420,-447,0,0,0,0,0,0,0,0,0,-1,1644,1471,0,0
427,-447,0,0,0,0,0,0,0,0,0,-1,1651,1471,0,0
434,-447,0,0,0,0,0,0,0,0,0,-1,1658,1471,0,0
441,-447,0,0,0,0,0,0,0,0,0,-1,1665,1471,0,0
448,-447,0,0,0,0,0,0,0,0,0,-1,1672,1471,0,0
455,-447,0,0,0,0,0,0,0,0,0,-1,1679,1471,0,0
462,-447,0,0,0,0,0,0,0,0,0,-1,1686,1471,0,0
469,-447,0,0,0,0,0,0,0,0,0,-1,1693,1471,0,0
476,-447,0,0,0,0,0,0,0,0,0,-1,1700,1471,0,0
483,-447,0,0,0,0,0,0,0,0,0,-1,1707,1471,0,0
490,-447,18.2214,-0.810303,0,0,0,0,0,0,0,-1,1714,1471,18.2215,0.810307
497,-447,17.0237,0.352417,0,0,0,0,0,0,0,-1,1721,1471,17.0237,-0.352442
504,-447,15.8998,1.53479,0,0,0,0,0,0,0,-1,1728,1471,15.8997,-1.53478
511,-447,14.7201,2.76111,0,0,0,0,0,0,0,-1,1735,1471,14.7201,-2.76107
518,-447,17.7618,13.2864,0,0,0,0,0,0,0,-1,1742,1471,17.7619,-13.2863
525,-447,17.1191,11.9014,0,0,0,0,0,0,0,-1,1749,1471,17.1191,-11.9013
532,-447,16.3959,10.0455,0,0,0,0,0,0,0,-1,1756,1471,16.3959,-10.0456
539,-447,14.1699,10.0204,0,0,0,0,0,0,0,-1,1763,1471,14.1699,-10.0204
546,-447,16.2401,12.7002,0,0,0,0,0,0,0,-1,1770,1471,16.2401,-12.7002
553,-447,15.7543,12.2545,0,0,0,0,0,0,0,-1,1777,1471,15.7542,-12.2545
560,-447,15.2023,11.8153,0,0,0,0,0,0,0,-1,1784,1471,15.2023,-11.8153
567,-447,14.5731,11.4733,-0.0431511,-0.0226403,0.037996,0.00646,-0.0722513,0.917211,0.0504589,0.0452127,1791,1471,14.5731,-11.4733
574,-447,14.2412,11.2603,-0.034269,-0.0189136,0.0307626,0.00511497,-0.0582975,0.90769,0.0406773,0.0378662,1798,1471,14.2412,-11.2603
581,-447,14.0962,11.2087,-0.0265943,-0.0153028,0.0242481,0.00394811,-0.0458452,0.899777,0.0319609,0.0210424,1805,1471,14.0962,-11.2087
588,-447,14.1481,10.8658,-0.0197371,-0.0122523,0.0183187,0.00270242,-0.0346918,0.886159,0.0240792,0.0152194,1812,1471,14.1481,-10.8659
595,-447,14.1375,10.5646,-0.0142128,-0.00925537,0.0135581,0.00204871,-0.0255169,0.875811,0.0177337,0.0127509,1819,1471,14.1375,-10.5645
602,-447,14.1271,10.2603,-0.00978686,-0.00678282,0.0096679,0.00149904,-0.0180687,0.862463,0.0125753,0.0113374,1826,1471,14.1271,-10.2603
609,-447,14.1292,9.99829,-0.00667551,-0.00495764,0.00672528,0.000963337,-0.0125965,0.848913,0.00873649,0.0123039,1833,1471,14.1292,-9.99833
616,-447,14.1416,9.73535,-0.00403169,-0.00345023,0.00424376,0.000512747,-0.00799467,0.819599,0.00550865,0.0137379,1840,1471,14.1416,-9.73541
623,-447,14.1516,9.45923,-0.00221235,-0.00213435,0.002739,0.000565932,-0.00491263,0.792517,0.00347911,0.0147057,1847,1471,14.1517,-9.45917
630,-447,14.1334,9.17566,-0.000963823,-0.00129293,0.00175916,0.00063846,-0.00289521,0.738763,0.00217443,0.00893599,1854,1471,14.1334,-9.1757
637,-447,14.131,8.89783,-0.000354697,-0.000606126,0.00133061,0.000856125,-0.00181695,0.738299,0.00157618,0.0096306,1861,1471,14.131,-8.8978
644,-447,14.1415,8.62097,-0.000470344,-0.000222455,0.00170526,0.00136336,-0.00205616,0.821676,0.00198772,0.00998567,1868,1471,14.1414,-8.62096
651,-447,14.1653,8.3269,-0.0019805,-0.00040754,0.00344491,0.00233953,-0.00472757,0.897626,0.00415711,0.0257436,1875,1471,14.1652,-8.3269
658,-447,13.9387,8.12561,-0.00388394,0.000197386,0.00519562,0.00373873,-0.00742529,0.972525,0.00656164,0.0367604,1882,1471,13.9388,-8.12562
665,-447,13.7771,7.66431,0,0,0,0,0,0,0,-1,1889,1471,13.777,-7.66431
672,-447,13.215,7.13855,0,0,0,0,0,0,0,-1,1896,1471,13.215,-7.13857
679,-447,13.9666,8.97241,0,0,0,0,0,0,0,-1,1903,1471,13.9665,-8.97246
686,-447,9.81079,4.30859,0,0,0,0,0,0,0,-1,1910,1471,9.8108,-4.30864
693,-447,10.48,2.08643,0,0,0,0,0,0,0,-1,1917,1471,10.48,-2.08642
700,-447,0,0,0,0,0,0,0,0,0,-1,1924,1471,0,0
707,-447,0,0,0,0,0,0,0,0,0,-1,1931,1471,0,0
714,-447,0,0,0,0,0,0,0,0,0,-1,1938,1471,0,0
721,-447,0,0,0,0,0,0,0,0,0,-1,1945,1471,0,0
728,-447,0,0,0,0,0,0,0,0,0,-1,1952,1471,0,0
735,-447,0,0,0,0,0,0,0,0,0,-1,1959,1471,0,0
742,-447,0,0,0,0,0,0,0,0,0,-1,1966,1471,0,0
749,-447,0,0,0,0,0,0,0,0,0,-1,1973,1471,0,0
756,-447,0,0,0,0,0,0,0,0,0,-1,1980,1471,0,0
763,-447,0,0,0,0,0,0,0,0,0,-1,1987,1471,0,0
770,-447,0,0,0,0,0,0,0,0,0,-1,1994,1471,0,0
777,-447,0,0,0,0,0,0,0,0,0,-1,2001,1471,0,0
784,-447,0,0,0,0,0,0,0,0,0,-1,2008,1471,0,0
791,-447,0,0,0,0,0,0,0,0,0,-1,2015,1471,0,0
798,-447,0,0,0,0,0,0,0,0,0,-1,2022,1471,0,0
805,-447,0,0,0,0,0,0,0,0,0,-1,2029,1471,0,0
812,-447,0,0,0,0,0,0,0,0,0,-1,2036,1471,0,0
-700,-454,0,0,0,0,0,0,0,0,0,-1,524,1478,0,0
-693,-454,0,0,0,0,0,0,0,0,0,-1,531,1478,0,0
-686,-454,0,0,0,0,0,0,0,0,0,-1,538,1478,0,0
-679,-454,0,0,0,0,0,0,0,0,0,-1,545,1478,0,0
-672,-454,0,0,0,0,0,0,0,0,0,-1,552,1478,0,0
-665,-454,0,0,0,0,0,0,0,0,0,-1,559,1478,0,0
-658,-454,0,0,0,0,0,0,0,0,0,-1,566,1478,0,0
-651,-454,0,0,0,0,0,0,0,0,0,-1,573,1478,0,0
-644,-454,0,0,0,0,0,0,0,0,0,-1,580,1478,0,0
-637,-454,0,0,0,0,0,0,0,0,0,-1,587,1478,0,0
-630,-454,0,0,0,0,0,0,0,0,0,-1,594,1478,0,0
-623,-454,0,0,0,0,0,0,0,0,0,-1,601,1478,0,0
-616,-454,0,0,0,0,0,0,0,0,0,-1,608,1478,0,0
-609,-454,0,0,0,0,0,0,0,0,0,-1,615,1478,0,0
-602,-454,0,0,0,0,0,0,0,0,0,-1,622,1478,0,0
-595,-454,0,0,0,0,0,0,0,0,0,-1,629,1478,0,0
-588,-454,0,0,0,0,0,0,0,0,0,-1,636,1478,0,0
-581,-454,0,0,0,0,0,0,0,0,0,-1,643,1478,0,0
-574,-454,-8.4881,-0.465942,0,0,0,0,0,0,0,-1,650,1478,-8.4881,0.465885
-567,-454,-8.10046,0.922974,0,0,0,0,0,0,0,-1,657,1478,-8.10047,-0.923034
-560,-454,-10.656,3.51172,0,0,0,0,0,0,0,-1,664,1478,-10.656,-3.51176
-553,-454,-9.01129,3.95251,0,0,0,0,0,0,0,-1,671,1478,-9.0113,-3.95256
-546,-454,-7.63965,4.38733,0,0,0,0,0,0,0,-1,678,1478,-7.63964,-4.3873
-539,-454,-6.05847,3.83118,0,0,0,0,0,0,0,-1,685,1478,-6.05844,-3.83122
-532,-454,-4.16785,5.79309,0,0,0,0,0,0,0,-1,692,1478,-4.16786,-5.79312
-525,-454,-3.92236,6.23779,0.015228,0.00267006,0.0164054,0.026515,-0.00861688,0.602629,0.0211426,0.042,699,1478,-3.92236,-6.23785
-518,-454,-3.75775,6.67065,0.0130045,0.00189689,0.0128824,0.0214792,-0.00657786,0.581879,0.0169432,0.0312364,706,1478,-3.75776,-6.67069
-511,-454,-3.82123,6.75012,0.0109519,0.00108026,0.00978709,0.0169773,-0.00494519,0.55185,0.0132772,0.0213562,713,1478,-3.82123,-6.75018
-504,-454,-3.78601,7.08105,0.008952,0.000318478,0.00714501,0.012983,-0.00371255,0.51366,0.0101224,0.0143693,720,1478,-3.78601,-7.08108
-497,-454,-3.77484,7.39148,0.0070715,-0.000316723,0.00484508,0.00947011,-0.00271533,0.459689,0.00738679,0.0173315,727,1478,-3.77485,-7.39147
-490,-454,-3.7749,7.73877,0.00535502,-0.0014659,0.00273352,0.0063153,-0.00242618,0.337831,0.00521074,0.0167876,734,1478,-3.77488,-7.73873
-483,-454,-3.79926,8.05786,0.00379544,-0.00269463,0.000744296,0.0038797,-0.00277889,0.112732,0.00386181,0.0154375,741,1478,-3.79925,-8.05787
-476,-454,-3.82941,8.33264,0.00217625,-0.00416846,-0.00127541,0.00242303,-0.00441525,-0.191132,0.00400354,0.0142468,748,1478,-3.8294,-8.33266
-469,-454,-3.82037,8.64258,0.000776207,-0.00599811,-0.00324644,0.00208077,-0.00730267,-0.382094,0.00569029,0.0105982,755,1478,-3.82035,-8.64264
-462,-454,-3.83087,8.95166,-0.000264384,-0.00781815,-0.00503148,0.00225005,-0.0103326,-0.463439,0.00774808,0.0103989,762,1478,-3.83086,-8.9517
-455,-454,-3.82983,9.25537,-0.00119661,-0.0101766,-0.00686932,0.00251995,-0.0138932,-0.495936,0.0102063,0.011276,769,1478,-3.82985,-9.25541
-448,-454,-3.81989,9.578,-0.0019324,-0.0130821,-0.008955,0.00304126,-0.0180557,-0.506984,0.0131685,0.0131771,776,1478,-3.81989,-9.57806
-441,-454,-3.66858,9.92969,-0.00241147,-0.016796,-0.0113675,0.00384798,-0.0230555,-0.503338,0.0168005,0.0235056,783,1478,-3.66855,-9.92964
-434,-454,-3.6358,10.1649,-0.00299429,-0.0212536,-0.0145374,0.00504251,-0.0292904,-0.505018,0.0214067,0.0320994,790,1478,-3.63582,-10.1649
-427,-454,-3.99396,10.171,-0.00391021,-0.0263172,-0.0183064,0.00634885,-0.0365763,-0.5108,0.0267528,0.0458457,797,1478,-3.99397,-10.1711
-420,-454,-3.86774,10.1721,0,0,0,0,0,0,0,-1,804,1478,-3.86774,-10.1721
-413,-454,-3.46564,9.63281,0,0,0,0,0,0,0,-1,811,1478,-3.46565,-9.63278
-406,-454,-2.38208,10.0308,0,0,0,0,0,0,0,-1,818,1478,-2.38209,-10.0308
-399,-454,-1.21033,6.95447,0,0,0,0,0,0,0,-1,825,1478,-1.21035,-6.95452
-392,-454,0.0967407,0.985474,0,0,0,0,0,0,0,-1,832,1478,0.0967364,-0.985529
-385,-454,2.38629,3.297,0,0,0,0,0,0,0,-1,839,1478,2.38629,-3.29702
-378,-454,-15.9756,2.83997,0,0,0,0,0,0,0,-1,846,1478,-15.9756,-2.83994
-371,-454,-17.2753,2.01453,0,0,0,0,0,0,0,-1,853,1478,-17.2753,-2.01455
-364,-454,1.08124,0.819458,0,0,0,0,0,0,0,-1,860,1478,1.08124,-0.819513
-357,-454,0,0,0,0,0,0,0,0,0,-1,867,1478,0,0
-350,-454,0,0,0,0,0,0,0,0,0,-1,874,1478,0,0
-343,-454,0,0,0,0,0,0,0,0,0,-1,881,1478,0,0
-336,-454,0,0,0,0,0,0,0,0,0,-1,888,1478,0,0
-329,-454,0,0,0,0,0,0,0,0,0,-1,895,1478,0,0
-322,-454,0,0,0,0,0,0,0,0,0,-1,902,1478,0,0
-315,-454,0,0,0,0,0,0,0,0,0,-1,909,1478,0,0
-308,-454,0,0,0,0,0,0,0,0,0,-1,916,1478,0,0
-301,-454,0,0,0,0,0,0,0,0,0,-1,923,1478,0,0
-294,-454,0,0,0,0,0,0,0,0,0,-1,930,1478,0,0
-287,-454,0,0,0,0,0,0,0,0,0,-1,937,1478,0,0
-280,-454,0,0,0,0,0,0,0,0,0,-1,944,1478,0,0
-273,-454,0,0,0,0,0,0,0,0,0,-1,951,1478,0,0
-266,-454,0,0,0,0,0,0,0,0,0,-1,958,1478,0,0
-259,-454,0,0,0,0,0,0,0,0,0,-1,965,1478,0,0
-252,-454,0,0,0,0,0,0,0,0,0,-1,972,1478,0,0
-245,-454,0,0,0,0,0,0,0,0,0,-1,979,1478,0,0
-238,-454,0,0,0,0,0,0,0,0,0,-1,986,1478,0,0
-231,-454,0,0,0,0,0,0,0,0,0,-1,993,1478,0,0
-224,-454,0,0,0,0,0,0,0,0,0,-1,1000,1478,0,0
-217,-454,0,0,0,0,0,0,0,0,0,-1,1007,1478,0,0
-210,-454,0,0,0,0,0,0,0,0,0,-1,1014,1478,0,0
-203,-454,0,0,0,0,0,0,0,0,0,-1,1021,1478,0,0
-196,-454,0,0,0,0,0,0,0,0,0,-1,1028,1478,0,0
-189,-454,0,0,0,0,0,0,0,0,0,-1,1035,1478,0,0
-182,-454,0,0,0,0,0,0,0,0,0,-1,1042,1478,0,0
-175,-454,0,0,0,0,0,0,0,0,0,-1,1049,1478,0,0
-168,-454,0,0,0,0,0,0,0,0,0,-1,1056,1478,0,0
-161,-454,0,0,0,0,0,0,0,0,0,-1,1063,1478,0,0
-154,-454,0,0,0,0,0,0,0,0,0,-1,1070,1478,0,0
-147,-454,0,0,0,0,0,0,0,0,0,-1,1077,1478,0,0
-140,-454,0,0,0,0,0,0,0,0,0,-1,1084,1478,0,0
-133,-454,0,0,0,0,0,0,0,0,0,-1,1091,1478,0,0
-126,-454,0,0,0,0,0,0,0,0,0,-1,1098,1478,0,0
-119,-454,0,0,0,0,0,0,0,0,0,-1,1105,1478,0,0
-112,-454,0,0,0,0,0,0,0,0,0,-1,1112,1478,0,0
-105,-454,0,0,0,0,0,0,0,0,0,-1,1119,1478,0,0
-98,-454,0,0,0,0,0,0,0,0,0,-1,1126,1478,0,0
-91,-454,0,0,0,0,0,0,0,0,0,-1,1133,1478,0,0
-84,-454,0,0,0,0,0,0,0,0,0,-1,1140,1478,0,0
-77,-454,0,0,0,0,0,0,0,0,0,-1,1147,1478,0,0
-70,-454,0,0,0,0,0,0,0,0,0,-1,1154,1478,0,0
-63,-454,0,0,0,0,0,0,0,0,0,-1,1161,1478,0,0
-56,-454,0,0,0,0,0,0,0,0,0,-1,1168,1478,0,0
-49,-454,0,0,0,0,0,0,0,0,0,-1,1175,1478,0,0
-42,-454,0,0,0,0,0,0,0,0,0,-1,1182,1478,0,0
-35,-454,0,0,0,0,0,0,0,0,0,-1,1189,1478,0,0
-28,-454,0,0,0,0,0,0,0,0,0,-1,1196,1478,0,0
-21,-454,0,0,0,0,0,0,0,0,0,-1,1203,1478,0,0
-14,-454,0,0,0,0,0,0,0,0,0,-1,1210,1478,0,0
-7,-454,0,0,0,0,0,0,0,0,0,-1,1217,1478,0,0
0,-454,0,0,0,0,0,0,0,0,0,-1,1224,1478,0,0
7,-454,0,0,0,0,0,0,0,0,0,-1,1231,1478,0,0
14,-454,0,0,0,0,0,0,0,0,0,-1,1238,1478,0,0
21,-454,0,0,0,0,0,0,0,0,0,-1,1245,1478,0,0
28,-454,0,0,0,0,0,0,0,0,0,-1,1252,1478,0,0
35,-454,0,0,0,0,0,0,0,0,0,-1,1259,1478,0,0
42,-454,0,0,0,0,0,0,0,0,0,-1,1266,1478,0,0
49,-454,0,0,0,0,0,0,0,0,0,-1,1273,1478,0,0
56,-454,0,0,0,0,0,0,0,0,0,-1,1280,1478,0,0
63,-454,0,0,0,0,0,0,0,0,0,-1,1287,1478,0,0
70,-454,0,0,0,0,0,0,0,0,0,-1,1294,1478,0,0
77,-454,0,0,0,0,0,0,0,0,0,-1,1301,1478,0,0
84,-454,0,0,0,0,0,0,0,0,0,-1,1308,1478,0,0
91,-454,0,0,0,0,0,0,0,0,0,-1,1315,1478,0,0
98,-454,0,0,0,0,0,0,0,0,0,-1,1322,1478,0,0
105,-454,0,0,0,0,0,0,0,0,0,-1,1329,1478,0,0
112,-454,0,0,0,0,0,0,0,0,0,-1,1336,1478,0,0
119,-454,0,0,0,0,0,0,0,0,0,-1,1343,1478,0,0
126,-454,0,0,0,0,0,0,0,0,0,-1,1350,1478,0,0
133,-454,0,0,0,0,0,0,0,0,0,-1,1357,1478,0,0
140,-454,0,0,0,0,0,0,0,0,0,-1,1364,1478,0,0
147,-454,0,0,0,0,0,0,0,0,0,-1,1371,1478,0,0
154,-454,0,0,0,0,0,0,0,0,0,-1,1378,1478,0,0
161,-454,0,0,0,0,0,0,0,0,0,-1,1385,1478,0,0
168,-454,0,0,0,0,0,0,0,0,0,-1,1392,1478,0,0
175,-454,0,0,0,0,0,0,0,0,0,-1,1399,1478,0,0
182,-454,0,0,0,0,0,0,0,0,0,-1,1406,1478,0,0
189,-454,0,0,0,0,0,0,0,0,0,-1,1413,1478,0,0
196,-454,0,0,0,0,0,0,0,0,0,-1,1420,1478,0,0
203,-454,0,0,0,0,0,0,0,0,0,-1,1427,1478,0,0
210,-454,0,0,0,0,0,0,0,0,0,-1,1434,1478,0,0
217,-454,0,0,0,0,0,0,0,0,0,-1,1441,1478,0,0
224,-454,0,0,0,0,0,0,0,0,0,-1,1448,1478,0,0
231,-454,0,0,0,0,0,0,0,0,0,-1,1455,1478,0,0
238,-454,0,0,0,0,0,0,0,0,0,-1,1462,1478,0,0
245,-454,0,0,0,0,0,0,0,0,0,-1,1469,1478,0,0
252,-454,0,0,0,0,0,0,0,0,0,-1,1476,1478,0,0
259,-454,0,0,0,0,0,0,0,0,0,-1,1483,1478,0,0
266,-454,0,0,0,0,0,0,0,0,0,-1,1490,1478,0,0
273,-454,0,0,0,0,0,0,0,0,0,-1,1497,1478,0,0
280,-454,0,0,0,0,0,0,0,0,0,-1,1504,1478,0,0
287,-454,0,0,0,0,0,0,0,0,0,-1,1511,1478,0,0
294,-454,0,0,0,0,0,0,0,0,0,-1,1518,1478,0,0
301,-454,0,0,0,0,0,0,0,0,0,-1,1525,1478,0,0
308,-454,0,0,0,0,0,0,0,0,0,-1,1532,1478,0,0
315,-454,0,0,0,0,0,0,0,0,0,-1,1539,1478,0,0
322,-454,0,0,0,0,0,0,0,0,0,-1,1546,1478,0,0
329,-454,0,0,0,0,0,0,0,0,0,-1,1553,1478,0,0
336,-454,0,0,0,0,0,0,0,0,0,-1,1560,1478,0,0
343,-454,0,0,0,0,0,0,0,0,0,-1,1567,1478,0,0
350,-454,0,0,0,0,0,0,0,0,0,-1,1574,1478,0,0
357,-454,0,0,0,0,0,0,0,0,0,-1,1581,1478,0,0
364,-454,0,0,0,0,0,0,0,0,0,-1,1588,1478,0,0
371,-454,0,0,0,0,0,0,0,0,0,-1,1595,1478,0,0
378,-454,0,0,0,0,0,0,0,0,0,-1,1602,1478,0,0
385,-454,0,0,0,0,0,0,0,0,0,-1,1609,1478,0,0
392,-454,0,0,0,0,0,0,0,0,0,-1,1616,1478,0,0
399,-454,0,0,0,0,0,0,0,0,0,-1,1623,1478,0,0
406,-454,0,0,0,0,0,0,0,0,0,-1,1630,1478,0,0
413,-454,0,0,0,0,0,0,0,0,0,-1,1637,1478,0,0
420,-454,0,0,0,0,0,0,0,0,0,-1,1644,1478,0,0
427,-454,0,0,0,0,0,0,0,0,0,-1,1651,1478,0,0
434,-454,0,0,0,0,0,0,0,0,0,-1,1658,1478,0,0
441,-454,0,0,0,0,0,0,0,0,0,-1,1665,1478,0,0
448,-454,0,0,0,0,0,0,0,0,0,-1,1672,1478,0,0
455,-454,0,0,0,0,0,0,0,0,0,-1,1679,1478,0,0
462,-454,0,0,0,0,0,0,0,0,0,-1,1686,1478,0,0
469,-454,0,0,0,0,0,0,0,0,0,-1,1693,1478,0,0
476,-454,0,0,0,0,0,0,0,0,0,-1,1700,1478,0,0
483,-454,14.2399,3.97498,0,0,0,0,0,0,0,-1,1707,1478,14.2399,-3.97502
490,-454,18.1821,-0.175781,0,0,0,0,0,0,0,-1,1714,1478,18.1821,0.175822
497,-454,16.8854,1.01208,0,0,0,0,0,0,0,-1,1721,1478,16.8854,-1.01209
504,-454,15.587,2.05994,0,0,0,0,0,0,0,-1,1728,1478,15.5871,-2.05998
511,-454,17.0273,14.5258,0,0,0,0,0,0,0,-1,1735,1478,17.0273,-14.5258
518,-454,16.4158,13.1039,0,0,0,0,0,0,0,-1,1742,1478,16.4157,-13.1038
525,-454,15.7842,11.6628,0,0,0,0,0,0,0,-1,1749,1478,15.7841,-11.6629
532,-454,15.1094,10.2476,0,0,0,0,0,0,0,-1,1756,1478,15.1094,-10.2475
539,-454,13.7905,10.9373,0,0,0,0,0,0,0,-1,1763,1478,13.7906,-10.9372
546,-454,14.8629,11.8649,0,0,0,0,0,0,0,-1,1770,1478,14.8629,-11.8649
553,-454,14.0267,11.8545,0,0,0,0,0,0,0,-1,1777,1478,14.0268,-11.8545
560,-454,13.9449,12.1254,0,0,0,0,0,0,0,-1,1784,1478,13.945,-12.1254
567,-454,13.9751,11.7224,-0.0295732,-0.0165093,0.0252503,0.00304023,-0.0491227,0.911967,0.0338075,0.0362234,1791,1478,13.9751,-11.7224
574,-454,13.8636,11.3868,-0.0224399,-0.0130409,0.0194103,0.00223067,-0.0377115,0.904169,0.0259166,0.0180323,1798,1478,13.8636,-11.3869
581,-454,13.869,11.1082,-0.016677,-0.00997286,0.0146222,0.00167655,-0.0283264,0.898074,0.0194672,0.0122607,1805,1478,13.8691,-11.1082
588,-454,13.884,10.8452,-0.0117497,-0.00761304,0.0105001,0.0010205,-0.0203833,0.882645,0.0139415,0.0124774,1812,1478,13.8841,-10.8452
595,-454,13.868,10.5756,-0.00797344,-0.00558818,0.00747225,0.000786013,-0.0143476,0.864535,0.00983757,0.0116992,1819,1478,13.868,-10.5755
602,-454,13.8586,10.2766,-0.0050667,-0.00409348,0.00518693,0.000629621,-0.00978979,0.832169,0.0067462,0.00841054,1826,1478,13.8586,-10.2766
609,-454,13.8601,10.0114,-0.00306203,-0.00309476,0.00355076,0.000472399,-0.0066292,0.783094,0.00458505,0.0101617,1833,1478,13.8601,-10.0114
616,-454,13.8676,9.73987,-0.00137926,-0.00235992,0.00223822,0.000421711,-0.00416089,0.677566,0.00292465,0.0128325,1840,1478,13.8676,-9.73981
623,-454,13.8751,9.46069,-0.000250707,-0.00165868,0.00158579,0.000780337,-0.00268972,0.5765,0.00210211,0.0111804,1847,1478,13.8752,-9.46066
630,-454,13.8588,9.1814,0.000506152,-0.00132844,0.00123503,0.00112727,-0.00194956,0.465981,0.00179743,0.0105179,1854,1478,13.8587,-9.18137
637,-454,13.8369,8.91174,0.000799516,-0.00103334,0.00123785,0.00142325,-0.00165708,0.466753,0.00178014,0.00994021,1861,1478,13.837,-8.91171
644,-454,13.8998,8.62048,0.000457554,-0.000923189,0.00191484,0.00180268,-0.00226831,0.612383,0.0023555,0.0172225,1868,1478,13.8998,-8.62043
651,-454,13.7372,8.43774,-0.001281,-0.00117204,0.00385639,0.00263026,-0.0050833,0.792461,0.00452787,0.0347334,1875,1478,13.7372,-8.43775
658,-454,13.7621,8.02136,-0.00358498,-0.000515794,0.00587433,0.00402108,-0.00812186,0.913161,0.00714275,0.0396475,1882,1478,13.7621,-8.02132
665,-454,13.9685,7.53333,0,0,0,0,0,0,0,-1,1889,1478,13.9685,-7.5333
672,-454,12.6887,4.95361,0,0,0,0,0,0,0,-1,1896,1478,12.6887,-4.95364
679,-454,14.2161,5.45007,0,0,0,0,0,0,0,-1,1903,1478,14.2161,-5.45013
686,-454,10.3767,2.12842,0,0,0,0,0,0,0,-1,1910,1478,10.3767,-2.12839
693,-454,11.1857,1.48486,0,0,0,0,0,0,0,-1,1917,1478,11.1857,-1.48487
700,-454,0,0,0,0,0,0,0,0,0,-1,1924,1478,0,0
707,-454,0,0,0,0,0,0,0,0,0,-1,1931,1478,0,0
714,-454,0,0,0,0,0,0,0,0,0,-1,1938,1478,0,0
721,-454,0,0,0,0,0,0,0,0,0,-1,1945,1478,0,0
728,-454,0,0,0,0,0,0,0,0,0,-1,1952,1478,0,0
735,-454,0,0,0,0,0,0,0,0,0,-1,1959,1478,0,0
742,-454,0,0,0,0,0,0,0,0,0,-1,1966,1478,0,0
749,-454,0,0,0,0,0,0,0,0,0,-1,1973,1478,0,0
756,-454,0,0,0,0,0,0,0,0,0,-1,1980,1478,0,0
763,-454,0,0,0,0,0,0,0,0,0,-1,1987,1478,0,0
770,-454,0,0,0,0,0,0,0,0,0,-1,1994,1478,0,0
777,-454,0,0,0,0,0,0,0,0,0,-1,2001,1478,0,0
784,-454,0,0,0,0,0,0,0,0,0,-1,2008,1478,0,0
791,-454,0,0,0,0,0,0,0,0,0,-1,2015,1478,0,0
798,-454,0,0,0,0,0,0,0,0,0,-1,2022,1478,0,0
805,-454,0,0,0,0,0,0,0,0,0,-1,2029,1478,0,0
812,-454,0,0,0,0,0,0,0,0,0,-1,2036,1478,0,0
-700,-461,0,0,0,0,0,0,0,0,0,-1,524,1485,0,0
-693,-461,0,0,0,0,0,0,0,0,0,-1,531,1485,0,0
-686,-461,0,0,0,0,0,0,0,0,0,-1,538,1485,0,0
-679,-461,0,0,0,0,0,0,0,0,0,-1,545,1485,0,0
-672,-461,0,0,0,0,0,0,0,0,0,-1,552,1485,0,0
-665,-461,0,0,0,0,0,0,0,0,0,-1,559,1485,0,0
-658,-461,0,0,0,0,0,0,0,0,0,-1,566,1485,0,0
-651,-461,0,0,0,0,0,0,0,0,0,-1,573,1485,0,0
-644,-461,0,0,0,0,0,0,0,0,0,-1,580,1485,0,0
-637,-461,0,0,0,0,0,0,0,0,0,-1,587,1485,0,0
-630,-461,0,0,0,0,0,0,0,0,0,-1,594,1485,0,0
-623,-461,0,0,0,0,0,0,0,0,0,-1,601,1485,0,0
-616,-461,0,0,0,0,0,0,0,0,0,-1,608,1485,0,0
-609,-461,0,0,0,0,0,0,0,0,0,-1,615,1485,0,0
-602,-461,0,0,0,0,0,0,0,0,0,-1,622,1485,0,0
-595,-461,0,0,0,0,0,0,0,0,0,-1,629,1485,0,0
-588,-461,0,0,0,0,0,0,0,0,0,-1,636,1485,0,0
-581,-461,0,0,0,0,0,0,0,0,0,-1,643,1485,0,0
-574,-461,0,0,0,0,0,0,0,0,0,-1,650,1485,0,0
-567,-461,-9.69031,0.513306,0,0,0,0,0,0,0,-1,657,1485,-9.69032,-0.513305
-560,-461,-7.28815,1.54004,0,0,0,0,0,0,0,-1,664,1485,-7.28817,-1.54005
-553,-461,-10.1774,4.61963,0,0,0,0,0,0,0,-1,671,1485,-10.1774,-4.61957
-546,-461,-5.84113,2.38074,0,0,0,0,0,0,0,-1,678,1485,-5.8411,-2.38071
-539,-461,-3.9635,1.92151,0,0,0,0,0,0,0,-1,685,1485,-3.96353,-1.9215
-532,-461,-3.69135,4.8158,0,0,0,0,0,0,0,-1,692,1485,-3.69132,-4.81575
-525,-461,-3.53741,5.48804,0.0213232,0.00352854,0.0223874,0.0365165,-0.0116648,0.596256,0.0290247,0.046763,699,1485,-3.53739,-5.48798
-518,-461,-3.51764,6.51575,0.0178807,0.00199017,0.0170416,0.0287382,-0.00886736,0.567266,0.0226995,0.0385441,706,1485,-3.51765,-6.5157
-511,-461,-3.40979,6.86414,0.0147495,0.000774618,0.0125768,0.0221495,-0.00662543,0.531839,0.0174005,0.0230304,713,1485,-3.4098,-6.86413
-504,-461,-3.49347,7.10718,0.0118817,-0.000106233,0.00901988,0.0167176,-0.00494213,0.492138,0.0131068,0.012837,720,1485,-3.49346,-7.10724
-497,-461,-3.45239,7.44751,0.00929764,-0.000711859,0.00613009,0.0122065,-0.00362074,0.443061,0.00957556,0.0104395,727,1485,-3.45241,-7.44755
-490,-461,-3.47491,7.75354,0.00704582,-0.00158937,0.00368329,0.00840346,-0.00294701,0.353142,0.00680091,0.0118396,734,1485,-3.47493,-7.75349
-483,-461,-3.49634,8.06006,0.00511664,-0.00249574,0.00159005,0.00543541,-0.00281451,0.197858,0.00484255,0.0119137,741,1485,-3.49633,-8.06008
-476,-461,-3.51953,8.35828,0.00328626,-0.00358177,-0.000357969,0.00330487,-0.00360038,-0.0519335,0.00398796,0.011234,748,1485,-3.51953,-8.35833
-469,-461,-3.52173,8.64575,0.00178473,-0.00501697,-0.00221916,0.00244472,-0.00567697,-0.289076,0.00481125,0.0128032,755,1485,-3.52173,-8.64574
-462,-461,-3.52789,8.92957,0.000733712,-0.00625701,-0.00373375,0.00235288,-0.00787618,-0.409181,0.00618608,0.0179741,762,1485,-3.52789,-8.92954
-455,-461,-3.5354,9.24854,-8.33117e-05,-0.00792196,-0.00511778,0.00244351,-0.0104488,-0.458622,0.00790723,0.0225456,769,1485,-3.53538,-9.24848
-448,-461,-3.50256,9.58203,-0.000587896,-0.00997921,-0.00658739,0.00280612,-0.0133732,-0.475757,0.0099832,0.0183713,776,1485,-3.50258,-9.58205
-441,-461,-3.48145,9.90515,-0.00070225,-0.0125874,-0.00820655,0.00348738,-0.0167771,-0.47203,0.0125103,0.0144379,783,1485,-3.48147,-9.9052
-434,-461,-3.32538,10.1895,-0.00072469,-0.0158377,-0.0104402,0.00460669,-0.0211691,-0.47214,0.0158727,0.0190334,790,1485,-3.32537,-10.1894
-427,-461,-3.24054,10.3793,-0.000892796,-0.0196916,-0.0131706,0.00588843,-0.0264728,-0.475478,0.0199039,0.0312058,797,1485,-3.24056,-10.3792
-420,-461,-3.55176,10.3976,-0.00115086,-0.0238504,-0.0162795,0.00734475,-0.032346,-0.480982,0.0243838,0.0498597,804,1485,-3.55174,-10.3976
-413,-461,-3.89429,10.4355,0,0,0,0,0,0,0,-1,811,1485,-3.89431,-10.4356
-406,-461,-3.74152,9.38831,0,0,0,0,0,0,0,-1,818,1485,-3.74152,-9.38832
-399,-461,-1.93439,9.82849,0,0,0,0,0,0,0,-1,825,1485,-1.9344,-9.82846
-392,-461,-0.357544,5.55225,0,0,0,0,0,0,0,-1,832,1485,-0.357536,-5.55228
-385,-461,1.71509,3.35254,0,0,0,0,0,0,0,-1,839,1485,1.71511,-3.35255
-378,-461,1.95996,3.01111,0,0,0,0,0,0,0,-1,846,1485,1.95993,-3.01111
-371,-461,0.702881,2.33459,0,0,0,0,0,0,0,-1,853,1485,0.702859,-2.33459
-364,-461,-1.93097,2.56458,0,0,0,0,0,0,0,-1,860,1485,-1.93095,-2.56456
-357,-461,-2.41516,3.49487,0,0,0,0,0,0,0,-1,867,1485,-2.41517,-3.49487
-350,-461,0,0,0,0,0,0,0,0,0,-1,874,1485,0,0
-343,-461,0,0,0,0,0,0,0,0,0,-1,881,1485,0,0
-336,-461,0,0,0,0,0,0,0,0,0,-1,888,1485,0,0
-329,-461,0,0,0,0,0,0,0,0,0,-1,895,1485,0,0
-322,-461,0,0,0,0,0,0,0,0,0,-1,902,1485,0,0
-315,-461,0,0,0,0,0,0,0,0,0,-1,909,1485,0,0
-308,-461,0,0,0,0,0,0,0,0,0,-1,916,1485,0,0
-301,-461,0,0,0,0,0,0,0,0,0,-1,923,1485,0,0
-294,-461,0,0,0,0,0,0,0,0,0,-1,930,1485,0,0
-287,-461,0,0,0,0,0,0,0,0,0,-1,937,1485,0,0
-280,-461,0,0,0,0,0,0,0,0,0,-1,944,1485,0,0
-273,-461,0,0,0,0,0,0,0,0,0,-1,951,1485,0,0
-266,-461,0,0,0,0,0,0,0,0,0,-1,958,1485,0,0
-259,-461,0,0,0,0,0,0,0,0,0,-1,965,1485,0,0
-252,-461,0,0,0,0,0,0,0,0,0,-1,972,1485,0,0
-245,-461,0,0,0,0,0,0,0,0,0,-1,979,1485,0,0
-238,-461,0,0,0,0,0,0,0,0,0,-1,986,1485,0,0
-231,-461,0,0,0,0,0,0,0,0,0,-1,993,1485,0,0
-224,-461,0,0,0,0,0,0,0,0,0,-1,1000,1485,0,0
-217,-461,0,0,0,0,0,0,0,0,0,-1,1007,1485,0,0
-210,-461,0,0,0,0,0,0,0,0,0,-1,1014,1485,0,0
-203,-461,0,0,0,0,0,0,0,0,0,-1,1021,1485,0,0
-196,-461,0,0,0,0,0,0,0,0,0,-1,1028,1485,0,0
-189,-461,0,0,0,0,0,0,0,0,0,-1,1035,1485,0,0
-182,-461,0,0,0,0,0,0,0,0,0,-1,1042,1485,0,0
-175,-461,0,0,0,0,0,0,0,0,0,-1,1049,1485,0,0
-168,-461,0,0,0,0,0,0,0,0,0,-1,1056,1485,0,0
-161,-461,0,0,0,0,0,0,0,0,0,-1,1063,1485,0,0
-154,-461,0,0,0,0,0,0,0,0,0,-1,1070,1485,0,0
-147,-461,0,0,0,0,0,0,0,0,0,-1,1077,1485,0,0
-140,-461,0,0,0,0,0,0,0,0,0,-1,1084,1485,0,0
-133,-461,0,0,0,0,0,0,0,0,0,-1,1091,1485,0,0
-126,-461,0,0,0,0,0,0,0,0,0,-1,1098,1485,0,0
-119,-461,0,0,0,0,0,0,0,0,0,-1,1105,1485,0,0
-112,-461,0,0,0,0,0,0,0,0,0,-1,1112,1485,0,0
-105,-461,0,0,0,0,0,0,0,0,0,-1,1119,1485,0,0
-98,-461,0,0,0,0,0,0,0,0,0,-1,1126,1485,0,0
-91,-461,0,0,0,0,0,0,0,0,0,-1,1133,1485,0,0
-84,-461,0,0,0,0,0,0,0,0,0,-1,1140,1485,0,0
-77,-461,0,0,0,0,0,0,0,0,0,-1,1147,1485,0,0
-70,-461,0,0,0,0,0,0,0,0,0,-1,1154,1485,0,0
-63,-461,0,0,0,0,0,0,0,0,0,-1,1161,1485,0,0
-56,-461,0,0,0,0,0,0,0,0,0,-1,1168,1485,0,0
-49,-461,0,0,0,0,0,0,0,0,0,-1,1175,1485,0,0
-42,-461,0,0,0,0,0,0,0,0,0,-1,1182,1485,0,0
-35,-461,0,0,0,0,0,0,0,0,0,-1,1189,1485,0,0
-28,-461,0,0,0,0,0,0,0,0,0,-1,1196,1485,0,0
-21,-461,0,0,0,0,0,0,0,0,0,-1,1203,1485,0,0
-14,-461,0,0,0,0,0,0,0,0,0,-1,1210,1485,0,0
-7,-461,0,0,0,0,0,0,0,0,0,-1,1217,1485,0,0
0,-461,0,0,0,0,0,0,0,0,0,-1,1224,1485,0,0
7,-461,0,0,0,0,0,0,0,0,0,-1,1231,1485,0,0
14,-461,0,0,0,0,0,0,0,0,0,-1,1238,1485,0,0
21,-461,0,0,0,0,0,0,0,0,0,-1,1245,1485,0,0
28,-461,0,0,0,0,0,0,0,0,0,-1,1252,1485,0,0
35,-461,0,0,0,0,0,0,0,0,0,-1,1259,1485,0,0
42,-461,0,0,0,0,0,0,0,0,0,-1,1266,1485,0,0
49,-461,0,0,0,0,0,0,0,0,0,-1,1273,1485,0,0
56,-461,0,0,0,0,0,0,0,0,0,-1,1280,1485,0,0
63,-461,0,0,0,0,0,0,0,0,0,-1,1287,1485,0,0
70,-461,0,0,0,0,0,0,0,0,0,-1,1294,1485,0,0
77,-461,0,0,0,0,0,0,0,0,0,-1,1301,1485,0,0
84,-461,0,0,0,0,0,0,0,0,0,-1,1308,1485,0,0
91,-461,0,0,0,0,0,0,0,0,0,-1,1315,1485,0,0
98,-461,0,0,0,0,0,0,0,0,0,-1,1322,1485,0,0
105,-461,0,0,0,0,0,0,0,0,0,-1,1329,1485,0,0
112,-461,0,0,0,0,0,0,0,0,0,-1,1336,1485,0,0
119,-461,0,0,0,0,0,0,0,0,0,-1,1343,1485,0,0
126,-461,0,0,0,0,0,0,0,0,0,-1,1350,1485,0,0
133,-461,0,0,0,0,0,0,0,0,0,-1,1357,1485,0,0
140,-461,0,0,0,0,0,0,0,0,0,-1,1364,1485,0,0
147,-461,0,0,0,0,0,0,0,0,0,-1,1371,1485,0,0
154,-461,0,0,0,0,0,0,0,0,0,-1,1378,1485,0,0
161,-461,0,0,0,0,0,0,0,0,0,-1,1385,1485,0,0
168,-461,0,0,0,0,0,0,0,0,0,-1,1392,1485,0,0
175,-461,0,0,0,0,0,0,0,0,0,-1,1399,1485,0,0
182,-461,0,0,0,0,0,0,0,0,0,-1,1406,1485,0,0
189,-461,0,0,0,0,0,0,0,0,0,-1,1413,1485,0,0
196,-461,0,0,0,0,0,0,0,0,0,-1,1420,1485,0,0
203,-461,0,0,0,0,0,0,0,0,0,-1,1427,1485,0,0
210,-461,0,0,0,0,0,0,0,0,0,-1,1434,1485,0,0
217,-461,0,0,0,0,0,0,0,0,0,-1,1441,1485,0,0
224,-461,0,0,0,0,0,0,0,0,0,-1,1448,1485,0,0
231,-461,0,0,0,0,0,0,0,0,0,-1,1455,1485,0,0
238,-461,0,0,0,0,0,0,0,0,0,-1,1462,1485,0,0
245,-461,0,0,0,0,0,0,0,0,0,-1,1469,1485,0,0
252,-461,0,0,0,0,0,0,0,0,0,-1,1476,1485,0,0
259,-461,0,0,0,0,0,0,0,0,0,-1,1483,1485,0,0
266,-461,0,0,0,0,0,0,0,0,0,-1,1490,1485,0,0
273,-461,0,0,0,0,0,0,0,0,0,-1,1497,1485,0,0
280,-461,0,0,0,0,0,0,0,0,0,-1,1504,1485,0,0
287,-461,0,0,0,0,0,0,0,0,0,-1,1511,1485,0,0
294,-461,0,0,0,0,0,0,0,0,0,-1,1518,1485,0,0
301,-461,0,0,0,0,0,0,0,0,0,-1,1525,1485,0,0
308,-461,0,0,0,0,0,0,0,0,0,-1,1532,1485,0,0
315,-461,0,0,0,0,0,0,0,0,0,-1,1539,1485,0,0
322,-461,0,0,0,0,0,0,0,0,0,-1,1546,1485,0,0
329,-461,0,0,0,0,0,0,0,0,0,-1,1553,1485,0,0
336,-461,0,0,0,0,0,0,0,0,0,-1,1560,1485,0,0
343,-461,0,0,0,0,0,0,0,0,0,-1,1567,1485,0,0
350,-461,0,0,0,0,0,0,0,0,0,-1,1574,1485,0,0
357,-461,0,0,0,0,0,0,0,0,0,-1,1581,1485,0,0
364,-461,0,0,0,0,0,0,0,0,0,-1,1588,1485,0,0
371,-461,0,0,0,0,0,0,0,0,0,-1,1595,1485,0,0
378,-461,0,0,0,0,0,0,0,0,0,-1,1602,1485,0,0
385,-461,0,0,0,0,0,0,0,0,0,-1,1609,1485,0,0
392,-461,0,0,0,0,0,0,0,0,0,-1,1616,1485,0,0
399,-461,0,0,0,0,0,0,0,0,0,-1,1623,1485,0,0
406,-461,0,0,0,0,0,0,0,0,0,-1,1630,1485,0,0
413,-461,0,0,0,0,0,0,0,0,0,-1,1637,1485,0,0
420,-461,0,0,0,0,0,0,0,0,0,-1,1644,1485,0,0
427,-461,0,0,0,0,0,0,0,0,0,-1,1651,1485,0,0
434,-461,0,0,0,0,0,0,0,0,0,-1,1658,1485,0,0
441,-461,0,0,0,0,0,0,0,0,0,-1,1665,1485,0,0
448,-461,0,0,0,0,0,0,0,0,0,-1,1672,1485,0,0
455,-461,0,0,0,0,0,0,0,0,0,-1,1679,1485,0,0
462,-461,0,0,0,0,0,0,0,0,0,-1,1686,1485,0,0
469,-461,0,0,0,0,0,0,0,0,0,-1,1693,1485,0,0
476,-461,14.1906,0.690552,0,0,0,0,0,0,0,-1,1700,1485,14.1906,-0.690525
483,-461,10.6361,3.09106,0,0,0,0,0,0,0,-1,1707,1485,10.6361,-3.091
490,-461,17.9972,0.665894,0,0,0,0,0,0,0,-1,1714,1485,17.9972,-0.665876
497,-461,16.6829,1.87732,0,0,0,0,0,0,0,-1,1721,1485,16.6828,-1.87736
504,-461,15.3884,3.09216,0,0,0,0,0,0,0,-1,1728,1485,15.3885,-3.09212
511,-461,15.4292,14.3512,0,0,0,0,0,0,0,-1,1735,1485,15.4292,-14.3512
518,-461,14.8081,10.0085,0,0,0,0,0,0,0,-1,1742,1485,14.8081,-10.0086
525,-461,14.0022,10.8033,0,0,0,0,0,0,0,-1,1749,1485,14.0022,-10.8033
532,-461,13.4508,11.2866,0,0,0,0,0,0,0,-1,1756,1485,13.4508,-11.2866
539,-461,12.6163,8.87024,0,0,0,0,0,0,0,-1,1763,1485,12.6163,-8.87027
546,-461,14.001,12.3237,0,0,0,0,0,0,0,-1,1770,1485,14.001,-12.3238
553,-461,13.8375,11.9948,0,0,0,0,0,0,0,-1,1777,1485,13.8375,-11.9948
560,-461,13.674,11.6658,0,0,0,0,0,0,0,-1,1784,1485,13.674,-11.6657
567,-461,13.6022,11.6277,-0.0148873,-0.0104609,0.0125024,2.26647e-05,-0.0253709,0.873002,0.0169215,0.0173253,1791,1485,13.6022,-11.6277
574,-461,13.6078,11.3893,-0.010835,-0.00781266,0.00907771,-0.0001212,-0.0185265,0.867877,0.0123108,0.0161364,1798,1485,13.6078,-11.3893
581,-461,13.6165,11.1123,-0.0077434,-0.00562832,0.00650883,-9.1678e-05,-0.01328,0.865933,0.00882296,0.0135305,1805,1485,13.6165,-11.1123
588,-461,13.5911,10.8539,-0.00518312,-0.00412365,0.00445198,-0.000170005,-0.00913677,0.844614,0.00603531,0.0107453,1812,1485,13.591,-10.8539
595,-461,13.5802,10.5862,-0.00315225,-0.00306425,0.00306017,-4.77605e-05,-0.00616874,0.792587,0.00409666,0.0083952,1819,1485,13.5803,-10.5862
602,-461,13.5806,10.2954,-0.00154889,-0.00241279,0.00212041,0.000183114,-0.0041448,0.684917,0.00282622,0.00864284,1826,1485,13.5805,-10.2954
609,-461,13.5868,10.0137,-0.000321465,-0.00203863,0.00144171,0.000497952,-0.00285804,0.516834,0.0020912,0.0109471,1833,1485,13.5867,-10.0136
616,-461,13.6033,9.74255,0.000720927,-0.00189715,0.000978002,0.00104592,-0.00222215,0.320826,0.00192713,0.0129921,1840,1485,13.6033,-9.74251
623,-461,13.5901,9.47742,0.00141361,-0.00168973,0.000935518,0.00167381,-0.00194993,0.271278,0.00209419,0.0125454,1847,1485,13.5901,-9.47745
630,-461,13.5679,9.20044,0.00190979,-0.00177647,0.0010265,0.00217636,-0.00204304,0.254074,0.00243648,0.012188,1854,1485,13.5679,-9.20047
637,-461,13.5798,8.93738,0.00203551,-0.00186538,0.00139927,0.00248552,-0.00231539,0.311158,0.00277239,0.01299,1861,1485,13.5799,-8.93732
644,-461,13.6357,8.69385,0.00166897,-0.0019876,0.00222209,0.00271824,-0.00303686,0.44116,0.00332441,0.0252414,1868,1485,13.6357,-8.69383
651,-461,13.734,8.3595,0,0,0,0,0,0,0,-1,1875,1485,13.734,-8.35945
658,-461,13.6812,7.97913,0,0,0,0,0,0,0,-1,1882,1485,13.6811,-7.97911
665,-461,14.019,7.49194,0,0,0,0,0,0,0,-1,1889,1485,14.0191,-7.492
672,-461,14.4877,6.89429,0,0,0,0,0,0,0,-1,1896,1485,14.4876,-6.89431
679,-461,10.0535,2.16321,0,0,0,0,0,0,0,-1,1903,1485,10.0535,-2.16317
686,-461,10.8195,1.84192,0,0,0,0,0,0,0,-1,1910,1485,10.8194,-1.84195
693,-461,0,0,0,0,0,0,0,0,0,-1,1917,1485,0,0
700,-461,0,0,0,0,0,0,0,0,0,-1,1924,1485,0,0
707,-461,0,0,0,0,0,0,0,0,0,-1,1931,1485,0,0
714,-461,0,0,0,0,0,0,0,0,0,-1,1938,1485,0,0
721,-461,0,0,0,0,0,0,0,0,0,-1,1945,1485,0,0
728,-461,0,0,0,0,0,0,0,0,0,-1,1952,1485,0,0
735,-461,0,0,0,0,0,0,0,0,0,-1,1959,1485,0,0
742,-461,0,0,0,0,0,0,0,0,0,-1,1966,1485,0,0
749,-461,0,0,0,0,0,0,0,0,0,-1,1973,1485,0,0
756,-461,0,0,0,0,0,0,0,0,0,-1,1980,1485,0,0
763,-461,0,0,0,0,0,0,0,0,0,-1,1987,1485,0,0
770,-461,0,0,0,0,0,0,0,0,0,-1,1994,1485,0,0
777,-461,0,0,0,0,0,0,0,0,0,-1,2001,1485,0,0
784,-461,0,0,0,0,0,0,0,0,0,-1,2008,1485,0,0
791,-461,0,0,0,0,0,0,0,0,0,-1,2015,1485,0,0
798,-461,0,0,0,0,0,0,0,0,0,-1,2022,1485,0,0
805,-461,0,0,0,0,0,0,0,0,0,-1,2029,1485,0,0
812,-461,0,0,0,0,0,0,0,0,0,-1,2036,1485,0,0
-700,-468,0,0,0,0,0,0,0,0,0,-1,524,1492,0,0
-693,-468,0,0,0,0,0,0,0,0,0,-1,531,1492,0,0
-686,-468,0,0,0,0,0,0,0,0,0,-1,538,1492,0,0
-679,-468,0,0,0,0,0,0,0,0,0,-1,545,1492,0,0
-672,-468,0,0,0,0,0,0,0,0,0,-1,552,1492,0,0
-665,-468,0,0,0,0,0,0,0,0,0,-1,559,1492,0,0
-658,-468,0,0,0,0,0,0,0,0,0,-1,566,1492,0,0
-651,-468,0,0,0,0,0,0,0,0,0,-1,573,1492,0,0
-644,-468,0,0,0,0,0,0,0,0,0,-1,580,1492,0,0
-637,-468,0,0,0,0,0,0,0,0,0,-1,587,1492,0,0
-630,-468,0,0,0,0,0,0,0,0,0,-1,594,1492,0,0
-623,-468,0,0,0,0,0,0,0,0,0,-1,601,1492,0,0
-616,-468,0,0,0,0,0,0,0,0,0,-1,608,1492,0,0
-609,-468,0,0,0,0,0,0,0,0,0,-1,615,1492,0,0
-602,-468,0,0,0,0,0,0,0,0,0,-1,622,1492,0,0
-595,-468,0,0,0,0,0,0,0,0,0,-1,629,1492,0,0
-588,-468,0,0,0,0,0,0,0,0,0,-1,636,1492,0,0
-581,-468,0,0,0,0,0,0,0,0,0,-1,643,1492,0,0
-574,-468,0,0,0,0,0,0,0,0,0,-1,650,1492,0,0
-567,-468,-11.2603,1.8042,0,0,0,0,0,0,0,-1,657,1492,-11.2603,-1.80424
-560,-468,-8.77441,2.23694,0,0,0,0,0,0,0,-1,664,1492,-8.77443,-2.23692
-553,-468,-5.94061,9.26318,0,0,0,0,0,0,0,-1,671,1492,-5.94062,-9.26322
-546,-468,-4.7998,1.08606,0,0,0,0,0,0,0,-1,678,1492,-4.79979,-1.08604
-539,-468,-5.58142,3.7937,0,0,0,0,0,0,0,-1,685,1492,-5.5814,-3.79369
-532,-468,-3.73224,4.83423,0,0,0,0,0,0,0,-1,692,1492,-3.73224,-4.83425
-525,-468,-3.30774,5.06726,0,0,0,0,0,0,0,-1,699,1492,-3.30773,-5.06726
-518,-468,-3.48047,6.43689,0.0240438,0.00208349,0.0222167,0.0378456,-0.0117183,0.555887,0.0299117,0.0447225,706,1492,-3.48045,-6.43687
-511,-468,-3.0954,6.77722,0.0194135,0.00023599,0.0159948,0.0284735,-0.00882404,0.515375,0.0225078,0.0371381,713,1492,-3.09541,-6.77721
-504,-468,-3.12946,7.14368,0.0153096,-0.000883783,0.0112231,0.0210518,-0.00662596,0.472916,0.0166876,0.0184976,720,1492,-3.12943,-7.14365
-497,-468,-3.17059,7.4397,0.0118103,-0.00146509,0.00757746,0.0152462,-0.00490096,0.425706,0.0121324,0.0102296,727,1492,-3.17061,-7.43964
-490,-468,-3.17047,7.75635,0.00890791,-0.0019771,0.00472198,0.0106708,-0.00374001,0.357315,0.00863489,0.00787184,734,1492,-3.17049,-7.7564
-483,-468,-3.19354,8.05847,0.00656482,-0.00247771,0.00249233,0.00720626,-0.00311915,0.2519,0.00611507,0.00822398,741,1492,-3.19356,-8.05845
-476,-468,-3.19458,8.36694,0.00452869,-0.00310884,0.000605817,0.00457645,-0.0031566,0.0786655,0.00448969,0.00904582,748,1492,-3.19458,-8.36689
-469,-468,-3.19336,8.66895,0.00293909,-0.0041083,-0.00117347,0.00312935,-0.00429856,-0.160735,0.00430618,0.0131111,755,1492,-3.19338,-8.66895
-462,-468,-3.19299,8.92297,0.00189034,-0.00480187,-0.00247539,0.00270644,-0.00561798,-0.318465,0.00490312,0.0219091,762,1492,-3.19302,-8.92292
-455,-468,-3.20172,9.21045,0.00119213,-0.00585521,-0.00350411,0.00263787,-0.00730095,-0.391307,0.00594498,0.0224148,769,1492,-3.2017,-9.21045
-448,-468,-3.19946,9.57092,0.000870743,-0.00722591,-0.00452464,0.00289377,-0.00924894,-0.420451,0.00732366,0.0140421,776,1492,-3.19949,-9.57088
-441,-468,-3.20282,9.88013,0.00101215,-0.00896634,-0.00558932,0.00351511,-0.0114693,-0.421031,0.00904843,0.0119773,783,1492,-3.20284,-9.88008
-434,-468,-3.17542,10.1997,0.00138549,-0.011245,-0.00708535,0.00456153,-0.0144211,-0.421401,0.0114418,0.0121785,790,1492,-3.17543,-10.1997
-427,-468,-3.11847,10.4806,0.00172116,-0.0141061,-0.00898787,0.00578282,-0.0181677,-0.424436,0.014431,0.0191377,797,1492,-3.11847,-10.4806
-420,-468,-3.07092,10.6842,0.00196668,-0.0171821,-0.0111224,0.00706801,-0.0222834,-0.430027,0.0176887,0.034162,804,1492,-3.07095,-10.6843
-413,-468,-2.79944,10.5322,0,0,0,0,0,0,0,-1,811,1492,-2.79945,-10.5322
-406,-468,-2.2356,9.396,0,0,0,0,0,0,0,-1,818,1492,-2.2356,-9.396
-399,-468,-0.940369,8.1936,0,0,0,0,0,0,0,-1,825,1492,-0.940365,-8.19357
-392,-468,-0.35144,8.14673,0,0,0,0,0,0,0,-1,832,1492,-0.351449,-8.14674
-385,-468,0.465759,5.35864,0,0,0,0,0,0,0,-1,839,1492,0.465732,-5.35864
-378,-468,1.99835,3.25391,0,0,0,0,0,0,0,-1,846,1492,1.99837,-3.2539
-371,-468,-0.31842,3.1532,0,0,0,0,0,0,0,-1,853,1492,-0.318441,-3.15324
-364,-468,-0.966736,2.14563,0,0,0,0,0,0,0,-1,860,1492,-0.966735,-2.14557
-357,-468,-3.06787,3.22742,0,0,0,0,0,0,0,-1,867,1492,-3.06784,-3.2274
-350,-468,-3.18658,4.12659,0,0,0,0,0,0,0,-1,874,1492,-3.18659,-4.12658
-343,-468,0,0,0,0,0,0,0,0,0,-1,881,1492,0,0
-336,-468,0,0,0,0,0,0,0,0,0,-1,888,1492,0,0
-329,-468,0,0,0,0,0,0,0,0,0,-1,895,1492,0,0
-322,-468,0,0,0,0,0,0,0,0,0,-1,902,1492,0,0
-315,-468,0,0,0,0,0,0,0,0,0,-1,909,1492,0,0
-308,-468,0,0,0,0,0,0,0,0,0,-1,916,1492,0,0
-301,-468,0,0,0,0,0,0,0,0,0,-1,923,1492,0,0
-294,-468,0,0,0,0,0,0,0,0,0,-1,930,1492,0,0
-287,-468,0,0,0,0,0,0,0,0,0,-1,937,1492,0,0
-280,-468,0,0,0,0,0,0,0,0,0,-1,944,1492,0,0
-273,-468,0,0,0,0,0,0,0,0,0,-1,951,1492,0,0
-266,-468,0,0,0,0,0,0,0,0,0,-1,958,1492,0,0
-259,-468,0,0,0,0,0,0,0,0,0,-1,965,1492,0,0
-252,-468,0,0,0,0,0,0,0,0,0,-1,972,1492,0,0
-245,-468,0,0,0,0,0,0,0,0,0,-1,979,1492,0,0
-238,-468,0,0,0,0,0,0,0,0,0,-1,986,1492,0,0
-231,-468,0,0,0,0,0,0,0,0,0,-1,993,1492,0,0
-224,-468,0,0,0,0,0,0,0,0,0,-1,1000,1492,0,0
-217,-468,0,0,0,0,0,0,0,0,0,-1,1007,1492,0,0
-210,-468,0,0,0,0,0,0,0,0,0,-1,1014,1492,0,0
-203,-468,0,0,0,0,0,0,0,0,0,-1,1021,1492,0,0
-196,-468,0,0,0,0,0,0,0,0,0,-1,1028,1492,0,0
-189,-468,0,0,0,0,0,0,0,0,0,-1,1035,1492,0,0
-182,-468,0,0,0,0,0,0,0,0,0,-1,1042,1492,0,0
-175,-468,0,0,0,0,0,0,0,0,0,-1,1049,1492,0,0
-168,-468,0,0,0,0,0,0,0,0,0,-1,1056,1492,0,0
-161,-468,0,0,0,0,0,0,0,0,0,-1,1063,1492,0,0
-154,-468,0,0,0,0,0,0,0,0,0,-1,1070,1492,0,0
-147,-468,0,0,0,0,0,0,0,0,0,-1,1077,1492,0,0
-140,-468,0,0,0,0,0,0,0,0,0,-1,1084,1492,0,0
-133,-468,0,0,0,0,0,0,0,0,0,-1,1091,1492,0,0
-126,-468,0,0,0,0,0,0,0,0,0,-1,1098,1492,0,0
-119,-468,0,0,0,0,0,0,0,0,0,-1,1105,1492,0,0
-112,-468,0,0,0,0,0,0,0,0,0,-1,1112,1492,0,0
-105,-468,0,0,0,0,0,0,0,0,0,-1,1119,1492,0,0
-98,-468,0,0,0,0,0,0,0,0,0,-1,1126,1492,0,0
-91,-468,0,0,0,0,0,0,0,0,0,-1,1133,1492,0,0
-84,-468,0,0,0,0,0,0,0,0,0,-1,1140,1492,0,0
-77,-468,0,0,0,0,0,0,0,0,0,-1,1147,1492,0,0
-70,-468,0,0,0,0,0,0,0,0,0,-1,1154,1492,0,0
-63,-468,0,0,0,0,0,0,0,0,0,-1,1161,1492,0,0
-56,-468,0,0,0,0,0,0,0,0,0,-1,1168,1492,0,0
-49,-468,0,0,0,0,0,0,0,0,0,-1,1175,1492,0,0
-42,-468,0,0,0,0,0,0,0,0,0,-1,1182,1492,0,0
-35,-468,0,0,0,0,0,0,0,0,0,-1,1189,1492,0,0
-28,-468,0,0,0,0,0,0,0,0,0,-1,1196,1492,0,0
-21,-468,0,0,0,0,0,0,0,0,0,-1,1203,1492,0,0
-14,-468,0,0,0,0,0,0,0,0,0,-1,1210,1492,0,0
-7,-468,0,0,0,0,0,0,0,0,0,-1,1217,1492,0,0
0,-468,0,0,0,0,0,0,0,0,0,-1,1224,1492,0,0
7,-468,0,0,0,0,0,0,0,0,0,-1,1231,1492,0,0
14,-468,0,0,0,0,0,0,0,0,0,-1,1238,1492,0,0
21,-468,0,0,0,0,0,0,0,0,0,-1,1245,1492,0,0
28,-468,0,0,0,0,0,0,0,0,0,-1,1252,1492,0,0
35,-468,0,0,0,0,0,0,0,0,0,-1,1259,1492,0,0
42,-468,0,0,0,0,0,0,0,0,0,-1,1266,1492,0,0
49,-468,0,0,0,0,0,0,0,0,0,-1,1273,1492,0,0
56,-468,0,0,0,0,0,0,0,0,0,-1,1280,1492,0,0
63,-468,0,0,0,0,0,0,0,0,0,-1,1287,1492,0,0
70,-468,0,0,0,0,0,0,0,0,0,-1,1294,1492,0,0
77,-468,0,0,0,0,0,0,0,0,0,-1,1301,1492,0,0
84,-468,0,0,0,0,0,0,0,0,0,-1,1308,1492,0,0
91,-468,0,0,0,0,0,0,0,0,0,-1,1315,1492,0,0
98,-468,0,0,0,0,0,0,0,0,0,-1,1322,1492,0,0
105,-468,0,0,0,0,0,0,0,0,0,-1,1329,1492,0,0
112,-468,0,0,0,0,0,0,0,0,0,-1,1336,1492,0,0
119,-468,0,0,0,0,0,0,0,0,0,-1,1343,1492,0,0
126,-468,0,0,0,0,0,0,0,0,0,-1,1350,1492,0,0
133,-468,0,0,0,0,0,0,0,0,0,-1,1357,1492,0,0
140,-468,0,0,0,0,0,0,0,0,0,-1,1364,1492,0,0
147,-468,0,0,0,0,0,0,0,0,0,-1,1371,1492,0,0
154,-468,0,0,0,0,0,0,0,0,0,-1,1378,1492,0,0
161,-468,0,0,0,0,0,0,0,0,0,-1,1385,1492,0,0
168,-468,0,0,0,0,0,0,0,0,0,-1,1392,1492,0,0
175,-468,0,0,0,0,0,0,0,0,0,-1,1399,1492,0,0
182,-468,0,0,0,0,0,0,0,0,0,-1,1406,1492,0,0
189,-468,0,0,0,0,0,0,0,0,0,-1,1413,1492,0,0
196,-468,0,0,0,0,0,0,0,0,0,-1,1420,1492,0,0
203,-468,0,0,0,0,0,0,0,0,0,-1,1427,1492,0,0
210,-468,0,0,0,0,0,0,0,0,0,-1,1434,1492,0,0
217,-468,0,0,0,0,0,0,0,0,0,-1,1441,1492,0,0
224,-468,0,0,0,0,0,0,0,0,0,-1,1448,1492,0,0
231,-468,0,0,0,0,0,0,0,0,0,-1,1455,1492,0,0
238,-468,0,0,0,0,0,0,0,0,0,-1,1462,1492,0,0
245,-468,0,0,0,0,0,0,0,0,0,-1,1469,1492,0,0
252,-468,0,0,0,0,0,0,0,0,0,-1,1476,1492,0,0
259,-468,0,0,0,0,0,0,0,0,0,-1,1483,1492,0,0
266,-468,0,0,0,0,0,0,0,0,0,-1,1490,1492,0,0
273,-468,0,0,0,0,0,0,0,0,0,-1,1497,1492,0,0
280,-468,0,0,0,0,0,0,0,0,0,-1,1504,1492,0,0
287,-468,0,0,0,0,0,0,0,0,0,-1,1511,1492,0,0
294,-468,0,0,0,0,0,0,0,0,0,-1,1518,1492,0,0
301,-468,0,0,0,0,0,0,0,0,0,-1,1525,1492,0,0
308,-468,0,0,0,0,0,0,0,0,0,-1,1532,1492,0,0
315,-468,0,0,0,0,0,0,0,0,0,-1,1539,1492,0,0
322,-468,0,0,0,0,0,0,0,0,0,-1,1546,1492,0,0
329,-468,0,0,0,0,0,0,0,0,0,-1,1553,1492,0,0
336,-468,0,0,0,0,0,0,0,0,0,-1,1560,1492,0,0
343,-468,0,0,0,0,0,0,0,0,0,-1,1567,1492,0,0
350,-468,0,0,0,0,0,0,0,0,0,-1,1574,1492,0,0
357,-468,0,0,0,0,0,0,0,0,0,-1,1581,1492,0,0
364,-468,0,0,0,0,0,0,0,0,0,-1,1588,1492,0,0
371,-468,0,0,0,0,0,0,0,0,0,-1,1595,1492,0,0
378,-468,0,0,0,0,0,0,0,0,0,-1,1602,1492,0,0
385,-468,0,0,0,0,0,0,0,0,0,-1,1609,1492,0,0
392,-468,0,0,0,0,0,0,0,0,0,-1,1616,1492,0,0
399,-468,0,0,0,0,0,0,0,0,0,-1,1623,1492,0,0
406,-468,0,0,0,0,0,0,0,0,0,-1,1630,1492,0,0
413,-468,0,0,0,0,0,0,0,0,0,-1,1637,1492,0,0
420,-468,0,0,0,0,0,0,0,0,0,-1,1644,1492,0,0
427,-468,0,0,0,0,0,0,0,0,0,-1,1651,1492,0,0
434,-468,0,0,0,0,0,0,0,0,0,-1,1658,1492,0,0
441,-468,0,0,0,0,0,0,0,0,0,-1,1665,1492,0,0
448,-468,0,0,0,0,0,0,0,0,0,-1,1672,1492,0,0
455,-468,0,0,0,0,0,0,0,0,0,-1,1679,1492,0,0
462,-468,0,0,0,0,0,0,0,0,0,-1,1686,1492,0,0
469,-468,15.6879,1.2677,0,0,0,0,0,0,0,-1,1693,1492,15.6879,-1.26772
476,-468,14.9318,1.61865,0,0,0,0,0,0,0,-1,1700,1492,14.9318,-1.61869
483,-468,11.265,4.64795,0,0,0,0,0,0,0,-1,1707,1492,11.265,-4.64798
490,-468,12.1316,3.51624,0,0,0,0,0,0,0,-1,1714,1492,12.1316,-3.51628
497,-468,16.5355,3.14587,0,0,0,0,0,0,0,-1,1721,1492,16.5356,-3.14583
504,-468,15.0642,4.10437,0,0,0,0,0,0,0,-1,1728,1492,15.0643,-4.10431
511,-468,15.6877,9.4801,0,0,0,0,0,0,0,-1,1735,1492,15.6878,-9.48007
518,-468,13.759,11.0887,0,0,0,0,0,0,0,-1,1742,1492,13.759,-11.0887
525,-468,13.2682,11.7788,0,0,0,0,0,0,0,-1,1749,1492,13.2682,-11.7788
532,-468,13.1167,11.2247,0,0,0,0,0,0,0,-1,1756,1492,13.1166,-11.2247
539,-468,13.6881,12.4468,0,0,0,0,0,0,0,-1,1763,1492,13.6881,-12.4467
546,-468,13.5725,12.2416,0,0,0,0,0,0,0,-1,1770,1492,13.5725,-12.2415
553,-468,13.5005,12.0399,-0.0124611,-0.0125174,0.0120086,-0.000480578,-0.0244979,0.784227,0.0161741,0.0381241,1777,1492,13.5005,-12.04
560,-468,13.3351,11.9006,-0.00959223,-0.00938642,0.00900007,-0.000488666,-0.01849,0.791115,0.012167,0.0238128,1784,1492,13.3351,-11.9007
567,-468,13.3092,11.681,-0.00706006,-0.00686754,0.0066258,-0.000337302,-0.0135903,0.792662,0.00894989,0.0149497,1791,1492,13.3092,-11.681
574,-468,13.3335,11.3949,-0.00507316,-0.00504574,0.00485476,-0.000204674,-0.00991423,0.78681,0.00654233,0.0138283,1798,1492,13.3335,-11.3949
581,-468,13.3359,11.1255,-0.00338987,-0.00348836,0.00342039,-1.83713e-05,-0.00685985,0.7782,0.00456712,0.0141084,1805,1492,13.3359,-11.1255
588,-468,13.3186,10.8551,-0.00192953,-0.00253786,0.00232297,0.000109104,-0.0045765,0.7203,0.00308801,0.0122776,1812,1492,13.3186,-10.8552
595,-468,13.3212,10.5869,-0.000546807,-0.00197311,0.0014919,0.000393627,-0.00291355,0.562445,0.00208599,0.0100071,1819,1492,13.3212,-10.5869
602,-468,13.3156,10.2974,0.000664429,-0.00172133,0.000932532,0.000985675,-0.00204258,0.331756,0.00178351,0.00850734,1826,1492,13.3156,-10.2974
609,-468,13.2961,10.0132,0.00172999,-0.00162009,0.000486765,0.00179928,-0.00168939,0.141405,0.00201452,0.00945281,1833,1492,13.2962,-10.0132
616,-468,13.2965,9.74902,0.00262933,-0.00177564,0.000269206,0.00264572,-0.00179203,0.0608126,0.00257789,0.00996297,1840,1492,13.2965,-9.74899
623,-468,13.2892,9.479,0.00317555,-0.00190052,0.000477428,0.00322007,-0.00194504,0.0929681,0.00301221,0.0104905,1847,1492,13.2892,-9.47906
630,-468,13.2998,9.19043,0.00352636,-0.00232124,0.000820033,0.00363918,-0.00243406,0.136721,0.00352933,0.0111047,1854,1492,13.2998,-9.19044
637,-468,13.3279,8.90796,0.00352602,-0.00277961,0.00145378,0.00384505,-0.00309864,0.216025,0.00401665,0.014449,1861,1492,13.3279,-8.90795
644,-468,13.3929,8.71619,0.00299679,-0.00330241,0.00256276,0.0039077,-0.00421332,0.341513,0.00468978,0.0383789,1868,1492,13.3929,-8.71619
651,-468,13.5466,8.38037,0,0,0,0,0,0,0,-1,1875,1492,13.5466,-8.38035
658,-468,13.5552,8.6167,0,0,0,0,0,0,0,-1,1882,1492,13.5552,-8.61672
665,-468,13.9539,8.24646,0,0,0,0,0,0,0,-1,1889,1492,13.9539,-8.24641
672,-468,9.96814,3.61133,0,0,0,0,0,0,0,-1,1896,1492,9.96817,-3.61139
679,-468,11.2191,1.91968,0,0,0,0,0,0,0,-1,1903,1492,11.2191,-1.91965
686,-468,11.9252,1.42285,0,0,0,0,0,0,0,-1,1910,1492,11.9252,-1.42291
693,-468,0,0,0,0,0,0,0,0,0,-1,1917,1492,0,0
700,-468,0,0,0,0,0,0,0,0,0,-1,1924,1492,0,0
707,-468,0,0,0,0,0,0,0,0,0,-1,1931,1492,0,0
714,-468,0,0,0,0,0,0,0,0,0,-1,1938,1492,0,0
721,-468,0,0,0,0,0,0,0,0,0,-1,1945,1492,0,0
728,-468,0,0,0,0,0,0,0,0,0,-1,1952,1492,0,0
735,-468,0,0,0,0,0,0,0,0,0,-1,1959,1492,0,0
742,-468,0,0,0,0,0,0,0,0,0,-1,1966,1492,0,0
749,-468,0,0,0,0,0,0,0,0,0,-1,1973,1492,0,0
756,-468,0,0,0,0,0,0,0,0,0,-1,1980,1492,0,0
763,-468,0,0,0,0,0,0,0,0,0,-1,1987,1492,0,0
770,-468,0,0,0,0,0,0,0,0,0,-1,1994,1492,0,0
777,-468,0,0,0,0,0,0,0,0,0,-1,2001,1492,0,0
784,-468,0,0,0,0,0,0,0,0,0,-1,2008,1492,0,0
791,-468,0,0,0,0,0,0,0,0,0,-1,2015,1492,0,0
798,-468,0,0,0,0,0,0,0,0,0,-1,2022,1492,0,0
805,-468,0,0,0,0,0,0,0,0,0,-1,2029,1492,0,0
812,-468,0,0,0,0,0,0,0,0,0,-1,2036,1492,0,0
-700,-475,0,0,0,0,0,0,0,0,0,-1,524,1499,0,0
-693,-475,0,0,0,0,0,0,0,0,0,-1,531,1499,0,0
-686,-475,0,0,0,0,0,0,0,0,0,-1,538,1499,0,0
-679,-475,0,0,0,0,0,0,0,0,0,-1,545,1499,0,0
-672,-475,0,0,0,0,0,0,0,0,0,-1,552,1499,0,0
-665,-475,0,0,0,0,0,0,0,0,0,-1,559,1499,0,0
-658,-475,0,0,0,0,0,0,0,0,0,-1,566,1499,0,0
-651,-475,0,0,0,0,0,0,0,0,0,-1,573,1499,0,0
-644,-475,0,0,0,0,0,0,0,0,0,-1,580,1499,0,0
-637,-475,0,0,0,0,0,0,0,0,0,-1,587,1499,0,0
-630,-475,0,0,0,0,0,0,0,0,0,-1,594,1499,0,0
-623,-475,0,0,0,0,0,0,0,0,0,-1,601,1499,0,0
-616,-475,0,0,0,0,0,0,0,0,0,-1,608,1499,0,0
-609,-475,0,0,0,0,0,0,0,0,0,-1,615,1499,0,0
-602,-475,0,0,0,0,0,0,0,0,0,-1,622,1499,0,0
-595,-475,0,0,0,0,0,0,0,0,0,-1,629,1499,0,0
-588,-475,0,0,0,0,0,0,0,0,0,-1,636,1499,0,0
-581,-475,0,0,0,0,0,0,0,0,0,-1,643,1499,0,0
-574,-475,0,0,0,0,0,0,0,0,0,-1,650,1499,0,0
-567,-475,0,0,0,0,0,0,0,0,0,-1,657,1499,0,0
-560,-475,-9.42731,9.29517,0,0,0,0,0,0,0,-1,664,1499,-9.42731,-9.29519
-553,-475,-8.15131,8.78369,0,0,0,0,0,0,0,-1,671,1499,-8.15131,-8.78367
-546,-475,-8.41254,8.20654,0,0,0,0,0,0,0,-1,678,1499,-8.41251,-8.20655
-539,-475,-5.38885,5.06653,0,0,0,0,0,0,0,-1,685,1499,-5.38888,-5.06656
-532,-475,-3.76642,5.16052,0,0,0,0,0,0,0,-1,692,1499,-3.76639,-5.16047
-525,-475,-3.67798,5.95886,0.037694,0.00541905,0.03865,0.0634402,-0.0203271,0.587636,0.0504531,0.0440904,699,1499,-3.67795,-5.95881
-518,-475,-3.62256,6.59729,0.0308533,0.00157836,0.0280225,0.0478309,-0.0153993,0.544716,0.038073,0.0486395,706,1499,-3.62255,-6.59735
-511,-475,-3.38806,6.91772,0.0246045,-0.000819006,0.0197092,0.0353457,-0.0115602,0.498984,0.0282179,0.0482066,713,1499,-3.38809,-6.9177
-504,-475,-2.87549,7.24365,0.0190898,-0.00212327,0.0134763,0.0256329,-0.00866635,0.452,0.0205945,0.028863,720,1499,-2.87552,-7.24362
-497,-475,-2.86792,7.49011,0.0145,-0.00262277,0.00890191,0.0182894,-0.00641214,0.402447,0.0148008,0.0165151,727,1499,-2.8679,-7.49009
-490,-475,-2.87256,7.75562,0.0107794,-0.00275973,0.00553984,0.0127572,-0.00473756,0.342915,0.0104484,0.00874474,734,1499,-2.87258,-7.75557
-483,-475,-2.88391,8.08887,0.00786307,-0.00287478,0.0031021,0.00869482,-0.00370654,0.261964,0.00735047,0.00889129,741,1499,-2.8839,-8.08887
-476,-475,-2.87085,8.3877,0.00548438,-0.00308936,0.00122126,0.00565495,-0.00325992,0.138766,0.00520855,0.0104564,748,1499,-2.87088,-8.38776
-469,-475,-2.86176,8.68933,0.00367885,-0.00369512,-0.000525904,0.00371617,-0.00373243,-0.0708411,0.00430046,0.0120769,755,1499,-2.86174,-8.68936
-462,-475,-2.85028,8.96631,0.00249595,-0.00394818,-0.00168253,0.0029088,-0.00436103,-0.24062,0.00422506,0.0161405,762,1499,-2.85028,-8.96631
-455,-475,-2.88129,9.25244,0.00177732,-0.00452047,-0.00244875,0.0026174,-0.00536055,-0.330483,0.00469596,0.0145313,769,1499,-2.88126,-9.25248
-448,-475,-2.90393,9.57654,0.00148568,-0.00536291,-0.00314079,0.00270793,-0.00658516,-0.371121,0.00551883,0.0131366,776,1499,-2.90396,-9.5766
-441,-475,-2.90619,9.90356,0.00169269,-0.0064274,-0.0038096,0.00320014,-0.00793485,-0.376792,0.00661968,0.0169765,783,1499,-2.90619,-9.90361
-434,-475,-2.90723,10.1672,0.00224488,-0.0079544,-0.00473389,0.00410341,-0.00981293,-0.374111,0.00825693,0.0109875,790,1499,-2.90725,-10.1672
-427,-475,-2.86774,10.5127,0.0028851,-0.0100177,-0.00597367,0.00522605,-0.0123586,-0.373485,0.0104272,0.0159573,797,1499,-2.86777,-10.5126
-420,-475,-2.79175,10.7811,0.00349259,-0.0122261,-0.00732278,0.00637533,-0.0151089,-0.375035,0.012741,0.026993,804,1499,-2.79173,-10.7812
-413,-475,-2.67914,10.7994,0.00420126,-0.0147469,-0.00878886,0.00765012,-0.0181957,-0.373949,0.0153306,0.048121,811,1499,-2.67914,-10.7994
-406,-475,-2.38239,11.0175,0,0,0,0,0,0,0,-1,818,1499,-2.3824,-11.0174
-399,-475,-1.39667,6.1615,0,0,0,0,0,0,0,-1,825,1499,-1.39664,-6.16155
-392,-475,0.217163,8.61389,0,0,0,0,0,0,0,-1,832,1499,0.217167,-8.6139
-385,-475,1.18372,2.73999,0,0,0,0,0,0,0,-1,839,1499,1.18372,-2.73995
-378,-475,1.31409,2.90149,0,0,0,0,0,0,0,-1,846,1499,1.31411,-2.90151
-371,-475,2.3476,3.31116,0,0,0,0,0,0,0,-1,853,1499,2.34761,-3.31121
-364,-475,1.04462,9.05823,0,0,0,0,0,0,0,-1,860,1499,1.04461,-9.05825
-357,-475,-0.262756,7.97205,0,0,0,0,0,0,0,-1,867,1499,-0.262784,-7.97205
-350,-475,-2.77173,4.35486,0,0,0,0,0,0,0,-1,874,1499,-2.77175,-4.35491
-343,-475,-6.81641,-1.95203,0,0,0,0,0,0,0,-1,881,1499,-6.81643,1.95198
-336,-475,0,0,0,0,0,0,0,0,0,-1,888,1499,0,0
-329,-475,0,0,0,0,0,0,0,0,0,-1,895,1499,0,0
-322,-475,0,0,0,0,0,0,0,0,0,-1,902,1499,0,0
-315,-475,0,0,0,0,0,0,0,0,0,-1,909,1499,0,0
-308,-475,0,0,0,0,0,0,0,0,0,-1,916,1499,0,0
-301,-475,0,0,0,0,0,0,0,0,0,-1,923,1499,0,0
-294,-475,0,0,0,0,0,0,0,0,0,-1,930,1499,0,0
-287,-475,0,0,0,0,0,0,0,0,0,-1,937,1499,0,0
-280,-475,0,0,0,0,0,0,0,0,0,-1,944,1499,0,0
-273,-475,0,0,0,0,0,0,0,0,0,-1,951,1499,0,0
-266,-475,0,0,0,0,0,0,0,0,0,-1,958,1499,0,0
-259,-475,0,0,0,0,0,0,0,0,0,-1,965,1499,0,0
-252,-475,0,0,0,0,0,0,0,0,0,-1,972,1499,0,0
-245,-475,0,0,0,0,0,0,0,0,0,-1,979,1499,0,0
-238,-475,0,0,0,0,0,0,0,0,0,-1,986,1499,0,0
-231,-475,0,0,0,0,0,0,0,0,0,-1,993,1499,0,0
-224,-475,0,0,0,0,0,0,0,0,0,-1,1000,1499,0,0
-217,-475,0,0,0,0,0,0,0,0,0,-1,1007,1499,0,0
-210,-475,0,0,0,0,0,0,0,0,0,-1,1014,1499,0,0
-203,-475,0,0,0,0,0,0,0,0,0,-1,1021,1499,0,0
-196,-475,0,0,0,0,0,0,0,0,0,-1,1028,1499,0,0
-189,-475,0,0,0,0,0,0,0,0,0,-1,1035,1499,0,0
-182,-475,0,0,0,0,0,0,0,0,0,-1,1042,1499,0,0
-175,-475,0,0,0,0,0,0,0,0,0,-1,1049,1499,0,0
-168,-475,0,0,0,0,0,0,0,0,0,-1,1056,1499,0,0
-161,-475,0,0,0,0,0,0,0,0,0,-1,1063,1499,0,0
-154,-475,0,0,0,0,0,0,0,0,0,-1,1070,1499,0,0
-147,-475,0,0,0,0,0,0,0,0,0,-1,1077,1499,0,0
-140,-475,0,0,0,0,0,0,0,0,0,-1,1084,1499,0,0
-133,-475,0,0,0,0,0,0,0,0,0,-1,1091,1499,0,0
-126,-475,0,0,0,0,0,0,0,0,0,-1,1098,1499,0,0
-119,-475,0,0,0,0,0,0,0,0,0,-1,1105,1499,0,0
-112,-475,0,0,0,0,0,0,0,0,0,-1,1112,1499,0,0
-105,-475,0,0,0,0,0,0,0,0,0,-1,1119,1499,0,0
-98,-475,0,0,0,0,0,0,0,0,0,-1,1126,1499,0,0
-91,-475,0,0,0,0,0,0,0,0,0,-1,1133,1499,0,0
-84,-475,0,0,0,0,0,0,0,0,0,-1,1140,1499,0,0
-77,-475,0,0,0,0,0,0,0,0,0,-1,1147,1499,0,0
-70,-475,0,0,0,0,0,0,0,0,0,-1,1154,1499,0,0
-63,-475,0,0,0,0,0,0,0,0,0,-1,1161,1499,0,0
-56,-475,0,0,0,0,0,0,0,0,0,-1,1168,1499,0,0
-49,-475,0,0,0,0,0,0,0,0,0,-1,1175,1499,0,0
-42,-475,0,0,0,0,0,0,0,0,0,-1,1182,1499,0,0
-35,-475,0,0,0,0,0,0,0,0,0,-1,1189,1499,0,0
-28,-475,0,0,0,0,0,0,0,0,0,-1,1196,1499,0,0
-21,-475,0,0,0,0,0,0,0,0,0,-1,1203,1499,0,0
-14,-475,0,0,0,0,0,0,0,0,0,-1,1210,1499,0,0
-7,-475,0,0,0,0,0,0,0,0,0,-1,1217,1499,0,0
0,-475,0,0,0,0,0,0,0,0,0,-1,1224,1499,0,0
7,-475,0,0,0,0,0,0,0,0,0,-1,1231,1499,0,0
14,-475,0,0,0,0,0,0,0,0,0,-1,1238,1499,0,0
21,-475,0,0,0,0,0,0,0,0,0,-1,1245,1499,0,0
28,-475,0,0,0,0,0,0,0,0,0,-1,1252,1499,0,0
35,-475,0,0,0,0,0,0,0,0,0,-1,1259,1499,0,0
42,-475,0,0,0,0,0,0,0,0,0,-1,1266,1499,0,0
49,-475,0,0,0,0,0,0,0,0,0,-1,1273,1499,0,0
56,-475,0,0,0,0,0,0,0,0,0,-1,1280,1499,0,0
63,-475,0,0,0,0,0,0,0,0,0,-1,1287,1499,0,0
70,-475,0,0,0,0,0,0,0,0,0,-1,1294,1499,0,0
77,-475,0,0,0,0,0,0,0,0,0,-1,1301,1499,0,0
84,-475,0,0,0,0,0,0,0,0,0,-1,1308,1499,0,0
91,-475,0,0,0,0,0,0,0,0,0,-1,1315,1499,0,0
98,-475,0,0,0,0,0,0,0,0,0,-1,1322,1499,0,0
105,-475,0,0,0,0,0,0,0,0,0,-1,1329,1499,0,0
112,-475,0,0,0,0,0,0,0,0,0,-1,1336,1499,0,0
119,-475,0,0,0,0,0,0,0,0,0,-1,1343,1499,0,0
126,-475,0,0,0,0,0,0,0,0,0,-1,1350,1499,0,0
133,-475,0,0,0,0,0,0,0,0,0,-1,1357,1499,0,0
140,-475,0,0,0,0,0,0,0,0,0,-1,1364,1499,0,0
147,-475,0,0,0,0,0,0,0,0,0,-1,1371,1499,0,0
154,-475,0,0,0,0,0,0,0,0,0,-1,1378,1499,0,0
161,-475,0,0,0,0,0,0,0,0,0,-1,1385,1499,0,0
168,-475,0,0,0,0,0,0,0,0,0,-1,1392,1499,0,0
175,-475,0,0,0,0,0,0,0,0,0,-1,1399,1499,0,0
182,-475,0,0,0,0,0,0,0,0,0,-1,1406,1499,0,0
189,-475,0,0,0,0,0,0,0,0,0,-1,1413,1499,0,0
196,-475,0,0,0,0,0,0,0,0,0,-1,1420,1499,0,0
203,-475,0,0,0,0,0,0,0,0,0,-1,1427,1499,0,0
210,-475,0,0,0,0,0,0,0,0,0,-1,1434,1499,0,0
217,-475,0,0,0,0,0,0,0,0,0,-1,1441,1499,0,0
224,-475,0,0,0,0,0,0,0,0,0,-1,1448,1499,0,0
231,-475,0,0,0,0,0,0,0,0,0,-1,1455,1499,0,0
238,-475,0,0,0,0,0,0,0,0,0,-1,1462,1499,0,0
245,-475,0,0,0,0,0,0,0,0,0,-1,1469,1499,0,0
252,-475,0,0,0,0,0,0,0,0,0,-1,1476,1499,0,0
259,-475,0,0,0,0,0,0,0,0,0,-1,1483,1499,0,0
266,-475,0,0,0,0,0,0,0,0,0,-1,1490,1499,0,0
273,-475,0,0,0,0,0,0,0,0,0,-1,1497,1499,0,0
280,-475,0,0,0,0,0,0,0,0,0,-1,1504,1499,0,0
287,-475,0,0,0,0,0,0,0,0,0,-1,1511,1499,0,0
294,-475,0,0,0,0,0,0,0,0,0,-1,1518,1499,0,0
301,-475,0,0,0,0,0,0,0,0,0,-1,1525,1499,0,0
308,-475,0,0,0,0,0,0,0,0,0,-1,1532,1499,0,0
315,-475,0,0,0,0,0,0,0,0,0,-1,1539,1499,0,0
322,-475,0,0,0,0,0,0,0,0,0,-1,1546,1499,0,0
329,-475,0,0,0,0,0,0,0,0,0,-1,1553,1499,0,0
336,-475,0,0,0,0,0,0,0,0,0,-1,1560,1499,0,0
343,-475,0,0,0,0,0,0,0,0,0,-1,1567,1499,0,0
350,-475,0,0,0,0,0,0,0,0,0,-1,1574,1499,0,0
357,-475,0,0,0,0,0,0,0,0,0,-1,1581,1499,0,0
364,-475,0,0,0,0,0,0,0,0,0,-1,1588,1499,0,0
371,-475,0,0,0,0,0,0,0,0,0,-1,1595,1499,0,0
378,-475,0,0,0,0,0,0,0,0,0,-1,1602,1499,0,0
385,-475,0,0,0,0,0,0,0,0,0,-1,1609,1499,0,0
392,-475,0,0,0,0,0,0,0,0,0,-1,1616,1499,0,0
399,-475,0,0,0,0,0,0,0,0,0,-1,1623,1499,0,0
406,-475,0,0,0,0,0,0,0,0,0,-1,1630,1499,0,0
413,-475,0,0,0,0,0,0,0,0,0,-1,1637,1499,0,0
420,-475,0,0,0,0,0,0,0,0,0,-1,1644,1499,0,0
427,-475,0,0,0,0,0,0,0,0,0,-1,1651,1499,0,0
434,-475,0,0,0,0,0,0,0,0,0,-1,1658,1499,0,0
441,-475,0,0,0,0,0,0,0,0,0,-1,1665,1499,0,0
448,-475,0,0,0,0,0,0,0,0,0,-1,1672,1499,0,0
455,-475,0,0,0,0,0,0,0,0,0,-1,1679,1499,0,0
462,-475,12.6372,0.275391,0,0,0,0,0,0,0,-1,1686,1499,12.6372,-0.27536
469,-475,15.6437,2.28296,0,0,0,0,0,0,0,-1,1693,1499,15.6437,-2.28293
476,-475,15.3302,2.71436,0,0,0,0,0,0,0,-1,1700,1499,15.3303,-2.7143
483,-475,10.7461,5.91479,0,0,0,0,0,0,0,-1,1707,1499,10.7461,-5.91476
490,-475,11.9305,4.4364,0,0,0,0,0,0,0,-1,1714,1499,11.9305,-4.43644
497,-475,15.3451,4.3479,0,0,0,0,0,0,0,-1,1721,1499,15.3451,-4.34789
504,-475,16.9646,7.71265,0,0,0,0,0,0,0,-1,1728,1499,16.9646,-7.71265
511,-475,15.223,9.36267,0,0,0,0,0,0,0,-1,1735,1499,15.223,-9.36267
518,-475,13.3296,10.9802,0,0,0,0,0,0,0,-1,1742,1499,13.3296,-10.9802
525,-475,13.401,11.3059,0,0,0,0,0,0,0,-1,1749,1499,13.401,-11.3059
532,-475,13.3196,12.5673,0,0,0,0,0,0,0,-1,1756,1499,13.3196,-12.5673
539,-475,13.2855,12.4785,-0.0170233,-0.0191919,0.0182075,0.000132168,-0.0363474,0.755658,0.0242758,0.0462177,1763,1499,13.2855,-12.4786
546,-475,13.1979,12.3512,-0.0129682,-0.0142702,0.0136919,8.81609e-05,-0.0273265,0.761643,0.0182471,0.0394155,1770,1499,13.1978,-12.3513
553,-475,13.1702,12.1685,-0.00990472,-0.010281,0.0100409,-5.02048e-05,-0.0201355,0.776031,0.013407,0.0230709,1777,1499,13.1702,-12.1684
560,-475,12.9827,11.9724,-0.00740789,-0.00758359,0.00733453,-0.000160683,-0.0148308,0.77941,0.00983407,0.0168685,1784,1499,12.9827,-11.9724
567,-475,13.0492,11.6689,-0.00511113,-0.00541812,0.00518862,-7.37351e-05,-0.0104555,0.770611,0.0069459,0.0138739,1791,1499,13.0492,-11.6689
574,-475,13.0507,11.3948,-0.00324451,-0.00386637,0.00361953,7.7416e-05,-0.0071883,0.742552,0.00481821,0.0142276,1798,1499,13.0507,-11.3948
581,-475,13.0466,11.134,-0.00169073,-0.00250054,0.0023489,0.000287909,-0.00447918,0.700046,0.00308657,0.0115838,1805,1499,13.0466,-11.134
588,-475,13.041,10.8727,-0.000316851,-0.00178069,0.00138585,0.000518489,-0.00261603,0.542448,0.00194008,0.0100271,1812,1499,13.041,-10.8727
595,-475,13.0503,10.5942,0.00102399,-0.00139593,0.000659495,0.00119205,-0.00156399,0.24952,0.00159602,0.0110033,1819,1499,13.0503,-10.5942
602,-475,13.0612,10.2866,0.00223652,-0.00132929,0.000196219,0.00224728,-0.00134005,0.0548074,0.00209311,0.0117553,1826,1499,13.0611,-10.2866
609,-475,13.042,10.019,0.003335,-0.00143565,-0.000147927,0.00333959,-0.00144023,-0.030968,0.00283132,0.0108343,1833,1499,13.042,-10.019
616,-475,13.0139,9.77454,0.00431662,-0.00183321,-0.000259353,0.00432754,-0.00184413,-0.0420728,0.00365811,0.0111655,1840,1499,13.0139,-9.77449
623,-475,13.0035,9.49597,0.00497597,-0.00227937,5.25665e-05,0.00497635,-0.00227975,0.0072447,0.00428466,0.0108495,1847,1499,13.0036,-9.49601
630,-475,13.0389,9.2113,0.00547078,-0.00302729,0.000495377,0.00549956,-0.00305607,0.0580309,0.0050063,0.0145186,1854,1499,13.039,-9.21134
637,-475,13.0856,8.9613,0.00564547,-0.00388941,0.00125909,0.00580893,-0.00405287,0.129103,0.00572372,0.0272794,1861,1499,13.0856,-8.96127
644,-475,13.1796,8.67004,0,0,0,0,0,0,0,-1,1868,1499,13.1796,-8.6701
651,-475,11.7965,7.57593,0,0,0,0,0,0,0,-1,1875,1499,11.7965,-7.5759
658,-475,13.2539,9.44141,0,0,0,0,0,0,0,-1,1882,1499,13.2539,-9.44145
665,-475,9.33435,5.43335,0,0,0,0,0,0,0,-1,1889,1499,9.33439,-5.43332
672,-475,9.38635,1.10474,0,0,0,0,0,0,0,-1,1896,1499,9.38629,-1.10475
679,-475,12.2594,1.31079,0,0,0,0,0,0,0,-1,1903,1499,12.2594,-1.31077
686,-475,0,0,0,0,0,0,0,0,0,-1,1910,1499,0,0
693,-475,0,0,0,0,0,0,0,0,0,-1,1917,1499,0,0
700,-475,0,0,0,0,0,0,0,0,0,-1,1924,1499,0,0
707,-475,0,0,0,0,0,0,0,0,0,-1,1931,1499,0,0
714,-475,0,0,0,0,0,0,0,0,0,-1,1938,1499,0,0
721,-475,0,0,0,0,0,0,0,0,0,-1,1945,1499,0,0
728,-475,0,0,0,0,0,0,0,0,0,-1,1952,1499,0,0
735,-475,0,0,0,0,0,0,0,0,0,-1,1959,1499,0,0
742,-475,0,0,0,0,0,0,0,0,0,-1,1966,1499,0,0
749,-475,0,0,0,0,0,0,0,0,0,-1,1973,1499,0,0
756,-475,0,0,0,0,0,0,0,0,0,-1,1980,1499,0,0
763,-475,0,0,0,0,0,0,0,0,0,-1,1987,1499,0,0
770,-475,0,0,0,0,0,0,0,0,0,-1,1994,1499,0,0
777,-475,0,0,0,0,0,0,0,0,0,-1,2001,1499,0,0
784,-475,0,0,0,0,0,0,0,0,0,-1,2008,1499,0,0
791,-475,0,0,0,0,0,0,0,0,0,-1,2015,1499,0,0
798,-475,0,0,0,0,0,0,0,0,0,-1,2022,1499,0,0
805,-475,0,0,0,0,0,0,0,0,0,-1,2029,1499,0,0
812,-475,0,0,0,0,0,0,0,0,0,-1,2036,1499,0,0
-700,-482,0,0,0,0,0,0,0,0,0,-1,524,1506,0,0
-693,-482,0,0,0,0,0,0,0,0,0,-1,531,1506,0,0
-686,-482,0,0,0,0,0,0,0,0,0,-1,538,1506,0,0
-679,-482,0,0,0,0,0,0,0,0,0,-1,545,1506,0,0
-672,-482,0,0,0,0,0,0,0,0,0,-1,552,1506,0,0
-665,-482,0,0,0,0,0,0,0,0,0,-1,559,1506,0,0
-658,-482,0,0,0,0,0,0,0,0,0,-1,566,1506,0,0
-651,-482,0,0,0,0,0,0,0,0,0,-1,573,1506,0,0
-644,-482,0,0,0,0,0,0,0,0,0,-1,580,1506,0,0
-637,-482,0,0,0,0,0,0,0,0,0,-1,587,1506,0,0
-630,-482,0,0,0,0,0,0,0,0,0,-1,594,1506,0,0
-623,-482,0,0,0,0,0,0,0,0,0,-1,601,1506,0,0
-616,-482,0,0,0,0,0,0,0,0,0,-1,608,1506,0,0
-609,-482,0,0,0,0,0,0,0,0,0,-1,615,1506,0,0
-602,-482,0,0,0,0,0,0,0,0,0,-1,622,1506,0,0
-595,-482,0,0,0,0,0,0,0,0,0,-1,629,1506,0,0
-588,-482,0,0,0,0,0,0,0,0,0,-1,636,1506,0,0
-581,-482,0,0,0,0,0,0,0,0,0,-1,643,1506,0,0
-574,-482,0,0,0,0,0,0,0,0,0,-1,650,1506,0,0
-567,-482,0,0,0,0,0,0,0,0,0,-1,657,1506,0,0
-560,-482,0,0,0,0,0,0,0,0,0,-1,664,1506,0,0
-553,-482,-9.06055,9.34314,0,0,0,0,0,0,0,-1,671,1506,-9.06056,-9.34312
-546,-482,-4.08624,8.34241,0,0,0,0,0,0,0,-1,678,1506,-4.08624,-8.3424
-539,-482,-2.54572,4.26294,0,0,0,0,0,0,0,-1,685,1506,-2.54573,-4.2629
-532,-482,-4.03473,5.15063,0,0,0,0,0,0,0,-1,692,1506,-4.03472,-5.15068
-525,-482,-3.94885,5.90991,0.0468987,0.0028915,0.04571,0.0756254,-0.0258352,0.56108,0.0608841,0.0449596,699,1506,-3.94886,-5.9099
-518,-482,-3.59564,6.79236,0.0382216,-0.000749237,0.0327811,0.0568712,-0.0193989,0.517249,0.0457718,0.0487576,706,1506,-3.59566,-6.79233
-511,-482,-3.4577,6.81873,0,0,0,0,0,0,0,-1,713,1506,-3.45772,-6.81876
-504,-482,-2.78497,7.25806,0.023274,-0.00378035,0.0153209,0.0301849,-0.0106913,0.423749,0.0244781,0.0416881,720,1506,-2.78497,-7.25803
-497,-482,-2.50891,7.48877,0.0174701,-0.00385481,0.00996659,0.0214029,-0.00778759,0.37584,0.0174535,0.0268457,727,1506,-2.50888,-7.4888
-490,-482,-2.57513,7.73706,0.0128271,-0.00350314,0.00617952,0.0149019,-0.00557792,0.323926,0.0122257,0.0159245,734,1506,-2.57513,-7.73708
-483,-482,-2.57379,8.08057,0.00922796,-0.00322416,0.00354352,0.0101657,-0.00416192,0.258711,0.00851071,0.00876868,741,1506,-2.5738,-8.08054
-476,-482,-2.56238,8.38098,0.00641564,-0.00305843,0.00165106,0.00669512,-0.00333792,0.167688,0.00589969,0.0102679,748,1506,-2.56236,-8.38099
-469,-482,-2.56335,8.6842,0.0043115,-0.00332006,-7.39796e-05,0.00431222,-0.00332078,-0.00969269,0.00441929,0.0114125,755,1506,-2.56336,-8.68418
-462,-482,-2.57068,8.97546,0.0029155,-0.00324325,-0.00111359,0.00311067,-0.00343842,-0.173498,0.00378269,0.012046,762,1506,-2.57066,-8.97551
-455,-482,-2.58069,9.25964,0.00210321,-0.00348312,-0.0016814,0.00257024,-0.00395015,-0.270933,0.00379255,0.0123003,769,1506,-2.58069,-9.25962
-448,-482,-2.58179,9.60242,0.00175803,-0.00397467,-0.0021421,0.00247002,-0.00468667,-0.320894,0.00419746,0.0129505,776,1506,-2.58177,-9.60237
-441,-482,-2.60107,9.91345,0.001917,-0.00457138,-0.00254403,0.00279553,-0.00544992,-0.33251,0.00484204,0.0133846,783,1506,-2.6011,-9.9134
-434,-482,-2.61359,10.2115,0.00249452,-0.0055903,-0.00306641,0.00352597,-0.00662174,-0.324479,0.00594896,0.015919,790,1506,-2.61359,-10.2116
-427,-482,-2.60938,10.5262,0.00326297,-0.00710369,-0.00386175,0.00454339,-0.00838411,-0.320157,0.0075727,0.0176928,797,1506,-2.60939,-10.5262
-420,-482,-2.55737,10.9598,0.00405684,-0.00863696,-0.00468237,0.00559713,-0.0101773,-0.317805,0.00923442,0.0288871,804,1506,-2.55738,-10.9598
-413,-482,-2.38531,11.0613,0.00492656,-0.010317,-0.00555349,0.0067352,-0.0121256,-0.314843,0.0110366,0.0441117,811,1506,-2.38532,-11.0612
-406,-482,-2.21008,11.3154,0,0,0,0,0,0,0,-1,818,1506,-2.2101,-11.3155
-399,-482,-1.3822,9.22595,0,0,0,0,0,0,0,-1,825,1506,-1.38221,-9.22598
-392,-482,-1.06836,9.22729,0,0,0,0,0,0,0,-1,832,1506,-1.06835,-9.2273
-385,-482,0.0647583,8.90649,0,0,0,0,0,0,0,-1,839,1506,0.0647778,-8.90644
-378,-482,0.215698,5.96948,0,0,0,0,0,0,0,-1,846,1506,0.215681,-5.9695
-371,-482,-0.10907,8.10437,0,0,0,0,0,0,0,-1,853,1506,-0.109063,-8.10433
-364,-482,-0.154968,10.5032,0,0,0,0,0,0,0,-1,860,1506,-0.154976,-10.5032
-357,-482,2.14807,4.60144,0,0,0,0,0,0,0,-1,867,1506,2.14807,-4.60144
-350,-482,-7.5813,-1.45935,0,0,0,0,0,0,0,-1,874,1506,-7.58133,1.45937
-343,-482,-7.19983,-1.26416,0,0,0,0,0,0,0,-1,881,1506,-7.19981,1.26414
-336,-482,-6.78491,-1.18127,0,0,0,0,0,0,0,-1,888,1506,-6.78488,1.18125
-329,-482,0,0,0,0,0,0,0,0,0,-1,895,1506,0,0
-322,-482,0,0,0,0,0,0,0,0,0,-1,902,1506,0,0
-315,-482,0,0,0,0,0,0,0,0,0,-1,909,1506,0,0
-308,-482,0,0,0,0,0,0,0,0,0,-1,916,1506,0,0
-301,-482,0,0,0,0,0,0,0,0,0,-1,923,1506,0,0
-294,-482,0,0,0,0,0,0,0,0,0,-1,930,1506,0,0
-287,-482,0,0,0,0,0,0,0,0,0,-1,937,1506,0,0
-280,-482,0,0,0,0,0,0,0,0,0,-1,944,1506,0,0
-273,-482,0,0,0,0,0,0,0,0,0,-1,951,1506,0,0
-266,-482,0,0,0,0,0,0,0,0,0,-1,958,1506,0,0
-259,-482,0,0,0,0,0,0,0,0,0,-1,965,1506,0,0
-252,-482,0,0,0,0,0,0,0,0,0,-1,972,1506,0,0
-245,-482,0,0,0,0,0,0,0,0,0,-1,979,1506,0,0
-238,-482,0,0,0,0,0,0,0,0,0,-1,986,1506,0,0
-231,-482,0,0,0,0,0,0,0,0,0,-1,993,1506,0,0
-224,-482,0,0,0,0,0,0,0,0,0,-1,1000,1506,0,0
-217,-482,0,0,0,0,0,0,0,0,0,-1,1007,1506,0,0
-210,-482,0,0,0,0,0,0,0,0,0,-1,1014,1506,0,0
-203,-482,0,0,0,0,0,0,0,0,0,-1,1021,1506,0,0
-196,-482,0,0,0,0,0,0,0,0,0,-1,1028,1506,0,0
-189,-482,0,0,0,0,0,0,0,0,0,-1,1035,1506,0,0
-182,-482,0,0,0,0,0,0,0,0,0,-1,1042,1506,0,0
-175,-482,0,0,0,0,0,0,0,0,0,-1,1049,1506,0,0
-168,-482,0,0,0,0,0,0,0,0,0,-1,1056,1506,0,0
-161,-482,0,0,0,0,0,0,0,0,0,-1,1063,1506,0,0
-154,-482,0,0,0,0,0,0,0,0,0,-1,1070,1506,0,0
-147,-482,0,0,0,0,0,0,0,0,0,-1,1077,1506,0,0
-140,-482,0,0,0,0,0,0,0,0,0,-1,1084,1506,0,0
-133,-482,0,0,0,0,0,0,0,0,0,-1,1091,1506,0,0
-126,-482,0,0,0,0,0,0,0,0,0,-1,1098,1506,0,0
-119,-482,0,0,0,0,0,0,0,0,0,-1,1105,1506,0,0
-112,-482,0,0,0,0,0,0,0,0,0,-1,1112,1506,0,0
-105,-482,0,0,0,0,0,0,0,0,0,-1,1119,1506,0,0
-98,-482,0,0,0,0,0,0,0,0,0,-1,1126,1506,0,0
-91,-482,0,0,0,0,0,0,0,0,0,-1,1133,1506,0,0
-84,-482,0,0,0,0,0,0,0,0,0,-1,1140,1506,0,0
-77,-482,0,0,0,0,0,0,0,0,0,-1,1147,1506,0,0
-70,-482,0,0,0,0,0,0,0,0,0,-1,1154,1506,0,0
-63,-482,0,0,0,0,0,0,0,0,0,-1,1161,1506,0,0
-56,-482,0,0,0,0,0,0,0,0,0,-1,1168,1506,0,0
-49,-482,0,0,0,0,0,0,0,0,0,-1,1175,1506,0,0
-42,-482,0,0,0,0,0,0,0,0,0,-1,1182,1506,0,0
-35,-482,0,0,0,0,0,0,0,0,0,-1,1189,1506,0,0
-28,-482,0,0,0,0,0,0,0,0,0,-1,1196,1506,0,0
-21,-482,0,0,0,0,0,0,0,0,0,-1,1203,1506,0,0
-14,-482,0,0,0,0,0,0,0,0,0,-1,1210,1506,0,0
-7,-482,0,0,0,0,0,0,0,0,0,-1,1217,1506,0,0
0,-482,0,0,0,0,0,0,0,0,0,-1,1224,1506,0,0
7,-482,0,0,0,0,0,0,0,0,0,-1,1231,1506,0,0
14,-482,0,0,0,0,0,0,0,0,0,-1,1238,1506,0,0
21,-482,0,0,0,0,0,0,0,0,0,-1,1245,1506,0,0
28,-482,0,0,0,0,0,0,0,0,0,-1,1252,1506,0,0
35,-482,0,0,0,0,0,0,0,0,0,-1,1259,1506,0,0
42,-482,0,0,0,0,0,0,0,0,0,-1,1266,1506,0,0
49,-482,0,0,0,0,0,0,0,0,0,-1,1273,1506,0,0
56,-482,0,0,0,0,0,0,0,0,0,-1,1280,1506,0,0
63,-482,0,0,0,0,0,0,0,0,0,-1,1287,1506,0,0
70,-482,0,0,0,0,0,0,0,0,0,-1,1294,1506,0,0
77,-482,0,0,0,0,0,0,0,0,0,-1,1301,1506,0,0
84,-482,0,0,0,0,0,0,0,0,0,-1,1308,1506,0,0
91,-482,0,0,0,0,0,0,0,0,0,-1,1315,1506,0,0
98,-482,0,0,0,0,0,0,0,0,0,-1,1322,1506,0,0
105,-482,0,0,0,0,0,0,0,0,0,-1,1329,1506,0,0
112,-482,0,0,0,0,0,0,0,0,0,-1,1336,1506,0,0
119,-482,0,0,0,0,0,0,0,0,0,-1,1343,1506,0,0
126,-482,0,0,0,0,0,0,0,0,0,-1,1350,1506,0,0
133,-482,0,0,0,0,0,0,0,0,0,-1,1357,1506,0,0
140,-482,0,0,0,0,0,0,0,0,0,-1,1364,1506,0,0
147,-482,0,0,0,0,0,0,0,0,0,-1,1371,1506,0,0
154,-482,0,0,0,0,0,0,0,0,0,-1,1378,1506,0,0
161,-482,0,0,0,0,0,0,0,0,0,-1,1385,1506,0,0
168,-482,0,0,0,0,0,0,0,0,0,-1,1392,1506,0,0
175,-482,0,0,0,0,0,0,0,0,0,-1,1399,1506,0,0
182,-482,0,0,0,0,0,0,0,0,0,-1,1406,1506,0,0
189,-482,0,0,0,0,0,0,0,0,0,-1,1413,1506,0,0
196,-482,0,0,0,0,0,0,0,0,0,-1,1420,1506,0,0
203,-482,0,0,0,0,0,0,0,0,0,-1,1427,1506,0,0
210,-482,0,0,0,0,0,0,0,0,0,-1,1434,1506,0,0
217,-482,0,0,0,0,0,0,0,0,0,-1,1441,1506,0,0
224,-482,0,0,0,0,0,0,0,0,0,-1,1448,1506,0,0
231,-482,0,0,0,0,0,0,0,0,0,-1,1455,1506,0,0
238,-482,0,0,0,0,0,0,0,0,0,-1,1462,1506,0,0
245,-482,0,0,0,0,0,0,0,0,0,-1,1469,1506,0,0
252,-482,0,0,0,0,0,0,0,0,0,-1,1476,1506,0,0
259,-482,0,0,0,0,0,0,0,0,0,-1,1483,1506,0,0
266,-482,0,0,0,0,0,0,0,0,0,-1,1490,1506,0,0
273,-482,0,0,0,0,0,0,0,0,0,-1,1497,1506,0,0
280,-482,0,0,0,0,0,0,0,0,0,-1,1504,1506,0,0
287,-482,0,0,0,0,0,0,0,0,0,-1,1511,1506,0,0
294,-482,0,0,0,0,0,0,0,0,0,-1,1518,1506,0,0
301,-482,0,0,0,0,0,0,0,0,0,-1,1525,1506,0,0
308,-482,0,0,0,0,0,0,0,0,0,-1,1532,1506,0,0
315,-482,0,0,0,0,0,0,0,0,0,-1,1539,1506,0,0
322,-482,0,0,0,0,0,0,0,0,0,-1,1546,1506,0,0
329,-482,0,0,0,0,0,0,0,0,0,-1,1553,1506,0,0
336,-482,0,0,0,0,0,0,0,0,0,-1,1560,1506,0,0
343,-482,0,0,0,0,0,0,0,0,0,-1,1567,1506,0,0
350,-482,0,0,0,0,0,0,0,0,0,-1,1574,1506,0,0
357,-482,0,0,0,0,0,0,0,0,0,-1,1581,1506,0,0
364,-482,0,0,0,0,0,0,0,0,0,-1,1588,1506,0,0
371,-482,0,0,0,0,0,0,0,0,0,-1,1595,1506,0,0
378,-482,0,0,0,0,0,0,0,0,0,-1,1602,1506,0,0
385,-482,0,0,0,0,0,0,0,0,0,-1,1609,1506,0,0
392,-482,0,0,0,0,0,0,0,0,0,-1,1616,1506,0,0
399,-482,0,0,0,0,0,0,0,0,0,-1,1623,1506,0,0
406,-482,0,0,0,0,0,0,0,0,0,-1,1630,1506,0,0
413,-482,0,0,0,0,0,0,0,0,0,-1,1637,1506,0,0
420,-482,0,0,0,0,0,0,0,0,0,-1,1644,1506,0,0
427,-482,0,0,0,0,0,0,0,0,0,-1,1651,1506,0,0
434,-482,0,0,0,0,0,0,0,0,0,-1,1658,1506,0,0
441,-482,0,0,0,0,0,0,0,0,0,-1,1665,1506,0,0
448,-482,4.24146,1.55383,0,0,0,0,0,0,0,-1,1672,1506,4.24149,-1.55381
455,-482,12.4122,1.09729,0,0,0,0,0,0,0,-1,1679,1506,12.4122,-1.09734
462,-482,15.0673,3.13135,0,0,0,0,0,0,0,-1,1686,1506,15.0672,-3.13134
469,-482,15.3793,3.46301,0,0,0,0,0,0,0,-1,1693,1506,15.3793,-3.46307
476,-482,8.69751,9.18738,0,0,0,0,0,0,0,-1,1700,1506,8.69753,-9.18739
483,-482,10.0902,7.17432,0,0,0,0,0,0,0,-1,1707,1506,10.0902,-7.1743
490,-482,11.6289,5.4928,0,0,0,0,0,0,0,-1,1714,1506,11.6289,-5.49283
497,-482,15.9539,7.40222,0,0,0,0,0,0,0,-1,1721,1506,15.9538,-7.40219
504,-482,15.1689,7.64648,0,0,0,0,0,0,0,-1,1728,1506,15.169,-7.64646
511,-482,13.9736,9.31372,0,0,0,0,0,0,0,-1,1735,1506,13.9736,-9.31367
518,-482,12.5974,11.0266,0,0,0,0,0,0,0,-1,1742,1506,12.5975,-11.0266
525,-482,13.1328,12.0028,0,0,0,0,0,0,0,-1,1749,1506,13.1328,-12.0028
532,-482,13.0056,12.3337,0,0,0,0,0,0,0,-1,1756,1506,13.0056,-12.3337
539,-482,12.9473,12.6084,-0.014267,-0.0163191,0.015877,0.000617063,-0.0312031,0.753131,0.0210108,0.0337933,1763,1506,12.9472,-12.6085
546,-482,12.84,12.4733,-0.0107106,-0.0120475,0.0116955,0.000335469,-0.0230936,0.756852,0.0155088,0.0182129,1770,1506,12.84,-12.4733
553,-482,12.7651,12.2041,-0.00807726,-0.00853409,0.00843942,0.000136836,-0.0167482,0.771869,0.0112113,0.0158352,1777,1506,12.7651,-12.2041
560,-482,12.7357,11.9546,-0.00588022,-0.00620605,0.00600918,-3.17511e-05,-0.0120545,0.771846,0.00802578,0.01241,1784,1506,12.7357,-11.9546
567,-482,12.7739,11.6794,-0.00375574,-0.00433678,0.00404827,1.2422e-05,-0.00810494,0.749578,0.00540744,0.0150403,1791,1506,12.774,-11.6794
574,-482,12.78,11.4192,-0.00194742,-0.00300724,0.00263694,0.000212326,-0.00516699,0.686241,0.00351757,0.0139875,1798,1506,12.7801,-11.4192
581,-482,12.7762,11.1511,-0.000462408,-0.00180097,0.00149133,0.000502937,-0.00276631,0.574478,0.0020327,0.00939445,1805,1506,12.7763,-11.1511
588,-482,12.7681,10.8898,0.000900408,-0.0012569,0.000623683,0.00106774,-0.00142423,0.26212,0.00144364,0.0100814,1812,1506,12.7681,-10.8898
595,-482,12.7676,10.5769,0.00229778,-0.00100256,-3.81608e-05,0.00229822,-0.001003,-0.0115607,0.00195425,0.0161209,1819,1506,12.7676,-10.5769
602,-482,12.8015,10.2592,0.00364562,-0.00106719,-0.000459024,0.00368991,-0.00111148,-0.0961945,0.00290227,0.0194964,1826,1506,12.8015,-10.2592
609,-482,12.7772,10.0046,0.0049425,-0.00133379,-0.000756896,0.00503249,-0.00142378,-0.118336,0.00391682,0.0148599,1833,1506,12.7772,-10.0046
616,-482,12.7379,9.7616,0.00621929,-0.00192025,-0.00083031,0.00630313,-0.00200409,-0.100628,0.00500568,0.0108552,1840,1506,12.7379,-9.76157
623,-482,12.72,9.50989,0.00727615,-0.00261054,-0.000478472,0.00729925,-0.00263364,-0.0482453,0.0059419,0.0120964,1847,1506,12.72,-9.50985
630,-482,12.8105,9.2417,0.00822958,-0.00367492,3.24935e-05,0.00822966,-0.003675,0.00272949,0.00703885,0.0248295,1854,1506,12.8105,-9.2417
637,-482,12.843,9.30554,0.00895468,-0.00492783,0.000900534,0.00901285,-0.004986,0.0645079,0.00819295,0.0489659,1861,1506,12.843,-9.30548
644,-482,12.8159,9.18286,0,0,0,0,0,0,0,-1,1868,1506,12.816,-9.18284
651,-482,4.03845,7.05273,0,0,0,0,0,0,0,-1,1875,1506,4.03843,-7.05279
658,-482,10.0278,5.87903,0,0,0,0,0,0,0,-1,1882,1506,10.0279,-5.87902
665,-482,8.15198,3.22229,0,0,0,0,0,0,0,-1,1889,1506,8.15199,-3.22232
672,-482,9.87415,1.3147,0,0,0,0,0,0,0,-1,1896,1506,9.87416,-1.31473
679,-482,0,0,0,0,0,0,0,0,0,-1,1903,1506,0,0
686,-482,0,0,0,0,0,0,0,0,0,-1,1910,1506,0,0
693,-482,0,0,0,0,0,0,0,0,0,-1,1917,1506,0,0
700,-482,0,0,0,0,0,0,0,0,0,-1,1924,1506,0,0
707,-482,0,0,0,0,0,0,0,0,0,-1,1931,1506,0,0
714,-482,0,0,0,0,0,0,0,0,0,-1,1938,1506,0,0
721,-482,0,0,0,0,0,0,0,0,0,-1,1945,1506,0,0
728,-482,0,0,0,0,0,0,0,0,0,-1,1952,1506,0,0
735,-482,0,0,0,0,0,0,0,0,0,-1,1959,1506,0,0
742,-482,0,0,0,0,0,0,0,0,0,-1,1966,1506,0,0
749,-482,0,0,0,0,0,0,0,0,0,-1,1973,1506,0,0
756,-482,0,0,0,0,0,0,0,0,0,-1,1980,1506,0,0
763,-482,0,0,0,0,0,0,0,0,0,-1,1987,1506,0,0
770,-482,0,0,0,0,0,0,0,0,0,-1,1994,1506,0,0
777,-482,0,0,0,0,0,0,0,0,0,-1,2001,1506,0,0
784,-482,0,0,0,0,0,0,0,0,0,-1,2008,1506,0,0
791,-482,0,0,0,0,0,0,0,0,0,-1,2015,1506,0,0
798,-482,0,0,0,0,0,0,0,0,0,-1,2022,1506,0,0
805,-482,0,0,0,0,0,0,0,0,0,-1,2029,1506,0,0
812,-482,0,0,0,0,0,0,0,0,0,-1,2036,1506,0,0
-700,-489,0,0,0,0,0,0,0,0,0,-1,524,1513,0,0
-693,-489,0,0,0,0,0,0,0,0,0,-1,531,1513,0,0
-686,-489,0,0,0,0,0,0,0,0,0,-1,538,1513,0,0
-679,-489,0,0,0,0,0,0,0,0,0,-1,545,1513,0,0
-672,-489,0,0,0,0,0,0,0,0,0,-1,552,1513,0,0
-665,-489,0,0,0,0,0,0,0,0,0,-1,559,1513,0,0
-658,-489,0,0,0,0,0,0,0,0,0,-1,566,1513,0,0
-651,-489,0,0,0,0,0,0,0,0,0,-1,573,1513,0,0
-644,-489,0,0,0,0,0,0,0,0,0,-1,580,1513,0,0
-637,-489,0,0,0,0,0,0,0,0,0,-1,587,1513,0,0
-630,-489,0,0,0,0,0,0,0,0,0,-1,594,1513,0,0
-623,-489,0,0,0,0,0,0,0,0,0,-1,601,1513,0,0
-616,-489,0,0,0,0,0,0,0,0,0,-1,608,1513,0,0
-609,-489,0,0,0,0,0,0,0,0,0,-1,615,1513,0,0
-602,-489,0,0,0,0,0,0,0,0,0,-1,622,1513,0,0
-595,-489,0,0,0,0,0,0,0,0,0,-1,629,1513,0,0
-588,-489,0,0,0,0,0,0,0,0,0,-1,636,1513,0,0
-581,-489,0,0,0,0,0,0,0,0,0,-1,643,1513,0,0
-574,-489,0,0,0,0,0,0,0,0,0,-1,650,1513,0,0
-567,-489,0,0,0,0,0,0,0,0,0,-1,657,1513,0,0
-560,-489,0,0,0,0,0,0,0,0,0,-1,664,1513,0,0
-553,-489,-9.42206,8.5116,0,0,0,0,0,0,0,-1,671,1513,-9.42205,-8.51158
-546,-489,-7.80951,8.18506,0,0,0,0,0,0,0,-1,678,1513,-7.8095,-8.18503
-539,-489,-3.61237,7.19727,0,0,0,0,0,0,0,-1,685,1513,-3.61238,-7.19723
-532,-489,-4.95276,5.03076,0,0,0,0,0,0,0,-1,692,1513,-4.95274,-5.03073
-525,-489,-4.16064,5.85657,0,0,0,0,0,0,0,-1,699,1513,-4.16062,-5.85661
-518,-489,-3.78137,6.82312,0,0,0,0,0,0,0,-1,706,1513,-3.78135,-6.82313
-511,-489,-2.83435,6.88098,0,0,0,0,0,0,0,-1,713,1513,-2.83434,-6.88101
-504,-489,-2.7066,7.21106,0.0276785,-0.00521112,0.0169235,0.034831,-0.0123637,0.399871,0.0282583,0.049436,720,1513,-2.70658,-7.21104
-497,-489,-2.34357,7.64221,0.0206683,-0.00487249,0.0107497,0.0245904,-0.00879457,0.349847,0.019981,0.0416788,727,1513,-2.34356,-7.64226
-490,-489,-2.20398,7.7937,0.0150838,-0.00405436,0.00658896,0.0171329,-0.00610343,0.301506,0.0139101,0.023693,734,1513,-2.204,-7.79372
-483,-489,-2.27106,8.05664,0.0107382,-0.00330912,0.00384127,0.01172,-0.00429091,0.250232,0.00956983,0.0113895,741,1513,-2.27108,-8.0567
-476,-489,-2.26465,8.37463,0.00742456,-0.00271973,0.00201491,0.00781012,-0.00310529,0.189067,0.00649422,0.0096405,748,1513,-2.26465,-8.37459
-469,-489,-2.28412,8.67004,0.00495272,-0.00261695,0.000389865,0.00497274,-0.00263698,0.0513225,0.00446193,0.0106982,755,1513,-2.28414,-8.67005
-462,-489,-2.29163,8.97729,0.0032833,-0.00223552,-0.000482094,0.0033251,-0.00227731,-0.0864817,0.00325336,0.0147381,762,1513,-2.29165,-8.97734
-455,-489,-2.29474,9.27454,0.00231897,-0.00220024,-0.000847544,0.00247269,-0.00235396,-0.179423,0.00278695,0.01824,769,1513,-2.29475,-9.27457
-448,-489,-2.30878,9.57727,0.00184968,-0.00242742,-0.0011161,0.00212341,-0.00270115,-0.240505,0.00279211,0.0161074,776,1513,-2.30879,-9.57727
-441,-489,-2.30078,9.91223,0.00186631,-0.00268702,-0.00133056,0.00222661,-0.00304732,-0.264447,0.00305717,0.013989,783,1513,-2.30081,-9.91226
-434,-489,-2.33124,10.2279,0.00234588,-0.00335054,-0.00157366,0.0027517,-0.00375635,-0.252383,0.00377232,0.0169032,790,1513,-2.33127,-10.2279
-427,-489,-2.34155,10.5417,0.00309594,-0.00450027,-0.00208125,0.00362879,-0.00503312,-0.250642,0.00502282,0.0190265,797,1513,-2.34158,-10.5418
-420,-489,-2.35712,10.917,0.00390884,-0.00560446,-0.00258763,0.00456713,-0.00626274,-0.249114,0.00627812,0.0199859,804,1513,-2.35714,-10.917
-413,-489,-2.04047,11.1442,0.00481687,-0.00674509,-0.00313605,0.00561271,-0.00754092,-0.248524,0.0076214,0.0352359,811,1513,-2.04045,-11.1441
-406,-489,-1.83569,11.6312,0,0,0,0,0,0,0,-1,818,1513,-1.83569,-11.6313
-399,-489,-1.41241,9.10718,0,0,0,0,0,0,0,-1,825,1513,-1.41244,-9.10722
-392,-489,-1.0368,9.30469,0,0,0,0,0,0,0,-1,832,1513,-1.03682,-9.30466
-385,-489,-1.75165,10.6559,0,0,0,0,0,0,0,-1,839,1513,-1.75165,-10.6559
-378,-489,-0.401428,9.87048,0,0,0,0,0,0,0,-1,846,1513,-0.401415,-9.87047
-371,-489,-1.11633,10.6606,0,0,0,0,0,0,0,-1,853,1513,-1.11633,-10.6606
-364,-489,-0.503113,8.98486,0,0,0,0,0,0,0,-1,860,1513,-0.503097,-8.98482
-357,-489,-0.609924,10.9606,0,0,0,0,0,0,0,-1,867,1513,-0.609947,-10.9605
-350,-489,-7.94659,-0.358887,0,0,0,0,0,0,0,-1,874,1513,-7.94657,0.358912
-343,-489,-7.49323,-0.437866,0,0,0,0,0,0,0,-1,881,1513,-7.49322,0.437823
-336,-489,-7.02332,-0.53125,0,0,0,0,0,0,0,-1,888,1513,-7.0233,0.531295
-329,-489,-6.70221,-0.242432,0,0,0,0,0,0,0,-1,895,1513,-6.70221,0.2424
-322,-489,0,0,0,0,0,0,0,0,0,-1,902,1513,0,0
-315,-489,0,0,0,0,0,0,0,0,0,-1,909,1513,0,0
-308,-489,0,0,0,0,0,0,0,0,0,-1,916,1513,0,0
-301,-489,0,0,0,0,0,0,0,0,0,-1,923,1513,0,0
-294,-489,0,0,0,0,0,0,0,0,0,-1,930,1513,0,0
-287,-489,0,0,0,0,0,0,0,0,0,-1,937,1513,0,0
-280,-489,0,0,0,0,0,0,0,0,0,-1,944,1513,0,0
-273,-489,0,0,0,0,0,0,0,0,0,-1,951,1513,0,0
-266,-489,0,0,0,0,0,0,0,0,0,-1,958,1513,0,0
-259,-489,0,0,0,0,0,0,0,0,0,-1,965,1513,0,0
-252,-489,0,0,0,0,0,0,0,0,0,-1,972,1513,0,0
-245,-489,0,0,0,0,0,0,0,0,0,-1,979,1513,0,0
-238,-489,0,0,0,0,0,0,0,0,0,-1,986,1513,0,0
-231,-489,0,0,0,0,0,0,0,0,0,-1,993,1513,0,0
-224,-489,0,0,0,0,0,0,0,0,0,-1,1000,1513,0,0
-217,-489,0,0,0,0,0,0,0,0,0,-1,1007,1513,0,0
-210,-489,0,0,0,0,0,0,0,0,0,-1,1014,1513,0,0
-203,-489,0,0,0,0,0,0,0,0,0,-1,1021,1513,0,0
-196,-489,0,0,0,0,0,0,0,0,0,-1,1028,1513,0,0
-189,-489,0,0,0,0,0,0,0,0,0,-1,1035,1513,0,0
-182,-489,0,0,0,0,0,0,0,0,0,-1,1042,1513,0,0
-175,-489,0,0,0,0,0,0,0,0,0,-1,1049,1513,0,0
-168,-489,0,0,0,0,0,0,0,0,0,-1,1056,1513,0,0
-161,-489,0,0,0,0,0,0,0,0,0,-1,1063,1513,0,0
-154,-489,0,0,0,0,0,0,0,0,0,-1,1070,1513,0,0
-147,-489,0,0,0,0,0,0,0,0,0,-1,1077,1513,0,0
-140,-489,0,0,0,0,0,0,0,0,0,-1,1084,1513,0,0
-133,-489,0,0,0,0,0,0,0,0,0,-1,1091,1513,0,0
-126,-489,0,0,0,0,0,0,0,0,0,-1,1098,1513,0,0
-119,-489,0,0,0,0,0,0,0,0,0,-1,1105,1513,0,0
-112,-489,0,0,0,0,0,0,0,0,0,-1,1112,1513,0,0
-105,-489,0,0,0,0,0,0,0,0,0,-1,1119,1513,0,0
-98,-489,0,0,0,0,0,0,0,0,0,-1,1126,1513,0,0
-91,-489,0,0,0,0,0,0,0,0,0,-1,1133,1513,0,0
-84,-489,0,0,0,0,0,0,0,0,0,-1,1140,1513,0,0
-77,-489,0,0,0,0,0,0,0,0,0,-1,1147,1513,0,0
-70,-489,0,0,0,0,0,0,0,0,0,-1,1154,1513,0,0
-63,-489,0,0,0,0,0,0,0,0,0,-1,1161,1513,0,0
-56,-489,0,0,0,0,0,0,0,0,0,-1,1168,1513,0,0
-49,-489,0,0,0,0,0,0,0,0,0,-1,1175,1513,0,0
-42,-489,0,0,0,0,0,0,0,0,0,-1,1182,1513,0,0
-35,-489,0,0,0,0,0,0,0,0,0,-1,1189,1513,0,0
-28,-489,0,0,0,0,0,0,0,0,0,-1,1196,1513,0,0
-21,-489,0,0,0,0,0,0,0,0,0,-1,1203,1513,0,0
-14,-489,0,0,0,0,0,0,0,0,0,-1,1210,1513,0,0
-7,-489,0,0,0,0,0,0,0,0,0,-1,1217,1513,0,0
0,-489,0,0,0,0,0,0,0,0,0,-1,1224,1513,0,0
7,-489,0,0,0,0,0,0,0,0,0,-1,1231,1513,0,0
14,-489,0,0,0,0,0,0,0,0,0,-1,1238,1513,0,0
21,-489,0,0,0,0,0,0,0,0,0,-1,1245,1513,0,0
28,-489,0,0,0,0,0,0,0,0,0,-1,1252,1513,0,0
35,-489,0,0,0,0,0,0,0,0,0,-1,1259,1513,0,0
42,-489,0,0,0,0,0,0,0,0,0,-1,1266,1513,0,0
49,-489,0,0,0,0,0,0,0,0,0,-1,1273,1513,0,0
56,-489,0,0,0,0,0,0,0,0,0,-1,1280,1513,0,0
63,-489,0,0,0,0,0,0,0,0,0,-1,1287,1513,0,0
70,-489,0,0,0,0,0,0,0,0,0,-1,1294,1513,0,0
77,-489,0,0,0,0,0,0,0,0,0,-1,1301,1513,0,0
84,-489,0,0,0,0,0,0,0,0,0,-1,1308,1513,0,0
91,-489,0,0,0,0,0,0,0,0,0,-1,1315,1513,0,0
98,-489,0,0,0,0,0,0,0,0,0,-1,1322,1513,0,0
105,-489,0,0,0,0,0,0,0,0,0,-1,1329,1513,0,0
112,-489,0,0,0,0,0,0,0,0,0,-1,1336,1513,0,0
119,-489,0,0,0,0,0,0,0,0,0,-1,1343,1513,0,0
126,-489,0,0,0,0,0,0,0,0,0,-1,1350,1513,0,0
133,-489,0,0,0,0,0,0,0,0,0,-1,1357,1513,0,0
140,-489,0,0,0,0,0,0,0,0,0,-1,1364,1513,0,0
147,-489,0,0,0,0,0,0,0,0,0,-1,1371,1513,0,0
154,-489,0,0,0,0,0,0,0,0,0,-1,1378,1513,0,0
161,-489,0,0,0,0,0,0,0,0,0,-1,1385,1513,0,0
168,-489,0,0,0,0,0,0,0,0,0,-1,1392,1513,0,0
175,-489,0,0,0,0,0,0,0,0,0,-1,1399,1513,0,0
182,-489,0,0,0,0,0,0,0,0,0,-1,1406,1513,0,0
189,-489,0,0,0,0,0,0,0,0,0,-1,1413,1513,0,0
196,-489,0,0,0,0,0,0,0,0,0,-1,1420,1513,0,0
203,-489,0,0,0,0,0,0,0,0,0,-1,1427,1513,0,0
210,-489,0,0,0,0,0,0,0,0,0,-1,1434,1513,0,0
217,-489,0,0,0,0,0,0,0,0,0,-1,1441,1513,0,0
224,-489,0,0,0,0,0,0,0,0,0,-1,1448,1513,0,0
231,-489,0,0,0,0,0,0,0,0,0,-1,1455,1513,0,0
238,-489,0,0,0,0,0,0,0,0,0,-1,1462,1513,0,0
245,-489,0,0,0,0,0,0,0,0,0,-1,1469,1513,0,0
252,-489,0,0,0,0,0,0,0,0,0,-1,1476,1513,0,0
259,-489,0,0,0,0,0,0,0,0,0,-1,1483,1513,0,0
266,-489,0,0,0,0,0,0,0,0,0,-1,1490,1513,0,0
273,-489,0,0,0,0,0,0,0,0,0,-1,1497,1513,0,0
280,-489,0,0,0,0,0,0,0,0,0,-1,1504,1513,0,0
287,-489,0,0,0,0,0,0,0,0,0,-1,1511,1513,0,0
294,-489,0,0,0,0,0,0,0,0,0,-1,1518,1513,0,0
301,-489,0,0,0,0,0,0,0,0,0,-1,1525,1513,0,0
308,-489,0,0,0,0,0,0,0,0,0,-1,1532,1513,0,0
315,-489,0,0,0,0,0,0,0,0,0,-1,1539,1513,0,0
322,-489,0,0,0,0,0,0,0,0,0,-1,1546,1513,0,0
329,-489,0,0,0,0,0,0,0,0,0,-1,1553,1513,0,0
336,-489,0,0,0,0,0,0,0,0,0,-1,1560,1513,0,0
343,-489,0,0,0,0,0,0,0,0,0,-1,1567,1513,0,0
350,-489,0,0,0,0,0,0,0,0,0,-1,1574,1513,0,0
357,-489,0,0,0,0,0,0,0,0,0,-1,1581,1513,0,0
364,-489,0,0,0,0,0,0,0,0,0,-1,1588,1513,0,0
371,-489,0,0,0,0,0,0,0,0,0,-1,1595,1513,0,0
378,-489,0,0,0,0,0,0,0,0,0,-1,1602,1513,0,0
385,-489,0,0,0,0,0,0,0,0,0,-1,1609,1513,0,0
392,-489,0,0,0,0,0,0,0,0,0,-1,1616,1513,0,0
399,-489,0,0,0,0,0,0,0,0,0,-1,1623,1513,0,0
406,-489,0,0,0,0,0,0,0,0,0,-1,1630,1513,0,0
413,-489,0,0,0,0,0,0,0,0,0,-1,1637,1513,0,0
420,-489,0,0,0,0,0,0,0,0,0,-1,1644,1513,0,0
427,-489,0,0,0,0,0,0,0,0,0,-1,1651,1513,0,0
434,-489,0,0,0,0,0,0,0,0,0,-1,1658,1513,0,0
441,-489,11.4602,2.56787,0,0,0,0,0,0,0,-1,1665,1513,11.4602,-2.56786
448,-489,12.4425,1.72351,0,0,0,0,0,0,0,-1,1672,1513,12.4425,-1.72349
455,-489,12.5575,1.37463,0,0,0,0,0,0,0,-1,1679,1513,12.5575,-1.37469
462,-489,14.9784,3.84888,0,0,0,0,0,0,0,-1,1686,1513,14.9784,-3.84892
469,-489,15.1367,4.53101,0,0,0,0,0,0,0,-1,1693,1513,15.1368,-4.531
476,-489,15.5536,5.09338,0,0,0,0,0,0,0,-1,1700,1513,15.5536,-5.09339
483,-489,8.96912,8.37805,0,0,0,0,0,0,0,-1,1707,1513,8.96909,-8.37809
490,-489,10.5366,7.49561,0,0,0,0,0,0,0,-1,1714,1513,10.5367,-7.49558
497,-489,14.6051,11.8397,0,0,0,0,0,0,0,-1,1721,1513,14.6051,-11.8397
504,-489,14.8668,8.29675,0,0,0,0,0,0,0,-1,1728,1513,14.8668,-8.29676
511,-489,13.525,9.74963,0,0,0,0,0,0,0,-1,1735,1513,13.525,-9.74962
518,-489,12.3143,11.186,0,0,0,0,0,0,0,-1,1742,1513,12.3143,-11.186
525,-489,12.8796,12.3401,0,0,0,0,0,0,0,-1,1749,1513,12.8797,-12.3401
532,-489,12.651,12.6313,-0.0154851,-0.0190019,0.0185151,0.00135494,-0.0358419,0.738054,0.0243588,0.0394085,1756,1513,12.651,-12.6314
539,-489,12.5659,12.681,-0.0118673,-0.0136014,0.0135753,0.000868585,-0.0263373,0.753506,0.0178548,0.0189789,1763,1513,12.5659,-12.681
546,-489,12.4719,12.5293,-0.00881521,-0.00993282,0.00986272,0.000504522,-0.0192526,0.757099,0.0130065,0.0118865,1770,1513,12.472,-12.5293
553,-489,12.4664,12.2518,-0.00654071,-0.00684857,0.00696835,0.000275411,-0.0136647,0.774355,0.00920298,0.013686,1777,1513,12.4664,-12.2519
560,-489,12.4835,11.9668,-0.00455046,-0.0048355,0.00477018,7.93231e-05,-0.00946528,0.770464,0.0063368,0.0128859,1784,1513,12.4835,-11.9668
567,-489,12.4978,11.7001,-0.00253122,-0.00323041,0.00296098,0.000100737,-0.00586236,0.726637,0.00394225,0.0150767,1791,1513,12.4979,-11.7
574,-489,12.485,11.4475,-0.000724335,-0.00210147,0.00167854,0.000401383,-0.00322719,0.590756,0.00229697,0.014411,1798,1513,12.485,-11.4475
581,-489,12.5066,11.171,0.000751735,-0.00105877,0.000632219,0.000950649,-0.00125768,0.304822,0.00127908,0.00969742,1805,1513,12.5065,-11.171
588,-489,12.5026,10.8823,0.00216552,-0.000679003,-0.000166016,0.00217517,-0.000688659,-0.0581006,0.00172608,0.0116596,1812,1513,12.5026,-10.8823
595,-489,12.4928,10.5859,0.00368946,-0.00055675,-0.000788127,0.00383102,-0.000698312,-0.177724,0.0028158,0.0180114,1819,1513,12.4928,-10.5859
602,-489,12.5029,10.3037,0.00526205,-0.000758755,-0.00119635,0.00549106,-0.000987762,-0.189134,0.00403051,0.0239903,1826,1513,12.5029,-10.3037
609,-489,12.4901,10.0358,0.00688212,-0.00120571,-0.00148163,0.007145,-0.00146859,-0.175598,0.00532085,0.0166348,1833,1513,12.4901,-10.0357
616,-489,12.469,9.75305,0.00860422,-0.00201128,-0.00157626,0.00883333,-0.00224039,-0.144339,0.00676058,0.0106674,1840,1513,12.469,-9.75308
623,-489,12.4741,9.4989,0.0102378,-0.00305133,-0.00132881,0.0103694,-0.0031829,-0.0986904,0.00818291,0.0161327,1847,1513,12.4741,-9.49886
630,-489,12.4834,9.29456,0.0118752,-0.00456303,-0.000895777,0.0119238,-0.0046117,-0.0542794,0.00985302,0.0401472,1854,1513,12.4834,-9.29457
637,-489,12.5837,9.73364,0,0,0,0,0,0,0,-1,1861,1513,12.5837,-9.73362
644,-489,9.67578,8.45874,0,0,0,0,0,0,0,-1,1868,1513,9.67576,-8.45879
651,-489,6.13818,6.85095,0,0,0,0,0,0,0,-1,1875,1513,6.13823,-6.85097
658,-489,5.43848,7.75513,0,0,0,0,0,0,0,-1,1882,1513,5.43844,-7.75509
665,-489,5.48438,8.59912,0,0,0,0,0,0,0,-1,1889,1513,5.48434,-8.59907
672,-489,0,0,0,0,0,0,0,0,0,-1,1896,1513,0,0
679,-489,0,0,0,0,0,0,0,0,0,-1,1903,1513,0,0
686,-489,0,0,0,0,0,0,0,0,0,-1,1910,1513,0,0
693,-489,0,0,0,0,0,0,0,0,0,-1,1917,1513,0,0
700,-489,0,0,0,0,0,0,0,0,0,-1,1924,1513,0,0
707,-489,0,0,0,0,0,0,0,0,0,-1,1931,1513,0,0
714,-489,0,0,0,0,0,0,0,0,0,-1,1938,1513,0,0
721,-489,0,0,0,0,0,0,0,0,0,-1,1945,1513,0,0
728,-489,0,0,0,0,0,0,0,0,0,-1,1952,1513,0,0
735,-489,0,0,0,0,0,0,0,0,0,-1,1959,1513,0,0
742,-489,0,0,0,0,0,0,0,0,0,-1,1966,1513,0,0
749,-489,0,0,0,0,0,0,0,0,0,-1,1973,1513,0,0
756,-489,0,0,0,0,0,0,0,0,0,-1,1980,1513,0,0
763,-489,0,0,0,0,0,0,0,0,0,-1,1987,1513,0,0
770,-489,0,0,0,0,0,0,0,0,0,-1,1994,1513,0,0
777,-489,0,0,0,0,0,0,0,0,0,-1,2001,1513,0,0
784,-489,0,0,0,0,0,0,0,0,0,-1,2008,1513,0,0
791,-489,0,0,0,0,0,0,0,0,0,-1,2015,1513,0,0
798,-489,0,0,0,0,0,0,0,0,0,-1,2022,1513,0,0
805,-489,0,0,0,0,0,0,0,0,0,-1,2029,1513,0,0
812,-489,0,0,0,0,0,0,0,0,0,-1,2036,1513,0,0
-700,-496,0,0,0,0,0,0,0,0,0,-1,524,1520,0,0
-693,-496,0,0,0,0,0,0,0,0,0,-1,531,1520,0,0
-686,-496,0,0,0,0,0,0,0,0,0,-1,538,1520,0,0
-679,-496,0,0,0,0,0,0,0,0,0,-1,545,1520,0,0
-672,-496,0,0,0,0,0,0,0,0,0,-1,552,1520,0,0
-665,-496,0,0,0,0,0,0,0,0,0,-1,559,1520,0,0
-658,-496,0,0,0,0,0,0,0,0,0,-1,566,1520,0,0
-651,-496,0,0,0,0,0,0,0,0,0,-1,573,1520,0,0
-644,-496,0,0,0,0,0,0,0,0,0,-1,580,1520,0,0
-637,-496,0,0,0,0,0,0,0,0,0,-1,587,1520,0,0
-630,-496,0,0,0,0,0,0,0,0,0,-1,594,1520,0,0
-623,-496,0,0,0,0,0,0,0,0,0,-1,601,1520,0,0
-616,-496,0,0,0,0,0,0,0,0,0,-1,608,1520,0,0
-609,-496,0,0,0,0,0,0,0,0,0,-1,615,1520,0,0
-602,-496,0,0,0,0,0,0,0,0,0,-1,622,1520,0,0
-595,-496,0,0,0,0,0,0,0,0,0,-1,629,1520,0,0
-588,-496,0,0,0,0,0,0,0,0,0,-1,636,1520,0,0
-581,-496,0,0,0,0,0,0,0,0,0,-1,643,1520,0,0
-574,-496,0,0,0,0,0,0,0,0,0,-1,650,1520,0,0
-567,-496,0,0,0,0,0,0,0,0,0,-1,657,1520,0,0
-560,-496,0,0,0,0,0,0,0,0,0,-1,664,1520,0,0
-553,-496,0,0,0,0,0,0,0,0,0,-1,671,1520,0,0
-546,-496,-8.09711,7.94836,0,0,0,0,0,0,0,-1,678,1520,-8.09712,-7.94842
-539,-496,-3.43286,1.45349,0,0,0,0,0,0,0,-1,685,1520,-3.43288,-1.45344
-532,-496,-3.30548,4.12854,0,0,0,0,0,0,0,-1,692,1520,-3.30546,-4.12851
-525,-496,-3.83618,5.33948,0,0,0,0,0,0,0,-1,699,1520,-3.83615,-5.33948
-518,-496,-4.35773,6.57397,0,0,0,0,0,0,0,-1,706,1520,-4.35773,-6.57397
-511,-496,-4.85754,7.90576,0,0,0,0,0,0,0,-1,713,1520,-4.85757,-7.90579
-504,-496,-2.71912,7.18201,0,0,0,0,0,0,0,-1,720,1520,-2.71911,-7.18198
-497,-496,-2.81738,8.1416,0.0237355,-0.00610619,0.0111559,0.0274449,-0.0098156,0.321005,0.0223006,0.0455971,727,1520,-2.81737,-8.14154
-490,-496,-1.92365,8.02661,0.0170785,-0.00483419,0.00664146,0.0189343,-0.00668996,0.272474,0.0153468,0.0382214,734,1520,-1.92363,-8.02666
-483,-496,-1.93164,8.15967,0.0120027,-0.00360088,0.00381434,0.0128852,-0.00448339,0.227366,0.0104115,0.0208024,741,1520,-1.93162,-8.1597
-476,-496,-1.9856,8.38684,0.00821741,-0.00256674,0.00206834,0.0086005,-0.00294983,0.18314,0.00692949,0.0114154,748,1520,-1.98557,-8.38678
-469,-496,-2.00305,8.69507,0.00542098,-0.00210219,0.000545868,0.00546038,-0.0021416,0.0720552,0.00452628,0.00981867,755,1520,-2.00304,-8.69501
-462,-496,-2.00391,8.99487,0.00353168,-0.00144415,-0.000179813,0.00353817,-0.00145064,-0.0360745,0.00296315,0.0144173,762,1520,-2.00391,-8.99491
-455,-496,-2.00482,9.29224,0.00248881,-0.00118352,-0.000393616,0.00253053,-0.00122524,-0.105586,0.00221161,0.0194597,769,1520,-2.00479,-9.29228
-448,-496,-2.00195,9.61499,0.00195836,-0.00120961,-0.00052833,0.00204415,-0.0012954,-0.16097,0.00194418,0.0175557,776,1520,-2.00195,-9.61494
-441,-496,-1.99084,9.92554,0.00188232,-0.00122097,-0.000616044,0.00200014,-0.00133879,-0.188971,0.00194029,0.0132001,783,1520,-1.99087,-9.92554
-434,-496,-2.00568,10.2225,0.00230292,-0.00163019,-0.000641744,0.00240498,-0.00173225,-0.157717,0.00239914,0.0131195,790,1520,-2.00566,-10.2226
-427,-496,-2.02734,10.558,0.00306016,-0.00252572,-0.00092251,0.00320857,-0.00267413,-0.159509,0.00340104,0.0168995,797,1520,-2.02737,-10.5579
-420,-496,-2.03021,10.8461,0.0039076,-0.00335927,-0.00120134,0.00410106,-0.00355272,-0.15966,0.00442269,0.0181148,804,1520,-2.03019,-10.8461
-413,-496,-1.96869,11.1515,0.00479713,-0.00418883,-0.00148631,0.00503659,-0.00442829,-0.159738,0.00546832,0.0195286,811,1520,-1.96867,-11.1515
-406,-496,-1.85791,11.5723,0,0,0,0,0,0,0,-1,818,1520,-1.85789,-11.5723
-399,-496,-1.65027,11.9998,0,0,0,0,0,0,0,-1,825,1520,-1.65024,-11.9997
-392,-496,-1.51019,12.2317,0,0,0,0,0,0,0,-1,832,1520,-1.51019,-12.2317
-385,-496,-1.72437,11.4985,0,0,0,0,0,0,0,-1,839,1520,-1.72436,-11.4985
-378,-496,-1.22742,12.6904,0,0,0,0,0,0,0,-1,846,1520,-1.22739,-12.6904
-371,-496,0.0877075,12.5299,0,0,0,0,0,0,0,-1,853,1520,0.0876896,-12.5299
-364,-496,0.0881348,10.6422,0,0,0,0,0,0,0,-1,860,1520,0.0881368,-10.6423
-357,-496,0.323792,7.56812,0,0,0,0,0,0,0,-1,867,1520,0.323782,-7.56806
-350,-496,2.1535,7.18945,0,0,0,0,0,0,0,-1,874,1520,2.15348,-7.1894
-343,-496,-7.56244,0.335327,0,0,0,0,0,0,0,-1,881,1520,-7.56242,-0.335322
-336,-496,-3.99249,6.02222,0,0,0,0,0,0,0,-1,888,1520,-3.99246,-6.0222
-329,-496,-6.93689,-0.100342,0,0,0,0,0,0,0,-1,895,1520,-6.93686,0.1003
-322,-496,-6.17505,0.494385,0,0,0,0,0,0,0,-1,902,1520,-6.17507,-0.49437
-315,-496,-5.46338,1.0459,0,0,0,0,0,0,0,-1,909,1520,-5.46338,-1.04587
-308,-496,0,0,0,0,0,0,0,0,0,-1,916,1520,0,0
-301,-496,0,0,0,0,0,0,0,0,0,-1,923,1520,0,0
-294,-496,0,0,0,0,0,0,0,0,0,-1,930,1520,0,0
-287,-496,0,0,0,0,0,0,0,0,0,-1,937,1520,0,0
-280,-496,0,0,0,0,0,0,0,0,0,-1,944,1520,0,0
-273,-496,0,0,0,0,0,0,0,0,0,-1,951,1520,0,0
-266,-496,0,0,0,0,0,0,0,0,0,-1,958,1520,0,0
-259,-496,0,0,0,0,0,0,0,0,0,-1,965,1520,0,0
-252,-496,0,0,0,0,0,0,0,0,0,-1,972,1520,0,0
-245,-496,0,0,0,0,0,0,0,0,0,-1,979,1520,0,0
-238,-496,0,0,0,0,0,0,0,0,0,-1,986,1520,0,0
-231,-496,0,0,0,0,0,0,0,0,0,-1,993,1520,0,0
-224,-496,0,0,0,0,0,0,0,0,0,-1,1000,1520,0,0
-217,-496,0,0,0,0,0,0,0,0,0,-1,1007,1520,0,0
-210,-496,0,0,0,0,0,0,0,0,0,-1,1014,1520,0,0
-203,-496,0,0,0,0,0,0,0,0,0,-1,1021,1520,0,0
-196,-496,0,0,0,0,0,0,0,0,0,-1,1028,1520,0,0
-189,-496,0,0,0,0,0,0,0,0,0,-1,1035,1520,0,0
-182,-496,0,0,0,0,0,0,0,0,0,-1,1042,1520,0,0
-175,-496,0,0,0,0,0,0,0,0,0,-1,1049,1520,0,0
-168,-496,0,0,0,0,0,0,0,0,0,-1,1056,1520,0,0
-161,-496,0,0,0,0,0,0,0,0,0,-1,1063,1520,0,0
-154,-496,0,0,0,0,0,0,0,0,0,-1,1070,1520,0,0
-147,-496,0,0,0,0,0,0,0,0,0,-1,1077,1520,0,0
-140,-496,0,0,0,0,0,0,0,0,0,-1,1084,1520,0,0
-133,-496,0,0,0,0,0,0,0,0,0,-1,1091,1520,0,0
-126,-496,0,0,0,0,0,0,0,0,0,-1,1098,1520,0,0
-119,-496,0,0,0,0,0,0,0,0,0,-1,1105,1520,0,0
-112,-496,0,0,0,0,0,0,0,0,0,-1,1112,1520,0,0
-105,-496,0,0,0,0,0,0,0,0,0,-1,1119,1520,0,0
-98,-496,0,0,0,0,0,0,0,0,0,-1,1126,1520,0,0
-91,-496,0,0,0,0,0,0,0,0,0,-1,1133,1520,0,0
-84,-496,0,0,0,0,0,0,0,0,0,-1,1140,1520,0,0
-77,-496,0,0,0,0,0,0,0,0,0,-1,1147,1520,0,0
-70,-496,0,0,0,0,0,0,0,0,0,-1,1154,1520,0,0
-63,-496,0,0,0,0,0,0,0,0,0,-1,1161,1520,0,0
-56,-496,0,0,0,0,0,0,0,0,0,-1,1168,1520,0,0
-49,-496,0,0,0,0,0,0,0,0,0,-1,1175,1520,0,0
-42,-496,0,0,0,0,0,0,0,0,0,-1,1182,1520,0,0
-35,-496,0,0,0,0,0,0,0,0,0,-1,1189,1520,0,0
-28,-496,0,0,0,0,0,0,0,0,0,-1,1196,1520,0,0
-21,-496,0,0,0,0,0,0,0,0,0,-1,1203,1520,0,0
-14,-496,0,0,0,0,0,0,0,0,0,-1,1210,1520,0,0
-7,-496,0,0,0,0,0,0,0,0,0,-1,1217,1520,0,0
0,-496,0,0,0,0,0,0,0,0,0,-1,1224,1520,0,0
7,-496,0,0,0,0,0,0,0,0,0,-1,1231,1520,0,0
14,-496,0,0,0,0,0,0,0,0,0,-1,1238,1520,0,0
21,-496,0,0,0,0,0,0,0,0,0,-1,1245,1520,0,0
28,-496,0,0,0,0,0,0,0,0,0,-1,1252,1520,0,0
35,-496,0,0,0,0,0,0,0,0,0,-1,1259,1520,0,0
42,-496,0,0,0,0,0,0,0,0,0,-1,1266,1520,0,0
49,-496,0,0,0,0,0,0,0,0,0,-1,1273,1520,0,0
56,-496,0,0,0,0,0,0,0,0,0,-1,1280,1520,0,0
63,-496,0,0,0,0,0,0,0,0,0,-1,1287,1520,0,0
70,-496,0,0,0,0,0,0,0,0,0,-1,1294,1520,0,0
77,-496,0,0,0,0,0,0,0,0,0,-1,1301,1520,0,0
84,-496,0,0,0,0,0,0,0,0,0,-1,1308,1520,0,0
91,-496,0,0,0,0,0,0,0,0,0,-1,1315,1520,0,0
98,-496,0,0,0,0,0,0,0,0,0,-1,1322,1520,0,0
105,-496,0,0,0,0,0,0,0,0,0,-1,1329,1520,0,0
112,-496,0,0,0,0,0,0,0,0,0,-1,1336,1520,0,0
119,-496,0,0,0,0,0,0,0,0,0,-1,1343,1520,0,0
126,-496,0,0,0,0,0,0,0,0,0,-1,1350,1520,0,0
133,-496,0,0,0,0,0,0,0,0,0,-1,1357,1520,0,0
140,-496,0,0,0,0,0,0,0,0,0,-1,1364,1520,0,0
147,-496,0,0,0,0,0,0,0,0,0,-1,1371,1520,0,0
154,-496,0,0,0,0,0,0,0,0,0,-1,1378,1520,0,0
161,-496,0,0,0,0,0,0,0,0,0,-1,1385,1520,0,0
168,-496,0,0,0,0,0,0,0,0,0,-1,1392,1520,0,0
175,-496,0,0,0,0,0,0,0,0,0,-1,1399,1520,0,0
182,-496,0,0,0,0,0,0,0,0,0,-1,1406,1520,0,0
189,-496,0,0,0,0,0,0,0,0,0,-1,1413,1520,0,0
196,-496,0,0,0,0,0,0,0,0,0,-1,1420,1520,0,0
203,-496,0,0,0,0,0,0,0,0,0,-1,1427,1520,0,0
210,-496,0,0,0,0,0,0,0,0,0,-1,1434,1520,0,0
217,-496,0,0,0,0,0,0,0,0,0,-1,1441,1520,0,0
224,-496,0,0,0,0,0,0,0,0,0,-1,1448,1520,0,0
231,-496,0,0,0,0,0,0,0,0,0,-1,1455,1520,0,0
238,-496,0,0,0,0,0,0,0,0,0,-1,1462,1520,0,0
245,-496,0,0,0,0,0,0,0,0,0,-1,1469,1520,0,0
252,-496,0,0,0,0,0,0,0,0,0,-1,1476,1520,0,0
259,-496,0,0,0,0,0,0,0,0,0,-1,1483,1520,0,0
266,-496,0,0,0,0,0,0,0,0,0,-1,1490,1520,0,0
273,-496,0,0,0,0,0,0,0,0,0,-1,1497,1520,0,0
280,-496,0,0,0,0,0,0,0,0,0,-1,1504,1520,0,0
287,-496,0,0,0,0,0,0,0,0,0,-1,1511,1520,0,0
294,-496,0,0,0,0,0,0,0,0,0,-1,1518,1520,0,0
301,-496,0,0,0,0,0,0,0,0,0,-1,1525,1520,0,0
308,-496,0,0,0,0,0,0,0,0,0,-1,1532,1520,0,0
315,-496,0,0,0,0,0,0,0,0,0,-1,1539,1520,0,0
322,-496,0,0,0,0,0,0,0,0,0,-1,1546,1520,0,0
329,-496,0,0,0,0,0,0,0,0,0,-1,1553,1520,0,0
336,-496,0,0,0,0,0,0,0,0,0,-1,1560,1520,0,0
343,-496,0,0,0,0,0,0,0,0,0,-1,1567,1520,0,0
350,-496,0,0,0,0,0,0,0,0,0,-1,1574,1520,0,0
357,-496,0,0,0,0,0,0,0,0,0,-1,1581,1520,0,0
364,-496,0,0,0,0,0,0,0,0,0,-1,1588,1520,0,0
371,-496,0,0,0,0,0,0,0,0,0,-1,1595,1520,0,0
378,-496,0,0,0,0,0,0,0,0,0,-1,1602,1520,0,0
385,-496,0,0,0,0,0,0,0,0,0,-1,1609,1520,0,0
392,-496,0,0,0,0,0,0,0,0,0,-1,1616,1520,0,0
399,-496,0,0,0,0,0,0,0,0,0,-1,1623,1520,0,0
406,-496,0,0,0,0,0,0,0,0,0,-1,1630,1520,0,0
413,-496,0,0,0,0,0,0,0,0,0,-1,1637,1520,0,0
420,-496,0,0,0,0,0,0,0,0,0,-1,1644,1520,0,0
427,-496,0,0,0,0,0,0,0,0,0,-1,1651,1520,0,0
434,-496,11.0457,3.37732,0,0,0,0,0,0,0,-1,1658,1520,11.0456,-3.37736
441,-496,11.788,2.75488,0,0,0,0,0,0,0,-1,1665,1520,11.7879,-2.75485
448,-496,12.2146,2.18494,0,0,0,0,0,0,0,-1,1672,1520,12.2146,-2.18489
455,-496,12.3489,1.65173,0,0,0,0,0,0,0,-1,1679,1520,12.3489,-1.65178
462,-496,12.1912,1.32361,0,0,0,0,0,0,0,-1,1686,1520,12.1911,-1.32357
469,-496,14.8138,5.77954,0,0,0,0,0,0,0,-1,1693,1520,14.8138,-5.77958
476,-496,15.2449,6.27942,0,0,0,0,0,0,0,-1,1700,1520,15.2449,-6.27936
483,-496,9.19812,6.88367,0,0,0,0,0,0,0,-1,1707,1520,9.19812,-6.88361
490,-496,10.2123,7.97144,0,0,0,0,0,0,0,-1,1714,1520,10.2122,-7.97145
497,-496,13.9297,12.2981,0,0,0,0,0,0,0,-1,1721,1520,13.9297,-12.2982
504,-496,15.1162,14.0444,0,0,0,0,0,0,0,-1,1728,1520,15.1162,-14.0445
511,-496,12.6388,12.5898,0,0,0,0,0,0,0,-1,1735,1520,12.6387,-12.5899
518,-496,12.8256,13.3077,0,0,0,0,0,0,0,-1,1742,1520,12.8255,-13.3078
525,-496,12.3933,12.6842,-0.016429,-0.0215467,0.0211778,0.00234398,-0.0403197,0.725276,0.0276942,0.0497466,1749,1520,12.3933,-12.6843
532,-496,12.241,12.9722,-0.0127538,-0.0158973,0.0157731,0.00152564,-0.0301767,0.735739,0.0206452,0.0283239,1756,1520,12.241,-12.9722
539,-496,12.2321,12.7794,-0.00975586,-0.0111749,0.0114816,0.0010381,-0.0219689,0.754538,0.0150039,0.0136289,1763,1520,12.232,-12.7794
546,-496,12.1846,12.51,-0.00717997,-0.00804391,0.00823525,0.000634629,-0.0158585,0.759195,0.0107901,0.00986544,1770,1520,12.1846,-12.51
553,-496,12.2207,12.229,-0.00522859,-0.00534283,0.00567676,0.000391331,-0.0109628,0.780367,0.00744238,0.0140407,1777,1520,12.2207,-12.229
560,-496,12.2413,11.9709,-0.00341979,-0.00360501,0.00369556,0.000184316,-0.00720912,0.772871,0.00486868,0.0135879,1784,1520,12.2413,-11.971
567,-496,12.2229,11.7009,-0.00149941,-0.00224115,0.00203229,0.000195574,-0.00393614,0.695148,0.00269165,0.0116779,1791,1520,12.2229,-11.7009
574,-496,12.2164,11.4308,0.000314275,-0.00128992,0.00086133,0.000689144,-0.00166479,0.410496,0.00139741,0.0113675,1798,1520,12.2164,-11.4308
581,-496,12.2277,11.1731,0.00181924,-0.000405161,-0.00010943,0.00182462,-0.000410532,-0.0490374,0.00137385,0.0114976,1805,1520,12.2276,-11.1731
588,-496,12.2311,10.8844,0.00334719,-0.000159395,-0.000876618,0.00355412,-0.00036633,-0.231818,0.00250049,0.01299,1812,1520,12.2311,-10.8844
595,-496,12.2203,10.5918,0.0050873,-0.000139751,-0.00151461,0.00549446,-0.000546913,-0.262615,0.00385822,0.015853,1819,1520,12.2203,-10.5918
602,-496,12.2072,10.2969,0.00701434,-0.000438936,-0.00198929,0.00751205,-0.000936643,-0.245161,0.00534766,0.0184766,1826,1520,12.2072,-10.2969
609,-496,12.2065,10.0292,0.00913663,-0.001026,-0.00236033,0.00965808,-0.00154745,-0.217428,0.00701169,0.0149646,1833,1520,12.2065,-10.0292
616,-496,12.2186,9.73279,0.0115939,-0.00202503,-0.00256122,0.0120597,-0.00249078,-0.179878,0.00898585,0.0145737,1840,1520,12.2186,-9.73278
623,-496,12.2466,9.52429,0.0143751,-0.00356224,-0.00250898,0.0147194,-0.00390658,-0.136388,0.0113417,0.0275234,1847,1520,12.2466,-9.52426
630,-496,13.652,9.34583,0,0,0,0,0,0,0,-1,1854,1520,13.6519,-9.34586
637,-496,12.0918,9.79541,0,0,0,0,0,0,0,-1,1861,1520,12.0917,-9.79537
644,-496,12.4537,10.087,0,0,0,0,0,0,0,-1,1868,1520,12.4537,-10.0871
651,-496,8.18506,5.47803,0,0,0,0,0,0,0,-1,1875,1520,8.18505,-5.47806
658,-496,7.79993,4.02563,0,0,0,0,0,0,0,-1,1882,1520,7.79997,-4.02568
665,-496,5.47583,7.90625,0,0,0,0,0,0,0,-1,1889,1520,5.47581,-7.90628
672,-496,0,0,0,0,0,0,0,0,0,-1,1896,1520,0,0
679,-496,0,0,0,0,0,0,0,0,0,-1,1903,1520,0,0
686,-496,0,0,0,0,0,0,0,0,0,-1,1910,1520,0,0
693,-496,0,0,0,0,0,0,0,0,0,-1,1917,1520,0,0
700,-496,0,0,0,0,0,0,0,0,0,-1,1924,1520,0,0
707,-496,0,0,0,0,0,0,0,0,0,-1,1931,1520,0,0
714,-496,0,0,0,0,0,0,0,0,0,-1,1938,1520,0,0
721,-496,0,0,0,0,0,0,0,0,0,-1,1945,1520,0,0
728,-496,0,0,0,0,0,0,0,0,0,-1,1952,1520,0,0
735,-496,0,0,0,0,0,0,0,0,0,-1,1959,1520,0,0
742,-496,0,0,0,0,0,0,0,0,0,-1,1966,1520,0,0
749,-496,0,0,0,0,0,0,0,0,0,-1,1973,1520,0,0
756,-496,0,0,0,0,0,0,0,0,0,-1,1980,1520,0,0
763,-496,0,0,0,0,0,0,0,0,0,-1,1987,1520,0,0
770,-496,0,0,0,0,0,0,0,0,0,-1,1994,1520,0,0
777,-496,0,0,0,0,0,0,0,0,0,-1,2001,1520,0,0
784,-496,0,0,0,0,0,0,0,0,0,-1,2008,1520,0,0
791,-496,0,0,0,0,0,0,0,0,0,-1,2015,1520,0,0
798,-496,0,0,0,0,0,0,0,0,0,-1,2022,1520,0,0
805,-496,0,0,0,0,0,0,0,0,0,-1,2029,1520,0,0
812,-496,0,0,0,0,0,0,0,0,0,-1,2036,1520,0,0
-700,-503,0,0,0,0,0,0,0,0,0,-1,524,1527,0,0
-693,-503,0,0,0,0,0,0,0,0,0,-1,531,1527,0,0
-686,-503,0,0,0,0,0,0,0,0,0,-1,538,1527,0,0
-679,-503,0,0,0,0,0,0,0,0,0,-1,545,1527,0,0
-672,-503,0,0,0,0,0,0,0,0,0,-1,552,1527,0,0
-665,-503,0,0,0,0,0,0,0,0,0,-1,559,1527,0,0
-658,-503,0,0,0,0,0,0,0,0,0,-1,566,1527,0,0
-651,-503,0,0,0,0,0,0,0,0,0,-1,573,1527,0,0
-644,-503,0,0,0,0,0,0,0,0,0,-1,580,1527,0,0
-637,-503,0,0,0,0,0,0,0,0,0,-1,587,1527,0,0
-630,-503,0,0,0,0,0,0,0,0,0,-1,594,1527,0,0
-623,-503,0,0,0,0,0,0,0,0,0,-1,601,1527,0,0
-616,-503,0,0,0,0,0,0,0,0,0,-1,608,1527,0,0
-609,-503,0,0,0,0,0,0,0,0,0,-1,615,1527,0,0
-602,-503,0,0,0,0,0,0,0,0,0,-1,622,1527,0,0
-595,-503,0,0,0,0,0,0,0,0,0,-1,629,1527,0,0
-588,-503,0,0,0,0,0,0,0,0,0,-1,636,1527,0,0
-581,-503,0,0,0,0,0,0,0,0,0,-1,643,1527,0,0
-574,-503,0,0,0,0,0,0,0,0,0,-1,650,1527,0,0
-567,-503,0,0,0,0,0,0,0,0,0,-1,657,1527,0,0
-560,-503,0,0,0,0,0,0,0,0,0,-1,664,1527,0,0
-553,-503,0,0,0,0,0,0,0,0,0,-1,671,1527,0,0
-546,-503,0,0,0,0,0,0,0,0,0,-1,678,1527,0,0
-539,-503,3.50177,4.26428,0,0,0,0,0,0,0,-1,685,1527,3.50177,-4.26424
-532,-503,-3.62512,2.224,0,0,0,0,0,0,0,-1,692,1527,-3.62512,-2.22401
-525,-503,-4.38947,4.95825,0,0,0,0,0,0,0,-1,699,1527,-4.38944,-4.9582
-518,-503,-4.9035,6.26648,0,0,0,0,0,0,0,-1,706,1527,-4.90347,-6.26645
-511,-503,-5.23602,7.28149,0,0,0,0,0,0,0,-1,713,1527,-5.23603,-7.28153
-504,-503,-0.757324,4.72424,0,0,0,0,0,0,0,-1,720,1527,-0.757319,-4.72427
-497,-503,-2.95447,8.69238,0,0,0,0,0,0,0,-1,727,1527,-2.95446,-8.69233
-490,-503,-1.60809,8.19653,0.0188455,-0.00496656,0.00665279,0.0205781,-0.00669919,0.254777,0.016414,0.0471635,734,1527,-1.60806,-8.19654
-483,-503,-1.47101,8.18433,0.0130757,-0.00335919,0.00378443,0.0139053,-0.00418875,0.215791,0.0109372,0.039162,741,1527,-1.47101,-8.18427
-476,-503,-1.62378,8.44946,0.00887947,-0.00196218,0.00217518,0.0092996,-0.00238231,0.190798,0.0071278,0.0200263,748,1527,-1.62375,-8.44947
-469,-503,-1.69861,8.70825,0.00577462,-0.00123485,0.000788476,0.00586222,-0.00132245,0.110645,0.00441547,0.00981294,755,1527,-1.6986,-8.70823
-462,-503,-1.70197,9.0304,0.00365726,-0.000433853,0.000196108,0.00366664,-0.000443232,0.0477891,0.00260477,0.0115069,762,1527,-1.70194,-9.03038
-455,-503,-1.68787,9.34729,0.00252845,-9.37339e-05,8.80477e-05,0.0025314,-9.6687e-05,0.0335277,0.00172073,0.0173692,769,1527,-1.68788,-9.34729
-448,-503,-1.67316,9.64514,0.00192136,-6.70219e-05,2.33645e-05,0.00192163,-6.72964e-05,0.0117484,0.0013041,0.0156383,776,1527,-1.67318,-9.64513
-441,-503,-1.67609,9.9425,0.00173123,8.43606e-06,-1.59874e-05,0.00173138,8.28766e-06,-0.00927888,0.0011515,0.0128986,783,1527,-1.67612,-9.9425
-434,-503,-1.69208,10.22,0.002056,-0.000289474,7.57141e-05,0.00205844,-0.000291915,0.0322362,0.00147923,0.0114568,790,1527,-1.69211,-10.22
-427,-503,-1.71124,10.5239,0.00276639,-0.00104604,-8.58664e-05,0.00276833,-0.00104797,-0.0225075,0.00227674,0.0176642,797,1527,-1.71125,-10.5239
-420,-503,-1.69415,10.8179,0.00359484,-0.00172705,-0.000266461,0.00360815,-0.00174036,-0.0499024,0.0031501,0.0180407,804,1527,-1.69416,-10.8179
-413,-503,-1.69427,11.1112,0.00439965,-0.00238084,-0.000439467,0.00442801,-0.00240921,-0.0644541,0.00400442,0.0146349,811,1527,-1.69428,-11.1112
-406,-503,-1.68597,11.411,0.00498014,-0.00308487,-0.00073393,0.00504638,-0.00315111,-0.0900165,0.00477481,0.0169099,818,1527,-1.68596,-11.4111
-399,-503,-1.5755,11.8145,0.00554948,-0.0041566,-0.00088141,0.00562887,-0.00423599,-0.0898309,0.00571437,0.0247777,825,1527,-1.57549,-11.8145
-392,-503,-1.4212,12.1605,0.0059215,-0.00548245,-0.00151525,0.0061194,-0.00568035,-0.129869,0.00681416,0.046892,832,1527,-1.42123,-12.1605
-385,-503,-1.64636,12.4349,0,0,0,0,0,0,0,-1,839,1527,-1.64635,-12.4349
-378,-503,-1.35071,12.5137,0,0,0,0,0,0,0,-1,846,1527,-1.35068,-12.5136
-371,-503,-1.44629,12.5931,0,0,0,0,0,0,0,-1,853,1527,-1.44629,-12.5931
-364,-503,0.181396,12.3768,0,0,0,0,0,0,0,-1,860,1527,0.18138,-12.3768
-357,-503,0.558533,9.25452,0,0,0,0,0,0,0,-1,867,1527,0.558542,-9.25446
-350,-503,0.219971,6.84827,0,0,0,0,0,0,0,-1,874,1527,0.21996,-6.84831
-343,-503,-3.5802,4.43274,0,0,0,0,0,0,0,-1,881,1527,-3.58018,-4.43276
-336,-503,-3.2384,6.40637,0,0,0,0,0,0,0,-1,888,1527,-3.2384,-6.40643
-329,-503,-1.70691,11.886,0,0,0,0,0,0,0,-1,895,1527,-1.70689,-11.886
-322,-503,-3.31317,8.81519,0,0,0,0,0,0,0,-1,902,1527,-3.31315,-8.81524
-315,-503,-3.90265,7.73853,0,0,0,0,0,0,0,-1,909,1527,-3.90264,-7.73854
-308,-503,-4.07373,7.47705,0,0,0,0,0,0,0,-1,916,1527,-4.07372,-7.47704
-301,-503,0,0,0,0,0,0,0,0,0,-1,923,1527,0,0
-294,-503,0,0,0,0,0,0,0,0,0,-1,930,1527,0,0
-287,-503,0,0,0,0,0,0,0,0,0,-1,937,1527,0,0
-280,-503,0,0,0,0,0,0,0,0,0,-1,944,1527,0,0
-273,-503,0,0,0,0,0,0,0,0,0,-1,951,1527,0,0
-266,-503,0,0,0,0,0,0,0,0,0,-1,958,1527,0,0
-259,-503,0,0,0,0,0,0,0,0,0,-1,965,1527,0,0
-252,-503,0,0,0,0,0,0,0,0,0,-1,972,1527,0,0
-245,-503,0,0,0,0,0,0,0,0,0,-1,979,1527,0,0
-238,-503,0,0,0,0,0,0,0,0,0,-1,986,1527,0,0
-231,-503,0,0,0,0,0,0,0,0,0,-1,993,1527,0,0
-224,-503,0,0,0,0,0,0,0,0,0,-1,1000,1527,0,0
-217,-503,0,0,0,0,0,0,0,0,0,-1,1007,1527,0,0
-210,-503,0,0,0,0,0,0,0,0,0,-1,1014,1527,0,0
-203,-503,0,0,0,0,0,0,0,0,0,-1,1021,1527,0,0
-196,-503,0,0,0,0,0,0,0,0,0,-1,1028,1527,0,0
-189,-503,0,0,0,0,0,0,0,0,0,-1,1035,1527,0,0
-182,-503,0,0,0,0,0,0,0,0,0,-1,1042,1527,0,0
-175,-503,0,0,0,0,0,0,0,0,0,-1,1049,1527,0,0
-168,-503,0,0,0,0,0,0,0,0,0,-1,1056,1527,0,0
-161,-503,0,0,0,0,0,0,0,0,0,-1,1063,1527,0,0
-154,-503,0,0,0,0,0,0,0,0,0,-1,1070,1527,0,0
-147,-503,0,0,0,0,0,0,0,0,0,-1,1077,1527,0,0
-140,-503,0,0,0,0,0,0,0,0,0,-1,1084,1527,0,0
-133,-503,0,0,0,0,0,0,0,0,0,-1,1091,1527,0,0
-126,-503,0,0,0,0,0,0,0,0,0,-1,1098,1527,0,0
-119,-503,0,0,0,0,0,0,0,0,0,-1,1105,1527,0,0
-112,-503,0,0,0,0,0,0,0,0,0,-1,1112,1527,0,0
-105,-503,0,0,0,0,0,0,0,0,0,-1,1119,1527,0,0
-98,-503,0,0,0,0,0,0,0,0,0,-1,1126,1527,0,0
-91,-503,0,0,0,0,0,0,0,0,0,-1,1133,1527,0,0
-84,-503,0,0,0,0,0,0,0,0,0,-1,1140,1527,0,0
-77,-503,0,0,0,0,0,0,0,0,0,-1,1147,1527,0,0
-70,-503,0,0,0,0,0,0,0,0,0,-1,1154,1527,0,0
-63,-503,0,0,0,0,0,0,0,0,0,-1,1161,1527,0,0
-56,-503,0,0,0,0,0,0,0,0,0,-1,1168,1527,0,0
-49,-503,0,0,0,0,0,0,0,0,0,-1,1175,1527,0,0
-42,-503,0,0,0,0,0,0,0,0,0,-1,1182,1527,0,0
-35,-503,0,0,0,0,0,0,0,0,0,-1,1189,1527,0,0
-28,-503,0,0,0,0,0,0,0,0,0,-1,1196,1527,0,0
-21,-503,0,0,0,0,0,0,0,0,0,-1,1203,1527,0,0
-14,-503,0,0,0,0,0,0,0,0,0,-1,1210,1527,0,0
-7,-503,0,0,0,0,0,0,0,0,0,-1,1217,1527,0,0
0,-503,0,0,0,0,0,0,0,0,0,-1,1224,1527,0,0
7,-503,0,0,0,0,0,0,0,0,0,-1,1231,1527,0,0
14,-503,0,0,0,0,0,0,0,0,0,-1,1238,1527,0,0
21,-503,0,0,0,0,0,0,0,0,0,-1,1245,1527,0,0
28,-503,0,0,0,0,0,0,0,0,0,-1,1252,1527,0,0
35,-503,0,0,0,0,0,0,0,0,0,-1,1259,1527,0,0
42,-503,0,0,0,0,0,0,0,0,0,-1,1266,1527,0,0
49,-503,0,0,0,0,0,0,0,0,0,-1,1273,1527,0,0
56,-503,0,0,0,0,0,0,0,0,0,-1,1280,1527,0,0
63,-503,0,0,0,0,0,0,0,0,0,-1,1287,1527,0,0
70,-503,0,0,0,0,0,0,0,0,0,-1,1294,1527,0,0
77,-503,0,0,0,0,0,0,0,0,0,-1,1301,1527,0,0
84,-503,0,0,0,0,0,0,0,0,0,-1,1308,1527,0,0
91,-503,0,0,0,0,0,0,0,0,0,-1,1315,1527,0,0
98,-503,0,0,0,0,0,0,0,0,0,-1,1322,1527,0,0
105,-503,0,0,0,0,0,0,0,0,0,-1,1329,1527,0,0
112,-503,0,0,0,0,0,0,0,0,0,-1,1336,1527,0,0
119,-503,0,0,0,0,0,0,0,0,0,-1,1343,1527,0,0
126,-503,0,0,0,0,0,0,0,0,0,-1,1350,1527,0,0
133,-503,0,0,0,0,0,0,0,0,0,-1,1357,1527,0,0
140,-503,0,0,0,0,0,0,0,0,0,-1,1364,1527,0,0
147,-503,0,0,0,0,0,0,0,0,0,-1,1371,1527,0,0
154,-503,0,0,0,0,0,0,0,0,0,-1,1378,1527,0,0
161,-503,0,0,0,0,0,0,0,0,0,-1,1385,1527,0,0
168,-503,0,0,0,0,0,0,0,0,0,-1,1392,1527,0,0
175,-503,0,0,0,0,0,0,0,0,0,-1,1399,1527,0,0
182,-503,0,0,0,0,0,0,0,0,0,-1,1406,1527,0,0
189,-503,0,0,0,0,0,0,0,0,0,-1,1413,1527,0,0
196,-503,0,0,0,0,0,0,0,0,0,-1,1420,1527,0,0
203,-503,0,0,0,0,0,0,0,0,0,-1,1427,1527,0,0
210,-503,0,0,0,0,0,0,0,0,0,-1,1434,1527,0,0
217,-503,0,0,0,0,0,0,0,0,0,-1,1441,1527,0,0
224,-503,0,0,0,0,0,0,0,0,0,-1,1448,1527,0,0
231,-503,0,0,0,0,0,0,0,0,0,-1,1455,1527,0,0
238,-503,0,0,0,0,0,0,0,0,0,-1,1462,1527,0,0
245,-503,0,0,0,0,0,0,0,0,0,-1,1469,1527,0,0
252,-503,0,0,0,0,0,0,0,0,0,-1,1476,1527,0,0
259,-503,0,0,0,0,0,0,0,0,0,-1,1483,1527,0,0
266,-503,0,0,0,0,0,0,0,0,0,-1,1490,1527,0,0
273,-503,0,0,0,0,0,0,0,0,0,-1,1497,1527,0,0
280,-503,0,0,0,0,0,0,0,0,0,-1,1504,1527,0,0
287,-503,0,0,0,0,0,0,0,0,0,-1,1511,1527,0,0
294,-503,0,0,0,0,0,0,0,0,0,-1,1518,1527,0,0
301,-503,0,0,0,0,0,0,0,0,0,-1,1525,1527,0,0
308,-503,0,0,0,0,0,0,0,0,0,-1,1532,1527,0,0
315,-503,0,0,0,0,0,0,0,0,0,-1,1539,1527,0,0
322,-503,0,0,0,0,0,0,0,0,0,-1,1546,1527,0,0
329,-503,0,0,0,0,0,0,0,0,0,-1,1553,1527,0,0
336,-503,0,0,0,0,0,0,0,0,0,-1,1560,1527,0,0
343,-503,0,0,0,0,0,0,0,0,0,-1,1567,1527,0,0
350,-503,0,0,0,0,0,0,0,0,0,-1,1574,1527,0,0
357,-503,0,0,0,0,0,0,0,0,0,-1,1581,1527,0,0
364,-503,0,0,0,0,0,0,0,0,0,-1,1588,1527,0,0
371,-503,0,0,0,0,0,0,0,0,0,-1,1595,1527,0,0
378,-503,0,0,0,0,0,0,0,0,0,-1,1602,1527,0,0
385,-503,0,0,0,0,0,0,0,0,0,-1,1609,1527,0,0
392,-503,0,0,0,0,0,0,0,0,0,-1,1616,1527,0,0
399,-503,0,0,0,0,0,0,0,0,0,-1,1623,1527,0,0
406,-503,0,0,0,0,0,0,0,0,0,-1,1630,1527,0,0
413,-503,0,0,0,0,0,0,0,0,0,-1,1637,1527,0,0
420,-503,0,0,0,0,0,0,0,0,0,-1,1644,1527,0,0
427,-503,10.5968,4.9856,0,0,0,0,0,0,0,-1,1651,1527,10.5969,-4.98563
434,-503,11.4329,3.97217,0,0,0,0,0,0,0,-1,1658,1527,11.4328,-3.97222
441,-503,12.0957,2.96509,0,0,0,0,0,0,0,-1,1665,1527,12.0957,-2.96512
448,-503,12.3259,2.53894,0,0,0,0,0,0,0,-1,1672,1527,12.326,-2.53895
455,-503,12.1669,2.18762,0,0,0,0,0,0,0,-1,1679,1527,12.1668,-2.18767
462,-503,11.59,2.60791,0,0,0,0,0,0,0,-1,1686,1527,11.5899,-2.60794
469,-503,11.1625,1.61853,0,0,0,0,0,0,0,-1,1693,1527,11.1625,-1.61856
476,-503,9.07703,5.81042,0,0,0,0,0,0,0,-1,1700,1527,9.07699,-5.81047
483,-503,9.74414,6.92432,0,0,0,0,0,0,0,-1,1707,1527,9.74417,-6.9243
490,-503,10.5033,10.1071,0,0,0,0,0,0,0,-1,1714,1527,10.5032,-10.107
497,-503,12.741,12.1066,0,0,0,0,0,0,0,-1,1721,1527,12.741,-12.1065
504,-503,12.5739,12.5107,0,0,0,0,0,0,0,-1,1728,1527,12.5739,-12.5108
511,-503,13.6647,13.2783,0,0,0,0,0,0,0,-1,1735,1527,13.6647,-13.2783
518,-503,12.4248,13.4241,-0.0172718,-0.0245572,0.0241272,0.00348609,-0.0453151,0.710474,0.0314366,0.0454588,1742,1527,12.4248,-13.4241
525,-503,12.0643,13.2426,-0.0134068,-0.0179353,0.0179362,0.00240751,-0.0337497,0.722611,0.0233437,0.0391638,1749,1527,12.0644,-13.2425
532,-503,11.9314,13.0634,-0.010309,-0.0131164,0.0132932,0.00165445,-0.0250798,0.732796,0.0172978,0.0145284,1756,1527,11.9314,-13.0633
539,-503,11.9474,12.7922,-0.00777955,-0.00897786,0.00954059,0.00118068,-0.0179381,0.754039,0.0123711,0.0124002,1763,1527,11.9473,-12.7923
546,-503,11.9266,12.5181,-0.0055617,-0.00629026,0.00668093,0.00076488,-0.0126168,0.758162,0.00867743,0.0119036,1770,1527,11.9266,-12.5181
553,-503,11.9619,12.2437,-0.00384567,-0.00393052,0.00441193,0.00052404,-0.00830023,0.78059,0.00571618,0.013345,1777,1527,11.962,-12.2437
560,-503,11.9542,11.9762,-0.00216707,-0.00243336,0.00262039,0.000323559,-0.00492399,0.760014,0.00339565,0.0127962,1784,1527,11.9542,-11.9762
567,-503,11.9474,11.7001,-0.000336214,-0.00129093,0.00109207,0.000378268,-0.00200541,0.579355,0.00147924,0.0120399,1791,1527,11.9473,-11.7001
574,-503,11.9531,11.4323,0.00147391,-0.000499657,1.31894e-05,0.001474,-0.000499745,0.00668262,0.00118491,0.0121893,1798,1527,11.9531,-11.4322
581,-503,11.931,11.1757,0.00300876,0.000229713,-0.000902321,0.00327603,-3.75551e-05,-0.287968,0.00219664,0.0127269,1805,1527,11.9311,-11.1756
588,-503,11.923,10.9009,0.00466468,0.000374384,-0.00166684,0.00523615,-0.000197084,-0.330287,0.00355828,0.0147411,1812,1527,11.923,-10.9009
595,-503,11.9329,10.599,0.00664999,0.00032939,-0.00236277,0.00743559,-0.000456217,-0.320995,0.00511592,0.0124401,1819,1527,11.9329,-10.599
602,-503,11.9489,10.2953,0.00899324,-1.13702e-05,-0.00297215,0.00988578,-0.000903916,-0.291735,0.00691156,0.0150944,1826,1527,11.9488,-10.2952
609,-503,11.9879,9.99365,0.0117662,-0.00069793,-0.00351639,0.0126898,-0.00162154,-0.256855,0.00904897,0.0224935,1833,1527,11.9879,-9.99369
616,-503,11.9073,9.85559,0.0151099,-0.0018262,-0.00394456,0.0159836,-0.00269985,-0.217965,0.0116603,0.0231549,1840,1527,11.9073,-9.85559
623,-503,12.1517,9.60962,0.0192319,-0.00348386,-0.00421332,0.0199882,-0.00424017,-0.177612,0.0149408,0.0383693,1847,1527,12.1518,-9.60961
630,-503,13.1948,9.46924,0,0,0,0,0,0,0,-1,1854,1527,13.1948,-9.46922
637,-503,14.5564,9.20496,0,0,0,0,0,0,0,-1,1861,1527,14.5564,-9.2049
644,-503,11.4802,7.57214,0,0,0,0,0,0,0,-1,1868,1527,11.4802,-7.57215
651,-503,11.5718,6.5448,0,0,0,0,0,0,0,-1,1875,1527,11.5718,-6.54476
658,-503,8.25635,3.10498,0,0,0,0,0,0,0,-1,1882,1527,8.2563,-3.10493
665,-503,0,0,0,0,0,0,0,0,0,-1,1889,1527,0,0
672,-503,0,0,0,0,0,0,0,0,0,-1,1896,1527,0,0
679,-503,0,0,0,0,0,0,0,0,0,-1,1903,1527,0,0
686,-503,0,0,0,0,0,0,0,0,0,-1,1910,1527,0,0
693,-503,0,0,0,0,0,0,0,0,0,-1,1917,1527,0,0
700,-503,0,0,0,0,0,0,0,0,0,-1,1924,1527,0,0
707,-503,0,0,0,0,0,0,0,0,0,-1,1931,1527,0,0
714,-503,0,0,0,0,0,0,0,0,0,-1,1938,1527,0,0
721,-503,0,0,0,0,0,0,0,0,0,-1,1945,1527,0,0
728,-503,0,0,0,0,0,0,0,0,0,-1,1952,1527,0,0
735,-503,0,0,0,0,0,0,0,0,0,-1,1959,1527,0,0
742,-503,0,0,0,0,0,0,0,0,0,-1,1966,1527,0,0
749,-503,0,0,0,0,0,0,0,0,0,-1,1973,1527,0,0
756,-503,0,0,0,0,0,0,0,0,0,-1,1980,1527,0,0
763,-503,0,0,0,0,0,0,0,0,0,-1,1987,1527,0,0
770,-503,0,0,0,0,0,0,0,0,0,-1,1994,1527,0,0
777,-503,0,0,0,0,0,0,0,0,0,-1,2001,1527,0,0
784,-503,0,0,0,0,0,0,0,0,0,-1,2008,1527,0,0
791,-503,0,0,0,0,0,0,0,0,0,-1,2015,1527,0,0
798,-503,0,0,0,0,0,0,0,0,0,-1,2022,1527,0,0
805,-503,0,0,0,0,0,0,0,0,0,-1,2029,1527,0,0
812,-503,0,0,0,0,0,0,0,0,0,-1,2036,1527,0,0
-700,-510,0,0,0,0,0,0,0,0,0,-1,524,1534,0,0
-693,-510,0,0,0,0,0,0,0,0,0,-1,531,1534,0,0
-686,-510,0,0,0,0,0,0,0,0,0,-1,538,1534,0,0
-679,-510,0,0,0,0,0,0,0,0,0,-1,545,1534,0,0
-672,-510,0,0,0,0,0,0,0,0,0,-1,552,1534,0,0
-665,-510,0,0,0,0,0,0,0,0,0,-1,559,1534,0,0
-658,-510,0,0,0,0,0,0,0,0,0,-1,566,1534,0,0
-651,-510,0,0,0,0,0,0,0,0,0,-1,573,1534,0,0
-644,-510,0,0,0,0,0,0,0,0,0,-1,580,1534,0,0
-637,-510,0,0,0,0,0,0,0,0,0,-1,587,1534,0,0
-630,-510,0,0,0,0,0,0,0,0,0,-1,594,1534,0,0
-623,-510,0,0,0,0,0,0,0,0,0,-1,601,1534,0,0
-616,-510,0,0,0,0,0,0,0,0,0,-1,608,1534,0,0
-609,-510,0,0,0,0,0,0,0,0,0,-1,615,1534,0,0
-602,-510,0,0,0,0,0,0,0,0,0,-1,622,1534,0,0
-595,-510,0,0,0,0,0,0,0,0,0,-1,629,1534,0,0
-588,-510,0,0,0,0,0,0,0,0,0,-1,636,1534,0,0
-581,-510,0,0,0,0,0,0,0,0,0,-1,643,1534,0,0
-574,-510,0,0,0,0,0,0,0,0,0,-1,650,1534,0,0
-567,-510,0,0,0,0,0,0,0,0,0,-1,657,1534,0,0
-560,-510,0,0,0,0,0,0,0,0,0,-1,664,1534,0,0
-553,-510,0,0,0,0,0,0,0,0,0,-1,671,1534,0,0
-546,-510,0,0,0,0,0,0,0,0,0,-1,678,1534,0,0
-539,-510,0,0,0,0,0,0,0,0,0,-1,685,1534,0,0
-532,-510,2.29291,4.35352,0,0,0,0,0,0,0,-1,692,1534,2.29289,-4.35348
-525,-510,-2.76245,5.60095,0,0,0,0,0,0,0,-1,699,1534,-2.76244,-5.60094
-518,-510,-2.302,5.00061,0,0,0,0,0,0,0,-1,706,1534,-2.30202,-5.00055
-511,-510,-1.84161,4.40015,0,0,0,0,0,0,0,-1,713,1534,-1.8416,-4.40017
-504,-510,-0.332153,3.54688,0,0,0,0,0,0,0,-1,720,1534,-0.332171,-3.54682
-497,-510,-1.35992,8.10974,0,0,0,0,0,0,0,-1,727,1534,-1.35992,-8.10977
-490,-510,-1.20074,8.31445,0.0206514,-0.00405887,0.00693631,0.0224653,-0.00587278,0.255781,0.0172705,0.0483321,734,1534,-1.20075,-8.31442
-483,-510,-1.11151,8.35547,0.0141714,-0.0021926,0.00413726,0.015158,-0.00317913,0.23408,0.0113149,0.0420711,741,1534,-1.11149,-8.35551
-476,-510,-1.22882,8.39343,0.00946205,-0.000658732,0.00259191,0.0100872,-0.0012839,0.236678,0.00719108,0.0297557,748,1534,-1.22883,-8.39345
-469,-510,-1.38123,8.71423,0.00604196,0.000209355,0.00138413,0.00635376,-0.000102442,0.221568,0.00427039,0.0120119,755,1534,-1.38124,-8.71419
-462,-510,-1.39233,9.0249,0.00370518,0.000975258,0.000935298,0.00399487,0.000685558,0.300369,0.00246669,0.0117626,762,1534,-1.39235,-9.02494
-455,-510,-1.40387,9.35999,0.00248857,0.00120779,0.000894618,0.00294838,0.000747977,0.474763,0.00176976,0.0141957,769,1534,-1.40385,-9.35995
-448,-510,-1.36859,9.6676,0.00180581,0.00111785,0.000845946,0.00237504,0.000548626,0.592297,0.00143586,0.0127615,776,1534,-1.36857,-9.66757
-441,-510,-1.37665,9.93848,0.00150962,0.00111088,0.000784224,0.00211942,0.000501079,0.660921,0.00127907,0.0137186,783,1534,-1.37665,-9.93843
-434,-510,-1.4165,10.2108,0.00174243,0.000789306,0.000896119,0.00228083,0.000250909,0.541014,0.0014442,0.0148336,790,1534,-1.41651,-10.2108
-427,-510,-1.41254,10.516,0.00239025,7.30588e-05,0.000747808,0.00261062,-0.000147317,0.286583,0.00179154,0.0226681,797,1534,-1.41253,-10.516
-420,-510,-1.40131,10.8252,0.00317904,-0.000550427,0.000547199,0.00325767,-0.000629056,0.142717,0.002409,0.0212813,804,1534,-1.40132,-10.8252
-413,-510,-1.40662,11.1262,0.00386932,-0.00112982,0.000362249,0.00389544,-0.00115593,0.0719612,0.00305603,0.0109063,811,1534,-1.40659,-11.1263
-406,-510,-1.40771,11.4292,0.00433671,-0.00176938,3.97303e-05,0.00433697,-0.00176964,0.0065063,0.00362803,0.0104357,818,1534,-1.40771,-11.4292
-399,-510,-1.40216,11.7144,0.00478991,-0.00250691,-0.000145397,0.0047928,-0.0025098,-0.0199156,0.00428429,0.0124737,825,1534,-1.40215,-11.7144
-392,-510,-1.30231,12.1035,0.00505968,-0.00339277,-0.000642034,0.00510817,-0.00344126,-0.0753819,0.00496719,0.027836,832,1534,-1.30232,-12.1035
-385,-510,-1.32745,12.3484,0.00484856,-0.00402894,-0.00128313,0.0050303,-0.00421068,-0.140701,0.00534227,0.0460887,839,1534,-1.32746,-12.3484
-378,-510,-1.44067,12.2585,0.00405525,-0.00494207,-0.00254626,0.00472587,-0.00561269,-0.257524,0.00597628,0.0448232,846,1534,-1.44067,-12.2586
-371,-510,-1.24646,12.563,0,0,0,0,0,0,0,-1,853,1534,-1.24644,-12.5629
-364,-510,-0.927673,12.8445,0,0,0,0,0,0,0,-1,860,1534,-0.927665,-12.8445
-357,-510,-0.254395,8.89575,0,0,0,0,0,0,0,-1,867,1534,-0.254397,-8.89569
-350,-510,0.471191,6.06458,0,0,0,0,0,0,0,-1,874,1534,0.47118,-6.06453
-343,-510,-2.94617,5.00989,0,0,0,0,0,0,0,-1,881,1534,-2.94615,-5.00992
-336,-510,-1.92963,11.3776,0,0,0,0,0,0,0,-1,888,1534,-1.92962,-11.3775
-329,-510,-1.71991,15.4904,0,0,0,0,0,0,0,-1,895,1534,-1.71993,-15.4904
-322,-510,-0.251526,11.973,0,0,0,0,0,0,0,-1,902,1534,-0.251497,-11.9731
-315,-510,-1.73047,10.9796,0,0,0,0,0,0,0,-1,909,1534,-1.73049,-10.9796
-308,-510,-2.05328,9.72034,0,0,0,0,0,0,0,-1,916,1534,-2.05327,-9.72036
-301,-510,-2.43726,10.6379,0,0,0,0,0,0,0,-1,923,1534,-2.43724,-10.638
-294,-510,0,0,0,0,0,0,0,0,0,-1,930,1534,0,0
-287,-510,0,0,0,0,0,0,0,0,0,-1,937,1534,0,0
-280,-510,0,0,0,0,0,0,0,0,0,-1,944,1534,0,0
-273,-510,0,0,0,0,0,0,0,0,0,-1,951,1534,0,0
-266,-510,0,0,0,0,0,0,0,0,0,-1,958,1534,0,0
-259,-510,0,0,0,0,0,0,0,0,0,-1,965,1534,0,0
-252,-510,0,0,0,0,0,0,0,0,0,-1,972,1534,0,0
-245,-510,0,0,0,0,0,0,0,0,0,-1,979,1534,0,0
-238,-510,0,0,0,0,0,0,0,0,0,-1,986,1534,0,0
-231,-510,0,0,0,0,0,0,0,0,0,-1,993,1534,0,0
-224,-510,0,0,0,0,0,0,0,0,0,-1,1000,1534,0,0
-217,-510,0,0,0,0,0,0,0,0,0,-1,1007,1534,0,0
-210,-510,0,0,0,0,0,0,0,0,0,-1,1014,1534,0,0
-203,-510,0,0,0,0,0,0,0,0,0,-1,1021,1534,0,0
-196,-510,0,0,0,0,0,0,0,0,0,-1,1028,1534,0,0
-189,-510,0,0,0,0,0,0,0,0,0,-1,1035,1534,0,0
-182,-510,0,0,0,0,0,0,0,0,0,-1,1042,1534,0,0
-175,-510,0,0,0,0,0,0,0,0,0,-1,1049,1534,0,0
-168,-510,0,0,0,0,0,0,0,0,0,-1,1056,1534,0,0
-161,-510,0,0,0,0,0,0,0,0,0,-1,1063,1534,0,0
-154,-510,0,0,0,0,0,0,0,0,0,-1,1070,1534,0,0
-147,-510,0,0,0,0,0,0,0,0,0,-1,1077,1534,0,0
-140,-510,0,0,0,0,0,0,0,0,0,-1,1084,1534,0,0
-133,-510,0,0,0,0,0,0,0,0,0,-1,1091,1534,0,0
-126,-510,0,0,0,0,0,0,0,0,0,-1,1098,1534,0,0
-119,-510,0,0,0,0,0,0,0,0,0,-1,1105,1534,0,0
-112,-510,0,0,0,0,0,0,0,0,0,-1,1112,1534,0,0
-105,-510,0,0,0,0,0,0,0,0,0,-1,1119,1534,0,0
-98,-510,0,0,0,0,0,0,0,0,0,-1,1126,1534,0,0
-91,-510,0,0,0,0,0,0,0,0,0,-1,1133,1534,0,0
-84,-510,0,0,0,0,0,0,0,0,0,-1,1140,1534,0,0
-77,-510,0,0,0,0,0,0,0,0,0,-1,1147,1534,0,0
-70,-510,0,0,0,0,0,0,0,0,0,-1,1154,1534,0,0
-63,-510,0,0,0,0,0,0,0,0,0,-1,1161,1534,0,0
-56,-510,0,0,0,0,0,0,0,0,0,-1,1168,1534,0,0
-49,-510,0,0,0,0,0,0,0,0,0,-1,1175,1534,0,0
-42,-510,0,0,0,0,0,0,0,0,0,-1,1182,1534,0,0
-35,-510,0,0,0,0,0,0,0,0,0,-1,1189,1534,0,0
-28,-510,0,0,0,0,0,0,0,0,0,-1,1196,1534,0,0
-21,-510,0,0,0,0,0,0,0,0,0,-1,1203,1534,0,0
-14,-510,0,0,0,0,0,0,0,0,0,-1,1210,1534,0,0
-7,-510,0,0,0,0,0,0,0,0,0,-1,1217,1534,0,0
0,-510,0,0,0,0,0,0,0,0,0,-1,1224,1534,0,0
7,-510,0,0,0,0,0,0,0,0,0,-1,1231,1534,0,0
14,-510,0,0,0,0,0,0,0,0,0,-1,1238,1534,0,0
21,-510,0,0,0,0,0,0,0,0,0,-1,1245,1534,0,0
28,-510,0,0,0,0,0,0,0,0,0,-1,1252,1534,0,0
35,-510,0,0,0,0,0,0,0,0,0,-1,1259,1534,0,0
42,-510,0,0,0,0,0,0,0,0,0,-1,1266,1534,0,0
49,-510,0,0,0,0,0,0,0,0,0,-1,1273,1534,0,0
56,-510,0,0,0,0,0,0,0,0,0,-1,1280,1534,0,0
63,-510,0,0,0,0,0,0,0,0,0,-1,1287,1534,0,0
70,-510,0,0,0,0,0,0,0,0,0,-1,1294,1534,0,0
77,-510,0,0,0,0,0,0,0,0,0,-1,1301,1534,0,0
84,-510,0,0,0,0,0,0,0,0,0,-1,1308,1534,0,0
91,-510,0,0,0,0,0,0,0,0,0,-1,1315,1534,0,0
98,-510,0,0,0,0,0,0,0,0,0,-1,1322,1534,0,0
105,-510,0,0,0,0,0,0,0,0,0,-1,1329,1534,0,0
112,-510,0,0,0,0,0,0,0,0,0,-1,1336,1534,0,0
119,-510,0,0,0,0,0,0,0,0,0,-1,1343,1534,0,0
126,-510,0,0,0,0,0,0,0,0,0,-1,1350,1534,0,0
133,-510,0,0,0,0,0,0,0,0,0,-1,1357,1534,0,0
140,-510,0,0,0,0,0,0,0,0,0,-1,1364,1534,0,0
147,-510,0,0,0,0,0,0,0,0,0,-1,1371,1534,0,0
154,-510,0,0,0,0,0,0,0,0,0,-1,1378,1534,0,0
161,-510,0,0,0,0,0,0,0,0,0,-1,1385,1534,0,0
168,-510,0,0,0,0,0,0,0,0,0,-1,1392,1534,0,0
175,-510,0,0,0,0,0,0,0,0,0,-1,1399,1534,0,0
182,-510,0,0,0,0,0,0,0,0,0,-1,1406,1534,0,0
189,-510,0,0,0,0,0,0,0,0,0,-1,1413,1534,0,0
196,-510,0,0,0,0,0,0,0,0,0,-1,1420,1534,0,0
203,-510,0,0,0,0,0,0,0,0,0,-1,1427,1534,0,0
210,-510,0,0,0,0,0,0,0,0,0,-1,1434,1534,0,0
217,-510,0,0,0,0,0,0,0,0,0,-1,1441,1534,0,0
224,-510,0,0,0,0,0,0,0,0,0,-1,1448,1534,0,0
231,-510,0,0,0,0,0,0,0,0,0,-1,1455,1534,0,0
238,-510,0,0,0,0,0,0,0,0,0,-1,1462,1534,0,0
245,-510,0,0,0,0,0,0,0,0,0,-1,1469,1534,0,0
252,-510,0,0,0,0,0,0,0,0,0,-1,1476,1534,0,0
259,-510,0,0,0,0,0,0,0,0,0,-1,1483,1534,0,0
266,-510,0,0,0,0,0,0,0,0,0,-1,1490,1534,0,0
273,-510,0,0,0,0,0,0,0,0,0,-1,1497,1534,0,0
280,-510,0,0,0,0,0,0,0,0,0,-1,1504,1534,0,0
287,-510,0,0,0,0,0,0,0,0,0,-1,1511,1534,0,0
294,-510,0,0,0,0,0,0,0,0,0,-1,1518,1534,0,0
301,-510,0,0,0,0,0,0,0,0,0,-1,1525,1534,0,0
308,-510,0,0,0,0,0,0,0,0,0,-1,1532,1534,0,0
315,-510,0,0,0,0,0,0,0,0,0,-1,1539,1534,0,0
322,-510,0,0,0,0,0,0,0,0,0,-1,1546,1534,0,0
329,-510,0,0,0,0,0,0,0,0,0,-1,1553,1534,0,0
336,-510,0,0,0,0,0,0,0,0,0,-1,1560,1534,0,0
343,-510,0,0,0,0,0,0,0,0,0,-1,1567,1534,0,0
350,-510,0,0,0,0,0,0,0,0,0,-1,1574,1534,0,0
357,-510,0,0,0,0,0,0,0,0,0,-1,1581,1534,0,0
364,-510,0,0,0,0,0,0,0,0,0,-1,1588,1534,0,0
371,-510,0,0,0,0,0,0,0,0,0,-1,1595,1534,0,0
378,-510,0,0,0,0,0,0,0,0,0,-1,1602,1534,0,0
385,-510,0,0,0,0,0,0,0,0,0,-1,1609,1534,0,0
392,-510,0,0,0,0,0,0,0,0,0,-1,1616,1534,0,0
399,-510,0,0,0,0,0,0,0,0,0,-1,1623,1534,0,0
406,-510,0,0,0,0,0,0,0,0,0,-1,1630,1534,0,0
413,-510,0,0,0,0,0,0,0,0,0,-1,1637,1534,0,0
420,-510,13.1918,5.99402,0,0,0,0,0,0,0,-1,1644,1534,13.1917,-5.994
427,-510,10.9799,5.12341,0,0,0,0,0,0,0,-1,1651,1534,10.9798,-5.12337
434,-510,11.8219,4.07898,0,0,0,0,0,0,0,-1,1658,1534,11.8219,-4.07895
441,-510,12.6812,3.02991,0,0,0,0,0,0,0,-1,1665,1534,12.6811,-3.0299
448,-510,13.2379,2.2804,0,0,0,0,0,0,0,-1,1672,1534,13.2379,-2.28037
455,-510,9.76892,2.20642,0,0,0,0,0,0,0,-1,1679,1534,9.76894,-2.20647
462,-510,9.84692,2.49182,0,0,0,0,0,0,0,-1,1686,1534,9.84695,-2.49185
469,-510,16.6072,7.26941,0,0,0,0,0,0,0,-1,1693,1534,16.6072,-7.26945
476,-510,15.9199,7.8645,0,0,0,0,0,0,0,-1,1700,1534,15.9199,-7.86455
483,-510,13.0833,8.10938,0,0,0,0,0,0,0,-1,1707,1534,13.0833,-8.10932
490,-510,11.5723,12.587,0,0,0,0,0,0,0,-1,1714,1534,11.5723,-12.587
497,-510,12.0132,12.7412,0,0,0,0,0,0,0,-1,1721,1534,12.0132,-12.7412
504,-510,12.3348,13.6653,0,0,0,0,0,0,0,-1,1728,1534,12.3348,-13.6652
511,-510,12.7068,13.5504,-0.0174487,-0.0271439,0.0264177,0.00456247,-0.0491551,0.694659,0.0343919,0.042578,1735,1534,12.7068,-13.5504
518,-510,11.947,13.5084,-0.0140206,-0.0201922,0.0201115,0.00324052,-0.0374533,0.709275,0.0261161,0.0388436,1742,1534,11.947,-13.5084
525,-510,11.6974,13.3677,-0.0107806,-0.0146411,0.0149098,0.00232335,-0.0277451,0.721025,0.0193178,0.0230559,1749,1534,11.6974,-13.3677
532,-510,11.6843,13.0552,-0.0082161,-0.0105942,0.0109878,0.00164683,-0.0204572,0.731499,0.0142189,0.0132873,1756,1534,11.6843,-13.0552
539,-510,11.6975,12.767,-0.00610444,-0.00699961,0.00774152,0.00120242,-0.0143065,0.756522,0.00996267,0.0132867,1763,1534,11.6975,-12.767
546,-510,11.6766,12.5223,-0.00421673,-0.00471365,0.00524888,0.000789563,-0.00971995,0.761748,0.00675855,0.0125208,1770,1534,11.6766,-12.5224
553,-510,11.689,12.2537,-0.00270332,-0.00268162,0.00325527,0.000562815,-0.00594775,0.787065,0.00416547,0.0124632,1777,1534,11.689,-12.2536
560,-510,11.6738,11.9609,-0.00112537,-0.0013894,0.00164056,0.000388484,-0.00290325,0.745251,0.00207714,0.0123103,1784,1534,11.6738,-11.9609
567,-510,11.6719,11.6829,0.000628009,-0.000430096,0.00023839,0.000679238,-0.000481325,0.211675,0.000673291,0.012063,1791,1534,11.6719,-11.6829
574,-510,11.6819,11.4307,0.00244958,0.00024897,-0.000781232,0.00269872,-1.67289e-07,-0.308708,0.0017992,0.0133658,1798,1534,11.6819,-11.4306
581,-510,11.6493,11.1921,0.00407266,0.000852082,-0.00168575,0.00479363,0.000131108,-0.404145,0.00315296,0.0121481,1805,1534,11.6493,-11.1921
588,-510,11.6405,10.9214,0.00594553,0.000960804,-0.00250483,0.00698673,-8.03941e-05,-0.393946,0.00468485,0.0123898,1812,1534,11.6405,-10.9214
595,-510,11.7206,10.5708,0.00829893,0.000933929,-0.00333663,0.00958573,-0.00035287,-0.368082,0.0065113,0.0135602,1819,1534,11.7206,-10.5708
602,-510,11.6936,10.2452,0.0112048,0.000648179,-0.00417984,0.0126593,-0.000806387,-0.334888,0.00872079,0.0291326,1826,1534,11.6936,-10.2452
609,-510,11.6461,10.1445,0.014793,-3.22373e-05,-0.00499337,0.016318,-0.00155722,-0.296405,0.0114331,0.03869,1833,1534,11.6461,-10.1446
616,-510,12.0762,9.89941,0.0193087,-0.00119689,-0.00577557,0.0208236,-0.00271172,-0.256504,0.0148689,0.0463262,1840,1534,12.0761,-9.89937
623,-510,12.3019,9.56238,0,0,0,0,0,0,0,-1,1847,1534,12.3019,-9.56236
630,-510,12.7377,9.59253,0,0,0,0,0,0,0,-1,1854,1534,12.7376,-9.59259
637,-510,11.0155,7.38464,0,0,0,0,0,0,0,-1,1861,1534,11.0155,-7.38463
644,-510,11.5809,7.17126,0,0,0,0,0,0,0,-1,1868,1534,11.5809,-7.17123
651,-510,8.70471,3.5061,0,0,0,0,0,0,0,-1,1875,1534,8.70475,-3.50611
658,-510,0,0,0,0,0,0,0,0,0,-1,1882,1534,0,0
665,-510,0,0,0,0,0,0,0,0,0,-1,1889,1534,0,0
672,-510,0,0,0,0,0,0,0,0,0,-1,1896,1534,0,0
679,-510,0,0,0,0,0,0,0,0,0,-1,1903,1534,0,0
686,-510,0,0,0,0,0,0,0,0,0,-1,1910,1534,0,0
693,-510,0,0,0,0,0,0,0,0,0,-1,1917,1534,0,0
700,-510,0,0,0,0,0,0,0,0,0,-1,1924,1534,0,0
707,-510,0,0,0,0,0,0,0,0,0,-1,1931,1534,0,0
714,-510,0,0,0,0,0,0,0,0,0,-1,1938,1534,0,0
721,-510,0,0,0,0,0,0,0,0,0,-1,1945,1534,0,0
728,-510,0,0,0,0,0,0,0,0,0,-1,1952,1534,0,0
735,-510,0,0,0,0,0,0,0,0,0,-1,1959,1534,0,0
742,-510,0,0,0,0,0,0,0,0,0,-1,1966,1534,0,0
749,-510,0,0,0,0,0,0,0,0,0,-1,1973,1534,0,0
756,-510,0,0,0,0,0,0,0,0,0,-1,1980,1534,0,0
763,-510,0,0,0,0,0,0,0,0,0,-1,1987,1534,0,0
770,-510,0,0,0,0,0,0,0,0,0,-1,1994,1534,0,0
777,-510,0,0,0,0,0,0,0,0,0,-1,2001,1534,0,0
784,-510,0,0,0,0,0,0,0,0,0,-1,2008,1534,0,0
791,-510,0,0,0,0,0,0,0,0,0,-1,2015,1534,0,0
798,-510,0,0,0,0,0,0,0,0,0,-1,2022,1534,0,0
805,-510,0,0,0,0,0,0,0,0,0,-1,2029,1534,0,0
812,-510,0,0,0,0,0,0,0,0,0,-1,2036,1534,0,0
-700,-517,0,0,0,0,0,0,0,0,0,-1,524,1541,0,0
-693,-517,0,0,0,0,0,0,0,0,0,-1,531,1541,0,0
-686,-517,0,0,0,0,0,0,0,0,0,-1,538,1541,0,0
-679,-517,0,0,0,0,0,0,0,0,0,-1,545,1541,0,0
-672,-517,0,0,0,0,0,0,0,0,0,-1,552,1541,0,0
-665,-517,0,0,0,0,0,0,0,0,0,-1,559,1541,0,0
-658,-517,0,0,0,0,0,0,0,0,0,-1,566,1541,0,0
-651,-517,0,0,0,0,0,0,0,0,0,-1,573,1541,0,0
-644,-517,0,0,0,0,0,0,0,0,0,-1,580,1541,0,0
-637,-517,0,0,0,0,0,0,0,0,0,-1,587,1541,0,0
-630,-517,0,0,0,0,0,0,0,0,0,-1,594,1541,0,0
-623,-517,0,0,0,0,0,0,0,0,0,-1,601,1541,0,0
-616,-517,0,0,0,0,0,0,0,0,0,-1,608,1541,0,0
-609,-517,0,0,0,0,0,0,0,0,0,-1,615,1541,0,0
-602,-517,0,0,0,0,0,0,0,0,0,-1,622,1541,0,0
-595,-517,0,0,0,0,0,0,0,0,0,-1,629,1541,0,0
-588,-517,0,0,0,0,0,0,0,0,0,-1,636,1541,0,0
-581,-517,0,0,0,0,0,0,0,0,0,-1,643,1541,0,0
-574,-517,0,0,0,0,0,0,0,0,0,-1,650,1541,0,0
-567,-517,0,0,0,0,0,0,0,0,0,-1,657,1541,0,0
-560,-517,0,0,0,0,0,0,0,0,0,-1,664,1541,0,0
-553,-517,0,0,0,0,0,0,0,0,0,-1,671,1541,0,0
-546,-517,0,0,0,0,0,0,0,0,0,-1,678,1541,0,0
-539,-517,0,0,0,0,0,0,0,0,0,-1,685,1541,0,0
-532,-517,0,0,0,0,0,0,0,0,0,-1,692,1541,0,0
-525,-517,0.467896,4.35828,0,0,0,0,0,0,0,-1,699,1541,0.467905,-4.35823
-518,-517,-2.71826,4.89087,0,0,0,0,0,0,0,-1,706,1541,-2.71826,-4.89084
-511,-517,-2.72321,2.45251,0,0,0,0,0,0,0,-1,713,1541,-2.72323,-2.45249
-504,-517,-0.883362,4.79858,0,0,0,0,0,0,0,-1,720,1541,-0.88337,-4.79854
-497,-517,-1.92352,6.87708,0,0,0,0,0,0,0,-1,727,1541,-1.92353,-6.87706
-490,-517,-0.856689,8.46277,0,0,0,0,0,0,0,-1,734,1541,-0.856705,-8.46277
-483,-517,-0.786316,7.94434,0,0,0,0,0,0,0,-1,741,1541,-0.786292,-7.94428
-476,-517,-0.893494,8.34131,0.0102211,0.00148346,0.00313771,0.0112311,0.000473449,0.311421,0.00733468,0.0353818,748,1541,-0.893488,-8.34126
-469,-517,-1.03839,8.70471,0.00643976,0.00231859,0.0021802,0.00737905,0.0013793,0.406799,0.00453014,0.0157374,755,1541,-1.03839,-8.70472
-462,-517,-1.09662,9.00635,0.00388378,0.00288514,0.00186648,0.00531658,0.00145234,0.6547,0.00317307,0.0160885,762,1541,-1.09663,-9.00637
-455,-517,-1.08582,9.34937,0.00255949,0.00286759,0.00182471,0.00454474,0.000882343,0.82751,0.00278274,0.0133433,769,1541,-1.0858,-9.34933
-448,-517,-1.08093,9.67041,0.00176738,0.00253143,0.00171318,0.00390466,0.000394152,0.895099,0.00248218,0.0126115,776,1541,-1.08095,-9.67037
-441,-517,-1.09076,9.94775,0.00134298,0.00232006,0.00155802,0.00346434,0.000198702,0.937326,0.00224626,0.011307,783,1541,-1.09074,-9.94777
-434,-517,-1.08252,10.2365,0.00145557,0.00188852,0.0016178,0.00330427,3.9825e-05,0.851908,0.00218969,0.0135266,790,1541,-1.08254,-10.2365
-427,-517,-1.09857,10.5298,0.00198737,0.00115749,0.0014291,0.00306055,8.43158e-05,0.644107,0.00201285,0.0133646,797,1541,-1.09859,-10.5297
-420,-517,-1.12372,10.8525,0.00267317,0.000531834,0.0011639,0.00318395,2.10481e-05,0.413549,0.00211565,0.0189681,804,1541,-1.12374,-10.8526
-413,-517,-1.12061,11.1345,0.00318603,-4.89264e-05,0.000935433,0.00343704,-0.000299942,0.262166,0.00239761,0.0102208,811,1541,-1.12058,-11.1345
-406,-517,-1.12378,11.4305,0.00349394,-0.000712424,0.000550652,0.00356483,-0.000783315,0.128035,0.00267615,0.0101777,818,1541,-1.12381,-11.4306
-399,-517,-1.11328,11.7247,0.00378442,-0.00123926,0.000289309,0.00380103,-0.00125587,0.0573364,0.00304037,0.0104571,825,1541,-1.11327,-11.7247
-392,-517,-1.11182,12.0046,0.00389197,-0.00185765,-0.000137871,0.00389527,-0.00186095,-0.0239608,0.00339183,0.0128404,832,1541,-1.11183,-12.0047
-385,-517,-1.03192,12.4336,0.0036358,-0.00224129,-0.000667015,0.00371055,-0.00231604,-0.111603,0.00351037,0.0220702,839,1541,-1.03193,-12.4336
-378,-517,-1.07288,12.6074,0.00292808,-0.00273966,-0.00167281,0.00338497,-0.00319655,-0.266626,0.00380036,0.0467067,846,1541,-1.07289,-12.6074
-371,-517,-1.10803,12.6923,0,0,0,0,0,0,0,-1,853,1541,-1.10805,-12.6923
-364,-517,-1.26245,12.6289,0,0,0,0,0,0,0,-1,860,1541,-1.26243,-12.6289
-357,-517,-1.23889,12.979,0,0,0,0,0,0,0,-1,867,1541,-1.23891,-12.979
-350,-517,0.722412,10.0829,0,0,0,0,0,0,0,-1,874,1541,0.722399,-10.0828
-343,-517,-2.56708,6.12415,0,0,0,0,0,0,0,-1,881,1541,-2.56708,-6.12418
-336,-517,-1.68445,14.682,0,0,0,0,0,0,0,-1,888,1541,-1.68444,-14.682
-329,-517,-1.24451,14.97,0,0,0,0,0,0,0,-1,895,1541,-1.24454,-14.9699
-322,-517,-0.804626,15.2579,0,0,0,0,0,0,0,-1,902,1541,-0.804628,-15.2579
-315,-517,-0.987976,7.29749,0,0,0,0,0,0,0,-1,909,1541,-0.987993,-7.29743
-308,-517,3.27911,17.621,0,0,0,0,0,0,0,-1,916,1541,3.27913,-17.621
-301,-517,-1.69141,8.87488,0,0,0,0,0,0,0,-1,923,1541,-1.69141,-8.87485
-294,-517,-1.72583,9.92566,0,0,0,0,0,0,0,-1,930,1541,-1.72584,-9.92571
-287,-517,-2.77466,11.749,0,0,0,0,0,0,0,-1,937,1541,-2.77467,-11.749
-280,-517,0,0,0,0,0,0,0,0,0,-1,944,1541,0,0
-273,-517,0,0,0,0,0,0,0,0,0,-1,951,1541,0,0
-266,-517,0,0,0,0,0,0,0,0,0,-1,958,1541,0,0
-259,-517,0,0,0,0,0,0,0,0,0,-1,965,1541,0,0
-252,-517,0,0,0,0,0,0,0,0,0,-1,972,1541,0,0
-245,-517,0,0,0,0,0,0,0,0,0,-1,979,1541,0,0
-238,-517,0,0,0,0,0,0,0,0,0,-1,986,1541,0,0
-231,-517,0,0,0,0,0,0,0,0,0,-1,993,1541,0,0
-224,-517,0,0,0,0,0,0,0,0,0,-1,1000,1541,0,0
-217,-517,0,0,0,0,0,0,0,0,0,-1,1007,1541,0,0
-210,-517,0,0,0,0,0,0,0,0,0,-1,1014,1541,0,0
-203,-517,0,0,0,0,0,0,0,0,0,-1,1021,1541,0,0
-196,-517,0,0,0,0,0,0,0,0,0,-1,1028,1541,0,0
-189,-517,0,0,0,0,0,0,0,0,0,-1,1035,1541,0,0
-182,-517,0,0,0,0,0,0,0,0,0,-1,1042,1541,0,0
-175,-517,0,0,0,0,0,0,0,0,0,-1,1049,1541,0,0
-168,-517,0,0,0,0,0,0,0,0,0,-1,1056,1541,0,0
-161,-517,0,0,0,0,0,0,0,0,0,-1,1063,1541,0,0
-154,-517,0,0,0,0,0,0,0,0,0,-1,1070,1541,0,0
-147,-517,0,0,0,0,0,0,0,0,0,-1,1077,1541,0,0
-140,-517,0,0,0,0,0,0,0,0,0,-1,1084,1541,0,0
-133,-517,0,0,0,0,0,0,0,0,0,-1,1091,1541,0,0
-126,-517,0,0,0,0,0,0,0,0,0,-1,1098,1541,0,0
-119,-517,0,0,0,0,0,0,0,0,0,-1,1105,1541,0,0
-112,-517,0,0,0,0,0,0,0,0,0,-1,1112,1541,0,0
-105,-517,0,0,0,0,0,0,0,0,0,-1,1119,1541,0,0
-98,-517,0,0,0,0,0,0,0,0,0,-1,1126,1541,0,0
-91,-517,0,0,0,0,0,0,0,0,0,-1,1133,1541,0,0
-84,-517,0,0,0,0,0,0,0,0,0,-1,1140,1541,0,0
-77,-517,0,0,0,0,0,0,0,0,0,-1,1147,1541,0,0
-70,-517,0,0,0,0,0,0,0,0,0,-1,1154,1541,0,0
-63,-517,0,0,0,0,0,0,0,0,0,-1,1161,1541,0,0
-56,-517,0,0,0,0,0,0,0,0,0,-1,1168,1541,0,0
-49,-517,0,0,0,0,0,0,0,0,0,-1,1175,1541,0,0
-42,-517,0,0,0,0,0,0,0,0,0,-1,1182,1541,0,0
-35,-517,0,0,0,0,0,0,0,0,0,-1,1189,1541,0,0
-28,-517,0,0,0,0,0,0,0,0,0,-1,1196,1541,0,0
-21,-517,0,0,0,0,0,0,0,0,0,-1,1203,1541,0,0
-14,-517,0,0,0,0,0,0,0,0,0,-1,1210,1541,0,0
-7,-517,0,0,0,0,0,0,0,0,0,-1,1217,1541,0,0
0,-517,0,0,0,0,0,0,0,0,0,-1,1224,1541,0,0
7,-517,0,0,0,0,0,0,0,0,0,-1,1231,1541,0,0
14,-517,0,0,0,0,0,0,0,0,0,-1,1238,1541,0,0
21,-517,0,0,0,0,0,0,0,0,0,-1,1245,1541,0,0
28,-517,0,0,0,0,0,0,0,0,0,-1,1252,1541,0,0
35,-517,0,0,0,0,0,0,0,0,0,-1,1259,1541,0,0
42,-517,0,0,0,0,0,0,0,0,0,-1,1266,1541,0,0
49,-517,0,0,0,0,0,0,0,0,0,-1,1273,1541,0,0
56,-517,0,0,0,0,0,0,0,0,0,-1,1280,1541,0,0
63,-517,0,0,0,0,0,0,0,0,0,-1,1287,1541,0,0
70,-517,0,0,0,0,0,0,0,0,0,-1,1294,1541,0,0
77,-517,0,0,0,0,0,0,0,0,0,-1,1301,1541,0,0
84,-517,0,0,0,0,0,0,0,0,0,-1,1308,1541,0,0
91,-517,0,0,0,0,0,0,0,0,0,-1,1315,1541,0,0
98,-517,0,0,0,0,0,0,0,0,0,-1,1322,1541,0,0
105,-517,0,0,0,0,0,0,0,0,0,-1,1329,1541,0,0
112,-517,0,0,0,0,0,0,0,0,0,-1,1336,1541,0,0
119,-517,0,0,0,0,0,0,0,0,0,-1,1343,1541,0,0
126,-517,0,0,0,0,0,0,0,0,0,-1,1350,1541,0,0
133,-517,0,0,0,0,0,0,0,0,0,-1,1357,1541,0,0
140,-517,0,0,0,0,0,0,0,0,0,-1,1364,1541,0,0
147,-517,0,0,0,0,0,0,0,0,0,-1,1371,1541,0,0
154,-517,0,0,0,0,0,0,0,0,0,-1,1378,1541,0,0
161,-517,0,0,0,0,0,0,0,0,0,-1,1385,1541,0,0
168,-517,0,0,0,0,0,0,0,0,0,-1,1392,1541,0,0
175,-517,0,0,0,0,0,0,0,0,0,-1,1399,1541,0,0
182,-517,0,0,0,0,0,0,0,0,0,-1,1406,1541,0,0
189,-517,0,0,0,0,0,0,0,0,0,-1,1413,1541,0,0
196,-517,0,0,0,0,0,0,0,0,0,-1,1420,1541,0,0
203,-517,0,0,0,0,0,0,0,0,0,-1,1427,1541,0,0
210,-517,0,0,0,0,0,0,0,0,0,-1,1434,1541,0,0
217,-517,0,0,0,0,0,0,0,0,0,-1,1441,1541,0,0
224,-517,0,0,0,0,0,0,0,0,0,-1,1448,1541,0,0
231,-517,0,0,0,0,0,0,0,0,0,-1,1455,1541,0,0
238,-517,0,0,0,0,0,0,0,0,0,-1,1462,1541,0,0
245,-517,0,0,0,0,0,0,0,0,0,-1,1469,1541,0,0
252,-517,0,0,0,0,0,0,0,0,0,-1,1476,1541,0,0
259,-517,0,0,0,0,0,0,0,0,0,-1,1483,1541,0,0
266,-517,0,0,0,0,0,0,0,0,0,-1,1490,1541,0,0
273,-517,0,0,0,0,0,0,0,0,0,-1,1497,1541,0,0
280,-517,0,0,0,0,0,0,0,0,0,-1,1504,1541,0,0
287,-517,0,0,0,0,0,0,0,0,0,-1,1511,1541,0,0
294,-517,0,0,0,0,0,0,0,0,0,-1,1518,1541,0,0
301,-517,0,0,0,0,0,0,0,0,0,-1,1525,1541,0,0
308,-517,0,0,0,0,0,0,0,0,0,-1,1532,1541,0,0
315,-517,0,0,0,0,0,0,0,0,0,-1,1539,1541,0,0
322,-517,0,0,0,0,0,0,0,0,0,-1,1546,1541,0,0
329,-517,0,0,0,0,0,0,0,0,0,-1,1553,1541,0,0
336,-517,0,0,0,0,0,0,0,0,0,-1,1560,1541,0,0
343,-517,0,0,0,0,0,0,0,0,0,-1,1567,1541,0,0
350,-517,0,0,0,0,0,0,0,0,0,-1,1574,1541,0,0
357,-517,0,0,0,0,0,0,0,0,0,-1,1581,1541,0,0
364,-517,0,0,0,0,0,0,0,0,0,-1,1588,1541,0,0
371,-517,0,0,0,0,0,0,0,0,0,-1,1595,1541,0,0
378,-517,0,0,0,0,0,0,0,0,0,-1,1602,1541,0,0
385,-517,0,0,0,0,0,0,0,0,0,-1,1609,1541,0,0
392,-517,0,0,0,0,0,0,0,0,0,-1,1616,1541,0,0
399,-517,0,0,0,0,0,0,0,0,0,-1,1623,1541,0,0
406,-517,13.1395,7.01978,0,0,0,0,0,0,0,-1,1630,1541,13.1396,-7.01981
413,-517,12.2695,6.3324,0,0,0,0,0,0,0,-1,1637,1541,12.2696,-6.33243
420,-517,12.4789,6.20337,0,0,0,0,0,0,0,-1,1644,1541,12.4789,-6.20333
427,-517,11.647,4.66516,0,0,0,0,0,0,0,-1,1651,1541,11.647,-4.66519
434,-517,12.3719,3.92773,0,0,0,0,0,0,0,-1,1658,1541,12.3719,-3.92776
441,-517,13.146,3.14124,0,0,0,0,0,0,0,-1,1665,1541,13.146,-3.14121
448,-517,13.8861,2.36682,0,0,0,0,0,0,0,-1,1672,1541,13.8861,-2.36684
455,-517,13.6012,4.06335,0,0,0,0,0,0,0,-1,1679,1541,13.6012,-4.06335
462,-517,14.8956,7.0752,0,0,0,0,0,0,0,-1,1686,1541,14.8956,-7.07525
469,-517,13.6292,6.87744,0,0,0,0,0,0,0,-1,1693,1541,13.6292,-6.87739
476,-517,13.1489,8.24768,0,0,0,0,0,0,0,-1,1700,1541,13.1489,-8.2477
483,-517,12.7778,10.7142,0,0,0,0,0,0,0,-1,1707,1541,12.7779,-10.7143
490,-517,11.5493,13.0958,0,0,0,0,0,0,0,-1,1714,1541,11.5493,-13.0958
497,-517,11.6285,13.3158,-0.0173562,-0.037751,0.0340254,0.00796699,-0.0630742,0.639807,0.0449411,0.0479253,1721,1541,11.6286,-13.3159
504,-517,11.7987,13.8047,-0.0158341,-0.0287322,0.0272958,0.00576418,-0.0503305,0.669393,0.0356308,0.0421431,1728,1541,11.7987,-13.8047
511,-517,11.5868,13.9689,-0.0136641,-0.0218038,0.0213993,0.00404895,-0.0395169,0.691427,0.0277927,0.0451761,1735,1541,11.5868,-13.9689
518,-517,11.3987,13.6683,-0.0109884,-0.0161763,0.0162927,0.0029155,-0.0300803,0.706456,0.0210926,0.0316242,1742,1541,11.3987,-13.6684
525,-517,11.3845,13.3182,-0.00833133,-0.0115917,0.0120037,0.0021524,-0.0220754,0.717908,0.0154844,0.0130986,1749,1541,11.3845,-13.3182
532,-517,11.4276,13.0306,-0.00625705,-0.00823353,0.00875746,0.00156775,-0.0160583,0.729213,0.0112646,0.0108097,1756,1541,11.4277,-13.0306
539,-517,11.4418,12.7601,-0.00454505,-0.0051604,0.00601758,0.00117271,-0.0108782,0.759856,0.00767295,0.011934,1763,1541,11.4417,-12.7601
546,-517,11.4282,12.5092,-0.00299011,-0.00324132,0.0039025,0.000788805,-0.00702024,0.769311,0.00496403,0.0121481,1770,1541,11.4283,-12.5092
553,-517,11.4194,12.2429,-0.00168041,-0.00153328,0.00219726,0.000591649,-0.00380534,0.802133,0.00275536,0.0150535,1777,1541,11.4195,-12.2429
560,-517,11.4219,11.9904,-0.000210634,-0.000419256,0.000773827,0.000465881,-0.00109577,0.718403,0.000925744,0.014978,1784,1541,11.4219,-11.9903
567,-517,11.4196,11.7246,0.00143889,0.00038888,-0.000484175,0.00162807,0.000199703,-0.372481,0.00102531,0.0119793,1791,1541,11.4196,-11.7246
574,-517,11.4055,11.4392,0.003249,0.000995523,-0.00145517,0.00396266,0.000281869,-0.455961,0.00255301,0.0131322,1798,1541,11.4055,-11.4392
581,-517,11.3896,11.1747,0.00497915,0.00149639,-0.00237177,0.00618017,0.000295375,-0.468738,0.00402527,0.0154706,1805,1541,11.3897,-11.1746
588,-517,11.3771,10.9049,0.00711901,0.00161732,-0.00328495,0.0086528,8.35364e-05,-0.436829,0.00574089,0.0168053,1812,1541,11.3771,-10.9049
595,-517,11.4159,10.6326,0.00990123,0.00167692,-0.00431442,0.0117493,-0.000171132,-0.404698,0.00789052,0.0228992,1819,1541,11.4159,-10.6325
602,-517,11.3292,10.3291,0.013451,0.00152257,-0.00547248,0.0155812,-0.000607651,-0.371214,0.0105958,0.0273714,1826,1541,11.3292,-10.3292
609,-517,11.7982,9.95764,0.0180346,0.000990574,-0.00677998,0.0204026,-0.00137745,-0.336022,0.0140834,0.0451922,1833,1541,11.7982,-9.95768
616,-517,12.2462,9.61145,0,0,0,0,0,0,0,-1,1840,1541,12.2463,-9.61151
623,-517,12.7413,8.25098,0,0,0,0,0,0,0,-1,1847,1541,12.7413,-8.25096
630,-517,11.7035,7.47815,0,0,0,0,0,0,0,-1,1854,1541,11.7035,-7.47812
637,-517,11.5172,5.79822,0,0,0,0,0,0,0,-1,1861,1541,11.5173,-5.79825
644,-517,11.4232,3.30579,0,0,0,0,0,0,0,-1,1868,1541,11.4232,-3.30574
651,-517,0,0,0,0,0,0,0,0,0,-1,1875,1541,0,0
658,-517,0,0,0,0,0,0,0,0,0,-1,1882,1541,0,0
665,-517,0,0,0,0,0,0,0,0,0,-1,1889,1541,0,0
672,-517,0,0,0,0,0,0,0,0,0,-1,1896,1541,0,0
679,-517,0,0,0,0,0,0,0,0,0,-1,1903,1541,0,0
686,-517,0,0,0,0,0,0,0,0,0,-1,1910,1541,0,0
693,-517,0,0,0,0,0,0,0,0,0,-1,1917,1541,0,0
700,-517,0,0,0,0,0,0,0,0,0,-1,1924,1541,0,0
707,-517,0,0,0,0,0,0,0,0,0,-1,1931,1541,0,0
714,-517,0,0,0,0,0,0,0,0,0,-1,1938,1541,0,0
721,-517,0,0,0,0,0,0,0,0,0,-1,1945,1541,0,0
728,-517,0,0,0,0,0,0,0,0,0,-1,1952,1541,0,0
735,-517,0,0,0,0,0,0,0,0,0,-1,1959,1541,0,0
742,-517,0,0,0,0,0,0,0,0,0,-1,1966,1541,0,0
749,-517,0,0,0,0,0,0,0,0,0,-1,1973,1541,0,0
756,-517,0,0,0,0,0,0,0,0,0,-1,1980,1541,0,0
763,-517,0,0,0,0,0,0,0,0,0,-1,1987,1541,0,0
770,-517,0,0,0,0,0,0,0,0,0,-1,1994,1541,0,0
777,-517,0,0,0,0,0,0,0,0,0,-1,2001,1541,0,0
784,-517,0,0,0,0,0,0,0,0,0,-1,2008,1541,0,0
791,-517,0,0,0,0,0,0,0,0,0,-1,2015,1541,0,0
798,-517,0,0,0,0,0,0,0,0,0,-1,2022,1541,0,0
805,-517,0,0,0,0,0,0,0,0,0,-1,2029,1541,0,0
812,-517,0,0,0,0,0,0,0,0,0,-1,2036,1541,0,0
-700,-524,0,0,0,0,0,0,0,0,0,-1,524,1548,0,0
-693,-524,0,0,0,0,0,0,0,0,0,-1,531,1548,0,0
-686,-524,0,0,0,0,0,0,0,0,0,-1,538,1548,0,0
-679,-524,0,0,0,0,0,0,0,0,0,-1,545,1548,0,0
-672,-524,0,0,0,0,0,0,0,0,0,-1,552,1548,0,0
-665,-524,0,0,0,0,0,0,0,0,0,-1,559,1548,0,0
-658,-524,0,0,0,0,0,0,0,0,0,-1,566,1548,0,0
-651,-524,0,0,0,0,0,0,0,0,0,-1,573,1548,0,0
-644,-524,0,0,0,0,0,0,0,0,0,-1,580,1548,0,0
-637,-524,0,0,0,0,0,0,0,0,0,-1,587,1548,0,0
-630,-524,0,0,0,0,0,0,0,0,0,-1,594,1548,0,0
-623,-524,0,0,0,0,0,0,0,0,0,-1,601,1548,0,0
-616,-524,0,0,0,0,0,0,0,0,0,-1,608,1548,0,0
-609,-524,0,0,0,0,0,0,0,0,0,-1,615,1548,0,0
-602,-524,0,0,0,0,0,0,0,0,0,-1,622,1548,0,0
-595,-524,0,0,0,0,0,0,0,0,0,-1,629,1548,0,0
-588,-524,0,0,0,0,0,0,0,0,0,-1,636,1548,0,0
-581,-524,0,0,0,0,0,0,0,0,0,-1,643,1548,0,0
-574,-524,0,0,0,0,0,0,0,0,0,-1,650,1548,0,0
-567,-524,0,0,0,0,0,0,0,0,0,-1,657,1548,0,0
-560,-524,0,0,0,0,0,0,0,0,0,-1,664,1548,0,0
-553,-524,0,0,0,0,0,0,0,0,0,-1,671,1548,0,0
-546,-524,0,0,0,0,0,0,0,0,0,-1,678,1548,0,0
-539,-524,0,0,0,0,0,0,0,0,0,-1,685,1548,0,0
-532,-524,0,0,0,0,0,0,0,0,0,-1,692,1548,0,0
-525,-524,-0.215515,3.97131,0,0,0,0,0,0,0,-1,699,1548,-0.215501,-3.97136
-518,-524,-0.806274,4.35632,0,0,0,0,0,0,0,-1,706,1548,-0.806259,-4.35633
-511,-524,-1.08301,4.29004,0,0,0,0,0,0,0,-1,713,1548,-1.08301,-4.29006
-504,-524,-1.28821,3.98145,0,0,0,0,0,0,0,-1,720,1548,-1.28822,-3.98151
-497,-524,-1.87958,8.23486,0,0,0,0,0,0,0,-1,727,1548,-1.8796,-8.23486
-490,-524,-1.54034,8.422,0,0,0,0,0,0,0,-1,734,1548,-1.54037,-8.42195
-483,-524,-0.630737,8.00513,0,0,0,0,0,0,0,-1,741,1548,-0.630727,-8.00507
-476,-524,-0.752075,8.43311,0.0108649,0.00521353,0.00428016,0.013168,0.00291046,0.493646,0.00798728,0.0446733,748,1548,-0.752053,-8.4331
-469,-524,-0.793945,8.76331,0.00708421,0.00545883,0.00349859,0.00986325,0.00267978,0.671277,0.00588911,0.0337373,755,1548,-0.793964,-8.76332
-462,-524,-0.725098,9.05054,0.00444058,0.00553355,0.00320369,0.00823703,0.00173711,0.869875,0.00501365,0.0266839,762,1548,-0.725093,-9.05052
-455,-524,-0.800232,9.36377,0.00301488,0.00506182,0.00307022,0.00727467,0.000802034,0.946283,0.00460577,0.0187779,769,1548,-0.800217,-9.36374
-448,-524,-0.79895,9.67432,0.00208637,0.00429917,0.00277853,0.00618348,0.000202061,0.974874,0.00405664,0.0128343,776,1548,-0.798933,-9.67431
-441,-524,-0.808105,9.95801,0.00150247,0.00371577,0.00241208,0.00526295,-4.47088e-05,1.00047,0.00352363,0.0104184,783,1548,-0.808115,-9.95807
-434,-524,-0.776855,10.2375,0.0014483,0.00304118,0.00230541,0.00468385,-0.000194363,0.951713,0.00318933,0.0114812,790,1548,-0.776869,-10.2376
-427,-524,-0.780457,10.5305,0.00178639,0.00219393,0.0019858,0.00398639,-6.06687e-06,0.836526,0.00265962,0.0120239,797,1548,-0.780445,-10.5305
-420,-524,-0.813965,10.8318,0.00227341,0.00147038,0.00158758,0.00350947,0.000234327,0.66154,0.00226558,0.0104295,804,1548,-0.813946,-10.8318
-413,-524,-0.812683,11.1404,0.00252364,0.000795464,0.00127047,0.00319602,0.00012308,0.486765,0.00209086,0.0102323,811,1548,-0.812675,-11.1403
-406,-524,-0.814392,11.4354,0.00261034,2.36846e-05,0.000795373,0.00283534,-0.000201313,0.275681,0.00196078,0.010786,818,1548,-0.814375,-11.4354
-399,-524,-0.816711,11.7236,0.00267846,-0.000396607,0.000441779,0.00274067,-0.000458817,0.139896,0.00199769,0.00896792,825,1548,-0.816689,-11.7237
-392,-524,-0.815918,12.0088,0.00258871,-0.000864881,6.13161e-05,0.0025898,-0.000865969,0.0177469,0.00207628,0.0102475,832,1548,-0.815933,-12.0088
-385,-524,-0.825745,12.3123,0.0022534,-0.00116282,-0.000421192,0.00230457,-0.00121398,-0.12088,0.00206371,0.0125977,839,1548,-0.825774,-12.3123
-378,-524,-0.759705,12.7531,0.00159881,-0.00142425,-0.00124881,0.00204796,-0.0018734,-0.345254,0.00226474,0.0278695,846,1548,-0.759721,-12.753
-371,-524,-0.677185,13.1733,0,0,0,0,0,0,0,-1,853,1548,-0.677158,-13.1733
-364,-524,-0.470642,13.1833,0,0,0,0,0,0,0,-1,860,1548,-0.470636,-13.1833
-357,-524,-1.00153,13.0575,0,0,0,0,0,0,0,-1,867,1548,-1.00154,-13.0575
-350,-524,-1.18591,11.6433,0,0,0,0,0,0,0,-1,874,1548,-1.18592,-11.6433
-343,-524,-1.2887,6.94836,0,0,0,0,0,0,0,-1,881,1548,-1.28868,-6.94831
-336,-524,-1.2804,14.3673,0,0,0,0,0,0,0,-1,888,1548,-1.28038,-14.3672
-329,-524,-0.890564,14.5449,0,0,0,0,0,0,0,-1,895,1548,-0.890581,-14.5449
-322,-524,-0.500793,14.7225,0,0,0,0,0,0,0,-1,902,1548,-0.500781,-14.7225
-315,-524,2.60687,16.2994,0,0,0,0,0,0,0,-1,909,1548,2.60687,-16.2994
-308,-524,2.66541,17.0306,0,0,0,0,0,0,0,-1,916,1548,2.66542,-17.0306
-301,-524,2.72394,17.7618,0,0,0,0,0,0,0,-1,923,1548,2.72396,-17.7619
-294,-524,-1.52515,9.05408,0,0,0,0,0,0,0,-1,930,1548,-1.52512,-9.05411
-287,-524,-1.52618,9.99182,0,0,0,0,0,0,0,-1,937,1548,-1.52619,-9.99178
-280,-524,-1.6156,10.4597,0,0,0,0,0,0,0,-1,944,1548,-1.6156,-10.4597
-273,-524,0,0,0,0,0,0,0,0,0,-1,951,1548,0,0
-266,-524,0,0,0,0,0,0,0,0,0,-1,958,1548,0,0
-259,-524,0,0,0,0,0,0,0,0,0,-1,965,1548,0,0
-252,-524,0,0,0,0,0,0,0,0,0,-1,972,1548,0,0
-245,-524,0,0,0,0,0,0,0,0,0,-1,979,1548,0,0
-238,-524,0,0,0,0,0,0,0,0,0,-1,986,1548,0,0
-231,-524,0,0,0,0,0,0,0,0,0,-1,993,1548,0,0
-224,-524,0,0,0,0,0,0,0,0,0,-1,1000,1548,0,0
-217,-524,0,0,0,0,0,0,0,0,0,-1,1007,1548,0,0
-210,-524,0,0,0,0,0,0,0,0,0,-1,1014,1548,0,0
-203,-524,0,0,0,0,0,0,0,0,0,-1,1021,1548,0,0
-196,-524,0,0,0,0,0,0,0,0,0,-1,1028,1548,0,0
-189,-524,0,0,0,0,0,0,0,0,0,-1,1035,1548,0,0
-182,-524,0,0,0,0,0,0,0,0,0,-1,1042,1548,0,0
-175,-524,0,0,0,0,0,0,0,0,0,-1,1049,1548,0,0
-168,-524,0,0,0,0,0,0,0,0,0,-1,1056,1548,0,0
-161,-524,0,0,0,0,0,0,0,0,0,-1,1063,1548,0,0
-154,-524,0,0,0,0,0,0,0,0,0,-1,1070,1548,0,0
-147,-524,0,0,0,0,0,0,0,0,0,-1,1077,1548,0,0
-140,-524,0,0,0,0,0,0,0,0,0,-1,1084,1548,0,0
-133,-524,0,0,0,0,0,0,0,0,0,-1,1091,1548,0,0
-126,-524,0,0,0,0,0,0,0,0,0,-1,1098,1548,0,0
-119,-524,0,0,0,0,0,0,0,0,0,-1,1105,1548,0,0
-112,-524,0,0,0,0,0,0,0,0,0,-1,1112,1548,0,0
-105,-524,0,0,0,0,0,0,0,0,0,-1,1119,1548,0,0
-98,-524,0,0,0,0,0,0,0,0,0,-1,1126,1548,0,0
-91,-524,0,0,0,0,0,0,0,0,0,-1,1133,1548,0,0
-84,-524,0,0,0,0,0,0,0,0,0,-1,1140,1548,0,0
-77,-524,0,0,0,0,0,0,0,0,0,-1,1147,1548,0,0
-70,-524,0,0,0,0,0,0,0,0,0,-1,1154,1548,0,0
-63,-524,0,0,0,0,0,0,0,0,0,-1,1161,1548,0,0
-56,-524,0,0,0,0,0,0,0,0,0,-1,1168,1548,0,0
-49,-524,0,0,0,0,0,0,0,0,0,-1,1175,1548,0,0
-42,-524,0,0,0,0,0,0,0,0,0,-1,1182,1548,0,0
-35,-524,0,0,0,0,0,0,0,0,0,-1,1189,1548,0,0
-28,-524,0,0,0,0,0,0,0,0,0,-1,1196,1548,0,0
-21,-524,0,0,0,0,0,0,0,0,0,-1,1203,1548,0,0
-14,-524,0,0,0,0,0,0,0,0,0,-1,1210,1548,0,0
-7,-524,0,0,0,0,0,0,0,0,0,-1,1217,1548,0,0
0,-524,0,0,0,0,0,0,0,0,0,-1,1224,1548,0,0
7,-524,0,0,0,0,0,0,0,0,0,-1,1231,1548,0,0
14,-524,0,0,0,0,0,0,0,0,0,-1,1238,1548,0,0
21,-524,0,0,0,0,0,0,0,0,0,-1,1245,1548,0,0
28,-524,0,0,0,0,0,0,0,0,0,-1,1252,1548,0,0
35,-524,0,0,0,0,0,0,0,0,0,-1,1259,1548,0,0
42,-524,0,0,0,0,0,0,0,0,0,-1,1266,1548,0,0
49,-524,0,0,0,0,0,0,0,0,0,-1,1273,1548,0,0
56,-524,0,0,0,0,0,0,0,0,0,-1,1280,1548,0,0
63,-524,0,0,0,0,0,0,0,0,0,-1,1287,1548,0,0
70,-524,0,0,0,0,0,0,0,0,0,-1,1294,1548,0,0
77,-524,0,0,0,0,0,0,0,0,0,-1,1301,1548,0,0
84,-524,0,0,0,0,0,0,0,0,0,-1,1308,1548,0,0
91,-524,0,0,0,0,0,0,0,0,0,-1,1315,1548,0,0
98,-524,0,0,0,0,0,0,0,0,0,-1,1322,1548,0,0
105,-524,0,0,0,0,0,0,0,0,0,-1,1329,1548,0,0
112,-524,0,0,0,0,0,0,0,0,0,-1,1336,1548,0,0
119,-524,0,0,0,0,0,0,0,0,0,-1,1343,1548,0,0
126,-524,0,0,0,0,0,0,0,0,0,-1,1350,1548,0,0
133,-524,0,0,0,0,0,0,0,0,0,-1,1357,1548,0,0
140,-524,0,0,0,0,0,0,0,0,0,-1,1364,1548,0,0
147,-524,0,0,0,0,0,0,0,0,0,-1,1371,1548,0,0
154,-524,0,0,0,0,0,0,0,0,0,-1,1378,1548,0,0
161,-524,0,0,0,0,0,0,0,0,0,-1,1385,1548,0,0
168,-524,0,0,0,0,0,0,0,0,0,-1,1392,1548,0,0
175,-524,0,0,0,0,0,0,0,0,0,-1,1399,1548,0,0
182,-524,0,0,0,0,0,0,0,0,0,-1,1406,1548,0,0
189,-524,0,0,0,0,0,0,0,0,0,-1,1413,1548,0,0
196,-524,0,0,0,0,0,0,0,0,0,-1,1420,1548,0,0
203,-524,0,0,0,0,0,0,0,0,0,-1,1427,1548,0,0
210,-524,0,0,0,0,0,0,0,0,0,-1,1434,1548,0,0
217,-524,0,0,0,0,0,0,0,0,0,-1,1441,1548,0,0
224,-524,0,0,0,0,0,0,0,0,0,-1,1448,1548,0,0
231,-524,0,0,0,0,0,0,0,0,0,-1,1455,1548,0,0
238,-524,0,0,0,0,0,0,0,0,0,-1,1462,1548,0,0
245,-524,0,0,0,0,0,0,0,0,0,-1,1469,1548,0,0
252,-524,0,0,0,0,0,0,0,0,0,-1,1476,1548,0,0
259,-524,0,0,0,0,0,0,0,0,0,-1,1483,1548,0,0
266,-524,0,0,0,0,0,0,0,0,0,-1,1490,1548,0,0
273,-524,0,0,0,0,0,0,0,0,0,-1,1497,1548,0,0
280,-524,0,0,0,0,0,0,0,0,0,-1,1504,1548,0,0
287,-524,0,0,0,0,0,0,0,0,0,-1,1511,1548,0,0
294,-524,0,0,0,0,0,0,0,0,0,-1,1518,1548,0,0
301,-524,0,0,0,0,0,0,0,0,0,-1,1525,1548,0,0
308,-524,0,0,0,0,0,0,0,0,0,-1,1532,1548,0,0
315,-524,0,0,0,0,0,0,0,0,0,-1,1539,1548,0,0
322,-524,0,0,0,0,0,0,0,0,0,-1,1546,1548,0,0
329,-524,0,0,0,0,0,0,0,0,0,-1,1553,1548,0,0
336,-524,0,0,0,0,0,0,0,0,0,-1,1560,1548,0,0
343,-524,0,0,0,0,0,0,0,0,0,-1,1567,1548,0,0
350,-524,0,0,0,0,0,0,0,0,0,-1,1574,1548,0,0
357,-524,0,0,0,0,0,0,0,0,0,-1,1581,1548,0,0
364,-524,0,0,0,0,0,0,0,0,0,-1,1588,1548,0,0
371,-524,0,0,0,0,0,0,0,0,0,-1,1595,1548,0,0
378,-524,0,0,0,0,0,0,0,0,0,-1,1602,1548,0,0
385,-524,0,0,0,0,0,0,0,0,0,-1,1609,1548,0,0
392,-524,0,0,0,0,0,0,0,0,0,-1,1616,1548,0,0
399,-524,8.81848,5.05774,0,0,0,0,0,0,0,-1,1623,1548,8.81843,-5.05769
406,-524,8.64294,6.06799,0,0,0,0,0,0,0,-1,1630,1548,8.6429,-6.06805
413,-524,11.677,6.41858,0,0,0,0,0,0,0,-1,1637,1548,11.677,-6.41864
420,-524,11.4913,6.36401,0,0,0,0,0,0,0,-1,1644,1548,11.4913,-6.36402
427,-524,7.68335,6.17249,0,0,0,0,0,0,0,-1,1651,1548,7.68341,-6.17245
434,-524,10.432,11.6801,0,0,0,0,0,0,0,-1,1658,1548,10.432,-11.68
441,-524,8.78552,4.12305,0,0,0,0,0,0,0,-1,1665,1548,8.78553,-4.12301
448,-524,14.1854,4.78674,0,0,0,0,0,0,0,-1,1672,1548,14.1854,-4.78674
455,-524,12.4784,3.65576,0,0,0,0,0,0,0,-1,1679,1548,12.4784,-3.65572
462,-524,14.7551,9.29395,0,0,0,0,0,0,0,-1,1686,1548,14.7552,-9.29397
469,-524,13.0463,8.39771,0,0,0,0,0,0,0,-1,1693,1548,13.0462,-8.39775
476,-524,11.8906,11.1028,0,0,0,0,0,0,0,-1,1700,1548,11.8906,-11.1028
483,-524,11.8082,12.1101,0,0,0,0,0,0,0,-1,1707,1548,11.8082,-12.1101
490,-524,11.6931,13.9698,0,0,0,0,0,0,0,-1,1714,1548,11.6931,-13.9699
497,-524,11.1958,13.9814,-0.0130355,-0.0299943,0.0269143,0.00670356,-0.0497333,0.632794,0.035601,0.0389323,1721,1548,11.1958,-13.9815
504,-524,11.1515,14.0049,-0.0118754,-0.0227537,0.0216783,0.00503569,-0.0396648,0.662483,0.0282716,0.0232341,1728,1548,11.1515,-14.0048
511,-524,11.118,13.8677,-0.0103432,-0.0171506,0.0169938,0.00358447,-0.0310782,0.686561,0.0220111,0.0199957,1735,1548,11.118,-13.8677
518,-524,11.1737,13.5557,-0.00829762,-0.0126213,0.0128986,0.00261902,-0.0235379,0.702369,0.0166338,0.0159903,1742,1548,11.1737,-13.5556
525,-524,11.1648,13.3112,-0.00617165,-0.00885949,0.00939303,0.00197311,-0.0170043,0.714342,0.0120478,0.0133275,1749,1548,11.1648,-13.3112
532,-524,11.1653,13.0516,-0.00456563,-0.00609201,0.0067368,0.00145107,-0.0121087,0.728995,0.00859708,0.00969,1756,1548,11.1653,-13.0517
539,-524,11.1681,12.7722,-0.00325009,-0.00349861,0.00445841,0.00108579,-0.0078345,0.771466,0.00562,0.0106789,1763,1548,11.1681,-12.7722
546,-524,11.1614,12.5038,-0.0020424,-0.00189224,0.00269337,0.000727099,-0.00466174,0.799333,0.00337639,0.0137018,1770,1548,11.1614,-12.5038
553,-524,11.166,12.2576,-0.000958457,-0.00048743,0.00126265,0.000561479,-0.00200737,0.8776,0.00155947,0.021814,1777,1548,11.166,-12.2576
560,-524,11.1323,11.9619,0.000365492,0.000475046,3.33165e-05,0.000484382,0.000356156,1.29757,0.000289795,0.0284914,1784,1548,11.1323,-11.9619
567,-524,11.1279,11.7314,0.00185329,0.00116,-0.00106412,0.0026258,0.00038749,-0.627941,0.00163673,0.0157798,1791,1548,11.1279,-11.7314
574,-524,11.1412,11.4365,0.00359166,0.0017186,-0.00198724,0.00485199,0.00045827,-0.565197,0.00309324,0.0124166,1798,1548,11.1412,-11.4365
581,-524,11.1499,11.1577,0.00540899,0.00212727,-0.00292132,0.00711873,0.000417526,-0.529513,0.00461295,0.0150922,1805,1548,11.1499,-11.1577
588,-524,11.1654,10.8892,0.00783873,0.00228576,-0.00394966,0.00989015,0.00023434,-0.47904,0.00651672,0.0174369,1812,1548,11.1654,-10.8891
595,-524,11.1737,10.6191,0.0111096,0.00247643,-0.00523105,0.0135751,1.09239e-05,-0.440442,0.00904645,0.0204832,1819,1548,11.1737,-10.6192
602,-524,11.2762,10.2584,0.0154817,0.00253607,-0.00678681,0.0183875,-0.000369711,-0.404537,0.0123834,0.0374899,1826,1548,11.2763,-10.2585
609,-524,11.4227,9.75085,0,0,0,0,0,0,0,-1,1833,1548,11.4227,-9.75084
616,-524,11.6941,8.65515,0,0,0,0,0,0,0,-1,1840,1548,11.6941,-8.65514
623,-524,9.38452,5.15356,0,0,0,0,0,0,0,-1,1847,1548,9.38456,-5.15359
630,-524,11.0541,3.57434,0,0,0,0,0,0,0,-1,1854,1548,11.0541,-3.57438
637,-524,11.6067,3.20728,0,0,0,0,0,0,0,-1,1861,1548,11.6067,-3.20724
644,-524,12.2134,0.727173,0,0,0,0,0,0,0,-1,1868,1548,12.2134,-0.727222
651,-524,0,0,0,0,0,0,0,0,0,-1,1875,1548,0,0
658,-524,0,0,0,0,0,0,0,0,0,-1,1882,1548,0,0
665,-524,0,0,0,0,0,0,0,0,0,-1,1889,1548,0,0
672,-524,0,0,0,0,0,0,0,0,0,-1,1896,1548,0,0
679,-524,0,0,0,0,0,0,0,0,0,-1,1903,1548,0,0
686,-524,0,0,0,0,0,0,0,0,0,-1,1910,1548,0,0
693,-524,0,0,0,0,0,0,0,0,0,-1,1917,1548,0,0
700,-524,0,0,0,0,0,0,0,0,0,-1,1924,1548,0,0
707,-524,0,0,0,0,0,0,0,0,0,-1,1931,1548,0,0
714,-524,0,0,0,0,0,0,0,0,0,-1,1938,1548,0,0
721,-524,0,0,0,0,0,0,0,0,0,-1,1945,1548,0,0
728,-524,0,0,0,0,0,0,0,0,0,-1,1952,1548,0,0
735,-524,0,0,0,0,0,0,0,0,0,-1,1959,1548,0,0
742,-524,0,0,0,0,0,0,0,0,0,-1,1966,1548,0,0
749,-524,0,0,0,0,0,0,0,0,0,-1,1973,1548,0,0
756,-524,0,0,0,0,0,0,0,0,0,-1,1980,1548,0,0
763,-524,0,0,0,0,0,0,0,0,0,-1,1987,1548,0,0
770,-524,0,0,0,0,0,0,0,0,0,-1,1994,1548,0,0
777,-524,0,0,0,0,0,0,0,0,0,-1,2001,1548,0,0
784,-524,0,0,0,0,0,0,0,0,0,-1,2008,1548,0,0
791,-524,0,0,0,0,0,0,0,0,0,-1,2015,1548,0,0
798,-524,0,0,0,0,0,0,0,0,0,-1,2022,1548,0,0
805,-524,0,0,0,0,0,0,0,0,0,-1,2029,1548,0,0
812,-524,0,0,0,0,0,0,0,0,0,-1,2036,1548,0,0
-700,-531,0,0,0,0,0,0,0,0,0,-1,524,1555,0,0
-693,-531,0,0,0,0,0,0,0,0,0,-1,531,1555,0,0
-686,-531,0,0,0,0,0,0,0,0,0,-1,538,1555,0,0
-679,-531,0,0,0,0,0,0,0,0,0,-1,545,1555,0,0
-672,-531,0,0,0,0,0,0,0,0,0,-1,552,1555,0,0
-665,-531,0,0,0,0,0,0,0,0,0,-1,559,1555,0,0
-658,-531,0,0,0,0,0,0,0,0,0,-1,566,1555,0,0
-651,-531,0,0,0,0,0,0,0,0,0,-1,573,1555,0,0
-644,-531,0,0,0,0,0,0,0,0,0,-1,580,1555,0,0
-637,-531,0,0,0,0,0,0,0,0,0,-1,587,1555,0,0
-630,-531,0,0,0,0,0,0,0,0,0,-1,594,1555,0,0
-623,-531,0,0,0,0,0,0,0,0,0,-1,601,1555,0,0
-616,-531,0,0,0,0,0,0,0,0,0,-1,608,1555,0,0
-609,-531,0,0,0,0,0,0,0,0,0,-1,615,1555,0,0
-602,-531,0,0,0,0,0,0,0,0,0,-1,622,1555,0,0
-595,-531,0,0,0,0,0,0,0,0,0,-1,629,1555,0,0
-588,-531,0,0,0,0,0,0,0,0,0,-1,636,1555,0,0
-581,-531,0,0,0,0,0,0,0,0,0,-1,643,1555,0,0
-574,-531,0,0,0,0,0,0,0,0,0,-1,650,1555,0,0
-567,-531,0,0,0,0,0,0,0,0,0,-1,657,1555,0,0
-560,-531,0,0,0,0,0,0,0,0,0,-1,664,1555,0,0
-553,-531,0,0,0,0,0,0,0,0,0,-1,671,1555,0,0
-546,-531,0,0,0,0,0,0,0,0,0,-1,678,1555,0,0
-539,-531,0,0,0,0,0,0,0,0,0,-1,685,1555,0,0
-532,-531,0,0,0,0,0,0,0,0,0,-1,692,1555,0,0
-525,-531,0,0,0,0,0,0,0,0,0,-1,699,1555,0,0
-518,-531,-1.63983,4.03821,0,0,0,0,0,0,0,-1,706,1555,-1.63982,-4.03821
-511,-531,-2.9682,8.07483,0,0,0,0,0,0,0,-1,713,1555,-2.9682,-8.07479
-504,-531,-2.95978,0.557861,0,0,0,0,0,0,0,-1,720,1555,-2.95978,-0.557917
-497,-531,-2.46039,8.07422,0,0,0,0,0,0,0,-1,727,1555,-2.46039,-8.07423
-490,-531,-2.10461,8.25159,0,0,0,0,0,0,0,-1,734,1555,-2.10463,-8.25158
-483,-531,-1.82056,8.49353,0,0,0,0,0,0,0,-1,741,1555,-1.82054,-8.49356
-476,-531,-0.624207,8.5376,0,0,0,0,0,0,0,-1,748,1555,-0.624225,-8.53762
-469,-531,-0.590271,8.58264,0.00782885,0.00985047,0.00545938,0.0143918,0.0032875,0.876937,0.00870809,0.0420693,755,1555,-0.590268,-8.58263
-462,-531,-0.399231,8.88953,0.00510315,0.00901147,0.00510447,0.0125231,0.00159156,0.968208,0.007872,0.040294,762,1555,-0.399211,-8.88949
-455,-531,-0.534912,9.47534,0.00354055,0.00780957,0.0047878,0.0109171,0.000433005,0.995086,0.00713812,0.0292871,769,1555,-0.534882,-9.47535
-448,-531,-0.469482,9.67273,0.00244055,0.00642467,0.00422053,0.00909964,-0.000234425,1.00589,0.00614606,0.0141032,776,1555,-0.469502,-9.67271
-441,-531,-0.512451,9.9574,0.00166491,0.00531128,0.00355287,0.00748145,-0.000505265,1.02246,0.0051643,0.0110697,783,1555,-0.512466,-9.95734
-434,-531,-0.502319,10.2548,0.00142823,0.00428376,0.0032014,0.00636135,-0.00064936,0.995152,0.00447309,0.0108733,790,1555,-0.502291,-10.2548
-427,-531,-0.488953,10.5424,0.00156416,0.00324913,0.00269224,0.00522763,-0.000414333,0.937037,0.00363108,0.0133266,797,1555,-0.488964,-10.5423
-420,-531,-0.510864,10.8394,0.00187058,0.00237934,0.00212404,0.00426418,-1.42551e-05,0.844995,0.00284755,0.0123833,804,1555,-0.510879,-10.8393
-413,-531,-0.51886,11.142,0.00193124,0.00157602,0.00169301,0.00345593,5.13232e-05,0.733135,0.00228704,0.0107764,811,1555,-0.518857,-11.142
-406,-531,-0.525696,11.4392,0.00192021,0.000685712,0.0011158,0.00257812,2.78094e-05,0.532754,0.00170955,0.0118811,818,1555,-0.525706,-11.4392
-399,-531,-0.515015,11.7323,0.00190868,0.000329683,0.000660269,0.00214839,8.99767e-05,0.348247,0.00140323,0.0128438,825,1555,-0.515016,-11.7323
-392,-531,-0.506104,12.0199,0.00177439,-4.49487e-05,0.000293678,0.00182062,-9.11795e-05,0.156139,0.00124525,0.0170158,832,1555,-0.506096,-12.0199
-385,-531,-0.545654,12.3035,0.00150226,-0.000339358,-0.000189889,0.00152163,-0.000358733,-0.101685,0.00115276,0.0148684,839,1555,-0.545631,-12.3035
-378,-531,-0.559875,12.5658,0.000998564,-0.000471985,-0.000908171,0.00143179,-0.000905215,-0.445108,0.00136064,0.0126756,846,1555,-0.559853,-12.5658
-371,-531,-0.478088,12.9174,0.000452934,-0.000536905,-0.00159059,0.00162382,-0.00170779,-0.634568,0.00192371,0.0201237,853,1555,-0.478066,-12.9174
-364,-531,-0.387573,13.1838,-0.000229151,-0.000668517,-0.00259327,0.00215373,-0.0030514,-0.743143,0.00302004,0.042696,860,1555,-0.387557,-13.1838
-357,-531,-0.691223,13.199,-0.00123627,-0.000448574,-0.00400932,0.0031862,-0.00487104,-0.834358,0.00468563,0.0487227,867,1555,-0.691202,-13.199
-350,-531,-0.667114,13.8652,0,0,0,0,0,0,0,-1,874,1555,-0.667086,-13.8652
-343,-531,-0.688904,14.1139,0,0,0,0,0,0,0,-1,881,1555,-0.688929,-14.1139
-336,-531,-0.779053,14.2604,0,0,0,0,0,0,0,-1,888,1555,-0.779026,-14.2604
-329,-531,-1.04437,14.5823,0,0,0,0,0,0,0,-1,895,1555,-1.04438,-14.5823
-322,-531,-0.767944,14.6812,0,0,0,0,0,0,0,-1,902,1555,-0.767955,-14.6811
-315,-531,2.31708,15.9504,0,0,0,0,0,0,0,-1,909,1555,2.31706,-15.9505
-308,-531,2.02484,16.4951,0,0,0,0,0,0,0,-1,916,1555,2.02487,-16.4952
-301,-531,1.93475,17.208,0,0,0,0,0,0,0,-1,923,1555,1.93478,-17.208
-294,-531,-1.3244,8.1825,0,0,0,0,0,0,0,-1,930,1555,-1.3244,-8.18251
-287,-531,-1.41095,9.08215,0,0,0,0,0,0,0,-1,937,1555,-1.41095,-9.08216
-280,-531,-2.67621,16.4279,0,0,0,0,0,0,0,-1,944,1555,-2.67619,-16.4279
-273,-531,-3.82422,17.1969,0,0,0,0,0,0,0,-1,951,1555,-3.82422,-17.1969
-266,-531,-4.97742,17.9215,0,0,0,0,0,0,0,-1,958,1555,-4.97744,-17.9215
-259,-531,0,0,0,0,0,0,0,0,0,-1,965,1555,0,0
-252,-531,0,0,0,0,0,0,0,0,0,-1,972,1555,0,0
-245,-531,0,0,0,0,0,0,0,0,0,-1,979,1555,0,0
-238,-531,0,0,0,0,0,0,0,0,0,-1,986,1555,0,0
-231,-531,0,0,0,0,0,0,0,0,0,-1,993,1555,0,0
-224,-531,0,0,0,0,0,0,0,0,0,-1,1000,1555,0,0
-217,-531,0,0,0,0,0,0,0,0,0,-1,1007,1555,0,0
-210,-531,0,0,0,0,0,0,0,0,0,-1,1014,1555,0,0
-203,-531,0,0,0,0,0,0,0,0,0,-1,1021,1555,0,0
-196,-531,0,0,0,0,0,0,0,0,0,-1,1028,1555,0,0
-189,-531,0,0,0,0,0,0,0,0,0,-1,1035,1555,0,0
-182,-531,0,0,0,0,0,0,0,0,0,-1,1042,1555,0,0
-175,-531,0,0,0,0,0,0,0,0,0,-1,1049,1555,0,0
-168,-531,0,0,0,0,0,0,0,0,0,-1,1056,1555,0,0
-161,-531,0,0,0,0,0,0,0,0,0,-1,1063,1555,0,0
-154,-531,0,0,0,0,0,0,0,0,0,-1,1070,1555,0,0
-147,-531,0,0,0,0,0,0,0,0,0,-1,1077,1555,0,0
-140,-531,0,0,0,0,0,0,0,0,0,-1,1084,1555,0,0
-133,-531,0,0,0,0,0,0,0,0,0,-1,1091,1555,0,0
-126,-531,0,0,0,0,0,0,0,0,0,-1,1098,1555,0,0
-119,-531,0,0,0,0,0,0,0,0,0,-1,1105,1555,0,0
-112,-531,0,0,0,0,0,0,0,0,0,-1,1112,1555,0,0
-105,-531,0,0,0,0,0,0,0,0,0,-1,1119,1555,0,0
-98,-531,0,0,0,0,0,0,0,0,0,-1,1126,1555,0,0
-91,-531,0,0,0,0,0,0,0,0,0,-1,1133,1555,0,0
-84,-531,0,0,0,0,0,0,0,0,0,-1,1140,1555,0,0
-77,-531,0,0,0,0,0,0,0,0,0,-1,1147,1555,0,0
-70,-531,0,0,0,0,0,0,0,0,0,-1,1154,1555,0,0
-63,-531,0,0,0,0,0,0,0,0,0,-1,1161,1555,0,0
-56,-531,0,0,0,0,0,0,0,0,0,-1,1168,1555,0,0
-49,-531,0,0,0,0,0,0,0,0,0,-1,1175,1555,0,0
-42,-531,0,0,0,0,0,0,0,0,0,-1,1182,1555,0,0
-35,-531,0,0,0,0,0,0,0,0,0,-1,1189,1555,0,0
-28,-531,0,0,0,0,0,0,0,0,0,-1,1196,1555,0,0
-21,-531,0,0,0,0,0,0,0,0,0,-1,1203,1555,0,0
-14,-531,0,0,0,0,0,0,0,0,0,-1,1210,1555,0,0
-7,-531,0,0,0,0,0,0,0,0,0,-1,1217,1555,0,0
0,-531,0,0,0,0,0,0,0,0,0,-1,1224,1555,0,0
7,-531,0,0,0,0,0,0,0,0,0,-1,1231,1555,0,0
14,-531,0,0,0,0,0,0,0,0,0,-1,1238,1555,0,0
21,-531,0,0,0,0,0,0,0,0,0,-1,1245,1555,0,0
28,-531,0,0,0,0,0,0,0,0,0,-1,1252,1555,0,0
35,-531,0,0,0,0,0,0,0,0,0,-1,1259,1555,0,0
42,-531,0,0,0,0,0,0,0,0,0,-1,1266,1555,0,0
49,-531,0,0,0,0,0,0,0,0,0,-1,1273,1555,0,0
56,-531,0,0,0,0,0,0,0,0,0,-1,1280,1555,0,0
63,-531,0,0,0,0,0,0,0,0,0,-1,1287,1555,0,0
70,-531,0,0,0,0,0,0,0,0,0,-1,1294,1555,0,0
77,-531,0,0,0,0,0,0,0,0,0,-1,1301,1555,0,0
84,-531,0,0,0,0,0,0,0,0,0,-1,1308,1555,0,0
91,-531,0,0,0,0,0,0,0,0,0,-1,1315,1555,0,0
98,-531,0,0,0,0,0,0,0,0,0,-1,1322,1555,0,0
105,-531,0,0,0,0,0,0,0,0,0,-1,1329,1555,0,0
112,-531,0,0,0,0,0,0,0,0,0,-1,1336,1555,0,0
119,-531,0,0,0,0,0,0,0,0,0,-1,1343,1555,0,0
126,-531,0,0,0,0,0,0,0,0,0,-1,1350,1555,0,0
133,-531,0,0,0,0,0,0,0,0,0,-1,1357,1555,0,0
140,-531,0,0,0,0,0,0,0,0,0,-1,1364,1555,0,0
147,-531,0,0,0,0,0,0,0,0,0,-1,1371,1555,0,0
154,-531,0,0,0,0,0,0,0,0,0,-1,1378,1555,0,0
161,-531,0,0,0,0,0,0,0,0,0,-1,1385,1555,0,0
168,-531,0,0,0,0,0,0,0,0,0,-1,1392,1555,0,0
175,-531,0,0,0,0,0,0,0,0,0,-1,1399,1555,0,0
182,-531,0,0,0,0,0,0,0,0,0,-1,1406,1555,0,0
189,-531,0,0,0,0,0,0,0,0,0,-1,1413,1555,0,0
196,-531,0,0,0,0,0,0,0,0,0,-1,1420,1555,0,0
203,-531,0,0,0,0,0,0,0,0,0,-1,1427,1555,0,0
210,-531,0,0,0,0,0,0,0,0,0,-1,1434,1555,0,0
217,-531,0,0,0,0,0,0,0,0,0,-1,1441,1555,0,0
224,-531,0,0,0,0,0,0,0,0,0,-1,1448,1555,0,0
231,-531,0,0,0,0,0,0,0,0,0,-1,1455,1555,0,0
238,-531,0,0,0,0,0,0,0,0,0,-1,1462,1555,0,0
245,-531,0,0,0,0,0,0,0,0,0,-1,1469,1555,0,0
252,-531,0,0,0,0,0,0,0,0,0,-1,1476,1555,0,0
259,-531,0,0,0,0,0,0,0,0,0,-1,1483,1555,0,0
266,-531,0,0,0,0,0,0,0,0,0,-1,1490,1555,0,0
273,-531,0,0,0,0,0,0,0,0,0,-1,1497,1555,0,0
280,-531,0,0,0,0,0,0,0,0,0,-1,1504,1555,0,0
287,-531,0,0,0,0,0,0,0,0,0,-1,1511,1555,0,0
294,-531,0,0,0,0,0,0,0,0,0,-1,1518,1555,0,0
301,-531,0,0,0,0,0,0,0,0,0,-1,1525,1555,0,0
308,-531,0,0,0,0,0,0,0,0,0,-1,1532,1555,0,0
315,-531,0,0,0,0,0,0,0,0,0,-1,1539,1555,0,0
322,-531,0,0,0,0,0,0,0,0,0,-1,1546,1555,0,0
329,-531,0,0,0,0,0,0,0,0,0,-1,1553,1555,0,0
336,-531,0,0,0,0,0,0,0,0,0,-1,1560,1555,0,0
343,-531,0,0,0,0,0,0,0,0,0,-1,1567,1555,0,0
350,-531,0,0,0,0,0,0,0,0,0,-1,1574,1555,0,0
357,-531,0,0,0,0,0,0,0,0,0,-1,1581,1555,0,0
364,-531,0,0,0,0,0,0,0,0,0,-1,1588,1555,0,0
371,-531,0,0,0,0,0,0,0,0,0,-1,1595,1555,0,0
378,-531,0,0,0,0,0,0,0,0,0,-1,1602,1555,0,0
385,-531,3.48169,1.78625,0,0,0,0,0,0,0,-1,1609,1555,3.48165,-1.78624
392,-531,10.8781,9.09204,0,0,0,0,0,0,0,-1,1616,1555,10.8781,-9.09205
399,-531,8.26306,5.29602,0,0,0,0,0,0,0,-1,1623,1555,8.26302,-5.29607
406,-531,8.26147,5.42712,0,0,0,0,0,0,0,-1,1630,1555,8.26145,-5.42716
413,-531,8.20618,5.75012,0,0,0,0,0,0,0,-1,1637,1555,8.20619,-5.75017
420,-531,7.64868,7.09558,0,0,0,0,0,0,0,-1,1644,1555,7.64867,-7.09564
427,-531,9.93054,11.8412,0,0,0,0,0,0,0,-1,1651,1555,9.93059,-11.8412
434,-531,10.244,11.7072,0,0,0,0,0,0,0,-1,1658,1555,10.244,-11.7071
441,-531,11.4528,12.9397,0,0,0,0,0,0,0,-1,1665,1555,11.4528,-12.9397
448,-531,8.70752,11.1261,0,0,0,0,0,0,0,-1,1672,1555,8.70751,-11.126
455,-531,14.4877,9.67065,0,0,0,0,0,0,0,-1,1679,1555,14.4876,-9.67066
462,-531,13.7253,10.5568,0,0,0,0,0,0,0,-1,1686,1555,13.7253,-10.5568
469,-531,12.97,11.532,0,0,0,0,0,0,0,-1,1693,1555,12.97,-11.532
476,-531,11.291,13.4026,0,0,0,0,0,0,0,-1,1700,1555,11.2911,-13.4026
483,-531,11.1959,13.5382,-0.0111267,-0.0383467,0.0309829,0.00910371,-0.0585772,0.578449,0.042413,0.0486275,1707,1555,11.1959,-13.5382
490,-531,11.1495,14.1959,-0.0106801,-0.0303995,0.0258428,0.00712001,-0.0481996,0.603158,0.0347504,0.038687,1714,1555,11.1495,-14.196
497,-531,10.834,14.3273,-0.00970967,-0.0236761,0.0211097,0.0055419,-0.0389277,0.625661,0.0279826,0.0219093,1721,1555,10.8339,-14.3273
504,-531,10.8508,14.1003,-0.00893562,-0.0178876,0.017082,0.00424703,-0.0310703,0.657263,0.0222646,0.0133539,1728,1555,10.8509,-14.1003
511,-531,10.8751,13.8322,-0.00782792,-0.0132951,0.0133048,0.00302124,-0.0241443,0.684079,0.017192,0.0128822,1735,1555,10.8752,-13.8322
518,-531,10.8887,13.5712,-0.00620656,-0.00960662,0.00997981,0.00221698,-0.0180302,0.701034,0.0128231,0.013657,1742,1555,10.8887,-13.5712
525,-531,10.8925,13.3141,-0.00444906,-0.00649443,0.00709392,0.00169551,-0.012639,0.71381,0.0090443,0.0128409,1749,1555,10.8925,-13.3141
532,-531,10.9124,13.057,-0.00316444,-0.00419684,0.00491204,0.00125845,-0.00861973,0.733046,0.00620863,0.00981295,1756,1555,10.9123,-13.057
539,-531,10.9011,12.7825,-0.00212082,-0.00203473,0.00303086,0.000953382,-0.00510894,0.792499,0.00376422,0.011862,1763,1555,10.9011,-12.7825
546,-531,10.8768,12.5043,-0.00117001,-0.00069251,0.00158173,0.000668387,-0.0025309,0.860303,0.00194866,0.0153861,1770,1555,10.8769,-12.5043
553,-531,10.9021,12.271,-0.000253969,0.000421108,0.000414958,0.000618474,-0.000451335,1.12684,0.000620162,0.0289978,1777,1555,10.9021,-12.271
560,-531,10.8827,12.0226,0.000950153,0.00125259,-0.000612631,0.00173239,0.000470352,-0.906395,0.00103442,0.0300099,1784,1555,10.8827,-12.0226
567,-531,10.8113,11.7203,0.00225868,0.00183751,-0.00152714,0.00358969,0.000506501,-0.716882,0.00224343,0.017372,1791,1555,10.8113,-11.7203
574,-531,10.8483,11.4387,0.0038854,0.00237464,-0.00239826,0.00564443,0.000615612,-0.632832,0.00357546,0.012746,1798,1555,10.8482,-11.4387
581,-531,10.8927,11.1516,0.00577067,0.00271127,-0.00335488,0.00792814,0.000553806,-0.571498,0.00511084,0.0124092,1805,1555,10.8927,-11.1516
588,-531,10.9243,10.8325,0.0084932,0.00298195,-0.00452189,0.0110329,0.000442205,-0.511748,0.00721241,0.017416,1812,1555,10.9243,-10.8325
595,-531,10.9122,10.5017,0.01225,0.00342417,-0.0061051,0.0153701,0.000304074,-0.472459,0.0101469,0.0358371,1819,1555,10.9122,-10.5016
602,-531,11.0748,10.0747,0,0,0,0,0,0,0,-1,1826,1555,11.0748,-10.0747
609,-531,10.9072,8.50903,0,0,0,0,0,0,0,-1,1833,1555,10.9073,-8.50902
616,-531,10.5723,7.17859,0,0,0,0,0,0,0,-1,1840,1555,10.5723,-7.17855
623,-531,10.0674,5.08984,0,0,0,0,0,0,0,-1,1847,1555,10.0674,-5.08981
630,-531,11.672,3.18909,0,0,0,0,0,0,0,-1,1854,1555,11.672,-3.18904
637,-531,13.2546,1.38965,0,0,0,0,0,0,0,-1,1861,1555,13.2547,-1.3896
644,-531,0,0,0,0,0,0,0,0,0,-1,1868,1555,0,0
651,-531,0,0,0,0,0,0,0,0,0,-1,1875,1555,0,0
658,-531,0,0,0,0,0,0,0,0,0,-1,1882,1555,0,0
665,-531,0,0,0,0,0,0,0,0,0,-1,1889,1555,0,0
672,-531,0,0,0,0,0,0,0,0,0,-1,1896,1555,0,0
679,-531,0,0,0,0,0,0,0,0,0,-1,1903,1555,0,0
686,-531,0,0,0,0,0,0,0,0,0,-1,1910,1555,0,0
693,-531,0,0,0,0,0,0,0,0,0,-1,1917,1555,0,0
700,-531,0,0,0,0,0,0,0,0,0,-1,1924,1555,0,0
707,-531,0,0,0,0,0,0,0,0,0,-1,1931,1555,0,0
714,-531,0,0,0,0,0,0,0,0,0,-1,1938,1555,0,0
721,-531,0,0,0,0,0,0,0,0,0,-1,1945,1555,0,0
728,-531,0,0,0,0,0,0,0,0,0,-1,1952,1555,0,0
735,-531,0,0,0,0,0,0,0,0,0,-1,1959,1555,0,0
742,-531,0,0,0,0,0,0,0,0,0,-1,1966,1555,0,0
749,-531,0,0,0,0,0,0,0,0,0,-1,1973,1555,0,0
756,-531,0,0,0,0,0,0,0,0,0,-1,1980,1555,0,0
763,-531,0,0,0,0,0,0,0,0,0,-1,1987,1555,0,0
770,-531,0,0,0,0,0,0,0,0,0,-1,1994,1555,0,0
777,-531,0,0,0,0,0,0,0,0,0,-1,2001,1555,0,0
784,-531,0,0,0,0,0,0,0,0,0,-1,2008,1555,0,0
791,-531,0,0,0,0,0,0,0,0,0,-1,2015,1555,0,0
798,-531,0,0,0,0,0,0,0,0,0,-1,2022,1555,0,0
805,-531,0,0,0,0,0,0,0,0,0,-1,2029,1555,0,0
812,-531,0,0,0,0,0,0,0,0,0,-1,2036,1555,0,0
-700,-538,0,0,0,0,0,0,0,0,0,-1,524,1562,0,0
-693,-538,0,0,0,0,0,0,0,0,0,-1,531,1562,0,0
-686,-538,0,0,0,0,0,0,0,0,0,-1,538,1562,0,0
-679,-538,0,0,0,0,0,0,0,0,0,-1,545,1562,0,0
-672,-538,0,0,0,0,0,0,0,0,0,-1,552,1562,0,0
-665,-538,0,0,0,0,0,0,0,0,0,-1,559,1562,0,0
-658,-538,0,0,0,0,0,0,0,0,0,-1,566,1562,0,0
-651,-538,0,0,0,0,0,0,0,0,0,-1,573,1562,0,0
-644,-538,0,0,0,0,0,0,0,0,0,-1,580,1562,0,0
-637,-538,0,0,0,0,0,0,0,0,0,-1,587,1562,0,0
-630,-538,0,0,0,0,0,0,0,0,0,-1,594,1562,0,0
-623,-538,0,0,0,0,0,0,0,0,0,-1,601,1562,0,0
-616,-538,0,0,0,0,0,0,0,0,0,-1,608,1562,0,0
-609,-538,0,0,0,0,0,0,0,0,0,-1,615,1562,0,0
-602,-538,0,0,0,0,0,0,0,0,0,-1,622,1562,0,0
-595,-538,0,0,0,0,0,0,0,0,0,-1,629,1562,0,0
-588,-538,0,0,0,0,0,0,0,0,0,-1,636,1562,0,0
-581,-538,0,0,0,0,0,0,0,0,0,-1,643,1562,0,0
-574,-538,0,0,0,0,0,0,0,0,0,-1,650,1562,0,0
-567,-538,0,0,0,0,0,0,0,0,0,-1,657,1562,0,0
-560,-538,0,0,0,0,0,0,0,0,0,-1,664,1562,0,0
-553,-538,0,0,0,0,0,0,0,0,0,-1,671,1562,0,0
-546,-538,0,0,0,0,0,0,0,0,0,-1,678,1562,0,0
-539,-538,0,0,0,0,0,0,0,0,0,-1,685,1562,0,0
-532,-538,0,0,0,0,0,0,0,0,0,-1,692,1562,0,0
-525,-538,0,0,0,0,0,0,0,0,0,-1,699,1562,0,0
-518,-538,0,0,0,0,0,0,0,0,0,-1,706,1562,0,0
-511,-538,-2.6582,-1.54321,0,0,0,0,0,0,0,-1,713,1562,-2.65821,1.54327
-504,-538,-2.66455,-0.71167,0,0,0,0,0,0,0,-1,720,1562,-2.66456,0.711667
-497,-538,-0.763855,6.77747,0,0,0,0,0,0,0,-1,727,1562,-0.76385,-6.77743
-490,-538,-2.70453,8.01465,0,0,0,0,0,0,0,-1,734,1562,-2.70451,-8.0147
-483,-538,-1.5022,8.31262,0,0,0,0,0,0,0,-1,741,1562,-1.50222,-8.31264
-476,-538,-0.355286,8.21167,0,0,0,0,0,0,0,-1,748,1562,-0.355256,-8.21164
-469,-538,-0.441956,8.38611,0.00903955,0.0156864,0.00855777,0.0215434,0.00318252,0.97061,0.0134277,0.0457964,755,1562,-0.441976,-8.38607
-462,-538,-0.21051,8.25684,0.00635679,0.0135142,0.00795998,0.0186629,0.00120803,0.996652,0.0120595,0.0431587,762,1562,-0.210482,-8.25689
-455,-538,-0.374695,9.52979,0.00452232,0.0112812,0.00719723,0.0158529,-4.93852e-05,1.00489,0.0105851,0.0366389,769,1562,-0.374714,-9.52985
-448,-538,-0.149353,9.72644,0.00320423,0.00900288,0.00615889,0.0129108,-0.000703652,1.00539,0.00885105,0.0167548,776,1562,-0.149371,-9.72639
-441,-538,-0.180908,10.0269,0.00221606,0.00714749,0.00503085,0.0102844,-0.000920831,1.01325,0.0071829,0.0171773,783,1562,-0.180926,-10.0269
-434,-538,-0.205017,10.259,0.00176913,0.0056091,0.00429838,0.00839681,-0.00101859,0.995441,0.00596646,0.011498,790,1562,-0.205021,-10.259
-427,-538,-0.224365,10.5563,0.00167208,0.00427994,0.00349553,0.00670683,-0.000754806,0.963919,0.00474288,0.0129348,797,1562,-0.224366,-10.5562
-420,-538,-0.246643,10.8457,0.0017679,0.00318054,0.00268426,0.00524985,-0.00030141,0.914049,0.00360457,0.017234,804,1562,-0.246629,-10.8457
-413,-538,-0.253418,11.1414,0.00162829,0.00218567,0.00208455,0.00401007,-0.000196117,0.851851,0.00274109,0.0176828,811,1562,-0.253408,-11.1414
-406,-538,-0.239807,11.4283,0.00151903,0.00114909,0.00137505,0.00272149,-5.33736e-05,0.71854,0.00183238,0.014686,818,1562,-0.239832,-11.4284
-399,-538,-0.222534,11.7197,0.00142347,0.000796728,0.000803477,0.00197253,0.000247675,0.599461,0.00124073,0.0130235,825,1562,-0.222524,-11.7198
-392,-538,-0.219238,11.9999,0.00124031,0.000456558,0.000428035,0.00142876,0.000268107,0.414734,0.000876911,0.0138707,832,1562,-0.219226,-11.9999
-385,-538,-0.2547,12.2904,0.00101638,0.00010696,-7.41634e-05,0.00102238,0.000100952,-0.0808388,0.000650555,0.0123666,839,1562,-0.254694,-12.2904
-378,-538,-0.257568,12.5841,0.000645105,4.11335e-05,-0.000695132,0.00110101,-0.000414775,-0.580483,0.000904542,0.0101323,846,1562,-0.257561,-12.5842
-371,-538,-0.271606,12.8645,0.000265899,7.40917e-05,-0.00123367,0.00140739,-0.0010674,-0.746607,0.00143331,0.0107771,853,1562,-0.271596,-12.8645
-364,-538,-0.225647,13.1722,-0.000185669,5.99134e-05,-0.00202579,0.00196663,-0.00209239,-0.815668,0.00234385,0.0120414,860,1562,-0.225642,-13.1723
-357,-538,-0.202759,13.4501,-0.000695958,0.000272188,-0.00311097,0.00293652,-0.00336029,-0.86258,0.00363821,0.0241213,867,1562,-0.202771,-13.4501
-350,-538,-0.294434,13.6804,-0.00139333,0.000835938,-0.00420201,0.00406863,-0.00462603,-0.915044,0.0050233,0.0352056,874,1562,-0.294445,-13.6805
-343,-538,-0.323364,13.998,-0.00262993,0.00179251,-0.00545761,0.00546984,-0.00630726,-0.977873,0.00680524,0.0464104,881,1562,-0.323348,-13.998
-336,-538,-0.354431,14.2343,-0.00425269,0.00280404,-0.00721434,0.00730661,-0.00875527,-1.01283,0.0092859,0.0472476,888,1562,-0.354403,-14.2342
-329,-538,-0.495483,14.475,-0.00566419,0.00458323,-0.00854568,0.00942351,-0.0105045,-1.05545,0.0115111,0.0460907,895,1562,-0.495513,-14.475
-322,-538,-0.854431,14.625,0,0,0,0,0,0,0,-1,902,1562,-0.854441,-14.625
-315,-538,1.46808,15.1128,0,0,0,0,0,0,0,-1,909,1562,1.4681,-15.1128
-308,-538,1.45367,15.8478,0,0,0,0,0,0,0,-1,916,1562,1.45367,-15.8478
-301,-538,1.43921,16.5829,0,0,0,0,0,0,0,-1,923,1562,1.43923,-16.5828
-294,-538,1.23138,14.0757,0,0,0,0,0,0,0,-1,930,1562,1.23137,-14.0757
-287,-538,-2.15009,12.8256,0,0,0,0,0,0,0,-1,937,1562,-2.15011,-12.8256
-280,-538,-3.13525,14.0911,0,0,0,0,0,0,0,-1,944,1562,-3.13524,-14.091
-273,-538,-3.96271,15.2585,0,0,0,0,0,0,0,-1,951,1562,-3.96268,-15.2586
-266,-538,-5.03412,15.9951,0,0,0,0,0,0,0,-1,958,1562,-5.03409,-15.9951
-259,-538,-5.89642,16.5184,0,0,0,0,0,0,0,-1,965,1562,-5.89644,-16.5184
-252,-538,0,0,0,0,0,0,0,0,0,-1,972,1562,0,0
-245,-538,0,0,0,0,0,0,0,0,0,-1,979,1562,0,0
-238,-538,0,0,0,0,0,0,0,0,0,-1,986,1562,0,0
-231,-538,0,0,0,0,0,0,0,0,0,-1,993,1562,0,0
-224,-538,0,0,0,0,0,0,0,0,0,-1,1000,1562,0,0
-217,-538,0,0,0,0,0,0,0,0,0,-1,1007,1562,0,0
-210,-538,0,0,0,0,0,0,0,0,0,-1,1014,1562,0,0
-203,-538,0,0,0,0,0,0,0,0,0,-1,1021,1562,0,0
-196,-538,0,0,0,0,0,0,0,0,0,-1,1028,1562,0,0
-189,-538,0,0,0,0,0,0,0,0,0,-1,1035,1562,0,0
-182,-538,0,0,0,0,0,0,0,0,0,-1,1042,1562,0,0
-175,-538,0,0,0,0,0,0,0,0,0,-1,1049,1562,0,0
-168,-538,0,0,0,0,0,0,0,0,0,-1,1056,1562,0,0
-161,-538,0,0,0,0,0,0,0,0,0,-1,1063,1562,0,0
-154,-538,0,0,0,0,0,0,0,0,0,-1,1070,1562,0,0
-147,-538,0,0,0,0,0,0,0,0,0,-1,1077,1562,0,0
-140,-538,0,0,0,0,0,0,0,0,0,-1,1084,1562,0,0
-133,-538,0,0,0,0,0,0,0,0,0,-1,1091,1562,0,0
-126,-538,0,0,0,0,0,0,0,0,0,-1,1098,1562,0,0
-119,-538,0,0,0,0,0,0,0,0,0,-1,1105,1562,0,0
-112,-538,0,0,0,0,0,0,0,0,0,-1,1112,1562,0,0
-105,-538,0,0,0,0,0,0,0,0,0,-1,1119,1562,0,0
-98,-538,0,0,0,0,0,0,0,0,0,-1,1126,1562,0,0
-91,-538,0,0,0,0,0,0,0,0,0,-1,1133,1562,0,0
-84,-538,0,0,0,0,0,0,0,0,0,-1,1140,1562,0,0
-77,-538,0,0,0,0,0,0,0,0,0,-1,1147,1562,0,0
-70,-538,0,0,0,0,0,0,0,0,0,-1,1154,1562,0,0
-63,-538,0,0,0,0,0,0,0,0,0,-1,1161,1562,0,0
-56,-538,0,0,0,0,0,0,0,0,0,-1,1168,1562,0,0
-49,-538,0,0,0,0,0,0,0,0,0,-1,1175,1562,0,0
-42,-538,0,0,0,0,0,0,0,0,0,-1,1182,1562,0,0
-35,-538,0,0,0,0,0,0,0,0,0,-1,1189,1562,0,0
-28,-538,0,0,0,0,0,0,0,0,0,-1,1196,1562,0,0
-21,-538,0,0,0,0,0,0,0,0,0,-1,1203,1562,0,0
-14,-538,0,0,0,0,0,0,0,0,0,-1,1210,1562,0,0
-7,-538,0,0,0,0,0,0,0,0,0,-1,1217,1562,0,0
0,-538,0,0,0,0,0,0,0,0,0,-1,1224,1562,0,0
7,-538,0,0,0,0,0,0,0,0,0,-1,1231,1562,0,0
14,-538,0,0,0,0,0,0,0,0,0,-1,1238,1562,0,0
21,-538,0,0,0,0,0,0,0,0,0,-1,1245,1562,0,0
28,-538,0,0,0,0,0,0,0,0,0,-1,1252,1562,0,0
35,-538,0,0,0,0,0,0,0,0,0,-1,1259,1562,0,0
42,-538,0,0,0,0,0,0,0,0,0,-1,1266,1562,0,0
49,-538,0,0,0,0,0,0,0,0,0,-1,1273,1562,0,0
56,-538,0,0,0,0,0,0,0,0,0,-1,1280,1562,0,0
63,-538,0,0,0,0,0,0,0,0,0,-1,1287,1562,0,0
70,-538,0,0,0,0,0,0,0,0,0,-1,1294,1562,0,0
77,-538,0,0,0,0,0,0,0,0,0,-1,1301,1562,0,0
84,-538,0,0,0,0,0,0,0,0,0,-1,1308,1562,0,0
91,-538,0,0,0,0,0,0,0,0,0,-1,1315,1562,0,0
98,-538,0,0,0,0,0,0,0,0,0,-1,1322,1562,0,0
105,-538,0,0,0,0,0,0,0,0,0,-1,1329,1562,0,0
112,-538,0,0,0,0,0,0,0,0,0,-1,1336,1562,0,0
119,-538,0,0,0,0,0,0,0,0,0,-1,1343,1562,0,0
126,-538,0,0,0,0,0,0,0,0,0,-1,1350,1562,0,0
133,-538,0,0,0,0,0,0,0,0,0,-1,1357,1562,0,0
140,-538,0,0,0,0,0,0,0,0,0,-1,1364,1562,0,0
147,-538,0,0,0,0,0,0,0,0,0,-1,1371,1562,0,0
154,-538,0,0,0,0,0,0,0,0,0,-1,1378,1562,0,0
161,-538,0,0,0,0,0,0,0,0,0,-1,1385,1562,0,0
168,-538,0,0,0,0,0,0,0,0,0,-1,1392,1562,0,0
175,-538,0,0,0,0,0,0,0,0,0,-1,1399,1562,0,0
182,-538,0,0,0,0,0,0,0,0,0,-1,1406,1562,0,0
189,-538,0,0,0,0,0,0,0,0,0,-1,1413,1562,0,0
196,-538,0,0,0,0,0,0,0,0,0,-1,1420,1562,0,0
203,-538,0,0,0,0,0,0,0,0,0,-1,1427,1562,0,0
210,-538,0,0,0,0,0,0,0,0,0,-1,1434,1562,0,0
217,-538,0,0,0,0,0,0,0,0,0,-1,1441,1562,0,0
224,-538,0,0,0,0,0,0,0,0,0,-1,1448,1562,0,0
231,-538,0,0,0,0,0,0,0,0,0,-1,1455,1562,0,0
238,-538,0,0,0,0,0,0,0,0,0,-1,1462,1562,0,0
245,-538,0,0,0,0,0,0,0,0,0,-1,1469,1562,0,0
252,-538,0,0,0,0,0,0,0,0,0,-1,1476,1562,0,0
259,-538,0,0,0,0,0,0,0,0,0,-1,1483,1562,0,0
266,-538,0,0,0,0,0,0,0,0,0,-1,1490,1562,0,0
273,-538,0,0,0,0,0,0,0,0,0,-1,1497,1562,0,0
280,-538,0,0,0,0,0,0,0,0,0,-1,1504,1562,0,0
287,-538,0,0,0,0,0,0,0,0,0,-1,1511,1562,0,0
294,-538,0,0,0,0,0,0,0,0,0,-1,1518,1562,0,0
301,-538,0,0,0,0,0,0,0,0,0,-1,1525,1562,0,0
308,-538,0,0,0,0,0,0,0,0,0,-1,1532,1562,0,0
315,-538,0,0,0,0,0,0,0,0,0,-1,1539,1562,0,0
322,-538,0,0,0,0,0,0,0,0,0,-1,1546,1562,0,0
329,-538,0,0,0,0,0,0,0,0,0,-1,1553,1562,0,0
336,-538,0,0,0,0,0,0,0,0,0,-1,1560,1562,0,0
343,-538,0,0,0,0,0,0,0,0,0,-1,1567,1562,0,0
350,-538,0,0,0,0,0,0,0,0,0,-1,1574,1562,0,0
357,-538,0,0,0,0,0,0,0,0,0,-1,1581,1562,0,0
364,-538,0,0,0,0,0,0,0,0,0,-1,1588,1562,0,0
371,-538,0,0,0,0,0,0,0,0,0,-1,1595,1562,0,0
378,-538,9.65479,5.82434,0,0,0,0,0,0,0,-1,1602,1562,9.6548,-5.82439
385,-538,9.65552,8.01746,0,0,0,0,0,0,0,-1,1609,1562,9.65546,-8.01741
392,-538,8.20361,7.07214,0,0,0,0,0,0,0,-1,1616,1562,8.20362,-7.07211
399,-538,7.85425,4.70508,0,0,0,0,0,0,0,-1,1623,1562,7.85425,-4.70512
406,-538,7.77734,4.96094,0,0,0,0,0,0,0,-1,1630,1562,7.77729,-4.96097
413,-538,13.0446,13.1765,0,0,0,0,0,0,0,-1,1637,1562,13.0446,-13.1765
420,-538,9.96216,12.7653,0,0,0,0,0,0,0,-1,1644,1562,9.96221,-12.7653
427,-538,10.1732,14.5863,0,0,0,0,0,0,0,-1,1651,1562,10.1732,-14.5863
434,-538,9.64331,14.7745,0,0,0,0,0,0,0,-1,1658,1562,9.64326,-14.7746
441,-538,10.821,12.9027,0,0,0,0,0,0,0,-1,1665,1562,10.8211,-12.9028
448,-538,11.9348,13.1129,0,0,0,0,0,0,0,-1,1672,1562,11.9348,-13.1129
455,-538,11.6873,13.4506,0,0,0,0,0,0,0,-1,1679,1562,11.6872,-13.4506
462,-538,12.6187,14.1605,0,0,0,0,0,0,0,-1,1686,1562,12.6187,-14.1605
469,-538,12.2103,14.2928,0,0,0,0,0,0,0,-1,1693,1562,12.2103,-14.2929
476,-538,10.926,14.899,0,0,0,0,0,0,0,-1,1700,1562,10.9261,-14.8991
483,-538,10.7341,14.5391,-0.00794421,-0.0294554,0.0235583,0.00719758,-0.0445972,0.571253,0.0323983,0.0342344,1707,1562,10.7341,-14.5391
490,-538,10.6051,14.5321,-0.00768718,-0.0234662,0.0197505,0.00569131,-0.0368446,0.595379,0.0266634,0.0167699,1714,1562,10.6051,-14.5321
497,-538,10.5991,14.3481,-0.00697827,-0.0183082,0.0161554,0.00447659,-0.029763,0.616769,0.0214902,0.0118071,1721,1562,10.5991,-14.3481
504,-538,10.6083,14.0823,-0.00649549,-0.013704,0.0130857,0.00347324,-0.0236728,0.651012,0.0170579,0.0095826,1728,1562,10.6083,-14.0822
511,-538,10.6141,13.8206,-0.00572564,-0.00997041,0.0100622,0.00243558,-0.0181316,0.681459,0.012976,0.00971114,1735,1562,10.6141,-13.8206
518,-538,10.6226,13.5535,-0.00446543,-0.00700348,0.00739143,0.00176513,-0.013234,0.700383,0.00946608,0.0105653,1742,1562,10.6226,-13.5534
525,-538,10.6115,13.2908,-0.00305142,-0.0044633,0.00505425,0.00134595,-0.00886067,0.716011,0.00640309,0.0108367,1749,1562,10.6115,-13.2907
532,-538,10.6344,13.037,-0.00206271,-0.00257172,0.00329447,0.000987072,-0.0056215,0.746849,0.00411633,0.0114847,1756,1562,10.6344,-13.037
539,-538,10.6296,12.7955,-0.0012683,-0.000828006,0.00178751,0.000752862,-0.00284917,0.846669,0.00219389,0.014821,1763,1562,10.6296,-12.7955
546,-538,10.6061,12.5193,-0.000562313,0.000283681,0.000644294,0.000631425,-0.000910057,1.07587,0.000894809,0.0173216,1770,1562,10.6061,-12.5193
553,-538,10.6586,12.2604,0.000187754,0.00112486,-0.00026236,0.00119331,0.000119302,-1.31558,0.000758907,0.0272409,1777,1562,10.6586,-12.2604
560,-538,10.6312,12.0204,0.00126351,0.00185773,-0.00107993,0.00268068,0.000440567,-0.919637,0.00165987,0.0280708,1784,1562,10.6312,-12.0203
567,-538,10.558,11.7288,0.00235987,0.0023825,-0.00179288,0.0041641,0.000578267,-0.788553,0.00260479,0.0203433,1791,1562,10.558,-11.7288
574,-538,10.5885,11.4282,0.00382206,0.00293488,-0.00260703,0.00602296,0.000733969,-0.701129,0.00379439,0.0139762,1798,1562,10.5885,-11.4283
581,-538,10.6504,11.1207,0.00573823,0.00323807,-0.00359553,0.00829479,0.00068151,-0.618097,0.00531727,0.0162028,1805,1562,10.6504,-11.1207
588,-538,10.7035,10.8225,0.00873754,0.0037129,-0.0049455,0.0117723,0.000678174,-0.550384,0.00763217,0.0325603,1812,1562,10.7034,-10.8225
595,-538,10.7777,10.4814,0,0,0,0,0,0,0,-1,1819,1562,10.7777,-10.4814
602,-538,10.314,8.94238,0,0,0,0,0,0,0,-1,1826,1562,10.314,-8.94238
609,-538,10.1046,7.05713,0,0,0,0,0,0,0,-1,1833,1562,10.1046,-7.05719
616,-538,9.92249,5.43506,0,0,0,0,0,0,0,-1,1840,1562,9.92254,-5.43507
623,-538,11.1711,4.31604,0,0,0,0,0,0,0,-1,1847,1562,11.1711,-4.316
630,-538,12.6112,2.61633,0,0,0,0,0,0,0,-1,1854,1562,12.6112,-2.61637
637,-538,0,0,0,0,0,0,0,0,0,-1,1861,1562,0,0
644,-538,0,0,0,0,0,0,0,0,0,-1,1868,1562,0,0
651,-538,0,0,0,0,0,0,0,0,0,-1,1875,1562,0,0
658,-538,0,0,0,0,0,0,0,0,0,-1,1882,1562,0,0
665,-538,0,0,0,0,0,0,0,0,0,-1,1889,1562,0,0
672,-538,0,0,0,0,0,0,0,0,0,-1,1896,1562,0,0
679,-538,0,0,0,0,0,0,0,0,0,-1,1903,1562,0,0
686,-538,0,0,0,0,0,0,0,0,0,-1,1910,1562,0,0
693,-538,0,0,0,0,0,0,0,0,0,-1,1917,1562,0,0
700,-538,0,0,0,0,0,0,0,0,0,-1,1924,1562,0,0
707,-538,0,0,0,0,0,0,0,0,0,-1,1931,1562,0,0
714,-538,0,0,0,0,0,0,0,0,0,-1,1938,1562,0,0
721,-538,0,0,0,0,0,0,0,0,0,-1,1945,1562,0,0
728,-538,0,0,0,0,0,0,0,0,0,-1,1952,1562,0,0
735,-538,0,0,0,0,0,0,0,0,0,-1,1959,1562,0,0
742,-538,0,0,0,0,0,0,0,0,0,-1,1966,1562,0,0
749,-538,0,0,0,0,0,0,0,0,0,-1,1973,1562,0,0
756,-538,0,0,0,0,0,0,0,0,0,-1,1980,1562,0,0
763,-538,0,0,0,0,0,0,0,0,0,-1,1987,1562,0,0
770,-538,0,0,0,0,0,0,0,0,0,-1,1994,1562,0,0
777,-538,0,0,0,0,0,0,0,0,0,-1,2001,1562,0,0
784,-538,0,0,0,0,0,0,0,0,0,-1,2008,1562,0,0
791,-538,0,0,0,0,0,0,0,0,0,-1,2015,1562,0,0
798,-538,0,0,0,0,0,0,0,0,0,-1,2022,1562,0,0
805,-538,0,0,0,0,0,0,0,0,0,-1,2029,1562,0,0
812,-538,0,0,0,0,0,0,0,0,0,-1,2036,1562,0,0
-700,-545,0,0,0,0,0,0,0,0,0,-1,524,1569,0,0
-693,-545,0,0,0,0,0,0,0,0,0,-1,531,1569,0,0
-686,-545,0,0,0,0,0,0,0,0,0,-1,538,1569,0,0
-679,-545,0,0,0,0,0,0,0,0,0,-1,545,1569,0,0
-672,-545,0,0,0,0,0,0,0,0,0,-1,552,1569,0,0
-665,-545,0,0,0,0,0,0,0,0,0,-1,559,1569,0,0
-658,-545,0,0,0,0,0,0,0,0,0,-1,566,1569,0,0
-651,-545,0,0,0,0,0,0,0,0,0,-1,573,1569,0,0
-644,-545,0,0,0,0,0,0,0,0,0,-1,580,1569,0,0
-637,-545,0,0,0,0,0,0,0,0,0,-1,587,1569,0,0
-630,-545,0,0,0,0,0,0,0,0,0,-1,594,1569,0,0
-623,-545,0,0,0,0,0,0,0,0,0,-1,601,1569,0,0
-616,-545,0,0,0,0,0,0,0,0,0,-1,608,1569,0,0
-609,-545,0,0,0,0,0,0,0,0,0,-1,615,1569,0,0
-602,-545,0,0,0,0,0,0,0,0,0,-1,622,1569,0,0
-595,-545,0,0,0,0,0,0,0,0,0,-1,629,1569,0,0
-588,-545,0,0,0,0,0,0,0,0,0,-1,636,1569,0,0
-581,-545,0,0,0,0,0,0,0,0,0,-1,643,1569,0,0
-574,-545,0,0,0,0,0,0,0,0,0,-1,650,1569,0,0
-567,-545,0,0,0,0,0,0,0,0,0,-1,657,1569,0,0
-560,-545,0,0,0,0,0,0,0,0,0,-1,664,1569,0,0
-553,-545,0,0,0,0,0,0,0,0,0,-1,671,1569,0,0
-546,-545,0,0,0,0,0,0,0,0,0,-1,678,1569,0,0
-539,-545,0,0,0,0,0,0,0,0,0,-1,685,1569,0,0
-532,-545,0,0,0,0,0,0,0,0,0,-1,692,1569,0,0
-525,-545,0,0,0,0,0,0,0,0,0,-1,699,1569,0,0
-518,-545,0,0,0,0,0,0,0,0,0,-1,706,1569,0,0
-511,-545,0,0,0,0,0,0,0,0,0,-1,713,1569,0,0
-504,-545,-3.55237,-2.5354,0,0,0,0,0,0,0,-1,720,1569,-3.55236,2.53545
-497,-545,2.26575,5.69214,0,0,0,0,0,0,0,-1,727,1569,2.26573,-5.6922
-490,-545,-2.17334,7.81396,0,0,0,0,0,0,0,-1,734,1569,-2.17334,-7.81399
-483,-545,-1.40808,7.85449,0,0,0,0,0,0,0,-1,741,1569,-1.40805,-7.85451
-476,-545,-1.26788,8.11194,0,0,0,0,0,0,0,-1,748,1569,-1.26788,-8.11188
-469,-545,-0.432434,8.05676,0,0,0,0,0,0,0,-1,755,1569,-0.432404,-8.05677
-462,-545,-1.18024,9.22791,0,0,0,0,0,0,0,-1,762,1569,-1.18026,-9.2279
-455,-545,-0.626709,9.44031,0,0,0,0,0,0,0,-1,769,1569,-0.626706,-9.44032
-448,-545,-0.0731201,9.65271,0,0,0,0,0,0,0,-1,776,1569,-0.0731489,-9.65274
-441,-545,0.158142,10.0166,0.0032517,0.0093841,0.00698899,0.0139499,-0.0013141,0.992115,0.00976748,0.0199984,783,1569,0.158147,-10.0166
-434,-545,0.0596924,10.2795,0.00251494,0.00712739,0.00572265,0.010991,-0.00134872,0.976943,0.00781582,0.0161723,790,1569,0.0597165,-10.2795
-427,-545,0.0491943,10.5591,0.00210299,0.00536243,0.00451257,0.00853055,-0.00106513,0.958685,0.00607329,0.0170123,797,1569,0.0492178,-10.5591
-420,-545,0.069458,10.8207,0.00192673,0.00393834,0.00338825,0.00646691,-0.00060185,0.929681,0.00452525,0.0231254,804,1569,0.0694812,-10.8207
-413,-545,0.0541992,11.1255,0.0015526,0.00268832,0.00256378,0.00474638,-0.00050545,0.894385,0.00334549,0.0226355,811,1569,0.0541715,-11.1254
-406,-545,0.0561523,11.4194,0.00132402,0.00148197,0.00168915,0.00309399,-0.000287996,0.808757,0.00216505,0.0170119,818,1569,0.0561253,-11.4195
-399,-545,0.0697021,11.7118,0.00112865,0.00107533,0.000979745,0.00208209,0.00012188,0.771795,0.00134927,0.010967,825,1569,0.0696878,-11.7118
-392,-545,0.0533447,12.009,0.000891816,0.000718498,0.000560398,0.00137222,0.000238098,0.708686,0.000846678,0.0106786,832,1569,0.0533587,-12.009
-385,-545,0.0408325,12.2922,0.000704667,0.000282375,1.50967e-05,0.000705206,0.000281836,0.0356887,0.000409875,0.00961004,839,1569,0.0408489,-12.2922
-378,-545,0.0264282,12.5847,0.000449929,0.000249313,-0.000530917,0.000889931,-0.000190688,-0.692032,0.000666013,0.0115483,846,1569,0.0264379,-12.5847
-371,-545,0.00531006,12.8815,0.000206373,0.000332383,-0.000967391,0.00123882,-0.000700063,-0.817917,0.00113373,0.014271,853,1569,0.00532505,-12.8815
-364,-545,0.0237427,13.1385,-7.9884e-05,0.000405496,-0.0015906,0.00177182,-0.00144621,-0.861103,0.0018611,0.00921937,860,1569,0.0237565,-13.1385
-357,-545,0.0778809,13.448,-0.000233568,0.000627485,-0.00237186,0.00260758,-0.00221366,-0.875178,0.00278664,0.0116676,867,1569,0.0778693,-13.448
-350,-545,0.0840454,13.7257,-0.000534593,0.00114957,-0.0031212,0.00354029,-0.00292531,-0.917158,0.00373854,0.0167413,874,1569,0.0840213,-13.7258
-343,-545,0.076416,13.9932,-0.00129375,0.00202729,-0.00394494,0.00464695,-0.0039134,-0.984605,0.00494837,0.0254141,881,1569,0.0764109,-13.9932
-336,-545,0.0481567,14.157,-0.00235646,0.00289223,-0.00512916,0.00602944,-0.00549367,-1.02186,0.00665527,0.0352078,888,1569,0.0481841,-14.157
-329,-545,-0.0525513,14.229,-0.00329911,0.00421318,-0.00605259,0.00758041,-0.00666634,-1.06311,0.008231,0.0413111,895,1569,-0.0525261,-14.229
-322,-545,0.00640869,14.4451,0,0,0,0,0,0,0,-1,902,1569,0.00641974,-14.4451
-315,-545,1.07922,14.7061,0,0,0,0,0,0,0,-1,909,1569,1.07923,-14.7061
-308,-545,0.924927,15.2694,0,0,0,0,0,0,0,-1,916,1569,0.924913,-15.2695
-301,-545,0.770569,15.8328,0,0,0,0,0,0,0,-1,923,1569,0.770592,-15.8328
-294,-545,-2.69287,8.42102,0,0,0,0,0,0,0,-1,930,1569,-2.69287,-8.42097
-287,-545,-3.47784,9.96021,0,0,0,0,0,0,0,-1,937,1569,-3.47785,-9.96021
-280,-545,-4.26422,11.527,0,0,0,0,0,0,0,-1,944,1569,-4.26422,-11.527
-273,-545,-5.10333,12.864,0,0,0,0,0,0,0,-1,951,1569,-5.10331,-12.864
-266,-545,-5.78955,13.3704,0,0,0,0,0,0,0,-1,958,1569,-5.78952,-13.3703
-259,-545,-6.32184,13.8101,0,0,0,0,0,0,0,-1,965,1569,-6.32182,-13.81
-252,-545,0.369263,7.54053,0,0,0,0,0,0,0,-1,972,1569,0.369276,-7.54056
-245,-545,-0.236633,6.65564,0,0,0,0,0,0,0,-1,979,1569,-0.236605,-6.65566
-238,-545,0,0,0,0,0,0,0,0,0,-1,986,1569,0,0
-231,-545,0,0,0,0,0,0,0,0,0,-1,993,1569,0,0
-224,-545,0,0,0,0,0,0,0,0,0,-1,1000,1569,0,0
-217,-545,0,0,0,0,0,0,0,0,0,-1,1007,1569,0,0
-210,-545,0,0,0,0,0,0,0,0,0,-1,1014,1569,0,0
-203,-545,0,0,0,0,0,0,0,0,0,-1,1021,1569,0,0
-196,-545,0,0,0,0,0,0,0,0,0,-1,1028,1569,0,0
-189,-545,0,0,0,0,0,0,0,0,0,-1,1035,1569,0,0
-182,-545,0,0,0,0,0,0,0,0,0,-1,1042,1569,0,0
-175,-545,0,0,0,0,0,0,0,0,0,-1,1049,1569,0,0
-168,-545,0,0,0,0,0,0,0,0,0,-1,1056,1569,0,0
-161,-545,0,0,0,0,0,0,0,0,0,-1,1063,1569,0,0
-154,-545,0,0,0,0,0,0,0,0,0,-1,1070,1569,0,0
-147,-545,0,0,0,0,0,0,0,0,0,-1,1077,1569,0,0
-140,-545,0,0,0,0,0,0,0,0,0,-1,1084,1569,0,0
-133,-545,0,0,0,0,0,0,0,0,0,-1,1091,1569,0,0
-126,-545,0,0,0,0,0,0,0,0,0,-1,1098,1569,0,0
-119,-545,0,0,0,0,0,0,0,0,0,-1,1105,1569,0,0
-112,-545,0,0,0,0,0,0,0,0,0,-1,1112,1569,0,0
-105,-545,0,0,0,0,0,0,0,0,0,-1,1119,1569,0,0
-98,-545,0,0,0,0,0,0,0,0,0,-1,1126,1569,0,0
-91,-545,0,0,0,0,0,0,0,0,0,-1,1133,1569,0,0
-84,-545,0,0,0,0,0,0,0,0,0,-1,1140,1569,0,0
-77,-545,0,0,0,0,0,0,0,0,0,-1,1147,1569,0,0
-70,-545,0,0,0,0,0,0,0,0,0,-1,1154,1569,0,0
-63,-545,0,0,0,0,0,0,0,0,0,-1,1161,1569,0,0
-56,-545,0,0,0,0,0,0,0,0,0,-1,1168,1569,0,0
-49,-545,0,0,0,0,0,0,0,0,0,-1,1175,1569,0,0
-42,-545,0,0,0,0,0,0,0,0,0,-1,1182,1569,0,0
-35,-545,0,0,0,0,0,0,0,0,0,-1,1189,1569,0,0
-28,-545,0,0,0,0,0,0,0,0,0,-1,1196,1569,0,0
-21,-545,0,0,0,0,0,0,0,0,0,-1,1203,1569,0,0
-14,-545,0,0,0,0,0,0,0,0,0,-1,1210,1569,0,0
-7,-545,0,0,0,0,0,0,0,0,0,-1,1217,1569,0,0
0,-545,0,0,0,0,0,0,0,0,0,-1,1224,1569,0,0
7,-545,0,0,0,0,0,0,0,0,0,-1,1231,1569,0,0
14,-545,0,0,0,0,0,0,0,0,0,-1,1238,1569,0,0
21,-545,0,0,0,0,0,0,0,0,0,-1,1245,1569,0,0
28,-545,0,0,0,0,0,0,0,0,0,-1,1252,1569,0,0
35,-545,0,0,0,0,0,0,0,0,0,-1,1259,1569,0,0
42,-545,0,0,0,0,0,0,0,0,0,-1,1266,1569,0,0
49,-545,0,0,0,0,0,0,0,0,0,-1,1273,1569,0,0
56,-545,0,0,0,0,0,0,0,0,0,-1,1280,1569,0,0
63,-545,0,0,0,0,0,0,0,0,0,-1,1287,1569,0,0
70,-545,0,0,0,0,0,0,0,0,0,-1,1294,1569,0,0
77,-545,0,0,0,0,0,0,0,0,0,-1,1301,1569,0,0
84,-545,0,0,0,0,0,0,0,0,0,-1,1308,1569,0,0
91,-545,0,0,0,0,0,0,0,0,0,-1,1315,1569,0,0
98,-545,0,0,0,0,0,0,0,0,0,-1,1322,1569,0,0
105,-545,0,0,0,0,0,0,0,0,0,-1,1329,1569,0,0
112,-545,0,0,0,0,0,0,0,0,0,-1,1336,1569,0,0
119,-545,0,0,0,0,0,0,0,0,0,-1,1343,1569,0,0
126,-545,0,0,0,0,0,0,0,0,0,-1,1350,1569,0,0
133,-545,0,0,0,0,0,0,0,0,0,-1,1357,1569,0,0
140,-545,0,0,0,0,0,0,0,0,0,-1,1364,1569,0,0
147,-545,0,0,0,0,0,0,0,0,0,-1,1371,1569,0,0
154,-545,0,0,0,0,0,0,0,0,0,-1,1378,1569,0,0
161,-545,0,0,0,0,0,0,0,0,0,-1,1385,1569,0,0
168,-545,0,0,0,0,0,0,0,0,0,-1,1392,1569,0,0
175,-545,0,0,0,0,0,0,0,0,0,-1,1399,1569,0,0
182,-545,0,0,0,0,0,0,0,0,0,-1,1406,1569,0,0
189,-545,0,0,0,0,0,0,0,0,0,-1,1413,1569,0,0
196,-545,0,0,0,0,0,0,0,0,0,-1,1420,1569,0,0
203,-545,0,0,0,0,0,0,0,0,0,-1,1427,1569,0,0
210,-545,0,0,0,0,0,0,0,0,0,-1,1434,1569,0,0
217,-545,0,0,0,0,0,0,0,0,0,-1,1441,1569,0,0
224,-545,0,0,0,0,0,0,0,0,0,-1,1448,1569,0,0
231,-545,0,0,0,0,0,0,0,0,0,-1,1455,1569,0,0
238,-545,0,0,0,0,0,0,0,0,0,-1,1462,1569,0,0
245,-545,0,0,0,0,0,0,0,0,0,-1,1469,1569,0,0
252,-545,0,0,0,0,0,0,0,0,0,-1,1476,1569,0,0
259,-545,0,0,0,0,0,0,0,0,0,-1,1483,1569,0,0
266,-545,0,0,0,0,0,0,0,0,0,-1,1490,1569,0,0
273,-545,0,0,0,0,0,0,0,0,0,-1,1497,1569,0,0
280,-545,0,0,0,0,0,0,0,0,0,-1,1504,1569,0,0
287,-545,0,0,0,0,0,0,0,0,0,-1,1511,1569,0,0
294,-545,0,0,0,0,0,0,0,0,0,-1,1518,1569,0,0
301,-545,0,0,0,0,0,0,0,0,0,-1,1525,1569,0,0
308,-545,0,0,0,0,0,0,0,0,0,-1,1532,1569,0,0
315,-545,0,0,0,0,0,0,0,0,0,-1,1539,1569,0,0
322,-545,0,0,0,0,0,0,0,0,0,-1,1546,1569,0,0
329,-545,0,0,0,0,0,0,0,0,0,-1,1553,1569,0,0
336,-545,0,0,0,0,0,0,0,0,0,-1,1560,1569,0,0
343,-545,0,0,0,0,0,0,0,0,0,-1,1567,1569,0,0
350,-545,0,0,0,0,0,0,0,0,0,-1,1574,1569,0,0
357,-545,0,0,0,0,0,0,0,0,0,-1,1581,1569,0,0
364,-545,7.19495,4.88098,0,0,0,0,0,0,0,-1,1588,1569,7.19497,-4.88095
371,-545,7.82324,3.84302,0,0,0,0,0,0,0,-1,1595,1569,7.82324,-3.84307
378,-545,7.65674,5.52673,0,0,0,0,0,0,0,-1,1602,1569,7.6567,-5.52667
385,-545,8.58447,1.16125,0,0,0,0,0,0,0,-1,1609,1569,8.5845,-1.1612
392,-545,12.5654,3.89526,0,0,0,0,0,0,0,-1,1616,1569,12.5655,-3.89532
399,-545,11.5869,5.6333,0,0,0,0,0,0,0,-1,1623,1569,11.5869,-5.63326
406,-545,11.234,6.36414,0,0,0,0,0,0,0,-1,1630,1569,11.234,-6.3641
413,-545,12.1521,13.4817,0,0,0,0,0,0,0,-1,1637,1569,12.1521,-13.4817
420,-545,11.1954,13.6047,0,0,0,0,0,0,0,-1,1644,1569,11.1954,-13.6047
427,-545,9.61072,14.9135,0,0,0,0,0,0,0,-1,1651,1569,9.61076,-14.9134
434,-545,9.94995,14.6656,0,0,0,0,0,0,0,-1,1658,1569,9.94994,-14.6657
441,-545,9.61902,15.0933,0,0,0,0,0,0,0,-1,1665,1569,9.619,-15.0932
448,-545,9.34253,14.7194,0,0,0,0,0,0,0,-1,1672,1569,9.34256,-14.7194
455,-545,10.2018,14.7418,0,0,0,0,0,0,0,-1,1679,1569,10.2017,-14.7418
462,-545,11.5568,14.7404,0,0,0,0,0,0,0,-1,1686,1569,11.5568,-14.7404
469,-545,11.2277,14.6913,-0.00383762,-0.0331441,0.023759,0.00942341,-0.0464052,0.509077,0.0345095,0.0456353,1693,1569,11.2277,-14.6913
476,-545,10.5322,14.9396,-0.00515839,-0.0275733,0.0207043,0.00717719,-0.0399089,0.537324,0.0292929,0.0444803,1700,1569,10.5322,-14.9395
483,-545,10.4075,14.8171,-0.00553136,-0.0223076,0.017638,0.0056115,-0.0334504,0.563441,0.0243869,0.0178534,1707,1569,10.4074,-14.8172
490,-545,10.3567,14.594,-0.00537953,-0.0177545,0.0147659,0.00444287,-0.0275769,0.586992,0.0200305,0.0113833,1714,1569,10.3567,-14.594
497,-545,10.3508,14.3474,-0.0048565,-0.0137969,0.0120115,0.00348965,-0.0221431,0.607258,0.0160522,0.0170437,1721,1569,10.3508,-14.3474
504,-545,10.3855,14.0801,-0.0045826,-0.0101304,0.00968233,0.00271534,-0.0174284,0.645889,0.0126218,0.0159007,1728,1569,10.3855,-14.08
511,-545,10.3738,13.8074,-0.00406664,-0.00710846,0.007278,0.00184767,-0.0130228,0.682393,0.00935873,0.0114016,1735,1569,10.3738,-13.8074
518,-545,10.3749,13.5546,-0.00310906,-0.00474448,0.00515719,0.00129485,-0.00914839,0.706774,0.00657319,0.0128573,1742,1569,10.3749,-13.5546
525,-545,10.3632,13.2919,-0.00201432,-0.0027055,0.00330438,0.000962492,-0.00568231,0.733295,0.00414644,0.0125837,1749,1569,10.3632,-13.2918
532,-545,10.3723,13.0356,-0.00129935,-0.00117226,0.00192392,0.000689172,-0.00316077,0.801907,0.00237054,0.0129012,1756,1569,10.3723,-13.0357
539,-545,10.3594,12.7827,-0.000737127,0.000154779,0.000777773,0.000605378,-0.00118773,1.0457,0.00105329,0.0161612,1763,1569,10.3594,-12.7827
546,-545,10.3224,12.542,-0.000264867,0.00103851,-5.39332e-05,0.00104074,-0.000267095,-1.52951,0.000797899,0.0188002,1770,1569,10.3224,-12.5419
553,-545,10.3813,12.2617,0.000316612,0.00159872,-0.000683327,0.00189462,2.07103e-05,-1.16214,0.00125623,0.0263567,1777,1569,10.3814,-12.2617
560,-545,10.4001,11.9199,0.00125049,0.00221909,-0.00125577,0.00308072,0.000388866,-0.969439,0.00193724,0.026657,1784,1569,10.4001,-11.9199
567,-545,10.2754,11.757,0.0021052,0.00268788,-0.00172178,0.0041428,0.000650286,-0.869208,0.00257265,0.0459376,1791,1569,10.2754,-11.757
574,-545,10.2506,11.4952,0.00335238,0.00326162,-0.00244112,0.00574854,0.000865462,-0.776104,0.00357892,0.038547,1798,1569,10.2506,-11.4952
581,-545,10.4799,11.0552,0,0,0,0,0,0,0,-1,1805,1569,10.4798,-11.0552
588,-545,10.5088,10.7794,0,0,0,0,0,0,0,-1,1812,1569,10.5088,-10.7794
595,-545,10.2859,9.11218,0,0,0,0,0,0,0,-1,1819,1569,10.2858,-9.11215
602,-545,8.82117,6.32214,0,0,0,0,0,0,0,-1,1826,1569,8.82121,-6.32217
609,-545,10.2406,5.22351,0,0,0,0,0,0,0,-1,1833,1569,10.2406,-5.22353
616,-545,11.701,3.93188,0,0,0,0,0,0,0,-1,1840,1569,11.701,-3.93191
623,-545,13.2139,2.32043,0,0,0,0,0,0,0,-1,1847,1569,13.2139,-2.32042
630,-545,0,0,0,0,0,0,0,0,0,-1,1854,1569,0,0
637,-545,0,0,0,0,0,0,0,0,0,-1,1861,1569,0,0
644,-545,0,0,0,0,0,0,0,0,0,-1,1868,1569,0,0
651,-545,0,0,0,0,0,0,0,0,0,-1,1875,1569,0,0
658,-545,0,0,0,0,0,0,0,0,0,-1,1882,1569,0,0
665,-545,0,0,0,0,0,0,0,0,0,-1,1889,1569,0,0
672,-545,0,0,0,0,0,0,0,0,0,-1,1896,1569,0,0
679,-545,0,0,0,0,0,0,0,0,0,-1,1903,1569,0,0
686,-545,0,0,0,0,0,0,0,0,0,-1,1910,1569,0,0
693,-545,0,0,0,0,0,0,0,0,0,-1,1917,1569,0,0
700,-545,0,0,0,0,0,0,0,0,0,-1,1924,1569,0,0
707,-545,0,0,0,0,0,0,0,0,0,-1,1931,1569,0,0
714,-545,0,0,0,0,0,0,0,0,0,-1,1938,1569,0,0
721,-545,0,0,0,0,0,0,0,0,0,-1,1945,1569,0,0
728,-545,0,0,0,0,0,0,0,0,0,-1,1952,1569,0,0
735,-545,0,0,0,0,0,0,0,0,0,-1,1959,1569,0,0
742,-545,0,0,0,0,0,0,0,0,0,-1,1966,1569,0,0
749,-545,0,0,0,0,0,0,0,0,0,-1,1973,1569,0,0
756,-545,0,0,0,0,0,0,0,0,0,-1,1980,1569,0,0
763,-545,0,0,0,0,0,0,0,0,0,-1,1987,1569,0,0
770,-545,0,0,0,0,0,0,0,0,0,-1,1994,1569,0,0
777,-545,0,0,0,0,0,0,0,0,0,-1,2001,1569,0,0
784,-545,0,0,0,0,0,0,0,0,0,-1,2008,1569,0,0
791,-545,0,0,0,0,0,0,0,0,0,-1,2015,1569,0,0
798,-545,0,0,0,0,0,0,0,0,0,-1,2022,1569,0,0
805,-545,0,0,0,0,0,0,0,0,0,-1,2029,1569,0,0
812,-545,0,0,0,0,0,0,0,0,0,-1,2036,1569,0,0
-700,-552,0,0,0,0,0,0,0,0,0,-1,524,1576,0,0
-693,-552,0,0,0,0,0,0,0,0,0,-1,531,1576,0,0
-686,-552,0,0,0,0,0,0,0,0,0,-1,538,1576,0,0
-679,-552,0,0,0,0,0,0,0,0,0,-1,545,1576,0,0
-672,-552,0,0,0,0,0,0,0,0,0,-1,552,1576,0,0
-665,-552,0,0,0,0,0,0,0,0,0,-1,559,1576,0,0
-658,-552,0,0,0,0,0,0,0,0,0,-1,566,1576,0,0
-651,-552,0,0,0,0,0,0,0,0,0,-1,573,1576,0,0
-644,-552,0,0,0,0,0,0,0,0,0,-1,580,1576,0,0
-637,-552,0,0,0,0,0,0,0,0,0,-1,587,1576,0,0
-630,-552,0,0,0,0,0,0,0,0,0,-1,594,1576,0,0
-623,-552,0,0,0,0,0,0,0,0,0,-1,601,1576,0,0
-616,-552,0,0,0,0,0,0,0,0,0,-1,608,1576,0,0
-609,-552,0,0,0,0,0,0,0,0,0,-1,615,1576,0,0
-602,-552,0,0,0,0,0,0,0,0,0,-1,622,1576,0,0
-595,-552,0,0,0,0,0,0,0,0,0,-1,629,1576,0,0
-588,-552,0,0,0,0,0,0,0,0,0,-1,636,1576,0,0
-581,-552,0,0,0,0,0,0,0,0,0,-1,643,1576,0,0
-574,-552,0,0,0,0,0,0,0,0,0,-1,650,1576,0,0
-567,-552,0,0,0,0,0,0,0,0,0,-1,657,1576,0,0
-560,-552,0,0,0,0,0,0,0,0,0,-1,664,1576,0,0
-553,-552,0,0,0,0,0,0,0,0,0,-1,671,1576,0,0
-546,-552,0,0,0,0,0,0,0,0,0,-1,678,1576,0,0
-539,-552,0,0,0,0,0,0,0,0,0,-1,685,1576,0,0
-532,-552,0,0,0,0,0,0,0,0,0,-1,692,1576,0,0
-525,-552,0,0,0,0,0,0,0,0,0,-1,699,1576,0,0
-518,-552,0,0,0,0,0,0,0,0,0,-1,706,1576,0,0
-511,-552,0,0,0,0,0,0,0,0,0,-1,713,1576,0,0
-504,-552,0,0,0,0,0,0,0,0,0,-1,720,1576,0,0
-497,-552,1.51282,3.96924,0,0,0,0,0,0,0,-1,727,1576,1.5128,-3.96924
-490,-552,-3.82312,6.32104,0,0,0,0,0,0,0,-1,734,1576,-3.82314,-6.3211
-483,-552,-3.50586,6.47986,0,0,0,0,0,0,0,-1,741,1576,-3.50587,-6.47983
-476,-552,-2.87323,5.8656,0,0,0,0,0,0,0,-1,748,1576,-2.87322,-5.86563
-469,-552,0.0834351,6.15466,0,0,0,0,0,0,0,-1,755,1576,0.0834338,-6.15472
-462,-552,0.274597,7.65405,0,0,0,0,0,0,0,-1,762,1576,0.274609,-7.65404
-455,-552,-0.586243,9.29028,0,0,0,0,0,0,0,-1,769,1576,-0.586232,-9.29029
-448,-552,0.423767,8.90759,0,0,0,0,0,0,0,-1,776,1576,0.423738,-8.90754
-441,-552,0.503052,9.62744,0.00466353,0.0120216,0.00950348,0.0185334,-0.00184817,0.970078,0.0130154,0.0359587,783,1576,0.503043,-9.62748
-434,-552,0.43158,10.2858,0.00373075,0.00886243,0.00755144,0.014272,-0.00167885,0.94917,0.0101208,0.0226915,790,1576,0.431593,-10.2857
-427,-552,0.327271,10.5217,0.00300278,0.00653257,0.0058086,0.0108385,-0.00130313,0.932887,0.00769689,0.0187497,797,1576,0.327299,-10.5217
-420,-552,0.368958,10.8488,0.00256077,0.00471458,0.00431334,0.00808341,-0.000808068,0.907731,0.0056775,0.0198295,804,1576,0.368944,-10.8488
-413,-552,0.36499,11.1256,0.00196699,0.00317544,0.00321925,0.00584668,-0.000704244,0.878165,0.00415249,0.0166301,811,1576,0.36498,-11.1256
-406,-552,0.32843,11.4172,0.00161497,0.00179486,0.00215363,0.00386042,-0.000450588,0.806268,0.00273621,0.0128483,818,1576,0.328458,-11.4173
-399,-552,0.338867,11.7305,0.00129336,0.00129339,0.00128914,0.00258252,4.2388e-06,0.785404,0.00172027,0.0127179,825,1576,0.33888,-11.7305
-392,-552,0.32373,12.014,0.000953689,0.000883467,0.000789171,0.00170853,0.000128626,0.763168,0.00109866,0.0140134,832,1576,0.323704,-12.014
-385,-552,0.314209,12.2913,0.00072836,0.000347489,0.000174446,0.000796182,0.000279666,0.370802,0.000466407,0.0132111,839,1576,0.314199,-12.2912
-378,-552,0.304932,12.5718,0.000499748,0.000314001,-0.000327059,0.000746865,6.68846e-05,-0.647057,0.00047718,0.0146818,846,1576,0.30492,-12.5717
-371,-552,0.291382,12.8522,0.000291736,0.000402183,-0.000705477,0.00105459,-0.000360676,-0.824458,0.000849215,0.0183507,853,1576,0.291397,-12.8521
-364,-552,0.320129,13.1226,3.75841e-05,0.000502028,-0.00120798,0.0014999,-0.000960291,-0.88036,0.00143174,0.0140883,860,1576,0.320146,-13.1226
-357,-552,0.341492,13.4052,4.24711e-05,0.000696833,-0.00175188,0.00215182,-0.00141252,-0.877715,0.00207257,0.00955025,867,1576,0.341485,-13.4052
-350,-552,0.338623,13.6993,6.52095e-06,0.00113356,-0.00225138,0.00289087,-0.00175079,-0.908029,0.00270667,0.00978502,874,1576,0.338595,-13.6993
-343,-552,0.320313,13.9696,-0.000439129,0.0018691,-0.00277692,0.00372219,-0.00229222,-0.982343,0.00350498,0.0106344,881,1576,0.320321,-13.9697
-336,-552,0.377075,14.2064,-0.00107299,0.00253657,-0.00354019,0.00470547,-0.00324189,-1.02113,0.00461427,0.0166349,888,1576,0.37705,-14.2064
-329,-552,0.428223,14.493,-0.00164665,0.00346202,-0.00416432,0.00579299,-0.00397762,-1.0605,0.00567343,0.0331929,895,1576,0.428242,-14.493
-322,-552,0.602783,14.9381,0,0,0,0,0,0,0,-1,902,1576,0.602768,-14.9381
-315,-552,0.793701,14.4288,0,0,0,0,0,0,0,-1,909,1576,0.793682,-14.4288
-308,-552,1.57361,15.7783,0,0,0,0,0,0,0,-1,916,1576,1.57358,-15.7783
-301,-552,0.128052,14.8217,0,0,0,0,0,0,0,-1,923,1576,0.128057,-14.8217
-294,-552,0.842163,13.7863,0,0,0,0,0,0,0,-1,930,1576,0.842149,-13.7863
-287,-552,-0.663757,13.3474,0,0,0,0,0,0,0,-1,937,1576,-0.663744,-13.3474
-280,-552,-5.47241,8.96765,0,0,0,0,0,0,0,-1,944,1576,-5.47239,-8.96766
-273,-552,1.64587,10.6685,0,0,0,0,0,0,0,-1,951,1576,1.6459,-10.6685
-266,-552,-1.32678,8.05688,0,0,0,0,0,0,0,-1,958,1576,-1.32677,-8.05683
-259,-552,-5.54321,8.31213,0,0,0,0,0,0,0,-1,965,1576,-5.54324,-8.31214
-252,-552,-1.93445,7.81543,0,0,0,0,0,0,0,-1,972,1576,-1.93445,-7.81546
-245,-552,-2.53613,6.92212,0,0,0,0,0,0,0,-1,979,1576,-2.53614,-6.92216
-238,-552,-6.5365,2.81885,0,0,0,0,0,0,0,-1,986,1576,-6.53649,-2.8188
-231,-552,-4.32239,4.34583,0,0,0,0,0,0,0,-1,993,1576,-4.32239,-4.34587
-224,-552,0,0,0,0,0,0,0,0,0,-1,1000,1576,0,0
-217,-552,0,0,0,0,0,0,0,0,0,-1,1007,1576,0,0
-210,-552,0,0,0,0,0,0,0,0,0,-1,1014,1576,0,0
-203,-552,0,0,0,0,0,0,0,0,0,-1,1021,1576,0,0
-196,-552,0,0,0,0,0,0,0,0,0,-1,1028,1576,0,0
-189,-552,0,0,0,0,0,0,0,0,0,-1,1035,1576,0,0
-182,-552,0,0,0,0,0,0,0,0,0,-1,1042,1576,0,0
-175,-552,0,0,0,0,0,0,0,0,0,-1,1049,1576,0,0
-168,-552,0,0,0,0,0,0,0,0,0,-1,1056,1576,0,0
-161,-552,0,0,0,0,0,0,0,0,0,-1,1063,1576,0,0
-154,-552,0,0,0,0,0,0,0,0,0,-1,1070,1576,0,0
-147,-552,0,0,0,0,0,0,0,0,0,-1,1077,1576,0,0
-140,-552,0,0,0,0,0,0,0,0,0,-1,1084,1576,0,0
-133,-552,0,0,0,0,0,0,0,0,0,-1,1091,1576,0,0
-126,-552,0,0,0,0,0,0,0,0,0,-1,1098,1576,0,0
-119,-552,0,0,0,0,0,0,0,0,0,-1,1105,1576,0,0
-112,-552,0,0,0,0,0,0,0,0,0,-1,1112,1576,0,0
-105,-552,0,0,0,0,0,0,0,0,0,-1,1119,1576,0,0
-98,-552,0,0,0,0,0,0,0,0,0,-1,1126,1576,0,0
-91,-552,0,0,0,0,0,0,0,0,0,-1,1133,1576,0,0
-84,-552,0,0,0,0,0,0,0,0,0,-1,1140,1576,0,0
-77,-552,0,0,0,0,0,0,0,0,0,-1,1147,1576,0,0
-70,-552,0,0,0,0,0,0,0,0,0,-1,1154,1576,0,0
-63,-552,0,0,0,0,0,0,0,0,0,-1,1161,1576,0,0
-56,-552,0,0,0,0,0,0,0,0,0,-1,1168,1576,0,0
-49,-552,0,0,0,0,0,0,0,0,0,-1,1175,1576,0,0
-42,-552,0,0,0,0,0,0,0,0,0,-1,1182,1576,0,0
-35,-552,0,0,0,0,0,0,0,0,0,-1,1189,1576,0,0
-28,-552,0,0,0,0,0,0,0,0,0,-1,1196,1576,0,0
-21,-552,0,0,0,0,0,0,0,0,0,-1,1203,1576,0,0
-14,-552,0,0,0,0,0,0,0,0,0,-1,1210,1576,0,0
-7,-552,0,0,0,0,0,0,0,0,0,-1,1217,1576,0,0
0,-552,0,0,0,0,0,0,0,0,0,-1,1224,1576,0,0
7,-552,0,0,0,0,0,0,0,0,0,-1,1231,1576,0,0
14,-552,0,0,0,0,0,0,0,0,0,-1,1238,1576,0,0
21,-552,0,0,0,0,0,0,0,0,0,-1,1245,1576,0,0
28,-552,0,0,0,0,0,0,0,0,0,-1,1252,1576,0,0
35,-552,0,0,0,0,0,0,0,0,0,-1,1259,1576,0,0
42,-552,0,0,0,0,0,0,0,0,0,-1,1266,1576,0,0
49,-552,0,0,0,0,0,0,0,0,0,-1,1273,1576,0,0
56,-552,0,0,0,0,0,0,0,0,0,-1,1280,1576,0,0
63,-552,0,0,0,0,0,0,0,0,0,-1,1287,1576,0,0
70,-552,0,0,0,0,0,0,0,0,0,-1,1294,1576,0,0
77,-552,0,0,0,0,0,0,0,0,0,-1,1301,1576,0,0
84,-552,0,0,0,0,0,0,0,0,0,-1,1308,1576,0,0
91,-552,0,0,0,0,0,0,0,0,0,-1,1315,1576,0,0
98,-552,0,0,0,0,0,0,0,0,0,-1,1322,1576,0,0
105,-552,0,0,0,0,0,0,0,0,0,-1,1329,1576,0,0
112,-552,0,0,0,0,0,0,0,0,0,-1,1336,1576,0,0
119,-552,0,0,0,0,0,0,0,0,0,-1,1343,1576,0,0
126,-552,0,0,0,0,0,0,0,0,0,-1,1350,1576,0,0
133,-552,0,0,0,0,0,0,0,0,0,-1,1357,1576,0,0
140,-552,0,0,0,0,0,0,0,0,0,-1,1364,1576,0,0
147,-552,0,0,0,0,0,0,0,0,0,-1,1371,1576,0,0
154,-552,0,0,0,0,0,0,0,0,0,-1,1378,1576,0,0
161,-552,0,0,0,0,0,0,0,0,0,-1,1385,1576,0,0
168,-552,0,0,0,0,0,0,0,0,0,-1,1392,1576,0,0
175,-552,0,0,0,0,0,0,0,0,0,-1,1399,1576,0,0
182,-552,0,0,0,0,0,0,0,0,0,-1,1406,1576,0,0
189,-552,0,0,0,0,0,0,0,0,0,-1,1413,1576,0,0
196,-552,0,0,0,0,0,0,0,0,0,-1,1420,1576,0,0
203,-552,0,0,0,0,0,0,0,0,0,-1,1427,1576,0,0
210,-552,0,0,0,0,0,0,0,0,0,-1,1434,1576,0,0
217,-552,0,0,0,0,0,0,0,0,0,-1,1441,1576,0,0
224,-552,0,0,0,0,0,0,0,0,0,-1,1448,1576,0,0
231,-552,0,0,0,0,0,0,0,0,0,-1,1455,1576,0,0
238,-552,0,0,0,0,0,0,0,0,0,-1,1462,1576,0,0
245,-552,0,0,0,0,0,0,0,0,0,-1,1469,1576,0,0
252,-552,0,0,0,0,0,0,0,0,0,-1,1476,1576,0,0
259,-552,0,0,0,0,0,0,0,0,0,-1,1483,1576,0,0
266,-552,0,0,0,0,0,0,0,0,0,-1,1490,1576,0,0
273,-552,0,0,0,0,0,0,0,0,0,-1,1497,1576,0,0
280,-552,0,0,0,0,0,0,0,0,0,-1,1504,1576,0,0
287,-552,0,0,0,0,0,0,0,0,0,-1,1511,1576,0,0
294,-552,0,0,0,0,0,0,0,0,0,-1,1518,1576,0,0
301,-552,0,0,0,0,0,0,0,0,0,-1,1525,1576,0,0
308,-552,0,0,0,0,0,0,0,0,0,-1,1532,1576,0,0
315,-552,0,0,0,0,0,0,0,0,0,-1,1539,1576,0,0
322,-552,0,0,0,0,0,0,0,0,0,-1,1546,1576,0,0
329,-552,0,0,0,0,0,0,0,0,0,-1,1553,1576,0,0
336,-552,0,0,0,0,0,0,0,0,0,-1,1560,1576,0,0
343,-552,0,0,0,0,0,0,0,0,0,-1,1567,1576,0,0
350,-552,4.97876,4.09888,0,0,0,0,0,0,0,-1,1574,1576,4.97875,-4.09883
357,-552,5.18469,4.10706,0,0,0,0,0,0,0,-1,1581,1576,5.1847,-4.10702
364,-552,5.80872,5.07031,0,0,0,0,0,0,0,-1,1588,1576,5.80874,-5.07037
371,-552,7.10657,5.64783,0,0,0,0,0,0,0,-1,1595,1576,7.10651,-5.64786
378,-552,6.44446,4.91492,0,0,0,0,0,0,0,-1,1602,1576,6.44448,-4.91496
385,-552,12.8276,3.16504,0,0,0,0,0,0,0,-1,1609,1576,12.8276,-3.16503
392,-552,12.1301,4.3363,0,0,0,0,0,0,0,-1,1616,1576,12.1302,-4.33631
399,-552,11.3486,5.6012,0,0,0,0,0,0,0,-1,1623,1576,11.3486,-5.60115
406,-552,10.7863,6.42542,0,0,0,0,0,0,0,-1,1630,1576,10.7863,-6.42536
413,-552,8.39307,10.365,0,0,0,0,0,0,0,-1,1637,1576,8.3931,-10.365
420,-552,10.2306,12.7225,0,0,0,0,0,0,0,-1,1644,1576,10.2305,-12.7226
427,-552,9.73267,14.783,0,0,0,0,0,0,0,-1,1651,1576,9.73269,-14.783
434,-552,9.22498,15.3534,0,0,0,0,0,0,0,-1,1658,1576,9.22499,-15.3534
441,-552,9.45313,14.8438,0,0,0,0,0,0,0,-1,1665,1576,9.45307,-14.8438
448,-552,9.44971,14.9473,0.00543086,-0.0401312,0.0239592,0.0157107,-0.050411,0.4053,0.0398892,0.0450264,1672,1576,9.44968,-14.9473
455,-552,9.98828,15.0214,0.00219706,-0.0346965,0.0220552,0.012503,-0.0450024,0.437128,0.0349234,0.0444152,1679,1576,9.98822,-15.0214
462,-552,10.5692,15.2401,0,0,0,0,0,0,0,-1,1686,1576,10.5692,-15.2401
469,-552,10.3507,15.259,-0.00243125,-0.0246557,0.017574,0.00724898,-0.0343359,0.503478,0.0256507,0.0404061,1693,1576,10.3507,-15.259
476,-552,10.1051,15.094,-0.00339428,-0.020491,0.0152508,0.00554052,-0.0294258,0.529957,0.0217011,0.021161,1700,1576,10.1051,-15.0939
483,-552,10.1305,14.8127,-0.00371572,-0.0165759,0.0129632,0.00432453,-0.0246161,0.555166,0.018026,0.0153931,1707,1576,10.1305,-14.8128
490,-552,10.1254,14.5815,-0.00362263,-0.0130903,0.010781,0.00341801,-0.020131,0.578525,0.0146931,0.0134548,1714,1576,10.1254,-14.5815
497,-552,10.1381,14.3202,-0.003237,-0.0100378,0.00865074,0.00265765,-0.0159325,0.598136,0.0116094,0.0227391,1721,1576,10.1381,-14.3201
504,-552,10.1328,14.0635,-0.00311026,-0.00710456,0.00688102,0.00205758,-0.0122724,0.644159,0.00894668,0.0240413,1728,1576,10.1329,-14.0634
511,-552,10.1271,13.8141,-0.00277874,-0.00466824,0.00497974,0.00134508,-0.00879205,0.691653,0.00635734,0.0170546,1735,1576,10.127,-13.8141
518,-552,10.1261,13.5509,-0.00207957,-0.00279974,0.00331594,0.000895778,-0.00577509,0.731314,0.00418076,0.0148129,1742,1576,10.1261,-13.5509
525,-552,10.1201,13.2946,-0.0012966,-0.00120227,0.00189081,0.000641964,-0.00314084,0.797868,0.00233745,0.0130743,1749,1576,10.1202,-13.2945
532,-552,10.1198,13.0355,-0.000850095,4.67247e-06,0.000848965,0.000527761,-0.00137318,1.01859,0.00113311,0.0132792,1756,1576,10.1198,-13.0355
539,-552,10.0884,12.7778,-0.000525941,0.000905696,4.8048e-05,0.000907307,-0.000527551,1.53728,0.000838031,0.0163907,1763,1576,10.0883,-12.7778
546,-552,10.0812,12.5529,-0.000303129,0.00154181,-0.000469525,0.00165443,-0.000415746,-1.33539,0.00126452,0.0209956,1770,1576,10.0812,-12.5528
553,-552,10.1488,12.2769,7.6043e-05,0.00179332,-0.000805598,0.00211207,-0.00024271,-1.19403,0.00149553,0.0251794,1777,1576,10.1488,-12.2768
560,-552,10.2168,11.9166,0,0,0,0,0,0,0,-1,1784,1576,10.2168,-11.9166
567,-552,10.2489,11.5443,0,0,0,0,0,0,0,-1,1791,1576,10.2489,-11.5443
574,-552,10.2654,11.4266,0,0,0,0,0,0,0,-1,1798,1576,10.2654,-11.4267
581,-552,9.74841,9.98645,0,0,0,0,0,0,0,-1,1805,1576,9.74847,-9.9864
588,-552,10.5619,9.34924,0,0,0,0,0,0,0,-1,1812,1576,10.5619,-9.34921
595,-552,5.36194,6.62744,0,0,0,0,0,0,0,-1,1819,1576,5.36193,-6.62742
602,-552,10.6863,4.31616,0,0,0,0,0,0,0,-1,1826,1576,10.6862,-4.31619
609,-552,12.146,3.18286,0,0,0,0,0,0,0,-1,1833,1576,12.1459,-3.18281
616,-552,13.8762,2.08167,0,0,0,0,0,0,0,-1,1840,1576,13.8763,-2.08167
623,-552,0,0,0,0,0,0,0,0,0,-1,1847,1576,0,0
630,-552,0,0,0,0,0,0,0,0,0,-1,1854,1576,0,0
637,-552,0,0,0,0,0,0,0,0,0,-1,1861,1576,0,0
644,-552,0,0,0,0,0,0,0,0,0,-1,1868,1576,0,0
651,-552,0,0,0,0,0,0,0,0,0,-1,1875,1576,0,0
658,-552,0,0,0,0,0,0,0,0,0,-1,1882,1576,0,0
665,-552,0,0,0,0,0,0,0,0,0,-1,1889,1576,0,0
672,-552,0,0,0,0,0,0,0,0,0,-1,1896,1576,0,0
679,-552,0,0,0,0,0,0,0,0,0,-1,1903,1576,0,0
686,-552,0,0,0,0,0,0,0,0,0,-1,1910,1576,0,0
693,-552,0,0,0,0,0,0,0,0,0,-1,1917,1576,0,0
700,-552,0,0,0,0,0,0,0,0,0,-1,1924,1576,0,0
707,-552,0,0,0,0,0,0,0,0,0,-1,1931,1576,0,0
714,-552,0,0,0,0,0,0,0,0,0,-1,1938,1576,0,0
721,-552,0,0,0,0,0,0,0,0,0,-1,1945,1576,0,0
728,-552,0,0,0,0,0,0,0,0,0,-1,1952,1576,0,0
735,-552,0,0,0,0,0,0,0,0,0,-1,1959,1576,0,0
742,-552,0,0,0,0,0,0,0,0,0,-1,1966,1576,0,0
749,-552,0,0,0,0,0,0,0,0,0,-1,1973,1576,0,0
756,-552,0,0,0,0,0,0,0,0,0,-1,1980,1576,0,0
763,-552,0,0,0,0,0,0,0,0,0,-1,1987,1576,0,0
770,-552,0,0,0,0,0,0,0,0,0,-1,1994,1576,0,0
777,-552,0,0,0,0,0,0,0,0,0,-1,2001,1576,0,0
784,-552,0,0,0,0,0,0,0,0,0,-1,2008,1576,0,0
791,-552,0,0,0,0,0,0,0,0,0,-1,2015,1576,0,0
798,-552,0,0,0,0,0,0,0,0,0,-1,2022,1576,0,0
805,-552,0,0,0,0,0,0,0,0,0,-1,2029,1576,0,0
812,-552,0,0,0,0,0,0,0,0,0,-1,2036,1576,0,0
-700,-559,0,0,0,0,0,0,0,0,0,-1,524,1583,0,0
-693,-559,0,0,0,0,0,0,0,0,0,-1,531,1583,0,0
-686,-559,0,0,0,0,0,0,0,0,0,-1,538,1583,0,0
-679,-559,0,0,0,0,0,0,0,0,0,-1,545,1583,0,0
-672,-559,0,0,0,0,0,0,0,0,0,-1,552,1583,0,0
-665,-559,0,0,0,0,0,0,0,0,0,-1,559,1583,0,0
-658,-559,0,0,0,0,0,0,0,0,0,-1,566,1583,0,0
-651,-559,0,0,0,0,0,0,0,0,0,-1,573,1583,0,0
-644,-559,0,0,0,0,0,0,0,0,0,-1,580,1583,0,0
-637,-559,0,0,0,0,0,0,0,0,0,-1,587,1583,0,0
-630,-559,0,0,0,0,0,0,0,0,0,-1,594,1583,0,0
-623,-559,0,0,0,0,0,0,0,0,0,-1,601,1583,0,0
-616,-559,0,0,0,0,0,0,0,0,0,-1,608,1583,0,0
-609,-559,0,0,0,0,0,0,0,0,0,-1,615,1583,0,0
-602,-559,0,0,0,0,0,0,0,0,0,-1,622,1583,0,0
-595,-559,0,0,0,0,0,0,0,0,0,-1,629,1583,0,0
-588,-559,0,0,0,0,0,0,0,0,0,-1,636,1583,0,0
-581,-559,0,0,0,0,0,0,0,0,0,-1,643,1583,0,0
-574,-559,0,0,0,0,0,0,0,0,0,-1,650,1583,0,0
-567,-559,0,0,0,0,0,0,0,0,0,-1,657,1583,0,0
-560,-559,0,0,0,0,0,0,0,0,0,-1,664,1583,0,0
-553,-559,0,0,0,0,0,0,0,0,0,-1,671,1583,0,0
-546,-559,0,0,0,0,0,0,0,0,0,-1,678,1583,0,0
-539,-559,0,0,0,0,0,0,0,0,0,-1,685,1583,0,0
-532,-559,0,0,0,0,0,0,0,0,0,-1,692,1583,0,0
-525,-559,0,0,0,0,0,0,0,0,0,-1,699,1583,0,0
-518,-559,0,0,0,0,0,0,0,0,0,-1,706,1583,0,0
-511,-559,0,0,0,0,0,0,0,0,0,-1,713,1583,0,0
-504,-559,0,0,0,0,0,0,0,0,0,-1,720,1583,0,0
-497,-559,0,0,0,0,0,0,0,0,0,-1,727,1583,0,0
-490,-559,-5.49835,4.47424,0,0,0,0,0,0,0,-1,734,1583,-5.49833,-4.4743
-483,-559,-5.24078,4.74561,0,0,0,0,0,0,0,-1,741,1583,-5.24079,-4.74563
-476,-559,-4.98022,4.99316,0,0,0,0,0,0,0,-1,748,1583,-4.98024,-4.99321
-469,-559,-4.6424,5.38062,0,0,0,0,0,0,0,-1,755,1583,-4.64237,-5.38058
-462,-559,-0.161865,6.49438,0,0,0,0,0,0,0,-1,762,1583,-0.161835,-6.49444
-455,-559,0.561218,8.10693,0,0,0,0,0,0,0,-1,769,1583,0.561209,-8.10697
-448,-559,0.983398,8.39514,0,0,0,0,0,0,0,-1,776,1583,0.983427,-8.3951
-441,-559,0.793335,9.28394,0.00698985,0.0152769,0.0128032,0.0245904,-0.0023236,0.941895,0.0172204,0.045797,783,1583,0.793327,-9.28388
-434,-559,0.751465,10.3055,0.00552113,0.0108533,0.00977401,0.0183183,-0.00194389,0.918545,0.0129091,0.0348088,790,1583,0.751475,-10.3056
-427,-559,0.657471,10.6368,0.00427348,0.00771812,0.0072206,0.013419,-0.00142737,0.902474,0.00945775,0.0248709,797,1583,0.657474,-10.6369
-420,-559,0.605469,10.8649,0.00341986,0.00539809,0.0052151,0.00971705,-0.000899096,0.879117,0.00679758,0.0267315,804,1583,0.605471,-10.8648
-413,-559,0.627136,11.1409,0.00248698,0.0035131,0.00375323,0.00678818,-0.000788091,0.853327,0.00480972,0.0130052,811,1583,0.627148,-11.1409
-406,-559,0.617004,11.4368,0.00191763,0.00192897,0.00244185,0.00436516,-0.000518558,0.78656,0.00309746,0.00954809,818,1583,0.616987,-11.4368
-399,-559,0.626282,11.7325,0.00140986,0.00129026,0.00140694,0.00275827,-5.81519e-05,0.76416,0.00185854,0.0126662,825,1583,0.626281,-11.7325
-392,-559,0.618774,12.002,0.000937667,0.000807323,0.00082262,0.00169769,4.72976e-05,0.745868,0.00111636,0.0158475,832,1583,0.6188,-12.0019
-385,-559,0.605713,12.2816,0.000650834,0.000183925,0.000157817,0.000699172,0.000135586,0.297221,0.000428137,0.0158252,839,1583,0.605736,-12.2816
-378,-559,0.601074,12.568,0.000430792,0.000152923,-0.000278623,0.0006032,-1.94837e-05,-0.554116,0.000408782,0.0141502,846,1583,0.601052,-12.568
-371,-559,0.59259,12.8466,0.000253808,0.000244642,-0.000582175,0.000831418,-0.000332968,-0.781462,0.000692486,0.0210428,853,1583,0.592587,-12.8465
-364,-559,0.613708,13.111,2.78092e-05,0.000372572,-0.000950755,0.00116645,-0.000766066,-0.875079,0.00112369,0.0194631,860,1583,0.61372,-13.1109
-357,-559,0.600525,13.3885,0.000151196,0.000562638,-0.00128547,0.00165874,-0.000944911,-0.864743,0.00152194,0.0115603,867,1583,0.600527,-13.3886
-350,-559,0.602051,13.6685,0.000325477,0.000947085,-0.00157517,0.00224182,-0.000969263,-0.882804,0.00190183,0.00944924,874,1583,0.602065,-13.6685
-343,-559,0.596802,13.9453,0.000121652,0.00158314,-0.00187419,0.00286401,-0.00115921,-0.971283,0.00239131,0.0102545,881,1583,0.596788,-13.9453
-336,-559,0.583984,14.2028,-0.000253335,0.00206973,-0.00238822,0.0035639,-0.0017475,-1.01174,0.00312574,0.0124029,888,1583,0.584009,-14.2028
-329,-559,0.658691,14.5447,-0.000604618,0.00273257,-0.00283092,0.00435005,-0.0022221,-1.0517,0.00386016,0.0193961,895,1583,0.658681,-14.5447
-322,-559,0.763428,14.9576,-0.00143402,0.00357813,-0.00335408,0.00525897,-0.00311486,-1.10624,0.00488717,0.0470532,902,1583,0.763438,-14.9577
-315,-559,0.935242,15.2065,0,0,0,0,0,0,0,-1,909,1583,0.935249,-15.2065
-308,-559,1.19873,15.3743,0,0,0,0,0,0,0,-1,916,1583,1.19871,-15.3742
-301,-559,0.94989,15.7177,0,0,0,0,0,0,0,-1,923,1583,0.949884,-15.7176
-294,-559,0.744263,16.0059,0,0,0,0,0,0,0,-1,930,1583,0.744276,-16.0058
-287,-559,-0.11792,15.4912,0,0,0,0,0,0,0,-1,937,1583,-0.117939,-15.4912
-280,-559,0.191467,13.5093,0,0,0,0,0,0,0,-1,944,1583,0.191441,-13.5093
-273,-559,2.12836,10.3059,0,0,0,0,0,0,0,-1,951,1583,2.12839,-10.3059
-266,-559,-0.597046,6.68933,0,0,0,0,0,0,0,-1,958,1583,-0.597031,-6.68937
-259,-559,-7.00311,8.62756,0,0,0,0,0,0,0,-1,965,1583,-7.00312,-8.6275
-252,-559,-9.4483,2.87805,0,0,0,0,0,0,0,-1,972,1583,-9.44829,-2.87805
-245,-559,-4.80804,7.1803,0,0,0,0,0,0,0,-1,979,1583,-4.80804,-7.18027
-238,-559,-8.45764,2.54858,0,0,0,0,0,0,0,-1,986,1583,-8.45763,-2.54862
-231,-559,-5.86914,4.34021,0,0,0,0,0,0,0,-1,993,1583,-5.86914,-4.34019
-224,-559,-3.30505,6.22864,0,0,0,0,0,0,0,-1,1000,1583,-3.30505,-6.22859
-217,-559,0,0,0,0,0,0,0,0,0,-1,1007,1583,0,0
-210,-559,0,0,0,0,0,0,0,0,0,-1,1014,1583,0,0
-203,-559,0,0,0,0,0,0,0,0,0,-1,1021,1583,0,0
-196,-559,0,0,0,0,0,0,0,0,0,-1,1028,1583,0,0
-189,-559,0,0,0,0,0,0,0,0,0,-1,1035,1583,0,0
-182,-559,0,0,0,0,0,0,0,0,0,-1,1042,1583,0,0
-175,-559,0,0,0,0,0,0,0,0,0,-1,1049,1583,0,0
-168,-559,0,0,0,0,0,0,0,0,0,-1,1056,1583,0,0
-161,-559,0,0,0,0,0,0,0,0,0,-1,1063,1583,0,0
-154,-559,0,0,0,0,0,0,0,0,0,-1,1070,1583,0,0
-147,-559,0,0,0,0,0,0,0,0,0,-1,1077,1583,0,0
-140,-559,0,0,0,0,0,0,0,0,0,-1,1084,1583,0,0
-133,-559,0,0,0,0,0,0,0,0,0,-1,1091,1583,0,0
-126,-559,0,0,0,0,0,0,0,0,0,-1,1098,1583,0,0
-119,-559,0,0,0,0,0,0,0,0,0,-1,1105,1583,0,0
-112,-559,0,0,0,0,0,0,0,0,0,-1,1112,1583,0,0
-105,-559,0,0,0,0,0,0,0,0,0,-1,1119,1583,0,0
-98,-559,0,0,0,0,0,0,0,0,0,-1,1126,1583,0,0
-91,-559,0,0,0,0,0,0,0,0,0,-1,1133,1583,0,0
-84,-559,0,0,0,0,0,0,0,0,0,-1,1140,1583,0,0
-77,-559,0,0,0,0,0,0,0,0,0,-1,1147,1583,0,0
-70,-559,0,0,0,0,0,0,0,0,0,-1,1154,1583,0,0
-63,-559,0,0,0,0,0,0,0,0,0,-1,1161,1583,0,0
-56,-559,0,0,0,0,0,0,0,0,0,-1,1168,1583,0,0
-49,-559,0,0,0,0,0,0,0,0,0,-1,1175,1583,0,0
-42,-559,0,0,0,0,0,0,0,0,0,-1,1182,1583,0,0
-35,-559,0,0,0,0,0,0,0,0,0,-1,1189,1583,0,0
-28,-559,0,0,0,0,0,0,0,0,0,-1,1196,1583,0,0
-21,-559,0,0,0,0,0,0,0,0,0,-1,1203,1583,0,0
-14,-559,0,0,0,0,0,0,0,0,0,-1,1210,1583,0,0
-7,-559,0,0,0,0,0,0,0,0,0,-1,1217,1583,0,0
0,-559,0,0,0,0,0,0,0,0,0,-1,1224,1583,0,0
7,-559,0,0,0,0,0,0,0,0,0,-1,1231,1583,0,0
14,-559,0,0,0,0,0,0,0,0,0,-1,1238,1583,0,0
21,-559,0,0,0,0,0,0,0,0,0,-1,1245,1583,0,0
28,-559,0,0,0,0,0,0,0,0,0,-1,1252,1583,0,0
35,-559,0,0,0,0,0,0,0,0,0,-1,1259,1583,0,0
42,-559,0,0,0,0,0,0,0,0,0,-1,1266,1583,0,0
49,-559,0,0,0,0,0,0,0,0,0,-1,1273,1583,0,0
56,-559,0,0,0,0,0,0,0,0,0,-1,1280,1583,0,0
63,-559,0,0,0,0,0,0,0,0,0,-1,1287,1583,0,0
70,-559,0,0,0,0,0,0,0,0,0,-1,1294,1583,0,0
77,-559,0,0,0,0,0,0,0,0,0,-1,1301,1583,0,0
84,-559,0,0,0,0,0,0,0,0,0,-1,1308,1583,0,0
91,-559,0,0,0,0,0,0,0,0,0,-1,1315,1583,0,0
98,-559,0,0,0,0,0,0,0,0,0,-1,1322,1583,0,0
105,-559,0,0,0,0,0,0,0,0,0,-1,1329,1583,0,0
112,-559,0,0,0,0,0,0,0,0,0,-1,1336,1583,0,0
119,-559,0,0,0,0,0,0,0,0,0,-1,1343,1583,0,0
126,-559,0,0,0,0,0,0,0,0,0,-1,1350,1583,0,0
133,-559,0,0,0,0,0,0,0,0,0,-1,1357,1583,0,0
140,-559,0,0,0,0,0,0,0,0,0,-1,1364,1583,0,0
147,-559,0,0,0,0,0,0,0,0,0,-1,1371,1583,0,0
154,-559,0,0,0,0,0,0,0,0,0,-1,1378,1583,0,0
161,-559,0,0,0,0,0,0,0,0,0,-1,1385,1583,0,0
168,-559,0,0,0,0,0,0,0,0,0,-1,1392,1583,0,0
175,-559,0,0,0,0,0,0,0,0,0,-1,1399,1583,0,0
182,-559,0,0,0,0,0,0,0,0,0,-1,1406,1583,0,0
189,-559,0,0,0,0,0,0,0,0,0,-1,1413,1583,0,0
196,-559,0,0,0,0,0,0,0,0,0,-1,1420,1583,0,0
203,-559,0,0,0,0,0,0,0,0,0,-1,1427,1583,0,0
210,-559,0,0,0,0,0,0,0,0,0,-1,1434,1583,0,0
217,-559,0,0,0,0,0,0,0,0,0,-1,1441,1583,0,0
224,-559,0,0,0,0,0,0,0,0,0,-1,1448,1583,0,0
231,-559,0,0,0,0,0,0,0,0,0,-1,1455,1583,0,0
238,-559,0,0,0,0,0,0,0,0,0,-1,1462,1583,0,0
245,-559,0,0,0,0,0,0,0,0,0,-1,1469,1583,0,0
252,-559,0,0,0,0,0,0,0,0,0,-1,1476,1583,0,0
259,-559,0,0,0,0,0,0,0,0,0,-1,1483,1583,0,0
266,-559,0,0,0,0,0,0,0,0,0,-1,1490,1583,0,0
273,-559,0,0,0,0,0,0,0,0,0,-1,1497,1583,0,0
280,-559,0,0,0,0,0,0,0,0,0,-1,1504,1583,0,0
287,-559,0,0,0,0,0,0,0,0,0,-1,1511,1583,0,0
294,-559,0,0,0,0,0,0,0,0,0,-1,1518,1583,0,0
301,-559,0,0,0,0,0,0,0,0,0,-1,1525,1583,0,0
308,-559,0,0,0,0,0,0,0,0,0,-1,1532,1583,0,0
315,-559,0,0,0,0,0,0,0,0,0,-1,1539,1583,0,0
322,-559,0,0,0,0,0,0,0,0,0,-1,1546,1583,0,0
329,-559,0,0,0,0,0,0,0,0,0,-1,1553,1583,0,0
336,-559,5.97668,3.09827,0,0,0,0,0,0,0,-1,1560,1583,5.97667,-3.09824
343,-559,5.44824,2.88696,0,0,0,0,0,0,0,-1,1567,1583,5.44819,-2.88693
350,-559,4.69775,3.27051,0,0,0,0,0,0,0,-1,1574,1583,4.69771,-3.27048
357,-559,3.88025,3.60999,0,0,0,0,0,0,0,-1,1581,1583,3.88027,-3.60998
364,-559,5.00928,5.32605,0,0,0,0,0,0,0,-1,1588,1583,5.00928,-5.32607
371,-559,1.84436,2.52441,0,0,0,0,0,0,0,-1,1595,1583,1.84441,-2.52447
378,-559,6.34753,1.53137,0,0,0,0,0,0,0,-1,1602,1583,6.34752,-1.53139
385,-559,6.95911,1.48181,0,0,0,0,0,0,0,-1,1609,1583,6.95916,-1.48175
392,-559,11.6949,4.77734,0,0,0,0,0,0,0,-1,1616,1583,11.6949,-4.77731
399,-559,11.1104,5.56909,0,0,0,0,0,0,0,-1,1623,1583,11.1103,-5.56905
406,-559,10.3385,6.48657,0,0,0,0,0,0,0,-1,1630,1583,10.3385,-6.48661
413,-559,9.76147,6.97571,0,0,0,0,0,0,0,-1,1637,1583,9.76143,-6.97574
420,-559,7.77124,10.5851,0,0,0,0,0,0,0,-1,1644,1583,7.77128,-10.585
427,-559,10.1022,12.5565,0,0,0,0,0,0,0,-1,1651,1583,10.1021,-12.5565
434,-559,9.62769,14.6309,0,0,0,0,0,0,0,-1,1658,1583,9.62771,-14.6309
441,-559,9.53931,15.2428,0,0,0,0,0,0,0,-1,1665,1583,9.53925,-15.2427
448,-559,9.56348,15.2766,0.00365602,-0.0293732,0.018145,0.0116766,-0.0373938,0.416202,0.0295993,0.0484571,1672,1583,9.56353,-15.2766
455,-559,9.72107,15.2565,0.00157168,-0.0253479,0.0164645,0.00937794,-0.0331541,0.442736,0.0258032,0.0470536,1679,1583,9.72106,-15.2565
462,-559,10.0284,15.4514,-0.000199767,-0.0213187,0.0146181,0.0072738,-0.0287922,0.472612,0.0220235,0.0430048,1686,1583,10.0284,-15.4514
469,-559,9.86743,15.374,-0.00137265,-0.0180488,0.0128282,0.00558911,-0.0250106,0.497216,0.0188155,0.0206659,1693,1583,9.86741,-15.374
476,-559,9.84155,15.0944,-0.00204456,-0.0150337,0.0110954,0.00431732,-0.0213955,0.520615,0.0158994,0.010474,1700,1583,9.84158,-15.0944
483,-559,9.86023,14.8152,-0.00230964,-0.0121463,0.00938716,0.00336962,-0.0178255,0.544091,0.0131516,0.0124669,1707,1583,9.8602,-14.8152
490,-559,9.84961,14.5774,-0.00224944,-0.0094821,0.00771913,0.00265848,-0.01439,0.566337,0.0105913,0.0154524,1714,1583,9.84967,-14.5774
497,-559,9.85364,14.3378,-0.00197429,-0.00712923,0.00605833,0.00203206,-0.0111356,0.584275,0.00818559,0.0190305,1721,1583,9.85362,-14.3378
504,-559,9.88074,14.0798,-0.0019587,-0.00479047,0.00471526,0.00154866,-0.00829783,0.639543,0.00611384,0.02322,1728,1583,9.88071,-14.0799
511,-559,9.88416,13.8176,-0.00177333,-0.00284557,0.00322584,0.000960633,-0.00557953,0.703052,0.00407779,0.0202644,1735,1583,9.8842,-13.8177
518,-559,9.88757,13.5541,-0.00132435,-0.00137366,0.00193725,0.000588397,-0.00328641,0.779036,0.00241112,0.0131071,1742,1583,9.88756,-13.5541
525,-559,9.88208,13.2836,-0.000887904,-0.000140052,0.000877788,0.000440135,-0.00146809,0.986751,0.00115377,0.0115165,1749,1583,9.88202,-13.2836
532,-559,9.85193,13.0342,-0.000759634,0.000820133,0.000111601,0.000827978,-0.000767479,1.50062,0.000921358,0.0122273,1756,1583,9.85191,-13.0341
539,-559,9.82361,12.783,-0.000750065,0.00136229,-0.000397659,0.00143467,-0.000822445,-1.39075,0.00131903,0.0162356,1763,1583,9.82358,-12.783
546,-559,9.82642,12.5284,-0.000877899,0.00181593,-0.000643875,0.00196192,-0.00102389,-1.34783,0.00175198,0.0160568,1770,1583,9.82642,-12.5284
553,-559,9.95679,12.1969,-0.000833584,0.00183691,-0.000724824,0.00202096,-0.00101763,-1.32213,0.00178593,0.0258897,1777,1583,9.95674,-12.1969
560,-559,9.97058,11.8235,0,0,0,0,0,0,0,-1,1784,1583,9.97054,-11.8235
567,-559,9.41101,10.62,0,0,0,0,0,0,0,-1,1791,1583,9.41101,-10.62
574,-559,10.5109,10.7317,0,0,0,0,0,0,0,-1,1798,1583,10.5108,-10.7317
581,-559,5.97095,5.96179,0,0,0,0,0,0,0,-1,1805,1583,5.97093,-5.96181
588,-559,5.79102,5.89954,0,0,0,0,0,0,0,-1,1812,1583,5.79098,-5.89949
595,-559,5.79089,6.24231,0,0,0,0,0,0,0,-1,1819,1583,5.7909,-6.24227
602,-559,12.478,2.35669,0,0,0,0,0,0,0,-1,1826,1583,12.4781,-2.35675
609,-559,14.0479,1.22681,0,0,0,0,0,0,0,-1,1833,1583,14.0479,-1.22681
616,-559,0,0,0,0,0,0,0,0,0,-1,1840,1583,0,0
623,-559,0,0,0,0,0,0,0,0,0,-1,1847,1583,0,0
630,-559,0,0,0,0,0,0,0,0,0,-1,1854,1583,0,0
637,-559,0,0,0,0,0,0,0,0,0,-1,1861,1583,0,0
644,-559,0,0,0,0,0,0,0,0,0,-1,1868,1583,0,0
651,-559,0,0,0,0,0,0,0,0,0,-1,1875,1583,0,0
658,-559,0,0,0,0,0,0,0,0,0,-1,1882,1583,0,0
665,-559,0,0,0,0,0,0,0,0,0,-1,1889,1583,0,0
672,-559,0,0,0,0,0,0,0,0,0,-1,1896,1583,0,0
679,-559,0,0,0,0,0,0,0,0,0,-1,1903,1583,0,0
686,-559,0,0,0,0,0,0,0,0,0,-1,1910,1583,0,0
693,-559,0,0,0,0,0,0,0,0,0,-1,1917,1583,0,0
700,-559,0,0,0,0,0,0,0,0,0,-1,1924,1583,0,0
707,-559,0,0,0,0,0,0,0,0,0,-1,1931,1583,0,0
714,-559,0,0,0,0,0,0,0,0,0,-1,1938,1583,0,0
721,-559,0,0,0,0,0,0,0,0,0,-1,1945,1583,0,0
728,-559,0,0,0,0,0,0,0,0,0,-1,1952,1583,0,0
735,-559,0,0,0,0,0,0,0,0,0,-1,1959,1583,0,0
742,-559,0,0,0,0,0,0,0,0,0,-1,1966,1583,0,0
749,-559,0,0,0,0,0,0,0,0,0,-1,1973,1583,0,0
756,-559,0,0,0,0,0,0,0,0,0,-1,1980,1583,0,0
763,-559,0,0,0,0,0,0,0,0,0,-1,1987,1583,0,0
770,-559,0,0,0,0,0,0,0,0,0,-1,1994,1583,0,0
777,-559,0,0,0,0,0,0,0,0,0,-1,2001,1583,0,0
784,-559,0,0,0,0,0,0,0,0,0,-1,2008,1583,0,0
791,-559,0,0,0,0,0,0,0,0,0,-1,2015,1583,0,0
798,-559,0,0,0,0,0,0,0,0,0,-1,2022,1583,0,0
805,-559,0,0,0,0,0,0,0,0,0,-1,2029,1583,0,0
812,-559,0,0,0,0,0,0,0,0,0,-1,2036,1583,0,0
-700,-566,0,0,0,0,0,0,0,0,0,-1,524,1590,0,0
-693,-566,0,0,0,0,0,0,0,0,0,-1,531,1590,0,0
-686,-566,0,0,0,0,0,0,0,0,0,-1,538,1590,0,0
-679,-566,0,0,0,0,0,0,0,0,0,-1,545,1590,0,0
-672,-566,0,0,0,0,0,0,0,0,0,-1,552,1590,0,0
-665,-566,0,0,0,0,0,0,0,0,0,-1,559,1590,0,0
-658,-566,0,0,0,0,0,0,0,0,0,-1,566,1590,0,0
-651,-566,0,0,0,0,0,0,0,0,0,-1,573,1590,0,0
-644,-566,0,0,0,0,0,0,0,0,0,-1,580,1590,0,0
-637,-566,0,0,0,0,0,0,0,0,0,-1,587,1590,0,0
-630,-566,0,0,0,0,0,0,0,0,0,-1,594,1590,0,0
-623,-566,0,0,0,0,0,0,0,0,0,-1,601,1590,0,0
-616,-566,0,0,0,0,0,0,0,0,0,-1,608,1590,0,0
-609,-566,0,0,0,0,0,0,0,0,0,-1,615,1590,0,0
-602,-566,0,0,0,0,0,0,0,0,0,-1,622,1590,0,0
-595,-566,0,0,0,0,0,0,0,0,0,-1,629,1590,0,0
-588,-566,0,0,0,0,0,0,0,0,0,-1,636,1590,0,0
-581,-566,0,0,0,0,0,0,0,0,0,-1,643,1590,0,0
-574,-566,0,0,0,0,0,0,0,0,0,-1,650,1590,0,0
-567,-566,0,0,0,0,0,0,0,0,0,-1,657,1590,0,0
-560,-566,0,0,0,0,0,0,0,0,0,-1,664,1590,0,0
-553,-566,0,0,0,0,0,0,0,0,0,-1,671,1590,0,0
-546,-566,0,0,0,0,0,0,0,0,0,-1,678,1590,0,0
-539,-566,0,0,0,0,0,0,0,0,0,-1,685,1590,0,0
-532,-566,0,0,0,0,0,0,0,0,0,-1,692,1590,0,0
-525,-566,0,0,0,0,0,0,0,0,0,-1,699,1590,0,0
-518,-566,0,0,0,0,0,0,0,0,0,-1,706,1590,0,0
-511,-566,0,0,0,0,0,0,0,0,0,-1,713,1590,0,0
-504,-566,0,0,0,0,0,0,0,0,0,-1,720,1590,0,0
-497,-566,0,0,0,0,0,0,0,0,0,-1,727,1590,0,0
-490,-566,0,0,0,0,0,0,0,0,0,-1,734,1590,0,0
-483,-566,-7.17084,2.78613,0,0,0,0,0,0,0,-1,741,1590,-7.17083,-2.78618
-476,-566,-7.13971,2.87183,0,0,0,0,0,0,0,-1,748,1590,-7.13971,-2.87184
-469,-566,-6.43829,3.2998,0,0,0,0,0,0,0,-1,755,1590,-6.43829,-3.2998
-462,-566,-0.459106,3.89343,0,0,0,0,0,0,0,-1,762,1590,-0.459095,-3.89341
-455,-566,0.280212,4.74023,0,0,0,0,0,0,0,-1,769,1590,0.280207,-4.74023
-448,-566,0.436951,5.51306,0,0,0,0,0,0,0,-1,776,1590,0.436971,-5.51301
-441,-566,0.969238,9.05237,0,0,0,0,0,0,0,-1,783,1590,0.969251,-9.05231
-434,-566,0.595886,9.96631,0,0,0,0,0,0,0,-1,790,1590,0.595915,-9.96628
-427,-566,0.675232,10.5065,0.00596783,0.0088652,0.00885782,0.016392,-0.00155899,0.866455,0.011483,0.0427806,797,1590,0.675245,-10.5065
-420,-566,0.809082,10.9819,0.00460473,0.00600402,0.00624469,0.0115881,-0.000979386,0.841184,0.00807172,0.039077,804,1590,0.809078,-10.9819
-413,-566,0.908081,11.1689,0.00329027,0.00383022,0.004435,0.00800345,-0.000882961,0.815798,0.00565299,0.0192509,811,1590,0.908078,-11.169
-406,-566,0.903564,11.4482,0.00246859,0.00207977,0.00291707,0.00519772,-0.000649367,0.752125,0.00370064,0.0104753,818,1590,0.903556,-11.4482
-399,-566,0.908142,11.7274,0.00174753,0.00131835,0.00175179,0.00329782,-0.000231941,0.724452,0.0022798,0.010082,825,1590,0.908119,-11.7274
-392,-566,0.904907,11.9954,0.00113124,0.000777553,0.00111086,0.00207925,-0.000170454,0.706462,0.00144634,0.0123508,832,1590,0.904921,-11.9954
-385,-566,0.920837,12.3018,0.000757461,9.62402e-05,0.000417304,0.000959247,-0.000105546,0.450399,0.000677427,0.0144944,839,1590,0.920815,-12.3018
-378,-566,0.912964,12.5999,0.000504235,6.26365e-05,3.47131e-05,0.000506947,5.99244e-05,0.0779697,0.000319867,0.0142753,846,1590,0.912987,-12.5998
-371,-566,0.855957,12.8639,0.000313379,0.000130774,-0.00023447,0.000473696,-2.95429e-05,-0.599731,0.000326091,0.0207423,853,1590,0.855949,-12.8639
-364,-566,0.872192,13.1383,6.48135e-05,0.000255948,-0.000531234,0.000700142,-0.000379381,-0.874395,0.000632367,0.0219631,860,1590,0.872185,-13.1383
-357,-566,0.854736,13.3821,0.000228505,0.000418605,-0.000754121,0.00108364,-0.000436532,-0.848088,0.000903791,0.0173729,867,1590,0.854712,-13.3821
-350,-566,0.8703,13.6608,0.000507546,0.000741465,-0.00095496,0.0015866,-0.00033759,-0.846333,0.00118638,0.0197703,874,1590,0.870302,-13.6608
-343,-566,0.874573,13.9106,0.000433179,0.00126829,-0.00116621,0.00208944,-0.000387969,-0.95731,0.00153867,0.0245067,881,1590,0.874555,-13.9107
-336,-566,0.814697,14.1925,0.000185087,0.00161301,-0.00158509,0.00263752,-0.000839414,-0.997001,0.00209497,0.0233972,888,1590,0.814695,-14.1925
-329,-566,0.889465,14.4391,-1.81814e-05,0.00211494,-0.00192711,0.00325095,-0.00115419,-1.03814,0.0026376,0.0156045,895,1590,0.889459,-14.4391
-322,-566,0.942871,14.7703,-0.000606926,0.00263754,-0.00235596,0.00387576,-0.00184515,-1.0869,0.00337161,0.0193832,902,1590,0.9429,-14.7702
-315,-566,0.854248,15.0145,-0.00160232,0.00311844,-0.00296583,0.00454851,-0.00303239,-1.1215,0.00440591,0.0336586,909,1590,0.854223,-15.0146
-308,-566,0.937744,15.2249,-0.0029289,0.00372684,-0.00392278,0.00554319,-0.00474524,-1.13716,0.00594598,0.039078,916,1590,0.93777,-15.2249
-301,-566,1.17316,15.5165,-0.00441821,0.00415828,-0.00466158,0.00620402,-0.00646395,-1.15725,0.00731437,0.0448883,923,1590,1.17318,-15.5165
-294,-566,0.997192,15.8698,-0.00631334,0.00376064,-0.00573901,0.00635958,-0.00891228,-1.14557,0.00885818,0.0488644,930,1590,0.997191,-15.8697
-287,-566,1.02692,16.3271,0,0,0,0,0,0,0,-1,937,1590,1.02694,-16.3271
-280,-566,0.936462,16.7036,0,0,0,0,0,0,0,-1,944,1590,0.936476,-16.7036
-273,-566,0.49762,11.2427,0,0,0,0,0,0,0,-1,951,1590,0.497591,-11.2426
-266,-566,0.392151,6.90295,0,0,0,0,0,0,0,-1,958,1590,0.392151,-6.90294
-259,-566,0.343628,6.47437,0,0,0,0,0,0,0,-1,965,1590,0.34363,-6.47438
-252,-566,-7.68311,1.01343,0,0,0,0,0,0,0,-1,972,1590,-7.68308,-1.01348
-245,-566,-11.1835,1.97522,0,0,0,0,0,0,0,-1,979,1590,-11.1835,-1.97527
-238,-566,-10.4883,2.40491,0,0,0,0,0,0,0,-1,986,1590,-10.4883,-2.40487
-231,-566,-7.41827,4.22803,0,0,0,0,0,0,0,-1,993,1590,-7.41827,-4.22803
-224,-566,-4.67188,6.30859,0,0,0,0,0,0,0,-1,1000,1590,-4.67185,-6.30853
-217,-566,-2.82867,7.52527,0,0,0,0,0,0,0,-1,1007,1590,-2.82869,-7.52531
-210,-566,-1.03436,8.67737,0,0,0,0,0,0,0,-1,1014,1590,-1.03439,-8.67733
-203,-566,0,0,0,0,0,0,0,0,0,-1,1021,1590,0,0
-196,-566,0,0,0,0,0,0,0,0,0,-1,1028,1590,0,0
-189,-566,0,0,0,0,0,0,0,0,0,-1,1035,1590,0,0
-182,-566,0,0,0,0,0,0,0,0,0,-1,1042,1590,0,0
-175,-566,0,0,0,0,0,0,0,0,0,-1,1049,1590,0,0
-168,-566,0,0,0,0,0,0,0,0,0,-1,1056,1590,0,0
-161,-566,0,0,0,0,0,0,0,0,0,-1,1063,1590,0,0
-154,-566,0,0,0,0,0,0,0,0,0,-1,1070,1590,0,0
-147,-566,0,0,0,0,0,0,0,0,0,-1,1077,1590,0,0
-140,-566,0,0,0,0,0,0,0,0,0,-1,1084,1590,0,0
-133,-566,0,0,0,0,0,0,0,0,0,-1,1091,1590,0,0
-126,-566,0,0,0,0,0,0,0,0,0,-1,1098,1590,0,0
-119,-566,0,0,0,0,0,0,0,0,0,-1,1105,1590,0,0
-112,-566,0,0,0,0,0,0,0,0,0,-1,1112,1590,0,0
-105,-566,0,0,0,0,0,0,0,0,0,-1,1119,1590,0,0
-98,-566,0,0,0,0,0,0,0,0,0,-1,1126,1590,0,0
-91,-566,0,0,0,0,0,0,0,0,0,-1,1133,1590,0,0
-84,-566,0,0,0,0,0,0,0,0,0,-1,1140,1590,0,0
-77,-566,0,0,0,0,0,0,0,0,0,-1,1147,1590,0,0
-70,-566,0,0,0,0,0,0,0,0,0,-1,1154,1590,0,0
-63,-566,0,0,0,0,0,0,0,0,0,-1,1161,1590,0,0
-56,-566,0,0,0,0,0,0,0,0,0,-1,1168,1590,0,0
-49,-566,0,0,0,0,0,0,0,0,0,-1,1175,1590,0,0
-42,-566,0,0,0,0,0,0,0,0,0,-1,1182,1590,0,0
-35,-566,0,0,0,0,0,0,0,0,0,-1,1189,1590,0,0
-28,-566,0,0,0,0,0,0,0,0,0,-1,1196,1590,0,0
-21,-566,0,0,0,0,0,0,0,0,0,-1,1203,1590,0,0
-14,-566,0,0,0,0,0,0,0,0,0,-1,1210,1590,0,0
-7,-566,0,0,0,0,0,0,0,0,0,-1,1217,1590,0,0
0,-566,0,0,0,0,0,0,0,0,0,-1,1224,1590,0,0
7,-566,0,0,0,0,0,0,0,0,0,-1,1231,1590,0,0
14,-566,0,0,0,0,0,0,0,0,0,-1,1238,1590,0,0
21,-566,0,0,0,0,0,0,0,0,0,-1,1245,1590,0,0
28,-566,0,0,0,0,0,0,0,0,0,-1,1252,1590,0,0
35,-566,0,0,0,0,0,0,0,0,0,-1,1259,1590,0,0
42,-566,0,0,0,0,0,0,0,0,0,-1,1266,1590,0,0
49,-566,0,0,0,0,0,0,0,0,0,-1,1273,1590,0,0
56,-566,0,0,0,0,0,0,0,0,0,-1,1280,1590,0,0
63,-566,0,0,0,0,0,0,0,0,0,-1,1287,1590,0,0
70,-566,0,0,0,0,0,0,0,0,0,-1,1294,1590,0,0
77,-566,0,0,0,0,0,0,0,0,0,-1,1301,1590,0,0
84,-566,0,0,0,0,0,0,0,0,0,-1,1308,1590,0,0
91,-566,0,0,0,0,0,0,0,0,0,-1,1315,1590,0,0
98,-566,0,0,0,0,0,0,0,0,0,-1,1322,1590,0,0
105,-566,0,0,0,0,0,0,0,0,0,-1,1329,1590,0,0
112,-566,0,0,0,0,0,0,0,0,0,-1,1336,1590,0,0
119,-566,0,0,0,0,0,0,0,0,0,-1,1343,1590,0,0
126,-566,0,0,0,0,0,0,0,0,0,-1,1350,1590,0,0
133,-566,0,0,0,0,0,0,0,0,0,-1,1357,1590,0,0
140,-566,0,0,0,0,0,0,0,0,0,-1,1364,1590,0,0
147,-566,0,0,0,0,0,0,0,0,0,-1,1371,1590,0,0
154,-566,0,0,0,0,0,0,0,0,0,-1,1378,1590,0,0
161,-566,0,0,0,0,0,0,0,0,0,-1,1385,1590,0,0
168,-566,0,0,0,0,0,0,0,0,0,-1,1392,1590,0,0
175,-566,0,0,0,0,0,0,0,0,0,-1,1399,1590,0,0
182,-566,0,0,0,0,0,0,0,0,0,-1,1406,1590,0,0
189,-566,0,0,0,0,0,0,0,0,0,-1,1413,1590,0,0
196,-566,0,0,0,0,0,0,0,0,0,-1,1420,1590,0,0
203,-566,0,0,0,0,0,0,0,0,0,-1,1427,1590,0,0
210,-566,0,0,0,0,0,0,0,0,0,-1,1434,1590,0,0
217,-566,0,0,0,0,0,0,0,0,0,-1,1441,1590,0,0
224,-566,0,0,0,0,0,0,0,0,0,-1,1448,1590,0,0
231,-566,0,0,0,0,0,0,0,0,0,-1,1455,1590,0,0
238,-566,0,0,0,0,0,0,0,0,0,-1,1462,1590,0,0
245,-566,0,0,0,0,0,0,0,0,0,-1,1469,1590,0,0
252,-566,0,0,0,0,0,0,0,0,0,-1,1476,1590,0,0
259,-566,0,0,0,0,0,0,0,0,0,-1,1483,1590,0,0
266,-566,0,0,0,0,0,0,0,0,0,-1,1490,1590,0,0
273,-566,0,0,0,0,0,0,0,0,0,-1,1497,1590,0,0
280,-566,0,0,0,0,0,0,0,0,0,-1,1504,1590,0,0
287,-566,0,0,0,0,0,0,0,0,0,-1,1511,1590,0,0
294,-566,0,0,0,0,0,0,0,0,0,-1,1518,1590,0,0
301,-566,0,0,0,0,0,0,0,0,0,-1,1525,1590,0,0
308,-566,0,0,0,0,0,0,0,0,0,-1,1532,1590,0,0
315,-566,0,0,0,0,0,0,0,0,0,-1,1539,1590,0,0
322,-566,6.07983,4.44873,0,0,0,0,0,0,0,-1,1546,1590,6.07983,-4.44873
329,-566,5.77026,3.47534,0,0,0,0,0,0,0,-1,1553,1590,5.77026,-3.47535
336,-566,5.41138,2.62915,0,0,0,0,0,0,0,-1,1560,1590,5.41138,-2.62909
343,-566,4.81873,1.79089,0,0,0,0,0,0,0,-1,1567,1590,4.81878,-1.79095
350,-566,4.41663,2.44214,0,0,0,0,0,0,0,-1,1574,1590,4.41666,-2.44214
357,-566,6.34058,5.18579,0,0,0,0,0,0,0,-1,1581,1590,6.34059,-5.1858
364,-566,6.06262,4.20251,0,0,0,0,0,0,0,-1,1588,1590,6.06259,-4.20246
371,-566,5.78455,3.21912,0,0,0,0,0,0,0,-1,1595,1590,5.7846,-3.21912
378,-566,5.7439,0.695557,0,0,0,0,0,0,0,-1,1602,1590,5.74392,-0.695531
385,-566,5.67615,-0.573975,0,0,0,0,0,0,0,-1,1609,1590,5.67612,0.573956
392,-566,5.78638,1.82434,0,0,0,0,0,0,0,-1,1616,1590,5.78637,-1.82439
399,-566,5.36621,1.7373,0,0,0,0,0,0,0,-1,1623,1590,5.36627,-1.7373
406,-566,4.30359,5.26868,0,0,0,0,0,0,0,-1,1630,1590,4.30364,-5.26867
413,-566,4.27124,5.79492,0,0,0,0,0,0,0,-1,1637,1590,4.27123,-5.7949
420,-566,7.19812,8.25146,0,0,0,0,0,0,0,-1,1644,1590,7.19817,-8.25149
427,-566,10.455,10.6842,0,0,0,0,0,0,0,-1,1651,1590,10.455,-10.6842
434,-566,9.18567,14.3304,0,0,0,0,0,0,0,-1,1658,1590,9.18571,-14.3305
441,-566,9.85425,16.2179,0,0,0,0,0,0,0,-1,1665,1590,9.8543,-16.2179
448,-566,9.57471,15.6591,0.0024033,-0.0211707,0.013614,0.00862394,-0.0273913,0.428601,0.0217141,0.0401545,1672,1590,9.57469,-15.6591
455,-566,9.52869,15.7747,0.00108515,-0.0182673,0.0121896,0.00697225,-0.0241544,0.449922,0.0188615,0.0317104,1679,1590,9.52874,-15.7747
462,-566,9.56116,15.6385,8.42137e-05,-0.0152636,0.0105824,0.00548225,-0.0206616,0.471692,0.0159197,0.0185727,1686,1590,9.5611,-15.6386
469,-566,9.59473,15.3022,-0.000591507,-0.0129123,0.00913527,0.00426642,-0.0177703,0.488745,0.0134957,0.0125019,1693,1590,9.59476,-15.3023
476,-566,9.61523,15.0557,-0.00101805,-0.0107307,0.00778478,0.00330095,-0.0150497,0.506522,0.0112954,0.0104516,1700,1590,9.61522,-15.0556
483,-566,9.60242,14.8164,-0.00119549,-0.0085833,0.00646383,0.00255547,-0.0123343,0.525808,0.00919382,0.0103704,1707,1590,9.60236,-14.8164
490,-566,9.57568,14.5687,-0.00112489,-0.00653034,0.00515559,0.00199345,-0.00964868,0.543976,0.00718965,0.0111958,1714,1590,9.57567,-14.5687
497,-566,9.59937,14.3248,-0.000925021,-0.0047131,0.00383875,0.00146152,-0.00709964,0.556221,0.00528802,0.0146147,1721,1590,9.59937,-14.3248
504,-566,9.63013,14.0956,-0.000994136,-0.00286936,0.0028239,0.00104374,-0.00490724,0.62511,0.00366922,0.0189004,1728,1590,9.63012,-14.0956
511,-566,9.63074,13.8376,-0.000940595,-0.00135397,0.00169391,0.000559187,-0.00285375,0.724689,0.0021137,0.018515,1735,1590,9.63079,-13.8377
518,-566,9.62793,13.5737,-0.000767203,-0.000220073,0.000759451,0.000313582,-0.00130086,0.958271,0.000988487,0.0113701,1742,1590,9.62794,-13.5738
525,-566,9.61414,13.2878,-0.000756119,0.000684946,8.08847e-05,0.000689472,-0.000760645,1.5149,0.000837561,0.0110487,1749,1590,9.6141,-13.2878
532,-566,9.59497,13.0342,-0.00105635,0.00142793,-0.000371211,0.00148221,-0.00111063,-1.4256,0.00150209,0.0126081,1756,1590,9.59502,-13.0342
539,-566,9.59314,12.7633,-0.00152197,0.00164088,-0.000524579,0.00172562,-0.00160671,-1.41065,0.00192433,0.0165539,1763,1590,9.59315,-12.7633
546,-566,9.63623,12.444,-0.00218891,0.0019424,-0.000420487,0.00198476,-0.00223127,-1.47039,0.00243552,0.021183,1770,1590,9.63619,-12.444
553,-566,9.62854,12.2571,-0.00269179,0.00179315,-0.000169945,0.00179958,-0.00269822,-1.53298,0.00261402,0.0386575,1777,1590,9.62854,-12.257
560,-566,9.43103,12.1443,0,0,0,0,0,0,0,-1,1784,1590,9.43101,-12.1443
567,-566,9.55786,11.999,0,0,0,0,0,0,0,-1,1791,1590,9.55792,-11.999
574,-566,7.99548,3.14514,0,0,0,0,0,0,0,-1,1798,1590,7.99543,-3.14511
581,-566,2.54102,5.1311,0,0,0,0,0,0,0,-1,1805,1590,2.54099,-5.13111
588,-566,-1.91321,8.39197,0,0,0,0,0,0,0,-1,1812,1590,-1.91316,-8.39199
595,-566,9.0271,4.66467,0,0,0,0,0,0,0,-1,1819,1590,9.02705,-4.66468
602,-566,9.953,3.54895,0,0,0,0,0,0,0,-1,1826,1590,9.953,-3.54898
609,-566,0,0,0,0,0,0,0,0,0,-1,1833,1590,0,0
616,-566,0,0,0,0,0,0,0,0,0,-1,1840,1590,0,0
623,-566,0,0,0,0,0,0,0,0,0,-1,1847,1590,0,0
630,-566,0,0,0,0,0,0,0,0,0,-1,1854,1590,0,0
637,-566,0,0,0,0,0,0,0,0,0,-1,1861,1590,0,0
644,-566,0,0,0,0,0,0,0,0,0,-1,1868,1590,0,0
651,-566,0,0,0,0,0,0,0,0,0,-1,1875,1590,0,0
658,-566,0,0,0,0,0,0,0,0,0,-1,1882,1590,0,0
665,-566,0,0,0,0,0,0,0,0,0,-1,1889,1590,0,0
672,-566,0,0,0,0,0,0,0,0,0,-1,1896,1590,0,0
679,-566,0,0,0,0,0,0,0,0,0,-1,1903,1590,0,0
686,-566,0,0,0,0,0,0,0,0,0,-1,1910,1590,0,0
693,-566,0,0,0,0,0,0,0,0,0,-1,1917,1590,0,0
700,-566,0,0,0,0,0,0,0,0,0,-1,1924,1590,0,0
707,-566,0,0,0,0,0,0,0,0,0,-1,1931,1590,0,0
714,-566,0,0,0,0,0,0,0,0,0,-1,1938,1590,0,0
721,-566,0,0,0,0,0,0,0,0,0,-1,1945,1590,0,0
728,-566,0,0,0,0,0,0,0,0,0,-1,1952,1590,0,0
735,-566,0,0,0,0,0,0,0,0,0,-1,1959,1590,0,0
742,-566,0,0,0,0,0,0,0,0,0,-1,1966,1590,0,0
749,-566,0,0,0,0,0,0,0,0,0,-1,1973,1590,0,0
756,-566,0,0,0,0,0,0,0,0,0,-1,1980,1590,0,0
763,-566,0,0,0,0,0,0,0,0,0,-1,1987,1590,0,0
770,-566,0,0,0,0,0,0,0,0,0,-1,1994,1590,0,0
777,-566,0,0,0,0,0,0,0,0,0,-1,2001,1590,0,0
784,-566,0,0,0,0,0,0,0,0,0,-1,2008,1590,0,0
791,-566,0,0,0,0,0,0,0,0,0,-1,2015,1590,0,0
798,-566,0,0,0,0,0,0,0,0,0,-1,2022,1590,0,0
805,-566,0,0,0,0,0,0,0,0,0,-1,2029,1590,0,0
812,-566,0,0,0,0,0,0,0,0,0,-1,2036,1590,0,0
-700,-573,0,0,0,0,0,0,0,0,0,-1,524,1597,0,0
-693,-573,0,0,0,0,0,0,0,0,0,-1,531,1597,0,0
-686,-573,0,0,0,0,0,0,0,0,0,-1,538,1597,0,0
-679,-573,0,0,0,0,0,0,0,0,0,-1,545,1597,0,0
-672,-573,0,0,0,0,0,0,0,0,0,-1,552,1597,0,0
-665,-573,0,0,0,0,0,0,0,0,0,-1,559,1597,0,0
-658,-573,0,0,0,0,0,0,0,0,0,-1,566,1597,0,0
-651,-573,0,0,0,0,0,0,0,0,0,-1,573,1597,0,0
-644,-573,0,0,0,0,0,0,0,0,0,-1,580,1597,0,0
-637,-573,0,0,0,0,0,0,0,0,0,-1,587,1597,0,0
-630,-573,0,0,0,0,0,0,0,0,0,-1,594,1597,0,0
-623,-573,0,0,0,0,0,0,0,0,0,-1,601,1597,0,0
-616,-573,0,0,0,0,0,0,0,0,0,-1,608,1597,0,0
-609,-573,0,0,0,0,0,0,0,0,0,-1,615,1597,0,0
-602,-573,0,0,0,0,0,0,0,0,0,-1,622,1597,0,0
-595,-573,0,0,0,0,0,0,0,0,0,-1,629,1597,0,0
-588,-573,0,0,0,0,0,0,0,0,0,-1,636,1597,0,0
-581,-573,0,0,0,0,0,0,0,0,0,-1,643,1597,0,0
-574,-573,0,0,0,0,0,0,0,0,0,-1,650,1597,0,0
-567,-573,0,0,0,0,0,0,0,0,0,-1,657,1597,0,0
-560,-573,0,0,0,0,0,0,0,0,0,-1,664,1597,0,0
-553,-573,0,0,0,0,0,0,0,0,0,-1,671,1597,0,0
-546,-573,0,0,0,0,0,0,0,0,0,-1,678,1597,0,0
-539,-573,0,0,0,0,0,0,0,0,0,-1,685,1597,0,0
-532,-573,0,0,0,0,0,0,0,0,0,-1,692,1597,0,0
-525,-573,0,0,0,0,0,0,0,0,0,-1,699,1597,0,0
-518,-573,0,0,0,0,0,0,0,0,0,-1,706,1597,0,0
-511,-573,0,0,0,0,0,0,0,0,0,-1,713,1597,0,0
-504,-573,0,0,0,0,0,0,0,0,0,-1,720,1597,0,0
-497,-573,0,0,0,0,0,0,0,0,0,-1,727,1597,0,0
-490,-573,0,0,0,0,0,0,0,0,0,-1,734,1597,0,0
-483,-573,0,0,0,0,0,0,0,0,0,-1,741,1597,0,0
-476,-573,-9.3327,0.972778,0,0,0,0,0,0,0,-1,748,1597,-9.33268,-0.972776
-469,-573,-1.41681,1.13379,0,0,0,0,0,0,0,-1,755,1597,-1.41681,-1.13382
-462,-573,-0.748535,2.02588,0,0,0,0,0,0,0,-1,762,1597,-0.748533,-2.02584
-455,-573,-0.112976,2.70703,0,0,0,0,0,0,0,-1,769,1597,-0.112988,-2.70697
-448,-573,-1.26172,3.33252,0,0,0,0,0,0,0,-1,776,1597,-1.26173,-3.33248
-441,-573,0.108582,5.06726,0,0,0,0,0,0,0,-1,783,1597,0.108584,-5.06721
-434,-573,1.61768,7.05444,0,0,0,0,0,0,0,-1,790,1597,1.61767,-7.05446
-427,-573,0.603821,10.3762,0,0,0,0,0,0,0,-1,797,1597,0.603811,-10.3762
-420,-573,0.804871,10.9087,0.0061073,0.00652042,0.0073376,0.0136544,-0.00102664,0.79947,0.00946371,0.0463196,804,1597,0.804884,-10.9087
-413,-573,1.34247,11.1125,0.00437598,0.00414325,0.00532548,0.00958637,-0.00106713,0.774474,0.0067747,0.0423818,811,1597,1.34246,-11.1125
-406,-573,1.20923,11.416,0.00328202,0.00220802,0.00368361,0.00646756,-0.000977523,0.713018,0.00467176,0.0206702,818,1597,1.20925,-11.416
-399,-573,1.17883,11.7389,0.00233059,0.0012861,0.00240783,0.00427216,-0.000655476,0.678606,0.00308986,0.0107675,825,1597,1.1788,-11.7389
-392,-573,1.19189,12.0211,0.00156467,0.000657925,0.00171221,0.00288251,-0.000659919,0.655974,0.00217527,0.0108637,832,1597,1.19188,-12.0211
-385,-573,1.18732,12.306,0.00109875,-8.23032e-05,0.000996228,0.00166632,-0.000649876,0.517859,0.00137951,0.0129039,839,1597,1.18735,-12.306
-378,-573,1.18237,12.5896,0.000791419,-0.000138504,0.000647954,0.00112397,-0.000471059,0.474183,0.000946261,0.0155457,846,1597,1.18238,-12.5896
-371,-573,1.17981,12.8929,0.000561035,-0.000118664,0.000375692,0.000727784,-0.000285413,0.417724,0.000603269,0.0170054,853,1597,1.17981,-12.893
-364,-573,1.16241,13.1616,0.000264491,-1.17946e-05,0.000100381,0.00029711,-4.44139e-05,0.314193,0.000214417,0.0190609,860,1597,1.1624,-13.1616
-357,-573,1.18658,13.3975,0.000409798,0.000119721,-8.87231e-05,0.000434783,9.4736e-05,-0.274496,0.000264005,0.0211994,867,1597,1.18657,-13.3974
-350,-573,1.16376,13.6832,0.000707975,0.000386026,-0.000289967,0.000878653,0.000215348,-0.532004,0.00052881,0.0177361,874,1597,1.16378,-13.6832
-343,-573,1.16046,13.9409,0.000671674,0.000815311,-0.00051109,0.0012596,0.00022738,-0.855201,0.00077514,0.0225053,881,1597,1.16043,-13.941
-336,-573,1.14191,14.233,0.000455142,0.00105613,-0.000934027,0.00173681,-0.000225538,-0.941029,0.00123991,0.016742,888,1597,1.14189,-14.233
-329,-573,1.1626,14.4915,0.000309496,0.00148226,-0.0012427,0.00226998,-0.000478223,-1.00584,0.00169536,0.0162283,895,1597,1.16262,-14.4915
-322,-573,1.16968,14.7644,-0.000167458,0.00185312,-0.00163587,0.00276553,-0.00107987,-1.06202,0.00229014,0.0128964,902,1597,1.1697,-14.7644
-315,-573,1.24377,15.1075,-0.000984053,0.00219081,-0.00222109,0.00333343,-0.00212667,-1.09566,0.00317795,0.0226385,909,1597,1.24376,-15.1075
-308,-573,1.2525,15.234,-0.00199061,0.00265378,-0.0030244,0.00414467,-0.00348149,-1.1128,0.00440851,0.0340713,916,1597,1.25253,-15.234
-301,-573,1.36066,15.369,-0.00306247,0.00280112,-0.00363577,0.0045399,-0.00480125,-1.12471,0.00539382,0.0323606,923,1597,1.36064,-15.369
-294,-573,1.242,15.6665,-0.0043416,0.00220689,-0.00456394,0.0045496,-0.00668432,-1.09656,0.00652483,0.0347249,930,1597,1.24199,-15.6665
-287,-573,0.907166,15.7592,-0.00576851,0.00180344,-0.00570386,0.00486345,-0.00882853,-1.07839,0.0080148,0.0434206,937,1597,0.907159,-15.7591
-280,-573,0.577209,15.8899,0,0,0,0,0,0,0,-1,944,1597,0.577185,-15.8899
-273,-573,-0.225037,10.6533,0,0,0,0,0,0,0,-1,951,1597,-0.225018,-10.6533
-266,-573,1.31116,7.1814,0,0,0,0,0,0,0,-1,958,1597,1.31118,-7.18142
-259,-573,1.2514,6.70959,0,0,0,0,0,0,0,-1,965,1597,1.25137,-6.70965
-252,-573,2.07874,5.27161,0,0,0,0,0,0,0,-1,972,1597,2.07875,-5.27157
-245,-573,-10.2592,1.09827,0,0,0,0,0,0,0,-1,979,1597,-10.2592,-1.09823
-238,-573,-11.5463,4.44141,0,0,0,0,0,0,0,-1,986,1597,-11.5463,-4.44146
-231,-573,-9.23431,4.14539,0,0,0,0,0,0,0,-1,993,1597,-9.23431,-4.14534
-224,-573,-6.70044,7.40857,0,0,0,0,0,0,0,-1,1000,1597,-6.70045,-7.40851
-217,-573,-4.25824,8.59119,0,0,0,0,0,0,0,-1,1007,1597,-4.25824,-8.59122
-210,-573,-2.39661,9.73914,0,0,0,0,0,0,0,-1,1014,1597,-2.39658,-9.73915
-203,-573,-0.557373,10.9005,0,0,0,0,0,0,0,-1,1021,1597,-0.557387,-10.9006
-196,-573,-1.65344,9.02246,0,0,0,0,0,0,0,-1,1028,1597,-1.65349,-9.02241
-189,-573,-6.12915,6.66882,0,0,0,0,0,0,0,-1,1035,1597,-6.12913,-6.66884
-182,-573,0,0,0,0,0,0,0,0,0,-1,1042,1597,0,0
-175,-573,0,0,0,0,0,0,0,0,0,-1,1049,1597,0,0
-168,-573,0,0,0,0,0,0,0,0,0,-1,1056,1597,0,0
-161,-573,0,0,0,0,0,0,0,0,0,-1,1063,1597,0,0
-154,-573,0,0,0,0,0,0,0,0,0,-1,1070,1597,0,0
-147,-573,0,0,0,0,0,0,0,0,0,-1,1077,1597,0,0
-140,-573,0,0,0,0,0,0,0,0,0,-1,1084,1597,0,0
-133,-573,0,0,0,0,0,0,0,0,0,-1,1091,1597,0,0
-126,-573,0,0,0,0,0,0,0,0,0,-1,1098,1597,0,0
-119,-573,0,0,0,0,0,0,0,0,0,-1,1105,1597,0,0
-112,-573,0,0,0,0,0,0,0,0,0,-1,1112,1597,0,0
-105,-573,0,0,0,0,0,0,0,0,0,-1,1119,1597,0,0
-98,-573,0,0,0,0,0,0,0,0,0,-1,1126,1597,0,0
-91,-573,0,0,0,0,0,0,0,0,0,-1,1133,1597,0,0
-84,-573,0,0,0,0,0,0,0,0,0,-1,1140,1597,0,0
-77,-573,0,0,0,0,0,0,0,0,0,-1,1147,1597,0,0
-70,-573,0,0,0,0,0,0,0,0,0,-1,1154,1597,0,0
-63,-573,0,0,0,0,0,0,0,0,0,-1,1161,1597,0,0
-56,-573,0,0,0,0,0,0,0,0,0,-1,1168,1597,0,0
-49,-573,0,0,0,0,0,0,0,0,0,-1,1175,1597,0,0
-42,-573,0,0,0,0,0,0,0,0,0,-1,1182,1597,0,0
-35,-573,0,0,0,0,0,0,0,0,0,-1,1189,1597,0,0
-28,-573,0,0,0,0,0,0,0,0,0,-1,1196,1597,0,0
-21,-573,0,0,0,0,0,0,0,0,0,-1,1203,1597,0,0
-14,-573,0,0,0,0,0,0,0,0,0,-1,1210,1597,0,0
-7,-573,0,0,0,0,0,0,0,0,0,-1,1217,1597,0,0
0,-573,0,0,0,0,0,0,0,0,0,-1,1224,1597,0,0
7,-573,0,0,0,0,0,0,0,0,0,-1,1231,1597,0,0
14,-573,0,0,0,0,0,0,0,0,0,-1,1238,1597,0,0
21,-573,0,0,0,0,0,0,0,0,0,-1,1245,1597,0,0
28,-573,0,0,0,0,0,0,0,0,0,-1,1252,1597,0,0
35,-573,0,0,0,0,0,0,0,0,0,-1,1259,1597,0,0
42,-573,0,0,0,0,0,0,0,0,0,-1,1266,1597,0,0
49,-573,0,0,0,0,0,0,0,0,0,-1,1273,1597,0,0
56,-573,0,0,0,0,0,0,0,0,0,-1,1280,1597,0,0
63,-573,0,0,0,0,0,0,0,0,0,-1,1287,1597,0,0
70,-573,0,0,0,0,0,0,0,0,0,-1,1294,1597,0,0
77,-573,0,0,0,0,0,0,0,0,0,-1,1301,1597,0,0
84,-573,0,0,0,0,0,0,0,0,0,-1,1308,1597,0,0
91,-573,0,0,0,0,0,0,0,0,0,-1,1315,1597,0,0
98,-573,0,0,0,0,0,0,0,0,0,-1,1322,1597,0,0
105,-573,0,0,0,0,0,0,0,0,0,-1,1329,1597,0,0
112,-573,0,0,0,0,0,0,0,0,0,-1,1336,1597,0,0
119,-573,0,0,0,0,0,0,0,0,0,-1,1343,1597,0,0
126,-573,0,0,0,0,0,0,0,0,0,-1,1350,1597,0,0
133,-573,0,0,0,0,0,0,0,0,0,-1,1357,1597,0,0
140,-573,0,0,0,0,0,0,0,0,0,-1,1364,1597,0,0
147,-573,0,0,0,0,0,0,0,0,0,-1,1371,1597,0,0
154,-573,0,0,0,0,0,0,0,0,0,-1,1378,1597,0,0
161,-573,0,0,0,0,0,0,0,0,0,-1,1385,1597,0,0
168,-573,0,0,0,0,0,0,0,0,0,-1,1392,1597,0,0
175,-573,0,0,0,0,0,0,0,0,0,-1,1399,1597,0,0
182,-573,0,0,0,0,0,0,0,0,0,-1,1406,1597,0,0
189,-573,0,0,0,0,0,0,0,0,0,-1,1413,1597,0,0
196,-573,0,0,0,0,0,0,0,0,0,-1,1420,1597,0,0
203,-573,0,0,0,0,0,0,0,0,0,-1,1427,1597,0,0
210,-573,0,0,0,0,0,0,0,0,0,-1,1434,1597,0,0
217,-573,0,0,0,0,0,0,0,0,0,-1,1441,1597,0,0
224,-573,0,0,0,0,0,0,0,0,0,-1,1448,1597,0,0
231,-573,0,0,0,0,0,0,0,0,0,-1,1455,1597,0,0
238,-573,0,0,0,0,0,0,0,0,0,-1,1462,1597,0,0
245,-573,0,0,0,0,0,0,0,0,0,-1,1469,1597,0,0
252,-573,0,0,0,0,0,0,0,0,0,-1,1476,1597,0,0
259,-573,0,0,0,0,0,0,0,0,0,-1,1483,1597,0,0
266,-573,0,0,0,0,0,0,0,0,0,-1,1490,1597,0,0
273,-573,0,0,0,0,0,0,0,0,0,-1,1497,1597,0,0
280,-573,0,0,0,0,0,0,0,0,0,-1,1504,1597,0,0
287,-573,0,0,0,0,0,0,0,0,0,-1,1511,1597,0,0
294,-573,0,0,0,0,0,0,0,0,0,-1,1518,1597,0,0
301,-573,0,0,0,0,0,0,0,0,0,-1,1525,1597,0,0
308,-573,5.93042,9.71143,0,0,0,0,0,0,0,-1,1532,1597,5.93046,-9.71144
315,-573,4.34204,11.719,0,0,0,0,0,0,0,-1,1539,1597,4.34205,-11.719
322,-573,10.3269,7.77563,0,0,0,0,0,0,0,-1,1546,1597,10.327,-7.77565
329,-573,4.99573,3.80273,0,0,0,0,0,0,0,-1,1553,1597,4.9957,-3.80273
336,-573,4.85693,2.53455,0,0,0,0,0,0,0,-1,1560,1597,4.8569,-2.53459
343,-573,5.5946,2.15894,0,0,0,0,0,0,0,-1,1567,1597,5.59456,-2.1589
350,-573,2.53748,1.56433,0,0,0,0,0,0,0,-1,1574,1597,2.53753,-1.5643
357,-573,7.40247,4.03613,0,0,0,0,0,0,0,-1,1581,1597,7.40244,-4.03614
364,-573,7.14551,3.02087,0,0,0,0,0,0,0,-1,1588,1597,7.14556,-3.02084
371,-573,6.88867,2.00549,0,0,0,0,0,0,0,-1,1595,1597,6.88868,-2.00553
378,-573,8.62012,6.09106,0,0,0,0,0,0,0,-1,1602,1597,8.62012,-6.09103
385,-573,6.54346,-0.951904,0,0,0,0,0,0,0,-1,1609,1597,6.54349,0.951901
392,-573,6.41833,-2.18225,0,0,0,0,0,0,0,-1,1616,1597,6.41831,2.18228
399,-573,4.26282,4.73657,0,0,0,0,0,0,0,-1,1623,1597,4.26285,-4.73652
406,-573,6.82715,10.823,0,0,0,0,0,0,0,-1,1630,1597,6.82719,-10.823
413,-573,8.90552,13.1737,0,0,0,0,0,0,0,-1,1637,1597,8.90553,-13.1737
420,-573,9.97437,16.7225,0,0,0,0,0,0,0,-1,1644,1597,9.97437,-16.7226
427,-573,9.96143,15.9235,0,0,0,0,0,0,0,-1,1651,1597,9.96144,-15.9235
434,-573,9.50818,16.2887,0,0,0,0,0,0,0,-1,1658,1597,9.50823,-16.2887
441,-573,9.49133,16.1548,0.00195505,-0.0173171,0.0116598,0.00744527,-0.0228074,0.440071,0.0182015,0.0348278,1665,1597,9.49136,-16.1547
448,-573,9.34302,16.0698,0.00142508,-0.014978,0.0100844,0.00622203,-0.0197749,0.444002,0.0156745,0.0231089,1672,1597,9.34303,-16.0699
455,-573,9.32703,15.8152,0.000610095,-0.0128371,0.00879425,0.00495652,-0.0171835,0.459025,0.0134166,0.017727,1679,1597,9.32699,-15.8152
462,-573,9.35767,15.5214,8.63813e-06,-0.0105591,0.00738503,0.0038054,-0.0143559,0.474876,0.0110595,0.0172744,1686,1597,9.35766,-15.5214
469,-573,9.36047,15.2653,-0.000382524,-0.00882474,0.00617122,0.00287312,-0.0120804,0.485445,0.00916269,0.0148247,1693,1597,9.3605,-15.2653
476,-573,9.38806,15.0389,-0.000649712,-0.00720761,0.00507571,0.00211405,-0.00997137,0.498616,0.00745288,0.0145223,1700,1597,9.38808,-15.0389
483,-573,9.37866,14.8125,-0.000765939,-0.00558028,0.00402338,0.00151539,-0.00786161,0.515816,0.00581243,0.0111714,1707,1597,9.37861,-14.8125
490,-573,9.34717,14.5653,-0.000684404,-0.00397812,0.00299032,0.00108255,-0.00574508,0.533696,0.00423726,0.0102677,1714,1597,9.34714,-14.5653
497,-573,9.33826,14.309,-0.000532542,-0.0025707,0.00195905,0.000656633,-0.00375987,0.545564,0.0027517,0.0158411,1721,1597,9.33829,-14.309
504,-573,9.36218,14.0641,-0.000634172,-0.00115039,0.00123276,0.00036721,-0.00215177,0.682202,0.00157128,0.0168308,1728,1597,9.36221,-14.0641
511,-573,9.37646,13.8016,-0.000621824,-2.93922e-05,0.000452299,0.000215056,-0.000866273,1.07531,0.000660968,0.0182785,1735,1597,9.37651,-13.8017
518,-573,9.37512,13.5724,-0.000600155,0.000794659,-0.000118066,0.000804582,-0.000610079,-1.48694,0.000819324,0.0146231,1742,1597,9.37509,-13.5724
525,-573,9.37366,13.3171,-0.000884974,0.00137394,-0.000378623,0.00143571,-0.000946747,-1.40907,0.00138513,0.0170795,1749,1597,9.37362,-13.3171
532,-573,9.37512,13.047,-0.00147529,0.00189112,-0.000463342,0.00195373,-0.00153789,-1.43649,0.00202065,0.0153127,1756,1597,9.37511,-13.047
539,-573,9.34351,12.7902,-0.00228391,0.00176558,-0.00019155,0.00177462,-0.00229295,-1.52363,0.00235476,0.0235064,1763,1597,9.34348,-12.7902
546,-573,9.37292,12.524,-0.00339869,0.00188357,0.000343422,0.0019058,-0.00342092,1.50614,0.00311658,0.0388804,1770,1597,9.37291,-12.5241
553,-573,9.00684,12.2106,-0.0046053,0.00180492,0.000869301,0.00192071,-0.00472109,1.43837,0.00394663,0.0490336,1777,1597,9.00679,-12.2106
560,-573,8.74438,11.9913,0,0,0,0,0,0,0,-1,1784,1597,8.74435,-11.9913
567,-573,4.99597,2.77759,0,0,0,0,0,0,0,-1,1791,1597,4.99596,-2.7776
574,-573,0.83374,5.7041,0,0,0,0,0,0,0,-1,1798,1597,0.833718,-5.70405
581,-573,-0.224854,7.41602,0,0,0,0,0,0,0,-1,1805,1597,-0.224904,-7.41596
588,-573,-0.134033,7.67065,0,0,0,0,0,0,0,-1,1812,1597,-0.134037,-7.67063
595,-573,-0.0825195,8.35083,0,0,0,0,0,0,0,-1,1819,1597,-0.0824684,-8.35088
602,-573,0,0,0,0,0,0,0,0,0,-1,1826,1597,0,0
609,-573,0,0,0,0,0,0,0,0,0,-1,1833,1597,0,0
616,-573,0,0,0,0,0,0,0,0,0,-1,1840,1597,0,0
623,-573,0,0,0,0,0,0,0,0,0,-1,1847,1597,0,0
630,-573,0,0,0,0,0,0,0,0,0,-1,1854,1597,0,0
637,-573,0,0,0,0,0,0,0,0,0,-1,1861,1597,0,0
644,-573,0,0,0,0,0,0,0,0,0,-1,1868,1597,0,0
651,-573,0,0,0,0,0,0,0,0,0,-1,1875,1597,0,0
658,-573,0,0,0,0,0,0,0,0,0,-1,1882,1597,0,0
665,-573,0,0,0,0,0,0,0,0,0,-1,1889,1597,0,0
672,-573,0,0,0,0,0,0,0,0,0,-1,1896,1597,0,0
679,-573,0,0,0,0,0,0,0,0,0,-1,1903,1597,0,0
686,-573,0,0,0,0,0,0,0,0,0,-1,1910,1597,0,0
693,-573,0,0,0,0,0,0,0,0,0,-1,1917,1597,0,0
700,-573,0,0,0,0,0,0,0,0,0,-1,1924,1597,0,0
707,-573,0,0,0,0,0,0,0,0,0,-1,1931,1597,0,0
714,-573,0,0,0,0,0,0,0,0,0,-1,1938,1597,0,0
721,-573,0,0,0,0,0,0,0,0,0,-1,1945,1597,0,0
728,-573,0,0,0,0,0,0,0,0,0,-1,1952,1597,0,0
735,-573,0,0,0,0,0,0,0,0,0,-1,1959,1597,0,0
742,-573,0,0,0,0,0,0,0,0,0,-1,1966,1597,0,0
749,-573,0,0,0,0,0,0,0,0,0,-1,1973,1597,0,0
756,-573,0,0,0,0,0,0,0,0,0,-1,1980,1597,0,0
763,-573,0,0,0,0,0,0,0,0,0,-1,1987,1597,0,0
770,-573,0,0,0,0,0,0,0,0,0,-1,1994,1597,0,0
777,-573,0,0,0,0,0,0,0,0,0,-1,2001,1597,0,0
784,-573,0,0,0,0,0,0,0,0,0,-1,2008,1597,0,0
791,-573,0,0,0,0,0,0,0,0,0,-1,2015,1597,0,0
798,-573,0,0,0,0,0,0,0,0,0,-1,2022,1597,0,0
805,-573,0,0,0,0,0,0,0,0,0,-1,2029,1597,0,0
812,-573,0,0,0,0,0,0,0,0,0,-1,2036,1597,0,0
-700,-580,0,0,0,0,0,0,0,0,0,-1,524,1604,0,0
-693,-580,0,0,0,0,0,0,0,0,0,-1,531,1604,0,0
-686,-580,0,0,0,0,0,0,0,0,0,-1,538,1604,0,0
-679,-580,0,0,0,0,0,0,0,0,0,-1,545,1604,0,0
-672,-580,0,0,0,0,0,0,0,0,0,-1,552,1604,0,0
-665,-580,0,0,0,0,0,0,0,0,0,-1,559,1604,0,0
-658,-580,0,0,0,0,0,0,0,0,0,-1,566,1604,0,0
-651,-580,0,0,0,0,0,0,0,0,0,-1,573,1604,0,0
-644,-580,0,0,0,0,0,0,0,0,0,-1,580,1604,0,0
-637,-580,0,0,0,0,0,0,0,0,0,-1,587,1604,0,0
-630,-580,0,0,0,0,0,0,0,0,0,-1,594,1604,0,0
-623,-580,0,0,0,0,0,0,0,0,0,-1,601,1604,0,0
-616,-580,0,0,0,0,0,0,0,0,0,-1,608,1604,0,0
-609,-580,0,0,0,0,0,0,0,0,0,-1,615,1604,0,0
-602,-580,0,0,0,0,0,0,0,0,0,-1,622,1604,0,0
-595,-580,0,0,0,0,0,0,0,0,0,-1,629,1604,0,0
-588,-580,0,0,0,0,0,0,0,0,0,-1,636,1604,0,0
-581,-580,0,0,0,0,0,0,0,0,0,-1,643,1604,0,0
-574,-580,0,0,0,0,0,0,0,0,0,-1,650,1604,0,0
-567,-580,0,0,0,0,0,0,0,0,0,-1,657,1604,0,0
-560,-580,0,0,0,0,0,0,0,0,0,-1,664,1604,0,0
-553,-580,0,0,0,0,0,0,0,0,0,-1,671,1604,0,0
-546,-580,0,0,0,0,0,0,0,0,0,-1,678,1604,0,0
-539,-580,0,0,0,0,0,0,0,0,0,-1,685,1604,0,0
-532,-580,0,0,0,0,0,0,0,0,0,-1,692,1604,0,0
-525,-580,0,0,0,0,0,0,0,0,0,-1,699,1604,0,0
-518,-580,0,0,0,0,0,0,0,0,0,-1,706,1604,0,0
-511,-580,0,0,0,0,0,0,0,0,0,-1,713,1604,0,0
-504,-580,0,0,0,0,0,0,0,0,0,-1,720,1604,0,0
-497,-580,0,0,0,0,0,0,0,0,0,-1,727,1604,0,0
-490,-580,0,0,0,0,0,0,0,0,0,-1,734,1604,0,0
-483,-580,0,0,0,0,0,0,0,0,0,-1,741,1604,0,0
-476,-580,0,0,0,0,0,0,0,0,0,-1,748,1604,0,0
-469,-580,-1.69189,-0.38916,0,0,0,0,0,0,0,-1,755,1604,-1.69192,0.389188
-462,-580,-0.859863,0.675293,0,0,0,0,0,0,0,-1,762,1604,-0.859834,-0.675245
-455,-580,-0.730164,0.651978,0,0,0,0,0,0,0,-1,769,1604,-0.730153,-0.651957
-448,-580,-3.31891,2.07544,0,0,0,0,0,0,0,-1,776,1604,-3.3189,-2.07539
-441,-580,-1.63843,3.9469,0,0,0,0,0,0,0,-1,783,1604,-1.63842,-3.94695
-434,-580,0.23291,5.97876,0,0,0,0,0,0,0,-1,790,1604,0.232901,-5.97878
-427,-580,1.62756,8.05493,0,0,0,0,0,0,0,-1,797,1604,1.62758,-8.05488
-420,-580,1.08496,10.5962,0,0,0,0,0,0,0,-1,804,1604,1.08498,-10.5962
-413,-580,1.73077,11.0774,0,0,0,0,0,0,0,-1,811,1604,1.73077,-11.0775
-406,-580,1.60059,11.4403,0.00420125,0.00228829,0.00444705,0.00779352,-0.00130398,0.679471,0.00568045,0.0435993,818,1604,1.60061,-11.4403
-399,-580,1.45984,11.7546,0.00292947,0.00114582,0.00301752,0.0051842,-0.0011089,0.641714,0.00387897,0.0176802,825,1604,1.45982,-11.7546
-392,-580,1.46204,12.0284,0.00195871,0.00037992,0.00220458,0.00351096,-0.00117233,0.613475,0.00281403,0.0109798,832,1604,1.46203,-12.0284
-385,-580,1.46027,12.3037,0.00135557,-0.000432982,0.00144084,0.0021571,-0.00123451,0.50766,0.00198215,0.0109224,839,1604,1.46026,-12.3037
-378,-580,1.45001,12.5989,0.000959924,-0.000529531,0.00109766,0.00154165,-0.00111126,0.487334,0.00153836,0.0152455,846,1604,1.45002,-12.5988
-371,-580,1.44598,12.9127,0.000673681,-0.000566088,0.000807224,0.00107157,-0.000963979,0.457962,0.00117577,0.0147025,853,1604,1.44599,-12.9127
-364,-580,1.44275,13.1563,0.000332476,-0.000470294,0.00055441,0.000615547,-0.000753365,0.472077,0.000791676,0.0194636,860,1604,1.44273,-13.1563
-357,-580,1.47552,13.4211,0.000456909,-0.000345578,0.000405505,0.00062613,-0.0005148,0.39534,0.000659761,0.0132427,867,1604,1.47552,-13.4212
-350,-580,1.46625,13.7189,0.000770476,-0.000103314,0.000218318,0.000821987,-0.000154825,0.231705,0.000606226,0.0116956,874,1604,1.46625,-13.7188
-343,-580,1.4502,13.9711,0.000784883,0.000268662,8.96923e-06,0.000785039,0.000268506,0.0173678,0.000460721,0.0123549,881,1604,1.45017,-13.9711
-336,-580,1.4353,14.2024,0.000611802,0.000459173,-0.00039767,0.000940414,0.000130561,-0.690598,0.000588272,0.0195478,888,1604,1.43533,-14.2023
-329,-580,1.44983,14.4969,0.000533015,0.000877042,-0.00064439,0.00137198,3.80755e-05,-0.915827,0.00090223,0.01657,895,1604,1.44981,-14.4969
-322,-580,1.4516,14.7837,0.000177221,0.00121278,-0.000963053,0.00178842,-0.000398419,-1.03205,0.0013449,0.0180907,902,1604,1.45162,-14.7837
-315,-580,1.46027,15.0181,-0.000482884,0.00147198,-0.00151186,0.00229485,-0.00130575,-1.07236,0.00210479,0.0164328,909,1604,1.46025,-15.018
-308,-580,1.48956,15.3215,-0.00126513,0.00178577,-0.00227975,0.00300336,-0.00248272,-1.08025,0.00317214,0.0202627,916,1604,1.48958,-15.3216
-301,-580,1.54791,15.4623,-0.00203539,0.00180987,-0.00285157,0.00332642,-0.00355194,-1.08201,0.00397194,0.0181424,923,1604,1.54789,-15.4623
-294,-580,1.51398,15.6542,-0.00284107,0.00120843,-0.00362008,0.00333153,-0.00496417,-1.04038,0.00482034,0.020463,930,1604,1.51398,-15.6542
-287,-580,1.38507,15.8334,-0.00368021,0.000782366,-0.00458153,0.00364707,-0.0065449,-1.012,0.00596309,0.0394048,937,1604,1.38509,-15.8334
-280,-580,1.24469,16.0372,0,0,0,0,0,0,0,-1,944,1604,1.24467,-16.0373
-273,-580,0.581421,15.6511,0,0,0,0,0,0,0,-1,951,1604,0.581422,-15.6511
-266,-580,0.494202,8.78955,0,0,0,0,0,0,0,-1,958,1604,0.494174,-8.78958
-259,-580,1.31091,9.11536,0,0,0,0,0,0,0,-1,965,1604,1.31092,-9.11539
-252,-580,1.07629,7.74097,0,0,0,0,0,0,0,-1,972,1604,1.07627,-7.74101
-245,-580,3.80304,9.16028,0,0,0,0,0,0,0,-1,979,1604,3.80306,-9.16034
-238,-580,-10.3588,1.57556,0,0,0,0,0,0,0,-1,986,1604,-10.3588,-1.5755
-231,-580,-10.576,6.43787,0,0,0,0,0,0,0,-1,993,1604,-10.576,-6.43783
-224,-580,-8.27435,7.58972,0,0,0,0,0,0,0,-1,1000,1604,-8.27435,-7.5897
-217,-580,-5.85632,9.51221,0,0,0,0,0,0,0,-1,1007,1604,-5.85632,-9.5122
-210,-580,-3.6684,11.1569,0,0,0,0,0,0,0,-1,1014,1604,-3.66839,-11.1569
-203,-580,-1.92474,12.7845,0,0,0,0,0,0,0,-1,1021,1604,-1.92477,-12.7845
-196,-580,-2.28552,10.3289,0,0,0,0,0,0,0,-1,1028,1604,-2.28552,-10.3288
-189,-580,-4.58252,7.59058,0,0,0,0,0,0,0,-1,1035,1604,-4.58256,-7.59057
-182,-580,-5.45874,7.65942,0,0,0,0,0,0,0,-1,1042,1604,-5.45876,-7.65939
-175,-580,-6.38977,7.55005,0,0,0,0,0,0,0,-1,1049,1604,-6.38981,-7.5501
-168,-580,0,0,0,0,0,0,0,0,0,-1,1056,1604,0,0
-161,-580,0,0,0,0,0,0,0,0,0,-1,1063,1604,0,0
-154,-580,0,0,0,0,0,0,0,0,0,-1,1070,1604,0,0
-147,-580,0,0,0,0,0,0,0,0,0,-1,1077,1604,0,0
-140,-580,0,0,0,0,0,0,0,0,0,-1,1084,1604,0,0
-133,-580,0,0,0,0,0,0,0,0,0,-1,1091,1604,0,0
-126,-580,0,0,0,0,0,0,0,0,0,-1,1098,1604,0,0
-119,-580,0,0,0,0,0,0,0,0,0,-1,1105,1604,0,0
-112,-580,0,0,0,0,0,0,0,0,0,-1,1112,1604,0,0
-105,-580,0,0,0,0,0,0,0,0,0,-1,1119,1604,0,0
-98,-580,0,0,0,0,0,0,0,0,0,-1,1126,1604,0,0
-91,-580,0,0,0,0,0,0,0,0,0,-1,1133,1604,0,0
-84,-580,0,0,0,0,0,0,0,0,0,-1,1140,1604,0,0
-77,-580,0,0,0,0,0,0,0,0,0,-1,1147,1604,0,0
-70,-580,0,0,0,0,0,0,0,0,0,-1,1154,1604,0,0
-63,-580,0,0,0,0,0,0,0,0,0,-1,1161,1604,0,0
-56,-580,0,0,0,0,0,0,0,0,0,-1,1168,1604,0,0
-49,-580,0,0,0,0,0,0,0,0,0,-1,1175,1604,0,0
-42,-580,0,0,0,0,0,0,0,0,0,-1,1182,1604,0,0
-35,-580,0,0,0,0,0,0,0,0,0,-1,1189,1604,0,0
-28,-580,0,0,0,0,0,0,0,0,0,-1,1196,1604,0,0
-21,-580,0,0,0,0,0,0,0,0,0,-1,1203,1604,0,0
-14,-580,0,0,0,0,0,0,0,0,0,-1,1210,1604,0,0
-7,-580,0,0,0,0,0,0,0,0,0,-1,1217,1604,0,0
0,-580,0,0,0,0,0,0,0,0,0,-1,1224,1604,0,0
7,-580,0,0,0,0,0,0,0,0,0,-1,1231,1604,0,0
14,-580,0,0,0,0,0,0,0,0,0,-1,1238,1604,0,0
21,-580,0,0,0,0,0,0,0,0,0,-1,1245,1604,0,0
28,-580,0,0,0,0,0,0,0,0,0,-1,1252,1604,0,0
35,-580,0,0,0,0,0,0,0,0,0,-1,1259,1604,0,0
42,-580,0,0,0,0,0,0,0,0,0,-1,1266,1604,0,0
49,-580,0,0,0,0,0,0,0,0,0,-1,1273,1604,0,0
56,-580,0,0,0,0,0,0,0,0,0,-1,1280,1604,0,0
63,-580,0,0,0,0,0,0,0,0,0,-1,1287,1604,0,0
70,-580,0,0,0,0,0,0,0,0,0,-1,1294,1604,0,0
77,-580,0,0,0,0,0,0,0,0,0,-1,1301,1604,0,0
84,-580,0,0,0,0,0,0,0,0,0,-1,1308,1604,0,0
91,-580,0,0,0,0,0,0,0,0,0,-1,1315,1604,0,0
98,-580,0,0,0,0,0,0,0,0,0,-1,1322,1604,0,0
105,-580,0,0,0,0,0,0,0,0,0,-1,1329,1604,0,0
112,-580,0,0,0,0,0,0,0,0,0,-1,1336,1604,0,0
119,-580,0,0,0,0,0,0,0,0,0,-1,1343,1604,0,0
126,-580,0,0,0,0,0,0,0,0,0,-1,1350,1604,0,0
133,-580,0,0,0,0,0,0,0,0,0,-1,1357,1604,0,0
140,-580,0,0,0,0,0,0,0,0,0,-1,1364,1604,0,0
147,-580,0,0,0,0,0,0,0,0,0,-1,1371,1604,0,0
154,-580,0,0,0,0,0,0,0,0,0,-1,1378,1604,0,0
161,-580,0,0,0,0,0,0,0,0,0,-1,1385,1604,0,0
168,-580,0,0,0,0,0,0,0,0,0,-1,1392,1604,0,0
175,-580,0,0,0,0,0,0,0,0,0,-1,1399,1604,0,0
182,-580,0,0,0,0,0,0,0,0,0,-1,1406,1604,0,0
189,-580,0,0,0,0,0,0,0,0,0,-1,1413,1604,0,0
196,-580,0,0,0,0,0,0,0,0,0,-1,1420,1604,0,0
203,-580,0,0,0,0,0,0,0,0,0,-1,1427,1604,0,0
210,-580,0,0,0,0,0,0,0,0,0,-1,1434,1604,0,0
217,-580,0,0,0,0,0,0,0,0,0,-1,1441,1604,0,0
224,-580,0,0,0,0,0,0,0,0,0,-1,1448,1604,0,0
231,-580,0,0,0,0,0,0,0,0,0,-1,1455,1604,0,0
238,-580,0,0,0,0,0,0,0,0,0,-1,1462,1604,0,0
245,-580,0,0,0,0,0,0,0,0,0,-1,1469,1604,0,0
252,-580,0,0,0,0,0,0,0,0,0,-1,1476,1604,0,0
259,-580,0,0,0,0,0,0,0,0,0,-1,1483,1604,0,0
266,-580,0,0,0,0,0,0,0,0,0,-1,1490,1604,0,0
273,-580,0,0,0,0,0,0,0,0,0,-1,1497,1604,0,0
280,-580,0,0,0,0,0,0,0,0,0,-1,1504,1604,0,0
287,-580,0,0,0,0,0,0,0,0,0,-1,1511,1604,0,0
294,-580,4.0437,0.177368,0,0,0,0,0,0,0,-1,1518,1604,4.04369,-0.177371
301,-580,7.55164,8.05798,0,0,0,0,0,0,0,-1,1525,1604,7.55158,-8.05802
308,-580,5.9126,9.99341,0,0,0,0,0,0,0,-1,1532,1604,5.91255,-9.99337
315,-580,4.27356,11.9287,0,0,0,0,0,0,0,-1,1539,1604,4.27352,-11.9287
322,-580,10.2366,7.50281,0,0,0,0,0,0,0,-1,1546,1604,10.2366,-7.50282
329,-580,10.5962,8.69641,0,0,0,0,0,0,0,-1,1553,1604,10.5962,-8.69642
336,-580,3.66431,1.58862,0,0,0,0,0,0,0,-1,1560,1604,3.6643,-1.58864
343,-580,3.32227,1.39636,0,0,0,0,0,0,0,-1,1567,1604,3.32222,-1.39633
350,-580,8.71277,4.0564,0,0,0,0,0,0,0,-1,1574,1604,8.71271,-4.05638
357,-580,8.52332,3.08154,0,0,0,0,0,0,0,-1,1581,1604,8.52332,-3.08157
364,-580,8.25818,2.07605,0,0,0,0,0,0,0,-1,1588,1604,8.25812,-2.07608
371,-580,7.42114,7.14282,0,0,0,0,0,0,0,-1,1595,1604,7.42119,-7.14281
378,-580,7.9718,6.6731,0,0,0,0,0,0,0,-1,1602,1604,7.9718,-6.67307
385,-580,8.52246,6.20337,0,0,0,0,0,0,0,-1,1609,1604,8.52241,-6.20334
392,-580,6.5498,-2.15625,0,0,0,0,0,0,0,-1,1616,1604,6.54984,2.15626
399,-580,6.52625,10.7247,0,0,0,0,0,0,0,-1,1623,1604,6.52628,-10.7248
406,-580,9.42175,16.191,0,0,0,0,0,0,0,-1,1630,1604,9.42177,-16.191
413,-580,9.41638,16.6864,0,0,0,0,0,0,0,-1,1637,1604,9.41636,-16.6864
420,-580,9.48145,16.8405,0,0,0,0,0,0,0,-1,1644,1604,9.48141,-16.8405
427,-580,9.48352,16.726,0,0,0,0,0,0,0,-1,1651,1604,9.48351,-16.726
434,-580,9.23621,16.3627,0.000610902,-0.0143086,0.0105862,0.00610167,-0.0197994,0.478473,0.0156355,0.0264595,1658,1604,9.23623,-16.3626
441,-580,9.10168,16.1906,0.00097945,-0.0121762,0.00880067,0.00538888,-0.0165856,0.464474,0.0132245,0.0113575,1665,1604,9.1017,-16.1905
448,-580,9.09851,15.9856,0.00084934,-0.0104015,0.00743763,0.00454935,-0.0141015,0.461623,0.011229,0.0112492,1672,1604,9.09853,-15.9856
455,-580,9.13953,15.7705,0.00038306,-0.00878757,0.00630572,0.00359436,-0.0119989,0.471034,0.00942857,0.0185535,1679,1604,9.13959,-15.7705
462,-580,9.09619,15.5333,3.92346e-05,-0.00703956,0.00508603,0.00269621,-0.00969654,0.481412,0.00752585,0.0211918,1686,1604,9.09618,-15.5334
469,-580,9.08154,15.2698,-0.000149046,-0.00572689,0.00403497,0.00196703,-0.00784297,0.483004,0.00599292,0.0181836,1693,1604,9.08154,-15.2698
476,-580,9.13928,15.0298,-0.000287749,-0.00448092,0.0031058,0.00136288,-0.00613156,0.488504,0.00460965,0.014436,1700,1604,9.13928,-15.0298
483,-580,9.12964,14.8109,-0.000351737,-0.00320121,0.00223078,0.000870461,-0.00442341,0.501213,0.00327785,0.0122622,1707,1604,9.12961,-14.811
490,-580,9.08643,14.5823,-0.000267656,-0.00189919,0.00137967,0.000519375,-0.00268622,0.518408,0.0019867,0.0141582,1714,1604,9.08638,-14.5823
497,-580,9.07471,14.3285,-0.000170968,-0.000756474,0.000537448,0.000148288,-0.00107573,0.536012,0.000771349,0.0115612,1721,1604,9.07474,-14.3285
504,-580,9.08752,14.0535,-0.000304817,0.00035649,-3.40932e-06,0.000356507,-0.000304834,-1.56564,0.000382214,0.0165032,1728,1604,9.08753,-14.0535
511,-580,9.10913,13.8145,-0.000329778,0.00120019,-0.000547443,0.0013759,-0.000505483,-1.26023,0.0011243,0.0169614,1735,1604,9.10919,-13.8145
518,-580,9.12207,13.5724,-0.000458677,0.00182848,-0.000879504,0.00212757,-0.00075777,-1.243,0.0017273,0.0162662,1742,1604,9.12209,-13.5724
525,-580,9.10999,13.3337,-0.00104698,0.00218318,-0.000842397,0.00238967,-0.00125347,-1.33041,0.00213719,0.0179427,1749,1604,9.11002,-13.3337
532,-580,9.10828,13.0621,-0.00195551,0.0025714,-0.000660562,0.00266582,-0.00204993,-1.42882,0.00273037,0.0204752,1756,1604,9.1083,-13.0621
539,-580,9.1543,12.762,0,0,0,0,0,0,0,-1,1763,1604,9.15431,-12.7619
546,-580,9.24292,12.5295,0,0,0,0,0,0,0,-1,1770,1604,9.24294,-12.5296
553,-580,9.54224,12.0828,0,0,0,0,0,0,0,-1,1777,1604,9.54224,-12.0827
560,-580,7.09021,6.49438,0,0,0,0,0,0,0,-1,1784,1604,7.09016,-6.4944
567,-580,3.87708,4.0647,0,0,0,0,0,0,0,-1,1791,1604,3.87711,-4.06471
574,-580,2.31653,5.62952,0,0,0,0,0,0,0,-1,1798,1604,2.31654,-5.62947
581,-580,1.60876,6.67664,0,0,0,0,0,0,0,-1,1805,1604,1.60873,-6.67667
588,-580,1.38684,7.14441,0,0,0,0,0,0,0,-1,1812,1604,1.38689,-7.14443
595,-580,0,0,0,0,0,0,0,0,0,-1,1819,1604,0,0
602,-580,0,0,0,0,0,0,0,0,0,-1,1826,1604,0,0
609,-580,0,0,0,0,0,0,0,0,0,-1,1833,1604,0,0
616,-580,0,0,0,0,0,0,0,0,0,-1,1840,1604,0,0
623,-580,0,0,0,0,0,0,0,0,0,-1,1847,1604,0,0
630,-580,0,0,0,0,0,0,0,0,0,-1,1854,1604,0,0
637,-580,0,0,0,0,0,0,0,0,0,-1,1861,1604,0,0
644,-580,0,0,0,0,0,0,0,0,0,-1,1868,1604,0,0
651,-580,0,0,0,0,0,0,0,0,0,-1,1875,1604,0,0
658,-580,0,0,0,0,0,0,0,0,0,-1,1882,1604,0,0
665,-580,0,0,0,0,0,0,0,0,0,-1,1889,1604,0,0
672,-580,0,0,0,0,0,0,0,0,0,-1,1896,1604,0,0
679,-580,0,0,0,0,0,0,0,0,0,-1,1903,1604,0,0
686,-580,0,0,0,0,0,0,0,0,0,-1,1910,1604,0,0
693,-580,0,0,0,0,0,0,0,0,0,-1,1917,1604,0,0
700,-580,0,0,0,0,0,0,0,0,0,-1,1924,1604,0,0
707,-580,0,0,0,0,0,0,0,0,0,-1,1931,1604,0,0
714,-580,0,0,0,0,0,0,0,0,0,-1,1938,1604,0,0
721,-580,0,0,0,0,0,0,0,0,0,-1,1945,1604,0,0
728,-580,0,0,0,0,0,0,0,0,0,-1,1952,1604,0,0
735,-580,0,0,0,0,0,0,0,0,0,-1,1959,1604,0,0
742,-580,0,0,0,0,0,0,0,0,0,-1,1966,1604,0,0
749,-580,0,0,0,0,0,0,0,0,0,-1,1973,1604,0,0
756,-580,0,0,0,0,0,0,0,0,0,-1,1980,1604,0,0
763,-580,0,0,0,0,0,0,0,0,0,-1,1987,1604,0,0
770,-580,0,0,0,0,0,0,0,0,0,-1,1994,1604,0,0
777,-580,0,0,0,0,0,0,0,0,0,-1,2001,1604,0,0
784,-580,0,0,0,0,0,0,0,0,0,-1,2008,1604,0,0
791,-580,0,0,0,0,0,0,0,0,0,-1,2015,1604,0,0
798,-580,0,0,0,0,0,0,0,0,0,-1,2022,1604,0,0
805,-580,0,0,0,0,0,0,0,0,0,-1,2029,1604,0,0
812,-580,0,0,0,0,0,0,0,0,0,-1,2036,1604,0,0
-700,-587,0,0,0,0,0,0,0,0,0,-1,524,1611,0,0
-693,-587,0,0,0,0,0,0,0,0,0,-1,531,1611,0,0
-686,-587,0,0,0,0,0,0,0,0,0,-1,538,1611,0,0
-679,-587,0,0,0,0,0,0,0,0,0,-1,545,1611,0,0
-672,-587,0,0,0,0,0,0,0,0,0,-1,552,1611,0,0
-665,-587,0,0,0,0,0,0,0,0,0,-1,559,1611,0,0
-658,-587,0,0,0,0,0,0,0,0,0,-1,566,1611,0,0
-651,-587,0,0,0,0,0,0,0,0,0,-1,573,1611,0,0
-644,-587,0,0,0,0,0,0,0,0,0,-1,580,1611,0,0
-637,-587,0,0,0,0,0,0,0,0,0,-1,587,1611,0,0
-630,-587,0,0,0,0,0,0,0,0,0,-1,594,1611,0,0
-623,-587,0,0,0,0,0,0,0,0,0,-1,601,1611,0,0
-616,-587,0,0,0,0,0,0,0,0,0,-1,608,1611,0,0
-609,-587,0,0,0,0,0,0,0,0,0,-1,615,1611,0,0
-602,-587,0,0,0,0,0,0,0,0,0,-1,622,1611,0,0
-595,-587,0,0,0,0,0,0,0,0,0,-1,629,1611,0,0
-588,-587,0,0,0,0,0,0,0,0,0,-1,636,1611,0,0
-581,-587,0,0,0,0,0,0,0,0,0,-1,643,1611,0,0
-574,-587,0,0,0,0,0,0,0,0,0,-1,650,1611,0,0
-567,-587,0,0,0,0,0,0,0,0,0,-1,657,1611,0,0
-560,-587,0,0,0,0,0,0,0,0,0,-1,664,1611,0,0
-553,-587,0,0,0,0,0,0,0,0,0,-1,671,1611,0,0
-546,-587,0,0,0,0,0,0,0,0,0,-1,678,1611,0,0
-539,-587,0,0,0,0,0,0,0,0,0,-1,685,1611,0,0
-532,-587,0,0,0,0,0,0,0,0,0,-1,692,1611,0,0
-525,-587,0,0,0,0,0,0,0,0,0,-1,699,1611,0,0
-518,-587,0,0,0,0,0,0,0,0,0,-1,706,1611,0,0
-511,-587,0,0,0,0,0,0,0,0,0,-1,713,1611,0,0
-504,-587,0,0,0,0,0,0,0,0,0,-1,720,1611,0,0
-497,-587,0,0,0,0,0,0,0,0,0,-1,727,1611,0,0
-490,-587,0,0,0,0,0,0,0,0,0,-1,734,1611,0,0
-483,-587,0,0,0,0,0,0,0,0,0,-1,741,1611,0,0
-476,-587,0,0,0,0,0,0,0,0,0,-1,748,1611,0,0
-469,-587,0,0,0,0,0,0,0,0,0,-1,755,1611,0,0
-462,-587,-0.714355,-0.418457,0,0,0,0,0,0,0,-1,762,1611,-0.714359,0.418483
-455,-587,-0.619812,-0.522461,0,0,0,0,0,0,0,-1,769,1611,-0.619802,0.522515
-448,-587,-0.461731,-0.686523,0,0,0,0,0,0,0,-1,776,1611,-0.461739,0.686559
-441,-587,-3.56555,2.72253,0,0,0,0,0,0,0,-1,783,1611,-3.56555,-2.72259
-434,-587,-1.77319,4.76318,0,0,0,0,0,0,0,-1,790,1611,-1.77318,-4.76323
-427,-587,0.0346069,6.92944,0,0,0,0,0,0,0,-1,797,1611,0.034587,-6.92941
-420,-587,-0.647156,10.1157,0,0,0,0,0,0,0,-1,804,1611,-0.647128,-10.1158
-413,-587,1.71667,9.65393,0,0,0,0,0,0,0,-1,811,1611,1.71667,-9.65397
-406,-587,1.97565,11.4119,0,0,0,0,0,0,0,-1,818,1611,1.97565,-11.4119
-399,-587,1.79089,11.7563,0.00352506,0.000916533,0.00372724,0.00616964,-0.00172806,0.617093,0.00479408,0.0370896,825,1611,1.79091,-11.7564
-392,-587,1.7793,11.9954,0.00235666,1.45457e-05,0.0028287,0.00424712,-0.00187592,0.589144,0.00362242,0.0254767,832,1611,1.77928,-11.9954
-385,-587,1.71008,12.2877,0.00166403,-0.000849417,0.0020536,0.00281492,-0.00200031,0.510814,0.00279331,0.0147456,839,1611,1.71008,-12.2877
-378,-587,1.6886,12.6094,0.0012153,-0.000955852,0.00172314,0.00216631,-0.00190686,0.504305,0.00235324,0.0130826,846,1611,1.6886,-12.6094
-371,-587,1.69617,12.9044,0.000904301,-0.00102804,0.00141484,0.00165139,-0.00177513,0.485826,0.00197873,0.0139251,853,1611,1.6962,-12.9045
-364,-587,1.7041,13.1605,0.000551542,-0.000924408,0.00117166,0.00119827,-0.00157113,0.504357,0.00160374,0.017265,860,1611,1.70407,-13.1606
-357,-587,1.70374,13.4073,0.000657735,-0.000783384,0.00102865,0.00119309,-0.00131874,0.479871,0.00145082,0.0164598,867,1611,1.70375,-13.4074
-350,-587,1.69196,13.6948,0.000967083,-0.000544984,0.000815141,0.00132282,-0.000900725,0.4115,0.00129145,0.0101519,874,1611,1.69194,-13.6948
-343,-587,1.6886,13.9664,0.00101129,-0.000211341,0.000574062,0.00123857,-0.000438628,0.376991,0.00100438,0.0127632,881,1611,1.68858,-13.9664
-336,-587,1.6759,14.2156,0.000853488,-4.54191e-05,0.000140103,0.000874819,-6.67493e-05,0.151086,0.000606687,0.0120927,888,1611,1.67592,-14.2156
-329,-587,1.6781,14.4835,0.000794029,0.000381225,-9.71718e-05,0.000815759,0.000359495,-0.220004,0.000472082,0.0136346,895,1611,1.67809,-14.4836
-322,-587,1.70898,14.7638,0.000502772,0.000712554,-0.00039283,0.00101426,0.00020107,-0.915861,0.00062011,0.0173683,902,1611,1.70901,-14.7638
-315,-587,1.69489,14.999,-5.42607e-05,0.000928441,-0.000927315,0.00148654,-0.000612357,-1.02902,0.00124634,0.0147898,909,1611,1.6949,-14.999
-308,-587,1.69525,15.2391,-0.000701954,0.00113156,-0.00168883,0.00213642,-0.00170681,-1.03406,0.0022235,0.0149823,916,1611,1.69524,-15.2392
-301,-587,1.72955,15.4857,-0.00129345,0.00108702,-0.00225332,0.00244514,-0.00265157,-1.02838,0.00294339,0.0131218,923,1611,1.72957,-15.4857
-294,-587,1.763,15.7317,-0.00177152,0.000538235,-0.0028846,0.00249055,-0.00372384,-0.975807,0.00361135,0.013834,930,1611,1.76302,-15.7317
-287,-587,1.75983,16.0144,-0.00219271,0.00016436,-0.00363761,0.00280958,-0.00483794,-0.942056,0.00446676,0.0244649,937,1611,1.75983,-16.0144
-280,-587,1.46942,15.8492,0,0,0,0,0,0,0,-1,944,1611,1.46944,-15.8493
-273,-587,1.15771,16.0031,0,0,0,0,0,0,0,-1,951,1611,1.15769,-16.0031
-266,-587,0.987732,16.6593,0,0,0,0,0,0,0,-1,958,1611,0.987728,-16.6594
-259,-587,0.817017,16.847,0,0,0,0,0,0,0,-1,965,1611,0.817024,-16.847
-252,-587,1.30188,10.3103,0,0,0,0,0,0,0,-1,972,1611,1.30188,-10.3104
-245,-587,2.97797,12.0387,0,0,0,0,0,0,0,-1,979,1611,2.97798,-12.0387
-238,-587,2.87799,9.53821,0,0,0,0,0,0,0,-1,986,1611,2.87797,-9.53823
-231,-587,2.49548,9.14465,0,0,0,0,0,0,0,-1,993,1611,2.49551,-9.14468
-224,-587,-9.72528,9.21069,0,0,0,0,0,0,0,-1,1000,1611,-9.72529,-9.21072
-217,-587,-7.07495,10.7847,0,0,0,0,0,0,0,-1,1007,1611,-7.07495,-10.7847
-210,-587,-4.72308,12.5889,0,0,0,0,0,0,0,-1,1014,1611,-4.72307,-12.5888
-203,-587,-3.2583,13.7289,0,0,0,0,0,0,0,-1,1021,1611,-3.25828,-13.7289
-196,-587,-1.953,14.8145,0,0,0,0,0,0,0,-1,1028,1611,-1.95302,-14.8144
-189,-587,-3.04138,8.66638,0,0,0,0,0,0,0,-1,1035,1611,-3.04136,-8.66635
-182,-587,-3.97095,9.7146,0,0,0,0,0,0,0,-1,1042,1611,-3.97093,-9.71461
-175,-587,-4.80969,8.37878,0,0,0,0,0,0,0,-1,1049,1611,-4.80964,-8.37883
-168,-587,-5.91394,8.72546,0,0,0,0,0,0,0,-1,1056,1611,-5.91398,-8.72542
-161,-587,-7.06946,8.88501,0,0,0,0,0,0,0,-1,1063,1611,-7.06947,-8.885
-154,-587,-2.24731,6.56519,0,0,0,0,0,0,0,-1,1070,1611,-2.24728,-6.56517
-147,-587,0,0,0,0,0,0,0,0,0,-1,1077,1611,0,0
-140,-587,0,0,0,0,0,0,0,0,0,-1,1084,1611,0,0
-133,-587,0,0,0,0,0,0,0,0,0,-1,1091,1611,0,0
-126,-587,0,0,0,0,0,0,0,0,0,-1,1098,1611,0,0
-119,-587,0,0,0,0,0,0,0,0,0,-1,1105,1611,0,0
-112,-587,0,0,0,0,0,0,0,0,0,-1,1112,1611,0,0
-105,-587,0,0,0,0,0,0,0,0,0,-1,1119,1611,0,0
-98,-587,0,0,0,0,0,0,0,0,0,-1,1126,1611,0,0
-91,-587,0,0,0,0,0,0,0,0,0,-1,1133,1611,0,0
-84,-587,0,0,0,0,0,0,0,0,0,-1,1140,1611,0,0
-77,-587,0,0,0,0,0,0,0,0,0,-1,1147,1611,0,0
-70,-587,0,0,0,0,0,0,0,0,0,-1,1154,1611,0,0
-63,-587,0,0,0,0,0,0,0,0,0,-1,1161,1611,0,0
-56,-587,0,0,0,0,0,0,0,0,0,-1,1168,1611,0,0
-49,-587,0,0,0,0,0,0,0,0,0,-1,1175,1611,0,0
-42,-587,0,0,0,0,0,0,0,0,0,-1,1182,1611,0,0
-35,-587,0,0,0,0,0,0,0,0,0,-1,1189,1611,0,0
-28,-587,0,0,0,0,0,0,0,0,0,-1,1196,1611,0,0
-21,-587,0,0,0,0,0,0,0,0,0,-1,1203,1611,0,0
-14,-587,0,0,0,0,0,0,0,0,0,-1,1210,1611,0,0
-7,-587,0,0,0,0,0,0,0,0,0,-1,1217,1611,0,0
0,-587,0,0,0,0,0,0,0,0,0,-1,1224,1611,0,0
7,-587,0,0,0,0,0,0,0,0,0,-1,1231,1611,0,0
14,-587,0,0,0,0,0,0,0,0,0,-1,1238,1611,0,0
21,-587,0,0,0,0,0,0,0,0,0,-1,1245,1611,0,0
28,-587,0,0,0,0,0,0,0,0,0,-1,1252,1611,0,0
35,-587,0,0,0,0,0,0,0,0,0,-1,1259,1611,0,0
42,-587,0,0,0,0,0,0,0,0,0,-1,1266,1611,0,0
49,-587,0,0,0,0,0,0,0,0,0,-1,1273,1611,0,0
56,-587,0,0,0,0,0,0,0,0,0,-1,1280,1611,0,0
63,-587,0,0,0,0,0,0,0,0,0,-1,1287,1611,0,0
70,-587,0,0,0,0,0,0,0,0,0,-1,1294,1611,0,0
77,-587,0,0,0,0,0,0,0,0,0,-1,1301,1611,0,0
84,-587,0,0,0,0,0,0,0,0,0,-1,1308,1611,0,0
91,-587,0,0,0,0,0,0,0,0,0,-1,1315,1611,0,0
98,-587,0,0,0,0,0,0,0,0,0,-1,1322,1611,0,0
105,-587,0,0,0,0,0,0,0,0,0,-1,1329,1611,0,0
112,-587,0,0,0,0,0,0,0,0,0,-1,1336,1611,0,0
119,-587,0,0,0,0,0,0,0,0,0,-1,1343,1611,0,0
126,-587,0,0,0,0,0,0,0,0,0,-1,1350,1611,0,0
133,-587,0,0,0,0,0,0,0,0,0,-1,1357,1611,0,0
140,-587,0,0,0,0,0,0,0,0,0,-1,1364,1611,0,0
147,-587,0,0,0,0,0,0,0,0,0,-1,1371,1611,0,0
154,-587,0,0,0,0,0,0,0,0,0,-1,1378,1611,0,0
161,-587,0,0,0,0,0,0,0,0,0,-1,1385,1611,0,0
168,-587,0,0,0,0,0,0,0,0,0,-1,1392,1611,0,0
175,-587,0,0,0,0,0,0,0,0,0,-1,1399,1611,0,0
182,-587,0,0,0,0,0,0,0,0,0,-1,1406,1611,0,0
189,-587,0,0,0,0,0,0,0,0,0,-1,1413,1611,0,0
196,-587,0,0,0,0,0,0,0,0,0,-1,1420,1611,0,0
203,-587,0,0,0,0,0,0,0,0,0,-1,1427,1611,0,0
210,-587,0,0,0,0,0,0,0,0,0,-1,1434,1611,0,0
217,-587,0,0,0,0,0,0,0,0,0,-1,1441,1611,0,0
224,-587,0,0,0,0,0,0,0,0,0,-1,1448,1611,0,0
231,-587,0,0,0,0,0,0,0,0,0,-1,1455,1611,0,0
238,-587,0,0,0,0,0,0,0,0,0,-1,1462,1611,0,0
245,-587,0,0,0,0,0,0,0,0,0,-1,1469,1611,0,0
252,-587,0,0,0,0,0,0,0,0,0,-1,1476,1611,0,0
259,-587,0,0,0,0,0,0,0,0,0,-1,1483,1611,0,0
266,-587,0,0,0,0,0,0,0,0,0,-1,1490,1611,0,0
273,-587,10.2936,6.35083,0,0,0,0,0,0,0,-1,1497,1611,10.2936,-6.35087
280,-587,2.09204,1.1217,0,0,0,0,0,0,0,-1,1504,1611,2.092,-1.12176
287,-587,3.2865,0.671509,0,0,0,0,0,0,0,-1,1511,1611,3.28656,-0.671538
294,-587,4.24646,1.58765,0,0,0,0,0,0,0,-1,1518,1611,4.24648,-1.58761
301,-587,7.60474,8.37085,0,0,0,0,0,0,0,-1,1525,1611,7.60478,-8.37084
308,-587,5.99316,10.2291,0,0,0,0,0,0,0,-1,1532,1611,5.99315,-10.2291
315,-587,4.34558,12.3289,0,0,0,0,0,0,0,-1,1539,1611,4.34556,-12.3288
322,-587,10.4526,6.38245,0,0,0,0,0,0,0,-1,1546,1611,10.4526,-6.38245
329,-587,10.7738,8.42444,0,0,0,0,0,0,0,-1,1553,1611,10.7738,-8.42438
336,-587,7.5531,5.96619,0,0,0,0,0,0,0,-1,1560,1611,7.55311,-5.96617
343,-587,9.57495,4.38391,0,0,0,0,0,0,0,-1,1567,1611,9.57494,-4.38397
350,-587,9.50378,3.45093,0,0,0,0,0,0,0,-1,1574,1611,9.50376,-3.4509
357,-587,9.40027,2.50806,0,0,0,0,0,0,0,-1,1581,1611,9.40022,-2.50803
364,-587,9.26477,1.34131,0,0,0,0,0,0,0,-1,1588,1611,9.26479,-1.34126
371,-587,6.98926,7.87561,0,0,0,0,0,0,0,-1,1595,1611,6.98928,-7.87564
378,-587,9.25146,13.8358,0,0,0,0,0,0,0,-1,1602,1611,9.2515,-13.8359
385,-587,7.17224,7.03772,0,0,0,0,0,0,0,-1,1609,1611,7.1722,-7.03778
392,-587,5.3916,8.21436,0,0,0,0,0,0,0,-1,1616,1611,5.39157,-8.21437
399,-587,9.00293,16.7086,0,0,0,0,0,0,0,-1,1623,1611,9.00295,-16.7086
406,-587,9.04749,16.6586,-0.00407169,-0.0184615,0.0154777,0.00580165,-0.0283348,0.567828,0.0210914,0.0472522,1630,1611,9.04747,-16.6585
413,-587,9.01587,16.9014,-0.00197642,-0.0159525,0.0131194,0.00589994,-0.0238289,0.540685,0.0181746,0.0363001,1637,1611,9.01582,-16.9014
420,-587,8.96594,16.9385,-0.00123043,-0.0137472,0.0112128,0.00535225,-0.0203299,0.530859,0.0156456,0.0326469,1644,1611,8.96599,-16.9385
427,-587,9.01147,16.7249,-0.000638768,-0.0115744,0.0094554,0.00481594,-0.0170291,0.523252,0.013253,0.0261481,1651,1611,9.01145,-16.7248
434,-587,8.90051,16.4532,-0.000118615,-0.00985618,0.00785391,0.00425322,-0.014228,0.50793,0.0111762,0.014286,1658,1611,8.90053,-16.4533
441,-587,8.87012,16.217,0.000460854,-0.00815606,0.0062602,0.00375193,-0.0114471,0.484007,0.0091424,0.0150464,1665,1611,8.87016,-16.217
448,-587,8.87061,16.0034,0.000601661,-0.00677176,0.00510284,0.00321025,-0.00938035,0.47257,0.00755454,0.0144603,1672,1611,8.87058,-16.0034
455,-587,8.89624,15.7782,0.000370404,-0.00553525,0.00415349,0.00251372,-0.00767856,0.476387,0.00613119,0.0144795,1679,1611,8.89618,-15.7782
462,-587,8.87207,15.5386,0.000211988,-0.00417611,0.00313433,0.00184389,-0.00580801,0.480033,0.0046112,0.0172628,1686,1611,8.87207,-15.5386
469,-587,8.86804,15.3156,0.000180869,-0.00317322,0.00224936,0.00130955,-0.0043019,0.46507,0.00338984,0.0148923,1693,1611,8.86804,-15.3155
476,-587,8.87805,15.0798,0.00014567,-0.00221474,0.00148419,0.000861697,-0.00293076,0.449499,0.00229563,0.0105529,1700,1611,8.87809,-15.0799
483,-587,8.86316,14.8251,0.000122937,-0.00123316,0.000784826,0.000482049,-0.00159228,0.42913,0.00125349,0.0127333,1707,1611,8.86317,-14.825
490,-587,8.83533,14.5833,0.000196554,-0.000215897,0.000124237,0.000231086,-0.000250428,0.271104,0.000278077,0.0146212,1714,1611,8.83534,-14.5833
497,-587,8.83423,14.3383,0.000220246,0.000661928,-0.000510999,0.000997765,-0.000115591,-0.989364,0.000706865,0.0119284,1721,1611,8.83422,-14.3383
504,-587,8.83911,14.1014,2.9487e-05,0.00144367,-0.000851752,0.00184358,-0.000370427,-1.13183,0.00136934,0.011611,1728,1611,8.8391,-14.1014
511,-587,8.8446,13.8497,-5.7985e-05,0.00198566,-0.00114109,0.00249557,-0.000567896,-1.15055,0.0018818,0.0133642,1735,1611,8.84466,-13.8498
518,-587,8.87378,13.5925,-0.000372864,0.00240808,-0.00122194,0.0028687,-0.000833485,-1.21031,0.00224254,0.0133316,1742,1611,8.87384,-13.5925
525,-587,8.8822,13.3318,-0.00133985,0.00253549,-0.000886754,0.00272876,-0.00153312,-1.3562,0.00249266,0.0158204,1749,1611,8.88224,-13.3318
532,-587,8.84692,13.0629,-0.00269257,0.00282795,-0.000401348,0.00285697,-0.0027216,-1.4986,0.00322111,0.032038,1756,1611,8.84696,-13.0629
539,-587,8.82617,12.7135,0,0,0,0,0,0,0,-1,1763,1611,8.82617,-12.7135
546,-587,9.12903,12.4144,0,0,0,0,0,0,0,-1,1770,1611,9.12908,-12.4145
553,-587,7.5813,8.45068,0,0,0,0,0,0,0,-1,1777,1611,7.58125,-8.45068
560,-587,4.21179,5.23547,0,0,0,0,0,0,0,-1,1784,1611,4.21185,-5.23553
567,-587,4.03711,5.46387,0,0,0,0,0,0,0,-1,1791,1611,4.03715,-5.46382
574,-587,3.83142,5.68884,0,0,0,0,0,0,0,-1,1798,1611,3.83141,-5.68881
581,-587,3.47168,6.00977,0,0,0,0,0,0,0,-1,1805,1611,3.47167,-6.00983
588,-587,0,0,0,0,0,0,0,0,0,-1,1812,1611,0,0
595,-587,0,0,0,0,0,0,0,0,0,-1,1819,1611,0,0
602,-587,0,0,0,0,0,0,0,0,0,-1,1826,1611,0,0
609,-587,0,0,0,0,0,0,0,0,0,-1,1833,1611,0,0
616,-587,0,0,0,0,0,0,0,0,0,-1,1840,1611,0,0
623,-587,0,0,0,0,0,0,0,0,0,-1,1847,1611,0,0
630,-587,0,0,0,0,0,0,0,0,0,-1,1854,1611,0,0
637,-587,0,0,0,0,0,0,0,0,0,-1,1861,1611,0,0
644,-587,0,0,0,0,0,0,0,0,0,-1,1868,1611,0,0
651,-587,0,0,0,0,0,0,0,0,0,-1,1875,1611,0,0
658,-587,0,0,0,0,0,0,0,0,0,-1,1882,1611,0,0
665,-587,0,0,0,0,0,0,0,0,0,-1,1889,1611,0,0
672,-587,0,0,0,0,0,0,0,0,0,-1,1896,1611,0,0
679,-587,0,0,0,0,0,0,0,0,0,-1,1903,1611,0,0
686,-587,0,0,0,0,0,0,0,0,0,-1,1910,1611,0,0
693,-587,0,0,0,0,0,0,0,0,0,-1,1917,1611,0,0
700,-587,0,0,0,0,0,0,0,0,0,-1,1924,1611,0,0
707,-587,0,0,0,0,0,0,0,0,0,-1,1931,1611,0,0
714,-587,0,0,0,0,0,0,0,0,0,-1,1938,1611,0,0
721,-587,0,0,0,0,0,0,0,0,0,-1,1945,1611,0,0
728,-587,0,0,0,0,0,0,0,0,0,-1,1952,1611,0,0
735,-587,0,0,0,0,0,0,0,0,0,-1,1959,1611,0,0
742,-587,0,0,0,0,0,0,0,0,0,-1,1966,1611,0,0
749,-587,0,0,0,0,0,0,0,0,0,-1,1973,1611,0,0
756,-587,0,0,0,0,0,0,0,0,0,-1,1980,1611,0,0
763,-587,0,0,0,0,0,0,0,0,0,-1,1987,1611,0,0
770,-587,0,0,0,0,0,0,0,0,0,-1,1994,1611,0,0
777,-587,0,0,0,0,0,0,0,0,0,-1,2001,1611,0,0
784,-587,0,0,0,0,0,0,0,0,0,-1,2008,1611,0,0
791,-587,0,0,0,0,0,0,0,0,0,-1,2015,1611,0,0
798,-587,0,0,0,0,0,0,0,0,0,-1,2022,1611,0,0
805,-587,0,0,0,0,0,0,0,0,0,-1,2029,1611,0,0
812,-587,0,0,0,0,0,0,0,0,0,-1,2036,1611,0,0
-700,-594,0,0,0,0,0,0,0,0,0,-1,524,1618,0,0
-693,-594,0,0,0,0,0,0,0,0,0,-1,531,1618,0,0
-686,-594,0,0,0,0,0,0,0,0,0,-1,538,1618,0,0
-679,-594,0,0,0,0,0,0,0,0,0,-1,545,1618,0,0
-672,-594,0,0,0,0,0,0,0,0,0,-1,552,1618,0,0
-665,-594,0,0,0,0,0,0,0,0,0,-1,559,1618,0,0
-658,-594,0,0,0,0,0,0,0,0,0,-1,566,1618,0,0
-651,-594,0,0,0,0,0,0,0,0,0,-1,573,1618,0,0
-644,-594,0,0,0,0,0,0,0,0,0,-1,580,1618,0,0
-637,-594,0,0,0,0,0,0,0,0,0,-1,587,1618,0,0
-630,-594,0,0,0,0,0,0,0,0,0,-1,594,1618,0,0
-623,-594,0,0,0,0,0,0,0,0,0,-1,601,1618,0,0
-616,-594,0,0,0,0,0,0,0,0,0,-1,608,1618,0,0
-609,-594,0,0,0,0,0,0,0,0,0,-1,615,1618,0,0
-602,-594,0,0,0,0,0,0,0,0,0,-1,622,1618,0,0
-595,-594,0,0,0,0,0,0,0,0,0,-1,629,1618,0,0
-588,-594,0,0,0,0,0,0,0,0,0,-1,636,1618,0,0
-581,-594,0,0,0,0,0,0,0,0,0,-1,643,1618,0,0
-574,-594,0,0,0,0,0,0,0,0,0,-1,650,1618,0,0
-567,-594,0,0,0,0,0,0,0,0,0,-1,657,1618,0,0
-560,-594,0,0,0,0,0,0,0,0,0,-1,664,1618,0,0
-553,-594,0,0,0,0,0,0,0,0,0,-1,671,1618,0,0
-546,-594,0,0,0,0,0,0,0,0,0,-1,678,1618,0,0
-539,-594,0,0,0,0,0,0,0,0,0,-1,685,1618,0,0
-532,-594,0,0,0,0,0,0,0,0,0,-1,692,1618,0,0
-525,-594,0,0,0,0,0,0,0,0,0,-1,699,1618,0,0
-518,-594,0,0,0,0,0,0,0,0,0,-1,706,1618,0,0
-511,-594,0,0,0,0,0,0,0,0,0,-1,713,1618,0,0
-504,-594,0,0,0,0,0,0,0,0,0,-1,720,1618,0,0
-497,-594,0,0,0,0,0,0,0,0,0,-1,727,1618,0,0
-490,-594,0,0,0,0,0,0,0,0,0,-1,734,1618,0,0
-483,-594,0,0,0,0,0,0,0,0,0,-1,741,1618,0,0
-476,-594,0,0,0,0,0,0,0,0,0,-1,748,1618,0,0
-469,-594,0,0,0,0,0,0,0,0,0,-1,755,1618,0,0
-462,-594,0,0,0,0,0,0,0,0,0,-1,762,1618,0,0
-455,-594,-0.509216,-1.58411,0,0,0,0,0,0,0,-1,769,1618,-0.509245,1.58415
-448,-594,-7.71887,-0.0559082,0,0,0,0,0,0,0,-1,776,1618,-7.71885,0.055939
-441,-594,-5.78473,1.18298,0,0,0,0,0,0,0,-1,783,1618,-5.78474,-1.18295
-434,-594,-3.93628,3.06213,0,0,0,0,0,0,0,-1,790,1618,-3.93631,-3.06208
-427,-594,-3.97693,6.77759,0,0,0,0,0,0,0,-1,797,1618,-3.97695,-6.77764
-420,-594,-2.53046,7.71606,0,0,0,0,0,0,0,-1,804,1618,-2.53047,-7.71609
-413,-594,-0.860413,8.00391,0,0,0,0,0,0,0,-1,811,1618,-0.860423,-8.00389
-406,-594,1.74884,10.2235,0,0,0,0,0,0,0,-1,818,1618,1.74882,-10.2235
-399,-594,2.11133,11.7578,0,0,0,0,0,0,0,-1,825,1618,2.11132,-11.7578
-392,-594,2.1145,11.9976,0.00301762,-0.00044697,0.0037656,0.00543027,-0.00285962,0.569816,0.00486227,0.0429212,832,1618,2.11451,-11.9975
-385,-594,2.05249,12.3563,0.00214293,-0.00130439,0.00294452,0.00383119,-0.00299265,0.520598,0.00394965,0.0263821,839,1618,2.05249,-12.3563
-378,-594,1.96381,12.6072,0.00154311,-0.00135153,0.00257685,0.00305128,-0.00285969,0.529521,0.0034133,0.0124044,846,1618,1.96379,-12.6071
-371,-594,1.97595,12.9135,0.0011491,-0.00147033,0.00220496,0.00240399,-0.00272522,0.517406,0.00296329,0.0115879,853,1618,1.97596,-12.9135
-364,-594,1.9765,13.1772,0.000750395,-0.00136156,0.00192299,0.00188827,-0.00249943,0.534309,0.00254142,0.0101268,860,1618,1.97648,-13.1772
-357,-594,1.95941,13.4357,0.000804182,-0.00121454,0.00173222,0.00179967,-0.00221002,0.521599,0.00231903,0.00998883,867,1618,1.95943,-13.4356
-350,-594,1.94495,13.7247,0.00108238,-0.000992845,0.00144887,0.00182687,-0.00173733,0.474656,0.00205801,0.0142354,874,1618,1.94492,-13.7247
-343,-594,1.94037,14.0035,0.00114965,-0.000703734,0.00114419,0.00169535,-0.00124943,0.445021,0.00170666,0.0162262,881,1618,1.94035,-14.0035
-336,-594,1.92279,14.248,0.00101327,-0.000561146,0.000661727,0.00125445,-0.000802325,0.349506,0.001197,0.0139125,888,1618,1.9228,-14.248
-329,-594,1.92841,14.5073,0.000984191,-0.000127615,0.0004156,0.00112237,-0.000265796,0.320986,0.0008508,0.0132945,895,1618,1.92842,-14.5073
-322,-594,1.96442,14.7858,0.000763688,0.000199289,0.000123185,0.000789403,0.000173574,0.205792,0.00047901,0.0154642,902,1618,1.96441,-14.7858
-315,-594,1.96082,15.0109,0.000304246,0.000389688,-0.000408241,0.000757437,-6.35029e-05,-0.837532,0.000527401,0.0166593,909,1618,1.96084,-15.0108
-308,-594,1.9566,15.2339,-0.000214916,0.000516706,-0.00116575,0.00137269,-0.0010709,-0.937432,0.00141439,0.0155826,916,1618,1.95662,-15.2339
-301,-594,1.95251,15.4777,-0.000636569,0.000490188,-0.00169796,0.00171579,-0.00186217,-0.945582,0.00206631,0.0116122,923,1618,1.95249,-15.4776
-294,-594,1.96478,15.7181,-0.000899034,3.08248e-05,-0.0022193,0.00183337,-0.00270158,-0.888652,0.0026342,0.0100788,930,1618,1.96479,-15.7181
-287,-594,1.95996,15.9727,-0.00105676,-0.00026722,-0.00280282,0.0021685,-0.00349247,-0.855362,0.00329802,0.0125003,937,1618,1.95999,-15.9726
-280,-594,1.99432,16.2385,-0.00101005,-0.000995239,-0.00343371,0.00243108,-0.00443637,-0.786477,0.00402087,0.0164105,944,1618,1.9943,-16.2385
-273,-594,1.92645,16.4397,-0.000745881,-0.00185717,-0.00412322,0.00285896,-0.00546201,-0.718422,0.00488185,0.0280181,951,1618,1.92648,-16.4397
-266,-594,1.60681,16.6229,-7.04552e-05,-0.00344891,-0.00482229,0.00334992,-0.00686928,-0.616929,0.00601555,0.0388548,958,1618,1.6068,-16.6229
-259,-594,1.49792,16.8202,0.00113034,-0.0050162,-0.00518343,0.00408309,-0.00796895,-0.517806,0.00707778,0.0482405,965,1618,1.4979,-16.8202
-252,-594,1.44727,17.0477,0,0,0,0,0,0,0,-1,972,1618,1.44725,-17.0478
-245,-594,2.5567,16.8372,0,0,0,0,0,0,0,-1,979,1618,2.55668,-16.8372
-238,-594,2.48499,13.0104,0,0,0,0,0,0,0,-1,986,1618,2.48501,-13.0104
-231,-594,1.93774,9.35388,0,0,0,0,0,0,0,-1,993,1618,1.93776,-9.35393
-224,-594,1.81824,8.62744,0,0,0,0,0,0,0,-1,1000,1618,1.81822,-8.62745
-217,-594,-8.24066,12.0752,0,0,0,0,0,0,0,-1,1007,1618,-8.24068,-12.0751
-210,-594,-5.61438,14.2119,0,0,0,0,0,0,0,-1,1014,1618,-5.6144,-14.212
-203,-594,-3.94507,15.5768,0,0,0,0,0,0,0,-1,1021,1618,-3.94506,-15.5768
-196,-594,2.78613,10.5815,0,0,0,0,0,0,0,-1,1028,1618,2.78612,-10.5815
-189,-594,2.60913,9.48865,0,0,0,0,0,0,0,-1,1035,1618,2.6091,-9.48871
-182,-594,1.2395,9.38806,0,0,0,0,0,0,0,-1,1042,1618,1.23951,-9.38804
-175,-594,0.234863,8.73792,0,0,0,0,0,0,0,-1,1049,1618,0.234812,-8.73786
-168,-594,-0.495483,8.46289,0,0,0,0,0,0,0,-1,1056,1618,-0.495513,-8.46285
-161,-594,-1.39734,8.28699,0,0,0,0,0,0,0,-1,1063,1618,-1.39729,-8.28699
-154,-594,-0.000854492,7.68445,0,0,0,0,0,0,0,-1,1070,1618,-0.000805755,-7.6845
-147,-594,0.348267,9.3385,0,0,0,0,0,0,0,-1,1077,1618,0.348237,-9.33849
-140,-594,0.675171,11.5884,0,0,0,0,0,0,0,-1,1084,1618,0.675204,-11.5884
-133,-594,0,0,0,0,0,0,0,0,0,-1,1091,1618,0,0
-126,-594,0,0,0,0,0,0,0,0,0,-1,1098,1618,0,0
-119,-594,0,0,0,0,0,0,0,0,0,-1,1105,1618,0,0
-112,-594,0,0,0,0,0,0,0,0,0,-1,1112,1618,0,0
-105,-594,0,0,0,0,0,0,0,0,0,-1,1119,1618,0,0
-98,-594,0,0,0,0,0,0,0,0,0,-1,1126,1618,0,0
-91,-594,0,0,0,0,0,0,0,0,0,-1,1133,1618,0,0
-84,-594,0,0,0,0,0,0,0,0,0,-1,1140,1618,0,0
-77,-594,0,0,0,0,0,0,0,0,0,-1,1147,1618,0,0
-70,-594,0,0,0,0,0,0,0,0,0,-1,1154,1618,0,0
-63,-594,0,0,0,0,0,0,0,0,0,-1,1161,1618,0,0
-56,-594,0,0,0,0,0,0,0,0,0,-1,1168,1618,0,0
-49,-594,0,0,0,0,0,0,0,0,0,-1,1175,1618,0,0
-42,-594,0,0,0,0,0,0,0,0,0,-1,1182,1618,0,0
-35,-594,0,0,0,0,0,0,0,0,0,-1,1189,1618,0,0
-28,-594,0,0,0,0,0,0,0,0,0,-1,1196,1618,0,0
-21,-594,0,0,0,0,0,0,0,0,0,-1,1203,1618,0,0
-14,-594,0,0,0,0,0,0,0,0,0,-1,1210,1618,0,0
-7,-594,0,0,0,0,0,0,0,0,0,-1,1217,1618,0,0
0,-594,0,0,0,0,0,0,0,0,0,-1,1224,1618,0,0
7,-594,0,0,0,0,0,0,0,0,0,-1,1231,1618,0,0
14,-594,0,0,0,0,0,0,0,0,0,-1,1238,1618,0,0
21,-594,0,0,0,0,0,0,0,0,0,-1,1245,1618,0,0
28,-594,0,0,0,0,0,0,0,0,0,-1,1252,1618,0,0
35,-594,0,0,0,0,0,0,0,0,0,-1,1259,1618,0,0
42,-594,0,0,0,0,0,0,0,0,0,-1,1266,1618,0,0
49,-594,0,0,0,0,0,0,0,0,0,-1,1273,1618,0,0
56,-594,0,0,0,0,0,0,0,0,0,-1,1280,1618,0,0
63,-594,0,0,0,0,0,0,0,0,0,-1,1287,1618,0,0
70,-594,0,0,0,0,0,0,0,0,0,-1,1294,1618,0,0
77,-594,0,0,0,0,0,0,0,0,0,-1,1301,1618,0,0
84,-594,0,0,0,0,0,0,0,0,0,-1,1308,1618,0,0
91,-594,0,0,0,0,0,0,0,0,0,-1,1315,1618,0,0
98,-594,0,0,0,0,0,0,0,0,0,-1,1322,1618,0,0
105,-594,0,0,0,0,0,0,0,0,0,-1,1329,1618,0,0
112,-594,0,0,0,0,0,0,0,0,0,-1,1336,1618,0,0
119,-594,0,0,0,0,0,0,0,0,0,-1,1343,1618,0,0
126,-594,0,0,0,0,0,0,0,0,0,-1,1350,1618,0,0
133,-594,0,0,0,0,0,0,0,0,0,-1,1357,1618,0,0
140,-594,0,0,0,0,0,0,0,0,0,-1,1364,1618,0,0
147,-594,0,0,0,0,0,0,0,0,0,-1,1371,1618,0,0
154,-594,0,0,0,0,0,0,0,0,0,-1,1378,1618,0,0
161,-594,0,0,0,0,0,0,0,0,0,-1,1385,1618,0,0
168,-594,0,0,0,0,0,0,0,0,0,-1,1392,1618,0,0
175,-594,0,0,0,0,0,0,0,0,0,-1,1399,1618,0,0
182,-594,0,0,0,0,0,0,0,0,0,-1,1406,1618,0,0
189,-594,0,0,0,0,0,0,0,0,0,-1,1413,1618,0,0
196,-594,0,0,0,0,0,0,0,0,0,-1,1420,1618,0,0
203,-594,0,0,0,0,0,0,0,0,0,-1,1427,1618,0,0
210,-594,0,0,0,0,0,0,0,0,0,-1,1434,1618,0,0
217,-594,0,0,0,0,0,0,0,0,0,-1,1441,1618,0,0
224,-594,0,0,0,0,0,0,0,0,0,-1,1448,1618,0,0
231,-594,0,0,0,0,0,0,0,0,0,-1,1455,1618,0,0
238,-594,0,0,0,0,0,0,0,0,0,-1,1462,1618,0,0
245,-594,0,0,0,0,0,0,0,0,0,-1,1469,1618,0,0
252,-594,3.03674,1.20996,0,0,0,0,0,0,0,-1,1476,1618,3.0368,-1.20999
259,-594,4.79834,1.53113,0,0,0,0,0,0,0,-1,1483,1618,4.79837,-1.53118
266,-594,3.71606,2.68152,0,0,0,0,0,0,0,-1,1490,1618,3.71609,-2.68149
273,-594,9.7655,6.33557,0,0,0,0,0,0,0,-1,1497,1618,9.76555,-6.33554
280,-594,3.13281,0.911255,0,0,0,0,0,0,0,-1,1504,1618,3.13277,-0.911207
287,-594,4.42749,1.51563,0,0,0,0,0,0,0,-1,1511,1618,4.42747,-1.51564
294,-594,5.36475,3.34937,0,0,0,0,0,0,0,-1,1518,1618,5.36475,-3.3494
301,-594,7.97144,9.04333,0,0,0,0,0,0,0,-1,1525,1618,7.9714,-9.04328
308,-594,6.30347,10.4633,0,0,0,0,0,0,0,-1,1532,1618,6.30351,-10.4633
315,-594,4.62012,11.934,0,0,0,0,0,0,0,-1,1539,1618,4.62006,-11.934
322,-594,2.91528,13.3134,0,0,0,0,0,0,0,-1,1546,1618,2.91523,-13.3133
329,-594,4.19861,9.77258,0,0,0,0,0,0,0,-1,1553,1618,4.19865,-9.77264
336,-594,10.1353,4.66528,0,0,0,0,0,0,0,-1,1560,1618,10.1353,-4.66533
343,-594,10.5729,3.71228,0,0,0,0,0,0,0,-1,1567,1618,10.5729,-3.71232
350,-594,10.219,2.98792,0,0,0,0,0,0,0,-1,1574,1618,10.219,-2.98797
357,-594,9.83154,1.96326,0,0,0,0,0,0,0,-1,1581,1618,9.8315,-1.96321
364,-594,9.74939,0.700562,0,0,0,0,0,0,0,-1,1588,1618,9.74939,-0.700615
371,-594,8.54297,14.3988,0,0,0,0,0,0,0,-1,1595,1618,8.54296,-14.3989
378,-594,8.9137,16.3073,0,0,0,0,0,0,0,-1,1602,1618,8.91369,-16.3072
385,-594,9.77612,17.0909,0,0,0,0,0,0,0,-1,1609,1618,9.77611,-17.0909
392,-594,8.32214,17.4579,0,0,0,0,0,0,0,-1,1616,1618,8.32209,-17.4579
399,-594,8.49707,17.2524,-0.00625677,-0.0148057,0.0138792,0.00399126,-0.0250537,0.636019,0.0181795,0.047677,1623,1618,8.49709,-17.2524
406,-594,8.68005,17.1632,-0.0037161,-0.0131393,0.0117808,0.00426039,-0.0211158,0.595173,0.0156913,0.0287482,1630,1618,8.68008,-17.1633
413,-594,8.67957,17.0111,-0.00210336,-0.0113942,0.00995619,0.00423783,-0.0177354,0.567118,0.0134604,0.0222175,1637,1618,8.67955,-17.0111
420,-594,8.68188,16.817,-0.00132723,-0.00971997,0.00839366,0.0038606,-0.0149078,0.553596,0.0114445,0.0180848,1644,1618,8.6819,-16.8171
427,-594,8.6698,16.6724,-0.000772666,-0.00818232,0.00706645,0.00350126,-0.0124562,0.543955,0.00968457,0.0122079,1651,1618,8.66982,-16.6724
434,-594,8.65662,16.4536,-0.000276654,-0.00681148,0.00580232,0.00311498,-0.0102031,0.528968,0.00804402,0.0162071,1658,1618,8.65666,-16.4537
441,-594,8.65234,16.223,0.000288402,-0.00553081,0.00454296,0.00277364,-0.00801605,0.500577,0.00646989,0.0154233,1665,1618,8.65229,-16.2231
448,-594,8.65283,16.0039,0.000459682,-0.00436969,0.00360779,0.00238629,-0.0062963,0.490487,0.00517956,0.0149652,1672,1618,8.65288,-16.0039
455,-594,8.65845,15.7716,0.000279324,-0.00330616,0.00282373,0.00183133,-0.00485817,0.50256,0.0039918,0.0119544,1679,1618,8.65848,-15.7716
462,-594,8.67322,15.52,0.000148652,-0.00208608,0.00195255,0.00128095,-0.00321837,0.525512,0.00267676,0.0135803,1686,1618,8.67319,-15.5201
469,-594,8.65405,15.3105,0.000143445,-0.0010887,0.00114052,0.000823653,-0.00176891,0.537767,0.00152962,0.011612,1693,1618,8.65407,-15.3105
476,-594,8.62195,15.1039,0.000121271,-7.5375e-05,0.000402474,0.000437258,-0.000391362,0.665597,0.000478649,0.0122259,1700,1618,8.62198,-15.1038
483,-594,8.61804,14.8441,8.6894e-05,0.000966456,-0.00029458,0.001056,-2.64979e-06,-1.2757,0.000704885,0.0146124,1707,1618,8.61809,-14.8441
490,-594,8.62317,14.592,0.000122221,0.00206367,-0.000967495,0.00246348,-0.000277584,-1.17893,0.00174223,0.0123807,1714,1618,8.62311,-14.592
497,-594,8.61536,14.3508,7.82806e-05,0.00302842,-0.00160731,0.00373493,-0.000628229,-1.15666,0.00272362,0.00956954,1721,1618,8.61531,-14.3508
504,-594,8.61353,14.1038,-0.000141701,0.00380529,-0.00196973,0.00462007,-0.000956486,-1.17857,0.00344345,0.00933881,1728,1618,8.61352,-14.1038
511,-594,8.62219,13.8488,-0.000239477,0.00433604,-0.00225126,0.00525795,-0.00116139,-1.18212,0.00394976,0.0115761,1735,1618,8.62219,-13.8487
518,-594,8.63025,13.5695,-0.00066622,0.00477773,-0.00228437,0.00560927,-0.00149777,-1.22169,0.00432608,0.014859,1742,1618,8.63027,-13.5694
525,-594,8.65601,13.3073,-0.00192963,0.00488099,-0.00184446,0.00534842,-0.00239707,-1.32259,0.0045788,0.0257206,1749,1618,8.65595,-13.3072
532,-594,8.62671,13.09,-0.00371827,0.00510972,-0.00110351,0.00524557,-0.00385412,-1.44831,0.00527414,0.0449455,1756,1618,8.6267,-13.09
539,-594,8.43323,12.7246,0,0,0,0,0,0,0,-1,1763,1618,8.43321,-12.7246
546,-594,7.48645,8.54785,0,0,0,0,0,0,0,-1,1770,1618,7.48639,-8.54789
553,-594,3.69714,5.68762,0,0,0,0,0,0,0,-1,1777,1618,3.69715,-5.68764
560,-594,6.06616,4.44482,0,0,0,0,0,0,0,-1,1784,1618,6.06621,-4.44477
567,-594,5.97266,4.73303,0,0,0,0,0,0,0,-1,1791,1618,5.97271,-4.73309
574,-594,5.9906,4.96326,0,0,0,0,0,0,0,-1,1798,1618,5.99065,-4.96326
581,-594,0,0,0,0,0,0,0,0,0,-1,1805,1618,0,0
588,-594,0,0,0,0,0,0,0,0,0,-1,1812,1618,0,0
595,-594,0,0,0,0,0,0,0,0,0,-1,1819,1618,0,0
602,-594,0,0,0,0,0,0,0,0,0,-1,1826,1618,0,0
609,-594,0,0,0,0,0,0,0,0,0,-1,1833,1618,0,0
616,-594,0,0,0,0,0,0,0,0,0,-1,1840,1618,0,0
623,-594,0,0,0,0,0,0,0,0,0,-1,1847,1618,0,0
630,-594,0,0,0,0,0,0,0,0,0,-1,1854,1618,0,0
637,-594,0,0,0,0,0,0,0,0,0,-1,1861,1618,0,0
644,-594,0,0,0,0,0,0,0,0,0,-1,1868,1618,0,0
651,-594,0,0,0,0,0,0,0,0,0,-1,1875,1618,0,0
658,-594,0,0,0,0,0,0,0,0,0,-1,1882,1618,0,0
665,-594,0,0,0,0,0,0,0,0,0,-1,1889,1618,0,0
672,-594,0,0,0,0,0,0,0,0,0,-1,1896,1618,0,0
679,-594,0,0,0,0,0,0,0,0,0,-1,1903,1618,0,0
686,-594,0,0,0,0,0,0,0,0,0,-1,1910,1618,0,0
693,-594,0,0,0,0,0,0,0,0,0,-1,1917,1618,0,0
700,-594,0,0,0,0,0,0,0,0,0,-1,1924,1618,0,0
707,-594,0,0,0,0,0,0,0,0,0,-1,1931,1618,0,0
714,-594,0,0,0,0,0,0,0,0,0,-1,1938,1618,0,0
721,-594,0,0,0,0,0,0,0,0,0,-1,1945,1618,0,0
728,-594,0,0,0,0,0,0,0,0,0,-1,1952,1618,0,0
735,-594,0,0,0,0,0,0,0,0,0,-1,1959,1618,0,0
742,-594,0,0,0,0,0,0,0,0,0,-1,1966,1618,0,0
749,-594,0,0,0,0,0,0,0,0,0,-1,1973,1618,0,0
756,-594,0,0,0,0,0,0,0,0,0,-1,1980,1618,0,0
763,-594,0,0,0,0,0,0,0,0,0,-1,1987,1618,0,0
770,-594,0,0,0,0,0,0,0,0,0,-1,1994,1618,0,0
777,-594,0,0,0,0,0,0,0,0,0,-1,2001,1618,0,0
784,-594,0,0,0,0,0,0,0,0,0,-1,2008,1618,0,0
791,-594,0,0,0,0,0,0,0,0,0,-1,2015,1618,0,0
798,-594,0,0,0,0,0,0,0,0,0,-1,2022,1618,0,0
805,-594,0,0,0,0,0,0,0,0,0,-1,2029,1618,0,0
812,-594,0,0,0,0,0,0,0,0,0,-1,2036,1618,0,0
-700,-601,0,0,0,0,0,0,0,0,0,-1,524,1625,0,0
-693,-601,0,0,0,0,0,0,0,0,0,-1,531,1625,0,0
-686,-601,0,0,0,0,0,0,0,0,0,-1,538,1625,0,0
-679,-601,0,0,0,0,0,0,0,0,0,-1,545,1625,0,0
-672,-601,0,0,0,0,0,0,0,0,0,-1,552,1625,0,0
-665,-601,0,0,0,0,0,0,0,0,0,-1,559,1625,0,0
-658,-601,0,0,0,0,0,0,0,0,0,-1,566,1625,0,0
-651,-601,0,0,0,0,0,0,0,0,0,-1,573,1625,0,0
-644,-601,0,0,0,0,0,0,0,0,0,-1,580,1625,0,0
-637,-601,0,0,0,0,0,0,0,0,0,-1,587,1625,0,0
-630,-601,0,0,0,0,0,0,0,0,0,-1,594,1625,0,0
-623,-601,0,0,0,0,0,0,0,0,0,-1,601,1625,0,0
-616,-601,0,0,0,0,0,0,0,0,0,-1,608,1625,0,0
-609,-601,0,0,0,0,0,0,0,0,0,-1,615,1625,0,0
-602,-601,0,0,0,0,0,0,0,0,0,-1,622,1625,0,0
-595,-601,0,0,0,0,0,0,0,0,0,-1,629,1625,0,0
-588,-601,0,0,0,0,0,0,0,0,0,-1,636,1625,0,0
-581,-601,0,0,0,0,0,0,0,0,0,-1,643,1625,0,0
-574,-601,0,0,0,0,0,0,0,0,0,-1,650,1625,0,0
-567,-601,0,0,0,0,0,0,0,0,0,-1,657,1625,0,0
-560,-601,0,0,0,0,0,0,0,0,0,-1,664,1625,0,0
-553,-601,0,0,0,0,0,0,0,0,0,-1,671,1625,0,0
-546,-601,0,0,0,0,0,0,0,0,0,-1,678,1625,0,0
-539,-601,0,0,0,0,0,0,0,0,0,-1,685,1625,0,0
-532,-601,0,0,0,0,0,0,0,0,0,-1,692,1625,0,0
-525,-601,0,0,0,0,0,0,0,0,0,-1,699,1625,0,0
-518,-601,0,0,0,0,0,0,0,0,0,-1,706,1625,0,0
-511,-601,0,0,0,0,0,0,0,0,0,-1,713,1625,0,0
-504,-601,0,0,0,0,0,0,0,0,0,-1,720,1625,0,0
-497,-601,0,0,0,0,0,0,0,0,0,-1,727,1625,0,0
-490,-601,0,0,0,0,0,0,0,0,0,-1,734,1625,0,0
-483,-601,0,0,0,0,0,0,0,0,0,-1,741,1625,0,0
-476,-601,0,0,0,0,0,0,0,0,0,-1,748,1625,0,0
-469,-601,0,0,0,0,0,0,0,0,0,-1,755,1625,0,0
-462,-601,0,0,0,0,0,0,0,0,0,-1,762,1625,0,0
-455,-601,0,0,0,0,0,0,0,0,0,-1,769,1625,0,0
-448,-601,-7.07623,2.7616,0,0,0,0,0,0,0,-1,776,1625,-7.07626,-2.76161
-441,-601,-6.06689,3.33447,0,0,0,0,0,0,0,-1,783,1625,-6.06691,-3.33448
-434,-601,-5.02655,3.8468,0,0,0,0,0,0,0,-1,790,1625,-5.02657,-3.84674
-427,-601,-5.78601,4.2406,0,0,0,0,0,0,0,-1,797,1625,-5.786,-4.24058
-420,-601,-5.5191,5.60364,0,0,0,0,0,0,0,-1,804,1625,-5.51907,-5.60368
-413,-601,-4.30756,5.86047,0,0,0,0,0,0,0,-1,811,1625,-4.30757,-5.86046
-406,-601,-1.67493,7.20422,0,0,0,0,0,0,0,-1,818,1625,-1.67493,-7.20428
-399,-601,2.06653,11.322,0,0,0,0,0,0,0,-1,825,1625,2.06653,-11.322
-392,-601,2.20093,11.8451,0.00407862,-0.000884209,0.00518468,0.0073451,-0.00415069,0.562205,0.00672197,0.0469396,832,1625,2.20092,-11.8451
-385,-601,2.43274,12.4689,0.00296745,-0.00170529,0.00425329,0.00548381,-0.00422166,0.534242,0.00561923,0.0415882,839,1625,2.43276,-12.4689
-378,-601,2.29919,12.6797,0.00214631,-0.00174493,0.00373705,0.00441388,-0.0040125,0.54539,0.00486681,0.0319498,846,1625,2.2992,-12.6796
-371,-601,2.23932,12.9235,0.00160145,-0.00187546,0.00320177,0.00350629,-0.00378029,0.536684,0.0042079,0.0150757,853,1625,2.23933,-12.9234
-364,-601,2.21899,13.189,0.00110132,-0.00171683,0.0028023,0.00282886,-0.00344437,0.552444,0.00362766,0.00987908,860,1625,2.21901,-13.1889
-357,-601,2.19171,13.462,0.00103434,-0.00152648,0.00249345,0.00255692,-0.00304906,0.5482,0.00324077,0.00975866,867,1625,2.19168,-13.462
-350,-601,2.2251,13.7793,0.00121568,-0.00128334,0.00208266,0.0023949,-0.00246256,0.515203,0.00280455,0.0202303,874,1625,2.22509,-13.7793
-343,-601,2.20197,14.0554,0.00126023,-0.00099604,0.00167324,0.00215012,-0.00188593,0.48879,0.00233188,0.021833,881,1625,2.20196,-14.0554
-336,-601,2.16699,14.2906,0.00111325,-0.000829714,0.00111836,0.00162316,-0.00133962,0.427782,0.00171317,0.0181588,888,1625,2.16698,-14.2907
-329,-601,2.18634,14.5339,0.00108407,-0.000354942,0.00084784,0.00147655,-0.000747425,0.433548,0.00130681,0.0145649,895,1625,2.18635,-14.5339
-322,-601,2.20355,14.7766,0.000906826,-4.90094e-06,0.000550998,0.00116609,-0.000264167,0.439802,0.000878787,0.0116706,902,1625,2.20355,-14.7766
-315,-601,2.20746,14.9928,0.000517289,0.000172919,2.59717e-05,0.000519237,0.000170972,0.074854,0.000305551,0.0124575,909,1625,2.20747,-14.9927
-308,-601,2.1994,15.2283,8.6797e-05,0.000226922,-0.000724887,0.000885124,-0.000571406,-0.833575,0.000847405,0.0121046,916,1625,2.19941,-15.2283
-301,-601,2.21545,15.4886,-0.000211,0.000236753,-0.00121138,0.00124477,-0.00121901,-0.876773,0.00142249,0.0102149,923,1625,2.21544,-15.4887
-294,-601,2.20898,15.7377,-0.00032074,-0.000134025,-0.00162183,0.00139713,-0.0018519,-0.814148,0.00188194,0.00948897,930,1625,2.20896,-15.7377
-287,-601,2.19305,15.9801,-0.000311164,-0.00037041,-0.0020526,0.00171203,-0.0023936,-0.778183,0.00238125,0.00921943,937,1625,2.19305,-15.9801
-280,-601,2.20593,16.2305,-0.000115378,-0.000985775,-0.00251707,0.00200384,-0.00310499,-0.699795,0.00297234,0.00993324,944,1625,2.20593,-16.2305
-273,-601,2.21954,16.4813,0.000296395,-0.00171347,-0.00301979,0.00247408,-0.00389115,-0.624771,0.0037052,0.01091,951,1625,2.21956,-16.4814
-266,-601,2.24036,16.6991,0.0010371,-0.00297248,-0.00346386,0.00303449,-0.00496988,-0.523065,0.00466614,0.0140941,958,1625,2.24037,-16.6992
-259,-601,2.28851,16.8195,0.00215366,-0.00419307,-0.00366559,0.00382868,-0.00586809,-0.428624,0.00563955,0.0244529,965,1625,2.28851,-16.8194
-252,-601,2.46472,16.9227,0.00363259,-0.00568674,-0.00365694,0.00489624,-0.00695039,-0.332704,0.00687384,0.0433127,972,1625,2.46475,-16.9228
-245,-601,2.60559,17.0221,0.00438528,-0.00775969,-0.00247617,0.00487073,-0.00824514,-0.193593,0.00765553,0.0480287,979,1625,2.60558,-17.0221
-238,-601,2.7265,17.1704,0,0,0,0,0,0,0,-1,986,1625,2.72649,-17.1704
-231,-601,2.66772,13.7051,0,0,0,0,0,0,0,-1,993,1625,2.6677,-13.7051
-224,-601,-0.0305176,9.13684,0,0,0,0,0,0,0,-1,1000,1625,-0.030498,-9.13681
-217,-601,3.39429,10.3898,0,0,0,0,0,0,0,-1,1007,1625,3.39431,-10.3898
-210,-601,-6.53699,15.7931,0,0,0,0,0,0,0,-1,1014,1625,-6.53697,-15.7931
-203,-601,2.69348,15.9099,0,0,0,0,0,0,0,-1,1021,1625,2.69351,-15.91
-196,-601,2.66992,16.1815,0,0,0,0,0,0,0,-1,1028,1625,2.66995,-16.1815
-189,-601,2.849,16.6105,0,0,0,0,0,0,0,-1,1035,1625,2.84902,-16.6104
-182,-601,1.82153,13.9752,0,0,0,0,0,0,0,-1,1042,1625,1.82155,-13.9752
-175,-601,0.544922,9.28687,0,0,0,0,0,0,0,-1,1049,1625,0.544879,-9.28685
-168,-601,-0.247559,8.97461,0,0,0,0,0,0,0,-1,1056,1625,-0.247598,-8.97466
-161,-601,-1.16833,8.80078,0,0,0,0,0,0,0,-1,1063,1625,-1.16837,-8.80081
-154,-601,1.12756,7.94861,0,0,0,0,0,0,0,-1,1070,1625,1.12762,-7.94855
-147,-601,1.35352,9.55432,0,0,0,0,0,0,0,-1,1077,1625,1.35351,-9.55429
-140,-601,1.72437,11.1498,0,0,0,0,0,0,0,-1,1084,1625,1.72432,-11.1498
-133,-601,2.13281,12.8347,0,0,0,0,0,0,0,-1,1091,1625,2.13287,-12.8348
-126,-601,3.09534,15.427,0,0,0,0,0,0,0,-1,1098,1625,3.0953,-15.4271
-119,-601,1.22485,9.43457,0,0,0,0,0,0,0,-1,1105,1625,1.22489,-9.43456
-112,-601,0,0,0,0,0,0,0,0,0,-1,1112,1625,0,0
-105,-601,0,0,0,0,0,0,0,0,0,-1,1119,1625,0,0
-98,-601,0,0,0,0,0,0,0,0,0,-1,1126,1625,0,0
-91,-601,0,0,0,0,0,0,0,0,0,-1,1133,1625,0,0
-84,-601,0,0,0,0,0,0,0,0,0,-1,1140,1625,0,0
-77,-601,0,0,0,0,0,0,0,0,0,-1,1147,1625,0,0
-70,-601,0,0,0,0,0,0,0,0,0,-1,1154,1625,0,0
-63,-601,0,0,0,0,0,0,0,0,0,-1,1161,1625,0,0
-56,-601,0,0,0,0,0,0,0,0,0,-1,1168,1625,0,0
-49,-601,0,0,0,0,0,0,0,0,0,-1,1175,1625,0,0
-42,-601,0,0,0,0,0,0,0,0,0,-1,1182,1625,0,0
-35,-601,0,0,0,0,0,0,0,0,0,-1,1189,1625,0,0
-28,-601,0,0,0,0,0,0,0,0,0,-1,1196,1625,0,0
-21,-601,0,0,0,0,0,0,0,0,0,-1,1203,1625,0,0
-14,-601,0,0,0,0,0,0,0,0,0,-1,1210,1625,0,0
-7,-601,0,0,0,0,0,0,0,0,0,-1,1217,1625,0,0
0,-601,0,0,0,0,0,0,0,0,0,-1,1224,1625,0,0
7,-601,0,0,0,0,0,0,0,0,0,-1,1231,1625,0,0
14,-601,0,0,0,0,0,0,0,0,0,-1,1238,1625,0,0
21,-601,0,0,0,0,0,0,0,0,0,-1,1245,1625,0,0
28,-601,0,0,0,0,0,0,0,0,0,-1,1252,1625,0,0
35,-601,0,0,0,0,0,0,0,0,0,-1,1259,1625,0,0
42,-601,0,0,0,0,0,0,0,0,0,-1,1266,1625,0,0
49,-601,0,0,0,0,0,0,0,0,0,-1,1273,1625,0,0
56,-601,0,0,0,0,0,0,0,0,0,-1,1280,1625,0,0
63,-601,0,0,0,0,0,0,0,0,0,-1,1287,1625,0,0
70,-601,0,0,0,0,0,0,0,0,0,-1,1294,1625,0,0
77,-601,0,0,0,0,0,0,0,0,0,-1,1301,1625,0,0
84,-601,0,0,0,0,0,0,0,0,0,-1,1308,1625,0,0
91,-601,0,0,0,0,0,0,0,0,0,-1,1315,1625,0,0
98,-601,0,0,0,0,0,0,0,0,0,-1,1322,1625,0,0
105,-601,0,0,0,0,0,0,0,0,0,-1,1329,1625,0,0
112,-601,0,0,0,0,0,0,0,0,0,-1,1336,1625,0,0
119,-601,0,0,0,0,0,0,0,0,0,-1,1343,1625,0,0
126,-601,0,0,0,0,0,0,0,0,0,-1,1350,1625,0,0
133,-601,0,0,0,0,0,0,0,0,0,-1,1357,1625,0,0
140,-601,0,0,0,0,0,0,0,0,0,-1,1364,1625,0,0
147,-601,0,0,0,0,0,0,0,0,0,-1,1371,1625,0,0
154,-601,0,0,0,0,0,0,0,0,0,-1,1378,1625,0,0
161,-601,0,0,0,0,0,0,0,0,0,-1,1385,1625,0,0
168,-601,0,0,0,0,0,0,0,0,0,-1,1392,1625,0,0
175,-601,0,0,0,0,0,0,0,0,0,-1,1399,1625,0,0
182,-601,0,0,0,0,0,0,0,0,0,-1,1406,1625,0,0
189,-601,0,0,0,0,0,0,0,0,0,-1,1413,1625,0,0
196,-601,0,0,0,0,0,0,0,0,0,-1,1420,1625,0,0
203,-601,0,0,0,0,0,0,0,0,0,-1,1427,1625,0,0
210,-601,0,0,0,0,0,0,0,0,0,-1,1434,1625,0,0
217,-601,0,0,0,0,0,0,0,0,0,-1,1441,1625,0,0
224,-601,0,0,0,0,0,0,0,0,0,-1,1448,1625,0,0
231,-601,-0.0371094,0.525879,0,0,0,0,0,0,0,-1,1455,1625,-0.0371518,-0.525824
238,-601,2.03369,-1.32861,0,0,0,0,0,0,0,-1,1462,1625,2.03364,1.32858
245,-601,2.71375,2.44983,0,0,0,0,0,0,0,-1,1469,1625,2.71371,-2.44979
252,-601,4.66943,2.28381,0,0,0,0,0,0,0,-1,1476,1625,4.66947,-2.28376
259,-601,6.42712,2.61987,0,0,0,0,0,0,0,-1,1483,1625,6.42711,-2.61985
266,-601,6.75317,1.68701,0,0,0,0,0,0,0,-1,1490,1625,6.75323,-1.687
273,-601,5.4314,2.92053,0,0,0,0,0,0,0,-1,1497,1625,5.43144,-2.92051
280,-601,4.64722,1.17786,0,0,0,0,0,0,0,-1,1504,1625,4.64722,-1.1779
287,-601,5.32532,2.6217,0,0,0,0,0,0,0,-1,1511,1625,5.32535,-2.62171
294,-601,5.97693,4.22693,0,0,0,0,0,0,0,-1,1518,1625,5.97697,-4.22694
301,-601,7.28162,9.50024,0,0,0,0,0,0,0,-1,1525,1625,7.28162,-9.50025
308,-601,6.53528,10.3927,0,0,0,0,0,0,0,-1,1532,1625,6.53529,-10.3927
315,-601,4.88013,11.7184,0,0,0,0,0,0,0,-1,1539,1625,4.88015,-11.7184
322,-601,3.38098,12.7864,0,0,0,0,0,0,0,-1,1546,1625,3.38104,-12.7864
329,-601,1.8772,13.8768,0,0,0,0,0,0,0,-1,1553,1625,1.87716,-13.8768
336,-601,4.67847,9.53308,0,0,0,0,0,0,0,-1,1560,1625,4.67848,-9.53309
343,-601,11.1404,3.14575,0,0,0,0,0,0,0,-1,1567,1625,11.1404,-3.1458
350,-601,10.9462,2.37769,0,0,0,0,0,0,0,-1,1574,1625,10.9461,-2.37764
357,-601,10.7518,1.6095,0,0,0,0,0,0,0,-1,1581,1625,10.7518,-1.60948
364,-601,5.33643,9.74426,0,0,0,0,0,0,0,-1,1588,1625,5.33637,-9.74429
371,-601,8.46387,16.2725,0,0,0,0,0,0,0,-1,1595,1625,8.46385,-16.2725
378,-601,8.77197,17.9885,0,0,0,0,0,0,0,-1,1602,1625,8.77201,-17.9886
385,-601,9.07214,17.4697,-0.00758215,-0.0120034,0.0134366,0.00382451,-0.0234101,0.703868,0.0170253,0.0466697,1609,1625,9.07217,-17.4697
392,-601,8.53357,17.4258,-0.00653052,-0.01121,0.0120413,0.00339627,-0.0211368,0.689439,0.0153491,0.0465048,1616,1625,8.53352,-17.4257
399,-601,8.30945,17.4241,-0.00461704,-0.0104368,0.0103552,0.00322936,-0.0182832,0.648428,0.0133956,0.0204877,1623,1625,8.30944,-17.4241
406,-601,8.40747,17.2451,-0.00277727,-0.00926126,0.00876573,0.00332678,-0.0153653,0.608275,0.0115138,0.0143573,1630,1625,8.40743,-17.2451
413,-601,8.42603,17.0441,-0.00169212,-0.00811654,0.00746859,0.00322574,-0.0130344,0.582309,0.00994087,0.0129531,1637,1625,8.42598,-17.044
420,-601,8.40637,16.8853,-0.00101103,-0.00683876,0.00624719,0.00296843,-0.0108182,0.567183,0.00837878,0.0100366,1644,1625,8.40632,-16.8852
427,-601,8.41284,16.6741,-0.000561998,-0.00573413,0.00523494,0.0026908,-0.00898692,0.55598,0.00706123,0.014633,1651,1625,8.41279,-16.674
434,-601,8.4259,16.451,-0.000214879,-0.0046783,0.00425134,0.00235491,-0.00724809,0.543697,0.00577924,0.0160675,1658,1625,8.42593,-16.451
441,-601,8.4303,16.2207,0.000188526,-0.00355832,0.00321457,0.00203575,-0.00540553,0.521564,0.00444064,0.0172671,1665,1625,8.4303,-16.2207
448,-601,8.43115,16.0031,0.000300371,-0.00253998,0.00244608,0.00170866,-0.00394826,0.522385,0.00335026,0.0139549,1672,1625,8.43113,-16.003
455,-601,8.4425,15.7627,0.000108873,-0.0016122,0.00179286,0.00123702,-0.00274035,0.561646,0.00235037,0.012423,1679,1625,8.4425,-15.7627
462,-601,8.43018,15.5166,-3.20269e-05,-0.000521957,0.00105178,0.000802942,-0.00135693,0.670986,0.0012606,0.0114207,1686,1625,8.4302,-15.5166
469,-601,8.42383,15.304,-4.21026e-05,0.000465163,0.000311577,0.000613289,-0.000190228,1.12702,0.000484871,0.0109574,1693,1625,8.42388,-15.3039
476,-601,8.3905,15.0897,-7.03409e-05,0.00153496,-0.000393614,0.00162628,-0.000161659,-1.34283,0.00114189,0.0131921,1700,1625,8.39045,-15.0898
483,-601,8.37817,14.8442,-0.000132221,0.00265906,-0.00108464,0.00303098,-0.000504138,-1.24047,0.00220797,0.0165202,1707,1625,8.37813,-14.8443
490,-601,8.39539,14.5968,-0.000152619,0.00388227,-0.00177344,0.00455093,-0.000821279,-1.21024,0.00334152,0.012676,1714,1625,8.39536,-14.5968
497,-601,8.39746,14.3535,-0.000280596,0.00503211,-0.00242939,0.0059755,-0.00122399,-1.2004,0.00444815,0.00969653,1721,1625,8.39746,-14.3535
504,-601,8.41357,14.0845,-0.000529291,0.0059681,-0.0028645,0.00705061,-0.00161181,-1.20948,0.0053197,0.0130727,1728,1625,8.41357,-14.0844
511,-601,8.39221,13.8435,-0.000609825,0.00670704,-0.00325028,0.00794232,-0.00184511,-1.2076,0.00600516,0.0237244,1735,1625,8.39227,-13.8435
518,-601,8.3584,13.5469,-0.00124828,0.00735452,-0.00327274,0.00845801,-0.00235177,-1.24559,0.00656455,0.034813,1742,1625,8.35838,-13.5469
525,-601,8.35608,13.2527,-0.00259009,0.0078455,-0.00301033,0.00865161,-0.0033962,-1.30915,0.00717301,0.0415601,1749,1625,8.35606,-13.2527
532,-601,8.38147,13.0254,0,0,0,0,0,0,0,-1,1756,1625,8.38147,-13.0253
539,-601,7.77112,11.4299,0,0,0,0,0,0,0,-1,1763,1625,7.77116,-11.4299
546,-601,6.56873,3.62354,0,0,0,0,0,0,0,-1,1770,1625,6.56867,-3.62352
553,-601,7.03015,4.25049,0,0,0,0,0,0,0,-1,1777,1625,7.03011,-4.25048
560,-601,7.50745,4.83374,0,0,0,0,0,0,0,-1,1784,1625,7.50744,-4.83376
567,-601,7.82043,3.83301,0,0,0,0,0,0,0,-1,1791,1625,7.82041,-3.83303
574,-601,0,0,0,0,0,0,0,0,0,-1,1798,1625,0,0
581,-601,0,0,0,0,0,0,0,0,0,-1,1805,1625,0,0
588,-601,0,0,0,0,0,0,0,0,0,-1,1812,1625,0,0
595,-601,0,0,0,0,0,0,0,0,0,-1,1819,1625,0,0
602,-601,0,0,0,0,0,0,0,0,0,-1,1826,1625,0,0
609,-601,0,0,0,0,0,0,0,0,0,-1,1833,1625,0,0
616,-601,0,0,0,0,0,0,0,0,0,-1,1840,1625,0,0
623,-601,0,0,0,0,0,0,0,0,0,-1,1847,1625,0,0
630,-601,0,0,0,0,0,0,0,0,0,-1,1854,1625,0,0
637,-601,0,0,0,0,0,0,0,0,0,-1,1861,1625,0,0
644,-601,0,0,0,0,0,0,0,0,0,-1,1868,1625,0,0
651,-601,0,0,0,0,0,0,0,0,0,-1,1875,1625,0,0
658,-601,0,0,0,0,0,0,0,0,0,-1,1882,1625,0,0
665,-601,0,0,0,0,0,0,0,0,0,-1,1889,1625,0,0
672,-601,0,0,0,0,0,0,0,0,0,-1,1896,1625,0,0
679,-601,0,0,0,0,0,0,0,0,0,-1,1903,1625,0,0
686,-601,0,0,0,0,0,0,0,0,0,-1,1910,1625,0,0
693,-601,0,0,0,0,0,0,0,0,0,-1,1917,1625,0,0
700,-601,0,0,0,0,0,0,0,0,0,-1,1924,1625,0,0
707,-601,0,0,0,0,0,0,0,0,0,-1,1931,1625,0,0
714,-601,0,0,0,0,0,0,0,0,0,-1,1938,1625,0,0
721,-601,0,0,0,0,0,0,0,0,0,-1,1945,1625,0,0
728,-601,0,0,0,0,0,0,0,0,0,-1,1952,1625,0,0
735,-601,0,0,0,0,0,0,0,0,0,-1,1959,1625,0,0
742,-601,0,0,0,0,0,0,0,0,0,-1,1966,1625,0,0
749,-601,0,0,0,0,0,0,0,0,0,-1,1973,1625,0,0
756,-601,0,0,0,0,0,0,0,0,0,-1,1980,1625,0,0
763,-601,0,0,0,0,0,0,0,0,0,-1,1987,1625,0,0
770,-601,0,0,0,0,0,0,0,0,0,-1,1994,1625,0,0
777,-601,0,0,0,0,0,0,0,0,0,-1,2001,1625,0,0
784,-601,0,0,0,0,0,0,0,0,0,-1,2008,1625,0,0
791,-601,0,0,0,0,0,0,0,0,0,-1,2015,1625,0,0
798,-601,0,0,0,0,0,0,0,0,0,-1,2022,1625,0,0
805,-601,0,0,0,0,0,0,0,0,0,-1,2029,1625,0,0
812,-601,0,0,0,0,0,0,0,0,0,-1,2036,1625,0,0
-700,-608,0,0,0,0,0,0,0,0,0,-1,524,1632,0,0
-693,-608,0,0,0,0,0,0,0,0,0,-1,531,1632,0,0
-686,-608,0,0,0,0,0,0,0,0,0,-1,538,1632,0,0
-679,-608,0,0,0,0,0,0,0,0,0,-1,545,1632,0,0
-672,-608,0,0,0,0,0,0,0,0,0,-1,552,1632,0,0
-665,-608,0,0,0,0,0,0,0,0,0,-1,559,1632,0,0
-658,-608,0,0,0,0,0,0,0,0,0,-1,566,1632,0,0
-651,-608,0,0,0,0,0,0,0,0,0,-1,573,1632,0,0
-644,-608,0,0,0,0,0,0,0,0,0,-1,580,1632,0,0
-637,-608,0,0,0,0,0,0,0,0,0,-1,587,1632,0,0
-630,-608,0,0,0,0,0,0,0,0,0,-1,594,1632,0,0
-623,-608,0,0,0,0,0,0,0,0,0,-1,601,1632,0,0
-616,-608,0,0,0,0,0,0,0,0,0,-1,608,1632,0,0
-609,-608,0,0,0,0,0,0,0,0,0,-1,615,1632,0,0
-602,-608,0,0,0,0,0,0,0,0,0,-1,622,1632,0,0
-595,-608,0,0,0,0,0,0,0,0,0,-1,629,1632,0,0
-588,-608,0,0,0,0,0,0,0,0,0,-1,636,1632,0,0
-581,-608,0,0,0,0,0,0,0,0,0,-1,643,1632,0,0
-574,-608,0,0,0,0,0,0,0,0,0,-1,650,1632,0,0
-567,-608,0,0,0,0,0,0,0,0,0,-1,657,1632,0,0
-560,-608,0,0,0,0,0,0,0,0,0,-1,664,1632,0,0
-553,-608,0,0,0,0,0,0,0,0,0,-1,671,1632,0,0
-546,-608,0,0,0,0,0,0,0,0,0,-1,678,1632,0,0
-539,-608,0,0,0,0,0,0,0,0,0,-1,685,1632,0,0
-532,-608,0,0,0,0,0,0,0,0,0,-1,692,1632,0,0
-525,-608,0,0,0,0,0,0,0,0,0,-1,699,1632,0,0
-518,-608,0,0,0,0,0,0,0,0,0,-1,706,1632,0,0
-511,-608,0,0,0,0,0,0,0,0,0,-1,713,1632,0,0
-504,-608,0,0,0,0,0,0,0,0,0,-1,720,1632,0,0
-497,-608,0,0,0,0,0,0,0,0,0,-1,727,1632,0,0
-490,-608,0,0,0,0,0,0,0,0,0,-1,734,1632,0,0
-483,-608,0,0,0,0,0,0,0,0,0,-1,741,1632,0,0
-476,-608,0,0,0,0,0,0,0,0,0,-1,748,1632,0,0
-469,-608,0,0,0,0,0,0,0,0,0,-1,755,1632,0,0
-462,-608,0,0,0,0,0,0,0,0,0,-1,762,1632,0,0
-455,-608,0,0,0,0,0,0,0,0,0,-1,769,1632,0,0
-448,-608,0,0,0,0,0,0,0,0,0,-1,776,1632,0,0
-441,-608,-7.34601,2.78052,0,0,0,0,0,0,0,-1,783,1632,-7.346,-2.78056
-434,-608,-6.34558,3.27405,0,0,0,0,0,0,0,-1,790,1632,-6.34555,-3.27406
-427,-608,-7.74335,4.17688,0,0,0,0,0,0,0,-1,797,1632,-7.74334,-4.17693
-420,-608,-6.82794,4.34839,0,0,0,0,0,0,0,-1,804,1632,-6.82794,-4.34838
-413,-608,-5.41919,5.66138,0,0,0,0,0,0,0,-1,811,1632,-5.41917,-5.66133
-406,-608,-4.79681,4.98999,0,0,0,0,0,0,0,-1,818,1632,-4.79684,-4.98997
-399,-608,-2.60645,6.34167,0,0,0,0,0,0,0,-1,825,1632,-2.60643,-6.34169
-392,-608,2.52307,11.7815,0,0,0,0,0,0,0,-1,832,1632,2.52306,-11.7815
-385,-608,2.9422,12.6388,0.00436392,-0.00197737,0.00624359,0.00819581,-0.00580925,0.550455,0.00812486,0.0491358,839,1632,2.94218,-12.6388
-378,-608,2.88428,12.8761,0.00329672,-0.00210567,0.00551687,0.00673818,-0.00554714,0.557742,0.00710404,0.0497288,846,1632,2.88428,-12.8761
-371,-608,2.67615,13.0853,0,0,0,0,0,0,0,-1,853,1632,2.67616,-13.0854
-364,-608,2.51123,13.1123,0.00183391,-0.00188032,0.00406366,0.0044447,-0.00449111,0.571066,0.00515912,0.0195608,860,1632,2.51121,-13.1123
-357,-608,2.4624,13.3921,0.00157411,-0.00162147,0.00353845,0.00385879,-0.00390615,0.573327,0.00448312,0.0153459,867,1632,2.46239,-13.3921
-350,-608,2.47174,13.7305,0.00157568,-0.0013412,0.00290379,0.00336671,-0.00313222,0.552674,0.00375297,0.0187582,874,1632,2.47174,-13.7305
-343,-608,2.47437,14.0103,0.00152864,-0.00103302,0.00231603,0.00289442,-0.0023988,0.532816,0.0030605,0.0232842,881,1632,2.47434,-14.0102
-336,-608,2.45959,14.288,0.00131642,-0.000827677,0.00163248,0.00219739,-0.00170865,0.494863,0.00226103,0.0157992,888,1632,2.45961,-14.288
-329,-608,2.42596,14.5376,0.00123603,-0.000314531,0.00128974,0.00196557,-0.00104407,0.51478,0.00176456,0.0145694,895,1632,2.42599,-14.5376
-322,-608,2.40979,14.7662,0.00105422,5.22536e-05,0.000946293,0.00162396,-0.000517489,0.541946,0.00129021,0.0145854,902,1632,2.40981,-14.7662
-315,-608,2.45221,14.995,0.000687628,0.000211008,0.000403163,0.000917647,-1.90103e-05,0.518473,0.000618199,0.0126447,909,1632,2.45222,-14.995
-308,-608,2.46588,15.2385,0.000289178,0.000188554,-0.000358589,0.000600967,-0.000123235,-0.7157,0.000447416,0.013016,916,1632,2.46586,-15.2385
-301,-608,2.46924,15.4874,4.82305e-05,0.000223928,-0.00082402,0.000964768,-0.00069261,-0.838502,0.000961179,0.0111258,923,1632,2.46924,-15.4875
-294,-608,2.47119,15.7379,1.82449e-05,-7.11727e-05,-0.00115177,0.00112618,-0.00117911,-0.765999,0.00133107,0.010456,930,1632,2.47122,-15.7379
-287,-608,2.44623,15.9744,0.000115302,-0.000267238,-0.00146646,0.00140291,-0.00155485,-0.720549,0.00170841,0.00945143,937,1632,2.44624,-15.9743
-280,-608,2.43671,16.2006,0.000376825,-0.000787306,-0.00179803,0.00168465,-0.00209513,-0.628859,0.00218655,0.00762972,944,1632,2.43673,-16.2005
-273,-608,2.4278,16.4426,0.000846212,-0.0014109,-0.00214176,0.00213856,-0.00270325,-0.542919,0.00280175,0.00887151,951,1632,2.42777,-16.4426
-266,-608,2.44684,16.6846,0.0015657,-0.00239073,-0.0024038,0.00270061,-0.00352565,-0.441107,0.00360524,0.00931079,958,1632,2.44683,-16.6845
-259,-608,2.47815,16.871,0.00255367,-0.00334644,-0.00247426,0.00345391,-0.00424668,-0.348954,0.00445379,0.0114664,965,1632,2.47817,-16.8709
-252,-608,2.49799,17.063,0.00383962,-0.0044873,-0.00237558,0.00446967,-0.00511735,-0.259253,0.00553928,0.0245355,972,1632,2.49798,-17.063
-245,-608,2.63818,17.3776,0.00448351,-0.00615533,-0.00134648,0.00465127,-0.0063231,-0.123959,0.00636052,0.0374282,979,1632,2.63816,-17.3776
-238,-608,2.77356,17.6088,0.00542835,-0.00828177,-0.000340582,0.00543681,-0.00829022,-0.0248212,0.00798217,0.0464682,986,1632,2.77358,-17.6088
-231,-608,2.91772,17.8502,0,0,0,0,0,0,0,-1,993,1632,2.91775,-17.8502
-224,-608,2.51642,15.3452,0,0,0,0,0,0,0,-1,1000,1632,2.5164,-15.3452
-217,-608,1.04419,12.8451,0,0,0,0,0,0,0,-1,1007,1632,1.04418,-12.8451
-210,-608,2.75903,15.9414,0,0,0,0,0,0,0,-1,1014,1632,2.75903,-15.9414
-203,-608,2.76776,16.217,0,0,0,0,0,0,0,-1,1021,1632,2.76773,-16.217
-196,-608,3.70288,18.3846,0,0,0,0,0,0,0,-1,1028,1632,3.7029,-18.3846
-189,-608,3.55042,18.9882,0,0,0,0,0,0,0,-1,1035,1632,3.55038,-18.9881
-182,-608,2.89221,16.7092,0,0,0,0,0,0,0,-1,1042,1632,2.89224,-16.7093
-175,-608,0.219116,15.1643,0,0,0,0,0,0,0,-1,1049,1632,0.219173,-15.1644
-168,-608,0.000366211,9.48645,0,0,0,0,0,0,0,-1,1056,1632,0.000317105,-9.48648
-161,-608,2.27832,15.4423,0,0,0,0,0,0,0,-1,1063,1632,2.27826,-15.4423
-154,-608,1.3999,16.4037,0,0,0,0,0,0,0,-1,1070,1632,1.39987,-16.4037
-147,-608,2.4386,9.50317,0,0,0,0,0,0,0,-1,1077,1632,2.43858,-9.50313
-140,-608,2.60132,10.8401,0,0,0,0,0,0,0,-1,1084,1632,2.60134,-10.8401
-133,-608,3.2312,12.4738,0,0,0,0,0,0,0,-1,1091,1632,3.23116,-12.4738
-126,-608,3.76465,13.9644,0,0,0,0,0,0,0,-1,1098,1632,3.76466,-13.9644
-119,-608,4.28906,15.4196,0,0,0,0,0,0,0,-1,1105,1632,4.28911,-15.4195
-112,-608,0.745117,10.5587,0,0,0,0,0,0,0,-1,1112,1632,0.745145,-10.5587
-105,-608,-0.252319,1.42419,0,0,0,0,0,0,0,-1,1119,1632,-0.252331,-1.42418
-98,-608,-2.8595,3.0863,0,0,0,0,0,0,0,-1,1126,1632,-2.85948,-3.08625
-91,-608,-3.71948,1.73608,0,0,0,0,0,0,0,-1,1133,1632,-3.7195,-1.73607
-84,-608,0,0,0,0,0,0,0,0,0,-1,1140,1632,0,0
-77,-608,0,0,0,0,0,0,0,0,0,-1,1147,1632,0,0
-70,-608,0,0,0,0,0,0,0,0,0,-1,1154,1632,0,0
-63,-608,0,0,0,0,0,0,0,0,0,-1,1161,1632,0,0
-56,-608,0,0,0,0,0,0,0,0,0,-1,1168,1632,0,0
-49,-608,0,0,0,0,0,0,0,0,0,-1,1175,1632,0,0
-42,-608,0,0,0,0,0,0,0,0,0,-1,1182,1632,0,0
-35,-608,0,0,0,0,0,0,0,0,0,-1,1189,1632,0,0
-28,-608,0,0,0,0,0,0,0,0,0,-1,1196,1632,0,0
-21,-608,0,0,0,0,0,0,0,0,0,-1,1203,1632,0,0
-14,-608,0,0,0,0,0,0,0,0,0,-1,1210,1632,0,0
-7,-608,0,0,0,0,0,0,0,0,0,-1,1217,1632,0,0
0,-608,0,0,0,0,0,0,0,0,0,-1,1224,1632,0,0
7,-608,0,0,0,0,0,0,0,0,0,-1,1231,1632,0,0
14,-608,0,0,0,0,0,0,0,0,0,-1,1238,1632,0,0
21,-608,0,0,0,0,0,0,0,0,0,-1,1245,1632,0,0
28,-608,0,0,0,0,0,0,0,0,0,-1,1252,1632,0,0
35,-608,0,0,0,0,0,0,0,0,0,-1,1259,1632,0,0
42,-608,0,0,0,0,0,0,0,0,0,-1,1266,1632,0,0
49,-608,0,0,0,0,0,0,0,0,0,-1,1273,1632,0,0
56,-608,0,0,0,0,0,0,0,0,0,-1,1280,1632,0,0
63,-608,0,0,0,0,0,0,0,0,0,-1,1287,1632,0,0
70,-608,0,0,0,0,0,0,0,0,0,-1,1294,1632,0,0
77,-608,0,0,0,0,0,0,0,0,0,-1,1301,1632,0,0
84,-608,0,0,0,0,0,0,0,0,0,-1,1308,1632,0,0
91,-608,0,0,0,0,0,0,0,0,0,-1,1315,1632,0,0
98,-608,0,0,0,0,0,0,0,0,0,-1,1322,1632,0,0
105,-608,0,0,0,0,0,0,0,0,0,-1,1329,1632,0,0
112,-608,0,0,0,0,0,0,0,0,0,-1,1336,1632,0,0
119,-608,0,0,0,0,0,0,0,0,0,-1,1343,1632,0,0
126,-608,0,0,0,0,0,0,0,0,0,-1,1350,1632,0,0
133,-608,0,0,0,0,0,0,0,0,0,-1,1357,1632,0,0
140,-608,0,0,0,0,0,0,0,0,0,-1,1364,1632,0,0
147,-608,0,0,0,0,0,0,0,0,0,-1,1371,1632,0,0
154,-608,0,0,0,0,0,0,0,0,0,-1,1378,1632,0,0
161,-608,0,0,0,0,0,0,0,0,0,-1,1385,1632,0,0
168,-608,0,0,0,0,0,0,0,0,0,-1,1392,1632,0,0
175,-608,0,0,0,0,0,0,0,0,0,-1,1399,1632,0,0
182,-608,0,0,0,0,0,0,0,0,0,-1,1406,1632,0,0
189,-608,0,0,0,0,0,0,0,0,0,-1,1413,1632,0,0
196,-608,0,0,0,0,0,0,0,0,0,-1,1420,1632,0,0
203,-608,0,0,0,0,0,0,0,0,0,-1,1427,1632,0,0
210,-608,5.7157,-0.333008,0,0,0,0,0,0,0,-1,1434,1632,5.71566,0.333004
217,-608,4.49402,-0.831787,0,0,0,0,0,0,0,-1,1441,1632,4.49396,0.831738
224,-608,4.18018,-1.11792,0,0,0,0,0,0,0,-1,1448,1632,4.1802,1.11796
231,-608,0.361816,0.825195,0,0,0,0,0,0,0,-1,1455,1632,0.36185,-0.825226
238,-608,2.85388,-0.28833,0,0,0,0,0,0,0,-1,1462,1632,2.85391,0.288282
245,-608,3.87537,4.02173,0,0,0,0,0,0,0,-1,1469,1632,3.87538,-4.02168
252,-608,5.66956,3.5282,0,0,0,0,0,0,0,-1,1476,1632,5.6696,-3.52815
259,-608,7.47437,3.07178,0,0,0,0,0,0,0,-1,1483,1632,7.4744,-3.07172
266,-608,9.46936,2.34766,0,0,0,0,0,0,0,-1,1490,1632,9.46932,-2.34764
273,-608,6.03003,3.34241,0,0,0,0,0,0,0,-1,1497,1632,6.02997,-3.34245
280,-608,5.72461,2.0769,0,0,0,0,0,0,0,-1,1504,1632,5.72457,-2.07688
287,-608,6.20581,3.59338,0,0,0,0,0,0,0,-1,1511,1632,6.20585,-3.59341
294,-608,6.94922,5.17151,0,0,0,0,0,0,0,-1,1518,1632,6.94925,-5.17151
301,-608,7.60083,6.68018,0,0,0,0,0,0,0,-1,1525,1632,7.60086,-6.68013
308,-608,7.64746,9.93848,0,0,0,0,0,0,0,-1,1532,1632,7.64745,-9.93842
315,-608,5.30688,11.2054,0,0,0,0,0,0,0,-1,1539,1632,5.30694,-11.2054
322,-608,5.32617,13.7581,0,0,0,0,0,0,0,-1,1546,1632,5.32613,-13.758
329,-608,7.12231,13.9607,0,0,0,0,0,0,0,-1,1553,1632,7.12231,-13.9607
336,-608,5.48633,7.82446,0,0,0,0,0,0,0,-1,1560,1632,5.48634,-7.82446
343,-608,5.47192,5.61047,0,0,0,0,0,0,0,-1,1567,1632,5.47192,-5.61045
350,-608,11.6957,1.71387,0,0,0,0,0,0,0,-1,1574,1632,11.6957,-1.71388
357,-608,3.77002,5.10046,0,0,0,0,0,0,0,-1,1581,1632,3.77002,-5.10043
364,-608,5.6925,11.2163,0,0,0,0,0,0,0,-1,1588,1632,5.69255,-11.2163
371,-608,8.40601,18.1173,0,0,0,0,0,0,0,-1,1595,1632,8.40595,-18.1174
378,-608,8.37512,18.0033,-0.00541967,-0.00907241,0.0110764,0.00397989,-0.018472,0.703689,0.0138334,0.0374059,1602,1632,8.37506,-18.0033
385,-608,8.25903,17.7983,-0.00536089,-0.00791669,0.00982888,0.00327282,-0.0165504,0.720753,0.0122709,0.0320225,1609,1632,8.25903,-17.7984
392,-608,8.13037,17.677,-0.00472308,-0.00766941,0.00880504,0.00273119,-0.0151237,0.702511,0.0111054,0.0220514,1616,1632,8.13038,-17.677
399,-608,8.15259,17.4969,-0.00362587,-0.00721274,0.00770833,0.0024949,-0.0133335,0.671101,0.00982679,0.00975945,1623,1632,8.15258,-17.4969
406,-608,8.18433,17.2998,-0.00254279,-0.00641828,0.0065781,0.00237703,-0.0113381,0.642162,0.0084631,0.00901752,1630,1632,8.18432,-17.2998
413,-608,8.16101,17.0875,-0.00185828,-0.00565958,0.00564028,0.00219299,-0.00971084,0.622885,0.00731529,0.00936467,1637,1632,8.16096,-17.0875
420,-608,8.1239,16.8864,-0.00139064,-0.00470823,0.00473672,0.00196934,-0.00806821,0.616972,0.00614142,0.0163093,1644,1632,8.12385,-16.8864
427,-608,8.15857,16.6624,-0.00107705,-0.00392051,0.0039723,0.00172028,-0.00671785,0.613546,0.0051487,0.0188843,1651,1632,8.15857,-16.6624
434,-608,8.1925,16.4381,-0.000843,-0.00310776,0.0032017,0.00142067,-0.00537143,0.615423,0.00413665,0.0151682,1658,1632,8.1925,-16.4381
441,-608,8.18555,16.226,-0.000555363,-0.00203959,0.00231208,0.00113079,-0.00372574,0.630107,0.0029343,0.0131353,1665,1632,8.1856,-16.226
448,-608,8.20483,16.0095,-0.000438932,-0.00107975,0.00165193,0.000923372,-0.00244206,0.689607,0.00200789,0.0148117,1672,1632,8.2048,-16.0095
455,-608,8.22485,15.7684,-0.000562799,-0.000208482,0.00107969,0.000708485,-0.00147977,0.866715,0.00128928,0.0117024,1679,1632,8.22485,-15.7684
462,-608,8.19067,15.5437,-0.000625901,0.000839731,0.000419317,0.000951217,-0.000737387,1.31093,0.000977518,0.0109291,1686,1632,8.19065,-15.5437
469,-608,8.1698,15.3142,-0.000542602,0.00192667,-0.000305858,0.00196399,-0.000579923,-1.44938,0.00153949,0.00869525,1693,1632,8.16976,-15.3142
476,-608,8.16785,15.0789,-0.000463059,0.00319949,-0.00105351,0.0034809,-0.00074447,-1.30977,0.00260447,0.00881984,1700,1632,8.1678,-15.0788
483,-608,8.17346,14.8373,-0.000423053,0.00460804,-0.00183731,0.00520757,-0.00102258,-1.25538,0.00385801,0.00852507,1707,1632,8.17346,-14.8372
490,-608,8.18616,14.5935,-0.000373761,0.00618998,-0.00267348,0.00714109,-0.00132488,-1.229,0.00525829,0.00897085,1714,1632,8.18617,-14.5935
497,-608,8.19031,14.3435,-0.000465075,0.0077941,-0.00350088,0.00907835,-0.00174933,-1.2192,0.00671177,0.0146965,1721,1632,8.1903,-14.3435
504,-608,8.15112,14.1093,-0.000727046,0.00924205,-0.00415966,0.0107497,-0.00223468,-1.22308,0.00801586,0.0304162,1728,1632,8.15109,-14.1093
511,-608,8.02844,13.8468,-0.000877542,0.0105996,-0.00486768,0.0123861,-0.00266396,-1.21906,0.00927379,0.0435306,1735,1632,8.02846,-13.8468
518,-608,7.93896,13.6282,0,0,0,0,0,0,0,-1,1742,1632,7.93902,-13.6281
525,-608,8.07288,13.2106,0,0,0,0,0,0,0,-1,1749,1632,8.07292,-13.2105
532,-608,8.27917,11.6693,0,0,0,0,0,0,0,-1,1756,1632,8.27919,-11.6694
539,-608,9.40796,1.43457,0,0,0,0,0,0,0,-1,1763,1632,9.40801,-1.43463
546,-608,9.94031,2.1134,0,0,0,0,0,0,0,-1,1770,1632,9.94031,-2.11346
553,-608,10.363,2.81335,0,0,0,0,0,0,0,-1,1777,1632,10.3631,-2.81333
560,-608,9.23999,4.5636,0,0,0,0,0,0,0,-1,1784,1632,9.24,-4.56354
567,-608,0,0,0,0,0,0,0,0,0,-1,1791,1632,0,0
574,-608,0,0,0,0,0,0,0,0,0,-1,1798,1632,0,0
581,-608,0,0,0,0,0,0,0,0,0,-1,1805,1632,0,0
588,-608,0,0,0,0,0,0,0,0,0,-1,1812,1632,0,0
595,-608,0,0,0,0,0,0,0,0,0,-1,1819,1632,0,0
602,-608,0,0,0,0,0,0,0,0,0,-1,1826,1632,0,0
609,-608,0,0,0,0,0,0,0,0,0,-1,1833,1632,0,0
616,-608,0,0,0,0,0,0,0,0,0,-1,1840,1632,0,0
623,-608,0,0,0,0,0,0,0,0,0,-1,1847,1632,0,0
630,-608,0,0,0,0,0,0,0,0,0,-1,1854,1632,0,0
637,-608,0,0,0,0,0,0,0,0,0,-1,1861,1632,0,0
644,-608,0,0,0,0,0,0,0,0,0,-1,1868,1632,0,0
651,-608,0,0,0,0,0,0,0,0,0,-1,1875,1632,0,0
658,-608,0,0,0,0,0,0,0,0,0,-1,1882,1632,0,0
665,-608,0,0,0,0,0,0,0,0,0,-1,1889,1632,0,0
672,-608,0,0,0,0,0,0,0,0,0,-1,1896,1632,0,0
679,-608,0,0,0,0,0,0,0,0,0,-1,1903,1632,0,0
686,-608,0,0,0,0,0,0,0,0,0,-1,1910,1632,0,0
693,-608,0,0,0,0,0,0,0,0,0,-1,1917,1632,0,0
700,-608,0,0,0,0,0,0,0,0,0,-1,1924,1632,0,0
707,-608,0,0,0,0,0,0,0,0,0,-1,1931,1632,0,0
714,-608,0,0,0,0,0,0,0,0,0,-1,1938,1632,0,0
721,-608,0,0,0,0,0,0,0,0,0,-1,1945,1632,0,0
728,-608,0,0,0,0,0,0,0,0,0,-1,1952,1632,0,0
735,-608,0,0,0,0,0,0,0,0,0,-1,1959,1632,0,0
742,-608,0,0,0,0,0,0,0,0,0,-1,1966,1632,0,0
749,-608,0,0,0,0,0,0,0,0,0,-1,1973,1632,0,0
756,-608,0,0,0,0,0,0,0,0,0,-1,1980,1632,0,0
763,-608,0,0,0,0,0,0,0,0,0,-1,1987,1632,0,0
770,-608,0,0,0,0,0,0,0,0,0,-1,1994,1632,0,0
777,-608,0,0,0,0,0,0,0,0,0,-1,2001,1632,0,0
784,-608,0,0,0,0,0,0,0,0,0,-1,2008,1632,0,0
791,-608,0,0,0,0,0,0,0,0,0,-1,2015,1632,0,0
798,-608,0,0,0,0,0,0,0,0,0,-1,2022,1632,0,0
805,-608,0,0,0,0,0,0,0,0,0,-1,2029,1632,0,0
812,-608,0,0,0,0,0,0,0,0,0,-1,2036,1632,0,0
-700,-615,0,0,0,0,0,0,0,0,0,-1,524,1639,0,0
-693,-615,0,0,0,0,0,0,0,0,0,-1,531,1639,0,0
-686,-615,0,0,0,0,0,0,0,0,0,-1,538,1639,0,0
-679,-615,0,0,0,0,0,0,0,0,0,-1,545,1639,0,0
-672,-615,0,0,0,0,0,0,0,0,0,-1,552,1639,0,0
-665,-615,0,0,0,0,0,0,0,0,0,-1,559,1639,0,0
-658,-615,0,0,0,0,0,0,0,0,0,-1,566,1639,0,0
-651,-615,0,0,0,0,0,0,0,0,0,-1,573,1639,0,0
-644,-615,0,0,0,0,0,0,0,0,0,-1,580,1639,0,0
-637,-615,0,0,0,0,0,0,0,0,0,-1,587,1639,0,0
-630,-615,0,0,0,0,0,0,0,0,0,-1,594,1639,0,0
-623,-615,0,0,0,0,0,0,0,0,0,-1,601,1639,0,0
-616,-615,0,0,0,0,0,0,0,0,0,-1,608,1639,0,0
-609,-615,0,0,0,0,0,0,0,0,0,-1,615,1639,0,0
-602,-615,0,0,0,0,0,0,0,0,0,-1,622,1639,0,0
-595,-615,0,0,0,0,0,0,0,0,0,-1,629,1639,0,0
-588,-615,0,0,0,0,0,0,0,0,0,-1,636,1639,0,0
-581,-615,0,0,0,0,0,0,0,0,0,-1,643,1639,0,0
-574,-615,0,0,0,0,0,0,0,0,0,-1,650,1639,0,0
-567,-615,0,0,0,0,0,0,0,0,0,-1,657,1639,0,0
-560,-615,0,0,0,0,0,0,0,0,0,-1,664,1639,0,0
-553,-615,0,0,0,0,0,0,0,0,0,-1,671,1639,0,0
-546,-615,0,0,0,0,0,0,0,0,0,-1,678,1639,0,0
-539,-615,0,0,0,0,0,0,0,0,0,-1,685,1639,0,0
-532,-615,0,0,0,0,0,0,0,0,0,-1,692,1639,0,0
-525,-615,0,0,0,0,0,0,0,0,0,-1,699,1639,0,0
-518,-615,0,0,0,0,0,0,0,0,0,-1,706,1639,0,0
-511,-615,0,0,0,0,0,0,0,0,0,-1,713,1639,0,0
-504,-615,0,0,0,0,0,0,0,0,0,-1,720,1639,0,0
-497,-615,0,0,0,0,0,0,0,0,0,-1,727,1639,0,0
-490,-615,0,0,0,0,0,0,0,0,0,-1,734,1639,0,0
-483,-615,0,0,0,0,0,0,0,0,0,-1,741,1639,0,0
-476,-615,0,0,0,0,0,0,0,0,0,-1,748,1639,0,0
-469,-615,0,0,0,0,0,0,0,0,0,-1,755,1639,0,0
-462,-615,0,0,0,0,0,0,0,0,0,-1,762,1639,0,0
-455,-615,0,0,0,0,0,0,0,0,0,-1,769,1639,0,0
-448,-615,0,0,0,0,0,0,0,0,0,-1,776,1639,0,0
-441,-615,0,0,0,0,0,0,0,0,0,-1,783,1639,0,0
-434,-615,-7.64508,2.98596,0,0,0,0,0,0,0,-1,790,1639,-7.64505,-2.98594
-427,-615,-9.0011,2.89404,0,0,0,0,0,0,0,-1,797,1639,-9.00107,-2.89399
-420,-615,-8.07568,3.0752,0,0,0,0,0,0,0,-1,804,1639,-8.07569,-3.07514
-413,-615,-7.09149,3.396,0,0,0,0,0,0,0,-1,811,1639,-7.09147,-3.39599
-406,-615,-6.21368,3.7312,0,0,0,0,0,0,0,-1,818,1639,-6.21366,-3.73114
-399,-615,-4.84875,3.91907,0,0,0,0,0,0,0,-1,825,1639,-4.84877,-3.91901
-392,-615,1.7395,13.3127,0,0,0,0,0,0,0,-1,832,1639,1.73953,-13.3128
-385,-615,3.31848,12.7184,0,0,0,0,0,0,0,-1,839,1639,3.31849,-12.7183
-378,-615,3.44562,13.0183,0,0,0,0,0,0,0,-1,846,1639,3.44562,-13.0183
-371,-615,2.87463,12.6573,0,0,0,0,0,0,0,-1,853,1639,2.87462,-12.6573
-364,-615,2.7428,13.1179,0.00327577,-0.00180814,0.00598623,0.00723739,-0.00576976,0.584618,0.0075256,0.0369986,860,1639,2.74278,-13.1179
-357,-615,2.79797,13.5537,0.00289243,-0.00162118,0.00513974,0.00624901,-0.00497776,0.578526,0.00649562,0.0300599,867,1639,2.79795,-13.5537
-350,-615,2.70337,13.8141,0.00266883,-0.00139378,0.00415291,0.00526061,-0.00398556,0.557942,0.00535517,0.0308165,874,1639,2.70339,-13.8141
-343,-615,2.66943,13.9821,0.00247347,-0.00113161,0.00329278,0.0044248,-0.00308294,0.534967,0.00435761,0.0195314,881,1639,2.66944,-13.9821
-336,-615,2.71869,14.2505,0.00214925,-0.000947291,0.00240561,0.00346176,-0.00225981,0.499464,0.00332756,0.0104175,888,1639,2.71867,-14.2504
-329,-615,2.68457,14.5157,0.00196427,-0.000451345,0.00192087,0.0030255,-0.00151258,0.504742,0.00266815,0.0109789,895,1639,2.68459,-14.5157
-322,-615,2.67273,14.7784,0.00170905,-9.5835e-05,0.00146917,0.00253081,-0.00091759,0.509981,0.00206228,0.0114374,902,1639,2.67272,-14.7785
-315,-615,2.70514,15.028,0.00127193,4.8547e-05,0.000862119,0.00171731,-0.000396842,0.476855,0.00129754,0.0127782,909,1639,2.70516,-15.0279
-308,-615,2.69977,15.2673,0.000798476,-1.5932e-05,5.65798e-05,0.000802388,-1.9844e-05,0.0690315,0.000541661,0.0185429,916,1639,2.6998,-15.2674
-301,-615,2.70337,15.5031,0.000488888,8.58616e-05,-0.000425134,0.000757849,-0.0001831,-0.564082,0.000576049,0.0122813,923,1639,2.70339,-15.5031
-294,-615,2.71063,15.7415,0.000404909,-9.02385e-05,-0.000715602,0.000914553,-0.000599882,-0.61886,0.000880629,0.0102725,930,1639,2.71064,-15.7415
-287,-615,2.68311,15.9795,0.000455022,-0.000207271,-0.000964525,0.00114366,-0.000895911,-0.62004,0.00118044,0.00733216,937,1639,2.68313,-15.9795
-280,-615,2.6767,16.1979,0.00065138,-0.000593691,-0.0012131,0.00139236,-0.00133467,-0.548331,0.00157456,0.00791591,944,1639,2.67672,-16.1978
-273,-615,2.67194,16.4409,0.00106043,-0.00106637,-0.00144459,0.00179081,-0.00179676,-0.468117,0.00207129,0.00989739,951,1639,2.67193,-16.4409
-266,-615,2.67212,16.6719,0.00168247,-0.00181002,-0.00157576,0.00228833,-0.00241588,-0.367062,0.00271631,0.010569,958,1639,2.67215,-16.6719
-259,-615,2.6972,16.8744,0.00252414,-0.00254242,-0.0015697,0.00297103,-0.00298932,-0.277365,0.00344122,0.0108821,965,1639,2.69721,-16.8743
-252,-615,2.70862,17.0854,0.00362343,-0.00340151,-0.00142655,0.00390206,-0.00368015,-0.192893,0.00437822,0.0116647,972,1639,2.70862,-17.0855
-245,-615,2.75208,17.288,0.00415185,-0.00471025,-0.000580553,0.00418972,-0.00474812,-0.0651386,0.00516362,0.0179285,979,1639,2.75207,-17.2879
-238,-615,2.84283,17.4579,0.00476516,-0.0063156,0.00022656,0.00476979,-0.00632023,0.0204348,0.00642365,0.0269717,986,1639,2.84285,-17.4579
-231,-615,2.96167,17.5989,0.00520936,-0.0078475,0.00132783,0.00534303,-0.00798117,0.100327,0.00774283,0.0387741,993,1639,2.96166,-17.5989
-224,-615,3.1189,17.8739,0,0,0,0,0,0,0,-1,1000,1639,3.11887,-17.8739
-217,-615,3.25653,17.6597,0,0,0,0,0,0,0,-1,1007,1639,3.25656,-17.6597
-210,-615,2.0376,16.5729,0,0,0,0,0,0,0,-1,1014,1639,2.03761,-16.5729
-203,-615,3.80859,17.7214,0,0,0,0,0,0,0,-1,1021,1639,3.80865,-17.7215
-196,-615,3.74976,18.267,-0.00287667,-0.0174162,0.00975207,0.00201713,-0.02231,0.465104,0.0155893,0.0476822,1028,1639,3.7497,-18.2669
-189,-615,3.52087,18.7841,0,0,0,0,0,0,0,-1,1035,1639,3.52086,-18.7841
-182,-615,3.31311,19.3413,0,0,0,0,0,0,0,-1,1042,1639,3.31317,-19.3412
-175,-615,-0.609985,13.8434,0,0,0,0,0,0,0,-1,1049,1639,-0.610016,-13.8434
-168,-615,3.85754,15.472,0,0,0,0,0,0,0,-1,1056,1639,3.85757,-15.472
-161,-615,2.84497,16.0234,0,0,0,0,0,0,0,-1,1063,1639,2.84495,-16.0234
-154,-615,0.585327,18.823,0,0,0,0,0,0,0,-1,1070,1639,0.585319,-18.823
-147,-615,1.52502,17.3442,0,0,0,0,0,0,0,-1,1077,1639,1.52501,-17.3442
-140,-615,3.73401,10.2349,0,0,0,0,0,0,0,-1,1084,1639,3.73402,-10.2348
-133,-615,2.6178,17.45,0,0,0,0,0,0,0,-1,1091,1639,2.61776,-17.4499
-126,-615,4.43408,12.5017,0,0,0,0,0,0,0,-1,1098,1639,4.43403,-12.5018
-119,-615,4.82983,13.9279,0,0,0,0,0,0,0,-1,1105,1639,4.82986,-13.9278
-112,-615,3.65698,14.4874,0,0,0,0,0,0,0,-1,1112,1639,3.65695,-14.4875
-105,-615,0.958496,2.45398,0,0,0,0,0,0,0,-1,1119,1639,0.958452,-2.45398
-98,-615,-0.647705,2.12109,0,0,0,0,0,0,0,-1,1126,1639,-0.647756,-2.12105
-91,-615,-3.07983,2.97375,0,0,0,0,0,0,0,-1,1133,1639,-3.07989,-2.97376
-84,-615,-2.46509,0.703247,0,0,0,0,0,0,0,-1,1140,1639,-2.46505,-0.703273
-77,-615,-3.17859,1.23755,0,0,0,0,0,0,0,-1,1147,1639,-3.17865,-1.23752
-70,-615,-4.03943,1.43335,0,0,0,0,0,0,0,-1,1154,1639,-4.03942,-1.43339
-63,-615,-4.8877,1.45544,0,0,0,0,0,0,0,-1,1161,1639,-4.88766,-1.45549
-56,-615,0,0,0,0,0,0,0,0,0,-1,1168,1639,0,0
-49,-615,0,0,0,0,0,0,0,0,0,-1,1175,1639,0,0
-42,-615,0,0,0,0,0,0,0,0,0,-1,1182,1639,0,0
-35,-615,0,0,0,0,0,0,0,0,0,-1,1189,1639,0,0
-28,-615,0,0,0,0,0,0,0,0,0,-1,1196,1639,0,0
-21,-615,0,0,0,0,0,0,0,0,0,-1,1203,1639,0,0
-14,-615,0,0,0,0,0,0,0,0,0,-1,1210,1639,0,0
-7,-615,0,0,0,0,0,0,0,0,0,-1,1217,1639,0,0
0,-615,0,0,0,0,0,0,0,0,0,-1,1224,1639,0,0
7,-615,0,0,0,0,0,0,0,0,0,-1,1231,1639,0,0
14,-615,0,0,0,0,0,0,0,0,0,-1,1238,1639,0,0
21,-615,0,0,0,0,0,0,0,0,0,-1,1245,1639,0,0
28,-615,0,0,0,0,0,0,0,0,0,-1,1252,1639,0,0
35,-615,0,0,0,0,0,0,0,0,0,-1,1259,1639,0,0
42,-615,0,0,0,0,0,0,0,0,0,-1,1266,1639,0,0
49,-615,0,0,0,0,0,0,0,0,0,-1,1273,1639,0,0
56,-615,0,0,0,0,0,0,0,0,0,-1,1280,1639,0,0
63,-615,0,0,0,0,0,0,0,0,0,-1,1287,1639,0,0
70,-615,0,0,0,0,0,0,0,0,0,-1,1294,1639,0,0
77,-615,0,0,0,0,0,0,0,0,0,-1,1301,1639,0,0
84,-615,0,0,0,0,0,0,0,0,0,-1,1308,1639,0,0
91,-615,0,0,0,0,0,0,0,0,0,-1,1315,1639,0,0
98,-615,0,0,0,0,0,0,0,0,0,-1,1322,1639,0,0
105,-615,0,0,0,0,0,0,0,0,0,-1,1329,1639,0,0
112,-615,0,0,0,0,0,0,0,0,0,-1,1336,1639,0,0
119,-615,0,0,0,0,0,0,0,0,0,-1,1343,1639,0,0
126,-615,0,0,0,0,0,0,0,0,0,-1,1350,1639,0,0
133,-615,0,0,0,0,0,0,0,0,0,-1,1357,1639,0,0
140,-615,0,0,0,0,0,0,0,0,0,-1,1364,1639,0,0
147,-615,0,0,0,0,0,0,0,0,0,-1,1371,1639,0,0
154,-615,0,0,0,0,0,0,0,0,0,-1,1378,1639,0,0
161,-615,0,0,0,0,0,0,0,0,0,-1,1385,1639,0,0
168,-615,0,0,0,0,0,0,0,0,0,-1,1392,1639,0,0
175,-615,5.39648,-2.00879,0,0,0,0,0,0,0,-1,1399,1639,5.3965,2.00881
182,-615,5.65393,-1.51025,0,0,0,0,0,0,0,-1,1406,1639,5.65388,1.51028
189,-615,5.58972,-1.35608,0,0,0,0,0,0,0,-1,1413,1639,5.58967,1.35607
196,-615,5.49915,-0.693604,0,0,0,0,0,0,0,-1,1420,1639,5.4991,0.693602
203,-615,5.33411,-0.226685,0,0,0,0,0,0,0,-1,1427,1639,5.33414,0.226689
210,-615,5.60278,0.108276,0,0,0,0,0,0,0,-1,1434,1639,5.60284,-0.10831
217,-615,6.26331,-0.307373,0,0,0,0,0,0,0,-1,1441,1639,6.26331,0.307372
224,-615,5.45422,-0.333984,0,0,0,0,0,0,0,-1,1448,1639,5.45422,0.333992
231,-615,4.92542,1.80298,0,0,0,0,0,0,0,-1,1455,1639,4.92537,-1.80297
238,-615,4.76355,1.96729,0,0,0,0,0,0,0,-1,1462,1639,4.76357,-1.96734
245,-615,4.08643,3.15906,0,0,0,0,0,0,0,-1,1469,1639,4.08638,-3.159
252,-615,6.37805,3.73889,0,0,0,0,0,0,0,-1,1476,1639,6.37806,-3.73891
259,-615,8.35974,3.16443,0,0,0,0,0,0,0,-1,1483,1639,8.35975,-3.16444
266,-615,10.3414,2.58997,0,0,0,0,0,0,0,-1,1490,1639,10.3414,-2.58996
273,-615,6.57043,1.84766,0,0,0,0,0,0,0,-1,1497,1639,6.5704,-1.84771
280,-615,7.10449,3.23438,0,0,0,0,0,0,0,-1,1504,1639,7.10447,-3.23435
287,-615,7.35779,4.68542,0,0,0,0,0,0,0,-1,1511,1639,7.35776,-4.68546
294,-615,7.63733,6.29114,0,0,0,0,0,0,0,-1,1518,1639,7.63735,-6.29109
301,-615,8.47925,11.452,0,0,0,0,0,0,0,-1,1525,1639,8.47922,-11.452
308,-615,6.8114,10.9059,0,0,0,0,0,0,0,-1,1532,1639,6.81137,-10.9058
315,-615,5.1427,14.7251,0,0,0,0,0,0,0,-1,1539,1639,5.14269,-14.7251
322,-615,7.17981,17.6864,0,0,0,0,0,0,0,-1,1546,1639,7.17985,-17.6864
329,-615,7.48596,17.8612,0,0,0,0,0,0,0,-1,1553,1639,7.48592,-17.8612
336,-615,6.45007,14.1138,0,0,0,0,0,0,0,-1,1560,1639,6.45011,-14.1138
343,-615,2.40491,6.50134,0,0,0,0,0,0,0,-1,1567,1639,2.40489,-6.50137
350,-615,6.4458,15.4594,0,0,0,0,0,0,0,-1,1574,1639,6.44578,-15.4593
357,-615,7.93896,19.0291,0,0,0,0,0,0,0,-1,1581,1639,7.939,-19.0291
364,-615,7.92542,18.7107,0,0,0,0,0,0,0,-1,1588,1639,7.92541,-18.7107
371,-615,7.92444,18.4022,-0.00307526,-0.00644431,0.00845566,0.00386203,-0.0133816,0.687076,0.0104491,0.047053,1595,1639,7.92449,-18.4022
378,-615,7.96008,18.08,-0.00358107,-0.00586233,0.00799619,0.00335543,-0.0127988,0.714553,0.00984355,0.0196167,1602,1639,7.96004,-18.08
385,-615,7.94885,17.8965,-0.00369229,-0.00500896,0.00707471,0.00275465,-0.0114559,0.739004,0.00870205,0.0111909,1609,1639,7.94891,-17.8965
392,-615,7.9436,17.6963,-0.00329003,-0.00505697,0.00629856,0.00218672,-0.0105337,0.71572,0.00785353,0.0096443,1616,1639,7.94366,-17.6963
399,-615,7.94531,17.5275,-0.00259207,-0.0048158,0.00553695,0.00194355,-0.00935142,0.686312,0.006973,0.0105994,1623,1639,7.94532,-17.5275
406,-615,7.9519,17.3085,-0.00194455,-0.00429558,0.00474709,0.00177041,-0.00801054,0.664026,0.00601794,0.0108168,1630,1639,7.95192,-17.3085
413,-615,7.95264,17.0992,-0.00155845,-0.0038133,0.00405853,0.00152633,-0.00689809,0.649919,0.00518297,0.0118898,1637,1639,7.95265,-17.0992
420,-615,7.94849,16.8955,-0.00130473,-0.00316475,0.00343476,0.0013237,-0.00579317,0.653186,0.00437069,0.013026,1644,1639,7.94853,-16.8955
427,-615,7.95862,16.675,-0.00115035,-0.00265795,0.00288216,0.00107495,-0.00488326,0.657493,0.00366672,0.0140973,1651,1639,7.9586,-16.6751
434,-615,7.96289,16.4491,-0.00107593,-0.00206683,0.00230897,0.00079015,-0.00393291,0.679713,0.00292116,0.0133244,1658,1639,7.96293,-16.449
441,-615,7.96997,16.2086,-0.000985373,-0.000986959,0.00154799,0.000561823,-0.00253415,0.785142,0.00190454,0.0139439,1665,1639,7.96993,-16.2086
448,-615,7.97632,15.9872,-0.000958787,-3.28817e-05,0.00099104,0.000598005,-0.00158967,1.00391,0.0013056,0.0149762,1672,1639,7.9763,-15.9871
455,-615,8.00098,15.7955,-0.00111706,0.0008565,0.000497153,0.000974661,-0.00123522,1.33745,0.00127883,0.0148064,1679,1639,8.00092,-15.7955
462,-615,7.97095,15.5764,-0.00119912,0.00196559,-8.94826e-05,0.00196812,-0.00120165,-1.54255,0.00184781,0.0151643,1686,1639,7.97098,-15.5764
469,-615,7.94421,15.3246,-0.0011187,0.00330964,-0.000817423,0.00345571,-0.00126477,-1.39397,0.00282152,0.0133193,1693,1639,7.94417,-15.3246
476,-615,7.94287,15.0701,-0.00100923,0.00499503,-0.00165599,0.00542147,-0.00143567,-1.31876,0.00417596,0.0116824,1700,1639,7.94288,-15.0701
483,-615,7.95142,14.8086,-0.000909076,0.00699501,-0.00260275,0.00777508,-0.00168915,-1.2796,0.0058286,0.0147663,1707,1639,7.95142,-14.8086
490,-615,7.96936,14.5615,-0.00078174,0.0092909,-0.00368756,0.0104966,-0.00198743,-1.25479,0.00774566,0.0177255,1714,1639,7.96941,-14.5616
497,-615,7.92542,14.3872,-0.000781324,0.0117473,-0.00485105,0.013406,-0.00244004,-1.24133,0.0098519,0.0281837,1721,1639,7.92545,-14.3872
504,-615,7.75574,14.1384,0,0,0,0,0,0,0,-1,1728,1639,7.75577,-14.1385
511,-615,7.69373,13.8047,0,0,0,0,0,0,0,-1,1735,1639,7.69375,-13.8047
518,-615,8.8446,10.2899,0,0,0,0,0,0,0,-1,1742,1639,8.8446,-10.2899
525,-615,4.37524,3.90491,0,0,0,0,0,0,0,-1,1749,1639,4.37518,-3.90495
532,-615,7.3645,0.848145,0,0,0,0,0,0,0,-1,1756,1639,7.36451,-0.848093
539,-615,12.8112,-0.0476074,0,0,0,0,0,0,0,-1,1763,1639,12.8111,0.0475553
546,-615,8.33813,2.94556,0,0,0,0,0,0,0,-1,1770,1639,8.33813,-2.9455
553,-615,5.82532,-2.04199,0,0,0,0,0,0,0,-1,1777,1639,5.82534,2.04195
560,-615,0,0,0,0,0,0,0,0,0,-1,1784,1639,0,0
567,-615,0,0,0,0,0,0,0,0,0,-1,1791,1639,0,0
574,-615,0,0,0,0,0,0,0,0,0,-1,1798,1639,0,0
581,-615,0,0,0,0,0,0,0,0,0,-1,1805,1639,0,0
588,-615,0,0,0,0,0,0,0,0,0,-1,1812,1639,0,0
595,-615,0,0,0,0,0,0,0,0,0,-1,1819,1639,0,0
602,-615,0,0,0,0,0,0,0,0,0,-1,1826,1639,0,0
609,-615,0,0,0,0,0,0,0,0,0,-1,1833,1639,0,0
616,-615,0,0,0,0,0,0,0,0,0,-1,1840,1639,0,0
623,-615,0,0,0,0,0,0,0,0,0,-1,1847,1639,0,0
630,-615,0,0,0,0,0,0,0,0,0,-1,1854,1639,0,0
637,-615,0,0,0,0,0,0,0,0,0,-1,1861,1639,0,0
644,-615,0,0,0,0,0,0,0,0,0,-1,1868,1639,0,0
651,-615,0,0,0,0,0,0,0,0,0,-1,1875,1639,0,0
658,-615,0,0,0,0,0,0,0,0,0,-1,1882,1639,0,0
665,-615,0,0,0,0,0,0,0,0,0,-1,1889,1639,0,0
672,-615,0,0,0,0,0,0,0,0,0,-1,1896,1639,0,0
679,-615,0,0,0,0,0,0,0,0,0,-1,1903,1639,0,0
686,-615,0,0,0,0,0,0,0,0,0,-1,1910,1639,0,0
693,-615,0,0,0,0,0,0,0,0,0,-1,1917,1639,0,0
700,-615,0,0,0,0,0,0,0,0,0,-1,1924,1639,0,0
707,-615,0,0,0,0,0,0,0,0,0,-1,1931,1639,0,0
714,-615,0,0,0,0,0,0,0,0,0,-1,1938,1639,0,0
721,-615,0,0,0,0,0,0,0,0,0,-1,1945,1639,0,0
728,-615,0,0,0,0,0,0,0,0,0,-1,1952,1639,0,0
735,-615,0,0,0,0,0,0,0,0,0,-1,1959,1639,0,0
742,-615,0,0,0,0,0,0,0,0,0,-1,1966,1639,0,0
749,-615,0,0,0,0,0,0,0,0,0,-1,1973,1639,0,0
756,-615,0,0,0,0,0,0,0,0,0,-1,1980,1639,0,0
763,-615,0,0,0,0,0,0,0,0,0,-1,1987,1639,0,0
770,-615,0,0,0,0,0,0,0,0,0,-1,1994,1639,0,0
777,-615,0,0,0,0,0,0,0,0,0,-1,2001,1639,0,0
784,-615,0,0,0,0,0,0,0,0,0,-1,2008,1639,0,0
791,-615,0,0,0,0,0,0,0,0,0,-1,2015,1639,0,0
798,-615,0,0,0,0,0,0,0,0,0,-1,2022,1639,0,0
805,-615,0,0,0,0,0,0,0,0,0,-1,2029,1639,0,0
812,-615,0,0,0,0,0,0,0,0,0,-1,2036,1639,0,0
-700,-622,0,0,0,0,0,0,0,0,0,-1,524,1646,0,0
-693,-622,0,0,0,0,0,0,0,0,0,-1,531,1646,0,0
-686,-622,0,0,0,0,0,0,0,0,0,-1,538,1646,0,0
-679,-622,0,0,0,0,0,0,0,0,0,-1,545,1646,0,0
-672,-622,0,0,0,0,0,0,0,0,0,-1,552,1646,0,0
-665,-622,0,0,0,0,0,0,0,0,0,-1,559,1646,0,0
-658,-622,0,0,0,0,0,0,0,0,0,-1,566,1646,0,0
-651,-622,0,0,0,0,0,0,0,0,0,-1,573,1646,0,0
-644,-622,0,0,0,0,0,0,0,0,0,-1,580,1646,0,0
-637,-622,0,0,0,0,0,0,0,0,0,-1,587,1646,0,0
-630,-622,0,0,0,0,0,0,0,0,0,-1,594,1646,0,0
-623,-622,0,0,0,0,0,0,0,0,0,-1,601,1646,0,0
-616,-622,0,0,0,0,0,0,0,0,0,-1,608,1646,0,0
-609,-622,0,0,0,0,0,0,0,0,0,-1,615,1646,0,0
-602,-622,0,0,0,0,0,0,0,0,0,-1,622,1646,0,0
-595,-622,0,0,0,0,0,0,0,0,0,-1,629,1646,0,0
-588,-622,0,0,0,0,0,0,0,0,0,-1,636,1646,0,0
-581,-622,0,0,0,0,0,0,0,0,0,-1,643,1646,0,0
-574,-622,0,0,0,0,0,0,0,0,0,-1,650,1646,0,0
-567,-622,0,0,0,0,0,0,0,0,0,-1,657,1646,0,0
-560,-622,0,0,0,0,0,0,0,0,0,-1,664,1646,0,0
-553,-622,0,0,0,0,0,0,0,0,0,-1,671,1646,0,0
-546,-622,0,0,0,0,0,0,0,0,0,-1,678,1646,0,0
-539,-622,0,0,0,0,0,0,0,0,0,-1,685,1646,0,0
-532,-622,0,0,0,0,0,0,0,0,0,-1,692,1646,0,0
-525,-622,0,0,0,0,0,0,0,0,0,-1,699,1646,0,0
-518,-622,0,0,0,0,0,0,0,0,0,-1,706,1646,0,0
-511,-622,0,0,0,0,0,0,0,0,0,-1,713,1646,0,0
-504,-622,0,0,0,0,0,0,0,0,0,-1,720,1646,0,0
-497,-622,0,0,0,0,0,0,0,0,0,-1,727,1646,0,0
-490,-622,0,0,0,0,0,0,0,0,0,-1,734,1646,0,0
-483,-622,0,0,0,0,0,0,0,0,0,-1,741,1646,0,0
-476,-622,0,0,0,0,0,0,0,0,0,-1,748,1646,0,0
-469,-622,0,0,0,0,0,0,0,0,0,-1,755,1646,0,0
-462,-622,0,0,0,0,0,0,0,0,0,-1,762,1646,0,0
-455,-622,0,0,0,0,0,0,0,0,0,-1,769,1646,0,0
-448,-622,0,0,0,0,0,0,0,0,0,-1,776,1646,0,0
-441,-622,0,0,0,0,0,0,0,0,0,-1,783,1646,0,0
-434,-622,0,0,0,0,0,0,0,0,0,-1,790,1646,0,0
-427,-622,-7.62891,3.48096,0,0,0,0,0,0,0,-1,797,1646,-7.62892,-3.48092
-420,-622,-9.35791,1.77185,0,0,0,0,0,0,0,-1,804,1646,-9.35789,-1.77183
-413,-622,-8.46075,1.96777,0,0,0,0,0,0,0,-1,811,1646,-8.46074,-1.96774
-406,-622,-4.44318,2.16858,0,0,0,0,0,0,0,-1,818,1646,-4.44315,-2.16859
-399,-622,-7.06976,1.51001,0,0,0,0,0,0,0,-1,825,1646,-7.06976,-1.51005
-392,-622,3.89551,5.85376,0,0,0,0,0,0,0,-1,832,1646,3.8955,-5.85379
-385,-622,2.00543,14.0448,0,0,0,0,0,0,0,-1,839,1646,2.00544,-14.0448
-378,-622,2.1734,14.2626,0,0,0,0,0,0,0,-1,846,1646,2.17341,-14.2625
-371,-622,2.80884,11.9314,0,0,0,0,0,0,0,-1,853,1646,2.80887,-11.9313
-364,-622,2.60181,12.8175,0.00508407,-0.00155241,0.0082474,0.0106557,-0.00712407,0.594138,0.0103325,0.0443168,860,1646,2.60179,-12.8175
-357,-622,2.79742,13.671,0.00453479,-0.00140824,0.00695521,0.00912666,-0.00600012,0.583517,0.00879541,0.0418961,867,1646,2.79743,-13.671
-350,-622,2.92328,13.9556,0.00399551,-0.00116962,0.00556586,0.00754878,-0.00472289,0.56818,0.00714739,0.0432251,874,1646,2.92329,-13.9556
-343,-622,2.84479,14.0524,0.00354777,-0.000898379,0.00439724,0.00625194,-0.00360255,0.551355,0.00575763,0.0287702,881,1646,2.84478,-14.0524
-336,-622,2.94153,14.2428,0.00304456,-0.000733409,0.00326616,0.00492865,-0.0026175,0.523224,0.00442436,0.00890804,888,1646,2.94151,-14.2428
-329,-622,2.94031,14.5098,0.00270055,-0.000324014,0.00260821,0.00420319,-0.00182665,0.522675,0.00357033,0.00854828,895,1646,2.9403,-14.5098
-322,-622,2.93121,14.7731,0.00232737,-3.79593e-05,0.00202993,0.00349402,-0.00120462,0.52163,0.00281806,0.0102244,902,1646,2.93123,-14.7731
-315,-622,2.92664,15.0251,0.0017892,2.65634e-05,0.00135046,0.00252048,-0.000704716,0.496296,0.00195797,0.0135765,909,1646,2.92664,-15.0252
-308,-622,2.92596,15.2562,0.0012165,-0.000144309,0.000492914,0.00137628,-0.000304092,0.313472,0.0010339,0.0139022,916,1646,2.92597,-15.2562
-301,-622,2.94061,15.4934,0.000830908,-5.23894e-05,-1.78881e-05,0.00083127,-5.27515e-05,-0.0202404,0.000572575,0.013019,923,1646,2.94063,-15.4934
-294,-622,2.93341,15.7379,0.00068678,-0.000184071,-0.000295794,0.000777748,-0.000275039,-0.298357,0.000630502,0.010087,930,1646,2.93339,-15.738
-287,-622,2.92017,15.9659,0.000679526,-0.000282307,-0.000512812,0.000901643,-0.000504425,-0.408742,0.000822521,0.00765238,937,1646,2.92016,-15.9659
-280,-622,2.92432,16.1974,0.000795879,-0.000581054,-0.000726747,0.00110849,-0.000893661,-0.40622,0.00115816,0.00801464,944,1646,2.92432,-16.1974
-273,-622,2.93909,16.4315,0.00112443,-0.000938158,-0.000907924,0.00146714,-0.00128087,-0.360933,0.00158778,0.0120216,951,1646,2.93912,-16.4315
-266,-622,2.91681,16.6516,0.00163166,-0.00149867,-0.000986474,0.00191659,-0.0017836,-0.28119,0.00213677,0.0119274,958,1646,2.91682,-16.6516
-259,-622,2.91809,16.8701,0.00228489,-0.00202384,-0.000990735,0.00250178,-0.00224073,-0.215517,0.00273947,0.010899,965,1646,2.91809,-16.8701
-252,-622,2.93115,17.0901,0.00317528,-0.00257851,-0.000864559,0.00330238,-0.00270561,-0.145966,0.00347442,0.0116792,972,1646,2.93116,-17.09
-245,-622,2.96082,17.3132,0.00361536,-0.00351464,-0.000178675,0.00361983,-0.00351911,-0.0250387,0.00412181,0.00892195,979,1646,2.96079,-17.3132
-238,-622,2.9671,17.5255,0.00401616,-0.00464774,0.000444421,0.00403889,-0.00467048,0.0511169,0.00503276,0.00957311,986,1646,2.96711,-17.5255
-231,-622,3.00507,17.7463,0.00430078,-0.00583597,0.00117391,0.00443495,-0.00597014,0.1138,0.00602914,0.0142078,993,1646,3.00509,-17.7464
-224,-622,3.10974,17.895,0.00400529,-0.00744078,0.00179869,0.00428129,-0.00771677,0.152257,0.0070211,0.0246529,1000,1646,3.10972,-17.895
-217,-622,3.1944,17.8983,0.00347756,-0.00896184,0.00275677,0.00406113,-0.00954541,0.208605,0.00806564,0.0394326,1007,1646,3.19442,-17.8983
-210,-622,3.2204,18.2019,0,0,0,0,0,0,0,-1,1014,1646,3.22041,-18.2019
-203,-622,3.56042,17.8632,0,0,0,0,0,0,0,-1,1021,1646,3.56041,-17.8631
-196,-622,3.58679,18.238,0,0,0,0,0,0,0,-1,1028,1646,3.58675,-18.238
-189,-622,3.61304,18.6129,0,0,0,0,0,0,0,-1,1035,1646,3.6131,-18.6129
-182,-622,3.1499,18.8448,0,0,0,0,0,0,0,-1,1042,1646,3.14993,-18.8449
-175,-622,2.56091,11.0195,0,0,0,0,0,0,0,-1,1049,1646,2.56095,-11.0195
-168,-622,4.13916,16.1655,0,0,0,0,0,0,0,-1,1056,1646,4.13918,-16.1655
-161,-622,3.32422,18.5869,0,0,0,0,0,0,0,-1,1063,1646,3.3242,-18.5869
-154,-622,2.78796,19.6873,0,0,0,0,0,0,0,-1,1070,1646,2.78799,-19.6873
-147,-622,1.18347,18.4009,0,0,0,0,0,0,0,-1,1077,1646,1.18343,-18.4009
-140,-622,3.27515,16.0353,0,0,0,0,0,0,0,-1,1084,1646,3.27519,-16.0353
-133,-622,3.09644,17.677,0,0,0,0,0,0,0,-1,1091,1646,3.09638,-17.677
-126,-622,3.5061,19.5251,0,0,0,0,0,0,0,-1,1098,1646,3.50616,-19.5252
-119,-622,4.06384,13.1715,0,0,0,0,0,0,0,-1,1105,1646,4.06379,-13.1716
-112,-622,4.33276,14.6605,0,0,0,0,0,0,0,-1,1112,1646,4.33281,-14.6605
-105,-622,0.306519,4.38159,0,0,0,0,0,0,0,-1,1119,1646,0.306536,-4.38159
-98,-622,-0.510376,3.5033,0,0,0,0,0,0,0,-1,1126,1646,-0.510393,-3.50324
-91,-622,-1.146,0.975952,0,0,0,0,0,0,0,-1,1133,1646,-1.14599,-0.97597
-84,-622,-2.04895,1.31787,0,0,0,0,0,0,0,-1,1140,1646,-2.0489,-1.31781
-77,-622,-1.80627,0.332275,0,0,0,0,0,0,0,-1,1147,1646,-1.80622,-0.33223
-70,-622,-3.65588,2.28149,0,0,0,0,0,0,0,-1,1154,1646,-3.65589,-2.28155
-63,-622,-2.49683,1.27087,0,0,0,0,0,0,0,-1,1161,1646,-2.49679,-1.27093
-56,-622,-2.44238,-0.575562,0,0,0,0,0,0,0,-1,1168,1646,-2.44242,0.575508
-49,-622,-2.41089,1.38818,0,0,0,0,0,0,0,-1,1175,1646,-2.41088,-1.38815
-42,-622,-2.71497,2.85242,0,0,0,0,0,0,0,-1,1182,1646,-2.71491,-2.85247
-35,-622,-3.0177,4.25842,0,0,0,0,0,0,0,-1,1189,1646,-3.01773,-4.25838
-28,-622,-0.896606,0.678833,0,0,0,0,0,0,0,-1,1196,1646,-0.89661,-0.678835
-21,-622,-4.38635,19.0129,0,0,0,0,0,0,0,-1,1203,1646,-4.38639,-19.0129
-14,-622,-1.19849,19.3782,0,0,0,0,0,0,0,-1,1210,1646,-1.19848,-19.3782
-7,-622,6.13196,19.7229,0,0,0,0,0,0,0,-1,1217,1646,6.13197,-19.7229
0,-622,0,0,0,0,0,0,0,0,0,-1,1224,1646,0,0
7,-622,0,0,0,0,0,0,0,0,0,-1,1231,1646,0,0
14,-622,0,0,0,0,0,0,0,0,0,-1,1238,1646,0,0
21,-622,0,0,0,0,0,0,0,0,0,-1,1245,1646,0,0
28,-622,0,0,0,0,0,0,0,0,0,-1,1252,1646,0,0
35,-622,0,0,0,0,0,0,0,0,0,-1,1259,1646,0,0
42,-622,0,0,0,0,0,0,0,0,0,-1,1266,1646,0,0
49,-622,0,0,0,0,0,0,0,0,0,-1,1273,1646,0,0
56,-622,0,0,0,0,0,0,0,0,0,-1,1280,1646,0,0
63,-622,0,0,0,0,0,0,0,0,0,-1,1287,1646,0,0
70,-622,0,0,0,0,0,0,0,0,0,-1,1294,1646,0,0
77,-622,0,0,0,0,0,0,0,0,0,-1,1301,1646,0,0
84,-622,0,0,0,0,0,0,0,0,0,-1,1308,1646,0,0
91,-622,0,0,0,0,0,0,0,0,0,-1,1315,1646,0,0
98,-622,0,0,0,0,0,0,0,0,0,-1,1322,1646,0,0
105,-622,0,0,0,0,0,0,0,0,0,-1,1329,1646,0,0
112,-622,0,0,0,0,0,0,0,0,0,-1,1336,1646,0,0
119,-622,0,0,0,0,0,0,0,0,0,-1,1343,1646,0,0
126,-622,2.05566,27.1842,0,0,0,0,0,0,0,-1,1350,1646,2.05568,-27.1842
133,-622,1.06201,27.1561,-0.16102,0.222319,-0.0410231,0.22666,-0.165361,-1.46537,0.227253,0.0497362,1357,1646,1.06197,-27.1561
140,-622,0.0600586,27.1322,-0.14876,0.272088,-0.0637204,0.281524,-0.158196,-1.42378,0.25718,0.0449422,1364,1646,0.0599988,-27.1322
147,-622,-1.11096,27.1621,0,0,0,0,0,0,0,-1,1371,1646,-1.11095,-27.1622
154,-622,-2.25098,27.1117,0,0,0,0,0,0,0,-1,1378,1646,-2.25095,-27.1117
161,-622,10.6884,6.46448,0,0,0,0,0,0,0,-1,1385,1646,10.6883,-6.46442
168,-622,12.2402,5.18091,0,0,0,0,0,0,0,-1,1392,1646,12.2403,-5.1809
175,-622,5.64355,-1.77075,0,0,0,0,0,0,0,-1,1399,1646,5.64351,1.77077
182,-622,5.88586,-1.32251,0,0,0,0,0,0,0,-1,1406,1646,5.88587,1.32256
189,-622,5.97986,-1.18005,0,0,0,0,0,0,0,-1,1413,1646,5.97986,1.18003
196,-622,5.85022,-0.244507,0,0,0,0,0,0,0,-1,1420,1646,5.85026,0.244478
203,-622,5.25159,0.138794,0,0,0,0,0,0,0,-1,1427,1646,5.25162,-0.138822
210,-622,6.66833,0.0397949,0,0,0,0,0,0,0,-1,1434,1646,6.6684,-0.0398278
217,-622,6.12061,0.0506592,0,0,0,0,0,0,0,-1,1441,1646,6.12058,-0.0507181
224,-622,5.57275,0.0616455,0,0,0,0,0,0,0,-1,1448,1646,5.57276,-0.0616084
231,-622,5.31348,1.3949,0,0,0,0,0,0,0,-1,1455,1646,5.31342,-1.39495
238,-622,3.76477,2.90686,0,0,0,0,0,0,0,-1,1462,1646,3.7648,-2.90686
245,-622,5.13794,2.67993,0,0,0,0,0,0,0,-1,1469,1646,5.13796,-2.67992
252,-622,6.66528,2.53992,0,0,0,0,0,0,0,-1,1476,1646,6.66522,-2.53991
259,-622,8.93787,3.31458,0,0,0,0,0,0,0,-1,1483,1646,8.93791,-3.31454
266,-622,5.72644,3.11926,0,0,0,0,0,0,0,-1,1490,1646,5.72647,-3.1192
273,-622,7.28076,3.61218,0,0,0,0,0,0,0,-1,1497,1646,7.28071,-3.61212
280,-622,8.43127,4.4447,0,0,0,0,0,0,0,-1,1504,1646,8.43123,-4.44467
287,-622,8.60315,5.94617,0,0,0,0,0,0,0,-1,1511,1646,8.60319,-5.94622
294,-622,7.62756,11.5143,0,0,0,0,0,0,0,-1,1518,1646,7.62762,-11.5143
301,-622,7.36548,11.6569,0,0,0,0,0,0,0,-1,1525,1646,7.36549,-11.6569
308,-622,7.10339,11.7994,0,0,0,0,0,0,0,-1,1532,1646,7.10335,-11.7995
315,-622,8.28687,16.5842,0,0,0,0,0,0,0,-1,1539,1646,8.28689,-16.5843
322,-622,7.31311,17.9819,0,0,0,0,0,0,0,-1,1546,1646,7.31312,-17.9819
329,-622,7.44324,18.2006,0,0,0,0,0,0,0,-1,1553,1646,7.44324,-18.2005
336,-622,7.73364,19.1979,0,0,0,0,0,0,0,-1,1560,1646,7.73365,-19.1978
343,-622,8.02039,18.9919,0,0,0,0,0,0,0,-1,1567,1646,8.02042,-18.9919
350,-622,7.84106,18.7292,0,0,0,0,0,0,0,-1,1574,1646,7.84101,-18.7293
357,-622,7.73596,18.8356,0.00024633,-0.00509482,0.00677763,0.00486055,-0.00970904,0.597724,0.00856561,0.0449598,1581,1646,7.73597,-18.8355
364,-622,7.73291,18.5427,-0.000884379,-0.0044642,0.00637015,0.00394256,-0.00929113,0.648438,0.00784573,0.0355701,1588,1646,7.73286,-18.5427
371,-622,7.77356,18.2635,-0.00164174,-0.00405744,0.00592879,0.00320099,-0.00890016,0.68491,0.00724028,0.0198184,1595,1646,7.7735,-18.2635
378,-622,7.7478,18.0914,-0.0021873,-0.00368291,0.00562258,0.00273699,-0.0086072,0.719286,0.00683562,0.0109309,1602,1646,7.74776,-18.0914
385,-622,7.72461,17.895,-0.00240203,-0.00306077,0.00490044,0.0021801,-0.0076429,0.751843,0.00595647,0.0090881,1609,1646,7.72465,-17.8951
392,-622,7.72083,17.7123,-0.0021884,-0.00323773,0.00429611,0.00161496,-0.0070411,0.724636,0.00531481,0.0105273,1616,1646,7.72077,-17.7122
399,-622,7.72595,17.5154,-0.00174104,-0.00313668,0.00373499,0.00136076,-0.00623849,0.693046,0.00467901,0.0110573,1623,1646,7.72597,-17.5154
406,-622,7.72949,17.3029,-0.00139067,-0.00282545,0.00322074,0.0011916,-0.00540773,0.675817,0.00406105,0.0135536,1630,1646,7.72946,-17.3029
413,-622,7.73694,17.0814,-0.00122695,-0.00254384,0.00277122,0.000962977,-0.00473376,0.668761,0.00352101,0.0154083,1637,1646,7.73692,-17.0814
420,-622,7.75012,16.8838,-0.00116878,-0.00213354,0.00242575,0.000822094,-0.00412441,0.68725,0.00306066,0.015821,1644,1646,7.75017,-16.8838
427,-622,7.75159,16.6915,-0.00116847,-0.0018663,0.00209751,0.000608946,-0.00364371,0.702979,0.0026555,0.0117449,1651,1646,7.75153,-16.6915
434,-622,7.75403,16.4495,-0.00127169,-0.00148852,0.00176102,0.00038425,-0.00314447,0.754655,0.00223543,0.0121365,1658,1646,7.75397,-16.4495
441,-622,7.75024,16.2141,-0.00142296,-0.000329124,0.00114584,0.000393629,-0.00214571,1.00806,0.00157813,0.0146287,1665,1646,7.75028,-16.2141
448,-622,7.75537,16.0187,-0.00153725,0.000673714,0.000712685,0.00088353,-0.00174707,1.28448,0.00154581,0.0136649,1672,1646,7.75538,-16.0187
455,-622,7.75354,15.79,-0.00179438,0.00167488,0.000298358,0.00170035,-0.00181985,1.48563,0.00203278,0.0154266,1679,1646,7.75352,-15.79
462,-622,7.75171,15.5574,-0.00196508,0.00297531,-0.000261153,0.00298908,-0.00197885,-1.51813,0.00288794,0.0174714,1686,1646,7.75173,-15.5574
469,-622,7.7334,15.3279,-0.00196092,0.00478781,-0.0010674,0.0049526,-0.00212571,-1.41761,0.0041939,0.0197293,1693,1646,7.73341,-15.3278
476,-622,7.74609,15.0682,-0.00186715,0.00716713,-0.00211784,0.00763896,-0.00233898,-1.35159,0.00602557,0.0194236,1700,1646,7.74614,-15.0682
483,-622,7.74268,14.8129,-0.00173827,0.0101401,-0.00340934,0.0110491,-0.00264727,-1.31024,0.00838886,0.0257502,1707,1646,7.74268,-14.8129
490,-622,7.72449,14.545,-0.00155992,0.0136574,-0.00499357,0.0151497,-0.00305222,-1.2804,0.011256,0.0325108,1714,1646,7.72454,-14.545
497,-622,7.84412,14.2865,-0.00146071,0.0176407,-0.00682027,0.0198259,-0.00364594,-1.26073,0.0145853,0.048261,1721,1646,7.84406,-14.2865
504,-622,7.92065,13.9662,0,0,0,0,0,0,0,-1,1728,1646,7.92064,-13.9662
511,-622,5.29004,4.14587,0,0,0,0,0,0,0,-1,1735,1646,5.29008,-4.14589
518,-622,5.6001,1.55359,0,0,0,0,0,0,0,-1,1742,1646,5.60015,-1.5536
525,-622,5.83093,2.01807,0,0,0,0,0,0,0,-1,1749,1646,5.83097,-2.01802
532,-622,5.44202,0.57373,0,0,0,0,0,0,0,-1,1756,1646,5.44196,-0.573705
539,-622,9.32129,1.06116,0,0,0,0,0,0,0,-1,1763,1646,9.32131,-1.0612
546,-622,6.50977,-3.45618,0,0,0,0,0,0,0,-1,1770,1646,6.50981,3.4562
553,-622,0,0,0,0,0,0,0,0,0,-1,1777,1646,0,0
560,-622,0,0,0,0,0,0,0,0,0,-1,1784,1646,0,0
567,-622,0,0,0,0,0,0,0,0,0,-1,1791,1646,0,0
574,-622,0,0,0,0,0,0,0,0,0,-1,1798,1646,0,0
581,-622,0,0,0,0,0,0,0,0,0,-1,1805,1646,0,0
588,-622,0,0,0,0,0,0,0,0,0,-1,1812,1646,0,0
595,-622,0,0,0,0,0,0,0,0,0,-1,1819,1646,0,0
602,-622,0,0,0,0,0,0,0,0,0,-1,1826,1646,0,0
609,-622,0,0,0,0,0,0,0,0,0,-1,1833,1646,0,0
616,-622,0,0,0,0,0,0,0,0,0,-1,1840,1646,0,0
623,-622,0,0,0,0,0,0,0,0,0,-1,1847,1646,0,0
630,-622,0,0,0,0,0,0,0,0,0,-1,1854,1646,0,0
637,-622,0,0,0,0,0,0,0,0,0,-1,1861,1646,0,0
644,-622,0,0,0,0,0,0,0,0,0,-1,1868,1646,0,0
651,-622,0,0,0,0,0,0,0,0,0,-1,1875,1646,0,0
658,-622,0,0,0,0,0,0,0,0,0,-1,1882,1646,0,0
665,-622,0,0,0,0,0,0,0,0,0,-1,1889,1646,0,0
672,-622,0,0,0,0,0,0,0,0,0,-1,1896,1646,0,0
679,-622,0,0,0,0,0,0,0,0,0,-1,1903,1646,0,0
686,-622,0,0,0,0,0,0,0,0,0,-1,1910,1646,0,0
693,-622,0,0,0,0,0,0,0,0,0,-1,1917,1646,0,0
700,-622,0,0,0,0,0,0,0,0,0,-1,1924,1646,0,0
707,-622,0,0,0,0,0,0,0,0,0,-1,1931,1646,0,0
714,-622,0,0,0,0,0,0,0,0,0,-1,1938,1646,0,0
721,-622,0,0,0,0,0,0,0,0,0,-1,1945,1646,0,0
728,-622,0,0,0,0,0,0,0,0,0,-1,1952,1646,0,0
735,-622,0,0,0,0,0,0,0,0,0,-1,1959,1646,0,0
742,-622,0,0,0,0,0,0,0,0,0,-1,1966,1646,0,0
749,-622,0,0,0,0,0,0,0,0,0,-1,1973,1646,0,0
756,-622,0,0,0,0,0,0,0,0,0,-1,1980,1646,0,0
763,-622,0,0,0,0,0,0,0,0,0,-1,1987,1646,0,0
770,-622,0,0,0,0,0,0,0,0,0,-1,1994,1646,0,0
777,-622,0,0,0,0,0,0,0,0,0,-1,2001,1646,0,0
784,-622,0,0,0,0,0,0,0,0,0,-1,2008,1646,0,0
791,-622,0,0,0,0,0,0,0,0,0,-1,2015,1646,0,0
798,-622,0,0,0,0,0,0,0,0,0,-1,2022,1646,0,0
805,-622,0,0,0,0,0,0,0,0,0,-1,2029,1646,0,0
812,-622,0,0,0,0,0,0,0,0,0,-1,2036,1646,0,0
-700,-629,0,0,0,0,0,0,0,0,0,-1,524,1653,0,0
-693,-629,0,0,0,0,0,0,0,0,0,-1,531,1653,0,0
-686,-629,0,0,0,0,0,0,0,0,0,-1,538,1653,0,0
-679,-629,0,0,0,0,0,0,0,0,0,-1,545,1653,0,0
-672,-629,0,0,0,0,0,0,0,0,0,-1,552,1653,0,0
-665,-629,0,0,0,0,0,0,0,0,0,-1,559,1653,0,0
-658,-629,0,0,0,0,0,0,0,0,0,-1,566,1653,0,0
-651,-629,0,0,0,0,0,0,0,0,0,-1,573,1653,0,0
-644,-629,0,0,0,0,0,0,0,0,0,-1,580,1653,0,0
-637,-629,0,0,0,0,0,0,0,0,0,-1,587,1653,0,0
-630,-629,0,0,0,0,0,0,0,0,0,-1,594,1653,0,0
-623,-629,0,0,0,0,0,0,0,0,0,-1,601,1653,0,0
-616,-629,0,0,0,0,0,0,0,0,0,-1,608,1653,0,0
-609,-629,0,0,0,0,0,0,0,0,0,-1,615,1653,0,0
-602,-629,0,0,0,0,0,0,0,0,0,-1,622,1653,0,0
-595,-629,0,0,0,0,0,0,0,0,0,-1,629,1653,0,0
-588,-629,0,0,0,0,0,0,0,0,0,-1,636,1653,0,0
-581,-629,0,0,0,0,0,0,0,0,0,-1,643,1653,0,0
-574,-629,0,0,0,0,0,0,0,0,0,-1,650,1653,0,0
-567,-629,0,0,0,0,0,0,0,0,0,-1,657,1653,0,0
-560,-629,0,0,0,0,0,0,0,0,0,-1,664,1653,0,0
-553,-629,0,0,0,0,0,0,0,0,0,-1,671,1653,0,0
-546,-629,0,0,0,0,0,0,0,0,0,-1,678,1653,0,0
-539,-629,0,0,0,0,0,0,0,0,0,-1,685,1653,0,0
-532,-629,0,0,0,0,0,0,0,0,0,-1,692,1653,0,0
-525,-629,0,0,0,0,0,0,0,0,0,-1,699,1653,0,0
-518,-629,0,0,0,0,0,0,0,0,0,-1,706,1653,0,0
-511,-629,0,0,0,0,0,0,0,0,0,-1,713,1653,0,0
-504,-629,0,0,0,0,0,0,0,0,0,-1,720,1653,0,0
-497,-629,0,0,0,0,0,0,0,0,0,-1,727,1653,0,0
-490,-629,0,0,0,0,0,0,0,0,0,-1,734,1653,0,0
-483,-629,0,0,0,0,0,0,0,0,0,-1,741,1653,0,0
-476,-629,0,0,0,0,0,0,0,0,0,-1,748,1653,0,0
-469,-629,0,0,0,0,0,0,0,0,0,-1,755,1653,0,0
-462,-629,0,0,0,0,0,0,0,0,0,-1,762,1653,0,0
-455,-629,0,0,0,0,0,0,0,0,0,-1,769,1653,0,0
-448,-629,0,0,0,0,0,0,0,0,0,-1,776,1653,0,0
-441,-629,0,0,0,0,0,0,0,0,0,-1,783,1653,0,0
-434,-629,0,0,0,0,0,0,0,0,0,-1,790,1653,0,0
-427,-629,0,0,0,0,0,0,0,0,0,-1,797,1653,0,0
-420,-629,-3.87103,3.37634,0,0,0,0,0,0,0,-1,804,1653,-3.87101,-3.37633
-413,-629,-5.69751,1.33582,0,0,0,0,0,0,0,-1,811,1653,-5.69754,-1.3358
-406,-629,2.85406,6.01501,0,0,0,0,0,0,0,-1,818,1653,2.85405,-6.01507
-399,-629,-0.455627,10.8687,0,0,0,0,0,0,0,-1,825,1653,-0.455625,-10.8687
-392,-629,1.15369,11.1295,0,0,0,0,0,0,0,-1,832,1653,1.1537,-11.1295
-385,-629,1.81976,11.6935,0,0,0,0,0,0,0,-1,839,1653,1.81975,-11.6935
-378,-629,2.19452,14.7941,0,0,0,0,0,0,0,-1,846,1653,2.19451,-14.7941
-371,-629,2.28833,13.5138,0,0,0,0,0,0,0,-1,853,1653,2.28832,-13.5138
-364,-629,2.41748,12.7314,0,0,0,0,0,0,0,-1,860,1653,2.41747,-12.7314
-357,-629,2.60388,13.7206,0,0,0,0,0,0,0,-1,867,1653,2.60387,-13.7206
-350,-629,3.17108,14.1299,0,0,0,0,0,0,0,-1,874,1653,3.17107,-14.1298
-343,-629,3.17352,14.163,0.00418953,-0.00109147,0.00557003,0.00771324,-0.00461518,0.56406,0.00719234,0.0464458,881,1653,3.17353,-14.1629
-336,-629,3.15906,14.2743,0.00330878,-0.00100116,0.00412203,0.00580516,-0.00349754,0.54454,0.00542572,0.0185568,888,1653,3.15906,-14.2743
-329,-629,3.19086,14.5204,0.00266508,-0.000853898,0.00321153,0.00456752,-0.00275634,0.534797,0.00427132,0.0113682,895,1653,3.19087,-14.5204
-322,-629,3.19135,14.7577,0.00209953,-0.00069565,0.00246768,0.00353791,-0.00213403,0.527741,0.00330796,0.0118374,902,1653,3.19136,-14.7577
-315,-629,3.16412,15.0195,0.00143128,-0.000730052,0.00170781,0.00237162,-0.00167039,0.503312,0.00234533,0.0150934,909,1653,3.1641,-15.0195
-308,-629,3.16571,15.2747,0.000767983,-0.000990807,0.000802973,0.00107943,-0.00130225,0.370002,0.00137707,0.0126831,916,1653,3.16568,-15.2746
-301,-629,3.19788,15.5203,0.000362488,-0.000890003,0.000264944,0.000416227,-0.000943742,0.200116,0.000804627,0.0111893,923,1653,3.19787,-15.5203
-294,-629,3.18396,15.749,0.000243439,-0.000934294,-5.72605e-06,0.000243467,-0.000934322,-0.00486177,0.000717932,0.0123002,930,1653,3.18396,-15.749
-287,-629,3.15985,15.9675,0.000286528,-0.000942438,-0.000197842,0.000317592,-0.000973502,-0.155742,0.000776816,0.00974057,937,1653,3.15984,-15.9676
-280,-629,3.16003,16.2129,0.000440824,-0.00106316,-0.000381089,0.000531874,-0.00115421,-0.234525,0.000995321,0.00930565,944,1653,3.16003,-16.2129
-273,-629,3.15088,16.434,0.000802919,-0.00121449,-0.000518236,0.000928258,-0.00133983,-0.237299,0.00131665,0.0117349,951,1653,3.15086,-16.434
-266,-629,3.14496,16.6626,0.00131053,-0.00152486,-0.000553919,0.0014149,-0.00162923,-0.18624,0.00175898,0.0126125,958,1653,3.14498,-16.6626
-259,-629,3.15997,16.9108,0.00187863,-0.00176645,-0.000564904,0.00196417,-0.00185199,-0.150282,0.00220358,0.01394,965,1653,3.15997,-16.9108
-252,-629,3.16016,17.1055,0.00263609,-0.00198345,-0.000452832,0.00268006,-0.00202742,-0.0967977,0.00272656,0.0112892,972,1653,3.16016,-17.1055
-245,-629,3.16669,17.3267,0.00302229,-0.0025895,8.87968e-05,0.00302369,-0.0025909,0.015818,0.0032448,0.00816271,979,1653,3.16668,-17.3266
-238,-629,3.16589,17.5382,0.003281,-0.0033809,0.000551447,0.00332634,-0.00342624,0.0820322,0.00389874,0.00963976,986,1653,3.1659,-17.5382
-231,-629,3.15424,17.734,0.00342765,-0.00423727,0.00101179,0.00355896,-0.00436858,0.129059,0.00458492,0.0108962,993,1653,3.15422,-17.734
-224,-629,3.22949,17.969,0.00322549,-0.00552077,0.00135962,0.00343197,-0.00572726,0.150715,0.00534314,0.0111055,1000,1653,3.22951,-17.969
-217,-629,3.2265,18.1227,0.0028559,-0.00668661,0.0019358,0.00323365,-0.00706435,0.192715,0.00608113,0.0171683,1007,1653,3.2265,-18.1226
-210,-629,3.18036,18.2928,0.00219454,-0.00782342,0.00263276,0.0028443,-0.00847317,0.241962,0.0067982,0.0359327,1014,1653,3.18034,-18.2928
-203,-629,3.17114,18.443,0,0,0,0,0,0,0,-1,1021,1653,3.17113,-18.443
-196,-629,3.5144,18.3632,-0.000510229,-0.0100979,0.00351295,0.000639133,-0.0112473,0.316202,0.00772007,0.0454933,1028,1653,3.51446,-18.3631
-189,-629,3.39661,18.6555,-0.00248046,-0.0116205,0.00339082,-0.0013599,-0.0127411,0.31917,0.00807901,0.044695,1035,1653,3.39655,-18.6555
-182,-629,3.29651,19.0883,0,0,0,0,0,0,0,-1,1042,1653,3.29646,-19.0883
-175,-629,3.29102,19.1411,0,0,0,0,0,0,0,-1,1049,1653,3.29096,-19.1411
-168,-629,4.32947,18.1393,0,0,0,0,0,0,0,-1,1056,1653,4.32946,-18.1393
-161,-629,3.80212,18.7777,0,0,0,0,0,0,0,-1,1063,1653,3.80207,-18.7777
-154,-629,3.29651,19.6415,0,0,0,0,0,0,0,-1,1070,1653,3.29652,-19.6414
-147,-629,3.30273,19.7765,0,0,0,0,0,0,0,-1,1077,1653,3.30277,-19.7764
-140,-629,2.34851,19.2911,0,0,0,0,0,0,0,-1,1084,1653,2.34853,-19.2911
-133,-629,3.41248,17.6686,0,0,0,0,0,0,0,-1,1091,1653,3.41243,-17.6686
-126,-629,4.01025,19.5328,0,0,0,0,0,0,0,-1,1098,1653,4.01022,-19.5328
-119,-629,4.94177,13.5525,0,0,0,0,0,0,0,-1,1105,1653,4.94172,-13.5525
-112,-629,5.63123,15.9187,0,0,0,0,0,0,0,-1,1112,1653,5.63118,-15.9187
-105,-629,2.15881,4.38342,0,0,0,0,0,0,0,-1,1119,1653,2.15878,-4.38347
-98,-629,0.825806,4.19385,0,0,0,0,0,0,0,-1,1126,1653,0.825779,-4.1939
-91,-629,-0.452271,3.64465,0,0,0,0,0,0,0,-1,1133,1653,-0.452278,-3.6446
-84,-629,-2.6084,0.466797,0,0,0,0,0,0,0,-1,1140,1653,-2.6084,-0.466786
-77,-629,-3.50903,2.10706,0,0,0,0,0,0,0,-1,1147,1653,-3.509,-2.10707
-70,-629,-1.20886,2.52502,0,0,0,0,0,0,0,-1,1154,1653,-1.20886,-2.525
-63,-629,-0.960693,4.30212,0,0,0,0,0,0,0,-1,1161,1653,-0.960691,-4.30215
-56,-629,-1.31934,5.64343,0,0,0,0,0,0,0,-1,1168,1653,-1.31928,-5.6434
-49,-629,-2.15662,2.57458,0,0,0,0,0,0,0,-1,1175,1653,-2.15656,-2.57459
-42,-629,-2.46326,3.91467,0,0,0,0,0,0,0,-1,1182,1653,-2.4633,-3.91466
-35,-629,-2.67261,5.24292,0,0,0,0,0,0,0,-1,1189,1653,-2.67257,-5.24298
-28,-629,-0.402954,-0.866577,0,0,0,0,0,0,0,-1,1196,1653,-0.402943,0.866612
-21,-629,10.063,9.59705,0,0,0,0,0,0,0,-1,1203,1653,10.063,-9.59708
-14,-629,-1.76807,25.1486,0,0,0,0,0,0,0,-1,1210,1653,-1.76809,-25.1485
-7,-629,2.39941,27.0833,0,0,0,0,0,0,0,-1,1217,1653,2.3994,-27.0832
0,-629,5.1615,6.99817,0,0,0,0,0,0,0,-1,1224,1653,5.16151,-6.99814
7,-629,5.51917,7.7146,0.122874,-0.226743,0.123095,0.161865,-0.265735,0.30676,0.249291,0.0456644,1231,1653,5.51912,-7.71463
14,-629,6.3125,8.25964,0.155287,-0.215676,0.135524,0.199523,-0.259912,0.315504,0.266018,0.0443648,1238,1653,6.31247,-8.25967
21,-629,7.17993,9.01196,0.17469,-0.198923,0.144917,0.22431,-0.248543,0.329892,0.273121,0.0441194,1245,1653,7.17995,-9.01197
28,-629,8.36011,9.92773,0,0,0,0,0,0,0,-1,1252,1653,8.36016,-9.92775
35,-629,9.83691,11.4045,0.188432,-0.148618,0.156017,0.249564,-0.209749,0.373439,0.265516,0.0446726,1259,1653,9.83695,-11.4046
42,-629,10.3082,11.9315,0,0,0,0,0,0,0,-1,1266,1653,10.3082,-11.9315
49,-629,10.7064,12.4197,0.170172,-0.0822154,0.153339,0.242567,-0.154611,0.441102,0.231178,0.0478926,1273,1653,10.7064,-12.4197
56,-629,11.3524,12.9204,0.154632,-0.0480294,0.148699,0.233244,-0.126641,0.486314,0.210796,0.0494428,1280,1653,11.3525,-12.9205
63,-629,12.2872,24.2607,0.129221,-0.013125,0.138793,0.214026,-0.0979299,0.548481,0.184218,0.0485752,1287,1653,12.2872,-24.2607
70,-629,11.5035,24.7156,0.093885,0.0218908,0.123776,0.186792,-0.0710162,0.643889,0.153767,0.0457335,1294,1653,11.5036,-24.7155
77,-629,10.6954,25.2786,0.051951,0.0531881,0.105402,0.157973,-0.0528341,0.788332,0.126655,0.0471115,1301,1653,10.6954,-25.2785
84,-629,10.3134,24.5538,0.00775386,0.0774742,0.0833843,0.132992,-0.0477639,0.98339,0.108157,0.0460596,1308,1653,10.3133,-24.5538
91,-629,9.17419,24.7449,-0.032355,0.100553,0.0602286,0.123785,-0.0555873,1.20265,0.106026,0.0444913,1315,1653,9.1742,-24.7448
98,-629,7.78479,25.1843,-0.069556,0.125261,0.0371921,0.132119,-0.0764147,1.38843,0.121821,0.0458361,1322,1653,7.78479,-25.1843
105,-629,6.54846,25.5204,0,0,0,0,0,0,0,-1,1329,1653,6.54848,-25.5204
112,-629,5.27869,25.4147,-0.13644,0.169138,-0.00690784,0.169294,-0.136596,-1.54821,0.176942,0.0446515,1336,1653,5.27872,-25.4147
119,-629,3.86096,25.4512,-0.155969,0.188878,-0.0280366,0.191142,-0.158234,-1.4902,0.202011,0.0427749,1343,1653,3.86101,-25.4512
126,-629,2.41833,25.5137,-0.153793,0.21782,-0.0422714,0.222568,-0.158541,-1.45895,0.221066,0.0460181,1350,1653,2.41836,-25.5136
133,-629,1.42407,26.22,-0.14799,0.260674,-0.0621307,0.269911,-0.157227,-1.4232,0.249453,0.0470037,1357,1653,1.42405,-26.22
140,-629,0.526001,26.1879,-0.136355,0.320167,-0.0890502,0.336922,-0.153111,-1.38481,0.289479,0.0439748,1364,1653,0.526048,-26.1878
147,-629,-0.345093,26.1064,0,0,0,0,0,0,0,-1,1371,1653,-0.34515,-26.1065
154,-629,1.78589,30.521,0,0,0,0,0,0,0,-1,1378,1653,1.7859,-30.521
161,-629,10.5461,6.83752,0,0,0,0,0,0,0,-1,1385,1653,10.5461,-6.83758
168,-629,12.0059,5.56348,0,0,0,0,0,0,0,-1,1392,1653,12.0059,-5.56352
175,-629,5.84485,-1.78845,0,0,0,0,0,0,0,-1,1399,1653,5.84479,1.7884
182,-629,5.99036,-1.27783,0,0,0,0,0,0,0,-1,1406,1653,5.99041,1.27778
189,-629,5.97668,-0.748535,0,0,0,0,0,0,0,-1,1413,1653,5.97671,0.748544
196,-629,4.52869,9.24695,0,0,0,0,0,0,0,-1,1420,1653,4.52869,-9.2469
203,-629,3.75085,6.88037,0,0,0,0,0,0,0,-1,1427,1653,3.75087,-6.88032
210,-629,3.5907,6.52637,0,0,0,0,0,0,0,-1,1434,1653,3.59067,-6.52642
217,-629,2.4585,4.84448,0,0,0,0,0,0,0,-1,1441,1653,2.45855,-4.84448
224,-629,1.31982,3.68481,0,0,0,0,0,0,0,-1,1448,1653,1.31986,-3.68487
231,-629,3.63025,1.73499,0,0,0,0,0,0,0,-1,1455,1653,3.6303,-1.735
238,-629,4.26428,2.11255,0,0,0,0,0,0,0,-1,1462,1653,4.26429,-2.11253
245,-629,5.61816,1.95361,0,0,0,0,0,0,0,-1,1469,1653,5.61815,-1.95359
252,-629,7.27136,2.18982,0,0,0,0,0,0,0,-1,1476,1653,7.27131,-2.18985
259,-629,8.67334,2.18628,0,0,0,0,0,0,0,-1,1483,1653,8.6733,-2.18633
266,-629,6.86475,3.72058,0,0,0,0,0,0,0,-1,1490,1653,6.86479,-3.72063
273,-629,7.9021,3.8717,0,0,0,0,0,0,0,-1,1497,1653,7.90205,-3.87171
280,-629,9.70837,4.39087,0,0,0,0,0,0,0,-1,1504,1653,9.7084,-4.39082
287,-629,9.82947,7.19348,0,0,0,0,0,0,0,-1,1511,1653,9.8295,-7.19347
294,-629,6.56555,11.6359,0,0,0,0,0,0,0,-1,1518,1653,6.5656,-11.6358
301,-629,6.93835,15.6102,0,0,0,0,0,0,0,-1,1525,1653,6.93835,-15.6103
308,-629,6.08264,12.1423,0,0,0,0,0,0,0,-1,1532,1653,6.08263,-12.1423
315,-629,6.82043,18.2764,0,0,0,0,0,0,0,-1,1539,1653,6.82049,-18.2764
322,-629,6.96851,19.1991,0,0,0,0,0,0,0,-1,1546,1653,6.96855,-19.1991
329,-629,7.37842,18.6268,0.00926362,-0.00596659,0.00476811,0.0106332,-0.00733618,0.279709,0.0104327,0.0366962,1553,1653,7.37838,-18.6268
336,-629,7.53479,19.1726,0.00617785,-0.00508505,0.00527354,0.00826155,-0.00716875,0.376295,0.00891613,0.043272,1560,1653,7.53484,-19.1726
343,-629,7.65894,18.9969,0.00360665,-0.0042712,0.00537741,0.00633343,-0.00699798,0.469297,0.00770008,0.0446662,1567,1653,7.65891,-18.9969
350,-629,7.56067,18.7836,0.00211563,-0.00335879,0.00497142,0.00505357,-0.00629673,0.533751,0.00656619,0.0265328,1574,1653,7.56064,-18.7835
357,-629,7.54895,18.6029,0.00107106,-0.00329777,0.00478333,0.00414515,-0.00637187,0.571203,0.0061172,0.0152044,1581,1653,7.54896,-18.6029
364,-629,7.52722,18.4268,0.000104711,-0.0027981,0.00446991,0.00335295,-0.00604634,0.628415,0.00550045,0.0126359,1588,1653,7.52728,-18.4268
371,-629,7.52869,18.2512,-0.000597551,-0.00251492,0.00413979,0.00269311,-0.00580558,0.671615,0.00501521,0.0107265,1595,1653,7.52873,-18.2512
378,-629,7.52344,18.0831,-0.001151,-0.00228192,0.00390214,0.00222644,-0.00565936,0.713444,0.00469447,0.0100246,1602,1653,7.52348,-18.0831
385,-629,7.5249,17.9012,-0.00144869,-0.00183317,0.00329424,0.00165892,-0.00494078,0.756253,0.00396427,0.0113104,1609,1653,7.52488,-17.9012
392,-629,7.52014,17.7106,-0.00140146,-0.00205338,0.00277002,0.00106171,-0.00451655,0.72683,0.00342031,0.0101965,1616,1653,7.52017,-17.7106
399,-629,7.52136,17.5084,-0.00119586,-0.00206467,0.0023249,0.000734874,-0.0039954,0.693039,0.00293934,0.0106283,1623,1653,7.52138,-17.5084
406,-629,7.51245,17.2803,-0.00114188,-0.00193083,0.00201129,0.000513256,-0.00358596,0.688563,0.00257881,0.0140091,1630,1653,7.51245,-17.2802
413,-629,7.5127,17.0618,-0.00119643,-0.0017926,0.0017366,0.000267482,-0.00325651,0.700402,0.00226543,0.0227217,1637,1653,7.51268,-17.0617
420,-629,7.51672,16.9059,-0.00133231,-0.00156744,0.00161501,0.00016941,-0.00306916,0.749065,0.00210485,0.0209009,1644,1653,7.51677,-16.9058
427,-629,7.53149,16.7037,-0.00149481,-0.00149719,0.00148389,-1.21125e-05,-0.00297989,0.784998,0.00198257,0.0123522,1651,1653,7.53144,-16.7037
434,-629,7.52783,16.4663,-0.00179683,-0.001306,0.00138063,-0.000149147,-0.00295369,0.873358,0.00192134,0.0100175,1658,1653,7.52789,-16.4663
441,-629,7.53247,16.2426,-0.00222437,1.7838e-05,0.00089588,0.00033182,-0.00253836,1.2337,0.00181299,0.0151962,1665,1653,7.5325,-16.2425
448,-629,7.54016,16.0077,-0.00251741,0.00115175,0.000595388,0.00124594,-0.0026116,1.41389,0.0022732,0.0148409,1672,1653,7.54017,-16.0077
455,-629,7.53601,15.7639,-0.00290431,0.00241689,0.000266825,0.00243023,-0.00291766,1.52082,0.00309188,0.013624,1679,1653,7.53602,-15.7639
462,-629,7.54797,15.5631,-0.00319066,0.0041046,-0.00029053,0.00411615,-0.00320221,-1.53106,0.00423622,0.0175298,1686,1653,7.54801,-15.5631
469,-629,7.53271,15.312,-0.00333703,0.00666825,-0.00122809,0.00681678,-0.00348557,-1.45043,0.00605082,0.0205518,1693,1653,7.53273,-15.312
476,-629,7.59045,15.0808,-0.0033243,0.0101452,-0.002603,0.0106308,-0.00380983,-1.38639,0.00864174,0.0269943,1700,1653,7.59044,-15.0808
483,-629,7.61658,14.7699,-0.00320848,0.0146724,-0.00442522,0.0157076,-0.00424371,-1.34099,0.0121362,0.0399202,1707,1653,7.61654,-14.7699
490,-629,7.60107,14.3505,-0.00299217,0.0201727,-0.00679819,0.0220204,-0.00483986,-1.30542,0.0165314,0.0456231,1714,1653,7.60109,-14.3504
497,-629,7.6991,13.9413,-0.00264889,0.0265536,-0.00973307,0.0295002,-0.00559556,-1.27682,0.021773,0.0486338,1721,1653,7.69913,-13.9413
504,-629,7.69263,13.8149,0,0,0,0,0,0,0,-1,1728,1653,7.69259,-13.8149
511,-629,6.29138,3.40295,0,0,0,0,0,0,0,-1,1735,1653,6.29137,-3.403
518,-629,5.84387,1.41858,0,0,0,0,0,0,0,-1,1742,1653,5.84391,-1.4186
525,-629,6.4729,1.02319,0,0,0,0,0,0,0,-1,1749,1653,6.47284,-1.02316
532,-629,6.86511,0.903687,0,0,0,0,0,0,0,-1,1756,1653,6.86514,-0.903691
539,-629,6.60803,0.746704,0,0,0,0,0,0,0,-1,1763,1653,6.60809,-0.746691
546,-629,0,0,0,0,0,0,0,0,0,-1,1770,1653,0,0
553,-629,0,0,0,0,0,0,0,0,0,-1,1777,1653,0,0
560,-629,0,0,0,0,0,0,0,0,0,-1,1784,1653,0,0
567,-629,0,0,0,0,0,0,0,0,0,-1,1791,1653,0,0
574,-629,0,0,0,0,0,0,0,0,0,-1,1798,1653,0,0
581,-629,0,0,0,0,0,0,0,0,0,-1,1805,1653,0,0
588,-629,0,0,0,0,0,0,0,0,0,-1,1812,1653,0,0
595,-629,0,0,0,0,0,0,0,0,0,-1,1819,1653,0,0
602,-629,0,0,0,0,0,0,0,0,0,-1,1826,1653,0,0
609,-629,0,0,0,0,0,0,0,0,0,-1,1833,1653,0,0
616,-629,0,0,0,0,0,0,0,0,0,-1,1840,1653,0,0
623,-629,0,0,0,0,0,0,0,0,0,-1,1847,1653,0,0
630,-629,0,0,0,0,0,0,0,0,0,-1,1854,1653,0,0
637,-629,0,0,0,0,0,0,0,0,0,-1,1861,1653,0,0
644,-629,0,0,0,0,0,0,0,0,0,-1,1868,1653,0,0
651,-629,0,0,0,0,0,0,0,0,0,-1,1875,1653,0,0
658,-629,0,0,0,0,0,0,0,0,0,-1,1882,1653,0,0
665,-629,0,0,0,0,0,0,0,0,0,-1,1889,1653,0,0
672,-629,0,0,0,0,0,0,0,0,0,-1,1896,1653,0,0
679,-629,0,0,0,0,0,0,0,0,0,-1,1903,1653,0,0
686,-629,0,0,0,0,0,0,0,0,0,-1,1910,1653,0,0
693,-629,0,0,0,0,0,0,0,0,0,-1,1917,1653,0,0
700,-629,0,0,0,0,0,0,0,0,0,-1,1924,1653,0,0
707,-629,0,0,0,0,0,0,0,0,0,-1,1931,1653,0,0
714,-629,0,0,0,0,0,0,0,0,0,-1,1938,1653,0,0
721,-629,0,0,0,0,0,0,0,0,0,-1,1945,1653,0,0
728,-629,0,0,0,0,0,0,0,0,0,-1,1952,1653,0,0
735,-629,0,0,0,0,0,0,0,0,0,-1,1959,1653,0,0
742,-629,0,0,0,0,0,0,0,0,0,-1,1966,1653,0,0
749,-629,0,0,0,0,0,0,0,0,0,-1,1973,1653,0,0
756,-629,0,0,0,0,0,0,0,0,0,-1,1980,1653,0,0
763,-629,0,0,0,0,0,0,0,0,0,-1,1987,1653,0,0
770,-629,0,0,0,0,0,0,0,0,0,-1,1994,1653,0,0
777,-629,0,0,0,0,0,0,0,0,0,-1,2001,1653,0,0
784,-629,0,0,0,0,0,0,0,0,0,-1,2008,1653,0,0
791,-629,0,0,0,0,0,0,0,0,0,-1,2015,1653,0,0
798,-629,0,0,0,0,0,0,0,0,0,-1,2022,1653,0,0
805,-629,0,0,0,0,0,0,0,0,0,-1,2029,1653,0,0
812,-629,0,0,0,0,0,0,0,0,0,-1,2036,1653,0,0
-700,-636,0,0,0,0,0,0,0,0,0,-1,524,1660,0,0
-693,-636,0,0,0,0,0,0,0,0,0,-1,531,1660,0,0
-686,-636,0,0,0,0,0,0,0,0,0,-1,538,1660,0,0
-679,-636,0,0,0,0,0,0,0,0,0,-1,545,1660,0,0
-672,-636,0,0,0,0,0,0,0,0,0,-1,552,1660,0,0
-665,-636,0,0,0,0,0,0,0,0,0,-1,559,1660,0,0
-658,-636,0,0,0,0,0,0,0,0,0,-1,566,1660,0,0
-651,-636,0,0,0,0,0,0,0,0,0,-1,573,1660,0,0
-644,-636,0,0,0,0,0,0,0,0,0,-1,580,1660,0,0
-637,-636,0,0,0,0,0,0,0,0,0,-1,587,1660,0,0
-630,-636,0,0,0,0,0,0,0,0,0,-1,594,1660,0,0
-623,-636,0,0,0,0,0,0,0,0,0,-1,601,1660,0,0
-616,-636,0,0,0,0,0,0,0,0,0,-1,608,1660,0,0
-609,-636,0,0,0,0,0,0,0,0,0,-1,615,1660,0,0
-602,-636,0,0,0,0,0,0,0,0,0,-1,622,1660,0,0
-595,-636,0,0,0,0,0,0,0,0,0,-1,629,1660,0,0
-588,-636,0,0,0,0,0,0,0,0,0,-1,636,1660,0,0
-581,-636,0,0,0,0,0,0,0,0,0,-1,643,1660,0,0
-574,-636,0,0,0,0,0,0,0,0,0,-1,650,1660,0,0
-567,-636,0,0,0,0,0,0,0,0,0,-1,657,1660,0,0
-560,-636,0,0,0,0,0,0,0,0,0,-1,664,1660,0,0
-553,-636,0,0,0,0,0,0,0,0,0,-1,671,1660,0,0
-546,-636,0,0,0,0,0,0,0,0,0,-1,678,1660,0,0
-539,-636,0,0,0,0,0,0,0,0,0,-1,685,1660,0,0
-532,-636,0,0,0,0,0,0,0,0,0,-1,692,1660,0,0
-525,-636,0,0,0,0,0,0,0,0,0,-1,699,1660,0,0
-518,-636,0,0,0,0,0,0,0,0,0,-1,706,1660,0,0
-511,-636,0,0,0,0,0,0,0,0,0,-1,713,1660,0,0
-504,-636,0,0,0,0,0,0,0,0,0,-1,720,1660,0,0
-497,-636,0,0,0,0,0,0,0,0,0,-1,727,1660,0,0
-490,-636,0,0,0,0,0,0,0,0,0,-1,734,1660,0,0
-483,-636,0,0,0,0,0,0,0,0,0,-1,741,1660,0,0
-476,-636,0,0,0,0,0,0,0,0,0,-1,748,1660,0,0
-469,-636,0,0,0,0,0,0,0,0,0,-1,755,1660,0,0
-462,-636,0,0,0,0,0,0,0,0,0,-1,762,1660,0,0
-455,-636,0,0,0,0,0,0,0,0,0,-1,769,1660,0,0
-448,-636,0,0,0,0,0,0,0,0,0,-1,776,1660,0,0
-441,-636,0,0,0,0,0,0,0,0,0,-1,783,1660,0,0
-434,-636,0,0,0,0,0,0,0,0,0,-1,790,1660,0,0
-427,-636,0,0,0,0,0,0,0,0,0,-1,797,1660,0,0
-420,-636,0,0,0,0,0,0,0,0,0,-1,804,1660,0,0
-413,-636,0,0,0,0,0,0,0,0,0,-1,811,1660,0,0
-406,-636,-0.591125,10.6943,0,0,0,0,0,0,0,-1,818,1660,-0.59115,-10.6943
-399,-636,0.0766602,11.2408,0,0,0,0,0,0,0,-1,825,1660,0.076685,-11.2409
-392,-636,0.75946,11.9233,0,0,0,0,0,0,0,-1,832,1660,0.759481,-11.9233
-385,-636,1.68878,12.517,0,0,0,0,0,0,0,-1,839,1660,1.6888,-12.5169
-378,-636,2.22107,13.0013,0,0,0,0,0,0,0,-1,846,1660,2.22107,-13.0014
-371,-636,2.52185,11.9684,0,0,0,0,0,0,0,-1,853,1660,2.52184,-11.9684
-364,-636,2.94617,11.7798,0,0,0,0,0,0,0,-1,860,1660,2.94618,-11.7798
-357,-636,2.67303,13.8154,0,0,0,0,0,0,0,-1,867,1660,2.67306,-13.8155
-350,-636,2.8645,11.7958,0,0,0,0,0,0,0,-1,874,1660,2.86448,-11.7957
-343,-636,3.54095,14.354,0,0,0,0,0,0,0,-1,881,1660,3.54096,-14.3539
-336,-636,3.31885,14.3795,0.00285031,-0.0018918,0.00506423,0.00607106,-0.00511255,0.566457,0.00646476,0.0361522,888,1660,3.31885,-14.3795
-329,-636,3.44501,14.5251,0.0018511,-0.00199657,0.00383658,0.00421917,-0.00436464,0.552997,0.0049561,0.018086,895,1660,3.44504,-14.5251
-322,-636,3.42682,14.7664,0.00104087,-0.00196185,0.00287816,0.00278572,-0.0037067,0.544994,0.00376095,0.0116213,902,1660,3.42681,-14.7664
-315,-636,3.388,15.016,0.000205668,-0.00206406,0.00200194,0.00137204,-0.00323043,0.527542,0.00272849,0.0121254,909,1660,3.38798,-15.0159
-308,-636,3.40204,15.2684,-0.000536506,-0.00234496,0.00103888,-6.34545e-05,-0.00281801,0.427293,0.00185788,0.0109867,916,1660,3.40202,-15.2685
-301,-636,3.41724,15.5242,-0.000940928,-0.00220143,0.000456062,-0.000793227,-0.00234913,0.313202,0.00137989,0.0113308,923,1660,3.41724,-15.5242
-294,-636,3.39844,15.7762,-0.00100232,-0.00212308,0.000163777,-0.000978882,-0.00214652,0.142172,0.00124089,0.015242,930,1660,3.39843,-15.7762
-287,-636,3.38605,15.9799,-0.000861926,-0.0020067,-3.57641e-05,-0.00086081,-0.00200782,-0.0312006,0.00116313,0.0131853,937,1660,3.38607,-15.9799
-280,-636,3.37976,16.2166,-0.000612915,-0.00193359,-0.000220321,-0.00057713,-0.00196938,-0.161017,0.00116903,0.0117922,944,1660,3.37974,-16.2166
-273,-636,3.36804,16.4412,-0.000156906,-0.00187658,-0.000346329,-8.97789e-05,-0.00194371,-0.191452,0.00126694,0.0119392,951,1660,3.36806,-16.4411
-266,-636,3.37823,16.6838,0.000414811,-0.00195997,-0.00037469,0.000472527,-0.00201768,-0.152834,0.0015272,0.0133783,958,1660,3.37822,-16.6838
-259,-636,3.39728,16.9425,0.000969791,-0.00195539,-0.000417768,0.00102829,-0.00201388,-0.139114,0.00178686,0.0147019,965,1660,3.39727,-16.9425
-252,-636,3.38934,17.1333,0.0016873,-0.00188205,-0.000326628,0.00171695,-0.00191169,-0.0905074,0.002096,0.0112003,972,1660,3.38935,-17.1332
-245,-636,3.39331,17.3436,0.00217104,-0.00215194,0.000104851,0.00217358,-0.00215448,0.0242354,0.00249882,0.0101907,979,1660,3.39332,-17.3436
-238,-636,3.39667,17.5406,0.00246573,-0.00261578,0.000459442,0.00250694,-0.00265699,0.0894478,0.00298182,0.0110758,986,1660,3.39665,-17.5406
-231,-636,3.39142,17.7334,0.00259244,-0.00318575,0.000775092,0.0026946,-0.00328791,0.131055,0.00345967,0.0106589,993,1660,3.39144,-17.7334
-224,-636,3.41071,17.936,0.0024975,-0.00403858,0.00100014,0.00264712,-0.00418819,0.148493,0.00397966,0.00926311,1000,1660,3.41071,-17.9361
-217,-636,3.41644,18.1721,0.00226834,-0.00486384,0.00136104,0.00251925,-0.00511474,0.182299,0.00449159,0.0118824,1007,1660,3.41646,-18.1721
-210,-636,3.42035,18.3547,0.00184018,-0.0056706,0.00173842,0.00222304,-0.00605345,0.21677,0.00494607,0.0171574,1014,1660,3.42036,-18.3547
-203,-636,3.4646,18.5605,0.00101227,-0.00653878,0.0021227,0.00156808,-0.00709459,0.256091,0.00532987,0.0223026,1021,1660,3.46455,-18.5605
-196,-636,3.58948,18.6755,0.000108243,-0.00741988,0.00204872,0.000629669,-0.0079413,0.249222,0.00551608,0.025155,1028,1660,3.58946,-18.6755
-189,-636,3.55212,18.8376,-0.00117935,-0.00876433,0.00179646,-0.000775387,-0.0091683,0.221189,0.00587083,0.0269566,1035,1660,3.5521,-18.8377
-182,-636,3.48511,18.9774,-0.00267596,-0.0104839,0.00128583,-0.00246966,-0.0106902,0.159087,0.00646284,0.039931,1042,1660,3.48516,-18.9774
-175,-636,3.43555,19.0654,-0.00371919,-0.011748,0.000768121,-0.00364637,-0.0118209,0.0945277,0.00698969,0.0479514,1049,1660,3.43558,-19.0655
-168,-636,3.67664,19.4067,0,0,0,0,0,0,0,-1,1056,1660,3.67669,-19.4067
-161,-636,3.65027,19.5868,0,0,0,0,0,0,0,-1,1063,1660,3.65027,-19.5868
-154,-636,3.69507,19.5654,-0.00588922,-0.0173192,-0.00128957,-0.00574554,-0.0174629,-0.110965,0.0102769,0.0447517,1070,1660,3.69505,-19.5654
-147,-636,3.49194,19.7937,0,0,0,0,0,0,0,-1,1077,1660,3.49194,-19.7937
-140,-636,3.31433,20.0211,0,0,0,0,0,0,0,-1,1084,1660,3.31432,-20.0212
-133,-636,4.68311,18.0922,0,0,0,0,0,0,0,-1,1091,1660,4.68316,-18.0921
-126,-636,3.79028,18.2225,0,0,0,0,0,0,0,-1,1098,1660,3.79025,-18.2226
-119,-636,1.8667,13.8916,0,0,0,0,0,0,0,-1,1105,1660,1.86668,-13.8916
-112,-636,-1.24963,9.7998,0,0,0,0,0,0,0,-1,1112,1660,-1.24968,-9.79978
-105,-636,3.51624,4.72791,0,0,0,0,0,0,0,-1,1119,1660,3.51618,-4.7279
-98,-636,1.54504,5.11914,0,0,0,0,0,0,0,-1,1126,1660,1.54503,-5.11912
-91,-636,-1.87964,-2.25012,0,0,0,0,0,0,0,-1,1133,1660,-1.87966,2.25016
-84,-636,-2.84143,0.133667,0,0,0,0,0,0,0,-1,1140,1660,-2.84144,-0.133701
-77,-636,-3.57349,2.45935,0,0,0,0,0,0,0,-1,1147,1660,-3.57345,-2.45939
-70,-636,-4.23682,4.82312,0,0,0,0,0,0,0,-1,1154,1660,-4.23681,-4.82307
-63,-636,-2.21033,6.97168,0,0,0,0,0,0,0,-1,1161,1660,-2.21034,-6.97165
-56,-636,-2.51917,8.80359,0,0,0,0,0,0,0,-1,1168,1660,-2.51916,-8.80361
-49,-636,-3.13,10.4113,0,0,0,0,0,0,0,-1,1175,1660,-3.12996,-10.4112
-42,-636,-2.27771,4.90173,0,0,0,0,0,0,0,-1,1182,1660,-2.27775,-4.90173
-35,-636,-2.27698,5.89685,0,0,0,0,0,0,0,-1,1189,1660,-2.27695,-5.89686
-28,-636,-1.70654,4.83936,0,0,0,0,0,0,0,-1,1196,1660,-1.70656,-4.8393
-21,-636,-5.18445,24.8309,0,0,0,0,0,0,0,-1,1203,1660,-5.18442,-24.831
-14,-636,4.21997,7.40491,0,0,0,0,0,0,0,-1,1210,1660,4.22,-7.40494
-7,-636,3.59692,7.52429,0,0,0,0,0,0,0,-1,1217,1660,3.59687,-7.52427
0,-636,4.41663,8.26648,0.0900771,-0.192011,0.101814,0.122986,-0.224919,0.312625,0.203717,0.0497623,1224,1660,4.41666,-8.2665
7,-636,5.16272,9.09351,0.107391,-0.186666,0.103356,0.140084,-0.219359,0.306358,0.209201,0.0451744,1231,1660,5.16266,-9.09354
14,-636,5.55811,9.81323,0.132696,-0.17822,0.111897,0.16878,-0.214304,0.311942,0.221693,0.0446249,1238,1660,5.55816,-9.81326
21,-636,6.38428,10.538,0.147821,-0.166349,0.119085,0.187857,-0.206386,0.324331,0.2277,0.0451278,1245,1660,6.38426,-10.538
28,-636,7.33521,11.3616,0,0,0,0,0,0,0,-1,1252,1660,7.33522,-11.3616
35,-636,8.65942,12.7759,0,0,0,0,0,0,0,-1,1259,1660,8.65941,-12.7759
42,-636,9.0343,13.4199,0,0,0,0,0,0,0,-1,1266,1660,9.03432,-13.4199
49,-636,9.4115,13.8691,0.138654,-0.078656,0.127444,0.197474,-0.137476,0.432406,0.194415,0.0487436,1273,1660,9.41152,-13.8691
56,-636,9.87561,14.272,0.123282,-0.0519471,0.124452,0.187867,-0.116532,0.478695,0.177346,0.0471621,1280,1660,9.87562,-14.272
63,-636,12.1749,23.5295,0.0997576,-0.0238951,0.117252,0.170485,-0.0946225,0.542776,0.155135,0.0433753,1287,1660,12.1749,-23.5296
70,-636,11.8324,23.7112,0.0684773,0.00417322,0.106131,0.14722,-0.0745694,0.63832,0.13032,0.0437239,1294,1660,11.8324,-23.7112
77,-636,11.0616,23.9169,0.031177,0.0304447,0.0918648,0.122676,-0.0610548,0.783405,0.108048,0.0466947,1301,1660,11.0616,-23.9169
84,-636,10.1599,23.9225,-0.00754107,0.0530998,0.0744952,0.103209,-0.0576499,0.978666,0.0941051,0.0464651,1308,1660,10.1599,-23.9224
91,-636,9.07336,24.0703,-0.0422304,0.0771783,0.0545083,0.098318,-0.0633701,1.20083,0.0940748,0.04304,1315,1660,9.07342,-24.0703
98,-636,7.99817,24.1832,-0.0729429,0.105558,0.0343963,0.111957,-0.0793415,1.38687,0.11098,0.0479882,1322,1660,7.99811,-24.1832
105,-636,7.18994,24.158,0,0,0,0,0,0,0,-1,1329,1660,7.18997,-24.1579
112,-636,5.51782,24.7098,-0.126775,0.156803,-0.00640628,0.156948,-0.12692,-1.54822,0.164196,0.0477648,1336,1660,5.51788,-24.7098
119,-636,4.05786,24.8055,-0.141033,0.183795,-0.0269334,0.186013,-0.143251,-1.48863,0.190634,0.0444838,1343,1660,4.05783,-24.8056
126,-636,2.67346,25.0062,-0.139933,0.219123,-0.0438994,0.224413,-0.145222,-1.45089,0.215035,0.0473446,1350,1660,2.67341,-25.0062
133,-636,1.73767,25.1606,-0.134688,0.266933,-0.0657912,0.277436,-0.145191,-1.41249,0.247954,0.0478791,1357,1660,1.73771,-25.1606
140,-636,1.01538,25.2645,-0.124117,0.327845,-0.0929745,0.346224,-0.142496,-1.37564,0.29022,0.0432952,1364,1660,1.01533,-25.2645
147,-636,0.389648,25.6519,-0.106063,0.411401,-0.128253,0.441444,-0.136106,-1.3407,0.348636,0.0439159,1371,1660,0.389616,-25.6519
154,-636,-0.380493,26.0275,0,0,0,0,0,0,0,-1,1378,1660,-0.380533,-26.0274
161,-636,10.2961,7.13025,0,0,0,0,0,0,0,-1,1385,1660,10.2961,-7.13021
168,-636,11.7659,5.83899,0,0,0,0,0,0,0,-1,1392,1660,11.7658,-5.83899
175,-636,5.94592,-1.72888,0,0,0,0,0,0,0,-1,1399,1660,5.94598,1.72886
182,-636,5.93994,-1.11938,0,0,0,0,0,0,0,-1,1406,1660,5.93998,1.11936
189,-636,5.32544,11.9595,0,0,0,0,0,0,0,-1,1413,1660,5.32542,-11.9595
196,-636,5.3623,9.38025,0,0,0,0,0,0,0,-1,1420,1660,5.36225,-9.38027
203,-636,5.18542,9.02429,0,0,0,0,0,0,0,-1,1427,1660,5.18547,-9.0243
210,-636,4.09167,7.17041,0,0,0,0,0,0,0,-1,1434,1660,4.09173,-7.17041
217,-636,2.94897,5.28992,0,0,0,0,0,0,0,-1,1441,1660,2.94899,-5.28991
224,-636,1.49194,3.63916,0,0,0,0,0,0,0,-1,1448,1660,1.49197,-3.63918
231,-636,0.17749,2.24854,0,0,0,0,0,0,0,-1,1455,1660,0.177501,-2.24855
238,-636,-0.764648,1.00598,0,0,0,0,0,0,0,-1,1462,1660,-0.764704,-1.00595
245,-636,6.21204,1.18005,0,0,0,0,0,0,0,-1,1469,1660,6.21206,-1.18001
252,-636,7.70251,0.865723,0,0,0,0,0,0,0,-1,1476,1660,7.7025,-0.865692
259,-636,9.03601,0.787231,0,0,0,0,0,0,0,-1,1483,1660,9.03598,-0.787243
266,-636,10.1071,3.24109,0,0,0,0,0,0,0,-1,1490,1660,10.1071,-3.24103
273,-636,8.48535,5.02466,0,0,0,0,0,0,0,-1,1497,1660,8.48533,-5.02472
280,-636,8.81384,5.66992,0,0,0,0,0,0,0,-1,1504,1660,8.81381,-5.66998
287,-636,6.08606,11.49,0,0,0,0,0,0,0,-1,1511,1660,6.08606,-11.49
294,-636,6.69592,15.9669,0,0,0,0,0,0,0,-1,1518,1660,6.69595,-15.9669
301,-636,6.94446,20.4395,0,0,0,0,0,0,0,-1,1525,1660,6.94445,-20.4394
308,-636,7.12268,19.9497,0,0,0,0,0,0,0,-1,1532,1660,7.12272,-19.9497
315,-636,6.67004,19.6583,0,0,0,0,0,0,0,-1,1539,1660,6.67002,-19.6583
322,-636,6.96411,19.3446,0.00910006,-0.0054012,0.00318053,0.00976697,-0.00606811,0.20669,0.00922515,0.0434887,1546,1660,6.96409,-19.3446
329,-636,7.21399,19.25,0.00728808,-0.00438733,0.0033934,0.0082027,-0.00530196,0.263274,0.00785664,0.0246615,1553,1660,7.21405,-19.25
336,-636,7.31201,19.1354,0.00515562,-0.00371529,0.00370376,0.00649867,-0.00505834,0.347871,0.00668969,0.0213142,1560,1660,7.31205,-19.1354
343,-636,7.32239,19.0016,0.00324682,-0.00310148,0.00381718,0.00503715,-0.00489181,0.438558,0.00573269,0.0209376,1567,1660,7.32242,-19.0016
350,-636,7.29773,18.8124,0.00207315,-0.00239767,0.00353187,0.00401759,-0.00434211,0.503259,0.00482769,0.0116864,1574,1660,7.29775,-18.8123
357,-636,7.3053,18.6334,0.00122952,-0.00225343,0.00337311,0.00328417,-0.00430808,0.547104,0.00439666,0.00973772,1581,1660,7.30526,-18.6334
364,-636,7.32202,18.4493,0.000459008,-0.00183525,0.00311047,0.00262713,-0.00400337,0.608738,0.00385552,0.0097412,1588,1660,7.32204,-18.4493
371,-636,7.32532,18.2706,-0.000110138,-0.00160346,0.00283913,0.00207887,-0.00379247,0.656815,0.00343761,0.0090094,1595,1660,7.3253,-18.2706
378,-636,7.33447,18.0776,-0.000557446,-0.00144817,0.00261987,0.00165464,-0.00366026,0.701206,0.00314054,0.00926539,1602,1660,7.33448,-18.0777
385,-636,7.33533,17.8778,-0.000798568,-0.00110884,0.00207083,0.00112292,-0.00303033,0.74801,0.00248074,0.0139498,1609,1660,7.33528,-17.8779
392,-636,7.32996,17.6887,-0.000800473,-0.00128316,0.00158583,0.000562273,-0.00264591,0.709883,0.00197818,0.0142919,1616,1660,7.32993,-17.6887
399,-636,7.32446,17.4908,-0.000741839,-0.00134558,0.0012017,0.000195322,-0.00228274,0.662343,0.00159093,0.0107096,1623,1660,7.32449,-17.4909
406,-636,7.32092,17.2755,-0.000919292,-0.00132045,0.00102608,-7.43743e-05,-0.00216537,0.688874,0.00141944,0.0134352,1630,1660,7.32095,-17.2755
413,-636,7.32068,17.0566,-0.00116318,-0.00125844,0.000870611,-0.000338898,-0.00208272,0.758074,0.00129044,0.021594,1637,1660,7.32073,-17.0566
420,-636,7.31653,16.8765,-0.00150433,-0.00116744,0.000929548,-0.0003912,-0.00228057,0.87503,0.00140821,0.0207197,1644,1660,7.31649,-16.8764
427,-636,7.32019,16.6932,-0.00187146,-0.00125505,0.000970606,-0.000544889,-0.00258162,0.939132,0.00157126,0.0121477,1651,1660,7.3202,-16.6933
434,-636,7.31653,16.4686,-0.00244173,-0.00122857,0.00109398,-0.000584263,-0.00308604,1.03853,0.0018929,0.0113463,1658,1660,7.31648,-16.4686
441,-636,7.32349,16.2258,-0.00325476,0.000316283,0.000725404,0.000458012,-0.00339649,1.37785,0.00243142,0.0123854,1665,1660,7.32352,-16.2258
448,-636,7.35291,16.006,-0.00386652,0.00163834,0.000577379,0.00169824,-0.00392642,1.46741,0.00333126,0.0145305,1672,1660,7.35285,-16.006
455,-636,7.34351,15.7687,-0.00449698,0.00327336,0.000346826,0.00328881,-0.00451243,1.52628,0.00452247,0.0137718,1679,1660,7.34352,-15.7687
462,-636,7.30225,15.5065,-0.00501852,0.00553096,-0.000219279,0.00553552,-0.00502308,-1.55002,0.0060984,0.0182672,1686,1660,7.30229,-15.5065
469,-636,7.35083,15.3125,-0.00543233,0.00914701,-0.00132312,0.00926612,-0.00555143,-1.48102,0.00864406,0.0301079,1693,1660,7.35088,-15.3124
476,-636,7.54346,15.3262,-0.00559654,0.0141741,-0.00312595,0.0146566,-0.00607902,-1.41766,0.0123084,0.0427412,1700,1660,7.5434,-15.3261
483,-636,7.50159,14.7012,0,0,0,0,0,0,0,-1,1707,1660,7.50163,-14.7012
490,-636,7.48279,14.144,0,0,0,0,0,0,0,-1,1714,1660,7.48275,-14.1441
497,-636,7.69617,13.5306,0,0,0,0,0,0,0,-1,1721,1660,7.6962,-13.5307
504,-636,7.7981,13.0674,0,0,0,0,0,0,0,-1,1728,1660,7.79811,-13.0674
511,-636,5.65466,9.23218,0,0,0,0,0,0,0,-1,1735,1660,5.65461,-9.23216
518,-636,6.72791,1.07605,0,0,0,0,0,0,0,-1,1742,1660,6.7279,-1.0761
525,-636,7.04309,0.93335,0,0,0,0,0,0,0,-1,1749,1660,7.04308,-0.933298
532,-636,0,0,0,0,0,0,0,0,0,-1,1756,1660,0,0
539,-636,0,0,0,0,0,0,0,0,0,-1,1763,1660,0,0
546,-636,0,0,0,0,0,0,0,0,0,-1,1770,1660,0,0
553,-636,0,0,0,0,0,0,0,0,0,-1,1777,1660,0,0
560,-636,0,0,0,0,0,0,0,0,0,-1,1784,1660,0,0
567,-636,0,0,0,0,0,0,0,0,0,-1,1791,1660,0,0
574,-636,0,0,0,0,0,0,0,0,0,-1,1798,1660,0,0
581,-636,0,0,0,0,0,0,0,0,0,-1,1805,1660,0,0
588,-636,0,0,0,0,0,0,0,0,0,-1,1812,1660,0,0
595,-636,0,0,0,0,0,0,0,0,0,-1,1819,1660,0,0
602,-636,0,0,0,0,0,0,0,0,0,-1,1826,1660,0,0
609,-636,0,0,0,0,0,0,0,0,0,-1,1833,1660,0,0
616,-636,0,0,0,0,0,0,0,0,0,-1,1840,1660,0,0
623,-636,0,0,0,0,0,0,0,0,0,-1,1847,1660,0,0
630,-636,0,0,0,0,0,0,0,0,0,-1,1854,1660,0,0
637,-636,0,0,0,0,0,0,0,0,0,-1,1861,1660,0,0
644,-636,0,0,0,0,0,0,0,0,0,-1,1868,1660,0,0
651,-636,0,0,0,0,0,0,0,0,0,-1,1875,1660,0,0
658,-636,0,0,0,0,0,0,0,0,0,-1,1882,1660,0,0
665,-636,0,0,0,0,0,0,0,0,0,-1,1889,1660,0,0
672,-636,0,0,0,0,0,0,0,0,0,-1,1896,1660,0,0
679,-636,0,0,0,0,0,0,0,0,0,-1,1903,1660,0,0
686,-636,0,0,0,0,0,0,0,0,0,-1,1910,1660,0,0
693,-636,0,0,0,0,0,0,0,0,0,-1,1917,1660,0,0
700,-636,0,0,0,0,0,0,0,0,0,-1,1924,1660,0,0
707,-636,0,0,0,0,0,0,0,0,0,-1,1931,1660,0,0
714,-636,0,0,0,0,0,0,0,0,0,-1,1938,1660,0,0
721,-636,0,0,0,0,0,0,0,0,0,-1,1945,1660,0,0
728,-636,0,0,0,0,0,0,0,0,0,-1,1952,1660,0,0
735,-636,0,0,0,0,0,0,0,0,0,-1,1959,1660,0,0
742,-636,0,0,0,0,0,0,0,0,0,-1,1966,1660,0,0
749,-636,0,0,0,0,0,0,0,0,0,-1,1973,1660,0,0
756,-636,0,0,0,0,0,0,0,0,0,-1,1980,1660,0,0
763,-636,0,0,0,0,0,0,0,0,0,-1,1987,1660,0,0
770,-636,0,0,0,0,0,0,0,0,0,-1,1994,1660,0,0
777,-636,0,0,0,0,0,0,0,0,0,-1,2001,1660,0,0
784,-636,0,0,0,0,0,0,0,0,0,-1,2008,1660,0,0
791,-636,0,0,0,0,0,0,0,0,0,-1,2015,1660,0,0
798,-636,0,0,0,0,0,0,0,0,0,-1,2022,1660,0,0
805,-636,0,0,0,0,0,0,0,0,0,-1,2029,1660,0,0
812,-636,0,0,0,0,0,0,0,0,0,-1,2036,1660,0,0
-700,-643,0,0,0,0,0,0,0,0,0,-1,524,1667,0,0
-693,-643,0,0,0,0,0,0,0,0,0,-1,531,1667,0,0
-686,-643,0,0,0,0,0,0,0,0,0,-1,538,1667,0,0
-679,-643,0,0,0,0,0,0,0,0,0,-1,545,1667,0,0
-672,-643,0,0,0,0,0,0,0,0,0,-1,552,1667,0,0
-665,-643,0,0,0,0,0,0,0,0,0,-1,559,1667,0,0
-658,-643,0,0,0,0,0,0,0,0,0,-1,566,1667,0,0
-651,-643,0,0,0,0,0,0,0,0,0,-1,573,1667,0,0
-644,-643,0,0,0,0,0,0,0,0,0,-1,580,1667,0,0
-637,-643,0,0,0,0,0,0,0,0,0,-1,587,1667,0,0
-630,-643,0,0,0,0,0,0,0,0,0,-1,594,1667,0,0
-623,-643,0,0,0,0,0,0,0,0,0,-1,601,1667,0,0
-616,-643,0,0,0,0,0,0,0,0,0,-1,608,1667,0,0
-609,-643,0,0,0,0,0,0,0,0,0,-1,615,1667,0,0
-602,-643,0,0,0,0,0,0,0,0,0,-1,622,1667,0,0
-595,-643,0,0,0,0,0,0,0,0,0,-1,629,1667,0,0
-588,-643,0,0,0,0,0,0,0,0,0,-1,636,1667,0,0
-581,-643,0,0,0,0,0,0,0,0,0,-1,643,1667,0,0
-574,-643,0,0,0,0,0,0,0,0,0,-1,650,1667,0,0
-567,-643,0,0,0,0,0,0,0,0,0,-1,657,1667,0,0
-560,-643,0,0,0,0,0,0,0,0,0,-1,664,1667,0,0
-553,-643,0,0,0,0,0,0,0,0,0,-1,671,1667,0,0
-546,-643,0,0,0,0,0,0,0,0,0,-1,678,1667,0,0
-539,-643,0,0,0,0,0,0,0,0,0,-1,685,1667,0,0
-532,-643,0,0,0,0,0,0,0,0,0,-1,692,1667,0,0
-525,-643,0,0,0,0,0,0,0,0,0,-1,699,1667,0,0
-518,-643,0,0,0,0,0,0,0,0,0,-1,706,1667,0,0
-511,-643,0,0,0,0,0,0,0,0,0,-1,713,1667,0,0
-504,-643,0,0,0,0,0,0,0,0,0,-1,720,1667,0,0
-497,-643,0,0,0,0,0,0,0,0,0,-1,727,1667,0,0
-490,-643,0,0,0,0,0,0,0,0,0,-1,734,1667,0,0
-483,-643,0,0,0,0,0,0,0,0,0,-1,741,1667,0,0
-476,-643,0,0,0,0,0,0,0,0,0,-1,748,1667,0,0
-469,-643,0,0,0,0,0,0,0,0,0,-1,755,1667,0,0
-462,-643,0,0,0,0,0,0,0,0,0,-1,762,1667,0,0
-455,-643,0,0,0,0,0,0,0,0,0,-1,769,1667,0,0
-448,-643,0,0,0,0,0,0,0,0,0,-1,776,1667,0,0
-441,-643,0,0,0,0,0,0,0,0,0,-1,783,1667,0,0
-434,-643,0,0,0,0,0,0,0,0,0,-1,790,1667,0,0
-427,-643,0,0,0,0,0,0,0,0,0,-1,797,1667,0,0
-420,-643,0,0,0,0,0,0,0,0,0,-1,804,1667,0,0
-413,-643,0,0,0,0,0,0,0,0,0,-1,811,1667,0,0
-406,-643,0,0,0,0,0,0,0,0,0,-1,818,1667,0,0
-399,-643,0.589417,11.6465,0,0,0,0,0,0,0,-1,825,1667,0.58939,-11.6465
-392,-643,0.865295,12.6523,0,0,0,0,0,0,0,-1,832,1667,0.865315,-12.6523
-385,-643,1.72968,13.2692,0,0,0,0,0,0,0,-1,839,1667,1.72967,-13.2692
-378,-643,2.66522,13.8193,0,0,0,0,0,0,0,-1,846,1667,2.66524,-13.8193
-371,-643,0.5849,3.26428,0,0,0,0,0,0,0,-1,853,1667,0.584909,-3.26426
-364,-643,1.69513,9.922,0,0,0,0,0,0,0,-1,860,1667,1.69511,-9.92205
-357,-643,1.14227,10.8429,0,0,0,0,0,0,0,-1,867,1667,1.14228,-10.8429
-350,-643,2.50061,9.96948,0,0,0,0,0,0,0,-1,874,1667,2.50059,-9.96954
-343,-643,2.61505,6.17407,0,0,0,0,0,0,0,-1,881,1667,2.61504,-6.17412
-336,-643,3.52356,14.468,0,0,0,0,0,0,0,-1,888,1667,3.52357,-14.468
-329,-643,3.65851,14.5007,0.00114953,-0.00355383,0.00470231,0.00405542,-0.00645972,0.55353,0.00612359,0.0390825,895,1667,3.6585,-14.5007
-322,-643,3.66699,14.8241,-0.000126871,-0.00398407,0.00342365,0.00187402,-0.00598496,0.528894,0.00473979,0.0264455,902,1667,3.66702,-14.8242
-315,-643,3.62506,15.0479,-0.00126385,-0.00431837,0.00234568,7.94907e-06,-0.00559017,0.496825,0.00372943,0.0158654,909,1667,3.62506,-15.0478
-308,-643,3.62738,15.2545,-0.00220084,-0.00474144,0.00125819,-0.00168321,-0.00525908,0.390305,0.00310118,0.0113561,916,1667,3.62737,-15.2545
-301,-643,3.63257,15.5105,-0.00272155,-0.00469154,0.00054752,-0.0025796,-0.00483348,0.253666,0.00279272,0.0136222,923,1667,3.63258,-15.5105
-294,-643,3.61725,15.7531,-0.00281529,-0.0045822,0.000159533,-0.002801,-0.00459649,0.0893266,0.00267487,0.0135669,930,1667,3.61724,-15.7531
-287,-643,3.61206,15.9724,-0.00262622,-0.0043698,-0.000104926,-0.00261993,-0.00437609,-0.0598903,0.00254289,0.0111279,937,1667,3.61204,-15.9724
-280,-643,3.61353,16.1969,-0.00230209,-0.00411579,-0.000329607,-0.00224405,-0.00417383,-0.174309,0.00241204,0.0140113,944,1667,3.61355,-16.1969
-273,-643,3.60114,16.4376,-0.00174675,-0.00379749,-0.000470352,-0.00164402,-0.00390022,-0.215038,0.00226102,0.0120563,951,1667,3.60111,-16.4376
-266,-643,3.58954,16.662,-0.00106784,-0.00356874,-0.000500657,-0.000971336,-0.00366525,-0.190417,0.00219265,0.0118665,958,1667,3.58952,-16.662
-259,-643,3.60052,16.8988,-0.000450535,-0.00321001,-0.000572337,-0.000336537,-0.003324,-0.196607,0.00211278,0.0120618,965,1667,3.60051,-16.8988
-252,-643,3.60327,17.1394,0.000337626,-0.00271129,-0.000476599,0.00041039,-0.00278405,-0.151504,0.00200687,0.0129248,972,1667,3.60327,-17.1394
-245,-643,3.61523,17.3593,0.00106994,-0.00248234,-9.17644e-05,0.00107231,-0.00248471,-0.0258095,0.00210692,0.0116372,979,1667,3.61525,-17.3592
-238,-643,3.64368,17.5404,0.0015707,-0.00246985,0.000223988,0.00158308,-0.00248223,0.0552096,0.00236617,0.0150522,986,1667,3.64368,-17.5404
-231,-643,3.61676,17.7367,0.00178423,-0.00265889,0.000488936,0.00183739,-0.00271205,0.108317,0.00264276,0.0108681,993,1667,3.61679,-17.7366
-224,-643,3.61157,17.9272,0.00183021,-0.00304146,0.000676392,0.00192237,-0.00313363,0.13543,0.00294688,0.009476,1000,1667,3.61156,-17.9273
-217,-643,3.61035,18.1165,0.0017342,-0.00355132,0.000924203,0.00189114,-0.00370826,0.168209,0.00328907,0.00923174,1007,1667,3.61037,-18.1165
-210,-643,3.61145,18.332,0.00150256,-0.00406243,0.00112819,0.00172258,-0.00428244,0.192602,0.00357046,0.0114008,1014,1667,3.61146,-18.3321
-203,-643,3.63806,18.5604,0.000991866,-0.00464515,0.00129119,0.00127354,-0.00492683,0.214789,0.00378125,0.0131506,1021,1667,3.63808,-18.5604
-196,-643,3.6687,18.7521,0.000451008,-0.00529453,0.00114804,0.00067191,-0.00551544,0.190093,0.00392017,0.0132669,1028,1667,3.66876,-18.7521
-189,-643,3.71423,18.9302,-0.000379465,-0.00641313,0.000865456,-0.00025778,-0.00653481,0.139687,0.00427321,0.0131357,1035,1667,3.71418,-18.9302
-182,-643,3.73889,19.0831,-0.00136203,-0.0077267,0.000383888,-0.00133896,-0.00774977,0.0600253,0.00478308,0.0206902,1042,1667,3.73894,-19.0831
-175,-643,3.73438,19.2428,-0.00193775,-0.00883183,-6.13954e-05,-0.00193721,-0.00883237,-0.00890459,0.00536049,0.0328327,1049,1667,3.73436,-19.2428
-168,-643,3.78113,19.3883,-0.00250753,-0.0101161,-0.000594801,-0.00246131,-0.0101623,-0.0775476,0.00612164,0.0394435,1056,1667,3.78116,-19.3883
-161,-643,3.75403,19.5856,-0.00279307,-0.0115344,-0.00105084,-0.00266852,-0.011659,-0.117975,0.00705347,0.0431178,1063,1667,3.754,-19.5855
-154,-643,3.7594,19.5748,-0.00298382,-0.0134216,-0.00157572,-0.00275114,-0.0136543,-0.146611,0.00833852,0.0421837,1070,1667,3.75935,-19.5749
-147,-643,3.73364,19.5946,0,0,0,0,0,0,0,-1,1077,1667,3.73369,-19.5946
-140,-643,3.88245,18.9919,0,0,0,0,0,0,0,-1,1084,1667,3.88244,-18.992
-133,-643,3.42346,19.5621,0,0,0,0,0,0,0,-1,1091,1667,3.42346,-19.5621
-126,-643,3.13904,17.689,0,0,0,0,0,0,0,-1,1098,1667,3.13909,-17.689
-119,-643,3.76282,14.1458,0,0,0,0,0,0,0,-1,1105,1667,3.76283,-14.1458
-112,-643,3.81458,16.2069,0,0,0,0,0,0,0,-1,1112,1667,3.81463,-16.2069
-105,-643,-2.23413,10.0996,0,0,0,0,0,0,0,-1,1119,1667,-2.23415,-10.0996
-98,-643,3.11035,4.68066,0,0,0,0,0,0,0,-1,1126,1667,3.11041,-4.68071
-91,-643,-1.74146,-2.5885,0,0,0,0,0,0,0,-1,1133,1667,-1.74146,2.58856
-84,-643,-3.07446,-0.199341,0,0,0,0,0,0,0,-1,1140,1667,-3.07449,0.199383
-77,-643,-3.63794,2.81165,0,0,0,0,0,0,0,-1,1147,1667,-3.63791,-2.8117
-70,-643,-3.36938,4.45203,0,0,0,0,0,0,0,-1,1154,1667,-3.36941,-4.452
-63,-643,-3.67822,6.26855,0,0,0,0,0,0,0,-1,1161,1667,-3.67823,-6.26856
-56,-643,-3.95142,8.1073,0,0,0,0,0,0,0,-1,1168,1667,-3.95139,-8.10732
-49,-643,-4.23535,9.90552,0,0,0,0,0,0,0,-1,1175,1667,-4.23537,-9.90557
-42,-643,-4.25195,10.7059,0,0,0,0,0,0,0,-1,1182,1667,-4.25192,-10.706
-35,-643,-4.10986,11.6588,0,0,0,0,0,0,0,-1,1189,1667,-4.10982,-11.6589
-28,-643,-1.38513,5.604,0,0,0,0,0,0,0,-1,1196,1667,-1.3851,-5.60403
-21,-643,3.06104,8.47974,0,0,0,0,0,0,0,-1,1203,1667,3.06103,-8.47978
-14,-643,3.40198,8.94568,0,0,0,0,0,0,0,-1,1210,1667,3.40199,-8.9457
-7,-643,3.61841,9.20557,0.0651809,-0.155661,0.0833955,0.0931348,-0.183614,0.323427,0.162603,0.0494476,1217,1667,3.61836,-9.2056
0,-643,3.63379,9.63037,0.0773697,-0.156005,0.0847636,0.104907,-0.183543,0.314118,0.168587,0.0489998,1224,1667,3.63373,-9.63031
7,-643,4.34961,10.3977,0.0926598,-0.150303,0.0855325,0.11975,-0.177393,0.306729,0.172628,0.0435528,1231,1667,4.34959,-10.3977
14,-643,5.1416,11.135,0.112415,-0.143338,0.0914506,0.141751,-0.172673,0.31041,0.181825,0.0434644,1238,1667,5.14164,-11.135
21,-643,5.78296,12.0214,0.123868,-0.134609,0.0966317,0.155999,-0.166741,0.321014,0.186368,0.0441285,1245,1667,5.783,-12.0214
28,-643,6.70422,12.762,0.129266,-0.121765,0.100772,0.164714,-0.157213,0.338244,0.185881,0.0442743,1252,1667,6.70423,-12.762
35,-643,7.47229,13.6246,0,0,0,0,0,0,0,-1,1259,1667,7.47233,-13.6246
42,-643,8.21924,14.9716,0.122942,-0.0892177,0.104699,0.165909,-0.132184,0.389424,0.172471,0.0445103,1266,1667,8.21921,-14.9716
49,-643,8.31128,15.2642,0.112196,-0.0688614,0.103331,0.159046,-0.115711,0.42567,0.159287,0.0446985,1273,1667,8.31134,-15.2641
56,-643,8.91858,15.6152,0.0979036,-0.0483249,0.101284,0.149706,-0.100127,0.47277,0.145185,0.0463393,1280,1667,8.9186,-15.6152
63,-643,8.47351,16.9641,0,0,0,0,0,0,0,-1,1287,1667,8.47355,-16.9641
70,-643,8.81226,18.3174,0,0,0,0,0,0,0,-1,1294,1667,8.81224,-18.3174
77,-643,11.1367,23.2159,0.0171003,0.0171907,0.0764909,0.0936365,-0.0593454,0.785694,0.0890607,0.0449368,1301,1667,11.1368,-23.2159
84,-643,10.0959,23.3262,-0.0153915,0.0368449,0.0632501,0.0791572,-0.0577038,0.981202,0.0793397,0.0460325,1308,1667,10.0959,-23.3262
91,-643,9.03394,23.4025,-0.0439159,0.059255,0.0470519,0.0774903,-0.0621512,1.20106,0.0807841,0.0458461,1315,1667,9.034,-23.4024
98,-643,8.0105,23.2925,-0.0686786,0.0870449,0.0305921,0.0928392,-0.0744729,1.38361,0.0967915,0.0471913,1322,1667,8.01047,-23.2925
105,-643,7.07788,23.4939,-0.0908748,0.111405,0.0148269,0.112486,-0.0919558,1.49802,0.118233,0.0473352,1329,1667,7.0779,-23.4938
112,-643,5.72937,24.0302,-0.111849,0.138025,-0.00459488,0.138109,-0.111934,-1.55242,0.144626,0.0449158,1336,1667,5.72942,-24.0302
119,-643,4.30603,24.0807,-0.122895,0.166465,-0.0230336,0.168287,-0.124717,-1.49186,0.169788,0.0428014,1343,1667,4.30609,-24.0807
126,-643,2.96069,24.2029,-0.122757,0.201807,-0.03959,0.206566,-0.127516,-1.45115,0.194674,0.0438527,1350,1667,2.96068,-24.2029
133,-643,1.93433,24.1067,-0.118541,0.24741,-0.0600893,0.257024,-0.128155,-1.41214,0.226494,0.0470956,1357,1667,1.93436,-24.1067
140,-643,1.11023,23.9622,-0.109426,0.302889,-0.0845785,0.319564,-0.126102,-1.37614,0.265263,0.0450057,1364,1667,1.11028,-23.9621
147,-643,0.297241,24.1381,-0.0947888,0.368102,-0.112069,0.393807,-0.120494,-1.34533,0.310594,0.04388,1371,1667,0.297251,-24.1381
154,-643,-0.498169,24.3591,0,0,0,0,0,0,0,-1,1378,1667,-0.498223,-24.3591
161,-643,18.7611,11.0951,0,0,0,0,0,0,0,-1,1385,1667,18.7611,-11.0951
168,-643,10.5563,10.9818,0,0,0,0,0,0,0,-1,1392,1667,10.5562,-10.9819
175,-643,5.88525,-1.1698,0,0,0,0,0,0,0,-1,1399,1667,5.88526,1.16977
182,-643,5.80945,-0.418701,0,0,0,0,0,0,0,-1,1406,1667,5.80949,0.418712
189,-643,5.42297,12.9208,0,0,0,0,0,0,0,-1,1413,1667,5.42298,-12.9208
196,-643,5.51953,11.2415,0,0,0,0,0,0,0,-1,1420,1667,5.51948,-11.2414
203,-643,5.60828,9.82153,0,0,0,0,0,0,0,-1,1427,1667,5.60833,-9.82148
210,-643,4.73218,7.58728,0,0,0,0,0,0,0,-1,1434,1667,4.73222,-7.58728
217,-643,3.8031,5.28955,0,0,0,0,0,0,0,-1,1441,1667,3.80305,-5.28955
224,-643,2.96436,2.97095,0,0,0,0,0,0,0,-1,1448,1667,2.96432,-2.97095
231,-643,2.13403,1.08472,0,0,0,0,0,0,0,-1,1455,1667,2.13403,-1.08467
238,-643,1.18152,-0.261963,0,0,0,0,0,0,0,-1,1462,1667,1.18152,0.26192
245,-643,-0.157471,-1.79016,0,0,0,0,0,0,0,-1,1469,1667,-0.157517,1.7901
252,-643,8.08789,0.0202637,0,0,0,0,0,0,0,-1,1476,1667,8.08791,-0.0203056
259,-643,9.02979,-0.46936,0,0,0,0,0,0,0,-1,1483,1667,9.02974,0.46933
266,-643,4.55066,5.17554,0,0,0,0,0,0,0,-1,1490,1667,4.55063,-5.17556
273,-643,4.34363,6.56836,0,0,0,0,0,0,0,-1,1497,1667,4.34363,-6.5684
280,-643,5.75854,14.5217,0,0,0,0,0,0,0,-1,1504,1667,5.75854,-14.5218
287,-643,6.46045,20.3541,0,0,0,0,0,0,0,-1,1511,1667,6.46049,-20.3541
294,-643,6.93286,20.3275,0,0,0,0,0,0,0,-1,1518,1667,6.93283,-20.3275
301,-643,6.99377,20.063,0.0112501,-0.00512841,0.000704888,0.0112804,-0.00515869,0.0429315,0.00970799,0.0433258,1525,1667,6.99372,-20.063
308,-643,7.00378,19.7406,0.00969169,-0.00479954,0.00138716,0.00982328,-0.00493113,0.0945797,0.00867315,0.0415275,1532,1667,7.00374,-19.7406
315,-643,7.00488,19.6509,0.00827603,-0.00447723,0.00194606,0.00856637,-0.00476758,0.148104,0.00780181,0.0365619,1539,1667,7.00491,-19.6508
322,-643,7.03455,19.4792,0.00699865,-0.003828,0.00220637,0.00743102,-0.00426037,0.193513,0.00683227,0.01774,1546,1667,7.03457,-19.4793
329,-643,7.07605,19.3118,0.0056717,-0.00312865,0.00239536,0.00628144,-0.00373839,0.249258,0.00584673,0.010952,1553,1667,7.07608,-19.3118
336,-643,7.06616,19.1753,0.00419449,-0.00262677,0.00258261,0.00506198,-0.00349426,0.324054,0.00496751,0.0100644,1560,1667,7.06615,-19.1753
343,-643,7.07312,19.0099,0.00280277,-0.00220492,0.00267616,0.00396377,-0.00336592,0.409325,0.00423648,0.0129434,1567,1667,7.07309,-19.0098
350,-643,7.09509,18.8104,0.00188539,-0.00169894,0.00245029,0.00312898,-0.00294253,0.46965,0.00350593,0.0126852,1574,1667,7.09513,-18.8104
357,-643,7.11877,18.6481,0.00120863,-0.00148433,0.0022725,0.0025036,-0.0027793,0.51795,0.00305147,0.010386,1581,1667,7.11876,-18.6481
364,-643,7.13293,18.4634,0.000602333,-0.00114109,0.00200799,0.00191966,-0.00245842,0.580612,0.00253406,0.00895728,1588,1667,7.13291,-18.4633
371,-643,7.12964,18.2892,0.000149371,-0.000966329,0.00174954,0.00142785,-0.0022448,0.631066,0.00213782,0.00776134,1595,1667,7.12963,-18.2892
378,-643,7.1366,18.0967,-0.000189271,-0.000896215,0.00150875,0.00100686,-0.00209234,0.670332,0.00182554,0.00983668,1602,1667,7.13663,-18.0967
385,-643,7.13965,17.8844,-0.000377275,-0.000671786,0.000988278,0.000474658,-0.00152372,0.711441,0.00120559,0.0156577,1609,1667,7.1396,-17.8844
392,-643,7.13062,17.6857,-0.000424953,-0.000786567,0.000521516,-5.37901e-05,-0.00115773,0.618534,0.000754529,0.0149768,1616,1667,7.13063,-17.6857
399,-643,7.12378,17.4985,-0.000501154,-0.000880354,0.000181726,-0.000428127,-0.00095338,0.382098,0.000551385,0.0126326,1623,1667,7.12383,-17.4985
406,-643,7.13135,17.2745,-0.000899217,-0.000945305,0.000131028,-0.000789223,-0.0010553,0.698354,0.000633741,0.0120056,1630,1667,7.1314,-17.2746
413,-643,7.12158,17.0559,-0.0013289,-0.000943981,8.69814e-05,-0.000925238,-0.00134764,1.35856,0.000795909,0.0168979,1637,1667,7.12154,-17.0559
420,-643,7.09509,16.8896,-0.00188307,-0.000969994,0.000324479,-0.000866431,-0.00198664,1.26185,0.0011501,0.0159203,1644,1667,7.09511,-16.8897
427,-643,7.12598,16.6986,-0.00248647,-0.00119519,0.000554153,-0.000989989,-0.00269167,1.21615,0.00157204,0.0135557,1651,1667,7.12602,-16.6987
434,-643,7.1438,16.4962,-0.00338291,-0.00133009,0.000943387,-0.000962403,-0.00375059,1.19916,0.0022493,0.0156272,1658,1667,7.14384,-16.4962
441,-643,7.14917,16.2507,-0.00467076,0.00051101,0.000708427,0.000606117,-0.00476587,1.43734,0.00339735,0.0158195,1665,1667,7.14916,-16.2507
448,-643,7.10425,15.9884,-0.00572013,0.00209991,0.00074612,0.00217046,-0.00579068,1.47652,0.00475214,0.019975,1672,1667,7.1042,-15.9884
455,-643,7.00708,15.7426,-0.00673537,0.00428348,0.000632412,0.00431965,-0.00677155,1.51365,0.00645546,0.0279194,1679,1667,7.00703,-15.7426
462,-643,6.77344,15.5865,-0.00762168,0.00746242,-4.55116e-05,0.00746256,-0.00762182,-1.56778,0.00870913,0.0381505,1686,1667,6.77342,-15.5866
469,-643,6.66284,15.4474,-0.00846986,0.0125527,-0.00145918,0.0126535,-0.00857066,-1.50183,0.0123291,0.0452493,1693,1667,6.66282,-15.4474
476,-643,6.61108,15.2335,0,0,0,0,0,0,0,-1,1700,1667,6.61104,-15.2336
483,-643,8.6803,14.0634,0,0,0,0,0,0,0,-1,1707,1667,8.68031,-14.0634
490,-643,8.14941,13.4279,-0.00891903,0.0418149,-0.0123967,0.044682,-0.0117861,-1.34352,0.0343965,0.0471404,1714,1667,8.14939,-13.4279
497,-643,7.80823,12.6035,0,0,0,0,0,0,0,-1,1721,1667,7.80828,-12.6035
504,-643,7.73755,12.0018,0,0,0,0,0,0,0,-1,1728,1667,7.73755,-12.0018
511,-643,4.22314,10.5032,0,0,0,0,0,0,0,-1,1735,1667,4.22314,-10.5032
518,-643,7.40564,0.922607,0,0,0,0,0,0,0,-1,1742,1667,7.4057,-0.922598
525,-643,0,0,0,0,0,0,0,0,0,-1,1749,1667,0,0
532,-643,0,0,0,0,0,0,0,0,0,-1,1756,1667,0,0
539,-643,0,0,0,0,0,0,0,0,0,-1,1763,1667,0,0
546,-643,0,0,0,0,0,0,0,0,0,-1,1770,1667,0,0
553,-643,0,0,0,0,0,0,0,0,0,-1,1777,1667,0,0
560,-643,0,0,0,0,0,0,0,0,0,-1,1784,1667,0,0
567,-643,0,0,0,0,0,0,0,0,0,-1,1791,1667,0,0
574,-643,0,0,0,0,0,0,0,0,0,-1,1798,1667,0,0
581,-643,0,0,0,0,0,0,0,0,0,-1,1805,1667,0,0
588,-643,0,0,0,0,0,0,0,0,0,-1,1812,1667,0,0
595,-643,0,0,0,0,0,0,0,0,0,-1,1819,1667,0,0
602,-643,0,0,0,0,0,0,0,0,0,-1,1826,1667,0,0
609,-643,0,0,0,0,0,0,0,0,0,-1,1833,1667,0,0
616,-643,0,0,0,0,0,0,0,0,0,-1,1840,1667,0,0
623,-643,0,0,0,0,0,0,0,0,0,-1,1847,1667,0,0
630,-643,0,0,0,0,0,0,0,0,0,-1,1854,1667,0,0
637,-643,0,0,0,0,0,0,0,0,0,-1,1861,1667,0,0
644,-643,0,0,0,0,0,0,0,0,0,-1,1868,1667,0,0
651,-643,0,0,0,0,0,0,0,0,0,-1,1875,1667,0,0
658,-643,0,0,0,0,0,0,0,0,0,-1,1882,1667,0,0
665,-643,0,0,0,0,0,0,0,0,0,-1,1889,1667,0,0
672,-643,0,0,0,0,0,0,0,0,0,-1,1896,1667,0,0
679,-643,0,0,0,0,0,0,0,0,0,-1,1903,1667,0,0
686,-643,0,0,0,0,0,0,0,0,0,-1,1910,1667,0,0
693,-643,0,0,0,0,0,0,0,0,0,-1,1917,1667,0,0
700,-643,0,0,0,0,0,0,0,0,0,-1,1924,1667,0,0
707,-643,0,0,0,0,0,0,0,0,0,-1,1931,1667,0,0
714,-643,0,0,0,0,0,0,0,0,0,-1,1938,1667,0,0
721,-643,0,0,0,0,0,0,0,0,0,-1,1945,1667,0,0
728,-643,0,0,0,0,0,0,0,0,0,-1,1952,1667,0,0
735,-643,0,0,0,0,0,0,0,0,0,-1,1959,1667,0,0
742,-643,0,0,0,0,0,0,0,0,0,-1,1966,1667,0,0
749,-643,0,0,0,0,0,0,0,0,0,-1,1973,1667,0,0
756,-643,0,0,0,0,0,0,0,0,0,-1,1980,1667,0,0
763,-643,0,0,0,0,0,0,0,0,0,-1,1987,1667,0,0
770,-643,0,0,0,0,0,0,0,0,0,-1,1994,1667,0,0
777,-643,0,0,0,0,0,0,0,0,0,-1,2001,1667,0,0
784,-643,0,0,0,0,0,0,0,0,0,-1,2008,1667,0,0
791,-643,0,0,0,0,0,0,0,0,0,-1,2015,1667,0,0
798,-643,0,0,0,0,0,0,0,0,0,-1,2022,1667,0,0
805,-643,0,0,0,0,0,0,0,0,0,-1,2029,1667,0,0
812,-643,0,0,0,0,0,0,0,0,0,-1,2036,1667,0,0
-700,-650,0,0,0,0,0,0,0,0,0,-1,524,1674,0,0
-693,-650,0,0,0,0,0,0,0,0,0,-1,531,1674,0,0
-686,-650,0,0,0,0,0,0,0,0,0,-1,538,1674,0,0
-679,-650,0,0,0,0,0,0,0,0,0,-1,545,1674,0,0
-672,-650,0,0,0,0,0,0,0,0,0,-1,552,1674,0,0
-665,-650,0,0,0,0,0,0,0,0,0,-1,559,1674,0,0
-658,-650,0,0,0,0,0,0,0,0,0,-1,566,1674,0,0
-651,-650,0,0,0,0,0,0,0,0,0,-1,573,1674,0,0
-644,-650,0,0,0,0,0,0,0,0,0,-1,580,1674,0,0
-637,-650,0,0,0,0,0,0,0,0,0,-1,587,1674,0,0
-630,-650,0,0,0,0,0,0,0,0,0,-1,594,1674,0,0
-623,-650,0,0,0,0,0,0,0,0,0,-1,601,1674,0,0
-616,-650,0,0,0,0,0,0,0,0,0,-1,608,1674,0,0
-609,-650,0,0,0,0,0,0,0,0,0,-1,615,1674,0,0
-602,-650,0,0,0,0,0,0,0,0,0,-1,622,1674,0,0
-595,-650,0,0,0,0,0,0,0,0,0,-1,629,1674,0,0
-588,-650,0,0,0,0,0,0,0,0,0,-1,636,1674,0,0
-581,-650,0,0,0,0,0,0,0,0,0,-1,643,1674,0,0
-574,-650,0,0,0,0,0,0,0,0,0,-1,650,1674,0,0
-567,-650,0,0,0,0,0,0,0,0,0,-1,657,1674,0,0
-560,-650,0,0,0,0,0,0,0,0,0,-1,664,1674,0,0
-553,-650,0,0,0,0,0,0,0,0,0,-1,671,1674,0,0
-546,-650,0,0,0,0,0,0,0,0,0,-1,678,1674,0,0
-539,-650,0,0,0,0,0,0,0,0,0,-1,685,1674,0,0
-532,-650,0,0,0,0,0,0,0,0,0,-1,692,1674,0,0
-525,-650,0,0,0,0,0,0,0,0,0,-1,699,1674,0,0
-518,-650,0,0,0,0,0,0,0,0,0,-1,706,1674,0,0
-511,-650,0,0,0,0,0,0,0,0,0,-1,713,1674,0,0
-504,-650,0,0,0,0,0,0,0,0,0,-1,720,1674,0,0
-497,-650,0,0,0,0,0,0,0,0,0,-1,727,1674,0,0
-490,-650,0,0,0,0,0,0,0,0,0,-1,734,1674,0,0
-483,-650,0,0,0,0,0,0,0,0,0,-1,741,1674,0,0
-476,-650,0,0,0,0,0,0,0,0,0,-1,748,1674,0,0
-469,-650,0,0,0,0,0,0,0,0,0,-1,755,1674,0,0
-462,-650,0,0,0,0,0,0,0,0,0,-1,762,1674,0,0
-455,-650,0,0,0,0,0,0,0,0,0,-1,769,1674,0,0
-448,-650,0,0,0,0,0,0,0,0,0,-1,776,1674,0,0
-441,-650,0,0,0,0,0,0,0,0,0,-1,783,1674,0,0
-434,-650,0,0,0,0,0,0,0,0,0,-1,790,1674,0,0
-427,-650,0,0,0,0,0,0,0,0,0,-1,797,1674,0,0
-420,-650,0,0,0,0,0,0,0,0,0,-1,804,1674,0,0
-413,-650,0,0,0,0,0,0,0,0,0,-1,811,1674,0,0
-406,-650,0,0,0,0,0,0,0,0,0,-1,818,1674,0,0
-399,-650,0,0,0,0,0,0,0,0,0,-1,825,1674,0,0
-392,-650,5.44415,6.85669,0,0,0,0,0,0,0,-1,832,1674,5.44414,-6.85674
-385,-650,1.74451,14.0183,0,0,0,0,0,0,0,-1,839,1674,1.74453,-14.0183
-378,-650,0.997986,4.11108,0,0,0,0,0,0,0,-1,846,1674,0.998006,-4.11113
-371,-650,-1.80096,3.78625,0,0,0,0,0,0,0,-1,853,1674,-1.80094,-3.78625
-364,-650,-2.95679,2.57507,0,0,0,0,0,0,0,-1,860,1674,-2.95681,-2.57506
-357,-650,1.97833,10.8362,0,0,0,0,0,0,0,-1,867,1674,1.97835,-10.8362
-350,-650,-5.30243,0.159912,0,0,0,0,0,0,0,-1,874,1674,-5.30244,-0.159866
-343,-650,-6.21338,-1.4425,0,0,0,0,0,0,0,-1,881,1674,-6.21341,1.44248
-336,-650,3.93781,13.7601,0,0,0,0,0,0,0,-1,888,1674,3.93782,-13.7601
-329,-650,3.84607,14.4917,0,0,0,0,0,0,0,-1,895,1674,3.84604,-14.4917
-322,-650,3.89612,14.8989,-0.00272731,-0.00758816,0.00396611,-0.000506184,-0.00980929,0.51051,0.0063775,0.0434713,902,1674,3.89614,-14.8989
-315,-650,3.88892,14.9506,-0.00425184,-0.00827376,0.00258341,-0.00298897,-0.00953664,0.454679,0.00563231,0.036763,909,1674,3.88891,-14.9506
-308,-650,3.87482,15.224,-0.00535428,-0.00885546,0.00130578,-0.00492092,-0.00928882,0.320439,0.00536607,0.021588,916,1674,3.8748,-15.224
-301,-650,3.86835,15.5062,-0.00587577,-0.00886931,0.000473276,-0.00580273,-0.00894235,0.153125,0.00523863,0.0125048,923,1674,3.86832,-15.5062
-294,-650,3.85132,15.7469,-0.00585028,-0.00866176,2.57214e-06,-0.00585028,-0.00866176,0.000914872,0.00510242,0.010444,930,1674,3.85131,-15.747
-287,-650,3.82916,15.9692,-0.0054402,-0.00823773,-0.000301368,-0.00540811,-0.00826983,-0.106104,0.00484945,0.0135132,937,1674,3.82918,-15.9692
-280,-650,3.83173,16.1909,-0.00485345,-0.00768362,-0.000555799,-0.00474821,-0.00778886,-0.187128,0.00453278,0.0139017,944,1674,3.83174,-16.1909
-273,-650,3.82373,16.4332,-0.004014,-0.00696159,-0.00068754,-0.00386151,-0.00711407,-0.218249,0.00411232,0.0132026,951,1674,3.8237,-16.4332
-266,-650,3.80035,16.6641,-0.00305779,-0.0062918,-0.000694153,-0.00291509,-0.0064345,-0.202746,0.00372042,0.0110324,958,1674,3.80033,-16.6641
-259,-650,3.80103,16.8933,-0.00222899,-0.00546683,-0.000776039,-0.0020526,-0.00564322,-0.223498,0.0032982,0.0143509,965,1674,3.801,-16.8933
-252,-650,3.8147,17.1241,-0.0012391,-0.00446647,-0.00065979,-0.00110943,-0.00459614,-0.194066,0.00276938,0.0132289,972,1674,3.81468,-17.1241
-245,-650,3.82379,17.3295,-0.000150307,-0.00366205,-0.000296891,-0.000125384,-0.00368697,-0.0837503,0.00241727,0.0115624,979,1674,3.82377,-17.3295
-238,-650,3.82593,17.535,0.000639239,-0.0031156,-2.35056e-06,0.00063924,-0.00311561,-0.000626006,0.0023197,0.0129218,986,1674,3.82594,-17.535
-231,-650,3.81238,17.745,0.000975511,-0.00289135,0.000240325,0.00099039,-0.00290623,0.0618326,0.0023386,0.0169787,993,1674,3.81239,-17.745
-224,-650,3.79706,17.9573,0.00120059,-0.00271454,0.00043288,0.00124788,-0.00276183,0.108815,0.00236938,0.0139455,1000,1674,3.79708,-17.9572
-217,-650,3.80731,18.1365,0.0012361,-0.00284988,0.000616973,0.00132723,-0.00294101,0.146643,0.0025223,0.00996037,1007,1674,3.80731,-18.1364
-210,-650,3.82123,18.3293,0.00112433,-0.00310355,0.000716008,0.0012423,-0.00322152,0.16329,0.00266029,0.00886161,1014,1674,3.82124,-18.3293
-203,-650,3.8656,18.5302,0.000827913,-0.00341601,0.000747959,0.000955877,-0.00354398,0.169443,0.00273748,0.0133988,1021,1674,3.86563,-18.5302
-196,-650,3.89087,18.7142,0.000545034,-0.00379211,0.0006244,0.000633136,-0.00388021,0.140174,0.00282163,0.0132997,1028,1674,3.89088,-18.7142
-189,-650,3.85315,18.8878,3.05857e-05,-0.00463034,0.000374615,6.05027e-05,-0.00466026,0.0796918,0.0031272,0.0105536,1035,1674,3.85313,-18.8878
-182,-650,3.88245,19.0879,-0.000599905,-0.00559422,-4.32413e-05,-0.000599531,-0.0055946,-0.00865723,0.00354682,0.00943835,1042,1674,3.88249,-19.0879
-175,-650,3.91284,19.223,-0.00086793,-0.00648201,-0.00042608,-0.000835777,-0.00651416,-0.0753199,0.00409273,0.0144097,1049,1674,3.9128,-19.2231
-168,-650,3.9115,19.4073,-0.00114218,-0.00752314,-0.000855256,-0.00102953,-0.00763578,-0.130954,0.00478441,0.0182019,1056,1674,3.91151,-19.4073
-161,-650,3.88098,19.5968,-0.0011722,-0.00871191,-0.00116463,-0.000996404,-0.00888771,-0.149815,0.00562251,0.0256404,1063,1674,3.88094,-19.5968
-154,-650,3.9126,19.6982,-0.00115182,-0.0101736,-0.00152222,-0.000901909,-0.0104236,-0.162727,0.00666876,0.0312718,1070,1674,3.91261,-19.6983
-147,-650,3.97046,19.741,-0.00129,-0.012017,-0.00171247,-0.00102325,-0.0122838,-0.154525,0.0078703,0.0432524,1077,1674,3.97047,-19.741
-140,-650,3.96448,19.5179,-0.00120252,-0.0141215,-0.00234567,-0.000789802,-0.0145342,-0.174164,0.00943722,0.0499909,1084,1674,3.96447,-19.5179
-133,-650,3.6189,19.8214,-0.000857534,-0.016425,-0.00229456,-0.000526374,-0.0167562,-0.143334,0.0109995,0.0478043,1091,1674,3.61895,-19.8214
-126,-650,4.05566,20.0909,0,0,0,0,0,0,0,-1,1098,1674,4.05571,-20.0909
-119,-650,4.92798,17.2285,0,0,0,0,0,0,0,-1,1105,1674,4.92803,-17.2285
-112,-650,3.86292,14.4513,0,0,0,0,0,0,0,-1,1112,1674,3.8629,-14.4513
-105,-650,4.9259,12.0626,0,0,0,0,0,0,0,-1,1119,1674,4.92591,-12.0626
-98,-650,3.3761,6.78003,0,0,0,0,0,0,0,-1,1126,1674,3.37611,-6.78009
-91,-650,3.66809,7.04443,0,0,0,0,0,0,0,-1,1133,1674,3.66806,-7.04439
-84,-650,-3.82666,-1.59521,0,0,0,0,0,0,0,-1,1140,1674,-3.82661,1.59517
-77,-650,-4.70557,1.90198,0,0,0,0,0,0,0,-1,1147,1674,-4.7056,-1.90194
-70,-650,-4.88171,3.81653,0,0,0,0,0,0,0,-1,1154,1674,-4.88176,-3.81651
-63,-650,-5.14612,5.56543,0,0,0,0,0,0,0,-1,1161,1674,-5.14612,-5.56547
-56,-650,-5.38367,7.41101,0,0,0,0,0,0,0,-1,1168,1674,-5.38361,-7.41102
-49,-650,-5.11316,8.23706,0,0,0,0,0,0,0,-1,1175,1674,-5.11317,-8.23708
-42,-650,-4.99487,9.6792,0,0,0,0,0,0,0,-1,1182,1674,-4.99484,-9.67921
-35,-650,-4.77771,11.3369,0,0,0,0,0,0,0,-1,1189,1674,-4.77769,-11.3369
-28,-650,-4.1936,13.1501,0,0,0,0,0,0,0,-1,1196,1674,-4.19358,-13.1501
-21,-650,-5.35681,25.4081,0,0,0,0,0,0,0,-1,1203,1674,-5.35682,-25.4081
-14,-650,4.25208,18.5995,0,0,0,0,0,0,0,-1,1210,1674,4.25213,-18.5994
-7,-650,2.53577,10.8063,0,0,0,0,0,0,0,-1,1217,1674,2.5358,-10.8062
0,-650,3.99487,21.7627,0,0,0,0,0,0,0,-1,1224,1674,3.99485,-21.7627
7,-650,3.6759,11.7693,0.079235,-0.118099,0.0695819,0.101303,-0.140166,0.307111,0.140013,0.0440748,1231,1674,3.67588,-11.7693
14,-650,4.51233,12.5634,0.094189,-0.11218,0.0736867,0.117799,-0.13579,0.310072,0.146532,0.0432672,1238,1674,4.51229,-12.5634
21,-650,5.88037,24.0345,0,0,0,0,0,0,0,-1,1245,1674,5.88039,-24.0345
28,-650,6.03076,14.2905,0.105973,-0.0961847,0.0801538,0.133897,-0.124108,0.335223,0.148995,0.0443008,1252,1674,6.03081,-14.2906
35,-650,6.50842,15.0339,0,0,0,0,0,0,0,-1,1259,1674,6.50841,-15.0339
42,-650,6.92212,15.828,0.0992605,-0.0726572,0.0834395,0.133098,-0.106494,0.385264,0.138612,0.0421538,1266,1674,6.9221,-15.828
49,-650,7.42212,16.5817,0.0898984,-0.0575684,0.0826135,0.126897,-0.0945671,0.421067,0.128316,0.0406218,1273,1674,7.42209,-16.5817
56,-650,7.88367,17.0176,0,0,0,0,0,0,0,-1,1280,1674,7.88366,-17.0176
63,-650,7.74915,17.9069,0.0580459,-0.0247455,0.0771652,0.104218,-0.0709173,0.539206,0.101722,0.0464471,1287,1674,7.74914,-17.9069
70,-650,7.66028,19.1392,0.0348024,-0.00788849,0.0710126,0.0876083,-0.0606943,0.639401,0.0860913,0.0454607,1294,1674,7.66026,-19.1392
77,-650,7.65344,20.2749,0,0,0,0,0,0,0,-1,1301,1674,7.65344,-20.2749
84,-650,7.04321,21.1221,0,0,0,0,0,0,0,-1,1308,1674,7.04327,-21.1221
91,-650,8.776,22.4564,-0.0412329,0.0449239,0.0402438,0.0607973,-0.0571063,1.1951,0.0680828,0.0471601,1315,1674,8.77599,-22.4565
98,-650,7.69324,22.3431,-0.0611168,0.0701161,0.0271438,0.0755088,-0.0665095,1.37468,0.0820492,0.0459773,1322,1674,7.69329,-22.3432
105,-650,6.97253,22.8217,-0.0793413,0.0919307,0.0141912,0.0930986,-0.0805092,1.48868,0.10032,0.0452378,1329,1674,6.97252,-22.8216
112,-650,5.91821,23.0848,-0.0956366,0.11673,-0.00195833,0.116748,-0.0956547,-1.56158,0.122832,0.0414815,1336,1674,5.91816,-23.0848
119,-650,4.53467,23.3788,-0.104729,0.143449,-0.0177885,0.144718,-0.105997,-1.4996,0.145325,0.0417106,1343,1674,4.53461,-23.3788
126,-650,3.1344,23.3441,-0.105476,0.175263,-0.0323695,0.178946,-0.10916,-1.45748,0.167957,0.0461553,1350,1674,3.13439,-23.3441
133,-650,1.72986,23.3375,0,0,0,0,0,0,0,-1,1357,1674,1.72992,-23.3375
140,-650,10.2657,21.6022,-0.0965186,0.257913,-0.0687336,0.270775,-0.109381,-1.3858,0.22598,0.0469641,1364,1674,10.2658,-21.6022
147,-650,9.84253,21.483,-0.0872512,0.302248,-0.0877222,0.321093,-0.106096,-1.35919,0.256839,0.0482394,1371,1674,9.84256,-21.483
154,-650,9.42004,21.313,0,0,0,0,0,0,0,-1,1378,1674,9.42009,-21.3129
161,-650,1.92163,18.5155,0,0,0,0,0,0,0,-1,1385,1674,1.92164,-18.5155
168,-650,11.2113,7.87231,0,0,0,0,0,0,0,-1,1392,1674,11.2113,-7.87236
175,-650,5.62537,-0.230713,0,0,0,0,0,0,0,-1,1399,1674,5.62538,0.230745
182,-650,5.56006,0.421631,0,0,0,0,0,0,0,-1,1406,1674,5.56,-0.421652
189,-650,4.81543,11.0654,0,0,0,0,0,0,0,-1,1413,1674,4.81542,-11.0654
196,-650,5.39575,11.9077,0,0,0,0,0,0,0,-1,1420,1674,5.39575,-11.9078
203,-650,3.93628,11.8215,0,0,0,0,0,0,0,-1,1427,1674,3.93624,-11.8216
210,-650,5.40955,8.08594,0,0,0,0,0,0,0,-1,1434,1674,5.40958,-8.086
217,-650,5.12451,4.69739,0,0,0,0,0,0,0,-1,1441,1674,5.12451,-4.69738
224,-650,4.79041,1.45813,0,0,0,0,0,0,0,-1,1448,1674,4.79046,-1.45816
231,-650,4.04102,-0.642212,0,0,0,0,0,0,0,-1,1455,1674,4.04101,0.642209
238,-650,3.23022,-1.43396,0,0,0,0,0,0,0,-1,1462,1674,3.23023,1.43394
245,-650,1.65894,-2.55042,0,0,0,0,0,0,0,-1,1469,1674,1.65889,2.55036
252,-650,8.75342,0.355103,0,0,0,0,0,0,0,-1,1476,1674,8.75337,-0.355147
259,-650,5.61255,3.17566,0,0,0,0,0,0,0,-1,1483,1674,5.61257,-3.17572
266,-650,4.00403,6.10229,0,0,0,0,0,0,0,-1,1490,1674,4.00401,-6.10225
273,-650,5.4093,14.3718,0,0,0,0,0,0,0,-1,1497,1674,5.40929,-14.3718
280,-650,6.34509,20.344,0,0,0,0,0,0,0,-1,1504,1674,6.34511,-20.344
287,-650,6.57214,20.26,0.0111919,-0.00389365,-0.000694313,0.0112237,-0.00392554,-0.0458958,0.00907846,0.048466,1511,1674,6.57214,-20.26
294,-650,6.86914,20.0682,0.00978815,-0.00379263,-6.94123e-05,0.0097885,-0.00379298,-0.00511089,0.00809195,0.0419034,1518,1674,6.86918,-20.0682
301,-650,6.92468,19.8063,0.00849109,-0.00382035,0.000526344,0.00851355,-0.00384281,0.0426487,0.00730186,0.0332597,1525,1674,6.92466,-19.8063
308,-650,6.88318,19.7643,0.0073231,-0.00352204,0.000994201,0.00741349,-0.00361243,0.0906655,0.00649068,0.0220028,1532,1674,6.88322,-19.7643
315,-650,6.8772,19.6665,0.00618483,-0.00323022,0.00134831,0.00637412,-0.0034195,0.139474,0.00573948,0.0128715,1539,1674,6.87714,-19.6665
322,-650,6.88281,19.5043,0.00513859,-0.00272664,0.00149635,0.00541365,-0.0030017,0.181791,0.00492468,0.00985796,1546,1674,6.88282,-19.5043
329,-650,6.91431,19.3087,0.0041893,-0.00219959,0.0016137,0.00457375,-0.00258404,0.233882,0.00418543,0.0150514,1553,1674,6.9143,-19.3087
336,-650,6.91431,19.1644,0.00320917,-0.00180398,0.00169533,0.00372866,-0.00232346,0.297339,0.00352545,0.0135165,1560,1674,6.91425,-19.1644
343,-650,6.92053,18.9969,0.00227564,-0.00151424,0.00174054,0.00295369,-0.00219229,0.371477,0.00298186,0.0137397,1567,1674,6.92055,-18.9969
350,-650,6.92749,18.8066,0.00163699,-0.00115469,0.00153982,0.00231947,-0.00183717,0.417202,0.00240522,0.0161548,1574,1674,6.92752,-18.8067
357,-650,6.93445,18.6373,0.0011719,-0.000962111,0.0013914,0.00185832,-0.00164853,0.458297,0.00202589,0.0125732,1581,1674,6.93441,-18.6373
364,-650,6.93616,18.4625,0.000783852,-0.000723725,0.00117575,0.0014267,-0.00136657,0.500347,0.00161282,0.00860706,1588,1674,6.93611,-18.4625
371,-650,6.92371,18.2764,0.000504649,-0.000613642,0.000965003,0.00106079,-0.00116979,0.522822,0.00128834,0.0106478,1595,1674,6.92372,-18.2764
378,-650,6.92529,18.0836,0.000312609,-0.000649362,0.00073219,0.000707665,-0.00104442,0.494788,0.00101778,0.0121623,1602,1674,6.9253,-18.0836
385,-650,6.92822,17.8783,0.0001932,-0.000571673,0.000263299,0.000275074,-0.000653547,0.301476,0.000550782,0.013357,1609,1674,6.92827,-17.8783
392,-650,6.93555,17.6993,0.000103957,-0.00064972,-0.000174524,0.000142409,-0.000688172,-0.216858,0.000512884,0.0161015,1616,1674,6.93561,-17.6993
399,-650,6.93481,17.5199,-0.000109811,-0.000783427,-0.000481118,0.000140675,-0.00103391,-0.480018,0.000740634,0.0149111,1623,1674,6.93484,-17.52
406,-650,6.91736,17.3076,-0.000737421,-0.000932626,-0.000437372,-0.000386894,-0.00128315,-0.675619,0.000760037,0.0141295,1630,1674,6.91732,-17.3076
413,-650,6.91541,17.1096,-0.00137938,-0.000980281,-0.000408775,-0.000724949,-0.00163471,-1.01246,0.000945809,0.0147105,1637,1674,6.91536,-17.1096
420,-650,6.89624,16.9156,-0.00223247,-0.00107931,-7.69841e-05,-0.00107419,-0.00223759,-1.50443,0.00129221,0.014984,1644,1674,6.89625,-16.9156
427,-650,6.90735,16.7078,-0.00322371,-0.00137692,0.00023614,-0.0013472,-0.00325342,1.44561,0.00188759,0.0146015,1651,1674,6.90729,-16.7078
434,-650,6.91553,16.5034,-0.00448996,-0.00164755,0.000848236,-0.00141366,-0.00472385,1.30175,0.00279962,0.0175781,1658,1674,6.91554,-16.5034
441,-650,6.84229,16.2295,-0.00635432,0.000593269,0.000689847,0.000661104,-0.00642215,1.47278,0.00451795,0.0294799,1665,1674,6.84223,-16.2295
448,-650,6.66968,16.0876,-0.00800204,0.0025777,0.000895809,0.00265301,-0.00807735,1.48692,0.00645364,0.0465483,1672,1674,6.66964,-16.0876
455,-650,6.01648,16.0029,-0.00960019,0.00558906,0.000858699,0.00563745,-0.00964858,1.5145,0.0089261,0.0497905,1679,1674,6.01652,-16.0029
462,-650,6.21863,15.7358,0,0,0,0,0,0,0,-1,1686,1674,6.2186,-15.7359
469,-650,6.08948,15.6649,0,0,0,0,0,0,0,-1,1693,1674,6.08943,-15.6649
476,-650,6.27197,15.3381,0,0,0,0,0,0,0,-1,1700,1674,6.27203,-15.3381
483,-650,9.03516,12.6401,0,0,0,0,0,0,0,-1,1707,1674,9.03513,-12.6401
490,-650,8.48901,11.9618,0,0,0,0,0,0,0,-1,1714,1674,8.48906,-11.9618
497,-650,7.81238,11.5549,0,0,0,0,0,0,0,-1,1721,1674,7.81239,-11.5549
504,-650,4.06628,11.7836,0,0,0,0,0,0,0,-1,1728,1674,4.06624,-11.7836
511,-650,4.07861,10.9446,0,0,0,0,0,0,0,-1,1735,1674,4.07861,-10.9446
518,-650,0,0,0,0,0,0,0,0,0,-1,1742,1674,0,0
525,-650,0,0,0,0,0,0,0,0,0,-1,1749,1674,0,0
532,-650,0,0,0,0,0,0,0,0,0,-1,1756,1674,0,0
539,-650,0,0,0,0,0,0,0,0,0,-1,1763,1674,0,0
546,-650,0,0,0,0,0,0,0,0,0,-1,1770,1674,0,0
553,-650,0,0,0,0,0,0,0,0,0,-1,1777,1674,0,0
560,-650,0,0,0,0,0,0,0,0,0,-1,1784,1674,0,0
567,-650,0,0,0,0,0,0,0,0,0,-1,1791,1674,0,0
574,-650,0,0,0,0,0,0,0,0,0,-1,1798,1674,0,0
581,-650,0,0,0,0,0,0,0,0,0,-1,1805,1674,0,0
588,-650,0,0,0,0,0,0,0,0,0,-1,1812,1674,0,0
595,-650,0,0,0,0,0,0,0,0,0,-1,1819,1674,0,0
602,-650,0,0,0,0,0,0,0,0,0,-1,1826,1674,0,0
609,-650,0,0,0,0,0,0,0,0,0,-1,1833,1674,0,0
616,-650,0,0,0,0,0,0,0,0,0,-1,1840,1674,0,0
623,-650,0,0,0,0,0,0,0,0,0,-1,1847,1674,0,0
630,-650,0,0,0,0,0,0,0,0,0,-1,1854,1674,0,0
637,-650,0,0,0,0,0,0,0,0,0,-1,1861,1674,0,0
644,-650,0,0,0,0,0,0,0,0,0,-1,1868,1674,0,0
651,-650,0,0,0,0,0,0,0,0,0,-1,1875,1674,0,0
658,-650,0,0,0,0,0,0,0,0,0,-1,1882,1674,0,0
665,-650,0,0,0,0,0,0,0,0,0,-1,1889,1674,0,0
672,-650,0,0,0,0,0,0,0,0,0,-1,1896,1674,0,0
679,-650,0,0,0,0,0,0,0,0,0,-1,1903,1674,0,0
686,-650,0,0,0,0,0,0,0,0,0,-1,1910,1674,0,0
693,-650,0,0,0,0,0,0,0,0,0,-1,1917,1674,0,0
700,-650,0,0,0,0,0,0,0,0,0,-1,1924,1674,0,0
707,-650,0,0,0,0,0,0,0,0,0,-1,1931,1674,0,0
714,-650,0,0,0,0,0,0,0,0,0,-1,1938,1674,0,0
721,-650,0,0,0,0,0,0,0,0,0,-1,1945,1674,0,0
728,-650,0,0,0,0,0,0,0,0,0,-1,1952,1674,0,0
735,-650,0,0,0,0,0,0,0,0,0,-1,1959,1674,0,0
742,-650,0,0,0,0,0,0,0,0,0,-1,1966,1674,0,0
749,-650,0,0,0,0,0,0,0,0,0,-1,1973,1674,0,0
756,-650,0,0,0,0,0,0,0,0,0,-1,1980,1674,0,0
763,-650,0,0,0,0,0,0,0,0,0,-1,1987,1674,0,0
770,-650,0,0,0,0,0,0,0,0,0,-1,1994,1674,0,0
777,-650,0,0,0,0,0,0,0,0,0,-1,2001,1674,0,0
784,-650,0,0,0,0,0,0,0,0,0,-1,2008,1674,0,0
791,-650,0,0,0,0,0,0,0,0,0,-1,2015,1674,0,0
798,-650,0,0,0,0,0,0,0,0,0,-1,2022,1674,0,0
805,-650,0,0,0,0,0,0,0,0,0,-1,2029,1674,0,0
812,-650,0,0,0,0,0,0,0,0,0,-1,2036,1674,0,0
-700,-657,0,0,0,0,0,0,0,0,0,-1,524,1681,0,0
-693,-657,0,0,0,0,0,0,0,0,0,-1,531,1681,0,0
-686,-657,0,0,0,0,0,0,0,0,0,-1,538,1681,0,0
-679,-657,0,0,0,0,0,0,0,0,0,-1,545,1681,0,0
-672,-657,0,0,0,0,0,0,0,0,0,-1,552,1681,0,0
-665,-657,0,0,0,0,0,0,0,0,0,-1,559,1681,0,0
-658,-657,0,0,0,0,0,0,0,0,0,-1,566,1681,0,0
-651,-657,0,0,0,0,0,0,0,0,0,-1,573,1681,0,0
-644,-657,0,0,0,0,0,0,0,0,0,-1,580,1681,0,0
-637,-657,0,0,0,0,0,0,0,0,0,-1,587,1681,0,0
-630,-657,0,0,0,0,0,0,0,0,0,-1,594,1681,0,0
-623,-657,0,0,0,0,0,0,0,0,0,-1,601,1681,0,0
-616,-657,0,0,0,0,0,0,0,0,0,-1,608,1681,0,0
-609,-657,0,0,0,0,0,0,0,0,0,-1,615,1681,0,0
-602,-657,0,0,0,0,0,0,0,0,0,-1,622,1681,0,0
-595,-657,0,0,0,0,0,0,0,0,0,-1,629,1681,0,0
-588,-657,0,0,0,0,0,0,0,0,0,-1,636,1681,0,0
-581,-657,0,0,0,0,0,0,0,0,0,-1,643,1681,0,0
-574,-657,0,0,0,0,0,0,0,0,0,-1,650,1681,0,0
-567,-657,0,0,0,0,0,0,0,0,0,-1,657,1681,0,0
-560,-657,0,0,0,0,0,0,0,0,0,-1,664,1681,0,0
-553,-657,0,0,0,0,0,0,0,0,0,-1,671,1681,0,0
-546,-657,0,0,0,0,0,0,0,0,0,-1,678,1681,0,0
-539,-657,0,0,0,0,0,0,0,0,0,-1,685,1681,0,0
-532,-657,0,0,0,0,0,0,0,0,0,-1,692,1681,0,0
-525,-657,0,0,0,0,0,0,0,0,0,-1,699,1681,0,0
-518,-657,0,0,0,0,0,0,0,0,0,-1,706,1681,0,0
-511,-657,0,0,0,0,0,0,0,0,0,-1,713,1681,0,0
-504,-657,0,0,0,0,0,0,0,0,0,-1,720,1681,0,0
-497,-657,0,0,0,0,0,0,0,0,0,-1,727,1681,0,0
-490,-657,0,0,0,0,0,0,0,0,0,-1,734,1681,0,0
-483,-657,0,0,0,0,0,0,0,0,0,-1,741,1681,0,0
-476,-657,0,0,0,0,0,0,0,0,0,-1,748,1681,0,0
-469,-657,0,0,0,0,0,0,0,0,0,-1,755,1681,0,0
-462,-657,0,0,0,0,0,0,0,0,0,-1,762,1681,0,0
-455,-657,0,0,0,0,0,0,0,0,0,-1,769,1681,0,0
-448,-657,0,0,0,0,0,0,0,0,0,-1,776,1681,0,0
-441,-657,0,0,0,0,0,0,0,0,0,-1,783,1681,0,0
-434,-657,0,0,0,0,0,0,0,0,0,-1,790,1681,0,0
-427,-657,0,0,0,0,0,0,0,0,0,-1,797,1681,0,0
-420,-657,0,0,0,0,0,0,0,0,0,-1,804,1681,0,0
-413,-657,0,0,0,0,0,0,0,0,0,-1,811,1681,0,0
-406,-657,0,0,0,0,0,0,0,0,0,-1,818,1681,0,0
-399,-657,0,0,0,0,0,0,0,0,0,-1,825,1681,0,0
-392,-657,0,0,0,0,0,0,0,0,0,-1,832,1681,0,0
-385,-657,1.09814,6.18896,0,0,0,0,0,0,0,-1,839,1681,1.09814,-6.18894
-378,-657,0.31488,4.46753,0,0,0,0,0,0,0,-1,846,1681,0.31487,-4.46755
-371,-657,-0.519043,2.69421,0,0,0,0,0,0,0,-1,853,1681,-0.519064,-2.69422
-364,-657,-3.42017,4.18323,0,0,0,0,0,0,0,-1,860,1681,-3.42019,-4.18319
-357,-657,-4.41913,2.97168,0,0,0,0,0,0,0,-1,867,1681,-4.41913,-2.97165
-350,-657,-5.42291,1.70276,0,0,0,0,0,0,0,-1,874,1681,-5.42291,-1.70277
-343,-657,-6.51294,0.397339,0,0,0,0,0,0,0,-1,881,1681,-6.51295,-0.397335
-336,-657,3.52148,10.3204,0,0,0,0,0,0,0,-1,888,1681,3.52147,-10.3204
-329,-657,4.28369,14.5101,0,0,0,0,0,0,0,-1,895,1681,4.28371,-14.5102
-322,-657,3.97736,14.6091,-0.00764814,-0.0141698,0.00407347,-0.0056911,-0.0161269,0.447874,0.00944421,0.0463379,902,1681,3.97738,-14.6091
-315,-657,4.02655,14.7292,-0.00950822,-0.0152264,0.00232133,-0.00868451,-0.0160501,0.340981,0.00927695,0.0434868,909,1681,4.02656,-14.7293
-308,-657,4.11908,15.1632,-0.0106536,-0.0158791,0.000815621,-0.0105293,-0.0160034,0.151292,0.00939199,0.0390661,916,1681,4.11906,-15.1632
-301,-657,4.13342,15.5356,-0.0110328,-0.0158264,-0.000145064,-0.0110284,-0.0158308,-0.030225,0.00937256,0.0302826,923,1681,4.13343,-15.5357
-294,-657,4.07581,15.7793,-0.0107281,-0.0153381,-0.000701868,-0.0106236,-0.0154426,-0.147789,0.0091233,0.0162915,930,1681,4.07582,-15.7793
-287,-657,4.05206,16.0039,-0.00991576,-0.0144143,-0.00103927,-0.00968727,-0.0146428,-0.216412,0.00859991,0.011833,937,1681,4.05207,-16.0039
-280,-657,4.02588,16.2183,-0.00889434,-0.0132356,-0.00133012,-0.00851921,-0.0136107,-0.274885,0.00794076,0.0134887,944,1681,4.02589,-16.2183
-273,-657,4.02496,16.4438,-0.00758829,-0.0117834,-0.00143381,-0.00714506,-0.0122266,-0.299806,0.00709246,0.0102677,951,1681,4.02496,-16.4439
-266,-657,4.00873,16.6886,-0.006161,-0.0103679,-0.00138691,-0.00574492,-0.010784,-0.291461,0.00623057,0.0144181,958,1681,4.00875,-16.6886
-259,-657,4.00372,16.9174,-0.00495603,-0.00881054,-0.00143238,-0.00448203,-0.00928454,-0.319574,0.0053615,0.018956,965,1681,4.00373,-16.9173
-252,-657,4.00775,17.1053,-0.0036075,-0.00711711,-0.00123181,-0.00321832,-0.00750629,-0.306021,0.0043484,0.0132609,972,1681,4.00777,-17.1054
-245,-657,4.00909,17.3151,-0.00200852,-0.00559471,-0.000822254,-0.00182898,-0.00577425,-0.214978,0.00340758,0.0146903,979,1681,4.0091,-17.315
-238,-657,4.03986,17.5015,-0.000802692,-0.00441268,-0.000481127,-0.000739669,-0.0044757,-0.130248,0.00277036,0.0197809,986,1681,4.03986,-17.5014
-231,-657,4.03979,17.7228,-0.000211102,-0.00367298,-0.000178012,-0.000201973,-0.00368211,-0.0512405,0.00239026,0.0210472,993,1681,4.03979,-17.7228
-224,-657,4.00024,17.9604,0.000313763,-0.0028688,9.8103e-05,0.000316784,-0.00287183,0.0307861,0.00202841,0.0161571,1000,1681,4.00027,-17.9604
-217,-657,4.00214,18.1532,0.000572999,-0.00263029,0.00029479,0.000599902,-0.00265719,0.0910087,0.00200162,0.00968734,1007,1681,4.00212,-18.1532
-210,-657,4.0307,18.3362,0.000630817,-0.0026711,0.000390504,0.000676372,-0.00271666,0.116132,0.00207366,0.0103546,1014,1681,4.03072,-18.3362
-203,-657,4.05164,18.5441,0.000547256,-0.00276306,0.000405727,0.000596259,-0.00281206,0.120195,0.00210184,0.0133618,1021,1681,4.05169,-18.544
-196,-657,4.0592,18.7079,0.000469285,-0.00289134,0.00033925,0.00050319,-0.00292525,0.0996095,0.00213773,0.0145079,1028,1681,4.05919,-18.7079
-189,-657,4.0459,18.8716,0.000191867,-0.00346987,0.000145886,0.00019767,-0.00347567,0.0397566,0.00238574,0.0107126,1035,1681,4.04593,-18.8715
-182,-657,4.05615,19.0525,-0.000195341,-0.00411947,-0.000200102,-0.000185164,-0.00412964,-0.0508169,0.0026935,0.0083257,1042,1681,4.05612,-19.0525
-175,-657,4.07532,19.2299,-0.000264091,-0.00472044,-0.000503132,-0.000207992,-0.00477654,-0.11104,0.00311735,0.00983755,1049,1681,4.0753,-19.2299
-168,-657,4.06494,19.4103,-0.000353061,-0.00550415,-0.000844988,-0.00021799,-0.00563922,-0.158508,0.00368896,0.0110004,1056,1681,4.065,-19.4103
-161,-657,4.06946,19.5663,-0.000241625,-0.00645011,-0.0010593,-6.5862e-05,-0.00662587,-0.164426,0.00439546,0.010548,1063,1681,4.06951,-19.5663
-154,-657,4.10754,19.7222,-0.000114374,-0.00754156,-0.00130311,0.000107623,-0.00776356,-0.16874,0.00521195,0.0116154,1070,1681,4.10748,-19.7222
-147,-657,4.13135,19.868,-0.000111989,-0.00897874,-0.00136444,9.32245e-05,-0.00918396,-0.149283,0.00615395,0.016954,1077,1681,4.13134,-19.868
-140,-657,4.13367,20.0653,6.38779e-05,-0.0106131,-0.00170358,0.000329106,-0.0108784,-0.154449,0.0073644,0.0277971,1084,1681,4.13369,-20.0653
-133,-657,3.99487,20.0076,0.000478574,-0.0123478,-0.00159245,0.000673325,-0.0125426,-0.121693,0.00859495,0.0363343,1091,1681,3.99485,-20.0076
-126,-657,4.22852,20.252,0.000834787,-0.014153,-0.00111579,0.000917399,-0.0142356,-0.073904,0.00981049,0.0449999,1098,1681,4.22849,-20.252
-119,-657,4.38586,20.5674,0,0,0,0,0,0,0,-1,1105,1681,4.38583,-20.5674
-112,-657,4.651,20.3875,0,0,0,0,0,0,0,-1,1112,1681,4.65097,-20.3875
-105,-657,3.82434,14.4906,0,0,0,0,0,0,0,-1,1119,1681,3.8244,-14.4906
-98,-657,3.78662,8.16785,0,0,0,0,0,0,0,-1,1126,1681,3.78663,-8.16786
-91,-657,3.6521,16.6017,0,0,0,0,0,0,0,-1,1133,1681,3.65215,-16.6017
-84,-657,4.08008,10.4579,0,0,0,0,0,0,0,-1,1140,1681,4.08006,-10.4579
-77,-657,-5.29846,0.396606,0,0,0,0,0,0,0,-1,1147,1681,-5.29842,-0.396573
-70,-657,-4.14893,2.14575,0,0,0,0,0,0,0,-1,1154,1681,-4.14893,-2.1458
-63,-657,-4.1239,3.177,0,0,0,0,0,0,0,-1,1161,1681,-4.12391,-3.17698
-56,-657,-6.40576,5.73987,0,0,0,0,0,0,0,-1,1168,1681,-6.40577,-5.7399
-49,-657,-5.98462,7.54053,0,0,0,0,0,0,0,-1,1175,1681,-5.98466,-7.5405
-42,-657,-5.71948,9.28955,0,0,0,0,0,0,0,-1,1182,1681,-5.71951,-9.2895
-35,-657,-5.44556,11.015,0,0,0,0,0,0,0,-1,1189,1681,-5.44555,-11.015
-28,-657,-1.3446,8.92847,0,0,0,0,0,0,0,-1,1196,1681,-1.34459,-8.92848
-21,-657,5.81067,19.5239,0,0,0,0,0,0,0,-1,1203,1681,5.81064,-19.5239
-14,-657,4.94885,19.9424,0,0,0,0,0,0,0,-1,1210,1681,4.94881,-19.9424
-7,-657,4.90625,21.2111,0,0,0,0,0,0,0,-1,1217,1681,4.90627,-21.2111
0,-657,4.37793,21.7117,0,0,0,0,0,0,0,-1,1224,1681,4.37794,-21.7117
7,-657,3.84961,22.2124,0,0,0,0,0,0,0,-1,1231,1681,3.84961,-22.2124
14,-657,5.16638,23.4244,0,0,0,0,0,0,0,-1,1238,1681,5.16634,-23.4244
21,-657,5.67883,23.7054,0,0,0,0,0,0,0,-1,1245,1681,5.67882,-23.7055
28,-657,6.12231,23.8854,0,0,0,0,0,0,0,-1,1252,1681,6.12231,-23.8854
35,-657,6.73669,23.7795,0,0,0,0,0,0,0,-1,1259,1681,6.73671,-23.7795
42,-657,6.98572,24.0206,0.0788763,-0.0568482,0.0652659,0.105168,-0.0831397,0.382949,0.108967,0.0429139,1266,1681,6.98571,-24.0206
49,-657,6.50549,17.7756,0.0710299,-0.0460756,0.0648887,0.0998783,-0.0749241,0.41834,0.101264,0.0431552,1273,1681,6.50553,-17.7757
56,-657,7.02783,18.2363,0,0,0,0,0,0,0,-1,1280,1681,7.02783,-18.2363
63,-657,7.0061,18.8573,0.0438018,-0.0217689,0.0612512,0.0804901,-0.0584571,0.53967,0.0805567,0.0482743,1287,1681,7.00616,-18.8573
70,-657,6.8031,20.0669,0.0243923,-0.00911134,0.0568247,0.0668829,-0.051602,0.642059,0.0685966,0.0463325,1294,1681,6.80311,-20.0669
77,-657,6.77844,21.4286,0.002839,0.00369542,0.0509375,0.0542065,-0.0476721,0.789601,0.0588599,0.0456759,1301,1681,6.77846,-21.4286
84,-657,6.51892,22.0115,-0.0184227,0.0169543,0.0437468,0.0464533,-0.0479218,0.977518,0.0544897,0.049783,1308,1681,6.51892,-22.0115
91,-657,7.90894,22.1705,-0.0363686,0.0334926,0.0340337,0.0473312,-0.0502072,1.1846,0.056322,0.0460312,1315,1681,7.90891,-22.1706
98,-657,7.20715,22.2295,-0.0522687,0.0552079,0.0238992,0.0602827,-0.0573434,1.36156,0.0679185,0.0454209,1322,1681,7.2071,-22.2295
105,-657,6.57202,22.4396,-0.0670206,0.073778,0.0136631,0.0750916,-0.0683342,1.47495,0.0828376,0.0450663,1329,1681,6.572,-22.4396
112,-657,5.8186,22.7565,-0.0797035,0.0955414,0.000720133,0.0955444,-0.0797064,1.56669,0.101319,0.0429456,1336,1681,5.81855,-22.7565
119,-657,4.68567,23.0336,-0.0873986,0.119057,-0.0123436,0.119793,-0.088134,-1.51129,0.120509,0.0455612,1343,1681,4.68565,-23.0336
126,-657,3.49524,23.3281,0,0,0,0,0,0,0,-1,1350,1681,3.49519,-23.3281
133,-657,9.6416,21.5868,0,0,0,0,0,0,0,-1,1357,1681,9.64165,-21.5868
140,-657,9.31775,21.4653,0,0,0,0,0,0,0,-1,1364,1681,9.3177,-21.4653
147,-657,9.08984,21.4066,0,0,0,0,0,0,0,-1,1371,1681,9.08987,-21.4066
154,-657,2.9646,31.9213,0,0,0,0,0,0,0,-1,1378,1681,2.96456,-31.9212
161,-657,12.8524,6.43372,0,0,0,0,0,0,0,-1,1385,1681,12.8524,-6.43366
168,-657,5.21643,0.70105,0,0,0,0,0,0,0,-1,1392,1681,5.21648,-0.7011
175,-657,5.52771,0.649048,0,0,0,0,0,0,0,-1,1399,1681,5.52774,-0.649019
182,-657,5.73999,1.02612,0,0,0,0,0,0,0,-1,1406,1681,5.73995,-1.02611
189,-657,5.92126,1.44116,0,0,0,0,0,0,0,-1,1413,1681,5.92126,-1.44115
196,-657,4.92834,9.59021,0,0,0,0,0,0,0,-1,1420,1681,4.9284,-9.59018
203,-657,6.26343,5.16492,0,0,0,0,0,0,0,-1,1427,1681,6.26345,-5.16488
210,-657,3.9856,5.28088,0,0,0,0,0,0,0,-1,1434,1681,3.98555,-5.28084
217,-657,3.95178,5.2843,0,0,0,0,0,0,0,-1,1441,1681,3.95174,-5.28431
224,-657,6.66736,-0.250244,0,0,0,0,0,0,0,-1,1448,1681,6.66737,0.250229
231,-657,6.85498,-1.70752,0,0,0,0,0,0,0,-1,1455,1681,6.855,1.70758
238,-657,5.34143,-2.89819,0,0,0,0,0,0,0,-1,1462,1681,5.34143,2.89813
245,-657,8.66003,-0.102783,0,0,0,0,0,0,0,-1,1469,1681,8.66,0.102824
252,-657,4.78955,0.623779,0,0,0,0,0,0,0,-1,1476,1681,4.7895,-0.623826
259,-657,2.61523,4.31909,0,0,0,0,0,0,0,-1,1483,1681,2.61523,-4.31908
266,-657,5.35437,11.4742,0,0,0,0,0,0,0,-1,1490,1681,5.35441,-11.4742
273,-657,6.33289,20.1274,0,0,0,0,0,0,0,-1,1497,1681,6.33294,-20.1275
280,-657,6.55176,20.2271,0.00919561,-0.00363903,-0.000691666,0.00923278,-0.0036762,-0.0536833,0.0076797,0.0412332,1504,1681,6.5517,-20.227
287,-657,6.65112,20.1869,0.00830499,-0.00317509,-0.000292572,0.00831244,-0.00318254,-0.0254631,0.00685338,0.03105,1511,1681,6.65111,-20.187
294,-657,6.6698,20.0839,0.00722879,-0.00296228,5.24494e-05,0.00722906,-0.00296255,0.00514642,0.00605356,0.0249832,1518,1681,6.66979,-20.0838
301,-657,6.67456,19.9783,0.0062114,-0.00285671,0.000416267,0.00623047,-0.00287578,0.0457762,0.0053751,0.0161328,1525,1681,6.67453,-19.9783
308,-657,6.6991,19.8234,0.00533409,-0.00258578,0.000707289,0.00539676,-0.00264845,0.0883737,0.00473438,0.0116215,1532,1681,6.6991,-19.8234
315,-657,6.7196,19.6604,0.00455207,-0.00230546,0.000867442,0.0046601,-0.00241349,0.123895,0.00415203,0.010641,1539,1681,6.71963,-19.6604
322,-657,6.73792,19.4625,0.00382543,-0.00188644,0.000899381,0.0039637,-0.0020247,0.152543,0.0035173,0.0126578,1546,1681,6.73795,-19.4625
329,-657,6.72974,19.2936,0.00324035,-0.00144517,0.000906985,0.00340979,-0.00161461,0.184687,0.00296191,0.0186752,1553,1681,6.72974,-19.2935
336,-657,6.74475,19.1531,0.00281255,-0.00106106,0.000837724,0.00298595,-0.00123446,0.204116,0.00250563,0.0164105,1560,1681,6.74477,-19.1531
343,-657,6.7771,18.9902,0.00243446,-0.000794718,0.000772114,0.00260958,-0.000969838,0.223033,0.00213763,0.0135301,1567,1681,6.77712,-18.9903
350,-657,6.76953,18.821,0.00224867,-0.000510516,0.000538205,0.00234994,-0.000611782,0.18598,0.00180544,0.0150984,1574,1681,6.76959,-18.8211
357,-657,6.75476,18.6527,0.00215549,-0.000323393,0.000390063,0.00221542,-0.000383322,0.152448,0.00161991,0.0135152,1581,1681,6.75472,-18.6527
364,-657,6.75159,18.4591,0.00212962,-0.000158127,0.00020567,0.00214796,-0.00017647,0.0889502,0.00149427,0.0100516,1588,1681,6.75162,-18.4591
371,-657,6.74316,18.2791,0.00214304,-9.64328e-05,4.71906e-05,0.00214403,-9.74268e-05,0.0210597,0.00146291,0.0137572,1595,1681,6.7431,-18.2791
378,-657,6.73242,18.1033,0.00215759,-0.0002507,-0.000142563,0.002166,-0.00025911,-0.0589226,0.00153767,0.0135332,1602,1681,6.73239,-18.1033
385,-657,6.72498,17.9041,0.00210341,-0.000356523,-0.000511106,0.00220537,-0.00045849,-0.196918,0.00164452,0.012065,1609,1681,6.72493,-17.904
392,-657,6.7301,17.7394,0.00190357,-0.000460315,-0.00085625,0.00218113,-0.000737876,-0.313471,0.00175261,0.0125309,1616,1681,6.73013,-17.7394
399,-657,6.74683,17.5323,0.0014095,-0.000719013,-0.00106444,0.00185046,-0.00115997,-0.392743,0.00175325,0.0123835,1623,1681,6.74679,-17.5323
406,-657,6.73608,17.3317,0.000345743,-0.00103876,-0.000858615,0.000756412,-0.00144943,-0.446131,0.00129432,0.0138708,1630,1681,6.73607,-17.3316
413,-657,6.73816,17.1202,-0.000755009,-0.00123621,-0.000674123,-0.000279838,-0.00171139,-0.613989,0.00106003,0.014153,1637,1681,6.73816,-17.1202
420,-657,6.75256,16.8622,-0.00212502,-0.00142603,-0.00026842,-0.00133485,-0.00221621,-1.24333,0.00128842,0.0163396,1644,1681,6.75258,-16.8622
427,-657,6.75146,16.5997,-0.00400117,-0.00180798,7.28638e-05,-0.00180557,-0.00400359,1.53762,0.00231517,0.0212269,1651,1681,6.75144,-16.5997
434,-657,6.76917,16.3889,-0.0061824,-0.00227774,0.000869038,-0.00209306,-0.00636708,1.3614,0.00374723,0.028281,1658,1681,6.76919,-16.3889
441,-657,6.82947,16.2341,-0.00861415,0.000557822,0.000621303,0.000599716,-0.00865604,1.50347,0.00598063,0.0479755,1665,1681,6.82946,-16.2342
448,-657,6.21387,16.2181,0,0,0,0,0,0,0,-1,1672,1681,6.21384,-16.2182
455,-657,5.19922,16.3231,0,0,0,0,0,0,0,-1,1679,1681,5.19924,-16.3231
462,-657,6.51733,15.4801,0,0,0,0,0,0,0,-1,1686,1681,6.51737,-15.4801
469,-657,5.6687,15.8351,0,0,0,0,0,0,0,-1,1693,1681,5.66874,-15.835
476,-657,5.72485,13.6294,0,0,0,0,0,0,0,-1,1700,1681,5.72481,-13.6294
483,-657,9.39307,11.0643,0,0,0,0,0,0,0,-1,1707,1681,9.39309,-11.0644
490,-657,8.80066,10.4442,0,0,0,0,0,0,0,-1,1714,1681,8.80062,-10.4442
497,-657,3.43188,12.5037,0,0,0,0,0,0,0,-1,1721,1681,3.43183,-12.5037
504,-657,0,0,0,0,0,0,0,0,0,-1,1728,1681,0,0
511,-657,0,0,0,0,0,0,0,0,0,-1,1735,1681,0,0
518,-657,0,0,0,0,0,0,0,0,0,-1,1742,1681,0,0
525,-657,0,0,0,0,0,0,0,0,0,-1,1749,1681,0,0
532,-657,0,0,0,0,0,0,0,0,0,-1,1756,1681,0,0
539,-657,0,0,0,0,0,0,0,0,0,-1,1763,1681,0,0
546,-657,0,0,0,0,0,0,0,0,0,-1,1770,1681,0,0
553,-657,0,0,0,0,0,0,0,0,0,-1,1777,1681,0,0
560,-657,0,0,0,0,0,0,0,0,0,-1,1784,1681,0,0
567,-657,0,0,0,0,0,0,0,0,0,-1,1791,1681,0,0
574,-657,0,0,0,0,0,0,0,0,0,-1,1798,1681,0,0
581,-657,0,0,0,0,0,0,0,0,0,-1,1805,1681,0,0
588,-657,0,0,0,0,0,0,0,0,0,-1,1812,1681,0,0
595,-657,0,0,0,0,0,0,0,0,0,-1,1819,1681,0,0
602,-657,0,0,0,0,0,0,0,0,0,-1,1826,1681,0,0
609,-657,0,0,0,0,0,0,0,0,0,-1,1833,1681,0,0
616,-657,0,0,0,0,0,0,0,0,0,-1,1840,1681,0,0
623,-657,0,0,0,0,0,0,0,0,0,-1,1847,1681,0,0
630,-657,0,0,0,0,0,0,0,0,0,-1,1854,1681,0,0
637,-657,0,0,0,0,0,0,0,0,0,-1,1861,1681,0,0
644,-657,0,0,0,0,0,0,0,0,0,-1,1868,1681,0,0
651,-657,0,0,0,0,0,0,0,0,0,-1,1875,1681,0,0
658,-657,0,0,0,0,0,0,0,0,0,-1,1882,1681,0,0
665,-657,0,0,0,0,0,0,0,0,0,-1,1889,1681,0,0
672,-657,0,0,0,0,0,0,0,0,0,-1,1896,1681,0,0
679,-657,0,0,0,0,0,0,0,0,0,-1,1903,1681,0,0
686,-657,0,0,0,0,0,0,0,0,0,-1,1910,1681,0,0
693,-657,0,0,0,0,0,0,0,0,0,-1,1917,1681,0,0
700,-657,0,0,0,0,0,0,0,0,0,-1,1924,1681,0,0
707,-657,0,0,0,0,0,0,0,0,0,-1,1931,1681,0,0
714,-657,0,0,0,0,0,0,0,0,0,-1,1938,1681,0,0
721,-657,0,0,0,0,0,0,0,0,0,-1,1945,1681,0,0
728,-657,0,0,0,0,0,0,0,0,0,-1,1952,1681,0,0
735,-657,0,0,0,0,0,0,0,0,0,-1,1959,1681,0,0
742,-657,0,0,0,0,0,0,0,0,0,-1,1966,1681,0,0
749,-657,0,0,0,0,0,0,0,0,0,-1,1973,1681,0,0
756,-657,0,0,0,0,0,0,0,0,0,-1,1980,1681,0,0
763,-657,0,0,0,0,0,0,0,0,0,-1,1987,1681,0,0
770,-657,0,0,0,0,0,0,0,0,0,-1,1994,1681,0,0
777,-657,0,0,0,0,0,0,0,0,0,-1,2001,1681,0,0
784,-657,0,0,0,0,0,0,0,0,0,-1,2008,1681,0,0
791,-657,0,0,0,0,0,0,0,0,0,-1,2015,1681,0,0
798,-657,0,0,0,0,0,0,0,0,0,-1,2022,1681,0,0
805,-657,0,0,0,0,0,0,0,0,0,-1,2029,1681,0,0
812,-657,0,0,0,0,0,0,0,0,0,-1,2036,1681,0,0
-700,-664,0,0,0,0,0,0,0,0,0,-1,524,1688,0,0
-693,-664,0,0,0,0,0,0,0,0,0,-1,531,1688,0,0
-686,-664,0,0,0,0,0,0,0,0,0,-1,538,1688,0,0
-679,-664,0,0,0,0,0,0,0,0,0,-1,545,1688,0,0
-672,-664,0,0,0,0,0,0,0,0,0,-1,552,1688,0,0
-665,-664,0,0,0,0,0,0,0,0,0,-1,559,1688,0,0
-658,-664,0,0,0,0,0,0,0,0,0,-1,566,1688,0,0
-651,-664,0,0,0,0,0,0,0,0,0,-1,573,1688,0,0
-644,-664,0,0,0,0,0,0,0,0,0,-1,580,1688,0,0
-637,-664,0,0,0,0,0,0,0,0,0,-1,587,1688,0,0
-630,-664,0,0,0,0,0,0,0,0,0,-1,594,1688,0,0
-623,-664,0,0,0,0,0,0,0,0,0,-1,601,1688,0,0
-616,-664,0,0,0,0,0,0,0,0,0,-1,608,1688,0,0
-609,-664,0,0,0,0,0,0,0,0,0,-1,615,1688,0,0
-602,-664,0,0,0,0,0,0,0,0,0,-1,622,1688,0,0
-595,-664,0,0,0,0,0,0,0,0,0,-1,629,1688,0,0
-588,-664,0,0,0,0,0,0,0,0,0,-1,636,1688,0,0
-581,-664,0,0,0,0,0,0,0,0,0,-1,643,1688,0,0
-574,-664,0,0,0,0,0,0,0,0,0,-1,650,1688,0,0
-567,-664,0,0,0,0,0,0,0,0,0,-1,657,1688,0,0
-560,-664,0,0,0,0,0,0,0,0,0,-1,664,1688,0,0
-553,-664,0,0,0,0,0,0,0,0,0,-1,671,1688,0,0
-546,-664,0,0,0,0,0,0,0,0,0,-1,678,1688,0,0
-539,-664,0,0,0,0,0,0,0,0,0,-1,685,1688,0,0
-532,-664,0,0,0,0,0,0,0,0,0,-1,692,1688,0,0
-525,-664,0,0,0,0,0,0,0,0,0,-1,699,1688,0,0
-518,-664,0,0,0,0,0,0,0,0,0,-1,706,1688,0,0
-511,-664,0,0,0,0,0,0,0,0,0,-1,713,1688,0,0
-504,-664,0,0,0,0,0,0,0,0,0,-1,720,1688,0,0
-497,-664,0,0,0,0,0,0,0,0,0,-1,727,1688,0,0
-490,-664,0,0,0,0,0,0,0,0,0,-1,734,1688,0,0
-483,-664,0,0,0,0,0,0,0,0,0,-1,741,1688,0,0
-476,-664,0,0,0,0,0,0,0,0,0,-1,748,1688,0,0
-469,-664,0,0,0,0,0,0,0,0,0,-1,755,1688,0,0
-462,-664,0,0,0,0,0,0,0,0,0,-1,762,1688,0,0
-455,-664,0,0,0,0,0,0,0,0,0,-1,769,1688,0,0
-448,-664,0,0,0,0,0,0,0,0,0,-1,776,1688,0,0
-441,-664,0,0,0,0,0,0,0,0,0,-1,783,1688,0,0
-434,-664,0,0,0,0,0,0,0,0,0,-1,790,1688,0,0
-427,-664,0,0,0,0,0,0,0,0,0,-1,797,1688,0,0
-420,-664,0,0,0,0,0,0,0,0,0,-1,804,1688,0,0
-413,-664,0,0,0,0,0,0,0,0,0,-1,811,1688,0,0
-406,-664,0,0,0,0,0,0,0,0,0,-1,818,1688,0,0
-399,-664,0,0,0,0,0,0,0,0,0,-1,825,1688,0,0
-392,-664,0,0,0,0,0,0,0,0,0,-1,832,1688,0,0
-385,-664,0,0,0,0,0,0,0,0,0,-1,839,1688,0,0
-378,-664,0,0,0,0,0,0,0,0,0,-1,846,1688,0,0
-371,-664,-1.61676,5.92737,0,0,0,0,0,0,0,-1,853,1688,-1.61675,-5.92735
-364,-664,-3.901,5.87024,0,0,0,0,0,0,0,-1,860,1688,-3.90097,-5.87027
-357,-664,-4.81012,4.53479,0,0,0,0,0,0,0,-1,867,1688,-4.81012,-4.5348
-350,-664,-5.7193,3.19934,0,0,0,0,0,0,0,-1,874,1688,-5.71927,-3.19932
-343,-664,-6.37476,1.54712,0,0,0,0,0,0,0,-1,881,1688,-6.37479,-1.54714
-336,-664,3.37445,13.1002,0,0,0,0,0,0,0,-1,888,1688,3.37448,-13.1003
-329,-664,3.83606,13.2319,0,0,0,0,0,0,0,-1,895,1688,3.83606,-13.2319
-322,-664,4.32581,14.5261,0,0,0,0,0,0,0,-1,902,1688,4.3258,-14.5261
-315,-664,3.80786,14.7375,-0.0176855,-0.0255571,0.00153844,-0.0173955,-0.0258471,0.186311,0.0152177,0.0470856,909,1688,3.80789,-14.7376
-308,-664,4.3385,15.1565,-0.0187522,-0.0262363,-0.000175688,-0.0187481,-0.0262404,-0.0234577,0.0156076,0.0469799,916,1688,4.33853,-15.1565
-301,-664,4.5257,15.5952,-0.0187916,-0.0259917,-0.00125241,-0.01858,-0.0262033,-0.167397,0.0155631,0.046057,923,1688,4.52572,-15.5952
-294,-664,4.29443,15.7687,-0.0179546,-0.0250518,-0.00187637,-0.0174891,-0.0255174,-0.243197,0.0150662,0.041423,930,1688,4.29444,-15.7687
-287,-664,4.32928,16.0405,-0.0164594,-0.0234111,-0.00222823,-0.0158065,-0.024064,-0.285033,0.0141194,0.0304722,937,1688,4.32925,-16.0405
-280,-664,4.24103,16.2509,-0.01467,-0.0213451,-0.00252327,-0.0138235,-0.0221916,-0.323672,0.0129407,0.0218666,944,1688,4.24102,-16.2508
-273,-664,4.28497,16.4214,-0.0125832,-0.0188818,-0.00257322,-0.0116656,-0.0197994,-0.342533,0.0114916,0.0171326,951,1688,4.28498,-16.4214
-266,-664,4.25464,16.6437,-0.0103894,-0.016425,-0.00244306,-0.00952442,-0.0172899,-0.340268,0.00999954,0.0228336,958,1688,4.25463,-16.6437
-259,-664,4.20911,16.8773,-0.00852027,-0.0138552,-0.00241109,-0.00759209,-0.0147834,-0.367478,0.00853625,0.0191268,965,1688,4.2091,-16.8773
-252,-664,4.23505,17.0801,-0.00647729,-0.0112156,-0.00207956,-0.00569406,-0.0119988,-0.360199,0.00693049,0.0160905,972,1688,4.23505,-17.08
-245,-664,4.19226,17.3169,-0.00409677,-0.00875798,-0.00155812,-0.0036239,-0.00923085,-0.294652,0.00537027,0.0197602,979,1688,4.19227,-17.3169
-238,-664,4.24677,17.5229,-0.00226669,-0.00673769,-0.00111943,-0.00200208,-0.00700231,-0.232125,0.00416448,0.0229658,986,1688,4.24677,-17.5229
-231,-664,4.2608,17.7075,-0.00122488,-0.00526293,-0.000688939,-0.00111058,-0.00537723,-0.164418,0.00327795,0.0202258,993,1688,4.2608,-17.7075
-224,-664,4.21448,17.9601,-0.000239133,-0.00363545,-0.000270547,-0.000217716,-0.00365687,-0.0789952,0.00236868,0.0141977,1000,1688,4.21445,-17.96
-217,-664,4.21924,18.1625,0.000274032,-0.00296921,-1.62663e-05,0.000274114,-0.00296929,-0.00501526,0.00207694,0.0102589,1007,1688,4.21926,-18.1625
-210,-664,4.21753,18.3329,0.000460784,-0.0028021,0.000142041,0.000466956,-0.00280827,0.0434229,0.00204568,0.011577,1014,1688,4.21751,-18.3329
-203,-664,4.21667,18.5156,0.000515129,-0.00267664,0.000209411,0.00052881,-0.00269032,0.065237,0.00199333,0.0144262,1021,1688,4.21671,-18.5157
-196,-664,4.23364,18.6754,0.000541823,-0.00255315,0.000227424,0.000558446,-0.00256978,0.0729595,0.0019265,0.0155012,1028,1688,4.2337,-18.6755
-189,-664,4.23242,18.861,0.000384769,-0.0028412,0.000107209,0.000388328,-0.00284476,0.0331842,0.00203832,0.0108197,1035,1688,4.2324,-18.8609
-182,-664,4.23999,19.0488,0.000128724,-0.00319701,-0.0001619,0.000136587,-0.00320487,-0.048528,0.00218353,0.0097477,1042,1688,4.23999,-19.0488
-175,-664,4.25342,19.2142,0.000154093,-0.00350256,-0.000377503,0.000192659,-0.00354112,-0.101807,0.00242752,0.0123931,1049,1688,4.25339,-19.2143
-168,-664,4.26062,19.3907,0.00013073,-0.00402704,-0.000652601,0.000230756,-0.00412706,-0.152088,0.00283143,0.0131609,1056,1688,4.26056,-19.3908
-161,-664,4.25964,19.5544,0.000248217,-0.00471891,-0.000816677,0.000379047,-0.00484974,-0.158847,0.00336663,0.00925679,1063,1688,4.2597,-19.5545
-154,-664,4.26831,19.7096,0.000389814,-0.00548313,-0.0010058,0.00055729,-0.00565061,-0.164997,0.00396591,0.00865823,1070,1688,4.26829,-19.7096
-147,-664,4.27209,19.8671,0.000481358,-0.00654132,-0.00103553,0.00063087,-0.00669083,-0.143391,0.00468502,0.0102061,1077,1688,4.27207,-19.8671
-140,-664,4.3075,20.0349,0.000702818,-0.00778702,-0.00121379,0.000872943,-0.00795714,-0.139254,0.0056184,0.0108969,1084,1688,4.30746,-20.0349
-133,-664,4.31384,20.1902,0.00112848,-0.00906617,-0.0010977,0.00124533,-0.00918302,-0.106054,0.00657655,0.0117141,1091,1688,4.31381,-20.1902
-126,-664,4.34949,20.3621,0.00151289,-0.0103118,-0.000706574,0.00155497,-0.0103539,-0.0594719,0.00747503,0.0225845,1098,1688,4.34954,-20.3621
-119,-664,4.44714,20.4237,0.00187501,-0.0115526,-0.000268032,0.00188036,-0.011558,-0.0199507,0.00840252,0.0362378,1105,1688,4.44719,-20.4237
-112,-664,4.65771,20.4921,0.00211751,-0.0128865,3.35325e-05,0.00211759,-0.0128866,0.00223488,0.00937696,0.0482382,1112,1688,4.65769,-20.4921
-105,-664,4.64063,20.3859,0,0,0,0,0,0,0,-1,1119,1688,4.64059,-20.3858
-98,-664,4.98584,19.8645,0,0,0,0,0,0,0,-1,1126,1688,4.98586,-19.8645
-91,-664,4.61377,19.9204,0,0,0,0,0,0,0,-1,1133,1688,4.61377,-19.9204
-84,-664,3.48389,16.6913,0,0,0,0,0,0,0,-1,1140,1688,3.4839,-16.6913
-77,-664,4.52014,11.2122,0,0,0,0,0,0,0,-1,1147,1688,4.5202,-11.2122
-70,-664,4.20374,8.24524,0,0,0,0,0,0,0,-1,1154,1688,4.20379,-8.24519
-63,-664,-4.677,2.40503,0,0,0,0,0,0,0,-1,1161,1688,-4.67702,-2.40498
-56,-664,-4.66504,3.32727,0,0,0,0,0,0,0,-1,1168,1688,-4.6651,-3.32724
-49,-664,-2.54297,3.31848,0,0,0,0,0,0,0,-1,1175,1688,-2.54297,-3.31852
-42,-664,-0.359253,4.38684,0,0,0,0,0,0,0,-1,1182,1688,-0.359261,-4.38685
-35,-664,-0.705566,3.55017,0,0,0,0,0,0,0,-1,1189,1688,-0.705567,-3.55023
-28,-664,-1.54236,10.2538,0,0,0,0,0,0,0,-1,1196,1688,-1.54236,-10.2538
-21,-664,6.30444,20.7677,0,0,0,0,0,0,0,-1,1203,1688,6.30447,-20.7678
-14,-664,5.59937,21.2419,0,0,0,0,0,0,0,-1,1210,1688,5.59936,-21.2419
-7,-664,5.05652,21.6189,0.0421832,-0.0716962,0.0422738,0.0561604,-0.0856733,0.31932,0.0824765,0.0467329,1217,1688,5.05656,-21.6189
0,-664,4.8877,21.6973,0.0462834,-0.0689853,0.0419574,0.0599382,-0.0826402,0.314634,0.0826647,0.044311,1224,1688,4.88774,-21.6972
7,-664,4.67334,22.338,0.0542513,-0.0648733,0.0423308,0.0677613,-0.0783833,0.308935,0.0844509,0.0420177,1231,1688,4.6733,-22.338
14,-664,4.97546,23.0542,0.0621811,-0.0612462,0.04446,0.0765284,-0.0755935,0.312151,0.0878282,0.0440681,1238,1688,4.97542,-23.0542
21,-664,5.48499,23.3242,0.0660054,-0.0579245,0.0462177,0.0813433,-0.0732624,0.320426,0.0893023,0.0458261,1245,1688,5.48503,-23.3242
28,-664,6.25037,23.327,0.0671126,-0.0530693,0.0474179,0.0835683,-0.069525,0.33403,0.0885123,0.0473616,1252,1688,6.25031,-23.327
35,-664,6.47754,23.6381,0,0,0,0,0,0,0,-1,1259,1688,6.47758,-23.6381
42,-664,6.71851,23.9227,0.0614276,-0.0425792,0.0498615,0.0814694,-0.062621,0.382187,0.0834276,0.0442997,1266,1688,6.71857,-23.9227
49,-664,7.37524,24.3623,0.0551222,-0.0352993,0.0498316,0.0771959,-0.057373,0.416989,0.0779738,0.0442029,1273,1688,7.37523,-24.3623
56,-664,6.11328,19.8188,0,0,0,0,0,0,0,-1,1280,1688,6.11327,-19.8188
63,-664,6.32654,19.811,0.0327249,-0.018097,0.0476775,0.0613405,-0.0467126,0.540559,0.0625747,0.0480805,1287,1688,6.32655,-19.811
70,-664,6.27905,20.9521,0.016905,-0.00886391,0.0446272,0.0504705,-0.0424294,0.644863,0.0537027,0.0471752,1294,1688,6.27901,-20.9521
77,-664,6.17175,22.1361,-0.000105957,0.000620104,0.0405525,0.0408112,-0.040297,0.789874,0.0468281,0.045687,1301,1688,6.17178,-22.1361
84,-664,5.97534,22.8846,-0.0167258,0.0109543,0.0355064,0.0352226,-0.0409941,0.971235,0.0440458,0.0485526,1308,1688,5.97536,-22.8846
91,-664,6.00745,23.5543,-0.0305422,0.0243397,0.0283531,0.0363564,-0.0425589,1.16992,0.0456086,0.0444331,1315,1688,6.00741,-23.5544
98,-664,6.83276,22.3608,-0.0431802,0.0423049,0.020773,0.0470854,-0.0479608,1.3446,0.0548757,0.0495979,1322,1688,6.83277,-22.3608
105,-664,7.11536,22.1869,0,0,0,0,0,0,0,-1,1329,1688,7.11531,-22.1868
112,-664,6.13354,22.5413,-0.0647061,0.0756266,0.0030359,0.0756922,-0.0647717,1.54918,0.0811785,0.0449914,1336,1688,6.13349,-22.5413
119,-664,5.12671,22.8427,-0.0712005,0.0953163,-0.00732186,0.0956376,-0.0715218,-1.52694,0.0968437,0.0435911,1343,1688,5.12669,-22.8426
126,-664,4.10168,23.1625,0,0,0,0,0,0,0,-1,1350,1688,4.10167,-23.1625
133,-664,8.40247,21.353,0,0,0,0,0,0,0,-1,1357,1688,8.4025,-21.353
140,-664,8.41162,21.4623,0,0,0,0,0,0,0,-1,1364,1688,8.41168,-21.4623
147,-664,8.40503,21.7548,0,0,0,0,0,0,0,-1,1371,1688,8.40505,-21.7547
154,-664,3.34851,32.3209,0,0,0,0,0,0,0,-1,1378,1688,3.34848,-32.3209
161,-664,4.60132,1.56238,0,0,0,0,0,0,0,-1,1385,1688,4.60134,-1.56233
168,-664,5.172,1.25488,0,0,0,0,0,0,0,-1,1392,1688,5.17203,-1.25484
175,-664,5.58313,1.16467,0,0,0,0,0,0,0,-1,1399,1688,5.58317,-1.16466
182,-664,5.74268,1.41113,0,0,0,0,0,0,0,-1,1406,1688,5.74263,-1.41115
189,-664,5.87744,1.87061,0,0,0,0,0,0,0,-1,1413,1688,5.87745,-1.87065
196,-664,6.7594,5.97473,0,0,0,0,0,0,0,-1,1420,1688,6.75943,-5.97478
203,-664,5.38452,5.22034,0,0,0,0,0,0,0,-1,1427,1688,5.38453,-5.2203
210,-664,5.25549,6.45715,0,0,0,0,0,0,0,-1,1434,1688,5.25549,-6.45721
217,-664,5.72009,6.73975,0,0,0,0,0,0,0,-1,1441,1688,5.72014,-6.73972
224,-664,5.05725,7.42908,0,0,0,0,0,0,0,-1,1448,1688,5.05723,-7.42912
231,-664,5.13318,7.60864,0,0,0,0,0,0,0,-1,1455,1688,5.13313,-7.60862
238,-664,4.23193,6.45471,0,0,0,0,0,0,0,-1,1462,1688,4.23197,-6.45476
245,-664,4.42004,6.80896,0,0,0,0,0,0,0,-1,1469,1688,4.4201,-6.80901
252,-664,3.67346,6.85461,0,0,0,0,0,0,0,-1,1476,1688,3.6734,-6.85462
259,-664,4.55823,11.7435,0,0,0,0,0,0,0,-1,1483,1688,4.55826,-11.7435
266,-664,6.34778,20.1075,0,0,0,0,0,0,0,-1,1490,1688,6.34778,-20.1075
273,-664,6.34058,20.2953,0.00706924,-0.0033735,-0.000562302,0.00709943,-0.00340369,-0.0536395,0.00618785,0.0472395,1497,1688,6.34055,-20.2952
280,-664,6.46606,20.2937,0.00672976,-0.00331474,-0.000333963,0.00674085,-0.00332583,-0.0331994,0.00592243,0.0243974,1504,1688,6.46601,-20.2937
287,-664,6.47888,20.1947,0.00610728,-0.00272011,-0.000151491,0.00610988,-0.00272271,-0.0171548,0.00522299,0.0214033,1511,1688,6.47886,-20.1947
294,-664,6.52356,20.0773,0.00535608,-0.00236296,1.85897e-05,0.00535612,-0.00236301,0.00240827,0.00456695,0.0150404,1518,1688,6.52358,-20.0773
301,-664,6.54602,19.9562,0.00463032,-0.00209781,0.000187149,0.00463552,-0.00210301,0.0277872,0.00398102,0.0104802,1525,1688,6.54597,-19.9561
308,-664,6.55664,19.8052,0.00401215,-0.0017509,0.000287494,0.00402645,-0.0017652,0.0497212,0.00342772,0.0102853,1532,1688,6.55667,-19.8052
315,-664,6.56812,19.6559,0.00348508,-0.00145211,0.000319155,0.00350562,-0.00147265,0.0642865,0.00295302,0.0108716,1539,1688,6.56807,-19.6558
322,-664,6.58142,19.4714,0.00312006,-0.00107999,0.000289996,0.00313999,-0.00109992,0.0686118,0.00254061,0.0143282,1546,1688,6.58141,-19.4714
329,-664,6.55884,19.3184,0.00297795,-0.000680226,0.000230781,0.00299245,-0.000694728,0.0627548,0.00226238,0.0169735,1553,1688,6.55886,-19.3183
336,-664,6.57434,19.1602,0.00299412,-0.000330037,0.00011007,0.00299776,-0.000333678,0.0330639,0.00211851,0.014258,1560,1688,6.5743,-19.1602
343,-664,6.59583,18.9944,0.0031122,-0.000113177,3.09634e-06,0.00311221,-0.000113181,0.000959991,0.00211354,0.0114839,1567,1688,6.59588,-18.9943
350,-664,6.5957,18.8411,0.00340038,7.29213e-05,-0.000209757,0.00341356,5.97506e-05,-0.0627074,0.00225605,0.0127199,1574,1688,6.59571,-18.8411
357,-664,6.57349,18.6565,0.00375034,0.000228827,-0.000309595,0.00377735,0.000201816,-0.087026,0.00245373,0.0122536,1581,1688,6.57347,-18.6565
364,-664,6.57361,18.4449,0.00418624,0.000306631,-0.000424624,0.00423217,0.0002607,-0.107751,0.00273869,0.0107109,1588,1688,6.57358,-18.445
371,-664,6.5741,18.2719,0.00462073,0.000298237,-0.000505512,0.00467907,0.000239905,-0.114884,0.00304256,0.0127291,1595,1688,6.57415,-18.2719
378,-664,6.5625,18.1095,0.00498587,3.8422e-05,-0.000638734,0.00506701,-4.27102e-05,-0.126344,0.00339233,0.0117001,1602,1688,6.56251,-18.1095
385,-664,6.56433,17.9294,0.0051483,-0.000224231,-0.000920002,0.00530148,-0.000377407,-0.164981,0.0036666,0.0126249,1609,1688,6.56427,-17.9294
392,-664,6.54175,17.7408,0.00498194,-0.000328982,-0.0011974,0.00523942,-0.000586462,-0.211809,0.00370394,0.0158049,1616,1688,6.5417,-17.7409
399,-664,6.53955,17.5243,0.00432731,-0.000701924,-0.00134054,0.00466231,-0.00103693,-0.244887,0.00350535,0.0135002,1623,1688,6.53959,-17.5242
406,-664,6.55469,17.311,0.00290578,-0.00118005,-0.00103309,0.00315214,-0.00142641,-0.234097,0.00270529,0.0137882,1630,1688,6.55468,-17.3111
413,-664,6.57898,17.0828,0.00134931,-0.001523,-0.000754665,0.00153552,-0.00170921,-0.24191,0.00187424,0.0147392,1637,1688,6.57904,-17.0828
420,-664,6.63916,16.8445,-0.000667239,-0.00180066,-0.000344138,-0.000570932,-0.00189697,-0.272868,0.00112377,0.0310317,1644,1688,6.63921,-16.8445
427,-664,6.79272,16.8171,-0.00411398,-0.00232047,-0.000116369,-0.00231295,-0.0041215,-1.50627,0.00238548,0.049199,1651,1688,6.79273,-16.8171
434,-664,6.78003,16.4193,-0.0079852,-0.00306553,0.000712525,-0.00296441,-0.00808632,1.42982,0.0047237,0.0456055,1658,1688,6.78009,-16.4193
441,-664,6.61743,16.051,-0.0111623,0.00051478,0.000238478,0.000519648,-0.0111671,1.55038,0.00762387,0.0473436,1665,1688,6.61745,-16.051
448,-664,6.71448,15.9482,0,0,0,0,0,0,0,-1,1672,1688,6.71447,-15.9483
455,-664,7.53198,11.3838,0,0,0,0,0,0,0,-1,1679,1688,7.53195,-11.3838
462,-664,4.3147,4.25439,0,0,0,0,0,0,0,-1,1686,1688,4.31467,-4.25435
469,-664,6.05469,7.49341,0,0,0,0,0,0,0,-1,1693,1688,6.05474,-7.49339
476,-664,9.76514,11.5648,0,0,0,0,0,0,0,-1,1700,1688,9.76511,-11.5648
483,-664,8.41895,10.9768,0,0,0,0,0,0,0,-1,1707,1688,8.41897,-10.9769
490,-664,3.90771,13.2842,0,0,0,0,0,0,0,-1,1714,1688,3.90776,-13.2841
497,-664,0,0,0,0,0,0,0,0,0,-1,1721,1688,0,0
504,-664,0,0,0,0,0,0,0,0,0,-1,1728,1688,0,0
511,-664,0,0,0,0,0,0,0,0,0,-1,1735,1688,0,0
518,-664,0,0,0,0,0,0,0,0,0,-1,1742,1688,0,0
525,-664,0,0,0,0,0,0,0,0,0,-1,1749,1688,0,0
532,-664,0,0,0,0,0,0,0,0,0,-1,1756,1688,0,0
539,-664,0,0,0,0,0,0,0,0,0,-1,1763,1688,0,0
546,-664,0,0,0,0,0,0,0,0,0,-1,1770,1688,0,0
553,-664,0,0,0,0,0,0,0,0,0,-1,1777,1688,0,0
560,-664,0,0,0,0,0,0,0,0,0,-1,1784,1688,0,0
567,-664,0,0,0,0,0,0,0,0,0,-1,1791,1688,0,0
574,-664,0,0,0,0,0,0,0,0,0,-1,1798,1688,0,0
581,-664,0,0,0,0,0,0,0,0,0,-1,1805,1688,0,0
588,-664,0,0,0,0,0,0,0,0,0,-1,1812,1688,0,0
595,-664,0,0,0,0,0,0,0,0,0,-1,1819,1688,0,0
602,-664,0,0,0,0,0,0,0,0,0,-1,1826,1688,0,0
609,-664,0,0,0,0,0,0,0,0,0,-1,1833,1688,0,0
616,-664,0,0,0,0,0,0,0,0,0,-1,1840,1688,0,0
623,-664,0,0,0,0,0,0,0,0,0,-1,1847,1688,0,0
630,-664,0,0,0,0,0,0,0,0,0,-1,1854,1688,0,0
637,-664,0,0,0,0,0,0,0,0,0,-1,1861,1688,0,0
644,-664,0,0,0,0,0,0,0,0,0,-1,1868,1688,0,0
651,-664,0,0,0,0,0,0,0,0,0,-1,1875,1688,0,0
658,-664,0,0,0,0,0,0,0,0,0,-1,1882,1688,0,0
665,-664,0,0,0,0,0,0,0,0,0,-1,1889,1688,0,0
672,-664,0,0,0,0,0,0,0,0,0,-1,1896,1688,0,0
679,-664,0,0,0,0,0,0,0,0,0,-1,1903,1688,0,0
686,-664,0,0,0,0,0,0,0,0,0,-1,1910,1688,0,0
693,-664,0,0,0,0,0,0,0,0,0,-1,1917,1688,0,0
700,-664,0,0,0,0,0,0,0,0,0,-1,1924,1688,0,0
707,-664,0,0,0,0,0,0,0,0,0,-1,1931,1688,0,0
714,-664,0,0,0,0,0,0,0,0,0,-1,1938,1688,0,0
721,-664,0,0,0,0,0,0,0,0,0,-1,1945,1688,0,0
728,-664,0,0,0,0,0,0,0,0,0,-1,1952,1688,0,0
735,-664,0,0,0,0,0,0,0,0,0,-1,1959,1688,0,0
742,-664,0,0,0,0,0,0,0,0,0,-1,1966,1688,0,0
749,-664,0,0,0,0,0,0,0,0,0,-1,1973,1688,0,0
756,-664,0,0,0,0,0,0,0,0,0,-1,1980,1688,0,0
763,-664,0,0,0,0,0,0,0,0,0,-1,1987,1688,0,0
770,-664,0,0,0,0,0,0,0,0,0,-1,1994,1688,0,0
777,-664,0,0,0,0,0,0,0,0,0,-1,2001,1688,0,0
784,-664,0,0,0,0,0,0,0,0,0,-1,2008,1688,0,0
791,-664,0,0,0,0,0,0,0,0,0,-1,2015,1688,0,0
798,-664,0,0,0,0,0,0,0,0,0,-1,2022,1688,0,0
805,-664,0,0,0,0,0,0,0,0,0,-1,2029,1688,0,0
812,-664,0,0,0,0,0,0,0,0,0,-1,2036,1688,0,0
-700,-671,0,0,0,0,0,0,0,0,0,-1,524,1695,0,0
-693,-671,0,0,0,0,0,0,0,0,0,-1,531,1695,0,0
-686,-671,0,0,0,0,0,0,0,0,0,-1,538,1695,0,0
-679,-671,0,0,0,0,0,0,0,0,0,-1,545,1695,0,0
-672,-671,0,0,0,0,0,0,0,0,0,-1,552,1695,0,0
-665,-671,0,0,0,0,0,0,0,0,0,-1,559,1695,0,0
-658,-671,0,0,0,0,0,0,0,0,0,-1,566,1695,0,0
-651,-671,0,0,0,0,0,0,0,0,0,-1,573,1695,0,0
-644,-671,0,0,0,0,0,0,0,0,0,-1,580,1695,0,0
-637,-671,0,0,0,0,0,0,0,0,0,-1,587,1695,0,0
-630,-671,0,0,0,0,0,0,0,0,0,-1,594,1695,0,0
-623,-671,0,0,0,0,0,0,0,0,0,-1,601,1695,0,0
-616,-671,0,0,0,0,0,0,0,0,0,-1,608,1695,0,0
-609,-671,0,0,0,0,0,0,0,0,0,-1,615,1695,0,0
-602,-671,0,0,0,0,0,0,0,0,0,-1,622,1695,0,0
-595,-671,0,0,0,0,0,0,0,0,0,-1,629,1695,0,0
-588,-671,0,0,0,0,0,0,0,0,0,-1,636,1695,0,0
-581,-671,0,0,0,0,0,0,0,0,0,-1,643,1695,0,0
-574,-671,0,0,0,0,0,0,0,0,0,-1,650,1695,0,0
-567,-671,0,0,0,0,0,0,0,0,0,-1,657,1695,0,0
-560,-671,0,0,0,0,0,0,0,0,0,-1,664,1695,0,0
-553,-671,0,0,0,0,0,0,0,0,0,-1,671,1695,0,0
-546,-671,0,0,0,0,0,0,0,0,0,-1,678,1695,0,0
-539,-671,0,0,0,0,0,0,0,0,0,-1,685,1695,0,0
-532,-671,0,0,0,0,0,0,0,0,0,-1,692,1695,0,0
-525,-671,0,0,0,0,0,0,0,0,0,-1,699,1695,0,0
-518,-671,0,0,0,0,0,0,0,0,0,-1,706,1695,0,0
-511,-671,0,0,0,0,0,0,0,0,0,-1,713,1695,0,0
-504,-671,0,0,0,0,0,0,0,0,0,-1,720,1695,0,0
-497,-671,0,0,0,0,0,0,0,0,0,-1,727,1695,0,0
-490,-671,0,0,0,0,0,0,0,0,0,-1,734,1695,0,0
-483,-671,0,0,0,0,0,0,0,0,0,-1,741,1695,0,0
-476,-671,0,0,0,0,0,0,0,0,0,-1,748,1695,0,0
-469,-671,0,0,0,0,0,0,0,0,0,-1,755,1695,0,0
-462,-671,0,0,0,0,0,0,0,0,0,-1,762,1695,0,0
-455,-671,0,0,0,0,0,0,0,0,0,-1,769,1695,0,0
-448,-671,0,0,0,0,0,0,0,0,0,-1,776,1695,0,0
-441,-671,0,0,0,0,0,0,0,0,0,-1,783,1695,0,0
-434,-671,0,0,0,0,0,0,0,0,0,-1,790,1695,0,0
-427,-671,0,0,0,0,0,0,0,0,0,-1,797,1695,0,0
-420,-671,0,0,0,0,0,0,0,0,0,-1,804,1695,0,0
-413,-671,0,0,0,0,0,0,0,0,0,-1,811,1695,0,0
-406,-671,0,0,0,0,0,0,0,0,0,-1,818,1695,0,0
-399,-671,0,0,0,0,0,0,0,0,0,-1,825,1695,0,0
-392,-671,0,0,0,0,0,0,0,0,0,-1,832,1695,0,0
-385,-671,0,0,0,0,0,0,0,0,0,-1,839,1695,0,0
-378,-671,0,0,0,0,0,0,0,0,0,-1,846,1695,0,0
-371,-671,0,0,0,0,0,0,0,0,0,-1,853,1695,0,0
-364,-671,-4.18738,7.51416,0,0,0,0,0,0,0,-1,860,1695,-4.18739,-7.51419
-357,-671,-5.02393,6.07129,0,0,0,0,0,0,0,-1,867,1695,-5.0239,-6.07135
-350,-671,-5.72333,4.58386,0,0,0,0,0,0,0,-1,874,1695,-5.72333,-4.58386
-343,-671,-6.4884,3.11353,0,0,0,0,0,0,0,-1,881,1695,-6.48839,-3.11349
-336,-671,-7.30127,1.64417,0,0,0,0,0,0,0,-1,888,1695,-7.30127,-1.64414
-329,-671,4.83337,12.1239,0,0,0,0,0,0,0,-1,895,1695,4.8334,-12.1239
-322,-671,5.02826,13.2017,0,0,0,0,0,0,0,-1,902,1695,5.02824,-13.2016
-315,-671,3.65344,15.0338,0,0,0,0,0,0,0,-1,909,1695,3.65347,-15.0338
-308,-671,4.3551,15.5834,0,0,0,0,0,0,0,-1,916,1695,4.35509,-15.5834
-301,-671,6.35217,16.4341,0,0,0,0,0,0,0,-1,923,1695,6.35217,-16.434
-294,-671,4.51288,15.7236,0,0,0,0,0,0,0,-1,930,1695,4.51286,-15.7236
-287,-671,4.62671,16.0291,-0.0246694,-0.0346866,-0.00372931,-0.0234335,-0.0359225,-0.320011,0.0210583,0.0461442,937,1695,4.6267,-16.0291
-280,-671,4.63464,16.3304,-0.0218627,-0.0315759,-0.00400801,-0.0204224,-0.0330162,-0.344979,0.0192397,0.0390197,944,1695,4.63466,-16.3304
-273,-671,4.57111,16.4714,-0.0187411,-0.0278634,-0.00397202,-0.017254,-0.0293505,-0.358232,0.0170325,0.035334,951,1695,4.57112,-16.4714
-266,-671,4.5849,16.7279,-0.0155283,-0.0240988,-0.00371879,-0.0141397,-0.0254874,-0.357372,0.0147446,0.0256314,958,1695,4.58489,-16.7279
-259,-671,4.42853,16.9176,-0.0127688,-0.0202607,-0.00355883,-0.0113478,-0.0216817,-0.379895,0.0125225,0.0235474,965,1695,4.42852,-16.9175
-252,-671,4.41028,17.0917,-0.00980429,-0.0164432,-0.00302598,-0.00863205,-0.0176154,-0.36959,0.010171,0.0169722,972,1695,4.41029,-17.0917
-245,-671,4.42224,17.3051,-0.00644733,-0.0128643,-0.00230545,-0.00570493,-0.0136067,-0.311532,0.0078899,0.0196365,979,1695,4.42227,-17.305
-238,-671,4.4444,17.5345,-0.00386289,-0.00984582,-0.00171908,-0.00340412,-0.0103046,-0.26079,0.00606243,0.0201902,986,1695,4.44438,-17.5346
-231,-671,4.44611,17.7422,-0.00224014,-0.00749544,-0.00111099,-0.00201493,-0.00772066,-0.200006,0.00462418,0.0158877,993,1695,4.44608,-17.7422
-224,-671,4.40308,17.9434,-0.000666422,-0.00491615,-0.000518938,-0.000603972,-0.0049786,-0.119767,0.00313718,0.0122336,1000,1695,4.40306,-17.9434
-217,-671,4.4057,18.1489,0.000171547,-0.00376137,-0.000189182,0.000180626,-0.00377044,-0.0479547,0.00257595,0.011146,1007,1695,4.40567,-18.149
-210,-671,4.40253,18.329,0.000529484,-0.00336634,4.87668e-05,0.000530095,-0.00336695,0.0125151,0.00244059,0.0110066,1014,1695,4.4025,-18.329
-203,-671,4.40381,18.5157,0.000742814,-0.00298107,0.00018044,0.000751536,-0.00298979,0.048304,0.00228528,0.0189207,1021,1695,4.40375,-18.5158
-196,-671,4.4043,18.6976,0.000881288,-0.00258069,0.000271955,0.000902521,-0.00260192,0.0779179,0.00210109,0.0164101,1028,1695,4.40432,-18.6976
-189,-671,4.41675,18.8909,0.000826447,-0.00255056,0.000205812,0.000838944,-0.00256306,0.0606459,0.0020465,0.0121869,1035,1695,4.41676,-18.8909
-182,-671,4.41113,19.0653,0.000656923,-0.00262357,-8.219e-06,0.000656944,-0.00262359,-0.00250539,0.00200426,0.00972249,1042,1695,4.41117,-19.0654
-175,-671,4.40747,19.2328,0.000732813,-0.00262319,-0.000147567,0.000739289,-0.00262967,-0.0438582,0.00204459,0.0121858,1049,1695,4.40742,-19.2328
-168,-671,4.41553,19.3983,0.000695601,-0.00289025,-0.000383404,0.000736137,-0.00293078,-0.105335,0.00223992,0.0127479,1056,1695,4.41547,-19.3983
-161,-671,4.41821,19.5719,0.000723955,-0.00334336,-0.000536668,0.000793575,-0.00341298,-0.129005,0.00258084,0.00875422,1063,1695,4.41819,-19.5718
-154,-671,4.42078,19.7189,0.000781673,-0.00385195,-0.000712814,0.00088885,-0.00395913,-0.149239,0.00298022,0.00820144,1070,1695,4.42074,-19.7189
-147,-671,4.43188,19.8788,0.000795217,-0.00461036,-0.00076362,0.00090102,-0.00471616,-0.137677,0.00348351,0.0098052,1077,1695,4.43192,-19.8788
-140,-671,4.45581,20.0433,0.000914335,-0.00557595,-0.000841439,0.00102165,-0.00568327,-0.126852,0.00417131,0.0110788,1084,1695,4.45577,-20.0433
-133,-671,4.46606,20.1782,0.00126805,-0.00657667,-0.000757557,0.00134054,-0.00664915,-0.0953945,0.00494061,0.0124633,1091,1695,4.46605,-20.1783
-126,-671,4.48853,20.3337,0.00163202,-0.00750679,-0.000471034,0.00165623,-0.007531,-0.0513607,0.00565419,0.0157955,1098,1695,4.48857,-20.3337
-119,-671,4.53027,20.4822,0.00198236,-0.00841602,-0.000166235,0.00198502,-0.00841868,-0.0159812,0.00637794,0.0285364,1105,1695,4.5303,-20.4822
-112,-671,4.56677,20.6675,0.00221432,-0.00933677,6.10977e-05,0.00221464,-0.00933709,0.00528915,0.00707937,0.0398722,1112,1695,4.56672,-20.6675
-105,-671,4.48816,20.7365,0,0,0,0,0,0,0,-1,1119,1695,4.48814,-20.7364
-98,-671,4.82886,20.6256,0.00249939,-0.011149,0.000890763,0.00255728,-0.0112069,0.064898,0.00845364,0.0445939,1126,1695,4.82892,-20.6256
-91,-671,4.62756,20.5924,0.00244039,-0.0116027,0.0012842,0.00255686,-0.0117191,0.0904478,0.0087899,0.0457591,1133,1695,4.62762,-20.5924
-84,-671,4.60095,20.5277,0,0,0,0,0,0,0,-1,1140,1695,4.60101,-20.5277
-77,-671,4.31763,16.489,0,0,0,0,0,0,0,-1,1147,1695,4.31757,-16.489
-70,-671,3.06067,10.7737,0,0,0,0,0,0,0,-1,1154,1695,3.0607,-10.7737
-63,-671,2.94592,6.90198,0,0,0,0,0,0,0,-1,1161,1695,2.94594,-6.90198
-56,-671,-3.07678,2.87976,0,0,0,0,0,0,0,-1,1168,1695,-3.07675,-2.87979
-49,-671,-1.05957,4.76917,0,0,0,0,0,0,0,-1,1175,1695,-1.05958,-4.76921
-42,-671,0.539307,3.7865,0,0,0,0,0,0,0,-1,1182,1695,0.539266,-3.78648
-35,-671,-0.272461,0.347534,0,0,0,0,0,0,0,-1,1189,1695,-0.272434,-0.347569
-28,-671,-10.4878,17.2009,0,0,0,0,0,0,0,-1,1196,1695,-10.4878,-17.2009
-21,-671,-8.15295,24.1367,0,0,0,0,0,0,0,-1,1203,1695,-8.15298,-24.1367
-14,-671,5.17188,21.7126,0,0,0,0,0,0,0,-1,1210,1695,5.17193,-21.7126
-7,-671,5.79126,21.5466,0.0336544,-0.0496932,0.0312949,0.0440966,-0.0601354,0.322054,0.0604154,0.04496,1217,1695,5.79131,-21.5466
0,-671,5.33704,21.8363,0.0370043,-0.0471854,0.0309219,0.0471411,-0.0573222,0.316779,0.0604073,0.043878,1224,1695,5.33699,-21.8363
7,-671,4.54089,22.3528,0.0429244,-0.0442554,0.0312815,0.0529872,-0.0543182,0.311231,0.0619544,0.041303,1231,1695,4.54089,-22.3528
14,-671,4.86182,22.5603,0.0484099,-0.0418041,0.0328723,0.0591172,-0.0525113,0.314885,0.0644864,0.045172,1238,1695,4.86187,-22.5603
21,-671,5.35608,22.9131,0.0508657,-0.0396637,0.034162,0.0623102,-0.0511083,0.323257,0.0655886,0.0461807,1245,1695,5.35606,-22.913
28,-671,6.31104,23.1193,0.0513555,-0.0364156,0.0348883,0.0635336,-0.0485937,0.335838,0.064928,0.0495609,1252,1695,6.31103,-23.1192
35,-671,7.00928,23.1722,0,0,0,0,0,0,0,-1,1259,1695,7.00928,-23.1723
42,-671,6.43555,23.828,0.0466848,-0.0303078,0.0370163,0.0615942,-0.0452172,0.382901,0.0619087,0.0465182,1266,1695,6.43553,-23.828
49,-671,6.80042,20.5906,0.0418486,-0.0257599,0.037219,0.0583234,-0.0422347,0.416721,0.0583044,0.0439885,1273,1695,6.8004,-20.5906
56,-671,5.84229,20.8424,0.0350691,-0.0210941,0.0374235,0.0537753,-0.0398003,0.463529,0.0542264,0.0459395,1280,1695,5.84231,-20.8425
63,-671,5.69373,20.9504,0.024172,-0.0143177,0.0362022,0.0459267,-0.0360724,0.541097,0.047456,0.0476941,1287,1695,5.69375,-20.9504
70,-671,5.80444,21.9563,0.0116312,-0.00784125,0.0342324,0.037485,-0.033695,0.646849,0.0411152,0.0473083,1294,1695,5.80439,-21.9563
77,-671,4.28784,21.5087,0,0,0,0,0,0,0,-1,1301,1695,4.28785,-21.5086
84,-671,3.97668,22.4146,0,0,0,0,0,0,0,-1,1308,1695,3.97665,-22.4145
91,-671,5.53784,24.5093,0,0,0,0,0,0,0,-1,1315,1695,5.53784,-24.5093
98,-671,6.12854,20.423,0,0,0,0,0,0,0,-1,1322,1695,6.12849,-20.4229
105,-671,6.18164,21.1219,0,0,0,0,0,0,0,-1,1329,1695,6.18164,-21.122
112,-671,6.23022,21.8079,-0.0509611,0.057654,0.00473608,0.0578601,-0.0511672,1.5273,0.0629865,0.0412708,1336,1695,6.23019,-21.8078
119,-671,5.76013,22.5049,-0.0562931,0.0734261,-0.00312878,0.0735015,-0.0563685,-1.5467,0.0751977,0.0438313,1343,1695,5.76012,-22.5049
126,-671,4.62634,22.9307,0,0,0,0,0,0,0,-1,1350,1695,4.62632,-22.9306
133,-671,3.66211,23.3655,0,0,0,0,0,0,0,-1,1357,1695,3.66209,-23.3655
140,-671,7.51599,21.7432,-0.0572872,0.129201,-0.0258316,0.132713,-0.0607992,-1.43567,0.114267,0.0463372,1364,1695,7.51601,-21.7432
147,-671,7.42798,21.9526,-0.0554223,0.1473,-0.033632,0.152734,-0.0608563,-1.41061,0.127062,0.0492884,1371,1695,7.42793,-21.9526
154,-671,7.26038,22.1982,0,0,0,0,0,0,0,-1,1378,1695,7.26038,-22.1983
161,-671,4.49292,4.91272,0,0,0,0,0,0,0,-1,1385,1695,4.49297,-4.91273
168,-671,5.17639,6.1416,0,0,0,0,0,0,0,-1,1392,1695,5.1764,-6.14164
175,-671,5.6731,1.64685,0,0,0,0,0,0,0,-1,1399,1695,5.67313,-1.64691
182,-671,5.56812,1.71692,0,0,0,0,0,0,0,-1,1406,1695,5.56809,-1.71686
189,-671,6.98315,6.36169,0,0,0,0,0,0,0,-1,1413,1695,6.98312,-6.36175
196,-671,5.38123,5.69775,0,0,0,0,0,0,0,-1,1420,1695,5.38125,-5.69769
203,-671,5.95117,8.11658,0,0,0,0,0,0,0,-1,1427,1695,5.9512,-8.11662
210,-671,4.73596,8.39624,0,0,0,0,0,0,0,-1,1434,1695,4.736,-8.39618
217,-671,5.37097,11.863,0,0,0,0,0,0,0,-1,1441,1695,5.37094,-11.863
224,-671,5.08167,13.6694,0,0,0,0,0,0,0,-1,1448,1695,5.08165,-13.6695
231,-671,5.66663,15.3348,0,0,0,0,0,0,0,-1,1455,1695,5.66667,-15.3349
238,-671,6.32959,16.2036,0,0,0,0,0,0,0,-1,1462,1695,6.32961,-16.2037
245,-671,6.28101,18.324,0,0,0,0,0,0,0,-1,1469,1695,6.28098,-18.3239
252,-671,6.30981,20.4602,0,0,0,0,0,0,0,-1,1476,1695,6.3098,-20.4602
259,-671,6.22363,20.3176,0,0,0,0,0,0,0,-1,1483,1695,6.22364,-20.3177
266,-671,6.29822,20.5317,0.0051227,-0.00345138,5.57747e-05,0.00512307,-0.00345174,0.00650466,0.00498192,0.0308516,1490,1695,6.29826,-20.5317
273,-671,6.35046,20.473,0.00508634,-0.0031905,-0.000128253,0.00508833,-0.00319249,-0.0154905,0.00482252,0.0113877,1497,1695,6.35047,-20.473
280,-671,6.34949,20.3757,0.00484571,-0.00287843,-7.38844e-05,0.00484642,-0.00287913,-0.00956423,0.0045083,0.00933417,1504,1695,6.34954,-20.3757
287,-671,6.3623,20.1951,0.00440609,-0.00223319,-3.84468e-05,0.00440631,-0.00223341,-0.00579056,0.00390127,0.0111005,1511,1695,6.36232,-20.1951
294,-671,6.37183,20.0435,0.00387864,-0.00174147,-1.08046e-05,0.00387866,-0.00174149,-0.00192248,0.00332207,0.0110586,1518,1695,6.37181,-20.0435
301,-671,6.37952,19.9347,0.00336697,-0.00132203,-1.52196e-05,0.00336702,-0.00132208,-0.00324576,0.00279175,0.0104118,1525,1695,6.37948,-19.9347
308,-671,6.39124,19.793,0.00294872,-0.000864331,-0.000106769,0.00295171,-0.000867318,-0.0279717,0.00231179,0.0107658,1532,1695,6.39123,-19.793
315,-671,6.41138,19.6442,0.00264026,-0.000513862,-0.000214643,0.0026548,-0.000528402,-0.0676359,0.00196977,0.0117805,1539,1695,6.41141,-19.6442
322,-671,6.40076,19.4969,0.00271912,-0.000158728,-0.000309621,0.00275205,-0.000191662,-0.105972,0.00190181,0.0139346,1546,1695,6.40074,-19.497
329,-671,6.36914,19.3337,0.00307056,0.000228188,-0.000441224,0.00313747,0.000161272,-0.150514,0.00204002,0.0137586,1553,1695,6.3691,-19.3337
336,-671,6.39246,19.1649,0.00352962,0.000536061,-0.000610151,0.00364921,0.000416477,-0.193539,0.00230655,0.0107566,1560,1695,6.39246,-19.165
343,-671,6.41089,19.0031,0.00414846,0.000686189,-0.000764793,0.00430987,0.000524776,-0.208002,0.00271528,0.00987167,1567,1695,6.41094,-19.0031
350,-671,6.41992,18.8273,0.00492449,0.000750311,-0.000964609,0.00513662,0.00053818,-0.216468,0.00325986,0.00979355,1574,1695,6.41997,-18.8273
357,-671,6.40759,18.6295,0.00574575,0.000845282,-0.00101595,0.00594803,0.000643007,-0.196529,0.00376934,0.0097582,1581,1695,6.40756,-18.6296
364,-671,6.38843,18.4509,0.00667648,0.000803206,-0.00105153,0.00685906,0.000620618,-0.171925,0.00438052,0.0120504,1588,1695,6.3884,-18.4509
371,-671,6.38611,18.2821,0.00757861,0.000670693,-0.00104485,0.00773319,0.000516115,-0.146878,0.00499232,0.0137676,1595,1695,6.38611,-18.2821
378,-671,6.39038,18.0999,0.00833851,0.000314125,-0.00111889,0.0084916,0.000161031,-0.135982,0.00560816,0.011679,1602,1695,6.39044,-18.0999
385,-671,6.39063,17.915,0.0087978,-8.8527e-05,-0.00131565,0.00898849,-0.000279222,-0.143941,0.00608754,0.0136677,1609,1695,6.39061,-17.9151
392,-671,6.33435,17.7568,0.00877512,-0.000180892,-0.00153229,0.00903002,-0.000435798,-0.164846,0.00617041,0.020658,1616,1695,6.3343,-17.7568
399,-671,6.31104,17.4995,0.0080717,-0.000642009,-0.00162968,0.00836652,-0.000936826,-0.178969,0.00591473,0.0197448,1623,1695,6.31099,-17.4995
406,-671,6.36548,17.2358,0.0063958,-0.00125329,-0.00124003,0.0065918,-0.0014493,-0.156767,0.00494889,0.0279129,1630,1695,6.36546,-17.2358
413,-671,6.41174,17.1626,0.00445722,-0.00174868,-0.000857297,0.00457347,-0.00186493,-0.13478,0.00382528,0.0368574,1637,1695,6.41173,-17.1626
420,-671,6.5116,16.9425,0,0,0,0,0,0,0,-1,1644,1695,6.51162,-16.9425
427,-671,6.92188,17.1868,0,0,0,0,0,0,0,-1,1651,1695,6.92193,-17.1868
434,-671,6.81982,16.6078,0,0,0,0,0,0,0,-1,1658,1695,6.81981,-16.6078
441,-671,6.36658,15.9032,0,0,0,0,0,0,0,-1,1665,1695,6.36662,-15.9031
448,-671,6.11865,15.4597,0,0,0,0,0,0,0,-1,1672,1695,6.11868,-15.4597
455,-671,3.40137,9.28076,0,0,0,0,0,0,0,-1,1679,1695,3.40135,-9.28082
462,-671,5.86255,4.47961,0,0,0,0,0,0,0,-1,1686,1695,5.8625,-4.4796
469,-671,3.71301,3.76978,0,0,0,0,0,0,0,-1,1693,1695,3.71297,-3.76974
476,-671,3.75574,3.18848,0,0,0,0,0,0,0,-1,1700,1695,3.7558,-3.18847
483,-671,7.81824,12.1041,0,0,0,0,0,0,0,-1,1707,1695,7.81826,-12.1041
490,-671,0,0,0,0,0,0,0,0,0,-1,1714,1695,0,0
497,-671,0,0,0,0,0,0,0,0,0,-1,1721,1695,0,0
504,-671,0,0,0,0,0,0,0,0,0,-1,1728,1695,0,0
511,-671,0,0,0,0,0,0,0,0,0,-1,1735,1695,0,0
518,-671,0,0,0,0,0,0,0,0,0,-1,1742,1695,0,0
525,-671,0,0,0,0,0,0,0,0,0,-1,1749,1695,0,0
532,-671,0,0,0,0,0,0,0,0,0,-1,1756,1695,0,0
539,-671,0,0,0,0,0,0,0,0,0,-1,1763,1695,0,0
546,-671,0,0,0,0,0,0,0,0,0,-1,1770,1695,0,0
553,-671,0,0,0,0,0,0,0,0,0,-1,1777,1695,0,0
560,-671,0,0,0,0,0,0,0,0,0,-1,1784,1695,0,0
567,-671,0,0,0,0,0,0,0,0,0,-1,1791,1695,0,0
574,-671,0,0,0,0,0,0,0,0,0,-1,1798,1695,0,0
581,-671,0,0,0,0,0,0,0,0,0,-1,1805,1695,0,0
588,-671,0,0,0,0,0,0,0,0,0,-1,1812,1695,0,0
595,-671,0,0,0,0,0,0,0,0,0,-1,1819,1695,0,0
602,-671,0,0,0,0,0,0,0,0,0,-1,1826,1695,0,0
609,-671,0,0,0,0,0,0,0,0,0,-1,1833,1695,0,0
616,-671,0,0,0,0,0,0,0,0,0,-1,1840,1695,0,0
623,-671,0,0,0,0,0,0,0,0,0,-1,1847,1695,0,0
630,-671,0,0,0,0,0,0,0,0,0,-1,1854,1695,0,0
637,-671,0,0,0,0,0,0,0,0,0,-1,1861,1695,0,0
644,-671,0,0,0,0,0,0,0,0,0,-1,1868,1695,0,0
651,-671,0,0,0,0,0,0,0,0,0,-1,1875,1695,0,0
658,-671,0,0,0,0,0,0,0,0,0,-1,1882,1695,0,0
665,-671,0,0,0,0,0,0,0,0,0,-1,1889,1695,0,0
672,-671,0,0,0,0,0,0,0,0,0,-1,1896,1695,0,0
679,-671,0,0,0,0,0,0,0,0,0,-1,1903,1695,0,0
686,-671,0,0,0,0,0,0,0,0,0,-1,1910,1695,0,0
693,-671,0,0,0,0,0,0,0,0,0,-1,1917,1695,0,0
700,-671,0,0,0,0,0,0,0,0,0,-1,1924,1695,0,0
707,-671,0,0,0,0,0,0,0,0,0,-1,1931,1695,0,0
714,-671,0,0,0,0,0,0,0,0,0,-1,1938,1695,0,0
721,-671,0,0,0,0,0,0,0,0,0,-1,1945,1695,0,0
728,-671,0,0,0,0,0,0,0,0,0,-1,1952,1695,0,0
735,-671,0,0,0,0,0,0,0,0,0,-1,1959,1695,0,0
742,-671,0,0,0,0,0,0,0,0,0,-1,1966,1695,0,0
749,-671,0,0,0,0,0,0,0,0,0,-1,1973,1695,0,0
756,-671,0,0,0,0,0,0,0,0,0,-1,1980,1695,0,0
763,-671,0,0,0,0,0,0,0,0,0,-1,1987,1695,0,0
770,-671,0,0,0,0,0,0,0,0,0,-1,1994,1695,0,0
777,-671,0,0,0,0,0,0,0,0,0,-1,2001,1695,0,0
784,-671,0,0,0,0,0,0,0,0,0,-1,2008,1695,0,0
791,-671,0,0,0,0,0,0,0,0,0,-1,2015,1695,0,0
798,-671,0,0,0,0,0,0,0,0,0,-1,2022,1695,0,0
805,-671,0,0,0,0,0,0,0,0,0,-1,2029,1695,0,0
812,-671,0,0,0,0,0,0,0,0,0,-1,2036,1695,0,0
-700,-678,0,0,0,0,0,0,0,0,0,-1,524,1702,0,0
-693,-678,0,0,0,0,0,0,0,0,0,-1,531,1702,0,0
-686,-678,0,0,0,0,0,0,0,0,0,-1,538,1702,0,0
-679,-678,0,0,0,0,0,0,0,0,0,-1,545,1702,0,0
-672,-678,0,0,0,0,0,0,0,0,0,-1,552,1702,0,0
-665,-678,0,0,0,0,0,0,0,0,0,-1,559,1702,0,0
-658,-678,0,0,0,0,0,0,0,0,0,-1,566,1702,0,0
-651,-678,0,0,0,0,0,0,0,0,0,-1,573,1702,0,0
-644,-678,0,0,0,0,0,0,0,0,0,-1,580,1702,0,0
-637,-678,0,0,0,0,0,0,0,0,0,-1,587,1702,0,0
-630,-678,0,0,0,0,0,0,0,0,0,-1,594,1702,0,0
-623,-678,0,0,0,0,0,0,0,0,0,-1,601,1702,0,0
-616,-678,0,0,0,0,0,0,0,0,0,-1,608,1702,0,0
-609,-678,0,0,0,0,0,0,0,0,0,-1,615,1702,0,0
-602,-678,0,0,0,0,0,0,0,0,0,-1,622,1702,0,0
-595,-678,0,0,0,0,0,0,0,0,0,-1,629,1702,0,0
-588,-678,0,0,0,0,0,0,0,0,0,-1,636,1702,0,0
-581,-678,0,0,0,0,0,0,0,0,0,-1,643,1702,0,0
-574,-678,0,0,0,0,0,0,0,0,0,-1,650,1702,0,0
-567,-678,0,0,0,0,0,0,0,0,0,-1,657,1702,0,0
-560,-678,0,0,0,0,0,0,0,0,0,-1,664,1702,0,0
-553,-678,0,0,0,0,0,0,0,0,0,-1,671,1702,0,0
-546,-678,0,0,0,0,0,0,0,0,0,-1,678,1702,0,0
-539,-678,0,0,0,0,0,0,0,0,0,-1,685,1702,0,0
-532,-678,0,0,0,0,0,0,0,0,0,-1,692,1702,0,0
-525,-678,0,0,0,0,0,0,0,0,0,-1,699,1702,0,0
-518,-678,0,0,0,0,0,0,0,0,0,-1,706,1702,0,0
-511,-678,0,0,0,0,0,0,0,0,0,-1,713,1702,0,0
-504,-678,0,0,0,0,0,0,0,0,0,-1,720,1702,0,0
-497,-678,0,0,0,0,0,0,0,0,0,-1,727,1702,0,0
-490,-678,0,0,0,0,0,0,0,0,0,-1,734,1702,0,0
-483,-678,0,0,0,0,0,0,0,0,0,-1,741,1702,0,0
-476,-678,0,0,0,0,0,0,0,0,0,-1,748,1702,0,0
-469,-678,0,0,0,0,0,0,0,0,0,-1,755,1702,0,0
-462,-678,0,0,0,0,0,0,0,0,0,-1,762,1702,0,0
-455,-678,0,0,0,0,0,0,0,0,0,-1,769,1702,0,0
-448,-678,0,0,0,0,0,0,0,0,0,-1,776,1702,0,0
-441,-678,0,0,0,0,0,0,0,0,0,-1,783,1702,0,0
-434,-678,0,0,0,0,0,0,0,0,0,-1,790,1702,0,0
-427,-678,0,0,0,0,0,0,0,0,0,-1,797,1702,0,0
-420,-678,0,0,0,0,0,0,0,0,0,-1,804,1702,0,0
-413,-678,0,0,0,0,0,0,0,0,0,-1,811,1702,0,0
-406,-678,0,0,0,0,0,0,0,0,0,-1,818,1702,0,0
-399,-678,0,0,0,0,0,0,0,0,0,-1,825,1702,0,0
-392,-678,0,0,0,0,0,0,0,0,0,-1,832,1702,0,0
-385,-678,0,0,0,0,0,0,0,0,0,-1,839,1702,0,0
-378,-678,0,0,0,0,0,0,0,0,0,-1,846,1702,0,0
-371,-678,0,0,0,0,0,0,0,0,0,-1,853,1702,0,0
-364,-678,0,0,0,0,0,0,0,0,0,-1,860,1702,0,0
-357,-678,0,0,0,0,0,0,0,0,0,-1,867,1702,0,0
-350,-678,-5.79944,6.11865,0,0,0,0,0,0,0,-1,874,1702,-5.79942,-6.11864
-343,-678,-6.44891,4.52759,0,0,0,0,0,0,0,-1,881,1702,-6.4489,-4.52758
-336,-678,-6.91888,2.99438,0,0,0,0,0,0,0,-1,888,1702,-6.9189,-2.99435
-329,-678,-7.14575,1.29761,0,0,0,0,0,0,0,-1,895,1702,-7.14577,-1.29755
-322,-678,4.74548,15.4724,0,0,0,0,0,0,0,-1,902,1702,4.7455,-15.4724
-315,-678,6.41016,13.9333,0,0,0,0,0,0,0,-1,909,1702,6.41013,-13.9333
-308,-678,7.46722,16.7854,0,0,0,0,0,0,0,-1,916,1702,7.4672,-16.7854
-301,-678,6.67804,16.9756,-0.0411997,-0.0545661,-0.00465252,-0.0397397,-0.0560261,-0.304068,0.033278,0.0445858,923,1702,6.67803,-16.9756
-294,-678,5.87933,17.1791,-0.0387361,-0.0525801,-0.0054283,-0.0368615,-0.0544547,-0.33252,0.0320888,0.0494954,930,1702,5.87931,-17.1791
-287,-678,4.92297,16.0079,0,0,0,0,0,0,0,-1,937,1702,4.923,-16.008
-280,-678,4.84454,16.8958,-0.0311523,-0.0448363,-0.00597628,-0.0289097,-0.0470788,-0.35898,0.0274158,0.0454153,944,1702,4.84457,-16.8958
-273,-678,4.65228,16.5703,-0.026739,-0.0396359,-0.00582197,-0.0244996,-0.0418752,-0.367193,0.024293,0.0444105,951,1702,4.65227,-16.5703
-266,-678,4.74414,16.6886,-0.0222133,-0.0342549,-0.00540392,-0.0201439,-0.0363244,-0.365728,0.0210135,0.0357279,958,1702,4.74417,-16.6886
-259,-678,4.60529,16.938,-0.0182402,-0.0287655,-0.0050493,-0.0162097,-0.030796,-0.382357,0.0177883,0.0238575,965,1702,4.60529,-16.938
-252,-678,4.59631,17.1068,-0.0140205,-0.0234089,-0.00424144,-0.0123882,-0.0250413,-0.367387,0.0144578,0.0189339,972,1702,4.59632,-17.1069
-245,-678,4.64227,17.3258,-0.00943516,-0.0183921,-0.00325801,-0.00837546,-0.0194518,-0.314468,0.0112665,0.0181893,979,1702,4.64227,-17.3258
-238,-678,4.64789,17.5303,-0.00588346,-0.0140689,-0.00245876,-0.00520168,-0.0147507,-0.27049,0.00863874,0.0150675,986,1702,4.64792,-17.5303
-231,-678,4.60187,17.7526,-0.00347353,-0.0105251,-0.00159229,-0.00313065,-0.010868,-0.212098,0.00645978,0.0129486,993,1702,4.60187,-17.7526
-224,-678,4.57251,17.9348,-0.00114962,-0.00671709,-0.000760468,-0.00104762,-0.0068191,-0.133338,0.00424022,0.013136,1000,1702,4.57249,-17.9348
-217,-678,4.5838,18.1372,5.73681e-05,-0.0049351,-0.000295208,7.47633e-05,-0.0049525,-0.0588572,0.00332687,0.0137198,1007,1702,4.58379,-18.1372
-210,-678,4.58862,18.3464,0.000567214,-0.00426019,8.39132e-05,0.000568673,-0.00426165,0.0173757,0.00304839,0.0140517,1014,1702,4.58861,-18.3465
-203,-678,4.58508,18.531,0.000936454,-0.00350184,0.000367223,0.000966633,-0.00353202,0.0819966,0.00273445,0.0181085,1021,1702,4.58506,-18.531
-196,-678,4.56299,18.7079,0.0011796,-0.00275272,0.000595356,0.00126776,-0.00284088,0.147012,0.00242939,0.0173301,1028,1702,4.56295,-18.7078
-189,-678,4.59131,18.9034,0.00121256,-0.0023482,0.000623405,0.00131855,-0.00245419,0.168405,0.00221084,0.00978941,1035,1702,4.59127,-18.9035
-182,-678,4.59644,19.0771,0.00111332,-0.00209657,0.000488311,0.00118596,-0.00216921,0.147678,0.00196464,0.00944865,1042,1702,4.5964,-19.0771
-175,-678,4.57532,19.2596,0.00122827,-0.00173711,0.000442062,0.00129277,-0.00180161,0.144879,0.00179457,0.0104947,1049,1702,4.57528,-19.2596
-168,-678,4.57507,19.4293,0.00117554,-0.00173733,0.000238747,0.00119498,-0.00175677,0.0812402,0.00171445,0.00983238,1056,1702,4.57504,-19.4293
-161,-678,4.57056,19.5796,0.00110802,-0.00197159,6.60943e-05,0.00110944,-0.001973,0.0214488,0.00180278,0.00865119,1063,1702,4.5706,-19.5796
-154,-678,4.5697,19.7308,0.00107597,-0.00228331,-0.000137949,0.00108163,-0.00228897,-0.0409731,0.00198719,0.00828707,1070,1702,4.56973,-19.7308
-147,-678,4.5752,19.8833,0.000982312,-0.00280429,-0.00026801,0.00100119,-0.00282316,-0.0703113,0.00228999,0.00982543,1077,1702,4.57519,-19.8833
-140,-678,4.58765,20.0439,0.00100209,-0.00357488,-0.00040577,0.00103778,-0.00361058,-0.0877428,0.00281742,0.0109505,1084,1702,4.5876,-20.044
-133,-678,4.60986,20.1791,0.00125916,-0.00441996,-0.000397301,0.00128682,-0.00444762,-0.0695069,0.00347438,0.0112916,1091,1702,4.60987,-20.1791
-126,-678,4.62793,20.3119,0.00153557,-0.00517549,-0.000252048,0.00154502,-0.00518495,-0.0374867,0.00407058,0.00914863,1098,1702,4.62797,-20.3119
-119,-678,4.65051,20.5387,0.00179485,-0.00590343,-9.75121e-05,0.00179608,-0.00590466,-0.012664,0.00465218,0.0199956,1105,1702,4.65048,-20.5386
-112,-678,4.6571,20.7032,0.00198161,-0.00661965,2.16772e-05,0.00198166,-0.0066197,0.00252022,0.00520109,0.0291035,1112,1702,4.65715,-20.7032
-105,-678,4.72949,20.7775,0.00209702,-0.00733863,0.000268533,0.00210465,-0.00734627,0.0284287,0.0057294,0.0312656,1119,1702,4.7295,-20.7775
-98,-678,4.68066,20.7755,0.00227016,-0.00774114,0.000613113,0.00230757,-0.00777855,0.0609386,0.0061021,0.0236549,1126,1702,4.68067,-20.7755
-91,-678,4.71094,20.8943,0.00229834,-0.00795916,0.000881362,0.00237351,-0.00803433,0.0850926,0.00629828,0.0214211,1133,1702,4.71091,-20.8943
-84,-678,4.81641,20.8916,0.00262986,-0.00746505,0.0010367,0.00273522,-0.00757041,0.101287,0.00616439,0.0367173,1140,1702,4.81639,-20.8916
-77,-678,4.85901,21.0923,0,0,0,0,0,0,0,-1,1147,1702,4.85906,-21.0923
-70,-678,4.75891,19.6552,0,0,0,0,0,0,0,-1,1154,1702,4.75895,-19.6551
-63,-678,3.41687,11.0365,0,0,0,0,0,0,0,-1,1161,1702,3.41682,-11.0365
-56,-678,1.72388,6.13159,0,0,0,0,0,0,0,-1,1168,1702,1.72388,-6.13157
-49,-678,-0.241699,5.29895,0,0,0,0,0,0,0,-1,1175,1702,-0.241682,-5.29897
-42,-678,0.297119,3.90649,0,0,0,0,0,0,0,-1,1182,1702,0.297139,-3.90655
-35,-678,0.498413,3.64038,0,0,0,0,0,0,0,-1,1189,1702,0.498471,-3.64038
-28,-678,0.132446,3.55994,0,0,0,0,0,0,0,-1,1196,1702,0.132432,-3.55993
-21,-678,4.97778,21.8323,0,0,0,0,0,0,0,-1,1203,1702,4.97776,-21.8323
-14,-678,5.198,21.7667,0.0232875,-0.032696,0.0220593,0.0309349,-0.0403435,0.33371,0.0412719,0.0391039,1210,1702,5.19799,-21.7668
-7,-678,5.62524,21.6326,0.0257552,-0.0320732,0.0221412,0.0332588,-0.0395769,0.326754,0.0421044,0.040195,1217,1702,5.62526,-21.6325
0,-678,5.50781,21.9513,0.0285709,-0.029885,0.0218284,0.0358224,-0.0371365,0.320735,0.0421252,0.0456351,1224,1702,5.50783,-21.9513
7,-678,5.49658,22.0023,0,0,0,0,0,0,0,-1,1231,1702,5.49658,-22.0024
14,-678,4.91809,22.1818,0.0363938,-0.026553,0.0233652,0.0441187,-0.0342779,0.319302,0.045381,0.0478711,1238,1702,4.9181,-22.1818
21,-678,5.09631,22.3881,0.0379194,-0.0253303,0.0243531,0.0462095,-0.0336204,0.328109,0.0462804,0.044108,1245,1702,5.09627,-22.388
28,-678,6.09766,22.6403,0,0,0,0,0,0,0,-1,1252,1702,6.0977,-22.6403
35,-678,5.50024,22.2919,0.0372043,-0.0221162,0.0256779,0.0467752,-0.0316871,0.356779,0.0455786,0.0433257,1259,1702,5.50028,-22.2919
42,-678,5.27466,22.4827,0.0344816,-0.0202867,0.0265723,0.0452547,-0.0310598,0.385176,0.0443136,0.0446795,1266,1702,5.27465,-22.4826
49,-678,6.03345,21.559,0,0,0,0,0,0,0,-1,1273,1702,6.03349,-21.559
56,-678,5.46765,21.7181,0.0259528,-0.0152107,0.0272683,0.039535,-0.0287928,0.46212,0.0396112,0.0448756,1280,1702,5.46763,-21.7181
63,-678,4.81628,21.9645,0.0176237,-0.010801,0.0266455,0.0336103,-0.0267876,0.540399,0.0349448,0.0487117,1287,1702,4.81634,-21.9645
70,-678,4.31958,22.2283,0.00799957,-0.00650672,0.0254902,0.0272485,-0.0257556,0.646788,0.030606,0.0474266,1294,1702,4.31953,-22.2283
77,-678,3.82996,22.6229,-0.00169287,-0.00200982,0.0238709,0.0220201,-0.0257228,0.782079,0.027592,0.0443082,1301,1702,3.8299,-22.6229
84,-678,3.45935,23.526,0,0,0,0,0,0,0,-1,1308,1702,3.45932,-23.526
91,-678,3.11401,24.3561,0,0,0,0,0,0,0,-1,1315,1702,3.11404,-24.3561
98,-678,5.52869,22.4158,0,0,0,0,0,0,0,-1,1322,1702,5.52865,-22.4157
105,-678,5.7207,21.9447,0,0,0,0,0,0,0,-1,1329,1702,5.72067,-21.9448
112,-678,6.39355,21.5115,-0.0387167,0.0422417,0.00578025,0.0426523,-0.0391273,1.49988,0.0472301,0.0408941,1336,1702,6.39357,-21.5115
119,-678,5.99463,22.1083,-0.042938,0.0545684,3.91487e-05,0.0545684,-0.042938,1.57039,0.0564287,0.0439352,1343,1702,5.99459,-22.1083
126,-678,5.8645,21.9095,0,0,0,0,0,0,0,-1,1350,1702,5.86452,-21.9095
133,-678,5.95569,21.7731,0,0,0,0,0,0,0,-1,1357,1702,5.95574,-21.773
140,-678,6.7616,21.9253,-0.0445127,0.0962909,-0.0160345,0.0980938,-0.0463156,-1.45883,0.0851425,0.0459588,1364,1702,6.76163,-21.9252
147,-678,6.51514,22.2605,-0.0432938,0.109829,-0.0217768,0.112866,-0.0463306,-1.43224,0.0945499,0.0460547,1371,1702,6.51518,-22.2605
154,-678,6.3158,22.5487,0,0,0,0,0,0,0,-1,1378,1702,6.31579,-22.5486
161,-678,3.44202,4.53992,0,0,0,0,0,0,0,-1,1385,1702,3.442,-4.53996
168,-678,4.21863,5.25781,0,0,0,0,0,0,0,-1,1392,1702,4.21865,-5.25781
175,-678,5.21899,5.9635,0,0,0,0,0,0,0,-1,1399,1702,5.21894,-5.96346
182,-678,7.31262,6.75122,0,0,0,0,0,0,0,-1,1406,1702,7.3126,-6.75123
189,-678,5.96021,6.36853,0,0,0,0,0,0,0,-1,1413,1702,5.96018,-6.36851
196,-678,5.01599,8.15771,0,0,0,0,0,0,0,-1,1420,1702,5.01596,-8.15767
203,-678,4.64771,13.0559,0,0,0,0,0,0,0,-1,1427,1702,4.64766,-13.0559
210,-678,5.6532,18.5957,0,0,0,0,0,0,0,-1,1434,1702,5.65318,-18.5958
217,-678,6.31921,21.626,0,0,0,0,0,0,0,-1,1441,1702,6.31916,-21.6259
224,-678,6.11182,21.2091,0,0,0,0,0,0,0,-1,1448,1702,6.11182,-21.2091
231,-678,6.10583,21.0853,0,0,0,0,0,0,0,-1,1455,1702,6.10586,-21.0854
238,-678,6.16992,21.0302,0,0,0,0,0,0,0,-1,1462,1702,6.16995,-21.0302
245,-678,6.16016,20.9686,0,0,0,0,0,0,0,-1,1469,1702,6.16014,-20.9686
252,-678,6.18494,20.8243,0.00342428,-0.00265555,0.000331893,0.00344235,-0.00267362,0.0543738,0.00354034,0.0303469,1476,1702,6.18491,-20.8244
259,-678,6.17859,20.7603,0.0035374,-0.00269186,0.000252763,0.00354764,-0.0027021,0.040488,0.00361928,0.0162523,1483,1702,6.17863,-20.7602
266,-678,6.2135,20.6315,0.00350936,-0.00261124,0.000141426,0.00351262,-0.0026145,0.0230901,0.00355014,0.00989863,1490,1702,6.2135,-20.6314
273,-678,6.22852,20.5134,0.00352381,-0.0023794,-3.2006e-05,0.00352398,-0.00237957,-0.00542158,0.0034297,0.0100384,1497,1702,6.22856,-20.5134
280,-678,6.21631,20.3856,0.00336497,-0.00200607,-6.66188e-05,0.0033658,-0.00200689,-0.0124008,0.00313482,0.0107898,1504,1702,6.2163,-20.3857
287,-678,6.22485,20.23,0.00305645,-0.00142987,-0.000105067,0.00305891,-0.00143233,-0.0234023,0.0026491,0.0110221,1511,1702,6.22487,-20.23
294,-678,6.21826,20.074,0.00269971,-0.000924222,-0.000157251,0.00270652,-0.000931032,-0.0432838,0.00218194,0.0117338,1518,1702,6.21828,-20.0739
301,-678,6.20251,19.9436,0.00236582,-0.000461266,-0.000283489,0.00239397,-0.000489413,-0.0989631,0.00178167,0.0117512,1525,1702,6.20257,-19.9436
308,-678,6.2135,19.8003,0.00212877,1.99754e-05,-0.0005365,0.00225741,-0.000108668,-0.23534,0.00154244,0.0125862,1532,1702,6.21354,-19.8003
315,-678,6.23083,19.6444,0.00203077,0.000364172,-0.000760744,0.00232579,6.91446e-05,-0.369957,0.001528,0.0135056,1539,1702,6.23086,-19.6445
322,-678,6.21533,19.4998,0.00263538,0.00069329,-0.000916176,0.00299937,0.000329305,-0.378166,0.00189935,0.0164376,1546,1702,6.21534,-19.4997
329,-678,6.2146,19.3251,0.00359619,0.00107964,-0.0011149,0.00401907,0.000656771,-0.362528,0.0024895,0.0147873,1553,1702,6.21465,-19.325
336,-678,6.21265,19.1561,0.00460955,0.00135966,-0.0013411,0.0050915,0.000877711,-0.344996,0.00314289,0.0118064,1560,1702,6.21267,-19.1561
343,-678,6.22046,18.9993,0.00587157,0.00148408,-0.00155742,0.00636819,0.00098746,-0.308682,0.00395758,0.0104256,1567,1702,6.22046,-18.9992
350,-678,6.22168,18.844,0.00731958,0.0014912,-0.00176099,0.00781033,0.00100045,-0.271781,0.00490751,0.0101342,1574,1702,6.22164,-18.8439
357,-678,6.22449,18.6677,0.00882931,0.00158789,-0.00178061,0.00924347,0.00117374,-0.228527,0.00581071,0.0087853,1581,1702,6.22447,-18.6678
364,-678,6.20764,18.4884,0.0104986,0.00150784,-0.00175057,0.0108274,0.00117902,-0.185674,0.00685915,0.0115756,1588,1702,6.20769,-18.4884
371,-678,6.19324,18.2932,0.0121332,0.00133522,-0.00166232,0.0123834,0.0010851,-0.149341,0.0079187,0.0124678,1595,1702,6.19319,-18.2932
378,-678,6.20251,18.0725,0.0135605,0.0009621,-0.00166357,0.0137765,0.000746135,-0.129098,0.008946,0.0148194,1602,1702,6.20246,-18.0725
385,-678,6.20715,17.9169,0.0145927,0.000501268,-0.00176011,0.0148092,0.000284746,-0.122401,0.00977928,0.019884,1609,1702,6.20716,-17.9168
392,-678,6.20325,17.8232,0.014977,0.000485477,-0.00189535,0.0152208,0.000241684,-0.127924,0.0100676,0.0336875,1616,1702,6.20327,-17.8232
399,-678,6.08069,17.7147,0.0144227,-2.65175e-05,-0.00191882,0.0146732,-0.000276991,-0.129801,0.00987575,0.0443125,1623,1702,6.0807,-17.7147
406,-678,5.79211,17.2661,0.0126313,-0.00075257,-0.00140704,0.0127776,-0.000898893,-0.10362,0.00883331,0.0481286,1630,1702,5.79208,-17.2661
413,-678,5.78406,16.9539,0,0,0,0,0,0,0,-1,1637,1702,5.78406,-16.9539
420,-678,5.97656,16.302,0,0,0,0,0,0,0,-1,1644,1702,5.9766,-16.302
427,-678,4.57483,10.1555,0,0,0,0,0,0,0,-1,1651,1702,4.57485,-10.1555
434,-678,6.75635,16.0447,0,0,0,0,0,0,0,-1,1658,1702,6.75629,-16.0446
441,-678,6.47717,15.7784,0,0,0,0,0,0,0,-1,1665,1702,6.47721,-15.7784
448,-678,3.25525,9.74719,0,0,0,0,0,0,0,-1,1672,1702,3.25522,-9.7472
455,-678,5.44678,5.54297,0,0,0,0,0,0,0,-1,1679,1702,5.44676,-5.54294
462,-678,3.86792,2.87402,0,0,0,0,0,0,0,-1,1686,1702,3.86796,-2.87406
469,-678,2.26587,1.98755,0,0,0,0,0,0,0,-1,1693,1702,2.26592,-1.98755
476,-678,0,0,0,0,0,0,0,0,0,-1,1700,1702,0,0
483,-678,0,0,0,0,0,0,0,0,0,-1,1707,1702,0,0
490,-678,0,0,0,0,0,0,0,0,0,-1,1714,1702,0,0
497,-678,0,0,0,0,0,0,0,0,0,-1,1721,1702,0,0
504,-678,0,0,0,0,0,0,0,0,0,-1,1728,1702,0,0
511,-678,0,0,0,0,0,0,0,0,0,-1,1735,1702,0,0
518,-678,0,0,0,0,0,0,0,0,0,-1,1742,1702,0,0
525,-678,0,0,0,0,0,0,0,0,0,-1,1749,1702,0,0
532,-678,0,0,0,0,0,0,0,0,0,-1,1756,1702,0,0
539,-678,0,0,0,0,0,0,0,0,0,-1,1763,1702,0,0
546,-678,0,0,0,0,0,0,0,0,0,-1,1770,1702,0,0
553,-678,0,0,0,0,0,0,0,0,0,-1,1777,1702,0,0
560,-678,0,0,0,0,0,0,0,0,0,-1,1784,1702,0,0
567,-678,0,0,0,0,0,0,0,0,0,-1,1791,1702,0,0
574,-678,0,0,0,0,0,0,0,0,0,-1,1798,1702,0,0
581,-678,0,0,0,0,0,0,0,0,0,-1,1805,1702,0,0
588,-678,0,0,0,0,0,0,0,0,0,-1,1812,1702,0,0
595,-678,0,0,0,0,0,0,0,0,0,-1,1819,1702,0,0
602,-678,0,0,0,0,0,0,0,0,0,-1,1826,1702,0,0
609,-678,0,0,0,0,0,0,0,0,0,-1,1833,1702,0,0
616,-678,0,0,0,0,0,0,0,0,0,-1,1840,1702,0,0
623,-678,0,0,0,0,0,0,0,0,0,-1,1847,1702,0,0
630,-678,0,0,0,0,0,0,0,0,0,-1,1854,1702,0,0
637,-678,0,0,0,0,0,0,0,0,0,-1,1861,1702,0,0
644,-678,0,0,0,0,0,0,0,0,0,-1,1868,1702,0,0
651,-678,0,0,0,0,0,0,0,0,0,-1,1875,1702,0,0
658,-678,0,0,0,0,0,0,0,0,0,-1,1882,1702,0,0
665,-678,0,0,0,0,0,0,0,0,0,-1,1889,1702,0,0
672,-678,0,0,0,0,0,0,0,0,0,-1,1896,1702,0,0
679,-678,0,0,0,0,0,0,0,0,0,-1,1903,1702,0,0
686,-678,0,0,0,0,0,0,0,0,0,-1,1910,1702,0,0
693,-678,0,0,0,0,0,0,0,0,0,-1,1917,1702,0,0
700,-678,0,0,0,0,0,0,0,0,0,-1,1924,1702,0,0
707,-678,0,0,0,0,0,0,0,0,0,-1,1931,1702,0,0
714,-678,0,0,0,0,0,0,0,0,0,-1,1938,1702,0,0
721,-678,0,0,0,0,0,0,0,0,0,-1,1945,1702,0,0
728,-678,0,0,0,0,0,0,0,0,0,-1,1952,1702,0,0
735,-678,0,0,0,0,0,0,0,0,0,-1,1959,1702,0,0
742,-678,0,0,0,0,0,0,0,0,0,-1,1966,1702,0,0
749,-678,0,0,0,0,0,0,0,0,0,-1,1973,1702,0,0
756,-678,0,0,0,0,0,0,0,0,0,-1,1980,1702,0,0
763,-678,0,0,0,0,0,0,0,0,0,-1,1987,1702,0,0
770,-678,0,0,0,0,0,0,0,0,0,-1,1994,1702,0,0
777,-678,0,0,0,0,0,0,0,0,0,-1,2001,1702,0,0
784,-678,0,0,0,0,0,0,0,0,0,-1,2008,1702,0,0
791,-678,0,0,0,0,0,0,0,0,0,-1,2015,1702,0,0
798,-678,0,0,0,0,0,0,0,0,0,-1,2022,1702,0,0
805,-678,0,0,0,0,0,0,0,0,0,-1,2029,1702,0,0
812,-678,0,0,0,0,0,0,0,0,0,-1,2036,1702,0,0
-700,-685,0,0,0,0,0,0,0,0,0,-1,524,1709,0,0
-693,-685,0,0,0,0,0,0,0,0,0,-1,531,1709,0,0
-686,-685,0,0,0,0,0,0,0,0,0,-1,538,1709,0,0
-679,-685,0,0,0,0,0,0,0,0,0,-1,545,1709,0,0
-672,-685,0,0,0,0,0,0,0,0,0,-1,552,1709,0,0
-665,-685,0,0,0,0,0,0,0,0,0,-1,559,1709,0,0
-658,-685,0,0,0,0,0,0,0,0,0,-1,566,1709,0,0
-651,-685,0,0,0,0,0,0,0,0,0,-1,573,1709,0,0
-644,-685,0,0,0,0,0,0,0,0,0,-1,580,1709,0,0
-637,-685,0,0,0,0,0,0,0,0,0,-1,587,1709,0,0
-630,-685,0,0,0,0,0,0,0,0,0,-1,594,1709,0,0
-623,-685,0,0,0,0,0,0,0,0,0,-1,601,1709,0,0
-616,-685,0,0,0,0,0,0,0,0,0,-1,608,1709,0,0
-609,-685,0,0,0,0,0,0,0,0,0,-1,615,1709,0,0
-602,-685,0,0,0,0,0,0,0,0,0,-1,622,1709,0,0
-595,-685,0,0,0,0,0,0,0,0,0,-1,629,1709,0,0
-588,-685,0,0,0,0,0,0,0,0,0,-1,636,1709,0,0
-581,-685,0,0,0,0,0,0,0,0,0,-1,643,1709,0,0
-574,-685,0,0,0,0,0,0,0,0,0,-1,650,1709,0,0
-567,-685,0,0,0,0,0,0,0,0,0,-1,657,1709,0,0
-560,-685,0,0,0,0,0,0,0,0,0,-1,664,1709,0,0
-553,-685,0,0,0,0,0,0,0,0,0,-1,671,1709,0,0
-546,-685,0,0,0,0,0,0,0,0,0,-1,678,1709,0,0
-539,-685,0,0,0,0,0,0,0,0,0,-1,685,1709,0,0
-532,-685,0,0,0,0,0,0,0,0,0,-1,692,1709,0,0
-525,-685,0,0,0,0,0,0,0,0,0,-1,699,1709,0,0
-518,-685,0,0,0,0,0,0,0,0,0,-1,706,1709,0,0
-511,-685,0,0,0,0,0,0,0,0,0,-1,713,1709,0,0
-504,-685,0,0,0,0,0,0,0,0,0,-1,720,1709,0,0
-497,-685,0,0,0,0,0,0,0,0,0,-1,727,1709,0,0
-490,-685,0,0,0,0,0,0,0,0,0,-1,734,1709,0,0
-483,-685,0,0,0,0,0,0,0,0,0,-1,741,1709,0,0
-476,-685,0,0,0,0,0,0,0,0,0,-1,748,1709,0,0
-469,-685,0,0,0,0,0,0,0,0,0,-1,755,1709,0,0
-462,-685,0,0,0,0,0,0,0,0,0,-1,762,1709,0,0
-455,-685,0,0,0,0,0,0,0,0,0,-1,769,1709,0,0
-448,-685,0,0,0,0,0,0,0,0,0,-1,776,1709,0,0
-441,-685,0,0,0,0,0,0,0,0,0,-1,783,1709,0,0
-434,-685,0,0,0,0,0,0,0,0,0,-1,790,1709,0,0
-427,-685,0,0,0,0,0,0,0,0,0,-1,797,1709,0,0
-420,-685,0,0,0,0,0,0,0,0,0,-1,804,1709,0,0
-413,-685,0,0,0,0,0,0,0,0,0,-1,811,1709,0,0
-406,-685,0,0,0,0,0,0,0,0,0,-1,818,1709,0,0
-399,-685,0,0,0,0,0,0,0,0,0,-1,825,1709,0,0
-392,-685,0,0,0,0,0,0,0,0,0,-1,832,1709,0,0
-385,-685,0,0,0,0,0,0,0,0,0,-1,839,1709,0,0
-378,-685,0,0,0,0,0,0,0,0,0,-1,846,1709,0,0
-371,-685,0,0,0,0,0,0,0,0,0,-1,853,1709,0,0
-364,-685,0,0,0,0,0,0,0,0,0,-1,860,1709,0,0
-357,-685,0,0,0,0,0,0,0,0,0,-1,867,1709,0,0
-350,-685,0,0,0,0,0,0,0,0,0,-1,874,1709,0,0
-343,-685,-5.98505,6.56335,0,0,0,0,0,0,0,-1,881,1709,-5.98505,-6.56329
-336,-685,-6.51312,5.10571,0,0,0,0,0,0,0,-1,888,1709,-6.51311,-5.10575
-329,-685,-6.81384,3.34106,0,0,0,0,0,0,0,-1,895,1709,-6.81385,-3.341
-322,-685,3.83191,16.7219,0,0,0,0,0,0,0,-1,902,1709,3.8319,-16.7219
-315,-685,4.36914,16.3297,0,0,0,0,0,0,0,-1,909,1709,4.36913,-16.3297
-308,-685,7.80127,17.3907,0,0,0,0,0,0,0,-1,916,1709,7.80127,-17.3907
-301,-685,7.1264,17.5359,-0.0561647,-0.0735967,-0.00715593,-0.0536034,-0.0761579,-0.34371,0.0451714,0.0485101,923,1709,7.12641,-17.5359
-294,-685,6.22107,17.762,-0.0526845,-0.0710984,-0.00799351,-0.0496987,-0.0740842,-0.357484,0.0435968,0.0497156,930,1709,6.22109,-17.7619
-287,-685,5.53973,17.8494,0,0,0,0,0,0,0,-1,937,1709,5.53975,-17.8494
-280,-685,5.01062,17.9464,0,0,0,0,0,0,0,-1,944,1709,5.01059,-17.9464
-273,-685,4.85413,16.6096,0,0,0,0,0,0,0,-1,951,1709,4.8541,-16.6096
-266,-685,4.89337,16.715,0,0,0,0,0,0,0,-1,958,1709,4.89338,-16.7149
-259,-685,4.83411,16.9666,-0.0252206,-0.0396863,-0.00694381,-0.022427,-0.0424799,-0.382507,0.0245385,0.0423182,965,1709,4.8341,-16.9665
-252,-685,4.87665,17.2577,-0.0193588,-0.0324427,-0.00576633,-0.0171802,-0.0346213,-0.361232,0.0199888,0.0364715,972,1709,4.87663,-17.2577
-245,-685,4.86371,17.3815,-0.0132395,-0.0257255,-0.0044265,-0.0118295,-0.0271355,-0.308383,0.0157095,0.0331103,979,1709,4.86372,-17.3815
-238,-685,4.87048,17.5624,-0.00844417,-0.0198051,-0.00334262,-0.00753367,-0.0207156,-0.265938,0.0121075,0.0242306,986,1709,4.87047,-17.5623
-231,-685,4.81915,17.77,-0.00489254,-0.0146869,-0.00212739,-0.00445042,-0.015129,-0.204909,0.00897805,0.0155738,993,1709,4.81917,-17.77
-224,-685,4.77173,17.9421,-0.00151563,-0.00930837,-0.000998324,-0.00138977,-0.00943423,-0.125412,0.00588122,0.0145942,1000,1709,4.77172,-17.9421
-217,-685,4.76453,18.1361,0.000193594,-0.00672596,-0.000363572,0.000212644,-0.00674501,-0.0523506,0.00456921,0.0121348,1007,1709,4.76455,-18.1361
-210,-685,4.7608,18.3463,0.000908867,-0.00566525,0.000185517,0.000914098,-0.00567048,0.0281894,0.00411897,0.0150812,1014,1709,4.76079,-18.3463
-203,-685,4.77246,18.5503,0.00144205,-0.00444879,0.000620829,0.00150676,-0.00451351,0.103869,0.00361742,0.0148527,1021,1709,4.7725,-18.5503
-196,-685,4.76184,18.7324,0.00175813,-0.00327017,0.000974404,0.00194035,-0.00345239,0.184872,0.00315403,0.0125077,1028,1709,4.76185,-18.7325
-189,-685,4.76318,18.8829,0.00183367,-0.00242277,0.00110593,0.00210387,-0.00269297,0.239622,0.00277641,0.00832772,1035,1709,4.76316,-18.883
-182,-685,4.75757,19.0787,0.0017324,-0.00183052,0.00104403,0.00201579,-0.0021139,0.265051,0.0023845,0.0128426,1042,1709,4.75753,-19.0787
-175,-685,4.75745,19.2532,0.00180944,-0.00109277,0.001092,0.00217442,-0.00145776,0.322559,0.0021106,0.0135665,1049,1709,4.75748,-19.2532
-168,-685,4.74463,19.4265,0.00166899,-0.000813541,0.000921698,0.00197378,-0.00111832,0.319357,0.00180786,0.0102997,1056,1709,4.74459,-19.4265
-161,-685,4.73462,19.5748,0.00144196,-0.000813728,0.000733318,0.0016594,-0.00103117,0.288257,0.00156745,0.0111542,1063,1709,4.73458,-19.5749
-154,-685,4.73596,19.7384,0.00127866,-0.000935854,0.000507117,0.00138926,-0.00104646,0.214741,0.0014109,0.0103054,1070,1709,4.73592,-19.7384
-147,-685,4.72729,19.8949,0.00104411,-0.00121621,0.000306183,0.00108485,-0.00125696,0.132285,0.00135326,0.00891276,1077,1709,4.72725,-19.8948
-140,-685,4.74487,20.0215,0.000946738,-0.00178612,0.000124387,0.000952388,-0.00179177,0.0453903,0.00160886,0.010845,1084,1709,4.74486,-20.0215
-133,-685,4.77234,20.1587,0.00111396,-0.00247741,7.9851e-05,0.00111573,-0.00247918,0.0222195,0.0021247,0.0105728,1091,1709,4.7723,-20.1587
-126,-685,4.78455,20.3079,0.00131864,-0.00307513,0.000108107,0.0013213,-0.00307779,0.0245848,0.00260643,0.00898744,1098,1709,4.78453,-20.3078
-119,-685,4.78162,20.449,0.00150581,-0.00364823,0.00014479,0.00150987,-0.0036523,0.0280631,0.00306474,0.0122123,1105,1709,4.7816,-20.449
-112,-685,4.79663,20.5925,0.00166065,-0.00421836,0.000172461,0.0016657,-0.00422341,0.0293015,0.00350534,0.0116911,1112,1709,4.79662,-20.5925
-105,-685,4.78491,20.7125,0.00176478,-0.00477076,0.00027895,0.00177667,-0.00478264,0.0425787,0.00391734,0.0106316,1119,1709,4.78495,-20.7125
-98,-685,4.81055,20.8232,0.00189412,-0.0050801,0.000467094,0.00192527,-0.00511124,0.066578,0.00419905,0.0142236,1126,1709,4.81054,-20.8233
-91,-685,4.8136,20.9154,0.00193909,-0.00522577,0.000620418,0.00199241,-0.0052791,0.0857412,0.00433881,0.0169895,1133,1709,4.81366,-20.9154
-84,-685,4.81812,21.0161,0.00219476,-0.00491598,0.000737986,0.00227055,-0.00499177,0.102331,0.00428989,0.0182288,1140,1709,4.81813,-21.0161
-77,-685,4.90527,21.2365,0.00270035,-0.00452901,0.000609541,0.00275138,-0.00458004,0.0835289,0.00427646,0.0224403,1147,1709,4.90527,-21.2365
-70,-685,5.10364,21.5558,0,0,0,0,0,0,0,-1,1154,1709,5.1036,-21.5558
-63,-685,4.92932,21.4751,0,0,0,0,0,0,0,-1,1161,1709,4.92934,-21.4751
-56,-685,3.93909,15.8704,0,0,0,0,0,0,0,-1,1168,1709,3.93905,-15.8704
-49,-685,3.07471,9.86011,0,0,0,0,0,0,0,-1,1175,1709,3.07467,-9.86009
-42,-685,2.70618,7.54504,0,0,0,0,0,0,0,-1,1182,1709,2.7062,-7.54504
-35,-685,2.95264,7.91516,0,0,0,0,0,0,0,-1,1189,1709,2.95262,-7.91517
-28,-685,5.00098,21.943,0,0,0,0,0,0,0,-1,1196,1709,5.00099,-21.943
-21,-685,5.07947,21.8467,0.0143496,-0.0174747,0.0134234,0.0192553,-0.0223804,0.350382,0.0240609,0.0430045,1203,1709,5.07942,-21.8467
-14,-685,5.18408,21.7853,0.0155381,-0.017541,0.0143999,0.0209283,-0.0229312,0.358176,0.0253311,0.0264131,1210,1709,5.18409,-21.7853
-7,-685,5.25024,21.8354,0.0180155,-0.0174004,0.0144089,0.0231371,-0.022522,0.341518,0.0263621,0.0401192,1217,1709,5.25025,-21.8355
0,-685,5.30322,21.9578,0.0204738,-0.0154654,0.0140971,0.0253436,-0.0203351,0.332609,0.0264254,0.042985,1224,1709,5.30328,-21.9578
7,-685,5.37012,22.0255,0.022899,-0.0143499,0.0140621,0.0276115,-0.0190624,0.323358,0.0270975,0.0405961,1231,1709,5.37014,-22.0255
14,-685,5.23254,22.0879,0.0247298,-0.0138659,0.0145941,0.0296269,-0.018763,0.323746,0.0281716,0.043226,1238,1709,5.23253,-22.0879
21,-685,5.27844,22.1973,0.025484,-0.0135928,0.0151957,0.0306975,-0.0188064,0.330508,0.0288546,0.0374985,1245,1709,5.27849,-22.1972
28,-685,5.31458,22.2312,0.025259,-0.012759,0.0152453,0.0306172,-0.0181172,0.337981,0.0284436,0.03771,1252,1709,5.31459,-22.2312
35,-685,5.48462,22.1082,0.0244133,-0.0128945,0.0158384,0.0302303,-0.0187115,0.351976,0.0285162,0.0381522,1259,1709,5.48458,-22.1081
42,-685,5.47449,22.2886,0.0223832,-0.0126329,0.0165281,0.0289523,-0.0192021,0.378308,0.0279913,0.0410905,1266,1709,5.47447,-22.2886
49,-685,5.39722,22.3838,0.0199545,-0.0119582,0.0168618,0.0272129,-0.0192166,0.40649,0.0269383,0.0444846,1273,1709,5.39728,-22.3838
56,-685,5.45081,22.0597,0.0164169,-0.0112505,0.0173548,0.0247769,-0.0196105,0.44891,0.0256849,0.0449387,1280,1709,5.45087,-22.0597
63,-685,5.24976,21.8435,0.0104899,-0.0089986,0.0173349,0.0206315,-0.0191403,0.529349,0.0229676,0.044208,1287,1709,5.2498,-21.8435
70,-685,5.32935,21.881,0.00360256,-0.00662422,0.017032,0.0162722,-0.0192938,0.639567,0.0205587,0.0433882,1294,1709,5.3293,-21.881
77,-685,5.75195,21.677,-0.00296719,-0.00403757,0.0164607,0.012967,-0.0199718,0.769147,0.01916,0.0438382,1301,1709,5.75196,-21.677
84,-685,2.94202,24.6375,0,0,0,0,0,0,0,-1,1308,1709,2.94198,-24.6374
91,-685,5.48401,22.6099,-0.0142413,0.0052144,0.0137867,0.0123597,-0.0213867,1.09263,0.0197145,0.0416847,1315,1709,5.48398,-22.6098
98,-685,5.59253,22.2725,-0.0197553,0.0136934,0.0115689,0.0173048,-0.0233667,1.26822,0.0235685,0.0373024,1322,1709,5.5925,-22.2724
105,-685,5.70947,21.9181,-0.0244897,0.0200672,0.00926566,0.0219172,-0.0263397,1.37373,0.0279001,0.0407266,1329,1709,5.70944,-21.9181
112,-685,5.78906,21.7013,0,0,0,0,0,0,0,-1,1336,1709,5.78903,-21.7013
119,-685,5.74316,21.9589,-0.0302992,0.0384981,0.00208774,0.0385614,-0.0303625,1.54049,0.039887,0.0392681,1343,1709,5.74313,-21.9588
126,-685,5.77844,21.9431,-0.0317277,0.0482768,-0.00162299,0.0483097,-0.0317606,-1.55052,0.0465566,0.043343,1350,1709,5.77849,-21.9431
133,-685,5.83984,21.8676,-0.0319697,0.0578908,-0.00492617,0.0581601,-0.0322389,-1.51619,0.0529022,0.0467365,1357,1709,5.8398,-21.8676
140,-685,5.83838,21.9192,-0.0315578,0.0685232,-0.00885067,0.0692999,-0.0323345,-1.48327,0.0599584,0.0454409,1364,1709,5.83839,-21.9192
147,-685,5.86865,22.1678,-0.0305635,0.0777994,-0.0127439,0.0792779,-0.0320421,-1.45529,0.0661712,0.0445944,1371,1709,5.86862,-22.1679
154,-685,5.92114,22.1479,0,0,0,0,0,0,0,-1,1378,1709,5.92115,-22.1479
161,-685,6.19934,22.2012,0,0,0,0,0,0,0,-1,1385,1709,6.19929,-22.2011
168,-685,4.37524,10.8778,0,0,0,0,0,0,0,-1,1392,1709,4.37525,-10.8778
175,-685,3.97522,8.94324,0,0,0,0,0,0,0,-1,1399,1709,3.97519,-8.94328
182,-685,3.98218,9.19739,0,0,0,0,0,0,0,-1,1406,1709,3.98221,-9.1974
189,-685,4.53479,15.2343,0,0,0,0,0,0,0,-1,1413,1709,4.53474,-15.2343
196,-685,5.96936,21.8605,0,0,0,0,0,0,0,-1,1420,1709,5.96936,-21.8605
203,-685,5.93872,21.6918,0,0,0,0,0,0,0,-1,1427,1709,5.93877,-21.6918
210,-685,6.03687,21.5208,0,0,0,0,0,0,0,-1,1434,1709,6.03683,-21.5208
217,-685,6.08142,21.4614,0.000646682,-0.000112542,0.000914392,0.00125713,-0.000722989,0.588648,0.001157,0.0383993,1441,1709,6.08144,-21.4614
224,-685,6.01221,21.2538,0.000869576,-0.000939453,0.000844215,0.00120234,-0.00127221,0.375465,0.00142887,0.0172366,1448,1709,6.01224,-21.2538
231,-685,5.99866,21.1659,0.00120857,-0.00155594,0.000817904,0.00143242,-0.0017798,0.267154,0.00185819,0.0149592,1455,1709,5.9986,-21.1658
238,-685,6.01453,21.0637,0.00172813,-0.00173279,0.000523503,0.00180558,-0.00181025,0.146885,0.0020876,0.0178372,1462,1709,6.01454,-21.0637
245,-685,6.03088,20.9567,0.00206015,-0.00195546,0.000430162,0.00210572,-0.00200102,0.105527,0.00237128,0.019323,1469,1709,6.0309,-20.9567
252,-685,6.04175,20.8716,0.00227036,-0.00189718,0.00026316,0.00228691,-0.00191373,0.0628126,0.00242843,0.0133079,1476,1709,6.04175,-20.8716
259,-685,6.05664,20.7673,0.00236849,-0.00188897,0.000166754,0.00237501,-0.00189549,0.0390878,0.00247075,0.00935201,1483,1709,6.0566,-20.7673
266,-685,6.09619,20.6404,0.00235132,-0.0017368,4.72187e-05,0.00235187,-0.00173734,0.0115482,0.00236978,0.0108709,1490,1709,6.09622,-20.6404
273,-685,6.09937,20.5034,0.00233979,-0.00147337,-0.000106966,0.00234279,-0.00147637,-0.0280223,0.00222383,0.0136181,1497,1709,6.09936,-20.5034
280,-685,6.09497,20.3632,0.00217712,-0.000984688,-0.000219064,0.00219223,-0.000999794,-0.0688461,0.00188529,0.0153701,1504,1709,6.09492,-20.3631
287,-685,6.09009,20.2412,0.00192471,-0.000452367,-0.000318657,0.00196669,-0.000494343,-0.130974,0.00150325,0.011238,1511,1709,6.09006,-20.2412
294,-685,6.07483,20.0908,0.00169065,9.13622e-05,-0.000434914,0.00180127,-1.92577e-05,-0.249067,0.00120732,0.00997748,1518,1709,6.07485,-20.0908
301,-685,6.0542,19.949,0.00151193,0.000585987,-0.000673029,0.00186585,0.000232068,-0.48412,0.00117421,0.0128543,1525,1709,6.05414,-19.949
308,-685,6.05615,19.8027,0.00144214,0.00111524,-0.00110298,0.00239372,0.000163668,-0.711839,0.00154415,0.0139607,1532,1709,6.05615,-19.8028
315,-685,6.09497,19.6553,0.00155336,0.00147586,-0.00145396,0.00296908,6.0132e-05,-0.772075,0.00195965,0.0119075,1539,1709,6.095,-19.6553
322,-685,6.10498,19.4884,0.0027809,0.00178712,-0.00165821,0.00401506,0.000552955,-0.639829,0.00251275,0.019092,1546,1709,6.10498,-19.4884
329,-685,6.07642,19.3218,0.00449437,0.00218809,-0.00191626,0.0055777,0.00110476,-0.51454,0.00341039,0.0185757,1553,1709,6.07637,-19.3218
336,-685,6.07043,19.1586,0.00621333,0.00245332,-0.00219593,0.00722409,0.00144256,-0.431376,0.00441448,0.0122567,1560,1709,6.0704,-19.1585
343,-685,6.0658,18.9871,0.0083298,0.00256821,-0.00246293,0.00923912,0.00165889,-0.35368,0.00568767,0.010321,1567,1709,6.06581,-18.9871
350,-685,6.04846,18.8123,0.0107456,0.0025403,-0.00265043,0.0115273,0.00175864,-0.286788,0.0071709,0.010492,1574,1709,6.04846,-18.8123
357,-685,6.04797,18.6565,0.0133241,0.00265323,-0.00261033,0.0139284,0.00204891,-0.227502,0.00868361,0.00937828,1581,1709,6.04798,-18.6566
364,-685,6.04883,18.4613,0.0161745,0.00255368,-0.00246872,0.0166081,0.00212004,-0.17388,0.0104374,0.0096226,1588,1709,6.04888,-18.4614
371,-685,6.06689,18.2617,0.0190236,0.00233603,-0.00223685,0.0193182,0.0020414,-0.130964,0.0122551,0.0160747,1595,1709,6.06684,-18.2617
378,-685,6.00806,18.1045,0.0215884,0.00197688,-0.00208855,0.0218084,0.00175693,-0.104928,0.0139901,0.0252525,1602,1709,6.00808,-18.1045
385,-685,6.03101,17.9233,0.0235756,0.0016022,-0.00207271,0.0237694,0.0014084,-0.0932324,0.0153983,0.0431185,1609,1709,6.03104,-17.9233
392,-685,6.19861,17.8552,0.0247134,0.00168974,-0.00211477,0.024906,0.00149711,-0.0908394,0.0161281,0.0422278,1616,1709,6.19862,-17.8552
399,-685,6.44958,17.8616,0,0,0,0,0,0,0,-1,1623,1709,6.44964,-17.8615
406,-685,5.30347,17.2917,0,0,0,0,0,0,0,-1,1630,1709,5.30343,-17.2917
413,-685,6.13098,16.2029,0,0,0,0,0,0,0,-1,1637,1709,6.13099,-16.2029
420,-685,4.84631,10.3781,0,0,0,0,0,0,0,-1,1644,1709,4.84634,-10.378
427,-685,6.05151,9.21155,0,0,0,0,0,0,0,-1,1651,1709,6.05156,-9.21156
434,-685,4.87769,8.91418,0,0,0,0,0,0,0,-1,1658,1709,4.87768,-8.91413
441,-685,5.62,8.75549,0,0,0,0,0,0,0,-1,1665,1709,5.61996,-8.75545
448,-685,6.4043,8.58972,0,0,0,0,0,0,0,-1,1672,1709,6.40435,-8.58971
455,-685,2.31958,4.09802,0,0,0,0,0,0,0,-1,1679,1709,2.31957,-4.09803
462,-685,0,0,0,0,0,0,0,0,0,-1,1686,1709,0,0
469,-685,0,0,0,0,0,0,0,0,0,-1,1693,1709,0,0
476,-685,0,0,0,0,0,0,0,0,0,-1,1700,1709,0,0
483,-685,0,0,0,0,0,0,0,0,0,-1,1707,1709,0,0
490,-685,0,0,0,0,0,0,0,0,0,-1,1714,1709,0,0
497,-685,0,0,0,0,0,0,0,0,0,-1,1721,1709,0,0
504,-685,0,0,0,0,0,0,0,0,0,-1,1728,1709,0,0
511,-685,0,0,0,0,0,0,0,0,0,-1,1735,1709,0,0
518,-685,0,0,0,0,0,0,0,0,0,-1,1742,1709,0,0
525,-685,0,0,0,0,0,0,0,0,0,-1,1749,1709,0,0
532,-685,0,0,0,0,0,0,0,0,0,-1,1756,1709,0,0
539,-685,0,0,0,0,0,0,0,0,0,-1,1763,1709,0,0
546,-685,0,0,0,0,0,0,0,0,0,-1,1770,1709,0,0
553,-685,0,0,0,0,0,0,0,0,0,-1,1777,1709,0,0
560,-685,0,0,0,0,0,0,0,0,0,-1,1784,1709,0,0
567,-685,0,0,0,0,0,0,0,0,0,-1,1791,1709,0,0
574,-685,0,0,0,0,0,0,0,0,0,-1,1798,1709,0,0
581,-685,0,0,0,0,0,0,0,0,0,-1,1805,1709,0,0
588,-685,0,0,0,0,0,0,0,0,0,-1,1812,1709,0,0
595,-685,0,0,0,0,0,0,0,0,0,-1,1819,1709,0,0
602,-685,0,0,0,0,0,0,0,0,0,-1,1826,1709,0,0
609,-685,0,0,0,0,0,0,0,0,0,-1,1833,1709,0,0
616,-685,0,0,0,0,0,0,0,0,0,-1,1840,1709,0,0
623,-685,0,0,0,0,0,0,0,0,0,-1,1847,1709,0,0
630,-685,0,0,0,0,0,0,0,0,0,-1,1854,1709,0,0
637,-685,0,0,0,0,0,0,0,0,0,-1,1861,1709,0,0
644,-685,0,0,0,0,0,0,0,0,0,-1,1868,1709,0,0
651,-685,0,0,0,0,0,0,0,0,0,-1,1875,1709,0,0
658,-685,0,0,0,0,0,0,0,0,0,-1,1882,1709,0,0
665,-685,0,0,0,0,0,0,0,0,0,-1,1889,1709,0,0
672,-685,0,0,0,0,0,0,0,0,0,-1,1896,1709,0,0
679,-685,0,0,0,0,0,0,0,0,0,-1,1903,1709,0,0
686,-685,0,0,0,0,0,0,0,0,0,-1,1910,1709,0,0
693,-685,0,0,0,0,0,0,0,0,0,-1,1917,1709,0,0
700,-685,0,0,0,0,0,0,0,0,0,-1,1924,1709,0,0
707,-685,0,0,0,0,0,0,0,0,0,-1,1931,1709,0,0
714,-685,0,0,0,0,0,0,0,0,0,-1,1938,1709,0,0
721,-685,0,0,0,0,0,0,0,0,0,-1,1945,1709,0,0
728,-685,0,0,0,0,0,0,0,0,0,-1,1952,1709,0,0
735,-685,0,0,0,0,0,0,0,0,0,-1,1959,1709,0,0
742,-685,0,0,0,0,0,0,0,0,0,-1,1966,1709,0,0
749,-685,0,0,0,0,0,0,0,0,0,-1,1973,1709,0,0
756,-685,0,0,0,0,0,0,0,0,0,-1,1980,1709,0,0
763,-685,0,0,0,0,0,0,0,0,0,-1,1987,1709,0,0
770,-685,0,0,0,0,0,0,0,0,0,-1,1994,1709,0,0
777,-685,0,0,0,0,0,0,0,0,0,-1,2001,1709,0,0
784,-685,0,0,0,0,0,0,0,0,0,-1,2008,1709,0,0
791,-685,0,0,0,0,0,0,0,0,0,-1,2015,1709,0,0
798,-685,0,0,0,0,0,0,0,0,0,-1,2022,1709,0,0
805,-685,0,0,0,0,0,0,0,0,0,-1,2029,1709,0,0
812,-685,0,0,0,0,0,0,0,0,0,-1,2036,1709,0,0
-700,-692,0,0,0,0,0,0,0,0,0,-1,524,1716,0,0
-693,-692,0,0,0,0,0,0,0,0,0,-1,531,1716,0,0
-686,-692,0,0,0,0,0,0,0,0,0,-1,538,1716,0,0
-679,-692,0,0,0,0,0,0,0,0,0,-1,545,1716,0,0
-672,-692,0,0,0,0,0,0,0,0,0,-1,552,1716,0,0
-665,-692,0,0,0,0,0,0,0,0,0,-1,559,1716,0,0
-658,-692,0,0,0,0,0,0,0,0,0,-1,566,1716,0,0
-651,-692,0,0,0,0,0,0,0,0,0,-1,573,1716,0,0
-644,-692,0,0,0,0,0,0,0,0,0,-1,580,1716,0,0
-637,-692,0,0,0,0,0,0,0,0,0,-1,587,1716,0,0
-630,-692,0,0,0,0,0,0,0,0,0,-1,594,1716,0,0
-623,-692,0,0,0,0,0,0,0,0,0,-1,601,1716,0,0
-616,-692,0,0,0,0,0,0,0,0,0,-1,608,1716,0,0
-609,-692,0,0,0,0,0,0,0,0,0,-1,615,1716,0,0
-602,-692,0,0,0,0,0,0,0,0,0,-1,622,1716,0,0
-595,-692,0,0,0,0,0,0,0,0,0,-1,629,1716,0,0
-588,-692,0,0,0,0,0,0,0,0,0,-1,636,1716,0,0
-581,-692,0,0,0,0,0,0,0,0,0,-1,643,1716,0,0
-574,-692,0,0,0,0,0,0,0,0,0,-1,650,1716,0,0
-567,-692,0,0,0,0,0,0,0,0,0,-1,657,1716,0,0
-560,-692,0,0,0,0,0,0,0,0,0,-1,664,1716,0,0
-553,-692,0,0,0,0,0,0,0,0,0,-1,671,1716,0,0
-546,-692,0,0,0,0,0,0,0,0,0,-1,678,1716,0,0
-539,-692,0,0,0,0,0,0,0,0,0,-1,685,1716,0,0
-532,-692,0,0,0,0,0,0,0,0,0,-1,692,1716,0,0
-525,-692,0,0,0,0,0,0,0,0,0,-1,699,1716,0,0
-518,-692,0,0,0,0,0,0,0,0,0,-1,706,1716,0,0
-511,-692,0,0,0,0,0,0,0,0,0,-1,713,1716,0,0
-504,-692,0,0,0,0,0,0,0,0,0,-1,720,1716,0,0
-497,-692,0,0,0,0,0,0,0,0,0,-1,727,1716,0,0
-490,-692,0,0,0,0,0,0,0,0,0,-1,734,1716,0,0
-483,-692,0,0,0,0,0,0,0,0,0,-1,741,1716,0,0
-476,-692,0,0,0,0,0,0,0,0,0,-1,748,1716,0,0
-469,-692,0,0,0,0,0,0,0,0,0,-1,755,1716,0,0
-462,-692,0,0,0,0,0,0,0,0,0,-1,762,1716,0,0
-455,-692,0,0,0,0,0,0,0,0,0,-1,769,1716,0,0
-448,-692,0,0,0,0,0,0,0,0,0,-1,776,1716,0,0
-441,-692,0,0,0,0,0,0,0,0,0,-1,783,1716,0,0
-434,-692,0,0,0,0,0,0,0,0,0,-1,790,1716,0,0
-427,-692,0,0,0,0,0,0,0,0,0,-1,797,1716,0,0
-420,-692,0,0,0,0,0,0,0,0,0,-1,804,1716,0,0
-413,-692,0,0,0,0,0,0,0,0,0,-1,811,1716,0,0
-406,-692,0,0,0,0,0,0,0,0,0,-1,818,1716,0,0
-399,-692,0,0,0,0,0,0,0,0,0,-1,825,1716,0,0
-392,-692,0,0,0,0,0,0,0,0,0,-1,832,1716,0,0
-385,-692,0,0,0,0,0,0,0,0,0,-1,839,1716,0,0
-378,-692,0,0,0,0,0,0,0,0,0,-1,846,1716,0,0
-371,-692,0,0,0,0,0,0,0,0,0,-1,853,1716,0,0
-364,-692,0,0,0,0,0,0,0,0,0,-1,860,1716,0,0
-357,-692,0,0,0,0,0,0,0,0,0,-1,867,1716,0,0
-350,-692,0,0,0,0,0,0,0,0,0,-1,874,1716,0,0
-343,-692,0,0,0,0,0,0,0,0,0,-1,881,1716,0,0
-336,-692,0,0,0,0,0,0,0,0,0,-1,888,1716,0,0
-329,-692,3.03107,4.10266,0,0,0,0,0,0,0,-1,895,1716,3.03105,-4.10267
-322,-692,4.43713,18.5242,0,0,0,0,0,0,0,-1,902,1716,4.43711,-18.5241
-315,-692,5.38965,17.975,0,0,0,0,0,0,0,-1,909,1716,5.38963,-17.975
-308,-692,5.86938,17.4392,0,0,0,0,0,0,0,-1,916,1716,5.86937,-17.4392
-301,-692,7.6759,18.0828,0,0,0,0,0,0,0,-1,923,1716,7.67593,-18.0827
-294,-692,6.55182,18.3727,0,0,0,0,0,0,0,-1,930,1716,6.55184,-18.3727
-287,-692,5.67352,18.6527,0,0,0,0,0,0,0,-1,937,1716,5.67355,-18.6528
-280,-692,5.25891,18.8433,-0.0556581,-0.0800472,-0.0114161,-0.0511483,-0.084557,-0.376221,0.0491758,0.0457969,944,1716,5.25893,-18.8432
-273,-692,4.78931,19.0551,-0.0484019,-0.0716275,-0.0109776,-0.0440346,-0.0759948,-0.378643,0.0440599,0.046278,951,1716,4.78933,-19.0551
-266,-692,4.28705,19.2599,0,0,0,0,0,0,0,-1,958,1716,4.28702,-19.2599
-259,-692,5.07861,17.0088,0,0,0,0,0,0,0,-1,965,1716,5.07863,-17.0088
-252,-692,5.20862,17.5088,-0.0259474,-0.0437009,-0.00764697,-0.0231078,-0.0465405,-0.355554,0.0268704,0.0497644,972,1716,5.20861,-17.5088
-245,-692,5.06189,17.4878,-0.0179754,-0.0350536,-0.00585452,-0.0161611,-0.0368678,-0.300503,0.0213395,0.0488193,979,1716,5.06186,-17.4877
-238,-692,5.1015,17.5906,-0.011643,-0.0272549,-0.00441827,-0.0104794,-0.0284186,-0.257528,0.0165948,0.043351,986,1716,5.10148,-17.5905
-231,-692,5.13635,17.8555,-0.00654466,-0.0201801,-0.00276059,-0.00600696,-0.0207178,-0.192369,0.0123082,0.0332259,993,1716,5.13638,-17.8554
-224,-692,5.00873,17.9785,-0.00173533,-0.0128408,-0.00127368,-0.00159112,-0.012985,-0.11274,0.00817803,0.0176186,1000,1716,5.00875,-17.9785
-217,-692,4.94464,18.1372,0.000611265,-0.00926355,-0.00039851,0.000627322,-0.0092796,-0.040269,0.00640576,0.0124097,1007,1716,4.94461,-18.1372
-210,-692,4.94183,18.3353,0.00155303,-0.00771794,0.000394828,0.00156982,-0.00773473,0.042485,0.00575162,0.0128346,1014,1716,4.94184,-18.3354
-203,-692,4.95703,18.5291,0.00223587,-0.00590646,0.0010482,0.00236865,-0.00603923,0.125998,0.00500611,0.0150939,1021,1716,4.95708,-18.5291
-196,-692,4.93542,18.7335,0.00259981,-0.0042019,0.00155059,0.00293662,-0.00453872,0.213892,0.0043488,0.0167766,1028,1716,4.93545,-18.7335
-189,-692,4.91406,18.8745,0.00278729,-0.0027827,0.00191875,0.00338427,-0.00337969,0.301639,0.00390517,0.00859642,1035,1716,4.91408,-18.8745
-182,-692,4.90625,19.0723,0.00271803,-0.00182867,0.00198473,0.00346251,-0.00257315,0.35886,0.00349727,0.0128643,1042,1716,4.90623,-19.0723
-175,-692,4.91003,19.2701,0.002787,-0.00068702,0.00214618,0.00381103,-0.00171104,0.44519,0.00326411,0.0145187,1049,1716,4.91005,-19.2701
-168,-692,4.91174,19.4188,0.00259028,-0.000106355,0.00200672,0.00365958,-0.00117565,0.489589,0.00291182,0.0115316,1056,1716,4.9117,-19.4189
-161,-692,4.92114,19.5863,0.00222977,0.000137404,0.00179304,0.00325952,-0.000892344,0.52131,0.00252361,0.0136507,1063,1716,4.92113,-19.5863
-154,-692,4.91003,19.7605,0.00195574,0.000196504,0.0015172,0.00282987,-0.000677624,0.522695,0.00214837,0.0141654,1070,1716,4.90998,-19.7605
-147,-692,4.89832,19.9072,0.00156546,0.000134263,0.00121558,0.00226043,-0.000560711,0.519368,0.00172452,0.0118965,1077,1716,4.89836,-19.9072
-140,-692,4.89832,20.0364,0.00132066,-0.000254418,0.000932177,0.00175344,-0.000687195,0.434653,0.00145323,0.00953541,1084,1716,4.89832,-20.0363
-133,-692,4.91724,20.1716,0.00133727,-0.000836243,0.000774153,0.00158482,-0.00108378,0.309483,0.00154974,0.00956185,1091,1716,4.91726,-20.1716
-126,-692,4.9187,20.3142,0.00136395,-0.00133326,0.000638949,0.00150765,-0.00147697,0.221229,0.0017232,0.00737365,1098,1716,4.91867,-20.3142
-119,-692,4.90601,20.4457,0.00135842,-0.00180688,0.000517521,0.00144089,-0.00188935,0.158018,0.00192851,0.0103671,1105,1716,4.90598,-20.4457
-112,-692,4.91345,20.5768,0.00136355,-0.00227297,0.000419827,0.00141139,-0.00232081,0.113459,0.00217601,0.0105535,1112,1716,4.91348,-20.5768
-105,-692,4.93738,20.7092,0.00134028,-0.0027045,0.000377108,0.00137514,-0.00273936,0.0921746,0.00241864,0.0153211,1119,1716,4.93735,-20.7092
-98,-692,4.97266,20.8176,0.00131607,-0.00297003,0.000428055,0.0013584,-0.00301236,0.0985734,0.00258298,0.0164569,1126,1716,4.97265,-20.8176
-91,-692,4.96375,20.8987,0.00132186,-0.00307533,0.000490908,0.001376,-0.00312947,0.109839,0.00266609,0.0180638,1133,1716,4.96368,-20.8987
-84,-692,4.97778,21.005,0.00157639,-0.00289584,0.000650209,0.00166901,-0.00298846,0.141486,0.00272472,0.0214508,1140,1716,4.97781,-21.005
-77,-692,4.96814,21.1886,0.00199671,-0.00273367,0.000568544,0.00206408,-0.00280104,0.117952,0.0028196,0.0152023,1147,1716,4.96818,-21.1886
-70,-692,5.00769,21.3137,0.00223937,-0.002428,0.000108357,0.00224188,-0.00243051,0.0231992,0.00269834,0.0224671,1154,1716,5.00773,-21.3137
-63,-692,5.01929,21.3583,0.00344263,-0.00208433,-0.000304487,0.00345935,-0.00210105,-0.05487,0.00324207,0.0353669,1161,1716,5.01928,-21.3582
-56,-692,5.04504,21.4373,0,0,0,0,0,0,0,-1,1168,1716,5.04505,-21.4372
-49,-692,4.96448,21.5756,0,0,0,0,0,0,0,-1,1175,1716,4.96446,-21.5756
-42,-692,4.96204,21.8029,0,0,0,0,0,0,0,-1,1182,1716,4.96198,-21.8029
-35,-692,5.05286,21.8569,0,0,0,0,0,0,0,-1,1189,1716,5.05292,-21.8569
-28,-692,5.07434,21.8815,0.00697598,-0.0057494,0.00626651,0.00954375,-0.00831716,0.388891,0.0103201,0.0438023,1196,1716,5.07436,-21.8814
-21,-692,5.16699,21.8236,0.00867819,-0.00684472,0.00725332,0.0115399,-0.00970639,0.375785,0.0122817,0.027305,1203,1716,5.16694,-21.8236
-14,-692,5.18115,21.8375,0.00959968,-0.00699217,0.00815221,0.0129348,-0.0103273,0.38833,0.0134585,0.015304,1210,1716,5.18121,-21.8375
-7,-692,5.17664,21.9462,0.0117686,-0.0070242,0.0082596,0.0148828,-0.0101383,0.36055,0.0145322,0.0163719,1217,1716,5.17658,-21.9462
0,-692,5.22302,22.0186,0.0138164,-0.00538177,0.00808469,0.0167674,-0.00833278,0.349985,0.0147618,0.0182644,1224,1716,5.22301,-22.0185
7,-692,5.22229,22.0524,0.0150456,-0.00478437,0.00793254,0.0178283,-0.00756711,0.337388,0.0150557,0.0214162,1231,1716,5.22228,-22.0524
14,-692,5.2771,22.1083,0.015733,-0.00493321,0.00814218,0.0185554,-0.00775564,0.333682,0.0156114,0.0242248,1238,1716,5.2771,-22.1083
21,-692,5.38879,22.1149,0.0160255,-0.00526108,0.00857578,0.0190506,-0.00828613,0.339117,0.0161856,0.0255301,1245,1716,5.38882,-22.1149
28,-692,5.37744,22.077,0.0156753,-0.0051776,0.00846128,0.0186766,-0.00817889,0.340863,0.015895,0.025421,1252,1716,5.37744,-22.077
35,-692,5.37817,22.109,0.0149514,-0.0060166,0.00881632,0.0181656,-0.00923085,0.349603,0.0160953,0.0228365,1259,1716,5.37816,-22.109
42,-692,5.43811,22.2582,0.0135172,-0.00667245,0.00928945,0.017141,-0.0102962,0.371937,0.0160043,0.0213838,1266,1716,5.43805,-22.2582
49,-692,5.48633,22.2825,0.0119518,-0.00717232,0.00954336,0.0158993,-0.0111198,0.39221,0.0156807,0.0261989,1273,1716,5.48633,-22.2825
56,-692,5.48059,22.2518,0.00965816,-0.00772825,0.0100269,0.0142356,-0.0123057,0.428261,0.0153371,0.0314714,1280,1716,5.48064,-22.2519
63,-692,5.43799,22.2692,0.00576452,-0.00706101,0.0103324,0.0115124,-0.0128089,0.507667,0.0140486,0.029515,1287,1716,5.43794,-22.2692
70,-692,5.45947,22.2813,0.00117937,-0.00615737,0.0105259,0.00865784,-0.0136358,0.617726,0.0129778,0.0257139,1294,1716,5.45949,-22.2812
77,-692,5.54199,22.28,-0.00291402,-0.00508516,0.0105724,0.00662842,-0.0146276,0.734238,0.0125585,0.0305606,1301,1716,5.54203,-22.2801
84,-692,5.62,22.2377,-0.00681659,-0.00304471,0.0104093,0.00564813,-0.0155094,0.875015,0.0126499,0.0370141,1308,1716,5.61995,-22.2376
91,-692,5.57959,22.2511,-0.00977225,0.000701932,0.00968571,0.00647575,-0.0155461,1.03324,0.0130688,0.0326495,1315,1716,5.5796,-22.2511
98,-692,5.59607,22.2151,-0.0134643,0.00660681,0.00859594,0.00978498,-0.0166425,1.21665,0.0154282,0.0266634,1322,1716,5.59608,-22.2151
105,-692,5.61267,22.1885,-0.0163857,0.0107064,0.00744731,0.0126186,-0.0182979,1.31946,0.0179498,0.0336242,1329,1716,5.61268,-22.1885
112,-692,5.60022,22.1608,-0.0177357,0.0169929,0.00563099,0.0178831,-0.0186259,1.414,0.0210799,0.0369124,1336,1716,5.60025,-22.1607
119,-692,5.62427,22.1121,-0.0191391,0.023947,0.00321029,0.0241849,-0.019377,1.49683,0.0252015,0.0281884,1343,1716,5.62421,-22.1121
126,-692,5.67212,22.0635,-0.0201504,0.0306726,0.000677403,0.0306816,-0.0201594,1.55747,0.0295619,0.0277711,1350,1716,5.67208,-22.0635
133,-692,5.69946,22.0298,-0.0202356,0.0367173,-0.00127564,0.0367458,-0.0202642,-1.54841,0.0333701,0.0227267,1357,1716,5.69952,-22.0298
140,-692,5.72229,22.0164,-0.0197475,0.0433154,-0.00374243,0.0435367,-0.0199688,-1.51173,0.0374971,0.0271011,1364,1716,5.7223,-22.0164
147,-692,5.73059,22.1034,-0.0188013,0.0486959,-0.00616066,0.0492536,-0.019359,-1.48052,0.0408476,0.0296587,1371,1716,5.73064,-22.1033
154,-692,5.75415,22.1227,-0.0173537,0.0526372,-0.00803231,0.0535472,-0.0182637,-1.45799,0.0430959,0.0276197,1378,1716,5.75419,-22.1227
161,-692,5.94775,22.0829,-0.0149827,0.0545708,-0.00971396,0.0559019,-0.0163139,-1.43461,0.0437323,0.043135,1385,1716,5.94781,-22.0829
168,-692,6.10681,22.0519,0,0,0,0,0,0,0,-1,1392,1716,6.10678,-22.0518
175,-692,5.84302,21.8965,0,0,0,0,0,0,0,-1,1399,1716,5.84302,-21.8965
182,-692,5.83972,21.7759,0,0,0,0,0,0,0,-1,1406,1716,5.83967,-21.7759
189,-692,5.85803,21.7349,0,0,0,0,0,0,0,-1,1413,1716,5.85806,-21.7348
196,-692,5.87195,21.6552,-0.000639291,0.0220548,-0.0044684,0.0229029,-0.00148741,-1.38322,0.0157878,0.0314731,1420,1716,5.872,-21.6552
203,-692,5.86621,21.5802,0.00131197,0.00133968,0.00146139,0.00278729,-0.000135632,0.790139,0.00190501,0.0193125,1427,1716,5.8662,-21.5802
210,-692,5.91357,21.4922,0.00081391,0.000795202,0.00123174,0.00203633,-0.000427223,0.781601,0.00152011,0.016696,1434,1716,5.91354,-21.4922
217,-692,5.91565,21.3859,0.000437701,0.000127192,0.000903045,0.00119874,-0.000633847,0.700269,0.00107467,0.01551,1441,1716,5.9156,-21.3858
224,-692,5.91516,21.2968,0.000563249,-0.000394591,0.000801609,0.00101811,-0.00084945,0.516128,0.0010797,0.0119369,1448,1716,5.91517,-21.2968
231,-692,5.90198,21.21,0.000764553,-0.000803026,0.000712147,0.00103976,-0.00107824,0.368772,0.00122289,0.0102237,1455,1716,5.90193,-21.2099
238,-692,5.90808,21.0598,0.00108678,-0.000958955,0.00046121,0.00118595,-0.00105813,0.211801,0.00129632,0.0162743,1462,1716,5.90807,-21.0598
245,-692,5.90588,20.9486,0.00131885,-0.00111706,0.000302782,0.00135592,-0.00115413,0.121829,0.00145074,0.0193844,1469,1716,5.90589,-20.9486
252,-692,5.92249,20.8749,0.0014698,-0.00110415,0.000101068,0.00147376,-0.00110812,0.0391852,0.00149562,0.0160827,1476,1716,5.92253,-20.8749
259,-692,5.9386,20.7625,0.00152783,-0.0010502,-5.45319e-05,0.00152898,-0.00105136,-0.0211399,0.00149824,0.00860787,1483,1716,5.93863,-20.7624
266,-692,5.94189,20.6371,0.00148756,-0.000778044,-0.000223318,0.00150936,-0.000799846,-0.0973208,0.00135404,0.00952118,1490,1716,5.94188,-20.6371
273,-692,5.94519,20.4965,0.0013868,-0.00053863,-0.000303368,0.00143347,-0.000585297,-0.152634,0.00119933,0.0141778,1497,1716,5.94522,-20.4964
280,-692,5.96265,20.3717,0.00117391,-0.000154741,-0.000306583,0.00124124,-0.000222072,-0.216187,0.000910587,0.013488,1504,1716,5.96262,-20.3717
287,-692,5.95667,20.2504,0.000923326,0.000174134,-0.000260021,0.00100473,9.2733e-05,-0.30339,0.000641146,0.00995801,1511,1716,5.95667,-20.2504
294,-692,5.9425,20.1084,0.000751296,0.000573672,-0.000208088,0.000888732,0.000436236,-0.583701,0.000513138,0.010184,1518,1716,5.94249,-20.1084
301,-692,5.93774,19.972,0.000675588,0.000868767,-0.000322077,0.00110843,0.00043593,-0.931079,0.00064479,0.0137813,1525,1716,5.93772,-19.9721
308,-692,5.9137,19.8307,0.00073278,0.00128517,-0.000767248,0.00182442,0.000193529,-0.958169,0.00115718,0.0170716,1532,1716,5.91366,-19.8307
315,-692,5.94043,19.6725,0.00102532,0.00153608,-0.00112321,0.00243257,0.000128822,-0.897182,0.00158053,0.0151878,1539,1716,5.94039,-19.6725
322,-692,5.94165,19.4761,0.00295315,0.00178922,-0.00132783,0.00382095,0.000921421,-0.578864,0.00230246,0.0191759,1546,1716,5.94167,-19.4761
329,-692,5.92041,19.3096,0.00558432,0.00224899,-0.00166398,0.00627248,0.00156083,-0.392147,0.00377064,0.0172282,1553,1716,5.92039,-19.3096
336,-692,5.91382,19.1555,0.00822439,0.00259026,-0.00208428,0.00891162,0.00190303,-0.318495,0.00541928,0.0116221,1560,1716,5.91381,-19.1556
343,-692,5.922,18.9863,0.0115043,0.00284669,-0.0025351,0.012192,0.00215899,-0.264896,0.00751245,0.0113266,1567,1716,5.92199,-18.9863
350,-692,5.91895,18.802,0.0153106,0.00297986,-0.00286832,0.0159452,0.0023453,-0.217723,0.009941,0.0120078,1574,1716,5.91893,-18.802
357,-692,5.89758,18.6393,0.0194979,0.00331575,-0.00293772,0.0200147,0.00279894,-0.174141,0.0125149,0.0161166,1581,1716,5.89758,-18.6393
364,-692,5.89392,18.4675,0.0241576,0.00340818,-0.00283298,0.0245375,0.00302834,-0.133284,0.0154481,0.0238428,1588,1716,5.89396,-18.4675
371,-692,6.60474,18.4574,0,0,0,0,0,0,0,-1,1595,1716,6.60472,-18.4575
378,-692,5.52661,18.1023,0,0,0,0,0,0,0,-1,1602,1716,5.52656,-18.1023
385,-692,5.92761,17.7614,0,0,0,0,0,0,0,-1,1609,1716,5.92755,-17.7614
392,-692,6.32861,17.4204,0,0,0,0,0,0,0,-1,1616,1716,6.32855,-17.4204
399,-692,5.2627,10.4279,0,0,0,0,0,0,0,-1,1623,1716,5.26267,-10.4278
406,-692,4.73633,10.6808,0,0,0,0,0,0,0,-1,1630,1716,4.73637,-10.6808
413,-692,4.25085,10.5685,0,0,0,0,0,0,0,-1,1637,1716,4.2508,-10.5685
420,-692,5.48901,10.4845,0,0,0,0,0,0,0,-1,1644,1716,5.48906,-10.4845
427,-692,3.79578,8.60339,0,0,0,0,0,0,0,-1,1651,1716,3.79577,-8.6034
434,-692,4.78516,8.64636,0,0,0,0,0,0,0,-1,1658,1716,4.78512,-8.64634
441,-692,5.8208,8.74036,0,0,0,0,0,0,0,-1,1665,1716,5.82084,-8.7404
448,-692,6.73792,8.51013,0,0,0,0,0,0,0,-1,1672,1716,6.73793,-8.5101
455,-692,0,0,0,0,0,0,0,0,0,-1,1679,1716,0,0
462,-692,0,0,0,0,0,0,0,0,0,-1,1686,1716,0,0
469,-692,0,0,0,0,0,0,0,0,0,-1,1693,1716,0,0
476,-692,0,0,0,0,0,0,0,0,0,-1,1700,1716,0,0
483,-692,0,0,0,0,0,0,0,0,0,-1,1707,1716,0,0
490,-692,0,0,0,0,0,0,0,0,0,-1,1714,1716,0,0
497,-692,0,0,0,0,0,0,0,0,0,-1,1721,1716,0,0
504,-692,0,0,0,0,0,0,0,0,0,-1,1728,1716,0,0
511,-692,0,0,0,0,0,0,0,0,0,-1,1735,1716,0,0
518,-692,0,0,0,0,0,0,0,0,0,-1,1742,1716,0,0
525,-692,0,0,0,0,0,0,0,0,0,-1,1749,1716,0,0
532,-692,0,0,0,0,0,0,0,0,0,-1,1756,1716,0,0
539,-692,0,0,0,0,0,0,0,0,0,-1,1763,1716,0,0
546,-692,0,0,0,0,0,0,0,0,0,-1,1770,1716,0,0
553,-692,0,0,0,0,0,0,0,0,0,-1,1777,1716,0,0
560,-692,0,0,0,0,0,0,0,0,0,-1,1784,1716,0,0
567,-692,0,0,0,0,0,0,0,0,0,-1,1791,1716,0,0
574,-692,0,0,0,0,0,0,0,0,0,-1,1798,1716,0,0
581,-692,0,0,0,0,0,0,0,0,0,-1,1805,1716,0,0
588,-692,0,0,0,0,0,0,0,0,0,-1,1812,1716,0,0
595,-692,0,0,0,0,0,0,0,0,0,-1,1819,1716,0,0
602,-692,0,0,0,0,0,0,0,0,0,-1,1826,1716,0,0
609,-692,0,0,0,0,0,0,0,0,0,-1,1833,1716,0,0
616,-692,0,0,0,0,0,0,0,0,0,-1,1840,1716,0,0
623,-692,0,0,0,0,0,0,0,0,0,-1,1847,1716,0,0
630,-692,0,0,0,0,0,0,0,0,0,-1,1854,1716,0,0
637,-692,0,0,0,0,0,0,0,0,0,-1,1861,1716,0,0
644,-692,0,0,0,0,0,0,0,0,0,-1,1868,1716,0,0
651,-692,0,0,0,0,0,0,0,0,0,-1,1875,1716,0,0
658,-692,0,0,0,0,0,0,0,0,0,-1,1882,1716,0,0
665,-692,0,0,0,0,0,0,0,0,0,-1,1889,1716,0,0
672,-692,0,0,0,0,0,0,0,0,0,-1,1896,1716,0,0
679,-692,0,0,0,0,0,0,0,0,0,-1,1903,1716,0,0
686,-692,0,0,0,0,0,0,0,0,0,-1,1910,1716,0,0
693,-692,0,0,0,0,0,0,0,0,0,-1,1917,1716,0,0
700,-692,0,0,0,0,0,0,0,0,0,-1,1924,1716,0,0
707,-692,0,0,0,0,0,0,0,0,0,-1,1931,1716,0,0
714,-692,0,0,0,0,0,0,0,0,0,-1,1938,1716,0,0
721,-692,0,0,0,0,0,0,0,0,0,-1,1945,1716,0,0
728,-692,0,0,0,0,0,0,0,0,0,-1,1952,1716,0,0
735,-692,0,0,0,0,0,0,0,0,0,-1,1959,1716,0,0
742,-692,0,0,0,0,0,0,0,0,0,-1,1966,1716,0,0
749,-692,0,0,0,0,0,0,0,0,0,-1,1973,1716,0,0
756,-692,0,0,0,0,0,0,0,0,0,-1,1980,1716,0,0
763,-692,0,0,0,0,0,0,0,0,0,-1,1987,1716,0,0
770,-692,0,0,0,0,0,0,0,0,0,-1,1994,1716,0,0
777,-692,0,0,0,0,0,0,0,0,0,-1,2001,1716,0,0
784,-692,0,0,0,0,0,0,0,0,0,-1,2008,1716,0,0
791,-692,0,0,0,0,0,0,0,0,0,-1,2015,1716,0,0
798,-692,0,0,0,0,0,0,0,0,0,-1,2022,1716,0,0
805,-692,0,0,0,0,0,0,0,0,0,-1,2029,1716,0,0
812,-692,0,0,0,0,0,0,0,0,0,-1,2036,1716,0,0
-700,-699,0,0,0,0,0,0,0,0,0,-1,524,1723,0,0
-693,-699,0,0,0,0,0,0,0,0,0,-1,531,1723,0,0
-686,-699,0,0,0,0,0,0,0,0,0,-1,538,1723,0,0
-679,-699,0,0,0,0,0,0,0,0,0,-1,545,1723,0,0
-672,-699,0,0,0,0,0,0,0,0,0,-1,552,1723,0,0
-665,-699,0,0,0,0,0,0,0,0,0,-1,559,1723,0,0
-658,-699,0,0,0,0,0,0,0,0,0,-1,566,1723,0,0
-651,-699,0,0,0,0,0,0,0,0,0,-1,573,1723,0,0
-644,-699,0,0,0,0,0,0,0,0,0,-1,580,1723,0,0
-637,-699,0,0,0,0,0,0,0,0,0,-1,587,1723,0,0
-630,-699,0,0,0,0,0,0,0,0,0,-1,594,1723,0,0
-623,-699,0,0,0,0,0,0,0,0,0,-1,601,1723,0,0
-616,-699,0,0,0,0,0,0,0,0,0,-1,608,1723,0,0
-609,-699,0,0,0,0,0,0,0,0,0,-1,615,1723,0,0
-602,-699,0,0,0,0,0,0,0,0,0,-1,622,1723,0,0
-595,-699,0,0,0,0,0,0,0,0,0,-1,629,1723,0,0
-588,-699,0,0,0,0,0,0,0,0,0,-1,636,1723,0,0
-581,-699,0,0,0,0,0,0,0,0,0,-1,643,1723,0,0
-574,-699,0,0,0,0,0,0,0,0,0,-1,650,1723,0,0
-567,-699,0,0,0,0,0,0,0,0,0,-1,657,1723,0,0
-560,-699,0,0,0,0,0,0,0,0,0,-1,664,1723,0,0
-553,-699,0,0,0,0,0,0,0,0,0,-1,671,1723,0,0
-546,-699,0,0,0,0,0,0,0,0,0,-1,678,1723,0,0
-539,-699,0,0,0,0,0,0,0,0,0,-1,685,1723,0,0
-532,-699,0,0,0,0,0,0,0,0,0,-1,692,1723,0,0
-525,-699,0,0,0,0,0,0,0,0,0,-1,699,1723,0,0
-518,-699,0,0,0,0,0,0,0,0,0,-1,706,1723,0,0
-511,-699,0,0,0,0,0,0,0,0,0,-1,713,1723,0,0
-504,-699,0,0,0,0,0,0,0,0,0,-1,720,1723,0,0
-497,-699,0,0,0,0,0,0,0,0,0,-1,727,1723,0,0
-490,-699,0,0,0,0,0,0,0,0,0,-1,734,1723,0,0
-483,-699,0,0,0,0,0,0,0,0,0,-1,741,1723,0,0
-476,-699,0,0,0,0,0,0,0,0,0,-1,748,1723,0,0
-469,-699,0,0,0,0,0,0,0,0,0,-1,755,1723,0,0
-462,-699,0,0,0,0,0,0,0,0,0,-1,762,1723,0,0
-455,-699,0,0,0,0,0,0,0,0,0,-1,769,1723,0,0
-448,-699,0,0,0,0,0,0,0,0,0,-1,776,1723,0,0
-441,-699,0,0,0,0,0,0,0,0,0,-1,783,1723,0,0
-434,-699,0,0,0,0,0,0,0,0,0,-1,790,1723,0,0
-427,-699,0,0,0,0,0,0,0,0,0,-1,797,1723,0,0
-420,-699,0,0,0,0,0,0,0,0,0,-1,804,1723,0,0
-413,-699,0,0,0,0,0,0,0,0,0,-1,811,1723,0,0
-406,-699,0,0,0,0,0,0,0,0,0,-1,818,1723,0,0
-399,-699,0,0,0,0,0,0,0,0,0,-1,825,1723,0,0
-392,-699,0,0,0,0,0,0,0,0,0,-1,832,1723,0,0
-385,-699,0,0,0,0,0,0,0,0,0,-1,839,1723,0,0
-378,-699,0,0,0,0,0,0,0,0,0,-1,846,1723,0,0
-371,-699,0,0,0,0,0,0,0,0,0,-1,853,1723,0,0
-364,-699,0,0,0,0,0,0,0,0,0,-1,860,1723,0,0
-357,-699,0,0,0,0,0,0,0,0,0,-1,867,1723,0,0
-350,-699,0,0,0,0,0,0,0,0,0,-1,874,1723,0,0
-343,-699,0,0,0,0,0,0,0,0,0,-1,881,1723,0,0
-336,-699,0,0,0,0,0,0,0,0,0,-1,888,1723,0,0
-329,-699,0,0,0,0,0,0,0,0,0,-1,895,1723,0,0
-322,-699,0,0,0,0,0,0,0,0,0,-1,902,1723,0,0
-315,-699,6.20001,19.5193,0,0,0,0,0,0,0,-1,909,1723,6.20001,-19.5193
-308,-699,6.98151,18.9218,0,0,0,0,0,0,0,-1,916,1723,6.98151,-18.9217
-301,-699,4.72729,12.8752,0,0,0,0,0,0,0,-1,923,1723,4.72732,-12.8752
-294,-699,6.90332,19.8601,0,0,0,0,0,0,0,-1,930,1723,6.90332,-19.8601
-287,-699,6.16406,19.6458,0,0,0,0,0,0,0,-1,937,1723,6.16407,-19.6457
-280,-699,5.58954,19.8202,-0.0700633,-0.100946,-0.014789,-0.0641236,-0.106885,-0.381913,0.0621198,0.0495471,944,1723,5.58954,-19.8202
-273,-699,5.01978,20.0176,-0.0615772,-0.0911048,-0.0142305,-0.0558355,-0.0968465,-0.383504,0.0561323,0.0476056,951,1723,5.01979,-20.0176
-266,-699,4.49164,20.231,0,0,0,0,0,0,0,-1,958,1723,4.49162,-20.2309
-259,-699,5.67737,10.8545,0,0,0,0,0,0,0,-1,965,1723,5.67736,-10.8545
-252,-699,5.60577,17.754,0,0,0,0,0,0,0,-1,972,1723,5.60576,-17.754
-245,-699,5.28088,17.5907,0,0,0,0,0,0,0,-1,979,1723,5.28091,-17.5907
-238,-699,5.34497,17.6316,0,0,0,0,0,0,0,-1,986,1723,5.34497,-17.6316
-231,-699,5.22174,18.3892,-0.00839739,-0.0270443,-0.00343117,-0.00778607,-0.0276556,-0.176317,0.0164672,0.0416532,993,1723,5.22176,-18.3891
-224,-699,5.08246,18.0824,-0.00162182,-0.0172462,-0.00152541,-0.00147428,-0.0173937,-0.0964173,0.0111369,0.0379639,1000,1723,5.08243,-18.0824
-217,-699,5.09821,18.173,0.00155877,-0.0124706,-0.00034916,0.00156745,-0.0124793,-0.0248672,0.00888821,0.0261397,1007,1723,5.09822,-18.173
-210,-699,5.13281,18.3542,0.00277793,-0.010357,0.000741918,0.0028197,-0.0103988,0.0562458,0.00803898,0.0183958,1014,1723,5.13283,-18.3543
-203,-699,5.14502,18.5138,0.00361961,-0.00780875,0.00165871,0.00385549,-0.00804463,0.141258,0.007011,0.0218116,1021,1723,5.14506,-18.5138
-196,-699,5.10815,18.6965,0.00396504,-0.0054663,0.00231992,0.0045048,-0.00600607,0.228598,0.00608905,0.0178443,1028,1723,5.10821,-18.6965
-189,-699,5.08472,18.8829,0.00414955,-0.00337911,0.00291324,0.00514517,-0.00437473,0.329313,0.00550231,0.00874038,1035,1723,5.08466,-18.8829
-182,-699,5.08313,19.0616,0.00397768,-0.00199752,0.00308146,0.00528207,-0.0033019,0.400431,0.00499972,0.0115919,1042,1723,5.08315,-19.0616
-175,-699,5.07202,19.2657,0.00391415,-0.000404996,0.00333901,0.00573111,-0.00222195,0.498348,0.00473835,0.014349,1049,1723,5.07205,-19.2658
-168,-699,5.08643,19.432,0.00354398,0.000511682,0.0032064,0.00557462,-0.00151896,0.564551,0.00431284,0.0152113,1056,1723,5.08645,-19.432
-161,-699,5.09192,19.5818,0.00295817,0.00102051,0.00295094,0.00509525,-0.00111657,0.626786,0.00382376,0.0136206,1063,1723,5.09188,-19.5818
-154,-699,5.06396,19.7482,0.00250828,0.00126392,0.00262498,0.00458381,-0.000811602,0.669034,0.00335925,0.0130492,1070,1723,5.06393,-19.7481
-147,-699,5.04749,19.9012,0.00191442,0.00142185,0.0022311,0.00391278,-0.000576517,0.730427,0.0028204,0.0132736,1077,1723,5.04745,-19.9012
-140,-699,5.04541,20.0304,0.00151929,0.0012102,0.00185497,0.00322614,-0.000496644,0.743837,0.00233399,0.00950271,1084,1723,5.04542,-20.0304
-133,-699,5.05054,20.1932,0.0014338,0.000698929,0.0016068,0.00271464,-0.00058191,0.672994,0.0020317,0.00899472,1091,1723,5.05054,-20.1932
-126,-699,5.04614,20.328,0.00134884,0.000243814,0.00133648,0.00224251,-0.000649853,0.589391,0.00175226,0.0106195,1098,1723,5.04614,-20.328
-119,-699,5.04749,20.4498,0.00123402,-0.000188563,0.00108539,0.00182042,-0.000774967,0.495342,0.00153844,0.0153399,1105,1723,5.04748,-20.4498
-112,-699,5.03967,20.5748,0.00116643,-0.000612964,0.000863296,0.00151643,-0.000962961,0.38517,0.00144331,0.0115801,1112,1723,5.03961,-20.5749
-105,-699,5.05139,20.7081,0.0010817,-0.000979326,0.000668187,0.00127936,-0.001177,0.287626,0.00141859,0.012394,1119,1723,5.05134,-20.7082
-98,-699,5.078,20.8198,0.000995543,-0.00126557,0.000552672,0.0011234,-0.00139343,0.227343,0.00145588,0.0135137,1126,1723,5.07794,-20.8199
-91,-699,5.08862,20.9047,0.000978793,-0.00134131,0.000514514,0.00108777,-0.00145029,0.208729,0.00147033,0.0176265,1133,1723,5.0886,-20.9047
-84,-699,5.08997,21.0278,0.00111632,-0.00126967,0.000534112,0.00123042,-0.00138378,0.210473,0.00151018,0.0214843,1140,1723,5.08999,-21.0278
-77,-699,5.09473,21.1653,0.00141246,-0.00114637,0.000444851,0.00148759,-0.0012215,0.167311,0.00156661,0.0154315,1147,1723,5.09469,-21.1652
-70,-699,5.10571,21.2554,0.00165032,-0.000979838,0.000121048,0.00165588,-0.000985397,0.0458937,0.00154123,0.0164167,1154,1723,5.10572,-21.2554
-63,-699,5.1156,21.3556,0.0024679,-0.000789943,-0.000166432,0.00247638,-0.000798424,-0.05091,0.00197171,0.0140011,1161,1723,5.11564,-21.3556
-56,-699,5.09692,21.4407,0.0023157,-0.000602457,-0.000255544,0.00233791,-0.000624666,-0.0866908,0.00180326,0.0105676,1168,1723,5.09698,-21.4407
-49,-699,5.08765,21.5825,0.00172534,-0.000684186,1.74729e-05,0.00172547,-0.000684312,0.00725109,0.00143392,0.0228033,1175,1723,5.08765,-21.5825
-42,-699,5.10547,21.7281,0.00209443,-0.000906915,0.000927571,0.00235795,-0.00117044,0.276813,0.00207522,0.0255484,1182,1723,5.1055,-21.7282
-35,-699,5.13318,21.775,0.00315863,-0.000325856,0.00177776,0.00390553,-0.00107276,0.397744,0.00302535,0.0246427,1189,1723,5.13316,-21.7751
-28,-699,5.19836,21.8073,0.00399445,0.000341084,0.00231468,0.00511641,-0.000780878,0.451346,0.00369881,0.0191393,1196,1723,5.19842,-21.8072
-21,-699,5.19934,21.8007,0.00498593,5.69943e-05,0.0028456,0.00628591,-0.00124298,0.428525,0.00466052,0.0122354,1203,1723,5.19935,-21.8006
-14,-699,5.21265,21.8677,0.00553283,5.52265e-05,0.00351188,0.0072476,-0.00165955,0.454226,0.00546949,0.0111491,1210,1723,5.21265,-21.8677
-7,-699,5.22131,21.9659,0.00713971,0.000159193,0.00358177,0.00865055,-0.00135164,0.399168,0.00626636,0.00935738,1217,1723,5.22131,-21.9659
0,-699,5.23792,22.0331,0.00863495,0.00160154,0.00347251,0.0100605,0.000176026,0.389537,0.00664908,0.0102712,1224,1723,5.23795,-22.0331
7,-699,5.25806,22.0533,0.00938267,0.00197241,0.00342077,0.0107203,0.000634759,0.372757,0.00694497,0.0150347,1231,1723,5.25803,-22.0533
14,-699,5.30652,22.1036,0.00982995,0.00159616,0.00371979,0.0112615,0.000164568,0.367385,0.00745344,0.0168639,1238,1723,5.30658,-22.1036
21,-699,5.34656,22.1437,0.0100659,0.00108251,0.00418734,0.011715,-0.000566565,0.375171,0.00800555,0.0170264,1245,1723,5.34652,-22.1436
28,-699,5.33521,22.1593,0.0100053,0.000837134,0.00417852,0.011624,-0.000781512,0.369574,0.00802251,0.0159867,1252,1723,5.33514,-22.1593
35,-699,5.354,22.2042,0.00974836,-0.000182779,0.0045493,0.0115172,-0.00195167,0.370838,0.0084046,0.0128795,1259,1723,5.35395,-22.2043
42,-699,5.39673,22.2393,0.00907797,-0.00119328,0.0049982,0.0111087,-0.00322401,0.385919,0.00868235,0.0121238,1266,1723,5.3967,-22.2392
49,-699,5.44165,22.2585,0.00839064,-0.00231601,0.00530997,0.0105775,-0.00450284,0.390666,0.00893897,0.0150665,1273,1723,5.44169,-22.2585
56,-699,5.46521,22.2887,0.00733589,-0.00360535,0.0057943,0.00983406,-0.00610352,0.407062,0.00928521,0.0158655,1280,1723,5.46526,-22.2886
63,-699,5.44507,22.29,0.00514265,-0.00406079,0.00623252,0.0082882,-0.00720633,0.467399,0.00895304,0.0137001,1287,1723,5.44506,-22.2901
70,-699,5.44312,22.2854,0.00236014,-0.00431952,0.00662458,0.00643917,-0.00839855,0.551914,0.00859142,0.0116009,1294,1723,5.44316,-22.2854
77,-699,5.46387,22.2808,3.19635e-05,-0.00451259,0.00689506,0.00501952,-0.00950014,0.626227,0.00851494,0.0111598,1301,1723,5.46384,-22.2808
84,-699,5.48425,22.2626,-0.00216727,-0.00397145,0.00704179,0.00402997,-0.0101687,0.721692,0.00844913,0.0128615,1308,1723,5.4842,-22.2626
91,-699,5.50061,22.2573,-0.00390346,-0.00243606,0.00706238,0.00393063,-0.0102702,0.837157,0.00846678,0.0122225,1315,1723,5.50061,-22.2574
98,-699,5.54724,22.2638,-0.00629223,0.000367706,0.00701096,0.00479933,-0.0107238,1.00711,0.00917731,0.0110584,1322,1723,5.54722,-22.2638
105,-699,5.56238,22.2625,-0.0080555,0.00197583,0.00679066,0.00540232,-0.011482,1.10348,0.00995659,0.0160317,1329,1723,5.56235,-22.2624
112,-699,5.57532,22.2501,-0.00865119,0.0053775,0.00613686,0.00768313,-0.0109568,1.21141,0.010817,0.0222431,1336,1723,5.57537,-22.2501
119,-699,5.58252,22.223,-0.0094176,0.00909612,0.00508311,0.0103999,-0.0107214,1.31971,0.0121949,0.0154008,1343,1723,5.58251,-22.223
126,-699,5.58264,22.2054,-0.00997505,0.012299,0.00405556,0.0130145,-0.0106905,1.39618,0.013708,0.0166316,1350,1723,5.5826,-22.2055
133,-699,5.62573,22.1598,-0.00993965,0.0146379,0.00367516,0.0151757,-0.0104774,1.4255,0.0148934,0.0151885,1357,1723,5.62579,-22.1598
140,-699,5.68237,22.0947,-0.00945555,0.0173017,0.00285872,0.0176037,-0.00975757,1.46554,0.0160121,0.0161476,1364,1723,5.68243,-22.0947
147,-699,5.69043,22.0825,-0.00868419,0.0191537,0.00202325,0.0193,-0.00883047,1.49862,0.0166119,0.013484,1371,1723,5.6904,-22.0825
154,-699,5.67761,22.049,-0.00759965,0.0203114,0.00146426,0.020388,-0.00767626,1.51853,0.0167478,0.0137441,1378,1723,5.67763,-22.0489
161,-699,5.70508,21.9796,-0.00597728,0.0206316,0.000765342,0.0206536,-0.00599928,1.54207,0.0161447,0.0103496,1385,1723,5.70506,-21.9797
168,-699,5.7113,21.9508,-0.00360975,0.0196485,2.09516e-05,0.0196486,-0.00360977,1.5699,0.0144533,0.0117845,1392,1723,5.71135,-21.9509
175,-699,5.72314,21.9041,-0.000940582,0.0180883,-0.000407184,0.018097,-0.000949291,-1.54941,0.0123932,0.0141568,1399,1723,5.72315,-21.9041
182,-699,5.75854,21.7996,-0.000206671,0.0154611,-0.000320581,0.0154676,-0.000213227,-1.55035,0.0103836,0.0147153,1406,1723,5.75857,-21.7995
189,-699,5.75952,21.7177,-0.000144039,0.0127063,-0.000220316,0.0127101,-0.000147815,-1.55366,0.00852307,0.0162433,1413,1723,5.75957,-21.7177
196,-699,5.76343,21.6237,0.000419167,0.00828045,-0.000306979,0.00829242,0.000407198,-1.53183,0.00539767,0.0158436,1420,1723,5.76342,-21.6236
203,-699,5.77173,21.5486,0.00086698,0.00142008,0.000879133,0.00206513,0.000221926,0.937784,0.00130907,0.0129238,1427,1723,5.77179,-21.5485
210,-699,5.79175,21.4755,0.000515539,0.00105702,0.000688931,0.0015265,4.60594e-05,0.972622,0.00100267,0.0126471,1434,1723,5.79179,-21.4755
217,-699,5.81934,21.3923,0.000248981,0.000600213,0.000419445,0.000879322,-3.01277e-05,0.983654,0.000596511,0.0137637,1441,1723,5.81932,-21.3923
224,-699,5.82617,21.3,0.000337777,0.000221766,0.000303108,0.00058838,-2.88364e-05,0.690856,0.00040221,0.0146916,1448,1723,5.82621,-21.3001
231,-699,5.83118,21.1935,0.000470679,-0.000106331,0.000205943,0.000536643,-0.000172295,0.309973,0.000426943,0.010985,1455,1723,5.83123,-21.1935
238,-699,5.80627,21.0594,0.000697367,-0.000287009,3.57426e-05,0.000698663,-0.000288305,0.0362462,0.000586014,0.0100299,1462,1723,5.80624,-21.0594
245,-699,5.79883,20.9514,0.000885632,-0.000425477,-9.82036e-05,0.000892946,-0.000432792,-0.0743483,0.000780633,0.0114968,1469,1723,5.79879,-20.9514
252,-699,5.81323,20.8788,0.000982011,-0.000487884,-0.000240268,0.00102029,-0.000526161,-0.157983,0.000907908,0.0098364,1476,1723,5.81323,-20.8788
259,-699,5.81042,20.7695,0.000876962,-0.000472842,-0.000366599,0.000970102,-0.000565981,-0.248799,0.00089703,0.00966774,1483,1723,5.81037,-20.7695
266,-699,5.79639,20.6443,0.00049653,-0.000462219,-0.000318823,0.000592871,-0.00055856,-0.293452,0.000664877,0.0122174,1490,1723,5.79636,-20.6443
273,-699,5.797,20.5062,-6.61377e-06,-0.000497729,-0.000255352,0.000102093,-0.000606436,-0.402475,0.000442267,0.0111782,1497,1723,5.797,-20.5062
280,-699,5.8136,20.3728,-0.000685494,-0.000532505,-9.04981e-05,-0.000490503,-0.000727495,-1.13627,0.000428436,0.0109001,1504,1723,5.81354,-20.3728
287,-699,5.81299,20.2303,-0.00143868,-0.000678918,0.000135559,-0.000655456,-0.00146215,1.39942,0.000845674,0.00985017,1511,1723,5.81297,-20.2303
294,-699,5.80823,20.0898,-0.00208274,-0.000702937,0.000390875,-0.000599903,-0.00218577,1.31306,0.00130405,0.0106197,1518,1723,5.80825,-20.0899
301,-699,5.80933,19.9661,-0.00250244,-0.000877681,0.000441671,-0.000765381,-0.00261474,1.32181,0.00155226,0.0124271,1525,1723,5.80935,-19.966
308,-699,5.79639,19.8202,-0.00264578,-0.000774237,3.60548e-05,-0.000773543,-0.00264648,1.55154,0.00157128,0.0175229,1532,1723,5.79639,-19.8201
315,-699,5.7887,19.6434,-0.00240294,-0.000746108,-0.000288159,-0.000697422,-0.00245162,-1.40342,0.00145862,0.0195528,1539,1723,5.78864,-19.6435
322,-699,5.79248,19.4789,0.000247118,-0.000518394,-0.0004798,0.000478129,-0.000749405,-0.448717,0.000714462,0.0187628,1546,1723,5.79253,-19.4788
329,-699,5.78491,19.3209,0.00405558,0.000136861,-0.000892399,0.00424924,-5.67925e-05,-0.21369,0.00285194,0.0144366,1553,1723,5.78496,-19.3209
336,-699,5.7666,19.1565,0.00806492,0.000767486,-0.00147705,0.00835254,0.000479857,-0.192325,0.0054155,0.0136645,1560,1723,5.76658,-19.1565
343,-699,5.80884,18.9996,0.0131609,0.00146121,-0.00215209,0.0135443,0.00107791,-0.17626,0.0086925,0.0180975,1567,1723,5.80884,-18.9997
350,-699,5.84973,18.8448,0.0192227,0.00212467,-0.00269481,0.0196374,0.00171,-0.15268,0.0125605,0.0282865,1574,1723,5.84969,-18.8448
357,-699,5.79871,18.6989,0.0264212,0.00323744,-0.00293482,0.026787,0.00287169,-0.123984,0.0169819,0.038959,1581,1723,5.79873,-18.6989
364,-699,5.87671,18.5022,0.0344057,0.00418168,-0.00300413,0.0347014,0.00388598,-0.0981166,0.0219539,0.0421887,1588,1723,5.87667,-18.5023
371,-699,6.43286,18.6105,0.0431211,0.00573985,-0.00363963,0.0434722,0.00538877,-0.0961617,0.0273626,0.0462544,1595,1723,6.43282,-18.6105
378,-699,7.08557,18.4373,0,0,0,0,0,0,0,-1,1602,1723,7.08559,-18.4373
385,-699,5.67139,17.5771,0,0,0,0,0,0,0,-1,1609,1723,5.67134,-17.5772
392,-699,5.21069,16.861,0,0,0,0,0,0,0,-1,1616,1723,5.21066,-16.8609
399,-699,3.91516,9.81726,0,0,0,0,0,0,0,-1,1623,1723,3.9152,-9.81721
406,-699,5.50757,21.6672,0,0,0,0,0,0,0,-1,1630,1723,5.50755,-21.6672
413,-699,9.31396,23.2781,0,0,0,0,0,0,0,-1,1637,1723,9.31396,-23.278
420,-699,2.15076,7.65527,0,0,0,0,0,0,0,-1,1644,1723,2.15079,-7.65522
427,-699,3.36328,8.2428,0,0,0,0,0,0,0,-1,1651,1723,3.36332,-8.24283
434,-699,4.66455,8.90222,0,0,0,0,0,0,0,-1,1658,1723,4.66456,-8.90223
441,-699,0,0,0,0,0,0,0,0,0,-1,1665,1723,0,0
448,-699,0,0,0,0,0,0,0,0,0,-1,1672,1723,0,0
455,-699,0,0,0,0,0,0,0,0,0,-1,1679,1723,0,0
462,-699,0,0,0,0,0,0,0,0,0,-1,1686,1723,0,0
469,-699,0,0,0,0,0,0,0,0,0,-1,1693,1723,0,0
476,-699,0,0,0,0,0,0,0,0,0,-1,1700,1723,0,0
483,-699,0,0,0,0,0,0,0,0,0,-1,1707,1723,0,0
490,-699,0,0,0,0,0,0,0,0,0,-1,1714,1723,0,0
497,-699,0,0,0,0,0,0,0,0,0,-1,1721,1723,0,0
504,-699,0,0,0,0,0,0,0,0,0,-1,1728,1723,0,0
511,-699,0,0,0,0,0,0,0,0,0,-1,1735,1723,0,0
518,-699,0,0,0,0,0,0,0,0,0,-1,1742,1723,0,0
525,-699,0,0,0,0,0,0,0,0,0,-1,1749,1723,0,0
532,-699,0,0,0,0,0,0,0,0,0,-1,1756,1723,0,0
539,-699,0,0,0,0,0,0,0,0,0,-1,1763,1723,0,0
546,-699,0,0,0,0,0,0,0,0,0,-1,1770,1723,0,0
553,-699,0,0,0,0,0,0,0,0,0,-1,1777,1723,0,0
560,-699,0,0,0,0,0,0,0,0,0,-1,1784,1723,0,0
567,-699,0,0,0,0,0,0,0,0,0,-1,1791,1723,0,0
574,-699,0,0,0,0,0,0,0,0,0,-1,1798,1723,0,0
581,-699,0,0,0,0,0,0,0,0,0,-1,1805,1723,0,0
588,-699,0,0,0,0,0,0,0,0,0,-1,1812,1723,0,0
595,-699,0,0,0,0,0,0,0,0,0,-1,1819,1723,0,0
602,-699,0,0,0,0,0,0,0,0,0,-1,1826,1723,0,0
609,-699,0,0,0,0,0,0,0,0,0,-1,1833,1723,0,0
616,-699,0,0,0,0,0,0,0,0,0,-1,1840,1723,0,0
623,-699,0,0,0,0,0,0,0,0,0,-1,1847,1723,0,0
630,-699,0,0,0,0,0,0,0,0,0,-1,1854,1723,0,0
637,-699,0,0,0,0,0,0,0,0,0,-1,1861,1723,0,0
644,-699,0,0,0,0,0,0,0,0,0,-1,1868,1723,0,0
651,-699,0,0,0,0,0,0,0,0,0,-1,1875,1723,0,0
658,-699,0,0,0,0,0,0,0,0,0,-1,1882,1723,0,0
665,-699,0,0,0,0,0,0,0,0,0,-1,1889,1723,0,0
672,-699,0,0,0,0,0,0,0,0,0,-1,1896,1723,0,0
679,-699,0,0,0,0,0,0,0,0,0,-1,1903,1723,0,0
686,-699,0,0,0,0,0,0,0,0,0,-1,1910,1723,0,0
693,-699,0,0,0,0,0,0,0,0,0,-1,1917,1723,0,0
700,-699,0,0,0,0,0,0,0,0,0,-1,1924,1723,0,0
707,-699,0,0,0,0,0,0,0,0,0,-1,1931,1723,0,0
714,-699,0,0,0,0,0,0,0,0,0,-1,1938,1723,0,0
721,-699,0,0,0,0,0,0,0,0,0,-1,1945,1723,0,0
728,-699,0,0,0,0,0,0,0,0,0,-1,1952,1723,0,0
735,-699,0,0,0,0,0,0,0,0,0,-1,1959,1723,0,0
742,-699,0,0,0,0,0,0,0,0,0,-1,1966,1723,0,0
749,-699,0,0,0,0,0,0,0,0,0,-1,1973,1723,0,0
756,-699,0,0,0,0,0,0,0,0,0,-1,1980,1723,0,0
763,-699,0,0,0,0,0,0,0,0,0,-1,1987,1723,0,0
770,-699,0,0,0,0,0,0,0,0,0,-1,1994,1723,0,0
777,-699,0,0,0,0,0,0,0,0,0,-1,2001,1723,0,0
784,-699,0,0,0,0,0,0,0,0,0,-1,2008,1723,0,0
791,-699,0,0,0,0,0,0,0,0,0,-1,2015,1723,0,0
798,-699,0,0,0,0,0,0,0,0,0,-1,2022,1723,0,0
805,-699,0,0,0,0,0,0,0,0,0,-1,2029,1723,0,0
812,-699,0,0,0,0,0,0,0,0,0,-1,2036,1723,0,0
-700,-706,0,0,0,0,0,0,0,0,0,-1,524,1730,0,0
-693,-706,0,0,0,0,0,0,0,0,0,-1,531,1730,0,0
-686,-706,0,0,0,0,0,0,0,0,0,-1,538,1730,0,0
-679,-706,0,0,0,0,0,0,0,0,0,-1,545,1730,0,0
-672,-706,0,0,0,0,0,0,0,0,0,-1,552,1730,0,0
-665,-706,0,0,0,0,0,0,0,0,0,-1,559,1730,0,0
-658,-706,0,0,0,0,0,0,0,0,0,-1,566,1730,0,0
-651,-706,0,0,0,0,0,0,0,0,0,-1,573,1730,0,0
-644,-706,0,0,0,0,0,0,0,0,0,-1,580,1730,0,0
-637,-706,0,0,0,0,0,0,0,0,0,-1,587,1730,0,0
-630,-706,0,0,0,0,0,0,0,0,0,-1,594,1730,0,0
-623,-706,0,0,0,0,0,0,0,0,0,-1,601,1730,0,0
-616,-706,0,0,0,0,0,0,0,0,0,-1,608,1730,0,0
-609,-706,0,0,0,0,0,0,0,0,0,-1,615,1730,0,0
-602,-706,0,0,0,0,0,0,0,0,0,-1,622,1730,0,0
-595,-706,0,0,0,0,0,0,0,0,0,-1,629,1730,0,0
-588,-706,0,0,0,0,0,0,0,0,0,-1,636,1730,0,0
-581,-706,0,0,0,0,0,0,0,0,0,-1,643,1730,0,0
-574,-706,0,0,0,0,0,0,0,0,0,-1,650,1730,0,0
-567,-706,0,0,0,0,0,0,0,0,0,-1,657,1730,0,0
-560,-706,0,0,0,0,0,0,0,0,0,-1,664,1730,0,0
-553,-706,0,0,0,0,0,0,0,0,0,-1,671,1730,0,0
-546,-706,0,0,0,0,0,0,0,0,0,-1,678,1730,0,0
-539,-706,0,0,0,0,0,0,0,0,0,-1,685,1730,0,0
-532,-706,0,0,0,0,0,0,0,0,0,-1,692,1730,0,0
-525,-706,0,0,0,0,0,0,0,0,0,-1,699,1730,0,0
-518,-706,0,0,0,0,0,0,0,0,0,-1,706,1730,0,0
-511,-706,0,0,0,0,0,0,0,0,0,-1,713,1730,0,0
-504,-706,0,0,0,0,0,0,0,0,0,-1,720,1730,0,0
-497,-706,0,0,0,0,0,0,0,0,0,-1,727,1730,0,0
-490,-706,0,0,0,0,0,0,0,0,0,-1,734,1730,0,0
-483,-706,0,0,0,0,0,0,0,0,0,-1,741,1730,0,0
-476,-706,0,0,0,0,0,0,0,0,0,-1,748,1730,0,0
-469,-706,0,0,0,0,0,0,0,0,0,-1,755,1730,0,0
-462,-706,0,0,0,0,0,0,0,0,0,-1,762,1730,0,0
-455,-706,0,0,0,0,0,0,0,0,0,-1,769,1730,0,0
-448,-706,0,0,0,0,0,0,0,0,0,-1,776,1730,0,0
-441,-706,0,0,0,0,0,0,0,0,0,-1,783,1730,0,0
-434,-706,0,0,0,0,0,0,0,0,0,-1,790,1730,0,0
-427,-706,0,0,0,0,0,0,0,0,0,-1,797,1730,0,0
-420,-706,0,0,0,0,0,0,0,0,0,-1,804,1730,0,0
-413,-706,0,0,0,0,0,0,0,0,0,-1,811,1730,0,0
-406,-706,0,0,0,0,0,0,0,0,0,-1,818,1730,0,0
-399,-706,0,0,0,0,0,0,0,0,0,-1,825,1730,0,0
-392,-706,0,0,0,0,0,0,0,0,0,-1,832,1730,0,0
-385,-706,0,0,0,0,0,0,0,0,0,-1,839,1730,0,0
-378,-706,0,0,0,0,0,0,0,0,0,-1,846,1730,0,0
-371,-706,0,0,0,0,0,0,0,0,0,-1,853,1730,0,0
-364,-706,0,0,0,0,0,0,0,0,0,-1,860,1730,0,0
-357,-706,0,0,0,0,0,0,0,0,0,-1,867,1730,0,0
-350,-706,0,0,0,0,0,0,0,0,0,-1,874,1730,0,0
-343,-706,0,0,0,0,0,0,0,0,0,-1,881,1730,0,0
-336,-706,0,0,0,0,0,0,0,0,0,-1,888,1730,0,0
-329,-706,0,0,0,0,0,0,0,0,0,-1,895,1730,0,0
-322,-706,0,0,0,0,0,0,0,0,0,-1,902,1730,0,0
-315,-706,0,0,0,0,0,0,0,0,0,-1,909,1730,0,0
-308,-706,5.08191,14.6245,0,0,0,0,0,0,0,-1,916,1730,5.08188,-14.6245
-301,-706,7.45007,21.1975,0,0,0,0,0,0,0,-1,923,1730,7.45005,-21.1976
-294,-706,7.04108,20.9526,0,0,0,0,0,0,0,-1,930,1730,7.04107,-20.9527
-287,-706,6.48712,20.8536,-0.093953,-0.13197,-0.0183661,-0.0865298,-0.139394,-0.384104,0.0812576,0.0490185,937,1730,6.48709,-20.8537
-280,-706,5.87341,20.8206,-0.0850356,-0.122953,-0.0185088,-0.0774989,-0.13049,-0.386694,0.0757801,0.0487778,944,1730,5.87338,-20.8206
-273,-706,5.28461,20.999,0,0,0,0,0,0,0,-1,951,1730,5.2846,-20.999
-266,-706,6.81213,14.6445,0,0,0,0,0,0,0,-1,958,1730,6.81216,-14.6445
-259,-706,3.47852,20.7363,0,0,0,0,0,0,0,-1,965,1730,3.47851,-20.7364
-252,-706,3.84259,20.1979,0,0,0,0,0,0,0,-1,972,1730,3.84256,-20.1979
-245,-706,4.698,19.2992,0,0,0,0,0,0,0,-1,979,1730,4.69799,-19.2991
-238,-706,5.65936,19.0881,0,0,0,0,0,0,0,-1,986,1730,5.65939,-19.0881
-231,-706,5.39935,18.6571,-0.0103865,-0.0354516,-0.00407553,-0.00974048,-0.0360976,-0.157205,0.0215644,0.0455176,993,1730,5.39938,-18.6571
-224,-706,4.9989,18.2708,-0.000989075,-0.0225806,-0.00169341,-0.000857069,-0.0227126,-0.0777956,0.0148643,0.0458115,1000,1730,4.99887,-18.2707
-217,-706,5.12708,18.2845,0.00325034,-0.0163368,-0.000133991,0.00325126,-0.0163377,-0.00684033,0.0121218,0.0446952,1007,1730,5.12707,-18.2845
-210,-706,5.22845,18.3728,0.00481487,-0.013521,0.00132985,0.00491082,-0.013617,0.0720248,0.0110837,0.0420191,1014,1730,5.22843,-18.3728
-203,-706,5.05457,18.7015,0.00583958,-0.0100303,0.00257434,0.00624673,-0.0104375,0.156858,0.0097334,0.0303188,1021,1730,5.05451,-18.7016
-196,-706,5.25171,18.7452,0.00608393,-0.00693281,0.00338346,0.00691086,-0.00775974,0.239706,0.0084748,0.0232229,1028,1730,5.25176,-18.7452
-189,-706,5.2561,18.8983,0.00620649,-0.004092,0.0042989,0.0077651,-0.00565061,0.34782,0.00777756,0.0175749,1035,1730,5.25611,-18.8983
-182,-706,5.25183,19.0809,0.00581527,-0.00228661,0.0045854,0.00788283,-0.00435417,0.423602,0.00716227,0.0127532,1042,1730,5.25179,-19.081
-175,-706,5.2356,19.2677,0.00552434,-0.000213465,0.00493088,0.00836019,-0.00304931,0.521924,0.00682101,0.0145964,1049,1730,5.23556,-19.2677
-168,-706,5.24829,19.4288,0.00490216,0.00107163,0.00477785,0.00813433,-0.00216054,0.594772,0.00626843,0.0157903,1056,1730,5.24826,-19.4288
-161,-706,5.23767,19.5736,0.00403003,0.00186456,0.00445313,0.00753016,-0.00163558,0.666142,0.00564484,0.0133141,1063,1730,5.23769,-19.5737
-154,-706,5.21155,19.7383,0.00336733,0.00231111,0.00404634,0.00691989,-0.00124144,0.720507,0.00507791,0.0129266,1070,1730,5.21159,-19.7383
-147,-706,5.1925,19.8761,0.00253966,0.00269801,0.0035372,0.00615692,-0.000919249,0.796589,0.00444284,0.0118462,1077,1730,5.19247,-19.8761
-140,-706,5.20801,20.0336,0.00197971,0.00266292,0.00303395,0.00537443,-0.000731808,0.841459,0.00385014,0.0104885,1084,1730,5.20806,-20.0336
-133,-706,5.20667,20.1846,0.0017864,0.00220822,0.00266307,0.00466872,-0.0006741,0.824915,0.0033598,0.00822074,1091,1730,5.20668,-20.1846
-126,-706,5.20093,20.3126,0.00157975,0.00177247,0.00222902,0.00390721,-0.000554998,0.807,0.00280815,0.0131161,1098,1730,5.20092,-20.3126
-119,-706,5.19995,20.4706,0.00133943,0.00135601,0.00182113,0.00316887,-0.000473434,0.787674,0.00228679,0.0178764,1105,1730,5.19992,-20.4706
-112,-706,5.18958,20.608,0.00117457,0.00094263,0.00143911,0.00250237,-0.000385175,0.745193,0.00181035,0.0123307,1112,1730,5.18951,-20.608
-105,-706,5.17358,20.7229,0.000998486,0.000607987,0.00107206,0.00189293,-0.000286455,0.695322,0.00136747,0.00897101,1119,1730,5.17361,-20.7229
-98,-706,5.19421,20.821,0.00081261,0.00026726,0.000778181,0.00136451,-0.000284636,0.616882,0.0010179,0.00995792,1126,1730,5.19425,-20.821
-91,-706,5.19299,20.9225,0.000739237,0.000198024,0.000622345,0.00114726,-0.000210001,0.58032,0.0008436,0.0130028,1133,1730,5.19305,-20.9225
-84,-706,5.17566,21.0349,0.000708863,0.000138483,0.000458148,0.000963333,-0.000115987,0.507004,0.000684169,0.0164165,1140,1730,5.17569,-21.0349
-77,-706,5.2002,21.1539,0.000851952,0.000255519,0.000355264,0.00101757,8.98977e-05,0.436238,0.00065049,0.0154704,1147,1730,5.20014,-21.1539
-70,-706,5.21106,21.2727,0.00105701,0.000277006,0.000147498,0.00108397,0.000250046,0.180786,0.000655397,0.0167331,1154,1730,5.2111,-21.2727
-63,-706,5.19983,21.3695,0.00154809,0.000278241,-3.34312e-05,0.00154897,0.000277361,-0.0263026,0.000953733,0.0127609,1161,1730,5.19986,-21.3695
-56,-706,5.19141,21.4601,0.00158426,0.000260258,-6.17522e-05,0.00158714,0.000257384,-0.0465058,0.000983588,0.0127991,1168,1730,5.19136,-21.4601
-49,-706,5.19519,21.567,0.00137328,0.000112601,9.02983e-05,0.00137971,0.000106166,0.0711428,0.000886541,0.013303,1175,1730,5.19516,-21.567
-42,-706,5.22339,21.6799,0.00145062,0.00019651,0.000420348,0.00157848,6.86536e-05,0.295275,0.0010302,0.0173323,1182,1730,5.22345,-21.68
-35,-706,5.24182,21.7318,0.00189184,0.000759339,0.000742716,0.00225954,0.000391636,0.459702,0.00139427,0.0173124,1189,1730,5.24188,-21.7319
-28,-706,5.25171,21.7775,0.00233792,0.00121914,0.00101942,0.00294134,0.000615721,0.534463,0.00179128,0.010733,1196,1730,5.25174,-21.7775
-21,-706,5.26416,21.8297,0.00283793,0.00128597,0.0012428,0.00352711,0.000596789,0.506321,0.00217988,0.0102109,1203,1730,5.26414,-21.8297
-14,-706,5.28479,21.8854,0.00312951,0.00136908,0.0016631,0.00413097,0.00036762,0.542007,0.00263998,0.0101124,1210,1730,5.28478,-21.8853
-7,-706,5.29529,21.9613,0.00407555,0.00182951,0.00170588,0.00499488,0.000910179,0.494297,0.00307181,0.00875272,1217,1730,5.29526,-21.9613
0,-706,5.31006,22.0273,0.00498826,0.00320901,0.00156742,0.00590092,0.00229634,0.527281,0.00343469,0.0112968,1224,1730,5.31011,-22.0273
7,-706,5.32581,22.0441,0.00540179,0.00366491,0.00152487,0.00628818,0.00277852,0.526547,0.00363865,0.0124887,1231,1730,5.32583,-22.0441
14,-706,5.33447,22.0831,0.00568004,0.00364059,0.001647,0.00659744,0.0027232,0.508211,0.00382831,0.0128809,1238,1730,5.33445,-22.0831
21,-706,5.33801,22.1238,0.00587642,0.00348632,0.00186832,0.0068992,0.00246354,0.50087,0.00403713,0.0117943,1245,1730,5.33806,-22.1238
28,-706,5.3429,22.1572,0.00588885,0.00345634,0.00176149,0.00681318,0.002532,0.483247,0.00397657,0.0118232,1252,1730,5.34287,-22.1572
35,-706,5.36804,22.1964,0.00577768,0.00281983,0.00193566,0.00673474,0.00186278,0.459185,0.0040156,0.0133183,1259,1730,5.36807,-22.1964
42,-706,5.40234,22.2358,0.00551298,0.00205153,0.00213848,0.00653335,0.00103116,0.445198,0.00405578,0.012089,1266,1730,5.4024,-22.2359
49,-706,5.42249,22.2587,0.00529701,0.0010926,0.00222773,0.00625782,0.000131794,0.40719,0.00412865,0.0142584,1273,1730,5.42246,-22.2586
56,-706,5.43982,22.2853,0.00491314,-0.00016183,0.00246696,0.00591469,-0.00116338,0.385654,0.00438269,0.0139332,1280,1730,5.43987,-22.2853
63,-706,5.44861,22.2955,0.00383565,-0.0010409,0.00280156,0.00511139,-0.00231664,0.427309,0.00438859,0.0120961,1287,1730,5.44865,-22.2956
70,-706,5.44788,22.2908,0.00234821,-0.00183389,0.00317095,0.0040555,-0.00354119,0.493907,0.0043893,0.012751,1294,1730,5.44793,-22.2908
77,-706,5.4552,22.2997,0.00122029,-0.00259676,0.0034219,0.00322991,-0.00460638,0.531015,0.00454749,0.0105222,1301,1730,5.45517,-22.2997
84,-706,5.46509,22.2974,0.000157008,-0.0028767,0.00365969,0.00260174,-0.00532143,0.588936,0.00466341,0.00845752,1308,1730,5.46506,-22.2973
91,-706,5.5083,22.3005,-0.000653361,-0.00280506,0.00410691,0.00251628,-0.0059747,0.657296,0.00503599,0.00980845,1315,1730,5.50834,-22.3005
98,-706,5.53101,22.3169,-0.00194928,-0.0027272,0.00495494,0.00263194,-0.00730843,0.746229,0.00594701,0.0142232,1322,1730,5.53101,-22.3169
105,-706,5.5343,22.3044,-0.00281655,-0.00294169,0.0054798,0.00260104,-0.00835928,0.779689,0.00661264,0.0164757,1329,1730,5.53436,-22.3044
112,-706,5.53784,22.2761,-0.00295913,-0.00176181,0.0057439,0.00341455,-0.00813549,0.837324,0.00685158,0.015253,1336,1730,5.53787,-22.2761
119,-706,5.55188,22.2578,-0.003262,-0.000699754,0.0059022,0.00405876,-0.00802051,0.89227,0.0070979,0.0117573,1343,1730,5.5519,-22.2579
126,-706,5.5592,22.2219,-0.003527,-0.000176238,0.00614664,0.00451925,-0.0082225,0.91845,0.0074593,0.0128945,1350,1730,5.55923,-22.2219
133,-706,5.57813,22.1664,-0.00350211,-0.000238112,0.00681557,0.00513813,-0.00887835,0.902911,0.0081879,0.0118715,1357,1730,5.57815,-22.1664
140,-706,5.61877,22.114,-0.00321992,0.000127325,0.0070242,0.00567453,-0.00876713,0.90235,0.00840138,0.0117338,1364,1730,5.61883,-22.114
147,-706,5.6377,22.0656,-0.0028758,0.000258095,0.00706624,0.00592904,-0.00854675,0.894508,0.00840303,0.0210725,1371,1730,5.63772,-22.0656
154,-706,5.64539,22.0391,-0.00234862,0.000387669,0.00703722,0.00618851,-0.00814946,0.881408,0.0083038,0.0205602,1378,1730,5.64541,-22.039
161,-706,5.63367,21.9916,-0.00154305,0.000607299,0.00659808,0.00621724,-0.00715298,0.866164,0.0077256,0.0107056,1385,1730,5.63367,-21.9915
168,-706,5.64453,21.9333,-0.000378363,0.000426949,0.00586584,0.00590394,-0.00585535,0.819667,0.00678925,0.0101657,1392,1730,5.64455,-21.9333
175,-706,5.66248,21.8777,0.000768605,0.000288821,0.00510152,0.00563587,-0.00457845,0.761904,0.00590777,0.0105542,1399,1730,5.66246,-21.8777
182,-706,5.66467,21.7974,0.000684198,0.000692995,0.00416517,0.00485377,-0.00347658,0.785926,0.00483139,0.0108759,1406,1730,5.66471,-21.7974
189,-706,5.66687,21.6959,0.000555528,0.00103967,0.0031486,0.00395549,-0.00236029,0.823764,0.00368498,0.0138335,1413,1730,5.66687,-21.6959
196,-706,5.6698,21.6207,0.000621585,0.00130021,0.00161656,0.00261268,-0.000690884,0.888846,0.00201202,0.0125852,1420,1730,5.66979,-21.6208
203,-706,5.66516,21.5586,0.000683452,0.00125912,0.000371343,0.00144112,0.000501451,1.11509,0.000844754,0.0132615,1427,1730,5.66518,-21.5586
210,-706,5.68188,21.4701,0.000483852,0.00102515,0.000206916,0.00109518,0.000413817,1.24443,0.000638563,0.0131117,1434,1730,5.68193,-21.4701
217,-706,5.6936,21.3867,0.000324973,0.000729167,-2.922e-05,0.000731269,0.000322872,-1.499,0.00042316,0.014086,1441,1730,5.6936,-21.3867
224,-706,5.69116,21.2948,0.000391201,0.000467295,-0.000178967,0.000612215,0.000246281,-0.890136,0.000355706,0.017589,1448,1730,5.69111,-21.2948
231,-706,5.70483,21.1803,0.000457983,0.000235573,-0.000304382,0.000670838,2.27181e-05,-0.610257,0.000439848,0.0131129,1455,1730,5.70481,-21.1803
238,-706,5.69775,21.0719,0.000566282,8.92272e-05,-0.000425657,0.000815688,-0.000160179,-0.530012,0.000604303,0.00896352,1462,1730,5.69774,-21.0719
245,-706,5.70215,20.969,0.000675736,3.36498e-05,-0.000550874,0.000992291,-0.000282905,-0.521564,0.000773276,0.0110524,1469,1730,5.7021,-20.969
252,-706,5.70923,20.8804,0.000361278,-0.000135888,-0.000668839,0.000826234,-0.000600845,-0.607477,0.000827343,0.0112526,1476,1730,5.70922,-20.8804
259,-706,5.72021,20.7732,-0.000382284,-0.000370241,-0.000728909,0.000352671,-0.0011052,-0.789528,0.000878283,0.0121848,1483,1730,5.72018,-20.7732
266,-706,5.70386,20.6512,-0.00166715,-0.00101051,-0.000265631,-0.000916515,-0.00176115,-1.23068,0.00101708,0.0124492,1490,1730,5.70387,-20.6512
273,-706,5.68274,20.5177,-0.00300772,-0.00157944,3.05832e-05,-0.00157879,-0.00300837,1.5494,0.0017376,0.0116995,1497,1730,5.68271,-20.5178
280,-706,5.67224,20.3674,-0.00460586,-0.0022931,0.000472621,-0.00220024,-0.00469872,1.3768,0.00271463,0.00975989,1504,1730,5.67224,-20.3675
287,-706,5.66516,20.2081,-0.00632401,-0.00317601,0.000998193,-0.00288618,-0.00661384,1.28821,0.00382879,0.0109529,1511,1730,5.66515,-20.2081
294,-706,5.6842,20.0959,-0.00792329,-0.00390379,0.00159586,-0.00334724,-0.00847983,1.23524,0.00493187,0.0105857,1518,1730,5.68416,-20.096
301,-706,5.68555,19.9563,-0.00912177,-0.00481312,0.00196443,-0.00405195,-0.00988294,1.20113,0.00573665,0.00968411,1525,1730,5.68552,-19.9563
308,-706,5.67395,19.7966,-0.00981011,-0.00524605,0.00174294,-0.00465659,-0.0103996,1.24467,0.00601511,0.0120466,1532,1730,5.67392,-19.7967
315,-706,5.66333,19.6434,-0.00990374,-0.00562288,0.00157024,-0.00510867,-0.0104179,1.25433,0.00601518,0.0180175,1539,1730,5.66336,-19.6434
322,-706,5.65649,19.5026,-0.00662622,-0.00549443,0.00146343,-0.00449129,-0.00762936,0.969887,0.00442785,0.0193254,1546,1730,5.65653,-19.5025
329,-706,5.6676,19.3192,-0.00151212,-0.00464399,0.0010266,-0.00120561,-0.0049505,0.290145,0.00298087,0.0172961,1553,1730,5.66765,-19.3193
336,-706,5.64282,19.0994,0.00419918,-0.00365857,0.00030781,0.00421122,-0.0036706,0.039093,0.00455414,0.0240002,1560,1730,5.64285,-19.0994
343,-706,5.72693,18.8871,0.01162,-0.00236249,-0.000572259,0.0116434,-0.00238587,-0.0408357,0.00866772,0.0345234,1567,1730,5.72696,-18.8871
350,-706,6.0835,18.6962,0.0207444,-0.000859508,-0.00138222,0.0208325,-0.000947583,-0.0636342,0.0142147,0.0413857,1574,1730,6.08349,-18.6961
357,-706,6.34424,18.4233,0.0326957,0.00165784,-0.00192454,0.0328145,0.00153896,-0.0616912,0.0213818,0.0474493,1581,1730,6.34424,-18.4234
364,-706,6.57263,18.0385,0,0,0,0,0,0,0,-1,1588,1730,6.57265,-18.0384
371,-706,6.22168,18.7451,0.0619377,0.00858628,-0.00440154,0.0622984,0.00822559,-0.0817643,0.03908,0.0482348,1595,1730,6.2217,-18.7451
378,-706,7.07849,18.7051,0.0718372,0.00895734,-0.0033979,0.0720203,0.00877426,-0.053829,0.0453724,0.0476993,1602,1730,7.07844,-18.705
385,-706,7.9209,18.6349,0,0,0,0,0,0,0,-1,1609,1730,7.92092,-18.6349
392,-706,5.05701,18.6085,0,0,0,0,0,0,0,-1,1616,1730,5.05699,-18.6085
399,-706,6.0332,16.6144,0,0,0,0,0,0,0,-1,1623,1730,6.03321,-16.6143
406,-706,6.04211,18.8085,0,0,0,0,0,0,0,-1,1630,1730,6.04216,-18.8085
413,-706,6.23413,20.7725,0,0,0,0,0,0,0,-1,1637,1730,6.23413,-20.7725
420,-706,6.51294,21.9171,0,0,0,0,0,0,0,-1,1644,1730,6.51292,-21.9171
427,-706,0,0,0,0,0,0,0,0,0,-1,1651,1730,0,0
434,-706,0,0,0,0,0,0,0,0,0,-1,1658,1730,0,0
441,-706,0,0,0,0,0,0,0,0,0,-1,1665,1730,0,0
448,-706,0,0,0,0,0,0,0,0,0,-1,1672,1730,0,0
455,-706,0,0,0,0,0,0,0,0,0,-1,1679,1730,0,0
462,-706,0,0,0,0,0,0,0,0,0,-1,1686,1730,0,0
469,-706,0,0,0,0,0,0,0,0,0,-1,1693,1730,0,0
476,-706,0,0,0,0,0,0,0,0,0,-1,1700,1730,0,0
483,-706,0,0,0,0,0,0,0,0,0,-1,1707,1730,0,0
490,-706,0,0,0,0,0,0,0,0,0,-1,1714,1730,0,0
497,-706,0,0,0,0,0,0,0,0,0,-1,1721,1730,0,0
504,-706,0,0,0,0,0,0,0,0,0,-1,1728,1730,0,0
511,-706,0,0,0,0,0,0,0,0,0,-1,1735,1730,0,0
518,-706,0,0,0,0,0,0,0,0,0,-1,1742,1730,0,0
525,-706,0,0,0,0,0,0,0,0,0,-1,1749,1730,0,0
532,-706,0,0,0,0,0,0,0,0,0,-1,1756,1730,0,0
539,-706,0,0,0,0,0,0,0,0,0,-1,1763,1730,0,0
546,-706,0,0,0,0,0,0,0,0,0,-1,1770,1730,0,0
553,-706,0,0,0,0,0,0,0,0,0,-1,1777,1730,0,0
560,-706,0,0,0,0,0,0,0,0,0,-1,1784,1730,0,0
567,-706,0,0,0,0,0,0,0,0,0,-1,1791,1730,0,0
574,-706,0,0,0,0,0,0,0,0,0,-1,1798,1730,0,0
581,-706,0,0,0,0,0,0,0,0,0,-1,1805,1730,0,0
588,-706,0,0,0,0,0,0,0,0,0,-1,1812,1730,0,0
595,-706,0,0,0,0,0,0,0,0,0,-1,1819,1730,0,0
602,-706,0,0,0,0,0,0,0,0,0,-1,1826,1730,0,0
609,-706,0,0,0,0,0,0,0,0,0,-1,1833,1730,0,0
616,-706,0,0,0,0,0,0,0,0,0,-1,1840,1730,0,0
623,-706,0,0,0,0,0,0,0,0,0,-1,1847,1730,0,0
630,-706,0,0,0,0,0,0,0,0,0,-1,1854,1730,0,0
637,-706,0,0,0,0,0,0,0,0,0,-1,1861,1730,0,0
644,-706,0,0,0,0,0,0,0,0,0,-1,1868,1730,0,0
651,-706,0,0,0,0,0,0,0,0,0,-1,1875,1730,0,0
658,-706,0,0,0,0,0,0,0,0,0,-1,1882,1730,0,0
665,-706,0,0,0,0,0,0,0,0,0,-1,1889,1730,0,0
672,-706,0,0,0,0,0,0,0,0,0,-1,1896,1730,0,0
679,-706,0,0,0,0,0,0,0,0,0,-1,1903,1730,0,0
686,-706,0,0,0,0,0,0,0,0,0,-1,1910,1730,0,0
693,-706,0,0,0,0,0,0,0,0,0,-1,1917,1730,0,0
700,-706,0,0,0,0,0,0,0,0,0,-1,1924,1730,0,0
707,-706,0,0,0,0,0,0,0,0,0,-1,1931,1730,0,0
714,-706,0,0,0,0,0,0,0,0,0,-1,1938,1730,0,0
721,-706,0,0,0,0,0,0,0,0,0,-1,1945,1730,0,0
728,-706,0,0,0,0,0,0,0,0,0,-1,1952,1730,0,0
735,-706,0,0,0,0,0,0,0,0,0,-1,1959,1730,0,0
742,-706,0,0,0,0,0,0,0,0,0,-1,1966,1730,0,0
749,-706,0,0,0,0,0,0,0,0,0,-1,1973,1730,0,0
756,-706,0,0,0,0,0,0,0,0,0,-1,1980,1730,0,0
763,-706,0,0,0,0,0,0,0,0,0,-1,1987,1730,0,0
770,-706,0,0,0,0,0,0,0,0,0,-1,1994,1730,0,0
777,-706,0,0,0,0,0,0,0,0,0,-1,2001,1730,0,0
784,-706,0,0,0,0,0,0,0,0,0,-1,2008,1730,0,0
791,-706,0,0,0,0,0,0,0,0,0,-1,2015,1730,0,0
798,-706,0,0,0,0,0,0,0,0,0,-1,2022,1730,0,0
805,-706,0,0,0,0,0,0,0,0,0,-1,2029,1730,0,0
812,-706,0,0,0,0,0,0,0,0,0,-1,2036,1730,0,0
-700,-713,0,0,0,0,0,0,0,0,0,-1,524,1737,0,0
-693,-713,0,0,0,0,0,0,0,0,0,-1,531,1737,0,0
-686,-713,0,0,0,0,0,0,0,0,0,-1,538,1737,0,0
-679,-713,0,0,0,0,0,0,0,0,0,-1,545,1737,0,0
-672,-713,0,0,0,0,0,0,0,0,0,-1,552,1737,0,0
-665,-713,0,0,0,0,0,0,0,0,0,-1,559,1737,0,0
-658,-713,0,0,0,0,0,0,0,0,0,-1,566,1737,0,0
-651,-713,0,0,0,0,0,0,0,0,0,-1,573,1737,0,0
-644,-713,0,0,0,0,0,0,0,0,0,-1,580,1737,0,0
-637,-713,0,0,0,0,0,0,0,0,0,-1,587,1737,0,0
-630,-713,0,0,0,0,0,0,0,0,0,-1,594,1737,0,0
-623,-713,0,0,0,0,0,0,0,0,0,-1,601,1737,0,0
-616,-713,0,0,0,0,0,0,0,0,0,-1,608,1737,0,0
-609,-713,0,0,0,0,0,0,0,0,0,-1,615,1737,0,0
-602,-713,0,0,0,0,0,0,0,0,0,-1,622,1737,0,0
-595,-713,0,0,0,0,0,0,0,0,0,-1,629,1737,0,0
-588,-713,0,0,0,0,0,0,0,0,0,-1,636,1737,0,0
-581,-713,0,0,0,0,0,0,0,0,0,-1,643,1737,0,0
-574,-713,0,0,0,0,0,0,0,0,0,-1,650,1737,0,0
-567,-713,0,0,0,0,0,0,0,0,0,-1,657,1737,0,0
-560,-713,0,0,0,0,0,0,0,0,0,-1,664,1737,0,0
-553,-713,0,0,0,0,0,0,0,0,0,-1,671,1737,0,0
-546,-713,0,0,0,0,0,0,0,0,0,-1,678,1737,0,0
-539,-713,0,0,0,0,0,0,0,0,0,-1,685,1737,0,0
-532,-713,0,0,0,0,0,0,0,0,0,-1,692,1737,0,0
-525,-713,0,0,0,0,0,0,0,0,0,-1,699,1737,0,0
-518,-713,0,0,0,0,0,0,0,0,0,-1,706,1737,0,0
-511,-713,0,0,0,0,0,0,0,0,0,-1,713,1737,0,0
-504,-713,0,0,0,0,0,0,0,0,0,-1,720,1737,0,0
-497,-713,0,0,0,0,0,0,0,0,0,-1,727,1737,0,0
-490,-713,0,0,0,0,0,0,0,0,0,-1,734,1737,0,0
-483,-713,0,0,0,0,0,0,0,0,0,-1,741,1737,0,0
-476,-713,0,0,0,0,0,0,0,0,0,-1,748,1737,0,0
-469,-713,0,0,0,0,0,0,0,0,0,-1,755,1737,0,0
-462,-713,0,0,0,0,0,0,0,0,0,-1,762,1737,0,0
-455,-713,0,0,0,0,0,0,0,0,0,-1,769,1737,0,0
-448,-713,0,0,0,0,0,0,0,0,0,-1,776,1737,0,0
-441,-713,0,0,0,0,0,0,0,0,0,-1,783,1737,0,0
-434,-713,0,0,0,0,0,0,0,0,0,-1,790,1737,0,0
-427,-713,0,0,0,0,0,0,0,0,0,-1,797,1737,0,0
-420,-713,0,0,0,0,0,0,0,0,0,-1,804,1737,0,0
-413,-713,0,0,0,0,0,0,0,0,0,-1,811,1737,0,0
-406,-713,0,0,0,0,0,0,0,0,0,-1,818,1737,0,0
-399,-713,0,0,0,0,0,0,0,0,0,-1,825,1737,0,0
-392,-713,0,0,0,0,0,0,0,0,0,-1,832,1737,0,0
-385,-713,0,0,0,0,0,0,0,0,0,-1,839,1737,0,0
-378,-713,0,0,0,0,0,0,0,0,0,-1,846,1737,0,0
-371,-713,0,0,0,0,0,0,0,0,0,-1,853,1737,0,0
-364,-713,0,0,0,0,0,0,0,0,0,-1,860,1737,0,0
-357,-713,0,0,0,0,0,0,0,0,0,-1,867,1737,0,0
-350,-713,0,0,0,0,0,0,0,0,0,-1,874,1737,0,0
-343,-713,0,0,0,0,0,0,0,0,0,-1,881,1737,0,0
-336,-713,0,0,0,0,0,0,0,0,0,-1,888,1737,0,0
-329,-713,0,0,0,0,0,0,0,0,0,-1,895,1737,0,0
-322,-713,0,0,0,0,0,0,0,0,0,-1,902,1737,0,0
-315,-713,0,0,0,0,0,0,0,0,0,-1,909,1737,0,0
-308,-713,0,0,0,0,0,0,0,0,0,-1,916,1737,0,0
-301,-713,0,0,0,0,0,0,0,0,0,-1,923,1737,0,0
-294,-713,7.17883,22.0453,0,0,0,0,0,0,0,-1,930,1737,7.17881,-22.0453
-287,-713,6.85907,21.8297,-0.108576,-0.153972,-0.0221994,-0.0995245,-0.163023,-0.387147,0.0948844,0.0462822,937,1737,6.85906,-21.8298
-280,-713,6.17188,21.8059,-0.0989982,-0.144059,-0.0224051,-0.0897543,-0.153303,-0.391305,0.0889395,0.0487305,944,1737,6.17188,-21.8059
-273,-713,5.64795,22.0507,0,0,0,0,0,0,0,-1,951,1737,5.64795,-22.0506
-266,-713,3.17981,19.8851,0,0,0,0,0,0,0,-1,958,1737,3.17983,-19.8851
-259,-713,3.5921,19.6868,0,0,0,0,0,0,0,-1,965,1737,3.59207,-19.6868
-252,-713,4.55469,20.5758,0,0,0,0,0,0,0,-1,972,1737,4.55466,-20.5758
-245,-713,4.66559,19.8096,0,0,0,0,0,0,0,-1,979,1737,4.6656,-19.8095
-238,-713,4.75653,18.9852,0,0,0,0,0,0,0,-1,986,1737,4.75653,-18.9852
-231,-713,5.67352,18.7988,0,0,0,0,0,0,0,-1,993,1737,5.67349,-18.7988
-224,-713,5.11615,18.2789,0,0,0,0,0,0,0,-1,1000,1737,5.11616,-18.2789
-217,-713,5.24695,18.2961,0,0,0,0,0,0,0,-1,1007,1737,5.24695,-18.2962
-210,-713,4.34045,19.0253,0,0,0,0,0,0,0,-1,1014,1737,4.34047,-19.0253
-203,-713,4.76294,18.9414,0.00922666,-0.012535,0.00392765,0.00991384,-0.0132222,0.173207,0.013403,0.0418883,1021,1737,4.76288,-18.9414
-196,-713,5.24719,18.8735,0.0092061,-0.00850236,0.00489716,0.0104701,-0.00976641,0.252605,0.0116859,0.0399116,1028,1737,5.24719,-18.8736
-189,-713,5.39429,18.9312,0.00921343,-0.00473033,0.00630177,0.0116394,-0.00715629,0.367478,0.0109541,0.0391699,1035,1737,5.39423,-18.9312
-182,-713,5.34473,19.0953,0.00851526,-0.00257134,0.00670543,0.011672,-0.00572809,0.439996,0.0102395,0.0261509,1042,1737,5.34471,-19.0953
-175,-713,5.41272,19.2107,0.00791833,-4.57189e-05,0.00712954,0.0121025,-0.0042299,0.530716,0.00978786,0.0231916,1049,1737,5.41272,-19.2106
-168,-713,5.52515,19.332,0.00692839,0.0016042,0.00690628,0.0116679,-0.00313529,0.601444,0.00900744,0.0280587,1056,1737,5.52509,-19.3321
-161,-713,5.40637,19.5663,0.00564914,0.00264927,0.0064592,0.0107803,-0.00248187,0.671312,0.00814123,0.0141028,1063,1737,5.4064,-19.5662
-154,-713,5.3562,19.7189,0.00465925,0.0032565,0.0059106,0.00990994,-0.00199419,0.726342,0.00736195,0.0116553,1070,1737,5.35617,-19.7188
-147,-713,5.33618,19.8837,0.00348905,0.0038237,0.00523332,0.00889237,-0.00157962,0.801379,0.0065189,0.0177555,1077,1737,5.33622,-19.8836
-140,-713,5.34814,20.0571,0.00267341,0.00391162,0.00453433,0.00786892,-0.00128389,0.853248,0.00572212,0.0164213,1084,1737,5.34814,-20.0571
-133,-713,5.34277,20.1909,0.00229317,0.00346343,0.00397111,0.00689229,-0.00113569,0.858545,0.00501646,0.0105373,1091,1737,5.34277,-20.191
-126,-713,5.3396,20.3192,0.00190147,0.00301535,0.00331381,0.00581869,-0.000901875,0.868654,0.00421206,0.0174468,1098,1737,5.33964,-20.3193
-119,-713,5.34009,20.4658,0.00149517,0.00260542,0.00269725,0.00480408,-0.000703489,0.886887,0.00346113,0.0280164,1105,1737,5.34007,-20.4658
-112,-713,5.31689,20.6119,0.00120673,0.00221665,0.00210795,0.00387927,-0.000455898,0.902959,0.00275077,0.0138152,1112,1737,5.31692,-20.6119
-105,-713,5.30444,20.7296,0.000920155,0.00193108,0.00154592,0.00305208,-0.000200843,0.943402,0.00210486,0.010306,1119,1737,5.3045,-20.7297
-98,-713,5.31055,20.8376,0.000617015,0.00155944,0.00106306,0.00225104,-7.45867e-05,0.994015,0.00152616,0.00935937,1126,1737,5.31059,-20.8376
-91,-713,5.28528,20.9453,0.000482129,0.00151776,0.000792675,0.00194677,5.31257e-05,1.07473,0.0012805,0.00981661,1133,1737,5.28523,-20.9454
-84,-713,5.27356,21.0503,0.000279073,0.00138704,0.000404222,0.00151884,0.000147277,1.25562,0.000967211,0.00972275,1140,1737,5.27351,-21.0503
-77,-713,5.29895,21.155,0.000320586,0.00155423,0.000283255,0.00161615,0.000258657,1.35555,0.0010024,0.0126612,1147,1737,5.29892,-21.155
-70,-713,5.30298,21.2615,0.000480564,0.00142258,0.000179327,0.00145556,0.000447581,1.3889,0.000860879,0.014098,1154,1737,5.30298,-21.2615
-63,-713,5.29407,21.3639,0.000688646,0.00120771,8.94462e-05,0.00122269,0.000673665,1.40485,0.000707141,0.0123675,1161,1737,5.29402,-21.3639
-56,-713,5.29553,21.4695,0.000862305,0.000890277,0.000119941,0.000997045,0.000755538,0.843439,0.000600604,0.0125008,1168,1737,5.29554,-21.4695
-49,-713,5.276,21.5769,0.000928287,0.000595552,0.000182798,0.00100909,0.000514749,0.416211,0.000582638,0.0150594,1175,1737,5.27604,-21.5769
-42,-713,5.29297,21.6265,0.00110083,0.000495543,0.000311475,0.00123248,0.000363894,0.39989,0.000731186,0.0173978,1182,1737,5.29297,-21.6264
-35,-713,5.31641,21.6864,0.00142205,0.00059873,0.000462157,0.0016293,0.000391477,0.421561,0.000982073,0.0142209,1189,1737,5.31642,-21.6864
-28,-713,5.32556,21.7728,0.00171375,0.000692833,0.000605507,0.00199526,0.000411328,0.435181,0.00121647,0.0120062,1196,1737,5.32556,-21.7728
-21,-713,5.33484,21.8514,0.00204521,0.000614171,0.000759059,0.00237283,0.000286552,0.407458,0.00149555,0.00879596,1203,1737,5.33479,-21.8515
-14,-713,5.34351,21.9053,0.00230205,0.000544572,0.00106567,0.00280456,4.20653e-05,0.440621,0.00185584,0.0102172,1210,1737,5.34354,-21.9053
-7,-713,5.34912,21.974,0.002743,0.000903267,0.00127884,0.00339843,0.000247831,0.473618,0.0021877,0.00910851,1217,1737,5.34917,-21.974
0,-713,5.36096,22.0254,0.00315423,0.0019871,0.00135936,0.00404999,0.00109134,0.582647,0.00241969,0.0128523,1224,1737,5.36097,-22.0254
7,-713,5.38147,22.0278,0.00325797,0.00247811,0.00146296,0.00438208,0.001354,0.655159,0.0025908,0.0153949,1231,1737,5.38146,-22.0278
14,-713,5.38904,22.0779,0.00325189,0.00278898,0.00158192,0.0046192,0.00142167,0.712758,0.0027318,0.0119733,1238,1737,5.38906,-22.0779
21,-713,5.37292,22.1315,0.00320077,0.00304152,0.00171665,0.00483964,0.00140265,0.762223,0.00287528,0.0107968,1245,1737,5.37297,-22.1314
28,-713,5.36072,22.1653,0.00306157,0.00340137,0.00156926,0.00480991,0.00165304,0.839321,0.00282188,0.0109287,1252,1737,5.36066,-22.1652
35,-713,5.38184,22.2092,0.00282064,0.00335884,0.00158327,0.00469572,0.00148376,0.869576,0.0027716,0.0112615,1259,1737,5.38189,-22.2092
42,-713,5.42065,22.2517,0.00253507,0.00315727,0.00150348,0.0043815,0.00131084,0.887417,0.00259678,0.0110204,1266,1737,5.42068,-22.2517
49,-713,5.43774,22.2544,0.00237987,0.00276278,0.00130175,0.00388707,0.00125558,0.858412,0.00229059,0.010974,1273,1737,5.4377,-22.2544
56,-713,5.44922,22.2732,0.00223665,0.00198022,0.00118409,0.00329944,0.000917423,0.731468,0.0019665,0.0115256,1280,1737,5.44926,-22.2732
63,-713,5.44141,22.2944,0.00173308,0.0013329,0.00115811,0.00270826,0.000357724,0.699856,0.00169887,0.0120529,1287,1737,5.44147,-22.2944
70,-713,5.45288,22.3092,0.00102802,0.000618693,0.00121617,0.00205663,-0.000409911,0.702036,0.00152618,0.0117306,1294,1737,5.45291,-22.3092
77,-713,5.46753,22.316,0.00055834,-0.000140917,0.00119729,0.00145601,-0.00103859,0.64334,0.00144696,0.0111521,1301,1737,5.46759,-22.3161
84,-713,5.47498,22.3221,0.00014979,-0.000658926,0.00124482,0.00105428,-0.00156341,0.628358,0.00152082,0.0111292,1308,1737,5.47494,-22.3222
91,-713,5.50464,22.3188,-9.73132e-05,-0.000957445,0.00155494,0.00108594,-0.0021407,0.650481,0.00189579,0.0118472,1315,1737,5.50465,-22.3188
98,-713,5.52039,22.3145,-0.000586828,-0.00134712,0.00213882,0.00120536,-0.00313932,0.697448,0.00258991,0.0123556,1322,1737,5.52039,-22.3144
105,-713,5.52295,22.3181,-0.000888988,-0.00193309,0.00260242,0.00124323,-0.0040653,0.686411,0.00320599,0.0137944,1329,1737,5.52294,-22.3182
112,-713,5.54016,22.3096,-0.000836678,-0.00127174,0.00297025,0.001924,-0.00403242,0.748845,0.00351002,0.0130833,1336,1737,5.54021,-22.3096
119,-713,5.52991,22.2686,-0.000941005,-0.00074278,0.00330313,0.00246272,-0.00414651,0.800397,0.0038569,0.0126977,1343,1737,5.52992,-22.2686
126,-713,5.52637,22.2261,-0.00107862,-0.000533682,0.00364924,0.00285325,-0.00446555,0.822662,0.00425955,0.0120616,1350,1737,5.52636,-22.2261
133,-713,5.51892,22.1721,-0.00108566,-0.000642903,0.00420421,0.00334575,-0.00507431,0.811702,0.00489535,0.0118231,1357,1737,5.51895,-22.1721
140,-713,5.54968,22.1289,-0.00091208,-0.000384051,0.0043337,0.00369367,-0.0049898,0.815821,0.00503198,0.0134133,1364,1737,5.54965,-22.1289
147,-713,5.56628,22.0906,-0.000751611,-0.000221819,0.00433966,0.00386103,-0.00483446,0.815881,0.00503081,0.0149533,1371,1737,5.5663,-22.0906
154,-713,5.55273,22.0636,-0.000571679,1.19593e-05,0.00416754,0.00389789,-0.00445761,0.820352,0.00482765,0.0147118,1378,1737,5.55268,-22.0636
161,-713,5.56787,21.9967,-0.000249426,0.000336618,0.00374229,0.00379734,-0.00371015,0.824468,0.00433455,0.0101457,1385,1737,5.56791,-21.9967
168,-713,5.57886,21.9253,0.000207772,0.000460022,0.00315157,0.00348799,-0.0028202,0.805397,0.00364883,0.00989784,1392,1737,5.5789,-21.9253
175,-713,5.61389,21.8623,0.000575018,0.000592043,0.00255202,0.00313557,-0.00196851,0.787066,0.00297241,0.0133708,1399,1737,5.6139,-21.8623
182,-713,5.59985,21.8025,0.000542241,0.000830352,0.00200076,0.00269223,-0.00131964,0.821336,0.00236101,0.0117404,1406,1737,5.59987,-21.8025
189,-713,5.59192,21.7062,0.000495084,0.000916614,0.00139325,0.00211495,-0.000703254,0.860467,0.00169377,0.0117692,1413,1737,5.59194,-21.7062
196,-713,5.5946,21.6438,0.000507114,0.00110177,0.000515584,0.00139962,0.000209269,1.04695,0.000871734,0.0140563,1420,1737,5.59462,-21.6438
203,-713,5.5752,21.5924,0.000567279,0.00110078,-0.000151046,0.00114058,0.000527483,-1.31318,0.00065913,0.0187327,1427,1737,5.57519,-21.5924
210,-713,5.58167,21.4695,0.000520783,0.000973583,-0.000306873,0.00112853,0.000365833,-1.10321,0.000664853,0.0155457,1434,1737,5.5817,-21.4695
217,-713,5.59387,21.3665,0.000479483,0.000793173,-0.000529178,0.00118826,8.43957e-05,-0.929471,0.000765594,0.0121645,1441,1737,5.59393,-21.3664
224,-713,5.58984,21.2732,0.000557574,0.00059889,-0.000720262,0.00129879,-0.000142326,-0.799735,0.000916991,0.0118507,1448,1737,5.58981,-21.2732
231,-713,5.60327,21.1852,0.000586333,0.000432234,-0.00088124,0.00139389,-0.000375318,-0.741792,0.0010764,0.0109767,1455,1737,5.60322,-21.1852
238,-713,5.60608,21.0829,0.000671239,0.000327757,-0.00100589,0.00151995,-0.00052095,-0.700846,0.00122446,0.00856463,1462,1737,5.60614,-21.0828
245,-713,5.60767,20.9849,0.000769129,0.000353391,-0.00114156,0.00172159,-0.000599069,-0.695339,0.0013911,0.0110068,1469,1737,5.60767,-20.9849
252,-713,5.62183,20.8843,-0.000171917,-3.08773e-05,-0.00123203,0.00113265,-0.00133544,-0.813986,0.00142656,0.0116957,1476,1737,5.62187,-20.8842
259,-713,5.63928,20.765,-0.00180841,-0.000674586,-0.00118484,7.19845e-05,-0.00255498,-1.00854,0.00172782,0.011968,1483,1737,5.63925,-20.765
266,-713,5.6051,20.6538,-0.00423062,-0.00225038,-0.000115491,-0.00224367,-0.00423734,-1.51274,0.00244785,0.0108466,1490,1737,5.60513,-20.6538
273,-713,5.57593,20.5208,-0.00653974,-0.00348764,0.000499613,-0.00340794,-0.00661945,1.4126,0.0038223,0.00914361,1497,1737,5.57593,-20.5207
280,-713,5.54602,20.3789,-0.00917001,-0.00500325,0.0013195,-0.00462055,-0.00955271,1.28851,0.00551624,0.00977707,1504,1737,5.54604,-20.3789
287,-713,5.5376,20.2418,-0.0119773,-0.0067356,0.00225234,-0.00590074,-0.0128121,1.21583,0.00740476,0.0110799,1511,1737,5.53757,-20.2419
294,-713,5.57007,20.1276,-0.0146584,-0.00828427,0.00333032,-0.00686173,-0.0160809,1.16711,0.0093175,0.0166944,1518,1737,5.57009,-20.1275
301,-713,5.56909,19.963,-0.016727,-0.0101049,0.00417095,-0.00809055,-0.0187413,1.12088,0.0108539,0.017838,1525,1737,5.56905,-19.963
308,-713,5.52808,19.7813,-0.0180549,-0.0112385,0.00426162,-0.00918986,-0.0201035,1.12269,0.011621,0.0182087,1532,1737,5.52802,-19.7812
315,-713,5.52942,19.634,-0.0186006,-0.0121791,0.00435574,-0.00997866,-0.0208011,1.103,0.0120128,0.0238997,1539,1737,5.52948,-19.634
322,-713,5.51172,19.4491,-0.0147382,-0.0122891,0.0044305,-0.00891703,-0.0181102,0.920225,0.0104564,0.0335256,1546,1737,5.5117,-19.4491
329,-713,5.48376,19.3475,-0.00824632,-0.0113489,0.00405404,-0.00545689,-0.0141383,0.602669,0.00823321,0.0369252,1553,1737,5.48382,-19.3476
336,-713,5.47388,19.2791,-0.000720363,-0.0100719,0.00326258,0.000305383,-0.0110976,0.304613,0.00750226,0.0407091,1560,1737,5.4739,-19.2791
343,-713,5.37756,19.0909,0,0,0,0,0,0,0,-1,1567,1737,5.37752,-19.091
350,-713,6.22583,18.5052,0,0,0,0,0,0,0,-1,1574,1737,6.22585,-18.5052
357,-713,6.62622,18.2336,0,0,0,0,0,0,0,-1,1581,1737,6.62627,-18.2336
364,-713,5.07764,18.7289,0,0,0,0,0,0,0,-1,1588,1737,5.07761,-18.7289
371,-713,6.05554,18.6056,0.0864732,0.012278,-0.00507342,0.0868185,0.0119327,-0.0679577,0.0543399,0.0450829,1595,1737,6.05551,-18.6056
378,-713,7.02185,18.535,0.100604,0.0131708,-0.00355693,0.100748,0.0130264,-0.0405924,0.0632719,0.0474154,1602,1737,7.02188,-18.5351
385,-713,7.81396,18.6816,0,0,0,0,0,0,0,-1,1609,1737,7.81397,-18.6817
392,-713,3.28784,13.7118,0,0,0,0,0,0,0,-1,1616,1737,3.28781,-13.7118
399,-713,2.84045,14.7314,0,0,0,0,0,0,0,-1,1623,1737,2.84046,-14.7315
406,-713,2.97656,16.4902,0,0,0,0,0,0,0,-1,1630,1737,2.97656,-16.4902
413,-713,3.24731,18.2787,0,0,0,0,0,0,0,-1,1637,1737,3.24726,-18.2787
420,-713,0,0,0,0,0,0,0,0,0,-1,1644,1737,0,0
427,-713,0,0,0,0,0,0,0,0,0,-1,1651,1737,0,0
434,-713,0,0,0,0,0,0,0,0,0,-1,1658,1737,0,0
441,-713,0,0,0,0,0,0,0,0,0,-1,1665,1737,0,0
448,-713,0,0,0,0,0,0,0,0,0,-1,1672,1737,0,0
455,-713,0,0,0,0,0,0,0,0,0,-1,1679,1737,0,0
462,-713,0,0,0,0,0,0,0,0,0,-1,1686,1737,0,0
469,-713,0,0,0,0,0,0,0,0,0,-1,1693,1737,0,0
476,-713,0,0,0,0,0,0,0,0,0,-1,1700,1737,0,0
483,-713,0,0,0,0,0,0,0,0,0,-1,1707,1737,0,0
490,-713,0,0,0,0,0,0,0,0,0,-1,1714,1737,0,0
497,-713,0,0,0,0,0,0,0,0,0,-1,1721,1737,0,0
504,-713,0,0,0,0,0,0,0,0,0,-1,1728,1737,0,0
511,-713,0,0,0,0,0,0,0,0,0,-1,1735,1737,0,0
518,-713,0,0,0,0,0,0,0,0,0,-1,1742,1737,0,0
525,-713,0,0,0,0,0,0,0,0,0,-1,1749,1737,0,0
532,-713,0,0,0,0,0,0,0,0,0,-1,1756,1737,0,0
539,-713,0,0,0,0,0,0,0,0,0,-1,1763,1737,0,0
546,-713,0,0,0,0,0,0,0,0,0,-1,1770,1737,0,0
553,-713,0,0,0,0,0,0,0,0,0,-1,1777,1737,0,0
560,-713,0,0,0,0,0,0,0,0,0,-1,1784,1737,0,0
567,-713,0,0,0,0,0,0,0,0,0,-1,1791,1737,0,0
574,-713,0,0,0,0,0,0,0,0,0,-1,1798,1737,0,0
581,-713,0,0,0,0,0,0,0,0,0,-1,1805,1737,0,0
588,-713,0,0,0,0,0,0,0,0,0,-1,1812,1737,0,0
595,-713,0,0,0,0,0,0,0,0,0,-1,1819,1737,0,0
602,-713,0,0,0,0,0,0,0,0,0,-1,1826,1737,0,0
609,-713,0,0,0,0,0,0,0,0,0,-1,1833,1737,0,0
616,-713,0,0,0,0,0,0,0,0,0,-1,1840,1737,0,0
623,-713,0,0,0,0,0,0,0,0,0,-1,1847,1737,0,0
630,-713,0,0,0,0,0,0,0,0,0,-1,1854,1737,0,0
637,-713,0,0,0,0,0,0,0,0,0,-1,1861,1737,0,0
644,-713,0,0,0,0,0,0,0,0,0,-1,1868,1737,0,0
651,-713,0,0,0,0,0,0,0,0,0,-1,1875,1737,0,0
658,-713,0,0,0,0,0,0,0,0,0,-1,1882,1737,0,0
665,-713,0,0,0,0,0,0,0,0,0,-1,1889,1737,0,0
672,-713,0,0,0,0,0,0,0,0,0,-1,1896,1737,0,0
679,-713,0,0,0,0,0,0,0,0,0,-1,1903,1737,0,0
686,-713,0,0,0,0,0,0,0,0,0,-1,1910,1737,0,0
693,-713,0,0,0,0,0,0,0,0,0,-1,1917,1737,0,0
700,-713,0,0,0,0,0,0,0,0,0,-1,1924,1737,0,0
707,-713,0,0,0,0,0,0,0,0,0,-1,1931,1737,0,0
714,-713,0,0,0,0,0,0,0,0,0,-1,1938,1737,0,0
721,-713,0,0,0,0,0,0,0,0,0,-1,1945,1737,0,0
728,-713,0,0,0,0,0,0,0,0,0,-1,1952,1737,0,0
735,-713,0,0,0,0,0,0,0,0,0,-1,1959,1737,0,0
742,-713,0,0,0,0,0,0,0,0,0,-1,1966,1737,0,0
749,-713,0,0,0,0,0,0,0,0,0,-1,1973,1737,0,0
756,-713,0,0,0,0,0,0,0,0,0,-1,1980,1737,0,0
763,-713,0,0,0,0,0,0,0,0,0,-1,1987,1737,0,0
770,-713,0,0,0,0,0,0,0,0,0,-1,1994,1737,0,0
777,-713,0,0,0,0,0,0,0,0,0,-1,2001,1737,0,0
784,-713,0,0,0,0,0,0,0,0,0,-1,2008,1737,0,0
791,-713,0,0,0,0,0,0,0,0,0,-1,2015,1737,0,0
798,-713,0,0,0,0,0,0,0,0,0,-1,2022,1737,0,0
805,-713,0,0,0,0,0,0,0,0,0,-1,2029,1737,0,0
812,-713,0,0,0,0,0,0,0,0,0,-1,2036,1737,0,0
-700,-720,0,0,0,0,0,0,0,0,0,-1,524,1744,0,0
-693,-720,0,0,0,0,0,0,0,0,0,-1,531,1744,0,0
-686,-720,0,0,0,0,0,0,0,0,0,-1,538,1744,0,0
-679,-720,0,0,0,0,0,0,0,0,0,-1,545,1744,0,0
-672,-720,0,0,0,0,0,0,0,0,0,-1,552,1744,0,0
-665,-720,0,0,0,0,0,0,0,0,0,-1,559,1744,0,0
-658,-720,0,0,0,0,0,0,0,0,0,-1,566,1744,0,0
-651,-720,0,0,0,0,0,0,0,0,0,-1,573,1744,0,0
-644,-720,0,0,0,0,0,0,0,0,0,-1,580,1744,0,0
-637,-720,0,0,0,0,0,0,0,0,0,-1,587,1744,0,0
-630,-720,0,0,0,0,0,0,0,0,0,-1,594,1744,0,0
-623,-720,0,0,0,0,0,0,0,0,0,-1,601,1744,0,0
-616,-720,0,0,0,0,0,0,0,0,0,-1,608,1744,0,0
-609,-720,0,0,0,0,0,0,0,0,0,-1,615,1744,0,0
-602,-720,0,0,0,0,0,0,0,0,0,-1,622,1744,0,0
-595,-720,0,0,0,0,0,0,0,0,0,-1,629,1744,0,0
-588,-720,0,0,0,0,0,0,0,0,0,-1,636,1744,0,0
-581,-720,0,0,0,0,0,0,0,0,0,-1,643,1744,0,0
-574,-720,0,0,0,0,0,0,0,0,0,-1,650,1744,0,0
-567,-720,0,0,0,0,0,0,0,0,0,-1,657,1744,0,0
-560,-720,0,0,0,0,0,0,0,0,0,-1,664,1744,0,0
-553,-720,0,0,0,0,0,0,0,0,0,-1,671,1744,0,0
-546,-720,0,0,0,0,0,0,0,0,0,-1,678,1744,0,0
-539,-720,0,0,0,0,0,0,0,0,0,-1,685,1744,0,0
-532,-720,0,0,0,0,0,0,0,0,0,-1,692,1744,0,0
-525,-720,0,0,0,0,0,0,0,0,0,-1,699,1744,0,0
-518,-720,0,0,0,0,0,0,0,0,0,-1,706,1744,0,0
-511,-720,0,0,0,0,0,0,0,0,0,-1,713,1744,0,0
-504,-720,0,0,0,0,0,0,0,0,0,-1,720,1744,0,0
-497,-720,0,0,0,0,0,0,0,0,0,-1,727,1744,0,0
-490,-720,0,0,0,0,0,0,0,0,0,-1,734,1744,0,0
-483,-720,0,0,0,0,0,0,0,0,0,-1,741,1744,0,0
-476,-720,0,0,0,0,0,0,0,0,0,-1,748,1744,0,0
-469,-720,0,0,0,0,0,0,0,0,0,-1,755,1744,0,0
-462,-720,0,0,0,0,0,0,0,0,0,-1,762,1744,0,0
-455,-720,0,0,0,0,0,0,0,0,0,-1,769,1744,0,0
-448,-720,0,0,0,0,0,0,0,0,0,-1,776,1744,0,0
-441,-720,0,0,0,0,0,0,0,0,0,-1,783,1744,0,0
-434,-720,0,0,0,0,0,0,0,0,0,-1,790,1744,0,0
-427,-720,0,0,0,0,0,0,0,0,0,-1,797,1744,0,0
-420,-720,0,0,0,0,0,0,0,0,0,-1,804,1744,0,0
-413,-720,0,0,0,0,0,0,0,0,0,-1,811,1744,0,0
-406,-720,0,0,0,0,0,0,0,0,0,-1,818,1744,0,0
-399,-720,0,0,0,0,0,0,0,0,0,-1,825,1744,0,0
-392,-720,0,0,0,0,0,0,0,0,0,-1,832,1744,0,0
-385,-720,0,0,0,0,0,0,0,0,0,-1,839,1744,0,0
-378,-720,0,0,0,0,0,0,0,0,0,-1,846,1744,0,0
-371,-720,0,0,0,0,0,0,0,0,0,-1,853,1744,0,0
-364,-720,0,0,0,0,0,0,0,0,0,-1,860,1744,0,0
-357,-720,0,0,0,0,0,0,0,0,0,-1,867,1744,0,0
-350,-720,0,0,0,0,0,0,0,0,0,-1,874,1744,0,0
-343,-720,0,0,0,0,0,0,0,0,0,-1,881,1744,0,0
-336,-720,0,0,0,0,0,0,0,0,0,-1,888,1744,0,0
-329,-720,0,0,0,0,0,0,0,0,0,-1,895,1744,0,0
-322,-720,0,0,0,0,0,0,0,0,0,-1,902,1744,0,0
-315,-720,0,0,0,0,0,0,0,0,0,-1,909,1744,0,0
-308,-720,0,0,0,0,0,0,0,0,0,-1,916,1744,0,0
-301,-720,0,0,0,0,0,0,0,0,0,-1,923,1744,0,0
-294,-720,0,0,0,0,0,0,0,0,0,-1,930,1744,0,0
-287,-720,0,0,0,0,0,0,0,0,0,-1,937,1744,0,0
-280,-720,6.46796,22.6417,0,0,0,0,0,0,0,-1,944,1744,6.46793,-22.6417
-273,-720,8.54633,13.262,0,0,0,0,0,0,0,-1,951,1744,8.54636,-13.2619
-266,-720,7.28027,13.3165,0,0,0,0,0,0,0,-1,958,1744,7.28026,-13.3166
-259,-720,3.70563,18.6372,0,0,0,0,0,0,0,-1,965,1744,3.70564,-18.6372
-252,-720,4.00989,18.5059,0,0,0,0,0,0,0,-1,972,1744,4.00988,-18.5058
-245,-720,4.63318,20.3199,0,0,0,0,0,0,0,-1,979,1744,4.6332,-20.32
-238,-720,4.70691,19.5372,0,0,0,0,0,0,0,-1,986,1744,4.70693,-19.5372
-231,-720,5.0304,18.5087,0,0,0,0,0,0,0,-1,993,1744,5.0304,-18.5086
-224,-720,5.41693,18.5825,0,0,0,0,0,0,0,-1,1000,1744,5.41691,-18.5825
-217,-720,5.69269,18.2334,0,0,0,0,0,0,0,-1,1007,1744,5.69271,-18.2334
-210,-720,4.25476,19.1465,0,0,0,0,0,0,0,-1,1014,1744,4.25474,-19.1465
-203,-720,4.64136,19.0736,0.0142455,-0.0153901,0.0059688,0.0154024,-0.0165471,0.191464,0.01845,0.0490157,1021,1744,4.64141,-19.0736
-196,-720,4.82007,19.0922,0.0136644,-0.0101753,0.00706043,0.0155986,-0.0121094,0.267378,0.0160394,0.0486731,1028,1744,4.82005,-19.0922
-189,-720,5.52417,18.9133,0,0,0,0,0,0,0,-1,1035,1744,5.5242,-18.9134
-182,-720,5.38513,19.119,0.0123774,-0.00273326,0.00979534,0.0171926,-0.00754854,0.456896,0.0146416,0.0445926,1042,1744,5.38512,-19.119
-175,-720,5.56384,19.2333,0.0113237,0.000243571,0.0102439,0.0174297,-0.00586241,0.537516,0.0139895,0.045288,1049,1744,5.56383,-19.2333
-168,-720,5.76135,19.4867,0,0,0,0,0,0,0,-1,1056,1744,5.76136,-19.4867
-161,-720,5.44336,19.4774,0.00815675,0.00351302,0.00926681,0.0153882,-0.00371838,0.662647,0.0116969,0.0307522,1063,1744,5.44342,-19.4774
-154,-720,5.52747,19.7529,0.00674152,0.00425351,0.00848701,0.0140752,-0.00308018,0.712628,0.010561,0.0256705,1070,1744,5.52744,-19.753
-147,-720,5.49011,19.9716,0.00513813,0.00495236,0.00755807,0.0126039,-0.0025134,0.779254,0.00935364,0.0250951,1077,1744,5.49015,-19.9715
-140,-720,5.48352,20.124,0.00399094,0.00509876,0.0065528,0.011121,-0.00203132,0.827563,0.00817568,0.019611,1084,1744,5.4835,-20.1241
-133,-720,5.45679,20.2096,0.0033483,0.0045983,0.00568282,0.00969039,-0.00174379,0.840169,0.00711313,0.0136223,1091,1744,5.45679,-20.2096
-126,-720,5.45752,20.333,0.00270256,0.00410186,0.00470266,0.00815663,-0.00135221,0.859245,0.00594002,0.0130608,1098,1744,5.45752,-20.333
-119,-720,5.45837,20.486,0.00207385,0.00369073,0.00379053,0.00675807,-0.000993493,0.890464,0.00487044,0.0160735,1105,1744,5.45837,-20.4859
-112,-720,5.44153,20.5872,0.00160357,0.00334326,0.00292385,0.00552391,-0.000577082,0.929979,0.00388926,0.0147524,1112,1744,5.4415,-20.5872
-105,-720,5.43872,20.7239,0.00114929,0.00312544,0.00212889,0.00448438,-0.000209651,1.00267,0.00306186,0.0135913,1119,1744,5.43874,-20.7239
-98,-720,5.41675,20.834,0.00067557,0.00274545,0.00143395,0.00347893,-5.79139e-05,1.09798,0.00233883,0.0108413,1126,1744,5.41672,-20.834
-91,-720,5.39429,20.9552,0.000434753,0.0027362,0.00103097,0.00313049,4.04611e-05,1.20551,0.00207364,0.00956283,1133,1744,5.39425,-20.9552
-84,-720,5.38782,21.0566,-1.00623e-05,0.00253,0.000363125,0.00258089,-6.09547e-05,1.43155,0.00174127,0.0102066,1140,1744,5.38786,-21.0566
-77,-720,5.39172,21.1519,-0.00011625,0.00280157,0.000223091,0.00281853,-0.000133209,1.49493,0.00192496,0.0131912,1147,1744,5.39167,-21.1518
-70,-720,5.40051,21.2473,-5.15178e-05,0.00251506,0.000208588,0.0025319,-6.83593e-05,1.49023,0.00171118,0.0119976,1154,1744,5.40053,-21.2473
-63,-720,5.37231,21.3522,-0.000107223,0.00205967,0.000195183,0.00207711,-0.000124663,1.48168,0.00142811,0.0110887,1161,1744,5.3723,-21.3522
-56,-720,5.3833,21.4701,0.000173433,0.00136763,0.000285666,0.00143245,0.000108616,1.34768,0.000920899,0.0120774,1168,1744,5.38328,-21.4701
-49,-720,5.37183,21.5587,0.000460334,0.000848624,0.000294718,0.0010074,0.000301562,1.07665,0.000597028,0.0178979,1175,1744,5.3718,-21.5587
-42,-720,5.34729,21.608,0.000766059,0.000566127,0.000322399,0.00100363,0.000328551,0.635064,0.00059085,0.0199215,1182,1744,5.34726,-21.608
-35,-720,5.37891,21.6825,0.00105887,0.000285834,0.000373318,0.00120972,0.000134986,0.384014,0.000765462,0.0174186,1189,1744,5.37889,-21.6825
-28,-720,5.38916,21.7749,0.0012469,8.85467e-05,0.000417727,0.00138183,-4.63781e-05,0.31242,0.000937062,0.0108634,1196,1744,5.38916,-21.7749
-21,-720,5.39453,21.8611,0.00143377,-4.13063e-05,0.00055739,0.0016207,-0.000228239,0.323584,0.00116403,0.00909673,1203,1744,5.39456,-21.8611
-14,-720,5.39038,21.9133,0.00162108,-0.000204702,0.000812596,0.00193035,-0.000513974,0.363669,0.00148811,0.0111416,1210,1744,5.39041,-21.9134
-7,-720,5.38245,21.9803,0.00183386,-8.47064e-05,0.00101232,0.00226922,-0.000520066,0.406148,0.00171269,0.0115792,1217,1744,5.38246,-21.9804
0,-720,5.39331,22.04,0.00199472,0.00048924,0.00111448,0.00258685,-0.000102895,0.488381,0.00175987,0.0119689,1224,1744,5.39331,-22.04
7,-720,5.40833,22.0547,0.00195533,0.000853472,0.00120822,0.0027323,7.65016e-05,0.571488,0.00179658,0.0146247,1231,1744,5.40838,-22.0547
14,-720,5.42627,22.1045,0.00181056,0.0012058,0.00123811,0.00278269,0.000233681,0.665629,0.00178235,0.014274,1238,1744,5.42625,-22.1045
21,-720,5.41357,22.1632,0.0016496,0.00154636,0.00122422,0.00282329,0.000372667,0.764329,0.00177109,0.0115648,1245,1744,5.41355,-22.1632
28,-720,5.41687,22.1995,0.00146255,0.00200099,0.000983889,0.00275182,0.000711709,0.918944,0.00164932,0.0112938,1252,1744,5.41688,-22.1995
35,-720,5.42688,22.2461,0.00125638,0.00221575,0.000825309,0.00269065,0.000781483,1.04864,0.00159828,0.0109968,1259,1744,5.4269,-22.2461
42,-720,5.42517,22.2703,0.00102469,0.0023556,0.000545337,0.0025505,0.000829784,1.22754,0.00150218,0.0111449,1266,1744,5.42513,-22.2702
49,-720,5.4314,22.2646,0.000810559,0.00237164,0.000186886,0.0023937,0.000788498,1.45329,0.00140856,0.0111177,1273,1744,5.43142,-22.2647
56,-720,5.44897,22.2755,0.000689684,0.00203302,-5.31674e-05,0.00203512,0.000687583,-1.5313,0.00119539,0.00989052,1280,1744,5.44899,-22.2756
63,-720,5.4447,22.2858,0.000410513,0.00172567,-0.000161589,0.00174523,0.00039095,-1.45032,0.00105754,0.0123183,1287,1744,5.44465,-22.2858
70,-720,5.46423,22.3043,8.12113e-05,0.00135067,-0.000162409,0.00137112,6.07629e-05,-1.44555,0.000894516,0.0136074,1294,1744,5.46424,-22.3043
77,-720,5.47424,22.3134,-0.000111603,0.000857666,-0.000188483,0.000893029,-0.000146966,-1.38534,0.000649904,0.0148625,1301,1744,5.47419,-22.3133
84,-720,5.4812,22.3069,-0.000277644,0.000396184,-0.000127965,0.000419667,-0.000301127,-1.3893,0.000418022,0.0145949,1308,1744,5.48119,-22.3069
91,-720,5.49036,22.3049,-0.000357048,5.96953e-05,0.000184687,0.000129762,-0.000427115,1.20819,0.000336445,0.0136163,1315,1744,5.4903,-22.3049
98,-720,5.48584,22.3073,-0.000547506,-0.000364912,0.000753022,0.000302327,-0.00121474,0.845724,0.000927184,0.0126299,1322,1744,5.48586,-22.3072
105,-720,5.49487,22.3116,-0.00061949,-0.000888585,0.00122537,0.000478702,-0.00198678,0.730716,0.0015096,0.0117645,1329,1744,5.49484,-22.3116
112,-720,5.50513,22.2908,-0.000499948,-0.000675983,0.00161064,0.00102508,-0.00220101,0.758101,0.00190338,0.0106281,1336,1744,5.50518,-22.2908
119,-720,5.49463,22.2449,-0.000472846,-0.000578887,0.00197162,0.00144646,-0.0024982,0.771955,0.00230427,0.0107632,1343,1744,5.49466,-22.2449
126,-720,5.50085,22.207,-0.000485107,-0.000590053,0.00227212,0.00173515,-0.00281031,0.773853,0.00264868,0.0105367,1350,1744,5.50088,-22.2071
133,-720,5.49536,22.1803,-0.000444654,-0.000700757,0.00258362,0.00201409,-0.0031595,0.760637,0.00301127,0.0122796,1357,1744,5.49532,-22.1803
140,-720,5.52527,22.1752,-0.000324748,-0.000509042,0.00255231,0.00213708,-0.00297087,0.767354,0.00296214,0.0194401,1364,1744,5.52524,-22.1752
147,-720,5.52661,22.1268,-0.000212091,-0.000331373,0.00241926,0.00214827,-0.00269173,0.773074,0.00280024,0.0205052,1371,1744,5.52656,-22.1268
154,-720,5.51099,22.0442,-8.90903e-05,-6.37097e-05,0.00208694,0.00201057,-0.00216337,0.788439,0.00241037,0.013194,1378,1744,5.51104,-22.0441
161,-720,5.52161,21.9845,4.39077e-05,0.000235544,0.00162442,0.00176697,-0.00148751,0.814857,0.00188128,0.00915553,1385,1744,5.52161,-21.9845
168,-720,5.52527,21.9258,0.00019631,0.000533705,0.00111943,0.00149708,-0.000767061,0.860185,0.00132966,0.00946804,1392,1744,5.52526,-21.9258
175,-720,5.5304,21.8456,0.000232959,0.000797211,0.00067848,0.00124988,-0.000219715,0.982433,0.000915327,0.0150612,1399,1744,5.53035,-21.8455
182,-720,5.53101,21.7794,0.000284047,0.000891988,0.000416344,0.00110352,7.25173e-05,1.10072,0.000712737,0.0160023,1406,1744,5.53102,-21.7795
189,-720,5.5437,21.7284,0.000382666,0.000714169,9.61606e-05,0.000740043,0.000356792,1.30795,0.000427355,0.0139883,1413,1744,5.54367,-21.7284
196,-720,5.53564,21.651,0.00042297,0.000862867,-0.000371572,0.00107471,0.000211128,-1.05263,0.000657494,0.0154108,1420,1744,5.53561,-21.651
203,-720,5.495,21.5554,0.000545755,0.00091901,-0.000681873,0.00143933,2.54306e-05,-0.918976,0.000951193,0.0182974,1427,1744,5.49502,-21.5554
210,-720,5.49268,21.4873,0.000659011,0.000869875,-0.000846383,0.00161737,-8.84812e-05,-0.847363,0.00110892,0.0154756,1434,1744,5.49269,-21.4873
217,-720,5.53101,21.3868,0.00074817,0.000761618,-0.00107502,0.00182993,-0.000320143,-0.788526,0.00133948,0.0139854,1441,1744,5.53106,-21.3868
224,-720,5.52075,21.2719,0.000868115,0.000592592,-0.00131619,0.00205373,-0.000593026,-0.733254,0.0016038,0.0100394,1448,1744,5.52071,-21.2718
231,-720,5.5155,21.1803,0.000901538,0.000452589,-0.00152299,0.0022165,-0.000862376,-0.712229,0.001834,0.00969435,1455,1744,5.5155,-21.1803
238,-720,5.50574,21.0682,0.000991395,0.000372039,-0.0016706,0.00238077,-0.00101734,-0.693754,0.00201385,0.00859889,1462,1744,5.50576,-21.0682
245,-720,5.48767,20.9714,0.00109802,0.00046026,-0.00182428,0.00263108,-0.0010728,-0.698873,0.00220062,0.0112219,1469,1744,5.4877,-20.9715
252,-720,5.4989,20.8632,-0.000818078,-0.000340048,-0.00186689,0.00130306,-0.00246119,-0.849066,0.00220731,0.0116168,1476,1744,5.49888,-20.8631
259,-720,5.5072,20.7494,-0.00384666,-0.0017177,-0.00163838,-0.000828362,-0.004736,-1.07349,0.00292063,0.0102712,1483,1744,5.50722,-20.7494
266,-720,5.4679,20.6257,-0.00797224,-0.00477391,0.000317356,-0.00474273,-0.00800343,1.47284,0.00464711,0.00891539,1490,1744,5.46794,-20.6257
273,-720,5.45789,20.4896,-0.0117524,-0.00707957,0.0013993,-0.00669259,-0.0121394,1.30099,0.00702096,0.0160221,1497,1744,5.45789,-20.4897
280,-720,5.39136,20.3666,-0.015946,-0.00980619,0.00276315,-0.0087458,-0.0170064,1.20437,0.00981999,0.0230718,1504,1744,5.3914,-20.3666
287,-720,5.29907,20.1771,-0.0204108,-0.0127783,0.00427485,-0.0108641,-0.022325,1.14979,0.0128909,0.0358597,1511,1744,5.29903,-20.1771
294,-720,5.44714,19.9724,-0.0247295,-0.0155296,0.00603498,-0.0125414,-0.0277178,1.11103,0.0160269,0.0386425,1518,1744,5.4471,-19.9724
301,-720,5.44202,19.8936,-0.0280976,-0.0186387,0.0075614,-0.0144495,-0.0322868,1.06487,0.018675,0.0417864,1525,1744,5.442,-19.8936
308,-720,5.37891,19.6266,-0.0303957,-0.0207776,0.00816021,-0.0161148,-0.0350585,1.05167,0.020263,0.0402394,1532,1744,5.37893,-19.6265
315,-720,5.30017,19.2291,-0.0316794,-0.0225407,0.00868974,-0.0172922,-0.0369279,1.02745,0.0213347,0.0469833,1539,1744,5.30022,-19.2291
322,-720,5.35742,19.3705,0,0,0,0,0,0,0,-1,1546,1744,5.35739,-19.3705
329,-720,5.26563,19.4053,0,0,0,0,0,0,0,-1,1553,1744,5.26561,-19.4053
336,-720,5.3634,19.5007,0,0,0,0,0,0,0,-1,1560,1744,5.36339,-19.5007
343,-720,4.96008,19.4351,0,0,0,0,0,0,0,-1,1567,1744,4.96013,-19.435
350,-720,4.0741,11.1836,0,0,0,0,0,0,0,-1,1574,1744,4.07412,-11.1836
357,-720,3.81091,16.266,0,0,0,0,0,0,0,-1,1581,1744,3.81089,-16.266
364,-720,4.93652,18.7826,0,0,0,0,0,0,0,-1,1588,1744,4.93651,-18.7827
371,-720,5.90027,18.6631,0,0,0,0,0,0,0,-1,1595,1744,5.90025,-18.663
378,-720,6.90405,18.7253,0,0,0,0,0,0,0,-1,1602,1744,6.90402,-18.7254
385,-720,7.54175,18.5774,0,0,0,0,0,0,0,-1,1609,1744,7.54171,-18.5774
392,-720,0.141968,12.1694,0,0,0,0,0,0,0,-1,1616,1744,0.141952,-12.1694
399,-720,-0.334595,13.7629,0,0,0,0,0,0,0,-1,1623,1744,-0.334621,-13.763
406,-720,0,0,0,0,0,0,0,0,0,-1,1630,1744,0,0
413,-720,0,0,0,0,0,0,0,0,0,-1,1637,1744,0,0
420,-720,0,0,0,0,0,0,0,0,0,-1,1644,1744,0,0
427,-720,0,0,0,0,0,0,0,0,0,-1,1651,1744,0,0
434,-720,0,0,0,0,0,0,0,0,0,-1,1658,1744,0,0
441,-720,0,0,0,0,0,0,0,0,0,-1,1665,1744,0,0
448,-720,0,0,0,0,0,0,0,0,0,-1,1672,1744,0,0
455,-720,0,0,0,0,0,0,0,0,0,-1,1679,1744,0,0
462,-720,0,0,0,0,0,0,0,0,0,-1,1686,1744,0,0
469,-720,0,0,0,0,0,0,0,0,0,-1,1693,1744,0,0
476,-720,0,0,0,0,0,0,0,0,0,-1,1700,1744,0,0
483,-720,0,0,0,0,0,0,0,0,0,-1,1707,1744,0,0
490,-720,0,0,0,0,0,0,0,0,0,-1,1714,1744,0,0
497,-720,0,0,0,0,0,0,0,0,0,-1,1721,1744,0,0
504,-720,0,0,0,0,0,0,0,0,0,-1,1728,1744,0,0
511,-720,0,0,0,0,0,0,0,0,0,-1,1735,1744,0,0
518,-720,0,0,0,0,0,0,0,0,0,-1,1742,1744,0,0
525,-720,0,0,0,0,0,0,0,0,0,-1,1749,1744,0,0
532,-720,0,0,0,0,0,0,0,0,0,-1,1756,1744,0,0
539,-720,0,0,0,0,0,0,0,0,0,-1,1763,1744,0,0
546,-720,0,0,0,0,0,0,0,0,0,-1,1770,1744,0,0
553,-720,0,0,0,0,0,0,0,0,0,-1,1777,1744,0,0
560,-720,0,0,0,0,0,0,0,0,0,-1,1784,1744,0,0
567,-720,0,0,0,0,0,0,0,0,0,-1,1791,1744,0,0
574,-720,0,0,0,0,0,0,0,0,0,-1,1798,1744,0,0
581,-720,0,0,0,0,0,0,0,0,0,-1,1805,1744,0,0
588,-720,0,0,0,0,0,0,0,0,0,-1,1812,1744,0,0
595,-720,0,0,0,0,0,0,0,0,0,-1,1819,1744,0,0
602,-720,0,0,0,0,0,0,0,0,0,-1,1826,1744,0,0
609,-720,0,0,0,0,0,0,0,0,0,-1,1833,1744,0,0
616,-720,0,0,0,0,0,0,0,0,0,-1,1840,1744,0,0
623,-720,0,0,0,0,0,0,0,0,0,-1,1847,1744,0,0
630,-720,0,0,0,0,0,0,0,0,0,-1,1854,1744,0,0
637,-720,0,0,0,0,0,0,0,0,0,-1,1861,1744,0,0
644,-720,0,0,0,0,0,0,0,0,0,-1,1868,1744,0,0
651,-720,0,0,0,0,0,0,0,0,0,-1,1875,1744,0,0
658,-720,0,0,0,0,0,0,0,0,0,-1,1882,1744,0,0
665,-720,0,0,0,0,0,0,0,0,0,-1,1889,1744,0,0
672,-720,0,0,0,0,0,0,0,0,0,-1,1896,1744,0,0
679,-720,0,0,0,0,0,0,0,0,0,-1,1903,1744,0,0
686,-720,0,0,0,0,0,0,0,0,0,-1,1910,1744,0,0
693,-720,0,0,0,0,0,0,0,0,0,-1,1917,1744,0,0
700,-720,0,0,0,0,0,0,0,0,0,-1,1924,1744,0,0
707,-720,0,0,0,0,0,0,0,0,0,-1,1931,1744,0,0
714,-720,0,0,0,0,0,0,0,0,0,-1,1938,1744,0,0
721,-720,0,0,0,0,0,0,0,0,0,-1,1945,1744,0,0
728,-720,0,0,0,0,0,0,0,0,0,-1,1952,1744,0,0
735,-720,0,0,0,0,0,0,0,0,0,-1,1959,1744,0,0
742,-720,0,0,0,0,0,0,0,0,0,-1,1966,1744,0,0
749,-720,0,0,0,0,0,0,0,0,0,-1,1973,1744,0,0
756,-720,0,0,0,0,0,0,0,0,0,-1,1980,1744,0,0
763,-720,0,0,0,0,0,0,0,0,0,-1,1987,1744,0,0
770,-720,0,0,0,0,0,0,0,0,0,-1,1994,1744,0,0
777,-720,0,0,0,0,0,0,0,0,0,-1,2001,1744,0,0
784,-720,0,0,0,0,0,0,0,0,0,-1,2008,1744,0,0
791,-720,0,0,0,0,0,0,0,0,0,-1,2015,1744,0,0
798,-720,0,0,0,0,0,0,0,0,0,-1,2022,1744,0,0
805,-720,0,0,0,0,0,0,0,0,0,-1,2029,1744,0,0
812,-720,0,0,0,0,0,0,0,0,0,-1,2036,1744,0,0
-700,-727,0,0,0,0,0,0,0,0,0,-1,524,1751,0,0
-693,-727,0,0,0,0,0,0,0,0,0,-1,531,1751,0,0
-686,-727,0,0,0,0,0,0,0,0,0,-1,538,1751,0,0
-679,-727,0,0,0,0,0,0,0,0,0,-1,545,1751,0,0
-672,-727,0,0,0,0,0,0,0,0,0,-1,552,1751,0,0
-665,-727,0,0,0,0,0,0,0,0,0,-1,559,1751,0,0
-658,-727,0,0,0,0,0,0,0,0,0,-1,566,1751,0,0
-651,-727,0,0,0,0,0,0,0,0,0,-1,573,1751,0,0
-644,-727,0,0,0,0,0,0,0,0,0,-1,580,1751,0,0
-637,-727,0,0,0,0,0,0,0,0,0,-1,587,1751,0,0
-630,-727,0,0,0,0,0,0,0,0,0,-1,594,1751,0,0
-623,-727,0,0,0,0,0,0,0,0,0,-1,601,1751,0,0
-616,-727,0,0,0,0,0,0,0,0,0,-1,608,1751,0,0
-609,-727,0,0,0,0,0,0,0,0,0,-1,615,1751,0,0
-602,-727,0,0,0,0,0,0,0,0,0,-1,622,1751,0,0
-595,-727,0,0,0,0,0,0,0,0,0,-1,629,1751,0,0
-588,-727,0,0,0,0,0,0,0,0,0,-1,636,1751,0,0
-581,-727,0,0,0,0,0,0,0,0,0,-1,643,1751,0,0
-574,-727,0,0,0,0,0,0,0,0,0,-1,650,1751,0,0
-567,-727,0,0,0,0,0,0,0,0,0,-1,657,1751,0,0
-560,-727,0,0,0,0,0,0,0,0,0,-1,664,1751,0,0
-553,-727,0,0,0,0,0,0,0,0,0,-1,671,1751,0,0
-546,-727,0,0,0,0,0,0,0,0,0,-1,678,1751,0,0
-539,-727,0,0,0,0,0,0,0,0,0,-1,685,1751,0,0
-532,-727,0,0,0,0,0,0,0,0,0,-1,692,1751,0,0
-525,-727,0,0,0,0,0,0,0,0,0,-1,699,1751,0,0
-518,-727,0,0,0,0,0,0,0,0,0,-1,706,1751,0,0
-511,-727,0,0,0,0,0,0,0,0,0,-1,713,1751,0,0
-504,-727,0,0,0,0,0,0,0,0,0,-1,720,1751,0,0
-497,-727,0,0,0,0,0,0,0,0,0,-1,727,1751,0,0
-490,-727,0,0,0,0,0,0,0,0,0,-1,734,1751,0,0
-483,-727,0,0,0,0,0,0,0,0,0,-1,741,1751,0,0
-476,-727,0,0,0,0,0,0,0,0,0,-1,748,1751,0,0
-469,-727,0,0,0,0,0,0,0,0,0,-1,755,1751,0,0
-462,-727,0,0,0,0,0,0,0,0,0,-1,762,1751,0,0
-455,-727,0,0,0,0,0,0,0,0,0,-1,769,1751,0,0
-448,-727,0,0,0,0,0,0,0,0,0,-1,776,1751,0,0
-441,-727,0,0,0,0,0,0,0,0,0,-1,783,1751,0,0
-434,-727,0,0,0,0,0,0,0,0,0,-1,790,1751,0,0
-427,-727,0,0,0,0,0,0,0,0,0,-1,797,1751,0,0
-420,-727,0,0,0,0,0,0,0,0,0,-1,804,1751,0,0
-413,-727,0,0,0,0,0,0,0,0,0,-1,811,1751,0,0
-406,-727,0,0,0,0,0,0,0,0,0,-1,818,1751,0,0
-399,-727,0,0,0,0,0,0,0,0,0,-1,825,1751,0,0
-392,-727,0,0,0,0,0,0,0,0,0,-1,832,1751,0,0
-385,-727,0,0,0,0,0,0,0,0,0,-1,839,1751,0,0
-378,-727,0,0,0,0,0,0,0,0,0,-1,846,1751,0,0
-371,-727,0,0,0,0,0,0,0,0,0,-1,853,1751,0,0
-364,-727,0,0,0,0,0,0,0,0,0,-1,860,1751,0,0
-357,-727,0,0,0,0,0,0,0,0,0,-1,867,1751,0,0
-350,-727,0,0,0,0,0,0,0,0,0,-1,874,1751,0,0
-343,-727,0,0,0,0,0,0,0,0,0,-1,881,1751,0,0
-336,-727,0,0,0,0,0,0,0,0,0,-1,888,1751,0,0
-329,-727,0,0,0,0,0,0,0,0,0,-1,895,1751,0,0
-322,-727,0,0,0,0,0,0,0,0,0,-1,902,1751,0,0
-315,-727,0,0,0,0,0,0,0,0,0,-1,909,1751,0,0
-308,-727,0,0,0,0,0,0,0,0,0,-1,916,1751,0,0
-301,-727,0,0,0,0,0,0,0,0,0,-1,923,1751,0,0
-294,-727,0,0,0,0,0,0,0,0,0,-1,930,1751,0,0
-287,-727,0,0,0,0,0,0,0,0,0,-1,937,1751,0,0
-280,-727,0,0,0,0,0,0,0,0,0,-1,944,1751,0,0
-273,-727,0,0,0,0,0,0,0,0,0,-1,951,1751,0,0
-266,-727,4.24805,7.61145,0,0,0,0,0,0,0,-1,958,1751,4.24802,-7.6115
-259,-727,3.65228,5.4082,0,0,0,0,0,0,0,-1,965,1751,3.65229,-5.40818
-252,-727,6.35193,19.5046,0,0,0,0,0,0,0,-1,972,1751,6.35193,-19.5046
-245,-727,6.6543,20.9005,0,0,0,0,0,0,0,-1,979,1751,6.65433,-20.9005
-238,-727,4.31769,18.0181,0,0,0,0,0,0,0,-1,986,1751,4.31766,-18.018
-231,-727,4.72626,18.8145,0,0,0,0,0,0,0,-1,993,1751,4.72627,-18.8145
-224,-727,5.36774,18.8488,0,0,0,0,0,0,0,-1,1000,1751,5.36772,-18.8487
-217,-727,5.94122,16.1447,0,0,0,0,0,0,0,-1,1007,1751,5.9412,-16.1446
-210,-727,4.14667,16.5145,0,0,0,0,0,0,0,-1,1014,1751,4.14665,-16.5145
-203,-727,4.51599,19.2318,0,0,0,0,0,0,0,-1,1021,1751,4.51595,-19.2318
-196,-727,4.38831,19.5543,0,0,0,0,0,0,0,-1,1028,1751,4.38835,-19.5544
-189,-727,5.80457,18.6007,0,0,0,0,0,0,0,-1,1035,1751,5.80455,-18.6006
-182,-727,5.4939,19.2302,0,0,0,0,0,0,0,-1,1042,1751,5.49389,-19.2302
-175,-727,5.70654,19.2837,0,0,0,0,0,0,0,-1,1049,1751,5.70658,-19.2837
-168,-727,5.55432,19.5342,0,0,0,0,0,0,0,-1,1056,1751,5.55429,-19.5341
-161,-727,5.43555,19.5197,0,0,0,0,0,0,0,-1,1063,1751,5.4356,-19.5197
-154,-727,5.52124,19.2129,0.00973342,0.00531689,0.0120925,0.0198176,-0.00476732,0.695086,0.0150546,0.046792,1070,1751,5.5212,-19.2128
-147,-727,5.67822,19.8032,0.00754901,0.00609811,0.0108267,0.0176745,-0.00402737,0.751945,0.0133298,0.0437637,1077,1751,5.67827,-19.8032
-140,-727,5.52368,19.9139,0.00594907,0.00620576,0.00936393,0.0154422,-0.00328739,0.792251,0.0115477,0.0303294,1084,1751,5.52374,-19.914
-133,-727,5.59778,20.0859,0.00495717,0.00560469,0.00801768,0.0133051,-0.00274328,0.805578,0.00991188,0.0227466,1091,1751,5.5978,-20.0859
-126,-727,5.53198,20.2827,0.0039774,0.00502944,0.00656655,0.011091,-0.00208416,0.825366,0.00817774,0.0152366,1098,1751,5.53197,-20.2827
-119,-727,5.53699,20.4698,0.00305657,0.0046115,0.00522978,0.00912129,-0.00145321,0.859188,0.00661866,0.0122882,1105,1751,5.53701,-20.4699
-112,-727,5.55774,20.5867,0.00232074,0.00432274,0.0039829,0.00742851,-0.000785023,0.90851,0.00523368,0.0132391,1112,1751,5.55771,-20.5866
-105,-727,5.55652,20.7145,0.0016072,0.00418567,0.00289413,0.00606473,-0.000271861,0.994936,0.00413675,0.013477,1119,1751,5.55653,-20.7144
-98,-727,5.52551,20.8292,0.00087219,0.00381447,0.00194921,0.0047854,-9.87351e-05,1.10866,0.00322368,0.0115494,1126,1751,5.52554,-20.8292
-91,-727,5.51855,20.9385,0.000442664,0.00381603,0.00138208,0.00430995,-5.12605e-05,1.22756,0.00289054,0.010465,1133,1751,5.51853,-20.9385
-84,-727,5.49756,21.0464,-0.00034603,0.0034871,0.000350316,0.00351885,-0.000377783,1.4804,0.00248143,0.0112079,1140,1751,5.49755,-21.0464
-77,-727,5.48889,21.1547,-0.000638502,0.00389922,0.00016757,0.0039054,-0.000644682,1.53394,0.00284296,0.0125456,1147,1751,5.48894,-21.1546
-70,-727,5.48865,21.2661,-0.000660787,0.00345231,0.000237885,0.00346603,-0.0006745,1.51322,0.00256525,0.0130312,1154,1751,5.4886,-21.2661
-63,-727,5.48218,21.3678,-0.000938134,0.00276868,0.000281939,0.00279,-0.000959456,1.49532,0.0022491,0.0108248,1161,1751,5.48221,-21.3679
-56,-727,5.45972,21.4474,-0.000550847,0.00164928,0.000434853,0.00173211,-0.000633677,1.38257,0.00141411,0.0106403,1168,1751,5.45967,-21.4473
-49,-727,5.44299,21.5278,-0.000131488,0.000852848,0.000415208,0.0010046,-0.000283235,1.2204,0.000781443,0.0132758,1175,1751,5.44295,-21.5278
-42,-727,5.43433,21.6246,0.000303601,0.000414369,0.000433941,0.000796446,-7.84758e-05,0.84887,0.000558962,0.0159747,1182,1751,5.43432,-21.6247
-35,-727,5.42822,21.7006,0.00068727,-0.000125687,0.000445079,0.000883552,-0.00032197,0.415348,0.000720742,0.0142203,1189,1751,5.42818,-21.7005
-28,-727,5.45129,21.7725,0.000947228,-0.00049868,0.000419561,0.00106015,-0.000611606,0.26292,0.000976703,0.00887415,1196,1751,5.45134,-21.7725
-21,-727,5.45703,21.8557,0.00116122,-0.000587757,0.000556383,0.00132321,-0.000749749,0.28332,0.001212,0.00999084,1203,1751,5.45697,-21.8557
-14,-727,5.46021,21.9102,0.00135546,-0.000791683,0.000763717,0.0015994,-0.00103562,0.309161,0.00153289,0.0114186,1210,1751,5.46023,-21.9101
-7,-727,5.45508,21.9785,0.00149083,-0.00100515,0.00118263,0.00196216,-0.00147649,0.379257,0.0019919,0.0145067,1217,1751,5.45506,-21.9786
0,-727,5.44641,22.0393,0.00151414,-0.000929651,0.00140222,0.00215215,-0.00156766,0.427005,0.00215645,0.0142482,1224,1751,5.44637,-22.0393
7,-727,5.44055,22.0543,0.00138279,-0.000762046,0.00161707,0.00225073,-0.00162999,0.492605,0.00225007,0.0139905,1231,1751,5.44054,-22.0543
14,-727,5.44653,22.105,0.00116715,-0.000544146,0.00180121,0.00230561,-0.00168261,0.563657,0.00231195,0.0135109,1238,1751,5.44659,-22.1049
21,-727,5.44885,22.1754,0.000982977,-0.000358321,0.00184862,0.00227884,-0.00165418,0.611389,0.00228026,0.0117268,1245,1751,5.44881,-22.1754
28,-727,5.4624,22.2195,0.000776235,-7.01094e-05,0.00175782,0.0021611,-0.00145497,0.667277,0.00210097,0.0110599,1252,1751,5.46237,-22.2194
35,-727,5.47803,22.2357,0.000625963,0.000101492,0.00165991,0.00204422,-0.00131676,0.707055,0.00195556,0.0114295,1259,1751,5.47804,-22.2357
42,-727,5.44897,22.2377,0.000507828,0.000260476,0.00138927,0.00177892,-0.00101061,0.741004,0.00163077,0.0118962,1266,1751,5.44901,-22.2376
49,-727,5.42395,22.2517,0.000357981,0.00045798,0.000976149,0.00138541,-0.000569448,0.810987,0.00116095,0.0107295,1273,1751,5.42401,-22.2518
56,-727,5.43799,22.2874,0.000263367,0.000377973,0.000688998,0.00101205,-0.000370707,0.826887,0.000826461,0.00941517,1280,1751,5.438,-22.2874
63,-727,5.44592,22.2936,7.95241e-05,0.000284565,0.00047682,0.000669761,-0.000305672,0.89129,0.000576095,0.0117994,1287,1751,5.44594,-22.2936
70,-727,5.47021,22.2888,-9.8428e-05,0.000162631,0.000319872,0.000377581,-0.000313378,0.979119,0.000399499,0.0143131,1294,1751,5.47027,-22.2889
77,-727,5.48279,22.3258,-0.000200866,-7.27539e-05,0.000181894,5.60338e-05,-0.000329653,0.954697,0.000240631,0.0162664,1301,1751,5.48274,-22.3258
84,-727,5.47754,22.3044,-0.000346629,-0.00040174,0.000110792,-0.000260017,-0.000488352,0.663513,0.000282148,0.0164063,1308,1751,5.47748,-22.3045
91,-727,5.47974,22.2832,-0.000510976,-0.000616644,0.000218492,-0.000339021,-0.000788599,0.66677,0.000456787,0.0165833,1315,1751,5.47968,-22.2832
98,-727,5.46497,22.2926,-0.000711142,-0.000776563,0.000359405,-0.000382962,-0.00110474,0.740017,0.000647746,0.0147119,1322,1751,5.46497,-22.2926
105,-727,5.47925,22.2969,-0.000889067,-0.000978117,0.0006961,-0.000236069,-0.00163111,0.75346,0.00101789,0.0142089,1329,1751,5.47926,-22.2968
112,-727,5.48926,22.2739,-0.000941135,-0.00106223,0.000992998,-6.83905e-06,-0.00199652,0.754949,0.00132874,0.0116944,1336,1751,5.48931,-22.274
119,-727,5.49023,22.2446,-0.0010037,-0.00112929,0.00120403,0.000139169,-0.00227216,0.759343,0.00156323,0.00888109,1343,1751,5.49025,-22.2446
126,-727,5.49146,22.2173,-0.00106084,-0.00108985,0.00137541,0.000300136,-0.00245083,0.780125,0.00174257,0.0098766,1350,1751,5.49143,-22.2173
133,-727,5.47668,22.2094,-0.0010038,-0.0010178,0.00140586,0.000395078,-0.00241669,0.782909,0.00175768,0.014387,1357,1751,5.47673,-22.2094
140,-727,5.49365,22.1719,-0.000905942,-0.000729957,0.00122829,0.000413488,-0.00204939,0.821156,0.00152292,0.0220838,1364,1751,5.49369,-22.1719
147,-727,5.48914,22.0941,-0.000809453,-0.000428551,0.00100834,0.000407168,-0.00164517,0.878736,0.00125472,0.0186666,1371,1751,5.48909,-22.0942
154,-727,5.49512,22.0249,-0.000701886,-0.000136072,0.000653604,0.000293225,-0.00113118,0.989645,0.000868523,0.0111193,1378,1751,5.49516,-22.0249
161,-727,5.47314,21.9762,-0.000533619,0.00011951,0.000159137,0.000156221,-0.00057033,1.34408,0.000441603,0.00890198,1385,1751,5.4731,-21.9762
168,-727,5.4635,21.9283,-0.000318787,0.000520516,-0.000314942,0.000625551,-0.000423822,-1.24889,0.000609576,0.0108879,1392,1751,5.46353,-21.9284
175,-727,5.47522,21.854,-0.000215179,0.00089402,-0.000591244,0.00115007,-0.000471227,-1.16211,0.000963017,0.0159777,1399,1751,5.4752,-21.854
182,-727,5.47351,21.7894,-4.68227e-05,0.000857452,-0.000622508,0.00117469,-0.000364065,-1.09948,0.000928587,0.0199378,1406,1751,5.4735,-21.7895
189,-727,5.45642,21.7184,0.000263739,0.00039986,-0.0007664,0.00110122,-0.000437617,-0.829685,0.000915568,0.0124202,1413,1751,5.45648,-21.7183
196,-727,5.45483,21.6447,0.000406086,0.000549587,-0.00105956,0.00153983,-0.000584151,-0.819205,0.00126698,0.0138724,1420,1751,5.45485,-21.6446
203,-727,5.42017,21.5404,0.000647969,0.000674803,-0.00121181,0.00187328,-0.000550503,-0.790934,0.00146719,0.0173102,1427,1751,5.42021,-21.5403
210,-727,5.41687,21.4813,0.0009354,0.000674238,-0.00140263,0.00221351,-0.000603872,-0.738983,0.00171282,0.016183,1434,1751,5.41691,-21.4813
217,-727,5.43311,21.3984,0.00117746,0.000584828,-0.00165775,0.00256517,-0.00080288,-0.69696,0.00203133,0.0118751,1441,1751,5.43316,-21.3984
224,-727,5.43408,21.2687,0.00137641,0.000384519,-0.00196109,0.00290329,-0.00114236,-0.661548,0.00240839,0.0118356,1448,1751,5.4341,-21.2687
231,-727,5.41138,21.1732,0.00144828,0.000227672,-0.00223077,0.00315072,-0.00147477,-0.651873,0.00272834,0.0093334,1455,1751,5.41134,-21.1732
238,-727,5.39819,21.0541,0.00156561,0.000134166,-0.00242441,0.00337774,-0.00167796,-0.641868,0.00297339,0.00991306,1462,1751,5.3982,-21.0541
245,-727,5.38513,20.9496,0.00169802,0.000252109,-0.00261327,0.00368649,-0.00173636,-0.650449,0.00319765,0.0100951,1469,1751,5.38509,-20.9496
252,-727,5.375,20.8407,-0.00171633,-0.00124335,-0.00258507,0.00111602,-0.0040757,-0.831012,0.00315563,0.0114125,1476,1751,5.37501,-20.8407
259,-727,5.38367,20.7156,-0.0068484,-0.00379812,-0.00207546,-0.00274769,-0.00789884,-1.10226,0.00463023,0.0152495,1483,1751,5.38365,-20.7156
266,-727,5.4115,20.6587,-0.0133908,-0.00899076,0.00109805,-0.00873196,-0.0136496,1.33933,0.00798252,0.0231548,1490,1751,5.4115,-20.6587
273,-727,5.51855,20.5935,-0.0192784,-0.0128412,0.00281126,-0.0117863,-0.0203332,1.21182,0.011789,0.0431577,1497,1751,5.51851,-20.5935
280,-727,5.21973,20.3989,0,0,0,0,0,0,0,-1,1504,1751,5.21971,-20.3989
287,-727,5.0531,20.1219,0,0,0,0,0,0,0,-1,1511,1751,5.05306,-20.122
294,-727,5.18262,19.8069,0,0,0,0,0,0,0,-1,1518,1751,5.18261,-19.8068
301,-727,5.27747,19.9277,0,0,0,0,0,0,0,-1,1525,1751,5.27747,-19.9277
308,-727,5.23328,19.4652,0,0,0,0,0,0,0,-1,1532,1751,5.23322,-19.4652
315,-727,5.08203,18.717,0,0,0,0,0,0,0,-1,1539,1751,5.08209,-18.717
322,-727,4.82263,15.9088,0,0,0,0,0,0,0,-1,1546,1751,4.8226,-15.9088
329,-727,6.61853,11.6267,0,0,0,0,0,0,0,-1,1553,1751,6.61859,-11.6267
336,-727,3.34875,7.61792,0,0,0,0,0,0,0,-1,1560,1751,3.34872,-7.61791
343,-727,2.41699,8.72095,0,0,0,0,0,0,0,-1,1567,1751,2.41702,-8.72098
350,-727,3.89783,7.50195,0,0,0,0,0,0,0,-1,1574,1751,3.89782,-7.50193
357,-727,4.48462,10.2948,0,0,0,0,0,0,0,-1,1581,1751,4.48464,-10.2948
364,-727,6.96729,17.2365,0,0,0,0,0,0,0,-1,1588,1751,6.96732,-17.2365
371,-727,6.06628,16.4799,0,0,0,0,0,0,0,-1,1595,1751,6.06631,-16.4798
378,-727,6.43652,17.5544,0,0,0,0,0,0,0,-1,1602,1751,6.43657,-17.5545
385,-727,3.19275,14.7679,0,0,0,0,0,0,0,-1,1609,1751,3.19274,-14.768
392,-727,0,0,0,0,0,0,0,0,0,-1,1616,1751,0,0
399,-727,0,0,0,0,0,0,0,0,0,-1,1623,1751,0,0
406,-727,0,0,0,0,0,0,0,0,0,-1,1630,1751,0,0
413,-727,0,0,0,0,0,0,0,0,0,-1,1637,1751,0,0
420,-727,0,0,0,0,0,0,0,0,0,-1,1644,1751,0,0
427,-727,0,0,0,0,0,0,0,0,0,-1,1651,1751,0,0
434,-727,0,0,0,0,0,0,0,0,0,-1,1658,1751,0,0
441,-727,0,0,0,0,0,0,0,0,0,-1,1665,1751,0,0
448,-727,0,0,0,0,0,0,0,0,0,-1,1672,1751,0,0
455,-727,0,0,0,0,0,0,0,0,0,-1,1679,1751,0,0
462,-727,0,0,0,0,0,0,0,0,0,-1,1686,1751,0,0
469,-727,0,0,0,0,0,0,0,0,0,-1,1693,1751,0,0
476,-727,0,0,0,0,0,0,0,0,0,-1,1700,1751,0,0
483,-727,0,0,0,0,0,0,0,0,0,-1,1707,1751,0,0
490,-727,0,0,0,0,0,0,0,0,0,-1,1714,1751,0,0
497,-727,0,0,0,0,0,0,0,0,0,-1,1721,1751,0,0
504,-727,0,0,0,0,0,0,0,0,0,-1,1728,1751,0,0
511,-727,0,0,0,0,0,0,0,0,0,-1,1735,1751,0,0
518,-727,0,0,0,0,0,0,0,0,0,-1,1742,1751,0,0
525,-727,0,0,0,0,0,0,0,0,0,-1,1749,1751,0,0
532,-727,0,0,0,0,0,0,0,0,0,-1,1756,1751,0,0
539,-727,0,0,0,0,0,0,0,0,0,-1,1763,1751,0,0
546,-727,0,0,0,0,0,0,0,0,0,-1,1770,1751,0,0
553,-727,0,0,0,0,0,0,0,0,0,-1,1777,1751,0,0
560,-727,0,0,0,0,0,0,0,0,0,-1,1784,1751,0,0
567,-727,0,0,0,0,0,0,0,0,0,-1,1791,1751,0,0
574,-727,0,0,0,0,0,0,0,0,0,-1,1798,1751,0,0
581,-727,0,0,0,0,0,0,0,0,0,-1,1805,1751,0,0
588,-727,0,0,0,0,0,0,0,0,0,-1,1812,1751,0,0
595,-727,0,0,0,0,0,0,0,0,0,-1,1819,1751,0,0
602,-727,0,0,0,0,0,0,0,0,0,-1,1826,1751,0,0
609,-727,0,0,0,0,0,0,0,0,0,-1,1833,1751,0,0
616,-727,0,0,0,0,0,0,0,0,0,-1,1840,1751,0,0
623,-727,0,0,0,0,0,0,0,0,0,-1,1847,1751,0,0
630,-727,0,0,0,0,0,0,0,0,0,-1,1854,1751,0,0
637,-727,0,0,0,0,0,0,0,0,0,-1,1861,1751,0,0
644,-727,0,0,0,0,0,0,0,0,0,-1,1868,1751,0,0
651,-727,0,0,0,0,0,0,0,0,0,-1,1875,1751,0,0
658,-727,0,0,0,0,0,0,0,0,0,-1,1882,1751,0,0
665,-727,0,0,0,0,0,0,0,0,0,-1,1889,1751,0,0
672,-727,0,0,0,0,0,0,0,0,0,-1,1896,1751,0,0
679,-727,0,0,0,0,0,0,0,0,0,-1,1903,1751,0,0
686,-727,0,0,0,0,0,0,0,0,0,-1,1910,1751,0,0
693,-727,0,0,0,0,0,0,0,0,0,-1,1917,1751,0,0
700,-727,0,0,0,0,0,0,0,0,0,-1,1924,1751,0,0
707,-727,0,0,0,0,0,0,0,0,0,-1,1931,1751,0,0
714,-727,0,0,0,0,0,0,0,0,0,-1,1938,1751,0,0
721,-727,0,0,0,0,0,0,0,0,0,-1,1945,1751,0,0
728,-727,0,0,0,0,0,0,0,0,0,-1,1952,1751,0,0
735,-727,0,0,0,0,0,0,0,0,0,-1,1959,1751,0,0
742,-727,0,0,0,0,0,0,0,0,0,-1,1966,1751,0,0
749,-727,0,0,0,0,0,0,0,0,0,-1,1973,1751,0,0
756,-727,0,0,0,0,0,0,0,0,0,-1,1980,1751,0,0
763,-727,0,0,0,0,0,0,0,0,0,-1,1987,1751,0,0
770,-727,0,0,0,0,0,0,0,0,0,-1,1994,1751,0,0
777,-727,0,0,0,0,0,0,0,0,0,-1,2001,1751,0,0
784,-727,0,0,0,0,0,0,0,0,0,-1,2008,1751,0,0
791,-727,0,0,0,0,0,0,0,0,0,-1,2015,1751,0,0
798,-727,0,0,0,0,0,0,0,0,0,-1,2022,1751,0,0
805,-727,0,0,0,0,0,0,0,0,0,-1,2029,1751,0,0
812,-727,0,0,0,0,0,0,0,0,0,-1,2036,1751,0,0
-700,-734,0,0,0,0,0,0,0,0,0,-1,524,1758,0,0
-693,-734,0,0,0,0,0,0,0,0,0,-1,531,1758,0,0
-686,-734,0,0,0,0,0,0,0,0,0,-1,538,1758,0,0
-679,-734,0,0,0,0,0,0,0,0,0,-1,545,1758,0,0
-672,-734,0,0,0,0,0,0,0,0,0,-1,552,1758,0,0
-665,-734,0,0,0,0,0,0,0,0,0,-1,559,1758,0,0
-658,-734,0,0,0,0,0,0,0,0,0,-1,566,1758,0,0
-651,-734,0,0,0,0,0,0,0,0,0,-1,573,1758,0,0
-644,-734,0,0,0,0,0,0,0,0,0,-1,580,1758,0,0
-637,-734,0,0,0,0,0,0,0,0,0,-1,587,1758,0,0
-630,-734,0,0,0,0,0,0,0,0,0,-1,594,1758,0,0
-623,-734,0,0,0,0,0,0,0,0,0,-1,601,1758,0,0
-616,-734,0,0,0,0,0,0,0,0,0,-1,608,1758,0,0
-609,-734,0,0,0,0,0,0,0,0,0,-1,615,1758,0,0
-602,-734,0,0,0,0,0,0,0,0,0,-1,622,1758,0,0
-595,-734,0,0,0,0,0,0,0,0,0,-1,629,1758,0,0
-588,-734,0,0,0,0,0,0,0,0,0,-1,636,1758,0,0
-581,-734,0,0,0,0,0,0,0,0,0,-1,643,1758,0,0
-574,-734,0,0,0,0,0,0,0,0,0,-1,650,1758,0,0
-567,-734,0,0,0,0,0,0,0,0,0,-1,657,1758,0,0
-560,-734,0,0,0,0,0,0,0,0,0,-1,664,1758,0,0
-553,-734,0,0,0,0,0,0,0,0,0,-1,671,1758,0,0
-546,-734,0,0,0,0,0,0,0,0,0,-1,678,1758,0,0
-539,-734,0,0,0,0,0,0,0,0,0,-1,685,1758,0,0
-532,-734,0,0,0,0,0,0,0,0,0,-1,692,1758,0,0
-525,-734,0,0,0,0,0,0,0,0,0,-1,699,1758,0,0
-518,-734,0,0,0,0,0,0,0,0,0,-1,706,1758,0,0
-511,-734,0,0,0,0,0,0,0,0,0,-1,713,1758,0,0
-504,-734,0,0,0,0,0,0,0,0,0,-1,720,1758,0,0
-497,-734,0,0,0,0,0,0,0,0,0,-1,727,1758,0,0
-490,-734,0,0,0,0,0,0,0,0,0,-1,734,1758,0,0
-483,-734,0,0,0,0,0,0,0,0,0,-1,741,1758,0,0
-476,-734,0,0,0,0,0,0,0,0,0,-1,748,1758,0,0
-469,-734,0,0,0,0,0,0,0,0,0,-1,755,1758,0,0
-462,-734,0,0,0,0,0,0,0,0,0,-1,762,1758,0,0
-455,-734,0,0,0,0,0,0,0,0,0,-1,769,1758,0,0
-448,-734,0,0,0,0,0,0,0,0,0,-1,776,1758,0,0
-441,-734,0,0,0,0,0,0,0,0,0,-1,783,1758,0,0
-434,-734,0,0,0,0,0,0,0,0,0,-1,790,1758,0,0
-427,-734,0,0,0,0,0,0,0,0,0,-1,797,1758,0,0
-420,-734,0,0,0,0,0,0,0,0,0,-1,804,1758,0,0
-413,-734,0,0,0,0,0,0,0,0,0,-1,811,1758,0,0
-406,-734,0,0,0,0,0,0,0,0,0,-1,818,1758,0,0
-399,-734,0,0,0,0,0,0,0,0,0,-1,825,1758,0,0
-392,-734,0,0,0,0,0,0,0,0,0,-1,832,1758,0,0
-385,-734,0,0,0,0,0,0,0,0,0,-1,839,1758,0,0
-378,-734,0,0,0,0,0,0,0,0,0,-1,846,1758,0,0
-371,-734,0,0,0,0,0,0,0,0,0,-1,853,1758,0,0
-364,-734,0,0,0,0,0,0,0,0,0,-1,860,1758,0,0
-357,-734,0,0,0,0,0,0,0,0,0,-1,867,1758,0,0
-350,-734,0,0,0,0,0,0,0,0,0,-1,874,1758,0,0
-343,-734,0,0,0,0,0,0,0,0,0,-1,881,1758,0,0
-336,-734,0,0,0,0,0,0,0,0,0,-1,888,1758,0,0
-329,-734,0,0,0,0,0,0,0,0,0,-1,895,1758,0,0
-322,-734,0,0,0,0,0,0,0,0,0,-1,902,1758,0,0
-315,-734,0,0,0,0,0,0,0,0,0,-1,909,1758,0,0
-308,-734,0,0,0,0,0,0,0,0,0,-1,916,1758,0,0
-301,-734,0,0,0,0,0,0,0,0,0,-1,923,1758,0,0
-294,-734,0,0,0,0,0,0,0,0,0,-1,930,1758,0,0
-287,-734,0,0,0,0,0,0,0,0,0,-1,937,1758,0,0
-280,-734,0,0,0,0,0,0,0,0,0,-1,944,1758,0,0
-273,-734,0,0,0,0,0,0,0,0,0,-1,951,1758,0,0
-266,-734,0,0,0,0,0,0,0,0,0,-1,958,1758,0,0
-259,-734,0,0,0,0,0,0,0,0,0,-1,965,1758,0,0
-252,-734,6.93439,18.351,0,0,0,0,0,0,0,-1,972,1758,6.93438,-18.3509
-245,-734,6.95746,19.5341,0,0,0,0,0,0,0,-1,979,1758,6.95746,-19.5341
-238,-734,4.33466,18.0819,0,0,0,0,0,0,0,-1,986,1758,4.33464,-18.0819
-231,-734,5.00385,17.5045,0,0,0,0,0,0,0,-1,993,1758,5.00388,-17.5045
-224,-734,5.60974,16.9055,0,0,0,0,0,0,0,-1,1000,1758,5.60974,-16.9056
-217,-734,6.61804,16.4808,0,0,0,0,0,0,0,-1,1007,1758,6.61804,-16.4808
-210,-734,7.62262,16.1628,0,0,0,0,0,0,0,-1,1014,1758,7.6226,-16.1628
-203,-734,7.41125,15.7953,0,0,0,0,0,0,0,-1,1021,1758,7.41123,-15.7953
-196,-734,3.42322,19.1584,0,0,0,0,0,0,0,-1,1028,1758,3.42318,-19.1585
-189,-734,5.99121,18.838,0,0,0,0,0,0,0,-1,1035,1758,5.99117,-18.838
-182,-734,4.38708,17.6525,0,0,0,0,0,0,0,-1,1042,1758,4.38708,-17.6525
-175,-734,5.05054,18.079,0,0,0,0,0,0,0,-1,1049,1758,5.05053,-18.0789
-168,-734,4.50208,15.4194,0,0,0,0,0,0,0,-1,1056,1758,4.50212,-15.4194
-161,-734,5.15601,18.8546,0,0,0,0,0,0,0,-1,1063,1758,5.15595,-18.8546
-154,-734,5.82471,19.2607,0,0,0,0,0,0,0,-1,1070,1758,5.82473,-19.2607
-147,-734,5.76587,19.7288,0.0111826,0.00739386,0.0152898,0.0246949,-0.00611848,0.723764,0.018837,0.0471473,1077,1758,5.76592,-19.7288
-140,-734,5.66162,19.9133,0.00904838,0.00740226,0.0131743,0.0214253,-0.00497464,0.754201,0.0161984,0.042585,1084,1758,5.66165,-19.9134
-133,-734,5.74866,20.1815,0.00759018,0.0066217,0.011144,0.0182605,-0.0040486,0.763685,0.0137237,0.0417273,1091,1758,5.74863,-20.1816
-126,-734,5.5636,20.2462,0.00612524,0.00593771,0.00901087,0.0150428,-0.00297988,0.780196,0.0111553,0.0363773,1098,1758,5.56361,-20.2463
-119,-734,5.5282,20.3976,0.00478988,0.00551602,0.007067,0.0122293,-0.00192337,0.811063,0.00886381,0.0355641,1105,1758,5.52823,-20.3976
-112,-734,5.66321,20.5419,0.00366934,0.00532213,0.00529591,0.00985573,-0.000864271,0.862796,0.00687671,0.0282398,1112,1758,5.66326,-20.5419
-105,-734,5.65002,20.6788,0.0025994,0.00529968,0.00382401,0.0080049,-0.000105819,0.955102,0.00537222,0.0193335,1119,1758,5.65003,-20.6788
-98,-734,5.65161,20.7671,0.00153142,0.00498623,0.00257602,0.0063604,0.000157249,1.08075,0.00418884,0.0209388,1126,1758,5.6516,-20.7671
-91,-734,5.64063,20.8561,0.000857723,0.00497785,0.00180204,0.0056548,0.000180776,1.21145,0.00371108,0.0267318,1133,1758,5.6406,-20.856
-84,-734,5.58777,20.9927,-0.000375791,0.00444622,0.000302805,0.00446516,-0.000394732,1.50833,0.00311669,0.0222499,1140,1758,5.58783,-20.9927
-77,-734,5.57507,21.1589,-0.000903622,0.00500247,6.14154e-05,0.00500311,-0.000904261,1.5604,0.00367411,0.0174585,1147,1758,5.57509,-21.1589
-70,-734,5.54773,21.2106,-0.00105682,0.00433147,0.000229821,0.00434125,-0.0010666,1.52825,0.00330753,0.0128424,1154,1758,5.54778,-21.2106
-63,-734,5.54492,21.3065,-0.00149933,0.00337775,0.000304979,0.00339675,-0.00151833,1.50859,0.00290598,0.012927,1161,1758,5.54491,-21.3065
-56,-734,5.5437,21.4108,-0.00139507,0.00115324,0.000740046,0.00135257,-0.00159439,1.3077,0.00170334,0.0128189,1168,1758,5.54364,-21.4108
-49,-734,5.53662,21.5129,-0.00135083,-0.000557523,0.000567397,-0.000261881,-0.00164647,1.09045,0.0010216,0.0123934,1175,1758,5.53657,-21.513
-42,-734,5.51807,21.635,-0.00128989,-0.00134711,0.000546586,-0.000771165,-0.00186583,0.75925,0.00108262,0.0138037,1182,1758,5.51807,-21.635
-35,-734,5.52307,21.714,-0.00129522,-0.0021503,0.000565387,-0.00101392,-0.0024316,0.461672,0.00141032,0.0138801,1189,1758,5.52309,-21.714
-28,-734,5.54224,21.7834,-0.00144057,-0.00260764,0.000565101,-0.00121179,-0.00283641,0.384676,0.00164338,0.00956803,1196,1758,5.54224,-21.7835
-21,-734,5.55566,21.8534,-0.00138446,-0.00259444,0.000725023,-0.00104517,-0.00293374,0.437702,0.00171697,0.0145948,1203,1758,5.55561,-21.8534
-14,-734,5.52271,21.9304,-0.00139281,-0.00285013,0.0010804,-0.000818316,-0.00342462,0.488718,0.00206508,0.0157301,1210,1758,5.52276,-21.9304
-7,-734,5.52039,21.989,-0.000898757,-0.00319973,0.00176464,5.73143e-05,-0.0041558,0.49652,0.00278984,0.0179283,1217,1758,5.52038,-21.9891
0,-734,5.50928,22.022,-0.000324501,-0.00314505,0.00217364,0.000856279,-0.00432583,0.497629,0.00320764,0.0174952,1224,1758,5.50922,-22.0219
7,-734,5.49097,22.0568,-2.12676e-05,-0.00292204,0.00268303,0.00157831,-0.00452162,0.537608,0.0036559,0.0130508,1231,1758,5.49099,-22.0568
14,-734,5.4967,22.118,0.000335934,-0.00256451,0.00325795,0.00245186,-0.00468043,0.575998,0.0041843,0.012694,1238,1758,5.49666,-22.118
21,-734,5.47058,22.1716,0.000806587,-0.00226608,0.00354608,0.00313484,-0.00459433,0.58098,0.00448888,0.0113003,1245,1758,5.47061,-22.1716
28,-734,5.46484,22.229,0.00118094,-0.00197017,0.00378707,0.00370713,-0.00449636,0.588272,0.00474359,0.0113044,1252,1758,5.46478,-22.229
35,-734,5.46948,22.2513,0.00156394,-0.00172752,0.00395826,0.00420496,-0.00436854,0.588384,0.00495022,0.0141332,1259,1758,5.46946,-22.2514
42,-734,5.47913,22.2346,0.00189206,-0.0015039,0.00387805,0.00442757,-0.0040394,0.579048,0.00489012,0.0123574,1266,1758,5.47908,-22.2346
49,-734,5.45325,22.2516,0.00202724,-0.00114257,0.00359311,0.00436947,-0.00348479,0.577686,0.00454424,0.0100914,1273,1758,5.4533,-22.2515
56,-734,5.44409,22.2924,0.00197817,-0.00104682,0.00340501,0.00419149,-0.00326014,0.576389,0.00431339,0.0092447,1280,1758,5.44404,-22.2923
63,-734,5.44458,22.3032,0.00171237,-0.0011164,0.00316638,0.0037659,-0.00316993,0.57535,0.00400933,0.0118934,1287,1758,5.44453,-22.3032
70,-734,5.44604,22.3091,0.00136069,-0.00122511,0.00282988,0.00317903,-0.00304345,0.57112,0.00359283,0.0130614,1294,1758,5.446,-22.3091
77,-734,5.47021,22.3617,0.00097135,-0.00141726,0.00247719,0.00252711,-0.00297301,0.560777,0.00317897,0.0178633,1301,1758,5.47028,-22.3616
84,-734,5.45691,22.3459,0.000392999,-0.00176291,0.00213519,0.00170691,-0.00307682,0.551638,0.00279938,0.0156178,1308,1758,5.45692,-22.346
91,-734,5.46411,22.329,-0.000132354,-0.00187329,0.00183779,0.0010307,-0.00303634,0.564226,0.00244142,0.0177328,1315,1758,5.4641,-22.329
98,-734,5.46924,22.309,-0.000866692,-0.00186089,0.00151661,0.000232203,-0.00295979,0.62703,0.00205497,0.014326,1322,1758,5.46921,-22.309
105,-734,5.47095,22.2928,-0.00144863,-0.00205883,0.00151613,-0.000207212,-0.00330025,0.686106,0.00213445,0.0156017,1329,1758,5.471,-22.2928
112,-734,5.47827,22.2627,-0.00161017,-0.00217658,0.00143396,-0.000431717,-0.00335503,0.687904,0.00210757,0.0133001,1336,1758,5.47828,-22.2628
119,-734,5.48584,22.2239,-0.0017461,-0.00223107,0.00124906,-0.000716204,-0.00326097,0.689523,0.00197893,0.0134892,1343,1758,5.4859,-22.2238
126,-734,5.47595,22.1925,-0.00185674,-0.00206652,0.00123447,-0.000722707,-0.00320055,0.743016,0.00193824,0.0154488,1350,1758,5.4759,-22.1925
133,-734,5.43286,22.1661,-0.00175751,-0.00178161,0.00100062,-0.000768861,-0.00277026,0.779377,0.00165133,0.0143437,1357,1758,5.43282,-22.1662
140,-734,5.44592,22.1195,-0.00169199,-0.0013735,0.000685182,-0.000829304,-0.00223619,0.899576,0.00130534,0.0197739,1364,1758,5.44593,-22.1195
147,-734,5.4425,22.0477,-0.00163885,-0.000955548,0.000457705,-0.000726043,-0.00186836,1.10601,0.00108758,0.014069,1371,1758,5.44253,-22.0478
154,-734,5.43286,22.0326,-0.0015679,-0.000617021,0.000138022,-0.000597392,-0.00158753,1.42953,0.000925865,0.00961536,1378,1758,5.43283,-22.0326
161,-734,5.41248,21.9836,-0.00137413,-0.000357183,-0.000365968,-0.000239176,-0.00149214,-1.25887,0.000925393,0.00877792,1385,1758,5.41246,-21.9836
168,-734,5.38611,21.9171,-0.00106147,0.00026947,-0.000941271,0.000756755,-0.00154875,-1.0931,0.00135701,0.0128379,1392,1758,5.38605,-21.9171
175,-734,5.3999,21.8606,-0.000859839,0.000903731,-0.00114012,0.00146327,-0.00141938,-1.11456,0.00166437,0.0153491,1399,1758,5.39989,-21.8606
182,-734,5.4209,21.7665,-0.000516523,0.000755801,-0.00103688,0.00133612,-0.00109684,-1.06055,0.00140693,0.0148842,1406,1758,5.42093,-21.7665
189,-734,5.39221,21.6891,0.000104705,-1.69531e-05,-0.00114713,0.00119262,-0.00110486,-0.758909,0.00132677,0.0108644,1413,1758,5.39216,-21.689
196,-734,5.36865,21.6382,0.000461874,0.000145908,-0.00153827,0.00185025,-0.00124247,-0.734227,0.00179704,0.0116667,1420,1758,5.36871,-21.6382
203,-734,5.38477,21.5385,0.000904707,0.000310667,-0.00172285,0.00235596,-0.00114058,-0.700037,0.00205898,0.0124712,1427,1758,5.38474,-21.5385
210,-734,5.38721,21.4572,0.00139488,0.000319413,-0.00195295,0.00288277,-0.00116848,-0.651055,0.00240778,0.0131545,1434,1758,5.3872,-21.4571
217,-734,5.33728,21.3679,0.0018215,0.000189234,-0.00225584,0.0034043,-0.00139357,-0.61183,0.00284998,0.0106758,1441,1758,5.33734,-21.3679
224,-734,5.33533,21.2612,0.00212695,-7.89839e-05,-0.00263044,0.00387631,-0.00182834,-0.586878,0.00336358,0.0116562,1448,1758,5.33531,-21.2612
231,-734,5.31885,21.1754,0.00226716,-0.000289343,-0.00298628,0.00423727,-0.00225945,-0.583176,0.00380838,0.0131627,1455,1758,5.31882,-21.1754
238,-734,5.29236,21.0648,0.0024305,-0.000436537,-0.00325707,0.00455556,-0.0025616,-0.578092,0.0041625,0.0175869,1462,1758,5.29233,-21.0648
245,-734,5.33105,20.8777,0.00259942,-0.0003283,-0.00350635,0.00493522,-0.0026641,-0.587653,0.0044523,0.0230323,1469,1758,5.33101,-20.8776
252,-734,5.29602,20.7252,-0.00310049,-0.00290975,-0.00336991,0.000366144,-0.00637638,-0.799545,0.00437807,0.0285426,1476,1758,5.29601,-20.7252
259,-734,5.3114,20.7601,-0.0113389,-0.0072375,-0.00243398,-0.0061055,-0.0124709,-1.13547,0.00720061,0.0378531,1483,1758,5.3114,-20.7602
266,-734,5.30115,20.7166,0,0,0,0,0,0,0,-1,1490,1758,5.30118,-20.7166
273,-734,5.56787,20.8297,0,0,0,0,0,0,0,-1,1497,1758,5.56784,-20.8297
280,-734,16.6191,7.38013,0,0,0,0,0,0,0,-1,1504,1758,16.6192,-7.38011
287,-734,14.848,9.10046,0,0,0,0,0,0,0,-1,1511,1758,14.848,-9.1005
294,-734,12.0439,5.7876,0,0,0,0,0,0,0,-1,1518,1758,12.044,-5.78759
301,-734,10.5892,5.92322,0,0,0,0,0,0,0,-1,1525,1758,10.5893,-5.92319
308,-734,9.00854,5.43774,0,0,0,0,0,0,0,-1,1532,1758,9.00857,-5.4377
315,-734,10.1539,5.4939,0,0,0,0,0,0,0,-1,1539,1758,10.1539,-5.49391
322,-734,9.85913,7.48096,0,0,0,0,0,0,0,-1,1546,1758,9.85916,-7.48098
329,-734,5.45972,12.4125,0,0,0,0,0,0,0,-1,1553,1758,5.45969,-12.4125
336,-734,5.92188,13.8751,0,0,0,0,0,0,0,-1,1560,1758,5.92183,-13.8751
343,-734,5.54968,5.14221,0,0,0,0,0,0,0,-1,1567,1758,5.54973,-5.14225
350,-734,5.07397,6.73242,0,0,0,0,0,0,0,-1,1574,1758,5.07402,-6.73243
357,-734,5.05542,7.19189,0,0,0,0,0,0,0,-1,1581,1758,5.05541,-7.19184
364,-734,4.43896,10.4904,0,0,0,0,0,0,0,-1,1588,1758,4.43893,-10.4904
371,-734,7.36975,17.4751,0,0,0,0,0,0,0,-1,1595,1758,7.36972,-17.4752
378,-734,0,0,0,0,0,0,0,0,0,-1,1602,1758,0,0
385,-734,0,0,0,0,0,0,0,0,0,-1,1609,1758,0,0
392,-734,0,0,0,0,0,0,0,0,0,-1,1616,1758,0,0
399,-734,0,0,0,0,0,0,0,0,0,-1,1623,1758,0,0
406,-734,0,0,0,0,0,0,0,0,0,-1,1630,1758,0,0
413,-734,0,0,0,0,0,0,0,0,0,-1,1637,1758,0,0
420,-734,0,0,0,0,0,0,0,0,0,-1,1644,1758,0,0
427,-734,0,0,0,0,0,0,0,0,0,-1,1651,1758,0,0
434,-734,0,0,0,0,0,0,0,0,0,-1,1658,1758,0,0
441,-734,0,0,0,0,0,0,0,0,0,-1,1665,1758,0,0
448,-734,0,0,0,0,0,0,0,0,0,-1,1672,1758,0,0
455,-734,0,0,0,0,0,0,0,0,0,-1,1679,1758,0,0
462,-734,0,0,0,0,0,0,0,0,0,-1,1686,1758,0,0
469,-734,0,0,0,0,0,0,0,0,0,-1,1693,1758,0,0
476,-734,0,0,0,0,0,0,0,0,0,-1,1700,1758,0,0
483,-734,0,0,0,0,0,0,0,0,0,-1,1707,1758,0,0
490,-734,0,0,0,0,0,0,0,0,0,-1,1714,1758,0,0
497,-734,0,0,0,0,0,0,0,0,0,-1,1721,1758,0,0
504,-734,0,0,0,0,0,0,0,0,0,-1,1728,1758,0,0
511,-734,0,0,0,0,0,0,0,0,0,-1,1735,1758,0,0
518,-734,0,0,0,0,0,0,0,0,0,-1,1742,1758,0,0
525,-734,0,0,0,0,0,0,0,0,0,-1,1749,1758,0,0
532,-734,0,0,0,0,0,0,0,0,0,-1,1756,1758,0,0
539,-734,0,0,0,0,0,0,0,0,0,-1,1763,1758,0,0
546,-734,0,0,0,0,0,0,0,0,0,-1,1770,1758,0,0
553,-734,0,0,0,0,0,0,0,0,0,-1,1777,1758,0,0
560,-734,0,0,0,0,0,0,0,0,0,-1,1784,1758,0,0
567,-734,0,0,0,0,0,0,0,0,0,-1,1791,1758,0,0
574,-734,0,0,0,0,0,0,0,0,0,-1,1798,1758,0,0
581,-734,0,0,0,0,0,0,0,0,0,-1,1805,1758,0,0
588,-734,0,0,0,0,0,0,0,0,0,-1,1812,1758,0,0
595,-734,0,0,0,0,0,0,0,0,0,-1,1819,1758,0,0
602,-734,0,0,0,0,0,0,0,0,0,-1,1826,1758,0,0
609,-734,0,0,0,0,0,0,0,0,0,-1,1833,1758,0,0
616,-734,0,0,0,0,0,0,0,0,0,-1,1840,1758,0,0
623,-734,0,0,0,0,0,0,0,0,0,-1,1847,1758,0,0
630,-734,0,0,0,0,0,0,0,0,0,-1,1854,1758,0,0
637,-734,0,0,0,0,0,0,0,0,0,-1,1861,1758,0,0
644,-734,0,0,0,0,0,0,0,0,0,-1,1868,1758,0,0
651,-734,0,0,0,0,0,0,0,0,0,-1,1875,1758,0,0
658,-734,0,0,0,0,0,0,0,0,0,-1,1882,1758,0,0
665,-734,0,0,0,0,0,0,0,0,0,-1,1889,1758,0,0
672,-734,0,0,0,0,0,0,0,0,0,-1,1896,1758,0,0
679,-734,0,0,0,0,0,0,0,0,0,-1,1903,1758,0,0
686,-734,0,0,0,0,0,0,0,0,0,-1,1910,1758,0,0
693,-734,0,0,0,0,0,0,0,0,0,-1,1917,1758,0,0
700,-734,0,0,0,0,0,0,0,0,0,-1,1924,1758,0,0
707,-734,0,0,0,0,0,0,0,0,0,-1,1931,1758,0,0
714,-734,0,0,0,0,0,0,0,0,0,-1,1938,1758,0,0
721,-734,0,0,0,0,0,0,0,0,0,-1,1945,1758,0,0
728,-734,0,0,0,0,0,0,0,0,0,-1,1952,1758,0,0
735,-734,0,0,0,0,0,0,0,0,0,-1,1959,1758,0,0
742,-734,0,0,0,0,0,0,0,0,0,-1,1966,1758,0,0
749,-734,0,0,0,0,0,0,0,0,0,-1,1973,1758,0,0
756,-734,0,0,0,0,0,0,0,0,0,-1,1980,1758,0,0
763,-734,0,0,0,0,0,0,0,0,0,-1,1987,1758,0,0
770,-734,0,0,0,0,0,0,0,0,0,-1,1994,1758,0,0
777,-734,0,0,0,0,0,0,0,0,0,-1,2001,1758,0,0
784,-734,0,0,0,0,0,0,0,0,0,-1,2008,1758,0,0
791,-734,0,0,0,0,0,0,0,0,0,-1,2015,1758,0,0
798,-734,0,0,0,0,0,0,0,0,0,-1,2022,1758,0,0
805,-734,0,0,0,0,0,0,0,0,0,-1,2029,1758,0,0
812,-734,0,0,0,0,0,0,0,0,0,-1,2036,1758,0,0
-700,-741,0,0,0,0,0,0,0,0,0,-1,524,1765,0,0
-693,-741,0,0,0,0,0,0,0,0,0,-1,531,1765,0,0
-686,-741,0,0,0,0,0,0,0,0,0,-1,538,1765,0,0
-679,-741,0,0,0,0,0,0,0,0,0,-1,545,1765,0,0
-672,-741,0,0,0,0,0,0,0,0,0,-1,552,1765,0,0
-665,-741,0,0,0,0,0,0,0,0,0,-1,559,1765,0,0
-658,-741,0,0,0,0,0,0,0,0,0,-1,566,1765,0,0
-651,-741,0,0,0,0,0,0,0,0,0,-1,573,1765,0,0
-644,-741,0,0,0,0,0,0,0,0,0,-1,580,1765,0,0
-637,-741,0,0,0,0,0,0,0,0,0,-1,587,1765,0,0
-630,-741,0,0,0,0,0,0,0,0,0,-1,594,1765,0,0
-623,-741,0,0,0,0,0,0,0,0,0,-1,601,1765,0,0
-616,-741,0,0,0,0,0,0,0,0,0,-1,608,1765,0,0
-609,-741,0,0,0,0,0,0,0,0,0,-1,615,1765,0,0
-602,-741,0,0,0,0,0,0,0,0,0,-1,622,1765,0,0
-595,-741,0,0,0,0,0,0,0,0,0,-1,629,1765,0,0
-588,-741,0,0,0,0,0,0,0,0,0,-1,636,1765,0,0
-581,-741,0,0,0,0,0,0,0,0,0,-1,643,1765,0,0
-574,-741,0,0,0,0,0,0,0,0,0,-1,650,1765,0,0
-567,-741,0,0,0,0,0,0,0,0,0,-1,657,1765,0,0
-560,-741,0,0,0,0,0,0,0,0,0,-1,664,1765,0,0
-553,-741,0,0,0,0,0,0,0,0,0,-1,671,1765,0,0
-546,-741,0,0,0,0,0,0,0,0,0,-1,678,1765,0,0
-539,-741,0,0,0,0,0,0,0,0,0,-1,685,1765,0,0
-532,-741,0,0,0,0,0,0,0,0,0,-1,692,1765,0,0
-525,-741,0,0,0,0,0,0,0,0,0,-1,699,1765,0,0
-518,-741,0,0,0,0,0,0,0,0,0,-1,706,1765,0,0
-511,-741,0,0,0,0,0,0,0,0,0,-1,713,1765,0,0
-504,-741,0,0,0,0,0,0,0,0,0,-1,720,1765,0,0
-497,-741,0,0,0,0,0,0,0,0,0,-1,727,1765,0,0
-490,-741,0,0,0,0,0,0,0,0,0,-1,734,1765,0,0
-483,-741,0,0,0,0,0,0,0,0,0,-1,741,1765,0,0
-476,-741,0,0,0,0,0,0,0,0,0,-1,748,1765,0,0
-469,-741,0,0,0,0,0,0,0,0,0,-1,755,1765,0,0
-462,-741,0,0,0,0,0,0,0,0,0,-1,762,1765,0,0
-455,-741,0,0,0,0,0,0,0,0,0,-1,769,1765,0,0
-448,-741,0,0,0,0,0,0,0,0,0,-1,776,1765,0,0
-441,-741,0,0,0,0,0,0,0,0,0,-1,783,1765,0,0
-434,-741,0,0,0,0,0,0,0,0,0,-1,790,1765,0,0
-427,-741,0,0,0,0,0,0,0,0,0,-1,797,1765,0,0
-420,-741,0,0,0,0,0,0,0,0,0,-1,804,1765,0,0
-413,-741,0,0,0,0,0,0,0,0,0,-1,811,1765,0,0
-406,-741,0,0,0,0,0,0,0,0,0,-1,818,1765,0,0
-399,-741,0,0,0,0,0,0,0,0,0,-1,825,1765,0,0
-392,-741,0,0,0,0,0,0,0,0,0,-1,832,1765,0,0
-385,-741,0,0,0,0,0,0,0,0,0,-1,839,1765,0,0
-378,-741,0,0,0,0,0,0,0,0,0,-1,846,1765,0,0
-371,-741,0,0,0,0,0,0,0,0,0,-1,853,1765,0,0
-364,-741,0,0,0,0,0,0,0,0,0,-1,860,1765,0,0
-357,-741,0,0,0,0,0,0,0,0,0,-1,867,1765,0,0
-350,-741,0,0,0,0,0,0,0,0,0,-1,874,1765,0,0
-343,-741,0,0,0,0,0,0,0,0,0,-1,881,1765,0,0
-336,-741,0,0,0,0,0,0,0,0,0,-1,888,1765,0,0
-329,-741,0,0,0,0,0,0,0,0,0,-1,895,1765,0,0
-322,-741,0,0,0,0,0,0,0,0,0,-1,902,1765,0,0
-315,-741,0,0,0,0,0,0,0,0,0,-1,909,1765,0,0
-308,-741,0,0,0,0,0,0,0,0,0,-1,916,1765,0,0
-301,-741,0,0,0,0,0,0,0,0,0,-1,923,1765,0,0
-294,-741,0,0,0,0,0,0,0,0,0,-1,930,1765,0,0
-287,-741,0,0,0,0,0,0,0,0,0,-1,937,1765,0,0
-280,-741,0,0,0,0,0,0,0,0,0,-1,944,1765,0,0
-273,-741,0,0,0,0,0,0,0,0,0,-1,951,1765,0,0
-266,-741,0,0,0,0,0,0,0,0,0,-1,958,1765,0,0
-259,-741,0,0,0,0,0,0,0,0,0,-1,965,1765,0,0
-252,-741,0,0,0,0,0,0,0,0,0,-1,972,1765,0,0
-245,-741,0,0,0,0,0,0,0,0,0,-1,979,1765,0,0
-238,-741,4.22437,17.0699,0,0,0,0,0,0,0,-1,986,1765,4.22434,-17.07
-231,-741,5.12506,16.7758,0,0,0,0,0,0,0,-1,993,1765,5.12506,-16.7757
-224,-741,5.91974,16.7001,0,0,0,0,0,0,0,-1,1000,1765,5.91972,-16.7001
-217,-741,6.90027,16.573,0,0,0,0,0,0,0,-1,1007,1765,6.90029,-16.573
-210,-741,7.17267,16.792,0,0,0,0,0,0,0,-1,1014,1765,7.17268,-16.7919
-203,-741,7.51392,17.0526,0,0,0,0,0,0,0,-1,1021,1765,7.51395,-17.0526
-196,-741,7.88647,16.95,0,0,0,0,0,0,0,-1,1028,1765,7.88649,-16.9499
-189,-741,3.89563,18.7715,0,0,0,0,0,0,0,-1,1035,1765,3.89562,-18.7715
-182,-741,4.28748,17.9268,0,0,0,0,0,0,0,-1,1042,1765,4.28742,-17.9267
-175,-741,4.89868,17.0417,0,0,0,0,0,0,0,-1,1049,1765,4.89864,-17.0417
-168,-741,5.4801,16.3933,0,0,0,0,0,0,0,-1,1056,1765,5.4801,-16.3933
-161,-741,3.73047,14.4974,0,0,0,0,0,0,0,-1,1063,1765,3.73043,-14.4974
-154,-741,2.46143,9.75415,0,0,0,0,0,0,0,-1,1070,1765,2.46145,-9.75416
-147,-741,4.51563,19.9337,0,0,0,0,0,0,0,-1,1077,1765,4.51558,-19.9338
-140,-741,5.13757,19.7043,0.0135848,0.00858211,0.0181815,0.0294362,-0.00726929,0.717039,0.0224431,0.0492534,1084,1765,5.13753,-19.7043
-133,-741,5.6958,20.6057,0.0114663,0.00762345,0.0151851,0.0248511,-0.00576131,0.722466,0.0187847,0.0485486,1091,1765,5.69583,-20.6057
-126,-741,5.6106,20.3253,0.00938471,0.0069026,0.0121501,0.020357,-0.00406967,0.734503,0.0151117,0.0444659,1098,1765,5.61059,-20.3253
-119,-741,5.7865,20.3387,0.00747685,0.0065613,0.00934941,0.0163797,-0.00234153,0.760936,0.0117781,0.0470004,1105,1765,5.78646,-20.3388
-112,-741,5.76282,20.4559,0.00581842,0.0065873,0.00687346,0.0130871,-0.000681343,0.813334,0.00896046,0.0466259,1112,1765,5.76281,-20.4559
-105,-741,5.79102,20.4673,0.00425546,0.00681042,0.00492348,0.0106195,0.000446422,0.912332,0.00693562,0.0396299,1119,1765,5.79103,-20.4673
-98,-741,5.81824,20.5779,0,0,0,0,0,0,0,-1,1126,1765,5.8182,-20.5779
-91,-741,5.69653,20.7593,0,0,0,0,0,0,0,-1,1133,1765,5.69654,-20.7593
-84,-741,5.60938,20.7665,0,0,0,0,0,0,0,-1,1140,1765,5.60932,-20.7665
-77,-741,5.63977,20.8712,0,0,0,0,0,0,0,-1,1147,1765,5.6398,-20.8713
-70,-741,5.58203,21.0181,0,0,0,0,0,0,0,-1,1154,1765,5.58202,-21.018
-63,-741,5.54077,21.1935,0,0,0,0,0,0,0,-1,1161,1765,5.5408,-21.1935
-56,-741,5.63721,21.3488,0,0,0,0,0,0,0,-1,1168,1765,5.63719,-21.3488
-49,-741,5.63171,21.5231,0,0,0,0,0,0,0,-1,1175,1765,5.63175,-21.523
-42,-741,5.60364,21.6702,0,0,0,0,0,0,0,-1,1182,1765,5.60369,-21.6702
-35,-741,5.61316,21.7236,-0.00465951,-0.00618102,0.000898252,-0.00424315,-0.00659738,0.434045,0.00386069,0.0223905,1189,1765,5.61322,-21.7236
-28,-741,5.61755,21.791,-0.00551475,-0.00652663,0.000911357,-0.00497831,-0.00706307,0.532003,0.00419038,0.0147761,1196,1765,5.61758,-21.791
-21,-741,5.62146,21.8469,-0.00563685,-0.00627549,0.00105988,-0.00484923,-0.0070631,0.639082,0.00417143,0.0181755,1203,1765,5.62152,-21.8469
-14,-741,5.57715,21.9287,-0.005875,-0.00630825,0.0015583,-0.00451834,-0.00766491,0.716334,0.0044489,0.0189371,1210,1765,5.57719,-21.9287
-7,-741,5.57605,21.9716,-0.00528719,-0.00637874,0.00253477,-0.0032401,-0.00842583,0.679359,0.0049077,0.0165237,1217,1765,5.57599,-21.9716
0,-741,5.57666,22.0065,-0.0045092,-0.00603145,0.0032991,-0.00188456,-0.00865609,0.672028,0.00525638,0.0162074,1224,1765,5.57662,-22.0065
7,-741,5.55151,22.0743,-0.00404946,-0.00550538,0.00428516,-0.000430868,-0.00912397,0.701262,0.00594423,0.0172335,1231,1765,5.55153,-22.0744
14,-741,5.55225,22.1296,-0.00345767,-0.0048457,0.0054811,0.00137318,-0.00967655,0.722424,0.0069541,0.0150998,1238,1765,5.55228,-22.1296
21,-741,5.52563,22.1658,-0.0027302,-0.00436766,0.00624359,0.00274811,-0.00984597,0.720204,0.00764644,0.0123793,1245,1765,5.5256,-22.1658
28,-741,5.47607,22.2321,-0.00212961,-0.00395975,0.00700028,0.00401516,-0.0101045,0.720407,0.0084009,0.0135598,1252,1765,5.47608,-22.232
35,-741,5.495,22.2511,-0.00150787,-0.00363932,0.00763718,0.00513758,-0.0102848,0.716074,0.00906789,0.0157047,1259,1765,5.49495,-22.251
42,-741,5.51123,22.249,-0.000971488,-0.00340833,0.00793212,0.00583524,-0.0102151,0.709191,0.00938095,0.0156939,1266,1765,5.51126,-22.249
49,-741,5.49158,22.2606,-0.000709007,-0.00295994,0.00789405,0.0061394,-0.00980835,0.714589,0.0092883,0.00986842,1273,1765,5.49159,-22.2607
56,-741,5.46106,22.283,-0.000617477,-0.00279298,0.00788279,0.00625226,-0.00966271,0.716836,0.00925857,0.00962391,1280,1765,5.46101,-22.283
63,-741,5.45215,22.2947,-0.000711438,-0.00294847,0.00763917,0.00589066,-0.00955057,0.712705,0.00899809,0.0141399,1287,1765,5.45212,-22.2946
70,-741,5.45337,22.3258,-0.00088246,-0.00315772,0.00709068,0.00516127,-0.00920145,0.705856,0.00840097,0.0173696,1294,1765,5.45335,-22.3258
77,-741,5.44165,22.3678,-0.00105865,-0.00354858,0.00640408,0.00422035,-0.00882759,0.689395,0.00768818,0.0150355,1301,1765,5.4416,-22.3678
84,-741,5.41992,22.381,-0.00149777,-0.00414873,0.00561222,0.00294338,-0.00858987,0.669434,0.00691962,0.0158363,1308,1765,5.41987,-22.3809
91,-741,5.4115,22.374,-0.00177969,-0.00437002,0.00480109,0.00189786,-0.00804758,0.653652,0.00609694,0.0133441,1315,1765,5.41152,-22.3741
98,-741,5.42786,22.3165,-0.00233833,-0.00448544,0.00389347,0.000626883,-0.00745065,0.650875,0.0051887,0.0103952,1322,1765,5.4279,-22.3165
105,-741,5.44116,22.2653,-0.00266229,-0.00487078,0.00340248,-0.000189354,-0.00734371,0.62849,0.00483392,0.0102834,1329,1765,5.44117,-22.2652
112,-741,5.45227,22.2445,-0.00239628,-0.00523923,0.00283457,-0.000646729,-0.00698878,0.552984,0.00445927,0.0107824,1336,1765,5.45222,-22.2445
119,-741,5.44055,22.2113,-0.00212819,-0.00554888,0.00217944,-0.00106812,-0.00660896,0.452707,0.00409661,0.0141472,1343,1765,5.44055,-22.2113
126,-741,5.42993,22.1472,-0.00188812,-0.00555047,0.00197765,-0.00102406,-0.00641453,0.411919,0.00397917,0.0188641,1350,1765,5.42998,-22.1472
133,-741,5.40918,22.12,-0.00147512,-0.00541257,0.00153259,-0.000948913,-0.00593878,0.330736,0.00368385,0.01462,1357,1765,5.40912,-22.1199
140,-741,5.40002,22.0946,-0.00122185,-0.00513108,0.00104017,-0.000962315,-0.00539062,0.244521,0.0033198,0.0119511,1364,1765,5.40006,-22.0946
147,-741,5.39026,22.0609,-0.00109014,-0.00477829,0.000784411,-0.000930245,-0.00493819,0.201091,0.00303002,0.0109925,1371,1765,5.39026,-22.0609
154,-741,5.37366,22.032,-0.000979813,-0.00442357,0.000466499,-0.000917739,-0.00448564,0.132287,0.00273631,0.00894854,1378,1765,5.37361,-22.032
161,-741,5.36145,21.9762,-0.000743442,-0.00400197,-9.73373e-05,-0.000740537,-0.00400488,-0.029836,0.00246051,0.0103836,1385,1765,5.36142,-21.9763
168,-741,5.36584,21.9259,-0.000449707,-0.00281908,-0.000902734,-0.00014496,-0.00312382,-0.325569,0.00203595,0.0231411,1392,1765,5.3658,-21.9259
175,-741,5.36987,21.9194,0,0,0,0,0,0,0,-1,1399,1765,5.36985,-21.9194
182,-741,5.36365,21.7483,0,0,0,0,0,0,0,-1,1406,1765,5.36362,-21.7483
189,-741,5.31738,21.687,0,0,0,0,0,0,0,-1,1413,1765,5.31743,-21.687
196,-741,5.2771,21.6379,0,0,0,0,0,0,0,-1,1420,1765,5.27705,-21.638
203,-741,5.29626,21.5208,0,0,0,0,0,0,0,-1,1427,1765,5.29621,-21.5208
210,-741,5.23853,21.3882,0,0,0,0,0,0,0,-1,1434,1765,5.23851,-21.3882
217,-741,5.22351,21.2632,0.00274198,-0.00054947,-0.00295692,0.0044803,-0.00228779,-0.531463,0.00397532,0.0424953,1441,1765,5.22355,-21.2631
224,-741,5.27002,21.1746,0.00321989,-0.000931541,-0.00341738,0.00514256,-0.00285421,-0.512477,0.00467953,0.0293107,1448,1765,5.27006,-21.1745
231,-741,5.29736,21.126,0.00348957,-0.00124698,-0.00389696,0.00568145,-0.00343886,-0.512358,0.00531841,0.0367049,1455,1765,5.29734,-21.126
238,-741,5.37549,21.2383,0.00373796,-0.00150361,-0.00429706,0.00615039,-0.00391604,-0.511564,0.00585938,0.0392039,1462,1765,5.37555,-21.2383
245,-741,5.31836,20.7012,0.00397579,-0.00145592,-0.00465768,0.00665158,-0.00413171,-0.521451,0.00628214,0.0479707,1469,1765,5.31841,-20.7012
252,-741,5.34082,20.4973,0,0,0,0,0,0,0,-1,1476,1765,5.34087,-20.4974
259,-741,5.19592,20.8622,0,0,0,0,0,0,0,-1,1483,1765,5.19593,-20.8622
266,-741,4.40173,15.2345,0,0,0,0,0,0,0,-1,1490,1765,4.40175,-15.2345
273,-741,17.0328,7.54468,0,0,0,0,0,0,0,-1,1497,1765,17.0328,-7.54474
280,-741,16.2363,9.84546,0,0,0,0,0,0,0,-1,1504,1765,16.2363,-9.84547
287,-741,14.5045,8.71423,0,0,0,0,0,0,0,-1,1511,1765,14.5045,-8.71429
294,-741,11.9165,6.87305,0,0,0,0,0,0,0,-1,1518,1765,11.9165,-6.87305
301,-741,10.8608,6.83752,0,0,0,0,0,0,0,-1,1525,1765,10.8608,-6.83747
308,-741,9.80518,6.80188,0,0,0,0,0,0,0,-1,1532,1765,9.80519,-6.80189
315,-741,9.70715,6.86963,-0.0974386,-0.0750864,0.0292799,-0.0549221,-0.117603,0.967714,0.0679472,0.0439753,1539,1765,9.70712,-6.86963
322,-741,9.21252,8.54858,0,0,0,0,0,0,0,-1,1546,1765,9.21251,-8.54858
329,-741,8.5603,10.1146,0,0,0,0,0,0,0,-1,1553,1765,8.56033,-10.1146
336,-741,4.74475,14.6453,0,0,0,0,0,0,0,-1,1560,1765,4.7447,-14.6452
343,-741,5.42297,5.93701,0,0,0,0,0,0,0,-1,1567,1765,5.42296,-5.937
350,-741,4.90369,5.44666,0,0,0,0,0,0,0,-1,1574,1765,4.90368,-5.44664
357,-741,4.02063,5.16626,0,0,0,0,0,0,0,-1,1581,1765,4.02058,-5.1662
364,-741,0,0,0,0,0,0,0,0,0,-1,1588,1765,0,0
371,-741,0,0,0,0,0,0,0,0,0,-1,1595,1765,0,0
378,-741,0,0,0,0,0,0,0,0,0,-1,1602,1765,0,0
385,-741,0,0,0,0,0,0,0,0,0,-1,1609,1765,0,0
392,-741,0,0,0,0,0,0,0,0,0,-1,1616,1765,0,0
399,-741,0,0,0,0,0,0,0,0,0,-1,1623,1765,0,0
406,-741,0,0,0,0,0,0,0,0,0,-1,1630,1765,0,0
413,-741,0,0,0,0,0,0,0,0,0,-1,1637,1765,0,0
420,-741,0,0,0,0,0,0,0,0,0,-1,1644,1765,0,0
427,-741,0,0,0,0,0,0,0,0,0,-1,1651,1765,0,0
434,-741,0,0,0,0,0,0,0,0,0,-1,1658,1765,0,0
441,-741,0,0,0,0,0,0,0,0,0,-1,1665,1765,0,0
448,-741,0,0,0,0,0,0,0,0,0,-1,1672,1765,0,0
455,-741,0,0,0,0,0,0,0,0,0,-1,1679,1765,0,0
462,-741,0,0,0,0,0,0,0,0,0,-1,1686,1765,0,0
469,-741,0,0,0,0,0,0,0,0,0,-1,1693,1765,0,0
476,-741,0,0,0,0,0,0,0,0,0,-1,1700,1765,0,0
483,-741,0,0,0,0,0,0,0,0,0,-1,1707,1765,0,0
490,-741,0,0,0,0,0,0,0,0,0,-1,1714,1765,0,0
497,-741,0,0,0,0,0,0,0,0,0,-1,1721,1765,0,0
504,-741,0,0,0,0,0,0,0,0,0,-1,1728,1765,0,0
511,-741,0,0,0,0,0,0,0,0,0,-1,1735,1765,0,0
518,-741,0,0,0,0,0,0,0,0,0,-1,1742,1765,0,0
525,-741,0,0,0,0,0,0,0,0,0,-1,1749,1765,0,0
532,-741,0,0,0,0,0,0,0,0,0,-1,1756,1765,0,0
539,-741,0,0,0,0,0,0,0,0,0,-1,1763,1765,0,0
546,-741,0,0,0,0,0,0,0,0,0,-1,1770,1765,0,0
553,-741,0,0,0,0,0,0,0,0,0,-1,1777,1765,0,0
560,-741,0,0,0,0,0,0,0,0,0,-1,1784,1765,0,0
567,-741,0,0,0,0,0,0,0,0,0,-1,1791,1765,0,0
574,-741,0,0,0,0,0,0,0,0,0,-1,1798,1765,0,0
581,-741,0,0,0,0,0,0,0,0,0,-1,1805,1765,0,0
588,-741,0,0,0,0,0,0,0,0,0,-1,1812,1765,0,0
595,-741,0,0,0,0,0,0,0,0,0,-1,1819,1765,0,0
602,-741,0,0,0,0,0,0,0,0,0,-1,1826,1765,0,0
609,-741,0,0,0,0,0,0,0,0,0,-1,1833,1765,0,0
616,-741,0,0,0,0,0,0,0,0,0,-1,1840,1765,0,0
623,-741,0,0,0,0,0,0,0,0,0,-1,1847,1765,0,0
630,-741,0,0,0,0,0,0,0,0,0,-1,1854,1765,0,0
637,-741,0,0,0,0,0,0,0,0,0,-1,1861,1765,0,0
644,-741,0,0,0,0,0,0,0,0,0,-1,1868,1765,0,0
651,-741,0,0,0,0,0,0,0,0,0,-1,1875,1765,0,0
658,-741,0,0,0,0,0,0,0,0,0,-1,1882,1765,0,0
665,-741,0,0,0,0,0,0,0,0,0,-1,1889,1765,0,0
672,-741,0,0,0,0,0,0,0,0,0,-1,1896,1765,0,0
679,-741,0,0,0,0,0,0,0,0,0,-1,1903,1765,0,0
686,-741,0,0,0,0,0,0,0,0,0,-1,1910,1765,0,0
693,-741,0,0,0,0,0,0,0,0,0,-1,1917,1765,0,0
700,-741,0,0,0,0,0,0,0,0,0,-1,1924,1765,0,0
707,-741,0,0,0,0,0,0,0,0,0,-1,1931,1765,0,0
714,-741,0,0,0,0,0,0,0,0,0,-1,1938,1765,0,0
721,-741,0,0,0,0,0,0,0,0,0,-1,1945,1765,0,0
728,-741,0,0,0,0,0,0,0,0,0,-1,1952,1765,0,0
735,-741,0,0,0,0,0,0,0,0,0,-1,1959,1765,0,0
742,-741,0,0,0,0,0,0,0,0,0,-1,1966,1765,0,0
749,-741,0,0,0,0,0,0,0,0,0,-1,1973,1765,0,0
756,-741,0,0,0,0,0,0,0,0,0,-1,1980,1765,0,0
763,-741,0,0,0,0,0,0,0,0,0,-1,1987,1765,0,0
770,-741,0,0,0,0,0,0,0,0,0,-1,1994,1765,0,0
777,-741,0,0,0,0,0,0,0,0,0,-1,2001,1765,0,0
784,-741,0,0,0,0,0,0,0,0,0,-1,2008,1765,0,0
791,-741,0,0,0,0,0,0,0,0,0,-1,2015,1765,0,0
798,-741,0,0,0,0,0,0,0,0,0,-1,2022,1765,0,0
805,-741,0,0,0,0,0,0,0,0,0,-1,2029,1765,0,0
812,-741,0,0,0,0,0,0,0,0,0,-1,2036,1765,0,0
-700,-748,0,0,0,0,0,0,0,0,0,-1,524,1772,0,0
-693,-748,0,0,0,0,0,0,0,0,0,-1,531,1772,0,0
-686,-748,0,0,0,0,0,0,0,0,0,-1,538,1772,0,0
-679,-748,0,0,0,0,0,0,0,0,0,-1,545,1772,0,0
-672,-748,0,0,0,0,0,0,0,0,0,-1,552,1772,0,0
-665,-748,0,0,0,0,0,0,0,0,0,-1,559,1772,0,0
-658,-748,0,0,0,0,0,0,0,0,0,-1,566,1772,0,0
-651,-748,0,0,0,0,0,0,0,0,0,-1,573,1772,0,0
-644,-748,0,0,0,0,0,0,0,0,0,-1,580,1772,0,0
-637,-748,0,0,0,0,0,0,0,0,0,-1,587,1772,0,0
-630,-748,0,0,0,0,0,0,0,0,0,-1,594,1772,0,0
-623,-748,0,0,0,0,0,0,0,0,0,-1,601,1772,0,0
-616,-748,0,0,0,0,0,0,0,0,0,-1,608,1772,0,0
-609,-748,0,0,0,0,0,0,0,0,0,-1,615,1772,0,0
-602,-748,0,0,0,0,0,0,0,0,0,-1,622,1772,0,0
-595,-748,0,0,0,0,0,0,0,0,0,-1,629,1772,0,0
-588,-748,0,0,0,0,0,0,0,0,0,-1,636,1772,0,0
-581,-748,0,0,0,0,0,0,0,0,0,-1,643,1772,0,0
-574,-748,0,0,0,0,0,0,0,0,0,-1,650,1772,0,0
-567,-748,0,0,0,0,0,0,0,0,0,-1,657,1772,0,0
-560,-748,0,0,0,0,0,0,0,0,0,-1,664,1772,0,0
-553,-748,0,0,0,0,0,0,0,0,0,-1,671,1772,0,0
-546,-748,0,0,0,0,0,0,0,0,0,-1,678,1772,0,0
-539,-748,0,0,0,0,0,0,0,0,0,-1,685,1772,0,0
-532,-748,0,0,0,0,0,0,0,0,0,-1,692,1772,0,0
-525,-748,0,0,0,0,0,0,0,0,0,-1,699,1772,0,0
-518,-748,0,0,0,0,0,0,0,0,0,-1,706,1772,0,0
-511,-748,0,0,0,0,0,0,0,0,0,-1,713,1772,0,0
-504,-748,0,0,0,0,0,0,0,0,0,-1,720,1772,0,0
-497,-748,0,0,0,0,0,0,0,0,0,-1,727,1772,0,0
-490,-748,0,0,0,0,0,0,0,0,0,-1,734,1772,0,0
-483,-748,0,0,0,0,0,0,0,0,0,-1,741,1772,0,0
-476,-748,0,0,0,0,0,0,0,0,0,-1,748,1772,0,0
-469,-748,0,0,0,0,0,0,0,0,0,-1,755,1772,0,0
-462,-748,0,0,0,0,0,0,0,0,0,-1,762,1772,0,0
-455,-748,0,0,0,0,0,0,0,0,0,-1,769,1772,0,0
-448,-748,0,0,0,0,0,0,0,0,0,-1,776,1772,0,0
-441,-748,0,0,0,0,0,0,0,0,0,-1,783,1772,0,0
-434,-748,0,0,0,0,0,0,0,0,0,-1,790,1772,0,0
-427,-748,0,0,0,0,0,0,0,0,0,-1,797,1772,0,0
-420,-748,0,0,0,0,0,0,0,0,0,-1,804,1772,0,0
-413,-748,0,0,0,0,0,0,0,0,0,-1,811,1772,0,0
-406,-748,0,0,0,0,0,0,0,0,0,-1,818,1772,0,0
-399,-748,0,0,0,0,0,0,0,0,0,-1,825,1772,0,0
-392,-748,0,0,0,0,0,0,0,0,0,-1,832,1772,0,0
-385,-748,0,0,0,0,0,0,0,0,0,-1,839,1772,0,0
-378,-748,0,0,0,0,0,0,0,0,0,-1,846,1772,0,0
-371,-748,0,0,0,0,0,0,0,0,0,-1,853,1772,0,0
-364,-748,0,0,0,0,0,0,0,0,0,-1,860,1772,0,0
-357,-748,0,0,0,0,0,0,0,0,0,-1,867,1772,0,0
-350,-748,0,0,0,0,0,0,0,0,0,-1,874,1772,0,0
-343,-748,0,0,0,0,0,0,0,0,0,-1,881,1772,0,0
-336,-748,0,0,0,0,0,0,0,0,0,-1,888,1772,0,0
-329,-748,0,0,0,0,0,0,0,0,0,-1,895,1772,0,0
-322,-748,0,0,0,0,0,0,0,0,0,-1,902,1772,0,0
-315,-748,0,0,0,0,0,0,0,0,0,-1,909,1772,0,0
-308,-748,0,0,0,0,0,0,0,0,0,-1,916,1772,0,0
-301,-748,0,0,0,0,0,0,0,0,0,-1,923,1772,0,0
-294,-748,0,0,0,0,0,0,0,0,0,-1,930,1772,0,0
-287,-748,0,0,0,0,0,0,0,0,0,-1,937,1772,0,0
-280,-748,0,0,0,0,0,0,0,0,0,-1,944,1772,0,0
-273,-748,0,0,0,0,0,0,0,0,0,-1,951,1772,0,0
-266,-748,0,0,0,0,0,0,0,0,0,-1,958,1772,0,0
-259,-748,0,0,0,0,0,0,0,0,0,-1,965,1772,0,0
-252,-748,0,0,0,0,0,0,0,0,0,-1,972,1772,0,0
-245,-748,0,0,0,0,0,0,0,0,0,-1,979,1772,0,0
-238,-748,0,0,0,0,0,0,0,0,0,-1,986,1772,0,0
-231,-748,0,0,0,0,0,0,0,0,0,-1,993,1772,0,0
-224,-748,0,0,0,0,0,0,0,0,0,-1,1000,1772,0,0
-217,-748,6.99335,16.3577,0,0,0,0,0,0,0,-1,1007,1772,6.99334,-16.3576
-210,-748,6.75439,17.6121,0,0,0,0,0,0,0,-1,1014,1772,6.75438,-17.6121
-203,-748,7.19336,18.3389,0,0,0,0,0,0,0,-1,1021,1772,7.19334,-18.3388
-196,-748,3.59167,20.0754,0,0,0,0,0,0,0,-1,1028,1772,3.59164,-20.0754
-189,-748,3.88757,19.2534,0,0,0,0,0,0,0,-1,1035,1772,3.88761,-19.2534
-182,-748,4.16626,18.2874,0,0,0,0,0,0,0,-1,1042,1772,4.16629,-18.2873
-175,-748,4.62305,16.7603,0,0,0,0,0,0,0,-1,1049,1772,4.62301,-16.7603
-168,-748,4.96484,14.9984,0,0,0,0,0,0,0,-1,1056,1772,4.96479,-14.9984
-161,-748,3.50562,13.2729,0,0,0,0,0,0,0,-1,1063,1772,3.5056,-13.2729
-154,-748,-3.38562,10.6989,0,0,0,0,0,0,0,-1,1070,1772,-3.38564,-10.6989
-147,-748,-6.38733,11.0702,0,0,0,0,0,0,0,-1,1077,1772,-6.38731,-11.0702
-140,-748,4.79944,19.2733,0,0,0,0,0,0,0,-1,1084,1772,4.79949,-19.2733
-133,-748,5.64526,20.6953,0,0,0,0,0,0,0,-1,1091,1772,5.64529,-20.6953
-126,-748,5.63013,20.3672,0,0,0,0,0,0,0,-1,1098,1772,5.6301,-20.3671
-119,-748,5.77405,20.3154,0,0,0,0,0,0,0,-1,1105,1772,5.77407,-20.3154
-112,-748,5.81372,20.4,0,0,0,0,0,0,0,-1,1112,1772,5.81369,-20.4
-105,-748,5.93958,20.207,0,0,0,0,0,0,0,-1,1119,1772,5.93956,-20.2071
-98,-748,5.71484,19.6533,0,0,0,0,0,0,0,-1,1126,1772,5.71486,-19.6533
-91,-748,4.85352,15.3033,0,0,0,0,0,0,0,-1,1133,1772,4.85351,-15.3033
-84,-748,-0.192017,7.26196,0,0,0,0,0,0,0,-1,1140,1772,-0.192047,-7.26201
-77,-748,4.42615,13.5537,0,0,0,0,0,0,0,-1,1147,1772,4.4261,-13.5538
-70,-748,4.46191,13.7446,0,0,0,0,0,0,0,-1,1154,1772,4.4619,-13.7446
-63,-748,4.49768,13.9355,0,0,0,0,0,0,0,-1,1161,1772,4.49769,-13.9355
-56,-748,3.05762,7.87817,0,0,0,0,0,0,0,-1,1168,1772,3.05768,-7.87822
-49,-748,3.04102,7.82471,0,0,0,0,0,0,0,-1,1175,1772,3.04096,-7.82468
-42,-748,0.793457,14.9474,0,0,0,0,0,0,0,-1,1182,1772,0.793413,-14.9474
-35,-748,5.70825,21.6598,0,0,0,0,0,0,0,-1,1189,1772,5.70823,-21.6598
-28,-748,5.65222,21.8739,0,0,0,0,0,0,0,-1,1196,1772,5.65223,-21.8739
-21,-748,5.6615,21.8831,-0.0124352,-0.0103954,0.00133382,-0.00973624,-0.0130944,1.1118,0.00785329,0.0233223,1203,1772,5.6615,-21.8831
-14,-748,5.62866,21.8997,-0.01285,-0.00996989,0.00210213,-0.00886186,-0.013958,1.0857,0.00815583,0.0169251,1210,1772,5.62862,-21.8997
-7,-748,5.63184,21.9276,-0.012051,-0.00952052,0.00346381,-0.00709811,-0.0144734,0.960508,0.00835675,0.0163125,1217,1772,5.63178,-21.9276
0,-748,5.61914,21.9957,-0.0109138,-0.00862241,0.00464109,-0.0049877,-0.0145485,0.90641,0.00853681,0.0156903,1224,1772,5.6192,-21.9957
7,-748,5.59814,22.0521,-0.010124,-0.00758885,0.00611443,-0.00261197,-0.0151008,0.887604,0.00931939,0.0143007,1231,1772,5.59816,-22.0521
14,-748,5.58679,22.1135,-0.00913474,-0.00647226,0.00788759,0.000195643,-0.0158026,0.868999,0.0106009,0.0147638,1238,1772,5.58676,-22.1135
21,-748,5.57397,22.1591,-0.00797831,-0.00570962,0.00910759,0.00233399,-0.0160219,0.847354,0.0115382,0.0116609,1245,1772,5.57391,-22.159
28,-748,5.54028,22.205,-0.00695242,-0.00506215,0.0103022,0.00433818,-0.0163528,0.831141,0.0125994,0.0122033,1252,1772,5.54024,-22.205
35,-748,5.53516,22.2234,-0.00592538,-0.00451346,0.0113241,0.00612663,-0.0165655,0.816529,0.0135555,0.0126981,1259,1772,5.53518,-22.2234
42,-748,5.53638,22.2336,-0.00503933,-0.00417892,0.0118983,0.00729698,-0.0165152,0.803469,0.0140872,0.0128351,1266,1772,5.53643,-22.2337
49,-748,5.52014,22.2538,-0.00452991,-0.00360645,0.0120268,0.00796744,-0.0161038,0.804585,0.0141597,0.00982227,1273,1772,5.52008,-22.2538
56,-748,5.48535,22.2731,-0.00416851,-0.00340382,0.012078,0.00829792,-0.0158703,0.801221,0.01418,0.0100318,1280,1772,5.4853,-22.273
63,-748,5.47717,22.2625,-0.00389634,-0.00369025,0.0117923,0.0079995,-0.0155861,0.789767,0.01385,0.0123076,1287,1772,5.47713,-22.2624
70,-748,5.48096,22.2784,-0.00365506,-0.00410604,0.0110937,0.00721546,-0.0149766,0.775237,0.0130711,0.0142935,1294,1772,5.48091,-22.2784
77,-748,5.45837,22.3112,-0.00333694,-0.004942,0.0101601,0.00605228,-0.0143312,0.745986,0.0120876,0.0136562,1301,1772,5.45837,-22.3112
84,-748,5.42371,22.354,-0.00331785,-0.00609134,0.00898288,0.0043847,-0.0137939,0.708814,0.010954,0.0153972,1308,1772,5.42375,-22.3541
91,-748,5.41028,22.3455,-0.00305354,-0.00677276,0.00781523,0.00312028,-0.0129466,0.668597,0.00983751,0.0121908,1315,1772,5.41034,-22.3455
98,-748,5.40381,22.3102,-0.0031212,-0.00738869,0.00651044,0.00159624,-0.0121061,0.627043,0.00865205,0.0105428,1322,1772,5.40386,-22.3101
105,-748,5.41614,22.2579,-0.00286057,-0.00840973,0.00574066,0.000740862,-0.0120112,0.56029,0.00826547,0.0114534,1329,1772,5.41615,-22.258
112,-748,5.43372,22.2437,-0.00180941,-0.00947582,0.00489017,0.00057086,-0.0118561,0.452987,0.00810105,0.0144632,1336,1772,5.43376,-22.2437
119,-748,5.40881,22.2191,-0.000766525,-0.0104996,0.00396081,0.000641582,-0.0119077,0.341575,0.00816075,0.0135362,1343,1772,5.40883,-22.2191
126,-748,5.40356,22.1846,0.000175452,-0.0111075,0.0036549,0.00125592,-0.012188,0.287435,0.00857469,0.0153023,1350,1772,5.4036,-22.1846
133,-748,5.36914,22.1414,0.00123096,-0.0116011,0.00305407,0.00192075,-0.0122909,0.222134,0.00890354,0.00941597,1357,1772,5.36917,-22.1414
140,-748,5.35583,22.1193,0.00200885,-0.0120048,0.00237693,0.00240104,-0.012397,0.163525,0.00917036,0.0125344,1364,1772,5.35589,-22.1192
147,-748,5.36475,22.0707,0.00247466,-0.0120551,0.00204597,0.00275726,-0.0123377,0.137258,0.00928174,0.0139071,1371,1772,5.36477,-22.0707
154,-748,5.33765,22.0221,0.00282562,-0.0119113,0.0016497,0.00300804,-0.0120937,0.110127,0.00923003,0.011742,1378,1772,5.33771,-22.0221
161,-748,5.32751,21.988,0.00325647,-0.0115033,0.000946353,0.0033169,-0.0115637,0.063769,0.00902042,0.0184789,1385,1772,5.32756,-21.9881
168,-748,5.3363,21.9796,0,0,0,0,0,0,0,-1,1392,1772,5.33626,-21.9796
175,-748,11.6235,16.8242,0,0,0,0,0,0,0,-1,1399,1772,11.6236,-16.8242
182,-748,7.62476,10.3058,0,0,0,0,0,0,0,-1,1406,1772,7.62476,-10.3058
189,-748,6.15857,6.95898,0,0,0,0,0,0,0,-1,1413,1772,6.15862,-6.95896
196,-748,3.9425,8.46021,0,0,0,0,0,0,0,-1,1420,1772,3.9425,-8.46026
203,-748,3.9668,12.9835,0,0,0,0,0,0,0,-1,1427,1772,3.96678,-12.9836
210,-748,4.71472,16.8318,0,0,0,0,0,0,0,-1,1434,1772,4.71471,-16.8317
217,-748,5.26172,21.053,0,0,0,0,0,0,0,-1,1441,1772,5.2617,-21.053
224,-748,5.27979,21.0212,0,0,0,0,0,0,0,-1,1448,1772,5.27976,-21.0212
231,-748,5.36182,21.2927,0.00559022,-0.00287776,-0.00485399,0.00779734,-0.00508488,-0.426757,0.00749231,0.0448682,1455,1772,5.36183,-21.2927
238,-748,5.51367,21.4806,0.00595815,-0.00332971,-0.00545381,0.00847733,-0.00584889,-0.432715,0.00831752,0.0471009,1462,1772,5.51366,-21.4806
245,-748,5.65735,21.5884,0,0,0,0,0,0,0,-1,1469,1772,5.65738,-21.5884
252,-748,5.10083,20.3539,0,0,0,0,0,0,0,-1,1476,1772,5.10078,-20.3539
259,-748,4.37708,14.7086,0,0,0,0,0,0,0,-1,1483,1772,4.37712,-14.7086
266,-748,17.9011,7.59448,0,0,0,0,0,0,0,-1,1490,1772,17.9011,-7.59452
273,-748,16.4131,7.57129,0,0,0,0,0,0,0,-1,1497,1772,16.413,-7.57125
280,-748,15.2177,7.24829,0,0,0,0,0,0,0,-1,1504,1772,15.2176,-7.24833
287,-748,14.161,8.32813,0,0,0,0,0,0,0,-1,1511,1772,14.161,-8.32808
294,-748,12.2117,7.453,0,0,0,0,0,0,0,-1,1518,1772,12.2116,-7.45297
301,-748,11.0652,7.65405,-0.116679,-0.0858159,0.030543,-0.0670275,-0.135468,1.01931,0.0782136,0.0445889,1525,1772,11.0651,-7.654
308,-748,9.92456,7.80225,-0.122304,-0.0919731,0.0341387,-0.069783,-0.144494,0.994423,0.08344,0.0431984,1532,1772,9.92453,-7.80224
315,-748,8.91541,8.29773,-0.125667,-0.097032,0.0373311,-0.071367,-0.151332,0.968511,0.0874186,0.0473184,1539,1772,8.91544,-8.29773
322,-748,7.83618,8.87122,0,0,0,0,0,0,0,-1,1546,1772,7.83613,-8.87124
329,-748,3.48315,14.6533,0,0,0,0,0,0,0,-1,1553,1772,3.48316,-14.6534
336,-748,3.76001,15.8163,0,0,0,0,0,0,0,-1,1560,1772,3.75995,-15.8163
343,-748,0,0,0,0,0,0,0,0,0,-1,1567,1772,0,0
350,-748,0,0,0,0,0,0,0,0,0,-1,1574,1772,0,0
357,-748,0,0,0,0,0,0,0,0,0,-1,1581,1772,0,0
364,-748,0,0,0,0,0,0,0,0,0,-1,1588,1772,0,0
371,-748,0,0,0,0,0,0,0,0,0,-1,1595,1772,0,0
378,-748,0,0,0,0,0,0,0,0,0,-1,1602,1772,0,0
385,-748,0,0,0,0,0,0,0,0,0,-1,1609,1772,0,0
392,-748,0,0,0,0,0,0,0,0,0,-1,1616,1772,0,0
399,-748,0,0,0,0,0,0,0,0,0,-1,1623,1772,0,0
406,-748,0,0,0,0,0,0,0,0,0,-1,1630,1772,0,0
413,-748,0,0,0,0,0,0,0,0,0,-1,1637,1772,0,0
420,-748,0,0,0,0,0,0,0,0,0,-1,1644,1772,0,0
427,-748,0,0,0,0,0,0,0,0,0,-1,1651,1772,0,0
434,-748,0,0,0,0,0,0,0,0,0,-1,1658,1772,0,0
441,-748,0,0,0,0,0,0,0,0,0,-1,1665,1772,0,0
448,-748,0,0,0,0,0,0,0,0,0,-1,1672,1772,0,0
455,-748,0,0,0,0,0,0,0,0,0,-1,1679,1772,0,0
462,-748,0,0,0,0,0,0,0,0,0,-1,1686,1772,0,0
469,-748,0,0,0,0,0,0,0,0,0,-1,1693,1772,0,0
476,-748,0,0,0,0,0,0,0,0,0,-1,1700,1772,0,0
483,-748,0,0,0,0,0,0,0,0,0,-1,1707,1772,0,0
490,-748,0,0,0,0,0,0,0,0,0,-1,1714,1772,0,0
497,-748,0,0,0,0,0,0,0,0,0,-1,1721,1772,0,0
504,-748,0,0,0,0,0,0,0,0,0,-1,1728,1772,0,0
511,-748,0,0,0,0,0,0,0,0,0,-1,1735,1772,0,0
518,-748,0,0,0,0,0,0,0,0,0,-1,1742,1772,0,0
525,-748,0,0,0,0,0,0,0,0,0,-1,1749,1772,0,0
532,-748,0,0,0,0,0,0,0,0,0,-1,1756,1772,0,0
539,-748,0,0,0,0,0,0,0,0,0,-1,1763,1772,0,0
546,-748,0,0,0,0,0,0,0,0,0,-1,1770,1772,0,0
553,-748,0,0,0,0,0,0,0,0,0,-1,1777,1772,0,0
560,-748,0,0,0,0,0,0,0,0,0,-1,1784,1772,0,0
567,-748,0,0,0,0,0,0,0,0,0,-1,1791,1772,0,0
574,-748,0,0,0,0,0,0,0,0,0,-1,1798,1772,0,0
581,-748,0,0,0,0,0,0,0,0,0,-1,1805,1772,0,0
588,-748,0,0,0,0,0,0,0,0,0,-1,1812,1772,0,0
595,-748,0,0,0,0,0,0,0,0,0,-1,1819,1772,0,0
602,-748,0,0,0,0,0,0,0,0,0,-1,1826,1772,0,0
609,-748,0,0,0,0,0,0,0,0,0,-1,1833,1772,0,0
616,-748,0,0,0,0,0,0,0,0,0,-1,1840,1772,0,0
623,-748,0,0,0,0,0,0,0,0,0,-1,1847,1772,0,0
630,-748,0,0,0,0,0,0,0,0,0,-1,1854,1772,0,0
637,-748,0,0,0,0,0,0,0,0,0,-1,1861,1772,0,0
644,-748,0,0,0,0,0,0,0,0,0,-1,1868,1772,0,0
651,-748,0,0,0,0,0,0,0,0,0,-1,1875,1772,0,0
658,-748,0,0,0,0,0,0,0,0,0,-1,1882,1772,0,0
665,-748,0,0,0,0,0,0,0,0,0,-1,1889,1772,0,0
672,-748,0,0,0,0,0,0,0,0,0,-1,1896,1772,0,0
679,-748,0,0,0,0,0,0,0,0,0,-1,1903,1772,0,0
686,-748,0,0,0,0,0,0,0,0,0,-1,1910,1772,0,0
693,-748,0,0,0,0,0,0,0,0,0,-1,1917,1772,0,0
700,-748,0,0,0,0,0,0,0,0,0,-1,1924,1772,0,0
707,-748,0,0,0,0,0,0,0,0,0,-1,1931,1772,0,0
714,-748,0,0,0,0,0,0,0,0,0,-1,1938,1772,0,0
721,-748,0,0,0,0,0,0,0,0,0,-1,1945,1772,0,0
728,-748,0,0,0,0,0,0,0,0,0,-1,1952,1772,0,0
735,-748,0,0,0,0,0,0,0,0,0,-1,1959,1772,0,0
742,-748,0,0,0,0,0,0,0,0,0,-1,1966,1772,0,0
749,-748,0,0,0,0,0,0,0,0,0,-1,1973,1772,0,0
756,-748,0,0,0,0,0,0,0,0,0,-1,1980,1772,0,0
763,-748,0,0,0,0,0,0,0,0,0,-1,1987,1772,0,0
770,-748,0,0,0,0,0,0,0,0,0,-1,1994,1772,0,0
777,-748,0,0,0,0,0,0,0,0,0,-1,2001,1772,0,0
784,-748,0,0,0,0,0,0,0,0,0,-1,2008,1772,0,0
791,-748,0,0,0,0,0,0,0,0,0,-1,2015,1772,0,0
798,-748,0,0,0,0,0,0,0,0,0,-1,2022,1772,0,0
805,-748,0,0,0,0,0,0,0,0,0,-1,2029,1772,0,0
812,-748,0,0,0,0,0,0,0,0,0,-1,2036,1772,0,0
-700,-755,0,0,0,0,0,0,0,0,0,-1,524,1779,0,0
-693,-755,0,0,0,0,0,0,0,0,0,-1,531,1779,0,0
-686,-755,0,0,0,0,0,0,0,0,0,-1,538,1779,0,0
-679,-755,0,0,0,0,0,0,0,0,0,-1,545,1779,0,0
-672,-755,0,0,0,0,0,0,0,0,0,-1,552,1779,0,0
-665,-755,0,0,0,0,0,0,0,0,0,-1,559,1779,0,0
-658,-755,0,0,0,0,0,0,0,0,0,-1,566,1779,0,0
-651,-755,0,0,0,0,0,0,0,0,0,-1,573,1779,0,0
-644,-755,0,0,0,0,0,0,0,0,0,-1,580,1779,0,0
-637,-755,0,0,0,0,0,0,0,0,0,-1,587,1779,0,0
-630,-755,0,0,0,0,0,0,0,0,0,-1,594,1779,0,0
-623,-755,0,0,0,0,0,0,0,0,0,-1,601,1779,0,0
-616,-755,0,0,0,0,0,0,0,0,0,-1,608,1779,0,0
-609,-755,0,0,0,0,0,0,0,0,0,-1,615,1779,0,0
-602,-755,0,0,0,0,0,0,0,0,0,-1,622,1779,0,0
-595,-755,0,0,0,0,0,0,0,0,0,-1,629,1779,0,0
-588,-755,0,0,0,0,0,0,0,0,0,-1,636,1779,0,0
-581,-755,0,0,0,0,0,0,0,0,0,-1,643,1779,0,0
-574,-755,0,0,0,0,0,0,0,0,0,-1,650,1779,0,0
-567,-755,0,0,0,0,0,0,0,0,0,-1,657,1779,0,0
-560,-755,0,0,0,0,0,0,0,0,0,-1,664,1779,0,0
-553,-755,0,0,0,0,0,0,0,0,0,-1,671,1779,0,0
-546,-755,0,0,0,0,0,0,0,0,0,-1,678,1779,0,0
-539,-755,0,0,0,0,0,0,0,0,0,-1,685,1779,0,0
-532,-755,0,0,0,0,0,0,0,0,0,-1,692,1779,0,0
-525,-755,0,0,0,0,0,0,0,0,0,-1,699,1779,0,0
-518,-755,0,0,0,0,0,0,0,0,0,-1,706,1779,0,0
-511,-755,0,0,0,0,0,0,0,0,0,-1,713,1779,0,0
-504,-755,0,0,0,0,0,0,0,0,0,-1,720,1779,0,0
-497,-755,0,0,0,0,0,0,0,0,0,-1,727,1779,0,0
-490,-755,0,0,0,0,0,0,0,0,0,-1,734,1779,0,0
-483,-755,0,0,0,0,0,0,0,0,0,-1,741,1779,0,0
-476,-755,0,0,0,0,0,0,0,0,0,-1,748,1779,0,0
-469,-755,0,0,0,0,0,0,0,0,0,-1,755,1779,0,0
-462,-755,0,0,0,0,0,0,0,0,0,-1,762,1779,0,0
-455,-755,0,0,0,0,0,0,0,0,0,-1,769,1779,0,0
-448,-755,0,0,0,0,0,0,0,0,0,-1,776,1779,0,0
-441,-755,0,0,0,0,0,0,0,0,0,-1,783,1779,0,0
-434,-755,0,0,0,0,0,0,0,0,0,-1,790,1779,0,0
-427,-755,0,0,0,0,0,0,0,0,0,-1,797,1779,0,0
-420,-755,0,0,0,0,0,0,0,0,0,-1,804,1779,0,0
-413,-755,0,0,0,0,0,0,0,0,0,-1,811,1779,0,0
-406,-755,0,0,0,0,0,0,0,0,0,-1,818,1779,0,0
-399,-755,0,0,0,0,0,0,0,0,0,-1,825,1779,0,0
-392,-755,0,0,0,0,0,0,0,0,0,-1,832,1779,0,0
-385,-755,0,0,0,0,0,0,0,0,0,-1,839,1779,0,0
-378,-755,0,0,0,0,0,0,0,0,0,-1,846,1779,0,0
-371,-755,0,0,0,0,0,0,0,0,0,-1,853,1779,0,0
-364,-755,0,0,0,0,0,0,0,0,0,-1,860,1779,0,0
-357,-755,0,0,0,0,0,0,0,0,0,-1,867,1779,0,0
-350,-755,0,0,0,0,0,0,0,0,0,-1,874,1779,0,0
-343,-755,0,0,0,0,0,0,0,0,0,-1,881,1779,0,0
-336,-755,0,0,0,0,0,0,0,0,0,-1,888,1779,0,0
-329,-755,0,0,0,0,0,0,0,0,0,-1,895,1779,0,0
-322,-755,0,0,0,0,0,0,0,0,0,-1,902,1779,0,0
-315,-755,0,0,0,0,0,0,0,0,0,-1,909,1779,0,0
-308,-755,0,0,0,0,0,0,0,0,0,-1,916,1779,0,0
-301,-755,0,0,0,0,0,0,0,0,0,-1,923,1779,0,0
-294,-755,0,0,0,0,0,0,0,0,0,-1,930,1779,0,0
-287,-755,0,0,0,0,0,0,0,0,0,-1,937,1779,0,0
-280,-755,0,0,0,0,0,0,0,0,0,-1,944,1779,0,0
-273,-755,0,0,0,0,0,0,0,0,0,-1,951,1779,0,0
-266,-755,0,0,0,0,0,0,0,0,0,-1,958,1779,0,0
-259,-755,0,0,0,0,0,0,0,0,0,-1,965,1779,0,0
-252,-755,0,0,0,0,0,0,0,0,0,-1,972,1779,0,0
-245,-755,0,0,0,0,0,0,0,0,0,-1,979,1779,0,0
-238,-755,0,0,0,0,0,0,0,0,0,-1,986,1779,0,0
-231,-755,0,0,0,0,0,0,0,0,0,-1,993,1779,0,0
-224,-755,0,0,0,0,0,0,0,0,0,-1,1000,1779,0,0
-217,-755,0,0,0,0,0,0,0,0,0,-1,1007,1779,0,0
-210,-755,0,0,0,0,0,0,0,0,0,-1,1014,1779,0,0
-203,-755,-3.07153,13.8969,0,0,0,0,0,0,0,-1,1021,1779,-3.07152,-13.8969
-196,-755,4.91333,14.9064,0,0,0,0,0,0,0,-1,1028,1779,4.91327,-14.9063
-189,-755,4.85864,12.9271,0,0,0,0,0,0,0,-1,1035,1779,4.85866,-12.9272
-182,-755,3.9259,18.85,0,0,0,0,0,0,0,-1,1042,1779,3.92588,-18.85
-175,-755,4.10266,16.8729,0,0,0,0,0,0,0,-1,1049,1779,4.10269,-16.8729
-168,-755,4.5177,13.7404,0,0,0,0,0,0,0,-1,1056,1779,4.5177,-13.7403
-161,-755,-2.85889,11.5868,0,0,0,0,0,0,0,-1,1063,1779,-2.85887,-11.5868
-154,-755,-5.39026,8.51416,0,0,0,0,0,0,0,-1,1070,1779,-5.3903,-8.51417
-147,-755,-6.45593,10.2422,0,0,0,0,0,0,0,-1,1077,1779,-6.45594,-10.2422
-140,-755,7.68909,20.5962,0,0,0,0,0,0,0,-1,1084,1779,7.68904,-20.5962
-133,-755,7.4823,20.6917,0,0,0,0,0,0,0,-1,1091,1779,7.48233,-20.6917
-126,-755,7.27563,20.7872,0,0,0,0,0,0,0,-1,1098,1779,7.27562,-20.7873
-119,-755,5.76672,20.0126,0,0,0,0,0,0,0,-1,1105,1779,5.7667,-20.0126
-112,-755,5.07825,19.8385,0,0,0,0,0,0,0,-1,1112,1779,5.07824,-19.8385
-105,-755,4.66101,19.4598,0,0,0,0,0,0,0,-1,1119,1779,4.661,-19.4598
-98,-755,4.26819,14.9769,0,0,0,0,0,0,0,-1,1126,1779,4.26815,-14.9769
-91,-755,3.91394,13.0228,0,0,0,0,0,0,0,-1,1133,1779,3.91399,-13.0228
-84,-755,0.169312,8.66443,0,0,0,0,0,0,0,-1,1140,1779,0.16932,-8.66446
-77,-755,-0.0491943,6.87439,0,0,0,0,0,0,0,-1,1147,1779,-0.0491385,-6.87443
-70,-755,4.5686,13.2169,0,0,0,0,0,0,0,-1,1154,1779,4.56865,-13.2169
-63,-755,-1.36316,7.3147,0,0,0,0,0,0,0,-1,1161,1779,-1.36312,-7.31473
-56,-755,0.0483398,5.06079,0,0,0,0,0,0,0,-1,1168,1779,0.0483138,-5.06084
-49,-755,-1.32263,5.33716,0,0,0,0,0,0,0,-1,1175,1779,-1.32264,-5.33718
-42,-755,-2.03613,4.01672,0,0,0,0,0,0,0,-1,1182,1779,-2.0361,-4.01671
-35,-755,-2.72498,2.37476,0,0,0,0,0,0,0,-1,1189,1779,-2.72502,-2.37473
-28,-755,5.48865,21.4263,0,0,0,0,0,0,0,-1,1196,1779,5.4886,-21.4262
-21,-755,5.74915,21.877,0,0,0,0,0,0,0,-1,1203,1779,5.74911,-21.8769
-14,-755,5.72827,21.8939,-0.0210953,-0.0152382,0.00265554,-0.0142135,-0.02212,1.20253,0.0129429,0.0331918,1210,1779,5.72826,-21.8939
-7,-755,5.6748,21.9268,-0.0199705,-0.0139171,0.00446492,-0.0115497,-0.0223379,1.08326,0.0128993,0.022967,1217,1779,5.67483,-21.9268
0,-755,5.64673,21.9833,-0.0183824,-0.0122316,0.00626192,-0.00833059,-0.0222833,1.01366,0.0130011,0.0138336,1224,1779,5.64671,-21.9832
7,-755,5.62769,22.0454,-0.0171292,-0.0104555,0.00841097,-0.00474366,-0.0228411,0.974239,0.0139183,0.0120994,1231,1779,5.62766,-22.0454
14,-755,5.63245,22.1041,-0.0156806,-0.00865141,0.010967,-0.00064964,-0.0236824,0.940464,0.0155762,0.0109625,1238,1779,5.63246,-22.1041
21,-755,5.60425,22.1332,-0.0140728,-0.0074563,0.0128155,0.00247113,-0.0240002,0.911712,0.0168842,0.0151903,1245,1779,5.60423,-22.1332
28,-755,5.58728,22.1509,-0.0126421,-0.00641788,0.0145254,0.00532507,-0.0243851,0.890929,0.018292,0.0180005,1252,1779,5.58734,-22.1509
35,-755,5.55261,22.243,-0.0112915,-0.00543413,0.0159653,0.00786893,-0.0245945,0.876109,0.0195544,0.0180811,1259,1779,5.55259,-22.2431
42,-755,5.54871,22.2373,-0.0101548,-0.00485042,0.0168405,0.00954546,-0.0245507,0.863502,0.0203109,0.0135762,1266,1779,5.54868,-22.2373
49,-755,5.55298,22.2378,-0.00954464,-0.0040124,0.0171312,0.0105746,-0.0241316,0.865441,0.0205409,0.00953522,1273,1779,5.55297,-22.2378
56,-755,5.51465,22.2584,-0.00906508,-0.00366081,0.0172273,0.011075,-0.0238008,0.86319,0.0205775,0.00920852,1280,1779,5.51471,-22.2585
63,-755,5.50732,22.2577,-0.00861547,-0.00399259,0.0168452,0.0106991,-0.0233071,0.85358,0.0200782,0.00921776,1287,1779,5.50735,-22.2577
70,-755,5.51709,22.2599,-0.00813132,-0.00455339,0.0159133,0.00967115,-0.0223559,0.841373,0.0189681,0.0114669,1294,1779,5.5171,-22.2598
77,-755,5.48071,22.2684,-0.00745268,-0.00575429,0.0146666,0.00808768,-0.0212946,0.814316,0.0175258,0.0112846,1301,1779,5.48067,-22.2684
84,-755,5.48047,22.2926,-0.00698839,-0.00742994,0.0130525,0.00584519,-0.0202635,0.776942,0.0158215,0.0121285,1308,1779,5.48047,-22.2925
91,-755,5.45203,22.2825,-0.00614556,-0.00861321,0.0114785,0.00416528,-0.018924,0.731859,0.0142094,0.012162,1315,1779,5.45206,-22.2824
98,-755,5.40125,22.2688,-0.00561856,-0.00984752,0.00972043,0.00221471,-0.0176808,0.678302,0.0125905,0.012334,1322,1779,5.40127,-22.2688
105,-755,5.44678,22.2734,-0.00461328,-0.0116443,0.0085802,0.00114367,-0.0174013,0.590967,0.0120003,0.0160066,1329,1779,5.44684,-22.2734
112,-755,5.46985,22.2404,-0.00252587,-0.0136071,0.00736446,0.00114946,-0.0172824,0.462898,0.0119233,0.021761,1336,1779,5.4699,-22.2403
119,-755,5.42126,22.2185,-0.000387557,-0.0156051,0.00603217,0.00171349,-0.0177061,0.335165,0.0124147,0.0227115,1343,1779,5.42128,-22.2185
126,-755,5.40161,22.2161,0.00159766,-0.0170317,0.00554837,0.00312492,-0.018559,0.268611,0.0135351,0.0248503,1350,1779,5.40164,-22.2161
133,-755,5.31885,22.151,0.00363364,-0.0184867,0.00475747,0.00461344,-0.0194665,0.20311,0.0147579,0.0253433,1357,1779,5.31886,-22.151
140,-755,5.24951,22.1537,0.00529957,-0.0200532,0.00382064,0.00586282,-0.0206165,0.14637,0.0160594,0.0295662,1364,1779,5.2495,-22.1536
147,-755,5.31506,22.1144,0.00626796,-0.0206722,0.0033601,0.00668073,-0.021085,0.12223,0.0167342,0.0309223,1371,1779,5.3151,-22.1144
154,-755,5.30664,22.0773,0.00704098,-0.0209606,0.0028389,0.0073259,-0.0212455,0.100028,0.0171358,0.0338633,1378,1779,5.30663,-22.0772
161,-755,5.21228,22.078,0,0,0,0,0,0,0,-1,1385,1779,5.21231,-22.078
168,-755,3.98181,7.35901,0,0,0,0,0,0,0,-1,1392,1779,3.98184,-7.35904
175,-755,8.17065,1.34363,0,0,0,0,0,0,0,-1,1399,1779,8.1706,-1.34368
182,-755,8.09216,2.96924,0,0,0,0,0,0,0,-1,1406,1779,8.09213,-2.9693
189,-755,8.04419,4.68042,0,0,0,0,0,0,0,-1,1413,1779,8.04419,-4.68046
196,-755,7.74841,7.4541,0,0,0,0,0,0,0,-1,1420,1779,7.74842,-7.45405
203,-755,4.80554,6.88696,0,0,0,0,0,0,0,-1,1427,1779,4.80554,-6.88697
210,-755,25.1694,7.35693,0,0,0,0,0,0,0,-1,1434,1779,25.1694,-7.35688
217,-755,5.01648,16.411,0,0,0,0,0,0,0,-1,1441,1779,5.01646,-16.411
224,-755,5.90662,20.4368,0,0,0,0,0,0,0,-1,1448,1779,5.90667,-20.4367
231,-755,5.41748,21.4285,0,0,0,0,0,0,0,-1,1455,1779,5.4175,-21.4284
238,-755,5.61353,21.5181,0,0,0,0,0,0,0,-1,1462,1779,5.61354,-21.5181
245,-755,5.42236,18.8779,0,0,0,0,0,0,0,-1,1469,1779,5.42232,-18.8779
252,-755,5.52478,17.1492,0,0,0,0,0,0,0,-1,1476,1779,5.5248,-17.1492
259,-755,18.481,8.25134,0,0,0,0,0,0,0,-1,1483,1779,18.4809,-8.25139
266,-755,17.255,7.86096,0,0,0,0,0,0,0,-1,1490,1779,17.255,-7.86092
273,-755,15.7932,7.59778,0,0,0,0,0,0,0,-1,1497,1779,15.7932,-7.59777
280,-755,14.6255,7.34802,0,0,0,0,0,0,0,-1,1504,1779,14.6254,-7.34806
287,-755,13.8279,7.83105,0,0,0,0,0,0,0,-1,1511,1779,13.8279,-7.83104
294,-755,12.5695,7.96814,0,0,0,0,0,0,0,-1,1518,1779,12.5694,-7.9682
301,-755,11.2659,8.27087,-0.148017,-0.10789,0.0363344,-0.0864475,-0.169459,1.03766,0.0978441,0.0431462,1525,1779,11.2658,-8.27087
308,-755,9.94434,8.55811,-0.153678,-0.114663,0.0409447,-0.0888165,-0.179525,1.0077,0.103651,0.0411493,1532,1779,9.94428,-8.55806
315,-755,8.64502,9.04492,-0.156556,-0.120366,0.0454931,-0.089501,-0.187421,0.974685,0.108244,0.0450659,1539,1779,8.64497,-9.04488
322,-755,0,0,0,0,0,0,0,0,0,-1,1546,1779,0,0
329,-755,0,0,0,0,0,0,0,0,0,-1,1553,1779,0,0
336,-755,0,0,0,0,0,0,0,0,0,-1,1560,1779,0,0
343,-755,0,0,0,0,0,0,0,0,0,-1,1567,1779,0,0
350,-755,0,0,0,0,0,0,0,0,0,-1,1574,1779,0,0
357,-755,0,0,0,0,0,0,0,0,0,-1,1581,1779,0,0
364,-755,0,0,0,0,0,0,0,0,0,-1,1588,1779,0,0
371,-755,0,0,0,0,0,0,0,0,0,-1,1595,1779,0,0
378,-755,0,0,0,0,0,0,0,0,0,-1,1602,1779,0,0
385,-755,0,0,0,0,0,0,0,0,0,-1,1609,1779,0,0
392,-755,0,0,0,0,0,0,0,0,0,-1,1616,1779,0,0
399,-755,0,0,0,0,0,0,0,0,0,-1,1623,1779,0,0
406,-755,0,0,0,0,0,0,0,0,0,-1,1630,1779,0,0
413,-755,0,0,0,0,0,0,0,0,0,-1,1637,1779,0,0
420,-755,0,0,0,0,0,0,0,0,0,-1,1644,1779,0,0
427,-755,0,0,0,0,0,0,0,0,0,-1,1651,1779,0,0
434,-755,0,0,0,0,0,0,0,0,0,-1,1658,1779,0,0
441,-755,0,0,0,0,0,0,0,0,0,-1,1665,1779,0,0
448,-755,0,0,0,0,0,0,0,0,0,-1,1672,1779,0,0
455,-755,0,0,0,0,0,0,0,0,0,-1,1679,1779,0,0
462,-755,0,0,0,0,0,0,0,0,0,-1,1686,1779,0,0
469,-755,0,0,0,0,0,0,0,0,0,-1,1693,1779,0,0
476,-755,0,0,0,0,0,0,0,0,0,-1,1700,1779,0,0
483,-755,0,0,0,0,0,0,0,0,0,-1,1707,1779,0,0
490,-755,0,0,0,0,0,0,0,0,0,-1,1714,1779,0,0
497,-755,0,0,0,0,0,0,0,0,0,-1,1721,1779,0,0
504,-755,0,0,0,0,0,0,0,0,0,-1,1728,1779,0,0
511,-755,0,0,0,0,0,0,0,0,0,-1,1735,1779,0,0
518,-755,0,0,0,0,0,0,0,0,0,-1,1742,1779,0,0
525,-755,0,0,0,0,0,0,0,0,0,-1,1749,1779,0,0
532,-755,0,0,0,0,0,0,0,0,0,-1,1756,1779,0,0
539,-755,0,0,0,0,0,0,0,0,0,-1,1763,1779,0,0
546,-755,0,0,0,0,0,0,0,0,0,-1,1770,1779,0,0
553,-755,0,0,0,0,0,0,0,0,0,-1,1777,1779,0,0
560,-755,0,0,0,0,0,0,0,0,0,-1,1784,1779,0,0
567,-755,0,0,0,0,0,0,0,0,0,-1,1791,1779,0,0
574,-755,0,0,0,0,0,0,0,0,0,-1,1798,1779,0,0
581,-755,0,0,0,0,0,0,0,0,0,-1,1805,1779,0,0
588,-755,0,0,0,0,0,0,0,0,0,-1,1812,1779,0,0
595,-755,0,0,0,0,0,0,0,0,0,-1,1819,1779,0,0
602,-755,0,0,0,0,0,0,0,0,0,-1,1826,1779,0,0
609,-755,0,0,0,0,0,0,0,0,0,-1,1833,1779,0,0
616,-755,0,0,0,0,0,0,0,0,0,-1,1840,1779,0,0
623,-755,0,0,0,0,0,0,0,0,0,-1,1847,1779,0,0
630,-755,0,0,0,0,0,0,0,0,0,-1,1854,1779,0,0
637,-755,0,0,0,0,0,0,0,0,0,-1,1861,1779,0,0
644,-755,0,0,0,0,0,0,0,0,0,-1,1868,1779,0,0
651,-755,0,0,0,0,0,0,0,0,0,-1,1875,1779,0,0
658,-755,0,0,0,0,0,0,0,0,0,-1,1882,1779,0,0
665,-755,0,0,0,0,0,0,0,0,0,-1,1889,1779,0,0
672,-755,0,0,0,0,0,0,0,0,0,-1,1896,1779,0,0
679,-755,0,0,0,0,0,0,0,0,0,-1,1903,1779,0,0
686,-755,0,0,0,0,0,0,0,0,0,-1,1910,1779,0,0
693,-755,0,0,0,0,0,0,0,0,0,-1,1917,1779,0,0
700,-755,0,0,0,0,0,0,0,0,0,-1,1924,1779,0,0
707,-755,0,0,0,0,0,0,0,0,0,-1,1931,1779,0,0
714,-755,0,0,0,0,0,0,0,0,0,-1,1938,1779,0,0
721,-755,0,0,0,0,0,0,0,0,0,-1,1945,1779,0,0
728,-755,0,0,0,0,0,0,0,0,0,-1,1952,1779,0,0
735,-755,0,0,0,0,0,0,0,0,0,-1,1959,1779,0,0
742,-755,0,0,0,0,0,0,0,0,0,-1,1966,1779,0,0
749,-755,0,0,0,0,0,0,0,0,0,-1,1973,1779,0,0
756,-755,0,0,0,0,0,0,0,0,0,-1,1980,1779,0,0
763,-755,0,0,0,0,0,0,0,0,0,-1,1987,1779,0,0
770,-755,0,0,0,0,0,0,0,0,0,-1,1994,1779,0,0
777,-755,0,0,0,0,0,0,0,0,0,-1,2001,1779,0,0
784,-755,0,0,0,0,0,0,0,0,0,-1,2008,1779,0,0
791,-755,0,0,0,0,0,0,0,0,0,-1,2015,1779,0,0
798,-755,0,0,0,0,0,0,0,0,0,-1,2022,1779,0,0
805,-755,0,0,0,0,0,0,0,0,0,-1,2029,1779,0,0
812,-755,0,0,0,0,0,0,0,0,0,-1,2036,1779,0,0
-700,-762,0,0,0,0,0,0,0,0,0,-1,524,1786,0,0
-693,-762,0,0,0,0,0,0,0,0,0,-1,531,1786,0,0
-686,-762,0,0,0,0,0,0,0,0,0,-1,538,1786,0,0
-679,-762,0,0,0,0,0,0,0,0,0,-1,545,1786,0,0
-672,-762,0,0,0,0,0,0,0,0,0,-1,552,1786,0,0
-665,-762,0,0,0,0,0,0,0,0,0,-1,559,1786,0,0
-658,-762,0,0,0,0,0,0,0,0,0,-1,566,1786,0,0
-651,-762,0,0,0,0,0,0,0,0,0,-1,573,1786,0,0
-644,-762,0,0,0,0,0,0,0,0,0,-1,580,1786,0,0
-637,-762,0,0,0,0,0,0,0,0,0,-1,587,1786,0,0
-630,-762,0,0,0,0,0,0,0,0,0,-1,594,1786,0,0
-623,-762,0,0,0,0,0,0,0,0,0,-1,601,1786,0,0
-616,-762,0,0,0,0,0,0,0,0,0,-1,608,1786,0,0
-609,-762,0,0,0,0,0,0,0,0,0,-1,615,1786,0,0
-602,-762,0,0,0,0,0,0,0,0,0,-1,622,1786,0,0
-595,-762,0,0,0,0,0,0,0,0,0,-1,629,1786,0,0
-588,-762,0,0,0,0,0,0,0,0,0,-1,636,1786,0,0
-581,-762,0,0,0,0,0,0,0,0,0,-1,643,1786,0,0
-574,-762,0,0,0,0,0,0,0,0,0,-1,650,1786,0,0
-567,-762,0,0,0,0,0,0,0,0,0,-1,657,1786,0,0
-560,-762,0,0,0,0,0,0,0,0,0,-1,664,1786,0,0
-553,-762,0,0,0,0,0,0,0,0,0,-1,671,1786,0,0
-546,-762,0,0,0,0,0,0,0,0,0,-1,678,1786,0,0
-539,-762,0,0,0,0,0,0,0,0,0,-1,685,1786,0,0
-532,-762,0,0,0,0,0,0,0,0,0,-1,692,1786,0,0
-525,-762,0,0,0,0,0,0,0,0,0,-1,699,1786,0,0
-518,-762,0,0,0,0,0,0,0,0,0,-1,706,1786,0,0
-511,-762,0,0,0,0,0,0,0,0,0,-1,713,1786,0,0
-504,-762,0,0,0,0,0,0,0,0,0,-1,720,1786,0,0
-497,-762,0,0,0,0,0,0,0,0,0,-1,727,1786,0,0
-490,-762,0,0,0,0,0,0,0,0,0,-1,734,1786,0,0
-483,-762,0,0,0,0,0,0,0,0,0,-1,741,1786,0,0
-476,-762,0,0,0,0,0,0,0,0,0,-1,748,1786,0,0
-469,-762,0,0,0,0,0,0,0,0,0,-1,755,1786,0,0
-462,-762,0,0,0,0,0,0,0,0,0,-1,762,1786,0,0
-455,-762,0,0,0,0,0,0,0,0,0,-1,769,1786,0,0
-448,-762,0,0,0,0,0,0,0,0,0,-1,776,1786,0,0
-441,-762,0,0,0,0,0,0,0,0,0,-1,783,1786,0,0
-434,-762,0,0,0,0,0,0,0,0,0,-1,790,1786,0,0
-427,-762,0,0,0,0,0,0,0,0,0,-1,797,1786,0,0
-420,-762,0,0,0,0,0,0,0,0,0,-1,804,1786,0,0
-413,-762,0,0,0,0,0,0,0,0,0,-1,811,1786,0,0
-406,-762,0,0,0,0,0,0,0,0,0,-1,818,1786,0,0
-399,-762,0,0,0,0,0,0,0,0,0,-1,825,1786,0,0
-392,-762,0,0,0,0,0,0,0,0,0,-1,832,1786,0,0
-385,-762,0,0,0,0,0,0,0,0,0,-1,839,1786,0,0
-378,-762,0,0,0,0,0,0,0,0,0,-1,846,1786,0,0
-371,-762,0,0,0,0,0,0,0,0,0,-1,853,1786,0,0
-364,-762,0,0,0,0,0,0,0,0,0,-1,860,1786,0,0
-357,-762,0,0,0,0,0,0,0,0,0,-1,867,1786,0,0
-350,-762,0,0,0,0,0,0,0,0,0,-1,874,1786,0,0
-343,-762,0,0,0,0,0,0,0,0,0,-1,881,1786,0,0
-336,-762,0,0,0,0,0,0,0,0,0,-1,888,1786,0,0
-329,-762,0,0,0,0,0,0,0,0,0,-1,895,1786,0,0
-322,-762,0,0,0,0,0,0,0,0,0,-1,902,1786,0,0
-315,-762,0,0,0,0,0,0,0,0,0,-1,909,1786,0,0
-308,-762,0,0,0,0,0,0,0,0,0,-1,916,1786,0,0
-301,-762,0,0,0,0,0,0,0,0,0,-1,923,1786,0,0
-294,-762,0,0,0,0,0,0,0,0,0,-1,930,1786,0,0
-287,-762,0,0,0,0,0,0,0,0,0,-1,937,1786,0,0
-280,-762,0,0,0,0,0,0,0,0,0,-1,944,1786,0,0
-273,-762,0,0,0,0,0,0,0,0,0,-1,951,1786,0,0
-266,-762,0,0,0,0,0,0,0,0,0,-1,958,1786,0,0
-259,-762,0,0,0,0,0,0,0,0,0,-1,965,1786,0,0
-252,-762,0,0,0,0,0,0,0,0,0,-1,972,1786,0,0
-245,-762,0,0,0,0,0,0,0,0,0,-1,979,1786,0,0
-238,-762,0,0,0,0,0,0,0,0,0,-1,986,1786,0,0
-231,-762,0,0,0,0,0,0,0,0,0,-1,993,1786,0,0
-224,-762,0,0,0,0,0,0,0,0,0,-1,1000,1786,0,0
-217,-762,0,0,0,0,0,0,0,0,0,-1,1007,1786,0,0
-210,-762,0,0,0,0,0,0,0,0,0,-1,1014,1786,0,0
-203,-762,0,0,0,0,0,0,0,0,0,-1,1021,1786,0,0
-196,-762,0,0,0,0,0,0,0,0,0,-1,1028,1786,0,0
-189,-762,0,0,0,0,0,0,0,0,0,-1,1035,1786,0,0
-182,-762,4.44226,13.2462,0,0,0,0,0,0,0,-1,1042,1786,4.44227,-13.2462
-175,-762,-1.29956,14.1766,0,0,0,0,0,0,0,-1,1049,1786,-1.29956,-14.1767
-168,-762,-2.08618,13.0768,0,0,0,0,0,0,0,-1,1056,1786,-2.08623,-13.0768
-161,-762,-3.29077,11.9508,0,0,0,0,0,0,0,-1,1063,1786,-3.29076,-11.9508
-154,-762,-4.55823,11.1176,0,0,0,0,0,0,0,-1,1070,1786,-4.55828,-11.1175
-147,-762,-6.52454,9.41418,0,0,0,0,0,0,0,-1,1077,1786,-6.52458,-9.41419
-140,-762,4.99792,5.28589,0,0,0,0,0,0,0,-1,1084,1786,4.99793,-5.28587
-133,-762,6.68982,18.3632,0,0,0,0,0,0,0,-1,1091,1786,6.68986,-18.3631
-126,-762,6.1062,19.6769,0,0,0,0,0,0,0,-1,1098,1786,6.10617,-19.6769
-119,-762,5.62537,19.9695,0,0,0,0,0,0,0,-1,1105,1786,5.6254,-19.9695
-112,-762,4.94165,20.5363,0,0,0,0,0,0,0,-1,1112,1786,4.94167,-20.5362
-105,-762,5.06091,19.0017,0,0,0,0,0,0,0,-1,1119,1786,5.06095,-19.0017
-98,-762,5.80432,18.0415,0,0,0,0,0,0,0,-1,1126,1786,5.80432,-18.0415
-91,-762,4.04016,14.6007,0,0,0,0,0,0,0,-1,1133,1786,4.04013,-14.6007
-84,-762,3.00232,10.7883,0,0,0,0,0,0,0,-1,1140,1786,3.0023,-10.7883
-77,-762,0.305054,8.49365,0,0,0,0,0,0,0,-1,1147,1786,0.305008,-8.49362
-70,-762,0.183716,6.74622,0,0,0,0,0,0,0,-1,1154,1786,0.183696,-6.74621
-63,-762,-0.883057,9.08813,0,0,0,0,0,0,0,-1,1161,1786,-0.88311,-9.08808
-56,-762,-0.578979,5.10254,0,0,0,0,0,0,0,-1,1168,1786,-0.578951,-5.10249
-49,-762,-2.04541,3.66321,0,0,0,0,0,0,0,-1,1175,1786,-2.0454,-3.66319
-42,-762,-2.23462,3.474,0,0,0,0,0,0,0,-1,1182,1786,-2.23459,-3.47399
-35,-762,-3.28992,1.68164,0,0,0,0,0,0,0,-1,1189,1786,-3.28998,-1.68164
-28,-762,-3.75378,1.37769,0,0,0,0,0,0,0,-1,1196,1786,-3.75373,-1.37767
-21,-762,5.64648,21.8958,0,0,0,0,0,0,0,-1,1203,1786,5.64652,-21.8958
-14,-762,5.83533,21.8859,0,0,0,0,0,0,0,-1,1210,1786,5.83535,-21.8859
-7,-762,5.11072,22.3976,-0.0306244,-0.0196583,0.00496452,-0.0177447,-0.032538,1.20289,0.0188116,0.0481629,1217,1786,5.11076,-22.3975
0,-762,5.61499,22.005,-0.0284538,-0.016969,0.0075587,-0.0132188,-0.032204,1.11024,0.0186921,0.036213,1224,1786,5.61502,-22.005
7,-762,5.67639,22.0527,-0.0264318,-0.0143046,0.0106317,-0.00812892,-0.0326075,1.04456,0.0195989,0.0212594,1231,1786,5.67636,-22.0528
14,-762,5.68384,22.1832,-0.0241899,-0.0117235,0.0142479,-0.00240498,-0.0335084,0.991596,0.021582,0.0350992,1238,1786,5.68378,-22.1832
21,-762,5.56201,22.2202,-0.0217887,-0.010011,0.0170185,0.00210877,-0.0339084,0.951963,0.0233403,0.0392296,1245,1786,5.56206,-22.2202
28,-762,5.57349,22.1071,-0.0196148,-0.00858121,0.019522,0.00618856,-0.0343845,0.923104,0.02524,0.037679,1252,1786,5.57353,-22.107
35,-762,5.49316,22.2423,-0.0176185,-0.0072133,0.0216111,0.00981264,-0.0346445,0.903519,0.026969,0.0419091,1259,1786,5.49322,-22.2424
42,-762,5.48254,22.2999,-0.0159712,-0.00641093,0.0229854,0.0122861,-0.0346682,0.887919,0.028117,0.040682,1266,1786,5.48253,-22.3
49,-762,5.57446,22.2864,-0.0150641,-0.00534987,0.0235885,0.0138764,-0.0342904,0.886934,0.0286295,0.0320393,1273,1786,5.57449,-22.2863
56,-762,5.60901,22.2714,-0.0143125,-0.00489502,0.0238125,0.0146698,-0.0338773,0.883011,0.0287506,0.022471,1280,1786,5.60895,-22.2714
63,-762,5.5448,22.2971,-0.0135319,-0.00536913,0.0233458,0.0142494,-0.0331504,0.871935,0.0280821,0.0206477,1287,1786,5.54485,-22.2971
70,-762,5.48499,22.3015,-0.0126536,-0.00618795,0.0221292,0.0129433,-0.0317849,0.85793,0.0265766,0.0199097,1294,1786,5.48503,-22.3015
77,-762,5.47266,22.2217,-0.0114463,-0.00794074,0.0204759,0.0108573,-0.0302443,0.828095,0.0245942,0.0261914,1301,1786,5.47263,-22.2216
84,-762,5.47534,22.2687,-0.010362,-0.010336,0.0182573,0.00790835,-0.0286063,0.785755,0.022182,0.0325954,1308,1786,5.4753,-22.2687
91,-762,5.54309,22.3751,-0.00877299,-0.0121767,0.0161509,0.00576547,-0.0267152,0.732906,0.0200107,0.0413725,1315,1786,5.54311,-22.3752
98,-762,5.46448,22.2971,-0.0074865,-0.0142099,0.0138144,0.00336939,-0.0250658,0.666045,0.0179394,0.0427752,1322,1786,5.46453,-22.2971
105,-762,5.51611,22.2865,-0.00549213,-0.0169824,0.0121718,0.00222226,-0.0246968,0.564898,0.017253,0.0411843,1329,1786,5.51616,-22.2864
112,-762,5.3584,22.2736,-0.00204622,-0.0200493,0.0104713,0.00276082,-0.0248563,0.430368,0.0175636,0.0430348,1336,1786,5.35839,-22.2736
119,-762,5.20703,22.307,0.00150333,-0.0232475,0.00866213,0.00423365,-0.0259778,0.305345,0.0188886,0.0446506,1343,1786,5.20708,-22.307
126,-762,5.3761,22.2567,0.00485506,-0.0257809,0.00794441,0.00679263,-0.0277185,0.239221,0.0211107,0.0470892,1350,1786,5.37607,-22.2567
133,-762,5.39038,22.1736,0.00817537,-0.0284921,0.00691134,0.00943481,-0.0297516,0.18025,0.0236161,0.0482672,1357,1786,5.3904,-22.1736
140,-762,5.35205,22.0894,0.0110442,-0.0315274,0.00571561,0.0117982,-0.0322814,0.131165,0.0263494,0.0455704,1364,1786,5.35208,-22.0893
147,-762,5.32141,22.0876,0.0128777,-0.0331305,0.0050625,0.0134281,-0.0336809,0.108309,0.0280237,0.044394,1371,1786,5.32138,-22.0876
154,-762,5.40576,21.9688,0,0,0,0,0,0,0,-1,1378,1786,5.40572,-21.9687
161,-762,7.93408,-0.126221,0,0,0,0,0,0,0,-1,1385,1786,7.93402,0.126232
168,-762,8.19287,0.880615,0,0,0,0,0,0,0,-1,1392,1786,8.19291,-0.880603
175,-762,8.33997,1.95947,0,0,0,0,0,0,0,-1,1399,1786,8.33997,-1.95942
182,-762,8.28418,3.56482,0,0,0,0,0,0,0,-1,1406,1786,8.28415,-3.56485
189,-762,8.21179,5.23389,0,0,0,0,0,0,0,-1,1413,1786,8.21183,-5.23383
196,-762,8.05969,6.95483,0,0,0,0,0,0,0,-1,1420,1786,8.05972,-6.9548
203,-762,24.0077,7.10425,0,0,0,0,0,0,0,-1,1427,1786,24.0077,-7.10426
210,-762,23.8073,7.6499,0,0,0,0,0,0,0,-1,1434,1786,23.8073,-7.64987
217,-762,23.3193,8.24426,0,0,0,0,0,0,0,-1,1441,1786,23.3194,-8.2442
224,-762,2.65149,20.6106,0,0,0,0,0,0,0,-1,1448,1786,2.65153,-20.6106
231,-762,6.46948,20.1884,0,0,0,0,0,0,0,-1,1455,1786,6.46951,-20.1883
238,-762,5.68384,19.9847,0,0,0,0,0,0,0,-1,1462,1786,5.68384,-19.9848
245,-762,5.95154,18.1689,0,0,0,0,0,0,0,-1,1469,1786,5.95159,-18.1689
252,-762,6.39709,13.6066,0,0,0,0,0,0,0,-1,1476,1786,6.39708,-13.6066
259,-762,17.4619,7.89832,0,0,0,0,0,0,0,-1,1483,1786,17.462,-7.89836
266,-762,16.451,7.67773,0,0,0,0,0,0,0,-1,1490,1786,16.4511,-7.67773
273,-762,15.287,7.5304,0,0,0,0,0,0,0,-1,1497,1786,15.2869,-7.53044
280,-762,14.1501,7.38379,0,0,0,0,0,0,0,-1,1504,1786,14.1502,-7.38376
287,-762,12.6891,7.99133,0,0,0,0,0,0,0,-1,1511,1786,12.6891,-7.99135
294,-762,12.6959,8.30371,0,0,0,0,0,0,0,-1,1518,1786,12.6959,-8.30368
301,-762,11.4222,8.84143,0,0,0,0,0,0,0,-1,1525,1786,11.4223,-8.84149
308,-762,0,0,0,0,0,0,0,0,0,-1,1532,1786,0,0
315,-762,0,0,0,0,0,0,0,0,0,-1,1539,1786,0,0
322,-762,0,0,0,0,0,0,0,0,0,-1,1546,1786,0,0
329,-762,0,0,0,0,0,0,0,0,0,-1,1553,1786,0,0
336,-762,0,0,0,0,0,0,0,0,0,-1,1560,1786,0,0
343,-762,0,0,0,0,0,0,0,0,0,-1,1567,1786,0,0
350,-762,0,0,0,0,0,0,0,0,0,-1,1574,1786,0,0
357,-762,0,0,0,0,0,0,0,0,0,-1,1581,1786,0,0
364,-762,0,0,0,0,0,0,0,0,0,-1,1588,1786,0,0
371,-762,0,0,0,0,0,0,0,0,0,-1,1595,1786,0,0
378,-762,0,0,0,0,0,0,0,0,0,-1,1602,1786,0,0
385,-762,0,0,0,0,0,0,0,0,0,-1,1609,1786,0,0
392,-762,0,0,0,0,0,0,0,0,0,-1,1616,1786,0,0
399,-762,0,0,0,0,0,0,0,0,0,-1,1623,1786,0,0
406,-762,0,0,0,0,0,0,0,0,0,-1,1630,1786,0,0
413,-762,0,0,0,0,0,0,0,0,0,-1,1637,1786,0,0
420,-762,0,0,0,0,0,0,0,0,0,-1,1644,1786,0,0
427,-762,0,0,0,0,0,0,0,0,0,-1,1651,1786,0,0
434,-762,0,0,0,0,0,0,0,0,0,-1,1658,1786,0,0
441,-762,0,0,0,0,0,0,0,0,0,-1,1665,1786,0,0
448,-762,0,0,0,0,0,0,0,0,0,-1,1672,1786,0,0
455,-762,0,0,0,0,0,0,0,0,0,-1,1679,1786,0,0
462,-762,0,0,0,0,0,0,0,0,0,-1,1686,1786,0,0
469,-762,0,0,0,0,0,0,0,0,0,-1,1693,1786,0,0
476,-762,0,0,0,0,0,0,0,0,0,-1,1700,1786,0,0
483,-762,0,0,0,0,0,0,0,0,0,-1,1707,1786,0,0
490,-762,0,0,0,0,0,0,0,0,0,-1,1714,1786,0,0
497,-762,0,0,0,0,0,0,0,0,0,-1,1721,1786,0,0
504,-762,0,0,0,0,0,0,0,0,0,-1,1728,1786,0,0
511,-762,0,0,0,0,0,0,0,0,0,-1,1735,1786,0,0
518,-762,0,0,0,0,0,0,0,0,0,-1,1742,1786,0,0
525,-762,0,0,0,0,0,0,0,0,0,-1,1749,1786,0,0
532,-762,0,0,0,0,0,0,0,0,0,-1,1756,1786,0,0
539,-762,0,0,0,0,0,0,0,0,0,-1,1763,1786,0,0
546,-762,0,0,0,0,0,0,0,0,0,-1,1770,1786,0,0
553,-762,0,0,0,0,0,0,0,0,0,-1,1777,1786,0,0
560,-762,0,0,0,0,0,0,0,0,0,-1,1784,1786,0,0
567,-762,0,0,0,0,0,0,0,0,0,-1,1791,1786,0,0
574,-762,0,0,0,0,0,0,0,0,0,-1,1798,1786,0,0
581,-762,0,0,0,0,0,0,0,0,0,-1,1805,1786,0,0
588,-762,0,0,0,0,0,0,0,0,0,-1,1812,1786,0,0
595,-762,0,0,0,0,0,0,0,0,0,-1,1819,1786,0,0
602,-762,0,0,0,0,0,0,0,0,0,-1,1826,1786,0,0
609,-762,0,0,0,0,0,0,0,0,0,-1,1833,1786,0,0
616,-762,0,0,0,0,0,0,0,0,0,-1,1840,1786,0,0
623,-762,0,0,0,0,0,0,0,0,0,-1,1847,1786,0,0
630,-762,0,0,0,0,0,0,0,0,0,-1,1854,1786,0,0
637,-762,0,0,0,0,0,0,0,0,0,-1,1861,1786,0,0
644,-762,0,0,0,0,0,0,0,0,0,-1,1868,1786,0,0
651,-762,0,0,0,0,0,0,0,0,0,-1,1875,1786,0,0
658,-762,0,0,0,0,0,0,0,0,0,-1,1882,1786,0,0
665,-762,0,0,0,0,0,0,0,0,0,-1,1889,1786,0,0
672,-762,0,0,0,0,0,0,0,0,0,-1,1896,1786,0,0
679,-762,0,0,0,0,0,0,0,0,0,-1,1903,1786,0,0
686,-762,0,0,0,0,0,0,0,0,0,-1,1910,1786,0,0
693,-762,0,0,0,0,0,0,0,0,0,-1,1917,1786,0,0
700,-762,0,0,0,0,0,0,0,0,0,-1,1924,1786,0,0
707,-762,0,0,0,0,0,0,0,0,0,-1,1931,1786,0,0
714,-762,0,0,0,0,0,0,0,0,0,-1,1938,1786,0,0
721,-762,0,0,0,0,0,0,0,0,0,-1,1945,1786,0,0
728,-762,0,0,0,0,0,0,0,0,0,-1,1952,1786,0,0
735,-762,0,0,0,0,0,0,0,0,0,-1,1959,1786,0,0
742,-762,0,0,0,0,0,0,0,0,0,-1,1966,1786,0,0
749,-762,0,0,0,0,0,0,0,0,0,-1,1973,1786,0,0
756,-762,0,0,0,0,0,0,0,0,0,-1,1980,1786,0,0
763,-762,0,0,0,0,0,0,0,0,0,-1,1987,1786,0,0
770,-762,0,0,0,0,0,0,0,0,0,-1,1994,1786,0,0
777,-762,0,0,0,0,0,0,0,0,0,-1,2001,1786,0,0
784,-762,0,0,0,0,0,0,0,0,0,-1,2008,1786,0,0
791,-762,0,0,0,0,0,0,0,0,0,-1,2015,1786,0,0
798,-762,0,0,0,0,0,0,0,0,0,-1,2022,1786,0,0
805,-762,0,0,0,0,0,0,0,0,0,-1,2029,1786,0,0
812,-762,0,0,0,0,0,0,0,0,0,-1,2036,1786,0,0
-700,-769,0,0,0,0,0,0,0,0,0,-1,524,1793,0,0
-693,-769,0,0,0,0,0,0,0,0,0,-1,531,1793,0,0
-686,-769,0,0,0,0,0,0,0,0,0,-1,538,1793,0,0
-679,-769,0,0,0,0,0,0,0,0,0,-1,545,1793,0,0
-672,-769,0,0,0,0,0,0,0,0,0,-1,552,1793,0,0
-665,-769,0,0,0,0,0,0,0,0,0,-1,559,1793,0,0
-658,-769,0,0,0,0,0,0,0,0,0,-1,566,1793,0,0
-651,-769,0,0,0,0,0,0,0,0,0,-1,573,1793,0,0
-644,-769,0,0,0,0,0,0,0,0,0,-1,580,1793,0,0
-637,-769,0,0,0,0,0,0,0,0,0,-1,587,1793,0,0
-630,-769,0,0,0,0,0,0,0,0,0,-1,594,1793,0,0
-623,-769,0,0,0,0,0,0,0,0,0,-1,601,1793,0,0
-616,-769,0,0,0,0,0,0,0,0,0,-1,608,1793,0,0
-609,-769,0,0,0,0,0,0,0,0,0,-1,615,1793,0,0
-602,-769,0,0,0,0,0,0,0,0,0,-1,622,1793,0,0
-595,-769,0,0,0,0,0,0,0,0,0,-1,629,1793,0,0
-588,-769,0,0,0,0,0,0,0,0,0,-1,636,1793,0,0
-581,-769,0,0,0,0,0,0,0,0,0,-1,643,1793,0,0
-574,-769,0,0,0,0,0,0,0,0,0,-1,650,1793,0,0
-567,-769,0,0,0,0,0,0,0,0,0,-1,657,1793,0,0
-560,-769,0,0,0,0,0,0,0,0,0,-1,664,1793,0,0
-553,-769,0,0,0,0,0,0,0,0,0,-1,671,1793,0,0
-546,-769,0,0,0,0,0,0,0,0,0,-1,678,1793,0,0
-539,-769,0,0,0,0,0,0,0,0,0,-1,685,1793,0,0
-532,-769,0,0,0,0,0,0,0,0,0,-1,692,1793,0,0
-525,-769,0,0,0,0,0,0,0,0,0,-1,699,1793,0,0
-518,-769,0,0,0,0,0,0,0,0,0,-1,706,1793,0,0
-511,-769,0,0,0,0,0,0,0,0,0,-1,713,1793,0,0
-504,-769,0,0,0,0,0,0,0,0,0,-1,720,1793,0,0
-497,-769,0,0,0,0,0,0,0,0,0,-1,727,1793,0,0
-490,-769,0,0,0,0,0,0,0,0,0,-1,734,1793,0,0
-483,-769,0,0,0,0,0,0,0,0,0,-1,741,1793,0,0
-476,-769,0,0,0,0,0,0,0,0,0,-1,748,1793,0,0
-469,-769,0,0,0,0,0,0,0,0,0,-1,755,1793,0,0
-462,-769,0,0,0,0,0,0,0,0,0,-1,762,1793,0,0
-455,-769,0,0,0,0,0,0,0,0,0,-1,769,1793,0,0
-448,-769,0,0,0,0,0,0,0,0,0,-1,776,1793,0,0
-441,-769,0,0,0,0,0,0,0,0,0,-1,783,1793,0,0
-434,-769,0,0,0,0,0,0,0,0,0,-1,790,1793,0,0
-427,-769,0,0,0,0,0,0,0,0,0,-1,797,1793,0,0
-420,-769,0,0,0,0,0,0,0,0,0,-1,804,1793,0,0
-413,-769,0,0,0,0,0,0,0,0,0,-1,811,1793,0,0
-406,-769,0,0,0,0,0,0,0,0,0,-1,818,1793,0,0
-399,-769,0,0,0,0,0,0,0,0,0,-1,825,1793,0,0
-392,-769,0,0,0,0,0,0,0,0,0,-1,832,1793,0,0
-385,-769,0,0,0,0,0,0,0,0,0,-1,839,1793,0,0
-378,-769,0,0,0,0,0,0,0,0,0,-1,846,1793,0,0
-371,-769,0,0,0,0,0,0,0,0,0,-1,853,1793,0,0
-364,-769,0,0,0,0,0,0,0,0,0,-1,860,1793,0,0
-357,-769,0,0,0,0,0,0,0,0,0,-1,867,1793,0,0
-350,-769,0,0,0,0,0,0,0,0,0,-1,874,1793,0,0
-343,-769,0,0,0,0,0,0,0,0,0,-1,881,1793,0,0
-336,-769,0,0,0,0,0,0,0,0,0,-1,888,1793,0,0
-329,-769,0,0,0,0,0,0,0,0,0,-1,895,1793,0,0
-322,-769,0,0,0,0,0,0,0,0,0,-1,902,1793,0,0
-315,-769,0,0,0,0,0,0,0,0,0,-1,909,1793,0,0
-308,-769,0,0,0,0,0,0,0,0,0,-1,916,1793,0,0
-301,-769,0,0,0,0,0,0,0,0,0,-1,923,1793,0,0
-294,-769,0,0,0,0,0,0,0,0,0,-1,930,1793,0,0
-287,-769,0,0,0,0,0,0,0,0,0,-1,937,1793,0,0
-280,-769,0,0,0,0,0,0,0,0,0,-1,944,1793,0,0
-273,-769,0,0,0,0,0,0,0,0,0,-1,951,1793,0,0
-266,-769,0,0,0,0,0,0,0,0,0,-1,958,1793,0,0
-259,-769,0,0,0,0,0,0,0,0,0,-1,965,1793,0,0
-252,-769,0,0,0,0,0,0,0,0,0,-1,972,1793,0,0
-245,-769,0,0,0,0,0,0,0,0,0,-1,979,1793,0,0
-238,-769,0,0,0,0,0,0,0,0,0,-1,986,1793,0,0
-231,-769,0,0,0,0,0,0,0,0,0,-1,993,1793,0,0
-224,-769,0,0,0,0,0,0,0,0,0,-1,1000,1793,0,0
-217,-769,0,0,0,0,0,0,0,0,0,-1,1007,1793,0,0
-210,-769,0,0,0,0,0,0,0,0,0,-1,1014,1793,0,0
-203,-769,0,0,0,0,0,0,0,0,0,-1,1021,1793,0,0
-196,-769,0,0,0,0,0,0,0,0,0,-1,1028,1793,0,0
-189,-769,0,0,0,0,0,0,0,0,0,-1,1035,1793,0,0
-182,-769,0,0,0,0,0,0,0,0,0,-1,1042,1793,0,0
-175,-769,0,0,0,0,0,0,0,0,0,-1,1049,1793,0,0
-168,-769,0,0,0,0,0,0,0,0,0,-1,1056,1793,0,0
-161,-769,-3.61145,12.4761,0,0,0,0,0,0,0,-1,1063,1793,-3.6114,-12.476
-154,-769,-0.813232,5.32874,0,0,0,0,0,0,0,-1,1070,1793,-0.813269,-5.32872
-147,-769,4.26587,4.7002,0,0,0,0,0,0,0,-1,1077,1793,4.26593,-4.70022
-140,-769,4.10376,5.28589,0,0,0,0,0,0,0,-1,1084,1793,4.10371,-5.28584
-133,-769,6.422,8.21777,0,0,0,0,0,0,0,-1,1091,1793,6.42198,-8.21773
-126,-769,5.61743,19.271,0,0,0,0,0,0,0,-1,1098,1793,5.61742,-19.271
-119,-769,6.01685,16.2577,0,0,0,0,0,0,0,-1,1105,1793,6.01689,-16.2576
-112,-769,2.77722,20.0741,0,0,0,0,0,0,0,-1,1112,1793,2.77727,-20.0741
-105,-769,3.62769,19.2856,0,0,0,0,0,0,0,-1,1119,1793,3.62772,-19.2856
-98,-769,4.47815,18.4971,0,0,0,0,0,0,0,-1,1126,1793,4.47817,-18.4971
-91,-769,3.46667,14.9108,0,0,0,0,0,0,0,-1,1133,1793,3.46666,-14.9108
-84,-769,2.97742,11.9479,0,0,0,0,0,0,0,-1,1140,1793,2.97741,-11.9478
-77,-769,2.48816,8.98486,0,0,0,0,0,0,0,-1,1147,1793,2.48815,-8.98489
-70,-769,1.04944,11.9852,0,0,0,0,0,0,0,-1,1154,1793,1.04947,-11.9852
-63,-769,-2.39709,9.60339,0,0,0,0,0,0,0,-1,1161,1793,-2.39706,-9.6034
-56,-769,-5.84363,7.22156,0,0,0,0,0,0,0,-1,1168,1793,-5.84359,-7.22157
-49,-769,-2.41443,3.95471,0,0,0,0,0,0,0,-1,1175,1793,-2.41446,-3.95471
-42,-769,-3.1991,2.64941,0,0,0,0,0,0,0,-1,1182,1793,-3.19914,-2.64944
-35,-769,-3.50183,1.73389,0,0,0,0,0,0,0,-1,1189,1793,-3.50189,-1.7339
-28,-769,-3.96985,1.14075,0,0,0,0,0,0,0,-1,1196,1793,-3.96985,-1.14078
-21,-769,3.32703,16.424,0,0,0,0,0,0,0,-1,1203,1793,3.32707,-16.424
-14,-769,5.40991,22.6271,0,0,0,0,0,0,0,-1,1210,1793,5.40997,-22.6271
-7,-769,4.63904,22.83,0,0,0,0,0,0,0,-1,1217,1793,4.63902,-22.8299
0,-769,5.68408,21.9899,0,0,0,0,0,0,0,-1,1224,1793,5.68411,-21.9899
7,-769,5.7323,22.0973,-0.0386889,-0.0187531,0.0126288,-0.0126323,-0.0448096,1.11949,0.0266786,0.0475545,1231,1793,5.7323,-22.0973
14,-769,5.81104,22.4397,-0.0354762,-0.0151886,0.0175851,-0.00503136,-0.0456335,1.04701,0.0288916,0.045069,1238,1793,5.81109,-22.4397
21,-769,5.53943,22.2726,0,0,0,0,0,0,0,-1,1245,1793,5.53948,-22.2725
28,-769,5.30847,21.7759,-0.0290252,-0.0108983,0.025157,0.00677814,-0.0467017,0.958298,0.0336224,0.0422606,1252,1793,5.30851,-21.7759
35,-769,5.33057,22.1892,-0.0262348,-0.00905374,0.0280973,0.0117369,-0.0470254,0.933756,0.0359078,0.047708,1259,1793,5.33051,-22.1892
42,-769,5.33618,22.3682,0,0,0,0,0,0,0,-1,1266,1793,5.33618,-22.3682
49,-769,5.63306,22.3899,-0.0226794,-0.00669691,0.0312147,0.0175332,-0.0469095,0.910711,0.038473,0.0425948,1273,1793,5.63302,-22.3899
56,-769,5.70496,22.2091,-0.0215682,-0.00614767,0.0316269,0.0186953,-0.0464111,0.90496,0.0387079,0.0417463,1280,1793,5.70491,-22.2091
63,-769,5.70093,22.1732,-0.0203277,-0.00680907,0.0310731,0.0182314,-0.0453682,0.892494,0.037817,0.0435807,1287,1793,5.70091,-22.1732
70,-769,5.49292,22.3276,-0.0188693,-0.00796489,0.0295364,0.0166184,-0.0434525,0.876667,0.0358168,0.0444595,1294,1793,5.49293,-22.3277
77,-769,5.46851,22.1464,-0.0168705,-0.0104336,0.0274149,0.0139511,-0.0412552,0.843829,0.0331474,0.0466892,1301,1793,5.46853,-22.1464
84,-769,5.3623,22.345,-0.0147823,-0.0137572,0.0244695,0.0102051,-0.0387446,0.79587,0.0298193,0.0459749,1308,1793,5.36232,-22.345
91,-769,5.61755,22.4812,-0.0120586,-0.0164849,0.021748,0.00758861,-0.0361321,0.734691,0.0269758,0.0465631,1315,1793,5.61757,-22.4812
98,-769,5.48767,22.2827,-0.0095323,-0.0196253,0.0187643,0.00485229,-0.0340099,0.654036,0.0244517,0.0469896,1322,1793,5.48768,-22.2827
105,-769,5.38928,22.2913,-0.005998,-0.0236928,0.0164818,0.00386087,-0.0335517,0.539072,0.0237596,0.0442328,1329,1793,5.3893,-22.2912
112,-769,4.95825,22.4022,-0.000625194,-0.0282381,0.01419,0.00536668,-0.03423,0.399548,0.0248032,0.0431861,1336,1793,4.95824,-22.4023
119,-769,5.06616,22.3704,0,0,0,0,0,0,0,-1,1343,1793,5.06622,-22.3704
126,-769,5.3363,22.2722,0,0,0,0,0,0,0,-1,1350,1793,5.3363,-22.2722
133,-769,5.40784,22.1729,0,0,0,0,0,0,0,-1,1357,1793,5.40778,-22.1728
140,-769,5.48035,22.0479,0,0,0,0,0,0,0,-1,1364,1793,5.48034,-22.0479
147,-769,5.37988,22.0632,0,0,0,0,0,0,0,-1,1371,1793,5.3799,-22.0632
154,-769,6.37561,1.00024,0,0,0,0,0,0,0,-1,1378,1793,6.37566,-1.00028
161,-769,6.57019,1.53223,0,0,0,0,0,0,0,-1,1385,1793,6.57019,-1.53226
168,-769,8.27637,0.756958,0,0,0,0,0,0,0,-1,1392,1793,8.27639,-0.756944
175,-769,8.47144,2.41174,0,0,0,0,0,0,0,-1,1399,1793,8.47147,-2.4118
182,-769,8.41479,4.05994,0,0,0,0,0,0,0,-1,1406,1793,8.41479,-4.05997
189,-769,8.25049,5.68433,0,0,0,0,0,0,0,-1,1413,1793,8.25054,-5.68428
196,-769,7.97729,7.42847,0,0,0,0,0,0,0,-1,1420,1793,7.9773,-7.42848
203,-769,22.0977,6.73889,0,0,0,0,0,0,0,-1,1427,1793,22.0977,-6.7389
210,-769,22.1115,7.77246,0,0,0,0,0,0,0,-1,1434,1793,22.1115,-7.77248
217,-769,22.4723,8.79102,0,0,0,0,0,0,0,-1,1441,1793,22.4723,-8.79099
224,-769,22.1348,9.35278,0,0,0,0,0,0,0,-1,1448,1793,22.1348,-9.35283
231,-769,3.13318,19.7184,0,0,0,0,0,0,0,-1,1455,1793,3.13323,-19.7184
238,-769,5.74512,18.6597,0,0,0,0,0,0,0,-1,1462,1793,5.74512,-18.6596
245,-769,5.71143,16.2483,0,0,0,0,0,0,0,-1,1469,1793,5.71137,-16.2483
252,-769,4.34961,12.5251,0,0,0,0,0,0,0,-1,1476,1793,4.34959,-12.5252
259,-769,16.4871,7.42102,0,0,0,0,0,0,0,-1,1483,1793,16.4871,-7.42104
266,-769,15.8488,7.3905,0,0,0,0,0,0,0,-1,1490,1793,15.8488,-7.39046
273,-769,14.8075,7.56152,0,0,0,0,0,0,0,-1,1497,1793,14.8075,-7.56152
280,-769,13.6519,7.43054,0,0,0,0,0,0,0,-1,1504,1793,13.6518,-7.43058
287,-769,0,0,0,0,0,0,0,0,0,-1,1511,1793,0,0
294,-769,0,0,0,0,0,0,0,0,0,-1,1518,1793,0,0
301,-769,0,0,0,0,0,0,0,0,0,-1,1525,1793,0,0
308,-769,0,0,0,0,0,0,0,0,0,-1,1532,1793,0,0
315,-769,0,0,0,0,0,0,0,0,0,-1,1539,1793,0,0
322,-769,0,0,0,0,0,0,0,0,0,-1,1546,1793,0,0
329,-769,0,0,0,0,0,0,0,0,0,-1,1553,1793,0,0
336,-769,0,0,0,0,0,0,0,0,0,-1,1560,1793,0,0
343,-769,0,0,0,0,0,0,0,0,0,-1,1567,1793,0,0
350,-769,0,0,0,0,0,0,0,0,0,-1,1574,1793,0,0
357,-769,0,0,0,0,0,0,0,0,0,-1,1581,1793,0,0
364,-769,0,0,0,0,0,0,0,0,0,-1,1588,1793,0,0
371,-769,0,0,0,0,0,0,0,0,0,-1,1595,1793,0,0
378,-769,0,0,0,0,0,0,0,0,0,-1,1602,1793,0,0
385,-769,0,0,0,0,0,0,0,0,0,-1,1609,1793,0,0
392,-769,0,0,0,0,0,0,0,0,0,-1,1616,1793,0,0
399,-769,0,0,0,0,0,0,0,0,0,-1,1623,1793,0,0
406,-769,0,0,0,0,0,0,0,0,0,-1,1630,1793,0,0
413,-769,0,0,0,0,0,0,0,0,0,-1,1637,1793,0,0
420,-769,0,0,0,0,0,0,0,0,0,-1,1644,1793,0,0
427,-769,0,0,0,0,0,0,0,0,0,-1,1651,1793,0,0
434,-769,0,0,0,0,0,0,0,0,0,-1,1658,1793,0,0
441,-769,0,0,0,0,0,0,0,0,0,-1,1665,1793,0,0
448,-769,0,0,0,0,0,0,0,0,0,-1,1672,1793,0,0
455,-769,0,0,0,0,0,0,0,0,0,-1,1679,1793,0,0
462,-769,0,0,0,0,0,0,0,0,0,-1,1686,1793,0,0
469,-769,0,0,0,0,0,0,0,0,0,-1,1693,1793,0,0
476,-769,0,0,0,0,0,0,0,0,0,-1,1700,1793,0,0
483,-769,0,0,0,0,0,0,0,0,0,-1,1707,1793,0,0
490,-769,0,0,0,0,0,0,0,0,0,-1,1714,1793,0,0
497,-769,0,0,0,0,0,0,0,0,0,-1,1721,1793,0,0
504,-769,0,0,0,0,0,0,0,0,0,-1,1728,1793,0,0
511,-769,0,0,0,0,0,0,0,0,0,-1,1735,1793,0,0
518,-769,0,0,0,0,0,0,0,0,0,-1,1742,1793,0,0
525,-769,0,0,0,0,0,0,0,0,0,-1,1749,1793,0,0
532,-769,0,0,0,0,0,0,0,0,0,-1,1756,1793,0,0
539,-769,0,0,0,0,0,0,0,0,0,-1,1763,1793,0,0
546,-769,0,0,0,0,0,0,0,0,0,-1,1770,1793,0,0
553,-769,0,0,0,0,0,0,0,0,0,-1,1777,1793,0,0
560,-769,0,0,0,0,0,0,0,0,0,-1,1784,1793,0,0
567,-769,0,0,0,0,0,0,0,0,0,-1,1791,1793,0,0
574,-769,0,0,0,0,0,0,0,0,0,-1,1798,1793,0,0
581,-769,0,0,0,0,0,0,0,0,0,-1,1805,1793,0,0
588,-769,0,0,0,0,0,0,0,0,0,-1,1812,1793,0,0
595,-769,0,0,0,0,0,0,0,0,0,-1,1819,1793,0,0
602,-769,0,0,0,0,0,0,0,0,0,-1,1826,1793,0,0
609,-769,0,0,0,0,0,0,0,0,0,-1,1833,1793,0,0
616,-769,0,0,0,0,0,0,0,0,0,-1,1840,1793,0,0
623,-769,0,0,0,0,0,0,0,0,0,-1,1847,1793,0,0
630,-769,0,0,0,0,0,0,0,0,0,-1,1854,1793,0,0
637,-769,0,0,0,0,0,0,0,0,0,-1,1861,1793,0,0
644,-769,0,0,0,0,0,0,0,0,0,-1,1868,1793,0,0
651,-769,0,0,0,0,0,0,0,0,0,-1,1875,1793,0,0
658,-769,0,0,0,0,0,0,0,0,0,-1,1882,1793,0,0
665,-769,0,0,0,0,0,0,0,0,0,-1,1889,1793,0,0
672,-769,0,0,0,0,0,0,0,0,0,-1,1896,1793,0,0
679,-769,0,0,0,0,0,0,0,0,0,-1,1903,1793,0,0
686,-769,0,0,0,0,0,0,0,0,0,-1,1910,1793,0,0
693,-769,0,0,0,0,0,0,0,0,0,-1,1917,1793,0,0
700,-769,0,0,0,0,0,0,0,0,0,-1,1924,1793,0,0
707,-769,0,0,0,0,0,0,0,0,0,-1,1931,1793,0,0
714,-769,0,0,0,0,0,0,0,0,0,-1,1938,1793,0,0
721,-769,0,0,0,0,0,0,0,0,0,-1,1945,1793,0,0
728,-769,0,0,0,0,0,0,0,0,0,-1,1952,1793,0,0
735,-769,0,0,0,0,0,0,0,0,0,-1,1959,1793,0,0
742,-769,0,0,0,0,0,0,0,0,0,-1,1966,1793,0,0
749,-769,0,0,0,0,0,0,0,0,0,-1,1973,1793,0,0
756,-769,0,0,0,0,0,0,0,0,0,-1,1980,1793,0,0
763,-769,0,0,0,0,0,0,0,0,0,-1,1987,1793,0,0
770,-769,0,0,0,0,0,0,0,0,0,-1,1994,1793,0,0
777,-769,0,0,0,0,0,0,0,0,0,-1,2001,1793,0,0
784,-769,0,0,0,0,0,0,0,0,0,-1,2008,1793,0,0
791,-769,0,0,0,0,0,0,0,0,0,-1,2015,1793,0,0
798,-769,0,0,0,0,0,0,0,0,0,-1,2022,1793,0,0
805,-769,0,0,0,0,0,0,0,0,0,-1,2029,1793,0,0
812,-769,0,0,0,0,0,0,0,0,0,-1,2036,1793,0,0
-700,-776,0,0,0,0,0,0,0,0,0,-1,524,1800,0,0
-693,-776,0,0,0,0,0,0,0,0,0,-1,531,1800,0,0
-686,-776,0,0,0,0,0,0,0,0,0,-1,538,1800,0,0
-679,-776,0,0,0,0,0,0,0,0,0,-1,545,1800,0,0
-672,-776,0,0,0,0,0,0,0,0,0,-1,552,1800,0,0
-665,-776,0,0,0,0,0,0,0,0,0,-1,559,1800,0,0
-658,-776,0,0,0,0,0,0,0,0,0,-1,566,1800,0,0
-651,-776,0,0,0,0,0,0,0,0,0,-1,573,1800,0,0
-644,-776,0,0,0,0,0,0,0,0,0,-1,580,1800,0,0
-637,-776,0,0,0,0,0,0,0,0,0,-1,587,1800,0,0
-630,-776,0,0,0,0,0,0,0,0,0,-1,594,1800,0,0
-623,-776,0,0,0,0,0,0,0,0,0,-1,601,1800,0,0
-616,-776,0,0,0,0,0,0,0,0,0,-1,608,1800,0,0
-609,-776,0,0,0,0,0,0,0,0,0,-1,615,1800,0,0
-602,-776,0,0,0,0,0,0,0,0,0,-1,622,1800,0,0
-595,-776,0,0,0,0,0,0,0,0,0,-1,629,1800,0,0
-588,-776,0,0,0,0,0,0,0,0,0,-1,636,1800,0,0
-581,-776,0,0,0,0,0,0,0,0,0,-1,643,1800,0,0
-574,-776,0,0,0,0,0,0,0,0,0,-1,650,1800,0,0
-567,-776,0,0,0,0,0,0,0,0,0,-1,657,1800,0,0
-560,-776,0,0,0,0,0,0,0,0,0,-1,664,1800,0,0
-553,-776,0,0,0,0,0,0,0,0,0,-1,671,1800,0,0
-546,-776,0,0,0,0,0,0,0,0,0,-1,678,1800,0,0
-539,-776,0,0,0,0,0,0,0,0,0,-1,685,1800,0,0
-532,-776,0,0,0,0,0,0,0,0,0,-1,692,1800,0,0
-525,-776,0,0,0,0,0,0,0,0,0,-1,699,1800,0,0
-518,-776,0,0,0,0,0,0,0,0,0,-1,706,1800,0,0
-511,-776,0,0,0,0,0,0,0,0,0,-1,713,1800,0,0
-504,-776,0,0,0,0,0,0,0,0,0,-1,720,1800,0,0
-497,-776,0,0,0,0,0,0,0,0,0,-1,727,1800,0,0
-490,-776,0,0,0,0,0,0,0,0,0,-1,734,1800,0,0
-483,-776,0,0,0,0,0,0,0,0,0,-1,741,1800,0,0
-476,-776,0,0,0,0,0,0,0,0,0,-1,748,1800,0,0
-469,-776,0,0,0,0,0,0,0,0,0,-1,755,1800,0,0
-462,-776,0,0,0,0,0,0,0,0,0,-1,762,1800,0,0
-455,-776,0,0,0,0,0,0,0,0,0,-1,769,1800,0,0
-448,-776,0,0,0,0,0,0,0,0,0,-1,776,1800,0,0
-441,-776,0,0,0,0,0,0,0,0,0,-1,783,1800,0,0
-434,-776,0,0,0,0,0,0,0,0,0,-1,790,1800,0,0
-427,-776,0,0,0,0,0,0,0,0,0,-1,797,1800,0,0
-420,-776,0,0,0,0,0,0,0,0,0,-1,804,1800,0,0
-413,-776,0,0,0,0,0,0,0,0,0,-1,811,1800,0,0
-406,-776,0,0,0,0,0,0,0,0,0,-1,818,1800,0,0
-399,-776,0,0,0,0,0,0,0,0,0,-1,825,1800,0,0
-392,-776,0,0,0,0,0,0,0,0,0,-1,832,1800,0,0
-385,-776,0,0,0,0,0,0,0,0,0,-1,839,1800,0,0
-378,-776,0,0,0,0,0,0,0,0,0,-1,846,1800,0,0
-371,-776,0,0,0,0,0,0,0,0,0,-1,853,1800,0,0
-364,-776,0,0,0,0,0,0,0,0,0,-1,860,1800,0,0
-357,-776,0,0,0,0,0,0,0,0,0,-1,867,1800,0,0
-350,-776,0,0,0,0,0,0,0,0,0,-1,874,1800,0,0
-343,-776,0,0,0,0,0,0,0,0,0,-1,881,1800,0,0
-336,-776,0,0,0,0,0,0,0,0,0,-1,888,1800,0,0
-329,-776,0,0,0,0,0,0,0,0,0,-1,895,1800,0,0
-322,-776,0,0,0,0,0,0,0,0,0,-1,902,1800,0,0
-315,-776,0,0,0,0,0,0,0,0,0,-1,909,1800,0,0
-308,-776,0,0,0,0,0,0,0,0,0,-1,916,1800,0,0
-301,-776,0,0,0,0,0,0,0,0,0,-1,923,1800,0,0
-294,-776,0,0,0,0,0,0,0,0,0,-1,930,1800,0,0
-287,-776,0,0,0,0,0,0,0,0,0,-1,937,1800,0,0
-280,-776,0,0,0,0,0,0,0,0,0,-1,944,1800,0,0
-273,-776,0,0,0,0,0,0,0,0,0,-1,951,1800,0,0
-266,-776,0,0,0,0,0,0,0,0,0,-1,958,1800,0,0
-259,-776,0,0,0,0,0,0,0,0,0,-1,965,1800,0,0
-252,-776,0,0,0,0,0,0,0,0,0,-1,972,1800,0,0
-245,-776,0,0,0,0,0,0,0,0,0,-1,979,1800,0,0
-238,-776,0,0,0,0,0,0,0,0,0,-1,986,1800,0,0
-231,-776,0,0,0,0,0,0,0,0,0,-1,993,1800,0,0
-224,-776,0,0,0,0,0,0,0,0,0,-1,1000,1800,0,0
-217,-776,0,0,0,0,0,0,0,0,0,-1,1007,1800,0,0
-210,-776,0,0,0,0,0,0,0,0,0,-1,1014,1800,0,0
-203,-776,0,0,0,0,0,0,0,0,0,-1,1021,1800,0,0
-196,-776,0,0,0,0,0,0,0,0,0,-1,1028,1800,0,0
-189,-776,0,0,0,0,0,0,0,0,0,-1,1035,1800,0,0
-182,-776,0,0,0,0,0,0,0,0,0,-1,1042,1800,0,0
-175,-776,0,0,0,0,0,0,0,0,0,-1,1049,1800,0,0
-168,-776,0,0,0,0,0,0,0,0,0,-1,1056,1800,0,0
-161,-776,0,0,0,0,0,0,0,0,0,-1,1063,1800,0,0
-154,-776,0,0,0,0,0,0,0,0,0,-1,1070,1800,0,0
-147,-776,0,0,0,0,0,0,0,0,0,-1,1077,1800,0,0
-140,-776,2.98499,5.20911,0,0,0,0,0,0,0,-1,1084,1800,2.98493,-5.2091
-133,-776,6.72363,9.35828,0,0,0,0,0,0,0,-1,1091,1800,6.72358,-9.35824
-126,-776,6.55029,13.7832,0,0,0,0,0,0,0,-1,1098,1800,6.55029,-13.7832
-119,-776,5.72107,13.7787,0,0,0,0,0,0,0,-1,1105,1800,5.72106,-13.7787
-112,-776,6.84998,20.4421,0,0,0,0,0,0,0,-1,1112,1800,6.84993,-20.4421
-105,-776,2.15039,19.7095,0,0,0,0,0,0,0,-1,1119,1800,2.1504,-19.7095
-98,-776,5.25793,18.6969,0,0,0,0,0,0,0,-1,1126,1800,5.25788,-18.6969
-91,-776,4.09448,17.8494,0,0,0,0,0,0,0,-1,1133,1800,4.09446,-17.8494
-84,-776,2.95251,13.1073,0,0,0,0,0,0,0,-1,1140,1800,2.95251,-13.1073
-77,-776,0.580078,11.1272,0,0,0,0,0,0,0,-1,1147,1800,0.58002,-11.1272
-70,-776,-0.562866,12.3163,0,0,0,0,0,0,0,-1,1154,1800,-0.562897,-12.3163
-63,-776,-3.96106,9.97656,0,0,0,0,0,0,0,-1,1161,1800,-3.961,-9.97654
-56,-776,-7.35913,7.63672,0,0,0,0,0,0,0,-1,1168,1800,-7.3591,-7.63676
-49,-776,-7.62952,3.1908,0,0,0,0,0,0,0,-1,1175,1800,-7.62955,-3.19076
-42,-776,-3.41272,3.0249,0,0,0,0,0,0,0,-1,1182,1800,-3.41269,-3.02488
-35,-776,-3.71753,1.63635,0,0,0,0,0,0,0,-1,1189,1800,-3.71755,-1.63631
-28,-776,-4.03979,0.716064,0,0,0,0,0,0,0,-1,1196,1800,-4.03977,-0.716055
-21,-776,2.72485,17.3027,0,0,0,0,0,0,0,-1,1203,1800,2.72485,-17.3027
-14,-776,5.43896,18.7987,0,0,0,0,0,0,0,-1,1210,1800,5.43901,-18.7987
-7,-776,8.04688,21.7588,0,0,0,0,0,0,0,-1,1217,1800,8.04686,-21.7588
0,-776,7.22058,21.9288,0,0,0,0,0,0,0,-1,1224,1800,7.2206,-21.9288
7,-776,5.76343,22.134,0,0,0,0,0,0,0,-1,1231,1800,5.76343,-22.134
14,-776,5.94727,22.6331,0,0,0,0,0,0,0,-1,1238,1800,5.94725,-22.633
21,-776,5.80945,22.812,0,0,0,0,0,0,0,-1,1245,1800,5.80945,-22.812
28,-776,4.96313,21.1714,0,0,0,0,0,0,0,-1,1252,1800,4.96308,-21.1713
35,-776,5.17151,22.2351,0,0,0,0,0,0,0,-1,1259,1800,5.17145,-22.2351
42,-776,5.5033,22.7528,-0.0345663,-0.0093634,0.0381153,0.0181795,-0.0621092,0.945049,0.0486126,0.0459726,1266,1800,5.50324,-22.7528
49,-776,5.74304,22.4645,-0.0328506,-0.00781744,0.0397718,0.0213608,-0.0620289,0.937847,0.0500172,0.0454903,1273,1800,5.74304,-22.4644
56,-776,5.56018,21.8168,-0.0312811,-0.00717592,0.0404314,0.0229611,-0.0614181,0.930254,0.0503747,0.0427122,1280,1800,5.56013,-21.8168
63,-776,5.62402,21.8995,-0.0294326,-0.0080506,0.0397823,0.0224522,-0.0599354,0.916665,0.0491801,0.0437333,1287,1800,5.62405,-21.8996
70,-776,6.21436,22.3633,-0.0271656,-0.00960538,0.0378998,0.020518,-0.057289,0.899223,0.0465641,0.0468701,1294,1800,6.21438,-22.3633
77,-776,6.75635,22.8683,0,0,0,0,0,0,0,-1,1301,1800,6.75632,-22.8683
84,-776,5.52881,22.3761,0,0,0,0,0,0,0,-1,1308,1800,5.5288,-22.3761
91,-776,5.72473,22.6113,0,0,0,0,0,0,0,-1,1315,1800,5.72473,-22.6114
98,-776,5.4552,22.292,0,0,0,0,0,0,0,-1,1322,1800,5.45514,-22.292
105,-776,4.82458,22.3711,-0.00595802,-0.0316143,0.0213797,0.00614684,-0.0437192,0.515183,0.0313963,0.0454185,1329,1800,4.82456,-22.3711
112,-776,4.32544,22.5417,0.00201285,-0.0380681,0.0184029,0.00918057,-0.0452358,0.371413,0.0336376,0.0449671,1336,1800,4.32548,-22.5418
119,-776,3.79187,22.2831,0.0102663,-0.044988,0.0154526,0.0142942,-0.0490159,0.254988,0.0383407,0.0428274,1343,1800,3.79189,-22.2831
126,-776,2.91516,22.0009,0,0,0,0,0,0,0,-1,1350,1800,2.91511,-22.0009
133,-776,2.20959,21.3265,0,0,0,0,0,0,0,-1,1357,1800,2.20963,-21.3265
140,-776,1.47473,20.4486,0,0,0,0,0,0,0,-1,1364,1800,1.47468,-20.4486
147,-776,0.692017,19.6906,0,0,0,0,0,0,0,-1,1371,1800,0.69197,-19.6906
154,-776,6.43774,0.344116,0,0,0,0,0,0,0,-1,1378,1800,6.43776,-0.344162
161,-776,6.50293,1.1731,0,0,0,0,0,0,0,-1,1385,1800,6.5029,-1.17313
168,-776,8.44971,1.22913,0,0,0,0,0,0,0,-1,1392,1800,8.44974,-1.22915
175,-776,8.61523,2.87061,0,0,0,0,0,0,0,-1,1399,1800,8.6152,-2.87063
182,-776,8.54065,4.60645,0,0,0,0,0,0,0,-1,1406,1800,8.5407,-4.60643
189,-776,8.35303,6.28223,0,0,0,0,0,0,0,-1,1413,1800,8.35297,-6.28225
196,-776,8.0387,8.21704,0,0,0,0,0,0,0,-1,1420,1800,8.03865,-8.217
203,-776,7.91736,9.79919,0,0,0,0,0,0,0,-1,1427,1800,7.91735,-9.79922
210,-776,20.2479,7.85718,0,0,0,0,0,0,0,-1,1434,1800,20.248,-7.85719
217,-776,21.5171,9.3418,0,0,0,0,0,0,0,-1,1441,1800,21.5171,-9.34182
224,-776,3.09253,14.9313,0,0,0,0,0,0,0,-1,1448,1800,3.09254,-14.9313
231,-776,20.8671,9.21057,0,0,0,0,0,0,0,-1,1455,1800,20.867,-9.21054
238,-776,20.7511,9.05847,0,0,0,0,0,0,0,-1,1462,1800,20.7511,-9.05848
245,-776,3.80823,15.4108,0,0,0,0,0,0,0,-1,1469,1800,3.80826,-15.4108
252,-776,16.6313,6.47168,0,0,0,0,0,0,0,-1,1476,1800,16.6313,-6.47165
259,-776,14.1882,7.69055,0,0,0,0,0,0,0,-1,1483,1800,14.1882,-7.69061
266,-776,0,0,0,0,0,0,0,0,0,-1,1490,1800,0,0
273,-776,0,0,0,0,0,0,0,0,0,-1,1497,1800,0,0
280,-776,0,0,0,0,0,0,0,0,0,-1,1504,1800,0,0
287,-776,0,0,0,0,0,0,0,0,0,-1,1511,1800,0,0
294,-776,0,0,0,0,0,0,0,0,0,-1,1518,1800,0,0
301,-776,0,0,0,0,0,0,0,0,0,-1,1525,1800,0,0
308,-776,0,0,0,0,0,0,0,0,0,-1,1532,1800,0,0
315,-776,0,0,0,0,0,0,0,0,0,-1,1539,1800,0,0
322,-776,0,0,0,0,0,0,0,0,0,-1,1546,1800,0,0
329,-776,0,0,0,0,0,0,0,0,0,-1,1553,1800,0,0
336,-776,0,0,0,0,0,0,0,0,0,-1,1560,1800,0,0
343,-776,0,0,0,0,0,0,0,0,0,-1,1567,1800,0,0
350,-776,0,0,0,0,0,0,0,0,0,-1,1574,1800,0,0
357,-776,0,0,0,0,0,0,0,0,0,-1,1581,1800,0,0
364,-776,0,0,0,0,0,0,0,0,0,-1,1588,1800,0,0
371,-776,0,0,0,0,0,0,0,0,0,-1,1595,1800,0,0
378,-776,0,0,0,0,0,0,0,0,0,-1,1602,1800,0,0
385,-776,0,0,0,0,0,0,0,0,0,-1,1609,1800,0,0
392,-776,0,0,0,0,0,0,0,0,0,-1,1616,1800,0,0
399,-776,0,0,0,0,0,0,0,0,0,-1,1623,1800,0,0
406,-776,0,0,0,0,0,0,0,0,0,-1,1630,1800,0,0
413,-776,0,0,0,0,0,0,0,0,0,-1,1637,1800,0,0
420,-776,0,0,0,0,0,0,0,0,0,-1,1644,1800,0,0
427,-776,0,0,0,0,0,0,0,0,0,-1,1651,1800,0,0
434,-776,0,0,0,0,0,0,0,0,0,-1,1658,1800,0,0
441,-776,0,0,0,0,0,0,0,0,0,-1,1665,1800,0,0
448,-776,0,0,0,0,0,0,0,0,0,-1,1672,1800,0,0
455,-776,0,0,0,0,0,0,0,0,0,-1,1679,1800,0,0
462,-776,0,0,0,0,0,0,0,0,0,-1,1686,1800,0,0
469,-776,0,0,0,0,0,0,0,0,0,-1,1693,1800,0,0
476,-776,0,0,0,0,0,0,0,0,0,-1,1700,1800,0,0
483,-776,0,0,0,0,0,0,0,0,0,-1,1707,1800,0,0
490,-776,0,0,0,0,0,0,0,0,0,-1,1714,1800,0,0
497,-776,0,0,0,0,0,0,0,0,0,-1,1721,1800,0,0
504,-776,0,0,0,0,0,0,0,0,0,-1,1728,1800,0,0
511,-776,0,0,0,0,0,0,0,0,0,-1,1735,1800,0,0
518,-776,0,0,0,0,0,0,0,0,0,-1,1742,1800,0,0
525,-776,0,0,0,0,0,0,0,0,0,-1,1749,1800,0,0
532,-776,0,0,0,0,0,0,0,0,0,-1,1756,1800,0,0
539,-776,0,0,0,0,0,0,0,0,0,-1,1763,1800,0,0
546,-776,0,0,0,0,0,0,0,0,0,-1,1770,1800,0,0
553,-776,0,0,0,0,0,0,0,0,0,-1,1777,1800,0,0
560,-776,0,0,0,0,0,0,0,0,0,-1,1784,1800,0,0
567,-776,0,0,0,0,0,0,0,0,0,-1,1791,1800,0,0
574,-776,0,0,0,0,0,0,0,0,0,-1,1798,1800,0,0
581,-776,0,0,0,0,0,0,0,0,0,-1,1805,1800,0,0
588,-776,0,0,0,0,0,0,0,0,0,-1,1812,1800,0,0
595,-776,0,0,0,0,0,0,0,0,0,-1,1819,1800,0,0
602,-776,0,0,0,0,0,0,0,0,0,-1,1826,1800,0,0
609,-776,0,0,0,0,0,0,0,0,0,-1,1833,1800,0,0
616,-776,0,0,0,0,0,0,0,0,0,-1,1840,1800,0,0
623,-776,0,0,0,0,0,0,0,0,0,-1,1847,1800,0,0
630,-776,0,0,0,0,0,0,0,0,0,-1,1854,1800,0,0
637,-776,0,0,0,0,0,0,0,0,0,-1,1861,1800,0,0
644,-776,0,0,0,0,0,0,0,0,0,-1,1868,1800,0,0
651,-776,0,0,0,0,0,0,0,0,0,-1,1875,1800,0,0
658,-776,0,0,0,0,0,0,0,0,0,-1,1882,1800,0,0
665,-776,0,0,0,0,0,0,0,0,0,-1,1889,1800,0,0
672,-776,0,0,0,0,0,0,0,0,0,-1,1896,1800,0,0
679,-776,0,0,0,0,0,0,0,0,0,-1,1903,1800,0,0
686,-776,0,0,0,0,0,0,0,0,0,-1,1910,1800,0,0
693,-776,0,0,0,0,0,0,0,0,0,-1,1917,1800,0,0
700,-776,0,0,0,0,0,0,0,0,0,-1,1924,1800,0,0
707,-776,0,0,0,0,0,0,0,0,0,-1,1931,1800,0,0
714,-776,0,0,0,0,0,0,0,0,0,-1,1938,1800,0,0
721,-776,0,0,0,0,0,0,0,0,0,-1,1945,1800,0,0
728,-776,0,0,0,0,0,0,0,0,0,-1,1952,1800,0,0
735,-776,0,0,0,0,0,0,0,0,0,-1,1959,1800,0,0
742,-776,0,0,0,0,0,0,0,0,0,-1,1966,1800,0,0
749,-776,0,0,0,0,0,0,0,0,0,-1,1973,1800,0,0
756,-776,0,0,0,0,0,0,0,0,0,-1,1980,1800,0,0
763,-776,0,0,0,0,0,0,0,0,0,-1,1987,1800,0,0
770,-776,0,0,0,0,0,0,0,0,0,-1,1994,1800,0,0
777,-776,0,0,0,0,0,0,0,0,0,-1,2001,1800,0,0
784,-776,0,0,0,0,0,0,0,0,0,-1,2008,1800,0,0
791,-776,0,0,0,0,0,0,0,0,0,-1,2015,1800,0,0
798,-776,0,0,0,0,0,0,0,0,0,-1,2022,1800,0,0
805,-776,0,0,0,0,0,0,0,0,0,-1,2029,1800,0,0
812,-776,0,0,0,0,0,0,0,0,0,-1,2036,1800,0,0
-700,-783,0,0,0,0,0,0,0,0,0,-1,524,1807,0,0
-693,-783,0,0,0,0,0,0,0,0,0,-1,531,1807,0,0
-686,-783,0,0,0,0,0,0,0,0,0,-1,538,1807,0,0
-679,-783,0,0,0,0,0,0,0,0,0,-1,545,1807,0,0
-672,-783,0,0,0,0,0,0,0,0,0,-1,552,1807,0,0
-665,-783,0,0,0,0,0,0,0,0,0,-1,559,1807,0,0
-658,-783,0,0,0,0,0,0,0,0,0,-1,566,1807,0,0
-651,-783,0,0,0,0,0,0,0,0,0,-1,573,1807,0,0
-644,-783,0,0,0,0,0,0,0,0,0,-1,580,1807,0,0
-637,-783,0,0,0,0,0,0,0,0,0,-1,587,1807,0,0
-630,-783,0,0,0,0,0,0,0,0,0,-1,594,1807,0,0
-623,-783,0,0,0,0,0,0,0,0,0,-1,601,1807,0,0
-616,-783,0,0,0,0,0,0,0,0,0,-1,608,1807,0,0
-609,-783,0,0,0,0,0,0,0,0,0,-1,615,1807,0,0
-602,-783,0,0,0,0,0,0,0,0,0,-1,622,1807,0,0
-595,-783,0,0,0,0,0,0,0,0,0,-1,629,1807,0,0
-588,-783,0,0,0,0,0,0,0,0,0,-1,636,1807,0,0
-581,-783,0,0,0,0,0,0,0,0,0,-1,643,1807,0,0
-574,-783,0,0,0,0,0,0,0,0,0,-1,650,1807,0,0
-567,-783,0,0,0,0,0,0,0,0,0,-1,657,1807,0,0
-560,-783,0,0,0,0,0,0,0,0,0,-1,664,1807,0,0
-553,-783,0,0,0,0,0,0,0,0,0,-1,671,1807,0,0
-546,-783,0,0,0,0,0,0,0,0,0,-1,678,1807,0,0
-539,-783,0,0,0,0,0,0,0,0,0,-1,685,1807,0,0
-532,-783,0,0,0,0,0,0,0,0,0,-1,692,1807,0,0
-525,-783,0,0,0,0,0,0,0,0,0,-1,699,1807,0,0
-518,-783,0,0,0,0,0,0,0,0,0,-1,706,1807,0,0
-511,-783,0,0,0,0,0,0,0,0,0,-1,713,1807,0,0
-504,-783,0,0,0,0,0,0,0,0,0,-1,720,1807,0,0
-497,-783,0,0,0,0,0,0,0,0,0,-1,727,1807,0,0
-490,-783,0,0,0,0,0,0,0,0,0,-1,734,1807,0,0
-483,-783,0,0,0,0,0,0,0,0,0,-1,741,1807,0,0
-476,-783,0,0,0,0,0,0,0,0,0,-1,748,1807,0,0
-469,-783,0,0,0,0,0,0,0,0,0,-1,755,1807,0,0
-462,-783,0,0,0,0,0,0,0,0,0,-1,762,1807,0,0
-455,-783,0,0,0,0,0,0,0,0,0,-1,769,1807,0,0
-448,-783,0,0,0,0,0,0,0,0,0,-1,776,1807,0,0
-441,-783,0,0,0,0,0,0,0,0,0,-1,783,1807,0,0
-434,-783,0,0,0,0,0,0,0,0,0,-1,790,1807,0,0
-427,-783,0,0,0,0,0,0,0,0,0,-1,797,1807,0,0
-420,-783,0,0,0,0,0,0,0,0,0,-1,804,1807,0,0
-413,-783,0,0,0,0,0,0,0,0,0,-1,811,1807,0,0
-406,-783,0,0,0,0,0,0,0,0,0,-1,818,1807,0,0
-399,-783,0,0,0,0,0,0,0,0,0,-1,825,1807,0,0
-392,-783,0,0,0,0,0,0,0,0,0,-1,832,1807,0,0
-385,-783,0,0,0,0,0,0,0,0,0,-1,839,1807,0,0
-378,-783,0,0,0,0,0,0,0,0,0,-1,846,1807,0,0
-371,-783,0,0,0,0,0,0,0,0,0,-1,853,1807,0,0
-364,-783,0,0,0,0,0,0,0,0,0,-1,860,1807,0,0
-357,-783,0,0,0,0,0,0,0,0,0,-1,867,1807,0,0
-350,-783,0,0,0,0,0,0,0,0,0,-1,874,1807,0,0
-343,-783,0,0,0,0,0,0,0,0,0,-1,881,1807,0,0
-336,-783,0,0,0,0,0,0,0,0,0,-1,888,1807,0,0
-329,-783,0,0,0,0,0,0,0,0,0,-1,895,1807,0,0
-322,-783,0,0,0,0,0,0,0,0,0,-1,902,1807,0,0
-315,-783,0,0,0,0,0,0,0,0,0,-1,909,1807,0,0
-308,-783,0,0,0,0,0,0,0,0,0,-1,916,1807,0,0
-301,-783,0,0,0,0,0,0,0,0,0,-1,923,1807,0,0
-294,-783,0,0,0,0,0,0,0,0,0,-1,930,1807,0,0
-287,-783,0,0,0,0,0,0,0,0,0,-1,937,1807,0,0
-280,-783,0,0,0,0,0,0,0,0,0,-1,944,1807,0,0
-273,-783,0,0,0,0,0,0,0,0,0,-1,951,1807,0,0
-266,-783,0,0,0,0,0,0,0,0,0,-1,958,1807,0,0
-259,-783,0,0,0,0,0,0,0,0,0,-1,965,1807,0,0
-252,-783,0,0,0,0,0,0,0,0,0,-1,972,1807,0,0
-245,-783,0,0,0,0,0,0,0,0,0,-1,979,1807,0,0
-238,-783,0,0,0,0,0,0,0,0,0,-1,986,1807,0,0
-231,-783,0,0,0,0,0,0,0,0,0,-1,993,1807,0,0
-224,-783,0,0,0,0,0,0,0,0,0,-1,1000,1807,0,0
-217,-783,0,0,0,0,0,0,0,0,0,-1,1007,1807,0,0
-210,-783,0,0,0,0,0,0,0,0,0,-1,1014,1807,0,0
-203,-783,0,0,0,0,0,0,0,0,0,-1,1021,1807,0,0
-196,-783,0,0,0,0,0,0,0,0,0,-1,1028,1807,0,0
-189,-783,0,0,0,0,0,0,0,0,0,-1,1035,1807,0,0
-182,-783,0,0,0,0,0,0,0,0,0,-1,1042,1807,0,0
-175,-783,0,0,0,0,0,0,0,0,0,-1,1049,1807,0,0
-168,-783,0,0,0,0,0,0,0,0,0,-1,1056,1807,0,0
-161,-783,0,0,0,0,0,0,0,0,0,-1,1063,1807,0,0
-154,-783,0,0,0,0,0,0,0,0,0,-1,1070,1807,0,0
-147,-783,0,0,0,0,0,0,0,0,0,-1,1077,1807,0,0
-140,-783,0,0,0,0,0,0,0,0,0,-1,1084,1807,0,0
-133,-783,0,0,0,0,0,0,0,0,0,-1,1091,1807,0,0
-126,-783,0,0,0,0,0,0,0,0,0,-1,1098,1807,0,0
-119,-783,0,0,0,0,0,0,0,0,0,-1,1105,1807,0,0
-112,-783,5.33936,14.7699,0,0,0,0,0,0,0,-1,1112,1807,5.33931,-14.7699
-105,-783,6.44263,21.2224,0,0,0,0,0,0,0,-1,1119,1807,6.44263,-21.2224
-98,-783,5.54773,20.5695,0,0,0,0,0,0,0,-1,1126,1807,5.54772,-20.5695
-91,-783,2.78186,14.2633,0,0,0,0,0,0,0,-1,1133,1807,2.78186,-14.2633
-84,-783,-0.0491943,14.5743,0,0,0,0,0,0,0,-1,1140,1807,-0.0491562,-14.5743
-77,-783,0.332764,12.7788,0,0,0,0,0,0,0,-1,1147,1807,0.332743,-12.7788
-70,-783,-1.93176,5.12817,0,0,0,0,0,0,0,-1,1154,1807,-1.93171,-5.12813
-63,-783,-5.31702,10.54,0,0,0,0,0,0,0,-1,1161,1807,-5.31703,-10.54
-56,-783,-6.26135,6.9679,0,0,0,0,0,0,0,-1,1168,1807,-6.26136,-6.96785
-49,-783,-3.17688,4.59705,0,0,0,0,0,0,0,-1,1175,1807,-3.17685,-4.5971
-42,-783,-3.72876,3.1405,0,0,0,0,0,0,0,-1,1182,1807,-3.72874,-3.14055
-35,-783,-3.97046,1.59399,0,0,0,0,0,0,0,-1,1189,1807,-3.97041,-1.59401
-28,-783,-4.12195,0.270386,0,0,0,0,0,0,0,-1,1196,1807,-4.12197,-0.270408
-21,-783,5.05872,18.5853,0,0,0,0,0,0,0,-1,1203,1807,5.05867,-18.5853
-14,-783,8.98438,21.817,0,0,0,0,0,0,0,-1,1210,1807,8.98433,-21.817
-7,-783,8.26221,22.241,-0.0802642,-0.044364,0.000397842,-0.0443596,-0.0802686,1.55972,0.0464286,0.0484563,1217,1807,8.26225,-22.241
0,-783,7.4845,22.7472,-0.0781936,-0.0358905,0.00726341,-0.0346781,-0.0794059,1.40541,0.0459673,0.0465725,1224,1807,7.48445,-22.7472
7,-783,6.9364,22.9331,-0.0730021,-0.0285775,0.0149476,-0.0240163,-0.0775632,1.27463,0.0458503,0.0434474,1231,1807,6.9364,-22.9331
14,-783,6.04407,22.8807,-0.0675629,-0.0223517,0.0233957,-0.0124247,-0.0774899,1.16951,0.0480568,0.045222,1238,1807,6.04401,-22.8807
21,-783,5.1803,23.1124,-0.0620476,-0.0181837,0.030947,-0.00218511,-0.0780462,1.09367,0.0513179,0.0465296,1245,1807,5.18034,-23.1124
28,-783,3.98413,23.3486,0,0,0,0,0,0,0,-1,1252,1807,3.98417,-23.3487
35,-783,2.75342,23.4955,-0.052129,-0.011885,0.0424945,0.0150109,-0.0790249,1.00652,0.0583342,0.0449135,1259,1807,2.75344,-23.4955
42,-783,2.10339,25.1709,-0.0483103,-0.0101509,0.0465031,0.0210345,-0.0794956,0.98007,0.0612251,0.0426327,1266,1807,2.10337,-25.1709
49,-783,5.77869,21.738,-0.0460892,-0.00833558,0.0488976,0.0252024,-0.0796272,0.969609,0.0631838,0.0460904,1273,1807,5.77872,-21.7381
56,-783,5.5575,21.6246,-0.0439488,-0.00760293,0.0498513,0.0272846,-0.0788363,0.960184,0.063633,0.0445601,1280,1807,5.55751,-21.6246
63,-783,5.29907,21.4668,-0.0413242,-0.00869946,0.0490882,0.0267158,-0.0767394,0.945811,0.0620137,0.0467013,1287,1807,5.29911,-21.4668
70,-783,5.27637,21.3348,0,0,0,0,0,0,0,-1,1294,1807,5.27633,-21.3349
77,-783,-3.047,27.1527,-0.0333237,-0.0150756,0.0436858,0.0204288,-0.0688281,0.888346,0.0539989,0.0451543,1301,1807,-3.04694,-27.1528
84,-783,-3.67456,28.5562,-0.0276429,-0.020935,0.0390422,0.0148971,-0.063475,0.828246,0.0480583,0.0426212,1308,1807,-3.67458,-28.5561
91,-783,-3.75024,30.1959,0,0,0,0,0,0,0,-1,1315,1807,-3.75024,-30.1959
98,-783,-3.48425,31.7728,0,0,0,0,0,0,0,-1,1322,1807,-3.48422,-31.7729
105,-783,4.30652,22.4915,0,0,0,0,0,0,0,-1,1329,1807,4.30647,-22.4914
112,-783,3.36365,23.1644,0.00610795,-0.0493481,0.0229559,0.0143774,-0.0576175,0.34576,0.0439943,0.0448658,1336,1807,3.36368,-23.1645
119,-783,3.55432,22.6198,0.0178663,-0.0589473,0.0193919,0.0224842,-0.0635652,0.233783,0.0515333,0.0446491,1343,1807,3.55428,-22.6197
126,-783,1.82764,22.7185,0,0,0,0,0,0,0,-1,1350,1807,1.82763,-22.7185
133,-783,4.60925,21.2959,0,0,0,0,0,0,0,-1,1357,1807,4.60923,-21.2959
140,-783,0.687622,20.7561,0,0,0,0,0,0,0,-1,1364,1807,0.687569,-20.7562
147,-783,-0.104248,19.9227,0,0,0,0,0,0,0,-1,1371,1807,-0.104237,-19.9227
154,-783,6.37024,-0.145874,0,0,0,0,0,0,0,-1,1378,1807,6.37018,0.145866
161,-783,6.57568,1.16174,0,0,0,0,0,0,0,-1,1385,1807,6.57562,-1.1617
168,-783,8.62561,1.79944,0,0,0,0,0,0,0,-1,1392,1807,8.62561,-1.79946
175,-783,8.78699,3.40857,0,0,0,0,0,0,0,-1,1399,1807,8.78697,-3.40854
182,-783,8.70984,5.14661,0,0,0,0,0,0,0,-1,1406,1807,8.70989,-5.14666
189,-783,8.55762,6.79871,0,0,0,0,0,0,0,-1,1413,1807,8.55766,-6.79872
196,-783,8.25488,8.66626,0,0,0,0,0,0,0,-1,1420,1807,8.25492,-8.66628
203,-783,7.86755,10.5735,0,0,0,0,0,0,0,-1,1427,1807,7.8676,-10.5734
210,-783,5.6969,8.99231,0,0,0,0,0,0,0,-1,1434,1807,5.69693,-8.99234
217,-783,5.28503,3.80872,0,0,0,0,0,0,0,-1,1441,1807,5.285,-3.80868
224,-783,3.22571,6.62903,0,0,0,0,0,0,0,-1,1448,1807,3.2257,-6.62907
231,-783,4.27942,4.56262,0,0,0,0,0,0,0,-1,1455,1807,4.27948,-4.56267
238,-783,0,0,0,0,0,0,0,0,0,-1,1462,1807,0,0
245,-783,0,0,0,0,0,0,0,0,0,-1,1469,1807,0,0
252,-783,0,0,0,0,0,0,0,0,0,-1,1476,1807,0,0
259,-783,0,0,0,0,0,0,0,0,0,-1,1483,1807,0,0
266,-783,0,0,0,0,0,0,0,0,0,-1,1490,1807,0,0
273,-783,0,0,0,0,0,0,0,0,0,-1,1497,1807,0,0
280,-783,0,0,0,0,0,0,0,0,0,-1,1504,1807,0,0
287,-783,0,0,0,0,0,0,0,0,0,-1,1511,1807,0,0
294,-783,0,0,0,0,0,0,0,0,0,-1,1518,1807,0,0
301,-783,0,0,0,0,0,0,0,0,0,-1,1525,1807,0,0
308,-783,0,0,0,0,0,0,0,0,0,-1,1532,1807,0,0
315,-783,0,0,0,0,0,0,0,0,0,-1,1539,1807,0,0
322,-783,0,0,0,0,0,0,0,0,0,-1,1546,1807,0,0
329,-783,0,0,0,0,0,0,0,0,0,-1,1553,1807,0,0
336,-783,0,0,0,0,0,0,0,0,0,-1,1560,1807,0,0
343,-783,0,0,0,0,0,0,0,0,0,-1,1567,1807,0,0
350,-783,0,0,0,0,0,0,0,0,0,-1,1574,1807,0,0
357,-783,0,0,0,0,0,0,0,0,0,-1,1581,1807,0,0
364,-783,0,0,0,0,0,0,0,0,0,-1,1588,1807,0,0
371,-783,0,0,0,0,0,0,0,0,0,-1,1595,1807,0,0
378,-783,0,0,0,0,0,0,0,0,0,-1,1602,1807,0,0
385,-783,0,0,0,0,0,0,0,0,0,-1,1609,1807,0,0
392,-783,0,0,0,0,0,0,0,0,0,-1,1616,1807,0,0
399,-783,0,0,0,0,0,0,0,0,0,-1,1623,1807,0,0
406,-783,0,0,0,0,0,0,0,0,0,-1,1630,1807,0,0
413,-783,0,0,0,0,0,0,0,0,0,-1,1637,1807,0,0
420,-783,0,0,0,0,0,0,0,0,0,-1,1644,1807,0,0
427,-783,0,0,0,0,0,0,0,0,0,-1,1651,1807,0,0
434,-783,0,0,0,0,0,0,0,0,0,-1,1658,1807,0,0
441,-783,0,0,0,0,0,0,0,0,0,-1,1665,1807,0,0
448,-783,0,0,0,0,0,0,0,0,0,-1,1672,1807,0,0
455,-783,0,0,0,0,0,0,0,0,0,-1,1679,1807,0,0
462,-783,0,0,0,0,0,0,0,0,0,-1,1686,1807,0,0
469,-783,0,0,0,0,0,0,0,0,0,-1,1693,1807,0,0
476,-783,0,0,0,0,0,0,0,0,0,-1,1700,1807,0,0
483,-783,0,0,0,0,0,0,0,0,0,-1,1707,1807,0,0
490,-783,0,0,0,0,0,0,0,0,0,-1,1714,1807,0,0
497,-783,0,0,0,0,0,0,0,0,0,-1,1721,1807,0,0
504,-783,0,0,0,0,0,0,0,0,0,-1,1728,1807,0,0
511,-783,0,0,0,0,0,0,0,0,0,-1,1735,1807,0,0
518,-783,0,0,0,0,0,0,0,0,0,-1,1742,1807,0,0
525,-783,0,0,0,0,0,0,0,0,0,-1,1749,1807,0,0
532,-783,0,0,0,0,0,0,0,0,0,-1,1756,1807,0,0
539,-783,0,0,0,0,0,0,0,0,0,-1,1763,1807,0,0
546,-783,0,0,0,0,0,0,0,0,0,-1,1770,1807,0,0
553,-783,0,0,0,0,0,0,0,0,0,-1,1777,1807,0,0
560,-783,0,0,0,0,0,0,0,0,0,-1,1784,1807,0,0
567,-783,0,0,0,0,0,0,0,0,0,-1,1791,1807,0,0
574,-783,0,0,0,0,0,0,0,0,0,-1,1798,1807,0,0
581,-783,0,0,0,0,0,0,0,0,0,-1,1805,1807,0,0
588,-783,0,0,0,0,0,0,0,0,0,-1,1812,1807,0,0
595,-783,0,0,0,0,0,0,0,0,0,-1,1819,1807,0,0
602,-783,0,0,0,0,0,0,0,0,0,-1,1826,1807,0,0
609,-783,0,0,0,0,0,0,0,0,0,-1,1833,1807,0,0
616,-783,0,0,0,0,0,0,0,0,0,-1,1840,1807,0,0
623,-783,0,0,0,0,0,0,0,0,0,-1,1847,1807,0,0
630,-783,0,0,0,0,0,0,0,0,0,-1,1854,1807,0,0
637,-783,0,0,0,0,0,0,0,0,0,-1,1861,1807,0,0
644,-783,0,0,0,0,0,0,0,0,0,-1,1868,1807,0,0
651,-783,0,0,0,0,0,0,0,0,0,-1,1875,1807,0,0
658,-783,0,0,0,0,0,0,0,0,0,-1,1882,1807,0,0
665,-783,0,0,0,0,0,0,0,0,0,-1,1889,1807,0,0
672,-783,0,0,0,0,0,0,0,0,0,-1,1896,1807,0,0
679,-783,0,0,0,0,0,0,0,0,0,-1,1903,1807,0,0
686,-783,0,0,0,0,0,0,0,0,0,-1,1910,1807,0,0
693,-783,0,0,0,0,0,0,0,0,0,-1,1917,1807,0,0
700,-783,0,0,0,0,0,0,0,0,0,-1,1924,1807,0,0
707,-783,0,0,0,0,0,0,0,0,0,-1,1931,1807,0,0
714,-783,0,0,0,0,0,0,0,0,0,-1,1938,1807,0,0
721,-783,0,0,0,0,0,0,0,0,0,-1,1945,1807,0,0
728,-783,0,0,0,0,0,0,0,0,0,-1,1952,1807,0,0
735,-783,0,0,0,0,0,0,0,0,0,-1,1959,1807,0,0
742,-783,0,0,0,0,0,0,0,0,0,-1,1966,1807,0,0
749,-783,0,0,0,0,0,0,0,0,0,-1,1973,1807,0,0
756,-783,0,0,0,0,0,0,0,0,0,-1,1980,1807,0,0
763,-783,0,0,0,0,0,0,0,0,0,-1,1987,1807,0,0
770,-783,0,0,0,0,0,0,0,0,0,-1,1994,1807,0,0
777,-783,0,0,0,0,0,0,0,0,0,-1,2001,1807,0,0
784,-783,0,0,0,0,0,0,0,0,0,-1,2008,1807,0,0
791,-783,0,0,0,0,0,0,0,0,0,-1,2015,1807,0,0
798,-783,0,0,0,0,0,0,0,0,0,-1,2022,1807,0,0
805,-783,0,0,0,0,0,0,0,0,0,-1,2029,1807,0,0
812,-783,0,0,0,0,0,0,0,0,0,-1,2036,1807,0,0
-700,-790,0,0,0,0,0,0,0,0,0,-1,524,1814,0,0
-693,-790,0,0,0,0,0,0,0,0,0,-1,531,1814,0,0
-686,-790,0,0,0,0,0,0,0,0,0,-1,538,1814,0,0
-679,-790,0,0,0,0,0,0,0,0,0,-1,545,1814,0,0
-672,-790,0,0,0,0,0,0,0,0,0,-1,552,1814,0,0
-665,-790,0,0,0,0,0,0,0,0,0,-1,559,1814,0,0
-658,-790,0,0,0,0,0,0,0,0,0,-1,566,1814,0,0
-651,-790,0,0,0,0,0,0,0,0,0,-1,573,1814,0,0
-644,-790,0,0,0,0,0,0,0,0,0,-1,580,1814,0,0
-637,-790,0,0,0,0,0,0,0,0,0,-1,587,1814,0,0
-630,-790,0,0,0,0,0,0,0,0,0,-1,594,1814,0,0
-623,-790,0,0,0,0,0,0,0,0,0,-1,601,1814,0,0
-616,-790,0,0,0,0,0,0,0,0,0,-1,608,1814,0,0
-609,-790,0,0,0,0,0,0,0,0,0,-1,615,1814,0,0
-602,-790,0,0,0,0,0,0,0,0,0,-1,622,1814,0,0
-595,-790,0,0,0,0,0,0,0,0,0,-1,629,1814,0,0
-588,-790,0,0,0,0,0,0,0,0,0,-1,636,1814,0,0
-581,-790,0,0,0,0,0,0,0,0,0,-1,643,1814,0,0
-574,-790,0,0,0,0,0,0,0,0,0,-1,650,1814,0,0
-567,-790,0,0,0,0,0,0,0,0,0,-1,657,1814,0,0
-560,-790,0,0,0,0,0,0,0,0,0,-1,664,1814,0,0
-553,-790,0,0,0,0,0,0,0,0,0,-1,671,1814,0,0
-546,-790,0,0,0,0,0,0,0,0,0,-1,678,1814,0,0
-539,-790,0,0,0,0,0,0,0,0,0,-1,685,1814,0,0
-532,-790,0,0,0,0,0,0,0,0,0,-1,692,1814,0,0
-525,-790,0,0,0,0,0,0,0,0,0,-1,699,1814,0,0
-518,-790,0,0,0,0,0,0,0,0,0,-1,706,1814,0,0
-511,-790,0,0,0,0,0,0,0,0,0,-1,713,1814,0,0
-504,-790,0,0,0,0,0,0,0,0,0,-1,720,1814,0,0
-497,-790,0,0,0,0,0,0,0,0,0,-1,727,1814,0,0
-490,-790,0,0,0,0,0,0,0,0,0,-1,734,1814,0,0
-483,-790,0,0,0,0,0,0,0,0,0,-1,741,1814,0,0
-476,-790,0,0,0,0,0,0,0,0,0,-1,748,1814,0,0
-469,-790,0,0,0,0,0,0,0,0,0,-1,755,1814,0,0
-462,-790,0,0,0,0,0,0,0,0,0,-1,762,1814,0,0
-455,-790,0,0,0,0,0,0,0,0,0,-1,769,1814,0,0
-448,-790,0,0,0,0,0,0,0,0,0,-1,776,1814,0,0
-441,-790,0,0,0,0,0,0,0,0,0,-1,783,1814,0,0
-434,-790,0,0,0,0,0,0,0,0,0,-1,790,1814,0,0
-427,-790,0,0,0,0,0,0,0,0,0,-1,797,1814,0,0
-420,-790,0,0,0,0,0,0,0,0,0,-1,804,1814,0,0
-413,-790,0,0,0,0,0,0,0,0,0,-1,811,1814,0,0
-406,-790,0,0,0,0,0,0,0,0,0,-1,818,1814,0,0
-399,-790,0,0,0,0,0,0,0,0,0,-1,825,1814,0,0
-392,-790,0,0,0,0,0,0,0,0,0,-1,832,1814,0,0
-385,-790,0,0,0,0,0,0,0,0,0,-1,839,1814,0,0
-378,-790,0,0,0,0,0,0,0,0,0,-1,846,1814,0,0
-371,-790,0,0,0,0,0,0,0,0,0,-1,853,1814,0,0
-364,-790,0,0,0,0,0,0,0,0,0,-1,860,1814,0,0
-357,-790,0,0,0,0,0,0,0,0,0,-1,867,1814,0,0
-350,-790,0,0,0,0,0,0,0,0,0,-1,874,1814,0,0
-343,-790,0,0,0,0,0,0,0,0,0,-1,881,1814,0,0
-336,-790,0,0,0,0,0,0,0,0,0,-1,888,1814,0,0
-329,-790,0,0,0,0,0,0,0,0,0,-1,895,1814,0,0
-322,-790,0,0,0,0,0,0,0,0,0,-1,902,1814,0,0
-315,-790,0,0,0,0,0,0,0,0,0,-1,909,1814,0,0
-308,-790,0,0,0,0,0,0,0,0,0,-1,916,1814,0,0
-301,-790,0,0,0,0,0,0,0,0,0,-1,923,1814,0,0
-294,-790,0,0,0,0,0,0,0,0,0,-1,930,1814,0,0
-287,-790,0,0,0,0,0,0,0,0,0,-1,937,1814,0,0
-280,-790,0,0,0,0,0,0,0,0,0,-1,944,1814,0,0
-273,-790,0,0,0,0,0,0,0,0,0,-1,951,1814,0,0
-266,-790,0,0,0,0,0,0,0,0,0,-1,958,1814,0,0
-259,-790,0,0,0,0,0,0,0,0,0,-1,965,1814,0,0
-252,-790,0,0,0,0,0,0,0,0,0,-1,972,1814,0,0
-245,-790,0,0,0,0,0,0,0,0,0,-1,979,1814,0,0
-238,-790,0,0,0,0,0,0,0,0,0,-1,986,1814,0,0
-231,-790,0,0,0,0,0,0,0,0,0,-1,993,1814,0,0
-224,-790,0,0,0,0,0,0,0,0,0,-1,1000,1814,0,0
-217,-790,0,0,0,0,0,0,0,0,0,-1,1007,1814,0,0
-210,-790,0,0,0,0,0,0,0,0,0,-1,1014,1814,0,0
-203,-790,0,0,0,0,0,0,0,0,0,-1,1021,1814,0,0
-196,-790,0,0,0,0,0,0,0,0,0,-1,1028,1814,0,0
-189,-790,0,0,0,0,0,0,0,0,0,-1,1035,1814,0,0
-182,-790,0,0,0,0,0,0,0,0,0,-1,1042,1814,0,0
-175,-790,0,0,0,0,0,0,0,0,0,-1,1049,1814,0,0
-168,-790,0,0,0,0,0,0,0,0,0,-1,1056,1814,0,0
-161,-790,0,0,0,0,0,0,0,0,0,-1,1063,1814,0,0
-154,-790,0,0,0,0,0,0,0,0,0,-1,1070,1814,0,0
-147,-790,0,0,0,0,0,0,0,0,0,-1,1077,1814,0,0
-140,-790,0,0,0,0,0,0,0,0,0,-1,1084,1814,0,0
-133,-790,0,0,0,0,0,0,0,0,0,-1,1091,1814,0,0
-126,-790,0,0,0,0,0,0,0,0,0,-1,1098,1814,0,0
-119,-790,0,0,0,0,0,0,0,0,0,-1,1105,1814,0,0
-112,-790,0,0,0,0,0,0,0,0,0,-1,1112,1814,0,0
-105,-790,0,0,0,0,0,0,0,0,0,-1,1119,1814,0,0
-98,-790,0,0,0,0,0,0,0,0,0,-1,1126,1814,0,0
-91,-790,0,0,0,0,0,0,0,0,0,-1,1133,1814,0,0
-84,-790,0,0,0,0,0,0,0,0,0,-1,1140,1814,0,0
-77,-790,-0.969238,5.30847,0,0,0,0,0,0,0,-1,1147,1814,-0.969277,-5.3085
-70,-790,-1.23169,4.98914,0,0,0,0,0,0,0,-1,1154,1814,-1.23163,-4.98916
-63,-790,-1.69128,4.32263,0,0,0,0,0,0,0,-1,1161,1814,-1.69128,-4.32258
-56,-790,-2.24756,3.75305,0,0,0,0,0,0,0,-1,1168,1814,-2.24758,-3.75302
-49,-790,-3.11011,3.35779,0,0,0,0,0,0,0,-1,1175,1814,-3.11006,-3.35781
-42,-790,0.593262,1.19165,0,0,0,0,0,0,0,-1,1182,1814,0.593225,-1.19165
-35,-790,0.307129,-0.20105,0,0,0,0,0,0,0,-1,1189,1814,0.307178,0.201006
-28,-790,-2.78467,0.785156,0,0,0,0,0,0,0,-1,1196,1814,-2.78471,-0.785183
-21,-790,8.52222,20.7433,0,0,0,0,0,0,0,-1,1203,1814,8.52219,-20.7433
-14,-790,8.60986,21.7571,0,0,0,0,0,0,0,-1,1210,1814,8.60991,-21.7571
-7,-790,8.51257,22.826,-0.102542,-0.055554,-0.00472832,-0.0550829,-0.103013,-1.47149,0.0595223,0.0472535,1217,1814,8.51253,-22.8261
0,-790,8.5459,23.6689,-0.10197,-0.0431305,0.00485191,-0.0427331,-0.102367,1.48907,0.0593695,0.0463146,1224,1814,8.5459,-23.6689
7,-790,7.23145,23.2323,-0.0956216,-0.0332012,0.014866,-0.0298416,-0.0989812,1.34853,0.058629,0.0436036,1231,1814,7.23143,-23.2322
14,-790,5.88928,22.9965,-0.0890594,-0.0251868,0.0253736,-0.0163341,-0.0979121,1.23511,0.0605687,0.0442877,1238,1814,5.88932,-22.9965
21,-790,4.82312,23.0613,-0.0825046,-0.0198814,0.0351076,-0.00415086,-0.0982351,1.14955,0.0641512,0.0436193,1245,1814,4.82308,-23.0612
28,-790,3.97644,23.3132,0,0,0,0,0,0,0,-1,1252,1814,3.97643,-23.3132
35,-790,2.62329,24.3131,-0.0704864,-0.011957,0.0496034,0.016371,-0.0988144,1.05191,0.0719567,0.0489808,1259,1814,2.62335,-24.3132
42,-790,1.96436,25.0564,-0.0658222,-0.00981374,0.0548165,0.0237375,-0.0993735,1.02155,0.0754172,0.0452428,1266,1814,1.96441,-25.0564
49,-790,1.14966,25.9404,-0.0630226,-0.00772993,0.058065,0.0289344,-0.099687,1.00758,0.0779147,0.0480781,1273,1814,1.14964,-25.9404
56,-790,0.189453,26.4111,-0.0601708,-0.00692392,0.0593418,0.0314931,-0.0985878,0.996262,0.0783615,0.0456063,1280,1814,0.189409,-26.4111
63,-790,-0.765625,26.5417,-0.0565726,-0.00823813,0.0584335,0.0308285,-0.0956393,0.98148,0.0761451,0.0435281,1287,1814,-0.765586,-26.5418
70,-790,-1.84399,26.9941,-0.0518242,-0.010729,0.0558377,0.0282217,-0.0907749,0.961703,0.0717972,0.0393659,1294,1814,-1.84403,-26.9942
77,-790,-2.72192,27.7194,-0.0451584,-0.0162837,0.0521808,0.0234201,-0.0848623,0.920362,0.0657862,0.0418791,1301,1814,-2.72191,-27.7194
84,-790,-3.27405,28.9789,-0.0366795,-0.0237713,0.0466888,0.0169074,-0.0773582,0.854081,0.0580348,0.0437032,1308,1814,-3.27407,-28.9789
91,-790,-3.91809,30.3235,0,0,0,0,0,0,0,-1,1315,1814,-3.91813,-30.3234
98,-790,2.4425,25.3036,0,0,0,0,0,0,0,-1,1322,1814,2.44248,-25.3036
105,-790,2.51184,24.4602,-0.00373697,-0.0498701,0.032187,0.0127953,-0.0664025,0.474494,0.0490924,0.0460371,1329,1814,2.51186,-24.4602
112,-790,2.5376,23.6224,0.0118159,-0.0616861,0.0277159,0.0210954,-0.0709656,0.323077,0.0556904,0.0448476,1336,1814,2.53756,-23.6224
119,-790,3.07373,23.1954,0.0280136,-0.0746372,0.0235699,0.0331668,-0.0797905,0.215249,0.0670421,0.0434744,1343,1814,3.07367,-23.1954
126,-790,3.64026,22.9941,0.0437455,-0.087671,0.020531,0.0468784,-0.0908038,0.151423,0.0808281,0.0464537,1350,1814,3.64027,-22.9941
133,-790,4.0459,22.6014,0.05756,-0.102554,0.0176372,0.0594798,-0.104473,0.108422,0.0958393,0.0499558,1357,1814,4.0459,-22.6015
140,-790,4.42847,22.1899,0,0,0,0,0,0,0,-1,1364,1814,4.42841,-22.19
147,-790,2.77625,26.0901,0,0,0,0,0,0,0,-1,1371,1814,2.77628,-26.09
154,-790,6.34485,-0.540405,0,0,0,0,0,0,0,-1,1378,1814,6.34482,0.540409
161,-790,6.62683,1.1134,0,0,0,0,0,0,0,-1,1385,1814,6.62682,-1.11344
168,-790,7.04077,2.23279,0,0,0,0,0,0,0,-1,1392,1814,7.04082,-2.23275
175,-790,9.03918,3.98535,0,0,0,0,0,0,0,-1,1399,1814,9.0392,-3.98535
182,-790,8.96997,5.67896,0,0,0,0,0,0,0,-1,1406,1814,8.97001,-5.6789
189,-790,8.59729,6.86975,0,0,0,0,0,0,0,-1,1413,1814,8.59728,-6.86972
196,-790,8.21924,9.29053,0,0,0,0,0,0,0,-1,1420,1814,8.21924,-9.29048
203,-790,0,0,0,0,0,0,0,0,0,-1,1427,1814,0,0
210,-790,0,0,0,0,0,0,0,0,0,-1,1434,1814,0,0
217,-790,0,0,0,0,0,0,0,0,0,-1,1441,1814,0,0
224,-790,0,0,0,0,0,0,0,0,0,-1,1448,1814,0,0
231,-790,0,0,0,0,0,0,0,0,0,-1,1455,1814,0,0
238,-790,0,0,0,0,0,0,0,0,0,-1,1462,1814,0,0
245,-790,0,0,0,0,0,0,0,0,0,-1,1469,1814,0,0
252,-790,0,0,0,0,0,0,0,0,0,-1,1476,1814,0,0
259,-790,0,0,0,0,0,0,0,0,0,-1,1483,1814,0,0
266,-790,0,0,0,0,0,0,0,0,0,-1,1490,1814,0,0
273,-790,0,0,0,0,0,0,0,0,0,-1,1497,1814,0,0
280,-790,0,0,0,0,0,0,0,0,0,-1,1504,1814,0,0
287,-790,0,0,0,0,0,0,0,0,0,-1,1511,1814,0,0
294,-790,0,0,0,0,0,0,0,0,0,-1,1518,1814,0,0
301,-790,0,0,0,0,0,0,0,0,0,-1,1525,1814,0,0
308,-790,0,0,0,0,0,0,0,0,0,-1,1532,1814,0,0
315,-790,0,0,0,0,0,0,0,0,0,-1,1539,1814,0,0
322,-790,0,0,0,0,0,0,0,0,0,-1,1546,1814,0,0
329,-790,0,0,0,0,0,0,0,0,0,-1,1553,1814,0,0
336,-790,0,0,0,0,0,0,0,0,0,-1,1560,1814,0,0
343,-790,0,0,0,0,0,0,0,0,0,-1,1567,1814,0,0
350,-790,0,0,0,0,0,0,0,0,0,-1,1574,1814,0,0
357,-790,0,0,0,0,0,0,0,0,0,-1,1581,1814,0,0
364,-790,0,0,0,0,0,0,0,0,0,-1,1588,1814,0,0
371,-790,0,0,0,0,0,0,0,0,0,-1,1595,1814,0,0
378,-790,0,0,0,0,0,0,0,0,0,-1,1602,1814,0,0
385,-790,0,0,0,0,0,0,0,0,0,-1,1609,1814,0,0
392,-790,0,0,0,0,0,0,0,0,0,-1,1616,1814,0,0
399,-790,0,0,0,0,0,0,0,0,0,-1,1623,1814,0,0
406,-790,0,0,0,0,0,0,0,0,0,-1,1630,1814,0,0
413,-790,0,0,0,0,0,0,0,0,0,-1,1637,1814,0,0
420,-790,0,0,0,0,0,0,0,0,0,-1,1644,1814,0,0
427,-790,0,0,0,0,0,0,0,0,0,-1,1651,1814,0,0
434,-790,0,0,0,0,0,0,0,0,0,-1,1658,1814,0,0
441,-790,0,0,0,0,0,0,0,0,0,-1,1665,1814,0,0
448,-790,0,0,0,0,0,0,0,0,0,-1,1672,1814,0,0
455,-790,0,0,0,0,0,0,0,0,0,-1,1679,1814,0,0
462,-790,0,0,0,0,0,0,0,0,0,-1,1686,1814,0,0
469,-790,0,0,0,0,0,0,0,0,0,-1,1693,1814,0,0
476,-790,0,0,0,0,0,0,0,0,0,-1,1700,1814,0,0
483,-790,0,0,0,0,0,0,0,0,0,-1,1707,1814,0,0
490,-790,0,0,0,0,0,0,0,0,0,-1,1714,1814,0,0
497,-790,0,0,0,0,0,0,0,0,0,-1,1721,1814,0,0
504,-790,0,0,0,0,0,0,0,0,0,-1,1728,1814,0,0
511,-790,0,0,0,0,0,0,0,0,0,-1,1735,1814,0,0
518,-790,0,0,0,0,0,0,0,0,0,-1,1742,1814,0,0
525,-790,0,0,0,0,0,0,0,0,0,-1,1749,1814,0,0
532,-790,0,0,0,0,0,0,0,0,0,-1,1756,1814,0,0
539,-790,0,0,0,0,0,0,0,0,0,-1,1763,1814,0,0
546,-790,0,0,0,0,0,0,0,0,0,-1,1770,1814,0,0
553,-790,0,0,0,0,0,0,0,0,0,-1,1777,1814,0,0
560,-790,0,0,0,0,0,0,0,0,0,-1,1784,1814,0,0
567,-790,0,0,0,0,0,0,0,0,0,-1,1791,1814,0,0
574,-790,0,0,0,0,0,0,0,0,0,-1,1798,1814,0,0
581,-790,0,0,0,0,0,0,0,0,0,-1,1805,1814,0,0
588,-790,0,0,0,0,0,0,0,0,0,-1,1812,1814,0,0
595,-790,0,0,0,0,0,0,0,0,0,-1,1819,1814,0,0
602,-790,0,0,0,0,0,0,0,0,0,-1,1826,1814,0,0
609,-790,0,0,0,0,0,0,0,0,0,-1,1833,1814,0,0
616,-790,0,0,0,0,0,0,0,0,0,-1,1840,1814,0,0
623,-790,0,0,0,0,0,0,0,0,0,-1,1847,1814,0,0
630,-790,0,0,0,0,0,0,0,0,0,-1,1854,1814,0,0
637,-790,0,0,0,0,0,0,0,0,0,-1,1861,1814,0,0
644,-790,0,0,0,0,0,0,0,0,0,-1,1868,1814,0,0
651,-790,0,0,0,0,0,0,0,0,0,-1,1875,1814,0,0
658,-790,0,0,0,0,0,0,0,0,0,-1,1882,1814,0,0
665,-790,0,0,0,0,0,0,0,0,0,-1,1889,1814,0,0
672,-790,0,0,0,0,0,0,0,0,0,-1,1896,1814,0,0
679,-790,0,0,0,0,0,0,0,0,0,-1,1903,1814,0,0
686,-790,0,0,0,0,0,0,0,0,0,-1,1910,1814,0,0
693,-790,0,0,0,0,0,0,0,0,0,-1,1917,1814,0,0
700,-790,0,0,0,0,0,0,0,0,0,-1,1924,1814,0,0
707,-790,0,0,0,0,0,0,0,0,0,-1,1931,1814,0,0
714,-790,0,0,0,0,0,0,0,0,0,-1,1938,1814,0,0
721,-790,0,0,0,0,0,0,0,0,0,-1,1945,1814,0,0
728,-790,0,0,0,0,0,0,0,0,0,-1,1952,1814,0,0
735,-790,0,0,0,0,0,0,0,0,0,-1,1959,1814,0,0
742,-790,0,0,0,0,0,0,0,0,0,-1,1966,1814,0,0
749,-790,0,0,0,0,0,0,0,0,0,-1,1973,1814,0,0
756,-790,0,0,0,0,0,0,0,0,0,-1,1980,1814,0,0
763,-790,0,0,0,0,0,0,0,0,0,-1,1987,1814,0,0
770,-790,0,0,0,0,0,0,0,0,0,-1,1994,1814,0,0
777,-790,0,0,0,0,0,0,0,0,0,-1,2001,1814,0,0
784,-790,0,0,0,0,0,0,0,0,0,-1,2008,1814,0,0
791,-790,0,0,0,0,0,0,0,0,0,-1,2015,1814,0,0
798,-790,0,0,0,0,0,0,0,0,0,-1,2022,1814,0,0
805,-790,0,0,0,0,0,0,0,0,0,-1,2029,1814,0,0
812,-790,0,0,0,0,0,0,0,0,0,-1,2036,1814,0,0
-700,-797,0,0,0,0,0,0,0,0,0,-1,524,1821,0,0
-693,-797,0,0,0,0,0,0,0,0,0,-1,531,1821,0,0
-686,-797,0,0,0,0,0,0,0,0,0,-1,538,1821,0,0
-679,-797,0,0,0,0,0,0,0,0,0,-1,545,1821,0,0
-672,-797,0,0,0,0,0,0,0,0,0,-1,552,1821,0,0
-665,-797,0,0,0,0,0,0,0,0,0,-1,559,1821,0,0
-658,-797,0,0,0,0,0,0,0,0,0,-1,566,1821,0,0
-651,-797,0,0,0,0,0,0,0,0,0,-1,573,1821,0,0
-644,-797,0,0,0,0,0,0,0,0,0,-1,580,1821,0,0
-637,-797,0,0,0,0,0,0,0,0,0,-1,587,1821,0,0
-630,-797,0,0,0,0,0,0,0,0,0,-1,594,1821,0,0
-623,-797,0,0,0,0,0,0,0,0,0,-1,601,1821,0,0
-616,-797,0,0,0,0,0,0,0,0,0,-1,608,1821,0,0
-609,-797,0,0,0,0,0,0,0,0,0,-1,615,1821,0,0
-602,-797,0,0,0,0,0,0,0,0,0,-1,622,1821,0,0
-595,-797,0,0,0,0,0,0,0,0,0,-1,629,1821,0,0
-588,-797,0,0,0,0,0,0,0,0,0,-1,636,1821,0,0
-581,-797,0,0,0,0,0,0,0,0,0,-1,643,1821,0,0
-574,-797,0,0,0,0,0,0,0,0,0,-1,650,1821,0,0
-567,-797,0,0,0,0,0,0,0,0,0,-1,657,1821,0,0
-560,-797,0,0,0,0,0,0,0,0,0,-1,664,1821,0,0
-553,-797,0,0,0,0,0,0,0,0,0,-1,671,1821,0,0
-546,-797,0,0,0,0,0,0,0,0,0,-1,678,1821,0,0
-539,-797,0,0,0,0,0,0,0,0,0,-1,685,1821,0,0
-532,-797,0,0,0,0,0,0,0,0,0,-1,692,1821,0,0
-525,-797,0,0,0,0,0,0,0,0,0,-1,699,1821,0,0
-518,-797,0,0,0,0,0,0,0,0,0,-1,706,1821,0,0
-511,-797,0,0,0,0,0,0,0,0,0,-1,713,1821,0,0
-504,-797,0,0,0,0,0,0,0,0,0,-1,720,1821,0,0
-497,-797,0,0,0,0,0,0,0,0,0,-1,727,1821,0,0
-490,-797,0,0,0,0,0,0,0,0,0,-1,734,1821,0,0
-483,-797,0,0,0,0,0,0,0,0,0,-1,741,1821,0,0
-476,-797,0,0,0,0,0,0,0,0,0,-1,748,1821,0,0
-469,-797,0,0,0,0,0,0,0,0,0,-1,755,1821,0,0
-462,-797,0,0,0,0,0,0,0,0,0,-1,762,1821,0,0
-455,-797,0,0,0,0,0,0,0,0,0,-1,769,1821,0,0
-448,-797,0,0,0,0,0,0,0,0,0,-1,776,1821,0,0
-441,-797,0,0,0,0,0,0,0,0,0,-1,783,1821,0,0
-434,-797,0,0,0,0,0,0,0,0,0,-1,790,1821,0,0
-427,-797,0,0,0,0,0,0,0,0,0,-1,797,1821,0,0
-420,-797,0,0,0,0,0,0,0,0,0,-1,804,1821,0,0
-413,-797,0,0,0,0,0,0,0,0,0,-1,811,1821,0,0
-406,-797,0,0,0,0,0,0,0,0,0,-1,818,1821,0,0
-399,-797,0,0,0,0,0,0,0,0,0,-1,825,1821,0,0
-392,-797,0,0,0,0,0,0,0,0,0,-1,832,1821,0,0
-385,-797,0,0,0,0,0,0,0,0,0,-1,839,1821,0,0
-378,-797,0,0,0,0,0,0,0,0,0,-1,846,1821,0,0
-371,-797,0,0,0,0,0,0,0,0,0,-1,853,1821,0,0
-364,-797,0,0,0,0,0,0,0,0,0,-1,860,1821,0,0
-357,-797,0,0,0,0,0,0,0,0,0,-1,867,1821,0,0
-350,-797,0,0,0,0,0,0,0,0,0,-1,874,1821,0,0
-343,-797,0,0,0,0,0,0,0,0,0,-1,881,1821,0,0
-336,-797,0,0,0,0,0,0,0,0,0,-1,888,1821,0,0
-329,-797,0,0,0,0,0,0,0,0,0,-1,895,1821,0,0
-322,-797,0,0,0,0,0,0,0,0,0,-1,902,1821,0,0
-315,-797,0,0,0,0,0,0,0,0,0,-1,909,1821,0,0
-308,-797,0,0,0,0,0,0,0,0,0,-1,916,1821,0,0
-301,-797,0,0,0,0,0,0,0,0,0,-1,923,1821,0,0
-294,-797,0,0,0,0,0,0,0,0,0,-1,930,1821,0,0
-287,-797,0,0,0,0,0,0,0,0,0,-1,937,1821,0,0
-280,-797,0,0,0,0,0,0,0,0,0,-1,944,1821,0,0
-273,-797,0,0,0,0,0,0,0,0,0,-1,951,1821,0,0
-266,-797,0,0,0,0,0,0,0,0,0,-1,958,1821,0,0
-259,-797,0,0,0,0,0,0,0,0,0,-1,965,1821,0,0
-252,-797,0,0,0,0,0,0,0,0,0,-1,972,1821,0,0
-245,-797,0,0,0,0,0,0,0,0,0,-1,979,1821,0,0
-238,-797,0,0,0,0,0,0,0,0,0,-1,986,1821,0,0
-231,-797,0,0,0,0,0,0,0,0,0,-1,993,1821,0,0
-224,-797,0,0,0,0,0,0,0,0,0,-1,1000,1821,0,0
-217,-797,0,0,0,0,0,0,0,0,0,-1,1007,1821,0,0
-210,-797,0,0,0,0,0,0,0,0,0,-1,1014,1821,0,0
-203,-797,0,0,0,0,0,0,0,0,0,-1,1021,1821,0,0
-196,-797,0,0,0,0,0,0,0,0,0,-1,1028,1821,0,0
-189,-797,0,0,0,0,0,0,0,0,0,-1,1035,1821,0,0
-182,-797,0,0,0,0,0,0,0,0,0,-1,1042,1821,0,0
-175,-797,0,0,0,0,0,0,0,0,0,-1,1049,1821,0,0
-168,-797,0,0,0,0,0,0,0,0,0,-1,1056,1821,0,0
-161,-797,0,0,0,0,0,0,0,0,0,-1,1063,1821,0,0
-154,-797,0,0,0,0,0,0,0,0,0,-1,1070,1821,0,0
-147,-797,0,0,0,0,0,0,0,0,0,-1,1077,1821,0,0
-140,-797,0,0,0,0,0,0,0,0,0,-1,1084,1821,0,0
-133,-797,0,0,0,0,0,0,0,0,0,-1,1091,1821,0,0
-126,-797,0,0,0,0,0,0,0,0,0,-1,1098,1821,0,0
-119,-797,0,0,0,0,0,0,0,0,0,-1,1105,1821,0,0
-112,-797,0,0,0,0,0,0,0,0,0,-1,1112,1821,0,0
-105,-797,0,0,0,0,0,0,0,0,0,-1,1119,1821,0,0
-98,-797,0,0,0,0,0,0,0,0,0,-1,1126,1821,0,0
-91,-797,0,0,0,0,0,0,0,0,0,-1,1133,1821,0,0
-84,-797,0,0,0,0,0,0,0,0,0,-1,1140,1821,0,0
-77,-797,0,0,0,0,0,0,0,0,0,-1,1147,1821,0,0
-70,-797,0,0,0,0,0,0,0,0,0,-1,1154,1821,0,0
-63,-797,0,0,0,0,0,0,0,0,0,-1,1161,1821,0,0
-56,-797,0,0,0,0,0,0,0,0,0,-1,1168,1821,0,0
-49,-797,0,0,0,0,0,0,0,0,0,-1,1175,1821,0,0
-42,-797,0.579834,0.692871,0,0,0,0,0,0,0,-1,1182,1821,0.579856,-0.692816
-35,-797,-0.185425,5.55396,0,0,0,0,0,0,0,-1,1189,1821,-0.18542,-5.55396
-28,-797,-0.310181,4.71509,0,0,0,0,0,0,0,-1,1196,1821,-0.310228,-4.71503
-21,-797,5.71082,18.2594,0,0,0,0,0,0,0,-1,1203,1821,5.71082,-18.2594
-14,-797,8.44934,22.3274,0,0,0,0,0,0,0,-1,1210,1821,8.44938,-22.3273
-7,-797,8.22485,23.5396,0,0,0,0,0,0,0,-1,1217,1821,8.22481,-23.5395
0,-797,8.17517,23.9471,0,0,0,0,0,0,0,-1,1224,1821,8.17512,-23.9471
7,-797,6.83411,23.4623,-0.122696,-0.0362977,0.013821,-0.0341406,-0.124853,1.41597,0.0745094,0.0462465,1231,1821,6.83412,-23.4623
14,-797,5.62537,23.0796,-0.115073,-0.0262954,0.0262636,-0.0191077,-0.122261,1.30366,0.0759437,0.0434213,1238,1821,5.6254,-23.0796
21,-797,4.63208,22.8146,-0.107604,-0.0197753,0.0382938,-0.00542412,-0.121956,1.21223,0.0795574,0.0401837,1245,1821,4.63209,-22.8146
28,-797,3.73254,23.1346,0,0,0,0,0,0,0,-1,1252,1821,3.7326,-23.1347
35,-797,2.72217,23.8688,-0.0935405,-0.00998324,0.0557204,0.0178817,-0.121405,1.10708,0.0875086,0.0484225,1259,1821,2.72218,-23.8688
42,-797,1.8634,24.6855,-0.0880101,-0.00740357,0.0622137,0.0264208,-0.121834,1.07282,0.091313,0.0469324,1266,1821,1.86342,-24.6855
49,-797,0.973999,25.5565,-0.0845314,-0.00508848,0.0664067,0.0325699,-0.12219,1.05493,0.0942122,0.0462895,1273,1821,0.973966,-25.5565
56,-797,0.0999756,26.3281,-0.0807778,-0.00424618,0.0680209,0.0355336,-0.120558,1.04162,0.0944707,0.0447906,1280,1821,0.10003,-26.3281
63,-797,-0.812866,27.0061,-0.0759695,-0.00574047,0.0669296,0.0347268,-0.116437,1.02698,0.0914256,0.0418363,1287,1821,-0.812853,-27.0061
70,-797,-1.80383,27.8533,-0.0694523,-0.00871716,0.0640163,0.0317692,-0.109939,1.00687,0.0858641,0.0390027,1294,1821,-1.80381,-27.8533
77,-797,-2.43787,28.4353,-0.0602148,-0.0155719,0.0599675,0.0260938,-0.10188,0.963566,0.0780853,0.0396933,1301,1821,-2.43786,-28.4352
84,-797,-2.78601,29.1244,-0.0481397,-0.0249003,0.0537678,0.018489,-0.091529,0.891816,0.0680251,0.0479863,1308,1821,-2.78603,-29.1244
91,-797,1.4856,26.0869,0,0,0,0,0,0,0,-1,1315,1821,1.48556,-26.0869
98,-797,1.60449,25.458,0,0,0,0,0,0,0,-1,1322,1821,1.6045,-25.458
105,-797,1.70618,24.7753,-0.00156587,-0.0588557,0.0375828,0.0170438,-0.0774654,0.459773,0.0581633,0.0472245,1329,1821,1.70618,-24.7753
112,-797,1.83667,24.1033,0.0191582,-0.0742633,0.0324948,0.0293492,-0.0844543,0.303903,0.0682237,0.0441581,1336,1821,1.83671,-24.1033
119,-797,2.19775,23.6974,0.0408953,-0.0913815,0.0278872,0.0465342,-0.0970204,0.199514,0.0845726,0.0427573,1343,1821,2.19774,-23.6973
126,-797,3.10339,24.3934,0.0620853,-0.109322,0.0238754,0.0653488,-0.112585,0.135846,0.10393,0.0457643,1350,1821,3.10337,-24.3934
133,-797,3.87695,24.0405,0.0802765,-0.130264,0.0202066,0.0821983,-0.132186,0.0948217,0.124891,0.0477347,1357,1821,3.87689,-24.0405
140,-797,4.76123,23.2574,0,0,0,0,0,0,0,-1,1364,1821,4.76129,-23.2574
147,-797,5.57947,22.4716,0,0,0,0,0,0,0,-1,1371,1821,5.57952,-22.4715
154,-797,14.49,10.5256,0,0,0,0,0,0,0,-1,1378,1821,14.49,-10.5256
161,-797,6.79199,1.12952,0,0,0,0,0,0,0,-1,1385,1821,6.79203,-1.12957
168,-797,0,0,0,0,0,0,0,0,0,-1,1392,1821,0,0
175,-797,0,0,0,0,0,0,0,0,0,-1,1399,1821,0,0
182,-797,0,0,0,0,0,0,0,0,0,-1,1406,1821,0,0
189,-797,0,0,0,0,0,0,0,0,0,-1,1413,1821,0,0
196,-797,0,0,0,0,0,0,0,0,0,-1,1420,1821,0,0
203,-797,0,0,0,0,0,0,0,0,0,-1,1427,1821,0,0
210,-797,0,0,0,0,0,0,0,0,0,-1,1434,1821,0,0
217,-797,0,0,0,0,0,0,0,0,0,-1,1441,1821,0,0
224,-797,0,0,0,0,0,0,0,0,0,-1,1448,1821,0,0
231,-797,0,0,0,0,0,0,0,0,0,-1,1455,1821,0,0
238,-797,0,0,0,0,0,0,0,0,0,-1,1462,1821,0,0
245,-797,0,0,0,0,0,0,0,0,0,-1,1469,1821,0,0
252,-797,0,0,0,0,0,0,0,0,0,-1,1476,1821,0,0
259,-797,0,0,0,0,0,0,0,0,0,-1,1483,1821,0,0
266,-797,0,0,0,0,0,0,0,0,0,-1,1490,1821,0,0
273,-797,0,0,0,0,0,0,0,0,0,-1,1497,1821,0,0
280,-797,0,0,0,0,0,0,0,0,0,-1,1504,1821,0,0
287,-797,0,0,0,0,0,0,0,0,0,-1,1511,1821,0,0
294,-797,0,0,0,0,0,0,0,0,0,-1,1518,1821,0,0
301,-797,0,0,0,0,0,0,0,0,0,-1,1525,1821,0,0
308,-797,0,0,0,0,0,0,0,0,0,-1,1532,1821,0,0
315,-797,0,0,0,0,0,0,0,0,0,-1,1539,1821,0,0
322,-797,0,0,0,0,0,0,0,0,0,-1,1546,1821,0,0
329,-797,0,0,0,0,0,0,0,0,0,-1,1553,1821,0,0
336,-797,0,0,0,0,0,0,0,0,0,-1,1560,1821,0,0
343,-797,0,0,0,0,0,0,0,0,0,-1,1567,1821,0,0
350,-797,0,0,0,0,0,0,0,0,0,-1,1574,1821,0,0
357,-797,0,0,0,0,0,0,0,0,0,-1,1581,1821,0,0
364,-797,0,0,0,0,0,0,0,0,0,-1,1588,1821,0,0
371,-797,0,0,0,0,0,0,0,0,0,-1,1595,1821,0,0
378,-797,0,0,0,0,0,0,0,0,0,-1,1602,1821,0,0
385,-797,0,0,0,0,0,0,0,0,0,-1,1609,1821,0,0
392,-797,0,0,0,0,0,0,0,0,0,-1,1616,1821,0,0
399,-797,0,0,0,0,0,0,0,0,0,-1,1623,1821,0,0
406,-797,0,0,0,0,0,0,0,0,0,-1,1630,1821,0,0
413,-797,0,0,0,0,0,0,0,0,0,-1,1637,1821,0,0
420,-797,0,0,0,0,0,0,0,0,0,-1,1644,1821,0,0
427,-797,0,0,0,0,0,0,0,0,0,-1,1651,1821,0,0
434,-797,0,0,0,0,0,0,0,0,0,-1,1658,1821,0,0
441,-797,0,0,0,0,0,0,0,0,0,-1,1665,1821,0,0
448,-797,0,0,0,0,0,0,0,0,0,-1,1672,1821,0,0
455,-797,0,0,0,0,0,0,0,0,0,-1,1679,1821,0,0
462,-797,0,0,0,0,0,0,0,0,0,-1,1686,1821,0,0
469,-797,0,0,0,0,0,0,0,0,0,-1,1693,1821,0,0
476,-797,0,0,0,0,0,0,0,0,0,-1,1700,1821,0,0
483,-797,0,0,0,0,0,0,0,0,0,-1,1707,1821,0,0
490,-797,0,0,0,0,0,0,0,0,0,-1,1714,1821,0,0
497,-797,0,0,0,0,0,0,0,0,0,-1,1721,1821,0,0
504,-797,0,0,0,0,0,0,0,0,0,-1,1728,1821,0,0
511,-797,0,0,0,0,0,0,0,0,0,-1,1735,1821,0,0
518,-797,0,0,0,0,0,0,0,0,0,-1,1742,1821,0,0
525,-797,0,0,0,0,0,0,0,0,0,-1,1749,1821,0,0
532,-797,0,0,0,0,0,0,0,0,0,-1,1756,1821,0,0
539,-797,0,0,0,0,0,0,0,0,0,-1,1763,1821,0,0
546,-797,0,0,0,0,0,0,0,0,0,-1,1770,1821,0,0
553,-797,0,0,0,0,0,0,0,0,0,-1,1777,1821,0,0
560,-797,0,0,0,0,0,0,0,0,0,-1,1784,1821,0,0
567,-797,0,0,0,0,0,0,0,0,0,-1,1791,1821,0,0
574,-797,0,0,0,0,0,0,0,0,0,-1,1798,1821,0,0
581,-797,0,0,0,0,0,0,0,0,0,-1,1805,1821,0,0
588,-797,0,0,0,0,0,0,0,0,0,-1,1812,1821,0,0
595,-797,0,0,0,0,0,0,0,0,0,-1,1819,1821,0,0
602,-797,0,0,0,0,0,0,0,0,0,-1,1826,1821,0,0
609,-797,0,0,0,0,0,0,0,0,0,-1,1833,1821,0,0
616,-797,0,0,0,0,0,0,0,0,0,-1,1840,1821,0,0
623,-797,0,0,0,0,0,0,0,0,0,-1,1847,1821,0,0
630,-797,0,0,0,0,0,0,0,0,0,-1,1854,1821,0,0
637,-797,0,0,0,0,0,0,0,0,0,-1,1861,1821,0,0
644,-797,0,0,0,0,0,0,0,0,0,-1,1868,1821,0,0
651,-797,0,0,0,0,0,0,0,0,0,-1,1875,1821,0,0
658,-797,0,0,0,0,0,0,0,0,0,-1,1882,1821,0,0
665,-797,0,0,0,0,0,0,0,0,0,-1,1889,1821,0,0
672,-797,0,0,0,0,0,0,0,0,0,-1,1896,1821,0,0
679,-797,0,0,0,0,0,0,0,0,0,-1,1903,1821,0,0
686,-797,0,0,0,0,0,0,0,0,0,-1,1910,1821,0,0
693,-797,0,0,0,0,0,0,0,0,0,-1,1917,1821,0,0
700,-797,0,0,0,0,0,0,0,0,0,-1,1924,1821,0,0
707,-797,0,0,0,0,0,0,0,0,0,-1,1931,1821,0,0
714,-797,0,0,0,0,0,0,0,0,0,-1,1938,1821,0,0
721,-797,0,0,0,0,0,0,0,0,0,-1,1945,1821,0,0
728,-797,0,0,0,0,0,0,0,0,0,-1,1952,1821,0,0
735,-797,0,0,0,0,0,0,0,0,0,-1,1959,1821,0,0
742,-797,0,0,0,0,0,0,0,0,0,-1,1966,1821,0,0
749,-797,0,0,0,0,0,0,0,0,0,-1,1973,1821,0,0
756,-797,0,0,0,0,0,0,0,0,0,-1,1980,1821,0,0
763,-797,0,0,0,0,0,0,0,0,0,-1,1987,1821,0,0
770,-797,0,0,0,0,0,0,0,0,0,-1,1994,1821,0,0
777,-797,0,0,0,0,0,0,0,0,0,-1,2001,1821,0,0
784,-797,0,0,0,0,0,0,0,0,0,-1,2008,1821,0,0
791,-797,0,0,0,0,0,0,0,0,0,-1,2015,1821,0,0
798,-797,0,0,0,0,0,0,0,0,0,-1,2022,1821,0,0
805,-797,0,0,0,0,0,0,0,0,0,-1,2029,1821,0,0
812,-797,0,0,0,0,0,0,0,0,0,-1,2036,1821,0,0
-700,-804,0,0,0,0,0,0,0,0,0,-1,524,1828,0,0
-693,-804,0,0,0,0,0,0,0,0,0,-1,531,1828,0,0
-686,-804,0,0,0,0,0,0,0,0,0,-1,538,1828,0,0
-679,-804,0,0,0,0,0,0,0,0,0,-1,545,1828,0,0
-672,-804,0,0,0,0,0,0,0,0,0,-1,552,1828,0,0
-665,-804,0,0,0,0,0,0,0,0,0,-1,559,1828,0,0
-658,-804,0,0,0,0,0,0,0,0,0,-1,566,1828,0,0
-651,-804,0,0,0,0,0,0,0,0,0,-1,573,1828,0,0
-644,-804,0,0,0,0,0,0,0,0,0,-1,580,1828,0,0
-637,-804,0,0,0,0,0,0,0,0,0,-1,587,1828,0,0
-630,-804,0,0,0,0,0,0,0,0,0,-1,594,1828,0,0
-623,-804,0,0,0,0,0,0,0,0,0,-1,601,1828,0,0
-616,-804,0,0,0,0,0,0,0,0,0,-1,608,1828,0,0
-609,-804,0,0,0,0,0,0,0,0,0,-1,615,1828,0,0
-602,-804,0,0,0,0,0,0,0,0,0,-1,622,1828,0,0
-595,-804,0,0,0,0,0,0,0,0,0,-1,629,1828,0,0
-588,-804,0,0,0,0,0,0,0,0,0,-1,636,1828,0,0
-581,-804,0,0,0,0,0,0,0,0,0,-1,643,1828,0,0
-574,-804,0,0,0,0,0,0,0,0,0,-1,650,1828,0,0
-567,-804,0,0,0,0,0,0,0,0,0,-1,657,1828,0,0
-560,-804,0,0,0,0,0,0,0,0,0,-1,664,1828,0,0
-553,-804,0,0,0,0,0,0,0,0,0,-1,671,1828,0,0
-546,-804,0,0,0,0,0,0,0,0,0,-1,678,1828,0,0
-539,-804,0,0,0,0,0,0,0,0,0,-1,685,1828,0,0
-532,-804,0,0,0,0,0,0,0,0,0,-1,692,1828,0,0
-525,-804,0,0,0,0,0,0,0,0,0,-1,699,1828,0,0
-518,-804,0,0,0,0,0,0,0,0,0,-1,706,1828,0,0
-511,-804,0,0,0,0,0,0,0,0,0,-1,713,1828,0,0
-504,-804,0,0,0,0,0,0,0,0,0,-1,720,1828,0,0
-497,-804,0,0,0,0,0,0,0,0,0,-1,727,1828,0,0
-490,-804,0,0,0,0,0,0,0,0,0,-1,734,1828,0,0
-483,-804,0,0,0,0,0,0,0,0,0,-1,741,1828,0,0
-476,-804,0,0,0,0,0,0,0,0,0,-1,748,1828,0,0
-469,-804,0,0,0,0,0,0,0,0,0,-1,755,1828,0,0
-462,-804,0,0,0,0,0,0,0,0,0,-1,762,1828,0,0
-455,-804,0,0,0,0,0,0,0,0,0,-1,769,1828,0,0
-448,-804,0,0,0,0,0,0,0,0,0,-1,776,1828,0,0
-441,-804,0,0,0,0,0,0,0,0,0,-1,783,1828,0,0
-434,-804,0,0,0,0,0,0,0,0,0,-1,790,1828,0,0
-427,-804,0,0,0,0,0,0,0,0,0,-1,797,1828,0,0
-420,-804,0,0,0,0,0,0,0,0,0,-1,804,1828,0,0
-413,-804,0,0,0,0,0,0,0,0,0,-1,811,1828,0,0
-406,-804,0,0,0,0,0,0,0,0,0,-1,818,1828,0,0
-399,-804,0,0,0,0,0,0,0,0,0,-1,825,1828,0,0
-392,-804,0,0,0,0,0,0,0,0,0,-1,832,1828,0,0
-385,-804,0,0,0,0,0,0,0,0,0,-1,839,1828,0,0
-378,-804,0,0,0,0,0,0,0,0,0,-1,846,1828,0,0
-371,-804,0,0,0,0,0,0,0,0,0,-1,853,1828,0,0
-364,-804,0,0,0,0,0,0,0,0,0,-1,860,1828,0,0
-357,-804,0,0,0,0,0,0,0,0,0,-1,867,1828,0,0
-350,-804,0,0,0,0,0,0,0,0,0,-1,874,1828,0,0
-343,-804,0,0,0,0,0,0,0,0,0,-1,881,1828,0,0
-336,-804,0,0,0,0,0,0,0,0,0,-1,888,1828,0,0
-329,-804,0,0,0,0,0,0,0,0,0,-1,895,1828,0,0
-322,-804,0,0,0,0,0,0,0,0,0,-1,902,1828,0,0
-315,-804,0,0,0,0,0,0,0,0,0,-1,909,1828,0,0
-308,-804,0,0,0,0,0,0,0,0,0,-1,916,1828,0,0
-301,-804,0,0,0,0,0,0,0,0,0,-1,923,1828,0,0
-294,-804,0,0,0,0,0,0,0,0,0,-1,930,1828,0,0
-287,-804,0,0,0,0,0,0,0,0,0,-1,937,1828,0,0
-280,-804,0,0,0,0,0,0,0,0,0,-1,944,1828,0,0
-273,-804,0,0,0,0,0,0,0,0,0,-1,951,1828,0,0
-266,-804,0,0,0,0,0,0,0,0,0,-1,958,1828,0,0
-259,-804,0,0,0,0,0,0,0,0,0,-1,965,1828,0,0
-252,-804,0,0,0,0,0,0,0,0,0,-1,972,1828,0,0
-245,-804,0,0,0,0,0,0,0,0,0,-1,979,1828,0,0
-238,-804,0,0,0,0,0,0,0,0,0,-1,986,1828,0,0
-231,-804,0,0,0,0,0,0,0,0,0,-1,993,1828,0,0
-224,-804,0,0,0,0,0,0,0,0,0,-1,1000,1828,0,0
-217,-804,0,0,0,0,0,0,0,0,0,-1,1007,1828,0,0
-210,-804,0,0,0,0,0,0,0,0,0,-1,1014,1828,0,0
-203,-804,0,0,0,0,0,0,0,0,0,-1,1021,1828,0,0
-196,-804,0,0,0,0,0,0,0,0,0,-1,1028,1828,0,0
-189,-804,0,0,0,0,0,0,0,0,0,-1,1035,1828,0,0
-182,-804,0,0,0,0,0,0,0,0,0,-1,1042,1828,0,0
-175,-804,0,0,0,0,0,0,0,0,0,-1,1049,1828,0,0
-168,-804,0,0,0,0,0,0,0,0,0,-1,1056,1828,0,0
-161,-804,0,0,0,0,0,0,0,0,0,-1,1063,1828,0,0
-154,-804,0,0,0,0,0,0,0,0,0,-1,1070,1828,0,0
-147,-804,0,0,0,0,0,0,0,0,0,-1,1077,1828,0,0
-140,-804,0,0,0,0,0,0,0,0,0,-1,1084,1828,0,0
-133,-804,0,0,0,0,0,0,0,0,0,-1,1091,1828,0,0
-126,-804,0,0,0,0,0,0,0,0,0,-1,1098,1828,0,0
-119,-804,0,0,0,0,0,0,0,0,0,-1,1105,1828,0,0
-112,-804,0,0,0,0,0,0,0,0,0,-1,1112,1828,0,0
-105,-804,0,0,0,0,0,0,0,0,0,-1,1119,1828,0,0
-98,-804,0,0,0,0,0,0,0,0,0,-1,1126,1828,0,0
-91,-804,0,0,0,0,0,0,0,0,0,-1,1133,1828,0,0
-84,-804,0,0,0,0,0,0,0,0,0,-1,1140,1828,0,0
-77,-804,0,0,0,0,0,0,0,0,0,-1,1147,1828,0,0
-70,-804,0,0,0,0,0,0,0,0,0,-1,1154,1828,0,0
-63,-804,0,0,0,0,0,0,0,0,0,-1,1161,1828,0,0
-56,-804,0,0,0,0,0,0,0,0,0,-1,1168,1828,0,0
-49,-804,0,0,0,0,0,0,0,0,0,-1,1175,1828,0,0
-42,-804,0,0,0,0,0,0,0,0,0,-1,1182,1828,0,0
-35,-804,0,0,0,0,0,0,0,0,0,-1,1189,1828,0,0
-28,-804,0,0,0,0,0,0,0,0,0,-1,1196,1828,0,0
-21,-804,0,0,0,0,0,0,0,0,0,-1,1203,1828,0,0
-14,-804,0,0,0,0,0,0,0,0,0,-1,1210,1828,0,0
-7,-804,0,0,0,0,0,0,0,0,0,-1,1217,1828,0,0
0,-804,0,0,0,0,0,0,0,0,0,-1,1224,1828,0,0
7,-804,0,0,0,0,0,0,0,0,0,-1,1231,1828,0,0
14,-804,0,0,0,0,0,0,0,0,0,-1,1238,1828,0,0
21,-804,0,0,0,0,0,0,0,0,0,-1,1245,1828,0,0
28,-804,0,0,0,0,0,0,0,0,0,-1,1252,1828,0,0
35,-804,2.59485,23.7059,-0.122683,-0.00420083,0.0593608,0.0204223,-0.147306,1.17759,0.105672,0.0431724,1259,1828,2.59487,-23.7059
42,-804,1.94202,24.4421,-0.116272,-0.00121387,0.0671126,0.0296522,-0.147138,1.13973,0.109325,0.0445358,1266,1828,1.94201,-24.4421
49,-804,0.956177,25.4296,-0.111964,0.00122571,0.0723097,0.036455,-0.147193,1.11744,0.112271,0.0438774,1273,1828,0.956202,-25.4295
56,-804,0.400146,26.0588,-0.107034,0.00202076,0.0742667,0.0396279,-0.144641,1.10206,0.111999,0.0456202,1280,1828,0.400112,-26.0589
63,-804,-0.446533,26.6754,-0.100724,0.00043465,0.0729553,0.0386288,-0.138919,1.0885,0.10782,0.0477112,1287,1828,-0.446514,-26.6754
70,-804,-1.89526,28.2434,-0.0920243,-0.00295591,0.0698029,0.0353093,-0.130289,1.06934,0.100714,0.0433802,1294,1828,-1.89529,-28.2434
77,-804,-2.65283,28.0526,-0.0795923,-0.0111653,0.0655757,0.0285856,-0.119343,1.02584,0.0906064,0.041374,1301,1828,-2.65279,-28.0526
84,-804,-3.50134,28.0104,-0.0630251,-0.0224732,0.0589809,0.0196196,-0.105118,0.950956,0.0774512,0.0420008,1308,1828,-3.50135,-28.0104
91,-804,0,0,0,0,0,0,0,0,0,-1,1315,1828,0,0
98,-804,0,0,0,0,0,0,0,0,0,-1,1322,1828,0,0
105,-804,0,0,0,0,0,0,0,0,0,-1,1329,1828,0,0
112,-804,0,0,0,0,0,0,0,0,0,-1,1336,1828,0,0
119,-804,0,0,0,0,0,0,0,0,0,-1,1343,1828,0,0
126,-804,0,0,0,0,0,0,0,0,0,-1,1350,1828,0,0
133,-804,0,0,0,0,0,0,0,0,0,-1,1357,1828,0,0
140,-804,0,0,0,0,0,0,0,0,0,-1,1364,1828,0,0
147,-804,0,0,0,0,0,0,0,0,0,-1,1371,1828,0,0
154,-804,0,0,0,0,0,0,0,0,0,-1,1378,1828,0,0
161,-804,0,0,0,0,0,0,0,0,0,-1,1385,1828,0,0
168,-804,0,0,0,0,0,0,0,0,0,-1,1392,1828,0,0
175,-804,0,0,0,0,0,0,0,0,0,-1,1399,1828,0,0
182,-804,0,0,0,0,0,0,0,0,0,-1,1406,1828,0,0
189,-804,0,0,0,0,0,0,0,0,0,-1,1413,1828,0,0
196,-804,0,0,0,0,0,0,0,0,0,-1,1420,1828,0,0
203,-804,0,0,0,0,0,0,0,0,0,-1,1427,1828,0,0
210,-804,0,0,0,0,0,0,0,0,0,-1,1434,1828,0,0
217,-804,0,0,0,0,0,0,0,0,0,-1,1441,1828,0,0
224,-804,0,0,0,0,0,0,0,0,0,-1,1448,1828,0,0
231,-804,0,0,0,0,0,0,0,0,0,-1,1455,1828,0,0
238,-804,0,0,0,0,0,0,0,0,0,-1,1462,1828,0,0
245,-804,0,0,0,0,0,0,0,0,0,-1,1469,1828,0,0
252,-804,0,0,0,0,0,0,0,0,0,-1,1476,1828,0,0
259,-804,0,0,0,0,0,0,0,0,0,-1,1483,1828,0,0
266,-804,0,0,0,0,0,0,0,0,0,-1,1490,1828,0,0
273,-804,0,0,0,0,0,0,0,0,0,-1,1497,1828,0,0
280,-804,0,0,0,0,0,0,0,0,0,-1,1504,1828,0,0
287,-804,0,0,0,0,0,0,0,0,0,-1,1511,1828,0,0
294,-804,0,0,0,0,0,0,0,0,0,-1,1518,1828,0,0
301,-804,0,0,0,0,0,0,0,0,0,-1,1525,1828,0,0
308,-804,0,0,0,0,0,0,0,0,0,-1,1532,1828,0,0
315,-804,0,0,0,0,0,0,0,0,0,-1,1539,1828,0,0
322,-804,0,0,0,0,0,0,0,0,0,-1,1546,1828,0,0
329,-804,0,0,0,0,0,0,0,0,0,-1,1553,1828,0,0
336,-804,0,0,0,0,0,0,0,0,0,-1,1560,1828,0,0
343,-804,0,0,0,0,0,0,0,0,0,-1,1567,1828,0,0
350,-804,0,0,0,0,0,0,0,0,0,-1,1574,1828,0,0
357,-804,0,0,0,0,0,0,0,0,0,-1,1581,1828,0,0
364,-804,0,0,0,0,0,0,0,0,0,-1,1588,1828,0,0
371,-804,0,0,0,0,0,0,0,0,0,-1,1595,1828,0,0
378,-804,0,0,0,0,0,0,0,0,0,-1,1602,1828,0,0
385,-804,0,0,0,0,0,0,0,0,0,-1,1609,1828,0,0
392,-804,0,0,0,0,0,0,0,0,0,-1,1616,1828,0,0
399,-804,0,0,0,0,0,0,0,0,0,-1,1623,1828,0,0
406,-804,0,0,0,0,0,0,0,0,0,-1,1630,1828,0,0
413,-804,0,0,0,0,0,0,0,0,0,-1,1637,1828,0,0
420,-804,0,0,0,0,0,0,0,0,0,-1,1644,1828,0,0
427,-804,0,0,0,0,0,0,0,0,0,-1,1651,1828,0,0
434,-804,0,0,0,0,0,0,0,0,0,-1,1658,1828,0,0
441,-804,0,0,0,0,0,0,0,0,0,-1,1665,1828,0,0
448,-804,0,0,0,0,0,0,0,0,0,-1,1672,1828,0,0
455,-804,0,0,0,0,0,0,0,0,0,-1,1679,1828,0,0
462,-804,0,0,0,0,0,0,0,0,0,-1,1686,1828,0,0
469,-804,0,0,0,0,0,0,0,0,0,-1,1693,1828,0,0
476,-804,0,0,0,0,0,0,0,0,0,-1,1700,1828,0,0
483,-804,0,0,0,0,0,0,0,0,0,-1,1707,1828,0,0
490,-804,0,0,0,0,0,0,0,0,0,-1,1714,1828,0,0
497,-804,0,0,0,0,0,0,0,0,0,-1,1721,1828,0,0
504,-804,0,0,0,0,0,0,0,0,0,-1,1728,1828,0,0
511,-804,0,0,0,0,0,0,0,0,0,-1,1735,1828,0,0
518,-804,0,0,0,0,0,0,0,0,0,-1,1742,1828,0,0
525,-804,0,0,0,0,0,0,0,0,0,-1,1749,1828,0,0
532,-804,0,0,0,0,0,0,0,0,0,-1,1756,1828,0,0
539,-804,0,0,0,0,0,0,0,0,0,-1,1763,1828,0,0
546,-804,0,0,0,0,0,0,0,0,0,-1,1770,1828,0,0
553,-804,0,0,0,0,0,0,0,0,0,-1,1777,1828,0,0
560,-804,0,0,0,0,0,0,0,0,0,-1,1784,1828,0,0
567,-804,0,0,0,0,0,0,0,0,0,-1,1791,1828,0,0
574,-804,0,0,0,0,0,0,0,0,0,-1,1798,1828,0,0
581,-804,0,0,0,0,0,0,0,0,0,-1,1805,1828,0,0
588,-804,0,0,0,0,0,0,0,0,0,-1,1812,1828,0,0
595,-804,0,0,0,0,0,0,0,0,0,-1,1819,1828,0,0
602,-804,0,0,0,0,0,0,0,0,0,-1,1826,1828,0,0
609,-804,0,0,0,0,0,0,0,0,0,-1,1833,1828,0,0
616,-804,0,0,0,0,0,0,0,0,0,-1,1840,1828,0,0
623,-804,0,0,0,0,0,0,0,0,0,-1,1847,1828,0,0
630,-804,0,0,0,0,0,0,0,0,0,-1,1854,1828,0,0
637,-804,0,0,0,0,0,0,0,0,0,-1,1861,1828,0,0
644,-804,0,0,0,0,0,0,0,0,0,-1,1868,1828,0,0
651,-804,0,0,0,0,0,0,0,0,0,-1,1875,1828,0,0
658,-804,0,0,0,0,0,0,0,0,0,-1,1882,1828,0,0
665,-804,0,0,0,0,0,0,0,0,0,-1,1889,1828,0,0
672,-804,0,0,0,0,0,0,0,0,0,-1,1896,1828,0,0
679,-804,0,0,0,0,0,0,0,0,0,-1,1903,1828,0,0
686,-804,0,0,0,0,0,0,0,0,0,-1,1910,1828,0,0
693,-804,0,0,0,0,0,0,0,0,0,-1,1917,1828,0,0
700,-804,0,0,0,0,0,0,0,0,0,-1,1924,1828,0,0
707,-804,0,0,0,0,0,0,0,0,0,-1,1931,1828,0,0
714,-804,0,0,0,0,0,0,0,0,0,-1,1938,1828,0,0
721,-804,0,0,0,0,0,0,0,0,0,-1,1945,1828,0,0
728,-804,0,0,0,0,0,0,0,0,0,-1,1952,1828,0,0
735,-804,0,0,0,0,0,0,0,0,0,-1,1959,1828,0,0
742,-804,0,0,0,0,0,0,0,0,0,-1,1966,1828,0,0
749,-804,0,0,0,0,0,0,0,0,0,-1,1973,1828,0,0
756,-804,0,0,0,0,0,0,0,0,0,-1,1980,1828,0,0
763,-804,0,0,0,0,0,0,0,0,0,-1,1987,1828,0,0
770,-804,0,0,0,0,0,0,0,0,0,-1,1994,1828,0,0
777,-804,0,0,0,0,0,0,0,0,0,-1,2001,1828,0,0
784,-804,0,0,0,0,0,0,0,0,0,-1,2008,1828,0,0
791,-804,0,0,0,0,0,0,0,0,0,-1,2015,1828,0,0
798,-804,0,0,0,0,0,0,0,0,0,-1,2022,1828,0,0
805,-804,0,0,0,0,0,0,0,0,0,-1,2029,1828,0,0
812,-804,0,0,0,0,0,0,0,0,0,-1,2036,1828,0,0

